 "x_c",  "y_c",  "u_c",  "v_c",  "exx",  "eyy",  "exy",  "e1",  "e2",  "gamma",  "e_vonmises",  "sigma",  "x",  "y",  "u",  "v"
-700,715,0,0,0,0,0,0,0,0,0,-1,524,309,0,0
-693,715,0,0,0,0,0,0,0,0,0,-1,531,309,0,0
-686,715,0,0,0,0,0,0,0,0,0,-1,538,309,0,0
-679,715,0,0,0,0,0,0,0,0,0,-1,545,309,0,0
-672,715,0,0,0,0,0,0,0,0,0,-1,552,309,0,0
-665,715,0,0,0,0,0,0,0,0,0,-1,559,309,0,0
-658,715,0,0,0,0,0,0,0,0,0,-1,566,309,0,0
-651,715,0,0,0,0,0,0,0,0,0,-1,573,309,0,0
-644,715,0,0,0,0,0,0,0,0,0,-1,580,309,0,0
-637,715,0,0,0,0,0,0,0,0,0,-1,587,309,0,0
-630,715,0,0,0,0,0,0,0,0,0,-1,594,309,0,0
-623,715,0,0,0,0,0,0,0,0,0,-1,601,309,0,0
-616,715,0,0,0,0,0,0,0,0,0,-1,608,309,0,0
-609,715,0,0,0,0,0,0,0,0,0,-1,615,309,0,0
-602,715,0,0,0,0,0,0,0,0,0,-1,622,309,0,0
-595,715,0,0,0,0,0,0,0,0,0,-1,629,309,0,0
-588,715,0,0,0,0,0,0,0,0,0,-1,636,309,0,0
-581,715,0,0,0,0,0,0,0,0,0,-1,643,309,0,0
-574,715,0,0,0,0,0,0,0,0,0,-1,650,309,0,0
-567,715,0,0,0,0,0,0,0,0,0,-1,657,309,0,0
-560,715,0,0,0,0,0,0,0,0,0,-1,664,309,0,0
-553,715,0,0,0,0,0,0,0,0,0,-1,671,309,0,0
-546,715,0,0,0,0,0,0,0,0,0,-1,678,309,0,0
-539,715,0,0,0,0,0,0,0,0,0,-1,685,309,0,0
-532,715,0,0,0,0,0,0,0,0,0,-1,692,309,0,0
-525,715,0,0,0,0,0,0,0,0,0,-1,699,309,0,0
-518,715,0,0,0,0,0,0,0,0,0,-1,706,309,0,0
-511,715,0,0,0,0,0,0,0,0,0,-1,713,309,0,0
-504,715,0,0,0,0,0,0,0,0,0,-1,720,309,0,0
-497,715,0,0,0,0,0,0,0,0,0,-1,727,309,0,0
-490,715,0,0,0,0,0,0,0,0,0,-1,734,309,0,0
-483,715,0,0,0,0,0,0,0,0,0,-1,741,309,0,0
-476,715,0,0,0,0,0,0,0,0,0,-1,748,309,0,0
-469,715,0,0,0,0,0,0,0,0,0,-1,755,309,0,0
-462,715,0,0,0,0,0,0,0,0,0,-1,762,309,0,0
-455,715,0,0,0,0,0,0,0,0,0,-1,769,309,0,0
-448,715,0,0,0,0,0,0,0,0,0,-1,776,309,0,0
-441,715,0,0,0,0,0,0,0,0,0,-1,783,309,0,0
-434,715,0,0,0,0,0,0,0,0,0,-1,790,309,0,0
-427,715,0,0,0,0,0,0,0,0,0,-1,797,309,0,0
-420,715,0,0,0,0,0,0,0,0,0,-1,804,309,0,0
-413,715,0,0,0,0,0,0,0,0,0,-1,811,309,0,0
-406,715,0,0,0,0,0,0,0,0,0,-1,818,309,0,0
-399,715,0,0,0,0,0,0,0,0,0,-1,825,309,0,0
-392,715,0,0,0,0,0,0,0,0,0,-1,832,309,0,0
-385,715,0,0,0,0,0,0,0,0,0,-1,839,309,0,0
-378,715,0,0,0,0,0,0,0,0,0,-1,846,309,0,0
-371,715,0,0,0,0,0,0,0,0,0,-1,853,309,0,0
-364,715,0,0,0,0,0,0,0,0,0,-1,860,309,0,0
-357,715,0,0,0,0,0,0,0,0,0,-1,867,309,0,0
-350,715,0,0,0,0,0,0,0,0,0,-1,874,309,0,0
-343,715,0,0,0,0,0,0,0,0,0,-1,881,309,0,0
-336,715,0,0,0,0,0,0,0,0,0,-1,888,309,0,0
-329,715,0,0,0,0,0,0,0,0,0,-1,895,309,0,0
-322,715,0,0,0,0,0,0,0,0,0,-1,902,309,0,0
-315,715,0,0,0,0,0,0,0,0,0,-1,909,309,0,0
-308,715,0,0,0,0,0,0,0,0,0,-1,916,309,0,0
-301,715,0,0,0,0,0,0,0,0,0,-1,923,309,0,0
-294,715,0,0,0,0,0,0,0,0,0,-1,930,309,0,0
-287,715,0,0,0,0,0,0,0,0,0,-1,937,309,0,0
-280,715,0,0,0,0,0,0,0,0,0,-1,944,309,0,0
-273,715,0,0,0,0,0,0,0,0,0,-1,951,309,0,0
-266,715,0,0,0,0,0,0,0,0,0,-1,958,309,0,0
-259,715,0,0,0,0,0,0,0,0,0,-1,965,309,0,0
-252,715,0,0,0,0,0,0,0,0,0,-1,972,309,0,0
-245,715,0,0,0,0,0,0,0,0,0,-1,979,309,0,0
-238,715,0,0,0,0,0,0,0,0,0,-1,986,309,0,0
-231,715,0,0,0,0,0,0,0,0,0,-1,993,309,0,0
-224,715,0,0,0,0,0,0,0,0,0,-1,1000,309,0,0
-217,715,0,0,0,0,0,0,0,0,0,-1,1007,309,0,0
-210,715,0,0,0,0,0,0,0,0,0,-1,1014,309,0,0
-203,715,0,0,0,0,0,0,0,0,0,-1,1021,309,0,0
-196,715,0,0,0,0,0,0,0,0,0,-1,1028,309,0,0
-189,715,0,0,0,0,0,0,0,0,0,-1,1035,309,0,0
-182,715,0,0,0,0,0,0,0,0,0,-1,1042,309,0,0
-175,715,0,0,0,0,0,0,0,0,0,-1,1049,309,0,0
-168,715,0,0,0,0,0,0,0,0,0,-1,1056,309,0,0
-161,715,0,0,0,0,0,0,0,0,0,-1,1063,309,0,0
-154,715,0,0,0,0,0,0,0,0,0,-1,1070,309,0,0
-147,715,0,0,0,0,0,0,0,0,0,-1,1077,309,0,0
-140,715,0,0,0,0,0,0,0,0,0,-1,1084,309,0,0
-133,715,0,0,0,0,0,0,0,0,0,-1,1091,309,0,0
-126,715,0,0,0,0,0,0,0,0,0,-1,1098,309,0,0
-119,715,0,0,0,0,0,0,0,0,0,-1,1105,309,0,0
-112,715,0,0,0,0,0,0,0,0,0,-1,1112,309,0,0
-105,715,0,0,0,0,0,0,0,0,0,-1,1119,309,0,0
-98,715,0,0,0,0,0,0,0,0,0,-1,1126,309,0,0
-91,715,0,0,0,0,0,0,0,0,0,-1,1133,309,0,0
-84,715,0,0,0,0,0,0,0,0,0,-1,1140,309,0,0
-77,715,0,0,0,0,0,0,0,0,0,-1,1147,309,0,0
-70,715,0,0,0,0,0,0,0,0,0,-1,1154,309,0,0
-63,715,0,0,0,0,0,0,0,0,0,-1,1161,309,0,0
-56,715,0,0,0,0,0,0,0,0,0,-1,1168,309,0,0
-49,715,0,0,0,0,0,0,0,0,0,-1,1175,309,0,0
-42,715,0,0,0,0,0,0,0,0,0,-1,1182,309,0,0
-35,715,0,0,0,0,0,0,0,0,0,-1,1189,309,0,0
-28,715,0,0,0,0,0,0,0,0,0,-1,1196,309,0,0
-21,715,0,0,0,0,0,0,0,0,0,-1,1203,309,0,0
-14,715,0,0,0,0,0,0,0,0,0,-1,1210,309,0,0
-7,715,0,0,0,0,0,0,0,0,0,-1,1217,309,0,0
0,715,0,0,0,0,0,0,0,0,0,-1,1224,309,0,0
7,715,0,0,0,0,0,0,0,0,0,-1,1231,309,0,0
14,715,0,0,0,0,0,0,0,0,0,-1,1238,309,0,0
21,715,0,0,0,0,0,0,0,0,0,-1,1245,309,0,0
28,715,0,0,0,0,0,0,0,0,0,-1,1252,309,0,0
35,715,0,0,0,0,0,0,0,0,0,-1,1259,309,0,0
42,715,0,0,0,0,0,0,0,0,0,-1,1266,309,0,0
49,715,0,0,0,0,0,0,0,0,0,-1,1273,309,0,0
56,715,0,0,0,0,0,0,0,0,0,-1,1280,309,0,0
63,715,-3.89478,4.53146,-0.0179774,-0.0172904,0.102456,0.0848229,-0.120091,0.787075,0.11889,0.046306,1287,309,-3.89476,-4.53147
70,715,-4.1875,6.90018,-0.0157386,-0.0216462,0.0993537,0.0807052,-0.11809,0.770537,0.115449,0.0464241,1294,309,-4.18748,-6.90018
77,715,0,0,0,0,0,0,0,0,0,-1,1301,309,0,0
84,715,0,0,0,0,0,0,0,0,0,-1,1308,309,0,0
91,715,0,0,0,0,0,0,0,0,0,-1,1315,309,0,0
98,715,0,0,0,0,0,0,0,0,0,-1,1322,309,0,0
105,715,0,0,0,0,0,0,0,0,0,-1,1329,309,0,0
112,715,0,0,0,0,0,0,0,0,0,-1,1336,309,0,0
119,715,0,0,0,0,0,0,0,0,0,-1,1343,309,0,0
126,715,0,0,0,0,0,0,0,0,0,-1,1350,309,0,0
133,715,0,0,0,0,0,0,0,0,0,-1,1357,309,0,0
140,715,0,0,0,0,0,0,0,0,0,-1,1364,309,0,0
147,715,0,0,0,0,0,0,0,0,0,-1,1371,309,0,0
154,715,0,0,0,0,0,0,0,0,0,-1,1378,309,0,0
161,715,0,0,0,0,0,0,0,0,0,-1,1385,309,0,0
168,715,0,0,0,0,0,0,0,0,0,-1,1392,309,0,0
175,715,0,0,0,0,0,0,0,0,0,-1,1399,309,0,0
182,715,0,0,0,0,0,0,0,0,0,-1,1406,309,0,0
189,715,0,0,0,0,0,0,0,0,0,-1,1413,309,0,0
196,715,0,0,0,0,0,0,0,0,0,-1,1420,309,0,0
203,715,0,0,0,0,0,0,0,0,0,-1,1427,309,0,0
210,715,0,0,0,0,0,0,0,0,0,-1,1434,309,0,0
217,715,0,0,0,0,0,0,0,0,0,-1,1441,309,0,0
224,715,0,0,0,0,0,0,0,0,0,-1,1448,309,0,0
231,715,0,0,0,0,0,0,0,0,0,-1,1455,309,0,0
238,715,0,0,0,0,0,0,0,0,0,-1,1462,309,0,0
245,715,0,0,0,0,0,0,0,0,0,-1,1469,309,0,0
252,715,0,0,0,0,0,0,0,0,0,-1,1476,309,0,0
259,715,0,0,0,0,0,0,0,0,0,-1,1483,309,0,0
266,715,0,0,0,0,0,0,0,0,0,-1,1490,309,0,0
273,715,0,0,0,0,0,0,0,0,0,-1,1497,309,0,0
280,715,0,0,0,0,0,0,0,0,0,-1,1504,309,0,0
287,715,0,0,0,0,0,0,0,0,0,-1,1511,309,0,0
294,715,0,0,0,0,0,0,0,0,0,-1,1518,309,0,0
301,715,0,0,0,0,0,0,0,0,0,-1,1525,309,0,0
308,715,0,0,0,0,0,0,0,0,0,-1,1532,309,0,0
315,715,0,0,0,0,0,0,0,0,0,-1,1539,309,0,0
322,715,0,0,0,0,0,0,0,0,0,-1,1546,309,0,0
329,715,0,0,0,0,0,0,0,0,0,-1,1553,309,0,0
336,715,0,0,0,0,0,0,0,0,0,-1,1560,309,0,0
343,715,0,0,0,0,0,0,0,0,0,-1,1567,309,0,0
350,715,0,0,0,0,0,0,0,0,0,-1,1574,309,0,0
357,715,0,0,0,0,0,0,0,0,0,-1,1581,309,0,0
364,715,0,0,0,0,0,0,0,0,0,-1,1588,309,0,0
371,715,0,0,0,0,0,0,0,0,0,-1,1595,309,0,0
378,715,0,0,0,0,0,0,0,0,0,-1,1602,309,0,0
385,715,0,0,0,0,0,0,0,0,0,-1,1609,309,0,0
392,715,0,0,0,0,0,0,0,0,0,-1,1616,309,0,0
399,715,0,0,0,0,0,0,0,0,0,-1,1623,309,0,0
406,715,0,0,0,0,0,0,0,0,0,-1,1630,309,0,0
413,715,0,0,0,0,0,0,0,0,0,-1,1637,309,0,0
420,715,0,0,0,0,0,0,0,0,0,-1,1644,309,0,0
427,715,0,0,0,0,0,0,0,0,0,-1,1651,309,0,0
434,715,0,0,0,0,0,0,0,0,0,-1,1658,309,0,0
441,715,0,0,0,0,0,0,0,0,0,-1,1665,309,0,0
448,715,0,0,0,0,0,0,0,0,0,-1,1672,309,0,0
455,715,0,0,0,0,0,0,0,0,0,-1,1679,309,0,0
462,715,0,0,0,0,0,0,0,0,0,-1,1686,309,0,0
469,715,0,0,0,0,0,0,0,0,0,-1,1693,309,0,0
476,715,0,0,0,0,0,0,0,0,0,-1,1700,309,0,0
483,715,0,0,0,0,0,0,0,0,0,-1,1707,309,0,0
490,715,0,0,0,0,0,0,0,0,0,-1,1714,309,0,0
497,715,0,0,0,0,0,0,0,0,0,-1,1721,309,0,0
504,715,0,0,0,0,0,0,0,0,0,-1,1728,309,0,0
511,715,0,0,0,0,0,0,0,0,0,-1,1735,309,0,0
518,715,0,0,0,0,0,0,0,0,0,-1,1742,309,0,0
525,715,0,0,0,0,0,0,0,0,0,-1,1749,309,0,0
532,715,0,0,0,0,0,0,0,0,0,-1,1756,309,0,0
539,715,0,0,0,0,0,0,0,0,0,-1,1763,309,0,0
546,715,0,0,0,0,0,0,0,0,0,-1,1770,309,0,0
553,715,0,0,0,0,0,0,0,0,0,-1,1777,309,0,0
560,715,0,0,0,0,0,0,0,0,0,-1,1784,309,0,0
567,715,0,0,0,0,0,0,0,0,0,-1,1791,309,0,0
574,715,0,0,0,0,0,0,0,0,0,-1,1798,309,0,0
581,715,0,0,0,0,0,0,0,0,0,-1,1805,309,0,0
588,715,0,0,0,0,0,0,0,0,0,-1,1812,309,0,0
595,715,0,0,0,0,0,0,0,0,0,-1,1819,309,0,0
602,715,0,0,0,0,0,0,0,0,0,-1,1826,309,0,0
609,715,0,0,0,0,0,0,0,0,0,-1,1833,309,0,0
616,715,0,0,0,0,0,0,0,0,0,-1,1840,309,0,0
623,715,0,0,0,0,0,0,0,0,0,-1,1847,309,0,0
630,715,0,0,0,0,0,0,0,0,0,-1,1854,309,0,0
637,715,0,0,0,0,0,0,0,0,0,-1,1861,309,0,0
644,715,0,0,0,0,0,0,0,0,0,-1,1868,309,0,0
651,715,0,0,0,0,0,0,0,0,0,-1,1875,309,0,0
658,715,0,0,0,0,0,0,0,0,0,-1,1882,309,0,0
665,715,0,0,0,0,0,0,0,0,0,-1,1889,309,0,0
672,715,0,0,0,0,0,0,0,0,0,-1,1896,309,0,0
679,715,0,0,0,0,0,0,0,0,0,-1,1903,309,0,0
686,715,0,0,0,0,0,0,0,0,0,-1,1910,309,0,0
693,715,0,0,0,0,0,0,0,0,0,-1,1917,309,0,0
700,715,0,0,0,0,0,0,0,0,0,-1,1924,309,0,0
707,715,0,0,0,0,0,0,0,0,0,-1,1931,309,0,0
714,715,0,0,0,0,0,0,0,0,0,-1,1938,309,0,0
721,715,0,0,0,0,0,0,0,0,0,-1,1945,309,0,0
728,715,0,0,0,0,0,0,0,0,0,-1,1952,309,0,0
735,715,0,0,0,0,0,0,0,0,0,-1,1959,309,0,0
742,715,0,0,0,0,0,0,0,0,0,-1,1966,309,0,0
749,715,0,0,0,0,0,0,0,0,0,-1,1973,309,0,0
756,715,0,0,0,0,0,0,0,0,0,-1,1980,309,0,0
763,715,0,0,0,0,0,0,0,0,0,-1,1987,309,0,0
770,715,0,0,0,0,0,0,0,0,0,-1,1994,309,0,0
777,715,0,0,0,0,0,0,0,0,0,-1,2001,309,0,0
784,715,0,0,0,0,0,0,0,0,0,-1,2008,309,0,0
791,715,0,0,0,0,0,0,0,0,0,-1,2015,309,0,0
798,715,0,0,0,0,0,0,0,0,0,-1,2022,309,0,0
805,715,0,0,0,0,0,0,0,0,0,-1,2029,309,0,0
812,715,0,0,0,0,0,0,0,0,0,-1,2036,309,0,0
-700,708,0,0,0,0,0,0,0,0,0,-1,524,316,0,0
-693,708,0,0,0,0,0,0,0,0,0,-1,531,316,0,0
-686,708,0,0,0,0,0,0,0,0,0,-1,538,316,0,0
-679,708,0,0,0,0,0,0,0,0,0,-1,545,316,0,0
-672,708,0,0,0,0,0,0,0,0,0,-1,552,316,0,0
-665,708,0,0,0,0,0,0,0,0,0,-1,559,316,0,0
-658,708,0,0,0,0,0,0,0,0,0,-1,566,316,0,0
-651,708,0,0,0,0,0,0,0,0,0,-1,573,316,0,0
-644,708,0,0,0,0,0,0,0,0,0,-1,580,316,0,0
-637,708,0,0,0,0,0,0,0,0,0,-1,587,316,0,0
-630,708,0,0,0,0,0,0,0,0,0,-1,594,316,0,0
-623,708,0,0,0,0,0,0,0,0,0,-1,601,316,0,0
-616,708,0,0,0,0,0,0,0,0,0,-1,608,316,0,0
-609,708,0,0,0,0,0,0,0,0,0,-1,615,316,0,0
-602,708,0,0,0,0,0,0,0,0,0,-1,622,316,0,0
-595,708,0,0,0,0,0,0,0,0,0,-1,629,316,0,0
-588,708,0,0,0,0,0,0,0,0,0,-1,636,316,0,0
-581,708,0,0,0,0,0,0,0,0,0,-1,643,316,0,0
-574,708,0,0,0,0,0,0,0,0,0,-1,650,316,0,0
-567,708,0,0,0,0,0,0,0,0,0,-1,657,316,0,0
-560,708,0,0,0,0,0,0,0,0,0,-1,664,316,0,0
-553,708,0,0,0,0,0,0,0,0,0,-1,671,316,0,0
-546,708,0,0,0,0,0,0,0,0,0,-1,678,316,0,0
-539,708,0,0,0,0,0,0,0,0,0,-1,685,316,0,0
-532,708,0,0,0,0,0,0,0,0,0,-1,692,316,0,0
-525,708,0,0,0,0,0,0,0,0,0,-1,699,316,0,0
-518,708,0,0,0,0,0,0,0,0,0,-1,706,316,0,0
-511,708,0,0,0,0,0,0,0,0,0,-1,713,316,0,0
-504,708,0,0,0,0,0,0,0,0,0,-1,720,316,0,0
-497,708,0,0,0,0,0,0,0,0,0,-1,727,316,0,0
-490,708,0,0,0,0,0,0,0,0,0,-1,734,316,0,0
-483,708,0,0,0,0,0,0,0,0,0,-1,741,316,0,0
-476,708,0,0,0,0,0,0,0,0,0,-1,748,316,0,0
-469,708,0,0,0,0,0,0,0,0,0,-1,755,316,0,0
-462,708,0,0,0,0,0,0,0,0,0,-1,762,316,0,0
-455,708,0,0,0,0,0,0,0,0,0,-1,769,316,0,0
-448,708,0,0,0,0,0,0,0,0,0,-1,776,316,0,0
-441,708,0,0,0,0,0,0,0,0,0,-1,783,316,0,0
-434,708,0,0,0,0,0,0,0,0,0,-1,790,316,0,0
-427,708,0,0,0,0,0,0,0,0,0,-1,797,316,0,0
-420,708,0,0,0,0,0,0,0,0,0,-1,804,316,0,0
-413,708,0,0,0,0,0,0,0,0,0,-1,811,316,0,0
-406,708,0,0,0,0,0,0,0,0,0,-1,818,316,0,0
-399,708,0,0,0,0,0,0,0,0,0,-1,825,316,0,0
-392,708,0,0,0,0,0,0,0,0,0,-1,832,316,0,0
-385,708,0,0,0,0,0,0,0,0,0,-1,839,316,0,0
-378,708,0,0,0,0,0,0,0,0,0,-1,846,316,0,0
-371,708,0,0,0,0,0,0,0,0,0,-1,853,316,0,0
-364,708,0,0,0,0,0,0,0,0,0,-1,860,316,0,0
-357,708,0,0,0,0,0,0,0,0,0,-1,867,316,0,0
-350,708,0,0,0,0,0,0,0,0,0,-1,874,316,0,0
-343,708,0,0,0,0,0,0,0,0,0,-1,881,316,0,0
-336,708,0,0,0,0,0,0,0,0,0,-1,888,316,0,0
-329,708,0,0,0,0,0,0,0,0,0,-1,895,316,0,0
-322,708,0,0,0,0,0,0,0,0,0,-1,902,316,0,0
-315,708,0,0,0,0,0,0,0,0,0,-1,909,316,0,0
-308,708,0,0,0,0,0,0,0,0,0,-1,916,316,0,0
-301,708,0,0,0,0,0,0,0,0,0,-1,923,316,0,0
-294,708,0,0,0,0,0,0,0,0,0,-1,930,316,0,0
-287,708,0,0,0,0,0,0,0,0,0,-1,937,316,0,0
-280,708,0,0,0,0,0,0,0,0,0,-1,944,316,0,0
-273,708,0,0,0,0,0,0,0,0,0,-1,951,316,0,0
-266,708,0,0,0,0,0,0,0,0,0,-1,958,316,0,0
-259,708,0,0,0,0,0,0,0,0,0,-1,965,316,0,0
-252,708,0,0,0,0,0,0,0,0,0,-1,972,316,0,0
-245,708,0,0,0,0,0,0,0,0,0,-1,979,316,0,0
-238,708,0,0,0,0,0,0,0,0,0,-1,986,316,0,0
-231,708,0,0,0,0,0,0,0,0,0,-1,993,316,0,0
-224,708,0,0,0,0,0,0,0,0,0,-1,1000,316,0,0
-217,708,0,0,0,0,0,0,0,0,0,-1,1007,316,0,0
-210,708,0,0,0,0,0,0,0,0,0,-1,1014,316,0,0
-203,708,0,0,0,0,0,0,0,0,0,-1,1021,316,0,0
-196,708,0,0,0,0,0,0,0,0,0,-1,1028,316,0,0
-189,708,0,0,0,0,0,0,0,0,0,-1,1035,316,0,0
-182,708,0,0,0,0,0,0,0,0,0,-1,1042,316,0,0
-175,708,0,0,0,0,0,0,0,0,0,-1,1049,316,0,0
-168,708,0,0,0,0,0,0,0,0,0,-1,1056,316,0,0
-161,708,0,0,0,0,0,0,0,0,0,-1,1063,316,0,0
-154,708,0,0,0,0,0,0,0,0,0,-1,1070,316,0,0
-147,708,0,0,0,0,0,0,0,0,0,-1,1077,316,0,0
-140,708,0,0,0,0,0,0,0,0,0,-1,1084,316,0,0
-133,708,0,0,0,0,0,0,0,0,0,-1,1091,316,0,0
-126,708,0,0,0,0,0,0,0,0,0,-1,1098,316,0,0
-119,708,0,0,0,0,0,0,0,0,0,-1,1105,316,0,0
-112,708,0,0,0,0,0,0,0,0,0,-1,1112,316,0,0
-105,708,0,0,0,0,0,0,0,0,0,-1,1119,316,0,0
-98,708,0,0,0,0,0,0,0,0,0,-1,1126,316,0,0
-91,708,0,0,0,0,0,0,0,0,0,-1,1133,316,0,0
-84,708,0,0,0,0,0,0,0,0,0,-1,1140,316,0,0
-77,708,0,0,0,0,0,0,0,0,0,-1,1147,316,0,0
-70,708,0,0,0,0,0,0,0,0,0,-1,1154,316,0,0
-63,708,0,0,0,0,0,0,0,0,0,-1,1161,316,0,0
-56,708,0,0,0,0,0,0,0,0,0,-1,1168,316,0,0
-49,708,0,0,0,0,0,0,0,0,0,-1,1175,316,0,0
-42,708,0,0,0,0,0,0,0,0,0,-1,1182,316,0,0
-35,708,-0.122437,0.415924,0,0,0,0,0,0,0,-1,1189,316,-0.122477,-0.415937
-28,708,-0.0689697,-0.304565,0,0,0,0,0,0,0,-1,1196,316,-0.069019,0.304556
-21,708,0.549438,3.90741,0,0,0,0,0,0,0,-1,1203,316,0.549496,-3.90742
-14,708,1.41248,5.35519,0.0690932,0.103773,-0.00406716,0.104244,0.0686226,-1.4556,0.0611822,0.0466734,1210,316,1.41253,-5.35519
-7,708,2.09058,6.86273,0.0674899,0.110537,-0.00744464,0.111788,0.0662388,-1.40429,0.0649083,0.0474535,1217,316,2.09054,-6.86273
0,708,2.79321,8.39163,0,0,0,0,0,0,0,-1,1224,316,2.79317,-8.39162
7,708,-0.754761,1.24219,0,0,0,0,0,0,0,-1,1231,316,-0.754702,-1.24219
14,708,-0.822144,0.673279,0.0348268,0.0781056,0.00670732,0.0791213,0.0338111,1.42051,0.0458412,0.0447339,1238,316,-0.822089,-0.673291
21,708,-0.895996,0.0810852,0.0230546,0.0598393,0.0184286,0.0674833,0.0154106,1.17761,0.0408331,0.0447464,1245,316,-0.895951,-0.0810968
28,708,-0.332153,-0.71225,0,0,0,0,0,0,0,-1,1252,316,-0.332154,0.712261
35,708,-1.01453,-2.50507,0,0,0,0,0,0,0,-1,1259,316,-1.01455,2.50507
42,708,-1.70471,-0.716583,0,0,0,0,0,0,0,-1,1266,316,-1.70474,0.716593
49,708,-2.20752,1.03391,-0.0171098,-0.0115654,0.0752054,0.0609189,-0.0895941,0.803821,0.0874228,0.0455189,1273,316,-2.20754,-1.03391
56,708,-2.8009,2.77863,-0.0186467,-0.0160715,0.0806499,0.0633011,-0.0980193,0.79338,0.0938546,0.0465801,1280,316,-2.80087,-2.77862
63,708,-3.42468,4.61093,-0.0181921,-0.0170867,0.0793451,0.0617076,-0.0969864,0.788881,0.0923736,0.0440668,1287,316,-3.42473,-4.61093
70,708,-3.57922,6.9433,-0.0154695,-0.0195779,0.0742478,0.0567525,-0.0917999,0.771568,0.0865587,0.0429189,1294,316,-3.5792,-6.94328
77,708,-3.25195,8.79138,-0.0100875,-0.015076,0.0628345,0.0503022,-0.0754657,0.765561,0.073095,0.0418871,1301,316,-3.25192,-8.79137
84,708,-2.9259,-1.33185,0,0,0,0,0,0,0,-1,1308,316,-2.92586,1.33186
91,708,-3.0575,-0.802582,0,0,0,0,0,0,0,-1,1315,316,-3.05754,0.802567
98,708,-3.23096,-0.226044,0.0117679,0.00325837,-0.000908541,0.0118638,0.00316245,-0.105188,0.00709406,0.0476366,1322,316,-3.23092,0.226059
105,708,-3.95313,-0.212799,0.0202118,0.00911689,-0.022153,0.0375014,-0.00817273,-0.662714,0.0281238,0.0469711,1329,316,-3.95318,0.212791
112,708,-4.04919,-0.371277,0.0286517,0.0114138,-0.0422662,0.0631689,-0.0231033,-0.684817,0.0515686,0.0458891,1336,316,-4.04922,0.371285
119,708,-3.86145,-0.338654,0.0362992,0.0131048,-0.0618438,0.0876238,-0.0382198,-0.692713,0.0744988,0.0429143,1343,316,-3.86143,0.338643
126,708,-3.0918,-0.335754,0.0424325,0.0117287,-0.0764363,0.105043,-0.0508821,-0.686294,0.091816,0.0435214,1350,316,-3.09176,0.335747
133,708,-2.15479,-0.678619,0,0,0,0,0,0,0,-1,1357,316,-2.15474,0.678634
140,708,-0.814941,1.25586,0,0,0,0,0,0,0,-1,1364,316,-0.814898,-1.25586
147,708,-0.440674,0.937469,0,0,0,0,0,0,0,-1,1371,316,-0.440615,-0.937464
154,708,0,0,0,0,0,0,0,0,0,-1,1378,316,0,0
161,708,0,0,0,0,0,0,0,0,0,-1,1385,316,0,0
168,708,0,0,0,0,0,0,0,0,0,-1,1392,316,0,0
175,708,0,0,0,0,0,0,0,0,0,-1,1399,316,0,0
182,708,0,0,0,0,0,0,0,0,0,-1,1406,316,0,0
189,708,0,0,0,0,0,0,0,0,0,-1,1413,316,0,0
196,708,0,0,0,0,0,0,0,0,0,-1,1420,316,0,0
203,708,0,0,0,0,0,0,0,0,0,-1,1427,316,0,0
210,708,0,0,0,0,0,0,0,0,0,-1,1434,316,0,0
217,708,0,0,0,0,0,0,0,0,0,-1,1441,316,0,0
224,708,0,0,0,0,0,0,0,0,0,-1,1448,316,0,0
231,708,0,0,0,0,0,0,0,0,0,-1,1455,316,0,0
238,708,0,0,0,0,0,0,0,0,0,-1,1462,316,0,0
245,708,0,0,0,0,0,0,0,0,0,-1,1469,316,0,0
252,708,0,0,0,0,0,0,0,0,0,-1,1476,316,0,0
259,708,0,0,0,0,0,0,0,0,0,-1,1483,316,0,0
266,708,0,0,0,0,0,0,0,0,0,-1,1490,316,0,0
273,708,0,0,0,0,0,0,0,0,0,-1,1497,316,0,0
280,708,0,0,0,0,0,0,0,0,0,-1,1504,316,0,0
287,708,0,0,0,0,0,0,0,0,0,-1,1511,316,0,0
294,708,0,0,0,0,0,0,0,0,0,-1,1518,316,0,0
301,708,0,0,0,0,0,0,0,0,0,-1,1525,316,0,0
308,708,0,0,0,0,0,0,0,0,0,-1,1532,316,0,0
315,708,0,0,0,0,0,0,0,0,0,-1,1539,316,0,0
322,708,0,0,0,0,0,0,0,0,0,-1,1546,316,0,0
329,708,0,0,0,0,0,0,0,0,0,-1,1553,316,0,0
336,708,0,0,0,0,0,0,0,0,0,-1,1560,316,0,0
343,708,0,0,0,0,0,0,0,0,0,-1,1567,316,0,0
350,708,0,0,0,0,0,0,0,0,0,-1,1574,316,0,0
357,708,0,0,0,0,0,0,0,0,0,-1,1581,316,0,0
364,708,0,0,0,0,0,0,0,0,0,-1,1588,316,0,0
371,708,0,0,0,0,0,0,0,0,0,-1,1595,316,0,0
378,708,0,0,0,0,0,0,0,0,0,-1,1602,316,0,0
385,708,0,0,0,0,0,0,0,0,0,-1,1609,316,0,0
392,708,0,0,0,0,0,0,0,0,0,-1,1616,316,0,0
399,708,0,0,0,0,0,0,0,0,0,-1,1623,316,0,0
406,708,0,0,0,0,0,0,0,0,0,-1,1630,316,0,0
413,708,0,0,0,0,0,0,0,0,0,-1,1637,316,0,0
420,708,0,0,0,0,0,0,0,0,0,-1,1644,316,0,0
427,708,0,0,0,0,0,0,0,0,0,-1,1651,316,0,0
434,708,0,0,0,0,0,0,0,0,0,-1,1658,316,0,0
441,708,0,0,0,0,0,0,0,0,0,-1,1665,316,0,0
448,708,0,0,0,0,0,0,0,0,0,-1,1672,316,0,0
455,708,0,0,0,0,0,0,0,0,0,-1,1679,316,0,0
462,708,0,0,0,0,0,0,0,0,0,-1,1686,316,0,0
469,708,0,0,0,0,0,0,0,0,0,-1,1693,316,0,0
476,708,0,0,0,0,0,0,0,0,0,-1,1700,316,0,0
483,708,0,0,0,0,0,0,0,0,0,-1,1707,316,0,0
490,708,0,0,0,0,0,0,0,0,0,-1,1714,316,0,0
497,708,0,0,0,0,0,0,0,0,0,-1,1721,316,0,0
504,708,0,0,0,0,0,0,0,0,0,-1,1728,316,0,0
511,708,0,0,0,0,0,0,0,0,0,-1,1735,316,0,0
518,708,0,0,0,0,0,0,0,0,0,-1,1742,316,0,0
525,708,0,0,0,0,0,0,0,0,0,-1,1749,316,0,0
532,708,0,0,0,0,0,0,0,0,0,-1,1756,316,0,0
539,708,0,0,0,0,0,0,0,0,0,-1,1763,316,0,0
546,708,0,0,0,0,0,0,0,0,0,-1,1770,316,0,0
553,708,0,0,0,0,0,0,0,0,0,-1,1777,316,0,0
560,708,0,0,0,0,0,0,0,0,0,-1,1784,316,0,0
567,708,0,0,0,0,0,0,0,0,0,-1,1791,316,0,0
574,708,0,0,0,0,0,0,0,0,0,-1,1798,316,0,0
581,708,0,0,0,0,0,0,0,0,0,-1,1805,316,0,0
588,708,0,0,0,0,0,0,0,0,0,-1,1812,316,0,0
595,708,0,0,0,0,0,0,0,0,0,-1,1819,316,0,0
602,708,0,0,0,0,0,0,0,0,0,-1,1826,316,0,0
609,708,0,0,0,0,0,0,0,0,0,-1,1833,316,0,0
616,708,0,0,0,0,0,0,0,0,0,-1,1840,316,0,0
623,708,0,0,0,0,0,0,0,0,0,-1,1847,316,0,0
630,708,0,0,0,0,0,0,0,0,0,-1,1854,316,0,0
637,708,0,0,0,0,0,0,0,0,0,-1,1861,316,0,0
644,708,0,0,0,0,0,0,0,0,0,-1,1868,316,0,0
651,708,0,0,0,0,0,0,0,0,0,-1,1875,316,0,0
658,708,0,0,0,0,0,0,0,0,0,-1,1882,316,0,0
665,708,0,0,0,0,0,0,0,0,0,-1,1889,316,0,0
672,708,0,0,0,0,0,0,0,0,0,-1,1896,316,0,0
679,708,0,0,0,0,0,0,0,0,0,-1,1903,316,0,0
686,708,0,0,0,0,0,0,0,0,0,-1,1910,316,0,0
693,708,0,0,0,0,0,0,0,0,0,-1,1917,316,0,0
700,708,0,0,0,0,0,0,0,0,0,-1,1924,316,0,0
707,708,0,0,0,0,0,0,0,0,0,-1,1931,316,0,0
714,708,0,0,0,0,0,0,0,0,0,-1,1938,316,0,0
721,708,0,0,0,0,0,0,0,0,0,-1,1945,316,0,0
728,708,0,0,0,0,0,0,0,0,0,-1,1952,316,0,0
735,708,0,0,0,0,0,0,0,0,0,-1,1959,316,0,0
742,708,0,0,0,0,0,0,0,0,0,-1,1966,316,0,0
749,708,0,0,0,0,0,0,0,0,0,-1,1973,316,0,0
756,708,0,0,0,0,0,0,0,0,0,-1,1980,316,0,0
763,708,0,0,0,0,0,0,0,0,0,-1,1987,316,0,0
770,708,0,0,0,0,0,0,0,0,0,-1,1994,316,0,0
777,708,0,0,0,0,0,0,0,0,0,-1,2001,316,0,0
784,708,0,0,0,0,0,0,0,0,0,-1,2008,316,0,0
791,708,0,0,0,0,0,0,0,0,0,-1,2015,316,0,0
798,708,0,0,0,0,0,0,0,0,0,-1,2022,316,0,0
805,708,0,0,0,0,0,0,0,0,0,-1,2029,316,0,0
812,708,0,0,0,0,0,0,0,0,0,-1,2036,316,0,0
-700,701,0,0,0,0,0,0,0,0,0,-1,524,323,0,0
-693,701,0,0,0,0,0,0,0,0,0,-1,531,323,0,0
-686,701,0,0,0,0,0,0,0,0,0,-1,538,323,0,0
-679,701,0,0,0,0,0,0,0,0,0,-1,545,323,0,0
-672,701,0,0,0,0,0,0,0,0,0,-1,552,323,0,0
-665,701,0,0,0,0,0,0,0,0,0,-1,559,323,0,0
-658,701,0,0,0,0,0,0,0,0,0,-1,566,323,0,0
-651,701,0,0,0,0,0,0,0,0,0,-1,573,323,0,0
-644,701,0,0,0,0,0,0,0,0,0,-1,580,323,0,0
-637,701,0,0,0,0,0,0,0,0,0,-1,587,323,0,0
-630,701,0,0,0,0,0,0,0,0,0,-1,594,323,0,0
-623,701,0,0,0,0,0,0,0,0,0,-1,601,323,0,0
-616,701,0,0,0,0,0,0,0,0,0,-1,608,323,0,0
-609,701,0,0,0,0,0,0,0,0,0,-1,615,323,0,0
-602,701,0,0,0,0,0,0,0,0,0,-1,622,323,0,0
-595,701,0,0,0,0,0,0,0,0,0,-1,629,323,0,0
-588,701,0,0,0,0,0,0,0,0,0,-1,636,323,0,0
-581,701,0,0,0,0,0,0,0,0,0,-1,643,323,0,0
-574,701,0,0,0,0,0,0,0,0,0,-1,650,323,0,0
-567,701,0,0,0,0,0,0,0,0,0,-1,657,323,0,0
-560,701,0,0,0,0,0,0,0,0,0,-1,664,323,0,0
-553,701,0,0,0,0,0,0,0,0,0,-1,671,323,0,0
-546,701,0,0,0,0,0,0,0,0,0,-1,678,323,0,0
-539,701,0,0,0,0,0,0,0,0,0,-1,685,323,0,0
-532,701,0,0,0,0,0,0,0,0,0,-1,692,323,0,0
-525,701,0,0,0,0,0,0,0,0,0,-1,699,323,0,0
-518,701,0,0,0,0,0,0,0,0,0,-1,706,323,0,0
-511,701,0,0,0,0,0,0,0,0,0,-1,713,323,0,0
-504,701,0,0,0,0,0,0,0,0,0,-1,720,323,0,0
-497,701,0,0,0,0,0,0,0,0,0,-1,727,323,0,0
-490,701,0,0,0,0,0,0,0,0,0,-1,734,323,0,0
-483,701,0,0,0,0,0,0,0,0,0,-1,741,323,0,0
-476,701,0,0,0,0,0,0,0,0,0,-1,748,323,0,0
-469,701,0,0,0,0,0,0,0,0,0,-1,755,323,0,0
-462,701,0,0,0,0,0,0,0,0,0,-1,762,323,0,0
-455,701,0,0,0,0,0,0,0,0,0,-1,769,323,0,0
-448,701,0,0,0,0,0,0,0,0,0,-1,776,323,0,0
-441,701,0,0,0,0,0,0,0,0,0,-1,783,323,0,0
-434,701,0,0,0,0,0,0,0,0,0,-1,790,323,0,0
-427,701,0,0,0,0,0,0,0,0,0,-1,797,323,0,0
-420,701,0,0,0,0,0,0,0,0,0,-1,804,323,0,0
-413,701,0,0,0,0,0,0,0,0,0,-1,811,323,0,0
-406,701,0,0,0,0,0,0,0,0,0,-1,818,323,0,0
-399,701,0,0,0,0,0,0,0,0,0,-1,825,323,0,0
-392,701,0,0,0,0,0,0,0,0,0,-1,832,323,0,0
-385,701,0,0,0,0,0,0,0,0,0,-1,839,323,0,0
-378,701,0,0,0,0,0,0,0,0,0,-1,846,323,0,0
-371,701,0,0,0,0,0,0,0,0,0,-1,853,323,0,0
-364,701,0,0,0,0,0,0,0,0,0,-1,860,323,0,0
-357,701,0,0,0,0,0,0,0,0,0,-1,867,323,0,0
-350,701,0,0,0,0,0,0,0,0,0,-1,874,323,0,0
-343,701,0,0,0,0,0,0,0,0,0,-1,881,323,0,0
-336,701,0,0,0,0,0,0,0,0,0,-1,888,323,0,0
-329,701,0,0,0,0,0,0,0,0,0,-1,895,323,0,0
-322,701,0,0,0,0,0,0,0,0,0,-1,902,323,0,0
-315,701,0,0,0,0,0,0,0,0,0,-1,909,323,0,0
-308,701,0,0,0,0,0,0,0,0,0,-1,916,323,0,0
-301,701,0,0,0,0,0,0,0,0,0,-1,923,323,0,0
-294,701,0,0,0,0,0,0,0,0,0,-1,930,323,0,0
-287,701,0,0,0,0,0,0,0,0,0,-1,937,323,0,0
-280,701,0,0,0,0,0,0,0,0,0,-1,944,323,0,0
-273,701,0,0,0,0,0,0,0,0,0,-1,951,323,0,0
-266,701,0,0,0,0,0,0,0,0,0,-1,958,323,0,0
-259,701,0,0,0,0,0,0,0,0,0,-1,965,323,0,0
-252,701,0,0,0,0,0,0,0,0,0,-1,972,323,0,0
-245,701,0,0,0,0,0,0,0,0,0,-1,979,323,0,0
-238,701,0,0,0,0,0,0,0,0,0,-1,986,323,0,0
-231,701,0,0,0,0,0,0,0,0,0,-1,993,323,0,0
-224,701,0,0,0,0,0,0,0,0,0,-1,1000,323,0,0
-217,701,0,0,0,0,0,0,0,0,0,-1,1007,323,0,0
-210,701,0,0,0,0,0,0,0,0,0,-1,1014,323,0,0
-203,701,0,0,0,0,0,0,0,0,0,-1,1021,323,0,0
-196,701,0,0,0,0,0,0,0,0,0,-1,1028,323,0,0
-189,701,0,0,0,0,0,0,0,0,0,-1,1035,323,0,0
-182,701,0,0,0,0,0,0,0,0,0,-1,1042,323,0,0
-175,701,0,0,0,0,0,0,0,0,0,-1,1049,323,0,0
-168,701,0,0,0,0,0,0,0,0,0,-1,1056,323,0,0
-161,701,0,0,0,0,0,0,0,0,0,-1,1063,323,0,0
-154,701,0,0,0,0,0,0,0,0,0,-1,1070,323,0,0
-147,701,0,0,0,0,0,0,0,0,0,-1,1077,323,0,0
-140,701,0,0,0,0,0,0,0,0,0,-1,1084,323,0,0
-133,701,0,0,0,0,0,0,0,0,0,-1,1091,323,0,0
-126,701,0,0,0,0,0,0,0,0,0,-1,1098,323,0,0
-119,701,0,0,0,0,0,0,0,0,0,-1,1105,323,0,0
-112,701,0,0,0,0,0,0,0,0,0,-1,1112,323,0,0
-105,701,0,0,0,0,0,0,0,0,0,-1,1119,323,0,0
-98,701,0,0,0,0,0,0,0,0,0,-1,1126,323,0,0
-91,701,0,0,0,0,0,0,0,0,0,-1,1133,323,0,0
-84,701,0,0,0,0,0,0,0,0,0,-1,1140,323,0,0
-77,701,0,0,0,0,0,0,0,0,0,-1,1147,323,0,0
-70,701,0.11145,0.141571,0.0288741,0.0130093,0.0172729,0.0399489,0.00193443,0.570142,0.0260118,0.0409528,1154,323,0.111421,-0.141565
-63,701,0.0526123,0.364532,0.0308036,0.0207494,0.0177278,0.0442034,0.0073497,0.647239,0.0273502,0.0428224,1161,323,0.0525649,-0.364545
-56,701,0.100708,0.829468,0.0340206,0.0325816,0.0156517,0.0489693,0.0176328,0.76243,0.0286391,0.0482685,1168,323,0.100743,-0.829477
-49,701,0.0750732,0.376648,0.0363286,0.0431178,0.0145381,0.0546523,0.0247941,0.900091,0.0315986,0.045625,1175,323,0.0750134,-0.376656
-42,701,0.0179443,0.757385,0,0,0,0,0,0,0,-1,1182,323,0.0179149,-0.757391
-35,701,-0.0366211,1.56073,0,0,0,0,0,0,0,-1,1189,323,-0.0366332,-1.56073
-28,701,0.493652,2.43991,0,0,0,0,0,0,0,-1,1196,323,0.493605,-2.4399
-21,701,1.09094,3.57312,0,0,0,0,0,0,0,-1,1203,323,1.09099,-3.57311
-14,701,1.96887,4.88354,0.0511864,0.0832994,-0.00510042,0.08409,0.0503958,-1.41701,0.0488676,0.0434552,1210,323,1.9689,-4.88355
-7,701,3.18884,5.79678,0.0496912,0.0864392,-0.00777717,0.0880173,0.0481131,-1.37059,0.0508904,0.0478597,1217,323,3.1889,-5.79678
0,701,4.08484,6.88284,0,0,0,0,0,0,0,-1,1224,323,4.08488,-6.88283
7,701,-0.760254,-1.36371,0,0,0,0,0,0,0,-1,1231,323,-0.760236,1.3637
14,701,-0.161133,-1.15698,0.0251776,0.0573497,0.00370607,0.0577711,0.0247562,1.45758,0.0334676,0.0483544,1238,323,-0.161117,1.15699
21,701,-0.296997,-0.288574,0.0157427,0.0425002,0.0134181,0.0480698,0.0101732,1.17736,0.0292512,0.0477205,1245,323,-0.296982,0.288567
28,701,-0.253906,-0.57196,0.00632908,0.0261465,0.0257673,0.0438446,-0.011369,0.968955,0.0336655,0.048977,1252,323,-0.253964,0.57195
35,701,-0.391235,-0.819,0,0,0,0,0,0,0,-1,1259,323,-0.391257,0.818988
42,701,-1.30115,-0.0731201,0,0,0,0,0,0,0,-1,1266,323,-1.30117,0.0731146
49,701,-1.77698,1.49988,-0.0162472,-0.0128455,0.0604383,0.0459159,-0.0750086,0.799465,0.0704861,0.0471169,1273,323,-1.777,-1.49988
56,701,-2.33569,3.24268,-0.0175059,-0.0154251,0.0631155,0.0466586,-0.0795896,0.79364,0.0737113,0.047104,1280,323,-2.33566,-3.24268
63,701,-2.89526,4.99686,-0.0167808,-0.0156547,0.0606978,0.0444827,-0.0769182,0.790036,0.0709198,0.0454377,1287,323,-2.89527,-4.99685
70,701,-3.12598,7.21976,-0.0139639,-0.0170166,0.0549992,0.0395301,-0.0705106,0.771526,0.0643659,0.0430282,1294,323,-3.12592,-7.21976
77,701,-4.14099,8.85431,-0.00854938,-0.0134613,0.0441927,0.0332555,-0.0552662,0.75764,0.051632,0.0463885,1301,323,-4.14105,-8.85432
84,701,-5.50854,10.3781,0,0,0,0,0,0,0,-1,1308,323,-5.50858,-10.3782
91,701,-2.98486,-0.710571,0,0,0,0,0,0,0,-1,1315,323,-2.98488,0.710569
98,701,-2.9707,-0.440369,0.0111795,-0.000597613,-0.00712355,0.0145332,-0.00395136,-0.440014,0.0112399,0.0441383,1322,323,-2.97073,0.440378
105,701,-3.11926,-0.329163,0.0188473,0.00371693,-0.0245588,0.0369797,-0.0144155,-0.635988,0.0306115,0.0462753,1329,323,-3.11925,0.329159
112,701,-3.20764,-0.491577,0.0263437,0.00521948,-0.0407928,0.0579195,-0.0263564,-0.658719,0.0497812,0.043936,1336,323,-3.2076,0.491574
119,701,-2.91406,-0.426941,0.0329349,0.0062328,-0.0559047,0.0770607,-0.037893,-0.668185,0.0676405,0.0400534,1343,323,-2.91408,0.426943
126,701,-2.36755,-0.29953,0.0380295,0.00502825,-0.066741,0.0902794,-0.0472216,-0.664211,0.0806732,0.0431384,1350,323,-2.36756,0.299515
133,701,-2.3374,-2.37039,0.0413057,0.00178127,-0.0710073,0.0952495,-0.0521626,-0.649677,0.0863118,0.0467803,1357,323,-2.33735,2.37038
140,701,-0.996704,0.979279,0,0,0,0,0,0,0,-1,1364,323,-0.996688,-0.97929
147,701,-0.599609,0.633911,0.0405043,-0.00629849,-0.0626552,0.0839856,-0.0497798,-0.606673,0.0780667,0.0443602,1371,323,-0.599557,-0.633899
154,701,-0.316406,0.291565,0.0411212,-0.0102509,-0.0579736,0.0788442,-0.0479739,-0.576862,0.073938,0.0443698,1378,323,-0.316457,-0.291578
161,701,-0.67041,-0.927643,0.0399679,-0.0147095,-0.0518113,0.071211,-0.0459525,-0.542634,0.0681663,0.043837,1385,323,-0.67044,0.92763
168,701,-0.198242,-1.31372,0,0,0,0,0,0,0,-1,1392,323,-0.198256,1.31372
175,701,-0.0969238,-1.67715,0,0,0,0,0,0,0,-1,1399,323,-0.0969206,1.67716
182,701,0.0296631,0.0346069,0,0,0,0,0,0,0,-1,1406,323,0.0296844,-0.0346108
189,701,-0.00793457,-0.644775,0,0,0,0,0,0,0,-1,1413,323,-0.00791817,0.644779
196,701,0,0,0,0,0,0,0,0,0,-1,1420,323,0,0
203,701,0,0,0,0,0,0,0,0,0,-1,1427,323,0,0
210,701,0,0,0,0,0,0,0,0,0,-1,1434,323,0,0
217,701,0,0,0,0,0,0,0,0,0,-1,1441,323,0,0
224,701,0,0,0,0,0,0,0,0,0,-1,1448,323,0,0
231,701,0,0,0,0,0,0,0,0,0,-1,1455,323,0,0
238,701,0,0,0,0,0,0,0,0,0,-1,1462,323,0,0
245,701,0,0,0,0,0,0,0,0,0,-1,1469,323,0,0
252,701,0,0,0,0,0,0,0,0,0,-1,1476,323,0,0
259,701,0,0,0,0,0,0,0,0,0,-1,1483,323,0,0
266,701,0,0,0,0,0,0,0,0,0,-1,1490,323,0,0
273,701,0,0,0,0,0,0,0,0,0,-1,1497,323,0,0
280,701,0,0,0,0,0,0,0,0,0,-1,1504,323,0,0
287,701,0,0,0,0,0,0,0,0,0,-1,1511,323,0,0
294,701,0,0,0,0,0,0,0,0,0,-1,1518,323,0,0
301,701,0,0,0,0,0,0,0,0,0,-1,1525,323,0,0
308,701,0,0,0,0,0,0,0,0,0,-1,1532,323,0,0
315,701,0,0,0,0,0,0,0,0,0,-1,1539,323,0,0
322,701,0,0,0,0,0,0,0,0,0,-1,1546,323,0,0
329,701,0,0,0,0,0,0,0,0,0,-1,1553,323,0,0
336,701,0,0,0,0,0,0,0,0,0,-1,1560,323,0,0
343,701,0,0,0,0,0,0,0,0,0,-1,1567,323,0,0
350,701,0,0,0,0,0,0,0,0,0,-1,1574,323,0,0
357,701,0,0,0,0,0,0,0,0,0,-1,1581,323,0,0
364,701,0,0,0,0,0,0,0,0,0,-1,1588,323,0,0
371,701,0,0,0,0,0,0,0,0,0,-1,1595,323,0,0
378,701,0,0,0,0,0,0,0,0,0,-1,1602,323,0,0
385,701,0,0,0,0,0,0,0,0,0,-1,1609,323,0,0
392,701,0,0,0,0,0,0,0,0,0,-1,1616,323,0,0
399,701,0,0,0,0,0,0,0,0,0,-1,1623,323,0,0
406,701,0,0,0,0,0,0,0,0,0,-1,1630,323,0,0
413,701,0,0,0,0,0,0,0,0,0,-1,1637,323,0,0
420,701,0,0,0,0,0,0,0,0,0,-1,1644,323,0,0
427,701,0,0,0,0,0,0,0,0,0,-1,1651,323,0,0
434,701,0,0,0,0,0,0,0,0,0,-1,1658,323,0,0
441,701,0,0,0,0,0,0,0,0,0,-1,1665,323,0,0
448,701,0,0,0,0,0,0,0,0,0,-1,1672,323,0,0
455,701,0,0,0,0,0,0,0,0,0,-1,1679,323,0,0
462,701,0,0,0,0,0,0,0,0,0,-1,1686,323,0,0
469,701,0,0,0,0,0,0,0,0,0,-1,1693,323,0,0
476,701,0,0,0,0,0,0,0,0,0,-1,1700,323,0,0
483,701,0,0,0,0,0,0,0,0,0,-1,1707,323,0,0
490,701,0,0,0,0,0,0,0,0,0,-1,1714,323,0,0
497,701,0,0,0,0,0,0,0,0,0,-1,1721,323,0,0
504,701,0,0,0,0,0,0,0,0,0,-1,1728,323,0,0
511,701,0,0,0,0,0,0,0,0,0,-1,1735,323,0,0
518,701,0,0,0,0,0,0,0,0,0,-1,1742,323,0,0
525,701,0,0,0,0,0,0,0,0,0,-1,1749,323,0,0
532,701,0,0,0,0,0,0,0,0,0,-1,1756,323,0,0
539,701,0,0,0,0,0,0,0,0,0,-1,1763,323,0,0
546,701,0,0,0,0,0,0,0,0,0,-1,1770,323,0,0
553,701,0,0,0,0,0,0,0,0,0,-1,1777,323,0,0
560,701,0,0,0,0,0,0,0,0,0,-1,1784,323,0,0
567,701,0,0,0,0,0,0,0,0,0,-1,1791,323,0,0
574,701,0,0,0,0,0,0,0,0,0,-1,1798,323,0,0
581,701,0,0,0,0,0,0,0,0,0,-1,1805,323,0,0
588,701,0,0,0,0,0,0,0,0,0,-1,1812,323,0,0
595,701,0,0,0,0,0,0,0,0,0,-1,1819,323,0,0
602,701,0,0,0,0,0,0,0,0,0,-1,1826,323,0,0
609,701,0,0,0,0,0,0,0,0,0,-1,1833,323,0,0
616,701,0,0,0,0,0,0,0,0,0,-1,1840,323,0,0
623,701,0,0,0,0,0,0,0,0,0,-1,1847,323,0,0
630,701,0,0,0,0,0,0,0,0,0,-1,1854,323,0,0
637,701,0,0,0,0,0,0,0,0,0,-1,1861,323,0,0
644,701,0,0,0,0,0,0,0,0,0,-1,1868,323,0,0
651,701,0,0,0,0,0,0,0,0,0,-1,1875,323,0,0
658,701,0,0,0,0,0,0,0,0,0,-1,1882,323,0,0
665,701,0,0,0,0,0,0,0,0,0,-1,1889,323,0,0
672,701,0,0,0,0,0,0,0,0,0,-1,1896,323,0,0
679,701,0,0,0,0,0,0,0,0,0,-1,1903,323,0,0
686,701,0,0,0,0,0,0,0,0,0,-1,1910,323,0,0
693,701,0,0,0,0,0,0,0,0,0,-1,1917,323,0,0
700,701,0,0,0,0,0,0,0,0,0,-1,1924,323,0,0
707,701,0,0,0,0,0,0,0,0,0,-1,1931,323,0,0
714,701,0,0,0,0,0,0,0,0,0,-1,1938,323,0,0
721,701,0,0,0,0,0,0,0,0,0,-1,1945,323,0,0
728,701,0,0,0,0,0,0,0,0,0,-1,1952,323,0,0
735,701,0,0,0,0,0,0,0,0,0,-1,1959,323,0,0
742,701,0,0,0,0,0,0,0,0,0,-1,1966,323,0,0
749,701,0,0,0,0,0,0,0,0,0,-1,1973,323,0,0
756,701,0,0,0,0,0,0,0,0,0,-1,1980,323,0,0
763,701,0,0,0,0,0,0,0,0,0,-1,1987,323,0,0
770,701,0,0,0,0,0,0,0,0,0,-1,1994,323,0,0
777,701,0,0,0,0,0,0,0,0,0,-1,2001,323,0,0
784,701,0,0,0,0,0,0,0,0,0,-1,2008,323,0,0
791,701,0,0,0,0,0,0,0,0,0,-1,2015,323,0,0
798,701,0,0,0,0,0,0,0,0,0,-1,2022,323,0,0
805,701,0,0,0,0,0,0,0,0,0,-1,2029,323,0,0
812,701,0,0,0,0,0,0,0,0,0,-1,2036,323,0,0
-700,694,0,0,0,0,0,0,0,0,0,-1,524,330,0,0
-693,694,0,0,0,0,0,0,0,0,0,-1,531,330,0,0
-686,694,0,0,0,0,0,0,0,0,0,-1,538,330,0,0
-679,694,0,0,0,0,0,0,0,0,0,-1,545,330,0,0
-672,694,0,0,0,0,0,0,0,0,0,-1,552,330,0,0
-665,694,0,0,0,0,0,0,0,0,0,-1,559,330,0,0
-658,694,0,0,0,0,0,0,0,0,0,-1,566,330,0,0
-651,694,0,0,0,0,0,0,0,0,0,-1,573,330,0,0
-644,694,0,0,0,0,0,0,0,0,0,-1,580,330,0,0
-637,694,0,0,0,0,0,0,0,0,0,-1,587,330,0,0
-630,694,0,0,0,0,0,0,0,0,0,-1,594,330,0,0
-623,694,0,0,0,0,0,0,0,0,0,-1,601,330,0,0
-616,694,0,0,0,0,0,0,0,0,0,-1,608,330,0,0
-609,694,0,0,0,0,0,0,0,0,0,-1,615,330,0,0
-602,694,0,0,0,0,0,0,0,0,0,-1,622,330,0,0
-595,694,0,0,0,0,0,0,0,0,0,-1,629,330,0,0
-588,694,0,0,0,0,0,0,0,0,0,-1,636,330,0,0
-581,694,0,0,0,0,0,0,0,0,0,-1,643,330,0,0
-574,694,0,0,0,0,0,0,0,0,0,-1,650,330,0,0
-567,694,0,0,0,0,0,0,0,0,0,-1,657,330,0,0
-560,694,0,0,0,0,0,0,0,0,0,-1,664,330,0,0
-553,694,0,0,0,0,0,0,0,0,0,-1,671,330,0,0
-546,694,0,0,0,0,0,0,0,0,0,-1,678,330,0,0
-539,694,0,0,0,0,0,0,0,0,0,-1,685,330,0,0
-532,694,0,0,0,0,0,0,0,0,0,-1,692,330,0,0
-525,694,0,0,0,0,0,0,0,0,0,-1,699,330,0,0
-518,694,0,0,0,0,0,0,0,0,0,-1,706,330,0,0
-511,694,0,0,0,0,0,0,0,0,0,-1,713,330,0,0
-504,694,0,0,0,0,0,0,0,0,0,-1,720,330,0,0
-497,694,0,0,0,0,0,0,0,0,0,-1,727,330,0,0
-490,694,0,0,0,0,0,0,0,0,0,-1,734,330,0,0
-483,694,0,0,0,0,0,0,0,0,0,-1,741,330,0,0
-476,694,0,0,0,0,0,0,0,0,0,-1,748,330,0,0
-469,694,0,0,0,0,0,0,0,0,0,-1,755,330,0,0
-462,694,0,0,0,0,0,0,0,0,0,-1,762,330,0,0
-455,694,0,0,0,0,0,0,0,0,0,-1,769,330,0,0
-448,694,0,0,0,0,0,0,0,0,0,-1,776,330,0,0
-441,694,0,0,0,0,0,0,0,0,0,-1,783,330,0,0
-434,694,0,0,0,0,0,0,0,0,0,-1,790,330,0,0
-427,694,0,0,0,0,0,0,0,0,0,-1,797,330,0,0
-420,694,0,0,0,0,0,0,0,0,0,-1,804,330,0,0
-413,694,0,0,0,0,0,0,0,0,0,-1,811,330,0,0
-406,694,0,0,0,0,0,0,0,0,0,-1,818,330,0,0
-399,694,0,0,0,0,0,0,0,0,0,-1,825,330,0,0
-392,694,0,0,0,0,0,0,0,0,0,-1,832,330,0,0
-385,694,0,0,0,0,0,0,0,0,0,-1,839,330,0,0
-378,694,0,0,0,0,0,0,0,0,0,-1,846,330,0,0
-371,694,0,0,0,0,0,0,0,0,0,-1,853,330,0,0
-364,694,0,0,0,0,0,0,0,0,0,-1,860,330,0,0
-357,694,0,0,0,0,0,0,0,0,0,-1,867,330,0,0
-350,694,0,0,0,0,0,0,0,0,0,-1,874,330,0,0
-343,694,0,0,0,0,0,0,0,0,0,-1,881,330,0,0
-336,694,0,0,0,0,0,0,0,0,0,-1,888,330,0,0
-329,694,0,0,0,0,0,0,0,0,0,-1,895,330,0,0
-322,694,0,0,0,0,0,0,0,0,0,-1,902,330,0,0
-315,694,0,0,0,0,0,0,0,0,0,-1,909,330,0,0
-308,694,0,0,0,0,0,0,0,0,0,-1,916,330,0,0
-301,694,0,0,0,0,0,0,0,0,0,-1,923,330,0,0
-294,694,0,0,0,0,0,0,0,0,0,-1,930,330,0,0
-287,694,0,0,0,0,0,0,0,0,0,-1,937,330,0,0
-280,694,0,0,0,0,0,0,0,0,0,-1,944,330,0,0
-273,694,0,0,0,0,0,0,0,0,0,-1,951,330,0,0
-266,694,0,0,0,0,0,0,0,0,0,-1,958,330,0,0
-259,694,0,0,0,0,0,0,0,0,0,-1,965,330,0,0
-252,694,0,0,0,0,0,0,0,0,0,-1,972,330,0,0
-245,694,0,0,0,0,0,0,0,0,0,-1,979,330,0,0
-238,694,0,0,0,0,0,0,0,0,0,-1,986,330,0,0
-231,694,0,0,0,0,0,0,0,0,0,-1,993,330,0,0
-224,694,0,0,0,0,0,0,0,0,0,-1,1000,330,0,0
-217,694,0,0,0,0,0,0,0,0,0,-1,1007,330,0,0
-210,694,0,0,0,0,0,0,0,0,0,-1,1014,330,0,0
-203,694,0,0,0,0,0,0,0,0,0,-1,1021,330,0,0
-196,694,0,0,0,0,0,0,0,0,0,-1,1028,330,0,0
-189,694,0,0,0,0,0,0,0,0,0,-1,1035,330,0,0
-182,694,0,0,0,0,0,0,0,0,0,-1,1042,330,0,0
-175,694,0,0,0,0,0,0,0,0,0,-1,1049,330,0,0
-168,694,0,0,0,0,0,0,0,0,0,-1,1056,330,0,0
-161,694,0,0,0,0,0,0,0,0,0,-1,1063,330,0,0
-154,694,0,0,0,0,0,0,0,0,0,-1,1070,330,0,0
-147,694,0,0,0,0,0,0,0,0,0,-1,1077,330,0,0
-140,694,0,0,0,0,0,0,0,0,0,-1,1084,330,0,0
-133,694,0,0,0,0,0,0,0,0,0,-1,1091,330,0,0
-126,694,0,0,0,0,0,0,0,0,0,-1,1098,330,0,0
-119,694,0,0,0,0,0,0,0,0,0,-1,1105,330,0,0
-112,694,0,0,0,0,0,0,0,0,0,-1,1112,330,0,0
-105,694,-1.12219,-0.961151,0.0461852,0.00839596,0.019531,0.0544653,0.000115843,0.400979,0.0362717,0.0474283,1119,330,-1.12225,0.961137
-98,694,-0.762085,-0.751068,0.0425786,0.00699242,0.0175657,0.0497885,-0.000217415,0.389483,0.033265,0.0425951,1126,330,-0.762087,0.751066
-91,694,-0.324341,-0.488464,0.0381479,0.00637144,0.0162088,0.0449568,-0.000437515,0.397693,0.0301181,0.0385238,1133,330,-0.324339,0.488454
-84,694,-0.0251465,-0.180115,0.0337853,0.00649646,0.0151016,0.0404935,-0.00021171,0.418023,0.0270665,0.0410099,1140,330,-0.0251395,0.180125
-77,694,-0.0209961,-0.200348,0,0,0,0,0,0,0,-1,1147,330,-0.0210089,0.200334
-70,694,0.00915527,0.0162354,0.0269461,0.0130853,0.0146774,0.036247,0.00378433,0.564825,0.0230072,0.0403875,1154,330,0.00909689,-0.0162432
-63,694,0.211792,0.363586,0.0272977,0.0198439,0.014935,0.0389638,0.00817779,0.663125,0.0237245,0.04206,1161,330,0.211847,-0.363596
-56,694,0.165771,0.210022,0.0282395,0.02925,0.012994,0.0417486,0.0157409,0.804829,0.0243453,0.0452519,1168,330,0.165769,-0.210013
-49,694,0.228271,0.655212,0.028843,0.0380777,0.0120896,0.0464017,0.020519,0.967814,0.0268496,0.0461045,1175,330,0.228305,-0.655224
-42,694,0.0894775,1.09348,0,0,0,0,0,0,0,-1,1182,330,0.0895147,-1.09349
-35,694,-0.0144043,1.24371,0,0,0,0,0,0,0,-1,1189,330,-0.0144308,-1.24372
-28,694,-0.0257568,1.11252,0,0,0,0,0,0,0,-1,1196,330,-0.0257605,-1.11251
-21,694,1.28101,4.0177,0,0,0,0,0,0,0,-1,1203,330,1.28102,-4.01769
-14,694,1.80505,4.19382,0,0,0,0,0,0,0,-1,1210,330,1.805,-4.19381
-7,694,-0.226807,0.324982,0,0,0,0,0,0,0,-1,1217,330,-0.226802,-0.324976
0,694,-0.84314,-0.683685,0,0,0,0,0,0,0,-1,1224,330,-0.843124,0.6837
7,694,-0.900513,-0.298218,0,0,0,0,0,0,0,-1,1231,330,-0.900551,0.298218
14,694,-0.00976563,-0.673981,0,0,0,0,0,0,0,-1,1238,330,-0.0097685,0.673994
21,694,-0.0422363,-0.235443,0,0,0,0,0,0,0,-1,1245,330,-0.0422643,0.235441
28,694,-0.149536,-0.462524,0,0,0,0,0,0,0,-1,1252,330,-0.149553,0.462529
35,694,-0.256836,-0.689606,0,0,0,0,0,0,0,-1,1259,330,-0.256843,0.689618
42,694,-0.876709,0.145508,-0.00987733,-0.00550347,0.0393537,0.031724,-0.0471048,0.813155,0.0457997,0.0464512,1266,330,-0.876667,-0.14551
49,694,-1.33508,1.95789,-0.0144491,-0.0123497,0.0470761,0.0336884,-0.0604872,0.796545,0.0551012,0.0463052,1273,330,-1.33513,-1.95788
56,694,-1.86169,3.78351,-0.0154774,-0.0137821,0.0481875,0.0335651,-0.0628247,0.794192,0.0564989,0.0460176,1280,330,-1.86174,-3.78351
63,694,-2.39307,5.59561,-0.0146708,-0.0136544,0.0454487,0.0312889,-0.0596141,0.790989,0.0533254,0.0460391,1287,330,-2.39303,-5.59562
70,694,-2.88733,7.44025,-0.011988,-0.0143444,0.0398793,0.0267305,-0.0530629,0.77063,0.0468975,0.0468496,1294,330,-2.88727,-7.44025
77,694,-3.396,9.25058,0,0,0,0,0,0,0,-1,1301,330,-3.39605,-9.25059
84,694,-2.10535,-0.771179,0,0,0,0,0,0,0,-1,1308,330,-2.10532,0.771166
91,694,-2.31836,-0.66684,0,0,0,0,0,0,0,-1,1315,330,-2.3184,0.666845
98,694,-2.47461,-0.552643,0.010317,-0.00273961,-0.0106979,0.0163212,-0.00874382,-0.51144,0.0146901,0.0470748,1322,330,-2.47459,0.552651
105,694,-2.61487,-0.734802,0.0169792,0.000352415,-0.0246733,0.034702,-0.0173704,-0.622902,0.030614,0.0453415,1329,330,-2.6149,0.734814
112,694,-2.33545,-0.686584,0.0233566,0.00124989,-0.0374489,0.0513493,-0.0267428,-0.641894,0.0458265,0.0403979,1336,330,-2.33548,0.68657
119,694,-1.98877,-0.74585,0.0287928,0.00179648,-0.0487805,0.0659083,-0.035319,-0.65042,0.0593264,0.0410419,1343,330,-1.98877,0.745854
126,694,-2.00562,-1.38196,0.0328289,0.000805637,-0.0565292,0.0755703,-0.0419358,-0.64739,0.0687623,0.042581,1350,330,-2.00564,1.38195
133,694,-1.07288,-1.93762,0.0351984,-0.00149696,-0.0591408,0.0787722,-0.0450708,-0.634987,0.0723779,0.0446512,1357,330,-1.07288,1.93761
140,694,-0.0057373,-2.30618,0,0,0,0,0,0,0,-1,1364,330,-0.00572827,2.30619
147,694,-0.79126,0.365387,0.0337921,-0.0070533,-0.0511075,0.0684063,-0.0416676,-0.595316,0.0641731,0.0454703,1371,330,-0.791205,-0.365383
154,694,-0.481445,0.257996,0.0336508,-0.00984705,-0.0466326,0.0633569,-0.0395531,-0.567199,0.0599426,0.0478801,1378,330,-0.481481,-0.257999
161,694,-0.396973,-0.404053,0.032086,-0.0128207,-0.0410288,0.0564035,-0.0371382,-0.53503,0.0543868,0.0439583,1385,330,-0.396999,0.404051
168,694,-0.0361328,-0.120972,0,0,0,0,0,0,0,-1,1392,330,-0.0360779,0.120975
175,694,0.0117188,-0.234314,0,0,0,0,0,0,0,-1,1399,330,0.0117578,0.234327
182,694,-0.154175,0.242218,0,0,0,0,0,0,0,-1,1406,330,-0.154146,-0.242204
189,694,0.112671,-0.234863,0,0,0,0,0,0,0,-1,1413,330,0.112721,0.234854
196,694,0.334961,-0.144501,0.00295712,-0.0168799,0.00407964,0.00376336,-0.0176861,0.195112,0.0132249,0.0421527,1420,330,0.334952,0.144493
203,694,0.554199,-0.0575562,-0.00222237,-0.0164818,0.00956857,0.00258067,-0.0212848,0.465214,0.0151237,0.042994,1427,330,0.554222,0.0575696
210,694,0.776489,-0.0329285,0,0,0,0,0,0,0,-1,1434,330,0.776432,0.0329297
217,694,1.23438,-1.4494,0,0,0,0,0,0,0,-1,1441,330,1.23437,1.44942
224,694,0.366089,-1.12442,0,0,0,0,0,0,0,-1,1448,330,0.366099,1.12442
231,694,0,0,0,0,0,0,0,0,0,-1,1455,330,0,0
238,694,0,0,0,0,0,0,0,0,0,-1,1462,330,0,0
245,694,0,0,0,0,0,0,0,0,0,-1,1469,330,0,0
252,694,0,0,0,0,0,0,0,0,0,-1,1476,330,0,0
259,694,0,0,0,0,0,0,0,0,0,-1,1483,330,0,0
266,694,0,0,0,0,0,0,0,0,0,-1,1490,330,0,0
273,694,0,0,0,0,0,0,0,0,0,-1,1497,330,0,0
280,694,0,0,0,0,0,0,0,0,0,-1,1504,330,0,0
287,694,0,0,0,0,0,0,0,0,0,-1,1511,330,0,0
294,694,0,0,0,0,0,0,0,0,0,-1,1518,330,0,0
301,694,0,0,0,0,0,0,0,0,0,-1,1525,330,0,0
308,694,0,0,0,0,0,0,0,0,0,-1,1532,330,0,0
315,694,0,0,0,0,0,0,0,0,0,-1,1539,330,0,0
322,694,0,0,0,0,0,0,0,0,0,-1,1546,330,0,0
329,694,0,0,0,0,0,0,0,0,0,-1,1553,330,0,0
336,694,0,0,0,0,0,0,0,0,0,-1,1560,330,0,0
343,694,0,0,0,0,0,0,0,0,0,-1,1567,330,0,0
350,694,0,0,0,0,0,0,0,0,0,-1,1574,330,0,0
357,694,0,0,0,0,0,0,0,0,0,-1,1581,330,0,0
364,694,0,0,0,0,0,0,0,0,0,-1,1588,330,0,0
371,694,0,0,0,0,0,0,0,0,0,-1,1595,330,0,0
378,694,0,0,0,0,0,0,0,0,0,-1,1602,330,0,0
385,694,0,0,0,0,0,0,0,0,0,-1,1609,330,0,0
392,694,0,0,0,0,0,0,0,0,0,-1,1616,330,0,0
399,694,0,0,0,0,0,0,0,0,0,-1,1623,330,0,0
406,694,0,0,0,0,0,0,0,0,0,-1,1630,330,0,0
413,694,0,0,0,0,0,0,0,0,0,-1,1637,330,0,0
420,694,0,0,0,0,0,0,0,0,0,-1,1644,330,0,0
427,694,0,0,0,0,0,0,0,0,0,-1,1651,330,0,0
434,694,0,0,0,0,0,0,0,0,0,-1,1658,330,0,0
441,694,0,0,0,0,0,0,0,0,0,-1,1665,330,0,0
448,694,0,0,0,0,0,0,0,0,0,-1,1672,330,0,0
455,694,0,0,0,0,0,0,0,0,0,-1,1679,330,0,0
462,694,0,0,0,0,0,0,0,0,0,-1,1686,330,0,0
469,694,0,0,0,0,0,0,0,0,0,-1,1693,330,0,0
476,694,0,0,0,0,0,0,0,0,0,-1,1700,330,0,0
483,694,0,0,0,0,0,0,0,0,0,-1,1707,330,0,0
490,694,0,0,0,0,0,0,0,0,0,-1,1714,330,0,0
497,694,0,0,0,0,0,0,0,0,0,-1,1721,330,0,0
504,694,0,0,0,0,0,0,0,0,0,-1,1728,330,0,0
511,694,0,0,0,0,0,0,0,0,0,-1,1735,330,0,0
518,694,0,0,0,0,0,0,0,0,0,-1,1742,330,0,0
525,694,0,0,0,0,0,0,0,0,0,-1,1749,330,0,0
532,694,0,0,0,0,0,0,0,0,0,-1,1756,330,0,0
539,694,0,0,0,0,0,0,0,0,0,-1,1763,330,0,0
546,694,0,0,0,0,0,0,0,0,0,-1,1770,330,0,0
553,694,0,0,0,0,0,0,0,0,0,-1,1777,330,0,0
560,694,0,0,0,0,0,0,0,0,0,-1,1784,330,0,0
567,694,0,0,0,0,0,0,0,0,0,-1,1791,330,0,0
574,694,0,0,0,0,0,0,0,0,0,-1,1798,330,0,0
581,694,0,0,0,0,0,0,0,0,0,-1,1805,330,0,0
588,694,0,0,0,0,0,0,0,0,0,-1,1812,330,0,0
595,694,0,0,0,0,0,0,0,0,0,-1,1819,330,0,0
602,694,0,0,0,0,0,0,0,0,0,-1,1826,330,0,0
609,694,0,0,0,0,0,0,0,0,0,-1,1833,330,0,0
616,694,0,0,0,0,0,0,0,0,0,-1,1840,330,0,0
623,694,0,0,0,0,0,0,0,0,0,-1,1847,330,0,0
630,694,0,0,0,0,0,0,0,0,0,-1,1854,330,0,0
637,694,0,0,0,0,0,0,0,0,0,-1,1861,330,0,0
644,694,0,0,0,0,0,0,0,0,0,-1,1868,330,0,0
651,694,0,0,0,0,0,0,0,0,0,-1,1875,330,0,0
658,694,0,0,0,0,0,0,0,0,0,-1,1882,330,0,0
665,694,0,0,0,0,0,0,0,0,0,-1,1889,330,0,0
672,694,0,0,0,0,0,0,0,0,0,-1,1896,330,0,0
679,694,0,0,0,0,0,0,0,0,0,-1,1903,330,0,0
686,694,0,0,0,0,0,0,0,0,0,-1,1910,330,0,0
693,694,0,0,0,0,0,0,0,0,0,-1,1917,330,0,0
700,694,0,0,0,0,0,0,0,0,0,-1,1924,330,0,0
707,694,0,0,0,0,0,0,0,0,0,-1,1931,330,0,0
714,694,0,0,0,0,0,0,0,0,0,-1,1938,330,0,0
721,694,0,0,0,0,0,0,0,0,0,-1,1945,330,0,0
728,694,0,0,0,0,0,0,0,0,0,-1,1952,330,0,0
735,694,0,0,0,0,0,0,0,0,0,-1,1959,330,0,0
742,694,0,0,0,0,0,0,0,0,0,-1,1966,330,0,0
749,694,0,0,0,0,0,0,0,0,0,-1,1973,330,0,0
756,694,0,0,0,0,0,0,0,0,0,-1,1980,330,0,0
763,694,0,0,0,0,0,0,0,0,0,-1,1987,330,0,0
770,694,0,0,0,0,0,0,0,0,0,-1,1994,330,0,0
777,694,0,0,0,0,0,0,0,0,0,-1,2001,330,0,0
784,694,0,0,0,0,0,0,0,0,0,-1,2008,330,0,0
791,694,0,0,0,0,0,0,0,0,0,-1,2015,330,0,0
798,694,0,0,0,0,0,0,0,0,0,-1,2022,330,0,0
805,694,0,0,0,0,0,0,0,0,0,-1,2029,330,0,0
812,694,0,0,0,0,0,0,0,0,0,-1,2036,330,0,0
-700,687,0,0,0,0,0,0,0,0,0,-1,524,337,0,0
-693,687,0,0,0,0,0,0,0,0,0,-1,531,337,0,0
-686,687,0,0,0,0,0,0,0,0,0,-1,538,337,0,0
-679,687,0,0,0,0,0,0,0,0,0,-1,545,337,0,0
-672,687,0,0,0,0,0,0,0,0,0,-1,552,337,0,0
-665,687,0,0,0,0,0,0,0,0,0,-1,559,337,0,0
-658,687,0,0,0,0,0,0,0,0,0,-1,566,337,0,0
-651,687,0,0,0,0,0,0,0,0,0,-1,573,337,0,0
-644,687,0,0,0,0,0,0,0,0,0,-1,580,337,0,0
-637,687,0,0,0,0,0,0,0,0,0,-1,587,337,0,0
-630,687,0,0,0,0,0,0,0,0,0,-1,594,337,0,0
-623,687,0,0,0,0,0,0,0,0,0,-1,601,337,0,0
-616,687,0,0,0,0,0,0,0,0,0,-1,608,337,0,0
-609,687,0,0,0,0,0,0,0,0,0,-1,615,337,0,0
-602,687,0,0,0,0,0,0,0,0,0,-1,622,337,0,0
-595,687,0,0,0,0,0,0,0,0,0,-1,629,337,0,0
-588,687,0,0,0,0,0,0,0,0,0,-1,636,337,0,0
-581,687,0,0,0,0,0,0,0,0,0,-1,643,337,0,0
-574,687,0,0,0,0,0,0,0,0,0,-1,650,337,0,0
-567,687,0,0,0,0,0,0,0,0,0,-1,657,337,0,0
-560,687,0,0,0,0,0,0,0,0,0,-1,664,337,0,0
-553,687,0,0,0,0,0,0,0,0,0,-1,671,337,0,0
-546,687,0,0,0,0,0,0,0,0,0,-1,678,337,0,0
-539,687,0,0,0,0,0,0,0,0,0,-1,685,337,0,0
-532,687,0,0,0,0,0,0,0,0,0,-1,692,337,0,0
-525,687,0,0,0,0,0,0,0,0,0,-1,699,337,0,0
-518,687,0,0,0,0,0,0,0,0,0,-1,706,337,0,0
-511,687,0,0,0,0,0,0,0,0,0,-1,713,337,0,0
-504,687,0,0,0,0,0,0,0,0,0,-1,720,337,0,0
-497,687,0,0,0,0,0,0,0,0,0,-1,727,337,0,0
-490,687,0,0,0,0,0,0,0,0,0,-1,734,337,0,0
-483,687,0,0,0,0,0,0,0,0,0,-1,741,337,0,0
-476,687,0,0,0,0,0,0,0,0,0,-1,748,337,0,0
-469,687,0,0,0,0,0,0,0,0,0,-1,755,337,0,0
-462,687,0,0,0,0,0,0,0,0,0,-1,762,337,0,0
-455,687,0,0,0,0,0,0,0,0,0,-1,769,337,0,0
-448,687,0,0,0,0,0,0,0,0,0,-1,776,337,0,0
-441,687,0,0,0,0,0,0,0,0,0,-1,783,337,0,0
-434,687,0,0,0,0,0,0,0,0,0,-1,790,337,0,0
-427,687,0,0,0,0,0,0,0,0,0,-1,797,337,0,0
-420,687,0,0,0,0,0,0,0,0,0,-1,804,337,0,0
-413,687,0,0,0,0,0,0,0,0,0,-1,811,337,0,0
-406,687,0,0,0,0,0,0,0,0,0,-1,818,337,0,0
-399,687,0,0,0,0,0,0,0,0,0,-1,825,337,0,0
-392,687,0,0,0,0,0,0,0,0,0,-1,832,337,0,0
-385,687,0,0,0,0,0,0,0,0,0,-1,839,337,0,0
-378,687,0,0,0,0,0,0,0,0,0,-1,846,337,0,0
-371,687,0,0,0,0,0,0,0,0,0,-1,853,337,0,0
-364,687,0,0,0,0,0,0,0,0,0,-1,860,337,0,0
-357,687,0,0,0,0,0,0,0,0,0,-1,867,337,0,0
-350,687,0,0,0,0,0,0,0,0,0,-1,874,337,0,0
-343,687,0,0,0,0,0,0,0,0,0,-1,881,337,0,0
-336,687,0,0,0,0,0,0,0,0,0,-1,888,337,0,0
-329,687,0,0,0,0,0,0,0,0,0,-1,895,337,0,0
-322,687,0,0,0,0,0,0,0,0,0,-1,902,337,0,0
-315,687,0,0,0,0,0,0,0,0,0,-1,909,337,0,0
-308,687,0,0,0,0,0,0,0,0,0,-1,916,337,0,0
-301,687,0,0,0,0,0,0,0,0,0,-1,923,337,0,0
-294,687,0,0,0,0,0,0,0,0,0,-1,930,337,0,0
-287,687,0,0,0,0,0,0,0,0,0,-1,937,337,0,0
-280,687,0,0,0,0,0,0,0,0,0,-1,944,337,0,0
-273,687,0,0,0,0,0,0,0,0,0,-1,951,337,0,0
-266,687,0,0,0,0,0,0,0,0,0,-1,958,337,0,0
-259,687,0,0,0,0,0,0,0,0,0,-1,965,337,0,0
-252,687,0,0,0,0,0,0,0,0,0,-1,972,337,0,0
-245,687,0,0,0,0,0,0,0,0,0,-1,979,337,0,0
-238,687,0,0,0,0,0,0,0,0,0,-1,986,337,0,0
-231,687,0,0,0,0,0,0,0,0,0,-1,993,337,0,0
-224,687,0,0,0,0,0,0,0,0,0,-1,1000,337,0,0
-217,687,0,0,0,0,0,0,0,0,0,-1,1007,337,0,0
-210,687,0,0,0,0,0,0,0,0,0,-1,1014,337,0,0
-203,687,0,0,0,0,0,0,0,0,0,-1,1021,337,0,0
-196,687,0,0,0,0,0,0,0,0,0,-1,1028,337,0,0
-189,687,0,0,0,0,0,0,0,0,0,-1,1035,337,0,0
-182,687,0,0,0,0,0,0,0,0,0,-1,1042,337,0,0
-175,687,0,0,0,0,0,0,0,0,0,-1,1049,337,0,0
-168,687,0,0,0,0,0,0,0,0,0,-1,1056,337,0,0
-161,687,0,0,0,0,0,0,0,0,0,-1,1063,337,0,0
-154,687,0,0,0,0,0,0,0,0,0,-1,1070,337,0,0
-147,687,0,0,0,0,0,0,0,0,0,-1,1077,337,0,0
-140,687,0,0,0,0,0,0,0,0,0,-1,1084,337,0,0
-133,687,1.75696,0.835266,0,0,0,0,0,0,0,-1,1091,337,1.75693,-0.835273
-126,687,1.49353,1.09848,0.0422723,0.0138463,0.0144371,0.0483186,0.00779993,0.39661,0.0299529,0.0430274,1098,337,1.49348,-1.09848
-119,687,1.36658,1.0459,0.0426564,0.0124472,0.0153513,0.049088,0.00601549,0.39675,0.0309159,0.0448424,1105,337,1.36654,-1.04589
-112,687,1.0166,1.21289,0,0,0,0,0,0,0,-1,1112,337,1.01666,-1.21289
-105,687,-1.29175,-0.793854,0.039256,0.0099329,0.0140413,0.0448952,0.00429373,0.381896,0.0286065,0.0494571,1119,337,-1.29173,0.793847
-98,687,-0.801392,-0.628387,0.0361323,0.00812515,0.0127402,0.0410605,0.00319695,0.369096,0.0263727,0.0447131,1126,337,-0.801382,0.628396
-91,687,-0.247681,-0.361603,0.0323249,0.00694415,0.0120575,0.0371396,0.00212938,0.379917,0.0240814,0.0374586,1133,337,-0.247704,0.361591
-84,687,0.102905,-0.40097,0.0288633,0.00661898,0.0115437,0.0337711,0.0017112,0.401997,0.0219659,0.0395848,1140,337,0.102942,0.400956
-77,687,-0.433838,-0.37793,0,0,0,0,0,0,0,-1,1147,337,-0.43381,0.377932
-70,687,-0.0828857,-0.123596,0.0237123,0.0124431,0.0119643,0.0313024,0.00485297,0.565329,0.0194535,0.0413351,1154,337,-0.0829021,0.123604
-63,687,0.162109,0.0411377,0.023286,0.018087,0.0121655,0.0331266,0.00824638,0.680141,0.0199131,0.0393232,1161,337,0.162113,-0.0411286
-56,687,0.211548,0.282715,0.0230452,0.0254359,0.0105247,0.0348329,0.0136481,0.841944,0.0202671,0.0414432,1168,337,0.211525,-0.282716
-49,687,0.250122,0.698151,0.0227117,0.0325983,0.00989478,0.0387158,0.0165941,1.01706,0.0224284,0.0441533,1175,337,0.25017,-0.69816
-42,687,0.0938721,0.835205,0.0236855,0.0387219,0.0082952,0.0423989,0.0200085,1.15355,0.0244919,0.0495077,1182,337,0.0939059,-0.835205
-35,687,0.0296631,0.89975,0.0246429,0.0453763,0.00578263,0.04688,0.0231392,1.31639,0.0270669,0.0476556,1189,337,0.0297125,-0.899755
-28,687,0.766602,2.81842,0,0,0,0,0,0,0,-1,1196,337,0.766543,-2.81841
-21,687,1.14856,3.19489,0.0264405,0.0505655,-0.000845545,0.0505951,0.0264109,-1.53581,0.0292205,0.0430931,1203,337,1.14858,-3.19488
-14,687,1.57935,3.40933,0.0265102,0.0515536,-0.00419909,0.0522389,0.0258248,-1.40902,0.0301608,0.0443025,1210,337,1.57935,-3.40934
-7,687,-0.134766,0.219208,0.0252584,0.0507645,-0.00603492,0.0521203,0.0239025,-1.3498,0.0301261,0.0453864,1217,337,-0.134818,-0.219201
0,687,-0.494019,-0.609009,0,0,0,0,0,0,0,-1,1224,337,-0.494017,0.609018
7,687,-0.439209,-0.411865,0.0177151,0.0391049,-0.00404774,0.0398452,0.0169747,-1.38989,0.0230884,0.048138,1231,337,-0.439157,0.411866
14,687,0.038208,-0.675781,0.0122075,0.0292402,0.0003245,0.0292464,0.0122013,1.55175,0.0169624,0.0470587,1238,337,0.0382239,0.675782
21,687,0.0892334,-0.138855,0,0,0,0,0,0,0,-1,1245,337,0.0892389,0.138861
28,687,-0.0421143,-0.38205,0.00094223,0.00980651,0.0139585,0.0200196,-0.0092709,0.939125,0.0172863,0.044383,1252,337,-0.0421343,0.382063
35,687,-0.0860596,-0.562653,-0.00404171,0.000847196,0.0213627,0.0199049,-0.0230994,0.842363,0.0248514,0.0455247,1259,337,-0.0861148,0.56266
42,687,-0.38208,0.140839,-0.00879509,-0.00639956,0.0293896,0.0218167,-0.0370114,0.805764,0.03434,0.0444575,1266,337,-0.382132,-0.140836
49,687,-0.878296,0.978424,0,0,0,0,0,0,0,-1,1273,337,-0.878285,-0.978437
56,687,0.100098,0.400635,0,0,0,0,0,0,0,-1,1280,337,0.100142,-0.400623
63,687,0.0876465,0.712738,0,0,0,0,0,0,0,-1,1287,337,0.0876642,-0.71273
70,687,-0.232788,0.250244,0,0,0,0,0,0,0,-1,1294,337,-0.232815,-0.250251
77,687,0.588013,-0.445953,0,0,0,0,0,0,0,-1,1301,337,0.587993,0.445967
84,687,0.714722,-0.66394,0,0,0,0,0,0,0,-1,1308,337,0.714724,0.663954
91,687,-1.25867,-0.148376,0,0,0,0,0,0,0,-1,1315,337,-1.25862,0.148385
98,687,-1.84534,-0.526581,0.00925768,-0.00385244,-0.012432,0.0167569,-0.0113517,-0.542784,0.0163282,0.0482145,1322,337,-1.84531,0.526594
105,687,-1.94055,-0.509827,0.0148427,-0.00171523,-0.0233369,0.0313256,-0.0181981,-0.614944,0.0289255,0.0462274,1329,337,-1.94061,0.509812
112,687,-1.50842,-0.58963,0.0200819,-0.00125083,-0.0331215,0.0442122,-0.0253811,-0.629623,0.0406671,0.0435207,1336,337,-1.50839,0.589625
119,687,-1.00891,-0.712036,0.0244027,-0.00100529,-0.0413473,0.0549536,-0.0315562,-0.63635,0.0505517,0.0428096,1343,337,-1.00887,0.712044
126,687,-0.528076,-1.08777,0.0274727,-0.00176616,-0.0466493,0.0617398,-0.0360332,-0.63355,0.0570959,0.0422345,1350,337,-0.528025,1.08778
133,687,0.117554,-1.59665,0.0290924,-0.00331313,-0.04803,0.0635789,-0.0377997,-0.622719,0.0591584,0.0461283,1357,337,0.117508,1.59664
140,687,-0.839233,0.327271,0,0,0,0,0,0,0,-1,1364,337,-0.83918,-0.327257
147,687,-0.681274,0.389648,0.0273976,-0.00692365,-0.0407024,0.054409,-0.0339351,-0.585899,0.05146,0.0480792,1371,337,-0.681291,-0.389639
154,687,-0.387207,0.507172,0.0267703,-0.00878926,-0.0366343,0.0497114,-0.0317304,-0.559476,0.0474009,0.0487017,1378,337,-0.38724,-0.507164
161,687,-0.0955811,0.276123,0.0250814,-0.0106552,-0.0317539,0.0436491,-0.029223,-0.529123,0.0423466,0.0446021,1385,337,-0.0956046,-0.27613
168,687,0.0302734,-0.0653076,0.0195881,-0.0127852,-0.0254031,0.0335233,-0.0267204,-0.501739,0.0348556,0.0464928,1392,337,0.0303123,0.0653147
175,687,0.0439453,-0.189117,0.0139676,-0.0148543,-0.0178597,0.0225054,-0.0233921,-0.445932,0.0265006,0.048337,1399,337,0.0439695,0.189129
182,687,0.0280762,-0.258331,0,0,0,0,0,0,0,-1,1406,337,0.0280415,0.258334
189,687,0.163086,-0.226135,0,0,0,0,0,0,0,-1,1413,337,0.163106,0.226126
196,687,0.345703,-0.124359,0.00119451,-0.0139079,0.00476929,0.00257453,-0.015288,0.281662,0.0111497,0.04251,1420,337,0.345651,0.12436
203,687,0.560791,-0.028656,-0.00289274,-0.0139157,0.00929217,0.00239952,-0.019208,0.517721,0.0136755,0.0431576,1427,337,0.560813,0.0286601
210,687,1.93213,-1.20465,0,0,0,0,0,0,0,-1,1434,337,1.93215,1.20465
217,687,1.16638,-1.02643,-0.00893771,-0.0092465,0.0195607,0.0104692,-0.0286534,0.781452,0.0233866,0.0468955,1441,337,1.16633,1.02643
224,687,0.359375,-0.783569,-0.00980849,-0.00922804,0.0207429,0.0112266,-0.0302632,0.792394,0.0247804,0.0430424,1448,337,0.359431,0.783557
231,687,0.428101,0.409393,-0.0102184,-0.00990141,0.0207114,0.0106521,-0.0307719,0.789224,0.0248387,0.0400607,1455,337,0.428126,-0.409388
238,687,0.329346,0.257233,0,0,0,0,0,0,0,-1,1462,337,0.329357,-0.257227
245,687,0.180664,0.115784,0,0,0,0,0,0,0,-1,1469,337,0.180692,-0.115793
252,687,0.126709,-0.311432,0,0,0,0,0,0,0,-1,1476,337,0.126755,0.31143
259,687,0,0,0,0,0,0,0,0,0,-1,1483,337,0,0
266,687,0,0,0,0,0,0,0,0,0,-1,1490,337,0,0
273,687,0,0,0,0,0,0,0,0,0,-1,1497,337,0,0
280,687,0,0,0,0,0,0,0,0,0,-1,1504,337,0,0
287,687,0,0,0,0,0,0,0,0,0,-1,1511,337,0,0
294,687,0,0,0,0,0,0,0,0,0,-1,1518,337,0,0
301,687,0,0,0,0,0,0,0,0,0,-1,1525,337,0,0
308,687,0,0,0,0,0,0,0,0,0,-1,1532,337,0,0
315,687,0,0,0,0,0,0,0,0,0,-1,1539,337,0,0
322,687,0,0,0,0,0,0,0,0,0,-1,1546,337,0,0
329,687,0,0,0,0,0,0,0,0,0,-1,1553,337,0,0
336,687,0,0,0,0,0,0,0,0,0,-1,1560,337,0,0
343,687,0,0,0,0,0,0,0,0,0,-1,1567,337,0,0
350,687,0,0,0,0,0,0,0,0,0,-1,1574,337,0,0
357,687,0,0,0,0,0,0,0,0,0,-1,1581,337,0,0
364,687,0,0,0,0,0,0,0,0,0,-1,1588,337,0,0
371,687,0,0,0,0,0,0,0,0,0,-1,1595,337,0,0
378,687,0,0,0,0,0,0,0,0,0,-1,1602,337,0,0
385,687,0,0,0,0,0,0,0,0,0,-1,1609,337,0,0
392,687,0,0,0,0,0,0,0,0,0,-1,1616,337,0,0
399,687,0,0,0,0,0,0,0,0,0,-1,1623,337,0,0
406,687,0,0,0,0,0,0,0,0,0,-1,1630,337,0,0
413,687,0,0,0,0,0,0,0,0,0,-1,1637,337,0,0
420,687,0,0,0,0,0,0,0,0,0,-1,1644,337,0,0
427,687,0,0,0,0,0,0,0,0,0,-1,1651,337,0,0
434,687,0,0,0,0,0,0,0,0,0,-1,1658,337,0,0
441,687,0,0,0,0,0,0,0,0,0,-1,1665,337,0,0
448,687,0,0,0,0,0,0,0,0,0,-1,1672,337,0,0
455,687,0,0,0,0,0,0,0,0,0,-1,1679,337,0,0
462,687,0,0,0,0,0,0,0,0,0,-1,1686,337,0,0
469,687,0,0,0,0,0,0,0,0,0,-1,1693,337,0,0
476,687,0,0,0,0,0,0,0,0,0,-1,1700,337,0,0
483,687,0,0,0,0,0,0,0,0,0,-1,1707,337,0,0
490,687,0,0,0,0,0,0,0,0,0,-1,1714,337,0,0
497,687,0,0,0,0,0,0,0,0,0,-1,1721,337,0,0
504,687,0,0,0,0,0,0,0,0,0,-1,1728,337,0,0
511,687,0,0,0,0,0,0,0,0,0,-1,1735,337,0,0
518,687,0,0,0,0,0,0,0,0,0,-1,1742,337,0,0
525,687,0,0,0,0,0,0,0,0,0,-1,1749,337,0,0
532,687,0,0,0,0,0,0,0,0,0,-1,1756,337,0,0
539,687,0,0,0,0,0,0,0,0,0,-1,1763,337,0,0
546,687,0,0,0,0,0,0,0,0,0,-1,1770,337,0,0
553,687,0,0,0,0,0,0,0,0,0,-1,1777,337,0,0
560,687,0,0,0,0,0,0,0,0,0,-1,1784,337,0,0
567,687,0,0,0,0,0,0,0,0,0,-1,1791,337,0,0
574,687,0,0,0,0,0,0,0,0,0,-1,1798,337,0,0
581,687,0,0,0,0,0,0,0,0,0,-1,1805,337,0,0
588,687,0,0,0,0,0,0,0,0,0,-1,1812,337,0,0
595,687,0,0,0,0,0,0,0,0,0,-1,1819,337,0,0
602,687,0,0,0,0,0,0,0,0,0,-1,1826,337,0,0
609,687,0,0,0,0,0,0,0,0,0,-1,1833,337,0,0
616,687,0,0,0,0,0,0,0,0,0,-1,1840,337,0,0
623,687,0,0,0,0,0,0,0,0,0,-1,1847,337,0,0
630,687,0,0,0,0,0,0,0,0,0,-1,1854,337,0,0
637,687,0,0,0,0,0,0,0,0,0,-1,1861,337,0,0
644,687,0,0,0,0,0,0,0,0,0,-1,1868,337,0,0
651,687,0,0,0,0,0,0,0,0,0,-1,1875,337,0,0
658,687,0,0,0,0,0,0,0,0,0,-1,1882,337,0,0
665,687,0,0,0,0,0,0,0,0,0,-1,1889,337,0,0
672,687,0,0,0,0,0,0,0,0,0,-1,1896,337,0,0
679,687,0,0,0,0,0,0,0,0,0,-1,1903,337,0,0
686,687,0,0,0,0,0,0,0,0,0,-1,1910,337,0,0
693,687,0,0,0,0,0,0,0,0,0,-1,1917,337,0,0
700,687,0,0,0,0,0,0,0,0,0,-1,1924,337,0,0
707,687,0,0,0,0,0,0,0,0,0,-1,1931,337,0,0
714,687,0,0,0,0,0,0,0,0,0,-1,1938,337,0,0
721,687,0,0,0,0,0,0,0,0,0,-1,1945,337,0,0
728,687,0,0,0,0,0,0,0,0,0,-1,1952,337,0,0
735,687,0,0,0,0,0,0,0,0,0,-1,1959,337,0,0
742,687,0,0,0,0,0,0,0,0,0,-1,1966,337,0,0
749,687,0,0,0,0,0,0,0,0,0,-1,1973,337,0,0
756,687,0,0,0,0,0,0,0,0,0,-1,1980,337,0,0
763,687,0,0,0,0,0,0,0,0,0,-1,1987,337,0,0
770,687,0,0,0,0,0,0,0,0,0,-1,1994,337,0,0
777,687,0,0,0,0,0,0,0,0,0,-1,2001,337,0,0
784,687,0,0,0,0,0,0,0,0,0,-1,2008,337,0,0
791,687,0,0,0,0,0,0,0,0,0,-1,2015,337,0,0
798,687,0,0,0,0,0,0,0,0,0,-1,2022,337,0,0
805,687,0,0,0,0,0,0,0,0,0,-1,2029,337,0,0
812,687,0,0,0,0,0,0,0,0,0,-1,2036,337,0,0
-700,680,0,0,0,0,0,0,0,0,0,-1,524,344,0,0
-693,680,0,0,0,0,0,0,0,0,0,-1,531,344,0,0
-686,680,0,0,0,0,0,0,0,0,0,-1,538,344,0,0
-679,680,0,0,0,0,0,0,0,0,0,-1,545,344,0,0
-672,680,0,0,0,0,0,0,0,0,0,-1,552,344,0,0
-665,680,0,0,0,0,0,0,0,0,0,-1,559,344,0,0
-658,680,0,0,0,0,0,0,0,0,0,-1,566,344,0,0
-651,680,0,0,0,0,0,0,0,0,0,-1,573,344,0,0
-644,680,0,0,0,0,0,0,0,0,0,-1,580,344,0,0
-637,680,0,0,0,0,0,0,0,0,0,-1,587,344,0,0
-630,680,0,0,0,0,0,0,0,0,0,-1,594,344,0,0
-623,680,0,0,0,0,0,0,0,0,0,-1,601,344,0,0
-616,680,0,0,0,0,0,0,0,0,0,-1,608,344,0,0
-609,680,0,0,0,0,0,0,0,0,0,-1,615,344,0,0
-602,680,0,0,0,0,0,0,0,0,0,-1,622,344,0,0
-595,680,0,0,0,0,0,0,0,0,0,-1,629,344,0,0
-588,680,0,0,0,0,0,0,0,0,0,-1,636,344,0,0
-581,680,0,0,0,0,0,0,0,0,0,-1,643,344,0,0
-574,680,0,0,0,0,0,0,0,0,0,-1,650,344,0,0
-567,680,0,0,0,0,0,0,0,0,0,-1,657,344,0,0
-560,680,0,0,0,0,0,0,0,0,0,-1,664,344,0,0
-553,680,0,0,0,0,0,0,0,0,0,-1,671,344,0,0
-546,680,0,0,0,0,0,0,0,0,0,-1,678,344,0,0
-539,680,0,0,0,0,0,0,0,0,0,-1,685,344,0,0
-532,680,0,0,0,0,0,0,0,0,0,-1,692,344,0,0
-525,680,0,0,0,0,0,0,0,0,0,-1,699,344,0,0
-518,680,0,0,0,0,0,0,0,0,0,-1,706,344,0,0
-511,680,0,0,0,0,0,0,0,0,0,-1,713,344,0,0
-504,680,0,0,0,0,0,0,0,0,0,-1,720,344,0,0
-497,680,0,0,0,0,0,0,0,0,0,-1,727,344,0,0
-490,680,0,0,0,0,0,0,0,0,0,-1,734,344,0,0
-483,680,0,0,0,0,0,0,0,0,0,-1,741,344,0,0
-476,680,0,0,0,0,0,0,0,0,0,-1,748,344,0,0
-469,680,0,0,0,0,0,0,0,0,0,-1,755,344,0,0
-462,680,0,0,0,0,0,0,0,0,0,-1,762,344,0,0
-455,680,0,0,0,0,0,0,0,0,0,-1,769,344,0,0
-448,680,0,0,0,0,0,0,0,0,0,-1,776,344,0,0
-441,680,0,0,0,0,0,0,0,0,0,-1,783,344,0,0
-434,680,0,0,0,0,0,0,0,0,0,-1,790,344,0,0
-427,680,0,0,0,0,0,0,0,0,0,-1,797,344,0,0
-420,680,0,0,0,0,0,0,0,0,0,-1,804,344,0,0
-413,680,0,0,0,0,0,0,0,0,0,-1,811,344,0,0
-406,680,0,0,0,0,0,0,0,0,0,-1,818,344,0,0
-399,680,0,0,0,0,0,0,0,0,0,-1,825,344,0,0
-392,680,0,0,0,0,0,0,0,0,0,-1,832,344,0,0
-385,680,0,0,0,0,0,0,0,0,0,-1,839,344,0,0
-378,680,0,0,0,0,0,0,0,0,0,-1,846,344,0,0
-371,680,0,0,0,0,0,0,0,0,0,-1,853,344,0,0
-364,680,0,0,0,0,0,0,0,0,0,-1,860,344,0,0
-357,680,0,0,0,0,0,0,0,0,0,-1,867,344,0,0
-350,680,0,0,0,0,0,0,0,0,0,-1,874,344,0,0
-343,680,0,0,0,0,0,0,0,0,0,-1,881,344,0,0
-336,680,0,0,0,0,0,0,0,0,0,-1,888,344,0,0
-329,680,0,0,0,0,0,0,0,0,0,-1,895,344,0,0
-322,680,0,0,0,0,0,0,0,0,0,-1,902,344,0,0
-315,680,0,0,0,0,0,0,0,0,0,-1,909,344,0,0
-308,680,0,0,0,0,0,0,0,0,0,-1,916,344,0,0
-301,680,0,0,0,0,0,0,0,0,0,-1,923,344,0,0
-294,680,0,0,0,0,0,0,0,0,0,-1,930,344,0,0
-287,680,0,0,0,0,0,0,0,0,0,-1,937,344,0,0
-280,680,0,0,0,0,0,0,0,0,0,-1,944,344,0,0
-273,680,0,0,0,0,0,0,0,0,0,-1,951,344,0,0
-266,680,0,0,0,0,0,0,0,0,0,-1,958,344,0,0
-259,680,0,0,0,0,0,0,0,0,0,-1,965,344,0,0
-252,680,0,0,0,0,0,0,0,0,0,-1,972,344,0,0
-245,680,0,0,0,0,0,0,0,0,0,-1,979,344,0,0
-238,680,0,0,0,0,0,0,0,0,0,-1,986,344,0,0
-231,680,0,0,0,0,0,0,0,0,0,-1,993,344,0,0
-224,680,0,0,0,0,0,0,0,0,0,-1,1000,344,0,0
-217,680,0,0,0,0,0,0,0,0,0,-1,1007,344,0,0
-210,680,0,0,0,0,0,0,0,0,0,-1,1014,344,0,0
-203,680,0,0,0,0,0,0,0,0,0,-1,1021,344,0,0
-196,680,0,0,0,0,0,0,0,0,0,-1,1028,344,0,0
-189,680,0,0,0,0,0,0,0,0,0,-1,1035,344,0,0
-182,680,0,0,0,0,0,0,0,0,0,-1,1042,344,0,0
-175,680,0,0,0,0,0,0,0,0,0,-1,1049,344,0,0
-168,680,0,0,0,0,0,0,0,0,0,-1,1056,344,0,0
-161,680,0,0,0,0,0,0,0,0,0,-1,1063,344,0,0
-154,680,-1.45276,1.21869,0,0,0,0,0,0,0,-1,1070,344,-1.45276,-1.21868
-147,680,-0.769043,1.3132,0.0236938,0.020905,-0.00243009,0.0251011,0.0194976,-0.524931,0.0152142,0.0442303,1077,344,-0.769088,-1.31319
-140,680,-0.302124,1.13873,0.028226,0.0192964,0.00263327,0.0289447,0.0185777,0.266437,0.0169339,0.0423917,1084,344,-0.302065,-1.13872
-133,680,1.51465,0.58844,0,0,0,0,0,0,0,-1,1091,344,1.51468,-0.588451
-126,680,1.17249,0.844818,0.034284,0.0157311,0.00981341,0.0385114,0.0115036,0.40676,0.0228273,0.0400276,1098,344,1.17247,-0.844807
-119,680,0.839478,0.961334,0.0350302,0.013956,0.0104928,0.0393635,0.0096227,0.391646,0.0236953,0.0398798,1105,344,0.839435,-0.961321
-112,680,1.22449,0.900391,0,0,0,0,0,0,0,-1,1112,344,1.22447,-0.900386
-105,680,-1.46509,-0.61972,0.0322602,0.0106247,0.00977847,0.0360247,0.00686015,0.367491,0.0220877,0.04372,1119,344,-1.46509,0.619722
-98,680,-1.00952,-0.460968,0.0296689,0.00863778,0.00892983,0.032949,0.00535773,0.352015,0.0204158,0.0430027,1126,344,-1.00951,0.460971
-91,680,-0.429688,-0.343597,0.026506,0.00712624,0.00867014,0.0298186,0.00381362,0.364957,0.0187377,0.0386607,1133,344,-0.429707,0.343609
-84,680,-0.462646,0.0335388,0,0,0,0,0,0,0,-1,1140,344,-0.462597,-0.0335296
-77,680,-0.310547,-0.136047,0.0216225,0.00829169,0.0088792,0.0260597,0.0038545,0.463431,0.0162415,0.0399633,1147,344,-0.310589,0.136044
-70,680,-0.00366211,-0.0885315,0.0199872,0.0113279,0.00940166,0.0260083,0.00530684,0.569614,0.0158685,0.0407113,1154,344,-0.00368556,0.0885226
-63,680,0.299316,-0.0138245,0.0192302,0.0158649,0.00960034,0.0272942,0.00780087,0.698644,0.0162332,0.0410993,1161,344,0.299325,0.0138147
-56,680,0.133057,0.292664,0.0184671,0.0214906,0.00830431,0.0284197,0.0115381,0.875434,0.0165045,0.0423385,1168,344,0.133107,-0.292676
-49,680,0.174927,0.463715,0.0176978,0.0271192,0.00794193,0.0316424,0.0131746,1.05308,0.0183537,0.0419123,1175,344,0.17487,-0.463706
-42,680,-0.0490723,0.678101,0.0176479,0.0319949,0.0067768,0.0346897,0.014953,1.19231,0.0200915,0.0496278,1182,344,-0.0490698,-0.678093
-35,680,0.0512695,1.29025,0.017882,0.0367535,0.00487986,0.0379406,0.0166948,1.33215,0.0219575,0.0477607,1189,344,0.0512889,-1.29025
-28,680,0.672607,2.12564,0.0184349,0.0393699,0.00238103,0.0396373,0.0181675,1.45896,0.0229111,0.0404713,1196,344,0.672665,-2.12564
-21,680,0.940308,2.40018,0.0187142,0.0398428,-0.000444197,0.0398522,0.0187049,-1.54979,0.0230231,0.0396,1203,344,0.940309,-2.40016
-14,680,1.30579,2.61115,0.0184644,0.0396685,-0.0031973,0.0401401,0.0179928,-1.42435,0.0232162,0.0460613,1210,344,1.30575,-2.61115
-7,680,-0.0186768,0.0921936,0.0173675,0.0380233,-0.00473184,0.0390557,0.0163352,-1.35599,0.022649,0.046013,1217,344,-0.0186885,-0.0921813
0,680,-0.0377197,-0.248932,0,0,0,0,0,0,0,-1,1224,344,-0.0377146,0.248925
7,680,0.0289307,-0.40332,0.0120459,0.0278135,-0.00355362,0.0285774,0.011282,-1.35906,0.0166205,0.0470342,1231,344,0.0289621,0.403316
14,680,0.0889893,-0.302032,0.00814257,0.0201629,-0.000443229,0.0201792,0.00812625,-1.53399,0.0117238,0.0450955,1238,344,0.0889833,0.302039
21,680,0.0739746,-0.0411072,0.00399584,0.0130405,0.00395751,0.0145276,0.00250873,1.21135,0.0089666,0.0437707,1245,344,0.0740211,0.0411171
28,680,-0.022583,-0.163055,-0.000197291,0.00532434,0.0096186,0.0125705,-0.00744346,0.925155,0.0116808,0.0397254,1252,344,-0.0226003,0.163056
35,680,-0.0385742,-0.287933,-0.00393868,-0.00123524,0.0150472,0.0125208,-0.0176947,0.830194,0.01753,0.0419359,1259,344,-0.0385552,0.287936
42,680,-0.0941162,-0.0993958,-0.00736326,-0.00625972,0.0209882,0.014184,-0.027807,0.79854,0.0246651,0.0430149,1266,344,-0.0941246,0.099389
49,680,-0.187256,0.0300598,0,0,0,0,0,0,0,-1,1273,344,-0.187316,-0.0300623
56,680,0.046875,0.231506,-0.0105617,-0.00956696,0.0253873,0.0153279,-0.0354566,0.795193,0.0300783,0.0395661,1280,344,0.046835,-0.231495
63,680,0.0419922,0.385712,-0.00991724,-0.00930717,0.0230884,0.0134782,-0.0327026,0.792004,0.0274218,0.0390505,1287,344,0.0419755,-0.385699
70,680,-0.171631,0.137543,-0.00787818,-0.00942042,0.0188011,0.0101676,-0.0274662,0.764902,0.02248,0.040013,1294,344,-0.171632,-0.137531
77,680,-0.108154,-0.032135,0,0,0,0,0,0,0,-1,1301,344,-0.10816,0.0321372
84,680,-1.13416,-0.300507,0,0,0,0,0,0,0,-1,1308,344,-1.13415,0.30051
91,680,-1.1886,-0.037384,0,0,0,0,0,0,0,-1,1315,344,-1.18865,0.0373731
98,680,-1.27551,-0.274292,0,0,0,0,0,0,0,-1,1322,344,-1.27556,0.27428
105,680,-1.15076,-0.308746,0.0125766,-0.00283221,-0.0210087,0.027249,-0.0175047,-0.609651,0.0260419,0.0435659,1329,344,-1.15075,0.308731
112,680,-0.942017,-0.236694,0.0167412,-0.00265702,-0.028278,0.0369372,-0.022853,-0.620189,0.0348377,0.044662,1336,344,-0.94201,0.2367
119,680,-0.260376,-0.391998,0.0200562,-0.002594,-0.0340321,0.0445981,-0.0271359,-0.624773,0.0418226,0.0421099,1343,344,-0.260387,0.392004
126,680,0.480713,-0.637299,0.0223001,-0.00314019,-0.0374711,0.0491512,-0.0299913,-0.621768,0.0461371,0.0423932,1350,344,0.480656,0.637313
133,680,1.43909,-1.16125,0.0233396,-0.00410815,-0.0380038,0.0500216,-0.0307901,-0.612125,0.047095,0.0454579,1357,344,1.43904,1.16127
140,680,-0.73645,0.322693,0.0228814,-0.00520074,-0.0353392,0.0468668,-0.0291861,-0.5963,0.0443029,0.0467793,1364,344,-0.736427,-0.322689
147,680,-0.497314,0.327301,0.0215942,-0.00629329,-0.0316253,0.0422133,-0.0269123,-0.577766,0.0402343,0.0462038,1371,344,-0.497364,-0.32729
154,680,-0.548096,0.207581,0,0,0,0,0,0,0,-1,1378,344,-0.548135,-0.207589
161,680,-0.585327,0.400269,0,0,0,0,0,0,0,-1,1385,344,-0.585283,-0.400254
168,680,0.261475,0.0597229,0.0144766,-0.0100341,-0.0187633,0.0246323,-0.0201897,-0.496103,0.0259204,0.0469411,1392,344,0.261439,-0.0597378
175,680,0.127197,-0.0166016,0.00989262,-0.0115534,-0.0126609,0.0157612,-0.017422,-0.434041,0.0191664,0.0473862,1399,344,0.127183,0.0166124
182,680,0.0358887,-0.0514221,0.00581537,-0.0118856,-0.00562071,0.00744932,-0.0135196,-0.282905,0.0122743,0.0485391,1406,344,0.0359232,0.051426
189,680,0.164429,-0.118988,0.00206918,-0.0110132,0.000743579,0.00211131,-0.0110553,0.0565953,0.00816548,0.0460516,1413,344,0.16439,0.118994
196,680,0.256958,-0.146484,0.000188604,-0.0113255,0.00475435,0.00189797,-0.0130349,0.345146,0.00938678,0.0438095,1420,344,0.256903,0.146492
203,680,-0.133789,0.151825,0,0,0,0,0,0,0,-1,1427,344,-0.133797,-0.151833
210,680,1.56799,-1.05423,0,0,0,0,0,0,0,-1,1434,344,1.56799,1.05422
217,680,0.960083,-0.825226,-0.00714008,-0.0089022,0.0162368,0.00823959,-0.0242819,0.758293,0.0195229,0.0446265,1441,344,0.960041,0.82523
224,680,0.319702,-0.605255,-0.00750141,-0.00900238,0.0173093,0.00907367,-0.0255775,0.763733,0.0207484,0.0391713,1448,344,0.319694,0.605265
231,680,0.457642,0.306458,-0.00742536,-0.00965535,0.0174426,0.0089378,-0.0260185,0.75348,0.0209698,0.0407232,1455,344,0.457605,-0.306444
238,680,0.511841,0.328674,0,0,0,0,0,0,0,-1,1462,344,0.511836,-0.328659
245,680,0.355957,-0.193787,0,0,0,0,0,0,0,-1,1469,344,0.355936,0.193784
252,680,0.168335,-0.141968,-0.00887545,-0.0116231,0.0103077,0.000149553,-0.0206481,0.719149,0.0138155,0.0437945,1476,344,0.168394,0.141979
259,680,0.0822754,-0.170166,-0.00979507,-0.0128245,0.00694732,-0.00419925,-0.0184203,0.678065,0.0111473,0.0432672,1483,344,0.0822814,0.170158
266,680,-0.00561523,-0.219513,-0.00980594,-0.014242,0.00210825,-0.00896384,-0.0150841,0.380016,0.00876023,0.0422294,1490,344,-0.00563454,0.219513
273,680,0.0236816,-0.195068,-0.00700855,-0.0155957,-0.00249876,-0.00633437,-0.0162699,-0.263532,0.00946979,0.0402299,1497,344,0.023646,0.195061
280,680,0,0,0,0,0,0,0,0,0,-1,1504,344,0,0
287,680,0,0,0,0,0,0,0,0,0,-1,1511,344,0,0
294,680,0,0,0,0,0,0,0,0,0,-1,1518,344,0,0
301,680,0,0,0,0,0,0,0,0,0,-1,1525,344,0,0
308,680,0,0,0,0,0,0,0,0,0,-1,1532,344,0,0
315,680,0,0,0,0,0,0,0,0,0,-1,1539,344,0,0
322,680,0,0,0,0,0,0,0,0,0,-1,1546,344,0,0
329,680,0,0,0,0,0,0,0,0,0,-1,1553,344,0,0
336,680,0,0,0,0,0,0,0,0,0,-1,1560,344,0,0
343,680,0,0,0,0,0,0,0,0,0,-1,1567,344,0,0
350,680,0,0,0,0,0,0,0,0,0,-1,1574,344,0,0
357,680,0,0,0,0,0,0,0,0,0,-1,1581,344,0,0
364,680,0,0,0,0,0,0,0,0,0,-1,1588,344,0,0
371,680,0,0,0,0,0,0,0,0,0,-1,1595,344,0,0
378,680,0,0,0,0,0,0,0,0,0,-1,1602,344,0,0
385,680,0,0,0,0,0,0,0,0,0,-1,1609,344,0,0
392,680,0,0,0,0,0,0,0,0,0,-1,1616,344,0,0
399,680,0,0,0,0,0,0,0,0,0,-1,1623,344,0,0
406,680,0,0,0,0,0,0,0,0,0,-1,1630,344,0,0
413,680,0,0,0,0,0,0,0,0,0,-1,1637,344,0,0
420,680,0,0,0,0,0,0,0,0,0,-1,1644,344,0,0
427,680,0,0,0,0,0,0,0,0,0,-1,1651,344,0,0
434,680,0,0,0,0,0,0,0,0,0,-1,1658,344,0,0
441,680,0,0,0,0,0,0,0,0,0,-1,1665,344,0,0
448,680,0,0,0,0,0,0,0,0,0,-1,1672,344,0,0
455,680,0,0,0,0,0,0,0,0,0,-1,1679,344,0,0
462,680,0,0,0,0,0,0,0,0,0,-1,1686,344,0,0
469,680,0,0,0,0,0,0,0,0,0,-1,1693,344,0,0
476,680,0,0,0,0,0,0,0,0,0,-1,1700,344,0,0
483,680,0,0,0,0,0,0,0,0,0,-1,1707,344,0,0
490,680,0,0,0,0,0,0,0,0,0,-1,1714,344,0,0
497,680,0,0,0,0,0,0,0,0,0,-1,1721,344,0,0
504,680,0,0,0,0,0,0,0,0,0,-1,1728,344,0,0
511,680,0,0,0,0,0,0,0,0,0,-1,1735,344,0,0
518,680,0,0,0,0,0,0,0,0,0,-1,1742,344,0,0
525,680,0,0,0,0,0,0,0,0,0,-1,1749,344,0,0
532,680,0,0,0,0,0,0,0,0,0,-1,1756,344,0,0
539,680,0,0,0,0,0,0,0,0,0,-1,1763,344,0,0
546,680,0,0,0,0,0,0,0,0,0,-1,1770,344,0,0
553,680,0,0,0,0,0,0,0,0,0,-1,1777,344,0,0
560,680,0,0,0,0,0,0,0,0,0,-1,1784,344,0,0
567,680,0,0,0,0,0,0,0,0,0,-1,1791,344,0,0
574,680,0,0,0,0,0,0,0,0,0,-1,1798,344,0,0
581,680,0,0,0,0,0,0,0,0,0,-1,1805,344,0,0
588,680,0,0,0,0,0,0,0,0,0,-1,1812,344,0,0
595,680,0,0,0,0,0,0,0,0,0,-1,1819,344,0,0
602,680,0,0,0,0,0,0,0,0,0,-1,1826,344,0,0
609,680,0,0,0,0,0,0,0,0,0,-1,1833,344,0,0
616,680,0,0,0,0,0,0,0,0,0,-1,1840,344,0,0
623,680,0,0,0,0,0,0,0,0,0,-1,1847,344,0,0
630,680,0,0,0,0,0,0,0,0,0,-1,1854,344,0,0
637,680,0,0,0,0,0,0,0,0,0,-1,1861,344,0,0
644,680,0,0,0,0,0,0,0,0,0,-1,1868,344,0,0
651,680,0,0,0,0,0,0,0,0,0,-1,1875,344,0,0
658,680,0,0,0,0,0,0,0,0,0,-1,1882,344,0,0
665,680,0,0,0,0,0,0,0,0,0,-1,1889,344,0,0
672,680,0,0,0,0,0,0,0,0,0,-1,1896,344,0,0
679,680,0,0,0,0,0,0,0,0,0,-1,1903,344,0,0
686,680,0,0,0,0,0,0,0,0,0,-1,1910,344,0,0
693,680,0,0,0,0,0,0,0,0,0,-1,1917,344,0,0
700,680,0,0,0,0,0,0,0,0,0,-1,1924,344,0,0
707,680,0,0,0,0,0,0,0,0,0,-1,1931,344,0,0
714,680,0,0,0,0,0,0,0,0,0,-1,1938,344,0,0
721,680,0,0,0,0,0,0,0,0,0,-1,1945,344,0,0
728,680,0,0,0,0,0,0,0,0,0,-1,1952,344,0,0
735,680,0,0,0,0,0,0,0,0,0,-1,1959,344,0,0
742,680,0,0,0,0,0,0,0,0,0,-1,1966,344,0,0
749,680,0,0,0,0,0,0,0,0,0,-1,1973,344,0,0
756,680,0,0,0,0,0,0,0,0,0,-1,1980,344,0,0
763,680,0,0,0,0,0,0,0,0,0,-1,1987,344,0,0
770,680,0,0,0,0,0,0,0,0,0,-1,1994,344,0,0
777,680,0,0,0,0,0,0,0,0,0,-1,2001,344,0,0
784,680,0,0,0,0,0,0,0,0,0,-1,2008,344,0,0
791,680,0,0,0,0,0,0,0,0,0,-1,2015,344,0,0
798,680,0,0,0,0,0,0,0,0,0,-1,2022,344,0,0
805,680,0,0,0,0,0,0,0,0,0,-1,2029,344,0,0
812,680,0,0,0,0,0,0,0,0,0,-1,2036,344,0,0
-700,673,0,0,0,0,0,0,0,0,0,-1,524,351,0,0
-693,673,0,0,0,0,0,0,0,0,0,-1,531,351,0,0
-686,673,0,0,0,0,0,0,0,0,0,-1,538,351,0,0
-679,673,0,0,0,0,0,0,0,0,0,-1,545,351,0,0
-672,673,0,0,0,0,0,0,0,0,0,-1,552,351,0,0
-665,673,0,0,0,0,0,0,0,0,0,-1,559,351,0,0
-658,673,0,0,0,0,0,0,0,0,0,-1,566,351,0,0
-651,673,0,0,0,0,0,0,0,0,0,-1,573,351,0,0
-644,673,0,0,0,0,0,0,0,0,0,-1,580,351,0,0
-637,673,0,0,0,0,0,0,0,0,0,-1,587,351,0,0
-630,673,0,0,0,0,0,0,0,0,0,-1,594,351,0,0
-623,673,0,0,0,0,0,0,0,0,0,-1,601,351,0,0
-616,673,0,0,0,0,0,0,0,0,0,-1,608,351,0,0
-609,673,0,0,0,0,0,0,0,0,0,-1,615,351,0,0
-602,673,0,0,0,0,0,0,0,0,0,-1,622,351,0,0
-595,673,0,0,0,0,0,0,0,0,0,-1,629,351,0,0
-588,673,0,0,0,0,0,0,0,0,0,-1,636,351,0,0
-581,673,0,0,0,0,0,0,0,0,0,-1,643,351,0,0
-574,673,0,0,0,0,0,0,0,0,0,-1,650,351,0,0
-567,673,0,0,0,0,0,0,0,0,0,-1,657,351,0,0
-560,673,0,0,0,0,0,0,0,0,0,-1,664,351,0,0
-553,673,0,0,0,0,0,0,0,0,0,-1,671,351,0,0
-546,673,0,0,0,0,0,0,0,0,0,-1,678,351,0,0
-539,673,0,0,0,0,0,0,0,0,0,-1,685,351,0,0
-532,673,0,0,0,0,0,0,0,0,0,-1,692,351,0,0
-525,673,0,0,0,0,0,0,0,0,0,-1,699,351,0,0
-518,673,0,0,0,0,0,0,0,0,0,-1,706,351,0,0
-511,673,0,0,0,0,0,0,0,0,0,-1,713,351,0,0
-504,673,0,0,0,0,0,0,0,0,0,-1,720,351,0,0
-497,673,0,0,0,0,0,0,0,0,0,-1,727,351,0,0
-490,673,0,0,0,0,0,0,0,0,0,-1,734,351,0,0
-483,673,0,0,0,0,0,0,0,0,0,-1,741,351,0,0
-476,673,0,0,0,0,0,0,0,0,0,-1,748,351,0,0
-469,673,0,0,0,0,0,0,0,0,0,-1,755,351,0,0
-462,673,0,0,0,0,0,0,0,0,0,-1,762,351,0,0
-455,673,0,0,0,0,0,0,0,0,0,-1,769,351,0,0
-448,673,0,0,0,0,0,0,0,0,0,-1,776,351,0,0
-441,673,0,0,0,0,0,0,0,0,0,-1,783,351,0,0
-434,673,0,0,0,0,0,0,0,0,0,-1,790,351,0,0
-427,673,0,0,0,0,0,0,0,0,0,-1,797,351,0,0
-420,673,0,0,0,0,0,0,0,0,0,-1,804,351,0,0
-413,673,0,0,0,0,0,0,0,0,0,-1,811,351,0,0
-406,673,0,0,0,0,0,0,0,0,0,-1,818,351,0,0
-399,673,0,0,0,0,0,0,0,0,0,-1,825,351,0,0
-392,673,0,0,0,0,0,0,0,0,0,-1,832,351,0,0
-385,673,0,0,0,0,0,0,0,0,0,-1,839,351,0,0
-378,673,0,0,0,0,0,0,0,0,0,-1,846,351,0,0
-371,673,0,0,0,0,0,0,0,0,0,-1,853,351,0,0
-364,673,0,0,0,0,0,0,0,0,0,-1,860,351,0,0
-357,673,0,0,0,0,0,0,0,0,0,-1,867,351,0,0
-350,673,0,0,0,0,0,0,0,0,0,-1,874,351,0,0
-343,673,0,0,0,0,0,0,0,0,0,-1,881,351,0,0
-336,673,0,0,0,0,0,0,0,0,0,-1,888,351,0,0
-329,673,0,0,0,0,0,0,0,0,0,-1,895,351,0,0
-322,673,0,0,0,0,0,0,0,0,0,-1,902,351,0,0
-315,673,0,0,0,0,0,0,0,0,0,-1,909,351,0,0
-308,673,0,0,0,0,0,0,0,0,0,-1,916,351,0,0
-301,673,0,0,0,0,0,0,0,0,0,-1,923,351,0,0
-294,673,0,0,0,0,0,0,0,0,0,-1,930,351,0,0
-287,673,0,0,0,0,0,0,0,0,0,-1,937,351,0,0
-280,673,0,0,0,0,0,0,0,0,0,-1,944,351,0,0
-273,673,0,0,0,0,0,0,0,0,0,-1,951,351,0,0
-266,673,0,0,0,0,0,0,0,0,0,-1,958,351,0,0
-259,673,0,0,0,0,0,0,0,0,0,-1,965,351,0,0
-252,673,0,0,0,0,0,0,0,0,0,-1,972,351,0,0
-245,673,0,0,0,0,0,0,0,0,0,-1,979,351,0,0
-238,673,0,0,0,0,0,0,0,0,0,-1,986,351,0,0
-231,673,0,0,0,0,0,0,0,0,0,-1,993,351,0,0
-224,673,0,0,0,0,0,0,0,0,0,-1,1000,351,0,0
-217,673,0,0,0,0,0,0,0,0,0,-1,1007,351,0,0
-210,673,0,0,0,0,0,0,0,0,0,-1,1014,351,0,0
-203,673,0,0,0,0,0,0,0,0,0,-1,1021,351,0,0
-196,673,0,0,0,0,0,0,0,0,0,-1,1028,351,0,0
-189,673,0,0,0,0,0,0,0,0,0,-1,1035,351,0,0
-182,673,0,0,0,0,0,0,0,0,0,-1,1042,351,0,0
-175,673,-0.329346,0.0155334,-0.0101117,0.0151164,-0.0233837,0.0290713,-0.0240666,-1.03275,0.0307245,0.0403062,1049,351,-0.329362,-0.0155359
-168,673,-0.286011,0.0162964,-0.0016809,0.0178254,-0.0174583,0.0280701,-0.0119257,-1.04013,0.0237104,0.0437629,1056,351,-0.286019,-0.0162908
-161,673,-0.245605,-0.0537415,0.00641892,0.0209525,-0.0121705,0.0278606,-0.000489216,-1.05453,0.0187389,0.0427182,1063,351,-0.245576,0.053753
-154,673,-1.91357,0.913055,0,0,0,0,0,0,0,-1,1070,351,-1.91361,-0.913042
-147,673,-1.14355,1.02808,0.0171319,0.0208533,-0.00222647,0.0218942,0.016091,-1.13347,0.0130976,0.0462877,1077,351,-1.14352,-1.02808
-140,673,-0.452393,0.884521,0.0212432,0.0195441,0.0011976,0.021862,0.0189253,0.476895,0.0137011,0.0430523,1084,351,-0.452401,-0.884531
-133,673,0.251831,0.34552,0,0,0,0,0,0,0,-1,1091,351,0.251825,-0.345509
-126,673,0.554565,0.573486,0.0269519,0.0159709,0.00650056,0.0299704,0.0129524,0.434717,0.0173564,0.0413513,1098,351,0.554518,-0.573495
-119,673,0.864258,0.716217,0.0279006,0.0141308,0.00691588,0.0307744,0.0112571,0.393822,0.0179797,0.0399955,1105,351,0.864287,-0.716221
-112,673,0.992065,0.802734,0.0271187,0.01207,0.00691915,0.0298164,0.00937229,0.37176,0.0176057,0.0427831,1112,351,0.992035,-0.802724
-105,673,1.1825,0.858887,0,0,0,0,0,0,0,-1,1119,351,1.18254,-0.858873
-98,673,-0.956909,-0.361664,0.0236298,0.00860622,0.00600342,0.0257341,0.00650198,0.337126,0.0154517,0.0433369,1126,351,-0.956879,0.361658
-91,673,-0.447266,-0.252014,0.0210782,0.00695103,0.00599159,0.0232771,0.00475215,0.351734,0.0142016,0.0416713,1133,351,-0.447282,0.252012
-84,673,-0.252075,-0.0780945,0.0190511,0.00615299,0.00605568,0.0214486,0.00375549,0.376976,0.0132262,0.0391049,1140,351,-0.25209,0.0780863
-77,673,-0.271606,-0.197968,0.0174544,0.00752113,0.00655572,0.0207124,0.00426311,0.461224,0.0126294,0.0373249,1147,351,-0.271653,0.19797
-70,673,0.0209961,-0.0546875,0.0162268,0.00993011,0.00712511,0.0208682,0.00528877,0.577363,0.012527,0.0378004,1154,351,0.0210291,0.0546991
-63,673,0.536255,0.176575,0,0,0,0,0,0,0,-1,1161,351,0.536253,-0.17658
-56,673,-0.0194092,0.0569153,0.0144916,0.0176475,0.00636163,0.0226239,0.00951512,0.906968,0.0131168,0.0406864,1168,351,-0.0194054,-0.0569013
-49,673,-0.110229,-0.0891418,0.0135987,0.0219211,0.00622097,0.0252443,0.0102755,1.08017,0.0146585,0.0422274,1175,351,-0.110281,0.0891457
-42,673,-0.05896,0.384125,0.0130098,0.0257173,0.00545221,0.0277359,0.0109911,1.21621,0.0161278,0.0492574,1182,351,-0.0589631,-0.384117
-35,673,0.0919189,1.05139,0.0128041,0.0290913,0.00409386,0.0300624,0.011833,1.33789,0.017487,0.0484055,1189,351,0.0919768,-1.05139
-28,673,0.441895,1.39566,0.012965,0.0308149,0.00221187,0.0310849,0.012695,1.44933,0.018047,0.0394311,1196,351,0.441925,-1.39567
-21,673,0.600952,1.48331,0.0129934,0.0307808,-1.91712e-05,0.0307808,0.0129934,-1.56972,0.017843,0.0377381,1203,351,0.601012,-1.48332
-14,673,0.690918,1.50156,0,0,0,0,0,0,0,-1,1210,351,0.690891,-1.50156
-7,673,-0.03479,-0.0419617,0.0116518,0.0279715,-0.00347151,0.0286793,0.0109441,-1.36968,0.016712,0.0440951,1217,351,-0.0348056,0.0419554
0,673,-0.026001,-0.087616,0.0101566,0.0239289,-0.00361642,0.0248207,0.00926471,-1.329,0.0144829,0.0440089,1224,351,-0.0259569,0.0876271
7,673,-0.06604,-0.0518494,0.00797032,0.0193538,-0.00290118,0.0200505,0.00727357,-1.3351,0.0117206,0.0402507,1231,351,-0.0660138,0.0518575
14,673,-0.0133057,-0.0110779,0.00526771,0.0135419,-0.000796019,0.0136178,0.00519183,-1.47575,0.00793581,0.0345644,1238,351,-0.0133255,0.0110883
21,673,0.0163574,0.01474,0.00227994,0.00819069,0.00229858,0.00897934,0.00149129,1.24028,0.00555625,0.0220139,1245,351,0.0163027,-0.0147478
28,673,-0.0374756,0.0508118,-0.000726901,0.00247267,0.00628917,0.00736233,-0.00561657,0.909942,0.00751593,0.0154513,1252,351,-0.037523,-0.0508153
35,673,-0.00769043,0.00976563,-0.00345449,-0.00219643,0.0100803,0.00727444,-0.0129254,0.816559,0.0118135,0.0227042,1259,351,-0.00770853,-0.00977805
42,673,-0.032959,0.0178833,-0.0058431,-0.00554268,0.0142657,0.00857359,-0.0199594,0.790663,0.016905,0.025855,1266,351,-0.0329611,-0.0178926
49,673,-0.019043,0.0697937,-0.00762141,-0.00734404,0.0176166,0.0101344,-0.0250999,0.789334,0.0209452,0.0163688,1273,351,-0.0190491,-0.0698027
56,673,-0.0263672,0.0736694,-0.00818439,-0.00748249,0.0172719,0.00944206,-0.0251089,0.795556,0.0206203,0.0129302,1280,351,-0.0264119,-0.073681
63,673,-0.0372314,0.0820313,-0.00768799,-0.00726314,0.0153831,0.00790897,-0.0228601,0.792302,0.0184504,0.0159237,1287,351,-0.0371907,-0.0820269
70,673,-0.109863,0.0563049,-0.00604792,-0.00728938,0.0119124,0.00525995,-0.0185973,0.759368,0.0144737,0.0253364,1294,351,-0.109905,-0.0562923
77,673,-0.0540771,-0.0250244,-0.00284724,-0.00637739,0.00642263,0.00204844,-0.0112731,0.651298,0.00828306,0.0354559,1301,351,-0.0541152,0.0250105
84,673,-0.518921,-0.160492,0.000328241,-0.00603201,0.000251286,0.000338153,-0.00604192,0.039427,0.00414527,0.0397193,1308,351,-0.518917,0.160499
91,673,-0.803101,-0.0604553,0.00313665,-0.00495144,-0.00599516,0.00632422,-0.008139,-0.488677,0.00837223,0.0450689,1315,351,-0.803141,0.0604556
98,673,-0.641479,-0.124115,0,0,0,0,0,0,0,-1,1322,351,-0.641445,0.124128
105,673,-0.534546,0.0281982,0.0102896,-0.0032821,-0.0180461,0.0227835,-0.015776,-0.605561,0.0223846,0.0413535,1329,351,-0.534577,-0.0281905
112,673,-0.489868,-0.0110168,0.0134928,-0.00327784,-0.0232631,0.0298357,-0.0196207,-0.612419,0.028756,0.0400233,1336,351,-0.489872,0.0110074
119,673,-0.370361,-0.043457,0,0,0,0,0,0,0,-1,1343,351,-0.370319,0.0434717
126,673,1.30066,-0.495911,0,0,0,0,0,0,0,-1,1350,351,1.30067,0.495919
133,673,-0.358521,0.233429,0.0181479,-0.00419838,-0.0292038,0.038243,-0.0242934,-0.602693,0.0364036,0.0422697,1357,351,-0.358539,-0.233442
140,673,-0.403931,0.238373,0.0176768,-0.00476862,-0.0269416,0.0356397,-0.0227315,-0.58805,0.0339742,0.0396579,1364,351,-0.40399,-0.238373
147,673,-0.283691,0.205963,0.0165235,-0.00538176,-0.023889,0.031851,-0.0207093,-0.570457,0.0305721,0.0380999,1371,351,-0.283639,-0.205959
154,673,-0.293091,0.151917,0.0155421,-0.00605311,-0.0209592,0.0283215,-0.0188325,-0.547543,0.0274075,0.0380474,1378,351,-0.293125,-0.151925
161,673,-0.315918,0.255493,0.0141015,-0.00663368,-0.0176788,0.0242284,-0.0167606,-0.520203,0.0237956,0.0415508,1385,351,-0.31596,-0.255488
168,673,0.0324707,0.0335083,0.0104053,-0.00767449,-0.0135035,0.0176155,-0.0148846,-0.490435,0.018786,0.0435441,1392,351,0.032491,-0.0335188
175,673,0.0181885,0.0535889,0.00681834,-0.00881181,-0.00875022,0.0107353,-0.0127288,-0.420895,0.0135633,0.041075,1399,351,0.0181934,-0.0535738
182,673,0.0131836,0.100464,0.00375975,-0.0090459,-0.00334053,0.00457879,-0.00986494,-0.240439,0.00852322,0.0426912,1406,351,0.0132222,-0.10046
189,673,0.088623,-0.0209656,0.00102017,-0.00857636,0.00126797,0.00118487,-0.00874107,0.129175,0.00625983,0.0428669,1413,351,0.0885713,0.0209521
196,673,0.135376,-0.0855713,-0.000342452,-0.00913017,0.00434711,0.00144457,-0.0109172,0.390025,0.00780435,0.0415387,1420,351,0.135357,0.0855788
203,673,-0.156006,0.090332,-0.00266673,-0.00957652,0.00720617,0.00186995,-0.0141132,0.561867,0.01009,0.044709,1427,351,-0.156049,-0.0903381
210,673,-0.476563,0.348145,0,0,0,0,0,0,0,-1,1434,351,-0.476512,-0.34814
217,673,0.733887,-0.615326,-0.00546842,-0.00816497,0.0131754,0.00642752,-0.0200609,0.734409,0.015954,0.0405026,1441,351,0.733925,0.615329
224,673,0.196167,-0.312012,-0.0055037,-0.00829225,0.0141395,0.00731015,-0.0211061,0.736253,0.0170384,0.0382566,1448,351,0.196226,0.312007
231,673,0.526367,0.0323792,-0.00514613,-0.00885492,0.0143913,0.00750973,-0.0215108,0.721323,0.0173928,0.0395206,1455,351,0.526338,-0.0323864
238,673,0.527954,0.0988464,0,0,0,0,0,0,0,-1,1462,351,0.527986,-0.0988341
245,673,0.246948,-0.219238,-0.00549683,-0.00946284,0.0110974,0.00379338,-0.0187531,0.696986,0.0139396,0.0460834,1469,351,0.246931,0.219236
252,673,0.417358,-0.230438,-0.00606359,-0.010218,0.00886581,0.000965113,-0.0172467,0.670328,0.0118326,0.0426286,1476,351,0.417414,0.230434
259,673,0.157837,-0.0875549,-0.006796,-0.0110617,0.00618356,-0.00238779,-0.0154699,0.619325,0.00961668,0.0397565,1483,351,0.157853,0.0875472
266,673,0.0125732,-0.079895,-0.00702371,-0.012138,0.00241377,-0.00606443,-0.0130973,0.378281,0.00756861,0.040223,1490,351,0.0125151,0.0798953
273,673,0.16333,-0.117035,-0.00489315,-0.0131122,-0.00115678,-0.00473345,-0.0132719,-0.137194,0.00776681,0.041819,1497,351,0.163274,0.117024
280,673,0.273804,-0.191498,-0.00427996,-0.0136622,-0.00385761,-0.00289755,-0.0150446,-0.344103,0.00921695,0.0435731,1504,351,0.273797,0.191506
287,673,0.103882,-0.308777,-0.00505012,-0.0152178,-0.00620038,-0.00211585,-0.0181521,-0.442012,0.0114614,0.0439953,1511,351,0.103927,0.308774
294,673,0.0455322,-0.115845,-0.00342391,-0.0153793,-0.00639114,-0.000650628,-0.0181525,-0.409407,0.0118908,0.0427626,1518,351,0.0455036,0.115834
301,673,0,0,0,0,0,0,0,0,0,-1,1525,351,0,0
308,673,0,0,0,0,0,0,0,0,0,-1,1532,351,0,0
315,673,0,0,0,0,0,0,0,0,0,-1,1539,351,0,0
322,673,0,0,0,0,0,0,0,0,0,-1,1546,351,0,0
329,673,0,0,0,0,0,0,0,0,0,-1,1553,351,0,0
336,673,0,0,0,0,0,0,0,0,0,-1,1560,351,0,0
343,673,0,0,0,0,0,0,0,0,0,-1,1567,351,0,0
350,673,0,0,0,0,0,0,0,0,0,-1,1574,351,0,0
357,673,0,0,0,0,0,0,0,0,0,-1,1581,351,0,0
364,673,0,0,0,0,0,0,0,0,0,-1,1588,351,0,0
371,673,0,0,0,0,0,0,0,0,0,-1,1595,351,0,0
378,673,0,0,0,0,0,0,0,0,0,-1,1602,351,0,0
385,673,0,0,0,0,0,0,0,0,0,-1,1609,351,0,0
392,673,0,0,0,0,0,0,0,0,0,-1,1616,351,0,0
399,673,0,0,0,0,0,0,0,0,0,-1,1623,351,0,0
406,673,0,0,0,0,0,0,0,0,0,-1,1630,351,0,0
413,673,0,0,0,0,0,0,0,0,0,-1,1637,351,0,0
420,673,0,0,0,0,0,0,0,0,0,-1,1644,351,0,0
427,673,0,0,0,0,0,0,0,0,0,-1,1651,351,0,0
434,673,0,0,0,0,0,0,0,0,0,-1,1658,351,0,0
441,673,0,0,0,0,0,0,0,0,0,-1,1665,351,0,0
448,673,0,0,0,0,0,0,0,0,0,-1,1672,351,0,0
455,673,0,0,0,0,0,0,0,0,0,-1,1679,351,0,0
462,673,0,0,0,0,0,0,0,0,0,-1,1686,351,0,0
469,673,0,0,0,0,0,0,0,0,0,-1,1693,351,0,0
476,673,0,0,0,0,0,0,0,0,0,-1,1700,351,0,0
483,673,0,0,0,0,0,0,0,0,0,-1,1707,351,0,0
490,673,0,0,0,0,0,0,0,0,0,-1,1714,351,0,0
497,673,0,0,0,0,0,0,0,0,0,-1,1721,351,0,0
504,673,0,0,0,0,0,0,0,0,0,-1,1728,351,0,0
511,673,0,0,0,0,0,0,0,0,0,-1,1735,351,0,0
518,673,0,0,0,0,0,0,0,0,0,-1,1742,351,0,0
525,673,0,0,0,0,0,0,0,0,0,-1,1749,351,0,0
532,673,0,0,0,0,0,0,0,0,0,-1,1756,351,0,0
539,673,0,0,0,0,0,0,0,0,0,-1,1763,351,0,0
546,673,0,0,0,0,0,0,0,0,0,-1,1770,351,0,0
553,673,0,0,0,0,0,0,0,0,0,-1,1777,351,0,0
560,673,0,0,0,0,0,0,0,0,0,-1,1784,351,0,0
567,673,0,0,0,0,0,0,0,0,0,-1,1791,351,0,0
574,673,0,0,0,0,0,0,0,0,0,-1,1798,351,0,0
581,673,0,0,0,0,0,0,0,0,0,-1,1805,351,0,0
588,673,0,0,0,0,0,0,0,0,0,-1,1812,351,0,0
595,673,0,0,0,0,0,0,0,0,0,-1,1819,351,0,0
602,673,0,0,0,0,0,0,0,0,0,-1,1826,351,0,0
609,673,0,0,0,0,0,0,0,0,0,-1,1833,351,0,0
616,673,0,0,0,0,0,0,0,0,0,-1,1840,351,0,0
623,673,0,0,0,0,0,0,0,0,0,-1,1847,351,0,0
630,673,0,0,0,0,0,0,0,0,0,-1,1854,351,0,0
637,673,0,0,0,0,0,0,0,0,0,-1,1861,351,0,0
644,673,0,0,0,0,0,0,0,0,0,-1,1868,351,0,0
651,673,0,0,0,0,0,0,0,0,0,-1,1875,351,0,0
658,673,0,0,0,0,0,0,0,0,0,-1,1882,351,0,0
665,673,0,0,0,0,0,0,0,0,0,-1,1889,351,0,0
672,673,0,0,0,0,0,0,0,0,0,-1,1896,351,0,0
679,673,0,0,0,0,0,0,0,0,0,-1,1903,351,0,0
686,673,0,0,0,0,0,0,0,0,0,-1,1910,351,0,0
693,673,0,0,0,0,0,0,0,0,0,-1,1917,351,0,0
700,673,0,0,0,0,0,0,0,0,0,-1,1924,351,0,0
707,673,0,0,0,0,0,0,0,0,0,-1,1931,351,0,0
714,673,0,0,0,0,0,0,0,0,0,-1,1938,351,0,0
721,673,0,0,0,0,0,0,0,0,0,-1,1945,351,0,0
728,673,0,0,0,0,0,0,0,0,0,-1,1952,351,0,0
735,673,0,0,0,0,0,0,0,0,0,-1,1959,351,0,0
742,673,0,0,0,0,0,0,0,0,0,-1,1966,351,0,0
749,673,0,0,0,0,0,0,0,0,0,-1,1973,351,0,0
756,673,0,0,0,0,0,0,0,0,0,-1,1980,351,0,0
763,673,0,0,0,0,0,0,0,0,0,-1,1987,351,0,0
770,673,0,0,0,0,0,0,0,0,0,-1,1994,351,0,0
777,673,0,0,0,0,0,0,0,0,0,-1,2001,351,0,0
784,673,0,0,0,0,0,0,0,0,0,-1,2008,351,0,0
791,673,0,0,0,0,0,0,0,0,0,-1,2015,351,0,0
798,673,0,0,0,0,0,0,0,0,0,-1,2022,351,0,0
805,673,0,0,0,0,0,0,0,0,0,-1,2029,351,0,0
812,673,0,0,0,0,0,0,0,0,0,-1,2036,351,0,0
-700,666,0,0,0,0,0,0,0,0,0,-1,524,358,0,0
-693,666,0,0,0,0,0,0,0,0,0,-1,531,358,0,0
-686,666,0,0,0,0,0,0,0,0,0,-1,538,358,0,0
-679,666,0,0,0,0,0,0,0,0,0,-1,545,358,0,0
-672,666,0,0,0,0,0,0,0,0,0,-1,552,358,0,0
-665,666,0,0,0,0,0,0,0,0,0,-1,559,358,0,0
-658,666,0,0,0,0,0,0,0,0,0,-1,566,358,0,0
-651,666,0,0,0,0,0,0,0,0,0,-1,573,358,0,0
-644,666,0,0,0,0,0,0,0,0,0,-1,580,358,0,0
-637,666,0,0,0,0,0,0,0,0,0,-1,587,358,0,0
-630,666,0,0,0,0,0,0,0,0,0,-1,594,358,0,0
-623,666,0,0,0,0,0,0,0,0,0,-1,601,358,0,0
-616,666,0,0,0,0,0,0,0,0,0,-1,608,358,0,0
-609,666,0,0,0,0,0,0,0,0,0,-1,615,358,0,0
-602,666,0,0,0,0,0,0,0,0,0,-1,622,358,0,0
-595,666,0,0,0,0,0,0,0,0,0,-1,629,358,0,0
-588,666,0,0,0,0,0,0,0,0,0,-1,636,358,0,0
-581,666,0,0,0,0,0,0,0,0,0,-1,643,358,0,0
-574,666,0,0,0,0,0,0,0,0,0,-1,650,358,0,0
-567,666,0,0,0,0,0,0,0,0,0,-1,657,358,0,0
-560,666,0,0,0,0,0,0,0,0,0,-1,664,358,0,0
-553,666,0,0,0,0,0,0,0,0,0,-1,671,358,0,0
-546,666,0,0,0,0,0,0,0,0,0,-1,678,358,0,0
-539,666,0,0,0,0,0,0,0,0,0,-1,685,358,0,0
-532,666,0,0,0,0,0,0,0,0,0,-1,692,358,0,0
-525,666,0,0,0,0,0,0,0,0,0,-1,699,358,0,0
-518,666,0,0,0,0,0,0,0,0,0,-1,706,358,0,0
-511,666,0,0,0,0,0,0,0,0,0,-1,713,358,0,0
-504,666,0,0,0,0,0,0,0,0,0,-1,720,358,0,0
-497,666,0,0,0,0,0,0,0,0,0,-1,727,358,0,0
-490,666,0,0,0,0,0,0,0,0,0,-1,734,358,0,0
-483,666,0,0,0,0,0,0,0,0,0,-1,741,358,0,0
-476,666,0,0,0,0,0,0,0,0,0,-1,748,358,0,0
-469,666,0,0,0,0,0,0,0,0,0,-1,755,358,0,0
-462,666,0,0,0,0,0,0,0,0,0,-1,762,358,0,0
-455,666,0,0,0,0,0,0,0,0,0,-1,769,358,0,0
-448,666,0,0,0,0,0,0,0,0,0,-1,776,358,0,0
-441,666,0,0,0,0,0,0,0,0,0,-1,783,358,0,0
-434,666,0,0,0,0,0,0,0,0,0,-1,790,358,0,0
-427,666,0,0,0,0,0,0,0,0,0,-1,797,358,0,0
-420,666,0,0,0,0,0,0,0,0,0,-1,804,358,0,0
-413,666,0,0,0,0,0,0,0,0,0,-1,811,358,0,0
-406,666,0,0,0,0,0,0,0,0,0,-1,818,358,0,0
-399,666,0,0,0,0,0,0,0,0,0,-1,825,358,0,0
-392,666,0,0,0,0,0,0,0,0,0,-1,832,358,0,0
-385,666,0,0,0,0,0,0,0,0,0,-1,839,358,0,0
-378,666,0,0,0,0,0,0,0,0,0,-1,846,358,0,0
-371,666,0,0,0,0,0,0,0,0,0,-1,853,358,0,0
-364,666,0,0,0,0,0,0,0,0,0,-1,860,358,0,0
-357,666,0,0,0,0,0,0,0,0,0,-1,867,358,0,0
-350,666,0,0,0,0,0,0,0,0,0,-1,874,358,0,0
-343,666,0,0,0,0,0,0,0,0,0,-1,881,358,0,0
-336,666,0,0,0,0,0,0,0,0,0,-1,888,358,0,0
-329,666,0,0,0,0,0,0,0,0,0,-1,895,358,0,0
-322,666,0,0,0,0,0,0,0,0,0,-1,902,358,0,0
-315,666,0,0,0,0,0,0,0,0,0,-1,909,358,0,0
-308,666,0,0,0,0,0,0,0,0,0,-1,916,358,0,0
-301,666,0,0,0,0,0,0,0,0,0,-1,923,358,0,0
-294,666,0,0,0,0,0,0,0,0,0,-1,930,358,0,0
-287,666,0,0,0,0,0,0,0,0,0,-1,937,358,0,0
-280,666,0,0,0,0,0,0,0,0,0,-1,944,358,0,0
-273,666,0,0,0,0,0,0,0,0,0,-1,951,358,0,0
-266,666,0,0,0,0,0,0,0,0,0,-1,958,358,0,0
-259,666,0,0,0,0,0,0,0,0,0,-1,965,358,0,0
-252,666,0,0,0,0,0,0,0,0,0,-1,972,358,0,0
-245,666,0,0,0,0,0,0,0,0,0,-1,979,358,0,0
-238,666,0,0,0,0,0,0,0,0,0,-1,986,358,0,0
-231,666,0,0,0,0,0,0,0,0,0,-1,993,358,0,0
-224,666,0,0,0,0,0,0,0,0,0,-1,1000,358,0,0
-217,666,0,0,0,0,0,0,0,0,0,-1,1007,358,0,0
-210,666,0,0,0,0,0,0,0,0,0,-1,1014,358,0,0
-203,666,0,0,0,0,0,0,0,0,0,-1,1021,358,0,0
-196,666,-0.570923,0.0919189,0,0,0,0,0,0,0,-1,1028,358,-0.570893,-0.0919144
-189,666,-0.312988,0.0473328,0,0,0,0,0,0,0,-1,1035,358,-0.312993,-0.0473226
-182,666,-0.237915,0.0785217,-0.0115688,0.0140827,-0.0151917,0.0211388,-0.0186248,-1.13597,0.0229728,0.0411798,1042,358,-0.237892,-0.0785354
-175,666,-0.262207,0.0657654,-0.00992533,0.0148354,-0.0140668,0.021194,-0.0162839,-1.14626,0.0216997,0.0398928,1049,358,-0.262186,-0.0657771
-168,666,-0.256836,0.0365601,-0.00293303,0.0168195,-0.0108789,0.0216364,-0.00774998,-1.15396,0.0175863,0.0408206,1056,358,-0.256833,-0.0365495
-161,666,-0.245361,-0.0261841,0.00354074,0.0190949,-0.00750172,0.0221233,0.000512321,-1.18711,0.0145811,0.0421605,1063,358,-0.245382,0.0261951
-154,666,-0.411987,-0.0783081,0,0,0,0,0,0,0,-1,1070,358,-0.41198,0.0783035
-147,666,-1.30701,0.821716,0.0118996,0.0194821,-0.00155086,0.019787,0.0115947,-1.37665,0.0114802,0.0470376,1077,358,-1.30701,-0.821725
-140,666,-0.740356,0.748474,0.015428,0.0184941,0.000559646,0.0185931,0.015329,1.39579,0.0114633,0.0449995,1084,358,-0.740383,-0.748465
-133,666,-0.33252,0.654175,0.0175329,0.0166223,0.00157898,0.0187209,0.0154343,0.645034,0.0115421,0.0402471,1091,358,-0.332531,-0.654163
-126,666,0.225708,0.566681,0.0205503,0.0151661,0.00420037,0.0228473,0.0128691,0.500413,0.013226,0.0380726,1098,358,0.225705,-0.566676
-119,666,0.526367,0.460449,0.021566,0.0134397,0.00435766,0.0234609,0.0115448,0.410179,0.0135457,0.0371694,1105,358,0.526418,-0.46045
-112,666,1.14587,0.50708,0.0209813,0.011561,0.00441594,0.0227276,0.00981466,0.376585,0.0131624,0.0400372,1112,358,1.14584,-0.507081
-105,666,-0.708496,0.952087,0.0198785,0.0100653,0.00417987,0.0214175,0.00852625,0.352794,0.0124507,0.0406658,1119,358,-0.708447,-0.952078
-98,666,-0.239502,1.01675,0.0182584,0.00819651,0.00382605,0.0195479,0.00690693,0.325095,0.0114467,0.0423343,1126,358,-0.239532,-1.01677
-91,666,-0.394897,-0.134979,0.0162616,0.00653541,0.00394028,0.0176575,0.00513947,0.340477,0.0104871,0.0451136,1133,358,-0.394916,0.134987
-84,666,0.132202,-0.198517,0.0147719,0.00565916,0.00410623,0.0163492,0.00408188,0.366741,0.00982563,0.0439777,1140,358,0.132213,0.198525
-77,666,0.0362549,-0.0169983,0.0136363,0.00662724,0.00464281,0.0159488,0.00431478,0.462106,0.00952575,0.0409941,1147,358,0.0363082,0.0169894
-70,666,-0.0487061,0.0177002,0.0127231,0.00843626,0.0051918,0.0161965,0.00496282,0.589633,0.00958184,0.0361083,1154,358,-0.048672,-0.0176938
-63,666,0.0753174,0.0779724,0.0119444,0.0110484,0.0054029,0.0169178,0.00607494,0.744035,0.00989597,0.0337724,1161,358,0.0753745,-0.0779741
-56,666,-0.0675049,-0.000366211,0.0111099,0.0140948,0.00471342,0.0175464,0.00765827,0.938727,0.0101577,0.0358622,1168,358,-0.0675325,0.000361182
-49,666,-0.133423,-0.131653,0.0102704,0.0172162,0.00473522,0.0196156,0.00787107,1.1018,0.0113984,0.0323777,1175,358,-0.133412,0.131651
-42,666,-0.0582275,0.0338745,0.00946199,0.0200892,0.0042873,0.0216031,0.00794805,1.23134,0.0126168,0.0294246,1182,358,-0.0581837,-0.0338759
-35,666,-0.00390625,0.0437317,0.0090319,0.0224512,0.00337012,0.02325,0.00823308,1.33806,0.0136125,0.0284543,1189,358,-0.00386827,-0.0437431
-28,666,0.010376,0.0286255,0.00895633,0.023543,0.00200946,0.0238148,0.00868457,1.43637,0.0139163,0.0271572,1196,358,0.0103774,-0.028627
-21,666,0.260132,0.385406,0,0,0,0,0,0,0,-1,1203,358,0.26013,-0.38542
-14,666,-0.0316162,0.0174561,0.00837538,0.0221842,-0.00136973,0.0223188,0.00824082,-1.47288,0.0130318,0.0232303,1210,358,-0.0316419,-0.0174704
-7,666,-0.0283203,0.0392151,0.0076278,0.0201718,-0.00238289,0.0206092,0.00719039,-1.38926,0.0120785,0.0169838,1217,358,-0.0283624,-0.039208
0,666,-0.0161133,0.076355,0.00661105,0.0168444,-0.0026235,0.0174778,0.00597767,-1.3339,0.0102573,0.0121065,1224,358,-0.016143,-0.0763616
7,666,-0.0552979,0.0653992,0.0051321,0.0131712,-0.00221696,0.013742,0.00456126,-1.31878,0.008082,0.0144365,1231,358,-0.0552895,-0.0653882
14,666,-0.0522461,0.059082,0.00330378,0.00885745,-0.000869861,0.0089905,0.00317072,-1.41901,0.00526524,0.0140062,1238,358,-0.0522545,-0.0590796
21,666,-0.0528564,0.0610962,0.00121113,0.00492984,0.00119911,0.00528297,0.000858004,1.2844,0.00327367,0.0101518,1245,358,-0.0528041,-0.0610964
28,666,-0.0600586,0.0563354,-0.000874729,0.000796032,0.00387375,0.00392345,-0.00400215,0.891598,0.00457593,0.010493,1252,358,-0.0601191,-0.0563415
35,666,-0.0241699,0.0533142,-0.00280221,-0.00243511,0.00638635,0.00377033,-0.00900765,0.799765,0.00758111,0.00942252,1259,358,-0.0241636,-0.0533066
42,666,-0.00292969,0.0459595,-0.00441023,-0.00457159,0.00918819,0.00469763,-0.0136795,0.781008,0.0110243,0.0106166,1266,358,-0.00290467,-0.0459599
49,666,-0.024292,0.0504456,-0.00562312,-0.00560299,0.0115466,0.00593353,-0.0171596,0.785834,0.013848,0.00960303,1273,358,-0.0242734,-0.0504589
56,666,-0.02771,0.0548401,-0.00607065,-0.00562361,0.0111461,0.00530123,-0.0169955,0.795424,0.0134503,0.0104808,1280,358,-0.0277329,-0.0548466
63,666,0.00366211,0.0566406,-0.00571932,-0.00545819,0.00966548,0.00407761,-0.0152551,0.792152,0.0117672,0.0119995,1287,358,0.00363139,-0.0566303
70,666,-0.0256348,0.0343628,-0.00446853,-0.00545745,0.00698534,0.00203983,-0.0119658,0.750064,0.00873689,0.0129608,1294,358,-0.0256873,-0.0343546
77,666,-0.0362549,0.0153503,-0.00197505,-0.00492651,0.00281937,-0.000268541,-0.00663302,0.544292,0.00433527,0.0162031,1301,358,-0.0363009,-0.0153355
84,666,-0.0230713,0.0179138,0.000490273,-0.00489157,-0.00170032,0.000982453,-0.00538375,-0.281763,0.00395751,0.021855,1308,358,-0.0231067,-0.0179243
91,666,-0.034668,0.035614,0.00260782,-0.00423057,-0.00619593,0.00626538,-0.00788813,-0.533269,0.00818942,0.0204852,1315,358,-0.034633,-0.0356267
98,666,-0.185547,0.0747681,0,0,0,0,0,0,0,-1,1322,358,-0.185489,-0.0747599
105,666,-0.162842,0.0806274,0,0,0,0,0,0,0,-1,1329,358,-0.162857,-0.0806406
112,666,-0.0731201,0.0347595,0.0104659,-0.00334303,-0.0183879,0.0232029,-0.01608,-0.605798,0.0228039,0.020705,1336,358,-0.0730985,-0.0347588
119,666,-0.0244141,0.0296326,0.0122239,-0.00339876,-0.0208522,0.0266799,-0.0178547,-0.606186,0.0258798,0.0232107,1343,358,-0.024376,-0.029618
126,666,0.0200195,0.0788574,0.0132904,-0.00359329,-0.0220086,0.0284206,-0.0187235,-0.602266,0.0274099,0.0243711,1350,358,0.020078,-0.0788481
133,666,-0.0206299,0.109131,0.0136354,-0.00382842,-0.0217284,0.0283208,-0.0185138,-0.594341,0.0272369,0.0215402,1357,358,-0.02057,-0.109126
140,666,-0.02771,0.0910034,0.0132133,-0.00405405,-0.0198968,0.0262689,-0.0171096,-0.580696,0.02523,0.0196695,1364,358,-0.0276918,-0.0910149
147,666,-0.022583,0.098938,0.0122456,-0.00434552,-0.0174878,0.0233056,-0.0154055,-0.563933,0.0225045,0.0189892,1371,358,-0.022533,-0.0989475
154,666,-0.00695801,0.0896912,0.0113106,-0.00467654,-0.0151713,0.0204654,-0.0138313,-0.542936,0.0199243,0.0176278,1378,358,-0.00699624,-0.0897054
161,666,0.00610352,0.042572,0.0101149,-0.00493612,-0.0126405,0.0173005,-0.0121217,-0.516901,0.0170744,0.0216678,1385,358,0.00608869,-0.0425579
168,666,0.010376,0.0177917,0.0072641,-0.00566941,-0.00943659,0.0122371,-0.0106424,-0.485007,0.0132202,0.024436,1392,358,0.0103801,-0.0178058
175,666,-0.0235596,0.0426636,0.00456943,-0.00652991,-0.00586774,0.00709622,-0.0090567,-0.406625,0.00934876,0.0206087,1399,358,-0.0236081,-0.0426722
182,666,0.00549316,0.0289917,0.00235652,-0.00673012,-0.00184515,0.0027169,-0.00709051,-0.192887,0.00584698,0.0221215,1406,358,0.00554327,-0.0289858
189,666,0.00354004,0.0236206,0.000406832,-0.00655231,0.00142481,0.000687245,-0.00683273,0.194325,0.00480066,0.0241251,1413,358,0.00350788,-0.0236324
196,666,0.00683594,0.0405579,-0.000570154,-0.00720768,0.00374694,0.00111645,-0.00889429,0.422961,0.00633456,0.0307017,1420,358,0.00684561,-0.0405598
203,666,-0.0236816,0.00515747,-0.00225164,-0.00773689,0.00593892,0.00154735,-0.0115359,0.569084,0.00825485,0.0415428,1427,358,-0.0236411,-0.00516883
210,666,0.0146484,-0.014679,0,0,0,0,0,0,0,-1,1434,358,0.0146385,0.0146695
217,666,0.346558,-0.458344,-0.00402728,-0.00716757,0.0104398,0.0049598,-0.0161546,0.710758,0.0127488,0.0390734,1441,358,0.346506,0.458357
224,666,0.280273,-0.325897,-0.00386532,-0.00728715,0.0112909,0.00584354,-0.016996,0.710205,0.0137004,0.0407735,1448,358,0.280288,0.325883
231,666,0.358521,-0.167694,-0.00336692,-0.00773368,0.0116189,0.00627197,-0.0173726,0.692523,0.0141438,0.0422792,1455,358,0.358551,0.167691
238,666,0.234863,-0.211945,-0.00346367,-0.00811964,0.0106199,0.00508044,-0.0166638,0.6775,0.0131344,0.0436448,1462,358,0.234908,0.211951
245,666,0.129517,-0.177032,-0.00359904,-0.00808223,0.00919225,0.00362098,-0.0153022,0.665804,0.0115985,0.0430937,1469,358,0.129572,0.177042
252,666,0.207764,-0.232025,-0.00395791,-0.0085797,0.00747089,0.00155133,-0.0140889,0.635406,0.00995013,0.0426605,1476,358,0.207739,0.232031
259,666,0.22229,-0.196136,-0.00455697,-0.00915707,0.00538811,-0.000998527,-0.0127155,0.583669,0.00816455,0.0439486,1483,358,0.222301,0.196135
266,666,0.141724,-0.0794373,0,0,0,0,0,0,0,-1,1490,358,0.141738,0.0794445
273,666,0.237671,0.250977,-0.00324313,-0.010714,-0.00020661,-0.00323742,-0.0107197,-0.0276275,0.00634869,0.0420091,1497,358,0.237712,-0.250981
280,666,0.255249,0.302094,-0.00256077,-0.0109929,-0.00200951,-0.00210636,-0.0114473,-0.222389,0.00703532,0.039094,1504,358,0.25529,-0.302084
287,666,0.190674,-0.228546,-0.00290517,-0.011953,-0.00359432,-0.00165112,-0.0132071,-0.335694,0.0083092,0.0429996,1511,358,0.190698,0.228532
294,666,0.161987,-0.318359,-0.00135587,-0.0120236,-0.00364629,-0.000228658,-0.0131508,-0.29982,0.00869201,0.0448118,1518,358,0.161931,0.318355
301,666,-0.0231934,-0.476929,0.00144833,-0.0117414,-0.00277645,0.00200894,-0.012302,-0.19924,0.00894649,0.0450707,1525,358,-0.0231586,0.476924
308,666,-0.194336,-0.472137,0.00618784,-0.010882,-0.000902309,0.0062354,-0.0109296,-0.0526642,0.010033,0.0437213,1532,358,-0.194381,0.472142
315,666,-1.14307,-1.19391,0,0,0,0,0,0,0,-1,1539,358,-1.14303,1.19391
322,666,0,0,0,0,0,0,0,0,0,-1,1546,358,0,0
329,666,0,0,0,0,0,0,0,0,0,-1,1553,358,0,0
336,666,0,0,0,0,0,0,0,0,0,-1,1560,358,0,0
343,666,0,0,0,0,0,0,0,0,0,-1,1567,358,0,0
350,666,0,0,0,0,0,0,0,0,0,-1,1574,358,0,0
357,666,0,0,0,0,0,0,0,0,0,-1,1581,358,0,0
364,666,0,0,0,0,0,0,0,0,0,-1,1588,358,0,0
371,666,0,0,0,0,0,0,0,0,0,-1,1595,358,0,0
378,666,0,0,0,0,0,0,0,0,0,-1,1602,358,0,0
385,666,0,0,0,0,0,0,0,0,0,-1,1609,358,0,0
392,666,0,0,0,0,0,0,0,0,0,-1,1616,358,0,0
399,666,0,0,0,0,0,0,0,0,0,-1,1623,358,0,0
406,666,0,0,0,0,0,0,0,0,0,-1,1630,358,0,0
413,666,0,0,0,0,0,0,0,0,0,-1,1637,358,0,0
420,666,0,0,0,0,0,0,0,0,0,-1,1644,358,0,0
427,666,0,0,0,0,0,0,0,0,0,-1,1651,358,0,0
434,666,0,0,0,0,0,0,0,0,0,-1,1658,358,0,0
441,666,0,0,0,0,0,0,0,0,0,-1,1665,358,0,0
448,666,0,0,0,0,0,0,0,0,0,-1,1672,358,0,0
455,666,0,0,0,0,0,0,0,0,0,-1,1679,358,0,0
462,666,0,0,0,0,0,0,0,0,0,-1,1686,358,0,0
469,666,0,0,0,0,0,0,0,0,0,-1,1693,358,0,0
476,666,0,0,0,0,0,0,0,0,0,-1,1700,358,0,0
483,666,0,0,0,0,0,0,0,0,0,-1,1707,358,0,0
490,666,0,0,0,0,0,0,0,0,0,-1,1714,358,0,0
497,666,0,0,0,0,0,0,0,0,0,-1,1721,358,0,0
504,666,0,0,0,0,0,0,0,0,0,-1,1728,358,0,0
511,666,0,0,0,0,0,0,0,0,0,-1,1735,358,0,0
518,666,0,0,0,0,0,0,0,0,0,-1,1742,358,0,0
525,666,0,0,0,0,0,0,0,0,0,-1,1749,358,0,0
532,666,0,0,0,0,0,0,0,0,0,-1,1756,358,0,0
539,666,0,0,0,0,0,0,0,0,0,-1,1763,358,0,0
546,666,0,0,0,0,0,0,0,0,0,-1,1770,358,0,0
553,666,0,0,0,0,0,0,0,0,0,-1,1777,358,0,0
560,666,0,0,0,0,0,0,0,0,0,-1,1784,358,0,0
567,666,0,0,0,0,0,0,0,0,0,-1,1791,358,0,0
574,666,0,0,0,0,0,0,0,0,0,-1,1798,358,0,0
581,666,0,0,0,0,0,0,0,0,0,-1,1805,358,0,0
588,666,0,0,0,0,0,0,0,0,0,-1,1812,358,0,0
595,666,0,0,0,0,0,0,0,0,0,-1,1819,358,0,0
602,666,0,0,0,0,0,0,0,0,0,-1,1826,358,0,0
609,666,0,0,0,0,0,0,0,0,0,-1,1833,358,0,0
616,666,0,0,0,0,0,0,0,0,0,-1,1840,358,0,0
623,666,0,0,0,0,0,0,0,0,0,-1,1847,358,0,0
630,666,0,0,0,0,0,0,0,0,0,-1,1854,358,0,0
637,666,0,0,0,0,0,0,0,0,0,-1,1861,358,0,0
644,666,0,0,0,0,0,0,0,0,0,-1,1868,358,0,0
651,666,0,0,0,0,0,0,0,0,0,-1,1875,358,0,0
658,666,0,0,0,0,0,0,0,0,0,-1,1882,358,0,0
665,666,0,0,0,0,0,0,0,0,0,-1,1889,358,0,0
672,666,0,0,0,0,0,0,0,0,0,-1,1896,358,0,0
679,666,0,0,0,0,0,0,0,0,0,-1,1903,358,0,0
686,666,0,0,0,0,0,0,0,0,0,-1,1910,358,0,0
693,666,0,0,0,0,0,0,0,0,0,-1,1917,358,0,0
700,666,0,0,0,0,0,0,0,0,0,-1,1924,358,0,0
707,666,0,0,0,0,0,0,0,0,0,-1,1931,358,0,0
714,666,0,0,0,0,0,0,0,0,0,-1,1938,358,0,0
721,666,0,0,0,0,0,0,0,0,0,-1,1945,358,0,0
728,666,0,0,0,0,0,0,0,0,0,-1,1952,358,0,0
735,666,0,0,0,0,0,0,0,0,0,-1,1959,358,0,0
742,666,0,0,0,0,0,0,0,0,0,-1,1966,358,0,0
749,666,0,0,0,0,0,0,0,0,0,-1,1973,358,0,0
756,666,0,0,0,0,0,0,0,0,0,-1,1980,358,0,0
763,666,0,0,0,0,0,0,0,0,0,-1,1987,358,0,0
770,666,0,0,0,0,0,0,0,0,0,-1,1994,358,0,0
777,666,0,0,0,0,0,0,0,0,0,-1,2001,358,0,0
784,666,0,0,0,0,0,0,0,0,0,-1,2008,358,0,0
791,666,0,0,0,0,0,0,0,0,0,-1,2015,358,0,0
798,666,0,0,0,0,0,0,0,0,0,-1,2022,358,0,0
805,666,0,0,0,0,0,0,0,0,0,-1,2029,358,0,0
812,666,0,0,0,0,0,0,0,0,0,-1,2036,358,0,0
-700,659,0,0,0,0,0,0,0,0,0,-1,524,365,0,0
-693,659,0,0,0,0,0,0,0,0,0,-1,531,365,0,0
-686,659,0,0,0,0,0,0,0,0,0,-1,538,365,0,0
-679,659,0,0,0,0,0,0,0,0,0,-1,545,365,0,0
-672,659,0,0,0,0,0,0,0,0,0,-1,552,365,0,0
-665,659,0,0,0,0,0,0,0,0,0,-1,559,365,0,0
-658,659,0,0,0,0,0,0,0,0,0,-1,566,365,0,0
-651,659,0,0,0,0,0,0,0,0,0,-1,573,365,0,0
-644,659,0,0,0,0,0,0,0,0,0,-1,580,365,0,0
-637,659,0,0,0,0,0,0,0,0,0,-1,587,365,0,0
-630,659,0,0,0,0,0,0,0,0,0,-1,594,365,0,0
-623,659,0,0,0,0,0,0,0,0,0,-1,601,365,0,0
-616,659,0,0,0,0,0,0,0,0,0,-1,608,365,0,0
-609,659,0,0,0,0,0,0,0,0,0,-1,615,365,0,0
-602,659,0,0,0,0,0,0,0,0,0,-1,622,365,0,0
-595,659,0,0,0,0,0,0,0,0,0,-1,629,365,0,0
-588,659,0,0,0,0,0,0,0,0,0,-1,636,365,0,0
-581,659,0,0,0,0,0,0,0,0,0,-1,643,365,0,0
-574,659,0,0,0,0,0,0,0,0,0,-1,650,365,0,0
-567,659,0,0,0,0,0,0,0,0,0,-1,657,365,0,0
-560,659,0,0,0,0,0,0,0,0,0,-1,664,365,0,0
-553,659,0,0,0,0,0,0,0,0,0,-1,671,365,0,0
-546,659,0,0,0,0,0,0,0,0,0,-1,678,365,0,0
-539,659,0,0,0,0,0,0,0,0,0,-1,685,365,0,0
-532,659,0,0,0,0,0,0,0,0,0,-1,692,365,0,0
-525,659,0,0,0,0,0,0,0,0,0,-1,699,365,0,0
-518,659,0,0,0,0,0,0,0,0,0,-1,706,365,0,0
-511,659,0,0,0,0,0,0,0,0,0,-1,713,365,0,0
-504,659,0,0,0,0,0,0,0,0,0,-1,720,365,0,0
-497,659,0,0,0,0,0,0,0,0,0,-1,727,365,0,0
-490,659,0,0,0,0,0,0,0,0,0,-1,734,365,0,0
-483,659,0,0,0,0,0,0,0,0,0,-1,741,365,0,0
-476,659,0,0,0,0,0,0,0,0,0,-1,748,365,0,0
-469,659,0,0,0,0,0,0,0,0,0,-1,755,365,0,0
-462,659,0,0,0,0,0,0,0,0,0,-1,762,365,0,0
-455,659,0,0,0,0,0,0,0,0,0,-1,769,365,0,0
-448,659,0,0,0,0,0,0,0,0,0,-1,776,365,0,0
-441,659,0,0,0,0,0,0,0,0,0,-1,783,365,0,0
-434,659,0,0,0,0,0,0,0,0,0,-1,790,365,0,0
-427,659,0,0,0,0,0,0,0,0,0,-1,797,365,0,0
-420,659,0,0,0,0,0,0,0,0,0,-1,804,365,0,0
-413,659,0,0,0,0,0,0,0,0,0,-1,811,365,0,0
-406,659,0,0,0,0,0,0,0,0,0,-1,818,365,0,0
-399,659,0,0,0,0,0,0,0,0,0,-1,825,365,0,0
-392,659,0,0,0,0,0,0,0,0,0,-1,832,365,0,0
-385,659,0,0,0,0,0,0,0,0,0,-1,839,365,0,0
-378,659,0,0,0,0,0,0,0,0,0,-1,846,365,0,0
-371,659,0,0,0,0,0,0,0,0,0,-1,853,365,0,0
-364,659,0,0,0,0,0,0,0,0,0,-1,860,365,0,0
-357,659,0,0,0,0,0,0,0,0,0,-1,867,365,0,0
-350,659,0,0,0,0,0,0,0,0,0,-1,874,365,0,0
-343,659,0,0,0,0,0,0,0,0,0,-1,881,365,0,0
-336,659,0,0,0,0,0,0,0,0,0,-1,888,365,0,0
-329,659,0,0,0,0,0,0,0,0,0,-1,895,365,0,0
-322,659,0,0,0,0,0,0,0,0,0,-1,902,365,0,0
-315,659,0,0,0,0,0,0,0,0,0,-1,909,365,0,0
-308,659,0,0,0,0,0,0,0,0,0,-1,916,365,0,0
-301,659,0,0,0,0,0,0,0,0,0,-1,923,365,0,0
-294,659,0,0,0,0,0,0,0,0,0,-1,930,365,0,0
-287,659,0,0,0,0,0,0,0,0,0,-1,937,365,0,0
-280,659,0,0,0,0,0,0,0,0,0,-1,944,365,0,0
-273,659,0,0,0,0,0,0,0,0,0,-1,951,365,0,0
-266,659,0,0,0,0,0,0,0,0,0,-1,958,365,0,0
-259,659,0,0,0,0,0,0,0,0,0,-1,965,365,0,0
-252,659,0,0,0,0,0,0,0,0,0,-1,972,365,0,0
-245,659,0,0,0,0,0,0,0,0,0,-1,979,365,0,0
-238,659,0,0,0,0,0,0,0,0,0,-1,986,365,0,0
-231,659,0,0,0,0,0,0,0,0,0,-1,993,365,0,0
-224,659,0,0,0,0,0,0,0,0,0,-1,1000,365,0,0
-217,659,0.215027,0.352234,-0.00288828,0.0169176,0.00743274,0.0193967,-0.00536733,1.24887,0.0150429,0.0400319,1007,365,0.214999,-0.352232
-210,659,0.377502,0.467407,-0.00798734,0.014662,0.00284021,0.0150127,-0.00833806,1.44793,0.013664,0.0418371,1014,365,0.377514,-0.467421
-203,659,0.412781,0.775269,0,0,0,0,0,0,0,-1,1021,365,0.412762,-0.77527
-196,659,-1.20215,1.1875,0,0,0,0,0,0,0,-1,1028,365,-1.20217,-1.18751
-189,659,-0.0220947,0.121307,0,0,0,0,0,0,0,-1,1035,365,-0.022152,-0.121321
-182,659,3.64246,1.29572,-0.00890248,0.013284,-0.0067736,0.0151885,-0.010807,-1.29671,0.0150794,0.0425538,1042,365,3.64241,-1.29572
-175,659,-0.247925,0.091217,-0.00847492,0.0135681,-0.00739548,0.0158193,-0.0107262,-1.2753,0.0154198,0.0410141,1049,365,-0.247979,-0.0912089
-168,659,-0.231079,0.0730286,-0.00306521,0.0150906,-0.00588987,0.0168339,-0.00480853,-1.28303,0.0131225,0.0400581,1056,365,-0.231111,-0.0730422
-161,659,-0.258423,-0.0197144,0.00186513,0.0167352,-0.00381792,0.0176582,0.000942153,-1.3336,0.011471,0.0425552,1063,365,-0.258367,0.0197005
-154,659,-0.106201,0.0993042,0.0043756,0.0177044,-0.0022329,0.0180685,0.00401148,-1.40915,0.0109561,0.0462632,1070,365,-0.106245,-0.0993175
-147,659,0.0932617,0.195129,0.00793319,0.0173699,-0.000710109,0.017423,0.00788006,-1.49611,0.0100744,0.0459007,1077,365,0.0932605,-0.195125
-140,659,0.238403,0.447754,0.0107906,0.0166698,0.000394998,0.0166962,0.0107642,1.50401,0.00977321,0.0434187,1084,365,0.238433,-0.447742
-133,659,-0.148193,0.705414,0.0125643,0.0149354,0.000781746,0.0151699,0.0123297,1.27932,0.00931208,0.0407431,1091,365,-0.14816,-0.7054
-126,659,-0.0471191,0.461761,0.0151801,0.0137069,0.00264435,0.0171885,0.0116985,0.649561,0.0101373,0.0370588,1098,365,-0.0470993,-0.461758
-119,659,0.0610352,0.224274,0.0161708,0.0121797,0.00257827,0.0174356,0.0109149,0.456062,0.0101724,0.0362768,1105,365,0.0609799,-0.224263
-112,659,0.151245,0.185242,0.0157368,0.0105613,0.00264803,0.0168516,0.00944656,0.398454,0.00975304,0.0380372,1112,365,0.151256,-0.185249
-105,659,-0.39917,0.454346,0.0148996,0.00917628,0.00249132,0.0158321,0.00824376,0.358163,0.00914328,0.0360126,1119,365,-0.399226,-0.454346
-98,659,-0.205811,0.478119,0.0136779,0.00750157,0.00225793,0.0144153,0.00676416,0.315666,0.00832792,0.0375756,1126,365,-0.205836,-0.478112
-91,659,-0.0562744,0.384155,0.0121639,0.00593221,0.00242081,0.0129938,0.00510232,0.330259,0.00755936,0.0396528,1133,365,-0.0563305,-0.384145
-84,659,0.0257568,0.0677795,0.0111033,0.00504715,0.00262168,0.0120805,0.00406993,0.356795,0.00709732,0.0388063,1140,365,0.0258055,-0.0677875
-77,659,0.000244141,0.0737,0.010312,0.00566346,0.00313114,0.0118873,0.00408822,0.466117,0.0069737,0.0335907,1147,365,0.000191418,-0.0737006
-70,659,-0.057373,0.061676,0.00964004,0.0069393,0.00362396,0.012157,0.0044223,0.607056,0.00710519,0.0245287,1154,365,-0.0573978,-0.0616731
-63,659,-0.0556641,0.0436401,0.00897831,0.00879233,0.00383285,0.0127193,0.00505134,0.77327,0.0073951,0.0202837,1161,365,-0.0556555,-0.0436376
-56,659,-0.034668,0.0556335,0.00829697,0.0109252,0.00337041,0.0132286,0.00599355,0.971282,0.00764875,0.0184192,1168,365,-0.0346513,-0.0556349
-49,659,-0.0349121,0.0657959,0.00759389,0.0131135,0.00349703,0.0148085,0.00589884,1.11945,0.00860842,0.0135448,1175,365,-0.0349594,-0.0658004
-42,659,-0.036377,0.072876,0.00676258,0.0152187,0.00328612,0.0163455,0.00563573,1.24045,0.00958747,0.0101127,1182,365,-0.0363753,-0.072886
-35,659,-0.0223389,0.063446,0.00625886,0.0168454,0.00270831,0.017498,0.00560623,1.33433,0.0103175,0.0093153,1189,365,-0.0223331,-0.0634553
-28,659,-0.0217285,0.0476379,0.00606876,0.0175101,0.00176406,0.0177759,0.00580294,1.42124,0.010467,0.0100148,1196,365,-0.0216752,-0.0476293
-21,659,-0.0274658,0.0549622,0.00590237,0.0171281,0.000523288,0.0171524,0.00587803,1.52432,0.010065,0.0112892,1203,365,-0.0274519,-0.0549732
-14,659,-0.0322266,0.0538025,0.00545588,0.0160395,-0.000730526,0.0160897,0.0054057,-1.50221,0.00945455,0.00832983,1210,365,-0.0321791,-0.0538059
-7,659,-0.0396729,0.0594788,0.00487641,0.0142348,-0.00152062,0.0144757,0.00463553,-1.41369,0.00853573,0.00811415,1217,365,-0.0397166,-0.0594879
0,659,-0.036377,0.0780029,0.00419696,0.011605,-0.00178712,0.0120136,0.00378837,-1.34603,0.00709197,0.00794682,1224,365,-0.0363816,-0.0779893
7,659,-0.0428467,0.0787354,0.00322328,0.00876964,-0.00159197,0.0091941,0.00279882,-1.31023,0.00544191,0.00755435,1231,365,-0.0428073,-0.0787488
14,659,-0.0386963,0.0738525,0.00200233,0.0056604,-0.00087633,0.0058595,0.00180323,-1.34739,0.00346534,0.0100558,1238,365,-0.0387306,-0.0738601
21,659,-0.050293,0.0737915,0.000552647,0.00285197,0.000330541,0.00289855,0.000506073,1.43082,0.00178771,0.0101351,1245,365,-0.0503413,-0.0738019
28,659,-0.0483398,0.0703735,-0.000870822,-5.97989e-05,0.00198016,0.00155594,-0.00248656,0.886396,0.00235446,0.00906558,1252,365,-0.0483936,-0.070377
35,659,-0.0144043,0.0558777,-0.0022231,-0.00223171,0.00349478,0.00126738,-0.00572219,0.784782,0.00429997,0.00914531,1259,365,-0.0144497,-0.0558768
42,659,-0.012207,0.0506897,-0.00330739,-0.00354236,0.00520926,0.00178571,-0.00863546,0.774123,0.00643533,0.010095,1266,365,-0.0122307,-0.050693
49,659,-0.03125,0.0599365,-0.00413707,-0.0040857,0.00672404,0.00261271,-0.0108355,0.787308,0.00823391,0.0101953,1273,365,-0.031218,-0.0599302
56,659,-0.0421143,0.0700073,-0.0044974,-0.0040423,0.00627601,0.00201028,-0.01055,0.803519,0.00779036,0.0131518,1280,365,-0.0420874,-0.070002
63,659,-0.0020752,0.0470886,-0.00426769,-0.00391604,0.00511145,0.00102261,-0.00920633,0.80259,0.00650527,0.0153033,1287,365,-0.00211652,-0.0470742
70,659,0.00244141,0.0300598,-0.00334645,-0.00390902,0.00309948,-0.000515521,-0.00673995,0.740146,0.0043317,0.017031,1294,365,0.00243801,-0.0300686
77,659,-0.0428467,0.0592651,-0.00146322,-0.00363096,7.15101e-05,-0.00146086,-0.00363332,0.0329405,0.00211107,0.0163954,1301,365,-0.0428697,-0.0592703
84,659,-0.0461426,0.0490417,0.000398316,-0.00375593,-0.00308114,0.00203709,-0.0053947,-0.488818,0.00443431,0.0117585,1308,365,-0.0461328,-0.0490343
91,659,-0.0483398,0.0474243,0.00196823,-0.00337015,-0.00616067,0.00601309,-0.00741501,-0.580974,0.00776679,0.00980494,1315,365,-0.0483476,-0.0474249
98,659,-0.0351563,0.0533142,0.00409504,-0.00314244,-0.00913506,0.010302,-0.00934941,-0.596812,0.0113502,0.00705791,1322,365,-0.0352124,-0.0533172
105,659,-0.0290527,0.0660095,0.00606756,-0.00286609,-0.0119059,0.014317,-0.0111155,-0.605936,0.0147222,0.00854863,1329,365,-0.029112,-0.0660077
112,659,-0.0300293,0.0722351,0.00778823,-0.00296643,-0.0142231,0.0176166,-0.0127948,-0.604669,0.0176315,0.010252,1336,365,-0.0299756,-0.0722205
119,659,-0.00769043,0.0576172,0.00900703,-0.00303065,-0.0155551,0.0196671,-0.0136908,-0.600801,0.0193619,0.0115917,1343,365,-0.00771412,-0.0576061
126,659,-0.00976563,0.0632324,0.00969702,-0.00311718,-0.016,0.020525,-0.0139452,-0.594953,0.0200219,0.0116481,1350,365,-0.00982519,-0.0632444
133,659,-0.0146484,0.0696411,0.00987351,-0.00317642,-0.0156228,0.0202792,-0.0135821,-0.587582,0.0196769,0.00981871,1357,365,-0.0146089,-0.0696332
140,659,-0.0313721,0.0600586,0.00953058,-0.00321044,-0.0142138,0.0187362,-0.012416,-0.574724,0.0181087,0.00811618,1364,365,-0.031345,-0.060059
147,659,-0.0325928,0.0679932,0.00876601,-0.00331293,-0.0123921,0.016512,-0.0110589,-0.558653,0.0160215,0.00758563,1371,365,-0.0325635,-0.0679869
154,659,-0.0224609,0.0706482,0.00796267,-0.00343957,-0.0106466,0.0143385,-0.00981542,-0.539582,0.0140266,0.00822841,1378,365,-0.0225215,-0.070656
161,659,-0.00756836,0.0495605,0.00703129,-0.00352399,-0.00877218,0.0119911,-0.00848376,-0.514588,0.0118788,0.00906947,1385,365,-0.00755768,-0.0495538
168,659,-0.0249023,0.0412292,0.00492154,-0.00405185,-0.00640122,0.00825188,-0.00738219,-0.479729,0.00903099,0.0107318,1392,365,-0.0248746,-0.0412225
175,659,-0.0391846,0.0585938,0.00297871,-0.00471317,-0.00381491,0.00454986,-0.00628432,-0.390674,0.00628178,0.00923239,1399,365,-0.0391282,-0.0586
182,659,-0.0231934,0.0525513,0.00143676,-0.00490834,-0.000914609,0.00156596,-0.00503754,-0.140339,0.00398428,0.0105808,1406,365,-0.0232474,-0.0525465
189,659,-0.0250244,0.0612793,8.61223e-05,-0.00492592,0.00136082,0.000431762,-0.00527156,0.248734,0.00366677,0.0109318,1413,365,-0.0249819,-0.0612695
196,659,-0.0367432,0.0860291,-0.000609929,-0.00558876,0.00308225,0.000862654,-0.00706134,0.4457,0.00501988,0.0124634,1420,365,-0.0367209,-0.0860419
203,659,-0.0090332,0.0427246,-0.00179348,-0.00613543,0.0047245,0.00123497,-0.00916388,0.570029,0.00655977,0.0190443,1427,365,-0.00899917,-0.0427362
210,659,0.0811768,-0.0350647,-0.00252752,-0.00630207,0.00631283,0.00217411,-0.0110037,0.640148,0.00815765,0.0261881,1434,365,0.0812062,0.0350651
217,659,0.110352,-0.144684,-0.00284783,-0.00607952,0.00808391,0.00378015,-0.0127075,0.686756,0.00997344,0.0321938,1441,365,0.110331,0.144698
224,659,0.0994873,-0.161621,-0.00258386,-0.00617454,0.00882099,0.00462264,-0.013381,0.685004,0.0107966,0.0364493,1448,365,0.0994396,0.161613
231,659,0.153442,-0.0600586,-0.00204414,-0.00650225,0.00918677,0.00518013,-0.0137265,0.666379,0.0112814,0.038423,1455,365,0.153415,0.0600602
238,659,0.10144,-0.109772,-0.00208575,-0.00672685,0.00850211,0.00440681,-0.0132194,0.652174,0.010592,0.0411171,1462,365,0.101425,0.109779
245,659,0.0338135,-0.0608826,-0.00219989,-0.00664366,0.00746567,0.00336752,-0.0122111,0.640765,0.00946505,0.0370225,1469,365,0.0337951,0.0608823
252,659,-0.0645752,-0.14624,-0.00243163,-0.0069508,0.00618114,0.00188999,-0.0112724,0.610163,0.00821771,0.0369452,1476,365,-0.0645726,0.14625
259,659,0.224121,-0.212952,-0.00291753,-0.00733819,0.00460393,-2.08388e-05,-0.0102349,0.561599,0.00681632,0.0431504,1483,365,0.224089,0.212949
266,659,0.471313,0.191162,-0.00323095,-0.00798902,0.00244125,-0.00220124,-0.00901872,0.399153,0.00542957,0.0424997,1490,365,0.47131,-0.191157
273,659,0.646362,0.696289,0,0,0,0,0,0,0,-1,1497,365,0.646386,-0.696276
280,659,0.711304,0.469696,0,0,0,0,0,0,0,-1,1504,365,0.711271,-0.469706
287,659,0.823853,0.506531,-0.00136571,-0.00921861,-0.00172769,-0.00100241,-0.0095819,-0.207259,0.0060814,0.0440397,1511,365,0.823852,-0.50654
294,659,-0.167236,-0.566956,2.5241e-05,-0.00927272,-0.00168671,0.000321764,-0.00956925,-0.174022,0.00648941,0.043084,1518,365,-0.167296,0.566967
301,659,-0.0124512,-0.496429,0.00238916,-0.00904377,-0.000888447,0.00245779,-0.0091124,-0.0770927,0.00703871,0.043154,1525,365,-0.0124038,0.496443
308,659,-0.362183,-0.506927,0.00617924,-0.00824349,0.000662801,0.00620963,-0.00827388,0.0458266,0.00839032,0.0414755,1532,365,-0.3622,0.506918
315,659,-0.750854,-0.77359,0.011005,-0.00582155,0.0026572,0.0114146,-0.0062312,0.15296,0.0103333,0.0410122,1539,365,-0.750903,0.773594
322,659,-0.1698,-0.374725,0.015936,-0.00035419,0.00443584,0.0170656,-0.00148375,0.249344,0.0119025,0.0407697,1546,365,-0.169748,0.37473
329,659,1.84521,0.990234,0,0,0,0,0,0,0,-1,1553,365,1.84525,-0.990225
336,659,-0.257202,0.309357,0,0,0,0,0,0,0,-1,1560,365,-0.257262,-0.309352
343,659,0,0,0,0,0,0,0,0,0,-1,1567,365,0,0
350,659,0,0,0,0,0,0,0,0,0,-1,1574,365,0,0
357,659,0,0,0,0,0,0,0,0,0,-1,1581,365,0,0
364,659,0,0,0,0,0,0,0,0,0,-1,1588,365,0,0
371,659,0,0,0,0,0,0,0,0,0,-1,1595,365,0,0
378,659,0,0,0,0,0,0,0,0,0,-1,1602,365,0,0
385,659,0,0,0,0,0,0,0,0,0,-1,1609,365,0,0
392,659,0,0,0,0,0,0,0,0,0,-1,1616,365,0,0
399,659,0,0,0,0,0,0,0,0,0,-1,1623,365,0,0
406,659,0,0,0,0,0,0,0,0,0,-1,1630,365,0,0
413,659,0,0,0,0,0,0,0,0,0,-1,1637,365,0,0
420,659,0,0,0,0,0,0,0,0,0,-1,1644,365,0,0
427,659,0,0,0,0,0,0,0,0,0,-1,1651,365,0,0
434,659,0,0,0,0,0,0,0,0,0,-1,1658,365,0,0
441,659,0,0,0,0,0,0,0,0,0,-1,1665,365,0,0
448,659,0,0,0,0,0,0,0,0,0,-1,1672,365,0,0
455,659,0,0,0,0,0,0,0,0,0,-1,1679,365,0,0
462,659,0,0,0,0,0,0,0,0,0,-1,1686,365,0,0
469,659,0,0,0,0,0,0,0,0,0,-1,1693,365,0,0
476,659,0,0,0,0,0,0,0,0,0,-1,1700,365,0,0
483,659,0,0,0,0,0,0,0,0,0,-1,1707,365,0,0
490,659,0,0,0,0,0,0,0,0,0,-1,1714,365,0,0
497,659,0,0,0,0,0,0,0,0,0,-1,1721,365,0,0
504,659,0,0,0,0,0,0,0,0,0,-1,1728,365,0,0
511,659,0,0,0,0,0,0,0,0,0,-1,1735,365,0,0
518,659,0,0,0,0,0,0,0,0,0,-1,1742,365,0,0
525,659,0,0,0,0,0,0,0,0,0,-1,1749,365,0,0
532,659,0,0,0,0,0,0,0,0,0,-1,1756,365,0,0
539,659,0,0,0,0,0,0,0,0,0,-1,1763,365,0,0
546,659,0,0,0,0,0,0,0,0,0,-1,1770,365,0,0
553,659,0,0,0,0,0,0,0,0,0,-1,1777,365,0,0
560,659,0,0,0,0,0,0,0,0,0,-1,1784,365,0,0
567,659,0,0,0,0,0,0,0,0,0,-1,1791,365,0,0
574,659,0,0,0,0,0,0,0,0,0,-1,1798,365,0,0
581,659,0,0,0,0,0,0,0,0,0,-1,1805,365,0,0
588,659,0,0,0,0,0,0,0,0,0,-1,1812,365,0,0
595,659,0,0,0,0,0,0,0,0,0,-1,1819,365,0,0
602,659,0,0,0,0,0,0,0,0,0,-1,1826,365,0,0
609,659,0,0,0,0,0,0,0,0,0,-1,1833,365,0,0
616,659,0,0,0,0,0,0,0,0,0,-1,1840,365,0,0
623,659,0,0,0,0,0,0,0,0,0,-1,1847,365,0,0
630,659,0,0,0,0,0,0,0,0,0,-1,1854,365,0,0
637,659,0,0,0,0,0,0,0,0,0,-1,1861,365,0,0
644,659,0,0,0,0,0,0,0,0,0,-1,1868,365,0,0
651,659,0,0,0,0,0,0,0,0,0,-1,1875,365,0,0
658,659,0,0,0,0,0,0,0,0,0,-1,1882,365,0,0
665,659,0,0,0,0,0,0,0,0,0,-1,1889,365,0,0
672,659,0,0,0,0,0,0,0,0,0,-1,1896,365,0,0
679,659,0,0,0,0,0,0,0,0,0,-1,1903,365,0,0
686,659,0,0,0,0,0,0,0,0,0,-1,1910,365,0,0
693,659,0,0,0,0,0,0,0,0,0,-1,1917,365,0,0
700,659,0,0,0,0,0,0,0,0,0,-1,1924,365,0,0
707,659,0,0,0,0,0,0,0,0,0,-1,1931,365,0,0
714,659,0,0,0,0,0,0,0,0,0,-1,1938,365,0,0
721,659,0,0,0,0,0,0,0,0,0,-1,1945,365,0,0
728,659,0,0,0,0,0,0,0,0,0,-1,1952,365,0,0
735,659,0,0,0,0,0,0,0,0,0,-1,1959,365,0,0
742,659,0,0,0,0,0,0,0,0,0,-1,1966,365,0,0
749,659,0,0,0,0,0,0,0,0,0,-1,1973,365,0,0
756,659,0,0,0,0,0,0,0,0,0,-1,1980,365,0,0
763,659,0,0,0,0,0,0,0,0,0,-1,1987,365,0,0
770,659,0,0,0,0,0,0,0,0,0,-1,1994,365,0,0
777,659,0,0,0,0,0,0,0,0,0,-1,2001,365,0,0
784,659,0,0,0,0,0,0,0,0,0,-1,2008,365,0,0
791,659,0,0,0,0,0,0,0,0,0,-1,2015,365,0,0
798,659,0,0,0,0,0,0,0,0,0,-1,2022,365,0,0
805,659,0,0,0,0,0,0,0,0,0,-1,2029,365,0,0
812,659,0,0,0,0,0,0,0,0,0,-1,2036,365,0,0
-700,652,0,0,0,0,0,0,0,0,0,-1,524,372,0,0
-693,652,0,0,0,0,0,0,0,0,0,-1,531,372,0,0
-686,652,0,0,0,0,0,0,0,0,0,-1,538,372,0,0
-679,652,0,0,0,0,0,0,0,0,0,-1,545,372,0,0
-672,652,0,0,0,0,0,0,0,0,0,-1,552,372,0,0
-665,652,0,0,0,0,0,0,0,0,0,-1,559,372,0,0
-658,652,0,0,0,0,0,0,0,0,0,-1,566,372,0,0
-651,652,0,0,0,0,0,0,0,0,0,-1,573,372,0,0
-644,652,0,0,0,0,0,0,0,0,0,-1,580,372,0,0
-637,652,0,0,0,0,0,0,0,0,0,-1,587,372,0,0
-630,652,0,0,0,0,0,0,0,0,0,-1,594,372,0,0
-623,652,0,0,0,0,0,0,0,0,0,-1,601,372,0,0
-616,652,0,0,0,0,0,0,0,0,0,-1,608,372,0,0
-609,652,0,0,0,0,0,0,0,0,0,-1,615,372,0,0
-602,652,0,0,0,0,0,0,0,0,0,-1,622,372,0,0
-595,652,0,0,0,0,0,0,0,0,0,-1,629,372,0,0
-588,652,0,0,0,0,0,0,0,0,0,-1,636,372,0,0
-581,652,0,0,0,0,0,0,0,0,0,-1,643,372,0,0
-574,652,0,0,0,0,0,0,0,0,0,-1,650,372,0,0
-567,652,0,0,0,0,0,0,0,0,0,-1,657,372,0,0
-560,652,0,0,0,0,0,0,0,0,0,-1,664,372,0,0
-553,652,0,0,0,0,0,0,0,0,0,-1,671,372,0,0
-546,652,0,0,0,0,0,0,0,0,0,-1,678,372,0,0
-539,652,0,0,0,0,0,0,0,0,0,-1,685,372,0,0
-532,652,0,0,0,0,0,0,0,0,0,-1,692,372,0,0
-525,652,0,0,0,0,0,0,0,0,0,-1,699,372,0,0
-518,652,0,0,0,0,0,0,0,0,0,-1,706,372,0,0
-511,652,0,0,0,0,0,0,0,0,0,-1,713,372,0,0
-504,652,0,0,0,0,0,0,0,0,0,-1,720,372,0,0
-497,652,0,0,0,0,0,0,0,0,0,-1,727,372,0,0
-490,652,0,0,0,0,0,0,0,0,0,-1,734,372,0,0
-483,652,0,0,0,0,0,0,0,0,0,-1,741,372,0,0
-476,652,0,0,0,0,0,0,0,0,0,-1,748,372,0,0
-469,652,0,0,0,0,0,0,0,0,0,-1,755,372,0,0
-462,652,0,0,0,0,0,0,0,0,0,-1,762,372,0,0
-455,652,0,0,0,0,0,0,0,0,0,-1,769,372,0,0
-448,652,0,0,0,0,0,0,0,0,0,-1,776,372,0,0
-441,652,0,0,0,0,0,0,0,0,0,-1,783,372,0,0
-434,652,0,0,0,0,0,0,0,0,0,-1,790,372,0,0
-427,652,0,0,0,0,0,0,0,0,0,-1,797,372,0,0
-420,652,0,0,0,0,0,0,0,0,0,-1,804,372,0,0
-413,652,0,0,0,0,0,0,0,0,0,-1,811,372,0,0
-406,652,0,0,0,0,0,0,0,0,0,-1,818,372,0,0
-399,652,0,0,0,0,0,0,0,0,0,-1,825,372,0,0
-392,652,0,0,0,0,0,0,0,0,0,-1,832,372,0,0
-385,652,0,0,0,0,0,0,0,0,0,-1,839,372,0,0
-378,652,0,0,0,0,0,0,0,0,0,-1,846,372,0,0
-371,652,0,0,0,0,0,0,0,0,0,-1,853,372,0,0
-364,652,0,0,0,0,0,0,0,0,0,-1,860,372,0,0
-357,652,0,0,0,0,0,0,0,0,0,-1,867,372,0,0
-350,652,0,0,0,0,0,0,0,0,0,-1,874,372,0,0
-343,652,0,0,0,0,0,0,0,0,0,-1,881,372,0,0
-336,652,0,0,0,0,0,0,0,0,0,-1,888,372,0,0
-329,652,0,0,0,0,0,0,0,0,0,-1,895,372,0,0
-322,652,0,0,0,0,0,0,0,0,0,-1,902,372,0,0
-315,652,0,0,0,0,0,0,0,0,0,-1,909,372,0,0
-308,652,0,0,0,0,0,0,0,0,0,-1,916,372,0,0
-301,652,0,0,0,0,0,0,0,0,0,-1,923,372,0,0
-294,652,0,0,0,0,0,0,0,0,0,-1,930,372,0,0
-287,652,0,0,0,0,0,0,0,0,0,-1,937,372,0,0
-280,652,0,0,0,0,0,0,0,0,0,-1,944,372,0,0
-273,652,0,0,0,0,0,0,0,0,0,-1,951,372,0,0
-266,652,0,0,0,0,0,0,0,0,0,-1,958,372,0,0
-259,652,0,0,0,0,0,0,0,0,0,-1,965,372,0,0
-252,652,0,0,0,0,0,0,0,0,0,-1,972,372,0,0
-245,652,0,0,0,0,0,0,0,0,0,-1,979,372,0,0
-238,652,0,0,0,0,0,0,0,0,0,-1,986,372,0,0
-231,652,2.05066,1.54156,0.0172137,0.0189689,0.0202802,0.0383905,-0.00220786,0.807022,0.0263605,0.0425149,993,372,2.05068,-1.54158
-224,652,3.0957,1.29483,0.00930138,0.0168909,0.0160112,0.0295509,-0.00335866,0.901754,0.0209103,0.0408429,1000,372,3.09573,-1.29484
-217,652,0.161682,0.537659,0.0032499,0.0151492,0.0117832,0.0223996,-0.0040005,1.01919,0.0164297,0.0404147,1007,372,0.161696,-0.537663
-210,652,0.328552,0.623688,-0.00161397,0.0133342,0.00801111,0.0168164,-0.00509615,1.16077,0.0132407,0.0413085,1014,372,0.328524,-0.623675
-203,652,0.428589,0.672729,0,0,0,0,0,0,0,-1,1021,372,0.428561,-0.67272
-196,652,1.94946,-0.218201,0,0,0,0,0,0,0,-1,1028,372,1.94948,0.218203
-189,652,3.0675,1.16443,-0.00564791,0.0127708,0.000533313,0.0127862,-0.00566334,1.54187,0.0109132,0.0405787,1035,372,3.06754,-1.16442
-182,652,3.00391,1.03131,-0.00614919,0.0117073,-0.00134516,0.0118081,-0.00624995,-1.49603,0.0105892,0.0416105,1042,372,3.00385,-1.03132
-175,652,3.12354,1.0224,0,0,0,0,0,0,0,-1,1049,372,3.12348,-1.0224
-168,652,-0.00146484,-0.0812988,-0.0026176,0.0129917,-0.0022984,0.0133231,-0.00294899,-1.4276,0.0100109,0.0407582,1056,372,-0.00142378,0.0812918
-161,652,-0.105713,0.0752869,0.000967209,0.0141619,-0.0011037,0.0142535,0.000875523,-1.48792,0.00922438,0.0440005,1063,372,-0.105715,-0.0752901
-154,652,-0.0407715,0.108917,0.00246011,0.0149956,-0.000530044,0.0150179,0.00243774,-1.52861,0.00930642,0.0458742,1070,372,-0.0407693,-0.108915
-147,652,0.288574,0.357147,0.00504766,0.0148774,7.89147e-05,0.0148781,0.00504702,1.56277,0.00873662,0.0426581,1077,372,0.288545,-0.357138
-140,652,0.0161133,0.276276,0.0072435,0.0144069,0.00046459,0.0144369,0.00721349,1.5063,0.00833515,0.0428813,1084,372,0.0161095,-0.276266
-133,652,-0.0667725,0.34671,0.00865838,0.0128636,0.000394564,0.0129003,0.00862168,1.47805,0.0075874,0.0400097,1091,372,-0.0667603,-0.34672
-126,652,-0.0216064,0.303986,0.0108484,0.0118517,0.00162296,0.0130488,0.00965135,0.93528,0.00781681,0.0339384,1098,372,-0.0216397,-0.303979
-119,652,-0.0831299,0.126587,0.0117568,0.0105551,0.00138755,0.012668,0.00964389,0.581072,0.00763949,0.0294907,1105,372,-0.08315,-0.126596
-112,652,-0.0411377,0.0632935,0.0114362,0.0092234,0.00144876,0.0121527,0.00850689,0.459295,0.00720105,0.0231996,1112,372,-0.0411505,-0.0632998
-105,652,-0.0849609,0.0531616,0.0108184,0.00802333,0.00134171,0.0113582,0.00748352,0.382514,0.00666707,0.0200986,1119,372,-0.0850047,-0.053175
-98,652,-0.0974121,0.0688171,0.0099238,0.00658754,0.00118541,0.0103021,0.00620925,0.308909,0.00598961,0.0219495,1126,372,-0.0974519,-0.0688216
-91,652,-0.0267334,0.0915222,0.00881211,0.00517851,0.00135266,0.00926036,0.00473026,0.319996,0.00534689,0.0211355,1133,372,-0.0267248,-0.0915279
-84,652,-0.0200195,0.0697327,0.00808142,0.00433857,0.00155028,0.00864014,0.00377985,0.345909,0.00500137,0.0166207,1140,372,-0.0199979,-0.0697364
-77,652,-0.0334473,0.0740662,0.00753894,0.00467004,0.00200022,0.0085659,0.00364308,0.474327,0.00496389,0.012653,1147,372,-0.0334017,-0.0740676
-70,652,-0.0526123,0.0565186,0.0070503,0.00550112,0.00242356,0.00882004,0.00373137,0.630724,0.00511231,0.0097203,1154,372,-0.0525983,-0.0565129
-63,652,-0.0266113,0.0640259,0.00646409,0.00672094,0.00259488,0.00919057,0.00399446,0.810124,0.00532127,0.00914568,1161,372,-0.0266382,-0.0640118
-56,652,-0.0183105,0.072876,0.00586293,0.00807022,0.00227923,0.00949895,0.0044342,1.01087,0.00548825,0.0092168,1168,372,-0.0182526,-0.0728675
-49,652,-0.0198975,0.0780029,0.00524527,0.00949407,0.00243184,0.0105987,0.00414059,1.14441,0.00616776,0.00823098,1175,372,-0.0199215,-0.0779941
-42,652,-0.0302734,0.0759583,0.00442043,0.0109287,0.00234345,0.0116847,0.00366443,1.25874,0.00690062,0.0083213,1182,372,-0.030217,-0.0759445
-35,652,-0.0354004,0.0667725,0.00387606,0.0117997,0.00204495,0.0122964,0.00337943,1.33255,0.00733535,0.00712295,1189,372,-0.035352,-0.0667874
-28,652,-0.0319824,0.0640259,0.0036019,0.0120359,0.00146673,0.0122837,0.0033541,1.40343,0.00733144,0.0066332,1196,372,-0.0320243,-0.0640329
-21,652,-0.0356445,0.0576477,0.00339101,0.0114847,0.000616231,0.0115313,0.00334436,1.49524,0.00685052,0.00731713,1203,372,-0.0357038,-0.0576347
-14,652,-0.0257568,0.0501099,0.0029829,0.0103473,-0.000243128,0.0103553,0.00297488,-1.53783,0.00615636,0.00893297,1210,372,-0.0257749,-0.0501237
-7,652,-0.0252686,0.0524597,0.00255451,0.00873292,-0.00077565,0.00882881,0.00245863,-1.4478,0.00526143,0.0112523,1217,372,-0.0252416,-0.0524609
0,652,-0.0374756,0.0613403,0.00217037,0.00667334,-0.0010099,0.00688946,0.00195424,-1.35997,0.00409987,0.011097,1224,372,-0.0374843,-0.0613469
7,652,-0.0325928,0.0644531,0.00163641,0.00457544,-0.000945035,0.00485308,0.00135877,-1.28504,0.00289094,0.0119499,1231,372,-0.0325447,-0.06446
14,652,-0.0274658,0.0566711,0.000934184,0.0024727,-0.0005767,0.00266487,0.000742015,-1.24915,0.00158811,0.0103002,1238,372,-0.0275189,-0.0566621
21,652,-0.0321045,0.0646667,1.7698e-05,0.000688751,8.64035e-05,0.000699698,6.75142e-06,1.44478,0.000464231,0.00848416,1245,372,-0.0320973,-0.0646527
28,652,-0.0422363,0.0576477,-0.000908366,-0.00110346,0.000915882,-8.48507e-05,-0.00192698,0.732345,0.00125732,0.00790775,1252,372,-0.0421987,-0.0576554
35,652,-0.0307617,0.0475769,-0.00179562,-0.00226154,0.00167369,-0.000338754,-0.00371841,0.716248,0.00237409,0.00950411,1259,372,-0.0307549,-0.0475681
42,652,-0.0362549,0.048584,-0.00242016,-0.00272829,0.00257387,4.24986e-06,-0.0051527,0.755504,0.00343655,0.0102326,1266,372,-0.03627,-0.0485845
49,652,-0.041748,0.0592651,-0.00286093,-0.0026872,0.00336891,0.000595964,-0.00614409,0.798287,0.00430847,0.0113473,1273,372,-0.0417921,-0.059251
56,652,-0.0318604,0.0646362,-0.00312484,-0.0024729,0.00283834,5.81271e-05,-0.00565587,0.84257,0.0037901,0.0135339,1280,372,-0.0318881,-0.064644
63,652,-0.0258789,0.0516968,-0.00298543,-0.00231453,0.0019065,-0.000714196,-0.00458576,0.872483,0.00284911,0.0180726,1287,372,-0.0258222,-0.0516927
70,652,-0.0269775,0.0508728,-0.00235147,-0.00217962,0.000390323,-0.00186588,-0.00266522,0.89374,0.0015793,0.0165994,1294,372,-0.02699,-0.0508673
77,652,-0.0297852,0.0682678,-0.00101506,-0.00211697,-0.00174247,0.000261484,-0.00339352,-0.632276,0.00235435,0.015235,1301,372,-0.0297765,-0.0682597
84,652,-0.041748,0.0465698,0.000361508,-0.00243374,-0.00380241,0.00301502,-0.00508725,-0.609281,0.00472857,0.0125706,1308,372,-0.0417142,-0.0465637
91,652,-0.074707,0.0233459,0.00150101,-0.00234873,-0.00576572,0.00565468,-0.0065024,-0.624292,0.00702458,0.0143928,1315,372,-0.0747413,-0.0233323
98,652,-0.0407715,0.0465698,0.00308507,-0.00236756,-0.00763614,0.00846699,-0.00774947,-0.613937,0.00936563,0.0109363,1322,372,-0.0407411,-0.0465768
105,652,-0.0184326,0.0697021,0.0044731,-0.00234476,-0.0092392,0.0109122,-0.00878385,-0.608664,0.0113936,0.00984417,1329,372,-0.0184325,-0.0697029
112,652,-0.012207,0.0737305,0.0056476,-0.0025289,-0.0105558,0.0128792,-0.00976051,-0.600644,0.0131123,0.00933878,1336,372,-0.0121933,-0.0737281
119,652,-0.0119629,0.077179,0.00644582,-0.00263799,-0.0111727,0.0139645,-0.0101567,-0.592342,0.0139841,0.0102718,1343,372,-0.0119037,-0.0771661
126,652,-0.0230713,0.0747986,0.00687482,-0.00268626,-0.0112162,0.0142867,-0.0100982,-0.583947,0.0141477,0.0113983,1350,372,-0.0231227,-0.0748113
133,652,-0.0302734,0.0744629,0.00693325,-0.00262643,-0.0107091,0.0138808,-0.00957401,-0.575498,0.0136175,0.0112338,1357,372,-0.030331,-0.0744677
140,652,-0.0457764,0.0706177,0.00661514,-0.00253665,-0.00967434,0.0127412,-0.00866271,-0.564493,0.0124321,0.00858932,1364,372,-0.0457298,-0.0706213
147,652,-0.0491943,0.0675964,0.00598788,-0.00250298,-0.00835477,0.011114,-0.0076291,-0.550327,0.0108835,0.00826025,1371,372,-0.0491803,-0.0676074
154,652,-0.0319824,0.0646973,0.00528509,-0.00247666,-0.00709156,0.00948825,-0.00667981,-0.535032,0.00938146,0.00818119,1378,372,-0.0320035,-0.0646854
161,652,-0.0214844,0.0584717,0.00458954,-0.00244789,-0.0057838,0.00784088,-0.00569924,-0.512121,0.00784992,0.00898175,1385,372,-0.0215326,-0.0584737
168,652,-0.0413818,0.0494385,0.00311457,-0.00281332,-0.00412672,0.00523144,-0.0049302,-0.473969,0.00586768,0.00992085,1392,372,-0.0413288,-0.0494412
175,652,-0.0479736,0.0666199,0.001822,-0.00331013,-0.00235152,0.0027365,-0.00422463,-0.370899,0.00404951,0.00831524,1399,372,-0.048008,-0.0666245
182,652,-0.0371094,0.0732117,0.000850598,-0.00350468,-0.000346691,0.000878022,-0.00353211,-0.0789399,0.00269551,0.00954059,1406,372,-0.0370686,-0.0732078
189,652,-0.0252686,0.070282,-6.14639e-05,-0.00363846,0.00120075,0.000304226,-0.00400415,0.295627,0.00277641,0.0100528,1413,372,-0.0252299,-0.0702814
196,652,-0.0230713,0.0754395,-0.000557817,-0.00425195,0.00244788,0.00066167,-0.00547144,0.462192,0.003887,0.00798925,1420,372,-0.0230846,-0.0754372
203,652,-0.0117188,0.0584412,-0.00136855,-0.00477132,0.00364502,0.000952611,-0.00709248,0.567042,0.00507574,0.00949393,1427,372,-0.0117021,-0.0584269
210,652,0.0294189,0.0301819,-0.00182123,-0.00503148,0.00479842,0.00163342,-0.00848613,0.623993,0.00627318,0.0133998,1434,372,0.0294357,-0.030181
217,652,0.034668,0.0155945,-0.00193828,-0.0049952,0.00611487,0.00283626,-0.00976974,0.662929,0.00763622,0.0134459,1441,372,0.034657,-0.0156048
224,652,0.00378418,0.0542603,-0.00163712,-0.00505883,0.00673841,0.00360423,-0.0103002,0.661077,0.00833223,0.0161679,1448,372,0.0037632,-0.0542639
231,652,-0.0234375,0.0978394,-0.00111804,-0.00527984,0.00711079,0.00421008,-0.010608,0.643053,0.008817,0.0214374,1455,372,-0.0234464,-0.0978473
238,652,0.0395508,0.0376282,-0.00112256,-0.00537928,0.00667265,0.00375295,-0.0102548,0.631015,0.00837273,0.0241182,1462,372,0.0395254,-0.0376335
245,652,-0.00598145,-0.00701904,-0.00121448,-0.00527154,0.00594848,0.00304185,-0.00952786,0.621074,0.00757233,0.0221258,1469,372,-0.00603686,0.00703148
252,652,-0.0792236,-0.0298767,-0.00136076,-0.00544693,0.00502341,0.00201915,-0.00882683,0.592258,0.00666042,0.0257156,1476,372,-0.0792712,0.0298767
259,652,-0.0356445,-0.1091,-0.00173953,-0.00570668,0.00385916,0.000615985,-0.00806219,0.548009,0.00559144,0.0366519,1483,372,-0.0356465,0.109088
266,652,0.0810547,0.0996399,-0.00201027,-0.00622208,0.00227399,-0.00101684,-0.00721551,0.411878,0.00450977,0.0365608,1490,372,0.0810579,-0.0996492
273,652,0.354492,0.406891,-0.00107874,-0.00664156,0.000826847,-0.000958445,-0.00676186,0.144478,0.00422482,0.0343763,1497,372,0.35445,-0.406881
280,652,0.480957,0.26825,-0.000426326,-0.00668595,0.000166664,-0.000421892,-0.00669038,0.0266002,0.00432649,0.03944,1504,372,0.480974,-0.26824
287,652,0.634277,0.271698,-0.000316057,-0.00699495,-0.000446432,-0.000286349,-0.00702466,-0.0664483,0.00459063,0.0417594,1511,372,0.634255,-0.271703
294,652,0.122681,-0.300903,0.000876723,-0.00706363,-0.000351697,0.00089227,-0.00707917,-0.0441771,0.00504325,0.0433591,1518,372,0.122643,0.300893
301,652,0.0102539,-0.295013,0.00280768,-0.00691133,0.000344277,0.00281986,-0.00692351,0.035364,0.00578926,0.0424092,1525,372,0.0102293,0.295008
308,652,-0.127075,-0.434479,0.00576369,-0.00623177,0.00158273,0.00596901,-0.00643709,0.129004,0.00716436,0.0411942,1532,372,-0.127066,0.434466
315,652,-0.253662,-0.386658,0.00935828,-0.00413938,0.0030731,0.010025,-0.00480611,0.213648,0.00873769,0.0382811,1539,372,-0.253636,0.386658
322,652,0.136719,-0.0131531,0.0129462,0.000458336,0.00422304,0.0142403,-0.000835684,0.297335,0.00978397,0.0392575,1546,372,0.136665,0.0131567
329,652,1.2865,0.678192,0.0161856,0.00808885,0.00545561,0.0189308,0.00534362,0.466199,0.0112699,0.0408202,1553,372,1.28644,-0.678195
336,652,1.19702,0.904022,0,0,0,0,0,0,0,-1,1560,372,1.19702,-0.904034
343,652,0.880615,1.30951,0,0,0,0,0,0,0,-1,1567,372,0.880672,-1.30951
350,652,1.05688,1.61703,0,0,0,0,0,0,0,-1,1574,372,1.05692,-1.61703
357,652,0,0,0,0,0,0,0,0,0,-1,1581,372,0,0
364,652,0,0,0,0,0,0,0,0,0,-1,1588,372,0,0
371,652,0,0,0,0,0,0,0,0,0,-1,1595,372,0,0
378,652,0,0,0,0,0,0,0,0,0,-1,1602,372,0,0
385,652,0,0,0,0,0,0,0,0,0,-1,1609,372,0,0
392,652,0,0,0,0,0,0,0,0,0,-1,1616,372,0,0
399,652,0,0,0,0,0,0,0,0,0,-1,1623,372,0,0
406,652,0,0,0,0,0,0,0,0,0,-1,1630,372,0,0
413,652,0,0,0,0,0,0,0,0,0,-1,1637,372,0,0
420,652,0,0,0,0,0,0,0,0,0,-1,1644,372,0,0
427,652,0,0,0,0,0,0,0,0,0,-1,1651,372,0,0
434,652,0,0,0,0,0,0,0,0,0,-1,1658,372,0,0
441,652,0,0,0,0,0,0,0,0,0,-1,1665,372,0,0
448,652,0,0,0,0,0,0,0,0,0,-1,1672,372,0,0
455,652,0,0,0,0,0,0,0,0,0,-1,1679,372,0,0
462,652,0,0,0,0,0,0,0,0,0,-1,1686,372,0,0
469,652,0,0,0,0,0,0,0,0,0,-1,1693,372,0,0
476,652,0,0,0,0,0,0,0,0,0,-1,1700,372,0,0
483,652,0,0,0,0,0,0,0,0,0,-1,1707,372,0,0
490,652,0,0,0,0,0,0,0,0,0,-1,1714,372,0,0
497,652,0,0,0,0,0,0,0,0,0,-1,1721,372,0,0
504,652,0,0,0,0,0,0,0,0,0,-1,1728,372,0,0
511,652,0,0,0,0,0,0,0,0,0,-1,1735,372,0,0
518,652,0,0,0,0,0,0,0,0,0,-1,1742,372,0,0
525,652,0,0,0,0,0,0,0,0,0,-1,1749,372,0,0
532,652,0,0,0,0,0,0,0,0,0,-1,1756,372,0,0
539,652,0,0,0,0,0,0,0,0,0,-1,1763,372,0,0
546,652,0,0,0,0,0,0,0,0,0,-1,1770,372,0,0
553,652,0,0,0,0,0,0,0,0,0,-1,1777,372,0,0
560,652,0,0,0,0,0,0,0,0,0,-1,1784,372,0,0
567,652,0,0,0,0,0,0,0,0,0,-1,1791,372,0,0
574,652,0,0,0,0,0,0,0,0,0,-1,1798,372,0,0
581,652,0,0,0,0,0,0,0,0,0,-1,1805,372,0,0
588,652,0,0,0,0,0,0,0,0,0,-1,1812,372,0,0
595,652,0,0,0,0,0,0,0,0,0,-1,1819,372,0,0
602,652,0,0,0,0,0,0,0,0,0,-1,1826,372,0,0
609,652,0,0,0,0,0,0,0,0,0,-1,1833,372,0,0
616,652,0,0,0,0,0,0,0,0,0,-1,1840,372,0,0
623,652,0,0,0,0,0,0,0,0,0,-1,1847,372,0,0
630,652,0,0,0,0,0,0,0,0,0,-1,1854,372,0,0
637,652,0,0,0,0,0,0,0,0,0,-1,1861,372,0,0
644,652,0,0,0,0,0,0,0,0,0,-1,1868,372,0,0
651,652,0,0,0,0,0,0,0,0,0,-1,1875,372,0,0
658,652,0,0,0,0,0,0,0,0,0,-1,1882,372,0,0
665,652,0,0,0,0,0,0,0,0,0,-1,1889,372,0,0
672,652,0,0,0,0,0,0,0,0,0,-1,1896,372,0,0
679,652,0,0,0,0,0,0,0,0,0,-1,1903,372,0,0
686,652,0,0,0,0,0,0,0,0,0,-1,1910,372,0,0
693,652,0,0,0,0,0,0,0,0,0,-1,1917,372,0,0
700,652,0,0,0,0,0,0,0,0,0,-1,1924,372,0,0
707,652,0,0,0,0,0,0,0,0,0,-1,1931,372,0,0
714,652,0,0,0,0,0,0,0,0,0,-1,1938,372,0,0
721,652,0,0,0,0,0,0,0,0,0,-1,1945,372,0,0
728,652,0,0,0,0,0,0,0,0,0,-1,1952,372,0,0
735,652,0,0,0,0,0,0,0,0,0,-1,1959,372,0,0
742,652,0,0,0,0,0,0,0,0,0,-1,1966,372,0,0
749,652,0,0,0,0,0,0,0,0,0,-1,1973,372,0,0
756,652,0,0,0,0,0,0,0,0,0,-1,1980,372,0,0
763,652,0,0,0,0,0,0,0,0,0,-1,1987,372,0,0
770,652,0,0,0,0,0,0,0,0,0,-1,1994,372,0,0
777,652,0,0,0,0,0,0,0,0,0,-1,2001,372,0,0
784,652,0,0,0,0,0,0,0,0,0,-1,2008,372,0,0
791,652,0,0,0,0,0,0,0,0,0,-1,2015,372,0,0
798,652,0,0,0,0,0,0,0,0,0,-1,2022,372,0,0
805,652,0,0,0,0,0,0,0,0,0,-1,2029,372,0,0
812,652,0,0,0,0,0,0,0,0,0,-1,2036,372,0,0
-700,645,0,0,0,0,0,0,0,0,0,-1,524,379,0,0
-693,645,0,0,0,0,0,0,0,0,0,-1,531,379,0,0
-686,645,0,0,0,0,0,0,0,0,0,-1,538,379,0,0
-679,645,0,0,0,0,0,0,0,0,0,-1,545,379,0,0
-672,645,0,0,0,0,0,0,0,0,0,-1,552,379,0,0
-665,645,0,0,0,0,0,0,0,0,0,-1,559,379,0,0
-658,645,0,0,0,0,0,0,0,0,0,-1,566,379,0,0
-651,645,0,0,0,0,0,0,0,0,0,-1,573,379,0,0
-644,645,0,0,0,0,0,0,0,0,0,-1,580,379,0,0
-637,645,0,0,0,0,0,0,0,0,0,-1,587,379,0,0
-630,645,0,0,0,0,0,0,0,0,0,-1,594,379,0,0
-623,645,0,0,0,0,0,0,0,0,0,-1,601,379,0,0
-616,645,0,0,0,0,0,0,0,0,0,-1,608,379,0,0
-609,645,0,0,0,0,0,0,0,0,0,-1,615,379,0,0
-602,645,0,0,0,0,0,0,0,0,0,-1,622,379,0,0
-595,645,0,0,0,0,0,0,0,0,0,-1,629,379,0,0
-588,645,0,0,0,0,0,0,0,0,0,-1,636,379,0,0
-581,645,0,0,0,0,0,0,0,0,0,-1,643,379,0,0
-574,645,0,0,0,0,0,0,0,0,0,-1,650,379,0,0
-567,645,0,0,0,0,0,0,0,0,0,-1,657,379,0,0
-560,645,0,0,0,0,0,0,0,0,0,-1,664,379,0,0
-553,645,0,0,0,0,0,0,0,0,0,-1,671,379,0,0
-546,645,0,0,0,0,0,0,0,0,0,-1,678,379,0,0
-539,645,0,0,0,0,0,0,0,0,0,-1,685,379,0,0
-532,645,0,0,0,0,0,0,0,0,0,-1,692,379,0,0
-525,645,0,0,0,0,0,0,0,0,0,-1,699,379,0,0
-518,645,0,0,0,0,0,0,0,0,0,-1,706,379,0,0
-511,645,0,0,0,0,0,0,0,0,0,-1,713,379,0,0
-504,645,0,0,0,0,0,0,0,0,0,-1,720,379,0,0
-497,645,0,0,0,0,0,0,0,0,0,-1,727,379,0,0
-490,645,0,0,0,0,0,0,0,0,0,-1,734,379,0,0
-483,645,0,0,0,0,0,0,0,0,0,-1,741,379,0,0
-476,645,0,0,0,0,0,0,0,0,0,-1,748,379,0,0
-469,645,0,0,0,0,0,0,0,0,0,-1,755,379,0,0
-462,645,0,0,0,0,0,0,0,0,0,-1,762,379,0,0
-455,645,0,0,0,0,0,0,0,0,0,-1,769,379,0,0
-448,645,0,0,0,0,0,0,0,0,0,-1,776,379,0,0
-441,645,0,0,0,0,0,0,0,0,0,-1,783,379,0,0
-434,645,0,0,0,0,0,0,0,0,0,-1,790,379,0,0
-427,645,0,0,0,0,0,0,0,0,0,-1,797,379,0,0
-420,645,0,0,0,0,0,0,0,0,0,-1,804,379,0,0
-413,645,0,0,0,0,0,0,0,0,0,-1,811,379,0,0
-406,645,0,0,0,0,0,0,0,0,0,-1,818,379,0,0
-399,645,0,0,0,0,0,0,0,0,0,-1,825,379,0,0
-392,645,0,0,0,0,0,0,0,0,0,-1,832,379,0,0
-385,645,0,0,0,0,0,0,0,0,0,-1,839,379,0,0
-378,645,0,0,0,0,0,0,0,0,0,-1,846,379,0,0
-371,645,0,0,0,0,0,0,0,0,0,-1,853,379,0,0
-364,645,0,0,0,0,0,0,0,0,0,-1,860,379,0,0
-357,645,0,0,0,0,0,0,0,0,0,-1,867,379,0,0
-350,645,0,0,0,0,0,0,0,0,0,-1,874,379,0,0
-343,645,0,0,0,0,0,0,0,0,0,-1,881,379,0,0
-336,645,0,0,0,0,0,0,0,0,0,-1,888,379,0,0
-329,645,0,0,0,0,0,0,0,0,0,-1,895,379,0,0
-322,645,0,0,0,0,0,0,0,0,0,-1,902,379,0,0
-315,645,0,0,0,0,0,0,0,0,0,-1,909,379,0,0
-308,645,0,0,0,0,0,0,0,0,0,-1,916,379,0,0
-301,645,0,0,0,0,0,0,0,0,0,-1,923,379,0,0
-294,645,0,0,0,0,0,0,0,0,0,-1,930,379,0,0
-287,645,0,0,0,0,0,0,0,0,0,-1,937,379,0,0
-280,645,0,0,0,0,0,0,0,0,0,-1,944,379,0,0
-273,645,0,0,0,0,0,0,0,0,0,-1,951,379,0,0
-266,645,0,0,0,0,0,0,0,0,0,-1,958,379,0,0
-259,645,0,0,0,0,0,0,0,0,0,-1,965,379,0,0
-252,645,-0.801697,0.632782,0,0,0,0,0,0,0,-1,972,379,-0.801708,-0.632791
-245,645,-0.351135,0.71521,0,0,0,0,0,0,0,-1,979,379,-0.351145,-0.715201
-238,645,0.253601,1.45004,0.0235881,0.0168345,0.0224267,0.0428908,-0.00246818,0.710675,0.0294511,0.0391046,986,379,0.253602,-1.45003
-231,645,1.08521,1.30075,0.0174927,0.0158044,0.0182326,0.0349006,-0.00160359,0.762264,0.0238196,0.0414819,993,379,1.08523,-1.30075
-224,645,2.21521,1.3317,0.0115024,0.0143781,0.0157925,0.0287981,-0.00291752,0.830797,0.0202414,0.0417715,1000,379,2.21519,-1.33169
-217,645,0.109924,0.545837,0.0065426,0.0130208,0.0128574,0.0230408,-0.00347738,0.908794,0.0166412,0.0398551,1007,379,0.109915,-0.545842
-210,645,0.68988,0.22403,0,0,0,0,0,0,0,-1,1014,379,0.689856,-0.224015
-203,645,1.35339,-0.161804,0,0,0,0,0,0,0,-1,1021,379,1.35339,0.161818
-196,645,1.71802,-0.154419,-0.00193172,0.0109028,0.00567718,0.0130536,-0.00408252,1.20865,0.0103356,0.0427224,1028,379,1.71798,0.154427
-189,645,1.89087,-0.0145264,-0.00267262,0.0108208,0.00376455,0.0118,-0.00365184,1.31632,0.00932544,0.0434695,1035,379,1.89083,0.0145396
-182,645,2.21252,0.772095,-0.00370648,0.00983289,0.00192246,0.0101006,-0.00397416,1.43245,0.00837872,0.0417103,1042,379,2.21249,-0.77209
-175,645,2.37756,0.708466,-0.00464263,0.00982516,0.000163941,0.00982701,-0.00464448,1.55947,0.00853185,0.0437934,1049,379,2.3776,-0.708469
-168,645,2.3656,0.85849,0,0,0,0,0,0,0,-1,1056,379,2.36562,-0.858488
-161,645,-0.0529785,0.0655212,0.000556916,0.0115952,0.000709976,0.0116406,0.000511438,1.50683,0.0075957,0.0411991,1063,379,-0.0529506,-0.0655243
-154,645,-0.0528564,0.0923157,0.00128589,0.0122681,0.00066213,0.0123079,0.00124611,1.51079,0.00782302,0.038009,1070,379,-0.0529071,-0.0923122
-147,645,-0.0632324,0.135895,0.00304627,0.0122906,0.000686045,0.0123412,0.00299564,1.49712,0.00743293,0.0359148,1077,379,-0.0632575,-0.13589
-140,645,-0.0725098,0.118439,0.00464611,0.0119916,0.000602592,0.0120407,0.004597,1.48949,0.00701617,0.0326532,1084,379,-0.072452,-0.118453
-133,645,-0.052124,0.0640869,0.00571536,0.0106649,0.000240973,0.0106766,0.00570365,1.52226,0.00616893,0.0258728,1091,379,-0.0521167,-0.0640976
-126,645,-0.00292969,0.0532532,0.00748411,0.00984515,0.000972354,0.010194,0.00713522,1.22629,0.00604035,0.019194,1098,379,-0.00296629,-0.0532492
-119,645,-0.0177002,0.0455322,0.00830134,0.00877367,0.000620955,0.00920186,0.00787316,0.967115,0.00574314,0.0141345,1105,379,-0.0177122,-0.0455313
-112,645,-0.0305176,0.0516968,0.00809283,0.00771968,0.000657639,0.00858985,0.00722266,0.647177,0.00532961,0.0106096,1112,379,-0.0305285,-0.051687
-105,645,-0.0385742,0.0463867,0.00767422,0.00667925,0.000579265,0.00794031,0.00641317,0.430602,0.00486505,0.0105679,1119,379,-0.0385217,-0.0463763
-98,645,-0.0477295,0.057251,0.00706928,0.00549636,0.000477093,0.00720268,0.00536296,0.272641,0.00432112,0.0118913,1126,379,-0.0477486,-0.0572385
-91,645,-0.0272217,0.0654297,0.00629921,0.00428525,0.000628021,0.006479,0.00410546,0.27882,0.00378494,0.0123872,1133,379,-0.0272454,-0.0654317
-84,645,-0.0379639,0.0619812,0.00582527,0.00353132,0.00081406,0.0060848,0.00327179,0.308618,0.00351639,0.0111548,1140,379,-0.0379933,-0.0619698
-77,645,-0.0593262,0.0536499,0.00546413,0.00366763,0.00121329,0.00607549,0.00305627,0.466754,0.00350771,0.00961168,1147,379,-0.0593566,-0.053652
-70,645,-0.0488281,0.0451965,0.00511647,0.00416797,0.00158927,0.00630074,0.0029837,0.6404,0.00363943,0.00929894,1154,379,-0.0487933,-0.0451897
-63,645,-0.026001,0.0567627,0.00458439,0.00492639,0.00175622,0.00651992,0.00299086,0.83393,0.00376855,0.010008,1161,379,-0.0259903,-0.0567671
-56,645,-0.0296631,0.0722046,0.00401838,0.0057467,0.00158429,0.00668719,0.00307789,1.03507,0.00386491,0.0114479,1168,379,-0.0296419,-0.0722136
-49,645,-0.0255127,0.0819092,0.00344576,0.00662818,0.00177395,0.00742001,0.00265393,1.15097,0.00434141,0.00963037,1175,379,-0.0255224,-0.0819043
-42,645,-0.0273438,0.0672913,0.00263058,0.0075602,0.0017944,0.00814419,0.00204659,1.25616,0.0048921,0.00906363,1182,379,-0.0273878,-0.0672799
-35,645,-0.0229492,0.0527954,0.00206438,0.00811191,0.00161834,0.00851775,0.00165854,1.32509,0.00521433,0.00935009,1189,379,-0.0230038,-0.0528012
-28,645,-0.0196533,0.0449524,0.00172578,0.00820655,0.00122892,0.00843176,0.00150057,1.38955,0.00519375,0.00769318,1196,379,-0.0196039,-0.0449611
-21,645,-0.0362549,0.057251,0.00147382,0.0077777,0.000614858,0.00783711,0.0014144,1.47447,0.00482291,0.00911152,1203,379,-0.0362542,-0.0572661
-14,645,-0.0318604,0.0690613,0.00112054,0.00688954,-7.90731e-06,0.00688956,0.00112053,-1.56943,0.00426883,0.0094,1210,379,-0.0318837,-0.0690726
-7,645,-0.0218506,0.0578918,0.000865155,0.00573948,-0.000422025,0.00577575,0.000828886,-1.48507,0.0036061,0.0123318,1217,379,-0.0218952,-0.0578968
0,645,-0.0440674,0.0401611,0.000713272,0.00441026,-0.000702373,0.0045392,0.000584329,-1.38924,0.00285138,0.0216602,1224,379,-0.044065,-0.0401727
7,645,-0.0350342,0.0397339,0.000497697,0.0030848,-0.000814576,0.00331991,0.000262586,-1.2898,0.00213114,0.0154393,1231,379,-0.0350188,-0.0397413
14,645,-0.0184326,0.0463562,0.000184928,0.00191961,-0.000758718,0.00220463,-0.000100091,-1.21145,0.00150423,0.0142598,1238,379,-0.0184811,-0.0463465
21,645,-0.036499,0.0599365,-0.000245674,0.00100461,-0.000520605,0.001193,-0.000434062,-1.22359,0.000972853,0.00872938,1245,379,-0.0364845,-0.0599498
28,645,-0.0388184,0.0498657,-0.000626296,6.15409e-05,-0.000222877,0.000127445,-0.000692199,-1.28329,0.000509291,0.00803343,1252,379,-0.0388534,-0.0498754
35,645,-0.0354004,0.0468445,-0.00107436,-0.000428238,7.71145e-05,-0.000419162,-0.00108343,1.45364,0.000630834,0.0087057,1259,379,-0.0354464,-0.0468445
42,645,-0.0367432,0.0452881,-0.00125966,-0.000448922,0.00050759,-0.000204698,-0.00150389,1.12235,0.000941803,0.00807569,1266,379,-0.0367042,-0.0452999
49,645,-0.03125,0.0557556,-0.00136167,-0.000205514,0.000874993,0.000265115,-0.0018323,1.07732,0.00131882,0.00985133,1273,379,-0.0312212,-0.0557525
56,645,-0.0233154,0.0570679,-0.00151285,-4.64843e-05,0.000412683,6.16799e-05,-0.00162101,1.31446,0.00110181,0.0102594,1280,379,-0.0232687,-0.057057
63,645,-0.0169678,0.0548401,-0.00139794,-1.55344e-05,-0.00022305,1.95637e-05,-0.00143304,-1.41472,0.000961946,0.011109,1287,379,-0.0169585,-0.0548537
70,645,-0.02771,0.0637817,-0.000971483,-7.73326e-05,-0.00116327,0.000721816,-0.00177063,-0.968859,0.00148087,0.0144796,1294,379,-0.0276614,-0.0637748
77,645,-0.0251465,0.061676,-8.3563e-05,-0.00033923,-0.00242373,0.0022157,-0.00263849,-0.759051,0.00280611,0.0165708,1301,379,-0.0251948,-0.0616676
84,645,-0.0358887,0.0527954,0.000789861,-0.00087219,-0.00343855,0.00349638,-0.00357871,-0.666832,0.0040849,0.0121826,1308,379,-0.0359373,-0.0527884
91,645,-0.079834,0.0476074,0.00147649,-0.00110313,-0.00443946,0.00480971,-0.00443635,-0.644024,0.00533967,0.0128491,1315,379,-0.0798495,-0.0475927
98,645,-0.0523682,0.0638123,0.0024464,-0.00143087,-0.00537043,0.00621739,-0.00520186,-0.612185,0.00660159,0.011509,1322,379,-0.0524116,-0.0638191
105,645,-0.00939941,0.0787659,0.00325368,-0.00167529,-0.00602048,0.00729457,-0.00571618,-0.591128,0.00753016,0.00944083,1329,379,-0.00938269,-0.0787619
112,645,-0.0090332,0.0709229,0.0039294,-0.00197891,-0.00651594,0.00812958,-0.00617909,-0.57257,0.00828666,0.00825339,1336,379,-0.00903693,-0.0709104
119,645,-0.020874,0.07901,0.00436485,-0.00220611,-0.00661851,0.00846849,-0.00630975,-0.555013,0.00856251,0.00839746,1343,379,-0.0209149,-0.0790244
126,645,-0.0266113,0.0849915,0.00453564,-0.00228031,-0.00644169,0.0084153,-0.00615997,-0.54209,0.00844855,0.010512,1350,379,-0.0265674,-0.0850064
133,645,-0.0273438,0.0792236,0.00444601,-0.00217401,-0.00598508,0.00797539,-0.0057034,-0.53281,0.00793368,0.0114172,1357,379,-0.0272881,-0.0792185
140,645,-0.0338135,0.0742188,0.00421311,-0.00202407,-0.00531375,0.00725582,-0.00506678,-0.520036,0.00715177,0.0113701,1364,379,-0.0338539,-0.0742074
147,645,-0.0467529,0.0717163,0.00375575,-0.00189619,-0.00447853,0.00622537,-0.00436582,-0.503945,0.00614616,0.0118837,1371,379,-0.0467159,-0.0717133
154,645,-0.0358887,0.0680237,0.00324581,-0.00176739,-0.00371056,0.00521708,-0.00373866,-0.488341,0.00519403,0.0104667,1378,379,-0.0359292,-0.0680347
161,645,-0.0302734,0.0560913,0.00278492,-0.00165841,-0.00293034,0.00424058,-0.00311407,-0.461047,0.00426278,0.0118131,1385,379,-0.0302202,-0.05609
168,645,-0.0491943,0.0386353,0.00179908,-0.00189164,-0.00192569,0.00262086,-0.00271342,-0.403348,0.0030799,0.0142491,1392,379,-0.0492128,-0.0386324
175,645,-0.0424805,0.0541077,0.000974875,-0.00224166,-0.000851556,0.00118641,-0.00245319,-0.243479,0.00214333,0.0125821,1399,379,-0.042435,-0.054119
182,645,-0.020752,0.072052,0.00038791,-0.00238642,0.000379097,0.000438779,-0.00243729,0.133388,0.00178914,0.00878335,1406,379,-0.0207055,-0.0720634
189,645,-0.00695801,0.0705566,-0.000162181,-0.00257887,0.00125,0.000368036,-0.00310908,0.401171,0.00220566,0.00934533,1413,379,-0.0069194,-0.0705597
196,645,-0.0244141,0.0675049,-0.000500222,-0.0031223,0.00209349,0.000658862,-0.00428138,0.505651,0.00309732,0.0105543,1420,379,-0.0244229,-0.0674979
203,645,-0.0444336,0.0623474,-0.00101771,-0.003576,0.00289913,0.000871923,-0.00546564,0.577635,0.00396647,0.0103527,1427,379,-0.0444725,-0.062348
210,645,-0.0144043,0.0448608,-0.00126374,-0.00387455,0.00365415,0.00131118,-0.00644947,0.613844,0.00479682,0.0126445,1434,379,-0.0144476,-0.0448629
217,645,-0.0169678,0.0392761,-0.0012545,-0.0039612,0.00454768,0.00213693,-0.00735263,0.640776,0.00574803,0.011504,1441,379,-0.016988,-0.0392839
224,645,-0.0285645,0.0577393,-0.000970573,-0.00399681,0.00504964,0.00278778,-0.00775516,0.639831,0.00630816,0.0101594,1448,379,-0.0286107,-0.0577525
231,645,-0.0274658,0.0750427,-0.000513306,-0.00413637,0.00539391,0.00336514,-0.00801482,0.623392,0.00675055,0.0108124,1455,379,-0.0274584,-0.0750369
238,645,-0.0268555,0.0718079,-0.000493413,-0.00414875,0.00513138,0.00312607,-0.00776823,0.614316,0.00647737,0.00870647,1462,379,-0.026892,-0.0717939
245,645,-0.0155029,0.0603638,-0.000561737,-0.00403389,0.00464086,0.00265714,-0.00725276,0.606414,0.00592301,0.00974,1469,379,-0.0154491,-0.0603543
252,645,-0.043457,0.074707,-0.000647119,-0.00412445,0.00399485,0.00197103,-0.00674259,0.580148,0.00527625,0.0142481,1476,379,-0.043469,-0.0747141
259,645,-0.0234375,0.0855408,-0.000924247,-0.00430177,0.00315677,0.000967087,-0.00619311,0.539784,0.00448598,0.0228476,1483,379,-0.0234665,-0.0855392
266,645,-0.00183105,0.0758057,-0.00113283,-0.00471517,0.00202504,-0.000220467,-0.00562753,0.423302,0.0036804,0.020467,1490,379,-0.00186399,-0.0757993
273,645,0.0258789,0.0492554,-0.000436228,-0.00504799,0.0010193,-0.000220986,-0.00526323,0.208109,0.00343753,0.0177944,1497,379,0.0259178,-0.04927
280,645,0.178223,0.114258,0.000144968,-0.0050655,0.000692314,0.000235387,-0.00515592,0.129868,0.00351837,0.0279288,1504,379,0.178266,-0.114263
287,645,0.310181,0.17453,0.000343755,-0.00522082,0.000363511,0.000367402,-0.00524447,0.0649581,0.00362499,0.0370818,1511,379,0.310163,-0.174526
294,645,0.348267,0.142059,0.00132841,-0.00531361,0.000482839,0.00136332,-0.00534853,0.0721888,0.00409646,0.0421084,1518,379,0.348319,-0.142059
301,645,0.0211182,-0.185516,0.00285721,-0.00523926,0.00106519,0.002995,-0.00537705,0.128646,0.00489839,0.045102,1525,379,0.0211571,0.185518
308,645,0.0909424,-0.230835,0.00510347,-0.00470261,0.00202173,0.00550394,-0.00510308,0.195551,0.00612542,0.0428484,1532,379,0.0909021,0.230836
315,645,0.267822,-0.113953,0.00772362,-0.00295229,0.00309776,0.00855736,-0.00378604,0.262914,0.00730178,0.038278,1539,379,0.267863,0.113965
322,645,0.454102,0.252625,0.010295,0.000829677,0.00378699,0.0116236,-0.000498967,0.337427,0.00792064,0.0375705,1546,379,0.454087,-0.252623
329,645,0.641235,0.433044,0.0126325,0.00686032,0.00456243,0.015145,0.00434778,0.503383,0.0090044,0.0414477,1553,379,0.641292,-0.433029
336,645,0.753052,0.50766,0.0139764,0.0125104,0.00581834,0.0191077,0.00737906,0.722741,0.0111267,0.045602,1560,379,0.753097,-0.507665
343,645,0.691528,0.608368,0,0,0,0,0,0,0,-1,1567,379,0.691519,-0.60836
350,645,0.7948,0.976929,0,0,0,0,0,0,0,-1,1574,379,0.794773,-0.976918
357,645,0.704834,1.1991,0,0,0,0,0,0,0,-1,1581,379,0.704817,-1.19908
364,645,0.0305176,0.298065,0,0,0,0,0,0,0,-1,1588,379,0.0304827,-0.298077
371,645,0,0,0,0,0,0,0,0,0,-1,1595,379,0,0
378,645,0,0,0,0,0,0,0,0,0,-1,1602,379,0,0
385,645,0,0,0,0,0,0,0,0,0,-1,1609,379,0,0
392,645,0,0,0,0,0,0,0,0,0,-1,1616,379,0,0
399,645,0,0,0,0,0,0,0,0,0,-1,1623,379,0,0
406,645,0,0,0,0,0,0,0,0,0,-1,1630,379,0,0
413,645,0,0,0,0,0,0,0,0,0,-1,1637,379,0,0
420,645,0,0,0,0,0,0,0,0,0,-1,1644,379,0,0
427,645,0,0,0,0,0,0,0,0,0,-1,1651,379,0,0
434,645,0,0,0,0,0,0,0,0,0,-1,1658,379,0,0
441,645,0,0,0,0,0,0,0,0,0,-1,1665,379,0,0
448,645,0,0,0,0,0,0,0,0,0,-1,1672,379,0,0
455,645,0,0,0,0,0,0,0,0,0,-1,1679,379,0,0
462,645,0,0,0,0,0,0,0,0,0,-1,1686,379,0,0
469,645,0,0,0,0,0,0,0,0,0,-1,1693,379,0,0
476,645,0,0,0,0,0,0,0,0,0,-1,1700,379,0,0
483,645,0,0,0,0,0,0,0,0,0,-1,1707,379,0,0
490,645,0,0,0,0,0,0,0,0,0,-1,1714,379,0,0
497,645,0,0,0,0,0,0,0,0,0,-1,1721,379,0,0
504,645,0,0,0,0,0,0,0,0,0,-1,1728,379,0,0
511,645,0,0,0,0,0,0,0,0,0,-1,1735,379,0,0
518,645,0,0,0,0,0,0,0,0,0,-1,1742,379,0,0
525,645,0,0,0,0,0,0,0,0,0,-1,1749,379,0,0
532,645,0,0,0,0,0,0,0,0,0,-1,1756,379,0,0
539,645,0,0,0,0,0,0,0,0,0,-1,1763,379,0,0
546,645,0,0,0,0,0,0,0,0,0,-1,1770,379,0,0
553,645,0,0,0,0,0,0,0,0,0,-1,1777,379,0,0
560,645,0,0,0,0,0,0,0,0,0,-1,1784,379,0,0
567,645,0,0,0,0,0,0,0,0,0,-1,1791,379,0,0
574,645,0,0,0,0,0,0,0,0,0,-1,1798,379,0,0
581,645,0,0,0,0,0,0,0,0,0,-1,1805,379,0,0
588,645,0,0,0,0,0,0,0,0,0,-1,1812,379,0,0
595,645,0,0,0,0,0,0,0,0,0,-1,1819,379,0,0
602,645,0,0,0,0,0,0,0,0,0,-1,1826,379,0,0
609,645,0,0,0,0,0,0,0,0,0,-1,1833,379,0,0
616,645,0,0,0,0,0,0,0,0,0,-1,1840,379,0,0
623,645,0,0,0,0,0,0,0,0,0,-1,1847,379,0,0
630,645,0,0,0,0,0,0,0,0,0,-1,1854,379,0,0
637,645,0,0,0,0,0,0,0,0,0,-1,1861,379,0,0
644,645,0,0,0,0,0,0,0,0,0,-1,1868,379,0,0
651,645,0,0,0,0,0,0,0,0,0,-1,1875,379,0,0
658,645,0,0,0,0,0,0,0,0,0,-1,1882,379,0,0
665,645,0,0,0,0,0,0,0,0,0,-1,1889,379,0,0
672,645,0,0,0,0,0,0,0,0,0,-1,1896,379,0,0
679,645,0,0,0,0,0,0,0,0,0,-1,1903,379,0,0
686,645,0,0,0,0,0,0,0,0,0,-1,1910,379,0,0
693,645,0,0,0,0,0,0,0,0,0,-1,1917,379,0,0
700,645,0,0,0,0,0,0,0,0,0,-1,1924,379,0,0
707,645,0,0,0,0,0,0,0,0,0,-1,1931,379,0,0
714,645,0,0,0,0,0,0,0,0,0,-1,1938,379,0,0
721,645,0,0,0,0,0,0,0,0,0,-1,1945,379,0,0
728,645,0,0,0,0,0,0,0,0,0,-1,1952,379,0,0
735,645,0,0,0,0,0,0,0,0,0,-1,1959,379,0,0
742,645,0,0,0,0,0,0,0,0,0,-1,1966,379,0,0
749,645,0,0,0,0,0,0,0,0,0,-1,1973,379,0,0
756,645,0,0,0,0,0,0,0,0,0,-1,1980,379,0,0
763,645,0,0,0,0,0,0,0,0,0,-1,1987,379,0,0
770,645,0,0,0,0,0,0,0,0,0,-1,1994,379,0,0
777,645,0,0,0,0,0,0,0,0,0,-1,2001,379,0,0
784,645,0,0,0,0,0,0,0,0,0,-1,2008,379,0,0
791,645,0,0,0,0,0,0,0,0,0,-1,2015,379,0,0
798,645,0,0,0,0,0,0,0,0,0,-1,2022,379,0,0
805,645,0,0,0,0,0,0,0,0,0,-1,2029,379,0,0
812,645,0,0,0,0,0,0,0,0,0,-1,2036,379,0,0
-700,638,0,0,0,0,0,0,0,0,0,-1,524,386,0,0
-693,638,0,0,0,0,0,0,0,0,0,-1,531,386,0,0
-686,638,0,0,0,0,0,0,0,0,0,-1,538,386,0,0
-679,638,0,0,0,0,0,0,0,0,0,-1,545,386,0,0
-672,638,0,0,0,0,0,0,0,0,0,-1,552,386,0,0
-665,638,0,0,0,0,0,0,0,0,0,-1,559,386,0,0
-658,638,0,0,0,0,0,0,0,0,0,-1,566,386,0,0
-651,638,0,0,0,0,0,0,0,0,0,-1,573,386,0,0
-644,638,0,0,0,0,0,0,0,0,0,-1,580,386,0,0
-637,638,0,0,0,0,0,0,0,0,0,-1,587,386,0,0
-630,638,0,0,0,0,0,0,0,0,0,-1,594,386,0,0
-623,638,0,0,0,0,0,0,0,0,0,-1,601,386,0,0
-616,638,0,0,0,0,0,0,0,0,0,-1,608,386,0,0
-609,638,0,0,0,0,0,0,0,0,0,-1,615,386,0,0
-602,638,0,0,0,0,0,0,0,0,0,-1,622,386,0,0
-595,638,0,0,0,0,0,0,0,0,0,-1,629,386,0,0
-588,638,0,0,0,0,0,0,0,0,0,-1,636,386,0,0
-581,638,0,0,0,0,0,0,0,0,0,-1,643,386,0,0
-574,638,0,0,0,0,0,0,0,0,0,-1,650,386,0,0
-567,638,0,0,0,0,0,0,0,0,0,-1,657,386,0,0
-560,638,0,0,0,0,0,0,0,0,0,-1,664,386,0,0
-553,638,0,0,0,0,0,0,0,0,0,-1,671,386,0,0
-546,638,0,0,0,0,0,0,0,0,0,-1,678,386,0,0
-539,638,0,0,0,0,0,0,0,0,0,-1,685,386,0,0
-532,638,0,0,0,0,0,0,0,0,0,-1,692,386,0,0
-525,638,0,0,0,0,0,0,0,0,0,-1,699,386,0,0
-518,638,0,0,0,0,0,0,0,0,0,-1,706,386,0,0
-511,638,0,0,0,0,0,0,0,0,0,-1,713,386,0,0
-504,638,0,0,0,0,0,0,0,0,0,-1,720,386,0,0
-497,638,0,0,0,0,0,0,0,0,0,-1,727,386,0,0
-490,638,0,0,0,0,0,0,0,0,0,-1,734,386,0,0
-483,638,0,0,0,0,0,0,0,0,0,-1,741,386,0,0
-476,638,0,0,0,0,0,0,0,0,0,-1,748,386,0,0
-469,638,0,0,0,0,0,0,0,0,0,-1,755,386,0,0
-462,638,0,0,0,0,0,0,0,0,0,-1,762,386,0,0
-455,638,0,0,0,0,0,0,0,0,0,-1,769,386,0,0
-448,638,0,0,0,0,0,0,0,0,0,-1,776,386,0,0
-441,638,0,0,0,0,0,0,0,0,0,-1,783,386,0,0
-434,638,0,0,0,0,0,0,0,0,0,-1,790,386,0,0
-427,638,0,0,0,0,0,0,0,0,0,-1,797,386,0,0
-420,638,0,0,0,0,0,0,0,0,0,-1,804,386,0,0
-413,638,0,0,0,0,0,0,0,0,0,-1,811,386,0,0
-406,638,0,0,0,0,0,0,0,0,0,-1,818,386,0,0
-399,638,0,0,0,0,0,0,0,0,0,-1,825,386,0,0
-392,638,0,0,0,0,0,0,0,0,0,-1,832,386,0,0
-385,638,0,0,0,0,0,0,0,0,0,-1,839,386,0,0
-378,638,0,0,0,0,0,0,0,0,0,-1,846,386,0,0
-371,638,0,0,0,0,0,0,0,0,0,-1,853,386,0,0
-364,638,0,0,0,0,0,0,0,0,0,-1,860,386,0,0
-357,638,0,0,0,0,0,0,0,0,0,-1,867,386,0,0
-350,638,0,0,0,0,0,0,0,0,0,-1,874,386,0,0
-343,638,0,0,0,0,0,0,0,0,0,-1,881,386,0,0
-336,638,0,0,0,0,0,0,0,0,0,-1,888,386,0,0
-329,638,0,0,0,0,0,0,0,0,0,-1,895,386,0,0
-322,638,0,0,0,0,0,0,0,0,0,-1,902,386,0,0
-315,638,0,0,0,0,0,0,0,0,0,-1,909,386,0,0
-308,638,0,0,0,0,0,0,0,0,0,-1,916,386,0,0
-301,638,0,0,0,0,0,0,0,0,0,-1,923,386,0,0
-294,638,0,0,0,0,0,0,0,0,0,-1,930,386,0,0
-287,638,0,0,0,0,0,0,0,0,0,-1,937,386,0,0
-280,638,0,0,0,0,0,0,0,0,0,-1,944,386,0,0
-273,638,0,0,0,0,0,0,0,0,0,-1,951,386,0,0
-266,638,-0.19812,0.300293,0,0,0,0,0,0,0,-1,958,386,-0.198111,-0.300297
-259,638,-0.37085,0.547302,0.0253091,0.00642515,0.011806,0.0309844,0.000749815,0.448101,0.0204109,0.0444244,965,386,-0.37087,-0.547295
-252,638,-0.355713,0.587891,0.0238116,0.0115465,0.0155983,0.0344395,0.000918495,0.598102,0.0226597,0.0431432,972,386,-0.355716,-0.587898
-245,638,-0.23822,0.493713,0.0219044,0.0132522,0.0166271,0.0347589,0.000397624,0.658127,0.0230412,0.0410856,979,386,-0.238191,-0.493727
-238,638,-0.0177612,0.687225,0.0204282,0.0135861,0.0175136,0.0348518,-0.000837451,0.688944,0.0235187,0.0434226,986,386,-0.0177631,-0.68722
-231,638,0.615417,1.02451,0.0162284,0.0128079,0.0152623,0.029876,-0.000839737,0.729603,0.0202031,0.0425485,993,386,0.615392,-1.02449
-224,638,-0.602417,0.543701,0,0,0,0,0,0,0,-1,1000,386,-0.602409,-0.543706
-217,638,-0.0129395,0.396729,0.0079774,0.010786,0.0121948,0.0216571,-0.00289365,0.842724,0.0154929,0.0411368,1007,386,-0.0129517,-0.396733
-210,638,0.610962,0.245239,0.00459671,0.00958271,0.010119,0.0175113,-0.00333185,0.906177,0.0129287,0.0449624,1014,386,0.610947,-0.245241
-203,638,1.1377,0.0395813,0.00210248,0.0090336,0.00851159,0.0147581,-0.00362202,0.978729,0.0112423,0.0477854,1021,386,1.1377,-0.0395828
-196,638,1.3822,0.0380249,0.000661728,0.00891163,0.00690748,0.0128321,-0.00325873,1.05457,0.00982283,0.0454986,1028,386,1.38221,-0.0380295
-189,638,1.53943,0.300323,-0.00049611,0.00878694,0.00526173,0.0111618,-0.00287097,1.14682,0.0085602,0.0449886,1035,386,1.53948,-0.300328
-182,638,1.71155,0.725739,-0.00175434,0.00791652,0.00361515,0.00911853,-0.00295635,1.2498,0.00726774,0.0434883,1042,386,1.71153,-0.725747
-175,638,0.875488,0.509369,-0.00293732,0.00787891,0.00186069,0.00819005,-0.00324846,1.40511,0.00680635,0.0392154,1049,386,0.875464,-0.509377
-168,638,0.129028,0.233948,0,0,0,0,0,0,0,-1,1056,386,0.129001,-0.233941
-161,638,-0.0383301,0.0537415,0.000419026,0.00918761,0.00175629,0.00952631,8.0334e-05,1.38029,0.00632426,0.025595,1063,386,-0.0383898,-0.0537431
-154,638,-0.0200195,0.0502014,0.00059458,0.00973719,0.00135361,0.00993339,0.000398382,1.42685,0.00649354,0.0205922,1070,386,-0.0200674,-0.0502099
-147,638,-0.0187988,0.0715332,0.0016731,0.0098804,0.0010311,0.010008,0.00154555,1.44771,0.00622111,0.0164601,1077,386,-0.0188418,-0.0715346
-140,638,-0.0291748,0.0767517,0.00274714,0.00974221,0.000662085,0.00980432,0.00268502,1.47725,0.00585033,0.0127199,1084,386,-0.0291816,-0.0767531
-133,638,-0.0234375,0.0532227,0.00348818,0.0086499,0.000130666,0.0086532,0.00348488,1.5455,0.00502734,0.0100128,1091,386,-0.0234335,-0.0532346
-126,638,-0.0245361,0.044342,0.00483412,0.00798613,0.00048703,0.00805967,0.00476058,1.42094,0.00467869,0.0113867,1098,386,-0.0245969,-0.0443511
-119,638,-0.0289307,0.0509338,0.0054894,0.00710291,6.62103e-05,0.00710562,0.00548669,1.52985,0.00430025,0.0141106,1105,386,-0.0289111,-0.0509449
-112,638,-0.0458984,0.0452576,0.00532226,0.00626378,7.10892e-05,0.00626911,0.00531693,1.49586,0.00390094,0.0134684,1112,386,-0.0459038,-0.0452481
-105,638,-0.052002,0.0392761,0.00501161,0.00539654,-7.09017e-06,0.00539667,0.00501148,-1.55239,0.0034765,0.0148077,1119,386,-0.0519575,-0.0392649
-98,638,-0.0343018,0.0415039,0.0045805,0.00443165,-0.000112784,0.0046412,0.00437095,-0.493749,0.0030081,0.0150305,1126,386,-0.0343625,-0.041507
-91,638,-0.0328369,0.0445557,0.00403456,0.00341837,-5.10728e-06,0.0040346,0.00341833,-0.00828775,0.00250966,0.0117772,1133,386,-0.0328225,-0.0445663
-84,638,-0.0548096,0.0541687,0.00371689,0.00276026,0.000153846,0.00374102,0.00273612,0.155595,0.00223564,0.0122334,1140,386,-0.0548698,-0.0541789
-77,638,-0.0567627,0.0527344,0.0034735,0.00275654,0.000498868,0.00372933,0.00250071,0.473851,0.00219449,0.00928665,1147,386,-0.05672,-0.0527428
-70,638,-0.0314941,0.0533447,0.00322972,0.00299236,0.00082745,0.00394696,0.00227512,0.714168,0.00228763,0.00937564,1154,386,-0.0315018,-0.0533569
-63,638,-0.0245361,0.0561523,0.00286325,0.00345071,0.00101598,0.00421456,0.0020994,0.926117,0.00243328,0.0102637,1161,386,-0.0245513,-0.056165
-56,638,-0.0258789,0.058136,0.0025378,0.00400539,0.000949901,0.00447192,0.00207127,1.11427,0.00258419,0.0135325,1168,386,-0.0258956,-0.0581368
-49,638,-0.036499,0.0746155,0.00219811,0.00455468,0.0011697,0.00503668,0.00171611,1.17992,0.0029567,0.0118403,1175,386,-0.0365482,-0.0746007
-42,638,-0.0350342,0.0752869,0.00162205,0.00513985,0.00126336,0.00554655,0.00121535,1.25935,0.00336652,0.0106337,1182,386,-0.0350909,-0.0752818
-35,638,-0.0217285,0.0641174,0.00126508,0.005609,0.00119278,0.00591497,0.000959113,1.31969,0.00366567,0.0100962,1189,386,-0.0216737,-0.0641305
-28,638,-0.00830078,0.0526123,0.00110597,0.00580864,0.000953842,0.00599475,0.000919864,1.37811,0.0037279,0.00967017,1196,386,-0.0082666,-0.0526108
-21,638,-0.0332031,0.0699463,0.000943275,0.00568324,0.000524533,0.00574059,0.000885923,1.46189,0.0035686,0.0108875,1203,386,-0.0331813,-0.0699429
-14,638,-0.0456543,0.0886536,0.000725929,0.005265,0.000102081,0.00526729,0.000723634,1.54832,0.00329689,0.010655,1210,386,-0.0456515,-0.0886519
-7,638,-0.0454102,0.0397034,0.000701516,0.00474782,-0.00022896,0.00476073,0.000688602,-1.51445,0.00297101,0.0150972,1217,386,-0.0454028,-0.0396934
0,638,-0.0421143,0.026825,0.000730684,0.0041385,-0.000533767,0.00422015,0.000649036,-1.41901,0.00262398,0.0273535,1224,386,-0.0421362,-0.0268147
7,638,-0.0303955,0.0157166,0.000656515,0.00358077,-0.000773132,0.00377259,0.000464692,-1.3276,0.00237537,0.0215994,1231,386,-0.0304096,-0.0157206
14,638,-0.0201416,0.0464172,0.00050295,0.00320755,-0.000948901,0.00350726,0.000203242,-1.26487,0.00227345,0.0118892,1238,386,-0.0201755,-0.0464154
21,638,-0.0389404,0.0735168,0.000285506,0.0029767,-0.00101821,0.00331853,-5.63172e-05,-1.24691,0.00223136,0.00995821,1245,386,-0.0388911,-0.0735062
28,638,-0.0354004,0.0707397,7.59993e-05,0.00266094,-0.000992013,0.00299776,-0.000260815,-1.24348,0.00209087,0.00819146,1252,386,-0.0354358,-0.070752
35,638,-0.0336914,0.0732727,-0.000216109,0.00261243,-0.000942821,0.00289788,-0.000501566,-1.2768,0.00211899,0.00975707,1259,386,-0.033744,-0.0732865
42,638,-0.0313721,0.066925,9.8703e-05,0.0026967,-0.000762451,0.00290393,-0.000108529,-1.30541,0.00197312,0.00877153,1266,386,-0.0313554,-0.0669343
49,638,-0.0264893,0.0549011,0.000337414,0.00290872,-0.000394198,0.00296779,0.000278338,-1.42204,0.00189258,0.00726478,1273,386,-0.0265403,-0.0548894
56,638,-0.0319824,0.0539551,0.000269768,0.00295839,-0.000561047,0.00307077,0.000157389,-1.37311,0.00199678,0.00970491,1280,386,-0.0320032,-0.0539587
63,638,-0.0159912,0.0549927,0.000496926,0.00285426,-0.000756306,0.00307604,0.000275145,-1.28555,0.00196541,0.0130507,1287,386,-0.0160296,-0.0549977
70,638,-0.0366211,0.0673218,0.000918791,0.00250223,-0.00101848,0.00300052,0.0004205,-1.11579,0.00187596,0.0167628,1294,386,-0.0365626,-0.0673362
77,638,-0.0474854,0.0684509,0.00156583,0.00193685,-0.00140812,0.00317163,0.00033105,-0.850891,0.00201316,0.0161773,1301,386,-0.0474883,-0.0684556
84,638,-0.0257568,0.0814209,0.00212798,0.00120472,-0.00157961,0.00331203,2.0664e-05,-0.643235,0.00220117,0.0120156,1308,386,-0.025723,-0.0814276
91,638,-0.0462646,0.0919189,0.00253676,0.000671573,-0.00180536,0.00363618,-0.000427844,-0.546991,0.00257859,0.0125876,1315,386,-0.0462833,-0.0919171
98,638,-0.0427246,0.0883484,0.00296897,3.03662e-05,-0.0020163,0.00399452,-0.000995187,-0.470529,0.00304937,0.0112371,1322,386,-0.0427812,-0.0883464
105,638,-0.0117188,0.070282,0.00327915,-0.000460487,-0.00206709,0.00419664,-0.00137798,-0.417733,0.00335284,0.00894653,1329,386,-0.0116909,-0.0702846
112,638,-0.0224609,0.0606384,0.00351776,-0.000976139,-0.00209541,0.00434319,-0.00180157,-0.375257,0.00364744,0.00867933,1336,386,-0.0225154,-0.0606404
119,638,-0.0327148,0.0665283,0.00360143,-0.00142248,-0.00204174,0.00432655,-0.0021476,-0.341252,0.00380776,0.0107227,1343,386,-0.0327743,-0.0665189
126,638,-0.0270996,0.0735168,0.00350169,-0.00163535,-0.00194494,0.00415499,-0.00228864,-0.324054,0.00377189,0.0141652,1350,386,-0.0270534,-0.0735073
133,638,-0.0230713,0.0768127,0.00326635,-0.00161282,-0.00183503,0.00387946,-0.00222592,-0.322451,0.00356778,0.014922,1357,386,-0.0230465,-0.0768204
140,638,-0.0157471,0.0726929,0.002966,-0.00151675,-0.00160408,0.00348086,-0.00203162,-0.310582,0.00321909,0.0157473,1364,386,-0.0157418,-0.0726867
147,638,-0.0170898,0.0773926,0.00222442,-0.00136735,-0.00129845,0.00264465,-0.00178757,-0.313002,0.00257485,0.0168601,1371,386,-0.0171076,-0.0773818
154,638,-0.0170898,0.0747681,0.00183557,-0.0012764,-0.00116099,0.00222097,-0.0016618,-0.320515,0.00224945,0.0151368,1378,386,-0.0170339,-0.0747742
161,638,-0.041626,0.0595398,0.00174648,-0.00114406,-0.000850006,0.0019779,-0.00137549,-0.265823,0.00194647,0.0167983,1385,386,-0.0416058,-0.0595343
168,638,-0.0323486,0.065979,0.00110839,-0.00127146,-0.000368193,0.00116405,-0.00132712,-0.150041,0.00143931,0.020665,1392,386,-0.0323322,-0.0659858
175,638,-0.0377197,0.0567932,0.000553598,-0.00150063,0.000150868,0.000564619,-0.00151165,0.0729211,0.00123961,0.0170004,1399,386,-0.0376766,-0.0568071
182,638,-0.0206299,0.0682983,0.000182583,-0.00158887,0.00081791,0.000502464,-0.00190875,0.372806,0.00146892,0.0112352,1406,386,-0.0205789,-0.0683014
189,638,0.00634766,0.0743103,-0.00014765,-0.00177561,0.00127441,0.000550548,-0.00247381,0.501199,0.00186008,0.00977415,1413,386,0.00631488,-0.0743003
196,638,-0.0196533,0.0666199,-0.000427965,-0.00223255,0.0018046,0.000687347,-0.00334786,0.553576,0.00249281,0.0127723,1420,386,-0.0196866,-0.0666335
203,638,-0.0441895,0.0586243,-0.000774173,-0.00262301,0.00232259,0.000801203,-0.00419839,0.596002,0.00310069,0.01883,1427,386,-0.0442267,-0.0586302
210,638,-0.0258789,0.0426941,-0.000891652,-0.00295421,0.00281495,0.00107498,-0.00492084,0.609811,0.00369143,0.0158999,1434,386,-0.025916,-0.0426882
217,638,-0.0146484,0.0354614,-0.000831007,-0.00310572,0.00340924,0.00162559,-0.00556232,0.624399,0.00435247,0.0117563,1441,386,-0.0146583,-0.035462
224,638,-0.0319824,0.0574646,-0.000599476,-0.0031292,0.00379086,0.00213198,-0.00586065,0.624376,0.00477899,0.00995731,1448,386,-0.0319785,-0.0574537
231,638,-0.0307617,0.0810852,-0.000216971,-0.00321434,0.00407301,0.00262433,-0.00605564,0.609109,0.00514025,0.0100053,1455,386,-0.0307473,-0.0810838
238,638,-0.032959,0.0612488,-0.000164869,-0.00316597,0.00391105,0.00252361,-0.00585444,0.602223,0.00496286,0.0108329,1462,386,-0.0329215,-0.0612469
245,638,-0.0450439,0.0735474,-0.000191875,-0.00304414,0.00357315,0.00222923,-0.00546525,0.595522,0.0045715,0.0125728,1469,386,-0.0450575,-0.0735497
252,638,-0.0679932,0.0947266,-0.000208099,-0.00306982,0.0031162,0.00179005,-0.00506797,0.570172,0.00410747,0.0145508,1476,386,-0.0679341,-0.0947169
259,638,-0.046875,0.0950623,-0.000379796,-0.0031788,0.0025105,0.00109494,-0.00465354,0.531122,0.00352449,0.0144922,1483,386,-0.046863,-0.0950711
266,638,-0.0313721,0.085022,-0.000529204,-0.00350036,0.00172058,0.000258396,-0.00428796,0.429282,0.00294855,0.0102916,1490,386,-0.0313161,-0.0850224
273,638,-0.0107422,0.0629578,-1.89918e-05,-0.0037671,0.00105173,0.000255955,-0.00404205,0.255702,0.00278394,0.00913191,1497,386,-0.0107691,-0.0629727
280,638,0.0161133,0.0542603,0.000470247,-0.00378502,0.000943786,0.000670178,-0.00398495,0.208753,0.0029059,0.0135918,1504,386,0.016084,-0.0542745
287,638,0.0427246,0.0264893,0.000699193,-0.0038579,0.000800322,0.00083566,-0.00399436,0.168891,0.00298077,0.0237641,1511,386,0.0427667,-0.0264809
294,638,0.0522461,-0.066864,0.00148326,-0.0039778,0.000923055,0.00163506,-0.0041296,0.162995,0.00343053,0.0313272,1518,386,0.0522358,0.0668745
301,638,0.00195313,-0.0813293,0.00265434,-0.00397407,0.00139197,0.00293479,-0.00425452,0.198815,0.00417399,0.0386756,1525,386,0.0019469,0.0813189
308,638,0.132935,-0.26767,0.00431555,-0.00358264,0.0021068,0.00484238,-0.00410947,0.245039,0.00517413,0.040019,1532,386,0.132936,0.26766
315,638,0.210083,-0.407867,0.00618469,-0.00216621,0.00285721,0.0070687,-0.00305021,0.300052,0.00599374,0.0392848,1539,386,0.210088,0.407863
322,638,0.0445557,-0.111023,0.0080054,0.000875003,0.0032261,0.00924836,-0.000367952,0.367754,0.00629181,0.0403775,1546,386,0.0445615,0.111016
329,638,0.00927734,0.178986,0.00967836,0.00552106,0.0036738,0.0118208,0.00337863,0.52795,0.00703036,0.0430538,1553,386,0.00925908,-0.179
336,638,0.0949707,-0.00747681,0.0104698,0.00971003,0.00457288,0.0146786,0.0055013,0.743954,0.0085628,0.0421968,1560,386,0.0949359,0.00747842
343,638,0.502319,-0.092804,0,0,0,0,0,0,0,-1,1567,386,0.502366,0.0927937
350,638,0.0375977,-0.204651,0.0119778,0.0199415,0.00532659,0.02261,0.00930921,1.10636,0.0131215,0.0469504,1574,386,0.0376236,0.204658
357,638,-0.0114746,-0.148499,0.0114574,0.024801,0.00513601,0.0265489,0.00970946,1.24277,0.0155112,0.0458214,1581,386,-0.0114802,0.148513
364,638,-0.0402832,0.0431519,0.0101782,0.03026,0.00507745,0.0314708,0.00896745,1.33671,0.0187215,0.0426608,1588,386,-0.0403044,-0.043167
371,638,-0.306885,0.206573,0.00710641,0.0357096,0.00523266,0.0366368,0.00617921,1.39542,0.0226476,0.0385195,1595,386,-0.306886,-0.206573
378,638,-0.237061,0.508514,0.00193962,0.0403209,0.00414261,0.0407629,0.00149759,1.46449,0.0266901,0.0393309,1602,386,-0.237063,-0.508529
385,638,0,0,0,0,0,0,0,0,0,-1,1609,386,0,0
392,638,0,0,0,0,0,0,0,0,0,-1,1616,386,0,0
399,638,0,0,0,0,0,0,0,0,0,-1,1623,386,0,0
406,638,0,0,0,0,0,0,0,0,0,-1,1630,386,0,0
413,638,0,0,0,0,0,0,0,0,0,-1,1637,386,0,0
420,638,0,0,0,0,0,0,0,0,0,-1,1644,386,0,0
427,638,0,0,0,0,0,0,0,0,0,-1,1651,386,0,0
434,638,0,0,0,0,0,0,0,0,0,-1,1658,386,0,0
441,638,0,0,0,0,0,0,0,0,0,-1,1665,386,0,0
448,638,0,0,0,0,0,0,0,0,0,-1,1672,386,0,0
455,638,0,0,0,0,0,0,0,0,0,-1,1679,386,0,0
462,638,0,0,0,0,0,0,0,0,0,-1,1686,386,0,0
469,638,0,0,0,0,0,0,0,0,0,-1,1693,386,0,0
476,638,0,0,0,0,0,0,0,0,0,-1,1700,386,0,0
483,638,0,0,0,0,0,0,0,0,0,-1,1707,386,0,0
490,638,0,0,0,0,0,0,0,0,0,-1,1714,386,0,0
497,638,0,0,0,0,0,0,0,0,0,-1,1721,386,0,0
504,638,0,0,0,0,0,0,0,0,0,-1,1728,386,0,0
511,638,0,0,0,0,0,0,0,0,0,-1,1735,386,0,0
518,638,0,0,0,0,0,0,0,0,0,-1,1742,386,0,0
525,638,0,0,0,0,0,0,0,0,0,-1,1749,386,0,0
532,638,0,0,0,0,0,0,0,0,0,-1,1756,386,0,0
539,638,0,0,0,0,0,0,0,0,0,-1,1763,386,0,0
546,638,0,0,0,0,0,0,0,0,0,-1,1770,386,0,0
553,638,0,0,0,0,0,0,0,0,0,-1,1777,386,0,0
560,638,0,0,0,0,0,0,0,0,0,-1,1784,386,0,0
567,638,0,0,0,0,0,0,0,0,0,-1,1791,386,0,0
574,638,0,0,0,0,0,0,0,0,0,-1,1798,386,0,0
581,638,0,0,0,0,0,0,0,0,0,-1,1805,386,0,0
588,638,0,0,0,0,0,0,0,0,0,-1,1812,386,0,0
595,638,0,0,0,0,0,0,0,0,0,-1,1819,386,0,0
602,638,0,0,0,0,0,0,0,0,0,-1,1826,386,0,0
609,638,0,0,0,0,0,0,0,0,0,-1,1833,386,0,0
616,638,0,0,0,0,0,0,0,0,0,-1,1840,386,0,0
623,638,0,0,0,0,0,0,0,0,0,-1,1847,386,0,0
630,638,0,0,0,0,0,0,0,0,0,-1,1854,386,0,0
637,638,0,0,0,0,0,0,0,0,0,-1,1861,386,0,0
644,638,0,0,0,0,0,0,0,0,0,-1,1868,386,0,0
651,638,0,0,0,0,0,0,0,0,0,-1,1875,386,0,0
658,638,0,0,0,0,0,0,0,0,0,-1,1882,386,0,0
665,638,0,0,0,0,0,0,0,0,0,-1,1889,386,0,0
672,638,0,0,0,0,0,0,0,0,0,-1,1896,386,0,0
679,638,0,0,0,0,0,0,0,0,0,-1,1903,386,0,0
686,638,0,0,0,0,0,0,0,0,0,-1,1910,386,0,0
693,638,0,0,0,0,0,0,0,0,0,-1,1917,386,0,0
700,638,0,0,0,0,0,0,0,0,0,-1,1924,386,0,0
707,638,0,0,0,0,0,0,0,0,0,-1,1931,386,0,0
714,638,0,0,0,0,0,0,0,0,0,-1,1938,386,0,0
721,638,0,0,0,0,0,0,0,0,0,-1,1945,386,0,0
728,638,0,0,0,0,0,0,0,0,0,-1,1952,386,0,0
735,638,0,0,0,0,0,0,0,0,0,-1,1959,386,0,0
742,638,0,0,0,0,0,0,0,0,0,-1,1966,386,0,0
749,638,0,0,0,0,0,0,0,0,0,-1,1973,386,0,0
756,638,0,0,0,0,0,0,0,0,0,-1,1980,386,0,0
763,638,0,0,0,0,0,0,0,0,0,-1,1987,386,0,0
770,638,0,0,0,0,0,0,0,0,0,-1,1994,386,0,0
777,638,0,0,0,0,0,0,0,0,0,-1,2001,386,0,0
784,638,0,0,0,0,0,0,0,0,0,-1,2008,386,0,0
791,638,0,0,0,0,0,0,0,0,0,-1,2015,386,0,0
798,638,0,0,0,0,0,0,0,0,0,-1,2022,386,0,0
805,638,0,0,0,0,0,0,0,0,0,-1,2029,386,0,0
812,638,0,0,0,0,0,0,0,0,0,-1,2036,386,0,0
-700,631,0,0,0,0,0,0,0,0,0,-1,524,393,0,0
-693,631,0,0,0,0,0,0,0,0,0,-1,531,393,0,0
-686,631,0,0,0,0,0,0,0,0,0,-1,538,393,0,0
-679,631,0,0,0,0,0,0,0,0,0,-1,545,393,0,0
-672,631,0,0,0,0,0,0,0,0,0,-1,552,393,0,0
-665,631,0,0,0,0,0,0,0,0,0,-1,559,393,0,0
-658,631,0,0,0,0,0,0,0,0,0,-1,566,393,0,0
-651,631,0,0,0,0,0,0,0,0,0,-1,573,393,0,0
-644,631,0,0,0,0,0,0,0,0,0,-1,580,393,0,0
-637,631,0,0,0,0,0,0,0,0,0,-1,587,393,0,0
-630,631,0,0,0,0,0,0,0,0,0,-1,594,393,0,0
-623,631,0,0,0,0,0,0,0,0,0,-1,601,393,0,0
-616,631,0,0,0,0,0,0,0,0,0,-1,608,393,0,0
-609,631,0,0,0,0,0,0,0,0,0,-1,615,393,0,0
-602,631,0,0,0,0,0,0,0,0,0,-1,622,393,0,0
-595,631,0,0,0,0,0,0,0,0,0,-1,629,393,0,0
-588,631,0,0,0,0,0,0,0,0,0,-1,636,393,0,0
-581,631,0,0,0,0,0,0,0,0,0,-1,643,393,0,0
-574,631,0,0,0,0,0,0,0,0,0,-1,650,393,0,0
-567,631,0,0,0,0,0,0,0,0,0,-1,657,393,0,0
-560,631,0,0,0,0,0,0,0,0,0,-1,664,393,0,0
-553,631,0,0,0,0,0,0,0,0,0,-1,671,393,0,0
-546,631,0,0,0,0,0,0,0,0,0,-1,678,393,0,0
-539,631,0,0,0,0,0,0,0,0,0,-1,685,393,0,0
-532,631,0,0,0,0,0,0,0,0,0,-1,692,393,0,0
-525,631,0,0,0,0,0,0,0,0,0,-1,699,393,0,0
-518,631,0,0,0,0,0,0,0,0,0,-1,706,393,0,0
-511,631,0,0,0,0,0,0,0,0,0,-1,713,393,0,0
-504,631,0,0,0,0,0,0,0,0,0,-1,720,393,0,0
-497,631,0,0,0,0,0,0,0,0,0,-1,727,393,0,0
-490,631,0,0,0,0,0,0,0,0,0,-1,734,393,0,0
-483,631,0,0,0,0,0,0,0,0,0,-1,741,393,0,0
-476,631,0,0,0,0,0,0,0,0,0,-1,748,393,0,0
-469,631,0,0,0,0,0,0,0,0,0,-1,755,393,0,0
-462,631,0,0,0,0,0,0,0,0,0,-1,762,393,0,0
-455,631,0,0,0,0,0,0,0,0,0,-1,769,393,0,0
-448,631,0,0,0,0,0,0,0,0,0,-1,776,393,0,0
-441,631,0,0,0,0,0,0,0,0,0,-1,783,393,0,0
-434,631,0,0,0,0,0,0,0,0,0,-1,790,393,0,0
-427,631,0,0,0,0,0,0,0,0,0,-1,797,393,0,0
-420,631,0,0,0,0,0,0,0,0,0,-1,804,393,0,0
-413,631,0,0,0,0,0,0,0,0,0,-1,811,393,0,0
-406,631,0,0,0,0,0,0,0,0,0,-1,818,393,0,0
-399,631,0,0,0,0,0,0,0,0,0,-1,825,393,0,0
-392,631,0,0,0,0,0,0,0,0,0,-1,832,393,0,0
-385,631,0,0,0,0,0,0,0,0,0,-1,839,393,0,0
-378,631,0,0,0,0,0,0,0,0,0,-1,846,393,0,0
-371,631,0,0,0,0,0,0,0,0,0,-1,853,393,0,0
-364,631,0,0,0,0,0,0,0,0,0,-1,860,393,0,0
-357,631,0,0,0,0,0,0,0,0,0,-1,867,393,0,0
-350,631,0,0,0,0,0,0,0,0,0,-1,874,393,0,0
-343,631,0,0,0,0,0,0,0,0,0,-1,881,393,0,0
-336,631,0,0,0,0,0,0,0,0,0,-1,888,393,0,0
-329,631,0,0,0,0,0,0,0,0,0,-1,895,393,0,0
-322,631,0,0,0,0,0,0,0,0,0,-1,902,393,0,0
-315,631,0,0,0,0,0,0,0,0,0,-1,909,393,0,0
-308,631,0,0,0,0,0,0,0,0,0,-1,916,393,0,0
-301,631,0,0,0,0,0,0,0,0,0,-1,923,393,0,0
-294,631,0,0,0,0,0,0,0,0,0,-1,930,393,0,0
-287,631,0,0,0,0,0,0,0,0,0,-1,937,393,0,0
-280,631,-1.20001,0.496338,0,0,0,0,0,0,0,-1,944,393,-1.2,-0.496342
-273,631,-0.84967,0.260895,0,0,0,0,0,0,0,-1,951,393,-0.849678,-0.260884
-266,631,-0.316467,0.59436,0,0,0,0,0,0,0,-1,958,393,-0.316447,-0.59435
-259,631,-0.442017,0.593353,0.0206371,0.00510151,0.00715334,0.023429,0.00230952,0.372122,0.0149093,0.0456502,965,393,-0.442042,-0.593368
-252,631,-0.461731,0.649933,0.0196139,0.00912648,0.0107707,0.0263495,0.00239091,0.558861,0.0168261,0.0463208,972,393,-0.461732,-0.649919
-245,631,-0.452087,0.444092,0.0181659,0.0104193,0.011967,0.0268708,0.00171439,0.628885,0.0173706,0.045782,979,393,-0.452088,-0.44409
-238,631,-0.555969,0.431885,0.0171627,0.0106888,0.0131048,0.0274244,0.000427047,0.66432,0.0181423,0.0473006,986,393,-0.555982,-0.431878
-231,631,-0.679199,0.753052,0.0142361,0.01008,0.0120851,0.0244205,-0.000104409,0.700256,0.0163152,0.0490451,993,393,-0.679199,-0.753056
-224,631,-0.509033,0.610352,0,0,0,0,0,0,0,-1,1000,393,-0.50901,-0.610365
-217,631,-0.0661011,0.470886,0.00816784,0.00862873,0.0106222,0.019023,-0.00222643,0.796244,0.0134855,0.0405959,1007,393,-0.0661275,-0.470882
-210,631,0.453796,0.338074,0.00556608,0.007677,0.00917799,0.01586,-0.00261694,0.842646,0.011545,0.042602,1014,393,0.453817,-0.338067
-203,631,1.02484,0.364349,0.003659,0.00719389,0.00805015,0.0136683,-0.00281545,0.893461,0.0101813,0.0439725,1021,393,1.02484,-0.364346
-196,631,1.33618,0.369354,0.00221841,0.00698226,0.0069205,0.0119193,-0.00271861,0.95114,0.00899046,0.046151,1028,393,1.33613,-0.369354
-189,631,1.63806,0.267761,0.000932994,0.00684679,0.00559,0.0102138,-0.00243397,1.02867,0.00774898,0.0457575,1035,393,1.63811,-0.267751
-182,631,2.09229,0.458099,0,0,0,0,0,0,0,-1,1042,393,2.09234,-0.458095
-175,631,0.655396,0.373016,0,0,0,0,0,0,0,-1,1049,393,0.655362,-0.373002
-168,631,-0.03479,0.0641479,-0.000513237,0.00668553,0.00212111,0.00726403,-0.00109173,1.30454,0.00524461,0.0163922,1056,393,-0.0347644,-0.0641565
-161,631,-0.0395508,0.0579834,0.00044489,0.00702219,0.00214801,0.00766154,-0.000194456,1.2815,0.00517373,0.00833126,1063,393,-0.0395505,-0.0579918
-154,631,-0.0385742,0.0690918,0.000286878,0.00744653,0.00159264,0.00778483,-5.14174e-05,1.3615,0.00520711,0.00859932,1070,393,-0.0386263,-0.0691053
-147,631,-0.0412598,0.0768433,0.000881854,0.00764215,0.00111048,0.00781989,0.000704114,1.41209,0.00499512,0.00927659,1077,393,-0.0412277,-0.0768326
-140,631,-0.041748,0.0751343,0.00157049,0.00758547,0.000613592,0.00764742,0.00150853,1.47017,0.00467724,0.00847013,1084,393,-0.0417745,-0.0751387
-133,631,-0.020874,0.0688782,0.00203148,0.0066723,2.55579e-05,0.00667244,0.00203134,1.56529,0.00394933,0.00773939,1091,393,-0.0208239,-0.0688724
-126,631,-0.0196533,0.0709534,0.00299246,0.00607928,0.000129925,0.00608474,0.002987,1.52881,0.00351322,0.0116451,1098,393,-0.0196883,-0.0709671
-119,631,-0.0422363,0.0627441,0.00347419,0.00529373,-0.000306316,0.00534391,0.003424,-1.40841,0.00312578,0.0146329,1105,393,-0.0422963,-0.0627431
-112,631,-0.0582275,0.0513,0.00331216,0.00459549,-0.000336341,0.0046783,0.00322936,-1.3294,0.00276545,0.0136632,1112,393,-0.058253,-0.0512939
-105,631,-0.0372314,0.0563965,0.0030361,0.00385755,-0.000425256,0.00403804,0.00285561,-1.16941,0.00239715,0.0172945,1119,393,-0.0372065,-0.0563972
-98,631,-0.0305176,0.057373,0.00269966,0.00306646,-0.000538612,0.00345204,0.00231408,-0.949494,0.00203123,0.0150073,1126,393,-0.0304614,-0.057386
-91,631,-0.0388184,0.0406189,0.00230591,0.00223121,-0.000481214,0.00275122,0.0017859,-0.746667,0.0016118,0.0160402,1133,393,-0.0387944,-0.0406324
-84,631,-0.0350342,0.048645,0.00208352,0.00171244,-0.000350076,0.00229419,0.00150178,-0.54172,0.00134549,0.0143475,1140,393,-0.0350604,-0.0486347
-77,631,-0.0437012,0.0510559,0.0019137,0.00162815,-5.80557e-05,0.00192505,0.0016168,-0.193105,0.00119396,0.00868375,1147,393,-0.0437139,-0.0510446
-70,631,-0.020752,0.0665588,0.00175785,0.0016567,0.000188283,0.00190223,0.00151232,0.654185,0.00116023,0.00950703,1154,393,-0.0207759,-0.066547
-63,631,-0.0102539,0.0653992,0.0015805,0.00183724,0.000405052,0.00213378,0.00128396,0.938849,0.00124041,0.00915091,1161,393,-0.0102296,-0.0654087
-56,631,-0.0263672,0.0594788,0.00149907,0.00219053,0.000473737,0.00243128,0.00125833,1.10062,0.00140399,0.0107864,1168,393,-0.026396,-0.0594721
-49,631,-0.0483398,0.0653687,0.00139073,0.00248988,0.000715284,0.00284233,0.00103827,1.11296,0.00166076,0.0104003,1175,393,-0.048279,-0.0653661
-42,631,-0.0445557,0.0704956,0.00103167,0.00279253,0.000898463,0.00317003,0.000654167,1.17303,0.00193257,0.00829556,1182,393,-0.0445192,-0.0705106
-35,631,-0.019165,0.0826111,0.000839338,0.00316934,0.000933246,0.00349705,0.000511633,1.2331,0.00218092,0.00925475,1189,393,-0.0191987,-0.0826105
-28,631,-0.0217285,0.0734253,0.000840103,0.00339423,0.000838166,0.00364472,0.000589615,1.28039,0.00225907,0.0113698,1196,393,-0.0217858,-0.0734356
-21,631,-0.0465088,0.070343,0.000758058,0.00347727,0.000592506,0.00360076,0.000634562,1.36531,0.00221944,0.0105053,1203,393,-0.0465084,-0.0703356
-14,631,-0.0539551,0.0694275,0.000626991,0.00340101,0.000326282,0.00343887,0.00058913,1.45528,0.00212362,0.0124407,1210,393,-0.0539189,-0.0694209
-7,631,-0.0474854,0.0300293,0.00071508,0.00331299,0.000115149,0.00331809,0.000709987,1.52659,0.00201748,0.0179397,1217,393,-0.0474756,-0.030043
0,631,-0.0300293,0.0391541,0.000809292,0.00319461,-0.000131585,0.00320185,0.000802056,-1.51585,0.00192378,0.0185141,1224,393,-0.0300412,-0.0391519
7,631,-0.00805664,0.0444641,0.000747986,0.00324366,-0.000389289,0.00330297,0.000688672,-1.41959,0.0020121,0.0156002,1231,393,-0.00800036,-0.0444784
14,631,-0.020752,0.0564575,0.000609305,0.00356054,-0.000636852,0.00369211,0.000477743,-1.36708,0.00231862,0.00961978,1238,393,-0.0206947,-0.0564508
21,631,-0.0246582,0.0760498,0.00044515,0.00400489,-0.00076004,0.00416038,0.000289665,-1.36901,0.00268225,0.0113983,1245,393,-0.0246179,-0.0760352
28,631,-0.0343018,0.0845642,0.000283023,0.00437084,-0.000809107,0.00452516,0.0001287,-1.38233,0.0029748,0.0127251,1252,393,-0.034257,-0.0845749
35,631,-0.0350342,0.0773621,8.05337e-05,0.00496407,-0.000753718,0.00507775,-3.31476e-05,-1.4211,0.00339627,0.0120753,1259,393,-0.0350642,-0.0773594
42,631,-0.0299072,0.0674438,0.000696055,0.00539126,-0.000626688,0.00547347,0.000613848,-1.44036,0.00346255,0.0106725,1266,393,-0.0299211,-0.067436
49,631,-0.0299072,0.0584106,0.00118294,0.00576,-0.000108622,0.00576258,0.00118037,-1.54708,0.00351496,0.00940228,1273,393,-0.0298758,-0.0584015
56,631,-0.0350342,0.050354,0.00128086,0.00587385,9.69603e-05,0.0058759,0.00127881,1.5497,0.00356821,0.0111347,1280,393,-0.0349798,-0.0503631
63,631,-0.0374756,0.0437012,0.0017597,0.00577622,0.000335892,0.00580411,0.0017318,1.48794,0.00344063,0.0140665,1287,393,-0.0375335,-0.0437114
70,631,-0.0447998,0.0663757,0.00231498,0.00530645,0.000623521,0.00543121,0.00219022,1.37332,0.00315521,0.0142021,1294,393,-0.0448436,-0.0663619
77,631,-0.0524902,0.0603943,0.00292491,0.00463834,0.00085433,0.00499152,0.00257173,1.17879,0.0028823,0.0133005,1301,393,-0.0525407,-0.0603857
84,631,-0.0402832,0.0585632,0.00347341,0.003737,0.00123452,0.00484674,0.00236367,0.838576,0.00279855,0.011851,1308,393,-0.0402877,-0.0585511
91,631,-0.036499,0.0693359,0.00384869,0.00290656,0.00150227,0.00495202,0.00180323,0.633469,0.00289402,0.0145002,1315,393,-0.0365266,-0.0693282
98,631,-0.0527344,0.0610962,0.00405791,0.00192713,0.00166311,0.00496762,0.00101742,0.500528,0.00303009,0.0116934,1322,393,-0.052783,-0.061093
105,631,-0.0498047,0.040863,0.00418104,0.000990166,0.00184894,0.00502773,0.000143475,0.429432,0.00330503,0.00987217,1329,393,-0.0497526,-0.0408534
112,631,-0.0302734,0.0458069,0.00423097,0.000103012,0.00200451,0.00504415,-0.000710173,0.385391,0.00362277,0.0102335,1336,393,-0.0303232,-0.0458087
119,631,-0.0321045,0.0508728,0.00416892,-0.000728822,0.00200909,0.00488761,-0.00144751,0.343533,0.00383312,0.0108585,1343,393,-0.0321527,-0.0508816
126,631,-0.0300293,0.0585327,0.00395619,-0.00128765,0.00185439,0.00454569,-0.00187715,0.307792,0.00381342,0.015453,1350,393,-0.0300453,-0.058531
133,631,-0.0336914,0.0805054,0.00360406,-0.00150862,0.00164129,0.0040856,-0.00199016,0.285382,0.00357671,0.0165858,1357,393,-0.0337192,-0.0805113
140,631,0.00354004,0.0689087,0.00317611,-0.00164953,0.00147193,0.00358964,-0.00206306,0.273887,0.00330302,0.0172762,1364,393,0.00358801,-0.0688999
147,631,-0.00549316,0.0661926,0.002199,-0.00157546,0.00133127,0.0026213,-0.00199776,0.307174,0.0026749,0.0197824,1371,393,-0.00550531,-0.0661948
154,631,-0.0235596,0.0854797,0.00181429,-0.00157455,0.000932296,0.00205384,-0.0018141,0.251504,0.00223459,0.0196464,1378,393,-0.0235742,-0.0854701
161,631,-0.0144043,0.117004,0.00185886,-0.00140522,0.000864845,0.00207385,-0.0016202,0.243647,0.00213811,0.0220212,1385,393,-0.014441,-0.117007
168,631,-0.012207,0.139923,0.00139868,-0.00135576,0.000906663,0.00167033,-0.00162741,0.291103,0.00190401,0.0256519,1392,393,-0.0121795,-0.139934
175,631,-0.0294189,0.0883789,0.000981343,-0.00139646,0.000986266,0.00133718,-0.0017523,0.346254,0.00178907,0.0184551,1399,393,-0.029475,-0.0883924
182,631,-0.0317383,0.0726013,0.000685303,-0.0013676,0.00119999,0.00123796,-0.00192025,0.431593,0.00183752,0.0097015,1406,393,-0.031702,-0.0726017
189,631,-0.00732422,0.0812683,0.000408496,-0.00140072,0.00129665,0.0010849,-0.00207713,0.480824,0.00185532,0.00914453,1413,393,-0.00732914,-0.0812588
196,631,-0.0148926,0.068634,0.000123158,-0.00167711,0.00152804,0.000996477,-0.00255043,0.519223,0.0021123,0.0102857,1420,393,-0.0148514,-0.0686239
203,631,-0.0266113,0.0541077,-0.000142631,-0.00193702,0.00178514,0.000958096,-0.00303775,0.552539,0.0024089,0.0130044,1427,393,-0.0266337,-0.0541083
210,631,-0.0175781,0.0224609,-0.000207885,-0.00214824,0.0020555,0.00109489,-0.00345102,0.564902,0.00273957,0.0151721,1434,393,-0.0175193,-0.0224463
217,631,-0.0150146,0.0243835,-0.000117296,-0.00236867,0.00240833,0.00141545,-0.00390141,0.566778,0.00317957,0.0158695,1441,393,-0.0150494,-0.0243728
224,631,-0.0345459,0.0497742,3.84044e-05,-0.00243917,0.00266317,0.0017368,-0.00413757,0.567705,0.00348471,0.0125149,1448,393,-0.0344849,-0.049766
231,631,-0.0354004,0.0689392,0.000305558,-0.00252969,0.00286813,0.00208728,-0.00431142,0.555872,0.00376795,0.0109176,1455,393,-0.0354415,-0.0689291
238,631,-0.0526123,0.0838318,0.000328622,-0.00246384,0.00277254,0.00203665,-0.00417187,0.552139,0.00365447,0.015962,1462,393,-0.0526407,-0.0838389
245,631,-0.0661621,0.0885925,0.00028517,-0.0023468,0.00255555,0.00184367,-0.0039053,0.54763,0.00338956,0.0165163,1469,393,-0.0662194,-0.0885925
252,631,-0.0892334,0.0806885,0.000251975,-0.00232986,0.00226064,0.00156431,-0.0036422,0.525971,0.00308475,0.0155219,1476,393,-0.0892313,-0.0806891
259,631,-0.0566406,0.0764771,0.000101952,-0.00237632,0.00184423,0.00108467,-0.00335904,0.48959,0.00267525,0.0122177,1483,393,-0.0566711,-0.0764699
266,631,-0.0177002,0.0823669,-4.94416e-05,-0.00260682,0.0013276,0.000515118,-0.00317138,0.402081,0.00230522,0.0113238,1490,393,-0.0177422,-0.0823759
273,631,-0.00109863,0.0897827,0.000241105,-0.00281609,0.000937074,0.00050547,-0.00308046,0.274972,0.00224121,0.0128482,1497,393,-0.00113409,-0.0897935
280,631,0.00500488,0.065033,0.000610266,-0.00284005,0.000989796,0.000874044,-0.00310383,0.260444,0.0024139,0.010452,1504,393,0.00502382,-0.0650459
287,631,0,0.0365295,0.000833259,-0.002853,0.000972794,0.00107423,-0.00309397,0.242818,0.00249891,0.0103999,1511,393,-3.17321e-05,-0.0365433
294,631,-0.000610352,0.0282288,0.00143534,-0.00298582,0.00108169,0.0016858,-0.00323628,0.227534,0.00288838,0.0131556,1518,393,-0.000661342,-0.0282371
301,631,-0.0180664,0.0317688,0.00230407,-0.00303017,0.00143875,0.00266738,-0.00339349,0.247349,0.0035076,0.0203978,1525,393,-0.0180692,-0.0317633
308,631,0.0270996,-0.0932007,0.00349849,-0.00276632,0.0019516,0.00405671,-0.00332454,0.278593,0.00426855,0.0296146,1532,393,0.0271586,0.0932083
315,631,0.0296631,-0.19223,0.00480271,-0.0016584,0.00245278,0.00562834,-0.00248402,0.324695,0.00479951,0.032535,1539,393,0.0297109,0.19223
322,631,-0.0467529,-0.151306,0.00607746,0.000722789,0.00260834,0.00713798,-0.000337734,0.386173,0.00487513,0.037729,1546,393,-0.0467409,0.15131
329,631,-0.461182,0.213226,0,0,0,0,0,0,0,-1,1553,393,-0.461208,-0.213213
336,631,-0.284058,0.115326,0.00770777,0.00719094,0.00348046,0.0109394,0.00395931,0.748342,0.00639562,0.0428716,1560,393,-0.284081,-0.115328
343,631,-0.0898438,-0.0850525,0.00828729,0.0107885,0.00388118,0.0136156,0.00546019,0.941255,0.00791212,0.046735,1567,393,-0.0898805,0.0850566
350,631,0.0374756,-0.164398,0.00848383,0.0144229,0.00394255,0.0163891,0.0065176,1.10817,0.00952809,0.0482577,1574,393,0.0374349,0.164386
357,631,0.193359,-0.248901,0.00792019,0.0175588,0.00393518,0.0189613,0.00651765,1.22842,0.0111241,0.043664,1581,393,0.193305,0.248906
364,631,0.325562,-0.288116,0.00659418,0.0208371,0.00414621,0.0219562,0.00547512,1.30718,0.0131966,0.0437039,1588,393,0.325517,0.288126
371,631,0.235962,-0.489807,0.00424233,0.0238334,0.00454713,0.0248374,0.00323838,1.35349,0.0155913,0.0456811,1595,393,0.235917,0.489803
378,631,0.193726,-0.649902,0.000799157,0.0256782,0.00425467,0.0263856,9.16645e-05,1.40602,0.01756,0.0445345,1602,393,0.193691,0.649905
385,631,0.251465,-0.326172,-0.00239754,0.0238267,0.00348793,0.0242827,-0.00285352,1.4408,0.0172186,0.0433051,1609,393,0.251458,0.326159
392,631,0.0119629,0.339844,0,0,0,0,0,0,0,-1,1616,393,0.011992,-0.339858
399,631,0,0,0,0,0,0,0,0,0,-1,1623,393,0,0
406,631,0,0,0,0,0,0,0,0,0,-1,1630,393,0,0
413,631,0,0,0,0,0,0,0,0,0,-1,1637,393,0,0
420,631,0,0,0,0,0,0,0,0,0,-1,1644,393,0,0
427,631,0,0,0,0,0,0,0,0,0,-1,1651,393,0,0
434,631,0,0,0,0,0,0,0,0,0,-1,1658,393,0,0
441,631,0,0,0,0,0,0,0,0,0,-1,1665,393,0,0
448,631,0,0,0,0,0,0,0,0,0,-1,1672,393,0,0
455,631,0,0,0,0,0,0,0,0,0,-1,1679,393,0,0
462,631,0,0,0,0,0,0,0,0,0,-1,1686,393,0,0
469,631,0,0,0,0,0,0,0,0,0,-1,1693,393,0,0
476,631,0,0,0,0,0,0,0,0,0,-1,1700,393,0,0
483,631,0,0,0,0,0,0,0,0,0,-1,1707,393,0,0
490,631,0,0,0,0,0,0,0,0,0,-1,1714,393,0,0
497,631,0,0,0,0,0,0,0,0,0,-1,1721,393,0,0
504,631,0,0,0,0,0,0,0,0,0,-1,1728,393,0,0
511,631,0,0,0,0,0,0,0,0,0,-1,1735,393,0,0
518,631,0,0,0,0,0,0,0,0,0,-1,1742,393,0,0
525,631,0,0,0,0,0,0,0,0,0,-1,1749,393,0,0
532,631,0,0,0,0,0,0,0,0,0,-1,1756,393,0,0
539,631,0,0,0,0,0,0,0,0,0,-1,1763,393,0,0
546,631,0,0,0,0,0,0,0,0,0,-1,1770,393,0,0
553,631,0,0,0,0,0,0,0,0,0,-1,1777,393,0,0
560,631,0,0,0,0,0,0,0,0,0,-1,1784,393,0,0
567,631,0,0,0,0,0,0,0,0,0,-1,1791,393,0,0
574,631,0,0,0,0,0,0,0,0,0,-1,1798,393,0,0
581,631,0,0,0,0,0,0,0,0,0,-1,1805,393,0,0
588,631,0,0,0,0,0,0,0,0,0,-1,1812,393,0,0
595,631,0,0,0,0,0,0,0,0,0,-1,1819,393,0,0
602,631,0,0,0,0,0,0,0,0,0,-1,1826,393,0,0
609,631,0,0,0,0,0,0,0,0,0,-1,1833,393,0,0
616,631,0,0,0,0,0,0,0,0,0,-1,1840,393,0,0
623,631,0,0,0,0,0,0,0,0,0,-1,1847,393,0,0
630,631,0,0,0,0,0,0,0,0,0,-1,1854,393,0,0
637,631,0,0,0,0,0,0,0,0,0,-1,1861,393,0,0
644,631,0,0,0,0,0,0,0,0,0,-1,1868,393,0,0
651,631,0,0,0,0,0,0,0,0,0,-1,1875,393,0,0
658,631,0,0,0,0,0,0,0,0,0,-1,1882,393,0,0
665,631,0,0,0,0,0,0,0,0,0,-1,1889,393,0,0
672,631,0,0,0,0,0,0,0,0,0,-1,1896,393,0,0
679,631,0,0,0,0,0,0,0,0,0,-1,1903,393,0,0
686,631,0,0,0,0,0,0,0,0,0,-1,1910,393,0,0
693,631,0,0,0,0,0,0,0,0,0,-1,1917,393,0,0
700,631,0,0,0,0,0,0,0,0,0,-1,1924,393,0,0
707,631,0,0,0,0,0,0,0,0,0,-1,1931,393,0,0
714,631,0,0,0,0,0,0,0,0,0,-1,1938,393,0,0
721,631,0,0,0,0,0,0,0,0,0,-1,1945,393,0,0
728,631,0,0,0,0,0,0,0,0,0,-1,1952,393,0,0
735,631,0,0,0,0,0,0,0,0,0,-1,1959,393,0,0
742,631,0,0,0,0,0,0,0,0,0,-1,1966,393,0,0
749,631,0,0,0,0,0,0,0,0,0,-1,1973,393,0,0
756,631,0,0,0,0,0,0,0,0,0,-1,1980,393,0,0
763,631,0,0,0,0,0,0,0,0,0,-1,1987,393,0,0
770,631,0,0,0,0,0,0,0,0,0,-1,1994,393,0,0
777,631,0,0,0,0,0,0,0,0,0,-1,2001,393,0,0
784,631,0,0,0,0,0,0,0,0,0,-1,2008,393,0,0
791,631,0,0,0,0,0,0,0,0,0,-1,2015,393,0,0
798,631,0,0,0,0,0,0,0,0,0,-1,2022,393,0,0
805,631,0,0,0,0,0,0,0,0,0,-1,2029,393,0,0
812,631,0,0,0,0,0,0,0,0,0,-1,2036,393,0,0
-700,624,0,0,0,0,0,0,0,0,0,-1,524,400,0,0
-693,624,0,0,0,0,0,0,0,0,0,-1,531,400,0,0
-686,624,0,0,0,0,0,0,0,0,0,-1,538,400,0,0
-679,624,0,0,0,0,0,0,0,0,0,-1,545,400,0,0
-672,624,0,0,0,0,0,0,0,0,0,-1,552,400,0,0
-665,624,0,0,0,0,0,0,0,0,0,-1,559,400,0,0
-658,624,0,0,0,0,0,0,0,0,0,-1,566,400,0,0
-651,624,0,0,0,0,0,0,0,0,0,-1,573,400,0,0
-644,624,0,0,0,0,0,0,0,0,0,-1,580,400,0,0
-637,624,0,0,0,0,0,0,0,0,0,-1,587,400,0,0
-630,624,0,0,0,0,0,0,0,0,0,-1,594,400,0,0
-623,624,0,0,0,0,0,0,0,0,0,-1,601,400,0,0
-616,624,0,0,0,0,0,0,0,0,0,-1,608,400,0,0
-609,624,0,0,0,0,0,0,0,0,0,-1,615,400,0,0
-602,624,0,0,0,0,0,0,0,0,0,-1,622,400,0,0
-595,624,0,0,0,0,0,0,0,0,0,-1,629,400,0,0
-588,624,0,0,0,0,0,0,0,0,0,-1,636,400,0,0
-581,624,0,0,0,0,0,0,0,0,0,-1,643,400,0,0
-574,624,0,0,0,0,0,0,0,0,0,-1,650,400,0,0
-567,624,0,0,0,0,0,0,0,0,0,-1,657,400,0,0
-560,624,0,0,0,0,0,0,0,0,0,-1,664,400,0,0
-553,624,0,0,0,0,0,0,0,0,0,-1,671,400,0,0
-546,624,0,0,0,0,0,0,0,0,0,-1,678,400,0,0
-539,624,0,0,0,0,0,0,0,0,0,-1,685,400,0,0
-532,624,0,0,0,0,0,0,0,0,0,-1,692,400,0,0
-525,624,0,0,0,0,0,0,0,0,0,-1,699,400,0,0
-518,624,0,0,0,0,0,0,0,0,0,-1,706,400,0,0
-511,624,0,0,0,0,0,0,0,0,0,-1,713,400,0,0
-504,624,0,0,0,0,0,0,0,0,0,-1,720,400,0,0
-497,624,0,0,0,0,0,0,0,0,0,-1,727,400,0,0
-490,624,0,0,0,0,0,0,0,0,0,-1,734,400,0,0
-483,624,0,0,0,0,0,0,0,0,0,-1,741,400,0,0
-476,624,0,0,0,0,0,0,0,0,0,-1,748,400,0,0
-469,624,0,0,0,0,0,0,0,0,0,-1,755,400,0,0
-462,624,0,0,0,0,0,0,0,0,0,-1,762,400,0,0
-455,624,0,0,0,0,0,0,0,0,0,-1,769,400,0,0
-448,624,0,0,0,0,0,0,0,0,0,-1,776,400,0,0
-441,624,0,0,0,0,0,0,0,0,0,-1,783,400,0,0
-434,624,0,0,0,0,0,0,0,0,0,-1,790,400,0,0
-427,624,0,0,0,0,0,0,0,0,0,-1,797,400,0,0
-420,624,0,0,0,0,0,0,0,0,0,-1,804,400,0,0
-413,624,0,0,0,0,0,0,0,0,0,-1,811,400,0,0
-406,624,0,0,0,0,0,0,0,0,0,-1,818,400,0,0
-399,624,0,0,0,0,0,0,0,0,0,-1,825,400,0,0
-392,624,0,0,0,0,0,0,0,0,0,-1,832,400,0,0
-385,624,0,0,0,0,0,0,0,0,0,-1,839,400,0,0
-378,624,0,0,0,0,0,0,0,0,0,-1,846,400,0,0
-371,624,0,0,0,0,0,0,0,0,0,-1,853,400,0,0
-364,624,0,0,0,0,0,0,0,0,0,-1,860,400,0,0
-357,624,0,0,0,0,0,0,0,0,0,-1,867,400,0,0
-350,624,0,0,0,0,0,0,0,0,0,-1,874,400,0,0
-343,624,0,0,0,0,0,0,0,0,0,-1,881,400,0,0
-336,624,0,0,0,0,0,0,0,0,0,-1,888,400,0,0
-329,624,0,0,0,0,0,0,0,0,0,-1,895,400,0,0
-322,624,0,0,0,0,0,0,0,0,0,-1,902,400,0,0
-315,624,0,0,0,0,0,0,0,0,0,-1,909,400,0,0
-308,624,0,0,0,0,0,0,0,0,0,-1,916,400,0,0
-301,624,0,0,0,0,0,0,0,0,0,-1,923,400,0,0
-294,624,0.368042,-0.00997925,0,0,0,0,0,0,0,-1,930,400,0.368062,0.00996809
-287,624,-0.859863,0.59549,0,0,0,0,0,0,0,-1,937,400,-0.859881,-0.595502
-280,624,-0.41272,0.290466,0,0,0,0,0,0,0,-1,944,400,-0.41274,-0.290466
-273,624,-0.036499,-0.128479,0,0,0,0,0,0,0,-1,951,400,-0.0365092,0.128494
-266,624,-0.28833,0.976013,0,0,0,0,0,0,0,-1,958,400,-0.288335,-0.976017
-259,624,-0.415466,0.926941,0.016694,0.00388223,0.00339931,0.01754,0.00303617,0.243935,0.0108242,0.0469495,965,400,-0.415455,-0.926927
-252,624,-0.554504,0.874237,0.0158804,0.00707012,0.00682135,0.0195953,0.00335515,0.498694,0.0121012,0.0461925,972,400,-0.554475,-0.874229
-245,624,-0.679443,0.827393,0,0,0,0,0,0,0,-1,979,400,-0.679472,-0.82738
-238,624,0.107056,0.214233,0,0,0,0,0,0,0,-1,986,400,0.107044,-0.214237
-231,624,-0.0361328,-0.418182,0,0,0,0,0,0,0,-1,993,400,-0.0361377,0.418195
-224,624,-0.038269,-0.398407,0,0,0,0,0,0,0,-1,1000,400,-0.0382698,0.398415
-217,624,-0.0862427,0.301605,0.00755409,0.00668838,0.00865966,0.0157917,-0.00154923,0.760426,0.0110804,0.039734,1007,400,-0.08622,-0.30161
-210,624,-0.176575,0.110077,0.00563237,0.00595263,0.00769282,0.013487,-0.00190199,0.795804,0.00968776,0.0379741,1014,400,-0.17656,-0.110084
-203,624,1.00275,0.669128,0,0,0,0,0,0,0,-1,1021,400,1.00278,-0.669141
-196,624,1.37402,0.617493,0,0,0,0,0,0,0,-1,1028,400,1.37406,-0.617506
-189,624,1.5498,0.444489,0,0,0,0,0,0,0,-1,1035,400,1.54984,-0.444482
-182,624,-0.0755615,0.0704346,0.000382174,0.00447006,0.00405272,0.00696509,-0.00211285,1.01895,0.00548504,0.0263254,1042,400,-0.0755422,-0.0704431
-175,624,-0.0297852,0.0646362,-0.000770783,0.00442253,0.00268541,0.00556138,-0.00190963,1.1697,0.00448186,0.0170707,1049,400,-0.0298009,-0.0646355
-168,624,-0.0239258,0.0503845,-0.000211488,0.00489596,0.00216836,0.00569236,-0.00100788,1.21881,0.00417165,0.0113739,1056,400,-0.0239069,-0.0503969
-161,624,-0.0380859,0.0537415,0.000267161,0.00509392,0.00204791,0.00584571,-0.000484635,1.21897,0.00406832,0.00931851,1063,400,-0.0381019,-0.0537555
-154,624,-0.0289307,0.0658264,-8.58076e-05,0.00545258,0.0014442,0.00580655,-0.000439778,1.33044,0.00402564,0.00887929,1070,400,-0.028957,-0.0658351
-147,624,-0.0412598,0.0636902,0.000178241,0.00569248,0.000906204,0.00583759,3.31355e-05,1.41202,0.00388073,0.00911728,1077,400,-0.0412851,-0.0636839
-140,624,-0.0491943,0.0621338,0.000570393,0.00571762,0.000362854,0.00574307,0.000544939,1.50076,0.00366061,0.00856542,1084,400,-0.0491372,-0.0621328
-133,624,-0.0318604,0.0694275,0.000826671,0.00501862,-0.000228363,0.00503102,0.000814267,-1.51653,0.00311823,0.00987248,1091,400,-0.0318476,-0.0694295
-126,624,-0.0344238,0.0805664,0.00140856,0.00450004,-0.000311862,0.00453118,0.00137741,-1.47125,0.00268225,0.0115103,1098,400,-0.0343878,-0.080554
-119,624,-0.0582275,0.0682678,0.00167617,0.00377049,-0.000729818,0.00399973,0.00144694,-1.26646,0.00233848,0.0136201,1105,400,-0.0582723,-0.0682594
-112,624,-0.0583496,0.0589905,0.00149176,0.00318378,-0.000780051,0.00348852,0.00118703,-1.19837,0.00204807,0.0157535,1112,400,-0.0583728,-0.0589855
-105,624,-0.0499268,0.0681763,0.00121118,0.0025329,-0.000870539,0.002965,0.000779077,-1.11006,0.00177492,0.0119057,1119,400,-0.0499876,-0.0681695
-98,624,-0.0386963,0.0829468,0.000907044,0.00185147,-0.000978343,0.0024656,0.000292913,-1.01024,0.00155532,0.0128931,1126,400,-0.0387537,-0.0829503
-91,624,-0.0566406,0.0867615,0.000604601,0.00113916,-0.000937762,0.00184699,-0.000103228,-0.924226,0.00126714,0.0180731,1133,400,-0.0566442,-0.0867697
-84,624,-0.036377,0.0788879,0.000420664,0.000664713,-0.00078705,0.00133914,-0.000253765,-0.862306,0.00098827,0.0154552,1140,400,-0.0364282,-0.0788918
-77,624,-0.0467529,0.0499573,0.000297606,0.000376337,-0.000489434,0.000827986,-0.000154043,-0.825527,0.000609858,0.010855,1147,400,-0.0467273,-0.0499458
-70,624,-0.0482178,0.0455017,0.000209821,0.000158473,-0.000258603,0.000444022,-7.57276e-05,-0.73592,0.000324219,0.0107968,1154,400,-0.0482192,-0.0454878
-63,624,-0.0252686,0.0588989,0.000193982,-3.0677e-05,-7.13086e-06,0.000194208,-3.09031e-05,-0.0316983,0.000140907,0.00910617,1161,400,-0.0252376,-0.0589106
-56,624,-0.0290527,0.0704041,0.000360316,7.34048e-05,0.000190558,0.00045538,-2.16595e-05,0.462747,0.000311058,0.0084065,1168,400,-0.0290832,-0.0703937
-49,624,-0.0306396,0.059021,0.000496522,9.77407e-05,0.00044333,0.000783236,-0.000188973,0.574072,0.000595233,0.00925794,1175,400,-0.0306009,-0.0590116
-42,624,-0.0125732,0.065155,0.00041735,0.000164947,0.000641084,0.000944536,-0.000362239,0.688212,0.000779034,0.00840716,1182,400,-0.0125483,-0.0651517
-35,624,-0.00549316,0.0829163,0.000493941,0.000476045,0.000684927,0.00116998,-0.000199992,0.778866,0.000854487,0.0132803,1189,400,-0.0054912,-0.0829031
-28,624,-0.036377,0.0698242,0.000697325,0.00073868,0.000633712,0.00135205,8.39535e-05,0.801707,0.000874727,0.0176683,1196,400,-0.0363683,-0.0698341
-21,624,-0.0509033,0.0636292,0.000805244,0.00105864,0.000444028,0.00139369,0.000470191,0.924374,0.000818713,0.0124395,1203,400,-0.0508899,-0.0636337
-14,624,-0.019165,0.0696716,0.000715547,0.00127422,0.000215861,0.00134791,0.000641861,1.24184,0.00077851,0.013414,1210,400,-0.0192242,-0.0696707
-7,624,-0.0377197,0.0822144,0.00105926,0.0014992,-3.84152e-05,0.00150253,0.00105593,-1.48435,0.000890944,0.0167752,1217,400,-0.0377271,-0.0822231
0,624,-0.0189209,0.0797119,0.00148901,0.00159624,-0.000186801,0.00173697,0.00134828,-0.925141,0.00105262,0.0157624,1224,400,-0.0188729,-0.0797076
7,624,-0.0184326,0.0753784,0.00155772,0.00207766,-0.000533937,0.00241155,0.00122383,-1.01195,0.00139236,0.0120027,1231,400,-0.0183782,-0.0753808
14,624,-0.0321045,0.0554199,0.00157499,0.00281819,-0.000850388,0.00324994,0.00114324,-1.101,0.00190364,0.0103942,1238,400,-0.0321297,-0.0554121
21,624,-0.0355225,0.0734253,0.00159768,0.00368602,-0.00100198,0.00408901,0.0011947,-1.1884,0.00242782,0.0107373,1245,400,-0.0354817,-0.073421
28,624,-0.0491943,0.0794067,0.0015862,0.00451139,-0.00106203,0.00485631,0.00124128,-1.25677,0.0029133,0.0094118,1252,400,-0.0492114,-0.0794165
35,624,-0.0474854,0.0653381,0.00161382,0.00549253,-0.000863809,0.0056762,0.00143014,-1.36128,0.00340893,0.0125343,1259,400,-0.0474918,-0.0653294
42,624,-0.022583,0.0631714,0.00272046,0.00623869,-0.000593293,0.00633605,0.00262311,-1.40815,0.00367611,0.0148457,1266,400,-0.0225745,-0.06317
49,624,-0.0321045,0.0642395,0.00356809,0.00674529,0.000244955,0.00676407,0.00354931,1.4943,0.00390683,0.0163123,1273,400,-0.0321162,-0.0642247
56,624,-0.03125,0.055603,0.00387778,0.00699429,0.000900904,0.00723598,0.00363609,1.3087,0.00417771,0.0160895,1280,400,-0.0312548,-0.0556156
63,624,-0.0245361,0.0571594,0.00464715,0.00704096,0.00164336,0.00787709,0.00381102,1.10014,0.00454863,0.012346,1287,400,-0.024479,-0.0571726
70,624,-0.0411377,0.043335,0.00540329,0.00666239,0.00248697,0.00859825,0.00346743,0.909364,0.00499507,0.0111396,1294,400,-0.0411653,-0.0433298
77,624,-0.0472412,0.0450134,0.00611401,0.00614172,0.00329253,0.00942042,0.00283531,0.787502,0.00558066,0.0120044,1301,400,-0.0472604,-0.0450231
84,624,-0.0471191,0.0429993,0.00679535,0.0052232,0.00408307,0.0101673,0.00185123,0.690301,0.00625316,0.0113896,1308,400,-0.0470797,-0.0429842
91,624,-0.0385742,0.0448608,0.00732147,0.00435531,0.00472084,0.0107867,0.000890074,0.633202,0.00691357,0.0121123,1315,400,-0.0385994,-0.0448568
98,624,-0.0614014,0.0458679,0.00732335,0.0031264,0.00526399,0.0108917,-0.000441981,0.595728,0.00741287,0.0115637,1322,400,-0.061448,-0.0458688
105,624,-0.0780029,0.0220947,0.00730166,0.00191588,0.00556503,0.0107911,-0.00157357,0.560058,0.00777187,0.0127782,1329,400,-0.0780315,-0.022085
112,624,-0.0361328,0.0519409,0.00740907,0.000546529,0.00593354,0.010832,-0.00287643,0.523249,0.00834703,0.012666,1336,400,-0.0360973,-0.0519377
119,624,-0.0360107,0.0668335,0.00730899,-0.000655358,0.00583698,0.0103928,-0.00373916,0.486047,0.00845516,0.012412,1343,400,-0.0360543,-0.0668368
126,624,-0.0426025,0.0589905,0.00701947,-0.00153318,0.00543833,0.00966141,-0.00417512,0.452223,0.00819517,0.0158004,1350,400,-0.0425901,-0.0589757
133,624,-0.0419922,0.0943298,0.00650911,-0.00199749,0.00492709,0.00876479,-0.00425317,0.42933,0.0076649,0.0165701,1357,400,-0.0419626,-0.094345
140,624,-0.017334,0.0840454,0.00583581,-0.00236785,0.00438009,0.00773483,-0.00426687,0.409096,0.00702495,0.01625,1364,400,-0.0172909,-0.0840304
147,624,-0.0339355,0.0728455,0.00441627,-0.00239441,0.00385553,0.006155,-0.00413314,0.42366,0.00597797,0.0195041,1371,400,-0.0339759,-0.0728491
154,624,-0.0169678,0.0786133,0.00381273,-0.00243621,0.00301101,0.00502744,-0.00365092,0.383454,0.00503142,0.0216,1378,400,-0.0170184,-0.0786028
161,624,-0.0112305,0.11615,0.00377696,-0.00220344,0.00260464,0.00475229,-0.00317877,0.358296,0.00460894,0.0209765,1385,400,-0.0112227,-0.116164
168,624,-0.0255127,0.141815,0.00314176,-0.00195208,0.00225469,0.00399638,-0.0028067,0.362306,0.00394772,0.0207388,1392,400,-0.025492,-0.141813
175,624,-0.0213623,0.0776062,0.00249065,-0.00178271,0.00193408,0.003236,-0.00252805,0.367836,0.00333623,0.0154866,1399,400,-0.0214097,-0.0776134
182,624,-0.0268555,0.0557861,0.0019562,-0.00160762,0.00172299,0.00265297,-0.00230439,0.384295,0.00286449,0.00930739,1406,400,-0.0268288,-0.0557959
189,624,-0.0184326,0.0668945,0.00142462,-0.00142243,0.00153264,0.00209284,-0.00209065,0.411146,0.00241534,0.00886634,1413,400,-0.0184401,-0.0668895
196,624,-0.0285645,0.0632019,0.000942938,-0.00146667,0.00147387,0.00164177,-0.0021655,0.442754,0.00220505,0.0098644,1420,400,-0.0285884,-0.0631887
203,624,-0.0334473,0.0457153,0.000529369,-0.00150348,0.00142948,0.00126695,-0.00224106,0.476348,0.00205121,0.0132314,1427,400,-0.0333964,-0.0457046
210,624,-0.0391846,0.0270081,0.000347549,-0.00153959,0.00147353,0.00115373,-0.00234577,0.500619,0.00205914,0.0167694,1434,400,-0.0391835,-0.0270092
217,624,-0.0291748,0.0429382,0.000410588,-0.00175089,0.00166104,0.00131153,-0.00265183,0.496985,0.00233145,0.0185439,1441,400,-0.029226,-0.0429491
224,624,-0.0238037,0.0606384,0.000456277,-0.00187297,0.00183806,0.00146762,-0.00288431,0.503013,0.00255658,0.0144324,1448,400,-0.0237551,-0.0606289
231,624,-0.0352783,0.0480652,0.000601365,-0.00198016,0.00198529,0.0016786,-0.0030574,0.497153,0.00277269,0.0118361,1455,400,-0.035293,-0.0480644
238,624,-0.0621338,0.0713806,0.000601638,-0.00189781,0.00193058,0.00165168,-0.00294786,0.498149,0.00269047,0.0167789,1462,400,-0.062106,-0.0713768
245,624,-0.0709229,0.0767212,0.000561475,-0.00178588,0.00181331,0.0015478,-0.00277221,0.498176,0.00252733,0.0164838,1469,400,-0.0708634,-0.0767155
252,624,-0.0731201,0.0700073,0.000523583,-0.00173366,0.00165527,0.00139839,-0.00260847,0.486183,0.00234826,0.012136,1476,400,-0.0730666,-0.0700112
259,624,-0.0450439,0.0538025,0.000392892,-0.00173814,0.00139549,0.00108314,-0.00242839,0.459341,0.00207638,0.00893817,1483,400,-0.0450613,-0.0538037
266,624,-0.0223389,0.072876,0.000231917,-0.00189601,0.00108868,0.000690206,-0.0023543,0.398441,0.00184319,0.0125012,1490,400,-0.0223403,-0.0728752
273,624,-0.00268555,0.0774231,0.000377394,-0.0020623,0.000893855,0.000669831,-0.00235474,0.316188,0.00183433,0.0141885,1497,400,-0.00267212,-0.077436
280,624,-0.0158691,0.0476074,0.000660446,-0.00210316,0.00102309,0.000997975,-0.00244069,0.318666,0.00204273,0.0121881,1504,400,-0.01582,-0.0476037
287,624,-0.0360107,0.0305176,0.000855767,-0.00209556,0.00105623,0.00119482,-0.00243461,0.310615,0.00213582,0.00986377,1511,400,-0.036034,-0.0305215
294,624,-0.0220947,0.0469666,0.00129728,-0.0022372,0.00112049,0.00162256,-0.00256248,0.282533,0.00243646,0.00842518,1518,400,-0.0220768,-0.0469531
301,624,-0.0205078,0.0586548,0.00191728,-0.00231447,0.00135917,0.00231622,-0.00271341,0.285495,0.00290687,0.00977774,1525,400,-0.0205558,-0.0586653
308,624,-0.0426025,0.0571594,0.0027442,-0.00214663,0.00168783,0.00327012,-0.00267255,0.30206,0.00343678,0.0132196,1532,400,-0.0426485,-0.0571544
315,624,-0.0493164,0.0571289,0.00362184,-0.00130924,0.00199412,0.00432733,-0.00201472,0.34004,0.00374185,0.0137157,1539,400,-0.0492865,-0.0571254
322,624,-0.0311279,0.0157166,0.00449833,0.000499078,0.00201365,0.00533654,-0.00033913,0.394447,0.00367596,0.0203627,1546,400,-0.0310808,-0.0157032
329,624,-0.0463867,-0.0518188,0.00534271,0.00299631,0.00209294,0.00656884,0.00177018,0.529944,0.00392458,0.0323015,1553,400,-0.046425,0.0518181
336,624,-0.189941,-0.0159302,0.00556412,0.00505577,0.00256368,0.00788619,0.0027337,0.735987,0.00462393,0.0331689,1560,400,-0.189966,0.0159185
343,624,-0.130615,-0.0888672,0.00585041,0.00745244,0.00280306,0.00956669,0.00373616,0.924571,0.00556727,0.0408295,1567,400,-0.130628,0.0888749
350,624,0.0131836,-0.118134,0,0,0,0,0,0,0,-1,1574,400,0.0131805,0.118141
357,624,0.375122,-0.304108,0,0,0,0,0,0,0,-1,1581,400,0.375099,0.304102
364,624,0.502808,-0.36554,0,0,0,0,0,0,0,-1,1588,400,0.50286,0.36554
371,624,0.37854,-0.796082,0.00242733,0.0151124,0.00403002,0.0162845,0.00125529,1.28778,0.010463,0.0471078,1595,400,0.378594,0.79608
378,624,0.424438,-0.611359,0.00017099,0.0154909,0.00422381,0.0165783,-0.000916366,1.31883,0.0113699,0.0425906,1602,400,0.424393,0.61136
385,624,0.153687,-0.26416,-0.00186423,0.0133362,0.00426616,0.0144517,-0.00297971,1.31505,0.010766,0.042753,1609,400,0.153721,0.26415
392,624,0.102783,-0.210632,0,0,0,0,0,0,0,-1,1616,400,0.102795,0.210624
399,624,0.0793457,-0.144043,-0.00265841,0.00592065,0.00842052,0.0110813,-0.00781903,1.02097,0.0109661,0.0447724,1623,400,0.0792988,0.144046
406,624,0.276367,-0.329956,-0.00247722,0.00075296,0.0109406,0.0101971,-0.0119213,0.85868,0.012783,0.0421412,1630,400,0.27638,0.329944
413,624,0,0,0,0,0,0,0,0,0,-1,1637,400,0,0
420,624,0,0,0,0,0,0,0,0,0,-1,1644,400,0,0
427,624,0,0,0,0,0,0,0,0,0,-1,1651,400,0,0
434,624,0,0,0,0,0,0,0,0,0,-1,1658,400,0,0
441,624,0,0,0,0,0,0,0,0,0,-1,1665,400,0,0
448,624,0,0,0,0,0,0,0,0,0,-1,1672,400,0,0
455,624,0,0,0,0,0,0,0,0,0,-1,1679,400,0,0
462,624,0,0,0,0,0,0,0,0,0,-1,1686,400,0,0
469,624,0,0,0,0,0,0,0,0,0,-1,1693,400,0,0
476,624,0,0,0,0,0,0,0,0,0,-1,1700,400,0,0
483,624,0,0,0,0,0,0,0,0,0,-1,1707,400,0,0
490,624,0,0,0,0,0,0,0,0,0,-1,1714,400,0,0
497,624,0,0,0,0,0,0,0,0,0,-1,1721,400,0,0
504,624,0,0,0,0,0,0,0,0,0,-1,1728,400,0,0
511,624,0,0,0,0,0,0,0,0,0,-1,1735,400,0,0
518,624,0,0,0,0,0,0,0,0,0,-1,1742,400,0,0
525,624,0,0,0,0,0,0,0,0,0,-1,1749,400,0,0
532,624,0,0,0,0,0,0,0,0,0,-1,1756,400,0,0
539,624,0,0,0,0,0,0,0,0,0,-1,1763,400,0,0
546,624,0,0,0,0,0,0,0,0,0,-1,1770,400,0,0
553,624,0,0,0,0,0,0,0,0,0,-1,1777,400,0,0
560,624,0,0,0,0,0,0,0,0,0,-1,1784,400,0,0
567,624,0,0,0,0,0,0,0,0,0,-1,1791,400,0,0
574,624,0,0,0,0,0,0,0,0,0,-1,1798,400,0,0
581,624,0,0,0,0,0,0,0,0,0,-1,1805,400,0,0
588,624,0,0,0,0,0,0,0,0,0,-1,1812,400,0,0
595,624,0,0,0,0,0,0,0,0,0,-1,1819,400,0,0
602,624,0,0,0,0,0,0,0,0,0,-1,1826,400,0,0
609,624,0,0,0,0,0,0,0,0,0,-1,1833,400,0,0
616,624,0,0,0,0,0,0,0,0,0,-1,1840,400,0,0
623,624,0,0,0,0,0,0,0,0,0,-1,1847,400,0,0
630,624,0,0,0,0,0,0,0,0,0,-1,1854,400,0,0
637,624,0,0,0,0,0,0,0,0,0,-1,1861,400,0,0
644,624,0,0,0,0,0,0,0,0,0,-1,1868,400,0,0
651,624,0,0,0,0,0,0,0,0,0,-1,1875,400,0,0
658,624,0,0,0,0,0,0,0,0,0,-1,1882,400,0,0
665,624,0,0,0,0,0,0,0,0,0,-1,1889,400,0,0
672,624,0,0,0,0,0,0,0,0,0,-1,1896,400,0,0
679,624,0,0,0,0,0,0,0,0,0,-1,1903,400,0,0
686,624,0,0,0,0,0,0,0,0,0,-1,1910,400,0,0
693,624,0,0,0,0,0,0,0,0,0,-1,1917,400,0,0
700,624,0,0,0,0,0,0,0,0,0,-1,1924,400,0,0
707,624,0,0,0,0,0,0,0,0,0,-1,1931,400,0,0
714,624,0,0,0,0,0,0,0,0,0,-1,1938,400,0,0
721,624,0,0,0,0,0,0,0,0,0,-1,1945,400,0,0
728,624,0,0,0,0,0,0,0,0,0,-1,1952,400,0,0
735,624,0,0,0,0,0,0,0,0,0,-1,1959,400,0,0
742,624,0,0,0,0,0,0,0,0,0,-1,1966,400,0,0
749,624,0,0,0,0,0,0,0,0,0,-1,1973,400,0,0
756,624,0,0,0,0,0,0,0,0,0,-1,1980,400,0,0
763,624,0,0,0,0,0,0,0,0,0,-1,1987,400,0,0
770,624,0,0,0,0,0,0,0,0,0,-1,1994,400,0,0
777,624,0,0,0,0,0,0,0,0,0,-1,2001,400,0,0
784,624,0,0,0,0,0,0,0,0,0,-1,2008,400,0,0
791,624,0,0,0,0,0,0,0,0,0,-1,2015,400,0,0
798,624,0,0,0,0,0,0,0,0,0,-1,2022,400,0,0
805,624,0,0,0,0,0,0,0,0,0,-1,2029,400,0,0
812,624,0,0,0,0,0,0,0,0,0,-1,2036,400,0,0
-700,617,0,0,0,0,0,0,0,0,0,-1,524,407,0,0
-693,617,0,0,0,0,0,0,0,0,0,-1,531,407,0,0
-686,617,0,0,0,0,0,0,0,0,0,-1,538,407,0,0
-679,617,0,0,0,0,0,0,0,0,0,-1,545,407,0,0
-672,617,0,0,0,0,0,0,0,0,0,-1,552,407,0,0
-665,617,0,0,0,0,0,0,0,0,0,-1,559,407,0,0
-658,617,0,0,0,0,0,0,0,0,0,-1,566,407,0,0
-651,617,0,0,0,0,0,0,0,0,0,-1,573,407,0,0
-644,617,0,0,0,0,0,0,0,0,0,-1,580,407,0,0
-637,617,0,0,0,0,0,0,0,0,0,-1,587,407,0,0
-630,617,0,0,0,0,0,0,0,0,0,-1,594,407,0,0
-623,617,0,0,0,0,0,0,0,0,0,-1,601,407,0,0
-616,617,0,0,0,0,0,0,0,0,0,-1,608,407,0,0
-609,617,0,0,0,0,0,0,0,0,0,-1,615,407,0,0
-602,617,0,0,0,0,0,0,0,0,0,-1,622,407,0,0
-595,617,0,0,0,0,0,0,0,0,0,-1,629,407,0,0
-588,617,0,0,0,0,0,0,0,0,0,-1,636,407,0,0
-581,617,0,0,0,0,0,0,0,0,0,-1,643,407,0,0
-574,617,0,0,0,0,0,0,0,0,0,-1,650,407,0,0
-567,617,0,0,0,0,0,0,0,0,0,-1,657,407,0,0
-560,617,0,0,0,0,0,0,0,0,0,-1,664,407,0,0
-553,617,0,0,0,0,0,0,0,0,0,-1,671,407,0,0
-546,617,0,0,0,0,0,0,0,0,0,-1,678,407,0,0
-539,617,0,0,0,0,0,0,0,0,0,-1,685,407,0,0
-532,617,0,0,0,0,0,0,0,0,0,-1,692,407,0,0
-525,617,0,0,0,0,0,0,0,0,0,-1,699,407,0,0
-518,617,0,0,0,0,0,0,0,0,0,-1,706,407,0,0
-511,617,0,0,0,0,0,0,0,0,0,-1,713,407,0,0
-504,617,0,0,0,0,0,0,0,0,0,-1,720,407,0,0
-497,617,0,0,0,0,0,0,0,0,0,-1,727,407,0,0
-490,617,0,0,0,0,0,0,0,0,0,-1,734,407,0,0
-483,617,0,0,0,0,0,0,0,0,0,-1,741,407,0,0
-476,617,0,0,0,0,0,0,0,0,0,-1,748,407,0,0
-469,617,0,0,0,0,0,0,0,0,0,-1,755,407,0,0
-462,617,0,0,0,0,0,0,0,0,0,-1,762,407,0,0
-455,617,0,0,0,0,0,0,0,0,0,-1,769,407,0,0
-448,617,0,0,0,0,0,0,0,0,0,-1,776,407,0,0
-441,617,0,0,0,0,0,0,0,0,0,-1,783,407,0,0
-434,617,0,0,0,0,0,0,0,0,0,-1,790,407,0,0
-427,617,0,0,0,0,0,0,0,0,0,-1,797,407,0,0
-420,617,0,0,0,0,0,0,0,0,0,-1,804,407,0,0
-413,617,0,0,0,0,0,0,0,0,0,-1,811,407,0,0
-406,617,0,0,0,0,0,0,0,0,0,-1,818,407,0,0
-399,617,0,0,0,0,0,0,0,0,0,-1,825,407,0,0
-392,617,0,0,0,0,0,0,0,0,0,-1,832,407,0,0
-385,617,0,0,0,0,0,0,0,0,0,-1,839,407,0,0
-378,617,0,0,0,0,0,0,0,0,0,-1,846,407,0,0
-371,617,0,0,0,0,0,0,0,0,0,-1,853,407,0,0
-364,617,0,0,0,0,0,0,0,0,0,-1,860,407,0,0
-357,617,0,0,0,0,0,0,0,0,0,-1,867,407,0,0
-350,617,0,0,0,0,0,0,0,0,0,-1,874,407,0,0
-343,617,0,0,0,0,0,0,0,0,0,-1,881,407,0,0
-336,617,0,0,0,0,0,0,0,0,0,-1,888,407,0,0
-329,617,0,0,0,0,0,0,0,0,0,-1,895,407,0,0
-322,617,0,0,0,0,0,0,0,0,0,-1,902,407,0,0
-315,617,0,0,0,0,0,0,0,0,0,-1,909,407,0,0
-308,617,0,0,0,0,0,0,0,0,0,-1,916,407,0,0
-301,617,0.223389,0.0936584,0,0,0,0,0,0,0,-1,923,407,0.223382,-0.0936473
-294,617,0.406006,0.086853,0,0,0,0,0,0,0,-1,930,407,0.406,-0.0868492
-287,617,-0.835388,0.721527,0,0,0,0,0,0,0,-1,937,407,-0.83541,-0.721512
-280,617,-0.276123,0.275787,0,0,0,0,0,0,0,-1,944,407,-0.276153,-0.275801
-273,617,-0.527161,-0.277435,0,0,0,0,0,0,0,-1,951,407,-0.527136,0.277426
-266,617,-0.0888062,-0.12677,0,0,0,0,0,0,0,-1,958,407,-0.0888035,0.126776
-259,617,-0.372864,0.783875,0,0,0,0,0,0,0,-1,965,407,-0.372893,-0.783866
-252,617,-0.567749,0.807037,0,0,0,0,0,0,0,-1,972,407,-0.56773,-0.807052
-245,617,0.198669,0.133026,0,0,0,0,0,0,0,-1,979,407,0.19865,-0.133016
-238,617,0.0952148,0.194824,0.0110436,0.00612794,0.00614767,0.0152066,0.00196499,0.595231,0.00955034,0.0478464,986,407,0.0951942,-0.194816
-231,617,0.0201416,-0.0960388,0.00961571,0.00572139,0.00637754,0.0143367,0.00100038,0.637235,0.00924241,0.0415536,993,407,0.0201517,0.0960465
-224,617,-0.0346069,-0.172791,0.00803438,0.0054298,0.00687664,0.0137309,-0.000266776,0.691817,0.00924417,0.040235,1000,407,-0.034633,0.17278
-217,617,-0.0310669,-0.00482178,0.00648496,0.00506118,0.00669354,0.0125044,-0.000958222,0.73242,0.00867331,0.0349433,1007,407,-0.0310477,0.00483292
-210,617,-0.0807495,0.0567627,0.00510264,0.00453315,0.00610364,0.0109282,-0.00129238,0.762089,0.00775223,0.0225313,1014,407,-0.0807371,-0.0567581
-203,617,-0.0389404,0.0486755,0.00412154,0.00413233,0.0056233,0.00975024,-0.00149637,0.785878,0.00705207,0.0178682,1021,407,-0.0389656,-0.0486779
-196,617,-0.0384521,0.0732422,0.00294423,0.00382128,0.00521493,0.0086161,-0.00185058,0.827345,0.00645003,0.0138578,1028,407,-0.0384001,-0.0732438
-189,617,-0.0556641,0.0739441,0.00174717,0.00368671,0.00444763,0.00726907,-0.00183519,0.892739,0.00555967,0.0114864,1035,407,-0.0556598,-0.0739493
-182,617,-0.0604248,0.0736389,0.000702728,0.00321971,0.00355402,0.00573148,-0.00180904,0.955561,0.00454562,0.0120373,1042,407,-0.060394,-0.073654
-175,617,-0.0380859,0.0705261,-0.000352945,0.00318554,0.00241387,0.00440912,-0.00157652,1.10165,0.00358248,0.0103201,1049,407,-0.0380839,-0.0705347
-168,617,-0.0362549,0.0526428,-0.000146434,0.00354334,0.00188419,0.00433545,-0.000938547,1.17283,0.00324866,0.00907887,1056,407,-0.036244,-0.052644
-161,617,-0.0268555,0.0437012,-1.98702e-05,0.00369231,0.00164482,0.00431624,-0.000643803,1.20823,0.00311435,0.0104103,1063,407,-0.0268514,-0.0437096
-154,617,-0.0253906,0.0473022,-0.000489071,0.00403748,0.000996773,0.00424725,-0.000698844,1.36337,0.0030909,0.0101695,1070,407,-0.0254267,-0.0472983
-147,617,-0.0299072,0.0444641,-0.000457412,0.00436929,0.000418885,0.00440537,-0.000493495,1.48487,0.00311447,0.0131688,1077,407,-0.0299168,-0.0444608
-140,617,-0.0273438,0.0509644,-0.000279445,0.00451359,-0.00016522,0.00451928,-0.000285133,-1.53638,0.00311226,0.0104683,1084,407,-0.0273023,-0.0509701
-133,617,-0.041626,0.0552673,-0.000196687,0.0040584,-0.000750363,0.00418685,-0.000325132,-1.40126,0.00290568,0.0124004,1091,407,-0.0416421,-0.0552751
-126,617,-0.0490723,0.0819702,7.15109e-05,0.00364968,-0.000952752,0.00388755,-0.000166363,-1.32613,0.0026489,0.0120374,1098,407,-0.0490855,-0.0819712
-119,617,-0.0552979,0.0700378,0.000156018,0.00298783,-0.00133283,0.00351646,-0.000372612,-1.1932,0.00247787,0.0120897,1105,407,-0.0552394,-0.0700523
-112,617,-0.0537109,0.0588989,-2.40173e-05,0.0024856,-0.00138567,0.00310018,-0.000638599,-1.15334,0.00230928,0.0138111,1112,407,-0.0537378,-0.0589091
-105,617,-0.0592041,0.051178,-0.000287364,0.00186147,-0.0014125,0.00256174,-0.00098764,-1.11054,0.00211535,0.0148678,1119,407,-0.0592199,-0.0511845
-98,617,-0.0410156,0.0606689,-0.000550886,0.00122751,-0.001446,0.00203584,-0.00135922,-1.06106,0.00197307,0.0128038,1126,407,-0.0410572,-0.0606552
-91,617,-0.0328369,0.0785828,-0.000794475,0.000519538,-0.00133677,0.00135203,-0.00162697,-1.01381,0.00172237,0.0168974,1133,407,-0.0328081,-0.078584
-84,617,-0.0366211,0.0807495,-0.000928286,-7.10698e-05,-0.00103669,0.000622119,-0.00162148,-0.981417,0.00133749,0.0156086,1140,407,-0.0366246,-0.0807422
-77,617,-0.0389404,0.0426941,-0.000951916,-0.000642517,-0.00057714,-0.000199703,-0.00139473,-0.916343,0.000870918,0.0121693,1147,407,-0.0389075,-0.0426889
-70,617,-0.0444336,0.026123,-0.000869321,-0.00115082,-0.00022096,-0.000748091,-0.00127205,-0.501807,0.000738211,0.011933,1154,407,-0.0444217,-0.0261221
-63,617,-0.0385742,0.0374451,-0.000677998,-0.00175102,9.7028e-05,-0.000669295,-0.00175972,0.089458,0.00102563,0.0109342,1161,407,-0.0385948,-0.0374454
-56,617,-0.0230713,0.063446,-0.000275159,-0.00207464,0.000242581,-0.000243031,-0.00210676,0.131676,0.00133092,0.00867031,1168,407,-0.0230801,-0.0634356
-49,617,-0.0230713,0.0578918,9.28911e-05,-0.00235416,0.000456733,0.00017536,-0.00243663,0.178637,0.00168591,0.00849724,1175,407,-0.0230649,-0.0579031
-42,617,-0.00817871,0.0552979,0.000254973,-0.00256377,0.000530909,0.000351654,-0.00266045,0.18013,0.00190172,0.00955279,1182,407,-0.0082362,-0.0552936
-35,617,0.00720215,0.0661316,0.00056156,-0.00234997,0.000430542,0.000623891,-0.0024123,0.143776,0.00185154,0.014465,1189,407,0.00724499,-0.0661227
-28,617,-0.026123,0.0709534,0.000872993,-0.00216251,0.000331264,0.000908723,-0.00219824,0.107445,0.00184459,0.0177001,1196,407,-0.0260822,-0.0709477
-21,617,-0.026123,0.080719,0.00098314,-0.00179582,6.90135e-05,0.000984853,-0.00179753,0.0248139,0.00162909,0.0128483,1203,407,-0.0260652,-0.0807165
-14,617,-0.0181885,0.0969543,0.000752736,-0.00149116,-0.00020984,0.000772191,-0.00151062,-0.0924477,0.00134077,0.0141589,1210,407,-0.0181571,-0.0969511
-7,617,-0.0594482,0.0957642,0.00104872,-0.0011248,-0.000520455,0.00116691,-0.001243,-0.223315,0.00139159,0.0166962,1217,407,-0.0594857,-0.0957564
0,617,-0.0336914,0.0976257,0.00171689,-0.000999386,-0.000650246,0.00186452,-0.00114702,-0.223263,0.00175509,0.0142006,1224,407,-0.0336705,-0.0976374
7,617,-0.0213623,0.0717468,0.00197174,-0.000208545,-0.00117715,0.00248599,-0.000722801,-0.411878,0.00194359,0.00999308,1231,407,-0.0213072,-0.0717402
14,617,-0.0494385,0.0524292,0.00186316,0.000918504,-0.00154919,0.00301043,-0.000228761,-0.637431,0.00208739,0.0113922,1238,407,-0.0493781,-0.0524416
21,617,-0.0541992,0.0722351,0.00176329,0.00211477,-0.00164679,0.00359517,0.000282881,-0.838555,0.00230827,0.0102777,1245,407,-0.0542156,-0.0722293
28,617,-0.050293,0.0715332,0.00181489,0.00320408,-0.0016111,0.00426394,0.000755032,-0.988924,0.00262737,0.00878724,1252,407,-0.0502762,-0.071518
35,617,-0.0432129,0.0597534,0.00204414,0.00446401,-0.0011799,0.00494407,0.00156408,-1.18438,0.00291793,0.0114756,1259,407,-0.0432428,-0.0597508
42,617,-0.00793457,0.0651855,0.00364461,0.00551862,-0.000608376,0.0056988,0.00346443,-1.28286,0.00331565,0.017978,1266,407,-0.00798487,-0.0651718
49,617,-0.0302734,0.0657043,0.0049889,0.00623825,0.000804703,0.00663229,0.00459487,1.11545,0.0039229,0.0183708,1273,407,-0.0302825,-0.0657163
56,617,-0.0302734,0.0789795,0.00569759,0.00659601,0.00194708,0.00814503,0.00414857,0.89877,0.00470281,0.012941,1280,407,-0.0302702,-0.0789821
63,617,-0.0308838,0.0492554,0.00701341,0.00673978,0.00322788,0.0101074,0.00364582,0.764219,0.00591049,0.00912363,1287,407,-0.0308604,-0.0492669
70,617,-0.0582275,0.0302429,0.00829173,0.00643377,0.00459411,0.0120498,0.00267565,0.685638,0.00730652,0.0133031,1294,407,-0.0582281,-0.0302451
77,617,-0.0362549,0.0441589,0.00958793,0.00614558,0.00588395,0.0139973,0.00173624,0.643108,0.00880998,0.0122395,1301,407,-0.0362733,-0.04416
84,617,-0.0289307,0.0634155,0.0108597,0.00527356,0.00716626,0.0157579,0.000375293,0.599578,0.0103825,0.00978281,1308,407,-0.0288836,-0.063426
91,617,-0.0187988,0.0569458,0.0119416,0.00439826,0.00821572,0.0172101,-0.000870161,0.570208,0.0117742,0.00936442,1315,407,-0.0187531,-0.0569335
98,617,-0.0302734,0.0555115,0.0122384,0.00296763,0.00908651,0.0178036,-0.00259755,0.549535,0.0128229,0.00992452,1322,407,-0.030269,-0.055503
105,617,-0.050293,0.0502319,0.012287,0.00159779,0.00951716,0.0178576,-0.00397278,0.529555,0.0134267,0.0112065,1329,407,-0.0503229,-0.0502388
112,617,-0.0463867,0.059082,0.0125576,-0.000234246,0.0101325,0.018144,-0.00582065,0.503866,0.0144329,0.0143059,1336,407,-0.0463766,-0.0590838
119,617,-0.0374756,0.0775452,0.0128006,-0.00176618,0.00986576,0.0177802,-0.00674578,0.467429,0.01463,0.0170552,1343,407,-0.0375103,-0.0775593
126,617,-0.0397949,0.0697632,0.0125921,-0.00279603,0.00910986,0.0168223,-0.00702623,0.434726,0.0141509,0.0193678,1350,407,-0.0397808,-0.0697613
133,617,-0.0560303,0.084259,0.0117102,-0.00334705,0.00818259,0.0153007,-0.00693756,0.4135,0.0131384,0.0172897,1357,407,-0.0560321,-0.0842596
140,617,-0.0333252,0.0890808,0.0105749,-0.00382398,0.00722108,0.0135724,-0.0068214,0.393449,0.0119875,0.0154574,1364,407,-0.0333552,-0.0890901
147,617,-0.0511475,0.0681458,0.00848338,-0.00386966,0.00631257,0.0111385,-0.00652479,0.398146,0.0103132,0.018285,1371,407,-0.0511776,-0.0681356
154,617,-0.0454102,0.0586243,0.00733652,-0.00385912,0.00498983,0.00923763,-0.00576023,0.364018,0.00873626,0.0201783,1378,407,-0.0454608,-0.0586214
161,617,-0.0483398,0.0803833,0.00692234,-0.00350145,0.00424336,0.0084313,-0.00501042,0.341661,0.00784391,0.0204544,1385,407,-0.0483975,-0.0803811
168,617,-0.0540771,0.0414429,0.00580374,-0.00300847,0.00352724,0.00704168,-0.00424641,0.337533,0.00658345,0.0190096,1392,407,-0.054025,-0.0414473
175,617,-0.036499,0.0202942,0.00469711,-0.00261519,0.00284528,0.00567379,-0.00359186,0.330659,0.00539435,0.0158622,1399,407,-0.0364501,-0.0202875
182,617,-0.0148926,0.03479,0.00377861,-0.00222873,0.00226922,0.00453944,-0.00298955,0.323501,0.00437746,0.0101141,1406,407,-0.0149316,-0.0347913
189,617,-0.0290527,0.0557251,0.00291429,-0.00174079,0.00175415,0.00350128,-0.00232777,0.322916,0.00338806,0.00951424,1413,407,-0.0290551,-0.0557123
196,617,-0.0183105,0.0493774,0.0021642,-0.00143656,0.00138329,0.00263425,-0.00190661,0.327565,0.00263286,0.0130531,1420,407,-0.0183027,-0.0493738
203,617,-0.015625,0.0522766,0.00154857,-0.00116871,0.00109603,0.00193555,-0.00155569,0.339411,0.00201964,0.0136136,1427,407,-0.0156823,-0.0522663
210,617,-0.0316162,0.0440063,0.00124858,-0.00097728,0.000954017,0.00160152,-0.00133022,0.354333,0.00169505,0.0132142,1434,407,-0.0316257,-0.0439976
217,617,-0.0379639,0.0553284,0.00131853,-0.00107132,0.00101076,0.00168868,-0.00144148,0.351047,0.00180907,0.0166917,1441,407,-0.0379346,-0.0553346
224,617,-0.017334,0.0638733,0.00128265,-0.00114531,0.00114387,0.00173666,-0.00159932,0.377837,0.00192657,0.0159059,1448,407,-0.0173295,-0.0638791
231,617,-0.0136719,0.051178,0.00130349,-0.00117333,0.00125672,0.00182945,-0.00169929,0.396368,0.00203778,0.0131389,1455,407,-0.0136235,-0.0511924
238,617,-0.0263672,0.0410156,0.00124568,-0.00101184,0.00124755,0.00179932,-0.00156548,0.417672,0.00194423,0.0141569,1462,407,-0.0263867,-0.0410111
245,617,-0.0393066,0.0418701,0.00115266,-0.000880037,0.0012121,0.00171814,-0.00144551,0.436508,0.00182879,0.0118175,1469,407,-0.0393043,-0.0418563
252,617,-0.0422363,0.0550842,0.00104221,-0.000797802,0.00116593,0.0016074,-0.00136299,0.451377,0.00171689,0.0126751,1476,407,-0.042203,-0.0550777
259,617,-0.0424805,0.0592041,0.00086669,-0.000786822,0.00103444,0.00136417,-0.0012843,0.448262,0.00152932,0.0108379,1483,407,-0.0424574,-0.0592058
266,617,-0.0355225,0.0629883,0.000645264,-0.000930075,0.000895405,0.00105014,-0.00133495,0.424661,0.00138031,0.0128342,1490,407,-0.0354626,-0.0629945
273,617,-0.0205078,0.063385,0.000623541,-0.00111257,0.000852688,0.000972282,-0.00146132,0.388233,0.00141446,0.0127874,1497,407,-0.0205064,-0.0633983
280,617,-0.0316162,0.0495605,0.000777364,-0.00122396,0.00104186,0.00122128,-0.00166787,0.402782,0.00167468,0.0112197,1504,407,-0.0316632,-0.0495501
287,617,-0.0513916,0.0570984,0.000897066,-0.00129405,0.001074,0.00133569,-0.00173268,0.387731,0.00177646,0.0107954,1511,407,-0.0514126,-0.0570889
294,617,-0.0324707,0.0515137,0.00120816,-0.00149199,0.0011076,0.00160437,-0.00188819,0.343529,0.00201865,0.00919046,1518,407,-0.0324484,-0.0515198
301,617,-0.0249023,0.0551147,0.0016455,-0.00167058,0.00126962,0.00207577,-0.00210085,0.326749,0.00241139,0.00744025,1525,407,-0.0248527,-0.0551271
308,617,-0.0352783,0.0526123,0.00218527,-0.00160735,0.00144541,0.00267332,-0.00209541,0.325638,0.00275996,0.00771393,1532,407,-0.0352372,-0.0526246
315,617,-0.0352783,0.0608521,0.00272827,-0.00100833,0.00159632,0.00331736,-0.00159742,0.353528,0.00289489,0.00830042,1539,407,-0.0353075,-0.0608601
322,617,-0.0192871,0.0585327,0.00330405,0.00030488,0.0015201,0.00393975,-0.000330821,0.396095,0.00274343,0.0106986,1546,407,-0.0193062,-0.0585296
329,617,-0.0123291,0.0468445,0.0038968,0.00201866,0.00150593,0.00473247,0.001183,0.506609,0.00284388,0.0104211,1553,407,-0.0123104,-0.0468505
336,617,0.00561523,0.0534363,0.00397398,0.0033294,0.00184261,0.00552227,0.0017811,0.69882,0.00325454,0.0186228,1560,407,0.00557009,-0.0534488
343,617,-0.0272217,0.0299377,0.0040574,0.00481869,0.00198291,0.00645716,0.00241893,0.880227,0.00376691,0.0305042,1567,407,-0.0272705,-0.0299481
350,617,-0.0708008,-0.003479,0.00402984,0.00639383,0.00210515,0.00762612,0.00279755,1.0412,0.00445469,0.0365638,1574,407,-0.0708054,0.00347005
357,617,-0.0638428,0.0167542,0.00358695,0.007429,0.00237458,0.00856231,0.00245364,1.1255,0.00509137,0.0358305,1581,407,-0.0638015,-0.0167421
364,617,0.0206299,0.250702,0.00256439,0.00827173,0.00290274,0.0094886,0.00134752,1.17384,0.00592784,0.037703,1588,407,0.0206614,-0.250714
371,617,0.541626,-1.03531,0,0,0,0,0,0,0,-1,1595,407,0.541583,1.03532
378,617,0.321777,-0.397034,0,0,0,0,0,0,0,-1,1602,407,0.321771,0.397042
385,617,0.5802,-0.337067,0,0,0,0,0,0,0,-1,1609,407,0.580182,0.33708
392,617,0.216797,-0.144379,0,0,0,0,0,0,0,-1,1616,407,0.216774,0.144387
399,617,0.1698,-0.0429993,-0.0017534,0.000571162,0.00803772,0.0075302,-0.00871244,0.857202,0.00938597,0.0423334,1623,407,0.169852,0.043002
406,617,0.122925,0.0196838,-0.00138348,-0.00340469,0.00997002,0.00762702,-0.0124152,0.734889,0.0116809,0.0400823,1630,407,0.122933,-0.0196745
413,617,0.0384521,0.211609,-0.00132103,-0.00661591,0.0115604,0.00789115,-0.0158281,0.672834,0.0139475,0.0404288,1637,407,0.0384542,-0.211605
420,617,-0.0897217,0.36911,-0.00120101,-0.0123748,0.0120934,0.00653367,-0.0201094,0.569014,0.0160342,0.0426874,1644,407,-0.089703,-0.369117
427,617,0,0,0,0,0,0,0,0,0,-1,1651,407,0,0
434,617,0,0,0,0,0,0,0,0,0,-1,1658,407,0,0
441,617,0,0,0,0,0,0,0,0,0,-1,1665,407,0,0
448,617,0,0,0,0,0,0,0,0,0,-1,1672,407,0,0
455,617,0,0,0,0,0,0,0,0,0,-1,1679,407,0,0
462,617,0,0,0,0,0,0,0,0,0,-1,1686,407,0,0
469,617,0,0,0,0,0,0,0,0,0,-1,1693,407,0,0
476,617,0,0,0,0,0,0,0,0,0,-1,1700,407,0,0
483,617,0,0,0,0,0,0,0,0,0,-1,1707,407,0,0
490,617,0,0,0,0,0,0,0,0,0,-1,1714,407,0,0
497,617,0,0,0,0,0,0,0,0,0,-1,1721,407,0,0
504,617,0,0,0,0,0,0,0,0,0,-1,1728,407,0,0
511,617,0,0,0,0,0,0,0,0,0,-1,1735,407,0,0
518,617,0,0,0,0,0,0,0,0,0,-1,1742,407,0,0
525,617,0,0,0,0,0,0,0,0,0,-1,1749,407,0,0
532,617,0,0,0,0,0,0,0,0,0,-1,1756,407,0,0
539,617,0,0,0,0,0,0,0,0,0,-1,1763,407,0,0
546,617,0,0,0,0,0,0,0,0,0,-1,1770,407,0,0
553,617,0,0,0,0,0,0,0,0,0,-1,1777,407,0,0
560,617,0,0,0,0,0,0,0,0,0,-1,1784,407,0,0
567,617,0,0,0,0,0,0,0,0,0,-1,1791,407,0,0
574,617,0,0,0,0,0,0,0,0,0,-1,1798,407,0,0
581,617,0,0,0,0,0,0,0,0,0,-1,1805,407,0,0
588,617,0,0,0,0,0,0,0,0,0,-1,1812,407,0,0
595,617,0,0,0,0,0,0,0,0,0,-1,1819,407,0,0
602,617,0,0,0,0,0,0,0,0,0,-1,1826,407,0,0
609,617,0,0,0,0,0,0,0,0,0,-1,1833,407,0,0
616,617,0,0,0,0,0,0,0,0,0,-1,1840,407,0,0
623,617,0,0,0,0,0,0,0,0,0,-1,1847,407,0,0
630,617,0,0,0,0,0,0,0,0,0,-1,1854,407,0,0
637,617,0,0,0,0,0,0,0,0,0,-1,1861,407,0,0
644,617,0,0,0,0,0,0,0,0,0,-1,1868,407,0,0
651,617,0,0,0,0,0,0,0,0,0,-1,1875,407,0,0
658,617,0,0,0,0,0,0,0,0,0,-1,1882,407,0,0
665,617,0,0,0,0,0,0,0,0,0,-1,1889,407,0,0
672,617,0,0,0,0,0,0,0,0,0,-1,1896,407,0,0
679,617,0,0,0,0,0,0,0,0,0,-1,1903,407,0,0
686,617,0,0,0,0,0,0,0,0,0,-1,1910,407,0,0
693,617,0,0,0,0,0,0,0,0,0,-1,1917,407,0,0
700,617,0,0,0,0,0,0,0,0,0,-1,1924,407,0,0
707,617,0,0,0,0,0,0,0,0,0,-1,1931,407,0,0
714,617,0,0,0,0,0,0,0,0,0,-1,1938,407,0,0
721,617,0,0,0,0,0,0,0,0,0,-1,1945,407,0,0
728,617,0,0,0,0,0,0,0,0,0,-1,1952,407,0,0
735,617,0,0,0,0,0,0,0,0,0,-1,1959,407,0,0
742,617,0,0,0,0,0,0,0,0,0,-1,1966,407,0,0
749,617,0,0,0,0,0,0,0,0,0,-1,1973,407,0,0
756,617,0,0,0,0,0,0,0,0,0,-1,1980,407,0,0
763,617,0,0,0,0,0,0,0,0,0,-1,1987,407,0,0
770,617,0,0,0,0,0,0,0,0,0,-1,1994,407,0,0
777,617,0,0,0,0,0,0,0,0,0,-1,2001,407,0,0
784,617,0,0,0,0,0,0,0,0,0,-1,2008,407,0,0
791,617,0,0,0,0,0,0,0,0,0,-1,2015,407,0,0
798,617,0,0,0,0,0,0,0,0,0,-1,2022,407,0,0
805,617,0,0,0,0,0,0,0,0,0,-1,2029,407,0,0
812,617,0,0,0,0,0,0,0,0,0,-1,2036,407,0,0
-700,610,0,0,0,0,0,0,0,0,0,-1,524,414,0,0
-693,610,0,0,0,0,0,0,0,0,0,-1,531,414,0,0
-686,610,0,0,0,0,0,0,0,0,0,-1,538,414,0,0
-679,610,0,0,0,0,0,0,0,0,0,-1,545,414,0,0
-672,610,0,0,0,0,0,0,0,0,0,-1,552,414,0,0
-665,610,0,0,0,0,0,0,0,0,0,-1,559,414,0,0
-658,610,0,0,0,0,0,0,0,0,0,-1,566,414,0,0
-651,610,0,0,0,0,0,0,0,0,0,-1,573,414,0,0
-644,610,0,0,0,0,0,0,0,0,0,-1,580,414,0,0
-637,610,0,0,0,0,0,0,0,0,0,-1,587,414,0,0
-630,610,0,0,0,0,0,0,0,0,0,-1,594,414,0,0
-623,610,0,0,0,0,0,0,0,0,0,-1,601,414,0,0
-616,610,0,0,0,0,0,0,0,0,0,-1,608,414,0,0
-609,610,0,0,0,0,0,0,0,0,0,-1,615,414,0,0
-602,610,0,0,0,0,0,0,0,0,0,-1,622,414,0,0
-595,610,0,0,0,0,0,0,0,0,0,-1,629,414,0,0
-588,610,0,0,0,0,0,0,0,0,0,-1,636,414,0,0
-581,610,0,0,0,0,0,0,0,0,0,-1,643,414,0,0
-574,610,0,0,0,0,0,0,0,0,0,-1,650,414,0,0
-567,610,0,0,0,0,0,0,0,0,0,-1,657,414,0,0
-560,610,0,0,0,0,0,0,0,0,0,-1,664,414,0,0
-553,610,0,0,0,0,0,0,0,0,0,-1,671,414,0,0
-546,610,0,0,0,0,0,0,0,0,0,-1,678,414,0,0
-539,610,0,0,0,0,0,0,0,0,0,-1,685,414,0,0
-532,610,0,0,0,0,0,0,0,0,0,-1,692,414,0,0
-525,610,0,0,0,0,0,0,0,0,0,-1,699,414,0,0
-518,610,0,0,0,0,0,0,0,0,0,-1,706,414,0,0
-511,610,0,0,0,0,0,0,0,0,0,-1,713,414,0,0
-504,610,0,0,0,0,0,0,0,0,0,-1,720,414,0,0
-497,610,0,0,0,0,0,0,0,0,0,-1,727,414,0,0
-490,610,0,0,0,0,0,0,0,0,0,-1,734,414,0,0
-483,610,0,0,0,0,0,0,0,0,0,-1,741,414,0,0
-476,610,0,0,0,0,0,0,0,0,0,-1,748,414,0,0
-469,610,0,0,0,0,0,0,0,0,0,-1,755,414,0,0
-462,610,0,0,0,0,0,0,0,0,0,-1,762,414,0,0
-455,610,0,0,0,0,0,0,0,0,0,-1,769,414,0,0
-448,610,0,0,0,0,0,0,0,0,0,-1,776,414,0,0
-441,610,0,0,0,0,0,0,0,0,0,-1,783,414,0,0
-434,610,0,0,0,0,0,0,0,0,0,-1,790,414,0,0
-427,610,0,0,0,0,0,0,0,0,0,-1,797,414,0,0
-420,610,0,0,0,0,0,0,0,0,0,-1,804,414,0,0
-413,610,0,0,0,0,0,0,0,0,0,-1,811,414,0,0
-406,610,0,0,0,0,0,0,0,0,0,-1,818,414,0,0
-399,610,0,0,0,0,0,0,0,0,0,-1,825,414,0,0
-392,610,0,0,0,0,0,0,0,0,0,-1,832,414,0,0
-385,610,0,0,0,0,0,0,0,0,0,-1,839,414,0,0
-378,610,0,0,0,0,0,0,0,0,0,-1,846,414,0,0
-371,610,0,0,0,0,0,0,0,0,0,-1,853,414,0,0
-364,610,0,0,0,0,0,0,0,0,0,-1,860,414,0,0
-357,610,0,0,0,0,0,0,0,0,0,-1,867,414,0,0
-350,610,0,0,0,0,0,0,0,0,0,-1,874,414,0,0
-343,610,0,0,0,0,0,0,0,0,0,-1,881,414,0,0
-336,610,0,0,0,0,0,0,0,0,0,-1,888,414,0,0
-329,610,0,0,0,0,0,0,0,0,0,-1,895,414,0,0
-322,610,0,0,0,0,0,0,0,0,0,-1,902,414,0,0
-315,610,-0.8797,-1.16443,0.012361,-0.105889,-0.0503632,0.0309033,-0.124432,-0.352771,0.094947,0.049123,909,414,-0.879707,1.16444
-308,610,-0.786072,-1.16745,0.0101508,-0.0875616,-0.0444621,0.0273538,-0.104765,-0.369173,0.0805248,0.0417605,916,414,-0.786057,1.16746
-301,610,-0.70166,-1.16528,0,0,0,0,0,0,0,-1,923,414,-0.701672,1.16528
-294,610,-0.566711,0.940887,0,0,0,0,0,0,0,-1,930,414,-0.566694,-0.940881
-287,610,-0.370483,0.671082,0,0,0,0,0,0,0,-1,937,414,-0.370484,-0.671081
-280,610,-0.6474,0.101746,0,0,0,0,0,0,0,-1,944,414,-0.6474,-0.101732
-273,610,-0.517578,-0.353302,0.0111588,-0.0158099,-0.0135982,0.0168249,-0.021476,-0.394801,0.0221673,0.0454006,951,414,-0.517573,0.353308
-266,610,-0.0458984,-0.208405,0,0,0,0,0,0,0,-1,958,414,-0.0459167,0.208415
-259,610,-0.177856,0.536072,0,0,0,0,0,0,0,-1,965,414,-0.177884,-0.536057
-252,610,-0.363892,0.515106,0.00971462,0.00394006,0.00134015,0.0100105,0.0036442,0.217281,0.00585035,0.0436921,972,414,-0.363875,-0.515101
-245,610,0.112671,0.0743713,0.00887929,0.0044969,0.00248261,0.00999939,0.0033768,0.423833,0.00587365,0.0440431,979,414,0.112696,-0.0743862
-238,610,0.0614014,0.133514,0.00843326,0.00442755,0.00365424,0.0105975,0.00226328,0.53471,0.00644446,0.0369781,986,414,0.0613803,-0.133505
-231,610,-0.0122681,0.0987244,0.00745415,0.00410452,0.00438288,0.0104713,0.00108735,0.602896,0.00664813,0.0279162,993,414,-0.0122406,-0.0987286
-224,610,-0.0454102,0.0744019,0.00636014,0.0039344,0.00511636,0.0104054,-0.000110887,0.669018,0.00697421,0.0224813,1000,414,-0.0453798,-0.0744149
-217,610,-0.0266724,0.086792,0.00524818,0.00372283,0.00527623,0.00981657,-0.000845565,0.71362,0.00684367,0.015397,1007,414,-0.0266994,-0.0868053
-210,610,-0.031189,0.0847778,0.00429313,0.00336975,0.00504361,0.00889614,-0.00123326,0.739756,0.00638169,0.0103542,1014,414,-0.0312059,-0.0847884
-203,610,-0.024231,0.0742188,0.00365192,0.00300793,0.00486277,0.00820335,-0.0015435,0.752339,0.00604939,0.0126835,1021,414,-0.0242457,-0.0742268
-196,610,-0.0111084,0.057312,0.00275263,0.00267944,0.00480345,0.00751962,-0.00208755,0.781589,0.00583477,0.0119122,1028,414,-0.0110788,-0.0573217
-189,610,-0.0175781,0.0715942,0.00184461,0.00254767,0.00431225,0.00652269,-0.00213042,0.826068,0.00520599,0.00956768,1035,414,-0.0175702,-0.0715847
-182,610,-0.0322266,0.0753784,0.00101295,0.00220039,0.0036574,0.00531195,-0.00209861,0.865863,0.00441052,0.0100439,1042,414,-0.0322049,-0.0753697
-175,610,-0.0311279,0.0795898,0.000164539,0.00217688,0.00275384,0.0041026,-0.00176118,0.960549,0.00347426,0.0100061,1049,414,-0.0311712,-0.0795841
-168,610,-0.0341797,0.0751953,0.000103244,0.00247143,0.00218509,0.00377264,-0.00119796,1.0337,0.00299536,0.00968352,1056,414,-0.0342117,-0.0752081
-161,610,-0.0285645,0.04422,9.36498e-06,0.0026404,0.00180271,0.00355655,-0.000906786,1.1006,0.00272408,0.0100316,1063,414,-0.0285426,-0.044224
-154,610,-0.0429688,0.0407104,-0.000434541,0.00298528,0.0010993,0.00330817,-0.000757426,1.28511,0.00249652,0.0126189,1070,414,-0.0429672,-0.0407244
-147,610,-0.0372314,0.04422,-0.000478332,0.00335711,0.000499902,0.00342119,-0.000542418,1.4433,0.00248144,0.0132908,1077,414,-0.0372056,-0.0442271
-140,610,-0.0275879,0.0572205,-0.00038471,0.00368301,-4.80136e-06,0.00368302,-0.000384715,-1.56962,0.00259311,0.0105053,1084,414,-0.0276441,-0.0572215
-133,610,-0.0345459,0.0532837,-0.000406889,0.00348714,-0.000543903,0.00356168,-0.000481433,-1.43459,0.00255013,0.0116672,1091,414,-0.0345692,-0.0532749
-126,610,-0.0474854,0.0643616,-0.00035249,0.00319672,-0.000842112,0.00338639,-0.00054216,-1.34926,0.00245832,0.0106596,1098,414,-0.0474326,-0.0643693
-119,610,-0.0444336,0.0733643,-0.000370396,0.00260833,-0.00108058,0.00295904,-0.000721101,-1.25697,0.00225188,0.00932561,1105,414,-0.0444772,-0.0733723
-112,610,-0.0527344,0.065918,-0.000492537,0.00216014,-0.00103409,0.00251562,-0.000848018,-1.23969,0.00201999,0.0156977,1112,414,-0.0527246,-0.0659284
-105,610,-0.0505371,0.0632324,-0.000687864,0.0015169,-0.000918132,0.00184916,-0.00102013,-1.22357,0.00167948,0.0149327,1119,414,-0.0505794,-0.0632464
-98,610,-0.0335693,0.0435486,-0.000892192,0.000854181,-0.0008204,0.00117912,-0.00121713,-1.19368,0.00138354,0.0108436,1126,414,-0.0336262,-0.043554
-91,610,-0.0118408,0.0594788,-0.00114653,7.1441e-05,-0.000601293,0.000318269,-0.00139336,-1.18128,0.00105118,0.0119566,1133,414,-0.0117904,-0.0594867
-84,610,-0.0150146,0.0661316,-0.00131594,-0.000675592,-0.000135786,-0.000647988,-0.00134354,-1.37024,0.000775858,0.0132346,1140,414,-0.0150543,-0.0661289
-77,610,-0.0358887,0.0360718,-0.00121325,-0.00150254,0.000463476,-0.00087237,-0.00184342,0.634141,0.00106481,0.0104272,1147,414,-0.0359128,-0.0360681
-70,610,-0.0289307,0.0173035,-0.0010049,-0.00221355,0.000917257,-0.000510785,-0.00270766,0.494117,0.00166123,0.0113441,1154,414,-0.0289636,-0.0172961
-63,610,-0.0257568,0.0320435,-0.000551241,-0.00312672,0.00135945,3.35495e-05,-0.00371151,0.40624,0.0024856,0.0104951,1161,414,-0.0257975,-0.0320312
-56,610,-0.020874,0.0608521,1.2749e-05,-0.00376797,0.00155413,0.00056959,-0.00432481,0.344047,0.00309062,0.00839381,1168,414,-0.0208849,-0.0608663
-49,610,-0.0219727,0.0536499,0.000443575,-0.00418585,0.00174857,0.00102979,-0.00477207,0.323479,0.00357444,0.00904454,1175,414,-0.0219663,-0.0536573
-42,610,-0.0290527,0.049469,0.000742766,-0.0045248,0.00172101,0.0012552,-0.00503724,0.289394,0.00384546,0.0120524,1182,414,-0.0290482,-0.0494646
-35,610,-0.0212402,0.0605469,0.00123701,-0.00443051,0.00145505,0.00158875,-0.00478224,0.237182,0.00382922,0.0120544,1189,414,-0.0211857,-0.0605343
-28,610,-0.02771,0.0715332,0.00201382,-0.00436265,0.00140623,0.00231017,-0.004659,0.207701,0.00409912,0.0112285,1196,414,-0.0276968,-0.071534
-21,610,-0.0379639,0.0708618,0.00242549,-0.00406703,0.00117998,0.00263329,-0.00427483,0.174321,0.00402577,0.0100578,1203,414,-0.0379443,-0.0708621
-14,610,-0.0238037,0.0836792,0.00222239,-0.00389298,0.000945033,0.0023651,-0.00403569,0.149878,0.00373722,0.0113264,1210,414,-0.0237741,-0.0836657
-7,610,-0.0388184,0.0882874,0.00266547,-0.00365672,0.000541823,0.00271157,-0.00370282,0.0848769,0.00371806,0.0124825,1217,414,-0.0387734,-0.0882724
0,610,-0.0401611,0.0832825,0.00388833,-0.00380367,0.000249417,0.00389641,-0.00381175,0.0323802,0.00445039,0.00970818,1224,414,-0.0401976,-0.0832929
7,610,-0.0369873,0.0696411,0.00464769,-0.00297364,-0.000715723,0.00471432,-0.00304027,-0.092829,0.00451176,0.00994501,1231,414,-0.0369578,-0.06964
14,610,-0.0397949,0.0491028,0.00452338,-0.00167678,-0.00132581,0.00479499,-0.00194839,-0.202065,0.00400725,0.0112813,1238,414,-0.0397852,-0.0491147
21,610,-0.0447998,0.0600281,0.00434101,-0.000365703,-0.00154758,0.00480426,-0.000828954,-0.290851,0.00351192,0.00994443,1245,414,-0.0447931,-0.060033
28,610,-0.0197754,0.0470886,0.00452837,0.000816491,-0.0016099,0.00512932,0.000215545,-0.357263,0.00335001,0.010391,1252,414,-0.0197363,-0.0470862
35,610,0.0141602,0.0500183,0.00492401,0.00222614,-0.00115671,0.00535204,0.00179811,-0.354417,0.00314494,0.0143974,1259,414,0.0141265,-0.0500291
42,610,-0.0113525,0.0689392,0.00694306,0.00351767,-0.000469678,0.0070063,0.00345444,-0.133827,0.00404522,0.0141322,1266,414,-0.0114042,-0.0689388
49,610,-0.0311279,0.0636902,0.00863744,0.00444438,0.00135706,0.00903831,0.0040435,0.287232,0.0052279,0.0139855,1273,414,-0.0311407,-0.0637021
56,610,-0.0222168,0.0682983,0.00962655,0.00491005,0.00295927,0.0110523,0.0034843,0.448973,0.00652462,0.0121988,1280,414,-0.0222097,-0.0683087
63,610,-0.0410156,0.0423889,0.0113375,0.00516869,0.00478734,0.013948,0.00255817,0.499224,0.00857414,0.0151773,1287,414,-0.0410004,-0.0423776
70,610,-0.0599365,0.0498047,0.0130138,0.00492182,0.00673613,0.0168256,0.00110998,0.514954,0.010866,0.0215974,1294,414,-0.059918,-0.0498058
77,610,-0.0759277,0.0630188,0.0145627,0.00484394,0.00854869,0.0195366,-0.000129967,0.526954,0.0130679,0.0252553,1301,414,-0.0759453,-0.0630151
84,610,-0.0401611,0.0863953,0.0162663,0.00400549,0.0103654,0.0221784,-0.00190663,0.51835,0.0154604,0.026911,1308,414,-0.0401538,-0.0864072
91,610,-0.0321045,0.0710754,0.0179318,0.00313127,0.0118155,0.0244732,-0.00341012,0.505625,0.0175629,0.0229683,1315,414,-0.032073,-0.0710684
98,610,-0.0162354,0.0443115,0.0185291,0.00159066,0.0130655,0.0256302,-0.00551047,0.49784,0.0191892,0.0202342,1322,414,-0.0161886,-0.0443035
105,610,-0.00012207,0.0471191,0.0185119,9.98434e-05,0.0137361,0.0258417,-0.0072299,0.490173,0.0200765,0.0155544,1329,414,-0.000154428,-0.04711
112,610,-0.0292969,0.0593567,0.018843,-0.00211068,0.0146245,0.0263562,-0.00962387,0.474578,0.0215088,0.0111933,1336,414,-0.0292438,-0.059348
119,610,-0.060791,0.0722046,0.0194222,-0.0038239,0.0140401,0.026026,-0.0104277,0.439651,0.0216793,0.0164902,1343,414,-0.060747,-0.0722107
126,610,-0.0458984,0.0812683,0.0191942,-0.00477555,0.0128135,0.0247542,-0.0103355,0.409399,0.0208213,0.0236664,1350,414,-0.0459394,-0.081263
133,610,-0.050293,0.0581055,0.0177204,-0.00514554,0.0113953,0.0224295,-0.00985461,0.391874,0.0191047,0.018682,1357,414,-0.0503154,-0.0581133
140,610,-0.0340576,0.0489502,0.0159673,-0.00547059,0.00998776,0.0198993,-0.00940262,0.375051,0.0172755,0.014818,1364,414,-0.0340731,-0.0489426
147,610,-0.0247803,0.0652466,0.0130159,-0.00532395,0.00869053,0.0164798,-0.00878783,0.379282,0.0148119,0.0154895,1371,414,-0.0247735,-0.0652403
154,610,-0.0455322,0.0690002,0.0112072,-0.00510983,0.00688581,0.0137246,-0.00762726,0.350502,0.0124939,0.020545,1378,414,-0.045488,-0.0689893
161,610,-0.0477295,0.0757446,0.0103327,-0.00449573,0.00585474,0.0123656,-0.00652866,0.334204,0.0110808,0.0249707,1385,414,-0.0477902,-0.0757416
168,610,-0.0563965,0.0488892,0.00859664,-0.00365953,0.00483431,0.0102739,-0.00533682,0.333961,0.00916189,0.0250998,1392,414,-0.0564085,-0.0488839
175,610,-0.0374756,0.0462952,0.00690085,-0.00300509,0.0038625,0.00822887,-0.00433311,0.331162,0.007368,0.0201766,1399,414,-0.037429,-0.0462851
182,610,-0.00952148,0.0563354,0.00547596,-0.00233086,0.00301192,0.0065029,-0.00335779,0.328595,0.00578879,0.0135481,1406,414,-0.00949231,-0.0563505
189,610,-0.0170898,0.058075,0.0041496,-0.00145991,0.00222228,0.00492328,-0.00223359,0.335022,0.00422817,0.0115272,1413,414,-0.0170617,-0.0580894
196,610,-0.0297852,0.0562744,0.00294007,-0.000789913,0.00162567,0.00354914,-0.00139899,0.358473,0.00294534,0.0124738,1420,414,-0.0297521,-0.0562858
203,610,-0.0238037,0.0507813,0.00193606,-0.000185541,0.00113382,0.00242795,-0.000677433,0.40933,0.00188546,0.0134799,1427,414,-0.0237996,-0.0507893
210,610,-0.0200195,0.0622253,0.00138616,0.000272465,0.000813181,0.00181488,-0.000156256,0.485181,0.00126522,0.00963999,1434,414,-0.020067,-0.0622155
217,610,-0.0505371,0.0644226,0.00140866,0.000286939,0.000754657,0.00178805,-9.24521e-05,0.465831,0.00122401,0.0141785,1441,414,-0.0505054,-0.0644165
224,610,-0.052002,0.0675354,0.00129863,0.000256812,0.000838361,0.00176474,-0.000209291,0.507415,0.0012521,0.0174007,1448,414,-0.0520221,-0.0675382
231,610,-0.0410156,0.0597839,0.00123057,0.000270857,0.00088607,0.00175837,-0.000256949,0.537231,0.00126662,0.013952,1455,414,-0.0410438,-0.0597803
238,610,-0.0297852,0.0481873,0.00116116,0.00045337,0.000910703,0.00178431,-0.000169781,0.600079,0.00124999,0.0102215,1462,414,-0.0297478,-0.0481861
245,610,-0.041626,0.0477295,0.00109297,0.000549847,0.000941034,0.00180084,-0.000158026,0.644926,0.00125655,0.0108764,1469,414,-0.0416368,-0.0477365
252,610,-0.0611572,0.0561523,0.00103396,0.000575566,0.000979985,0.0018112,-0.000201666,0.670523,0.00127999,0.0123687,1476,414,-0.0611137,-0.0561411
259,610,-0.0374756,0.0667114,0.000949564,0.000508719,0.000949563,0.00170395,-0.000245669,0.671353,0.00122609,0.0114242,1483,414,-0.037486,-0.0667088
266,610,-0.0368652,0.0732727,0.000782227,0.000290532,0.000938852,0.00150689,-0.000434128,0.657344,0.00117631,0.0120048,1490,414,-0.0368333,-0.0732728
273,610,-0.0322266,0.0614624,0.000754351,-1.64479e-05,0.00100978,0.00144978,-0.00071188,0.603098,0.00127204,0.00948473,1497,414,-0.0322446,-0.0614668
280,610,-0.0343018,0.0637512,0.000899829,-0.000256168,0.0012236,0.00167508,-0.00103142,0.564746,0.00157726,0.00881249,1504,414,-0.0343312,-0.0637573
287,610,-0.0408936,0.0799255,0.000998319,-0.0004831,0.00122383,0.00168814,-0.00117292,0.513267,0.00166074,0.0114966,1511,414,-0.0408789,-0.0799168
294,610,-0.0319824,0.0702209,0.00126256,-0.000787658,0.00121622,0.00182806,-0.00135316,0.43523,0.00184349,0.0102755,1518,414,-0.0320022,-0.0702125
301,610,-0.0449219,0.0516357,0.0016162,-0.00108066,0.00130324,0.00214306,-0.00160751,0.384179,0.00217274,0.00947825,1525,414,-0.0448881,-0.0516212
308,610,-0.0256348,0.0522766,0.00196819,-0.0011377,0.00134668,0.00247077,-0.00164028,0.357191,0.0023896,0.0111916,1532,414,-0.0256895,-0.0522698
315,610,-0.0129395,0.0561829,0.00225155,-0.000721449,0.00136277,0.00278168,-0.00125158,0.371,0.00238381,0.0121813,1539,414,-0.0129389,-0.0561788
322,610,-0.0181885,0.0570068,0.00256808,0.0002009,0.00120705,0.00307501,-0.000306029,0.397605,0.00215926,0.0111625,1546,414,-0.0181803,-0.0570063
329,610,-0.0336914,0.0653076,0.0029279,0.00131374,0.00111462,0.00349696,0.000744682,0.472044,0.00212699,0.00978022,1553,414,-0.0337208,-0.0653052
336,610,-0.0307617,0.0812073,0.00289932,0.00208234,0.00133804,0.00388983,0.00109183,0.637247,0.00231669,0.00861873,1560,414,-0.0307253,-0.081195
343,610,-0.036499,0.0697937,0.00284516,0.00289719,0.00139071,0.00426213,0.00148022,0.794751,0.0024987,0.011473,1567,414,-0.0364536,-0.0697849
350,610,-0.0496826,0.0548706,0.00276015,0.0038307,0.00153507,0.00492114,0.00166971,0.953155,0.00288973,0.0152812,1574,414,-0.0496242,-0.0548816
357,610,-0.0206299,0.120667,0.00235923,0.00429214,0.00185919,0.00542106,0.0012303,1.02509,0.00328174,0.0204921,1581,414,-0.0206906,-0.120663
364,610,0.00683594,0.142029,0.00149144,0.00452379,0.0024325,0.00587394,0.000141283,1.06409,0.00386973,0.0242215,1588,414,0.00687586,-0.142025
371,610,0.103271,0.111328,0.000566751,0.00465069,0.00309726,0.00631852,-0.00110108,1.07684,0.00462329,0.0381244,1595,414,0.103241,-0.111326
378,610,0.251709,-0.329132,-0.000316344,0.00399687,0.00363929,0.00607056,-0.00239003,1.05287,0.00503644,0.0397535,1602,414,0.251762,0.329137
385,610,0.389404,-0.406708,-0.00101098,0.00220135,0.00423347,0.0051231,-0.00393273,0.966708,0.00524342,0.0440096,1609,414,0.389406,0.406707
392,610,-0.0692139,-0.460724,-0.00116484,-0.000396742,0.00568547,0.00491763,-0.00647921,0.819121,0.00660053,0.0440627,1616,414,-0.0691597,0.460732
399,610,-0.00488281,-0.191193,-0.000972065,-0.00221032,0.00720804,0.00564339,-0.00882578,0.742556,0.00842086,0.0423527,1623,414,-0.0049193,0.191183
406,610,-0.0128174,0.0304565,-0.000441912,-0.00513533,0.00865521,0.00617909,-0.0117563,0.653015,0.0105206,0.0417214,1630,414,-0.0127599,-0.0304559
413,610,-0.146973,0.204407,-0.000276916,-0.00724878,0.00966224,0.00650899,-0.0140347,0.612276,0.0121233,0.0409292,1637,414,-0.146947,-0.204412
420,610,-0.300537,0.38678,1.34044e-05,-0.0116146,0.0096824,0.00549328,-0.0170944,0.515016,0.0136023,0.0427573,1644,414,-0.300491,-0.386786
427,610,-0.424438,0.535492,0,0,0,0,0,0,0,-1,1651,414,-0.424484,-0.535494
434,610,-0.361816,0.611023,0,0,0,0,0,0,0,-1,1658,414,-0.361842,-0.611016
441,610,0,0,0,0,0,0,0,0,0,-1,1665,414,0,0
448,610,0,0,0,0,0,0,0,0,0,-1,1672,414,0,0
455,610,0,0,0,0,0,0,0,0,0,-1,1679,414,0,0
462,610,0,0,0,0,0,0,0,0,0,-1,1686,414,0,0
469,610,0,0,0,0,0,0,0,0,0,-1,1693,414,0,0
476,610,0,0,0,0,0,0,0,0,0,-1,1700,414,0,0
483,610,0,0,0,0,0,0,0,0,0,-1,1707,414,0,0
490,610,0,0,0,0,0,0,0,0,0,-1,1714,414,0,0
497,610,0,0,0,0,0,0,0,0,0,-1,1721,414,0,0
504,610,0,0,0,0,0,0,0,0,0,-1,1728,414,0,0
511,610,0,0,0,0,0,0,0,0,0,-1,1735,414,0,0
518,610,0,0,0,0,0,0,0,0,0,-1,1742,414,0,0
525,610,0,0,0,0,0,0,0,0,0,-1,1749,414,0,0
532,610,0,0,0,0,0,0,0,0,0,-1,1756,414,0,0
539,610,0,0,0,0,0,0,0,0,0,-1,1763,414,0,0
546,610,0,0,0,0,0,0,0,0,0,-1,1770,414,0,0
553,610,0,0,0,0,0,0,0,0,0,-1,1777,414,0,0
560,610,0,0,0,0,0,0,0,0,0,-1,1784,414,0,0
567,610,0,0,0,0,0,0,0,0,0,-1,1791,414,0,0
574,610,0,0,0,0,0,0,0,0,0,-1,1798,414,0,0
581,610,0,0,0,0,0,0,0,0,0,-1,1805,414,0,0
588,610,0,0,0,0,0,0,0,0,0,-1,1812,414,0,0
595,610,0,0,0,0,0,0,0,0,0,-1,1819,414,0,0
602,610,0,0,0,0,0,0,0,0,0,-1,1826,414,0,0
609,610,0,0,0,0,0,0,0,0,0,-1,1833,414,0,0
616,610,0,0,0,0,0,0,0,0,0,-1,1840,414,0,0
623,610,0,0,0,0,0,0,0,0,0,-1,1847,414,0,0
630,610,0,0,0,0,0,0,0,0,0,-1,1854,414,0,0
637,610,0,0,0,0,0,0,0,0,0,-1,1861,414,0,0
644,610,0,0,0,0,0,0,0,0,0,-1,1868,414,0,0
651,610,0,0,0,0,0,0,0,0,0,-1,1875,414,0,0
658,610,0,0,0,0,0,0,0,0,0,-1,1882,414,0,0
665,610,0,0,0,0,0,0,0,0,0,-1,1889,414,0,0
672,610,0,0,0,0,0,0,0,0,0,-1,1896,414,0,0
679,610,0,0,0,0,0,0,0,0,0,-1,1903,414,0,0
686,610,0,0,0,0,0,0,0,0,0,-1,1910,414,0,0
693,610,0,0,0,0,0,0,0,0,0,-1,1917,414,0,0
700,610,0,0,0,0,0,0,0,0,0,-1,1924,414,0,0
707,610,0,0,0,0,0,0,0,0,0,-1,1931,414,0,0
714,610,0,0,0,0,0,0,0,0,0,-1,1938,414,0,0
721,610,0,0,0,0,0,0,0,0,0,-1,1945,414,0,0
728,610,0,0,0,0,0,0,0,0,0,-1,1952,414,0,0
735,610,0,0,0,0,0,0,0,0,0,-1,1959,414,0,0
742,610,0,0,0,0,0,0,0,0,0,-1,1966,414,0,0
749,610,0,0,0,0,0,0,0,0,0,-1,1973,414,0,0
756,610,0,0,0,0,0,0,0,0,0,-1,1980,414,0,0
763,610,0,0,0,0,0,0,0,0,0,-1,1987,414,0,0
770,610,0,0,0,0,0,0,0,0,0,-1,1994,414,0,0
777,610,0,0,0,0,0,0,0,0,0,-1,2001,414,0,0
784,610,0,0,0,0,0,0,0,0,0,-1,2008,414,0,0
791,610,0,0,0,0,0,0,0,0,0,-1,2015,414,0,0
798,610,0,0,0,0,0,0,0,0,0,-1,2022,414,0,0
805,610,0,0,0,0,0,0,0,0,0,-1,2029,414,0,0
812,610,0,0,0,0,0,0,0,0,0,-1,2036,414,0,0
-700,603,0,0,0,0,0,0,0,0,0,-1,524,421,0,0
-693,603,0,0,0,0,0,0,0,0,0,-1,531,421,0,0
-686,603,0,0,0,0,0,0,0,0,0,-1,538,421,0,0
-679,603,0,0,0,0,0,0,0,0,0,-1,545,421,0,0
-672,603,0,0,0,0,0,0,0,0,0,-1,552,421,0,0
-665,603,0,0,0,0,0,0,0,0,0,-1,559,421,0,0
-658,603,0,0,0,0,0,0,0,0,0,-1,566,421,0,0
-651,603,0,0,0,0,0,0,0,0,0,-1,573,421,0,0
-644,603,0,0,0,0,0,0,0,0,0,-1,580,421,0,0
-637,603,0,0,0,0,0,0,0,0,0,-1,587,421,0,0
-630,603,0,0,0,0,0,0,0,0,0,-1,594,421,0,0
-623,603,0,0,0,0,0,0,0,0,0,-1,601,421,0,0
-616,603,0,0,0,0,0,0,0,0,0,-1,608,421,0,0
-609,603,0,0,0,0,0,0,0,0,0,-1,615,421,0,0
-602,603,0,0,0,0,0,0,0,0,0,-1,622,421,0,0
-595,603,0,0,0,0,0,0,0,0,0,-1,629,421,0,0
-588,603,0,0,0,0,0,0,0,0,0,-1,636,421,0,0
-581,603,0,0,0,0,0,0,0,0,0,-1,643,421,0,0
-574,603,0,0,0,0,0,0,0,0,0,-1,650,421,0,0
-567,603,0,0,0,0,0,0,0,0,0,-1,657,421,0,0
-560,603,0,0,0,0,0,0,0,0,0,-1,664,421,0,0
-553,603,0,0,0,0,0,0,0,0,0,-1,671,421,0,0
-546,603,0,0,0,0,0,0,0,0,0,-1,678,421,0,0
-539,603,0,0,0,0,0,0,0,0,0,-1,685,421,0,0
-532,603,0,0,0,0,0,0,0,0,0,-1,692,421,0,0
-525,603,0,0,0,0,0,0,0,0,0,-1,699,421,0,0
-518,603,0,0,0,0,0,0,0,0,0,-1,706,421,0,0
-511,603,0,0,0,0,0,0,0,0,0,-1,713,421,0,0
-504,603,0,0,0,0,0,0,0,0,0,-1,720,421,0,0
-497,603,0,0,0,0,0,0,0,0,0,-1,727,421,0,0
-490,603,0,0,0,0,0,0,0,0,0,-1,734,421,0,0
-483,603,0,0,0,0,0,0,0,0,0,-1,741,421,0,0
-476,603,0,0,0,0,0,0,0,0,0,-1,748,421,0,0
-469,603,0,0,0,0,0,0,0,0,0,-1,755,421,0,0
-462,603,0,0,0,0,0,0,0,0,0,-1,762,421,0,0
-455,603,0,0,0,0,0,0,0,0,0,-1,769,421,0,0
-448,603,0,0,0,0,0,0,0,0,0,-1,776,421,0,0
-441,603,0,0,0,0,0,0,0,0,0,-1,783,421,0,0
-434,603,0,0,0,0,0,0,0,0,0,-1,790,421,0,0
-427,603,0,0,0,0,0,0,0,0,0,-1,797,421,0,0
-420,603,0,0,0,0,0,0,0,0,0,-1,804,421,0,0
-413,603,0,0,0,0,0,0,0,0,0,-1,811,421,0,0
-406,603,0,0,0,0,0,0,0,0,0,-1,818,421,0,0
-399,603,0,0,0,0,0,0,0,0,0,-1,825,421,0,0
-392,603,0,0,0,0,0,0,0,0,0,-1,832,421,0,0
-385,603,0,0,0,0,0,0,0,0,0,-1,839,421,0,0
-378,603,0,0,0,0,0,0,0,0,0,-1,846,421,0,0
-371,603,0,0,0,0,0,0,0,0,0,-1,853,421,0,0
-364,603,0,0,0,0,0,0,0,0,0,-1,860,421,0,0
-357,603,0,0,0,0,0,0,0,0,0,-1,867,421,0,0
-350,603,0,0,0,0,0,0,0,0,0,-1,874,421,0,0
-343,603,0,0,0,0,0,0,0,0,0,-1,881,421,0,0
-336,603,0,0,0,0,0,0,0,0,0,-1,888,421,0,0
-329,603,0.98407,1.88684,0.0101449,-0.0687997,-0.0253676,0.0175936,-0.0762484,-0.285602,0.0575995,0.0445912,895,421,0.984075,-1.88684
-322,603,1.44684,2.69882,0,0,0,0,0,0,0,-1,902,421,1.44682,-2.69882
-315,603,1.60645,3.29987,0.00929814,-0.0673279,-0.0343412,0.0224361,-0.0804659,-0.365392,0.0624801,0.046797,909,421,1.60643,-3.29985
-308,603,-0.682922,-0.896454,0.00844117,-0.0581384,-0.0325357,0.0217001,-0.0713973,-0.386972,0.0562447,0.0437921,916,421,-0.682944,0.89646
-301,603,-0.455139,-0.78244,0.00846047,-0.0471163,-0.0295843,0.0212605,-0.0599164,-0.408345,0.0486065,0.0470198,923,421,-0.455133,0.78245
-294,603,-0.219788,-0.630432,0,0,0,0,0,0,0,-1,930,421,-0.219802,0.630443
-287,603,-0.567383,0.314331,0,0,0,0,0,0,0,-1,937,421,-0.567374,-0.314319
-280,603,-0.579834,0.0514221,0.00991747,-0.0169147,-0.0150848,0.0166891,-0.0236863,-0.421941,0.0234271,0.0489916,944,421,-0.579853,-0.0514221
-273,603,-0.46521,-0.340485,0.0086488,-0.0118611,-0.0126476,0.0146765,-0.0178888,-0.444745,0.0188321,0.0457013,951,421,-0.465204,0.340483
-266,603,0.746399,0.701202,0,0,0,0,0,0,0,-1,958,421,0.746412,-0.701195
-259,603,0.232239,0.448364,0.00780876,0.00152826,-0.00266348,0.00878618,0.00055083,-0.351716,0.00568275,0.0408896,965,421,0.232212,-0.448374
-252,603,-0.114929,0.194,0.00726098,0.0029912,-0.000276716,0.00727884,0.00297334,-0.0644488,0.00422583,0.0336878,972,421,-0.114952,-0.194011
-245,603,-0.0455322,0.0835571,0.00655931,0.00339854,0.000756769,0.00673115,0.0032267,0.223293,0.00388734,0.0265816,979,421,-0.0455211,-0.083557
-238,603,-0.0359497,0.073761,0.00619708,0.00326261,0.00182877,0.00707446,0.00238524,0.447325,0.00415602,0.0157746,986,421,-0.0359557,-0.0737521
-231,603,-0.0440063,0.0697327,0.00577922,0.00300539,0.00267373,0.00740434,0.00138026,0.546143,0.00454652,0.0101048,993,421,-0.044007,-0.0697446
-224,603,-0.0460815,0.0577393,0.00525113,0.00292504,0.00346004,0.00773837,0.000437803,0.623262,0.00501935,0.0113196,1000,421,-0.0460555,-0.0577435
-217,603,-0.0338135,0.0702209,0.00462625,0.00282007,0.00375853,0.00758867,-0.000142349,0.667495,0.00510722,0.0110191,1007,421,-0.0337945,-0.0702248
-210,603,-0.0360718,0.0832214,0.00411486,0.00261347,0.00369198,0.00713169,-0.000403367,0.6851,0.00489446,0.00939368,1014,421,-0.0360689,-0.0832317
-203,603,-0.0337524,0.0794678,0.00386724,0.00231022,0.00368575,0.0068558,-0.000678343,0.681317,0.00481261,0.0156384,1021,421,-0.0337687,-0.0794698
-196,603,-0.00476074,0.0544434,0.00341888,0.00201,0.00383596,0.00661455,-0.00118567,0.694589,0.00485344,0.0160237,1028,421,-0.00470261,-0.0544341
-189,603,-0.0090332,0.0614319,0.00292123,0.00189716,0.00352638,0.00597255,-0.00115416,0.713302,0.00441698,0.0121354,1035,421,-0.00905569,-0.0614393
-182,603,-0.0367432,0.0509644,0.00240787,0.00165591,0.00305749,0.00511241,-0.00104864,0.724221,0.00380628,0.00907009,1042,421,-0.0367824,-0.050966
-175,603,-0.0357666,0.0511475,0.00180061,0.00165679,0.00239964,0.00412942,-0.000672015,0.770419,0.00300213,0.00978469,1049,421,-0.0357993,-0.0511365
-168,603,-0.0371094,0.0887756,0.00156741,0.0019471,0.00190765,0.00367433,-0.000159814,0.834994,0.00250452,0.0126406,1056,421,-0.0370981,-0.0887794
-161,603,-0.0444336,0.072937,0.00130019,0.00215414,0.00148922,0.00327639,0.00017794,0.925008,0.00212743,0.011992,1063,421,-0.0443761,-0.0729487
-154,603,-0.0513916,0.0482788,0.000843154,0.00253583,0.000869722,0.00290304,0.000475942,1.17128,0.00179784,0.0111821,1070,421,-0.0513568,-0.0482684
-147,603,-0.0394287,0.0559998,0.000695236,0.00287379,0.0003821,0.00293886,0.000630162,1.40211,0.00178662,0.0117914,1077,421,-0.0394261,-0.0559923
-140,603,-0.0306396,0.0689697,0.00065771,0.00330927,5.5637e-05,0.00331044,0.000656544,1.54983,0.00202392,0.00992693,1084,421,-0.0305909,-0.0689605
-133,603,-0.0412598,0.0627441,0.000504566,0.00327451,-0.000358049,0.00332004,0.000459032,-1.4443,0.00207732,0.0103375,1091,421,-0.041317,-0.0627495
-126,603,-0.0384521,0.0680237,0.00025359,0.00297032,-0.000659952,0.00312215,0.000101759,-1.34467,0.00204836,0.00932355,1098,421,-0.0384192,-0.0680364
-119,603,-0.00305176,0.0646667,8.45533e-05,0.00217617,-0.000789377,0.00244064,-0.000179917,-1.24751,0.00169026,0.00955846,1105,421,-0.00306433,-0.0646754
-112,603,-0.0285645,0.0631409,-1.51208e-05,0.00157049,-0.000676988,0.00182021,-0.000264838,-1.21742,0.0013107,0.0137045,1112,421,-0.0286004,-0.0631512
-105,603,-0.0369873,0.0499878,-0.000149639,0.000687932,-0.000474033,0.000901672,-0.000363379,-1.1472,0.000752095,0.0128106,1119,421,-0.0370346,-0.0499789
-98,603,-0.0291748,0.0609131,-0.000419123,-0.000228733,-0.000318977,8.95088e-06,-0.000656807,-0.930411,0.000440885,0.0100056,1126,421,-0.0291711,-0.0608991
-91,603,-0.0168457,0.0793152,-0.000876728,-0.0011658,-3.35381e-05,-0.000872888,-0.00116964,-0.114,0.000702071,0.00752285,1133,421,-0.0169013,-0.0793162
-84,603,-0.0142822,0.0617676,-0.00116363,-0.0020646,0.000565642,-0.000891008,-0.00233722,0.449124,0.00136203,0.00788915,1140,421,-0.0142503,-0.0617604
-77,603,-0.0203857,0.0402222,-0.00106212,-0.00305772,0.00130072,-0.000420572,-0.00369927,0.458216,0.00233863,0.00799127,1147,421,-0.020418,-0.0402325
-70,603,-0.0213623,0.0456543,-0.000849517,-0.00387545,0.00183255,1.39244e-05,-0.00473889,0.440318,0.00316391,0.00909912,1154,421,-0.0213556,-0.0456506
-63,603,-0.0201416,0.0617065,-0.000312907,-0.00496887,0.00236265,0.000675981,-0.00595775,0.396395,0.00421527,0.00948673,1161,421,-0.0201387,-0.0617174
-56,603,-0.0341797,0.0654907,0.000294189,-0.00564385,0.00263726,0.00129634,-0.006646,0.363146,0.00492004,0.0102918,1168,421,-0.0341743,-0.0654935
-49,603,-0.0266113,0.0532532,0.000692588,-0.0060582,0.00286531,0.00174475,-0.00711036,0.351922,0.00541632,0.0109809,1175,421,-0.0266079,-0.0532673
-42,603,-0.0306396,0.0675049,0.00100333,-0.006358,0.00285653,0.00198174,-0.00733642,0.329995,0.00566821,0.0135645,1182,421,-0.0305946,-0.0674952
-35,603,-0.0402832,0.0767517,0.00159787,-0.00631355,0.00252092,0.00233286,-0.00704854,0.283693,0.00563983,0.0131291,1189,421,-0.0402451,-0.0767609
-28,603,-0.0800781,0.0703125,0.00245025,-0.00638574,0.0025426,0.00312966,-0.00706514,0.261109,0.00603038,0.0146516,1196,421,-0.0801265,-0.0703027
-21,603,-0.0722656,0.0756226,0.00278789,-0.00630109,0.00257067,0.00346458,-0.00697778,0.257396,0.00614158,0.0170389,1203,421,-0.0722889,-0.0756223
-14,603,-0.0264893,0.0799866,0.00228298,-0.00640924,0.00260797,0.00300542,-0.00713167,0.270235,0.0060121,0.0188539,1210,421,-0.0265492,-0.0799768
-7,603,0.00146484,0.0740967,0.00260582,-0.00656582,0.0022931,0.00314718,-0.00710719,0.231841,0.00606573,0.0205993,1217,421,0.00140983,-0.074087
0,603,-0.0323486,0.0468445,0.00405233,-0.00727612,0.00214545,0.00444504,-0.00766882,0.181036,0.00707601,0.0240274,1224,421,-0.032387,-0.0468344
7,603,-0.110596,0.0758972,0.00503177,-0.00667696,0.00104737,0.00512472,-0.00676991,0.088516,0.00688923,0.0288467,1231,421,-0.110625,-0.0759091
14,603,-0.0633545,0.0759888,0.00480381,-0.00553574,0.000425303,0.00482127,-0.00555321,0.0410412,0.00599467,0.0240115,1238,421,-0.0633182,-0.0759932
21,603,-0.0244141,0.0631104,0.0046236,-0.00435568,0.000309485,0.00463426,-0.00436633,0.0344121,0.00519726,0.0179074,1245,421,-0.0243665,-0.0631164
28,603,0.00671387,0.083252,0.0051031,-0.00326218,0.000366265,0.00511911,-0.00327819,0.0436725,0.00488686,0.0222226,1252,421,0.00673667,-0.0832588
35,603,0.0324707,0.0492859,0.00594227,-0.00165875,0.000921027,0.00605228,-0.00176876,0.11888,0.00473585,0.0315159,1259,421,0.0325012,-0.0492873
42,603,-0.010498,0.045166,0.00885837,-9.15509e-05,0.00175917,0.00919173,-0.000424912,0.187278,0.00627425,0.0273954,1266,421,-0.0105526,-0.0451552
49,603,-0.0323486,0.0453491,0.01145,0.00105342,0.00400111,0.0128115,-0.000308106,0.327995,0.00864552,0.0144226,1273,421,-0.0323297,-0.0453578
56,603,-0.0689697,0.0416565,0.013235,0.00183229,0.00590914,0.0157448,-0.000677522,0.401646,0.0107295,0.0250089,1280,421,-0.0689665,-0.041655
63,603,-0.142944,-0.0671387,0.015837,0.00236723,0.00808307,0.0196233,-0.00141904,0.438066,0.0135799,0.0359214,1287,421,-0.142893,0.0671244
70,603,-0.167236,-0.0769653,0.0182712,0.00229051,0.0104531,0.0234381,-0.00287636,0.459071,0.0166671,0.0419996,1294,421,-0.167245,0.0769784
77,603,-0.214233,-0.0651855,0.0205921,0.00249927,0.012508,0.0269822,-0.00389091,0.472319,0.0194155,0.0438516,1301,421,-0.214208,0.0651718
84,603,-0.320801,-0.0548096,0.0230225,0.0017937,0.0145252,0.0303984,-0.00558212,0.469863,0.0223598,0.0437177,1308,421,-0.320757,0.0548204
91,603,-0.154907,0.0577087,0.0254495,0.00102555,0.0159779,0.0333479,-0.00687278,0.459101,0.0248418,0.0439673,1315,421,-0.154933,-0.0577065
98,603,0.206299,0.0466614,0.0263572,-0.000547558,0.0172735,0.0347987,-0.00898905,0.454563,0.0267046,0.0419656,1322,421,0.206343,-0.0466487
105,603,0.0599365,-0.00183105,0.0263552,-0.00210021,0.0178717,0.034971,-0.010716,0.449218,0.0275887,0.037189,1329,421,0.0599442,0.00182057
112,603,0.0377197,0.0335693,0.0267162,-0.00464047,0.0187841,0.0355053,-0.0134295,0.437638,0.0291951,0.030295,1336,421,0.0377531,-0.0335744
119,603,-0.0196533,0.0590515,0.0274238,-0.00644217,0.0177495,0.0350218,-0.0140402,0.404469,0.0291766,0.0321001,1343,421,-0.0196625,-0.0590391
126,603,0.0345459,0.0474548,0.0270013,-0.00721452,0.0159474,0.0332814,-0.0134946,0.375152,0.0277999,0.0383393,1350,421,0.0345666,-0.0474582
133,603,-0.0357666,0.030426,0.0248009,-0.00724644,0.0139723,0.0300371,-0.0124826,0.358557,0.0252366,0.0321661,1357,421,-0.0358236,-0.0304348
140,603,-0.0194092,0.0316467,0.0222644,-0.00734249,0.012151,0.0266127,-0.0116908,0.343654,0.022667,0.0204385,1364,421,-0.0193899,-0.0316393
147,603,-0.0045166,0.0494995,0.0182216,-0.00689029,0.0105302,0.0220528,-0.0107215,0.348939,0.0192955,0.0158272,1371,421,-0.00447055,-0.0495068
154,603,-0.027832,0.0582581,0.0155084,-0.00636327,0.00831921,0.0183131,-0.00916795,0.325166,0.0161564,0.025029,1378,421,-0.027829,-0.0582486
161,603,-0.0476074,0.0674133,0.0139874,-0.00541012,0.00707756,0.0162952,-0.00771793,0.315203,0.0141557,0.0290536,1385,421,-0.0475873,-0.0674186
168,603,-0.0480957,0.074646,0.011474,-0.00416312,0.00585039,0.0134205,-0.00610965,0.321197,0.0115361,0.025583,1392,421,-0.0481303,-0.0746529
175,603,-0.0288086,0.0767822,0.00907507,-0.00322359,0.00467801,0.0106522,-0.00480072,0.325168,0.00913246,0.0201626,1399,421,-0.0288459,-0.0767673
182,603,-0.0115967,0.0474243,0.0070431,-0.00221839,0.00368218,0.00832862,-0.00350391,0.335891,0.00701827,0.015752,1406,421,-0.011593,-0.0474295
189,603,-0.0151367,0.0554504,0.00526561,-0.000966532,0.00265084,0.0062406,-0.00194153,0.35245,0.00493653,0.0118187,1413,421,-0.0150891,-0.0554609
196,603,-0.0294189,0.0613403,0.00362955,4.11587e-05,0.00189045,0.00444168,-0.000770971,0.405758,0.00324875,0.0122931,1420,421,-0.0294275,-0.0613508
203,603,-0.0268555,0.0596313,0.00227038,0.000931663,0.00122223,0.00299454,0.000207508,0.534878,0.00193091,0.00859868,1427,421,-0.0268706,-0.0596287
210,603,-0.0285645,0.0762024,0.00157259,0.0016299,0.000703627,0.00230545,0.000897031,0.805749,0.00134192,0.00856233,1434,421,-0.028576,-0.0762089
217,603,-0.0373535,0.0782166,0.00164722,0.00176382,0.000485761,0.00219476,0.00121627,0.845123,0.00126962,0.0119377,1441,421,-0.0374019,-0.0782129
224,603,-0.0560303,0.0795593,0.00152431,0.00171349,0.000523371,0.00215075,0.00108705,0.874799,0.00124176,0.0151086,1448,421,-0.0560041,-0.0795593
231,603,-0.0628662,0.0770874,0.00140047,0.00167099,0.00053311,0.00208573,0.000985726,0.909639,0.0012048,0.012713,1455,421,-0.0629086,-0.0770976
238,603,-0.0533447,0.0700073,0.00134881,0.00177918,0.000596968,0.00219856,0.000929429,0.958381,0.00127438,0.00944549,1462,421,-0.0533632,-0.0700074
245,603,-0.0568848,0.0550537,0.00131019,0.00180094,0.000698112,0.00229555,0.000815589,0.954396,0.00134371,0.0101141,1469,421,-0.0569213,-0.055054
252,603,-0.0487061,0.0489502,0.00128639,0.00174437,0.000821439,0.00236814,0.000662623,0.921331,0.00141075,0.00933936,1476,421,-0.04866,-0.0489489
259,603,-0.0336914,0.0559387,0.00128241,0.00156555,0.00091282,0.00234771,0.000500248,0.862329,0.00142791,0.0096473,1483,421,-0.0336594,-0.0559377
266,603,-0.0443115,0.0588379,0.00111256,0.00125134,0.00107042,0.00225462,0.000109282,0.817765,0.00146801,0.0110315,1490,421,-0.0443257,-0.0588279
273,603,-0.0395508,0.0553284,0.00101604,0.000820834,0.00127364,0.00219581,-0.000358934,0.747156,0.00159702,0.00965486,1497,421,-0.0395258,-0.0553384
280,603,-0.0257568,0.0651855,0.00111996,0.000491552,0.00152339,0.00236122,-0.000749701,0.683697,0.0018747,0.0105048,1504,421,-0.0257162,-0.0651872
287,603,-0.0217285,0.0829468,0.00114415,0.000131391,0.00149064,0.00221207,-0.000936529,0.62166,0.00186691,0.0105019,1511,421,-0.0217706,-0.0829416
294,603,-0.0445557,0.0708008,0.00131786,-0.00022774,0.0014578,0.00219503,-0.00110491,0.541675,0.00193957,0.00970874,1518,421,-0.0445115,-0.0708001
301,603,-0.0463867,0.0559387,0.00155863,-0.000560673,0.00149957,0.00233516,-0.0013372,0.477815,0.00214618,0.0113967,1525,421,-0.0463777,-0.0559281
308,603,-0.010498,0.0515747,0.0017362,-0.000668461,0.00145149,0.00241866,-0.00135092,0.439506,0.00220528,0.0155498,1532,421,-0.0105244,-0.0515831
315,603,-0.0189209,0.0487671,0.00177788,-0.000339278,0.00136436,0.00244617,-0.00100757,0.455469,0.00205087,0.0135187,1539,421,-0.0189343,-0.0487817
322,603,-0.0177002,0.0632019,0.00185404,0.000303785,0.00114811,0.00246419,-0.00030636,0.488477,0.00175385,0.0127434,1546,421,-0.017692,-0.0631877
329,603,-0.0397949,0.0778809,0.00200573,0.00103664,0.000976851,0.00261161,0.000430762,0.555167,0.00161673,0.0100793,1553,421,-0.0398551,-0.0778946
336,603,-0.0457764,0.0746765,0.00190896,0.00145875,0.00109447,0.00280124,0.000566474,0.683973,0.00171023,0.00921269,1560,421,-0.0457271,-0.0746744
343,603,-0.0340576,0.0516357,0.00175435,0.00181368,0.00105925,0.00284368,0.000724345,0.799397,0.00170638,0.0105078,1567,421,-0.0340952,-0.0516469
350,603,-0.0192871,0.0411682,0.00166976,0.00225987,0.00118009,0.00318123,0.0007484,0.907899,0.00192059,0.0109196,1574,421,-0.0192343,-0.0411689
357,603,-0.0194092,0.0681458,0.00137369,0.0023395,0.00150708,0.00343915,0.000274043,0.940442,0.0022071,0.0104196,1581,421,-0.019357,-0.0681423
364,603,-0.0341797,0.0656433,0.000689605,0.00220185,0.00203416,0.00361587,-0.000724416,0.963341,0.00268483,0.012116,1588,421,-0.034225,-0.0656404
371,603,-0.00720215,0.059082,7.72009e-05,0.00201738,0.00262625,0.00384698,-0.00175239,0.962317,0.00330734,0.017477,1595,421,-0.00726224,-0.0590956
378,603,0.0731201,0.0105896,-0.000359598,0.00125057,0.00316,0.00370643,-0.00281546,0.910131,0.00377711,0.0267781,1602,421,0.0730805,-0.0105982
385,603,0.0668945,-0.0802917,-0.000691645,-0.000206777,0.00375777,0.00331637,-0.00421479,0.817611,0.00435842,0.0387048,1609,421,0.0668599,0.0802931
392,603,-0.0683594,0.013855,-0.000684582,-0.00225297,0.00500725,0.0035995,-0.00653706,0.707723,0.0059337,0.0426068,1616,421,-0.0684054,-0.0138495
399,603,-0.163818,0.0600891,-0.000342484,-0.00329382,0.00613514,0.00449196,-0.00812827,0.667376,0.00738643,0.044157,1623,421,-0.163809,-0.0600779
406,603,-0.174561,0.289307,0.000305796,-0.00532542,0.00717253,0.00519556,-0.0102152,0.598363,0.00905336,0.0421273,1630,421,-0.174564,-0.2893
413,603,-0.345581,0.515472,0.000556354,-0.00660853,0.00773553,0.00549872,-0.0115509,0.568545,0.0100482,0.0402975,1637,421,-0.345609,-0.515459
420,603,-0.487915,0.772583,0.00101491,-0.00982015,0.00744776,0.00480709,-0.0136123,0.470957,0.0110321,0.0446186,1644,421,-0.487972,-0.772585
427,603,-0.602783,1.0192,0,0,0,0,0,0,0,-1,1651,421,-0.60278,-1.01921
434,603,-0.319702,0.563232,0,0,0,0,0,0,0,-1,1658,421,-0.319759,-0.563238
441,603,0.562134,-0.529114,0,0,0,0,0,0,0,-1,1665,421,0.562088,0.529127
448,603,0.693359,-0.355469,0,0,0,0,0,0,0,-1,1672,421,0.69341,0.355475
455,603,0,0,0,0,0,0,0,0,0,-1,1679,421,0,0
462,603,0,0,0,0,0,0,0,0,0,-1,1686,421,0,0
469,603,0,0,0,0,0,0,0,0,0,-1,1693,421,0,0
476,603,0,0,0,0,0,0,0,0,0,-1,1700,421,0,0
483,603,0,0,0,0,0,0,0,0,0,-1,1707,421,0,0
490,603,0,0,0,0,0,0,0,0,0,-1,1714,421,0,0
497,603,0,0,0,0,0,0,0,0,0,-1,1721,421,0,0
504,603,0,0,0,0,0,0,0,0,0,-1,1728,421,0,0
511,603,0,0,0,0,0,0,0,0,0,-1,1735,421,0,0
518,603,0,0,0,0,0,0,0,0,0,-1,1742,421,0,0
525,603,0,0,0,0,0,0,0,0,0,-1,1749,421,0,0
532,603,0,0,0,0,0,0,0,0,0,-1,1756,421,0,0
539,603,0,0,0,0,0,0,0,0,0,-1,1763,421,0,0
546,603,0,0,0,0,0,0,0,0,0,-1,1770,421,0,0
553,603,0,0,0,0,0,0,0,0,0,-1,1777,421,0,0
560,603,0,0,0,0,0,0,0,0,0,-1,1784,421,0,0
567,603,0,0,0,0,0,0,0,0,0,-1,1791,421,0,0
574,603,0,0,0,0,0,0,0,0,0,-1,1798,421,0,0
581,603,0,0,0,0,0,0,0,0,0,-1,1805,421,0,0
588,603,0,0,0,0,0,0,0,0,0,-1,1812,421,0,0
595,603,0,0,0,0,0,0,0,0,0,-1,1819,421,0,0
602,603,0,0,0,0,0,0,0,0,0,-1,1826,421,0,0
609,603,0,0,0,0,0,0,0,0,0,-1,1833,421,0,0
616,603,0,0,0,0,0,0,0,0,0,-1,1840,421,0,0
623,603,0,0,0,0,0,0,0,0,0,-1,1847,421,0,0
630,603,0,0,0,0,0,0,0,0,0,-1,1854,421,0,0
637,603,0,0,0,0,0,0,0,0,0,-1,1861,421,0,0
644,603,0,0,0,0,0,0,0,0,0,-1,1868,421,0,0
651,603,0,0,0,0,0,0,0,0,0,-1,1875,421,0,0
658,603,0,0,0,0,0,0,0,0,0,-1,1882,421,0,0
665,603,0,0,0,0,0,0,0,0,0,-1,1889,421,0,0
672,603,0,0,0,0,0,0,0,0,0,-1,1896,421,0,0
679,603,0,0,0,0,0,0,0,0,0,-1,1903,421,0,0
686,603,0,0,0,0,0,0,0,0,0,-1,1910,421,0,0
693,603,0,0,0,0,0,0,0,0,0,-1,1917,421,0,0
700,603,0,0,0,0,0,0,0,0,0,-1,1924,421,0,0
707,603,0,0,0,0,0,0,0,0,0,-1,1931,421,0,0
714,603,0,0,0,0,0,0,0,0,0,-1,1938,421,0,0
721,603,0,0,0,0,0,0,0,0,0,-1,1945,421,0,0
728,603,0,0,0,0,0,0,0,0,0,-1,1952,421,0,0
735,603,0,0,0,0,0,0,0,0,0,-1,1959,421,0,0
742,603,0,0,0,0,0,0,0,0,0,-1,1966,421,0,0
749,603,0,0,0,0,0,0,0,0,0,-1,1973,421,0,0
756,603,0,0,0,0,0,0,0,0,0,-1,1980,421,0,0
763,603,0,0,0,0,0,0,0,0,0,-1,1987,421,0,0
770,603,0,0,0,0,0,0,0,0,0,-1,1994,421,0,0
777,603,0,0,0,0,0,0,0,0,0,-1,2001,421,0,0
784,603,0,0,0,0,0,0,0,0,0,-1,2008,421,0,0
791,603,0,0,0,0,0,0,0,0,0,-1,2015,421,0,0
798,603,0,0,0,0,0,0,0,0,0,-1,2022,421,0,0
805,603,0,0,0,0,0,0,0,0,0,-1,2029,421,0,0
812,603,0,0,0,0,0,0,0,0,0,-1,2036,421,0,0
-700,596,0,0,0,0,0,0,0,0,0,-1,524,428,0,0
-693,596,0,0,0,0,0,0,0,0,0,-1,531,428,0,0
-686,596,0,0,0,0,0,0,0,0,0,-1,538,428,0,0
-679,596,0,0,0,0,0,0,0,0,0,-1,545,428,0,0
-672,596,0,0,0,0,0,0,0,0,0,-1,552,428,0,0
-665,596,0,0,0,0,0,0,0,0,0,-1,559,428,0,0
-658,596,0,0,0,0,0,0,0,0,0,-1,566,428,0,0
-651,596,0,0,0,0,0,0,0,0,0,-1,573,428,0,0
-644,596,0,0,0,0,0,0,0,0,0,-1,580,428,0,0
-637,596,0,0,0,0,0,0,0,0,0,-1,587,428,0,0
-630,596,0,0,0,0,0,0,0,0,0,-1,594,428,0,0
-623,596,0,0,0,0,0,0,0,0,0,-1,601,428,0,0
-616,596,0,0,0,0,0,0,0,0,0,-1,608,428,0,0
-609,596,0,0,0,0,0,0,0,0,0,-1,615,428,0,0
-602,596,0,0,0,0,0,0,0,0,0,-1,622,428,0,0
-595,596,0,0,0,0,0,0,0,0,0,-1,629,428,0,0
-588,596,0,0,0,0,0,0,0,0,0,-1,636,428,0,0
-581,596,0,0,0,0,0,0,0,0,0,-1,643,428,0,0
-574,596,0,0,0,0,0,0,0,0,0,-1,650,428,0,0
-567,596,0,0,0,0,0,0,0,0,0,-1,657,428,0,0
-560,596,0,0,0,0,0,0,0,0,0,-1,664,428,0,0
-553,596,0,0,0,0,0,0,0,0,0,-1,671,428,0,0
-546,596,0,0,0,0,0,0,0,0,0,-1,678,428,0,0
-539,596,0,0,0,0,0,0,0,0,0,-1,685,428,0,0
-532,596,0,0,0,0,0,0,0,0,0,-1,692,428,0,0
-525,596,0,0,0,0,0,0,0,0,0,-1,699,428,0,0
-518,596,0,0,0,0,0,0,0,0,0,-1,706,428,0,0
-511,596,0,0,0,0,0,0,0,0,0,-1,713,428,0,0
-504,596,0,0,0,0,0,0,0,0,0,-1,720,428,0,0
-497,596,0,0,0,0,0,0,0,0,0,-1,727,428,0,0
-490,596,0,0,0,0,0,0,0,0,0,-1,734,428,0,0
-483,596,0,0,0,0,0,0,0,0,0,-1,741,428,0,0
-476,596,0,0,0,0,0,0,0,0,0,-1,748,428,0,0
-469,596,0,0,0,0,0,0,0,0,0,-1,755,428,0,0
-462,596,0,0,0,0,0,0,0,0,0,-1,762,428,0,0
-455,596,0,0,0,0,0,0,0,0,0,-1,769,428,0,0
-448,596,0,0,0,0,0,0,0,0,0,-1,776,428,0,0
-441,596,0,0,0,0,0,0,0,0,0,-1,783,428,0,0
-434,596,0,0,0,0,0,0,0,0,0,-1,790,428,0,0
-427,596,0,0,0,0,0,0,0,0,0,-1,797,428,0,0
-420,596,0,0,0,0,0,0,0,0,0,-1,804,428,0,0
-413,596,0,0,0,0,0,0,0,0,0,-1,811,428,0,0
-406,596,0,0,0,0,0,0,0,0,0,-1,818,428,0,0
-399,596,0,0,0,0,0,0,0,0,0,-1,825,428,0,0
-392,596,0,0,0,0,0,0,0,0,0,-1,832,428,0,0
-385,596,0,0,0,0,0,0,0,0,0,-1,839,428,0,0
-378,596,0,0,0,0,0,0,0,0,0,-1,846,428,0,0
-371,596,0,0,0,0,0,0,0,0,0,-1,853,428,0,0
-364,596,0,0,0,0,0,0,0,0,0,-1,860,428,0,0
-357,596,0,0,0,0,0,0,0,0,0,-1,867,428,0,0
-350,596,0,0,0,0,0,0,0,0,0,-1,874,428,0,0
-343,596,0,0,0,0,0,0,0,0,0,-1,881,428,0,0
-336,596,0.175537,0.582367,0,0,0,0,0,0,0,-1,888,428,0.175554,-0.582367
-329,596,0.30249,1.54501,0,0,0,0,0,0,0,-1,895,428,0.302464,-1.54501
-322,596,-0.0291138,2.17068,0,0,0,0,0,0,0,-1,902,428,-0.0291411,-2.17068
-315,596,0.107666,2.70825,0,0,0,0,0,0,0,-1,909,428,0.107637,-2.70827
-308,596,-0.545593,-0.516815,0.00651873,-0.0356998,-0.0226539,0.016374,-0.045555,-0.410339,0.0370542,0.0441816,916,428,-0.545621,0.516824
-301,596,-0.234741,-0.351807,0.00701496,-0.0298761,-0.0217579,0.0170939,-0.039955,-0.433802,0.0338072,0.0448032,923,428,-0.23476,0.351794
-294,596,-0.250427,0.335754,0,0,0,0,0,0,0,-1,930,428,-0.250446,-0.335768
-287,596,-0.315308,0.330963,0.00724864,-0.0176137,-0.0168727,0.0157751,-0.0261401,-0.46791,0.0244452,0.0480748,937,428,-0.315284,-0.330952
-280,596,-0.325806,0.0932312,0.00746564,-0.011537,-0.0129348,0.0140137,-0.0180851,-0.468626,0.0185819,0.046858,944,428,-0.325789,-0.093218
-273,596,-0.28009,-0.162781,0.0064357,-0.00842831,-0.0112679,0.0125018,-0.0144945,-0.49386,0.0156005,0.0401427,951,428,-0.280114,0.162795
-266,596,-0.0554199,-0.290344,0.0056317,-0.00535064,-0.00827338,0.0100704,-0.00978931,-0.49242,0.0114664,0.0378158,958,428,-0.0554466,0.290346
-259,596,0.214722,0.169678,0.00579767,0.00104586,-0.00337266,0.00754726,-0.000703729,-0.478542,0.00528173,0.0318069,965,428,0.214733,-0.16969
-252,596,-0.0273438,0.0766296,0.00534813,0.00211419,-0.00139982,0.00586987,0.00159245,-0.356771,0.00350516,0.0136805,972,428,-0.0273343,-0.076629
-245,596,-0.0393677,0.0723572,0.00482845,0.00240295,-0.000500946,0.00492784,0.00230356,-0.19586,0.0028471,0.0099954,979,428,-0.0393481,-0.0723538
-238,596,-0.0519409,0.0716858,0.00461848,0.00211359,0.000413064,0.00468484,0.00204724,0.159287,0.00271194,0.00970879,986,428,-0.0519324,-0.0716998
-231,596,-0.0386963,0.0556335,0.0043683,0.00188476,0.00115054,0.00481938,0.00143369,0.373641,0.00285753,0.0110481,993,428,-0.0386995,-0.0556339
-224,596,-0.0297241,0.0578003,0.00401994,0.00182752,0.00182108,0.00504929,0.000798169,0.514469,0.0031342,0.0123334,1000,428,-0.0296963,-0.057793
-217,596,-0.0249023,0.0413513,0.00358024,0.00175866,0.00209854,0.00495712,0.000381786,0.580659,0.00318512,0.0134069,1007,428,-0.0248953,-0.0413444
-210,596,-0.0263062,0.0494995,0.00318385,0.00163677,0.00204644,0.00459807,0.000222554,0.604703,0.00299395,0.0102725,1014,428,-0.0263133,-0.0494867
-203,596,-0.0515747,0.0738525,0.00300786,0.00135379,0.00206246,0.00440293,-4.1276e-05,0.594718,0.00294914,0.0126834,1021,428,-0.0515508,-0.0738472
-196,596,-0.0236816,0.0509949,0.00274798,0.00109718,0.00223084,0.00430122,-0.000456058,0.608211,0.00303096,0.0130406,1028,428,-0.0237281,-0.0509873
-189,596,-0.0233154,0.049469,0.0025213,0.00102354,0.00196146,0.00387198,-0.000327139,0.603041,0.00269699,0.00982879,1035,428,-0.0232955,-0.0494713
-182,596,-0.0344238,0.0516357,0.00226659,0.000909853,0.00156833,0.00329698,-0.000120536,0.581278,0.00223924,0.00974735,1042,428,-0.0344539,-0.0516491
-175,596,-0.0245361,0.0515137,0.00203398,0.000987204,0.00110671,0.00273482,0.000286365,0.564521,0.00173565,0.0120485,1049,428,-0.0245909,-0.0515042
-168,596,-0.024292,0.074707,0.00183171,0.0013165,0.000684079,0.00230508,0.000843129,0.605323,0.00134673,0.0153662,1056,428,-0.0242917,-0.0747007
-161,596,-0.0303955,0.0770264,0.00159215,0.00163735,0.000275038,0.00189072,0.00133879,0.826389,0.00112267,0.0140277,1063,428,-0.0304369,-0.0770253
-154,596,-0.0458984,0.0527649,0.00140014,0.00211355,-0.000205783,0.00216865,0.00134504,-1.30917,0.00126408,0.011224,1070,428,-0.0458787,-0.0527555
-147,596,-0.034668,0.0621033,0.00148956,0.00244308,-0.000479189,0.00264228,0.00129036,-1.17683,0.00152566,0.0114833,1077,428,-0.0347208,-0.0620902
-140,596,-0.0325928,0.0752869,0.00157719,0.00296292,-0.000530893,0.00314293,0.00139718,-1.24389,0.00181829,0.0118012,1084,428,-0.0326235,-0.0752734
-133,596,-0.0395508,0.0680847,0.00145166,0.00307967,-0.000683603,0.00332864,0.00120269,-1.22152,0.00194628,0.0123796,1091,428,-0.0395678,-0.068094
-126,596,-0.0316162,0.0748291,0.00111713,0.00269603,-0.000779384,0.00301594,0.000797226,-1.18131,0.00180457,0.0099406,1098,428,-0.0315656,-0.0748154
-119,596,0.0222168,0.0531921,0.000844251,0.00166763,-0.000715034,0.00208102,0.000430857,-1.0466,0.00126836,0.0127609,1105,428,0.0222613,-0.0531943
-112,596,-0.00561523,0.0648804,0.000704601,0.000850924,-0.00045634,0.00123993,0.000315595,-0.864883,0.000744076,0.0135843,1112,428,-0.00556189,-0.0648881
-105,596,-0.0461426,0.0670471,0.000530546,-0.000280595,-6.97039e-05,0.000536492,-0.000286541,-0.0851018,0.000482428,0.012975,1119,428,-0.0461913,-0.0670389
-98,596,-0.0317383,0.0750427,0.000138281,-0.00146137,0.000206914,0.000164612,-0.0014877,0.126574,0.00105098,0.00895989,1126,428,-0.0317485,-0.0750548
-91,596,-0.024292,0.0751343,-0.000515468,-0.00247601,0.000607639,-0.000342415,-0.00264906,0.27745,0.00166369,0.00859401,1133,428,-0.0242951,-0.0751362
-84,596,-0.0289307,0.0511475,-0.000937798,-0.00346842,0.00138901,-0.000324183,-0.00408203,0.415984,0.00261999,0.0120339,1140,428,-0.0289683,-0.0511435
-77,596,-0.0267334,0.033844,-0.000814744,-0.00458735,0.00228258,0.000260088,-0.00566218,0.440085,0.0038644,0.0126423,1147,428,-0.026778,-0.0338472
-70,596,-0.020874,0.0467834,-0.000591071,-0.00549708,0.00287306,0.000733714,-0.00682187,0.432051,0.00481117,0.0128004,1154,428,-0.0208647,-0.046778
-63,596,-0.00915527,0.0801392,2.3725e-05,-0.0067619,0.0034666,0.00148153,-0.0082197,0.398078,0.00603457,0.0175591,1161,428,-0.00914157,-0.0801509
-56,596,-0.038208,0.0726929,0.000673719,-0.00758757,0.00377837,0.00214114,-0.00905499,0.370443,0.00686263,0.0205158,1168,428,-0.0381737,-0.0726884
-49,596,-0.0756836,0.0637512,0.00100347,-0.00810467,0.00405063,0.00254425,-0.00964545,0.363479,0.00742513,0.0225896,1175,428,-0.0756596,-0.0637468
-42,596,-0.0351563,0.0812988,0.00123093,-0.00849847,0.00407209,0.00271031,-0.00997784,0.34847,0.00771567,0.0259007,1182,428,-0.035185,-0.0813022
-35,596,-0.0435791,0.0808105,0.00184219,-0.00862975,0.00370188,0.00301865,-0.00980621,0.307707,0.0077424,0.0284264,1189,428,-0.0435343,-0.0807974
-28,596,-0.156982,0.103912,0.00275894,-0.00899276,0.00380999,0.00388606,-0.0101199,0.28763,0.00834905,0.0346493,1196,428,-0.156984,-0.103916
-21,596,-0.185547,0.161835,0.00302601,-0.00926261,0.0040145,0.00422123,-0.0104578,0.28937,0.00872621,0.0392541,1203,428,-0.185539,-0.161847
-14,596,-0.183838,0.11377,0.00218189,-0.00979603,0.00425946,0.00354212,-0.0111563,0.309108,0.00885753,0.045449,1210,428,-0.183895,-0.113765
-7,596,-0.212891,0.0390015,0.00231882,-0.0104737,0.00400266,0.00346798,-0.0116228,0.279581,0.00912689,0.048282,1217,428,-0.212944,-0.0389946
0,596,-0.20813,0.0136414,0,0,0,0,0,0,0,-1,1224,428,-0.20817,-0.013656
7,596,0.695068,-0.759155,0,0,0,0,0,0,0,-1,1231,428,0.69508,0.759144
14,596,-0.473267,0.280487,0.00519172,-0.0107228,0.00187751,0.00541022,-0.0109413,0.115856,0.00961889,0.039858,1238,428,-0.473225,-0.280476
21,596,-0.269165,0.231384,0.00504051,-0.00974419,0.00176478,0.00524824,-0.00995192,0.117172,0.00891478,0.0396164,1245,428,-0.269109,-0.231381
28,596,-0.210449,0.348145,0.00592465,-0.00877186,0.00183833,0.00615111,-0.00899832,0.122571,0.00879787,0.0411841,1252,428,-0.210503,-0.348144
35,596,-0.43689,-0.0456238,0.00740057,-0.00698368,0.00250061,0.00782289,-0.007406,0.167307,0.0087935,0.0428121,1259,428,-0.436945,0.0456207
42,596,0.0222168,-0.466614,0.0113407,-0.00505794,0.00349447,0.0120543,-0.00577154,0.201439,0.0105026,0.0447582,1266,428,0.0221885,0.466625
49,596,0.319214,-0.221375,0.0148952,-0.00355187,0.00622204,0.0167976,-0.00545432,0.296732,0.013392,0.0411289,1273,428,0.319218,0.221371
56,596,0.0310059,-0.134308,0.0175679,-0.00237894,0.00852397,0.0207142,-0.00552525,0.353599,0.015973,0.0405347,1280,428,0.03102,0.134318
63,596,-0.178589,-0.59491,0.0211093,-0.00146681,0.0111583,0.0256935,-0.00605102,0.38981,0.0194621,0.0434187,1287,428,-0.178604,0.594899
70,596,-0.346436,-0.772186,0.0242766,-0.00125432,0.0141104,0.030539,-0.00751673,0.417699,0.0232731,0.0460622,1294,428,-0.346453,0.772197
77,596,-0.29187,-0.207947,0.0272805,-0.000601616,0.0165913,0.0350102,-0.00833138,0.435991,0.0265565,0.0490514,1301,428,-0.291846,0.207933
84,596,-0.356323,-0.167358,0.0304685,-0.00110786,0.019041,0.0394155,-0.0100548,0.439261,0.0301919,0.0472171,1308,428,-0.356358,0.167345
91,596,-0.464844,-0.142303,0,0,0,0,0,0,0,-1,1315,428,-0.464826,0.142309
98,596,0.466675,-0.0220032,0,0,0,0,0,0,0,-1,1322,428,0.466681,0.0219919
105,596,0.116089,-0.0544434,0,0,0,0,0,0,0,-1,1329,428,0.116093,0.0544504
112,596,-0.326416,0.00143433,0.0354908,-0.00763796,0.0239823,0.0461781,-0.0183253,0.419218,0.0383809,0.0405673,1336,428,-0.326421,-0.00144866
119,596,-0.180542,0.0121765,0.0364417,-0.00950436,0.0224685,0.0456026,-0.0186653,0.387148,0.0381761,0.0436915,1343,428,-0.180529,-0.0121912
126,596,0.145386,-0.053772,0.0358297,-0.0100072,0.0200094,0.0433355,-0.0175129,0.358868,0.03617,0.049349,1350,428,0.145389,0.0537716
133,596,-0.0273438,0.110931,0.032721,-0.00957136,0.0174003,0.0389597,-0.0158101,0.344262,0.0325493,0.0453554,1357,428,-0.0273517,-0.110924
140,596,0.915039,0.1521,0,0,0,0,0,0,0,-1,1364,428,0.915097,-0.15209
147,596,0.760132,0.335419,0,0,0,0,0,0,0,-1,1371,428,0.760088,-0.335425
154,596,-0.0355225,0.0110779,0.020246,-0.00768358,0.0103352,0.0236545,-0.0110921,0.318563,0.0204933,0.04499,1378,428,-0.0355237,-0.0110669
161,596,-0.30542,0.209625,0.0179803,-0.00633105,0.00875978,0.0208078,-0.0091585,0.312219,0.0177315,0.0432855,1385,428,-0.305428,-0.209621
168,596,-0.160156,0.0901794,0.0145956,-0.00468937,0.00723507,0.0170082,-0.00710191,0.321857,0.0143063,0.0362973,1392,428,-0.1601,-0.0901696
175,596,-0.0606689,-0.000244141,0.0114185,-0.00347676,0.00577013,0.0133922,-0.00545046,0.32958,0.0111963,0.0239914,1399,428,-0.0606507,0.000252673
182,596,-0.0432129,0.013092,0.00876681,-0.00219761,0.00451472,0.0103865,-0.00381732,0.34446,0.00848792,0.0207211,1406,428,-0.0431537,-0.0130923
189,596,-0.0682373,0.0455627,0.00648796,-0.000605387,0.00317923,0.00770431,-0.00182174,0.365411,0.00583896,0.0190905,1413,428,-0.0682924,-0.0455582
196,596,-0.0435791,0.0618286,0.00438996,0.000670039,0.00222196,0.00542768,-0.00036768,0.436925,0.00374703,0.0180874,1420,428,-0.0436169,-0.0618385
203,596,0.0032959,0.059906,0.00265645,0.00172691,0.00138101,0.0036488,0.000734555,0.623079,0.00222841,0.0125006,1427,428,0.00334858,-0.0598975
210,596,-0.0283203,0.0783997,0.00174693,0.00253876,0.000687795,0.00293645,0.00134924,1.04655,0.00169722,0.0106052,1434,428,-0.0283211,-0.0783908
217,596,-0.0426025,0.080719,0.00182878,0.00266525,0.000369271,0.00280494,0.00168909,1.20915,0.00163067,0.00988239,1441,428,-0.0426107,-0.0807186
224,596,-0.0437012,0.070343,0.00168338,0.00248107,0.000443828,0.00267893,0.00148551,1.15143,0.00154974,0.00996821,1448,428,-0.0436669,-0.0703524
231,596,-0.043335,0.0671997,0.00150522,0.00229953,0.000497393,0.00253887,0.00126588,1.1223,0.00146582,0.010089,1455,428,-0.043315,-0.0672111
238,596,-0.045166,0.0616455,0.00142569,0.00221748,0.000647979,0.00258093,0.00106224,1.05962,0.00149785,0.0125443,1462,428,-0.045112,-0.0616363
245,596,-0.0391846,0.052948,0.00138727,0.0021419,0.000878057,0.00272028,0.000808894,0.988328,0.00161298,0.0119838,1469,428,-0.0391899,-0.0529561
252,596,-0.0279541,0.049469,0.00138376,0.00196612,0.00113195,0.00284374,0.000506141,0.911287,0.00175166,0.00945369,1476,428,-0.0279363,-0.0494811
259,596,-0.0281982,0.0503235,0.00136315,0.00173892,0.00142477,0.00298814,0.000113929,0.850955,0.00195523,0.00803338,1483,428,-0.0281417,-0.0503148
266,596,-0.0534668,0.055481,0.00113097,0.0013842,0.0017758,0.00303789,-0.000522724,0.820988,0.00222011,0.00919644,1490,428,-0.0535103,-0.055467
273,596,-0.0482178,0.0609436,0.000935338,0.000962642,0.0020998,0.00304884,-0.00115086,0.788649,0.00250588,0.011095,1497,428,-0.0482392,-0.0609517
280,596,-0.034668,0.0598755,0.000888488,0.000642538,0.0023337,0.00310245,-0.00157142,0.759075,0.0027463,0.0115026,1504,428,-0.0347014,-0.0598857
287,596,-0.0241699,0.0662537,0.000744541,0.000262332,0.0022272,0.00274365,-0.00173678,0.731481,0.00260846,0.0106137,1511,428,-0.0241344,-0.0662538
294,596,-0.0483398,0.0613403,0.000762016,-6.65536e-05,0.00211069,0.00249869,-0.00180323,0.68849,0.00249451,0.00873953,1518,428,-0.0483184,-0.0613312
301,596,-0.041748,0.0539856,0.000881737,-0.00037363,0.00202685,0.00237587,-0.00186777,0.63524,0.00245591,0.00949635,1525,428,-0.0416922,-0.0539841
308,596,-0.00927734,0.0455627,0.000887458,-0.000447051,0.0018034,0.00214309,-0.00170268,0.608209,0.0022252,0.0141026,1532,428,-0.00925567,-0.045572
315,596,-0.0379639,0.0415649,0.000705863,-0.000156102,0.00154517,0.00187903,-0.00132927,0.649393,0.00186135,0.0138546,1539,428,-0.0379399,-0.0415618
322,596,-0.0408936,0.0694275,0.000570232,0.00030117,0.00116261,0.00160607,-0.000734664,0.727797,0.00138228,0.0118772,1546,428,-0.0408745,-0.0694358
329,596,-0.0472412,0.0708923,0.000575069,0.000795656,0.000838999,0.00153158,-0.000160855,0.850752,0.00107868,0.00977229,1553,428,-0.0472489,-0.0708982
336,596,-0.057251,0.0593872,0.00049376,0.00096931,0.000810518,0.00157621,-0.00011314,0.928076,0.00109048,0.00944311,1560,428,-0.0572382,-0.0593735
343,596,-0.0377197,0.0469971,0.000405344,0.00103671,0.000687963,0.00147796,-3.59076e-05,1.0005,0.00099749,0.0110756,1567,428,-0.0376826,-0.0470101
350,596,-0.015625,0.0507813,0.000423426,0.00114517,0.000751817,0.00161824,-4.96429e-05,1.00916,0.00109575,0.0110172,1574,428,-0.0156607,-0.0507732
357,596,-0.0164795,0.0625,0.000307112,0.00101988,0.00106105,0.0017828,-0.000455806,0.947418,0.00136606,0.008721,1581,428,-0.0164471,-0.0625113
364,596,-0.0256348,0.053833,-8.67603e-05,0.000705126,0.00151892,0.00187886,-0.0012605,0.912898,0.00182419,0.00774181,1588,428,-0.0255996,-0.0538195
371,596,-0.0184326,0.0644836,-0.000384507,0.000428932,0.00204989,0.00211206,-0.00206764,0.883331,0.00241319,0.00809722,1595,428,-0.0184565,-0.0644988
378,596,-0.0170898,0.0805969,-0.000475266,-0.000258221,0.00254677,0.00218234,-0.00291582,0.806691,0.00295356,0.0116402,1602,428,-0.0171349,-0.0805884
385,596,-0.0274658,0.0813599,-0.000440978,-0.00135098,0.00314876,0.00228549,-0.00407745,0.713644,0.00372189,0.0213525,1609,428,-0.0274464,-0.0813685
392,596,-0.06604,0.124207,-0.000318656,-0.00289998,0.00418178,0.00276711,-0.00598575,0.635716,0.0051661,0.0323784,1616,428,-0.0659822,-0.124204
399,596,-0.129395,0.145721,0.000128307,-0.00334702,0.00498406,0.00366893,-0.00688764,0.617665,0.00618855,0.0374566,1623,428,-0.129402,-0.145715
406,596,-0.0931396,0.387909,0.000844405,-0.00467376,0.00569463,0.00441315,-0.0082425,0.55981,0.0074174,0.0400793,1630,428,-0.0930945,-0.387895
413,596,-0.118896,0.688812,0,0,0,0,0,0,0,-1,1637,428,-0.118895,-0.688816
420,596,-0.355103,0.347046,0.00171925,-0.00769381,0.00547579,0.00423323,-0.0102078,0.430402,0.00857207,0.0415982,1644,428,-0.35508,-0.347058
427,596,0.0343018,0.00628662,0.00312433,-0.0093375,0.00571466,0.0053481,-0.0115613,0.371104,0.00997989,0.0458271,1651,428,0.0342798,-0.00628902
434,596,0.271484,-0.241364,0.00385307,-0.0104172,0.00522173,0.00555969,-0.0121238,0.315887,0.0104414,0.0449043,1658,428,0.271513,0.241365
441,596,0.623169,-0.43988,0.00465341,-0.00859748,0.00460948,0.00609914,-0.0100432,0.303925,0.00941206,0.0485168,1665,428,0.623141,0.439886
448,596,0.712646,-0.349945,0,0,0,0,0,0,0,-1,1672,428,0.712622,0.34996
455,596,0.526855,-0.0166931,0,0,0,0,0,0,0,-1,1679,428,0.526841,0.0167064
462,596,0,0,0,0,0,0,0,0,0,-1,1686,428,0,0
469,596,0,0,0,0,0,0,0,0,0,-1,1693,428,0,0
476,596,0,0,0,0,0,0,0,0,0,-1,1700,428,0,0
483,596,0,0,0,0,0,0,0,0,0,-1,1707,428,0,0
490,596,0,0,0,0,0,0,0,0,0,-1,1714,428,0,0
497,596,0,0,0,0,0,0,0,0,0,-1,1721,428,0,0
504,596,0,0,0,0,0,0,0,0,0,-1,1728,428,0,0
511,596,0,0,0,0,0,0,0,0,0,-1,1735,428,0,0
518,596,0,0,0,0,0,0,0,0,0,-1,1742,428,0,0
525,596,0,0,0,0,0,0,0,0,0,-1,1749,428,0,0
532,596,0,0,0,0,0,0,0,0,0,-1,1756,428,0,0
539,596,0,0,0,0,0,0,0,0,0,-1,1763,428,0,0
546,596,0,0,0,0,0,0,0,0,0,-1,1770,428,0,0
553,596,0,0,0,0,0,0,0,0,0,-1,1777,428,0,0
560,596,0,0,0,0,0,0,0,0,0,-1,1784,428,0,0
567,596,0,0,0,0,0,0,0,0,0,-1,1791,428,0,0
574,596,0,0,0,0,0,0,0,0,0,-1,1798,428,0,0
581,596,0,0,0,0,0,0,0,0,0,-1,1805,428,0,0
588,596,0,0,0,0,0,0,0,0,0,-1,1812,428,0,0
595,596,0,0,0,0,0,0,0,0,0,-1,1819,428,0,0
602,596,0,0,0,0,0,0,0,0,0,-1,1826,428,0,0
609,596,0,0,0,0,0,0,0,0,0,-1,1833,428,0,0
616,596,0,0,0,0,0,0,0,0,0,-1,1840,428,0,0
623,596,0,0,0,0,0,0,0,0,0,-1,1847,428,0,0
630,596,0,0,0,0,0,0,0,0,0,-1,1854,428,0,0
637,596,0,0,0,0,0,0,0,0,0,-1,1861,428,0,0
644,596,0,0,0,0,0,0,0,0,0,-1,1868,428,0,0
651,596,0,0,0,0,0,0,0,0,0,-1,1875,428,0,0
658,596,0,0,0,0,0,0,0,0,0,-1,1882,428,0,0
665,596,0,0,0,0,0,0,0,0,0,-1,1889,428,0,0
672,596,0,0,0,0,0,0,0,0,0,-1,1896,428,0,0
679,596,0,0,0,0,0,0,0,0,0,-1,1903,428,0,0
686,596,0,0,0,0,0,0,0,0,0,-1,1910,428,0,0
693,596,0,0,0,0,0,0,0,0,0,-1,1917,428,0,0
700,596,0,0,0,0,0,0,0,0,0,-1,1924,428,0,0
707,596,0,0,0,0,0,0,0,0,0,-1,1931,428,0,0
714,596,0,0,0,0,0,0,0,0,0,-1,1938,428,0,0
721,596,0,0,0,0,0,0,0,0,0,-1,1945,428,0,0
728,596,0,0,0,0,0,0,0,0,0,-1,1952,428,0,0
735,596,0,0,0,0,0,0,0,0,0,-1,1959,428,0,0
742,596,0,0,0,0,0,0,0,0,0,-1,1966,428,0,0
749,596,0,0,0,0,0,0,0,0,0,-1,1973,428,0,0
756,596,0,0,0,0,0,0,0,0,0,-1,1980,428,0,0
763,596,0,0,0,0,0,0,0,0,0,-1,1987,428,0,0
770,596,0,0,0,0,0,0,0,0,0,-1,1994,428,0,0
777,596,0,0,0,0,0,0,0,0,0,-1,2001,428,0,0
784,596,0,0,0,0,0,0,0,0,0,-1,2008,428,0,0
791,596,0,0,0,0,0,0,0,0,0,-1,2015,428,0,0
798,596,0,0,0,0,0,0,0,0,0,-1,2022,428,0,0
805,596,0,0,0,0,0,0,0,0,0,-1,2029,428,0,0
812,596,0,0,0,0,0,0,0,0,0,-1,2036,428,0,0
-700,589,0,0,0,0,0,0,0,0,0,-1,524,435,0,0
-693,589,0,0,0,0,0,0,0,0,0,-1,531,435,0,0
-686,589,0,0,0,0,0,0,0,0,0,-1,538,435,0,0
-679,589,0,0,0,0,0,0,0,0,0,-1,545,435,0,0
-672,589,0,0,0,0,0,0,0,0,0,-1,552,435,0,0
-665,589,0,0,0,0,0,0,0,0,0,-1,559,435,0,0
-658,589,0,0,0,0,0,0,0,0,0,-1,566,435,0,0
-651,589,0,0,0,0,0,0,0,0,0,-1,573,435,0,0
-644,589,0,0,0,0,0,0,0,0,0,-1,580,435,0,0
-637,589,0,0,0,0,0,0,0,0,0,-1,587,435,0,0
-630,589,0,0,0,0,0,0,0,0,0,-1,594,435,0,0
-623,589,0,0,0,0,0,0,0,0,0,-1,601,435,0,0
-616,589,0,0,0,0,0,0,0,0,0,-1,608,435,0,0
-609,589,0,0,0,0,0,0,0,0,0,-1,615,435,0,0
-602,589,0,0,0,0,0,0,0,0,0,-1,622,435,0,0
-595,589,0,0,0,0,0,0,0,0,0,-1,629,435,0,0
-588,589,0,0,0,0,0,0,0,0,0,-1,636,435,0,0
-581,589,0,0,0,0,0,0,0,0,0,-1,643,435,0,0
-574,589,0,0,0,0,0,0,0,0,0,-1,650,435,0,0
-567,589,0,0,0,0,0,0,0,0,0,-1,657,435,0,0
-560,589,0,0,0,0,0,0,0,0,0,-1,664,435,0,0
-553,589,0,0,0,0,0,0,0,0,0,-1,671,435,0,0
-546,589,0,0,0,0,0,0,0,0,0,-1,678,435,0,0
-539,589,0,0,0,0,0,0,0,0,0,-1,685,435,0,0
-532,589,0,0,0,0,0,0,0,0,0,-1,692,435,0,0
-525,589,0,0,0,0,0,0,0,0,0,-1,699,435,0,0
-518,589,0,0,0,0,0,0,0,0,0,-1,706,435,0,0
-511,589,0,0,0,0,0,0,0,0,0,-1,713,435,0,0
-504,589,0,0,0,0,0,0,0,0,0,-1,720,435,0,0
-497,589,0,0,0,0,0,0,0,0,0,-1,727,435,0,0
-490,589,0,0,0,0,0,0,0,0,0,-1,734,435,0,0
-483,589,0,0,0,0,0,0,0,0,0,-1,741,435,0,0
-476,589,0,0,0,0,0,0,0,0,0,-1,748,435,0,0
-469,589,0,0,0,0,0,0,0,0,0,-1,755,435,0,0
-462,589,0,0,0,0,0,0,0,0,0,-1,762,435,0,0
-455,589,0,0,0,0,0,0,0,0,0,-1,769,435,0,0
-448,589,0,0,0,0,0,0,0,0,0,-1,776,435,0,0
-441,589,0,0,0,0,0,0,0,0,0,-1,783,435,0,0
-434,589,0,0,0,0,0,0,0,0,0,-1,790,435,0,0
-427,589,0,0,0,0,0,0,0,0,0,-1,797,435,0,0
-420,589,0,0,0,0,0,0,0,0,0,-1,804,435,0,0
-413,589,0,0,0,0,0,0,0,0,0,-1,811,435,0,0
-406,589,0,0,0,0,0,0,0,0,0,-1,818,435,0,0
-399,589,0,0,0,0,0,0,0,0,0,-1,825,435,0,0
-392,589,0,0,0,0,0,0,0,0,0,-1,832,435,0,0
-385,589,0,0,0,0,0,0,0,0,0,-1,839,435,0,0
-378,589,0,0,0,0,0,0,0,0,0,-1,846,435,0,0
-371,589,0,0,0,0,0,0,0,0,0,-1,853,435,0,0
-364,589,0,0,0,0,0,0,0,0,0,-1,860,435,0,0
-357,589,0,0,0,0,0,0,0,0,0,-1,867,435,0,0
-350,589,-0.0698242,-0.388397,0,0,0,0,0,0,0,-1,874,435,-0.0698364,0.388406
-343,589,-0.228943,0.110901,0,0,0,0,0,0,0,-1,881,435,-0.228949,-0.110914
-336,589,-0.134766,0.329651,0,0,0,0,0,0,0,-1,888,435,-0.134736,-0.32966
-329,589,-0.213257,1.07526,0.00422474,-0.0152868,-0.00692938,0.00643523,-0.0174973,-0.308797,0.014301,0.0423017,895,435,-0.213256,-1.07524
-322,589,-0.257996,1.76279,0.00348709,-0.0180021,-0.0106207,0.00785025,-0.0223653,-0.389798,0.0181035,0.0420181,902,435,-0.258024,-1.76279
-315,589,-0.0929565,2.29382,0,0,0,0,0,0,0,-1,909,435,-0.0929726,-2.29381
-308,589,-0.275391,-0.089447,0,0,0,0,0,0,0,-1,916,435,-0.275369,0.0894522
-301,589,-0.0830688,0.638763,0,0,0,0,0,0,0,-1,923,435,-0.0830654,-0.638765
-294,589,-0.182129,0.191711,0,0,0,0,0,0,0,-1,930,435,-0.182128,-0.191714
-287,589,-0.151855,0.145966,0.00561769,-0.0107859,-0.0129746,0.0127654,-0.0179336,-0.503538,0.0178076,0.0432518,937,435,-0.151861,-0.145979
-280,589,-0.141541,0.0681152,0.00540337,-0.00727699,-0.0105246,0.01135,-0.0132236,-0.514302,0.0142013,0.0310474,944,435,-0.141561,-0.0681133
-273,589,-0.0651245,0.0305176,0.0044431,-0.00571855,-0.00948401,0.0101215,-0.011397,-0.539489,0.012431,0.0181517,951,435,-0.0651251,-0.0305176
-266,589,-0.0296021,0.043396,0.0038783,-0.00407305,-0.00721964,0.00814454,-0.00833929,-0.533718,0.00951717,0.0155163,958,435,-0.0296185,-0.0433837
-259,589,-0.0404053,0.0690918,0.00391035,0.00038953,-0.00347429,0.00604478,-0.0017449,-0.550903,0.00472024,0.013448,965,435,-0.0403965,-0.0690806
-252,589,-0.0418091,0.0722046,0.00353256,0.00111007,-0.00191345,0.00458592,5.67117e-05,-0.503227,0.00303855,0.00859368,972,435,-0.0417901,-0.0721894
-245,589,-0.0327759,0.075592,0.00315728,0.00130833,-0.00118558,0.00373622,0.000729396,-0.454257,0.00228679,0.00838306,979,435,-0.0327637,-0.0755771
-238,589,-0.0330811,0.062439,0.00305115,0.00100171,-0.000450502,0.0031458,0.000907051,-0.2071,0.00186969,0.0120509,986,435,-0.0330763,-0.0624462
-231,589,-0.0147705,0.0657654,0.00293214,0.000820361,0.000148851,0.00294258,0.00080992,0.0700249,0.00175518,0.0131851,993,435,-0.014749,-0.065757
-224,589,-0.0247803,0.0651855,0.00273815,0.00077777,0.000635676,0.00292623,0.000589689,0.287669,0.00178699,0.0130111,1000,435,-0.0247955,-0.0651972
-217,589,-0.0305786,0.0410461,0.00244647,0.000764851,0.000862427,0.00281013,0.000401194,0.399045,0.00175504,0.013493,1007,435,-0.030556,-0.0410387
-210,589,-0.0293579,0.0385437,0.00212836,0.000740676,0.000811405,0.00250213,0.000366906,0.431671,0.00156023,0.0118398,1014,435,-0.0293336,-0.0385297
-203,589,-0.0442505,0.0445557,0.00201258,0.000516304,0.000846758,0.00239436,0.000134525,0.423577,0.00155334,0.00916173,1021,435,-0.0442726,-0.0445517
-196,589,-0.0438232,0.0413818,0.00193053,0.000313067,0.00099252,0.00240209,-0.000158491,0.44354,0.00165675,0.0115733,1028,435,-0.0437631,-0.0413734
-189,589,-0.0390625,0.0460205,0.00194316,0.000266561,0.000726212,0.00221397,-4.25195e-06,0.356939,0.0014774,0.0143541,1035,435,-0.0390647,-0.0460125
-182,589,-0.0236816,0.0614929,0.00195084,0.000307473,0.000362154,0.00202711,0.000231204,0.207566,0.00128131,0.0112009,1042,435,-0.0237321,-0.0614895
-175,589,-0.00598145,0.065979,0.00199684,0.000417056,1.34745e-05,0.00199696,0.000416941,0.00852848,0.00121638,0.0142337,1049,435,-0.00592749,-0.0659738
-168,589,-0.00390625,0.0574951,0.00185591,0.000779524,-0.000403379,0.0019903,0.000645135,-0.321592,0.00117255,0.0126237,1056,435,-0.00394958,-0.0574934
-161,589,-0.0194092,0.0595093,0.00166786,0.0012164,-0.000863176,0.00233433,0.000549927,-0.657506,0.00140915,0.0116394,1063,435,-0.0194376,-0.0595075
-154,589,-0.0366211,0.0471191,0.00171531,0.00177117,-0.00128867,0.00303221,0.000454274,-0.796234,0.00188835,0.0110533,1070,435,-0.0366429,-0.0471278
-147,589,-0.0354004,0.0447998,0.00203087,0.00207608,-0.00142763,0.00348128,0.000625667,-0.793314,0.00214296,0.0110527,1077,435,-0.0354477,-0.0448107
-140,589,-0.0280762,0.0555725,0.00224748,0.00267645,-0.00126497,0.00374499,0.00117894,-0.86938,0.00221106,0.0120326,1084,435,-0.028024,-0.0555681
-133,589,-0.0239258,0.0665588,0.00217551,0.00289716,-0.00120447,0.0037937,0.00127898,-0.930929,0.00222869,0.0122557,1091,435,-0.0239261,-0.0665528
-126,589,-0.0255127,0.0560303,0.00181369,0.00250217,-0.00113201,0.00334113,0.00097473,-0.933003,0.00198399,0.00937424,1098,435,-0.0255408,-0.0560452
-119,589,0.000610352,0.0381165,0.00150926,0.00130758,-0.000850598,0.00226497,0.000551865,-0.7264,0.00136377,0.0152167,1105,435,0.000635228,-0.0381171
-112,589,-0.0161133,0.0456238,0.0013827,0.000310121,-0.000418967,0.00152696,0.000165867,-0.331595,0.000967435,0.0163047,1112,435,-0.0160558,-0.045609
-105,589,-0.0385742,0.0717773,0.00121502,-0.00103726,0.000210844,0.00123459,-0.00105682,0.0925425,0.00132427,0.0157456,1119,435,-0.0385664,-0.0717843
-98,589,-0.0202637,0.0765991,0.000720707,-0.00244992,0.000697942,0.000867543,-0.00259675,0.20736,0.00208151,0.0169311,1126,435,-0.0202425,-0.0765947
-91,589,0.0285645,0.0727539,-8.75633e-05,-0.0035744,0.00131586,0.000353282,-0.00401524,0.323271,0.00280202,0.0202112,1133,435,0.0285123,-0.0727517
-84,589,0.0227051,0.0630188,-0.000621545,-0.0046927,0.00233288,0.000438987,-0.00575323,0.426675,0.00398987,0.0266229,1140,435,0.0227069,-0.0630277
-77,589,-0.0734863,0.127777,-0.000507919,-0.00598026,0.00343397,0.00114667,-0.00763485,0.449007,0.00551203,0.0310687,1147,435,-0.0734949,-0.127767
-70,589,-0.13147,0.154633,-0.000295913,-0.00702354,0.00416574,0.00169458,-0.00901403,0.445751,0.00664661,0.0361644,1154,435,-0.131512,-0.154642
-63,589,0.0255127,0.0258789,0.000394641,-0.00853272,0.00489547,0.00255592,-0.010694,0.415751,0.00811658,0.0391563,1161,435,0.0255302,-0.0258863
-56,589,0.00231934,0.0614624,0.00108903,-0.00959122,0.00529238,0.0032673,-0.0117695,0.390454,0.00913238,0.0401059,1168,435,0.00236301,-0.0614496
-49,589,-0.0471191,0.0124512,0.00137652,-0.0102822,0.00564225,0.0036599,-0.0125656,0.384545,0.00982688,0.0395754,1175,435,-0.0470893,-0.0124606
-42,589,-0.0334473,-0.191528,0.00160396,-0.0108256,0.00568905,0.00381467,-0.0130363,0.370631,0.010203,0.0384759,1182,435,-0.0334695,0.191526
-35,589,-0.196289,-0.00604248,0.00232028,-0.0112082,0.00526599,0.00412842,-0.0130163,0.330748,0.0103324,0.0395346,1189,435,-0.196295,0.00602759
-28,589,-0.336914,0.351349,0.00339719,-0.0119844,0.00548764,0.00515427,-0.0137415,0.309875,0.0112788,0.0400916,1196,435,-0.33693,-0.351337
-21,589,-0.362305,0.560089,0.00364917,-0.0127678,0.0059621,0.00558592,-0.0147046,0.314091,0.0121026,0.0405262,1203,435,-0.362305,-0.560076
-14,589,-0.326782,0.136658,0,0,0,0,0,0,0,-1,1210,435,-0.326722,-0.136668
-7,589,0.0928955,-0.311157,0.00236052,-0.0153792,0.00635622,0.00440285,-0.0174215,0.310893,0.0133267,0.0443082,1217,435,0.092842,0.311143
0,589,0.310913,-0.319855,0.00457095,-0.0178147,0.00639785,0.00627045,-0.0195142,0.259639,0.0155275,0.0465595,1224,435,0.310924,0.319856
7,589,0.407104,-0.878174,0.00648705,-0.0180101,0.00473684,0.00737108,-0.0188941,0.184506,0.0156431,0.0442859,1231,435,0.407088,0.878166
14,589,0.126465,-1.37253,0.0060982,-0.0176273,0.00396712,0.00674396,-0.0182731,0.161363,0.0149461,0.0456003,1238,435,0.126444,1.37253
21,589,0.484619,-1.12924,0.00590883,-0.0171123,0.00393708,0.00656354,-0.017767,0.164783,0.0145352,0.0433077,1245,435,0.484676,1.12925
28,589,0.580811,-0.746124,0.00725717,-0.0165143,0.00408854,0.00794071,-0.0171979,0.165654,0.0148382,0.0467867,1252,435,0.58083,0.746119
35,589,-0.742676,-0.509796,0.00943423,-0.0147381,0.0048686,0.010378,-0.0156819,0.191469,0.0151492,0.0428387,1259,435,-0.742632,0.509808
42,589,-0.197266,-0.880524,0.0143689,-0.0125349,0.00602744,0.0156575,-0.0138235,0.210625,0.0170319,0.0456353,1266,435,-0.197207,0.880531
49,589,0.71106,-0.199493,0.0188946,-0.0106937,0.00920071,0.0215223,-0.0133214,0.278189,0.0203019,0.0468541,1273,435,0.711025,0.199501
56,589,0.500366,-0.528992,0.0225713,-0.00906435,0.0118697,0.0265296,-0.0130226,0.321879,0.0232751,0.0430878,1280,435,0.500315,0.528983
63,589,0.255249,-0.81546,0.0271374,-0.00768447,0.0149463,0.0326728,-0.0132198,0.354687,0.027278,0.0439138,1287,435,0.255245,0.815458
70,589,0.26416,-0.628296,0.0311439,-0.00700947,0.0184729,0.0386223,-0.0144878,0.38466,0.0317009,0.0443646,1294,435,0.264198,0.6283
77,589,-0.297607,-0.358551,0,0,0,0,0,0,0,-1,1301,435,-0.297589,0.358549
84,589,-0.33252,-0.333801,0,0,0,0,0,0,0,-1,1308,435,-0.332546,0.333807
91,589,-3.3916,-0.708801,0.0433078,-0.00602216,0.0258906,0.0544015,-0.0171159,0.404818,0.0431205,0.0467447,1315,435,-3.39157,0.708813
98,589,0.216797,-0.299469,0.0451817,-0.00726683,0.0275598,0.0570002,-0.0190853,0.405112,0.0457099,0.0456181,1322,435,0.216738,0.299467
105,589,-2.31714,0.137146,0.0452811,-0.00859123,0.0281792,0.0573272,-0.0206374,0.403974,0.0466448,0.0436422,1329,435,-2.31713,-0.137157
112,589,-0.803833,0.0770569,0,0,0,0,0,0,0,-1,1336,435,-0.803858,-0.0770598
119,589,-0.552979,-0.0310059,0.047001,-0.0133615,0.027296,0.0575135,-0.023874,0.367621,0.0483085,0.0422879,1343,435,-0.552926,0.0310198
126,589,-0.304932,0.128174,0.0462571,-0.0133469,0.0240904,0.0547762,-0.021866,0.339905,0.045589,0.0482248,1350,435,-0.304891,-0.128171
133,589,0.0858154,0.302612,0.0421662,-0.012252,0.0207953,0.049203,-0.0192887,0.326288,0.0407816,0.0475724,1357,435,0.0857772,-0.302616
140,589,0.437134,0.475983,0.0375546,-0.0116853,0.0179132,0.0433818,-0.0175124,0.314502,0.0361993,0.0478099,1364,435,0.437182,-0.475985
147,589,0.568726,0.705322,0.0309311,-0.0102528,0.0153836,0.0360429,-0.0153646,0.320811,0.03047,0.0466769,1371,435,0.568669,-0.705324
154,589,0.929565,0.791046,0,0,0,0,0,0,0,-1,1378,435,0.929536,-0.791043
161,589,-0.545288,0.355835,0,0,0,0,0,0,0,-1,1385,435,-0.54532,-0.355834
168,589,-0.407715,0.141327,0.0184801,-0.00503434,0.00826419,0.021094,-0.00764824,0.306336,0.017189,0.0386455,1392,435,-0.407774,-0.141323
175,589,-0.130249,-0.0667419,0.014368,-0.00349543,0.00647665,0.0164691,-0.0055965,0.313696,0.0132451,0.0392605,1399,435,-0.130225,0.0667407
182,589,-0.0690918,-0.0108643,0.0109504,-0.00188037,0.00494253,0.0126335,-0.00356349,0.328221,0.00982792,0.0377208,1406,435,-0.0691494,0.0108685
189,589,-0.14978,0.0293274,0.00800014,0.00011001,0.00329181,0.00919312,-0.00108297,0.347687,0.00651979,0.0377285,1413,435,-0.149749,-0.0293376
196,589,-0.182129,0.00497437,0.00527333,0.00169856,0.0021755,0.00630153,0.000670356,0.441513,0.00399635,0.0347974,1420,435,-0.182103,-0.00497302
203,589,-0.164917,0.070282,0.00302823,0.00292181,0.00120058,0.00417677,0.00177327,0.763251,0.00242059,0.0310142,1427,435,-0.164951,-0.0702678
210,589,-0.136108,0.195404,0.00183435,0.00382083,0.000419638,0.00390584,0.00174934,1.37092,0.00225912,0.0250044,1434,435,-0.136136,-0.195406
217,589,-0.0803223,0.102905,0.00190229,0.0038012,0.000142474,0.00381183,0.00189166,1.49632,0.00220078,0.02097,1441,435,-0.0803677,-0.102914
224,589,-0.0324707,0.0346985,0.00170938,0.00342067,0.000336414,0.00348443,0.00164562,1.38349,0.00201277,0.0175888,1448,435,-0.0325036,-0.0347003
231,589,-0.0192871,0.0411377,0.00143796,0.00303642,0.000537133,0.00320015,0.00127424,1.27493,0.00186033,0.0149607,1455,435,-0.0193297,-0.0411524
238,589,-0.0134277,0.0402832,0.00127207,0.0027071,0.000883221,0.00312753,0.000851643,1.12652,0.00186705,0.0158597,1462,435,-0.0134595,-0.0402836
245,589,-0.0313721,0.072113,0.00120623,0.00248182,0.00135223,0.00333912,0.000348927,1.00576,0.00211937,0.0163239,1469,435,-0.0313671,-0.0721064
252,589,-0.0267334,0.0677185,0.00120968,0.00204184,0.00183475,0.00350709,-0.000255576,0.896901,0.00242774,0.0122868,1476,435,-0.0267003,-0.0677117
259,589,-0.036499,0.052063,0.00117602,0.00173882,0.00235034,0.00382454,-0.000909713,0.844978,0.00290088,0.00862256,1483,435,-0.0365477,-0.0520552
266,589,-0.0533447,0.0773621,0.000923936,0.00131809,0.00289935,0.00402706,-0.00178503,0.819332,0.00343783,0.00900989,1490,435,-0.0533141,-0.0773647
273,589,-0.0410156,0.0783386,0.000759513,0.00085279,0.00333602,0.0041425,-0.0025302,0.792388,0.00388979,0.0117623,1497,435,-0.0410313,-0.078339
280,589,-0.0291748,0.0624084,0.000740851,0.000535336,0.00357318,0.00421275,-0.00293657,0.771023,0.00414952,0.0125981,1504,435,-0.0292333,-0.0623973
287,589,-0.0268555,0.0571899,0.000549784,0.000111285,0.00337349,0.00371114,-0.00305007,0.752948,0.0039098,0.0109692,1511,435,-0.0268652,-0.0571837
294,589,-0.0513916,0.0607605,0.000593174,-0.000196664,0.00316037,0.0033832,-0.00298669,0.72324,0.00368004,0.00917042,1518,435,-0.0514483,-0.0607728
301,589,-0.0441895,0.0583801,0.000757825,-0.000493819,0.00295155,0.00314917,-0.00288517,0.68093,0.00348504,0.00882949,1525,435,-0.0441771,-0.0583851
308,589,-0.0269775,0.0583496,0.000735244,-0.00054916,0.0025579,0.00273033,-0.00254425,0.662407,0.00304591,0.00899307,1532,435,-0.0270342,-0.0583416
315,589,-0.0252686,0.0652466,0.000436924,-0.000297328,0.00209098,0.00219277,-0.00205317,0.698496,0.00245183,0.00981709,1539,435,-0.0252666,-0.0652542
322,589,-0.0179443,0.0625916,0.000171314,5.34056e-05,0.00150532,0.00161883,-0.00139411,0.765826,0.00174113,0.0108651,1546,435,-0.0179493,-0.0625845
329,589,-0.0269775,0.0731812,7.7494e-05,0.000356381,0.00101288,0.00123937,-0.000805491,0.853804,0.00118942,0.0101073,1553,435,-0.0270281,-0.0731732
336,589,-0.0411377,0.0671692,1.39672e-05,0.000354957,0.000798095,0.00100057,-0.000631641,0.89063,0.000950345,0.00944147,1560,435,-0.0410889,-0.0671802
343,589,-0.0373535,0.052887,-2.73159e-05,0.000270037,0.000542129,0.000683507,-0.000440786,0.919231,0.000654134,0.00992663,1567,435,-0.0373523,-0.0528897
350,589,-0.0466309,0.0617676,1.05496e-05,0.000223583,0.000512453,0.000640473,-0.00040634,0.887867,0.000609396,0.0146071,1574,435,-0.0466607,-0.0617701
357,589,-0.0321045,0.0625305,-3.57185e-05,5.19602e-05,0.000759992,0.000769376,-0.000753134,0.814208,0.000879038,0.012461,1581,435,-0.032092,-0.062519
364,589,-0.0246582,0.0626526,-0.000250746,-0.000279752,0.00110376,0.00083861,-0.00136911,0.778829,0.00128684,0.0100376,1588,435,-0.0246808,-0.0626661
371,589,-0.0234375,0.065033,-0.000396888,-0.000493222,0.00154327,0.00109897,-0.00198908,0.769798,0.0018074,0.01005,1595,435,-0.0234174,-0.0650246
378,589,-0.0181885,0.0626831,-0.000396644,-0.000980178,0.0019675,0.0013006,-0.00267743,0.711788,0.00234212,0.0113037,1602,435,-0.0182192,-0.0626818
385,589,-0.0135498,0.0620728,-0.000266892,-0.00172479,0.00248318,0.00159212,-0.0035838,0.642632,0.00306118,0.0131469,1609,435,-0.0134921,-0.0620695
392,589,-0.0213623,0.0777893,-6.15556e-05,-0.00280556,0.00333955,0.00217684,-0.00504396,0.590492,0.00427707,0.0147394,1616,435,-0.0214052,-0.0777998
399,589,-0.0426025,0.0969238,0.000441504,-0.00283184,0.00388456,0.0030201,-0.00541043,0.58602,0.00493215,0.0185925,1623,435,-0.0425712,-0.0969302
406,589,-0.03479,0.160461,0.00117912,-0.00362879,0.00435055,0.00374571,-0.00619538,0.532994,0.00579729,0.0341317,1630,435,-0.0347852,-0.160455
413,589,-0.114746,0.144409,0.0014948,-0.00396899,0.00437418,0.00392011,-0.00639429,0.50626,0.00601186,0.0390249,1637,435,-0.114787,-0.144414
420,589,0.0330811,-0.0386047,0,0,0,0,0,0,0,-1,1644,435,0.0330741,0.0386195
427,589,-0.00939941,0.24173,0.00353174,-0.00652802,0.0038822,0.00485569,-0.00785197,0.328663,0.00740444,0.0413537,1651,435,-0.00934447,-0.241735
434,589,0.239746,0.183594,0.00436385,-0.0068342,0.00329899,0.00526347,-0.00773382,0.266223,0.00754903,0.0424806,1658,435,0.239692,-0.183602
441,589,0.387695,0.170197,0.00524919,-0.00500463,0.00278179,0.00595525,-0.00571069,0.248567,0.00673583,0.046841,1665,435,0.387674,-0.17021
448,589,-0.713013,1.828,0,0,0,0,0,0,0,-1,1672,435,-0.713073,-1.82801
455,589,0.331787,-0.183411,0.00550265,-0.000908847,0.00189024,0.00601844,-0.00142464,0.266384,0.00456193,0.0449161,1679,435,0.331844,0.183414
462,589,0.162964,0.213562,0.00546631,0.00298607,0.00134532,0.00605589,0.0023965,0.413032,0.00352162,0.041397,1686,435,0.162937,-0.213568
469,589,-0.461304,-1.10455,0.00551015,0.00883946,0.00128192,0.00927585,0.00507376,1.24268,0.00536329,0.0453891,1693,435,-0.461348,1.10454
476,589,0,0,0,0,0,0,0,0,0,-1,1700,435,0,0
483,589,0,0,0,0,0,0,0,0,0,-1,1707,435,0,0
490,589,0,0,0,0,0,0,0,0,0,-1,1714,435,0,0
497,589,0,0,0,0,0,0,0,0,0,-1,1721,435,0,0
504,589,0,0,0,0,0,0,0,0,0,-1,1728,435,0,0
511,589,0,0,0,0,0,0,0,0,0,-1,1735,435,0,0
518,589,0,0,0,0,0,0,0,0,0,-1,1742,435,0,0
525,589,0,0,0,0,0,0,0,0,0,-1,1749,435,0,0
532,589,0,0,0,0,0,0,0,0,0,-1,1756,435,0,0
539,589,0,0,0,0,0,0,0,0,0,-1,1763,435,0,0
546,589,0,0,0,0,0,0,0,0,0,-1,1770,435,0,0
553,589,0,0,0,0,0,0,0,0,0,-1,1777,435,0,0
560,589,0,0,0,0,0,0,0,0,0,-1,1784,435,0,0
567,589,0,0,0,0,0,0,0,0,0,-1,1791,435,0,0
574,589,0,0,0,0,0,0,0,0,0,-1,1798,435,0,0
581,589,0,0,0,0,0,0,0,0,0,-1,1805,435,0,0
588,589,0,0,0,0,0,0,0,0,0,-1,1812,435,0,0
595,589,0,0,0,0,0,0,0,0,0,-1,1819,435,0,0
602,589,0,0,0,0,0,0,0,0,0,-1,1826,435,0,0
609,589,0,0,0,0,0,0,0,0,0,-1,1833,435,0,0
616,589,0,0,0,0,0,0,0,0,0,-1,1840,435,0,0
623,589,0,0,0,0,0,0,0,0,0,-1,1847,435,0,0
630,589,0,0,0,0,0,0,0,0,0,-1,1854,435,0,0
637,589,0,0,0,0,0,0,0,0,0,-1,1861,435,0,0
644,589,0,0,0,0,0,0,0,0,0,-1,1868,435,0,0
651,589,0,0,0,0,0,0,0,0,0,-1,1875,435,0,0
658,589,0,0,0,0,0,0,0,0,0,-1,1882,435,0,0
665,589,0,0,0,0,0,0,0,0,0,-1,1889,435,0,0
672,589,0,0,0,0,0,0,0,0,0,-1,1896,435,0,0
679,589,0,0,0,0,0,0,0,0,0,-1,1903,435,0,0
686,589,0,0,0,0,0,0,0,0,0,-1,1910,435,0,0
693,589,0,0,0,0,0,0,0,0,0,-1,1917,435,0,0
700,589,0,0,0,0,0,0,0,0,0,-1,1924,435,0,0
707,589,0,0,0,0,0,0,0,0,0,-1,1931,435,0,0
714,589,0,0,0,0,0,0,0,0,0,-1,1938,435,0,0
721,589,0,0,0,0,0,0,0,0,0,-1,1945,435,0,0
728,589,0,0,0,0,0,0,0,0,0,-1,1952,435,0,0
735,589,0,0,0,0,0,0,0,0,0,-1,1959,435,0,0
742,589,0,0,0,0,0,0,0,0,0,-1,1966,435,0,0
749,589,0,0,0,0,0,0,0,0,0,-1,1973,435,0,0
756,589,0,0,0,0,0,0,0,0,0,-1,1980,435,0,0
763,589,0,0,0,0,0,0,0,0,0,-1,1987,435,0,0
770,589,0,0,0,0,0,0,0,0,0,-1,1994,435,0,0
777,589,0,0,0,0,0,0,0,0,0,-1,2001,435,0,0
784,589,0,0,0,0,0,0,0,0,0,-1,2008,435,0,0
791,589,0,0,0,0,0,0,0,0,0,-1,2015,435,0,0
798,589,0,0,0,0,0,0,0,0,0,-1,2022,435,0,0
805,589,0,0,0,0,0,0,0,0,0,-1,2029,435,0,0
812,589,0,0,0,0,0,0,0,0,0,-1,2036,435,0,0
-700,582,0,0,0,0,0,0,0,0,0,-1,524,442,0,0
-693,582,0,0,0,0,0,0,0,0,0,-1,531,442,0,0
-686,582,0,0,0,0,0,0,0,0,0,-1,538,442,0,0
-679,582,0,0,0,0,0,0,0,0,0,-1,545,442,0,0
-672,582,0,0,0,0,0,0,0,0,0,-1,552,442,0,0
-665,582,0,0,0,0,0,0,0,0,0,-1,559,442,0,0
-658,582,0,0,0,0,0,0,0,0,0,-1,566,442,0,0
-651,582,0,0,0,0,0,0,0,0,0,-1,573,442,0,0
-644,582,0,0,0,0,0,0,0,0,0,-1,580,442,0,0
-637,582,0,0,0,0,0,0,0,0,0,-1,587,442,0,0
-630,582,0,0,0,0,0,0,0,0,0,-1,594,442,0,0
-623,582,0,0,0,0,0,0,0,0,0,-1,601,442,0,0
-616,582,0,0,0,0,0,0,0,0,0,-1,608,442,0,0
-609,582,0,0,0,0,0,0,0,0,0,-1,615,442,0,0
-602,582,0,0,0,0,0,0,0,0,0,-1,622,442,0,0
-595,582,0,0,0,0,0,0,0,0,0,-1,629,442,0,0
-588,582,0,0,0,0,0,0,0,0,0,-1,636,442,0,0
-581,582,0,0,0,0,0,0,0,0,0,-1,643,442,0,0
-574,582,0,0,0,0,0,0,0,0,0,-1,650,442,0,0
-567,582,0,0,0,0,0,0,0,0,0,-1,657,442,0,0
-560,582,0,0,0,0,0,0,0,0,0,-1,664,442,0,0
-553,582,0,0,0,0,0,0,0,0,0,-1,671,442,0,0
-546,582,0,0,0,0,0,0,0,0,0,-1,678,442,0,0
-539,582,0,0,0,0,0,0,0,0,0,-1,685,442,0,0
-532,582,0,0,0,0,0,0,0,0,0,-1,692,442,0,0
-525,582,0,0,0,0,0,0,0,0,0,-1,699,442,0,0
-518,582,0,0,0,0,0,0,0,0,0,-1,706,442,0,0
-511,582,0,0,0,0,0,0,0,0,0,-1,713,442,0,0
-504,582,0,0,0,0,0,0,0,0,0,-1,720,442,0,0
-497,582,0,0,0,0,0,0,0,0,0,-1,727,442,0,0
-490,582,0,0,0,0,0,0,0,0,0,-1,734,442,0,0
-483,582,0,0,0,0,0,0,0,0,0,-1,741,442,0,0
-476,582,0,0,0,0,0,0,0,0,0,-1,748,442,0,0
-469,582,0,0,0,0,0,0,0,0,0,-1,755,442,0,0
-462,582,0,0,0,0,0,0,0,0,0,-1,762,442,0,0
-455,582,0,0,0,0,0,0,0,0,0,-1,769,442,0,0
-448,582,0,0,0,0,0,0,0,0,0,-1,776,442,0,0
-441,582,0,0,0,0,0,0,0,0,0,-1,783,442,0,0
-434,582,0,0,0,0,0,0,0,0,0,-1,790,442,0,0
-427,582,0,0,0,0,0,0,0,0,0,-1,797,442,0,0
-420,582,0,0,0,0,0,0,0,0,0,-1,804,442,0,0
-413,582,0,0,0,0,0,0,0,0,0,-1,811,442,0,0
-406,582,0,0,0,0,0,0,0,0,0,-1,818,442,0,0
-399,582,0,0,0,0,0,0,0,0,0,-1,825,442,0,0
-392,582,0,0,0,0,0,0,0,0,0,-1,832,442,0,0
-385,582,0,0,0,0,0,0,0,0,0,-1,839,442,0,0
-378,582,0,0,0,0,0,0,0,0,0,-1,846,442,0,0
-371,582,0,0,0,0,0,0,0,0,0,-1,853,442,0,0
-364,582,0,0,0,0,0,0,0,0,0,-1,860,442,0,0
-357,582,-0.312805,-1.35321,0,0,0,0,0,0,0,-1,867,442,-0.312816,1.35322
-350,582,-0.480835,-0.983734,0,0,0,0,0,0,0,-1,874,442,-0.480831,0.983748
-343,582,-0.607483,-0.408173,0.00653958,0.00689993,0.00145865,0.00818949,0.00525002,0.846848,0.00479052,0.0437144,881,442,-0.607481,0.408161
-336,582,-0.42157,0.105835,0,0,0,0,0,0,0,-1,888,442,-0.42155,-0.105842
-329,582,-0.423035,0.76889,0.00206742,-0.00160599,-0.00236616,0.00322608,-0.00276464,-0.455357,0.00346216,0.0434039,895,442,-0.423018,-0.768889
-322,582,-0.432068,1.26389,0.0015497,-0.00474887,-0.00538441,0.0046382,-0.00783736,-0.520781,0.00728128,0.0426438,902,442,-0.432075,-1.26388
-315,582,-0.110168,0.133484,0,0,0,0,0,0,0,-1,909,442,-0.110146,-0.133487
-308,582,-0.0402832,0.184204,0.00310179,-0.00830632,-0.00954062,0.00851347,-0.013718,-0.515972,0.0129521,0.0448284,916,442,-0.0402868,-0.184214
-301,582,-0.0325928,0.380249,0.004102,-0.00792356,-0.0104278,0.0101263,-0.0139479,-0.523876,0.0139575,0.040195,923,442,-0.032597,-0.380238
-294,582,-0.18158,0.44104,0.00458325,-0.00701093,-0.0103035,0.0106085,-0.0130362,-0.529153,0.0136753,0.0372301,930,442,-0.181606,-0.441033
-287,582,-0.0933228,0.107666,0.00434426,-0.00571842,-0.00986084,0.0103832,-0.0117573,-0.549497,0.012791,0.0307461,937,442,-0.0932996,-0.107667
-280,582,-0.0428467,0.0767517,0.00405591,-0.00395034,-0.00850041,0.00944863,-0.00934307,-0.565336,0.0108495,0.0139346,944,442,-0.0428341,-0.0767436
-273,582,-0.0300903,0.071228,0.00318623,-0.00343535,-0.00789826,0.00843954,-0.00868866,-0.586933,0.00988932,0.00929344,951,442,-0.0301019,-0.0712335
-266,582,-0.0346069,0.0698547,0.00248135,-0.00279084,-0.00629911,0.0066737,-0.0069832,-0.587227,0.00788549,0.00899689,958,442,-0.034606,-0.0698639
-259,582,-0.0478516,0.0777283,0.00229415,0.00022773,-0.00351896,0.00492845,-0.00240657,-0.642605,0.0043175,0.0083555,965,442,-0.0478291,-0.0777294
-252,582,-0.0481567,0.0840454,0.00181441,0.000729455,-0.00232513,0.00365951,-0.00111564,-0.670793,0.0028844,0.00759848,972,442,-0.048183,-0.084059
-245,582,-0.0297241,0.0804138,0.00137701,0.000855332,-0.00172138,0.0028572,-0.000624859,-0.710206,0.00214366,0.0102731,979,442,-0.0297217,-0.080416
-238,582,-0.0350342,0.101379,0.00116684,0.0005734,-0.00104757,0.0019589,-0.00021866,-0.64739,0.00138459,0.0146873,986,442,-0.0350326,-0.101378
-231,582,-0.027771,0.069458,0.000985762,0.000354384,-0.000435155,0.00120768,0.000132468,-0.471592,0.000764797,0.0119841,993,442,-0.0277965,-0.0694562
-224,582,-0.0245972,0.0567627,0.000833575,0.000274898,4.10409e-05,0.000836574,0.000271899,0.0729391,0.000492757,0.00910149,1000,442,-0.0246121,-0.0567644
-217,582,-0.0314941,0.0639648,0.00060133,0.000216519,0.000371614,0.000827394,-9.54489e-06,0.546522,0.000554805,0.0103297,1007,442,-0.0314677,-0.063962
-210,582,-0.0238647,0.0608215,0.000327223,0.000142403,0.000480962,0.000724571,-0.000254946,0.690487,0.000586791,0.0106991,1014,442,-0.0238654,-0.0608181
-203,582,-0.0234985,0.0490417,0.000286997,-0.000175869,0.000687475,0.000780949,-0.000669821,0.623035,0.000838421,0.00943811,1021,442,-0.0234729,-0.0490545
-196,582,-0.0411377,0.0361633,0.000447807,-0.000457334,0.000915039,0.00101608,-0.0010256,0.555742,0.00117877,0.0144108,1028,442,-0.0411308,-0.0361501
-189,582,-0.0378418,0.0477905,0.000799224,-0.000625525,0.000681882,0.00107297,-0.000899275,0.381766,0.00114015,0.0198408,1035,442,-0.0378739,-0.0477785
-182,582,-0.0317383,0.0657349,0.00112339,-0.000609019,0.000316701,0.00117947,-0.000665099,0.175261,0.00107867,0.0139168,1042,442,-0.0316962,-0.0657292
-175,582,-0.0236816,0.0703735,0.00151533,-0.000596513,-5.13789e-05,0.00151658,-0.000597762,-0.0243098,0.00125855,0.0120351,1049,442,-0.0236291,-0.0703766
-168,582,-0.00500488,0.0649719,0.0015741,-0.000249442,-0.000640326,0.00177649,-0.000451827,-0.306129,0.00136018,0.0107768,1056,442,-0.00503489,-0.0649868
-161,582,-0.0262451,0.0682678,0.00162791,0.000251314,-0.00130281,0.00241307,-0.000533842,-0.542375,0.00181305,0.0121314,1063,442,-0.0262989,-0.0682615
-154,582,-0.0495605,0.0519409,0.00193456,0.000841038,-0.00186864,0.00333479,-0.000559192,-0.643072,0.00243112,0.0110328,1070,442,-0.0495703,-0.0519543
-147,582,-0.0389404,0.046936,0.0024883,0.00110581,-0.00206164,0.00397149,-0.000377385,-0.623643,0.002782,0.0100438,1077,442,-0.0388924,-0.0469499
-140,582,-0.0231934,0.0601807,0.00283248,0.00180776,-0.0018716,0.00426059,0.000379654,-0.651793,0.00272268,0.0101278,1084,442,-0.0231376,-0.0601933
-133,582,-0.0244141,0.0669556,0.00283785,0.00213629,-0.00177893,0.00430025,0.000673894,-0.688054,0.0026707,0.0112041,1091,442,-0.0243867,-0.0669469
-126,582,-0.0213623,0.0375671,0.00249624,0.00187642,-0.00165893,0.00387396,0.000498694,-0.693056,0.0024335,0.00991602,1098,442,-0.0213238,-0.0375565
-119,582,-0.0195313,0.038147,0.00211664,0.000519412,-0.00116596,0.00273127,-9.52143e-05,-0.485124,0.0018534,0.0139183,1105,442,-0.019558,-0.0381525
-112,582,-0.0401611,0.0510864,0.00199241,-0.00065549,-0.000525003,0.00209271,-0.000755784,-0.188761,0.00170389,0.0235168,1112,442,-0.0401806,-0.0510915
-105,582,-0.0374756,0.0709534,0.00185295,-0.00219522,0.000358165,0.0018844,-0.00222667,0.0875691,0.00237627,0.0329826,1119,442,-0.0375029,-0.0709606
-98,582,-0.0557861,0.0969238,0.00130817,-0.00381103,0.00107088,0.00152316,-0.00402602,0.198124,0.00331066,0.033942,1126,442,-0.0557967,-0.096914
-91,582,0.151245,0.176483,0.000387437,-0.00505069,0.00192537,0.00100009,-0.00566334,0.308071,0.0041493,0.0355824,1133,442,0.151197,-0.176479
-84,582,0.37439,0.410553,-0.000210618,-0.00627316,0.00322299,0.00118262,-0.0076664,0.408021,0.00554732,0.0371257,1140,442,0.374393,-0.410553
-77,582,-0.0654297,0.670166,-6.09695e-05,-0.00770069,0.00458719,0.00208856,-0.00985022,0.438209,0.00736242,0.0370986,1147,442,-0.065455,-0.670165
-70,582,-0.218506,0.288635,0.000163705,-0.00885955,0.00551533,0.00277764,-0.0114735,0.442583,0.00872354,0.0425711,1154,442,-0.218562,-0.288629
-63,582,-0.0528564,-0.087738,0.000949649,-0.0105962,0.00642709,0.00381583,-0.0134624,0.419483,0.010481,0.0444741,1161,442,-0.0528069,0.0877287
-56,582,0.205444,-0.106628,0,0,0,0,0,0,0,-1,1168,442,0.205488,0.106622
-49,582,0.0927734,-0.387054,0.00188812,-0.0127127,0.00742824,0.00500284,-0.0158274,0.397039,0.0125559,0.0434586,1175,442,0.0927384,0.387051
-42,582,0.0710449,-0.315674,0.00205362,-0.0134098,0.00755746,0.00513369,-0.0164899,0.387001,0.0130456,0.0383493,1182,442,0.0711028,0.315668
-35,582,0.0360107,-0.0417786,0.00281004,-0.014124,0.00715478,0.00542821,-0.0167422,0.350797,0.0133441,0.0410703,1189,442,0.0359879,0.0417795
-28,582,-0.154175,0.307465,0.00398057,-0.015465,0.00760907,0.00660406,-0.0180885,0.332021,0.0147613,0.0419839,1196,442,-0.154186,-0.307478
-21,582,-0.0778809,0.88974,0.00414583,-0.0169593,0.0085007,0.00714385,-0.0199574,0.33906,0.0162194,0.0431778,1203,442,-0.0778347,-0.889738
-14,582,0.442749,-0.674133,0.00243744,-0.0190276,0.00957329,0.00608667,-0.0226768,0.364186,0.0175032,0.0409082,1210,442,0.44274,0.674139
-7,582,0.352661,-0.423218,0.00199625,-0.0214808,0.00960464,0.00542486,-0.0249094,0.342875,0.018679,0.0440548,1217,442,0.352609,0.423207
0,582,0.359741,-0.378662,0.00463557,-0.0252345,0.00986399,0.00759895,-0.0281979,0.291846,0.0217781,0.0449849,1224,442,0.359755,0.378667
7,582,0.283447,-0.552765,0.00719228,-0.0262002,0.0079252,0.00897773,-0.0279856,0.221589,0.0222615,0.0439522,1231,442,0.283438,0.552763
14,582,0.344971,-0.735199,0.00663997,-0.0266126,0.00717092,0.00812047,-0.028093,0.203598,0.0219422,0.0458984,1238,442,0.344937,0.735188
21,582,0.387817,-0.76178,0.00642138,-0.0268715,0.00730709,0.00795453,-0.0284046,0.206817,0.022071,0.0437252,1245,442,0.387796,0.761779
28,582,0.324341,-0.738953,0.00840158,-0.0269154,0.00759304,0.00996486,-0.0284787,0.203046,0.0230374,0.0463504,1252,442,0.324333,0.738964
35,582,0.303223,-0.742279,0,0,0,0,0,0,0,-1,1259,442,0.303225,0.742279
42,582,-1.32813,-1.1908,0,0,0,0,0,0,0,-1,1266,442,-1.32814,1.1908
49,582,0.798706,-0.613312,0,0,0,0,0,0,0,-1,1273,442,0.798645,0.613318
56,582,0.558716,-1.07114,0.0280191,-0.0187571,0.0161268,0.0330401,-0.0237781,0.301832,0.0329489,0.0458038,1280,442,0.558759,1.07113
63,582,0.450317,-1.45132,0.0337727,-0.0167958,0.0195152,0.040428,-0.0234512,0.328664,0.0373123,0.0428635,1287,442,0.450358,1.45131
70,582,0.275879,-1.20251,0.0387326,-0.0154592,0.0235575,0.0475413,-0.024268,0.357828,0.0421787,0.0441952,1294,442,0.275831,1.20251
77,582,-0.0250244,-0.955688,0,0,0,0,0,0,0,-1,1301,442,-0.0250713,0.955687
84,582,-3.95386,-0.568512,0.0484721,-0.0128836,0.0297629,0.0605372,-0.0249487,0.385131,0.0507609,0.0475215,1308,442,-3.95389,0.568517
91,582,-3.39917,-0.471222,0.0539941,-0.0124389,0.0313558,0.0664561,-0.0249009,0.378296,0.0545335,0.0488213,1315,442,-3.39922,0.471236
98,582,-2.89587,-0.348999,0.0565796,-0.0131028,0.0330079,0.0697325,-0.0262556,0.379192,0.0572823,0.0452041,1322,442,-2.89584,0.349005
105,582,-2.67761,-0.00262451,0.0567927,-0.0139152,0.0334855,0.0701335,-0.027256,0.379131,0.0580159,0.0445498,1329,442,-2.67759,0.00263352
112,582,-2.22461,0.0405579,0.0570868,-0.0168313,0.0347301,0.0708441,-0.0305886,0.377158,0.0600798,0.0428776,1336,442,-2.22462,-0.0405578
119,582,-0.883179,-0.0673828,0,0,0,0,0,0,0,-1,1343,442,-0.883211,0.0673871
126,582,-0.844238,0.462677,0,0,0,0,0,0,0,-1,1350,442,-0.844222,-0.462662
133,582,-0.434448,0.625214,0.0525217,-0.0150779,0.0237392,0.0600254,-0.0225815,0.30615,0.0492993,0.0493791,1357,442,-0.434454,-0.625217
140,582,-0.065918,0.774384,0.0466433,-0.0139078,0.0203463,0.0528449,-0.0201094,0.295855,0.0435106,0.0480241,1364,442,-0.0659662,-0.774394
147,582,0.380859,1.13913,0.0386078,-0.0117887,0.0174204,0.0440433,-0.0172241,0.302443,0.0364849,0.0487743,1371,442,0.380833,-1.13913
154,582,1.04077,1.34741,0.032481,-0.00993126,0.0136266,0.0364817,-0.013932,0.28557,0.0300613,0.0467211,1378,442,1.04082,-1.3474
161,582,1.84058,1.75623,0,0,0,0,0,0,0,-1,1385,442,1.84052,-1.75622
168,582,-0.282349,-0.0491638,0.0225351,-0.00508737,0.00929023,0.0253689,-0.00792121,0.296069,0.0200807,0.0454949,1392,442,-0.282319,0.049158
175,582,-0.134766,-0.277161,0.0173603,-0.00323227,0.00723682,0.0196491,-0.0055211,0.30632,0.0152761,0.0436035,1399,442,-0.134721,0.27715
182,582,-0.0446777,-0.0724792,0.013089,-0.00129009,0.00547516,0.0149364,-0.00313752,0.325425,0.0111516,0.045877,1406,442,-0.0446255,0.0724858
189,582,-0.194824,0.0235596,0.00944444,0.00108408,0.00351239,0.0107242,-0.000195669,0.349403,0.00721556,0.04594,1413,442,-0.194809,-0.0235507
196,582,-0.271851,-0.045929,0,0,0,0,0,0,0,-1,1420,442,-0.271898,0.0459248
203,582,-0.421143,0.187378,0.0032025,0.00427562,0.00116839,0.00502476,0.00245336,1.00065,0.00290131,0.0392192,1427,442,-0.421163,-0.187377
210,582,-0.354858,0.344788,0.00170519,0.00521886,0.000257921,0.00523769,0.00168636,1.49791,0.00308722,0.0371002,1434,442,-0.354852,-0.344802
217,582,-0.0505371,0.150299,0.00178155,0.00515721,-7.46401e-05,0.00515886,0.0017799,-1.5487,0.00302579,0.0361378,1441,442,-0.050535,-0.150296
224,582,0.0286865,0.139099,0.00155766,0.00466606,0.000198349,0.00467867,0.00154506,1.50733,0.00275264,0.0349329,1448,442,0.0286686,-0.139101
231,582,-0.0712891,0.0747681,0.00117515,0.00413465,0.000551298,0.00423401,0.00107579,1.39248,0.00254115,0.0335344,1455,442,-0.0713202,-0.0747625
238,582,0.0268555,0.0335388,0.000897871,0.00362726,0.00110352,0.0040176,0.000507527,1.23081,0.00252628,0.0307928,1462,442,0.0268939,-0.0335416
245,582,-0.0625,0.122375,0.000758052,0.00333767,0.00179771,0.00426041,-0.000164686,1.09658,0.00289673,0.0265935,1469,442,-0.0624962,-0.122382
252,582,-0.0175781,0.107788,0.000725972,0.00275541,0.00250218,0.00444079,-0.00095941,0.978032,0.00332677,0.0167364,1476,442,-0.01762,-0.107796
259,582,-0.0299072,0.0800171,0.000642542,0.00240704,0.00327396,0.00491554,-0.00186596,0.917009,0.00404511,0.012155,1483,442,-0.0299014,-0.0800277
266,582,-0.0333252,0.065033,0.000410085,0.00193591,0.0040753,0.0053191,-0.0029731,0.877929,0.00485095,0.00926133,1490,442,-0.0333096,-0.0650339
273,582,-0.026123,0.0549927,0.000413334,0.00141962,0.00467643,0.00561989,-0.00378694,0.838988,0.0054653,0.00979259,1497,442,-0.0261268,-0.0549851
280,582,-0.0292969,0.052063,0.00051518,0.00107487,0.00499885,0.0058017,-0.00421165,0.81336,0.00580545,0.0112832,1504,442,-0.0293395,-0.0520698
287,582,-0.0249023,0.0539246,0.000401516,0.000589618,0.0047893,0.00528579,-0.00429465,0.795216,0.00554113,0.0111683,1511,442,-0.0248433,-0.0539262
294,582,-0.0465088,0.063446,0.000597768,0.00024537,0.00455052,0.00497549,-0.00413236,0.766048,0.00526593,0.00882612,1518,442,-0.0464967,-0.0634336
301,582,-0.0335693,0.0639343,0.000986308,-8.02206e-05,0.0042808,0.00476693,-0.00386084,0.723432,0.00499039,0.00872793,1525,442,-0.0335814,-0.0639326
308,582,-0.0151367,0.0630798,0.00110707,-0.000160413,0.00376902,0.00429526,-0.0033486,0.702105,0.00442445,0.0108428,1532,442,-0.0151152,-0.0630821
315,582,-0.0155029,0.0583801,0.000813218,1.97632e-05,0.00312877,0.00357032,-0.00273733,0.722335,0.00365229,0.0131578,1539,442,-0.0155602,-0.0583719
322,582,-0.00683594,0.0650635,0.000501376,0.000166431,0.00239197,0.00273173,-0.00206393,0.750448,0.00277771,0.0104591,1546,442,-0.00684757,-0.0650651
329,582,-0.0153809,0.0704651,0.000346902,0.000214713,0.00170902,0.0019911,-0.00142949,0.766071,0.00198373,0.0098682,1553,442,-0.0153718,-0.0704602
336,582,-0.0404053,0.0708313,0.000291919,2.52179e-05,0.00126326,0.00142885,-0.00111171,0.732813,0.0014706,0.0105141,1560,442,-0.0403556,-0.0708288
343,582,-0.0423584,0.0829773,0.000244628,-0.000256383,0.00083019,0.000861284,-0.000873039,0.63887,0.00100132,0.0118464,1567,442,-0.0423946,-0.082984
350,582,-0.0489502,0.0701904,0.000237642,-0.000512841,0.000678525,0.000637773,-0.000912972,0.532817,0.00090001,0.0146036,1574,442,-0.0489892,-0.0701907
357,582,-0.0267334,0.0622253,0.000161966,-0.000817626,0.000845064,0.000648916,-0.00130458,0.522757,0.00114883,0.0131813,1581,442,-0.0267742,-0.0622135
364,582,-0.0273438,0.0691528,2.86812e-06,-0.00123277,0.00104744,0.00060112,-0.00183102,0.518941,0.00146282,0.0103013,1588,442,-0.0273226,-0.0691667
371,582,-0.0469971,0.0784607,-0.000150093,-0.00146895,0.00136065,0.000702499,-0.00232155,0.559754,0.00182744,0.013914,1595,442,-0.046998,-0.0784638
378,582,-0.0474854,0.0537415,-0.000226356,-0.00184585,0.00168302,0.000831583,-0.00290379,0.56118,0.00226454,0.0150405,1602,442,-0.0474843,-0.0537544
385,582,-0.0236816,0.0413818,-8.10633e-05,-0.00234439,0.0020813,0.00115634,-0.00358179,0.536391,0.00285253,0.0105522,1609,442,-0.0237266,-0.0413733
392,582,-0.0290527,0.0640869,0.000145263,-0.00308206,0.00273115,0.00170384,-0.00464063,0.518571,0.00379153,0.00892477,1616,442,-0.0290794,-0.0640782
399,582,-0.0385742,0.081665,0.000636945,-0.00279204,0.00305945,0.00242955,-0.00458464,0.530005,0.00411286,0.0107092,1623,442,-0.0385462,-0.0816606
406,582,-0.0350342,0.0910034,0.00133719,-0.00312284,0.0033209,0.00310734,-0.00489299,0.489724,0.00465718,0.015508,1630,442,-0.0350254,-0.0910065
413,582,-0.0020752,0.0894165,0.00164321,-0.00312295,0.00318582,0.00323863,-0.00471837,0.464279,0.00462038,0.0240132,1637,442,-0.00205212,-0.0894131
420,582,0.0462646,0.0638123,0.00229001,-0.00413612,0.00262803,0.00322789,-0.005074,0.342786,0.00483244,0.0282323,1644,442,0.0463196,-0.0638184
427,582,0.019043,0.128235,0.0036078,-0.00443435,0.00251949,0.00433192,-0.00515847,0.279865,0.0054862,0.0313152,1651,442,0.0190781,-0.128221
434,582,0.00402832,0.165649,0.00445925,-0.00414114,0.00191611,0.00486683,-0.00454872,0.209589,0.00543711,0.035339,1658,442,0.00397548,-0.165656
441,582,0.0247803,0.158386,0.00532801,-0.00250645,0.00151604,0.00561115,-0.00278959,0.184633,0.00494052,0.0402481,1665,442,0.0247886,-0.158385
448,582,-0.531128,1.09836,0.00578185,-0.00090339,0.00113725,0.00597002,-0.00109155,0.163971,0.00438934,0.0462186,1672,442,-0.531133,-1.09835
455,582,-0.125,0.502655,0.00598603,0.000932164,0.000717892,0.00608602,0.000832167,0.138402,0.00381037,0.0452835,1679,442,-0.124968,-0.502647
462,582,-0.754883,-0.706085,0.00626674,0.00380894,0.000205089,0.00628374,0.00379194,0.0826818,0.00365371,0.0437402,1686,442,-0.754882,0.706094
469,582,-0.432129,-0.592041,0.0064452,0.00822581,0.000237004,0.00825682,0.00641419,1.44071,0.00500471,0.045316,1693,442,-0.432102,0.592054
476,582,-0.0045166,0.243774,0.00611991,0.0139856,0.00109012,0.0141339,0.00597162,1.4356,0.00819282,0.043098,1700,442,-0.00453079,-0.243764
483,582,0,0,0,0,0,0,0,0,0,-1,1707,442,0,0
490,582,0,0,0,0,0,0,0,0,0,-1,1714,442,0,0
497,582,0,0,0,0,0,0,0,0,0,-1,1721,442,0,0
504,582,0,0,0,0,0,0,0,0,0,-1,1728,442,0,0
511,582,0,0,0,0,0,0,0,0,0,-1,1735,442,0,0
518,582,0,0,0,0,0,0,0,0,0,-1,1742,442,0,0
525,582,0,0,0,0,0,0,0,0,0,-1,1749,442,0,0
532,582,0,0,0,0,0,0,0,0,0,-1,1756,442,0,0
539,582,0,0,0,0,0,0,0,0,0,-1,1763,442,0,0
546,582,0,0,0,0,0,0,0,0,0,-1,1770,442,0,0
553,582,0,0,0,0,0,0,0,0,0,-1,1777,442,0,0
560,582,0,0,0,0,0,0,0,0,0,-1,1784,442,0,0
567,582,0,0,0,0,0,0,0,0,0,-1,1791,442,0,0
574,582,0,0,0,0,0,0,0,0,0,-1,1798,442,0,0
581,582,0,0,0,0,0,0,0,0,0,-1,1805,442,0,0
588,582,0,0,0,0,0,0,0,0,0,-1,1812,442,0,0
595,582,0,0,0,0,0,0,0,0,0,-1,1819,442,0,0
602,582,0,0,0,0,0,0,0,0,0,-1,1826,442,0,0
609,582,0,0,0,0,0,0,0,0,0,-1,1833,442,0,0
616,582,0,0,0,0,0,0,0,0,0,-1,1840,442,0,0
623,582,0,0,0,0,0,0,0,0,0,-1,1847,442,0,0
630,582,0,0,0,0,0,0,0,0,0,-1,1854,442,0,0
637,582,0,0,0,0,0,0,0,0,0,-1,1861,442,0,0
644,582,0,0,0,0,0,0,0,0,0,-1,1868,442,0,0
651,582,0,0,0,0,0,0,0,0,0,-1,1875,442,0,0
658,582,0,0,0,0,0,0,0,0,0,-1,1882,442,0,0
665,582,0,0,0,0,0,0,0,0,0,-1,1889,442,0,0
672,582,0,0,0,0,0,0,0,0,0,-1,1896,442,0,0
679,582,0,0,0,0,0,0,0,0,0,-1,1903,442,0,0
686,582,0,0,0,0,0,0,0,0,0,-1,1910,442,0,0
693,582,0,0,0,0,0,0,0,0,0,-1,1917,442,0,0
700,582,0,0,0,0,0,0,0,0,0,-1,1924,442,0,0
707,582,0,0,0,0,0,0,0,0,0,-1,1931,442,0,0
714,582,0,0,0,0,0,0,0,0,0,-1,1938,442,0,0
721,582,0,0,0,0,0,0,0,0,0,-1,1945,442,0,0
728,582,0,0,0,0,0,0,0,0,0,-1,1952,442,0,0
735,582,0,0,0,0,0,0,0,0,0,-1,1959,442,0,0
742,582,0,0,0,0,0,0,0,0,0,-1,1966,442,0,0
749,582,0,0,0,0,0,0,0,0,0,-1,1973,442,0,0
756,582,0,0,0,0,0,0,0,0,0,-1,1980,442,0,0
763,582,0,0,0,0,0,0,0,0,0,-1,1987,442,0,0
770,582,0,0,0,0,0,0,0,0,0,-1,1994,442,0,0
777,582,0,0,0,0,0,0,0,0,0,-1,2001,442,0,0
784,582,0,0,0,0,0,0,0,0,0,-1,2008,442,0,0
791,582,0,0,0,0,0,0,0,0,0,-1,2015,442,0,0
798,582,0,0,0,0,0,0,0,0,0,-1,2022,442,0,0
805,582,0,0,0,0,0,0,0,0,0,-1,2029,442,0,0
812,582,0,0,0,0,0,0,0,0,0,-1,2036,442,0,0
-700,575,0,0,0,0,0,0,0,0,0,-1,524,449,0,0
-693,575,0,0,0,0,0,0,0,0,0,-1,531,449,0,0
-686,575,0,0,0,0,0,0,0,0,0,-1,538,449,0,0
-679,575,0,0,0,0,0,0,0,0,0,-1,545,449,0,0
-672,575,0,0,0,0,0,0,0,0,0,-1,552,449,0,0
-665,575,0,0,0,0,0,0,0,0,0,-1,559,449,0,0
-658,575,0,0,0,0,0,0,0,0,0,-1,566,449,0,0
-651,575,0,0,0,0,0,0,0,0,0,-1,573,449,0,0
-644,575,0,0,0,0,0,0,0,0,0,-1,580,449,0,0
-637,575,0,0,0,0,0,0,0,0,0,-1,587,449,0,0
-630,575,0,0,0,0,0,0,0,0,0,-1,594,449,0,0
-623,575,0,0,0,0,0,0,0,0,0,-1,601,449,0,0
-616,575,0,0,0,0,0,0,0,0,0,-1,608,449,0,0
-609,575,0,0,0,0,0,0,0,0,0,-1,615,449,0,0
-602,575,0,0,0,0,0,0,0,0,0,-1,622,449,0,0
-595,575,0,0,0,0,0,0,0,0,0,-1,629,449,0,0
-588,575,0,0,0,0,0,0,0,0,0,-1,636,449,0,0
-581,575,0,0,0,0,0,0,0,0,0,-1,643,449,0,0
-574,575,0,0,0,0,0,0,0,0,0,-1,650,449,0,0
-567,575,0,0,0,0,0,0,0,0,0,-1,657,449,0,0
-560,575,0,0,0,0,0,0,0,0,0,-1,664,449,0,0
-553,575,0,0,0,0,0,0,0,0,0,-1,671,449,0,0
-546,575,0,0,0,0,0,0,0,0,0,-1,678,449,0,0
-539,575,0,0,0,0,0,0,0,0,0,-1,685,449,0,0
-532,575,0,0,0,0,0,0,0,0,0,-1,692,449,0,0
-525,575,0,0,0,0,0,0,0,0,0,-1,699,449,0,0
-518,575,0,0,0,0,0,0,0,0,0,-1,706,449,0,0
-511,575,0,0,0,0,0,0,0,0,0,-1,713,449,0,0
-504,575,0,0,0,0,0,0,0,0,0,-1,720,449,0,0
-497,575,0,0,0,0,0,0,0,0,0,-1,727,449,0,0
-490,575,0,0,0,0,0,0,0,0,0,-1,734,449,0,0
-483,575,0,0,0,0,0,0,0,0,0,-1,741,449,0,0
-476,575,0,0,0,0,0,0,0,0,0,-1,748,449,0,0
-469,575,0,0,0,0,0,0,0,0,0,-1,755,449,0,0
-462,575,0,0,0,0,0,0,0,0,0,-1,762,449,0,0
-455,575,0,0,0,0,0,0,0,0,0,-1,769,449,0,0
-448,575,0,0,0,0,0,0,0,0,0,-1,776,449,0,0
-441,575,0,0,0,0,0,0,0,0,0,-1,783,449,0,0
-434,575,0,0,0,0,0,0,0,0,0,-1,790,449,0,0
-427,575,0,0,0,0,0,0,0,0,0,-1,797,449,0,0
-420,575,0,0,0,0,0,0,0,0,0,-1,804,449,0,0
-413,575,0,0,0,0,0,0,0,0,0,-1,811,449,0,0
-406,575,0,0,0,0,0,0,0,0,0,-1,818,449,0,0
-399,575,0,0,0,0,0,0,0,0,0,-1,825,449,0,0
-392,575,0,0,0,0,0,0,0,0,0,-1,832,449,0,0
-385,575,0,0,0,0,0,0,0,0,0,-1,839,449,0,0
-378,575,0,0,0,0,0,0,0,0,0,-1,846,449,0,0
-371,575,1.60736,-0.299744,0,0,0,0,0,0,0,-1,853,449,1.60736,0.299758
-364,575,1.64282,0.0478516,0,0,0,0,0,0,0,-1,860,449,1.64285,-0.0478663
-357,575,1.39105,0.222534,0,0,0,0,0,0,0,-1,867,449,1.39103,-0.222549
-350,575,0.971558,0.105988,0,0,0,0,0,0,0,-1,874,449,0.971529,-0.105977
-343,575,-1.11475,-1.0856,0,0,0,0,0,0,0,-1,881,449,-1.11472,1.0856
-336,575,-0.932251,1.0368,0,0,0,0,0,0,0,-1,888,449,-0.932224,-1.03681
-329,575,-0.684143,0.927917,0.000525705,0.00600634,0.00013795,0.00600981,0.000522235,1.54565,0.0038443,0.0475617,895,449,-0.684135,-0.927902
-322,575,-0.40387,0.820984,0.000155866,0.0029734,-0.0021588,0.00414243,-0.00101316,-1.07449,0.00315406,0.042189,902,449,-0.403865,-0.820977
-315,575,-0.168823,0.474304,0.00071894,-0.000179361,-0.0040815,0.00437592,-0.00383635,-0.730596,0.00474477,0.039958,909,449,-0.16883,-0.474293
-308,575,-0.0370483,0.12323,0.00180677,-0.00134144,-0.00564605,0.00609404,-0.00562871,-0.649452,0.00676991,0.0387066,916,449,-0.0370567,-0.123237
-301,575,0.00402832,0.128204,0.00288298,-0.00202635,-0.00671563,0.0075785,-0.00672186,-0.610183,0.00826125,0.0266738,923,449,0.00403495,-0.128196
-294,575,-0.0151367,0.117981,0.00344318,-0.0022355,-0.00699295,0.00815124,-0.00694356,-0.592552,0.00872428,0.0195063,930,449,-0.015109,-0.117992
-287,575,0.00140381,0.0707703,0.00338536,-0.00203784,-0.00707264,0.00824839,-0.00690087,-0.602344,0.00875796,0.0140974,937,449,0.00142577,-0.0707682
-280,575,-0.0012207,0.0556335,0.00323141,-0.00138357,-0.00643209,0.00775739,-0.00590955,-0.613175,0.00791462,0.0105598,944,449,-0.00121654,-0.055642
-273,575,-0.0149536,0.0643311,0.00254252,-0.00153112,-0.00611496,0.00695096,-0.00593956,-0.624633,0.00744997,0.00953581,951,449,-0.0149578,-0.0643425
-266,575,-0.039856,0.0455017,0.00187661,-0.00154182,-0.00503858,0.00548798,-0.0051532,-0.621876,0.0061447,0.010688,958,449,-0.0398822,-0.0454871
-259,575,-0.0389404,0.0548706,0.00163396,0.000357458,-0.00309328,0.00415415,-0.00216273,-0.683658,0.00370697,0.0114902,965,449,-0.038965,-0.0548853
-252,575,-0.0380249,0.0898438,0.00113697,0.000719243,-0.00223427,0.00317212,-0.00131591,-0.738793,0.00266401,0.0103778,972,449,-0.0380047,-0.0898409
-245,575,-0.036499,0.0791016,0.000653127,0.000810754,-0.00172169,0.00245543,-0.000991547,-0.808271,0.00204906,0.012781,979,449,-0.0364767,-0.0790868
-238,575,-0.0552368,0.0840454,0.000323185,0.000567624,-0.00107369,0.00152603,-0.000635219,-0.84207,0.00128264,0.0133255,986,449,-0.0552657,-0.084059
-231,575,-0.0625,0.0653076,2.96431e-05,0.000358076,-0.00043573,0.000659507,-0.000271788,-0.965605,0.000552998,0.0118598,993,449,-0.0625053,-0.0653134
-224,575,-0.0479736,0.0469666,-0.000246053,0.000284076,9.95335e-05,0.000302148,-0.000264125,1.39119,0.000327183,0.0110563,1000,449,-0.047965,-0.0469695
-217,575,-0.0413208,0.0596924,-0.000557166,0.000176871,0.000564092,0.000482833,-0.000863128,1.07381,0.000787363,0.00903192,1007,449,-0.0412968,-0.0597018
-210,575,-0.0199585,0.0675354,-0.00095818,3.13644e-05,0.000857457,0.000526558,-0.00145337,1.04707,0.00118413,0.00791709,1014,449,-0.019946,-0.0675358
-203,575,-0.0175781,0.0508118,-0.00108119,-0.000399517,0.00126006,0.000564986,-0.0020457,0.917485,0.00158603,0.00965878,1021,449,-0.0175976,-0.0508169
-196,575,-0.026001,0.0283203,-0.000833869,-0.000791024,0.0015579,0.0007456,-0.00237049,0.792273,0.00187884,0.0112347,1028,449,-0.025995,-0.0283321
-189,575,-0.0157471,0.0401001,-0.000300893,-0.00113662,0.00130326,0.000649853,-0.00208736,0.630262,0.00165138,0.012969,1035,449,-0.0157865,-0.0401141
-182,575,-0.026123,0.0635071,0.000221905,-0.00124731,0.000854173,0.000613912,-0.00163932,0.430256,0.00134506,0.0127264,1042,449,-0.0261399,-0.063508
-175,575,-0.0377197,0.0688782,0.000886403,-0.00144627,0.00032116,0.000929812,-0.00148968,0.134349,0.00140931,0.0108231,1049,449,-0.0377764,-0.0688856
-168,575,-0.0308838,0.0635071,0.00114274,-0.00119118,-0.000545488,0.00126394,-0.00131238,-0.218633,0.00148752,0.0105629,1056,449,-0.0308672,-0.0634985
-161,575,-0.0411377,0.0569153,0.00143801,-0.00074687,-0.00147315,0.00217958,-0.00148844,-0.466357,0.00213022,0.0139854,1063,449,-0.041158,-0.0569295
-154,575,-0.0484619,0.0491943,0.00202035,-0.000208558,-0.00224428,0.00341165,-0.00159986,-0.554947,0.00295576,0.0135192,1070,449,-0.0484466,-0.049193
-147,575,-0.050415,0.0563049,0.00287472,-2.69858e-05,-0.00257752,0.00438167,-0.00153394,-0.529057,0.00354483,0.0113253,1077,449,-0.0503882,-0.0562974
-140,575,-0.00476074,0.0802612,0.00343866,0.000754279,-0.00245142,0.00489128,-0.000698339,-0.534931,0.00351682,0.0163383,1084,449,-0.00477381,-0.0802558
-133,575,0.0325928,0.0711975,0.00358956,0.001187,-0.00237802,0.00505249,-0.000275935,-0.551515,0.00346397,0.027119,1091,449,0.0325918,-0.0712085
-126,575,0.139648,-0.00457764,0,0,0,0,0,0,0,-1,1098,449,0.139643,0.00456806
-119,575,0.0731201,-0.103607,0,0,0,0,0,0,0,-1,1105,449,0.0730603,0.103616
-112,575,-0.0500488,0.0623779,0.00285093,-0.00168489,-0.000609076,0.0029313,-0.00176525,-0.131186,0.00273927,0.0395928,1112,449,-0.0499993,-0.0623685
-105,575,-0.276611,-0.0498657,0.00274862,-0.00338131,0.000581278,0.00280326,-0.00343594,0.0937133,0.00360837,0.0417466,1119,449,-0.276571,0.0498689
-98,575,-0.830444,-0.0637817,0,0,0,0,0,0,0,-1,1126,449,-0.830497,0.0637819
-91,575,0.239624,0.298889,0,0,0,0,0,0,0,-1,1133,449,0.239564,-0.298894
-84,575,0.782837,0.742737,0,0,0,0,0,0,0,-1,1140,449,0.782833,-0.742738
-77,575,0.195923,1.12878,0.000686381,-0.00946221,0.00598676,0.00346,-0.0122358,0.433853,0.00952244,0.0413805,1147,449,0.195966,-1.12878
-70,575,-0.240723,1.05655,0.000907774,-0.0107466,0.00713857,0.00429554,-0.0141343,0.443099,0.0111345,0.0454132,1154,449,-0.240672,-1.05654
-63,575,-0.0447998,-0.178131,0,0,0,0,0,0,0,-1,1161,449,-0.0447937,0.178124
-56,575,0.237183,-0.513,0.00246044,-0.01416,0.00891768,0.00633976,-0.0180393,0.410322,0.0146055,0.0455512,1168,449,0.237217,0.512994
-49,575,0.0986328,-0.590698,0.00245601,-0.0151736,0.00951223,0.00660976,-0.0193273,0.411717,0.0155633,0.0412631,1175,449,0.0985954,0.590696
-42,575,-0.020752,-0.396271,0.00245742,-0.0160546,0.00976571,0.00665663,-0.0202538,0.406094,0.0161843,0.0402441,1182,449,-0.0207323,0.396267
-35,575,-0.10022,-0.0965881,0.00316325,-0.0171869,0.00945049,0.006875,-0.0208986,0.374248,0.0167026,0.0432259,1189,449,-0.10022,0.0966
-28,575,0.38916,0.932007,0.00433184,-0.0192384,0.0102295,0.00815222,-0.0230588,0.357426,0.0186922,0.0448946,1196,449,0.389132,-0.932012
-21,575,0.153442,1.17944,0,0,0,0,0,0,0,-1,1203,449,0.153422,-1.17945
-14,575,0.394775,-0.18924,0.00195668,-0.0249216,0.0135336,0.00759026,-0.0305552,0.39445,0.0233157,0.0467102,1210,449,0.394798,0.189236
-7,575,0.455444,-0.293732,0.00096113,-0.0287109,0.0139536,0.00649201,-0.0342417,0.377379,0.0252713,0.0445359,1217,449,0.455424,0.293726
0,575,0.5625,-0.418549,0.00396543,-0.0340953,0.0145552,0.00889358,-0.0390234,0.326467,0.0294315,0.0439444,1224,449,0.562456,0.41856
7,575,0.486328,-0.490082,0.00725377,-0.0361496,0.0124221,0.0105575,-0.0394533,0.25994,0.030438,0.0447213,1231,449,0.486274,0.490071
14,575,0.708496,-0.514557,0.00648341,-0.0377335,0.0118028,0.00943668,-0.0406867,0.245184,0.0307565,0.0473301,1238,449,0.708494,0.514557
21,575,0.488159,-0.45285,0.00625757,-0.0391122,0.0122285,0.00934362,-0.0421982,0.247203,0.0317089,0.0465133,1245,449,0.488176,0.452854
28,575,0.231567,-0.451141,0,0,0,0,0,0,0,-1,1252,449,0.231565,0.45114
35,575,-1.86523,0.399048,0.0132784,-0.039109,0.0137361,0.0166615,-0.0424922,0.241489,0.035221,0.0407151,1259,449,-1.86529,-0.399058
42,575,-3.08789,1.14615,0.020399,-0.0368824,0.0150681,0.0241209,-0.0406043,0.242158,0.0377709,0.0426983,1266,449,-3.08789,-1.14615
49,575,0.388916,-0.224121,0.0272015,-0.0346032,0.018609,0.032372,-0.0397737,0.271013,0.0417264,0.0436065,1273,449,0.388972,0.224117
56,575,0.221802,-1.41772,0.0336885,-0.0319121,0.0215176,0.0401166,-0.0383402,0.290297,0.045301,0.0466543,1280,449,0.22181,1.41773
63,575,-0.0321045,-2.09634,0,0,0,0,0,0,0,-1,1287,449,-0.032083,2.09635
70,575,-0.581177,-1.83527,0,0,0,0,0,0,0,-1,1294,449,-0.581145,1.83527
77,575,-4.74963,-1.48141,0,0,0,0,0,0,0,-1,1301,449,-4.74967,1.48142
84,575,-4.2832,-1.10516,0.0587533,-0.0226609,0.0357404,0.0722167,-0.0361243,0.36026,0.0636972,0.0487394,1308,449,-4.28318,1.10515
91,575,-3.73083,-0.701477,0.0656681,-0.0213548,0.0368472,0.0791738,-0.0348606,0.351328,0.0674744,0.0462991,1315,449,-3.73078,0.701468
98,575,-3.39832,-0.0795288,0.0691522,-0.0210552,0.0382082,0.0831603,-0.0350633,0.351409,0.070114,0.042681,1322,449,-3.39826,0.079522
105,575,-3.02759,0.266968,0.0695428,-0.0209796,0.0383576,0.0836101,-0.0350469,0.351512,0.0703932,0.0412365,1329,449,-3.02756,-0.266964
112,575,-2.54602,0.334869,0.0694479,-0.0232856,0.0394346,0.0839495,-0.0377872,0.35239,0.0719494,0.0426958,1336,449,-2.54606,-0.334867
119,575,-1.97034,0.469086,0.0713233,-0.0235862,0.0356039,0.0831947,-0.0354576,0.321837,0.0703278,0.0438049,1343,449,-1.97034,-0.469075
126,575,-1.43042,0.519867,0.0700307,-0.0213843,0.0305627,0.0793073,-0.0306609,0.29469,0.0655282,0.045811,1350,449,-1.43047,-0.519865
133,575,-0.959473,0.759583,0.0633871,-0.017891,0.0257828,0.0708759,-0.0253797,0.282677,0.0576053,0.0482765,1357,449,-0.959456,-0.759582
140,575,-0.505371,1.1893,0,0,0,0,0,0,0,-1,1364,449,-0.505389,-1.18929
147,575,0.340332,1.78217,0.0465725,-0.0128715,0.0187171,0.051975,-0.018274,0.281001,0.0420852,0.0489486,1371,449,0.340342,-1.78217
154,575,1.11926,3.64325,0.039042,-0.0103587,0.0145911,0.0430298,-0.0143465,0.266786,0.0344784,0.0446675,1378,449,1.11931,-3.64324
161,575,2.14282,4.40982,0,0,0,0,0,0,0,-1,1385,449,2.14285,-4.40982
168,575,-0.240845,-0.386658,0.0264388,-0.00454478,0.00988382,0.0293233,-0.0074292,0.283948,0.022439,0.0475963,1392,449,-0.2409,0.38666
175,575,-0.161743,-0.546204,0.0201218,-0.00237903,0.0076324,0.0224665,-0.00472366,0.298044,0.0167754,0.0431656,1399,449,-0.161711,0.546208
182,575,-0.0529785,-0.236206,0.0149647,-0.000120318,0.00570871,0.0168815,-0.00203713,0.323942,0.0119912,0.0469533,1406,449,-0.0529972,0.236207
189,575,-0.125122,-0.0400696,0.0106365,0.00259078,0.00347413,0.011929,0.00129828,0.356168,0.00755717,0.0462219,1413,449,-0.125161,0.0400619
196,575,-0.235962,0.0627441,0.006484,0.00460357,0.00213498,0.00787662,0.00321094,0.577983,0.00457335,0.0405384,1420,449,-0.235997,-0.0627405
203,575,-0.547607,0.41983,0.00304871,0.0059146,0.000935903,0.00619315,0.00277015,1.28151,0.00358224,0.0408218,1427,449,-0.547641,-0.419829
210,575,-0.432129,0.356079,0.00122963,0.00678587,-0.000107968,0.00678796,0.00122753,-1.55137,0.0041767,0.0411824,1434,449,-0.43214,-0.35608
217,575,0.145996,0.205048,0.00127303,0.00669262,-0.000495628,0.00673757,0.00122808,-1.48034,0.00414347,0.039283,1441,449,0.145981,-0.205043
224,575,-0.00793457,0.0895996,0.000965827,0.00609773,-0.000109246,0.00610006,0.000963503,-1.54952,0.00378662,0.0405896,1448,449,-0.00797986,-0.0896092
231,575,0.101563,-0.0243225,0,0,0,0,0,0,0,-1,1455,449,0.101511,0.0243216
238,575,0.0670166,0.0653381,0,0,0,0,0,0,0,-1,1462,449,0.0669736,-0.0653242
245,575,0.0324707,0.154968,0,0,0,0,0,0,0,-1,1469,449,0.0324366,-0.15497
252,575,-0.0708008,0.226501,-0.000412093,0.00354597,0.00326844,0.00538784,-0.00225396,1.05762,0.00453397,0.0369626,1476,449,-0.0707467,-0.226496
259,575,-0.185791,0.15863,-0.000565806,0.00310616,0.00433154,0.00597475,-0.0034344,0.985852,0.00549798,0.0299159,1483,449,-0.185842,-0.158634
266,575,-0.0374756,0.108856,-0.000747138,0.00251161,0.00538748,0.00651072,-0.00474624,0.932244,0.00652577,0.0208233,1490,449,-0.0374535,-0.108865
273,575,-0.0272217,0.0723267,-0.000540078,0.00193412,0.00616317,0.00698312,-0.00558908,0.884444,0.00727342,0.0147799,1497,449,-0.0272563,-0.0723189
280,575,-0.043457,0.0531311,-0.000273155,0.00153238,0.00659404,0.00728516,-0.00602594,0.853429,0.00769662,0.0131605,1504,449,-0.043479,-0.0531326
287,575,-0.0252686,0.0563354,-0.000269497,0.000955998,0.00635003,0.00672277,-0.00603627,0.833497,0.00736999,0.0114628,1511,449,-0.0252437,-0.056336
294,575,-0.0266113,0.0554504,0.000108644,0.000547677,0.00604366,0.00637581,-0.00571949,0.803551,0.00698665,0.00987537,1518,449,-0.0265646,-0.0554358
301,575,-0.0223389,0.0535889,0.000746034,0.000214332,0.00570425,0.00619063,-0.00523026,0.762112,0.00660162,0.00911692,1525,449,-0.0223567,-0.053579
308,575,-0.0144043,0.0533752,0.00103123,0.000143246,0.00507538,0.005682,-0.00450753,0.74177,0.00589594,0.00938425,1532,449,-0.0144119,-0.0533633
315,575,-0.0239258,0.0482788,0.000745845,0.000318725,0.00426175,0.00479938,-0.00373481,0.760364,0.00493998,0.0103271,1539,449,-0.0239501,-0.0482678
322,575,-0.019165,0.0649414,0.000423126,0.000361919,0.00337412,0.00376678,-0.00298173,0.780863,0.00390503,0.00938298,1546,449,-0.0191519,-0.0649494
329,575,-0.027832,0.0662537,0.000248723,0.000371116,0.00251211,0.00282277,-0.00220293,0.797576,0.00290894,0.00935164,1553,449,-0.027777,-0.0662544
336,575,-0.0405273,0.0766602,0.000220141,0.000196599,0.00183419,0.0020426,-0.00162586,0.782189,0.00212254,0.0118417,1560,449,-0.0404844,-0.0766668
343,575,-0.0286865,0.0837402,0.000184884,-0.00010054,0.00123352,0.00128392,-0.00119958,0.727807,0.00143412,0.0114067,1567,449,-0.0286599,-0.0837514
350,575,-0.0322266,0.0661316,0.000140331,-0.000410142,0.000985378,0.000888191,-0.001158,0.649209,0.00118479,0.0103551,1574,449,-0.0322634,-0.0661167
357,575,-0.024292,0.0594177,6.37897e-05,-0.00070926,0.00108643,0.000830406,-0.00147588,0.614493,0.0013488,0.0108609,1581,449,-0.0243252,-0.0594251
364,575,-0.0266113,0.0751953,1.52471e-05,-0.00111092,0.00115503,0.000737135,-0.00183281,0.558597,0.00152805,0.0102399,1588,449,-0.0265603,-0.0752061
371,575,-0.0622559,0.0698547,-0.000111843,-0.00133935,0.00133562,0.000744291,-0.00219548,0.570024,0.00176487,0.0184507,1595,449,-0.0622548,-0.0698503
378,575,-0.0539551,0.072876,-0.000231376,-0.00165679,0.00152053,0.000735192,-0.00262336,0.566241,0.00203865,0.0176802,1602,449,-0.053975,-0.0728642
385,575,-0.0379639,0.0650635,-3.98182e-05,-0.00199839,0.00177185,0.00100536,-0.00304357,0.532945,0.00243438,0.0103889,1609,449,-0.0379988,-0.0650666
392,575,-0.0424805,0.0713501,0.000238109,-0.00251584,0.00222153,0.0014748,-0.00375253,0.507961,0.00311204,0.00830637,1616,449,-0.0425257,-0.0713616
399,575,-0.0319824,0.0616455,0.000731248,-0.0020909,0.00236294,0.00207238,-0.00343203,0.516231,0.00321013,0.00865716,1623,449,-0.0319959,-0.0616475
406,575,-0.0285645,0.0588074,0.00138562,-0.00216936,0.0024576,0.00264116,-0.0034249,0.472313,0.00351197,0.00948837,1630,449,-0.0286026,-0.058807
413,575,-0.0270996,0.0549316,0.00167033,-0.00204191,0.00221872,0.00270694,-0.00307852,0.437075,0.00334254,0.00955909,1637,449,-0.027151,-0.0549299
420,575,-0.0313721,0.06604,0.00228919,-0.00267555,0.00167452,0.00280118,-0.00318754,0.296726,0.00345999,0.00987308,1644,449,-0.0313318,-0.0660464
427,575,-0.0532227,0.0626831,0.00346783,-0.00269318,0.00149777,0.00381265,-0.003038,0.226277,0.00396364,0.0134841,1651,449,-0.0532006,-0.0626847
434,575,-0.0640869,0.0423279,0.004253,-0.00226576,0.000950932,0.00438888,-0.00240164,0.141937,0.00397608,0.0187061,1658,449,-0.0641262,-0.04232
441,575,-0.0616455,0.0360718,0.00503617,-0.000922806,0.000697468,0.00511671,-0.00100335,0.114975,0.00379012,0.0337381,1665,449,-0.0616172,-0.0360769
448,575,-0.000488281,0.286957,0.00552799,0.000319991,0.000395136,0.00555779,0.000290182,0.0752967,0.00361236,0.0433637,1672,449,-0.000471175,-0.286956
455,575,0.135376,0.421173,0.00582886,0.00173388,6.59589e-05,0.00582992,0.00173281,0.0161017,0.00345694,0.0435978,1679,449,0.135373,-0.421161
462,575,0.112061,0.46759,0.00625623,0.00369375,-0.000406574,0.00631919,0.00363079,-0.153639,0.00366188,0.0457373,1686,449,0.112009,-0.467601
469,575,-0.441895,-0.239594,0.00652163,0.00680054,-0.000353895,0.00704146,0.0062807,-0.973084,0.00446239,0.0430457,1693,449,-0.441924,0.239586
476,575,0.00268555,0.0796814,0.00639134,0.0108095,0.000244857,0.0108231,0.00637782,1.5156,0.00628181,0.0439675,1700,449,0.00267057,-0.0796731
483,575,0.1875,0.294678,0.00595305,0.0160833,0.00139184,0.016271,0.0057653,1.43671,0.00952606,0.0443968,1707,449,0.187482,-0.294688
490,575,0.287842,0.47229,0.00590651,0.021602,0.00281473,0.0220915,0.005417,1.39861,0.0132951,0.044986,1714,449,0.287898,-0.472275
497,575,0,0,0,0,0,0,0,0,0,-1,1721,449,0,0
504,575,0,0,0,0,0,0,0,0,0,-1,1728,449,0,0
511,575,0,0,0,0,0,0,0,0,0,-1,1735,449,0,0
518,575,0,0,0,0,0,0,0,0,0,-1,1742,449,0,0
525,575,0,0,0,0,0,0,0,0,0,-1,1749,449,0,0
532,575,0,0,0,0,0,0,0,0,0,-1,1756,449,0,0
539,575,0,0,0,0,0,0,0,0,0,-1,1763,449,0,0
546,575,0,0,0,0,0,0,0,0,0,-1,1770,449,0,0
553,575,0,0,0,0,0,0,0,0,0,-1,1777,449,0,0
560,575,0,0,0,0,0,0,0,0,0,-1,1784,449,0,0
567,575,0,0,0,0,0,0,0,0,0,-1,1791,449,0,0
574,575,0,0,0,0,0,0,0,0,0,-1,1798,449,0,0
581,575,0,0,0,0,0,0,0,0,0,-1,1805,449,0,0
588,575,0,0,0,0,0,0,0,0,0,-1,1812,449,0,0
595,575,0,0,0,0,0,0,0,0,0,-1,1819,449,0,0
602,575,0,0,0,0,0,0,0,0,0,-1,1826,449,0,0
609,575,0,0,0,0,0,0,0,0,0,-1,1833,449,0,0
616,575,0,0,0,0,0,0,0,0,0,-1,1840,449,0,0
623,575,0,0,0,0,0,0,0,0,0,-1,1847,449,0,0
630,575,0,0,0,0,0,0,0,0,0,-1,1854,449,0,0
637,575,0,0,0,0,0,0,0,0,0,-1,1861,449,0,0
644,575,0,0,0,0,0,0,0,0,0,-1,1868,449,0,0
651,575,0,0,0,0,0,0,0,0,0,-1,1875,449,0,0
658,575,0,0,0,0,0,0,0,0,0,-1,1882,449,0,0
665,575,0,0,0,0,0,0,0,0,0,-1,1889,449,0,0
672,575,0,0,0,0,0,0,0,0,0,-1,1896,449,0,0
679,575,0,0,0,0,0,0,0,0,0,-1,1903,449,0,0
686,575,0,0,0,0,0,0,0,0,0,-1,1910,449,0,0
693,575,0,0,0,0,0,0,0,0,0,-1,1917,449,0,0
700,575,0,0,0,0,0,0,0,0,0,-1,1924,449,0,0
707,575,0,0,0,0,0,0,0,0,0,-1,1931,449,0,0
714,575,0,0,0,0,0,0,0,0,0,-1,1938,449,0,0
721,575,0,0,0,0,0,0,0,0,0,-1,1945,449,0,0
728,575,0,0,0,0,0,0,0,0,0,-1,1952,449,0,0
735,575,0,0,0,0,0,0,0,0,0,-1,1959,449,0,0
742,575,0,0,0,0,0,0,0,0,0,-1,1966,449,0,0
749,575,0,0,0,0,0,0,0,0,0,-1,1973,449,0,0
756,575,0,0,0,0,0,0,0,0,0,-1,1980,449,0,0
763,575,0,0,0,0,0,0,0,0,0,-1,1987,449,0,0
770,575,0,0,0,0,0,0,0,0,0,-1,1994,449,0,0
777,575,0,0,0,0,0,0,0,0,0,-1,2001,449,0,0
784,575,0,0,0,0,0,0,0,0,0,-1,2008,449,0,0
791,575,0,0,0,0,0,0,0,0,0,-1,2015,449,0,0
798,575,0,0,0,0,0,0,0,0,0,-1,2022,449,0,0
805,575,0,0,0,0,0,0,0,0,0,-1,2029,449,0,0
812,575,0,0,0,0,0,0,0,0,0,-1,2036,449,0,0
-700,568,0,0,0,0,0,0,0,0,0,-1,524,456,0,0
-693,568,0,0,0,0,0,0,0,0,0,-1,531,456,0,0
-686,568,0,0,0,0,0,0,0,0,0,-1,538,456,0,0
-679,568,0,0,0,0,0,0,0,0,0,-1,545,456,0,0
-672,568,0,0,0,0,0,0,0,0,0,-1,552,456,0,0
-665,568,0,0,0,0,0,0,0,0,0,-1,559,456,0,0
-658,568,0,0,0,0,0,0,0,0,0,-1,566,456,0,0
-651,568,0,0,0,0,0,0,0,0,0,-1,573,456,0,0
-644,568,0,0,0,0,0,0,0,0,0,-1,580,456,0,0
-637,568,0,0,0,0,0,0,0,0,0,-1,587,456,0,0
-630,568,0,0,0,0,0,0,0,0,0,-1,594,456,0,0
-623,568,0,0,0,0,0,0,0,0,0,-1,601,456,0,0
-616,568,0,0,0,0,0,0,0,0,0,-1,608,456,0,0
-609,568,0,0,0,0,0,0,0,0,0,-1,615,456,0,0
-602,568,0,0,0,0,0,0,0,0,0,-1,622,456,0,0
-595,568,0,0,0,0,0,0,0,0,0,-1,629,456,0,0
-588,568,0,0,0,0,0,0,0,0,0,-1,636,456,0,0
-581,568,0,0,0,0,0,0,0,0,0,-1,643,456,0,0
-574,568,0,0,0,0,0,0,0,0,0,-1,650,456,0,0
-567,568,0,0,0,0,0,0,0,0,0,-1,657,456,0,0
-560,568,0,0,0,0,0,0,0,0,0,-1,664,456,0,0
-553,568,0,0,0,0,0,0,0,0,0,-1,671,456,0,0
-546,568,0,0,0,0,0,0,0,0,0,-1,678,456,0,0
-539,568,0,0,0,0,0,0,0,0,0,-1,685,456,0,0
-532,568,0,0,0,0,0,0,0,0,0,-1,692,456,0,0
-525,568,0,0,0,0,0,0,0,0,0,-1,699,456,0,0
-518,568,0,0,0,0,0,0,0,0,0,-1,706,456,0,0
-511,568,0,0,0,0,0,0,0,0,0,-1,713,456,0,0
-504,568,0,0,0,0,0,0,0,0,0,-1,720,456,0,0
-497,568,0,0,0,0,0,0,0,0,0,-1,727,456,0,0
-490,568,0,0,0,0,0,0,0,0,0,-1,734,456,0,0
-483,568,0,0,0,0,0,0,0,0,0,-1,741,456,0,0
-476,568,0,0,0,0,0,0,0,0,0,-1,748,456,0,0
-469,568,0,0,0,0,0,0,0,0,0,-1,755,456,0,0
-462,568,0,0,0,0,0,0,0,0,0,-1,762,456,0,0
-455,568,0,0,0,0,0,0,0,0,0,-1,769,456,0,0
-448,568,0,0,0,0,0,0,0,0,0,-1,776,456,0,0
-441,568,0,0,0,0,0,0,0,0,0,-1,783,456,0,0
-434,568,0,0,0,0,0,0,0,0,0,-1,790,456,0,0
-427,568,0,0,0,0,0,0,0,0,0,-1,797,456,0,0
-420,568,0,0,0,0,0,0,0,0,0,-1,804,456,0,0
-413,568,0,0,0,0,0,0,0,0,0,-1,811,456,0,0
-406,568,0,0,0,0,0,0,0,0,0,-1,818,456,0,0
-399,568,0,0,0,0,0,0,0,0,0,-1,825,456,0,0
-392,568,0,0,0,0,0,0,0,0,0,-1,832,456,0,0
-385,568,0,0,0,0,0,0,0,0,0,-1,839,456,0,0
-378,568,0.902527,-0.427612,0.0328448,0.0193963,-0.0160049,0.0434806,0.0087605,-0.586527,0.0265531,0.0450607,846,456,0.902545,0.427607
-371,568,1.53302,-0.486755,0.0257585,0.0269611,-0.00873269,0.0351131,0.0176064,-0.819772,0.0202726,0.0432404,853,456,1.53304,0.486748
-364,568,1.75592,-0.368622,0,0,0,0,0,0,0,-1,860,456,1.75593,0.368635
-357,568,1.42407,-0.204437,0.0105766,0.0216454,-0.00160864,0.0218744,0.0103475,-1.42936,0.0126353,0.0475866,867,456,1.42407,0.204433
-350,568,0.960815,-0.267578,0.00539934,0.0183034,0.000893618,0.018365,0.00533775,1.50198,0.0109084,0.048953,874,456,0.960842,0.267586
-343,568,0.427612,-0.293701,0.00207438,0.0151374,0.00192411,0.0154149,0.00179686,1.42755,0.00973307,0.0435014,881,456,0.427588,0.29371
-336,568,0.237732,-0.17395,0.000342049,0.0120195,0.00193087,0.0123305,3.10624e-05,1.41111,0.00821,0.0458159,888,456,0.237726,0.173945
-329,568,-0.57489,0.549927,-0.000483432,0.00933727,0.00126455,0.00949749,-0.000643646,1.44477,0.00655675,0.0437444,895,456,-0.574894,-0.549942
-322,568,0.0327759,0.32666,-0.000744778,0.00669296,-0.000368136,0.00671114,-0.000762955,-1.52146,0.00474888,0.0401298,902,456,0.0327515,-0.326668
-315,568,0.0610352,0.166534,-0.000235124,0.00374548,-0.00176009,0.0044121,-0.000901745,-1.20875,0.00328352,0.036374,909,456,0.0610377,-0.166521
-308,568,-0.0184326,0.0766907,0.000854108,0.00245983,-0.00305914,0.00481971,-0.00150577,-0.913728,0.00381543,0.0244189,916,456,-0.0184252,-0.0766857
-301,568,-0.0327759,0.0501709,0.00192807,0.00132724,-0.00407789,0.00571659,-0.00246128,-0.74863,0.00484458,0.0124913,923,456,-0.032759,-0.0501835
-294,568,-0.0206299,0.0643005,0.00251019,0.000592293,-0.00448776,0.00614031,-0.00303783,-0.680141,0.00539898,0.00970904,930,456,-0.0206432,-0.0643115
-287,568,-0.0101318,0.0619812,0.00255339,0.000264835,-0.00477935,0.00632353,-0.00350531,-0.667899,0.00575192,0.00913083,937,456,-0.0101113,-0.0619893
-280,568,-0.00268555,0.0515747,0.00246365,0.000388734,-0.00447604,0.00602088,-0.0031685,-0.671519,0.00539002,0.00933668,944,456,-0.00270404,-0.0515887
-273,568,-0.00317383,0.0573425,0.00190952,-6.03506e-05,-0.00425274,0.00528989,-0.00344072,-0.671604,0.00507817,0.0101395,951,456,-0.00319219,-0.0573318
-266,568,-0.0213623,0.0501099,0.0013777,-0.000390668,-0.00348109,0.00408514,-0.00309811,-0.66103,0.00416028,0.00990442,958,456,-0.0213419,-0.0501034
-259,568,-0.0283813,0.0559082,0.00121295,0.00075564,-0.00210744,0.0031041,-0.00113552,-0.73136,0.00253418,0.0105703,965,456,-0.0283616,-0.0559167
-252,568,-0.0337524,0.0803528,0.000800327,0.0010514,-0.00143698,0.00236832,-0.000516592,-0.828968,0.0017763,0.0101798,972,456,-0.0337591,-0.0803425
-245,568,-0.0301514,0.0804749,0.000355234,0.00112911,-0.000913547,0.00173429,-0.00024994,-0.985722,0.00124788,0.0114099,979,456,-0.0301289,-0.0804835
-238,568,-0.036377,0.0740967,1.52272e-05,0.000938306,-0.000242666,0.000998212,-4.46789e-05,-1.32877,0.000680856,0.0111867,986,456,-0.0364006,-0.0740828
-231,568,-0.0467529,0.068512,-0.000289597,0.000671202,0.000452835,0.000850986,-0.000469381,1.19286,0.000772854,0.0102156,993,456,-0.0467242,-0.0685055
-224,568,-0.0487061,0.0559692,-0.000580619,0.000501127,0.00104426,0.00113627,-0.00121576,1.02435,0.0013582,0.0110606,1000,456,-0.0487145,-0.0559686
-217,568,-0.0286865,0.0596619,-0.000884558,0.00019744,0.0015988,0.00134429,-0.00203141,0.94854,0.00196237,0.00949726,1007,456,-0.0286983,-0.0596759
-210,568,-0.020813,0.0652771,-0.00139117,-0.000133234,0.0020069,0.00134096,-0.00286535,0.937251,0.0024811,0.00975206,1014,456,-0.0207986,-0.0652647
-203,568,-0.0216675,0.050293,-0.00159073,-0.000781056,0.00249408,0.00134083,-0.00371261,0.865856,0.00302282,0.00846994,1021,456,-0.0216527,-0.0503008
-196,568,-0.0214844,0.0581665,-0.00126909,-0.00135495,0.00273704,0.00142536,-0.0040494,0.777556,0.00327964,0.00997304,1028,456,-0.0214773,-0.0581758
-189,568,0.0140381,0.0692139,-0.000566508,-0.00193585,0.00231148,0.00115957,-0.00366192,0.641413,0.00290597,0.0105498,1035,456,0.0139866,-0.0692184
-182,568,0.00134277,0.0679626,0.000127012,-0.00222153,0.00166206,0.000987774,-0.00308229,0.477856,0.00245138,0.0131176,1042,456,0.00131523,-0.0679576
-175,568,-0.020752,0.0566406,0.00103245,-0.00265491,0.000842977,0.00121602,-0.00283849,0.214423,0.00240253,0.0113517,1049,456,-0.0207732,-0.0566305
-168,568,-0.0450439,0.0501404,0.00143634,-0.00246037,-0.000366085,0.00147043,-0.00249447,-0.0928645,0.00231444,0.0145136,1056,456,-0.0450919,-0.0501293
-161,568,-0.0776367,0.0574951,0.00189263,-0.00205309,-0.00160263,0.00246155,-0.002622,-0.34111,0.00293547,0.021566,1063,456,-0.0776571,-0.0575065
-154,568,-0.0933838,0.066864,0.00270632,-0.00156404,-0.00260106,0.00393634,-0.00279405,-0.441724,0.0039044,0.0274801,1070,456,-0.093416,-0.0668611
-147,568,-0.0693359,0.105652,0.00383461,-0.00143546,-0.00306859,0.00524428,-0.00284513,-0.430633,0.0047384,0.0314439,1077,456,-0.0693778,-0.105649
-140,568,0.362549,0.0480652,0.00461707,-0.000611624,-0.00300546,0.00598614,-0.0019807,-0.427441,0.00478952,0.0343066,1084,456,0.362522,-0.0480747
-133,568,0.550903,-0.115784,0.00491135,-0.000126378,-0.00293916,0.00626332,-0.00147834,-0.431125,0.00474571,0.0397538,1091,456,0.55086,0.115784
-126,568,0.573608,-0.118286,0,0,0,0,0,0,0,-1,1098,456,0.57364,0.118296
-119,568,0.530884,-0.220001,0.00426297,-0.00162832,-0.00176447,0.00475101,-0.00211636,-0.269846,0.00406097,0.0430375,1105,456,0.530911,0.220006
-112,568,0.558105,-0.433685,0.00414206,-0.00305849,-0.000573213,0.00418741,-0.00310384,-0.0789441,0.00422507,0.0423015,1112,456,0.558095,0.433673
-105,568,-0.0472412,-1.08466,0.00403511,-0.00494233,0.000962823,0.00413722,-0.00504443,0.105648,0.00530965,0.0468633,1119,456,-0.0472207,1.08466
-98,568,-0.312134,-0.485504,0,0,0,0,0,0,0,-1,1126,456,-0.312096,0.485497
-91,568,0.167603,0.429474,0,0,0,0,0,0,0,-1,1133,456,0.167568,-0.429463
-84,568,0.915649,1.55725,0,0,0,0,0,0,0,-1,1140,456,0.915609,-1.55724
-77,568,0.498169,1.46945,0,0,0,0,0,0,0,-1,1147,456,0.498125,-1.46944
-70,568,0.0806885,1.38165,0,0,0,0,0,0,0,-1,1154,456,0.0806416,-1.38164
-63,568,-0.0629883,-1.04028,0,0,0,0,0,0,0,-1,1161,456,-0.0629825,1.04029
-56,568,0.288452,-0.560455,0.00335434,-0.0163438,0.0110208,0.00828572,-0.0212752,0.420741,0.0176077,0.0469766,1168,456,0.288447,0.560443
-49,568,0.203491,-0.448364,0.00303395,-0.017468,0.0117645,0.00838703,-0.0228211,0.42702,0.0186493,0.0419445,1175,456,0.203527,0.448373
-42,568,-0.0367432,-0.170837,0.00275056,-0.0185614,0.0122158,0.00830493,-0.0241158,0.426745,0.0194459,0.0420858,1182,456,-0.0367582,0.170841
-35,568,-0.158203,-0.0169373,0.00326619,-0.0201855,0.0121008,0.00839038,-0.0253097,0.400566,0.0202576,0.0427175,1189,456,-0.158223,0.0169309
-28,568,0.21582,0.775238,0.00426083,-0.0231207,0.0133424,0.00968701,-0.0285468,0.386257,0.0229521,0.0434166,1196,456,0.21581,-0.775235
-21,568,0.400269,1.28317,0.00384039,-0.0268117,0.01567,0.0104332,-0.0334045,0.398248,0.0264426,0.0442378,1203,456,0.400317,-1.28316
-14,568,0.512085,1.92368,0.000717405,-0.0314857,0.0185086,0.00914801,-0.0399163,0.427416,0.0301268,0.0445332,1210,456,0.512038,-1.92368
-7,568,0.610352,-0.451416,-0.00106891,-0.0369121,0.0195651,0.00754207,-0.0455231,0.414607,0.03315,0.0473118,1217,456,0.610402,0.451427
0,568,0.719238,-0.314514,0,0,0,0,0,0,0,-1,1224,456,0.719243,0.314518
7,568,0.724731,-0.348328,0,0,0,0,0,0,0,-1,1231,456,0.724756,0.348332
14,568,0.730225,-0.382141,0,0,0,0,0,0,0,-1,1238,456,0.73027,0.382147
21,568,0.772339,0.116577,0.00495701,-0.0537786,0.0191205,0.0106329,-0.0594545,0.288564,0.0436149,0.0440237,1245,456,0.772336,-0.11659
28,568,-0.218994,0.80304,0.00886587,-0.0560291,0.020019,0.0145445,-0.0617077,0.276401,0.0467471,0.0425823,1252,456,-0.219038,-0.803025
35,568,-1.09546,1.5448,0.0144361,-0.0559909,0.0211561,0.0203027,-0.0618574,0.270502,0.0494162,0.0411712,1259,456,-1.09551,-1.5448
42,568,-1.99976,2.13535,0.0227267,-0.0542763,0.0224746,0.0288063,-0.0603559,0.264186,0.0525411,0.0423437,1266,456,-1.99974,-2.13535
49,568,-2.40833,2.90857,0.0308533,-0.0521428,0.02577,0.0382038,-0.0594933,0.277856,0.0568501,0.0455323,1273,456,-2.4083,-2.90856
56,568,0.0969238,-1.81134,0.0392661,-0.0490276,0.0283695,0.0475956,-0.0573571,0.285583,0.0606818,0.0487045,1280,456,0.0969612,1.81135
63,568,-0.342651,-2.56949,0.0480289,-0.0457508,0.0315681,0.0576651,-0.0553871,0.296269,0.0652752,0.04733,1287,456,-0.342659,2.56948
70,568,-6.61243,-1.67047,0.0553367,-0.0424627,0.0361597,0.067254,-0.0543799,0.318363,0.0703564,0.0448954,1294,456,-6.61243,1.67046
77,568,-5.99463,-1.31592,0.0619184,-0.038047,0.0388744,0.0752562,-0.0513849,0.330515,0.073548,0.0430535,1301,456,-5.99462,1.31592
84,568,-5.46472,-0.980682,0.0696541,-0.035824,0.0419187,0.084284,-0.050454,0.335791,0.0786041,0.0471324,1308,456,-5.46477,0.980671
91,568,-4.7594,-0.142731,0,0,0,0,0,0,0,-1,1315,456,-4.75937,0.142733
98,568,-4.08203,0.381165,0.0827309,-0.031649,0.0426268,0.0968693,-0.0457874,0.320261,0.0841046,0.042665,1322,456,-4.08203,-0.381161
105,568,-3.39282,0.686127,0.0833856,-0.0301984,0.0421556,0.0973214,-0.0441342,0.319271,0.0835716,0.0448774,1329,456,-3.39279,-0.686125
112,568,-2.88086,0.656189,0.0824218,-0.0312185,0.0428361,0.0967596,-0.0455564,0.322993,0.0839201,0.0476313,1336,456,-2.88087,-0.656196
119,568,-2.10303,0.424072,0.0842607,-0.0300019,0.0379126,0.0956958,-0.0414371,0.29294,0.0812132,0.0460471,1343,456,-2.10308,-0.424073
126,568,-1.91992,0.0919189,0.0824263,-0.0259186,0.031839,0.09109,-0.0345823,0.265676,0.074962,0.0484611,1350,456,-1.91991,-0.0919314
133,568,-1.27905,1.13562,0.074183,-0.0204938,0.0263504,0.0810227,-0.0273335,0.253963,0.065069,0.0481616,1357,456,-1.27906,-1.13563
140,568,-0.276001,2.03394,0.06522,-0.0174051,0.0222419,0.0708269,-0.0230119,0.24694,0.0564736,0.0458827,1364,456,-0.276045,-2.03393
147,568,0.508423,2.74875,0.0543597,-0.013212,0.0188563,0.0592655,-0.0181178,0.254525,0.0467353,0.0445191,1371,456,0.508368,-2.74875
154,568,1.29419,3.38248,0.0453623,-0.00992559,0.0146203,0.0489904,-0.0135537,0.243241,0.0379927,0.041942,1378,456,1.29415,-3.38247
161,568,2.11133,4.05499,0,0,0,0,0,0,0,-1,1385,456,2.11128,-4.05498
168,568,-0.305664,-0.657501,0,0,0,0,0,0,0,-1,1392,456,-0.305659,0.657488
175,568,-0.175903,-0.812897,0,0,0,0,0,0,0,-1,1399,456,-0.175907,0.812894
182,568,-0.150635,0.163116,0.0163131,0.00180803,0.00550077,0.0181632,-4.20585e-05,0.324447,0.0121229,0.0447986,1406,456,-0.150624,-0.163106
189,568,-0.105469,0.0663757,0.0113773,0.00475926,0.00307089,0.0125827,0.00355387,0.374045,0.00749035,0.0478095,1413,456,-0.105496,-0.0663621
196,568,-0.0524902,0.252289,0.00654255,0.00679226,0.00176199,0.00843381,0.004901,0.820769,0.00489058,0.0424326,1420,456,-0.0525094,-0.252276
203,568,-0.22229,0.332672,0.00248706,0.00784235,0.000534465,0.00789517,0.00243424,1.47229,0.00466859,0.0492935,1427,456,-0.22226,-0.332687
210,568,-0.328735,0.378784,0.000356506,0.00847948,-0.000598534,0.00852334,0.00031264,-1.49764,0.00558093,0.0486333,1434,456,-0.328785,-0.37879
217,568,-0.0150146,0.100159,0.000380613,0.0082608,-0.00105098,0.00839856,0.000242851,-1.44046,0.00551987,0.0430071,1441,456,-0.0149768,-0.100173
224,568,0.500244,0.0690002,-2.9982e-05,0.00752775,-0.000511191,0.00756217,-6.44014e-05,-1.50357,0.00506305,0.0431409,1448,456,0.500258,-0.0690111
231,568,1.05127,0.0744019,-0.000855767,0.00652637,0.000408235,0.00654888,-0.000878274,1.51572,0.00468619,0.0472639,1455,456,1.05129,-0.0743954
238,568,0.0518799,0.0869751,0,0,0,0,0,0,0,-1,1462,456,0.0519092,-0.0869695
245,568,-0.295532,0.217194,-0.00187532,0.00512222,0.0028422,0.00613117,-0.00288427,1.22969,0.00531639,0.0476368,1469,456,-0.295558,-0.217208
252,568,-0.530762,0.12674,-0.00203442,0.0040614,0.00412913,0.00614569,-0.00411871,1.10333,0.00596455,0.0426785,1476,456,-0.530804,-0.12673
259,568,-0.448853,0.157684,-0.00221072,0.0035125,0.00550205,0.00685262,-0.00555084,1.0252,0.00717427,0.0389706,1483,456,-0.448873,-0.15769
266,568,-0.273682,0.0122375,-0.00227553,0.00274137,0.0067687,0.00745148,-0.00698564,0.96285,0.00833672,0.0375872,1490,456,-0.273674,-0.0122248
273,568,-0.0357666,0.0979309,-0.00177258,0.00211424,0.00759415,0.00800971,-0.00766805,0.910664,0.00905227,0.0413559,1497,456,-0.0357524,-0.0979353
280,568,-0.0391846,0.0631409,-0.00126755,0.00164844,0.00805203,0.00837341,-0.00799252,0.874964,0.00944973,0.0331384,1504,456,-0.0391578,-0.0631539
287,568,-0.0229492,0.0678406,-0.00108678,0.000978268,0.00766495,0.00767992,-0.00778843,0.852349,0.00893073,0.0221835,1511,456,-0.0229063,-0.0678484
294,568,-0.00134277,0.0560913,-0.000498522,0.000507626,0.00716309,0.00718528,-0.00717618,0.820456,0.0082916,0.0174916,1518,456,-0.00128919,-0.0560835
301,568,-0.0240479,0.0501709,0.000376532,0.000187847,0.00661468,0.00689754,-0.00633317,0.778267,0.00764107,0.0128019,1525,456,-0.0239999,-0.050162
308,568,-0.0228271,0.0489502,0.000848777,0.000164821,0.00581459,0.00633143,-0.00531784,0.756025,0.00673419,0.00982832,1532,456,-0.0228816,-0.0489577
315,568,-0.0356445,0.0609131,0.000602869,0.000406861,0.00475909,0.00526496,-0.00425523,0.775103,0.00550678,0.00781007,1539,456,-0.0356758,-0.0609283
322,568,-0.0239258,0.0602417,0.000293976,0.000471352,0.0036636,0.00404734,-0.00328201,0.7975,0.00423928,0.00931564,1546,456,-0.0238927,-0.0602292
329,568,-0.0195313,0.0632019,0.000145728,0.000588671,0.00257683,0.00295353,-0.00221913,0.828266,0.00299646,0.00915928,1553,456,-0.0195233,-0.0632023
336,568,-0.0280762,0.0733948,0.000204923,0.000599983,0.0016371,0.00205143,-0.00124652,0.845437,0.00192288,0.0103114,1560,456,-0.0280988,-0.0733875
343,568,-0.0202637,0.0797424,0.000173296,0.000465479,0.000898677,0.00122986,-0.000591086,0.865975,0.00107267,0.0105855,1567,456,-0.0202219,-0.0797378
350,568,-0.0272217,0.0587463,8.71055e-05,0.000279871,0.000604962,0.00079608,-0.000429103,0.864394,0.000717859,0.00942322,1574,456,-0.0272422,-0.0587407
357,568,-0.026001,0.0643005,1.24923e-05,0.000151923,0.000711078,0.000796695,-0.000632279,0.834263,0.000826837,0.00927776,1581,456,-0.0260571,-0.064294
364,568,-0.0163574,0.0665283,7.07492e-05,-0.000124672,0.000718471,0.000698123,-0.000752046,0.717814,0.000837449,0.0113774,1588,456,-0.016386,-0.0665431
371,568,-0.0192871,0.0782776,-4.82193e-05,-0.000272452,0.000882387,0.000729145,-0.00104982,0.722207,0.00103263,0.0201764,1595,456,-0.0193402,-0.0782759
378,568,-0.0296631,0.0776978,-0.000241139,-0.000563252,0.00107438,0.000684186,-0.00148858,0.710999,0.00128278,0.0185791,1602,456,-0.0296925,-0.0776843
385,568,-0.0432129,0.0768127,-1.88841e-05,-0.000821966,0.00127449,0.000915826,-0.00175668,0.632791,0.00156822,0.00830572,1609,456,-0.0432658,-0.07681
392,568,-0.0560303,0.0780334,0.000287187,-0.00123678,0.00164128,0.00133474,-0.00228433,0.568074,0.00211331,0.00912872,1616,456,-0.0560418,-0.0780381
399,568,-0.0620117,0.0682678,0.000752542,-0.000852717,0.00171907,0.00184713,-0.0019473,0.56699,0.00219097,0.0147148,1623,456,-0.0620098,-0.0682696
406,568,-0.0272217,0.0580139,0.00132196,-0.000892401,0.001756,0.00229068,-0.00186112,0.50412,0.00240132,0.0136725,1630,456,-0.0272801,-0.0580067
413,568,-0.0284424,0.0431519,0.00155134,-0.000829619,0.00150449,0.00227939,-0.00155766,0.450695,0.00222834,0.0105545,1637,456,-0.0284988,-0.0431484
420,568,-0.0444336,0.0613403,0.00209492,-0.00131757,0.00103309,0.00238331,-0.00160596,0.272218,0.00231773,0.00913871,1644,456,-0.0444892,-0.0613473
427,568,-0.057373,0.0707397,0.00309502,-0.00127483,0.000859248,0.00325791,-0.00143771,0.187342,0.00277808,0.0102281,1651,456,-0.0573285,-0.0707364
434,568,-0.0566406,0.0587463,0.00376308,-0.000950321,0.000407257,0.00379801,-0.000985252,0.085559,0.00291644,0.0125863,1658,456,-0.0566902,-0.0587553
441,568,-0.0186768,0.0473633,0.00444071,4.31296e-05,0.00024674,0.00445451,2.93287e-05,0.0558745,0.00295995,0.0187053,1665,456,-0.0187273,-0.0473768
448,568,0.311523,0.0551147,0.00493322,0.000912052,9.42054e-06,0.00493324,0.00091203,0.00234272,0.00303091,0.0344066,1672,456,0.311539,-0.0551088
455,568,0.795532,-0.184143,0.00526749,0.00187627,-0.000253848,0.00528639,0.00185738,-0.0743026,0.00309673,0.0431625,1679,456,0.795547,0.184138
462,568,1.02271,-0.247864,0,0,0,0,0,0,0,-1,1686,456,1.02265,0.247858
469,568,-0.238525,-0.09021,0.00609715,0.00500833,-0.000686701,0.00642906,0.00467642,-0.450234,0.00383763,0.0363743,1693,456,-0.238554,0.0902125
476,568,-0.0231934,0.0501709,0.00613451,0.00755182,-0.000320113,0.00762076,0.00606557,-1.35865,0.00464963,0.0380756,1700,456,-0.0231736,-0.0501655
483,568,-0.0183105,-0.154541,0.00598003,0.0105868,0.000314389,0.0106082,0.00595867,1.50297,0.00614016,0.0413345,1707,456,-0.0182539,0.154531
490,568,-0.1604,-0.532318,0.00623902,0.0130774,0.00109632,0.0132489,0.00606756,1.41566,0.00765826,0.0416534,1714,456,-0.160431,0.532326
497,568,-0.377808,-0.0907593,0.00730066,0.0155462,0.00170661,0.0158855,0.0069614,1.37456,0.00919477,0.0410909,1721,456,-0.377817,0.0907663
504,568,0,0,0,0,0,0,0,0,0,-1,1728,456,0,0
511,568,0,0,0,0,0,0,0,0,0,-1,1735,456,0,0
518,568,0,0,0,0,0,0,0,0,0,-1,1742,456,0,0
525,568,0,0,0,0,0,0,0,0,0,-1,1749,456,0,0
532,568,0,0,0,0,0,0,0,0,0,-1,1756,456,0,0
539,568,0,0,0,0,0,0,0,0,0,-1,1763,456,0,0
546,568,0,0,0,0,0,0,0,0,0,-1,1770,456,0,0
553,568,0,0,0,0,0,0,0,0,0,-1,1777,456,0,0
560,568,0,0,0,0,0,0,0,0,0,-1,1784,456,0,0
567,568,0,0,0,0,0,0,0,0,0,-1,1791,456,0,0
574,568,0,0,0,0,0,0,0,0,0,-1,1798,456,0,0
581,568,0,0,0,0,0,0,0,0,0,-1,1805,456,0,0
588,568,0,0,0,0,0,0,0,0,0,-1,1812,456,0,0
595,568,0,0,0,0,0,0,0,0,0,-1,1819,456,0,0
602,568,0,0,0,0,0,0,0,0,0,-1,1826,456,0,0
609,568,0,0,0,0,0,0,0,0,0,-1,1833,456,0,0
616,568,0,0,0,0,0,0,0,0,0,-1,1840,456,0,0
623,568,0,0,0,0,0,0,0,0,0,-1,1847,456,0,0
630,568,0,0,0,0,0,0,0,0,0,-1,1854,456,0,0
637,568,0,0,0,0,0,0,0,0,0,-1,1861,456,0,0
644,568,0,0,0,0,0,0,0,0,0,-1,1868,456,0,0
651,568,0,0,0,0,0,0,0,0,0,-1,1875,456,0,0
658,568,0,0,0,0,0,0,0,0,0,-1,1882,456,0,0
665,568,0,0,0,0,0,0,0,0,0,-1,1889,456,0,0
672,568,0,0,0,0,0,0,0,0,0,-1,1896,456,0,0
679,568,0,0,0,0,0,0,0,0,0,-1,1903,456,0,0
686,568,0,0,0,0,0,0,0,0,0,-1,1910,456,0,0
693,568,0,0,0,0,0,0,0,0,0,-1,1917,456,0,0
700,568,0,0,0,0,0,0,0,0,0,-1,1924,456,0,0
707,568,0,0,0,0,0,0,0,0,0,-1,1931,456,0,0
714,568,0,0,0,0,0,0,0,0,0,-1,1938,456,0,0
721,568,0,0,0,0,0,0,0,0,0,-1,1945,456,0,0
728,568,0,0,0,0,0,0,0,0,0,-1,1952,456,0,0
735,568,0,0,0,0,0,0,0,0,0,-1,1959,456,0,0
742,568,0,0,0,0,0,0,0,0,0,-1,1966,456,0,0
749,568,0,0,0,0,0,0,0,0,0,-1,1973,456,0,0
756,568,0,0,0,0,0,0,0,0,0,-1,1980,456,0,0
763,568,0,0,0,0,0,0,0,0,0,-1,1987,456,0,0
770,568,0,0,0,0,0,0,0,0,0,-1,1994,456,0,0
777,568,0,0,0,0,0,0,0,0,0,-1,2001,456,0,0
784,568,0,0,0,0,0,0,0,0,0,-1,2008,456,0,0
791,568,0,0,0,0,0,0,0,0,0,-1,2015,456,0,0
798,568,0,0,0,0,0,0,0,0,0,-1,2022,456,0,0
805,568,0,0,0,0,0,0,0,0,0,-1,2029,456,0,0
812,568,0,0,0,0,0,0,0,0,0,-1,2036,456,0,0
-700,561,0,0,0,0,0,0,0,0,0,-1,524,463,0,0
-693,561,0,0,0,0,0,0,0,0,0,-1,531,463,0,0
-686,561,0,0,0,0,0,0,0,0,0,-1,538,463,0,0
-679,561,0,0,0,0,0,0,0,0,0,-1,545,463,0,0
-672,561,0,0,0,0,0,0,0,0,0,-1,552,463,0,0
-665,561,0,0,0,0,0,0,0,0,0,-1,559,463,0,0
-658,561,0,0,0,0,0,0,0,0,0,-1,566,463,0,0
-651,561,0,0,0,0,0,0,0,0,0,-1,573,463,0,0
-644,561,0,0,0,0,0,0,0,0,0,-1,580,463,0,0
-637,561,0,0,0,0,0,0,0,0,0,-1,587,463,0,0
-630,561,0,0,0,0,0,0,0,0,0,-1,594,463,0,0
-623,561,0,0,0,0,0,0,0,0,0,-1,601,463,0,0
-616,561,0,0,0,0,0,0,0,0,0,-1,608,463,0,0
-609,561,0,0,0,0,0,0,0,0,0,-1,615,463,0,0
-602,561,0,0,0,0,0,0,0,0,0,-1,622,463,0,0
-595,561,0,0,0,0,0,0,0,0,0,-1,629,463,0,0
-588,561,0,0,0,0,0,0,0,0,0,-1,636,463,0,0
-581,561,0,0,0,0,0,0,0,0,0,-1,643,463,0,0
-574,561,0,0,0,0,0,0,0,0,0,-1,650,463,0,0
-567,561,0,0,0,0,0,0,0,0,0,-1,657,463,0,0
-560,561,0,0,0,0,0,0,0,0,0,-1,664,463,0,0
-553,561,0,0,0,0,0,0,0,0,0,-1,671,463,0,0
-546,561,0,0,0,0,0,0,0,0,0,-1,678,463,0,0
-539,561,0,0,0,0,0,0,0,0,0,-1,685,463,0,0
-532,561,0,0,0,0,0,0,0,0,0,-1,692,463,0,0
-525,561,0,0,0,0,0,0,0,0,0,-1,699,463,0,0
-518,561,0,0,0,0,0,0,0,0,0,-1,706,463,0,0
-511,561,0,0,0,0,0,0,0,0,0,-1,713,463,0,0
-504,561,0,0,0,0,0,0,0,0,0,-1,720,463,0,0
-497,561,0,0,0,0,0,0,0,0,0,-1,727,463,0,0
-490,561,0,0,0,0,0,0,0,0,0,-1,734,463,0,0
-483,561,0,0,0,0,0,0,0,0,0,-1,741,463,0,0
-476,561,0,0,0,0,0,0,0,0,0,-1,748,463,0,0
-469,561,0,0,0,0,0,0,0,0,0,-1,755,463,0,0
-462,561,0,0,0,0,0,0,0,0,0,-1,762,463,0,0
-455,561,0,0,0,0,0,0,0,0,0,-1,769,463,0,0
-448,561,0,0,0,0,0,0,0,0,0,-1,776,463,0,0
-441,561,0,0,0,0,0,0,0,0,0,-1,783,463,0,0
-434,561,0,0,0,0,0,0,0,0,0,-1,790,463,0,0
-427,561,0,0,0,0,0,0,0,0,0,-1,797,463,0,0
-420,561,0,0,0,0,0,0,0,0,0,-1,804,463,0,0
-413,561,0,0,0,0,0,0,0,0,0,-1,811,463,0,0
-406,561,0,0,0,0,0,0,0,0,0,-1,818,463,0,0
-399,561,0,0,0,0,0,0,0,0,0,-1,825,463,0,0
-392,561,0.186157,-0.111603,0,0,0,0,0,0,0,-1,832,463,0.186153,0.111606
-385,561,0.553345,-0.243896,0.0329997,0.00782448,-0.0250187,0.048419,-0.00759475,-0.552324,0.035086,0.0497574,839,463,0.553353,0.243883
-378,561,0.983215,-0.416901,0.026173,0.0137402,-0.0166647,0.0377429,0.0021702,-0.606878,0.0244707,0.0451641,846,463,0.983217,0.4169
-371,561,1.65503,-0.769135,0.0205915,0.0207856,-0.0106102,0.0312992,0.0100779,-0.789972,0.0184484,0.0413887,853,463,1.655,0.769137
-364,561,1.52716,-0.701385,0,0,0,0,0,0,0,-1,860,463,1.52714,0.701373
-357,561,1.23663,-0.644928,0.00824432,0.0190788,-0.00256279,0.0196544,0.0076687,-1.34986,0.0114384,0.0437775,867,463,1.23662,0.64493
-350,561,0.725769,-0.611755,0.0037936,0.0167306,-4.06086e-05,0.0167307,0.00379348,-1.56766,0.010129,0.0446946,874,463,0.725789,0.611741
-343,561,0.413208,-0.438141,0.00099201,0.0144505,0.00123455,0.0145628,0.000879701,1.48007,0.009429,0.0411409,881,463,0.413227,0.438138
-336,561,0.126221,-0.188782,-0.000415553,0.0120576,0.00166523,0.012276,-0.000634044,1.44033,0.00840336,0.0409491,888,463,0.126221,0.188784
-329,561,-0.0465698,-0.0534668,-0.0010271,0.00994889,0.00153423,0.0101593,-0.00123752,1.4345,0.00722081,0.0323458,895,463,-0.0465973,0.0534812
-322,561,-0.00604248,0.00900269,-0.00121626,0.00779484,0.000466369,0.00781891,-0.00124033,1.51923,0.00567144,0.0262103,902,463,-0.00604382,-0.00899166
-315,561,0.00195313,0.0526123,-0.000773397,0.00521537,-0.000476443,0.00525304,-0.000811064,-1.4919,0.00380133,0.0185732,909,463,0.00193499,-0.0526218
-308,561,-0.0238037,0.0620117,0.000201774,0.0040226,-0.00145966,0.00451641,-0.000292036,-1.24458,0.00311286,0.0137839,916,463,-0.0238141,-0.0619982
-301,561,-0.0319214,0.0543823,0.00116559,0.00278884,-0.00230948,0.00442515,-0.000470726,-0.954374,0.00311888,0.0106353,923,463,-0.0319186,-0.0543814
-294,561,-0.0202026,0.0671997,0.00171677,0.00184588,-0.00272879,0.00451088,-0.000948224,-0.797224,0.00336812,0.00962959,930,463,-0.0201973,-0.0671876
-287,561,-0.0289917,0.0679932,0.00178388,0.00128677,-0.0031255,0.0046707,-0.00160004,-0.745719,0.00376232,0.00873459,937,463,-0.0289919,-0.0679978
-280,561,-0.0288086,0.0615234,0.00165594,0.00120308,-0.00302774,0.0044657,-0.00160668,-0.748074,0.00363311,0.0107711,944,463,-0.0287861,-0.0615195
-273,561,-0.0154419,0.0727844,0.00114847,0.000701178,-0.00280446,0.00373819,-0.00188854,-0.745609,0.00330659,0.0129062,951,463,-0.0154205,-0.0727845
-266,561,-0.0162354,0.0777893,0.000684749,0.00033348,-0.00218875,0.0027049,-0.00168667,-0.745362,0.00255809,0.0081886,958,463,-0.0162369,-0.0777743
-259,561,-0.0213623,0.0750732,0.00053757,0.00109928,-0.0011478,0.00200008,-0.000363237,-0.905385,0.00146951,0.00829058,965,463,-0.0213376,-0.0750678
-252,561,-0.0366211,0.0789795,0.000147297,0.0015267,-0.000509675,0.00169459,-2.05887e-05,-1.25259,0.00113665,0.0109107,972,463,-0.0366155,-0.0789814
-245,561,-0.02771,0.0718994,-0.000316793,0.00174388,0.00014085,0.00175347,-0.000326376,1.50287,0.00129159,0.0134337,979,463,-0.0277238,-0.071895
-238,561,-0.0266113,0.0657043,-0.000684327,0.00172454,0.000957074,0.0020585,-0.00101829,1.23507,0.00180991,0.011669,986,463,-0.0266201,-0.0657166
-231,561,-0.0358276,0.0629272,-0.000988006,0.00148629,0.00183511,0.00246232,-0.00196403,1.08198,0.00256095,0.00987811,993,463,-0.0358046,-0.0629141
-224,561,-0.041626,0.0542908,-0.00120527,0.0012584,0.00259137,0.00289581,-0.00284269,1.00727,0.00331318,0.00949089,1000,463,-0.0416273,-0.0542968
-217,561,-0.0209351,0.0510559,-0.00141211,0.000738628,0.00328219,0.00311713,-0.00379061,0.943706,0.00399449,0.00997435,1007,463,-0.020914,-0.0510556
-210,561,-0.0142212,0.057251,-0.00189543,0.000165539,0.00382633,0.00309772,-0.00482761,0.916934,0.00461188,0.0109749,1014,463,-0.0142486,-0.0572484
-203,561,-0.0230713,0.0483093,-0.0020386,-0.00078921,0.00438692,0.00301727,-0.00584508,0.856122,0.00520278,0.0118964,1021,463,-0.0230544,-0.048315
-196,561,-0.0522461,0.0492249,-0.00157261,-0.0016835,0.00452869,0.00290098,-0.00615708,0.779277,0.00534112,0.0108871,1028,463,-0.0522787,-0.049214
-189,561,-0.0222168,0.0726624,-0.000680006,-0.00266906,0.00387277,0.0023239,-0.00567297,0.659714,0.00475004,0.0128609,1035,463,-0.0222029,-0.0726618
-182,561,-0.00805664,0.0628967,0.000214602,-0.00334403,0.00294594,0.00187687,-0.0050063,0.513724,0.00410863,0.0160593,1042,463,-0.00809098,-0.062886
-175,561,-0.050415,0.0297546,0.00134536,-0.00418727,0.00170833,0.00183034,-0.00467225,0.276611,0.00387194,0.02459,1049,463,-0.0504293,-0.0297621
-168,561,-0.085083,0.033783,0.0018588,-0.00417589,2.65073e-05,0.00185891,-0.00417601,0.00439238,0.00356884,0.0350522,1056,463,-0.0850311,-0.0337839
-161,561,-0.109619,0.186035,0.00241959,-0.00393686,-0.00162552,0.00281115,-0.00432843,-0.236385,0.00415295,0.0389904,1063,463,-0.109647,-0.186048
-154,561,-0.180908,0.358307,0.00340169,-0.00359304,-0.0029431,0.00447526,-0.00466661,-0.349775,0.00527844,0.0422878,1070,463,-0.180867,-0.358311
-147,561,0.0131836,0.150055,0.0047372,-0.00361156,-0.00362815,0.00609355,-0.0049679,-0.357753,0.00639734,0.0444479,1077,463,0.0132199,-0.150041
-140,561,0.790649,0.17926,0.00570188,-0.00273244,-0.00365872,0.00706779,-0.00409835,-0.357306,0.00652232,0.0449218,1084,463,0.790606,-0.179266
-133,561,1.46484,0.225037,0,0,0,0,0,0,0,-1,1091,463,1.46481,-0.225041
-126,561,1.00769,-0.232025,0,0,0,0,0,0,0,-1,1098,463,1.00764,0.232024
-119,561,0.958496,-0.323853,0.00553664,-0.00346754,-0.002103,0.00600359,-0.00393449,-0.218498,0.00577906,0.045356,1105,463,0.958437,0.323838
-112,561,-0.506226,-1.3587,0.00544364,-0.00498286,-0.000578191,0.00547561,-0.00501482,-0.0552283,0.0060586,0.0451669,1112,463,-0.506246,1.3587
-105,561,-0.113037,-0.969391,0.00537441,-0.00701614,0.00133447,0.0055165,-0.00715823,0.10608,0.00733819,0.0473001,1119,463,-0.113027,0.969405
-98,561,0.55603,-0.646484,0.00459641,-0.00927987,0.00300386,0.00521876,-0.00990222,0.204292,0.00886859,0.0440357,1126,463,0.556024,0.646489
-91,561,0.852051,0.590607,0.00337984,-0.0107087,0.00472239,0.00481629,-0.0121452,0.295287,0.0100928,0.0439826,1133,463,0.851994,-0.590619
-84,561,0.787231,0.997589,0,0,0,0,0,0,0,-1,1140,463,0.787198,-0.997595
-77,561,0.81665,1.83054,0,0,0,0,0,0,0,-1,1147,463,0.816609,-1.83053
-70,561,-0.0594482,-1.08008,0,0,0,0,0,0,0,-1,1154,463,-0.0594718,1.08007
-63,561,-0.163818,-0.72403,0.00393605,-0.0167978,0.0121098,0.00951024,-0.022372,0.431391,0.0188999,0.0450751,1161,463,-0.163772,0.724031
-56,561,-0.157104,-0.314667,0.00432878,-0.0182298,0.013148,0.0103727,-0.0242737,0.430876,0.0205328,0.0445825,1168,463,-0.157149,0.314661
-49,561,0.123535,-0.0257568,0.00355509,-0.0193695,0.014068,0.0102392,-0.0260536,0.443555,0.0216066,0.0467878,1175,463,0.123522,0.0257436
-42,561,0.0422363,0.431641,0.00282724,-0.0206984,0.0148135,0.00998015,-0.0278513,0.449844,0.0226398,0.0461623,1182,463,0.0422592,-0.431629
-35,561,-0.107056,0.521332,0.00294893,-0.0228577,0.0150471,0.00986758,-0.0297763,0.430974,0.0238311,0.0429033,1189,463,-0.107043,-0.521324
-28,561,-0.0374756,0.727753,0.00350279,-0.0268429,0.0169131,0.0110515,-0.0343915,0.419791,0.0273658,0.0432273,1196,463,-0.0374938,-0.727755
-21,561,0.0219727,1.10034,0.00243937,-0.0320352,0.0203371,0.0118615,-0.0414573,0.433855,0.0323258,0.0438569,1203,463,0.0220038,-1.10033
-14,561,0.130859,1.94128,-0.00166852,-0.0384357,0.0245671,0.0106318,-0.050736,0.464192,0.0378687,0.0410373,1210,463,0.130909,-1.9413
-7,561,0.614624,2.88712,-0.00454681,-0.0457692,0.0265905,0.00848537,-0.0588013,0.455702,0.0423139,0.0457177,1217,463,0.614663,-2.8871
0,561,-0.241577,1.20496,0,0,0,0,0,0,0,-1,1224,463,-0.241622,-1.20495
7,561,-0.667725,0.970795,0,0,0,0,0,0,0,-1,1231,463,-0.667753,-0.970792
14,561,-0.728271,2.07578,0,0,0,0,0,0,0,-1,1238,463,-0.728249,-2.07579
21,561,-2.00793,2.63065,0.00183534,-0.070646,0.0285029,0.0117011,-0.0805117,0.333224,0.0579698,0.0425696,1245,463,-2.0079,-2.63064
28,561,0.2229,1.9129,0.00714948,-0.0745227,0.0300463,0.0170121,-0.0843854,0.317168,0.0627017,0.0454735,1252,463,0.222851,-1.91291
35,561,-0.433594,2.43497,0.0143531,-0.0759682,0.0314447,0.024222,-0.0858371,0.304114,0.0667795,0.0404456,1259,463,-0.433542,-2.43497
42,561,-1.0752,2.74197,0.0238698,-0.0754071,0.0327055,0.0336756,-0.0852129,0.291294,0.0707574,0.0419307,1266,463,-1.07517,-2.74198
49,561,-1.96301,3.14865,0.0334781,-0.0739905,0.0353621,0.0440699,-0.0845823,0.291021,0.075495,0.0449808,1273,463,-1.96296,-3.14865
56,561,-0.00268555,-2.13791,0.0442757,-0.0708022,0.0372131,0.0552608,-0.0817873,0.287042,0.0796173,0.0464893,1280,463,-0.00266694,2.13791
63,561,-0.183472,-2.9491,0.0549897,-0.0670735,0.0395833,0.0667021,-0.0787859,0.287685,0.0840941,0.0494453,1287,463,-0.183524,2.94911
70,561,-8.3468,-0.658905,0.0637792,-0.0625574,0.0439489,0.0775637,-0.0763419,0.303932,0.0888584,0.0464866,1294,463,-8.34682,0.6589
77,561,-7.29822,-0.369843,0.0714988,-0.0568181,0.0457282,0.0861272,-0.0714465,0.309612,0.0911068,0.0446197,1301,463,-7.29821,0.369855
84,561,-6.07849,0.0265808,0.0808665,-0.0533867,0.0480191,0.0962736,-0.0687939,0.310478,0.095741,0.0458633,1308,463,-6.07853,-0.0265756
91,561,-5.17261,0.483246,0.0910631,-0.0495562,0.0462222,0.104896,-0.0633889,0.290783,0.0981394,0.0427498,1315,463,-5.17255,-0.483244
98,561,-4.4259,0.946289,0.0969834,-0.0456868,0.0453642,0.110186,-0.0588893,0.283211,0.0991019,0.0449987,1322,463,-4.42586,-0.9463
105,561,-3.79614,0.945892,0.0980081,-0.042191,0.0437854,0.110559,-0.054742,0.279162,0.0972334,0.0495431,1329,463,-3.79618,-0.945902
112,561,-3.21924,0.963379,0,0,0,0,0,0,0,-1,1336,463,-3.21928,-0.963372
119,561,-2.28186,0.408783,0,0,0,0,0,0,0,-1,1343,463,-2.28185,-0.408768
126,561,-2.39441,0.475067,0,0,0,0,0,0,0,-1,1350,463,-2.3944,-0.475075
133,561,-1.72229,1.52707,0,0,0,0,0,0,0,-1,1357,463,-1.72229,-1.52708
140,561,0.416016,2.22748,0.0732842,-0.0181613,0.0204691,0.0776569,-0.0225339,0.21046,0.0606934,0.0481785,1364,463,0.416033,-2.22748
147,561,1.02234,2.53952,0.0612804,-0.0124567,0.0172056,0.0650975,-0.0162739,0.218317,0.0497188,0.0448832,1371,463,1.0223,-2.53952
154,561,1.6488,3.19574,0.0508554,-0.00827971,0.0132296,0.0536801,-0.0111045,0.21036,0.0400053,0.0451394,1378,463,1.64879,-3.19574
161,561,2.2854,3.84454,0,0,0,0,0,0,0,-1,1385,463,2.28535,-3.84455
168,561,0.198975,-0.634552,0.0322059,-0.000702303,0.0088528,0.0344363,-0.00293267,0.246803,0.0239949,0.0469739,1392,463,0.198992,0.634547
175,561,0.105591,-0.446472,0.023597,0.00198754,0.00658325,0.0254446,0.000139946,0.273612,0.0169166,0.0480129,1399,463,0.1056,0.446462
182,561,-0.0185547,0.173706,0.0168205,0.00474886,0.00466611,0.0184138,0.00315555,0.329052,0.0113709,0.0437992,1406,463,-0.0184955,-0.173707
189,561,0.0828857,0.138824,0.0114403,0.00777582,0.00216185,0.0124419,0.00677421,0.433867,0.00719281,0.0453047,1413,463,0.0829258,-0.138834
196,561,0.0822754,0.419067,0.00600039,0.00954011,0.0010344,0.00982022,0.00572028,1.30634,0.00569538,0.0445415,1420,463,0.0822309,-0.419066
203,561,0.00183105,0.335724,0.00139195,0.0100295,-9.15287e-05,0.0100304,0.00139098,-1.5602,0.0062749,0.0481844,1427,463,0.0018549,-0.335727
210,561,-0.215576,0.195831,-0.0010191,0.0102008,-0.00124184,0.0103366,-0.0011549,-1.46187,0.00730654,0.0481333,1434,463,-0.215587,-0.195831
217,561,-0.270386,0.196808,-0.00101905,0.00979507,-0.00176904,0.0100771,-0.00130109,-1.4127,0.00719111,0.0438684,1441,463,-0.270356,-0.196821
224,561,0.120728,-0.155823,0,0,0,0,0,0,0,-1,1448,463,0.120739,0.155838
231,561,0.667236,-0.275604,-0.00260371,0.00757865,0.000249986,0.00758479,-0.00260984,1.54627,0.00611502,0.0443616,1455,463,0.667266,0.275602
238,561,0.798462,-0.235901,-0.00344109,0.00626353,0.00179896,0.00658627,-0.00376383,1.39328,0.00604925,0.0466532,1462,463,0.798433,0.235888
245,561,0.360474,-0.419128,-0.00388053,0.00579325,0.00340756,0.00687303,-0.00496031,1.26393,0.00686167,0.0467861,1469,463,0.360446,0.419139
252,561,-0.637817,0.139709,-0.00402479,0.00440602,0.00502525,0.00674979,-0.00636856,1.13439,0.00757495,0.044682,1476,463,-0.637868,-0.139707
259,561,-0.519165,0.137604,-0.00412836,0.00380233,0.00672617,0.00764502,-0.00797104,1.05174,0.00901659,0.0444073,1483,463,-0.519109,-0.137615
266,561,-0.487427,-0.19162,-0.00389575,0.00289056,0.00816971,0.00834374,-0.00934894,0.982225,0.0102204,0.0441234,1490,463,-0.487366,0.191615
273,561,-0.280884,0.0655212,-0.0028489,0.00218733,0.00896761,0.00898366,-0.00964523,0.922274,0.0107577,0.0485385,1497,463,-0.280898,-0.0655132
280,561,-0.493896,0.142395,0,0,0,0,0,0,0,-1,1504,463,-0.493908,-0.142408
287,561,-0.346558,0.0808105,-0.0014764,0.000876455,0.00880149,0.00857979,-0.00917974,0.851836,0.0102554,0.0386363,1511,463,-0.346539,-0.0808044
294,561,-0.208252,0.00674438,-0.000588261,0.000315559,0.00802002,0.00789639,-0.00816909,0.813542,0.00927586,0.0336185,1518,463,-0.208284,-0.00675366
301,561,-0.120239,0.0267639,0.00056734,-4.32789e-06,0.0071661,0.00745331,-0.00689029,0.765465,0.00828341,0.0268082,1525,463,-0.120279,-0.0267731
308,561,-0.0666504,0.0572815,0.00120279,1.15849e-05,0.0061001,0.00673629,-0.00552192,0.736733,0.00708885,0.0179782,1532,463,-0.0666001,-0.0572698
315,561,-0.0262451,0.0446167,0.00094396,0.000333108,0.00472819,0.00537658,-0.00409951,0.753145,0.00548756,0.0130053,1539,463,-0.0262737,-0.0446305
322,561,-0.0245361,0.0404358,0.000594494,0.00047122,0.0033923,0.00392572,-0.00286,0.776314,0.00393381,0.013076,1546,463,-0.0245709,-0.0404214
329,561,-0.0223389,0.0549927,0.000380481,0.00071929,0.00207568,0.00263247,-0.0015327,0.826115,0.00243254,0.010339,1553,463,-0.0223118,-0.0549784
336,561,-0.0262451,0.0776062,0.000383359,0.000959854,0.000919163,0.00163491,-0.000291694,0.93734,0.00119905,0.00961464,1560,463,-0.0262888,-0.0776168
343,561,-0.0375977,0.0680237,0.000239911,0.0010619,8.07648e-05,0.00106976,0.000232051,1.47378,0.000649783,0.00944289,1567,463,-0.0376314,-0.0680142
350,561,-0.0401611,0.0626831,1.28221e-05,0.00107244,-0.000209664,0.00111242,-2.71552e-05,-1.38238,0.00075083,0.00882182,1574,463,-0.0401186,-0.0626712
357,561,-0.0316162,0.0697021,-0.000127208,0.00117353,-1.18496e-05,0.00117364,-0.000127316,-1.56169,0.000828133,0.00882722,1581,463,-0.0316211,-0.069689
364,561,-0.0189209,0.0601807,1.97549e-07,0.00104544,2.24758e-05,0.00104592,-2.85509e-07,1.54931,0.000697376,0.00880926,1588,463,-0.0189414,-0.0601944
371,561,-0.03125,0.0629272,-0.000144897,0.000983656,0.000270859,0.0010453,-0.000206538,1.34703,0.00077494,0.0154467,1595,463,-0.031193,-0.0629423
378,561,-0.0369873,0.0740967,-0.000430363,0.000717987,0.000571464,0.000953903,-0.000666279,1.17928,0.000940313,0.0112767,1602,463,-0.0369963,-0.0741028
385,561,-0.0274658,0.0653687,-8.75833e-05,0.000456164,0.000775673,0.00100623,-0.000637649,0.953958,0.000957013,0.00879119,1609,463,-0.0274977,-0.0653703
392,561,-0.0494385,0.0674744,0.000327339,4.04688e-05,0.00110925,0.00130239,-0.000934585,0.721101,0.00129733,0.0119495,1616,463,-0.0494522,-0.0674767
399,561,-0.0509033,0.0758667,0.000828916,0.000266089,0.00116524,0.00174624,-0.000651237,0.666913,0.0014315,0.0193032,1623,463,-0.0509126,-0.0758797
406,561,-0.0223389,0.0652161,0.00137597,0.000148512,0.00116957,0.00208305,-0.000558578,0.543774,0.00160758,0.0176158,1630,463,-0.0223859,-0.0652276
413,561,-0.0166016,0.0444641,0.00160154,5.99742e-05,0.000906399,0.00202058,-0.00035906,0.433041,0.00148131,0.0143429,1637,463,-0.0166303,-0.0444714
420,561,-0.050293,0.039856,0.002073,-0.000385216,0.000490944,0.00216742,-0.000479639,0.190008,0.00162854,0.0113834,1644,463,-0.0502601,-0.0398616
427,561,-0.0429688,0.0677795,0.0028612,-0.000398705,0.000321497,0.00289261,-0.000430109,0.0973715,0.0020866,0.00949516,1651,463,-0.0429888,-0.0677946
434,561,-0.0496826,0.0686035,0.00337826,-0.000204121,-3.87894e-05,0.00337868,-0.000204541,-0.0108261,0.00232363,0.0100967,1658,463,-0.0496355,-0.0686031
441,561,-0.0529785,0.0500183,0.00393442,0.000456923,-0.000129765,0.00393926,0.000452087,-0.0372465,0.0024892,0.0116874,1665,463,-0.0530072,-0.0500259
448,561,-0.000244141,0.0509644,0.00436268,0.000997835,-0.000287169,0.00438701,0.000973503,-0.0845292,0.00266023,0.0172536,1672,463,-0.000257709,-0.0509774
455,561,0.115845,0.0491333,0.00462222,0.00159088,-0.000443969,0.00468591,0.0015272,-0.142474,0.00275953,0.0344295,1679,463,0.115802,-0.0491327
462,561,0.139282,0.0427551,0.0050851,0.00212206,-0.000850125,0.00531168,0.00189548,-0.260474,0.00310831,0.0328264,1686,463,0.13934,-0.0427552
469,561,-0.0159912,0.0898438,0.00542523,0.0032605,-0.000844674,0.00571582,0.00296992,-0.331337,0.00330087,0.0209075,1693,463,-0.0159897,-0.0898471
476,561,0.0301514,0.143738,0.00554979,0.00466735,-0.000626579,0.00587491,0.00434223,-0.478636,0.00351879,0.0349061,1700,463,0.0301028,-0.143733
483,561,0.0090332,-0.181824,0.00556081,0.00611072,-0.000334165,0.00626851,0.00540302,-1.12965,0.00392247,0.0420597,1707,463,0.00901817,0.18182
490,561,-0.0915527,-0.5047,0,0,0,0,0,0,0,-1,1714,463,-0.091547,0.504687
497,561,-0.0307617,-0.509705,0.00705093,0.00679468,0.000134361,0.00710846,0.00673715,0.404576,0.00462018,0.0417661,1721,463,-0.0308218,0.509697
504,561,-0.193848,0.214478,0,0,0,0,0,0,0,-1,1728,463,-0.193834,-0.214471
511,561,0,0,0,0,0,0,0,0,0,-1,1735,463,0,0
518,561,0,0,0,0,0,0,0,0,0,-1,1742,463,0,0
525,561,0,0,0,0,0,0,0,0,0,-1,1749,463,0,0
532,561,0,0,0,0,0,0,0,0,0,-1,1756,463,0,0
539,561,0,0,0,0,0,0,0,0,0,-1,1763,463,0,0
546,561,0,0,0,0,0,0,0,0,0,-1,1770,463,0,0
553,561,0,0,0,0,0,0,0,0,0,-1,1777,463,0,0
560,561,0,0,0,0,0,0,0,0,0,-1,1784,463,0,0
567,561,0,0,0,0,0,0,0,0,0,-1,1791,463,0,0
574,561,0,0,0,0,0,0,0,0,0,-1,1798,463,0,0
581,561,0,0,0,0,0,0,0,0,0,-1,1805,463,0,0
588,561,0,0,0,0,0,0,0,0,0,-1,1812,463,0,0
595,561,0,0,0,0,0,0,0,0,0,-1,1819,463,0,0
602,561,0,0,0,0,0,0,0,0,0,-1,1826,463,0,0
609,561,0,0,0,0,0,0,0,0,0,-1,1833,463,0,0
616,561,0,0,0,0,0,0,0,0,0,-1,1840,463,0,0
623,561,0,0,0,0,0,0,0,0,0,-1,1847,463,0,0
630,561,0,0,0,0,0,0,0,0,0,-1,1854,463,0,0
637,561,0,0,0,0,0,0,0,0,0,-1,1861,463,0,0
644,561,0,0,0,0,0,0,0,0,0,-1,1868,463,0,0
651,561,0,0,0,0,0,0,0,0,0,-1,1875,463,0,0
658,561,0,0,0,0,0,0,0,0,0,-1,1882,463,0,0
665,561,0,0,0,0,0,0,0,0,0,-1,1889,463,0,0
672,561,0,0,0,0,0,0,0,0,0,-1,1896,463,0,0
679,561,0,0,0,0,0,0,0,0,0,-1,1903,463,0,0
686,561,0,0,0,0,0,0,0,0,0,-1,1910,463,0,0
693,561,0,0,0,0,0,0,0,0,0,-1,1917,463,0,0
700,561,0,0,0,0,0,0,0,0,0,-1,1924,463,0,0
707,561,0,0,0,0,0,0,0,0,0,-1,1931,463,0,0
714,561,0,0,0,0,0,0,0,0,0,-1,1938,463,0,0
721,561,0,0,0,0,0,0,0,0,0,-1,1945,463,0,0
728,561,0,0,0,0,0,0,0,0,0,-1,1952,463,0,0
735,561,0,0,0,0,0,0,0,0,0,-1,1959,463,0,0
742,561,0,0,0,0,0,0,0,0,0,-1,1966,463,0,0
749,561,0,0,0,0,0,0,0,0,0,-1,1973,463,0,0
756,561,0,0,0,0,0,0,0,0,0,-1,1980,463,0,0
763,561,0,0,0,0,0,0,0,0,0,-1,1987,463,0,0
770,561,0,0,0,0,0,0,0,0,0,-1,1994,463,0,0
777,561,0,0,0,0,0,0,0,0,0,-1,2001,463,0,0
784,561,0,0,0,0,0,0,0,0,0,-1,2008,463,0,0
791,561,0,0,0,0,0,0,0,0,0,-1,2015,463,0,0
798,561,0,0,0,0,0,0,0,0,0,-1,2022,463,0,0
805,561,0,0,0,0,0,0,0,0,0,-1,2029,463,0,0
812,561,0,0,0,0,0,0,0,0,0,-1,2036,463,0,0
-700,554,0,0,0,0,0,0,0,0,0,-1,524,470,0,0
-693,554,0,0,0,0,0,0,0,0,0,-1,531,470,0,0
-686,554,0,0,0,0,0,0,0,0,0,-1,538,470,0,0
-679,554,0,0,0,0,0,0,0,0,0,-1,545,470,0,0
-672,554,0,0,0,0,0,0,0,0,0,-1,552,470,0,0
-665,554,0,0,0,0,0,0,0,0,0,-1,559,470,0,0
-658,554,0,0,0,0,0,0,0,0,0,-1,566,470,0,0
-651,554,0,0,0,0,0,0,0,0,0,-1,573,470,0,0
-644,554,0,0,0,0,0,0,0,0,0,-1,580,470,0,0
-637,554,0,0,0,0,0,0,0,0,0,-1,587,470,0,0
-630,554,0,0,0,0,0,0,0,0,0,-1,594,470,0,0
-623,554,0,0,0,0,0,0,0,0,0,-1,601,470,0,0
-616,554,0,0,0,0,0,0,0,0,0,-1,608,470,0,0
-609,554,0,0,0,0,0,0,0,0,0,-1,615,470,0,0
-602,554,0,0,0,0,0,0,0,0,0,-1,622,470,0,0
-595,554,0,0,0,0,0,0,0,0,0,-1,629,470,0,0
-588,554,0,0,0,0,0,0,0,0,0,-1,636,470,0,0
-581,554,0,0,0,0,0,0,0,0,0,-1,643,470,0,0
-574,554,0,0,0,0,0,0,0,0,0,-1,650,470,0,0
-567,554,0,0,0,0,0,0,0,0,0,-1,657,470,0,0
-560,554,0,0,0,0,0,0,0,0,0,-1,664,470,0,0
-553,554,0,0,0,0,0,0,0,0,0,-1,671,470,0,0
-546,554,0,0,0,0,0,0,0,0,0,-1,678,470,0,0
-539,554,0,0,0,0,0,0,0,0,0,-1,685,470,0,0
-532,554,0,0,0,0,0,0,0,0,0,-1,692,470,0,0
-525,554,0,0,0,0,0,0,0,0,0,-1,699,470,0,0
-518,554,0,0,0,0,0,0,0,0,0,-1,706,470,0,0
-511,554,0,0,0,0,0,0,0,0,0,-1,713,470,0,0
-504,554,0,0,0,0,0,0,0,0,0,-1,720,470,0,0
-497,554,0,0,0,0,0,0,0,0,0,-1,727,470,0,0
-490,554,0,0,0,0,0,0,0,0,0,-1,734,470,0,0
-483,554,0,0,0,0,0,0,0,0,0,-1,741,470,0,0
-476,554,0,0,0,0,0,0,0,0,0,-1,748,470,0,0
-469,554,0,0,0,0,0,0,0,0,0,-1,755,470,0,0
-462,554,0,0,0,0,0,0,0,0,0,-1,762,470,0,0
-455,554,0,0,0,0,0,0,0,0,0,-1,769,470,0,0
-448,554,0,0,0,0,0,0,0,0,0,-1,776,470,0,0
-441,554,0,0,0,0,0,0,0,0,0,-1,783,470,0,0
-434,554,0,0,0,0,0,0,0,0,0,-1,790,470,0,0
-427,554,0,0,0,0,0,0,0,0,0,-1,797,470,0,0
-420,554,0,0,0,0,0,0,0,0,0,-1,804,470,0,0
-413,554,0,0,0,0,0,0,0,0,0,-1,811,470,0,0
-406,554,0,0,0,0,0,0,0,0,0,-1,818,470,0,0
-399,554,0.563782,1.09641,0,0,0,0,0,0,0,-1,825,470,0.563806,-1.0964
-392,554,0.744141,0.550598,0.032106,-0.00161675,-0.0289294,0.0487292,-0.01824,-0.521543,0.0399781,0.0436534,832,470,0.744113,-0.550586
-385,554,0.866516,-0.179443,0.0269139,0.00377144,-0.0228023,0.0409129,-0.0102276,-0.5506,0.0312475,0.0466283,839,470,0.866511,0.179429
-378,554,1.30859,-0.37558,0,0,0,0,0,0,0,-1,846,470,1.30858,0.375568
-371,554,1.80743,-1.0614,0,0,0,0,0,0,0,-1,853,470,1.80743,1.06139
-364,554,1.1087,-0.813568,0,0,0,0,0,0,0,-1,860,470,1.1087,0.813577
-357,554,0.820374,-0.763092,0,0,0,0,0,0,0,-1,867,470,0.820355,0.763078
-350,554,-0.149536,0.0951843,0,0,0,0,0,0,0,-1,874,470,-0.149563,-0.0951851
-343,554,0.0460205,-0.193207,0.0003122,0.0138734,0.00109853,0.0139618,0.000223788,1.49049,0.00923419,0.04129,881,470,0.0460254,0.193203
-336,554,-0.0307007,0.00653076,-0.000841054,0.012154,0.00180092,0.0123989,-0.00108602,1.4356,0.00865071,0.030489,888,470,-0.0307137,-0.00653643
-329,554,-0.0620728,0.0193787,-0.00129153,0.0105651,0.00201963,0.0108997,-0.00162611,1.40662,0.00786473,0.0151874,895,470,-0.062079,-0.0193649
-322,554,-0.0397339,0.0513,-0.00147225,0.00885459,0.00135003,0.00902816,-0.00164582,1.44293,0.00663577,0.0094554,902,470,-0.0397584,-0.0513022
-315,554,-0.0339966,0.0556946,-0.00111888,0.00658835,0.000706204,0.00665252,-0.00118305,1.48017,0.00487743,0.00947271,909,470,-0.0340015,-0.0556909
-308,554,-0.0462646,0.0520935,-0.00030549,0.0054299,-6.35637e-05,0.0054306,-0.000306195,-1.55972,0.00372666,0.0118246,916,470,-0.0462932,-0.0520786
-301,554,-0.045105,0.0560608,0.000484148,0.00407133,-0.000779155,0.00423325,0.00032222,-1.36589,0.00272113,0.012646,923,470,-0.0451122,-0.0560689
-294,554,-0.0445557,0.0722046,0.000966276,0.00292196,-0.00123585,0.00352003,0.000368204,-1.12008,0.00223409,0.0114682,930,470,-0.0445438,-0.0721958
-287,554,-0.0504761,0.0767822,0.00100371,0.00217438,-0.00176609,0.00344961,-0.000271523,-0.945416,0.00239538,0.0110124,937,470,-0.0504686,-0.0767849
-280,554,-0.0383911,0.076355,0.000808901,0.00188996,-0.00185445,0.00328105,-0.000582189,-0.927208,0.00240503,0.0098166,944,470,-0.0383653,-0.0763502
-273,554,-0.0266724,0.0903625,0.000301509,0.00133715,-0.00163899,0.00253817,-0.000899511,-0.938406,0.00205854,0.0128791,951,470,-0.0266636,-0.0903499
-266,554,-0.0115967,0.0837708,-8.42465e-05,0.000977653,-0.00112067,0.00168679,-0.000793382,-1.00662,0.00146257,0.0104915,958,470,-0.0115723,-0.0837775
-259,554,-0.0187378,0.068573,-0.000152144,0.00142549,-0.000336403,0.00149422,-0.000220881,-1.36924,0.00107735,0.0103652,965,470,-0.0187094,-0.0685782
-252,554,-0.0315552,0.0869751,-0.000476014,0.00206319,0.000343182,0.00210875,-0.000521579,1.4388,0.00160814,0.0116869,972,470,-0.0315418,-0.0869893
-245,554,-0.0305786,0.0897827,-0.000924816,0.00249721,0.00115223,0.00284901,-0.00127662,1.27446,0.00243891,0.0134832,979,470,-0.0305708,-0.0897899
-238,554,-0.0444946,0.0768127,-0.00106244,0.00277415,0.0022734,0.00383045,-0.00211874,1.13584,0.00348183,0.0107666,986,470,-0.0444959,-0.0768218
-231,554,-0.0357056,0.0691528,-0.00121819,0.00267661,0.00346134,0.00470076,-0.00324235,1.04164,0.00461165,0.00916127,993,470,-0.0357249,-0.0691464
-224,554,-0.0233154,0.0697632,-0.00121386,0.00252434,0.00455181,0.00557586,-0.00426538,0.980216,0.00569861,0.00908474,1000,470,-0.0233412,-0.0697648
-217,554,-0.0231323,0.0731201,-0.0011518,0.00190741,0.00555993,0.00614431,-0.0053887,0.919634,0.00666335,0.00940889,1007,470,-0.0231592,-0.0731068
-210,554,-0.00939941,0.0708923,-0.00143472,0.00118174,0.00640985,0.0064155,-0.00666848,0.886064,0.00755451,0.0121041,1014,470,-0.00940557,-0.070887
-203,554,-0.0350952,0.0499268,-0.00137317,-4.45444e-05,0.0071835,0.00650529,-0.00792301,0.831506,0.00834358,0.0167697,1021,470,-0.0351246,-0.0499183
-196,554,-0.0548096,0.0466309,-0.000701574,-0.0012511,0.00732849,0.0063573,-0.00830998,0.766661,0.00849314,0.0213124,1028,470,-0.0547511,-0.0466268
-189,554,0.0236816,0.0352478,0.000369341,-0.00268263,0.00651509,0.00553478,-0.00784806,0.670361,0.00776496,0.0264989,1035,470,0.0237121,-0.0352604
-182,554,0.106567,0.0257874,0.00142014,-0.00387398,0.00532154,0.00471663,-0.00717047,0.554606,0.00691159,0.0342931,1042,470,0.106547,-0.0257917
-175,554,0.143066,0.0209045,0.00265377,-0.00521934,0.00355494,0.00402137,-0.00658694,0.367251,0.00618412,0.0428277,1049,470,0.143099,-0.0208914
-168,554,0.179199,0.0151978,0,0,0,0,0,0,0,-1,1056,470,0.179143,-0.0151849
-161,554,0.0234375,-0.0167542,0.00367556,-0.00574775,-0.000968034,0.00377398,-0.00584617,-0.101318,0.00559698,0.0426744,1063,470,0.0234228,0.016742
-154,554,-0.733276,-0.000335693,0.00463286,-0.00579286,-0.0027812,0.00532838,-0.00648838,-0.245054,0.00683336,0.0415726,1070,470,-0.73324,0.000345204
-147,554,-0.18396,0.0906982,0.0060192,-0.00615551,-0.00387594,0.00714841,-0.00728472,-0.283492,0.00833309,0.0465276,1077,470,-0.183979,-0.0907111
-140,554,0.516479,0.213287,0,0,0,0,0,0,0,-1,1084,470,0.516419,-0.213301
-133,554,-1.17957,-0.744598,0,0,0,0,0,0,0,-1,1091,470,-1.17957,0.744605
-126,554,-0.856445,-0.696136,0,0,0,0,0,0,0,-1,1098,470,-0.856434,0.69615
-119,554,-0.746704,-0.92157,0.0068824,-0.00595395,-0.00262928,0.00740008,-0.00647163,-0.194404,0.00801481,0.042622,1105,470,-0.746675,0.921558
-112,554,-0.706299,-1.24969,0.00683053,-0.00754704,-0.000768523,0.00687149,-0.007588,-0.0532506,0.00835161,0.0433165,1112,470,-0.706309,1.2497
-105,554,-0.161987,-0.895142,0.00679573,-0.00968215,0.00154391,0.00693914,-0.00982555,0.0926215,0.0097268,0.0441125,1119,470,-0.161943,0.895156
-98,554,0.413086,-0.399109,0.00597426,-0.0120799,0.0036075,0.0066684,-0.012774,0.190095,0.0114081,0.0417734,1126,470,0.413094,0.39912
-91,554,0.290039,-0.0706787,0.00477783,-0.0134224,0.00564064,0.00638421,-0.0150288,0.277441,0.0126942,0.0415975,1133,470,0.290071,0.0706837
-84,554,0.19751,-0.0864868,0,0,0,0,0,0,0,-1,1140,470,0.197468,0.0865
-77,554,-0.23877,0.289215,0.00451391,-0.0158801,0.0105009,0.00895415,-0.0203204,0.400041,0.0173211,0.0448056,1147,470,-0.238818,-0.289207
-70,554,-0.0942383,-0.71106,0.00465708,-0.0169105,0.0122521,0.0101952,-0.0224486,0.424526,0.0192844,0.0443676,1154,470,-0.0942133,0.711058
-63,554,-0.244507,-0.408173,0.0052434,-0.0185129,0.0138633,0.0116213,-0.0248908,0.431183,0.0215393,0.0403389,1161,470,-0.244512,0.40817
-56,554,0.0367432,-0.138489,0.00528838,-0.0195723,0.0151285,0.0124383,-0.0267221,0.441496,0.0231052,0.0434178,1168,470,0.0366859,0.138503
-49,554,0.0240479,0.27417,0.00389192,-0.0205816,0.0162639,0.0120084,-0.028698,0.462885,0.0241513,0.04714,1175,470,0.0239882,-0.274159
-42,554,-0.142456,0.520966,0.00250728,-0.0221618,0.017437,0.0115313,-0.0311859,0.477568,0.0255181,0.0453941,1182,470,-0.142441,-0.520968
-35,554,-0.141357,0.430206,0.00194943,-0.0248497,0.018209,0.0111578,-0.034058,0.468198,0.0271985,0.0395787,1189,470,-0.141399,-0.430211
-28,554,-0.00292969,0.739624,0.00167157,-0.0300248,0.0208711,0.0120296,-0.0403829,0.460673,0.0317019,0.0409382,1196,470,-0.00289226,-0.739626
-21,554,-0.0684814,1.15433,-0.000409188,-0.0369586,0.0256826,0.0128369,-0.0502047,0.476178,0.0384695,0.0457409,1203,470,-0.0685191,-1.15432
-14,554,-0.166138,1.57239,-0.0057537,-0.0453202,0.0317294,0.0118547,-0.0629286,0.506639,0.0464114,0.0483629,1210,470,-0.166126,-1.57238
-7,554,-0.217651,1.81888,-0.0101129,-0.0547679,0.0351513,0.00920245,-0.0740833,0.502454,0.0527247,0.0460795,1217,470,-0.217644,-1.81888
0,554,-0.557739,1.76846,-0.00753816,-0.0665242,0.0380745,0.0111301,-0.0851924,0.455864,0.0608453,0.0488086,1224,470,-0.557697,-1.76847
7,554,-0.925537,2.0433,-0.00227404,-0.0742229,0.0369773,0.0133411,-0.0898381,0.399572,0.0647985,0.0479927,1231,470,-0.925537,-2.0433
14,554,-1.25574,2.73074,0,0,0,0,0,0,0,-1,1238,470,-1.25571,-2.73074
21,554,-2.00391,3.37305,-0.00419619,-0.0893004,0.0411322,0.012434,-0.105931,0.384216,0.0751089,0.0429635,1245,470,-2.00397,-3.37304
28,554,-2.75281,3.73544,0.00289807,-0.095183,0.0437926,0.0196053,-0.11189,0.364464,0.0819144,0.0425926,1252,470,-2.75281,-3.73546
35,554,-3.40735,4.16623,0.012005,-0.0987723,0.0457684,0.028468,-0.115235,0.345291,0.0878638,0.0404589,1259,470,-3.40733,-4.16623
42,554,-4.02356,4.45248,0,0,0,0,0,0,0,-1,1266,470,-4.0236,-4.45249
49,554,0.0257568,-1.52933,0,0,0,0,0,0,0,-1,1273,470,0.0257918,1.52931
56,554,-0.0443115,-2.32675,0,0,0,0,0,0,0,-1,1280,470,-0.0443037,2.32675
63,554,-0.11438,-3.12421,0,0,0,0,0,0,0,-1,1287,470,-0.114399,3.12419
70,554,-9.021,-0.185303,0.0714039,-0.0884561,0.0532673,0.087527,-0.104579,0.293917,0.111058,0.0443262,1294,470,-9.02102,0.185312
77,554,-8.2605,0.29657,0.0803839,-0.0813933,0.0531029,0.0962573,-0.0972667,0.290463,0.111732,0.0427467,1301,470,-8.26047,-0.296566
84,554,-6.41125,0.588776,0,0,0,0,0,0,0,-1,1308,470,-6.41124,-0.588766
91,554,-5.57043,1.09717,0.103612,-0.0709267,0.048449,0.116159,-0.0834735,0.253401,0.115771,0.0442658,1315,470,-5.57049,-1.09715
98,554,-4.71484,1.52991,0.111088,-0.0639641,0.044772,0.121874,-0.0747505,0.236414,0.114603,0.044203,1322,470,-4.71483,-1.52992
105,554,-3.9585,1.03284,0,0,0,0,0,0,0,-1,1329,470,-3.95856,-1.03283
112,554,-2.97607,2.23245,0,0,0,0,0,0,0,-1,1336,470,-2.97603,-2.23245
119,554,-1.54065,2.63251,0,0,0,0,0,0,0,-1,1343,470,-1.5406,-2.63251
126,554,-0.67334,2.43491,0.102868,-0.0352512,0.024946,0.107235,-0.0396186,0.17332,0.0877307,0.040442,1350,470,-0.673363,-2.4349
133,554,0.101563,2.15308,0,0,0,0,0,0,0,-1,1357,470,0.101508,-2.15308
140,554,1.01965,2.49921,0.0787241,-0.0177587,0.01531,0.0810952,-0.0201298,0.153654,0.0618747,0.0477449,1364,470,1.0196,-2.49921
147,554,1.83936,2.1871,0.0661497,-0.010144,0.0126662,0.0681976,-0.0121918,0.160292,0.0500267,0.0481114,1371,470,1.83934,-2.1871
154,554,2.46704,2.8429,0,0,0,0,0,0,0,-1,1378,470,2.4671,-2.8429
161,554,0.800781,-0.997559,0.0439916,-0.000913158,0.00804391,0.045389,-0.0023106,0.17201,0.0310582,0.0414255,1385,470,0.80078,0.997547
168,554,0.154419,-0.590546,0.0328848,0.0031628,0.00647878,0.0342357,0.00181196,0.205558,0.0222444,0.0448448,1392,470,0.154377,0.590539
175,554,0.0875244,-0.481995,0.0233599,0.0060201,0.00454506,0.024479,0.00490099,0.241423,0.0149558,0.0488203,1399,470,0.0875725,0.481996
182,554,0.0892334,-0.325653,0.0160624,0.00890153,0.00290153,0.0170905,0.00787346,0.34052,0.00987737,0.045646,1406,470,0.0892416,0.325638
189,554,0.0928955,-0.169891,0.0105295,0.0117514,0.000520502,0.0119431,0.0103379,1.21798,0.00748459,0.044909,1413,470,0.0929087,0.169896
196,554,-0.0032959,0.0369263,0.00464002,0.0127872,-0.000193714,0.0127918,0.00463542,-1.54704,0.00747802,0.0438204,1420,470,-0.00329835,-0.0369277
203,554,-0.036499,0.149323,-0.000444556,0.0122515,-0.00104777,0.0123374,-0.000530445,-1.48901,0.0084073,0.0432924,1427,470,-0.0364709,-0.149327
210,554,-0.0975342,0.0760498,-0.00310455,0.0116561,-0.00212222,0.0119551,-0.00340361,-1.4308,0.00931427,0.0435915,1434,470,-0.0975849,-0.0760381
217,554,0.159302,-0.574951,-0.00313422,0.0110415,-0.00277709,0.0115661,-0.00365885,-1.38408,0.00917679,0.042025,1441,470,0.159337,0.574966
224,554,0.106445,-0.66156,-0.00381032,0.0100398,-0.00190705,0.0102976,-0.00406811,-1.43643,0.00855,0.0451056,1448,470,0.106439,0.661547
231,554,0.279907,-0.594116,-0.00521966,0.00836084,-0.000104253,0.00836164,-0.00522046,-1.56312,0.00791122,0.0447185,1455,470,0.279953,0.594113
238,554,0.449463,-0.606781,-0.00628475,0.00670067,0.00186896,0.00696431,-0.0065484,1.43066,0.0078028,0.0411994,1462,470,0.44945,0.606792
245,554,0.466553,-0.594818,-0.00669332,0.00628899,0.00385844,0.00734917,-0.0077535,1.30264,0.00872057,0.045287,1469,470,0.46652,0.594829
252,554,0.10376,-0.965759,-0.00670181,0.00455881,0.00581995,0.00702616,-0.00916917,1.16982,0.00937762,0.0435799,1476,470,0.103798,0.965759
259,554,-0.620728,0.157013,0,0,0,0,0,0,0,-1,1483,470,-0.620776,-0.157021
266,554,-0.476074,0.0611572,-0.00592683,0.00302104,0.00950351,0.00905104,-0.0119568,1.00539,0.0121675,0.044364,1490,470,-0.476082,-0.0611665
273,554,-0.356323,0.406769,-0.00425785,0.00232255,0.010348,0.00989087,-0.0118262,0.939321,0.0125549,0.0475884,1497,470,-0.356272,-0.406778
280,554,-0.102417,0.854675,-0.00286384,0.00174092,0.0108107,0.0104917,-0.0116146,0.890317,0.0127686,0.0474138,1504,470,-0.102378,-0.854677
287,554,-0.616943,0.0845032,0,0,0,0,0,0,0,-1,1511,470,-0.61698,-0.0844887
294,554,-0.447266,-0.0245361,0,0,0,0,0,0,0,-1,1518,470,-0.447311,0.0245368
301,554,-0.160522,0.0214844,0,0,0,0,0,0,0,-1,1525,470,-0.160565,-0.0214745
308,554,-0.242554,0.155609,0,0,0,0,0,0,0,-1,1532,470,-0.242598,-0.15561
315,554,0.216431,-0.0551758,0.000958778,0.000464187,0.00480293,0.00552077,-0.00409781,0.759677,0.00557351,0.0321639,1539,470,0.216481,0.0551873
322,554,0.010376,0.0465393,0.000520501,0.000758987,0.00319414,0.00383611,-0.00255662,0.804055,0.00371541,0.0274513,1546,470,0.0103685,-0.0465353
329,554,-0.0150146,0.0531006,0.000201058,0.00123452,0.00159587,0.00239523,-0.000959652,0.941968,0.00199518,0.0160004,1553,470,-0.0150306,-0.053101
336,554,-0.0231934,0.0643921,8.64794e-05,0.00183173,0.000131244,0.00184155,7.6665e-05,1.49616,0.00120296,0.00943463,1560,470,-0.0232372,-0.0643857
343,554,-0.0429688,0.0551147,-0.000232117,0.00229849,-0.000864976,0.00256589,-0.000499515,-1.27098,0.00189912,0.00923211,1567,470,-0.0429156,-0.0551248
350,554,-0.0460205,0.0441284,-0.00066967,0.00261891,-0.001204,0.00301258,-0.00106334,-1.25478,0.00244129,0.00912037,1574,470,-0.0459793,-0.0441194
357,554,-0.0230713,0.0393982,-0.000877756,0.00306517,-0.000913222,0.00326641,-0.001079,-1.3539,0.00261263,0.00952475,1581,470,-0.0231018,-0.0394045
364,554,-0.0240479,0.0487061,-0.000644814,0.00315361,-0.000819634,0.00332293,-0.000814129,-1.36709,0.0025307,0.0081374,1588,470,-0.0240261,-0.0487162
371,554,-0.0266113,0.0615845,-0.000746111,0.00323285,-0.00045851,0.003285,-0.000798263,-1.45754,0.00249895,0.00827242,1595,470,-0.0265986,-0.0615932
378,554,-0.0130615,0.0744019,-0.00102547,0.00297517,-2.17988e-05,0.00297529,-0.00102559,-1.56535,0.00239959,0.00963721,1602,470,-0.0130224,-0.074414
385,554,-0.0090332,0.0643005,-0.000481552,0.00265962,0.000248287,0.00267913,-0.000501056,1.4924,0.00197441,0.00879312,1609,470,-0.00900318,-0.0642994
392,554,-0.0422363,0.0699463,0.000102002,0.00216171,0.000611678,0.00232966,-6.5955e-05,1.30282,0.00157555,0.0117105,1616,470,-0.0422504,-0.0699486
399,554,-0.0395508,0.0899963,0.00069594,0.00211946,0.000707084,0.00241098,0.000404421,1.17975,0.00149091,0.0164667,1623,470,-0.0395,-0.0900056
406,554,-0.0266113,0.0691833,0.00130874,0.00178166,0.00076462,0.00234555,0.000744852,0.935361,0.00138393,0.0152528,1630,470,-0.0266485,-0.0691849
413,554,-0.0216064,0.0597839,0.00158548,0.00141008,0.000537333,0.00204222,0.000953336,0.704502,0.00117994,0.0128282,1637,470,-0.0215506,-0.0597865
420,554,-0.0366211,0.0461121,0.00199276,0.000833779,0.000183179,0.00202103,0.000805517,0.153081,0.00117482,0.0133532,1644,470,-0.0365968,-0.046127
427,554,-0.0400391,0.044342,0.00255525,0.000587932,3.76173e-05,0.00255597,0.000587213,0.0191118,0.00154588,0.0100811,1651,470,-0.0400346,-0.0443444
434,554,-0.0456543,0.0488892,0.00290219,0.000512632,-0.000229726,0.00292407,0.000490747,-0.0949784,0.00180814,0.00887235,1658,470,-0.045619,-0.0488888
441,554,-0.0491943,0.0422058,0.00331646,0.00078233,-0.000256961,0.00334225,0.000756537,-0.100043,0.00202369,0.0100884,1665,470,-0.0491631,-0.0422044
448,554,-0.0465088,0.0403748,0.00365494,0.000965663,-0.000356812,0.00370147,0.000919127,-0.129691,0.00222547,0.0116151,1672,470,-0.0465358,-0.0403791
455,554,-0.0493164,0.0488281,0.00384385,0.00121777,-0.00044229,0.00391634,0.00114528,-0.162454,0.00232513,0.0135516,1679,470,-0.0492591,-0.0488194
462,554,-0.0256348,0.0449829,0.00425875,0.00129418,-0.000824122,0.00447244,0.00108049,-0.253712,0.00269467,0.0153904,1686,470,-0.0256397,-0.0449884
469,554,-0.00402832,0.0523376,0.00461099,0.00177959,-0.000848679,0.00484589,0.0015447,-0.270017,0.00285838,0.0200394,1693,470,-0.00406606,-0.0523284
476,554,0.148315,-0.00424194,0.00481408,0.00237367,-0.000746392,0.00502426,0.00216349,-0.274487,0.00291006,0.0355765,1700,470,0.1483,0.00422797
483,554,0.223877,-0.386932,0.00492019,0.00276461,-0.000668376,0.00511061,0.00257419,-0.277547,0.00295064,0.043138,1707,470,0.223937,0.386935
490,554,0.0784912,-0.608795,0.005377,0.00209961,-0.000555103,0.00546847,0.00200814,-0.163307,0.00319412,0.0429655,1714,470,0.0785037,0.608804
497,554,0.235718,-0.935272,0.00644718,0.000924488,-0.000684937,0.00653086,0.000840808,-0.121569,0.00410246,0.0458092,1721,470,0.235734,0.935268
504,554,0.153442,-0.285187,0,0,0,0,0,0,0,-1,1728,470,0.153497,0.285192
511,554,-1.72974,-0.823853,0,0,0,0,0,0,0,-1,1735,470,-1.72975,0.823843
518,554,-1.05603,-0.703308,0,0,0,0,0,0,0,-1,1742,470,-1.05606,0.703294
525,554,0,0,0,0,0,0,0,0,0,-1,1749,470,0,0
532,554,0,0,0,0,0,0,0,0,0,-1,1756,470,0,0
539,554,0,0,0,0,0,0,0,0,0,-1,1763,470,0,0
546,554,0,0,0,0,0,0,0,0,0,-1,1770,470,0,0
553,554,0,0,0,0,0,0,0,0,0,-1,1777,470,0,0
560,554,0,0,0,0,0,0,0,0,0,-1,1784,470,0,0
567,554,0,0,0,0,0,0,0,0,0,-1,1791,470,0,0
574,554,0,0,0,0,0,0,0,0,0,-1,1798,470,0,0
581,554,0,0,0,0,0,0,0,0,0,-1,1805,470,0,0
588,554,0,0,0,0,0,0,0,0,0,-1,1812,470,0,0
595,554,0,0,0,0,0,0,0,0,0,-1,1819,470,0,0
602,554,0,0,0,0,0,0,0,0,0,-1,1826,470,0,0
609,554,0,0,0,0,0,0,0,0,0,-1,1833,470,0,0
616,554,0,0,0,0,0,0,0,0,0,-1,1840,470,0,0
623,554,0,0,0,0,0,0,0,0,0,-1,1847,470,0,0
630,554,0,0,0,0,0,0,0,0,0,-1,1854,470,0,0
637,554,0,0,0,0,0,0,0,0,0,-1,1861,470,0,0
644,554,0,0,0,0,0,0,0,0,0,-1,1868,470,0,0
651,554,0,0,0,0,0,0,0,0,0,-1,1875,470,0,0
658,554,0,0,0,0,0,0,0,0,0,-1,1882,470,0,0
665,554,0,0,0,0,0,0,0,0,0,-1,1889,470,0,0
672,554,0,0,0,0,0,0,0,0,0,-1,1896,470,0,0
679,554,0,0,0,0,0,0,0,0,0,-1,1903,470,0,0
686,554,0,0,0,0,0,0,0,0,0,-1,1910,470,0,0
693,554,0,0,0,0,0,0,0,0,0,-1,1917,470,0,0
700,554,0,0,0,0,0,0,0,0,0,-1,1924,470,0,0
707,554,0,0,0,0,0,0,0,0,0,-1,1931,470,0,0
714,554,0,0,0,0,0,0,0,0,0,-1,1938,470,0,0
721,554,0,0,0,0,0,0,0,0,0,-1,1945,470,0,0
728,554,0,0,0,0,0,0,0,0,0,-1,1952,470,0,0
735,554,0,0,0,0,0,0,0,0,0,-1,1959,470,0,0
742,554,0,0,0,0,0,0,0,0,0,-1,1966,470,0,0
749,554,0,0,0,0,0,0,0,0,0,-1,1973,470,0,0
756,554,0,0,0,0,0,0,0,0,0,-1,1980,470,0,0
763,554,0,0,0,0,0,0,0,0,0,-1,1987,470,0,0
770,554,0,0,0,0,0,0,0,0,0,-1,1994,470,0,0
777,554,0,0,0,0,0,0,0,0,0,-1,2001,470,0,0
784,554,0,0,0,0,0,0,0,0,0,-1,2008,470,0,0
791,554,0,0,0,0,0,0,0,0,0,-1,2015,470,0,0
798,554,0,0,0,0,0,0,0,0,0,-1,2022,470,0,0
805,554,0,0,0,0,0,0,0,0,0,-1,2029,470,0,0
812,554,0,0,0,0,0,0,0,0,0,-1,2036,470,0,0
-700,547,0,0,0,0,0,0,0,0,0,-1,524,477,0,0
-693,547,0,0,0,0,0,0,0,0,0,-1,531,477,0,0
-686,547,0,0,0,0,0,0,0,0,0,-1,538,477,0,0
-679,547,0,0,0,0,0,0,0,0,0,-1,545,477,0,0
-672,547,0,0,0,0,0,0,0,0,0,-1,552,477,0,0
-665,547,0,0,0,0,0,0,0,0,0,-1,559,477,0,0
-658,547,0,0,0,0,0,0,0,0,0,-1,566,477,0,0
-651,547,0,0,0,0,0,0,0,0,0,-1,573,477,0,0
-644,547,0,0,0,0,0,0,0,0,0,-1,580,477,0,0
-637,547,0,0,0,0,0,0,0,0,0,-1,587,477,0,0
-630,547,0,0,0,0,0,0,0,0,0,-1,594,477,0,0
-623,547,0,0,0,0,0,0,0,0,0,-1,601,477,0,0
-616,547,0,0,0,0,0,0,0,0,0,-1,608,477,0,0
-609,547,0,0,0,0,0,0,0,0,0,-1,615,477,0,0
-602,547,0,0,0,0,0,0,0,0,0,-1,622,477,0,0
-595,547,0,0,0,0,0,0,0,0,0,-1,629,477,0,0
-588,547,0,0,0,0,0,0,0,0,0,-1,636,477,0,0
-581,547,0,0,0,0,0,0,0,0,0,-1,643,477,0,0
-574,547,0,0,0,0,0,0,0,0,0,-1,650,477,0,0
-567,547,0,0,0,0,0,0,0,0,0,-1,657,477,0,0
-560,547,0,0,0,0,0,0,0,0,0,-1,664,477,0,0
-553,547,0,0,0,0,0,0,0,0,0,-1,671,477,0,0
-546,547,0,0,0,0,0,0,0,0,0,-1,678,477,0,0
-539,547,0,0,0,0,0,0,0,0,0,-1,685,477,0,0
-532,547,0,0,0,0,0,0,0,0,0,-1,692,477,0,0
-525,547,0,0,0,0,0,0,0,0,0,-1,699,477,0,0
-518,547,0,0,0,0,0,0,0,0,0,-1,706,477,0,0
-511,547,0,0,0,0,0,0,0,0,0,-1,713,477,0,0
-504,547,0,0,0,0,0,0,0,0,0,-1,720,477,0,0
-497,547,0,0,0,0,0,0,0,0,0,-1,727,477,0,0
-490,547,0,0,0,0,0,0,0,0,0,-1,734,477,0,0
-483,547,0,0,0,0,0,0,0,0,0,-1,741,477,0,0
-476,547,0,0,0,0,0,0,0,0,0,-1,748,477,0,0
-469,547,0,0,0,0,0,0,0,0,0,-1,755,477,0,0
-462,547,0,0,0,0,0,0,0,0,0,-1,762,477,0,0
-455,547,0,0,0,0,0,0,0,0,0,-1,769,477,0,0
-448,547,0,0,0,0,0,0,0,0,0,-1,776,477,0,0
-441,547,0,0,0,0,0,0,0,0,0,-1,783,477,0,0
-434,547,0,0,0,0,0,0,0,0,0,-1,790,477,0,0
-427,547,0,0,0,0,0,0,0,0,0,-1,797,477,0,0
-420,547,0,0,0,0,0,0,0,0,0,-1,804,477,0,0
-413,547,0,0,0,0,0,0,0,0,0,-1,811,477,0,0
-406,547,-3.49396,-2.90417,0,0,0,0,0,0,0,-1,818,477,-3.49394,2.90417
-399,547,0.363464,1.13663,0,0,0,0,0,0,0,-1,825,477,0.363472,-1.13663
-392,547,0.725525,0.425629,0,0,0,0,0,0,0,-1,832,477,0.725535,-0.425622
-385,547,1.09381,-0.120453,0,0,0,0,0,0,0,-1,839,477,1.09378,0.120447
-378,547,0.6828,0.340698,0,0,0,0,0,0,0,-1,846,477,0.682772,-0.340686
-371,547,0.370239,1.46753,0,0,0,0,0,0,0,-1,853,477,0.37025,-1.46753
-364,547,-0.342407,-0.341858,0,0,0,0,0,0,0,-1,860,477,-0.34238,0.34185
-357,547,-0.065918,0.0870972,0,0,0,0,0,0,0,-1,867,477,-0.0659467,-0.0870953
-350,547,-0.0900269,0.087616,0.00191201,0.012815,-0.000814995,0.0128756,0.00185143,-1.4966,0.00803795,0.04298,874,477,-0.0900162,-0.0876197
-343,547,-0.055542,0.0361023,1.61101e-05,0.0118845,0.000622384,0.011917,-1.64388e-05,1.51855,0.00795018,0.0333839,881,477,-0.0555642,-0.0361118
-336,547,-0.0341187,0.0432129,-0.000887454,0.0106949,0.00150928,0.0108883,-0.0010809,1.44332,0.00764471,0.0141839,888,477,-0.0341461,-0.0432199
-329,547,-0.0383301,0.0549316,-0.00118518,0.00959012,0.00204127,0.00996385,-0.00155892,1.38971,0.00721854,0.00815868,895,477,-0.0383472,-0.05494
-322,547,-0.0403442,0.0590515,-0.00130161,0.00836959,0.00179274,0.00869121,-0.00162324,1.39328,0.00640416,0.00972422,902,477,-0.0403382,-0.0590563
-315,547,-0.0368042,0.0589294,-0.00102074,0.00653709,0.0014801,0.00681661,-0.00130026,1.38414,0.00503412,0.00924253,909,477,-0.0368154,-0.0589424
-308,547,-0.0409546,0.0543518,-0.000340625,0.00558475,0.00100409,0.00575028,-0.00050615,1.40742,0.00401289,0.0101741,916,477,-0.040972,-0.0543591
-301,547,-0.0406494,0.053009,0.000345031,0.00435922,0.000488515,0.00441782,0.000286435,1.45142,0.00285453,0.0102622,923,477,-0.0406207,-0.0530119
-294,547,-0.0545044,0.058075,0.000784399,0.003251,9.3618e-05,0.00325455,0.00078085,1.53291,0.00196191,0.00932018,930,477,-0.05452,-0.0580891
-287,547,-0.0523071,0.0753479,0.000785437,0.0025216,-0.000467444,0.00263945,0.000667582,-1.32382,0.00158469,0.0105981,937,477,-0.0523177,-0.0753416
-280,547,-0.0258789,0.0728455,0.000504116,0.00224038,-0.000643663,0.00245297,0.000291529,-1.2518,0.00154732,0.0112571,944,477,-0.0259067,-0.0728368
-273,547,-0.031189,0.0769043,-3.20219e-05,0.0017953,-0.000340413,0.00185665,-9.33777e-05,-1.39247,0.00127004,0.0116781,951,477,-0.0311793,-0.0769112
-266,547,-0.0306396,0.0673218,-0.000401281,0.00155986,0.000160131,0.00157285,-0.00041427,1.48986,0.00121052,0.0111691,958,477,-0.0306472,-0.0673189
-259,547,-0.0386353,0.0630493,-0.000484873,0.00190653,0.000834545,0.00216896,-0.000747311,1.26612,0.00174913,0.00992255,965,477,-0.038616,-0.0630528
-252,547,-0.0377197,0.0680542,-0.000839392,0.0027516,0.00156392,0.0033372,-0.001425,1.21251,0.00282237,0.0100101,972,477,-0.0376974,-0.0680512
-245,547,-0.0262451,0.0627136,-0.00137182,0.00338461,0.00258489,0.00451888,-0.00250609,1.15729,0.00411098,0.0113224,979,477,-0.026258,-0.0627059
-238,547,-0.0331421,0.0726929,-0.00150559,0.00392779,0.00401125,0.00605573,-0.00363354,1.08305,0.00565207,0.00823825,986,477,-0.0331477,-0.0726926
-231,547,-0.0281372,0.0722046,-0.00168863,0.00395621,0.0055539,0.00736371,-0.00509612,1.02049,0.00723329,0.00719619,993,477,-0.0281553,-0.0722133
-224,547,-0.0181274,0.0875549,-0.0016073,0.00384062,0.00700381,0.00863153,-0.00639821,0.97086,0.0087093,0.00908187,1000,477,-0.018151,-0.0875623
-217,547,-0.0286255,0.0928955,-0.00142005,0.00305169,0.0082982,0.00940996,-0.00777832,0.916993,0.00993855,0.0123955,1007,477,-0.0286125,-0.0928987
-210,547,-0.0400391,0.0604553,-0.00158495,0.00207795,0.00943421,0.00985683,-0.00936384,0.88127,0.0110983,0.0202728,1014,477,-0.0400495,-0.0604482
-203,547,-0.0629883,0.0373535,-0.00137745,0.000476501,0.0103595,0.00995041,-0.0108514,0.83002,0.0120137,0.0319629,1021,477,-0.0629993,-0.0373638
-196,547,-0.0859375,0.0218201,-0.000539826,-0.00114951,0.0104397,0.00959944,-0.0112888,0.770802,0.012073,0.038839,1028,477,-0.0858956,-0.0218101
-189,547,0.00671387,-0.0387573,0.000740355,-0.0031037,0.00935391,0.00836766,-0.010731,0.684069,0.0110547,0.0407102,1035,477,0.00669269,0.0387445
-182,547,0.074707,-0.306915,0.00201539,-0.00487284,0.00779667,0.00709477,-0.00995222,0.577415,0.00988807,0.0440421,1042,477,0.0746481,0.30692
-175,547,0.302979,-0.0201721,0,0,0,0,0,0,0,-1,1049,477,0.302941,0.0201799
-168,547,0.265259,-0.336426,0,0,0,0,0,0,0,-1,1056,477,0.265308,0.336429
-161,547,0.116211,-0.375275,0,0,0,0,0,0,0,-1,1063,477,0.116164,0.375273
-154,547,-0.606201,-0.110382,0,0,0,0,0,0,0,-1,1070,477,-0.606203,0.110376
-147,547,-0.348022,0.0422668,0,0,0,0,0,0,0,-1,1077,477,-0.348038,-0.0422701
-140,547,-1.13184,-0.746735,0.00835722,-0.00886244,-0.00493785,0.00967269,-0.0101779,-0.260358,0.011462,0.0395703,1084,477,-1.13182,0.746729
-133,547,-0.899658,-0.595673,0.00857198,-0.00850512,-0.00553614,0.0102097,-0.0101428,-0.287614,0.0117505,0.043322,1091,477,-0.89964,0.595659
-126,547,-0.723511,-0.727264,0.00862417,-0.00786864,-0.00497941,0.0100109,-0.00925539,-0.271615,0.0111263,0.0442835,1098,477,-0.723497,0.727252
-119,547,-0.673828,-0.572113,0.0082447,-0.00927942,-0.00345993,0.00890309,-0.00993781,-0.188041,0.0108833,0.0426631,1105,477,-0.673811,0.572117
-112,547,-0.38501,-0.578552,0.00822928,-0.0109067,-0.00128636,0.00831536,-0.0109928,-0.0668212,0.0111832,0.0411901,1112,477,-0.385039,0.57855
-105,547,-0.251099,-0.643616,0.0082007,-0.0130958,0.00143017,0.00829631,-0.0131915,0.0667557,0.0125128,0.0418452,1119,477,-0.251118,0.643621
-98,547,0.0871582,-0.326721,0.00734831,-0.0155455,0.00392003,0.00800092,-0.0161981,0.164968,0.014236,0.0427881,1126,477,0.0872115,0.326726
-91,547,0.135254,-0.0727234,0.00626583,-0.0166944,0.00626687,0.00786496,-0.0182935,0.249841,0.0154975,0.0389584,1133,477,0.135292,0.0727155
-84,547,-0.0244141,0.165131,0.00578265,-0.01752,0.00896229,0.00883086,-0.0205682,0.327841,0.0174186,0.0417455,1140,477,-0.0243573,-0.165128
-77,547,-0.289185,0.414856,0.00623722,-0.018296,0.0115039,0.0107875,-0.0228464,0.376661,0.0198302,0.0439747,1147,477,-0.289184,-0.414842
-70,547,-0.450317,0.613007,0.00632437,-0.0188771,0.0134235,0.0121348,-0.0246875,0.408502,0.0216672,0.0444698,1154,477,-0.45031,-0.613012
-63,547,-0.26062,-0.121277,0.00654615,-0.0197491,0.015179,0.0134799,-0.0266829,0.428494,0.023602,0.0415164,1161,477,-0.260619,0.121265
-56,547,0.0527344,0.0204163,0.0060552,-0.0200323,0.0167161,0.0142144,-0.0281915,0.454088,0.0249224,0.0443431,1168,477,0.0527766,-0.0204196
-49,547,-0.0462646,0.473267,0.0038099,-0.0206957,0.0181297,0.013439,-0.0303247,0.488234,0.0258863,0.0473092,1175,477,-0.046214,-0.473276
-42,547,-0.173584,-0.328949,0.00147775,-0.0225432,0.0199337,0.0127396,-0.0338051,0.514262,0.0277749,0.044517,1182,477,-0.173625,0.328954
-35,547,0.00402832,0.233154,-0.000154954,-0.0256967,0.0215225,0.0121004,-0.0379521,0.517632,0.0301553,0.0368456,1189,477,0.00400173,-0.233148
-28,547,0.210327,1.00967,-0.00183732,-0.0321874,0.025189,0.0123946,-0.0464193,0.51429,0.0358002,0.0411974,1196,477,0.210385,-1.00968
-21,547,0.496582,1.77451,-0.00547975,-0.0411005,0.0317453,0.0131101,-0.0596903,0.529758,0.0448075,0.0451726,1203,477,0.496592,-1.7745
-14,547,0.0158691,1.9606,-0.0124022,-0.0516185,0.0401934,0.0127108,-0.0767316,0.55846,0.0558754,0.0486076,1210,477,0.0158895,-1.9606
-7,547,-0.143311,2.31607,-0.0187792,-0.0632717,0.0456713,0.00977576,-0.0918266,0.558763,0.0647229,0.0465088,1217,477,-0.143371,-2.31606
0,547,-0.981567,2.28625,-0.0176556,-0.0773181,0.0502222,0.0109269,-0.105901,0.517405,0.0745103,0.0450226,1224,477,-0.981512,-2.28626
7,547,-1.56689,2.66333,-0.0125329,-0.0878656,0.050879,0.0131049,-0.113503,0.466762,0.0803941,0.0486681,1231,477,-1.56694,-2.66334
14,547,0,0,0,0,0,0,0,0,0,-1,1238,477,0,0
21,547,0,0,0,0,0,0,0,0,0,-1,1245,477,0,0
28,547,0,0,0,0,0,0,0,0,0,-1,1252,477,0,0
35,547,0,0,0,0,0,0,0,0,0,-1,1259,477,0,0
42,547,0,0,0,0,0,0,0,0,0,-1,1266,477,0,0
49,547,0,0,0,0,0,0,0,0,0,-1,1273,477,0,0
56,547,0,0,0,0,0,0,0,0,0,-1,1280,477,0,0
63,547,0,0,0,0,0,0,0,0,0,-1,1287,477,0,0
70,547,0,0,0,0,0,0,0,0,0,-1,1294,477,0,0
77,547,0,0,0,0,0,0,0,0,0,-1,1301,477,0,0
84,547,0,0,0,0,0,0,0,0,0,-1,1308,477,0,0
91,547,0,0,0,0,0,0,0,0,0,-1,1315,477,0,0
98,547,0,0,0,0,0,0,0,0,0,-1,1322,477,0,0
105,547,-2.21143,1.7019,0,0,0,0,0,0,0,-1,1329,477,-2.2114,-1.7019
112,547,-1.54041,2.42813,0,0,0,0,0,0,0,-1,1336,477,-1.54039,-2.42814
119,547,-0.629272,2.67621,0,0,0,0,0,0,0,-1,1343,477,-0.629271,-2.67622
126,547,0.0101318,2.86407,0,0,0,0,0,0,0,-1,1350,477,0.0101735,-2.86407
133,547,0.417725,2.01324,0,0,0,0,0,0,0,-1,1357,477,0.417668,-2.01325
140,547,1.44495,2.69757,0,0,0,0,0,0,0,-1,1364,477,1.445,-2.69757
147,547,2.38354,2.04706,0,0,0,0,0,0,0,-1,1371,477,2.38354,-2.04705
154,547,0.0400391,-0.94339,0,0,0,0,0,0,0,-1,1378,477,0.0400446,0.943381
161,547,0.00610352,-0.619232,0.0425978,0.00496358,0.00253702,0.0427681,0.00479332,0.0670085,0.0270562,0.0482368,1385,477,0.00614024,0.619246
168,547,-0.0186768,-0.292725,0.0306374,0.00898269,0.00208099,0.0308355,0.00878453,0.094941,0.0183439,0.0459335,1392,477,-0.0187061,0.292731
175,547,0.175781,-0.559113,0.0207029,0.0118454,0.00087751,0.020789,0.0117593,0.0978035,0.012037,0.0478585,1399,477,0.175813,0.559103
182,547,0.10498,-0.871552,0.0133541,0.0146554,-0.000210899,0.0146887,0.0133208,-1.41407,0.00936984,0.0480816,1406,477,0.104984,0.871557
189,547,0.0933838,-0.52478,0.0081658,0.016938,-0.00217315,0.0174468,0.00765695,-1.34079,0.010098,0.0457774,1413,477,0.0933367,0.524778
196,547,0.0787354,0.117004,0.00211982,0.0164921,-0.00213493,0.0168026,0.00180939,-1.4264,0.0106499,0.0441,1420,477,0.0787152,-0.117002
203,547,0.0959473,0.13623,-0.00328509,0.0142595,-0.00248777,0.0146055,-0.00363102,-1.43263,0.0111462,0.0432376,1427,477,0.095937,-0.136235
210,547,0.10144,-0.0873108,-0.00613493,0.012523,-0.00336265,0.0131105,-0.00672247,-1.39782,0.0116469,0.0442249,1434,477,0.101418,0.0873165
217,547,0.100952,-0.263794,-0.00616786,0.0117713,-0.00424546,0.0127253,-0.00712185,-1.34976,0.01161,0.0472505,1441,477,0.100938,0.263792
224,547,0.0217285,-0.333405,-0.00709996,0.0107997,-0.00321818,0.0113607,-0.00766097,-1.3982,0.0110512,0.0480138,1448,477,0.0216721,0.333394
231,547,-0.0823975,-0.414276,-0.00895717,0.00875792,-0.000810916,0.00879497,-0.00899421,-1.52515,0.0102708,0.0475787,1455,477,-0.0823971,0.414276
238,547,0.466797,-0.736298,-0.0102875,0.0067807,0.00161176,0.00693156,-0.0104384,1.47747,0.0100965,0.0469285,1462,477,0.466765,0.736291
245,547,0.118408,-0.635071,-0.0106547,0.00655986,0.00396807,0.0074305,-0.0115253,1.35481,0.011029,0.0455961,1469,477,0.118416,0.635086
252,547,-0.255615,-0.614746,-0.0104889,0.00450549,0.00630312,0.00680306,-0.0127864,1.22125,0.0114845,0.04173,1476,477,-0.255643,0.614749
259,547,-0.528687,-0.599365,-0.00998207,0.00418212,0.00865451,0.0082829,-0.0140828,1.1283,0.0130568,0.0395415,1483,477,-0.528666,0.599377
266,547,-0.677124,-0.751099,-0.00875858,0.00316382,0.010566,0.00933421,-0.014929,1.04223,0.0141319,0.0409251,1490,477,-0.677071,0.75111
273,547,-0.292236,0.72171,-0.00634104,0.00257969,0.0114047,0.0103652,-0.0141266,0.971803,0.0141958,0.0458323,1497,477,-0.292289,-0.721715
280,547,-0.0460205,1.04218,-0.00435692,0.0020842,0.0118363,0.0111302,-0.013403,0.918229,0.0141845,0.0471372,1504,477,-0.0460654,-1.04218
287,547,0.0626221,1.30478,-0.0030297,0.00127972,0.0108956,0.0102317,-0.0119816,0.883018,0.0128381,0.0439243,1511,477,0.0626759,-1.30477
294,547,0.0223389,1.52615,-0.00138363,0.000627388,0.00962346,0.00929772,-0.010054,0.837452,0.0111755,0.0449087,1518,477,0.0223613,-1.52616
301,547,-0.166626,0.0275269,0,0,0,0,0,0,0,-1,1525,477,-0.166602,-0.0275166
308,547,0.621338,-0.100677,0.000678319,0.000662793,0.00635293,0.00702349,-0.00568238,0.784787,0.00734935,0.0425445,1532,477,0.621333,0.100668
315,547,0.0898438,-0.103699,0.000190126,0.00117876,0.00425434,0.00496741,-0.00359852,0.843235,0.00496654,0.0437795,1539,477,0.0898803,0.10371
322,547,-0.0268555,-0.0340271,-0.000420187,0.00177669,0.00235602,0.00327775,-0.00192125,1.00353,0.00303551,0.0421816,1546,477,-0.0269127,0.0340162
329,547,0.0631104,0.0737305,-0.000911923,0.00259501,0.000511298,0.00266804,-0.000984948,1.42893,0.0021824,0.0348901,1553,477,0.0631489,-0.0737425
336,547,0.0144043,0.0530396,-0.00121156,0.00361625,-0.001209,0.00390209,-0.0014974,-1.33863,0.0032188,0.0227962,1560,477,0.0143578,-0.053036
343,547,-0.0112305,0.0472717,-0.00177007,0.00446153,-0.00227919,0.00520616,-0.0025147,-1.25502,0.00454702,0.0173303,1567,477,-0.0111978,-0.0472679
350,547,-0.0285645,0.042511,-0.00241777,0.00513046,-0.00257446,0.00592491,-0.00321222,-1.27148,0.00535226,0.0139874,1574,477,-0.0285278,-0.0425174
357,547,-0.03479,0.0486145,-0.00264834,0.00591351,-0.00209734,0.00639968,-0.0031345,-1.34302,0.00561113,0.010773,1581,477,-0.0348383,-0.048614
364,547,-0.0394287,0.0571289,-0.00225661,0.00619249,-0.00185023,0.0065799,-0.00264402,-1.36439,0.00548466,0.00860976,1588,477,-0.0394282,-0.0571287
371,547,-0.027832,0.0545654,-0.00220124,0.00636235,-0.00124293,0.0065391,-0.00237799,-1.42954,0.00533186,0.00840006,1595,477,-0.0278724,-0.0545755
378,547,-0.00830078,0.0631104,-0.00233234,0.00601365,-0.000558068,0.0060508,-0.00236949,-1.50432,0.00501394,0.0100085,1602,477,-0.00828328,-0.0631254
385,547,-0.00158691,0.0692139,-0.00142403,0.00548899,-0.000125458,0.00549126,-0.0014263,-1.55266,0.00421745,0.0104147,1609,477,-0.00164685,-0.0692148
392,547,-0.026001,0.067627,-0.000549619,0.00478657,0.000334796,0.00480749,-0.000570542,1.50838,0.00341112,0.0108454,1616,477,-0.0260318,-0.0676281
399,547,-0.0356445,0.0851746,0.000242654,0.00435442,0.000517035,0.00441844,0.000178636,1.44761,0.00288792,0.0127237,1623,477,-0.0356475,-0.0851897
406,547,-0.0311279,0.100006,0.0010609,0.00367063,0.000679621,0.00383701,0.000894523,1.33071,0.0023181,0.0123014,1630,477,-0.0310672,-0.0999989
413,547,-0.017334,0.0930481,0.00149947,0.00291603,0.000503397,0.00307669,0.0013388,1.26185,0.0017813,0.0113414,1637,477,-0.0173705,-0.0930489
420,547,-0.0325928,0.0569458,0.00184164,0.00209914,0.000177086,0.00218933,0.00175145,1.09972,0.0013377,0.0126609,1644,477,-0.0326396,-0.05695
427,547,-0.029541,0.0563965,0.00220494,0.00145642,4.36906e-05,0.00220749,0.00145387,0.0581057,0.00129569,0.011127,1651,477,-0.029581,-0.056408
434,547,-0.0311279,0.0622559,0.00239318,0.00104395,-0.0001808,0.00241699,0.00102015,-0.130926,0.00140109,0.00809564,1658,477,-0.0311818,-0.0622568
441,547,-0.0407715,0.0448608,0.00269202,0.000967381,-0.000194937,0.00271377,0.000945622,-0.111162,0.00159061,0.00973617,1665,477,-0.0407326,-0.0448569
448,547,-0.0345459,0.0366821,0.00296658,0.000871019,-0.000277174,0.00300263,0.000834978,-0.129305,0.00178958,0.0104231,1672,477,-0.0344943,-0.0366858
455,547,-0.0273438,0.045105,0.00307624,0.000844798,-0.000343331,0.00312787,0.000793167,-0.149263,0.00187756,0.0103719,1679,477,-0.0273986,-0.0451147
462,547,-0.0330811,0.0606995,0.00342521,0.000597851,-0.000716166,0.00359627,0.000426796,-0.234456,0.00226867,0.010241,1686,477,-0.0330531,-0.0607003
469,547,-0.0241699,0.0343933,0.00377153,0.000624718,-0.000770287,0.00394997,0.000446283,-0.227633,0.00249788,0.0163948,1693,477,-0.0241865,-0.0344032
476,547,0.0701904,-0.0452271,0.00402733,0.000699338,-0.000735959,0.00418281,0.000543851,-0.208209,0.0026261,0.0279389,1700,477,0.0701454,0.0452331
483,547,0.100708,-0.194244,0.00418386,0.000411891,-0.000759876,0.00433118,0.000264566,-0.191505,0.00280343,0.0398027,1707,477,0.100742,0.194238
490,547,-0.0169678,0.243469,0.00465378,-0.000938491,-0.000747441,0.00475195,-0.00103667,-0.130602,0.00356414,0.0410063,1714,477,-0.0169336,-0.243465
497,547,0.151978,0.218231,0.00564295,-0.00280914,-0.000934265,0.00574499,-0.00291118,-0.108787,0.00508613,0.0438258,1721,477,0.151942,-0.218232
504,547,0.0163574,0.0334473,0,0,0,0,0,0,0,-1,1728,477,0.016386,-0.0334511
511,547,-0.928223,-0.325256,0.00767705,-0.00897639,-0.00119138,0.00776185,-0.00906119,-0.0710574,0.00972244,0.0471833,1735,477,-0.928214,0.32527
518,547,-0.442871,-0.115051,0,0,0,0,0,0,0,-1,1742,477,-0.442928,0.115065
525,547,-0.116333,0.242371,0,0,0,0,0,0,0,-1,1749,477,-0.116305,-0.242379
532,547,0,0,0,0,0,0,0,0,0,-1,1756,477,0,0
539,547,0,0,0,0,0,0,0,0,0,-1,1763,477,0,0
546,547,0,0,0,0,0,0,0,0,0,-1,1770,477,0,0
553,547,0,0,0,0,0,0,0,0,0,-1,1777,477,0,0
560,547,0,0,0,0,0,0,0,0,0,-1,1784,477,0,0
567,547,0,0,0,0,0,0,0,0,0,-1,1791,477,0,0
574,547,0,0,0,0,0,0,0,0,0,-1,1798,477,0,0
581,547,0,0,0,0,0,0,0,0,0,-1,1805,477,0,0
588,547,0,0,0,0,0,0,0,0,0,-1,1812,477,0,0
595,547,0,0,0,0,0,0,0,0,0,-1,1819,477,0,0
602,547,0,0,0,0,0,0,0,0,0,-1,1826,477,0,0
609,547,0,0,0,0,0,0,0,0,0,-1,1833,477,0,0
616,547,0,0,0,0,0,0,0,0,0,-1,1840,477,0,0
623,547,0,0,0,0,0,0,0,0,0,-1,1847,477,0,0
630,547,0,0,0,0,0,0,0,0,0,-1,1854,477,0,0
637,547,0,0,0,0,0,0,0,0,0,-1,1861,477,0,0
644,547,0,0,0,0,0,0,0,0,0,-1,1868,477,0,0
651,547,0,0,0,0,0,0,0,0,0,-1,1875,477,0,0
658,547,0,0,0,0,0,0,0,0,0,-1,1882,477,0,0
665,547,0,0,0,0,0,0,0,0,0,-1,1889,477,0,0
672,547,0,0,0,0,0,0,0,0,0,-1,1896,477,0,0
679,547,0,0,0,0,0,0,0,0,0,-1,1903,477,0,0
686,547,0,0,0,0,0,0,0,0,0,-1,1910,477,0,0
693,547,0,0,0,0,0,0,0,0,0,-1,1917,477,0,0
700,547,0,0,0,0,0,0,0,0,0,-1,1924,477,0,0
707,547,0,0,0,0,0,0,0,0,0,-1,1931,477,0,0
714,547,0,0,0,0,0,0,0,0,0,-1,1938,477,0,0
721,547,0,0,0,0,0,0,0,0,0,-1,1945,477,0,0
728,547,0,0,0,0,0,0,0,0,0,-1,1952,477,0,0
735,547,0,0,0,0,0,0,0,0,0,-1,1959,477,0,0
742,547,0,0,0,0,0,0,0,0,0,-1,1966,477,0,0
749,547,0,0,0,0,0,0,0,0,0,-1,1973,477,0,0
756,547,0,0,0,0,0,0,0,0,0,-1,1980,477,0,0
763,547,0,0,0,0,0,0,0,0,0,-1,1987,477,0,0
770,547,0,0,0,0,0,0,0,0,0,-1,1994,477,0,0
777,547,0,0,0,0,0,0,0,0,0,-1,2001,477,0,0
784,547,0,0,0,0,0,0,0,0,0,-1,2008,477,0,0
791,547,0,0,0,0,0,0,0,0,0,-1,2015,477,0,0
798,547,0,0,0,0,0,0,0,0,0,-1,2022,477,0,0
805,547,0,0,0,0,0,0,0,0,0,-1,2029,477,0,0
812,547,0,0,0,0,0,0,0,0,0,-1,2036,477,0,0
-700,540,0,0,0,0,0,0,0,0,0,-1,524,484,0,0
-693,540,0,0,0,0,0,0,0,0,0,-1,531,484,0,0
-686,540,0,0,0,0,0,0,0,0,0,-1,538,484,0,0
-679,540,0,0,0,0,0,0,0,0,0,-1,545,484,0,0
-672,540,0,0,0,0,0,0,0,0,0,-1,552,484,0,0
-665,540,0,0,0,0,0,0,0,0,0,-1,559,484,0,0
-658,540,0,0,0,0,0,0,0,0,0,-1,566,484,0,0
-651,540,0,0,0,0,0,0,0,0,0,-1,573,484,0,0
-644,540,0,0,0,0,0,0,0,0,0,-1,580,484,0,0
-637,540,0,0,0,0,0,0,0,0,0,-1,587,484,0,0
-630,540,0,0,0,0,0,0,0,0,0,-1,594,484,0,0
-623,540,0,0,0,0,0,0,0,0,0,-1,601,484,0,0
-616,540,0,0,0,0,0,0,0,0,0,-1,608,484,0,0
-609,540,0,0,0,0,0,0,0,0,0,-1,615,484,0,0
-602,540,0,0,0,0,0,0,0,0,0,-1,622,484,0,0
-595,540,0,0,0,0,0,0,0,0,0,-1,629,484,0,0
-588,540,0,0,0,0,0,0,0,0,0,-1,636,484,0,0
-581,540,0,0,0,0,0,0,0,0,0,-1,643,484,0,0
-574,540,0,0,0,0,0,0,0,0,0,-1,650,484,0,0
-567,540,0,0,0,0,0,0,0,0,0,-1,657,484,0,0
-560,540,0,0,0,0,0,0,0,0,0,-1,664,484,0,0
-553,540,0,0,0,0,0,0,0,0,0,-1,671,484,0,0
-546,540,0,0,0,0,0,0,0,0,0,-1,678,484,0,0
-539,540,0,0,0,0,0,0,0,0,0,-1,685,484,0,0
-532,540,0,0,0,0,0,0,0,0,0,-1,692,484,0,0
-525,540,0,0,0,0,0,0,0,0,0,-1,699,484,0,0
-518,540,0,0,0,0,0,0,0,0,0,-1,706,484,0,0
-511,540,0,0,0,0,0,0,0,0,0,-1,713,484,0,0
-504,540,0,0,0,0,0,0,0,0,0,-1,720,484,0,0
-497,540,0,0,0,0,0,0,0,0,0,-1,727,484,0,0
-490,540,0,0,0,0,0,0,0,0,0,-1,734,484,0,0
-483,540,0,0,0,0,0,0,0,0,0,-1,741,484,0,0
-476,540,0,0,0,0,0,0,0,0,0,-1,748,484,0,0
-469,540,0,0,0,0,0,0,0,0,0,-1,755,484,0,0
-462,540,0,0,0,0,0,0,0,0,0,-1,762,484,0,0
-455,540,0,0,0,0,0,0,0,0,0,-1,769,484,0,0
-448,540,0,0,0,0,0,0,0,0,0,-1,776,484,0,0
-441,540,0,0,0,0,0,0,0,0,0,-1,783,484,0,0
-434,540,0,0,0,0,0,0,0,0,0,-1,790,484,0,0
-427,540,0,0,0,0,0,0,0,0,0,-1,797,484,0,0
-420,540,-2.16034,-1.23254,0,0,0,0,0,0,0,-1,804,484,-2.16034,1.23254
-413,540,-2.61334,-1.75833,0.0286024,-0.0277176,-0.0301978,0.0417327,-0.0408479,-0.410152,0.0476789,0.0422546,811,484,-2.61332,1.75833
-406,540,-3.04016,-2.33694,0,0,0,0,0,0,0,-1,818,484,-3.04016,2.33694
-399,540,-0.651001,1.2077,0,0,0,0,0,0,0,-1,825,484,-0.650992,-1.20771
-392,540,0.607727,0.1492,0,0,0,0,0,0,0,-1,832,484,0.607729,-0.149215
-385,540,-0.639893,-0.411713,0,0,0,0,0,0,0,-1,839,484,-0.639881,0.411702
-378,540,0.294434,-0.246613,0,0,0,0,0,0,0,-1,846,484,0.294421,0.246626
-371,540,-0.0106201,0.853943,0.0101913,0.00778554,-0.00952748,0.0185915,-0.000614692,-0.722604,0.0126042,0.0469557,853,484,-0.0106204,-0.853956
-364,540,-0.265808,0.0126648,0.00688169,0.00890499,-0.00624885,0.0142236,0.00156313,-0.865649,0.00900665,0.0460251,860,484,-0.265826,-0.0126605
-357,540,-0.100891,0.0450439,0.00409498,0.00992543,-0.00323551,0.0113653,0.00265508,-1.15208,0.00686518,0.0376682,867,484,-0.100921,-0.0450342
-350,540,-0.0665283,0.065033,0.00149975,0.00940799,-0.00142605,0.00965728,0.00125045,-1.39773,0.0060645,0.0234286,874,484,-0.0665251,-0.0650222
-343,540,-0.0358276,0.0559692,-7.79655e-05,0.00872347,-0.000223875,0.00872916,-8.36565e-05,-1.54538,0.00584752,0.0122644,881,484,-0.035843,-0.0559577
-336,540,-0.0344238,0.0481567,-0.000833694,0.00783212,0.000592022,0.00787238,-0.000873952,1.5029,0.0055625,0.0108353,888,484,-0.034402,-0.048144
-329,540,-0.0363159,0.0539246,-0.00105732,0.00702508,0.00116106,0.00718856,-0.00122081,1.43091,0.00524687,0.00894568,895,484,-0.0363255,-0.0539206
-322,540,-0.0498047,0.0559692,-0.00118734,0.00619556,0.00112719,0.00636382,-0.0013556,1.42262,0.00475921,0.0126133,902,484,-0.0497798,-0.0559764
-315,540,-0.0495605,0.0532837,-0.00104207,0.00484182,0.00101917,0.00501335,-0.0012136,1.40405,0.00381172,0.0113863,909,484,-0.0495781,-0.0532713
-308,540,-0.0461426,0.0643616,-0.000568175,0.00419377,0.000777866,0.00431761,-0.000692019,1.41291,0.00313465,0.0109003,916,484,-0.046114,-0.0643605
-301,540,-0.0529175,0.0652161,-4.15796e-05,0.00325558,0.000466727,0.00332037,-0.000106374,1.43285,0.00224988,0.0107721,923,484,-0.0529041,-0.0652059
-294,540,-0.0407104,0.0465088,0.000316308,0.0023736,0.000198986,0.00239267,0.000297238,1.47525,0.00150585,0.00980056,930,484,-0.0407316,-0.046514
-287,540,-0.026001,0.0454712,0.000251921,0.00191244,-0.000292926,0.0019626,0.000201762,-1.40121,0.0012466,0.00782675,937,484,-0.0259774,-0.0454855
-280,540,-0.0205078,0.0576477,-7.23864e-05,0.00194403,-0.000419906,0.00202798,-0.000156334,-1.37348,0.00140699,0.00855174,944,484,-0.0205248,-0.057661
-273,540,-0.0272217,0.0650024,-0.000617761,0.0018566,5.07399e-05,0.00185764,-0.000618801,1.5503,0.00148821,0.0109255,951,484,-0.0272472,-0.0650097
-266,540,-0.0402832,0.0561829,-0.000932062,0.00202071,0.0007253,0.00218925,-0.0011006,1.34248,0.00193375,0.0118177,958,484,-0.0403112,-0.0561772
-259,540,-0.0447388,0.0415039,-0.000903639,0.00269778,0.00160293,0.00330787,-0.00151373,1.20712,0.00284727,0.0101338,965,484,-0.0447208,-0.0415162
-252,540,-0.0308228,0.0351563,-0.00118345,0.00391103,0.00259023,0.00499666,-0.00226907,1.17391,0.00429227,0.010514,972,484,-0.0308356,-0.0351663
-245,540,-0.0253296,0.0230408,-0.00172765,0.00489954,0.00393771,0.00673235,-0.00356047,1.13517,0.00603588,0.0111198,979,484,-0.0253383,-0.0230472
-238,540,-0.0370483,0.0533142,-0.0017645,0.0058445,0.005804,0.00897978,-0.00489979,1.07551,0.00812796,0.00841797,986,484,-0.0370755,-0.0533291
-231,540,-0.0217896,0.0783691,-0.00189151,0.00616417,0.00785814,0.0109666,-0.00669395,1.02222,0.0102953,0.0103113,993,484,-0.0218091,-0.0783605
-224,540,-0.0244141,0.073822,-0.00162957,0.00616852,0.00982243,0.0128375,-0.00829853,0.974337,0.0122963,0.0143646,1000,484,-0.0243946,-0.0738251
-217,540,-0.0526123,0.0278625,-0.00124554,0.00522625,0.0115252,0.0139612,-0.00998053,0.922258,0.0138863,0.0240101,1007,484,-0.0526398,-0.0278642
-210,540,-0.0374146,-0.0553284,-0.00121176,0.00396278,0.0130618,0.0146911,-0.0119401,0.883172,0.0154028,0.0354117,1014,484,-0.0374431,0.0553289
-203,540,-0.0321655,-0.185577,-0.000790725,0.00185654,0.0141627,0.0147573,-0.0136915,0.831992,0.0164288,0.0403672,1021,484,-0.0321715,0.185588
-196,540,-0.237549,-0.0635376,0.000237186,-0.00031145,0.0141684,0.0141339,-0.0142081,0.775719,0.0163633,0.0445947,1028,484,-0.23759,0.0635398
-189,540,-0.227905,0.0684509,0.00171795,-0.00291183,0.0127792,0.0123902,-0.0135841,0.695797,0.0150015,0.0426173,1035,484,-0.227902,-0.0684482
-182,540,0.000854492,-0.5672,0.00318731,-0.00547331,0.010844,0.0105336,-0.0128196,0.595434,0.0135045,0.0451689,1042,484,0.000799383,0.567191
-175,540,0.394043,-0.652802,0,0,0,0,0,0,0,-1,1049,484,0.393995,0.652789
-168,540,0.318481,-0.537689,0.00558679,-0.00962673,0.00424846,0.00669279,-0.0107327,0.254677,0.0101504,0.0454116,1056,484,0.318517,0.537677
-161,540,0.220947,-0.581696,0.00624683,-0.0111011,0.00067699,0.0062732,-0.0111274,0.0389454,0.0101757,0.0448637,1063,484,0.220944,0.581691
-154,540,0.0270996,-0.609222,0,0,0,0,0,0,0,-1,1070,484,0.0270434,0.609227
-147,540,-0.525146,-0.490723,0.00858798,-0.0136219,-0.0046214,0.00951121,-0.0145452,-0.197178,0.0139899,0.0375493,1077,484,-0.525109,0.490726
-140,540,-0.674927,-0.702057,0.00988599,-0.0132082,-0.00579427,0.0112582,-0.0145805,-0.232541,0.014959,0.0401678,1084,484,-0.674908,0.702054
-133,540,-0.590088,-0.609406,0.00986242,-0.0131489,-0.00693118,0.0117889,-0.0150753,-0.271097,0.0155487,0.0429875,1091,484,-0.590097,0.609401
-126,540,-0.549927,-0.613556,0.00999144,-0.0123061,-0.006321,0.0116587,-0.0139733,-0.257889,0.0148187,0.04182,1098,484,-0.54995,0.613554
-119,540,-0.617676,-0.450531,0.00955001,-0.0136078,-0.00471998,0.0104751,-0.0145329,-0.193536,0.0145016,0.0441865,1105,484,-0.617623,0.450541
-112,540,-0.43811,-0.437012,0.0095244,-0.0152269,-0.00230727,0.00973764,-0.0154401,-0.09216,0.0146601,0.0441385,1112,484,-0.438076,0.437001
-105,540,-0.143677,-0.444672,0.00941842,-0.0174277,0.000779334,0.00944102,-0.0174503,0.0289972,0.0157536,0.0394041,1119,484,-0.143704,0.444671
-98,540,0.0214844,-0.139282,0.00852637,-0.0198234,0.00369743,0.00900066,-0.0202977,0.127579,0.0173295,0.0386886,1126,484,0.0214596,0.139269
-91,540,-0.163208,0.093689,0.00767882,-0.0206402,0.0063094,0.00902093,-0.0219824,0.209592,0.0184138,0.0395116,1133,484,-0.163231,-0.0936876
-84,540,-0.222778,0.235046,0.00745,-0.0208566,0.00911105,0.010129,-0.0235356,0.285981,0.0199434,0.0417404,1140,484,-0.222799,-0.235044
-77,540,-0.1698,0.418884,0.00800796,-0.0206935,0.0117096,0.0121791,-0.0248647,0.342198,0.0218012,0.0416315,1147,484,-0.169742,-0.41888
-70,540,-0.133667,0.404663,0.00799872,-0.0204789,0.0137519,0.0135553,-0.0260355,0.384003,0.0232332,0.0427683,1154,484,-0.133718,-0.404654
-63,540,-0.0703125,0.271179,0,0,0,0,0,0,0,-1,1161,484,-0.0703417,-0.27119
-56,540,0.0305176,0.156036,0.00619428,-0.0187961,0.0174602,0.0151697,-0.0277715,0.474825,0.0251455,0.0454161,1168,484,0.0305046,-0.156041
-49,540,-0.0423584,0.712006,0.0027535,-0.0188004,0.0192743,0.0140591,-0.030106,0.530483,0.0260538,0.0458229,1175,484,-0.0423504,-0.712004
-42,540,0,0,0,0,0,0,0,0,0,-1,1182,484,0,0
-35,540,0,0,0,0,0,0,0,0,0,-1,1189,484,0,0
-28,540,0,0,0,0,0,0,0,0,0,-1,1196,484,0,0
-21,540,0,0,0,0,0,0,0,0,0,-1,1203,484,0,0
-14,540,0,0,0,0,0,0,0,0,0,-1,1210,484,0,0
-7,540,0,0,0,0,0,0,0,0,0,-1,1217,484,0,0
0,540,0,0,0,0,0,0,0,0,0,-1,1224,484,0,0
7,540,0,0,0,0,0,0,0,0,0,-1,1231,484,0,0
14,540,0,0,0,0,0,0,0,0,0,-1,1238,484,0,0
21,540,0,0,0,0,0,0,0,0,0,-1,1245,484,0,0
28,540,0,0,0,0,0,0,0,0,0,-1,1252,484,0,0
35,540,0,0,0,0,0,0,0,0,0,-1,1259,484,0,0
42,540,0,0,0,0,0,0,0,0,0,-1,1266,484,0,0
49,540,0,0,0,0,0,0,0,0,0,-1,1273,484,0,0
56,540,0,0,0,0,0,0,0,0,0,-1,1280,484,0,0
63,540,0,0,0,0,0,0,0,0,0,-1,1287,484,0,0
70,540,0,0,0,0,0,0,0,0,0,-1,1294,484,0,0
77,540,0,0,0,0,0,0,0,0,0,-1,1301,484,0,0
84,540,0,0,0,0,0,0,0,0,0,-1,1308,484,0,0
91,540,0,0,0,0,0,0,0,0,0,-1,1315,484,0,0
98,540,0,0,0,0,0,0,0,0,0,-1,1322,484,0,0
105,540,0,0,0,0,0,0,0,0,0,-1,1329,484,0,0
112,540,0,0,0,0,0,0,0,0,0,-1,1336,484,0,0
119,540,0,0,0,0,0,0,0,0,0,-1,1343,484,0,0
126,540,0,0,0,0,0,0,0,0,0,-1,1350,484,0,0
133,540,0,0,0,0,0,0,0,0,0,-1,1357,484,0,0
140,540,0,0,0,0,0,0,0,0,0,-1,1364,484,0,0
147,540,0,0,0,0,0,0,0,0,0,-1,1371,484,0,0
154,540,0,0,0,0,0,0,0,0,0,-1,1378,484,0,0
161,540,0,0,0,0,0,0,0,0,0,-1,1385,484,0,0
168,540,0.102173,-0.196533,0,0,0,0,0,0,0,-1,1392,484,0.102227,0.196541
175,540,0.0584717,-0.706818,0,0,0,0,0,0,0,-1,1399,484,0.058464,0.706819
182,540,0.229492,0.614746,0,0,0,0,0,0,0,-1,1406,484,0.229452,-0.614732
189,540,0.0969238,-0.141144,0.00386351,0.0235112,-0.00593615,0.0251654,0.0022093,-1.29902,0.0160911,0.0447694,1413,484,0.0969481,0.141148
196,540,0.222412,-0.852692,-0.00197185,0.0204996,-0.00480601,0.0214844,-0.00295657,-1.3687,0.0154033,0.0440049,1420,484,0.222405,0.852678
203,540,0.178589,0.410095,0,0,0,0,0,0,0,-1,1427,484,0.178635,-0.410081
210,540,0.155884,0.181946,0,0,0,0,0,0,0,-1,1434,484,0.155869,-0.181952
217,540,0.0253906,0.0466614,0,0,0,0,0,0,0,-1,1441,484,0.0253639,-0.0466641
224,540,-0.0214844,0.0656128,0,0,0,0,0,0,0,-1,1448,484,-0.0214595,-0.0656076
231,540,0.607178,-0.898804,0,0,0,0,0,0,0,-1,1455,484,0.60714,0.898795
238,540,0.430054,-0.766846,-0.0157718,0.00648539,0.0007446,0.00651027,-0.0157966,1.53739,0.0132457,0.0489607,1462,484,0.430057,0.766859
245,540,-0.0280762,-0.548187,-0.0159527,0.00666921,0.00344308,0.00718165,-0.0164651,1.42305,0.0139988,0.045721,1469,484,-0.0280357,0.548184
252,540,-0.30542,-0.229431,-0.0154495,0.00430777,0.00616238,0.00607226,-0.017214,1.29193,0.0139479,0.0421769,1476,484,-0.305462,0.229437
259,540,-0.308105,-0.435638,-0.0143266,0.00431794,0.00886108,0.00785737,-0.0178661,1.19078,0.0152216,0.0384671,1483,484,-0.308052,0.435634
266,540,-0.293579,1.05362,-0.012311,0.00331449,0.0110212,0.00901118,-0.0180077,1.09373,0.015885,0.0432594,1490,484,-0.293556,-1.05363
273,540,-0.260864,0.854614,-0.00897512,0.00290939,0.0118029,0.0101814,-0.0162472,1.0186,0.015392,0.0469052,1497,484,-0.260865,-0.854619
280,540,-0.199097,0.71344,-0.00629674,0.00256372,0.0121658,0.0110808,-0.0148138,0.960012,0.015002,0.0435431,1504,484,-0.199042,-0.713448
287,540,-0.44519,1.35229,-0.00443699,0.00183202,0.0110402,0.0101741,-0.0127791,0.923716,0.0132804,0.0437213,1511,484,-0.44522,-1.35231
294,540,-0.499878,1.65869,-0.00233806,0.0011669,0.00949083,0.0090657,-0.0102369,0.876695,0.0111512,0.047272,1518,484,-0.499929,-1.65868
301,540,-0.158081,1.62402,0,0,0,0,0,0,0,-1,1525,484,-0.158037,-1.62403
308,540,-0.109863,-0.31424,-0.000153571,0.00145306,0.00553737,0.00624507,-0.00494559,0.857431,0.00647544,0.044944,1532,484,-0.109912,0.314245
315,540,-0.342529,-0.204224,-0.000761197,0.00209539,0.00306138,0.00404527,-0.00271108,1.00366,0.00392605,0.0456263,1539,484,-0.342526,0.204238
322,540,-0.0114746,-0.0523682,-0.00149341,0.00294591,0.000927764,0.003132,-0.0016795,1.37284,0.0028198,0.0461498,1546,484,-0.0115054,0.0523541
329,540,0.330933,0.268097,-0.00203462,0.00418148,-0.000969631,0.00432921,-0.00218236,-1.41959,0.00382696,0.0440429,1553,484,0.330987,-0.268094
336,540,0.00012207,0.134155,-0.00242889,0.00577711,-0.00272592,0.00660008,-0.00325187,-1.27759,0.00579649,0.0397275,1560,484,0.000172236,-0.134164
343,540,-0.0725098,0.037323,-0.00317427,0.00703822,-0.00363954,0.00820254,-0.00433859,-1.26118,0.00735429,0.037277,1567,484,-0.0724975,-0.0373256
350,540,-0.0145264,0.077301,-0.00398646,0.00811884,-0.00369375,0.00915691,-0.00502453,-1.29683,0.00830272,0.030103,1574,484,-0.0145612,-0.0773114
357,540,-0.0150146,0.0770264,-0.00421137,0.00927995,-0.00283932,0.00985315,-0.00478457,-1.3716,0.00861832,0.018094,1581,484,-0.0150133,-0.0770323
364,540,-0.0457764,0.0704956,-0.00362635,0.00975223,-0.00224473,0.0101188,-0.00399294,-1.40891,0.00839942,0.0104767,1588,484,-0.0457338,-0.0705058
371,540,-0.0355225,0.0607605,-0.00341312,0.00994723,-0.00122559,0.0100587,-0.00352462,-1.48007,0.00813918,0.010272,1595,484,-0.0355287,-0.0607746
378,540,-0.0285645,0.0580139,-0.00343604,0.00941797,-0.000164413,0.00942008,-0.00343814,-1.55801,0.00768682,0.0115062,1602,484,-0.0285589,-0.0580059
385,540,-0.0125732,0.0591736,-0.00219876,0.00854295,0.00048181,0.00856452,-0.00222033,1.52606,0.00657595,0.0132308,1609,484,-0.012545,-0.0591826
392,540,-0.0170898,0.0718994,-0.00109844,0.0075353,0.00104931,0.007661,-0.00122414,1.45157,0.00556048,0.0117782,1616,484,-0.017064,-0.0718859
399,540,-0.0284424,0.0680237,-0.000211647,0.00660726,0.00128551,0.00684156,-0.000445943,1.39052,0.00471672,0.0159256,1623,484,-0.0284315,-0.0680378
406,540,-0.0189209,0.0628662,0.000690474,0.00549272,0.00147864,0.00591149,0.000271709,1.29481,0.00385362,0.0162775,1630,484,-0.0188624,-0.0628598
413,540,-0.020874,0.0766907,0.0011815,0.00431475,0.00125445,0.0047551,0.000741149,1.2332,0.00295417,0.0116264,1637,484,-0.0209108,-0.0766811
420,540,-0.0335693,0.0675354,0.00141339,0.00320456,0.000849663,0.00354348,0.00107447,1.19125,0.00209797,0.00992009,1644,484,-0.0335459,-0.0675326
427,540,-0.0396729,0.065918,0.00156687,0.00219998,0.000627344,0.00258611,0.00118074,1.01906,0.00149497,0.00965763,1651,484,-0.0396778,-0.0659278
434,540,-0.024292,0.0803833,0.00157917,0.00143977,0.000288225,0.001806,0.00121293,0.66676,0.00106297,0.0132465,1658,484,-0.0243014,-0.0803881
441,540,0.0020752,0.0766296,0.001796,0.00106056,0.000166785,0.00183205,0.00102451,0.212909,0.00106021,0.0185219,1665,484,0.00211078,-0.0766216
448,540,-0.0388184,0.0240173,0.002066,0.000824546,2.33842e-05,0.00206644,0.000824106,0.0188273,0.00120118,0.0112493,1672,484,-0.038803,-0.0240176
455,540,-0.0411377,0.0402832,0.0021493,0.000654065,-8.56802e-05,0.0021542,0.000649171,-0.057053,0.00127603,0.00935824,1679,484,-0.0411433,-0.0402725
462,540,-0.0515137,0.0632629,0.00247979,0.000246162,-0.00048334,0.0025799,0.000146057,-0.204223,0.00167337,0.00976484,1686,484,-0.0514965,-0.0632563
469,540,-0.0511475,0.0421143,0.00283891,1.71019e-05,-0.000603758,0.00296267,-0.000106651,-0.202171,0.0020116,0.0120896,1693,484,-0.05117,-0.0421067
476,540,-0.0296631,0.0218811,0.00316833,-0.000207139,-0.000634873,0.00328379,-0.000322599,-0.179897,0.00230427,0.0144765,1700,484,-0.0296915,-0.0218802
483,540,0.0198975,0.0901184,0.0033758,-0.000905172,-0.00069894,0.00348703,-0.0010164,-0.157809,0.00272736,0.0207253,1707,484,0.0199448,-0.0901149
490,540,0.0220947,0.168579,0.00384158,-0.00261336,-0.00071758,0.00392039,-0.00269217,-0.109388,0.00383965,0.0347575,1714,484,0.0220734,-0.168575
497,540,-0.0235596,0.0572205,0.0047336,-0.00482661,-0.000865876,0.00481139,-0.0049044,-0.0895993,0.0056095,0.0480399,1721,484,-0.023585,-0.0572318
504,540,-0.0327148,-0.0281982,0.00546413,-0.00783181,-0.000917655,0.00552717,-0.00789485,-0.0685842,0.00778929,0.0471961,1728,484,-0.0326583,0.0282091
511,540,-0.105713,0.0577698,0.00628282,-0.011082,-0.00107729,0.0063494,-0.0111486,-0.0617234,0.0102283,0.0447354,1735,484,-0.10567,-0.0577829
518,540,0.639771,-0.0773926,0,0,0,0,0,0,0,-1,1742,484,0.639776,0.0774051
525,540,0.739258,-0.0663452,0,0,0,0,0,0,0,-1,1749,484,0.739249,0.0663432
532,540,0.177856,-1.39685,0,0,0,0,0,0,0,-1,1756,484,0.177824,1.39684
539,540,0,0,0,0,0,0,0,0,0,-1,1763,484,0,0
546,540,0,0,0,0,0,0,0,0,0,-1,1770,484,0,0
553,540,0,0,0,0,0,0,0,0,0,-1,1777,484,0,0
560,540,0,0,0,0,0,0,0,0,0,-1,1784,484,0,0
567,540,0,0,0,0,0,0,0,0,0,-1,1791,484,0,0
574,540,0,0,0,0,0,0,0,0,0,-1,1798,484,0,0
581,540,0,0,0,0,0,0,0,0,0,-1,1805,484,0,0
588,540,0,0,0,0,0,0,0,0,0,-1,1812,484,0,0
595,540,0,0,0,0,0,0,0,0,0,-1,1819,484,0,0
602,540,0,0,0,0,0,0,0,0,0,-1,1826,484,0,0
609,540,0,0,0,0,0,0,0,0,0,-1,1833,484,0,0
616,540,0,0,0,0,0,0,0,0,0,-1,1840,484,0,0
623,540,0,0,0,0,0,0,0,0,0,-1,1847,484,0,0
630,540,0,0,0,0,0,0,0,0,0,-1,1854,484,0,0
637,540,0,0,0,0,0,0,0,0,0,-1,1861,484,0,0
644,540,0,0,0,0,0,0,0,0,0,-1,1868,484,0,0
651,540,0,0,0,0,0,0,0,0,0,-1,1875,484,0,0
658,540,0,0,0,0,0,0,0,0,0,-1,1882,484,0,0
665,540,0,0,0,0,0,0,0,0,0,-1,1889,484,0,0
672,540,0,0,0,0,0,0,0,0,0,-1,1896,484,0,0
679,540,0,0,0,0,0,0,0,0,0,-1,1903,484,0,0
686,540,0,0,0,0,0,0,0,0,0,-1,1910,484,0,0
693,540,0,0,0,0,0,0,0,0,0,-1,1917,484,0,0
700,540,0,0,0,0,0,0,0,0,0,-1,1924,484,0,0
707,540,0,0,0,0,0,0,0,0,0,-1,1931,484,0,0
714,540,0,0,0,0,0,0,0,0,0,-1,1938,484,0,0
721,540,0,0,0,0,0,0,0,0,0,-1,1945,484,0,0
728,540,0,0,0,0,0,0,0,0,0,-1,1952,484,0,0
735,540,0,0,0,0,0,0,0,0,0,-1,1959,484,0,0
742,540,0,0,0,0,0,0,0,0,0,-1,1966,484,0,0
749,540,0,0,0,0,0,0,0,0,0,-1,1973,484,0,0
756,540,0,0,0,0,0,0,0,0,0,-1,1980,484,0,0
763,540,0,0,0,0,0,0,0,0,0,-1,1987,484,0,0
770,540,0,0,0,0,0,0,0,0,0,-1,1994,484,0,0
777,540,0,0,0,0,0,0,0,0,0,-1,2001,484,0,0
784,540,0,0,0,0,0,0,0,0,0,-1,2008,484,0,0
791,540,0,0,0,0,0,0,0,0,0,-1,2015,484,0,0
798,540,0,0,0,0,0,0,0,0,0,-1,2022,484,0,0
805,540,0,0,0,0,0,0,0,0,0,-1,2029,484,0,0
812,540,0,0,0,0,0,0,0,0,0,-1,2036,484,0,0
-700,533,0,0,0,0,0,0,0,0,0,-1,524,491,0,0
-693,533,0,0,0,0,0,0,0,0,0,-1,531,491,0,0
-686,533,0,0,0,0,0,0,0,0,0,-1,538,491,0,0
-679,533,0,0,0,0,0,0,0,0,0,-1,545,491,0,0
-672,533,0,0,0,0,0,0,0,0,0,-1,552,491,0,0
-665,533,0,0,0,0,0,0,0,0,0,-1,559,491,0,0
-658,533,0,0,0,0,0,0,0,0,0,-1,566,491,0,0
-651,533,0,0,0,0,0,0,0,0,0,-1,573,491,0,0
-644,533,0,0,0,0,0,0,0,0,0,-1,580,491,0,0
-637,533,0,0,0,0,0,0,0,0,0,-1,587,491,0,0
-630,533,0,0,0,0,0,0,0,0,0,-1,594,491,0,0
-623,533,0,0,0,0,0,0,0,0,0,-1,601,491,0,0
-616,533,0,0,0,0,0,0,0,0,0,-1,608,491,0,0
-609,533,0,0,0,0,0,0,0,0,0,-1,615,491,0,0
-602,533,0,0,0,0,0,0,0,0,0,-1,622,491,0,0
-595,533,0,0,0,0,0,0,0,0,0,-1,629,491,0,0
-588,533,0,0,0,0,0,0,0,0,0,-1,636,491,0,0
-581,533,0,0,0,0,0,0,0,0,0,-1,643,491,0,0
-574,533,0,0,0,0,0,0,0,0,0,-1,650,491,0,0
-567,533,0,0,0,0,0,0,0,0,0,-1,657,491,0,0
-560,533,0,0,0,0,0,0,0,0,0,-1,664,491,0,0
-553,533,0,0,0,0,0,0,0,0,0,-1,671,491,0,0
-546,533,0,0,0,0,0,0,0,0,0,-1,678,491,0,0
-539,533,0,0,0,0,0,0,0,0,0,-1,685,491,0,0
-532,533,0,0,0,0,0,0,0,0,0,-1,692,491,0,0
-525,533,0,0,0,0,0,0,0,0,0,-1,699,491,0,0
-518,533,0,0,0,0,0,0,0,0,0,-1,706,491,0,0
-511,533,0,0,0,0,0,0,0,0,0,-1,713,491,0,0
-504,533,0,0,0,0,0,0,0,0,0,-1,720,491,0,0
-497,533,0,0,0,0,0,0,0,0,0,-1,727,491,0,0
-490,533,0,0,0,0,0,0,0,0,0,-1,734,491,0,0
-483,533,0,0,0,0,0,0,0,0,0,-1,741,491,0,0
-476,533,0,0,0,0,0,0,0,0,0,-1,748,491,0,0
-469,533,0,0,0,0,0,0,0,0,0,-1,755,491,0,0
-462,533,0,0,0,0,0,0,0,0,0,-1,762,491,0,0
-455,533,0,0,0,0,0,0,0,0,0,-1,769,491,0,0
-448,533,0,0,0,0,0,0,0,0,0,-1,776,491,0,0
-441,533,0,0,0,0,0,0,0,0,0,-1,783,491,0,0
-434,533,0,0,0,0,0,0,0,0,0,-1,790,491,0,0
-427,533,-1.164,-0.897461,0.0231911,-0.0399485,-0.0256583,0.032303,-0.0490604,-0.341232,0.0473061,0.0488447,797,491,-1.16399,0.897448
-420,533,-1.85645,-0.719269,0,0,0,0,0,0,0,-1,804,491,-1.85643,0.719262
-413,533,-2.25726,-0.9646,0,0,0,0,0,0,0,-1,811,491,-2.25726,0.964592
-406,533,-0.918945,1.2821,0,0,0,0,0,0,0,-1,818,491,-0.918947,-1.28211
-399,533,-0.804199,0.805237,0,0,0,0,0,0,0,-1,825,491,-0.804169,-0.805222
-392,533,-0.242554,-0.125549,0,0,0,0,0,0,0,-1,832,491,-0.242571,0.125547
-385,533,-0.384827,-0.1539,0,0,0,0,0,0,0,-1,839,491,-0.3848,0.153887
-378,533,-0.239319,-0.00216675,0,0,0,0,0,0,0,-1,846,491,-0.239298,0.00217395
-371,533,-0.138733,0.170563,0.00812843,0.00488699,-0.00829755,0.0149621,-0.00194664,-0.68895,0.0106829,0.0473747,853,491,-0.138749,-0.170566
-364,533,-0.167114,0.356506,0.0056345,0.00583925,-0.00573263,0.0114704,3.33134e-06,-0.794326,0.00764583,0.0344483,860,491,-0.16713,-0.356495
-357,533,-0.0447388,0.0605164,0.00339973,0.00672634,-0.00332787,0.00878342,0.00134264,-1.01715,0.00546334,0.0186896,867,491,-0.0447498,-0.0605239
-350,533,-0.0217285,0.0494385,0.0013043,0.0063535,-0.0019291,0.00700617,0.000651631,-1.24456,0.00446943,0.00949119,874,491,-0.0217326,-0.049445
-343,533,-0.0131226,0.0276184,2.58366e-05,0.00584103,-0.000969908,0.00599853,-0.000131667,-1.40981,0.00404363,0.00979076,881,491,-0.0131348,-0.0276321
-336,533,-0.03479,0.0114441,-0.000609668,0.00513838,-0.000307248,0.00515476,-0.000626045,-1.51755,0.00366306,0.0138902,888,491,-0.034777,-0.0114359
-329,533,-0.0294189,0.0462341,-0.000822928,0.00448957,0.000206719,0.0044976,-0.00083096,1.53196,0.00331034,0.012061,895,491,-0.0294095,-0.0462277
-322,533,-0.0396729,0.054657,-0.00102873,0.00387441,0.000272899,0.00388955,-0.00104388,1.51537,0.00300211,0.0101828,902,491,-0.039684,-0.0546586
-315,533,-0.0539551,0.0367126,-0.00106014,0.00281278,0.000297815,0.00283555,-0.00108291,1.4945,0.00233654,0.011375,909,491,-0.0539388,-0.0367022
-308,533,-0.0498047,0.0553284,-0.000843085,0.00233854,0.000241503,0.00235676,-0.000861312,1.49547,0.00192366,0.0113351,916,491,-0.0497824,-0.0553257
-301,533,-0.057312,0.0794067,-0.000548301,0.00158348,0.000103425,0.00158849,-0.000553307,1.52243,0.00128381,0.0124019,923,491,-0.0572992,-0.0793947
-294,533,-0.0481567,0.0727844,-0.000326709,0.000900688,-1.48924e-05,0.000900869,-0.000326889,-1.55867,0.000734214,0.0107723,930,491,-0.0481731,-0.0727736
-287,533,-0.0271606,0.0628052,-0.000493871,0.000726008,-0.000406519,0.000849065,-0.000616928,-1.27686,0.000849921,0.00841849,937,491,-0.02718,-0.0628087
-280,533,-0.0147705,0.0610046,-0.000886808,0.00113512,-0.000426244,0.0012213,-0.000972992,-1.37129,0.00126958,0.00778324,944,491,-0.0147762,-0.0609909
-273,533,-0.0236816,0.0632935,-0.00144066,0.00153301,0.000348017,0.0015732,-0.00148085,1.45583,0.00176352,0.0109231,951,491,-0.0236679,-0.0632804
-266,533,-0.0289307,0.0542603,-0.00165996,0.00226224,0.00132296,0.00266675,-0.00206447,1.27406,0.00273894,0.0102842,958,491,-0.0289184,-0.0542604
-259,533,-0.0267944,0.0414734,-0.00147569,0.00341248,0.00250641,0.0044692,-0.00253241,1.1718,0.00409361,0.0102111,965,491,-0.0267658,-0.0414605
-252,533,-0.0128784,0.0307922,-0.00162209,0.00518575,0.00386103,0.00692908,-0.00336542,1.14668,0.00606108,0.012064,972,491,-0.0128754,-0.0307971
-245,533,-0.0108032,0.0341187,-0.00208341,0.00672477,0.00562673,0.00946603,-0.00482467,1.11745,0.00839454,0.0151935,979,491,-0.0108243,-0.034108
-238,533,-0.0326538,0.0535278,-0.00190136,0.00825308,0.00803808,0.0126832,-0.00633144,1.06708,0.0111804,0.0163629,986,491,-0.032624,-0.0535426
-231,533,-0.0143433,0.0794373,-0.00182151,0.00908186,0.010736,0.0156711,-0.00841073,1.02033,0.0141127,0.025173,993,491,-0.0143535,-0.0794488
-224,533,-0.0942383,0.0625,-0.00127461,0.00937702,0.0133061,0.0183835,-0.0102811,0.975761,0.0167685,0.0337727,1000,491,-0.0942642,-0.0625107
-217,533,-0.167542,-0.0299377,-0.000614849,0.00840885,0.0154873,0.0200282,-0.0122342,0.927138,0.018807,0.0374543,1007,491,-0.167556,0.0299476
-210,533,0.0872803,-0.153687,-0.000265838,0.00693173,0.017465,0.0211649,-0.014499,0.887004,0.0207101,0.0412792,1014,491,0.0872595,0.153692
-203,533,-0.0932617,-0.00421143,0.000480797,0.00424436,0.018719,0.0211759,-0.0164508,0.835494,0.0217808,0.0414909,1021,491,-0.0932651,0.00420207
-196,533,-0.513428,0.395081,0.00179476,0.00145982,0.018616,0.020244,-0.0169894,0.7809,0.0215241,0.0438024,1028,491,-0.513406,-0.395079
-189,533,-0.747925,1.05457,0.00352379,-0.00188177,0.0168888,0.0179247,-0.0162827,0.706054,0.0197573,0.0464829,1035,491,-0.747937,-1.05456
-182,533,-1.33203,1.3364,0.00522873,-0.00538128,0.0145754,0.0154345,-0.0155871,0.610865,0.0179104,0.0457223,1042,491,-1.33199,-1.33639
-175,533,-1.84912,1.57974,0,0,0,0,0,0,0,-1,1049,491,-1.84911,-1.57973
-168,533,0.00732422,-0.531647,0.00803272,-0.0114282,0.00656367,0.0100395,-0.013435,0.29672,0.0136002,0.0431623,1056,491,0.00732271,0.531657
-161,533,0.105347,-0.732147,0.00879094,-0.0140694,0.00219796,0.00900035,-0.0142788,0.0949879,0.0135549,0.0428379,1063,491,0.105318,0.732139
-154,533,0.0167236,-0.654572,0.00941486,-0.0163784,-0.00185726,0.00954791,-0.0165115,-0.0715138,0.0152234,0.041799,1070,491,0.0167006,0.65458
-147,533,-0.119019,-0.418182,0.0106534,-0.0183618,-0.00487231,0.0114497,-0.0191581,-0.162005,0.0178572,0.0394839,1077,491,-0.119067,0.418188
-140,533,-0.182129,-0.524872,0.0118954,-0.0183703,-0.00673741,0.0133274,-0.0198023,-0.209435,0.0192489,0.044831,1084,491,-0.182133,0.524867
-133,533,-0.164185,-0.614807,0.0112651,-0.0189207,-0.00871432,0.0136002,-0.0212558,-0.26181,0.0202853,0.0460306,1091,491,-0.164155,0.614801
-126,533,-0.185303,-0.545044,0.0113556,-0.0180019,-0.0080678,0.0134267,-0.0200729,-0.251277,0.0194675,0.041941,1098,491,-0.185328,0.545032
-119,533,-0.0635986,-0.287109,0.0106897,-0.019215,-0.00657371,0.012071,-0.0205962,-0.207104,0.0190733,0.0445341,1105,491,-0.0635778,0.287101
-112,533,-0.0336914,-0.114838,0.0105321,-0.0208354,-0.00409621,0.0110582,-0.0213615,-0.127734,0.01903,0.0473328,1112,491,-0.0336664,0.114826
-105,533,-0.0352783,-0.0561218,0.0101522,-0.0230976,-0.000780488,0.0101706,-0.0231159,-0.0234563,0.0196964,0.0429285,1119,491,-0.0352207,0.0561147
-98,533,-0.0576172,0.18161,0.00915447,-0.0253909,0.00243284,0.00932496,-0.0255614,0.0699642,0.0208561,0.0398925,1126,491,-0.0576237,-0.181624
-91,533,-0.265625,0.322418,0.00868694,-0.0257859,0.00507073,0.00941734,-0.0265163,0.143058,0.021515,0.0424371,1133,491,-0.26562,-0.322403
-84,533,-0.152222,0.202576,0.00881904,-0.0250564,0.00764203,0.0104632,-0.0267006,0.211919,0.0221287,0.042552,1140,491,-0.152249,-0.202578
-77,533,0,0,0,0,0,0,0,0,0,-1,1147,491,0,0
-70,533,0,0,0,0,0,0,0,0,0,-1,1154,491,0,0
-63,533,0,0,0,0,0,0,0,0,0,-1,1161,491,0,0
-56,533,0,0,0,0,0,0,0,0,0,-1,1168,491,0,0
-49,533,0,0,0,0,0,0,0,0,0,-1,1175,491,0,0
-42,533,0,0,0,0,0,0,0,0,0,-1,1182,491,0,0
-35,533,0,0,0,0,0,0,0,0,0,-1,1189,491,0,0
-28,533,0,0,0,0,0,0,0,0,0,-1,1196,491,0,0
-21,533,0,0,0,0,0,0,0,0,0,-1,1203,491,0,0
-14,533,0,0,0,0,0,0,0,0,0,-1,1210,491,0,0
-7,533,0,0,0,0,0,0,0,0,0,-1,1217,491,0,0
0,533,0,0,0,0,0,0,0,0,0,-1,1224,491,0,0
7,533,0,0,0,0,0,0,0,0,0,-1,1231,491,0,0
14,533,0,0,0,0,0,0,0,0,0,-1,1238,491,0,0
21,533,0,0,0,0,0,0,0,0,0,-1,1245,491,0,0
28,533,0,0,0,0,0,0,0,0,0,-1,1252,491,0,0
35,533,0,0,0,0,0,0,0,0,0,-1,1259,491,0,0
42,533,0,0,0,0,0,0,0,0,0,-1,1266,491,0,0
49,533,0,0,0,0,0,0,0,0,0,-1,1273,491,0,0
56,533,0,0,0,0,0,0,0,0,0,-1,1280,491,0,0
63,533,0,0,0,0,0,0,0,0,0,-1,1287,491,0,0
70,533,0,0,0,0,0,0,0,0,0,-1,1294,491,0,0
77,533,0,0,0,0,0,0,0,0,0,-1,1301,491,0,0
84,533,0,0,0,0,0,0,0,0,0,-1,1308,491,0,0
91,533,0,0,0,0,0,0,0,0,0,-1,1315,491,0,0
98,533,0,0,0,0,0,0,0,0,0,-1,1322,491,0,0
105,533,0,0,0,0,0,0,0,0,0,-1,1329,491,0,0
112,533,0,0,0,0,0,0,0,0,0,-1,1336,491,0,0
119,533,0,0,0,0,0,0,0,0,0,-1,1343,491,0,0
126,533,0,0,0,0,0,0,0,0,0,-1,1350,491,0,0
133,533,0,0,0,0,0,0,0,0,0,-1,1357,491,0,0
140,533,0,0,0,0,0,0,0,0,0,-1,1364,491,0,0
147,533,0,0,0,0,0,0,0,0,0,-1,1371,491,0,0
154,533,0,0,0,0,0,0,0,0,0,-1,1378,491,0,0
161,533,0,0,0,0,0,0,0,0,0,-1,1385,491,0,0
168,533,0,0,0,0,0,0,0,0,0,-1,1392,491,0,0
175,533,0,0,0,0,0,0,0,0,0,-1,1399,491,0,0
182,533,0,0,0,0,0,0,0,0,0,-1,1406,491,0,0
189,533,0,0,0,0,0,0,0,0,0,-1,1413,491,0,0
196,533,0,0,0,0,0,0,0,0,0,-1,1420,491,0,0
203,533,0.34436,-0.323578,0,0,0,0,0,0,0,-1,1427,491,0.344348,0.323581
210,533,0.334473,-0.27066,0,0,0,0,0,0,0,-1,1434,491,0.334532,0.270659
217,533,0.344238,-0.517975,0,0,0,0,0,0,0,-1,1441,491,0.34421,0.517984
224,533,-0.851685,0.224762,0,0,0,0,0,0,0,-1,1448,491,-0.851631,-0.224777
231,533,-0.624146,0.167053,0,0,0,0,0,0,0,-1,1455,491,-0.624117,-0.167054
238,533,0.436401,-0.870544,0,0,0,0,0,0,0,-1,1462,491,0.436367,0.870534
245,533,0.0656738,-0.414001,-0.0228282,0.00663684,0.00186435,0.00675434,-0.0229457,1.50786,0.0179766,0.043938,1469,491,0.0656802,0.41401
252,533,-0.252808,0.0518494,-0.0217649,0.00402324,0.00497014,0.00494797,-0.0226896,1.38684,0.0170172,0.0428528,1476,491,-0.25277,-0.0518589
259,533,0.0760498,-0.0367126,0,0,0,0,0,0,0,-1,1483,491,0.0761064,0.0367141
266,533,-0.281494,1.39722,-0.0165619,0.00370317,0.0105051,0.00816602,-0.0210247,1.16907,0.0173898,0.0487243,1490,491,-0.281518,-1.3972
273,533,-0.247437,0.669861,-0.0121444,0.00348949,0.0112989,0.00941191,-0.0180668,1.08801,0.016125,0.0441183,1497,491,-0.247437,-0.669866
280,533,-0.503296,0.650909,-0.00853819,0.00327219,0.0116787,0.0104538,-0.0157198,1.01947,0.0152129,0.0433511,1504,491,-0.503317,-0.650907
287,533,-0.930176,1.32687,-0.00592612,0.00255396,0.0104595,0.00960017,-0.0129723,0.977964,0.0130806,0.047418,1511,491,-0.930151,-1.32686
294,533,-1.06384,1.42606,-0.00322857,0.00181254,0.00865318,0.0083048,-0.00972082,0.92712,0.0104178,0.0484764,1518,491,-1.06381,-1.42605
301,533,-1.21008,1.59204,0,0,0,0,0,0,0,-1,1525,491,-1.21011,-1.59206
308,533,-0.55481,-0.505646,-0.00104176,0.00229499,0.00394404,0.00490901,-0.00365578,0.98549,0.0049625,0.0415592,1532,491,-0.554766,0.505636
315,533,-0.735474,-0.227966,-0.00185241,0.00306743,0.00105087,0.00328249,-0.00206747,1.36893,0.00311524,0.0461917,1539,491,-0.735448,0.227971
322,533,0.269775,0.177216,-0.00278882,0.00427294,-0.00130891,0.00450774,-0.00302362,-1.3933,0.00437628,0.0471078,1546,491,0.269776,-0.177227
329,533,0.390259,0.309082,0,0,0,0,0,0,0,-1,1553,491,0.39025,-0.309088
336,533,-0.255737,-0.0399475,-0.00408558,0.00841607,-0.00474001,0.01001,-0.00567953,-1.2464,0.00917266,0.0425416,1560,491,-0.255696,0.0399517
343,533,-0.190186,0.00796509,-0.00510662,0.0101782,-0.00524093,0.0118026,-0.00673102,-1.27024,0.0108331,0.0445186,1567,491,-0.190244,-0.00795109
350,533,-0.097168,0.0170898,-0.00617262,0.0117223,-0.00489117,0.0129719,-0.00742225,-1.32066,0.011919,0.0435459,1574,491,-0.0971647,-0.0170944
357,533,0.0111084,0.0931702,-0.00643975,0.0133004,-0.00349662,0.0139014,-0.00704081,-1.40056,0.0123054,0.0335834,1581,491,0.0110831,-0.0931589
364,533,-0.0612793,0.0967712,-0.005689,0.0139653,-0.00239268,0.0142524,-0.00597609,-1.45138,0.0120004,0.0237382,1588,491,-0.0612885,-0.0967621
371,533,-0.0314941,0.0507813,-0.00527182,0.0141272,-0.000822927,0.0141621,-0.00530667,-1.52848,0.0116214,0.0175644,1595,491,-0.031483,-0.0507661
378,533,-0.0341797,0.0524597,-0.00510328,0.0132886,0.000705859,0.0133156,-0.00513033,1.53249,0.0109937,0.0134309,1602,491,-0.0341536,-0.0524449
385,533,-0.0262451,0.0539856,-0.00342802,0.0118677,0.00157907,0.012029,-0.00358933,1.46899,0.00944588,0.0150801,1609,491,-0.0262196,-0.0539778
392,533,-0.0375977,0.0585327,-0.00201266,0.0103498,0.00224373,0.0107444,-0.00240729,1.3967,0.00808571,0.0121775,1616,491,-0.0375382,-0.0585344
399,533,-0.0321045,0.0422974,-0.000923361,0.00875288,0.00247761,0.00935038,-0.00152086,1.33416,0.00679749,0.0112959,1623,491,-0.0321078,-0.0422924
406,533,-0.026123,0.034729,0.000188933,0.00707587,0.00260903,0.00795265,-0.000687841,1.2466,0.00554528,0.0144978,1630,491,-0.0260768,-0.0347255
413,533,-0.0423584,0.0513,0.000849394,0.00529857,0.00221743,0.00621496,-6.70005e-05,1.1789,0.00416582,0.0120629,1637,491,-0.0422998,-0.0513052
420,533,-0.0401611,0.0674133,0.001085,0.00378748,0.00164676,0.00456642,0.000306052,1.12897,0.00294756,0.0106082,1644,491,-0.040159,-0.067426
427,533,-0.0419922,0.0730591,0.00113938,0.00234601,0.00125352,0.00313385,0.000351543,1.00969,0.00198247,0.0111133,1651,491,-0.0420491,-0.073057
434,533,-0.0285645,0.0733948,0.00110237,0.00119225,0.000738442,0.00188712,0.000407501,0.81579,0.00114664,0.0121224,1658,491,-0.0285856,-0.0733882
441,533,-0.0150146,0.0557556,0.00131896,0.000597568,0.000413367,0.00150688,0.000409654,0.426668,0.000899677,0.0144619,1665,491,-0.0150144,-0.0557455
448,533,-0.0473633,0.0236511,0.00163017,0.000308995,0.000165984,0.0016507,0.000288461,0.123086,0.00101803,0.0144517,1672,491,-0.0473738,-0.0236385
455,533,-0.0501709,0.0353699,0.00175158,0.00012423,5.29256e-05,0.0017533,0.00012251,0.0324768,0.00113025,0.0140615,1679,491,-0.0501833,-0.0353814
462,533,-0.0643311,0.069458,0.00209071,-0.000279082,-0.000316911,0.00213236,-0.000320731,-0.130671,0.00153966,0.0137971,1686,491,-0.0642867,-0.0694563
469,533,-0.0543213,0.0330811,0.00245208,-0.000553623,-0.000445464,0.00251671,-0.000618253,-0.144081,0.00191741,0.00919809,1693,491,-0.0543394,-0.0330696
476,533,-0.0369873,0.0183105,0.00279291,-0.000847159,-0.000456201,0.00284921,-0.000903463,-0.122798,0.0022616,0.00870611,1700,491,-0.0370178,-0.018302
483,533,-0.0351563,0.0418701,0.00300787,-0.00162739,-0.000488337,0.00305876,-0.00167828,-0.103834,0.00277337,0.00964912,1707,491,-0.0351692,-0.0418829
490,533,-0.026001,0.0632935,0.00341048,-0.00332553,-0.000466916,0.0034427,-0.00335774,-0.0688774,0.00392634,0.0233443,1714,491,-0.0260492,-0.0632958
497,533,-0.0477295,0.0539856,0.00413912,-0.00549847,-0.000533804,0.00416859,-0.00552794,-0.0551628,0.00561661,0.0405458,1721,491,-0.0476851,-0.0539735
504,533,-0.238159,-0.0345764,0.00464713,-0.00819615,-0.000532892,0.0046692,-0.00821823,-0.041397,0.00753402,0.039358,1728,491,-0.238117,0.0345691
511,533,0.00793457,0.0472412,0,0,0,0,0,0,0,-1,1735,491,0.00793928,-0.0472484
518,533,0.513184,-0.109222,0,0,0,0,0,0,0,-1,1742,491,0.51322,0.109214
525,533,0.734497,-0.213257,0,0,0,0,0,0,0,-1,1749,491,0.734472,0.213262
532,533,0.184692,-0.709351,0.00656497,-0.0218074,-0.00194653,0.00669789,-0.0219403,-0.0681807,0.0172973,0.0498252,1756,491,0.184642,0.709362
539,533,0.339478,-1.0126,0.0081953,-0.0272814,-0.00269351,0.00839863,-0.0274847,-0.0753476,0.0216721,0.0499849,1763,491,0.339527,1.01261
546,533,0.482666,-1.32974,0,0,0,0,0,0,0,-1,1770,491,0.482615,1.32973
553,533,0,0,0,0,0,0,0,0,0,-1,1777,491,0,0
560,533,0,0,0,0,0,0,0,0,0,-1,1784,491,0,0
567,533,0,0,0,0,0,0,0,0,0,-1,1791,491,0,0
574,533,0,0,0,0,0,0,0,0,0,-1,1798,491,0,0
581,533,0,0,0,0,0,0,0,0,0,-1,1805,491,0,0
588,533,0,0,0,0,0,0,0,0,0,-1,1812,491,0,0
595,533,0,0,0,0,0,0,0,0,0,-1,1819,491,0,0
602,533,0,0,0,0,0,0,0,0,0,-1,1826,491,0,0
609,533,0,0,0,0,0,0,0,0,0,-1,1833,491,0,0
616,533,0,0,0,0,0,0,0,0,0,-1,1840,491,0,0
623,533,0,0,0,0,0,0,0,0,0,-1,1847,491,0,0
630,533,0,0,0,0,0,0,0,0,0,-1,1854,491,0,0
637,533,0,0,0,0,0,0,0,0,0,-1,1861,491,0,0
644,533,0,0,0,0,0,0,0,0,0,-1,1868,491,0,0
651,533,0,0,0,0,0,0,0,0,0,-1,1875,491,0,0
658,533,0,0,0,0,0,0,0,0,0,-1,1882,491,0,0
665,533,0,0,0,0,0,0,0,0,0,-1,1889,491,0,0
672,533,0,0,0,0,0,0,0,0,0,-1,1896,491,0,0
679,533,0,0,0,0,0,0,0,0,0,-1,1903,491,0,0
686,533,0,0,0,0,0,0,0,0,0,-1,1910,491,0,0
693,533,0,0,0,0,0,0,0,0,0,-1,1917,491,0,0
700,533,0,0,0,0,0,0,0,0,0,-1,1924,491,0,0
707,533,0,0,0,0,0,0,0,0,0,-1,1931,491,0,0
714,533,0,0,0,0,0,0,0,0,0,-1,1938,491,0,0
721,533,0,0,0,0,0,0,0,0,0,-1,1945,491,0,0
728,533,0,0,0,0,0,0,0,0,0,-1,1952,491,0,0
735,533,0,0,0,0,0,0,0,0,0,-1,1959,491,0,0
742,533,0,0,0,0,0,0,0,0,0,-1,1966,491,0,0
749,533,0,0,0,0,0,0,0,0,0,-1,1973,491,0,0
756,533,0,0,0,0,0,0,0,0,0,-1,1980,491,0,0
763,533,0,0,0,0,0,0,0,0,0,-1,1987,491,0,0
770,533,0,0,0,0,0,0,0,0,0,-1,1994,491,0,0
777,533,0,0,0,0,0,0,0,0,0,-1,2001,491,0,0
784,533,0,0,0,0,0,0,0,0,0,-1,2008,491,0,0
791,533,0,0,0,0,0,0,0,0,0,-1,2015,491,0,0
798,533,0,0,0,0,0,0,0,0,0,-1,2022,491,0,0
805,533,0,0,0,0,0,0,0,0,0,-1,2029,491,0,0
812,533,0,0,0,0,0,0,0,0,0,-1,2036,491,0,0
-700,526,0,0,0,0,0,0,0,0,0,-1,524,498,0,0
-693,526,0,0,0,0,0,0,0,0,0,-1,531,498,0,0
-686,526,0,0,0,0,0,0,0,0,0,-1,538,498,0,0
-679,526,0,0,0,0,0,0,0,0,0,-1,545,498,0,0
-672,526,0,0,0,0,0,0,0,0,0,-1,552,498,0,0
-665,526,0,0,0,0,0,0,0,0,0,-1,559,498,0,0
-658,526,0,0,0,0,0,0,0,0,0,-1,566,498,0,0
-651,526,0,0,0,0,0,0,0,0,0,-1,573,498,0,0
-644,526,0,0,0,0,0,0,0,0,0,-1,580,498,0,0
-637,526,0,0,0,0,0,0,0,0,0,-1,587,498,0,0
-630,526,0,0,0,0,0,0,0,0,0,-1,594,498,0,0
-623,526,0,0,0,0,0,0,0,0,0,-1,601,498,0,0
-616,526,0,0,0,0,0,0,0,0,0,-1,608,498,0,0
-609,526,0,0,0,0,0,0,0,0,0,-1,615,498,0,0
-602,526,0,0,0,0,0,0,0,0,0,-1,622,498,0,0
-595,526,0,0,0,0,0,0,0,0,0,-1,629,498,0,0
-588,526,0,0,0,0,0,0,0,0,0,-1,636,498,0,0
-581,526,0,0,0,0,0,0,0,0,0,-1,643,498,0,0
-574,526,0,0,0,0,0,0,0,0,0,-1,650,498,0,0
-567,526,0,0,0,0,0,0,0,0,0,-1,657,498,0,0
-560,526,0,0,0,0,0,0,0,0,0,-1,664,498,0,0
-553,526,0,0,0,0,0,0,0,0,0,-1,671,498,0,0
-546,526,0,0,0,0,0,0,0,0,0,-1,678,498,0,0
-539,526,0,0,0,0,0,0,0,0,0,-1,685,498,0,0
-532,526,0,0,0,0,0,0,0,0,0,-1,692,498,0,0
-525,526,0,0,0,0,0,0,0,0,0,-1,699,498,0,0
-518,526,0,0,0,0,0,0,0,0,0,-1,706,498,0,0
-511,526,0,0,0,0,0,0,0,0,0,-1,713,498,0,0
-504,526,0,0,0,0,0,0,0,0,0,-1,720,498,0,0
-497,526,0,0,0,0,0,0,0,0,0,-1,727,498,0,0
-490,526,0,0,0,0,0,0,0,0,0,-1,734,498,0,0
-483,526,0,0,0,0,0,0,0,0,0,-1,741,498,0,0
-476,526,0,0,0,0,0,0,0,0,0,-1,748,498,0,0
-469,526,0,0,0,0,0,0,0,0,0,-1,755,498,0,0
-462,526,0,0,0,0,0,0,0,0,0,-1,762,498,0,0
-455,526,0,0,0,0,0,0,0,0,0,-1,769,498,0,0
-448,526,0,0,0,0,0,0,0,0,0,-1,776,498,0,0
-441,526,0,0,0,0,0,0,0,0,0,-1,783,498,0,0
-434,526,-1.74841,-0.133179,0.0200061,-0.0385702,-0.020646,0.0265517,-0.0451157,-0.307013,0.0418373,0.0468343,790,498,-1.74841,0.133176
-427,526,-1.03278,-0.0378418,0.0210321,-0.0340393,-0.0208909,0.02806,-0.0410672,-0.324518,0.0401455,0.0461265,797,498,-1.03275,0.0378376
-420,526,-1.92462,-0.449677,0,0,0,0,0,0,0,-1,804,498,-1.92465,0.449672
-413,526,-1.97186,-0.566589,0,0,0,0,0,0,0,-1,811,498,-1.97187,0.566576
-406,526,-0.610535,-0.194214,0,0,0,0,0,0,0,-1,818,498,-0.610554,0.194208
-399,526,-0.782593,0.205963,0,0,0,0,0,0,0,-1,825,498,-0.782578,-0.205949
-392,526,-0.173828,-0.0256653,0,0,0,0,0,0,0,-1,832,498,-0.173828,0.0256647
-385,526,-0.208801,0.128662,0.0114692,-0.00382879,-0.01146,0.0175984,-0.009958,-0.491126,0.0161122,0.0457314,839,498,-0.208788,-0.128676
-378,526,-0.36676,-0.0340576,0.00838134,-0.000958705,-0.00894938,0.0138059,-0.00638326,-0.54492,0.0119159,0.0444352,846,498,-0.36674,0.0340577
-371,526,-0.129333,0.0319519,0.00643779,0.00244763,-0.00714437,0.0118604,-0.002975,-0.649241,0.00906287,0.0338777,853,498,-0.129335,-0.0319629
-364,526,-0.0671387,0.0528259,0.00457819,0.00329347,-0.00517079,0.00914637,-0.00127471,-0.7236,0.00656387,0.0162691,860,498,-0.0671095,-0.0528274
-357,526,-0.0420532,0.0552368,0.00277913,0.00410812,-0.00328807,0.00679816,8.90819e-05,-0.885102,0.00450271,0.0104723,867,498,-0.042049,-0.0552255
-350,526,-0.0178833,0.0601807,0.00111208,0.00393235,-0.00220282,0.00513773,-9.32985e-05,-1.07011,0.00345667,0.0102514,874,498,-0.0179025,-0.06017
-343,526,-0.0114136,0.0320435,0.000177858,0.00364363,-0.00137676,0.00412397,-0.000302483,-1.23511,0.00285549,0.0141144,881,498,-0.0114136,-0.0320488
-336,526,-0.0392456,0.0167542,-0.000245763,0.0031892,-0.000815822,0.00337311,-0.000429677,-1.34907,0.0024048,0.0141374,888,498,-0.0392155,-0.0167603
-329,526,-0.0419922,0.0440979,-0.000313633,0.00273735,-0.000322255,0.00277101,-0.000347299,-1.4667,0.00197332,0.0130063,895,498,-0.0420144,-0.0440995
-322,526,-0.0300293,0.0613098,-0.000467402,0.00228933,-0.00017553,0.00230046,-0.000478533,-1.50746,0.00171555,0.00887431,902,498,-0.0300454,-0.0613059
-315,526,-0.0350952,0.053009,-0.000563582,0.00142546,-5.79294e-05,0.00142714,-0.000565268,-1.5417,0.00118565,0.00817708,909,498,-0.0351174,-0.0530011
-308,526,-0.0362549,0.0545044,-0.00046644,0.00103862,2.5649e-05,0.00103905,-0.000466877,1.55376,0.000890123,0.00805978,916,498,-0.0362554,-0.0544901
-301,526,-0.0402832,0.062561,-0.000302213,0.000394167,-1.74759e-05,0.000394606,-0.000302652,-1.54572,0.000403727,0.00935591,923,498,-0.0402834,-0.0625676
-294,526,-0.0493774,0.0691223,-0.000174853,-0.000184998,-7.88624e-05,-0.0001009,-0.000258951,-0.753283,0.000150714,0.00873251,930,498,-0.0493661,-0.0691101
-287,526,-0.0408936,0.0733643,-0.000431848,-0.000122394,-0.000432054,0.000181802,-0.000736045,-0.957343,0.0005612,0.00860661,937,498,-0.0408797,-0.0733527
-280,526,-0.0351563,0.0748291,-0.000896502,0.000588854,-0.00043683,0.000707797,-0.00101545,-1.30495,0.00100019,0.0111473,944,498,-0.0351838,-0.0748428
-273,526,-0.0282593,0.0627136,-0.00152525,0.00135402,0.000490732,0.00143536,-0.00160659,1.40654,0.0017572,0.00959911,951,498,-0.0282778,-0.0627107
-266,526,-0.0325317,0.0645752,-0.00174272,0.00255367,0.00165888,0.00311963,-0.00230868,1.24201,0.00314567,0.00823134,958,498,-0.032513,-0.064568
-259,526,-0.020813,0.075592,-0.00147332,0.00415279,0.00309892,0.00552502,-0.00284555,1.15394,0.00491459,0.0123952,965,498,-0.0208289,-0.0755887
-252,526,0.00488281,0.0838928,-0.00151329,0.00652801,0.00480714,0.00877427,-0.00375955,1.13367,0.00742696,0.0225628,972,498,0.00490882,-0.0838918
-245,526,0.0373535,0.154297,-0.00195143,0.00872353,0.00699356,0.0121837,-0.0054116,1.11135,0.0104064,0.0295626,979,498,0.0373629,-0.154297
-238,526,0.0966797,0.204559,-0.00154912,0.0109108,0.00997192,0.0164388,-0.00707721,1.06461,0.013931,0.0335657,986,498,0.0966786,-0.204571
-231,526,-0.312134,-0.201111,-0.00118782,0.0123788,0.0134305,0.0206418,-0.00945088,1.01924,0.01777,0.0394685,993,498,-0.312148,0.201096
-224,526,-0.461792,-0.0441589,-0.000260707,0.0130716,0.0167326,0.024417,-0.0116061,0.974959,0.0212318,0.0431284,1000,498,-0.461805,0.0441599
-217,526,-0.366394,-0.117065,0.000829624,0.0122582,0.019551,0.0269129,-0.013825,0.927576,0.0239212,0.0417314,1007,498,-0.366391,0.117053
-210,526,-0.12677,-0.269287,0.001667,0.0107063,0.0221439,0.028787,-0.0164138,0.886067,0.0264206,0.0456546,1014,498,-0.12679,0.269281
-203,526,0.111755,-0.279816,0.00283333,0.00743109,0.0236242,0.028868,-0.0186036,0.833901,0.0276205,0.0439126,1021,498,0.111744,0.279815
-196,526,-0.557373,0.478394,0.00449525,0.00404178,0.0235357,0.0278053,-0.0192683,0.780582,0.0273265,0.0433471,1028,498,-0.557385,-0.478399
-189,526,-0.943359,1.17236,0.00652949,1.02739e-05,0.02156,0.0250749,-0.0185351,0.710373,0.0252724,0.0464011,1035,498,-0.943319,-1.17235
-182,526,-1.44519,1.52771,0,0,0,0,0,0,0,-1,1042,498,-1.4452,-1.52771
-175,526,0.10083,-0.344269,0.0103104,-0.00922357,0.0149231,0.0183785,-0.0172917,0.495636,0.0205974,0.0432756,1049,498,0.10089,0.344264
-168,526,0.0377197,-0.311768,0.0119882,-0.0126363,0.00970252,0.0153517,-0.0159998,0.333703,0.0181021,0.0428692,1056,498,0.0376936,0.311774
-161,526,0.106201,-0.289459,0.0129985,-0.0167469,0.00447269,0.0136565,-0.0174049,0.146064,0.0179768,0.0408178,1063,498,0.106175,0.289457
-154,526,0.209595,-0.277954,0.013195,-0.0205062,-0.000765511,0.0132124,-0.0205236,-0.022699,0.0196293,0.0422447,1070,498,0.209638,0.27794
-147,526,0.348145,-0.456024,0.0139228,-0.0236385,-0.00490618,0.0145531,-0.0242688,-0.127763,0.0226465,0.0442932,1077,498,0.348173,0.456024
-140,526,0.352539,-0.418915,0.0148652,-0.0243305,-0.00766781,0.0163119,-0.0257771,-0.186473,0.0245041,0.0457638,1084,498,0.352576,0.418923
-133,526,0.28418,-0.482727,0.0129595,-0.0260791,-0.010921,0.0158069,-0.0289265,-0.255053,0.0261945,0.0440603,1091,498,0.284128,0.482728
-126,526,0.238647,-0.477112,0.0127663,-0.0254787,-0.0102367,0.0153339,-0.0280463,-0.245753,0.0254015,0.0419812,1098,498,0.238602,0.477102
-119,526,0.313477,-0.313812,0.0115627,-0.0268491,-0.00920912,0.0136564,-0.0289428,-0.223554,0.025117,0.043417,1105,498,0.313434,0.313818
-112,526,0.379761,0.113953,0.0110431,-0.0286961,-0.00707792,0.0122661,-0.0299191,-0.171102,0.0250564,0.0478436,1112,498,0.379707,-0.11394
-105,526,0,0,0,0,0,0,0,0,0,-1,1119,498,0,0
-98,526,0,0,0,0,0,0,0,0,0,-1,1126,498,0,0
-91,526,0,0,0,0,0,0,0,0,0,-1,1133,498,0,0
-84,526,0,0,0,0,0,0,0,0,0,-1,1140,498,0,0
-77,526,0,0,0,0,0,0,0,0,0,-1,1147,498,0,0
-70,526,0,0,0,0,0,0,0,0,0,-1,1154,498,0,0
-63,526,0,0,0,0,0,0,0,0,0,-1,1161,498,0,0
-56,526,0,0,0,0,0,0,0,0,0,-1,1168,498,0,0
-49,526,0,0,0,0,0,0,0,0,0,-1,1175,498,0,0
-42,526,0,0,0,0,0,0,0,0,0,-1,1182,498,0,0
-35,526,0,0,0,0,0,0,0,0,0,-1,1189,498,0,0
-28,526,0,0,0,0,0,0,0,0,0,-1,1196,498,0,0
-21,526,0,0,0,0,0,0,0,0,0,-1,1203,498,0,0
-14,526,0,0,0,0,0,0,0,0,0,-1,1210,498,0,0
-7,526,0,0,0,0,0,0,0,0,0,-1,1217,498,0,0
0,526,0,0,0,0,0,0,0,0,0,-1,1224,498,0,0
7,526,0,0,0,0,0,0,0,0,0,-1,1231,498,0,0
14,526,0,0,0,0,0,0,0,0,0,-1,1238,498,0,0
21,526,0,0,0,0,0,0,0,0,0,-1,1245,498,0,0
28,526,0,0,0,0,0,0,0,0,0,-1,1252,498,0,0
35,526,0,0,0,0,0,0,0,0,0,-1,1259,498,0,0
42,526,0,0,0,0,0,0,0,0,0,-1,1266,498,0,0
49,526,0,0,0,0,0,0,0,0,0,-1,1273,498,0,0
56,526,0,0,0,0,0,0,0,0,0,-1,1280,498,0,0
63,526,0,0,0,0,0,0,0,0,0,-1,1287,498,0,0
70,526,0,0,0,0,0,0,0,0,0,-1,1294,498,0,0
77,526,0,0,0,0,0,0,0,0,0,-1,1301,498,0,0
84,526,0,0,0,0,0,0,0,0,0,-1,1308,498,0,0
91,526,0,0,0,0,0,0,0,0,0,-1,1315,498,0,0
98,526,0,0,0,0,0,0,0,0,0,-1,1322,498,0,0
105,526,0,0,0,0,0,0,0,0,0,-1,1329,498,0,0
112,526,0,0,0,0,0,0,0,0,0,-1,1336,498,0,0
119,526,0,0,0,0,0,0,0,0,0,-1,1343,498,0,0
126,526,0,0,0,0,0,0,0,0,0,-1,1350,498,0,0
133,526,0,0,0,0,0,0,0,0,0,-1,1357,498,0,0
140,526,0,0,0,0,0,0,0,0,0,-1,1364,498,0,0
147,526,0,0,0,0,0,0,0,0,0,-1,1371,498,0,0
154,526,0,0,0,0,0,0,0,0,0,-1,1378,498,0,0
161,526,0,0,0,0,0,0,0,0,0,-1,1385,498,0,0
168,526,0,0,0,0,0,0,0,0,0,-1,1392,498,0,0
175,526,0,0,0,0,0,0,0,0,0,-1,1399,498,0,0
182,526,0,0,0,0,0,0,0,0,0,-1,1406,498,0,0
189,526,0,0,0,0,0,0,0,0,0,-1,1413,498,0,0
196,526,0,0,0,0,0,0,0,0,0,-1,1420,498,0,0
203,526,0,0,0,0,0,0,0,0,0,-1,1427,498,0,0
210,526,0,0,0,0,0,0,0,0,0,-1,1434,498,0,0
217,526,0,0,0,0,0,0,0,0,0,-1,1441,498,0,0
224,526,0,0,0,0,0,0,0,0,0,-1,1448,498,0,0
231,526,-0.392456,-0.33078,0,0,0,0,0,0,0,-1,1455,498,-0.392396,0.330772
238,526,1.07361,-0.503967,0,0,0,0,0,0,0,-1,1462,498,1.07357,0.503954
245,526,0.623779,-0.202087,-0.0314102,0.00632478,-0.00140094,0.00637672,-0.0314621,-1.53374,0.0233919,0.0445325,1469,498,0.623758,0.202084
252,526,0.314087,-0.102936,-0.0295318,0.00358111,0.00212864,0.00371739,-0.0296681,1.50686,0.0211272,0.0433325,1476,498,0.314041,0.102945
259,526,-0.0739746,0.125275,0,0,0,0,0,0,0,-1,1483,498,-0.0739655,-0.12527
266,526,-0.16333,0.127441,-0.0214284,0.00451082,0.00855056,0.00707578,-0.0239933,1.27936,0.0188033,0.046668,1490,498,-0.163284,-0.127455
273,526,-0.302612,0.124237,-0.0158747,0.00457212,0.00948569,0.00829491,-0.0195974,1.1968,0.0165385,0.0407246,1497,498,-0.302621,-0.124228
280,526,-0.874634,0.694977,-0.0112152,0.00457842,0.00999193,0.00941732,-0.0160541,1.1198,0.0148714,0.0407407,1504,498,-0.874586,-0.694986
287,526,-1.28186,1.23563,-0.00770896,0.00388724,0.00884331,0.00866373,-0.0124855,1.07557,0.0122768,0.0481457,1511,498,-1.28183,-1.23562
294,526,-1.37378,1.56372,0,0,0,0,0,0,0,-1,1518,498,-1.37375,-1.56373
301,526,-0.355103,-0.250885,-0.00268038,0.00313406,0.00402294,0.0051903,-0.00473663,1.09828,0.00573331,0.0409613,1525,498,-0.355075,0.250894
308,526,-0.322144,-0.0119934,-0.00236925,0.0036821,0.00140061,0.00399055,-0.0026777,1.35403,0.00387471,0.0385658,1532,498,-0.322106,0.012006
315,526,-0.969971,-0.24472,-0.00353786,0.00459858,-0.00193312,0.00503451,-0.00397379,-1.349,0.00521295,0.0458047,1539,498,-0.969931,0.244719
322,526,0.230835,-0.110474,-0.00482845,0.00627706,-0.00449993,0.00787151,-0.0064229,-1.23027,0.00826699,0.0419608,1546,498,0.230836,0.110466
329,526,0.0169678,-0.253235,0,0,0,0,0,0,0,-1,1553,498,0.0169429,0.253248
336,526,0.11438,-0.230408,-0.00659,0.0118353,-0.00658744,0.0139482,-0.00870286,-1.26042,0.0131939,0.0425377,1560,498,0.114346,0.230417
343,526,0.00476074,-0.218323,-0.00780959,0.0140187,-0.00628732,0.0157002,-0.00949103,-1.30948,0.0146907,0.0419147,1567,498,0.00478706,0.218333
350,526,-0.154175,-0.0574036,-0.00903561,0.0159724,-0.00524783,0.017029,-0.0100922,-1.37211,0.0158282,0.0437375,1574,498,-0.154121,0.0574043
357,526,-0.246826,-0.120636,-0.00927815,0.0178637,-0.00310492,0.0182144,-0.00962881,-1.45834,0.016328,0.0392948,1581,498,-0.246836,0.120649
364,526,-0.436035,0.0768433,-0.00829267,0.0186521,-0.00130887,0.0187155,-0.0083561,-1.52237,0.0160067,0.0367578,1588,498,-0.436087,-0.0768424
371,526,-0.386597,0.192261,-0.00752884,0.0187392,0.000925296,0.0187717,-0.00756139,1.53563,0.0156559,0.0345276,1595,498,-0.386593,-0.192264
378,526,-0.0305176,0.0834961,-0.00699944,0.0175591,0.00294053,0.0179063,-0.00734662,1.45327,0.0149986,0.0312313,1602,498,-0.0305085,-0.0834888
385,526,-0.020874,0.064209,-0.00477625,0.0154781,0.00391862,0.0162098,-0.00550795,1.3862,0.0130364,0.022777,1609,498,-0.0208186,-0.0642055
392,526,-0.0472412,0.0605774,-0.00296602,0.0133471,0.00450882,0.0145104,-0.00412927,1.31831,0.0113043,0.0143949,1616,498,-0.0472238,-0.0605671
399,526,-0.0446777,0.0445251,-0.00160016,0.0109516,0.00450953,0.0124037,-0.00305232,1.25926,0.00945232,0.0117877,1623,498,-0.0446718,-0.044514
406,526,-0.0246582,0.0446777,-0.000215982,0.00858067,0.00441264,0.0104126,-0.00204796,1.17728,0.00771555,0.0120017,1630,498,-0.0246371,-0.0446792
413,526,-0.0284424,0.0647278,0.000629444,0.00619145,0.00369678,0.00803648,-0.00121559,1.10788,0.00580543,0.0127051,1637,498,-0.0283984,-0.0647391
420,526,-0.0394287,0.0639954,0.00081762,0.00417799,0.00275118,0.00572147,-0.000725857,1.05953,0.00407786,0.0121805,1644,498,-0.0394867,-0.0639997
427,526,-0.0275879,0.0658875,0.000736524,0.00221323,0.00204199,0.00364626,-0.000696504,0.958878,0.0026932,0.0114769,1651,498,-0.0276108,-0.0658934
434,526,-0.0195313,0.072876,0.000616822,0.000595797,0.0011141,0.00172046,-0.000507838,0.78068,0.00134851,0.0112452,1658,498,-0.0195723,-0.0728621
441,526,-0.041626,0.0583801,0.000763074,-0.000143137,0.000526079,0.00100428,-0.000384339,0.429893,0.000827921,0.0103432,1665,498,-0.0416418,-0.0583828
448,526,-0.0428467,0.0470581,0.00101883,-0.000476086,0.000177963,0.00103972,-0.00049698,0.11687,0.000905472,0.00940138,1672,498,-0.0428064,-0.0470551
455,526,-0.0397949,0.0440674,0.0010895,-0.000653253,6.32767e-05,0.00109179,-0.000655547,0.0362448,0.00101925,0.012736,1679,498,-0.0397816,-0.0440708
462,526,-0.0367432,0.0493164,0.00137511,-0.000967675,-0.000280519,0.00140823,-0.00100079,-0.117524,0.00139747,0.00975427,1686,498,-0.0367074,-0.049306
469,526,-0.0279541,0.038269,0.00164382,-0.00116942,-0.000436361,0.00170995,-0.00123555,-0.150403,0.00170792,0.00706231,1693,498,-0.0279218,-0.0382654
476,526,-0.0268555,0.0370178,0.00190954,-0.00138585,-0.0004459,0.00196881,-0.00144512,-0.132145,0.00197875,0.00832573,1700,498,-0.0267998,-0.0370238
483,526,-0.03125,0.058075,0.00207084,-0.0020498,-0.00045747,0.00212102,-0.00209998,-0.109247,0.002437,0.00853935,1707,498,-0.0312177,-0.0580618
490,526,-0.0494385,0.0846558,0.00238678,-0.0034948,-0.000401141,0.00241401,-0.00352203,-0.0677846,0.00344702,0.0126985,1714,498,-0.0494171,-0.0846632
497,526,-0.0714111,0.0861206,0.0029389,-0.00537775,-0.000391298,0.00295727,-0.00539612,-0.0469118,0.00489087,0.0193348,1721,498,-0.0713559,-0.086107
504,526,-0.0826416,0.0726013,0.00328326,-0.00752866,-0.000352788,0.00329476,-0.00754016,-0.0325833,0.00641361,0.0247774,1728,498,-0.0826079,-0.0726028
511,526,-0.0129395,0.037262,0.00361454,-0.0100239,-0.000309905,0.00362158,-0.0100309,-0.0227073,0.00816669,0.0328454,1735,498,-0.0129095,-0.0372536
518,526,0.312256,-0.10199,0.00381978,-0.0120456,-0.00033284,0.00382676,-0.0120526,-0.0209667,0.00956919,0.0365344,1742,498,0.312264,0.101989
525,526,0.525513,-0.211243,0.00389454,-0.0145743,-0.000553417,0.00391111,-0.0145908,-0.0299291,0.0112597,0.043273,1749,498,0.525569,0.211238
532,526,0.305176,-0.47641,0.00419719,-0.0173686,-0.000793819,0.00422637,-0.0173978,-0.036743,0.0132342,0.0457536,1756,498,0.305201,0.476417
539,526,0.223633,-0.287994,0.0050513,-0.0204396,-0.00115941,0.00510393,-0.0204922,-0.0453585,0.0156428,0.0435388,1763,498,0.223596,0.287981
546,526,0.507324,-0.574524,0.00571833,-0.0233266,-0.00221335,0.00588603,-0.0234943,-0.0756222,0.0179495,0.0455205,1770,498,0.507332,0.574515
553,526,0.779175,-0.835114,0,0,0,0,0,0,0,-1,1777,498,0.779197,0.835127
560,526,0,0,0,0,0,0,0,0,0,-1,1784,498,0,0
567,526,0,0,0,0,0,0,0,0,0,-1,1791,498,0,0
574,526,0,0,0,0,0,0,0,0,0,-1,1798,498,0,0
581,526,0,0,0,0,0,0,0,0,0,-1,1805,498,0,0
588,526,0,0,0,0,0,0,0,0,0,-1,1812,498,0,0
595,526,0,0,0,0,0,0,0,0,0,-1,1819,498,0,0
602,526,0,0,0,0,0,0,0,0,0,-1,1826,498,0,0
609,526,0,0,0,0,0,0,0,0,0,-1,1833,498,0,0
616,526,0,0,0,0,0,0,0,0,0,-1,1840,498,0,0
623,526,0,0,0,0,0,0,0,0,0,-1,1847,498,0,0
630,526,0,0,0,0,0,0,0,0,0,-1,1854,498,0,0
637,526,0,0,0,0,0,0,0,0,0,-1,1861,498,0,0
644,526,0,0,0,0,0,0,0,0,0,-1,1868,498,0,0
651,526,0,0,0,0,0,0,0,0,0,-1,1875,498,0,0
658,526,0,0,0,0,0,0,0,0,0,-1,1882,498,0,0
665,526,0,0,0,0,0,0,0,0,0,-1,1889,498,0,0
672,526,0,0,0,0,0,0,0,0,0,-1,1896,498,0,0
679,526,0,0,0,0,0,0,0,0,0,-1,1903,498,0,0
686,526,0,0,0,0,0,0,0,0,0,-1,1910,498,0,0
693,526,0,0,0,0,0,0,0,0,0,-1,1917,498,0,0
700,526,0,0,0,0,0,0,0,0,0,-1,1924,498,0,0
707,526,0,0,0,0,0,0,0,0,0,-1,1931,498,0,0
714,526,0,0,0,0,0,0,0,0,0,-1,1938,498,0,0
721,526,0,0,0,0,0,0,0,0,0,-1,1945,498,0,0
728,526,0,0,0,0,0,0,0,0,0,-1,1952,498,0,0
735,526,0,0,0,0,0,0,0,0,0,-1,1959,498,0,0
742,526,0,0,0,0,0,0,0,0,0,-1,1966,498,0,0
749,526,0,0,0,0,0,0,0,0,0,-1,1973,498,0,0
756,526,0,0,0,0,0,0,0,0,0,-1,1980,498,0,0
763,526,0,0,0,0,0,0,0,0,0,-1,1987,498,0,0
770,526,0,0,0,0,0,0,0,0,0,-1,1994,498,0,0
777,526,0,0,0,0,0,0,0,0,0,-1,2001,498,0,0
784,526,0,0,0,0,0,0,0,0,0,-1,2008,498,0,0
791,526,0,0,0,0,0,0,0,0,0,-1,2015,498,0,0
798,526,0,0,0,0,0,0,0,0,0,-1,2022,498,0,0
805,526,0,0,0,0,0,0,0,0,0,-1,2029,498,0,0
812,526,0,0,0,0,0,0,0,0,0,-1,2036,498,0,0
-700,519,0,0,0,0,0,0,0,0,0,-1,524,505,0,0
-693,519,0,0,0,0,0,0,0,0,0,-1,531,505,0,0
-686,519,0,0,0,0,0,0,0,0,0,-1,538,505,0,0
-679,519,0,0,0,0,0,0,0,0,0,-1,545,505,0,0
-672,519,0,0,0,0,0,0,0,0,0,-1,552,505,0,0
-665,519,0,0,0,0,0,0,0,0,0,-1,559,505,0,0
-658,519,0,0,0,0,0,0,0,0,0,-1,566,505,0,0
-651,519,0,0,0,0,0,0,0,0,0,-1,573,505,0,0
-644,519,0,0,0,0,0,0,0,0,0,-1,580,505,0,0
-637,519,0,0,0,0,0,0,0,0,0,-1,587,505,0,0
-630,519,0,0,0,0,0,0,0,0,0,-1,594,505,0,0
-623,519,0,0,0,0,0,0,0,0,0,-1,601,505,0,0
-616,519,0,0,0,0,0,0,0,0,0,-1,608,505,0,0
-609,519,0,0,0,0,0,0,0,0,0,-1,615,505,0,0
-602,519,0,0,0,0,0,0,0,0,0,-1,622,505,0,0
-595,519,0,0,0,0,0,0,0,0,0,-1,629,505,0,0
-588,519,0,0,0,0,0,0,0,0,0,-1,636,505,0,0
-581,519,0,0,0,0,0,0,0,0,0,-1,643,505,0,0
-574,519,0,0,0,0,0,0,0,0,0,-1,650,505,0,0
-567,519,0,0,0,0,0,0,0,0,0,-1,657,505,0,0
-560,519,0,0,0,0,0,0,0,0,0,-1,664,505,0,0
-553,519,0,0,0,0,0,0,0,0,0,-1,671,505,0,0
-546,519,0,0,0,0,0,0,0,0,0,-1,678,505,0,0
-539,519,0,0,0,0,0,0,0,0,0,-1,685,505,0,0
-532,519,0,0,0,0,0,0,0,0,0,-1,692,505,0,0
-525,519,0,0,0,0,0,0,0,0,0,-1,699,505,0,0
-518,519,0,0,0,0,0,0,0,0,0,-1,706,505,0,0
-511,519,0,0,0,0,0,0,0,0,0,-1,713,505,0,0
-504,519,0,0,0,0,0,0,0,0,0,-1,720,505,0,0
-497,519,0,0,0,0,0,0,0,0,0,-1,727,505,0,0
-490,519,0,0,0,0,0,0,0,0,0,-1,734,505,0,0
-483,519,0,0,0,0,0,0,0,0,0,-1,741,505,0,0
-476,519,0,0,0,0,0,0,0,0,0,-1,748,505,0,0
-469,519,0,0,0,0,0,0,0,0,0,-1,755,505,0,0
-462,519,0,0,0,0,0,0,0,0,0,-1,762,505,0,0
-455,519,0,0,0,0,0,0,0,0,0,-1,769,505,0,0
-448,519,0,0,0,0,0,0,0,0,0,-1,776,505,0,0
-441,519,-0.444763,-0.323181,0,0,0,0,0,0,0,-1,783,505,-0.444781,0.323176
-434,519,-1.03619,-0.294434,0,0,0,0,0,0,0,-1,790,505,-1.03617,0.294443
-427,519,-1.48358,-0.694275,0,0,0,0,0,0,0,-1,797,505,-1.48357,0.694267
-420,519,-1.25433,-0.473938,0,0,0,0,0,0,0,-1,804,505,-1.25434,0.473951
-413,519,-1.36047,-0.472504,0.0163392,-0.0183874,-0.0153292,0.0221376,-0.0241859,-0.361629,0.0267536,0.0475448,811,505,-1.36048,0.472505
-406,519,-0.734985,-0.380493,0.0150484,-0.0138228,-0.0141078,0.0207973,-0.0195718,-0.386957,0.0233107,0.0433524,818,505,-0.734979,0.380493
-399,519,-0.482971,-0.319092,0.0134425,-0.00922233,-0.0125324,0.0190063,-0.0147862,-0.417819,0.0195608,0.0465237,825,505,-0.482948,0.319098
-392,519,-0.147278,-0.0466614,0.0115943,-0.00528122,-0.0115458,0.017457,-0.0111439,-0.469847,0.0166463,0.0470704,832,505,-0.147273,0.0466487
-385,519,-0.0644531,0.103058,0.0090636,-0.00413054,-0.00881744,0.0134787,-0.00854567,-0.464229,0.0128217,0.0416176,839,505,-0.0644579,-0.10306
-378,519,-0.168396,0.0463257,0.00663039,-0.00174862,-0.00690968,0.0105215,-0.00563968,-0.51287,0.00947147,0.029068,846,505,-0.168393,-0.0463146
-371,519,-0.0651245,0.0594177,0.00506141,0.00099705,-0.00551837,0.00890989,-0.00285143,-0.608975,0.00708434,0.0164744,853,505,-0.0651511,-0.0594055
-364,519,-0.0447388,0.0534363,0.00366642,0.00178991,-0.00396623,0.00680386,-0.00134753,-0.669253,0.00504543,0.00937079,860,505,-0.0447268,-0.0534254
-357,519,-0.0336304,0.0600891,0.00220113,0.00256054,-0.00247338,0.00486073,-9.90629e-05,-0.821663,0.00327401,0.00845382,867,505,-0.0336379,-0.0600928
-350,519,-0.0210571,0.0625916,0.000898779,0.0025779,-0.00160667,0.00355114,-7.44608e-05,-1.02616,0.00239263,0.0104498,874,505,-0.021033,-0.0625784
-343,519,-0.019165,0.0704651,0.000273114,0.00255647,-0.000864431,0.0028468,-1.72235e-05,-1.24676,0.00190364,0.0132049,881,505,-0.0191541,-0.0704689
-336,519,-0.0531006,0.0563354,3.02411e-05,0.00237746,-0.000414406,0.00244848,-4.07742e-05,-1.40108,0.00164608,0.0123535,888,505,-0.0530987,-0.0563292
-329,519,-0.0421143,0.0533142,6.51026e-05,0.00212436,6.22764e-05,0.00212625,6.32209e-05,1.54059,0.0013969,0.0103547,895,505,-0.0421361,-0.053306
-322,519,-0.0219727,0.0591736,-7.9018e-05,0.00176435,0.000258617,0.00179994,-0.000114614,1.43402,0.00123993,0.00928515,902,505,-0.0219518,-0.0591861
-315,519,-0.0250854,0.0565186,-0.000280204,0.000990042,0.000393474,0.00110205,-0.000392211,1.29347,0.000894571,0.00877968,909,505,-0.0250839,-0.0565172
-308,519,-0.0278931,0.0506287,-0.000294424,0.000599087,0.000540473,0.000853545,-0.000548883,1.13077,0.000816036,0.00748007,916,505,-0.0279163,-0.0506325
-301,519,-0.0111084,0.0339355,-0.000238592,-3.07116e-05,0.000519665,0.000395306,-0.000664609,0.884103,0.000618491,0.0112394,923,505,-0.0110841,-0.0339404
-294,519,-0.0157471,0.0476685,-0.000196869,-0.00062869,0.000437879,7.54372e-05,-0.000900996,0.556349,0.000627324,0.0140941,930,505,-0.0157345,-0.0476605
-287,519,-0.0514526,0.0680237,-0.000564505,-0.000532954,3.20168e-05,-0.000513037,-0.000584422,1.01431,0.000368134,0.0102738,937,505,-0.051472,-0.0680368
-280,519,-0.0529175,0.0703735,-0.0010881,0.000294414,-1.95153e-05,0.000294689,-0.00108838,-1.55668,0.000841199,0.0125613,944,505,-0.0529388,-0.0703676
-273,519,-0.0328369,0.0627441,-0.00177166,0.00127692,0.000975837,0.00156252,-0.00205726,1.28607,0.00209638,0.012689,951,505,-0.0328387,-0.0627409
-266,519,0.0108643,0.0787048,-0.00198276,0.00280347,0.00226642,0.00370636,-0.00288565,1.19169,0.00381572,0.0146016,958,505,0.0108353,-0.0786958
-259,519,0.050415,0.117371,-0.00162671,0.0047675,0.00392372,0.00663173,-0.00349094,1.12725,0.00593735,0.0285445,965,505,0.0504078,-0.117356
-252,519,0.0203247,0.114288,-0.00155615,0.00769568,0.0059364,0.0105957,-0.00445618,1.11638,0.00892794,0.0390472,972,505,0.020318,-0.114297
-245,519,0.0316162,0.185303,-0.0018946,0.0105762,0.00854118,0.0149159,-0.00623426,1.1007,0.0125493,0.0383277,979,505,0.0315862,-0.185316
-238,519,0.174683,0.492798,-0.00113978,0.0134851,0.0121284,0.020335,-0.00798959,1.05668,0.016863,0.0395325,986,505,0.17471,-0.492786
-231,519,-0.580688,-0.718536,-0.000372441,0.015764,0.016396,0.0259694,-0.0105779,1.01405,0.0217153,0.0451009,993,505,-0.580716,0.718543
-224,519,-0.976929,-0.304077,0.00111309,0.0170965,0.0204592,0.0310694,-0.0128598,0.971594,0.0260788,0.0443459,1000,505,-0.976929,0.304074
-217,519,-0.512024,-0.121582,0.0028342,0.0167222,0.0239708,0.0347345,-0.0151781,0.926382,0.0295452,0.0417966,1007,505,-0.512008,0.121596
-210,519,-0.188171,-0.513641,0.00442281,0.0153645,0.0273501,0.0377856,-0.0179983,0.88411,0.0328753,0.0428243,1014,505,-0.188142,0.513626
-203,519,-0.0246582,-0.818848,0,0,0,0,0,0,0,-1,1021,505,-0.0246487,0.818854
-196,519,-0.406982,0.237427,0.00838972,0.00766549,0.0290865,0.0371163,-0.0210611,0.779174,0.0340124,0.0426389,1028,505,-0.406958,-0.237426
-189,519,-0.867065,0.757263,0.0109262,0.00313424,0.0269773,0.0342874,-0.020227,0.713685,0.0318209,0.0455314,1035,505,-0.867103,-0.757253
-182,519,-0.279907,-0.0975037,0,0,0,0,0,0,0,-1,1042,505,-0.279867,0.0974924
-175,519,-0.12561,0.0557251,0.015566,-0.00792762,0.0197368,0.0267872,-0.0191488,0.516967,0.0266431,0.045647,1049,505,-0.12557,-0.0557194
-168,519,0.0513916,0.231689,0.0181882,-0.0124702,0.0137453,0.0234482,-0.0177303,0.365487,0.0238507,0.0472316,1056,505,0.051412,-0.231701
-161,519,0.116821,0.253113,0,0,0,0,0,0,0,-1,1063,505,0.116761,-0.253124
-154,519,0.0483398,-0.0619812,0.0195843,-0.0239667,0.000672809,0.0195947,-0.0239771,0.0154438,0.0251986,0.0436037,1070,505,0.0483989,0.0619779
-147,519,0.297363,-0.493896,0.0192996,-0.0285061,-0.00512531,0.0198429,-0.0290494,-0.105612,0.0283943,0.0457915,1077,505,0.297388,0.493906
-140,519,0.699951,-0.362793,0.0193014,-0.0298094,-0.00908892,0.0209295,-0.0314375,-0.177251,0.0304363,0.0488355,1084,505,0.700003,0.362807
-133,519,0.668091,-0.437714,0,0,0,0,0,0,0,-1,1091,505,0.668062,0.437716
-126,519,0,0,0,0,0,0,0,0,0,-1,1098,505,0,0
-119,519,0,0,0,0,0,0,0,0,0,-1,1105,505,0,0
-112,519,0,0,0,0,0,0,0,0,0,-1,1112,505,0,0
-105,519,0,0,0,0,0,0,0,0,0,-1,1119,505,0,0
-98,519,0,0,0,0,0,0,0,0,0,-1,1126,505,0,0
-91,519,0,0,0,0,0,0,0,0,0,-1,1133,505,0,0
-84,519,0,0,0,0,0,0,0,0,0,-1,1140,505,0,0
-77,519,0,0,0,0,0,0,0,0,0,-1,1147,505,0,0
-70,519,0,0,0,0,0,0,0,0,0,-1,1154,505,0,0
-63,519,0,0,0,0,0,0,0,0,0,-1,1161,505,0,0
-56,519,0,0,0,0,0,0,0,0,0,-1,1168,505,0,0
-49,519,0,0,0,0,0,0,0,0,0,-1,1175,505,0,0
-42,519,0,0,0,0,0,0,0,0,0,-1,1182,505,0,0
-35,519,0,0,0,0,0,0,0,0,0,-1,1189,505,0,0
-28,519,0,0,0,0,0,0,0,0,0,-1,1196,505,0,0
-21,519,0,0,0,0,0,0,0,0,0,-1,1203,505,0,0
-14,519,0,0,0,0,0,0,0,0,0,-1,1210,505,0,0
-7,519,0,0,0,0,0,0,0,0,0,-1,1217,505,0,0
0,519,0,0,0,0,0,0,0,0,0,-1,1224,505,0,0
7,519,0,0,0,0,0,0,0,0,0,-1,1231,505,0,0
14,519,0,0,0,0,0,0,0,0,0,-1,1238,505,0,0
21,519,0,0,0,0,0,0,0,0,0,-1,1245,505,0,0
28,519,0,0,0,0,0,0,0,0,0,-1,1252,505,0,0
35,519,0,0,0,0,0,0,0,0,0,-1,1259,505,0,0
42,519,0,0,0,0,0,0,0,0,0,-1,1266,505,0,0
49,519,0,0,0,0,0,0,0,0,0,-1,1273,505,0,0
56,519,0,0,0,0,0,0,0,0,0,-1,1280,505,0,0
63,519,0,0,0,0,0,0,0,0,0,-1,1287,505,0,0
70,519,0,0,0,0,0,0,0,0,0,-1,1294,505,0,0
77,519,0,0,0,0,0,0,0,0,0,-1,1301,505,0,0
84,519,0,0,0,0,0,0,0,0,0,-1,1308,505,0,0
91,519,0,0,0,0,0,0,0,0,0,-1,1315,505,0,0
98,519,0,0,0,0,0,0,0,0,0,-1,1322,505,0,0
105,519,0,0,0,0,0,0,0,0,0,-1,1329,505,0,0
112,519,0,0,0,0,0,0,0,0,0,-1,1336,505,0,0
119,519,0,0,0,0,0,0,0,0,0,-1,1343,505,0,0
126,519,0,0,0,0,0,0,0,0,0,-1,1350,505,0,0
133,519,0,0,0,0,0,0,0,0,0,-1,1357,505,0,0
140,519,0,0,0,0,0,0,0,0,0,-1,1364,505,0,0
147,519,0,0,0,0,0,0,0,0,0,-1,1371,505,0,0
154,519,0,0,0,0,0,0,0,0,0,-1,1378,505,0,0
161,519,0,0,0,0,0,0,0,0,0,-1,1385,505,0,0
168,519,0,0,0,0,0,0,0,0,0,-1,1392,505,0,0
175,519,0,0,0,0,0,0,0,0,0,-1,1399,505,0,0
182,519,0,0,0,0,0,0,0,0,0,-1,1406,505,0,0
189,519,0,0,0,0,0,0,0,0,0,-1,1413,505,0,0
196,519,0,0,0,0,0,0,0,0,0,-1,1420,505,0,0
203,519,0,0,0,0,0,0,0,0,0,-1,1427,505,0,0
210,519,0,0,0,0,0,0,0,0,0,-1,1434,505,0,0
217,519,0,0,0,0,0,0,0,0,0,-1,1441,505,0,0
224,519,0,0,0,0,0,0,0,0,0,-1,1448,505,0,0
231,519,0,0,0,0,0,0,0,0,0,-1,1455,505,0,0
238,519,0,0,0,0,0,0,0,0,0,-1,1462,505,0,0
245,519,0,0,0,0,0,0,0,0,0,-1,1469,505,0,0
252,519,0.580566,-0.014679,-0.0384266,0.00364238,-0.00301209,0.00385695,-0.0386412,-1.49968,0.0271379,0.0439883,1476,505,0.580593,0.0146761
259,519,0.239136,-0.177002,0,0,0,0,0,0,0,-1,1483,505,0.239091,0.176999
266,519,-0.0821533,-0.109955,-0.0266838,0.00621875,0.00468747,0.00687353,-0.0273386,1.43201,0.0208972,0.0426926,1490,505,-0.0821318,0.109955
273,519,-0.081543,-0.17868,-0.0201679,0.00656296,0.00604073,0.00786467,-0.0214696,1.35855,0.0175328,0.0408519,1497,505,-0.0816003,0.178672
280,519,-0.918335,1.0134,-0.0144184,0.00689569,0.00685803,0.00891166,-0.0164343,1.28489,0.0148468,0.0417641,1504,505,-0.918325,-1.0134
287,519,-1.4491,1.23691,0,0,0,0,0,0,0,-1,1511,505,-1.44912,-1.23692
294,519,-0.0700684,0.128601,-0.00568845,0.00522429,0.00406428,0.00657162,-0.00703578,1.25069,0.00785776,0.045542,1518,505,-0.0700943,-0.128587
301,519,-0.0167236,0.0964966,-0.00419651,0.00532259,0.000866155,0.00540076,-0.00427468,1.48079,0.00559871,0.0457072,1525,505,-0.0167348,-0.09649
308,519,-0.106201,0.465118,-0.00430289,0.0059331,-0.00208037,0.00633976,-0.00470955,-1.37776,0.00640242,0.0427253,1532,505,-0.10622,-0.465126
315,519,-0.131958,0.798706,-0.00604769,0.00699988,-0.00587771,0.00925717,-0.00830497,-1.20412,0.0101445,0.044583,1539,505,-0.131965,-0.798714
322,519,0.249023,-0.272705,-0.00791059,0.00928815,-0.00863928,0.0128784,-0.0115008,-1.17694,0.0140828,0.0412323,1546,505,0.248963,0.272692
329,519,1.15894,0.158081,0,0,0,0,0,0,0,-1,1553,505,1.15892,-0.158094
336,519,0.811768,-0.0279236,-0.00975797,0.0164544,-0.00740552,0.0184019,-0.0117055,-1.31364,0.0175252,0.0456417,1560,505,0.811729,0.0279369
343,519,0.456909,-0.231232,-0.0110488,0.0190189,-0.00578718,0.0200943,-0.0121242,-1.38707,0.0187901,0.0431286,1567,505,0.456954,0.231237
350,519,0.0223389,-0.339294,-0.0123033,0.0213704,-0.00367502,0.0217669,-0.0126997,-1.46335,0.0201275,0.0444377,1574,505,0.022288,0.339297
357,519,-0.260132,-0.347595,-0.0124103,0.0234827,-0.000536443,0.0234907,-0.0124183,-1.55586,0.0210581,0.0451216,1581,505,-0.260154,0.3476
364,519,-0.70874,0.245483,-0.0111235,0.0243958,0.00218634,0.0245299,-0.0112576,1.50955,0.0211302,0.0413918,1588,505,-0.708686,-0.245487
371,519,-0.338135,0.11615,-0.00994799,0.0243286,0.00510769,0.0250736,-0.0106929,1.42597,0.0211989,0.0411619,1595,505,-0.338118,-0.116141
378,519,-0.120117,-0.0428772,-0.00899566,0.0227834,0.00758764,0.0245021,-0.0107144,1.34804,0.0208452,0.039946,1602,505,-0.120176,0.0428753
385,519,0.0439453,0.0218506,-0.00621822,0.0199896,0.00850695,0.0225088,-0.00873739,1.28289,0.0186149,0.036776,1609,505,0.0439474,-0.0218601
392,519,0.0413818,0.00888062,-0.00404692,0.0171526,0.00876837,0.0203093,-0.00720358,1.22524,0.0164743,0.0278653,1616,505,0.0413814,-0.00887621
399,519,-0.0246582,0.0471802,-0.00244589,0.013905,0.00816208,0.0172819,-0.00582283,1.17851,0.0138756,0.0193417,1623,505,-0.0246591,-0.0471765
406,519,0.0065918,0.0530396,-0.000820735,0.0107262,0.00747351,0.0143966,-0.00449112,1.11428,0.0113937,0.0159288,1630,505,0.00664319,-0.0530404
413,519,-0.0113525,0.0733032,0.000190696,0.00769003,0.00611036,0.0111095,-0.00322877,1.0606,0.00868501,0.0128204,1637,505,-0.0113332,-0.0732889
420,519,-0.03479,0.0695496,0.000369565,0.00508901,0.00452546,0.00783302,-0.00237444,1.02572,0.00616778,0.0140789,1644,505,-0.03475,-0.0695549
427,519,-0.029541,0.0492859,0.000231016,0.00255767,0.00331079,0.00490357,-0.00211488,0.954348,0.00415736,0.0118172,1651,505,-0.0295955,-0.0492978
434,519,-0.0235596,0.0534668,5.39445e-05,0.000388569,0.00168065,0.00191021,-0.0014677,0.835011,0.00195581,0.0116025,1658,505,-0.023593,-0.0534523
441,519,-0.0404053,0.0681152,0.000190453,-0.000599455,0.000617237,0.000528281,-0.000937284,0.500786,0.000857057,0.0120646,1665,505,-0.04043,-0.0681141
448,519,-0.041626,0.0688782,0.000503968,-0.00100563,0.000175626,0.000524131,-0.0010258,0.114305,0.000910342,0.00893889,1672,505,-0.041639,-0.0688798
455,519,-0.0318604,0.0600586,0.000641602,-0.00126287,7.78651e-05,0.00064478,-0.00126605,0.0407946,0.00112249,0.010151,1679,505,-0.0318124,-0.0600626
462,519,-0.0257568,0.0539246,0.000946879,-0.00154807,-0.000224474,0.000966915,-0.0015681,-0.0890188,0.00147725,0.00966796,1686,505,-0.0257254,-0.0539113
469,519,-0.0178223,0.0610962,0.00115539,-0.00175606,-0.000384652,0.00120535,-0.00180602,-0.129165,0.0017501,0.00953466,1693,505,-0.0178111,-0.0610866
476,519,-0.0100098,0.0661621,0.00138645,-0.00196931,-0.000369937,0.00142675,-0.00200961,-0.108503,0.00199347,0.0110424,1700,505,-0.00999594,-0.0661629
483,519,-0.0163574,0.063446,0.00151348,-0.0025689,-0.00036407,0.00154569,-0.00260111,-0.0882529,0.00241987,0.0114719,1707,505,-0.0162988,-0.0634442
490,519,-0.0356445,0.0916443,0.00176099,-0.00377943,-0.000281304,0.00177524,-0.00379367,-0.0505997,0.00328485,0.0101212,1714,505,-0.0356505,-0.0916442
497,519,-0.0257568,0.0852966,0.00217757,-0.00536257,-0.000232528,0.00218473,-0.00536973,-0.0307997,0.00448893,0.0113213,1721,505,-0.0257749,-0.0852995
504,519,-0.0327148,0.063446,0.00236637,-0.00702271,-0.000154494,0.00236891,-0.00702525,-0.0164487,0.00564144,0.0110528,1728,505,-0.0327605,-0.0634459
511,519,-0.0246582,0.0362244,0.00251664,-0.00889234,-4.34222e-05,0.00251681,-0.0088925,-0.00380589,0.00692152,0.015054,1735,505,-0.0245993,-0.036232
518,519,0.0218506,-0.0180359,0.00242589,-0.0103668,-2.72779e-05,0.00242595,-0.0103669,-0.00213229,0.00784593,0.029412,1742,505,0.021822,0.0180373
525,519,0.321411,-0.188568,0.00222847,-0.0119699,-0.000121444,0.00222951,-0.011971,-0.00855251,0.00881827,0.0401373,1749,505,0.321457,0.188572
532,519,0.186768,-0.0133362,0.00227066,-0.0134017,-0.000136701,0.00227185,-0.0134029,-0.00872155,0.00978088,0.0440148,1756,505,0.186734,0.0133353
539,519,-0.000732422,0.305023,0.00258292,-0.0145719,-0.000224942,0.00258587,-0.0145749,-0.0131094,0.0106834,0.0405005,1763,505,-0.000690802,-0.305017
546,519,0.293457,-0.140198,0.00254315,-0.0148763,-0.000680751,0.00256971,-0.0149029,-0.0390006,0.0108933,0.0410116,1770,505,0.293442,0.140202
553,519,0.62561,-0.667206,0,0,0,0,0,0,0,-1,1777,505,0.625622,0.667191
560,519,0.977173,-1.13388,0,0,0,0,0,0,0,-1,1784,505,0.977154,1.13388
567,519,0,0,0,0,0,0,0,0,0,-1,1791,505,0,0
574,519,0,0,0,0,0,0,0,0,0,-1,1798,505,0,0
581,519,0,0,0,0,0,0,0,0,0,-1,1805,505,0,0
588,519,0,0,0,0,0,0,0,0,0,-1,1812,505,0,0
595,519,0,0,0,0,0,0,0,0,0,-1,1819,505,0,0
602,519,0,0,0,0,0,0,0,0,0,-1,1826,505,0,0
609,519,0,0,0,0,0,0,0,0,0,-1,1833,505,0,0
616,519,0,0,0,0,0,0,0,0,0,-1,1840,505,0,0
623,519,0,0,0,0,0,0,0,0,0,-1,1847,505,0,0
630,519,0,0,0,0,0,0,0,0,0,-1,1854,505,0,0
637,519,0,0,0,0,0,0,0,0,0,-1,1861,505,0,0
644,519,0,0,0,0,0,0,0,0,0,-1,1868,505,0,0
651,519,0,0,0,0,0,0,0,0,0,-1,1875,505,0,0
658,519,0,0,0,0,0,0,0,0,0,-1,1882,505,0,0
665,519,0,0,0,0,0,0,0,0,0,-1,1889,505,0,0
672,519,0,0,0,0,0,0,0,0,0,-1,1896,505,0,0
679,519,0,0,0,0,0,0,0,0,0,-1,1903,505,0,0
686,519,0,0,0,0,0,0,0,0,0,-1,1910,505,0,0
693,519,0,0,0,0,0,0,0,0,0,-1,1917,505,0,0
700,519,0,0,0,0,0,0,0,0,0,-1,1924,505,0,0
707,519,0,0,0,0,0,0,0,0,0,-1,1931,505,0,0
714,519,0,0,0,0,0,0,0,0,0,-1,1938,505,0,0
721,519,0,0,0,0,0,0,0,0,0,-1,1945,505,0,0
728,519,0,0,0,0,0,0,0,0,0,-1,1952,505,0,0
735,519,0,0,0,0,0,0,0,0,0,-1,1959,505,0,0
742,519,0,0,0,0,0,0,0,0,0,-1,1966,505,0,0
749,519,0,0,0,0,0,0,0,0,0,-1,1973,505,0,0
756,519,0,0,0,0,0,0,0,0,0,-1,1980,505,0,0
763,519,0,0,0,0,0,0,0,0,0,-1,1987,505,0,0
770,519,0,0,0,0,0,0,0,0,0,-1,1994,505,0,0
777,519,0,0,0,0,0,0,0,0,0,-1,2001,505,0,0
784,519,0,0,0,0,0,0,0,0,0,-1,2008,505,0,0
791,519,0,0,0,0,0,0,0,0,0,-1,2015,505,0,0
798,519,0,0,0,0,0,0,0,0,0,-1,2022,505,0,0
805,519,0,0,0,0,0,0,0,0,0,-1,2029,505,0,0
812,519,0,0,0,0,0,0,0,0,0,-1,2036,505,0,0
-700,512,0,0,0,0,0,0,0,0,0,-1,524,512,0,0
-693,512,0,0,0,0,0,0,0,0,0,-1,531,512,0,0
-686,512,0,0,0,0,0,0,0,0,0,-1,538,512,0,0
-679,512,0,0,0,0,0,0,0,0,0,-1,545,512,0,0
-672,512,0,0,0,0,0,0,0,0,0,-1,552,512,0,0
-665,512,0,0,0,0,0,0,0,0,0,-1,559,512,0,0
-658,512,0,0,0,0,0,0,0,0,0,-1,566,512,0,0
-651,512,0,0,0,0,0,0,0,0,0,-1,573,512,0,0
-644,512,0,0,0,0,0,0,0,0,0,-1,580,512,0,0
-637,512,0,0,0,0,0,0,0,0,0,-1,587,512,0,0
-630,512,0,0,0,0,0,0,0,0,0,-1,594,512,0,0
-623,512,0,0,0,0,0,0,0,0,0,-1,601,512,0,0
-616,512,0,0,0,0,0,0,0,0,0,-1,608,512,0,0
-609,512,0,0,0,0,0,0,0,0,0,-1,615,512,0,0
-602,512,0,0,0,0,0,0,0,0,0,-1,622,512,0,0
-595,512,0,0,0,0,0,0,0,0,0,-1,629,512,0,0
-588,512,0,0,0,0,0,0,0,0,0,-1,636,512,0,0
-581,512,0,0,0,0,0,0,0,0,0,-1,643,512,0,0
-574,512,0,0,0,0,0,0,0,0,0,-1,650,512,0,0
-567,512,0,0,0,0,0,0,0,0,0,-1,657,512,0,0
-560,512,0,0,0,0,0,0,0,0,0,-1,664,512,0,0
-553,512,0,0,0,0,0,0,0,0,0,-1,671,512,0,0
-546,512,0,0,0,0,0,0,0,0,0,-1,678,512,0,0
-539,512,0,0,0,0,0,0,0,0,0,-1,685,512,0,0
-532,512,0,0,0,0,0,0,0,0,0,-1,692,512,0,0
-525,512,0,0,0,0,0,0,0,0,0,-1,699,512,0,0
-518,512,0,0,0,0,0,0,0,0,0,-1,706,512,0,0
-511,512,0,0,0,0,0,0,0,0,0,-1,713,512,0,0
-504,512,0,0,0,0,0,0,0,0,0,-1,720,512,0,0
-497,512,0,0,0,0,0,0,0,0,0,-1,727,512,0,0
-490,512,0,0,0,0,0,0,0,0,0,-1,734,512,0,0
-483,512,0,0,0,0,0,0,0,0,0,-1,741,512,0,0
-476,512,0,0,0,0,0,0,0,0,0,-1,748,512,0,0
-469,512,0,0,0,0,0,0,0,0,0,-1,755,512,0,0
-462,512,0,0,0,0,0,0,0,0,0,-1,762,512,0,0
-455,512,0,0,0,0,0,0,0,0,0,-1,769,512,0,0
-448,512,1.18695,-1.67419,0.0127893,-0.0364332,-0.0129004,0.0159653,-0.0396092,-0.241396,0.0330397,0.0423305,776,512,1.18697,1.67418
-441,512,0.55072,-1.1131,0.0131335,-0.0324877,-0.0130261,0.0165908,-0.035945,-0.259432,0.03101,0.0427253,783,512,0.550735,1.1131
-434,512,-0.212402,-0.8172,0,0,0,0,0,0,0,-1,790,512,-0.212395,0.817214
-427,512,-0.772095,-0.581909,0,0,0,0,0,0,0,-1,797,512,-0.772119,0.581902
-420,512,-0.756836,-0.365112,0.0123987,-0.0193276,-0.0123409,0.0166337,-0.0235626,-0.330577,0.023322,0.0484226,804,512,-0.756807,0.365099
-413,512,-0.831055,-0.341736,0.0119926,-0.0157722,-0.0116139,0.01621,-0.0199896,-0.348329,0.0209378,0.0449097,811,512,-0.831032,0.34171
-406,512,-0.745178,-0.396423,0.0113737,-0.0122616,-0.0107731,0.0155472,-0.0164351,-0.369597,0.0184674,0.0448321,818,512,-0.745165,0.396398
-399,512,-0.432373,-0.29834,0.0102638,-0.00860632,-0.00964204,0.014319,-0.0126616,-0.398124,0.0155871,0.0409109,825,512,-0.43236,0.298317
-392,512,-0.0770264,-0.00177002,0.00887338,-0.00534278,-0.00899765,0.0132319,-0.00970128,-0.451093,0.0132927,0.0321527,832,512,-0.077044,0.00179887
-385,512,-0.0500488,0.0567017,0.00696146,-0.00455164,-0.00686644,0.0101651,-0.00775533,-0.436549,0.0103775,0.0172373,839,512,-0.0500749,-0.0567115
-378,512,-0.0310059,0.0834045,0.00522676,-0.00264909,-0.00545602,0.00801753,-0.00543987,-0.472808,0.007817,0.0133642,846,512,-0.0310068,-0.0834051
-371,512,-0.0264282,0.0637817,0.00407589,-0.000427349,-0.00440602,0.00677229,-0.00312374,-0.549181,0.00584148,0.0107924,853,512,-0.0264124,-0.0637699
-364,512,-0.0268555,0.0536499,0.00315576,0.000358712,-0.0031844,0.0052352,-0.00172073,-0.578488,0.00418339,0.00887453,860,512,-0.0268714,-0.0536352
-357,512,-0.00732422,0.0643005,0.00208317,0.00113449,-0.00198213,0.00364693,-0.000429273,-0.667953,0.00258628,0.00977572,867,512,-0.00733666,-0.0643038
-350,512,-0.00268555,0.0541992,0.001176,0.00137386,-0.00126725,0.00254604,3.8296e-06,-0.824352,0.00169608,0.0103277,874,512,-0.00268986,-0.0542103
-343,512,-0.0328979,0.0644226,0.000903869,0.00171814,-0.00055881,0.0020024,0.00061961,-1.10022,0.00118375,0.0103642,881,512,-0.0328809,-0.0644177
-336,512,-0.0506592,0.0591431,0.000889898,0.00193025,-0.000161869,0.00195485,0.000865294,-1.41995,0.00113111,0.0095904,888,512,-0.0506804,-0.0591359
-329,512,-0.0438843,0.0533142,0.00105887,0.00199257,0.000345341,0.00210642,0.000945019,1.25235,0.00121828,0.00959708,895,512,-0.0438959,-0.0533081
-322,512,-0.0349121,0.0519104,0.000994136,0.00186105,0.000602984,0.00217021,0.00068498,1.09703,0.00128105,0.00901991,902,512,-0.0349393,-0.0519005
-315,512,-0.0297852,0.047699,0.000768029,0.00126342,0.000716128,0.00177348,0.00025797,0.951899,0.0011064,0.0102344,909,512,-0.029812,-0.0476856
-308,512,-0.0125732,0.0371094,0.000674588,0.000974448,0.000920788,0.00175743,-0.000108396,0.866104,0.00120937,0.0107629,916,512,-0.0125534,-0.0371074
-301,512,-0.00469971,0.026947,0.000616032,0.000416084,0.000911616,0.00143314,-0.000401023,0.730783,0.00111344,0.0145391,923,512,-0.00468801,-0.0269536
-294,512,-0.00762939,0.0450439,0.000541686,-0.00020158,0.000800973,0.00105304,-0.000712936,0.56819,0.00102587,0.013983,930,512,-0.00765602,-0.0450477
-287,512,-0.0291748,0.0724792,5.27361e-05,-0.000107883,0.000337101,0.000318962,-0.000374109,0.66846,0.000400567,0.0156199,937,512,-0.0291694,-0.0724923
-280,512,-0.0577393,0.0527649,-0.000524351,0.000761355,0.000221993,0.000798605,-0.000561602,1.40454,0.00078928,0.0152855,944,512,-0.0577298,-0.0527698
-273,512,0.022583,0.0529785,-0.00128669,0.00188057,0.00127253,0.00232849,-0.00173462,1.23235,0.00235418,0.0237001,951,512,0.0226084,-0.0529803
-266,512,0.115845,0.0658264,-0.00155473,0.00364848,0.00270074,0.00479685,-0.00270311,1.16875,0.00438599,0.0321294,958,512,0.115865,-0.0658123
-259,512,0.125671,0.129944,-0.00117239,0.0058824,0.00460575,0.00815634,-0.00344633,1.11219,0.00688032,0.040041,965,512,0.125663,-0.12994
-252,512,0.0857544,0.108276,-0.00101932,0.00927933,0.0069423,0.0127736,-0.00451355,1.10449,0.0103535,0.042548,972,512,0.0857763,-0.108275
-245,512,0.0218506,0.0715637,-0.00126256,0.0128093,0.00999975,0.0180003,-0.00645362,1.09197,0.0146337,0.0438985,979,512,0.0218589,-0.0715634
-238,512,-0.161682,0.181183,-0.000141984,0.0164448,0.0142495,0.0246386,-0.00833586,1.04894,0.0197982,0.0444955,986,512,-0.161696,-0.181186
-231,512,-1.05713,-1.19879,0.0010869,0.0196709,0.0193894,0.0318798,-0.011122,1.00885,0.0257733,0.0475845,993,512,-1.05715,1.19877
-224,512,-1.54352,-0.28949,0.00323064,0.0218515,0.0243075,0.0385706,-0.0134885,0.968293,0.0311975,0.0450679,1000,512,-1.54349,0.289481
-217,512,-1.50629,-0.0359497,0.00570077,0.0220686,0.0286181,0.04365,-0.0158806,0.924667,0.0355946,0.0458065,1007,512,-1.50629,0.0359665
-210,512,-1.26727,0.0799255,0.00820037,0.0212328,0.0330314,0.0483846,-0.0189514,0.882785,0.0400953,0.0465799,1014,512,-1.26728,-0.0799307
-203,512,-1.06885,0.149872,0.0107919,0.0169595,0.0350482,0.0490593,-0.0213079,0.829279,0.0416663,0.046269,1021,512,-1.06882,-0.149859
-196,512,-0.824341,0.227661,0,0,0,0,0,0,0,-1,1028,512,-0.824333,-0.227659
-189,512,-0.664795,0.299683,0,0,0,0,0,0,0,-1,1035,512,-0.664747,-0.299675
-182,512,-0.189819,0.239441,0,0,0,0,0,0,0,-1,1042,512,-0.189869,-0.239437
-175,512,-0.0427246,0.396088,0.0233552,-0.00452833,0.0253219,0.0383197,-0.0194928,0.533753,0.0339629,0.0460788,1049,512,-0.0427318,-0.396081
-168,512,0.446899,0.698059,0.0279407,-0.0100386,0.0186278,0.0355518,-0.0176497,0.387889,0.0312902,0.0470498,1056,512,0.446864,-0.698051
-161,512,0.231567,0.508911,0,0,0,0,0,0,0,-1,1063,512,0.231539,-0.508907
-154,512,0.0758057,0.0724182,0,0,0,0,0,0,0,-1,1070,512,0.075856,-0.0724136
-147,512,0,0,0,0,0,0,0,0,0,-1,1077,512,0,0
-140,512,0,0,0,0,0,0,0,0,0,-1,1084,512,0,0
-133,512,0,0,0,0,0,0,0,0,0,-1,1091,512,0,0
-126,512,0,0,0,0,0,0,0,0,0,-1,1098,512,0,0
-119,512,0,0,0,0,0,0,0,0,0,-1,1105,512,0,0
-112,512,0,0,0,0,0,0,0,0,0,-1,1112,512,0,0
-105,512,0,0,0,0,0,0,0,0,0,-1,1119,512,0,0
-98,512,0,0,0,0,0,0,0,0,0,-1,1126,512,0,0
-91,512,0,0,0,0,0,0,0,0,0,-1,1133,512,0,0
-84,512,0,0,0,0,0,0,0,0,0,-1,1140,512,0,0
-77,512,0,0,0,0,0,0,0,0,0,-1,1147,512,0,0
-70,512,0,0,0,0,0,0,0,0,0,-1,1154,512,0,0
-63,512,0,0,0,0,0,0,0,0,0,-1,1161,512,0,0
-56,512,0,0,0,0,0,0,0,0,0,-1,1168,512,0,0
-49,512,0,0,0,0,0,0,0,0,0,-1,1175,512,0,0
-42,512,0,0,0,0,0,0,0,0,0,-1,1182,512,0,0
-35,512,0,0,0,0,0,0,0,0,0,-1,1189,512,0,0
-28,512,0,0,0,0,0,0,0,0,0,-1,1196,512,0,0
-21,512,0,0,0,0,0,0,0,0,0,-1,1203,512,0,0
-14,512,0,0,0,0,0,0,0,0,0,-1,1210,512,0,0
-7,512,0,0,0,0,0,0,0,0,0,-1,1217,512,0,0
0,512,0,0,0,0,0,0,0,0,0,-1,1224,512,0,0
7,512,0,0,0,0,0,0,0,0,0,-1,1231,512,0,0
14,512,0,0,0,0,0,0,0,0,0,-1,1238,512,0,0
21,512,0,0,0,0,0,0,0,0,0,-1,1245,512,0,0
28,512,0,0,0,0,0,0,0,0,0,-1,1252,512,0,0
35,512,0,0,0,0,0,0,0,0,0,-1,1259,512,0,0
42,512,0,0,0,0,0,0,0,0,0,-1,1266,512,0,0
49,512,0,0,0,0,0,0,0,0,0,-1,1273,512,0,0
56,512,0,0,0,0,0,0,0,0,0,-1,1280,512,0,0
63,512,0,0,0,0,0,0,0,0,0,-1,1287,512,0,0
70,512,0,0,0,0,0,0,0,0,0,-1,1294,512,0,0
77,512,0,0,0,0,0,0,0,0,0,-1,1301,512,0,0
84,512,0,0,0,0,0,0,0,0,0,-1,1308,512,0,0
91,512,0,0,0,0,0,0,0,0,0,-1,1315,512,0,0
98,512,0,0,0,0,0,0,0,0,0,-1,1322,512,0,0
105,512,0,0,0,0,0,0,0,0,0,-1,1329,512,0,0
112,512,0,0,0,0,0,0,0,0,0,-1,1336,512,0,0
119,512,0,0,0,0,0,0,0,0,0,-1,1343,512,0,0
126,512,0,0,0,0,0,0,0,0,0,-1,1350,512,0,0
133,512,0,0,0,0,0,0,0,0,0,-1,1357,512,0,0
140,512,0,0,0,0,0,0,0,0,0,-1,1364,512,0,0
147,512,0,0,0,0,0,0,0,0,0,-1,1371,512,0,0
154,512,0,0,0,0,0,0,0,0,0,-1,1378,512,0,0
161,512,0,0,0,0,0,0,0,0,0,-1,1385,512,0,0
168,512,0,0,0,0,0,0,0,0,0,-1,1392,512,0,0
175,512,0,0,0,0,0,0,0,0,0,-1,1399,512,0,0
182,512,0,0,0,0,0,0,0,0,0,-1,1406,512,0,0
189,512,0,0,0,0,0,0,0,0,0,-1,1413,512,0,0
196,512,0,0,0,0,0,0,0,0,0,-1,1420,512,0,0
203,512,0,0,0,0,0,0,0,0,0,-1,1427,512,0,0
210,512,0,0,0,0,0,0,0,0,0,-1,1434,512,0,0
217,512,0,0,0,0,0,0,0,0,0,-1,1441,512,0,0
224,512,0,0,0,0,0,0,0,0,0,-1,1448,512,0,0
231,512,0,0,0,0,0,0,0,0,0,-1,1455,512,0,0
238,512,0,0,0,0,0,0,0,0,0,-1,1462,512,0,0
245,512,0,0,0,0,0,0,0,0,0,-1,1469,512,0,0
252,512,0,0,0,0,0,0,0,0,0,-1,1476,512,0,0
259,512,0,0,0,0,0,0,0,0,0,-1,1483,512,0,0
266,512,0,0,0,0,0,0,0,0,0,-1,1490,512,0,0
273,512,0.0395508,-0.461975,0,0,0,0,0,0,0,-1,1497,512,0.0395783,0.461979
280,512,-0.985229,1.0506,0,0,0,0,0,0,0,-1,1504,512,-0.985199,-1.05058
287,512,-1.64343,2.08661,0,0,0,0,0,0,0,-1,1511,512,-1.64338,-2.08662
294,512,0.136963,0.123169,-0.00744282,0.00908006,0.000452396,0.00909244,-0.0074552,1.54344,0.00956936,0.0454889,1518,512,0.137008,-0.123167
301,512,0.184082,0.231476,-0.00626589,0.00897127,-0.00300405,0.00954214,-0.00683676,-1.383,0.00949927,0.0442303,1525,512,0.184052,-0.231479
308,512,0.173828,0.513031,-0.00702423,0.00951672,-0.0062981,0.0116418,-0.00914927,-1.24538,0.0120324,0.0423399,1532,512,0.173814,-0.513043
315,512,0.224487,0.944031,-0.00963886,0.0106954,-0.0106082,0.015222,-0.0141654,-1.16748,0.0169705,0.0447511,1539,512,0.224475,-0.944042
322,512,0.969849,-0.642151,-0.0123857,0.0137202,-0.0135921,0.019512,-0.0181775,-1.16798,0.0217646,0.0445408,1546,512,0.969821,0.642144
329,512,1.44141,0.185272,0,0,0,0,0,0,0,-1,1553,512,1.44145,-0.185276
336,512,1.08044,0.0248413,-0.0140134,0.0223309,-0.00785424,0.0239556,-0.0156381,-1.36681,0.0230269,0.0446692,1560,512,1.08045,-0.0248302
343,512,0.817505,-0.19342,-0.0149997,0.024914,-0.00465265,0.0254492,-0.0155349,-1.45627,0.0238918,0.0449202,1567,512,0.81749,0.193409
350,512,0.389282,-0.533569,-0.0160881,0.0274306,-0.00153636,0.0274848,-0.0161423,-1.53555,0.0254703,0.046926,1574,512,0.3893,0.533584
357,512,0.00744629,-0.462402,-0.0159606,0.0294431,0.00234949,0.0295644,-0.0160818,1.51923,0.0267343,0.0474471,1581,512,0.00743588,0.462424
364,512,-0.42334,-0.196228,-0.0143315,0.0302176,0.00584311,0.0309712,-0.0150851,1.44253,0.0271128,0.043381,1588,512,-0.423336,0.196245
371,512,-0.394165,-0.13501,-0.0126375,0.0298368,0.00932821,0.0317951,-0.0145958,1.36386,0.0273905,0.043741,1595,512,-0.394133,0.135011
378,512,-0.303467,-0.168945,-0.0111662,0.0278504,0.0122104,0.0313566,-0.0146724,1.29117,0.0271505,0.0411169,1602,512,-0.30343,0.168947
385,512,-0.041748,-0.151489,-0.00777076,0.0242275,0.0129844,0.0288334,-0.0123767,1.22992,0.0244168,0.0404882,1609,512,-0.0418017,0.151488
392,512,0.0738525,-0.0603638,-0.00519888,0.0206184,0.012826,0.0259069,-0.0104874,1.1797,0.0216318,0.0408862,1616,512,0.0738301,0.0603437
399,512,-0.000610352,0.0175171,-0.00334705,0.0165273,0.0115503,0.0218268,-0.00864658,1.14063,0.0181341,0.0347374,1623,512,-0.00058985,-0.0175307
406,512,-0.0546875,0.0575867,-0.0014972,0.0125862,0.0102257,0.0179603,-0.00687126,1.08692,0.0148053,0.0265561,1630,512,-0.0546949,-0.0575903
413,512,-0.0300293,0.0821228,-0.00035753,0.0088652,0.00817524,0.01364,-0.00513228,1.04219,0.011203,0.020681,1637,512,-0.0300755,-0.0821352
420,512,-0.00646973,0.0655823,-0.000206567,0.00570295,0.00594254,0.00938478,-0.0038884,1.01611,0.00787925,0.0154528,1644,512,-0.00652274,-0.0655744
427,512,-0.0269775,0.0429688,-0.000381873,0.00266087,0.00422599,0.005631,-0.00335201,0.958177,0.00524168,0.0129287,1651,512,-0.0269546,-0.0429825
434,512,-0.038208,0.0344543,-0.000581175,3.17758e-06,0.00197282,0.00170534,-0.00228334,0.858914,0.00231091,0.0110084,1658,512,-0.0381836,-0.0344528
441,512,-0.0325928,0.0476074,-0.000457015,-0.00117147,0.000462943,-0.000229496,-0.00139899,0.456793,0.000866353,0.0138447,1665,512,-0.032582,-0.047607
448,512,-0.043335,0.0509033,-9.9461e-05,-0.00167314,-0.000130701,-8.86796e-05,-0.00168392,-0.0823031,0.00109425,0.00908061,1672,512,-0.0433769,-0.0509119
455,512,-0.0430908,0.0629883,0.000120553,-0.00197289,-0.000205835,0.0001406,-0.00199294,-0.0970848,0.00137788,0.00810915,1679,512,-0.0431175,-0.0629819
462,512,-0.0405273,0.0705261,0.000504313,-0.00220884,-0.000431211,0.000571198,-0.00227573,-0.153883,0.0017391,0.00912863,1686,512,-0.0404928,-0.0705115
469,512,-0.0391846,0.0726318,0.000704753,-0.00237295,-0.000556839,0.000802403,-0.00247059,-0.173598,0.00196978,0.0108381,1693,512,-0.0391903,-0.0726254
476,512,-0.0267334,0.066803,0.000955879,-0.0025152,-0.00046514,0.00101713,-0.00257645,-0.130928,0.00213887,0.0128868,1700,512,-0.0267204,-0.0667971
483,512,-0.0402832,0.0652771,0.00112132,-0.00295646,-0.000380125,0.00115645,-0.00299159,-0.0921607,0.00247176,0.0112888,1707,512,-0.0402338,-0.0652838
490,512,-0.0411377,0.0709839,0.00137084,-0.00383587,-0.000208794,0.0013792,-0.00384423,-0.0400153,0.00312568,0.00926768,1714,512,-0.0411194,-0.070991
497,512,-0.0283203,0.063385,0.00172539,-0.00502264,-8.37039e-05,0.00172642,-0.00502368,-0.0124017,0.00404919,0.0104326,1721,512,-0.028297,-0.0633807
504,512,-0.0343018,0.0678406,0.0018408,-0.00617278,7.58999e-05,0.00184152,-0.0061735,0.00947028,0.00484753,0.0114382,1728,512,-0.0343238,-0.0678295
511,512,-0.0288086,0.0616455,0.00188455,-0.00741533,0.000279528,0.00189294,-0.00742372,0.030021,0.00568614,0.0117759,1735,512,-0.0288586,-0.0616544
518,512,-0.0174561,0.0436096,0.00159618,-0.0082621,0.0003816,0.00161093,-0.00827685,0.0386315,0.00612589,0.0134419,1742,512,-0.017514,-0.043612
525,512,-0.00183105,0.0368347,0.00120867,-0.00910063,0.000361194,0.00122131,-0.00911327,0.0349786,0.00652086,0.0320485,1749,512,-0.00184125,-0.0368466
532,512,-0.0270996,0.297791,0.00100839,-0.00960503,0.000423249,0.00102524,-0.00962188,0.0397944,0.00678222,0.0406343,1756,512,-0.0271573,-0.297798
539,512,-0.140625,0.50412,0.000954708,-0.00973547,0.00040236,0.00096983,-0.0097506,0.0375674,0.00684661,0.0429712,1763,512,-0.140601,-0.504134
546,512,-0.228638,0.303467,0.0005202,-0.00899939,0.000167553,0.000523149,-0.00900234,0.0175936,0.00618332,0.0440458,1770,512,-0.228594,-0.303478
553,512,-0.0874023,0.157104,0,0,0,0,0,0,0,-1,1777,512,-0.0874155,-0.157115
560,512,-0.35144,0.529968,-0.000463229,-0.00597397,-0.000822827,-0.000342993,-0.0060942,-0.145098,0.00395343,0.0462284,1784,512,-0.351448,-0.529971
567,512,-0.483887,0.547058,-0.00120383,-0.00252412,-0.000908505,-0.000740957,-0.00298699,-0.471212,0.00179603,0.0438514,1791,512,-0.483889,-0.547067
574,512,0,0,0,0,0,0,0,0,0,-1,1798,512,0,0
581,512,0,0,0,0,0,0,0,0,0,-1,1805,512,0,0
588,512,0,0,0,0,0,0,0,0,0,-1,1812,512,0,0
595,512,0,0,0,0,0,0,0,0,0,-1,1819,512,0,0
602,512,0,0,0,0,0,0,0,0,0,-1,1826,512,0,0
609,512,0,0,0,0,0,0,0,0,0,-1,1833,512,0,0
616,512,0,0,0,0,0,0,0,0,0,-1,1840,512,0,0
623,512,0,0,0,0,0,0,0,0,0,-1,1847,512,0,0
630,512,0,0,0,0,0,0,0,0,0,-1,1854,512,0,0
637,512,0,0,0,0,0,0,0,0,0,-1,1861,512,0,0
644,512,0,0,0,0,0,0,0,0,0,-1,1868,512,0,0
651,512,0,0,0,0,0,0,0,0,0,-1,1875,512,0,0
658,512,0,0,0,0,0,0,0,0,0,-1,1882,512,0,0
665,512,0,0,0,0,0,0,0,0,0,-1,1889,512,0,0
672,512,0,0,0,0,0,0,0,0,0,-1,1896,512,0,0
679,512,0,0,0,0,0,0,0,0,0,-1,1903,512,0,0
686,512,0,0,0,0,0,0,0,0,0,-1,1910,512,0,0
693,512,0,0,0,0,0,0,0,0,0,-1,1917,512,0,0
700,512,0,0,0,0,0,0,0,0,0,-1,1924,512,0,0
707,512,0,0,0,0,0,0,0,0,0,-1,1931,512,0,0
714,512,0,0,0,0,0,0,0,0,0,-1,1938,512,0,0
721,512,0,0,0,0,0,0,0,0,0,-1,1945,512,0,0
728,512,0,0,0,0,0,0,0,0,0,-1,1952,512,0,0
735,512,0,0,0,0,0,0,0,0,0,-1,1959,512,0,0
742,512,0,0,0,0,0,0,0,0,0,-1,1966,512,0,0
749,512,0,0,0,0,0,0,0,0,0,-1,1973,512,0,0
756,512,0,0,0,0,0,0,0,0,0,-1,1980,512,0,0
763,512,0,0,0,0,0,0,0,0,0,-1,1987,512,0,0
770,512,0,0,0,0,0,0,0,0,0,-1,1994,512,0,0
777,512,0,0,0,0,0,0,0,0,0,-1,2001,512,0,0
784,512,0,0,0,0,0,0,0,0,0,-1,2008,512,0,0
791,512,0,0,0,0,0,0,0,0,0,-1,2015,512,0,0
798,512,0,0,0,0,0,0,0,0,0,-1,2022,512,0,0
805,512,0,0,0,0,0,0,0,0,0,-1,2029,512,0,0
812,512,0,0,0,0,0,0,0,0,0,-1,2036,512,0,0
-700,505,0,0,0,0,0,0,0,0,0,-1,524,519,0,0
-693,505,0,0,0,0,0,0,0,0,0,-1,531,519,0,0
-686,505,0,0,0,0,0,0,0,0,0,-1,538,519,0,0
-679,505,0,0,0,0,0,0,0,0,0,-1,545,519,0,0
-672,505,0,0,0,0,0,0,0,0,0,-1,552,519,0,0
-665,505,0,0,0,0,0,0,0,0,0,-1,559,519,0,0
-658,505,0,0,0,0,0,0,0,0,0,-1,566,519,0,0
-651,505,0,0,0,0,0,0,0,0,0,-1,573,519,0,0
-644,505,0,0,0,0,0,0,0,0,0,-1,580,519,0,0
-637,505,0,0,0,0,0,0,0,0,0,-1,587,519,0,0
-630,505,0,0,0,0,0,0,0,0,0,-1,594,519,0,0
-623,505,0,0,0,0,0,0,0,0,0,-1,601,519,0,0
-616,505,0,0,0,0,0,0,0,0,0,-1,608,519,0,0
-609,505,0,0,0,0,0,0,0,0,0,-1,615,519,0,0
-602,505,0,0,0,0,0,0,0,0,0,-1,622,519,0,0
-595,505,0,0,0,0,0,0,0,0,0,-1,629,519,0,0
-588,505,0,0,0,0,0,0,0,0,0,-1,636,519,0,0
-581,505,0,0,0,0,0,0,0,0,0,-1,643,519,0,0
-574,505,0,0,0,0,0,0,0,0,0,-1,650,519,0,0
-567,505,0,0,0,0,0,0,0,0,0,-1,657,519,0,0
-560,505,0,0,0,0,0,0,0,0,0,-1,664,519,0,0
-553,505,0,0,0,0,0,0,0,0,0,-1,671,519,0,0
-546,505,0,0,0,0,0,0,0,0,0,-1,678,519,0,0
-539,505,0,0,0,0,0,0,0,0,0,-1,685,519,0,0
-532,505,0,0,0,0,0,0,0,0,0,-1,692,519,0,0
-525,505,0,0,0,0,0,0,0,0,0,-1,699,519,0,0
-518,505,0,0,0,0,0,0,0,0,0,-1,706,519,0,0
-511,505,0,0,0,0,0,0,0,0,0,-1,713,519,0,0
-504,505,0,0,0,0,0,0,0,0,0,-1,720,519,0,0
-497,505,0,0,0,0,0,0,0,0,0,-1,727,519,0,0
-490,505,0,0,0,0,0,0,0,0,0,-1,734,519,0,0
-483,505,0,0,0,0,0,0,0,0,0,-1,741,519,0,0
-476,505,0,0,0,0,0,0,0,0,0,-1,748,519,0,0
-469,505,0,0,0,0,0,0,0,0,0,-1,755,519,0,0
-462,505,0,0,0,0,0,0,0,0,0,-1,762,519,0,0
-455,505,0.0583496,-1.02118,0.00780314,-0.0341504,-0.0126444,0.0113194,-0.0376666,-0.271232,0.0296143,0.0431545,769,519,0.0583658,1.02119
-448,505,0.0495605,-1.09113,0.00763448,-0.0306105,-0.011736,0.0109486,-0.0339247,-0.275226,0.0270159,0.0421292,776,519,0.0495593,1.09112
-441,505,1.29156,-1.86719,0.00805179,-0.0275301,-0.0111723,0.0112689,-0.0307472,-0.280368,0.0251119,0.0452535,783,519,1.29159,1.86718
-434,505,0.168762,-0.0698242,0,0,0,0,0,0,0,-1,790,519,0.168774,0.0698237
-427,505,-0.127197,-0.424683,0,0,0,0,0,0,0,-1,797,519,-0.127219,0.424712
-420,505,-0.255676,-0.273193,0.00802693,-0.0160959,-0.0090653,0.0110538,-0.0191228,-0.322261,0.0176289,0.043181,804,519,-0.255667,0.273172
-413,505,-0.281128,-0.14093,0.0080018,-0.0131835,-0.00826339,0.0108437,-0.0160254,-0.331246,0.0156088,0.0450091,811,519,-0.281149,0.140911
-406,505,-0.288696,-0.0447998,0.00792896,-0.010441,-0.00768226,0.0107182,-0.0132302,-0.348271,0.0138519,0.0448433,818,519,-0.288669,0.0448142
-399,505,-0.124084,0.0773315,0.00720497,-0.00756524,-0.00688935,0.00991952,-0.0102798,-0.375341,0.0116627,0.0378682,825,519,-0.124103,-0.0773138
-392,505,-0.00830078,0.0490723,0.00619891,-0.00488545,-0.00652445,0.00921735,-0.00790389,-0.433312,0.00989465,0.017435,832,519,-0.00827327,-0.0490685
-385,505,-0.0334473,0.0531006,0.00477493,-0.00434117,-0.00492365,0.00692644,-0.00649268,-0.411969,0.00774888,0.00861256,839,519,-0.0334775,-0.0531231
-378,505,-0.0385132,0.0539551,0.003602,-0.00280625,-0.00396993,0.00549952,-0.00470377,-0.445871,0.00589684,0.0101722,846,519,-0.0385185,-0.0539712
-371,505,-0.0284424,0.0232544,0.00281852,-0.000984451,-0.00327629,0.00470513,-0.00287107,-0.522465,0.00441664,0.0130735,853,519,-0.0284656,-0.0232849
-364,505,-0.0289917,0.0241699,0.00228119,-0.000146325,-0.00238868,0.0037468,-0.00161193,-0.550333,0.00317465,0.0145042,860,519,-0.0289902,-0.0241981
-357,505,-0.00579834,0.0605469,0.00155865,0.000692727,-0.00148037,0.00266807,-0.000416697,-0.643132,0.00193265,0.0111367,867,519,-0.00577244,-0.0605313
-350,505,-0.0126343,0.0601196,0.00103053,0.00114959,-0.000935035,0.00202699,0.000153134,-0.817188,0.00130328,0.0100755,874,519,-0.012648,-0.0600961
-343,505,-0.0403442,0.0493164,0.0011767,0.00190256,-0.000249902,0.00198028,0.00109898,-1.26929,0.00114561,0.00833432,881,519,-0.0403238,-0.0493183
-336,505,-0.0421753,0.0631104,0.00148304,0.00255124,0.000105881,0.00256163,0.00147265,1.47294,0.00148448,0.00921077,888,519,-0.0421501,-0.063086
-329,505,-0.0396729,0.0648804,0.00188884,0.00294789,0.000651271,0.00325774,0.00157899,1.12673,0.00188115,0.0108172,895,519,-0.0396949,-0.0648804
-322,505,-0.0507202,0.0453491,0.00196454,0.0030139,0.000983692,0.00360409,0.00137435,1.03039,0.00210027,0.011682,902,519,-0.050697,-0.0453406
-315,505,-0.0513306,0.0369263,0.00180098,0.0025598,0.00111437,0.00335758,0.0010032,0.949478,0.00199014,0.0113709,909,519,-0.0513414,-0.0369188
-308,505,-0.0255127,0.0326538,0.00174712,0.00233377,0.00142772,0.00349799,0.000582902,0.886715,0.00216402,0.011926,916,519,-0.0255316,-0.0326478
-301,505,-0.0177612,0.0210571,0.00168799,0.00178904,0.00148081,0.00322019,0.000256844,0.802452,0.00206651,0.014761,923,519,-0.0177821,-0.0210526
-294,505,-0.0152588,0.0646362,0.00158356,0.00108912,0.00139261,0.00275072,-7.80423e-05,0.697552,0.00186037,0.0158832,930,519,-0.0152634,-0.0646568
-287,505,-0.0251465,0.0655518,0.00105025,0.00111357,0.000928652,0.0020111,0.000152719,0.802438,0.00129284,0.0221539,937,519,-0.0251259,-0.0655349
-280,505,0.00506592,0.0215454,0.000516599,0.00194058,0.000769627,0.00227705,0.000180136,1.15866,0.00146169,0.0318422,944,519,0.0050379,-0.0215259
-273,505,0.0735474,0.0211182,-0.000310701,0.00312285,0.00187903,0.00395128,-0.00113913,1.15555,0.00308482,0.0364191,951,519,0.073518,-0.0211306
-266,505,-0.041748,0.142456,-0.00065469,0.00507605,0.00343753,0.00668583,-0.00226447,1.13283,0.00537351,0.0431577,958,519,-0.041748,-0.142463
-259,505,-0.0508423,0.332642,-0.000218579,0.0075187,0.0055515,0.0104166,-0.00311644,1.08971,0.00818344,0.0443524,965,519,-0.0508427,-0.332629
-252,505,-0.160156,0.687073,6.38034e-05,0.0113186,0.00815423,0.0155987,-0.00421632,1.08743,0.012053,0.0419743,972,519,-0.160166,-0.687101
-245,505,0.257446,0.222412,-2.19968e-05,0.0155349,0.0116107,0.0217318,-0.00621898,1.08053,0.0169456,0.0479593,979,519,0.257454,-0.222404
-238,505,0.14563,-0.328796,0.00145341,0.0198422,0.0164083,0.0294566,-0.00816096,1.04078,0.0228491,0.048488,986,519,0.145652,0.328773
-231,505,-1.5025,-1.62921,0,0,0,0,0,0,0,-1,993,519,-1.50252,1.62922
-224,505,-2.34741,-0.629761,0.00615801,0.0272693,0.0281206,0.0467501,-0.0133228,0.964946,0.036429,0.0458329,1000,519,-2.34739,0.629747
-217,505,-2.63379,-0.407227,0.00955524,0.0283075,0.0332727,0.0534999,-0.0156372,0.922735,0.0418641,0.0471067,1007,519,-2.63381,0.407212
-210,505,-2.02277,-0.401367,0.0132052,0.0281418,0.0387608,0.0601472,-0.0188002,0.88057,0.0476184,0.0469434,1014,519,-2.02278,0.401378
-203,505,-1.85834,-0.365234,0.0168253,0.0234193,0.0410818,0.0613362,-0.0210917,0.825439,0.0494443,0.0462692,1021,519,-1.85834,0.365253
-196,505,-1.66785,-0.496338,0,0,0,0,0,0,0,-1,1028,519,-1.66785,0.496364
-189,505,-1.54248,-0.885864,0.0254552,0.0141246,0.0387792,0.0589807,-0.0194009,0.712866,0.0471376,0.0457747,1035,519,-1.54249,0.885867
-182,505,0.203857,0.498108,0,0,0,0,0,0,0,-1,1042,519,0.203836,-0.498129
-175,505,0.346802,0.815979,0,0,0,0,0,0,0,-1,1049,519,0.346838,-0.815971
-168,505,0,0,0,0,0,0,0,0,0,-1,1056,519,0,0
-161,505,0,0,0,0,0,0,0,0,0,-1,1063,519,0,0
-154,505,0,0,0,0,0,0,0,0,0,-1,1070,519,0,0
-147,505,0,0,0,0,0,0,0,0,0,-1,1077,519,0,0
-140,505,0,0,0,0,0,0,0,0,0,-1,1084,519,0,0
-133,505,0,0,0,0,0,0,0,0,0,-1,1091,519,0,0
-126,505,0,0,0,0,0,0,0,0,0,-1,1098,519,0,0
-119,505,0,0,0,0,0,0,0,0,0,-1,1105,519,0,0
-112,505,0,0,0,0,0,0,0,0,0,-1,1112,519,0,0
-105,505,0,0,0,0,0,0,0,0,0,-1,1119,519,0,0
-98,505,0,0,0,0,0,0,0,0,0,-1,1126,519,0,0
-91,505,0,0,0,0,0,0,0,0,0,-1,1133,519,0,0
-84,505,0,0,0,0,0,0,0,0,0,-1,1140,519,0,0
-77,505,0,0,0,0,0,0,0,0,0,-1,1147,519,0,0
-70,505,0,0,0,0,0,0,0,0,0,-1,1154,519,0,0
-63,505,0,0,0,0,0,0,0,0,0,-1,1161,519,0,0
-56,505,0,0,0,0,0,0,0,0,0,-1,1168,519,0,0
-49,505,0,0,0,0,0,0,0,0,0,-1,1175,519,0,0
-42,505,0,0,0,0,0,0,0,0,0,-1,1182,519,0,0
-35,505,0,0,0,0,0,0,0,0,0,-1,1189,519,0,0
-28,505,0,0,0,0,0,0,0,0,0,-1,1196,519,0,0
-21,505,0,0,0,0,0,0,0,0,0,-1,1203,519,0,0
-14,505,0,0,0,0,0,0,0,0,0,-1,1210,519,0,0
-7,505,0,0,0,0,0,0,0,0,0,-1,1217,519,0,0
0,505,0,0,0,0,0,0,0,0,0,-1,1224,519,0,0
7,505,0,0,0,0,0,0,0,0,0,-1,1231,519,0,0
14,505,0,0,0,0,0,0,0,0,0,-1,1238,519,0,0
21,505,0,0,0,0,0,0,0,0,0,-1,1245,519,0,0
28,505,0,0,0,0,0,0,0,0,0,-1,1252,519,0,0
35,505,0,0,0,0,0,0,0,0,0,-1,1259,519,0,0
42,505,0,0,0,0,0,0,0,0,0,-1,1266,519,0,0
49,505,0,0,0,0,0,0,0,0,0,-1,1273,519,0,0
56,505,0,0,0,0,0,0,0,0,0,-1,1280,519,0,0
63,505,0,0,0,0,0,0,0,0,0,-1,1287,519,0,0
70,505,0,0,0,0,0,0,0,0,0,-1,1294,519,0,0
77,505,0,0,0,0,0,0,0,0,0,-1,1301,519,0,0
84,505,0,0,0,0,0,0,0,0,0,-1,1308,519,0,0
91,505,0,0,0,0,0,0,0,0,0,-1,1315,519,0,0
98,505,0,0,0,0,0,0,0,0,0,-1,1322,519,0,0
105,505,0,0,0,0,0,0,0,0,0,-1,1329,519,0,0
112,505,0,0,0,0,0,0,0,0,0,-1,1336,519,0,0
119,505,0,0,0,0,0,0,0,0,0,-1,1343,519,0,0
126,505,0,0,0,0,0,0,0,0,0,-1,1350,519,0,0
133,505,0,0,0,0,0,0,0,0,0,-1,1357,519,0,0
140,505,0,0,0,0,0,0,0,0,0,-1,1364,519,0,0
147,505,0,0,0,0,0,0,0,0,0,-1,1371,519,0,0
154,505,0,0,0,0,0,0,0,0,0,-1,1378,519,0,0
161,505,0,0,0,0,0,0,0,0,0,-1,1385,519,0,0
168,505,0,0,0,0,0,0,0,0,0,-1,1392,519,0,0
175,505,0,0,0,0,0,0,0,0,0,-1,1399,519,0,0
182,505,0,0,0,0,0,0,0,0,0,-1,1406,519,0,0
189,505,0,0,0,0,0,0,0,0,0,-1,1413,519,0,0
196,505,0,0,0,0,0,0,0,0,0,-1,1420,519,0,0
203,505,0,0,0,0,0,0,0,0,0,-1,1427,519,0,0
210,505,0,0,0,0,0,0,0,0,0,-1,1434,519,0,0
217,505,0,0,0,0,0,0,0,0,0,-1,1441,519,0,0
224,505,0,0,0,0,0,0,0,0,0,-1,1448,519,0,0
231,505,0,0,0,0,0,0,0,0,0,-1,1455,519,0,0
238,505,0,0,0,0,0,0,0,0,0,-1,1462,519,0,0
245,505,0,0,0,0,0,0,0,0,0,-1,1469,519,0,0
252,505,0,0,0,0,0,0,0,0,0,-1,1476,519,0,0
259,505,0,0,0,0,0,0,0,0,0,-1,1483,519,0,0
266,505,0,0,0,0,0,0,0,0,0,-1,1490,519,0,0
273,505,0,0,0,0,0,0,0,0,0,-1,1497,519,0,0
280,505,0,0,0,0,0,0,0,0,0,-1,1504,519,0,0
287,505,-0.0167236,-0.189331,0,0,0,0,0,0,0,-1,1511,519,-0.0166653,0.189344
294,505,0.0361328,-0.0147095,-0.00946925,0.015516,-0.0034428,0.0159817,-0.00993497,-1.43634,0.0150981,0.0394387,1518,519,0.0361501,0.0147184
301,505,0.333496,0.413879,-0.00874718,0.0148471,-0.00699757,0.0167663,-0.0106664,-1.30311,0.0159683,0.0430748,1525,519,0.333485,-0.413896
308,505,0.4104,0.314941,-0.0104536,0.0150702,-0.0107362,0.0189856,-0.0143689,-1.22109,0.0193186,0.0387232,1532,519,0.4104,-0.314912
315,505,0.530273,0.944641,0,0,0,0,0,0,0,-1,1539,519,0.530255,-0.944646
322,505,0.123779,0.699829,0,0,0,0,0,0,0,-1,1546,519,0.123754,-0.699808
329,505,-0.0339355,0.77533,0,0,0,0,0,0,0,-1,1553,519,-0.0339058,-0.7753
336,505,1.34265,0.0487061,0,0,0,0,0,0,0,-1,1560,519,1.3427,-0.0487052
343,505,1.17517,-0.299744,0,0,0,0,0,0,0,-1,1567,519,1.17516,0.299768
350,505,1.33167,-0.48468,-0.0198439,0.0336184,0.00285947,0.0337709,-0.0199964,1.51751,0.0313803,0.0449479,1574,519,1.3317,0.484686
357,505,0.463623,-0.740479,-0.0194369,0.0353354,0.00727941,0.0362863,-0.0203878,1.4409,0.0331472,0.0424031,1581,519,0.463608,0.740505
364,505,-0.0999756,-0.571045,-0.0174755,0.0359434,0.0114489,0.0382937,-0.0198258,1.36832,0.0341153,0.0437607,1588,519,-0.0999225,0.571027
371,505,-0.414307,-0.439026,-0.0152187,0.0352881,0.0153916,0.039609,-0.0195395,1.29711,0.0347985,0.0457142,1595,519,-0.414307,0.439044
378,505,0.0594482,-0.240356,-0.0131297,0.0329792,0.01844,0.0394466,-0.0195971,1.23347,0.0347251,0.0416537,1602,519,0.0594221,0.240343
385,505,0.0284424,-0.265198,-0.00911995,0.0285726,0.0188241,0.0363633,-0.0169107,1.17839,0.0314338,0.0414467,1609,519,0.0284512,0.265206
392,505,-0.104492,-0.272705,-0.00615407,0.0241878,0.0179536,0.032522,-0.0144882,1.13619,0.0277991,0.0450149,1616,519,-0.104511,0.272716
399,505,-0.216919,-0.0935059,-0.00402973,0.0192257,0.0156966,0.0271323,-0.0119363,1.10418,0.023118,0.0447877,1623,519,-0.216926,0.0934888
406,505,-0.203247,-0.0466309,-0.00191817,0.0145478,0.0134844,0.0221139,-0.00948425,1.05947,0.0187226,0.0403456,1630,519,-0.203221,0.0466447
413,505,-0.0964355,0.00671387,-0.000635188,0.0101137,0.0104814,0.0165183,-0.00703972,1.0223,0.0139634,0.035129,1637,519,-0.0963896,-0.00673236
420,505,0.00268555,0.0465698,-0.000458427,0.00633383,0.00739187,0.0110724,-0.005197,1.00074,0.00959514,0.0238913,1644,519,0.00264349,-0.0465498
427,505,-0.0181885,0.0304565,-0.000601879,0.00275817,0.00503221,0.00638339,-0.0042271,0.946508,0.00616799,0.0119369,1651,519,-0.0181664,-0.0304489
434,505,-0.0407715,0.0388794,-0.000774792,-0.000444495,0.00200797,0.0014051,-0.00262439,0.826429,0.00236166,0.00932031,1658,519,-0.0407116,-0.0389006
441,505,-0.0488281,0.0565796,-0.000651829,-0.00176262,-1.75708e-05,-0.000651551,-0.0017629,-0.015813,0.00102928,0.0101905,1665,519,-0.0488785,-0.0565573
448,505,-0.0330811,0.0640259,-0.000267979,-0.00236085,-0.0007724,-1.37887e-05,-0.00261504,-0.317928,0.00173878,0.0105026,1672,519,-0.033083,-0.0640342
455,505,-0.0379639,0.064209,2.20292e-05,-0.00267552,-0.000796147,0.000239474,-0.00289297,-0.266619,0.00201322,0.0105598,1679,519,-0.0379291,-0.0642137
462,505,-0.0635986,0.0699463,0.000443301,-0.00280429,-0.000915886,0.00068379,-0.00304478,-0.256779,0.00229204,0.0104052,1686,519,-0.0636078,-0.0699199
469,505,-0.0593262,0.0675049,0.000576192,-0.00281901,-0.000962615,0.000830123,-0.00307294,-0.257918,0.00237421,0.0106172,1693,519,-0.0592827,-0.0674775
476,505,-0.0516357,0.0656128,0.000787907,-0.0027629,-0.000758048,0.000942968,-0.00291796,-0.20177,0.00232429,0.0106016,1700,519,-0.0516368,-0.0656365
483,505,-0.0526123,0.0493774,0.000923756,-0.00294537,-0.000550447,0.00100054,-0.00302216,-0.138604,0.00241829,0.0110469,1707,519,-0.0525875,-0.0494054
490,505,-0.0479736,0.0405884,0.00111624,-0.00336854,-0.000264254,0.00113175,-0.00338406,-0.058652,0.00271315,0.0108585,1714,519,-0.0480307,-0.0406032
497,505,-0.0373535,0.055542,0.00134516,-0.00406305,-4.81254e-05,0.00134559,-0.00406348,-0.00889764,0.00325168,0.0115039,1721,519,-0.0373913,-0.0555423
504,505,-0.0216064,0.065918,0.00132693,-0.00468472,0.000207509,0.00133409,-0.00469187,0.0344632,0.0036547,0.0131652,1728,519,-0.021631,-0.0659043
511,505,-0.0164795,0.0561523,0.00123093,-0.00538423,0.00051728,0.00127113,-0.00542444,0.0775678,0.00410612,0.0141766,1735,519,-0.0164271,-0.0561597
518,505,-0.0167236,0.0438232,0.000796073,-0.00570798,0.000685058,0.000867446,-0.00577935,0.10381,0.00417222,0.0172575,1742,519,-0.0167747,-0.043807
525,505,0.00866699,0.0162964,0.00027665,-0.00601422,0.000672352,0.000347706,-0.00608527,0.105293,0.00417758,0.0234085,1749,519,0.00871569,-0.0162722
532,505,-0.000488281,0.0543213,-5.47849e-05,-0.00596027,0.000728342,3.37174e-05,-0.00604877,0.120919,0.0040438,0.0372831,1756,519,-0.000512254,-0.0543486
539,505,-0.0921631,0.264832,-0.000279502,-0.00562203,0.000734729,-0.000180301,-0.00572123,0.134206,0.0037555,0.0416887,1763,519,-0.0922043,-0.264844
546,505,-0.190063,0.434326,-0.000821132,-0.00478541,0.000579122,-0.000738264,-0.00486828,0.142129,0.00302957,0.0440062,1770,519,-0.190118,-0.43432
553,505,-0.212524,0.500549,-0.00151758,-0.00386385,0.000234913,-0.00149429,-0.00388714,0.0988151,0.00226414,0.0489065,1777,519,-0.21256,-0.500529
560,505,-0.396362,0.344482,-0.00193838,-0.00211952,-0.000269825,-0.00174433,-0.00231357,-0.623474,0.00139199,0.0481716,1784,519,-0.39635,-0.344462
567,505,-0.502441,0.275818,-0.00253708,0.000430919,-0.000571909,0.000537308,-0.00264347,-1.38688,0.00196604,0.04414,1791,519,-0.502385,-0.275799
574,505,-0.655518,0.201721,-0.00266634,0.00306388,-0.00147126,0.00341956,-0.00302201,-1.3336,0.0037214,0.0423296,1798,519,-0.655523,-0.201696
581,505,0,0,0,0,0,0,0,0,0,-1,1805,519,0,0
588,505,0,0,0,0,0,0,0,0,0,-1,1812,519,0,0
595,505,0,0,0,0,0,0,0,0,0,-1,1819,519,0,0
602,505,0,0,0,0,0,0,0,0,0,-1,1826,519,0,0
609,505,0,0,0,0,0,0,0,0,0,-1,1833,519,0,0
616,505,0,0,0,0,0,0,0,0,0,-1,1840,519,0,0
623,505,0,0,0,0,0,0,0,0,0,-1,1847,519,0,0
630,505,0,0,0,0,0,0,0,0,0,-1,1854,519,0,0
637,505,0,0,0,0,0,0,0,0,0,-1,1861,519,0,0
644,505,0,0,0,0,0,0,0,0,0,-1,1868,519,0,0
651,505,0,0,0,0,0,0,0,0,0,-1,1875,519,0,0
658,505,0,0,0,0,0,0,0,0,0,-1,1882,519,0,0
665,505,0,0,0,0,0,0,0,0,0,-1,1889,519,0,0
672,505,0,0,0,0,0,0,0,0,0,-1,1896,519,0,0
679,505,0,0,0,0,0,0,0,0,0,-1,1903,519,0,0
686,505,0,0,0,0,0,0,0,0,0,-1,1910,519,0,0
693,505,0,0,0,0,0,0,0,0,0,-1,1917,519,0,0
700,505,0,0,0,0,0,0,0,0,0,-1,1924,519,0,0
707,505,0,0,0,0,0,0,0,0,0,-1,1931,519,0,0
714,505,0,0,0,0,0,0,0,0,0,-1,1938,519,0,0
721,505,0,0,0,0,0,0,0,0,0,-1,1945,519,0,0
728,505,0,0,0,0,0,0,0,0,0,-1,1952,519,0,0
735,505,0,0,0,0,0,0,0,0,0,-1,1959,519,0,0
742,505,0,0,0,0,0,0,0,0,0,-1,1966,519,0,0
749,505,0,0,0,0,0,0,0,0,0,-1,1973,519,0,0
756,505,0,0,0,0,0,0,0,0,0,-1,1980,519,0,0
763,505,0,0,0,0,0,0,0,0,0,-1,1987,519,0,0
770,505,0,0,0,0,0,0,0,0,0,-1,1994,519,0,0
777,505,0,0,0,0,0,0,0,0,0,-1,2001,519,0,0
784,505,0,0,0,0,0,0,0,0,0,-1,2008,519,0,0
791,505,0,0,0,0,0,0,0,0,0,-1,2015,519,0,0
798,505,0,0,0,0,0,0,0,0,0,-1,2022,519,0,0
805,505,0,0,0,0,0,0,0,0,0,-1,2029,519,0,0
812,505,0,0,0,0,0,0,0,0,0,-1,2036,519,0,0
-700,498,0,0,0,0,0,0,0,0,0,-1,524,526,0,0
-693,498,0,0,0,0,0,0,0,0,0,-1,531,526,0,0
-686,498,0,0,0,0,0,0,0,0,0,-1,538,526,0,0
-679,498,0,0,0,0,0,0,0,0,0,-1,545,526,0,0
-672,498,0,0,0,0,0,0,0,0,0,-1,552,526,0,0
-665,498,0,0,0,0,0,0,0,0,0,-1,559,526,0,0
-658,498,0,0,0,0,0,0,0,0,0,-1,566,526,0,0
-651,498,0,0,0,0,0,0,0,0,0,-1,573,526,0,0
-644,498,0,0,0,0,0,0,0,0,0,-1,580,526,0,0
-637,498,0,0,0,0,0,0,0,0,0,-1,587,526,0,0
-630,498,0,0,0,0,0,0,0,0,0,-1,594,526,0,0
-623,498,0,0,0,0,0,0,0,0,0,-1,601,526,0,0
-616,498,0,0,0,0,0,0,0,0,0,-1,608,526,0,0
-609,498,0,0,0,0,0,0,0,0,0,-1,615,526,0,0
-602,498,0,0,0,0,0,0,0,0,0,-1,622,526,0,0
-595,498,0,0,0,0,0,0,0,0,0,-1,629,526,0,0
-588,498,0,0,0,0,0,0,0,0,0,-1,636,526,0,0
-581,498,0,0,0,0,0,0,0,0,0,-1,643,526,0,0
-574,498,0,0,0,0,0,0,0,0,0,-1,650,526,0,0
-567,498,0,0,0,0,0,0,0,0,0,-1,657,526,0,0
-560,498,0,0,0,0,0,0,0,0,0,-1,664,526,0,0
-553,498,0,0,0,0,0,0,0,0,0,-1,671,526,0,0
-546,498,0,0,0,0,0,0,0,0,0,-1,678,526,0,0
-539,498,0,0,0,0,0,0,0,0,0,-1,685,526,0,0
-532,498,0,0,0,0,0,0,0,0,0,-1,692,526,0,0
-525,498,0,0,0,0,0,0,0,0,0,-1,699,526,0,0
-518,498,0,0,0,0,0,0,0,0,0,-1,706,526,0,0
-511,498,0,0,0,0,0,0,0,0,0,-1,713,526,0,0
-504,498,0,0,0,0,0,0,0,0,0,-1,720,526,0,0
-497,498,0,0,0,0,0,0,0,0,0,-1,727,526,0,0
-490,498,0,0,0,0,0,0,0,0,0,-1,734,526,0,0
-483,498,0,0,0,0,0,0,0,0,0,-1,741,526,0,0
-476,498,0,0,0,0,0,0,0,0,0,-1,748,526,0,0
-469,498,0,0,0,0,0,0,0,0,0,-1,755,526,0,0
-462,498,0.313782,-0.449097,0,0,0,0,0,0,0,-1,762,526,0.313774,0.449118
-455,498,0.21228,-0.50531,0.00322503,-0.0264716,-0.0119106,0.00741181,-0.0306584,-0.338026,0.0233057,0.0398427,769,526,0.21231,0.505289
-448,498,0.222473,-0.620972,0.00285807,-0.0244065,-0.0107079,0.00656069,-0.0281091,-0.332914,0.0212663,0.0411547,776,526,0.222455,0.620948
-441,498,0.509399,-0.0889282,0,0,0,0,0,0,0,-1,783,526,0.509407,0.088906
-434,498,0.253235,-0.0391846,0,0,0,0,0,0,0,-1,790,526,0.253214,0.0392006
-427,498,0.391357,-0.168762,0,0,0,0,0,0,0,-1,797,526,0.391363,0.16877
-420,498,0.144775,-0.128357,0.00462691,-0.013132,-0.00634676,0.00666194,-0.015167,-0.310284,0.0129179,0.0426767,804,526,0.144787,0.128339
-413,498,-0.160217,-0.0759888,0.00515098,-0.0107417,-0.00545416,0.0068427,-0.0124334,-0.300761,0.011284,0.0403243,811,526,-0.160219,0.0759849
-406,498,0.0958862,0.153992,0.00555954,-0.00851912,-0.00500421,0.00715701,-0.0101166,-0.309,0.0100216,0.0356602,818,526,0.0958729,-0.153964
-399,498,0.0405273,0.10376,0.0051362,-0.00620828,-0.004435,0.0066642,-0.00773629,-0.331796,0.0083218,0.0214199,825,526,0.0404972,-0.103752
-392,498,0.00317383,0.0693359,0.0044268,-0.00398631,-0.00426401,0.00620998,-0.00576949,-0.396091,0.00691791,0.0105546,832,526,0.00318109,-0.0693582
-385,498,-0.0219727,0.0653687,0.00334378,-0.00352329,-0.00313914,0.00456248,-0.00474199,-0.370318,0.00537228,0.00811334,839,526,-0.0219913,-0.0653929
-378,498,-0.0346069,0.0638428,0.00252284,-0.00219888,-0.00260787,0.00367974,-0.00335578,-0.417535,0.00406339,0.00915631,846,526,-0.0345814,-0.0638717
-371,498,-0.0233154,0.0519409,0.00191017,-0.000639521,-0.00224572,0.00321767,-0.00194702,-0.527241,0.00301177,0.0148739,853,526,-0.0233268,-0.0519174
-364,498,-0.0222778,0.0365601,0.0015387,0.00032414,-0.0016638,0.00270258,-0.000839747,-0.610413,0.00213735,0.015385,860,526,-0.0223036,-0.0365843
-357,498,-0.0245972,0.0507202,0.00101653,0.00128103,-0.0010297,0.00218694,0.00011062,-0.849268,0.00142252,0.00990665,867,526,-0.0246171,-0.0507249
-350,498,-0.0245361,0.055542,0.000771964,0.00194537,-0.000652669,0.00223628,0.000481059,-1.15151,0.00135918,0.00987989,874,526,-0.0245313,-0.0555228
-343,498,-0.0302734,0.0456543,0.00128495,0.0030903,1.87314e-05,0.00309049,0.00128475,1.56042,0.00179273,0.0105338,881,526,-0.030295,-0.0456637
-336,498,-0.0185547,0.0569458,0.0018761,0.00413782,0.000325605,0.00418376,0.00183016,1.43062,0.00242179,0.0136961,888,526,-0.0185501,-0.056964
-329,498,-0.0232544,0.0495605,0.00246904,0.00479611,0.000935079,0.00512529,0.00213987,1.23231,0.00297248,0.0170145,895,526,-0.0232424,-0.0495851
-322,498,-0.0410767,0.0261841,0.00264691,0.00491405,0.0013582,0.00554957,0.00201139,1.13315,0.00324421,0.0145798,902,526,-0.0410609,-0.0261561
-315,498,-0.0492554,0.0307007,0.00252508,0.0044188,0.00150158,0.00524713,0.00169675,1.0667,0.0030918,0.0128563,909,526,-0.0492524,-0.0307235
-308,498,-0.0455322,0.0506592,0.00257832,0.00411535,0.0019175,0.0054126,0.00128106,0.975992,0.00326623,0.0108583,916,526,-0.0455134,-0.0506866
-301,498,-0.0526123,0.0351563,0.00260193,0.00344395,0.00200962,0.00507618,0.000969698,0.888653,0.00311167,0.0137201,923,526,-0.0525866,-0.035168
-294,498,-0.0344849,0.0444946,0.00252448,0.00253046,0.00194376,0.00447123,0.000583708,0.786167,0.00280655,0.0256435,930,526,-0.0344931,-0.044496
-287,498,0.0917969,0.0272827,0.00200574,0.00238618,0.00150433,0.00371227,0.000679651,0.848289,0.00228228,0.0366659,937,526,0.0918142,-0.0272532
-280,498,0.140686,-0.0134888,0.00160821,0.00306462,0.00129209,0.00381958,0.000853249,1.04201,0.00231499,0.0406991,944,526,0.140659,0.0135022
-273,498,-0.00848389,-0.158081,0.000824992,0.00421371,0.0024123,0.00546724,-0.000428537,1.09156,0.00379574,0.0409798,951,526,-0.00849025,0.158079
-266,498,-0.279419,0.116028,0.000442336,0.00632791,0.00402756,0.00837324,-0.00160299,1.1009,0.00618611,0.0435042,958,526,-0.27941,-0.116057
-259,498,-0.282288,0.342224,0.000981455,0.00898785,0.00627965,0.0124318,-0.00246247,1.06916,0.00921895,0.0427823,965,526,-0.28227,-0.342215
-252,498,-0.137268,0.614014,0.00147945,0.0132055,0.0090727,0.0181448,-0.00345979,1.07226,0.0133995,0.0425964,972,526,-0.137297,-0.613988
-245,498,-0.0321045,0.962158,0,0,0,0,0,0,0,-1,979,526,-0.0320923,-0.962133
-238,498,0.367371,0.190308,0,0,0,0,0,0,0,-1,986,526,0.367369,-0.190281
-231,498,-2.18457,-1.08673,0,0,0,0,0,0,0,-1,993,526,-2.18455,1.08671
-224,498,-2.67889,-0.880554,0.00999669,0.0330183,0.0314296,0.0549786,-0.0119636,0.960933,0.0412231,0.0473724,1000,526,-2.67887,0.880564
-217,498,-3.17651,-0.690125,0.014475,0.035142,0.0374665,0.063674,-0.0140569,0.919956,0.0478285,0.0469024,1007,526,-3.17653,0.690142
-210,498,-3.03857,-0.593567,0.0195585,0.0359381,0.044204,0.0727046,-0.017208,0.876996,0.0551087,0.0476317,1014,526,-3.03855,0.593549
-203,498,-2.88898,-0.572815,0,0,0,0,0,0,0,-1,1021,526,-2.88896,0.57283
-196,498,-2.83801,-0.799744,0,0,0,0,0,0,0,-1,1028,526,-2.83797,0.799719
-189,498,-2.3634,-1.38831,0,0,0,0,0,0,0,-1,1035,526,-2.36336,1.3883
-182,498,0,0,0,0,0,0,0,0,0,-1,1042,526,0,0
-175,498,0,0,0,0,0,0,0,0,0,-1,1049,526,0,0
-168,498,0,0,0,0,0,0,0,0,0,-1,1056,526,0,0
-161,498,0,0,0,0,0,0,0,0,0,-1,1063,526,0,0
-154,498,0,0,0,0,0,0,0,0,0,-1,1070,526,0,0
-147,498,0,0,0,0,0,0,0,0,0,-1,1077,526,0,0
-140,498,0,0,0,0,0,0,0,0,0,-1,1084,526,0,0
-133,498,0,0,0,0,0,0,0,0,0,-1,1091,526,0,0
-126,498,0,0,0,0,0,0,0,0,0,-1,1098,526,0,0
-119,498,0,0,0,0,0,0,0,0,0,-1,1105,526,0,0
-112,498,0,0,0,0,0,0,0,0,0,-1,1112,526,0,0
-105,498,0,0,0,0,0,0,0,0,0,-1,1119,526,0,0
-98,498,0,0,0,0,0,0,0,0,0,-1,1126,526,0,0
-91,498,0,0,0,0,0,0,0,0,0,-1,1133,526,0,0
-84,498,0,0,0,0,0,0,0,0,0,-1,1140,526,0,0
-77,498,0,0,0,0,0,0,0,0,0,-1,1147,526,0,0
-70,498,0,0,0,0,0,0,0,0,0,-1,1154,526,0,0
-63,498,0,0,0,0,0,0,0,0,0,-1,1161,526,0,0
-56,498,0,0,0,0,0,0,0,0,0,-1,1168,526,0,0
-49,498,0,0,0,0,0,0,0,0,0,-1,1175,526,0,0
-42,498,0,0,0,0,0,0,0,0,0,-1,1182,526,0,0
-35,498,0,0,0,0,0,0,0,0,0,-1,1189,526,0,0
-28,498,0,0,0,0,0,0,0,0,0,-1,1196,526,0,0
-21,498,0,0,0,0,0,0,0,0,0,-1,1203,526,0,0
-14,498,0,0,0,0,0,0,0,0,0,-1,1210,526,0,0
-7,498,0,0,0,0,0,0,0,0,0,-1,1217,526,0,0
0,498,0,0,0,0,0,0,0,0,0,-1,1224,526,0,0
7,498,0,0,0,0,0,0,0,0,0,-1,1231,526,0,0
14,498,0,0,0,0,0,0,0,0,0,-1,1238,526,0,0
21,498,0,0,0,0,0,0,0,0,0,-1,1245,526,0,0
28,498,0,0,0,0,0,0,0,0,0,-1,1252,526,0,0
35,498,0,0,0,0,0,0,0,0,0,-1,1259,526,0,0
42,498,0,0,0,0,0,0,0,0,0,-1,1266,526,0,0
49,498,0,0,0,0,0,0,0,0,0,-1,1273,526,0,0
56,498,0,0,0,0,0,0,0,0,0,-1,1280,526,0,0
63,498,0,0,0,0,0,0,0,0,0,-1,1287,526,0,0
70,498,0,0,0,0,0,0,0,0,0,-1,1294,526,0,0
77,498,0,0,0,0,0,0,0,0,0,-1,1301,526,0,0
84,498,0,0,0,0,0,0,0,0,0,-1,1308,526,0,0
91,498,0,0,0,0,0,0,0,0,0,-1,1315,526,0,0
98,498,0,0,0,0,0,0,0,0,0,-1,1322,526,0,0
105,498,0,0,0,0,0,0,0,0,0,-1,1329,526,0,0
112,498,0,0,0,0,0,0,0,0,0,-1,1336,526,0,0
119,498,0,0,0,0,0,0,0,0,0,-1,1343,526,0,0
126,498,0,0,0,0,0,0,0,0,0,-1,1350,526,0,0
133,498,0,0,0,0,0,0,0,0,0,-1,1357,526,0,0
140,498,0,0,0,0,0,0,0,0,0,-1,1364,526,0,0
147,498,0,0,0,0,0,0,0,0,0,-1,1371,526,0,0
154,498,0,0,0,0,0,0,0,0,0,-1,1378,526,0,0
161,498,0,0,0,0,0,0,0,0,0,-1,1385,526,0,0
168,498,0,0,0,0,0,0,0,0,0,-1,1392,526,0,0
175,498,0,0,0,0,0,0,0,0,0,-1,1399,526,0,0
182,498,0,0,0,0,0,0,0,0,0,-1,1406,526,0,0
189,498,0,0,0,0,0,0,0,0,0,-1,1413,526,0,0
196,498,0,0,0,0,0,0,0,0,0,-1,1420,526,0,0
203,498,0,0,0,0,0,0,0,0,0,-1,1427,526,0,0
210,498,0,0,0,0,0,0,0,0,0,-1,1434,526,0,0
217,498,0,0,0,0,0,0,0,0,0,-1,1441,526,0,0
224,498,0,0,0,0,0,0,0,0,0,-1,1448,526,0,0
231,498,0,0,0,0,0,0,0,0,0,-1,1455,526,0,0
238,498,0,0,0,0,0,0,0,0,0,-1,1462,526,0,0
245,498,0,0,0,0,0,0,0,0,0,-1,1469,526,0,0
252,498,0,0,0,0,0,0,0,0,0,-1,1476,526,0,0
259,498,0,0,0,0,0,0,0,0,0,-1,1483,526,0,0
266,498,0,0,0,0,0,0,0,0,0,-1,1490,526,0,0
273,498,0,0,0,0,0,0,0,0,0,-1,1497,526,0,0
280,498,0,0,0,0,0,0,0,0,0,-1,1504,526,0,0
287,498,0,0,0,0,0,0,0,0,0,-1,1511,526,0,0
294,498,0,0,0,0,0,0,0,0,0,-1,1518,526,0,0
301,498,0,0,0,0,0,0,0,0,0,-1,1525,526,0,0
308,498,0.220825,-0.0679321,-0.015056,0.0226384,-0.0138535,0.0271822,-0.0195997,-1.25387,0.0271276,0.0402079,1532,526,0.220824,0.0679221
315,498,0.256714,0.158142,0,0,0,0,0,0,0,-1,1539,526,0.25675,-0.158161
322,498,0.119995,0.391418,-0.0264931,0.0283739,-0.0238755,0.0373085,-0.0354276,-1.21271,0.0419989,0.0413135,1546,526,0.119972,-0.391445
329,498,-0.158691,0.291992,-0.0269228,0.0367721,-0.011497,0.0387838,-0.0289345,-1.39758,0.0392348,0.0423799,1553,526,-0.15864,-0.291999
336,498,-0.303345,-0.241577,-0.0244612,0.0373963,-0.000643747,0.037403,-0.0244679,-1.56039,0.0359805,0.0455163,1560,526,-0.303365,0.24156
343,498,2.53589,-0.50885,0,0,0,0,0,0,0,-1,1567,526,2.53587,0.508822
350,498,2.31946,-0.55011,-0.0233792,0.039954,0.0107799,0.0417385,-0.0251638,1.40674,0.0390192,0.0479222,1574,526,2.31948,0.550097
357,498,0.932495,-0.953064,-0.0227144,0.0411231,0.0153841,0.044637,-0.0262284,1.34623,0.0413718,0.0481743,1581,526,0.932474,0.953068
364,498,0.681519,-2.2691,0,0,0,0,0,0,0,-1,1588,526,0.68154,2.26908
371,498,0.490723,-1.85876,-0.017703,0.0405325,0.0242366,0.0492995,-0.02647,1.22371,0.0444025,0.0472492,1595,526,0.490744,1.85876
378,498,0.28833,-1.33392,-0.0150256,0.0378463,0.0272018,0.0493419,-0.0265211,1.17096,0.0444552,0.0440983,1602,526,0.288379,1.33394
385,498,0.325928,-0.785217,-0.0104921,0.0325425,0.0268455,0.0454298,-0.0233794,1.12323,0.0404013,0.0430383,1609,526,0.32587,0.785246
392,498,0.0440674,-0.439941,-0.00721757,0.0272463,0.0248537,0.0402575,-0.0202288,1.08852,0.0355542,0.0424127,1616,526,0.0440821,0.439937
399,498,-0.327026,-0.196533,0,0,0,0,0,0,0,-1,1623,526,-0.327029,0.196539
406,498,-0.27832,-0.145203,-0.00252254,0.0156682,0.0177906,0.0265536,-0.013408,1.0217,0.0234842,0.0448939,1630,526,-0.278296,0.14522
413,498,-0.226563,-0.137695,-0.00106984,0.0104471,0.0136642,0.0195167,-0.0101394,0.984819,0.0174049,0.0436185,1637,526,-0.226623,0.137682
420,498,0.0145264,-0.0420532,-0.000809988,0.00597463,0.00960016,0.0127642,-0.00759956,0.955231,0.0118824,0.0390532,1644,526,0.0144926,0.0420729
427,498,-0.00891113,0.00152588,-0.000848381,0.00183834,0.00651261,0.00714469,-0.00615473,0.887107,0.00768551,0.0275797,1651,526,-0.00886742,-0.00151984
434,498,-0.0296631,0.0298462,-0.00089607,-0.00192769,0.0026173,0.00125576,-0.00407953,0.688106,0.00322093,0.0133444,1658,526,-0.0297041,-0.0298303
441,498,-0.0439453,0.0592651,-0.000691089,-0.00335812,3.75557e-05,-0.000690561,-0.00335864,0.0140778,0.00204809,0.00789226,1665,526,-0.0439786,-0.0592374
448,498,-0.024292,0.0665894,-0.000224279,-0.00396835,-0.000859867,-3.62445e-05,-0.00415639,-0.215289,0.00275892,0.00935126,1672,526,-0.0242352,-0.0665951
455,498,-0.0380859,0.0608521,0.000190309,-0.00418718,-0.000865796,0.000355328,-0.0043522,-0.18834,0.00302687,0.0127614,1679,526,-0.0380349,-0.0608521
462,498,-0.0606689,0.0493774,0.000688747,-0.00407814,-0.000935293,0.000865689,-0.00425509,-0.186974,0.003165,0.0138438,1686,526,-0.0607131,-0.0493668
469,498,-0.06604,0.0569458,0.000756932,-0.00376256,-0.000974428,0.000958072,-0.0039637,-0.20356,0.00301304,0.0124684,1693,526,-0.0660439,-0.0569626
476,498,-0.0491943,0.0574341,0.000906743,-0.00335155,-0.000734259,0.0010298,-0.0034746,-0.166045,0.00272531,0.0097272,1700,526,-0.0492412,-0.0574052
483,498,-0.0422363,0.060791,0.000971716,-0.00312802,-0.000505762,0.00103319,-0.00318949,-0.120949,0.00254171,0.00802968,1707,526,-0.0422457,-0.0607941
490,498,-0.0437012,0.0567017,0.00106335,-0.00301577,-0.000177997,0.0010711,-0.00302353,-0.0435257,0.00245198,0.00992045,1714,526,-0.0436716,-0.0566757
497,498,-0.0307617,0.0532227,0.00112969,-0.0031781,7.21742e-05,0.0011309,-0.00317931,0.0167481,0.00258048,0.0119892,1721,526,-0.0307325,-0.0531978
504,498,-0.010376,0.0634155,0.000941429,-0.00327918,0.000366859,0.000973079,-0.00331084,0.0860607,0.00259317,0.0147,1728,526,-0.0104144,-0.0634295
511,498,-0.0161133,0.0597534,0.000690275,-0.00349804,0.000717608,0.000809815,-0.00361758,0.165066,0.00272211,0.0152787,1735,526,-0.0161234,-0.0597781
518,498,-0.0247803,0.0452271,0.000164287,-0.00344937,0.00092063,0.000385312,-0.00367039,0.23562,0.00258496,0.014348,1742,526,-0.0247833,-0.0452127
525,498,0.0136719,0.0164185,-0.000387751,-0.00341526,0.000902268,-0.000139251,-0.00366376,0.268754,0.00239744,0.016074,1749,526,0.0136205,-0.0164008
532,498,0.0253906,-0.0213623,-0.000755103,-0.00308835,0.000922545,-0.000434413,-0.00340904,0.334548,0.00214262,0.0238351,1756,526,0.0254433,0.0213441
539,498,0.00512695,0.0519409,-0.00105967,-0.00257546,0.000932544,-0.000615879,-0.00301925,0.444173,0.00184218,0.0346491,1763,526,0.0051442,-0.0519413
546,498,-0.0457764,0.312073,-0.00162669,-0.00185304,0.000807613,-0.000924357,-0.00255537,0.715784,0.00149403,0.0430082,1770,526,-0.0457779,-0.312083
553,498,-0.212891,0.378174,-0.00228591,-0.00120483,0.00045209,-0.0010407,-0.00245004,1.22253,0.00141986,0.0479243,1777,526,-0.212945,-0.378202
560,498,-0.424072,0.205994,0,0,0,0,0,0,0,-1,1784,526,-0.424037,-0.206019
567,498,-0.315063,-0.19928,-0.00322652,0.0018957,-0.000451867,0.00193526,-0.00326608,-1.48348,0.00303558,0.0417151,1791,526,-0.315114,0.199273
574,498,-0.421997,-0.0187988,-0.00343824,0.00353705,-0.00127995,0.0037645,-0.00366569,-1.39493,0.00428995,0.0426963,1798,526,-0.421965,0.0188175
581,498,-0.379883,0.263611,-0.00311999,0.00498373,-0.00227905,0.0055807,-0.00371696,-1.31461,0.00540384,0.0468048,1805,526,-0.379922,-0.263603
588,498,0,0,0,0,0,0,0,0,0,-1,1812,526,0,0
595,498,0,0,0,0,0,0,0,0,0,-1,1819,526,0,0
602,498,0,0,0,0,0,0,0,0,0,-1,1826,526,0,0
609,498,0,0,0,0,0,0,0,0,0,-1,1833,526,0,0
616,498,0,0,0,0,0,0,0,0,0,-1,1840,526,0,0
623,498,0,0,0,0,0,0,0,0,0,-1,1847,526,0,0
630,498,0,0,0,0,0,0,0,0,0,-1,1854,526,0,0
637,498,0,0,0,0,0,0,0,0,0,-1,1861,526,0,0
644,498,0,0,0,0,0,0,0,0,0,-1,1868,526,0,0
651,498,0,0,0,0,0,0,0,0,0,-1,1875,526,0,0
658,498,0,0,0,0,0,0,0,0,0,-1,1882,526,0,0
665,498,0,0,0,0,0,0,0,0,0,-1,1889,526,0,0
672,498,0,0,0,0,0,0,0,0,0,-1,1896,526,0,0
679,498,0,0,0,0,0,0,0,0,0,-1,1903,526,0,0
686,498,0,0,0,0,0,0,0,0,0,-1,1910,526,0,0
693,498,0,0,0,0,0,0,0,0,0,-1,1917,526,0,0
700,498,0,0,0,0,0,0,0,0,0,-1,1924,526,0,0
707,498,0,0,0,0,0,0,0,0,0,-1,1931,526,0,0
714,498,0,0,0,0,0,0,0,0,0,-1,1938,526,0,0
721,498,0,0,0,0,0,0,0,0,0,-1,1945,526,0,0
728,498,0,0,0,0,0,0,0,0,0,-1,1952,526,0,0
735,498,0,0,0,0,0,0,0,0,0,-1,1959,526,0,0
742,498,0,0,0,0,0,0,0,0,0,-1,1966,526,0,0
749,498,0,0,0,0,0,0,0,0,0,-1,1973,526,0,0
756,498,0,0,0,0,0,0,0,0,0,-1,1980,526,0,0
763,498,0,0,0,0,0,0,0,0,0,-1,1987,526,0,0
770,498,0,0,0,0,0,0,0,0,0,-1,1994,526,0,0
777,498,0,0,0,0,0,0,0,0,0,-1,2001,526,0,0
784,498,0,0,0,0,0,0,0,0,0,-1,2008,526,0,0
791,498,0,0,0,0,0,0,0,0,0,-1,2015,526,0,0
798,498,0,0,0,0,0,0,0,0,0,-1,2022,526,0,0
805,498,0,0,0,0,0,0,0,0,0,-1,2029,526,0,0
812,498,0,0,0,0,0,0,0,0,0,-1,2036,526,0,0
-700,491,0,0,0,0,0,0,0,0,0,-1,524,533,0,0
-693,491,0,0,0,0,0,0,0,0,0,-1,531,533,0,0
-686,491,0,0,0,0,0,0,0,0,0,-1,538,533,0,0
-679,491,0,0,0,0,0,0,0,0,0,-1,545,533,0,0
-672,491,0,0,0,0,0,0,0,0,0,-1,552,533,0,0
-665,491,0,0,0,0,0,0,0,0,0,-1,559,533,0,0
-658,491,0,0,0,0,0,0,0,0,0,-1,566,533,0,0
-651,491,0,0,0,0,0,0,0,0,0,-1,573,533,0,0
-644,491,0,0,0,0,0,0,0,0,0,-1,580,533,0,0
-637,491,0,0,0,0,0,0,0,0,0,-1,587,533,0,0
-630,491,0,0,0,0,0,0,0,0,0,-1,594,533,0,0
-623,491,0,0,0,0,0,0,0,0,0,-1,601,533,0,0
-616,491,0,0,0,0,0,0,0,0,0,-1,608,533,0,0
-609,491,0,0,0,0,0,0,0,0,0,-1,615,533,0,0
-602,491,0,0,0,0,0,0,0,0,0,-1,622,533,0,0
-595,491,0,0,0,0,0,0,0,0,0,-1,629,533,0,0
-588,491,0,0,0,0,0,0,0,0,0,-1,636,533,0,0
-581,491,0,0,0,0,0,0,0,0,0,-1,643,533,0,0
-574,491,0,0,0,0,0,0,0,0,0,-1,650,533,0,0
-567,491,0,0,0,0,0,0,0,0,0,-1,657,533,0,0
-560,491,0,0,0,0,0,0,0,0,0,-1,664,533,0,0
-553,491,0,0,0,0,0,0,0,0,0,-1,671,533,0,0
-546,491,0,0,0,0,0,0,0,0,0,-1,678,533,0,0
-539,491,0,0,0,0,0,0,0,0,0,-1,685,533,0,0
-532,491,0,0,0,0,0,0,0,0,0,-1,692,533,0,0
-525,491,0,0,0,0,0,0,0,0,0,-1,699,533,0,0
-518,491,0,0,0,0,0,0,0,0,0,-1,706,533,0,0
-511,491,0,0,0,0,0,0,0,0,0,-1,713,533,0,0
-504,491,0,0,0,0,0,0,0,0,0,-1,720,533,0,0
-497,491,0,0,0,0,0,0,0,0,0,-1,727,533,0,0
-490,491,0,0,0,0,0,0,0,0,0,-1,734,533,0,0
-483,491,0,0,0,0,0,0,0,0,0,-1,741,533,0,0
-476,491,0,0,0,0,0,0,0,0,0,-1,748,533,0,0
-469,491,0.266541,-0.53241,0,0,0,0,0,0,0,-1,755,533,0.266564,0.532379
-462,491,0.697937,-0.416992,0,0,0,0,0,0,0,-1,762,533,0.697949,0.417007
-455,491,0.387207,-0.303101,-0.000860348,-0.0187453,-0.0114307,0.00471025,-0.0243159,-0.453464,0.0179875,0.0433046,769,533,0.387221,0.303123
-448,491,0.372253,-0.238159,-0.00118345,-0.0181347,-0.00994419,0.00340703,-0.0227252,-0.432479,0.0164041,0.0426167,776,533,0.372262,0.238168
-441,491,0.370483,-0.116821,-0.000554846,-0.0175672,-0.00862059,0.0030497,-0.0211718,-0.396039,0.0152332,0.0429351,783,533,0.370507,0.116811
-434,491,0.440002,-0.0918579,0.000505572,-0.0150972,-0.0071914,0.00331446,-0.017906,-0.372368,0.0131818,0.044079,790,533,0.439974,0.09183
-427,491,0.272339,-0.136597,0.00119876,-0.0133925,-0.00623786,0.00350194,-0.0156957,-0.353698,0.0118055,0.0433538,797,533,0.272363,0.136577
-420,491,0.185547,-0.0239868,0.00171763,-0.010237,-0.00469392,0.0033404,-0.0118597,-0.332854,0.00922383,0.0407784,804,533,0.185563,0.0239851
-413,491,-0.0239868,0.0150757,0.00275053,-0.00835468,-0.00375301,0.0038999,-0.00950406,-0.297184,0.00796105,0.0328294,811,533,-0.0239601,-0.0150856
-406,491,0.0199585,0.0899658,0.00360101,-0.00658683,-0.00342881,0.00464751,-0.00763333,-0.296228,0.00715985,0.0174423,818,533,0.019972,-0.0899944
-399,491,-0.0119019,0.0754395,0.00347131,-0.00478893,-0.00308389,0.00449563,-0.00581326,-0.320688,0.00596802,0.0102654,825,533,-0.0119227,-0.0754354
-392,491,-0.0214844,0.0679932,0.00303133,-0.00299343,-0.00304566,0.0043027,-0.00426479,-0.395446,0.00494646,0.00901587,832,533,-0.021481,-0.0679651
-385,491,-0.0344238,0.0690918,0.00224497,-0.00253085,-0.00231458,0.00318262,-0.00346851,-0.384903,0.00384121,0.00845084,839,533,-0.0343985,-0.069066
-378,491,-0.0441284,0.06073,0.00168049,-0.00136348,-0.00208011,0.00273597,-0.00241895,-0.46956,0.00297807,0.0117685,846,533,-0.0441126,-0.06072
-371,491,-0.0268555,0.0574951,0.00119366,1.4728e-05,-0.00193691,0.00262882,-0.00142043,-0.637684,0.00237228,0.0127483,853,533,-0.0268673,-0.0574905
-364,491,-0.0205078,0.0631714,0.000923635,0.00112475,-0.0015388,0.00256627,-0.000517892,-0.818025,0.00190707,0.0119972,860,533,-0.020538,-0.0631955
-357,491,-0.0319824,0.0535278,0.000562588,0.00224727,-0.00105939,0.00275838,5.14737e-05,-1.12128,0.00182201,0.0107528,867,533,-0.0320063,-0.053558
-350,491,-0.0349731,0.0401611,0.000562568,0.00313807,-0.000757775,0.00334448,0.000356155,-1.30486,0.00212093,0.0133194,874,533,-0.0349912,-0.0401494
-343,491,-0.0410767,0.0402222,0.0014227,0.00471945,-1.02028e-05,0.00471949,0.00142266,-1.5677,0.00279549,0.0200036,881,533,-0.0410671,-0.0402034
-336,491,-0.0314941,0.083313,0.00228805,0.0062156,0.000367675,0.00624972,0.00225393,1.47825,0.0036547,0.020559,888,533,-0.031521,-0.0832977
-329,491,-0.0814209,0.0452881,0.00307853,0.00721185,0.00115741,0.00751388,0.0027765,1.31554,0.0043871,0.0209594,895,533,-0.0814188,-0.0452859
-322,491,-0.0553589,0.0341187,0.00340875,0.00745261,0.00174008,0.00809828,0.00276308,1.21549,0.0047535,0.0177701,902,533,-0.0553848,-0.0341139
-315,491,-0.0351563,0.0653076,0.00339343,0.00693478,0.00193834,0.00778946,0.00253875,1.15551,0.0045872,0.0112709,909,533,-0.0351263,-0.0652797
-308,491,-0.00744629,0.0726929,0.00364125,0.00661302,0.00250908,0.00804318,0.00221109,1.05273,0.00479803,0.018489,916,533,-0.00744329,-0.0727197
-301,491,-0.0637817,0.0283813,0.00381161,0.00587399,0.00269968,0.00773272,0.00195288,0.967831,0.00464316,0.0316234,923,533,-0.0637608,-0.0283904
-294,491,-0.0491333,0.0291748,0.00382894,0.00472997,0.00270079,0.00701755,0.00154135,0.868042,0.0042586,0.0357523,930,533,-0.0491567,-0.0291931
-287,491,0.335754,0.0422363,0.00343762,0.00434275,0.00232011,0.00625402,0.00152635,0.881719,0.00376515,0.0389903,937,533,0.335761,-0.04222
-280,491,0.189575,0.0940552,0.00330705,0.00476789,0.00203147,0.00619626,0.00187868,0.957977,0.00366862,0.0409552,944,533,0.1896,-0.0940835
-273,491,-0.24353,-0.110413,0.00268369,0.00575659,0.00307114,0.00765417,0.000786106,1.01734,0.00486198,0.0417821,951,533,-0.243507,0.110404
-266,491,-0.397278,-0.289124,0.00226635,0.00791346,0.00460986,0.0104958,-0.000315949,1.06018,0.00710483,0.0429164,958,533,-0.397254,0.289103
-259,491,-0.396912,0.3526,0,0,0,0,0,0,0,-1,965,533,-0.396928,-0.352621
-252,491,-0.156738,0.507629,0,0,0,0,0,0,0,-1,972,533,-0.156739,-0.50765
-245,491,-4.28174,0.0346069,0,0,0,0,0,0,0,-1,979,533,-4.28172,-0.0346301
-238,491,-4.04999,-0.039856,0.00671364,0.0265385,0.0192487,0.0382771,-0.00502503,1.02317,0.0273474,0.048607,986,533,-4.04997,0.039854
-231,491,-3.88019,-0.286194,0.00989652,0.0330175,0.0264913,0.0503609,-0.00744684,0.991137,0.0363116,0.0455228,993,533,-3.88018,0.286202
-224,491,-2.79565,-0.880005,0.0148818,0.0389581,0.0338073,0.0628066,-0.00896672,0.956439,0.0451577,0.0425395,1000,533,-2.79564,0.880007
-217,491,-3.80579,-0.769958,0.0205805,0.0424766,0.0407667,0.0737397,-0.0106826,0.91658,0.0530802,0.0465379,1007,533,-3.8058,0.769978
-210,491,-3.80029,-0.759949,0.0271781,0.0446618,0.0488493,0.0855453,-0.0137054,0.873938,0.0621048,0.0461247,1014,533,-3.80027,0.75997
-203,491,-3.74994,-0.969421,0,0,0,0,0,0,0,-1,1021,533,-3.74995,0.969407
-196,491,0,0,0,0,0,0,0,0,0,-1,1028,533,0,0
-189,491,0,0,0,0,0,0,0,0,0,-1,1035,533,0,0
-182,491,0,0,0,0,0,0,0,0,0,-1,1042,533,0,0
-175,491,0,0,0,0,0,0,0,0,0,-1,1049,533,0,0
-168,491,0,0,0,0,0,0,0,0,0,-1,1056,533,0,0
-161,491,0,0,0,0,0,0,0,0,0,-1,1063,533,0,0
-154,491,0,0,0,0,0,0,0,0,0,-1,1070,533,0,0
-147,491,0,0,0,0,0,0,0,0,0,-1,1077,533,0,0
-140,491,0,0,0,0,0,0,0,0,0,-1,1084,533,0,0
-133,491,0,0,0,0,0,0,0,0,0,-1,1091,533,0,0
-126,491,0,0,0,0,0,0,0,0,0,-1,1098,533,0,0
-119,491,0,0,0,0,0,0,0,0,0,-1,1105,533,0,0
-112,491,0,0,0,0,0,0,0,0,0,-1,1112,533,0,0
-105,491,0,0,0,0,0,0,0,0,0,-1,1119,533,0,0
-98,491,0,0,0,0,0,0,0,0,0,-1,1126,533,0,0
-91,491,0,0,0,0,0,0,0,0,0,-1,1133,533,0,0
-84,491,0,0,0,0,0,0,0,0,0,-1,1140,533,0,0
-77,491,0,0,0,0,0,0,0,0,0,-1,1147,533,0,0
-70,491,0,0,0,0,0,0,0,0,0,-1,1154,533,0,0
-63,491,0,0,0,0,0,0,0,0,0,-1,1161,533,0,0
-56,491,0,0,0,0,0,0,0,0,0,-1,1168,533,0,0
-49,491,0,0,0,0,0,0,0,0,0,-1,1175,533,0,0
-42,491,0,0,0,0,0,0,0,0,0,-1,1182,533,0,0
-35,491,0,0,0,0,0,0,0,0,0,-1,1189,533,0,0
-28,491,0,0,0,0,0,0,0,0,0,-1,1196,533,0,0
-21,491,0,0,0,0,0,0,0,0,0,-1,1203,533,0,0
-14,491,0,0,0,0,0,0,0,0,0,-1,1210,533,0,0
-7,491,0,0,0,0,0,0,0,0,0,-1,1217,533,0,0
0,491,0,0,0,0,0,0,0,0,0,-1,1224,533,0,0
7,491,0,0,0,0,0,0,0,0,0,-1,1231,533,0,0
14,491,0,0,0,0,0,0,0,0,0,-1,1238,533,0,0
21,491,0,0,0,0,0,0,0,0,0,-1,1245,533,0,0
28,491,0,0,0,0,0,0,0,0,0,-1,1252,533,0,0
35,491,0,0,0,0,0,0,0,0,0,-1,1259,533,0,0
42,491,0,0,0,0,0,0,0,0,0,-1,1266,533,0,0
49,491,0,0,0,0,0,0,0,0,0,-1,1273,533,0,0
56,491,0,0,0,0,0,0,0,0,0,-1,1280,533,0,0
63,491,0,0,0,0,0,0,0,0,0,-1,1287,533,0,0
70,491,0,0,0,0,0,0,0,0,0,-1,1294,533,0,0
77,491,0,0,0,0,0,0,0,0,0,-1,1301,533,0,0
84,491,0,0,0,0,0,0,0,0,0,-1,1308,533,0,0
91,491,0,0,0,0,0,0,0,0,0,-1,1315,533,0,0
98,491,0,0,0,0,0,0,0,0,0,-1,1322,533,0,0
105,491,0,0,0,0,0,0,0,0,0,-1,1329,533,0,0
112,491,0,0,0,0,0,0,0,0,0,-1,1336,533,0,0
119,491,0,0,0,0,0,0,0,0,0,-1,1343,533,0,0
126,491,0,0,0,0,0,0,0,0,0,-1,1350,533,0,0
133,491,0,0,0,0,0,0,0,0,0,-1,1357,533,0,0
140,491,0,0,0,0,0,0,0,0,0,-1,1364,533,0,0
147,491,0,0,0,0,0,0,0,0,0,-1,1371,533,0,0
154,491,0,0,0,0,0,0,0,0,0,-1,1378,533,0,0
161,491,0,0,0,0,0,0,0,0,0,-1,1385,533,0,0
168,491,0,0,0,0,0,0,0,0,0,-1,1392,533,0,0
175,491,0,0,0,0,0,0,0,0,0,-1,1399,533,0,0
182,491,0,0,0,0,0,0,0,0,0,-1,1406,533,0,0
189,491,0,0,0,0,0,0,0,0,0,-1,1413,533,0,0
196,491,0,0,0,0,0,0,0,0,0,-1,1420,533,0,0
203,491,0,0,0,0,0,0,0,0,0,-1,1427,533,0,0
210,491,0,0,0,0,0,0,0,0,0,-1,1434,533,0,0
217,491,0,0,0,0,0,0,0,0,0,-1,1441,533,0,0
224,491,0,0,0,0,0,0,0,0,0,-1,1448,533,0,0
231,491,0,0,0,0,0,0,0,0,0,-1,1455,533,0,0
238,491,0,0,0,0,0,0,0,0,0,-1,1462,533,0,0
245,491,0,0,0,0,0,0,0,0,0,-1,1469,533,0,0
252,491,0,0,0,0,0,0,0,0,0,-1,1476,533,0,0
259,491,0,0,0,0,0,0,0,0,0,-1,1483,533,0,0
266,491,0,0,0,0,0,0,0,0,0,-1,1490,533,0,0
273,491,0,0,0,0,0,0,0,0,0,-1,1497,533,0,0
280,491,0,0,0,0,0,0,0,0,0,-1,1504,533,0,0
287,491,0,0,0,0,0,0,0,0,0,-1,1511,533,0,0
294,491,0,0,0,0,0,0,0,0,0,-1,1518,533,0,0
301,491,0,0,0,0,0,0,0,0,0,-1,1525,533,0,0
308,491,0,0,0,0,0,0,0,0,0,-1,1532,533,0,0
315,491,0,0,0,0,0,0,0,0,0,-1,1539,533,0,0
322,491,0.109375,0.0969849,-0.0384225,0.039896,-0.0265568,0.0480518,-0.0465783,-1.27283,0.0546369,0.0418157,1546,533,0.109423,-0.0970047
329,491,-0.118896,-0.124329,-0.0364708,0.0496579,-0.00495347,0.0499418,-0.0367548,-1.51354,0.0502469,0.0387387,1553,533,-0.11894,0.124321
336,491,-0.796021,-0.525818,-0.0298473,0.0454042,0.0107698,0.0469152,-0.0313583,1.43141,0.0454878,0.0447057,1560,533,-0.796058,0.525845
343,491,-0.806274,-1.08624,0,0,0,0,0,0,0,-1,1567,533,-0.806301,1.08623
350,491,3.0448,-0.733215,0,0,0,0,0,0,0,-1,1574,533,3.04477,0.733222
357,491,1.39246,-1.18658,0,0,0,0,0,0,0,-1,1581,533,1.39244,1.18656
364,491,1.5979,-3.34155,0,0,0,0,0,0,0,-1,1588,533,1.59785,3.34153
371,491,0.281372,-2.80536,0,0,0,0,0,0,0,-1,1595,533,0.281433,2.80536
378,491,0.267822,-2.46698,-0.0163704,0.0410624,0.0379251,0.0599164,-0.0352244,1.10944,0.0555428,0.0468373,1602,533,0.267848,2.46695
385,491,0.492554,-0.825745,-0.0114756,0.0348226,0.0362887,0.0547171,-0.0313701,1.06931,0.050308,0.041384,1609,533,0.492515,0.825761
392,491,0.233032,-0.378174,-0.00804804,0.0285896,0.0327069,0.0477584,-0.0272168,1.04068,0.0438252,0.0403885,1616,533,0.233087,0.378164
399,491,-0.275269,-0.208313,0,0,0,0,0,0,0,-1,1623,533,-0.275263,0.208285
406,491,-0.351074,-0.232239,-0.00318515,0.015175,0.0222675,0.0300805,-0.0180907,0.980914,0.0280973,0.044775,1630,533,-0.351073,0.232224
413,491,-0.454346,-0.260071,-0.00162407,0.00932131,0.0168157,0.0215325,-0.0138353,0.942718,0.0205802,0.0451894,1637,533,-0.454333,0.260057
420,491,0.17688,-0.350464,-0.00126729,0.00434306,0.0116802,0.0135503,-0.0104745,0.903248,0.0139085,0.0450426,1644,533,0.176927,0.350489
427,491,0.0959473,-0.0409546,-0.00117548,-0.000123956,0.00776639,0.00713444,-0.00843388,0.819195,0.00899881,0.0410893,1651,533,0.0959286,0.0409804
434,491,-0.0109863,0.0377808,-0.00110708,-0.00423218,0.00295228,0.00067066,-0.00600992,0.542004,0.00424785,0.0275235,1658,533,-0.0109958,-0.0377879
441,491,-0.0222168,0.0338745,-0.000836365,-0.00566452,-0.000200264,-0.000828072,-0.00567281,-0.0413837,0.0035383,0.015446,1665,533,-0.0222238,-0.0338544
448,491,-0.0310059,0.0566406,-0.00027581,-0.00618248,-0.00127819,-1.10778e-05,-0.00644721,-0.204227,0.00429445,0.010213,1672,533,-0.0309569,-0.0566563
455,491,-0.0402832,0.0588379,0.000289867,-0.00619609,-0.00131506,0.00054636,-0.00645258,-0.192624,0.00449492,0.0105057,1679,533,-0.0402387,-0.058819
462,491,-0.0449219,0.0477905,0.000859756,-0.00576363,-0.00136102,0.00112852,-0.0060324,-0.194966,0.00444578,0.0138444,1686,533,-0.0449745,-0.0477766
469,491,-0.0632324,0.0427246,0.000882749,-0.00507992,-0.00140653,0.00119788,-0.00539505,-0.220409,0.0040554,0.0135196,1693,533,-0.06324,-0.0427261
476,491,-0.0245361,0.0588989,0.000990178,-0.00429858,-0.00115497,0.0012314,-0.0045398,-0.205896,0.00350976,0.010046,1700,533,-0.0245019,-0.0589132
483,491,-0.0147705,0.0818481,0.000979793,-0.00369907,-0.000898113,0.00114626,-0.00386554,-0.183276,0.00303221,0.0115245,1707,533,-0.0148266,-0.0818378
490,491,-0.0253906,0.0602417,0.000974953,-0.00314423,-0.000506627,0.00103635,-0.00320562,-0.120598,0.00255362,0.0103975,1714,533,-0.0253798,-0.0602537
497,491,-0.0317383,0.0516357,0.000909699,-0.00287123,-0.000202476,0.000920511,-0.00288204,-0.0533487,0.0022907,0.0113397,1721,533,-0.0317505,-0.0516377
504,491,-0.0292969,0.0505371,0.000596852,-0.00256607,0.000171111,0.000606082,-0.0025753,0.0538894,0.00195054,0.0129175,1728,533,-0.0293263,-0.0505246
511,491,-0.0175781,0.0564575,0.000231576,-0.00239006,0.00059619,0.000360787,-0.00251927,0.213429,0.00181179,0.0124248,1735,533,-0.01752,-0.0564556
518,491,-0.0246582,0.0455933,-0.000337997,-0.00206136,0.00086792,2.33424e-05,-0.0024227,0.394502,0.00162297,0.00946505,1742,533,-0.0246916,-0.0455641
525,491,-0.02771,0.0357666,-0.000863599,-0.00177739,0.000878214,-0.000330538,-0.00231045,0.545538,0.0014428,0.00831423,1749,533,-0.0277127,-0.0357689
532,491,-0.0435791,0.0403442,-0.00120547,-0.00130752,0.000911893,-0.000343175,-0.00216981,0.757448,0.0013468,0.0116481,1756,533,-0.0436139,-0.0403429
539,491,-0.0297852,0.0405884,-0.00153434,-0.00073209,0.000969858,-8.36796e-05,-0.00218275,0.981483,0.00142809,0.0187501,1763,533,-0.0297484,-0.040614
546,491,-0.0970459,0.0759888,-0.00208309,-9.22524e-05,0.000897579,0.000252667,-0.00242801,1.20392,0.00170913,0.031875,1770,533,-0.0970946,-0.0759906
553,491,-0.252441,0.0408325,0,0,0,0,0,0,0,-1,1777,533,-0.252498,-0.0408294
560,491,0.175781,-0.280212,0,0,0,0,0,0,0,-1,1784,533,0.175819,0.280195
567,491,0.0135498,-0.088623,-0.00343019,0.00237911,-0.000425615,0.00241012,-0.0034612,-1.49805,0.00340787,0.0421313,1791,533,0.0135672,0.088595
574,491,-0.25769,0.151001,-0.00361654,0.00325312,-0.00119016,0.00345347,-0.00381689,-1.40402,0.00419929,0.0453674,1798,533,-0.257659,-0.151014
581,491,-0.274048,0.220581,-0.00342105,0.00375017,-0.00213688,0.00433863,-0.00400951,-1.30207,0.00482104,0.0441311,1805,533,-0.273995,-0.220562
588,491,0.138184,0.132874,-0.00288633,0.00387027,-0.00311112,0.00508457,-0.00410063,-1.19867,0.00531321,0.0433479,1812,533,0.138159,-0.132902
595,491,0,0,0,0,0,0,0,0,0,-1,1819,533,0,0
602,491,0,0,0,0,0,0,0,0,0,-1,1826,533,0,0
609,491,0,0,0,0,0,0,0,0,0,-1,1833,533,0,0
616,491,0,0,0,0,0,0,0,0,0,-1,1840,533,0,0
623,491,0,0,0,0,0,0,0,0,0,-1,1847,533,0,0
630,491,0,0,0,0,0,0,0,0,0,-1,1854,533,0,0
637,491,0,0,0,0,0,0,0,0,0,-1,1861,533,0,0
644,491,0,0,0,0,0,0,0,0,0,-1,1868,533,0,0
651,491,0,0,0,0,0,0,0,0,0,-1,1875,533,0,0
658,491,0,0,0,0,0,0,0,0,0,-1,1882,533,0,0
665,491,0,0,0,0,0,0,0,0,0,-1,1889,533,0,0
672,491,0,0,0,0,0,0,0,0,0,-1,1896,533,0,0
679,491,0,0,0,0,0,0,0,0,0,-1,1903,533,0,0
686,491,0,0,0,0,0,0,0,0,0,-1,1910,533,0,0
693,491,0,0,0,0,0,0,0,0,0,-1,1917,533,0,0
700,491,0,0,0,0,0,0,0,0,0,-1,1924,533,0,0
707,491,0,0,0,0,0,0,0,0,0,-1,1931,533,0,0
714,491,0,0,0,0,0,0,0,0,0,-1,1938,533,0,0
721,491,0,0,0,0,0,0,0,0,0,-1,1945,533,0,0
728,491,0,0,0,0,0,0,0,0,0,-1,1952,533,0,0
735,491,0,0,0,0,0,0,0,0,0,-1,1959,533,0,0
742,491,0,0,0,0,0,0,0,0,0,-1,1966,533,0,0
749,491,0,0,0,0,0,0,0,0,0,-1,1973,533,0,0
756,491,0,0,0,0,0,0,0,0,0,-1,1980,533,0,0
763,491,0,0,0,0,0,0,0,0,0,-1,1987,533,0,0
770,491,0,0,0,0,0,0,0,0,0,-1,1994,533,0,0
777,491,0,0,0,0,0,0,0,0,0,-1,2001,533,0,0
784,491,0,0,0,0,0,0,0,0,0,-1,2008,533,0,0
791,491,0,0,0,0,0,0,0,0,0,-1,2015,533,0,0
798,491,0,0,0,0,0,0,0,0,0,-1,2022,533,0,0
805,491,0,0,0,0,0,0,0,0,0,-1,2029,533,0,0
812,491,0,0,0,0,0,0,0,0,0,-1,2036,533,0,0
-700,484,0,0,0,0,0,0,0,0,0,-1,524,540,0,0
-693,484,0,0,0,0,0,0,0,0,0,-1,531,540,0,0
-686,484,0,0,0,0,0,0,0,0,0,-1,538,540,0,0
-679,484,0,0,0,0,0,0,0,0,0,-1,545,540,0,0
-672,484,0,0,0,0,0,0,0,0,0,-1,552,540,0,0
-665,484,0,0,0,0,0,0,0,0,0,-1,559,540,0,0
-658,484,0,0,0,0,0,0,0,0,0,-1,566,540,0,0
-651,484,0,0,0,0,0,0,0,0,0,-1,573,540,0,0
-644,484,0,0,0,0,0,0,0,0,0,-1,580,540,0,0
-637,484,0,0,0,0,0,0,0,0,0,-1,587,540,0,0
-630,484,0,0,0,0,0,0,0,0,0,-1,594,540,0,0
-623,484,0,0,0,0,0,0,0,0,0,-1,601,540,0,0
-616,484,0,0,0,0,0,0,0,0,0,-1,608,540,0,0
-609,484,0,0,0,0,0,0,0,0,0,-1,615,540,0,0
-602,484,0,0,0,0,0,0,0,0,0,-1,622,540,0,0
-595,484,0,0,0,0,0,0,0,0,0,-1,629,540,0,0
-588,484,0,0,0,0,0,0,0,0,0,-1,636,540,0,0
-581,484,0,0,0,0,0,0,0,0,0,-1,643,540,0,0
-574,484,0,0,0,0,0,0,0,0,0,-1,650,540,0,0
-567,484,0,0,0,0,0,0,0,0,0,-1,657,540,0,0
-560,484,0,0,0,0,0,0,0,0,0,-1,664,540,0,0
-553,484,0,0,0,0,0,0,0,0,0,-1,671,540,0,0
-546,484,0,0,0,0,0,0,0,0,0,-1,678,540,0,0
-539,484,0,0,0,0,0,0,0,0,0,-1,685,540,0,0
-532,484,0,0,0,0,0,0,0,0,0,-1,692,540,0,0
-525,484,0,0,0,0,0,0,0,0,0,-1,699,540,0,0
-518,484,0,0,0,0,0,0,0,0,0,-1,706,540,0,0
-511,484,0,0,0,0,0,0,0,0,0,-1,713,540,0,0
-504,484,0,0,0,0,0,0,0,0,0,-1,720,540,0,0
-497,484,0,0,0,0,0,0,0,0,0,-1,727,540,0,0
-490,484,0,0,0,0,0,0,0,0,0,-1,734,540,0,0
-483,484,0,0,0,0,0,0,0,0,0,-1,741,540,0,0
-476,484,0.595032,-0.815491,0.0137876,0.000633674,-0.0116357,0.0205765,-0.00615524,-0.528164,0.0161649,0.0481585,748,540,0.595002,0.815494
-469,484,0.6828,-0.374023,0.00454662,-0.00527264,-0.0122228,0.0128089,-0.013535,-0.594421,0.0152116,0.0461926,755,540,0.682793,0.374043
-462,484,0.69043,-0.270874,-0.000954821,-0.00867279,-0.011787,0.00758883,-0.0172164,-0.627201,0.0146765,0.045917,762,540,0.690446,0.270889
-455,484,0.385193,-0.154297,-0.00320459,-0.0106105,-0.0104233,0.00415397,-0.0179691,-0.614722,0.0135775,0.0450182,769,540,0.385166,0.154274
-448,484,0.312866,0.10083,-0.0036365,-0.0115717,-0.00889787,0.00213828,-0.0173465,-0.575677,0.012339,0.0429251,776,540,0.312863,-0.100802
-441,484,0.342224,0.02771,-0.00313125,-0.012405,-0.0075793,0.00111704,-0.0166533,-0.510879,0.0114927,0.0412008,783,540,0.342197,-0.0277097
-434,484,0.365051,0.00506592,-0.00189948,-0.0109164,-0.00599965,0.00109686,-0.0139127,-0.463183,0.00966156,0.0407918,790,540,0.365073,-0.00504964
-427,484,0.14978,0.039917,-0.00103236,-0.0100025,-0.00495297,0.00116446,-0.0121994,-0.417466,0.00854754,0.0362111,797,540,0.149762,-0.0398953
-420,484,0.0586548,0.0408325,-0.000167181,-0.00754666,-0.00326778,0.00107183,-0.00878567,-0.362412,0.00624513,0.028273,804,540,0.0586338,-0.0408209
-413,484,0.0146484,0.0913086,0.00123744,-0.00615441,-0.00229218,0.00189053,-0.0068075,-0.277567,0.00528251,0.0175836,811,540,0.0146308,-0.0912897
-406,484,-0.00689697,0.0740967,0.00241621,-0.00484653,-0.00209465,0.00297703,-0.00540734,-0.261601,0.00490804,0.0112572,818,540,-0.00686647,-0.0740895
-399,484,-0.0177612,0.0534668,0.00252266,-0.00351406,-0.0019867,0.00311781,-0.00410921,-0.291061,0.00418559,0.0149779,825,540,-0.0177463,-0.0534606
-392,484,-0.0454102,0.0516357,0.00229852,-0.00210312,-0.00213357,0.00316295,-0.00296754,-0.384942,0.00354004,0.0165092,832,540,-0.0453953,-0.0516503
-385,484,-0.0413208,0.0569458,0.00172042,-0.00165335,-0.00180083,0.00250104,-0.00243396,-0.409028,0.00284931,0.0117772,839,540,-0.0412958,-0.0569733
-378,484,-0.0373535,0.0623169,0.00132496,-0.00063186,-0.00188827,0.00247325,-0.00178015,-0.546367,0.00246655,0.0126801,846,540,-0.0373259,-0.0623138
-371,484,-0.0235596,0.0655518,0.000925889,0.000622345,-0.00202897,0.00280875,-0.00126052,-0.748066,0.00240541,0.0143487,853,540,-0.0235482,-0.0655484
-364,484,-0.0201416,0.0834351,0.0007018,0.00187465,-0.00186288,0.00324122,-0.000664772,-0.937886,0.00241312,0.0107086,860,540,-0.0201193,-0.0834596
-357,484,-0.0140381,0.0657959,0.000420356,0.00318445,-0.00158164,0.00390279,-0.000297991,-1.14447,0.00270667,0.0115665,867,540,-0.0140089,-0.0657798
-350,484,-0.0249023,0.0606689,0.000592874,0.00436557,-0.00137879,0.00481575,0.000142693,-1.2552,0.00316401,0.0132119,874,540,-0.0248773,-0.0606976
-343,484,-0.059021,0.0491943,0.00173935,0.00647693,-0.00055324,0.00654067,0.0016756,-1.45608,0.00392307,0.0187127,881,540,-0.0590157,-0.0491896
-336,484,-0.0216675,0.076416,0.00286473,0.00856023,-4.70694e-05,0.00856062,0.00286434,-1.56253,0.00503182,0.0215688,888,540,-0.0216942,-0.0764333
-329,484,-0.128723,0.0742798,0.00385928,0.0100569,0.00100752,0.0102165,0.00369961,1.41362,0.00597281,0.0216002,895,540,-0.128752,-0.0742939
-322,484,-0.050354,0.0567627,0.00437521,0.0105879,0.00186222,0.0111033,0.00385978,1.30077,0.00650898,0.0177846,902,540,-0.050372,-0.0567589
-315,484,-0.0220947,0.069519,0.00452801,0.0101525,0.00219848,0.0109098,0.00377066,1.23904,0.00639809,0.0179145,909,540,-0.0220822,-0.0695138
-308,484,0.0681763,0.0830078,0.0049998,0.00999991,0.00308471,0.0114705,0.00352924,1.12594,0.00678381,0.0318025,916,540,0.0682056,-0.0829837
-301,484,-0.0541382,-0.0111084,0.0053619,0.00933663,0.00350678,0.01138,0.00331849,1.04319,0.00675781,0.0420387,923,540,-0.0541543,0.0111282
-294,484,-0.200256,-0.0737305,0,0,0,0,0,0,0,-1,930,540,-0.200259,0.0737031
-287,484,0.708496,0.429504,0.00554472,0.00726844,0.00344915,0.00996177,0.00285138,0.907829,0.00592406,0.0398173,937,540,0.708468,-0.429514
-280,484,0.0349731,0.474487,0.00590099,0.00731116,0.00306354,0.00974971,0.00346244,0.898505,0.00570721,0.0437263,944,540,0.034965,-0.474511
-273,484,-0.177429,0.176758,0.00550198,0.00798228,0.00388071,0.0108162,0.00266807,0.940053,0.00650641,0.0447613,951,540,-0.177457,-0.176742
-266,484,-0.401917,0.121521,0.00505401,0.010003,0.00516292,0.0132538,0.00180322,1.00887,0.00830033,0.0449707,958,540,-0.401923,-0.121502
-259,484,-0.610657,0.300964,0,0,0,0,0,0,0,-1,965,540,-0.610675,-0.300971
-252,484,-5.07062,-0.128357,0,0,0,0,0,0,0,-1,972,540,-5.07063,0.12835
-245,484,-4.81506,-0.258728,0.00781475,0.0235526,0.013845,0.0316086,-0.000241315,1.04381,0.0211533,0.04618,979,540,-4.81508,0.258699
-238,484,-4.62408,-0.505493,0.0108286,0.0296901,0.0193922,0.0418232,-0.00130443,1.01172,0.0283269,0.0442007,986,540,-4.62407,0.505488
-231,484,-4.40863,-0.813599,0.014761,0.0371862,0.0268331,0.0550551,-0.00310791,0.983304,0.037782,0.0436662,993,540,-4.40864,0.813619
-224,484,-4.23633,-1.1582,0.0209365,0.0448519,0.0347185,0.0696142,-0.0038258,0.951245,0.0477358,0.0430418,1000,540,-4.23633,1.15821
-217,484,-4.2666,-1.15631,0.0279454,0.0499208,0.0426649,0.0829902,-0.00512397,0.911427,0.0571115,0.0448287,1007,540,-4.26661,1.15633
-210,484,0,0,0,0,0,0,0,0,0,-1,1014,540,0,0
-203,484,0,0,0,0,0,0,0,0,0,-1,1021,540,0,0
-196,484,0,0,0,0,0,0,0,0,0,-1,1028,540,0,0
-189,484,0,0,0,0,0,0,0,0,0,-1,1035,540,0,0
-182,484,0,0,0,0,0,0,0,0,0,-1,1042,540,0,0
-175,484,0,0,0,0,0,0,0,0,0,-1,1049,540,0,0
-168,484,0,0,0,0,0,0,0,0,0,-1,1056,540,0,0
-161,484,0,0,0,0,0,0,0,0,0,-1,1063,540,0,0
-154,484,0,0,0,0,0,0,0,0,0,-1,1070,540,0,0
-147,484,0,0,0,0,0,0,0,0,0,-1,1077,540,0,0
-140,484,0,0,0,0,0,0,0,0,0,-1,1084,540,0,0
-133,484,0,0,0,0,0,0,0,0,0,-1,1091,540,0,0
-126,484,0,0,0,0,0,0,0,0,0,-1,1098,540,0,0
-119,484,0,0,0,0,0,0,0,0,0,-1,1105,540,0,0
-112,484,0,0,0,0,0,0,0,0,0,-1,1112,540,0,0
-105,484,0,0,0,0,0,0,0,0,0,-1,1119,540,0,0
-98,484,0,0,0,0,0,0,0,0,0,-1,1126,540,0,0
-91,484,0,0,0,0,0,0,0,0,0,-1,1133,540,0,0
-84,484,0,0,0,0,0,0,0,0,0,-1,1140,540,0,0
-77,484,0,0,0,0,0,0,0,0,0,-1,1147,540,0,0
-70,484,0,0,0,0,0,0,0,0,0,-1,1154,540,0,0
-63,484,0,0,0,0,0,0,0,0,0,-1,1161,540,0,0
-56,484,0,0,0,0,0,0,0,0,0,-1,1168,540,0,0
-49,484,0,0,0,0,0,0,0,0,0,-1,1175,540,0,0
-42,484,0,0,0,0,0,0,0,0,0,-1,1182,540,0,0
-35,484,0,0,0,0,0,0,0,0,0,-1,1189,540,0,0
-28,484,0,0,0,0,0,0,0,0,0,-1,1196,540,0,0
-21,484,0,0,0,0,0,0,0,0,0,-1,1203,540,0,0
-14,484,0,0,0,0,0,0,0,0,0,-1,1210,540,0,0
-7,484,0,0,0,0,0,0,0,0,0,-1,1217,540,0,0
0,484,0,0,0,0,0,0,0,0,0,-1,1224,540,0,0
7,484,0,0,0,0,0,0,0,0,0,-1,1231,540,0,0
14,484,0,0,0,0,0,0,0,0,0,-1,1238,540,0,0
21,484,0,0,0,0,0,0,0,0,0,-1,1245,540,0,0
28,484,0,0,0,0,0,0,0,0,0,-1,1252,540,0,0
35,484,0,0,0,0,0,0,0,0,0,-1,1259,540,0,0
42,484,0,0,0,0,0,0,0,0,0,-1,1266,540,0,0
49,484,0,0,0,0,0,0,0,0,0,-1,1273,540,0,0
56,484,0,0,0,0,0,0,0,0,0,-1,1280,540,0,0
63,484,0,0,0,0,0,0,0,0,0,-1,1287,540,0,0
70,484,0,0,0,0,0,0,0,0,0,-1,1294,540,0,0
77,484,0,0,0,0,0,0,0,0,0,-1,1301,540,0,0
84,484,0,0,0,0,0,0,0,0,0,-1,1308,540,0,0
91,484,0,0,0,0,0,0,0,0,0,-1,1315,540,0,0
98,484,0,0,0,0,0,0,0,0,0,-1,1322,540,0,0
105,484,0,0,0,0,0,0,0,0,0,-1,1329,540,0,0
112,484,0,0,0,0,0,0,0,0,0,-1,1336,540,0,0
119,484,0,0,0,0,0,0,0,0,0,-1,1343,540,0,0
126,484,0,0,0,0,0,0,0,0,0,-1,1350,540,0,0
133,484,0,0,0,0,0,0,0,0,0,-1,1357,540,0,0
140,484,0,0,0,0,0,0,0,0,0,-1,1364,540,0,0
147,484,0,0,0,0,0,0,0,0,0,-1,1371,540,0,0
154,484,0,0,0,0,0,0,0,0,0,-1,1378,540,0,0
161,484,0,0,0,0,0,0,0,0,0,-1,1385,540,0,0
168,484,0,0,0,0,0,0,0,0,0,-1,1392,540,0,0
175,484,0,0,0,0,0,0,0,0,0,-1,1399,540,0,0
182,484,0,0,0,0,0,0,0,0,0,-1,1406,540,0,0
189,484,0,0,0,0,0,0,0,0,0,-1,1413,540,0,0
196,484,0,0,0,0,0,0,0,0,0,-1,1420,540,0,0
203,484,0,0,0,0,0,0,0,0,0,-1,1427,540,0,0
210,484,0,0,0,0,0,0,0,0,0,-1,1434,540,0,0
217,484,0,0,0,0,0,0,0,0,0,-1,1441,540,0,0
224,484,0,0,0,0,0,0,0,0,0,-1,1448,540,0,0
231,484,0,0,0,0,0,0,0,0,0,-1,1455,540,0,0
238,484,0,0,0,0,0,0,0,0,0,-1,1462,540,0,0
245,484,0,0,0,0,0,0,0,0,0,-1,1469,540,0,0
252,484,0,0,0,0,0,0,0,0,0,-1,1476,540,0,0
259,484,0,0,0,0,0,0,0,0,0,-1,1483,540,0,0
266,484,0,0,0,0,0,0,0,0,0,-1,1490,540,0,0
273,484,0,0,0,0,0,0,0,0,0,-1,1497,540,0,0
280,484,0,0,0,0,0,0,0,0,0,-1,1504,540,0,0
287,484,0,0,0,0,0,0,0,0,0,-1,1511,540,0,0
294,484,0,0,0,0,0,0,0,0,0,-1,1518,540,0,0
301,484,0,0,0,0,0,0,0,0,0,-1,1525,540,0,0
308,484,0,0,0,0,0,0,0,0,0,-1,1532,540,0,0
315,484,0,0,0,0,0,0,0,0,0,-1,1539,540,0,0
322,484,0,0,0,0,0,0,0,0,0,-1,1546,540,0,0
329,484,0,0,0,0,0,0,0,0,0,-1,1553,540,0,0
336,484,-1.24622,-0.778198,0,0,0,0,0,0,0,-1,1560,540,-1.24616,0.778176
343,484,-0.874756,-1.0647,0,0,0,0,0,0,0,-1,1567,540,-0.874759,1.0647
350,484,-1.18457,1.18488,0,0,0,0,0,0,0,-1,1574,540,-1.18451,-1.18488
357,484,3.37451,-5.0257,0,0,0,0,0,0,0,-1,1581,540,3.37446,5.02569
364,484,2.30566,-4.47003,0,0,0,0,0,0,0,-1,1588,540,2.3057,4.47004
371,484,1.20349,-4.00964,0,0,0,0,0,0,0,-1,1595,540,1.20353,4.00965
378,484,0.396729,-3.52124,-0.0165316,0.0422638,0.0503216,0.0711455,-0.0454134,1.04976,0.0678397,0.0475333,1602,540,0.39674,3.52123
385,484,0.123779,-2.82733,-0.0111505,0.0353031,0.0467676,0.064294,-0.0401415,1.01588,0.060831,0.0467244,1609,540,0.123838,2.82733
392,484,-0.25061,-0.300293,-0.00761914,0.0283478,0.0412299,0.0553455,-0.0346169,0.991047,0.0523974,0.0424346,1616,540,-0.250634,0.300322
399,484,-0.297852,-0.207764,-0.00533902,0.0206331,0.0333683,0.0434532,-0.0281591,0.970967,0.0416585,0.0432205,1623,540,-0.297842,0.20777
406,484,-0.457275,-0.330444,-0.00285384,0.013631,0.0265833,0.0332203,-0.0224432,0.935728,0.0323375,0.0456205,1630,540,-0.457257,0.330461
413,484,0.311523,-0.147644,0,0,0,0,0,0,0,-1,1637,540,0.311529,0.147627
420,484,0.252075,0.0481567,-0.000871864,0.00220869,0.0132197,0.0139776,-0.0126407,0.843393,0.0153746,0.0467882,1644,540,0.252044,-0.0481793
427,484,0.127441,0.216187,-0.000765308,-0.00235375,0.00838755,0.00686554,-0.00998459,0.738194,0.00978383,0.0446973,1651,540,0.127383,-0.216184
434,484,0.00244141,0.310669,-0.000712303,-0.00661414,0.00263948,0.00029592,-0.00762236,0.364874,0.00518303,0.0415629,1658,540,0.00244733,-0.310697
441,484,-0.137939,0.16803,-0.000545659,-0.00795885,-0.00106905,-0.000394572,-0.00810994,-0.140399,0.00528002,0.038589,1665,540,-0.137964,-0.168051
448,484,-0.187622,0.152222,-5.96135e-05,-0.00838208,-0.00231012,0.000538617,-0.00898031,-0.253395,0.00617425,0.0274597,1672,540,-0.187673,-0.152244
455,484,-0.0806885,0.0977173,0.000475705,-0.0082071,-0.00233903,0.00106572,-0.00879711,-0.247092,0.00625034,0.0159451,1679,540,-0.0807312,-0.0976973
462,484,-0.0469971,0.0620117,0.00101212,-0.00751327,-0.00230639,0.00159607,-0.00809723,-0.247979,0.00600134,0.0131457,1686,540,-0.0470364,-0.0620403
469,484,-0.0401611,0.0505371,0.000915065,-0.00656968,-0.00225614,0.00154253,-0.00719715,-0.271261,0.00538641,0.0155528,1693,540,-0.0401247,-0.0505346
476,484,-0.0268555,0.0489502,0.000933824,-0.00552905,-0.00191582,0.00145905,-0.00605428,-0.26758,0.00460032,0.0136241,1700,540,-0.0268028,-0.0489724
483,484,-0.017334,0.0563965,0.000819122,-0.0046754,-0.00155149,0.00122695,-0.00508323,-0.257045,0.0038633,0.0110682,1707,540,-0.0173753,-0.056419
490,484,-0.0179443,0.0455322,0.000714942,-0.00380139,-0.00100678,0.000929209,-0.00401566,-0.209695,0.00303464,0.011898,1714,540,-0.017997,-0.0455466
497,484,-0.0201416,0.0314941,0.000621588,-0.00320723,-0.000602178,0.000714062,-0.0032997,-0.152376,0.00247243,0.0128431,1721,540,-0.0201942,-0.0314929
504,484,-0.0456543,0.0181885,0.000343399,-0.00262699,-0.000100225,0.000346777,-0.00263036,-0.0336902,0.00187986,0.0150173,1728,540,-0.0456995,-0.0181716
511,484,-0.0297852,0.0332642,-5.76384e-06,-0.00213096,0.000410666,7.08309e-05,-0.00220756,0.184395,0.00149587,0.0180034,1735,540,-0.0297562,-0.0332614
518,484,-0.0321045,0.043457,-0.000522675,-0.0015971,0.000759853,-0.000129311,-0.00199047,0.477694,0.00128604,0.0150071,1742,540,-0.0321022,-0.0434526
525,484,-0.0344238,0.0310059,-0.000941018,-0.00109777,0.000780396,-0.000235074,-0.00180372,0.735349,0.00113228,0.0126479,1749,540,-0.0344389,-0.0309916
532,484,-0.0360107,0.0288086,-0.00119646,-0.000519744,0.000815538,2.484e-05,-0.00174105,0.982037,0.00116907,0.0140787,1756,540,-0.036027,-0.028787
539,484,-0.0343018,0.0620117,-0.00151042,0.000114012,0.000899569,0.000513785,-0.0019102,1.1526,0.00147486,0.016944,1763,540,-0.0342931,-0.0619963
546,484,-0.0325928,0.0819702,-0.00203382,0.000708889,0.000858232,0.000955304,-0.00228023,1.2912,0.00191953,0.0184539,1770,540,-0.032582,-0.0819645
553,484,-0.118652,0.141479,-0.00262752,0.000914556,0.000571769,0.00100457,-0.00271752,1.41466,0.00222351,0.0296889,1777,540,-0.118708,-0.141477
560,484,0.362183,-0.105896,0,0,0,0,0,0,0,-1,1784,540,0.362211,0.105891
567,484,0.195679,0.105042,0,0,0,0,0,0,0,-1,1791,540,0.19564,-0.105063
574,484,-0.265625,-0.00891113,-0.00345164,0.00256844,-0.00114973,0.00278054,-0.00366375,-1.38836,0.00373224,0.0408738,1798,540,-0.265674,0.00889579
581,484,-0.277466,-0.0527954,-0.00337788,0.00245878,-0.00203176,0.00309639,-0.00401549,-1.26671,0.00411746,0.0408458,1805,540,-0.27752,0.0527844
588,484,0.074585,0.102478,-0.00317379,0.00183484,-0.00297778,0.00322139,-0.00456033,-1.13502,0.00451489,0.0432671,1812,540,0.0746011,-0.102461
595,484,0.128174,-0.0715332,-0.00289479,0.000749939,-0.00421561,0.00352022,-0.00566507,-0.989412,0.00535111,0.0434666,1819,540,0.12821,0.0715256
602,484,0,0,0,0,0,0,0,0,0,-1,1826,540,0,0
609,484,0,0,0,0,0,0,0,0,0,-1,1833,540,0,0
616,484,0,0,0,0,0,0,0,0,0,-1,1840,540,0,0
623,484,0,0,0,0,0,0,0,0,0,-1,1847,540,0,0
630,484,0,0,0,0,0,0,0,0,0,-1,1854,540,0,0
637,484,0,0,0,0,0,0,0,0,0,-1,1861,540,0,0
644,484,0,0,0,0,0,0,0,0,0,-1,1868,540,0,0
651,484,0,0,0,0,0,0,0,0,0,-1,1875,540,0,0
658,484,0,0,0,0,0,0,0,0,0,-1,1882,540,0,0
665,484,0,0,0,0,0,0,0,0,0,-1,1889,540,0,0
672,484,0,0,0,0,0,0,0,0,0,-1,1896,540,0,0
679,484,0,0,0,0,0,0,0,0,0,-1,1903,540,0,0
686,484,0,0,0,0,0,0,0,0,0,-1,1910,540,0,0
693,484,0,0,0,0,0,0,0,0,0,-1,1917,540,0,0
700,484,0,0,0,0,0,0,0,0,0,-1,1924,540,0,0
707,484,0,0,0,0,0,0,0,0,0,-1,1931,540,0,0
714,484,0,0,0,0,0,0,0,0,0,-1,1938,540,0,0
721,484,0,0,0,0,0,0,0,0,0,-1,1945,540,0,0
728,484,0,0,0,0,0,0,0,0,0,-1,1952,540,0,0
735,484,0,0,0,0,0,0,0,0,0,-1,1959,540,0,0
742,484,0,0,0,0,0,0,0,0,0,-1,1966,540,0,0
749,484,0,0,0,0,0,0,0,0,0,-1,1973,540,0,0
756,484,0,0,0,0,0,0,0,0,0,-1,1980,540,0,0
763,484,0,0,0,0,0,0,0,0,0,-1,1987,540,0,0
770,484,0,0,0,0,0,0,0,0,0,-1,1994,540,0,0
777,484,0,0,0,0,0,0,0,0,0,-1,2001,540,0,0
784,484,0,0,0,0,0,0,0,0,0,-1,2008,540,0,0
791,484,0,0,0,0,0,0,0,0,0,-1,2015,540,0,0
798,484,0,0,0,0,0,0,0,0,0,-1,2022,540,0,0
805,484,0,0,0,0,0,0,0,0,0,-1,2029,540,0,0
812,484,0,0,0,0,0,0,0,0,0,-1,2036,540,0,0
-700,477,0,0,0,0,0,0,0,0,0,-1,524,547,0,0
-693,477,0,0,0,0,0,0,0,0,0,-1,531,547,0,0
-686,477,0,0,0,0,0,0,0,0,0,-1,538,547,0,0
-679,477,0,0,0,0,0,0,0,0,0,-1,545,547,0,0
-672,477,0,0,0,0,0,0,0,0,0,-1,552,547,0,0
-665,477,0,0,0,0,0,0,0,0,0,-1,559,547,0,0
-658,477,0,0,0,0,0,0,0,0,0,-1,566,547,0,0
-651,477,0,0,0,0,0,0,0,0,0,-1,573,547,0,0
-644,477,0,0,0,0,0,0,0,0,0,-1,580,547,0,0
-637,477,0,0,0,0,0,0,0,0,0,-1,587,547,0,0
-630,477,0,0,0,0,0,0,0,0,0,-1,594,547,0,0
-623,477,0,0,0,0,0,0,0,0,0,-1,601,547,0,0
-616,477,0,0,0,0,0,0,0,0,0,-1,608,547,0,0
-609,477,0,0,0,0,0,0,0,0,0,-1,615,547,0,0
-602,477,0,0,0,0,0,0,0,0,0,-1,622,547,0,0
-595,477,0,0,0,0,0,0,0,0,0,-1,629,547,0,0
-588,477,0,0,0,0,0,0,0,0,0,-1,636,547,0,0
-581,477,0,0,0,0,0,0,0,0,0,-1,643,547,0,0
-574,477,0,0,0,0,0,0,0,0,0,-1,650,547,0,0
-567,477,0,0,0,0,0,0,0,0,0,-1,657,547,0,0
-560,477,0,0,0,0,0,0,0,0,0,-1,664,547,0,0
-553,477,0,0,0,0,0,0,0,0,0,-1,671,547,0,0
-546,477,0,0,0,0,0,0,0,0,0,-1,678,547,0,0
-539,477,0,0,0,0,0,0,0,0,0,-1,685,547,0,0
-532,477,0,0,0,0,0,0,0,0,0,-1,692,547,0,0
-525,477,0,0,0,0,0,0,0,0,0,-1,699,547,0,0
-518,477,0,0,0,0,0,0,0,0,0,-1,706,547,0,0
-511,477,0,0,0,0,0,0,0,0,0,-1,713,547,0,0
-504,477,0,0,0,0,0,0,0,0,0,-1,720,547,0,0
-497,477,0,0,0,0,0,0,0,0,0,-1,727,547,0,0
-490,477,0,0,0,0,0,0,0,0,0,-1,734,547,0,0
-483,477,0.903687,-1.12555,0,0,0,0,0,0,0,-1,741,547,0.903682,1.12553
-476,477,1.0014,-0.63501,0.0137569,0.0141138,-0.00944312,0.0233802,0.00449054,-0.794843,0.0143265,0.0401962,748,547,1.00141,0.634996
-469,477,1.07123,-0.179871,0.00467823,0.00612153,-0.0103142,0.0157393,-0.00493955,-0.820324,0.0124699,0.0421304,755,547,1.07123,0.179842
-462,477,0.637329,-0.0606689,-0.00116525,0.000802058,-0.010223,0.0100887,-0.0104518,-0.83336,0.0118597,0.0457566,762,547,0.637353,0.0606697
-455,477,0.300598,0.111084,-0.003856,-0.00290699,-0.00921621,0.00584693,-0.0126099,-0.811119,0.0108919,0.0437533,769,547,0.300596,-0.111096
-448,477,0.172607,0.351074,-0.00459335,-0.00538482,-0.00791389,0.00293469,-0.0129129,-0.760416,0.00973538,0.0417078,776,547,0.172601,-0.351102
-441,477,0.150208,0.19696,-0.00446345,-0.00760727,-0.00685172,0.000994361,-0.0130651,-0.67264,0.00905972,0.0390861,783,547,0.1502,-0.196952
-434,477,0.0571289,0.0332031,-0.00332341,-0.0071875,-0.00531837,0.00040298,-0.0109139,-0.611171,0.0074139,0.0331377,790,547,0.0571298,-0.033218
-427,477,-0.020752,0.0354004,-0.00244754,-0.00707792,-0.00426748,9.2322e-05,-0.00961778,-0.536858,0.00644285,0.0178088,797,547,-0.0207464,-0.0354212
-420,477,-0.0286865,0.0671997,-0.00140436,-0.00523888,-0.00256012,-0.000123164,-0.00652008,-0.464001,0.00430625,0.0155741,804,547,-0.0287076,-0.0672003
-413,477,-0.0300903,0.0905151,0.000270965,-0.0043755,-0.00160553,0.000771761,-0.00487629,-0.302356,0.0035363,0.015129,811,547,-0.0300832,-0.090506
-406,477,-0.0334473,0.0835571,0.00170664,-0.00350665,-0.00151625,0.00211555,-0.00391557,-0.263423,0.00353339,0.0103886,818,547,-0.033431,-0.083577
-399,477,-0.0215454,0.0541382,0.00204306,-0.00258394,-0.00160853,0.0025473,-0.00308818,-0.303775,0.00325864,0.0153506,825,547,-0.0215378,-0.0541119
-392,477,-0.0394287,0.0474854,0.0019998,-0.0015071,-0.00191752,0.00284471,-0.00235201,-0.415031,0.00300482,0.0149772,832,547,-0.03942,-0.0475031
-385,477,-0.0335083,0.0726318,0.00156123,-0.00104919,-0.00188975,0.0025527,-0.00204066,-0.483176,0.00265746,0.0135763,839,547,-0.0335171,-0.0726168
-378,477,-0.0196533,0.0730591,0.00122834,-0.00015318,-0.00218837,0.00283238,-0.00175722,-0.632522,0.00267393,0.0124143,846,547,-0.0196317,-0.0730745
-371,477,-0.0380249,0.0784302,0.000792347,0.000934444,-0.00249649,0.00336089,-0.0016341,-0.799624,0.00294074,0.0124491,853,547,-0.0380019,-0.0784344
-364,477,-0.0506592,0.0996704,0.000491968,0.00229829,-0.00245856,0.00401433,-0.00122408,-0.961423,0.00316418,0.0122498,860,547,-0.0506482,-0.0996572
-357,477,-0.043335,0.0748901,0.000151986,0.00381619,-0.00223599,0.00487481,-0.000906633,-1.12862,0.00359044,0.00952948,867,547,-0.0433253,-0.0748769
-350,477,-0.0299072,0.0776367,0.000273594,0.00525038,-0.00202901,0.00597275,-0.000448774,-1.22877,0.00413954,0.00901046,874,547,-0.0299285,-0.0776501
-343,477,-0.0310059,0.0791626,0.00147608,0.00785763,-0.00103841,0.00802235,0.00131136,-1.41348,0.00496913,0.015364,881,547,-0.031025,-0.0791598
-336,477,-0.0585938,0.0551147,0.00270454,0.0105441,-0.000301026,0.0105557,0.002693,-1.53247,0.00633326,0.0188161,888,547,-0.0586036,-0.0551296
-329,477,-0.0869751,0.0201416,0.00378914,0.0125997,0.00110124,0.0127352,0.00365358,1.44831,0.00757203,0.0222554,895,547,-0.0869574,-0.0201423
-322,477,-0.0844116,-0.00012207,0.00445776,0.0135325,0.00230664,0.0140852,0.00390511,1.33564,0.00839676,0.0283022,902,547,-0.0844075,0.000127325
-315,477,-0.0757446,0.0615234,0.00471218,0.0132495,0.00277754,0.0140736,0.00388809,1.28237,0.00839219,0.0357636,909,547,-0.0757363,-0.0615352
-308,477,0.0567017,0.103943,0.00543097,0.0135261,0.00406805,0.0152172,0.00373992,1.17684,0.0091564,0.0388693,916,547,0.0566894,-0.103914
-301,477,0.0457153,-0.0966187,0.00624349,0.0131806,0.00477948,0.0156175,0.0038066,1.09929,0.00940323,0.0434072,923,547,0.0457075,0.0966091
-294,477,1.53906,0.741272,0.00701811,0.0117599,0.00512296,0.015034,0.00374403,1.00212,0.009037,0.0437436,930,547,1.53908,-0.741266
-287,477,1.59119,0.561768,0.00775208,0.0109191,0.00501866,0.0145982,0.00407304,0.938217,0.00869832,0.0440122,937,547,1.59119,-0.561752
-280,477,-0.0846558,0.657532,0,0,0,0,0,0,0,-1,944,547,-0.0846423,-0.657506
-273,477,0.187317,0.895935,0.00941619,0.0109579,0.00492796,0.015175,0.00519918,0.862984,0.00890477,0.0439117,951,547,0.187296,-0.895935
-266,477,-0.466064,0.471252,0.00912086,0.0127605,0.00567505,0.0169004,0.00498099,0.940555,0.0100278,0.0464659,958,547,-0.466063,-0.471274
-259,477,-6.19006,-0.0881348,0,0,0,0,0,0,0,-1,965,547,-6.19006,0.0881499
-252,477,-5.92572,-0.313049,0.0113455,0.0194682,0.00932458,0.0255775,0.00523616,0.990786,0.015602,0.0476395,972,547,-5.92574,0.313061
-245,477,-5.62433,-0.550354,0.0128234,0.0261134,0.0131184,0.0341738,0.00476304,1.01983,0.0213725,0.0438119,979,547,-5.62435,0.550381
-238,477,-5.16132,-0.931152,0.0162746,0.0322783,0.0182672,0.0442194,0.00433356,0.991832,0.0281465,0.045973,986,547,-5.16129,0.931153
-231,477,-4.922,-1.25598,0.0208554,0.0403084,0.0254196,0.0577988,0.00336496,0.968123,0.0374613,0.0470264,993,547,-4.92198,1.25595
-224,477,0,0,0,0,0,0,0,0,0,-1,1000,547,0,0
-217,477,0,0,0,0,0,0,0,0,0,-1,1007,547,0,0
-210,477,0,0,0,0,0,0,0,0,0,-1,1014,547,0,0
-203,477,0,0,0,0,0,0,0,0,0,-1,1021,547,0,0
-196,477,0,0,0,0,0,0,0,0,0,-1,1028,547,0,0
-189,477,0,0,0,0,0,0,0,0,0,-1,1035,547,0,0
-182,477,0,0,0,0,0,0,0,0,0,-1,1042,547,0,0
-175,477,0,0,0,0,0,0,0,0,0,-1,1049,547,0,0
-168,477,0,0,0,0,0,0,0,0,0,-1,1056,547,0,0
-161,477,0,0,0,0,0,0,0,0,0,-1,1063,547,0,0
-154,477,0,0,0,0,0,0,0,0,0,-1,1070,547,0,0
-147,477,0,0,0,0,0,0,0,0,0,-1,1077,547,0,0
-140,477,0,0,0,0,0,0,0,0,0,-1,1084,547,0,0
-133,477,0,0,0,0,0,0,0,0,0,-1,1091,547,0,0
-126,477,0,0,0,0,0,0,0,0,0,-1,1098,547,0,0
-119,477,0,0,0,0,0,0,0,0,0,-1,1105,547,0,0
-112,477,0,0,0,0,0,0,0,0,0,-1,1112,547,0,0
-105,477,0,0,0,0,0,0,0,0,0,-1,1119,547,0,0
-98,477,0,0,0,0,0,0,0,0,0,-1,1126,547,0,0
-91,477,0,0,0,0,0,0,0,0,0,-1,1133,547,0,0
-84,477,0,0,0,0,0,0,0,0,0,-1,1140,547,0,0
-77,477,0,0,0,0,0,0,0,0,0,-1,1147,547,0,0
-70,477,0,0,0,0,0,0,0,0,0,-1,1154,547,0,0
-63,477,0,0,0,0,0,0,0,0,0,-1,1161,547,0,0
-56,477,0,0,0,0,0,0,0,0,0,-1,1168,547,0,0
-49,477,0,0,0,0,0,0,0,0,0,-1,1175,547,0,0
-42,477,0,0,0,0,0,0,0,0,0,-1,1182,547,0,0
-35,477,0,0,0,0,0,0,0,0,0,-1,1189,547,0,0
-28,477,0,0,0,0,0,0,0,0,0,-1,1196,547,0,0
-21,477,0,0,0,0,0,0,0,0,0,-1,1203,547,0,0
-14,477,0,0,0,0,0,0,0,0,0,-1,1210,547,0,0
-7,477,0,0,0,0,0,0,0,0,0,-1,1217,547,0,0
0,477,0,0,0,0,0,0,0,0,0,-1,1224,547,0,0
7,477,0,0,0,0,0,0,0,0,0,-1,1231,547,0,0
14,477,0,0,0,0,0,0,0,0,0,-1,1238,547,0,0
21,477,0,0,0,0,0,0,0,0,0,-1,1245,547,0,0
28,477,0,0,0,0,0,0,0,0,0,-1,1252,547,0,0
35,477,0,0,0,0,0,0,0,0,0,-1,1259,547,0,0
42,477,0,0,0,0,0,0,0,0,0,-1,1266,547,0,0
49,477,0,0,0,0,0,0,0,0,0,-1,1273,547,0,0
56,477,0,0,0,0,0,0,0,0,0,-1,1280,547,0,0
63,477,0,0,0,0,0,0,0,0,0,-1,1287,547,0,0
70,477,0,0,0,0,0,0,0,0,0,-1,1294,547,0,0
77,477,0,0,0,0,0,0,0,0,0,-1,1301,547,0,0
84,477,0,0,0,0,0,0,0,0,0,-1,1308,547,0,0
91,477,0,0,0,0,0,0,0,0,0,-1,1315,547,0,0
98,477,0,0,0,0,0,0,0,0,0,-1,1322,547,0,0
105,477,0,0,0,0,0,0,0,0,0,-1,1329,547,0,0
112,477,0,0,0,0,0,0,0,0,0,-1,1336,547,0,0
119,477,0,0,0,0,0,0,0,0,0,-1,1343,547,0,0
126,477,0,0,0,0,0,0,0,0,0,-1,1350,547,0,0
133,477,0,0,0,0,0,0,0,0,0,-1,1357,547,0,0
140,477,0,0,0,0,0,0,0,0,0,-1,1364,547,0,0
147,477,0,0,0,0,0,0,0,0,0,-1,1371,547,0,0
154,477,0,0,0,0,0,0,0,0,0,-1,1378,547,0,0
161,477,0,0,0,0,0,0,0,0,0,-1,1385,547,0,0
168,477,0,0,0,0,0,0,0,0,0,-1,1392,547,0,0
175,477,0,0,0,0,0,0,0,0,0,-1,1399,547,0,0
182,477,0,0,0,0,0,0,0,0,0,-1,1406,547,0,0
189,477,0,0,0,0,0,0,0,0,0,-1,1413,547,0,0
196,477,0,0,0,0,0,0,0,0,0,-1,1420,547,0,0
203,477,0,0,0,0,0,0,0,0,0,-1,1427,547,0,0
210,477,0,0,0,0,0,0,0,0,0,-1,1434,547,0,0
217,477,0,0,0,0,0,0,0,0,0,-1,1441,547,0,0
224,477,0,0,0,0,0,0,0,0,0,-1,1448,547,0,0
231,477,0,0,0,0,0,0,0,0,0,-1,1455,547,0,0
238,477,0,0,0,0,0,0,0,0,0,-1,1462,547,0,0
245,477,0,0,0,0,0,0,0,0,0,-1,1469,547,0,0
252,477,0,0,0,0,0,0,0,0,0,-1,1476,547,0,0
259,477,0,0,0,0,0,0,0,0,0,-1,1483,547,0,0
266,477,0,0,0,0,0,0,0,0,0,-1,1490,547,0,0
273,477,0,0,0,0,0,0,0,0,0,-1,1497,547,0,0
280,477,0,0,0,0,0,0,0,0,0,-1,1504,547,0,0
287,477,0,0,0,0,0,0,0,0,0,-1,1511,547,0,0
294,477,0,0,0,0,0,0,0,0,0,-1,1518,547,0,0
301,477,0,0,0,0,0,0,0,0,0,-1,1525,547,0,0
308,477,0,0,0,0,0,0,0,0,0,-1,1532,547,0,0
315,477,0,0,0,0,0,0,0,0,0,-1,1539,547,0,0
322,477,0,0,0,0,0,0,0,0,0,-1,1546,547,0,0
329,477,0,0,0,0,0,0,0,0,0,-1,1553,547,0,0
336,477,0,0,0,0,0,0,0,0,0,-1,1560,547,0,0
343,477,0,0,0,0,0,0,0,0,0,-1,1567,547,0,0
350,477,-4.84558,5.69141,0,0,0,0,0,0,0,-1,1574,547,-4.84558,-5.69139
357,477,-4.34814,4.69562,0,0,0,0,0,0,0,-1,1581,547,-4.34809,-4.69559
364,477,3.01355,-5.59857,0,0,0,0,0,0,0,-1,1588,547,3.01356,5.59854
371,477,1.40356,-5.13916,0,0,0,0,0,0,0,-1,1595,547,1.40357,5.13914
378,477,0.657959,-4.45892,-0.0155584,0.0415934,0.0646339,0.0836866,-0.0576516,0.993539,0.0820618,0.0453613,1602,547,0.657916,4.45894
385,477,-0.76355,-0.789001,-0.00991891,0.0344566,0.0582436,0.0745955,-0.0500578,0.967386,0.0724319,0.0431976,1609,547,-0.763525,0.788984
392,477,-0.474365,-0.314026,-0.00649874,0.0270269,0.05022,0.0632078,-0.0426797,0.946478,0.0615159,0.0394222,1616,547,-0.474337,0.314016
399,477,-0.0878906,-0.120422,-0.00450285,0.0187739,0.0396391,0.0484479,-0.0341768,0.928189,0.04794,0.0423145,1623,547,-0.0879114,0.120399
406,477,-0.23584,-0.269958,-0.00218539,0.011325,0.030739,0.0360423,-0.0269027,0.893559,0.0364688,0.0468921,1630,547,-0.235872,0.269967
413,477,-0.782349,-0.115479,0,0,0,0,0,0,0,-1,1637,547,-0.782334,0.115466
420,477,0.125977,0.514771,0,0,0,0,0,0,0,-1,1644,547,0.125929,-0.514744
427,477,0.0620117,0.610046,0,0,0,0,0,0,0,-1,1651,547,0.0619754,-0.610034
434,477,0.0341797,0.615784,6.05128e-05,-0.00912728,0.00228941,0.00059938,-0.00966615,0.231167,0.0066529,0.0450274,1658,547,0.0341657,-0.615755
441,477,-0.266235,0.332153,0.000172506,-0.0103148,-0.0018605,0.000492786,-0.0106351,-0.170476,0.0072599,0.0429356,1665,547,-0.266234,-0.332152
448,477,-0.379272,0.408142,0.000621548,-0.010576,-0.00313921,0.00144157,-0.011396,-0.255509,0.00812065,0.0377583,1672,547,-0.379253,-0.408163
455,477,-0.181274,0.177002,0.00119454,-0.010164,-0.00305776,0.00196539,-0.0109349,-0.246949,0.00802568,0.0319251,1679,547,-0.181262,-0.176978
462,477,-0.0480957,0.0760498,0.00173252,-0.00917942,-0.0029006,0.00245564,-0.00990254,-0.244318,0.00755447,0.0209528,1686,547,-0.0480761,-0.0760607
469,477,-0.0385742,0.0445557,0.00153577,-0.0079381,-0.00272685,0.00226457,-0.0086669,-0.261164,0.00666234,0.0139046,1693,547,-0.0385906,-0.044577
476,477,-0.0400391,0.0436401,0.00145969,-0.00662348,-0.00230038,0.0020685,-0.00723229,-0.258724,0.00563894,0.013233,1700,547,-0.0400699,-0.0436283
483,477,-0.0327148,0.0360107,0.00119622,-0.00551055,-0.00185753,0.00167632,-0.00599065,-0.252926,0.00465428,0.0103503,1707,547,-0.0327673,-0.0360292
490,477,-0.015625,0.0436401,0.000893548,-0.00428546,-0.00117352,0.00114705,-0.00453896,-0.212749,0.00347206,0.0106907,1714,547,-0.0155678,-0.0436433
497,477,-0.0115967,0.0366211,0.000705173,-0.003391,-0.000740652,0.000834981,-0.00352081,-0.1735,0.00266942,0.0115546,1721,547,-0.0115982,-0.0366458
504,477,-0.0404053,0.0186157,0.000372801,-0.00258071,-0.000194131,0.000385506,-0.00259341,-0.0653544,0.00187073,0.0171469,1728,547,-0.0403807,-0.0186361
511,477,-0.0396729,0.00823975,-4.20163e-05,-0.00183515,0.000331084,1.71618e-05,-0.00189433,0.176873,0.00126865,0.0213235,1735,547,-0.0396962,-0.00823446
518,477,-0.0378418,0.0301514,-0.000538284,-0.00118317,0.000702928,-8.7371e-05,-0.00163408,0.570361,0.00106146,0.0191672,1742,547,-0.0377973,-0.03018
525,477,-0.024292,0.0397949,-0.000936773,-0.00054959,0.000715627,-1.83203e-06,-0.00148453,0.917497,0.000989077,0.0167128,1749,547,-0.0243123,-0.0398011
532,477,-0.0219727,0,-0.00120685,9.54459e-05,0.000736777,0.000427575,-0.00153898,1.14729,0.0011943,0.0181636,1756,547,-0.0219208,-1.66567e-05
539,477,-0.0455322,0.0762329,-0.00150079,0.000759645,0.000849619,0.00104337,-0.00178452,1.24849,0.00165127,0.0146551,1763,547,-0.0454806,-0.0762448
546,477,-0.041626,0.0795288,-0.00196397,0.00129658,0.000839807,0.00150018,-0.00216756,1.33296,0.00212922,0.0162778,1770,547,-0.0416007,-0.0795374
553,477,-0.0301514,0.050415,-0.00252276,0.00136114,0.000587358,0.00144802,-0.00260964,1.42394,0.00237448,0.0150992,1777,547,-0.0302001,-0.0504036
560,477,-0.00256348,0.105164,-0.00287256,0.00174344,0.00023137,0.001755,-0.00288413,1.52084,0.00270472,0.0270147,1784,547,-0.00258258,-0.105145
567,477,-0.0142822,0.106201,-0.00308355,0.00217104,-0.000370413,0.00219703,-0.00310953,-1.50076,0.0030788,0.0361965,1791,547,-0.0142994,-0.106216
574,477,-0.195068,-0.181152,-0.00314978,0.00212689,-0.00101982,0.00231713,-0.00334002,-1.38637,0.00328391,0.0379723,1798,547,-0.195013,0.181137
581,477,-0.0654297,-0.280579,-0.00314551,0.00164353,-0.00182758,0.00226128,-0.00376326,-1.24484,0.00351411,0.0396132,1805,547,-0.0654707,0.280554
588,477,-0.156982,0.0762329,-0.00318162,0.000580651,-0.00272277,0.00200892,-0.00460989,-1.08769,0.00391849,0.0463777,1812,547,-0.156981,-0.0762174
595,477,-0.166992,-0.21875,-0.00330047,-0.000779352,-0.00391877,0.00207662,-0.00615644,-0.941008,0.00494407,0.0437123,1819,547,-0.166994,0.218769
602,477,-0.397217,-0.511902,-0.00370699,-0.00286576,-0.00525977,0.00199019,-0.00856294,-0.825297,0.00647479,0.0435015,1826,547,-0.397253,0.511931
609,477,0,0,0,0,0,0,0,0,0,-1,1833,547,0,0
616,477,0,0,0,0,0,0,0,0,0,-1,1840,547,0,0
623,477,0,0,0,0,0,0,0,0,0,-1,1847,547,0,0
630,477,0,0,0,0,0,0,0,0,0,-1,1854,547,0,0
637,477,0,0,0,0,0,0,0,0,0,-1,1861,547,0,0
644,477,0,0,0,0,0,0,0,0,0,-1,1868,547,0,0
651,477,0,0,0,0,0,0,0,0,0,-1,1875,547,0,0
658,477,0,0,0,0,0,0,0,0,0,-1,1882,547,0,0
665,477,0,0,0,0,0,0,0,0,0,-1,1889,547,0,0
672,477,0,0,0,0,0,0,0,0,0,-1,1896,547,0,0
679,477,0,0,0,0,0,0,0,0,0,-1,1903,547,0,0
686,477,0,0,0,0,0,0,0,0,0,-1,1910,547,0,0
693,477,0,0,0,0,0,0,0,0,0,-1,1917,547,0,0
700,477,0,0,0,0,0,0,0,0,0,-1,1924,547,0,0
707,477,0,0,0,0,0,0,0,0,0,-1,1931,547,0,0
714,477,0,0,0,0,0,0,0,0,0,-1,1938,547,0,0
721,477,0,0,0,0,0,0,0,0,0,-1,1945,547,0,0
728,477,0,0,0,0,0,0,0,0,0,-1,1952,547,0,0
735,477,0,0,0,0,0,0,0,0,0,-1,1959,547,0,0
742,477,0,0,0,0,0,0,0,0,0,-1,1966,547,0,0
749,477,0,0,0,0,0,0,0,0,0,-1,1973,547,0,0
756,477,0,0,0,0,0,0,0,0,0,-1,1980,547,0,0
763,477,0,0,0,0,0,0,0,0,0,-1,1987,547,0,0
770,477,0,0,0,0,0,0,0,0,0,-1,1994,547,0,0
777,477,0,0,0,0,0,0,0,0,0,-1,2001,547,0,0
784,477,0,0,0,0,0,0,0,0,0,-1,2008,547,0,0
791,477,0,0,0,0,0,0,0,0,0,-1,2015,547,0,0
798,477,0,0,0,0,0,0,0,0,0,-1,2022,547,0,0
805,477,0,0,0,0,0,0,0,0,0,-1,2029,547,0,0
812,477,0,0,0,0,0,0,0,0,0,-1,2036,547,0,0
-700,470,0,0,0,0,0,0,0,0,0,-1,524,554,0,0
-693,470,0,0,0,0,0,0,0,0,0,-1,531,554,0,0
-686,470,0,0,0,0,0,0,0,0,0,-1,538,554,0,0
-679,470,0,0,0,0,0,0,0,0,0,-1,545,554,0,0
-672,470,0,0,0,0,0,0,0,0,0,-1,552,554,0,0
-665,470,0,0,0,0,0,0,0,0,0,-1,559,554,0,0
-658,470,0,0,0,0,0,0,0,0,0,-1,566,554,0,0
-651,470,0,0,0,0,0,0,0,0,0,-1,573,554,0,0
-644,470,0,0,0,0,0,0,0,0,0,-1,580,554,0,0
-637,470,0,0,0,0,0,0,0,0,0,-1,587,554,0,0
-630,470,0,0,0,0,0,0,0,0,0,-1,594,554,0,0
-623,470,0,0,0,0,0,0,0,0,0,-1,601,554,0,0
-616,470,0,0,0,0,0,0,0,0,0,-1,608,554,0,0
-609,470,0,0,0,0,0,0,0,0,0,-1,615,554,0,0
-602,470,0,0,0,0,0,0,0,0,0,-1,622,554,0,0
-595,470,0,0,0,0,0,0,0,0,0,-1,629,554,0,0
-588,470,0,0,0,0,0,0,0,0,0,-1,636,554,0,0
-581,470,0,0,0,0,0,0,0,0,0,-1,643,554,0,0
-574,470,0,0,0,0,0,0,0,0,0,-1,650,554,0,0
-567,470,0,0,0,0,0,0,0,0,0,-1,657,554,0,0
-560,470,0,0,0,0,0,0,0,0,0,-1,664,554,0,0
-553,470,0,0,0,0,0,0,0,0,0,-1,671,554,0,0
-546,470,0,0,0,0,0,0,0,0,0,-1,678,554,0,0
-539,470,0,0,0,0,0,0,0,0,0,-1,685,554,0,0
-532,470,0,0,0,0,0,0,0,0,0,-1,692,554,0,0
-525,470,0,0,0,0,0,0,0,0,0,-1,699,554,0,0
-518,470,0,0,0,0,0,0,0,0,0,-1,706,554,0,0
-511,470,0,0,0,0,0,0,0,0,0,-1,713,554,0,0
-504,470,0,0,0,0,0,0,0,0,0,-1,720,554,0,0
-497,470,0,0,0,0,0,0,0,0,0,-1,727,554,0,0
-490,470,1.6474,4.03223,0,0,0,0,0,0,0,-1,734,554,1.64738,-4.03226
-483,470,2.05786,4.12335,0,0,0,0,0,0,0,-1,741,554,2.05788,-4.12334
-476,470,2.45453,3.78217,0.0150695,0.024968,-0.00664848,0.0283072,0.0117303,-1.10536,0.0164228,0.0479671,748,554,2.45452,-3.78216
-469,470,1.59772,0.0693359,0.00541202,0.0153839,-0.00799943,0.019824,0.000971909,-1.06408,0.0129042,0.044794,755,554,1.59774,-0.0693326
-462,470,0.259827,-0.106995,-0.00137261,0.00854175,-0.00838106,0.0133219,-0.00615277,-1.05246,0.0114949,0.0425937,762,554,0.259814,0.106968
-455,470,0.137451,0.361877,0,0,0,0,0,0,0,-1,769,554,0.137474,-0.361898
-448,470,0.0515137,0.524231,-0.00590844,-0.000420677,-0.00678831,0.00415733,-0.0104864,-0.977462,0.00871384,0.0411342,776,554,0.0514919,-0.524214
-441,470,0.125244,0.26886,-0.00607404,-0.00373481,-0.00598742,0.00119616,-0.011005,-0.881856,0.00776616,0.0365738,783,554,0.125222,-0.268849
-434,470,0.00299072,0.0741577,-0.00498206,-0.00423511,-0.00455266,-4.06359e-05,-0.00917654,-0.826324,0.00610419,0.0196386,790,554,0.00296813,-0.0741424
-427,470,-0.0344238,0.0432129,-0.00405796,-0.00477516,-0.00354934,-0.000849158,-0.00798397,-0.735053,0.00506339,0.0102713,797,554,-0.0344194,-0.0431834
-420,470,-0.0316772,0.0619507,-0.00282966,-0.00340806,-0.00186894,-0.00122768,-0.00501004,-0.708638,0.00301529,0.0115643,804,554,-0.0316912,-0.0619252
-413,470,-0.0330811,0.0866699,-0.000887682,-0.00296836,-0.000997833,-0.000486502,-0.00336954,-0.382273,0.00210303,0.0122611,811,554,-0.0330786,-0.0866979
-406,470,-0.052063,0.0883179,0.000814821,-0.00244239,-0.00105618,0.00112732,-0.00275488,-0.287667,0.00230611,0.00887749,818,554,-0.0520803,-0.0882883
-399,470,-0.0200806,0.0618286,0.00143189,-0.00180657,-0.00135975,0.0019271,-0.00230178,-0.349258,0.00244473,0.0105729,825,554,-0.0200995,-0.0618141
-392,470,-0.0293579,0.0440063,0.00161681,-0.00094665,-0.00187186,0.00260371,-0.00193355,-0.485195,0.0026291,0.0126306,832,554,-0.0293645,-0.0439882
-385,470,-0.0174561,0.081543,0.00135333,-0.000429392,-0.00216863,0.00280664,-0.0018827,-0.590411,0.00272486,0.0101293,839,554,-0.017471,-0.0815316
-378,470,-0.00976563,0.0674438,0.00114215,0.000455102,-0.00270805,0.00352837,-0.00193113,-0.722309,0.00319669,0.0149148,846,554,-0.00978871,-0.0674574
-371,470,-0.0216675,0.0706787,0.000760274,0.00144962,-0.00322893,0.00435222,-0.00214232,-0.83857,0.0038213,0.012806,853,554,-0.0216956,-0.0706907
-364,470,-0.0241699,0.0769653,0.000387423,0.0029364,-0.00337436,0.00526893,-0.00194511,-0.965965,0.00430987,0.0117787,860,554,-0.0241452,-0.0769937
-357,470,-0.0325928,0.060791,-8.67952e-06,0.00468353,-0.0032549,0.00634973,-0.00167488,-1.09767,0.00488805,0.0111078,867,554,-0.0325637,-0.0608146
-350,470,-0.0275269,0.0722656,5.43515e-05,0.00640314,-0.00307066,0.00764528,-0.00118778,-1.1864,0.00553542,0.00838277,874,554,-0.0275323,-0.0722384
-343,470,-0.0198364,0.0767212,0.00129842,0.00952493,-0.00192056,0.00995122,0.000872132,-1.35238,0.00636339,0.015012,881,554,-0.0198392,-0.0767408
-336,470,-0.0647583,0.0473633,0.00264343,0.0128555,-0.000896024,0.0129335,0.00256541,-1.48394,0.00790715,0.0215643,888,554,-0.0647301,-0.0473784
-329,470,-0.177307,-0.0253296,0.00382816,0.0155168,0.00092913,0.0155902,0.00375477,1.49197,0.00939541,0.0280544,895,554,-0.177302,0.0253138
-322,470,-0.313416,-0.232788,0.00465004,0.0169157,0.00258632,0.0174388,0.00412699,1.37125,0.0105235,0.0345194,902,554,-0.31344,0.232761
-315,470,-0.545532,-0.405273,0.0050379,0.0167905,0.00328409,0.0176459,0.00418246,1.31598,0.0106472,0.0418092,909,554,-0.545533,0.405248
-308,470,-0.134644,0.0350342,0.00600882,0.0176102,0.00512177,0.0195478,0.00407125,1.20914,0.011909,0.0400546,916,554,-0.134643,-0.0350182
-301,470,0.349854,0.320862,0.00723604,0.0177859,0.00628232,0.0207142,0.00430777,1.13462,0.012621,0.0402808,923,554,0.349881,-0.32086
-294,470,0.864685,0.264221,0.00860279,0.0163663,0.00683432,0.0203443,0.00462478,1.04367,0.0123143,0.0419471,930,554,0.864708,-0.264249
-287,470,1.11603,0.00933838,0.0103082,0.0154462,0.00693869,0.0202762,0.00547819,0.962698,0.0121117,0.0444188,937,554,1.11605,-0.00933674
-280,470,1.16217,-0.170654,0.0130226,0.0149836,0.00632178,0.0204005,0.00760576,0.862334,0.0119046,0.0469785,944,554,1.16214,0.17068
-273,470,0.482117,1.7843,0.0145668,0.0148868,0.00621997,0.0209488,0.00850478,0.798259,0.0121659,0.0452774,951,554,0.482109,-1.78432
-266,470,-0.222595,1.37915,0.0148876,0.0165044,0.00616088,0.0219097,0.00948234,0.850633,0.0126876,0.0443412,958,554,-0.222601,-1.37916
-259,470,-6.18884,-0.577454,0,0,0,0,0,0,0,-1,965,554,-6.18883,0.577456
-252,470,-5.80328,-0.64386,0.0176257,0.0219273,0.00802567,0.0280854,0.0114677,0.916317,0.0163057,0.0426346,972,554,-5.80329,0.643853
-245,470,-5.4953,-0.66748,0.0196645,0.0286074,0.0111941,0.0361901,0.0120818,0.975414,0.0212754,0.0445806,979,554,-5.49529,0.667482
-238,470,0,0,0,0,0,0,0,0,0,-1,986,554,0,0
-231,470,0,0,0,0,0,0,0,0,0,-1,993,554,0,0
-224,470,0,0,0,0,0,0,0,0,0,-1,1000,554,0,0
-217,470,0,0,0,0,0,0,0,0,0,-1,1007,554,0,0
-210,470,0,0,0,0,0,0,0,0,0,-1,1014,554,0,0
-203,470,0,0,0,0,0,0,0,0,0,-1,1021,554,0,0
-196,470,0,0,0,0,0,0,0,0,0,-1,1028,554,0,0
-189,470,0,0,0,0,0,0,0,0,0,-1,1035,554,0,0
-182,470,0,0,0,0,0,0,0,0,0,-1,1042,554,0,0
-175,470,0,0,0,0,0,0,0,0,0,-1,1049,554,0,0
-168,470,0,0,0,0,0,0,0,0,0,-1,1056,554,0,0
-161,470,0,0,0,0,0,0,0,0,0,-1,1063,554,0,0
-154,470,0,0,0,0,0,0,0,0,0,-1,1070,554,0,0
-147,470,0,0,0,0,0,0,0,0,0,-1,1077,554,0,0
-140,470,0,0,0,0,0,0,0,0,0,-1,1084,554,0,0
-133,470,0,0,0,0,0,0,0,0,0,-1,1091,554,0,0
-126,470,0,0,0,0,0,0,0,0,0,-1,1098,554,0,0
-119,470,0,0,0,0,0,0,0,0,0,-1,1105,554,0,0
-112,470,0,0,0,0,0,0,0,0,0,-1,1112,554,0,0
-105,470,0,0,0,0,0,0,0,0,0,-1,1119,554,0,0
-98,470,0,0,0,0,0,0,0,0,0,-1,1126,554,0,0
-91,470,0,0,0,0,0,0,0,0,0,-1,1133,554,0,0
-84,470,0,0,0,0,0,0,0,0,0,-1,1140,554,0,0
-77,470,0,0,0,0,0,0,0,0,0,-1,1147,554,0,0
-70,470,0,0,0,0,0,0,0,0,0,-1,1154,554,0,0
-63,470,0,0,0,0,0,0,0,0,0,-1,1161,554,0,0
-56,470,0,0,0,0,0,0,0,0,0,-1,1168,554,0,0
-49,470,0,0,0,0,0,0,0,0,0,-1,1175,554,0,0
-42,470,0,0,0,0,0,0,0,0,0,-1,1182,554,0,0
-35,470,0,0,0,0,0,0,0,0,0,-1,1189,554,0,0
-28,470,0,0,0,0,0,0,0,0,0,-1,1196,554,0,0
-21,470,0,0,0,0,0,0,0,0,0,-1,1203,554,0,0
-14,470,0,0,0,0,0,0,0,0,0,-1,1210,554,0,0
-7,470,0,0,0,0,0,0,0,0,0,-1,1217,554,0,0
0,470,0,0,0,0,0,0,0,0,0,-1,1224,554,0,0
7,470,0,0,0,0,0,0,0,0,0,-1,1231,554,0,0
14,470,0,0,0,0,0,0,0,0,0,-1,1238,554,0,0
21,470,0,0,0,0,0,0,0,0,0,-1,1245,554,0,0
28,470,0,0,0,0,0,0,0,0,0,-1,1252,554,0,0
35,470,0,0,0,0,0,0,0,0,0,-1,1259,554,0,0
42,470,0,0,0,0,0,0,0,0,0,-1,1266,554,0,0
49,470,0,0,0,0,0,0,0,0,0,-1,1273,554,0,0
56,470,0,0,0,0,0,0,0,0,0,-1,1280,554,0,0
63,470,0,0,0,0,0,0,0,0,0,-1,1287,554,0,0
70,470,0,0,0,0,0,0,0,0,0,-1,1294,554,0,0
77,470,0,0,0,0,0,0,0,0,0,-1,1301,554,0,0
84,470,0,0,0,0,0,0,0,0,0,-1,1308,554,0,0
91,470,0,0,0,0,0,0,0,0,0,-1,1315,554,0,0
98,470,0,0,0,0,0,0,0,0,0,-1,1322,554,0,0
105,470,0,0,0,0,0,0,0,0,0,-1,1329,554,0,0
112,470,0,0,0,0,0,0,0,0,0,-1,1336,554,0,0
119,470,0,0,0,0,0,0,0,0,0,-1,1343,554,0,0
126,470,0,0,0,0,0,0,0,0,0,-1,1350,554,0,0
133,470,0,0,0,0,0,0,0,0,0,-1,1357,554,0,0
140,470,0,0,0,0,0,0,0,0,0,-1,1364,554,0,0
147,470,0,0,0,0,0,0,0,0,0,-1,1371,554,0,0
154,470,0,0,0,0,0,0,0,0,0,-1,1378,554,0,0
161,470,0,0,0,0,0,0,0,0,0,-1,1385,554,0,0
168,470,0,0,0,0,0,0,0,0,0,-1,1392,554,0,0
175,470,0,0,0,0,0,0,0,0,0,-1,1399,554,0,0
182,470,0,0,0,0,0,0,0,0,0,-1,1406,554,0,0
189,470,0,0,0,0,0,0,0,0,0,-1,1413,554,0,0
196,470,0,0,0,0,0,0,0,0,0,-1,1420,554,0,0
203,470,0,0,0,0,0,0,0,0,0,-1,1427,554,0,0
210,470,0,0,0,0,0,0,0,0,0,-1,1434,554,0,0
217,470,0,0,0,0,0,0,0,0,0,-1,1441,554,0,0
224,470,0,0,0,0,0,0,0,0,0,-1,1448,554,0,0
231,470,0,0,0,0,0,0,0,0,0,-1,1455,554,0,0
238,470,0,0,0,0,0,0,0,0,0,-1,1462,554,0,0
245,470,0,0,0,0,0,0,0,0,0,-1,1469,554,0,0
252,470,0,0,0,0,0,0,0,0,0,-1,1476,554,0,0
259,470,0,0,0,0,0,0,0,0,0,-1,1483,554,0,0
266,470,0,0,0,0,0,0,0,0,0,-1,1490,554,0,0
273,470,0,0,0,0,0,0,0,0,0,-1,1497,554,0,0
280,470,0,0,0,0,0,0,0,0,0,-1,1504,554,0,0
287,470,0,0,0,0,0,0,0,0,0,-1,1511,554,0,0
294,470,0,0,0,0,0,0,0,0,0,-1,1518,554,0,0
301,470,0,0,0,0,0,0,0,0,0,-1,1525,554,0,0
308,470,0,0,0,0,0,0,0,0,0,-1,1532,554,0,0
315,470,0,0,0,0,0,0,0,0,0,-1,1539,554,0,0
322,470,0,0,0,0,0,0,0,0,0,-1,1546,554,0,0
329,470,0,0,0,0,0,0,0,0,0,-1,1553,554,0,0
336,470,0,0,0,0,0,0,0,0,0,-1,1560,554,0,0
343,470,0,0,0,0,0,0,0,0,0,-1,1567,554,0,0
350,470,0,0,0,0,0,0,0,0,0,-1,1574,554,0,0
357,470,0,0,0,0,0,0,0,0,0,-1,1581,554,0,0
364,470,-3.89221,3.54999,0,0,0,0,0,0,0,-1,1588,554,-3.89223,-3.54998
371,470,1.19006,-5.19116,0,0,0,0,0,0,0,-1,1595,554,1.19003,5.19116
378,470,0.162231,-4.95679,-0.0126418,0.0382496,0.0799583,0.0967135,-0.0711057,0.93945,0.0972657,0.0447472,1602,554,0.162257,4.95679
385,470,-0.754395,-0.789429,-0.00718491,0.0315408,0.0705802,0.085366,-0.06101,0.919274,0.0848993,0.0460354,1609,554,-0.754366,0.789398
392,470,0.826294,-0.761902,0,0,0,0,0,0,0,-1,1616,554,0.826331,0.761878
399,470,0.517456,-0.614929,-0.00348515,0.0156224,0.0458658,0.0529189,-0.0407816,0.888079,0.0542491,0.0443873,1623,554,0.517491,0.614958
406,470,0.168213,-0.252197,-0.00200425,0.00823047,0.0346684,0.0381572,-0.0319309,0.858673,0.0405186,0.0475719,1630,554,0.168153,0.252172
413,470,-0.27478,-0.0614624,0,0,0,0,0,0,0,-1,1637,554,-0.274758,0.0614328
420,470,-0.709106,0.640686,-0.000863322,-0.00276803,0.0157724,0.0139855,-0.0176168,0.755244,0.0182857,0.0436671,1644,554,-0.709132,-0.640683
427,470,-1.06653,0.812805,0,0,0,0,0,0,0,-1,1651,554,-1.06649,-0.812833
434,470,0.102051,0.766296,0,0,0,0,0,0,0,-1,1658,554,0.10208,-0.76627
441,470,-0.269531,0.447021,-0.00069552,-0.0118206,-0.00260046,-0.000117681,-0.0123984,-0.218654,0.00822668,0.0431211,1665,554,-0.269513,-0.447001
448,470,-0.240967,0.55835,-0.000354374,-0.0117312,-0.00390825,0.000858845,-0.0129444,-0.300993,0.00892965,0.042416,1672,554,-0.241005,-0.558327
455,470,-0.177979,0.30072,0.000305335,-0.0108003,-0.00384459,0.00150637,-0.0120014,-0.302792,0.0085474,0.0410287,1679,554,-0.17797,-0.300704
462,470,-0.0440674,0.0585938,0.000983466,-0.00939636,-0.00365505,0.00214136,-0.0105542,-0.30679,0.00784794,0.0367275,1686,554,-0.0440388,-0.0585767
469,470,-0.00366211,0.00244141,0.000871915,-0.00775933,-0.00343257,0.00207056,-0.00895797,-0.335959,0.00676857,0.025722,1693,554,-0.00363973,-0.00243363
476,470,-0.0258789,0.0249023,0.000892641,-0.00611349,-0.00300181,0.00200285,-0.0072237,-0.354245,0.00560402,0.0129219,1700,554,-0.0258281,-0.0248762
483,470,-0.0419922,0.0355225,0.000718857,-0.00475505,-0.00257462,0.00173951,-0.0057757,-0.377423,0.00454271,0.0104682,1707,554,-0.0419314,-0.0355453
490,470,-0.0333252,0.0457764,0.000466807,-0.00330583,-0.00186679,0.00123437,-0.00407339,-0.390097,0.00320723,0.0108545,1714,554,-0.0333249,-0.0457663
497,470,-0.020874,0.0549927,0.000391321,-0.00225401,-0.00145047,0.00103164,-0.00289433,-0.415726,0.00235016,0.0112293,1721,554,-0.0209058,-0.0549761
504,470,-0.0164795,0.0112305,0.000296965,-0.00145108,-0.000862389,0.000650798,-0.00180492,-0.389349,0.00146907,0.0183822,1728,554,-0.016457,-0.011225
511,470,-0.020874,-0.0214233,-7.12429e-06,-0.000700772,-0.000328705,0.000123895,-0.000831791,-0.379291,0.000600104,0.0242477,1735,554,-0.0208628,0.0214219
518,470,-0.0197754,0.0474243,-0.000422955,-0.00015118,8.35906e-05,-0.000127528,-0.000446607,1.29506,0.000265636,0.0226043,1742,554,-0.0197758,-0.0474289
525,470,-0.0471191,0.0830078,-0.000798099,0.000391047,0.000134486,0.000406067,-0.000813119,1.45957,0.000716855,0.0140905,1749,554,-0.0471768,-0.0829843
532,470,-0.0458984,0.076416,-0.00105651,0.000870054,0.000208459,0.000892352,-0.00107881,1.46424,0.00113975,0.0121832,1756,554,-0.0458901,-0.0763894
539,470,-0.043335,0.0708618,-0.0013228,0.00139674,0.000440445,0.0014663,-0.00139235,1.41417,0.00165063,0.0129307,1763,554,-0.0433095,-0.0708507
546,470,-0.0349121,0.0598145,-0.00175393,0.00177917,0.00053,0.00185697,-0.00183172,1.42506,0.00212968,0.012448,1770,554,-0.0348664,-0.0598218
553,470,-0.0240479,0.0405884,-0.00228288,0.00167618,0.000382846,0.00171286,-0.00231956,1.47527,0.00233689,0.0100083,1777,554,-0.0240255,-0.040601
560,470,-0.0318604,0.0328369,-0.00263858,0.00183603,0.000139913,0.0018404,-0.00264295,1.53957,0.00260225,0.0108874,1784,554,-0.0319051,-0.0328272
567,470,-0.0322266,0.0466309,-0.00276306,0.00207726,-0.000408802,0.00211155,-0.00279734,-1.48713,0.00284335,0.0134064,1791,554,-0.0321935,-0.0466305
574,470,-0.00305176,0.0167847,-0.00270956,0.00181196,-0.00096069,0.00200762,-0.00290521,-1.36989,0.00285216,0.0332049,1798,554,-0.00302472,-0.0167647
581,470,0.291016,-0.329407,-0.00271309,0.00113685,-0.00164679,0.00174514,-0.00332139,-1.21696,0.00297197,0.0452362,1805,554,0.290989,0.329429
588,470,-0.120239,0.0547485,-0.00283885,-9.58964e-05,-0.00241078,0.00130622,-0.00424097,-1.04401,0.00334874,0.0457668,1812,554,-0.120272,-0.0547353
595,470,-0.401001,-0.137817,-0.00304156,-0.00147073,-0.00352309,0.00135343,-0.00586572,-0.895071,0.00443107,0.0463179,1819,554,-0.400991,0.137837
602,470,-0.680908,-0.365234,-0.00348649,-0.00347252,-0.00481182,0.00133232,-0.00829134,-0.786124,0.006021,0.0466472,1826,554,-0.680859,0.365207
609,470,-0.903198,-0.5578,0,0,0,0,0,0,0,-1,1833,554,-0.903257,0.55783
616,470,0,0,0,0,0,0,0,0,0,-1,1840,554,0,0
623,470,0,0,0,0,0,0,0,0,0,-1,1847,554,0,0
630,470,0,0,0,0,0,0,0,0,0,-1,1854,554,0,0
637,470,0,0,0,0,0,0,0,0,0,-1,1861,554,0,0
644,470,0,0,0,0,0,0,0,0,0,-1,1868,554,0,0
651,470,0,0,0,0,0,0,0,0,0,-1,1875,554,0,0
658,470,0,0,0,0,0,0,0,0,0,-1,1882,554,0,0
665,470,0,0,0,0,0,0,0,0,0,-1,1889,554,0,0
672,470,0,0,0,0,0,0,0,0,0,-1,1896,554,0,0
679,470,0,0,0,0,0,0,0,0,0,-1,1903,554,0,0
686,470,0,0,0,0,0,0,0,0,0,-1,1910,554,0,0
693,470,0,0,0,0,0,0,0,0,0,-1,1917,554,0,0
700,470,0,0,0,0,0,0,0,0,0,-1,1924,554,0,0
707,470,0,0,0,0,0,0,0,0,0,-1,1931,554,0,0
714,470,0,0,0,0,0,0,0,0,0,-1,1938,554,0,0
721,470,0,0,0,0,0,0,0,0,0,-1,1945,554,0,0
728,470,0,0,0,0,0,0,0,0,0,-1,1952,554,0,0
735,470,0,0,0,0,0,0,0,0,0,-1,1959,554,0,0
742,470,0,0,0,0,0,0,0,0,0,-1,1966,554,0,0
749,470,0,0,0,0,0,0,0,0,0,-1,1973,554,0,0
756,470,0,0,0,0,0,0,0,0,0,-1,1980,554,0,0
763,470,0,0,0,0,0,0,0,0,0,-1,1987,554,0,0
770,470,0,0,0,0,0,0,0,0,0,-1,1994,554,0,0
777,470,0,0,0,0,0,0,0,0,0,-1,2001,554,0,0
784,470,0,0,0,0,0,0,0,0,0,-1,2008,554,0,0
791,470,0,0,0,0,0,0,0,0,0,-1,2015,554,0,0
798,470,0,0,0,0,0,0,0,0,0,-1,2022,554,0,0
805,470,0,0,0,0,0,0,0,0,0,-1,2029,554,0,0
812,470,0,0,0,0,0,0,0,0,0,-1,2036,554,0,0
-700,463,0,0,0,0,0,0,0,0,0,-1,524,561,0,0
-693,463,0,0,0,0,0,0,0,0,0,-1,531,561,0,0
-686,463,0,0,0,0,0,0,0,0,0,-1,538,561,0,0
-679,463,0,0,0,0,0,0,0,0,0,-1,545,561,0,0
-672,463,0,0,0,0,0,0,0,0,0,-1,552,561,0,0
-665,463,0,0,0,0,0,0,0,0,0,-1,559,561,0,0
-658,463,0,0,0,0,0,0,0,0,0,-1,566,561,0,0
-651,463,0,0,0,0,0,0,0,0,0,-1,573,561,0,0
-644,463,0,0,0,0,0,0,0,0,0,-1,580,561,0,0
-637,463,0,0,0,0,0,0,0,0,0,-1,587,561,0,0
-630,463,0,0,0,0,0,0,0,0,0,-1,594,561,0,0
-623,463,0,0,0,0,0,0,0,0,0,-1,601,561,0,0
-616,463,0,0,0,0,0,0,0,0,0,-1,608,561,0,0
-609,463,0,0,0,0,0,0,0,0,0,-1,615,561,0,0
-602,463,0,0,0,0,0,0,0,0,0,-1,622,561,0,0
-595,463,0,0,0,0,0,0,0,0,0,-1,629,561,0,0
-588,463,0,0,0,0,0,0,0,0,0,-1,636,561,0,0
-581,463,0,0,0,0,0,0,0,0,0,-1,643,561,0,0
-574,463,0,0,0,0,0,0,0,0,0,-1,650,561,0,0
-567,463,0,0,0,0,0,0,0,0,0,-1,657,561,0,0
-560,463,0,0,0,0,0,0,0,0,0,-1,664,561,0,0
-553,463,0,0,0,0,0,0,0,0,0,-1,671,561,0,0
-546,463,0,0,0,0,0,0,0,0,0,-1,678,561,0,0
-539,463,0,0,0,0,0,0,0,0,0,-1,685,561,0,0
-532,463,0,0,0,0,0,0,0,0,0,-1,692,561,0,0
-525,463,0,0,0,0,0,0,0,0,0,-1,699,561,0,0
-518,463,0,0,0,0,0,0,0,0,0,-1,706,561,0,0
-511,463,0,0,0,0,0,0,0,0,0,-1,713,561,0,0
-504,463,0,0,0,0,0,0,0,0,0,-1,720,561,0,0
-497,463,1.3905,3.69458,0.0701664,0.0695572,0.0110725,0.0809386,0.0587851,0.771647,0.0482989,0.0495463,727,561,1.3905,-3.69458
-490,463,1.44867,3.46545,0,0,0,0,0,0,0,-1,734,561,1.44868,-3.46548
-483,463,1.75476,3.31494,0.0303391,0.0442422,-0.000527582,0.0442622,0.0303191,-1.53292,0.0261313,0.0444201,741,561,1.75476,-3.31493
-476,463,2.25323,2.90906,0.0165877,0.0322838,-0.00391961,0.0332082,0.0156633,-1.3392,0.019183,0.0498426,748,561,2.25325,-2.90907
-469,463,2.49023,2.52155,0.00693911,0.0219282,-0.00565362,0.0238215,0.00504581,-1.24765,0.0144948,0.0482909,755,561,2.49022,-2.52156
-462,463,-0.272278,0.434937,-0.000414625,0.014192,-0.00643368,0.0166217,-0.00284428,-1.20971,0.0121408,0.0434172,762,561,-0.272291,-0.434966
-455,463,-0.0548706,0.504639,-0.00432492,0.00790622,-0.00632937,0.0105919,-0.00701055,-1.16951,0.0102326,0.0427406,769,561,-0.0548548,-0.50466
-448,463,-0.0256348,0.345581,-0.00557275,0.00340143,-0.00564707,0.00612706,-0.00829838,-1.12111,0.00835992,0.0379992,776,561,-0.0256422,-0.345593
-441,463,-0.000793457,0.131775,-0.00610924,-0.000680008,-0.00522013,0.00248916,-0.00927841,-1.02517,0.00716101,0.0252415,783,561,-0.000812977,-0.131805
-434,463,-0.0373535,0.0665283,-0.00531021,-0.00194452,-0.00399315,0.000705901,-0.00796063,-0.984821,0.00555735,0.00977842,790,561,-0.0373659,-0.0665217
-427,463,-0.0241699,0.0709229,-0.0045873,-0.00297158,-0.00307324,-0.000601789,-0.00695709,-0.913925,0.00445105,0.00846741,797,561,-0.0241507,-0.0709329
-420,463,-0.0111084,0.072937,-0.00342417,-0.00200209,-0.00147193,-0.00107846,-0.0043478,-1.0104,0.00261428,0.00860872,804,561,-0.0111031,-0.072932
-413,463,-0.0167847,0.0770874,-0.00146603,-0.00187976,-0.00071234,-0.000931128,-0.00241467,-0.644086,0.00140622,0.0078149,811,561,-0.0167868,-0.0770897
-406,463,-0.0466309,0.0772095,0.000297701,-0.00162264,-0.000914007,0.000663175,-0.00198812,-0.380385,0.00159316,0.00753322,818,561,-0.0466532,-0.0772298
-399,463,-0.0314941,0.0620728,0.00104232,-0.00121013,-0.00147579,0.00177252,-0.00194034,-0.459471,0.00214435,0.00842613,825,561,-0.031488,-0.0620776
-392,463,-0.0269165,0.0586548,0.00127921,-0.000485252,-0.0022486,0.00281246,-0.0020185,-0.598453,0.00280168,0.00857055,832,561,-0.0269027,-0.0586324
-385,463,-0.0385132,0.0632935,0.0010969,8.95613e-05,-0.00288446,0.00352133,-0.00233487,-0.698962,0.00340413,0.00931487,839,561,-0.0385056,-0.0632791
-378,463,-0.017334,0.0334473,0.000933666,0.00105944,-0.00361452,0.00461162,-0.00261851,-0.794097,0.00422685,0.0107543,846,561,-0.0173234,-0.0334748
-371,463,-0.00482178,0.0176392,0.000603865,0.00204006,-0.00433219,0.00571326,-0.00306934,-0.867531,0.00514666,0.0112351,853,561,-0.00484458,-0.0176285
-364,463,0.00787354,0.0551147,0.000186803,0.00363577,-0.00469278,0.00691089,-0.00308832,-0.961477,0.00591199,0.0132296,860,561,0.00788002,-0.0551401
-357,463,0.0125122,0.0567627,-0.000274663,0.00560781,-0.00468454,0.00819791,-0.00286477,-1.06572,0.00662983,0.0141932,867,561,0.0125094,-0.0567628
-350,463,-0.0231323,0.0697021,-0.000347993,0.00764518,-0.00446343,0.00963984,-0.00234264,-1.15053,0.00733325,0.0132114,874,561,-0.0231561,-0.0697134
-343,463,0.0149536,0.071167,0.000820571,0.0112583,-0.00307192,0.0120953,-1.64066e-05,-1.30479,0.00806899,0.023178,881,561,0.0149658,-0.0711501
-336,463,-0.0997925,0.0284424,0.00222845,0.0152203,-0.00160397,0.0154154,0.00203335,-1.44976,0.00967066,0.0337687,888,561,-0.0998023,-0.0284574
-329,463,-0.298828,-0.0493164,0.00350859,0.0184674,0.000803118,0.0185104,0.00346559,1.51731,0.0113626,0.0394175,895,561,-0.298819,0.0493294
-322,463,-0.542297,-0.431458,0,0,0,0,0,0,0,-1,902,561,-0.542284,0.431442
-315,463,-0.470337,-0.79425,0.0050471,0.020427,0.00421411,0.021506,0.00396812,1.32014,0.0132147,0.0440924,909,561,-0.470348,0.79423
-308,463,-0.262268,-0.401978,0.00619651,0.0218243,0.00676779,0.0243477,0.00367309,1.21391,0.0151565,0.0446008,916,561,-0.262279,0.401983
-301,463,0.163696,-0.0592651,0.00779014,0.0226385,0.00854293,0.0265325,0.0038962,1.14312,0.0165432,0.0450807,923,561,0.163719,0.0592847
-294,463,0.361023,-0.496582,0.00999723,0.0215538,0.0096179,0.0269957,0.00455535,1.0559,0.0166873,0.0423252,930,561,0.361002,0.496606
-287,463,1.02686,-0.535889,0.0132963,0.0208519,0.0101286,0.0278843,0.00626397,0.963899,0.0168932,0.0434125,937,561,1.02688,0.535891
-280,463,1.04095,-0.180359,0.0177279,0.0205103,0.00935879,0.0285807,0.00965748,0.859183,0.0167877,0.0428469,944,561,1.04097,0.18036
-273,463,1.18713,0.157776,0,0,0,0,0,0,0,-1,951,561,1.18715,-0.157753
-266,463,0.483887,2.19696,0.0230153,0.0220876,0.00663755,0.0292052,0.0158977,0.750513,0.0168837,0.0436847,958,561,0.483865,-2.19698
-259,463,0.649963,1.37732,0,0,0,0,0,0,0,-1,965,561,0.649944,-1.37733
-252,463,0,0,0,0,0,0,0,0,0,-1,972,561,0,0
-245,463,0,0,0,0,0,0,0,0,0,-1,979,561,0,0
-238,463,0,0,0,0,0,0,0,0,0,-1,986,561,0,0
-231,463,0,0,0,0,0,0,0,0,0,-1,993,561,0,0
-224,463,0,0,0,0,0,0,0,0,0,-1,1000,561,0,0
-217,463,0,0,0,0,0,0,0,0,0,-1,1007,561,0,0
-210,463,0,0,0,0,0,0,0,0,0,-1,1014,561,0,0
-203,463,0,0,0,0,0,0,0,0,0,-1,1021,561,0,0
-196,463,0,0,0,0,0,0,0,0,0,-1,1028,561,0,0
-189,463,0,0,0,0,0,0,0,0,0,-1,1035,561,0,0
-182,463,0,0,0,0,0,0,0,0,0,-1,1042,561,0,0
-175,463,0,0,0,0,0,0,0,0,0,-1,1049,561,0,0
-168,463,0,0,0,0,0,0,0,0,0,-1,1056,561,0,0
-161,463,0,0,0,0,0,0,0,0,0,-1,1063,561,0,0
-154,463,0,0,0,0,0,0,0,0,0,-1,1070,561,0,0
-147,463,0,0,0,0,0,0,0,0,0,-1,1077,561,0,0
-140,463,0,0,0,0,0,0,0,0,0,-1,1084,561,0,0
-133,463,0,0,0,0,0,0,0,0,0,-1,1091,561,0,0
-126,463,0,0,0,0,0,0,0,0,0,-1,1098,561,0,0
-119,463,0,0,0,0,0,0,0,0,0,-1,1105,561,0,0
-112,463,0,0,0,0,0,0,0,0,0,-1,1112,561,0,0
-105,463,0,0,0,0,0,0,0,0,0,-1,1119,561,0,0
-98,463,0,0,0,0,0,0,0,0,0,-1,1126,561,0,0
-91,463,0,0,0,0,0,0,0,0,0,-1,1133,561,0,0
-84,463,0,0,0,0,0,0,0,0,0,-1,1140,561,0,0
-77,463,0,0,0,0,0,0,0,0,0,-1,1147,561,0,0
-70,463,0,0,0,0,0,0,0,0,0,-1,1154,561,0,0
-63,463,0,0,0,0,0,0,0,0,0,-1,1161,561,0,0
-56,463,0,0,0,0,0,0,0,0,0,-1,1168,561,0,0
-49,463,0,0,0,0,0,0,0,0,0,-1,1175,561,0,0
-42,463,0,0,0,0,0,0,0,0,0,-1,1182,561,0,0
-35,463,0,0,0,0,0,0,0,0,0,-1,1189,561,0,0
-28,463,0,0,0,0,0,0,0,0,0,-1,1196,561,0,0
-21,463,0,0,0,0,0,0,0,0,0,-1,1203,561,0,0
-14,463,0,0,0,0,0,0,0,0,0,-1,1210,561,0,0
-7,463,0,0,0,0,0,0,0,0,0,-1,1217,561,0,0
0,463,0,0,0,0,0,0,0,0,0,-1,1224,561,0,0
7,463,0,0,0,0,0,0,0,0,0,-1,1231,561,0,0
14,463,0,0,0,0,0,0,0,0,0,-1,1238,561,0,0
21,463,0,0,0,0,0,0,0,0,0,-1,1245,561,0,0
28,463,0,0,0,0,0,0,0,0,0,-1,1252,561,0,0
35,463,0,0,0,0,0,0,0,0,0,-1,1259,561,0,0
42,463,0,0,0,0,0,0,0,0,0,-1,1266,561,0,0
49,463,0,0,0,0,0,0,0,0,0,-1,1273,561,0,0
56,463,0,0,0,0,0,0,0,0,0,-1,1280,561,0,0
63,463,0,0,0,0,0,0,0,0,0,-1,1287,561,0,0
70,463,0,0,0,0,0,0,0,0,0,-1,1294,561,0,0
77,463,0,0,0,0,0,0,0,0,0,-1,1301,561,0,0
84,463,0,0,0,0,0,0,0,0,0,-1,1308,561,0,0
91,463,0,0,0,0,0,0,0,0,0,-1,1315,561,0,0
98,463,0,0,0,0,0,0,0,0,0,-1,1322,561,0,0
105,463,0,0,0,0,0,0,0,0,0,-1,1329,561,0,0
112,463,0,0,0,0,0,0,0,0,0,-1,1336,561,0,0
119,463,0,0,0,0,0,0,0,0,0,-1,1343,561,0,0
126,463,0,0,0,0,0,0,0,0,0,-1,1350,561,0,0
133,463,0,0,0,0,0,0,0,0,0,-1,1357,561,0,0
140,463,0,0,0,0,0,0,0,0,0,-1,1364,561,0,0
147,463,0,0,0,0,0,0,0,0,0,-1,1371,561,0,0
154,463,0,0,0,0,0,0,0,0,0,-1,1378,561,0,0
161,463,0,0,0,0,0,0,0,0,0,-1,1385,561,0,0
168,463,0,0,0,0,0,0,0,0,0,-1,1392,561,0,0
175,463,0,0,0,0,0,0,0,0,0,-1,1399,561,0,0
182,463,0,0,0,0,0,0,0,0,0,-1,1406,561,0,0
189,463,0,0,0,0,0,0,0,0,0,-1,1413,561,0,0
196,463,0,0,0,0,0,0,0,0,0,-1,1420,561,0,0
203,463,0,0,0,0,0,0,0,0,0,-1,1427,561,0,0
210,463,0,0,0,0,0,0,0,0,0,-1,1434,561,0,0
217,463,0,0,0,0,0,0,0,0,0,-1,1441,561,0,0
224,463,0,0,0,0,0,0,0,0,0,-1,1448,561,0,0
231,463,0,0,0,0,0,0,0,0,0,-1,1455,561,0,0
238,463,0,0,0,0,0,0,0,0,0,-1,1462,561,0,0
245,463,0,0,0,0,0,0,0,0,0,-1,1469,561,0,0
252,463,0,0,0,0,0,0,0,0,0,-1,1476,561,0,0
259,463,0,0,0,0,0,0,0,0,0,-1,1483,561,0,0
266,463,0,0,0,0,0,0,0,0,0,-1,1490,561,0,0
273,463,0,0,0,0,0,0,0,0,0,-1,1497,561,0,0
280,463,0,0,0,0,0,0,0,0,0,-1,1504,561,0,0
287,463,0,0,0,0,0,0,0,0,0,-1,1511,561,0,0
294,463,0,0,0,0,0,0,0,0,0,-1,1518,561,0,0
301,463,0,0,0,0,0,0,0,0,0,-1,1525,561,0,0
308,463,0,0,0,0,0,0,0,0,0,-1,1532,561,0,0
315,463,0,0,0,0,0,0,0,0,0,-1,1539,561,0,0
322,463,0,0,0,0,0,0,0,0,0,-1,1546,561,0,0
329,463,0,0,0,0,0,0,0,0,0,-1,1553,561,0,0
336,463,0,0,0,0,0,0,0,0,0,-1,1560,561,0,0
343,463,0,0,0,0,0,0,0,0,0,-1,1567,561,0,0
350,463,0,0,0,0,0,0,0,0,0,-1,1574,561,0,0
357,463,0,0,0,0,0,0,0,0,0,-1,1581,561,0,0
364,463,0,0,0,0,0,0,0,0,0,-1,1588,561,0,0
371,463,-3.81128,2.47571,0,0,0,0,0,0,0,-1,1595,561,-3.81132,-2.47568
378,463,-0.164307,-5.17719,0,0,0,0,0,0,0,-1,1602,561,-0.164251,5.17721
385,463,-0.764648,-0.742981,-0.00229674,0.0263467,0.0829429,0.0961953,-0.0721453,0.87089,0.0975215,0.0473388,1609,561,-0.764637,0.742959
392,463,-0.576538,-0.223572,-0.000419234,0.0183434,0.068647,0.0782471,-0.060323,0.853308,0.0802263,0.0435847,1616,561,-0.57655,0.223592
399,463,0.993164,-0.757629,0,0,0,0,0,0,0,-1,1623,561,0.993172,0.75761
406,463,0.526978,-0.162292,-0.00189198,0.00408596,0.0379702,0.0391846,-0.0369906,0.824677,0.0439859,0.0450246,1630,561,0.526953,0.162277
413,463,0.177612,0.00115967,-0.00189109,-0.00107148,0.0262883,0.0248102,-0.0277727,0.793192,0.0303748,0.0434511,1637,561,0.177588,-0.0011888
420,463,0.0111084,0.631714,-0.00205365,-0.00563515,0.0166406,0.0128923,-0.0205811,0.731798,0.0194951,0.0403768,1644,561,0.0111261,-0.63172
427,463,-0.449341,0.691895,0,0,0,0,0,0,0,-1,1651,561,-0.44938,-0.691906
434,463,-0.337646,0.529114,-0.00221294,-0.0125248,0.00156318,-0.00198118,-0.0127566,0.147185,0.00792696,0.0474824,1658,561,-0.337638,-0.52913
441,463,-0.180054,0.440063,-0.00239843,-0.0127641,-0.00320392,-0.00148809,-0.0136745,-0.276839,0.008663,0.0448753,1665,561,-0.180019,-0.440073
448,463,-0.0100098,0.43634,-0.00208853,-0.0121312,-0.00449411,-0.000371107,-0.0138486,-0.365024,0.00911121,0.0430592,1672,561,-0.0100465,-0.436367
455,463,-0.0371094,0.400818,-0.00128539,-0.0104917,-0.00439351,0.000474785,-0.0122519,-0.38105,0.00833068,0.0403069,1679,561,-0.0371081,-0.40082
462,463,-0.00231934,0.0182495,-0.00041395,-0.00854124,-0.00413905,0.00132283,-0.010278,-0.397295,0.00733284,0.0433552,1686,561,-0.00226235,-0.0182641
469,463,0.0784912,-0.0111084,-0.000300356,-0.00643739,-0.00384453,0.00155009,-0.00828784,-0.448591,0.00610784,0.0399547,1693,561,0.0784683,0.0111283
476,463,0.0214844,0.0134888,-6.31461e-05,-0.00440688,-0.00342104,0.00181721,-0.00628723,-0.502571,0.00491061,0.0231577,1700,561,0.0214802,-0.0134861
483,463,-0.0401611,0.0523071,-3.30545e-05,-0.00282019,-0.0030286,0.00190721,-0.00476046,-0.569773,0.00396533,0.0124238,1707,561,-0.0401851,-0.0523125
490,463,-0.0427246,0.0644531,-0.000143158,-0.00124699,-0.0023156,0.00168539,-0.00307554,-0.668408,0.00278751,0.0113722,1714,561,-0.0427849,-0.0644756
497,463,-0.026123,0.0488281,-1.51927e-05,-0.000186072,-0.00195478,0.00185601,-0.00205728,-0.763558,0.00226034,0.0108685,1721,561,-0.0261007,-0.0488559
504,463,0.000366211,0.0357666,0.000233937,0.000460076,-0.0013741,0.00172575,-0.00103174,-0.826449,0.00160876,0.0151066,1728,561,0.00032923,-0.035779
511,463,0.00146484,0.0380249,8.83789e-05,0.00103788,-0.000892326,0.00157389,-0.000447628,-1.02987,0.00122602,0.0208363,1735,561,0.00150563,-0.0380217
518,463,-0.0124512,0.0879517,-0.000239702,0.0013079,-0.000498047,0.00145433,-0.000386128,-1.28485,0.00112066,0.0198724,1742,561,-0.0124955,-0.0879227
525,463,-0.0457764,0.0788574,-0.000574404,0.00159453,-0.000446942,0.00168302,-0.000662893,-1.37534,0.00139645,0.0148991,1749,561,-0.0457432,-0.0788602
532,463,-0.0445557,0.0563354,-0.000826407,0.00170101,-0.00038258,0.00175765,-0.000883049,-1.42381,0.00155223,0.0130406,1756,561,-0.0446042,-0.0563449
539,463,-0.0343018,0.0567017,-0.00105888,0.00196378,-5.91308e-05,0.00196493,-0.00106003,-1.55124,0.00177232,0.0118605,1763,561,-0.0342892,-0.0567271
546,463,-0.0257568,0.0542603,-0.00143861,0.00211086,0.000121009,0.00211498,-0.00144273,1.53676,0.00206623,0.0100016,1770,561,-0.0257733,-0.0542411
553,463,-0.0297852,0.0657959,-0.00192646,0.00180513,8.8603e-05,0.00180723,-0.00192856,1.54707,0.00215724,0.0103384,1777,561,-0.029745,-0.0658225
560,463,-0.0412598,0.0686035,-0.00226814,0.00172474,-9.21209e-06,0.00172476,-0.00226816,-1.56849,0.00231242,0.0102569,1784,561,-0.041215,-0.0685795
567,463,-0.0430908,0.0648804,-0.00232832,0.00183967,-0.000473683,0.00189283,-0.00238148,-1.45905,0.00247314,0.00911635,1791,561,-0.0431047,-0.0648528
574,463,-0.0303955,0.0450439,-0.00217003,0.00147454,-0.000926433,0.00169652,-0.002392,-1.33563,0.00237186,0.0227573,1798,561,-0.0304068,-0.0450274
581,463,-0.0889893,0.183289,-0.00213618,0.000753157,-0.00149458,0.00138715,-0.00277018,-1.16961,0.00244411,0.0410278,1805,561,-0.0889547,-0.18328
588,463,-0.166504,0.236511,-0.00228425,-0.000464245,-0.00211233,0.000925762,-0.00367425,-0.988786,0.0028094,0.0421896,1812,561,-0.166563,-0.236541
595,463,-0.261963,0.282959,-0.00256486,-0.0017129,-0.00318634,0.00107581,-0.00535357,-0.851848,0.00397646,0.0430594,1819,561,-0.261922,-0.28297
602,463,-0.278442,0.347717,-0.00307114,-0.00354412,-0.00448781,0.00118641,-0.00780167,-0.759075,0.00563834,0.0453528,1826,561,-0.27839,-0.347731
609,463,-0.222046,0.371399,0,0,0,0,0,0,0,-1,1833,561,-0.222006,-0.371415
616,463,-0.0744629,0.375427,0,0,0,0,0,0,0,-1,1840,561,-0.0744698,-0.3754
623,463,0,0,0,0,0,0,0,0,0,-1,1847,561,0,0
630,463,0,0,0,0,0,0,0,0,0,-1,1854,561,0,0
637,463,0,0,0,0,0,0,0,0,0,-1,1861,561,0,0
644,463,0,0,0,0,0,0,0,0,0,-1,1868,561,0,0
651,463,0,0,0,0,0,0,0,0,0,-1,1875,561,0,0
658,463,0,0,0,0,0,0,0,0,0,-1,1882,561,0,0
665,463,0,0,0,0,0,0,0,0,0,-1,1889,561,0,0
672,463,0,0,0,0,0,0,0,0,0,-1,1896,561,0,0
679,463,0,0,0,0,0,0,0,0,0,-1,1903,561,0,0
686,463,0,0,0,0,0,0,0,0,0,-1,1910,561,0,0
693,463,0,0,0,0,0,0,0,0,0,-1,1917,561,0,0
700,463,0,0,0,0,0,0,0,0,0,-1,1924,561,0,0
707,463,0,0,0,0,0,0,0,0,0,-1,1931,561,0,0
714,463,0,0,0,0,0,0,0,0,0,-1,1938,561,0,0
721,463,0,0,0,0,0,0,0,0,0,-1,1945,561,0,0
728,463,0,0,0,0,0,0,0,0,0,-1,1952,561,0,0
735,463,0,0,0,0,0,0,0,0,0,-1,1959,561,0,0
742,463,0,0,0,0,0,0,0,0,0,-1,1966,561,0,0
749,463,0,0,0,0,0,0,0,0,0,-1,1973,561,0,0
756,463,0,0,0,0,0,0,0,0,0,-1,1980,561,0,0
763,463,0,0,0,0,0,0,0,0,0,-1,1987,561,0,0
770,463,0,0,0,0,0,0,0,0,0,-1,1994,561,0,0
777,463,0,0,0,0,0,0,0,0,0,-1,2001,561,0,0
784,463,0,0,0,0,0,0,0,0,0,-1,2008,561,0,0
791,463,0,0,0,0,0,0,0,0,0,-1,2015,561,0,0
798,463,0,0,0,0,0,0,0,0,0,-1,2022,561,0,0
805,463,0,0,0,0,0,0,0,0,0,-1,2029,561,0,0
812,463,0,0,0,0,0,0,0,0,0,-1,2036,561,0,0
-700,456,0,0,0,0,0,0,0,0,0,-1,524,568,0,0
-693,456,0,0,0,0,0,0,0,0,0,-1,531,568,0,0
-686,456,0,0,0,0,0,0,0,0,0,-1,538,568,0,0
-679,456,0,0,0,0,0,0,0,0,0,-1,545,568,0,0
-672,456,0,0,0,0,0,0,0,0,0,-1,552,568,0,0
-665,456,0,0,0,0,0,0,0,0,0,-1,559,568,0,0
-658,456,0,0,0,0,0,0,0,0,0,-1,566,568,0,0
-651,456,0,0,0,0,0,0,0,0,0,-1,573,568,0,0
-644,456,0,0,0,0,0,0,0,0,0,-1,580,568,0,0
-637,456,0,0,0,0,0,0,0,0,0,-1,587,568,0,0
-630,456,0,0,0,0,0,0,0,0,0,-1,594,568,0,0
-623,456,0,0,0,0,0,0,0,0,0,-1,601,568,0,0
-616,456,0,0,0,0,0,0,0,0,0,-1,608,568,0,0
-609,456,0,0,0,0,0,0,0,0,0,-1,615,568,0,0
-602,456,0,0,0,0,0,0,0,0,0,-1,622,568,0,0
-595,456,0,0,0,0,0,0,0,0,0,-1,629,568,0,0
-588,456,0,0,0,0,0,0,0,0,0,-1,636,568,0,0
-581,456,0,0,0,0,0,0,0,0,0,-1,643,568,0,0
-574,456,0,0,0,0,0,0,0,0,0,-1,650,568,0,0
-567,456,0,0,0,0,0,0,0,0,0,-1,657,568,0,0
-560,456,0,0,0,0,0,0,0,0,0,-1,664,568,0,0
-553,456,0,0,0,0,0,0,0,0,0,-1,671,568,0,0
-546,456,0,0,0,0,0,0,0,0,0,-1,678,568,0,0
-539,456,0,0,0,0,0,0,0,0,0,-1,685,568,0,0
-532,456,0,0,0,0,0,0,0,0,0,-1,692,568,0,0
-525,456,0,0,0,0,0,0,0,0,0,-1,699,568,0,0
-518,456,0,0,0,0,0,0,0,0,0,-1,706,568,0,0
-511,456,0,0,0,0,0,0,0,0,0,-1,713,568,0,0
-504,456,-0.0343628,2.28229,0.0912329,0.0817718,0.0203686,0.107413,0.0655916,0.671297,0.0625191,0.0449126,720,568,-0.0343442,-2.28231
-497,456,0.694214,2.11475,0.0669414,0.0704578,0.0131918,0.082008,0.0553912,0.851649,0.0483091,0.0468314,727,568,0.694219,-2.11477
-490,456,0.611328,2.24896,0,0,0,0,0,0,0,-1,734,568,0.611319,-2.24896
-483,456,1.1806,2.54181,0.0306107,0.0469553,0.00194646,0.0471839,0.0303821,1.45389,0.0276152,0.0439271,741,568,1.18057,-2.54182
-476,456,1.57001,2.34875,0.0178411,0.0357153,-0.00163661,0.0358639,0.0176925,-1.48024,0.0207067,0.0469666,748,568,1.57001,-2.34877
-469,456,0.0584717,0.378418,0.00857421,0.0253976,-0.00365433,0.0261571,0.00781472,-1.36588,0.0155042,0.0445489,755,568,0.0584837,-0.378445
-462,456,0.0296631,0.210388,0.0011434,0.0173963,-0.00475994,0.0186877,-0.000148014,-1.30586,0.0125081,0.0446887,762,568,0.0296491,-0.210411
-455,456,-0.0471191,0.251221,-0.00290749,0.0106972,-0.00508615,0.0123884,-0.00459872,-1.24978,0.0101454,0.0437711,769,568,-0.0471308,-0.251235
-448,456,-0.0608521,0.125305,-0.00419878,0.00591152,-0.00474159,0.00778726,-0.00607452,-1.19409,0.00802344,0.0276096,776,568,-0.060871,-0.125334
-441,456,-0.0448608,0.0499878,-0.00505378,0.0014436,-0.0046377,0.00385727,-0.00746744,-1.09093,0.00664815,0.0122997,783,568,-0.0448649,-0.0499739
-434,456,-0.0431519,0.0598145,-0.00465596,-0.000361277,-0.00362425,0.00170401,-0.00672125,-1.05284,0.0051438,0.00750857,790,568,-0.0431781,-0.0598135
-427,456,-0.02948,0.0715942,-0.00423335,-0.00171599,-0.00278945,8.56067e-05,-0.00603495,-0.997335,0.00405214,0.0073226,797,568,-0.0294574,-0.0715778
-420,456,-0.0223389,0.0718994,-0.00319065,-0.00112266,-0.00134543,-0.000459796,-0.00385351,-1.11302,0.00243028,0.00822253,804,568,-0.0223621,-0.071924
-413,456,-0.0230713,0.0750122,-0.00127454,-0.00134267,-0.000771481,-0.000536372,-0.00208084,-0.763336,0.00124748,0.00761673,811,568,-0.0230521,-0.0750063
-406,456,-0.0332642,0.0765991,0.000501406,-0.00141476,-0.00118818,0.00106966,-0.00198301,-0.4461,0.00178856,0.00772712,818,568,-0.033279,-0.0765873
-399,456,-0.0218506,0.0717773,0.00131549,-0.00131149,-0.00212938,0.0025039,-0.0024999,-0.509043,0.00288895,0.00897399,825,568,-0.0218294,-0.0717701
-392,456,-0.010376,0.0718994,0.00147705,-0.000813542,-0.00335561,0.00387743,-0.00321392,-0.620943,0.00410016,0.0085645,832,568,-0.0103634,-0.0718864
-385,456,-0.0281982,0.0654907,0.00132766,-0.000260852,-0.0045045,0.00510739,-0.00404058,-0.698133,0.00529354,0.00931666,839,568,-0.0281759,-0.065514
-378,456,-0.0259399,0.0360718,0.00118124,0.000667175,-0.00564167,0.00657173,-0.00472332,-0.762634,0.00655024,0.0102935,846,568,-0.0259595,-0.0360919
-371,456,-0.0172119,0.0327759,0.000837178,0.00155249,-0.00679464,0.00799889,-0.00560922,-0.811693,0.00789692,0.0104557,853,568,-0.0172065,-0.032782
-364,456,0.0111694,0.0560303,0.000277089,0.00318053,-0.00762411,0.0094899,-0.00603229,-0.879478,0.00903555,0.0136049,860,568,0.0111945,-0.0560499
-357,456,0.000793457,0.069397,-0.000443466,0.00533085,-0.00795063,0.0109023,-0.00601493,-0.959562,0.00990211,0.0148765,867,568,0.000799257,-0.0694023
-350,456,0.0105591,0.0581665,-0.000906811,0.00767974,-0.00789661,0.0123747,-0.00560179,-1.03439,0.0106215,0.0239731,874,568,0.0105491,-0.0581769
-343,456,0.0773315,0.0256348,-0.000120063,0.0117813,-0.00641666,0.0145818,-0.00292063,-1.15927,0.0108269,0.0348166,881,568,0.0773384,-0.0256563
-336,456,-0.245422,0.00531006,0.00110052,0.0164151,-0.00456477,0.0176725,-0.000156856,-1.30201,0.0118343,0.0407692,888,568,-0.245404,-0.0052812
-329,456,-0.355225,-0.336426,0,0,0,0,0,0,0,-1,895,568,-0.3552,0.336443
-322,456,-0.664673,-0.622803,0,0,0,0,0,0,0,-1,902,568,-0.6647,0.622818
-315,456,-0.283997,-0.967285,0.00361204,0.0231224,0.00320986,0.0236369,0.00309752,1.41186,0.0148337,0.0459221,909,568,-0.283989,0.967276
-308,456,-0.314026,-0.825623,0.00466796,0.0251869,0.00665378,0.0271556,0.0026992,1.28312,0.0172744,0.0461821,916,568,-0.314025,0.825644
-301,456,0.0291748,-0.406616,0,0,0,0,0,0,0,-1,923,568,0.0291953,0.406595
-294,456,-0.276733,-1.11707,0.00976839,0.0263702,0.0114401,0.0322037,0.00393488,1.09925,0.0202851,0.0458557,930,568,-0.27674,1.11707
-287,456,0.407471,-1.17639,0.0157538,0.026248,0.0135221,0.0355054,0.00649645,0.970473,0.0218294,0.0444136,937,568,0.407462,1.17641
-280,456,1.08606,-1.2439,0,0,0,0,0,0,0,-1,944,568,1.08606,1.24388
-273,456,1.41577,2.86938,0,0,0,0,0,0,0,-1,951,568,1.41577,-2.86938
-266,456,1.11987,2.67505,0,0,0,0,0,0,0,-1,958,568,1.11987,-2.67504
-259,456,0,0,0,0,0,0,0,0,0,-1,965,568,0,0
-252,456,0,0,0,0,0,0,0,0,0,-1,972,568,0,0
-245,456,0,0,0,0,0,0,0,0,0,-1,979,568,0,0
-238,456,0,0,0,0,0,0,0,0,0,-1,986,568,0,0
-231,456,0,0,0,0,0,0,0,0,0,-1,993,568,0,0
-224,456,0,0,0,0,0,0,0,0,0,-1,1000,568,0,0
-217,456,0,0,0,0,0,0,0,0,0,-1,1007,568,0,0
-210,456,0,0,0,0,0,0,0,0,0,-1,1014,568,0,0
-203,456,0,0,0,0,0,0,0,0,0,-1,1021,568,0,0
-196,456,0,0,0,0,0,0,0,0,0,-1,1028,568,0,0
-189,456,0,0,0,0,0,0,0,0,0,-1,1035,568,0,0
-182,456,0,0,0,0,0,0,0,0,0,-1,1042,568,0,0
-175,456,0,0,0,0,0,0,0,0,0,-1,1049,568,0,0
-168,456,0,0,0,0,0,0,0,0,0,-1,1056,568,0,0
-161,456,0,0,0,0,0,0,0,0,0,-1,1063,568,0,0
-154,456,0,0,0,0,0,0,0,0,0,-1,1070,568,0,0
-147,456,0,0,0,0,0,0,0,0,0,-1,1077,568,0,0
-140,456,0,0,0,0,0,0,0,0,0,-1,1084,568,0,0
-133,456,0,0,0,0,0,0,0,0,0,-1,1091,568,0,0
-126,456,0,0,0,0,0,0,0,0,0,-1,1098,568,0,0
-119,456,0,0,0,0,0,0,0,0,0,-1,1105,568,0,0
-112,456,0,0,0,0,0,0,0,0,0,-1,1112,568,0,0
-105,456,0,0,0,0,0,0,0,0,0,-1,1119,568,0,0
-98,456,0,0,0,0,0,0,0,0,0,-1,1126,568,0,0
-91,456,0,0,0,0,0,0,0,0,0,-1,1133,568,0,0
-84,456,0,0,0,0,0,0,0,0,0,-1,1140,568,0,0
-77,456,0,0,0,0,0,0,0,0,0,-1,1147,568,0,0
-70,456,0,0,0,0,0,0,0,0,0,-1,1154,568,0,0
-63,456,0,0,0,0,0,0,0,0,0,-1,1161,568,0,0
-56,456,0,0,0,0,0,0,0,0,0,-1,1168,568,0,0
-49,456,0,0,0,0,0,0,0,0,0,-1,1175,568,0,0
-42,456,0,0,0,0,0,0,0,0,0,-1,1182,568,0,0
-35,456,0,0,0,0,0,0,0,0,0,-1,1189,568,0,0
-28,456,0,0,0,0,0,0,0,0,0,-1,1196,568,0,0
-21,456,0,0,0,0,0,0,0,0,0,-1,1203,568,0,0
-14,456,0,0,0,0,0,0,0,0,0,-1,1210,568,0,0
-7,456,0,0,0,0,0,0,0,0,0,-1,1217,568,0,0
0,456,0,0,0,0,0,0,0,0,0,-1,1224,568,0,0
7,456,0,0,0,0,0,0,0,0,0,-1,1231,568,0,0
14,456,0,0,0,0,0,0,0,0,0,-1,1238,568,0,0
21,456,0,0,0,0,0,0,0,0,0,-1,1245,568,0,0
28,456,0,0,0,0,0,0,0,0,0,-1,1252,568,0,0
35,456,0,0,0,0,0,0,0,0,0,-1,1259,568,0,0
42,456,0,0,0,0,0,0,0,0,0,-1,1266,568,0,0
49,456,0,0,0,0,0,0,0,0,0,-1,1273,568,0,0
56,456,0,0,0,0,0,0,0,0,0,-1,1280,568,0,0
63,456,0,0,0,0,0,0,0,0,0,-1,1287,568,0,0
70,456,0,0,0,0,0,0,0,0,0,-1,1294,568,0,0
77,456,0,0,0,0,0,0,0,0,0,-1,1301,568,0,0
84,456,0,0,0,0,0,0,0,0,0,-1,1308,568,0,0
91,456,0,0,0,0,0,0,0,0,0,-1,1315,568,0,0
98,456,0,0,0,0,0,0,0,0,0,-1,1322,568,0,0
105,456,0,0,0,0,0,0,0,0,0,-1,1329,568,0,0
112,456,0,0,0,0,0,0,0,0,0,-1,1336,568,0,0
119,456,0,0,0,0,0,0,0,0,0,-1,1343,568,0,0
126,456,0,0,0,0,0,0,0,0,0,-1,1350,568,0,0
133,456,0,0,0,0,0,0,0,0,0,-1,1357,568,0,0
140,456,0,0,0,0,0,0,0,0,0,-1,1364,568,0,0
147,456,0,0,0,0,0,0,0,0,0,-1,1371,568,0,0
154,456,0,0,0,0,0,0,0,0,0,-1,1378,568,0,0
161,456,0,0,0,0,0,0,0,0,0,-1,1385,568,0,0
168,456,0,0,0,0,0,0,0,0,0,-1,1392,568,0,0
175,456,0,0,0,0,0,0,0,0,0,-1,1399,568,0,0
182,456,0,0,0,0,0,0,0,0,0,-1,1406,568,0,0
189,456,0,0,0,0,0,0,0,0,0,-1,1413,568,0,0
196,456,0,0,0,0,0,0,0,0,0,-1,1420,568,0,0
203,456,0,0,0,0,0,0,0,0,0,-1,1427,568,0,0
210,456,0,0,0,0,0,0,0,0,0,-1,1434,568,0,0
217,456,0,0,0,0,0,0,0,0,0,-1,1441,568,0,0
224,456,0,0,0,0,0,0,0,0,0,-1,1448,568,0,0
231,456,0,0,0,0,0,0,0,0,0,-1,1455,568,0,0
238,456,0,0,0,0,0,0,0,0,0,-1,1462,568,0,0
245,456,0,0,0,0,0,0,0,0,0,-1,1469,568,0,0
252,456,0,0,0,0,0,0,0,0,0,-1,1476,568,0,0
259,456,0,0,0,0,0,0,0,0,0,-1,1483,568,0,0
266,456,0,0,0,0,0,0,0,0,0,-1,1490,568,0,0
273,456,0,0,0,0,0,0,0,0,0,-1,1497,568,0,0
280,456,0,0,0,0,0,0,0,0,0,-1,1504,568,0,0
287,456,0,0,0,0,0,0,0,0,0,-1,1511,568,0,0
294,456,0,0,0,0,0,0,0,0,0,-1,1518,568,0,0
301,456,0,0,0,0,0,0,0,0,0,-1,1525,568,0,0
308,456,0,0,0,0,0,0,0,0,0,-1,1532,568,0,0
315,456,0,0,0,0,0,0,0,0,0,-1,1539,568,0,0
322,456,0,0,0,0,0,0,0,0,0,-1,1546,568,0,0
329,456,0,0,0,0,0,0,0,0,0,-1,1553,568,0,0
336,456,0,0,0,0,0,0,0,0,0,-1,1560,568,0,0
343,456,0,0,0,0,0,0,0,0,0,-1,1567,568,0,0
350,456,0,0,0,0,0,0,0,0,0,-1,1574,568,0,0
357,456,0,0,0,0,0,0,0,0,0,-1,1581,568,0,0
364,456,0,0,0,0,0,0,0,0,0,-1,1588,568,0,0
371,456,0,0,0,0,0,0,0,0,0,-1,1595,568,0,0
378,456,0,0,0,0,0,0,0,0,0,-1,1602,568,0,0
385,456,-0.613892,-0.790833,0.00528147,0.0187666,0.0949097,0.107173,-0.0831249,0.82086,0.110161,0.0455234,1609,568,-0.613835,0.790843
392,456,-0.593628,-0.479553,0.0056447,0.0104744,0.0766611,0.0847587,-0.0686396,0.801143,0.0887274,0.0424576,1616,568,-0.593654,0.479547
399,456,-0.425537,-0.308655,0,0,0,0,0,0,0,-1,1623,568,-0.425511,0.308628
406,456,0.799438,-0.0455322,0,0,0,0,0,0,0,-1,1630,568,0.799465,0.0455384
413,456,0.34375,0.158936,0,0,0,0,0,0,0,-1,1637,568,0.343755,-0.158925
420,456,-0.394043,0.855042,0,0,0,0,0,0,0,-1,1644,568,-0.393992,-0.855054
427,456,-0.320679,0.689514,-0.00473017,-0.0115707,0.00930506,0.00176331,-0.0180642,0.609278,0.0126715,0.0459072,1651,568,-0.32066,-0.689499
434,456,-0.208984,0.498413,-0.00506297,-0.0142689,0.000852581,-0.00498468,-0.0143472,0.0915739,0.00841094,0.0479106,1658,568,-0.20893,-0.498385
441,456,-0.0968018,0.50061,-0.00527882,-0.0138095,-0.0039979,-0.0036981,-0.0153902,-0.376522,0.0092765,0.0467584,1665,568,-0.0967642,-0.500614
448,456,0.0236816,0.406738,-0.00489579,-0.0124699,-0.0051932,-0.00225548,-0.0151103,-0.470358,0.00941219,0.0450833,1672,568,0.0237239,-0.40674
455,456,0.229614,0.451233,0,0,0,0,0,0,0,-1,1679,568,0.229569,-0.451228
462,456,0.327271,0.70929,-0.00253305,-0.0073293,-0.00463513,0.000287585,-0.0101499,-0.546671,0.00686449,0.0467621,1686,568,0.327261,-0.709319
469,456,0.142822,0.0119019,-0.00195014,-0.00466079,-0.00421557,0.00112262,-0.00773356,-0.629865,0.00556777,0.0444545,1693,568,0.142796,-0.0118967
476,456,-0.060791,0.0247803,-0.00133004,-0.00217814,-0.00373614,0.00200604,-0.00551422,-0.72889,0.00449654,0.035028,1700,568,-0.0608123,-0.0247608
483,456,-0.0842285,0.0834351,-0.000964953,-0.000325716,-0.00331228,0.00268233,-0.003973,-0.833497,0.00386646,0.0288311,1707,568,-0.0842663,-0.0834477
490,456,-0.0491943,0.0787354,-0.000822981,0.00134672,-0.00253349,0.00301785,-0.00249412,-0.987689,0.00318712,0.0171745,1714,568,-0.049141,-0.078711
497,456,-0.0457764,0.0505981,-0.000370922,0.00234662,-0.00219367,0.00356825,-0.00159255,-1.06268,0.0030515,0.0103728,1721,568,-0.0458014,-0.0506086
504,456,-0.00439453,0.0327759,0.000331007,0.0027811,-0.00158615,0.0035602,-0.000448095,-1.11422,0.00253606,0.00912308,1728,568,-0.00442946,-0.032796
511,456,-0.0119629,0.060791,0.000424738,0.0031155,-0.00112935,0.00352667,1.35625e-05,-1.22163,0.00234661,0.0124659,1735,568,-0.011948,-0.0607801
518,456,-0.0206299,0.072937,0.000154291,0.00296796,-0.000755883,0.00315816,-3.59162e-05,-1.32428,0.00211752,0.0142334,1742,568,-0.020608,-0.072937
525,456,-0.019043,0.0518799,-0.000184577,0.00287199,-0.000723795,0.00303472,-0.000347309,-1.34964,0.00214829,0.0130742,1749,568,-0.0190703,-0.0518977
532,456,-0.0435791,0.0498047,-0.000451482,0.00253431,-0.000684896,0.00268392,-0.00060109,-1.35573,0.00201968,0.0128064,1756,568,-0.0436354,-0.0498111
539,456,-0.0421143,0.041748,-0.00064914,0.00239145,-0.00033392,0.00242769,-0.00068538,-1.46269,0.00188883,0.0130432,1763,568,-0.0420877,-0.0417351
546,456,-0.0269775,0.0410767,-0.000967643,0.00222728,-0.00011664,0.00223153,-0.000971896,-1.53435,0.00189656,0.0142101,1770,568,-0.027012,-0.0411037
553,456,-0.0288086,0.0702515,-0.00139252,0.00168258,-7.86696e-05,0.00168459,-0.00139453,-1.54524,0.00178036,0.0119182,1777,568,-0.0288434,-0.0702618
560,456,-0.0345459,0.0888062,-0.00170944,0.00135781,-7.5326e-05,0.00135966,-0.00171129,-1.54626,0.00177688,0.00945361,1784,568,-0.0345503,-0.0888147
567,456,-0.036377,0.0750732,-0.00170284,0.00137789,-0.000482134,0.00145158,-0.00177654,-1.41913,0.0018669,0.00826532,1791,568,-0.0363266,-0.075076
574,456,-0.0334473,0.0531616,-0.00143215,0.00100094,-0.00086553,0.00127742,-0.00170863,-1.26161,0.00172998,0.0136137,1798,568,-0.0334213,-0.053153
581,456,-0.14502,0.146484,-0.00134771,0.000338988,-0.00131162,0.00105499,-0.00206371,-1.07111,0.00183171,0.0312481,1805,568,-0.145024,-0.146455
588,456,-0.276733,0.392944,-0.00150816,-0.000682072,-0.0017532,0.000706088,-0.00289632,-0.901085,0.00220427,0.0402436,1812,568,-0.276703,-0.392928
595,456,-0.349976,0.758789,-0.00182153,-0.00164012,-0.00267869,0.0009494,-0.00441105,-0.802323,0.00330297,0.0423957,1819,568,-0.34993,-0.758766
602,456,-0.142212,0.809753,-0.00233991,-0.00316299,-0.00380747,0.00107819,-0.00658109,-0.731563,0.00478744,0.0420183,1826,568,-0.142196,-0.809767
609,456,-0.0187988,0.424194,-0.00339659,-0.00519531,-0.0049678,0.000752601,-0.00934451,-0.695849,0.00649509,0.0375343,1833,568,-0.0188085,-0.424217
616,456,-0.157349,0.194031,-0.0055011,-0.00778302,-0.00623695,-0.0003016,-0.0129825,-0.694931,0.00855625,0.0372064,1840,568,-0.157378,-0.194054
623,456,-0.172119,0.0114136,0,0,0,0,0,0,0,-1,1847,568,-0.172072,-0.011387
630,456,0,0,0,0,0,0,0,0,0,-1,1854,568,0,0
637,456,0,0,0,0,0,0,0,0,0,-1,1861,568,0,0
644,456,0,0,0,0,0,0,0,0,0,-1,1868,568,0,0
651,456,0,0,0,0,0,0,0,0,0,-1,1875,568,0,0
658,456,0,0,0,0,0,0,0,0,0,-1,1882,568,0,0
665,456,0,0,0,0,0,0,0,0,0,-1,1889,568,0,0
672,456,0,0,0,0,0,0,0,0,0,-1,1896,568,0,0
679,456,0,0,0,0,0,0,0,0,0,-1,1903,568,0,0
686,456,0,0,0,0,0,0,0,0,0,-1,1910,568,0,0
693,456,0,0,0,0,0,0,0,0,0,-1,1917,568,0,0
700,456,0,0,0,0,0,0,0,0,0,-1,1924,568,0,0
707,456,0,0,0,0,0,0,0,0,0,-1,1931,568,0,0
714,456,0,0,0,0,0,0,0,0,0,-1,1938,568,0,0
721,456,0,0,0,0,0,0,0,0,0,-1,1945,568,0,0
728,456,0,0,0,0,0,0,0,0,0,-1,1952,568,0,0
735,456,0,0,0,0,0,0,0,0,0,-1,1959,568,0,0
742,456,0,0,0,0,0,0,0,0,0,-1,1966,568,0,0
749,456,0,0,0,0,0,0,0,0,0,-1,1973,568,0,0
756,456,0,0,0,0,0,0,0,0,0,-1,1980,568,0,0
763,456,0,0,0,0,0,0,0,0,0,-1,1987,568,0,0
770,456,0,0,0,0,0,0,0,0,0,-1,1994,568,0,0
777,456,0,0,0,0,0,0,0,0,0,-1,2001,568,0,0
784,456,0,0,0,0,0,0,0,0,0,-1,2008,568,0,0
791,456,0,0,0,0,0,0,0,0,0,-1,2015,568,0,0
798,456,0,0,0,0,0,0,0,0,0,-1,2022,568,0,0
805,456,0,0,0,0,0,0,0,0,0,-1,2029,568,0,0
812,456,0,0,0,0,0,0,0,0,0,-1,2036,568,0,0
-700,449,0,0,0,0,0,0,0,0,0,-1,524,575,0,0
-693,449,0,0,0,0,0,0,0,0,0,-1,531,575,0,0
-686,449,0,0,0,0,0,0,0,0,0,-1,538,575,0,0
-679,449,0,0,0,0,0,0,0,0,0,-1,545,575,0,0
-672,449,0,0,0,0,0,0,0,0,0,-1,552,575,0,0
-665,449,0,0,0,0,0,0,0,0,0,-1,559,575,0,0
-658,449,0,0,0,0,0,0,0,0,0,-1,566,575,0,0
-651,449,0,0,0,0,0,0,0,0,0,-1,573,575,0,0
-644,449,0,0,0,0,0,0,0,0,0,-1,580,575,0,0
-637,449,0,0,0,0,0,0,0,0,0,-1,587,575,0,0
-630,449,0,0,0,0,0,0,0,0,0,-1,594,575,0,0
-623,449,0,0,0,0,0,0,0,0,0,-1,601,575,0,0
-616,449,0,0,0,0,0,0,0,0,0,-1,608,575,0,0
-609,449,0,0,0,0,0,0,0,0,0,-1,615,575,0,0
-602,449,0,0,0,0,0,0,0,0,0,-1,622,575,0,0
-595,449,0,0,0,0,0,0,0,0,0,-1,629,575,0,0
-588,449,0,0,0,0,0,0,0,0,0,-1,636,575,0,0
-581,449,0,0,0,0,0,0,0,0,0,-1,643,575,0,0
-574,449,0,0,0,0,0,0,0,0,0,-1,650,575,0,0
-567,449,0,0,0,0,0,0,0,0,0,-1,657,575,0,0
-560,449,0,0,0,0,0,0,0,0,0,-1,664,575,0,0
-553,449,0,0,0,0,0,0,0,0,0,-1,671,575,0,0
-546,449,0,0,0,0,0,0,0,0,0,-1,678,575,0,0
-539,449,0,0,0,0,0,0,0,0,0,-1,685,575,0,0
-532,449,0,0,0,0,0,0,0,0,0,-1,692,575,0,0
-525,449,0,0,0,0,0,0,0,0,0,-1,699,575,0,0
-518,449,0,0,0,0,0,0,0,0,0,-1,706,575,0,0
-511,449,-0.923523,1.82574,0,0,0,0,0,0,0,-1,713,575,-0.923521,-1.82572
-504,449,-0.561401,1.67719,0.0843515,0.0769053,0.0214827,0.102431,0.0588255,0.699597,0.0593559,0.0476539,720,575,-0.561421,-1.67716
-497,449,-0.012207,1.58545,0.0622575,0.0673446,0.0148398,0.0798573,0.0497448,0.870274,0.0465677,0.045724,727,575,-0.0122366,-1.58544
-490,449,0.234497,1.57715,0.0436945,0.0566503,0.00915476,0.0613872,0.0389575,1.0933,0.0358676,0.0450204,734,575,0.234506,-1.57715
-483,449,0.355713,1.45892,0.0290262,0.0466082,0.0044654,0.0476773,0.0279571,1.3358,0.0276631,0.0439082,741,575,0.355687,-1.45892
-476,449,0.257507,0.641052,0,0,0,0,0,0,0,-1,748,575,0.257514,-0.641057
-469,449,0.154541,0.532349,0.0085356,0.0268015,-0.00118743,0.0268784,0.00845873,-1.50615,0.0158695,0.0454625,755,575,0.154553,-0.532371
-462,449,0.029541,0.213623,0.00123649,0.019036,-0.00252975,0.0193885,0.000883937,-1.43232,0.0126413,0.0427825,762,575,0.0295568,-0.213645
-455,449,-0.0375977,0.086853,-0.00278875,0.0123938,-0.00322176,0.0130492,-0.00344413,-1.37011,0.0100463,0.0337836,769,575,-0.0375802,-0.0868458
-448,449,-0.0227661,0.0718384,-0.00400779,0.00764106,-0.00320071,0.00846257,-0.00482931,-1.31955,0.00776904,0.0174406,776,575,-0.0227789,-0.0718258
-441,449,-0.0239258,0.0476685,-0.00503612,0.00304413,-0.00342575,0.00430102,-0.00629301,-1.21915,0.0061524,0.0120677,783,575,-0.0239144,-0.0476478
-434,449,-0.041687,0.0621948,-0.00486591,0.000853488,-0.00271099,0.00193427,-0.00594669,-1.19144,0.00474257,0.0102907,790,575,-0.0416623,-0.0622197
-427,449,-0.0336914,0.0740356,-0.00454655,-0.000716856,-0.00203941,0.000165769,-0.00542917,-1.16235,0.00367595,0.0110924,797,575,-0.0337084,-0.0740174
-420,449,-0.0314941,0.0722656,-0.00340364,-0.000500352,-0.000880984,-0.000253937,-0.00365005,-1.29806,0.00235329,0.0119727,804,575,-0.0314897,-0.0722507
-413,449,-0.0285645,0.0643311,-0.00131126,-0.00110109,-0.000616242,-0.000581038,-0.00183131,-0.869851,0.00108059,0.0090884,811,575,-0.0285506,-0.0643242
-406,449,-0.0283203,0.0588379,0.000718737,-0.00154655,-0.00136053,0.00135638,-0.0021842,-0.438275,0.0020627,0.00819892,818,575,-0.0282941,-0.0588082
-399,449,-0.0228882,0.0650635,0.0018543,-0.0018051,-0.00273712,0.00331696,-0.00326776,-0.490771,0.00380173,0.00843273,825,575,-0.0228911,-0.0650457
-392,449,-0.0214844,0.062561,0.0022627,-0.00157012,-0.00447708,0.00521629,-0.00452371,-0.583173,0.00562813,0.00932678,832,575,-0.0215029,-0.0625648
-385,449,-0.0187988,0.0656738,0.00242449,-0.00114542,-0.00618847,0.00708028,-0.00580121,-0.644993,0.00744935,0.00945364,839,575,-0.0187879,-0.0657011
-378,449,-0.0332642,0.065979,0.00243842,-0.00027228,-0.00772136,0.00892249,-0.00675634,-0.698517,0.00908093,0.00878138,846,575,-0.0332646,-0.0659637
-371,449,-0.0327759,0.0727539,0.00221806,0.000490602,-0.00927831,0.0106728,-0.00796409,-0.738986,0.0107978,0.00943503,853,575,-0.0327521,-0.072752
-364,449,-0.0223389,0.0502319,0.00163382,0.00211489,-0.0105699,0.012447,-0.00869826,-0.796774,0.012272,0.0157016,860,575,-0.0223567,-0.0502492
-357,449,0.010498,0.0663452,0.000702657,0.00443303,-0.0112063,0.0139283,-0.00879262,-0.867863,0.0132292,0.0252777,867,575,0.0105033,-0.0663492
-350,449,0.119507,0.0844727,-0.000197508,0.00712627,-0.0112484,0.0152938,-0.00836504,-0.942762,0.0138533,0.0366765,874,575,0.119521,-0.0844835
-343,449,0.197144,-0.126953,6.97459e-05,0.0117265,-0.00959025,0.0171206,-0.0053243,-1.05844,0.013542,0.0423452,881,575,0.19713,0.12696
-336,449,0.119019,-0.439026,0.000926429,0.0170263,-0.00721002,0.0197831,-0.00183039,-1.20559,0.0138393,0.0433215,888,575,0.118989,0.439002
-329,449,-0.124817,-0.338867,0.00180586,0.0216481,-0.00338853,0.0222109,0.00124314,-1.40623,0.0144107,0.0438873,895,575,-0.12481,0.33889
-322,449,-0.368591,-0.292725,0,0,0,0,0,0,0,-1,902,575,-0.368621,0.292709
-315,449,-0.680786,-1.33691,0,0,0,0,0,0,0,-1,909,575,-0.68079,1.33694
-308,449,-0.454712,-1.35052,0,0,0,0,0,0,0,-1,916,575,-0.454739,1.35055
-301,449,-0.142456,0.257019,0,0,0,0,0,0,0,-1,923,575,-0.142485,-0.257036
-294,449,-0.893982,-1.73993,0,0,0,0,0,0,0,-1,930,575,-0.89398,1.7399
-287,449,-0.175964,-1.81256,0,0,0,0,0,0,0,-1,937,575,-0.175956,1.81253
-280,449,0.52594,-1.88239,0,0,0,0,0,0,0,-1,944,575,0.52594,1.88237
-273,449,0,0,0,0,0,0,0,0,0,-1,951,575,0,0
-266,449,0,0,0,0,0,0,0,0,0,-1,958,575,0,0
-259,449,0,0,0,0,0,0,0,0,0,-1,965,575,0,0
-252,449,0,0,0,0,0,0,0,0,0,-1,972,575,0,0
-245,449,0,0,0,0,0,0,0,0,0,-1,979,575,0,0
-238,449,0,0,0,0,0,0,0,0,0,-1,986,575,0,0
-231,449,0,0,0,0,0,0,0,0,0,-1,993,575,0,0
-224,449,0,0,0,0,0,0,0,0,0,-1,1000,575,0,0
-217,449,0,0,0,0,0,0,0,0,0,-1,1007,575,0,0
-210,449,0,0,0,0,0,0,0,0,0,-1,1014,575,0,0
-203,449,0,0,0,0,0,0,0,0,0,-1,1021,575,0,0
-196,449,0,0,0,0,0,0,0,0,0,-1,1028,575,0,0
-189,449,0,0,0,0,0,0,0,0,0,-1,1035,575,0,0
-182,449,0,0,0,0,0,0,0,0,0,-1,1042,575,0,0
-175,449,0,0,0,0,0,0,0,0,0,-1,1049,575,0,0
-168,449,0,0,0,0,0,0,0,0,0,-1,1056,575,0,0
-161,449,0,0,0,0,0,0,0,0,0,-1,1063,575,0,0
-154,449,0,0,0,0,0,0,0,0,0,-1,1070,575,0,0
-147,449,0,0,0,0,0,0,0,0,0,-1,1077,575,0,0
-140,449,0,0,0,0,0,0,0,0,0,-1,1084,575,0,0
-133,449,0,0,0,0,0,0,0,0,0,-1,1091,575,0,0
-126,449,0,0,0,0,0,0,0,0,0,-1,1098,575,0,0
-119,449,0,0,0,0,0,0,0,0,0,-1,1105,575,0,0
-112,449,0,0,0,0,0,0,0,0,0,-1,1112,575,0,0
-105,449,0,0,0,0,0,0,0,0,0,-1,1119,575,0,0
-98,449,0,0,0,0,0,0,0,0,0,-1,1126,575,0,0
-91,449,0,0,0,0,0,0,0,0,0,-1,1133,575,0,0
-84,449,0,0,0,0,0,0,0,0,0,-1,1140,575,0,0
-77,449,0,0,0,0,0,0,0,0,0,-1,1147,575,0,0
-70,449,0,0,0,0,0,0,0,0,0,-1,1154,575,0,0
-63,449,0,0,0,0,0,0,0,0,0,-1,1161,575,0,0
-56,449,0,0,0,0,0,0,0,0,0,-1,1168,575,0,0
-49,449,0,0,0,0,0,0,0,0,0,-1,1175,575,0,0
-42,449,0,0,0,0,0,0,0,0,0,-1,1182,575,0,0
-35,449,0,0,0,0,0,0,0,0,0,-1,1189,575,0,0
-28,449,0,0,0,0,0,0,0,0,0,-1,1196,575,0,0
-21,449,0,0,0,0,0,0,0,0,0,-1,1203,575,0,0
-14,449,0,0,0,0,0,0,0,0,0,-1,1210,575,0,0
-7,449,0,0,0,0,0,0,0,0,0,-1,1217,575,0,0
0,449,0,0,0,0,0,0,0,0,0,-1,1224,575,0,0
7,449,0,0,0,0,0,0,0,0,0,-1,1231,575,0,0
14,449,0,0,0,0,0,0,0,0,0,-1,1238,575,0,0
21,449,0,0,0,0,0,0,0,0,0,-1,1245,575,0,0
28,449,0,0,0,0,0,0,0,0,0,-1,1252,575,0,0
35,449,0,0,0,0,0,0,0,0,0,-1,1259,575,0,0
42,449,0,0,0,0,0,0,0,0,0,-1,1266,575,0,0
49,449,0,0,0,0,0,0,0,0,0,-1,1273,575,0,0
56,449,0,0,0,0,0,0,0,0,0,-1,1280,575,0,0
63,449,0,0,0,0,0,0,0,0,0,-1,1287,575,0,0
70,449,0,0,0,0,0,0,0,0,0,-1,1294,575,0,0
77,449,0,0,0,0,0,0,0,0,0,-1,1301,575,0,0
84,449,0,0,0,0,0,0,0,0,0,-1,1308,575,0,0
91,449,0,0,0,0,0,0,0,0,0,-1,1315,575,0,0
98,449,0,0,0,0,0,0,0,0,0,-1,1322,575,0,0
105,449,0,0,0,0,0,0,0,0,0,-1,1329,575,0,0
112,449,0,0,0,0,0,0,0,0,0,-1,1336,575,0,0
119,449,0,0,0,0,0,0,0,0,0,-1,1343,575,0,0
126,449,0,0,0,0,0,0,0,0,0,-1,1350,575,0,0
133,449,0,0,0,0,0,0,0,0,0,-1,1357,575,0,0
140,449,0,0,0,0,0,0,0,0,0,-1,1364,575,0,0
147,449,0,0,0,0,0,0,0,0,0,-1,1371,575,0,0
154,449,0,0,0,0,0,0,0,0,0,-1,1378,575,0,0
161,449,0,0,0,0,0,0,0,0,0,-1,1385,575,0,0
168,449,0,0,0,0,0,0,0,0,0,-1,1392,575,0,0
175,449,0,0,0,0,0,0,0,0,0,-1,1399,575,0,0
182,449,0,0,0,0,0,0,0,0,0,-1,1406,575,0,0
189,449,0,0,0,0,0,0,0,0,0,-1,1413,575,0,0
196,449,0,0,0,0,0,0,0,0,0,-1,1420,575,0,0
203,449,0,0,0,0,0,0,0,0,0,-1,1427,575,0,0
210,449,0,0,0,0,0,0,0,0,0,-1,1434,575,0,0
217,449,0,0,0,0,0,0,0,0,0,-1,1441,575,0,0
224,449,0,0,0,0,0,0,0,0,0,-1,1448,575,0,0
231,449,0,0,0,0,0,0,0,0,0,-1,1455,575,0,0
238,449,0,0,0,0,0,0,0,0,0,-1,1462,575,0,0
245,449,0,0,0,0,0,0,0,0,0,-1,1469,575,0,0
252,449,0,0,0,0,0,0,0,0,0,-1,1476,575,0,0
259,449,0,0,0,0,0,0,0,0,0,-1,1483,575,0,0
266,449,0,0,0,0,0,0,0,0,0,-1,1490,575,0,0
273,449,0,0,0,0,0,0,0,0,0,-1,1497,575,0,0
280,449,0,0,0,0,0,0,0,0,0,-1,1504,575,0,0
287,449,0,0,0,0,0,0,0,0,0,-1,1511,575,0,0
294,449,0,0,0,0,0,0,0,0,0,-1,1518,575,0,0
301,449,0,0,0,0,0,0,0,0,0,-1,1525,575,0,0
308,449,0,0,0,0,0,0,0,0,0,-1,1532,575,0,0
315,449,0,0,0,0,0,0,0,0,0,-1,1539,575,0,0
322,449,0,0,0,0,0,0,0,0,0,-1,1546,575,0,0
329,449,0,0,0,0,0,0,0,0,0,-1,1553,575,0,0
336,449,0,0,0,0,0,0,0,0,0,-1,1560,575,0,0
343,449,0,0,0,0,0,0,0,0,0,-1,1567,575,0,0
350,449,0,0,0,0,0,0,0,0,0,-1,1574,575,0,0
357,449,0,0,0,0,0,0,0,0,0,-1,1581,575,0,0
364,449,0,0,0,0,0,0,0,0,0,-1,1588,575,0,0
371,449,0,0,0,0,0,0,0,0,0,-1,1595,575,0,0
378,449,0,0,0,0,0,0,0,0,0,-1,1602,575,0,0
385,449,0,0,0,0,0,0,0,0,0,-1,1609,575,0,0
392,449,-0.51355,-0.658875,0,0,0,0,0,0,0,-1,1616,575,-0.513579,0.658903
399,449,-0.296387,-0.632385,0,0,0,0,0,0,0,-1,1623,575,-0.296417,0.632384
406,449,0.861816,-0.409058,0,0,0,0,0,0,0,-1,1630,575,0.86176,0.409028
413,449,0.528564,0.271606,0,0,0,0,0,0,0,-1,1637,575,0.528549,-0.271624
420,449,-0.196655,0.0618286,0,0,0,0,0,0,0,-1,1644,575,-0.196601,-0.0618151
427,449,-0.12561,0.0829468,-0.00755941,-0.0146237,0.00911486,-0.00131624,-0.0208669,0.600549,0.0134939,0.043499,1651,575,-0.125617,-0.0829228
434,449,-0.257446,0.680115,-0.00802818,-0.0164037,0.000361242,-0.00801263,-0.0164193,0.0430242,0.00948057,0.0466187,1658,575,-0.257388,-0.680085
441,449,-0.264526,0.998535,-0.00823664,-0.0151695,-0.00447407,-0.00604327,-0.0173629,-0.45581,0.0101776,0.0469363,1665,575,-0.264479,-0.998531
448,449,-0.30603,0.956848,-0.0077696,-0.0130334,-0.00549969,-0.00430448,-0.0164985,-0.562227,0.00988177,0.0465126,1672,575,-0.306055,-0.956847
455,449,-0.12439,0.823181,-0.00642833,-0.00958696,-0.00514924,-0.00262165,-0.0133936,-0.636598,0.00819618,0.0483886,1679,575,-0.124341,-0.823167
462,449,0.246948,0.76123,-0.00480389,-0.00621564,-0.00465873,-0.000797861,-0.0102217,-0.710212,0.00656467,0.0486592,1686,575,0.246968,-0.761255
469,449,0.317627,0.616272,-0.00377936,-0.00292732,-0.00412316,0.00079177,-0.00749845,-0.836877,0.00528271,0.0472537,1693,575,0.317674,-0.616251
476,449,-0.285645,0.570618,0,0,0,0,0,0,0,-1,1700,575,-0.285659,-0.570606
483,449,-0.307617,0.351257,-0.0021005,0.00211745,-0.00319045,0.00383297,-0.00381601,-1.07744,0.00441615,0.0419572,1707,575,-0.307598,-0.351266
490,449,-0.0952148,0.148499,-0.00171948,0.00387061,-0.00239439,0.00475597,-0.00260484,-1.21662,0.00430983,0.0332295,1714,575,-0.0951927,-0.148494
497,449,-0.101563,0.0935059,-0.000948683,0.00477905,-0.00212532,0.00548152,-0.00165115,-1.25158,0.00431144,0.0191779,1721,575,-0.101506,-0.0934834
504,449,-0.0385742,0.0501099,0.000177731,0.00498064,-0.00153116,0.00542725,-0.000268874,-1.28699,0.00371104,0.0115583,1728,575,-0.0386293,-0.0501098
511,449,-0.0203857,0.0609741,0.000514409,0.00510686,-0.00113379,0.00537152,0.00024975,-1.34147,0.00350073,0.00932311,1735,575,-0.0203438,-0.0609987
518,449,-0.0256348,0.0498657,0.000334873,0.00454127,-0.000820924,0.00469581,0.000180339,-1.38473,0.00307219,0.0117795,1742,575,-0.0255891,-0.0498751
525,449,-0.0377197,0.0316772,1.42277e-05,0.00402001,-0.000822489,0.00418231,-0.000148074,-1.37597,0.00283885,0.011007,1749,575,-0.0377059,-0.031704
532,449,-0.0532227,0.0386963,-0.000238586,0.00323717,-0.000813945,0.00341833,-0.000419751,-1.35179,0.00243092,0.00929165,1756,575,-0.0532831,-0.03871
539,449,-0.0484619,0.0466309,-0.000378028,0.00267936,-0.000414417,0.00273454,-0.000433205,-1.43843,0.00198326,0.00963512,1763,575,-0.0484925,-0.0466463
546,449,-0.0235596,0.0426025,-0.000641751,0.00220163,-0.000159406,0.00221054,-0.00065066,-1.51497,0.00173181,0.015118,1770,575,-0.0235589,-0.0425735
553,449,-0.0302734,0.0687866,-0.000995954,0.00144557,-5.42916e-05,0.00144678,-0.00099716,-1.54857,0.00141895,0.0132437,1777,575,-0.0302234,-0.0687872
560,449,-0.0314941,0.0697021,-0.00127089,0.000912451,5.07525e-05,0.00091363,-0.00127207,1.54757,0.00126756,0.0124318,1784,575,-0.0314647,-0.0696976
567,449,-0.0489502,0.0718384,-0.00119373,0.000899807,-0.000294379,0.000940413,-0.00123433,-1.43372,0.00125941,0.00860691,1791,575,-0.0489671,-0.0718656
574,449,-0.050415,0.0643311,-0.000807278,0.000570447,-0.000617905,0.00080697,-0.0010438,-1.20522,0.00107145,0.0101054,1798,575,-0.0503902,-0.0643031
581,449,-0.0588379,0.0755005,-0.000646204,1.44527e-05,-0.00097425,0.000712852,-0.0013446,-0.948846,0.00120639,0.0170018,1805,575,-0.0588491,-0.0755237
588,449,-0.171997,0.181274,-0.000759539,-0.000778292,-0.00127384,0.000504961,-0.00204279,-0.781718,0.00155771,0.0306983,1812,575,-0.171937,-0.181257
595,449,-0.208862,0.534668,-0.00105819,-0.00141024,-0.0020301,0.0008035,-0.00327193,-0.742152,0.00249267,0.0371426,1819,575,-0.208904,-0.534639
602,449,-0.148926,0.730957,-0.00154918,-0.00253526,-0.00295938,0.000957946,-0.00504239,-0.702855,0.00372223,0.0412996,1826,575,-0.148865,-0.730986
609,449,-0.0756836,0.396118,-0.00250902,-0.00406808,-0.00388643,0.000675288,-0.00725239,-0.686423,0.00507502,0.0411182,1833,575,-0.0756936,-0.396094
616,449,-0.153198,-0.1745,-0.00441186,-0.00603367,-0.00491296,-0.000243333,-0.0102022,-0.703609,0.00672182,0.0401114,1840,575,-0.153249,0.174472
623,449,0.122437,-0.620544,0,0,0,0,0,0,0,-1,1847,575,0.122401,0.620524
630,449,0.504761,-0.409668,0,0,0,0,0,0,0,-1,1854,575,0.504721,0.409659
637,449,0,0,0,0,0,0,0,0,0,-1,1861,575,0,0
644,449,0,0,0,0,0,0,0,0,0,-1,1868,575,0,0
651,449,0,0,0,0,0,0,0,0,0,-1,1875,575,0,0
658,449,0,0,0,0,0,0,0,0,0,-1,1882,575,0,0
665,449,0,0,0,0,0,0,0,0,0,-1,1889,575,0,0
672,449,0,0,0,0,0,0,0,0,0,-1,1896,575,0,0
679,449,0,0,0,0,0,0,0,0,0,-1,1903,575,0,0
686,449,0,0,0,0,0,0,0,0,0,-1,1910,575,0,0
693,449,0,0,0,0,0,0,0,0,0,-1,1917,575,0,0
700,449,0,0,0,0,0,0,0,0,0,-1,1924,575,0,0
707,449,0,0,0,0,0,0,0,0,0,-1,1931,575,0,0
714,449,0,0,0,0,0,0,0,0,0,-1,1938,575,0,0
721,449,0,0,0,0,0,0,0,0,0,-1,1945,575,0,0
728,449,0,0,0,0,0,0,0,0,0,-1,1952,575,0,0
735,449,0,0,0,0,0,0,0,0,0,-1,1959,575,0,0
742,449,0,0,0,0,0,0,0,0,0,-1,1966,575,0,0
749,449,0,0,0,0,0,0,0,0,0,-1,1973,575,0,0
756,449,0,0,0,0,0,0,0,0,0,-1,1980,575,0,0
763,449,0,0,0,0,0,0,0,0,0,-1,1987,575,0,0
770,449,0,0,0,0,0,0,0,0,0,-1,1994,575,0,0
777,449,0,0,0,0,0,0,0,0,0,-1,2001,575,0,0
784,449,0,0,0,0,0,0,0,0,0,-1,2008,575,0,0
791,449,0,0,0,0,0,0,0,0,0,-1,2015,575,0,0
798,449,0,0,0,0,0,0,0,0,0,-1,2022,575,0,0
805,449,0,0,0,0,0,0,0,0,0,-1,2029,575,0,0
812,449,0,0,0,0,0,0,0,0,0,-1,2036,575,0,0
-700,442,0,0,0,0,0,0,0,0,0,-1,524,582,0,0
-693,442,0,0,0,0,0,0,0,0,0,-1,531,582,0,0
-686,442,0,0,0,0,0,0,0,0,0,-1,538,582,0,0
-679,442,0,0,0,0,0,0,0,0,0,-1,545,582,0,0
-672,442,0,0,0,0,0,0,0,0,0,-1,552,582,0,0
-665,442,0,0,0,0,0,0,0,0,0,-1,559,582,0,0
-658,442,0,0,0,0,0,0,0,0,0,-1,566,582,0,0
-651,442,0,0,0,0,0,0,0,0,0,-1,573,582,0,0
-644,442,0,0,0,0,0,0,0,0,0,-1,580,582,0,0
-637,442,0,0,0,0,0,0,0,0,0,-1,587,582,0,0
-630,442,0,0,0,0,0,0,0,0,0,-1,594,582,0,0
-623,442,0,0,0,0,0,0,0,0,0,-1,601,582,0,0
-616,442,0,0,0,0,0,0,0,0,0,-1,608,582,0,0
-609,442,0,0,0,0,0,0,0,0,0,-1,615,582,0,0
-602,442,0,0,0,0,0,0,0,0,0,-1,622,582,0,0
-595,442,0,0,0,0,0,0,0,0,0,-1,629,582,0,0
-588,442,0,0,0,0,0,0,0,0,0,-1,636,582,0,0
-581,442,0,0,0,0,0,0,0,0,0,-1,643,582,0,0
-574,442,0,0,0,0,0,0,0,0,0,-1,650,582,0,0
-567,442,0,0,0,0,0,0,0,0,0,-1,657,582,0,0
-560,442,0,0,0,0,0,0,0,0,0,-1,664,582,0,0
-553,442,0,0,0,0,0,0,0,0,0,-1,671,582,0,0
-546,442,0,0,0,0,0,0,0,0,0,-1,678,582,0,0
-539,442,0,0,0,0,0,0,0,0,0,-1,685,582,0,0
-532,442,0,0,0,0,0,0,0,0,0,-1,692,582,0,0
-525,442,0,0,0,0,0,0,0,0,0,-1,699,582,0,0
-518,442,-3.81476,-1.22424,0.122845,0.0768059,0.0348785,0.141616,0.0580355,0.493714,0.082204,0.042074,706,582,-3.81475,1.22426
-511,442,-2.73529,-0.71106,0.0984499,0.0757077,0.0277925,0.117108,0.05705,0.591217,0.0676195,0.04577,713,582,-2.73527,0.71104
-504,442,-1.09222,1.0918,0,0,0,0,0,0,0,-1,720,582,-1.09222,-1.09177
-497,442,0.114746,1.22742,0,0,0,0,0,0,0,-1,727,582,0.114768,-1.22743
-490,442,0.164978,1.021,0.040507,0.0528403,0.0104293,0.0587896,0.0345576,1.05239,0.0341163,0.0446551,734,582,0.165003,-1.02102
-483,442,0.213867,0.833252,0.0274868,0.0440839,0.00605429,0.0460576,0.0255131,1.25565,0.0266429,0.0437181,741,582,0.21384,-0.833242
-476,442,0.268372,0.653137,0,0,0,0,0,0,0,-1,748,582,0.268376,-0.653129
-469,442,0.181152,0.488098,0.00908368,0.0263651,0.000594343,0.0263856,0.00906326,1.53646,0.0154805,0.0392658,755,582,0.181175,-0.488111
-462,442,0.0194092,0.174927,0.00221179,0.0191814,-0.000890589,0.019228,0.00216518,-1.51851,0.0121614,0.0312198,762,582,0.0193873,-0.17492
-455,442,-0.0291748,0.0733032,-0.00159366,0.0129036,-0.00184502,0.0131348,-0.00182479,-1.44618,0.00942384,0.0179872,769,582,-0.0291767,-0.073293
-448,442,-0.0220947,0.0731201,-0.00266082,0.00847259,-0.00208374,0.0088498,-0.00303803,-1.39171,0.00713161,0.0119908,776,582,-0.0220912,-0.0731068
-441,442,-0.0231323,0.057251,-0.00384286,0.0040467,-0.00259388,0.0048231,-0.00461925,-1.27997,0.00545197,0.0125898,783,582,-0.0231183,-0.0572254
-434,442,-0.0377197,0.0495605,-0.00399299,0.00173564,-0.0022034,0.00248509,-0.00474244,-1.24294,0.00424012,0.0114398,790,582,-0.0377294,-0.0495343
-427,442,-0.0519409,0.0632324,-0.00391872,8.11541e-05,-0.00173745,0.000730461,-0.00456802,-1.21316,0.00331577,0.0117577,797,582,-0.0519634,-0.0632572
-420,442,-0.0302124,0.0666504,-0.00288115,2.35674e-06,-0.000897416,0.00025884,-0.00313763,-1.29242,0.00218316,0.0125931,804,582,-0.0302284,-0.0666283
-413,442,-0.0213623,0.0656738,-0.00084392,-0.000881036,-0.000953176,9.08784e-05,-0.00181583,-0.775665,0.00124196,0.00999194,811,582,-0.0213776,-0.065651
-406,442,-0.0231323,0.0574341,0.00120642,-0.00164231,-0.00201581,0.00225031,-0.00268621,-0.477829,0.0028538,0.00826573,818,582,-0.0231108,-0.057437
-399,442,-0.0192261,0.052063,0.00245701,-0.00221213,-0.00383357,0.00461092,-0.00436604,-0.5119,0.00518349,0.00789655,825,582,-0.0192533,-0.0520589
-392,442,-0.0356445,0.0529785,0.00286806,-0.00221416,-0.0061215,0.00695492,-0.00630102,-0.588665,0.00765642,0.00942578,832,582,-0.035638,-0.052998
-385,442,-0.0332642,0.0645752,0.00311287,-0.00198645,-0.00836178,0.00930507,-0.00817865,-0.637417,0.0101012,0.0105909,839,582,-0.0332575,-0.0645719
-378,442,-0.0358887,0.078125,0.00319776,-0.00114582,-0.0103096,0.0115618,-0.00950987,-0.681587,0.012185,0.010833,846,582,-0.0358953,-0.0781346
-371,442,-0.0444336,0.0452271,0.00301309,-0.000530534,-0.0122622,0.0136309,-0.0111483,-0.713648,0.0143302,0.0194878,853,582,-0.0444278,-0.045242
-364,442,-0.125305,-0.0829468,0.00231977,0.00103513,-0.0140364,0.0157285,-0.0123736,-0.762534,0.0162633,0.0318025,860,582,-0.125318,0.0829661
-357,442,-0.0810547,-0.0819702,0.001089,0.00344623,-0.0149942,0.0173081,-0.0127728,-0.82462,0.0174329,0.0421846,867,582,-0.0810784,0.0819836
-350,442,0.42804,-0.105103,-0.000390051,0.00642878,-0.0150997,0.0184992,-0.0124605,-0.896433,0.0179875,0.0440678,874,582,0.428034,0.10508
-343,442,0.526245,-0.358215,-0.000860862,0.0114219,-0.0132011,0.0198402,-0.00927917,-1.00312,0.0171767,0.0426995,881,582,0.526217,0.358207
-336,442,0.405701,-0.612671,-0.000605818,0.0172528,-0.0101089,0.0218114,-0.00516436,-1.14716,0.0165335,0.0427346,888,582,0.405718,0.612698
-329,442,0.0787354,-0.5625,-0.000186694,0.0224261,-0.00520497,0.0235666,-0.00132724,-1.35508,0.0161717,0.0451669,895,582,0.0787265,0.56247
-322,442,-0.251465,-0.52417,0,0,0,0,0,0,0,-1,902,582,-0.251477,0.524158
-315,442,-1.02625,-1.39435,0,0,0,0,0,0,0,-1,909,582,-1.02626,1.39433
-308,442,-0.252625,0.805237,0,0,0,0,0,0,0,-1,916,582,-0.252615,-0.805236
-301,442,-0.178467,0.630798,0,0,0,0,0,0,0,-1,923,582,-0.178482,-0.63081
-294,442,-1.06818,-2.06702,0,0,0,0,0,0,0,-1,930,582,-1.06817,2.06704
-287,442,-0.645386,-2.32404,0,0,0,0,0,0,0,-1,937,582,-0.64541,2.32403
-280,442,0,0,0,0,0,0,0,0,0,-1,944,582,0,0
-273,442,0,0,0,0,0,0,0,0,0,-1,951,582,0,0
-266,442,0,0,0,0,0,0,0,0,0,-1,958,582,0,0
-259,442,0,0,0,0,0,0,0,0,0,-1,965,582,0,0
-252,442,0,0,0,0,0,0,0,0,0,-1,972,582,0,0
-245,442,0,0,0,0,0,0,0,0,0,-1,979,582,0,0
-238,442,0,0,0,0,0,0,0,0,0,-1,986,582,0,0
-231,442,0,0,0,0,0,0,0,0,0,-1,993,582,0,0
-224,442,0,0,0,0,0,0,0,0,0,-1,1000,582,0,0
-217,442,0,0,0,0,0,0,0,0,0,-1,1007,582,0,0
-210,442,0,0,0,0,0,0,0,0,0,-1,1014,582,0,0
-203,442,0,0,0,0,0,0,0,0,0,-1,1021,582,0,0
-196,442,0,0,0,0,0,0,0,0,0,-1,1028,582,0,0
-189,442,0,0,0,0,0,0,0,0,0,-1,1035,582,0,0
-182,442,0,0,0,0,0,0,0,0,0,-1,1042,582,0,0
-175,442,0,0,0,0,0,0,0,0,0,-1,1049,582,0,0
-168,442,0,0,0,0,0,0,0,0,0,-1,1056,582,0,0
-161,442,0,0,0,0,0,0,0,0,0,-1,1063,582,0,0
-154,442,0,0,0,0,0,0,0,0,0,-1,1070,582,0,0
-147,442,0,0,0,0,0,0,0,0,0,-1,1077,582,0,0
-140,442,0,0,0,0,0,0,0,0,0,-1,1084,582,0,0
-133,442,0,0,0,0,0,0,0,0,0,-1,1091,582,0,0
-126,442,0,0,0,0,0,0,0,0,0,-1,1098,582,0,0
-119,442,0,0,0,0,0,0,0,0,0,-1,1105,582,0,0
-112,442,0,0,0,0,0,0,0,0,0,-1,1112,582,0,0
-105,442,0,0,0,0,0,0,0,0,0,-1,1119,582,0,0
-98,442,0,0,0,0,0,0,0,0,0,-1,1126,582,0,0
-91,442,0,0,0,0,0,0,0,0,0,-1,1133,582,0,0
-84,442,0,0,0,0,0,0,0,0,0,-1,1140,582,0,0
-77,442,0,0,0,0,0,0,0,0,0,-1,1147,582,0,0
-70,442,0,0,0,0,0,0,0,0,0,-1,1154,582,0,0
-63,442,0,0,0,0,0,0,0,0,0,-1,1161,582,0,0
-56,442,0,0,0,0,0,0,0,0,0,-1,1168,582,0,0
-49,442,0,0,0,0,0,0,0,0,0,-1,1175,582,0,0
-42,442,0,0,0,0,0,0,0,0,0,-1,1182,582,0,0
-35,442,0,0,0,0,0,0,0,0,0,-1,1189,582,0,0
-28,442,0,0,0,0,0,0,0,0,0,-1,1196,582,0,0
-21,442,0,0,0,0,0,0,0,0,0,-1,1203,582,0,0
-14,442,0,0,0,0,0,0,0,0,0,-1,1210,582,0,0
-7,442,0,0,0,0,0,0,0,0,0,-1,1217,582,0,0
0,442,0,0,0,0,0,0,0,0,0,-1,1224,582,0,0
7,442,0,0,0,0,0,0,0,0,0,-1,1231,582,0,0
14,442,0,0,0,0,0,0,0,0,0,-1,1238,582,0,0
21,442,0,0,0,0,0,0,0,0,0,-1,1245,582,0,0
28,442,0,0,0,0,0,0,0,0,0,-1,1252,582,0,0
35,442,0,0,0,0,0,0,0,0,0,-1,1259,582,0,0
42,442,0,0,0,0,0,0,0,0,0,-1,1266,582,0,0
49,442,0,0,0,0,0,0,0,0,0,-1,1273,582,0,0
56,442,0,0,0,0,0,0,0,0,0,-1,1280,582,0,0
63,442,0,0,0,0,0,0,0,0,0,-1,1287,582,0,0
70,442,0,0,0,0,0,0,0,0,0,-1,1294,582,0,0
77,442,0,0,0,0,0,0,0,0,0,-1,1301,582,0,0
84,442,0,0,0,0,0,0,0,0,0,-1,1308,582,0,0
91,442,0,0,0,0,0,0,0,0,0,-1,1315,582,0,0
98,442,0,0,0,0,0,0,0,0,0,-1,1322,582,0,0
105,442,0,0,0,0,0,0,0,0,0,-1,1329,582,0,0
112,442,0,0,0,0,0,0,0,0,0,-1,1336,582,0,0
119,442,0,0,0,0,0,0,0,0,0,-1,1343,582,0,0
126,442,0,0,0,0,0,0,0,0,0,-1,1350,582,0,0
133,442,0,0,0,0,0,0,0,0,0,-1,1357,582,0,0
140,442,0,0,0,0,0,0,0,0,0,-1,1364,582,0,0
147,442,0,0,0,0,0,0,0,0,0,-1,1371,582,0,0
154,442,0,0,0,0,0,0,0,0,0,-1,1378,582,0,0
161,442,0,0,0,0,0,0,0,0,0,-1,1385,582,0,0
168,442,0,0,0,0,0,0,0,0,0,-1,1392,582,0,0
175,442,0,0,0,0,0,0,0,0,0,-1,1399,582,0,0
182,442,0,0,0,0,0,0,0,0,0,-1,1406,582,0,0
189,442,0,0,0,0,0,0,0,0,0,-1,1413,582,0,0
196,442,0,0,0,0,0,0,0,0,0,-1,1420,582,0,0
203,442,0,0,0,0,0,0,0,0,0,-1,1427,582,0,0
210,442,0,0,0,0,0,0,0,0,0,-1,1434,582,0,0
217,442,0,0,0,0,0,0,0,0,0,-1,1441,582,0,0
224,442,0,0,0,0,0,0,0,0,0,-1,1448,582,0,0
231,442,0,0,0,0,0,0,0,0,0,-1,1455,582,0,0
238,442,0,0,0,0,0,0,0,0,0,-1,1462,582,0,0
245,442,0,0,0,0,0,0,0,0,0,-1,1469,582,0,0
252,442,0,0,0,0,0,0,0,0,0,-1,1476,582,0,0
259,442,0,0,0,0,0,0,0,0,0,-1,1483,582,0,0
266,442,0,0,0,0,0,0,0,0,0,-1,1490,582,0,0
273,442,0,0,0,0,0,0,0,0,0,-1,1497,582,0,0
280,442,0,0,0,0,0,0,0,0,0,-1,1504,582,0,0
287,442,0,0,0,0,0,0,0,0,0,-1,1511,582,0,0
294,442,0,0,0,0,0,0,0,0,0,-1,1518,582,0,0
301,442,0,0,0,0,0,0,0,0,0,-1,1525,582,0,0
308,442,0,0,0,0,0,0,0,0,0,-1,1532,582,0,0
315,442,0,0,0,0,0,0,0,0,0,-1,1539,582,0,0
322,442,0,0,0,0,0,0,0,0,0,-1,1546,582,0,0
329,442,0,0,0,0,0,0,0,0,0,-1,1553,582,0,0
336,442,0,0,0,0,0,0,0,0,0,-1,1560,582,0,0
343,442,0,0,0,0,0,0,0,0,0,-1,1567,582,0,0
350,442,0,0,0,0,0,0,0,0,0,-1,1574,582,0,0
357,442,0,0,0,0,0,0,0,0,0,-1,1581,582,0,0
364,442,0,0,0,0,0,0,0,0,0,-1,1588,582,0,0
371,442,0,0,0,0,0,0,0,0,0,-1,1595,582,0,0
378,442,0,0,0,0,0,0,0,0,0,-1,1602,582,0,0
385,442,0,0,0,0,0,0,0,0,0,-1,1609,582,0,0
392,442,0,0,0,0,0,0,0,0,0,-1,1616,582,0,0
399,442,0,0,0,0,0,0,0,0,0,-1,1623,582,0,0
406,442,1.14221,-0.843506,0,0,0,0,0,0,0,-1,1630,582,1.14216,0.84352
413,442,0.106812,1.26697,0,0,0,0,0,0,0,-1,1637,582,0.106825,-1.26698
420,442,-0.155518,1.00275,-0.0111094,-0.0170355,0.0167502,0.00293783,-0.0310828,0.697856,0.0217673,0.0438115,1644,582,-0.155479,-1.00274
427,442,-0.314087,0.887634,-0.0122432,-0.0174179,0.00854735,-0.00590015,-0.0237609,0.638428,0.014286,0.0420447,1651,582,-0.314083,-0.887608
434,442,-0.276123,1.2569,-0.0128202,-0.0180145,-0.000227372,-0.0128102,-0.0180244,-0.0436619,0.01071,0.0448107,1658,582,-0.27614,-1.25692
441,442,-0.35498,1.41553,-0.0128372,-0.016056,-0.00490092,-0.00928817,-0.019605,-0.62675,0.0113241,0.0454306,1665,582,-0.355024,-1.41551
448,442,-0.414063,1.45892,-0.0120949,-0.0131229,-0.00568309,-0.00690263,-0.0183152,-0.7403,0.0106806,0.044608,1672,582,-0.414014,-1.45891
455,442,-0.460327,1.34772,-0.0102555,-0.00880666,-0.00514718,-0.00433318,-0.014729,-0.85531,0.00874062,0.0457489,1679,582,-0.460273,-1.34774
462,442,-0.249634,1.01324,-0.00801858,-0.00470305,-0.00448181,-0.00158224,-0.0111394,-0.962539,0.00695907,0.0451076,1686,582,-0.249592,-1.01326
469,442,0.022583,0.712585,-0.0062793,-0.000841364,-0.00381185,0.00112187,-0.00824253,-1.09519,0.00590461,0.0422599,1693,582,0.0225253,-0.712608
476,442,0.121582,0.617676,-0.0046823,0.00244795,-0.0032628,0.00371562,-0.00594998,-1.20022,0.00562992,0.0434879,1700,582,0.121626,-0.617673
483,442,-0.0483398,0.482971,-0.0034614,0.00476202,-0.00283215,0.00564303,-0.00434241,-1.26921,0.00578137,0.0442515,1707,582,-0.0483729,-0.482953
490,442,-0.234985,0.397217,-0.00268257,0.00654238,-0.00202631,0.00696785,-0.00310804,-1.36383,0.0059579,0.0386229,1714,582,-0.23493,-0.397219
497,442,-0.319092,0.333984,-0.00148754,0.00732945,-0.00183742,0.00769704,-0.00185513,-1.37335,0.00584864,0.0312039,1721,582,-0.319135,-0.333966
504,442,-0.0687256,0.0849609,0.000126581,0.00729528,-0.00127438,0.00751508,-9.32277e-05,-1.39999,0.00504142,0.0206097,1728,582,-0.0686778,-0.0849777
511,442,-0.0379639,0.0767822,0.000716923,0.00723545,-0.000950542,0.00737123,0.000581142,-1.42891,0.00473235,0.0113188,1735,582,-0.0380218,-0.0767567
518,442,-0.0299072,0.0515747,0.000630304,0.00635295,-0.000732407,0.0064452,0.000538055,-1.4455,0.00412915,0.00968765,1742,582,-0.0298977,-0.051577
525,442,-0.0344238,0.0437622,0.000281252,0.00547754,-0.000811289,0.00560126,0.000157532,-1.41946,0.00368279,0.0096651,1749,582,-0.0344711,-0.0437494
532,442,-0.0263672,0.0494995,-2.05314e-05,0.00429852,-0.000881037,0.00447133,-0.000193339,-1.37711,0.00304738,0.00961478,1756,582,-0.0264179,-0.0495094
539,442,-0.0343018,0.0545654,-0.000167468,0.00333609,-0.000482703,0.00340138,-0.000232756,-1.43636,0.00234902,0.00897163,1763,582,-0.0342914,-0.0545755
546,442,-0.0255127,0.0678711,-0.000444855,0.00261832,-0.000229414,0.00263541,-0.000461942,-1.49645,0.00192944,0.0103822,1770,582,-0.0255549,-0.067901
553,442,-0.0319824,0.0631104,-0.000781486,0.0016705,-0.000108537,0.00167529,-0.000786281,-1.52665,0.00145175,0.012398,1777,582,-0.0319953,-0.0631056
560,442,-0.0454102,0.0836182,-0.00105666,0.000925695,6.34877e-05,0.000927726,-0.00105869,1.53881,0.00114769,0.0137207,1784,582,-0.0453533,-0.0835904
567,442,-0.0639648,0.0710449,-0.000937861,0.000862704,-0.000255657,0.0008983,-0.000973457,-1.43245,0.00108095,0.0099365,1791,582,-0.0640052,-0.0710533
574,442,-0.0595703,0.0715332,-0.000447327,0.000592785,-0.000534896,0.000818766,-0.000673308,-1.17106,0.000862813,0.0116483,1798,582,-0.0596115,-0.0715223
581,442,-0.0461426,0.0769653,-0.00020586,0.000131039,-0.000823081,0.00080273,-0.000877552,-0.886333,0.000970432,0.0119011,1805,582,-0.0461203,-0.0769729
588,442,-0.0323486,0.0586548,-0.000261288,-0.000480104,-0.000999871,0.000635143,-0.00137654,-0.730904,0.00118744,0.0133161,1812,582,-0.0323883,-0.0586739
595,442,-0.0427246,0.127014,-0.000535574,-0.000870198,-0.00159624,0.000902095,-0.00230787,-0.73318,0.0019116,0.0267369,1819,582,-0.0427239,-0.127037
602,442,-0.0928955,0.317383,-0.000997818,-0.00164802,-0.00234124,0.00104079,-0.00368663,-0.71641,0.00286833,0.0386006,1826,582,-0.0928647,-0.317382
609,442,-0.186768,0.0646973,-0.00187215,-0.00277213,-0.00304425,0.000755191,-0.00539947,-0.712022,0.00387598,0.0416635,1833,582,-0.186809,-0.0647002
616,442,0.00671387,-0.24408,-0.00357684,-0.0042449,-0.00383401,-6.23397e-05,-0.00775941,-0.741946,0.00515229,0.0431877,1840,582,0.0067134,0.244083
623,442,0.289917,-0.394104,-0.00636872,-0.00607945,-0.00472583,-0.00149604,-0.0109521,-0.800696,0.00685736,0.0454862,1847,582,0.289926,0.394131
630,442,0.509888,-0.340088,-0.0106723,-0.00828503,-0.00576839,-0.00358807,-0.0153692,-0.887421,0.00928421,0.0463739,1854,582,0.509884,0.340109
637,442,0.426636,-0.368958,-0.0169993,-0.0108039,-0.00710414,-0.00615145,-0.0216517,-0.990992,0.0128832,0.0459632,1861,582,0.426696,0.368972
644,442,0,0,0,0,0,0,0,0,0,-1,1868,582,0,0
651,442,0,0,0,0,0,0,0,0,0,-1,1875,582,0,0
658,442,0,0,0,0,0,0,0,0,0,-1,1882,582,0,0
665,442,0,0,0,0,0,0,0,0,0,-1,1889,582,0,0
672,442,0,0,0,0,0,0,0,0,0,-1,1896,582,0,0
679,442,0,0,0,0,0,0,0,0,0,-1,1903,582,0,0
686,442,0,0,0,0,0,0,0,0,0,-1,1910,582,0,0
693,442,0,0,0,0,0,0,0,0,0,-1,1917,582,0,0
700,442,0,0,0,0,0,0,0,0,0,-1,1924,582,0,0
707,442,0,0,0,0,0,0,0,0,0,-1,1931,582,0,0
714,442,0,0,0,0,0,0,0,0,0,-1,1938,582,0,0
721,442,0,0,0,0,0,0,0,0,0,-1,1945,582,0,0
728,442,0,0,0,0,0,0,0,0,0,-1,1952,582,0,0
735,442,0,0,0,0,0,0,0,0,0,-1,1959,582,0,0
742,442,0,0,0,0,0,0,0,0,0,-1,1966,582,0,0
749,442,0,0,0,0,0,0,0,0,0,-1,1973,582,0,0
756,442,0,0,0,0,0,0,0,0,0,-1,1980,582,0,0
763,442,0,0,0,0,0,0,0,0,0,-1,1987,582,0,0
770,442,0,0,0,0,0,0,0,0,0,-1,1994,582,0,0
777,442,0,0,0,0,0,0,0,0,0,-1,2001,582,0,0
784,442,0,0,0,0,0,0,0,0,0,-1,2008,582,0,0
791,442,0,0,0,0,0,0,0,0,0,-1,2015,582,0,0
798,442,0,0,0,0,0,0,0,0,0,-1,2022,582,0,0
805,442,0,0,0,0,0,0,0,0,0,-1,2029,582,0,0
812,442,0,0,0,0,0,0,0,0,0,-1,2036,582,0,0
-700,435,0,0,0,0,0,0,0,0,0,-1,524,589,0,0
-693,435,0,0,0,0,0,0,0,0,0,-1,531,589,0,0
-686,435,0,0,0,0,0,0,0,0,0,-1,538,589,0,0
-679,435,0,0,0,0,0,0,0,0,0,-1,545,589,0,0
-672,435,0,0,0,0,0,0,0,0,0,-1,552,589,0,0
-665,435,0,0,0,0,0,0,0,0,0,-1,559,589,0,0
-658,435,0,0,0,0,0,0,0,0,0,-1,566,589,0,0
-651,435,0,0,0,0,0,0,0,0,0,-1,573,589,0,0
-644,435,0,0,0,0,0,0,0,0,0,-1,580,589,0,0
-637,435,0,0,0,0,0,0,0,0,0,-1,587,589,0,0
-630,435,0,0,0,0,0,0,0,0,0,-1,594,589,0,0
-623,435,0,0,0,0,0,0,0,0,0,-1,601,589,0,0
-616,435,0,0,0,0,0,0,0,0,0,-1,608,589,0,0
-609,435,0,0,0,0,0,0,0,0,0,-1,615,589,0,0
-602,435,0,0,0,0,0,0,0,0,0,-1,622,589,0,0
-595,435,0,0,0,0,0,0,0,0,0,-1,629,589,0,0
-588,435,0,0,0,0,0,0,0,0,0,-1,636,589,0,0
-581,435,0,0,0,0,0,0,0,0,0,-1,643,589,0,0
-574,435,0,0,0,0,0,0,0,0,0,-1,650,589,0,0
-567,435,0,0,0,0,0,0,0,0,0,-1,657,589,0,0
-560,435,0,0,0,0,0,0,0,0,0,-1,664,589,0,0
-553,435,0,0,0,0,0,0,0,0,0,-1,671,589,0,0
-546,435,0,0,0,0,0,0,0,0,0,-1,678,589,0,0
-539,435,0,0,0,0,0,0,0,0,0,-1,685,589,0,0
-532,435,0,0,0,0,0,0,0,0,0,-1,692,589,0,0
-525,435,0.931763,3.71448,0,0,0,0,0,0,0,-1,699,589,0.93174,-3.71446
-518,435,-3.86737,-1.33563,0.106377,0.0682585,0.0306828,0.123438,0.0511972,0.50748,0.0716113,0.040105,706,589,-3.86734,1.33562
-511,435,-2.8739,-0.994446,0.0856844,0.06672,0.0249291,0.102874,0.0495306,0.603665,0.0594078,0.0405153,713,589,-2.87389,0.994434
-504,435,-1.70172,-0.655579,0,0,0,0,0,0,0,-1,720,589,-1.70171,0.655569
-497,435,-0.910217,-0.268005,0.0506953,0.0554144,0.0150552,0.0682938,0.0378159,0.86313,0.0395053,0.0439236,727,589,-0.910242,0.268012
-490,435,-0.154846,0.213074,0.0364345,0.0473417,0.0106176,0.0538244,0.0299518,1.02265,0.0311415,0.0420723,734,589,-0.154835,-0.213049
-483,435,0.0670776,0.214417,0.025143,0.0399543,0.00672003,0.0425488,0.0225486,1.20235,0.0245802,0.0431192,741,589,0.0670736,-0.214441
-476,435,-0.00012207,0.218933,0,0,0,0,0,0,0,-1,748,589,-0.000106444,-0.218938
-469,435,0.0282593,0.168274,0,0,0,0,0,0,0,-1,755,589,0.0282641,-0.168299
-462,435,-0.0275879,0.0785522,0.00270207,0.0179424,0.000172523,0.0179444,0.00270012,1.55948,0.0111722,0.0134248,762,589,-0.0276101,-0.0785301
-455,435,-0.0263672,0.0852661,-0.000744876,0.0122617,-0.000897762,0.0123233,-0.000806551,-1.50221,0.00849717,0.0109112,769,589,-0.0263678,-0.0852805
-448,435,-0.0314941,0.0758057,-0.00160694,0.00839426,-0.00128629,0.00855704,-0.00176972,-1.44491,0.00637699,0.0112321,776,589,-0.0314882,-0.0757757
-441,435,-0.0263672,0.0615234,-0.00284028,0.00438824,-0.00198876,0.00489927,-0.00335131,-1.31928,0.00479134,0.00950772,783,589,-0.0263506,-0.0615454
-434,435,-0.0333252,0.0548096,-0.00324409,0.00214183,-0.0018372,0.00270883,-0.00381109,-1.27145,0.00378216,0.0107238,790,589,-0.0333275,-0.0548005
-427,435,-0.0411377,0.055542,-0.00336235,0.000566123,-0.00150822,0.00107836,-0.00387459,-1.24339,0.00300766,0.00904294,797,589,-0.0411272,-0.0555451
-420,435,-0.0307617,0.072876,-0.00241135,0.00028406,-0.00094783,0.000583987,-0.00271127,-1.26433,0.00203037,0.00939911,804,589,-0.0307561,-0.0728822
-413,435,-0.0317993,0.0783691,-0.000442,-0.000867959,-0.00124103,0.000604189,-0.00191415,-0.700418,0.00151811,0.00948542,811,589,-0.0318241,-0.07835
-406,435,-0.0305176,0.0637817,0.00165296,-0.00193889,-0.0025737,0.00299539,-0.00328132,-0.480775,0.00362511,0.00925888,818,589,-0.0305236,-0.0637729
-399,435,-0.0236206,0.0504761,0.00302202,-0.00285968,-0.00478075,0.00569403,-0.00553168,-0.509658,0.00648139,0.00814765,825,589,-0.0236106,-0.0504628
-392,435,-0.0278931,0.0564575,0.00343699,-0.00318142,-0.00760149,0.00841834,-0.00816278,-0.580102,0.0095735,0.00901753,832,589,-0.0279077,-0.0564339
-385,435,-0.0332031,0.0583496,0.00381159,-0.00330629,-0.010396,0.0112409,-0.0107356,-0.620481,0.0126893,0.0110553,839,589,-0.033182,-0.0583728
-378,435,-0.0205688,0.0730591,0.00399974,-0.00261942,-0.0127726,0.0138846,-0.0125043,-0.658628,0.0152425,0.0166949,846,589,-0.0205614,-0.0730498
-371,435,-0.141418,-0.0409546,0.00386472,-0.00228624,-0.0151228,0.0162216,-0.0146432,-0.685083,0.0178276,0.0326766,853,589,-0.141417,0.0409659
-364,435,-0.449707,-0.239563,0.00307212,-0.000931207,-0.0174071,0.0185923,-0.0164514,-0.728154,0.020245,0.040917,860,589,-0.449699,0.239564
-357,435,0.74054,0.202637,0.00151127,0.00142679,-0.0187255,0.0201945,-0.0172565,-0.78427,0.0216445,0.0475131,867,589,0.740516,-0.202665
-350,435,0.868408,-0.464661,-0.000636854,0.00459472,-0.0189115,0.0210705,-0.0171126,-0.854121,0.0220845,0.0493875,874,589,0.868422,0.464689
-343,435,0.960144,-0.991882,-0.00209304,0.00987184,-0.0167561,0.0216814,-0.0139026,-0.95686,0.0207074,0.0460623,881,589,0.960157,0.991887
-336,435,0.489014,-1.04016,-0.00277355,0.0161998,-0.0128065,0.0226506,-0.00922433,-1.10418,0.0189394,0.0418564,888,589,0.488991,1.04014
-329,435,0.143738,-0.889954,0,0,0,0,0,0,0,-1,895,589,0.143749,0.889946
-322,435,-0.734192,-0.143677,0,0,0,0,0,0,0,-1,902,589,-0.734197,0.143704
-315,435,-0.791077,0.381592,0,0,0,0,0,0,0,-1,909,589,-0.79105,-0.381563
-308,435,-0.340332,1.04785,0,0,0,0,0,0,0,-1,916,589,-0.340352,-1.04787
-301,435,1.36005,0.805786,0,0,0,0,0,0,0,-1,923,589,1.36007,-0.805785
-294,435,0.987732,0.257507,0,0,0,0,0,0,0,-1,930,589,0.987733,-0.257493
-287,435,0,0,0,0,0,0,0,0,0,-1,937,589,0,0
-280,435,0,0,0,0,0,0,0,0,0,-1,944,589,0,0
-273,435,0,0,0,0,0,0,0,0,0,-1,951,589,0,0
-266,435,0,0,0,0,0,0,0,0,0,-1,958,589,0,0
-259,435,0,0,0,0,0,0,0,0,0,-1,965,589,0,0
-252,435,0,0,0,0,0,0,0,0,0,-1,972,589,0,0
-245,435,0,0,0,0,0,0,0,0,0,-1,979,589,0,0
-238,435,0,0,0,0,0,0,0,0,0,-1,986,589,0,0
-231,435,0,0,0,0,0,0,0,0,0,-1,993,589,0,0
-224,435,0,0,0,0,0,0,0,0,0,-1,1000,589,0,0
-217,435,0,0,0,0,0,0,0,0,0,-1,1007,589,0,0
-210,435,0,0,0,0,0,0,0,0,0,-1,1014,589,0,0
-203,435,0,0,0,0,0,0,0,0,0,-1,1021,589,0,0
-196,435,0,0,0,0,0,0,0,0,0,-1,1028,589,0,0
-189,435,0,0,0,0,0,0,0,0,0,-1,1035,589,0,0
-182,435,0,0,0,0,0,0,0,0,0,-1,1042,589,0,0
-175,435,0,0,0,0,0,0,0,0,0,-1,1049,589,0,0
-168,435,0,0,0,0,0,0,0,0,0,-1,1056,589,0,0
-161,435,0,0,0,0,0,0,0,0,0,-1,1063,589,0,0
-154,435,0,0,0,0,0,0,0,0,0,-1,1070,589,0,0
-147,435,0,0,0,0,0,0,0,0,0,-1,1077,589,0,0
-140,435,0,0,0,0,0,0,0,0,0,-1,1084,589,0,0
-133,435,0,0,0,0,0,0,0,0,0,-1,1091,589,0,0
-126,435,0,0,0,0,0,0,0,0,0,-1,1098,589,0,0
-119,435,0,0,0,0,0,0,0,0,0,-1,1105,589,0,0
-112,435,0,0,0,0,0,0,0,0,0,-1,1112,589,0,0
-105,435,0,0,0,0,0,0,0,0,0,-1,1119,589,0,0
-98,435,0,0,0,0,0,0,0,0,0,-1,1126,589,0,0
-91,435,0,0,0,0,0,0,0,0,0,-1,1133,589,0,0
-84,435,0,0,0,0,0,0,0,0,0,-1,1140,589,0,0
-77,435,0,0,0,0,0,0,0,0,0,-1,1147,589,0,0
-70,435,0,0,0,0,0,0,0,0,0,-1,1154,589,0,0
-63,435,0,0,0,0,0,0,0,0,0,-1,1161,589,0,0
-56,435,0,0,0,0,0,0,0,0,0,-1,1168,589,0,0
-49,435,0,0,0,0,0,0,0,0,0,-1,1175,589,0,0
-42,435,0,0,0,0,0,0,0,0,0,-1,1182,589,0,0
-35,435,0,0,0,0,0,0,0,0,0,-1,1189,589,0,0
-28,435,0,0,0,0,0,0,0,0,0,-1,1196,589,0,0
-21,435,0,0,0,0,0,0,0,0,0,-1,1203,589,0,0
-14,435,0,0,0,0,0,0,0,0,0,-1,1210,589,0,0
-7,435,0,0,0,0,0,0,0,0,0,-1,1217,589,0,0
0,435,0,0,0,0,0,0,0,0,0,-1,1224,589,0,0
7,435,0,0,0,0,0,0,0,0,0,-1,1231,589,0,0
14,435,0,0,0,0,0,0,0,0,0,-1,1238,589,0,0
21,435,0,0,0,0,0,0,0,0,0,-1,1245,589,0,0
28,435,0,0,0,0,0,0,0,0,0,-1,1252,589,0,0
35,435,0,0,0,0,0,0,0,0,0,-1,1259,589,0,0
42,435,0,0,0,0,0,0,0,0,0,-1,1266,589,0,0
49,435,0,0,0,0,0,0,0,0,0,-1,1273,589,0,0
56,435,0,0,0,0,0,0,0,0,0,-1,1280,589,0,0
63,435,0,0,0,0,0,0,0,0,0,-1,1287,589,0,0
70,435,0,0,0,0,0,0,0,0,0,-1,1294,589,0,0
77,435,0,0,0,0,0,0,0,0,0,-1,1301,589,0,0
84,435,0,0,0,0,0,0,0,0,0,-1,1308,589,0,0
91,435,0,0,0,0,0,0,0,0,0,-1,1315,589,0,0
98,435,0,0,0,0,0,0,0,0,0,-1,1322,589,0,0
105,435,0,0,0,0,0,0,0,0,0,-1,1329,589,0,0
112,435,0,0,0,0,0,0,0,0,0,-1,1336,589,0,0
119,435,0,0,0,0,0,0,0,0,0,-1,1343,589,0,0
126,435,0,0,0,0,0,0,0,0,0,-1,1350,589,0,0
133,435,0,0,0,0,0,0,0,0,0,-1,1357,589,0,0
140,435,0,0,0,0,0,0,0,0,0,-1,1364,589,0,0
147,435,0,0,0,0,0,0,0,0,0,-1,1371,589,0,0
154,435,0,0,0,0,0,0,0,0,0,-1,1378,589,0,0
161,435,0,0,0,0,0,0,0,0,0,-1,1385,589,0,0
168,435,0,0,0,0,0,0,0,0,0,-1,1392,589,0,0
175,435,0,0,0,0,0,0,0,0,0,-1,1399,589,0,0
182,435,0,0,0,0,0,0,0,0,0,-1,1406,589,0,0
189,435,0,0,0,0,0,0,0,0,0,-1,1413,589,0,0
196,435,0,0,0,0,0,0,0,0,0,-1,1420,589,0,0
203,435,0,0,0,0,0,0,0,0,0,-1,1427,589,0,0
210,435,0,0,0,0,0,0,0,0,0,-1,1434,589,0,0
217,435,0,0,0,0,0,0,0,0,0,-1,1441,589,0,0
224,435,0,0,0,0,0,0,0,0,0,-1,1448,589,0,0
231,435,0,0,0,0,0,0,0,0,0,-1,1455,589,0,0
238,435,0,0,0,0,0,0,0,0,0,-1,1462,589,0,0
245,435,0,0,0,0,0,0,0,0,0,-1,1469,589,0,0
252,435,0,0,0,0,0,0,0,0,0,-1,1476,589,0,0
259,435,0,0,0,0,0,0,0,0,0,-1,1483,589,0,0
266,435,0,0,0,0,0,0,0,0,0,-1,1490,589,0,0
273,435,0,0,0,0,0,0,0,0,0,-1,1497,589,0,0
280,435,0,0,0,0,0,0,0,0,0,-1,1504,589,0,0
287,435,0,0,0,0,0,0,0,0,0,-1,1511,589,0,0
294,435,0,0,0,0,0,0,0,0,0,-1,1518,589,0,0
301,435,0,0,0,0,0,0,0,0,0,-1,1525,589,0,0
308,435,0,0,0,0,0,0,0,0,0,-1,1532,589,0,0
315,435,0,0,0,0,0,0,0,0,0,-1,1539,589,0,0
322,435,0,0,0,0,0,0,0,0,0,-1,1546,589,0,0
329,435,0,0,0,0,0,0,0,0,0,-1,1553,589,0,0
336,435,0,0,0,0,0,0,0,0,0,-1,1560,589,0,0
343,435,0,0,0,0,0,0,0,0,0,-1,1567,589,0,0
350,435,0,0,0,0,0,0,0,0,0,-1,1574,589,0,0
357,435,0,0,0,0,0,0,0,0,0,-1,1581,589,0,0
364,435,0,0,0,0,0,0,0,0,0,-1,1588,589,0,0
371,435,0,0,0,0,0,0,0,0,0,-1,1595,589,0,0
378,435,0,0,0,0,0,0,0,0,0,-1,1602,589,0,0
385,435,0,0,0,0,0,0,0,0,0,-1,1609,589,0,0
392,435,0,0,0,0,0,0,0,0,0,-1,1616,589,0,0
399,435,0,0,0,0,0,0,0,0,0,-1,1623,589,0,0
406,435,0,0,0,0,0,0,0,0,0,-1,1630,589,0,0
413,435,-0.587891,1.52258,0,0,0,0,0,0,0,-1,1637,589,-0.587871,-1.52258
420,435,-0.645142,1.65845,-0.0177202,-0.0210629,0.0154439,-0.00385742,-0.0349257,0.731498,0.0221104,0.0441282,1644,589,-0.645112,-1.65845
427,435,-0.550171,1.62451,-0.0189986,-0.020526,0.00727009,-0.0124522,-0.0270724,0.733067,0.0156469,0.0449798,1651,589,-0.550145,-1.62449
434,435,0.235962,1.77148,-0.0193018,-0.0195321,-0.00116338,-0.0182479,-0.020586,-0.736066,0.0130148,0.044005,1658,589,0.235936,-1.77146
441,435,-0.34729,1.83246,0,0,0,0,0,0,0,-1,1665,589,-0.347318,-1.83244
448,435,0.261597,1.37952,-0.0176098,-0.0124763,-0.0059184,-0.00859201,-0.021494,-0.99,0.0124925,0.043855,1672,589,0.261571,-1.37954
455,435,-0.199341,1.30121,-0.0150679,-0.00721987,-0.00509784,-0.00471069,-0.017577,-1.1134,0.0105059,0.04717,1679,589,-0.199311,-1.30122
462,435,-0.0489502,0.519104,-0.0120485,-0.00229121,-0.00419955,-0.00073266,-0.013607,-1.21543,0.00883725,0.0468165,1686,589,-0.0489117,-0.519132
469,435,-0.0490723,0.519775,0,0,0,0,0,0,0,-1,1693,589,-0.049053,-0.519774
476,435,0.368164,0.692993,-0.00704242,0.00582022,-0.00276378,0.00638893,-0.00761112,-1.36786,0.00809319,0.0411414,1700,589,0.36822,-0.692977
483,435,0.0384521,0.762085,-0.00519399,0.00830517,-0.00230505,0.00868792,-0.00557674,-1.40625,0.00830074,0.041862,1707,589,0.0384842,-0.762079
490,435,-0.372925,0.851685,-0.00395159,0.0100818,-0.00148817,0.0102379,-0.00410767,-1.4663,0.00853074,0.0396368,1714,589,-0.372937,-0.851666
497,435,-0.686768,1.07751,0,0,0,0,0,0,0,-1,1721,589,-0.686821,-1.0775
504,435,-0.0385742,0.111572,-0.000189845,0.0104028,-0.000848628,0.0104704,-0.000257401,-1.49136,0.00706761,0.0340422,1728,589,-0.0385959,-0.11155
511,435,-0.0618896,0.0617676,0.000667716,0.0101198,-0.000587006,0.0101561,0.000631401,-1.50901,0.00657041,0.0175322,1735,589,-0.0618401,-0.0617571
518,435,-0.0334473,0.0549927,0.000660743,0.00888201,-0.000470339,0.00890883,0.000633922,-1.51383,0.00573959,0.009232,1742,589,-0.0334848,-0.0550049
525,435,-0.00671387,0.0705566,0.000290819,0.00762644,-0.000633634,0.00768077,0.00023649,-1.48526,0.00504353,0.0107236,1749,589,-0.00666452,-0.0705749
532,435,-0.0125732,0.0689087,-4.33895e-05,0.00602271,-0.000777866,0.00612087,-0.000141548,-1.44527,0.00412857,0.0116249,1756,589,-0.0125752,-0.0688855
539,435,-0.0310059,0.0541992,-0.000195936,0.00456866,-0.000398883,0.00460182,-0.000229099,-1.48785,0.00314703,0.0122936,1763,589,-0.0310561,-0.0541907
546,435,-0.03125,0.0627441,-0.000477117,0.00352523,-0.000163296,0.00353188,-0.000483769,-1.53009,0.0025313,0.0117217,1770,589,-0.0312074,-0.0627157
553,435,-0.0308838,0.0682983,-0.000783812,0.00233409,-3.61391e-05,0.00233451,-0.000784231,-1.55921,0.00187329,0.00953317,1777,589,-0.0308695,-0.0683253
560,435,-0.0440674,0.0603638,-0.00103276,0.00132565,0.000183609,0.00133986,-0.00104697,1.49356,0.00138149,0.00900267,1784,589,-0.0440993,-0.0603597
567,435,-0.0386963,0.0587769,-0.00087519,0.00113865,-0.000118407,0.00114558,-0.000882128,-1.51227,0.00117399,0.00870658,1791,589,-0.0386893,-0.0587595
574,435,-0.0374756,0.0645142,-0.000319497,0.000868117,-0.000354898,0.000966089,-0.00041747,-1.30145,0.000819464,0.0103218,1798,589,-0.0374526,-0.0645024
581,435,-0.0426025,0.0948486,-2.63352e-05,0.000438505,-0.000586391,0.000836857,-0.000424687,-0.974079,0.000741198,0.0163487,1805,589,-0.0426508,-0.0948328
588,435,-0.0430908,0.0712891,-3.27139e-05,-7.38602e-05,-0.000659647,0.000606681,-0.000713255,-0.769809,0.000762893,0.0156262,1812,589,-0.0430887,-0.071261
595,435,-0.0482178,0.0622559,-0.000275567,-0.000329979,-0.00112099,0.000818551,-0.0014241,-0.773266,0.00131043,0.0163548,1819,589,-0.0482085,-0.0622561
602,435,-0.142944,0.14801,-0.000681607,-0.00086588,-0.00171894,0.000947663,-0.00249515,-0.758623,0.00205355,0.0321209,1826,589,-0.142959,-0.147984
609,435,-0.0463867,0.0385742,-0.00141585,-0.00171345,-0.00224128,0.000681565,-0.00381086,-0.752252,0.0027956,0.040273,1833,589,-0.0463921,-0.0385956
616,435,0.28894,-0.169312,-0.00288859,-0.00279844,-0.00284394,7.84872e-07,-0.00568781,-0.793323,0.00379214,0.0454415,1840,589,0.288992,0.169309
623,435,0.421753,-0.146057,-0.00532674,-0.00417518,-0.00356299,-0.00114175,-0.00836017,-0.865506,0.00523453,0.0452228,1847,589,0.421764,0.146043
630,435,0.399414,-0.0320435,-0.00898512,-0.00581931,-0.00443296,-0.00269512,-0.0121093,-0.95688,0.0073413,0.042287,1854,589,0.39942,0.0320579
637,435,0.085083,-0.0750122,-0.0141525,-0.00762766,-0.00567161,-0.0043471,-0.0174331,-1.0464,0.010478,0.0462056,1861,589,0.0851336,0.0749976
644,435,0,0,0,0,0,0,0,0,0,-1,1868,589,0,0
651,435,0,0,0,0,0,0,0,0,0,-1,1875,589,0,0
658,435,0,0,0,0,0,0,0,0,0,-1,1882,589,0,0
665,435,0,0,0,0,0,0,0,0,0,-1,1889,589,0,0
672,435,0,0,0,0,0,0,0,0,0,-1,1896,589,0,0
679,435,0,0,0,0,0,0,0,0,0,-1,1903,589,0,0
686,435,0,0,0,0,0,0,0,0,0,-1,1910,589,0,0
693,435,0,0,0,0,0,0,0,0,0,-1,1917,589,0,0
700,435,0,0,0,0,0,0,0,0,0,-1,1924,589,0,0
707,435,0,0,0,0,0,0,0,0,0,-1,1931,589,0,0
714,435,0,0,0,0,0,0,0,0,0,-1,1938,589,0,0
721,435,0,0,0,0,0,0,0,0,0,-1,1945,589,0,0
728,435,0,0,0,0,0,0,0,0,0,-1,1952,589,0,0
735,435,0,0,0,0,0,0,0,0,0,-1,1959,589,0,0
742,435,0,0,0,0,0,0,0,0,0,-1,1966,589,0,0
749,435,0,0,0,0,0,0,0,0,0,-1,1973,589,0,0
756,435,0,0,0,0,0,0,0,0,0,-1,1980,589,0,0
763,435,0,0,0,0,0,0,0,0,0,-1,1987,589,0,0
770,435,0,0,0,0,0,0,0,0,0,-1,1994,589,0,0
777,435,0,0,0,0,0,0,0,0,0,-1,2001,589,0,0
784,435,0,0,0,0,0,0,0,0,0,-1,2008,589,0,0
791,435,0,0,0,0,0,0,0,0,0,-1,2015,589,0,0
798,435,0,0,0,0,0,0,0,0,0,-1,2022,589,0,0
805,435,0,0,0,0,0,0,0,0,0,-1,2029,589,0,0
812,435,0,0,0,0,0,0,0,0,0,-1,2036,589,0,0
-700,428,0,0,0,0,0,0,0,0,0,-1,524,596,0,0
-693,428,0,0,0,0,0,0,0,0,0,-1,531,596,0,0
-686,428,0,0,0,0,0,0,0,0,0,-1,538,596,0,0
-679,428,0,0,0,0,0,0,0,0,0,-1,545,596,0,0
-672,428,0,0,0,0,0,0,0,0,0,-1,552,596,0,0
-665,428,0,0,0,0,0,0,0,0,0,-1,559,596,0,0
-658,428,0,0,0,0,0,0,0,0,0,-1,566,596,0,0
-651,428,0,0,0,0,0,0,0,0,0,-1,573,596,0,0
-644,428,0,0,0,0,0,0,0,0,0,-1,580,596,0,0
-637,428,0,0,0,0,0,0,0,0,0,-1,587,596,0,0
-630,428,0,0,0,0,0,0,0,0,0,-1,594,596,0,0
-623,428,0,0,0,0,0,0,0,0,0,-1,601,596,0,0
-616,428,0,0,0,0,0,0,0,0,0,-1,608,596,0,0
-609,428,0,0,0,0,0,0,0,0,0,-1,615,596,0,0
-602,428,0,0,0,0,0,0,0,0,0,-1,622,596,0,0
-595,428,0,0,0,0,0,0,0,0,0,-1,629,596,0,0
-588,428,0,0,0,0,0,0,0,0,0,-1,636,596,0,0
-581,428,0,0,0,0,0,0,0,0,0,-1,643,596,0,0
-574,428,0,0,0,0,0,0,0,0,0,-1,650,596,0,0
-567,428,0,0,0,0,0,0,0,0,0,-1,657,596,0,0
-560,428,0,0,0,0,0,0,0,0,0,-1,664,596,0,0
-553,428,0,0,0,0,0,0,0,0,0,-1,671,596,0,0
-546,428,0,0,0,0,0,0,0,0,0,-1,678,596,0,0
-539,428,0,0,0,0,0,0,0,0,0,-1,685,596,0,0
-532,428,0,0,0,0,0,0,0,0,0,-1,692,596,0,0
-525,428,0.321411,3.26624,0,0,0,0,0,0,0,-1,699,596,0.321388,-3.26622
-518,428,1.97296,3.08313,0,0,0,0,0,0,0,-1,706,596,1.97295,-3.08316
-511,428,-2.90692,-1.06964,0,0,0,0,0,0,0,-1,713,596,-2.90695,1.06965
-504,428,-2.01733,-1.21857,0,0,0,0,0,0,0,-1,720,596,-2.01733,1.21856
-497,428,-1.59894,-1.29211,0.0440159,0.0483685,0.014039,0.0603989,0.0319855,0.862296,0.0348917,0.0424767,727,596,-1.59891,1.2921
-490,428,-0.549805,-0.567017,0.0319339,0.0415651,0.0102365,0.0480622,0.0254369,1.00526,0.0277645,0.0404677,734,596,-0.54981,0.567011
-483,428,0.0710449,-0.0759277,0.022362,0.0354338,0.00679278,0.0383245,0.0194713,1.16846,0.0221276,0.0372561,741,596,0.0710379,0.0759365
-476,428,-0.027771,0.0504761,0.0144467,0.0286409,0.00405973,0.02972,0.0133676,1.311,0.0171877,0.0289701,748,596,-0.0277549,-0.0504841
-469,428,-0.0146484,0.0903931,0.00845364,0.0219682,0.00221573,0.0223222,0.00809965,1.41237,0.0130484,0.0158515,755,596,-0.0146576,-0.0903757
-462,428,-0.00408936,0.0834351,0.0028656,0.0162078,0.000826986,0.0162589,0.00281454,1.50913,0.0100335,0.0148594,762,596,-0.00407934,-0.0834352
-455,428,-0.0250854,0.069397,-0.000153678,0.0111265,-0.000249378,0.011132,-0.000159188,-1.5487,0.00747497,0.011377,769,596,-0.0250996,-0.0694071
-448,428,-0.0292358,0.0623169,-0.000793737,0.00783716,-0.00068535,0.00789125,-0.000847819,-1.49205,0.00556501,0.0100591,776,596,-0.0292574,-0.0623331
-441,428,-0.0391235,0.0493774,-0.00202493,0.00428985,-0.00146885,0.00461479,-0.00234987,-1.35308,0.00409131,0.0117509,783,596,-0.0391154,-0.0493722
-434,428,-0.0370483,0.0419922,-0.00268595,0.00221503,-0.00148911,0.00263201,-0.00310292,-1.29777,0.00331478,0.00877206,790,596,-0.0370385,-0.04199
-427,428,-0.0253296,0.0410156,-0.00305693,0.00080362,-0.00125488,0.00117567,-0.00342898,-1.28257,0.00276256,0.00935068,797,596,-0.0253234,-0.0410112
-420,428,-0.020752,0.0761719,-0.00227417,0.000385802,-0.000941338,0.000685227,-0.00257359,-1.26283,0.00198398,0.0100444,804,596,-0.0207228,-0.0761458
-413,428,-0.0303955,0.0820923,-0.000445318,-0.000939712,-0.00147503,0.000803081,-0.00218811,-0.702376,0.00178761,0.0120834,811,596,-0.0304087,-0.0821177
-406,428,-0.0330811,0.0643921,0.00162162,-0.00224747,-0.00307488,0.00331989,-0.00394574,-0.504611,0.0042,0.0137138,818,596,-0.0331078,-0.0644006
-399,428,-0.0328979,0.0583496,0.0030227,-0.00345819,-0.00567664,0.00631867,-0.00675416,-0.526048,0.00754899,0.0121258,825,596,-0.0329155,-0.0583497
-392,428,-0.0285034,0.0601196,0.00338996,-0.0040708,-0.00906641,0.00946344,-0.0101443,-0.590229,0.0113228,0.0106482,832,596,-0.0285234,-0.0601227
-385,428,-0.0343628,0.0383301,0.00389588,-0.00457923,-0.0124868,0.0128446,-0.0135279,-0.621814,0.0152279,0.0148039,839,596,-0.034343,-0.0383108
-378,428,0.0699463,0.0919189,0.0042221,-0.00408261,-0.0153608,0.0159819,-0.0158424,-0.653393,0.0183738,0.0292857,846,596,0.0699366,-0.0919125
-371,428,-0.25647,-0.164368,0.00419763,-0.00409976,-0.0181711,0.0186876,-0.0185898,-0.673166,0.0215221,0.0393744,853,596,-0.25645,0.164371
-364,428,1.36456,1.01428,0.00338433,-0.00306751,-0.021056,0.0214601,-0.0211433,-0.709386,0.0245973,0.0446851,860,596,1.36456,-1.01429
-357,428,1.32794,0.619751,0.0015626,-0.000896694,-0.0228155,0.0231816,-0.0225157,-0.758477,0.0263843,0.0471788,867,596,1.32792,-0.619748
-350,428,1.32373,-0.916809,0,0,0,0,0,0,0,-1,874,596,1.32371,0.916801
-343,428,1.03979,-1.33917,-0.00357432,0.00756687,-0.0208294,0.0235577,-0.0195651,-0.91606,0.0249325,0.0498414,881,596,1.03977,1.3392
-336,428,0.331604,-1.25592,-0.00526228,0.0143118,-0.0158346,0.0231398,-0.0140903,-1.0622,0.0217055,0.0469809,888,596,0.331617,1.25592
-329,428,-0.489685,-0.730713,-0.00633635,0.0209429,-0.00798652,0.0231091,-0.00850254,-1.30594,0.0188892,0.0429872,895,596,-0.489697,0.730683
-322,428,-0.637085,-0.0465698,-0.00647404,0.0269051,0.00149516,0.026972,-0.00654088,1.52612,0.0205122,0.0434337,902,596,-0.637062,0.0465791
-315,428,-0.800537,0.432068,0,0,0,0,0,0,0,-1,909,596,-0.80056,-0.432071
-308,428,-0.529053,0.045166,0,0,0,0,0,0,0,-1,916,596,-0.529028,-0.0451913
-301,428,0,0,0,0,0,0,0,0,0,-1,923,596,0,0
-294,428,0,0,0,0,0,0,0,0,0,-1,930,596,0,0
-287,428,0,0,0,0,0,0,0,0,0,-1,937,596,0,0
-280,428,0,0,0,0,0,0,0,0,0,-1,944,596,0,0
-273,428,0,0,0,0,0,0,0,0,0,-1,951,596,0,0
-266,428,0,0,0,0,0,0,0,0,0,-1,958,596,0,0
-259,428,0,0,0,0,0,0,0,0,0,-1,965,596,0,0
-252,428,0,0,0,0,0,0,0,0,0,-1,972,596,0,0
-245,428,0,0,0,0,0,0,0,0,0,-1,979,596,0,0
-238,428,0,0,0,0,0,0,0,0,0,-1,986,596,0,0
-231,428,0,0,0,0,0,0,0,0,0,-1,993,596,0,0
-224,428,0,0,0,0,0,0,0,0,0,-1,1000,596,0,0
-217,428,0,0,0,0,0,0,0,0,0,-1,1007,596,0,0
-210,428,0,0,0,0,0,0,0,0,0,-1,1014,596,0,0
-203,428,0,0,0,0,0,0,0,0,0,-1,1021,596,0,0
-196,428,0,0,0,0,0,0,0,0,0,-1,1028,596,0,0
-189,428,0,0,0,0,0,0,0,0,0,-1,1035,596,0,0
-182,428,0,0,0,0,0,0,0,0,0,-1,1042,596,0,0
-175,428,0,0,0,0,0,0,0,0,0,-1,1049,596,0,0
-168,428,0,0,0,0,0,0,0,0,0,-1,1056,596,0,0
-161,428,0,0,0,0,0,0,0,0,0,-1,1063,596,0,0
-154,428,0,0,0,0,0,0,0,0,0,-1,1070,596,0,0
-147,428,0,0,0,0,0,0,0,0,0,-1,1077,596,0,0
-140,428,0,0,0,0,0,0,0,0,0,-1,1084,596,0,0
-133,428,0,0,0,0,0,0,0,0,0,-1,1091,596,0,0
-126,428,0,0,0,0,0,0,0,0,0,-1,1098,596,0,0
-119,428,0,0,0,0,0,0,0,0,0,-1,1105,596,0,0
-112,428,0,0,0,0,0,0,0,0,0,-1,1112,596,0,0
-105,428,0,0,0,0,0,0,0,0,0,-1,1119,596,0,0
-98,428,0,0,0,0,0,0,0,0,0,-1,1126,596,0,0
-91,428,0,0,0,0,0,0,0,0,0,-1,1133,596,0,0
-84,428,0,0,0,0,0,0,0,0,0,-1,1140,596,0,0
-77,428,0,0,0,0,0,0,0,0,0,-1,1147,596,0,0
-70,428,0,0,0,0,0,0,0,0,0,-1,1154,596,0,0
-63,428,0,0,0,0,0,0,0,0,0,-1,1161,596,0,0
-56,428,0,0,0,0,0,0,0,0,0,-1,1168,596,0,0
-49,428,0,0,0,0,0,0,0,0,0,-1,1175,596,0,0
-42,428,0,0,0,0,0,0,0,0,0,-1,1182,596,0,0
-35,428,0,0,0,0,0,0,0,0,0,-1,1189,596,0,0
-28,428,0,0,0,0,0,0,0,0,0,-1,1196,596,0,0
-21,428,0,0,0,0,0,0,0,0,0,-1,1203,596,0,0
-14,428,0,0,0,0,0,0,0,0,0,-1,1210,596,0,0
-7,428,0,0,0,0,0,0,0,0,0,-1,1217,596,0,0
0,428,0,0,0,0,0,0,0,0,0,-1,1224,596,0,0
7,428,0,0,0,0,0,0,0,0,0,-1,1231,596,0,0
14,428,0,0,0,0,0,0,0,0,0,-1,1238,596,0,0
21,428,0,0,0,0,0,0,0,0,0,-1,1245,596,0,0
28,428,0,0,0,0,0,0,0,0,0,-1,1252,596,0,0
35,428,0,0,0,0,0,0,0,0,0,-1,1259,596,0,0
42,428,0,0,0,0,0,0,0,0,0,-1,1266,596,0,0
49,428,0,0,0,0,0,0,0,0,0,-1,1273,596,0,0
56,428,0,0,0,0,0,0,0,0,0,-1,1280,596,0,0
63,428,0,0,0,0,0,0,0,0,0,-1,1287,596,0,0
70,428,0,0,0,0,0,0,0,0,0,-1,1294,596,0,0
77,428,0,0,0,0,0,0,0,0,0,-1,1301,596,0,0
84,428,0,0,0,0,0,0,0,0,0,-1,1308,596,0,0
91,428,0,0,0,0,0,0,0,0,0,-1,1315,596,0,0
98,428,0,0,0,0,0,0,0,0,0,-1,1322,596,0,0
105,428,0,0,0,0,0,0,0,0,0,-1,1329,596,0,0
112,428,0,0,0,0,0,0,0,0,0,-1,1336,596,0,0
119,428,0,0,0,0,0,0,0,0,0,-1,1343,596,0,0
126,428,0,0,0,0,0,0,0,0,0,-1,1350,596,0,0
133,428,0,0,0,0,0,0,0,0,0,-1,1357,596,0,0
140,428,0,0,0,0,0,0,0,0,0,-1,1364,596,0,0
147,428,0,0,0,0,0,0,0,0,0,-1,1371,596,0,0
154,428,0,0,0,0,0,0,0,0,0,-1,1378,596,0,0
161,428,0,0,0,0,0,0,0,0,0,-1,1385,596,0,0
168,428,0,0,0,0,0,0,0,0,0,-1,1392,596,0,0
175,428,0,0,0,0,0,0,0,0,0,-1,1399,596,0,0
182,428,0,0,0,0,0,0,0,0,0,-1,1406,596,0,0
189,428,0,0,0,0,0,0,0,0,0,-1,1413,596,0,0
196,428,0,0,0,0,0,0,0,0,0,-1,1420,596,0,0
203,428,0,0,0,0,0,0,0,0,0,-1,1427,596,0,0
210,428,0,0,0,0,0,0,0,0,0,-1,1434,596,0,0
217,428,0,0,0,0,0,0,0,0,0,-1,1441,596,0,0
224,428,0,0,0,0,0,0,0,0,0,-1,1448,596,0,0
231,428,0,0,0,0,0,0,0,0,0,-1,1455,596,0,0
238,428,0,0,0,0,0,0,0,0,0,-1,1462,596,0,0
245,428,0,0,0,0,0,0,0,0,0,-1,1469,596,0,0
252,428,0,0,0,0,0,0,0,0,0,-1,1476,596,0,0
259,428,0,0,0,0,0,0,0,0,0,-1,1483,596,0,0
266,428,0,0,0,0,0,0,0,0,0,-1,1490,596,0,0
273,428,0,0,0,0,0,0,0,0,0,-1,1497,596,0,0
280,428,0,0,0,0,0,0,0,0,0,-1,1504,596,0,0
287,428,0,0,0,0,0,0,0,0,0,-1,1511,596,0,0
294,428,0,0,0,0,0,0,0,0,0,-1,1518,596,0,0
301,428,0,0,0,0,0,0,0,0,0,-1,1525,596,0,0
308,428,0,0,0,0,0,0,0,0,0,-1,1532,596,0,0
315,428,0,0,0,0,0,0,0,0,0,-1,1539,596,0,0
322,428,0,0,0,0,0,0,0,0,0,-1,1546,596,0,0
329,428,0,0,0,0,0,0,0,0,0,-1,1553,596,0,0
336,428,0,0,0,0,0,0,0,0,0,-1,1560,596,0,0
343,428,0,0,0,0,0,0,0,0,0,-1,1567,596,0,0
350,428,0,0,0,0,0,0,0,0,0,-1,1574,596,0,0
357,428,0,0,0,0,0,0,0,0,0,-1,1581,596,0,0
364,428,0,0,0,0,0,0,0,0,0,-1,1588,596,0,0
371,428,0,0,0,0,0,0,0,0,0,-1,1595,596,0,0
378,428,0,0,0,0,0,0,0,0,0,-1,1602,596,0,0
385,428,0,0,0,0,0,0,0,0,0,-1,1609,596,0,0
392,428,0,0,0,0,0,0,0,0,0,-1,1616,596,0,0
399,428,0,0,0,0,0,0,0,0,0,-1,1623,596,0,0
406,428,0,0,0,0,0,0,0,0,0,-1,1630,596,0,0
413,428,0,0,0,0,0,0,0,0,0,-1,1637,596,0,0
420,428,-0.909058,2.04932,0,0,0,0,0,0,0,-1,1644,596,-0.909028,-2.04934
427,428,-0.710815,2.34229,0,0,0,0,0,0,0,-1,1651,596,-0.710801,-2.34227
434,428,1.28589,2.19659,-0.0279901,-0.0213801,-0.00248986,-0.0205471,-0.028823,-1.24797,0.0171363,0.044678,1658,596,1.28583,-2.1966
441,428,1.8457,1.85864,0,0,0,0,0,0,0,-1,1665,596,1.8457,-1.85865
448,428,1.52075,0.981262,0,0,0,0,0,0,0,-1,1672,596,1.52075,-0.981253
455,428,-0.143555,1.33936,0,0,0,0,0,0,0,-1,1679,596,-0.143502,-1.33935
462,428,-0.0430908,-0.0584106,-0.0170932,-0.00014433,-0.0036768,0.000618923,-0.0178565,-1.36612,0.0121159,0.0424406,1686,596,-0.0431345,0.0583863
469,428,-0.554688,0.234558,-0.013326,0.00475556,-0.00269631,0.00514906,-0.0137195,-1.42588,0.0112621,0.0435585,1693,596,-0.554682,-0.234529
476,428,0.434692,0.982117,-0.0100791,0.0085895,-0.00203628,0.00880902,-0.0102986,-1.4634,0.011043,0.0433594,1700,596,0.434717,-0.982139
483,428,0.10083,1.82764,0,0,0,0,0,0,0,-1,1707,596,0.10079,-1.82764
490,428,-0.544556,1.05005,-0.00561202,0.0128633,-0.000769988,0.0128953,-0.00564405,-1.52922,0.0109732,0.0408215,1714,596,-0.544538,-1.05005
497,428,-0.808716,1.08789,-0.00341777,0.0133227,-0.000752475,0.0133564,-0.00345153,-1.52597,0.0102504,0.0409193,1721,596,-0.808717,-1.08792
504,428,-1.0719,0.953918,0,0,0,0,0,0,0,-1,1728,596,-1.07189,-0.953903
511,428,-0.0982666,0.0283203,0.000372506,0.0122532,-5.06996e-05,0.0122535,0.000372289,-1.56653,0.00804774,0.0333851,1735,596,-0.0982322,-0.0283048
518,428,-0.0505371,0.0367432,0.000469784,0.0107413,-3.89071e-05,0.0107414,0.000469636,-1.56701,0.00700966,0.0203452,1742,596,-0.0505921,-0.0367516
525,428,-0.0192871,0.0807495,0.000115281,0.00916848,-0.000273366,0.00917672,0.000107034,-1.54064,0.00608245,0.0128877,1749,596,-0.0192517,-0.0807303
532,428,-0.0245361,0.0717773,-0.000192424,0.00727815,-0.000489919,0.00731014,-0.000224416,-1.50559,0.00494993,0.014412,1756,596,-0.0245402,-0.0717635
539,428,-0.0284424,0.0335083,-0.000327029,0.005409,-0.000151625,0.005413,-0.000331034,-1.54439,0.00372392,0.017557,1763,596,-0.0283886,-0.033533
546,428,-0.0229492,0.0361328,-0.00059536,0.00411689,5.19781e-05,0.00411746,-0.000595933,1.55977,0.00296366,0.0145344,1770,596,-0.0230015,-0.0361486
553,428,-0.0250244,0.0685425,-0.000855898,0.00273099,0.000162121,0.0027383,-0.00086321,1.52572,0.00217124,0.0102757,1777,596,-0.0250811,-0.0685387
560,428,-0.0383301,0.0722046,-0.00108464,0.0015012,0.000392846,0.00155956,-0.001143,1.42331,0.00156649,0.0110594,1784,596,-0.0383653,-0.0721886
567,428,-0.0423584,0.0731201,-0.000900429,0.00120483,8.81469e-05,0.00120851,-0.000904113,1.52902,0.00122394,0.0103157,1791,596,-0.0423958,-0.073126
574,428,-0.0446777,0.0689087,-0.000279008,0.000956827,-0.000145872,0.000973811,-0.000295992,-1.45488,0.000767148,0.0123171,1798,596,-0.0447376,-0.0689164
581,428,-0.0488281,0.062561,7.43439e-05,0.00056199,-0.000352517,0.00074679,-0.000110456,-1.08795,0.000538469,0.0111428,1805,596,-0.0488028,-0.0625577
588,428,-0.0517578,0.0673218,0.000125408,0.000130909,-0.000362108,0.000490276,-0.00023396,-0.789196,0.000426778,0.0155002,1812,596,-0.0518022,-0.0673008
595,428,-0.0473633,0.069397,-7.87777e-05,-3.81996e-05,-0.000724421,0.000666217,-0.000783194,-0.799398,0.000837726,0.00961062,1819,596,-0.0474076,-0.0693852
602,428,-0.0637207,0.0768433,-0.000408708,-0.000411432,-0.00119202,0.000781948,-0.00160209,-0.784827,0.00140331,0.0167805,1826,596,-0.0637095,-0.0768495
609,428,0.0321045,0.0426025,-0.000979948,-0.00104236,-0.00156084,0.000549994,-0.00257231,-0.775402,0.00192458,0.0346107,1833,596,0.0321581,-0.0425788
616,428,0.219604,-0.123962,-0.00221353,-0.00180242,-0.0020015,4.04916e-06,-0.00402,-0.83657,0.00268135,0.0416201,1840,596,0.219662,0.123959
623,428,0.56958,0.128235,-0.0043076,-0.00279919,-0.00257012,-0.000874897,-0.00623189,-0.928117,0.00389584,0.0420023,1847,596,0.569546,-0.128231
630,428,0.403076,0.187927,-0.00742704,-0.00404774,-0.00329559,-0.00203391,-0.00944088,-1.02228,0.00573741,0.0426508,1854,596,0.403075,-0.187945
637,428,-0.117554,0.0891724,-0.0117112,-0.00538966,-0.00441004,-0.00312466,-0.0139762,-1.09633,0.00847025,0.0456336,1861,596,-0.11756,-0.0891873
644,428,-0.562256,0.160828,-0.017293,-0.00688072,-0.00593627,-0.00419109,-0.0199827,-1.14538,0.0121678,0.0464465,1868,596,-0.562196,-0.160834
651,428,0,0,0,0,0,0,0,0,0,-1,1875,596,0,0
658,428,0,0,0,0,0,0,0,0,0,-1,1882,596,0,0
665,428,0,0,0,0,0,0,0,0,0,-1,1889,596,0,0
672,428,0,0,0,0,0,0,0,0,0,-1,1896,596,0,0
679,428,0,0,0,0,0,0,0,0,0,-1,1903,596,0,0
686,428,0,0,0,0,0,0,0,0,0,-1,1910,596,0,0
693,428,0,0,0,0,0,0,0,0,0,-1,1917,596,0,0
700,428,0,0,0,0,0,0,0,0,0,-1,1924,596,0,0
707,428,0,0,0,0,0,0,0,0,0,-1,1931,596,0,0
714,428,0,0,0,0,0,0,0,0,0,-1,1938,596,0,0
721,428,0,0,0,0,0,0,0,0,0,-1,1945,596,0,0
728,428,0,0,0,0,0,0,0,0,0,-1,1952,596,0,0
735,428,0,0,0,0,0,0,0,0,0,-1,1959,596,0,0
742,428,0,0,0,0,0,0,0,0,0,-1,1966,596,0,0
749,428,0,0,0,0,0,0,0,0,0,-1,1973,596,0,0
756,428,0,0,0,0,0,0,0,0,0,-1,1980,596,0,0
763,428,0,0,0,0,0,0,0,0,0,-1,1987,596,0,0
770,428,0,0,0,0,0,0,0,0,0,-1,1994,596,0,0
777,428,0,0,0,0,0,0,0,0,0,-1,2001,596,0,0
784,428,0,0,0,0,0,0,0,0,0,-1,2008,596,0,0
791,428,0,0,0,0,0,0,0,0,0,-1,2015,596,0,0
798,428,0,0,0,0,0,0,0,0,0,-1,2022,596,0,0
805,428,0,0,0,0,0,0,0,0,0,-1,2029,596,0,0
812,428,0,0,0,0,0,0,0,0,0,-1,2036,596,0,0
-700,421,0,0,0,0,0,0,0,0,0,-1,524,603,0,0
-693,421,0,0,0,0,0,0,0,0,0,-1,531,603,0,0
-686,421,0,0,0,0,0,0,0,0,0,-1,538,603,0,0
-679,421,0,0,0,0,0,0,0,0,0,-1,545,603,0,0
-672,421,0,0,0,0,0,0,0,0,0,-1,552,603,0,0
-665,421,0,0,0,0,0,0,0,0,0,-1,559,603,0,0
-658,421,0,0,0,0,0,0,0,0,0,-1,566,603,0,0
-651,421,0,0,0,0,0,0,0,0,0,-1,573,603,0,0
-644,421,0,0,0,0,0,0,0,0,0,-1,580,603,0,0
-637,421,0,0,0,0,0,0,0,0,0,-1,587,603,0,0
-630,421,0,0,0,0,0,0,0,0,0,-1,594,603,0,0
-623,421,0,0,0,0,0,0,0,0,0,-1,601,603,0,0
-616,421,0,0,0,0,0,0,0,0,0,-1,608,603,0,0
-609,421,0,0,0,0,0,0,0,0,0,-1,615,603,0,0
-602,421,0,0,0,0,0,0,0,0,0,-1,622,603,0,0
-595,421,0,0,0,0,0,0,0,0,0,-1,629,603,0,0
-588,421,0,0,0,0,0,0,0,0,0,-1,636,603,0,0
-581,421,0,0,0,0,0,0,0,0,0,-1,643,603,0,0
-574,421,0,0,0,0,0,0,0,0,0,-1,650,603,0,0
-567,421,0,0,0,0,0,0,0,0,0,-1,657,603,0,0
-560,421,0,0,0,0,0,0,0,0,0,-1,664,603,0,0
-553,421,0,0,0,0,0,0,0,0,0,-1,671,603,0,0
-546,421,0,0,0,0,0,0,0,0,0,-1,678,603,0,0
-539,421,0,0,0,0,0,0,0,0,0,-1,685,603,0,0
-532,421,-2.04492,3.13977,0,0,0,0,0,0,0,-1,692,603,-2.04491,-3.13979
-525,421,-0.244995,2.85577,0,0,0,0,0,0,0,-1,699,603,-0.244999,-2.8558
-518,421,1.54224,2.4494,0.0747087,0.0502432,0.022547,0.0881276,0.0368243,0.536847,0.0511089,0.0465212,706,603,1.54222,-2.44938
-511,421,2.89594,2.14313,0.0607237,0.0488286,0.0189085,0.0745981,0.0349543,0.633025,0.0430976,0.0455192,713,603,2.89593,-2.1431
-504,421,0.888611,-0.761047,0,0,0,0,0,0,0,-1,720,603,0.888594,0.76106
-497,421,-2.12793,-2.25421,0,0,0,0,0,0,0,-1,727,603,-2.12795,2.2542
-490,421,-0.913513,-1.03088,0,0,0,0,0,0,0,-1,734,603,-0.913533,1.03087
-483,421,0.0146484,0.0458374,0.0192486,0.0305706,0.0066029,0.033607,0.0162122,1.13977,0.019407,0.0283835,741,603,0.0146593,-0.0458502
-476,421,-0.0352783,0.0638428,0.0126429,0.0248505,0.00423444,0.0261755,0.0113179,1.26754,0.0151584,0.0155376,748,603,-0.0352565,-0.0638697
-469,421,-0.0301514,0.0734253,0.00768003,0.0191912,0.00262366,0.019761,0.00711024,1.35694,0.0115575,0.0134157,755,603,-0.0301525,-0.0734284
-462,421,-0.0109863,0.060791,0.00289696,0.0141323,0.00138973,0.0143017,0.00272761,1.44954,0.00876783,0.0165144,762,603,-0.0109676,-0.0607826
-455,421,-0.0149536,0.0491333,0.000387923,0.00970477,0.000404482,0.0097223,0.000370397,1.52749,0.00636166,0.0170848,769,603,-0.0149831,-0.0491387
-448,421,-0.0192871,0.0326538,-3.04888e-05,0.00700293,1.39147e-05,0.00700296,-3.05162e-05,1.56882,0.00467884,0.0171965,776,603,-0.0193035,-0.0326381
-441,421,-0.0204468,0.0299683,-0.00120733,0.00399936,-0.000737527,0.00410181,-0.00130978,-1.43276,0.00326005,0.0137178,783,603,-0.0204218,-0.0299763
-434,421,-0.0405273,0.0339355,-0.00209325,0.00218605,-0.000860947,0.00235277,-0.00225997,-1.37952,0.00266334,0.0090715,790,603,-0.0405121,-0.0339447
-427,421,-0.0213013,0.0352783,-0.0027466,0.000988095,-0.000687292,0.00111056,-0.00286906,-1.39446,0.00237123,0.00843832,797,603,-0.021298,-0.0352552
-420,421,-0.00604248,0.0576782,-0.00219571,0.000456357,-0.000594556,0.000583548,-0.0023229,-1.36005,0.00177538,0.0107876,804,603,-0.00601336,-0.0576523
-413,421,-0.0065918,0.0716553,-0.000604132,-0.000940897,-0.00130791,0.00054619,-0.00209122,-0.721379,0.00160744,0.0128864,811,603,-0.00659978,-0.0716522
-406,421,-0.0213623,0.0510254,0.00134606,-0.00237962,-0.00311962,0.0031167,-0.00415027,-0.516242,0.00420971,0.0162913,818,603,-0.0213642,-0.0510483
-399,421,-0.0380859,0.0546875,0.00267788,-0.0038228,-0.0060633,0.0063071,-0.00745202,-0.539356,0.00795299,0.0132812,825,603,-0.0380993,-0.0547026
-392,421,-0.045105,0.032959,0.0029243,-0.00471208,-0.00998253,0.00979393,-0.0115817,-0.602739,0.0123556,0.0135971,832,603,-0.0451263,-0.0329782
-385,421,-0.0540161,0.00183105,0.0034973,-0.005632,-0.0140194,0.0136765,-0.0158112,-0.628013,0.0170395,0.0304628,839,603,-0.0540334,-0.00180698
-378,421,-0.0220337,-0.0384521,0.00390979,-0.00538853,-0.0174112,0.0172819,-0.0187606,-0.654932,0.020815,0.0428315,846,603,-0.0220321,0.0384263
-371,421,1.89478,1.93451,0,0,0,0,0,0,0,-1,853,603,1.89479,-1.93451
-364,421,1.8407,1.52582,0.00305352,-0.00527749,-0.024257,0.0235001,-0.025724,-0.700366,0.0284292,0.045077,860,603,1.84069,-1.52584
-357,421,1.92224,1.07526,0.000999304,-0.00347199,-0.0265176,0.0253753,-0.027848,-0.743344,0.0307396,0.046299,867,603,1.92223,-1.07523
-350,421,1.91071,-1.75775,0,0,0,0,0,0,0,-1,874,603,1.91073,1.75773
-343,421,1.16888,-1.05682,0,0,0,0,0,0,0,-1,881,603,1.16887,1.0568
-336,421,0.307312,-1.42181,0,0,0,0,0,0,0,-1,888,603,0.307285,1.42182
-329,421,-0.240051,-0.813416,-0.0118555,0.0184528,-0.00930738,0.0210828,-0.0144855,-1.29541,0.0206528,0.0408689,895,603,-0.240066,0.813431
-322,421,-0.367981,0.166138,-0.0128384,0.0260419,0.00316806,0.0262984,-0.0130948,1.49002,0.0231656,0.0437471,902,603,-0.367951,-0.166134
-315,421,-0.677124,0.649109,0,0,0,0,0,0,0,-1,909,603,-0.677114,-0.649126
-308,421,0,0,0,0,0,0,0,0,0,-1,916,603,0,0
-301,421,0,0,0,0,0,0,0,0,0,-1,923,603,0,0
-294,421,0,0,0,0,0,0,0,0,0,-1,930,603,0,0
-287,421,0,0,0,0,0,0,0,0,0,-1,937,603,0,0
-280,421,0,0,0,0,0,0,0,0,0,-1,944,603,0,0
-273,421,0,0,0,0,0,0,0,0,0,-1,951,603,0,0
-266,421,0,0,0,0,0,0,0,0,0,-1,958,603,0,0
-259,421,0,0,0,0,0,0,0,0,0,-1,965,603,0,0
-252,421,0,0,0,0,0,0,0,0,0,-1,972,603,0,0
-245,421,0,0,0,0,0,0,0,0,0,-1,979,603,0,0
-238,421,0,0,0,0,0,0,0,0,0,-1,986,603,0,0
-231,421,0,0,0,0,0,0,0,0,0,-1,993,603,0,0
-224,421,0,0,0,0,0,0,0,0,0,-1,1000,603,0,0
-217,421,0,0,0,0,0,0,0,0,0,-1,1007,603,0,0
-210,421,0,0,0,0,0,0,0,0,0,-1,1014,603,0,0
-203,421,0,0,0,0,0,0,0,0,0,-1,1021,603,0,0
-196,421,0,0,0,0,0,0,0,0,0,-1,1028,603,0,0
-189,421,0,0,0,0,0,0,0,0,0,-1,1035,603,0,0
-182,421,0,0,0,0,0,0,0,0,0,-1,1042,603,0,0
-175,421,0,0,0,0,0,0,0,0,0,-1,1049,603,0,0
-168,421,0,0,0,0,0,0,0,0,0,-1,1056,603,0,0
-161,421,0,0,0,0,0,0,0,0,0,-1,1063,603,0,0
-154,421,0,0,0,0,0,0,0,0,0,-1,1070,603,0,0
-147,421,0,0,0,0,0,0,0,0,0,-1,1077,603,0,0
-140,421,0,0,0,0,0,0,0,0,0,-1,1084,603,0,0
-133,421,0,0,0,0,0,0,0,0,0,-1,1091,603,0,0
-126,421,0,0,0,0,0,0,0,0,0,-1,1098,603,0,0
-119,421,0,0,0,0,0,0,0,0,0,-1,1105,603,0,0
-112,421,0,0,0,0,0,0,0,0,0,-1,1112,603,0,0
-105,421,0,0,0,0,0,0,0,0,0,-1,1119,603,0,0
-98,421,0,0,0,0,0,0,0,0,0,-1,1126,603,0,0
-91,421,0,0,0,0,0,0,0,0,0,-1,1133,603,0,0
-84,421,0,0,0,0,0,0,0,0,0,-1,1140,603,0,0
-77,421,0,0,0,0,0,0,0,0,0,-1,1147,603,0,0
-70,421,0,0,0,0,0,0,0,0,0,-1,1154,603,0,0
-63,421,0,0,0,0,0,0,0,0,0,-1,1161,603,0,0
-56,421,0,0,0,0,0,0,0,0,0,-1,1168,603,0,0
-49,421,0,0,0,0,0,0,0,0,0,-1,1175,603,0,0
-42,421,0,0,0,0,0,0,0,0,0,-1,1182,603,0,0
-35,421,0,0,0,0,0,0,0,0,0,-1,1189,603,0,0
-28,421,0,0,0,0,0,0,0,0,0,-1,1196,603,0,0
-21,421,0,0,0,0,0,0,0,0,0,-1,1203,603,0,0
-14,421,0,0,0,0,0,0,0,0,0,-1,1210,603,0,0
-7,421,0,0,0,0,0,0,0,0,0,-1,1217,603,0,0
0,421,0,0,0,0,0,0,0,0,0,-1,1224,603,0,0
7,421,0,0,0,0,0,0,0,0,0,-1,1231,603,0,0
14,421,0,0,0,0,0,0,0,0,0,-1,1238,603,0,0
21,421,0,0,0,0,0,0,0,0,0,-1,1245,603,0,0
28,421,0,0,0,0,0,0,0,0,0,-1,1252,603,0,0
35,421,0,0,0,0,0,0,0,0,0,-1,1259,603,0,0
42,421,0,0,0,0,0,0,0,0,0,-1,1266,603,0,0
49,421,0,0,0,0,0,0,0,0,0,-1,1273,603,0,0
56,421,0,0,0,0,0,0,0,0,0,-1,1280,603,0,0
63,421,0,0,0,0,0,0,0,0,0,-1,1287,603,0,0
70,421,0,0,0,0,0,0,0,0,0,-1,1294,603,0,0
77,421,0,0,0,0,0,0,0,0,0,-1,1301,603,0,0
84,421,0,0,0,0,0,0,0,0,0,-1,1308,603,0,0
91,421,0,0,0,0,0,0,0,0,0,-1,1315,603,0,0
98,421,0,0,0,0,0,0,0,0,0,-1,1322,603,0,0
105,421,0,0,0,0,0,0,0,0,0,-1,1329,603,0,0
112,421,0,0,0,0,0,0,0,0,0,-1,1336,603,0,0
119,421,0,0,0,0,0,0,0,0,0,-1,1343,603,0,0
126,421,0,0,0,0,0,0,0,0,0,-1,1350,603,0,0
133,421,0,0,0,0,0,0,0,0,0,-1,1357,603,0,0
140,421,0,0,0,0,0,0,0,0,0,-1,1364,603,0,0
147,421,0,0,0,0,0,0,0,0,0,-1,1371,603,0,0
154,421,0,0,0,0,0,0,0,0,0,-1,1378,603,0,0
161,421,0,0,0,0,0,0,0,0,0,-1,1385,603,0,0
168,421,0,0,0,0,0,0,0,0,0,-1,1392,603,0,0
175,421,0,0,0,0,0,0,0,0,0,-1,1399,603,0,0
182,421,0,0,0,0,0,0,0,0,0,-1,1406,603,0,0
189,421,0,0,0,0,0,0,0,0,0,-1,1413,603,0,0
196,421,0,0,0,0,0,0,0,0,0,-1,1420,603,0,0
203,421,0,0,0,0,0,0,0,0,0,-1,1427,603,0,0
210,421,0,0,0,0,0,0,0,0,0,-1,1434,603,0,0
217,421,0,0,0,0,0,0,0,0,0,-1,1441,603,0,0
224,421,0,0,0,0,0,0,0,0,0,-1,1448,603,0,0
231,421,0,0,0,0,0,0,0,0,0,-1,1455,603,0,0
238,421,0,0,0,0,0,0,0,0,0,-1,1462,603,0,0
245,421,0,0,0,0,0,0,0,0,0,-1,1469,603,0,0
252,421,0,0,0,0,0,0,0,0,0,-1,1476,603,0,0
259,421,0,0,0,0,0,0,0,0,0,-1,1483,603,0,0
266,421,0,0,0,0,0,0,0,0,0,-1,1490,603,0,0
273,421,0,0,0,0,0,0,0,0,0,-1,1497,603,0,0
280,421,0,0,0,0,0,0,0,0,0,-1,1504,603,0,0
287,421,0,0,0,0,0,0,0,0,0,-1,1511,603,0,0
294,421,0,0,0,0,0,0,0,0,0,-1,1518,603,0,0
301,421,0,0,0,0,0,0,0,0,0,-1,1525,603,0,0
308,421,0,0,0,0,0,0,0,0,0,-1,1532,603,0,0
315,421,0,0,0,0,0,0,0,0,0,-1,1539,603,0,0
322,421,0,0,0,0,0,0,0,0,0,-1,1546,603,0,0
329,421,0,0,0,0,0,0,0,0,0,-1,1553,603,0,0
336,421,0,0,0,0,0,0,0,0,0,-1,1560,603,0,0
343,421,0,0,0,0,0,0,0,0,0,-1,1567,603,0,0
350,421,0,0,0,0,0,0,0,0,0,-1,1574,603,0,0
357,421,0,0,0,0,0,0,0,0,0,-1,1581,603,0,0
364,421,0,0,0,0,0,0,0,0,0,-1,1588,603,0,0
371,421,0,0,0,0,0,0,0,0,0,-1,1595,603,0,0
378,421,0,0,0,0,0,0,0,0,0,-1,1602,603,0,0
385,421,0,0,0,0,0,0,0,0,0,-1,1609,603,0,0
392,421,0,0,0,0,0,0,0,0,0,-1,1616,603,0,0
399,421,0,0,0,0,0,0,0,0,0,-1,1623,603,0,0
406,421,0,0,0,0,0,0,0,0,0,-1,1630,603,0,0
413,421,0,0,0,0,0,0,0,0,0,-1,1637,603,0,0
420,421,0,0,0,0,0,0,0,0,0,-1,1644,603,0,0
427,421,0,0,0,0,0,0,0,0,0,-1,1651,603,0,0
434,421,2.34131,2.50677,0,0,0,0,0,0,0,-1,1658,603,2.34136,-2.50679
441,421,3.41699,1.87292,0,0,0,0,0,0,0,-1,1665,603,3.41695,-1.87295
448,421,1.84595,0.453552,-0.0332923,-0.0124791,-0.00608559,-0.0108303,-0.034941,-1.30622,0.0206532,0.0473129,1672,603,1.84593,-0.453572
455,421,0.329224,-0.373718,-0.0284672,-0.00539176,-0.00428797,-0.00462071,-0.0292383,-1.39288,0.0181491,0.0423145,1679,603,0.329169,0.373689
462,421,0.013916,-0.260193,-0.0230552,0.00123773,-0.00286943,0.00157206,-0.0233895,-1.4548,0.0161426,0.0441395,1686,603,0.0139295,0.260208
469,421,-0.306519,-0.105469,-0.0178304,0.00658502,-0.00175085,0.00670994,-0.0179553,-1.49957,0.0147256,0.046295,1693,603,-0.306572,0.10546
476,421,0.55835,1.13354,-0.0134393,0.0106081,-0.00107296,0.0106559,-0.0134871,-1.5263,0.0139709,0.044053,1700,603,0.558335,-1.13356
483,421,-0.626587,0.596802,-0.00990403,0.0132394,-0.000653293,0.0132578,-0.00992245,-1.5426,0.0134292,0.0430948,1707,603,-0.626588,-0.596793
490,421,-0.539185,0.798157,-0.00740355,0.014819,9.29062e-05,0.0148194,-0.00740394,1.56662,0.0130666,0.0399557,1714,603,-0.539142,-0.798133
497,421,-0.776367,0.804688,-0.00468043,0.0151118,2.03815e-05,0.0151118,-0.00468045,1.56977,0.0119444,0.0408347,1721,603,-0.776391,-0.804714
504,421,-1.32971,1.21161,-0.0015673,0.0142516,0.000460166,0.014265,-0.00158068,1.54174,0.0100783,0.0427407,1728,603,-1.32977,-1.21158
511,421,-0.119019,-0.00189209,-0.000141157,0.013558,0.000608017,0.0135849,-0.00016809,1.52653,0.00911315,0.041772,1735,603,-0.119077,0.00189824
518,421,-0.0727539,0.0137329,4.19574e-05,0.0118007,0.000510061,0.0118228,1.98735e-05,1.52753,0.00787522,0.0356789,1742,603,-0.0727005,-0.0137523
525,421,-0.0557861,0.059021,-0.000298522,0.00995815,0.000210103,0.00996245,-0.000302825,1.55032,0.00674484,0.0216835,1749,603,-0.055839,-0.0590335
532,421,-0.0227051,0.0577393,-0.00057433,0.00784569,-6.91632e-05,0.00784625,-0.000574899,-1.56258,0.00543262,0.0161735,1756,603,-0.0226497,-0.0577602
539,421,-0.0189209,0.0161133,-0.000677093,0.00566503,0.000212642,0.00567215,-0.000684215,1.53732,0.00402892,0.0191516,1763,603,-0.0189345,-0.0160908
546,421,-0.019043,0.0359497,-0.000895483,0.00424244,0.000387392,0.00427149,-0.000924528,1.49596,0.00320066,0.0123468,1770,603,-0.0190395,-0.0359492
553,421,-0.0296631,0.0723267,-0.00105089,0.00276367,0.000475412,0.00282203,-0.00110925,1.44865,0.00234043,0.0104622,1777,603,-0.0297008,-0.0723243
560,421,-0.0419922,0.0755005,-0.00119088,0.0014255,0.000691429,0.00159698,-0.00136236,1.32769,0.00171037,0.0132978,1784,603,-0.0419864,-0.0754766
567,421,-0.0493164,0.06427,-0.000922676,0.00110433,0.000375759,0.00117174,-0.00099009,1.39328,0.0012496,0.0163059,1791,603,-0.0492616,-0.0642454
574,421,-0.0528564,0.0467529,-0.000198042,0.000974916,0.000134435,0.000990126,-0.000213252,1.45813,0.000741462,0.0173273,1798,603,-0.052852,-0.0467759
581,421,-0.0350342,0.0601807,0.000252386,0.000696462,-5.40711e-05,0.000702951,0.000245897,-1.45136,0.000411907,0.0147955,1805,603,-0.0350827,-0.0601674
588,421,-0.0404053,0.052124,0.000406459,0.000391629,-1.27228e-05,0.00041377,0.000384318,-0.521564,0.000266572,0.0115127,1812,603,-0.0403634,-0.0521313
595,421,-0.0385742,0.0602417,0.000287131,0.000324968,-0.000295029,0.000601684,1.04146e-05,-0.817417,0.000397697,0.0149948,1819,603,-0.0386045,-0.0602703
602,421,-0.0358887,0.0541382,3.30233e-05,9.34789e-05,-0.000651733,0.000715685,-0.000589183,-0.808572,0.000754545,0.0126791,1826,603,-0.0359316,-0.0541326
609,421,-0.0218506,0.0378418,-0.000386085,-0.000354347,-0.000901046,0.000530969,-0.0012714,-0.794203,0.00106947,0.0176332,1833,603,-0.0218701,-0.0378535
616,421,0.0354004,-0.0681152,-0.00139785,-0.000831117,-0.00121429,0.000132433,-0.0023614,-0.900026,0.00162022,0.0329462,1840,603,0.0354021,0.0681373
623,421,0.432495,0.18866,-0.0031714,-0.00149747,-0.00166552,-0.000470442,-0.00419843,-1.01823,0.00265607,0.0396431,1847,603,0.432505,-0.188635
630,421,0.256836,0.260437,-0.00578834,-0.00249135,-0.00229668,-0.00131278,-0.00696691,-1.09668,0.00427474,0.0450018,1854,603,0.256834,-0.260414
637,421,-0.0444336,0.40802,0,0,0,0,0,0,0,-1,1861,603,-0.0444598,-0.407991
644,421,-0.378418,-0.27655,-0.0137658,-0.00487482,-0.00459663,-0.00292567,-0.015715,-1.16974,0.00965039,0.0456484,1868,603,-0.37842,0.276539
651,421,-0.470093,-0.290833,-0.0192646,-0.00644002,-0.00627527,-0.00388033,-0.0218243,-1.1835,0.0134441,0.0478774,1875,603,-0.470046,0.290853
658,421,0,0,0,0,0,0,0,0,0,-1,1882,603,0,0
665,421,0,0,0,0,0,0,0,0,0,-1,1889,603,0,0
672,421,0,0,0,0,0,0,0,0,0,-1,1896,603,0,0
679,421,0,0,0,0,0,0,0,0,0,-1,1903,603,0,0
686,421,0,0,0,0,0,0,0,0,0,-1,1910,603,0,0
693,421,0,0,0,0,0,0,0,0,0,-1,1917,603,0,0
700,421,0,0,0,0,0,0,0,0,0,-1,1924,603,0,0
707,421,0,0,0,0,0,0,0,0,0,-1,1931,603,0,0
714,421,0,0,0,0,0,0,0,0,0,-1,1938,603,0,0
721,421,0,0,0,0,0,0,0,0,0,-1,1945,603,0,0
728,421,0,0,0,0,0,0,0,0,0,-1,1952,603,0,0
735,421,0,0,0,0,0,0,0,0,0,-1,1959,603,0,0
742,421,0,0,0,0,0,0,0,0,0,-1,1966,603,0,0
749,421,0,0,0,0,0,0,0,0,0,-1,1973,603,0,0
756,421,0,0,0,0,0,0,0,0,0,-1,1980,603,0,0
763,421,0,0,0,0,0,0,0,0,0,-1,1987,603,0,0
770,421,0,0,0,0,0,0,0,0,0,-1,1994,603,0,0
777,421,0,0,0,0,0,0,0,0,0,-1,2001,603,0,0
784,421,0,0,0,0,0,0,0,0,0,-1,2008,603,0,0
791,421,0,0,0,0,0,0,0,0,0,-1,2015,603,0,0
798,421,0,0,0,0,0,0,0,0,0,-1,2022,603,0,0
805,421,0,0,0,0,0,0,0,0,0,-1,2029,603,0,0
812,421,0,0,0,0,0,0,0,0,0,-1,2036,603,0,0
-700,414,0,0,0,0,0,0,0,0,0,-1,524,610,0,0
-693,414,0,0,0,0,0,0,0,0,0,-1,531,610,0,0
-686,414,0,0,0,0,0,0,0,0,0,-1,538,610,0,0
-679,414,0,0,0,0,0,0,0,0,0,-1,545,610,0,0
-672,414,0,0,0,0,0,0,0,0,0,-1,552,610,0,0
-665,414,0,0,0,0,0,0,0,0,0,-1,559,610,0,0
-658,414,0,0,0,0,0,0,0,0,0,-1,566,610,0,0
-651,414,0,0,0,0,0,0,0,0,0,-1,573,610,0,0
-644,414,0,0,0,0,0,0,0,0,0,-1,580,610,0,0
-637,414,0,0,0,0,0,0,0,0,0,-1,587,610,0,0
-630,414,0,0,0,0,0,0,0,0,0,-1,594,610,0,0
-623,414,0,0,0,0,0,0,0,0,0,-1,601,610,0,0
-616,414,0,0,0,0,0,0,0,0,0,-1,608,610,0,0
-609,414,0,0,0,0,0,0,0,0,0,-1,615,610,0,0
-602,414,0,0,0,0,0,0,0,0,0,-1,622,610,0,0
-595,414,0,0,0,0,0,0,0,0,0,-1,629,610,0,0
-588,414,0,0,0,0,0,0,0,0,0,-1,636,610,0,0
-581,414,0,0,0,0,0,0,0,0,0,-1,643,610,0,0
-574,414,0,0,0,0,0,0,0,0,0,-1,650,610,0,0
-567,414,0,0,0,0,0,0,0,0,0,-1,657,610,0,0
-560,414,0,0,0,0,0,0,0,0,0,-1,664,610,0,0
-553,414,0,0,0,0,0,0,0,0,0,-1,671,610,0,0
-546,414,0,0,0,0,0,0,0,0,0,-1,678,610,0,0
-539,414,0.40802,-0.00372314,0.0910991,0.0293024,0.0279783,0.101884,0.0185175,0.367922,0.0626688,0.0430844,685,610,0.408043,0.0037515
-532,414,0.84137,0.350586,0.0813604,0.0359756,0.0246748,0.092191,0.025145,0.413612,0.0550285,0.0445987,692,610,0.841392,-0.350557
-525,414,0.210327,2.34204,0,0,0,0,0,0,0,-1,699,610,0.210338,-2.34206
-518,414,1.19208,1.81995,0.0596836,0.0408658,0.0189302,0.0714142,0.0291351,0.554764,0.0414631,0.0457729,706,610,1.19206,-1.81995
-511,414,2.40027,1.15192,0.0488465,0.0397137,0.0162214,0.0611319,0.0274283,0.648196,0.0353565,0.0461698,713,610,2.40027,-1.15194
-504,414,0.776428,-0.457825,0.039004,0.0370267,0.0139345,0.0519848,0.0240458,0.749983,0.0300415,0.0472744,720,610,0.776423,0.45785
-497,414,0.413696,-0.356506,0.0300318,0.0333635,0.0116791,0.043495,0.0199003,0.856237,0.025142,0.0415851,727,610,0.413705,0.356498
-490,414,0.0368652,0.0565796,0.0222531,0.0289863,0.0093243,0.0355332,0.0157062,0.958644,0.020561,0.0331513,734,610,0.0368795,-0.0565552
-483,414,-0.0186768,0.0543823,0.015975,0.0251309,0.00693826,0.0288654,0.0122405,1.07702,0.0167294,0.0132451,741,610,-0.0186578,-0.0543571
-476,414,-0.0394897,0.0608521,0.0106305,0.0204548,0.00498071,0.0225381,0.00854716,1.17463,0.0131383,0.00852043,748,610,-0.0394984,-0.0608413
-469,414,-0.0437622,0.0709839,0.0066837,0.0158466,0.0036148,0.0171009,0.00542936,1.23679,0.0100901,0.00984349,755,610,-0.0437553,-0.0709962
-462,414,-0.0306396,0.0653687,0.00274119,0.0115628,0.00251835,0.0122311,0.0020729,1.3114,0.00755847,0.0189412,762,610,-0.0306135,-0.0653938
-455,414,-0.0345459,0.055603,0.000713715,0.00791445,0.0016058,0.00825632,0.000371844,1.36103,0.00538455,0.0221259,769,610,-0.0345387,-0.055626
-448,414,-0.0325928,0.0544434,0.000413894,0.00588123,0.00121197,0.00613785,0.000157275,1.36214,0.00404049,0.0224218,776,610,-0.0325681,-0.0544591
-441,414,-0.0197754,0.0478516,-0.000716415,0.00354803,0.000475259,0.00360036,-0.000768739,1.46114,0.00269331,0.016436,783,610,-0.0197495,-0.0478281
-434,414,-0.0291138,0.0368042,-0.00182302,0.00213279,0.000207596,0.00214365,-0.00183388,1.51851,0.00229875,0.00857359,790,610,-0.0291275,-0.0368278
-427,414,-0.0209961,0.0388184,-0.00278727,0.00121843,0.000253294,0.00123438,-0.00280322,1.5079,0.00238905,0.00890529,797,610,-0.0210123,-0.0388016
-420,414,-0.0230103,0.0532227,-0.0025172,0.00071337,3.85299e-05,0.00071383,-0.00251766,1.55887,0.0019602,0.00965684,804,610,-0.0230066,-0.0532483
-413,414,-0.017334,0.0668945,-0.00122969,-0.000710577,-0.000854625,-7.69626e-05,-0.0018633,-0.932826,0.00121736,0.0102403,811,610,-0.0173207,-0.066916
-406,414,-0.0273438,0.0437622,0.000543091,-0.00219491,-0.00281954,0.00230842,-0.00396023,-0.559392,0.00366085,0.0127283,818,610,-0.0273202,-0.0437322
-399,414,-0.0423584,0.034729,0.00177991,-0.00380692,-0.00602023,0.00562324,-0.00765025,-0.568179,0.00769318,0.0164222,825,610,-0.0423719,-0.0347137
-392,414,-0.0844727,0.00494385,0.00191351,-0.00496701,-0.0103719,0.00940081,-0.0124543,-0.625262,0.012659,0.0243226,832,610,-0.084459,-0.00495535
-385,414,-0.302551,-0.177368,0.00256073,-0.00632437,-0.0149413,0.0137059,-0.0174696,-0.640894,0.0180428,0.0401214,839,610,-0.302545,0.177382
-378,414,-0.382568,-0.286438,0.00306679,-0.00638895,-0.018792,0.0177166,-0.0210387,-0.662161,0.0224028,0.0467674,846,610,-0.382595,0.286412
-371,414,1.87683,2.20935,0,0,0,0,0,0,0,-1,853,610,1.87682,-2.20934
-364,414,2.07239,1.68213,0.00220379,-0.0073176,-0.0266314,0.0244967,-0.0296105,-0.696951,0.0312852,0.0429314,860,610,2.07236,-1.68213
-357,414,2.51752,1.46503,-0.00013993,-0.00599406,-0.0293688,0.0264473,-0.0325813,-0.735729,0.0341415,0.0464732,867,610,2.5175,-1.46501
-350,414,2.70178,1.05011,-0.0039777,-0.00351132,-0.0302948,0.0265511,-0.0340402,-0.789247,0.0350714,0.0453477,874,610,2.70176,-1.05014
-343,414,1.20764,-0.982544,-0.00869362,0.00105368,-0.0278748,0.0244777,-0.0321176,-0.871944,0.0327744,0.0461899,881,610,1.20763,0.98253
-336,414,0.465027,-0.405029,0,0,0,0,0,0,0,-1,888,610,0.465052,0.405046
-329,414,0.31842,-1.51691,-0.0183622,0.0152682,-0.00971194,0.0178714,-0.0209654,-1.30892,0.0224461,0.0449749,895,610,0.318433,1.51689
-322,414,0.389282,0.286743,-0.0205324,0.0252372,0.00606933,0.0260283,-0.0213235,1.44117,0.0273836,0.0449527,902,610,0.38928,-0.286746
-315,414,0,0,0,0,0,0,0,0,0,-1,909,610,0,0
-308,414,0,0,0,0,0,0,0,0,0,-1,916,610,0,0
-301,414,0,0,0,0,0,0,0,0,0,-1,923,610,0,0
-294,414,0,0,0,0,0,0,0,0,0,-1,930,610,0,0
-287,414,0,0,0,0,0,0,0,0,0,-1,937,610,0,0
-280,414,0,0,0,0,0,0,0,0,0,-1,944,610,0,0
-273,414,0,0,0,0,0,0,0,0,0,-1,951,610,0,0
-266,414,0,0,0,0,0,0,0,0,0,-1,958,610,0,0
-259,414,0,0,0,0,0,0,0,0,0,-1,965,610,0,0
-252,414,0,0,0,0,0,0,0,0,0,-1,972,610,0,0
-245,414,0,0,0,0,0,0,0,0,0,-1,979,610,0,0
-238,414,0,0,0,0,0,0,0,0,0,-1,986,610,0,0
-231,414,0,0,0,0,0,0,0,0,0,-1,993,610,0,0
-224,414,0,0,0,0,0,0,0,0,0,-1,1000,610,0,0
-217,414,0,0,0,0,0,0,0,0,0,-1,1007,610,0,0
-210,414,0,0,0,0,0,0,0,0,0,-1,1014,610,0,0
-203,414,0,0,0,0,0,0,0,0,0,-1,1021,610,0,0
-196,414,0,0,0,0,0,0,0,0,0,-1,1028,610,0,0
-189,414,0,0,0,0,0,0,0,0,0,-1,1035,610,0,0
-182,414,0,0,0,0,0,0,0,0,0,-1,1042,610,0,0
-175,414,0,0,0,0,0,0,0,0,0,-1,1049,610,0,0
-168,414,0,0,0,0,0,0,0,0,0,-1,1056,610,0,0
-161,414,0,0,0,0,0,0,0,0,0,-1,1063,610,0,0
-154,414,0,0,0,0,0,0,0,0,0,-1,1070,610,0,0
-147,414,0,0,0,0,0,0,0,0,0,-1,1077,610,0,0
-140,414,0,0,0,0,0,0,0,0,0,-1,1084,610,0,0
-133,414,0,0,0,0,0,0,0,0,0,-1,1091,610,0,0
-126,414,0,0,0,0,0,0,0,0,0,-1,1098,610,0,0
-119,414,0,0,0,0,0,0,0,0,0,-1,1105,610,0,0
-112,414,0,0,0,0,0,0,0,0,0,-1,1112,610,0,0
-105,414,0,0,0,0,0,0,0,0,0,-1,1119,610,0,0
-98,414,0,0,0,0,0,0,0,0,0,-1,1126,610,0,0
-91,414,0,0,0,0,0,0,0,0,0,-1,1133,610,0,0
-84,414,0,0,0,0,0,0,0,0,0,-1,1140,610,0,0
-77,414,0,0,0,0,0,0,0,0,0,-1,1147,610,0,0
-70,414,0,0,0,0,0,0,0,0,0,-1,1154,610,0,0
-63,414,0,0,0,0,0,0,0,0,0,-1,1161,610,0,0
-56,414,0,0,0,0,0,0,0,0,0,-1,1168,610,0,0
-49,414,0,0,0,0,0,0,0,0,0,-1,1175,610,0,0
-42,414,0,0,0,0,0,0,0,0,0,-1,1182,610,0,0
-35,414,0,0,0,0,0,0,0,0,0,-1,1189,610,0,0
-28,414,0,0,0,0,0,0,0,0,0,-1,1196,610,0,0
-21,414,0,0,0,0,0,0,0,0,0,-1,1203,610,0,0
-14,414,0,0,0,0,0,0,0,0,0,-1,1210,610,0,0
-7,414,0,0,0,0,0,0,0,0,0,-1,1217,610,0,0
0,414,0,0,0,0,0,0,0,0,0,-1,1224,610,0,0
7,414,0,0,0,0,0,0,0,0,0,-1,1231,610,0,0
14,414,0,0,0,0,0,0,0,0,0,-1,1238,610,0,0
21,414,0,0,0,0,0,0,0,0,0,-1,1245,610,0,0
28,414,0,0,0,0,0,0,0,0,0,-1,1252,610,0,0
35,414,0,0,0,0,0,0,0,0,0,-1,1259,610,0,0
42,414,0,0,0,0,0,0,0,0,0,-1,1266,610,0,0
49,414,0,0,0,0,0,0,0,0,0,-1,1273,610,0,0
56,414,0,0,0,0,0,0,0,0,0,-1,1280,610,0,0
63,414,0,0,0,0,0,0,0,0,0,-1,1287,610,0,0
70,414,0,0,0,0,0,0,0,0,0,-1,1294,610,0,0
77,414,0,0,0,0,0,0,0,0,0,-1,1301,610,0,0
84,414,0,0,0,0,0,0,0,0,0,-1,1308,610,0,0
91,414,0,0,0,0,0,0,0,0,0,-1,1315,610,0,0
98,414,0,0,0,0,0,0,0,0,0,-1,1322,610,0,0
105,414,0,0,0,0,0,0,0,0,0,-1,1329,610,0,0
112,414,0,0,0,0,0,0,0,0,0,-1,1336,610,0,0
119,414,0,0,0,0,0,0,0,0,0,-1,1343,610,0,0
126,414,0,0,0,0,0,0,0,0,0,-1,1350,610,0,0
133,414,0,0,0,0,0,0,0,0,0,-1,1357,610,0,0
140,414,0,0,0,0,0,0,0,0,0,-1,1364,610,0,0
147,414,0,0,0,0,0,0,0,0,0,-1,1371,610,0,0
154,414,0,0,0,0,0,0,0,0,0,-1,1378,610,0,0
161,414,0,0,0,0,0,0,0,0,0,-1,1385,610,0,0
168,414,0,0,0,0,0,0,0,0,0,-1,1392,610,0,0
175,414,0,0,0,0,0,0,0,0,0,-1,1399,610,0,0
182,414,0,0,0,0,0,0,0,0,0,-1,1406,610,0,0
189,414,0,0,0,0,0,0,0,0,0,-1,1413,610,0,0
196,414,0,0,0,0,0,0,0,0,0,-1,1420,610,0,0
203,414,0,0,0,0,0,0,0,0,0,-1,1427,610,0,0
210,414,0,0,0,0,0,0,0,0,0,-1,1434,610,0,0
217,414,0,0,0,0,0,0,0,0,0,-1,1441,610,0,0
224,414,0,0,0,0,0,0,0,0,0,-1,1448,610,0,0
231,414,0,0,0,0,0,0,0,0,0,-1,1455,610,0,0
238,414,0,0,0,0,0,0,0,0,0,-1,1462,610,0,0
245,414,0,0,0,0,0,0,0,0,0,-1,1469,610,0,0
252,414,0,0,0,0,0,0,0,0,0,-1,1476,610,0,0
259,414,0,0,0,0,0,0,0,0,0,-1,1483,610,0,0
266,414,0,0,0,0,0,0,0,0,0,-1,1490,610,0,0
273,414,0,0,0,0,0,0,0,0,0,-1,1497,610,0,0
280,414,0,0,0,0,0,0,0,0,0,-1,1504,610,0,0
287,414,0,0,0,0,0,0,0,0,0,-1,1511,610,0,0
294,414,0,0,0,0,0,0,0,0,0,-1,1518,610,0,0
301,414,0,0,0,0,0,0,0,0,0,-1,1525,610,0,0
308,414,0,0,0,0,0,0,0,0,0,-1,1532,610,0,0
315,414,0,0,0,0,0,0,0,0,0,-1,1539,610,0,0
322,414,0,0,0,0,0,0,0,0,0,-1,1546,610,0,0
329,414,0,0,0,0,0,0,0,0,0,-1,1553,610,0,0
336,414,0,0,0,0,0,0,0,0,0,-1,1560,610,0,0
343,414,0,0,0,0,0,0,0,0,0,-1,1567,610,0,0
350,414,0,0,0,0,0,0,0,0,0,-1,1574,610,0,0
357,414,0,0,0,0,0,0,0,0,0,-1,1581,610,0,0
364,414,0,0,0,0,0,0,0,0,0,-1,1588,610,0,0
371,414,0,0,0,0,0,0,0,0,0,-1,1595,610,0,0
378,414,0,0,0,0,0,0,0,0,0,-1,1602,610,0,0
385,414,0,0,0,0,0,0,0,0,0,-1,1609,610,0,0
392,414,0,0,0,0,0,0,0,0,0,-1,1616,610,0,0
399,414,0,0,0,0,0,0,0,0,0,-1,1623,610,0,0
406,414,0,0,0,0,0,0,0,0,0,-1,1630,610,0,0
413,414,0,0,0,0,0,0,0,0,0,-1,1637,610,0,0
420,414,0,0,0,0,0,0,0,0,0,-1,1644,610,0,0
427,414,0,0,0,0,0,0,0,0,0,-1,1651,610,0,0
434,414,0,0,0,0,0,0,0,0,0,-1,1658,610,0,0
441,414,0.884888,0.437622,0,0,0,0,0,0,0,-1,1665,610,0.884862,-0.437602
448,414,1.7782,-0.00494385,-0.042773,-0.0151991,-0.00658513,-0.0137071,-0.044265,-1.348,0.0261664,0.0487038,1672,610,1.77816,0.00494514
455,414,0.253052,-0.502075,-0.0363724,-0.00715743,-0.00388919,-0.00664855,-0.0368813,-1.44069,0.0226983,0.0407342,1679,610,0.253088,0.502098
462,414,0.0543213,-0.350647,-0.0292624,0.000564903,-0.00208287,0.000709649,-0.0294072,-1.50141,0.0198456,0.0439184,1686,610,0.0543608,0.350647
469,414,-0.181519,-0.146301,-0.0223233,0.00663759,-0.000822946,0.00666096,-0.0223467,-1.54241,0.0175448,0.0495768,1693,610,-0.181574,0.146319
476,414,-0.418213,0.00469971,-0.0166284,0.0111517,-0.000122555,0.0111522,-0.0166289,-1.56638,0.016143,0.0474065,1700,610,-0.418263,-0.00468101
483,414,-0.450439,0.100281,-0.0120815,0.0141069,0.000283388,0.01411,-0.0120845,1.55998,0.0151385,0.0451697,1707,610,-0.450436,-0.100263
490,414,-0.437744,0.15979,-0.00885117,0.0158249,0.000975565,0.0158634,-0.00888968,1.53134,0.014479,0.0415864,1714,610,-0.437788,-0.159797
497,414,-0.160034,0.126709,-0.00561573,0.0161448,0.000799231,0.0161741,-0.00564505,1.53413,0.0130771,0.0424655,1721,610,-0.160019,-0.126715
504,414,0.255615,0.270569,-0.00212082,0.015252,0.00116461,0.0153298,-0.00219854,1.50416,0.011026,0.0431404,1728,610,0.255575,-0.270569
511,414,0.139893,0.211121,-0.00046775,0.0145363,0.00125323,0.0146402,-0.000571708,1.48803,0.00995619,0.0415199,1735,610,0.13988,-0.211117
518,414,-0.00549316,-0.0466309,-0.000208268,0.0127369,0.00103843,0.0128197,-0.000291039,1.49126,0.00864512,0.0399914,1742,610,-0.00551063,0.0466162
525,414,-0.0744629,0.0769043,-0.00052681,0.0107821,0.000659994,0.0108205,-0.000565197,1.5127,0.00740926,0.0338373,1749,610,-0.0744506,-0.0769002
532,414,-0.027832,0.059021,-0.000760252,0.00860531,0.000301735,0.00861502,-0.000769963,1.53862,0.00601645,0.0249196,1756,610,-0.0278183,-0.0590435
539,414,-0.00866699,0.0238647,-0.000861045,0.00617872,0.000495151,0.00621337,-0.000895702,1.50092,0.00447082,0.0155813,1763,610,-0.00861799,-0.0238628
546,414,-0.0253906,0.0255737,-0.00106585,0.00469386,0.000630703,0.00476212,-0.0011341,1.463,0.00361261,0.0112668,1770,610,-0.0254241,-0.0255508
553,414,-0.0319824,0.0418091,-0.00116098,0.00313002,0.000687572,0.0032375,-0.00126846,1.41573,0.00268304,0.00993742,1777,610,-0.0319215,-0.0418067
560,414,-0.0395508,0.0604858,-0.0012247,0.00168398,0.000869757,0.00192421,-0.00146493,1.30131,0.0019627,0.0129591,1784,610,-0.0395368,-0.0604829
567,414,-0.0523682,0.0510254,-0.000905081,0.00132317,0.000540459,0.00144734,-0.00102925,1.34497,0.00143664,0.0231401,1791,610,-0.0523346,-0.0510292
574,414,-0.0406494,0.0438843,-0.000127942,0.00129049,0.000305876,0.00135364,-0.000191091,1.3672,0.000972401,0.0203057,1798,610,-0.0407035,-0.0438575
581,414,-0.0186768,0.0637207,0.000384444,0.00111349,0.000140194,0.00113952,0.000358415,1.38722,0.000672821,0.0155837,1805,610,-0.0186915,-0.063727
588,414,-0.0418701,0.0427246,0.000612194,0.00091065,0.000228712,0.00103451,0.000488332,1.07445,0.000597587,0.015142,1812,610,-0.0418329,-0.0427091
595,414,-0.0432129,0.0461426,0.000556217,0.000908389,3.44787e-05,0.000911733,0.000552873,1.47412,0.000530347,0.0200639,1819,610,-0.0432167,-0.0461479
602,414,-0.0316162,0.0578003,0.000357111,0.000779662,-0.000195417,0.00085618,0.000280593,-1.19758,0.000504001,0.0219031,1826,610,-0.0315973,-0.0577796
609,414,-0.00646973,0.0610352,7.81401e-05,0.000460182,-0.000347752,0.000665923,-0.000127601,-1.03655,0.000492029,0.0111717,1833,610,-0.00649353,-0.0610592
616,414,-0.00512695,0.0742188,-0.000716587,0.000191325,-0.000559714,0.000458033,-0.000983295,-1.12612,0.000850371,0.0159007,1840,610,-0.00508743,-0.0742395
623,414,0.0316162,0.0548096,-0.00217761,-0.000241367,-0.00090876,0.000118331,-0.00253731,-1.19391,0.00173233,0.027019,1847,610,0.0316012,-0.0548229
630,414,0.0567627,0.0722656,0,0,0,0,0,0,0,-1,1854,610,0.0568055,-0.072257
637,414,0.124023,0.54071,0,0,0,0,0,0,0,-1,1861,610,0.123993,-0.540702
644,414,0.180176,-0.0162354,-0.0110106,-0.0031729,-0.00343227,-0.00188234,-0.0123011,-1.21114,0.00765089,0.0453,1868,610,0.180183,0.0162482
651,414,-0.117798,-0.24176,-0.0155113,-0.00483089,-0.00483701,-0.00296593,-0.0173763,-1.2028,0.010733,0.0466845,1875,610,-0.117828,0.241741
658,414,-0.265137,-0.558838,0,0,0,0,0,0,0,-1,1882,610,-0.265189,0.558808
665,414,0,0,0,0,0,0,0,0,0,-1,1889,610,0,0
672,414,0,0,0,0,0,0,0,0,0,-1,1896,610,0,0
679,414,0,0,0,0,0,0,0,0,0,-1,1903,610,0,0
686,414,0,0,0,0,0,0,0,0,0,-1,1910,610,0,0
693,414,0,0,0,0,0,0,0,0,0,-1,1917,610,0,0
700,414,0,0,0,0,0,0,0,0,0,-1,1924,610,0,0
707,414,0,0,0,0,0,0,0,0,0,-1,1931,610,0,0
714,414,0,0,0,0,0,0,0,0,0,-1,1938,610,0,0
721,414,0,0,0,0,0,0,0,0,0,-1,1945,610,0,0
728,414,0,0,0,0,0,0,0,0,0,-1,1952,610,0,0
735,414,0,0,0,0,0,0,0,0,0,-1,1959,610,0,0
742,414,0,0,0,0,0,0,0,0,0,-1,1966,610,0,0
749,414,0,0,0,0,0,0,0,0,0,-1,1973,610,0,0
756,414,0,0,0,0,0,0,0,0,0,-1,1980,610,0,0
763,414,0,0,0,0,0,0,0,0,0,-1,1987,610,0,0
770,414,0,0,0,0,0,0,0,0,0,-1,1994,610,0,0
777,414,0,0,0,0,0,0,0,0,0,-1,2001,610,0,0
784,414,0,0,0,0,0,0,0,0,0,-1,2008,610,0,0
791,414,0,0,0,0,0,0,0,0,0,-1,2015,610,0,0
798,414,0,0,0,0,0,0,0,0,0,-1,2022,610,0,0
805,414,0,0,0,0,0,0,0,0,0,-1,2029,610,0,0
812,414,0,0,0,0,0,0,0,0,0,-1,2036,610,0,0
-700,407,0,0,0,0,0,0,0,0,0,-1,524,617,0,0
-693,407,0,0,0,0,0,0,0,0,0,-1,531,617,0,0
-686,407,0,0,0,0,0,0,0,0,0,-1,538,617,0,0
-679,407,0,0,0,0,0,0,0,0,0,-1,545,617,0,0
-672,407,0,0,0,0,0,0,0,0,0,-1,552,617,0,0
-665,407,0,0,0,0,0,0,0,0,0,-1,559,617,0,0
-658,407,0,0,0,0,0,0,0,0,0,-1,566,617,0,0
-651,407,0,0,0,0,0,0,0,0,0,-1,573,617,0,0
-644,407,0,0,0,0,0,0,0,0,0,-1,580,617,0,0
-637,407,0,0,0,0,0,0,0,0,0,-1,587,617,0,0
-630,407,0,0,0,0,0,0,0,0,0,-1,594,617,0,0
-623,407,0,0,0,0,0,0,0,0,0,-1,601,617,0,0
-616,407,0,0,0,0,0,0,0,0,0,-1,608,617,0,0
-609,407,0,0,0,0,0,0,0,0,0,-1,615,617,0,0
-602,407,0,0,0,0,0,0,0,0,0,-1,622,617,0,0
-595,407,0,0,0,0,0,0,0,0,0,-1,629,617,0,0
-588,407,0,0,0,0,0,0,0,0,0,-1,636,617,0,0
-581,407,0,0,0,0,0,0,0,0,0,-1,643,617,0,0
-574,407,0,0,0,0,0,0,0,0,0,-1,650,617,0,0
-567,407,0,0,0,0,0,0,0,0,0,-1,657,617,0,0
-560,407,0,0,0,0,0,0,0,0,0,-1,664,617,0,0
-553,407,0,0,0,0,0,0,0,0,0,-1,671,617,0,0
-546,407,-0.293945,0.0662231,0,0,0,0,0,0,0,-1,678,617,-0.293949,-0.0661977
-539,407,0.0372314,0.292603,0.0717429,0.0235997,0.0215937,0.0800091,0.0153335,0.365594,0.049034,0.0408884,685,617,0.0372183,-0.292611
-532,407,-0.0274658,1.01245,0.0639167,0.0279042,0.019022,0.0721032,0.0197177,0.406411,0.0430294,0.0397511,692,617,-0.0274753,-1.01243
-525,407,0.285034,1.1488,0.0556797,0.0300822,0.0167402,0.0639533,0.0218086,0.459024,0.0375405,0.0413844,699,617,0.285058,-1.14883
-518,407,0.876099,1.08771,0.046787,0.0306944,0.0146276,0.0554353,0.0220462,0.533947,0.0322281,0.0441455,706,617,0.876111,-1.08773
-511,407,1.36121,-0.0875244,0.0384196,0.0296072,0.0126242,0.0473845,0.0206424,0.617493,0.0274329,0.0432063,713,617,1.3612,0.087541
-504,407,0.561951,0.0057373,0.030737,0.0273138,0.0109813,0.0401393,0.0179115,0.708089,0.023219,0.0421733,720,617,0.561975,-0.00571542
-497,407,0.114502,0.0219727,0.0236123,0.0243314,0.00936794,0.0333467,0.014597,0.804578,0.0193024,0.0340719,727,617,0.114494,-0.0219932
-490,407,-0.036377,0.0216675,0.0175208,0.0209392,0.00763745,0.0270563,0.0114036,0.895481,0.0156851,0.0184982,734,617,-0.0363556,-0.0216908
-483,407,-0.0270996,0.0535278,0.0125595,0.0180849,0.00579889,0.0217456,0.00889885,1.0077,0.0126236,0.00966129,741,617,-0.0270858,-0.0534991
-476,407,-0.019165,0.0645752,0.00828584,0.0144378,0.00429279,0.0166429,0.00608074,1.09627,0.00972419,0.00857647,748,617,-0.0191375,-0.0645619
-469,407,-0.0304565,0.0887451,0.0052293,0.0109667,0.00327561,0.0124522,0.0037438,1.14503,0.0073773,0.0116063,755,617,-0.0304325,-0.0887634
-462,407,-0.0484009,0.0767212,0.00208499,0.00762281,0.00245418,0.00855388,0.00115392,1.20819,0.00535952,0.0189984,762,617,-0.0483974,-0.0767455
-455,407,-0.0488892,0.0648193,0.000511132,0.00495879,0.00178988,0.00558962,-0.000119698,1.23195,0.00376695,0.0206608,769,617,-0.0488793,-0.064816
-448,407,-0.00866699,0.0661011,0.000307545,0.00379668,0.00158263,0.00440759,-0.000303356,1.20241,0.00304455,0.0181845,776,617,-0.00866772,-0.0661221
-441,407,-0.0130615,0.0545654,-0.000758874,0.00241808,0.00104277,0.00272976,-0.00107056,1.28035,0.00226275,0.0140422,783,617,-0.0130404,-0.0545743
-434,407,-0.0239868,0.0515137,-0.002015,0.00159998,0.000789907,0.00176505,-0.00218006,1.36479,0.00228191,0.00953216,790,617,-0.0239944,-0.0515038
-427,407,-0.0114136,0.0548706,-0.00322685,0.00116945,0.000826661,0.00131975,-0.00337715,1.39094,0.00279713,0.00946244,797,617,-0.011419,-0.0548526
-420,407,-0.0298462,0.0696411,-0.00325525,0.000954693,0.000500392,0.00101335,-0.00331391,1.4541,0.00261339,0.00925842,804,617,-0.0298483,-0.0696293
-413,407,-0.0246582,0.069458,-0.00233619,-0.000294721,-0.000468266,-0.000192436,-0.00243847,-1.35574,0.00156545,0.0093378,811,617,-0.024674,-0.0694534
-406,407,-0.0166016,0.0615234,-0.000789521,-0.00170745,-0.0025551,0.00134751,-0.00384447,-0.696533,0.003111,0.0159251,818,617,-0.0165938,-0.061508
-399,407,-0.0285034,0.0481567,0.00026061,-0.00340197,-0.0059515,0.00465619,-0.00779756,-0.636144,0.00726602,0.0310457,825,617,-0.0285267,-0.0481816
-392,407,-0.0701904,0.0374146,0.00021949,-0.00478259,-0.0106666,0.00867431,-0.0132374,-0.670241,0.0127418,0.0436844,832,617,-0.0702077,-0.037428
-385,407,-0.995972,-0.656067,0.000890803,-0.00655784,-0.0157327,0.013334,-0.0190011,-0.669175,0.018764,0.042229,839,617,-0.995943,0.65605
-378,407,0.458496,3.11298,0,0,0,0,0,0,0,-1,846,617,0.458511,-3.11296
-371,407,1.38098,2.69592,0.00151742,-0.00827541,-0.0239979,0.0211133,-0.0278713,-0.684762,0.0283709,0.045848,853,617,1.38101,-2.69592
-364,407,2.2193,1.80768,0.000446546,-0.00884611,-0.0286059,0.024781,-0.0331806,-0.704889,0.0335811,0.042803,860,617,2.21929,-1.80771
-357,407,3.04681,1.79297,-0.00217968,-0.00808796,-0.0317117,0.0267152,-0.0369828,-0.738954,0.036935,0.0451542,867,617,3.04683,-1.79296
-350,407,3.39105,1.54236,-0.00645248,-0.00627727,-0.0327507,0.026386,-0.0391157,-0.786736,0.0380547,0.0455539,874,617,3.39106,-1.54237
-343,407,1.29236,-1.08972,-0.0121886,-0.00262631,-0.0301665,0.0231356,-0.0379505,-0.86399,0.0356121,0.0487562,881,617,1.29237,1.08973
-336,407,0.514954,-0.512024,0,0,0,0,0,0,0,-1,888,617,0.514959,0.512054
-329,407,0.750549,-2.93066,0,0,0,0,0,0,0,-1,895,617,0.750549,2.93065
-322,407,0,0,0,0,0,0,0,0,0,-1,902,617,0,0
-315,407,0,0,0,0,0,0,0,0,0,-1,909,617,0,0
-308,407,0,0,0,0,0,0,0,0,0,-1,916,617,0,0
-301,407,0,0,0,0,0,0,0,0,0,-1,923,617,0,0
-294,407,0,0,0,0,0,0,0,0,0,-1,930,617,0,0
-287,407,0,0,0,0,0,0,0,0,0,-1,937,617,0,0
-280,407,0,0,0,0,0,0,0,0,0,-1,944,617,0,0
-273,407,0,0,0,0,0,0,0,0,0,-1,951,617,0,0
-266,407,0,0,0,0,0,0,0,0,0,-1,958,617,0,0
-259,407,0,0,0,0,0,0,0,0,0,-1,965,617,0,0
-252,407,0,0,0,0,0,0,0,0,0,-1,972,617,0,0
-245,407,0,0,0,0,0,0,0,0,0,-1,979,617,0,0
-238,407,0,0,0,0,0,0,0,0,0,-1,986,617,0,0
-231,407,0,0,0,0,0,0,0,0,0,-1,993,617,0,0
-224,407,0,0,0,0,0,0,0,0,0,-1,1000,617,0,0
-217,407,0,0,0,0,0,0,0,0,0,-1,1007,617,0,0
-210,407,0,0,0,0,0,0,0,0,0,-1,1014,617,0,0
-203,407,0,0,0,0,0,0,0,0,0,-1,1021,617,0,0
-196,407,0,0,0,0,0,0,0,0,0,-1,1028,617,0,0
-189,407,0,0,0,0,0,0,0,0,0,-1,1035,617,0,0
-182,407,0,0,0,0,0,0,0,0,0,-1,1042,617,0,0
-175,407,0,0,0,0,0,0,0,0,0,-1,1049,617,0,0
-168,407,0,0,0,0,0,0,0,0,0,-1,1056,617,0,0
-161,407,0,0,0,0,0,0,0,0,0,-1,1063,617,0,0
-154,407,0,0,0,0,0,0,0,0,0,-1,1070,617,0,0
-147,407,0,0,0,0,0,0,0,0,0,-1,1077,617,0,0
-140,407,0,0,0,0,0,0,0,0,0,-1,1084,617,0,0
-133,407,0,0,0,0,0,0,0,0,0,-1,1091,617,0,0
-126,407,0,0,0,0,0,0,0,0,0,-1,1098,617,0,0
-119,407,0,0,0,0,0,0,0,0,0,-1,1105,617,0,0
-112,407,0,0,0,0,0,0,0,0,0,-1,1112,617,0,0
-105,407,0,0,0,0,0,0,0,0,0,-1,1119,617,0,0
-98,407,0,0,0,0,0,0,0,0,0,-1,1126,617,0,0
-91,407,0,0,0,0,0,0,0,0,0,-1,1133,617,0,0
-84,407,0,0,0,0,0,0,0,0,0,-1,1140,617,0,0
-77,407,0,0,0,0,0,0,0,0,0,-1,1147,617,0,0
-70,407,0,0,0,0,0,0,0,0,0,-1,1154,617,0,0
-63,407,0,0,0,0,0,0,0,0,0,-1,1161,617,0,0
-56,407,0,0,0,0,0,0,0,0,0,-1,1168,617,0,0
-49,407,0,0,0,0,0,0,0,0,0,-1,1175,617,0,0
-42,407,0,0,0,0,0,0,0,0,0,-1,1182,617,0,0
-35,407,0,0,0,0,0,0,0,0,0,-1,1189,617,0,0
-28,407,0,0,0,0,0,0,0,0,0,-1,1196,617,0,0
-21,407,0,0,0,0,0,0,0,0,0,-1,1203,617,0,0
-14,407,0,0,0,0,0,0,0,0,0,-1,1210,617,0,0
-7,407,0,0,0,0,0,0,0,0,0,-1,1217,617,0,0
0,407,0,0,0,0,0,0,0,0,0,-1,1224,617,0,0
7,407,0,0,0,0,0,0,0,0,0,-1,1231,617,0,0
14,407,0,0,0,0,0,0,0,0,0,-1,1238,617,0,0
21,407,0,0,0,0,0,0,0,0,0,-1,1245,617,0,0
28,407,0,0,0,0,0,0,0,0,0,-1,1252,617,0,0
35,407,0,0,0,0,0,0,0,0,0,-1,1259,617,0,0
42,407,0,0,0,0,0,0,0,0,0,-1,1266,617,0,0
49,407,0,0,0,0,0,0,0,0,0,-1,1273,617,0,0
56,407,0,0,0,0,0,0,0,0,0,-1,1280,617,0,0
63,407,0,0,0,0,0,0,0,0,0,-1,1287,617,0,0
70,407,0,0,0,0,0,0,0,0,0,-1,1294,617,0,0
77,407,0,0,0,0,0,0,0,0,0,-1,1301,617,0,0
84,407,0,0,0,0,0,0,0,0,0,-1,1308,617,0,0
91,407,0,0,0,0,0,0,0,0,0,-1,1315,617,0,0
98,407,0,0,0,0,0,0,0,0,0,-1,1322,617,0,0
105,407,0,0,0,0,0,0,0,0,0,-1,1329,617,0,0
112,407,0,0,0,0,0,0,0,0,0,-1,1336,617,0,0
119,407,0,0,0,0,0,0,0,0,0,-1,1343,617,0,0
126,407,0,0,0,0,0,0,0,0,0,-1,1350,617,0,0
133,407,0,0,0,0,0,0,0,0,0,-1,1357,617,0,0
140,407,0,0,0,0,0,0,0,0,0,-1,1364,617,0,0
147,407,0,0,0,0,0,0,0,0,0,-1,1371,617,0,0
154,407,0,0,0,0,0,0,0,0,0,-1,1378,617,0,0
161,407,0,0,0,0,0,0,0,0,0,-1,1385,617,0,0
168,407,0,0,0,0,0,0,0,0,0,-1,1392,617,0,0
175,407,0,0,0,0,0,0,0,0,0,-1,1399,617,0,0
182,407,0,0,0,0,0,0,0,0,0,-1,1406,617,0,0
189,407,0,0,0,0,0,0,0,0,0,-1,1413,617,0,0
196,407,0,0,0,0,0,0,0,0,0,-1,1420,617,0,0
203,407,0,0,0,0,0,0,0,0,0,-1,1427,617,0,0
210,407,0,0,0,0,0,0,0,0,0,-1,1434,617,0,0
217,407,0,0,0,0,0,0,0,0,0,-1,1441,617,0,0
224,407,0,0,0,0,0,0,0,0,0,-1,1448,617,0,0
231,407,0,0,0,0,0,0,0,0,0,-1,1455,617,0,0
238,407,0,0,0,0,0,0,0,0,0,-1,1462,617,0,0
245,407,0,0,0,0,0,0,0,0,0,-1,1469,617,0,0
252,407,0,0,0,0,0,0,0,0,0,-1,1476,617,0,0
259,407,0,0,0,0,0,0,0,0,0,-1,1483,617,0,0
266,407,0,0,0,0,0,0,0,0,0,-1,1490,617,0,0
273,407,0,0,0,0,0,0,0,0,0,-1,1497,617,0,0
280,407,0,0,0,0,0,0,0,0,0,-1,1504,617,0,0
287,407,0,0,0,0,0,0,0,0,0,-1,1511,617,0,0
294,407,0,0,0,0,0,0,0,0,0,-1,1518,617,0,0
301,407,0,0,0,0,0,0,0,0,0,-1,1525,617,0,0
308,407,0,0,0,0,0,0,0,0,0,-1,1532,617,0,0
315,407,0,0,0,0,0,0,0,0,0,-1,1539,617,0,0
322,407,0,0,0,0,0,0,0,0,0,-1,1546,617,0,0
329,407,0,0,0,0,0,0,0,0,0,-1,1553,617,0,0
336,407,0,0,0,0,0,0,0,0,0,-1,1560,617,0,0
343,407,0,0,0,0,0,0,0,0,0,-1,1567,617,0,0
350,407,0,0,0,0,0,0,0,0,0,-1,1574,617,0,0
357,407,0,0,0,0,0,0,0,0,0,-1,1581,617,0,0
364,407,0,0,0,0,0,0,0,0,0,-1,1588,617,0,0
371,407,0,0,0,0,0,0,0,0,0,-1,1595,617,0,0
378,407,0,0,0,0,0,0,0,0,0,-1,1602,617,0,0
385,407,0,0,0,0,0,0,0,0,0,-1,1609,617,0,0
392,407,0,0,0,0,0,0,0,0,0,-1,1616,617,0,0
399,407,0,0,0,0,0,0,0,0,0,-1,1623,617,0,0
406,407,0,0,0,0,0,0,0,0,0,-1,1630,617,0,0
413,407,0,0,0,0,0,0,0,0,0,-1,1637,617,0,0
420,407,0,0,0,0,0,0,0,0,0,-1,1644,617,0,0
427,407,0,0,0,0,0,0,0,0,0,-1,1651,617,0,0
434,407,0,0,0,0,0,0,0,0,0,-1,1658,617,0,0
441,407,0,0,0,0,0,0,0,0,0,-1,1665,617,0,0
448,407,1.59021,-0.17926,-0.0537634,-0.0204609,-0.00760539,-0.0188063,-0.0554181,-1.35657,0.0325415,0.0460517,1672,617,1.5902,0.179234
455,407,0.293701,-0.436768,-0.0453608,-0.0117539,-0.00360936,-0.0113706,-0.0457441,-1.465,0.0275009,0.0396911,1679,617,0.293708,0.436775
462,407,0.123413,-0.461792,0,0,0,0,0,0,0,-1,1686,617,0.1234,0.461805
469,407,-0.1521,-0.227295,0,0,0,0,0,0,0,-1,1693,617,-0.152128,0.227287
476,407,-0.865479,-0.834229,0,0,0,0,0,0,0,-1,1700,617,-0.865477,0.834235
483,407,-0.658569,-0.594666,-0.014522,0.0131893,0.00144193,0.0132642,-0.0145968,1.51895,0.0160917,0.0449039,1707,617,-0.658519,0.594672
490,407,-0.374512,-0.320313,-0.0105935,0.0150762,0.00210447,0.0152476,-0.0107649,1.48954,0.0150924,0.0401383,1714,617,-0.374521,0.320315
497,407,-0.186279,-0.197388,-0.00696976,0.0155462,0.00181309,0.0156912,-0.00711483,1.49096,0.0134739,0.0419125,1721,617,-0.186304,0.197402
504,407,-0.123047,-0.276001,-0.00322293,0.014785,0.00210545,0.0150279,-0.00346582,1.45594,0.0113516,0.0432255,1728,617,-0.122998,0.275979
511,407,0.0480957,-0.303589,-0.00140826,0.0142107,0.00212979,0.0144959,-0.00169347,1.43767,0.010275,0.0436776,1735,617,0.0481494,0.303599
518,407,0.160278,-0.333496,0,0,0,0,0,0,0,-1,1742,617,0.160313,0.333521
525,407,0.452148,-0.469238,-0.00137319,0.0106455,0.00128138,0.0107806,-0.00150828,1.46575,0.00773897,0.0400837,1749,617,0.452091,0.469241
532,407,-0.0144043,0.052002,-0.00154427,0.00857501,0.000817554,0.00864064,-0.0016099,1.4907,0.00636529,0.0343617,1756,617,-0.0144005,-0.0519792
539,407,-0.00878906,0.0518188,-0.00164844,0.00605336,0.000866,0.00614954,-0.00174461,1.46019,0.00478836,0.0175755,1763,617,-0.00875509,-0.0518101
546,407,-0.0410156,0.0424805,-0.00183481,0.00462133,0.00090882,0.00474682,-0.00196031,1.43358,0.0039822,0.0105701,1770,617,-0.0409578,-0.04246
553,407,-0.0401611,0.0479126,-0.00185535,0.00308366,0.000874046,0.00323377,-0.00200546,1.40071,0.00305246,0.0118981,1777,617,-0.0401529,-0.0479318
560,407,-0.0461426,0.060791,-0.00180658,0.00165448,0.000958054,0.00190198,-0.00205408,1.31799,0.0022846,0.0132044,1784,617,-0.046197,-0.0608212
567,407,-0.0506592,0.0598755,-0.00140762,0.00132989,0.000572602,0.00144483,-0.00152256,1.37269,0.00171342,0.0258507,1791,617,-0.0506956,-0.0598827
574,407,-0.0395508,0.0626221,-0.000570793,0.00144381,0.000309549,0.0014903,-0.000617283,1.42172,0.00125113,0.0240065,1798,617,-0.03959,-0.0626322
581,407,-0.0219727,0.0574951,9.61605e-06,0.0014072,0.000140399,0.00142117,-4.34869e-06,1.47166,0.000948897,0.0151741,1805,617,-0.0220299,-0.0574894
588,407,-0.0366211,0.0414429,0.000324633,0.00131697,0.000250324,0.00137654,0.000265063,1.33717,0.000843339,0.00940573,1812,617,-0.0365917,-0.0414691
595,407,-0.020752,0.0419312,0.000372226,0.00138528,0.000116792,0.00139857,0.000358935,1.45749,0.000838737,0.0167474,1819,617,-0.0207115,-0.041902
602,407,-0.0012207,0.0540161,0.000255024,0.00131856,1.23473e-05,0.0013187,0.00025488,1.55919,0.000807693,0.0151723,1826,617,-0.00116272,-0.0540267
609,407,-0.0246582,0.0630493,0.000126379,0.0010755,-6.66818e-05,0.00108016,0.000121717,-1.501,0.000683161,0.0107281,1833,617,-0.0246659,-0.0630253
616,407,-0.036377,0.09552,-0.000434808,0.000930244,-0.000200191,0.000958997,-0.000463562,-1.42814,0.000837754,0.0113694,1840,617,-0.0364172,-0.0955171
623,407,-0.00268555,0.0814819,-0.00157162,0.000618461,-0.000454138,0.000708897,-0.00166205,-1.37423,0.00140526,0.0186559,1847,617,-0.00264285,-0.0815013
630,407,0.121338,0.215027,-0.00342514,-2.8799e-05,-0.000896275,0.00019321,-0.00364715,-1.32798,0.00249833,0.0343704,1854,617,0.121323,-0.215044
637,407,0.0252686,0.428589,-0.00587271,-0.000849334,-0.00158181,-0.000392738,-0.00632931,-1.28978,0.00409491,0.0454636,1861,617,0.0252319,-0.42861
644,407,-0.0684814,0.618164,0,0,0,0,0,0,0,-1,1868,617,-0.068432,-0.618163
651,407,0.208984,0.626831,0,0,0,0,0,0,0,-1,1875,617,0.20901,-0.626818
658,407,0.135498,1.05139,0,0,0,0,0,0,0,-1,1882,617,0.135484,-1.05137
665,407,1.07776,0.300659,0,0,0,0,0,0,0,-1,1889,617,1.07781,-0.300651
672,407,0,0,0,0,0,0,0,0,0,-1,1896,617,0,0
679,407,0,0,0,0,0,0,0,0,0,-1,1903,617,0,0
686,407,0,0,0,0,0,0,0,0,0,-1,1910,617,0,0
693,407,0,0,0,0,0,0,0,0,0,-1,1917,617,0,0
700,407,0,0,0,0,0,0,0,0,0,-1,1924,617,0,0
707,407,0,0,0,0,0,0,0,0,0,-1,1931,617,0,0
714,407,0,0,0,0,0,0,0,0,0,-1,1938,617,0,0
721,407,0,0,0,0,0,0,0,0,0,-1,1945,617,0,0
728,407,0,0,0,0,0,0,0,0,0,-1,1952,617,0,0
735,407,0,0,0,0,0,0,0,0,0,-1,1959,617,0,0
742,407,0,0,0,0,0,0,0,0,0,-1,1966,617,0,0
749,407,0,0,0,0,0,0,0,0,0,-1,1973,617,0,0
756,407,0,0,0,0,0,0,0,0,0,-1,1980,617,0,0
763,407,0,0,0,0,0,0,0,0,0,-1,1987,617,0,0
770,407,0,0,0,0,0,0,0,0,0,-1,1994,617,0,0
777,407,0,0,0,0,0,0,0,0,0,-1,2001,617,0,0
784,407,0,0,0,0,0,0,0,0,0,-1,2008,617,0,0
791,407,0,0,0,0,0,0,0,0,0,-1,2015,617,0,0
798,407,0,0,0,0,0,0,0,0,0,-1,2022,617,0,0
805,407,0,0,0,0,0,0,0,0,0,-1,2029,617,0,0
812,407,0,0,0,0,0,0,0,0,0,-1,2036,617,0,0
-700,400,0,0,0,0,0,0,0,0,0,-1,524,624,0,0
-693,400,0,0,0,0,0,0,0,0,0,-1,531,624,0,0
-686,400,0,0,0,0,0,0,0,0,0,-1,538,624,0,0
-679,400,0,0,0,0,0,0,0,0,0,-1,545,624,0,0
-672,400,0,0,0,0,0,0,0,0,0,-1,552,624,0,0
-665,400,0,0,0,0,0,0,0,0,0,-1,559,624,0,0
-658,400,0,0,0,0,0,0,0,0,0,-1,566,624,0,0
-651,400,0,0,0,0,0,0,0,0,0,-1,573,624,0,0
-644,400,0,0,0,0,0,0,0,0,0,-1,580,624,0,0
-637,400,0,0,0,0,0,0,0,0,0,-1,587,624,0,0
-630,400,0,0,0,0,0,0,0,0,0,-1,594,624,0,0
-623,400,0,0,0,0,0,0,0,0,0,-1,601,624,0,0
-616,400,0,0,0,0,0,0,0,0,0,-1,608,624,0,0
-609,400,0,0,0,0,0,0,0,0,0,-1,615,624,0,0
-602,400,0,0,0,0,0,0,0,0,0,-1,622,624,0,0
-595,400,0,0,0,0,0,0,0,0,0,-1,629,624,0,0
-588,400,0,0,0,0,0,0,0,0,0,-1,636,624,0,0
-581,400,0,0,0,0,0,0,0,0,0,-1,643,624,0,0
-574,400,0,0,0,0,0,0,0,0,0,-1,650,624,0,0
-567,400,0,0,0,0,0,0,0,0,0,-1,657,624,0,0
-560,400,0,0,0,0,0,0,0,0,0,-1,664,624,0,0
-553,400,0,0,0,0,0,0,0,0,0,-1,671,624,0,0
-546,400,-0.868103,0.262573,0,0,0,0,0,0,0,-1,678,624,-0.868092,-0.262588
-539,400,-0.496826,0.439941,0.0546511,0.0184526,0.0159984,0.0607083,0.0123955,0.361932,0.0370383,0.0450056,685,624,-0.496832,-0.439912
-532,400,-0.00793457,0.741394,0.048423,0.021125,0.0139376,0.0542817,0.0152663,0.397929,0.0323239,0.0414333,692,624,-0.00793927,-0.741374
-525,400,0.371765,0.860046,0.042006,0.0223064,0.0121586,0.0478039,0.0165085,0.44496,0.0280363,0.0414286,699,624,0.371762,-0.860023
-518,400,0.640869,0.575378,0.0350764,0.0224413,0.0106047,0.0411027,0.016415,0.516759,0.0238903,0.0405633,706,624,0.640894,-0.575393
-511,400,0.522339,0.322327,0.0287223,0.0213974,0.00913757,0.0349041,0.0152156,0.594793,0.020207,0.0425835,713,624,0.522355,-0.322318
-504,400,0.210693,0.221008,0.0229334,0.0194354,0.00804156,0.0294139,0.0129548,0.678317,0.0170223,0.0409246,720,624,0.210666,-0.221021
-497,400,-0.0206299,0.107849,0.0174287,0.0169826,0.0069629,0.0241721,0.0102392,0.769388,0.01401,0.0268383,727,624,-0.0206254,-0.107876
-490,400,-0.0186768,0.0352783,0.0128149,0.0143593,0.00576863,0.0194072,0.00776703,0.851932,0.0112789,0.0137705,734,624,-0.0186474,-0.0352989
-483,400,-0.0169678,0.0782471,0.0090051,0.0122435,0.00442837,0.0153394,0.0059092,0.960671,0.00893366,0.0132653,741,624,-0.016995,-0.0782491
-476,400,-0.015686,0.0878906,0.00570392,0.00939221,0.00333542,0.0113593,0.00373678,1.03793,0.006685,0.0125701,748,624,-0.0156826,-0.0879064
-469,400,-0.0344849,0.0784302,0.00350777,0.00682522,0.00260492,0.00825469,0.00207829,1.06891,0.00495776,0.0147731,755,624,-0.0344802,-0.0784142
-462,400,-0.0238647,0.0615845,0.00119467,0.00427028,0.0020094,0.00526279,0.000202153,1.11201,0.00344312,0.0198837,762,624,-0.0238386,-0.0615696
-455,400,-0.0366211,0.0646973,4.03296e-05,0.00243306,0.00156801,0.00320899,-0.0007356,1.11128,0.00242205,0.0198511,769,624,-0.0365978,-0.064675
-448,400,-0.0203857,0.0697021,-7.01471e-05,0.00199193,0.00153535,0.00281031,-0.000888525,1.08108,0.00222953,0.0153307,776,624,-0.0203708,-0.0697069
-441,400,-0.0142822,0.0631104,-0.00101963,0.00139809,0.0011876,0.00188385,-0.00150539,1.18253,0.00196084,0.0147597,783,624,-0.0142812,-0.0630853
-434,400,-0.0272827,0.0616455,-0.00237694,0.00112141,0.000960082,0.00136757,-0.0026231,1.31981,0.00234172,0.0114461,790,624,-0.0272875,-0.0616318
-427,400,-0.00372314,0.0636597,-0.00382229,0.0011083,0.000990747,0.00129994,-0.00401393,1.37973,0.00319856,0.00988003,797,624,-0.00373805,-0.063661
-420,400,-0.0126953,0.0651245,-0.00418766,0.00116619,0.000581457,0.00122861,-0.00425008,1.46385,0.0033196,0.00878383,804,624,-0.0126928,-0.0651253
-413,400,-0.00836182,0.0755005,-0.00368202,0.000172358,-0.000369179,0.0002074,-0.00371707,-1.47616,0.00254999,0.0143649,811,624,-0.0083664,-0.0754787
-406,400,0.0124512,0.162048,-0.00246611,-0.00107088,-0.00244542,0.000774486,-0.00431148,-0.924344,0.00316424,0.0253983,818,624,0.012456,-0.162034
-399,400,0.062561,0.204041,-0.0017447,-0.0027464,-0.00587577,0.00365153,-0.00814263,-0.742881,0.00697198,0.0377701,825,624,0.0625907,-0.204035
-392,400,-0.369263,0.673828,-0.00203192,-0.0042623,-0.0107663,0.00767676,-0.013971,-0.733791,0.0126732,0.0440056,832,624,-0.369292,-0.673837
-385,400,-0.494202,0.81073,-0.00143385,-0.00637474,-0.0161475,0.0124311,-0.0202397,-0.70949,0.0190412,0.0435141,839,624,-0.494185,-0.810752
-378,400,1.10187,3.7995,0,0,0,0,0,0,0,-1,846,624,1.10189,-3.7995
-371,400,1.87085,3.1662,-0.00108041,-0.00863318,-0.0247304,0.0201603,-0.0298739,-0.709632,0.0290681,0.0496418,853,624,1.87082,-3.16617
-364,400,2.62817,2.48169,-0.00247022,-0.00963451,-0.0294751,0.0236396,-0.0357444,-0.724929,0.034522,0.0472154,860,624,2.62818,-2.48169
-357,400,3.45068,1.95612,-0.00550207,-0.00931646,-0.0325945,0.025241,-0.0400595,-0.756175,0.0380235,0.0480879,867,624,3.4507,-1.95614
-350,400,4.28564,1.41364,0,0,0,0,0,0,0,-1,874,624,4.28562,-1.41366
-343,400,1.38159,-1.2052,0,0,0,0,0,0,0,-1,881,624,1.38159,1.2052
-336,400,0,0,0,0,0,0,0,0,0,-1,888,624,0,0
-329,400,0,0,0,0,0,0,0,0,0,-1,895,624,0,0
-322,400,0,0,0,0,0,0,0,0,0,-1,902,624,0,0
-315,400,0,0,0,0,0,0,0,0,0,-1,909,624,0,0
-308,400,0,0,0,0,0,0,0,0,0,-1,916,624,0,0
-301,400,0,0,0,0,0,0,0,0,0,-1,923,624,0,0
-294,400,0,0,0,0,0,0,0,0,0,-1,930,624,0,0
-287,400,0,0,0,0,0,0,0,0,0,-1,937,624,0,0
-280,400,0,0,0,0,0,0,0,0,0,-1,944,624,0,0
-273,400,0,0,0,0,0,0,0,0,0,-1,951,624,0,0
-266,400,0,0,0,0,0,0,0,0,0,-1,958,624,0,0
-259,400,0,0,0,0,0,0,0,0,0,-1,965,624,0,0
-252,400,0,0,0,0,0,0,0,0,0,-1,972,624,0,0
-245,400,0,0,0,0,0,0,0,0,0,-1,979,624,0,0
-238,400,0,0,0,0,0,0,0,0,0,-1,986,624,0,0
-231,400,0,0,0,0,0,0,0,0,0,-1,993,624,0,0
-224,400,0,0,0,0,0,0,0,0,0,-1,1000,624,0,0
-217,400,0,0,0,0,0,0,0,0,0,-1,1007,624,0,0
-210,400,0,0,0,0,0,0,0,0,0,-1,1014,624,0,0
-203,400,0,0,0,0,0,0,0,0,0,-1,1021,624,0,0
-196,400,0,0,0,0,0,0,0,0,0,-1,1028,624,0,0
-189,400,0,0,0,0,0,0,0,0,0,-1,1035,624,0,0
-182,400,0,0,0,0,0,0,0,0,0,-1,1042,624,0,0
-175,400,0,0,0,0,0,0,0,0,0,-1,1049,624,0,0
-168,400,0,0,0,0,0,0,0,0,0,-1,1056,624,0,0
-161,400,0,0,0,0,0,0,0,0,0,-1,1063,624,0,0
-154,400,0,0,0,0,0,0,0,0,0,-1,1070,624,0,0
-147,400,0,0,0,0,0,0,0,0,0,-1,1077,624,0,0
-140,400,0,0,0,0,0,0,0,0,0,-1,1084,624,0,0
-133,400,0,0,0,0,0,0,0,0,0,-1,1091,624,0,0
-126,400,0,0,0,0,0,0,0,0,0,-1,1098,624,0,0
-119,400,0,0,0,0,0,0,0,0,0,-1,1105,624,0,0
-112,400,0,0,0,0,0,0,0,0,0,-1,1112,624,0,0
-105,400,0,0,0,0,0,0,0,0,0,-1,1119,624,0,0
-98,400,0,0,0,0,0,0,0,0,0,-1,1126,624,0,0
-91,400,0,0,0,0,0,0,0,0,0,-1,1133,624,0,0
-84,400,0,0,0,0,0,0,0,0,0,-1,1140,624,0,0
-77,400,0,0,0,0,0,0,0,0,0,-1,1147,624,0,0
-70,400,0,0,0,0,0,0,0,0,0,-1,1154,624,0,0
-63,400,0,0,0,0,0,0,0,0,0,-1,1161,624,0,0
-56,400,0,0,0,0,0,0,0,0,0,-1,1168,624,0,0
-49,400,0,0,0,0,0,0,0,0,0,-1,1175,624,0,0
-42,400,0,0,0,0,0,0,0,0,0,-1,1182,624,0,0
-35,400,0,0,0,0,0,0,0,0,0,-1,1189,624,0,0
-28,400,0,0,0,0,0,0,0,0,0,-1,1196,624,0,0
-21,400,0,0,0,0,0,0,0,0,0,-1,1203,624,0,0
-14,400,0,0,0,0,0,0,0,0,0,-1,1210,624,0,0
-7,400,0,0,0,0,0,0,0,0,0,-1,1217,624,0,0
0,400,0,0,0,0,0,0,0,0,0,-1,1224,624,0,0
7,400,0,0,0,0,0,0,0,0,0,-1,1231,624,0,0
14,400,0,0,0,0,0,0,0,0,0,-1,1238,624,0,0
21,400,0,0,0,0,0,0,0,0,0,-1,1245,624,0,0
28,400,0,0,0,0,0,0,0,0,0,-1,1252,624,0,0
35,400,0,0,0,0,0,0,0,0,0,-1,1259,624,0,0
42,400,0,0,0,0,0,0,0,0,0,-1,1266,624,0,0
49,400,0,0,0,0,0,0,0,0,0,-1,1273,624,0,0
56,400,0,0,0,0,0,0,0,0,0,-1,1280,624,0,0
63,400,0,0,0,0,0,0,0,0,0,-1,1287,624,0,0
70,400,0,0,0,0,0,0,0,0,0,-1,1294,624,0,0
77,400,0,0,0,0,0,0,0,0,0,-1,1301,624,0,0
84,400,0,0,0,0,0,0,0,0,0,-1,1308,624,0,0
91,400,0,0,0,0,0,0,0,0,0,-1,1315,624,0,0
98,400,0,0,0,0,0,0,0,0,0,-1,1322,624,0,0
105,400,0,0,0,0,0,0,0,0,0,-1,1329,624,0,0
112,400,0,0,0,0,0,0,0,0,0,-1,1336,624,0,0
119,400,0,0,0,0,0,0,0,0,0,-1,1343,624,0,0
126,400,0,0,0,0,0,0,0,0,0,-1,1350,624,0,0
133,400,0,0,0,0,0,0,0,0,0,-1,1357,624,0,0
140,400,0,0,0,0,0,0,0,0,0,-1,1364,624,0,0
147,400,0,0,0,0,0,0,0,0,0,-1,1371,624,0,0
154,400,0,0,0,0,0,0,0,0,0,-1,1378,624,0,0
161,400,0,0,0,0,0,0,0,0,0,-1,1385,624,0,0
168,400,0,0,0,0,0,0,0,0,0,-1,1392,624,0,0
175,400,0,0,0,0,0,0,0,0,0,-1,1399,624,0,0
182,400,0,0,0,0,0,0,0,0,0,-1,1406,624,0,0
189,400,0,0,0,0,0,0,0,0,0,-1,1413,624,0,0
196,400,0,0,0,0,0,0,0,0,0,-1,1420,624,0,0
203,400,0,0,0,0,0,0,0,0,0,-1,1427,624,0,0
210,400,0,0,0,0,0,0,0,0,0,-1,1434,624,0,0
217,400,0,0,0,0,0,0,0,0,0,-1,1441,624,0,0
224,400,0,0,0,0,0,0,0,0,0,-1,1448,624,0,0
231,400,0,0,0,0,0,0,0,0,0,-1,1455,624,0,0
238,400,0,0,0,0,0,0,0,0,0,-1,1462,624,0,0
245,400,0,0,0,0,0,0,0,0,0,-1,1469,624,0,0
252,400,0,0,0,0,0,0,0,0,0,-1,1476,624,0,0
259,400,0,0,0,0,0,0,0,0,0,-1,1483,624,0,0
266,400,0,0,0,0,0,0,0,0,0,-1,1490,624,0,0
273,400,0,0,0,0,0,0,0,0,0,-1,1497,624,0,0
280,400,0,0,0,0,0,0,0,0,0,-1,1504,624,0,0
287,400,0,0,0,0,0,0,0,0,0,-1,1511,624,0,0
294,400,0,0,0,0,0,0,0,0,0,-1,1518,624,0,0
301,400,0,0,0,0,0,0,0,0,0,-1,1525,624,0,0
308,400,0,0,0,0,0,0,0,0,0,-1,1532,624,0,0
315,400,0,0,0,0,0,0,0,0,0,-1,1539,624,0,0
322,400,0,0,0,0,0,0,0,0,0,-1,1546,624,0,0
329,400,0,0,0,0,0,0,0,0,0,-1,1553,624,0,0
336,400,0,0,0,0,0,0,0,0,0,-1,1560,624,0,0
343,400,0,0,0,0,0,0,0,0,0,-1,1567,624,0,0
350,400,0,0,0,0,0,0,0,0,0,-1,1574,624,0,0
357,400,0,0,0,0,0,0,0,0,0,-1,1581,624,0,0
364,400,0,0,0,0,0,0,0,0,0,-1,1588,624,0,0
371,400,0,0,0,0,0,0,0,0,0,-1,1595,624,0,0
378,400,0,0,0,0,0,0,0,0,0,-1,1602,624,0,0
385,400,0,0,0,0,0,0,0,0,0,-1,1609,624,0,0
392,400,0,0,0,0,0,0,0,0,0,-1,1616,624,0,0
399,400,0,0,0,0,0,0,0,0,0,-1,1623,624,0,0
406,400,0,0,0,0,0,0,0,0,0,-1,1630,624,0,0
413,400,0,0,0,0,0,0,0,0,0,-1,1637,624,0,0
420,400,0,0,0,0,0,0,0,0,0,-1,1644,624,0,0
427,400,0,0,0,0,0,0,0,0,0,-1,1651,624,0,0
434,400,0,0,0,0,0,0,0,0,0,-1,1658,624,0,0
441,400,0,0,0,0,0,0,0,0,0,-1,1665,624,0,0
448,400,0,0,0,0,0,0,0,0,0,-1,1672,624,0,0
455,400,0.511353,0.0927734,-0.0546543,-0.0204853,-0.00357875,-0.0201145,-0.0550251,-1.46755,0.0321493,0.0396854,1679,624,0.511299,-0.0928016
462,400,0.368042,0.184814,-0.0431551,-0.00947109,-0.000717463,-0.00945581,-0.0431703,-1.54951,0.0262033,0.0413303,1686,624,0.368025,-0.184827
469,400,0.45459,0.215393,-0.0321488,-0.000190149,0.000681406,-0.000175629,-0.0321633,1.54949,0.0213839,0.0440475,1693,624,0.454614,-0.215415
476,400,0.142822,-0.150696,-0.0232287,0.0065538,0.00123647,0.00660504,-0.0232799,1.52937,0.0181273,0.0466818,1700,624,0.142775,0.150667
483,400,-0.356079,-1.30127,0,0,0,0,0,0,0,-1,1707,624,-0.356027,1.30125
490,400,-0.29248,-0.824951,-0.0118885,0.0136648,0.00211005,0.0138379,-0.0120615,1.48896,0.0149648,0.0400938,1714,624,-0.292504,0.824956
497,400,-0.0777588,-0.815735,-0.00788783,0.014824,0.00168658,0.0149486,-0.00801239,1.49708,0.0134566,0.0417414,1721,624,-0.0777317,0.815729
504,400,-0.192139,-0.649841,-0.00393704,0.0146188,0.00191937,0.0148153,-0.0041335,1.4688,0.0115049,0.0435697,1728,624,-0.192119,0.649871
511,400,0.0231934,-0.663208,0,0,0,0,0,0,0,-1,1735,624,0.0232083,0.663234
518,400,0.118286,-0.590637,0,0,0,0,0,0,0,-1,1742,624,0.118332,0.590649
525,400,0.318359,-0.415344,-0.00184087,0.0112969,0.00106777,0.0113831,-0.00192709,1.49023,0.00830594,0.0426102,1749,624,0.318327,0.415353
532,400,0.168579,-0.282227,-0.00195773,0.00931505,0.000677862,0.00935566,-0.00199835,1.51095,0.00699897,0.0377167,1756,624,0.168636,0.282241
539,400,0.0180664,0.0101929,-0.00211718,0.00658007,0.00075468,0.00664507,-0.00218218,1.48488,0.00530909,0.0210813,1763,624,0.0180541,-0.0101995
546,400,-0.0474854,0.0507202,-0.00232631,0.00506767,0.000840102,0.00516192,-0.00242056,1.45907,0.0044721,0.0115567,1770,624,-0.0475269,-0.0506966
553,400,-0.0462646,0.0622559,-0.00233653,0.00337339,0.000823917,0.0034899,-0.00245304,1.43032,0.00344852,0.0109707,1777,624,-0.0462676,-0.0622719
560,400,-0.0511475,0.0661011,-0.00223463,0.00178887,0.000879294,0.00197264,-0.00241839,1.36477,0.00253952,0.0120049,1784,624,-0.0511388,-0.0660927
567,400,-0.0219727,0.0491943,-0.00181936,0.00129589,0.000499753,0.0013741,-0.00189757,1.41556,0.00189694,0.0157146,1791,624,-0.0219716,-0.0491789
574,400,-0.0245361,0.055542,-0.00101785,0.00123178,0.000302892,0.00127185,-0.00105792,1.43928,0.00134698,0.0180758,1798,624,-0.0245966,-0.0555494
581,400,-0.0524902,0.0344849,-0.000441117,0.00121006,0.000161264,0.00122566,-0.00045672,1.47434,0.00100457,0.0141438,1805,624,-0.0525012,-0.0344919
588,400,-0.0244141,0.022644,-7.14889e-05,0.00119036,0.000255738,0.00124022,-0.000121349,1.37825,0.00087009,0.00947541,1812,624,-0.0244177,-0.0226652
595,400,-0.0169678,0.0567627,7.94247e-05,0.00128914,0.000135859,0.00130421,6.43546e-05,1.46032,0.000848837,0.00863598,1819,624,-0.0169921,-0.0567801
602,400,-0.0211182,0.0728149,3.31204e-05,0.00122266,0.000135599,0.00123793,1.78589e-05,1.45872,0.000819396,0.00952688,1826,624,-0.0211261,-0.0728097
609,400,-0.0495605,0.0761719,4.96364e-05,0.00100217,0.00011141,0.00101503,3.67792e-05,1.4559,0.000664764,0.011242,1833,624,-0.0495631,-0.0761493
616,400,-0.0581055,0.0999756,-0.000278022,0.000935863,4.39871e-05,0.000937455,-0.000279614,1.53462,0.000736096,0.0140545,1840,624,-0.0581101,-0.100006
623,400,-0.0214844,0.0895996,-0.00108468,0.000706657,-0.000116284,0.000714174,-0.0010922,-1.50624,0.0010505,0.0191692,1847,624,-0.0215271,-0.0896259
630,400,-0.0113525,0.067627,-0.00258098,0.000162743,-0.000443081,0.000232521,-0.00265076,-1.4146,0.00184956,0.0257455,1854,624,-0.0112945,-0.0676059
637,400,-0.0795898,0.257202,-0.00462385,-0.000505788,-0.001019,-0.000267434,-0.0048622,-1.34102,0.0031561,0.0429852,1861,624,-0.0796236,-0.257215
644,400,0.0770264,0.27771,-0.00722929,-0.00145543,-0.00186439,-0.000905744,-0.00777898,-1.28409,0.00491198,0.0484814,1868,624,0.077028,-0.277695
651,400,0.0274658,0.245422,-0.0105479,-0.00294321,-0.00312701,-0.00182256,-0.0116686,-1.22668,0.00724833,0.0456273,1875,624,0.0274606,-0.245449
658,400,-0.0045166,0.246399,0,0,0,0,0,0,0,-1,1882,624,-0.00455701,-0.246393
665,400,0.670654,0.0404053,0,0,0,0,0,0,0,-1,1889,624,0.670658,-0.0403827
672,400,0,0,0,0,0,0,0,0,0,-1,1896,624,0,0
679,400,0,0,0,0,0,0,0,0,0,-1,1903,624,0,0
686,400,0,0,0,0,0,0,0,0,0,-1,1910,624,0,0
693,400,0,0,0,0,0,0,0,0,0,-1,1917,624,0,0
700,400,0,0,0,0,0,0,0,0,0,-1,1924,624,0,0
707,400,0,0,0,0,0,0,0,0,0,-1,1931,624,0,0
714,400,0,0,0,0,0,0,0,0,0,-1,1938,624,0,0
721,400,0,0,0,0,0,0,0,0,0,-1,1945,624,0,0
728,400,0,0,0,0,0,0,0,0,0,-1,1952,624,0,0
735,400,0,0,0,0,0,0,0,0,0,-1,1959,624,0,0
742,400,0,0,0,0,0,0,0,0,0,-1,1966,624,0,0
749,400,0,0,0,0,0,0,0,0,0,-1,1973,624,0,0
756,400,0,0,0,0,0,0,0,0,0,-1,1980,624,0,0
763,400,0,0,0,0,0,0,0,0,0,-1,1987,624,0,0
770,400,0,0,0,0,0,0,0,0,0,-1,1994,624,0,0
777,400,0,0,0,0,0,0,0,0,0,-1,2001,624,0,0
784,400,0,0,0,0,0,0,0,0,0,-1,2008,624,0,0
791,400,0,0,0,0,0,0,0,0,0,-1,2015,624,0,0
798,400,0,0,0,0,0,0,0,0,0,-1,2022,624,0,0
805,400,0,0,0,0,0,0,0,0,0,-1,2029,624,0,0
812,400,0,0,0,0,0,0,0,0,0,-1,2036,624,0,0
-700,393,0,0,0,0,0,0,0,0,0,-1,524,631,0,0
-693,393,0,0,0,0,0,0,0,0,0,-1,531,631,0,0
-686,393,0,0,0,0,0,0,0,0,0,-1,538,631,0,0
-679,393,0,0,0,0,0,0,0,0,0,-1,545,631,0,0
-672,393,0,0,0,0,0,0,0,0,0,-1,552,631,0,0
-665,393,0,0,0,0,0,0,0,0,0,-1,559,631,0,0
-658,393,0,0,0,0,0,0,0,0,0,-1,566,631,0,0
-651,393,0,0,0,0,0,0,0,0,0,-1,573,631,0,0
-644,393,0,0,0,0,0,0,0,0,0,-1,580,631,0,0
-637,393,0,0,0,0,0,0,0,0,0,-1,587,631,0,0
-630,393,0,0,0,0,0,0,0,0,0,-1,594,631,0,0
-623,393,0,0,0,0,0,0,0,0,0,-1,601,631,0,0
-616,393,0,0,0,0,0,0,0,0,0,-1,608,631,0,0
-609,393,0,0,0,0,0,0,0,0,0,-1,615,631,0,0
-602,393,0,0,0,0,0,0,0,0,0,-1,622,631,0,0
-595,393,0,0,0,0,0,0,0,0,0,-1,629,631,0,0
-588,393,0,0,0,0,0,0,0,0,0,-1,636,631,0,0
-581,393,0,0,0,0,0,0,0,0,0,-1,643,631,0,0
-574,393,0,0,0,0,0,0,0,0,0,-1,650,631,0,0
-567,393,0,0,0,0,0,0,0,0,0,-1,657,631,0,0
-560,393,0,0,0,0,0,0,0,0,0,-1,664,631,0,0
-553,393,-0.0441895,0.67688,0.0483156,0.0062636,0.0149269,0.0530754,0.00150385,0.308678,0.0348931,0.0451296,671,631,-0.0441764,-0.676883
-546,393,0.374023,0.53009,0,0,0,0,0,0,0,-1,678,631,0.374019,-0.530098
-539,393,-0.138733,-0.885132,0,0,0,0,0,0,0,-1,685,631,-0.138748,0.885128
-532,393,-0.245605,0.811279,0.0362547,0.0152471,0.00946018,0.0398869,0.011615,0.366585,0.0236886,0.0413805,692,631,-0.245608,-0.811302
-525,393,0.437744,0.718872,0.0312602,0.0160557,0.00812242,0.0347831,0.0125328,0.409232,0.0203416,0.0428839,699,631,0.437734,-0.71887
-518,393,0.293518,0.707947,0.0258403,0.0162242,0.00707402,0.0295856,0.0124789,0.48692,0.0171507,0.0423473,706,631,0.293528,-0.707953
-511,393,0.178406,0.422363,0.0210557,0.0154342,0.00607644,0.02494,0.0115499,0.568771,0.0144121,0.0410757,713,631,0.17839,-0.422362
-504,393,-0.0756226,0.165833,0.0167189,0.0138909,0.00542729,0.0209134,0.00969645,0.657964,0.012085,0.0342414,720,631,-0.0756366,-0.165804
-497,393,-0.0466309,0.0719604,0.012448,0.0119599,0.00479765,0.0170078,0.0074001,0.759985,0.00984699,0.0170829,727,631,-0.0466055,-0.0719534
-490,393,-0.0171509,0.067749,0.00895647,0.010037,0.00406969,0.0136022,0.00539136,0.851392,0.00790924,0.0121951,734,631,-0.0171551,-0.067772
-483,393,0.00158691,0.0725708,0.00603258,0.00854878,0.00317277,0.0107038,0.00387758,0.974154,0.00625751,0.0165005,741,631,0.00161273,-0.072554
-476,393,-0.0117798,0.0903931,0.00350796,0.0063699,0.00245025,0.00777643,0.00210143,1.04969,0.00464506,0.0142389,748,631,-0.0117635,-0.0904089
-469,393,-0.0422974,0.074585,0.00203388,0.00451563,0.00196177,0.00559603,0.000953483,1.0674,0.00345697,0.0118048,755,631,-0.0423104,-0.0745696
-462,393,-0.0335693,0.0380249,0.000470416,0.00254937,0.00155413,0.0033796,-0.000359818,1.08015,0.00238208,0.0145692,762,631,-0.0335941,-0.0380286
-455,393,-0.0449219,0.0438232,-0.000378066,0.00128602,0.00129661,0.00199459,-0.00108664,1.07066,0.00180451,0.0141581,769,631,-0.0449223,-0.043796
-448,393,-0.0427856,0.0432739,-0.000518205,0.00127385,0.00138917,0.00203089,-0.00127525,1.07183,0.00192535,0.0137534,776,631,-0.0427836,-0.0432586
-441,393,-0.0351563,0.0534058,-0.00144407,0.00119576,0.00120625,0.00166393,-0.00191223,1.20058,0.00206635,0.0123369,783,631,-0.0351543,-0.0533985
-434,393,-0.0317993,0.0692749,-0.00288293,0.00129422,0.000997961,0.0015204,-0.00310911,1.34792,0.00272481,0.0112755,790,631,-0.031804,-0.0692505
-427,393,-0.0132446,0.0696411,-0.00459693,0.00151178,0.000995236,0.00166984,-0.00475498,1.4133,0.00384929,0.0127992,797,631,-0.0132543,-0.069635
-420,393,0.00567627,0.0889282,-0.00537414,0.00172115,0.000529361,0.00176043,-0.00541342,1.49674,0.00431711,0.0151226,804,631,0.00566951,-0.0889253
-413,393,-0.019104,0.144287,-0.00544635,0.000927692,-0.000387431,0.000951154,-0.00546981,-1.51031,0.00400145,0.027496,811,631,-0.0190945,-0.144314
-406,393,-0.0778198,0.23877,-0.00483192,-8.76042e-05,-0.00240438,0.000917837,-0.00583736,-1.17472,0.00423084,0.0364887,818,631,-0.0778002,-0.238775
-399,393,-0.0697632,0.415588,-0.00471028,-0.00165155,-0.00576211,0.0027807,-0.00914253,-0.915116,0.00720311,0.039684,825,631,-0.0697571,-0.415574
-392,393,-0.217651,0.491089,-0.00549125,-0.00321268,-0.0106701,0.00637876,-0.0150827,-0.838583,0.0127259,0.041253,832,631,-0.217662,-0.491076
-385,393,-0.0725708,0.175964,-0.00528002,-0.00557179,-0.0162029,0.0107776,-0.0216295,-0.780896,0.0190567,0.0417421,839,631,-0.0725769,-0.175958
-378,393,-0.346191,-0.684509,-0.00507807,-0.00648247,-0.0209349,0.0151664,-0.0267269,-0.768633,0.0244922,0.0426823,846,631,-0.346217,0.684515
-371,393,2.18561,3.50476,0,0,0,0,0,0,0,-1,853,631,2.18563,-3.50476
-364,393,2.91003,2.73004,0,0,0,0,0,0,0,-1,860,631,2.91001,-2.73004
-357,393,3.83636,2.11505,0,0,0,0,0,0,0,-1,867,631,3.83639,-2.11503
-350,393,0.104675,-0.635864,0,0,0,0,0,0,0,-1,874,631,0.104679,0.635888
-343,393,0,0,0,0,0,0,0,0,0,-1,881,631,0,0
-336,393,0,0,0,0,0,0,0,0,0,-1,888,631,0,0
-329,393,0,0,0,0,0,0,0,0,0,-1,895,631,0,0
-322,393,0,0,0,0,0,0,0,0,0,-1,902,631,0,0
-315,393,0,0,0,0,0,0,0,0,0,-1,909,631,0,0
-308,393,0,0,0,0,0,0,0,0,0,-1,916,631,0,0
-301,393,0,0,0,0,0,0,0,0,0,-1,923,631,0,0
-294,393,0,0,0,0,0,0,0,0,0,-1,930,631,0,0
-287,393,0,0,0,0,0,0,0,0,0,-1,937,631,0,0
-280,393,0,0,0,0,0,0,0,0,0,-1,944,631,0,0
-273,393,0,0,0,0,0,0,0,0,0,-1,951,631,0,0
-266,393,0,0,0,0,0,0,0,0,0,-1,958,631,0,0
-259,393,0,0,0,0,0,0,0,0,0,-1,965,631,0,0
-252,393,0,0,0,0,0,0,0,0,0,-1,972,631,0,0
-245,393,0,0,0,0,0,0,0,0,0,-1,979,631,0,0
-238,393,0,0,0,0,0,0,0,0,0,-1,986,631,0,0
-231,393,0,0,0,0,0,0,0,0,0,-1,993,631,0,0
-224,393,0,0,0,0,0,0,0,0,0,-1,1000,631,0,0
-217,393,0,0,0,0,0,0,0,0,0,-1,1007,631,0,0
-210,393,0,0,0,0,0,0,0,0,0,-1,1014,631,0,0
-203,393,0,0,0,0,0,0,0,0,0,-1,1021,631,0,0
-196,393,0,0,0,0,0,0,0,0,0,-1,1028,631,0,0
-189,393,0,0,0,0,0,0,0,0,0,-1,1035,631,0,0
-182,393,0,0,0,0,0,0,0,0,0,-1,1042,631,0,0
-175,393,0,0,0,0,0,0,0,0,0,-1,1049,631,0,0
-168,393,0,0,0,0,0,0,0,0,0,-1,1056,631,0,0
-161,393,0,0,0,0,0,0,0,0,0,-1,1063,631,0,0
-154,393,0,0,0,0,0,0,0,0,0,-1,1070,631,0,0
-147,393,0,0,0,0,0,0,0,0,0,-1,1077,631,0,0
-140,393,0,0,0,0,0,0,0,0,0,-1,1084,631,0,0
-133,393,0,0,0,0,0,0,0,0,0,-1,1091,631,0,0
-126,393,0,0,0,0,0,0,0,0,0,-1,1098,631,0,0
-119,393,0,0,0,0,0,0,0,0,0,-1,1105,631,0,0
-112,393,0,0,0,0,0,0,0,0,0,-1,1112,631,0,0
-105,393,0,0,0,0,0,0,0,0,0,-1,1119,631,0,0
-98,393,0,0,0,0,0,0,0,0,0,-1,1126,631,0,0
-91,393,0,0,0,0,0,0,0,0,0,-1,1133,631,0,0
-84,393,0,0,0,0,0,0,0,0,0,-1,1140,631,0,0
-77,393,0,0,0,0,0,0,0,0,0,-1,1147,631,0,0
-70,393,0,0,0,0,0,0,0,0,0,-1,1154,631,0,0
-63,393,0,0,0,0,0,0,0,0,0,-1,1161,631,0,0
-56,393,0,0,0,0,0,0,0,0,0,-1,1168,631,0,0
-49,393,0,0,0,0,0,0,0,0,0,-1,1175,631,0,0
-42,393,0,0,0,0,0,0,0,0,0,-1,1182,631,0,0
-35,393,0,0,0,0,0,0,0,0,0,-1,1189,631,0,0
-28,393,0,0,0,0,0,0,0,0,0,-1,1196,631,0,0
-21,393,0,0,0,0,0,0,0,0,0,-1,1203,631,0,0
-14,393,0,0,0,0,0,0,0,0,0,-1,1210,631,0,0
-7,393,0,0,0,0,0,0,0,0,0,-1,1217,631,0,0
0,393,0,0,0,0,0,0,0,0,0,-1,1224,631,0,0
7,393,0,0,0,0,0,0,0,0,0,-1,1231,631,0,0
14,393,0,0,0,0,0,0,0,0,0,-1,1238,631,0,0
21,393,0,0,0,0,0,0,0,0,0,-1,1245,631,0,0
28,393,0,0,0,0,0,0,0,0,0,-1,1252,631,0,0
35,393,0,0,0,0,0,0,0,0,0,-1,1259,631,0,0
42,393,0,0,0,0,0,0,0,0,0,-1,1266,631,0,0
49,393,0,0,0,0,0,0,0,0,0,-1,1273,631,0,0
56,393,0,0,0,0,0,0,0,0,0,-1,1280,631,0,0
63,393,0,0,0,0,0,0,0,0,0,-1,1287,631,0,0
70,393,0,0,0,0,0,0,0,0,0,-1,1294,631,0,0
77,393,0,0,0,0,0,0,0,0,0,-1,1301,631,0,0
84,393,0,0,0,0,0,0,0,0,0,-1,1308,631,0,0
91,393,0,0,0,0,0,0,0,0,0,-1,1315,631,0,0
98,393,0,0,0,0,0,0,0,0,0,-1,1322,631,0,0
105,393,0,0,0,0,0,0,0,0,0,-1,1329,631,0,0
112,393,0,0,0,0,0,0,0,0,0,-1,1336,631,0,0
119,393,0,0,0,0,0,0,0,0,0,-1,1343,631,0,0
126,393,0,0,0,0,0,0,0,0,0,-1,1350,631,0,0
133,393,0,0,0,0,0,0,0,0,0,-1,1357,631,0,0
140,393,0,0,0,0,0,0,0,0,0,-1,1364,631,0,0
147,393,0,0,0,0,0,0,0,0,0,-1,1371,631,0,0
154,393,0,0,0,0,0,0,0,0,0,-1,1378,631,0,0
161,393,0,0,0,0,0,0,0,0,0,-1,1385,631,0,0
168,393,0,0,0,0,0,0,0,0,0,-1,1392,631,0,0
175,393,0,0,0,0,0,0,0,0,0,-1,1399,631,0,0
182,393,0,0,0,0,0,0,0,0,0,-1,1406,631,0,0
189,393,0,0,0,0,0,0,0,0,0,-1,1413,631,0,0
196,393,0,0,0,0,0,0,0,0,0,-1,1420,631,0,0
203,393,0,0,0,0,0,0,0,0,0,-1,1427,631,0,0
210,393,0,0,0,0,0,0,0,0,0,-1,1434,631,0,0
217,393,0,0,0,0,0,0,0,0,0,-1,1441,631,0,0
224,393,0,0,0,0,0,0,0,0,0,-1,1448,631,0,0
231,393,0,0,0,0,0,0,0,0,0,-1,1455,631,0,0
238,393,0,0,0,0,0,0,0,0,0,-1,1462,631,0,0
245,393,0,0,0,0,0,0,0,0,0,-1,1469,631,0,0
252,393,0,0,0,0,0,0,0,0,0,-1,1476,631,0,0
259,393,0,0,0,0,0,0,0,0,0,-1,1483,631,0,0
266,393,0,0,0,0,0,0,0,0,0,-1,1490,631,0,0
273,393,0,0,0,0,0,0,0,0,0,-1,1497,631,0,0
280,393,0,0,0,0,0,0,0,0,0,-1,1504,631,0,0
287,393,0,0,0,0,0,0,0,0,0,-1,1511,631,0,0
294,393,0,0,0,0,0,0,0,0,0,-1,1518,631,0,0
301,393,0,0,0,0,0,0,0,0,0,-1,1525,631,0,0
308,393,0,0,0,0,0,0,0,0,0,-1,1532,631,0,0
315,393,0,0,0,0,0,0,0,0,0,-1,1539,631,0,0
322,393,0,0,0,0,0,0,0,0,0,-1,1546,631,0,0
329,393,0,0,0,0,0,0,0,0,0,-1,1553,631,0,0
336,393,0,0,0,0,0,0,0,0,0,-1,1560,631,0,0
343,393,0,0,0,0,0,0,0,0,0,-1,1567,631,0,0
350,393,0,0,0,0,0,0,0,0,0,-1,1574,631,0,0
357,393,0,0,0,0,0,0,0,0,0,-1,1581,631,0,0
364,393,0,0,0,0,0,0,0,0,0,-1,1588,631,0,0
371,393,0,0,0,0,0,0,0,0,0,-1,1595,631,0,0
378,393,0,0,0,0,0,0,0,0,0,-1,1602,631,0,0
385,393,0,0,0,0,0,0,0,0,0,-1,1609,631,0,0
392,393,0,0,0,0,0,0,0,0,0,-1,1616,631,0,0
399,393,0,0,0,0,0,0,0,0,0,-1,1623,631,0,0
406,393,0,0,0,0,0,0,0,0,0,-1,1630,631,0,0
413,393,0,0,0,0,0,0,0,0,0,-1,1637,631,0,0
420,393,0,0,0,0,0,0,0,0,0,-1,1644,631,0,0
427,393,0,0,0,0,0,0,0,0,0,-1,1651,631,0,0
434,393,0,0,0,0,0,0,0,0,0,-1,1658,631,0,0
441,393,0,0,0,0,0,0,0,0,0,-1,1665,631,0,0
448,393,0,0,0,0,0,0,0,0,0,-1,1672,631,0,0
455,393,0,0,0,0,0,0,0,0,0,-1,1679,631,0,0
462,393,0.143799,0.45813,-0.048408,-0.0206685,-0.000871229,-0.0206411,-0.0484353,-1.53943,0.0280656,0.0406014,1686,631,0.143762,-0.458125
469,393,-0.174805,0.372742,-0.0361297,-0.00779604,0.00032006,-0.00779242,-0.0361333,1.5595,0.0219573,0.0428814,1693,631,-0.174767,-0.372764
476,393,-0.441284,0.268616,-0.0260095,0.00132933,0.000772668,0.00135115,-0.0260313,1.54256,0.0178217,0.0448519,1700,631,-0.441248,-0.268601
483,393,-0.697266,0.245056,0,0,0,0,0,0,0,-1,1707,631,-0.697224,-0.245045
490,393,-0.525146,-0.908997,-0.0137848,0.0112619,0.0020312,0.0114255,-0.0139485,1.4904,0.0146738,0.0471552,1714,631,-0.525125,0.908998
497,393,-0.333984,-0.772461,-0.0096862,0.0134301,0.00179016,0.0135679,-0.00982402,1.49397,0.0135629,0.0436062,1721,631,-0.333971,0.772464
504,393,-0.195313,-0.892822,-0.00552004,0.0147645,0.00176346,0.0149166,-0.0056722,1.48472,0.0122799,0.0450991,1728,631,-0.19535,0.892796
511,393,-0.00671387,-0.764771,-0.00336799,0.0152735,0.0017521,0.0154367,-0.00353124,1.47789,0.0116481,0.0442816,1735,631,-0.00671859,0.764767
518,393,0.102661,-0.629944,0,0,0,0,0,0,0,-1,1742,631,0.102621,0.629914
525,393,0.203857,-0.330811,-0.00299974,0.0129216,0.000827947,0.0129645,-0.00304268,1.51898,0.0098157,0.0420497,1749,631,0.203851,0.330829
532,393,0.145752,-0.140198,-0.00296718,0.0111678,0.000398237,0.011179,-0.00297839,1.54265,0.00861877,0.0406854,1756,631,0.145698,0.140213
539,393,0.0560303,0.0108032,-0.00305485,0.00831108,0.00034909,0.00832179,-0.00306557,1.54012,0.00680395,0.0337145,1763,631,0.0560818,-0.0108328
546,393,-0.00805664,0.0194092,-0.00317883,0.0067456,0.000360067,0.00675864,-0.00319187,1.53458,0.00586667,0.0204144,1770,631,-0.00811569,-0.0194236
553,393,-0.0161133,0.0408936,-0.00308747,0.00486114,0.000267631,0.00487014,-0.00309647,1.53718,0.00463737,0.0119717,1777,631,-0.0160697,-0.0409053
560,393,-0.0375977,0.052063,-0.00285664,0.00302042,0.000235561,0.00302984,-0.00286607,1.5308,0.00340445,0.0111171,1784,631,-0.0375718,-0.0520336
567,393,-0.0350342,0.0663452,-0.00237299,0.00218892,-0.000118987,0.00219202,-0.00237609,-1.54474,0.00263811,0.012401,1791,631,-0.0350253,-0.0663566
574,393,-0.0333252,0.0489502,-0.0015696,0.00164925,-0.000217837,0.00166392,-0.00158428,-1.50353,0.00187554,0.0134586,1798,631,-0.033345,-0.0489362
581,393,-0.052002,0.0237427,-0.000976076,0.00147237,-0.00028128,0.00150427,-0.00100797,-1.45788,0.00145985,0.0115914,1805,631,-0.0519763,-0.0237197
588,393,-0.0280762,0.0247803,-0.000538337,0.00133858,-0.00012493,0.00134686,-0.000546616,-1.50462,0.00112527,0.0113175,1812,631,-0.0280453,-0.0247775
595,393,-0.0107422,0.0592651,-0.000274289,0.00131693,-0.000146675,0.00133033,-0.000287696,-1.47964,0.000996726,0.0094795,1819,631,-0.0107178,-0.0592653
602,393,-0.0129395,0.0603027,-0.000239147,0.00111923,2.80934e-05,0.00111981,-0.000239728,1.55013,0.00083796,0.0120477,1826,631,-0.0129115,-0.060285
609,393,-0.0311279,0.0463257,-0.000122031,0.000645626,0.00021166,0.000700117,-0.000176522,1.31882,0.000535375,0.0138731,1833,631,-0.031128,-0.0463133
616,393,-0.0423584,0.0605469,-0.000221151,0.000660601,0.000228688,0.000716383,-0.000276934,1.33154,0.000591904,0.0137577,1840,631,-0.042375,-0.0605288
623,393,-0.0317383,0.0809937,-0.000701705,0.000502472,0.000150694,0.000521044,-0.000720277,1.44817,0.000719748,0.0151588,1847,631,-0.0317926,-0.0810118
630,393,-0.0426025,0.0608521,-0.00186827,7.85703e-05,-6.55043e-05,8.07719e-05,-0.00187047,-1.5372,0.00127476,0.0183332,1854,631,-0.0426377,-0.0608389
637,393,-0.0961914,0.0768433,-0.0035373,-0.000457548,-0.000517707,-0.000372851,-0.003622,-1.40863,0.00230047,0.0299439,1861,631,-0.0962268,-0.076862
644,393,-0.140015,0.0949097,-0.00557721,-0.00124083,-0.00119335,-0.000934121,-0.00588393,-1.31922,0.00365129,0.0409199,1868,631,-0.139992,-0.0949049
651,393,-0.15918,0.0557251,-0.00811122,-0.00255965,-0.00231456,-0.00172128,-0.00894959,-1.22328,0.00548344,0.0411144,1875,631,-0.159142,-0.0557549
658,393,-0.188354,0.0164795,0,0,0,0,0,0,0,-1,1882,631,-0.188369,-0.0164917
665,393,0.532593,-0.0460815,0,0,0,0,0,0,0,-1,1889,631,0.532625,0.0461053
672,393,0.00793457,0.273926,0,0,0,0,0,0,0,-1,1896,631,0.00797861,-0.273955
679,393,0,0,0,0,0,0,0,0,0,-1,1903,631,0,0
686,393,0,0,0,0,0,0,0,0,0,-1,1910,631,0,0
693,393,0,0,0,0,0,0,0,0,0,-1,1917,631,0,0
700,393,0,0,0,0,0,0,0,0,0,-1,1924,631,0,0
707,393,0,0,0,0,0,0,0,0,0,-1,1931,631,0,0
714,393,0,0,0,0,0,0,0,0,0,-1,1938,631,0,0
721,393,0,0,0,0,0,0,0,0,0,-1,1945,631,0,0
728,393,0,0,0,0,0,0,0,0,0,-1,1952,631,0,0
735,393,0,0,0,0,0,0,0,0,0,-1,1959,631,0,0
742,393,0,0,0,0,0,0,0,0,0,-1,1966,631,0,0
749,393,0,0,0,0,0,0,0,0,0,-1,1973,631,0,0
756,393,0,0,0,0,0,0,0,0,0,-1,1980,631,0,0
763,393,0,0,0,0,0,0,0,0,0,-1,1987,631,0,0
770,393,0,0,0,0,0,0,0,0,0,-1,1994,631,0,0
777,393,0,0,0,0,0,0,0,0,0,-1,2001,631,0,0
784,393,0,0,0,0,0,0,0,0,0,-1,2008,631,0,0
791,393,0,0,0,0,0,0,0,0,0,-1,2015,631,0,0
798,393,0,0,0,0,0,0,0,0,0,-1,2022,631,0,0
805,393,0,0,0,0,0,0,0,0,0,-1,2029,631,0,0
812,393,0,0,0,0,0,0,0,0,0,-1,2036,631,0,0
-700,386,0,0,0,0,0,0,0,0,0,-1,524,638,0,0
-693,386,0,0,0,0,0,0,0,0,0,-1,531,638,0,0
-686,386,0,0,0,0,0,0,0,0,0,-1,538,638,0,0
-679,386,0,0,0,0,0,0,0,0,0,-1,545,638,0,0
-672,386,0,0,0,0,0,0,0,0,0,-1,552,638,0,0
-665,386,0,0,0,0,0,0,0,0,0,-1,559,638,0,0
-658,386,0,0,0,0,0,0,0,0,0,-1,566,638,0,0
-651,386,0,0,0,0,0,0,0,0,0,-1,573,638,0,0
-644,386,0,0,0,0,0,0,0,0,0,-1,580,638,0,0
-637,386,0,0,0,0,0,0,0,0,0,-1,587,638,0,0
-630,386,0,0,0,0,0,0,0,0,0,-1,594,638,0,0
-623,386,0,0,0,0,0,0,0,0,0,-1,601,638,0,0
-616,386,0,0,0,0,0,0,0,0,0,-1,608,638,0,0
-609,386,0,0,0,0,0,0,0,0,0,-1,615,638,0,0
-602,386,0,0,0,0,0,0,0,0,0,-1,622,638,0,0
-595,386,0,0,0,0,0,0,0,0,0,-1,629,638,0,0
-588,386,0,0,0,0,0,0,0,0,0,-1,636,638,0,0
-581,386,0,0,0,0,0,0,0,0,0,-1,643,638,0,0
-574,386,0,0,0,0,0,0,0,0,0,-1,650,638,0,0
-567,386,0,0,0,0,0,0,0,0,0,-1,657,638,0,0
-560,386,-0.454956,0.831421,0.0384904,-0.000197764,0.0129071,0.0424011,-0.0041085,0.294199,0.0297317,0.0494932,664,638,-0.454983,-0.831415
-553,386,-0.139526,0.646362,0.0356485,0.00308299,0.0101276,0.0385411,0.000190329,0.278214,0.0256309,0.0476745,671,638,-0.13951,-0.646359
-546,386,-0.0744019,-0.595337,0,0,0,0,0,0,0,-1,678,638,-0.0744104,0.595366
-539,386,-0.167236,-0.764709,0.0295112,0.00889324,0.00699197,0.0316587,0.00674579,0.297986,0.0192552,0.0484812,685,638,-0.167262,0.764736
-532,386,0.127319,-1.39569,0.0258677,0.0105052,0.00590037,0.0278723,0.00850059,0.327509,0.0164951,0.0440525,692,638,0.12735,1.39571
-525,386,-0.048645,0.731689,0,0,0,0,0,0,0,-1,699,638,-0.0486658,-0.731712
-518,386,-0.0938721,0.581665,0.0178054,0.0114754,0.00433754,0.0200099,0.00927094,0.470217,0.0115631,0.049092,706,638,-0.0938717,-0.581662
-511,386,-0.119019,0.317139,0.0144199,0.0110074,0.00370112,0.0167891,0.00863816,0.569412,0.00969457,0.0386688,713,638,-0.119021,-0.317161
-504,386,-0.0540161,0.104248,0.0114181,0.0098627,0.00338471,0.0141133,0.00716751,0.672471,0.00814867,0.018148,720,638,-0.0540136,-0.104252
-497,386,-0.0391846,0.0801392,0.00822507,0.00834107,0.00309283,0.0113764,0.0051897,0.794773,0.0065766,0.00940563,727,638,-0.0391853,-0.0801627
-490,386,-0.0241699,0.0646973,0.00569855,0.0069889,0.00273714,0.00915588,0.00353158,0.901141,0.00533198,0.0105383,734,638,-0.024154,-0.0646793
-483,386,-0.000610352,0.0378418,0.00356073,0.00599107,0.00219862,0.00728799,0.00226381,1.03785,0.00430715,0.0143613,741,638,-0.00062342,-0.0378625
-476,386,-0.0088501,0.0411987,0.00169916,0.00434443,0.00175107,0.00521624,0.00082734,1.10885,0.00323715,0.0141055,748,638,-0.00885617,-0.0411779
-469,386,-0.0322876,0.059021,0.000940664,0.0030557,0.00142585,0.0037734,0.000222969,1.10448,0.00244467,0.010412,755,638,-0.0322924,-0.0590045
-462,386,-0.0385742,0.0404663,0.000158699,0.00154169,0.00114149,0.0021848,-0.000484411,1.05773,0.001642,0.00995195,762,638,-0.0385449,-0.0404616
-455,386,-0.0379028,0.0314941,-0.00046634,0.000720159,0.000979637,0.00127218,-0.00101836,1.05765,0.00132514,0.0109829,769,638,-0.037888,-0.0315236
-448,386,-0.022644,0.0401611,-0.000812874,0.000967911,0.00106614,0.00146656,-0.00131153,1.1333,0.00160476,0.0115314,776,638,-0.0226352,-0.0401813
-441,386,-0.0302734,0.0708618,-0.00173598,0.00125752,0.0009588,0.00153829,-0.00201675,1.28593,0.00205869,0.0114419,783,638,-0.0302782,-0.0708348
-434,386,-0.0460815,0.0597534,-0.00323966,0.00164665,0.00072945,0.00175322,-0.00334623,1.42572,0.00299167,0.0151075,790,638,-0.0460677,-0.0597802
-427,386,-0.0458374,0.064209,-0.00520982,0.00201129,0.000643458,0.00206818,-0.00526671,1.48261,0.00436695,0.0238991,797,638,-0.0458103,-0.0641997
-420,386,-0.00494385,0.09375,-0.006443,0.00235493,0.000110369,0.00235632,-0.00644438,1.55825,0.00526064,0.0298205,804,638,-0.00492896,-0.0937654
-413,386,0.000610352,0.0898438,-0.00720827,0.00177736,-0.00078066,0.00184467,-0.00727559,-1.48478,0.00556809,0.0413862,811,638,0.000589004,-0.0898262
-406,386,-0.161377,0.254578,-0.00741397,0.00101429,-0.00270208,0.00180617,-0.00820586,-1.28572,0.00616151,0.0444979,818,638,-0.161347,-0.254548
-399,386,-0.219604,0.615112,-0.00814257,-0.000416026,-0.00591581,0.00278623,-0.0113448,-1.07465,0.00864297,0.0409961,825,638,-0.219627,-0.615091
-392,386,-0.0384521,0.381897,-0.00964615,-0.00203015,-0.0107186,0.00553682,-0.0172131,-0.956079,0.0136992,0.0454853,832,638,-0.0384546,-0.381922
-385,386,0.0237427,0.351624,0,0,0,0,0,0,0,-1,839,638,0.0237145,-0.351621
-378,386,-0.370544,-0.150513,0,0,0,0,0,0,0,-1,846,638,-0.370549,0.150542
-371,386,-1.20721,0.360535,0,0,0,0,0,0,0,-1,853,638,-1.20723,-0.360533
-364,386,-0.974182,-0.390991,-0.0144149,-0.00924131,-0.0293993,0.0176848,-0.041341,-0.829279,0.034979,0.0420077,860,638,-0.974185,0.390992
-357,386,-1.276,-0.239868,0,0,0,0,0,0,0,-1,867,638,-1.27601,0.239856
-350,386,0,0,0,0,0,0,0,0,0,-1,874,638,0,0
-343,386,0,0,0,0,0,0,0,0,0,-1,881,638,0,0
-336,386,0,0,0,0,0,0,0,0,0,-1,888,638,0,0
-329,386,0,0,0,0,0,0,0,0,0,-1,895,638,0,0
-322,386,0,0,0,0,0,0,0,0,0,-1,902,638,0,0
-315,386,0,0,0,0,0,0,0,0,0,-1,909,638,0,0
-308,386,0,0,0,0,0,0,0,0,0,-1,916,638,0,0
-301,386,0,0,0,0,0,0,0,0,0,-1,923,638,0,0
-294,386,0,0,0,0,0,0,0,0,0,-1,930,638,0,0
-287,386,0,0,0,0,0,0,0,0,0,-1,937,638,0,0
-280,386,0,0,0,0,0,0,0,0,0,-1,944,638,0,0
-273,386,0,0,0,0,0,0,0,0,0,-1,951,638,0,0
-266,386,0,0,0,0,0,0,0,0,0,-1,958,638,0,0
-259,386,0,0,0,0,0,0,0,0,0,-1,965,638,0,0
-252,386,0,0,0,0,0,0,0,0,0,-1,972,638,0,0
-245,386,0,0,0,0,0,0,0,0,0,-1,979,638,0,0
-238,386,0,0,0,0,0,0,0,0,0,-1,986,638,0,0
-231,386,0,0,0,0,0,0,0,0,0,-1,993,638,0,0
-224,386,0,0,0,0,0,0,0,0,0,-1,1000,638,0,0
-217,386,0,0,0,0,0,0,0,0,0,-1,1007,638,0,0
-210,386,0,0,0,0,0,0,0,0,0,-1,1014,638,0,0
-203,386,0,0,0,0,0,0,0,0,0,-1,1021,638,0,0
-196,386,0,0,0,0,0,0,0,0,0,-1,1028,638,0,0
-189,386,0,0,0,0,0,0,0,0,0,-1,1035,638,0,0
-182,386,0,0,0,0,0,0,0,0,0,-1,1042,638,0,0
-175,386,0,0,0,0,0,0,0,0,0,-1,1049,638,0,0
-168,386,0,0,0,0,0,0,0,0,0,-1,1056,638,0,0
-161,386,0,0,0,0,0,0,0,0,0,-1,1063,638,0,0
-154,386,0,0,0,0,0,0,0,0,0,-1,1070,638,0,0
-147,386,0,0,0,0,0,0,0,0,0,-1,1077,638,0,0
-140,386,0,0,0,0,0,0,0,0,0,-1,1084,638,0,0
-133,386,0,0,0,0,0,0,0,0,0,-1,1091,638,0,0
-126,386,0,0,0,0,0,0,0,0,0,-1,1098,638,0,0
-119,386,0,0,0,0,0,0,0,0,0,-1,1105,638,0,0
-112,386,0,0,0,0,0,0,0,0,0,-1,1112,638,0,0
-105,386,0,0,0,0,0,0,0,0,0,-1,1119,638,0,0
-98,386,0,0,0,0,0,0,0,0,0,-1,1126,638,0,0
-91,386,0,0,0,0,0,0,0,0,0,-1,1133,638,0,0
-84,386,0,0,0,0,0,0,0,0,0,-1,1140,638,0,0
-77,386,0,0,0,0,0,0,0,0,0,-1,1147,638,0,0
-70,386,0,0,0,0,0,0,0,0,0,-1,1154,638,0,0
-63,386,0,0,0,0,0,0,0,0,0,-1,1161,638,0,0
-56,386,0,0,0,0,0,0,0,0,0,-1,1168,638,0,0
-49,386,0,0,0,0,0,0,0,0,0,-1,1175,638,0,0
-42,386,0,0,0,0,0,0,0,0,0,-1,1182,638,0,0
-35,386,0,0,0,0,0,0,0,0,0,-1,1189,638,0,0
-28,386,0,0,0,0,0,0,0,0,0,-1,1196,638,0,0
-21,386,0,0,0,0,0,0,0,0,0,-1,1203,638,0,0
-14,386,0,0,0,0,0,0,0,0,0,-1,1210,638,0,0
-7,386,0,0,0,0,0,0,0,0,0,-1,1217,638,0,0
0,386,0,0,0,0,0,0,0,0,0,-1,1224,638,0,0
7,386,0,0,0,0,0,0,0,0,0,-1,1231,638,0,0
14,386,0,0,0,0,0,0,0,0,0,-1,1238,638,0,0
21,386,0,0,0,0,0,0,0,0,0,-1,1245,638,0,0
28,386,0,0,0,0,0,0,0,0,0,-1,1252,638,0,0
35,386,0,0,0,0,0,0,0,0,0,-1,1259,638,0,0
42,386,0,0,0,0,0,0,0,0,0,-1,1266,638,0,0
49,386,0,0,0,0,0,0,0,0,0,-1,1273,638,0,0
56,386,0,0,0,0,0,0,0,0,0,-1,1280,638,0,0
63,386,0,0,0,0,0,0,0,0,0,-1,1287,638,0,0
70,386,0,0,0,0,0,0,0,0,0,-1,1294,638,0,0
77,386,0,0,0,0,0,0,0,0,0,-1,1301,638,0,0
84,386,0,0,0,0,0,0,0,0,0,-1,1308,638,0,0
91,386,0,0,0,0,0,0,0,0,0,-1,1315,638,0,0
98,386,0,0,0,0,0,0,0,0,0,-1,1322,638,0,0
105,386,0,0,0,0,0,0,0,0,0,-1,1329,638,0,0
112,386,0,0,0,0,0,0,0,0,0,-1,1336,638,0,0
119,386,0,0,0,0,0,0,0,0,0,-1,1343,638,0,0
126,386,0,0,0,0,0,0,0,0,0,-1,1350,638,0,0
133,386,0,0,0,0,0,0,0,0,0,-1,1357,638,0,0
140,386,0,0,0,0,0,0,0,0,0,-1,1364,638,0,0
147,386,0,0,0,0,0,0,0,0,0,-1,1371,638,0,0
154,386,0,0,0,0,0,0,0,0,0,-1,1378,638,0,0
161,386,0,0,0,0,0,0,0,0,0,-1,1385,638,0,0
168,386,0,0,0,0,0,0,0,0,0,-1,1392,638,0,0
175,386,0,0,0,0,0,0,0,0,0,-1,1399,638,0,0
182,386,0,0,0,0,0,0,0,0,0,-1,1406,638,0,0
189,386,0,0,0,0,0,0,0,0,0,-1,1413,638,0,0
196,386,0,0,0,0,0,0,0,0,0,-1,1420,638,0,0
203,386,0,0,0,0,0,0,0,0,0,-1,1427,638,0,0
210,386,0,0,0,0,0,0,0,0,0,-1,1434,638,0,0
217,386,0,0,0,0,0,0,0,0,0,-1,1441,638,0,0
224,386,0,0,0,0,0,0,0,0,0,-1,1448,638,0,0
231,386,0,0,0,0,0,0,0,0,0,-1,1455,638,0,0
238,386,0,0,0,0,0,0,0,0,0,-1,1462,638,0,0
245,386,0,0,0,0,0,0,0,0,0,-1,1469,638,0,0
252,386,0,0,0,0,0,0,0,0,0,-1,1476,638,0,0
259,386,0,0,0,0,0,0,0,0,0,-1,1483,638,0,0
266,386,0,0,0,0,0,0,0,0,0,-1,1490,638,0,0
273,386,0,0,0,0,0,0,0,0,0,-1,1497,638,0,0
280,386,0,0,0,0,0,0,0,0,0,-1,1504,638,0,0
287,386,0,0,0,0,0,0,0,0,0,-1,1511,638,0,0
294,386,0,0,0,0,0,0,0,0,0,-1,1518,638,0,0
301,386,0,0,0,0,0,0,0,0,0,-1,1525,638,0,0
308,386,0,0,0,0,0,0,0,0,0,-1,1532,638,0,0
315,386,0,0,0,0,0,0,0,0,0,-1,1539,638,0,0
322,386,0,0,0,0,0,0,0,0,0,-1,1546,638,0,0
329,386,0,0,0,0,0,0,0,0,0,-1,1553,638,0,0
336,386,0,0,0,0,0,0,0,0,0,-1,1560,638,0,0
343,386,0,0,0,0,0,0,0,0,0,-1,1567,638,0,0
350,386,0,0,0,0,0,0,0,0,0,-1,1574,638,0,0
357,386,0,0,0,0,0,0,0,0,0,-1,1581,638,0,0
364,386,0,0,0,0,0,0,0,0,0,-1,1588,638,0,0
371,386,0,0,0,0,0,0,0,0,0,-1,1595,638,0,0
378,386,0,0,0,0,0,0,0,0,0,-1,1602,638,0,0
385,386,0,0,0,0,0,0,0,0,0,-1,1609,638,0,0
392,386,0,0,0,0,0,0,0,0,0,-1,1616,638,0,0
399,386,0,0,0,0,0,0,0,0,0,-1,1623,638,0,0
406,386,0,0,0,0,0,0,0,0,0,-1,1630,638,0,0
413,386,0,0,0,0,0,0,0,0,0,-1,1637,638,0,0
420,386,0,0,0,0,0,0,0,0,0,-1,1644,638,0,0
427,386,0,0,0,0,0,0,0,0,0,-1,1651,638,0,0
434,386,0,0,0,0,0,0,0,0,0,-1,1658,638,0,0
441,386,0,0,0,0,0,0,0,0,0,-1,1665,638,0,0
448,386,0,0,0,0,0,0,0,0,0,-1,1672,638,0,0
455,386,0,0,0,0,0,0,0,0,0,-1,1679,638,0,0
462,386,0,0,0,0,0,0,0,0,0,-1,1686,638,0,0
469,386,-0.223511,0.380493,-0.0393381,-0.0197289,-0.00108556,-0.019669,-0.0393981,-1.51566,0.0227465,0.0427194,1693,638,-0.223494,-0.380497
476,386,-0.224609,0.433228,-0.028135,-0.0073636,-0.000466289,-0.00735313,-0.0281454,-1.54836,0.016856,0.0438108,1700,638,-0.224591,-0.433213
483,386,-0.613159,0.691467,0,0,0,0,0,0,0,-1,1707,638,-0.613195,-0.691474
490,386,0.253174,0.557434,0,0,0,0,0,0,0,-1,1714,638,0.253154,-0.557408
497,386,-0.292725,-0.675293,0,0,0,0,0,0,0,-1,1721,638,-0.292767,0.675263
504,386,-0.118774,-1.13855,-0.00542143,0.0136737,0.000793596,0.0137067,-0.00545436,1.52933,0.0113995,0.0421069,1728,638,-0.118766,1.13853
511,386,-0.350708,-1.0528,-0.0029103,0.0150797,0.000769014,0.0151125,-0.00294312,1.52815,0.0111859,0.0438745,1735,638,-0.350746,1.05278
518,386,0.0869141,-0.669189,0,0,0,0,0,0,0,-1,1742,638,0.0869089,0.66918
525,386,0.0523682,-0.16333,-0.00203227,0.0139833,-0.000272212,0.0139879,-0.00203689,-1.55381,0.0100731,0.0437298,1749,638,0.0524206,0.16335
532,386,0.126221,-0.0180664,-0.00184256,0.012622,-0.000782547,0.0126642,-0.00188478,-1.5169,0.0091361,0.0439766,1756,638,0.126277,0.0180511
539,386,0.052124,0.00976563,-0.00199241,0.00989866,-0.000968674,0.00997705,-0.0020708,-1.49004,0.00743835,0.040596,1763,638,0.0521157,-0.00978543
546,386,0.0859375,-0.110352,-0.00218233,0.00845621,-0.00100758,0.0085508,-0.00227692,-1.47719,0.00659191,0.0360795,1770,638,0.0859391,0.110329
553,386,0.10144,-0.0567627,-0.00222944,0.00653079,-0.00111191,0.00666972,-0.00236836,-1.4465,0.00541154,0.0285236,1777,638,0.101488,0.0567724
560,386,-0.00012207,0.0395508,-0.0022213,0.00454522,-0.00112719,0.00472805,-0.00240414,-1.41,0.00419,0.0188636,1784,638,-0.000156157,-0.0395254
567,386,-0.0318604,0.0819092,-0.00205474,0.00343659,-0.00132945,0.00374152,-0.00235967,-1.34533,0.00355252,0.0145628,1791,638,-0.031908,-0.0819264
574,386,-0.0404053,0.0726929,-0.0016023,0.0025049,-0.00120781,0.00283376,-0.00193115,-1.30497,0.00276743,0.0123749,1798,638,-0.0403903,-0.0727145
581,386,-0.0479736,0.0527344,-0.00125976,0.00217538,-0.00110732,0.00250139,-0.00158576,-1.28448,0.00237938,0.011879,1805,638,-0.04803,-0.0527374
588,386,-0.0360107,0.0556641,-0.000966851,0.0019193,-0.000812394,0.00213226,-0.00117981,-1.31443,0.0019384,0.0107921,1812,638,-0.0360069,-0.0556573
595,386,-0.0244141,0.0471802,-0.000747739,0.0017498,-0.000660066,0.00191351,-0.000911454,-1.32767,0.00166485,0.0115044,1819,638,-0.0243899,-0.0472004
602,386,-0.0169678,0.0431519,-0.000897908,0.00142886,-0.000223371,0.00145011,-0.000919158,-1.47595,0.0013793,0.0136843,1826,638,-0.0169908,-0.0431222
609,386,-0.0131836,0.0296631,-0.000717933,0.000620976,0.00019009,0.00064744,-0.000744398,1.43246,0.000804228,0.0141376,1833,638,-0.0131383,-0.0296888
616,386,-0.0286865,0.0370483,-0.00054171,0.000763658,0.000220235,0.000799814,-0.000577866,1.40808,0.000798837,0.0111201,1840,638,-0.0286289,-0.0370401
623,386,-0.0322266,0.0494995,-0.000701027,0.000690947,0.000176416,0.000712957,-0.000723038,1.44667,0.000829079,0.00957096,1847,638,-0.0321801,-0.0494831
630,386,-0.027832,0.0543823,-0.00159579,0.000400244,2.24753e-05,0.000400497,-0.00159604,1.55954,0.00121965,0.014311,1854,638,-0.027843,-0.0543965
637,386,-0.0317383,0.0592041,-0.00298924,3.57265e-06,-0.000352282,4.44803e-05,-0.00303014,-1.45519,0.00203508,0.0191738,1861,638,-0.0317605,-0.0592152
644,386,-0.060791,0.0583496,-0.00466028,-0.000621543,-0.000902914,-0.000428875,-0.00485294,-1.36057,0.00310223,0.0310776,1868,638,-0.0607919,-0.0583453
651,386,0.0507813,-0.196472,-0.00669762,-0.00173297,-0.00185887,-0.00111411,-0.00731648,-1.24942,0.00455196,0.0427248,1875,638,0.0508205,0.196475
658,386,0.18103,-0.410461,-0.00931439,-0.00312495,-0.00273605,-0.0020889,-0.0103504,-1.20882,0.00632013,0.0459464,1882,638,0.181001,0.41045
665,386,0.328003,-0.257568,0,0,0,0,0,0,0,-1,1889,638,0.327996,0.257596
672,386,0.12207,-0.163818,-0.0166645,-0.00721214,-0.00505654,-0.00501694,-0.0188597,-1.16122,0.0112791,0.0431611,1896,638,0.122064,0.163795
679,386,0.0455322,-0.187256,-0.0211086,-0.00990411,-0.00660061,-0.0068488,-0.0241639,-1.13728,0.0143806,0.0443806,1903,638,0.0455204,0.187249
686,386,0,0,0,0,0,0,0,0,0,-1,1910,638,0,0
693,386,0,0,0,0,0,0,0,0,0,-1,1917,638,0,0
700,386,0,0,0,0,0,0,0,0,0,-1,1924,638,0,0
707,386,0,0,0,0,0,0,0,0,0,-1,1931,638,0,0
714,386,0,0,0,0,0,0,0,0,0,-1,1938,638,0,0
721,386,0,0,0,0,0,0,0,0,0,-1,1945,638,0,0
728,386,0,0,0,0,0,0,0,0,0,-1,1952,638,0,0
735,386,0,0,0,0,0,0,0,0,0,-1,1959,638,0,0
742,386,0,0,0,0,0,0,0,0,0,-1,1966,638,0,0
749,386,0,0,0,0,0,0,0,0,0,-1,1973,638,0,0
756,386,0,0,0,0,0,0,0,0,0,-1,1980,638,0,0
763,386,0,0,0,0,0,0,0,0,0,-1,1987,638,0,0
770,386,0,0,0,0,0,0,0,0,0,-1,1994,638,0,0
777,386,0,0,0,0,0,0,0,0,0,-1,2001,638,0,0
784,386,0,0,0,0,0,0,0,0,0,-1,2008,638,0,0
791,386,0,0,0,0,0,0,0,0,0,-1,2015,638,0,0
798,386,0,0,0,0,0,0,0,0,0,-1,2022,638,0,0
805,386,0,0,0,0,0,0,0,0,0,-1,2029,638,0,0
812,386,0,0,0,0,0,0,0,0,0,-1,2036,638,0,0
-700,379,0,0,0,0,0,0,0,0,0,-1,524,645,0,0
-693,379,0,0,0,0,0,0,0,0,0,-1,531,645,0,0
-686,379,0,0,0,0,0,0,0,0,0,-1,538,645,0,0
-679,379,0,0,0,0,0,0,0,0,0,-1,545,645,0,0
-672,379,0,0,0,0,0,0,0,0,0,-1,552,645,0,0
-665,379,0,0,0,0,0,0,0,0,0,-1,559,645,0,0
-658,379,0,0,0,0,0,0,0,0,0,-1,566,645,0,0
-651,379,0,0,0,0,0,0,0,0,0,-1,573,645,0,0
-644,379,0,0,0,0,0,0,0,0,0,-1,580,645,0,0
-637,379,0,0,0,0,0,0,0,0,0,-1,587,645,0,0
-630,379,0,0,0,0,0,0,0,0,0,-1,594,645,0,0
-623,379,0,0,0,0,0,0,0,0,0,-1,601,645,0,0
-616,379,0,0,0,0,0,0,0,0,0,-1,608,645,0,0
-609,379,0,0,0,0,0,0,0,0,0,-1,615,645,0,0
-602,379,0,0,0,0,0,0,0,0,0,-1,622,645,0,0
-595,379,0,0,0,0,0,0,0,0,0,-1,629,645,0,0
-588,379,0,0,0,0,0,0,0,0,0,-1,636,645,0,0
-581,379,0,0,0,0,0,0,0,0,0,-1,643,645,0,0
-574,379,0,0,0,0,0,0,0,0,0,-1,650,645,0,0
-567,379,-0.365784,0.620483,0,0,0,0,0,0,0,-1,657,645,-0.365784,-0.620489
-560,379,-0.26062,0.608826,0.0291897,-0.00280069,0.00906967,0.0315822,-0.00519313,0.25791,0.0229822,0.0476538,664,645,-0.26062,-0.608814
-553,379,-0.0702515,0.346985,0.0263671,2.71779e-06,0.00665463,0.0279515,-0.00158175,0.233748,0.0191834,0.0467692,671,645,-0.0702237,-0.347008
-546,379,-0.0865479,-0.41925,0,0,0,0,0,0,0,-1,678,645,-0.0865272,0.419254
-539,379,-0.223389,-0.618591,0.02097,0.00474009,0.00395101,0.0218808,0.00382936,0.226548,0.0134931,0.0465325,685,645,-0.223377,0.618596
-532,379,-0.298096,-0.856201,0.0180579,0.00614512,0.00314842,0.0188388,0.00536421,0.243124,0.0112076,0.0435337,692,645,-0.298125,0.856216
-525,379,-0.44989,-0.875427,0,0,0,0,0,0,0,-1,699,645,-0.44991,0.875457
-518,379,-0.0873413,0.210205,0.0116474,0.00720445,0.00210931,0.0124893,0.00636257,0.379751,0.00721113,0.0388371,706,645,-0.0873327,-0.210225
-511,379,-0.0668335,0.125854,0.00924702,0.00708857,0.00168055,0.010165,0.00617055,0.499968,0.00591344,0.0214892,713,645,-0.0668534,-0.125873
-504,379,-0.039978,0.062439,0.00719412,0.00634403,0.0015535,0.00837967,0.00515848,0.651863,0.00488091,0.0104378,720,645,-0.0399726,-0.0624268
-497,379,-0.0369873,0.0603027,0.00471436,0.00521779,0.00145914,0.00644677,0.00348538,0.870812,0.00372614,0.00919105,727,645,-0.0369704,-0.060295
-490,379,-0.0154419,0.0626221,0.0028162,0.00440719,0.00134529,0.00517459,0.00204881,1.0524,0.00300904,0.00988212,734,645,-0.0154617,-0.0625994
-483,379,-0.00500488,0.043396,0.00123169,0.00386867,0.00105924,0.00424145,0.00085891,1.2324,0.00258926,0.0116452,741,645,-0.00497662,-0.0433793
-476,379,-0.00219727,0.0532227,-0.000117791,0.00275984,0.000797347,0.002966,-0.000323954,1.31778,0.00209369,0.0121982,748,645,-0.00217472,-0.053213
-469,379,-0.0128784,0.0653076,-0.000352776,0.00198585,0.000570508,0.0021176,-0.000484528,1.34384,0.00159792,0.0108083,755,645,-0.0128841,-0.0652773
-462,379,-0.0240479,0.0597534,-0.000579143,0.000890016,0.000345197,0.000967081,-0.000656209,1.35115,0.000942918,0.0082201,762,645,-0.0240768,-0.0597278
-455,379,-0.0244751,0.0641479,-0.00110367,0.000424773,0.000206603,0.000452208,-0.0011311,1.43878,0.00094172,0.00834732,769,645,-0.0244781,-0.0641194
-448,379,-0.0198364,0.0840454,-0.00162806,0.000870935,0.000271792,0.000900153,-0.00165728,1.4637,0.00149795,0.0103759,776,645,-0.0198187,-0.0840523
-441,379,-0.0166626,0.0946655,-0.00252781,0.00150932,0.000248706,0.00152459,-0.00254307,1.5095,0.00237287,0.0118934,783,645,-0.0166422,-0.0946885
-434,379,-0.0396729,0.0637817,-0.00405188,0.00210089,1.57367e-05,0.00210093,-0.00405192,1.56824,0.00361139,0.0202466,790,645,-0.039673,-0.0637651
-427,379,-0.0645142,0.0886841,-0.00622402,0.00255493,-0.000130088,0.00255686,-0.00622595,-1.55598,0.00521617,0.033108,797,645,-0.0644907,-0.0886668
-420,379,-0.0234985,-0.0088501,-0.00788253,0.00302017,-0.000670484,0.00306125,-0.0079236,-1.50961,0.00654594,0.0414906,804,645,-0.0235022,0.00887637
-413,379,-0.0546875,-0.164246,0,0,0,0,0,0,0,-1,811,645,-0.0547077,0.164273
-406,379,-0.207458,0.0909424,-0.010541,0.00229218,-0.00310577,0.00300429,-0.0112531,-1.3454,0.00867862,0.0444189,818,645,-0.207447,-0.0909629
-399,379,-0.354004,0.352539,-0.0122669,0.00112529,-0.00593353,0.00337596,-0.0145175,-1.20825,0.0109781,0.0435302,825,645,-0.354003,-0.352532
-392,379,0.120239,0.309509,0,0,0,0,0,0,0,-1,832,645,0.12022,-0.309482
-385,379,-0.571411,0.448242,-0.0160308,-0.00321808,-0.0157464,0.00737526,-0.0266241,-0.978595,0.0206516,0.0482089,839,645,-0.571428,-0.448223
-378,379,-0.96228,0.326172,-0.0171587,-0.0048933,-0.0206252,0.0104917,-0.0325436,-0.929905,0.025911,0.0457239,846,645,-0.962307,-0.326198
-371,379,-1.31927,0.124146,0,0,0,0,0,0,0,-1,853,645,-1.31928,-0.124143
-364,379,-1.74841,0.140198,0,0,0,0,0,0,0,-1,860,645,-1.7484,-0.140181
-357,379,0,0,0,0,0,0,0,0,0,-1,867,645,0,0
-350,379,0,0,0,0,0,0,0,0,0,-1,874,645,0,0
-343,379,0,0,0,0,0,0,0,0,0,-1,881,645,0,0
-336,379,0,0,0,0,0,0,0,0,0,-1,888,645,0,0
-329,379,0,0,0,0,0,0,0,0,0,-1,895,645,0,0
-322,379,0,0,0,0,0,0,0,0,0,-1,902,645,0,0
-315,379,0,0,0,0,0,0,0,0,0,-1,909,645,0,0
-308,379,0,0,0,0,0,0,0,0,0,-1,916,645,0,0
-301,379,0,0,0,0,0,0,0,0,0,-1,923,645,0,0
-294,379,0,0,0,0,0,0,0,0,0,-1,930,645,0,0
-287,379,0,0,0,0,0,0,0,0,0,-1,937,645,0,0
-280,379,0,0,0,0,0,0,0,0,0,-1,944,645,0,0
-273,379,0,0,0,0,0,0,0,0,0,-1,951,645,0,0
-266,379,0,0,0,0,0,0,0,0,0,-1,958,645,0,0
-259,379,0,0,0,0,0,0,0,0,0,-1,965,645,0,0
-252,379,0,0,0,0,0,0,0,0,0,-1,972,645,0,0
-245,379,0,0,0,0,0,0,0,0,0,-1,979,645,0,0
-238,379,0,0,0,0,0,0,0,0,0,-1,986,645,0,0
-231,379,0,0,0,0,0,0,0,0,0,-1,993,645,0,0
-224,379,0,0,0,0,0,0,0,0,0,-1,1000,645,0,0
-217,379,0,0,0,0,0,0,0,0,0,-1,1007,645,0,0
-210,379,0,0,0,0,0,0,0,0,0,-1,1014,645,0,0
-203,379,0,0,0,0,0,0,0,0,0,-1,1021,645,0,0
-196,379,0,0,0,0,0,0,0,0,0,-1,1028,645,0,0
-189,379,0,0,0,0,0,0,0,0,0,-1,1035,645,0,0
-182,379,0,0,0,0,0,0,0,0,0,-1,1042,645,0,0
-175,379,0,0,0,0,0,0,0,0,0,-1,1049,645,0,0
-168,379,0,0,0,0,0,0,0,0,0,-1,1056,645,0,0
-161,379,0,0,0,0,0,0,0,0,0,-1,1063,645,0,0
-154,379,0,0,0,0,0,0,0,0,0,-1,1070,645,0,0
-147,379,0,0,0,0,0,0,0,0,0,-1,1077,645,0,0
-140,379,0,0,0,0,0,0,0,0,0,-1,1084,645,0,0
-133,379,0,0,0,0,0,0,0,0,0,-1,1091,645,0,0
-126,379,0,0,0,0,0,0,0,0,0,-1,1098,645,0,0
-119,379,0,0,0,0,0,0,0,0,0,-1,1105,645,0,0
-112,379,0,0,0,0,0,0,0,0,0,-1,1112,645,0,0
-105,379,0,0,0,0,0,0,0,0,0,-1,1119,645,0,0
-98,379,0,0,0,0,0,0,0,0,0,-1,1126,645,0,0
-91,379,0,0,0,0,0,0,0,0,0,-1,1133,645,0,0
-84,379,0,0,0,0,0,0,0,0,0,-1,1140,645,0,0
-77,379,0,0,0,0,0,0,0,0,0,-1,1147,645,0,0
-70,379,0,0,0,0,0,0,0,0,0,-1,1154,645,0,0
-63,379,0,0,0,0,0,0,0,0,0,-1,1161,645,0,0
-56,379,0,0,0,0,0,0,0,0,0,-1,1168,645,0,0
-49,379,0,0,0,0,0,0,0,0,0,-1,1175,645,0,0
-42,379,0,0,0,0,0,0,0,0,0,-1,1182,645,0,0
-35,379,0,0,0,0,0,0,0,0,0,-1,1189,645,0,0
-28,379,0,0,0,0,0,0,0,0,0,-1,1196,645,0,0
-21,379,0,0,0,0,0,0,0,0,0,-1,1203,645,0,0
-14,379,0,0,0,0,0,0,0,0,0,-1,1210,645,0,0
-7,379,0,0,0,0,0,0,0,0,0,-1,1217,645,0,0
0,379,0,0,0,0,0,0,0,0,0,-1,1224,645,0,0
7,379,0,0,0,0,0,0,0,0,0,-1,1231,645,0,0
14,379,0,0,0,0,0,0,0,0,0,-1,1238,645,0,0
21,379,0,0,0,0,0,0,0,0,0,-1,1245,645,0,0
28,379,0,0,0,0,0,0,0,0,0,-1,1252,645,0,0
35,379,0,0,0,0,0,0,0,0,0,-1,1259,645,0,0
42,379,0,0,0,0,0,0,0,0,0,-1,1266,645,0,0
49,379,0,0,0,0,0,0,0,0,0,-1,1273,645,0,0
56,379,0,0,0,0,0,0,0,0,0,-1,1280,645,0,0
63,379,0,0,0,0,0,0,0,0,0,-1,1287,645,0,0
70,379,0,0,0,0,0,0,0,0,0,-1,1294,645,0,0
77,379,0,0,0,0,0,0,0,0,0,-1,1301,645,0,0
84,379,0,0,0,0,0,0,0,0,0,-1,1308,645,0,0
91,379,0,0,0,0,0,0,0,0,0,-1,1315,645,0,0
98,379,0,0,0,0,0,0,0,0,0,-1,1322,645,0,0
105,379,0,0,0,0,0,0,0,0,0,-1,1329,645,0,0
112,379,0,0,0,0,0,0,0,0,0,-1,1336,645,0,0
119,379,0,0,0,0,0,0,0,0,0,-1,1343,645,0,0
126,379,0,0,0,0,0,0,0,0,0,-1,1350,645,0,0
133,379,0,0,0,0,0,0,0,0,0,-1,1357,645,0,0
140,379,0,0,0,0,0,0,0,0,0,-1,1364,645,0,0
147,379,0,0,0,0,0,0,0,0,0,-1,1371,645,0,0
154,379,0,0,0,0,0,0,0,0,0,-1,1378,645,0,0
161,379,0,0,0,0,0,0,0,0,0,-1,1385,645,0,0
168,379,0,0,0,0,0,0,0,0,0,-1,1392,645,0,0
175,379,0,0,0,0,0,0,0,0,0,-1,1399,645,0,0
182,379,0,0,0,0,0,0,0,0,0,-1,1406,645,0,0
189,379,0,0,0,0,0,0,0,0,0,-1,1413,645,0,0
196,379,0,0,0,0,0,0,0,0,0,-1,1420,645,0,0
203,379,0,0,0,0,0,0,0,0,0,-1,1427,645,0,0
210,379,0,0,0,0,0,0,0,0,0,-1,1434,645,0,0
217,379,0,0,0,0,0,0,0,0,0,-1,1441,645,0,0
224,379,0,0,0,0,0,0,0,0,0,-1,1448,645,0,0
231,379,0,0,0,0,0,0,0,0,0,-1,1455,645,0,0
238,379,0,0,0,0,0,0,0,0,0,-1,1462,645,0,0
245,379,0,0,0,0,0,0,0,0,0,-1,1469,645,0,0
252,379,0,0,0,0,0,0,0,0,0,-1,1476,645,0,0
259,379,0,0,0,0,0,0,0,0,0,-1,1483,645,0,0
266,379,0,0,0,0,0,0,0,0,0,-1,1490,645,0,0
273,379,0,0,0,0,0,0,0,0,0,-1,1497,645,0,0
280,379,0,0,0,0,0,0,0,0,0,-1,1504,645,0,0
287,379,0,0,0,0,0,0,0,0,0,-1,1511,645,0,0
294,379,0,0,0,0,0,0,0,0,0,-1,1518,645,0,0
301,379,0,0,0,0,0,0,0,0,0,-1,1525,645,0,0
308,379,0,0,0,0,0,0,0,0,0,-1,1532,645,0,0
315,379,0,0,0,0,0,0,0,0,0,-1,1539,645,0,0
322,379,0,0,0,0,0,0,0,0,0,-1,1546,645,0,0
329,379,0,0,0,0,0,0,0,0,0,-1,1553,645,0,0
336,379,0,0,0,0,0,0,0,0,0,-1,1560,645,0,0
343,379,0,0,0,0,0,0,0,0,0,-1,1567,645,0,0
350,379,0,0,0,0,0,0,0,0,0,-1,1574,645,0,0
357,379,0,0,0,0,0,0,0,0,0,-1,1581,645,0,0
364,379,0,0,0,0,0,0,0,0,0,-1,1588,645,0,0
371,379,0,0,0,0,0,0,0,0,0,-1,1595,645,0,0
378,379,0,0,0,0,0,0,0,0,0,-1,1602,645,0,0
385,379,0,0,0,0,0,0,0,0,0,-1,1609,645,0,0
392,379,0,0,0,0,0,0,0,0,0,-1,1616,645,0,0
399,379,0,0,0,0,0,0,0,0,0,-1,1623,645,0,0
406,379,0,0,0,0,0,0,0,0,0,-1,1630,645,0,0
413,379,0,0,0,0,0,0,0,0,0,-1,1637,645,0,0
420,379,0,0,0,0,0,0,0,0,0,-1,1644,645,0,0
427,379,0,0,0,0,0,0,0,0,0,-1,1651,645,0,0
434,379,0,0,0,0,0,0,0,0,0,-1,1658,645,0,0
441,379,0,0,0,0,0,0,0,0,0,-1,1665,645,0,0
448,379,0,0,0,0,0,0,0,0,0,-1,1672,645,0,0
455,379,0,0,0,0,0,0,0,0,0,-1,1679,645,0,0
462,379,0,0,0,0,0,0,0,0,0,-1,1686,645,0,0
469,379,0,0,0,0,0,0,0,0,0,-1,1693,645,0,0
476,379,0.0192871,0.730225,-0.0307944,-0.0166538,-0.00254991,-0.0162081,-0.0312402,-1.39773,0.0180408,0.0407186,1700,645,0.0193001,-0.730254
483,379,-0.179077,0.961243,0,0,0,0,0,0,0,-1,1707,645,-0.179103,-0.961237
490,379,-0.186279,0.750061,-0.0166348,0.00190023,0.0011709,0.00197391,-0.0167084,1.50796,0.0118518,0.0469978,1714,645,-0.18634,-0.750059
497,379,-0.418945,0.0916138,-0.0107811,0.00691628,0.00128017,0.00700841,-0.0108732,1.49896,0.010404,0.0446281,1721,645,-0.418929,-0.0916122
504,379,0.200195,-1.65552,0,0,0,0,0,0,0,-1,1728,645,0.200204,1.6555
511,379,0.0318604,-1.53357,0,0,0,0,0,0,0,-1,1735,645,0.0318147,1.53355
518,379,0.0737305,-0.0685425,-0.00216263,0.0152613,0.000521579,0.0152769,-0.00217823,1.5409,0.0109829,0.0405573,1742,645,0.0737393,0.0685571
525,379,-0.1604,-0.0152588,-0.0020348,0.0144688,4.03862e-05,0.0144689,-0.0020349,1.56835,0.0103909,0.045495,1749,645,-0.160425,0.0152859
532,379,-0.247803,-0.171448,-0.00193267,0.0133464,-0.000408011,0.0133573,-0.00194356,-1.54412,0.00961841,0.0442478,1756,645,-0.247786,0.171456
539,379,-0.253052,-0.351807,-0.00230085,0.010723,-0.000693142,0.0107598,-0.00233763,-1.51778,0.00806614,0.0393346,1763,645,-0.252993,0.351815
546,379,0.312988,-0.336975,-0.00266308,0.00937615,-0.000773027,0.00942558,-0.00271251,-1.50694,0.00735652,0.0435456,1770,645,0.312931,0.337004
553,379,0.383423,-0.189758,-0.00288393,0.00746676,-0.000948292,0.00755292,-0.00297009,-1.48019,0.00626457,0.03876,1777,645,0.383408,0.189782
560,379,0.00561523,0.0394287,-0.00304292,0.00543532,-0.00109749,0.00557508,-0.00318269,-1.44413,0.0051188,0.0242499,1784,645,0.00559522,-0.0394088
567,379,-0.0310059,0.0834351,-0.00305055,0.00417187,-0.00134051,0.00441265,-0.00329133,-1.39307,0.00446357,0.0131352,1791,645,-0.0309636,-0.0834126
574,379,-0.036377,0.0657349,-0.0027641,0.00291509,-0.00118926,0.00315408,-0.00300308,-1.37249,0.00355519,0.0111129,1798,645,-0.0363455,-0.0657593
581,379,-0.0354004,0.0576172,-0.00248712,0.00255044,-0.0011526,0.00280163,-0.00273832,-1.35622,0.00319856,0.0136327,1805,645,-0.0353525,-0.0575914
588,379,-0.0440674,0.0404053,-0.00212367,0.00229894,-0.000937806,0.00248958,-0.00231431,-1.37024,0.00277414,0.0162843,1812,645,-0.0440979,-0.0404292
595,379,-0.0234375,0.0231323,-0.00172517,0.00207829,-0.000785474,0.00223412,-0.001881,-1.37495,0.00237878,0.0131485,1819,645,-0.0234168,-0.0231032
602,379,-0.0147705,0.0328979,-0.00177348,0.00168726,-0.000270593,0.00170829,-0.00179451,-1.49324,0.00202255,0.012335,1826,645,-0.0147442,-0.0328901
609,379,-0.0258789,0.0360107,-0.00139198,0.000634106,0.000227539,0.000659345,-0.00141722,1.46033,0.00122523,0.0122213,1833,645,-0.0259092,-0.0359879
616,379,-0.0469971,0.0410156,-0.000850041,0.000862523,0.000173395,0.000879902,-0.000867421,1.4709,0.00100883,0.00999383,1840,645,-0.0470537,-0.0410183
623,379,-0.0419922,0.0548096,-0.00061608,0.000793592,0.000109541,0.000802053,-0.000624541,1.49371,0.000825767,0.0104333,1847,645,-0.0419722,-0.0548246
630,379,-0.0354004,0.0574951,-0.00119697,0.000565188,3.61184e-06,0.000565195,-0.00119698,1.56875,0.00103896,0.0122264,1854,645,-0.0354458,-0.0574663
637,379,-0.0187988,0.0485229,-0.00231399,0.000233395,-0.000302096,0.00026873,-0.00234933,-1.45436,0.00166305,0.0123387,1861,645,-0.0188384,-0.0485126
644,379,-0.0292969,0.0305786,-0.00364591,-0.000306499,-0.000752106,-0.000144926,-0.00380748,-1.35919,0.00249142,0.0185827,1868,645,-0.0292777,-0.0305597
651,379,-0.00927734,-0.0961914,-0.00524967,-0.00129847,-0.00158743,-0.000739719,-0.00580842,-1.23235,0.00365078,0.040887,1875,645,-0.00930782,0.0962048
658,379,0.118652,-0.210754,-0.0073495,-0.00246203,-0.00228324,-0.00156137,-0.00825016,-1.19507,0.00506059,0.0451815,1882,645,0.118669,0.21077
665,379,0.1875,-0.213196,0,0,0,0,0,0,0,-1,1889,645,0.18747,0.213176
672,379,0.0936279,-0.0651245,-0.013316,-0.00585097,-0.00417327,-0.00398456,-0.0151824,-1.15025,0.00908933,0.0479031,1896,645,0.0936888,0.0651227
679,379,-0.113892,-0.0698853,-0.01697,-0.00813847,-0.00549089,-0.00550803,-0.0196004,-1.12405,0.0116725,0.0497338,1903,645,-0.113837,0.0699134
686,379,0,0,0,0,0,0,0,0,0,-1,1910,645,0,0
693,379,0,0,0,0,0,0,0,0,0,-1,1917,645,0,0
700,379,0,0,0,0,0,0,0,0,0,-1,1924,645,0,0
707,379,0,0,0,0,0,0,0,0,0,-1,1931,645,0,0
714,379,0,0,0,0,0,0,0,0,0,-1,1938,645,0,0
721,379,0,0,0,0,0,0,0,0,0,-1,1945,645,0,0
728,379,0,0,0,0,0,0,0,0,0,-1,1952,645,0,0
735,379,0,0,0,0,0,0,0,0,0,-1,1959,645,0,0
742,379,0,0,0,0,0,0,0,0,0,-1,1966,645,0,0
749,379,0,0,0,0,0,0,0,0,0,-1,1973,645,0,0
756,379,0,0,0,0,0,0,0,0,0,-1,1980,645,0,0
763,379,0,0,0,0,0,0,0,0,0,-1,1987,645,0,0
770,379,0,0,0,0,0,0,0,0,0,-1,1994,645,0,0
777,379,0,0,0,0,0,0,0,0,0,-1,2001,645,0,0
784,379,0,0,0,0,0,0,0,0,0,-1,2008,645,0,0
791,379,0,0,0,0,0,0,0,0,0,-1,2015,645,0,0
798,379,0,0,0,0,0,0,0,0,0,-1,2022,645,0,0
805,379,0,0,0,0,0,0,0,0,0,-1,2029,645,0,0
812,379,0,0,0,0,0,0,0,0,0,-1,2036,645,0,0
-700,372,0,0,0,0,0,0,0,0,0,-1,524,652,0,0
-693,372,0,0,0,0,0,0,0,0,0,-1,531,652,0,0
-686,372,0,0,0,0,0,0,0,0,0,-1,538,652,0,0
-679,372,0,0,0,0,0,0,0,0,0,-1,545,652,0,0
-672,372,0,0,0,0,0,0,0,0,0,-1,552,652,0,0
-665,372,0,0,0,0,0,0,0,0,0,-1,559,652,0,0
-658,372,0,0,0,0,0,0,0,0,0,-1,566,652,0,0
-651,372,0,0,0,0,0,0,0,0,0,-1,573,652,0,0
-644,372,0,0,0,0,0,0,0,0,0,-1,580,652,0,0
-637,372,0,0,0,0,0,0,0,0,0,-1,587,652,0,0
-630,372,0,0,0,0,0,0,0,0,0,-1,594,652,0,0
-623,372,0,0,0,0,0,0,0,0,0,-1,601,652,0,0
-616,372,0,0,0,0,0,0,0,0,0,-1,608,652,0,0
-609,372,0,0,0,0,0,0,0,0,0,-1,615,652,0,0
-602,372,0,0,0,0,0,0,0,0,0,-1,622,652,0,0
-595,372,0,0,0,0,0,0,0,0,0,-1,629,652,0,0
-588,372,0,0,0,0,0,0,0,0,0,-1,636,652,0,0
-581,372,0,0,0,0,0,0,0,0,0,-1,643,652,0,0
-574,372,0,0,0,0,0,0,0,0,0,-1,650,652,0,0
-567,372,1.17572,-0.944214,0,0,0,0,0,0,0,-1,657,652,1.17571,0.944216
-560,372,-0.097168,0.481079,0,0,0,0,0,0,0,-1,664,652,-0.0971414,-0.481081
-553,372,0.0318604,-0.12146,0,0,0,0,0,0,0,-1,671,652,0.031874,0.12148
-546,372,-0.0910034,-0.316833,0.0176435,-0.000557302,0.00272535,0.0180428,-0.000956628,0.145488,0.0123598,0.0484801,678,652,-0.0910055,0.316857
-539,372,-0.254883,-0.496155,0.0153655,0.0013116,0.00182382,0.0155983,0.00107878,0.126972,0.0100586,0.0466901,685,652,-0.254881,0.496142
-532,372,-0.469727,-0.648071,0.0130639,0.00265784,0.00125215,0.0132124,0.00250929,0.118084,0.00810241,0.0463154,692,652,-0.469714,0.648055
-525,372,0.0164185,0.0388184,0.0106818,0.00335351,0.000773512,0.0107626,0.00327276,0.104024,0.0063708,0.0401851,699,652,0.0164103,-0.0387981
-518,372,0.0255127,0.149109,0.00790249,0.00399307,0.000616651,0.00799745,0.00389811,0.152794,0.00461782,0.0221678,706,652,0.0254961,-0.149089
-511,372,-0.0265503,0.0549927,0.00622323,0.00423119,0.000359151,0.006286,0.00416841,0.173037,0.00369305,0.0105041,713,652,-0.026556,-0.055017
-504,372,-0.0395508,0.0445557,0.0048445,0.0038597,0.000362776,0.00496371,0.00374049,0.317483,0.00298611,0.00954986,720,652,-0.0395613,-0.0445426
-497,372,-0.0408325,0.0527954,0.00283195,0.00306622,0.000374178,0.00334117,0.002557,0.937088,0.00201751,0.0107433,727,652,-0.0408185,-0.052808
-490,372,-0.0288696,0.0533447,0.00133426,0.00267208,0.000412067,0.00278881,0.00121752,1.29474,0.00161443,0.011416,734,652,-0.0288744,-0.0533673
-483,372,-0.0105591,0.0691528,0.000163214,0.00248175,0.000298426,0.00251955,0.000125418,1.44482,0.00163949,0.0113253,741,652,-0.0105511,-0.069174
-476,372,0.00299072,0.0857544,-0.000784849,0.00181568,0.000144995,0.00182374,-0.000792908,1.51527,0.0015493,0.0121336,748,652,0.00298339,-0.0857586
-469,372,-0.0236816,0.0825806,-0.000593629,0.00142237,-4.61149e-05,0.00142342,-0.000594683,-1.54794,0.00119746,0.0096788,755,652,-0.0236652,-0.0826102
-462,372,-0.0251465,0.0692139,-0.000423884,0.00060416,-0.000296676,0.000683632,-0.000503356,-1.30907,0.000687937,0.00860994,762,652,-0.0251507,-0.0692079
-455,372,-0.0231323,0.0827026,-0.000948824,0.00035263,-0.000502896,0.000524308,-0.0011205,-1.24182,0.000970204,0.0089141,769,652,-0.0231357,-0.0826842
-448,372,-0.0252075,0.0979614,-0.00164908,0.000921376,-0.000551994,0.0010349,-0.00176261,-1.36796,0.00163325,0.00860222,776,652,-0.0251886,-0.0979494
-441,372,-0.0150146,0.0752563,-0.00257104,0.00181301,-0.000587932,0.00189048,-0.00264851,-1.43977,0.00263275,0.0133065,783,652,-0.0149934,-0.075241
-434,372,-0.0321045,0.0862427,-0.00414762,0.00254795,-0.000890995,0.00266449,-0.00426416,-1.44074,0.00403564,0.0254468,790,652,-0.0321303,-0.0862282
-427,372,-0.0696411,0.172424,-0.00658163,0.00307672,-0.00115653,0.00321327,-0.00671819,-1.45327,0.00585175,0.0382321,797,652,-0.0696233,-0.172422
-420,372,0.283325,0.343445,-0.00889085,0.0036991,-0.00177444,0.00394441,-0.00913616,-1.43342,0.00774782,0.0420961,804,652,0.283304,-0.343446
-413,372,-0.15033,-0.450195,0,0,0,0,0,0,0,-1,811,652,-0.150318,0.450212
-406,372,-0.356628,-0.191589,-0.0138414,0.00376317,-0.00392472,0.0045985,-0.0146767,-1.36109,0.0116246,0.047175,818,652,-0.356623,0.19156
-399,372,-0.592651,0.0509033,-0.0169299,0.00310163,-0.00634443,0.00494198,-0.0187702,-1.28847,0.0144454,0.0435837,825,652,-0.592678,-0.0509055
-392,372,-0.634155,0.280579,-0.0205356,0.00199807,-0.0102797,0.00598292,-0.0245205,-1.20099,0.0186637,0.0442007,832,652,-0.634167,-0.280584
-385,372,-0.622437,0.324036,-0.0232282,-0.000529511,-0.0153636,0.0072221,-0.0309798,-1.10352,0.0234345,0.0463084,839,652,-0.622462,-0.324042
-378,372,-1.17444,0.260193,-0.0251056,-0.00242998,-0.0204767,0.00963825,-0.0371739,-1.03824,0.028543,0.0455709,846,652,-1.17445,-0.260217
-371,372,-1.43134,-0.112244,0,0,0,0,0,0,0,-1,853,652,-1.43133,0.112247
-364,372,0,0,0,0,0,0,0,0,0,-1,860,652,0,0
-357,372,0,0,0,0,0,0,0,0,0,-1,867,652,0,0
-350,372,0,0,0,0,0,0,0,0,0,-1,874,652,0,0
-343,372,0,0,0,0,0,0,0,0,0,-1,881,652,0,0
-336,372,0,0,0,0,0,0,0,0,0,-1,888,652,0,0
-329,372,0,0,0,0,0,0,0,0,0,-1,895,652,0,0
-322,372,0,0,0,0,0,0,0,0,0,-1,902,652,0,0
-315,372,0,0,0,0,0,0,0,0,0,-1,909,652,0,0
-308,372,0,0,0,0,0,0,0,0,0,-1,916,652,0,0
-301,372,0,0,0,0,0,0,0,0,0,-1,923,652,0,0
-294,372,0,0,0,0,0,0,0,0,0,-1,930,652,0,0
-287,372,0,0,0,0,0,0,0,0,0,-1,937,652,0,0
-280,372,0,0,0,0,0,0,0,0,0,-1,944,652,0,0
-273,372,0,0,0,0,0,0,0,0,0,-1,951,652,0,0
-266,372,0,0,0,0,0,0,0,0,0,-1,958,652,0,0
-259,372,0,0,0,0,0,0,0,0,0,-1,965,652,0,0
-252,372,0,0,0,0,0,0,0,0,0,-1,972,652,0,0
-245,372,0,0,0,0,0,0,0,0,0,-1,979,652,0,0
-238,372,0,0,0,0,0,0,0,0,0,-1,986,652,0,0
-231,372,0,0,0,0,0,0,0,0,0,-1,993,652,0,0
-224,372,0,0,0,0,0,0,0,0,0,-1,1000,652,0,0
-217,372,0,0,0,0,0,0,0,0,0,-1,1007,652,0,0
-210,372,0,0,0,0,0,0,0,0,0,-1,1014,652,0,0
-203,372,0,0,0,0,0,0,0,0,0,-1,1021,652,0,0
-196,372,0,0,0,0,0,0,0,0,0,-1,1028,652,0,0
-189,372,0,0,0,0,0,0,0,0,0,-1,1035,652,0,0
-182,372,0,0,0,0,0,0,0,0,0,-1,1042,652,0,0
-175,372,0,0,0,0,0,0,0,0,0,-1,1049,652,0,0
-168,372,0,0,0,0,0,0,0,0,0,-1,1056,652,0,0
-161,372,0,0,0,0,0,0,0,0,0,-1,1063,652,0,0
-154,372,0,0,0,0,0,0,0,0,0,-1,1070,652,0,0
-147,372,0,0,0,0,0,0,0,0,0,-1,1077,652,0,0
-140,372,0,0,0,0,0,0,0,0,0,-1,1084,652,0,0
-133,372,0,0,0,0,0,0,0,0,0,-1,1091,652,0,0
-126,372,0,0,0,0,0,0,0,0,0,-1,1098,652,0,0
-119,372,0,0,0,0,0,0,0,0,0,-1,1105,652,0,0
-112,372,0,0,0,0,0,0,0,0,0,-1,1112,652,0,0
-105,372,0,0,0,0,0,0,0,0,0,-1,1119,652,0,0
-98,372,0,0,0,0,0,0,0,0,0,-1,1126,652,0,0
-91,372,0,0,0,0,0,0,0,0,0,-1,1133,652,0,0
-84,372,0,0,0,0,0,0,0,0,0,-1,1140,652,0,0
-77,372,0,0,0,0,0,0,0,0,0,-1,1147,652,0,0
-70,372,0,0,0,0,0,0,0,0,0,-1,1154,652,0,0
-63,372,0,0,0,0,0,0,0,0,0,-1,1161,652,0,0
-56,372,0,0,0,0,0,0,0,0,0,-1,1168,652,0,0
-49,372,0,0,0,0,0,0,0,0,0,-1,1175,652,0,0
-42,372,0,0,0,0,0,0,0,0,0,-1,1182,652,0,0
-35,372,0,0,0,0,0,0,0,0,0,-1,1189,652,0,0
-28,372,0,0,0,0,0,0,0,0,0,-1,1196,652,0,0
-21,372,0,0,0,0,0,0,0,0,0,-1,1203,652,0,0
-14,372,0,0,0,0,0,0,0,0,0,-1,1210,652,0,0
-7,372,0,0,0,0,0,0,0,0,0,-1,1217,652,0,0
0,372,0,0,0,0,0,0,0,0,0,-1,1224,652,0,0
7,372,0,0,0,0,0,0,0,0,0,-1,1231,652,0,0
14,372,0,0,0,0,0,0,0,0,0,-1,1238,652,0,0
21,372,0,0,0,0,0,0,0,0,0,-1,1245,652,0,0
28,372,0,0,0,0,0,0,0,0,0,-1,1252,652,0,0
35,372,0,0,0,0,0,0,0,0,0,-1,1259,652,0,0
42,372,0,0,0,0,0,0,0,0,0,-1,1266,652,0,0
49,372,0,0,0,0,0,0,0,0,0,-1,1273,652,0,0
56,372,0,0,0,0,0,0,0,0,0,-1,1280,652,0,0
63,372,0,0,0,0,0,0,0,0,0,-1,1287,652,0,0
70,372,0,0,0,0,0,0,0,0,0,-1,1294,652,0,0
77,372,0,0,0,0,0,0,0,0,0,-1,1301,652,0,0
84,372,0,0,0,0,0,0,0,0,0,-1,1308,652,0,0
91,372,0,0,0,0,0,0,0,0,0,-1,1315,652,0,0
98,372,0,0,0,0,0,0,0,0,0,-1,1322,652,0,0
105,372,0,0,0,0,0,0,0,0,0,-1,1329,652,0,0
112,372,0,0,0,0,0,0,0,0,0,-1,1336,652,0,0
119,372,0,0,0,0,0,0,0,0,0,-1,1343,652,0,0
126,372,0,0,0,0,0,0,0,0,0,-1,1350,652,0,0
133,372,0,0,0,0,0,0,0,0,0,-1,1357,652,0,0
140,372,0,0,0,0,0,0,0,0,0,-1,1364,652,0,0
147,372,0,0,0,0,0,0,0,0,0,-1,1371,652,0,0
154,372,0,0,0,0,0,0,0,0,0,-1,1378,652,0,0
161,372,0,0,0,0,0,0,0,0,0,-1,1385,652,0,0
168,372,0,0,0,0,0,0,0,0,0,-1,1392,652,0,0
175,372,0,0,0,0,0,0,0,0,0,-1,1399,652,0,0
182,372,0,0,0,0,0,0,0,0,0,-1,1406,652,0,0
189,372,0,0,0,0,0,0,0,0,0,-1,1413,652,0,0
196,372,0,0,0,0,0,0,0,0,0,-1,1420,652,0,0
203,372,0,0,0,0,0,0,0,0,0,-1,1427,652,0,0
210,372,0,0,0,0,0,0,0,0,0,-1,1434,652,0,0
217,372,0,0,0,0,0,0,0,0,0,-1,1441,652,0,0
224,372,0,0,0,0,0,0,0,0,0,-1,1448,652,0,0
231,372,0,0,0,0,0,0,0,0,0,-1,1455,652,0,0
238,372,0,0,0,0,0,0,0,0,0,-1,1462,652,0,0
245,372,0,0,0,0,0,0,0,0,0,-1,1469,652,0,0
252,372,0,0,0,0,0,0,0,0,0,-1,1476,652,0,0
259,372,0,0,0,0,0,0,0,0,0,-1,1483,652,0,0
266,372,0,0,0,0,0,0,0,0,0,-1,1490,652,0,0
273,372,0,0,0,0,0,0,0,0,0,-1,1497,652,0,0
280,372,0,0,0,0,0,0,0,0,0,-1,1504,652,0,0
287,372,0,0,0,0,0,0,0,0,0,-1,1511,652,0,0
294,372,0,0,0,0,0,0,0,0,0,-1,1518,652,0,0
301,372,0,0,0,0,0,0,0,0,0,-1,1525,652,0,0
308,372,0,0,0,0,0,0,0,0,0,-1,1532,652,0,0
315,372,0,0,0,0,0,0,0,0,0,-1,1539,652,0,0
322,372,0,0,0,0,0,0,0,0,0,-1,1546,652,0,0
329,372,0,0,0,0,0,0,0,0,0,-1,1553,652,0,0
336,372,0,0,0,0,0,0,0,0,0,-1,1560,652,0,0
343,372,0,0,0,0,0,0,0,0,0,-1,1567,652,0,0
350,372,0,0,0,0,0,0,0,0,0,-1,1574,652,0,0
357,372,0,0,0,0,0,0,0,0,0,-1,1581,652,0,0
364,372,0,0,0,0,0,0,0,0,0,-1,1588,652,0,0
371,372,0,0,0,0,0,0,0,0,0,-1,1595,652,0,0
378,372,0,0,0,0,0,0,0,0,0,-1,1602,652,0,0
385,372,0,0,0,0,0,0,0,0,0,-1,1609,652,0,0
392,372,0,0,0,0,0,0,0,0,0,-1,1616,652,0,0
399,372,0,0,0,0,0,0,0,0,0,-1,1623,652,0,0
406,372,0,0,0,0,0,0,0,0,0,-1,1630,652,0,0
413,372,0,0,0,0,0,0,0,0,0,-1,1637,652,0,0
420,372,0,0,0,0,0,0,0,0,0,-1,1644,652,0,0
427,372,0,0,0,0,0,0,0,0,0,-1,1651,652,0,0
434,372,0,0,0,0,0,0,0,0,0,-1,1658,652,0,0
441,372,0,0,0,0,0,0,0,0,0,-1,1665,652,0,0
448,372,0,0,0,0,0,0,0,0,0,-1,1672,652,0,0
455,372,0,0,0,0,0,0,0,0,0,-1,1679,652,0,0
462,372,0,0,0,0,0,0,0,0,0,-1,1686,652,0,0
469,372,0,0,0,0,0,0,0,0,0,-1,1693,652,0,0
476,372,0,0,0,0,0,0,0,0,0,-1,1700,652,0,0
483,372,-0.111084,1.47235,0,0,0,0,0,0,0,-1,1707,652,-0.11113,-1.47238
490,372,-0.745239,0.984619,-0.0176704,-0.000359962,-0.000635221,-0.000336683,-0.0176936,-1.53417,0.0116851,0.0467314,1714,652,-0.745286,-0.98463
497,372,-0.956909,0.161133,-0.0112254,0.00569407,-9.48233e-05,0.0056946,-0.0112259,-1.56519,0.00994153,0.0437659,1721,652,-0.956958,-0.161155
504,372,-1.1864,-0.294128,0,0,0,0,0,0,0,-1,1728,652,-1.18645,0.294144
511,372,0.23999,0.279236,0,0,0,0,0,0,0,-1,1735,652,0.24001,-0.279219
518,372,-0.289917,0.299988,-0.0021787,0.0168756,-2.44221e-05,0.0168757,-0.00217874,-1.56951,0.0120426,0.0434479,1742,652,-0.289918,-0.300011
525,372,-0.31665,0.458496,-0.00187442,0.0163199,-0.000227257,0.0163228,-0.00187726,-1.55831,0.0115585,0.0429435,1749,652,-0.316636,-0.458477
532,372,-0.220093,0.103577,-0.0016528,0.0153578,-0.000483779,0.0153716,-0.00166655,-1.54239,0.010846,0.0412827,1756,652,-0.220068,-0.103584
539,372,-0.50769,-0.0563965,-0.0021185,0.0128337,-0.000745309,0.0128708,-0.00215555,-1.52111,0.00938194,0.0419552,1763,652,-0.507676,0.0564154
546,372,0.0328369,-0.198547,0,0,0,0,0,0,0,-1,1770,652,0.0328841,0.198548
553,372,0.0157471,-0.0919189,-0.00295606,0.0095496,-0.000932899,0.00961881,-0.00302527,-1.49674,0.00762374,0.0448747,1777,652,0.0157709,0.0919419
560,372,0.00354004,0.0205688,-0.00327614,0.00736497,-0.00111971,0.00748151,-0.00339268,-1.46708,0.00642446,0.0299155,1784,652,0.00348537,-0.0205844
567,372,-0.0216064,0.074585,-0.00346648,0.0058224,-0.00134352,0.00601282,-0.0036569,-1.43,0.00563778,0.0134263,1791,652,-0.0216346,-0.0745911
574,372,-0.03479,0.0513306,-0.0033641,0.00406403,-0.00112726,0.00423133,-0.0035314,-1.42346,0.00448788,0.0105802,1798,652,-0.0348009,-0.0513409
581,372,-0.0340576,0.0396118,-0.0031819,0.00351096,-0.00113013,0.00369664,-0.00336757,-1.40795,0.00408,0.0138266,1805,652,-0.0340987,-0.0396163
588,372,-0.0421143,0.0293579,-0.00279823,0.00311257,-0.00100741,0.00327955,-0.00296522,-1.40654,0.00360694,0.0157115,1812,652,-0.0421291,-0.0293669
595,372,-0.00939941,0.0248413,-0.00225633,0.00267635,-0.000891477,0.00283253,-0.0024125,-1.39737,0.00303145,0.0125355,1819,652,-0.00934196,-0.0248567
602,372,-0.00610352,0.0446777,-0.00227758,0.00207215,-0.000333185,0.00209752,-0.00230296,-1.49479,0.00254154,0.010405,1826,652,-0.00614354,-0.0446987
609,372,-0.043335,0.0511475,-0.00176316,0.000577268,0.000232879,0.000600215,-0.0017861,1.47258,0.00143333,0.00957256,1833,652,-0.0433155,-0.051129
616,372,-0.0541992,0.0458374,-0.000941803,0.000758004,6.05979e-05,0.000760161,-0.00094396,1.53521,0.000985781,0.00931149,1840,652,-0.0541474,-0.0458555
623,372,-0.0319824,0.0625,-0.000399863,0.000568952,-4.95911e-05,0.000571484,-0.000402394,-1.51979,0.000565087,0.0107219,1847,652,-0.0319871,-0.0624781
630,372,-0.0301514,0.0784302,-0.000700453,0.000308516,-0.000118173,0.000322172,-0.000714109,-1.45575,0.000612395,0.0156767,1854,652,-0.0301257,-0.0784517
637,372,-0.0223389,0.0560303,-0.001555,-3.38828e-05,-0.000354299,4.45921e-05,-0.00163347,-1.35282,0.00110414,0.0185829,1861,652,-0.0223231,-0.0560028
644,372,-0.012207,0.0568848,-0.0025912,-0.000535328,-0.000713559,-0.000311937,-0.00281459,-1.2674,0.00178154,0.0149016,1868,652,-0.0122232,-0.0568574
651,372,-0.00109863,0.0574951,-0.00382903,-0.0014557,-0.00144598,-0.000771795,-0.00451293,-1.129,0.00278721,0.0290182,1875,652,-0.00108176,-0.057482
658,372,0.0192871,0.0303955,-0.00552864,-0.0024617,-0.00200493,-0.00147103,-0.00651931,-1.11187,0.00394829,0.0399436,1882,652,0.0193338,-0.0303904
665,372,0.0224609,0.0188599,0,0,0,0,0,0,0,-1,1889,652,0.0224745,-0.018881
672,372,0.127441,0.0668335,0,0,0,0,0,0,0,-1,1896,652,0.127461,-0.0668454
679,372,-0.156372,0.269348,-0.0136307,-0.00700965,-0.00469778,-0.00457311,-0.0160673,-1.09233,0.009559,0.0481173,1903,652,-0.156361,-0.269344
686,372,-0.268433,0.122192,-0.0168946,-0.00897904,-0.00602073,-0.00573175,-0.0201419,-1.07616,0.0119834,0.0474837,1910,652,-0.268465,-0.122198
693,372,0,0,0,0,0,0,0,0,0,-1,1917,652,0,0
700,372,0,0,0,0,0,0,0,0,0,-1,1924,652,0,0
707,372,0,0,0,0,0,0,0,0,0,-1,1931,652,0,0
714,372,0,0,0,0,0,0,0,0,0,-1,1938,652,0,0
721,372,0,0,0,0,0,0,0,0,0,-1,1945,652,0,0
728,372,0,0,0,0,0,0,0,0,0,-1,1952,652,0,0
735,372,0,0,0,0,0,0,0,0,0,-1,1959,652,0,0
742,372,0,0,0,0,0,0,0,0,0,-1,1966,652,0,0
749,372,0,0,0,0,0,0,0,0,0,-1,1973,652,0,0
756,372,0,0,0,0,0,0,0,0,0,-1,1980,652,0,0
763,372,0,0,0,0,0,0,0,0,0,-1,1987,652,0,0
770,372,0,0,0,0,0,0,0,0,0,-1,1994,652,0,0
777,372,0,0,0,0,0,0,0,0,0,-1,2001,652,0,0
784,372,0,0,0,0,0,0,0,0,0,-1,2008,652,0,0
791,372,0,0,0,0,0,0,0,0,0,-1,2015,652,0,0
798,372,0,0,0,0,0,0,0,0,0,-1,2022,652,0,0
805,372,0,0,0,0,0,0,0,0,0,-1,2029,652,0,0
812,372,0,0,0,0,0,0,0,0,0,-1,2036,652,0,0
-700,365,0,0,0,0,0,0,0,0,0,-1,524,659,0,0
-693,365,0,0,0,0,0,0,0,0,0,-1,531,659,0,0
-686,365,0,0,0,0,0,0,0,0,0,-1,538,659,0,0
-679,365,0,0,0,0,0,0,0,0,0,-1,545,659,0,0
-672,365,0,0,0,0,0,0,0,0,0,-1,552,659,0,0
-665,365,0,0,0,0,0,0,0,0,0,-1,559,659,0,0
-658,365,0,0,0,0,0,0,0,0,0,-1,566,659,0,0
-651,365,0,0,0,0,0,0,0,0,0,-1,573,659,0,0
-644,365,0,0,0,0,0,0,0,0,0,-1,580,659,0,0
-637,365,0,0,0,0,0,0,0,0,0,-1,587,659,0,0
-630,365,0,0,0,0,0,0,0,0,0,-1,594,659,0,0
-623,365,0,0,0,0,0,0,0,0,0,-1,601,659,0,0
-616,365,0,0,0,0,0,0,0,0,0,-1,608,659,0,0
-609,365,0,0,0,0,0,0,0,0,0,-1,615,659,0,0
-602,365,0,0,0,0,0,0,0,0,0,-1,622,659,0,0
-595,365,0,0,0,0,0,0,0,0,0,-1,629,659,0,0
-588,365,0,0,0,0,0,0,0,0,0,-1,636,659,0,0
-581,365,0,0,0,0,0,0,0,0,0,-1,643,659,0,0
-574,365,0.238037,-0.618225,0.0231109,-0.0100978,0.00911829,0.0254498,-0.0124367,0.251096,0.0222997,0.0416864,650,659,0.23801,0.618246
-567,365,0.897949,-0.625549,0.0198047,-0.0087866,0.00599538,0.021011,-0.00999289,0.198552,0.018273,0.0433895,657,659,0.897924,0.625566
-560,365,0.0279541,0.0650024,0.0170539,-0.00671478,0.00376469,0.0176359,-0.00729681,0.153389,0.0148017,0.0428694,664,659,0.0279843,-0.0650203
-553,365,-0.14209,0.27478,0.0145894,-0.00473686,0.00216981,0.01483,-0.00497747,0.110441,0.0118981,0.0442177,671,659,-0.142092,-0.274782
-546,365,-0.129089,0.0223389,0.0124893,-0.0028626,0.00115432,0.0125756,-0.00294891,0.0746311,0.00952021,0.0443845,678,659,-0.12907,-0.0223266
-539,365,-0.298035,-0.372864,0.0105912,-0.0012427,0.000518178,0.0106139,-0.00126534,0.043676,0.00753322,0.0430321,685,659,-0.298046,0.372894
-532,365,-0.0631104,-0.206177,0.0088136,4.68114e-05,0.000195045,0.00881793,4.24739e-05,0.0222335,0.00586452,0.0431882,692,659,-0.0630824,0.206178
-525,365,-0.0128174,0.0299072,0.00700531,0.000703176,-9.48474e-05,0.00700674,0.000701749,-0.0150455,0.0044557,0.0330596,699,659,-0.0128223,-0.0298829
-518,365,0.00305176,0.0858765,0.0047955,0.00157604,-5.33867e-05,0.00479638,0.00157516,-0.0165765,0.00282303,0.0166041,706,659,0.00305178,-0.0858824
-511,365,-0.00939941,0.0499268,0.00374832,0.00215955,-0.000143347,0.00376115,0.00214672,-0.0892647,0.00217874,0.0139824,713,659,-0.00939196,-0.0499158
-504,365,-0.03125,0.0339966,0.00297363,0.00215977,-3.53698e-05,0.00297516,0.00215824,-0.0433504,0.00177495,0.0116714,720,659,-0.0312199,-0.0339684
-497,365,-0.0300293,0.0456543,0.00133146,0.00164259,-1.79129e-06,0.0016426,0.00133145,-1.56504,0.00100749,0.0113382,727,659,-0.0300133,-0.0456332
-490,365,-0.0241699,0.0509644,0.000114252,0.00156711,5.94321e-05,0.00156953,0.000111825,1.52998,0.00101114,0.0115395,734,659,-0.0241744,-0.0509708
-483,365,-0.0188599,0.0594482,-0.000731903,0.00164454,-1.05796e-05,0.00164459,-0.00073195,-1.56634,0.00140541,0.0114897,741,659,-0.0188622,-0.0594195
-476,365,-0.012146,0.0765991,-0.0013486,0.00132247,-0.000189482,0.00133585,-0.00136197,-1.50033,0.00155761,0.0115692,748,659,-0.0121343,-0.0766169
-469,365,-0.0289307,0.0721436,-0.000837044,0.00117969,-0.000473319,0.00128525,-0.000942605,-1.35136,0.00129131,0.010564,755,659,-0.028914,-0.0721172
-462,365,-0.0153198,0.0640259,-0.00032318,0.000527866,-0.000874334,0.00107473,-0.000870041,-1.01187,0.00112488,0.0115406,762,659,-0.0152968,-0.0640405
-455,365,-0.00805664,0.0755615,-0.000836729,0.000379648,-0.00126874,0.00117844,-0.00163552,-1.0089,0.00163177,0.0122368,769,659,-0.00808409,-0.0755717
-448,365,-0.0103149,0.0886841,-0.0017137,0.000952706,-0.00154135,0.00165744,-0.00241843,-1.14196,0.00236684,0.00971452,776,659,-0.0103167,-0.088657
-441,365,-0.0180664,0.0654907,-0.00268801,0.00192806,-0.00171847,0.00249755,-0.0032575,-1.25079,0.00333232,0.0191108,783,659,-0.0180609,-0.0655138
-434,365,-0.0992432,0.0643311,-0.0042592,0.00269629,-0.00217106,0.00331833,-0.00488124,-1.29176,0.00476261,0.033199,790,659,-0.0992182,-0.0643431
-427,365,-0.133484,0.16095,-0.00684634,0.00327471,-0.0026108,0.00390849,-0.00748013,-1.33265,0.00668214,0.0385655,797,659,-0.133466,-0.160922
-420,365,-0.173462,0.211487,-0.00960442,0.00404329,-0.00331985,0.004808,-0.0103691,-1.3444,0.00895645,0.0404149,804,659,-0.173468,-0.211516
-413,365,-0.0195313,-0.528748,0,0,0,0,0,0,0,-1,811,659,-0.0195257,0.528725
-406,365,-0.425171,-0.380981,-0.0166141,0.00484472,-0.00524348,0.00605743,-0.0178268,-1.34351,0.0143368,0.0479387,818,659,-0.425165,0.380959
-399,365,-0.839478,-0.271912,-0.0212266,0.00472598,-0.00723571,0.006607,-0.0231076,-1.31646,0.0180159,0.0464748,825,659,-0.839467,0.271894
-392,365,-0.91333,-0.0106201,-0.0265368,0.00422302,-0.0105128,0.00747265,-0.0297864,-1.271,0.0227611,0.0444258,832,659,-0.91335,0.0106501
-385,365,-0.646973,0.340942,-0.0314888,0.00238985,-0.0147944,0.00794084,-0.0370398,-1.21184,0.0277219,0.044949,839,659,-0.646996,-0.340937
-378,365,-1.02423,0.455872,-0.0356304,0.000476504,-0.0197299,0.00916616,-0.0443201,-1.15593,0.0330288,0.0484175,846,659,-1.02424,-0.45585
-371,365,0,0,0,0,0,0,0,0,0,-1,853,659,0,0
-364,365,0,0,0,0,0,0,0,0,0,-1,860,659,0,0
-357,365,0,0,0,0,0,0,0,0,0,-1,867,659,0,0
-350,365,0,0,0,0,0,0,0,0,0,-1,874,659,0,0
-343,365,0,0,0,0,0,0,0,0,0,-1,881,659,0,0
-336,365,0,0,0,0,0,0,0,0,0,-1,888,659,0,0
-329,365,0,0,0,0,0,0,0,0,0,-1,895,659,0,0
-322,365,0,0,0,0,0,0,0,0,0,-1,902,659,0,0
-315,365,0,0,0,0,0,0,0,0,0,-1,909,659,0,0
-308,365,0,0,0,0,0,0,0,0,0,-1,916,659,0,0
-301,365,0,0,0,0,0,0,0,0,0,-1,923,659,0,0
-294,365,0,0,0,0,0,0,0,0,0,-1,930,659,0,0
-287,365,0,0,0,0,0,0,0,0,0,-1,937,659,0,0
-280,365,0,0,0,0,0,0,0,0,0,-1,944,659,0,0
-273,365,0,0,0,0,0,0,0,0,0,-1,951,659,0,0
-266,365,0,0,0,0,0,0,0,0,0,-1,958,659,0,0
-259,365,0,0,0,0,0,0,0,0,0,-1,965,659,0,0
-252,365,0,0,0,0,0,0,0,0,0,-1,972,659,0,0
-245,365,0,0,0,0,0,0,0,0,0,-1,979,659,0,0
-238,365,0,0,0,0,0,0,0,0,0,-1,986,659,0,0
-231,365,0,0,0,0,0,0,0,0,0,-1,993,659,0,0
-224,365,0,0,0,0,0,0,0,0,0,-1,1000,659,0,0
-217,365,0,0,0,0,0,0,0,0,0,-1,1007,659,0,0
-210,365,0,0,0,0,0,0,0,0,0,-1,1014,659,0,0
-203,365,0,0,0,0,0,0,0,0,0,-1,1021,659,0,0
-196,365,0,0,0,0,0,0,0,0,0,-1,1028,659,0,0
-189,365,0,0,0,0,0,0,0,0,0,-1,1035,659,0,0
-182,365,0,0,0,0,0,0,0,0,0,-1,1042,659,0,0
-175,365,0,0,0,0,0,0,0,0,0,-1,1049,659,0,0
-168,365,0,0,0,0,0,0,0,0,0,-1,1056,659,0,0
-161,365,0,0,0,0,0,0,0,0,0,-1,1063,659,0,0
-154,365,0,0,0,0,0,0,0,0,0,-1,1070,659,0,0
-147,365,0,0,0,0,0,0,0,0,0,-1,1077,659,0,0
-140,365,0,0,0,0,0,0,0,0,0,-1,1084,659,0,0
-133,365,0,0,0,0,0,0,0,0,0,-1,1091,659,0,0
-126,365,0,0,0,0,0,0,0,0,0,-1,1098,659,0,0
-119,365,0,0,0,0,0,0,0,0,0,-1,1105,659,0,0
-112,365,0,0,0,0,0,0,0,0,0,-1,1112,659,0,0
-105,365,0,0,0,0,0,0,0,0,0,-1,1119,659,0,0
-98,365,0,0,0,0,0,0,0,0,0,-1,1126,659,0,0
-91,365,0,0,0,0,0,0,0,0,0,-1,1133,659,0,0
-84,365,0,0,0,0,0,0,0,0,0,-1,1140,659,0,0
-77,365,0,0,0,0,0,0,0,0,0,-1,1147,659,0,0
-70,365,0,0,0,0,0,0,0,0,0,-1,1154,659,0,0
-63,365,0,0,0,0,0,0,0,0,0,-1,1161,659,0,0
-56,365,0,0,0,0,0,0,0,0,0,-1,1168,659,0,0
-49,365,0,0,0,0,0,0,0,0,0,-1,1175,659,0,0
-42,365,0,0,0,0,0,0,0,0,0,-1,1182,659,0,0
-35,365,0,0,0,0,0,0,0,0,0,-1,1189,659,0,0
-28,365,0,0,0,0,0,0,0,0,0,-1,1196,659,0,0
-21,365,0,0,0,0,0,0,0,0,0,-1,1203,659,0,0
-14,365,0,0,0,0,0,0,0,0,0,-1,1210,659,0,0
-7,365,0,0,0,0,0,0,0,0,0,-1,1217,659,0,0
0,365,0,0,0,0,0,0,0,0,0,-1,1224,659,0,0
7,365,0,0,0,0,0,0,0,0,0,-1,1231,659,0,0
14,365,0,0,0,0,0,0,0,0,0,-1,1238,659,0,0
21,365,0,0,0,0,0,0,0,0,0,-1,1245,659,0,0
28,365,0,0,0,0,0,0,0,0,0,-1,1252,659,0,0
35,365,0,0,0,0,0,0,0,0,0,-1,1259,659,0,0
42,365,0,0,0,0,0,0,0,0,0,-1,1266,659,0,0
49,365,0,0,0,0,0,0,0,0,0,-1,1273,659,0,0
56,365,0,0,0,0,0,0,0,0,0,-1,1280,659,0,0
63,365,0,0,0,0,0,0,0,0,0,-1,1287,659,0,0
70,365,0,0,0,0,0,0,0,0,0,-1,1294,659,0,0
77,365,0,0,0,0,0,0,0,0,0,-1,1301,659,0,0
84,365,0,0,0,0,0,0,0,0,0,-1,1308,659,0,0
91,365,0,0,0,0,0,0,0,0,0,-1,1315,659,0,0
98,365,0,0,0,0,0,0,0,0,0,-1,1322,659,0,0
105,365,0,0,0,0,0,0,0,0,0,-1,1329,659,0,0
112,365,0,0,0,0,0,0,0,0,0,-1,1336,659,0,0
119,365,0,0,0,0,0,0,0,0,0,-1,1343,659,0,0
126,365,0,0,0,0,0,0,0,0,0,-1,1350,659,0,0
133,365,0,0,0,0,0,0,0,0,0,-1,1357,659,0,0
140,365,0,0,0,0,0,0,0,0,0,-1,1364,659,0,0
147,365,0,0,0,0,0,0,0,0,0,-1,1371,659,0,0
154,365,0,0,0,0,0,0,0,0,0,-1,1378,659,0,0
161,365,0,0,0,0,0,0,0,0,0,-1,1385,659,0,0
168,365,0,0,0,0,0,0,0,0,0,-1,1392,659,0,0
175,365,0,0,0,0,0,0,0,0,0,-1,1399,659,0,0
182,365,0,0,0,0,0,0,0,0,0,-1,1406,659,0,0
189,365,0,0,0,0,0,0,0,0,0,-1,1413,659,0,0
196,365,0,0,0,0,0,0,0,0,0,-1,1420,659,0,0
203,365,0,0,0,0,0,0,0,0,0,-1,1427,659,0,0
210,365,0,0,0,0,0,0,0,0,0,-1,1434,659,0,0
217,365,0,0,0,0,0,0,0,0,0,-1,1441,659,0,0
224,365,0,0,0,0,0,0,0,0,0,-1,1448,659,0,0
231,365,0,0,0,0,0,0,0,0,0,-1,1455,659,0,0
238,365,0,0,0,0,0,0,0,0,0,-1,1462,659,0,0
245,365,0,0,0,0,0,0,0,0,0,-1,1469,659,0,0
252,365,0,0,0,0,0,0,0,0,0,-1,1476,659,0,0
259,365,0,0,0,0,0,0,0,0,0,-1,1483,659,0,0
266,365,0,0,0,0,0,0,0,0,0,-1,1490,659,0,0
273,365,0,0,0,0,0,0,0,0,0,-1,1497,659,0,0
280,365,0,0,0,0,0,0,0,0,0,-1,1504,659,0,0
287,365,0,0,0,0,0,0,0,0,0,-1,1511,659,0,0
294,365,0,0,0,0,0,0,0,0,0,-1,1518,659,0,0
301,365,0,0,0,0,0,0,0,0,0,-1,1525,659,0,0
308,365,0,0,0,0,0,0,0,0,0,-1,1532,659,0,0
315,365,0,0,0,0,0,0,0,0,0,-1,1539,659,0,0
322,365,0,0,0,0,0,0,0,0,0,-1,1546,659,0,0
329,365,0,0,0,0,0,0,0,0,0,-1,1553,659,0,0
336,365,0,0,0,0,0,0,0,0,0,-1,1560,659,0,0
343,365,0,0,0,0,0,0,0,0,0,-1,1567,659,0,0
350,365,0,0,0,0,0,0,0,0,0,-1,1574,659,0,0
357,365,0,0,0,0,0,0,0,0,0,-1,1581,659,0,0
364,365,0,0,0,0,0,0,0,0,0,-1,1588,659,0,0
371,365,0,0,0,0,0,0,0,0,0,-1,1595,659,0,0
378,365,0,0,0,0,0,0,0,0,0,-1,1602,659,0,0
385,365,0,0,0,0,0,0,0,0,0,-1,1609,659,0,0
392,365,0,0,0,0,0,0,0,0,0,-1,1616,659,0,0
399,365,0,0,0,0,0,0,0,0,0,-1,1623,659,0,0
406,365,0,0,0,0,0,0,0,0,0,-1,1630,659,0,0
413,365,0,0,0,0,0,0,0,0,0,-1,1637,659,0,0
420,365,0,0,0,0,0,0,0,0,0,-1,1644,659,0,0
427,365,0,0,0,0,0,0,0,0,0,-1,1651,659,0,0
434,365,0,0,0,0,0,0,0,0,0,-1,1658,659,0,0
441,365,0,0,0,0,0,0,0,0,0,-1,1665,659,0,0
448,365,0,0,0,0,0,0,0,0,0,-1,1672,659,0,0
455,365,0,0,0,0,0,0,0,0,0,-1,1679,659,0,0
462,365,0,0,0,0,0,0,0,0,0,-1,1686,659,0,0
469,365,0,0,0,0,0,0,0,0,0,-1,1693,659,0,0
476,365,0,0,0,0,0,0,0,0,0,-1,1700,659,0,0
483,365,0,0,0,0,0,0,0,0,0,-1,1707,659,0,0
490,365,-1.42847,1.17163,-0.0166054,0.00221792,-0.00443864,0.00321207,-0.0175996,-1.35046,0.0129374,0.0440749,1714,659,-1.42848,-1.17165
497,365,-1.40613,0.173523,-0.00986687,0.00781672,-0.00247632,0.00815694,-0.0102071,-1.43426,0.0106245,0.0450236,1721,659,-1.40617,-0.173525
504,365,-1.13257,-0.333557,0,0,0,0,0,0,0,-1,1728,659,-1.13252,0.333571
511,365,-0.0307617,0.644043,0,0,0,0,0,0,0,-1,1735,659,-0.0307508,-0.644039
518,365,-0.574097,0.659058,0,0,0,0,0,0,0,-1,1742,659,-0.574124,-0.65906
525,365,-0.387207,0.836975,0,0,0,0,0,0,0,-1,1749,659,-0.387229,-0.836984
532,365,-0.320801,0.569946,0,0,0,0,0,0,0,-1,1756,659,-0.320794,-0.569924
539,365,-0.00378418,-0.429688,0,0,0,0,0,0,0,-1,1763,659,-0.00378902,0.429697
546,365,-0.0957031,-0.4198,-0.00250808,0.0144058,-0.000471102,0.0144189,-0.0025212,-1.54297,0.0105539,0.0488705,1770,659,-0.0956759,0.419783
553,365,0.0357666,-0.180298,-0.00310156,0.0123904,-0.000702503,0.0124222,-0.00313335,-1.52557,0.00949975,0.0462743,1777,659,0.0357232,0.180278
560,365,0.0778809,0.0274658,-0.00360102,0.0101158,-0.00104765,0.0101953,-0.00368058,-1.495,0.00830037,0.0432091,1784,659,0.0778736,-0.0274421
567,365,0.0800781,0.0917969,-0.00398468,0.00822274,-0.00125914,0.00835127,-0.0041132,-1.46908,0.00733371,0.032997,1791,659,0.0800638,-0.091777
574,365,-0.0189209,0.0585327,-0.00411021,0.00585781,-0.000961351,0.00594968,-0.00420208,-1.47552,0.00589,0.0173632,1798,659,-0.0189417,-0.0585506
581,365,-0.0351563,0.0440674,-0.00406128,0.005019,-0.00101206,0.00513043,-0.00417271,-1.46113,0.00538065,0.0116866,1805,659,-0.0351182,-0.0440899
588,365,-0.0373535,0.0455933,-0.00370577,0.00437279,-0.000987055,0.00449164,-0.00382462,-1.45096,0.00480654,0.010872,1812,659,-0.0373822,-0.0455858
595,365,-0.0244141,0.0610962,-0.00307112,0.00363536,-0.000909015,0.00375638,-0.00319215,-1.43843,0.00401614,0.0105694,1819,659,-0.0244473,-0.0610789
602,365,-0.0263672,0.0737305,-0.00310729,0.00272925,-0.000304287,0.00274507,-0.00312311,-1.51885,0.00339034,0.00994823,1826,659,-0.0264264,-0.0737008
609,365,-0.0576172,0.067627,-0.0025169,0.000669354,0.000339023,0.000705027,-0.00255257,1.46596,0.00197904,0.00970912,1833,659,-0.057558,-0.0676019
616,365,-0.0258789,0.0594482,-0.00147078,0.000748804,4.91857e-05,0.000749893,-0.00147187,1.54865,0.00130512,0.0109684,1840,659,-0.0258439,-0.059452
623,365,-0.00708008,0.045166,-0.000677136,0.00041129,-0.000116187,0.000423555,-0.0006894,-1.46563,0.000648647,0.00986138,1847,659,-0.0070644,-0.0451744
630,365,-0.0285645,0.0632935,-0.000758663,0.000110909,-0.00015453,0.000137554,-0.000785307,-1.40005,0.000574901,0.0143945,1854,659,-0.0285454,-0.0633115
637,365,-0.0429688,0.038208,-0.00140487,-0.000225814,-0.000325544,-0.000141901,-0.00148878,-1.31853,0.000948762,0.0191953,1861,659,-0.0430061,-0.03818
644,365,-0.0192871,0.0361938,-0.00224642,-0.000652487,-0.000571872,-0.000468539,-0.00243036,-1.25959,0.00148884,0.0131297,1868,659,-0.0192394,-0.0361871
651,365,-0.0124512,0.0698242,-0.00323518,-0.00143713,-0.00116943,-0.000861092,-0.00381122,-1.1131,0.00230796,0.0167349,1875,659,-0.0124288,-0.0698394
658,365,-0.026123,0.0217285,-0.00464145,-0.00224187,-0.00158089,-0.00145705,-0.00542628,-1.11,0.00324285,0.0326661,1882,659,-0.0260725,-0.0217386
665,365,-0.057251,-0.0142822,0,0,0,0,0,0,0,-1,1889,659,-0.057194,0.0142977
672,365,-0.210327,-0.0889282,0,0,0,0,0,0,0,-1,1896,659,-0.210276,0.0889253
679,365,-0.165527,0.507507,-0.0113175,-0.00553151,-0.00378825,-0.00365793,-0.0131911,-1.1115,0.00786363,0.0432514,1903,659,-0.165529,-0.507484
686,365,-0.556763,0.191162,-0.0139646,-0.00683756,-0.00493686,-0.00431246,-0.0164897,-1.09801,0.00987467,0.0424389,1910,659,-0.556735,-0.191151
693,365,-0.629272,0.043396,-0.0166007,-0.00809646,-0.00627357,-0.00476979,-0.0199274,-1.08323,0.0120149,0.0440659,1917,659,-0.629307,-0.0433838
700,365,0,0,0,0,0,0,0,0,0,-1,1924,659,0,0
707,365,0,0,0,0,0,0,0,0,0,-1,1931,659,0,0
714,365,0,0,0,0,0,0,0,0,0,-1,1938,659,0,0
721,365,0,0,0,0,0,0,0,0,0,-1,1945,659,0,0
728,365,0,0,0,0,0,0,0,0,0,-1,1952,659,0,0
735,365,0,0,0,0,0,0,0,0,0,-1,1959,659,0,0
742,365,0,0,0,0,0,0,0,0,0,-1,1966,659,0,0
749,365,0,0,0,0,0,0,0,0,0,-1,1973,659,0,0
756,365,0,0,0,0,0,0,0,0,0,-1,1980,659,0,0
763,365,0,0,0,0,0,0,0,0,0,-1,1987,659,0,0
770,365,0,0,0,0,0,0,0,0,0,-1,1994,659,0,0
777,365,0,0,0,0,0,0,0,0,0,-1,2001,659,0,0
784,365,0,0,0,0,0,0,0,0,0,-1,2008,659,0,0
791,365,0,0,0,0,0,0,0,0,0,-1,2015,659,0,0
798,365,0,0,0,0,0,0,0,0,0,-1,2022,659,0,0
805,365,0,0,0,0,0,0,0,0,0,-1,2029,659,0,0
812,365,0,0,0,0,0,0,0,0,0,-1,2036,659,0,0
-700,358,0,0,0,0,0,0,0,0,0,-1,524,666,0,0
-693,358,0,0,0,0,0,0,0,0,0,-1,531,666,0,0
-686,358,0,0,0,0,0,0,0,0,0,-1,538,666,0,0
-679,358,0,0,0,0,0,0,0,0,0,-1,545,666,0,0
-672,358,0,0,0,0,0,0,0,0,0,-1,552,666,0,0
-665,358,0,0,0,0,0,0,0,0,0,-1,559,666,0,0
-658,358,0,0,0,0,0,0,0,0,0,-1,566,666,0,0
-651,358,0,0,0,0,0,0,0,0,0,-1,573,666,0,0
-644,358,0,0,0,0,0,0,0,0,0,-1,580,666,0,0
-637,358,0,0,0,0,0,0,0,0,0,-1,587,666,0,0
-630,358,0,0,0,0,0,0,0,0,0,-1,594,666,0,0
-623,358,0,0,0,0,0,0,0,0,0,-1,601,666,0,0
-616,358,0,0,0,0,0,0,0,0,0,-1,608,666,0,0
-609,358,0,0,0,0,0,0,0,0,0,-1,615,666,0,0
-602,358,0,0,0,0,0,0,0,0,0,-1,622,666,0,0
-595,358,0,0,0,0,0,0,0,0,0,-1,629,666,0,0
-588,358,0,0,0,0,0,0,0,0,0,-1,636,666,0,0
-581,358,0.000244141,-0.758667,0.0219108,-0.0113449,0.00631706,0.0230703,-0.0125044,0.181533,0.0208389,0.0465651,643,666,0.000266551,0.758688
-574,358,0.0905762,-0.274109,0.01763,-0.0100001,0.00337199,0.0180355,-0.0104056,0.1197,0.0166163,0.042551,650,666,0.0905756,0.274091
-567,358,0.661804,-0.26593,0.014736,-0.00857836,0.00155916,0.0148398,-0.00868217,0.0664811,0.0137346,0.0424065,657,666,0.661817,0.265906
-560,358,-0.412109,0.306458,0.0123871,-0.00690184,0.000364826,0.012394,-0.00690874,0.0189048,0.0112934,0.0472546,664,666,-0.412116,-0.306454
-553,358,-0.374939,0.37085,0.0104535,-0.00524522,-0.00039647,0.0104635,-0.00525523,-0.0252335,0.00923978,0.0458719,671,666,-0.374929,-0.370849
-546,358,-0.267395,0.216675,0.00888656,-0.00356588,-0.000805788,0.00893848,-0.00361781,-0.0643515,0.00746318,0.0449938,678,666,-0.267404,-0.216666
-539,358,-0.207947,-0.283386,0.00754601,-0.00222564,-0.000951564,0.00763781,-0.00231744,-0.096176,0.00601505,0.0450421,685,666,-0.20796,0.283377
-532,358,-0.118652,-0.153992,0.0064235,-0.00107176,-0.00078684,0.00650521,-0.00115347,-0.103475,0.00476803,0.0376374,692,666,-0.118679,0.154021
-525,358,-0.022583,0.0421143,0.00514816,-0.000621146,-0.000804748,0.00525831,-0.000731295,-0.136029,0.003773,0.0222801,699,666,-0.0225883,-0.0421299
-518,358,0.00195313,0.0802002,0.00337888,0.00030037,-0.00056723,0.00348007,0.000199182,-0.176534,0.00225658,0.0149844,706,666,0.00193829,-0.0801806
-511,358,-0.0100098,0.0706177,0.00278668,0.00104122,-0.000499575,0.00291955,0.000908345,-0.259949,0.00172523,0.0133944,713,666,-0.0100176,-0.0706102
-504,358,-0.0213013,0.0639648,0.00241686,0.00123376,-0.000295716,0.00248665,0.00116396,-0.231783,0.00143664,0.0102751,720,666,-0.0212729,-0.0639445
-497,358,-0.0181274,0.0529785,0.000977847,0.000822969,-0.000224554,0.00113794,0.000662876,-0.619355,0.000659966,0.00984294,727,666,-0.0180994,-0.0529988
-490,358,-0.00872803,0.0629272,-0.000152199,0.00089246,-0.000140777,0.000911098,-0.000170837,-1.43917,0.000671626,0.00922826,734,666,-0.00874262,-0.0629303
-483,358,-0.0202637,0.067688,-0.00080626,0.00101472,-0.000157185,0.00102819,-0.000819728,-1.48532,0.00106916,0.00870571,741,666,-0.0202805,-0.0676791
-476,358,-0.0212402,0.0823975,-0.00122191,0.000867631,-0.000302913,0.000910658,-0.00126494,-1.4297,0.00126162,0.00958622,748,666,-0.0212655,-0.0823854
-469,358,-0.0245972,0.0627441,-0.00055038,0.000848635,-0.000634716,0.00109368,-0.000795423,-1.20236,0.00109519,0.0121972,755,666,-0.0245767,-0.0627704
-462,358,-0.0108032,0.0588989,0.000144628,0.000245819,-0.00113991,0.00133625,-0.000945808,-0.807576,0.00132396,0.0148641,762,666,-0.010814,-0.0589117
-455,358,-6.10352e-05,0.0760498,-0.000439122,8.18471e-05,-0.00171008,0.00155116,-0.00190844,-0.860979,0.00200095,0.0133707,769,666,-3.21871e-05,-0.0760324
-448,358,-0.0169678,0.0626831,-0.00145987,0.000569428,-0.00220651,0.0019834,-0.00287384,-1.0009,0.00281999,0.0188125,776,666,-0.0169561,-0.0627029
-441,358,-0.0689087,-0.022644,-0.0024524,0.00153243,-0.00253452,0.00276392,-0.00368388,-1.11851,0.00373525,0.0354735,783,666,-0.0689269,0.0226335
-434,358,-0.141663,0.0292969,-0.00397298,0.00223658,-0.00318244,0.00357787,-0.00531427,-1.17192,0.0051664,0.0373628,790,666,-0.141658,-0.0293178
-427,358,-0.215576,0.0845337,-0.00665028,0.00279476,-0.00387167,0.00417896,-0.00803448,-1.22744,0.00716759,0.0365131,797,666,-0.215569,-0.0845519
-420,358,-0.28009,0.0860596,-0.00983134,0.00363775,-0.00478038,0.00516191,-0.0113555,-1.26215,0.00975724,0.0395403,804,666,-0.280066,-0.0860512
-413,358,0.0455933,-0.666504,0,0,0,0,0,0,0,-1,811,666,0.0455735,0.666484
-406,358,-0.309814,-0.623779,-0.0191874,0.00501313,-0.00690013,0.00684227,-0.0210166,-1.31167,0.0167639,0.0451829,818,666,-0.309803,0.623758
-399,358,-0.610535,-0.547791,-0.0256713,0.00554799,-0.00848834,0.00770666,-0.02783,-1.32177,0.0215857,0.0450786,825,666,-0.610536,0.547815
-392,358,-0.971436,-0.388611,-0.033203,0.0057397,-0.0110684,0.00866572,-0.036129,-1.31235,0.0274347,0.0474687,832,666,-0.971431,0.388606
-385,358,-1.31256,-0.201294,0,0,0,0,0,0,0,-1,839,666,-1.31257,0.201316
-378,358,0,0,0,0,0,0,0,0,0,-1,846,666,0,0
-371,358,0,0,0,0,0,0,0,0,0,-1,853,666,0,0
-364,358,0,0,0,0,0,0,0,0,0,-1,860,666,0,0
-357,358,0,0,0,0,0,0,0,0,0,-1,867,666,0,0
-350,358,0,0,0,0,0,0,0,0,0,-1,874,666,0,0
-343,358,0,0,0,0,0,0,0,0,0,-1,881,666,0,0
-336,358,0,0,0,0,0,0,0,0,0,-1,888,666,0,0
-329,358,0,0,0,0,0,0,0,0,0,-1,895,666,0,0
-322,358,0,0,0,0,0,0,0,0,0,-1,902,666,0,0
-315,358,0,0,0,0,0,0,0,0,0,-1,909,666,0,0
-308,358,0,0,0,0,0,0,0,0,0,-1,916,666,0,0
-301,358,0,0,0,0,0,0,0,0,0,-1,923,666,0,0
-294,358,0,0,0,0,0,0,0,0,0,-1,930,666,0,0
-287,358,0,0,0,0,0,0,0,0,0,-1,937,666,0,0
-280,358,0,0,0,0,0,0,0,0,0,-1,944,666,0,0
-273,358,0,0,0,0,0,0,0,0,0,-1,951,666,0,0
-266,358,0,0,0,0,0,0,0,0,0,-1,958,666,0,0
-259,358,0,0,0,0,0,0,0,0,0,-1,965,666,0,0
-252,358,0,0,0,0,0,0,0,0,0,-1,972,666,0,0
-245,358,0,0,0,0,0,0,0,0,0,-1,979,666,0,0
-238,358,0,0,0,0,0,0,0,0,0,-1,986,666,0,0
-231,358,0,0,0,0,0,0,0,0,0,-1,993,666,0,0
-224,358,0,0,0,0,0,0,0,0,0,-1,1000,666,0,0
-217,358,0,0,0,0,0,0,0,0,0,-1,1007,666,0,0
-210,358,0,0,0,0,0,0,0,0,0,-1,1014,666,0,0
-203,358,0,0,0,0,0,0,0,0,0,-1,1021,666,0,0
-196,358,0,0,0,0,0,0,0,0,0,-1,1028,666,0,0
-189,358,0,0,0,0,0,0,0,0,0,-1,1035,666,0,0
-182,358,0,0,0,0,0,0,0,0,0,-1,1042,666,0,0
-175,358,0,0,0,0,0,0,0,0,0,-1,1049,666,0,0
-168,358,0,0,0,0,0,0,0,0,0,-1,1056,666,0,0
-161,358,0,0,0,0,0,0,0,0,0,-1,1063,666,0,0
-154,358,0,0,0,0,0,0,0,0,0,-1,1070,666,0,0
-147,358,0,0,0,0,0,0,0,0,0,-1,1077,666,0,0
-140,358,0,0,0,0,0,0,0,0,0,-1,1084,666,0,0
-133,358,0,0,0,0,0,0,0,0,0,-1,1091,666,0,0
-126,358,0,0,0,0,0,0,0,0,0,-1,1098,666,0,0
-119,358,0,0,0,0,0,0,0,0,0,-1,1105,666,0,0
-112,358,0,0,0,0,0,0,0,0,0,-1,1112,666,0,0
-105,358,0,0,0,0,0,0,0,0,0,-1,1119,666,0,0
-98,358,0,0,0,0,0,0,0,0,0,-1,1126,666,0,0
-91,358,0,0,0,0,0,0,0,0,0,-1,1133,666,0,0
-84,358,0,0,0,0,0,0,0,0,0,-1,1140,666,0,0
-77,358,0,0,0,0,0,0,0,0,0,-1,1147,666,0,0
-70,358,0,0,0,0,0,0,0,0,0,-1,1154,666,0,0
-63,358,0,0,0,0,0,0,0,0,0,-1,1161,666,0,0
-56,358,0,0,0,0,0,0,0,0,0,-1,1168,666,0,0
-49,358,0,0,0,0,0,0,0,0,0,-1,1175,666,0,0
-42,358,0,0,0,0,0,0,0,0,0,-1,1182,666,0,0
-35,358,0,0,0,0,0,0,0,0,0,-1,1189,666,0,0
-28,358,0,0,0,0,0,0,0,0,0,-1,1196,666,0,0
-21,358,0,0,0,0,0,0,0,0,0,-1,1203,666,0,0
-14,358,0,0,0,0,0,0,0,0,0,-1,1210,666,0,0
-7,358,0,0,0,0,0,0,0,0,0,-1,1217,666,0,0
0,358,0,0,0,0,0,0,0,0,0,-1,1224,666,0,0
7,358,0,0,0,0,0,0,0,0,0,-1,1231,666,0,0
14,358,0,0,0,0,0,0,0,0,0,-1,1238,666,0,0
21,358,0,0,0,0,0,0,0,0,0,-1,1245,666,0,0
28,358,0,0,0,0,0,0,0,0,0,-1,1252,666,0,0
35,358,0,0,0,0,0,0,0,0,0,-1,1259,666,0,0
42,358,0,0,0,0,0,0,0,0,0,-1,1266,666,0,0
49,358,0,0,0,0,0,0,0,0,0,-1,1273,666,0,0
56,358,0,0,0,0,0,0,0,0,0,-1,1280,666,0,0
63,358,0,0,0,0,0,0,0,0,0,-1,1287,666,0,0
70,358,0,0,0,0,0,0,0,0,0,-1,1294,666,0,0
77,358,0,0,0,0,0,0,0,0,0,-1,1301,666,0,0
84,358,0,0,0,0,0,0,0,0,0,-1,1308,666,0,0
91,358,0,0,0,0,0,0,0,0,0,-1,1315,666,0,0
98,358,0,0,0,0,0,0,0,0,0,-1,1322,666,0,0
105,358,0,0,0,0,0,0,0,0,0,-1,1329,666,0,0
112,358,0,0,0,0,0,0,0,0,0,-1,1336,666,0,0
119,358,0,0,0,0,0,0,0,0,0,-1,1343,666,0,0
126,358,0,0,0,0,0,0,0,0,0,-1,1350,666,0,0
133,358,0,0,0,0,0,0,0,0,0,-1,1357,666,0,0
140,358,0,0,0,0,0,0,0,0,0,-1,1364,666,0,0
147,358,0,0,0,0,0,0,0,0,0,-1,1371,666,0,0
154,358,0,0,0,0,0,0,0,0,0,-1,1378,666,0,0
161,358,0,0,0,0,0,0,0,0,0,-1,1385,666,0,0
168,358,0,0,0,0,0,0,0,0,0,-1,1392,666,0,0
175,358,0,0,0,0,0,0,0,0,0,-1,1399,666,0,0
182,358,0,0,0,0,0,0,0,0,0,-1,1406,666,0,0
189,358,0,0,0,0,0,0,0,0,0,-1,1413,666,0,0
196,358,0,0,0,0,0,0,0,0,0,-1,1420,666,0,0
203,358,0,0,0,0,0,0,0,0,0,-1,1427,666,0,0
210,358,0,0,0,0,0,0,0,0,0,-1,1434,666,0,0
217,358,0,0,0,0,0,0,0,0,0,-1,1441,666,0,0
224,358,0,0,0,0,0,0,0,0,0,-1,1448,666,0,0
231,358,0,0,0,0,0,0,0,0,0,-1,1455,666,0,0
238,358,0,0,0,0,0,0,0,0,0,-1,1462,666,0,0
245,358,0,0,0,0,0,0,0,0,0,-1,1469,666,0,0
252,358,0,0,0,0,0,0,0,0,0,-1,1476,666,0,0
259,358,0,0,0,0,0,0,0,0,0,-1,1483,666,0,0
266,358,0,0,0,0,0,0,0,0,0,-1,1490,666,0,0
273,358,0,0,0,0,0,0,0,0,0,-1,1497,666,0,0
280,358,0,0,0,0,0,0,0,0,0,-1,1504,666,0,0
287,358,0,0,0,0,0,0,0,0,0,-1,1511,666,0,0
294,358,0,0,0,0,0,0,0,0,0,-1,1518,666,0,0
301,358,0,0,0,0,0,0,0,0,0,-1,1525,666,0,0
308,358,0,0,0,0,0,0,0,0,0,-1,1532,666,0,0
315,358,0,0,0,0,0,0,0,0,0,-1,1539,666,0,0
322,358,0,0,0,0,0,0,0,0,0,-1,1546,666,0,0
329,358,0,0,0,0,0,0,0,0,0,-1,1553,666,0,0
336,358,0,0,0,0,0,0,0,0,0,-1,1560,666,0,0
343,358,0,0,0,0,0,0,0,0,0,-1,1567,666,0,0
350,358,0,0,0,0,0,0,0,0,0,-1,1574,666,0,0
357,358,0,0,0,0,0,0,0,0,0,-1,1581,666,0,0
364,358,0,0,0,0,0,0,0,0,0,-1,1588,666,0,0
371,358,0,0,0,0,0,0,0,0,0,-1,1595,666,0,0
378,358,0,0,0,0,0,0,0,0,0,-1,1602,666,0,0
385,358,0,0,0,0,0,0,0,0,0,-1,1609,666,0,0
392,358,0,0,0,0,0,0,0,0,0,-1,1616,666,0,0
399,358,0,0,0,0,0,0,0,0,0,-1,1623,666,0,0
406,358,0,0,0,0,0,0,0,0,0,-1,1630,666,0,0
413,358,0,0,0,0,0,0,0,0,0,-1,1637,666,0,0
420,358,0,0,0,0,0,0,0,0,0,-1,1644,666,0,0
427,358,0,0,0,0,0,0,0,0,0,-1,1651,666,0,0
434,358,0,0,0,0,0,0,0,0,0,-1,1658,666,0,0
441,358,0,0,0,0,0,0,0,0,0,-1,1665,666,0,0
448,358,0,0,0,0,0,0,0,0,0,-1,1672,666,0,0
455,358,0,0,0,0,0,0,0,0,0,-1,1679,666,0,0
462,358,0,0,0,0,0,0,0,0,0,-1,1686,666,0,0
469,358,0,0,0,0,0,0,0,0,0,-1,1693,666,0,0
476,358,0,0,0,0,0,0,0,0,0,-1,1700,666,0,0
483,358,0,0,0,0,0,0,0,0,0,-1,1707,666,0,0
490,358,0,0,0,0,0,0,0,0,0,-1,1714,666,0,0
497,358,-1.78992,0.0325317,0,0,0,0,0,0,0,-1,1721,666,-1.78986,-0.0325582
504,358,0.542847,-0.41217,0,0,0,0,0,0,0,-1,1728,666,0.542879,0.41217
511,358,0.627563,-0.153564,0,0,0,0,0,0,0,-1,1735,666,0.627618,0.153567
518,358,0.307495,-0.0563354,0,0,0,0,0,0,0,-1,1742,666,0.307484,0.0563502
525,358,0.519287,-0.548096,0,0,0,0,0,0,0,-1,1749,666,0.519275,0.54811
532,358,1.21472,-1.09351,0,0,0,0,0,0,0,-1,1756,666,1.21475,1.0935
539,358,0.955566,-0.643921,-0.000835601,0.0181956,-4.04733e-05,0.0181957,-0.000835687,-1.56867,0.0124184,0.0439625,1763,666,0.955624,0.64393
546,358,0.589844,-0.390869,-0.00134915,0.0171182,-0.000365865,0.0171255,-0.00135639,-1.551,0.0118949,0.0476782,1770,666,0.589817,0.390872
553,358,0.311279,-0.306152,-0.00203893,0.0151508,-0.000748981,0.0151833,-0.00207151,-1.52733,0.0108787,0.0466591,1777,666,0.311244,0.306176
560,358,0.268921,0.0631104,-0.00277741,0.0129131,-0.00121975,0.0130073,-0.00287166,-1.49368,0.00977048,0.0494489,1784,666,0.268915,-0.063112
567,358,0.155518,0.0223389,-0.00340419,0.0108752,-0.00148394,0.0110278,-0.00355677,-1.46833,0.00878095,0.0447037,1791,666,0.155487,-0.022368
574,358,-0.0255127,0.0130615,-0.00370524,0.00807336,-0.00119735,0.00819384,-0.00382572,-1.47051,0.0070906,0.0358107,1798,666,-0.02547,-0.013071
581,358,-0.0458984,0.0465698,-0.00377803,0.00707561,-0.0013613,0.00724374,-0.00394616,-1.44791,0.00655333,0.0178533,1805,666,-0.0459072,-0.046564
588,358,-0.0366211,0.0593872,-0.00347895,0.00625094,-0.00144819,0.00646192,-0.00368992,-1.42613,0.00593355,0.0105221,1812,666,-0.0365902,-0.059399
595,358,-0.0383301,0.0737915,-0.00283816,0.00524006,-0.00137014,0.00546612,-0.00306422,-1.40728,0.00498965,0.00957551,1819,666,-0.0383016,-0.0738067
602,358,-0.0477295,0.0792236,-0.00300345,0.00406742,-0.000674431,0.00413117,-0.0030672,-1.47655,0.00417109,0.00912663,1826,666,-0.0477488,-0.0792091
609,358,-0.0550537,0.0617065,-0.00247679,0.00142893,0.00013272,0.00143343,-0.0024813,1.53687,0.002287,0.0109393,1833,666,-0.0550583,-0.0616879
616,358,-0.03479,0.0510254,-0.00137461,0.00133163,-0.00016729,0.00134193,-0.00138491,-1.50929,0.00157441,0.0122189,1840,666,-0.0348283,-0.0510302
623,358,-0.0308838,0.0303955,-0.000518025,0.000743841,-0.000290514,0.000807512,-0.000581697,-1.35504,0.000805584,0.0122164,1847,666,-0.0308475,-0.030386
630,358,-0.0629883,0.0186768,-0.00050249,0.000310323,-0.00020521,0.000359194,-0.00055136,-1.337,0.000529597,0.0158788,1854,666,-0.0630034,-0.0186933
637,358,-0.0686035,0.00860596,-0.00102061,-9.87154e-05,-0.000233059,-4.31467e-05,-0.00107618,-1.33673,0.00070351,0.0229805,1861,666,-0.0686091,-0.0086095
644,358,-0.0438232,0.0336304,-0.00173071,-0.000506004,-0.000316136,-0.000429214,-0.0018075,-1.33251,0.00109046,0.0186903,1868,666,-0.043764,-0.0336483
651,358,-0.0377197,0.0540161,-0.00253229,-0.001199,-0.000729644,-0.000877318,-0.00285398,-1.15555,0.001688,0.0151175,1875,666,-0.0376829,-0.0540233
658,358,-0.0373535,0.0369263,-0.00364095,-0.00179729,-0.000997811,-0.00136067,-0.00407758,-1.15832,0.0023972,0.0207956,1882,666,-0.0374063,-0.0369365
665,358,-0.0651855,-0.0253296,-0.00518976,-0.00238856,-0.00136525,-0.00183325,-0.00574507,-1.18449,0.00338851,0.0344558,1889,666,-0.0652297,0.025329
672,358,-0.0998535,-0.0200195,-0.00696923,-0.00317317,-0.00193942,-0.00235755,-0.00778484,-1.1727,0.00460959,0.0426876,1896,666,-0.0998983,0.0200087
679,358,-0.216919,0.198425,-0.00892943,-0.00397805,-0.00266325,-0.00281754,-0.0100899,-1.15986,0.00601171,0.0398547,1903,666,-0.216885,-0.198405
686,358,-0.69043,0.45636,-0.0109266,-0.00475687,-0.00356055,-0.0031307,-0.0125528,-1.14237,0.00754469,0.0427762,1910,666,-0.690477,-0.456368
693,358,-0.959717,0.121704,-0.012819,-0.00539542,-0.00457054,-0.00321932,-0.0149951,-1.12644,0.00911513,0.0467735,1917,666,-0.959716,-0.121715
700,358,0,0,0,0,0,0,0,0,0,-1,1924,666,0,0
707,358,0,0,0,0,0,0,0,0,0,-1,1931,666,0,0
714,358,0,0,0,0,0,0,0,0,0,-1,1938,666,0,0
721,358,0,0,0,0,0,0,0,0,0,-1,1945,666,0,0
728,358,0,0,0,0,0,0,0,0,0,-1,1952,666,0,0
735,358,0,0,0,0,0,0,0,0,0,-1,1959,666,0,0
742,358,0,0,0,0,0,0,0,0,0,-1,1966,666,0,0
749,358,0,0,0,0,0,0,0,0,0,-1,1973,666,0,0
756,358,0,0,0,0,0,0,0,0,0,-1,1980,666,0,0
763,358,0,0,0,0,0,0,0,0,0,-1,1987,666,0,0
770,358,0,0,0,0,0,0,0,0,0,-1,1994,666,0,0
777,358,0,0,0,0,0,0,0,0,0,-1,2001,666,0,0
784,358,0,0,0,0,0,0,0,0,0,-1,2008,666,0,0
791,358,0,0,0,0,0,0,0,0,0,-1,2015,666,0,0
798,358,0,0,0,0,0,0,0,0,0,-1,2022,666,0,0
805,358,0,0,0,0,0,0,0,0,0,-1,2029,666,0,0
812,358,0,0,0,0,0,0,0,0,0,-1,2036,666,0,0
-700,351,0,0,0,0,0,0,0,0,0,-1,524,673,0,0
-693,351,0,0,0,0,0,0,0,0,0,-1,531,673,0,0
-686,351,0,0,0,0,0,0,0,0,0,-1,538,673,0,0
-679,351,0,0,0,0,0,0,0,0,0,-1,545,673,0,0
-672,351,0,0,0,0,0,0,0,0,0,-1,552,673,0,0
-665,351,0,0,0,0,0,0,0,0,0,-1,559,673,0,0
-658,351,0,0,0,0,0,0,0,0,0,-1,566,673,0,0
-651,351,0,0,0,0,0,0,0,0,0,-1,573,673,0,0
-644,351,0,0,0,0,0,0,0,0,0,-1,580,673,0,0
-637,351,0,0,0,0,0,0,0,0,0,-1,587,673,0,0
-630,351,0,0,0,0,0,0,0,0,0,-1,594,673,0,0
-623,351,0,0,0,0,0,0,0,0,0,-1,601,673,0,0
-616,351,0,0,0,0,0,0,0,0,0,-1,608,673,0,0
-609,351,0,0,0,0,0,0,0,0,0,-1,615,673,0,0
-602,351,0,0,0,0,0,0,0,0,0,-1,622,673,0,0
-595,351,0,0,0,0,0,0,0,0,0,-1,629,673,0,0
-588,351,0,0,0,0,0,0,0,0,0,-1,636,673,0,0
-581,351,0.0949097,-0.810364,0.0177137,-0.00900896,-0.002334,0.017916,-0.00921129,-0.0864691,0.0159285,0.042536,643,673,0.0949374,0.810376
-574,351,0.237915,-0.172546,0.0145291,-0.0083024,-0.0032139,0.0149729,-0.00874618,-0.137214,0.0138506,0.0445341,650,673,0.237935,0.172533
-567,351,0.618835,-0.0482178,0.0121316,-0.00752809,-0.00338956,0.0126996,-0.00809607,-0.166028,0.012104,0.043924,657,673,0.618845,0.0482166
-560,351,-0.0975342,0.438538,0.0101232,-0.00650919,-0.0033175,0.0107605,-0.00714648,-0.189788,0.0104085,0.0450727,664,673,-0.0975488,-0.43851
-553,351,-0.389648,0.351563,0.0084983,-0.0053532,-0.00310695,0.00916328,-0.00601818,-0.210848,0.00882749,0.0440283,671,673,-0.38962,-0.351562
-546,351,-0.323547,0.437561,0.00719234,-0.00399414,-0.002807,0.00785718,-0.00465898,-0.232565,0.00730443,0.0416483,678,673,-0.323529,-0.437544
-539,351,-0.224243,0.127747,0.00608693,-0.00294203,-0.00240179,0.00668607,-0.00354117,-0.244466,0.00599704,0.0407644,685,673,-0.224269,-0.127731
-532,351,-0.0423584,0.00787354,0.00526364,-0.00202497,-0.00170686,0.00564355,-0.00240488,-0.21901,0.00477052,0.0274526,692,673,-0.0423343,-0.00786007
-525,351,-0.00708008,0.0454712,0.00426927,-0.00166703,-0.00143838,0.00459943,-0.00199718,-0.225627,0.00390609,0.0151541,699,673,-0.00705975,-0.0454976
-518,351,-0.0194092,0.0610962,0.00273035,-0.000708286,-0.00104996,0.00302559,-0.00100353,-0.274119,0.0024219,0.0104785,706,673,-0.0193858,-0.0611219
-511,351,-0.0118408,0.0807495,0.00233574,0.000175546,-0.000845803,0.0026275,-0.000116214,-0.33217,0.00179166,0.0103434,713,673,-0.0118384,-0.0807663
-504,351,-0.0148315,0.0666504,0.00215256,0.000549586,-0.000568822,0.00233389,0.00036825,-0.308606,0.00144886,0.00907541,720,673,-0.0148184,-0.0666456
-497,351,-0.00817871,0.0647583,0.000776144,0.000264846,-0.000503081,0.00108481,-4.38157e-05,-0.550318,0.000738242,0.00934427,727,673,-0.00816643,-0.0647385
-490,351,-0.000854492,0.0679321,-0.000363011,0.000479492,-0.000431148,0.000661018,-0.000544538,-1.17229,0.00069711,0.00871393,734,673,-0.00083631,-0.0679101
-483,351,-0.0137329,0.0720825,-0.000958472,0.000619786,-0.000421124,0.000725123,-0.00106381,-1.32569,0.00103899,0.0094402,741,673,-0.0137272,-0.0720923
-476,351,-0.0253296,0.0817871,-0.00128475,0.000640762,-0.000589142,0.000806716,-0.0014507,-1.29622,0.00132088,0.00937093,748,673,-0.0253013,-0.0817894
-469,351,-0.0258179,0.0783691,-0.000533348,0.000723363,-0.000977135,0.00125674,-0.00106673,-1.07114,0.00134295,0.0123591,755,673,-0.0258199,-0.0783918
-462,351,-0.017395,0.0716553,0.000197373,0.000132669,-0.00159329,0.00175864,-0.0014286,-0.775247,0.00184344,0.0143557,762,673,-0.017415,-0.071644
-455,351,-0.0161133,0.0623169,-0.000455753,-0.000126693,-0.00234022,0.00205477,-0.00263722,-0.820493,0.00271587,0.0131547,769,673,-0.0161104,-0.0622993
-448,351,-0.0625,0.0136719,-0.00157253,0.000247255,-0.00307744,0.0025465,-0.00387177,-0.929136,0.00373183,0.031248,776,673,-0.0625286,-0.01368
-441,351,-0.215454,-0.0643311,-0.00255093,0.00113929,-0.00361263,0.00335072,-0.00476237,-1.0215,0.00470767,0.0431808,783,673,-0.215434,0.0643006
-434,351,-0.172852,0.0134277,0,0,0,0,0,0,0,-1,790,673,-0.172825,-0.0134324
-427,351,-0.0567627,0.209351,-0.00667623,0.00222042,-0.0054426,0.00480128,-0.00925709,-1.128,0.00825138,0.0404204,797,673,-0.0567799,-0.209324
-420,351,-0.0838013,0.0830688,-0.0102892,0.00309132,-0.00652323,0.00574515,-0.0129431,-1.18442,0.0110532,0.0426592,804,673,-0.0838184,-0.0830912
-413,351,0.524109,-0.670349,-0.0153913,0.00384233,-0.00754185,0.00644691,-0.0179959,-1.23827,0.0146277,0.0448987,811,673,0.524136,0.670339
-406,351,0.0956421,-0.521545,-0.0222205,0.00497398,-0.00890699,0.00763157,-0.0248781,-1.28083,0.0196301,0.0461274,818,673,0.0956635,0.521574
-399,351,-0.546021,-0.569092,-0.0310942,0.00621799,-0.0101098,0.00878119,-0.0336574,-1.32249,0.025867,0.0451949,825,673,-0.546031,0.569107
-392,351,-0.770813,-0.61676,-0.0419249,0.00721435,-0.0114717,0.00976053,-0.0444711,-1.35238,0.03338,0.0481494,832,673,-0.770796,0.616755
-385,351,-1.16595,-0.554443,0,0,0,0,0,0,0,-1,839,673,-1.16598,0.554473
-378,351,0,0,0,0,0,0,0,0,0,-1,846,673,0,0
-371,351,0,0,0,0,0,0,0,0,0,-1,853,673,0,0
-364,351,0,0,0,0,0,0,0,0,0,-1,860,673,0,0
-357,351,0,0,0,0,0,0,0,0,0,-1,867,673,0,0
-350,351,0,0,0,0,0,0,0,0,0,-1,874,673,0,0
-343,351,0,0,0,0,0,0,0,0,0,-1,881,673,0,0
-336,351,0,0,0,0,0,0,0,0,0,-1,888,673,0,0
-329,351,0,0,0,0,0,0,0,0,0,-1,895,673,0,0
-322,351,0,0,0,0,0,0,0,0,0,-1,902,673,0,0
-315,351,0,0,0,0,0,0,0,0,0,-1,909,673,0,0
-308,351,0,0,0,0,0,0,0,0,0,-1,916,673,0,0
-301,351,0,0,0,0,0,0,0,0,0,-1,923,673,0,0
-294,351,0,0,0,0,0,0,0,0,0,-1,930,673,0,0
-287,351,0,0,0,0,0,0,0,0,0,-1,937,673,0,0
-280,351,0,0,0,0,0,0,0,0,0,-1,944,673,0,0
-273,351,0,0,0,0,0,0,0,0,0,-1,951,673,0,0
-266,351,0,0,0,0,0,0,0,0,0,-1,958,673,0,0
-259,351,0,0,0,0,0,0,0,0,0,-1,965,673,0,0
-252,351,0,0,0,0,0,0,0,0,0,-1,972,673,0,0
-245,351,0,0,0,0,0,0,0,0,0,-1,979,673,0,0
-238,351,0,0,0,0,0,0,0,0,0,-1,986,673,0,0
-231,351,0,0,0,0,0,0,0,0,0,-1,993,673,0,0
-224,351,0,0,0,0,0,0,0,0,0,-1,1000,673,0,0
-217,351,0,0,0,0,0,0,0,0,0,-1,1007,673,0,0
-210,351,0,0,0,0,0,0,0,0,0,-1,1014,673,0,0
-203,351,0,0,0,0,0,0,0,0,0,-1,1021,673,0,0
-196,351,0,0,0,0,0,0,0,0,0,-1,1028,673,0,0
-189,351,0,0,0,0,0,0,0,0,0,-1,1035,673,0,0
-182,351,0,0,0,0,0,0,0,0,0,-1,1042,673,0,0
-175,351,0,0,0,0,0,0,0,0,0,-1,1049,673,0,0
-168,351,0,0,0,0,0,0,0,0,0,-1,1056,673,0,0
-161,351,0,0,0,0,0,0,0,0,0,-1,1063,673,0,0
-154,351,0,0,0,0,0,0,0,0,0,-1,1070,673,0,0
-147,351,0,0,0,0,0,0,0,0,0,-1,1077,673,0,0
-140,351,0,0,0,0,0,0,0,0,0,-1,1084,673,0,0
-133,351,0,0,0,0,0,0,0,0,0,-1,1091,673,0,0
-126,351,0,0,0,0,0,0,0,0,0,-1,1098,673,0,0
-119,351,0,0,0,0,0,0,0,0,0,-1,1105,673,0,0
-112,351,0,0,0,0,0,0,0,0,0,-1,1112,673,0,0
-105,351,0,0,0,0,0,0,0,0,0,-1,1119,673,0,0
-98,351,0,0,0,0,0,0,0,0,0,-1,1126,673,0,0
-91,351,0,0,0,0,0,0,0,0,0,-1,1133,673,0,0
-84,351,0,0,0,0,0,0,0,0,0,-1,1140,673,0,0
-77,351,0,0,0,0,0,0,0,0,0,-1,1147,673,0,0
-70,351,0,0,0,0,0,0,0,0,0,-1,1154,673,0,0
-63,351,0,0,0,0,0,0,0,0,0,-1,1161,673,0,0
-56,351,0,0,0,0,0,0,0,0,0,-1,1168,673,0,0
-49,351,0,0,0,0,0,0,0,0,0,-1,1175,673,0,0
-42,351,0,0,0,0,0,0,0,0,0,-1,1182,673,0,0
-35,351,0,0,0,0,0,0,0,0,0,-1,1189,673,0,0
-28,351,0,0,0,0,0,0,0,0,0,-1,1196,673,0,0
-21,351,0,0,0,0,0,0,0,0,0,-1,1203,673,0,0
-14,351,0,0,0,0,0,0,0,0,0,-1,1210,673,0,0
-7,351,0,0,0,0,0,0,0,0,0,-1,1217,673,0,0
0,351,0,0,0,0,0,0,0,0,0,-1,1224,673,0,0
7,351,0,0,0,0,0,0,0,0,0,-1,1231,673,0,0
14,351,0,0,0,0,0,0,0,0,0,-1,1238,673,0,0
21,351,0,0,0,0,0,0,0,0,0,-1,1245,673,0,0
28,351,0,0,0,0,0,0,0,0,0,-1,1252,673,0,0
35,351,0,0,0,0,0,0,0,0,0,-1,1259,673,0,0
42,351,0,0,0,0,0,0,0,0,0,-1,1266,673,0,0
49,351,0,0,0,0,0,0,0,0,0,-1,1273,673,0,0
56,351,0,0,0,0,0,0,0,0,0,-1,1280,673,0,0
63,351,0,0,0,0,0,0,0,0,0,-1,1287,673,0,0
70,351,0,0,0,0,0,0,0,0,0,-1,1294,673,0,0
77,351,0,0,0,0,0,0,0,0,0,-1,1301,673,0,0
84,351,0,0,0,0,0,0,0,0,0,-1,1308,673,0,0
91,351,0,0,0,0,0,0,0,0,0,-1,1315,673,0,0
98,351,0,0,0,0,0,0,0,0,0,-1,1322,673,0,0
105,351,0,0,0,0,0,0,0,0,0,-1,1329,673,0,0
112,351,0,0,0,0,0,0,0,0,0,-1,1336,673,0,0
119,351,0,0,0,0,0,0,0,0,0,-1,1343,673,0,0
126,351,0,0,0,0,0,0,0,0,0,-1,1350,673,0,0
133,351,0,0,0,0,0,0,0,0,0,-1,1357,673,0,0
140,351,0,0,0,0,0,0,0,0,0,-1,1364,673,0,0
147,351,0,0,0,0,0,0,0,0,0,-1,1371,673,0,0
154,351,0,0,0,0,0,0,0,0,0,-1,1378,673,0,0
161,351,0,0,0,0,0,0,0,0,0,-1,1385,673,0,0
168,351,0,0,0,0,0,0,0,0,0,-1,1392,673,0,0
175,351,0,0,0,0,0,0,0,0,0,-1,1399,673,0,0
182,351,0,0,0,0,0,0,0,0,0,-1,1406,673,0,0
189,351,0,0,0,0,0,0,0,0,0,-1,1413,673,0,0
196,351,0,0,0,0,0,0,0,0,0,-1,1420,673,0,0
203,351,0,0,0,0,0,0,0,0,0,-1,1427,673,0,0
210,351,0,0,0,0,0,0,0,0,0,-1,1434,673,0,0
217,351,0,0,0,0,0,0,0,0,0,-1,1441,673,0,0
224,351,0,0,0,0,0,0,0,0,0,-1,1448,673,0,0
231,351,0,0,0,0,0,0,0,0,0,-1,1455,673,0,0
238,351,0,0,0,0,0,0,0,0,0,-1,1462,673,0,0
245,351,0,0,0,0,0,0,0,0,0,-1,1469,673,0,0
252,351,0,0,0,0,0,0,0,0,0,-1,1476,673,0,0
259,351,0,0,0,0,0,0,0,0,0,-1,1483,673,0,0
266,351,0,0,0,0,0,0,0,0,0,-1,1490,673,0,0
273,351,0,0,0,0,0,0,0,0,0,-1,1497,673,0,0
280,351,0,0,0,0,0,0,0,0,0,-1,1504,673,0,0
287,351,0,0,0,0,0,0,0,0,0,-1,1511,673,0,0
294,351,0,0,0,0,0,0,0,0,0,-1,1518,673,0,0
301,351,0,0,0,0,0,0,0,0,0,-1,1525,673,0,0
308,351,0,0,0,0,0,0,0,0,0,-1,1532,673,0,0
315,351,0,0,0,0,0,0,0,0,0,-1,1539,673,0,0
322,351,0,0,0,0,0,0,0,0,0,-1,1546,673,0,0
329,351,0,0,0,0,0,0,0,0,0,-1,1553,673,0,0
336,351,0,0,0,0,0,0,0,0,0,-1,1560,673,0,0
343,351,0,0,0,0,0,0,0,0,0,-1,1567,673,0,0
350,351,0,0,0,0,0,0,0,0,0,-1,1574,673,0,0
357,351,0,0,0,0,0,0,0,0,0,-1,1581,673,0,0
364,351,0,0,0,0,0,0,0,0,0,-1,1588,673,0,0
371,351,0,0,0,0,0,0,0,0,0,-1,1595,673,0,0
378,351,0,0,0,0,0,0,0,0,0,-1,1602,673,0,0
385,351,0,0,0,0,0,0,0,0,0,-1,1609,673,0,0
392,351,0,0,0,0,0,0,0,0,0,-1,1616,673,0,0
399,351,0,0,0,0,0,0,0,0,0,-1,1623,673,0,0
406,351,0,0,0,0,0,0,0,0,0,-1,1630,673,0,0
413,351,0,0,0,0,0,0,0,0,0,-1,1637,673,0,0
420,351,0,0,0,0,0,0,0,0,0,-1,1644,673,0,0
427,351,0,0,0,0,0,0,0,0,0,-1,1651,673,0,0
434,351,0,0,0,0,0,0,0,0,0,-1,1658,673,0,0
441,351,0,0,0,0,0,0,0,0,0,-1,1665,673,0,0
448,351,0,0,0,0,0,0,0,0,0,-1,1672,673,0,0
455,351,0,0,0,0,0,0,0,0,0,-1,1679,673,0,0
462,351,0,0,0,0,0,0,0,0,0,-1,1686,673,0,0
469,351,0,0,0,0,0,0,0,0,0,-1,1693,673,0,0
476,351,0,0,0,0,0,0,0,0,0,-1,1700,673,0,0
483,351,0,0,0,0,0,0,0,0,0,-1,1707,673,0,0
490,351,0,0,0,0,0,0,0,0,0,-1,1714,673,0,0
497,351,0,0,0,0,0,0,0,0,0,-1,1721,673,0,0
504,351,0.650146,-0.16803,0,0,0,0,0,0,0,-1,1728,673,0.650139,0.168035
511,351,0.666504,-0.382019,0,0,0,0,0,0,0,-1,1735,673,0.666512,0.382015
518,351,0.590576,-0.34021,7.10957e-05,0.0246031,0.0004451,0.0246112,6.30226e-05,1.55266,0.0163865,0.0425593,1742,673,0.59056,0.340205
525,351,0.754395,-0.711426,0.00105,0.0232164,0.000759389,0.0232424,0.00102402,1.53659,0.0151651,0.045348,1749,673,0.754392,0.711435
532,351,1.18188,-0.982056,0.00141323,0.0221958,0.00071087,0.0222201,0.00138894,1.53664,0.0143728,0.0479384,1756,673,1.18192,0.982063
539,351,0.86438,-0.320007,0.000869305,0.0201683,0.000169962,0.0201698,0.000867807,1.56199,0.0131668,0.0431875,1763,673,0.864343,0.320017
546,351,1.10559,-0.236633,0,0,0,0,0,0,0,-1,1770,673,1.10554,0.236621
553,351,0.50769,-0.158142,0,0,0,0,0,0,0,-1,1777,673,0.507663,0.158147
560,351,0.159912,-0.285034,0,0,0,0,0,0,0,-1,1784,673,0.159966,0.285042
567,351,0.183228,-0.0550537,-0.00306986,0.0133021,-0.00137798,0.0134173,-0.00318503,-1.48741,0.0101741,0.0477952,1791,673,0.183262,0.055025
574,351,0.102051,-0.00927734,-0.00369171,0.0101696,-0.00103214,0.0102461,-0.00376814,-1.49688,0.00837428,0.0447291,1798,673,0.102102,0.00925347
581,351,0.0141602,0.0355225,-0.00400822,0.00906567,-0.00126585,0.0091871,-0.00412966,-1.47516,0.00787108,0.0339601,1805,673,0.0141963,-0.0355028
588,351,-0.010498,0.0629272,-0.00382656,0.00810639,-0.00145162,0.00828044,-0.0040006,-1.45147,0.00723256,0.0158318,1812,673,-0.0104941,-0.0629135
595,351,-0.0419922,0.0646973,-0.00320979,0.00681818,-0.00140806,0.00701213,-0.00340375,-1.43391,0.00613272,0.0115056,1819,673,-0.042037,-0.0647268
602,351,-0.0551758,0.0536499,-0.00352146,0.00542448,-0.000697835,0.00547858,-0.00357557,-1.49341,0.00526576,0.0153284,1826,673,-0.0552105,-0.0536365
609,351,-0.0330811,0.027832,-0.00301013,0.0022407,0.000193675,0.00224784,-0.00301727,1.53398,0.00305061,0.0141055,1833,673,-0.0330739,-0.0278299
616,351,-0.0454102,0.0391846,-0.00177762,0.00194329,-0.000255991,0.00196082,-0.00179515,-1.50243,0.00216921,0.0130626,1840,673,-0.0453608,-0.0391972
623,351,-0.0449219,0.0206299,-0.000791674,0.00109309,-0.000481581,0.00120901,-0.000907594,-1.33458,0.00122615,0.012772,1847,673,-0.0449449,-0.0206512
630,351,-0.0351563,0.00579834,-0.000610913,0.000491481,-0.000411551,0.000628174,-0.000747606,-1.25012,0.000795304,0.0210898,1854,673,-0.035114,-0.0057932
637,351,-0.036499,0.0263062,-0.000929812,-2.10374e-05,-0.000427353,0.000148353,-0.0010992,-1.19342,0.000786928,0.026651,1861,673,-0.0365335,-0.0263276
644,351,-0.0563965,0.0431519,-0.00148314,-0.000435779,-0.000453135,-0.000266948,-0.00165197,-1.21415,0.001024,0.019585,1868,673,-0.0564406,-0.0431378
651,351,-0.0529785,0.0415649,-0.00211365,-0.00110738,-0.000723696,-0.000729106,-0.00249192,-1.08916,0.0014794,0.0140271,1875,673,-0.0529905,-0.0415591
658,351,-0.0341797,0.0705566,-0.00298212,-0.00152966,-0.000880468,-0.00111456,-0.00339722,-1.13025,0.00199966,0.0136192,1882,673,-0.0342241,-0.0705815
665,351,-0.0112305,0.0605469,-0.0042047,-0.00187131,-0.00108365,-0.00144568,-0.00463033,-1.19654,0.00273544,0.0177439,1889,673,-0.0112421,-0.0605503
672,351,0.0177002,0.0549927,-0.00554402,-0.00233188,-0.00143508,-0.00178414,-0.00609176,-1.20618,0.00361627,0.0243277,1896,673,0.017688,-0.055003
679,351,0.119263,0.175415,-0.00696977,-0.00275908,-0.00186382,-0.00205261,-0.00767624,-1.20849,0.00458895,0.0337203,1903,673,0.119297,-0.175398
686,351,-0.275513,0.292236,-0.00836416,-0.00309651,-0.00236344,-0.00219156,-0.0092691,-1.20512,0.00559386,0.0423141,1910,673,-0.275472,-0.292213
693,351,-0.629395,0.038208,-0.00961049,-0.00326556,-0.00288887,-0.00214732,-0.0107287,-1.20147,0.00655501,0.0457259,1917,673,-0.629399,-0.0382375
700,351,-0.962646,-0.0183105,-0.0104812,-0.00307776,-0.00338177,-0.00176559,-0.0117934,-1.20067,0.00734482,0.0444011,1924,673,-0.962692,0.018286
707,351,0,0,0,0,0,0,0,0,0,-1,1931,673,0,0
714,351,0,0,0,0,0,0,0,0,0,-1,1938,673,0,0
721,351,0,0,0,0,0,0,0,0,0,-1,1945,673,0,0
728,351,0,0,0,0,0,0,0,0,0,-1,1952,673,0,0
735,351,0,0,0,0,0,0,0,0,0,-1,1959,673,0,0
742,351,0,0,0,0,0,0,0,0,0,-1,1966,673,0,0
749,351,0,0,0,0,0,0,0,0,0,-1,1973,673,0,0
756,351,0,0,0,0,0,0,0,0,0,-1,1980,673,0,0
763,351,0,0,0,0,0,0,0,0,0,-1,1987,673,0,0
770,351,0,0,0,0,0,0,0,0,0,-1,1994,673,0,0
777,351,0,0,0,0,0,0,0,0,0,-1,2001,673,0,0
784,351,0,0,0,0,0,0,0,0,0,-1,2008,673,0,0
791,351,0,0,0,0,0,0,0,0,0,-1,2015,673,0,0
798,351,0,0,0,0,0,0,0,0,0,-1,2022,673,0,0
805,351,0,0,0,0,0,0,0,0,0,-1,2029,673,0,0
812,351,0,0,0,0,0,0,0,0,0,-1,2036,673,0,0
-700,344,0,0,0,0,0,0,0,0,0,-1,524,680,0,0
-693,344,0,0,0,0,0,0,0,0,0,-1,531,680,0,0
-686,344,0,0,0,0,0,0,0,0,0,-1,538,680,0,0
-679,344,0,0,0,0,0,0,0,0,0,-1,545,680,0,0
-672,344,0,0,0,0,0,0,0,0,0,-1,552,680,0,0
-665,344,0,0,0,0,0,0,0,0,0,-1,559,680,0,0
-658,344,0,0,0,0,0,0,0,0,0,-1,566,680,0,0
-651,344,0,0,0,0,0,0,0,0,0,-1,573,680,0,0
-644,344,0,0,0,0,0,0,0,0,0,-1,580,680,0,0
-637,344,0,0,0,0,0,0,0,0,0,-1,587,680,0,0
-630,344,0,0,0,0,0,0,0,0,0,-1,594,680,0,0
-623,344,0,0,0,0,0,0,0,0,0,-1,601,680,0,0
-616,344,0,0,0,0,0,0,0,0,0,-1,608,680,0,0
-609,344,0,0,0,0,0,0,0,0,0,-1,615,680,0,0
-602,344,0,0,0,0,0,0,0,0,0,-1,622,680,0,0
-595,344,0,0,0,0,0,0,0,0,0,-1,629,680,0,0
-588,344,0.235657,-1.6532,0,0,0,0,0,0,0,-1,636,680,0.235675,1.65319
-581,344,0.211182,-1.08575,0,0,0,0,0,0,0,-1,643,680,0.211196,1.08574
-574,344,-0.410278,0.578613,0,0,0,0,0,0,0,-1,650,680,-0.410309,-0.578623
-567,344,0.410645,-0.372559,0,0,0,0,0,0,0,-1,657,680,0.410634,0.372537
-560,344,-0.374512,0.550354,0,0,0,0,0,0,0,-1,664,680,-0.374488,-0.550345
-553,344,-0.412476,0.496338,0.00691818,-0.00431187,-0.00481876,0.00870241,-0.0060961,-0.354615,0.00858798,0.0446714,671,680,-0.412449,-0.496321
-546,344,-0.285583,0.25238,0.00577634,-0.00345606,-0.00399543,0.00726528,-0.00494501,-0.356719,0.00709191,0.0410332,678,680,-0.285598,-0.252369
-539,344,-0.0758057,0.0764771,0.00482904,-0.00282338,-0.0031935,0.00598664,-0.00398098,-0.347754,0.00579351,0.0329466,685,680,-0.0757856,-0.0764684
-532,344,0.00848389,0.0507202,0.00425712,-0.00237652,-0.00216012,0.00489851,-0.00301791,-0.288631,0.00461334,0.0165901,692,680,0.00846004,-0.0507256
-525,344,-0.0139771,0.0361328,0.00348418,-0.00210538,-0.00169868,0.00395993,-0.00258112,-0.27307,0.00380434,0.0136575,699,680,-0.0139743,-0.0361618
-518,344,-0.0494385,0.00537109,0.00212247,-0.00112557,-0.00121067,0.00252407,-0.00152718,-0.3203,0.00236248,0.0166136,706,680,-0.0494518,-0.00534715
-511,344,-0.0484619,0.0241699,0.00186505,-0.000160919,-0.000903335,0.00220933,-0.000505193,-0.36412,0.001667,0.0142756,713,680,-0.0484896,-0.0241646
-504,344,-0.0261841,0.015625,0.00181801,0.000331203,-0.000586254,0.00202136,0.000127853,-0.333877,0.00130704,0.0139495,720,680,-0.0261743,-0.0156491
-497,344,-0.0109863,0.0318604,0.000464945,0.00012243,-0.000576925,0.000895494,-0.00030812,-0.641118,0.000721963,0.0132056,727,680,-0.0109702,-0.0318744
-490,344,-0.020874,0.0515137,-0.00069883,0.000428593,-0.000580941,0.000674365,-0.000944602,-1.17057,0.000939041,0.0122185,734,680,-0.0208487,-0.0515365
-483,344,-0.0250854,0.0708008,-0.00121154,0.000574631,-0.000620339,0.000768938,-0.00140585,-1.26725,0.00127343,0.0110743,741,680,-0.0251035,-0.0707789
-476,344,-0.0206299,0.0794678,-0.00144378,0.000729696,-0.00086617,0.00103265,-0.00174674,-1.23433,0.00162224,0.0117894,748,680,-0.020645,-0.0794852
-469,344,-0.0297852,0.0731201,-0.000663196,0.000886671,-0.00134307,0.00166233,-0.00143886,-1.04706,0.00179202,0.010007,755,680,-0.0297607,-0.0731059
-462,344,-0.031311,0.0629272,5.96676e-05,0.000293617,-0.00209392,0.00227383,-0.00192055,-0.813301,0.00242449,0.0104761,762,680,-0.031286,-0.0629025
-455,344,-0.0202026,0.0618896,-0.000614274,-7.28974e-05,-0.00306038,0.00272874,-0.00341591,-0.829508,0.003555,0.0225431,769,680,-0.0202184,-0.061897
-448,344,-0.131409,0.0412598,-0.00172745,0.000210608,-0.00408872,0.00344356,-0.0049604,-0.901752,0.0048783,0.0398027,776,680,-0.131425,-0.0412311
-441,344,-0.288879,0.00549316,-0.00264683,0.000989936,-0.00490065,0.00439868,-0.00605557,-0.963049,0.00606098,0.045397,783,680,-0.288898,-0.0054844
-434,344,-0.351196,-0.0198975,-0.00396726,0.00143446,-0.00604881,0.005358,-0.00789081,-0.995372,0.00769566,0.0478587,790,680,-0.351221,0.0198969
-427,344,-0.291809,0.0281982,-0.00670785,0.00174688,-0.00734057,0.00599033,-0.0109513,-1.04665,0.00992005,0.044624,797,680,-0.2918,-0.0282196
-420,344,0.107361,0.19165,-0.010705,0.00244719,-0.0087174,0.00679071,-0.0150485,-1.10854,0.0129059,0.0435428,804,680,0.107366,-0.191672
-413,344,0.802307,-0.362244,-0.0166896,0.00322944,-0.0100306,0.00740513,-0.0208653,-1.17632,0.0169274,0.0420642,811,680,0.802336,0.362254
-406,344,0.401917,-0.220886,-0.0253754,0.00449301,-0.0115241,0.00842241,-0.0293048,-1.24219,0.022867,0.0440444,818,680,0.401896,0.220891
-399,344,-0.510925,-0.717529,-0.0369876,0.00599663,-0.0128188,0.00952918,-0.0405201,-1.3019,0.030687,0.0453854,825,680,-0.510949,0.717511
-392,344,-1.27661,-1.03595,-0.052496,0.00741529,-0.0141253,0.0105786,-0.0556593,-1.35049,0.0410889,0.0446945,832,680,-1.27663,1.03593
-385,344,0,0,0,0,0,0,0,0,0,-1,839,680,0,0
-378,344,0,0,0,0,0,0,0,0,0,-1,846,680,0,0
-371,344,0,0,0,0,0,0,0,0,0,-1,853,680,0,0
-364,344,0,0,0,0,0,0,0,0,0,-1,860,680,0,0
-357,344,0,0,0,0,0,0,0,0,0,-1,867,680,0,0
-350,344,0,0,0,0,0,0,0,0,0,-1,874,680,0,0
-343,344,0,0,0,0,0,0,0,0,0,-1,881,680,0,0
-336,344,0,0,0,0,0,0,0,0,0,-1,888,680,0,0
-329,344,0,0,0,0,0,0,0,0,0,-1,895,680,0,0
-322,344,0,0,0,0,0,0,0,0,0,-1,902,680,0,0
-315,344,0,0,0,0,0,0,0,0,0,-1,909,680,0,0
-308,344,0,0,0,0,0,0,0,0,0,-1,916,680,0,0
-301,344,0,0,0,0,0,0,0,0,0,-1,923,680,0,0
-294,344,0,0,0,0,0,0,0,0,0,-1,930,680,0,0
-287,344,0,0,0,0,0,0,0,0,0,-1,937,680,0,0
-280,344,0,0,0,0,0,0,0,0,0,-1,944,680,0,0
-273,344,0,0,0,0,0,0,0,0,0,-1,951,680,0,0
-266,344,0,0,0,0,0,0,0,0,0,-1,958,680,0,0
-259,344,0,0,0,0,0,0,0,0,0,-1,965,680,0,0
-252,344,0,0,0,0,0,0,0,0,0,-1,972,680,0,0
-245,344,0,0,0,0,0,0,0,0,0,-1,979,680,0,0
-238,344,0,0,0,0,0,0,0,0,0,-1,986,680,0,0
-231,344,0,0,0,0,0,0,0,0,0,-1,993,680,0,0
-224,344,0,0,0,0,0,0,0,0,0,-1,1000,680,0,0
-217,344,0,0,0,0,0,0,0,0,0,-1,1007,680,0,0
-210,344,0,0,0,0,0,0,0,0,0,-1,1014,680,0,0
-203,344,0,0,0,0,0,0,0,0,0,-1,1021,680,0,0
-196,344,0,0,0,0,0,0,0,0,0,-1,1028,680,0,0
-189,344,0,0,0,0,0,0,0,0,0,-1,1035,680,0,0
-182,344,0,0,0,0,0,0,0,0,0,-1,1042,680,0,0
-175,344,0,0,0,0,0,0,0,0,0,-1,1049,680,0,0
-168,344,0,0,0,0,0,0,0,0,0,-1,1056,680,0,0
-161,344,0,0,0,0,0,0,0,0,0,-1,1063,680,0,0
-154,344,0,0,0,0,0,0,0,0,0,-1,1070,680,0,0
-147,344,0,0,0,0,0,0,0,0,0,-1,1077,680,0,0
-140,344,0,0,0,0,0,0,0,0,0,-1,1084,680,0,0
-133,344,0,0,0,0,0,0,0,0,0,-1,1091,680,0,0
-126,344,0,0,0,0,0,0,0,0,0,-1,1098,680,0,0
-119,344,0,0,0,0,0,0,0,0,0,-1,1105,680,0,0
-112,344,0,0,0,0,0,0,0,0,0,-1,1112,680,0,0
-105,344,0,0,0,0,0,0,0,0,0,-1,1119,680,0,0
-98,344,0,0,0,0,0,0,0,0,0,-1,1126,680,0,0
-91,344,0,0,0,0,0,0,0,0,0,-1,1133,680,0,0
-84,344,0,0,0,0,0,0,0,0,0,-1,1140,680,0,0
-77,344,0,0,0,0,0,0,0,0,0,-1,1147,680,0,0
-70,344,0,0,0,0,0,0,0,0,0,-1,1154,680,0,0
-63,344,0,0,0,0,0,0,0,0,0,-1,1161,680,0,0
-56,344,0,0,0,0,0,0,0,0,0,-1,1168,680,0,0
-49,344,0,0,0,0,0,0,0,0,0,-1,1175,680,0,0
-42,344,0,0,0,0,0,0,0,0,0,-1,1182,680,0,0
-35,344,0,0,0,0,0,0,0,0,0,-1,1189,680,0,0
-28,344,0,0,0,0,0,0,0,0,0,-1,1196,680,0,0
-21,344,0,0,0,0,0,0,0,0,0,-1,1203,680,0,0
-14,344,0,0,0,0,0,0,0,0,0,-1,1210,680,0,0
-7,344,0,0,0,0,0,0,0,0,0,-1,1217,680,0,0
0,344,0,0,0,0,0,0,0,0,0,-1,1224,680,0,0
7,344,0,0,0,0,0,0,0,0,0,-1,1231,680,0,0
14,344,0,0,0,0,0,0,0,0,0,-1,1238,680,0,0
21,344,0,0,0,0,0,0,0,0,0,-1,1245,680,0,0
28,344,0,0,0,0,0,0,0,0,0,-1,1252,680,0,0
35,344,0,0,0,0,0,0,0,0,0,-1,1259,680,0,0
42,344,0,0,0,0,0,0,0,0,0,-1,1266,680,0,0
49,344,0,0,0,0,0,0,0,0,0,-1,1273,680,0,0
56,344,0,0,0,0,0,0,0,0,0,-1,1280,680,0,0
63,344,0,0,0,0,0,0,0,0,0,-1,1287,680,0,0
70,344,0,0,0,0,0,0,0,0,0,-1,1294,680,0,0
77,344,0,0,0,0,0,0,0,0,0,-1,1301,680,0,0
84,344,0,0,0,0,0,0,0,0,0,-1,1308,680,0,0
91,344,0,0,0,0,0,0,0,0,0,-1,1315,680,0,0
98,344,0,0,0,0,0,0,0,0,0,-1,1322,680,0,0
105,344,0,0,0,0,0,0,0,0,0,-1,1329,680,0,0
112,344,0,0,0,0,0,0,0,0,0,-1,1336,680,0,0
119,344,0,0,0,0,0,0,0,0,0,-1,1343,680,0,0
126,344,0,0,0,0,0,0,0,0,0,-1,1350,680,0,0
133,344,0,0,0,0,0,0,0,0,0,-1,1357,680,0,0
140,344,0,0,0,0,0,0,0,0,0,-1,1364,680,0,0
147,344,0,0,0,0,0,0,0,0,0,-1,1371,680,0,0
154,344,0,0,0,0,0,0,0,0,0,-1,1378,680,0,0
161,344,0,0,0,0,0,0,0,0,0,-1,1385,680,0,0
168,344,0,0,0,0,0,0,0,0,0,-1,1392,680,0,0
175,344,0,0,0,0,0,0,0,0,0,-1,1399,680,0,0
182,344,0,0,0,0,0,0,0,0,0,-1,1406,680,0,0
189,344,0,0,0,0,0,0,0,0,0,-1,1413,680,0,0
196,344,0,0,0,0,0,0,0,0,0,-1,1420,680,0,0
203,344,0,0,0,0,0,0,0,0,0,-1,1427,680,0,0
210,344,0,0,0,0,0,0,0,0,0,-1,1434,680,0,0
217,344,0,0,0,0,0,0,0,0,0,-1,1441,680,0,0
224,344,0,0,0,0,0,0,0,0,0,-1,1448,680,0,0
231,344,0,0,0,0,0,0,0,0,0,-1,1455,680,0,0
238,344,0,0,0,0,0,0,0,0,0,-1,1462,680,0,0
245,344,0,0,0,0,0,0,0,0,0,-1,1469,680,0,0
252,344,0,0,0,0,0,0,0,0,0,-1,1476,680,0,0
259,344,0,0,0,0,0,0,0,0,0,-1,1483,680,0,0
266,344,0,0,0,0,0,0,0,0,0,-1,1490,680,0,0
273,344,0,0,0,0,0,0,0,0,0,-1,1497,680,0,0
280,344,0,0,0,0,0,0,0,0,0,-1,1504,680,0,0
287,344,0,0,0,0,0,0,0,0,0,-1,1511,680,0,0
294,344,0,0,0,0,0,0,0,0,0,-1,1518,680,0,0
301,344,0,0,0,0,0,0,0,0,0,-1,1525,680,0,0
308,344,0,0,0,0,0,0,0,0,0,-1,1532,680,0,0
315,344,0,0,0,0,0,0,0,0,0,-1,1539,680,0,0
322,344,0,0,0,0,0,0,0,0,0,-1,1546,680,0,0
329,344,0,0,0,0,0,0,0,0,0,-1,1553,680,0,0
336,344,0,0,0,0,0,0,0,0,0,-1,1560,680,0,0
343,344,0,0,0,0,0,0,0,0,0,-1,1567,680,0,0
350,344,0,0,0,0,0,0,0,0,0,-1,1574,680,0,0
357,344,0,0,0,0,0,0,0,0,0,-1,1581,680,0,0
364,344,0,0,0,0,0,0,0,0,0,-1,1588,680,0,0
371,344,0,0,0,0,0,0,0,0,0,-1,1595,680,0,0
378,344,0,0,0,0,0,0,0,0,0,-1,1602,680,0,0
385,344,0,0,0,0,0,0,0,0,0,-1,1609,680,0,0
392,344,0,0,0,0,0,0,0,0,0,-1,1616,680,0,0
399,344,0,0,0,0,0,0,0,0,0,-1,1623,680,0,0
406,344,0,0,0,0,0,0,0,0,0,-1,1630,680,0,0
413,344,0,0,0,0,0,0,0,0,0,-1,1637,680,0,0
420,344,0,0,0,0,0,0,0,0,0,-1,1644,680,0,0
427,344,0,0,0,0,0,0,0,0,0,-1,1651,680,0,0
434,344,0,0,0,0,0,0,0,0,0,-1,1658,680,0,0
441,344,0,0,0,0,0,0,0,0,0,-1,1665,680,0,0
448,344,0,0,0,0,0,0,0,0,0,-1,1672,680,0,0
455,344,0,0,0,0,0,0,0,0,0,-1,1679,680,0,0
462,344,0,0,0,0,0,0,0,0,0,-1,1686,680,0,0
469,344,0,0,0,0,0,0,0,0,0,-1,1693,680,0,0
476,344,0,0,0,0,0,0,0,0,0,-1,1700,680,0,0
483,344,0,0,0,0,0,0,0,0,0,-1,1707,680,0,0
490,344,0,0,0,0,0,0,0,0,0,-1,1714,680,0,0
497,344,0,0,0,0,0,0,0,0,0,-1,1721,680,0,0
504,344,0,0,0,0,0,0,0,0,0,-1,1728,680,0,0
511,344,1.99634,-2.75537,0,0,0,0,0,0,0,-1,1735,680,1.99629,2.75537
518,344,1.75403,-2.05084,0.00205733,0.0253673,0.00237816,0.0256075,0.00181718,1.47015,0.0164993,0.0472215,1742,680,1.75409,2.05086
525,344,1.53271,-1.46985,0.00358688,0.0235674,0.00261527,0.023904,0.00325024,1.44278,0.0149707,0.0467609,1749,680,1.53271,1.46983
532,344,1.29663,-0.813965,0.00409958,0.0222025,0.00234122,0.0225004,0.00380169,1.44424,0.0139073,0.0454744,1756,680,1.29666,0.813936
539,344,0.776123,0.0845337,0.00339616,0.020143,0.00171529,0.0203168,0.00322227,1.46977,0.0126085,0.0409574,1763,680,0.776144,-0.0845525
546,344,0.526611,0.545654,0.00238949,0.0193922,0.00110759,0.019464,0.00231764,1.50602,0.0122766,0.0401784,1770,680,0.526555,-0.545676
553,344,0.404419,0.575256,0.000851502,0.0177867,0.000679524,0.0178139,0.000824281,1.53076,0.011611,0.0442685,1777,680,0.404415,-0.575266
560,344,1.48193,-1.47974,-0.000863174,0.0159395,0.000294265,0.0159446,-0.000868326,1.55329,0.0109307,0.047086,1784,680,1.48188,1.47974
567,344,0.354248,-0.167603,-0.00232615,0.0141126,8.10407e-05,0.014113,-0.00232655,1.56587,0.0102724,0.0465457,1791,680,0.354249,0.167598
574,344,0.233398,0.0247803,-0.00327031,0.0109903,0.000357298,0.0109993,-0.00327926,1.54576,0.00863602,0.0451261,1798,680,0.233398,-0.0247673
581,344,0.211792,-0.00299072,-0.0038051,0.0099869,-7.19819e-05,0.00998727,-0.00380547,-1.56558,0.00822553,0.0393302,1805,680,0.211803,0.00297447
588,344,0.0563965,0.0418701,-0.00377165,0.00910641,-0.000491461,0.00912513,-0.00379038,-1.53271,0.00766588,0.0295056,1812,680,0.05634,-0.0418854
595,344,-0.026123,0.0539551,-0.00324615,0.00774475,-0.00064393,0.00778235,-0.00328375,-1.51247,0.00656263,0.0151724,1819,680,-0.0261191,-0.0539791
602,344,0.00866699,0.045166,-0.00373568,0.00634629,-9.18219e-05,0.00634713,-0.00373652,-1.56169,0.00588647,0.015556,1826,680,0.00867294,-0.0451745
609,344,0.00683594,0.0505981,-0.00328907,0.00286593,0.000710428,0.00294686,-0.00337,1.45736,0.00364977,0.0144599,1833,680,0.00683568,-0.0506198
616,344,-0.0330811,0.0405273,-0.00197731,0.0024272,5.93718e-06,0.00242721,-0.00197732,1.56945,0.00254737,0.0205021,1840,680,-0.0330744,-0.0405334
623,344,-0.0145264,0.0328369,-0.000923333,0.00148847,-0.000471448,0.00157735,-0.00101221,-1.38446,0.00150691,0.0163456,1847,680,-0.0145742,-0.0328389
630,344,-0.0118408,0.0144653,-0.000633829,0.00067225,-0.000486134,0.000833327,-0.000794906,-1.25084,0.000940148,0.0210784,1854,680,-0.0118647,-0.0144754
637,344,-0.0279541,0.0175781,-0.000795188,4.71866e-05,-0.000500628,0.000280237,-0.00102824,-1.13511,0.000795531,0.0216636,1861,680,-0.0279916,-0.0175896
644,344,-0.0463867,0.0343628,-0.00123661,-0.000383493,-0.000476618,-0.000170429,-0.00144967,-1.15041,0.000914945,0.014289,1868,680,-0.0463326,-0.0343457
651,344,-0.03479,0.0441895,-0.00174838,-0.00105434,-0.000597027,-0.000710806,-0.00209192,-1.04866,0.00122826,0.0102458,1875,680,-0.0348222,-0.0442012
658,344,-0.0310059,0.0736694,-0.002429,-0.00133382,-0.000645183,-0.00103518,-0.00272765,-1.13728,0.00158998,0.0139848,1882,680,-0.0310621,-0.0736857
665,344,-0.0187988,0.0883789,-0.00338281,-0.00145921,-0.000683934,-0.00124083,-0.00360119,-1.26173,0.00211237,0.0169111,1889,680,-0.0187771,-0.0883949
672,344,-0.00256348,0.081665,-0.00435721,-0.00163779,-0.000806796,-0.00141644,-0.00457856,-1.30304,0.00270672,0.0122777,1896,680,-0.00261619,-0.0816838
679,344,0.0472412,0.0831299,-0.00536505,-0.00173781,-0.00092522,-0.00151544,-0.00558742,-1.33493,0.00333656,0.0267931,1903,680,0.0471812,-0.0831067
686,344,0.148438,-0.0932007,0,0,0,0,0,0,0,-1,1910,680,0.148431,0.0931958
693,344,-0.101685,0.0477905,-0.00708408,-0.00147885,-0.00103449,-0.00129402,-0.0072689,-1.394,0.00447737,0.0452668,1917,680,-0.101659,-0.0477602
700,344,0.353394,0.38269,-0.00756435,-0.000923772,-0.000913175,-0.000800486,-0.00768764,-1.4366,0.0048802,0.0439448,1924,680,0.353425,-0.382705
707,344,0.439087,0.368225,0,0,0,0,0,0,0,-1,1931,680,0.439077,-0.368255
714,344,0,0,0,0,0,0,0,0,0,-1,1938,680,0,0
721,344,0,0,0,0,0,0,0,0,0,-1,1945,680,0,0
728,344,0,0,0,0,0,0,0,0,0,-1,1952,680,0,0
735,344,0,0,0,0,0,0,0,0,0,-1,1959,680,0,0
742,344,0,0,0,0,0,0,0,0,0,-1,1966,680,0,0
749,344,0,0,0,0,0,0,0,0,0,-1,1973,680,0,0
756,344,0,0,0,0,0,0,0,0,0,-1,1980,680,0,0
763,344,0,0,0,0,0,0,0,0,0,-1,1987,680,0,0
770,344,0,0,0,0,0,0,0,0,0,-1,1994,680,0,0
777,344,0,0,0,0,0,0,0,0,0,-1,2001,680,0,0
784,344,0,0,0,0,0,0,0,0,0,-1,2008,680,0,0
791,344,0,0,0,0,0,0,0,0,0,-1,2015,680,0,0
798,344,0,0,0,0,0,0,0,0,0,-1,2022,680,0,0
805,344,0,0,0,0,0,0,0,0,0,-1,2029,680,0,0
812,344,0,0,0,0,0,0,0,0,0,-1,2036,680,0,0
-700,337,0,0,0,0,0,0,0,0,0,-1,524,687,0,0
-693,337,0,0,0,0,0,0,0,0,0,-1,531,687,0,0
-686,337,0,0,0,0,0,0,0,0,0,-1,538,687,0,0
-679,337,0,0,0,0,0,0,0,0,0,-1,545,687,0,0
-672,337,0,0,0,0,0,0,0,0,0,-1,552,687,0,0
-665,337,0,0,0,0,0,0,0,0,0,-1,559,687,0,0
-658,337,0,0,0,0,0,0,0,0,0,-1,566,687,0,0
-651,337,0,0,0,0,0,0,0,0,0,-1,573,687,0,0
-644,337,0,0,0,0,0,0,0,0,0,-1,580,687,0,0
-637,337,0,0,0,0,0,0,0,0,0,-1,587,687,0,0
-630,337,0,0,0,0,0,0,0,0,0,-1,594,687,0,0
-623,337,0,0,0,0,0,0,0,0,0,-1,601,687,0,0
-616,337,0,0,0,0,0,0,0,0,0,-1,608,687,0,0
-609,337,0,0,0,0,0,0,0,0,0,-1,615,687,0,0
-602,337,0,0,0,0,0,0,0,0,0,-1,622,687,0,0
-595,337,0,0,0,0,0,0,0,0,0,-1,629,687,0,0
-588,337,0.341675,-1.81781,0,0,0,0,0,0,0,-1,636,687,0.341664,1.81779
-581,337,-0.490723,0.873718,0,0,0,0,0,0,0,-1,643,687,-0.490719,-0.873693
-574,337,-0.302673,0.565613,0.0104132,-0.0018671,-0.0121849,0.0179175,-0.00937148,-0.552011,0.0160108,0.0497281,650,687,-0.302687,-0.565636
-567,337,0.340393,-0.353149,0.00877497,-0.00303256,-0.00984259,0.0143486,-0.00860621,-0.515255,0.0133905,0.045608,657,687,0.340396,0.353171
-560,337,-0.186707,-0.289734,0.00725044,-0.00365122,-0.00782075,0.0113325,-0.00773327,-0.481054,0.0110728,0.0429637,664,687,-0.186719,0.289758
-553,337,-0.412964,0.0411987,0.00595147,-0.0037971,-0.00612716,0.00890667,-0.00675229,-0.449396,0.00906918,0.0445644,671,687,-0.412974,-0.0412221
-546,337,-0.0806885,0.0333252,0.00488117,-0.00329192,-0.00477733,0.00708133,-0.00549209,-0.431587,0.00727857,0.0371096,678,687,-0.0807118,-0.0333518
-539,337,-0.0182495,0.0378418,0.00398161,-0.00297779,-0.00357469,0.00549057,-0.00448675,-0.399431,0.00577012,0.0201603,685,687,-0.0182434,-0.0378365
-532,337,0.000244141,0.05896,0.0035451,-0.00282868,-0.00220657,0.00423444,-0.00351802,-0.3028,0.00448225,0.0109538,692,687,0.000251386,-0.0589434
-525,337,-0.0222778,0.0396729,0.00286005,-0.00266231,-0.00157417,0.00327725,-0.00307951,-0.259074,0.00367067,0.0130747,699,687,-0.0222947,-0.0396553
-518,337,-0.0697632,-0.00646973,0.00158185,-0.00169784,-0.00102703,0.00187692,-0.0019929,-0.279766,0.00223458,0.0187904,706,687,-0.0697847,0.00648696
-511,337,-0.0869751,-0.00628662,0.00134972,-0.000697731,-0.000651925,0.00153967,-0.000887687,-0.283526,0.00141819,0.0192593,713,687,-0.0869859,0.00630016
-504,337,-0.0604858,-0.0045166,0.00131908,-0.000120248,-0.000332538,0.00139219,-0.000193363,-0.216425,0.00099884,0.018728,720,687,-0.0604706,0.00449665
-497,337,-0.0289917,0.0250244,-8.7256e-05,-0.000247949,-0.000447435,0.000286989,-0.000622194,-0.696559,0.000536678,0.0140697,727,687,-0.0289814,-0.0250026
-490,337,-0.0448608,0.0449829,-0.00135892,0.000169641,-0.000617451,0.000387893,-0.00157717,-1.23103,0.0012018,0.01325,734,687,-0.0448472,-0.0449696
-483,337,-0.0176392,0.0515747,-0.0018484,0.000297213,-0.000787792,0.000555395,-0.00210658,-1.2541,0.00162154,0.0123607,741,687,-0.0176105,-0.0515729
-476,337,-0.00585938,0.0637207,-0.00200038,0.000613199,-0.00116755,0.0010588,-0.00244598,-1.2062,0.00207564,0.0108003,748,687,-0.00583235,-0.0637496
-469,337,-0.0159302,0.0565186,-0.00126096,0.000838354,-0.00177576,0.00185149,-0.00227409,-1.05232,0.00238607,0.00991128,755,687,-0.0159219,-0.0565322
-462,337,-0.0459595,0.0430908,-0.000591763,0.000268095,-0.00269352,0.00256578,-0.00288945,-0.864539,0.00315142,0.0188898,762,687,-0.0459809,-0.0430645
-455,337,0.17926,0.211609,0,0,0,0,0,0,0,-1,769,687,0.179289,-0.211613
-448,337,-0.0858765,0.173523,-0.00230202,2.55212e-05,-0.00525064,0.00423982,-0.00651632,-0.894457,0.00625625,0.0460496,776,687,-0.0858501,-0.17353
-441,337,-0.473633,-0.0368042,-0.00312256,0.000621333,-0.00633018,0.00535055,-0.00785177,-0.92916,0.00766783,0.0468071,783,687,-0.473658,0.0367955
-434,337,-0.265564,-0.170044,-0.00429821,0.00078026,-0.00774721,0.00639375,-0.0099117,-0.943762,0.00948671,0.0443386,790,687,-0.265559,0.17003
-427,337,0.36676,-0.225525,0,0,0,0,0,0,0,-1,797,687,0.366757,0.225521
-420,337,0.19519,-0.017395,-0.0111894,0.001221,-0.0109607,0.00761109,-0.0175795,-1.04297,0.0149186,0.0463355,804,687,0.195179,0.0173714
-413,337,1.44714,0.335632,-0.0177359,0.00165949,-0.0126744,0.00792065,-0.0239971,-1.11196,0.0191911,0.0445642,811,687,1.44713,-0.335637
-406,337,0.788757,0.116516,-0.0275642,0.00257893,-0.0145494,0.00845583,-0.0334411,-1.18691,0.0255828,0.0430782,818,687,0.78874,-0.116507
-399,337,-0.533264,-0.912903,-0.0409701,0.00371067,-0.0164686,0.0091247,-0.0463841,-1.25318,0.0343705,0.0436494,825,687,-0.533239,0.912894
-392,337,0,0,0,0,0,0,0,0,0,-1,832,687,0,0
-385,337,0,0,0,0,0,0,0,0,0,-1,839,687,0,0
-378,337,0,0,0,0,0,0,0,0,0,-1,846,687,0,0
-371,337,0,0,0,0,0,0,0,0,0,-1,853,687,0,0
-364,337,0,0,0,0,0,0,0,0,0,-1,860,687,0,0
-357,337,0,0,0,0,0,0,0,0,0,-1,867,687,0,0
-350,337,0,0,0,0,0,0,0,0,0,-1,874,687,0,0
-343,337,0,0,0,0,0,0,0,0,0,-1,881,687,0,0
-336,337,0,0,0,0,0,0,0,0,0,-1,888,687,0,0
-329,337,0,0,0,0,0,0,0,0,0,-1,895,687,0,0
-322,337,0,0,0,0,0,0,0,0,0,-1,902,687,0,0
-315,337,0,0,0,0,0,0,0,0,0,-1,909,687,0,0
-308,337,0,0,0,0,0,0,0,0,0,-1,916,687,0,0
-301,337,0,0,0,0,0,0,0,0,0,-1,923,687,0,0
-294,337,0,0,0,0,0,0,0,0,0,-1,930,687,0,0
-287,337,0,0,0,0,0,0,0,0,0,-1,937,687,0,0
-280,337,0,0,0,0,0,0,0,0,0,-1,944,687,0,0
-273,337,0,0,0,0,0,0,0,0,0,-1,951,687,0,0
-266,337,0,0,0,0,0,0,0,0,0,-1,958,687,0,0
-259,337,0,0,0,0,0,0,0,0,0,-1,965,687,0,0
-252,337,0,0,0,0,0,0,0,0,0,-1,972,687,0,0
-245,337,0,0,0,0,0,0,0,0,0,-1,979,687,0,0
-238,337,0,0,0,0,0,0,0,0,0,-1,986,687,0,0
-231,337,0,0,0,0,0,0,0,0,0,-1,993,687,0,0
-224,337,0,0,0,0,0,0,0,0,0,-1,1000,687,0,0
-217,337,0,0,0,0,0,0,0,0,0,-1,1007,687,0,0
-210,337,0,0,0,0,0,0,0,0,0,-1,1014,687,0,0
-203,337,0,0,0,0,0,0,0,0,0,-1,1021,687,0,0
-196,337,0,0,0,0,0,0,0,0,0,-1,1028,687,0,0
-189,337,0,0,0,0,0,0,0,0,0,-1,1035,687,0,0
-182,337,0,0,0,0,0,0,0,0,0,-1,1042,687,0,0
-175,337,0,0,0,0,0,0,0,0,0,-1,1049,687,0,0
-168,337,0,0,0,0,0,0,0,0,0,-1,1056,687,0,0
-161,337,0,0,0,0,0,0,0,0,0,-1,1063,687,0,0
-154,337,0,0,0,0,0,0,0,0,0,-1,1070,687,0,0
-147,337,0,0,0,0,0,0,0,0,0,-1,1077,687,0,0
-140,337,0,0,0,0,0,0,0,0,0,-1,1084,687,0,0
-133,337,0,0,0,0,0,0,0,0,0,-1,1091,687,0,0
-126,337,0,0,0,0,0,0,0,0,0,-1,1098,687,0,0
-119,337,0,0,0,0,0,0,0,0,0,-1,1105,687,0,0
-112,337,0,0,0,0,0,0,0,0,0,-1,1112,687,0,0
-105,337,0,0,0,0,0,0,0,0,0,-1,1119,687,0,0
-98,337,0,0,0,0,0,0,0,0,0,-1,1126,687,0,0
-91,337,0,0,0,0,0,0,0,0,0,-1,1133,687,0,0
-84,337,0,0,0,0,0,0,0,0,0,-1,1140,687,0,0
-77,337,0,0,0,0,0,0,0,0,0,-1,1147,687,0,0
-70,337,0,0,0,0,0,0,0,0,0,-1,1154,687,0,0
-63,337,0,0,0,0,0,0,0,0,0,-1,1161,687,0,0
-56,337,0,0,0,0,0,0,0,0,0,-1,1168,687,0,0
-49,337,0,0,0,0,0,0,0,0,0,-1,1175,687,0,0
-42,337,0,0,0,0,0,0,0,0,0,-1,1182,687,0,0
-35,337,0,0,0,0,0,0,0,0,0,-1,1189,687,0,0
-28,337,0,0,0,0,0,0,0,0,0,-1,1196,687,0,0
-21,337,0,0,0,0,0,0,0,0,0,-1,1203,687,0,0
-14,337,0,0,0,0,0,0,0,0,0,-1,1210,687,0,0
-7,337,0,0,0,0,0,0,0,0,0,-1,1217,687,0,0
0,337,0,0,0,0,0,0,0,0,0,-1,1224,687,0,0
7,337,0,0,0,0,0,0,0,0,0,-1,1231,687,0,0
14,337,0,0,0,0,0,0,0,0,0,-1,1238,687,0,0
21,337,0,0,0,0,0,0,0,0,0,-1,1245,687,0,0
28,337,0,0,0,0,0,0,0,0,0,-1,1252,687,0,0
35,337,0,0,0,0,0,0,0,0,0,-1,1259,687,0,0
42,337,0,0,0,0,0,0,0,0,0,-1,1266,687,0,0
49,337,0,0,0,0,0,0,0,0,0,-1,1273,687,0,0
56,337,0,0,0,0,0,0,0,0,0,-1,1280,687,0,0
63,337,0,0,0,0,0,0,0,0,0,-1,1287,687,0,0
70,337,0,0,0,0,0,0,0,0,0,-1,1294,687,0,0
77,337,0,0,0,0,0,0,0,0,0,-1,1301,687,0,0
84,337,0,0,0,0,0,0,0,0,0,-1,1308,687,0,0
91,337,0,0,0,0,0,0,0,0,0,-1,1315,687,0,0
98,337,0,0,0,0,0,0,0,0,0,-1,1322,687,0,0
105,337,0,0,0,0,0,0,0,0,0,-1,1329,687,0,0
112,337,0,0,0,0,0,0,0,0,0,-1,1336,687,0,0
119,337,0,0,0,0,0,0,0,0,0,-1,1343,687,0,0
126,337,0,0,0,0,0,0,0,0,0,-1,1350,687,0,0
133,337,0,0,0,0,0,0,0,0,0,-1,1357,687,0,0
140,337,0,0,0,0,0,0,0,0,0,-1,1364,687,0,0
147,337,0,0,0,0,0,0,0,0,0,-1,1371,687,0,0
154,337,0,0,0,0,0,0,0,0,0,-1,1378,687,0,0
161,337,0,0,0,0,0,0,0,0,0,-1,1385,687,0,0
168,337,0,0,0,0,0,0,0,0,0,-1,1392,687,0,0
175,337,0,0,0,0,0,0,0,0,0,-1,1399,687,0,0
182,337,0,0,0,0,0,0,0,0,0,-1,1406,687,0,0
189,337,0,0,0,0,0,0,0,0,0,-1,1413,687,0,0
196,337,0,0,0,0,0,0,0,0,0,-1,1420,687,0,0
203,337,0,0,0,0,0,0,0,0,0,-1,1427,687,0,0
210,337,0,0,0,0,0,0,0,0,0,-1,1434,687,0,0
217,337,0,0,0,0,0,0,0,0,0,-1,1441,687,0,0
224,337,0,0,0,0,0,0,0,0,0,-1,1448,687,0,0
231,337,0,0,0,0,0,0,0,0,0,-1,1455,687,0,0
238,337,0,0,0,0,0,0,0,0,0,-1,1462,687,0,0
245,337,0,0,0,0,0,0,0,0,0,-1,1469,687,0,0
252,337,0,0,0,0,0,0,0,0,0,-1,1476,687,0,0
259,337,0,0,0,0,0,0,0,0,0,-1,1483,687,0,0
266,337,0,0,0,0,0,0,0,0,0,-1,1490,687,0,0
273,337,0,0,0,0,0,0,0,0,0,-1,1497,687,0,0
280,337,0,0,0,0,0,0,0,0,0,-1,1504,687,0,0
287,337,0,0,0,0,0,0,0,0,0,-1,1511,687,0,0
294,337,0,0,0,0,0,0,0,0,0,-1,1518,687,0,0
301,337,0,0,0,0,0,0,0,0,0,-1,1525,687,0,0
308,337,0,0,0,0,0,0,0,0,0,-1,1532,687,0,0
315,337,0,0,0,0,0,0,0,0,0,-1,1539,687,0,0
322,337,0,0,0,0,0,0,0,0,0,-1,1546,687,0,0
329,337,0,0,0,0,0,0,0,0,0,-1,1553,687,0,0
336,337,0,0,0,0,0,0,0,0,0,-1,1560,687,0,0
343,337,0,0,0,0,0,0,0,0,0,-1,1567,687,0,0
350,337,0,0,0,0,0,0,0,0,0,-1,1574,687,0,0
357,337,0,0,0,0,0,0,0,0,0,-1,1581,687,0,0
364,337,0,0,0,0,0,0,0,0,0,-1,1588,687,0,0
371,337,0,0,0,0,0,0,0,0,0,-1,1595,687,0,0
378,337,0,0,0,0,0,0,0,0,0,-1,1602,687,0,0
385,337,0,0,0,0,0,0,0,0,0,-1,1609,687,0,0
392,337,0,0,0,0,0,0,0,0,0,-1,1616,687,0,0
399,337,0,0,0,0,0,0,0,0,0,-1,1623,687,0,0
406,337,0,0,0,0,0,0,0,0,0,-1,1630,687,0,0
413,337,0,0,0,0,0,0,0,0,0,-1,1637,687,0,0
420,337,0,0,0,0,0,0,0,0,0,-1,1644,687,0,0
427,337,0,0,0,0,0,0,0,0,0,-1,1651,687,0,0
434,337,0,0,0,0,0,0,0,0,0,-1,1658,687,0,0
441,337,0,0,0,0,0,0,0,0,0,-1,1665,687,0,0
448,337,0,0,0,0,0,0,0,0,0,-1,1672,687,0,0
455,337,0,0,0,0,0,0,0,0,0,-1,1679,687,0,0
462,337,0,0,0,0,0,0,0,0,0,-1,1686,687,0,0
469,337,0,0,0,0,0,0,0,0,0,-1,1693,687,0,0
476,337,0,0,0,0,0,0,0,0,0,-1,1700,687,0,0
483,337,0,0,0,0,0,0,0,0,0,-1,1707,687,0,0
490,337,0,0,0,0,0,0,0,0,0,-1,1714,687,0,0
497,337,0,0,0,0,0,0,0,0,0,-1,1721,687,0,0
504,337,0,0,0,0,0,0,0,0,0,-1,1728,687,0,0
511,337,0,0,0,0,0,0,0,0,0,-1,1735,687,0,0
518,337,1.70081,-1.65436,0,0,0,0,0,0,0,-1,1742,687,1.7008,1.65438
525,337,1.41296,-1.08246,0.00564241,0.0236143,0.00527448,0.0250479,0.00420879,1.3054,0.0154875,0.0464293,1749,687,1.41302,1.08247
532,337,1.1582,-0.472107,0.00656264,0.0218867,0.00449997,0.0231104,0.00533893,1.30528,0.0139716,0.0430724,1756,687,1.15824,0.472129
539,337,0.509155,0.449585,0,0,0,0,0,0,0,-1,1763,687,0.509111,-0.449583
546,337,0.18042,0.921631,0.00452882,0.0190793,0.00273829,0.0195776,0.00403056,1.3908,0.0119372,0.040076,1770,687,0.180472,-0.921638
553,337,2.25549,-1.85852,0.00257308,0.0177571,0.00218484,0.0180652,0.00226495,1.43069,0.011364,0.0464742,1777,687,2.25553,1.85854
560,337,1.87329,-1.19983,0.000448959,0.016254,0.00172861,0.0164409,0.000262109,1.46312,0.0108743,0.043915,1784,687,1.87327,1.19982
567,337,1.5083,-0.337402,-0.00137159,0.0147156,0.00144305,0.014844,-0.00150001,1.48204,0.010432,0.0424179,1791,687,1.50824,0.337372
574,337,0.922729,0.0905762,-0.0025961,0.0116976,0.00155574,0.011865,-0.00276347,1.46363,0.00897414,0.0427917,1798,687,0.922787,-0.0906048
581,337,0.415527,0.0252075,-0.00331665,0.0107998,0.000891397,0.0108559,-0.00337272,1.50798,0.00858525,0.0422614,1805,687,0.415484,-0.0252025
588,337,0.146118,0.00408936,-0.00342596,0.00997091,0.000246187,0.00997543,-0.00343048,1.55243,0.0080415,0.0425499,1812,687,0.14613,-0.00406013
595,337,-0.026123,0.0477905,-0.00301988,0.00854424,-7.16221e-05,0.00854468,-0.00302032,-1.5646,0.00692633,0.0302109,1819,687,-0.0261064,-0.0477719
602,337,0.000366211,0.055542,-0.00367761,0.00716541,0.000342684,0.00717623,-0.00368843,1.53923,0.00637954,0.0116577,1826,687,0.000405633,-0.0555278
609,337,0.00720215,0.0653076,-0.00330592,0.00349068,0.00105817,0.00365161,-0.00346685,1.41986,0.00411031,0.0152619,1833,687,0.00715051,-0.0653341
616,337,-0.0291748,0.0568848,-0.00197585,0.00292351,0.000183124,0.00293034,-0.00198268,1.53349,0.00285407,0.0173111,1840,687,-0.0291579,-0.0568555
623,337,-0.0128174,0.0358887,-0.000931346,0.00194267,-0.000447737,0.00201081,-0.000999482,-1.41978,0.00177038,0.0141989,1847,687,-0.0128295,-0.0359112
630,337,-0.00378418,0.0418701,-0.000563222,0.000907255,-0.000486848,0.00105383,-0.000709798,-1.27836,0.00102467,0.0174992,1854,687,-0.00373943,-0.0418486
637,337,-0.0187988,0.0393677,-0.000561176,0.000191552,-0.000474704,0.000420989,-0.000790612,-1.12058,0.000710286,0.0153525,1861,687,-0.0188374,-0.0393516
644,337,-0.0285645,0.0413818,-0.000905668,-0.000233927,-0.000376986,-6.48947e-05,-0.0010747,-1.14929,0.000695845,0.00969051,1868,687,-0.0285877,-0.0413847
651,337,-0.0128174,0.0435791,-0.00133437,-0.000885676,-0.000323245,-0.000716552,-0.00150349,-1.08876,0.000868357,0.00873493,1875,687,-0.0128541,-0.0435675
658,337,-0.0230713,0.0550537,-0.00187804,-0.00103872,-0.000258267,-0.000965617,-0.00195115,-1.29496,0.00112651,0.0106229,1882,687,-0.0230686,-0.0550272
665,337,-0.0240479,0.0531006,-0.00263986,-0.000975934,-0.000154325,-0.000961742,-0.00265405,-1.47909,0.00155155,0.0127461,1889,687,-0.0239985,-0.0530803
672,337,-0.0145264,0.0523071,-0.00335716,-0.000929652,-6.27125e-05,-0.000928033,-0.00335878,-1.54499,0.00200284,0.0113709,1896,687,-0.0145232,-0.0523109
679,337,-0.0667725,0.0360107,-0.00408898,-0.000771102,9.8582e-05,-0.000768175,-0.00409191,1.54112,0.00251135,0.0272652,1903,687,-0.0667484,-0.035991
686,337,-0.136963,0.0365601,-0.00476279,-0.000467996,0.00036695,-0.000436869,-0.00479391,1.48617,0.00306073,0.0389702,1910,687,-0.137019,-0.0365529
693,337,-0.13916,0.192627,-0.00531799,4.61687e-05,0.000791656,0.000160564,-0.00543238,1.42729,0.00367628,0.0411204,1917,687,-0.13922,-0.192614
700,337,0.120483,0.439758,-0.005688,0.00086218,0.00144527,0.0011669,-0.00599271,1.363,0.00443557,0.0413091,1924,687,0.120504,-0.439772
707,337,0.291016,0.521484,-0.00579134,0.00209309,0.00241399,0.00277347,-0.00647173,1.29607,0.00547822,0.0428942,1931,687,0.290989,-0.521458
714,337,0,0,0,0,0,0,0,0,0,-1,1938,687,0,0
721,337,0,0,0,0,0,0,0,0,0,-1,1945,687,0,0
728,337,0,0,0,0,0,0,0,0,0,-1,1952,687,0,0
735,337,0,0,0,0,0,0,0,0,0,-1,1959,687,0,0
742,337,0,0,0,0,0,0,0,0,0,-1,1966,687,0,0
749,337,0,0,0,0,0,0,0,0,0,-1,1973,687,0,0
756,337,0,0,0,0,0,0,0,0,0,-1,1980,687,0,0
763,337,0,0,0,0,0,0,0,0,0,-1,1987,687,0,0
770,337,0,0,0,0,0,0,0,0,0,-1,1994,687,0,0
777,337,0,0,0,0,0,0,0,0,0,-1,2001,687,0,0
784,337,0,0,0,0,0,0,0,0,0,-1,2008,687,0,0
791,337,0,0,0,0,0,0,0,0,0,-1,2015,687,0,0
798,337,0,0,0,0,0,0,0,0,0,-1,2022,687,0,0
805,337,0,0,0,0,0,0,0,0,0,-1,2029,687,0,0
812,337,0,0,0,0,0,0,0,0,0,-1,2036,687,0,0
-700,330,0,0,0,0,0,0,0,0,0,-1,524,694,0,0
-693,330,0,0,0,0,0,0,0,0,0,-1,531,694,0,0
-686,330,0,0,0,0,0,0,0,0,0,-1,538,694,0,0
-679,330,0,0,0,0,0,0,0,0,0,-1,545,694,0,0
-672,330,0,0,0,0,0,0,0,0,0,-1,552,694,0,0
-665,330,0,0,0,0,0,0,0,0,0,-1,559,694,0,0
-658,330,0,0,0,0,0,0,0,0,0,-1,566,694,0,0
-651,330,0,0,0,0,0,0,0,0,0,-1,573,694,0,0
-644,330,0,0,0,0,0,0,0,0,0,-1,580,694,0,0
-637,330,0,0,0,0,0,0,0,0,0,-1,587,694,0,0
-630,330,0,0,0,0,0,0,0,0,0,-1,594,694,0,0
-623,330,0,0,0,0,0,0,0,0,0,-1,601,694,0,0
-616,330,0,0,0,0,0,0,0,0,0,-1,608,694,0,0
-609,330,0,0,0,0,0,0,0,0,0,-1,615,694,0,0
-602,330,0,0,0,0,0,0,0,0,0,-1,622,694,0,0
-595,330,-0.411987,0.365723,0,0,0,0,0,0,0,-1,629,694,-0.411994,-0.365693
-588,330,-0.927673,1.28723,0,0,0,0,0,0,0,-1,636,694,-0.927666,-1.28725
-581,330,-0.598145,0.945557,0.0103668,0.00276044,-0.0195874,0.0265168,-0.0133896,-0.689509,0.0234518,0.0488725,643,694,-0.59814,-0.945572
-574,330,-0.299011,0.637695,0.00912454,0.000496475,-0.0157468,0.0211376,-0.0115165,-0.651698,0.0191237,0.0443763,650,694,-0.29899,-0.637714
-567,330,0.0834961,0.122986,0.00777939,-0.00126524,-0.0123143,0.0163755,-0.00986132,-0.609422,0.0153027,0.0438182,657,694,0.0835233,-0.123009
-560,330,-0.0924072,-0.0671997,0.00644186,-0.00240413,-0.00942948,0.0124341,-0.00839641,-0.566103,0.0121016,0.039552,664,694,-0.0924062,0.0671815
-553,330,-0.18396,-0.0881958,0.00525043,-0.0029807,-0.0070727,0.00931783,-0.0070481,-0.521898,0.00947912,0.0342514,671,694,-0.18396,0.0881726
-546,330,0.00476074,0.0128784,0.00422098,-0.00277837,-0.00525449,0.00703458,-0.00559196,-0.491615,0.00730578,0.0208127,678,694,0.00478073,-0.0128963
-539,330,0.0057373,0.0568237,0.00329509,-0.00277516,-0.00366415,0.0050179,-0.00449797,-0.439509,0.00549672,0.00885511,685,694,0.0057524,-0.0567981
-532,330,-0.0133667,0.0586548,0.0028955,-0.00295411,-0.00196946,0.00349678,-0.00355539,-0.296313,0.00407162,0.00848364,692,694,-0.013382,-0.0586319
-525,330,-0.0275879,0.0488892,0.00222623,-0.00290652,-0.00114824,0.00247139,-0.00315168,-0.210351,0.00325439,0.0105464,699,694,-0.0276159,-0.0488863
-518,330,-0.0529175,0.0427856,0.00100067,-0.00197182,-0.000537716,0.00109495,-0.0020661,-0.173572,0.00185352,0.0131184,706,694,-0.0528949,-0.0428111
-511,330,-0.0523682,0.0318604,0.000708403,-0.000984483,-9.85807e-05,0.000714125,-0.000990204,-0.0579712,0.000988289,0.0167715,713,694,-0.0523821,-0.0318557
-504,330,-0.0334473,0.0223999,0.000609863,-0.00034573,0.000225804,0.000660533,-0.0003964,0.220742,0.00061654,0.0153797,720,694,-0.0334561,-0.0224211
-497,330,-0.0341187,0.0512085,-0.00086265,-0.000387993,1.45026e-05,-0.00038755,-0.000863093,1.54028,0.000499169,0.0113179,727,694,-0.0341419,-0.0512145
-490,330,-0.0319214,0.0404663,-0.00219922,0.000130685,-0.000303399,0.000169545,-0.00223808,-1.44341,0.00155166,0.0121496,734,694,-0.0319281,-0.040489
-483,330,-0.0177002,0.036499,-0.00261747,0.000202907,-0.000600611,0.000325483,-0.00274004,-1.36948,0.00194429,0.0114111,741,694,-0.0176792,-0.0364942
-476,330,0.00561523,0.0322266,-0.00265995,0.000619525,-0.00110299,0.000955978,-0.00299641,-1.27473,0.00238111,0.0115869,748,694,0.00562619,-0.0322528
-469,330,0.00189209,0.0375977,-0.0019312,0.000898668,-0.00182331,0.00179166,-0.00282419,-1.11537,0.00268709,0.0170988,755,694,0.00186536,-0.0375698
-462,330,-0.182861,-0.160828,-0.00124691,0.000355176,-0.00289721,0.00256005,-0.00345178,-0.920273,0.00348364,0.0345049,762,694,-0.182862,0.160809
-455,330,0.556824,0.403259,0,0,0,0,0,0,0,-1,769,694,0.556838,-0.40323
-448,330,0.142578,0.176331,-0.00265955,-0.000175565,-0.00596564,0.004676,-0.00751111,-0.888028,0.00709941,0.044971,776,694,0.142598,-0.17631
-441,330,-0.592285,-0.238953,-0.00326112,0.000125287,-0.0073248,0.00595004,-0.00908587,-0.898983,0.00874369,0.0452501,783,694,-0.592287,0.238983
-434,330,-0.325256,-0.409485,-0.00413563,-2.30305e-05,-0.00910267,0.00725271,-0.0114114,-0.896484,0.0108645,0.0405123,790,694,-0.325239,0.409496
-427,330,0.00463867,-0.447937,-0.00673269,-0.000330131,-0.0109394,0.00786673,-0.0149296,-0.927743,0.0133703,0.0407799,797,694,0.00461166,0.447955
-420,330,0.303406,-0.288147,0,0,0,0,0,0,0,-1,804,694,0.303414,0.288166
-413,330,1.37286,0.616943,-0.018183,-0.000558965,-0.0153914,0.00836446,-0.0271064,-1.04539,0.0214108,0.0452268,811,694,1.37284,-0.616954
-406,330,1.02991,0.271362,-0.0292656,6.64375e-05,-0.0178168,0.00847703,-0.0376762,-1.12975,0.0283685,0.0416521,818,694,1.02988,-0.271334
-399,330,0,0,0,0,0,0,0,0,0,-1,825,694,0,0
-392,330,0,0,0,0,0,0,0,0,0,-1,832,694,0,0
-385,330,0,0,0,0,0,0,0,0,0,-1,839,694,0,0
-378,330,0,0,0,0,0,0,0,0,0,-1,846,694,0,0
-371,330,0,0,0,0,0,0,0,0,0,-1,853,694,0,0
-364,330,0,0,0,0,0,0,0,0,0,-1,860,694,0,0
-357,330,0,0,0,0,0,0,0,0,0,-1,867,694,0,0
-350,330,0,0,0,0,0,0,0,0,0,-1,874,694,0,0
-343,330,0,0,0,0,0,0,0,0,0,-1,881,694,0,0
-336,330,0,0,0,0,0,0,0,0,0,-1,888,694,0,0
-329,330,0,0,0,0,0,0,0,0,0,-1,895,694,0,0
-322,330,0,0,0,0,0,0,0,0,0,-1,902,694,0,0
-315,330,0,0,0,0,0,0,0,0,0,-1,909,694,0,0
-308,330,0,0,0,0,0,0,0,0,0,-1,916,694,0,0
-301,330,0,0,0,0,0,0,0,0,0,-1,923,694,0,0
-294,330,0,0,0,0,0,0,0,0,0,-1,930,694,0,0
-287,330,0,0,0,0,0,0,0,0,0,-1,937,694,0,0
-280,330,0,0,0,0,0,0,0,0,0,-1,944,694,0,0
-273,330,0,0,0,0,0,0,0,0,0,-1,951,694,0,0
-266,330,0,0,0,0,0,0,0,0,0,-1,958,694,0,0
-259,330,0,0,0,0,0,0,0,0,0,-1,965,694,0,0
-252,330,0,0,0,0,0,0,0,0,0,-1,972,694,0,0
-245,330,0,0,0,0,0,0,0,0,0,-1,979,694,0,0
-238,330,0,0,0,0,0,0,0,0,0,-1,986,694,0,0
-231,330,0,0,0,0,0,0,0,0,0,-1,993,694,0,0
-224,330,0,0,0,0,0,0,0,0,0,-1,1000,694,0,0
-217,330,0,0,0,0,0,0,0,0,0,-1,1007,694,0,0
-210,330,0,0,0,0,0,0,0,0,0,-1,1014,694,0,0
-203,330,0,0,0,0,0,0,0,0,0,-1,1021,694,0,0
-196,330,0,0,0,0,0,0,0,0,0,-1,1028,694,0,0
-189,330,0,0,0,0,0,0,0,0,0,-1,1035,694,0,0
-182,330,0,0,0,0,0,0,0,0,0,-1,1042,694,0,0
-175,330,0,0,0,0,0,0,0,0,0,-1,1049,694,0,0
-168,330,0,0,0,0,0,0,0,0,0,-1,1056,694,0,0
-161,330,0,0,0,0,0,0,0,0,0,-1,1063,694,0,0
-154,330,0,0,0,0,0,0,0,0,0,-1,1070,694,0,0
-147,330,0,0,0,0,0,0,0,0,0,-1,1077,694,0,0
-140,330,0,0,0,0,0,0,0,0,0,-1,1084,694,0,0
-133,330,0,0,0,0,0,0,0,0,0,-1,1091,694,0,0
-126,330,0,0,0,0,0,0,0,0,0,-1,1098,694,0,0
-119,330,0,0,0,0,0,0,0,0,0,-1,1105,694,0,0
-112,330,0,0,0,0,0,0,0,0,0,-1,1112,694,0,0
-105,330,0,0,0,0,0,0,0,0,0,-1,1119,694,0,0
-98,330,0,0,0,0,0,0,0,0,0,-1,1126,694,0,0
-91,330,0,0,0,0,0,0,0,0,0,-1,1133,694,0,0
-84,330,0,0,0,0,0,0,0,0,0,-1,1140,694,0,0
-77,330,0,0,0,0,0,0,0,0,0,-1,1147,694,0,0
-70,330,0,0,0,0,0,0,0,0,0,-1,1154,694,0,0
-63,330,0,0,0,0,0,0,0,0,0,-1,1161,694,0,0
-56,330,0,0,0,0,0,0,0,0,0,-1,1168,694,0,0
-49,330,0,0,0,0,0,0,0,0,0,-1,1175,694,0,0
-42,330,0,0,0,0,0,0,0,0,0,-1,1182,694,0,0
-35,330,0,0,0,0,0,0,0,0,0,-1,1189,694,0,0
-28,330,0,0,0,0,0,0,0,0,0,-1,1196,694,0,0
-21,330,0,0,0,0,0,0,0,0,0,-1,1203,694,0,0
-14,330,0,0,0,0,0,0,0,0,0,-1,1210,694,0,0
-7,330,0,0,0,0,0,0,0,0,0,-1,1217,694,0,0
0,330,0,0,0,0,0,0,0,0,0,-1,1224,694,0,0
7,330,0,0,0,0,0,0,0,0,0,-1,1231,694,0,0
14,330,0,0,0,0,0,0,0,0,0,-1,1238,694,0,0
21,330,0,0,0,0,0,0,0,0,0,-1,1245,694,0,0
28,330,0,0,0,0,0,0,0,0,0,-1,1252,694,0,0
35,330,0,0,0,0,0,0,0,0,0,-1,1259,694,0,0
42,330,0,0,0,0,0,0,0,0,0,-1,1266,694,0,0
49,330,0,0,0,0,0,0,0,0,0,-1,1273,694,0,0
56,330,0,0,0,0,0,0,0,0,0,-1,1280,694,0,0
63,330,0,0,0,0,0,0,0,0,0,-1,1287,694,0,0
70,330,0,0,0,0,0,0,0,0,0,-1,1294,694,0,0
77,330,0,0,0,0,0,0,0,0,0,-1,1301,694,0,0
84,330,0,0,0,0,0,0,0,0,0,-1,1308,694,0,0
91,330,0,0,0,0,0,0,0,0,0,-1,1315,694,0,0
98,330,0,0,0,0,0,0,0,0,0,-1,1322,694,0,0
105,330,0,0,0,0,0,0,0,0,0,-1,1329,694,0,0
112,330,0,0,0,0,0,0,0,0,0,-1,1336,694,0,0
119,330,0,0,0,0,0,0,0,0,0,-1,1343,694,0,0
126,330,0,0,0,0,0,0,0,0,0,-1,1350,694,0,0
133,330,0,0,0,0,0,0,0,0,0,-1,1357,694,0,0
140,330,0,0,0,0,0,0,0,0,0,-1,1364,694,0,0
147,330,0,0,0,0,0,0,0,0,0,-1,1371,694,0,0
154,330,0,0,0,0,0,0,0,0,0,-1,1378,694,0,0
161,330,0,0,0,0,0,0,0,0,0,-1,1385,694,0,0
168,330,0,0,0,0,0,0,0,0,0,-1,1392,694,0,0
175,330,0,0,0,0,0,0,0,0,0,-1,1399,694,0,0
182,330,0,0,0,0,0,0,0,0,0,-1,1406,694,0,0
189,330,0,0,0,0,0,0,0,0,0,-1,1413,694,0,0
196,330,0,0,0,0,0,0,0,0,0,-1,1420,694,0,0
203,330,0,0,0,0,0,0,0,0,0,-1,1427,694,0,0
210,330,0,0,0,0,0,0,0,0,0,-1,1434,694,0,0
217,330,0,0,0,0,0,0,0,0,0,-1,1441,694,0,0
224,330,0,0,0,0,0,0,0,0,0,-1,1448,694,0,0
231,330,0,0,0,0,0,0,0,0,0,-1,1455,694,0,0
238,330,0,0,0,0,0,0,0,0,0,-1,1462,694,0,0
245,330,0,0,0,0,0,0,0,0,0,-1,1469,694,0,0
252,330,0,0,0,0,0,0,0,0,0,-1,1476,694,0,0
259,330,0,0,0,0,0,0,0,0,0,-1,1483,694,0,0
266,330,0,0,0,0,0,0,0,0,0,-1,1490,694,0,0
273,330,0,0,0,0,0,0,0,0,0,-1,1497,694,0,0
280,330,0,0,0,0,0,0,0,0,0,-1,1504,694,0,0
287,330,0,0,0,0,0,0,0,0,0,-1,1511,694,0,0
294,330,0,0,0,0,0,0,0,0,0,-1,1518,694,0,0
301,330,0,0,0,0,0,0,0,0,0,-1,1525,694,0,0
308,330,0,0,0,0,0,0,0,0,0,-1,1532,694,0,0
315,330,0,0,0,0,0,0,0,0,0,-1,1539,694,0,0
322,330,0,0,0,0,0,0,0,0,0,-1,1546,694,0,0
329,330,0,0,0,0,0,0,0,0,0,-1,1553,694,0,0
336,330,0,0,0,0,0,0,0,0,0,-1,1560,694,0,0
343,330,0,0,0,0,0,0,0,0,0,-1,1567,694,0,0
350,330,0,0,0,0,0,0,0,0,0,-1,1574,694,0,0
357,330,0,0,0,0,0,0,0,0,0,-1,1581,694,0,0
364,330,0,0,0,0,0,0,0,0,0,-1,1588,694,0,0
371,330,0,0,0,0,0,0,0,0,0,-1,1595,694,0,0
378,330,0,0,0,0,0,0,0,0,0,-1,1602,694,0,0
385,330,0,0,0,0,0,0,0,0,0,-1,1609,694,0,0
392,330,0,0,0,0,0,0,0,0,0,-1,1616,694,0,0
399,330,0,0,0,0,0,0,0,0,0,-1,1623,694,0,0
406,330,0,0,0,0,0,0,0,0,0,-1,1630,694,0,0
413,330,0,0,0,0,0,0,0,0,0,-1,1637,694,0,0
420,330,0,0,0,0,0,0,0,0,0,-1,1644,694,0,0
427,330,0,0,0,0,0,0,0,0,0,-1,1651,694,0,0
434,330,0,0,0,0,0,0,0,0,0,-1,1658,694,0,0
441,330,0,0,0,0,0,0,0,0,0,-1,1665,694,0,0
448,330,0,0,0,0,0,0,0,0,0,-1,1672,694,0,0
455,330,0,0,0,0,0,0,0,0,0,-1,1679,694,0,0
462,330,0,0,0,0,0,0,0,0,0,-1,1686,694,0,0
469,330,0,0,0,0,0,0,0,0,0,-1,1693,694,0,0
476,330,0,0,0,0,0,0,0,0,0,-1,1700,694,0,0
483,330,0,0,0,0,0,0,0,0,0,-1,1707,694,0,0
490,330,0,0,0,0,0,0,0,0,0,-1,1714,694,0,0
497,330,0,0,0,0,0,0,0,0,0,-1,1721,694,0,0
504,330,0,0,0,0,0,0,0,0,0,-1,1728,694,0,0
511,330,0,0,0,0,0,0,0,0,0,-1,1735,694,0,0
518,330,0,0,0,0,0,0,0,0,0,-1,1742,694,0,0
525,330,0.975952,-0.890747,0.00785217,0.0201704,0.00848969,0.0244999,0.00352274,1.09921,0.0152948,0.044775,1749,694,0.975911,0.890733
532,330,0.991211,-0.147278,0.00923484,0.0188321,0.00674008,0.0223073,0.00575969,1.09475,0.0133717,0.045937,1756,694,0.991153,0.147281
539,330,0.769897,0.472961,0,0,0,0,0,0,0,-1,1763,694,0.76985,-0.472949
546,330,-0.50061,1.08728,0,0,0,0,0,0,0,-1,1770,694,-0.500602,-1.08727
553,330,2.40332,-1.42444,0,0,0,0,0,0,0,-1,1777,694,2.40333,1.42443
560,330,2.15625,-0.821472,0.00173238,0.0162006,0.00278576,0.0167184,0.00121453,1.387,0.0107636,0.0447489,1784,694,2.15625,0.821466
567,330,1.61316,-0.136902,-0.000291653,0.0152265,0.00237955,0.0155832,-0.000648336,1.42201,0.0106115,0.0433567,1791,694,1.61311,0.136897
574,330,0.805908,0.285278,-0.00169219,0.0125879,0.0023214,0.0129558,-0.00206009,1.41362,0.00939945,0.0420506,1798,694,0.805883,-0.285283
581,330,0.463623,0.10968,-0.00247732,0.0118732,0.00147216,0.0120227,-0.00262678,1.46961,0.00901915,0.0403933,1805,694,0.46363,-0.109659
588,330,0.142822,0.06427,-0.0026776,0.0111058,0.000691793,0.0111404,-0.00271223,1.52077,0.00847691,0.0439927,1812,694,0.14284,-0.0642534
595,330,-0.0155029,0.0202637,-0.00241083,0.00961751,0.000293238,0.00962465,-0.00241797,1.54644,0.00735611,0.0407281,1819,694,-0.0154794,-0.0202778
602,330,-0.055542,0.055481,-0.00322588,0.00825399,0.000616396,0.00828699,-0.00325888,1.51731,0.00687349,0.0224155,1826,694,-0.0555042,-0.0554666
609,330,-0.0379639,0.062439,-0.00300264,0.00452538,0.00124686,0.00472653,-0.00320378,1.41086,0.00460661,0.0129735,1833,694,-0.037979,-0.0624457
616,330,-0.0422363,0.057373,-0.00177924,0.00373893,0.000311741,0.00375648,-0.0017968,1.51454,0.00327206,0.0110546,1840,694,-0.0422557,-0.0573454
623,330,-0.0234375,0.043457,-0.000882026,0.00265665,-0.000389445,0.002699,-0.000924379,-1.46247,0.00217399,0.0127914,1847,694,-0.0234415,-0.043445
630,330,0.00231934,0.0501709,-0.000568936,0.00137655,-0.000420602,0.00146359,-0.000655974,-1.36674,0.00125299,0.0129663,1854,694,0.0023775,-0.0501748
637,330,0.0133057,0.0490112,-0.000518588,0.000526483,-0.000344194,0.000629657,-0.000621762,-1.27956,0.000722512,0.0110114,1861,694,0.0132854,-0.0490049
644,330,-0.0118408,0.0424194,-0.000827414,5.91038e-05,-0.000181729,9.49105e-05,-0.000863221,-1.37625,0.000609585,0.00681831,1868,694,-0.0118427,-0.0424439
651,330,-0.0205078,0.0291748,-0.00120355,-0.00051524,-8.46672e-06,-0.000515136,-0.00120365,-1.5585,0.000697329,0.00946302,1875,694,-0.0204693,-0.0291848
658,330,-0.0213623,0.0315552,-0.00162383,-0.000569918,0.00012905,-0.000554347,-0.0016394,1.45071,0.0009629,0.0104373,1882,694,-0.0213453,-0.0315689
665,330,-0.0256348,0.0509644,-0.00225108,-0.000366664,0.000334963,-0.000308894,-0.00230885,1.40001,0.0014473,0.0093735,1889,694,-0.025672,-0.0509512
672,330,-0.0296631,0.0623169,-0.0027212,-0.000151183,0.000571743,-2.9729e-05,-0.00284265,1.36148,0.00188527,0.0109877,1896,694,-0.0296988,-0.0622969
679,330,-0.0721436,0.0219727,-0.00317063,0.000242038,0.000935426,0.000481622,-0.00341022,1.32006,0.00244985,0.0231521,1903,694,-0.0721256,-0.0219821
686,330,-0.132813,0.0164795,-0.00351212,0.000846242,0.00147961,0.00130108,-0.00396696,1.27256,0.00316866,0.0381387,1910,694,-0.132807,-0.0164536
693,330,-0.315796,0.21228,-0.00375187,0.00167624,0.00222616,0.00247244,-0.00454807,1.22732,0.00411192,0.0452068,1917,694,-0.31584,-0.212305
700,330,-0.0758057,0.387634,-0.0037392,0.00289704,0.0032557,0.00422752,-0.00506968,1.18284,0.00537508,0.0435566,1924,694,-0.075795,-0.387642
707,330,0.09375,0.382141,-0.00333985,0.00467735,0.00464486,0.00680419,-0.00546669,1.1414,0.00709861,0.0384089,1931,694,0.0937041,-0.38217
714,330,0.0310059,0.47168,-0.00233044,0.0072238,0.00646766,0.0104873,-0.00559393,1.10349,0.00942669,0.0423998,1938,694,0.0310303,-0.471678
721,330,0,0,0,0,0,0,0,0,0,-1,1945,694,0,0
728,330,0,0,0,0,0,0,0,0,0,-1,1952,694,0,0
735,330,0,0,0,0,0,0,0,0,0,-1,1959,694,0,0
742,330,0,0,0,0,0,0,0,0,0,-1,1966,694,0,0
749,330,0,0,0,0,0,0,0,0,0,-1,1973,694,0,0
756,330,0,0,0,0,0,0,0,0,0,-1,1980,694,0,0
763,330,0,0,0,0,0,0,0,0,0,-1,1987,694,0,0
770,330,0,0,0,0,0,0,0,0,0,-1,1994,694,0,0
777,330,0,0,0,0,0,0,0,0,0,-1,2001,694,0,0
784,330,0,0,0,0,0,0,0,0,0,-1,2008,694,0,0
791,330,0,0,0,0,0,0,0,0,0,-1,2015,694,0,0
798,330,0,0,0,0,0,0,0,0,0,-1,2022,694,0,0
805,330,0,0,0,0,0,0,0,0,0,-1,2029,694,0,0
812,330,0,0,0,0,0,0,0,0,0,-1,2036,694,0,0
-700,323,0,0,0,0,0,0,0,0,0,-1,524,701,0,0
-693,323,0,0,0,0,0,0,0,0,0,-1,531,701,0,0
-686,323,0,0,0,0,0,0,0,0,0,-1,538,701,0,0
-679,323,0,0,0,0,0,0,0,0,0,-1,545,701,0,0
-672,323,0,0,0,0,0,0,0,0,0,-1,552,701,0,0
-665,323,0,0,0,0,0,0,0,0,0,-1,559,701,0,0
-658,323,0,0,0,0,0,0,0,0,0,-1,566,701,0,0
-651,323,0,0,0,0,0,0,0,0,0,-1,573,701,0,0
-644,323,0,0,0,0,0,0,0,0,0,-1,580,701,0,0
-637,323,0,0,0,0,0,0,0,0,0,-1,587,701,0,0
-630,323,0,0,0,0,0,0,0,0,0,-1,594,701,0,0
-623,323,0,0,0,0,0,0,0,0,0,-1,601,701,0,0
-616,323,0,0,0,0,0,0,0,0,0,-1,608,701,0,0
-609,323,0,0,0,0,0,0,0,0,0,-1,615,701,0,0
-602,323,-0.241577,0.575623,0.00978502,0.0135724,-0.0388465,0.0505713,-0.0272139,-0.809753,0.0455792,0.042999,622,701,-0.241603,-0.575636
-595,323,-0.170166,0.766907,0,0,0,0,0,0,0,-1,629,701,-0.170166,-0.766883
-588,323,-0.350342,1.073,0.0107218,0.00965662,-0.0283014,0.0384956,-0.0181173,-0.77599,0.0333839,0.0450724,636,701,-0.350337,-1.073
-581,323,-0.429871,0.852783,0.0100231,0.00647485,-0.023138,0.0314549,-0.014957,-0.747136,0.0273544,0.04407,643,701,-0.429842,-0.852762
-574,323,-0.185486,0.532654,0.00899522,0.0034682,-0.01837,0.0248084,-0.012345,-0.71074,0.0218492,0.0391676,650,701,-0.185464,-0.532632
-567,323,0.0430298,0.328186,0.00775922,0.00111294,-0.0142056,0.0190252,-0.010153,-0.670498,0.0171037,0.0415295,657,701,0.0430401,-0.328199
-560,323,-0.00952148,0.152344,0.00647047,-0.000523816,-0.0107326,0.0142613,-0.00831469,-0.627901,0.0131841,0.0362906,664,701,-0.00951612,-0.152323
-553,323,-0.0632935,0.0180054,0.00527521,-0.00150669,-0.00791991,0.0104996,-0.00673105,-0.583128,0.0100271,0.0217382,671,701,-0.0633161,-0.0179837
-546,323,-0.00872803,0.0547485,0.0041793,-0.00161097,-0.0057677,0.0077377,-0.00516937,-0.552792,0.00750092,0.00926671,678,701,-0.00871552,-0.0547721
-539,323,-0.0176392,0.045166,0.00312615,-0.00192508,-0.00390161,0.00524826,-0.00404719,-0.498152,0.00538164,0.00966897,685,701,-0.0176434,-0.0451512
-532,323,-0.0292969,0.052124,0.00266747,-0.00246588,-0.00195006,0.00332423,-0.00312264,-0.324859,0.00372271,0.00939741,692,701,-0.0292754,-0.0521029
-525,323,-0.0344238,0.0552368,0.00194712,-0.00251954,-0.000967135,0.00214754,-0.00271995,-0.204333,0.00281672,0.00818859,699,701,-0.0344001,-0.0552152
-518,323,-0.0377197,0.0699463,0.000726387,-0.00167056,-0.00031684,0.000767562,-0.00171173,-0.129228,0.00146561,0.00935224,706,701,-0.0377129,-0.0699401
-511,323,-0.0421753,0.0643311,0.00030032,-0.000782929,0.000185277,0.000331133,-0.000813742,0.1648,0.000680288,0.0115986,713,701,-0.0421542,-0.0643082
-504,323,-0.0350952,0.0584106,2.74663e-05,-0.000189832,0.000531921,0.000461721,-0.000624087,0.684655,0.000629223,0.0127658,720,701,-0.0350776,-0.0584145
-497,323,-0.0256958,0.0612793,-0.00157574,-0.000194916,0.000239957,-0.000154405,-0.00161625,1.40355,0.0010299,0.0112053,727,701,-0.0256898,-0.0612959
-490,323,-0.013916,0.0512695,-0.00303337,0.000374433,-0.000218082,0.000388333,-0.00304727,-1.50715,0.00217256,0.013189,734,701,-0.0139243,-0.051283
-483,323,-0.00634766,0.0350952,-0.00345898,0.000307753,-0.000606314,0.000402943,-0.00355417,-1.41507,0.00251455,0.0126159,741,701,-0.00637233,-0.0350792
-476,323,0.0178223,0.0435181,-0.00346871,0.00070599,-0.00118975,0.00102125,-0.00378396,-1.31177,0.00292314,0.0128658,748,701,0.0177931,-0.04352
-469,323,-0.0371094,0.0473633,0,0,0,0,0,0,0,-1,755,701,-0.0371252,-0.0473622
-462,323,-0.552185,-0.193909,-0.00229639,0.000493915,-0.00317293,0.00256487,-0.00436735,-0.992528,0.00404716,0.0442635,762,701,-0.552184,0.193933
-455,323,0.240967,0.791687,0,0,0,0,0,0,0,-1,769,701,0.240955,-0.791681
-448,323,-0.0332031,0.358093,-0.00340844,-0.000378698,-0.00659126,0.00486953,-0.00865667,-0.898352,0.00791073,0.0437972,776,701,-0.0332242,-0.358091
-441,323,-0.393372,-0.493774,-0.00369964,-0.000439193,-0.00818515,0.00627649,-0.0104153,-0.883696,0.00973528,0.0448652,783,701,-0.393372,0.493769
-434,323,0.0795288,-0.435242,-0.00417285,-0.00097906,-0.0102399,0.0077877,-0.0129396,-0.862749,0.0120895,0.0404706,790,701,0.079535,0.435237
-427,323,0.352783,-0.538147,-0.00644991,-0.00180149,-0.0123272,0.00841867,-0.0166701,-0.878576,0.0147438,0.0417918,797,701,0.352769,0.538141
-420,323,1.34491,1.15131,0,0,0,0,0,0,0,-1,804,701,1.3449,-1.1513
-413,323,0.990417,0.751526,0,0,0,0,0,0,0,-1,811,701,0.990409,-0.751534
-406,323,0,0,0,0,0,0,0,0,0,-1,818,701,0,0
-399,323,0,0,0,0,0,0,0,0,0,-1,825,701,0,0
-392,323,0,0,0,0,0,0,0,0,0,-1,832,701,0,0
-385,323,0,0,0,0,0,0,0,0,0,-1,839,701,0,0
-378,323,0,0,0,0,0,0,0,0,0,-1,846,701,0,0
-371,323,0,0,0,0,0,0,0,0,0,-1,853,701,0,0
-364,323,0,0,0,0,0,0,0,0,0,-1,860,701,0,0
-357,323,0,0,0,0,0,0,0,0,0,-1,867,701,0,0
-350,323,0,0,0,0,0,0,0,0,0,-1,874,701,0,0
-343,323,0,0,0,0,0,0,0,0,0,-1,881,701,0,0
-336,323,0,0,0,0,0,0,0,0,0,-1,888,701,0,0
-329,323,0,0,0,0,0,0,0,0,0,-1,895,701,0,0
-322,323,0,0,0,0,0,0,0,0,0,-1,902,701,0,0
-315,323,0,0,0,0,0,0,0,0,0,-1,909,701,0,0
-308,323,0,0,0,0,0,0,0,0,0,-1,916,701,0,0
-301,323,0,0,0,0,0,0,0,0,0,-1,923,701,0,0
-294,323,0,0,0,0,0,0,0,0,0,-1,930,701,0,0
-287,323,0,0,0,0,0,0,0,0,0,-1,937,701,0,0
-280,323,0,0,0,0,0,0,0,0,0,-1,944,701,0,0
-273,323,0,0,0,0,0,0,0,0,0,-1,951,701,0,0
-266,323,0,0,0,0,0,0,0,0,0,-1,958,701,0,0
-259,323,0,0,0,0,0,0,0,0,0,-1,965,701,0,0
-252,323,0,0,0,0,0,0,0,0,0,-1,972,701,0,0
-245,323,0,0,0,0,0,0,0,0,0,-1,979,701,0,0
-238,323,0,0,0,0,0,0,0,0,0,-1,986,701,0,0
-231,323,0,0,0,0,0,0,0,0,0,-1,993,701,0,0
-224,323,0,0,0,0,0,0,0,0,0,-1,1000,701,0,0
-217,323,0,0,0,0,0,0,0,0,0,-1,1007,701,0,0
-210,323,0,0,0,0,0,0,0,0,0,-1,1014,701,0,0
-203,323,0,0,0,0,0,0,0,0,0,-1,1021,701,0,0
-196,323,0,0,0,0,0,0,0,0,0,-1,1028,701,0,0
-189,323,0,0,0,0,0,0,0,0,0,-1,1035,701,0,0
-182,323,0,0,0,0,0,0,0,0,0,-1,1042,701,0,0
-175,323,0,0,0,0,0,0,0,0,0,-1,1049,701,0,0
-168,323,0,0,0,0,0,0,0,0,0,-1,1056,701,0,0
-161,323,0,0,0,0,0,0,0,0,0,-1,1063,701,0,0
-154,323,0,0,0,0,0,0,0,0,0,-1,1070,701,0,0
-147,323,0,0,0,0,0,0,0,0,0,-1,1077,701,0,0
-140,323,0,0,0,0,0,0,0,0,0,-1,1084,701,0,0
-133,323,0,0,0,0,0,0,0,0,0,-1,1091,701,0,0
-126,323,0,0,0,0,0,0,0,0,0,-1,1098,701,0,0
-119,323,0,0,0,0,0,0,0,0,0,-1,1105,701,0,0
-112,323,0,0,0,0,0,0,0,0,0,-1,1112,701,0,0
-105,323,0,0,0,0,0,0,0,0,0,-1,1119,701,0,0
-98,323,0,0,0,0,0,0,0,0,0,-1,1126,701,0,0
-91,323,0,0,0,0,0,0,0,0,0,-1,1133,701,0,0
-84,323,0,0,0,0,0,0,0,0,0,-1,1140,701,0,0
-77,323,0,0,0,0,0,0,0,0,0,-1,1147,701,0,0
-70,323,0,0,0,0,0,0,0,0,0,-1,1154,701,0,0
-63,323,0,0,0,0,0,0,0,0,0,-1,1161,701,0,0
-56,323,0,0,0,0,0,0,0,0,0,-1,1168,701,0,0
-49,323,0,0,0,0,0,0,0,0,0,-1,1175,701,0,0
-42,323,0,0,0,0,0,0,0,0,0,-1,1182,701,0,0
-35,323,0,0,0,0,0,0,0,0,0,-1,1189,701,0,0
-28,323,0,0,0,0,0,0,0,0,0,-1,1196,701,0,0
-21,323,0,0,0,0,0,0,0,0,0,-1,1203,701,0,0
-14,323,0,0,0,0,0,0,0,0,0,-1,1210,701,0,0
-7,323,0,0,0,0,0,0,0,0,0,-1,1217,701,0,0
0,323,0,0,0,0,0,0,0,0,0,-1,1224,701,0,0
7,323,0,0,0,0,0,0,0,0,0,-1,1231,701,0,0
14,323,0,0,0,0,0,0,0,0,0,-1,1238,701,0,0
21,323,0,0,0,0,0,0,0,0,0,-1,1245,701,0,0
28,323,0,0,0,0,0,0,0,0,0,-1,1252,701,0,0
35,323,0,0,0,0,0,0,0,0,0,-1,1259,701,0,0
42,323,0,0,0,0,0,0,0,0,0,-1,1266,701,0,0
49,323,0,0,0,0,0,0,0,0,0,-1,1273,701,0,0
56,323,0,0,0,0,0,0,0,0,0,-1,1280,701,0,0
63,323,0,0,0,0,0,0,0,0,0,-1,1287,701,0,0
70,323,0,0,0,0,0,0,0,0,0,-1,1294,701,0,0
77,323,0,0,0,0,0,0,0,0,0,-1,1301,701,0,0
84,323,0,0,0,0,0,0,0,0,0,-1,1308,701,0,0
91,323,0,0,0,0,0,0,0,0,0,-1,1315,701,0,0
98,323,0,0,0,0,0,0,0,0,0,-1,1322,701,0,0
105,323,0,0,0,0,0,0,0,0,0,-1,1329,701,0,0
112,323,0,0,0,0,0,0,0,0,0,-1,1336,701,0,0
119,323,0,0,0,0,0,0,0,0,0,-1,1343,701,0,0
126,323,0,0,0,0,0,0,0,0,0,-1,1350,701,0,0
133,323,0,0,0,0,0,0,0,0,0,-1,1357,701,0,0
140,323,0,0,0,0,0,0,0,0,0,-1,1364,701,0,0
147,323,0,0,0,0,0,0,0,0,0,-1,1371,701,0,0
154,323,0,0,0,0,0,0,0,0,0,-1,1378,701,0,0
161,323,0,0,0,0,0,0,0,0,0,-1,1385,701,0,0
168,323,0,0,0,0,0,0,0,0,0,-1,1392,701,0,0
175,323,0,0,0,0,0,0,0,0,0,-1,1399,701,0,0
182,323,0,0,0,0,0,0,0,0,0,-1,1406,701,0,0
189,323,0,0,0,0,0,0,0,0,0,-1,1413,701,0,0
196,323,0,0,0,0,0,0,0,0,0,-1,1420,701,0,0
203,323,0,0,0,0,0,0,0,0,0,-1,1427,701,0,0
210,323,0,0,0,0,0,0,0,0,0,-1,1434,701,0,0
217,323,0,0,0,0,0,0,0,0,0,-1,1441,701,0,0
224,323,0,0,0,0,0,0,0,0,0,-1,1448,701,0,0
231,323,0,0,0,0,0,0,0,0,0,-1,1455,701,0,0
238,323,0,0,0,0,0,0,0,0,0,-1,1462,701,0,0
245,323,0,0,0,0,0,0,0,0,0,-1,1469,701,0,0
252,323,0,0,0,0,0,0,0,0,0,-1,1476,701,0,0
259,323,0,0,0,0,0,0,0,0,0,-1,1483,701,0,0
266,323,0,0,0,0,0,0,0,0,0,-1,1490,701,0,0
273,323,0,0,0,0,0,0,0,0,0,-1,1497,701,0,0
280,323,0,0,0,0,0,0,0,0,0,-1,1504,701,0,0
287,323,0,0,0,0,0,0,0,0,0,-1,1511,701,0,0
294,323,0,0,0,0,0,0,0,0,0,-1,1518,701,0,0
301,323,0,0,0,0,0,0,0,0,0,-1,1525,701,0,0
308,323,0,0,0,0,0,0,0,0,0,-1,1532,701,0,0
315,323,0,0,0,0,0,0,0,0,0,-1,1539,701,0,0
322,323,0,0,0,0,0,0,0,0,0,-1,1546,701,0,0
329,323,0,0,0,0,0,0,0,0,0,-1,1553,701,0,0
336,323,0,0,0,0,0,0,0,0,0,-1,1560,701,0,0
343,323,0,0,0,0,0,0,0,0,0,-1,1567,701,0,0
350,323,0,0,0,0,0,0,0,0,0,-1,1574,701,0,0
357,323,0,0,0,0,0,0,0,0,0,-1,1581,701,0,0
364,323,0,0,0,0,0,0,0,0,0,-1,1588,701,0,0
371,323,0,0,0,0,0,0,0,0,0,-1,1595,701,0,0
378,323,0,0,0,0,0,0,0,0,0,-1,1602,701,0,0
385,323,0,0,0,0,0,0,0,0,0,-1,1609,701,0,0
392,323,0,0,0,0,0,0,0,0,0,-1,1616,701,0,0
399,323,0,0,0,0,0,0,0,0,0,-1,1623,701,0,0
406,323,0,0,0,0,0,0,0,0,0,-1,1630,701,0,0
413,323,0,0,0,0,0,0,0,0,0,-1,1637,701,0,0
420,323,0,0,0,0,0,0,0,0,0,-1,1644,701,0,0
427,323,0,0,0,0,0,0,0,0,0,-1,1651,701,0,0
434,323,0,0,0,0,0,0,0,0,0,-1,1658,701,0,0
441,323,0,0,0,0,0,0,0,0,0,-1,1665,701,0,0
448,323,0,0,0,0,0,0,0,0,0,-1,1672,701,0,0
455,323,0,0,0,0,0,0,0,0,0,-1,1679,701,0,0
462,323,0,0,0,0,0,0,0,0,0,-1,1686,701,0,0
469,323,0,0,0,0,0,0,0,0,0,-1,1693,701,0,0
476,323,0,0,0,0,0,0,0,0,0,-1,1700,701,0,0
483,323,0,0,0,0,0,0,0,0,0,-1,1707,701,0,0
490,323,0,0,0,0,0,0,0,0,0,-1,1714,701,0,0
497,323,0,0,0,0,0,0,0,0,0,-1,1721,701,0,0
504,323,0,0,0,0,0,0,0,0,0,-1,1728,701,0,0
511,323,0,0,0,0,0,0,0,0,0,-1,1735,701,0,0
518,323,0,0,0,0,0,0,0,0,0,-1,1742,701,0,0
525,323,0,0,0,0,0,0,0,0,0,-1,1749,701,0,0
532,323,0.725342,0.116455,0,0,0,0,0,0,0,-1,1756,701,0.725346,-0.116483
539,323,0.845581,0.587891,0,0,0,0,0,0,0,-1,1763,701,0.84554,-0.587876
546,323,-1.1051,1.21179,0,0,0,0,0,0,0,-1,1770,701,-1.10506,-1.21178
553,323,0.393066,-0.287231,0.00563641,0.0152908,0.00389903,0.0166688,0.00425843,1.23108,0.01,0.0421795,1777,701,0.393105,0.287216
560,323,0.0576172,-0.0390015,0.00310599,0.0153904,0.00301563,0.0160908,0.00240563,1.3426,0.010022,0.0439635,1784,701,0.0575676,0.0390075
567,323,0.0672607,-0.192017,0.000944279,0.0151494,0.00242805,0.015553,0.000540725,1.4061,0.0101932,0.044261,1791,701,0.0672429,0.192017
574,323,0.705322,0.235535,-0.000658087,0.0130763,0.00223095,0.0134295,-0.00101139,1.41374,0.00930849,0.0472051,1798,701,0.70529,-0.235506
581,323,0.257813,-0.0151367,-0.00154461,0.0126412,0.00125191,0.0127509,-0.00165425,1.48345,0.00910225,0.0427762,1805,701,0.257765,0.0151263
588,323,-0.388428,0.369385,0,0,0,0,0,0,0,-1,1812,701,-0.388432,-0.36937
595,323,-0.271606,0.191711,-0.00178348,0.0105469,4.36581e-05,0.0105471,-0.00178363,1.56726,0.00769513,0.0460175,1819,701,-0.271562,-0.191727
602,323,-0.112427,0.0784302,-0.00274475,0.00927053,0.000351767,0.00928081,-0.00275504,1.54155,0.00728142,0.0343983,1826,701,-0.112392,-0.0784523
609,323,-0.0610352,0.0696411,-0.00270979,0.00563599,0.000962228,0.00574549,-0.00281929,1.45748,0.00504016,0.018239,1833,701,-0.0610022,-0.0696268
616,323,-0.0301514,0.0413818,-0.00165113,0.00461703,0.000106575,0.00461885,-0.00165294,1.5538,0.00375356,0.0118728,1840,701,-0.0301255,-0.0413889
623,323,-0.0211182,0.046936,-0.000928066,0.0034542,-0.000570462,0.00352724,-0.00100111,-1.44345,0.0027467,0.012159,1847,701,-0.0211005,-0.0469119
630,323,-0.00817871,0.0575562,-0.000701102,0.0019085,-0.000521333,0.00200879,-0.000801397,-1.38074,0.00167164,0.0126985,1854,701,-0.00823568,-0.0575587
637,323,-0.0065918,0.052063,-0.000602168,0.000901935,-0.000321711,0.000967856,-0.000668089,-1.36869,0.000949784,0.00962443,1861,701,-0.00655776,-0.0520885
644,323,-0.0189209,0.0409546,-0.000827629,0.000374854,-5.6067e-05,0.000377463,-0.000830237,-1.5243,0.000713413,0.00685971,1868,701,-0.0189697,-0.0409354
651,323,-0.0357666,0.0402222,-0.00111763,-0.000178547,0.000229529,-0.000125448,-0.00117073,1.34346,0.000742213,0.00818606,1875,701,-0.0357446,-0.040246
658,323,-0.0266113,0.0368042,-0.0013924,-0.000174907,0.000433524,-3.63141e-05,-0.00153099,1.26138,0.00100877,0.00943117,1882,701,-0.0266228,-0.0367825
665,323,-0.0297852,0.0487061,-0.00188599,0.000139692,0.000721939,0.000370652,-0.00211695,1.26117,0.0015497,0.00871826,1889,701,-0.0298194,-0.0486899
672,323,-0.0471191,0.0700073,-0.00211783,0.000503569,0.00104867,0.000871451,-0.00248571,1.2334,0.00201156,0.00867591,1896,701,-0.0471762,-0.0699902
679,323,-0.0477295,0.0650635,-0.0023162,0.00113494,0.00154264,0.00172396,-0.00290522,1.20605,0.00270151,0.0167139,1903,701,-0.0476949,-0.065083
686,323,-0.0161133,-0.0410767,-0.00243075,0.00203797,0.00227161,0.00298992,-0.0033827,1.17396,0.00368157,0.0373346,1910,701,-0.016121,0.0410649
693,323,-0.141357,0.174927,-0.00248101,0.00317775,0.00320301,0.00462209,-0.00392535,1.14717,0.00494032,0.0475452,1917,701,-0.141362,-0.174936
700,323,-0.116333,0.36554,-0.00225723,0.00481778,0.00440365,0.00692882,-0.00436826,1.12378,0.00657799,0.0450416,1924,701,-0.116337,-0.365557
707,323,-0.154907,0.350281,-0.00159472,0.00717643,0.00591138,0.0101514,-0.00456969,1.10454,0.0087005,0.0393053,1931,701,-0.154943,-0.350285
714,323,-0.446289,0.295227,-0.000233862,0.0105665,0.0077251,0.0145918,-0.00425912,1.09044,0.0114156,0.0401029,1938,701,-0.446306,-0.295206
721,323,0,0,0,0,0,0,0,0,0,-1,1945,701,0,0
728,323,0,0,0,0,0,0,0,0,0,-1,1952,701,0,0
735,323,0,0,0,0,0,0,0,0,0,-1,1959,701,0,0
742,323,0,0,0,0,0,0,0,0,0,-1,1966,701,0,0
749,323,0,0,0,0,0,0,0,0,0,-1,1973,701,0,0
756,323,0,0,0,0,0,0,0,0,0,-1,1980,701,0,0
763,323,0,0,0,0,0,0,0,0,0,-1,1987,701,0,0
770,323,0,0,0,0,0,0,0,0,0,-1,1994,701,0,0
777,323,0,0,0,0,0,0,0,0,0,-1,2001,701,0,0
784,323,0,0,0,0,0,0,0,0,0,-1,2008,701,0,0
791,323,0,0,0,0,0,0,0,0,0,-1,2015,701,0,0
798,323,0,0,0,0,0,0,0,0,0,-1,2022,701,0,0
805,323,0,0,0,0,0,0,0,0,0,-1,2029,701,0,0
812,323,0,0,0,0,0,0,0,0,0,-1,2036,701,0,0
-700,316,0,0,0,0,0,0,0,0,0,-1,524,708,0,0
-693,316,0,0,0,0,0,0,0,0,0,-1,531,708,0,0
-686,316,0,0,0,0,0,0,0,0,0,-1,538,708,0,0
-679,316,0,0,0,0,0,0,0,0,0,-1,545,708,0,0
-672,316,0,0,0,0,0,0,0,0,0,-1,552,708,0,0
-665,316,0,0,0,0,0,0,0,0,0,-1,559,708,0,0
-658,316,0,0,0,0,0,0,0,0,0,-1,566,708,0,0
-651,316,0,0,0,0,0,0,0,0,0,-1,573,708,0,0
-644,316,0,0,0,0,0,0,0,0,0,-1,580,708,0,0
-637,316,0,0,0,0,0,0,0,0,0,-1,587,708,0,0
-630,316,0,0,0,0,0,0,0,0,0,-1,594,708,0,0
-623,316,0,0,0,0,0,0,0,0,0,-1,601,708,0,0
-616,316,0,0,0,0,0,0,0,0,0,-1,608,708,0,0
-609,316,0,0,0,0,0,0,0,0,0,-1,615,708,0,0
-602,316,0.0698242,0.894958,0,0,0,0,0,0,0,-1,622,708,0.0698322,-0.894934
-595,316,-0.361694,1.28143,0,0,0,0,0,0,0,-1,629,708,-0.361665,-1.28142
-588,316,-0.398132,1.14655,0.0082529,0.0118624,-0.0276461,0.0377626,-0.0176472,-0.817993,0.032686,0.0487831,636,708,-0.398157,-1.14653
-581,316,-0.33728,0.922791,0.00861934,0.00892698,-0.0234569,0.0322306,-0.0146842,-0.788677,0.0277105,0.0451183,643,708,-0.337308,-0.92279
-574,316,0.0942383,0.458435,0,0,0,0,0,0,0,-1,650,708,0.0942228,-0.458459
-567,316,0.0751343,0.419373,0.00738609,0.00334176,-0.0150004,0.0205,-0.00977215,-0.718398,0.0178397,0.0431485,657,708,0.075159,-0.419358
-560,316,0.012085,0.22168,0.00635392,0.00139429,-0.0114306,0.0155706,-0.00782236,-0.678581,0.0137506,0.0353833,664,708,0.0121085,-0.221681
-553,316,-0.000366211,0.0984497,0.00529415,9.92901e-05,-0.00849546,0.0115804,-0.00618695,-0.637039,0.0104143,0.0208004,671,708,-0.000358837,-0.0984596
-546,316,-0.0128784,0.0584106,0.0041742,-0.000309279,-0.00618374,0.00851,-0.00464508,-0.611505,0.00770358,0.0138287,678,708,-0.0128643,-0.0583965
-539,316,-0.0317993,0.0236816,0.00295486,-0.000927708,-0.00412595,0.00557341,-0.00354626,-0.565511,0.00530842,0.0120047,685,708,-0.0317698,-0.0236592
-532,316,-0.0403442,0.0458984,0.00238643,-0.00182187,-0.00200175,0.00318649,-0.00262193,-0.380232,0.00335877,0.00964491,692,708,-0.0403657,-0.0459286
-525,316,-0.0219727,0.0733643,0.00158654,-0.001943,-0.000899529,0.00180257,-0.00215903,-0.235694,0.00229032,0.0090938,699,708,-0.0219969,-0.0733747
-518,316,-0.0432129,0.0507202,0.000359079,-0.00117817,-0.000217583,0.000389282,-0.00120837,-0.137932,0.000961965,0.00939467,706,708,-0.0432297,-0.0507358
-511,316,-0.0512085,0.0408325,-0.000221199,-0.000404921,0.000349837,4.86371e-05,-0.000674757,0.657006,0.000466895,0.00924963,713,708,-0.0512297,-0.0408066
-504,316,-0.0256348,0.0380249,-0.000695457,0.000127147,0.000750844,0.000571962,-0.00114027,1.03597,0.00100655,0.0113614,720,708,-0.0256455,-0.0380468
-497,316,-0.0127563,0.0467529,-0.00243037,0.000183819,0.000424864,0.000251136,-0.00249768,1.41366,0.00175484,0.0115557,727,708,-0.0127354,-0.0467597
-490,316,-0.0163574,0.0570679,-0.0040296,0.000843479,-0.000141068,0.00084756,-0.00403368,-1.54188,0.00301166,0.0134928,734,708,-0.0163872,-0.0570527
-483,316,0.00305176,0.0648804,-0.00450542,0.000660241,-0.000588348,0.000726404,-0.00457159,-1.45881,0.00331648,0.0139005,741,708,0.00302609,-0.0649091
-476,316,0.0421753,0.0675659,-0.0045451,0.00106582,-0.00123289,0.00132477,-0.00480405,-1.36377,0.00372369,0.0236441,748,708,0.0421626,-0.0675356
-469,316,0.0751953,0.110657,-0.00419891,0.00138518,-0.0021377,0.00210956,-0.00492329,-1.24408,0.00416734,0.0428242,755,708,0.0752077,-0.110634
-462,316,-0.542542,0.0283813,-0.00384957,0.000906576,-0.00338749,0.00266738,-0.00561037,-1.09144,0.0048788,0.0482801,762,708,-0.542551,-0.0283631
-455,316,-0.906189,0.0870972,0,0,0,0,0,0,0,-1,769,708,-0.906218,-0.087076
-448,316,-0.0689697,0.380676,-0.00476686,-0.000266165,-0.00702185,0.00485712,-0.00989015,-0.940466,0.00867805,0.0460974,776,708,-0.0689525,-0.380699
-441,316,-0.44989,-0.462158,-0.00472814,-0.000748377,-0.00880386,0.00628768,-0.0117642,-0.896542,0.0105809,0.0463964,783,708,-0.449902,0.462152
-434,316,-0.115295,-0.566162,-0.0047259,-0.0017539,-0.0110718,0.00793113,-0.0144109,-0.852107,0.0130788,0.0435562,790,708,-0.115324,0.566173
-427,316,0.42157,-0.627808,-0.00648238,-0.00317476,-0.0132682,0.00854228,-0.0181994,-0.847401,0.0157713,0.0412526,797,708,0.421573,0.627788
-420,316,0.99408,-1.17004,0,0,0,0,0,0,0,-1,804,708,0.994084,1.17006
-413,316,0,0,0,0,0,0,0,0,0,-1,811,708,0,0
-406,316,0,0,0,0,0,0,0,0,0,-1,818,708,0,0
-399,316,0,0,0,0,0,0,0,0,0,-1,825,708,0,0
-392,316,0,0,0,0,0,0,0,0,0,-1,832,708,0,0
-385,316,0,0,0,0,0,0,0,0,0,-1,839,708,0,0
-378,316,0,0,0,0,0,0,0,0,0,-1,846,708,0,0
-371,316,0,0,0,0,0,0,0,0,0,-1,853,708,0,0
-364,316,0,0,0,0,0,0,0,0,0,-1,860,708,0,0
-357,316,0,0,0,0,0,0,0,0,0,-1,867,708,0,0
-350,316,0,0,0,0,0,0,0,0,0,-1,874,708,0,0
-343,316,0,0,0,0,0,0,0,0,0,-1,881,708,0,0
-336,316,0,0,0,0,0,0,0,0,0,-1,888,708,0,0
-329,316,0,0,0,0,0,0,0,0,0,-1,895,708,0,0
-322,316,0,0,0,0,0,0,0,0,0,-1,902,708,0,0
-315,316,0,0,0,0,0,0,0,0,0,-1,909,708,0,0
-308,316,0,0,0,0,0,0,0,0,0,-1,916,708,0,0
-301,316,0,0,0,0,0,0,0,0,0,-1,923,708,0,0
-294,316,0,0,0,0,0,0,0,0,0,-1,930,708,0,0
-287,316,0,0,0,0,0,0,0,0,0,-1,937,708,0,0
-280,316,0,0,0,0,0,0,0,0,0,-1,944,708,0,0
-273,316,0,0,0,0,0,0,0,0,0,-1,951,708,0,0
-266,316,0,0,0,0,0,0,0,0,0,-1,958,708,0,0
-259,316,0,0,0,0,0,0,0,0,0,-1,965,708,0,0
-252,316,0,0,0,0,0,0,0,0,0,-1,972,708,0,0
-245,316,0,0,0,0,0,0,0,0,0,-1,979,708,0,0
-238,316,0,0,0,0,0,0,0,0,0,-1,986,708,0,0
-231,316,0,0,0,0,0,0,0,0,0,-1,993,708,0,0
-224,316,0,0,0,0,0,0,0,0,0,-1,1000,708,0,0
-217,316,0,0,0,0,0,0,0,0,0,-1,1007,708,0,0
-210,316,0,0,0,0,0,0,0,0,0,-1,1014,708,0,0
-203,316,0,0,0,0,0,0,0,0,0,-1,1021,708,0,0
-196,316,0,0,0,0,0,0,0,0,0,-1,1028,708,0,0
-189,316,0,0,0,0,0,0,0,0,0,-1,1035,708,0,0
-182,316,0,0,0,0,0,0,0,0,0,-1,1042,708,0,0
-175,316,0,0,0,0,0,0,0,0,0,-1,1049,708,0,0
-168,316,0,0,0,0,0,0,0,0,0,-1,1056,708,0,0
-161,316,0,0,0,0,0,0,0,0,0,-1,1063,708,0,0
-154,316,0,0,0,0,0,0,0,0,0,-1,1070,708,0,0
-147,316,0,0,0,0,0,0,0,0,0,-1,1077,708,0,0
-140,316,0,0,0,0,0,0,0,0,0,-1,1084,708,0,0
-133,316,0,0,0,0,0,0,0,0,0,-1,1091,708,0,0
-126,316,0,0,0,0,0,0,0,0,0,-1,1098,708,0,0
-119,316,0,0,0,0,0,0,0,0,0,-1,1105,708,0,0
-112,316,0,0,0,0,0,0,0,0,0,-1,1112,708,0,0
-105,316,0,0,0,0,0,0,0,0,0,-1,1119,708,0,0
-98,316,0,0,0,0,0,0,0,0,0,-1,1126,708,0,0
-91,316,0,0,0,0,0,0,0,0,0,-1,1133,708,0,0
-84,316,0,0,0,0,0,0,0,0,0,-1,1140,708,0,0
-77,316,0,0,0,0,0,0,0,0,0,-1,1147,708,0,0
-70,316,0,0,0,0,0,0,0,0,0,-1,1154,708,0,0
-63,316,0,0,0,0,0,0,0,0,0,-1,1161,708,0,0
-56,316,0,0,0,0,0,0,0,0,0,-1,1168,708,0,0
-49,316,0,0,0,0,0,0,0,0,0,-1,1175,708,0,0
-42,316,0,0,0,0,0,0,0,0,0,-1,1182,708,0,0
-35,316,0,0,0,0,0,0,0,0,0,-1,1189,708,0,0
-28,316,0,0,0,0,0,0,0,0,0,-1,1196,708,0,0
-21,316,0,0,0,0,0,0,0,0,0,-1,1203,708,0,0
-14,316,0,0,0,0,0,0,0,0,0,-1,1210,708,0,0
-7,316,0,0,0,0,0,0,0,0,0,-1,1217,708,0,0
0,316,0,0,0,0,0,0,0,0,0,-1,1224,708,0,0
7,316,0,0,0,0,0,0,0,0,0,-1,1231,708,0,0
14,316,0,0,0,0,0,0,0,0,0,-1,1238,708,0,0
21,316,0,0,0,0,0,0,0,0,0,-1,1245,708,0,0
28,316,0,0,0,0,0,0,0,0,0,-1,1252,708,0,0
35,316,0,0,0,0,0,0,0,0,0,-1,1259,708,0,0
42,316,0,0,0,0,0,0,0,0,0,-1,1266,708,0,0
49,316,0,0,0,0,0,0,0,0,0,-1,1273,708,0,0
56,316,0,0,0,0,0,0,0,0,0,-1,1280,708,0,0
63,316,0,0,0,0,0,0,0,0,0,-1,1287,708,0,0
70,316,0,0,0,0,0,0,0,0,0,-1,1294,708,0,0
77,316,0,0,0,0,0,0,0,0,0,-1,1301,708,0,0
84,316,0,0,0,0,0,0,0,0,0,-1,1308,708,0,0
91,316,0,0,0,0,0,0,0,0,0,-1,1315,708,0,0
98,316,0,0,0,0,0,0,0,0,0,-1,1322,708,0,0
105,316,0,0,0,0,0,0,0,0,0,-1,1329,708,0,0
112,316,0,0,0,0,0,0,0,0,0,-1,1336,708,0,0
119,316,0,0,0,0,0,0,0,0,0,-1,1343,708,0,0
126,316,0,0,0,0,0,0,0,0,0,-1,1350,708,0,0
133,316,0,0,0,0,0,0,0,0,0,-1,1357,708,0,0
140,316,0,0,0,0,0,0,0,0,0,-1,1364,708,0,0
147,316,0,0,0,0,0,0,0,0,0,-1,1371,708,0,0
154,316,0,0,0,0,0,0,0,0,0,-1,1378,708,0,0
161,316,0,0,0,0,0,0,0,0,0,-1,1385,708,0,0
168,316,0,0,0,0,0,0,0,0,0,-1,1392,708,0,0
175,316,0,0,0,0,0,0,0,0,0,-1,1399,708,0,0
182,316,0,0,0,0,0,0,0,0,0,-1,1406,708,0,0
189,316,0,0,0,0,0,0,0,0,0,-1,1413,708,0,0
196,316,0,0,0,0,0,0,0,0,0,-1,1420,708,0,0
203,316,0,0,0,0,0,0,0,0,0,-1,1427,708,0,0
210,316,0,0,0,0,0,0,0,0,0,-1,1434,708,0,0
217,316,0,0,0,0,0,0,0,0,0,-1,1441,708,0,0
224,316,0,0,0,0,0,0,0,0,0,-1,1448,708,0,0
231,316,0,0,0,0,0,0,0,0,0,-1,1455,708,0,0
238,316,0,0,0,0,0,0,0,0,0,-1,1462,708,0,0
245,316,0,0,0,0,0,0,0,0,0,-1,1469,708,0,0
252,316,0,0,0,0,0,0,0,0,0,-1,1476,708,0,0
259,316,0,0,0,0,0,0,0,0,0,-1,1483,708,0,0
266,316,0,0,0,0,0,0,0,0,0,-1,1490,708,0,0
273,316,0,0,0,0,0,0,0,0,0,-1,1497,708,0,0
280,316,0,0,0,0,0,0,0,0,0,-1,1504,708,0,0
287,316,0,0,0,0,0,0,0,0,0,-1,1511,708,0,0
294,316,0,0,0,0,0,0,0,0,0,-1,1518,708,0,0
301,316,0,0,0,0,0,0,0,0,0,-1,1525,708,0,0
308,316,0,0,0,0,0,0,0,0,0,-1,1532,708,0,0
315,316,0,0,0,0,0,0,0,0,0,-1,1539,708,0,0
322,316,0,0,0,0,0,0,0,0,0,-1,1546,708,0,0
329,316,0,0,0,0,0,0,0,0,0,-1,1553,708,0,0
336,316,0,0,0,0,0,0,0,0,0,-1,1560,708,0,0
343,316,0,0,0,0,0,0,0,0,0,-1,1567,708,0,0
350,316,0,0,0,0,0,0,0,0,0,-1,1574,708,0,0
357,316,0,0,0,0,0,0,0,0,0,-1,1581,708,0,0
364,316,0,0,0,0,0,0,0,0,0,-1,1588,708,0,0
371,316,0,0,0,0,0,0,0,0,0,-1,1595,708,0,0
378,316,0,0,0,0,0,0,0,0,0,-1,1602,708,0,0
385,316,0,0,0,0,0,0,0,0,0,-1,1609,708,0,0
392,316,0,0,0,0,0,0,0,0,0,-1,1616,708,0,0
399,316,0,0,0,0,0,0,0,0,0,-1,1623,708,0,0
406,316,0,0,0,0,0,0,0,0,0,-1,1630,708,0,0
413,316,0,0,0,0,0,0,0,0,0,-1,1637,708,0,0
420,316,0,0,0,0,0,0,0,0,0,-1,1644,708,0,0
427,316,0,0,0,0,0,0,0,0,0,-1,1651,708,0,0
434,316,0,0,0,0,0,0,0,0,0,-1,1658,708,0,0
441,316,0,0,0,0,0,0,0,0,0,-1,1665,708,0,0
448,316,0,0,0,0,0,0,0,0,0,-1,1672,708,0,0
455,316,0,0,0,0,0,0,0,0,0,-1,1679,708,0,0
462,316,0,0,0,0,0,0,0,0,0,-1,1686,708,0,0
469,316,0,0,0,0,0,0,0,0,0,-1,1693,708,0,0
476,316,0,0,0,0,0,0,0,0,0,-1,1700,708,0,0
483,316,0,0,0,0,0,0,0,0,0,-1,1707,708,0,0
490,316,0,0,0,0,0,0,0,0,0,-1,1714,708,0,0
497,316,0,0,0,0,0,0,0,0,0,-1,1721,708,0,0
504,316,0,0,0,0,0,0,0,0,0,-1,1728,708,0,0
511,316,0,0,0,0,0,0,0,0,0,-1,1735,708,0,0
518,316,0,0,0,0,0,0,0,0,0,-1,1742,708,0,0
525,316,0,0,0,0,0,0,0,0,0,-1,1749,708,0,0
532,316,0.46582,0.0554199,0,0,0,0,0,0,0,-1,1756,708,0.46583,-0.055421
539,316,-0.529663,-0.420715,0,0,0,0,0,0,0,-1,1763,708,-0.529657,0.420692
546,316,-0.48877,-0.825256,0,0,0,0,0,0,0,-1,1770,708,-0.488784,0.825232
553,316,0.195801,-0.555908,0.00774769,0.0123173,0.00437089,0.0149645,0.00510046,1.02623,0.00878449,0.0415827,1777,708,0.195849,0.555918
560,316,0.0490723,-0.299805,0.00504413,0.0135052,0.00335431,0.0146736,0.0038757,1.2356,0.00878042,0.0419865,1784,708,0.0490637,0.29981
567,316,-0.00756836,-0.471497,0.00280425,0.0141251,0.00264682,0.0147134,0.00221599,1.3521,0.00916005,0.0427815,1791,708,-0.00762382,0.471499
574,316,0.0455322,-0.534302,0.00108823,0.0127528,0.00232301,0.0131984,0.000642621,1.38128,0.00859277,0.0444231,1798,708,0.045542,0.534332
581,316,0.240723,-0.322205,0.000121062,0.0126262,0.00124311,0.0127486,-1.31503e-06,1.47267,0.00849948,0.0450991,1805,708,0.240668,0.322218
588,316,-1.18518,1.32611,0,0,0,0,0,0,0,-1,1812,708,-1.18524,-1.3261
595,316,-0.482666,0.348267,0,0,0,0,0,0,0,-1,1819,708,-0.482636,-0.34826
602,316,-0.1521,-0.0707397,0,0,0,0,0,0,0,-1,1826,708,-0.152138,0.0707218
609,316,-0.0455322,0.0384521,-0.00173707,0.00622246,0.000667552,0.00627806,-0.00179267,1.4877,0.00489363,0.0317783,1833,708,-0.0454904,-0.038461
616,316,0.00817871,0.0346069,-0.000911543,0.00501027,-0.000151619,0.00501415,-0.000915422,-1.54522,0.003686,0.0135854,1840,708,0.0082072,-0.0346132
623,316,-0.0098877,0.0516357,-0.000454828,0.00383486,-0.000832608,0.0039908,-0.000610765,-1.38565,0.00288574,0.0104146,1847,708,-0.0099171,-0.0516589
630,316,-0.0307617,0.0385132,-0.000427627,0.00206524,-0.000741425,0.00226908,-0.000631472,-1.30249,0.00176136,0.0115897,1854,708,-0.0307048,-0.0385435
637,316,-0.03479,0.0391846,-0.000409523,0.000938891,-0.000459534,0.0010806,-0.000551236,-1.27166,0.000958526,0.0113228,1861,708,-0.0348133,-0.0391817
644,316,-0.0266113,0.0563965,-0.000649818,0.000381797,-0.000125906,0.000396941,-0.000664963,-1.45109,0.000619566,0.0108558,1868,708,-0.0265976,-0.0564201
651,316,-0.0385742,0.0586548,-0.000941044,-0.000159554,0.000254623,-8.39142e-05,-0.00101668,1.28203,0.000651621,0.0105856,1875,708,-0.0386182,-0.0586431
658,316,-0.0474854,0.0473022,-0.00116384,-0.000103586,0.000539748,0.000122833,-0.00139026,1.1736,0.000970378,0.0139571,1882,708,-0.0474749,-0.0473012
665,316,-0.010498,0.0566406,-0.00159751,0.000318771,0.000915847,0.000686077,-0.00196482,1.18938,0.00158874,0.0120293,1889,708,-0.0104652,-0.0566356
672,316,-0.0291748,0.0704346,-0.00168547,0.000822541,0.00133435,0.00139966,-0.00226259,1.16258,0.00213388,0.0115617,1896,708,-0.0291251,-0.0704574
679,316,-0.0419922,0.0872192,-0.00173977,0.0017445,0.0019346,0.00260577,-0.00260104,1.15195,0.00300615,0.0162642,1903,708,-0.0419668,-0.0872319
686,316,-0.0212402,0.055542,-0.00175057,0.0029949,0.00279559,0.00428893,-0.0030446,1.13728,0.00425428,0.0265217,1910,708,-0.0212559,-0.0555215
693,316,-0.0913086,0.0230103,-0.00169691,0.00469845,0.00379214,0.00646116,-0.00345962,1.13568,0.00581449,0.0428158,1917,708,-0.0913161,-0.0230081
700,316,-0.129028,0.318665,-0.0013842,0.00700246,0.00502989,0.00935771,-0.00373944,1.13287,0.0077901,0.0450498,1924,708,-0.129028,-0.318641
707,316,-0.12207,0.468506,-0.000627815,0.0103506,0.0064791,0.0133532,-0.00363037,1.13684,0.0103272,0.0448536,1931,708,-0.122015,-0.468493
714,316,-0.32666,0.182373,0.0008289,0.0152064,0.00806953,0.0188249,-0.00278955,1.14927,0.0135756,0.0441807,1938,708,-0.32661,-0.182351
721,316,-0.766724,0.0352173,0,0,0,0,0,0,0,-1,1945,708,-0.766784,-0.0352162
728,316,0,0,0,0,0,0,0,0,0,-1,1952,708,0,0
735,316,0,0,0,0,0,0,0,0,0,-1,1959,708,0,0
742,316,0,0,0,0,0,0,0,0,0,-1,1966,708,0,0
749,316,0,0,0,0,0,0,0,0,0,-1,1973,708,0,0
756,316,0,0,0,0,0,0,0,0,0,-1,1980,708,0,0
763,316,0,0,0,0,0,0,0,0,0,-1,1987,708,0,0
770,316,0,0,0,0,0,0,0,0,0,-1,1994,708,0,0
777,316,0,0,0,0,0,0,0,0,0,-1,2001,708,0,0
784,316,0,0,0,0,0,0,0,0,0,-1,2008,708,0,0
791,316,0,0,0,0,0,0,0,0,0,-1,2015,708,0,0
798,316,0,0,0,0,0,0,0,0,0,-1,2022,708,0,0
805,316,0,0,0,0,0,0,0,0,0,-1,2029,708,0,0
812,316,0,0,0,0,0,0,0,0,0,-1,2036,708,0,0
-700,309,0,0,0,0,0,0,0,0,0,-1,524,715,0,0
-693,309,0,0,0,0,0,0,0,0,0,-1,531,715,0,0
-686,309,0,0,0,0,0,0,0,0,0,-1,538,715,0,0
-679,309,0,0,0,0,0,0,0,0,0,-1,545,715,0,0
-672,309,0,0,0,0,0,0,0,0,0,-1,552,715,0,0
-665,309,0,0,0,0,0,0,0,0,0,-1,559,715,0,0
-658,309,0,0,0,0,0,0,0,0,0,-1,566,715,0,0
-651,309,0,0,0,0,0,0,0,0,0,-1,573,715,0,0
-644,309,0,0,0,0,0,0,0,0,0,-1,580,715,0,0
-637,309,0,0,0,0,0,0,0,0,0,-1,587,715,0,0
-630,309,0,0,0,0,0,0,0,0,0,-1,594,715,0,0
-623,309,0,0,0,0,0,0,0,0,0,-1,601,715,0,0
-616,309,0,0,0,0,0,0,0,0,0,-1,608,715,0,0
-609,309,-0.535156,3.17505,0,0,0,0,0,0,0,-1,615,715,-0.535133,-3.17504
-602,309,-0.423828,2.1806,-0.00238903,0.0148514,-0.0281396,0.0356615,-0.0231991,-0.934028,0.0342362,0.0472335,622,715,-0.423806,-2.18063
-595,309,-0.381531,1.802,0,0,0,0,0,0,0,-1,629,715,-0.381506,-1.80199
-588,309,-0.336426,1.42828,0.00542722,0.0141306,-0.0268679,0.0369969,-0.0174391,-0.865684,0.0320977,0.0460977,636,715,-0.336402,-1.42829
-581,309,-1.8103,-1.04279,0.00686463,0.011184,-0.0233613,0.0324853,-0.0144366,-0.831491,0.0277504,0.0460607,643,715,-1.8103,1.0428
-574,309,-1.67041,-0.438782,0.00715047,0.00816093,-0.0195116,0.0271739,-0.0118625,-0.798342,0.0231083,0.0442941,650,715,-1.67039,0.438766
-567,309,0.0869141,0.69104,0,0,0,0,0,0,0,-1,657,715,0.086927,-0.691055
-560,309,0.00567627,0.204224,0,0,0,0,0,0,0,-1,664,715,0.00567018,-0.204217
-553,309,-0.0267334,0.0563965,0.00524534,0.0015325,-0.00897082,0.0125498,-0.00577197,-0.683368,0.0108167,0.0193066,671,715,-0.0267357,-0.0563863
-546,309,-0.0292969,0.0477295,0.0041445,0.000782053,-0.00653802,0.00921399,-0.00428744,-0.659552,0.00796616,0.013509,678,715,-0.0293096,-0.0477269
-539,309,-0.0394897,0.0360718,0.00279804,-0.000138326,-0.0043182,0.00589082,-0.0032311,-0.621529,0.00534065,0.0136662,685,715,-0.0394687,-0.0360785
-532,309,-0.0285645,0.0498047,0.00214643,-0.00138028,-0.00206059,0.00309517,-0.00232902,-0.431487,0.00314206,0.0109412,692,715,-0.028587,-0.0497858
-525,309,-0.0134277,0.0645142,0.0013313,-0.00161969,-0.000836806,0.00155207,-0.00184047,-0.257952,0.00196104,0.014266,699,715,-0.0134511,-0.0645024
-518,309,-0.0383301,0.0413208,0.000187674,-0.00101445,-0.00010483,0.000196747,-0.00102352,-0.0863359,0.000756506,0.014499,706,715,-0.0383314,-0.0413506
-511,309,-0.0588379,0.036377,-0.000478338,-0.000472574,0.000504906,2.94586e-05,-0.00098037,0.788252,0.000663618,0.0104199,713,715,-0.0588276,-0.0363464
-504,309,-0.00427246,0.0443115,-0.00105248,-0.000124169,0.000929237,0.000450389,-0.00162703,1.01702,0.0012619,0.00844622,720,715,-0.00425063,-0.0442951
-497,309,-0.0131226,0.0494385,-0.002778,-8.85385e-05,0.000576051,2.96507e-05,-0.00289619,1.36843,0.00194075,0.0124759,727,715,-0.0131396,-0.0494349
-490,309,-0.019104,0.0687256,-0.00439894,0.000567549,-7.64679e-05,0.000568726,-0.00440011,-1.5554,0.0031402,0.0133827,734,715,-0.0190814,-0.0687223
-483,309,0.00598145,0.105957,-0.00490187,0.000237044,-0.000574985,0.000300593,-0.00496542,-1.46072,0.00341489,0.0207156,741,715,0.0059613,-0.105954
-476,309,0.0471191,0.118835,-0.0049852,0.000593537,-0.00127563,0.000871385,-0.00526304,-1.35633,0.00383232,0.0361247,748,715,0.0471291,-0.118854
-469,309,0.0681763,0.0645142,-0.00488091,0.00085933,-0.00227145,0.00164941,-0.005671,-1.23605,0.00443394,0.0478173,755,715,0.0681754,-0.0644922
-462,309,-0.055481,0.264954,-0.00479203,0.000427072,-0.00357788,0.00224595,-0.00661091,-1.10048,0.00531648,0.0475761,762,715,-0.0555087,-0.264943
-455,309,-0.414917,0.652771,-0.00528502,-0.000253504,-0.00532192,0.00311732,-0.00865584,-1.00619,0.00704349,0.0429173,769,715,-0.414913,-0.652774
-448,309,-0.406311,1.13824,-0.00578379,-0.000811295,-0.00728768,0.00440257,-0.0109976,-0.949786,0.00915906,0.0415407,776,715,-0.406304,-1.13822
-441,309,-0.0965576,1.46234,0,0,0,0,0,0,0,-1,783,715,-0.0965748,-1.46233
-434,309,-0.461121,-0.587646,-0.00561132,-0.00279499,-0.011461,0.00734399,-0.0157503,-0.846525,0.0136247,0.0452727,790,715,-0.461126,0.587656
-427,309,-0.104065,-0.660339,-0.00717374,-0.00458878,-0.0136761,0.00785573,-0.0196183,-0.832512,0.0163395,0.0456392,797,715,-0.104091,0.660314
-420,309,0.245422,-0.745239,0,0,0,0,0,0,0,-1,804,715,0.245399,0.74522
-413,309,0,0,0,0,0,0,0,0,0,-1,811,715,0,0
-406,309,0,0,0,0,0,0,0,0,0,-1,818,715,0,0
-399,309,0,0,0,0,0,0,0,0,0,-1,825,715,0,0
-392,309,0,0,0,0,0,0,0,0,0,-1,832,715,0,0
-385,309,0,0,0,0,0,0,0,0,0,-1,839,715,0,0
-378,309,0,0,0,0,0,0,0,0,0,-1,846,715,0,0
-371,309,0,0,0,0,0,0,0,0,0,-1,853,715,0,0
-364,309,0,0,0,0,0,0,0,0,0,-1,860,715,0,0
-357,309,0,0,0,0,0,0,0,0,0,-1,867,715,0,0
-350,309,0,0,0,0,0,0,0,0,0,-1,874,715,0,0
-343,309,0,0,0,0,0,0,0,0,0,-1,881,715,0,0
-336,309,0,0,0,0,0,0,0,0,0,-1,888,715,0,0
-329,309,0,0,0,0,0,0,0,0,0,-1,895,715,0,0
-322,309,0,0,0,0,0,0,0,0,0,-1,902,715,0,0
-315,309,0,0,0,0,0,0,0,0,0,-1,909,715,0,0
-308,309,0,0,0,0,0,0,0,0,0,-1,916,715,0,0
-301,309,0,0,0,0,0,0,0,0,0,-1,923,715,0,0
-294,309,0,0,0,0,0,0,0,0,0,-1,930,715,0,0
-287,309,0,0,0,0,0,0,0,0,0,-1,937,715,0,0
-280,309,0,0,0,0,0,0,0,0,0,-1,944,715,0,0
-273,309,0,0,0,0,0,0,0,0,0,-1,951,715,0,0
-266,309,0,0,0,0,0,0,0,0,0,-1,958,715,0,0
-259,309,0,0,0,0,0,0,0,0,0,-1,965,715,0,0
-252,309,0,0,0,0,0,0,0,0,0,-1,972,715,0,0
-245,309,0,0,0,0,0,0,0,0,0,-1,979,715,0,0
-238,309,0,0,0,0,0,0,0,0,0,-1,986,715,0,0
-231,309,0,0,0,0,0,0,0,0,0,-1,993,715,0,0
-224,309,0,0,0,0,0,0,0,0,0,-1,1000,715,0,0
-217,309,0,0,0,0,0,0,0,0,0,-1,1007,715,0,0
-210,309,0,0,0,0,0,0,0,0,0,-1,1014,715,0,0
-203,309,0,0,0,0,0,0,0,0,0,-1,1021,715,0,0
-196,309,0,0,0,0,0,0,0,0,0,-1,1028,715,0,0
-189,309,0,0,0,0,0,0,0,0,0,-1,1035,715,0,0
-182,309,0,0,0,0,0,0,0,0,0,-1,1042,715,0,0
-175,309,0,0,0,0,0,0,0,0,0,-1,1049,715,0,0
-168,309,0,0,0,0,0,0,0,0,0,-1,1056,715,0,0
-161,309,0,0,0,0,0,0,0,0,0,-1,1063,715,0,0
-154,309,0,0,0,0,0,0,0,0,0,-1,1070,715,0,0
-147,309,0,0,0,0,0,0,0,0,0,-1,1077,715,0,0
-140,309,0,0,0,0,0,0,0,0,0,-1,1084,715,0,0
-133,309,0,0,0,0,0,0,0,0,0,-1,1091,715,0,0
-126,309,0,0,0,0,0,0,0,0,0,-1,1098,715,0,0
-119,309,0,0,0,0,0,0,0,0,0,-1,1105,715,0,0
-112,309,0,0,0,0,0,0,0,0,0,-1,1112,715,0,0
-105,309,0,0,0,0,0,0,0,0,0,-1,1119,715,0,0
-98,309,0,0,0,0,0,0,0,0,0,-1,1126,715,0,0
-91,309,0,0,0,0,0,0,0,0,0,-1,1133,715,0,0
-84,309,0,0,0,0,0,0,0,0,0,-1,1140,715,0,0
-77,309,0,0,0,0,0,0,0,0,0,-1,1147,715,0,0
-70,309,0,0,0,0,0,0,0,0,0,-1,1154,715,0,0
-63,309,0,0,0,0,0,0,0,0,0,-1,1161,715,0,0
-56,309,0,0,0,0,0,0,0,0,0,-1,1168,715,0,0
-49,309,0,0,0,0,0,0,0,0,0,-1,1175,715,0,0
-42,309,0,0,0,0,0,0,0,0,0,-1,1182,715,0,0
-35,309,0,0,0,0,0,0,0,0,0,-1,1189,715,0,0
-28,309,0,0,0,0,0,0,0,0,0,-1,1196,715,0,0
-21,309,0,0,0,0,0,0,0,0,0,-1,1203,715,0,0
-14,309,0,0,0,0,0,0,0,0,0,-1,1210,715,0,0
-7,309,0,0,0,0,0,0,0,0,0,-1,1217,715,0,0
0,309,0,0,0,0,0,0,0,0,0,-1,1224,715,0,0
7,309,0,0,0,0,0,0,0,0,0,-1,1231,715,0,0
14,309,0,0,0,0,0,0,0,0,0,-1,1238,715,0,0
21,309,0,0,0,0,0,0,0,0,0,-1,1245,715,0,0
28,309,0,0,0,0,0,0,0,0,0,-1,1252,715,0,0
35,309,0,0,0,0,0,0,0,0,0,-1,1259,715,0,0
42,309,0,0,0,0,0,0,0,0,0,-1,1266,715,0,0
49,309,0,0,0,0,0,0,0,0,0,-1,1273,715,0,0
56,309,0,0,0,0,0,0,0,0,0,-1,1280,715,0,0
63,309,0,0,0,0,0,0,0,0,0,-1,1287,715,0,0
70,309,0,0,0,0,0,0,0,0,0,-1,1294,715,0,0
77,309,0,0,0,0,0,0,0,0,0,-1,1301,715,0,0
84,309,0,0,0,0,0,0,0,0,0,-1,1308,715,0,0
91,309,0,0,0,0,0,0,0,0,0,-1,1315,715,0,0
98,309,0,0,0,0,0,0,0,0,0,-1,1322,715,0,0
105,309,0,0,0,0,0,0,0,0,0,-1,1329,715,0,0
112,309,0,0,0,0,0,0,0,0,0,-1,1336,715,0,0
119,309,0,0,0,0,0,0,0,0,0,-1,1343,715,0,0
126,309,0,0,0,0,0,0,0,0,0,-1,1350,715,0,0
133,309,0,0,0,0,0,0,0,0,0,-1,1357,715,0,0
140,309,0,0,0,0,0,0,0,0,0,-1,1364,715,0,0
147,309,0,0,0,0,0,0,0,0,0,-1,1371,715,0,0
154,309,0,0,0,0,0,0,0,0,0,-1,1378,715,0,0
161,309,0,0,0,0,0,0,0,0,0,-1,1385,715,0,0
168,309,0,0,0,0,0,0,0,0,0,-1,1392,715,0,0
175,309,0,0,0,0,0,0,0,0,0,-1,1399,715,0,0
182,309,0,0,0,0,0,0,0,0,0,-1,1406,715,0,0
189,309,0,0,0,0,0,0,0,0,0,-1,1413,715,0,0
196,309,0,0,0,0,0,0,0,0,0,-1,1420,715,0,0
203,309,0,0,0,0,0,0,0,0,0,-1,1427,715,0,0
210,309,0,0,0,0,0,0,0,0,0,-1,1434,715,0,0
217,309,0,0,0,0,0,0,0,0,0,-1,1441,715,0,0
224,309,0,0,0,0,0,0,0,0,0,-1,1448,715,0,0
231,309,0,0,0,0,0,0,0,0,0,-1,1455,715,0,0
238,309,0,0,0,0,0,0,0,0,0,-1,1462,715,0,0
245,309,0,0,0,0,0,0,0,0,0,-1,1469,715,0,0
252,309,0,0,0,0,0,0,0,0,0,-1,1476,715,0,0
259,309,0,0,0,0,0,0,0,0,0,-1,1483,715,0,0
266,309,0,0,0,0,0,0,0,0,0,-1,1490,715,0,0
273,309,0,0,0,0,0,0,0,0,0,-1,1497,715,0,0
280,309,0,0,0,0,0,0,0,0,0,-1,1504,715,0,0
287,309,0,0,0,0,0,0,0,0,0,-1,1511,715,0,0
294,309,0,0,0,0,0,0,0,0,0,-1,1518,715,0,0
301,309,0,0,0,0,0,0,0,0,0,-1,1525,715,0,0
308,309,0,0,0,0,0,0,0,0,0,-1,1532,715,0,0
315,309,0,0,0,0,0,0,0,0,0,-1,1539,715,0,0
322,309,0,0,0,0,0,0,0,0,0,-1,1546,715,0,0
329,309,0,0,0,0,0,0,0,0,0,-1,1553,715,0,0
336,309,0,0,0,0,0,0,0,0,0,-1,1560,715,0,0
343,309,0,0,0,0,0,0,0,0,0,-1,1567,715,0,0
350,309,0,0,0,0,0,0,0,0,0,-1,1574,715,0,0
357,309,0,0,0,0,0,0,0,0,0,-1,1581,715,0,0
364,309,0,0,0,0,0,0,0,0,0,-1,1588,715,0,0
371,309,0,0,0,0,0,0,0,0,0,-1,1595,715,0,0
378,309,0,0,0,0,0,0,0,0,0,-1,1602,715,0,0
385,309,0,0,0,0,0,0,0,0,0,-1,1609,715,0,0
392,309,0,0,0,0,0,0,0,0,0,-1,1616,715,0,0
399,309,0,0,0,0,0,0,0,0,0,-1,1623,715,0,0
406,309,0,0,0,0,0,0,0,0,0,-1,1630,715,0,0
413,309,0,0,0,0,0,0,0,0,0,-1,1637,715,0,0
420,309,0,0,0,0,0,0,0,0,0,-1,1644,715,0,0
427,309,0,0,0,0,0,0,0,0,0,-1,1651,715,0,0
434,309,0,0,0,0,0,0,0,0,0,-1,1658,715,0,0
441,309,0,0,0,0,0,0,0,0,0,-1,1665,715,0,0
448,309,0,0,0,0,0,0,0,0,0,-1,1672,715,0,0
455,309,0,0,0,0,0,0,0,0,0,-1,1679,715,0,0
462,309,0,0,0,0,0,0,0,0,0,-1,1686,715,0,0
469,309,0,0,0,0,0,0,0,0,0,-1,1693,715,0,0
476,309,0,0,0,0,0,0,0,0,0,-1,1700,715,0,0
483,309,0,0,0,0,0,0,0,0,0,-1,1707,715,0,0
490,309,0,0,0,0,0,0,0,0,0,-1,1714,715,0,0
497,309,0,0,0,0,0,0,0,0,0,-1,1721,715,0,0
504,309,0,0,0,0,0,0,0,0,0,-1,1728,715,0,0
511,309,0,0,0,0,0,0,0,0,0,-1,1735,715,0,0
518,309,0,0,0,0,0,0,0,0,0,-1,1742,715,0,0
525,309,0,0,0,0,0,0,0,0,0,-1,1749,715,0,0
532,309,0,0,0,0,0,0,0,0,0,-1,1756,715,0,0
539,309,-0.566406,-0.477539,0,0,0,0,0,0,0,-1,1763,715,-0.56636,0.477521
546,309,-0.490356,-0.65979,0.0129118,0.00312869,0.00610164,0.0158406,0.000199931,0.447516,0.0104944,0.0423218,1770,715,-0.490395,0.659772
553,309,-0.499634,-0.814697,0.00928541,0.00694768,0.00480921,0.0130658,0.00316733,0.666186,0.00787012,0.0422522,1777,715,-0.499649,0.814717
560,309,-0.0695801,-0.403076,0,0,0,0,0,0,0,-1,1784,715,-0.0696295,0.403085
567,309,-0.11499,-0.755981,0.00443882,0.0119416,0.00293916,0.0129559,0.00342454,1.2385,0.0077521,0.045858,1791,715,-0.114958,0.75598
574,309,0.21936,-0.771301,0.0027518,0.0117017,0.00245094,0.012329,0.00212457,1.32026,0.00761062,0.0460812,1798,715,0.219379,0.771331
581,309,0.438232,-0.529968,0.00177282,0.0121021,0.00129008,0.0122607,0.00161413,1.44841,0.00769245,0.0458359,1805,715,0.438241,0.52997
588,309,0.615234,-0.320557,0,0,0,0,0,0,0,-1,1812,715,0.615258,0.320586
595,309,-0.715088,0.691711,0.000903327,0.0106706,-0.000138483,0.0106725,0.000901364,-1.55662,0.00683441,0.0459997,1819,715,-0.715137,-0.691715
602,309,0.14978,-0.198669,-0.000274067,0.00967096,-3.79426e-05,0.00967111,-0.000274213,-1.56698,0.00654073,0.0439973,1826,715,0.149766,0.198643
609,309,0.111084,-0.0870361,-0.000600688,0.00660283,0.000297196,0.00661507,-0.000612928,1.52963,0.00462791,0.0392301,1833,715,0.111056,0.0870278
616,309,0.0220947,0.0285645,-3.32124e-05,0.00520054,-0.000482544,0.00524466,-7.73303e-05,-1.47962,0.0035225,0.0200162,1840,715,0.0221478,-0.0285572
623,309,-0.010498,0.0495605,0.000143315,0.00402885,-0.00116604,0.00435191,-0.000179752,-1.30051,0.00296301,0.0101697,1847,715,-0.0105584,-0.0495675
630,309,-0.0384521,0.0461426,-5.80391e-05,0.00205184,-0.00104769,0.0024837,-0.000489893,-1.17982,0.00184095,0.00990191,1854,715,-0.038432,-0.0461586
637,309,-0.0653076,0.0539551,-0.000157926,0.000802732,-0.000691511,0.00116437,-0.00051956,-1.08895,0.000995691,0.0128149,1861,715,-0.0653523,-0.0539252
644,309,-0.0402832,0.0599976,-0.000426064,0.000179147,-0.000301998,0.000304061,-0.000550978,-1.1786,0.000500471,0.0137954,1868,715,-0.0402903,-0.0599874
651,309,-0.022583,0.0705566,-0.000722836,-0.000347801,0.000149929,-0.000295232,-0.000775405,1.23356,0.000451905,0.0128259,1875,715,-0.0225755,-0.0705283
658,309,-0.0247803,0.053833,-0.000906989,-0.000260353,0.000510857,2.09031e-05,-0.00118825,1.06753,0.000799222,0.017599,1882,715,-0.0247862,-0.0538185
665,309,-0.00561523,0.0629883,-0.00128942,0.000246702,0.000971829,0.000717337,-0.00176006,1.11981,0.00147195,0.0148973,1889,715,-0.0056246,-0.0629606
672,309,-0.00512695,0.0756836,-0.00124876,0.000868781,0.00146743,0.00161953,-0.00199951,1.09791,0.00209329,0.0138214,1896,715,-0.00510392,-0.0756859
679,309,-0.0330811,0.0979614,-0.00116354,0.00201573,0.00215992,0.00310793,-0.00225573,1.10263,0.00310971,0.0143571,1903,715,-0.0330581,-0.09797
686,309,-0.0144043,0.0774536,-0.00107941,0.00353454,0.00312719,0.00511362,-0.00265849,1.10319,0.00456125,0.0177469,1910,715,-0.0144596,-0.0774744
693,309,-0.0698242,0.123596,-0.000867921,0.00577591,0.00408517,0.00771933,-0.00281134,1.12676,0.00629614,0.0303433,1917,715,-0.0698265,-0.12362
700,309,-0.154785,0.292847,-0.000292642,0.00903783,0.00513363,0.0113093,-0.00256416,1.15422,0.00852383,0.0445106,1924,715,-0.154745,-0.292851
707,309,-0.0167236,0.522034,0.000784356,0.0135578,0.00630078,0.0161427,-0.00180054,1.18148,0.0114095,0.0462951,1931,715,-0.0167174,-0.522022
714,309,-0.090332,0.29071,0,0,0,0,0,0,0,-1,1938,715,-0.0903504,-0.290684
721,309,0.446411,0.690186,0,0,0,0,0,0,0,-1,1945,715,0.446399,-0.690202
728,309,0,0,0,0,0,0,0,0,0,-1,1952,715,0,0
735,309,0,0,0,0,0,0,0,0,0,-1,1959,715,0,0
742,309,0,0,0,0,0,0,0,0,0,-1,1966,715,0,0
749,309,0,0,0,0,0,0,0,0,0,-1,1973,715,0,0
756,309,0,0,0,0,0,0,0,0,0,-1,1980,715,0,0
763,309,0,0,0,0,0,0,0,0,0,-1,1987,715,0,0
770,309,0,0,0,0,0,0,0,0,0,-1,1994,715,0,0
777,309,0,0,0,0,0,0,0,0,0,-1,2001,715,0,0
784,309,0,0,0,0,0,0,0,0,0,-1,2008,715,0,0
791,309,0,0,0,0,0,0,0,0,0,-1,2015,715,0,0
798,309,0,0,0,0,0,0,0,0,0,-1,2022,715,0,0
805,309,0,0,0,0,0,0,0,0,0,-1,2029,715,0,0
812,309,0,0,0,0,0,0,0,0,0,-1,2036,715,0,0
-700,302,0,0,0,0,0,0,0,0,0,-1,524,722,0,0
-693,302,0,0,0,0,0,0,0,0,0,-1,531,722,0,0
-686,302,0,0,0,0,0,0,0,0,0,-1,538,722,0,0
-679,302,0,0,0,0,0,0,0,0,0,-1,545,722,0,0
-672,302,0,0,0,0,0,0,0,0,0,-1,552,722,0,0
-665,302,0,0,0,0,0,0,0,0,0,-1,559,722,0,0
-658,302,0,0,0,0,0,0,0,0,0,-1,566,722,0,0
-651,302,0,0,0,0,0,0,0,0,0,-1,573,722,0,0
-644,302,0,0,0,0,0,0,0,0,0,-1,580,722,0,0
-637,302,0,0,0,0,0,0,0,0,0,-1,587,722,0,0
-630,302,0,0,0,0,0,0,0,0,0,-1,594,722,0,0
-623,302,0,0,0,0,0,0,0,0,0,-1,601,722,0,0
-616,302,0,0,0,0,0,0,0,0,0,-1,608,722,0,0
-609,302,-1.2851,-0.0100098,0,0,0,0,0,0,0,-1,615,722,-1.28509,0.0100007
-602,302,-0.745728,2.83435,0,0,0,0,0,0,0,-1,622,722,-0.745716,-2.83433
-595,302,-0.413391,2.22485,0,0,0,0,0,0,0,-1,629,722,-0.413361,-2.22486
-588,302,-0.386963,1.815,0.00405736,0.0140262,-0.0247635,0.0343019,-0.0162184,-0.884711,0.0297843,0.0436902,636,722,-0.386965,-1.81502
-581,302,-0.666809,-0.550537,0.00584552,0.0116186,-0.0219921,0.0309128,-0.0134486,-0.850652,0.0262653,0.0435669,643,722,-0.666803,0.550508
-574,302,-0.967285,-0.479675,0.00640807,0.00899167,-0.0187906,0.0265348,-0.0111351,-0.819718,0.0223463,0.0426246,650,722,-0.967303,0.479702
-567,302,-0.745483,-0.234863,0.00632197,0.00623968,-0.0150517,0.0213325,-0.00877089,-0.784031,0.0178775,0.0397047,657,722,-0.745503,0.234879
-560,302,-0.167725,-0.0705566,0.00583543,0.00408447,-0.0117366,0.0167291,-0.00680923,-0.74817,0.0139864,0.0266881,664,722,-0.167731,0.0705651
-553,302,-0.0385742,0.0360718,0.00509623,0.00239816,-0.00886334,0.0127126,-0.00521822,-0.709876,0.0106495,0.0120044,671,722,-0.0385482,-0.0360769
-546,302,-0.0485229,0.0430908,0.00400351,0.00139848,-0.0064305,0.00926208,-0.00386009,-0.685474,0.00778714,0.0129677,678,722,-0.0485216,-0.0431175
-539,302,-0.0478516,0.0565186,0.00253104,0.000264022,-0.00418068,0.00572915,-0.00293409,-0.653016,0.00508776,0.0134242,685,722,-0.0478592,-0.0565348
-532,302,-0.0490723,0.0640259,0.00176623,-0.00124889,-0.00190747,0.00268996,-0.00217262,-0.450986,0.00281271,0.0129436,692,722,-0.0490735,-0.064053
-525,302,-0.0390625,0.0522461,0.000950089,-0.00160715,-0.000601861,0.00108466,-0.00174172,-0.219972,0.00164644,0.0176894,699,722,-0.0390619,-0.0522498
-518,302,-0.0518799,0.0562134,-9.07657e-05,-0.00118428,0.000178545,-6.2352e-05,-0.0012127,0.157817,0.000788502,0.0184617,706,722,-0.0519092,-0.05621
-511,302,-0.0321655,0.0706787,-0.00081196,-0.00091602,0.000805853,-5.64592e-05,-0.00167152,0.75316,0.00109601,0.00912739,713,722,-0.0321468,-0.070709
-504,302,-0.0209961,0.0626221,-0.00143618,-0.000807533,0.00123922,0.000156606,-0.00240032,0.909602,0.00165489,0.00860663,720,722,-0.0210227,-0.0626355
-497,302,-0.0181274,0.0686035,-0.00307717,-0.000850228,0.000910215,-0.000525538,-0.00340186,1.22815,0.00211461,0.0124178,727,722,-0.0181404,-0.0686282
-490,302,-0.0111084,0.0767822,-0.00467008,-0.000268164,0.000240264,-0.000255089,-0.00468315,1.51643,0.00304064,0.0142107,734,722,-0.0110848,-0.0767517
-483,302,0.101807,0.171631,-0.00521084,-0.000740606,-0.000267058,-0.000724708,-0.00522674,-1.51134,0.0032698,0.0295877,741,722,0.101778,-0.171652
-476,302,0.684509,0.576111,-0.00536827,-0.00045448,-0.000985517,-0.000264192,-0.00555856,-1.38006,0.00362085,0.0375103,748,722,0.684509,-0.576113
-469,302,0.109802,0.072937,-0.0055019,-0.000239054,-0.00202896,0.000452333,-0.00619329,-1.24238,0.0042876,0.0449373,755,722,0.109786,-0.0729649
-462,302,0.155579,0.0684204,-0.0056715,-0.000607315,-0.00337934,0.00108332,-0.00736214,-1.10692,0.00530619,0.0460624,762,722,0.155568,-0.0683991
-455,302,-0.107361,0.608826,-0.00629348,-0.00120785,-0.00516041,0.00200222,-0.00950355,-1.01432,0.00709788,0.0447874,769,722,-0.107357,-0.608848
-448,302,-0.309021,0.803589,-0.00689306,-0.00171698,-0.00717481,0.00332229,-0.0119323,-0.958491,0.00926309,0.044845,776,722,-0.308995,-0.803588
-441,302,-0.464111,0.999878,-0.00691118,-0.00246521,-0.00910289,0.0046822,-0.0140586,-0.905157,0.0112624,0.0461005,783,722,-0.464111,-0.999853
-434,302,-0.617554,1.33691,-0.00697485,-0.00390812,-0.0112708,0.00593315,-0.0168161,-0.853007,0.0136261,0.0487344,790,722,-0.617525,-1.33693
-427,302,-0.712158,-0.664795,0,0,0,0,0,0,0,-1,797,722,-0.712166,0.664775
-420,302,0,0,0,0,0,0,0,0,0,-1,804,722,0,0
-413,302,0,0,0,0,0,0,0,0,0,-1,811,722,0,0
-406,302,0,0,0,0,0,0,0,0,0,-1,818,722,0,0
-399,302,0,0,0,0,0,0,0,0,0,-1,825,722,0,0
-392,302,0,0,0,0,0,0,0,0,0,-1,832,722,0,0
-385,302,0,0,0,0,0,0,0,0,0,-1,839,722,0,0
-378,302,0,0,0,0,0,0,0,0,0,-1,846,722,0,0
-371,302,0,0,0,0,0,0,0,0,0,-1,853,722,0,0
-364,302,0,0,0,0,0,0,0,0,0,-1,860,722,0,0
-357,302,0,0,0,0,0,0,0,0,0,-1,867,722,0,0
-350,302,0,0,0,0,0,0,0,0,0,-1,874,722,0,0
-343,302,0,0,0,0,0,0,0,0,0,-1,881,722,0,0
-336,302,0,0,0,0,0,0,0,0,0,-1,888,722,0,0
-329,302,0,0,0,0,0,0,0,0,0,-1,895,722,0,0
-322,302,0,0,0,0,0,0,0,0,0,-1,902,722,0,0
-315,302,0,0,0,0,0,0,0,0,0,-1,909,722,0,0
-308,302,0,0,0,0,0,0,0,0,0,-1,916,722,0,0
-301,302,0,0,0,0,0,0,0,0,0,-1,923,722,0,0
-294,302,0,0,0,0,0,0,0,0,0,-1,930,722,0,0
-287,302,0,0,0,0,0,0,0,0,0,-1,937,722,0,0
-280,302,0,0,0,0,0,0,0,0,0,-1,944,722,0,0
-273,302,0,0,0,0,0,0,0,0,0,-1,951,722,0,0
-266,302,0,0,0,0,0,0,0,0,0,-1,958,722,0,0
-259,302,0,0,0,0,0,0,0,0,0,-1,965,722,0,0
-252,302,0,0,0,0,0,0,0,0,0,-1,972,722,0,0
-245,302,0,0,0,0,0,0,0,0,0,-1,979,722,0,0
-238,302,0,0,0,0,0,0,0,0,0,-1,986,722,0,0
-231,302,0,0,0,0,0,0,0,0,0,-1,993,722,0,0
-224,302,0,0,0,0,0,0,0,0,0,-1,1000,722,0,0
-217,302,0,0,0,0,0,0,0,0,0,-1,1007,722,0,0
-210,302,0,0,0,0,0,0,0,0,0,-1,1014,722,0,0
-203,302,0,0,0,0,0,0,0,0,0,-1,1021,722,0,0
-196,302,0,0,0,0,0,0,0,0,0,-1,1028,722,0,0
-189,302,0,0,0,0,0,0,0,0,0,-1,1035,722,0,0
-182,302,0,0,0,0,0,0,0,0,0,-1,1042,722,0,0
-175,302,0,0,0,0,0,0,0,0,0,-1,1049,722,0,0
-168,302,0,0,0,0,0,0,0,0,0,-1,1056,722,0,0
-161,302,0,0,0,0,0,0,0,0,0,-1,1063,722,0,0
-154,302,0,0,0,0,0,0,0,0,0,-1,1070,722,0,0
-147,302,0,0,0,0,0,0,0,0,0,-1,1077,722,0,0
-140,302,0,0,0,0,0,0,0,0,0,-1,1084,722,0,0
-133,302,0,0,0,0,0,0,0,0,0,-1,1091,722,0,0
-126,302,0,0,0,0,0,0,0,0,0,-1,1098,722,0,0
-119,302,0,0,0,0,0,0,0,0,0,-1,1105,722,0,0
-112,302,0,0,0,0,0,0,0,0,0,-1,1112,722,0,0
-105,302,0,0,0,0,0,0,0,0,0,-1,1119,722,0,0
-98,302,0,0,0,0,0,0,0,0,0,-1,1126,722,0,0
-91,302,0,0,0,0,0,0,0,0,0,-1,1133,722,0,0
-84,302,0,0,0,0,0,0,0,0,0,-1,1140,722,0,0
-77,302,0,0,0,0,0,0,0,0,0,-1,1147,722,0,0
-70,302,0,0,0,0,0,0,0,0,0,-1,1154,722,0,0
-63,302,0,0,0,0,0,0,0,0,0,-1,1161,722,0,0
-56,302,0,0,0,0,0,0,0,0,0,-1,1168,722,0,0
-49,302,0,0,0,0,0,0,0,0,0,-1,1175,722,0,0
-42,302,0,0,0,0,0,0,0,0,0,-1,1182,722,0,0
-35,302,0,0,0,0,0,0,0,0,0,-1,1189,722,0,0
-28,302,0,0,0,0,0,0,0,0,0,-1,1196,722,0,0
-21,302,0,0,0,0,0,0,0,0,0,-1,1203,722,0,0
-14,302,0,0,0,0,0,0,0,0,0,-1,1210,722,0,0
-7,302,0,0,0,0,0,0,0,0,0,-1,1217,722,0,0
0,302,0,0,0,0,0,0,0,0,0,-1,1224,722,0,0
7,302,0,0,0,0,0,0,0,0,0,-1,1231,722,0,0
14,302,0,0,0,0,0,0,0,0,0,-1,1238,722,0,0
21,302,0,0,0,0,0,0,0,0,0,-1,1245,722,0,0
28,302,0,0,0,0,0,0,0,0,0,-1,1252,722,0,0
35,302,0,0,0,0,0,0,0,0,0,-1,1259,722,0,0
42,302,0,0,0,0,0,0,0,0,0,-1,1266,722,0,0
49,302,0,0,0,0,0,0,0,0,0,-1,1273,722,0,0
56,302,0,0,0,0,0,0,0,0,0,-1,1280,722,0,0
63,302,0,0,0,0,0,0,0,0,0,-1,1287,722,0,0
70,302,0,0,0,0,0,0,0,0,0,-1,1294,722,0,0
77,302,0,0,0,0,0,0,0,0,0,-1,1301,722,0,0
84,302,0,0,0,0,0,0,0,0,0,-1,1308,722,0,0
91,302,0,0,0,0,0,0,0,0,0,-1,1315,722,0,0
98,302,0,0,0,0,0,0,0,0,0,-1,1322,722,0,0
105,302,0,0,0,0,0,0,0,0,0,-1,1329,722,0,0
112,302,0,0,0,0,0,0,0,0,0,-1,1336,722,0,0
119,302,0,0,0,0,0,0,0,0,0,-1,1343,722,0,0
126,302,0,0,0,0,0,0,0,0,0,-1,1350,722,0,0
133,302,0,0,0,0,0,0,0,0,0,-1,1357,722,0,0
140,302,0,0,0,0,0,0,0,0,0,-1,1364,722,0,0
147,302,0,0,0,0,0,0,0,0,0,-1,1371,722,0,0
154,302,0,0,0,0,0,0,0,0,0,-1,1378,722,0,0
161,302,0,0,0,0,0,0,0,0,0,-1,1385,722,0,0
168,302,0,0,0,0,0,0,0,0,0,-1,1392,722,0,0
175,302,0,0,0,0,0,0,0,0,0,-1,1399,722,0,0
182,302,0,0,0,0,0,0,0,0,0,-1,1406,722,0,0
189,302,0,0,0,0,0,0,0,0,0,-1,1413,722,0,0
196,302,0,0,0,0,0,0,0,0,0,-1,1420,722,0,0
203,302,0,0,0,0,0,0,0,0,0,-1,1427,722,0,0
210,302,0,0,0,0,0,0,0,0,0,-1,1434,722,0,0
217,302,0,0,0,0,0,0,0,0,0,-1,1441,722,0,0
224,302,0,0,0,0,0,0,0,0,0,-1,1448,722,0,0
231,302,0,0,0,0,0,0,0,0,0,-1,1455,722,0,0
238,302,0,0,0,0,0,0,0,0,0,-1,1462,722,0,0
245,302,0,0,0,0,0,0,0,0,0,-1,1469,722,0,0
252,302,0,0,0,0,0,0,0,0,0,-1,1476,722,0,0
259,302,0,0,0,0,0,0,0,0,0,-1,1483,722,0,0
266,302,0,0,0,0,0,0,0,0,0,-1,1490,722,0,0
273,302,0,0,0,0,0,0,0,0,0,-1,1497,722,0,0
280,302,0,0,0,0,0,0,0,0,0,-1,1504,722,0,0
287,302,0,0,0,0,0,0,0,0,0,-1,1511,722,0,0
294,302,0,0,0,0,0,0,0,0,0,-1,1518,722,0,0
301,302,0,0,0,0,0,0,0,0,0,-1,1525,722,0,0
308,302,0,0,0,0,0,0,0,0,0,-1,1532,722,0,0
315,302,0,0,0,0,0,0,0,0,0,-1,1539,722,0,0
322,302,0,0,0,0,0,0,0,0,0,-1,1546,722,0,0
329,302,0,0,0,0,0,0,0,0,0,-1,1553,722,0,0
336,302,0,0,0,0,0,0,0,0,0,-1,1560,722,0,0
343,302,0,0,0,0,0,0,0,0,0,-1,1567,722,0,0
350,302,0,0,0,0,0,0,0,0,0,-1,1574,722,0,0
357,302,0,0,0,0,0,0,0,0,0,-1,1581,722,0,0
364,302,0,0,0,0,0,0,0,0,0,-1,1588,722,0,0
371,302,0,0,0,0,0,0,0,0,0,-1,1595,722,0,0
378,302,0,0,0,0,0,0,0,0,0,-1,1602,722,0,0
385,302,0,0,0,0,0,0,0,0,0,-1,1609,722,0,0
392,302,0,0,0,0,0,0,0,0,0,-1,1616,722,0,0
399,302,0,0,0,0,0,0,0,0,0,-1,1623,722,0,0
406,302,0,0,0,0,0,0,0,0,0,-1,1630,722,0,0
413,302,0,0,0,0,0,0,0,0,0,-1,1637,722,0,0
420,302,0,0,0,0,0,0,0,0,0,-1,1644,722,0,0
427,302,0,0,0,0,0,0,0,0,0,-1,1651,722,0,0
434,302,0,0,0,0,0,0,0,0,0,-1,1658,722,0,0
441,302,0,0,0,0,0,0,0,0,0,-1,1665,722,0,0
448,302,0,0,0,0,0,0,0,0,0,-1,1672,722,0,0
455,302,0,0,0,0,0,0,0,0,0,-1,1679,722,0,0
462,302,0,0,0,0,0,0,0,0,0,-1,1686,722,0,0
469,302,0,0,0,0,0,0,0,0,0,-1,1693,722,0,0
476,302,0,0,0,0,0,0,0,0,0,-1,1700,722,0,0
483,302,0,0,0,0,0,0,0,0,0,-1,1707,722,0,0
490,302,0,0,0,0,0,0,0,0,0,-1,1714,722,0,0
497,302,0,0,0,0,0,0,0,0,0,-1,1721,722,0,0
504,302,0,0,0,0,0,0,0,0,0,-1,1728,722,0,0
511,302,0,0,0,0,0,0,0,0,0,-1,1735,722,0,0
518,302,0,0,0,0,0,0,0,0,0,-1,1742,722,0,0
525,302,0,0,0,0,0,0,0,0,0,-1,1749,722,0,0
532,302,0,0,0,0,0,0,0,0,0,-1,1756,722,0,0
539,302,0,0,0,0,0,0,0,0,0,-1,1763,722,0,0
546,302,-0.577637,-0.330994,0.014638,-0.00498199,0.00532737,0.0159912,-0.00633519,0.248748,0.0132859,0.0423165,1770,722,-0.577679,0.331019
553,302,-0.362671,-0.518982,0.0109791,0.00126624,0.00445377,0.0127121,-0.000466794,0.371089,0.00863453,0.0428065,1777,722,-0.36267,0.518999
560,302,-0.366455,-0.741699,0,0,0,0,0,0,0,-1,1784,722,-0.366496,0.74167
567,302,-0.307861,-1.0976,0,0,0,0,0,0,0,-1,1791,722,-0.307863,1.0976
574,302,0.471802,-0.95874,0,0,0,0,0,0,0,-1,1798,722,0.471831,0.958759
581,302,0.647217,-0.727356,0,0,0,0,0,0,0,-1,1805,722,0.647174,0.727366
588,302,0.458618,-0.523376,0,0,0,0,0,0,0,-1,1812,722,0.458579,0.523382
595,302,0.381592,-0.525269,0.00244964,0.0100733,-0.000248913,0.0100814,0.00244152,-1.53819,0.00607298,0.0420974,1819,722,0.381573,0.52528
602,302,0.109375,-0.295654,0.0011417,0.00919326,-0.000231088,0.00919989,0.00113508,-1.54213,0.00579209,0.0417309,1826,722,0.109435,0.295665
609,302,0.0179443,-0.206665,0.000588406,0.00647926,-2.11561e-05,0.00647933,0.00058833,-1.56721,0.00413741,0.0401203,1833,722,0.01799,0.206692
616,302,-0.00415039,0.0125122,0.000850634,0.00495436,-0.000720929,0.00507732,0.000727668,-1.40186,0.00317029,0.0319967,1840,722,-0.00416917,-0.012511
623,302,-0.027832,0.0484619,0.000738687,0.00383973,-0.00136457,0.00435468,0.000223736,-1.20995,0.00283149,0.0120187,1847,722,-0.0278689,-0.0484488
630,302,-0.0528564,0.0630493,0.00029407,0.00179147,-0.00124618,0.00249656,-0.000411021,-1.0559,0.00181695,0.00973616,1854,722,-0.0528852,-0.0630306
637,302,-0.0611572,0.0619507,3.61346e-05,0.000505197,-0.000848286,0.00115078,-0.000609444,-0.920268,0.00103216,0.0128126,1861,722,-0.0611781,-0.0619427
644,302,-0.0327148,0.0544434,-0.000269258,-0.000141566,-0.000432309,0.000231586,-0.000642411,-0.858711,0.000522854,0.0148863,1868,722,-0.032745,-0.0544266
651,302,-0.0137939,0.0725098,-0.000564417,-0.000599654,2.72196e-05,-0.000549612,-0.00061446,0.498173,0.000389826,0.0145936,1875,722,-0.0138362,-0.0725001
658,302,0.0124512,0.0619507,-0.000705801,-0.000476841,0.00042687,-0.000149367,-0.00103328,0.916408,0.000644854,0.0151767,1882,722,0.0124934,-0.0619792
665,302,-0.0126953,0.060791,-0.00104625,0.00010543,0.000939221,0.000631283,-0.00157211,1.0604,0.00131021,0.0137079,1889,722,-0.0126703,-0.0607648
672,302,-0.0361328,0.0560913,-0.00088381,0.000803665,0.00148807,0.00167056,-0.0017507,1.0433,0.00197545,0.010446,1896,722,-0.0361931,-0.056118
679,302,-0.036499,0.0793457,-0.000662265,0.00211584,0.00223623,0.00335932,-0.00190574,1.06331,0.00307815,0.00835637,1903,722,-0.036498,-0.0793615
686,302,-0.0301514,0.062561,-0.000272084,0.0036829,0.00313891,0.00541529,-0.00200447,1.06649,0.00443211,0.0108296,1910,722,-0.0301907,-0.0625805
693,302,-0.052124,0.0987549,0.000338583,0.00635108,0.00379894,0.00818937,-0.0014997,1.12012,0.00602205,0.0207987,1917,722,-0.0521449,-0.0987657
700,302,-0.0799561,0.310974,0.00142359,0.010299,0.00427174,0.0120209,-0.000298336,1.18762,0.0081152,0.0401865,1924,722,-0.0799311,-0.311002
707,302,0.00317383,0.525269,0.00323837,0.0155281,0.00466732,0.0170997,0.00166681,1.246,0.0108868,0.0434044,1931,722,0.0031644,-0.525256
714,302,0.0345459,0.594849,0.0061657,0.0231374,0.0045224,0.0242673,0.00503585,1.32597,0.0147882,0.0408147,1938,722,0.0345326,-0.59483
721,302,0.0531006,0.651245,0,0,0,0,0,0,0,-1,1945,722,0.0531459,-0.651272
728,302,0.041748,0.63501,0,0,0,0,0,0,0,-1,1952,722,0.0416918,-0.634998
735,302,0,0,0,0,0,0,0,0,0,-1,1959,722,0,0
742,302,0,0,0,0,0,0,0,0,0,-1,1966,722,0,0
749,302,0,0,0,0,0,0,0,0,0,-1,1973,722,0,0
756,302,0,0,0,0,0,0,0,0,0,-1,1980,722,0,0
763,302,0,0,0,0,0,0,0,0,0,-1,1987,722,0,0
770,302,0,0,0,0,0,0,0,0,0,-1,1994,722,0,0
777,302,0,0,0,0,0,0,0,0,0,-1,2001,722,0,0
784,302,0,0,0,0,0,0,0,0,0,-1,2008,722,0,0
791,302,0,0,0,0,0,0,0,0,0,-1,2015,722,0,0
798,302,0,0,0,0,0,0,0,0,0,-1,2022,722,0,0
805,302,0,0,0,0,0,0,0,0,0,-1,2029,722,0,0
812,302,0,0,0,0,0,0,0,0,0,-1,2036,722,0,0
-700,295,0,0,0,0,0,0,0,0,0,-1,524,729,0,0
-693,295,0,0,0,0,0,0,0,0,0,-1,531,729,0,0
-686,295,0,0,0,0,0,0,0,0,0,-1,538,729,0,0
-679,295,0,0,0,0,0,0,0,0,0,-1,545,729,0,0
-672,295,0,0,0,0,0,0,0,0,0,-1,552,729,0,0
-665,295,0,0,0,0,0,0,0,0,0,-1,559,729,0,0
-658,295,0,0,0,0,0,0,0,0,0,-1,566,729,0,0
-651,295,0,0,0,0,0,0,0,0,0,-1,573,729,0,0
-644,295,0,0,0,0,0,0,0,0,0,-1,580,729,0,0
-637,295,0,0,0,0,0,0,0,0,0,-1,587,729,0,0
-630,295,0,0,0,0,0,0,0,0,0,-1,594,729,0,0
-623,295,0,0,0,0,0,0,0,0,0,-1,601,729,0,0
-616,295,-0.0965576,-0.647644,0,0,0,0,0,0,0,-1,608,729,-0.0965756,0.64765
-609,295,-0.484741,-0.403748,0,0,0,0,0,0,0,-1,615,729,-0.484712,0.403767
-602,295,-0.62677,-0.367859,0,0,0,0,0,0,0,-1,622,729,-0.62674,0.367852
-595,295,-0.636414,-0.361816,0,0,0,0,0,0,0,-1,629,729,-0.636425,0.361796
-588,295,-0.556458,-0.37915,0.0035365,0.0121362,-0.021682,0.0299406,-0.014268,-0.883285,0.026053,0.0434525,636,729,-0.556459,0.379152
-581,295,-0.474854,-0.396667,0.00512715,0.0104998,-0.0195819,0.0275788,-0.0119518,-0.853565,0.0234099,0.0436253,643,729,-0.474864,0.396672
-574,295,-0.442017,-0.286682,0.00572332,0.00844744,-0.0170489,0.0241886,-0.0100178,-0.825259,0.0203061,0.0409323,650,729,-0.44199,0.286673
-567,295,-0.287048,-0.118103,0.00580474,0.00608551,-0.0138117,0.0197576,-0.00786731,-0.79048,0.0164343,0.0343144,657,729,-0.28704,0.118122
-560,295,-0.0394287,0.0223389,0.00548376,0.00416333,-0.0108469,0.0156905,-0.00604345,-0.755002,0.0129536,0.01609,664,729,-0.0394431,-0.0223626
-553,295,-0.00354004,0.0448608,0.00487671,0.00254566,-0.00821644,0.0120099,-0.00458751,-0.714942,0.00989676,0.0144792,671,729,-0.00356901,-0.0448795
-546,295,-0.0284424,0.0459595,0.00381893,0.00143415,-0.00590802,0.00865369,-0.0034006,-0.685823,0.00717645,0.0183077,678,729,-0.0284373,-0.0459751
-539,295,-0.039856,0.0717773,0.00225854,0.000189784,-0.00373746,0.00510212,-0.0026538,-0.650397,0.00455164,0.0159218,685,729,-0.0398771,-0.0717622
-532,295,-0.0579834,0.078125,0.00137949,-0.00148525,-0.00155045,0.00205795,-0.00216371,-0.412482,0.00243763,0.013356,692,729,-0.0579693,-0.0781451
-525,295,-0.0514526,0.0645752,0.000594984,-0.00193014,-0.000231695,0.000616068,-0.00195122,-0.0907463,0.0015476,0.0133501,699,729,-0.0514819,-0.0645842
-518,295,-0.0357056,0.0652466,-0.000315384,-0.00165969,0.000559572,-0.000112945,-0.00186213,0.347125,0.00120554,0.0101924,706,729,-0.0357197,-0.0652289
-511,295,-0.0363159,0.0736694,-0.00103868,-0.00161262,0.00116668,-0.000124197,-0.00252711,0.664808,0.0016449,0.00809919,713,729,-0.0363285,-0.0736599
-504,295,-0.0368652,0.0686035,-0.00164092,-0.00168786,0.00159435,-6.98713e-05,-0.00325891,0.778038,0.00214969,0.00946785,720,729,-0.0368538,-0.0685744
-497,295,-0.0335693,0.0766602,-0.00312999,-0.00175705,0.00129831,-0.000974903,-0.00391214,1.02859,0.00235148,0.0128905,727,729,-0.033589,-0.0766603
-490,295,-0.0250854,0.0856323,-0.00462634,-0.00118238,0.000633408,-0.00106958,-0.00473914,1.39456,0.00287012,0.0233631,734,729,-0.0251058,-0.0856195
-483,295,0.121582,0.153625,-0.00516844,-0.00168951,0.000131587,-0.00168454,-0.00517341,1.53304,0.00304682,0.0413529,741,729,0.121606,-0.153656
-476,295,0.459351,0.206055,-0.00538219,-0.00139553,-0.000593375,-0.00130908,-0.00546863,-1.42613,0.00329719,0.0390001,748,729,0.459369,-0.206057
-469,295,0.211914,0.0350342,-0.00575777,-0.00112185,-0.0016404,-0.000600113,-0.0062795,-1.26286,0.00400133,0.0452451,755,729,0.211895,-0.0350288
-462,295,0.205383,-0.00158691,0,0,0,0,0,0,0,-1,762,729,0.205378,0.00159499
-455,295,0.175293,0.686279,0,0,0,0,0,0,0,-1,769,729,0.175299,-0.68629
-448,295,0.292114,0.622498,-0.00764061,-0.00203122,-0.00685596,0.00257155,-0.0122434,-0.979556,0.00914081,0.0457142,776,729,0.29213,-0.622481
-441,295,-0.0754395,0.934387,-0.00788561,-0.00279909,-0.00886203,0.00387739,-0.0145621,-0.925135,0.011226,0.0450531,783,729,-0.0754249,-0.934391
-434,295,-0.161987,1.27692,-0.00825843,-0.00454282,-0.0108183,0.00457606,-0.0173773,-0.870433,0.0133738,0.0479587,790,729,-0.161995,-1.27694
-427,295,0,0,0,0,0,0,0,0,0,-1,797,729,0,0
-420,295,0,0,0,0,0,0,0,0,0,-1,804,729,0,0
-413,295,0,0,0,0,0,0,0,0,0,-1,811,729,0,0
-406,295,0,0,0,0,0,0,0,0,0,-1,818,729,0,0
-399,295,0,0,0,0,0,0,0,0,0,-1,825,729,0,0
-392,295,0,0,0,0,0,0,0,0,0,-1,832,729,0,0
-385,295,0,0,0,0,0,0,0,0,0,-1,839,729,0,0
-378,295,0,0,0,0,0,0,0,0,0,-1,846,729,0,0
-371,295,0,0,0,0,0,0,0,0,0,-1,853,729,0,0
-364,295,0,0,0,0,0,0,0,0,0,-1,860,729,0,0
-357,295,0,0,0,0,0,0,0,0,0,-1,867,729,0,0
-350,295,0,0,0,0,0,0,0,0,0,-1,874,729,0,0
-343,295,0,0,0,0,0,0,0,0,0,-1,881,729,0,0
-336,295,0,0,0,0,0,0,0,0,0,-1,888,729,0,0
-329,295,0,0,0,0,0,0,0,0,0,-1,895,729,0,0
-322,295,0,0,0,0,0,0,0,0,0,-1,902,729,0,0
-315,295,0,0,0,0,0,0,0,0,0,-1,909,729,0,0
-308,295,0,0,0,0,0,0,0,0,0,-1,916,729,0,0
-301,295,0,0,0,0,0,0,0,0,0,-1,923,729,0,0
-294,295,0,0,0,0,0,0,0,0,0,-1,930,729,0,0
-287,295,0,0,0,0,0,0,0,0,0,-1,937,729,0,0
-280,295,0,0,0,0,0,0,0,0,0,-1,944,729,0,0
-273,295,0,0,0,0,0,0,0,0,0,-1,951,729,0,0
-266,295,0,0,0,0,0,0,0,0,0,-1,958,729,0,0
-259,295,0,0,0,0,0,0,0,0,0,-1,965,729,0,0
-252,295,0,0,0,0,0,0,0,0,0,-1,972,729,0,0
-245,295,0,0,0,0,0,0,0,0,0,-1,979,729,0,0
-238,295,0,0,0,0,0,0,0,0,0,-1,986,729,0,0
-231,295,0,0,0,0,0,0,0,0,0,-1,993,729,0,0
-224,295,0,0,0,0,0,0,0,0,0,-1,1000,729,0,0
-217,295,0,0,0,0,0,0,0,0,0,-1,1007,729,0,0
-210,295,0,0,0,0,0,0,0,0,0,-1,1014,729,0,0
-203,295,0,0,0,0,0,0,0,0,0,-1,1021,729,0,0
-196,295,0,0,0,0,0,0,0,0,0,-1,1028,729,0,0
-189,295,0,0,0,0,0,0,0,0,0,-1,1035,729,0,0
-182,295,0,0,0,0,0,0,0,0,0,-1,1042,729,0,0
-175,295,0,0,0,0,0,0,0,0,0,-1,1049,729,0,0
-168,295,0,0,0,0,0,0,0,0,0,-1,1056,729,0,0
-161,295,0,0,0,0,0,0,0,0,0,-1,1063,729,0,0
-154,295,0,0,0,0,0,0,0,0,0,-1,1070,729,0,0
-147,295,0,0,0,0,0,0,0,0,0,-1,1077,729,0,0
-140,295,0,0,0,0,0,0,0,0,0,-1,1084,729,0,0
-133,295,0,0,0,0,0,0,0,0,0,-1,1091,729,0,0
-126,295,0,0,0,0,0,0,0,0,0,-1,1098,729,0,0
-119,295,0,0,0,0,0,0,0,0,0,-1,1105,729,0,0
-112,295,0,0,0,0,0,0,0,0,0,-1,1112,729,0,0
-105,295,0,0,0,0,0,0,0,0,0,-1,1119,729,0,0
-98,295,0,0,0,0,0,0,0,0,0,-1,1126,729,0,0
-91,295,0,0,0,0,0,0,0,0,0,-1,1133,729,0,0
-84,295,0,0,0,0,0,0,0,0,0,-1,1140,729,0,0
-77,295,0,0,0,0,0,0,0,0,0,-1,1147,729,0,0
-70,295,0,0,0,0,0,0,0,0,0,-1,1154,729,0,0
-63,295,0,0,0,0,0,0,0,0,0,-1,1161,729,0,0
-56,295,0,0,0,0,0,0,0,0,0,-1,1168,729,0,0
-49,295,0,0,0,0,0,0,0,0,0,-1,1175,729,0,0
-42,295,0,0,0,0,0,0,0,0,0,-1,1182,729,0,0
-35,295,0,0,0,0,0,0,0,0,0,-1,1189,729,0,0
-28,295,0,0,0,0,0,0,0,0,0,-1,1196,729,0,0
-21,295,0,0,0,0,0,0,0,0,0,-1,1203,729,0,0
-14,295,0,0,0,0,0,0,0,0,0,-1,1210,729,0,0
-7,295,0,0,0,0,0,0,0,0,0,-1,1217,729,0,0
0,295,0,0,0,0,0,0,0,0,0,-1,1224,729,0,0
7,295,0,0,0,0,0,0,0,0,0,-1,1231,729,0,0
14,295,0,0,0,0,0,0,0,0,0,-1,1238,729,0,0
21,295,0,0,0,0,0,0,0,0,0,-1,1245,729,0,0
28,295,0,0,0,0,0,0,0,0,0,-1,1252,729,0,0
35,295,0,0,0,0,0,0,0,0,0,-1,1259,729,0,0
42,295,0,0,0,0,0,0,0,0,0,-1,1266,729,0,0
49,295,0,0,0,0,0,0,0,0,0,-1,1273,729,0,0
56,295,0,0,0,0,0,0,0,0,0,-1,1280,729,0,0
63,295,0,0,0,0,0,0,0,0,0,-1,1287,729,0,0
70,295,0,0,0,0,0,0,0,0,0,-1,1294,729,0,0
77,295,0,0,0,0,0,0,0,0,0,-1,1301,729,0,0
84,295,0,0,0,0,0,0,0,0,0,-1,1308,729,0,0
91,295,0,0,0,0,0,0,0,0,0,-1,1315,729,0,0
98,295,0,0,0,0,0,0,0,0,0,-1,1322,729,0,0
105,295,0,0,0,0,0,0,0,0,0,-1,1329,729,0,0
112,295,0,0,0,0,0,0,0,0,0,-1,1336,729,0,0
119,295,0,0,0,0,0,0,0,0,0,-1,1343,729,0,0
126,295,0,0,0,0,0,0,0,0,0,-1,1350,729,0,0
133,295,0,0,0,0,0,0,0,0,0,-1,1357,729,0,0
140,295,0,0,0,0,0,0,0,0,0,-1,1364,729,0,0
147,295,0,0,0,0,0,0,0,0,0,-1,1371,729,0,0
154,295,0,0,0,0,0,0,0,0,0,-1,1378,729,0,0
161,295,0,0,0,0,0,0,0,0,0,-1,1385,729,0,0
168,295,0,0,0,0,0,0,0,0,0,-1,1392,729,0,0
175,295,0,0,0,0,0,0,0,0,0,-1,1399,729,0,0
182,295,0,0,0,0,0,0,0,0,0,-1,1406,729,0,0
189,295,0,0,0,0,0,0,0,0,0,-1,1413,729,0,0
196,295,0,0,0,0,0,0,0,0,0,-1,1420,729,0,0
203,295,0,0,0,0,0,0,0,0,0,-1,1427,729,0,0
210,295,0,0,0,0,0,0,0,0,0,-1,1434,729,0,0
217,295,0,0,0,0,0,0,0,0,0,-1,1441,729,0,0
224,295,0,0,0,0,0,0,0,0,0,-1,1448,729,0,0
231,295,0,0,0,0,0,0,0,0,0,-1,1455,729,0,0
238,295,0,0,0,0,0,0,0,0,0,-1,1462,729,0,0
245,295,0,0,0,0,0,0,0,0,0,-1,1469,729,0,0
252,295,0,0,0,0,0,0,0,0,0,-1,1476,729,0,0
259,295,0,0,0,0,0,0,0,0,0,-1,1483,729,0,0
266,295,0,0,0,0,0,0,0,0,0,-1,1490,729,0,0
273,295,0,0,0,0,0,0,0,0,0,-1,1497,729,0,0
280,295,0,0,0,0,0,0,0,0,0,-1,1504,729,0,0
287,295,0,0,0,0,0,0,0,0,0,-1,1511,729,0,0
294,295,0,0,0,0,0,0,0,0,0,-1,1518,729,0,0
301,295,0,0,0,0,0,0,0,0,0,-1,1525,729,0,0
308,295,0,0,0,0,0,0,0,0,0,-1,1532,729,0,0
315,295,0,0,0,0,0,0,0,0,0,-1,1539,729,0,0
322,295,0,0,0,0,0,0,0,0,0,-1,1546,729,0,0
329,295,0,0,0,0,0,0,0,0,0,-1,1553,729,0,0
336,295,0,0,0,0,0,0,0,0,0,-1,1560,729,0,0
343,295,0,0,0,0,0,0,0,0,0,-1,1567,729,0,0
350,295,0,0,0,0,0,0,0,0,0,-1,1574,729,0,0
357,295,0,0,0,0,0,0,0,0,0,-1,1581,729,0,0
364,295,0,0,0,0,0,0,0,0,0,-1,1588,729,0,0
371,295,0,0,0,0,0,0,0,0,0,-1,1595,729,0,0
378,295,0,0,0,0,0,0,0,0,0,-1,1602,729,0,0
385,295,0,0,0,0,0,0,0,0,0,-1,1609,729,0,0
392,295,0,0,0,0,0,0,0,0,0,-1,1616,729,0,0
399,295,0,0,0,0,0,0,0,0,0,-1,1623,729,0,0
406,295,0,0,0,0,0,0,0,0,0,-1,1630,729,0,0
413,295,0,0,0,0,0,0,0,0,0,-1,1637,729,0,0
420,295,0,0,0,0,0,0,0,0,0,-1,1644,729,0,0
427,295,0,0,0,0,0,0,0,0,0,-1,1651,729,0,0
434,295,0,0,0,0,0,0,0,0,0,-1,1658,729,0,0
441,295,0,0,0,0,0,0,0,0,0,-1,1665,729,0,0
448,295,0,0,0,0,0,0,0,0,0,-1,1672,729,0,0
455,295,0,0,0,0,0,0,0,0,0,-1,1679,729,0,0
462,295,0,0,0,0,0,0,0,0,0,-1,1686,729,0,0
469,295,0,0,0,0,0,0,0,0,0,-1,1693,729,0,0
476,295,0,0,0,0,0,0,0,0,0,-1,1700,729,0,0
483,295,0,0,0,0,0,0,0,0,0,-1,1707,729,0,0
490,295,0,0,0,0,0,0,0,0,0,-1,1714,729,0,0
497,295,0,0,0,0,0,0,0,0,0,-1,1721,729,0,0
504,295,0,0,0,0,0,0,0,0,0,-1,1728,729,0,0
511,295,0,0,0,0,0,0,0,0,0,-1,1735,729,0,0
518,295,0,0,0,0,0,0,0,0,0,-1,1742,729,0,0
525,295,0,0,0,0,0,0,0,0,0,-1,1749,729,0,0
532,295,0,0,0,0,0,0,0,0,0,-1,1756,729,0,0
539,295,0,0,0,0,0,0,0,0,0,-1,1763,729,0,0
546,295,-0.44751,0.071106,0.0147795,-0.0176913,0.005583,0.0157126,-0.0186244,0.165605,0.0198482,0.0385091,1770,729,-0.447527,-0.0710923
553,295,-0.0678711,-0.12677,0.0113329,-0.00730057,0.00433872,0.0122936,-0.00826129,0.217913,0.0119433,0.0414495,1777,729,-0.0678948,0.126777
560,295,-0.294922,-0.778992,0,0,0,0,0,0,0,-1,1784,729,-0.294909,0.779009
567,295,-0.397095,-1.06622,0.00764584,0.00582642,0.00233149,0.00923881,0.00423345,0.59939,0.00534023,0.0475449,1791,729,-0.397083,1.06622
574,295,-0.99292,1.01074,0.00635246,0.00844562,0.00170579,0.0094003,0.00539778,1.06056,0.00544716,0.0465833,1798,729,-0.99292,-1.01074
581,295,-0.969971,1.14398,0,0,0,0,0,0,0,-1,1805,729,-0.969929,-1.14395
588,295,0.114014,-0.912659,0,0,0,0,0,0,0,-1,1812,729,0.113971,0.912683
595,295,0.0268555,-0.761841,0.00374888,0.00917677,-0.000308548,0.00919426,0.0037314,-1.51419,0.00533959,0.0446802,1819,729,0.026795,0.761818
602,295,-0.0546875,-0.593445,0.00235007,0.00843831,-0.000245046,0.00844816,0.00234022,-1.53063,0.00503664,0.0426161,1826,729,-0.0546407,0.593423
609,295,0.129761,-0.179871,0.0015662,0.00612617,-7.74318e-05,0.00612749,0.00156488,-1.55382,0.00367612,0.041601,1833,729,0.129767,0.179885
616,295,0.0181885,0.0217285,0.00151012,0.00455501,-0.000635602,0.00468237,0.00138277,-1.37305,0.00277785,0.0384399,1840,729,0.0181992,-0.021722
623,295,-0.0264893,0.0484619,0.00112004,0.00352112,-0.00119432,0.004014,0.000627153,-1.1794,0.00249338,0.0214745,1847,729,-0.0264339,-0.0484544
630,295,-0.0456543,0.0631714,0.00043766,0.00149259,-0.00107214,0.00215999,-0.000229739,-1.014,0.00152236,0.0109544,1854,729,-0.0456553,-0.0631542
637,295,-0.0246582,0.0592651,4.99839e-06,0.000221307,-0.000675604,0.000797359,-0.000571053,-0.864767,0.000793646,0.0121388,1861,729,-0.024633,-0.0592667
644,295,-0.0185547,0.0655518,-0.000339738,-0.000427496,-0.000302171,-7.82766e-05,-0.000688957,-0.713296,0.000435564,0.0123208,1868,729,-0.0185928,-0.0655431
651,295,-0.0177002,0.0778809,-0.000607341,-0.000791461,0.000111125,-0.000555096,-0.000843706,0.439479,0.000495147,0.0122075,1875,729,-0.0176678,-0.0778527
658,295,-0.0214844,0.0793457,-0.000694289,-0.000655778,0.000500073,-0.00017459,-0.00117548,0.804641,0.000732425,0.0114534,1882,729,-0.0214636,-0.0793651
665,295,-0.0410156,0.0645752,-0.000984368,-3.19062e-05,0.00103543,0.000631559,-0.00164783,1.00094,0.00135891,0.0107571,1889,729,-0.0410548,-0.0645563
672,295,-0.0446777,0.0369263,-0.000677587,0.000719966,0.00159936,0.00176654,-0.00172416,0.991356,0.0020154,0.0103369,1896,729,-0.0446399,-0.036945
679,295,-0.0378418,0.050293,-0.000289488,0.00214606,0.00237835,0.00360028,-0.0017437,1.02201,0.0031468,0.0068655,1903,729,-0.0377932,-0.0503067
686,295,-0.041748,0.0498047,0.000615745,0.00377792,0.00305547,0.00563714,-0.00124347,1.02416,0.00423389,0.00718453,1910,729,-0.0417344,-0.0498078
693,295,-0.0273438,0.0588379,0.00191764,0.00661045,0.00336282,0.00836455,0.000163534,1.09,0.00552267,0.0142938,1917,729,-0.0273593,-0.0588076
700,295,-0.0583496,0.187195,0.0038256,0.0105949,0.00339997,0.0120077,0.00241278,1.17697,0.00733439,0.02865,1924,729,-0.0584013,-0.187212
707,295,-0.064209,0.482849,0.00677448,0.0157557,0.0031553,0.0167534,0.00577679,1.26455,0.00982667,0.0359613,1931,729,-0.0642346,-0.482866
714,295,-0.122681,0.728577,0.0111602,0.0230698,0.00218924,0.0234594,0.0107705,1.39464,0.0135594,0.0403783,1938,729,-0.12262,-0.7286
721,295,-0.134766,0.949524,0,0,0,0,0,0,0,-1,1945,729,-0.134763,-0.949535
728,295,0.0567627,0.690308,0,0,0,0,0,0,0,-1,1952,729,0.0568143,-0.690302
735,295,0,0,0,0,0,0,0,0,0,-1,1959,729,0,0
742,295,0,0,0,0,0,0,0,0,0,-1,1966,729,0,0
749,295,0,0,0,0,0,0,0,0,0,-1,1973,729,0,0
756,295,0,0,0,0,0,0,0,0,0,-1,1980,729,0,0
763,295,0,0,0,0,0,0,0,0,0,-1,1987,729,0,0
770,295,0,0,0,0,0,0,0,0,0,-1,1994,729,0,0
777,295,0,0,0,0,0,0,0,0,0,-1,2001,729,0,0
784,295,0,0,0,0,0,0,0,0,0,-1,2008,729,0,0
791,295,0,0,0,0,0,0,0,0,0,-1,2015,729,0,0
798,295,0,0,0,0,0,0,0,0,0,-1,2022,729,0,0
805,295,0,0,0,0,0,0,0,0,0,-1,2029,729,0,0
812,295,0,0,0,0,0,0,0,0,0,-1,2036,729,0,0
-700,288,0,0,0,0,0,0,0,0,0,-1,524,736,0,0
-693,288,0,0,0,0,0,0,0,0,0,-1,531,736,0,0
-686,288,0,0,0,0,0,0,0,0,0,-1,538,736,0,0
-679,288,0,0,0,0,0,0,0,0,0,-1,545,736,0,0
-672,288,0,0,0,0,0,0,0,0,0,-1,552,736,0,0
-665,288,0,0,0,0,0,0,0,0,0,-1,559,736,0,0
-658,288,0,0,0,0,0,0,0,0,0,-1,566,736,0,0
-651,288,0,0,0,0,0,0,0,0,0,-1,573,736,0,0
-644,288,0,0,0,0,0,0,0,0,0,-1,580,736,0,0
-637,288,0,0,0,0,0,0,0,0,0,-1,587,736,0,0
-630,288,0,0,0,0,0,0,0,0,0,-1,594,736,0,0
-623,288,0,0,0,0,0,0,0,0,0,-1,601,736,0,0
-616,288,0.683838,-0.956543,0,0,0,0,0,0,0,-1,608,736,0.683839,0.956528
-609,288,0.315674,-0.797546,0,0,0,0,0,0,0,-1,615,736,0.315666,0.797533
-602,288,-0.0891724,-0.586304,0,0,0,0,0,0,0,-1,622,736,-0.089165,0.586327
-595,288,-0.429199,-0.189453,0,0,0,0,0,0,0,-1,629,736,-0.429201,0.18944
-588,288,-0.802979,-0.181519,0,0,0,0,0,0,0,-1,636,736,-0.802965,0.181542
-581,288,-0.488281,-0.142761,0.00424194,0.00864224,-0.0154698,0.0220675,-0.00918334,-0.856036,0.0185468,0.0419438,643,736,-0.488274,0.142761
-574,288,-0.178955,-0.0317993,0.00476397,0.00718404,-0.0138361,0.0198629,-0.00791491,-0.829015,0.0165247,0.031077,650,736,-0.178968,0.031805
-567,288,-0.0493774,0.0316162,0.00491922,0.00529586,-0.0113977,0.0165068,-0.00629168,-0.793659,0.013596,0.0177271,657,736,-0.049366,-0.031591
-560,288,-0.0262451,0.0457153,0.00472379,0.0036852,-0.00903632,0.0132557,-0.00484673,-0.756696,0.0108208,0.0105446,664,736,-0.0262288,-0.0457362
-553,288,-0.0144653,0.0670776,0.00428096,0.00219442,-0.00685481,0.0101714,-0.00369606,-0.70988,0.00829225,0.0172502,671,736,-0.0144351,-0.0670877
-546,288,-0.02771,0.0656128,0.00333152,0.00101128,-0.00481917,0.00712824,-0.00278544,-0.667281,0.00590389,0.0183854,678,736,-0.0277115,-0.0655878
-539,288,-0.03479,0.0634155,0.00177599,-0.000275951,-0.00286832,0.0037963,-0.00229627,-0.613644,0.00355291,0.014522,685,736,-0.0348196,-0.0634024
-532,288,-0.0332642,0.0582275,0.000840126,-0.00198736,-0.000904438,0.00110468,-0.00225191,-0.284567,0.0019753,0.0108459,692,736,-0.033277,-0.0582326
-525,288,-0.0278931,0.0473633,0.000144894,-0.00248073,0.000333953,0.000186704,-0.00252254,0.124548,0.00174726,0.0110589,699,736,-0.0278676,-0.0473756
-518,288,-0.0142212,0.0415649,-0.000574858,-0.00229383,0.00111211,-2.88206e-05,-0.00283987,0.456417,0.00188371,0.0114019,706,736,-0.0142372,-0.0415483
-511,288,-0.0216675,0.0441895,-0.00120963,-0.00237462,0.00166682,-2.64564e-05,-0.00355779,0.6173,0.00236309,0.00838552,713,736,-0.0216772,-0.0441859
-504,288,-0.0443115,0.0525513,-0.00171949,-0.00251386,0.0020634,-1.5401e-05,-0.00421795,0.690315,0.00280685,0.00903301,720,736,-0.0443363,-0.0525274
-497,288,-0.0373535,0.06073,-0.00298121,-0.00250569,0.00179555,-0.000932231,-0.00455467,0.851224,0.00277833,0.0157722,727,736,-0.0373588,-0.0607109
-490,288,-0.256958,0.0686035,-0.00431683,-0.00185804,0.00113485,-0.00141432,-0.00476054,1.19808,0.00282293,0.0358148,734,736,-0.256963,-0.0686036
-483,288,-0.527222,0.132629,0,0,0,0,0,0,0,-1,741,736,-0.527247,-0.132606
-476,288,0.16571,-0.337585,0,0,0,0,0,0,0,-1,748,736,0.165681,0.33757
-469,288,0.330261,0.0574341,0,0,0,0,0,0,0,-1,755,736,0.330242,-0.0574546
-462,288,0.905884,-0.213928,0,0,0,0,0,0,0,-1,762,736,0.905868,0.213898
-455,288,1.62793,0.324524,0,0,0,0,0,0,0,-1,769,736,1.6279,-0.324496
-448,288,1.13275,0.502319,-0.00783692,-0.00166025,-0.00677941,0.00270113,-0.0121983,-0.999126,0.00916621,0.0453418,776,736,1.13274,-0.502347
-441,288,0.648987,0.706421,-0.00795137,-0.00262506,-0.00886174,0.00396504,-0.0145415,-0.931366,0.0112513,0.0444117,783,736,0.648972,-0.706451
-434,288,0.179016,0.910339,0,0,0,0,0,0,0,-1,790,736,0.179043,-0.910309
-427,288,0,0,0,0,0,0,0,0,0,-1,797,736,0,0
-420,288,0,0,0,0,0,0,0,0,0,-1,804,736,0,0
-413,288,0,0,0,0,0,0,0,0,0,-1,811,736,0,0
-406,288,0,0,0,0,0,0,0,0,0,-1,818,736,0,0
-399,288,0,0,0,0,0,0,0,0,0,-1,825,736,0,0
-392,288,0,0,0,0,0,0,0,0,0,-1,832,736,0,0
-385,288,0,0,0,0,0,0,0,0,0,-1,839,736,0,0
-378,288,0,0,0,0,0,0,0,0,0,-1,846,736,0,0
-371,288,0,0,0,0,0,0,0,0,0,-1,853,736,0,0
-364,288,0,0,0,0,0,0,0,0,0,-1,860,736,0,0
-357,288,0,0,0,0,0,0,0,0,0,-1,867,736,0,0
-350,288,0,0,0,0,0,0,0,0,0,-1,874,736,0,0
-343,288,0,0,0,0,0,0,0,0,0,-1,881,736,0,0
-336,288,0,0,0,0,0,0,0,0,0,-1,888,736,0,0
-329,288,0,0,0,0,0,0,0,0,0,-1,895,736,0,0
-322,288,0,0,0,0,0,0,0,0,0,-1,902,736,0,0
-315,288,0,0,0,0,0,0,0,0,0,-1,909,736,0,0
-308,288,0,0,0,0,0,0,0,0,0,-1,916,736,0,0
-301,288,0,0,0,0,0,0,0,0,0,-1,923,736,0,0
-294,288,0,0,0,0,0,0,0,0,0,-1,930,736,0,0
-287,288,0,0,0,0,0,0,0,0,0,-1,937,736,0,0
-280,288,0,0,0,0,0,0,0,0,0,-1,944,736,0,0
-273,288,0,0,0,0,0,0,0,0,0,-1,951,736,0,0
-266,288,0,0,0,0,0,0,0,0,0,-1,958,736,0,0
-259,288,0,0,0,0,0,0,0,0,0,-1,965,736,0,0
-252,288,0,0,0,0,0,0,0,0,0,-1,972,736,0,0
-245,288,0,0,0,0,0,0,0,0,0,-1,979,736,0,0
-238,288,0,0,0,0,0,0,0,0,0,-1,986,736,0,0
-231,288,0,0,0,0,0,0,0,0,0,-1,993,736,0,0
-224,288,0,0,0,0,0,0,0,0,0,-1,1000,736,0,0
-217,288,0,0,0,0,0,0,0,0,0,-1,1007,736,0,0
-210,288,0,0,0,0,0,0,0,0,0,-1,1014,736,0,0
-203,288,0,0,0,0,0,0,0,0,0,-1,1021,736,0,0
-196,288,0,0,0,0,0,0,0,0,0,-1,1028,736,0,0
-189,288,0,0,0,0,0,0,0,0,0,-1,1035,736,0,0
-182,288,0,0,0,0,0,0,0,0,0,-1,1042,736,0,0
-175,288,0,0,0,0,0,0,0,0,0,-1,1049,736,0,0
-168,288,0,0,0,0,0,0,0,0,0,-1,1056,736,0,0
-161,288,0,0,0,0,0,0,0,0,0,-1,1063,736,0,0
-154,288,0,0,0,0,0,0,0,0,0,-1,1070,736,0,0
-147,288,0,0,0,0,0,0,0,0,0,-1,1077,736,0,0
-140,288,0,0,0,0,0,0,0,0,0,-1,1084,736,0,0
-133,288,0,0,0,0,0,0,0,0,0,-1,1091,736,0,0
-126,288,0,0,0,0,0,0,0,0,0,-1,1098,736,0,0
-119,288,0,0,0,0,0,0,0,0,0,-1,1105,736,0,0
-112,288,0,0,0,0,0,0,0,0,0,-1,1112,736,0,0
-105,288,0,0,0,0,0,0,0,0,0,-1,1119,736,0,0
-98,288,0,0,0,0,0,0,0,0,0,-1,1126,736,0,0
-91,288,0,0,0,0,0,0,0,0,0,-1,1133,736,0,0
-84,288,0,0,0,0,0,0,0,0,0,-1,1140,736,0,0
-77,288,0,0,0,0,0,0,0,0,0,-1,1147,736,0,0
-70,288,0,0,0,0,0,0,0,0,0,-1,1154,736,0,0
-63,288,0,0,0,0,0,0,0,0,0,-1,1161,736,0,0
-56,288,0,0,0,0,0,0,0,0,0,-1,1168,736,0,0
-49,288,0,0,0,0,0,0,0,0,0,-1,1175,736,0,0
-42,288,0,0,0,0,0,0,0,0,0,-1,1182,736,0,0
-35,288,0,0,0,0,0,0,0,0,0,-1,1189,736,0,0
-28,288,0,0,0,0,0,0,0,0,0,-1,1196,736,0,0
-21,288,0,0,0,0,0,0,0,0,0,-1,1203,736,0,0
-14,288,0,0,0,0,0,0,0,0,0,-1,1210,736,0,0
-7,288,0,0,0,0,0,0,0,0,0,-1,1217,736,0,0
0,288,0,0,0,0,0,0,0,0,0,-1,1224,736,0,0
7,288,0,0,0,0,0,0,0,0,0,-1,1231,736,0,0
14,288,0,0,0,0,0,0,0,0,0,-1,1238,736,0,0
21,288,0,0,0,0,0,0,0,0,0,-1,1245,736,0,0
28,288,0,0,0,0,0,0,0,0,0,-1,1252,736,0,0
35,288,0,0,0,0,0,0,0,0,0,-1,1259,736,0,0
42,288,0,0,0,0,0,0,0,0,0,-1,1266,736,0,0
49,288,0,0,0,0,0,0,0,0,0,-1,1273,736,0,0
56,288,0,0,0,0,0,0,0,0,0,-1,1280,736,0,0
63,288,0,0,0,0,0,0,0,0,0,-1,1287,736,0,0
70,288,0,0,0,0,0,0,0,0,0,-1,1294,736,0,0
77,288,0,0,0,0,0,0,0,0,0,-1,1301,736,0,0
84,288,0,0,0,0,0,0,0,0,0,-1,1308,736,0,0
91,288,0,0,0,0,0,0,0,0,0,-1,1315,736,0,0
98,288,0,0,0,0,0,0,0,0,0,-1,1322,736,0,0
105,288,0,0,0,0,0,0,0,0,0,-1,1329,736,0,0
112,288,0,0,0,0,0,0,0,0,0,-1,1336,736,0,0
119,288,0,0,0,0,0,0,0,0,0,-1,1343,736,0,0
126,288,0,0,0,0,0,0,0,0,0,-1,1350,736,0,0
133,288,0,0,0,0,0,0,0,0,0,-1,1357,736,0,0
140,288,0,0,0,0,0,0,0,0,0,-1,1364,736,0,0
147,288,0,0,0,0,0,0,0,0,0,-1,1371,736,0,0
154,288,0,0,0,0,0,0,0,0,0,-1,1378,736,0,0
161,288,0,0,0,0,0,0,0,0,0,-1,1385,736,0,0
168,288,0,0,0,0,0,0,0,0,0,-1,1392,736,0,0
175,288,0,0,0,0,0,0,0,0,0,-1,1399,736,0,0
182,288,0,0,0,0,0,0,0,0,0,-1,1406,736,0,0
189,288,0,0,0,0,0,0,0,0,0,-1,1413,736,0,0
196,288,0,0,0,0,0,0,0,0,0,-1,1420,736,0,0
203,288,0,0,0,0,0,0,0,0,0,-1,1427,736,0,0
210,288,0,0,0,0,0,0,0,0,0,-1,1434,736,0,0
217,288,0,0,0,0,0,0,0,0,0,-1,1441,736,0,0
224,288,0,0,0,0,0,0,0,0,0,-1,1448,736,0,0
231,288,0,0,0,0,0,0,0,0,0,-1,1455,736,0,0
238,288,0,0,0,0,0,0,0,0,0,-1,1462,736,0,0
245,288,0,0,0,0,0,0,0,0,0,-1,1469,736,0,0
252,288,0,0,0,0,0,0,0,0,0,-1,1476,736,0,0
259,288,0,0,0,0,0,0,0,0,0,-1,1483,736,0,0
266,288,0,0,0,0,0,0,0,0,0,-1,1490,736,0,0
273,288,0,0,0,0,0,0,0,0,0,-1,1497,736,0,0
280,288,0,0,0,0,0,0,0,0,0,-1,1504,736,0,0
287,288,0,0,0,0,0,0,0,0,0,-1,1511,736,0,0
294,288,0,0,0,0,0,0,0,0,0,-1,1518,736,0,0
301,288,0,0,0,0,0,0,0,0,0,-1,1525,736,0,0
308,288,0,0,0,0,0,0,0,0,0,-1,1532,736,0,0
315,288,0,0,0,0,0,0,0,0,0,-1,1539,736,0,0
322,288,0,0,0,0,0,0,0,0,0,-1,1546,736,0,0
329,288,0,0,0,0,0,0,0,0,0,-1,1553,736,0,0
336,288,0,0,0,0,0,0,0,0,0,-1,1560,736,0,0
343,288,0,0,0,0,0,0,0,0,0,-1,1567,736,0,0
350,288,0,0,0,0,0,0,0,0,0,-1,1574,736,0,0
357,288,0,0,0,0,0,0,0,0,0,-1,1581,736,0,0
364,288,0,0,0,0,0,0,0,0,0,-1,1588,736,0,0
371,288,0,0,0,0,0,0,0,0,0,-1,1595,736,0,0
378,288,0,0,0,0,0,0,0,0,0,-1,1602,736,0,0
385,288,0,0,0,0,0,0,0,0,0,-1,1609,736,0,0
392,288,0,0,0,0,0,0,0,0,0,-1,1616,736,0,0
399,288,0,0,0,0,0,0,0,0,0,-1,1623,736,0,0
406,288,0,0,0,0,0,0,0,0,0,-1,1630,736,0,0
413,288,0,0,0,0,0,0,0,0,0,-1,1637,736,0,0
420,288,0,0,0,0,0,0,0,0,0,-1,1644,736,0,0
427,288,0,0,0,0,0,0,0,0,0,-1,1651,736,0,0
434,288,0,0,0,0,0,0,0,0,0,-1,1658,736,0,0
441,288,0,0,0,0,0,0,0,0,0,-1,1665,736,0,0
448,288,0,0,0,0,0,0,0,0,0,-1,1672,736,0,0
455,288,0,0,0,0,0,0,0,0,0,-1,1679,736,0,0
462,288,0,0,0,0,0,0,0,0,0,-1,1686,736,0,0
469,288,0,0,0,0,0,0,0,0,0,-1,1693,736,0,0
476,288,0,0,0,0,0,0,0,0,0,-1,1700,736,0,0
483,288,0,0,0,0,0,0,0,0,0,-1,1707,736,0,0
490,288,0,0,0,0,0,0,0,0,0,-1,1714,736,0,0
497,288,0,0,0,0,0,0,0,0,0,-1,1721,736,0,0
504,288,0,0,0,0,0,0,0,0,0,-1,1728,736,0,0
511,288,0,0,0,0,0,0,0,0,0,-1,1735,736,0,0
518,288,0,0,0,0,0,0,0,0,0,-1,1742,736,0,0
525,288,0,0,0,0,0,0,0,0,0,-1,1749,736,0,0
532,288,0,0,0,0,0,0,0,0,0,-1,1756,736,0,0
539,288,0,0,0,0,0,0,0,0,0,-1,1763,736,0,0
546,288,0,0,0,0,0,0,0,0,0,-1,1770,736,0,0
553,288,0.0258789,0.123779,0,0,0,0,0,0,0,-1,1777,736,0.0258483,-0.123753
560,288,-0.475708,0.38385,0,0,0,0,0,0,0,-1,1784,736,-0.475723,-0.383859
567,288,-0.998291,0.742737,0.00871849,0.00127203,0.00187085,0.0091621,0.000828424,0.232814,0.0058515,0.044827,1791,736,-0.998321,-0.742725
574,288,-0.924194,0.676941,0.0078109,0.00575364,0.00140851,0.0085264,0.00503814,0.470013,0.00494975,0.0492917,1798,736,-0.924143,-0.676943
581,288,-0.861938,0.644287,0,0,0,0,0,0,0,-1,1805,736,-0.861972,-0.644316
588,288,-0.588379,0.816711,0,0,0,0,0,0,0,-1,1812,736,-0.58833,-0.816684
595,288,0.428223,-0.810913,0.00494048,0.00776233,-0.000280597,0.00778996,0.00491285,-1.47264,0.00454844,0.0447855,1819,736,0.428214,0.810886
602,288,0.361084,-0.578003,0.00346786,0.00715459,-0.000261089,0.00717298,0.00344946,-1.50045,0.00414233,0.0422686,1826,736,0.361105,0.57801
609,288,0.358398,-0.0817871,0,0,0,0,0,0,0,-1,1833,736,0.358458,0.0817858
616,288,0.0460205,0.0272217,0,0,0,0,0,0,0,-1,1840,736,0.0460761,-0.0272131
623,288,-0.039917,0.142517,0.00154082,0.00274727,-0.00123827,0.00352143,0.000766662,-1.01206,0.00213838,0.0371501,1847,736,-0.0399197,-0.142521
630,288,-0.0599365,0.0841675,0.000655992,0.000778546,-0.00112097,0.00183992,-0.000405377,-0.812703,0.0013817,0.017765,1854,736,-0.059986,-0.0841667
637,288,-0.0209961,0.0644531,4.35183e-05,-0.000431026,-0.000740852,0.000584166,-0.000971673,-0.630425,0.000907504,0.00943238,1861,736,-0.0210549,-0.0644699
644,288,0.00244141,0.0562744,-0.00040917,-0.00103541,-0.000423582,-0.00019554,-0.00124904,-0.467114,0.000775774,0.00932135,1868,736,0.00249291,-0.0562769
651,288,-0.00805664,0.0559692,-0.000748014,-0.00127704,-0.000116764,-0.000723389,-0.00130167,-0.207851,0.000753074,0.0102503,1875,736,-0.00807165,-0.0559869
658,288,-0.0100098,0.102783,-0.00087795,-0.00109135,0.000228334,-0.000732615,-0.00123668,0.566829,0.000718051,0.0139647,1882,736,-0.010029,-0.102754
665,288,-0.0227051,0.100525,-0.00122206,-0.000393094,0.000732315,3.38983e-05,-0.00164905,1.04292,0.00111084,0.014608,1889,736,-0.0226895,-0.100546
672,288,-0.0355225,0.0482178,-0.000926794,0.000453461,0.00123429,0.00117745,-0.00165079,1.04031,0.00164049,0.0108681,1896,736,-0.0355409,-0.0481952
679,288,-0.0308838,0.0498657,-0.000520033,0.00198044,0.00195542,0.00305114,-0.00159074,1.06983,0.00272385,0.00762058,1903,736,-0.0308617,-0.0498676
686,288,-0.0323486,0.0481567,0.00054434,0.00370428,0.00246293,0.00505045,-0.000801833,1.07059,0.00366361,0.00673152,1910,736,-0.0324096,-0.0481517
693,288,-0.0250244,0.0407715,0.00203411,0.00655491,0.00257034,0.00771739,0.000871641,1.14606,0.00488039,0.00971158,1917,736,-0.025011,-0.0407592
700,288,-0.015625,0.0513306,0.00411002,0.0102989,0.00246178,0.0111587,0.00325023,1.23479,0.00662695,0.0198185,1924,736,-0.0156817,-0.051338
707,288,-0.11377,0.289795,0.00730598,0.0150883,0.0020311,0.0155865,0.00680778,1.33026,0.00902285,0.0337424,1931,736,-0.113794,-0.289797
714,288,-0.326172,0.493347,0.0119399,0.0217386,0.000948206,0.0218295,0.0118489,1.47521,0.0126187,0.042289,1938,736,-0.326212,-0.493322
721,288,-0.394043,0.675781,0.0182207,0.0308239,-0.00101689,0.0309054,0.0181392,-1.4908,0.0179329,0.0452223,1945,736,-0.394076,-0.675756
728,288,-0.432373,0.881042,0,0,0,0,0,0,0,-1,1952,736,-0.432365,-0.881047
735,288,0.606323,1.12335,0,0,0,0,0,0,0,-1,1959,736,0.606357,-1.12334
742,288,0,0,0,0,0,0,0,0,0,-1,1966,736,0,0
749,288,0,0,0,0,0,0,0,0,0,-1,1973,736,0,0
756,288,0,0,0,0,0,0,0,0,0,-1,1980,736,0,0
763,288,0,0,0,0,0,0,0,0,0,-1,1987,736,0,0
770,288,0,0,0,0,0,0,0,0,0,-1,1994,736,0,0
777,288,0,0,0,0,0,0,0,0,0,-1,2001,736,0,0
784,288,0,0,0,0,0,0,0,0,0,-1,2008,736,0,0
791,288,0,0,0,0,0,0,0,0,0,-1,2015,736,0,0
798,288,0,0,0,0,0,0,0,0,0,-1,2022,736,0,0
805,288,0,0,0,0,0,0,0,0,0,-1,2029,736,0,0
812,288,0,0,0,0,0,0,0,0,0,-1,2036,736,0,0
-700,281,0,0,0,0,0,0,0,0,0,-1,524,743,0,0
-693,281,0,0,0,0,0,0,0,0,0,-1,531,743,0,0
-686,281,0,0,0,0,0,0,0,0,0,-1,538,743,0,0
-679,281,0,0,0,0,0,0,0,0,0,-1,545,743,0,0
-672,281,0,0,0,0,0,0,0,0,0,-1,552,743,0,0
-665,281,0,0,0,0,0,0,0,0,0,-1,559,743,0,0
-658,281,0,0,0,0,0,0,0,0,0,-1,566,743,0,0
-651,281,0,0,0,0,0,0,0,0,0,-1,573,743,0,0
-644,281,0,0,0,0,0,0,0,0,0,-1,580,743,0,0
-637,281,0,0,0,0,0,0,0,0,0,-1,587,743,0,0
-630,281,0,0,0,0,0,0,0,0,0,-1,594,743,0,0
-623,281,-0.0513306,-3.23535,0,0,0,0,0,0,0,-1,601,743,-0.0513192,3.23532
-616,281,-0.325623,-0.24585,0,0,0,0,0,0,0,-1,608,743,-0.325603,0.245819
-609,281,0.268738,-0.0447998,0,0,0,0,0,0,0,-1,615,743,0.268741,0.0448061
-602,281,0.151245,-0.263794,0,0,0,0,0,0,0,-1,622,743,0.15125,0.26379
-595,281,-0.675293,0.984619,0,0,0,0,0,0,0,-1,629,743,-0.675304,-0.984613
-588,281,-0.245972,0.685791,0.00173318,0.00809817,-0.0123824,0.0177005,-0.00786913,-0.911185,0.015122,0.0478246,636,743,-0.245999,-0.685768
-581,281,-0.00457764,0.114563,0.00295578,0.00748557,-0.011819,0.0172547,-0.00681335,-0.880067,0.0143249,0.0425194,643,743,-0.00460743,-0.11459
-574,281,-0.0214844,0.0499268,0.00353242,0.00640738,-0.0109151,0.0159792,-0.00603942,-0.85087,0.0131371,0.0234624,650,743,-0.0215004,-0.0499522
-567,281,-0.0418091,0.0439453,0.00385294,0.00486001,-0.00916139,0.0135317,-0.00481874,-0.812852,0.0109855,0.0107085,657,743,-0.0418178,-0.0439543
-560,281,-0.0344849,0.0549316,0.00384462,0.00347602,-0.00732817,0.0109908,-0.00367017,-0.772826,0.00880924,0.00758061,664,743,-0.034459,-0.0549249
-553,281,-0.0263672,0.0628052,0.00362167,0.00207098,-0.00558055,0.00848048,-0.00278783,-0.716371,0.00677685,0.0126292,671,743,-0.0263427,-0.0627983
-546,281,-0.0269775,0.0643311,0.00283707,0.000825287,-0.00378161,0.00574428,-0.00208192,-0.65541,0.00468047,0.014155,678,743,-0.0269803,-0.0643177
-539,281,-0.0395508,0.0546265,0.00133061,-0.000498155,-0.00203373,0.00264606,-0.00181361,-0.574134,0.0025897,0.0117463,685,743,-0.0395746,-0.0546147
-532,281,-0.0316162,0.0516357,0.000339731,-0.00221033,-0.000287641,0.000371773,-0.00224237,-0.11094,0.00163301,0.00963834,692,743,-0.0316029,-0.0516189
-525,281,-0.0297241,0.0425415,-0.000268656,-0.0027804,0.000875079,6.15045e-06,-0.00305521,0.304284,0.00203886,0.0109841,699,743,-0.0296982,-0.042519
-518,281,-0.0251465,0.0274658,-0.000790616,-0.00268943,0.00163565,0.000151202,-0.00363125,0.522439,0.00247278,0.0119844,706,743,-0.0251608,-0.0274721
-511,281,-0.0195313,0.0265503,-0.00135794,-0.00291649,0.00214006,0.000140312,-0.00441474,0.610792,0.00299103,0.010573,713,743,-0.0195577,-0.0265751
-504,281,-0.0368042,0.0282593,-0.00180298,-0.00312416,0.00248846,0.000111085,-0.00503822,0.65566,0.00339645,0.010955,720,743,-0.0367785,-0.0282863
-497,281,-0.0425415,-0.0119629,-0.00279559,-0.0030626,0.00225835,-0.000666803,-0.00519139,0.755874,0.00326146,0.0268778,727,743,-0.0425474,0.0119693
-490,281,-0.762695,0.375977,-0.00393103,-0.00240025,0.00160669,-0.00138595,-0.00494533,1.00768,0.00294567,0.0366537,734,743,-0.762701,-0.375959
-483,281,-1.29407,0.666687,0,0,0,0,0,0,0,-1,741,743,-1.29406,-0.666671
-476,281,-0.154846,-1.01715,0,0,0,0,0,0,0,-1,748,743,-0.154872,1.01715
-469,281,0.246033,-0.88324,-0.00566356,-0.00170307,-0.00112213,-0.00140723,-0.0059594,-1.31302,0.00359682,0.0479954,755,743,0.246011,0.883218
-462,281,0.606262,-0.756653,0,0,0,0,0,0,0,-1,762,743,0.606267,0.756648
-455,281,0.913452,-0.77002,0,0,0,0,0,0,0,-1,769,743,0.913481,0.770006
-448,281,1.88873,0.488098,0,0,0,0,0,0,0,-1,776,743,1.88872,-0.488095
-441,281,1.43414,0.676453,0,0,0,0,0,0,0,-1,783,743,1.43411,-0.676427
-434,281,0,0,0,0,0,0,0,0,0,-1,790,743,0,0
-427,281,0,0,0,0,0,0,0,0,0,-1,797,743,0,0
-420,281,0,0,0,0,0,0,0,0,0,-1,804,743,0,0
-413,281,0,0,0,0,0,0,0,0,0,-1,811,743,0,0
-406,281,0,0,0,0,0,0,0,0,0,-1,818,743,0,0
-399,281,0,0,0,0,0,0,0,0,0,-1,825,743,0,0
-392,281,0,0,0,0,0,0,0,0,0,-1,832,743,0,0
-385,281,0,0,0,0,0,0,0,0,0,-1,839,743,0,0
-378,281,0,0,0,0,0,0,0,0,0,-1,846,743,0,0
-371,281,0,0,0,0,0,0,0,0,0,-1,853,743,0,0
-364,281,0,0,0,0,0,0,0,0,0,-1,860,743,0,0
-357,281,0,0,0,0,0,0,0,0,0,-1,867,743,0,0
-350,281,0,0,0,0,0,0,0,0,0,-1,874,743,0,0
-343,281,0,0,0,0,0,0,0,0,0,-1,881,743,0,0
-336,281,0,0,0,0,0,0,0,0,0,-1,888,743,0,0
-329,281,0,0,0,0,0,0,0,0,0,-1,895,743,0,0
-322,281,0,0,0,0,0,0,0,0,0,-1,902,743,0,0
-315,281,0,0,0,0,0,0,0,0,0,-1,909,743,0,0
-308,281,0,0,0,0,0,0,0,0,0,-1,916,743,0,0
-301,281,0,0,0,0,0,0,0,0,0,-1,923,743,0,0
-294,281,0,0,0,0,0,0,0,0,0,-1,930,743,0,0
-287,281,0,0,0,0,0,0,0,0,0,-1,937,743,0,0
-280,281,0,0,0,0,0,0,0,0,0,-1,944,743,0,0
-273,281,0,0,0,0,0,0,0,0,0,-1,951,743,0,0
-266,281,0,0,0,0,0,0,0,0,0,-1,958,743,0,0
-259,281,0,0,0,0,0,0,0,0,0,-1,965,743,0,0
-252,281,0,0,0,0,0,0,0,0,0,-1,972,743,0,0
-245,281,0,0,0,0,0,0,0,0,0,-1,979,743,0,0
-238,281,0,0,0,0,0,0,0,0,0,-1,986,743,0,0
-231,281,0,0,0,0,0,0,0,0,0,-1,993,743,0,0
-224,281,0,0,0,0,0,0,0,0,0,-1,1000,743,0,0
-217,281,0,0,0,0,0,0,0,0,0,-1,1007,743,0,0
-210,281,0,0,0,0,0,0,0,0,0,-1,1014,743,0,0
-203,281,0,0,0,0,0,0,0,0,0,-1,1021,743,0,0
-196,281,0,0,0,0,0,0,0,0,0,-1,1028,743,0,0
-189,281,0,0,0,0,0,0,0,0,0,-1,1035,743,0,0
-182,281,0,0,0,0,0,0,0,0,0,-1,1042,743,0,0
-175,281,0,0,0,0,0,0,0,0,0,-1,1049,743,0,0
-168,281,0,0,0,0,0,0,0,0,0,-1,1056,743,0,0
-161,281,0,0,0,0,0,0,0,0,0,-1,1063,743,0,0
-154,281,0,0,0,0,0,0,0,0,0,-1,1070,743,0,0
-147,281,0,0,0,0,0,0,0,0,0,-1,1077,743,0,0
-140,281,0,0,0,0,0,0,0,0,0,-1,1084,743,0,0
-133,281,0,0,0,0,0,0,0,0,0,-1,1091,743,0,0
-126,281,0,0,0,0,0,0,0,0,0,-1,1098,743,0,0
-119,281,0,0,0,0,0,0,0,0,0,-1,1105,743,0,0
-112,281,0,0,0,0,0,0,0,0,0,-1,1112,743,0,0
-105,281,0,0,0,0,0,0,0,0,0,-1,1119,743,0,0
-98,281,0,0,0,0,0,0,0,0,0,-1,1126,743,0,0
-91,281,0,0,0,0,0,0,0,0,0,-1,1133,743,0,0
-84,281,0,0,0,0,0,0,0,0,0,-1,1140,743,0,0
-77,281,0,0,0,0,0,0,0,0,0,-1,1147,743,0,0
-70,281,0,0,0,0,0,0,0,0,0,-1,1154,743,0,0
-63,281,0,0,0,0,0,0,0,0,0,-1,1161,743,0,0
-56,281,0,0,0,0,0,0,0,0,0,-1,1168,743,0,0
-49,281,0,0,0,0,0,0,0,0,0,-1,1175,743,0,0
-42,281,0,0,0,0,0,0,0,0,0,-1,1182,743,0,0
-35,281,0,0,0,0,0,0,0,0,0,-1,1189,743,0,0
-28,281,0,0,0,0,0,0,0,0,0,-1,1196,743,0,0
-21,281,0,0,0,0,0,0,0,0,0,-1,1203,743,0,0
-14,281,0,0,0,0,0,0,0,0,0,-1,1210,743,0,0
-7,281,0,0,0,0,0,0,0,0,0,-1,1217,743,0,0
0,281,0,0,0,0,0,0,0,0,0,-1,1224,743,0,0
7,281,0,0,0,0,0,0,0,0,0,-1,1231,743,0,0
14,281,0,0,0,0,0,0,0,0,0,-1,1238,743,0,0
21,281,0,0,0,0,0,0,0,0,0,-1,1245,743,0,0
28,281,0,0,0,0,0,0,0,0,0,-1,1252,743,0,0
35,281,0,0,0,0,0,0,0,0,0,-1,1259,743,0,0
42,281,0,0,0,0,0,0,0,0,0,-1,1266,743,0,0
49,281,0,0,0,0,0,0,0,0,0,-1,1273,743,0,0
56,281,0,0,0,0,0,0,0,0,0,-1,1280,743,0,0
63,281,0,0,0,0,0,0,0,0,0,-1,1287,743,0,0
70,281,0,0,0,0,0,0,0,0,0,-1,1294,743,0,0
77,281,0,0,0,0,0,0,0,0,0,-1,1301,743,0,0
84,281,0,0,0,0,0,0,0,0,0,-1,1308,743,0,0
91,281,0,0,0,0,0,0,0,0,0,-1,1315,743,0,0
98,281,0,0,0,0,0,0,0,0,0,-1,1322,743,0,0
105,281,0,0,0,0,0,0,0,0,0,-1,1329,743,0,0
112,281,0,0,0,0,0,0,0,0,0,-1,1336,743,0,0
119,281,0,0,0,0,0,0,0,0,0,-1,1343,743,0,0
126,281,0,0,0,0,0,0,0,0,0,-1,1350,743,0,0
133,281,0,0,0,0,0,0,0,0,0,-1,1357,743,0,0
140,281,0,0,0,0,0,0,0,0,0,-1,1364,743,0,0
147,281,0,0,0,0,0,0,0,0,0,-1,1371,743,0,0
154,281,0,0,0,0,0,0,0,0,0,-1,1378,743,0,0
161,281,0,0,0,0,0,0,0,0,0,-1,1385,743,0,0
168,281,0,0,0,0,0,0,0,0,0,-1,1392,743,0,0
175,281,0,0,0,0,0,0,0,0,0,-1,1399,743,0,0
182,281,0,0,0,0,0,0,0,0,0,-1,1406,743,0,0
189,281,0,0,0,0,0,0,0,0,0,-1,1413,743,0,0
196,281,0,0,0,0,0,0,0,0,0,-1,1420,743,0,0
203,281,0,0,0,0,0,0,0,0,0,-1,1427,743,0,0
210,281,0,0,0,0,0,0,0,0,0,-1,1434,743,0,0
217,281,0,0,0,0,0,0,0,0,0,-1,1441,743,0,0
224,281,0,0,0,0,0,0,0,0,0,-1,1448,743,0,0
231,281,0,0,0,0,0,0,0,0,0,-1,1455,743,0,0
238,281,0,0,0,0,0,0,0,0,0,-1,1462,743,0,0
245,281,0,0,0,0,0,0,0,0,0,-1,1469,743,0,0
252,281,0,0,0,0,0,0,0,0,0,-1,1476,743,0,0
259,281,0,0,0,0,0,0,0,0,0,-1,1483,743,0,0
266,281,0,0,0,0,0,0,0,0,0,-1,1490,743,0,0
273,281,0,0,0,0,0,0,0,0,0,-1,1497,743,0,0
280,281,0,0,0,0,0,0,0,0,0,-1,1504,743,0,0
287,281,0,0,0,0,0,0,0,0,0,-1,1511,743,0,0
294,281,0,0,0,0,0,0,0,0,0,-1,1518,743,0,0
301,281,0,0,0,0,0,0,0,0,0,-1,1525,743,0,0
308,281,0,0,0,0,0,0,0,0,0,-1,1532,743,0,0
315,281,0,0,0,0,0,0,0,0,0,-1,1539,743,0,0
322,281,0,0,0,0,0,0,0,0,0,-1,1546,743,0,0
329,281,0,0,0,0,0,0,0,0,0,-1,1553,743,0,0
336,281,0,0,0,0,0,0,0,0,0,-1,1560,743,0,0
343,281,0,0,0,0,0,0,0,0,0,-1,1567,743,0,0
350,281,0,0,0,0,0,0,0,0,0,-1,1574,743,0,0
357,281,0,0,0,0,0,0,0,0,0,-1,1581,743,0,0
364,281,0,0,0,0,0,0,0,0,0,-1,1588,743,0,0
371,281,0,0,0,0,0,0,0,0,0,-1,1595,743,0,0
378,281,0,0,0,0,0,0,0,0,0,-1,1602,743,0,0
385,281,0,0,0,0,0,0,0,0,0,-1,1609,743,0,0
392,281,0,0,0,0,0,0,0,0,0,-1,1616,743,0,0
399,281,0,0,0,0,0,0,0,0,0,-1,1623,743,0,0
406,281,0,0,0,0,0,0,0,0,0,-1,1630,743,0,0
413,281,0,0,0,0,0,0,0,0,0,-1,1637,743,0,0
420,281,0,0,0,0,0,0,0,0,0,-1,1644,743,0,0
427,281,0,0,0,0,0,0,0,0,0,-1,1651,743,0,0
434,281,0,0,0,0,0,0,0,0,0,-1,1658,743,0,0
441,281,0,0,0,0,0,0,0,0,0,-1,1665,743,0,0
448,281,0,0,0,0,0,0,0,0,0,-1,1672,743,0,0
455,281,0,0,0,0,0,0,0,0,0,-1,1679,743,0,0
462,281,0,0,0,0,0,0,0,0,0,-1,1686,743,0,0
469,281,0,0,0,0,0,0,0,0,0,-1,1693,743,0,0
476,281,0,0,0,0,0,0,0,0,0,-1,1700,743,0,0
483,281,0,0,0,0,0,0,0,0,0,-1,1707,743,0,0
490,281,0,0,0,0,0,0,0,0,0,-1,1714,743,0,0
497,281,0,0,0,0,0,0,0,0,0,-1,1721,743,0,0
504,281,0,0,0,0,0,0,0,0,0,-1,1728,743,0,0
511,281,0,0,0,0,0,0,0,0,0,-1,1735,743,0,0
518,281,0,0,0,0,0,0,0,0,0,-1,1742,743,0,0
525,281,0,0,0,0,0,0,0,0,0,-1,1749,743,0,0
532,281,0,0,0,0,0,0,0,0,0,-1,1756,743,0,0
539,281,0,0,0,0,0,0,0,0,0,-1,1763,743,0,0
546,281,0,0,0,0,0,0,0,0,0,-1,1770,743,0,0
553,281,0,0,0,0,0,0,0,0,0,-1,1777,743,0,0
560,281,-0.216919,0.216492,0.00540185,-0.0102351,0.00189777,0.00562888,-0.0104621,0.119062,0.0094288,0.0379651,1784,743,-0.216901,-0.216482
567,281,-0.644287,0.52832,0.00690821,-0.00208065,0.001491,0.00714907,-0.00232151,0.16016,0.00569972,0.0415053,1791,743,-0.644264,-0.528321
574,281,-0.608765,0.420898,0.00768181,0.0033777,0.00114808,0.0079689,0.00309061,0.245037,0.00463928,0.045855,1798,743,-0.608769,-0.420913
581,281,-0.546265,0.381287,0.00738457,0.00608434,0.000572884,0.00760097,0.00586795,0.361167,0.00459978,0.0470621,1805,743,-0.546324,-0.381295
588,281,-0.228882,0.137085,0.00680436,0.00690108,2.07725e-05,0.00690535,0.00680008,1.36795,0.00456888,0.0440602,1812,743,-0.228856,-0.137113
595,281,-0.0349121,0.263428,0.00594366,0.00650636,-0.000341546,0.00666752,0.0057825,-1.12993,0.00418134,0.0465682,1819,743,-0.0349479,-0.263414
602,281,0.92041,0.589783,0,0,0,0,0,0,0,-1,1826,743,0.920458,-0.589809
609,281,0.872192,0.00476074,0.00363319,0.00463752,-0.00062207,0.00493481,0.00333589,-1.12497,0.00290735,0.0461169,1833,743,0.872181,-0.00477667
616,281,1.48792,-0.326721,0.00292662,0.00290455,-0.000922265,0.00383791,0.00199325,-0.779416,0.00221637,0.044814,1840,743,1.48796,0.326695
623,281,-0.118774,0.418701,0.00201637,0.001912,-0.00126906,0.00323431,0.000694057,-0.764848,0.00196612,0.044027,1847,743,-0.118752,-0.418715
630,281,-0.0605469,0.118713,0.00092605,6.20148e-05,-0.00114939,0.00172193,-0.000733868,-0.605633,0.00145561,0.0301388,1854,743,-0.0605678,-0.118737
637,281,-0.02771,0.0565796,0.000144362,-0.00105106,-0.000806711,0.000550664,-0.00145736,-0.466565,0.00119808,0.0118454,1861,743,-0.0276588,-0.0565551
644,281,-0.00866699,0.0447998,-0.000369703,-0.00159024,-0.000558151,-0.000152953,-0.00180699,-0.370411,0.00115705,0.00949713,1868,743,-0.00870505,-0.0448274
651,281,0.00415039,0.0370483,-0.000723222,-0.00172277,-0.000383444,-0.000593072,-0.00185292,-0.327222,0.00109263,0.011014,1875,743,0.00409126,-0.037071
658,281,0.0144043,0.0916748,-0.000866936,-0.00150029,-0.000108936,-0.000848723,-0.0015185,-0.165658,0.000878736,0.0173467,1882,743,0.0143435,-0.0916996
665,281,0,0.0748291,-0.00121194,-0.000750993,0.000337989,-0.000572378,-0.00139056,1.08464,0.00080701,0.0178548,1889,743,-3.55293e-06,-0.0748124
672,281,-0.0334473,0.0621948,-0.000881108,0.000142067,0.000751992,0.000539992,-0.00127903,1.08409,0.00107872,0.00976333,1896,743,-0.03346,-0.062191
679,281,-0.0269775,0.0604858,-0.000425956,0.00169288,0.00138848,0.00237995,-0.00111303,1.11129,0.00206042,0.0125854,1903,743,-0.0269481,-0.0605002
686,281,-0.0153809,0.0422974,0.000838574,0.00338784,0.00167799,0.00422042,5.99166e-06,1.11021,0.00281162,0.00983925,1910,743,-0.0153326,-0.0422754
693,281,-0.0166016,0.0412598,0.00254267,0.00626073,0.0015237,0.00680537,0.00199803,1.2275,0.00403914,0.00885369,1917,743,-0.0166446,-0.0412314
700,281,-0.0177002,0.0269775,0.00477117,0.00988479,0.00117847,0.0101433,0.00451265,1.35485,0.00586809,0.0155126,1924,743,-0.0177286,-0.0269605
707,281,-0.0936279,0.148682,0.00830483,0.0148037,8.78628e-05,0.0148049,0.00830364,1.55728,0.00856871,0.0320722,1931,743,-0.0935832,-0.148679
714,281,-0.286987,0.265015,0.0136682,0.0211497,-0.00186171,0.0215874,0.0132306,-1.3399,0.0125689,0.0441122,1938,743,-0.287032,-0.265016
721,281,-0.528076,0.708069,0.0205464,0.0298692,-0.0047153,0.0318382,0.0185773,-1.17522,0.018467,0.0456798,1945,743,-0.528056,-0.708082
728,281,-0.167114,1.00873,0.0294101,0.0415269,-0.0089134,0.0462459,0.0246911,-1.08388,0.0267206,0.0447403,1952,743,-0.167165,-1.00874
735,281,0.340088,1.25873,0.040385,0.0570465,-0.0147492,0.0656551,0.0317764,-1.04248,0.0379125,0.0452778,1959,743,0.340031,-1.25874
742,281,0,0,0,0,0,0,0,0,0,-1,1966,743,0,0
749,281,0,0,0,0,0,0,0,0,0,-1,1973,743,0,0
756,281,0,0,0,0,0,0,0,0,0,-1,1980,743,0,0
763,281,0,0,0,0,0,0,0,0,0,-1,1987,743,0,0
770,281,0,0,0,0,0,0,0,0,0,-1,1994,743,0,0
777,281,0,0,0,0,0,0,0,0,0,-1,2001,743,0,0
784,281,0,0,0,0,0,0,0,0,0,-1,2008,743,0,0
791,281,0,0,0,0,0,0,0,0,0,-1,2015,743,0,0
798,281,0,0,0,0,0,0,0,0,0,-1,2022,743,0,0
805,281,0,0,0,0,0,0,0,0,0,-1,2029,743,0,0
812,281,0,0,0,0,0,0,0,0,0,-1,2036,743,0,0
-700,274,0,0,0,0,0,0,0,0,0,-1,524,750,0,0
-693,274,0,0,0,0,0,0,0,0,0,-1,531,750,0,0
-686,274,0,0,0,0,0,0,0,0,0,-1,538,750,0,0
-679,274,0,0,0,0,0,0,0,0,0,-1,545,750,0,0
-672,274,0,0,0,0,0,0,0,0,0,-1,552,750,0,0
-665,274,0,0,0,0,0,0,0,0,0,-1,559,750,0,0
-658,274,0,0,0,0,0,0,0,0,0,-1,566,750,0,0
-651,274,0,0,0,0,0,0,0,0,0,-1,573,750,0,0
-644,274,0,0,0,0,0,0,0,0,0,-1,580,750,0,0
-637,274,0,0,0,0,0,0,0,0,0,-1,587,750,0,0
-630,274,0,0,0,0,0,0,0,0,0,-1,594,750,0,0
-623,274,1.77557,-1.0271,0,0,0,0,0,0,0,-1,601,750,1.77559,1.02708
-616,274,0.574524,-1.04688,0,0,0,0,0,0,0,-1,608,750,0.574502,1.04685
-609,274,0.462097,-0.78009,0,0,0,0,0,0,0,-1,615,750,0.462109,0.780098
-602,274,-0.937561,0.640015,0,0,0,0,0,0,0,-1,622,750,-0.93758,-0.639991
-595,274,-0.808899,0.629639,-0.00097236,0.00580144,-0.00709793,0.0102791,-0.00545005,-1.00801,0.0092228,0.0453668,629,750,-0.80888,-0.629638
-588,274,-0.513916,0.765015,0.000638265,0.00635565,-0.00826348,0.0122409,-0.00524703,-0.951926,0.0103623,0.041425,636,750,-0.513923,-0.765017
-581,274,-0.0125122,0.1875,0.00174205,0.00612951,-0.008344,0.0125633,-0.00469178,-0.913945,0.010302,0.0344679,643,750,-0.0125314,-0.18749
-574,274,-0.0171509,0.043457,0.00229658,0.00545114,-0.00814246,0.0121677,-0.00441996,-0.881069,0.00991899,0.016758,650,750,-0.0171384,-0.0434752
-567,274,-0.048645,0.0669556,0.00274545,0.00430428,-0.00707244,0.0106401,-0.00359039,-0.840279,0.00854544,0.0136883,657,750,-0.0486534,-0.066949
-560,274,-0.020813,0.0735474,0.00296705,0.00316522,-0.00570266,0.00876966,-0.00263738,-0.794085,0.00689579,0.0135937,664,750,-0.0208026,-0.0735289
-553,274,-0.00726318,0.0471191,0.00302647,0.00187053,-0.00430216,0.00678931,-0.00189231,-0.718626,0.00527143,0.00905156,671,750,-0.00726634,-0.0470905
-546,274,-0.0204468,0.0545044,0.00238577,0.000584747,-0.00272986,0.00435981,-0.0013893,-0.626081,0.00346379,0.0101298,678,750,-0.020434,-0.0545101
-539,274,-0.0379639,0.0621948,0.000950506,-0.000729931,-0.00120422,0.00157866,-0.00135808,-0.480798,0.00169712,0.0100153,685,750,-0.0379876,-0.0621886
-532,274,-0.0379028,0.064209,-6.00436e-05,-0.00238407,0.000289918,-2.44227e-05,-0.00241969,0.122252,0.00160505,0.00925612,692,750,-0.0378755,-0.0641919
-525,274,-0.027832,0.0657959,-0.000534838,-0.0030547,0.0013367,4.21247e-05,-0.00363167,0.407476,0.00243527,0.00972773,699,750,-0.0278023,-0.0658241
-518,274,-0.0319214,0.0501099,-0.000859414,-0.00306679,0.00207387,0.000386165,-0.00431237,0.540865,0.0030119,0.0116545,706,750,-0.0319007,-0.0501331
-511,274,-0.0339966,0.0296631,-0.00131283,-0.00343038,0.00250237,0.000345541,-0.00508875,0.585264,0.00351335,0.0107804,713,750,-0.0340104,-0.0296454
-504,274,-0.020813,0.0133667,-0.00164968,-0.00370866,0.0027761,0.000281671,-0.00564001,0.607839,0.00385733,0.0171268,720,750,-0.020818,-0.0133823
-497,274,-0.267639,0.0396729,-0.00230018,-0.00361597,0.00258184,-0.000293727,-0.00562242,0.660645,0.00365431,0.0353928,727,750,-0.267649,-0.0396564
-490,274,-0.439575,0.436462,0,0,0,0,0,0,0,-1,734,750,-0.439553,-0.436464
-483,274,-1.03192,-0.0772705,0,0,0,0,0,0,0,-1,741,750,-1.03194,0.0772793
-476,274,1.18457,-1.26532,0,0,0,0,0,0,0,-1,748,750,1.18455,1.26529
-469,274,0.0535278,-1.36377,0,0,0,0,0,0,0,-1,755,750,0.0535319,1.36378
-462,274,-0.597717,-0.152771,0,0,0,0,0,0,0,-1,762,750,-0.597722,0.152745
-455,274,0.659424,-1.3017,0,0,0,0,0,0,0,-1,769,750,0.659429,1.30172
-448,274,-0.399475,-1.82074,0,0,0,0,0,0,0,-1,776,750,-0.399467,1.82073
-441,274,0,0,0,0,0,0,0,0,0,-1,783,750,0,0
-434,274,0,0,0,0,0,0,0,0,0,-1,790,750,0,0
-427,274,0,0,0,0,0,0,0,0,0,-1,797,750,0,0
-420,274,0,0,0,0,0,0,0,0,0,-1,804,750,0,0
-413,274,0,0,0,0,0,0,0,0,0,-1,811,750,0,0
-406,274,0,0,0,0,0,0,0,0,0,-1,818,750,0,0
-399,274,0,0,0,0,0,0,0,0,0,-1,825,750,0,0
-392,274,0,0,0,0,0,0,0,0,0,-1,832,750,0,0
-385,274,0,0,0,0,0,0,0,0,0,-1,839,750,0,0
-378,274,0,0,0,0,0,0,0,0,0,-1,846,750,0,0
-371,274,0,0,0,0,0,0,0,0,0,-1,853,750,0,0
-364,274,0,0,0,0,0,0,0,0,0,-1,860,750,0,0
-357,274,0,0,0,0,0,0,0,0,0,-1,867,750,0,0
-350,274,0,0,0,0,0,0,0,0,0,-1,874,750,0,0
-343,274,0,0,0,0,0,0,0,0,0,-1,881,750,0,0
-336,274,0,0,0,0,0,0,0,0,0,-1,888,750,0,0
-329,274,0,0,0,0,0,0,0,0,0,-1,895,750,0,0
-322,274,0,0,0,0,0,0,0,0,0,-1,902,750,0,0
-315,274,0,0,0,0,0,0,0,0,0,-1,909,750,0,0
-308,274,0,0,0,0,0,0,0,0,0,-1,916,750,0,0
-301,274,0,0,0,0,0,0,0,0,0,-1,923,750,0,0
-294,274,0,0,0,0,0,0,0,0,0,-1,930,750,0,0
-287,274,0,0,0,0,0,0,0,0,0,-1,937,750,0,0
-280,274,0,0,0,0,0,0,0,0,0,-1,944,750,0,0
-273,274,0,0,0,0,0,0,0,0,0,-1,951,750,0,0
-266,274,0,0,0,0,0,0,0,0,0,-1,958,750,0,0
-259,274,0,0,0,0,0,0,0,0,0,-1,965,750,0,0
-252,274,0,0,0,0,0,0,0,0,0,-1,972,750,0,0
-245,274,0,0,0,0,0,0,0,0,0,-1,979,750,0,0
-238,274,0,0,0,0,0,0,0,0,0,-1,986,750,0,0
-231,274,0,0,0,0,0,0,0,0,0,-1,993,750,0,0
-224,274,0,0,0,0,0,0,0,0,0,-1,1000,750,0,0
-217,274,0,0,0,0,0,0,0,0,0,-1,1007,750,0,0
-210,274,0,0,0,0,0,0,0,0,0,-1,1014,750,0,0
-203,274,0,0,0,0,0,0,0,0,0,-1,1021,750,0,0
-196,274,0,0,0,0,0,0,0,0,0,-1,1028,750,0,0
-189,274,0,0,0,0,0,0,0,0,0,-1,1035,750,0,0
-182,274,0,0,0,0,0,0,0,0,0,-1,1042,750,0,0
-175,274,0,0,0,0,0,0,0,0,0,-1,1049,750,0,0
-168,274,0,0,0,0,0,0,0,0,0,-1,1056,750,0,0
-161,274,0,0,0,0,0,0,0,0,0,-1,1063,750,0,0
-154,274,0,0,0,0,0,0,0,0,0,-1,1070,750,0,0
-147,274,0,0,0,0,0,0,0,0,0,-1,1077,750,0,0
-140,274,0,0,0,0,0,0,0,0,0,-1,1084,750,0,0
-133,274,0,0,0,0,0,0,0,0,0,-1,1091,750,0,0
-126,274,0,0,0,0,0,0,0,0,0,-1,1098,750,0,0
-119,274,0,0,0,0,0,0,0,0,0,-1,1105,750,0,0
-112,274,0,0,0,0,0,0,0,0,0,-1,1112,750,0,0
-105,274,0,0,0,0,0,0,0,0,0,-1,1119,750,0,0
-98,274,0,0,0,0,0,0,0,0,0,-1,1126,750,0,0
-91,274,0,0,0,0,0,0,0,0,0,-1,1133,750,0,0
-84,274,0,0,0,0,0,0,0,0,0,-1,1140,750,0,0
-77,274,0,0,0,0,0,0,0,0,0,-1,1147,750,0,0
-70,274,0,0,0,0,0,0,0,0,0,-1,1154,750,0,0
-63,274,0,0,0,0,0,0,0,0,0,-1,1161,750,0,0
-56,274,0,0,0,0,0,0,0,0,0,-1,1168,750,0,0
-49,274,0,0,0,0,0,0,0,0,0,-1,1175,750,0,0
-42,274,0,0,0,0,0,0,0,0,0,-1,1182,750,0,0
-35,274,0,0,0,0,0,0,0,0,0,-1,1189,750,0,0
-28,274,0,0,0,0,0,0,0,0,0,-1,1196,750,0,0
-21,274,0,0,0,0,0,0,0,0,0,-1,1203,750,0,0
-14,274,0,0,0,0,0,0,0,0,0,-1,1210,750,0,0
-7,274,0,0,0,0,0,0,0,0,0,-1,1217,750,0,0
0,274,0,0,0,0,0,0,0,0,0,-1,1224,750,0,0
7,274,0,0,0,0,0,0,0,0,0,-1,1231,750,0,0
14,274,0,0,0,0,0,0,0,0,0,-1,1238,750,0,0
21,274,0,0,0,0,0,0,0,0,0,-1,1245,750,0,0
28,274,0,0,0,0,0,0,0,0,0,-1,1252,750,0,0
35,274,0,0,0,0,0,0,0,0,0,-1,1259,750,0,0
42,274,0,0,0,0,0,0,0,0,0,-1,1266,750,0,0
49,274,0,0,0,0,0,0,0,0,0,-1,1273,750,0,0
56,274,0,0,0,0,0,0,0,0,0,-1,1280,750,0,0
63,274,0,0,0,0,0,0,0,0,0,-1,1287,750,0,0
70,274,0,0,0,0,0,0,0,0,0,-1,1294,750,0,0
77,274,0,0,0,0,0,0,0,0,0,-1,1301,750,0,0
84,274,0,0,0,0,0,0,0,0,0,-1,1308,750,0,0
91,274,0,0,0,0,0,0,0,0,0,-1,1315,750,0,0
98,274,0,0,0,0,0,0,0,0,0,-1,1322,750,0,0
105,274,0,0,0,0,0,0,0,0,0,-1,1329,750,0,0
112,274,0,0,0,0,0,0,0,0,0,-1,1336,750,0,0
119,274,0,0,0,0,0,0,0,0,0,-1,1343,750,0,0
126,274,0,0,0,0,0,0,0,0,0,-1,1350,750,0,0
133,274,0,0,0,0,0,0,0,0,0,-1,1357,750,0,0
140,274,0,0,0,0,0,0,0,0,0,-1,1364,750,0,0
147,274,0,0,0,0,0,0,0,0,0,-1,1371,750,0,0
154,274,0,0,0,0,0,0,0,0,0,-1,1378,750,0,0
161,274,0,0,0,0,0,0,0,0,0,-1,1385,750,0,0
168,274,0,0,0,0,0,0,0,0,0,-1,1392,750,0,0
175,274,0,0,0,0,0,0,0,0,0,-1,1399,750,0,0
182,274,0,0,0,0,0,0,0,0,0,-1,1406,750,0,0
189,274,0,0,0,0,0,0,0,0,0,-1,1413,750,0,0
196,274,0,0,0,0,0,0,0,0,0,-1,1420,750,0,0
203,274,0,0,0,0,0,0,0,0,0,-1,1427,750,0,0
210,274,0,0,0,0,0,0,0,0,0,-1,1434,750,0,0
217,274,0,0,0,0,0,0,0,0,0,-1,1441,750,0,0
224,274,0,0,0,0,0,0,0,0,0,-1,1448,750,0,0
231,274,0,0,0,0,0,0,0,0,0,-1,1455,750,0,0
238,274,0,0,0,0,0,0,0,0,0,-1,1462,750,0,0
245,274,0,0,0,0,0,0,0,0,0,-1,1469,750,0,0
252,274,0,0,0,0,0,0,0,0,0,-1,1476,750,0,0
259,274,0,0,0,0,0,0,0,0,0,-1,1483,750,0,0
266,274,0,0,0,0,0,0,0,0,0,-1,1490,750,0,0
273,274,0,0,0,0,0,0,0,0,0,-1,1497,750,0,0
280,274,0,0,0,0,0,0,0,0,0,-1,1504,750,0,0
287,274,0,0,0,0,0,0,0,0,0,-1,1511,750,0,0
294,274,0,0,0,0,0,0,0,0,0,-1,1518,750,0,0
301,274,0,0,0,0,0,0,0,0,0,-1,1525,750,0,0
308,274,0,0,0,0,0,0,0,0,0,-1,1532,750,0,0
315,274,0,0,0,0,0,0,0,0,0,-1,1539,750,0,0
322,274,0,0,0,0,0,0,0,0,0,-1,1546,750,0,0
329,274,0,0,0,0,0,0,0,0,0,-1,1553,750,0,0
336,274,0,0,0,0,0,0,0,0,0,-1,1560,750,0,0
343,274,0,0,0,0,0,0,0,0,0,-1,1567,750,0,0
350,274,0,0,0,0,0,0,0,0,0,-1,1574,750,0,0
357,274,0,0,0,0,0,0,0,0,0,-1,1581,750,0,0
364,274,0,0,0,0,0,0,0,0,0,-1,1588,750,0,0
371,274,0,0,0,0,0,0,0,0,0,-1,1595,750,0,0
378,274,0,0,0,0,0,0,0,0,0,-1,1602,750,0,0
385,274,0,0,0,0,0,0,0,0,0,-1,1609,750,0,0
392,274,0,0,0,0,0,0,0,0,0,-1,1616,750,0,0
399,274,0,0,0,0,0,0,0,0,0,-1,1623,750,0,0
406,274,0,0,0,0,0,0,0,0,0,-1,1630,750,0,0
413,274,0,0,0,0,0,0,0,0,0,-1,1637,750,0,0
420,274,0,0,0,0,0,0,0,0,0,-1,1644,750,0,0
427,274,0,0,0,0,0,0,0,0,0,-1,1651,750,0,0
434,274,0,0,0,0,0,0,0,0,0,-1,1658,750,0,0
441,274,0,0,0,0,0,0,0,0,0,-1,1665,750,0,0
448,274,0,0,0,0,0,0,0,0,0,-1,1672,750,0,0
455,274,0,0,0,0,0,0,0,0,0,-1,1679,750,0,0
462,274,0,0,0,0,0,0,0,0,0,-1,1686,750,0,0
469,274,0,0,0,0,0,0,0,0,0,-1,1693,750,0,0
476,274,0,0,0,0,0,0,0,0,0,-1,1700,750,0,0
483,274,0,0,0,0,0,0,0,0,0,-1,1707,750,0,0
490,274,0,0,0,0,0,0,0,0,0,-1,1714,750,0,0
497,274,0,0,0,0,0,0,0,0,0,-1,1721,750,0,0
504,274,0,0,0,0,0,0,0,0,0,-1,1728,750,0,0
511,274,0,0,0,0,0,0,0,0,0,-1,1735,750,0,0
518,274,0,0,0,0,0,0,0,0,0,-1,1742,750,0,0
525,274,0,0,0,0,0,0,0,0,0,-1,1749,750,0,0
532,274,0,0,0,0,0,0,0,0,0,-1,1756,750,0,0
539,274,0,0,0,0,0,0,0,0,0,-1,1763,750,0,0
546,274,0,0,0,0,0,0,0,0,0,-1,1770,750,0,0
553,274,0,0,0,0,0,0,0,0,0,-1,1777,750,0,0
560,274,-0.0603027,0.105225,0.0044563,-0.0115458,-0.00257592,0.00486073,-0.0119502,-0.155735,0.00998935,0.0354325,1784,750,-0.060328,-0.105242
567,274,-0.287354,0.231384,0.00790851,-0.0029831,-0.00229889,0.00837385,-0.00344844,-0.199723,0.00702028,0.0395776,1791,750,-0.287353,-0.231412
574,274,-0.309204,0.203918,0.00978631,0.00280493,-0.00174479,0.0101981,0.00239316,-0.231761,0.00615801,0.0421726,1798,750,-0.30923,-0.203908
581,274,0.169312,-0.129456,0.00952651,0.00555535,-0.00137904,0.00995842,0.00512343,-0.303522,0.0057503,0.0402538,1805,750,0.169278,0.129472
588,274,0.203735,-0.697632,0.00869888,0.00624822,-0.00128613,0.00924994,0.00569716,-0.404802,0.00538808,0.0433104,1812,750,0.20375,0.69764
595,274,0.663452,0.450928,0,0,0,0,0,0,0,-1,1819,750,0.66347,-0.450927
602,274,0.848877,0.271423,0.00596618,0.00516675,-0.00106016,0.00669948,0.00443345,-0.605122,0.00393484,0.0481874,1826,750,0.848864,-0.27143
609,274,0.799438,-0.115601,0.0045357,0.00382947,-0.00100136,0.00524438,0.00312079,-0.615888,0.00304604,0.0432669,1833,750,0.799464,0.115599
616,274,1.31299,-0.392395,0.00349215,0.00211789,-0.00105913,0.00406752,0.00154252,-0.497643,0.00237111,0.0413649,1840,750,1.31299,0.392395
623,274,-0.0687256,0.564331,0.00237016,0.00116245,-0.00123956,0.00314512,0.000387488,-0.55874,0.00198026,0.0436661,1847,750,-0.0687601,-0.564311
630,274,-0.0753174,0.124817,0.00114084,-0.000486306,-0.00110943,0.00170303,-0.0010485,-0.469026,0.00160351,0.0375373,1854,750,-0.0752959,-0.12484
637,274,-0.0162354,0.0307007,0.000251688,-0.00144721,-0.000809592,0.000575696,-0.00177122,-0.380689,0.00141238,0.0122981,1861,750,-0.0162019,-0.0306985
644,274,-0.0244141,0.031311,-0.000302599,-0.00191177,-0.00062323,-8.94548e-05,-0.00212491,-0.329529,0.00138775,0.0106293,1868,750,-0.0244672,-0.0312944
651,274,-0.0186768,0.0331421,-0.000659719,-0.00196114,-0.000556923,-0.000453932,-0.00216692,-0.353947,0.00131959,0.0126553,1875,750,-0.0186328,-0.0331218
658,274,-0.00793457,0.0380249,-0.00080055,-0.00171684,-0.000351476,-0.000681259,-0.00183613,-0.3272,0.00107178,0.0151257,1882,750,-0.00794374,-0.0380418
665,274,-0.0245361,0.0539551,-0.001116,-0.000969114,2.14848e-05,-0.000966036,-0.00111907,1.42849,0.00070063,0.0150174,1889,750,-0.0245344,-0.053982
672,274,-0.0355225,0.0551147,-0.000746732,-8.94904e-05,0.000352838,6.40568e-05,-0.00090028,1.16034,0.000622638,0.0118022,1896,750,-0.0355233,-0.055141
679,274,-0.0112305,0.0386963,-0.00023902,0.00138614,0.000907934,0.00179201,-0.000644895,1.15041,0.00145798,0.0122546,1903,750,-0.0112098,-0.0386939
686,274,-0.0131836,0.0310669,0.00124565,0.00295605,0.000971538,0.00339517,0.000806535,1.1463,0.00204823,0.0121457,1910,750,-0.0131702,-0.031069
693,274,-0.0117188,0.0512695,0.00315189,0.00571057,0.000578873,0.00583544,0.00302702,1.35834,0.00336988,0.010736,1917,750,-0.0117215,-0.0512694
700,274,-0.0297852,0.0652466,0.00553808,0.00906319,1.3184e-05,0.00906324,0.00553803,1.56706,0.0052755,0.0129043,1924,750,-0.0297714,-0.0652207
707,274,-0.0269775,0.0560913,0.00916292,0.0138362,-0.00158982,0.0143258,0.00867336,-1.27208,0.00833208,0.0188546,1931,750,-0.026937,-0.0561049
714,274,-0.106079,0.0516357,0.014527,0.0196068,-0.00409198,0.0218831,0.0122508,-1.06315,0.0126643,0.0367025,1938,750,-0.106039,-0.0516173
721,274,-0.163208,0.514221,0.0213081,0.0276087,-0.00749796,0.0325913,0.0163255,-0.984277,0.0188166,0.0444483,1945,750,-0.163179,-0.514194
728,274,0.000244141,0.669189,0.0298873,0.0382109,-0.0123223,0.0470552,0.021043,-0.948256,0.0272178,0.0433392,1952,750,0.000230124,-0.669205
735,274,0.268677,0.781128,0.040354,0.0521464,-0.0188847,0.066034,0.0264665,-0.936713,0.038374,0.0469561,1959,750,0.268702,-0.781119
742,274,0.264771,0.973938,0,0,0,0,0,0,0,-1,1966,750,0.264727,-0.973944
749,274,0,0,0,0,0,0,0,0,0,-1,1973,750,0,0
756,274,0,0,0,0,0,0,0,0,0,-1,1980,750,0,0
763,274,0,0,0,0,0,0,0,0,0,-1,1987,750,0,0
770,274,0,0,0,0,0,0,0,0,0,-1,1994,750,0,0
777,274,0,0,0,0,0,0,0,0,0,-1,2001,750,0,0
784,274,0,0,0,0,0,0,0,0,0,-1,2008,750,0,0
791,274,0,0,0,0,0,0,0,0,0,-1,2015,750,0,0
798,274,0,0,0,0,0,0,0,0,0,-1,2022,750,0,0
805,274,0,0,0,0,0,0,0,0,0,-1,2029,750,0,0
812,274,0,0,0,0,0,0,0,0,0,-1,2036,750,0,0
-700,267,0,0,0,0,0,0,0,0,0,-1,524,757,0,0
-693,267,0,0,0,0,0,0,0,0,0,-1,531,757,0,0
-686,267,0,0,0,0,0,0,0,0,0,-1,538,757,0,0
-679,267,0,0,0,0,0,0,0,0,0,-1,545,757,0,0
-672,267,0,0,0,0,0,0,0,0,0,-1,552,757,0,0
-665,267,0,0,0,0,0,0,0,0,0,-1,559,757,0,0
-658,267,0,0,0,0,0,0,0,0,0,-1,566,757,0,0
-651,267,0,0,0,0,0,0,0,0,0,-1,573,757,0,0
-644,267,0,0,0,0,0,0,0,0,0,-1,580,757,0,0
-637,267,0,0,0,0,0,0,0,0,0,-1,587,757,0,0
-630,267,1.15204,-0.976563,0.00659295,-0.0208239,0.0227366,0.019434,-0.033665,0.514116,0.0310216,0.0475312,594,757,1.15201,0.976577
-623,267,1.38855,-0.926453,0,0,0,0,0,0,0,-1,601,757,1.38856,0.926464
-616,267,0.625977,-0.830383,-0.00166118,-0.00568712,0.0089554,0.00550469,-0.012853,0.674847,0.0108782,0.0449575,608,757,0.626001,0.8304
-609,267,0.485962,-0.574097,-0.0024188,-0.00084974,0.00350976,0.0019621,-0.00523064,0.895355,0.00429328,0.0435307,615,757,0.48596,0.574075
-602,267,-0.6073,0.530334,-0.0019912,0.002339,-0.000574108,0.00241383,-0.00206603,-1.4412,0.00258904,0.042695,622,757,-0.607282,-0.530326
-595,267,-0.594666,0.370605,-0.0010548,0.00414046,-0.00333117,0.00576709,-0.00268143,-1.11655,0.00498502,0.04222,629,757,-0.594641,-0.37063
-588,267,-0.27356,0.102234,0.000131572,0.00478097,-0.00492884,0.00790583,-0.00299329,-1.00575,0.00650219,0.0366765,636,757,-0.273567,-0.102231
-581,267,-0.0505371,0.0723877,0.00106512,0.00481079,-0.00548048,0.0087296,-0.00285369,-0.950042,0.00696853,0.0225211,643,757,-0.0505676,-0.072395
-574,267,-0.0324097,0.0339966,0.00153612,0.00443634,-0.00581208,0.00897648,-0.00300402,-0.907652,0.00719774,0.0117886,650,757,-0.0323829,-0.0339916
-567,267,-0.0513306,0.0632935,0.00195007,0.00362117,-0.00526768,0.00811916,-0.00254791,-0.864052,0.00643254,0.0174395,657,757,-0.0513245,-0.0633216
-560,267,-0.0209351,0.0654297,0.00224506,0.00270539,-0.00425565,0.0067371,-0.00178665,-0.812414,0.00519048,0.0205804,664,757,-0.020962,-0.0654266
-553,267,-0.0123901,0.0826416,0.00247775,0.00155903,-0.00310987,0.00516201,-0.00112522,-0.712074,0.00387131,0.016871,671,757,-0.0123627,-0.0826624
-546,267,-0.0168457,0.0568237,0.00194914,0.000270123,-0.00172457,0.00302768,-0.000808419,-0.558885,0.00233505,0.0104538,678,757,-0.0168644,-0.0568173
-539,267,-0.0255127,0.0630493,0.00060221,-0.000976571,-0.000413712,0.000704052,-0.00107841,-0.241367,0.00103664,0.00885234,685,757,-0.0254823,-0.0630408
-532,267,-0.0247192,0.0667725,-0.000399284,-0.00250545,0.000832215,-0.000110143,-0.00279459,0.334388,0.00182746,0.0086711,692,757,-0.0246977,-0.0667641
-525,267,-0.0264282,0.0721436,-0.00072592,-0.0032615,0.001758,0.000173746,-0.00416117,0.473007,0.00283381,0.00891374,699,757,-0.0264418,-0.0721522
-518,267,-0.0330811,0.0667114,-0.000865828,-0.00335371,0.00246703,0.00065313,-0.00487267,0.551886,0.00348661,0.00955017,706,757,-0.0330677,-0.0667143
-511,267,-0.0293579,0.0238037,-0.00128904,-0.00379502,0.00276239,0.000491247,-0.00557531,0.57248,0.00389097,0.0127635,713,757,-0.0293609,-0.0237766
-504,267,-0.0341187,-0.0371094,-0.00155934,-0.00412422,0.00292159,0.000348888,-0.00603245,0.578584,0.00414283,0.0237936,720,757,-0.0341418,0.0371288
-497,267,-0.163818,-0.0395508,-0.00199944,-0.00401771,0.00273465,-9.36685e-05,-0.00592348,0.608641,0.00391814,0.0391719,727,757,-0.163795,0.0395448
-490,267,-0.304871,0.100952,-0.00267317,-0.00335978,0.00216621,-0.000823227,-0.00520972,0.70681,0.00323386,0.0453175,734,757,-0.304845,-0.100977
-483,267,-0.301819,0.164246,0,0,0,0,0,0,0,-1,741,757,-0.301834,-0.164276
-476,267,0.980225,-0.921448,0,0,0,0,0,0,0,-1,748,757,0.980244,0.921462
-469,267,0.0911255,0.0397949,0,0,0,0,0,0,0,-1,755,757,0.0911537,-0.0397925
-462,267,-0.272644,-0.0767212,0,0,0,0,0,0,0,-1,762,757,-0.272624,0.0766957
-455,267,-0.636414,-0.193176,0,0,0,0,0,0,0,-1,769,757,-0.636402,0.193184
-448,267,-0.230164,0.147888,0,0,0,0,0,0,0,-1,776,757,-0.230142,-0.147901
-441,267,0,0,0,0,0,0,0,0,0,-1,783,757,0,0
-434,267,0,0,0,0,0,0,0,0,0,-1,790,757,0,0
-427,267,0,0,0,0,0,0,0,0,0,-1,797,757,0,0
-420,267,0,0,0,0,0,0,0,0,0,-1,804,757,0,0
-413,267,0,0,0,0,0,0,0,0,0,-1,811,757,0,0
-406,267,0,0,0,0,0,0,0,0,0,-1,818,757,0,0
-399,267,0,0,0,0,0,0,0,0,0,-1,825,757,0,0
-392,267,0,0,0,0,0,0,0,0,0,-1,832,757,0,0
-385,267,0,0,0,0,0,0,0,0,0,-1,839,757,0,0
-378,267,0,0,0,0,0,0,0,0,0,-1,846,757,0,0
-371,267,0,0,0,0,0,0,0,0,0,-1,853,757,0,0
-364,267,0,0,0,0,0,0,0,0,0,-1,860,757,0,0
-357,267,0,0,0,0,0,0,0,0,0,-1,867,757,0,0
-350,267,0,0,0,0,0,0,0,0,0,-1,874,757,0,0
-343,267,0,0,0,0,0,0,0,0,0,-1,881,757,0,0
-336,267,0,0,0,0,0,0,0,0,0,-1,888,757,0,0
-329,267,0,0,0,0,0,0,0,0,0,-1,895,757,0,0
-322,267,0,0,0,0,0,0,0,0,0,-1,902,757,0,0
-315,267,0,0,0,0,0,0,0,0,0,-1,909,757,0,0
-308,267,0,0,0,0,0,0,0,0,0,-1,916,757,0,0
-301,267,0,0,0,0,0,0,0,0,0,-1,923,757,0,0
-294,267,0,0,0,0,0,0,0,0,0,-1,930,757,0,0
-287,267,0,0,0,0,0,0,0,0,0,-1,937,757,0,0
-280,267,0,0,0,0,0,0,0,0,0,-1,944,757,0,0
-273,267,0,0,0,0,0,0,0,0,0,-1,951,757,0,0
-266,267,0,0,0,0,0,0,0,0,0,-1,958,757,0,0
-259,267,0,0,0,0,0,0,0,0,0,-1,965,757,0,0
-252,267,0,0,0,0,0,0,0,0,0,-1,972,757,0,0
-245,267,0,0,0,0,0,0,0,0,0,-1,979,757,0,0
-238,267,0,0,0,0,0,0,0,0,0,-1,986,757,0,0
-231,267,0,0,0,0,0,0,0,0,0,-1,993,757,0,0
-224,267,0,0,0,0,0,0,0,0,0,-1,1000,757,0,0
-217,267,0,0,0,0,0,0,0,0,0,-1,1007,757,0,0
-210,267,0,0,0,0,0,0,0,0,0,-1,1014,757,0,0
-203,267,0,0,0,0,0,0,0,0,0,-1,1021,757,0,0
-196,267,0,0,0,0,0,0,0,0,0,-1,1028,757,0,0
-189,267,0,0,0,0,0,0,0,0,0,-1,1035,757,0,0
-182,267,0,0,0,0,0,0,0,0,0,-1,1042,757,0,0
-175,267,0,0,0,0,0,0,0,0,0,-1,1049,757,0,0
-168,267,0,0,0,0,0,0,0,0,0,-1,1056,757,0,0
-161,267,0,0,0,0,0,0,0,0,0,-1,1063,757,0,0
-154,267,0,0,0,0,0,0,0,0,0,-1,1070,757,0,0
-147,267,0,0,0,0,0,0,0,0,0,-1,1077,757,0,0
-140,267,0,0,0,0,0,0,0,0,0,-1,1084,757,0,0
-133,267,0,0,0,0,0,0,0,0,0,-1,1091,757,0,0
-126,267,0,0,0,0,0,0,0,0,0,-1,1098,757,0,0
-119,267,0,0,0,0,0,0,0,0,0,-1,1105,757,0,0
-112,267,0,0,0,0,0,0,0,0,0,-1,1112,757,0,0
-105,267,0,0,0,0,0,0,0,0,0,-1,1119,757,0,0
-98,267,0,0,0,0,0,0,0,0,0,-1,1126,757,0,0
-91,267,0,0,0,0,0,0,0,0,0,-1,1133,757,0,0
-84,267,0,0,0,0,0,0,0,0,0,-1,1140,757,0,0
-77,267,0,0,0,0,0,0,0,0,0,-1,1147,757,0,0
-70,267,0,0,0,0,0,0,0,0,0,-1,1154,757,0,0
-63,267,0,0,0,0,0,0,0,0,0,-1,1161,757,0,0
-56,267,0,0,0,0,0,0,0,0,0,-1,1168,757,0,0
-49,267,0,0,0,0,0,0,0,0,0,-1,1175,757,0,0
-42,267,0,0,0,0,0,0,0,0,0,-1,1182,757,0,0
-35,267,0,0,0,0,0,0,0,0,0,-1,1189,757,0,0
-28,267,0,0,0,0,0,0,0,0,0,-1,1196,757,0,0
-21,267,0,0,0,0,0,0,0,0,0,-1,1203,757,0,0
-14,267,0,0,0,0,0,0,0,0,0,-1,1210,757,0,0
-7,267,0,0,0,0,0,0,0,0,0,-1,1217,757,0,0
0,267,0,0,0,0,0,0,0,0,0,-1,1224,757,0,0
7,267,0,0,0,0,0,0,0,0,0,-1,1231,757,0,0
14,267,0,0,0,0,0,0,0,0,0,-1,1238,757,0,0
21,267,0,0,0,0,0,0,0,0,0,-1,1245,757,0,0
28,267,0,0,0,0,0,0,0,0,0,-1,1252,757,0,0
35,267,0,0,0,0,0,0,0,0,0,-1,1259,757,0,0
42,267,0,0,0,0,0,0,0,0,0,-1,1266,757,0,0
49,267,0,0,0,0,0,0,0,0,0,-1,1273,757,0,0
56,267,0,0,0,0,0,0,0,0,0,-1,1280,757,0,0
63,267,0,0,0,0,0,0,0,0,0,-1,1287,757,0,0
70,267,0,0,0,0,0,0,0,0,0,-1,1294,757,0,0
77,267,0,0,0,0,0,0,0,0,0,-1,1301,757,0,0
84,267,0,0,0,0,0,0,0,0,0,-1,1308,757,0,0
91,267,0,0,0,0,0,0,0,0,0,-1,1315,757,0,0
98,267,0,0,0,0,0,0,0,0,0,-1,1322,757,0,0
105,267,0,0,0,0,0,0,0,0,0,-1,1329,757,0,0
112,267,0,0,0,0,0,0,0,0,0,-1,1336,757,0,0
119,267,0,0,0,0,0,0,0,0,0,-1,1343,757,0,0
126,267,0,0,0,0,0,0,0,0,0,-1,1350,757,0,0
133,267,0,0,0,0,0,0,0,0,0,-1,1357,757,0,0
140,267,0,0,0,0,0,0,0,0,0,-1,1364,757,0,0
147,267,0,0,0,0,0,0,0,0,0,-1,1371,757,0,0
154,267,0,0,0,0,0,0,0,0,0,-1,1378,757,0,0
161,267,0,0,0,0,0,0,0,0,0,-1,1385,757,0,0
168,267,0,0,0,0,0,0,0,0,0,-1,1392,757,0,0
175,267,0,0,0,0,0,0,0,0,0,-1,1399,757,0,0
182,267,0,0,0,0,0,0,0,0,0,-1,1406,757,0,0
189,267,0,0,0,0,0,0,0,0,0,-1,1413,757,0,0
196,267,0,0,0,0,0,0,0,0,0,-1,1420,757,0,0
203,267,0,0,0,0,0,0,0,0,0,-1,1427,757,0,0
210,267,0,0,0,0,0,0,0,0,0,-1,1434,757,0,0
217,267,0,0,0,0,0,0,0,0,0,-1,1441,757,0,0
224,267,0,0,0,0,0,0,0,0,0,-1,1448,757,0,0
231,267,0,0,0,0,0,0,0,0,0,-1,1455,757,0,0
238,267,0,0,0,0,0,0,0,0,0,-1,1462,757,0,0
245,267,0,0,0,0,0,0,0,0,0,-1,1469,757,0,0
252,267,0,0,0,0,0,0,0,0,0,-1,1476,757,0,0
259,267,0,0,0,0,0,0,0,0,0,-1,1483,757,0,0
266,267,0,0,0,0,0,0,0,0,0,-1,1490,757,0,0
273,267,0,0,0,0,0,0,0,0,0,-1,1497,757,0,0
280,267,0,0,0,0,0,0,0,0,0,-1,1504,757,0,0
287,267,0,0,0,0,0,0,0,0,0,-1,1511,757,0,0
294,267,0,0,0,0,0,0,0,0,0,-1,1518,757,0,0
301,267,0,0,0,0,0,0,0,0,0,-1,1525,757,0,0
308,267,0,0,0,0,0,0,0,0,0,-1,1532,757,0,0
315,267,0,0,0,0,0,0,0,0,0,-1,1539,757,0,0
322,267,0,0,0,0,0,0,0,0,0,-1,1546,757,0,0
329,267,0,0,0,0,0,0,0,0,0,-1,1553,757,0,0
336,267,0,0,0,0,0,0,0,0,0,-1,1560,757,0,0
343,267,0,0,0,0,0,0,0,0,0,-1,1567,757,0,0
350,267,0,0,0,0,0,0,0,0,0,-1,1574,757,0,0
357,267,0,0,0,0,0,0,0,0,0,-1,1581,757,0,0
364,267,0,0,0,0,0,0,0,0,0,-1,1588,757,0,0
371,267,0,0,0,0,0,0,0,0,0,-1,1595,757,0,0
378,267,0,0,0,0,0,0,0,0,0,-1,1602,757,0,0
385,267,0,0,0,0,0,0,0,0,0,-1,1609,757,0,0
392,267,0,0,0,0,0,0,0,0,0,-1,1616,757,0,0
399,267,0,0,0,0,0,0,0,0,0,-1,1623,757,0,0
406,267,0,0,0,0,0,0,0,0,0,-1,1630,757,0,0
413,267,0,0,0,0,0,0,0,0,0,-1,1637,757,0,0
420,267,0,0,0,0,0,0,0,0,0,-1,1644,757,0,0
427,267,0,0,0,0,0,0,0,0,0,-1,1651,757,0,0
434,267,0,0,0,0,0,0,0,0,0,-1,1658,757,0,0
441,267,0,0,0,0,0,0,0,0,0,-1,1665,757,0,0
448,267,0,0,0,0,0,0,0,0,0,-1,1672,757,0,0
455,267,0,0,0,0,0,0,0,0,0,-1,1679,757,0,0
462,267,0,0,0,0,0,0,0,0,0,-1,1686,757,0,0
469,267,0,0,0,0,0,0,0,0,0,-1,1693,757,0,0
476,267,0,0,0,0,0,0,0,0,0,-1,1700,757,0,0
483,267,0,0,0,0,0,0,0,0,0,-1,1707,757,0,0
490,267,0,0,0,0,0,0,0,0,0,-1,1714,757,0,0
497,267,0,0,0,0,0,0,0,0,0,-1,1721,757,0,0
504,267,0,0,0,0,0,0,0,0,0,-1,1728,757,0,0
511,267,0,0,0,0,0,0,0,0,0,-1,1735,757,0,0
518,267,0,0,0,0,0,0,0,0,0,-1,1742,757,0,0
525,267,0,0,0,0,0,0,0,0,0,-1,1749,757,0,0
532,267,0,0,0,0,0,0,0,0,0,-1,1756,757,0,0
539,267,0,0,0,0,0,0,0,0,0,-1,1763,757,0,0
546,267,0,0,0,0,0,0,0,0,0,-1,1770,757,0,0
553,267,0,0,0,0,0,0,0,0,0,-1,1777,757,0,0
560,267,0,0,0,0,0,0,0,0,0,-1,1784,757,0,0
567,267,-0.0673828,0.104858,0.00769032,-0.00486319,-0.00456322,0.00917376,-0.00634663,-0.31431,0.00901012,0.0334011,1791,757,-0.0673645,-0.104858
574,267,-0.0450439,0.0514526,0.0105216,0.00104978,-0.00360592,0.0117381,-0.000166749,-0.325378,0.00788159,0.036137,1798,757,-0.0450412,-0.0514392
581,267,0.290161,-0.139526,0.0102451,0.00400825,-0.00264917,0.0112184,0.00303488,-0.35211,0.00670048,0.037108,1805,757,0.290109,0.13952
588,267,0.557129,-0.178955,0.00925428,0.00479818,-0.00209719,0.010086,0.00396643,-0.377576,0.00586724,0.0444803,1812,757,0.557139,0.178956
595,267,0.453613,0.457153,0.00787211,0.00440387,-0.00168841,0.0085583,0.00371769,-0.386021,0.0049553,0.0488134,1819,757,0.453619,-0.457137
602,267,0.818848,0.00335693,0.00619991,0.00378571,-0.0013029,0.00676894,0.00321668,-0.411774,0.00390965,0.0452671,1826,757,0.818813,-0.00338036
609,267,0.849854,-0.119385,0.00459093,0.00256523,-0.00105955,0.00504386,0.0021123,-0.403963,0.00292485,0.0396294,1833,757,0.849798,0.119371
616,267,-0.24707,1.17853,0,0,0,0,0,0,0,-1,1840,757,-0.247078,-1.17854
623,267,-0.230103,0.84845,0.00231548,0.000214239,-0.00105675,0.002755,-0.000225282,-0.394153,0.00191618,0.0404548,1847,757,-0.230123,-0.848446
630,267,-0.236084,0.4422,0.0011032,-0.00111589,-0.000944033,0.00145046,-0.00146315,-0.352488,0.00168218,0.0370789,1854,757,-0.236101,-0.4422
637,267,-0.0131836,0.0159302,0.00018233,-0.00185867,-0.000718945,0.00041015,-0.00208649,-0.306871,0.00154595,0.0249859,1861,757,-0.0131673,-0.0159487
644,267,-0.0323486,0.0323486,-0.000347922,-0.00220743,-0.000601252,-0.000170452,-0.0023849,-0.287018,0.00153627,0.011523,1868,757,-0.0324058,-0.0323704
651,267,-0.0472412,0.0565796,-0.000656793,-0.00217838,-0.000635803,-0.000426097,-0.00240908,-0.348069,0.00148454,0.0133218,1875,757,-0.0472401,-0.0565538
658,267,-0.0388184,0.0449219,-0.000758318,-0.00189555,-0.0005028,-0.0005679,-0.00208596,-0.362024,0.00124528,0.013506,1882,757,-0.0387612,-0.0449197
665,267,-0.017334,0.0480347,-0.000998317,-0.00115109,-0.00019312,-0.000867026,-0.00128238,-0.597071,0.000755536,0.0138284,1889,757,-0.0172854,-0.048018
672,267,-0.0133057,0.0474243,-0.000564556,-0.000289557,6.97333e-05,-0.000272885,-0.000581228,1.33612,0.00033578,0.0115925,1896,757,-0.0133479,-0.0474411
679,267,-0.0255127,0.0361328,2.34175e-05,0.00106752,0.000561593,0.00131223,-0.000221293,1.15986,0.000957152,0.0114444,1903,757,-0.0255113,-0.0361378
686,267,-0.0285645,0.0420532,0.0017406,0.00248055,0.000443191,0.00268789,0.00153325,1.1332,0.00155698,0.010654,1910,757,-0.028521,-0.0420482
693,267,-0.0250244,0.0631104,0.00387996,0.00504163,-0.000111975,0.00505232,0.00386926,-1.47557,0.00305129,0.0106017,1917,757,-0.025006,-0.0631079
700,267,-0.0378418,0.0689697,0.00645084,0.00802209,-0.000806018,0.00836202,0.00611091,-1.17169,0.00499631,0.0130283,1924,757,-0.0378536,-0.0689545
707,267,-0.0268555,0.0499878,0.0102302,0.0124275,-0.00275847,0.0142981,0.00835965,-0.974906,0.00829435,0.0130837,1931,757,-0.0268151,-0.0499602
714,267,0.0495605,0.00012207,0.0157054,0.0174014,-0.00562864,0.0222456,0.0108613,-0.860168,0.0128447,0.0260156,1938,757,0.0496,-0.000119634
721,267,0.241821,0.194946,0,0,0,0,0,0,0,-1,1945,757,0.241863,-0.194961
728,267,0.423462,0.162415,0.0309131,0.0334855,-0.0145113,0.0467675,0.0176311,-0.829599,0.0272722,0.0470807,1952,757,0.423409,-0.162388
735,267,0.264038,0.268677,0.0409891,0.0452743,-0.0213686,0.0646074,0.021656,-0.835366,0.0379705,0.0484039,1959,757,0.263993,-0.268658
742,267,0.411255,0.195557,0.0527159,0.0604269,-0.0303246,0.0871401,0.0260027,-0.848629,0.0516555,0.0478851,1966,757,0.411302,-0.195573
749,267,0,0,0,0,0,0,0,0,0,-1,1973,757,0,0
756,267,0,0,0,0,0,0,0,0,0,-1,1980,757,0,0
763,267,0,0,0,0,0,0,0,0,0,-1,1987,757,0,0
770,267,0,0,0,0,0,0,0,0,0,-1,1994,757,0,0
777,267,0,0,0,0,0,0,0,0,0,-1,2001,757,0,0
784,267,0,0,0,0,0,0,0,0,0,-1,2008,757,0,0
791,267,0,0,0,0,0,0,0,0,0,-1,2015,757,0,0
798,267,0,0,0,0,0,0,0,0,0,-1,2022,757,0,0
805,267,0,0,0,0,0,0,0,0,0,-1,2029,757,0,0
812,267,0,0,0,0,0,0,0,0,0,-1,2036,757,0,0
-700,260,0,0,0,0,0,0,0,0,0,-1,524,764,0,0
-693,260,0,0,0,0,0,0,0,0,0,-1,531,764,0,0
-686,260,0,0,0,0,0,0,0,0,0,-1,538,764,0,0
-679,260,0,0,0,0,0,0,0,0,0,-1,545,764,0,0
-672,260,0,0,0,0,0,0,0,0,0,-1,552,764,0,0
-665,260,0,0,0,0,0,0,0,0,0,-1,559,764,0,0
-658,260,0,0,0,0,0,0,0,0,0,-1,566,764,0,0
-651,260,0,0,0,0,0,0,0,0,0,-1,573,764,0,0
-644,260,0,0,0,0,0,0,0,0,0,-1,580,764,0,0
-637,260,0,0,0,0,0,0,0,0,0,-1,587,764,0,0
-630,260,0.793457,-0.819702,0,0,0,0,0,0,0,-1,594,764,0.793458,0.819698
-623,260,0.678467,-0.678284,0,0,0,0,0,0,0,-1,601,764,0.678494,0.678276
-616,260,0.817566,-0.802246,-0.000409679,-0.00842847,0.0117616,0.00800711,-0.0168453,0.621131,0.0146478,0.043768,608,764,0.817558,0.802219
-609,260,0.48175,-0.416443,-0.00159693,-0.00395048,0.00656866,0.00389954,-0.00944694,0.696764,0.00792436,0.0421888,615,764,0.481772,0.416443
-602,260,-0.369995,0.511475,-0.00163554,-0.000806481,0.0025039,0.00131697,-0.00375899,0.867431,0.00304156,0.0478948,622,764,-0.369992,-0.511475
-595,260,-0.5177,0.187988,-0.0011856,0.00120608,-0.000386756,0.00126707,-0.00124659,-1.4144,0.00145128,0.0449135,629,764,-0.51772,-0.188
-588,260,-0.308411,0.0305786,-0.000341103,0.00219617,-0.00230459,0.00355823,-0.00170316,-1.03701,0.00309997,0.0356137,636,764,-0.308419,-0.0305727
-581,260,-0.0368652,0.100342,0.000449745,0.00269409,-0.0032257,0.00498724,-0.0018434,-0.952793,0.00408053,0.0191686,643,764,-0.0368552,-0.100362
-574,260,-0.0471802,0.0583496,0.00085549,0.00279353,-0.00395626,0.00589771,-0.00224869,-0.9055,0.00485806,0.0133489,650,764,-0.0471953,-0.0583263
-567,260,-0.0544434,0.0501709,0.00124859,0.00243719,-0.00383832,0.00572695,-0.00204116,-0.862205,0.00465016,0.0155408,657,764,-0.054424,-0.0501748
-560,260,-0.0273438,0.0603027,0.00161238,0.00184252,-0.00312015,0.00484973,-0.00139482,-0.80383,0.00378476,0.0185936,664,764,-0.0273392,-0.0603138
-553,260,-0.0196533,0.0697632,0.00202569,0.000923841,-0.0021701,0.0037137,-0.000764174,-0.661089,0.00276594,0.0161102,671,764,-0.0196294,-0.0697336
-546,260,-0.0322266,0.0646362,0.001656,-0.000217735,-0.000951839,0.00205469,-0.000616426,-0.396662,0.00161497,0.00990682,678,764,-0.0322023,-0.064621
-539,260,-0.0228882,0.0730591,0.00047909,-0.00131325,0.000155594,0.000492497,-0.00132666,0.0859538,0.00108647,0.00914134,685,764,-0.0229077,-0.0730516
-532,260,-0.0122681,0.0859375,-0.000429327,-0.00264225,0.00117401,7.74596e-05,-0.00314904,0.407506,0.00212565,0.0108898,692,764,-0.0122923,-0.0859237
-525,260,-0.0213623,0.0778809,-0.000588611,-0.00340369,0.00199903,0.000448699,-0.004441,0.478658,0.003121,0.0101862,699,764,-0.0213822,-0.0778778
-518,260,-0.0239868,0.0637207,-0.000550522,-0.00356411,0.00268399,0.00102071,-0.00513534,0.529621,0.00380965,0.0103281,706,764,-0.0239602,-0.0637072
-511,260,-0.0170898,0.0366211,-0.000776772,-0.00404653,0.0029485,0.00095977,-0.00578308,0.53226,0.00421192,0.0173566,713,764,-0.0171018,-0.0365975
-504,260,-0.0185547,-0.0101929,-0.000882581,-0.0044077,0.00306677,0.000892042,-0.00618233,0.524583,0.00444881,0.0330373,720,764,-0.0185739,0.0101904
-497,260,-0.0614624,-0.0510254,-0.00100269,-0.00427008,0.0029456,0.000731928,-0.00600469,0.532206,0.00426808,0.0439414,727,764,-0.0614809,0.0510126
-490,260,-0.21405,-0.0674438,-0.00133432,-0.00357951,0.00248552,0.000270363,-0.00518419,0.573284,0.00354968,0.047792,734,764,-0.214029,0.0674529
-483,260,0.0549927,-0.442566,-0.00164589,-0.00314891,0.00185798,-0.000393191,-0.0044016,0.593218,0.00281252,0.0426218,741,764,0.054977,0.44258
-476,260,0.457947,-0.5979,-0.00226941,-0.00203362,0.000905177,-0.00123869,-0.00306434,0.850155,0.00177998,0.0447207,748,764,0.457923,0.597885
-469,260,0.667969,-0.664551,0,0,0,0,0,0,0,-1,755,764,0.667951,0.664576
-462,260,0.0883789,0.0477905,-0.00579701,0.000852129,-0.00252995,0.00170529,-0.00665016,-1.24555,0.00509785,0.042029,762,764,0.0883797,-0.0478142
-455,260,-0.0391846,-0.0812378,-0.0089801,0.00192536,-0.00480174,0.00373823,-0.010793,-1.2098,0.00871294,0.0468533,769,764,-0.0391947,0.0812148
-448,260,0,0,0,0,0,0,0,0,0,-1,776,764,0,0
-441,260,0,0,0,0,0,0,0,0,0,-1,783,764,0,0
-434,260,0,0,0,0,0,0,0,0,0,-1,790,764,0,0
-427,260,0,0,0,0,0,0,0,0,0,-1,797,764,0,0
-420,260,0,0,0,0,0,0,0,0,0,-1,804,764,0,0
-413,260,0,0,0,0,0,0,0,0,0,-1,811,764,0,0
-406,260,0,0,0,0,0,0,0,0,0,-1,818,764,0,0
-399,260,0,0,0,0,0,0,0,0,0,-1,825,764,0,0
-392,260,0,0,0,0,0,0,0,0,0,-1,832,764,0,0
-385,260,0,0,0,0,0,0,0,0,0,-1,839,764,0,0
-378,260,0,0,0,0,0,0,0,0,0,-1,846,764,0,0
-371,260,0,0,0,0,0,0,0,0,0,-1,853,764,0,0
-364,260,0,0,0,0,0,0,0,0,0,-1,860,764,0,0
-357,260,0,0,0,0,0,0,0,0,0,-1,867,764,0,0
-350,260,0,0,0,0,0,0,0,0,0,-1,874,764,0,0
-343,260,0,0,0,0,0,0,0,0,0,-1,881,764,0,0
-336,260,0,0,0,0,0,0,0,0,0,-1,888,764,0,0
-329,260,0,0,0,0,0,0,0,0,0,-1,895,764,0,0
-322,260,0,0,0,0,0,0,0,0,0,-1,902,764,0,0
-315,260,0,0,0,0,0,0,0,0,0,-1,909,764,0,0
-308,260,0,0,0,0,0,0,0,0,0,-1,916,764,0,0
-301,260,0,0,0,0,0,0,0,0,0,-1,923,764,0,0
-294,260,0,0,0,0,0,0,0,0,0,-1,930,764,0,0
-287,260,0,0,0,0,0,0,0,0,0,-1,937,764,0,0
-280,260,0,0,0,0,0,0,0,0,0,-1,944,764,0,0
-273,260,0,0,0,0,0,0,0,0,0,-1,951,764,0,0
-266,260,0,0,0,0,0,0,0,0,0,-1,958,764,0,0
-259,260,0,0,0,0,0,0,0,0,0,-1,965,764,0,0
-252,260,0,0,0,0,0,0,0,0,0,-1,972,764,0,0
-245,260,0,0,0,0,0,0,0,0,0,-1,979,764,0,0
-238,260,0,0,0,0,0,0,0,0,0,-1,986,764,0,0
-231,260,0,0,0,0,0,0,0,0,0,-1,993,764,0,0
-224,260,0,0,0,0,0,0,0,0,0,-1,1000,764,0,0
-217,260,0,0,0,0,0,0,0,0,0,-1,1007,764,0,0
-210,260,0,0,0,0,0,0,0,0,0,-1,1014,764,0,0
-203,260,0,0,0,0,0,0,0,0,0,-1,1021,764,0,0
-196,260,0,0,0,0,0,0,0,0,0,-1,1028,764,0,0
-189,260,0,0,0,0,0,0,0,0,0,-1,1035,764,0,0
-182,260,0,0,0,0,0,0,0,0,0,-1,1042,764,0,0
-175,260,0,0,0,0,0,0,0,0,0,-1,1049,764,0,0
-168,260,0,0,0,0,0,0,0,0,0,-1,1056,764,0,0
-161,260,0,0,0,0,0,0,0,0,0,-1,1063,764,0,0
-154,260,0,0,0,0,0,0,0,0,0,-1,1070,764,0,0
-147,260,0,0,0,0,0,0,0,0,0,-1,1077,764,0,0
-140,260,0,0,0,0,0,0,0,0,0,-1,1084,764,0,0
-133,260,0,0,0,0,0,0,0,0,0,-1,1091,764,0,0
-126,260,0,0,0,0,0,0,0,0,0,-1,1098,764,0,0
-119,260,0,0,0,0,0,0,0,0,0,-1,1105,764,0,0
-112,260,0,0,0,0,0,0,0,0,0,-1,1112,764,0,0
-105,260,0,0,0,0,0,0,0,0,0,-1,1119,764,0,0
-98,260,0,0,0,0,0,0,0,0,0,-1,1126,764,0,0
-91,260,0,0,0,0,0,0,0,0,0,-1,1133,764,0,0
-84,260,0,0,0,0,0,0,0,0,0,-1,1140,764,0,0
-77,260,0,0,0,0,0,0,0,0,0,-1,1147,764,0,0
-70,260,0,0,0,0,0,0,0,0,0,-1,1154,764,0,0
-63,260,0,0,0,0,0,0,0,0,0,-1,1161,764,0,0
-56,260,0,0,0,0,0,0,0,0,0,-1,1168,764,0,0
-49,260,0,0,0,0,0,0,0,0,0,-1,1175,764,0,0
-42,260,0,0,0,0,0,0,0,0,0,-1,1182,764,0,0
-35,260,0,0,0,0,0,0,0,0,0,-1,1189,764,0,0
-28,260,0,0,0,0,0,0,0,0,0,-1,1196,764,0,0
-21,260,0,0,0,0,0,0,0,0,0,-1,1203,764,0,0
-14,260,0,0,0,0,0,0,0,0,0,-1,1210,764,0,0
-7,260,0,0,0,0,0,0,0,0,0,-1,1217,764,0,0
0,260,0,0,0,0,0,0,0,0,0,-1,1224,764,0,0
7,260,0,0,0,0,0,0,0,0,0,-1,1231,764,0,0
14,260,0,0,0,0,0,0,0,0,0,-1,1238,764,0,0
21,260,0,0,0,0,0,0,0,0,0,-1,1245,764,0,0
28,260,0,0,0,0,0,0,0,0,0,-1,1252,764,0,0
35,260,0,0,0,0,0,0,0,0,0,-1,1259,764,0,0
42,260,0,0,0,0,0,0,0,0,0,-1,1266,764,0,0
49,260,0,0,0,0,0,0,0,0,0,-1,1273,764,0,0
56,260,0,0,0,0,0,0,0,0,0,-1,1280,764,0,0
63,260,0,0,0,0,0,0,0,0,0,-1,1287,764,0,0
70,260,0,0,0,0,0,0,0,0,0,-1,1294,764,0,0
77,260,0,0,0,0,0,0,0,0,0,-1,1301,764,0,0
84,260,0,0,0,0,0,0,0,0,0,-1,1308,764,0,0
91,260,0,0,0,0,0,0,0,0,0,-1,1315,764,0,0
98,260,0,0,0,0,0,0,0,0,0,-1,1322,764,0,0
105,260,0,0,0,0,0,0,0,0,0,-1,1329,764,0,0
112,260,0,0,0,0,0,0,0,0,0,-1,1336,764,0,0
119,260,0,0,0,0,0,0,0,0,0,-1,1343,764,0,0
126,260,0,0,0,0,0,0,0,0,0,-1,1350,764,0,0
133,260,0,0,0,0,0,0,0,0,0,-1,1357,764,0,0
140,260,0,0,0,0,0,0,0,0,0,-1,1364,764,0,0
147,260,0,0,0,0,0,0,0,0,0,-1,1371,764,0,0
154,260,0,0,0,0,0,0,0,0,0,-1,1378,764,0,0
161,260,0,0,0,0,0,0,0,0,0,-1,1385,764,0,0
168,260,0,0,0,0,0,0,0,0,0,-1,1392,764,0,0
175,260,0,0,0,0,0,0,0,0,0,-1,1399,764,0,0
182,260,0,0,0,0,0,0,0,0,0,-1,1406,764,0,0
189,260,0,0,0,0,0,0,0,0,0,-1,1413,764,0,0
196,260,0,0,0,0,0,0,0,0,0,-1,1420,764,0,0
203,260,0,0,0,0,0,0,0,0,0,-1,1427,764,0,0
210,260,0,0,0,0,0,0,0,0,0,-1,1434,764,0,0
217,260,0,0,0,0,0,0,0,0,0,-1,1441,764,0,0
224,260,0,0,0,0,0,0,0,0,0,-1,1448,764,0,0
231,260,0,0,0,0,0,0,0,0,0,-1,1455,764,0,0
238,260,0,0,0,0,0,0,0,0,0,-1,1462,764,0,0
245,260,0,0,0,0,0,0,0,0,0,-1,1469,764,0,0
252,260,0,0,0,0,0,0,0,0,0,-1,1476,764,0,0
259,260,0,0,0,0,0,0,0,0,0,-1,1483,764,0,0
266,260,0,0,0,0,0,0,0,0,0,-1,1490,764,0,0
273,260,0,0,0,0,0,0,0,0,0,-1,1497,764,0,0
280,260,0,0,0,0,0,0,0,0,0,-1,1504,764,0,0
287,260,0,0,0,0,0,0,0,0,0,-1,1511,764,0,0
294,260,0,0,0,0,0,0,0,0,0,-1,1518,764,0,0
301,260,0,0,0,0,0,0,0,0,0,-1,1525,764,0,0
308,260,0,0,0,0,0,0,0,0,0,-1,1532,764,0,0
315,260,0,0,0,0,0,0,0,0,0,-1,1539,764,0,0
322,260,0,0,0,0,0,0,0,0,0,-1,1546,764,0,0
329,260,0,0,0,0,0,0,0,0,0,-1,1553,764,0,0
336,260,0,0,0,0,0,0,0,0,0,-1,1560,764,0,0
343,260,0,0,0,0,0,0,0,0,0,-1,1567,764,0,0
350,260,0,0,0,0,0,0,0,0,0,-1,1574,764,0,0
357,260,0,0,0,0,0,0,0,0,0,-1,1581,764,0,0
364,260,0,0,0,0,0,0,0,0,0,-1,1588,764,0,0
371,260,0,0,0,0,0,0,0,0,0,-1,1595,764,0,0
378,260,0,0,0,0,0,0,0,0,0,-1,1602,764,0,0
385,260,0,0,0,0,0,0,0,0,0,-1,1609,764,0,0
392,260,0,0,0,0,0,0,0,0,0,-1,1616,764,0,0
399,260,0,0,0,0,0,0,0,0,0,-1,1623,764,0,0
406,260,0,0,0,0,0,0,0,0,0,-1,1630,764,0,0
413,260,0,0,0,0,0,0,0,0,0,-1,1637,764,0,0
420,260,0,0,0,0,0,0,0,0,0,-1,1644,764,0,0
427,260,0,0,0,0,0,0,0,0,0,-1,1651,764,0,0
434,260,0,0,0,0,0,0,0,0,0,-1,1658,764,0,0
441,260,0,0,0,0,0,0,0,0,0,-1,1665,764,0,0
448,260,0,0,0,0,0,0,0,0,0,-1,1672,764,0,0
455,260,0,0,0,0,0,0,0,0,0,-1,1679,764,0,0
462,260,0,0,0,0,0,0,0,0,0,-1,1686,764,0,0
469,260,0,0,0,0,0,0,0,0,0,-1,1693,764,0,0
476,260,0,0,0,0,0,0,0,0,0,-1,1700,764,0,0
483,260,0,0,0,0,0,0,0,0,0,-1,1707,764,0,0
490,260,0,0,0,0,0,0,0,0,0,-1,1714,764,0,0
497,260,0,0,0,0,0,0,0,0,0,-1,1721,764,0,0
504,260,0,0,0,0,0,0,0,0,0,-1,1728,764,0,0
511,260,0,0,0,0,0,0,0,0,0,-1,1735,764,0,0
518,260,0,0,0,0,0,0,0,0,0,-1,1742,764,0,0
525,260,0,0,0,0,0,0,0,0,0,-1,1749,764,0,0
532,260,0,0,0,0,0,0,0,0,0,-1,1756,764,0,0
539,260,0,0,0,0,0,0,0,0,0,-1,1763,764,0,0
546,260,0,0,0,0,0,0,0,0,0,-1,1770,764,0,0
553,260,0,0,0,0,0,0,0,0,0,-1,1777,764,0,0
560,260,0,0,0,0,0,0,0,0,0,-1,1784,764,0,0
567,260,0,0,0,0,0,0,0,0,0,-1,1791,764,0,0
574,260,-0.0146484,0.00250244,0.0108753,-0.00054556,-0.00449859,0.0124344,-0.00210468,-0.333624,0.00907291,0.0326523,1798,764,-0.0146291,-0.00249902
581,260,0.120972,-0.031311,0.0107629,0.00246718,-0.00311445,0.011802,0.00142808,-0.322026,0.00743779,0.0370553,1805,764,0.120993,0.0313189
588,260,0.230835,0.106995,0.00969742,0.00330588,-0.00227307,0.0104234,0.00257995,-0.309126,0.00626846,0.0432743,1812,764,0.230857,-0.107016
595,260,0.306152,0.0960693,0.00819023,0.00293681,-0.00166747,0.0086748,0.00245224,-0.282813,0.00516367,0.044587,1819,764,0.306111,-0.0960442
602,260,0.528198,-0.104736,0.00641229,0.0023286,-0.00118445,0.00673097,0.00200993,-0.262825,0.00398982,0.0425202,1826,764,0.528196,0.104766
609,260,0.675171,-0.247131,0,0,0,0,0,0,0,-1,1833,764,0.675178,0.247118
616,260,-0.228638,1.20026,0,0,0,0,0,0,0,-1,1840,764,-0.22865,-1.20025
623,260,-0.223511,1.02069,0.00225397,-0.000748034,-0.000818558,0.00246266,-0.000956723,-0.24963,0.002037,0.040212,1847,764,-0.223496,-1.02072
630,260,-0.183594,0.59845,0.0010726,-0.00176421,-0.000742951,0.0012554,-0.00194701,-0.24125,0.00186323,0.0460995,1854,764,-0.183533,-0.598472
637,260,-0.076416,0.318542,0.000145802,-0.00228692,-0.000562721,0.00026966,-0.00241078,-0.216652,0.0017042,0.0405396,1861,764,-0.0763766,-0.318536
644,260,-0.0372314,0.0493774,-0.000377809,-0.00250842,-0.000507699,-0.000263015,-0.00262321,-0.222367,0.00166806,0.022811,1868,764,-0.0371991,-0.0493923
651,260,-0.0235596,0.0415039,-0.000678459,-0.00240091,-0.000622093,-0.000477277,-0.00260209,-0.31278,0.00159955,0.0125871,1875,764,-0.0235774,-0.0414937
658,260,-0.0241699,0.0568848,-0.000774801,-0.0020748,-0.000555209,-0.000569958,-0.00227964,-0.353454,0.00136989,0.0140046,1882,764,-0.0241723,-0.0569092
665,260,-0.0130615,0.0512695,-0.00096254,-0.00132891,-0.000303174,-0.000791506,-0.00149994,-0.513637,0.000866436,0.0138103,1889,764,-0.0130344,-0.0512469
672,260,0.00439453,0.0471802,-0.000511801,-0.00048417,-0.000101936,-0.000395118,-0.000600853,-0.852753,0.0003526,0.0120971,1896,764,0.00440719,-0.0471568
679,260,-0.0338135,0.0469971,0.000108355,0.000725605,0.000331752,0.00087009,-3.61298e-05,1.16005,0.00059247,0.0114044,1903,764,-0.0338506,-0.0469677
686,260,-0.0296631,0.0494995,0.00196055,0.00195861,7.41143e-05,0.0020337,0.00188546,0.778845,0.00130919,0.0104156,1910,764,-0.0296329,-0.049511
693,260,-0.02771,0.0479736,0.00421204,0.00423029,-0.000561843,0.00478308,0.00365925,-0.79352,0.00288794,0.0103929,1917,764,-0.0277682,-0.0479944
700,260,-0.0413818,0.0542603,0.00683697,0.00672456,-0.00128365,0.00806564,0.00549589,-0.76352,0.00475775,0.0105495,1924,764,-0.0413349,-0.0542666
707,260,-0.0458984,0.0300293,0.0106343,0.0106641,-0.00344914,0.0140984,0.00720007,-0.787559,0.00814034,0.01188,1931,764,-0.0459571,-0.0300008
714,260,0.0268555,-0.00366211,0.0161039,0.0147947,-0.00652553,0.0220076,0.00889104,-0.735408,0.0127839,0.0209778,1938,764,0.0268353,0.00367369
721,260,0.540649,-0.738403,0,0,0,0,0,0,0,-1,1945,764,0.54066,0.738395
728,260,0.470703,-0.55835,0,0,0,0,0,0,0,-1,1952,764,0.470652,0.558344
735,260,0.453735,-0.713928,0,0,0,0,0,0,0,-1,1959,764,0.453725,0.713898
742,260,0.503174,-0.826599,0.0518665,0.0502378,-0.0320198,0.0830822,0.019022,-0.772685,0.050262,0.046939,1966,764,0.503208,0.826614
749,260,0.828125,-1.13647,0.0644216,0.0656783,-0.04397,0.109024,0.0210755,-0.792543,0.0667758,0.0487082,1973,764,0.828131,1.13649
756,260,0,0,0,0,0,0,0,0,0,-1,1980,764,0,0
763,260,0,0,0,0,0,0,0,0,0,-1,1987,764,0,0
770,260,0,0,0,0,0,0,0,0,0,-1,1994,764,0,0
777,260,0,0,0,0,0,0,0,0,0,-1,2001,764,0,0
784,260,0,0,0,0,0,0,0,0,0,-1,2008,764,0,0
791,260,0,0,0,0,0,0,0,0,0,-1,2015,764,0,0
798,260,0,0,0,0,0,0,0,0,0,-1,2022,764,0,0
805,260,0,0,0,0,0,0,0,0,0,-1,2029,764,0,0
812,260,0,0,0,0,0,0,0,0,0,-1,2036,764,0,0
-700,253,0,0,0,0,0,0,0,0,0,-1,524,771,0,0
-693,253,0,0,0,0,0,0,0,0,0,-1,531,771,0,0
-686,253,0,0,0,0,0,0,0,0,0,-1,538,771,0,0
-679,253,0,0,0,0,0,0,0,0,0,-1,545,771,0,0
-672,253,0,0,0,0,0,0,0,0,0,-1,552,771,0,0
-665,253,0,0,0,0,0,0,0,0,0,-1,559,771,0,0
-658,253,0,0,0,0,0,0,0,0,0,-1,566,771,0,0
-651,253,0,0,0,0,0,0,0,0,0,-1,573,771,0,0
-644,253,0,0,0,0,0,0,0,0,0,-1,580,771,0,0
-637,253,0.297668,-0.737427,0,0,0,0,0,0,0,-1,587,771,0.297653,0.737412
-630,253,0.511414,-0.685547,0.010305,-0.0208389,0.0257119,0.0247927,-0.0353266,0.513123,0.0348871,0.0490609,594,771,0.511415,0.685571
-623,253,0.614197,-0.420959,0.00454927,-0.0146414,0.0199059,0.0170518,-0.0271439,0.560812,0.0257372,0.0444072,601,771,0.614209,0.420933
-616,253,0.529419,-0.353027,0.00123155,-0.0095454,0.0143744,0.0111943,-0.0195081,0.606072,0.0179414,0.0403913,608,771,0.529433,0.353031
-609,253,0.452271,-0.250122,-0.000376179,-0.00555122,0.00954231,0.0069232,-0.0128506,0.653,0.0115861,0.0410747,615,771,0.452297,0.250118
-602,253,0.140686,-0.292786,-0.000855342,-0.00260951,0.00557762,0.00391373,-0.00737858,0.707412,0.00662113,0.0428531,622,771,0.140709,0.292766
-595,253,-0.242249,-0.0847168,-0.000844621,-0.000583947,0.00261997,0.00190893,-0.00333749,0.810251,0.00306622,0.0409567,629,771,-0.242245,0.0847228
-588,253,-0.160034,0.0545044,-0.000377362,0.00054892,0.000437173,0.000722661,-0.000551104,1.19251,0.000737629,0.0327293,636,771,-0.160029,-0.0544944
-581,253,-0.03302,0.0935669,0.000208439,0.00132013,-0.000837504,0.00176946,-0.000240891,-1.07837,0.00126759,0.0181087,643,771,-0.033017,-0.0935735
-574,253,-0.0404663,0.0515747,0.000531723,0.00168978,-0.001957,0.00315161,-0.000930114,-0.929232,0.00247019,0.0163199,650,771,-0.0404385,-0.0515504
-567,253,-0.0280151,0.0286255,0.000853406,0.001606,-0.00228263,0.00354314,-0.00108373,-0.86709,0.00279429,0.0158128,657,771,-0.0280291,-0.0286481
-560,253,-0.0251465,0.0419922,0.00124421,0.00118165,-0.00187392,0.00308712,-0.000661253,-0.777053,0.00231026,0.0127118,664,771,-0.0251572,-0.0419816
-553,253,-0.0317383,0.0585938,0.00179169,0.000399593,-0.00115142,0.00244109,-0.000249813,-0.513532,0.00171673,0.0112394,671,771,-0.0317265,-0.0585984
-546,253,-0.0340576,0.0767212,0.00156125,-0.000667223,-0.000146063,0.00157078,-0.000676756,-0.0651723,0.0013314,0.00885844,678,771,-0.0340595,-0.0767146
-539,253,-0.0256348,0.0741577,0.000579663,-0.00163477,0.000735348,0.000801606,-0.00185671,0.293126,0.00157456,0.00937122,685,771,-0.0256651,-0.0741395
-532,253,-0.0210571,0.0812378,-0.000228478,-0.00278465,0.00151275,0.000473823,-0.00348695,0.434643,0.0024976,0.0124886,692,771,-0.0210686,-0.0812281
-525,253,-0.0211792,0.0623169,-0.00024528,-0.00354121,0.00224289,0.000889981,-0.00467647,0.468563,0.00345276,0.0104425,699,771,-0.021202,-0.0623253
-518,253,-0.0209961,0.0626831,-8.25992e-05,-0.00373078,0.00291764,0.00153423,-0.00534761,0.506028,0.00417161,0.0125729,706,771,-0.0210074,-0.0626769
-511,253,-0.0183105,0.0966797,-0.000211881,-0.00422926,0.00316757,0.00153021,-0.00597135,0.502825,0.00457704,0.0291588,713,771,-0.0183113,-0.0967081
-504,253,-0.101379,0.261963,-0.000234754,-0.00460419,0.00325601,0.00150157,-0.00634052,0.489906,0.00480637,0.0392087,720,771,-0.101375,-0.261955
-497,253,-0.074707,0.263123,-0.000215048,-0.00448462,0.00309399,0.00140917,-0.00610884,0.483414,0.00461457,0.0422879,727,771,-0.0746962,-0.263138
-490,253,-0.199463,0.248718,-0.000342067,-0.00382582,0.00260663,0.00105113,-0.00521901,0.49085,0.0038775,0.0453873,734,771,-0.19948,-0.248689
-483,253,-0.236023,-0.157227,-0.000579919,-0.00299695,0.00184918,0.000420634,-0.0039975,0.495968,0.0028157,0.0478223,741,771,-0.236013,0.157253
-476,253,0.0217896,-0.32373,-0.00126712,-0.00149626,0.000590325,-0.000780353,-0.00198303,0.689549,0.00115353,0.0479801,748,771,0.0217854,0.32372
-469,253,0.571228,0.438599,-0.00273228,0.000579744,-0.00132376,0.0010438,-0.00319634,-1.23362,0.00255103,0.0435133,755,771,0.571206,-0.438575
-462,253,0.235718,0.272827,-0.00549084,0.00296093,-0.00384176,0.00444619,-0.0069761,-1.20189,0.00664836,0.0431239,762,771,0.235744,-0.272804
-455,253,-0.0235596,0.0010376,-0.00980521,0.00505052,-0.00669685,0.00762371,-0.0123784,-1.20395,0.0116565,0.0330388,769,771,-0.0235852,-0.00102034
-448,253,0,0,0,0,0,0,0,0,0,-1,776,771,0,0
-441,253,0,0,0,0,0,0,0,0,0,-1,783,771,0,0
-434,253,0,0,0,0,0,0,0,0,0,-1,790,771,0,0
-427,253,0,0,0,0,0,0,0,0,0,-1,797,771,0,0
-420,253,0,0,0,0,0,0,0,0,0,-1,804,771,0,0
-413,253,0,0,0,0,0,0,0,0,0,-1,811,771,0,0
-406,253,0,0,0,0,0,0,0,0,0,-1,818,771,0,0
-399,253,0,0,0,0,0,0,0,0,0,-1,825,771,0,0
-392,253,0,0,0,0,0,0,0,0,0,-1,832,771,0,0
-385,253,0,0,0,0,0,0,0,0,0,-1,839,771,0,0
-378,253,0,0,0,0,0,0,0,0,0,-1,846,771,0,0
-371,253,0,0,0,0,0,0,0,0,0,-1,853,771,0,0
-364,253,0,0,0,0,0,0,0,0,0,-1,860,771,0,0
-357,253,0,0,0,0,0,0,0,0,0,-1,867,771,0,0
-350,253,0,0,0,0,0,0,0,0,0,-1,874,771,0,0
-343,253,0,0,0,0,0,0,0,0,0,-1,881,771,0,0
-336,253,0,0,0,0,0,0,0,0,0,-1,888,771,0,0
-329,253,0,0,0,0,0,0,0,0,0,-1,895,771,0,0
-322,253,0,0,0,0,0,0,0,0,0,-1,902,771,0,0
-315,253,0,0,0,0,0,0,0,0,0,-1,909,771,0,0
-308,253,0,0,0,0,0,0,0,0,0,-1,916,771,0,0
-301,253,0,0,0,0,0,0,0,0,0,-1,923,771,0,0
-294,253,0,0,0,0,0,0,0,0,0,-1,930,771,0,0
-287,253,0,0,0,0,0,0,0,0,0,-1,937,771,0,0
-280,253,0,0,0,0,0,0,0,0,0,-1,944,771,0,0
-273,253,0,0,0,0,0,0,0,0,0,-1,951,771,0,0
-266,253,0,0,0,0,0,0,0,0,0,-1,958,771,0,0
-259,253,0,0,0,0,0,0,0,0,0,-1,965,771,0,0
-252,253,0,0,0,0,0,0,0,0,0,-1,972,771,0,0
-245,253,0,0,0,0,0,0,0,0,0,-1,979,771,0,0
-238,253,0,0,0,0,0,0,0,0,0,-1,986,771,0,0
-231,253,0,0,0,0,0,0,0,0,0,-1,993,771,0,0
-224,253,0,0,0,0,0,0,0,0,0,-1,1000,771,0,0
-217,253,0,0,0,0,0,0,0,0,0,-1,1007,771,0,0
-210,253,0,0,0,0,0,0,0,0,0,-1,1014,771,0,0
-203,253,0,0,0,0,0,0,0,0,0,-1,1021,771,0,0
-196,253,0,0,0,0,0,0,0,0,0,-1,1028,771,0,0
-189,253,0,0,0,0,0,0,0,0,0,-1,1035,771,0,0
-182,253,0,0,0,0,0,0,0,0,0,-1,1042,771,0,0
-175,253,0,0,0,0,0,0,0,0,0,-1,1049,771,0,0
-168,253,0,0,0,0,0,0,0,0,0,-1,1056,771,0,0
-161,253,0,0,0,0,0,0,0,0,0,-1,1063,771,0,0
-154,253,0,0,0,0,0,0,0,0,0,-1,1070,771,0,0
-147,253,0,0,0,0,0,0,0,0,0,-1,1077,771,0,0
-140,253,0,0,0,0,0,0,0,0,0,-1,1084,771,0,0
-133,253,0,0,0,0,0,0,0,0,0,-1,1091,771,0,0
-126,253,0,0,0,0,0,0,0,0,0,-1,1098,771,0,0
-119,253,0,0,0,0,0,0,0,0,0,-1,1105,771,0,0
-112,253,0,0,0,0,0,0,0,0,0,-1,1112,771,0,0
-105,253,0,0,0,0,0,0,0,0,0,-1,1119,771,0,0
-98,253,0,0,0,0,0,0,0,0,0,-1,1126,771,0,0
-91,253,0,0,0,0,0,0,0,0,0,-1,1133,771,0,0
-84,253,0,0,0,0,0,0,0,0,0,-1,1140,771,0,0
-77,253,0,0,0,0,0,0,0,0,0,-1,1147,771,0,0
-70,253,0,0,0,0,0,0,0,0,0,-1,1154,771,0,0
-63,253,0,0,0,0,0,0,0,0,0,-1,1161,771,0,0
-56,253,0,0,0,0,0,0,0,0,0,-1,1168,771,0,0
-49,253,0,0,0,0,0,0,0,0,0,-1,1175,771,0,0
-42,253,0,0,0,0,0,0,0,0,0,-1,1182,771,0,0
-35,253,0,0,0,0,0,0,0,0,0,-1,1189,771,0,0
-28,253,0,0,0,0,0,0,0,0,0,-1,1196,771,0,0
-21,253,0,0,0,0,0,0,0,0,0,-1,1203,771,0,0
-14,253,0,0,0,0,0,0,0,0,0,-1,1210,771,0,0
-7,253,0,0,0,0,0,0,0,0,0,-1,1217,771,0,0
0,253,0,0,0,0,0,0,0,0,0,-1,1224,771,0,0
7,253,0,0,0,0,0,0,0,0,0,-1,1231,771,0,0
14,253,0,0,0,0,0,0,0,0,0,-1,1238,771,0,0
21,253,0,0,0,0,0,0,0,0,0,-1,1245,771,0,0
28,253,0,0,0,0,0,0,0,0,0,-1,1252,771,0,0
35,253,0,0,0,0,0,0,0,0,0,-1,1259,771,0,0
42,253,0,0,0,0,0,0,0,0,0,-1,1266,771,0,0
49,253,0,0,0,0,0,0,0,0,0,-1,1273,771,0,0
56,253,0,0,0,0,0,0,0,0,0,-1,1280,771,0,0
63,253,0,0,0,0,0,0,0,0,0,-1,1287,771,0,0
70,253,0,0,0,0,0,0,0,0,0,-1,1294,771,0,0
77,253,0,0,0,0,0,0,0,0,0,-1,1301,771,0,0
84,253,0,0,0,0,0,0,0,0,0,-1,1308,771,0,0
91,253,0,0,0,0,0,0,0,0,0,-1,1315,771,0,0
98,253,0,0,0,0,0,0,0,0,0,-1,1322,771,0,0
105,253,0,0,0,0,0,0,0,0,0,-1,1329,771,0,0
112,253,0,0,0,0,0,0,0,0,0,-1,1336,771,0,0
119,253,0,0,0,0,0,0,0,0,0,-1,1343,771,0,0
126,253,0,0,0,0,0,0,0,0,0,-1,1350,771,0,0
133,253,0,0,0,0,0,0,0,0,0,-1,1357,771,0,0
140,253,0,0,0,0,0,0,0,0,0,-1,1364,771,0,0
147,253,0,0,0,0,0,0,0,0,0,-1,1371,771,0,0
154,253,0,0,0,0,0,0,0,0,0,-1,1378,771,0,0
161,253,0,0,0,0,0,0,0,0,0,-1,1385,771,0,0
168,253,0,0,0,0,0,0,0,0,0,-1,1392,771,0,0
175,253,0,0,0,0,0,0,0,0,0,-1,1399,771,0,0
182,253,0,0,0,0,0,0,0,0,0,-1,1406,771,0,0
189,253,0,0,0,0,0,0,0,0,0,-1,1413,771,0,0
196,253,0,0,0,0,0,0,0,0,0,-1,1420,771,0,0
203,253,0,0,0,0,0,0,0,0,0,-1,1427,771,0,0
210,253,0,0,0,0,0,0,0,0,0,-1,1434,771,0,0
217,253,0,0,0,0,0,0,0,0,0,-1,1441,771,0,0
224,253,0,0,0,0,0,0,0,0,0,-1,1448,771,0,0
231,253,0,0,0,0,0,0,0,0,0,-1,1455,771,0,0
238,253,0,0,0,0,0,0,0,0,0,-1,1462,771,0,0
245,253,0,0,0,0,0,0,0,0,0,-1,1469,771,0,0
252,253,0,0,0,0,0,0,0,0,0,-1,1476,771,0,0
259,253,0,0,0,0,0,0,0,0,0,-1,1483,771,0,0
266,253,0,0,0,0,0,0,0,0,0,-1,1490,771,0,0
273,253,0,0,0,0,0,0,0,0,0,-1,1497,771,0,0
280,253,0,0,0,0,0,0,0,0,0,-1,1504,771,0,0
287,253,0,0,0,0,0,0,0,0,0,-1,1511,771,0,0
294,253,0,0,0,0,0,0,0,0,0,-1,1518,771,0,0
301,253,0,0,0,0,0,0,0,0,0,-1,1525,771,0,0
308,253,0,0,0,0,0,0,0,0,0,-1,1532,771,0,0
315,253,0,0,0,0,0,0,0,0,0,-1,1539,771,0,0
322,253,0,0,0,0,0,0,0,0,0,-1,1546,771,0,0
329,253,0,0,0,0,0,0,0,0,0,-1,1553,771,0,0
336,253,0,0,0,0,0,0,0,0,0,-1,1560,771,0,0
343,253,0,0,0,0,0,0,0,0,0,-1,1567,771,0,0
350,253,0,0,0,0,0,0,0,0,0,-1,1574,771,0,0
357,253,0,0,0,0,0,0,0,0,0,-1,1581,771,0,0
364,253,0,0,0,0,0,0,0,0,0,-1,1588,771,0,0
371,253,0,0,0,0,0,0,0,0,0,-1,1595,771,0,0
378,253,0,0,0,0,0,0,0,0,0,-1,1602,771,0,0
385,253,0,0,0,0,0,0,0,0,0,-1,1609,771,0,0
392,253,0,0,0,0,0,0,0,0,0,-1,1616,771,0,0
399,253,0,0,0,0,0,0,0,0,0,-1,1623,771,0,0
406,253,0,0,0,0,0,0,0,0,0,-1,1630,771,0,0
413,253,0,0,0,0,0,0,0,0,0,-1,1637,771,0,0
420,253,0,0,0,0,0,0,0,0,0,-1,1644,771,0,0
427,253,0,0,0,0,0,0,0,0,0,-1,1651,771,0,0
434,253,0,0,0,0,0,0,0,0,0,-1,1658,771,0,0
441,253,0,0,0,0,0,0,0,0,0,-1,1665,771,0,0
448,253,0,0,0,0,0,0,0,0,0,-1,1672,771,0,0
455,253,0,0,0,0,0,0,0,0,0,-1,1679,771,0,0
462,253,0,0,0,0,0,0,0,0,0,-1,1686,771,0,0
469,253,0,0,0,0,0,0,0,0,0,-1,1693,771,0,0
476,253,0,0,0,0,0,0,0,0,0,-1,1700,771,0,0
483,253,0,0,0,0,0,0,0,0,0,-1,1707,771,0,0
490,253,0,0,0,0,0,0,0,0,0,-1,1714,771,0,0
497,253,0,0,0,0,0,0,0,0,0,-1,1721,771,0,0
504,253,0,0,0,0,0,0,0,0,0,-1,1728,771,0,0
511,253,0,0,0,0,0,0,0,0,0,-1,1735,771,0,0
518,253,0,0,0,0,0,0,0,0,0,-1,1742,771,0,0
525,253,0,0,0,0,0,0,0,0,0,-1,1749,771,0,0
532,253,0,0,0,0,0,0,0,0,0,-1,1756,771,0,0
539,253,0,0,0,0,0,0,0,0,0,-1,1763,771,0,0
546,253,0,0,0,0,0,0,0,0,0,-1,1770,771,0,0
553,253,0,0,0,0,0,0,0,0,0,-1,1777,771,0,0
560,253,0,0,0,0,0,0,0,0,0,-1,1784,771,0,0
567,253,0,0,0,0,0,0,0,0,0,-1,1791,771,0,0
574,253,-0.201782,0.103149,0.0107688,-0.000342084,-0.00527238,0.0128724,-0.00244568,-0.379631,0.00950232,0.036703,1798,771,-0.20176,-0.103128
581,253,-0.158203,0.111267,0.0102927,0.00200231,-0.00290586,0.0112098,0.00108523,-0.305704,0.00713902,0.0390177,1805,771,-0.158209,-0.111248
588,253,-0.017334,0.0266724,0.0089475,0.00242686,-0.00157395,0.00930754,0.00206682,-0.224881,0.00564368,0.0431563,1812,771,-0.0173944,-0.0266959
595,253,0.248169,-0.163269,0.00734471,0.00177661,-0.00076518,0.00744795,0.00167337,-0.134111,0.00451215,0.0434153,1819,771,0.248152,0.163287
602,253,0.365967,-0.163696,0.00558487,0.000984954,-0.000264484,0.00560003,0.000969797,-0.057246,0.00345575,0.0432041,1826,771,0.365983,0.163669
609,253,0.474731,-0.109619,0.00397344,-4.79848e-05,-1.87134e-05,0.00397353,-4.80721e-05,-0.00465328,0.00266519,0.0423618,1833,771,0.474731,0.109617
616,253,0.495239,0.0982056,0,0,0,0,0,0,0,-1,1840,771,0.495224,-0.0981981
623,253,-0.0314941,0.790527,0.00180583,-0.00170885,-0.000192844,0.00181638,-0.0017194,-0.0546493,0.00204164,0.0431172,1847,771,-0.031473,-0.790542
630,253,-0.163086,0.778442,0.000800478,-0.00246241,-0.000270989,0.000822831,-0.00248476,-0.0823007,0.00198837,0.0483971,1854,771,-0.163077,-0.778431
637,253,-0.289795,0.434265,3.70284e-05,-0.00277981,-0.000248975,5.88655e-05,-0.00280165,-0.0874841,0.00188769,0.0438596,1861,771,-0.289836,-0.434253
644,253,-0.108521,0.0597534,-0.00039709,-0.00287227,-0.000300439,-0.000361145,-0.00290822,-0.119077,0.00183035,0.0356863,1868,771,-0.10853,-0.0597432
651,253,-0.0145264,0.0165405,-0.000584242,-0.00262264,-0.000560912,-0.000440089,-0.00276679,-0.251554,0.00171674,0.0200054,1875,771,-0.0145304,-0.0165245
658,253,-0.00952148,0.0689697,-0.00064388,-0.00227772,-0.000584062,-0.000456566,-0.00246503,-0.310347,0.00151429,0.0160532,1882,771,-0.00952345,-0.0689778
665,253,-0.0808105,0.0506592,-0.000815915,-0.00155992,-0.000410952,-0.000633601,-0.00174223,-0.417552,0.00101827,0.0176022,1889,771,-0.0808153,-0.0506866
672,253,-0.0627441,0.0324097,-0.000415041,-0.000754245,-0.000283878,-0.00025396,-0.000915327,-0.516128,0.000545635,0.0141086,1896,771,-0.0627607,-0.0324023
679,253,-0.0284424,0.0588989,0.000161364,0.000283518,6.93638e-05,0.000314862,0.000130019,1.14637,0.000182702,0.0114093,1903,771,-0.0284127,-0.0589054
686,253,-0.0141602,0.0596924,0.00198414,0.00134161,-0.000297912,0.00210101,0.00122474,-0.373849,0.00121857,0.0138869,1910,771,-0.0141994,-0.0596903
693,253,-0.020874,0.0588379,0.00416843,0.00327869,-0.000968699,0.00478953,0.00265759,-0.57014,0.00277078,0.0137395,1917,771,-0.0209084,-0.0588496
700,253,-0.0352783,0.0438843,0.00669068,0.00520096,-0.00165669,0.00776226,0.00412939,-0.574134,0.0044846,0.0122458,1924,771,-0.035328,-0.0438693
707,253,-0.0510254,0.038147,0.0103004,0.00851058,-0.00388251,0.0133898,0.00542115,-0.67213,0.00777709,0.0126525,1931,771,-0.0509694,-0.0381477
714,253,-0.0107422,0.0430298,0.0154875,0.0115849,-0.00689462,0.0207016,0.00637074,-0.647494,0.0122431,0.0170615,1938,771,-0.0107805,-0.0430196
721,253,0.242554,-0.150635,0,0,0,0,0,0,0,-1,1945,771,0.242611,0.150643
728,253,0.0616455,-0.396057,0,0,0,0,0,0,0,-1,1952,771,0.0617013,0.396079
735,253,-0.13855,-0.644775,0.0380122,0.0285047,-0.0218996,0.0556681,0.0108488,-0.678521,0.0340764,0.0455302,1959,771,-0.138589,0.644775
742,253,1.13843,-1.96484,0.0481031,0.0372635,-0.0302077,0.0733733,0.0119933,-0.696634,0.0454484,0.0444625,1966,771,1.1384,1.96483
749,253,1.1604,-2.55811,0.0592539,0.0479949,-0.0408109,0.0948217,0.0124271,-0.71686,0.0595063,0.048463,1973,771,1.1604,2.5581
756,253,0,0,0,0,0,0,0,0,0,-1,1980,771,0,0
763,253,0,0,0,0,0,0,0,0,0,-1,1987,771,0,0
770,253,0,0,0,0,0,0,0,0,0,-1,1994,771,0,0
777,253,0,0,0,0,0,0,0,0,0,-1,2001,771,0,0
784,253,0,0,0,0,0,0,0,0,0,-1,2008,771,0,0
791,253,0,0,0,0,0,0,0,0,0,-1,2015,771,0,0
798,253,0,0,0,0,0,0,0,0,0,-1,2022,771,0,0
805,253,0,0,0,0,0,0,0,0,0,-1,2029,771,0,0
812,253,0,0,0,0,0,0,0,0,0,-1,2036,771,0,0
-700,246,0,0,0,0,0,0,0,0,0,-1,524,778,0,0
-693,246,0,0,0,0,0,0,0,0,0,-1,531,778,0,0
-686,246,0,0,0,0,0,0,0,0,0,-1,538,778,0,0
-679,246,0,0,0,0,0,0,0,0,0,-1,545,778,0,0
-672,246,0,0,0,0,0,0,0,0,0,-1,552,778,0,0
-665,246,0,0,0,0,0,0,0,0,0,-1,559,778,0,0
-658,246,0,0,0,0,0,0,0,0,0,-1,566,778,0,0
-651,246,0,0,0,0,0,0,0,0,0,-1,573,778,0,0
-644,246,0,0,0,0,0,0,0,0,0,-1,580,778,0,0
-637,246,-0.124451,-0.565979,0.0205758,-0.0275961,0.0297998,0.0348064,-0.0418267,0.44552,0.044306,0.049201,587,778,-0.124472,0.565962
-630,246,0.211792,-0.557068,0.0115556,-0.021478,0.0253607,0.0253038,-0.0352262,0.496763,0.0351032,0.0484111,594,778,0.21177,0.557076
-623,246,0.430115,-0.198608,0.00568419,-0.0159823,0.0204284,0.0179741,-0.0282722,0.541601,0.0269201,0.0472257,601,778,0.430128,0.198579
-616,246,0.395081,-0.110718,0.00197198,-0.0112962,0.0155885,0.0122793,-0.0216035,0.584218,0.0198076,0.0422527,608,778,0.395079,0.110722
-609,246,0.449585,-0.0578613,-9.23166e-05,-0.00747456,0.0112253,0.00803316,-0.0156,0.626556,0.0138758,0.0417163,615,778,0.449556,0.0578722
-602,246,0.103271,-0.0427246,-0.000976606,-0.00451803,0.00753092,0.00498897,-0.0104836,0.669932,0.00911892,0.041689,622,778,0.103269,0.0427446
-595,246,-0.115784,0.15094,-0.00132485,-0.00231496,0.00469211,0.00289825,-0.00653806,0.732839,0.00558152,0.038163,629,778,-0.115764,-0.150931
-588,246,-0.0491333,0.0892334,-0.00114041,-0.00091505,0.00243715,0.00141202,-0.00346748,0.808499,0.0028993,0.024412,636,778,-0.0491076,-0.089241
-581,246,-0.0244141,0.0629272,-0.000662454,0.000184384,0.000983355,0.000831605,-0.00130968,0.988694,0.0012465,0.0125791,643,778,-0.0244098,-0.062918
-574,246,-0.0266113,0.0345459,-0.000343845,0.000859727,-0.000364787,0.000961657,-0.000445774,-1.29832,0.000830577,0.0156005,650,778,-0.0266288,-0.0345286
-567,246,-0.0177612,0.0204468,-2.46159e-05,0.00104914,-0.000992871,0.00164099,-0.000616468,-1.03325,0.00134734,0.0144359,657,778,-0.0177668,-0.0204685
-560,246,-0.0211792,0.0223999,0.00045262,0.00079972,-0.000795978,0.00144085,-0.000188508,-0.892735,0.00102917,0.0114405,664,778,-0.0211552,-0.0223979
-553,246,-0.0106201,0.0442505,0.00119524,0.000169333,-0.00023233,0.0012454,0.000119172,-0.212641,0.000793534,0.0116453,671,778,-0.0106055,-0.044251
-546,246,-0.00201416,0.0684814,0.00118285,-0.000766074,0.000590009,0.00134754,-0.000930773,0.272217,0.0013227,0.00920437,678,778,-0.00203506,-0.0685044
-539,246,-0.00921631,0.0731201,0.000464217,-0.00162852,0.0012811,0.00107197,-0.00223627,0.442955,0.00194904,0.00887544,685,778,-0.00919301,-0.0731175
-532,246,-0.0315552,0.0617065,-0.000158439,-0.00260574,0.00185786,0.000842538,-0.00360672,0.494188,0.00272903,0.0103095,692,778,-0.0315856,-0.0617048
-525,246,-0.0255737,0.0625,-3.24444e-05,-0.00343708,0.00246979,0.00126487,-0.00473439,0.483659,0.00365165,0.0115894,699,778,-0.0255464,-0.0625123
-518,246,-0.0344238,0.0717163,0.00023844,-0.00368338,0.00311209,0.00195588,-0.00540082,0.504271,0.00439988,0.0174323,706,778,-0.0344218,-0.0717183
-511,246,-0.06073,0.158447,0.000207386,-0.00423379,0.0033302,0.00198946,-0.00601586,0.49135,0.0048128,0.0366659,713,778,-0.060753,-0.158425
-504,246,-0.111267,0.438477,0.000265555,-0.00465521,0.00338244,0.0019878,-0.00637745,0.470959,0.00504646,0.0414052,720,778,-0.111286,-0.438498
-497,246,-0.115845,0.503845,0.000416025,-0.00467377,0.00322571,0.00197986,-0.00623761,0.451417,0.00495209,0.0426487,727,778,-0.115875,-0.503871
-490,246,-0.0045166,0.456787,0.000500748,-0.00418076,0.00275214,0.00177294,-0.00545295,0.433,0.00434848,0.0477248,734,778,-0.00451184,-0.456762
-483,246,-0.80188,0.320801,0,0,0,0,0,0,0,-1,741,778,-0.80191,-0.320813
-476,246,0.0427246,0.210205,0.000222935,-0.00152777,0.000628116,0.000424974,-0.00172981,0.311206,0.00131791,0.0461325,748,778,0.0427461,-0.21019
-469,246,0.309021,0.361084,-0.00077246,0.00102588,-0.00144822,0.00183136,-0.00157794,-1.06321,0.00197017,0.0410611,755,778,0.309037,-0.361076
-462,246,0.129578,0.251099,-0.00322939,0.00413758,-0.00412998,0.00598807,-0.00507988,-1.14956,0.00639725,0.0464366,762,778,0.129604,-0.251124
-455,246,0,0,0,0,0,0,0,0,0,-1,769,778,0,0
-448,246,0,0,0,0,0,0,0,0,0,-1,776,778,0,0
-441,246,0,0,0,0,0,0,0,0,0,-1,783,778,0,0
-434,246,0,0,0,0,0,0,0,0,0,-1,790,778,0,0
-427,246,0,0,0,0,0,0,0,0,0,-1,797,778,0,0
-420,246,0,0,0,0,0,0,0,0,0,-1,804,778,0,0
-413,246,0,0,0,0,0,0,0,0,0,-1,811,778,0,0
-406,246,0,0,0,0,0,0,0,0,0,-1,818,778,0,0
-399,246,0,0,0,0,0,0,0,0,0,-1,825,778,0,0
-392,246,0,0,0,0,0,0,0,0,0,-1,832,778,0,0
-385,246,0,0,0,0,0,0,0,0,0,-1,839,778,0,0
-378,246,0,0,0,0,0,0,0,0,0,-1,846,778,0,0
-371,246,0,0,0,0,0,0,0,0,0,-1,853,778,0,0
-364,246,0,0,0,0,0,0,0,0,0,-1,860,778,0,0
-357,246,0,0,0,0,0,0,0,0,0,-1,867,778,0,0
-350,246,0,0,0,0,0,0,0,0,0,-1,874,778,0,0
-343,246,0,0,0,0,0,0,0,0,0,-1,881,778,0,0
-336,246,0,0,0,0,0,0,0,0,0,-1,888,778,0,0
-329,246,0,0,0,0,0,0,0,0,0,-1,895,778,0,0
-322,246,0,0,0,0,0,0,0,0,0,-1,902,778,0,0
-315,246,0,0,0,0,0,0,0,0,0,-1,909,778,0,0
-308,246,0,0,0,0,0,0,0,0,0,-1,916,778,0,0
-301,246,0,0,0,0,0,0,0,0,0,-1,923,778,0,0
-294,246,0,0,0,0,0,0,0,0,0,-1,930,778,0,0
-287,246,0,0,0,0,0,0,0,0,0,-1,937,778,0,0
-280,246,0,0,0,0,0,0,0,0,0,-1,944,778,0,0
-273,246,0,0,0,0,0,0,0,0,0,-1,951,778,0,0
-266,246,0,0,0,0,0,0,0,0,0,-1,958,778,0,0
-259,246,0,0,0,0,0,0,0,0,0,-1,965,778,0,0
-252,246,0,0,0,0,0,0,0,0,0,-1,972,778,0,0
-245,246,0,0,0,0,0,0,0,0,0,-1,979,778,0,0
-238,246,0,0,0,0,0,0,0,0,0,-1,986,778,0,0
-231,246,0,0,0,0,0,0,0,0,0,-1,993,778,0,0
-224,246,0,0,0,0,0,0,0,0,0,-1,1000,778,0,0
-217,246,0,0,0,0,0,0,0,0,0,-1,1007,778,0,0
-210,246,0,0,0,0,0,0,0,0,0,-1,1014,778,0,0
-203,246,0,0,0,0,0,0,0,0,0,-1,1021,778,0,0
-196,246,0,0,0,0,0,0,0,0,0,-1,1028,778,0,0
-189,246,0,0,0,0,0,0,0,0,0,-1,1035,778,0,0
-182,246,0,0,0,0,0,0,0,0,0,-1,1042,778,0,0
-175,246,0,0,0,0,0,0,0,0,0,-1,1049,778,0,0
-168,246,0,0,0,0,0,0,0,0,0,-1,1056,778,0,0
-161,246,0,0,0,0,0,0,0,0,0,-1,1063,778,0,0
-154,246,0,0,0,0,0,0,0,0,0,-1,1070,778,0,0
-147,246,0,0,0,0,0,0,0,0,0,-1,1077,778,0,0
-140,246,0,0,0,0,0,0,0,0,0,-1,1084,778,0,0
-133,246,0,0,0,0,0,0,0,0,0,-1,1091,778,0,0
-126,246,0,0,0,0,0,0,0,0,0,-1,1098,778,0,0
-119,246,0,0,0,0,0,0,0,0,0,-1,1105,778,0,0
-112,246,0,0,0,0,0,0,0,0,0,-1,1112,778,0,0
-105,246,0,0,0,0,0,0,0,0,0,-1,1119,778,0,0
-98,246,0,0,0,0,0,0,0,0,0,-1,1126,778,0,0
-91,246,0,0,0,0,0,0,0,0,0,-1,1133,778,0,0
-84,246,0,0,0,0,0,0,0,0,0,-1,1140,778,0,0
-77,246,0,0,0,0,0,0,0,0,0,-1,1147,778,0,0
-70,246,0,0,0,0,0,0,0,0,0,-1,1154,778,0,0
-63,246,0,0,0,0,0,0,0,0,0,-1,1161,778,0,0
-56,246,0,0,0,0,0,0,0,0,0,-1,1168,778,0,0
-49,246,0,0,0,0,0,0,0,0,0,-1,1175,778,0,0
-42,246,0,0,0,0,0,0,0,0,0,-1,1182,778,0,0
-35,246,0,0,0,0,0,0,0,0,0,-1,1189,778,0,0
-28,246,0,0,0,0,0,0,0,0,0,-1,1196,778,0,0
-21,246,0,0,0,0,0,0,0,0,0,-1,1203,778,0,0
-14,246,0,0,0,0,0,0,0,0,0,-1,1210,778,0,0
-7,246,0,0,0,0,0,0,0,0,0,-1,1217,778,0,0
0,246,0,0,0,0,0,0,0,0,0,-1,1224,778,0,0
7,246,0,0,0,0,0,0,0,0,0,-1,1231,778,0,0
14,246,0,0,0,0,0,0,0,0,0,-1,1238,778,0,0
21,246,0,0,0,0,0,0,0,0,0,-1,1245,778,0,0
28,246,0,0,0,0,0,0,0,0,0,-1,1252,778,0,0
35,246,0,0,0,0,0,0,0,0,0,-1,1259,778,0,0
42,246,0,0,0,0,0,0,0,0,0,-1,1266,778,0,0
49,246,0,0,0,0,0,0,0,0,0,-1,1273,778,0,0
56,246,0,0,0,0,0,0,0,0,0,-1,1280,778,0,0
63,246,0,0,0,0,0,0,0,0,0,-1,1287,778,0,0
70,246,0,0,0,0,0,0,0,0,0,-1,1294,778,0,0
77,246,0,0,0,0,0,0,0,0,0,-1,1301,778,0,0
84,246,0,0,0,0,0,0,0,0,0,-1,1308,778,0,0
91,246,0,0,0,0,0,0,0,0,0,-1,1315,778,0,0
98,246,0,0,0,0,0,0,0,0,0,-1,1322,778,0,0
105,246,0,0,0,0,0,0,0,0,0,-1,1329,778,0,0
112,246,0,0,0,0,0,0,0,0,0,-1,1336,778,0,0
119,246,0,0,0,0,0,0,0,0,0,-1,1343,778,0,0
126,246,0,0,0,0,0,0,0,0,0,-1,1350,778,0,0
133,246,0,0,0,0,0,0,0,0,0,-1,1357,778,0,0
140,246,0,0,0,0,0,0,0,0,0,-1,1364,778,0,0
147,246,0,0,0,0,0,0,0,0,0,-1,1371,778,0,0
154,246,0,0,0,0,0,0,0,0,0,-1,1378,778,0,0
161,246,0,0,0,0,0,0,0,0,0,-1,1385,778,0,0
168,246,0,0,0,0,0,0,0,0,0,-1,1392,778,0,0
175,246,0,0,0,0,0,0,0,0,0,-1,1399,778,0,0
182,246,0,0,0,0,0,0,0,0,0,-1,1406,778,0,0
189,246,0,0,0,0,0,0,0,0,0,-1,1413,778,0,0
196,246,0,0,0,0,0,0,0,0,0,-1,1420,778,0,0
203,246,0,0,0,0,0,0,0,0,0,-1,1427,778,0,0
210,246,0,0,0,0,0,0,0,0,0,-1,1434,778,0,0
217,246,0,0,0,0,0,0,0,0,0,-1,1441,778,0,0
224,246,0,0,0,0,0,0,0,0,0,-1,1448,778,0,0
231,246,0,0,0,0,0,0,0,0,0,-1,1455,778,0,0
238,246,0,0,0,0,0,0,0,0,0,-1,1462,778,0,0
245,246,0,0,0,0,0,0,0,0,0,-1,1469,778,0,0
252,246,0,0,0,0,0,0,0,0,0,-1,1476,778,0,0
259,246,0,0,0,0,0,0,0,0,0,-1,1483,778,0,0
266,246,0,0,0,0,0,0,0,0,0,-1,1490,778,0,0
273,246,0,0,0,0,0,0,0,0,0,-1,1497,778,0,0
280,246,0,0,0,0,0,0,0,0,0,-1,1504,778,0,0
287,246,0,0,0,0,0,0,0,0,0,-1,1511,778,0,0
294,246,0,0,0,0,0,0,0,0,0,-1,1518,778,0,0
301,246,0,0,0,0,0,0,0,0,0,-1,1525,778,0,0
308,246,0,0,0,0,0,0,0,0,0,-1,1532,778,0,0
315,246,0,0,0,0,0,0,0,0,0,-1,1539,778,0,0
322,246,0,0,0,0,0,0,0,0,0,-1,1546,778,0,0
329,246,0,0,0,0,0,0,0,0,0,-1,1553,778,0,0
336,246,0,0,0,0,0,0,0,0,0,-1,1560,778,0,0
343,246,0,0,0,0,0,0,0,0,0,-1,1567,778,0,0
350,246,0,0,0,0,0,0,0,0,0,-1,1574,778,0,0
357,246,0,0,0,0,0,0,0,0,0,-1,1581,778,0,0
364,246,0,0,0,0,0,0,0,0,0,-1,1588,778,0,0
371,246,0,0,0,0,0,0,0,0,0,-1,1595,778,0,0
378,246,0,0,0,0,0,0,0,0,0,-1,1602,778,0,0
385,246,0,0,0,0,0,0,0,0,0,-1,1609,778,0,0
392,246,0,0,0,0,0,0,0,0,0,-1,1616,778,0,0
399,246,0,0,0,0,0,0,0,0,0,-1,1623,778,0,0
406,246,0,0,0,0,0,0,0,0,0,-1,1630,778,0,0
413,246,0,0,0,0,0,0,0,0,0,-1,1637,778,0,0
420,246,0,0,0,0,0,0,0,0,0,-1,1644,778,0,0
427,246,0,0,0,0,0,0,0,0,0,-1,1651,778,0,0
434,246,0,0,0,0,0,0,0,0,0,-1,1658,778,0,0
441,246,0,0,0,0,0,0,0,0,0,-1,1665,778,0,0
448,246,0,0,0,0,0,0,0,0,0,-1,1672,778,0,0
455,246,0,0,0,0,0,0,0,0,0,-1,1679,778,0,0
462,246,0,0,0,0,0,0,0,0,0,-1,1686,778,0,0
469,246,0,0,0,0,0,0,0,0,0,-1,1693,778,0,0
476,246,0,0,0,0,0,0,0,0,0,-1,1700,778,0,0
483,246,0,0,0,0,0,0,0,0,0,-1,1707,778,0,0
490,246,0,0,0,0,0,0,0,0,0,-1,1714,778,0,0
497,246,0,0,0,0,0,0,0,0,0,-1,1721,778,0,0
504,246,0,0,0,0,0,0,0,0,0,-1,1728,778,0,0
511,246,0,0,0,0,0,0,0,0,0,-1,1735,778,0,0
518,246,0,0,0,0,0,0,0,0,0,-1,1742,778,0,0
525,246,0,0,0,0,0,0,0,0,0,-1,1749,778,0,0
532,246,0,0,0,0,0,0,0,0,0,-1,1756,778,0,0
539,246,0,0,0,0,0,0,0,0,0,-1,1763,778,0,0
546,246,0,0,0,0,0,0,0,0,0,-1,1770,778,0,0
553,246,0,0,0,0,0,0,0,0,0,-1,1777,778,0,0
560,246,0,0,0,0,0,0,0,0,0,-1,1784,778,0,0
567,246,0,0,0,0,0,0,0,0,0,-1,1791,778,0,0
574,246,0,0,0,0,0,0,0,0,0,-1,1798,778,0,0
581,246,-0.147095,0.141296,0.00946304,0.00265677,-0.00240426,0.0102266,0.00189316,-0.307532,0.00628252,0.0358853,1805,778,-0.147064,-0.141295
588,246,-0.0830078,0.0554199,0.00843353,0.00271318,-0.00103609,0.00861541,0.0025313,-0.173772,0.00511314,0.0404193,1812,778,-0.0829698,-0.0554223
595,246,0.149536,-0.0990601,0.0070377,0.00169975,-0.000276042,0.00705193,0.00168552,-0.0515299,0.0042523,0.0398651,1819,778,0.149515,0.0990341
602,246,0.140381,-0.0167236,0.00543754,0.000635185,0.000126623,0.00544087,0.000631848,0.0263425,0.00343605,0.0400738,1826,778,0.140407,0.0167491
609,246,0.209351,0.122253,0.00391997,-0.00049192,0.000275705,0.00393713,-0.000509083,0.062169,0.00280986,0.0440022,1833,778,0.20934,-0.12224
616,246,0.417847,-0.171326,0.00278289,-0.00149779,0.000205546,0.00279274,-0.00150764,0.0478704,0.00251951,0.0449511,1840,778,0.417876,0.171296
623,246,-0.120239,0.649963,0.00178145,-0.00210608,4.99325e-05,0.00178209,-0.00210672,0.0128414,0.00224781,0.0408495,1847,778,-0.120188,-0.649935
630,246,-0.362183,0.854309,0,0,0,0,0,0,0,-1,1854,778,-0.362197,-0.85433
637,246,-0.167725,-0.000915527,0,0,0,0,0,0,0,-1,1861,778,-0.16775,0.000903562
644,246,-0.0792236,0.0377808,-0.000311432,-0.00303651,-0.000182801,-0.000299225,-0.00304872,-0.0666828,0.00194045,0.0421411,1868,778,-0.0791971,-0.0377917
651,246,-0.0150146,0.0515137,-0.000524802,-0.00277813,-0.000433655,-0.000444226,-0.0028587,-0.183712,0.00177634,0.0265978,1875,778,-0.0150289,-0.0515231
658,246,-0.0196533,0.0632324,-0.000589377,-0.00245482,-0.000497141,-0.000465161,-0.00257904,-0.244849,0.00158719,0.0169717,1882,778,-0.0196236,-0.0632237
665,246,-0.0693359,0.05896,-0.000734179,-0.00180679,-0.000396161,-0.000603726,-0.00193724,-0.31811,0.00114462,0.0179555,1889,778,-0.0693896,-0.0589427
672,246,-0.0657959,0.0656738,-0.000385392,-0.00106646,-0.000335529,-0.000247864,-0.00120399,-0.388997,0.000734122,0.0177245,1896,778,-0.0657781,-0.0656761
679,246,-0.0548096,0.0510254,0.000137025,-0.000204122,-6.55902e-05,0.000149201,-0.000216298,-0.183548,0.000212203,0.0179642,1903,778,-0.0548061,-0.0510538
686,246,-0.0148926,0.0574951,0.00186874,0.000696678,-0.000500872,0.00205362,0.000511798,-0.353603,0.00123437,0.0193152,1910,778,-0.0149501,-0.0574812
693,246,-0.0217285,0.0693359,0.00391762,0.00231257,-0.00115539,0.00452185,0.00170833,-0.481854,0.00263656,0.0153225,1917,778,-0.0217715,-0.0693439
700,246,-0.0296631,0.0526123,0.00625024,0.0037226,-0.0017546,0.0071488,0.00282404,-0.473291,0.00415757,0.0124975,1924,778,-0.0296303,-0.05261
707,246,-0.0305176,0.0422974,0.00951337,0.00647948,-0.00393254,0.0122114,0.00378145,-0.601321,0.00721852,0.011868,1931,778,-0.030511,-0.0422949
714,246,-0.0244141,0.0523071,0.0141907,0.00867013,-0.00676063,0.0187328,0.004128,-0.591582,0.0113653,0.0114737,1938,778,-0.0244417,-0.0522854
721,246,-0.0125732,0.0719604,0.0195963,0.0114761,-0.0098612,0.0262005,0.0048719,-0.590112,0.0160908,0.0144972,1945,778,-0.0125728,-0.0719562
728,246,-0.074585,-0.126709,0,0,0,0,0,0,0,-1,1952,778,-0.0745527,0.126703
735,246,0.371704,0.500916,0.0338059,0.0201881,-0.0198087,0.0479432,0.0060508,-0.619858,0.0301483,0.0418796,1959,778,0.371751,-0.500892
742,246,1.74768,-3.17365,0.0423997,0.0259773,-0.0269006,0.0623144,0.00606259,-0.637269,0.0396768,0.0429528,1966,778,1.74763,3.17365
749,246,2.21594,-3.40796,0.0517611,0.0328038,-0.035786,0.0793025,0.00526246,-0.655936,0.0512044,0.044486,1973,778,2.21598,3.40794
756,246,2.36157,-3.30615,0,0,0,0,0,0,0,-1,1980,778,2.3616,3.30613
763,246,0,0,0,0,0,0,0,0,0,-1,1987,778,0,0
770,246,0,0,0,0,0,0,0,0,0,-1,1994,778,0,0
777,246,0,0,0,0,0,0,0,0,0,-1,2001,778,0,0
784,246,0,0,0,0,0,0,0,0,0,-1,2008,778,0,0
791,246,0,0,0,0,0,0,0,0,0,-1,2015,778,0,0
798,246,0,0,0,0,0,0,0,0,0,-1,2022,778,0,0
805,246,0,0,0,0,0,0,0,0,0,-1,2029,778,0,0
812,246,0,0,0,0,0,0,0,0,0,-1,2036,778,0,0
-700,239,0,0,0,0,0,0,0,0,0,-1,524,785,0,0
-693,239,0,0,0,0,0,0,0,0,0,-1,531,785,0,0
-686,239,0,0,0,0,0,0,0,0,0,-1,538,785,0,0
-679,239,0,0,0,0,0,0,0,0,0,-1,545,785,0,0
-672,239,0,0,0,0,0,0,0,0,0,-1,552,785,0,0
-665,239,0,0,0,0,0,0,0,0,0,-1,559,785,0,0
-658,239,0,0,0,0,0,0,0,0,0,-1,566,785,0,0
-651,239,0,0,0,0,0,0,0,0,0,-1,573,785,0,0
-644,239,0,0,0,0,0,0,0,0,0,-1,580,785,0,0
-637,239,-0.0756836,-0.337585,0.0213607,-0.026716,0.0278038,0.0340769,-0.0394322,0.428952,0.042478,0.0458326,587,785,-0.0756855,0.337557
-630,239,-0.0245972,-0.270996,0.0128849,-0.0214081,0.0237586,0.0250382,-0.0335614,0.472828,0.0339515,0.0445578,594,785,-0.0245852,0.271018
-623,239,0.0744629,0.0693359,0.0070215,-0.0165679,0.0192785,0.0178272,-0.0273736,0.510871,0.02629,0.0436294,601,785,0.074443,-0.0693292
-616,239,0.192505,0.149109,0.00307295,-0.0123616,0.0148687,0.0121078,-0.0213964,0.546021,0.0195899,0.04364,608,785,0.19249,-0.149119
-609,239,0.478577,0.130981,0.00066354,-0.00884967,0.0108655,0.00776795,-0.0159541,0.579078,0.0139651,0.0429509,615,785,0.478563,-0.130998
-602,239,0.279053,0.202759,-0.000581027,-0.00603733,0.00745707,0.00463127,-0.0112496,0.610037,0.00943051,0.0442107,622,785,0.279029,-0.202775
-595,239,-0.0869141,0.194214,-0.00126049,-0.00380929,0.00483764,0.00246779,-0.00753758,0.656607,0.00601872,0.0365626,629,785,-0.0869212,-0.194226
-588,239,-0.0401001,0.0844727,-0.00136499,-0.00227136,0.00268485,0.000904654,-0.004541,0.70179,0.00336961,0.0159188,636,785,-0.0401058,-0.0844643
-581,239,-0.0169067,0.0544434,-0.00103416,-0.000902386,0.00127072,0.00030416,-0.0022407,0.811299,0.00160482,0.00951479,643,785,-0.0169322,-0.0544532
-574,239,-0.0213623,0.0380249,-0.000755924,3.78668e-05,-6.71988e-05,4.35153e-05,-0.000761573,-1.48694,0.000522824,0.0109671,650,785,-0.0213379,-0.0380425
-567,239,-0.0457153,0.0282593,-0.000488801,0.000499778,-0.00074615,0.000900509,-0.000889532,-1.07794,0.00103349,0.0115282,657,785,-0.045733,-0.0282664
-560,239,-0.0354004,0.0336304,1.69029e-05,0.000465764,-0.000564706,0.000849003,-0.000366335,-0.974542,0.000719885,0.0106245,664,785,-0.0354222,-0.0336522
-553,239,-0.0216064,0.0346069,0.000882463,6.72421e-05,1.30222e-05,0.000882671,6.70342e-05,0.0159684,0.000567424,0.0127689,671,785,-0.0215914,-0.0346171
-546,239,-0.0175781,0.0437622,0.00102425,-0.000641029,0.000791937,0.00134072,-0.0009575,0.380175,0.00133301,0.0128844,678,785,-0.0175538,-0.0437502
-539,239,-0.0137939,0.0532227,0.000510545,-0.00132442,0.00139941,0.00126642,-0.0020803,0.495241,0.00195118,0.0132928,685,785,-0.0138187,-0.0532114
-532,239,-0.0148315,0.0515137,4.11854e-05,-0.00207034,0.00193547,0.00119012,-0.00321927,0.535714,0.00263409,0.0109577,692,785,-0.014859,-0.051518
-525,239,-0.0166626,0.0777588,0.000257241,-0.00295136,0.00248189,0.0016082,-0.00430232,0.498477,0.00352863,0.0127953,699,785,-0.0166811,-0.0777689
-518,239,-0.0588379,0.110779,0.000586437,-0.00326141,0.00308383,0.00229728,-0.00497225,0.506503,0.00429074,0.031902,706,785,-0.0588606,-0.110782
-511,239,-0.153381,0.562744,0.000611623,-0.00382929,0.00327484,0.00234781,-0.00556548,0.487482,0.00469294,0.0372581,713,785,-0.153352,-0.562722
-504,239,-0.0349121,0.920776,0.000702254,-0.00427016,0.0032911,0.00234067,-0.00590858,0.461913,0.00490895,0.0424756,720,785,-0.034933,-0.920792
-497,239,0.132202,1.12079,0,0,0,0,0,0,0,-1,727,785,0.132193,-1.12078
-490,239,0.0559082,0.439087,0.00122337,-0.00403562,0.00267174,0.00234254,-0.00515478,0.396683,0.00442892,0.0446034,734,785,0.0559299,-0.439116
-483,239,0.0098877,0.389587,0.00150537,-0.00318838,0.00187598,0.00216301,-0.00384602,0.337174,0.00351438,0.0459611,741,785,0.00990362,-0.389571
-476,239,-0.0661621,0.121155,0.00160668,-0.0015485,0.000571886,0.00170714,-0.00164896,0.173886,0.00193774,0.0418343,748,785,-0.0661813,-0.121177
-469,239,0.0535889,0.149536,0.00125223,0.001098,-0.00146926,0.0026464,-0.000296165,-0.75918,0.00187082,0.0409648,755,785,0.05357,-0.149526
-462,239,0.136963,0.200256,-0.000618219,0.00433232,-0.00396855,0.00653426,-0.00282016,-1.06424,0.00554086,0.0434303,762,785,0.136963,-0.200278
-455,239,0,0,0,0,0,0,0,0,0,-1,769,785,0,0
-448,239,0,0,0,0,0,0,0,0,0,-1,776,785,0,0
-441,239,0,0,0,0,0,0,0,0,0,-1,783,785,0,0
-434,239,0,0,0,0,0,0,0,0,0,-1,790,785,0,0
-427,239,0,0,0,0,0,0,0,0,0,-1,797,785,0,0
-420,239,0,0,0,0,0,0,0,0,0,-1,804,785,0,0
-413,239,0,0,0,0,0,0,0,0,0,-1,811,785,0,0
-406,239,0,0,0,0,0,0,0,0,0,-1,818,785,0,0
-399,239,0,0,0,0,0,0,0,0,0,-1,825,785,0,0
-392,239,0,0,0,0,0,0,0,0,0,-1,832,785,0,0
-385,239,0,0,0,0,0,0,0,0,0,-1,839,785,0,0
-378,239,0,0,0,0,0,0,0,0,0,-1,846,785,0,0
-371,239,0,0,0,0,0,0,0,0,0,-1,853,785,0,0
-364,239,0,0,0,0,0,0,0,0,0,-1,860,785,0,0
-357,239,0,0,0,0,0,0,0,0,0,-1,867,785,0,0
-350,239,0,0,0,0,0,0,0,0,0,-1,874,785,0,0
-343,239,0,0,0,0,0,0,0,0,0,-1,881,785,0,0
-336,239,0,0,0,0,0,0,0,0,0,-1,888,785,0,0
-329,239,0,0,0,0,0,0,0,0,0,-1,895,785,0,0
-322,239,0,0,0,0,0,0,0,0,0,-1,902,785,0,0
-315,239,0,0,0,0,0,0,0,0,0,-1,909,785,0,0
-308,239,0,0,0,0,0,0,0,0,0,-1,916,785,0,0
-301,239,0,0,0,0,0,0,0,0,0,-1,923,785,0,0
-294,239,0,0,0,0,0,0,0,0,0,-1,930,785,0,0
-287,239,0,0,0,0,0,0,0,0,0,-1,937,785,0,0
-280,239,0,0,0,0,0,0,0,0,0,-1,944,785,0,0
-273,239,0,0,0,0,0,0,0,0,0,-1,951,785,0,0
-266,239,0,0,0,0,0,0,0,0,0,-1,958,785,0,0
-259,239,0,0,0,0,0,0,0,0,0,-1,965,785,0,0
-252,239,0,0,0,0,0,0,0,0,0,-1,972,785,0,0
-245,239,0,0,0,0,0,0,0,0,0,-1,979,785,0,0
-238,239,0,0,0,0,0,0,0,0,0,-1,986,785,0,0
-231,239,0,0,0,0,0,0,0,0,0,-1,993,785,0,0
-224,239,0,0,0,0,0,0,0,0,0,-1,1000,785,0,0
-217,239,0,0,0,0,0,0,0,0,0,-1,1007,785,0,0
-210,239,0,0,0,0,0,0,0,0,0,-1,1014,785,0,0
-203,239,0,0,0,0,0,0,0,0,0,-1,1021,785,0,0
-196,239,0,0,0,0,0,0,0,0,0,-1,1028,785,0,0
-189,239,0,0,0,0,0,0,0,0,0,-1,1035,785,0,0
-182,239,0,0,0,0,0,0,0,0,0,-1,1042,785,0,0
-175,239,0,0,0,0,0,0,0,0,0,-1,1049,785,0,0
-168,239,0,0,0,0,0,0,0,0,0,-1,1056,785,0,0
-161,239,0,0,0,0,0,0,0,0,0,-1,1063,785,0,0
-154,239,0,0,0,0,0,0,0,0,0,-1,1070,785,0,0
-147,239,0,0,0,0,0,0,0,0,0,-1,1077,785,0,0
-140,239,0,0,0,0,0,0,0,0,0,-1,1084,785,0,0
-133,239,0,0,0,0,0,0,0,0,0,-1,1091,785,0,0
-126,239,0,0,0,0,0,0,0,0,0,-1,1098,785,0,0
-119,239,0,0,0,0,0,0,0,0,0,-1,1105,785,0,0
-112,239,0,0,0,0,0,0,0,0,0,-1,1112,785,0,0
-105,239,0,0,0,0,0,0,0,0,0,-1,1119,785,0,0
-98,239,0,0,0,0,0,0,0,0,0,-1,1126,785,0,0
-91,239,0,0,0,0,0,0,0,0,0,-1,1133,785,0,0
-84,239,0,0,0,0,0,0,0,0,0,-1,1140,785,0,0
-77,239,0,0,0,0,0,0,0,0,0,-1,1147,785,0,0
-70,239,0,0,0,0,0,0,0,0,0,-1,1154,785,0,0
-63,239,0,0,0,0,0,0,0,0,0,-1,1161,785,0,0
-56,239,0,0,0,0,0,0,0,0,0,-1,1168,785,0,0
-49,239,0,0,0,0,0,0,0,0,0,-1,1175,785,0,0
-42,239,0,0,0,0,0,0,0,0,0,-1,1182,785,0,0
-35,239,0,0,0,0,0,0,0,0,0,-1,1189,785,0,0
-28,239,0,0,0,0,0,0,0,0,0,-1,1196,785,0,0
-21,239,0,0,0,0,0,0,0,0,0,-1,1203,785,0,0
-14,239,0,0,0,0,0,0,0,0,0,-1,1210,785,0,0
-7,239,0,0,0,0,0,0,0,0,0,-1,1217,785,0,0
0,239,0,0,0,0,0,0,0,0,0,-1,1224,785,0,0
7,239,0,0,0,0,0,0,0,0,0,-1,1231,785,0,0
14,239,0,0,0,0,0,0,0,0,0,-1,1238,785,0,0
21,239,0,0,0,0,0,0,0,0,0,-1,1245,785,0,0
28,239,0,0,0,0,0,0,0,0,0,-1,1252,785,0,0
35,239,0,0,0,0,0,0,0,0,0,-1,1259,785,0,0
42,239,0,0,0,0,0,0,0,0,0,-1,1266,785,0,0
49,239,0,0,0,0,0,0,0,0,0,-1,1273,785,0,0
56,239,0,0,0,0,0,0,0,0,0,-1,1280,785,0,0
63,239,0,0,0,0,0,0,0,0,0,-1,1287,785,0,0
70,239,0,0,0,0,0,0,0,0,0,-1,1294,785,0,0
77,239,0,0,0,0,0,0,0,0,0,-1,1301,785,0,0
84,239,0,0,0,0,0,0,0,0,0,-1,1308,785,0,0
91,239,0,0,0,0,0,0,0,0,0,-1,1315,785,0,0
98,239,0,0,0,0,0,0,0,0,0,-1,1322,785,0,0
105,239,0,0,0,0,0,0,0,0,0,-1,1329,785,0,0
112,239,0,0,0,0,0,0,0,0,0,-1,1336,785,0,0
119,239,0,0,0,0,0,0,0,0,0,-1,1343,785,0,0
126,239,0,0,0,0,0,0,0,0,0,-1,1350,785,0,0
133,239,0,0,0,0,0,0,0,0,0,-1,1357,785,0,0
140,239,0,0,0,0,0,0,0,0,0,-1,1364,785,0,0
147,239,0,0,0,0,0,0,0,0,0,-1,1371,785,0,0
154,239,0,0,0,0,0,0,0,0,0,-1,1378,785,0,0
161,239,0,0,0,0,0,0,0,0,0,-1,1385,785,0,0
168,239,0,0,0,0,0,0,0,0,0,-1,1392,785,0,0
175,239,0,0,0,0,0,0,0,0,0,-1,1399,785,0,0
182,239,0,0,0,0,0,0,0,0,0,-1,1406,785,0,0
189,239,0,0,0,0,0,0,0,0,0,-1,1413,785,0,0
196,239,0,0,0,0,0,0,0,0,0,-1,1420,785,0,0
203,239,0,0,0,0,0,0,0,0,0,-1,1427,785,0,0
210,239,0,0,0,0,0,0,0,0,0,-1,1434,785,0,0
217,239,0,0,0,0,0,0,0,0,0,-1,1441,785,0,0
224,239,0,0,0,0,0,0,0,0,0,-1,1448,785,0,0
231,239,0,0,0,0,0,0,0,0,0,-1,1455,785,0,0
238,239,0,0,0,0,0,0,0,0,0,-1,1462,785,0,0
245,239,0,0,0,0,0,0,0,0,0,-1,1469,785,0,0
252,239,0,0,0,0,0,0,0,0,0,-1,1476,785,0,0
259,239,0,0,0,0,0,0,0,0,0,-1,1483,785,0,0
266,239,0,0,0,0,0,0,0,0,0,-1,1490,785,0,0
273,239,0,0,0,0,0,0,0,0,0,-1,1497,785,0,0
280,239,0,0,0,0,0,0,0,0,0,-1,1504,785,0,0
287,239,0,0,0,0,0,0,0,0,0,-1,1511,785,0,0
294,239,0,0,0,0,0,0,0,0,0,-1,1518,785,0,0
301,239,0,0,0,0,0,0,0,0,0,-1,1525,785,0,0
308,239,0,0,0,0,0,0,0,0,0,-1,1532,785,0,0
315,239,0,0,0,0,0,0,0,0,0,-1,1539,785,0,0
322,239,0,0,0,0,0,0,0,0,0,-1,1546,785,0,0
329,239,0,0,0,0,0,0,0,0,0,-1,1553,785,0,0
336,239,0,0,0,0,0,0,0,0,0,-1,1560,785,0,0
343,239,0,0,0,0,0,0,0,0,0,-1,1567,785,0,0
350,239,0,0,0,0,0,0,0,0,0,-1,1574,785,0,0
357,239,0,0,0,0,0,0,0,0,0,-1,1581,785,0,0
364,239,0,0,0,0,0,0,0,0,0,-1,1588,785,0,0
371,239,0,0,0,0,0,0,0,0,0,-1,1595,785,0,0
378,239,0,0,0,0,0,0,0,0,0,-1,1602,785,0,0
385,239,0,0,0,0,0,0,0,0,0,-1,1609,785,0,0
392,239,0,0,0,0,0,0,0,0,0,-1,1616,785,0,0
399,239,0,0,0,0,0,0,0,0,0,-1,1623,785,0,0
406,239,0,0,0,0,0,0,0,0,0,-1,1630,785,0,0
413,239,0,0,0,0,0,0,0,0,0,-1,1637,785,0,0
420,239,0,0,0,0,0,0,0,0,0,-1,1644,785,0,0
427,239,0,0,0,0,0,0,0,0,0,-1,1651,785,0,0
434,239,0,0,0,0,0,0,0,0,0,-1,1658,785,0,0
441,239,0,0,0,0,0,0,0,0,0,-1,1665,785,0,0
448,239,0,0,0,0,0,0,0,0,0,-1,1672,785,0,0
455,239,0,0,0,0,0,0,0,0,0,-1,1679,785,0,0
462,239,0,0,0,0,0,0,0,0,0,-1,1686,785,0,0
469,239,0,0,0,0,0,0,0,0,0,-1,1693,785,0,0
476,239,0,0,0,0,0,0,0,0,0,-1,1700,785,0,0
483,239,0,0,0,0,0,0,0,0,0,-1,1707,785,0,0
490,239,0,0,0,0,0,0,0,0,0,-1,1714,785,0,0
497,239,0,0,0,0,0,0,0,0,0,-1,1721,785,0,0
504,239,0,0,0,0,0,0,0,0,0,-1,1728,785,0,0
511,239,0,0,0,0,0,0,0,0,0,-1,1735,785,0,0
518,239,0,0,0,0,0,0,0,0,0,-1,1742,785,0,0
525,239,0,0,0,0,0,0,0,0,0,-1,1749,785,0,0
532,239,0,0,0,0,0,0,0,0,0,-1,1756,785,0,0
539,239,0,0,0,0,0,0,0,0,0,-1,1763,785,0,0
546,239,0,0,0,0,0,0,0,0,0,-1,1770,785,0,0
553,239,0,0,0,0,0,0,0,0,0,-1,1777,785,0,0
560,239,0,0,0,0,0,0,0,0,0,-1,1784,785,0,0
567,239,0,0,0,0,0,0,0,0,0,-1,1791,785,0,0
574,239,0,0,0,0,0,0,0,0,0,-1,1798,785,0,0
581,239,-0.107544,0.204529,0.00799521,0.0043139,-0.00314102,0.00979516,0.00251395,-0.520365,0.00587426,0.0339089,1805,785,-0.107575,-0.204508
588,239,-0.117798,0.154968,0.00732347,0.00402723,-0.001485,0.0078938,0.0034569,-0.366691,0.00456918,0.03657,1812,785,-0.117756,-0.154972
595,239,-0.0351563,0.0189209,0.00619217,0.00254966,-0.000509676,0.00626214,0.00247968,-0.136434,0.00364144,0.0331508,1819,785,-0.0351106,-0.0189342
602,239,-0.0289307,0.0493164,0.00482017,0.00108606,2.07539e-05,0.00482028,0.00108594,0.0055577,0.00291965,0.0351949,1826,785,-0.0289194,-0.0492972
609,239,0.0736084,0.0253906,0.00346667,-0.000247144,0.000260976,0.00348492,-0.000265394,0.0698144,0.0024166,0.04022,1833,785,0.0735645,-0.0253813
616,239,0.189331,-0.0578613,0.00240958,-0.00130838,0.000261956,0.00242795,-0.00132674,0.0699962,0.00219863,0.0425013,1840,785,0.189377,0.0578902
623,239,0.170776,-0.173767,0.00147185,-0.00207653,0.00022156,0.00148563,-0.00209031,0.0621184,0.00207438,0.0391771,1847,785,0.170773,0.173778
630,239,-0.177979,-0.0996704,0.000627546,-0.0026014,0.000103614,0.000630868,-0.00260472,0.0320451,0.00198055,0.0378496,1854,785,-0.178027,0.0996992
637,239,-0.159912,-0.233032,2.32541e-05,-0.00280132,1.5934e-05,2.33438e-05,-0.00280141,0.00564095,0.00187544,0.041998,1861,785,-0.159881,0.233053
644,239,-0.0489502,0.141602,-0.000343034,-0.00284326,-7.34697e-05,-0.000340877,-0.00284542,-0.0293514,0.00179415,0.0451897,1868,785,-0.0489323,-0.141584
651,239,-0.0701904,0.151489,-0.000520762,-0.00262328,-0.000310609,-0.000475835,-0.00266821,-0.143645,0.00164332,0.0350185,1875,785,-0.0702117,-0.151468
658,239,-0.0322266,0.0761108,-0.000535852,-0.00232346,-0.000417236,-0.000443263,-0.00241605,-0.218372,0.00148516,0.0164182,1882,785,-0.0321866,-0.0760864
665,239,-0.029541,0.0826416,-0.000628636,-0.00176053,-0.000389511,-0.00050755,-0.00188162,-0.301396,0.0011241,0.0123722,1889,785,-0.0295141,-0.0826169
672,239,-0.0236816,0.0710449,-0.0003367,-0.00110779,-0.000391469,-0.000172797,-0.00127169,-0.39651,0.00079647,0.0180687,1896,785,-0.0236375,-0.0710214
679,239,-0.0313721,0.0467529,0.000124558,-0.000451442,-0.000198714,0.000186459,-0.000513344,-0.301984,0.000418466,0.0191226,1903,785,-0.0313365,-0.0467762
686,239,-0.0432129,0.0410767,0.00170106,0.000256313,-0.000649116,0.00194985,7.51333e-06,-0.366018,0.00129741,0.0197364,1910,785,-0.0432301,-0.0410667
693,239,-0.0325928,0.055542,0.00354396,0.00150454,-0.00123163,0.00412323,0.000925275,-0.439626,0.00249818,0.0136223,1917,785,-0.0325973,-0.0555181
700,239,-0.0257568,0.0528564,0.00561235,0.00240484,-0.00170444,0.00634893,0.00166826,-0.407913,0.0038006,0.0107386,1924,785,-0.0257171,-0.0528812
707,239,-0.0192871,0.0452881,0.00844296,0.00460128,-0.00374712,0.0107329,0.00231136,-0.548553,0.00652277,0.0097636,1931,785,-0.0192726,-0.0453006
714,239,-0.0192871,0.0475464,0.0125172,0.00602778,-0.00631842,0.0163754,0.00216964,-0.54819,0.0102704,0.0091222,1938,785,-0.0193218,-0.0475225
721,239,-0.0136719,0.0639038,0.0171312,0.00770123,-0.00895915,0.0225403,0.00229211,-0.543175,0.0143241,0.0161833,1945,785,-0.0136493,-0.0639296
728,239,0.0230713,0.0957031,0.0227203,0.0102586,-0.0127183,0.0306521,0.00232682,-0.557625,0.019705,0.0319177,1952,785,0.0230973,-0.0956817
735,239,0.0100098,0.262695,0.0291358,0.0133429,-0.017519,0.0404558,0.00202294,-0.573666,0.0263221,0.042671,1959,785,0.0100304,-0.262711
742,239,-0.0333252,0.595337,0.036288,0.01693,-0.0235368,0.0520582,0.00115973,-0.590324,0.0343254,0.0404628,1966,785,-0.0333246,-0.595308
749,239,-0.0980225,0.741089,0.0440029,0.0209385,-0.0309773,0.065525,-0.0005836,-0.607206,0.0438792,0.0450453,1973,785,-0.098066,-0.741076
756,239,2.59192,-4.26202,0,0,0,0,0,0,0,-1,1980,785,2.5919,4.26202
763,239,0,0,0,0,0,0,0,0,0,-1,1987,785,0,0
770,239,0,0,0,0,0,0,0,0,0,-1,1994,785,0,0
777,239,0,0,0,0,0,0,0,0,0,-1,2001,785,0,0
784,239,0,0,0,0,0,0,0,0,0,-1,2008,785,0,0
791,239,0,0,0,0,0,0,0,0,0,-1,2015,785,0,0
798,239,0,0,0,0,0,0,0,0,0,-1,2022,785,0,0
805,239,0,0,0,0,0,0,0,0,0,-1,2029,785,0,0
812,239,0,0,0,0,0,0,0,0,0,-1,2036,785,0,0
-700,232,0,0,0,0,0,0,0,0,0,-1,524,792,0,0
-693,232,0,0,0,0,0,0,0,0,0,-1,531,792,0,0
-686,232,0,0,0,0,0,0,0,0,0,-1,538,792,0,0
-679,232,0,0,0,0,0,0,0,0,0,-1,545,792,0,0
-672,232,0,0,0,0,0,0,0,0,0,-1,552,792,0,0
-665,232,0,0,0,0,0,0,0,0,0,-1,559,792,0,0
-658,232,0,0,0,0,0,0,0,0,0,-1,566,792,0,0
-651,232,0,0,0,0,0,0,0,0,0,-1,573,792,0,0
-644,232,3.56555,1.25171,0,0,0,0,0,0,0,-1,580,792,3.56552,-1.25171
-637,232,-0.292419,-0.145935,0,0,0,0,0,0,0,-1,587,792,-0.292432,0.145946
-630,232,-0.029541,-0.96875,0,0,0,0,0,0,0,-1,594,792,-0.0295579,0.968776
-623,232,-0.0491333,0.286194,0,0,0,0,0,0,0,-1,601,792,-0.0491306,-0.286168
-616,232,0.0384521,0.381836,0,0,0,0,0,0,0,-1,608,792,0.038473,-0.381822
-609,232,0.476563,0.239563,0.00161497,-0.00837637,0.0101198,0.00790497,-0.0146664,0.556119,0.013225,0.046402,615,792,0.47657,-0.239546
-602,232,0.415588,0.371948,8.46497e-05,-0.00574891,0.00705171,0.00479901,-0.0104633,0.589299,0.00901169,0.0488251,622,792,0.415615,-0.37192
-595,232,-0.0756836,0.141235,-0.000881378,-0.00363531,0.00468772,0.00262743,-0.00714412,0.642547,0.00583904,0.0345228,629,792,-0.075655,-0.141259
-588,232,-0.0429077,0.0654297,-0.00125391,-0.00216948,0.00266605,0.000993374,-0.00441677,0.700373,0.00332546,0.0110563,636,792,-0.0429321,-0.0654007
-581,232,-0.0201416,0.0610352,-0.00107079,-0.000785536,0.00132577,0.000405261,-0.00226159,0.838982,0.00165939,0.00750973,643,792,-0.0201458,-0.0610136
-574,232,-0.0187988,0.0598145,-0.000830135,0.00013416,2.94764e-05,0.00013506,-0.000831035,1.54027,0.000604097,0.0080995,650,792,-0.0187918,-0.0597952
-567,232,-0.0441284,0.0576172,-0.000611513,0.000569562,-0.000679467,0.000879252,-0.000921203,-1.14314,0.00103959,0.00891563,657,792,-0.0441505,-0.0576171
-560,232,-0.0499268,0.0553589,-8.66618e-05,0.000509857,-0.000530216,0.000819945,-0.00039675,-1.0416,0.000716484,0.00992461,664,792,-0.0499138,-0.0553719
-553,232,-0.0442505,0.0308838,0.000873516,0.000161007,3.35793e-05,0.000875095,0.000159428,0.0469893,0.000538184,0.0118656,671,792,-0.0442641,-0.0308545
-546,232,-0.038208,0.0296021,0.00116303,-0.000462668,0.00073861,0.00144848,-0.000748122,0.368792,0.00128952,0.0194965,678,792,-0.0382379,-0.0296138
-539,232,-0.0342407,0.0465088,0.00086736,-0.00103241,0.00125053,0.00148786,-0.00165291,0.460596,0.00181416,0.0219893,685,792,-0.0342383,-0.0465377
-532,232,-0.0181885,0.0545044,0.000575772,-0.00167371,0.00174219,0.00152474,-0.00262268,0.498763,0.00242232,0.0130554,692,792,-0.0181838,-0.0545061
-525,232,0.0115967,0.0940552,0.000880324,-0.00244358,0.00223654,0.0020048,-0.00356806,0.465866,0.00325941,0.0196541,699,792,0.0115712,-0.0940478
-518,232,-0.101501,0.197449,0.00123068,-0.00268579,0.00278903,0.00268028,-0.0041354,0.479324,0.00396482,0.039469,706,792,-0.101487,-0.197431
-511,232,-0.403564,0.676453,0.00128872,-0.00312698,0.00297308,0.00278409,-0.00462235,0.46602,0.00431979,0.0418031,713,792,-0.403561,-0.676438
-504,232,-0.318115,1.06653,0.00138172,-0.00342519,0.00297461,0.00280252,-0.00484598,0.445602,0.00446809,0.0462183,720,792,-0.318118,-1.06651
-497,232,-0.0487671,0.881775,0,0,0,0,0,0,0,-1,727,792,-0.0487639,-0.881777
-490,232,0.119446,0.381958,0.00205482,-0.00302355,0.00239912,0.00300895,-0.00397767,0.378521,0.00404663,0.0422841,734,792,0.119459,-0.381977
-483,232,-0.0545654,0.221008,0.00246807,-0.00207797,0.00159902,0.00297416,-0.00258407,0.306528,0.00321168,0.0416571,741,792,-0.0545539,-0.221037
-476,232,-0.0543823,0.0274048,0.00287839,-0.00030925,0.000301764,0.0029067,-0.000337565,0.0935595,0.00205957,0.0346375,748,792,-0.0543922,-0.0274244
-469,232,-0.00256348,0.000915527,0.0031356,0.00251893,-0.00167451,0.00452993,0.0011246,-0.694351,0.00272361,0.0308278,755,792,-0.00258437,-0.000927381
-462,232,0,0,0,0,0,0,0,0,0,-1,762,792,0,0
-455,232,0,0,0,0,0,0,0,0,0,-1,769,792,0,0
-448,232,0,0,0,0,0,0,0,0,0,-1,776,792,0,0
-441,232,0,0,0,0,0,0,0,0,0,-1,783,792,0,0
-434,232,0,0,0,0,0,0,0,0,0,-1,790,792,0,0
-427,232,0,0,0,0,0,0,0,0,0,-1,797,792,0,0
-420,232,0,0,0,0,0,0,0,0,0,-1,804,792,0,0
-413,232,0,0,0,0,0,0,0,0,0,-1,811,792,0,0
-406,232,0,0,0,0,0,0,0,0,0,-1,818,792,0,0
-399,232,0,0,0,0,0,0,0,0,0,-1,825,792,0,0
-392,232,0,0,0,0,0,0,0,0,0,-1,832,792,0,0
-385,232,0,0,0,0,0,0,0,0,0,-1,839,792,0,0
-378,232,0,0,0,0,0,0,0,0,0,-1,846,792,0,0
-371,232,0,0,0,0,0,0,0,0,0,-1,853,792,0,0
-364,232,0,0,0,0,0,0,0,0,0,-1,860,792,0,0
-357,232,0,0,0,0,0,0,0,0,0,-1,867,792,0,0
-350,232,0,0,0,0,0,0,0,0,0,-1,874,792,0,0
-343,232,0,0,0,0,0,0,0,0,0,-1,881,792,0,0
-336,232,0,0,0,0,0,0,0,0,0,-1,888,792,0,0
-329,232,0,0,0,0,0,0,0,0,0,-1,895,792,0,0
-322,232,0,0,0,0,0,0,0,0,0,-1,902,792,0,0
-315,232,0,0,0,0,0,0,0,0,0,-1,909,792,0,0
-308,232,0,0,0,0,0,0,0,0,0,-1,916,792,0,0
-301,232,0,0,0,0,0,0,0,0,0,-1,923,792,0,0
-294,232,0,0,0,0,0,0,0,0,0,-1,930,792,0,0
-287,232,0,0,0,0,0,0,0,0,0,-1,937,792,0,0
-280,232,0,0,0,0,0,0,0,0,0,-1,944,792,0,0
-273,232,0,0,0,0,0,0,0,0,0,-1,951,792,0,0
-266,232,0,0,0,0,0,0,0,0,0,-1,958,792,0,0
-259,232,0,0,0,0,0,0,0,0,0,-1,965,792,0,0
-252,232,0,0,0,0,0,0,0,0,0,-1,972,792,0,0
-245,232,0,0,0,0,0,0,0,0,0,-1,979,792,0,0
-238,232,0,0,0,0,0,0,0,0,0,-1,986,792,0,0
-231,232,0,0,0,0,0,0,0,0,0,-1,993,792,0,0
-224,232,0,0,0,0,0,0,0,0,0,-1,1000,792,0,0
-217,232,0,0,0,0,0,0,0,0,0,-1,1007,792,0,0
-210,232,0,0,0,0,0,0,0,0,0,-1,1014,792,0,0
-203,232,0,0,0,0,0,0,0,0,0,-1,1021,792,0,0
-196,232,0,0,0,0,0,0,0,0,0,-1,1028,792,0,0
-189,232,0,0,0,0,0,0,0,0,0,-1,1035,792,0,0
-182,232,0,0,0,0,0,0,0,0,0,-1,1042,792,0,0
-175,232,0,0,0,0,0,0,0,0,0,-1,1049,792,0,0
-168,232,0,0,0,0,0,0,0,0,0,-1,1056,792,0,0
-161,232,0,0,0,0,0,0,0,0,0,-1,1063,792,0,0
-154,232,0,0,0,0,0,0,0,0,0,-1,1070,792,0,0
-147,232,0,0,0,0,0,0,0,0,0,-1,1077,792,0,0
-140,232,0,0,0,0,0,0,0,0,0,-1,1084,792,0,0
-133,232,0,0,0,0,0,0,0,0,0,-1,1091,792,0,0
-126,232,0,0,0,0,0,0,0,0,0,-1,1098,792,0,0
-119,232,0,0,0,0,0,0,0,0,0,-1,1105,792,0,0
-112,232,0,0,0,0,0,0,0,0,0,-1,1112,792,0,0
-105,232,0,0,0,0,0,0,0,0,0,-1,1119,792,0,0
-98,232,0,0,0,0,0,0,0,0,0,-1,1126,792,0,0
-91,232,0,0,0,0,0,0,0,0,0,-1,1133,792,0,0
-84,232,0,0,0,0,0,0,0,0,0,-1,1140,792,0,0
-77,232,0,0,0,0,0,0,0,0,0,-1,1147,792,0,0
-70,232,0,0,0,0,0,0,0,0,0,-1,1154,792,0,0
-63,232,0,0,0,0,0,0,0,0,0,-1,1161,792,0,0
-56,232,0,0,0,0,0,0,0,0,0,-1,1168,792,0,0
-49,232,0,0,0,0,0,0,0,0,0,-1,1175,792,0,0
-42,232,0,0,0,0,0,0,0,0,0,-1,1182,792,0,0
-35,232,0,0,0,0,0,0,0,0,0,-1,1189,792,0,0
-28,232,0,0,0,0,0,0,0,0,0,-1,1196,792,0,0
-21,232,0,0,0,0,0,0,0,0,0,-1,1203,792,0,0
-14,232,0,0,0,0,0,0,0,0,0,-1,1210,792,0,0
-7,232,0,0,0,0,0,0,0,0,0,-1,1217,792,0,0
0,232,0,0,0,0,0,0,0,0,0,-1,1224,792,0,0
7,232,0,0,0,0,0,0,0,0,0,-1,1231,792,0,0
14,232,0,0,0,0,0,0,0,0,0,-1,1238,792,0,0
21,232,0,0,0,0,0,0,0,0,0,-1,1245,792,0,0
28,232,0,0,0,0,0,0,0,0,0,-1,1252,792,0,0
35,232,0,0,0,0,0,0,0,0,0,-1,1259,792,0,0
42,232,0,0,0,0,0,0,0,0,0,-1,1266,792,0,0
49,232,0,0,0,0,0,0,0,0,0,-1,1273,792,0,0
56,232,0,0,0,0,0,0,0,0,0,-1,1280,792,0,0
63,232,0,0,0,0,0,0,0,0,0,-1,1287,792,0,0
70,232,0,0,0,0,0,0,0,0,0,-1,1294,792,0,0
77,232,0,0,0,0,0,0,0,0,0,-1,1301,792,0,0
84,232,0,0,0,0,0,0,0,0,0,-1,1308,792,0,0
91,232,0,0,0,0,0,0,0,0,0,-1,1315,792,0,0
98,232,0,0,0,0,0,0,0,0,0,-1,1322,792,0,0
105,232,0,0,0,0,0,0,0,0,0,-1,1329,792,0,0
112,232,0,0,0,0,0,0,0,0,0,-1,1336,792,0,0
119,232,0,0,0,0,0,0,0,0,0,-1,1343,792,0,0
126,232,0,0,0,0,0,0,0,0,0,-1,1350,792,0,0
133,232,0,0,0,0,0,0,0,0,0,-1,1357,792,0,0
140,232,0,0,0,0,0,0,0,0,0,-1,1364,792,0,0
147,232,0,0,0,0,0,0,0,0,0,-1,1371,792,0,0
154,232,0,0,0,0,0,0,0,0,0,-1,1378,792,0,0
161,232,0,0,0,0,0,0,0,0,0,-1,1385,792,0,0
168,232,0,0,0,0,0,0,0,0,0,-1,1392,792,0,0
175,232,0,0,0,0,0,0,0,0,0,-1,1399,792,0,0
182,232,0,0,0,0,0,0,0,0,0,-1,1406,792,0,0
189,232,0,0,0,0,0,0,0,0,0,-1,1413,792,0,0
196,232,0,0,0,0,0,0,0,0,0,-1,1420,792,0,0
203,232,0,0,0,0,0,0,0,0,0,-1,1427,792,0,0
210,232,0,0,0,0,0,0,0,0,0,-1,1434,792,0,0
217,232,0,0,0,0,0,0,0,0,0,-1,1441,792,0,0
224,232,0,0,0,0,0,0,0,0,0,-1,1448,792,0,0
231,232,0,0,0,0,0,0,0,0,0,-1,1455,792,0,0
238,232,0,0,0,0,0,0,0,0,0,-1,1462,792,0,0
245,232,0,0,0,0,0,0,0,0,0,-1,1469,792,0,0
252,232,0,0,0,0,0,0,0,0,0,-1,1476,792,0,0
259,232,0,0,0,0,0,0,0,0,0,-1,1483,792,0,0
266,232,0,0,0,0,0,0,0,0,0,-1,1490,792,0,0
273,232,0,0,0,0,0,0,0,0,0,-1,1497,792,0,0
280,232,0,0,0,0,0,0,0,0,0,-1,1504,792,0,0
287,232,0,0,0,0,0,0,0,0,0,-1,1511,792,0,0
294,232,0,0,0,0,0,0,0,0,0,-1,1518,792,0,0
301,232,0,0,0,0,0,0,0,0,0,-1,1525,792,0,0
308,232,0,0,0,0,0,0,0,0,0,-1,1532,792,0,0
315,232,0,0,0,0,0,0,0,0,0,-1,1539,792,0,0
322,232,0,0,0,0,0,0,0,0,0,-1,1546,792,0,0
329,232,0,0,0,0,0,0,0,0,0,-1,1553,792,0,0
336,232,0,0,0,0,0,0,0,0,0,-1,1560,792,0,0
343,232,0,0,0,0,0,0,0,0,0,-1,1567,792,0,0
350,232,0,0,0,0,0,0,0,0,0,-1,1574,792,0,0
357,232,0,0,0,0,0,0,0,0,0,-1,1581,792,0,0
364,232,0,0,0,0,0,0,0,0,0,-1,1588,792,0,0
371,232,0,0,0,0,0,0,0,0,0,-1,1595,792,0,0
378,232,0,0,0,0,0,0,0,0,0,-1,1602,792,0,0
385,232,0,0,0,0,0,0,0,0,0,-1,1609,792,0,0
392,232,0,0,0,0,0,0,0,0,0,-1,1616,792,0,0
399,232,0,0,0,0,0,0,0,0,0,-1,1623,792,0,0
406,232,0,0,0,0,0,0,0,0,0,-1,1630,792,0,0
413,232,0,0,0,0,0,0,0,0,0,-1,1637,792,0,0
420,232,0,0,0,0,0,0,0,0,0,-1,1644,792,0,0
427,232,0,0,0,0,0,0,0,0,0,-1,1651,792,0,0
434,232,0,0,0,0,0,0,0,0,0,-1,1658,792,0,0
441,232,0,0,0,0,0,0,0,0,0,-1,1665,792,0,0
448,232,0,0,0,0,0,0,0,0,0,-1,1672,792,0,0
455,232,0,0,0,0,0,0,0,0,0,-1,1679,792,0,0
462,232,0,0,0,0,0,0,0,0,0,-1,1686,792,0,0
469,232,0,0,0,0,0,0,0,0,0,-1,1693,792,0,0
476,232,0,0,0,0,0,0,0,0,0,-1,1700,792,0,0
483,232,0,0,0,0,0,0,0,0,0,-1,1707,792,0,0
490,232,0,0,0,0,0,0,0,0,0,-1,1714,792,0,0
497,232,0,0,0,0,0,0,0,0,0,-1,1721,792,0,0
504,232,0,0,0,0,0,0,0,0,0,-1,1728,792,0,0
511,232,0,0,0,0,0,0,0,0,0,-1,1735,792,0,0
518,232,0,0,0,0,0,0,0,0,0,-1,1742,792,0,0
525,232,0,0,0,0,0,0,0,0,0,-1,1749,792,0,0
532,232,0,0,0,0,0,0,0,0,0,-1,1756,792,0,0
539,232,0,0,0,0,0,0,0,0,0,-1,1763,792,0,0
546,232,0,0,0,0,0,0,0,0,0,-1,1770,792,0,0
553,232,0,0,0,0,0,0,0,0,0,-1,1777,792,0,0
560,232,0,0,0,0,0,0,0,0,0,-1,1784,792,0,0
567,232,0,0,0,0,0,0,0,0,0,-1,1791,792,0,0
574,232,0,0,0,0,0,0,0,0,0,-1,1798,792,0,0
581,232,0,0,0,0,0,0,0,0,0,-1,1805,792,0,0
588,232,-0.057251,0.109741,0.00568755,0.00421358,-0.00112258,0.00629344,0.00360768,-0.49493,0.00364649,0.034285,1812,792,-0.0572236,-0.109771
595,232,-0.0748291,-0.0239258,0.00487333,0.00293166,-6.20463e-05,0.00487531,0.00292968,-0.0319117,0.00283381,0.03325,1819,792,-0.0748422,0.0239478
602,232,-0.124878,0.0649414,0.00379493,0.00150069,0.000473162,0.00388868,0.00140693,0.195608,0.00227354,0.0312774,1826,792,-0.124936,-0.0649627
609,232,-0.0164795,0.045166,0.00270017,0.000179007,0.000672161,0.00286818,1.1e-05,0.244932,0.00190847,0.0323192,1833,792,-0.0164211,-0.0451792
616,232,0.0865479,-0.010376,0.00183367,-0.00088659,0.000618745,0.00196779,-0.00102071,0.213467,0.00175406,0.0368659,1840,792,0.0865331,0.0103553
623,232,-0.0471191,0.127136,0.00106246,-0.00170975,0.000521623,0.00115736,-0.00180465,0.179965,0.00172367,0.0402388,1847,792,-0.0471009,-0.12716
630,232,-0.0333252,0.142822,0.000384258,-0.00219765,0.000342808,0.000428999,-0.00224239,0.129778,0.00165655,0.0442716,1854,792,-0.0333034,-0.142838
637,232,0.111206,0.228149,-8.93765e-05,-0.00240903,0.000205046,-7.13909e-05,-0.00242701,0.0874911,0.00159475,0.045145,1861,792,0.111161,-0.228178
644,232,0.0509033,0.252808,-0.000380944,-0.00247589,9.32907e-05,-0.000376798,-0.00248003,0.0444142,0.00154317,0.0403629,1868,792,0.0509425,-0.252831
651,232,-0.06604,0.291443,-0.000512251,-0.00234121,-0.000128945,-0.000503205,-0.00235026,-0.0700398,0.00142895,0.0380822,1875,792,-0.066025,-0.291459
658,232,-0.0349121,0.0747681,-0.000484716,-0.00208457,-0.000273654,-0.000439203,-0.00213008,-0.16481,0.00129865,0.0213874,1882,792,-0.0348641,-0.0747425
665,232,-0.0233154,0.0577393,-0.000519619,-0.00162,-0.000296094,-0.000445004,-0.00169461,-0.246856,0.00101448,0.011177,1889,792,-0.0233704,-0.0577499
672,232,-0.0180664,0.0652466,-0.000280421,-0.00107176,-0.000339257,-0.00015489,-0.00119729,-0.354394,0.000751902,0.0166221,1896,792,-0.0180141,-0.0652539
679,232,-0.0272217,0.0628052,0.000105639,-0.00060331,-0.000202128,0.000159219,-0.00065689,-0.259117,0.000499531,0.0164051,1903,792,-0.0271778,-0.0628315
686,232,-0.0300293,0.0631104,0.00148527,-6.41538e-05,-0.000626271,0.00170675,-0.000285632,-0.339919,0.00124402,0.015878,1910,792,-0.0300002,-0.063132
693,232,-0.0321045,0.050415,0.00309504,0.000862029,-0.00111139,0.0035539,0.000403172,-0.391551,0.00224696,0.00948841,1917,792,-0.032131,-0.050401
700,232,-0.0285645,0.0431519,0.00487806,0.00134691,-0.00145753,0.00540195,0.000823014,-0.345057,0.00336072,0.0115276,1924,792,-0.0285201,-0.0431216
707,232,-0.0172119,0.0501099,0.00723764,0.00305473,-0.00331525,0.00906602,0.00122636,-0.503997,0.00567953,0.0122352,1931,792,-0.0172237,-0.0501126
714,232,-0.0148926,0.0455322,0.0106727,0.0038778,-0.00554871,0.0137814,0.00076903,-0.510694,0.00894231,0.0128425,1938,792,-0.014921,-0.0455081
721,232,-0.0142822,0.0703125,0.0145003,0.00460779,-0.00761683,0.018636,0.000472124,-0.497426,0.0122697,0.0155038,1945,792,-0.0142625,-0.070293
728,232,-0.0491943,0.150818,0.0191074,0.00608386,-0.0105986,0.0250348,0.000156411,-0.509929,0.016638,0.0273843,1952,792,-0.0491965,-0.150814
735,232,-0.176392,0.264282,0.0243387,0.00781756,-0.0143792,0.0326612,-0.000504924,-0.524675,0.0219444,0.0413387,1959,792,-0.176423,-0.264304
742,232,-0.35791,0.400757,0.0301324,0.00972169,-0.0190076,0.041501,-0.001647,-0.53903,0.0282324,0.0443647,1966,792,-0.357961,-0.40075
749,232,-0.328613,0.558838,0.036378,0.0116512,-0.0245636,0.0515141,-0.00348496,-0.552248,0.0355614,0.0460238,1973,792,-0.328668,-0.558814
756,232,-0.355225,0.763184,0.0429491,0.0133386,-0.0311205,0.0626066,-0.00631887,-0.563372,0.0439955,0.0477063,1980,792,-0.35528,-0.763162
763,232,1.04041,-1.56708,0.0496751,0.0142728,-0.0387309,0.0745582,-0.0106102,-0.571056,0.0535934,0.045626,1987,792,1.04043,1.56705
770,232,0,0,0,0,0,0,0,0,0,-1,1994,792,0,0
777,232,0,0,0,0,0,0,0,0,0,-1,2001,792,0,0
784,232,0,0,0,0,0,0,0,0,0,-1,2008,792,0,0
791,232,0,0,0,0,0,0,0,0,0,-1,2015,792,0,0
798,232,0,0,0,0,0,0,0,0,0,-1,2022,792,0,0
805,232,0,0,0,0,0,0,0,0,0,-1,2029,792,0,0
812,232,0,0,0,0,0,0,0,0,0,-1,2036,792,0,0
-700,225,0,0,0,0,0,0,0,0,0,-1,524,799,0,0
-693,225,0,0,0,0,0,0,0,0,0,-1,531,799,0,0
-686,225,0,0,0,0,0,0,0,0,0,-1,538,799,0,0
-679,225,0,0,0,0,0,0,0,0,0,-1,545,799,0,0
-672,225,0,0,0,0,0,0,0,0,0,-1,552,799,0,0
-665,225,0,0,0,0,0,0,0,0,0,-1,559,799,0,0
-658,225,0,0,0,0,0,0,0,0,0,-1,566,799,0,0
-651,225,0,0,0,0,0,0,0,0,0,-1,573,799,0,0
-644,225,0.387268,-0.457092,0,0,0,0,0,0,0,-1,580,799,0.387258,0.457092
-637,225,-0.73822,-0.927795,0,0,0,0,0,0,0,-1,587,799,-0.738195,0.927784
-630,225,-0.173462,-0.727234,0.0147536,-0.0175912,0.0190508,0.0235708,-0.0264084,0.433468,0.028871,0.0464236,594,799,-0.173479,0.727216
-623,225,0.234009,-0.319946,0.00934735,-0.0137461,0.0155352,0.017157,-0.0215557,0.46581,0.0223988,0.0468967,601,799,0.234024,0.319927
-616,225,0.516174,0.216492,0.00537681,-0.0103719,0.0121323,0.0119661,-0.0169612,0.497547,0.016784,0.0455893,608,799,0.516203,-0.216511
-609,225,-0.493164,-0.35321,0.00260554,-0.00756403,0.00904903,0.00790054,-0.012859,0.529426,0.012099,0.0462971,615,799,-0.493164,0.353188
-602,225,-0.373047,-0.0473633,0,0,0,0,0,0,0,-1,622,799,-0.373024,0.0473842
-595,225,-0.121155,0.0795288,-0.000295637,-0.00339062,0.00436699,0.00278995,-0.0064762,0.615121,0.00548911,0.0266452,629,799,-0.121134,-0.0795368
-588,225,-0.0542603,0.0518188,-0.000874808,-0.00206752,0.00254904,0.00114671,-0.00408904,0.670489,0.00317799,0.0110885,636,799,-0.054269,-0.0518363
-581,225,-0.0217896,0.0560303,-0.000831164,-0.000761059,0.00136838,0.000572713,-0.00216494,0.798203,0.00166731,0.00929753,643,799,-0.0217865,-0.0560209
-574,225,-0.0221558,0.0411987,-0.000649784,9.62022e-05,0.000158215,0.000128371,-0.000681953,1.37021,0.000502916,0.00810155,650,799,-0.0221726,-0.0411935
-567,225,-0.0290527,0.0203857,-0.000506617,0.000488876,-0.000563185,0.000742747,-0.000760489,-1.1473,0.000867914,0.00928424,657,799,-0.0290457,-0.0203581
-560,225,-0.0325928,0.0413818,-2.49569e-05,0.00042232,-0.000467651,0.000717056,-0.000319692,-1.00843,0.000613047,0.0090438,664,799,-0.0325918,-0.0414005
-553,225,-0.0437012,0.0372925,0.000947038,0.000141769,5.44118e-05,0.000950698,0.000138109,0.0671629,0.000593146,0.0101427,671,799,-0.043706,-0.0373104
-546,225,-0.0319824,0.0460815,0.00133879,-0.000377961,0.000663599,0.00156539,-0.000604561,0.329057,0.00129311,0.0198508,678,799,-0.0319709,-0.0460986
-539,225,-0.0439453,0.0532837,0.00123701,-0.000824714,0.00106206,0.00168623,-0.00127394,0.400152,0.00171457,0.021206,685,799,-0.0439152,-0.0532613
-532,225,-0.0320435,0.0586548,0.0011041,-0.00135831,0.00148583,0.00180254,-0.00205676,0.439419,0.00222978,0.0132367,692,799,-0.0320667,-0.0586623
-525,225,0.0372314,0.0941772,0.00146436,-0.00199713,0.00190218,0.00230533,-0.00283811,0.416276,0.00297487,0.030262,699,799,0.0372192,-0.0941528
-518,225,-0.00915527,0.279419,0.00180164,-0.00221846,0.00237507,0.00290306,-0.00331988,0.434224,0.00359551,0.0409161,706,799,-0.00916198,-0.279401
-511,225,-0.0766602,0.428101,0,0,0,0,0,0,0,-1,713,799,-0.0766763,-0.428088
-504,225,-0.466003,0.657959,0,0,0,0,0,0,0,-1,720,799,-0.466011,-0.657984
-497,225,-0.26593,0.506042,0,0,0,0,0,0,0,-1,727,799,-0.265948,-0.506023
-490,225,0.0199585,0.161926,0.00244146,-0.00214803,0.00178486,0.00305387,-0.00276044,0.330529,0.00335832,0.0364024,734,799,0.0199708,-0.161935
-483,225,-0.0606079,0.0747681,0.0026208,-0.00105519,0.000865913,0.00281456,-0.00124895,0.220138,0.00240342,0.0315163,741,799,-0.0605944,-0.0747386
-476,225,-0.00488281,0.0045166,0.00272219,0.000976234,-0.000603185,0.00291031,0.000788117,-0.302313,0.00173812,0.0300714,748,799,-0.00491254,-0.00448739
-469,225,0.0292358,-0.0706787,0.00259097,0.00428184,-0.00282261,0.0063829,0.000489902,-0.930907,0.00410173,0.0321957,755,799,0.0292621,0.0706652
-462,225,0,0,0,0,0,0,0,0,0,-1,762,799,0,0
-455,225,0,0,0,0,0,0,0,0,0,-1,769,799,0,0
-448,225,0,0,0,0,0,0,0,0,0,-1,776,799,0,0
-441,225,0,0,0,0,0,0,0,0,0,-1,783,799,0,0
-434,225,0,0,0,0,0,0,0,0,0,-1,790,799,0,0
-427,225,0,0,0,0,0,0,0,0,0,-1,797,799,0,0
-420,225,0,0,0,0,0,0,0,0,0,-1,804,799,0,0
-413,225,0,0,0,0,0,0,0,0,0,-1,811,799,0,0
-406,225,0,0,0,0,0,0,0,0,0,-1,818,799,0,0
-399,225,0,0,0,0,0,0,0,0,0,-1,825,799,0,0
-392,225,0,0,0,0,0,0,0,0,0,-1,832,799,0,0
-385,225,0,0,0,0,0,0,0,0,0,-1,839,799,0,0
-378,225,0,0,0,0,0,0,0,0,0,-1,846,799,0,0
-371,225,0,0,0,0,0,0,0,0,0,-1,853,799,0,0
-364,225,0,0,0,0,0,0,0,0,0,-1,860,799,0,0
-357,225,0,0,0,0,0,0,0,0,0,-1,867,799,0,0
-350,225,0,0,0,0,0,0,0,0,0,-1,874,799,0,0
-343,225,0,0,0,0,0,0,0,0,0,-1,881,799,0,0
-336,225,0,0,0,0,0,0,0,0,0,-1,888,799,0,0
-329,225,0,0,0,0,0,0,0,0,0,-1,895,799,0,0
-322,225,0,0,0,0,0,0,0,0,0,-1,902,799,0,0
-315,225,0,0,0,0,0,0,0,0,0,-1,909,799,0,0
-308,225,0,0,0,0,0,0,0,0,0,-1,916,799,0,0
-301,225,0,0,0,0,0,0,0,0,0,-1,923,799,0,0
-294,225,0,0,0,0,0,0,0,0,0,-1,930,799,0,0
-287,225,0,0,0,0,0,0,0,0,0,-1,937,799,0,0
-280,225,0,0,0,0,0,0,0,0,0,-1,944,799,0,0
-273,225,0,0,0,0,0,0,0,0,0,-1,951,799,0,0
-266,225,0,0,0,0,0,0,0,0,0,-1,958,799,0,0
-259,225,0,0,0,0,0,0,0,0,0,-1,965,799,0,0
-252,225,0,0,0,0,0,0,0,0,0,-1,972,799,0,0
-245,225,0,0,0,0,0,0,0,0,0,-1,979,799,0,0
-238,225,0,0,0,0,0,0,0,0,0,-1,986,799,0,0
-231,225,0,0,0,0,0,0,0,0,0,-1,993,799,0,0
-224,225,0,0,0,0,0,0,0,0,0,-1,1000,799,0,0
-217,225,0,0,0,0,0,0,0,0,0,-1,1007,799,0,0
-210,225,0,0,0,0,0,0,0,0,0,-1,1014,799,0,0
-203,225,0,0,0,0,0,0,0,0,0,-1,1021,799,0,0
-196,225,0,0,0,0,0,0,0,0,0,-1,1028,799,0,0
-189,225,0,0,0,0,0,0,0,0,0,-1,1035,799,0,0
-182,225,0,0,0,0,0,0,0,0,0,-1,1042,799,0,0
-175,225,0,0,0,0,0,0,0,0,0,-1,1049,799,0,0
-168,225,0,0,0,0,0,0,0,0,0,-1,1056,799,0,0
-161,225,0,0,0,0,0,0,0,0,0,-1,1063,799,0,0
-154,225,0,0,0,0,0,0,0,0,0,-1,1070,799,0,0
-147,225,0,0,0,0,0,0,0,0,0,-1,1077,799,0,0
-140,225,0,0,0,0,0,0,0,0,0,-1,1084,799,0,0
-133,225,0,0,0,0,0,0,0,0,0,-1,1091,799,0,0
-126,225,0,0,0,0,0,0,0,0,0,-1,1098,799,0,0
-119,225,0,0,0,0,0,0,0,0,0,-1,1105,799,0,0
-112,225,0,0,0,0,0,0,0,0,0,-1,1112,799,0,0
-105,225,0,0,0,0,0,0,0,0,0,-1,1119,799,0,0
-98,225,0,0,0,0,0,0,0,0,0,-1,1126,799,0,0
-91,225,0,0,0,0,0,0,0,0,0,-1,1133,799,0,0
-84,225,0,0,0,0,0,0,0,0,0,-1,1140,799,0,0
-77,225,0,0,0,0,0,0,0,0,0,-1,1147,799,0,0
-70,225,0,0,0,0,0,0,0,0,0,-1,1154,799,0,0
-63,225,0,0,0,0,0,0,0,0,0,-1,1161,799,0,0
-56,225,0,0,0,0,0,0,0,0,0,-1,1168,799,0,0
-49,225,0,0,0,0,0,0,0,0,0,-1,1175,799,0,0
-42,225,0,0,0,0,0,0,0,0,0,-1,1182,799,0,0
-35,225,0,0,0,0,0,0,0,0,0,-1,1189,799,0,0
-28,225,0,0,0,0,0,0,0,0,0,-1,1196,799,0,0
-21,225,0,0,0,0,0,0,0,0,0,-1,1203,799,0,0
-14,225,0,0,0,0,0,0,0,0,0,-1,1210,799,0,0
-7,225,0,0,0,0,0,0,0,0,0,-1,1217,799,0,0
0,225,0,0,0,0,0,0,0,0,0,-1,1224,799,0,0
7,225,0,0,0,0,0,0,0,0,0,-1,1231,799,0,0
14,225,0,0,0,0,0,0,0,0,0,-1,1238,799,0,0
21,225,0,0,0,0,0,0,0,0,0,-1,1245,799,0,0
28,225,0,0,0,0,0,0,0,0,0,-1,1252,799,0,0
35,225,0,0,0,0,0,0,0,0,0,-1,1259,799,0,0
42,225,0,0,0,0,0,0,0,0,0,-1,1266,799,0,0
49,225,0,0,0,0,0,0,0,0,0,-1,1273,799,0,0
56,225,0,0,0,0,0,0,0,0,0,-1,1280,799,0,0
63,225,0,0,0,0,0,0,0,0,0,-1,1287,799,0,0
70,225,0,0,0,0,0,0,0,0,0,-1,1294,799,0,0
77,225,0,0,0,0,0,0,0,0,0,-1,1301,799,0,0
84,225,0,0,0,0,0,0,0,0,0,-1,1308,799,0,0
91,225,0,0,0,0,0,0,0,0,0,-1,1315,799,0,0
98,225,0,0,0,0,0,0,0,0,0,-1,1322,799,0,0
105,225,0,0,0,0,0,0,0,0,0,-1,1329,799,0,0
112,225,0,0,0,0,0,0,0,0,0,-1,1336,799,0,0
119,225,0,0,0,0,0,0,0,0,0,-1,1343,799,0,0
126,225,0,0,0,0,0,0,0,0,0,-1,1350,799,0,0
133,225,0,0,0,0,0,0,0,0,0,-1,1357,799,0,0
140,225,0,0,0,0,0,0,0,0,0,-1,1364,799,0,0
147,225,0,0,0,0,0,0,0,0,0,-1,1371,799,0,0
154,225,0,0,0,0,0,0,0,0,0,-1,1378,799,0,0
161,225,0,0,0,0,0,0,0,0,0,-1,1385,799,0,0
168,225,0,0,0,0,0,0,0,0,0,-1,1392,799,0,0
175,225,0,0,0,0,0,0,0,0,0,-1,1399,799,0,0
182,225,0,0,0,0,0,0,0,0,0,-1,1406,799,0,0
189,225,0,0,0,0,0,0,0,0,0,-1,1413,799,0,0
196,225,0,0,0,0,0,0,0,0,0,-1,1420,799,0,0
203,225,0,0,0,0,0,0,0,0,0,-1,1427,799,0,0
210,225,0,0,0,0,0,0,0,0,0,-1,1434,799,0,0
217,225,0,0,0,0,0,0,0,0,0,-1,1441,799,0,0
224,225,0,0,0,0,0,0,0,0,0,-1,1448,799,0,0
231,225,0,0,0,0,0,0,0,0,0,-1,1455,799,0,0
238,225,0,0,0,0,0,0,0,0,0,-1,1462,799,0,0
245,225,0,0,0,0,0,0,0,0,0,-1,1469,799,0,0
252,225,0,0,0,0,0,0,0,0,0,-1,1476,799,0,0
259,225,0,0,0,0,0,0,0,0,0,-1,1483,799,0,0
266,225,0,0,0,0,0,0,0,0,0,-1,1490,799,0,0
273,225,0,0,0,0,0,0,0,0,0,-1,1497,799,0,0
280,225,0,0,0,0,0,0,0,0,0,-1,1504,799,0,0
287,225,0,0,0,0,0,0,0,0,0,-1,1511,799,0,0
294,225,0,0,0,0,0,0,0,0,0,-1,1518,799,0,0
301,225,0,0,0,0,0,0,0,0,0,-1,1525,799,0,0
308,225,0,0,0,0,0,0,0,0,0,-1,1532,799,0,0
315,225,0,0,0,0,0,0,0,0,0,-1,1539,799,0,0
322,225,0,0,0,0,0,0,0,0,0,-1,1546,799,0,0
329,225,0,0,0,0,0,0,0,0,0,-1,1553,799,0,0
336,225,0,0,0,0,0,0,0,0,0,-1,1560,799,0,0
343,225,0,0,0,0,0,0,0,0,0,-1,1567,799,0,0
350,225,0,0,0,0,0,0,0,0,0,-1,1574,799,0,0
357,225,0,0,0,0,0,0,0,0,0,-1,1581,799,0,0
364,225,0,0,0,0,0,0,0,0,0,-1,1588,799,0,0
371,225,0,0,0,0,0,0,0,0,0,-1,1595,799,0,0
378,225,0,0,0,0,0,0,0,0,0,-1,1602,799,0,0
385,225,0,0,0,0,0,0,0,0,0,-1,1609,799,0,0
392,225,0,0,0,0,0,0,0,0,0,-1,1616,799,0,0
399,225,0,0,0,0,0,0,0,0,0,-1,1623,799,0,0
406,225,0,0,0,0,0,0,0,0,0,-1,1630,799,0,0
413,225,0,0,0,0,0,0,0,0,0,-1,1637,799,0,0
420,225,0,0,0,0,0,0,0,0,0,-1,1644,799,0,0
427,225,0,0,0,0,0,0,0,0,0,-1,1651,799,0,0
434,225,0,0,0,0,0,0,0,0,0,-1,1658,799,0,0
441,225,0,0,0,0,0,0,0,0,0,-1,1665,799,0,0
448,225,0,0,0,0,0,0,0,0,0,-1,1672,799,0,0
455,225,0,0,0,0,0,0,0,0,0,-1,1679,799,0,0
462,225,0,0,0,0,0,0,0,0,0,-1,1686,799,0,0
469,225,0,0,0,0,0,0,0,0,0,-1,1693,799,0,0
476,225,0,0,0,0,0,0,0,0,0,-1,1700,799,0,0
483,225,0,0,0,0,0,0,0,0,0,-1,1707,799,0,0
490,225,0,0,0,0,0,0,0,0,0,-1,1714,799,0,0
497,225,0,0,0,0,0,0,0,0,0,-1,1721,799,0,0
504,225,0,0,0,0,0,0,0,0,0,-1,1728,799,0,0
511,225,0,0,0,0,0,0,0,0,0,-1,1735,799,0,0
518,225,0,0,0,0,0,0,0,0,0,-1,1742,799,0,0
525,225,0,0,0,0,0,0,0,0,0,-1,1749,799,0,0
532,225,0,0,0,0,0,0,0,0,0,-1,1756,799,0,0
539,225,0,0,0,0,0,0,0,0,0,-1,1763,799,0,0
546,225,0,0,0,0,0,0,0,0,0,-1,1770,799,0,0
553,225,0,0,0,0,0,0,0,0,0,-1,1777,799,0,0
560,225,0,0,0,0,0,0,0,0,0,-1,1784,799,0,0
567,225,0,0,0,0,0,0,0,0,0,-1,1791,799,0,0
574,225,0,0,0,0,0,0,0,0,0,-1,1798,799,0,0
581,225,0,0,0,0,0,0,0,0,0,-1,1805,799,0,0
588,225,-0.00524902,0.00897217,0.00400902,0.00316465,-0.000847009,0.00453323,0.00264044,-0.554198,0.0026291,0.0311639,1812,799,-0.00521131,-0.00900204
595,225,-0.00231934,-0.0727539,0.00331852,0.00239693,0.000275937,0.00339482,0.00232063,0.269779,0.00200355,0.0298481,1819,799,-0.00228753,0.0727284
602,225,-0.0928955,0.00616455,0.00251353,0.00122025,0.000782484,0.00288199,0.000851793,0.440084,0.00170965,0.0286595,1826,799,-0.0929332,-0.00616767
609,225,-0.0629883,0.0864258,0.00171209,0.000116458,0.000927607,0.00213778,-0.000309231,0.43024,0.00153866,0.0259906,1833,799,-0.0630035,-0.0863972
616,225,-0.00646973,0.0296021,0.00108061,-0.00083394,0.000834177,0.00139307,-0.0011464,0.358396,0.00146847,0.0312564,1840,799,-0.00650301,-0.0295956
623,225,0.137939,-0.0571289,0.000553529,-0.00156559,0.000682474,0.000754302,-0.00176636,0.286112,0.00149389,0.0373455,1847,799,0.137879,0.0571468
630,225,0.0137939,-0.00262451,0.0001018,-0.00201576,0.000480731,0.000205826,-0.00211979,0.213105,0.00148656,0.0426555,1854,799,0.0137344,0.00261952
637,225,0.0609131,0.214111,-0.000196705,-0.00220352,0.0003101,-0.00014988,-0.00225034,0.149868,0.00145285,0.0459474,1861,799,0.0608589,-0.214115
644,225,0.127686,0.232666,-0.00038254,-0.0022548,0.000201026,-0.000361199,-0.00227614,0.105764,0.00141251,0.0433684,1868,799,0.127738,-0.232688
651,225,0.0517578,0.136719,-0.000452083,-0.00222332,3.18672e-05,-0.00045151,-0.0022239,0.0179837,0.00135736,0.0393102,1875,799,0.0517444,-0.13673
658,225,0.000366211,0.055542,-0.000389466,-0.00201262,-0.000104576,-0.000382756,-0.00201933,-0.0640747,0.00123851,0.031663,1882,799,0.000316297,-0.0555529
665,225,-0.0209961,0.022644,-0.000347352,-0.00161618,-0.000140282,-0.000332028,-0.00163151,-0.108809,0.000995623,0.0119316,1889,799,-0.0209805,-0.0226712
672,225,-0.0385742,0.0675659,-0.000204846,-0.00115252,-0.000184046,-0.000170358,-0.00118701,-0.185241,0.000741107,0.0157455,1896,799,-0.0385658,-0.067592
679,225,-0.0440674,0.0767212,2.8336e-05,-0.000832964,-8.90652e-05,3.74496e-05,-0.000842077,-0.10197,0.000574275,0.014818,1903,799,-0.0440262,-0.076705
686,225,-0.0316162,0.05896,0.00113947,-0.000442375,-0.000482742,0.00127515,-0.000578058,-0.273999,0.00109489,0.00901284,1910,799,-0.0315559,-0.0589668
693,225,-0.0427246,0.046875,0.00246931,0.000222069,-0.000874824,0.00276971,-7.8333e-05,-0.33077,0.00187313,0.00908623,1917,799,-0.0427494,-0.0468972
700,225,-0.0393066,0.0462646,0.0039016,0.000385847,-0.00112465,0.00423058,5.687e-05,-0.284577,0.00280162,0.0106189,1924,799,-0.0393004,-0.0462521
707,225,-0.0367432,0.0591431,0.00569946,0.00167524,-0.00278502,0.00712318,0.000251519,-0.472572,0.00466721,0.0110947,1931,799,-0.0367437,-0.0591472
714,225,-0.0340576,0.0469971,0.00841669,0.00203006,-0.0046661,0.0108776,-0.000430809,-0.48532,0.00739949,0.0119795,1938,799,-0.0340939,-0.0469904
721,225,-0.0217285,0.059021,0.0114376,0.00198608,-0.0061877,0.0144978,-0.00107406,-0.459281,0.0100424,0.0128553,1945,799,-0.0217618,-0.0590036
728,225,-0.0332031,0.125427,0.0151018,0.00260382,-0.00845675,0.0193679,-0.00166225,-0.467207,0.0135002,0.0208395,1952,799,-0.033259,-0.125398
735,225,-0.196777,0.261414,0.019233,0.00328388,-0.011309,0.0250963,-0.0025794,-0.478309,0.0176536,0.0388117,1959,799,-0.196822,-0.261395
742,225,-0.331055,0.372009,0.0238355,0.00391453,-0.0146796,0.0316149,-0.00386482,-0.487314,0.0224759,0.0495059,1966,799,-0.331042,-0.372035
749,225,-0.554077,0.37146,0,0,0,0,0,0,0,-1,1973,799,-0.554105,-0.371471
756,225,1.53491,-0.741699,0.0343059,0.00422046,-0.0228527,0.0466224,-0.00809609,-0.494323,0.0341022,0.0472243,1980,799,1.53495,0.741705
763,225,1.08862,-1.34552,0.0401608,0.00311163,-0.027422,0.0547289,-0.0114565,-0.488339,0.0408439,0.044315,1987,799,1.08857,1.34552
770,225,0,0,0,0,0,0,0,0,0,-1,1994,799,0,0
777,225,0,0,0,0,0,0,0,0,0,-1,2001,799,0,0
784,225,0,0,0,0,0,0,0,0,0,-1,2008,799,0,0
791,225,0,0,0,0,0,0,0,0,0,-1,2015,799,0,0
798,225,0,0,0,0,0,0,0,0,0,-1,2022,799,0,0
805,225,0,0,0,0,0,0,0,0,0,-1,2029,799,0,0
812,225,0,0,0,0,0,0,0,0,0,-1,2036,799,0,0
-700,218,0,0,0,0,0,0,0,0,0,-1,524,806,0,0
-693,218,0,0,0,0,0,0,0,0,0,-1,531,806,0,0
-686,218,0,0,0,0,0,0,0,0,0,-1,538,806,0,0
-679,218,0,0,0,0,0,0,0,0,0,-1,545,806,0,0
-672,218,0,0,0,0,0,0,0,0,0,-1,552,806,0,0
-665,218,0,0,0,0,0,0,0,0,0,-1,559,806,0,0
-658,218,0,0,0,0,0,0,0,0,0,-1,566,806,0,0
-651,218,-0.231689,-0.814941,0.0395146,-0.0243899,0.0217376,0.0462078,-0.0310832,0.298696,0.0449078,0.0432067,573,806,-0.23167,0.81496
-644,218,0.283447,-0.450195,0.0296335,-0.021869,0.0206802,0.0369095,-0.0291449,0.338307,0.0382243,0.0434828,580,806,0.283476,0.450188
-637,218,-0.640198,-1.18073,0,0,0,0,0,0,0,-1,587,806,-0.640176,1.18073
-630,218,-0.478882,-0.7995,0.0147093,-0.0153217,0.0158805,0.0215491,-0.0221615,0.406694,0.0252372,0.0453085,594,806,-0.478887,0.799505
-623,218,-0.559509,-0.167603,0.00965412,-0.012172,0.0130677,0.0157663,-0.0182843,0.437503,0.019677,0.0478995,601,806,-0.559515,0.16763
-616,218,0.232605,-0.00518799,0.00586034,-0.00935738,0.0103201,0.0110733,-0.0145703,0.467741,0.0148512,0.0448493,608,806,0.232615,0.00519487
-609,218,-0.122131,-0.112427,0.00308275,-0.00701117,0.00781502,0.00733882,-0.0112672,0.498689,0.0108217,0.0397524,615,806,-0.122151,0.112409
-602,218,-0.187073,-0.00518799,0.00126357,-0.00513902,0.00564654,0.00455317,-0.00842863,0.527517,0.00760555,0.0336449,622,806,-0.187094,0.00518993
-595,218,-0.0918579,0.0523682,3.37149e-05,-0.00336351,0.00394406,0.00262939,-0.00595918,0.582064,0.00508132,0.0142654,629,806,-0.0918357,-0.0523755
-588,218,-0.0475464,0.0575562,-0.000647356,-0.00214568,0.00234001,0.00106049,-0.00385352,0.630477,0.00298596,0.00981104,636,806,-0.0475298,-0.0575465
-581,218,-0.0315552,0.0570679,-0.000677081,-0.000890418,0.00129772,0.000518344,-0.00208584,0.744392,0.00159173,0.00971751,643,806,-0.0315395,-0.0570383
-574,218,-0.0292358,0.0471802,-0.000510875,-3.69121e-05,0.000180984,2.42933e-05,-0.00057208,1.24469,0.000389737,0.00911868,650,806,-0.029236,-0.0471939
-567,218,-0.0132446,0.0276489,-0.000405132,0.000372495,-0.000522413,0.000634904,-0.000667541,-1.10531,0.000752046,0.0147672,657,806,-0.0132555,-0.0276741
-560,218,-0.0230713,0.0544434,4.60776e-05,0.000358127,-0.000470727,0.000698013,-0.000293809,-0.945427,0.000588266,0.0158079,664,806,-0.0230848,-0.0544286
-553,218,-0.0241699,0.0523682,0.00102327,0.000184619,-6.0144e-06,0.00102331,0.000184576,-0.00717105,0.000629762,0.0171013,671,806,-0.0241617,-0.0523927
-546,218,-0.0214844,0.043396,0.00149608,-0.00020375,0.000510987,0.00163787,-0.000345532,0.270658,0.00122346,0.014442,678,806,-0.0214542,-0.0433888
-539,218,-0.022522,0.0570068,0.00151544,-0.000544099,0.000850997,0.00182157,-0.000850226,0.345314,0.00157618,0.0137263,685,806,-0.0225241,-0.0570238
-532,218,-0.0726318,0.0421753,0.00149621,-0.00098866,0.0012328,0.00200404,-0.00149649,0.390751,0.0020281,0.0140582,692,806,-0.0726577,-0.0421946
-525,218,-0.0985718,0.131653,0.00185807,-0.00153775,0.00160156,0.00249423,-0.00217391,0.378101,0.00269727,0.0407095,699,806,-0.0985821,-0.131662
-518,218,-0.11145,0.205017,0,0,0,0,0,0,0,-1,706,806,-0.111477,-0.204991
-511,218,0.600037,-0.0637817,0,0,0,0,0,0,0,-1,713,806,0.600037,0.0637525
-504,218,0.556213,0.521484,0,0,0,0,0,0,0,-1,720,806,0.556222,-0.521507
-497,218,-0.0183105,0.0120239,0.00241247,-0.00198274,0.0019221,0.00313445,-0.00270471,0.359312,0.00337428,0.0494171,727,806,-0.0183234,-0.0120136
-490,218,-0.0888062,-0.00292969,0.00249508,-0.00135148,0.00135567,0.00292485,-0.00178125,0.306996,0.00274368,0.0351798,734,806,-0.0888127,0.00292193
-483,218,-0.0278931,-0.000427246,0.0024842,-6.17899e-05,0.00029867,0.00251877,-9.63574e-05,0.115226,0.0017122,0.0315512,741,806,-0.0278915,0.000448306
-476,218,0.0492554,-0.0184326,0.00241574,0.00239097,-0.00142112,0.00382453,0.000982176,-0.781041,0.0022935,0.034984,748,806,0.0492499,0.0184025
-469,218,0,0,0,0,0,0,0,0,0,-1,755,806,0,0
-462,218,0,0,0,0,0,0,0,0,0,-1,762,806,0,0
-455,218,0,0,0,0,0,0,0,0,0,-1,769,806,0,0
-448,218,0,0,0,0,0,0,0,0,0,-1,776,806,0,0
-441,218,0,0,0,0,0,0,0,0,0,-1,783,806,0,0
-434,218,0,0,0,0,0,0,0,0,0,-1,790,806,0,0
-427,218,0,0,0,0,0,0,0,0,0,-1,797,806,0,0
-420,218,0,0,0,0,0,0,0,0,0,-1,804,806,0,0
-413,218,0,0,0,0,0,0,0,0,0,-1,811,806,0,0
-406,218,0,0,0,0,0,0,0,0,0,-1,818,806,0,0
-399,218,0,0,0,0,0,0,0,0,0,-1,825,806,0,0
-392,218,0,0,0,0,0,0,0,0,0,-1,832,806,0,0
-385,218,0,0,0,0,0,0,0,0,0,-1,839,806,0,0
-378,218,0,0,0,0,0,0,0,0,0,-1,846,806,0,0
-371,218,0,0,0,0,0,0,0,0,0,-1,853,806,0,0
-364,218,0,0,0,0,0,0,0,0,0,-1,860,806,0,0
-357,218,0,0,0,0,0,0,0,0,0,-1,867,806,0,0
-350,218,0,0,0,0,0,0,0,0,0,-1,874,806,0,0
-343,218,0,0,0,0,0,0,0,0,0,-1,881,806,0,0
-336,218,0,0,0,0,0,0,0,0,0,-1,888,806,0,0
-329,218,0,0,0,0,0,0,0,0,0,-1,895,806,0,0
-322,218,0,0,0,0,0,0,0,0,0,-1,902,806,0,0
-315,218,0,0,0,0,0,0,0,0,0,-1,909,806,0,0
-308,218,0,0,0,0,0,0,0,0,0,-1,916,806,0,0
-301,218,0,0,0,0,0,0,0,0,0,-1,923,806,0,0
-294,218,0,0,0,0,0,0,0,0,0,-1,930,806,0,0
-287,218,0,0,0,0,0,0,0,0,0,-1,937,806,0,0
-280,218,0,0,0,0,0,0,0,0,0,-1,944,806,0,0
-273,218,0,0,0,0,0,0,0,0,0,-1,951,806,0,0
-266,218,0,0,0,0,0,0,0,0,0,-1,958,806,0,0
-259,218,0,0,0,0,0,0,0,0,0,-1,965,806,0,0
-252,218,0,0,0,0,0,0,0,0,0,-1,972,806,0,0
-245,218,0,0,0,0,0,0,0,0,0,-1,979,806,0,0
-238,218,0,0,0,0,0,0,0,0,0,-1,986,806,0,0
-231,218,0,0,0,0,0,0,0,0,0,-1,993,806,0,0
-224,218,0,0,0,0,0,0,0,0,0,-1,1000,806,0,0
-217,218,0,0,0,0,0,0,0,0,0,-1,1007,806,0,0
-210,218,0,0,0,0,0,0,0,0,0,-1,1014,806,0,0
-203,218,0,0,0,0,0,0,0,0,0,-1,1021,806,0,0
-196,218,0,0,0,0,0,0,0,0,0,-1,1028,806,0,0
-189,218,0,0,0,0,0,0,0,0,0,-1,1035,806,0,0
-182,218,0,0,0,0,0,0,0,0,0,-1,1042,806,0,0
-175,218,0,0,0,0,0,0,0,0,0,-1,1049,806,0,0
-168,218,0,0,0,0,0,0,0,0,0,-1,1056,806,0,0
-161,218,0,0,0,0,0,0,0,0,0,-1,1063,806,0,0
-154,218,0,0,0,0,0,0,0,0,0,-1,1070,806,0,0
-147,218,0,0,0,0,0,0,0,0,0,-1,1077,806,0,0
-140,218,0,0,0,0,0,0,0,0,0,-1,1084,806,0,0
-133,218,0,0,0,0,0,0,0,0,0,-1,1091,806,0,0
-126,218,0,0,0,0,0,0,0,0,0,-1,1098,806,0,0
-119,218,0,0,0,0,0,0,0,0,0,-1,1105,806,0,0
-112,218,0,0,0,0,0,0,0,0,0,-1,1112,806,0,0
-105,218,0,0,0,0,0,0,0,0,0,-1,1119,806,0,0
-98,218,0,0,0,0,0,0,0,0,0,-1,1126,806,0,0
-91,218,0,0,0,0,0,0,0,0,0,-1,1133,806,0,0
-84,218,0,0,0,0,0,0,0,0,0,-1,1140,806,0,0
-77,218,0,0,0,0,0,0,0,0,0,-1,1147,806,0,0
-70,218,0,0,0,0,0,0,0,0,0,-1,1154,806,0,0
-63,218,0,0,0,0,0,0,0,0,0,-1,1161,806,0,0
-56,218,0,0,0,0,0,0,0,0,0,-1,1168,806,0,0
-49,218,0,0,0,0,0,0,0,0,0,-1,1175,806,0,0
-42,218,0,0,0,0,0,0,0,0,0,-1,1182,806,0,0
-35,218,0,0,0,0,0,0,0,0,0,-1,1189,806,0,0
-28,218,0,0,0,0,0,0,0,0,0,-1,1196,806,0,0
-21,218,0,0,0,0,0,0,0,0,0,-1,1203,806,0,0
-14,218,0,0,0,0,0,0,0,0,0,-1,1210,806,0,0
-7,218,0,0,0,0,0,0,0,0,0,-1,1217,806,0,0
0,218,0,0,0,0,0,0,0,0,0,-1,1224,806,0,0
7,218,0,0,0,0,0,0,0,0,0,-1,1231,806,0,0
14,218,0,0,0,0,0,0,0,0,0,-1,1238,806,0,0
21,218,0,0,0,0,0,0,0,0,0,-1,1245,806,0,0
28,218,0,0,0,0,0,0,0,0,0,-1,1252,806,0,0
35,218,0,0,0,0,0,0,0,0,0,-1,1259,806,0,0
42,218,0,0,0,0,0,0,0,0,0,-1,1266,806,0,0
49,218,0,0,0,0,0,0,0,0,0,-1,1273,806,0,0
56,218,0,0,0,0,0,0,0,0,0,-1,1280,806,0,0
63,218,0,0,0,0,0,0,0,0,0,-1,1287,806,0,0
70,218,0,0,0,0,0,0,0,0,0,-1,1294,806,0,0
77,218,0,0,0,0,0,0,0,0,0,-1,1301,806,0,0
84,218,0,0,0,0,0,0,0,0,0,-1,1308,806,0,0
91,218,0,0,0,0,0,0,0,0,0,-1,1315,806,0,0
98,218,0,0,0,0,0,0,0,0,0,-1,1322,806,0,0
105,218,0,0,0,0,0,0,0,0,0,-1,1329,806,0,0
112,218,0,0,0,0,0,0,0,0,0,-1,1336,806,0,0
119,218,0,0,0,0,0,0,0,0,0,-1,1343,806,0,0
126,218,0,0,0,0,0,0,0,0,0,-1,1350,806,0,0
133,218,0,0,0,0,0,0,0,0,0,-1,1357,806,0,0
140,218,0,0,0,0,0,0,0,0,0,-1,1364,806,0,0
147,218,0,0,0,0,0,0,0,0,0,-1,1371,806,0,0
154,218,0,0,0,0,0,0,0,0,0,-1,1378,806,0,0
161,218,0,0,0,0,0,0,0,0,0,-1,1385,806,0,0
168,218,0,0,0,0,0,0,0,0,0,-1,1392,806,0,0
175,218,0,0,0,0,0,0,0,0,0,-1,1399,806,0,0
182,218,0,0,0,0,0,0,0,0,0,-1,1406,806,0,0
189,218,0,0,0,0,0,0,0,0,0,-1,1413,806,0,0
196,218,0,0,0,0,0,0,0,0,0,-1,1420,806,0,0
203,218,0,0,0,0,0,0,0,0,0,-1,1427,806,0,0
210,218,0,0,0,0,0,0,0,0,0,-1,1434,806,0,0
217,218,0,0,0,0,0,0,0,0,0,-1,1441,806,0,0
224,218,0,0,0,0,0,0,0,0,0,-1,1448,806,0,0
231,218,0,0,0,0,0,0,0,0,0,-1,1455,806,0,0
238,218,0,0,0,0,0,0,0,0,0,-1,1462,806,0,0
245,218,0,0,0,0,0,0,0,0,0,-1,1469,806,0,0
252,218,0,0,0,0,0,0,0,0,0,-1,1476,806,0,0
259,218,0,0,0,0,0,0,0,0,0,-1,1483,806,0,0
266,218,0,0,0,0,0,0,0,0,0,-1,1490,806,0,0
273,218,0,0,0,0,0,0,0,0,0,-1,1497,806,0,0
280,218,0,0,0,0,0,0,0,0,0,-1,1504,806,0,0
287,218,0,0,0,0,0,0,0,0,0,-1,1511,806,0,0
294,218,0,0,0,0,0,0,0,0,0,-1,1518,806,0,0
301,218,0,0,0,0,0,0,0,0,0,-1,1525,806,0,0
308,218,0,0,0,0,0,0,0,0,0,-1,1532,806,0,0
315,218,0,0,0,0,0,0,0,0,0,-1,1539,806,0,0
322,218,0,0,0,0,0,0,0,0,0,-1,1546,806,0,0
329,218,0,0,0,0,0,0,0,0,0,-1,1553,806,0,0
336,218,0,0,0,0,0,0,0,0,0,-1,1560,806,0,0
343,218,0,0,0,0,0,0,0,0,0,-1,1567,806,0,0
350,218,0,0,0,0,0,0,0,0,0,-1,1574,806,0,0
357,218,0,0,0,0,0,0,0,0,0,-1,1581,806,0,0
364,218,0,0,0,0,0,0,0,0,0,-1,1588,806,0,0
371,218,0,0,0,0,0,0,0,0,0,-1,1595,806,0,0
378,218,0,0,0,0,0,0,0,0,0,-1,1602,806,0,0
385,218,0,0,0,0,0,0,0,0,0,-1,1609,806,0,0
392,218,0,0,0,0,0,0,0,0,0,-1,1616,806,0,0
399,218,0,0,0,0,0,0,0,0,0,-1,1623,806,0,0
406,218,0,0,0,0,0,0,0,0,0,-1,1630,806,0,0
413,218,0,0,0,0,0,0,0,0,0,-1,1637,806,0,0
420,218,0,0,0,0,0,0,0,0,0,-1,1644,806,0,0
427,218,0,0,0,0,0,0,0,0,0,-1,1651,806,0,0
434,218,0,0,0,0,0,0,0,0,0,-1,1658,806,0,0
441,218,0,0,0,0,0,0,0,0,0,-1,1665,806,0,0
448,218,0,0,0,0,0,0,0,0,0,-1,1672,806,0,0
455,218,0,0,0,0,0,0,0,0,0,-1,1679,806,0,0
462,218,0,0,0,0,0,0,0,0,0,-1,1686,806,0,0
469,218,0,0,0,0,0,0,0,0,0,-1,1693,806,0,0
476,218,0,0,0,0,0,0,0,0,0,-1,1700,806,0,0
483,218,0,0,0,0,0,0,0,0,0,-1,1707,806,0,0
490,218,0,0,0,0,0,0,0,0,0,-1,1714,806,0,0
497,218,0,0,0,0,0,0,0,0,0,-1,1721,806,0,0
504,218,0,0,0,0,0,0,0,0,0,-1,1728,806,0,0
511,218,0,0,0,0,0,0,0,0,0,-1,1735,806,0,0
518,218,0,0,0,0,0,0,0,0,0,-1,1742,806,0,0
525,218,0,0,0,0,0,0,0,0,0,-1,1749,806,0,0
532,218,0,0,0,0,0,0,0,0,0,-1,1756,806,0,0
539,218,0,0,0,0,0,0,0,0,0,-1,1763,806,0,0
546,218,0,0,0,0,0,0,0,0,0,-1,1770,806,0,0
553,218,0,0,0,0,0,0,0,0,0,-1,1777,806,0,0
560,218,0,0,0,0,0,0,0,0,0,-1,1784,806,0,0
567,218,0,0,0,0,0,0,0,0,0,-1,1791,806,0,0
574,218,0,0,0,0,0,0,0,0,0,-1,1798,806,0,0
581,218,0,0,0,0,0,0,0,0,0,-1,1805,806,0,0
588,218,0,0,0,0,0,0,0,0,0,-1,1812,806,0,0
595,218,0.0206299,-0.0130615,0.00144259,0.00218254,0.000777311,0.00267344,0.000951697,1.00752,0.00156471,0.0323105,1819,806,0.0206314,0.0130658
602,218,-0.022583,0.0637817,0.00121456,0.00108347,0.00123115,0.0023819,-8.38793e-05,0.758803,0.00161662,0.028041,1826,806,-0.0225865,-0.0637622
609,218,-0.0599365,0.0896606,0.000839632,0.000125544,0.0012913,0.00182234,-0.000857166,0.650518,0.00158011,0.0248969,1833,806,-0.0599334,-0.0896821
616,218,-0.050415,0.0825195,0.00053113,-0.000745364,0.00111469,0.00117736,-0.00139159,0.525391,0.00148491,0.0276156,1840,806,-0.0504039,-0.0825005
623,218,-0.0328369,0.0373535,0.000246258,-0.00140744,0.000890895,0.000634882,-0.00179606,0.411334,0.0014559,0.0327389,1847,806,-0.0328032,-0.0373267
630,218,-0.116211,0.088501,-1.3612e-05,-0.00181856,0.000644845,0.000193096,-0.00202527,0.310206,0.00141893,0.0368432,1854,806,-0.116176,-0.0884844
637,218,-0.0147705,0.166443,0,0,0,0,0,0,0,-1,1861,806,-0.0147481,-0.166426
644,218,0.101318,0.106812,0,0,0,0,0,0,0,-1,1868,806,0.101342,-0.106824
651,218,0.0183105,0.0149536,-0.000391083,-0.00201934,0.000151718,-0.000377067,-0.00203335,0.0921219,0.001249,0.04112,1875,806,0.0182632,-0.0149758
658,218,-0.0454102,0.0561523,-0.000324693,-0.00182997,2.36089e-05,-0.000324323,-0.00183034,0.015679,0.00112777,0.0373378,1882,806,-0.0454002,-0.0561673
665,218,-0.00854492,-0.00506592,-0.000272697,-0.00149977,-1.60149e-05,-0.000272488,-0.00149998,-0.0130483,0.000922665,0.0219276,1889,806,-0.00856083,0.00503583
672,218,-0.0202637,0.0432739,-0.00022274,-0.0011184,-3.37119e-05,-0.000221473,-0.00111967,-0.0375683,0.000684667,0.0100412,1896,806,-0.0202179,-0.0432766
679,218,-0.0410156,0.038269,-0.000114255,-0.000916717,5.06171e-05,-0.000111075,-0.000919897,0.0627458,0.000579797,0.00996398,1903,806,-0.0410346,-0.0382403
686,218,-0.0367432,0.0421753,0.000745332,-0.000650616,-0.000267962,0.000795002,-0.000700286,-0.183282,0.000863882,0.00931988,1910,806,-0.0367959,-0.0421671
693,218,-0.0335693,0.0477905,0.00181782,-0.000192483,-0.00054075,0.00195404,-0.000328708,-0.246784,0.00142496,0.00979728,1917,806,-0.0335352,-0.0477607
700,218,-0.029541,0.0499878,0.00294952,-0.000255058,-0.000669124,0.00308362,-0.000389161,-0.197795,0.00219699,0.00883006,1924,806,-0.0295562,-0.0500024
707,218,-0.0411377,0.0606689,0.00427686,0.000652924,-0.00204038,0.0051937,-0.000263918,-0.422311,0.00355371,0.00719116,1931,806,-0.0411843,-0.0606759
714,218,-0.0386963,0.0600586,0.00635369,0.000659227,-0.00350437,0.00802169,-0.00100878,-0.444246,0.00571381,0.00866993,1938,806,-0.0387309,-0.0600612
721,218,-0.0247803,0.0551147,0.0087049,-7.13151e-06,-0.00443524,0.0105655,-0.00186773,-0.397205,0.00774171,0.0111169,1945,806,-0.0248384,-0.0551045
728,218,-0.010376,0.0545654,0.0116133,-6.36434e-05,-0.00598193,0.0141337,-0.00258408,-0.398768,0.0103915,0.0165265,1952,806,-0.0104296,-0.0545839
735,218,-0.0450439,0.157471,0,0,0,0,0,0,0,-1,1959,806,-0.0450908,-0.157477
742,218,-0.163452,0.278015,0,0,0,0,0,0,0,-1,1966,806,-0.163403,-0.277985
749,218,1.58032,-0.163574,0,0,0,0,0,0,0,-1,1973,806,1.58026,0.163599
756,218,1.37781,-0.708313,0.0272296,-0.00226434,-0.0148231,0.0333919,-0.00842666,-0.393987,0.0255379,0.0468161,1980,806,1.3778,0.708332
763,218,1.25281,-1.14392,0.0325063,-0.00429837,-0.0170829,0.0392132,-0.0110052,-0.374115,0.0304801,0.0477944,1987,806,1.25275,1.14393
770,218,0,0,0,0,0,0,0,0,0,-1,1994,806,0,0
777,218,0,0,0,0,0,0,0,0,0,-1,2001,806,0,0
784,218,0,0,0,0,0,0,0,0,0,-1,2008,806,0,0
791,218,0,0,0,0,0,0,0,0,0,-1,2015,806,0,0
798,218,0,0,0,0,0,0,0,0,0,-1,2022,806,0,0
805,218,0,0,0,0,0,0,0,0,0,-1,2029,806,0,0
812,218,0,0,0,0,0,0,0,0,0,-1,2036,806,0,0
-700,211,0,0,0,0,0,0,0,0,0,-1,524,813,0,0
-693,211,0,0,0,0,0,0,0,0,0,-1,531,813,0,0
-686,211,0,0,0,0,0,0,0,0,0,-1,538,813,0,0
-679,211,0,0,0,0,0,0,0,0,0,-1,545,813,0,0
-672,211,0,0,0,0,0,0,0,0,0,-1,552,813,0,0
-665,211,0,0,0,0,0,0,0,0,0,-1,559,813,0,0
-658,211,0,0,0,0,0,0,0,0,0,-1,566,813,0,0
-651,211,-0.0895386,-0.575928,0.037039,-0.0217179,0.0177813,0.042001,-0.0266799,0.272135,0.0399805,0.0419779,573,813,-0.0895295,0.575937
-644,211,0.146912,-0.467407,0.0279516,-0.0195526,0.0167633,0.0332713,-0.0248723,0.30729,0.0336858,0.0418243,580,813,0.146888,0.46742
-637,211,-0.612244,-0.885193,0,0,0,0,0,0,0,-1,587,813,-0.612245,0.885207
-630,211,-0.555664,-0.708801,0.0145308,-0.0138716,0.012915,0.0195252,-0.018866,0.368999,0.0221662,0.0417157,594,813,-0.555687,0.70881
-623,211,-0.445068,-0.387634,0.00992956,-0.0111055,0.0106794,0.014401,-0.0155769,0.396517,0.0173122,0.0442618,601,813,-0.445084,0.387615
-616,211,-0.100708,-0.155151,0.006431,-0.00861591,0.0084824,0.0102457,-0.0124306,0.42262,0.0131124,0.0422795,608,813,-0.100699,0.155159
-609,211,0.199463,0.159851,0,0,0,0,0,0,0,-1,615,813,0.199439,-0.159861
-602,211,-0.0194702,0.0465698,0.00194766,-0.00490042,0.00471681,0.0043522,-0.00730496,0.471442,0.00680185,0.0159464,622,813,-0.019492,-0.0465625
-595,211,-0.0376587,0.0614624,0.000684424,-0.00322478,0.00333922,0.00259904,-0.0051394,0.52061,0.00454733,0.00882567,629,813,-0.0376505,-0.0614585
-588,211,-0.0270386,0.0649414,-6.74722e-05,-0.0020806,0.00196104,0.00113024,-0.00327832,0.54829,0.00264408,0.00964237,636,813,-0.0270676,-0.0649277
-581,211,-0.0244141,0.0612183,-0.00017674,-0.000848705,0.00106793,0.000606809,-0.00163225,0.632994,0.00133715,0.0108041,643,813,-0.0244254,-0.0612449
-574,211,-0.0414429,0.0630493,-5.66464e-05,-1.68011e-05,7.41944e-05,4.00989e-05,-0.000113546,0.916564,9.20236e-05,0.011753,650,813,-0.0414363,-0.0630535
-567,211,-0.043457,0.0715332,-4.36249e-05,0.000397604,-0.000568255,0.000786567,-0.000432588,-0.970558,0.000713701,0.0174165,657,813,-0.0434361,-0.0715359
-560,211,-0.0458984,0.0651245,0.000315837,0.000439466,-0.000538534,0.000919722,-0.000164419,-0.84254,0.000674666,0.019765,664,813,-0.0458683,-0.0651234
-553,211,-0.0488892,0.0369873,0.00120283,0.000385365,-0.000110972,0.00121763,0.000370568,-0.132556,0.000720716,0.0173281,671,813,-0.0488784,-0.0369616
-546,211,-0.0386963,0.0458984,0.00168114,0.000129925,0.000326865,0.00174721,6.38631e-05,0.199421,0.00114411,0.0157458,678,813,-0.0387022,-0.0459288
-539,211,-0.0471191,0.0491943,0.0017993,-0.000124394,0.000613639,0.00197837,-0.000303469,0.283939,0.00143084,0.00963486,685,813,-0.0471327,-0.0491925
-532,211,-0.0594482,-0.0130615,0.00187089,-0.000490258,0.000964759,0.00221496,-0.000834319,0.342569,0.00181966,0.0276008,692,813,-0.0594784,0.0130382
-525,211,0.228271,-0.23584,0.00222324,-0.00096421,0.00130668,0.00269043,-0.0014314,0.343375,0.00241646,0.0429849,699,813,0.228269,0.235854
-518,211,0.422607,-0.351563,0,0,0,0,0,0,0,-1,706,813,0.422633,0.351558
-511,211,0.293701,-0.175964,0,0,0,0,0,0,0,-1,713,813,0.293682,0.175961
-504,211,0.293823,0.189148,0,0,0,0,0,0,0,-1,720,813,0.293841,-0.189135
-497,211,-0.0719604,-0.0345459,0.00255478,-0.00135282,0.00153262,0.00308418,-0.00188221,0.332588,0.0028952,0.0465781,727,813,-0.0719427,0.034546
-490,211,-0.0343628,-0.0310669,0.0024575,-0.000686666,0.000875227,0.00268472,-0.000913879,0.253998,0.00215988,0.0340942,734,813,-0.034381,0.0310665
-483,211,0.0297241,-0.0427856,0.00220605,0.000731188,-0.00040351,0.00230923,0.000628009,-0.250339,0.00137868,0.0319536,741,813,0.029715,0.0428
-476,211,0.0490112,-0.024292,0.00191038,0.00365788,-0.00247917,0.00541276,0.000155501,-0.95482,0.00355781,0.0343084,748,813,0.0490329,0.0242748
-469,211,0,0,0,0,0,0,0,0,0,-1,755,813,0,0
-462,211,0,0,0,0,0,0,0,0,0,-1,762,813,0,0
-455,211,0,0,0,0,0,0,0,0,0,-1,769,813,0,0
-448,211,0,0,0,0,0,0,0,0,0,-1,776,813,0,0
-441,211,0,0,0,0,0,0,0,0,0,-1,783,813,0,0
-434,211,0,0,0,0,0,0,0,0,0,-1,790,813,0,0
-427,211,0,0,0,0,0,0,0,0,0,-1,797,813,0,0
-420,211,0,0,0,0,0,0,0,0,0,-1,804,813,0,0
-413,211,0,0,0,0,0,0,0,0,0,-1,811,813,0,0
-406,211,0,0,0,0,0,0,0,0,0,-1,818,813,0,0
-399,211,0,0,0,0,0,0,0,0,0,-1,825,813,0,0
-392,211,0,0,0,0,0,0,0,0,0,-1,832,813,0,0
-385,211,0,0,0,0,0,0,0,0,0,-1,839,813,0,0
-378,211,0,0,0,0,0,0,0,0,0,-1,846,813,0,0
-371,211,0,0,0,0,0,0,0,0,0,-1,853,813,0,0
-364,211,0,0,0,0,0,0,0,0,0,-1,860,813,0,0
-357,211,0,0,0,0,0,0,0,0,0,-1,867,813,0,0
-350,211,0,0,0,0,0,0,0,0,0,-1,874,813,0,0
-343,211,0,0,0,0,0,0,0,0,0,-1,881,813,0,0
-336,211,0,0,0,0,0,0,0,0,0,-1,888,813,0,0
-329,211,0,0,0,0,0,0,0,0,0,-1,895,813,0,0
-322,211,0,0,0,0,0,0,0,0,0,-1,902,813,0,0
-315,211,0,0,0,0,0,0,0,0,0,-1,909,813,0,0
-308,211,0,0,0,0,0,0,0,0,0,-1,916,813,0,0
-301,211,0,0,0,0,0,0,0,0,0,-1,923,813,0,0
-294,211,0,0,0,0,0,0,0,0,0,-1,930,813,0,0
-287,211,0,0,0,0,0,0,0,0,0,-1,937,813,0,0
-280,211,0,0,0,0,0,0,0,0,0,-1,944,813,0,0
-273,211,0,0,0,0,0,0,0,0,0,-1,951,813,0,0
-266,211,0,0,0,0,0,0,0,0,0,-1,958,813,0,0
-259,211,0,0,0,0,0,0,0,0,0,-1,965,813,0,0
-252,211,0,0,0,0,0,0,0,0,0,-1,972,813,0,0
-245,211,0,0,0,0,0,0,0,0,0,-1,979,813,0,0
-238,211,0,0,0,0,0,0,0,0,0,-1,986,813,0,0
-231,211,0,0,0,0,0,0,0,0,0,-1,993,813,0,0
-224,211,0,0,0,0,0,0,0,0,0,-1,1000,813,0,0
-217,211,0,0,0,0,0,0,0,0,0,-1,1007,813,0,0
-210,211,0,0,0,0,0,0,0,0,0,-1,1014,813,0,0
-203,211,0,0,0,0,0,0,0,0,0,-1,1021,813,0,0
-196,211,0,0,0,0,0,0,0,0,0,-1,1028,813,0,0
-189,211,0,0,0,0,0,0,0,0,0,-1,1035,813,0,0
-182,211,0,0,0,0,0,0,0,0,0,-1,1042,813,0,0
-175,211,0,0,0,0,0,0,0,0,0,-1,1049,813,0,0
-168,211,0,0,0,0,0,0,0,0,0,-1,1056,813,0,0
-161,211,0,0,0,0,0,0,0,0,0,-1,1063,813,0,0
-154,211,0,0,0,0,0,0,0,0,0,-1,1070,813,0,0
-147,211,0,0,0,0,0,0,0,0,0,-1,1077,813,0,0
-140,211,0,0,0,0,0,0,0,0,0,-1,1084,813,0,0
-133,211,0,0,0,0,0,0,0,0,0,-1,1091,813,0,0
-126,211,0,0,0,0,0,0,0,0,0,-1,1098,813,0,0
-119,211,0,0,0,0,0,0,0,0,0,-1,1105,813,0,0
-112,211,0,0,0,0,0,0,0,0,0,-1,1112,813,0,0
-105,211,0,0,0,0,0,0,0,0,0,-1,1119,813,0,0
-98,211,0,0,0,0,0,0,0,0,0,-1,1126,813,0,0
-91,211,0,0,0,0,0,0,0,0,0,-1,1133,813,0,0
-84,211,0,0,0,0,0,0,0,0,0,-1,1140,813,0,0
-77,211,0,0,0,0,0,0,0,0,0,-1,1147,813,0,0
-70,211,0,0,0,0,0,0,0,0,0,-1,1154,813,0,0
-63,211,0,0,0,0,0,0,0,0,0,-1,1161,813,0,0
-56,211,0,0,0,0,0,0,0,0,0,-1,1168,813,0,0
-49,211,0,0,0,0,0,0,0,0,0,-1,1175,813,0,0
-42,211,0,0,0,0,0,0,0,0,0,-1,1182,813,0,0
-35,211,0,0,0,0,0,0,0,0,0,-1,1189,813,0,0
-28,211,0,0,0,0,0,0,0,0,0,-1,1196,813,0,0
-21,211,0,0,0,0,0,0,0,0,0,-1,1203,813,0,0
-14,211,0,0,0,0,0,0,0,0,0,-1,1210,813,0,0
-7,211,0,0,0,0,0,0,0,0,0,-1,1217,813,0,0
0,211,0,0,0,0,0,0,0,0,0,-1,1224,813,0,0
7,211,0,0,0,0,0,0,0,0,0,-1,1231,813,0,0
14,211,0,0,0,0,0,0,0,0,0,-1,1238,813,0,0
21,211,0,0,0,0,0,0,0,0,0,-1,1245,813,0,0
28,211,0,0,0,0,0,0,0,0,0,-1,1252,813,0,0
35,211,0,0,0,0,0,0,0,0,0,-1,1259,813,0,0
42,211,0,0,0,0,0,0,0,0,0,-1,1266,813,0,0
49,211,0,0,0,0,0,0,0,0,0,-1,1273,813,0,0
56,211,0,0,0,0,0,0,0,0,0,-1,1280,813,0,0
63,211,0,0,0,0,0,0,0,0,0,-1,1287,813,0,0
70,211,0,0,0,0,0,0,0,0,0,-1,1294,813,0,0
77,211,0,0,0,0,0,0,0,0,0,-1,1301,813,0,0
84,211,0,0,0,0,0,0,0,0,0,-1,1308,813,0,0
91,211,0,0,0,0,0,0,0,0,0,-1,1315,813,0,0
98,211,0,0,0,0,0,0,0,0,0,-1,1322,813,0,0
105,211,0,0,0,0,0,0,0,0,0,-1,1329,813,0,0
112,211,0,0,0,0,0,0,0,0,0,-1,1336,813,0,0
119,211,0,0,0,0,0,0,0,0,0,-1,1343,813,0,0
126,211,0,0,0,0,0,0,0,0,0,-1,1350,813,0,0
133,211,0,0,0,0,0,0,0,0,0,-1,1357,813,0,0
140,211,0,0,0,0,0,0,0,0,0,-1,1364,813,0,0
147,211,0,0,0,0,0,0,0,0,0,-1,1371,813,0,0
154,211,0,0,0,0,0,0,0,0,0,-1,1378,813,0,0
161,211,0,0,0,0,0,0,0,0,0,-1,1385,813,0,0
168,211,0,0,0,0,0,0,0,0,0,-1,1392,813,0,0
175,211,0,0,0,0,0,0,0,0,0,-1,1399,813,0,0
182,211,0,0,0,0,0,0,0,0,0,-1,1406,813,0,0
189,211,0,0,0,0,0,0,0,0,0,-1,1413,813,0,0
196,211,0,0,0,0,0,0,0,0,0,-1,1420,813,0,0
203,211,0,0,0,0,0,0,0,0,0,-1,1427,813,0,0
210,211,0,0,0,0,0,0,0,0,0,-1,1434,813,0,0
217,211,0,0,0,0,0,0,0,0,0,-1,1441,813,0,0
224,211,0,0,0,0,0,0,0,0,0,-1,1448,813,0,0
231,211,0,0,0,0,0,0,0,0,0,-1,1455,813,0,0
238,211,0,0,0,0,0,0,0,0,0,-1,1462,813,0,0
245,211,0,0,0,0,0,0,0,0,0,-1,1469,813,0,0
252,211,0,0,0,0,0,0,0,0,0,-1,1476,813,0,0
259,211,0,0,0,0,0,0,0,0,0,-1,1483,813,0,0
266,211,0,0,0,0,0,0,0,0,0,-1,1490,813,0,0
273,211,0,0,0,0,0,0,0,0,0,-1,1497,813,0,0
280,211,0,0,0,0,0,0,0,0,0,-1,1504,813,0,0
287,211,0,0,0,0,0,0,0,0,0,-1,1511,813,0,0
294,211,0,0,0,0,0,0,0,0,0,-1,1518,813,0,0
301,211,0,0,0,0,0,0,0,0,0,-1,1525,813,0,0
308,211,0,0,0,0,0,0,0,0,0,-1,1532,813,0,0
315,211,0,0,0,0,0,0,0,0,0,-1,1539,813,0,0
322,211,0,0,0,0,0,0,0,0,0,-1,1546,813,0,0
329,211,0,0,0,0,0,0,0,0,0,-1,1553,813,0,0
336,211,0,0,0,0,0,0,0,0,0,-1,1560,813,0,0
343,211,0,0,0,0,0,0,0,0,0,-1,1567,813,0,0
350,211,0,0,0,0,0,0,0,0,0,-1,1574,813,0,0
357,211,0,0,0,0,0,0,0,0,0,-1,1581,813,0,0
364,211,0,0,0,0,0,0,0,0,0,-1,1588,813,0,0
371,211,0,0,0,0,0,0,0,0,0,-1,1595,813,0,0
378,211,0,0,0,0,0,0,0,0,0,-1,1602,813,0,0
385,211,0,0,0,0,0,0,0,0,0,-1,1609,813,0,0
392,211,0,0,0,0,0,0,0,0,0,-1,1616,813,0,0
399,211,0,0,0,0,0,0,0,0,0,-1,1623,813,0,0
406,211,0,0,0,0,0,0,0,0,0,-1,1630,813,0,0
413,211,0,0,0,0,0,0,0,0,0,-1,1637,813,0,0
420,211,0,0,0,0,0,0,0,0,0,-1,1644,813,0,0
427,211,0,0,0,0,0,0,0,0,0,-1,1651,813,0,0
434,211,0,0,0,0,0,0,0,0,0,-1,1658,813,0,0
441,211,0,0,0,0,0,0,0,0,0,-1,1665,813,0,0
448,211,0,0,0,0,0,0,0,0,0,-1,1672,813,0,0
455,211,0,0,0,0,0,0,0,0,0,-1,1679,813,0,0
462,211,0,0,0,0,0,0,0,0,0,-1,1686,813,0,0
469,211,0,0,0,0,0,0,0,0,0,-1,1693,813,0,0
476,211,0,0,0,0,0,0,0,0,0,-1,1700,813,0,0
483,211,0,0,0,0,0,0,0,0,0,-1,1707,813,0,0
490,211,0,0,0,0,0,0,0,0,0,-1,1714,813,0,0
497,211,0,0,0,0,0,0,0,0,0,-1,1721,813,0,0
504,211,0,0,0,0,0,0,0,0,0,-1,1728,813,0,0
511,211,0,0,0,0,0,0,0,0,0,-1,1735,813,0,0
518,211,0,0,0,0,0,0,0,0,0,-1,1742,813,0,0
525,211,0,0,0,0,0,0,0,0,0,-1,1749,813,0,0
532,211,0,0,0,0,0,0,0,0,0,-1,1756,813,0,0
539,211,0,0,0,0,0,0,0,0,0,-1,1763,813,0,0
546,211,0,0,0,0,0,0,0,0,0,-1,1770,813,0,0
553,211,0,0,0,0,0,0,0,0,0,-1,1777,813,0,0
560,211,0,0,0,0,0,0,0,0,0,-1,1784,813,0,0
567,211,0,0,0,0,0,0,0,0,0,-1,1791,813,0,0
574,211,0,0,0,0,0,0,0,0,0,-1,1798,813,0,0
581,211,0,0,0,0,0,0,0,0,0,-1,1805,813,0,0
588,211,0,0,0,0,0,0,0,0,0,-1,1812,813,0,0
595,211,0.0313721,-0.0209351,-0.000398237,0.00252756,-9.05642e-05,0.00253036,-0.000401038,-1.53988,0.00183525,0.0341032,1819,813,0.0314239,0.0209137
602,211,0.0429688,0.0360718,-0.000167418,0.00142198,0.000639166,0.00164712,-0.000392562,1.23212,0.00124966,0.0307228,1826,813,0.0429637,-0.0360995
609,211,-0.050415,0.0750122,-0.000240615,0.000548069,0.000931215,0.001165,-0.000857544,0.985685,0.0011722,0.0316324,1833,813,-0.0503612,-0.0749905
616,211,-0.0378418,0.0975952,-0.000260271,-0.000334585,0.000955139,0.000658433,-0.00125329,0.765957,0.0011214,0.0278765,1840,813,-0.0378256,-0.0976221
623,211,-0.0482178,0.106018,-0.000327629,-0.000997371,0.000866422,0.000266384,-0.00159138,0.600991,0.00115996,0.0296803,1847,813,-0.0481833,-0.106045
630,211,-0.0393066,0.0479736,-0.000410056,-0.0014054,0.00072783,-2.60157e-05,-0.00178944,0.485522,0.00118438,0.0341723,1854,813,-0.0392541,-0.0479458
637,211,0.126099,-0.17627,-0.000452414,-0.00161956,0.000588008,-0.000207549,-0.00186443,0.394592,0.00117987,0.0372532,1861,813,0.126054,0.176279
644,211,0.0594482,-0.252808,-0.000510633,-0.00173298,0.000502059,-0.00033086,-0.00191275,0.343847,0.00118044,0.038599,1868,813,0.0594137,0.252782
651,211,-0.0568848,-0.114319,-0.000506796,-0.00167931,0.000375858,-0.000396658,-0.00178945,0.285051,0.00108519,0.0422993,1875,813,-0.0569173,0.114292
658,211,-0.0842285,0.079895,0,0,0,0,0,0,0,-1,1882,813,-0.0842665,-0.07992
665,211,0.0675049,-0.101257,-0.000314932,-0.00126125,0.000197077,-0.00027553,-0.00130066,0.197329,0.000791413,0.0329015,1889,813,0.0675397,0.101277
672,211,0.00463867,0.0175781,-0.000299286,-0.000955422,0.00016676,-0.000259335,-0.000995372,0.235137,0.000596242,0.013285,1896,813,0.00462857,-0.0175563
679,211,-0.0238037,0.0422974,-0.000228351,-0.000838187,0.000205638,-0.000165489,-0.000901049,0.29667,0.00055384,0.0109347,1903,813,-0.0238588,-0.042269
686,211,-0.0269775,0.0543213,0.000437742,-0.000669905,-5.52218e-05,0.000440488,-0.000672651,-0.0496908,0.000647314,0.00963491,1910,813,-0.0270219,-0.0543436
693,211,-0.0238037,0.053772,0.00129682,-0.000446169,-0.000238773,0.00132894,-0.000478287,-0.133709,0.00108124,0.00983419,1917,813,-0.0238033,-0.0537915
700,211,-0.0609131,0.0516968,0.00216642,-0.000686542,-0.000283844,0.00219438,-0.000714508,-0.0982082,0.0017504,0.0121819,1924,813,-0.0609676,-0.0516675
707,211,-0.0592041,0.0739136,0.0030793,-0.000152293,-0.0013703,0.00358211,-0.000655107,-0.351684,0.00263374,0.0189421,1931,813,-0.0592519,-0.0739218
714,211,-0.0493164,0.0836792,0.00458129,-0.000458212,-0.002444,0.00557185,-0.00144877,-0.385069,0.00428002,0.0192085,1938,813,-0.0493345,-0.0836713
721,211,-0.0322266,0.0458374,0.00635047,-0.00165073,-0.0028587,0.00726688,-0.00256714,-0.310218,0.00588983,0.0136731,1945,813,-0.0321939,-0.0458121
728,211,-0.0162354,0.0466919,0.00860046,-0.00230378,-0.00376746,0.00977551,-0.00347883,-0.302333,0.00793501,0.0128287,1952,813,-0.0161886,-0.0466839
735,211,0.00842285,0.0325928,0.0111115,-0.00308643,-0.00489074,0.0126331,-0.00460806,-0.301632,0.0103074,0.0228112,1959,813,0.00844469,-0.0325998
742,211,0.137451,-0.071228,0.0139266,-0.00420994,-0.00603426,0.0157508,-0.00603413,-0.293572,0.0129879,0.0455389,1966,813,0.137511,0.0712269
749,211,0.25354,-0.0968628,0,0,0,0,0,0,0,-1,1973,813,0.253509,0.0968817
756,211,0.800903,-0.684448,0,0,0,0,0,0,0,-1,1980,813,0.800926,0.684424
763,211,1.08179,-0.986572,0,0,0,0,0,0,0,-1,1987,813,1.08174,0.986544
770,211,1.0127,-1.42456,0,0,0,0,0,0,0,-1,1994,813,1.01264,1.42455
777,211,0,0,0,0,0,0,0,0,0,-1,2001,813,0,0
784,211,0,0,0,0,0,0,0,0,0,-1,2008,813,0,0
791,211,0,0,0,0,0,0,0,0,0,-1,2015,813,0,0
798,211,0,0,0,0,0,0,0,0,0,-1,2022,813,0,0
805,211,0,0,0,0,0,0,0,0,0,-1,2029,813,0,0
812,211,0,0,0,0,0,0,0,0,0,-1,2036,813,0,0
-700,204,0,0,0,0,0,0,0,0,0,-1,524,820,0,0
-693,204,0,0,0,0,0,0,0,0,0,-1,531,820,0,0
-686,204,0,0,0,0,0,0,0,0,0,-1,538,820,0,0
-679,204,0,0,0,0,0,0,0,0,0,-1,545,820,0,0
-672,204,0,0,0,0,0,0,0,0,0,-1,552,820,0,0
-665,204,0,0,0,0,0,0,0,0,0,-1,559,820,0,0
-658,204,0,0,0,0,0,0,0,0,0,-1,566,820,0,0
-651,204,-0.207214,-0.469971,0.0361364,-0.0218747,0.0140336,0.039353,-0.0250912,0.225312,0.0375093,0.0428955,573,820,-0.207204,0.469995
-644,204,-0.261108,-0.577393,0.0275336,-0.0189982,0.0129544,0.030897,-0.0223616,0.254024,0.0308802,0.0450445,580,820,-0.261138,0.577404
-637,204,0.0447998,-0.57373,0.0205336,-0.0159277,0.0115414,0.0238798,-0.019274,0.282193,0.0249621,0.04403,587,820,0.0448129,0.573707
-630,204,0.0987549,-0.431458,0.0150077,-0.0129684,0.00993544,0.0181772,-0.0161378,0.308796,0.0198234,0.0406078,594,820,0.09874,0.431434
-623,204,-0.106628,-0.18396,0.0106625,-0.0102715,0.0082565,0.013527,-0.0131359,0.333941,0.0153944,0.0394259,601,820,-0.106658,0.183977
-616,204,-0.0767212,-0.088562,0.00731148,-0.00792091,0.00660362,0.00977567,-0.0103851,0.357155,0.0116416,0.0419652,608,820,-0.0767018,0.08858
-609,204,-0.048645,-0.0161133,0.00462489,-0.00594322,0.00505001,0.00665,-0.00796833,0.381377,0.00845133,0.0308857,615,820,-0.0486558,0.0160977
-602,204,-0.0353394,0.0309448,0.00272113,-0.00447514,0.00373267,0.00430753,-0.00606154,0.401874,0.00601507,0.012179,622,820,-0.0353142,-0.0309235
-595,204,-0.0314941,0.0600586,0.00139985,-0.00290133,0.00267832,0.00268414,-0.00418562,0.447125,0.00399772,0.0126234,629,820,-0.0314658,-0.0600597
-588,204,-0.0308838,0.0563354,0.000576981,-0.00187122,0.00152005,0.00130454,-0.00259879,0.446415,0.00229451,0.0104537,636,820,-0.0309019,-0.0563332
-581,204,-0.0198975,0.0612183,0.000360432,-0.000718605,0.000790229,0.000777753,-0.00113593,0.485875,0.00111129,0.0108443,643,820,-0.0199164,-0.0612483
-574,204,-0.0379639,0.067749,0.00038441,3.14574e-05,-7.50911e-05,0.000399722,1.61459e-05,-0.201148,0.000261265,0.0127492,650,820,-0.0379906,-0.0677405
-567,204,-0.0509644,0.0622559,0.000317238,0.000410858,-0.000647768,0.00101351,-0.000285409,-0.821467,0.000788223,0.0123966,657,820,-0.0509724,-0.0622626
-560,204,-0.0477905,0.0606689,0.000581392,0.000475039,-0.0006419,0.00117231,-0.000115884,-0.744071,0.000822895,0.0112669,664,820,-0.0477924,-0.0606624
-553,204,-0.020752,0.0282593,0.00136702,0.000517907,-0.000277276,0.00144955,0.000435384,-0.289273,0.000858846,0.00860532,671,820,-0.0207311,-0.0282335
-546,204,-0.0245361,0.0610962,0.0018437,0.000403971,7.20526e-05,0.0018473,0.000400374,0.0498797,0.00112214,0.00943246,678,820,-0.0245356,-0.0611262
-539,204,-0.0419312,0.06604,0.00202448,0.000250747,0.000317312,0.00207954,0.000195691,0.171798,0.00132595,0.0144699,685,820,-0.0419019,-0.0660579
-532,204,0.0791016,-0.0623169,0.00214308,-2.31077e-05,0.000652508,0.00232444,-0.000204474,0.271109,0.00162209,0.0379523,692,820,0.0791115,0.0623156
-525,204,0.322937,-0.214844,0.00242973,-0.000374123,0.000975371,0.00273566,-0.000680045,0.303929,0.0020877,0.0458595,699,820,0.322944,0.214874
-518,204,0.392334,-0.214722,0,0,0,0,0,0,0,-1,706,820,0.392335,0.21474
-511,204,-0.104797,-0.167725,0.00264291,-0.000715492,0.00153109,0.00323614,-0.00130873,0.369648,0.00270149,0.0460464,713,820,-0.104772,0.167735
-504,204,0.0114136,0.0841064,0.00255421,-0.000766806,0.0015202,0.00314499,-0.00135758,0.370657,0.00266696,0.0484854,720,820,0.0113976,-0.084076
-497,204,-0.0597534,0.0361328,0.00239948,-0.000529394,0.00123091,0.00284808,-0.000977996,0.349487,0.00229525,0.0394815,727,820,-0.0597338,-0.0361458
-490,204,-0.0678101,0.024353,0.00213696,0.0001426,0.0004994,0.00225502,2.45358e-05,0.232149,0.00149524,0.0331632,734,820,-0.0678144,-0.0243701
-483,204,-0.0571899,0.0471191,0.00174905,0.00158354,-0.00104489,0.00271446,0.000618128,-0.745881,0.00164283,0.0367223,741,820,-0.0571651,-0.0471383
-476,204,0,0,0,0,0,0,0,0,0,-1,748,820,0,0
-469,204,0,0,0,0,0,0,0,0,0,-1,755,820,0,0
-462,204,0,0,0,0,0,0,0,0,0,-1,762,820,0,0
-455,204,0,0,0,0,0,0,0,0,0,-1,769,820,0,0
-448,204,0,0,0,0,0,0,0,0,0,-1,776,820,0,0
-441,204,0,0,0,0,0,0,0,0,0,-1,783,820,0,0
-434,204,0,0,0,0,0,0,0,0,0,-1,790,820,0,0
-427,204,0,0,0,0,0,0,0,0,0,-1,797,820,0,0
-420,204,0,0,0,0,0,0,0,0,0,-1,804,820,0,0
-413,204,0,0,0,0,0,0,0,0,0,-1,811,820,0,0
-406,204,0,0,0,0,0,0,0,0,0,-1,818,820,0,0
-399,204,0,0,0,0,0,0,0,0,0,-1,825,820,0,0
-392,204,0,0,0,0,0,0,0,0,0,-1,832,820,0,0
-385,204,0,0,0,0,0,0,0,0,0,-1,839,820,0,0
-378,204,0,0,0,0,0,0,0,0,0,-1,846,820,0,0
-371,204,0,0,0,0,0,0,0,0,0,-1,853,820,0,0
-364,204,0,0,0,0,0,0,0,0,0,-1,860,820,0,0
-357,204,0,0,0,0,0,0,0,0,0,-1,867,820,0,0
-350,204,0,0,0,0,0,0,0,0,0,-1,874,820,0,0
-343,204,0,0,0,0,0,0,0,0,0,-1,881,820,0,0
-336,204,0,0,0,0,0,0,0,0,0,-1,888,820,0,0
-329,204,0,0,0,0,0,0,0,0,0,-1,895,820,0,0
-322,204,0,0,0,0,0,0,0,0,0,-1,902,820,0,0
-315,204,0,0,0,0,0,0,0,0,0,-1,909,820,0,0
-308,204,0,0,0,0,0,0,0,0,0,-1,916,820,0,0
-301,204,0,0,0,0,0,0,0,0,0,-1,923,820,0,0
-294,204,0,0,0,0,0,0,0,0,0,-1,930,820,0,0
-287,204,0,0,0,0,0,0,0,0,0,-1,937,820,0,0
-280,204,0,0,0,0,0,0,0,0,0,-1,944,820,0,0
-273,204,0,0,0,0,0,0,0,0,0,-1,951,820,0,0
-266,204,0,0,0,0,0,0,0,0,0,-1,958,820,0,0
-259,204,0,0,0,0,0,0,0,0,0,-1,965,820,0,0
-252,204,0,0,0,0,0,0,0,0,0,-1,972,820,0,0
-245,204,0,0,0,0,0,0,0,0,0,-1,979,820,0,0
-238,204,0,0,0,0,0,0,0,0,0,-1,986,820,0,0
-231,204,0,0,0,0,0,0,0,0,0,-1,993,820,0,0
-224,204,0,0,0,0,0,0,0,0,0,-1,1000,820,0,0
-217,204,0,0,0,0,0,0,0,0,0,-1,1007,820,0,0
-210,204,0,0,0,0,0,0,0,0,0,-1,1014,820,0,0
-203,204,0,0,0,0,0,0,0,0,0,-1,1021,820,0,0
-196,204,0,0,0,0,0,0,0,0,0,-1,1028,820,0,0
-189,204,0,0,0,0,0,0,0,0,0,-1,1035,820,0,0
-182,204,0,0,0,0,0,0,0,0,0,-1,1042,820,0,0
-175,204,0,0,0,0,0,0,0,0,0,-1,1049,820,0,0
-168,204,0,0,0,0,0,0,0,0,0,-1,1056,820,0,0
-161,204,0,0,0,0,0,0,0,0,0,-1,1063,820,0,0
-154,204,0,0,0,0,0,0,0,0,0,-1,1070,820,0,0
-147,204,0,0,0,0,0,0,0,0,0,-1,1077,820,0,0
-140,204,0,0,0,0,0,0,0,0,0,-1,1084,820,0,0
-133,204,0,0,0,0,0,0,0,0,0,-1,1091,820,0,0
-126,204,0,0,0,0,0,0,0,0,0,-1,1098,820,0,0
-119,204,0,0,0,0,0,0,0,0,0,-1,1105,820,0,0
-112,204,0,0,0,0,0,0,0,0,0,-1,1112,820,0,0
-105,204,0,0,0,0,0,0,0,0,0,-1,1119,820,0,0
-98,204,0,0,0,0,0,0,0,0,0,-1,1126,820,0,0
-91,204,0,0,0,0,0,0,0,0,0,-1,1133,820,0,0
-84,204,0,0,0,0,0,0,0,0,0,-1,1140,820,0,0
-77,204,0,0,0,0,0,0,0,0,0,-1,1147,820,0,0
-70,204,0,0,0,0,0,0,0,0,0,-1,1154,820,0,0
-63,204,0,0,0,0,0,0,0,0,0,-1,1161,820,0,0
-56,204,0,0,0,0,0,0,0,0,0,-1,1168,820,0,0
-49,204,0,0,0,0,0,0,0,0,0,-1,1175,820,0,0
-42,204,0,0,0,0,0,0,0,0,0,-1,1182,820,0,0
-35,204,0,0,0,0,0,0,0,0,0,-1,1189,820,0,0
-28,204,0,0,0,0,0,0,0,0,0,-1,1196,820,0,0
-21,204,0,0,0,0,0,0,0,0,0,-1,1203,820,0,0
-14,204,0,0,0,0,0,0,0,0,0,-1,1210,820,0,0
-7,204,0,0,0,0,0,0,0,0,0,-1,1217,820,0,0
0,204,0,0,0,0,0,0,0,0,0,-1,1224,820,0,0
7,204,0,0,0,0,0,0,0,0,0,-1,1231,820,0,0
14,204,0,0,0,0,0,0,0,0,0,-1,1238,820,0,0
21,204,0,0,0,0,0,0,0,0,0,-1,1245,820,0,0
28,204,0,0,0,0,0,0,0,0,0,-1,1252,820,0,0
35,204,0,0,0,0,0,0,0,0,0,-1,1259,820,0,0
42,204,0,0,0,0,0,0,0,0,0,-1,1266,820,0,0
49,204,0,0,0,0,0,0,0,0,0,-1,1273,820,0,0
56,204,0,0,0,0,0,0,0,0,0,-1,1280,820,0,0
63,204,0,0,0,0,0,0,0,0,0,-1,1287,820,0,0
70,204,0,0,0,0,0,0,0,0,0,-1,1294,820,0,0
77,204,0,0,0,0,0,0,0,0,0,-1,1301,820,0,0
84,204,0,0,0,0,0,0,0,0,0,-1,1308,820,0,0
91,204,0,0,0,0,0,0,0,0,0,-1,1315,820,0,0
98,204,0,0,0,0,0,0,0,0,0,-1,1322,820,0,0
105,204,0,0,0,0,0,0,0,0,0,-1,1329,820,0,0
112,204,0,0,0,0,0,0,0,0,0,-1,1336,820,0,0
119,204,0,0,0,0,0,0,0,0,0,-1,1343,820,0,0
126,204,0,0,0,0,0,0,0,0,0,-1,1350,820,0,0
133,204,0,0,0,0,0,0,0,0,0,-1,1357,820,0,0
140,204,0,0,0,0,0,0,0,0,0,-1,1364,820,0,0
147,204,0,0,0,0,0,0,0,0,0,-1,1371,820,0,0
154,204,0,0,0,0,0,0,0,0,0,-1,1378,820,0,0
161,204,0,0,0,0,0,0,0,0,0,-1,1385,820,0,0
168,204,0,0,0,0,0,0,0,0,0,-1,1392,820,0,0
175,204,0,0,0,0,0,0,0,0,0,-1,1399,820,0,0
182,204,0,0,0,0,0,0,0,0,0,-1,1406,820,0,0
189,204,0,0,0,0,0,0,0,0,0,-1,1413,820,0,0
196,204,0,0,0,0,0,0,0,0,0,-1,1420,820,0,0
203,204,0,0,0,0,0,0,0,0,0,-1,1427,820,0,0
210,204,0,0,0,0,0,0,0,0,0,-1,1434,820,0,0
217,204,0,0,0,0,0,0,0,0,0,-1,1441,820,0,0
224,204,0,0,0,0,0,0,0,0,0,-1,1448,820,0,0
231,204,0,0,0,0,0,0,0,0,0,-1,1455,820,0,0
238,204,0,0,0,0,0,0,0,0,0,-1,1462,820,0,0
245,204,0,0,0,0,0,0,0,0,0,-1,1469,820,0,0
252,204,0,0,0,0,0,0,0,0,0,-1,1476,820,0,0
259,204,0,0,0,0,0,0,0,0,0,-1,1483,820,0,0
266,204,0,0,0,0,0,0,0,0,0,-1,1490,820,0,0
273,204,0,0,0,0,0,0,0,0,0,-1,1497,820,0,0
280,204,0,0,0,0,0,0,0,0,0,-1,1504,820,0,0
287,204,0,0,0,0,0,0,0,0,0,-1,1511,820,0,0
294,204,0,0,0,0,0,0,0,0,0,-1,1518,820,0,0
301,204,0,0,0,0,0,0,0,0,0,-1,1525,820,0,0
308,204,0,0,0,0,0,0,0,0,0,-1,1532,820,0,0
315,204,0,0,0,0,0,0,0,0,0,-1,1539,820,0,0
322,204,0,0,0,0,0,0,0,0,0,-1,1546,820,0,0
329,204,0,0,0,0,0,0,0,0,0,-1,1553,820,0,0
336,204,0,0,0,0,0,0,0,0,0,-1,1560,820,0,0
343,204,0,0,0,0,0,0,0,0,0,-1,1567,820,0,0
350,204,0,0,0,0,0,0,0,0,0,-1,1574,820,0,0
357,204,0,0,0,0,0,0,0,0,0,-1,1581,820,0,0
364,204,0,0,0,0,0,0,0,0,0,-1,1588,820,0,0
371,204,0,0,0,0,0,0,0,0,0,-1,1595,820,0,0
378,204,0,0,0,0,0,0,0,0,0,-1,1602,820,0,0
385,204,0,0,0,0,0,0,0,0,0,-1,1609,820,0,0
392,204,0,0,0,0,0,0,0,0,0,-1,1616,820,0,0
399,204,0,0,0,0,0,0,0,0,0,-1,1623,820,0,0
406,204,0,0,0,0,0,0,0,0,0,-1,1630,820,0,0
413,204,0,0,0,0,0,0,0,0,0,-1,1637,820,0,0
420,204,0,0,0,0,0,0,0,0,0,-1,1644,820,0,0
427,204,0,0,0,0,0,0,0,0,0,-1,1651,820,0,0
434,204,0,0,0,0,0,0,0,0,0,-1,1658,820,0,0
441,204,0,0,0,0,0,0,0,0,0,-1,1665,820,0,0
448,204,0,0,0,0,0,0,0,0,0,-1,1672,820,0,0
455,204,0,0,0,0,0,0,0,0,0,-1,1679,820,0,0
462,204,0,0,0,0,0,0,0,0,0,-1,1686,820,0,0
469,204,0,0,0,0,0,0,0,0,0,-1,1693,820,0,0
476,204,0,0,0,0,0,0,0,0,0,-1,1700,820,0,0
483,204,0,0,0,0,0,0,0,0,0,-1,1707,820,0,0
490,204,0,0,0,0,0,0,0,0,0,-1,1714,820,0,0
497,204,0,0,0,0,0,0,0,0,0,-1,1721,820,0,0
504,204,0,0,0,0,0,0,0,0,0,-1,1728,820,0,0
511,204,0,0,0,0,0,0,0,0,0,-1,1735,820,0,0
518,204,0,0,0,0,0,0,0,0,0,-1,1742,820,0,0
525,204,0,0,0,0,0,0,0,0,0,-1,1749,820,0,0
532,204,0,0,0,0,0,0,0,0,0,-1,1756,820,0,0
539,204,0,0,0,0,0,0,0,0,0,-1,1763,820,0,0
546,204,0,0,0,0,0,0,0,0,0,-1,1770,820,0,0
553,204,0,0,0,0,0,0,0,0,0,-1,1777,820,0,0
560,204,0,0,0,0,0,0,0,0,0,-1,1784,820,0,0
567,204,0,0,0,0,0,0,0,0,0,-1,1791,820,0,0
574,204,0,0,0,0,0,0,0,0,0,-1,1798,820,0,0
581,204,0,0,0,0,0,0,0,0,0,-1,1805,820,0,0
588,204,0,0,0,0,0,0,0,0,0,-1,1812,820,0,0
595,204,0,0,0,0,0,0,0,0,0,-1,1819,820,0,0
602,204,0.0687256,-0.0368652,-0.00142583,0.00178849,-0.000393131,0.00183588,-0.00147321,-1.45085,0.00191432,0.0345152,1826,820,0.0687357,0.0368739
609,204,-0.0343018,0.0576172,-0.00121652,0.000939592,0.000266439,0.000972029,-0.00124896,1.44965,0.00128561,0.0357913,1833,820,-0.0342788,-0.0576436
616,204,-0.0350342,0.104431,-0.000958711,3.88581e-06,0.000591535,0.000285189,-0.00124002,1.1269,0.000936331,0.033791,1840,820,-0.0350647,-0.104414
623,204,-0.0638428,0.142334,-0.000811096,-0.000686506,0.000711952,-3.41284e-05,-0.00146347,0.829036,0.000964474,0.0274691,1847,820,-0.0638944,-0.142356
630,204,-0.0789795,0.118652,-0.000732575,-0.00109649,0.000726104,-0.000165977,-0.00166309,0.662629,0.00105775,0.0262548,1854,820,-0.0790294,-0.118636
637,204,-0.0222168,0.0258179,-0.000667083,-0.00132804,0.000687268,-0.000234965,-0.00176016,0.561289,0.00110349,0.0299221,1861,820,-0.0221864,-0.0258451
644,204,-0.0200195,-0.0845947,-0.00064915,-0.00144806,0.000653459,-0.000282724,-0.00181448,0.511058,0.00112729,0.0360677,1868,820,-0.0200215,0.0845756
651,204,-0.0657959,-0.14978,-0.000591912,-0.00138231,0.000548148,-0.000311353,-0.00166287,0.473068,0.00102075,0.0404349,1875,820,-0.0657815,0.149793
658,204,0.151733,-0.201233,-0.000432393,-0.00126189,0.000437002,-0.000244658,-0.00144963,0.405759,0.000896069,0.0413648,1882,820,0.151711,0.201221
665,204,0.580078,-0.363831,0,0,0,0,0,0,0,-1,1889,820,0.580052,0.36385
672,204,0.0078125,0.0354614,-0.000341649,-0.000783435,0.000331131,-0.000164495,-0.000960589,0.491252,0.000593213,0.0181517,1896,820,0.00778838,-0.0354731
679,204,-0.0172119,0.0440674,-0.000311172,-0.000651679,0.000316136,-0.00012236,-0.000840491,0.538395,0.000524321,0.0109462,1903,820,-0.0172256,-0.0440562
686,204,-0.0161133,0.0449829,0.000178592,-0.000500835,9.96062e-05,0.000192893,-0.000515137,0.142606,0.000422658,0.0091808,1910,820,-0.0161734,-0.0449572
693,204,-0.0429688,0.0385742,0.00083122,-0.000402156,-7.03228e-06,0.00083126,-0.000402196,-0.00570141,0.000726356,0.0145188,1917,820,-0.0429807,-0.0385489
700,204,-0.0223389,0.055542,0.00143123,-0.000789243,1.49175e-05,0.00143133,-0.000789344,0.00671775,0.00129984,0.0161509,1924,820,-0.022291,-0.0555503
707,204,-0.038208,0.0670776,0.00195726,-0.000541314,-0.000787815,0.00218492,-0.000768973,-0.281313,0.00176953,0.0148402,1931,820,-0.0381503,-0.0670999
714,204,-0.0368652,0.0753174,0.0029348,-0.00103417,-0.00147097,0.00342053,-0.00151989,-0.318933,0.00292186,0.0224994,1938,820,-0.0368708,-0.0753169
721,204,-0.0194092,0.0308838,0.00417129,-0.00256111,-0.00140791,0.00445386,-0.00284368,-0.198069,0.00424729,0.0189506,1945,820,-0.0194564,-0.0309069
728,204,-0.0202637,0.0357666,0.00582808,-0.00364528,-0.00170418,0.00612532,-0.00394252,-0.172682,0.00585803,0.0114728,1952,820,-0.0202497,-0.0357366
735,204,-0.0203857,0.046814,0.00766942,-0.0049652,-0.00206344,0.00799787,-0.00529366,-0.157854,0.00772663,0.0135472,1959,820,-0.0203277,-0.0468251
742,204,0.0427246,0.00195313,0.00977939,-0.00672004,-0.00224779,0.0100801,-0.00702079,-0.133006,0.00992575,0.0284289,1966,820,0.0427792,-0.00198032
749,204,0.338135,-0.276672,0.0123273,-0.00897252,-0.00214019,0.0125402,-0.00918544,-0.0991587,0.012593,0.0444016,1973,820,0.338133,0.276656
756,204,0.606323,-0.492981,0.0154484,-0.0118411,-0.0015156,0.0155323,-0.0119251,-0.0553108,0.0158981,0.0495711,1980,820,0.606283,0.492976
763,204,0.84729,-0.818909,0.0193727,-0.015484,-7.08051e-05,0.0193728,-0.0154841,-0.00203131,0.0201664,0.0452949,1987,820,0.847304,0.818918
770,204,0.832642,-1.46118,0.0244151,-0.0200814,0.00260665,0.0245672,-0.0202336,0.058315,0.0259061,0.0463636,1994,820,0.832701,1.46121
777,204,0,0,0,0,0,0,0,0,0,-1,2001,820,0,0
784,204,0,0,0,0,0,0,0,0,0,-1,2008,820,0,0
791,204,0,0,0,0,0,0,0,0,0,-1,2015,820,0,0
798,204,0,0,0,0,0,0,0,0,0,-1,2022,820,0,0
805,204,0,0,0,0,0,0,0,0,0,-1,2029,820,0,0
812,204,0,0,0,0,0,0,0,0,0,-1,2036,820,0,0
-700,197,0,0,0,0,0,0,0,0,0,-1,524,827,0,0
-693,197,0,0,0,0,0,0,0,0,0,-1,531,827,0,0
-686,197,0,0,0,0,0,0,0,0,0,-1,538,827,0,0
-679,197,0,0,0,0,0,0,0,0,0,-1,545,827,0,0
-672,197,0,0,0,0,0,0,0,0,0,-1,552,827,0,0
-665,197,0,0,0,0,0,0,0,0,0,-1,559,827,0,0
-658,197,-0.353882,-0.220154,0,0,0,0,0,0,0,-1,566,827,-0.353912,0.220148
-651,197,-0.340576,-0.193481,0.0355042,-0.0240775,0.0106218,0.0373412,-0.0259144,0.171248,0.0367187,0.0450099,573,827,-0.340558,0.193464
-644,197,-0.282898,-0.164185,0.0271693,-0.0198076,0.00964343,0.0290719,-0.0217101,0.194788,0.0294215,0.0457608,580,827,-0.282906,0.164156
-637,197,-0.173218,-0.0975342,0.0204322,-0.0159039,0.00855396,0.0223452,-0.0178169,0.220018,0.0232367,0.0436913,587,827,-0.173234,0.0975328
-630,197,-0.182678,-0.0497437,0.0150952,-0.0124873,0.00738451,0.0169478,-0.0143399,0.245801,0.0180849,0.0399368,594,827,-0.182702,0.0497609
-623,197,-0.229797,0.104187,0.0109041,-0.00958972,0.00617607,0.0126214,-0.0113071,0.271211,0.013822,0.0399093,601,827,-0.229825,-0.104215
-616,197,-0.120239,0.0148315,0.00767942,-0.00711247,0.00497703,0.00919812,-0.00863117,0.296167,0.0102955,0.0424695,608,827,-0.120262,-0.0148409
-609,197,-0.0620728,0.0321045,0.00499243,-0.00514574,0.00382494,0.0062736,-0.00642691,0.323207,0.00733282,0.029723,615,827,-0.0620726,-0.0321105
-602,197,-0.0314331,0.0477295,0.00305025,-0.00381644,0.00286692,0.00408983,-0.00485603,0.347867,0.0051712,0.0145621,622,827,-0.0314563,-0.0477039
-595,197,-0.0223389,0.0644531,0.00174567,-0.00235594,0.00208561,0.00261986,-0.00323013,0.396907,0.00338361,0.0148234,629,827,-0.0223307,-0.0644318
-588,197,-0.0283203,0.0477905,0.00096872,-0.00148843,0.00112388,0.00140523,-0.00192493,0.370461,0.00193046,0.0155844,636,827,-0.0282943,-0.0478073
-581,197,-0.0338745,0.0600586,0.000733548,-0.000483212,0.000527167,0.000930172,-0.000679836,0.357,0.000933276,0.00954688,643,827,-0.0338872,-0.0600328
-574,197,-0.0402222,0.0731201,0.000723466,0.000122318,-0.000210652,0.000789933,5.58514e-05,-0.305642,0.000509027,0.0114279,650,827,-0.0401917,-0.0731196
-567,197,-0.0522461,0.0491333,0.000623596,0.000414403,-0.000716948,0.00124354,-0.000205538,-0.712964,0.000905349,0.0126323,657,827,-0.0522574,-0.0491606
-560,197,-0.0415649,0.0495605,0.000827961,0.000461369,-0.000750369,0.0014171,-0.000127767,-0.665607,0.000990072,0.0112026,664,827,-0.0415489,-0.0495534
-553,197,-0.0151367,0.06427,0.0015128,0.000544432,-0.000477235,0.00170846,0.000348772,-0.389086,0.00104235,0.00932677,671,827,-0.0151657,-0.0642904
-546,197,-0.0349731,0.090332,0.001966,0.000527241,-0.000226897,0.00200094,0.000492307,-0.152765,0.00120389,0.0141556,678,827,-0.0349718,-0.0903258
-539,197,-0.0778809,0.104126,0.00218931,0.00045959,-2.53818e-05,0.00218969,0.000459218,-0.0146697,0.00133334,0.0278334,685,827,-0.0778854,-0.104129
-532,197,-0.0913086,0.0918579,0.00236433,0.000270069,0.000279613,0.00240101,0.00023338,0.13047,0.00152883,0.0436215,692,827,-0.0913015,-0.0918276
-525,197,-0.0772095,0.0725098,0,0,0,0,0,0,0,-1,699,827,-0.0772001,-0.0724819
-518,197,-0.269714,-0.28418,0.00274501,-5.89519e-05,0.000883811,0.00300033,-0.00031428,0.281237,0.00211279,0.044252,706,827,-0.269713,0.284209
-511,197,-0.181091,-0.139404,0.00272352,-0.000181825,0.00108834,0.00308599,-0.000544293,0.321493,0.0022607,0.0405597,713,827,-0.181084,0.139429
-504,197,-0.118225,0.0704346,0.00258044,-0.000194567,0.00111042,0.00297007,-0.000584196,0.337463,0.00220078,0.0382306,720,827,-0.118233,-0.0704134
-497,197,-0.0787964,0.2052,0.00230044,1.47794e-05,0.000821696,0.00256517,-0.000249958,0.311683,0.00179923,0.0386539,727,827,-0.0787692,-0.205196
-490,197,-0.0802612,0.253601,0.00189398,0.000562804,2.38188e-05,0.0018944,0.000562378,0.0178855,0.00112342,0.0343943,734,827,-0.0802902,-0.253609
-483,197,-0.12561,0.181885,0.00138493,0.00177704,-0.00180707,0.00339867,-0.000236692,-0.839434,0.00234865,0.0353587,741,827,-0.125615,-0.181912
-476,197,0,0,0,0,0,0,0,0,0,-1,748,827,0,0
-469,197,0,0,0,0,0,0,0,0,0,-1,755,827,0,0
-462,197,0,0,0,0,0,0,0,0,0,-1,762,827,0,0
-455,197,0,0,0,0,0,0,0,0,0,-1,769,827,0,0
-448,197,0,0,0,0,0,0,0,0,0,-1,776,827,0,0
-441,197,0,0,0,0,0,0,0,0,0,-1,783,827,0,0
-434,197,0,0,0,0,0,0,0,0,0,-1,790,827,0,0
-427,197,0,0,0,0,0,0,0,0,0,-1,797,827,0,0
-420,197,0,0,0,0,0,0,0,0,0,-1,804,827,0,0
-413,197,0,0,0,0,0,0,0,0,0,-1,811,827,0,0
-406,197,0,0,0,0,0,0,0,0,0,-1,818,827,0,0
-399,197,0,0,0,0,0,0,0,0,0,-1,825,827,0,0
-392,197,0,0,0,0,0,0,0,0,0,-1,832,827,0,0
-385,197,0,0,0,0,0,0,0,0,0,-1,839,827,0,0
-378,197,0,0,0,0,0,0,0,0,0,-1,846,827,0,0
-371,197,0,0,0,0,0,0,0,0,0,-1,853,827,0,0
-364,197,0,0,0,0,0,0,0,0,0,-1,860,827,0,0
-357,197,0,0,0,0,0,0,0,0,0,-1,867,827,0,0
-350,197,0,0,0,0,0,0,0,0,0,-1,874,827,0,0
-343,197,0,0,0,0,0,0,0,0,0,-1,881,827,0,0
-336,197,0,0,0,0,0,0,0,0,0,-1,888,827,0,0
-329,197,0,0,0,0,0,0,0,0,0,-1,895,827,0,0
-322,197,0,0,0,0,0,0,0,0,0,-1,902,827,0,0
-315,197,0,0,0,0,0,0,0,0,0,-1,909,827,0,0
-308,197,0,0,0,0,0,0,0,0,0,-1,916,827,0,0
-301,197,0,0,0,0,0,0,0,0,0,-1,923,827,0,0
-294,197,0,0,0,0,0,0,0,0,0,-1,930,827,0,0
-287,197,0,0,0,0,0,0,0,0,0,-1,937,827,0,0
-280,197,0,0,0,0,0,0,0,0,0,-1,944,827,0,0
-273,197,0,0,0,0,0,0,0,0,0,-1,951,827,0,0
-266,197,0,0,0,0,0,0,0,0,0,-1,958,827,0,0
-259,197,0,0,0,0,0,0,0,0,0,-1,965,827,0,0
-252,197,0,0,0,0,0,0,0,0,0,-1,972,827,0,0
-245,197,0,0,0,0,0,0,0,0,0,-1,979,827,0,0
-238,197,0,0,0,0,0,0,0,0,0,-1,986,827,0,0
-231,197,0,0,0,0,0,0,0,0,0,-1,993,827,0,0
-224,197,0,0,0,0,0,0,0,0,0,-1,1000,827,0,0
-217,197,0,0,0,0,0,0,0,0,0,-1,1007,827,0,0
-210,197,0,0,0,0,0,0,0,0,0,-1,1014,827,0,0
-203,197,0,0,0,0,0,0,0,0,0,-1,1021,827,0,0
-196,197,0,0,0,0,0,0,0,0,0,-1,1028,827,0,0
-189,197,0,0,0,0,0,0,0,0,0,-1,1035,827,0,0
-182,197,0,0,0,0,0,0,0,0,0,-1,1042,827,0,0
-175,197,0,0,0,0,0,0,0,0,0,-1,1049,827,0,0
-168,197,0,0,0,0,0,0,0,0,0,-1,1056,827,0,0
-161,197,0,0,0,0,0,0,0,0,0,-1,1063,827,0,0
-154,197,0,0,0,0,0,0,0,0,0,-1,1070,827,0,0
-147,197,0,0,0,0,0,0,0,0,0,-1,1077,827,0,0
-140,197,0,0,0,0,0,0,0,0,0,-1,1084,827,0,0
-133,197,0,0,0,0,0,0,0,0,0,-1,1091,827,0,0
-126,197,0,0,0,0,0,0,0,0,0,-1,1098,827,0,0
-119,197,0,0,0,0,0,0,0,0,0,-1,1105,827,0,0
-112,197,0,0,0,0,0,0,0,0,0,-1,1112,827,0,0
-105,197,0,0,0,0,0,0,0,0,0,-1,1119,827,0,0
-98,197,0,0,0,0,0,0,0,0,0,-1,1126,827,0,0
-91,197,0,0,0,0,0,0,0,0,0,-1,1133,827,0,0
-84,197,0,0,0,0,0,0,0,0,0,-1,1140,827,0,0
-77,197,0,0,0,0,0,0,0,0,0,-1,1147,827,0,0
-70,197,0,0,0,0,0,0,0,0,0,-1,1154,827,0,0
-63,197,0,0,0,0,0,0,0,0,0,-1,1161,827,0,0
-56,197,0,0,0,0,0,0,0,0,0,-1,1168,827,0,0
-49,197,0,0,0,0,0,0,0,0,0,-1,1175,827,0,0
-42,197,0,0,0,0,0,0,0,0,0,-1,1182,827,0,0
-35,197,0,0,0,0,0,0,0,0,0,-1,1189,827,0,0
-28,197,0,0,0,0,0,0,0,0,0,-1,1196,827,0,0
-21,197,0,0,0,0,0,0,0,0,0,-1,1203,827,0,0
-14,197,0,0,0,0,0,0,0,0,0,-1,1210,827,0,0
-7,197,0,0,0,0,0,0,0,0,0,-1,1217,827,0,0
0,197,0,0,0,0,0,0,0,0,0,-1,1224,827,0,0
7,197,0,0,0,0,0,0,0,0,0,-1,1231,827,0,0
14,197,0,0,0,0,0,0,0,0,0,-1,1238,827,0,0
21,197,0,0,0,0,0,0,0,0,0,-1,1245,827,0,0
28,197,0,0,0,0,0,0,0,0,0,-1,1252,827,0,0
35,197,0,0,0,0,0,0,0,0,0,-1,1259,827,0,0
42,197,0,0,0,0,0,0,0,0,0,-1,1266,827,0,0
49,197,0,0,0,0,0,0,0,0,0,-1,1273,827,0,0
56,197,0,0,0,0,0,0,0,0,0,-1,1280,827,0,0
63,197,0,0,0,0,0,0,0,0,0,-1,1287,827,0,0
70,197,0,0,0,0,0,0,0,0,0,-1,1294,827,0,0
77,197,0,0,0,0,0,0,0,0,0,-1,1301,827,0,0
84,197,0,0,0,0,0,0,0,0,0,-1,1308,827,0,0
91,197,0,0,0,0,0,0,0,0,0,-1,1315,827,0,0
98,197,0,0,0,0,0,0,0,0,0,-1,1322,827,0,0
105,197,0,0,0,0,0,0,0,0,0,-1,1329,827,0,0
112,197,0,0,0,0,0,0,0,0,0,-1,1336,827,0,0
119,197,0,0,0,0,0,0,0,0,0,-1,1343,827,0,0
126,197,0,0,0,0,0,0,0,0,0,-1,1350,827,0,0
133,197,0,0,0,0,0,0,0,0,0,-1,1357,827,0,0
140,197,0,0,0,0,0,0,0,0,0,-1,1364,827,0,0
147,197,0,0,0,0,0,0,0,0,0,-1,1371,827,0,0
154,197,0,0,0,0,0,0,0,0,0,-1,1378,827,0,0
161,197,0,0,0,0,0,0,0,0,0,-1,1385,827,0,0
168,197,0,0,0,0,0,0,0,0,0,-1,1392,827,0,0
175,197,0,0,0,0,0,0,0,0,0,-1,1399,827,0,0
182,197,0,0,0,0,0,0,0,0,0,-1,1406,827,0,0
189,197,0,0,0,0,0,0,0,0,0,-1,1413,827,0,0
196,197,0,0,0,0,0,0,0,0,0,-1,1420,827,0,0
203,197,0,0,0,0,0,0,0,0,0,-1,1427,827,0,0
210,197,0,0,0,0,0,0,0,0,0,-1,1434,827,0,0
217,197,0,0,0,0,0,0,0,0,0,-1,1441,827,0,0
224,197,0,0,0,0,0,0,0,0,0,-1,1448,827,0,0
231,197,0,0,0,0,0,0,0,0,0,-1,1455,827,0,0
238,197,0,0,0,0,0,0,0,0,0,-1,1462,827,0,0
245,197,0,0,0,0,0,0,0,0,0,-1,1469,827,0,0
252,197,0,0,0,0,0,0,0,0,0,-1,1476,827,0,0
259,197,0,0,0,0,0,0,0,0,0,-1,1483,827,0,0
266,197,0,0,0,0,0,0,0,0,0,-1,1490,827,0,0
273,197,0,0,0,0,0,0,0,0,0,-1,1497,827,0,0
280,197,0,0,0,0,0,0,0,0,0,-1,1504,827,0,0
287,197,0,0,0,0,0,0,0,0,0,-1,1511,827,0,0
294,197,0,0,0,0,0,0,0,0,0,-1,1518,827,0,0
301,197,0,0,0,0,0,0,0,0,0,-1,1525,827,0,0
308,197,0,0,0,0,0,0,0,0,0,-1,1532,827,0,0
315,197,0,0,0,0,0,0,0,0,0,-1,1539,827,0,0
322,197,0,0,0,0,0,0,0,0,0,-1,1546,827,0,0
329,197,0,0,0,0,0,0,0,0,0,-1,1553,827,0,0
336,197,0,0,0,0,0,0,0,0,0,-1,1560,827,0,0
343,197,0,0,0,0,0,0,0,0,0,-1,1567,827,0,0
350,197,0,0,0,0,0,0,0,0,0,-1,1574,827,0,0
357,197,0,0,0,0,0,0,0,0,0,-1,1581,827,0,0
364,197,0,0,0,0,0,0,0,0,0,-1,1588,827,0,0
371,197,0,0,0,0,0,0,0,0,0,-1,1595,827,0,0
378,197,0,0,0,0,0,0,0,0,0,-1,1602,827,0,0
385,197,0,0,0,0,0,0,0,0,0,-1,1609,827,0,0
392,197,0,0,0,0,0,0,0,0,0,-1,1616,827,0,0
399,197,0,0,0,0,0,0,0,0,0,-1,1623,827,0,0
406,197,0,0,0,0,0,0,0,0,0,-1,1630,827,0,0
413,197,0,0,0,0,0,0,0,0,0,-1,1637,827,0,0
420,197,0,0,0,0,0,0,0,0,0,-1,1644,827,0,0
427,197,0,0,0,0,0,0,0,0,0,-1,1651,827,0,0
434,197,0,0,0,0,0,0,0,0,0,-1,1658,827,0,0
441,197,0,0,0,0,0,0,0,0,0,-1,1665,827,0,0
448,197,0,0,0,0,0,0,0,0,0,-1,1672,827,0,0
455,197,0,0,0,0,0,0,0,0,0,-1,1679,827,0,0
462,197,0,0,0,0,0,0,0,0,0,-1,1686,827,0,0
469,197,0,0,0,0,0,0,0,0,0,-1,1693,827,0,0
476,197,0,0,0,0,0,0,0,0,0,-1,1700,827,0,0
483,197,0,0,0,0,0,0,0,0,0,-1,1707,827,0,0
490,197,0,0,0,0,0,0,0,0,0,-1,1714,827,0,0
497,197,0,0,0,0,0,0,0,0,0,-1,1721,827,0,0
504,197,0,0,0,0,0,0,0,0,0,-1,1728,827,0,0
511,197,0,0,0,0,0,0,0,0,0,-1,1735,827,0,0
518,197,0,0,0,0,0,0,0,0,0,-1,1742,827,0,0
525,197,0,0,0,0,0,0,0,0,0,-1,1749,827,0,0
532,197,0,0,0,0,0,0,0,0,0,-1,1756,827,0,0
539,197,0,0,0,0,0,0,0,0,0,-1,1763,827,0,0
546,197,0,0,0,0,0,0,0,0,0,-1,1770,827,0,0
553,197,0,0,0,0,0,0,0,0,0,-1,1777,827,0,0
560,197,0,0,0,0,0,0,0,0,0,-1,1784,827,0,0
567,197,0,0,0,0,0,0,0,0,0,-1,1791,827,0,0
574,197,0,0,0,0,0,0,0,0,0,-1,1798,827,0,0
581,197,0,0,0,0,0,0,0,0,0,-1,1805,827,0,0
588,197,0,0,0,0,0,0,0,0,0,-1,1812,827,0,0
595,197,0,0,0,0,0,0,0,0,0,-1,1819,827,0,0
602,197,0.00854492,-0.0322876,-0.00261255,0.00218766,-0.0015926,0.00266799,-0.00309288,-1.27787,0.00332905,0.036382,1826,827,0.0085425,0.0322678
609,197,-0.0787354,-0.0356445,-0.00204658,0.001385,-0.000669153,0.00151087,-0.00217244,-1.38487,0.00213797,0.0370294,1833,827,-0.0787282,0.0356695
616,197,-0.0985107,-0.0466919,-0.00147289,0.000391385,-9.85845e-05,0.000396584,-0.00147808,-1.51811,0.0011408,0.036568,1840,827,-0.0985362,0.0466715
623,197,-0.102539,0.00262451,-0.00108918,-0.000343028,0.000207802,-0.000289059,-0.00114315,1.3167,0.000686344,0.0327972,1847,827,-0.102521,-0.0026493
630,197,-0.0292969,0.0180664,-0.000870583,-0.000784609,0.000392055,-0.000433191,-0.001222,0.840003,0.000715412,0.0283428,1854,827,-0.0292549,-0.0180414
637,197,0.00170898,0.0131836,-0.000725543,-0.00103742,0.00047695,-0.000379687,-0.00138328,0.6274,0.000825269,0.0243632,1861,827,0.0017394,-0.013179
644,197,-0.000244141,-0.0230103,-0.000657224,-0.00116208,0.000525325,-0.000326827,-0.00149248,0.561427,0.000905914,0.0278591,1868,827,-0.000224802,0.0230349
651,197,-0.0250244,-0.0388184,-0.000579633,-0.0011098,0.000487926,-0.00028943,-0.0014,0.536563,0.000853376,0.0388756,1875,827,-0.0250577,0.0388184
658,197,-0.0656738,0.0415649,-0.000415421,-0.00101662,0.000436728,-0.000185839,-0.0012462,0.483985,0.000776303,0.0435276,1882,827,-0.0656901,-0.0415506
665,197,-0.0290527,-0.00189209,-0.000306975,-0.000814166,0.000412763,-7.61287e-05,-0.00104501,0.509933,0.000672736,0.0439004,1889,827,-0.0290391,0.00188442
672,197,0.0161133,0.069519,-0.000342442,-0.000603836,0.000381519,-6.9854e-05,-0.000876424,0.620378,0.000562446,0.0242517,1896,827,0.016156,-0.069519
679,197,-0.0327148,0.0576172,-0.000364507,-0.000447441,0.000363936,-3.96834e-05,-0.000772265,0.728672,0.000502138,0.0107625,1903,827,-0.0327628,-0.0576094
686,197,-0.036499,0.0272827,-0.000116832,-0.000249726,0.000248502,7.39528e-05,-0.000440511,0.654759,0.000321176,0.00919813,1910,827,-0.0365486,-0.0273074
693,197,-0.0388184,0.0317993,0.000319785,-0.000206204,0.000249255,0.000419136,-0.000305555,0.379292,0.00042011,0.0141903,1917,827,-0.0388546,-0.031802
700,197,-0.0412598,0.0380249,0.000673832,-0.000593068,0.000370126,0.000774039,-0.000693274,0.264399,0.000847581,0.0199902,1924,827,-0.041292,-0.0379994
707,197,-0.0172119,0.0446777,0.000835399,-0.000489765,-0.000140117,0.000850052,-0.000504418,-0.1042,0.000790445,0.00905892,1931,827,-0.0171961,-0.0446657
714,197,-0.015625,0.0470581,0.00133709,-0.000999241,-0.000443858,0.00141857,-0.00108072,-0.181557,0.00144736,0.0111,1938,827,-0.0156338,-0.0470281
721,197,-0.0257568,0.0378418,0.00210303,-0.00257708,4.44028e-05,0.00210346,-0.0025775,0.00948642,0.00270717,0.0110579,1945,827,-0.0258004,-0.0378426
728,197,-0.0350342,0.0432129,0.00324208,-0.00393551,0.000327279,0.00325697,-0.0039504,0.0454716,0.00416759,0.00977576,1952,827,-0.0349807,-0.0432036
735,197,-0.0402832,0.0561523,0.00448107,-0.00555999,0.000720478,0.0045325,-0.00561143,0.0712666,0.00586763,0.0102731,1959,827,-0.0402644,-0.0561593
742,197,0.0065918,0.0454102,0.0059133,-0.00773541,0.00140734,0.0060569,-0.00787901,0.101686,0.0080688,0.018079,1966,827,0.00663961,-0.0454269
749,197,0.083252,0.03479,0.00783858,-0.0104961,0.00252401,0.00817969,-0.0108373,0.134334,0.0110151,0.0383698,1973,827,0.0833077,-0.0347918
756,197,-0.125977,-0.00939941,0.0103423,-0.0139842,0.00429076,0.0110769,-0.0147188,0.169568,0.0149426,0.0429991,1980,827,-0.12592,0.00939535
763,197,-0.414917,-0.207153,0.0136216,-0.0183305,0.00697526,0.0150779,-0.0197869,0.20583,0.0201903,0.0455115,1987,827,-0.414928,0.207176
770,197,-0.561523,-0.180786,0.017887,-0.0236694,0.0108895,0.0205676,-0.02635,0.241364,0.0271564,0.0464099,1994,827,-0.561508,0.180806
777,197,0,0,0,0,0,0,0,0,0,-1,2001,827,0,0
784,197,0,0,0,0,0,0,0,0,0,-1,2008,827,0,0
791,197,0,0,0,0,0,0,0,0,0,-1,2015,827,0,0
798,197,0,0,0,0,0,0,0,0,0,-1,2022,827,0,0
805,197,0,0,0,0,0,0,0,0,0,-1,2029,827,0,0
812,197,0,0,0,0,0,0,0,0,0,-1,2036,827,0,0
-700,190,0,0,0,0,0,0,0,0,0,-1,524,834,0,0
-693,190,0,0,0,0,0,0,0,0,0,-1,531,834,0,0
-686,190,0,0,0,0,0,0,0,0,0,-1,538,834,0,0
-679,190,0,0,0,0,0,0,0,0,0,-1,545,834,0,0
-672,190,0,0,0,0,0,0,0,0,0,-1,552,834,0,0
-665,190,0,0,0,0,0,0,0,0,0,-1,559,834,0,0
-658,190,-0.451721,0.176147,0,0,0,0,0,0,0,-1,566,834,-0.451746,-0.176171
-651,190,-0.173889,0.11377,0,0,0,0,0,0,0,-1,573,834,-0.173912,-0.113764
-644,190,-0.401794,0.163391,0,0,0,0,0,0,0,-1,580,834,-0.401776,-0.163379
-637,190,-0.469543,0.128845,0.0194839,-0.0168318,0.00551314,0.0203024,-0.0176503,0.147389,0.0219298,0.0479592,587,834,-0.469534,-0.128827
-630,190,-0.389709,0.11261,0.0144039,-0.0127757,0.00478023,0.0152201,-0.0135919,0.169117,0.0166435,0.0422547,594,834,-0.389724,-0.112615
-623,190,-0.380493,0.0598145,0.0104489,-0.00946366,0.00404441,0.011239,-0.0102538,0.192927,0.0124132,0.0424808,601,834,-0.380496,-0.0598129
-616,190,-0.231873,0.0245361,0.00742951,-0.00664198,0.00329918,0.00816463,-0.00737709,0.219237,0.00897685,0.0414484,608,834,-0.231892,-0.0245359
-609,190,-0.0690308,0.022583,0.00483687,-0.00451057,0.00255387,0.00548911,-0.00516281,0.25005,0.00615085,0.0212467,615,834,-0.0690331,-0.0225785
-602,190,-0.0384521,0.0496216,0.00295541,-0.0031537,0.00195679,0.00352843,-0.00372672,0.284874,0.00418928,0.0132877,622,834,-0.038449,-0.0496307
-595,190,-0.0383301,0.0631714,0.0017706,-0.00175514,0.00147719,0.00230769,-0.00229222,0.348727,0.00265577,0.0157552,629,834,-0.0383402,-0.0631746
-588,190,-0.0488892,0.0494995,0.00113068,-0.000994574,0.000756665,0.00137255,-0.00123645,0.309391,0.00150699,0.0135206,636,834,-0.0488798,-0.0494804
-581,190,-0.0413208,0.0569458,0.000949896,-0.000142649,0.000291322,0.00102272,-0.000215475,0.244962,0.000763838,0.00962163,643,834,-0.0413114,-0.0569674
-574,190,-0.0282593,0.0541992,0.000939088,0.00031562,-0.000326107,0.00107849,0.000176218,-0.403964,0.000668046,0.00921144,650,834,-0.0282588,-0.0541734
-567,190,-0.0255737,0.0567017,0.000844218,0.000510321,-0.000761693,0.00145704,-0.000102505,-0.677514,0.00100727,0.0102744,657,834,-0.0255763,-0.0566926
-560,190,-0.0249634,0.065979,0.00101041,0.000537667,-0.000828817,0.0016359,-8.78236e-05,-0.646489,0.00112103,0.010547,664,834,-0.0249549,-0.065982
-553,190,-0.0234375,0.0753174,0.00159432,0.000632027,-0.00063766,0.00191199,0.000314355,-0.462194,0.00118387,0.00961673,671,834,-0.0234492,-0.0752945
-546,190,-0.0113525,0.0249634,0.00201278,0.00064858,-0.000478517,0.00216389,0.00049747,-0.305878,0.00130868,0.019522,678,834,-0.01133,-0.0249923
-539,190,-0.0466919,-0.25238,0.0022465,0.000625435,-0.000337793,0.00231407,0.000557863,-0.197433,0.00139446,0.0364454,685,834,-0.0467169,0.252359
-532,190,-0.137268,-0.45282,0.00245334,0.000475566,-8.25522e-05,0.00245678,0.000472127,-0.0416435,0.00150536,0.0434594,692,834,-0.137239,0.452827
-525,190,-0.0671997,-0.256287,0.00265552,0.000323449,0.000179889,0.00266931,0.000309654,0.076534,0.00168583,0.0432723,699,834,-0.0671995,0.256309
-518,190,-0.122986,-0.0796509,0.00274297,0.000196442,0.000470656,0.00282718,0.000112238,0.177034,0.00184851,0.0448696,706,834,-0.122995,0.0796681
-511,190,-0.0855103,-0.00994873,0.00267336,3.83236e-05,0.000696602,0.00284618,-0.000134496,0.24318,0.00194384,0.0392121,713,834,-0.0855121,0.00994141
-504,190,-0.0351563,0.0966187,0.00242095,-6.91605e-05,0.000750216,0.0026295,-0.000277717,0.271149,0.00185253,0.0387488,720,834,-0.0351396,-0.0966006
-497,190,-0.0391846,0.26123,0.00198332,-5.86334e-05,0.000506143,0.00210189,-0.000177207,0.230119,0.00146391,0.0393369,727,834,-0.0392056,-0.261201
-490,190,-0.0979614,0.201477,0.00138513,0.000130672,-0.000306419,0.00145597,5.98257e-05,-0.227215,0.000951334,0.0373118,734,834,-0.0979457,-0.201493
-483,190,0,0,0,0,0,0,0,0,0,-1,741,834,0,0
-476,190,0,0,0,0,0,0,0,0,0,-1,748,834,0,0
-469,190,0,0,0,0,0,0,0,0,0,-1,755,834,0,0
-462,190,0,0,0,0,0,0,0,0,0,-1,762,834,0,0
-455,190,0,0,0,0,0,0,0,0,0,-1,769,834,0,0
-448,190,0,0,0,0,0,0,0,0,0,-1,776,834,0,0
-441,190,0,0,0,0,0,0,0,0,0,-1,783,834,0,0
-434,190,0,0,0,0,0,0,0,0,0,-1,790,834,0,0
-427,190,0,0,0,0,0,0,0,0,0,-1,797,834,0,0
-420,190,0,0,0,0,0,0,0,0,0,-1,804,834,0,0
-413,190,0,0,0,0,0,0,0,0,0,-1,811,834,0,0
-406,190,0,0,0,0,0,0,0,0,0,-1,818,834,0,0
-399,190,0,0,0,0,0,0,0,0,0,-1,825,834,0,0
-392,190,0,0,0,0,0,0,0,0,0,-1,832,834,0,0
-385,190,0,0,0,0,0,0,0,0,0,-1,839,834,0,0
-378,190,0,0,0,0,0,0,0,0,0,-1,846,834,0,0
-371,190,0,0,0,0,0,0,0,0,0,-1,853,834,0,0
-364,190,0,0,0,0,0,0,0,0,0,-1,860,834,0,0
-357,190,0,0,0,0,0,0,0,0,0,-1,867,834,0,0
-350,190,0,0,0,0,0,0,0,0,0,-1,874,834,0,0
-343,190,0,0,0,0,0,0,0,0,0,-1,881,834,0,0
-336,190,0,0,0,0,0,0,0,0,0,-1,888,834,0,0
-329,190,0,0,0,0,0,0,0,0,0,-1,895,834,0,0
-322,190,0,0,0,0,0,0,0,0,0,-1,902,834,0,0
-315,190,0,0,0,0,0,0,0,0,0,-1,909,834,0,0
-308,190,0,0,0,0,0,0,0,0,0,-1,916,834,0,0
-301,190,0,0,0,0,0,0,0,0,0,-1,923,834,0,0
-294,190,0,0,0,0,0,0,0,0,0,-1,930,834,0,0
-287,190,0,0,0,0,0,0,0,0,0,-1,937,834,0,0
-280,190,0,0,0,0,0,0,0,0,0,-1,944,834,0,0
-273,190,0,0,0,0,0,0,0,0,0,-1,951,834,0,0
-266,190,0,0,0,0,0,0,0,0,0,-1,958,834,0,0
-259,190,0,0,0,0,0,0,0,0,0,-1,965,834,0,0
-252,190,0,0,0,0,0,0,0,0,0,-1,972,834,0,0
-245,190,0,0,0,0,0,0,0,0,0,-1,979,834,0,0
-238,190,0,0,0,0,0,0,0,0,0,-1,986,834,0,0
-231,190,0,0,0,0,0,0,0,0,0,-1,993,834,0,0
-224,190,0,0,0,0,0,0,0,0,0,-1,1000,834,0,0
-217,190,0,0,0,0,0,0,0,0,0,-1,1007,834,0,0
-210,190,0,0,0,0,0,0,0,0,0,-1,1014,834,0,0
-203,190,0,0,0,0,0,0,0,0,0,-1,1021,834,0,0
-196,190,0,0,0,0,0,0,0,0,0,-1,1028,834,0,0
-189,190,0,0,0,0,0,0,0,0,0,-1,1035,834,0,0
-182,190,0,0,0,0,0,0,0,0,0,-1,1042,834,0,0
-175,190,0,0,0,0,0,0,0,0,0,-1,1049,834,0,0
-168,190,0,0,0,0,0,0,0,0,0,-1,1056,834,0,0
-161,190,0,0,0,0,0,0,0,0,0,-1,1063,834,0,0
-154,190,0,0,0,0,0,0,0,0,0,-1,1070,834,0,0
-147,190,0,0,0,0,0,0,0,0,0,-1,1077,834,0,0
-140,190,0,0,0,0,0,0,0,0,0,-1,1084,834,0,0
-133,190,0,0,0,0,0,0,0,0,0,-1,1091,834,0,0
-126,190,0,0,0,0,0,0,0,0,0,-1,1098,834,0,0
-119,190,0,0,0,0,0,0,0,0,0,-1,1105,834,0,0
-112,190,0,0,0,0,0,0,0,0,0,-1,1112,834,0,0
-105,190,0,0,0,0,0,0,0,0,0,-1,1119,834,0,0
-98,190,0,0,0,0,0,0,0,0,0,-1,1126,834,0,0
-91,190,0,0,0,0,0,0,0,0,0,-1,1133,834,0,0
-84,190,0,0,0,0,0,0,0,0,0,-1,1140,834,0,0
-77,190,0,0,0,0,0,0,0,0,0,-1,1147,834,0,0
-70,190,0,0,0,0,0,0,0,0,0,-1,1154,834,0,0
-63,190,0,0,0,0,0,0,0,0,0,-1,1161,834,0,0
-56,190,0,0,0,0,0,0,0,0,0,-1,1168,834,0,0
-49,190,0,0,0,0,0,0,0,0,0,-1,1175,834,0,0
-42,190,0,0,0,0,0,0,0,0,0,-1,1182,834,0,0
-35,190,0,0,0,0,0,0,0,0,0,-1,1189,834,0,0
-28,190,0,0,0,0,0,0,0,0,0,-1,1196,834,0,0
-21,190,0,0,0,0,0,0,0,0,0,-1,1203,834,0,0
-14,190,0,0,0,0,0,0,0,0,0,-1,1210,834,0,0
-7,190,0,0,0,0,0,0,0,0,0,-1,1217,834,0,0
0,190,0,0,0,0,0,0,0,0,0,-1,1224,834,0,0
7,190,0,0,0,0,0,0,0,0,0,-1,1231,834,0,0
14,190,0,0,0,0,0,0,0,0,0,-1,1238,834,0,0
21,190,0,0,0,0,0,0,0,0,0,-1,1245,834,0,0
28,190,0,0,0,0,0,0,0,0,0,-1,1252,834,0,0
35,190,0,0,0,0,0,0,0,0,0,-1,1259,834,0,0
42,190,0,0,0,0,0,0,0,0,0,-1,1266,834,0,0
49,190,0,0,0,0,0,0,0,0,0,-1,1273,834,0,0
56,190,0,0,0,0,0,0,0,0,0,-1,1280,834,0,0
63,190,0,0,0,0,0,0,0,0,0,-1,1287,834,0,0
70,190,0,0,0,0,0,0,0,0,0,-1,1294,834,0,0
77,190,0,0,0,0,0,0,0,0,0,-1,1301,834,0,0
84,190,0,0,0,0,0,0,0,0,0,-1,1308,834,0,0
91,190,0,0,0,0,0,0,0,0,0,-1,1315,834,0,0
98,190,0,0,0,0,0,0,0,0,0,-1,1322,834,0,0
105,190,0,0,0,0,0,0,0,0,0,-1,1329,834,0,0
112,190,0,0,0,0,0,0,0,0,0,-1,1336,834,0,0
119,190,0,0,0,0,0,0,0,0,0,-1,1343,834,0,0
126,190,0,0,0,0,0,0,0,0,0,-1,1350,834,0,0
133,190,0,0,0,0,0,0,0,0,0,-1,1357,834,0,0
140,190,0,0,0,0,0,0,0,0,0,-1,1364,834,0,0
147,190,0,0,0,0,0,0,0,0,0,-1,1371,834,0,0
154,190,0,0,0,0,0,0,0,0,0,-1,1378,834,0,0
161,190,0,0,0,0,0,0,0,0,0,-1,1385,834,0,0
168,190,0,0,0,0,0,0,0,0,0,-1,1392,834,0,0
175,190,0,0,0,0,0,0,0,0,0,-1,1399,834,0,0
182,190,0,0,0,0,0,0,0,0,0,-1,1406,834,0,0
189,190,0,0,0,0,0,0,0,0,0,-1,1413,834,0,0
196,190,0,0,0,0,0,0,0,0,0,-1,1420,834,0,0
203,190,0,0,0,0,0,0,0,0,0,-1,1427,834,0,0
210,190,0,0,0,0,0,0,0,0,0,-1,1434,834,0,0
217,190,0,0,0,0,0,0,0,0,0,-1,1441,834,0,0
224,190,0,0,0,0,0,0,0,0,0,-1,1448,834,0,0
231,190,0,0,0,0,0,0,0,0,0,-1,1455,834,0,0
238,190,0,0,0,0,0,0,0,0,0,-1,1462,834,0,0
245,190,0,0,0,0,0,0,0,0,0,-1,1469,834,0,0
252,190,0,0,0,0,0,0,0,0,0,-1,1476,834,0,0
259,190,0,0,0,0,0,0,0,0,0,-1,1483,834,0,0
266,190,0,0,0,0,0,0,0,0,0,-1,1490,834,0,0
273,190,0,0,0,0,0,0,0,0,0,-1,1497,834,0,0
280,190,0,0,0,0,0,0,0,0,0,-1,1504,834,0,0
287,190,0,0,0,0,0,0,0,0,0,-1,1511,834,0,0
294,190,0,0,0,0,0,0,0,0,0,-1,1518,834,0,0
301,190,0,0,0,0,0,0,0,0,0,-1,1525,834,0,0
308,190,0,0,0,0,0,0,0,0,0,-1,1532,834,0,0
315,190,0,0,0,0,0,0,0,0,0,-1,1539,834,0,0
322,190,0,0,0,0,0,0,0,0,0,-1,1546,834,0,0
329,190,0,0,0,0,0,0,0,0,0,-1,1553,834,0,0
336,190,0,0,0,0,0,0,0,0,0,-1,1560,834,0,0
343,190,0,0,0,0,0,0,0,0,0,-1,1567,834,0,0
350,190,0,0,0,0,0,0,0,0,0,-1,1574,834,0,0
357,190,0,0,0,0,0,0,0,0,0,-1,1581,834,0,0
364,190,0,0,0,0,0,0,0,0,0,-1,1588,834,0,0
371,190,0,0,0,0,0,0,0,0,0,-1,1595,834,0,0
378,190,0,0,0,0,0,0,0,0,0,-1,1602,834,0,0
385,190,0,0,0,0,0,0,0,0,0,-1,1609,834,0,0
392,190,0,0,0,0,0,0,0,0,0,-1,1616,834,0,0
399,190,0,0,0,0,0,0,0,0,0,-1,1623,834,0,0
406,190,0,0,0,0,0,0,0,0,0,-1,1630,834,0,0
413,190,0,0,0,0,0,0,0,0,0,-1,1637,834,0,0
420,190,0,0,0,0,0,0,0,0,0,-1,1644,834,0,0
427,190,0,0,0,0,0,0,0,0,0,-1,1651,834,0,0
434,190,0,0,0,0,0,0,0,0,0,-1,1658,834,0,0
441,190,0,0,0,0,0,0,0,0,0,-1,1665,834,0,0
448,190,0,0,0,0,0,0,0,0,0,-1,1672,834,0,0
455,190,0,0,0,0,0,0,0,0,0,-1,1679,834,0,0
462,190,0,0,0,0,0,0,0,0,0,-1,1686,834,0,0
469,190,0,0,0,0,0,0,0,0,0,-1,1693,834,0,0
476,190,0,0,0,0,0,0,0,0,0,-1,1700,834,0,0
483,190,0,0,0,0,0,0,0,0,0,-1,1707,834,0,0
490,190,0,0,0,0,0,0,0,0,0,-1,1714,834,0,0
497,190,0,0,0,0,0,0,0,0,0,-1,1721,834,0,0
504,190,0,0,0,0,0,0,0,0,0,-1,1728,834,0,0
511,190,0,0,0,0,0,0,0,0,0,-1,1735,834,0,0
518,190,0,0,0,0,0,0,0,0,0,-1,1742,834,0,0
525,190,0,0,0,0,0,0,0,0,0,-1,1749,834,0,0
532,190,0,0,0,0,0,0,0,0,0,-1,1756,834,0,0
539,190,0,0,0,0,0,0,0,0,0,-1,1763,834,0,0
546,190,0,0,0,0,0,0,0,0,0,-1,1770,834,0,0
553,190,0,0,0,0,0,0,0,0,0,-1,1777,834,0,0
560,190,0,0,0,0,0,0,0,0,0,-1,1784,834,0,0
567,190,0,0,0,0,0,0,0,0,0,-1,1791,834,0,0
574,190,0,0,0,0,0,0,0,0,0,-1,1798,834,0,0
581,190,0,0,0,0,0,0,0,0,0,-1,1805,834,0,0
588,190,0,0,0,0,0,0,0,0,0,-1,1812,834,0,0
595,190,0,0,0,0,0,0,0,0,0,-1,1819,834,0,0
602,190,0.0654297,-0.0858765,-0.00345139,0.00253573,-0.00226969,0.00329888,-0.00421455,-1.24644,0.0043486,0.0374592,1826,834,0.0654821,0.0858748
609,190,-0.0778809,-0.121582,-0.00249587,0.00163248,-0.00141757,0.00207237,-0.00293576,-1.26991,0.00290573,0.0367423,1833,834,-0.077898,0.121553
616,190,-0.121216,-0.0474243,-0.00162499,0.000515485,-0.000817637,0.000792073,-0.00190158,-1.2446,0.00159855,0.0362278,1840,834,-0.121196,0.0474054
623,190,-0.0339355,-0.102417,-0.00103958,-0.000289685,-0.000455482,-7.46745e-05,-0.00125459,-1.12976,0.000812644,0.0347274,1847,834,-0.0339352,0.1024
630,190,0.0550537,-0.0706177,-0.000738582,-0.000760345,-0.000165716,-0.000583391,-0.000915536,-0.752613,0.000535178,0.0364098,1854,834,0.0550725,0.0706308
637,190,0.0615234,0.00811768,-0.000568879,-0.001009,2.85217e-05,-0.000567039,-0.00101084,0.0644444,0.000585055,0.0293724,1861,834,0.0615419,-0.00813532
644,190,0.0100098,0.0328369,-0.000504964,-0.00111038,0.000174274,-0.000458382,-0.00115696,0.261186,0.000672755,0.0229499,1868,834,0.0100052,-0.0328213
651,190,-0.0535889,0.0979614,-0.000454485,-0.00104234,0.000234889,-0.000372159,-0.00112466,0.33711,0.000661585,0.0333937,1875,834,-0.0535445,-0.0979595
658,190,-0.198486,0.226624,-0.00032418,-0.000934296,0.000268604,-0.000222779,-0.0010357,0.360969,0.000629485,0.040857,1882,834,-0.198536,-0.226619
665,190,-0.190918,0.26886,-0.000227193,-0.000713242,0.000302002,-8.25755e-05,-0.000857859,0.446594,0.000546464,0.0409251,1889,834,-0.190929,-0.268852
672,190,0.0645752,-0.113586,-0.000310243,-0.000515531,0.00032527,-7.18059e-05,-0.000753969,0.632561,0.000480502,0.0302988,1896,834,0.0645905,0.113574
679,190,-0.0402832,0.060791,-0.000399955,-0.000311197,0.000347629,-5.12556e-06,-0.000706027,0.848886,0.000468985,0.0151745,1903,834,-0.0402302,-0.0607813
686,190,-0.0477295,0.0424805,-0.000376984,-0.000108308,0.000368073,0.000149175,-0.000634467,0.960375,0.000480485,0.00946989,1910,834,-0.0477501,-0.0424811
693,190,-0.0500488,0.0324097,-0.000162145,1.48401e-05,0.000436726,0.000371949,-0.000519254,0.885358,0.000516873,0.0118224,1917,834,-0.0500812,-0.0323858
700,190,-0.038208,0.0368042,-5.92605e-05,-0.000171994,0.00056628,0.000453451,-0.000684705,0.735792,0.000661621,0.0104069,1924,834,-0.0381673,-0.0368271
707,190,-0.00915527,0.0446777,-0.000221759,-5.56011e-05,0.000255062,0.000129572,-0.000406932,0.94284,0.000323254,0.0120899,1931,834,-0.00914379,-0.0446573
714,190,-0.00598145,0.0374756,-0.000116766,-0.000400695,0.000181733,-2.8121e-05,-0.00048934,0.45382,0.000317269,0.0110321,1938,834,-0.00594299,-0.0374706
721,190,-0.00671387,0.0332031,0.000260053,-0.00172184,0.000869492,0.000587436,-0.00204923,0.360104,0.00159836,0.0104578,1945,834,-0.00668608,-0.0331914
728,190,-0.0501709,0.0379639,0.000889273,-0.0029805,0.00143163,0.00136132,-0.00345255,0.318504,0.00286538,0.0123026,1952,834,-0.0502114,-0.0379824
735,190,-0.0510254,0.0463257,0.00155825,-0.00447845,0.00220934,0.00228044,-0.00520064,0.315931,0.00442753,0.0110599,1959,834,-0.0510058,-0.0463049
742,190,-0.0126953,0.0466309,0.00242038,-0.00658475,0.0033357,0.00352138,-0.00768576,0.318808,0.00661767,0.0140479,1966,834,-0.0126715,-0.046651
749,190,-0.0241699,0.103516,0.00379361,-0.00930694,0.00493079,0.00544204,-0.0109554,0.322633,0.00964378,0.0336795,1973,834,-0.0241136,-0.103545
756,190,-0.40686,-0.0935669,0.00575343,-0.0128583,0.00722011,0.00822589,-0.0153308,0.329926,0.0138051,0.0422619,1980,834,-0.406882,0.0935554
763,190,-0.356567,-0.361389,0.0084793,-0.0173842,0.0104412,0.0121683,-0.0210732,0.339621,0.0194202,0.0445155,1987,834,-0.356621,0.361412
770,190,-0.198975,-0.494385,0,0,0,0,0,0,0,-1,1994,834,-0.199028,0.494414
777,190,0.375122,0.342224,0,0,0,0,0,0,0,-1,2001,834,0.375174,-0.342207
784,190,0,0,0,0,0,0,0,0,0,-1,2008,834,0,0
791,190,0,0,0,0,0,0,0,0,0,-1,2015,834,0,0
798,190,0,0,0,0,0,0,0,0,0,-1,2022,834,0,0
805,190,0,0,0,0,0,0,0,0,0,-1,2029,834,0,0
812,190,0,0,0,0,0,0,0,0,0,-1,2036,834,0,0
-700,183,0,0,0,0,0,0,0,0,0,-1,524,841,0,0
-693,183,0,0,0,0,0,0,0,0,0,-1,531,841,0,0
-686,183,0,0,0,0,0,0,0,0,0,-1,538,841,0,0
-679,183,0,0,0,0,0,0,0,0,0,-1,545,841,0,0
-672,183,0,0,0,0,0,0,0,0,0,-1,552,841,0,0
-665,183,0,0,0,0,0,0,0,0,0,-1,559,841,0,0
-658,183,0.0045166,0.734619,0,0,0,0,0,0,0,-1,566,841,0.00449137,-0.73463
-651,183,-0.00457764,0.334961,0,0,0,0,0,0,0,-1,573,841,-0.00455215,-0.334954
-644,183,-0.0941162,0.283752,0,0,0,0,0,0,0,-1,580,841,-0.0941295,-0.283772
-637,183,-0.347473,0.302551,0.0185069,-0.0180383,0.00323516,0.018791,-0.0183225,0.0876168,0.0214281,0.0480575,587,841,-0.347501,-0.302562
-630,183,-0.338867,0.239319,0.0136268,-0.0133803,0.00279138,0.0139122,-0.0136658,0.101922,0.0159224,0.0431679,594,841,-0.338837,-0.239299
-623,183,-0.343567,0.12384,0.00986264,-0.00964931,0.00238073,0.0101489,-0.00993559,0.119675,0.011596,0.0441186,601,841,-0.343538,-0.123831
-616,183,-0.1875,-0.0523682,0.00701428,-0.00651046,0.00195979,0.00729253,-0.00678871,0.14104,0.00813154,0.0376484,608,841,-0.187486,0.0523914
-609,183,-0.0449829,0.0065918,0.00452361,-0.00413322,0.00149578,0.00477478,-0.00438439,0.166363,0.00528965,0.0150196,615,841,-0.044971,-0.00658315
-602,183,-0.0374756,0.0646362,0.00271338,-0.00266583,0.00116409,0.00295448,-0.00290694,0.204234,0.00338413,0.00972684,622,841,-0.037468,-0.0646603
-595,183,-0.036499,0.0641479,0.00164377,-0.00132923,0.000933497,0.00191257,-0.00159804,0.280371,0.00202956,0.00958621,629,841,-0.0365048,-0.0641233
-588,183,-0.0339966,0.0645752,0.00115282,-0.000647363,0.00041619,0.00124439,-0.000738925,0.216553,0.0011574,0.00906731,636,841,-0.0340122,-0.0645764
-581,183,-0.0395508,0.06427,0.00102548,5.75406e-05,7.75008e-05,0.00103164,5.13745e-05,0.079394,0.000671293,0.0100494,643,841,-0.0395696,-0.0642448
-574,183,-0.0263062,0.052002,0.0010263,0.000380422,-0.000421027,0.00123398,0.000172745,-0.458244,0.000771543,0.010575,650,841,-0.0263363,-0.0519906
-567,183,-0.0177612,0.0597534,0.000971223,0.000488079,-0.000790304,0.00155605,-9.67492e-05,-0.637073,0.00107107,0.0105561,657,841,-0.0177866,-0.0597751
-560,183,-0.0303955,0.0558472,0.00112797,0.000495798,-0.0008922,0.00175842,-0.000134652,-0.615157,0.00121965,0.0107377,664,841,-0.0303711,-0.0558505
-553,183,-0.0334473,0.0476685,0.00162207,0.000585873,-0.000795187,0.00205305,0.000154893,-0.496669,0.0013201,0.00988636,671,841,-0.0334262,-0.0476727
-546,183,-0.0247803,0.0302734,0.00200531,0.000593443,-0.000732982,0.00231702,0.000281729,-0.402097,0.00145986,0.0220266,678,841,-0.0247934,-0.0302577
-539,183,0.114746,-0.528992,0.00225601,0.000572731,-0.000671025,0.00249077,0.000337973,-0.336541,0.00156011,0.0409585,685,841,0.114765,0.528995
-532,183,0.25293,-0.985535,0,0,0,0,0,0,0,-1,692,841,0.252946,0.985531
-525,183,-0.150208,-0.108215,0.00271802,0.000219021,-0.000247353,0.00274227,0.000194773,-0.0977174,0.00176684,0.0440392,699,841,-0.150228,0.108221
-518,183,-0.0878906,-0.0565796,0.00279156,4.81444e-07,2.16875e-05,0.00279173,3.12924e-07,0.00776967,0.00186105,0.0417906,706,841,-0.0878796,0.0566012
-511,183,0.0273438,0.0559692,0.00268361,-0.000278612,0.000273546,0.00270866,-0.00030366,0.0913159,0.00191503,0.0368299,713,841,0.0273146,-0.0559958
-504,183,0.0432129,0.132385,0.00235457,-0.000571004,0.000405848,0.00240982,-0.000626262,0.135321,0.00185096,0.0379181,720,841,0.0431853,-0.132415
-497,183,0.00537109,0.157166,0.00177823,-0.000840641,0.000307313,0.00181381,-0.000876219,0.11526,0.00158422,0.0387287,727,841,0.00536078,-0.157169
-490,183,-0.0283813,0.0477905,0.000976514,-0.0010666,-0.000362541,0.00103894,-0.00112902,-0.170513,0.00125203,0.0391698,734,841,-0.0283987,-0.0477784
-483,183,0,0,0,0,0,0,0,0,0,-1,741,841,0,0
-476,183,0,0,0,0,0,0,0,0,0,-1,748,841,0,0
-469,183,0,0,0,0,0,0,0,0,0,-1,755,841,0,0
-462,183,0,0,0,0,0,0,0,0,0,-1,762,841,0,0
-455,183,0,0,0,0,0,0,0,0,0,-1,769,841,0,0
-448,183,0,0,0,0,0,0,0,0,0,-1,776,841,0,0
-441,183,0,0,0,0,0,0,0,0,0,-1,783,841,0,0
-434,183,0,0,0,0,0,0,0,0,0,-1,790,841,0,0
-427,183,0,0,0,0,0,0,0,0,0,-1,797,841,0,0
-420,183,0,0,0,0,0,0,0,0,0,-1,804,841,0,0
-413,183,0,0,0,0,0,0,0,0,0,-1,811,841,0,0
-406,183,0,0,0,0,0,0,0,0,0,-1,818,841,0,0
-399,183,0,0,0,0,0,0,0,0,0,-1,825,841,0,0
-392,183,0,0,0,0,0,0,0,0,0,-1,832,841,0,0
-385,183,0,0,0,0,0,0,0,0,0,-1,839,841,0,0
-378,183,0,0,0,0,0,0,0,0,0,-1,846,841,0,0
-371,183,0,0,0,0,0,0,0,0,0,-1,853,841,0,0
-364,183,0,0,0,0,0,0,0,0,0,-1,860,841,0,0
-357,183,0,0,0,0,0,0,0,0,0,-1,867,841,0,0
-350,183,0,0,0,0,0,0,0,0,0,-1,874,841,0,0
-343,183,0,0,0,0,0,0,0,0,0,-1,881,841,0,0
-336,183,0,0,0,0,0,0,0,0,0,-1,888,841,0,0
-329,183,0,0,0,0,0,0,0,0,0,-1,895,841,0,0
-322,183,0,0,0,0,0,0,0,0,0,-1,902,841,0,0
-315,183,0,0,0,0,0,0,0,0,0,-1,909,841,0,0
-308,183,0,0,0,0,0,0,0,0,0,-1,916,841,0,0
-301,183,0,0,0,0,0,0,0,0,0,-1,923,841,0,0
-294,183,0,0,0,0,0,0,0,0,0,-1,930,841,0,0
-287,183,0,0,0,0,0,0,0,0,0,-1,937,841,0,0
-280,183,0,0,0,0,0,0,0,0,0,-1,944,841,0,0
-273,183,0,0,0,0,0,0,0,0,0,-1,951,841,0,0
-266,183,0,0,0,0,0,0,0,0,0,-1,958,841,0,0
-259,183,0,0,0,0,0,0,0,0,0,-1,965,841,0,0
-252,183,0,0,0,0,0,0,0,0,0,-1,972,841,0,0
-245,183,0,0,0,0,0,0,0,0,0,-1,979,841,0,0
-238,183,0,0,0,0,0,0,0,0,0,-1,986,841,0,0
-231,183,0,0,0,0,0,0,0,0,0,-1,993,841,0,0
-224,183,0,0,0,0,0,0,0,0,0,-1,1000,841,0,0
-217,183,0,0,0,0,0,0,0,0,0,-1,1007,841,0,0
-210,183,0,0,0,0,0,0,0,0,0,-1,1014,841,0,0
-203,183,0,0,0,0,0,0,0,0,0,-1,1021,841,0,0
-196,183,0,0,0,0,0,0,0,0,0,-1,1028,841,0,0
-189,183,0,0,0,0,0,0,0,0,0,-1,1035,841,0,0
-182,183,0,0,0,0,0,0,0,0,0,-1,1042,841,0,0
-175,183,0,0,0,0,0,0,0,0,0,-1,1049,841,0,0
-168,183,0,0,0,0,0,0,0,0,0,-1,1056,841,0,0
-161,183,0,0,0,0,0,0,0,0,0,-1,1063,841,0,0
-154,183,0,0,0,0,0,0,0,0,0,-1,1070,841,0,0
-147,183,0,0,0,0,0,0,0,0,0,-1,1077,841,0,0
-140,183,0,0,0,0,0,0,0,0,0,-1,1084,841,0,0
-133,183,0,0,0,0,0,0,0,0,0,-1,1091,841,0,0
-126,183,0,0,0,0,0,0,0,0,0,-1,1098,841,0,0
-119,183,0,0,0,0,0,0,0,0,0,-1,1105,841,0,0
-112,183,0,0,0,0,0,0,0,0,0,-1,1112,841,0,0
-105,183,0,0,0,0,0,0,0,0,0,-1,1119,841,0,0
-98,183,0,0,0,0,0,0,0,0,0,-1,1126,841,0,0
-91,183,0,0,0,0,0,0,0,0,0,-1,1133,841,0,0
-84,183,0,0,0,0,0,0,0,0,0,-1,1140,841,0,0
-77,183,0,0,0,0,0,0,0,0,0,-1,1147,841,0,0
-70,183,0,0,0,0,0,0,0,0,0,-1,1154,841,0,0
-63,183,0,0,0,0,0,0,0,0,0,-1,1161,841,0,0
-56,183,0,0,0,0,0,0,0,0,0,-1,1168,841,0,0
-49,183,0,0,0,0,0,0,0,0,0,-1,1175,841,0,0
-42,183,0,0,0,0,0,0,0,0,0,-1,1182,841,0,0
-35,183,0,0,0,0,0,0,0,0,0,-1,1189,841,0,0
-28,183,0,0,0,0,0,0,0,0,0,-1,1196,841,0,0
-21,183,0,0,0,0,0,0,0,0,0,-1,1203,841,0,0
-14,183,0,0,0,0,0,0,0,0,0,-1,1210,841,0,0
-7,183,0,0,0,0,0,0,0,0,0,-1,1217,841,0,0
0,183,0,0,0,0,0,0,0,0,0,-1,1224,841,0,0
7,183,0,0,0,0,0,0,0,0,0,-1,1231,841,0,0
14,183,0,0,0,0,0,0,0,0,0,-1,1238,841,0,0
21,183,0,0,0,0,0,0,0,0,0,-1,1245,841,0,0
28,183,0,0,0,0,0,0,0,0,0,-1,1252,841,0,0
35,183,0,0,0,0,0,0,0,0,0,-1,1259,841,0,0
42,183,0,0,0,0,0,0,0,0,0,-1,1266,841,0,0
49,183,0,0,0,0,0,0,0,0,0,-1,1273,841,0,0
56,183,0,0,0,0,0,0,0,0,0,-1,1280,841,0,0
63,183,0,0,0,0,0,0,0,0,0,-1,1287,841,0,0
70,183,0,0,0,0,0,0,0,0,0,-1,1294,841,0,0
77,183,0,0,0,0,0,0,0,0,0,-1,1301,841,0,0
84,183,0,0,0,0,0,0,0,0,0,-1,1308,841,0,0
91,183,0,0,0,0,0,0,0,0,0,-1,1315,841,0,0
98,183,0,0,0,0,0,0,0,0,0,-1,1322,841,0,0
105,183,0,0,0,0,0,0,0,0,0,-1,1329,841,0,0
112,183,0,0,0,0,0,0,0,0,0,-1,1336,841,0,0
119,183,0,0,0,0,0,0,0,0,0,-1,1343,841,0,0
126,183,0,0,0,0,0,0,0,0,0,-1,1350,841,0,0
133,183,0,0,0,0,0,0,0,0,0,-1,1357,841,0,0
140,183,0,0,0,0,0,0,0,0,0,-1,1364,841,0,0
147,183,0,0,0,0,0,0,0,0,0,-1,1371,841,0,0
154,183,0,0,0,0,0,0,0,0,0,-1,1378,841,0,0
161,183,0,0,0,0,0,0,0,0,0,-1,1385,841,0,0
168,183,0,0,0,0,0,0,0,0,0,-1,1392,841,0,0
175,183,0,0,0,0,0,0,0,0,0,-1,1399,841,0,0
182,183,0,0,0,0,0,0,0,0,0,-1,1406,841,0,0
189,183,0,0,0,0,0,0,0,0,0,-1,1413,841,0,0
196,183,0,0,0,0,0,0,0,0,0,-1,1420,841,0,0
203,183,0,0,0,0,0,0,0,0,0,-1,1427,841,0,0
210,183,0,0,0,0,0,0,0,0,0,-1,1434,841,0,0
217,183,0,0,0,0,0,0,0,0,0,-1,1441,841,0,0
224,183,0,0,0,0,0,0,0,0,0,-1,1448,841,0,0
231,183,0,0,0,0,0,0,0,0,0,-1,1455,841,0,0
238,183,0,0,0,0,0,0,0,0,0,-1,1462,841,0,0
245,183,0,0,0,0,0,0,0,0,0,-1,1469,841,0,0
252,183,0,0,0,0,0,0,0,0,0,-1,1476,841,0,0
259,183,0,0,0,0,0,0,0,0,0,-1,1483,841,0,0
266,183,0,0,0,0,0,0,0,0,0,-1,1490,841,0,0
273,183,0,0,0,0,0,0,0,0,0,-1,1497,841,0,0
280,183,0,0,0,0,0,0,0,0,0,-1,1504,841,0,0
287,183,0,0,0,0,0,0,0,0,0,-1,1511,841,0,0
294,183,0,0,0,0,0,0,0,0,0,-1,1518,841,0,0
301,183,0,0,0,0,0,0,0,0,0,-1,1525,841,0,0
308,183,0,0,0,0,0,0,0,0,0,-1,1532,841,0,0
315,183,0,0,0,0,0,0,0,0,0,-1,1539,841,0,0
322,183,0,0,0,0,0,0,0,0,0,-1,1546,841,0,0
329,183,0,0,0,0,0,0,0,0,0,-1,1553,841,0,0
336,183,0,0,0,0,0,0,0,0,0,-1,1560,841,0,0
343,183,0,0,0,0,0,0,0,0,0,-1,1567,841,0,0
350,183,0,0,0,0,0,0,0,0,0,-1,1574,841,0,0
357,183,0,0,0,0,0,0,0,0,0,-1,1581,841,0,0
364,183,0,0,0,0,0,0,0,0,0,-1,1588,841,0,0
371,183,0,0,0,0,0,0,0,0,0,-1,1595,841,0,0
378,183,0,0,0,0,0,0,0,0,0,-1,1602,841,0,0
385,183,0,0,0,0,0,0,0,0,0,-1,1609,841,0,0
392,183,0,0,0,0,0,0,0,0,0,-1,1616,841,0,0
399,183,0,0,0,0,0,0,0,0,0,-1,1623,841,0,0
406,183,0,0,0,0,0,0,0,0,0,-1,1630,841,0,0
413,183,0,0,0,0,0,0,0,0,0,-1,1637,841,0,0
420,183,0,0,0,0,0,0,0,0,0,-1,1644,841,0,0
427,183,0,0,0,0,0,0,0,0,0,-1,1651,841,0,0
434,183,0,0,0,0,0,0,0,0,0,-1,1658,841,0,0
441,183,0,0,0,0,0,0,0,0,0,-1,1665,841,0,0
448,183,0,0,0,0,0,0,0,0,0,-1,1672,841,0,0
455,183,0,0,0,0,0,0,0,0,0,-1,1679,841,0,0
462,183,0,0,0,0,0,0,0,0,0,-1,1686,841,0,0
469,183,0,0,0,0,0,0,0,0,0,-1,1693,841,0,0
476,183,0,0,0,0,0,0,0,0,0,-1,1700,841,0,0
483,183,0,0,0,0,0,0,0,0,0,-1,1707,841,0,0
490,183,0,0,0,0,0,0,0,0,0,-1,1714,841,0,0
497,183,0,0,0,0,0,0,0,0,0,-1,1721,841,0,0
504,183,0,0,0,0,0,0,0,0,0,-1,1728,841,0,0
511,183,0,0,0,0,0,0,0,0,0,-1,1735,841,0,0
518,183,0,0,0,0,0,0,0,0,0,-1,1742,841,0,0
525,183,0,0,0,0,0,0,0,0,0,-1,1749,841,0,0
532,183,0,0,0,0,0,0,0,0,0,-1,1756,841,0,0
539,183,0,0,0,0,0,0,0,0,0,-1,1763,841,0,0
546,183,0,0,0,0,0,0,0,0,0,-1,1770,841,0,0
553,183,0,0,0,0,0,0,0,0,0,-1,1777,841,0,0
560,183,0,0,0,0,0,0,0,0,0,-1,1784,841,0,0
567,183,0,0,0,0,0,0,0,0,0,-1,1791,841,0,0
574,183,0,0,0,0,0,0,0,0,0,-1,1798,841,0,0
581,183,0,0,0,0,0,0,0,0,0,-1,1805,841,0,0
588,183,0,0,0,0,0,0,0,0,0,-1,1812,841,0,0
595,183,0,0,0,0,0,0,0,0,0,-1,1819,841,0,0
602,183,0,0,0,0,0,0,0,0,0,-1,1826,841,0,0
609,183,0.0318604,-0.0441284,-0.00260755,0.00115688,-0.00188647,0.00193952,-0.00339019,-1.17753,0.00311488,0.0349054,1833,841,0.0318553,0.044154
616,183,-0.137207,-0.0108032,-0.00159722,0.000232902,-0.00111669,0.000761565,-0.00212588,-1.12864,0.00172798,0.0335158,1840,841,-0.137186,0.0108047
623,183,-0.0406494,-0.124084,-0.000917653,-0.000402344,-0.000667384,5.53952e-05,-0.00137539,-0.969617,0.00093594,0.0376893,1847,841,-0.0407081,0.124097
630,183,0.0904541,-0.0953979,-0.000608304,-0.000758879,-0.000295366,-0.000378781,-0.000988402,-0.660608,0.000575818,0.0381324,1854,841,0.0904989,0.0953967
637,183,0.0516357,0.03125,-0.000455925,-0.000913279,-3.97377e-05,-0.000452498,-0.000916706,-0.086027,0.000529275,0.0319649,1861,841,0.0515778,-0.0312674
644,183,-0.0393066,0.103821,-0.000415476,-0.00094462,0.000138872,-0.000381244,-0.000978852,0.241681,0.000569724,0.0241148,1868,841,-0.0392949,-0.103798
651,183,-0.0450439,0.109375,-0.000391744,-0.000845216,0.000227412,-0.000297349,-0.000939612,0.393444,0.000554534,0.0214725,1875,841,-0.0450073,-0.109347
658,183,0.0413818,0.000183105,-0.000287257,-0.000726205,0.000278399,-0.000152225,-0.000861238,0.451602,0.000530744,0.0392794,1882,841,0.0413279,-0.000175756
665,183,0.204834,-0.376099,-0.000200121,-0.000507354,0.00031816,-4.33269e-07,-0.000707041,0.56049,0.000471216,0.0397155,1889,841,0.204776,0.376116
672,183,0.0270996,-0.214966,-0.000303953,-0.000346895,0.000342296,1.75452e-05,-0.000668393,0.754076,0.000451557,0.0374414,1896,841,0.0271575,0.214982
679,183,-0.00280762,-0.0153809,-0.000421654,-0.000144487,0.000342055,8.5992e-05,-0.000652134,0.977867,0.000466072,0.0245569,1903,841,-0.00283463,0.0153569
686,183,-0.0273438,0.050293,-0.000397791,5.58212e-06,0.000298545,0.000164182,-0.000556391,1.08247,0.000436081,0.0117043,1910,841,-0.0273304,-0.0502847
693,183,-0.0345459,0.0593872,-0.000159815,0.000167508,0.000264213,0.000314642,-0.000306949,1.06269,0.000358885,0.0107479,1917,841,-0.0345836,-0.0594122
700,183,-0.022583,0.0421753,-5.88236e-05,0.000138814,0.000254698,0.000313192,-0.000233201,0.970451,0.000316585,0.0139498,1924,841,-0.0226292,-0.0421726
707,183,-0.0201416,0.046814,-0.000245337,0.000266431,-6.43127e-05,0.000274389,-0.000253296,-1.44768,0.00030474,0.0123916,1931,841,-0.0201929,-0.0468225
714,183,0.00549316,0.0359497,-0.000172878,5.84017e-05,-0.000156113,0.00013704,-0.000251516,-1.10417,0.000227555,0.0167147,1938,841,0.00545256,-0.0359247
721,183,-0.0108643,0.0332031,0.000219724,-0.000999835,0.00043488,0.000358911,-0.00113902,0.309757,0.000903081,0.0145093,1945,841,-0.0108325,-0.0332275
728,183,-0.0544434,0.055542,0.000777832,-0.0021389,0.000980027,0.00107653,-0.0024376,0.295844,0.00207899,0.0118398,1952,841,-0.0544674,-0.0555227
735,183,-0.0377197,0.038208,0.00132802,-0.00351067,0.00183051,0.00194249,-0.00412514,0.32386,0.0035779,0.011439,1959,841,-0.0377549,-0.0382211
742,183,-0.0100098,0.0288696,0.00207298,-0.00551091,0.00311085,0.00318575,-0.00662368,0.343523,0.00577826,0.0108862,1966,841,-0.0100191,-0.0288695
749,183,-0.0316162,0.115662,0.00324465,-0.00811778,0.00492859,0.00508455,-0.00995768,0.35729,0.00883524,0.030557,1973,841,-0.0315639,-0.115638
756,183,-0.348511,-0.110657,0.0048981,-0.0116111,0.00754739,0.00782838,-0.0145414,0.370337,0.0131076,0.0439384,1980,841,-0.348509,0.110663
763,183,-0.536743,-0.530884,0.00717234,-0.0161471,0.0112005,0.0116805,-0.0206553,0.382656,0.0189072,0.0449088,1987,841,-0.536688,0.530902
770,183,-0.190063,-0.122009,0.0101675,-0.0218647,0.0161248,0.0168785,-0.0285758,0.39439,0.0265311,0.0451081,1994,841,-0.19008,0.12202
777,183,0.0325928,0.418274,0.0139962,-0.0288777,0.0226217,0.0237247,-0.0386062,0.406141,0.036327,0.0430543,2001,841,0.0326212,-0.418302
784,183,0,0,0,0,0,0,0,0,0,-1,2008,841,0,0
791,183,0,0,0,0,0,0,0,0,0,-1,2015,841,0,0
798,183,0,0,0,0,0,0,0,0,0,-1,2022,841,0,0
805,183,0,0,0,0,0,0,0,0,0,-1,2029,841,0,0
812,183,0,0,0,0,0,0,0,0,0,-1,2036,841,0,0
-700,176,0,0,0,0,0,0,0,0,0,-1,524,848,0,0
-693,176,0,0,0,0,0,0,0,0,0,-1,531,848,0,0
-686,176,0,0,0,0,0,0,0,0,0,-1,538,848,0,0
-679,176,0,0,0,0,0,0,0,0,0,-1,545,848,0,0
-672,176,0,0,0,0,0,0,0,0,0,-1,552,848,0,0
-665,176,-0.479858,-0.103577,0.0506176,-0.050528,0.00434524,0.050804,-0.0507143,0.042855,0.0586116,0.0459319,559,848,-0.479882,0.103548
-658,176,-0.0482788,0.334656,0.0397496,-0.0395099,0.00269263,0.039841,-0.0396013,0.0339202,0.0458661,0.0473463,566,848,-0.0483014,-0.334672
-651,176,0.0846558,-0.652527,0,0,0,0,0,0,0,-1,573,848,0.0846455,0.652546
-644,176,-0.119446,0.638062,0,0,0,0,0,0,0,-1,580,848,-0.119461,-0.638035
-637,176,-0.176575,0.476257,0.0174652,-0.0169534,0.0010727,0.0174986,-0.0169868,0.0311259,0.0199109,0.0458512,587,848,-0.176554,-0.476273
-630,176,-0.192566,-0.0560303,0.01284,-0.0122426,0.000973944,0.0128777,-0.0122804,0.0387517,0.0145264,0.0435687,594,848,-0.192581,0.0560329
-623,176,-0.131897,-0.0534668,0.00929027,-0.00863297,0.000910656,0.00933642,-0.00867913,0.0506349,0.0104036,0.0410924,601,848,-0.131919,0.0534566
-616,176,-0.062561,-0.0160522,0.00662627,-0.00560631,0.000805856,0.00667913,-0.00565917,0.0655005,0.00713163,0.0267323,608,848,-0.062566,0.0160366
-609,176,-0.032959,0.0440674,0.00423948,-0.0032881,0.000608939,0.00428843,-0.00333704,0.0801994,0.00441397,0.0109486,615,848,-0.0329701,-0.0440424
-602,176,-0.027832,0.0683594,0.00249306,-0.00193412,0.000514214,0.002552,-0.00199306,0.114125,0.0026307,0.0110977,622,848,-0.0278057,-0.0683686
-595,176,-0.0275879,0.0601807,0.00152219,-0.00121719,0.000539804,0.00162472,-0.00131972,0.187708,0.00170301,0.0102469,629,848,-0.0275728,-0.060175
-588,176,-0.0144653,0.053772,0.00116661,-0.000593994,0.000188746,0.00118661,-0.000614001,0.105607,0.00105696,0.00992787,636,848,-0.0144617,-0.0537774
-581,176,-0.0186768,0.0643921,0.00108144,3.36404e-07,-5.90281e-05,0.00108466,-2.87691e-06,-0.0543842,0.000724065,0.009739,643,848,-0.0186694,-0.0644137
-574,176,-0.0197144,0.0686035,0.00108099,0.000232301,-0.000466708,0.00128743,2.58641e-05,-0.416453,0.000849794,0.0117745,650,848,-0.0197335,-0.0685874
-567,176,-0.0195923,0.0679321,0.00106389,0.000291236,-0.000775422,0.00154389,-0.000188767,-0.554289,0.00109761,0.0118562,657,848,-0.0196141,-0.0679469
-560,176,-0.039856,0.0612793,0.00121821,0.000292815,-0.000891362,0.00175981,-0.000248787,-0.545997,0.00126432,0.0101303,664,848,-0.0398668,-0.0612728
-553,176,-0.0284424,0.057312,0.00163379,0.000347496,-0.000832242,0.00204244,-6.1148e-05,-0.456434,0.00138246,0.0171359,671,848,-0.0284407,-0.0573219
-546,176,0.000915527,0.104797,0.00199862,0.000312672,-0.000834155,0.00234157,-3.02802e-05,-0.390071,0.00157124,0.0288781,678,848,0.000906356,-0.104793
-539,176,0.052063,0.0799561,0.00228332,0.000244915,-0.000822231,0.00257363,-4.54008e-05,-0.339419,0.00173109,0.0365063,685,848,0.0520778,-0.0799419
-532,176,0.107117,0.0783691,0.00258352,2.03123e-05,-0.000669521,0.00274786,-0.000144032,-0.240707,0.00188176,0.0387062,692,848,0.107118,-0.0783688
-525,176,-0.0687866,-0.00799561,0.00283323,-0.000229499,-0.000455846,0.00289963,-0.000295906,-0.14466,0.00203889,0.0475728,699,848,-0.0687718,0.00801092
-518,176,-0.00250244,-0.0929565,0.00292999,-0.000539998,-0.000182195,0.00293953,-0.000549538,-0.0523142,0.00216623,0.0394243,706,848,-0.00249713,0.0929795
-511,176,0.0088501,-0.107117,0.00283121,-0.000913595,0.000114543,0.00283471,-0.000917095,0.0305492,0.00225845,0.035749,713,848,0.00884676,0.107124
-504,176,-0.191772,-0.171204,0.00246305,-0.00131716,0.000357184,0.0024965,-0.00135061,0.0933867,0.00225374,0.0396441,720,848,-0.191796,0.171216
-497,176,0.0205078,0.113159,0.00178674,-0.00170842,0.000461187,0.00184657,-0.00176825,0.129009,0.00208718,0.0399401,727,848,0.0205175,-0.113182
-490,176,0.0393066,0.0510254,0.000823569,-0.00205548,2.5775e-05,0.000823799,-0.00205571,0.00895166,0.00171245,0.0369154,734,848,0.0393122,-0.0510135
-483,176,0,0,0,0,0,0,0,0,0,-1,741,848,0,0
-476,176,0,0,0,0,0,0,0,0,0,-1,748,848,0,0
-469,176,0,0,0,0,0,0,0,0,0,-1,755,848,0,0
-462,176,0,0,0,0,0,0,0,0,0,-1,762,848,0,0
-455,176,0,0,0,0,0,0,0,0,0,-1,769,848,0,0
-448,176,0,0,0,0,0,0,0,0,0,-1,776,848,0,0
-441,176,0,0,0,0,0,0,0,0,0,-1,783,848,0,0
-434,176,0,0,0,0,0,0,0,0,0,-1,790,848,0,0
-427,176,0,0,0,0,0,0,0,0,0,-1,797,848,0,0
-420,176,0,0,0,0,0,0,0,0,0,-1,804,848,0,0
-413,176,0,0,0,0,0,0,0,0,0,-1,811,848,0,0
-406,176,0,0,0,0,0,0,0,0,0,-1,818,848,0,0
-399,176,0,0,0,0,0,0,0,0,0,-1,825,848,0,0
-392,176,0,0,0,0,0,0,0,0,0,-1,832,848,0,0
-385,176,0,0,0,0,0,0,0,0,0,-1,839,848,0,0
-378,176,0,0,0,0,0,0,0,0,0,-1,846,848,0,0
-371,176,0,0,0,0,0,0,0,0,0,-1,853,848,0,0
-364,176,0,0,0,0,0,0,0,0,0,-1,860,848,0,0
-357,176,0,0,0,0,0,0,0,0,0,-1,867,848,0,0
-350,176,0,0,0,0,0,0,0,0,0,-1,874,848,0,0
-343,176,0,0,0,0,0,0,0,0,0,-1,881,848,0,0
-336,176,0,0,0,0,0,0,0,0,0,-1,888,848,0,0
-329,176,0,0,0,0,0,0,0,0,0,-1,895,848,0,0
-322,176,0,0,0,0,0,0,0,0,0,-1,902,848,0,0
-315,176,0,0,0,0,0,0,0,0,0,-1,909,848,0,0
-308,176,0,0,0,0,0,0,0,0,0,-1,916,848,0,0
-301,176,0,0,0,0,0,0,0,0,0,-1,923,848,0,0
-294,176,0,0,0,0,0,0,0,0,0,-1,930,848,0,0
-287,176,0,0,0,0,0,0,0,0,0,-1,937,848,0,0
-280,176,0,0,0,0,0,0,0,0,0,-1,944,848,0,0
-273,176,0,0,0,0,0,0,0,0,0,-1,951,848,0,0
-266,176,0,0,0,0,0,0,0,0,0,-1,958,848,0,0
-259,176,0,0,0,0,0,0,0,0,0,-1,965,848,0,0
-252,176,0,0,0,0,0,0,0,0,0,-1,972,848,0,0
-245,176,0,0,0,0,0,0,0,0,0,-1,979,848,0,0
-238,176,0,0,0,0,0,0,0,0,0,-1,986,848,0,0
-231,176,0,0,0,0,0,0,0,0,0,-1,993,848,0,0
-224,176,0,0,0,0,0,0,0,0,0,-1,1000,848,0,0
-217,176,0,0,0,0,0,0,0,0,0,-1,1007,848,0,0
-210,176,0,0,0,0,0,0,0,0,0,-1,1014,848,0,0
-203,176,0,0,0,0,0,0,0,0,0,-1,1021,848,0,0
-196,176,0,0,0,0,0,0,0,0,0,-1,1028,848,0,0
-189,176,0,0,0,0,0,0,0,0,0,-1,1035,848,0,0
-182,176,0,0,0,0,0,0,0,0,0,-1,1042,848,0,0
-175,176,0,0,0,0,0,0,0,0,0,-1,1049,848,0,0
-168,176,0,0,0,0,0,0,0,0,0,-1,1056,848,0,0
-161,176,0,0,0,0,0,0,0,0,0,-1,1063,848,0,0
-154,176,0,0,0,0,0,0,0,0,0,-1,1070,848,0,0
-147,176,0,0,0,0,0,0,0,0,0,-1,1077,848,0,0
-140,176,0,0,0,0,0,0,0,0,0,-1,1084,848,0,0
-133,176,0,0,0,0,0,0,0,0,0,-1,1091,848,0,0
-126,176,0,0,0,0,0,0,0,0,0,-1,1098,848,0,0
-119,176,0,0,0,0,0,0,0,0,0,-1,1105,848,0,0
-112,176,0,0,0,0,0,0,0,0,0,-1,1112,848,0,0
-105,176,0,0,0,0,0,0,0,0,0,-1,1119,848,0,0
-98,176,0,0,0,0,0,0,0,0,0,-1,1126,848,0,0
-91,176,0,0,0,0,0,0,0,0,0,-1,1133,848,0,0
-84,176,0,0,0,0,0,0,0,0,0,-1,1140,848,0,0
-77,176,0,0,0,0,0,0,0,0,0,-1,1147,848,0,0
-70,176,0,0,0,0,0,0,0,0,0,-1,1154,848,0,0
-63,176,0,0,0,0,0,0,0,0,0,-1,1161,848,0,0
-56,176,0,0,0,0,0,0,0,0,0,-1,1168,848,0,0
-49,176,0,0,0,0,0,0,0,0,0,-1,1175,848,0,0
-42,176,0,0,0,0,0,0,0,0,0,-1,1182,848,0,0
-35,176,0,0,0,0,0,0,0,0,0,-1,1189,848,0,0
-28,176,0,0,0,0,0,0,0,0,0,-1,1196,848,0,0
-21,176,0,0,0,0,0,0,0,0,0,-1,1203,848,0,0
-14,176,0,0,0,0,0,0,0,0,0,-1,1210,848,0,0
-7,176,0,0,0,0,0,0,0,0,0,-1,1217,848,0,0
0,176,0,0,0,0,0,0,0,0,0,-1,1224,848,0,0
7,176,0,0,0,0,0,0,0,0,0,-1,1231,848,0,0
14,176,0,0,0,0,0,0,0,0,0,-1,1238,848,0,0
21,176,0,0,0,0,0,0,0,0,0,-1,1245,848,0,0
28,176,0,0,0,0,0,0,0,0,0,-1,1252,848,0,0
35,176,0,0,0,0,0,0,0,0,0,-1,1259,848,0,0
42,176,0,0,0,0,0,0,0,0,0,-1,1266,848,0,0
49,176,0,0,0,0,0,0,0,0,0,-1,1273,848,0,0
56,176,0,0,0,0,0,0,0,0,0,-1,1280,848,0,0
63,176,0,0,0,0,0,0,0,0,0,-1,1287,848,0,0
70,176,0,0,0,0,0,0,0,0,0,-1,1294,848,0,0
77,176,0,0,0,0,0,0,0,0,0,-1,1301,848,0,0
84,176,0,0,0,0,0,0,0,0,0,-1,1308,848,0,0
91,176,0,0,0,0,0,0,0,0,0,-1,1315,848,0,0
98,176,0,0,0,0,0,0,0,0,0,-1,1322,848,0,0
105,176,0,0,0,0,0,0,0,0,0,-1,1329,848,0,0
112,176,0,0,0,0,0,0,0,0,0,-1,1336,848,0,0
119,176,0,0,0,0,0,0,0,0,0,-1,1343,848,0,0
126,176,0,0,0,0,0,0,0,0,0,-1,1350,848,0,0
133,176,0,0,0,0,0,0,0,0,0,-1,1357,848,0,0
140,176,0,0,0,0,0,0,0,0,0,-1,1364,848,0,0
147,176,0,0,0,0,0,0,0,0,0,-1,1371,848,0,0
154,176,0,0,0,0,0,0,0,0,0,-1,1378,848,0,0
161,176,0,0,0,0,0,0,0,0,0,-1,1385,848,0,0
168,176,0,0,0,0,0,0,0,0,0,-1,1392,848,0,0
175,176,0,0,0,0,0,0,0,0,0,-1,1399,848,0,0
182,176,0,0,0,0,0,0,0,0,0,-1,1406,848,0,0
189,176,0,0,0,0,0,0,0,0,0,-1,1413,848,0,0
196,176,0,0,0,0,0,0,0,0,0,-1,1420,848,0,0
203,176,0,0,0,0,0,0,0,0,0,-1,1427,848,0,0
210,176,0,0,0,0,0,0,0,0,0,-1,1434,848,0,0
217,176,0,0,0,0,0,0,0,0,0,-1,1441,848,0,0
224,176,0,0,0,0,0,0,0,0,0,-1,1448,848,0,0
231,176,0,0,0,0,0,0,0,0,0,-1,1455,848,0,0
238,176,0,0,0,0,0,0,0,0,0,-1,1462,848,0,0
245,176,0,0,0,0,0,0,0,0,0,-1,1469,848,0,0
252,176,0,0,0,0,0,0,0,0,0,-1,1476,848,0,0
259,176,0,0,0,0,0,0,0,0,0,-1,1483,848,0,0
266,176,0,0,0,0,0,0,0,0,0,-1,1490,848,0,0
273,176,0,0,0,0,0,0,0,0,0,-1,1497,848,0,0
280,176,0,0,0,0,0,0,0,0,0,-1,1504,848,0,0
287,176,0,0,0,0,0,0,0,0,0,-1,1511,848,0,0
294,176,0,0,0,0,0,0,0,0,0,-1,1518,848,0,0
301,176,0,0,0,0,0,0,0,0,0,-1,1525,848,0,0
308,176,0,0,0,0,0,0,0,0,0,-1,1532,848,0,0
315,176,0,0,0,0,0,0,0,0,0,-1,1539,848,0,0
322,176,0,0,0,0,0,0,0,0,0,-1,1546,848,0,0
329,176,0,0,0,0,0,0,0,0,0,-1,1553,848,0,0
336,176,0,0,0,0,0,0,0,0,0,-1,1560,848,0,0
343,176,0,0,0,0,0,0,0,0,0,-1,1567,848,0,0
350,176,0,0,0,0,0,0,0,0,0,-1,1574,848,0,0
357,176,0,0,0,0,0,0,0,0,0,-1,1581,848,0,0
364,176,0,0,0,0,0,0,0,0,0,-1,1588,848,0,0
371,176,0,0,0,0,0,0,0,0,0,-1,1595,848,0,0
378,176,0,0,0,0,0,0,0,0,0,-1,1602,848,0,0
385,176,0,0,0,0,0,0,0,0,0,-1,1609,848,0,0
392,176,0,0,0,0,0,0,0,0,0,-1,1616,848,0,0
399,176,0,0,0,0,0,0,0,0,0,-1,1623,848,0,0
406,176,0,0,0,0,0,0,0,0,0,-1,1630,848,0,0
413,176,0,0,0,0,0,0,0,0,0,-1,1637,848,0,0
420,176,0,0,0,0,0,0,0,0,0,-1,1644,848,0,0
427,176,0,0,0,0,0,0,0,0,0,-1,1651,848,0,0
434,176,0,0,0,0,0,0,0,0,0,-1,1658,848,0,0
441,176,0,0,0,0,0,0,0,0,0,-1,1665,848,0,0
448,176,0,0,0,0,0,0,0,0,0,-1,1672,848,0,0
455,176,0,0,0,0,0,0,0,0,0,-1,1679,848,0,0
462,176,0,0,0,0,0,0,0,0,0,-1,1686,848,0,0
469,176,0,0,0,0,0,0,0,0,0,-1,1693,848,0,0
476,176,0,0,0,0,0,0,0,0,0,-1,1700,848,0,0
483,176,0,0,0,0,0,0,0,0,0,-1,1707,848,0,0
490,176,0,0,0,0,0,0,0,0,0,-1,1714,848,0,0
497,176,0,0,0,0,0,0,0,0,0,-1,1721,848,0,0
504,176,0,0,0,0,0,0,0,0,0,-1,1728,848,0,0
511,176,0,0,0,0,0,0,0,0,0,-1,1735,848,0,0
518,176,0,0,0,0,0,0,0,0,0,-1,1742,848,0,0
525,176,0,0,0,0,0,0,0,0,0,-1,1749,848,0,0
532,176,0,0,0,0,0,0,0,0,0,-1,1756,848,0,0
539,176,0,0,0,0,0,0,0,0,0,-1,1763,848,0,0
546,176,0,0,0,0,0,0,0,0,0,-1,1770,848,0,0
553,176,0,0,0,0,0,0,0,0,0,-1,1777,848,0,0
560,176,0,0,0,0,0,0,0,0,0,-1,1784,848,0,0
567,176,0,0,0,0,0,0,0,0,0,-1,1791,848,0,0
574,176,0,0,0,0,0,0,0,0,0,-1,1798,848,0,0
581,176,0,0,0,0,0,0,0,0,0,-1,1805,848,0,0
588,176,0,0,0,0,0,0,0,0,0,-1,1812,848,0,0
595,176,0,0,0,0,0,0,0,0,0,-1,1819,848,0,0
602,176,0,0,0,0,0,0,0,0,0,-1,1826,848,0,0
609,176,0.0653076,0.0650635,-0.00227932,0.000565128,-0.00245423,0.00197944,-0.00369363,-1.048,0.00332482,0.0348255,1833,848,0.0653644,-0.06505
616,176,-0.045166,-0.148865,-0.00127349,-7.18464e-05,-0.00151298,0.000955246,-0.00230058,-0.974405,0.0019325,0.0340335,1840,848,-0.0451969,0.14887
623,176,-0.000610352,-0.166626,-0.000599469,-0.000511804,-0.000964598,0.000409957,-0.00152123,-0.808103,0.00117489,0.0378212,1847,848,-0.000650518,0.166625
630,176,0.110352,-0.122437,-0.000355839,-0.000774342,-0.000487747,-3.4352e-05,-0.00109583,-0.582764,0.000719376,0.0374585,1854,848,0.110354,0.122429
637,176,0.0496826,-0.000915527,-0.000262374,-0.00084204,-0.000142518,-0.000229229,-0.000875185,-0.228502,0.000524034,0.0299691,1861,848,0.0496823,0.00090057
644,176,-0.0667725,0.114624,-0.000267594,-0.000811844,8.58113e-05,-0.000254384,-0.000825053,0.152734,0.000487872,0.0266897,1868,848,-0.0667895,-0.114608
651,176,-0.0943604,0.129395,-0.000284376,-0.000687232,0.000214683,-0.00019142,-0.000780188,0.408621,0.000469511,0.0262241,1875,848,-0.0943932,-0.129424
658,176,-0.0307617,0.0621948,-0.000215829,-0.000556942,0.000291564,-4.86e-05,-0.000724172,0.520751,0.000467424,0.0319999,1882,848,-0.0307789,-0.0622249
665,176,0.0223389,-0.0359497,-0.000146808,-0.00034454,0.000343962,0.000112215,-0.000603563,0.645455,0.000444527,0.0438867,1889,848,0.0223973,0.0359481
672,176,-0.0302734,-0.0875244,-0.000267327,-0.000208291,0.000373204,0.00013656,-0.000612179,0.824863,0.00046044,0.0472692,1896,848,-0.030303,0.087506
679,176,-0.0980225,-0.00628662,-0.000387419,-2.37076e-05,0.000362422,0.000199926,-0.000611052,1.01793,0.000487861,0.0359052,1903,848,-0.0980489,0.00625853
686,176,-0.00561523,0.0484009,-0.00034572,0.000109426,0.000284279,0.000246002,-0.000482295,1.12293,0.000427796,0.0149017,1910,848,-0.00559097,-0.0484271
693,176,-0.0228271,0.071106,-0.00010562,0.000206875,0.000209965,0.00031235,-0.000211095,1.10527,0.00030409,0.00956246,1917,848,-0.0228685,-0.0711318
700,176,-0.0270996,0.0463867,-1.72136e-05,0.000149964,0.000147688,0.000236077,-0.000103327,1.04291,0.000200889,0.0136875,1924,848,-0.0270655,-0.0463736
707,176,-0.0212402,0.0358887,-0.000267085,6.07742e-05,-1.79886e-05,6.17582e-05,-0.000268069,-1.51615,0.000202463,0.0126733,1931,848,-0.0212858,-0.0358614
714,176,-0.0228271,0.0570679,-0.000368734,-0.000211334,5.29749e-05,-0.000195165,-0.000384902,1.27457,0.000222231,0.0120687,1938,848,-0.0228126,-0.0570685
721,176,-0.00854492,0.0586548,-8.69798e-05,-0.00125298,0.000721863,0.000257907,-0.00159787,0.445709,0.0011608,0.0105287,1945,848,-0.00859811,-0.0586794
728,176,-0.0369873,0.0661621,0.000225146,-0.00260702,0.00147675,0.000855054,-0.00323693,0.403183,0.00249235,0.0116571,1952,848,-0.0369821,-0.0661435
735,176,-0.0218506,0.0393066,0.000438651,-0.00424481,0.00267368,0.00165111,-0.00545727,0.425744,0.00429566,0.0130294,1959,848,-0.0218535,-0.0392994
742,176,-0.00231934,0.0230103,0.000783533,-0.00654166,0.00439645,0.00284312,-0.00860125,0.438104,0.00688054,0.0168951,1966,848,-0.00232607,-0.0230145
749,176,0.0466309,0.116638,0.00140391,-0.0094311,0.00671596,0.00461505,-0.0126422,0.446003,0.0103165,0.0256766,1973,848,0.0466285,-0.116624
756,176,-0.430542,-0.304199,0.00234548,-0.0132203,0.00991336,0.00716609,-0.0180409,0.452607,0.0149979,0.04043,1980,848,-0.430593,0.304198
763,176,-0.825806,-0.597168,0.00372433,-0.0180384,0.0141935,0.0107276,-0.0250417,0.458363,0.0211954,0.0452501,1987,848,-0.825837,0.597183
770,176,-0.388062,-0.0423584,0.00562058,-0.023989,0.0197516,0.0154999,-0.0338684,0.463791,0.029153,0.0458311,1994,848,-0.388002,0.0423599
777,176,-0.112183,0.43811,0.00814275,-0.0311327,0.0268094,0.0217373,-0.0447272,0.469297,0.039131,0.0434502,2001,848,-0.112234,-0.438088
784,176,0,0,0,0,0,0,0,0,0,-1,2008,848,0,0
791,176,0,0,0,0,0,0,0,0,0,-1,2015,848,0,0
798,176,0,0,0,0,0,0,0,0,0,-1,2022,848,0,0
805,176,0,0,0,0,0,0,0,0,0,-1,2029,848,0,0
812,176,0,0,0,0,0,0,0,0,0,-1,2036,848,0,0
-700,169,0,0,0,0,0,0,0,0,0,-1,524,855,0,0
-693,169,0,0,0,0,0,0,0,0,0,-1,531,855,0,0
-686,169,0,0,0,0,0,0,0,0,0,-1,538,855,0,0
-679,169,0,0,0,0,0,0,0,0,0,-1,545,855,0,0
-672,169,0,0,0,0,0,0,0,0,0,-1,552,855,0,0
-665,169,-0.424927,-0.167297,0.0478448,-0.0532935,0.00156509,0.047869,-0.0533177,0.0154698,0.0584484,0.0446454,559,855,-0.42491,0.167273
-658,169,0.0224609,-0.184387,0.0375303,-0.039407,6.81409e-05,0.0375303,-0.039407,0.000885668,0.0444242,0.0450487,566,855,0.0224746,0.184387
-651,169,0.29834,-0.475342,0.0289891,-0.0288479,-0.000633208,0.0289961,-0.0288549,-0.0109464,0.0334003,0.0464327,573,855,0.298357,0.47534
-644,169,0.393921,-0.630554,0.0219917,-0.0208244,-0.000844973,0.0220083,-0.0208411,-0.0197247,0.0247422,0.0452716,580,855,0.393945,0.630548
-637,169,0.306274,-0.354675,0.0163935,-0.014792,-0.000783092,0.0164131,-0.0148117,-0.0250897,0.0180355,0.0432117,587,855,0.306266,0.354705
-630,169,0.078125,-0.143921,0.0120028,-0.0103293,-0.000590743,0.0120185,-0.0103449,-0.0264279,0.0129236,0.0447589,594,855,0.0781017,0.143896
-623,169,-0.0143433,-0.0106812,0.0086496,-0.00709555,-0.000366086,0.00865811,-0.00710406,-0.023234,0.00911502,0.0367887,601,855,-0.0143501,0.0106593
-616,169,-0.0249634,0.0429077,0.00613859,-0.004368,-0.000215216,0.006143,-0.00437241,-0.0204724,0.00609969,0.0197589,608,855,-0.0249535,-0.0428887
-609,169,-0.0217896,0.0579224,0.00384785,-0.00223528,-0.00017663,0.00385297,-0.0022404,-0.0290035,0.00355884,0.012421,615,855,-0.0217962,-0.0579333
-602,169,-0.0296631,0.0681152,0.00217497,-0.00110082,-7.14125e-05,0.00217653,-0.00110238,-0.0217863,0.00192664,0.0127599,622,855,-0.0296541,-0.0681432
-595,169,-0.0409546,0.0474243,0.00129454,-0.00122307,0.000191911,0.00130908,-0.00123761,0.075645,0.00147053,0.0113803,629,855,-0.0409751,-0.0474121
-588,169,-0.0166626,0.0507202,0.00106303,-0.000626182,-6.77596e-06,0.00106306,-0.00062621,-0.00401123,0.000986109,0.00897635,636,855,-0.0166751,-0.0507128
-581,169,-0.0213623,0.0647583,0.00102541,-0.000123663,-0.000164513,0.0010485,-0.000146752,-0.139439,0.000752701,0.00909351,643,855,-0.0213625,-0.0647459
-574,169,-0.034729,0.0671997,0.00103442,4.17048e-05,-0.000464443,0.00121782,-0.000141702,-0.376098,0.000863002,0.0111858,650,855,-0.0347492,-0.0672041
-567,169,-0.0316162,0.059021,0.00104269,6.81776e-05,-0.00067967,0.00139172,-0.00028085,-0.474409,0.00103422,0.0103234,657,855,-0.0316225,-0.0590268
-560,169,-0.0348511,0.0665894,0.00116621,7.24565e-05,-0.000770365,0.00156407,-0.000325409,-0.476731,0.00116641,0.00867694,664,855,-0.0348567,-0.0665591
-553,169,-0.0285645,0.0505371,0.00147758,0.000100627,-0.000734441,0.00179578,-0.000217577,-0.408845,0.00127591,0.0163085,671,855,-0.0285435,-0.0505146
-546,169,0.00805664,0.101135,0.00184029,4.68123e-05,-0.000747553,0.00211101,-0.000223915,-0.347458,0.00148761,0.0293243,678,855,0.00804137,-0.101126
-539,169,0.104004,0.15094,0.0021521,-5.90071e-05,-0.000742757,0.00237844,-0.000285346,-0.295789,0.0016888,0.0346631,685,855,0.104008,-0.150948
-532,169,0.0286865,0.101379,0.00248109,-0.000309783,-0.000600322,0.00260474,-0.000433435,-0.203135,0.00189755,0.0349506,692,855,0.0286813,-0.101392
-525,169,-0.0230103,0.00390625,0.00275819,-0.000588125,-0.000387996,0.00280258,-0.000632523,-0.113934,0.00211106,0.0421339,699,855,-0.0230167,-0.00391978
-518,169,0.0189209,-0.081543,0.00289544,-0.000937526,-0.000105513,0.00289834,-0.000940428,-0.0275001,0.00231041,0.0385034,706,855,0.0189445,0.0815284
-511,169,0.0177612,-0.00592041,0.00284479,-0.00134885,0.000210858,0.00285537,-0.00135942,0.0501119,0.00248398,0.036967,713,855,0.0177338,0.00591331
-504,169,-0.0114746,0.140381,0.00250701,-0.00179409,0.00049418,0.00256306,-0.00185014,0.112936,0.00255902,0.0398629,720,855,-0.0114802,-0.140375
-497,169,0.0284424,0.10437,0.00185847,-0.00222789,0.000677914,0.001968,-0.00233742,0.160182,0.00248878,0.0390996,727,855,0.0284164,-0.104372
-490,169,0,0,0,0,0,0,0,0,0,-1,734,855,0,0
-483,169,0,0,0,0,0,0,0,0,0,-1,741,855,0,0
-476,169,0,0,0,0,0,0,0,0,0,-1,748,855,0,0
-469,169,0,0,0,0,0,0,0,0,0,-1,755,855,0,0
-462,169,0,0,0,0,0,0,0,0,0,-1,762,855,0,0
-455,169,0,0,0,0,0,0,0,0,0,-1,769,855,0,0
-448,169,0,0,0,0,0,0,0,0,0,-1,776,855,0,0
-441,169,0,0,0,0,0,0,0,0,0,-1,783,855,0,0
-434,169,0,0,0,0,0,0,0,0,0,-1,790,855,0,0
-427,169,0,0,0,0,0,0,0,0,0,-1,797,855,0,0
-420,169,0,0,0,0,0,0,0,0,0,-1,804,855,0,0
-413,169,0,0,0,0,0,0,0,0,0,-1,811,855,0,0
-406,169,0,0,0,0,0,0,0,0,0,-1,818,855,0,0
-399,169,0,0,0,0,0,0,0,0,0,-1,825,855,0,0
-392,169,0,0,0,0,0,0,0,0,0,-1,832,855,0,0
-385,169,0,0,0,0,0,0,0,0,0,-1,839,855,0,0
-378,169,0,0,0,0,0,0,0,0,0,-1,846,855,0,0
-371,169,0,0,0,0,0,0,0,0,0,-1,853,855,0,0
-364,169,0,0,0,0,0,0,0,0,0,-1,860,855,0,0
-357,169,0,0,0,0,0,0,0,0,0,-1,867,855,0,0
-350,169,0,0,0,0,0,0,0,0,0,-1,874,855,0,0
-343,169,0,0,0,0,0,0,0,0,0,-1,881,855,0,0
-336,169,0,0,0,0,0,0,0,0,0,-1,888,855,0,0
-329,169,0,0,0,0,0,0,0,0,0,-1,895,855,0,0
-322,169,0,0,0,0,0,0,0,0,0,-1,902,855,0,0
-315,169,0,0,0,0,0,0,0,0,0,-1,909,855,0,0
-308,169,0,0,0,0,0,0,0,0,0,-1,916,855,0,0
-301,169,0,0,0,0,0,0,0,0,0,-1,923,855,0,0
-294,169,0,0,0,0,0,0,0,0,0,-1,930,855,0,0
-287,169,0,0,0,0,0,0,0,0,0,-1,937,855,0,0
-280,169,0,0,0,0,0,0,0,0,0,-1,944,855,0,0
-273,169,0,0,0,0,0,0,0,0,0,-1,951,855,0,0
-266,169,0,0,0,0,0,0,0,0,0,-1,958,855,0,0
-259,169,0,0,0,0,0,0,0,0,0,-1,965,855,0,0
-252,169,0,0,0,0,0,0,0,0,0,-1,972,855,0,0
-245,169,0,0,0,0,0,0,0,0,0,-1,979,855,0,0
-238,169,0,0,0,0,0,0,0,0,0,-1,986,855,0,0
-231,169,0,0,0,0,0,0,0,0,0,-1,993,855,0,0
-224,169,0,0,0,0,0,0,0,0,0,-1,1000,855,0,0
-217,169,0,0,0,0,0,0,0,0,0,-1,1007,855,0,0
-210,169,0,0,0,0,0,0,0,0,0,-1,1014,855,0,0
-203,169,0,0,0,0,0,0,0,0,0,-1,1021,855,0,0
-196,169,0,0,0,0,0,0,0,0,0,-1,1028,855,0,0
-189,169,0,0,0,0,0,0,0,0,0,-1,1035,855,0,0
-182,169,0,0,0,0,0,0,0,0,0,-1,1042,855,0,0
-175,169,0,0,0,0,0,0,0,0,0,-1,1049,855,0,0
-168,169,0,0,0,0,0,0,0,0,0,-1,1056,855,0,0
-161,169,0,0,0,0,0,0,0,0,0,-1,1063,855,0,0
-154,169,0,0,0,0,0,0,0,0,0,-1,1070,855,0,0
-147,169,0,0,0,0,0,0,0,0,0,-1,1077,855,0,0
-140,169,0,0,0,0,0,0,0,0,0,-1,1084,855,0,0
-133,169,0,0,0,0,0,0,0,0,0,-1,1091,855,0,0
-126,169,0,0,0,0,0,0,0,0,0,-1,1098,855,0,0
-119,169,0,0,0,0,0,0,0,0,0,-1,1105,855,0,0
-112,169,0,0,0,0,0,0,0,0,0,-1,1112,855,0,0
-105,169,0,0,0,0,0,0,0,0,0,-1,1119,855,0,0
-98,169,0,0,0,0,0,0,0,0,0,-1,1126,855,0,0
-91,169,0,0,0,0,0,0,0,0,0,-1,1133,855,0,0
-84,169,0,0,0,0,0,0,0,0,0,-1,1140,855,0,0
-77,169,0,0,0,0,0,0,0,0,0,-1,1147,855,0,0
-70,169,0,0,0,0,0,0,0,0,0,-1,1154,855,0,0
-63,169,0,0,0,0,0,0,0,0,0,-1,1161,855,0,0
-56,169,0,0,0,0,0,0,0,0,0,-1,1168,855,0,0
-49,169,0,0,0,0,0,0,0,0,0,-1,1175,855,0,0
-42,169,0,0,0,0,0,0,0,0,0,-1,1182,855,0,0
-35,169,0,0,0,0,0,0,0,0,0,-1,1189,855,0,0
-28,169,0,0,0,0,0,0,0,0,0,-1,1196,855,0,0
-21,169,0,0,0,0,0,0,0,0,0,-1,1203,855,0,0
-14,169,0,0,0,0,0,0,0,0,0,-1,1210,855,0,0
-7,169,0,0,0,0,0,0,0,0,0,-1,1217,855,0,0
0,169,0,0,0,0,0,0,0,0,0,-1,1224,855,0,0
7,169,0,0,0,0,0,0,0,0,0,-1,1231,855,0,0
14,169,0,0,0,0,0,0,0,0,0,-1,1238,855,0,0
21,169,0,0,0,0,0,0,0,0,0,-1,1245,855,0,0
28,169,0,0,0,0,0,0,0,0,0,-1,1252,855,0,0
35,169,0,0,0,0,0,0,0,0,0,-1,1259,855,0,0
42,169,0,0,0,0,0,0,0,0,0,-1,1266,855,0,0
49,169,0,0,0,0,0,0,0,0,0,-1,1273,855,0,0
56,169,0,0,0,0,0,0,0,0,0,-1,1280,855,0,0
63,169,0,0,0,0,0,0,0,0,0,-1,1287,855,0,0
70,169,0,0,0,0,0,0,0,0,0,-1,1294,855,0,0
77,169,0,0,0,0,0,0,0,0,0,-1,1301,855,0,0
84,169,0,0,0,0,0,0,0,0,0,-1,1308,855,0,0
91,169,0,0,0,0,0,0,0,0,0,-1,1315,855,0,0
98,169,0,0,0,0,0,0,0,0,0,-1,1322,855,0,0
105,169,0,0,0,0,0,0,0,0,0,-1,1329,855,0,0
112,169,0,0,0,0,0,0,0,0,0,-1,1336,855,0,0
119,169,0,0,0,0,0,0,0,0,0,-1,1343,855,0,0
126,169,0,0,0,0,0,0,0,0,0,-1,1350,855,0,0
133,169,0,0,0,0,0,0,0,0,0,-1,1357,855,0,0
140,169,0,0,0,0,0,0,0,0,0,-1,1364,855,0,0
147,169,0,0,0,0,0,0,0,0,0,-1,1371,855,0,0
154,169,0,0,0,0,0,0,0,0,0,-1,1378,855,0,0
161,169,0,0,0,0,0,0,0,0,0,-1,1385,855,0,0
168,169,0,0,0,0,0,0,0,0,0,-1,1392,855,0,0
175,169,0,0,0,0,0,0,0,0,0,-1,1399,855,0,0
182,169,0,0,0,0,0,0,0,0,0,-1,1406,855,0,0
189,169,0,0,0,0,0,0,0,0,0,-1,1413,855,0,0
196,169,0,0,0,0,0,0,0,0,0,-1,1420,855,0,0
203,169,0,0,0,0,0,0,0,0,0,-1,1427,855,0,0
210,169,0,0,0,0,0,0,0,0,0,-1,1434,855,0,0
217,169,0,0,0,0,0,0,0,0,0,-1,1441,855,0,0
224,169,0,0,0,0,0,0,0,0,0,-1,1448,855,0,0
231,169,0,0,0,0,0,0,0,0,0,-1,1455,855,0,0
238,169,0,0,0,0,0,0,0,0,0,-1,1462,855,0,0
245,169,0,0,0,0,0,0,0,0,0,-1,1469,855,0,0
252,169,0,0,0,0,0,0,0,0,0,-1,1476,855,0,0
259,169,0,0,0,0,0,0,0,0,0,-1,1483,855,0,0
266,169,0,0,0,0,0,0,0,0,0,-1,1490,855,0,0
273,169,0,0,0,0,0,0,0,0,0,-1,1497,855,0,0
280,169,0,0,0,0,0,0,0,0,0,-1,1504,855,0,0
287,169,0,0,0,0,0,0,0,0,0,-1,1511,855,0,0
294,169,0,0,0,0,0,0,0,0,0,-1,1518,855,0,0
301,169,0,0,0,0,0,0,0,0,0,-1,1525,855,0,0
308,169,0,0,0,0,0,0,0,0,0,-1,1532,855,0,0
315,169,0,0,0,0,0,0,0,0,0,-1,1539,855,0,0
322,169,0,0,0,0,0,0,0,0,0,-1,1546,855,0,0
329,169,0,0,0,0,0,0,0,0,0,-1,1553,855,0,0
336,169,0,0,0,0,0,0,0,0,0,-1,1560,855,0,0
343,169,0,0,0,0,0,0,0,0,0,-1,1567,855,0,0
350,169,0,0,0,0,0,0,0,0,0,-1,1574,855,0,0
357,169,0,0,0,0,0,0,0,0,0,-1,1581,855,0,0
364,169,0,0,0,0,0,0,0,0,0,-1,1588,855,0,0
371,169,0,0,0,0,0,0,0,0,0,-1,1595,855,0,0
378,169,0,0,0,0,0,0,0,0,0,-1,1602,855,0,0
385,169,0,0,0,0,0,0,0,0,0,-1,1609,855,0,0
392,169,0,0,0,0,0,0,0,0,0,-1,1616,855,0,0
399,169,0,0,0,0,0,0,0,0,0,-1,1623,855,0,0
406,169,0,0,0,0,0,0,0,0,0,-1,1630,855,0,0
413,169,0,0,0,0,0,0,0,0,0,-1,1637,855,0,0
420,169,0,0,0,0,0,0,0,0,0,-1,1644,855,0,0
427,169,0,0,0,0,0,0,0,0,0,-1,1651,855,0,0
434,169,0,0,0,0,0,0,0,0,0,-1,1658,855,0,0
441,169,0,0,0,0,0,0,0,0,0,-1,1665,855,0,0
448,169,0,0,0,0,0,0,0,0,0,-1,1672,855,0,0
455,169,0,0,0,0,0,0,0,0,0,-1,1679,855,0,0
462,169,0,0,0,0,0,0,0,0,0,-1,1686,855,0,0
469,169,0,0,0,0,0,0,0,0,0,-1,1693,855,0,0
476,169,0,0,0,0,0,0,0,0,0,-1,1700,855,0,0
483,169,0,0,0,0,0,0,0,0,0,-1,1707,855,0,0
490,169,0,0,0,0,0,0,0,0,0,-1,1714,855,0,0
497,169,0,0,0,0,0,0,0,0,0,-1,1721,855,0,0
504,169,0,0,0,0,0,0,0,0,0,-1,1728,855,0,0
511,169,0,0,0,0,0,0,0,0,0,-1,1735,855,0,0
518,169,0,0,0,0,0,0,0,0,0,-1,1742,855,0,0
525,169,0,0,0,0,0,0,0,0,0,-1,1749,855,0,0
532,169,0,0,0,0,0,0,0,0,0,-1,1756,855,0,0
539,169,0,0,0,0,0,0,0,0,0,-1,1763,855,0,0
546,169,0,0,0,0,0,0,0,0,0,-1,1770,855,0,0
553,169,0,0,0,0,0,0,0,0,0,-1,1777,855,0,0
560,169,0,0,0,0,0,0,0,0,0,-1,1784,855,0,0
567,169,0,0,0,0,0,0,0,0,0,-1,1791,855,0,0
574,169,0,0,0,0,0,0,0,0,0,-1,1798,855,0,0
581,169,0,0,0,0,0,0,0,0,0,-1,1805,855,0,0
588,169,0,0,0,0,0,0,0,0,0,-1,1812,855,0,0
595,169,0,0,0,0,0,0,0,0,0,-1,1819,855,0,0
602,169,0,0,0,0,0,0,0,0,0,-1,1826,855,0,0
609,169,0,0,0,0,0,0,0,0,0,-1,1833,855,0,0
616,169,-0.0516357,-0.0187378,-0.000849096,-0.000125435,-0.00208547,0.00162936,-0.00260389,-0.871293,0.00246556,0.0372182,1840,855,-0.0516741,0.018763
623,169,0.0185547,-0.141907,-0.000216004,-0.000517543,-0.0014398,0.0010809,-0.00181444,-0.73323,0.00168941,0.0396094,1847,855,0.0185896,0.141901
630,169,0.104614,-0.0159302,-7.29958e-05,-0.000807015,-0.000851428,0.000487155,-0.00136717,-0.581906,0.00111005,0.0380595,1854,855,0.104586,0.0158999
637,169,0.106689,0.0311279,-5.4507e-05,-0.000847416,-0.000407172,0.000117339,-0.00101926,-0.399367,0.000721807,0.0332867,1861,855,0.106638,-0.0311484
644,169,-0.0157471,0.0765991,-0.000106399,-0.000785511,-0.000112236,-8.83304e-05,-0.000803579,-0.159616,0.000508838,0.0309298,1868,855,-0.0157408,-0.0766116
651,169,-0.0682373,0.0755005,-0.000162213,-0.000651043,7.1045e-05,-0.000152096,-0.000661159,0.141439,0.000399836,0.0303175,1875,855,-0.0681794,-0.0754923
658,169,-0.0178223,0.0135498,-0.00013098,-0.000509247,0.00018719,-5.40095e-05,-0.000586218,0.390117,0.000374111,0.0304377,1882,855,-0.0178429,-0.0135536
665,169,0.0618896,-0.0897827,-8.42581e-05,-0.00029322,0.000267534,9.8473e-05,-0.000475952,0.599238,0.000354711,0.0429834,1889,855,0.0618426,0.0897557
672,169,-0.0634766,0.0341187,-0.000207475,-0.000163235,0.000313809,0.000129233,-0.000499943,0.820585,0.000383697,0.0461106,1896,855,-0.063467,-0.0341077
679,169,-0.229492,0.282471,0,0,0,0,0,0,0,-1,1903,855,-0.229538,-0.282441
686,169,-0.0222168,0.0889893,-0.000271386,0.000143246,0.000245645,0.000257367,-0.000385507,1.13589,0.000373613,0.0184513,1910,855,-0.0222666,-0.0890064
693,169,-0.00708008,0.0594482,-4.39853e-05,0.000214453,0.000172041,0.000300399,-0.000129931,1.1075,0.000254866,0.010407,1917,855,-0.00710407,-0.0594782
700,169,-0.0266113,0.0521851,3.06071e-05,0.000167492,9.74966e-05,0.000218171,-2.0072e-05,1.09143,0.000152579,0.0104081,1924,855,-0.0265817,-0.0521646
707,169,-0.0411377,0.0473022,-0.000150283,2.65611e-05,-1.09149e-05,2.72322e-05,-0.000150955,-1.50939,0.000110835,0.0113883,1931,855,-0.0411718,-0.0472725
714,169,-0.0406494,0.0412598,-0.000132357,-0.00023301,7.64155e-05,-9.11844e-05,-0.000274183,0.494203,0.000161231,0.0116672,1938,855,-0.0406054,-0.0412307
721,169,-0.0201416,0.0383911,0.00023996,-0.0011318,0.000678661,0.00051897,-0.00141081,0.390055,0.00115314,0.0117062,1945,855,-0.0201203,-0.0383988
728,169,-0.0229492,0.0471191,0.000571669,-0.00255502,0.00144229,0.00113535,-0.00311871,0.372572,0.00254351,0.00967788,1952,855,-0.0229814,-0.0470978
735,169,-0.0368652,0.0404663,0.000827007,-0.00425713,0.00269093,0.00198672,-0.00541685,0.406918,0.00442473,0.0169335,1959,855,-0.0368251,-0.0404955
742,169,-0.00463867,0.046936,0.00125421,-0.00662428,0.00445871,0.00326456,-0.00863464,0.423588,0.00709938,0.0137549,1966,855,-0.00462246,-0.0469502
749,169,0.0463867,0.0636597,0.00192167,-0.00956402,0.00678891,0.00507093,-0.0127133,0.434339,0.010579,0.0204892,1973,855,0.0463923,-0.0636889
756,169,-0.249634,-0.150452,0,0,0,0,0,0,0,-1,1980,855,-0.249694,0.150456
763,169,-0.895752,-0.728027,0,0,0,0,0,0,0,-1,1987,855,-0.895721,0.728015
770,169,-0.276367,0.00933838,0.00576261,-0.0244093,0.019658,0.0154562,-0.0341029,0.458119,0.0292802,0.0476139,1994,855,-0.276343,-0.00933377
777,169,-0.000854492,0.393982,0.00786565,-0.0316735,0.0264909,0.0211507,-0.0449585,0.464841,0.0389844,0.0421053,2001,855,-0.000815234,-0.394005
784,169,0.324829,0.386963,0.0105854,-0.0400699,0.0348813,0.0283646,-0.0578491,0.471381,0.0507365,0.0434285,2008,855,0.324773,-0.386934
791,169,0,0,0,0,0,0,0,0,0,-1,2015,855,0,0
798,169,0,0,0,0,0,0,0,0,0,-1,2022,855,0,0
805,169,0,0,0,0,0,0,0,0,0,-1,2029,855,0,0
812,169,0,0,0,0,0,0,0,0,0,-1,2036,855,0,0
-700,162,0,0,0,0,0,0,0,0,0,-1,524,862,0,0
-693,162,0,0,0,0,0,0,0,0,0,-1,531,862,0,0
-686,162,0,0,0,0,0,0,0,0,0,-1,538,862,0,0
-679,162,0,0,0,0,0,0,0,0,0,-1,545,862,0,0
-672,162,0,0,0,0,0,0,0,0,0,-1,552,862,0,0
-665,162,-0.385864,-0.200745,0,0,0,0,0,0,0,-1,559,862,-0.385867,0.200765
-658,162,0.105347,-0.262268,0.0361029,-0.0397675,-0.0024825,0.036184,-0.0398486,-0.0326737,0.0439145,0.0433651,566,862,0.105338,0.262262
-651,162,0.458008,-0.244629,0.0278416,-0.0285046,-0.00281325,0.0279817,-0.0286447,-0.049763,0.0326941,0.0462687,573,862,0.457982,0.244631
-644,162,0.638428,-0.571777,0.0210071,-0.0201014,-0.00266855,0.0211797,-0.0202739,-0.0645537,0.0239351,0.046385,580,862,0.638431,0.571791
-637,162,0.385498,-0.311584,0.0155078,-0.0139156,-0.00227342,0.0156824,-0.0140902,-0.0766593,0.0171974,0.0437591,587,862,0.385475,0.311591
-630,162,-0.0394287,0.154114,0.0111853,-0.00944863,-0.00177764,0.0113374,-0.00960066,-0.0853135,0.0121024,0.0418943,594,862,-0.0394319,-0.154096
-623,162,-0.0251465,0.106384,0.0078972,-0.00629935,-0.00128366,0.00801233,-0.00641449,-0.089454,0.00834634,0.0313048,601,862,-0.0251455,-0.106375
-616,162,-0.0315552,0.0758667,0.00541259,-0.00362625,-0.000914236,0.00550414,-0.0037178,-0.0997985,0.00535748,0.0173786,608,862,-0.0315385,-0.0758631
-609,162,-0.0232544,0.0568848,0.00316567,-0.0014884,-0.00068376,0.00326405,-0.00158678,-0.142895,0.00285588,0.0121381,615,862,-0.0232643,-0.0569103
-602,162,-0.0301514,0.0374756,0.00154358,-0.000401926,-0.000414621,0.00162825,-0.000486604,-0.201458,0.00127894,0.0113913,622,862,-0.0301272,-0.0374684
-595,162,-0.0324097,0.0495605,0.000804204,-0.00109718,9.62487e-06,0.000804253,-0.00109723,0.00506187,0.00110215,0.0103388,629,862,-0.032415,-0.0495724
-588,162,-0.0247803,0.0592041,0.000730202,-0.000522695,-8.00228e-05,0.000735293,-0.000527786,-0.0635261,0.000732512,0.0103936,636,862,-0.0247518,-0.0591916
-581,162,-0.0422363,0.0472412,0.000771216,-0.000129525,-0.000203018,0.00081486,-0.000173169,-0.211751,0.000609222,0.0118563,643,862,-0.0422573,-0.047243
-574,162,-0.0682983,0.0100708,0.000807567,-5.49207e-05,-0.000429856,0.000985214,-0.000232567,-0.391893,0.000746507,0.0158116,650,862,-0.0683083,-0.0100867
-567,162,-0.0516357,0.00170898,0.000872638,-7.37379e-05,-0.000595154,0.00115979,-0.000360889,-0.449535,0.000917462,0.01596,657,862,-0.0516589,-0.00173798
-560,162,-0.0375977,0.0406494,0.00102902,-0.000109127,-0.00065879,0.00133049,-0.000410598,-0.429167,0.00105095,0.0103928,664,862,-0.0376181,-0.0406199
-553,162,-0.0540161,0.0484619,0.00131046,-0.000159098,-0.000636133,0.00154756,-0.000396207,-0.356783,0.00118605,0.0207836,671,862,-0.0540083,-0.04844
-546,162,-0.053772,0.0408936,0.00166843,-0.000256417,-0.000653903,0.00186956,-0.000457543,-0.298395,0.00142361,0.0351997,678,862,-0.053764,-0.0409171
-539,162,-0.0776978,0.0078125,0.00198322,-0.000399507,-0.000646065,0.00214713,-0.00056341,-0.248452,0.00165157,0.0407283,685,862,-0.0776878,-0.00779803
-532,162,-0.0373535,0.00799561,0.00231105,-0.000661609,-0.000512391,0.00239689,-0.00074745,-0.165989,0.00189682,0.0336201,692,862,-0.0373618,-0.00800236
-525,162,-0.0583496,-0.00909424,0.00258554,-0.000941928,-0.000309885,0.00261256,-0.000968945,-0.0869614,0.00213913,0.0340142,699,862,-0.0583728,0.00908632
-518,162,-0.0090332,-0.0419312,0.00272765,-0.00126894,-4.0488e-05,0.00272806,-0.00126935,-0.0101293,0.00235857,0.0357947,706,862,-0.00903207,0.0419133
-511,162,0.0946655,0.0183105,0.00267868,-0.00162621,0.000265473,0.00269499,-0.00164252,0.061358,0.00252872,0.0385434,713,862,0.0946756,-0.0183392
-504,162,0.130859,0.131409,0.00230912,-0.00197899,0.000540857,0.00237629,-0.00204616,0.123552,0.00255567,0.0408673,720,862,0.130846,-0.131434
-497,162,0.125549,0.0870972,0.00162806,-0.00227458,0.000740743,0.00176392,-0.00241045,0.181404,0.00241969,0.038572,727,862,0.125565,-0.0870729
-490,162,0,0,0,0,0,0,0,0,0,-1,734,862,0,0
-483,162,0,0,0,0,0,0,0,0,0,-1,741,862,0,0
-476,162,0,0,0,0,0,0,0,0,0,-1,748,862,0,0
-469,162,0,0,0,0,0,0,0,0,0,-1,755,862,0,0
-462,162,0,0,0,0,0,0,0,0,0,-1,762,862,0,0
-455,162,0,0,0,0,0,0,0,0,0,-1,769,862,0,0
-448,162,0,0,0,0,0,0,0,0,0,-1,776,862,0,0
-441,162,0,0,0,0,0,0,0,0,0,-1,783,862,0,0
-434,162,0,0,0,0,0,0,0,0,0,-1,790,862,0,0
-427,162,0,0,0,0,0,0,0,0,0,-1,797,862,0,0
-420,162,0,0,0,0,0,0,0,0,0,-1,804,862,0,0
-413,162,0,0,0,0,0,0,0,0,0,-1,811,862,0,0
-406,162,0,0,0,0,0,0,0,0,0,-1,818,862,0,0
-399,162,0,0,0,0,0,0,0,0,0,-1,825,862,0,0
-392,162,0,0,0,0,0,0,0,0,0,-1,832,862,0,0
-385,162,0,0,0,0,0,0,0,0,0,-1,839,862,0,0
-378,162,0,0,0,0,0,0,0,0,0,-1,846,862,0,0
-371,162,0,0,0,0,0,0,0,0,0,-1,853,862,0,0
-364,162,0,0,0,0,0,0,0,0,0,-1,860,862,0,0
-357,162,0,0,0,0,0,0,0,0,0,-1,867,862,0,0
-350,162,0,0,0,0,0,0,0,0,0,-1,874,862,0,0
-343,162,0,0,0,0,0,0,0,0,0,-1,881,862,0,0
-336,162,0,0,0,0,0,0,0,0,0,-1,888,862,0,0
-329,162,0,0,0,0,0,0,0,0,0,-1,895,862,0,0
-322,162,0,0,0,0,0,0,0,0,0,-1,902,862,0,0
-315,162,0,0,0,0,0,0,0,0,0,-1,909,862,0,0
-308,162,0,0,0,0,0,0,0,0,0,-1,916,862,0,0
-301,162,0,0,0,0,0,0,0,0,0,-1,923,862,0,0
-294,162,0,0,0,0,0,0,0,0,0,-1,930,862,0,0
-287,162,0,0,0,0,0,0,0,0,0,-1,937,862,0,0
-280,162,0,0,0,0,0,0,0,0,0,-1,944,862,0,0
-273,162,0,0,0,0,0,0,0,0,0,-1,951,862,0,0
-266,162,0,0,0,0,0,0,0,0,0,-1,958,862,0,0
-259,162,0,0,0,0,0,0,0,0,0,-1,965,862,0,0
-252,162,0,0,0,0,0,0,0,0,0,-1,972,862,0,0
-245,162,0,0,0,0,0,0,0,0,0,-1,979,862,0,0
-238,162,0,0,0,0,0,0,0,0,0,-1,986,862,0,0
-231,162,0,0,0,0,0,0,0,0,0,-1,993,862,0,0
-224,162,0,0,0,0,0,0,0,0,0,-1,1000,862,0,0
-217,162,0,0,0,0,0,0,0,0,0,-1,1007,862,0,0
-210,162,0,0,0,0,0,0,0,0,0,-1,1014,862,0,0
-203,162,0,0,0,0,0,0,0,0,0,-1,1021,862,0,0
-196,162,0,0,0,0,0,0,0,0,0,-1,1028,862,0,0
-189,162,0,0,0,0,0,0,0,0,0,-1,1035,862,0,0
-182,162,0,0,0,0,0,0,0,0,0,-1,1042,862,0,0
-175,162,0,0,0,0,0,0,0,0,0,-1,1049,862,0,0
-168,162,0,0,0,0,0,0,0,0,0,-1,1056,862,0,0
-161,162,0,0,0,0,0,0,0,0,0,-1,1063,862,0,0
-154,162,0,0,0,0,0,0,0,0,0,-1,1070,862,0,0
-147,162,0,0,0,0,0,0,0,0,0,-1,1077,862,0,0
-140,162,0,0,0,0,0,0,0,0,0,-1,1084,862,0,0
-133,162,0,0,0,0,0,0,0,0,0,-1,1091,862,0,0
-126,162,0,0,0,0,0,0,0,0,0,-1,1098,862,0,0
-119,162,0,0,0,0,0,0,0,0,0,-1,1105,862,0,0
-112,162,0,0,0,0,0,0,0,0,0,-1,1112,862,0,0
-105,162,0,0,0,0,0,0,0,0,0,-1,1119,862,0,0
-98,162,0,0,0,0,0,0,0,0,0,-1,1126,862,0,0
-91,162,0,0,0,0,0,0,0,0,0,-1,1133,862,0,0
-84,162,0,0,0,0,0,0,0,0,0,-1,1140,862,0,0
-77,162,0,0,0,0,0,0,0,0,0,-1,1147,862,0,0
-70,162,0,0,0,0,0,0,0,0,0,-1,1154,862,0,0
-63,162,0,0,0,0,0,0,0,0,0,-1,1161,862,0,0
-56,162,0,0,0,0,0,0,0,0,0,-1,1168,862,0,0
-49,162,0,0,0,0,0,0,0,0,0,-1,1175,862,0,0
-42,162,0,0,0,0,0,0,0,0,0,-1,1182,862,0,0
-35,162,0,0,0,0,0,0,0,0,0,-1,1189,862,0,0
-28,162,0,0,0,0,0,0,0,0,0,-1,1196,862,0,0
-21,162,0,0,0,0,0,0,0,0,0,-1,1203,862,0,0
-14,162,0,0,0,0,0,0,0,0,0,-1,1210,862,0,0
-7,162,0,0,0,0,0,0,0,0,0,-1,1217,862,0,0
0,162,0,0,0,0,0,0,0,0,0,-1,1224,862,0,0
7,162,0,0,0,0,0,0,0,0,0,-1,1231,862,0,0
14,162,0,0,0,0,0,0,0,0,0,-1,1238,862,0,0
21,162,0,0,0,0,0,0,0,0,0,-1,1245,862,0,0
28,162,0,0,0,0,0,0,0,0,0,-1,1252,862,0,0
35,162,0,0,0,0,0,0,0,0,0,-1,1259,862,0,0
42,162,0,0,0,0,0,0,0,0,0,-1,1266,862,0,0
49,162,0,0,0,0,0,0,0,0,0,-1,1273,862,0,0
56,162,0,0,0,0,0,0,0,0,0,-1,1280,862,0,0
63,162,0,0,0,0,0,0,0,0,0,-1,1287,862,0,0
70,162,0,0,0,0,0,0,0,0,0,-1,1294,862,0,0
77,162,0,0,0,0,0,0,0,0,0,-1,1301,862,0,0
84,162,0,0,0,0,0,0,0,0,0,-1,1308,862,0,0
91,162,0,0,0,0,0,0,0,0,0,-1,1315,862,0,0
98,162,0,0,0,0,0,0,0,0,0,-1,1322,862,0,0
105,162,0,0,0,0,0,0,0,0,0,-1,1329,862,0,0
112,162,0,0,0,0,0,0,0,0,0,-1,1336,862,0,0
119,162,0,0,0,0,0,0,0,0,0,-1,1343,862,0,0
126,162,0,0,0,0,0,0,0,0,0,-1,1350,862,0,0
133,162,0,0,0,0,0,0,0,0,0,-1,1357,862,0,0
140,162,0,0,0,0,0,0,0,0,0,-1,1364,862,0,0
147,162,0,0,0,0,0,0,0,0,0,-1,1371,862,0,0
154,162,0,0,0,0,0,0,0,0,0,-1,1378,862,0,0
161,162,0,0,0,0,0,0,0,0,0,-1,1385,862,0,0
168,162,0,0,0,0,0,0,0,0,0,-1,1392,862,0,0
175,162,0,0,0,0,0,0,0,0,0,-1,1399,862,0,0
182,162,0,0,0,0,0,0,0,0,0,-1,1406,862,0,0
189,162,0,0,0,0,0,0,0,0,0,-1,1413,862,0,0
196,162,0,0,0,0,0,0,0,0,0,-1,1420,862,0,0
203,162,0,0,0,0,0,0,0,0,0,-1,1427,862,0,0
210,162,0,0,0,0,0,0,0,0,0,-1,1434,862,0,0
217,162,0,0,0,0,0,0,0,0,0,-1,1441,862,0,0
224,162,0,0,0,0,0,0,0,0,0,-1,1448,862,0,0
231,162,0,0,0,0,0,0,0,0,0,-1,1455,862,0,0
238,162,0,0,0,0,0,0,0,0,0,-1,1462,862,0,0
245,162,0,0,0,0,0,0,0,0,0,-1,1469,862,0,0
252,162,0,0,0,0,0,0,0,0,0,-1,1476,862,0,0
259,162,0,0,0,0,0,0,0,0,0,-1,1483,862,0,0
266,162,0,0,0,0,0,0,0,0,0,-1,1490,862,0,0
273,162,0,0,0,0,0,0,0,0,0,-1,1497,862,0,0
280,162,0,0,0,0,0,0,0,0,0,-1,1504,862,0,0
287,162,0,0,0,0,0,0,0,0,0,-1,1511,862,0,0
294,162,0,0,0,0,0,0,0,0,0,-1,1518,862,0,0
301,162,0,0,0,0,0,0,0,0,0,-1,1525,862,0,0
308,162,0,0,0,0,0,0,0,0,0,-1,1532,862,0,0
315,162,0,0,0,0,0,0,0,0,0,-1,1539,862,0,0
322,162,0,0,0,0,0,0,0,0,0,-1,1546,862,0,0
329,162,0,0,0,0,0,0,0,0,0,-1,1553,862,0,0
336,162,0,0,0,0,0,0,0,0,0,-1,1560,862,0,0
343,162,0,0,0,0,0,0,0,0,0,-1,1567,862,0,0
350,162,0,0,0,0,0,0,0,0,0,-1,1574,862,0,0
357,162,0,0,0,0,0,0,0,0,0,-1,1581,862,0,0
364,162,0,0,0,0,0,0,0,0,0,-1,1588,862,0,0
371,162,0,0,0,0,0,0,0,0,0,-1,1595,862,0,0
378,162,0,0,0,0,0,0,0,0,0,-1,1602,862,0,0
385,162,0,0,0,0,0,0,0,0,0,-1,1609,862,0,0
392,162,0,0,0,0,0,0,0,0,0,-1,1616,862,0,0
399,162,0,0,0,0,0,0,0,0,0,-1,1623,862,0,0
406,162,0,0,0,0,0,0,0,0,0,-1,1630,862,0,0
413,162,0,0,0,0,0,0,0,0,0,-1,1637,862,0,0
420,162,0,0,0,0,0,0,0,0,0,-1,1644,862,0,0
427,162,0,0,0,0,0,0,0,0,0,-1,1651,862,0,0
434,162,0,0,0,0,0,0,0,0,0,-1,1658,862,0,0
441,162,0,0,0,0,0,0,0,0,0,-1,1665,862,0,0
448,162,0,0,0,0,0,0,0,0,0,-1,1672,862,0,0
455,162,0,0,0,0,0,0,0,0,0,-1,1679,862,0,0
462,162,0,0,0,0,0,0,0,0,0,-1,1686,862,0,0
469,162,0,0,0,0,0,0,0,0,0,-1,1693,862,0,0
476,162,0,0,0,0,0,0,0,0,0,-1,1700,862,0,0
483,162,0,0,0,0,0,0,0,0,0,-1,1707,862,0,0
490,162,0,0,0,0,0,0,0,0,0,-1,1714,862,0,0
497,162,0,0,0,0,0,0,0,0,0,-1,1721,862,0,0
504,162,0,0,0,0,0,0,0,0,0,-1,1728,862,0,0
511,162,0,0,0,0,0,0,0,0,0,-1,1735,862,0,0
518,162,0,0,0,0,0,0,0,0,0,-1,1742,862,0,0
525,162,0,0,0,0,0,0,0,0,0,-1,1749,862,0,0
532,162,0,0,0,0,0,0,0,0,0,-1,1756,862,0,0
539,162,0,0,0,0,0,0,0,0,0,-1,1763,862,0,0
546,162,0,0,0,0,0,0,0,0,0,-1,1770,862,0,0
553,162,0,0,0,0,0,0,0,0,0,-1,1777,862,0,0
560,162,0,0,0,0,0,0,0,0,0,-1,1784,862,0,0
567,162,0,0,0,0,0,0,0,0,0,-1,1791,862,0,0
574,162,0,0,0,0,0,0,0,0,0,-1,1798,862,0,0
581,162,0,0,0,0,0,0,0,0,0,-1,1805,862,0,0
588,162,0,0,0,0,0,0,0,0,0,-1,1812,862,0,0
595,162,0,0,0,0,0,0,0,0,0,-1,1819,862,0,0
602,162,0,0,0,0,0,0,0,0,0,-1,1826,862,0,0
609,162,0,0,0,0,0,0,0,0,0,-1,1833,862,0,0
616,162,-0.0927734,0.0264282,-0.000253566,-0.000194869,-0.0026697,0.00244564,-0.00289408,-0.790895,0.00308651,0.0390842,1840,862,-0.0928166,-0.0264333
623,162,0.0498047,-0.0768433,0.00030053,-0.000549654,-0.00192956,0.00185127,-0.00210039,-0.676978,0.002283,0.0408031,1847,862,0.0497915,0.0768684
630,162,0.0662842,0.0288696,0.000300096,-0.000895327,-0.00123943,0.00107841,-0.00167364,-0.560726,0.00160124,0.0364179,1854,862,0.0663127,-0.0288498
637,162,0.036499,0.0317993,0.000211312,-0.000923886,-0.000714833,0.000556486,-0.00126906,-0.449853,0.00108041,0.03371,1861,862,0.0364494,-0.0317757
644,162,0.0184326,0.0129395,8.97133e-05,-0.000849641,-0.00036325,0.000213793,-0.00097372,-0.329156,0.000730909,0.0319759,1868,862,0.0184771,-0.0129201
651,162,-0.00671387,0.0321655,-2.02373e-05,-0.000707489,-0.000135772,5.61326e-06,-0.00073334,-0.188145,0.000490775,0.0296339,1875,862,-0.00672552,-0.0321374
658,162,0.0102539,-0.0274048,-4.01514e-05,-0.000553294,8.99929e-06,-3.99936e-05,-0.000553452,0.0175304,0.000356386,0.0288994,1882,862,0.0102012,0.0274352
665,162,0.024292,-0.0532837,-3.09345e-05,-0.000332401,0.000112075,6.1652e-06,-0.000369501,0.319673,0.000248415,0.0361576,1889,862,0.0243016,0.0533023
672,162,-0.138184,0.182312,-0.000160807,-0.000201958,0.000177077,-3.11428e-06,-0.00035965,0.727561,0.000238736,0.0403976,1896,862,-0.138226,-0.182296
679,162,-0.177612,0.349365,-0.000267957,-2.36789e-05,0.000198303,8.70812e-05,-0.000378717,1.06142,0.00028596,0.0376634,1903,862,-0.17765,-0.34936
686,162,-0.0427246,0.145447,-0.000232782,9.61524e-05,0.000157991,0.000159744,-0.000296373,1.18814,0.000267248,0.0221659,1910,862,-0.0426815,-0.145463
693,162,-0.0227051,0.0545654,-4.90337e-05,0.000170402,0.000102136,0.000210583,-8.92151e-05,1.19598,0.000177754,0.014152,1917,862,-0.0227108,-0.0545658
700,162,-0.0255127,0.0422363,4.4212e-06,0.000154692,4.56245e-05,0.000167459,-8.34634e-06,1.29794,0.000114523,0.0134979,1924,862,-0.0255734,-0.042264
707,162,-0.0332031,0.036499,-0.000140308,6.77199e-05,-3.75808e-05,7.43008e-05,-0.000146889,-1.39744,0.000129976,0.0100764,1931,862,-0.0332149,-0.0364742
714,162,-0.0246582,0.020874,-7.47221e-05,-0.000132182,3.1279e-05,-6.0981e-05,-0.000145923,0.413925,8.46264e-05,0.0132477,1938,862,-0.0246124,-0.0208949
721,162,-0.0688477,0.0490112,0.000292784,-0.000825084,0.000517993,0.000495903,-0.0010282,0.3737,0.000897653,0.0215242,1945,862,-0.0688687,-0.0490193
728,162,-0.0405273,0.0466309,0.000519994,-0.00222211,0.00122815,0.000989631,-0.00269175,0.365237,0.00219987,0.0176074,1952,862,-0.0405668,-0.0466319
735,162,-0.0168457,0.059082,0.000675055,-0.00384857,0.00243074,0.00173353,-0.00490704,0.410691,0.0039772,0.0100718,1959,862,-0.0168175,-0.0590521
742,162,-0.0321045,0.067749,0.00102008,-0.00606016,0.00408271,0.00288375,-0.00792384,0.428229,0.00646198,0.0111061,1966,862,-0.0321109,-0.0677366
749,162,-0.0349121,0.0570679,0.00151218,-0.00865041,0.00616703,0.00442162,-0.0115599,0.440812,0.00952877,0.0149784,1973,862,-0.03496,-0.0570879
756,162,-0.00439453,-0.036438,0.00217983,-0.0121552,0.00905646,0.00656189,-0.0165373,0.450652,0.0137446,0.0356988,1980,862,-0.00435388,0.0364666
763,162,-0.0111084,-0.183105,0.00306964,-0.0165639,0.0128616,0.00943281,-0.0229271,0.459431,0.0192169,0.0476767,1987,862,-0.0111182,0.183084
770,162,0.0344238,-0.394348,0,0,0,0,0,0,0,-1,1994,862,0.0344842,0.394337
777,162,1.82495,-2.27655,0,0,0,0,0,0,0,-1,2001,862,1.8249,2.27655
784,162,0.27417,0.0650024,0,0,0,0,0,0,0,-1,2008,862,0.274199,-0.0649735
791,162,0,0,0,0,0,0,0,0,0,-1,2015,862,0,0
798,162,0,0,0,0,0,0,0,0,0,-1,2022,862,0,0
805,162,0,0,0,0,0,0,0,0,0,-1,2029,862,0,0
812,162,0,0,0,0,0,0,0,0,0,-1,2036,862,0,0
-700,155,0,0,0,0,0,0,0,0,0,-1,524,869,0,0
-693,155,0,0,0,0,0,0,0,0,0,-1,531,869,0,0
-686,155,0,0,0,0,0,0,0,0,0,-1,538,869,0,0
-679,155,0,0,0,0,0,0,0,0,0,-1,545,869,0,0
-672,155,0,0,0,0,0,0,0,0,0,-1,552,869,0,0
-665,155,-0.254333,0.281311,0.0441741,-0.0540051,-0.00467215,0.0443959,-0.0542269,-0.0474451,0.0570341,0.0454706,559,869,-0.254326,-0.281314
-658,155,0.27356,0.303711,0.0349722,-0.0383599,-0.00535371,0.035361,-0.0387487,-0.0724941,0.0428022,0.0440211,566,869,0.273535,-0.303725
-651,155,0.662659,0.16394,0.0270622,-0.0268373,-0.00520375,0.02756,-0.0273351,-0.0953717,0.0316938,0.0437454,573,869,0.662651,-0.163921
-644,155,0.883179,-0.488586,0,0,0,0,0,0,0,-1,580,869,0.883194,0.488604
-637,155,-0.420471,-0.0213623,0,0,0,0,0,0,0,-1,587,869,-0.420467,0.0213794
-630,155,-0.222229,0.0574951,0.0107281,-0.008068,-0.00288807,0.0111619,-0.00850175,-0.149072,0.0113874,0.0386604,594,869,-0.222217,-0.0575179
-623,155,-0.0124512,0.130249,0.00745622,-0.00516398,-0.00208031,0.00779029,-0.00549805,-0.15923,0.00770999,0.0242111,601,869,-0.0124624,-0.130271
-616,155,-0.041626,0.0809326,0.0049666,-0.00266681,-0.00146523,0.00523819,-0.0029384,-0.183275,0.00478259,0.0133663,608,869,-0.0416009,-0.0809066
-609,155,-0.0396729,0.0509644,0.00272031,-0.000627081,-0.001044,0.00301922,-0.000925996,-0.278857,0.00238224,0.0119007,615,869,-0.039698,-0.0509947
-602,155,-0.0353394,0.0371094,0.00110964,0.000343376,-0.000544804,0.00139254,6.04737e-05,-0.478947,0.000908876,0.0104159,622,869,-0.0353487,-0.037132
-595,155,-0.0299683,0.0441895,0.000453284,-0.00101118,-3.02749e-05,0.00045391,-0.00101181,-0.0206612,0.000866424,0.00924519,629,869,-0.0299915,-0.044205
-588,155,-0.0324707,0.0495605,0.000468527,-0.00045796,-6.22867e-05,0.000472696,-0.000462129,-0.0668281,0.000539733,0.0115846,636,869,-0.0324826,-0.0495854
-581,155,-0.055603,0.0193481,0.000550822,-0.000160301,-0.000169654,0.000589223,-0.000198702,-0.222598,0.000473167,0.0150456,643,869,-0.055584,-0.0193248
-574,155,-0.046814,0.00561523,0.000590705,-0.00016435,-0.00035527,0.000731583,-0.000305227,-0.377517,0.000615242,0.0195915,650,869,-0.046794,-0.00558519
-567,155,-0.0231934,0.0247803,0.000680776,-0.00021468,-0.000495705,0.000901018,-0.000434922,-0.418104,0.000786797,0.0210473,657,869,-0.0231658,-0.0248035
-560,155,-0.0480347,0.0481567,0.00085886,-0.000284855,-0.000526874,0.00106457,-0.000490569,-0.37224,0.000918023,0.020871,664,869,-0.0480109,-0.0481841
-553,155,-0.138428,0.0252075,0.00110879,-0.000375374,-0.000494137,0.00125825,-0.00052484,-0.293729,0.0010581,0.0315422,671,869,-0.138441,-0.0251791
-546,155,-0.0856934,-0.0823975,0.00142463,-0.000494412,-0.000509203,0.00155137,-0.000621154,-0.243947,0.00129206,0.0358799,678,869,-0.0856819,0.082396
-539,155,-0.109314,-0.176758,0.00171022,-0.000645357,-0.000500033,0.00181197,-0.000747107,-0.200746,0.00151952,0.043426,685,869,-0.109316,0.176753
-532,155,-0.0899048,-0.0983887,0.00202066,-0.000880841,-0.000391907,0.00207267,-0.000932844,-0.131921,0.00177634,0.0324869,692,869,-0.0899228,0.0983995
-525,155,-0.0435791,0.0219727,0.00229817,-0.0011211,-0.000232542,0.00231391,-0.00113685,-0.0675944,0.00203056,0.0338249,699,869,-0.0435875,-0.0219587
-518,155,-0.020752,0.0151367,0.0024765,-0.00137453,-2.82366e-05,0.00247671,-0.00137473,-0.0073317,0.00225377,0.0381453,706,869,-0.0207502,-0.0151245
-511,155,0.0749512,-0.0548096,0.00250167,-0.00161726,0.000186963,0.00251014,-0.00162573,0.0452672,0.00240597,0.0372696,713,869,0.0749208,0.0548364
-504,155,0.151489,-0.0941772,0.00222541,-0.0018117,0.0003403,0.0022539,-0.00184018,0.0835077,0.00236774,0.0380452,720,869,0.151487,0.0941612
-497,155,0,0,0,0,0,0,0,0,0,-1,727,869,0,0
-490,155,0,0,0,0,0,0,0,0,0,-1,734,869,0,0
-483,155,0,0,0,0,0,0,0,0,0,-1,741,869,0,0
-476,155,0,0,0,0,0,0,0,0,0,-1,748,869,0,0
-469,155,0,0,0,0,0,0,0,0,0,-1,755,869,0,0
-462,155,0,0,0,0,0,0,0,0,0,-1,762,869,0,0
-455,155,0,0,0,0,0,0,0,0,0,-1,769,869,0,0
-448,155,0,0,0,0,0,0,0,0,0,-1,776,869,0,0
-441,155,0,0,0,0,0,0,0,0,0,-1,783,869,0,0
-434,155,0,0,0,0,0,0,0,0,0,-1,790,869,0,0
-427,155,0,0,0,0,0,0,0,0,0,-1,797,869,0,0
-420,155,0,0,0,0,0,0,0,0,0,-1,804,869,0,0
-413,155,0,0,0,0,0,0,0,0,0,-1,811,869,0,0
-406,155,0,0,0,0,0,0,0,0,0,-1,818,869,0,0
-399,155,0,0,0,0,0,0,0,0,0,-1,825,869,0,0
-392,155,0,0,0,0,0,0,0,0,0,-1,832,869,0,0
-385,155,0,0,0,0,0,0,0,0,0,-1,839,869,0,0
-378,155,0,0,0,0,0,0,0,0,0,-1,846,869,0,0
-371,155,0,0,0,0,0,0,0,0,0,-1,853,869,0,0
-364,155,0,0,0,0,0,0,0,0,0,-1,860,869,0,0
-357,155,0,0,0,0,0,0,0,0,0,-1,867,869,0,0
-350,155,0,0,0,0,0,0,0,0,0,-1,874,869,0,0
-343,155,0,0,0,0,0,0,0,0,0,-1,881,869,0,0
-336,155,0,0,0,0,0,0,0,0,0,-1,888,869,0,0
-329,155,0,0,0,0,0,0,0,0,0,-1,895,869,0,0
-322,155,0,0,0,0,0,0,0,0,0,-1,902,869,0,0
-315,155,0,0,0,0,0,0,0,0,0,-1,909,869,0,0
-308,155,0,0,0,0,0,0,0,0,0,-1,916,869,0,0
-301,155,0,0,0,0,0,0,0,0,0,-1,923,869,0,0
-294,155,0,0,0,0,0,0,0,0,0,-1,930,869,0,0
-287,155,0,0,0,0,0,0,0,0,0,-1,937,869,0,0
-280,155,0,0,0,0,0,0,0,0,0,-1,944,869,0,0
-273,155,0,0,0,0,0,0,0,0,0,-1,951,869,0,0
-266,155,0,0,0,0,0,0,0,0,0,-1,958,869,0,0
-259,155,0,0,0,0,0,0,0,0,0,-1,965,869,0,0
-252,155,0,0,0,0,0,0,0,0,0,-1,972,869,0,0
-245,155,0,0,0,0,0,0,0,0,0,-1,979,869,0,0
-238,155,0,0,0,0,0,0,0,0,0,-1,986,869,0,0
-231,155,0,0,0,0,0,0,0,0,0,-1,993,869,0,0
-224,155,0,0,0,0,0,0,0,0,0,-1,1000,869,0,0
-217,155,0,0,0,0,0,0,0,0,0,-1,1007,869,0,0
-210,155,0,0,0,0,0,0,0,0,0,-1,1014,869,0,0
-203,155,0,0,0,0,0,0,0,0,0,-1,1021,869,0,0
-196,155,0,0,0,0,0,0,0,0,0,-1,1028,869,0,0
-189,155,0,0,0,0,0,0,0,0,0,-1,1035,869,0,0
-182,155,0,0,0,0,0,0,0,0,0,-1,1042,869,0,0
-175,155,0,0,0,0,0,0,0,0,0,-1,1049,869,0,0
-168,155,0,0,0,0,0,0,0,0,0,-1,1056,869,0,0
-161,155,0,0,0,0,0,0,0,0,0,-1,1063,869,0,0
-154,155,0,0,0,0,0,0,0,0,0,-1,1070,869,0,0
-147,155,0,0,0,0,0,0,0,0,0,-1,1077,869,0,0
-140,155,0,0,0,0,0,0,0,0,0,-1,1084,869,0,0
-133,155,0,0,0,0,0,0,0,0,0,-1,1091,869,0,0
-126,155,0,0,0,0,0,0,0,0,0,-1,1098,869,0,0
-119,155,0,0,0,0,0,0,0,0,0,-1,1105,869,0,0
-112,155,0,0,0,0,0,0,0,0,0,-1,1112,869,0,0
-105,155,0,0,0,0,0,0,0,0,0,-1,1119,869,0,0
-98,155,0,0,0,0,0,0,0,0,0,-1,1126,869,0,0
-91,155,0,0,0,0,0,0,0,0,0,-1,1133,869,0,0
-84,155,0,0,0,0,0,0,0,0,0,-1,1140,869,0,0
-77,155,0,0,0,0,0,0,0,0,0,-1,1147,869,0,0
-70,155,0,0,0,0,0,0,0,0,0,-1,1154,869,0,0
-63,155,0,0,0,0,0,0,0,0,0,-1,1161,869,0,0
-56,155,0,0,0,0,0,0,0,0,0,-1,1168,869,0,0
-49,155,0,0,0,0,0,0,0,0,0,-1,1175,869,0,0
-42,155,0,0,0,0,0,0,0,0,0,-1,1182,869,0,0
-35,155,0,0,0,0,0,0,0,0,0,-1,1189,869,0,0
-28,155,0,0,0,0,0,0,0,0,0,-1,1196,869,0,0
-21,155,0,0,0,0,0,0,0,0,0,-1,1203,869,0,0
-14,155,0,0,0,0,0,0,0,0,0,-1,1210,869,0,0
-7,155,0,0,0,0,0,0,0,0,0,-1,1217,869,0,0
0,155,0,0,0,0,0,0,0,0,0,-1,1224,869,0,0
7,155,0,0,0,0,0,0,0,0,0,-1,1231,869,0,0
14,155,0,0,0,0,0,0,0,0,0,-1,1238,869,0,0
21,155,0,0,0,0,0,0,0,0,0,-1,1245,869,0,0
28,155,0,0,0,0,0,0,0,0,0,-1,1252,869,0,0
35,155,0,0,0,0,0,0,0,0,0,-1,1259,869,0,0
42,155,0,0,0,0,0,0,0,0,0,-1,1266,869,0,0
49,155,0,0,0,0,0,0,0,0,0,-1,1273,869,0,0
56,155,0,0,0,0,0,0,0,0,0,-1,1280,869,0,0
63,155,0,0,0,0,0,0,0,0,0,-1,1287,869,0,0
70,155,0,0,0,0,0,0,0,0,0,-1,1294,869,0,0
77,155,0,0,0,0,0,0,0,0,0,-1,1301,869,0,0
84,155,0,0,0,0,0,0,0,0,0,-1,1308,869,0,0
91,155,0,0,0,0,0,0,0,0,0,-1,1315,869,0,0
98,155,0,0,0,0,0,0,0,0,0,-1,1322,869,0,0
105,155,0,0,0,0,0,0,0,0,0,-1,1329,869,0,0
112,155,0,0,0,0,0,0,0,0,0,-1,1336,869,0,0
119,155,0,0,0,0,0,0,0,0,0,-1,1343,869,0,0
126,155,0,0,0,0,0,0,0,0,0,-1,1350,869,0,0
133,155,0,0,0,0,0,0,0,0,0,-1,1357,869,0,0
140,155,0,0,0,0,0,0,0,0,0,-1,1364,869,0,0
147,155,0,0,0,0,0,0,0,0,0,-1,1371,869,0,0
154,155,0,0,0,0,0,0,0,0,0,-1,1378,869,0,0
161,155,0,0,0,0,0,0,0,0,0,-1,1385,869,0,0
168,155,0,0,0,0,0,0,0,0,0,-1,1392,869,0,0
175,155,0,0,0,0,0,0,0,0,0,-1,1399,869,0,0
182,155,0,0,0,0,0,0,0,0,0,-1,1406,869,0,0
189,155,0,0,0,0,0,0,0,0,0,-1,1413,869,0,0
196,155,0,0,0,0,0,0,0,0,0,-1,1420,869,0,0
203,155,0,0,0,0,0,0,0,0,0,-1,1427,869,0,0
210,155,0,0,0,0,0,0,0,0,0,-1,1434,869,0,0
217,155,0,0,0,0,0,0,0,0,0,-1,1441,869,0,0
224,155,0,0,0,0,0,0,0,0,0,-1,1448,869,0,0
231,155,0,0,0,0,0,0,0,0,0,-1,1455,869,0,0
238,155,0,0,0,0,0,0,0,0,0,-1,1462,869,0,0
245,155,0,0,0,0,0,0,0,0,0,-1,1469,869,0,0
252,155,0,0,0,0,0,0,0,0,0,-1,1476,869,0,0
259,155,0,0,0,0,0,0,0,0,0,-1,1483,869,0,0
266,155,0,0,0,0,0,0,0,0,0,-1,1490,869,0,0
273,155,0,0,0,0,0,0,0,0,0,-1,1497,869,0,0
280,155,0,0,0,0,0,0,0,0,0,-1,1504,869,0,0
287,155,0,0,0,0,0,0,0,0,0,-1,1511,869,0,0
294,155,0,0,0,0,0,0,0,0,0,-1,1518,869,0,0
301,155,0,0,0,0,0,0,0,0,0,-1,1525,869,0,0
308,155,0,0,0,0,0,0,0,0,0,-1,1532,869,0,0
315,155,0,0,0,0,0,0,0,0,0,-1,1539,869,0,0
322,155,0,0,0,0,0,0,0,0,0,-1,1546,869,0,0
329,155,0,0,0,0,0,0,0,0,0,-1,1553,869,0,0
336,155,0,0,0,0,0,0,0,0,0,-1,1560,869,0,0
343,155,0,0,0,0,0,0,0,0,0,-1,1567,869,0,0
350,155,0,0,0,0,0,0,0,0,0,-1,1574,869,0,0
357,155,0,0,0,0,0,0,0,0,0,-1,1581,869,0,0
364,155,0,0,0,0,0,0,0,0,0,-1,1588,869,0,0
371,155,0,0,0,0,0,0,0,0,0,-1,1595,869,0,0
378,155,0,0,0,0,0,0,0,0,0,-1,1602,869,0,0
385,155,0,0,0,0,0,0,0,0,0,-1,1609,869,0,0
392,155,0,0,0,0,0,0,0,0,0,-1,1616,869,0,0
399,155,0,0,0,0,0,0,0,0,0,-1,1623,869,0,0
406,155,0,0,0,0,0,0,0,0,0,-1,1630,869,0,0
413,155,0,0,0,0,0,0,0,0,0,-1,1637,869,0,0
420,155,0,0,0,0,0,0,0,0,0,-1,1644,869,0,0
427,155,0,0,0,0,0,0,0,0,0,-1,1651,869,0,0
434,155,0,0,0,0,0,0,0,0,0,-1,1658,869,0,0
441,155,0,0,0,0,0,0,0,0,0,-1,1665,869,0,0
448,155,0,0,0,0,0,0,0,0,0,-1,1672,869,0,0
455,155,0,0,0,0,0,0,0,0,0,-1,1679,869,0,0
462,155,0,0,0,0,0,0,0,0,0,-1,1686,869,0,0
469,155,0,0,0,0,0,0,0,0,0,-1,1693,869,0,0
476,155,0,0,0,0,0,0,0,0,0,-1,1700,869,0,0
483,155,0,0,0,0,0,0,0,0,0,-1,1707,869,0,0
490,155,0,0,0,0,0,0,0,0,0,-1,1714,869,0,0
497,155,0,0,0,0,0,0,0,0,0,-1,1721,869,0,0
504,155,0,0,0,0,0,0,0,0,0,-1,1728,869,0,0
511,155,0,0,0,0,0,0,0,0,0,-1,1735,869,0,0
518,155,0,0,0,0,0,0,0,0,0,-1,1742,869,0,0
525,155,0,0,0,0,0,0,0,0,0,-1,1749,869,0,0
532,155,0,0,0,0,0,0,0,0,0,-1,1756,869,0,0
539,155,0,0,0,0,0,0,0,0,0,-1,1763,869,0,0
546,155,0,0,0,0,0,0,0,0,0,-1,1770,869,0,0
553,155,0,0,0,0,0,0,0,0,0,-1,1777,869,0,0
560,155,0,0,0,0,0,0,0,0,0,-1,1784,869,0,0
567,155,0,0,0,0,0,0,0,0,0,-1,1791,869,0,0
574,155,0,0,0,0,0,0,0,0,0,-1,1798,869,0,0
581,155,0,0,0,0,0,0,0,0,0,-1,1805,869,0,0
588,155,0,0,0,0,0,0,0,0,0,-1,1812,869,0,0
595,155,0,0,0,0,0,0,0,0,0,-1,1819,869,0,0
602,155,0,0,0,0,0,0,0,0,0,-1,1826,869,0,0
609,155,0,0,0,0,0,0,0,0,0,-1,1833,869,0,0
616,155,0.0432129,-0.0630493,0.00022558,-0.000575749,-0.00304618,0.00289734,-0.00324751,-0.720009,0.00354965,0.0391492,1840,869,0.0431681,0.063075
623,155,0.0461426,0.088501,0.000670822,-0.000776607,-0.00221969,0.0022818,-0.00238758,-0.627811,0.0026961,0.0386803,1847,869,0.046166,-0.0885167
630,155,-0.0405273,0.0441284,0.000530525,-0.00109994,-0.00145583,0.00138384,-0.00195325,-0.530163,0.001936,0.0362677,1854,869,-0.0405004,-0.044122
637,155,-0.0480957,0.0108643,0.000362681,-0.00106518,-0.000896793,0.000795021,-0.00149752,-0.449221,0.00134415,0.0326983,1861,869,-0.0480671,-0.01088
644,155,0.0180664,-0.0158081,0.000207455,-0.000946606,-0.00052998,0.000413906,-0.00115306,-0.371461,0.000937637,0.030885,1868,869,0.0180789,0.015794
651,155,0.0136719,0.0250244,7.90315e-05,-0.000775558,-0.000291881,0.000169207,-0.000865734,-0.299644,0.000641046,0.0276438,1875,869,0.0136996,-0.0250054
658,155,-0.0456543,0.0429688,3.27622e-05,-0.000597196,-0.000142086,6.33266e-05,-0.000627761,-0.211883,0.000441134,0.0228001,1882,869,-0.0455992,-0.0429566
665,155,-0.052124,0.0480347,2.03209e-05,-0.000372279,-3.44474e-05,2.33205e-05,-0.000375278,-0.0868574,0.00025831,0.027144,1889,869,-0.0521039,-0.0480316
672,155,-0.117065,0.158325,-0.000102744,-0.000239327,3.76095e-05,-9.30723e-05,-0.000248998,0.251697,0.000145278,0.03576,1896,869,-0.117005,-0.158307
679,155,-0.0908203,0.149109,-0.000196431,-6.57541e-05,7.18439e-05,-3.39811e-05,-0.000228204,1.1544,0.000142169,0.0342785,1903,869,-0.0908005,-0.149121
686,155,-0.0334473,0.0958862,-0.000171056,5.23038e-05,4.98582e-05,6.29278e-05,-0.00018168,1.36085,0.000146667,0.0239931,1910,869,-0.0334514,-0.0959119
693,155,-0.0241699,0.0674438,-4.26531e-05,0.000127027,1.40205e-05,0.000128177,-4.38038e-05,1.48891,0.0001032,0.0147484,1917,869,-0.024174,-0.0674333
700,155,-0.0269775,0.0473633,-1.81993e-05,0.000134172,-1.59959e-05,0.000135833,-1.98605e-05,-1.46732,9.78495e-05,0.0134124,1924,869,-0.027003,-0.0473789
707,155,-0.00366211,0.0649414,-0.000141264,9.46756e-05,-7.69925e-05,0.000117577,-0.000164165,-1.28168,0.000163404,0.0101772,1931,869,-0.00364766,-0.0649386
714,155,-0.0380859,0.0473633,-5.47266e-05,-5.69276e-05,-4.25802e-05,-1.32326e-05,-9.84216e-05,-0.772478,6.16785e-05,0.0175661,1938,869,-0.0381044,-0.0473903
721,155,-0.0739746,0.0531616,0.000264917,-0.000576351,0.000330469,0.000379206,-0.00069064,0.332963,0.000626338,0.0229154,1945,869,-0.0740174,-0.0531406
728,155,-0.0505371,0.0610962,0.00035127,-0.00193054,0.000962268,0.000702887,-0.00228216,0.350332,0.00180202,0.0177906,1952,869,-0.0505636,-0.0610738
735,155,-0.0217285,0.0724487,0.000386263,-0.00345553,0.00206271,0.00128399,-0.00435326,0.410492,0.00341168,0.0139964,1959,869,-0.0217251,-0.0724276
742,155,-0.012207,0.088501,0.000640363,-0.00546239,0.00351511,0.00224376,-0.00706579,0.427951,0.00561006,0.0146383,1966,869,-0.0121951,-0.0884839
749,155,-0.0223389,0.0894775,0.000960847,-0.0076621,0.00523013,0.0034275,-0.0101288,0.440691,0.00813923,0.0124022,1973,869,-0.0222885,-0.0894939
756,155,-0.00549316,0.0352783,0.00138127,-0.0107506,0.00767332,0.00509671,-0.0144661,0.45093,0.0117184,0.0232956,1980,869,-0.00547044,-0.0352537
763,155,0.193848,0.0332642,0.00194263,-0.0145991,0.0108746,0.00733423,-0.0199907,0.460282,0.0163304,0.0392583,1987,869,0.19384,-0.0332392
770,155,0.420044,0.0935059,0,0,0,0,0,0,0,-1,1994,869,0.420022,-0.0935093
777,155,0.896118,-2.02618,0,0,0,0,0,0,0,-1,2001,869,0.896067,2.02617
784,155,0.549683,-1.18445,0,0,0,0,0,0,0,-1,2008,869,0.549692,1.18443
791,155,0,0,0,0,0,0,0,0,0,-1,2015,869,0,0
798,155,0,0,0,0,0,0,0,0,0,-1,2022,869,0,0
805,155,0,0,0,0,0,0,0,0,0,-1,2029,869,0,0
812,155,0,0,0,0,0,0,0,0,0,-1,2036,869,0,0
-700,148,0,0,0,0,0,0,0,0,0,-1,524,876,0,0
-693,148,0,0,0,0,0,0,0,0,0,-1,531,876,0,0
-686,148,0,0,0,0,0,0,0,0,0,-1,538,876,0,0
-679,148,0,0,0,0,0,0,0,0,0,-1,545,876,0,0
-672,148,-0.632935,1.22388,0.0521788,-0.0717391,-0.00578867,0.0524486,-0.072009,-0.0465785,0.0721508,0.0483295,552,876,-0.632906,-1.22388
-665,148,-0.510803,1.31989,0.0426356,-0.0500946,-0.00718588,0.0431892,-0.0506482,-0.0768806,0.0542341,0.0452749,559,876,-0.510825,-1.31988
-658,148,0.0979004,0.975769,0.0340657,-0.034535,-0.00732355,0.0348388,-0.0353081,-0.105177,0.0404996,0.0449025,566,876,0.0979117,-0.975785
-651,148,0.672424,0.715332,0.0265511,-0.023282,-0.00673196,0.0274445,-0.0241754,-0.13194,0.0298227,0.0386833,573,876,0.672443,-0.715346
-644,148,1.23633,0.602966,0,0,0,0,0,0,0,-1,580,876,1.23636,-0.602981
-637,148,-0.131775,-0.535278,0.0148661,-0.00962165,-0.00463436,0.0157138,-0.0104694,-0.18092,0.0152176,0.0411561,587,876,-0.131768,0.535292
-630,148,-0.169128,-0.251282,0.0106295,-0.00583897,-0.00352493,0.0113523,-0.00656173,-0.202239,0.0104652,0.0381306,594,876,-0.169112,0.251299
-623,148,0.0285645,0.0714111,0.00737173,-0.00340093,-0.00253106,0.00793677,-0.00396597,-0.219641,0.00699836,0.02149,601,876,0.0285937,-0.0714146
-616,148,-0.0187988,0.0666504,0.0048571,-0.00126225,-0.00178153,0.00533797,-0.00174312,-0.263637,0.00426026,0.0118319,608,876,-0.0187823,-0.0666351
-609,148,-0.0380249,0.0539551,0.00260989,0.000530772,-0.00124538,0.00319257,-5.1903e-05,-0.437616,0.00214589,0.010329,615,876,-0.0380025,-0.0539743
-602,148,-0.0397949,0.0393677,0.000994126,0.00127925,-0.000631362,0.00178395,0.000489432,-0.896437,0.00106435,0.00969416,622,876,-0.0398095,-0.0393965
-595,148,-0.0327148,0.0437012,0.00034518,-0.000800608,-5.11964e-05,0.000347463,-0.000802892,-0.0445639,0.000681286,0.00852488,629,876,-0.0327133,-0.0437236
-588,148,-0.0314941,0.0460815,0.000355019,-0.000311779,-4.12732e-05,0.000357564,-0.000314324,-0.0615842,0.000388182,0.0122681,636,876,-0.0314936,-0.0460693
-581,148,-0.0228882,0.046814,0.000433663,-0.000105928,-0.000126902,0.000462018,-0.000134283,-0.21983,0.000361192,0.0165752,643,876,-0.0228891,-0.0468182
-574,148,-0.0255127,0.0905151,0.000451171,-0.000144149,-0.000285269,0.000565797,-0.000258775,-0.382072,0.000486943,0.0216433,650,876,-0.025528,-0.0905451
-567,148,-0.0341187,0.0760498,0.000539272,-0.000207587,-0.000417978,0.000726338,-0.000394653,-0.420815,0.00065658,0.023967,657,876,-0.0341264,-0.0760286
-560,148,-0.0765381,0.0396729,0.000712662,-0.000280193,-0.000452498,0.000887944,-0.000455476,-0.369568,0.000788907,0.0259603,664,876,-0.0765077,-0.0396834
-553,148,-0.136597,-0.0150757,0.000948618,-0.000367907,-0.000430754,0.00107703,-0.00049632,-0.289724,0.00092877,0.0343767,671,876,-0.136568,0.0150891
-546,148,-0.0222778,0.0100098,0.00124744,-0.000454461,-0.000460106,0.00136386,-0.000570885,-0.247836,0.00114788,0.0406363,678,876,-0.0222735,-0.0100391
-539,148,0.00469971,0.0100708,0.00153391,-0.000560395,-0.000477911,0.00163781,-0.000664298,-0.214078,0.00136816,0.0355264,685,876,0.00467355,-0.0101004
-532,148,-0.0650024,-0.0620117,0.00186363,-0.000726042,-0.000430864,0.00193343,-0.000795847,-0.160615,0.00162073,0.0320262,692,876,-0.064986,0.06201
-525,148,-0.0012207,0.0423584,0.00218667,-0.000895602,-0.000350875,0.00222611,-0.00093504,-0.111928,0.00187514,0.0338029,699,876,-0.00124877,-0.0423558
-518,148,-0.00500488,0.0153198,0.00246201,-0.00106141,-0.000246299,0.00247914,-0.00107854,-0.0694532,0.00210642,0.0402411,706,876,-0.00499014,-0.0153421
-511,148,0.00872803,-0.00201416,0.00264067,-0.00120259,-0.00014529,0.00264616,-0.00120807,-0.037732,0.00227629,0.0371926,713,876,0.00872573,0.00201466
-504,148,0.0148926,0.0315552,0.00255825,-0.00127693,-0.00012033,0.00256202,-0.0012807,-0.0313342,0.00225933,0.0383013,720,876,0.0149221,-0.0315383
-497,148,0,0,0,0,0,0,0,0,0,-1,727,876,0,0
-490,148,0,0,0,0,0,0,0,0,0,-1,734,876,0,0
-483,148,0,0,0,0,0,0,0,0,0,-1,741,876,0,0
-476,148,0,0,0,0,0,0,0,0,0,-1,748,876,0,0
-469,148,0,0,0,0,0,0,0,0,0,-1,755,876,0,0
-462,148,0,0,0,0,0,0,0,0,0,-1,762,876,0,0
-455,148,0,0,0,0,0,0,0,0,0,-1,769,876,0,0
-448,148,0,0,0,0,0,0,0,0,0,-1,776,876,0,0
-441,148,0,0,0,0,0,0,0,0,0,-1,783,876,0,0
-434,148,0,0,0,0,0,0,0,0,0,-1,790,876,0,0
-427,148,0,0,0,0,0,0,0,0,0,-1,797,876,0,0
-420,148,0,0,0,0,0,0,0,0,0,-1,804,876,0,0
-413,148,0,0,0,0,0,0,0,0,0,-1,811,876,0,0
-406,148,0,0,0,0,0,0,0,0,0,-1,818,876,0,0
-399,148,0,0,0,0,0,0,0,0,0,-1,825,876,0,0
-392,148,0,0,0,0,0,0,0,0,0,-1,832,876,0,0
-385,148,0,0,0,0,0,0,0,0,0,-1,839,876,0,0
-378,148,0,0,0,0,0,0,0,0,0,-1,846,876,0,0
-371,148,0,0,0,0,0,0,0,0,0,-1,853,876,0,0
-364,148,0,0,0,0,0,0,0,0,0,-1,860,876,0,0
-357,148,0,0,0,0,0,0,0,0,0,-1,867,876,0,0
-350,148,0,0,0,0,0,0,0,0,0,-1,874,876,0,0
-343,148,0,0,0,0,0,0,0,0,0,-1,881,876,0,0
-336,148,0,0,0,0,0,0,0,0,0,-1,888,876,0,0
-329,148,0,0,0,0,0,0,0,0,0,-1,895,876,0,0
-322,148,0,0,0,0,0,0,0,0,0,-1,902,876,0,0
-315,148,0,0,0,0,0,0,0,0,0,-1,909,876,0,0
-308,148,0,0,0,0,0,0,0,0,0,-1,916,876,0,0
-301,148,0,0,0,0,0,0,0,0,0,-1,923,876,0,0
-294,148,0,0,0,0,0,0,0,0,0,-1,930,876,0,0
-287,148,0,0,0,0,0,0,0,0,0,-1,937,876,0,0
-280,148,0,0,0,0,0,0,0,0,0,-1,944,876,0,0
-273,148,0,0,0,0,0,0,0,0,0,-1,951,876,0,0
-266,148,0,0,0,0,0,0,0,0,0,-1,958,876,0,0
-259,148,0,0,0,0,0,0,0,0,0,-1,965,876,0,0
-252,148,0,0,0,0,0,0,0,0,0,-1,972,876,0,0
-245,148,0,0,0,0,0,0,0,0,0,-1,979,876,0,0
-238,148,0,0,0,0,0,0,0,0,0,-1,986,876,0,0
-231,148,0,0,0,0,0,0,0,0,0,-1,993,876,0,0
-224,148,0,0,0,0,0,0,0,0,0,-1,1000,876,0,0
-217,148,0,0,0,0,0,0,0,0,0,-1,1007,876,0,0
-210,148,0,0,0,0,0,0,0,0,0,-1,1014,876,0,0
-203,148,0,0,0,0,0,0,0,0,0,-1,1021,876,0,0
-196,148,0,0,0,0,0,0,0,0,0,-1,1028,876,0,0
-189,148,0,0,0,0,0,0,0,0,0,-1,1035,876,0,0
-182,148,0,0,0,0,0,0,0,0,0,-1,1042,876,0,0
-175,148,0,0,0,0,0,0,0,0,0,-1,1049,876,0,0
-168,148,0,0,0,0,0,0,0,0,0,-1,1056,876,0,0
-161,148,0,0,0,0,0,0,0,0,0,-1,1063,876,0,0
-154,148,0,0,0,0,0,0,0,0,0,-1,1070,876,0,0
-147,148,0,0,0,0,0,0,0,0,0,-1,1077,876,0,0
-140,148,0,0,0,0,0,0,0,0,0,-1,1084,876,0,0
-133,148,0,0,0,0,0,0,0,0,0,-1,1091,876,0,0
-126,148,0,0,0,0,0,0,0,0,0,-1,1098,876,0,0
-119,148,0,0,0,0,0,0,0,0,0,-1,1105,876,0,0
-112,148,0,0,0,0,0,0,0,0,0,-1,1112,876,0,0
-105,148,0,0,0,0,0,0,0,0,0,-1,1119,876,0,0
-98,148,0,0,0,0,0,0,0,0,0,-1,1126,876,0,0
-91,148,0,0,0,0,0,0,0,0,0,-1,1133,876,0,0
-84,148,0,0,0,0,0,0,0,0,0,-1,1140,876,0,0
-77,148,0,0,0,0,0,0,0,0,0,-1,1147,876,0,0
-70,148,0,0,0,0,0,0,0,0,0,-1,1154,876,0,0
-63,148,0,0,0,0,0,0,0,0,0,-1,1161,876,0,0
-56,148,0,0,0,0,0,0,0,0,0,-1,1168,876,0,0
-49,148,0,0,0,0,0,0,0,0,0,-1,1175,876,0,0
-42,148,0,0,0,0,0,0,0,0,0,-1,1182,876,0,0
-35,148,0,0,0,0,0,0,0,0,0,-1,1189,876,0,0
-28,148,0,0,0,0,0,0,0,0,0,-1,1196,876,0,0
-21,148,0,0,0,0,0,0,0,0,0,-1,1203,876,0,0
-14,148,0,0,0,0,0,0,0,0,0,-1,1210,876,0,0
-7,148,0,0,0,0,0,0,0,0,0,-1,1217,876,0,0
0,148,0,0,0,0,0,0,0,0,0,-1,1224,876,0,0
7,148,0,0,0,0,0,0,0,0,0,-1,1231,876,0,0
14,148,0,0,0,0,0,0,0,0,0,-1,1238,876,0,0
21,148,0,0,0,0,0,0,0,0,0,-1,1245,876,0,0
28,148,0,0,0,0,0,0,0,0,0,-1,1252,876,0,0
35,148,0,0,0,0,0,0,0,0,0,-1,1259,876,0,0
42,148,0,0,0,0,0,0,0,0,0,-1,1266,876,0,0
49,148,0,0,0,0,0,0,0,0,0,-1,1273,876,0,0
56,148,0,0,0,0,0,0,0,0,0,-1,1280,876,0,0
63,148,0,0,0,0,0,0,0,0,0,-1,1287,876,0,0
70,148,0,0,0,0,0,0,0,0,0,-1,1294,876,0,0
77,148,0,0,0,0,0,0,0,0,0,-1,1301,876,0,0
84,148,0,0,0,0,0,0,0,0,0,-1,1308,876,0,0
91,148,0,0,0,0,0,0,0,0,0,-1,1315,876,0,0
98,148,0,0,0,0,0,0,0,0,0,-1,1322,876,0,0
105,148,0,0,0,0,0,0,0,0,0,-1,1329,876,0,0
112,148,0,0,0,0,0,0,0,0,0,-1,1336,876,0,0
119,148,0,0,0,0,0,0,0,0,0,-1,1343,876,0,0
126,148,0,0,0,0,0,0,0,0,0,-1,1350,876,0,0
133,148,0,0,0,0,0,0,0,0,0,-1,1357,876,0,0
140,148,0,0,0,0,0,0,0,0,0,-1,1364,876,0,0
147,148,0,0,0,0,0,0,0,0,0,-1,1371,876,0,0
154,148,0,0,0,0,0,0,0,0,0,-1,1378,876,0,0
161,148,0,0,0,0,0,0,0,0,0,-1,1385,876,0,0
168,148,0,0,0,0,0,0,0,0,0,-1,1392,876,0,0
175,148,0,0,0,0,0,0,0,0,0,-1,1399,876,0,0
182,148,0,0,0,0,0,0,0,0,0,-1,1406,876,0,0
189,148,0,0,0,0,0,0,0,0,0,-1,1413,876,0,0
196,148,0,0,0,0,0,0,0,0,0,-1,1420,876,0,0
203,148,0,0,0,0,0,0,0,0,0,-1,1427,876,0,0
210,148,0,0,0,0,0,0,0,0,0,-1,1434,876,0,0
217,148,0,0,0,0,0,0,0,0,0,-1,1441,876,0,0
224,148,0,0,0,0,0,0,0,0,0,-1,1448,876,0,0
231,148,0,0,0,0,0,0,0,0,0,-1,1455,876,0,0
238,148,0,0,0,0,0,0,0,0,0,-1,1462,876,0,0
245,148,0,0,0,0,0,0,0,0,0,-1,1469,876,0,0
252,148,0,0,0,0,0,0,0,0,0,-1,1476,876,0,0
259,148,0,0,0,0,0,0,0,0,0,-1,1483,876,0,0
266,148,0,0,0,0,0,0,0,0,0,-1,1490,876,0,0
273,148,0,0,0,0,0,0,0,0,0,-1,1497,876,0,0
280,148,0,0,0,0,0,0,0,0,0,-1,1504,876,0,0
287,148,0,0,0,0,0,0,0,0,0,-1,1511,876,0,0
294,148,0,0,0,0,0,0,0,0,0,-1,1518,876,0,0
301,148,0,0,0,0,0,0,0,0,0,-1,1525,876,0,0
308,148,0,0,0,0,0,0,0,0,0,-1,1532,876,0,0
315,148,0,0,0,0,0,0,0,0,0,-1,1539,876,0,0
322,148,0,0,0,0,0,0,0,0,0,-1,1546,876,0,0
329,148,0,0,0,0,0,0,0,0,0,-1,1553,876,0,0
336,148,0,0,0,0,0,0,0,0,0,-1,1560,876,0,0
343,148,0,0,0,0,0,0,0,0,0,-1,1567,876,0,0
350,148,0,0,0,0,0,0,0,0,0,-1,1574,876,0,0
357,148,0,0,0,0,0,0,0,0,0,-1,1581,876,0,0
364,148,0,0,0,0,0,0,0,0,0,-1,1588,876,0,0
371,148,0,0,0,0,0,0,0,0,0,-1,1595,876,0,0
378,148,0,0,0,0,0,0,0,0,0,-1,1602,876,0,0
385,148,0,0,0,0,0,0,0,0,0,-1,1609,876,0,0
392,148,0,0,0,0,0,0,0,0,0,-1,1616,876,0,0
399,148,0,0,0,0,0,0,0,0,0,-1,1623,876,0,0
406,148,0,0,0,0,0,0,0,0,0,-1,1630,876,0,0
413,148,0,0,0,0,0,0,0,0,0,-1,1637,876,0,0
420,148,0,0,0,0,0,0,0,0,0,-1,1644,876,0,0
427,148,0,0,0,0,0,0,0,0,0,-1,1651,876,0,0
434,148,0,0,0,0,0,0,0,0,0,-1,1658,876,0,0
441,148,0,0,0,0,0,0,0,0,0,-1,1665,876,0,0
448,148,0,0,0,0,0,0,0,0,0,-1,1672,876,0,0
455,148,0,0,0,0,0,0,0,0,0,-1,1679,876,0,0
462,148,0,0,0,0,0,0,0,0,0,-1,1686,876,0,0
469,148,0,0,0,0,0,0,0,0,0,-1,1693,876,0,0
476,148,0,0,0,0,0,0,0,0,0,-1,1700,876,0,0
483,148,0,0,0,0,0,0,0,0,0,-1,1707,876,0,0
490,148,0,0,0,0,0,0,0,0,0,-1,1714,876,0,0
497,148,0,0,0,0,0,0,0,0,0,-1,1721,876,0,0
504,148,0,0,0,0,0,0,0,0,0,-1,1728,876,0,0
511,148,0,0,0,0,0,0,0,0,0,-1,1735,876,0,0
518,148,0,0,0,0,0,0,0,0,0,-1,1742,876,0,0
525,148,0,0,0,0,0,0,0,0,0,-1,1749,876,0,0
532,148,0,0,0,0,0,0,0,0,0,-1,1756,876,0,0
539,148,0,0,0,0,0,0,0,0,0,-1,1763,876,0,0
546,148,0,0,0,0,0,0,0,0,0,-1,1770,876,0,0
553,148,0,0,0,0,0,0,0,0,0,-1,1777,876,0,0
560,148,0,0,0,0,0,0,0,0,0,-1,1784,876,0,0
567,148,0,0,0,0,0,0,0,0,0,-1,1791,876,0,0
574,148,0,0,0,0,0,0,0,0,0,-1,1798,876,0,0
581,148,0,0,0,0,0,0,0,0,0,-1,1805,876,0,0
588,148,0,0,0,0,0,0,0,0,0,-1,1812,876,0,0
595,148,0,0,0,0,0,0,0,0,0,-1,1819,876,0,0
602,148,0,0,0,0,0,0,0,0,0,-1,1826,876,0,0
609,148,0,0,0,0,0,0,0,0,0,-1,1833,876,0,0
616,148,0,0,0,0,0,0,0,0,0,-1,1840,876,0,0
623,148,-0.00720215,0.253174,0.00111314,-0.0011462,-0.00256071,0.00278229,-0.00281535,-0.577661,0.00323182,0.0367371,1847,876,-0.00717106,-0.253173
630,148,-0.0134277,-0.00640869,0.000716222,-0.00140577,-0.0016722,0.00163562,-0.00232516,-0.5027,0.00229828,0.0350585,1854,876,-0.0134707,0.00642155
637,148,-0.0057373,-0.0264282,0.000398579,-0.00126116,-0.00104975,0.000906869,-0.00176945,-0.450927,0.00157169,0.0313839,1861,876,-0.00573621,0.0264019
644,148,-0.0125732,-0.0239258,0.000173078,-0.00105407,-0.000650895,0.000454008,-0.001335,-0.407453,0.00107382,0.0329971,1868,876,-0.0126032,0.0239199
651,148,-0.0266113,-0.0161743,8.50633e-06,-0.000818214,-0.000395664,0.000167349,-0.000977057,-0.381764,0.000713725,0.0328861,1875,876,-0.0266321,0.0161515
658,148,-0.0484619,0.045166,-6.50479e-05,-0.000591324,-0.000232503,2.29542e-05,-0.000679326,-0.361834,0.000460726,0.0283383,1882,876,-0.0485107,-0.0451454
665,148,-0.0688477,0.0824585,-8.61698e-05,-0.000346961,-0.000120688,-3.88897e-05,-0.000394242,-0.373377,0.000250871,0.0212605,1889,876,-0.0688745,-0.0824623
672,148,-0.0543213,0.0637207,-0.00018185,-0.000199886,-4.65133e-05,-0.000143489,-0.000238248,-0.689645,0.000138508,0.0232537,1896,876,-0.0543393,-0.0636988
679,148,-0.0266113,0.0300903,-0.00023868,-3.06908e-05,-5.38123e-06,-3.05517e-05,-0.000238819,-1.54495,0.000150069,0.0274354,1903,876,-0.0266463,-0.0300738
686,148,0.00598145,0.053894,-0.00019967,7.62612e-05,-1.05979e-05,7.66677e-05,-0.000200076,-1.53246,0.000164989,0.0214216,1910,876,0.00601265,-0.0538746
693,148,-0.0231934,0.0811768,-9.49986e-05,0.000146333,-3.61412e-05,0.000151629,-0.000100295,-1.42529,0.000146451,0.0172183,1917,876,-0.0232009,-0.0811647
700,148,-0.0380859,0.0549316,-8.3875e-05,0.000178227,-5.42103e-05,0.000188997,-9.46448e-05,-1.37468,0.000166753,0.0119664,1924,876,-0.0381246,-0.0549531
707,148,-0.0253906,0.0708618,-0.000179934,0.000194649,-0.000117374,0.000228389,-0.000213674,-1.29089,0.000255272,0.0107062,1931,876,-0.0253863,-0.0708441
714,148,-0.0280762,0.0669556,-8.36459e-05,0.000116381,-0.000138878,0.00018751,-0.000154775,-1.09746,0.000197919,0.0108888,1938,876,-0.0281345,-0.0669849
721,148,-0.052002,0.0495605,0.0001631,-0.000169907,9.29494e-05,0.000187288,-0.000194095,0.254575,0.000220203,0.0155907,1945,876,-0.0520077,-0.0495743
728,148,-0.0339355,0.0385132,9.18518e-05,-0.00141101,0.00061845,0.000313626,-0.00163279,0.344313,0.00120673,0.0178618,1952,876,-0.0339622,-0.0385166
735,148,-0.0187988,0.0704346,-9.88243e-06,-0.00275561,0.00157401,0.000705856,-0.00347135,0.426775,0.00258188,0.0158885,1959,876,-0.0188457,-0.0704417
742,148,-0.0115967,0.102173,0.000138673,-0.00449537,0.00280398,0.00145908,-0.00581578,0.440102,0.00444412,0.0178681,1966,876,-0.0116453,-0.102146
749,148,-0.0157471,0.0874023,0.000288591,-0.00632001,0.00413686,0.00227882,-0.00831024,0.44841,0.00643569,0.0146178,1973,876,-0.0157522,-0.0874053
756,148,-0.00976563,0.0615234,0.000484139,-0.00898418,0.00612819,0.00349381,-0.0119939,0.456518,0.00937997,0.0194062,1980,876,-0.00973091,-0.0615423
763,148,0.0543213,0.0283813,0.00077346,-0.0123251,0.00874667,0.0051511,-0.0167027,0.464041,0.0131918,0.0417937,1987,876,0.0543277,-0.0284074
770,148,0.105957,0.00195313,0,0,0,0,0,0,0,-1,1994,876,0.105979,-0.00194716
777,148,0.325562,-1.9256,0.00177542,-0.020934,0.0160634,0.0100921,-0.0292506,0.477738,0.0235952,0.0438242,2001,876,0.325578,1.92557
784,148,0.209839,-0.943237,0.00264356,-0.0259252,0.0207632,0.0135614,-0.0368431,0.484096,0.030118,0.0427649,2008,876,0.209866,0.943257
791,148,-0.216431,-0.377075,0.00390194,-0.0309009,0.0260823,0.0178549,-0.0448539,0.491222,0.0373067,0.0436993,2015,876,-0.216438,0.377067
798,148,0,0,0,0,0,0,0,0,0,-1,2022,876,0,0
805,148,0,0,0,0,0,0,0,0,0,-1,2029,876,0,0
812,148,0,0,0,0,0,0,0,0,0,-1,2036,876,0,0
-700,141,0,0,0,0,0,0,0,0,0,-1,524,883,0,0
-693,141,0,0,0,0,0,0,0,0,0,-1,531,883,0,0
-686,141,0,0,0,0,0,0,0,0,0,-1,538,883,0,0
-679,141,0,0,0,0,0,0,0,0,0,-1,545,883,0,0
-672,141,-0.674377,2.26074,0.0520171,-0.0672838,-0.0061539,0.0523336,-0.0676004,-0.0514012,0.0694307,0.0496163,552,883,-0.674397,-2.26075
-665,141,-0.460938,2.25922,0.0426047,-0.0457279,-0.00785565,0.0432979,-0.0464211,-0.0880122,0.0518097,0.0473526,559,883,-0.460928,-2.25923
-658,141,-0.113037,1.62274,0.0341219,-0.0304335,-0.00809213,0.0351208,-0.0314324,-0.12282,0.0384442,0.0490997,566,883,-0.113049,-1.62274
-651,141,0.177917,1.06073,0.0266492,-0.0195794,-0.00748998,0.0278325,-0.0207627,-0.156682,0.0281552,0.0415166,573,883,0.177892,-1.0607
-644,141,-0.0822144,-0.468079,0.0202541,-0.0120182,-0.00644195,0.0214925,-0.0132566,-0.189919,0.0202494,0.0433373,580,883,-0.0822072,0.468098
-637,141,-0.22168,-0.432312,0.0149413,-0.00693014,-0.00521752,0.0161222,-0.00811104,-0.222584,0.0142436,0.041006,587,883,-0.221651,0.432293
-630,141,-0.142334,-0.235474,0.0106149,-0.00361195,-0.00401222,0.0116684,-0.00466546,-0.256777,0.00971496,0.0370828,594,883,-0.142346,0.235495
-623,141,0.00604248,0.031189,0.00728814,-0.00163703,-0.00293627,0.0081675,-0.00251638,-0.29098,0.00644956,0.020417,601,883,0.00601469,-0.0311878
-616,141,-0.000183105,0.0626831,0.00470233,0.000128363,-0.00211625,0.00553125,-0.000700551,-0.373322,0.00394182,0.0109859,608,883,-0.000188316,-0.0626677
-609,141,-0.0268555,0.0561523,0.00247988,0.00159047,-0.00145339,0.00355508,0.000515274,-0.636933,0.00221833,0.011535,615,883,-0.0268715,-0.0561481
-602,141,-0.0315552,0.0463257,0.000886558,0.00207101,-0.000714893,0.00240712,0.00055045,-1.13131,0.00145636,0.0103966,622,883,-0.0315766,-0.046303
-595,141,-0.0327148,0.0494385,0.000267256,-0.00068232,-9.06146e-05,0.000275826,-0.000690889,-0.0942925,0.000575026,0.00965806,629,883,-0.0326908,-0.0494667
-588,141,-0.0368042,0.0622559,0.000250044,-0.000257292,-5.42735e-05,0.000255785,-0.000263033,-0.105389,0.000299549,0.0138207,636,883,-0.0368145,-0.0622775
-581,141,-0.0386353,0.0684814,0.00032804,-0.000121014,-0.000138164,0.000367144,-0.000160119,-0.275816,0.000312139,0.0184499,643,883,-0.0386268,-0.0684874
-574,141,-0.0529785,0.0901489,0.000372906,-0.000176738,-0.00027984,0.000490305,-0.000294137,-0.397222,0.000457594,0.0202707,650,883,-0.052967,-0.0901239
-567,141,-0.0623779,0.0578003,0.000493983,-0.000236684,-0.000415962,0.000682268,-0.000424969,-0.425055,0.000644991,0.0220353,657,883,-0.062391,-0.0578274
-560,141,-0.0665894,-0.0269775,0.000695523,-0.000311628,-0.000465563,0.000877759,-0.000493864,-0.373098,0.00080218,0.0263085,664,883,-0.066592,0.0269603
-553,141,-0.0452271,-0.0559692,0.000948146,-0.000392739,-0.00046506,0.00109365,-0.000538246,-0.30323,0.000960195,0.0364618,671,883,-0.0452161,0.0559919
-546,141,0.0143433,0.0817871,0.00125639,-0.000450723,-0.000515151,0.0013998,-0.000594131,-0.271507,0.00118211,0.0339853,678,883,0.0143161,-0.0817931
-539,141,0.0403442,0.106506,0.00157131,-0.00051437,-0.000551193,0.00170802,-0.000651076,-0.243113,0.00140685,0.0297082,685,883,0.040341,-0.106505
-532,141,-0.0332642,0.0443726,0.00194533,-0.000602673,-0.000536943,0.00205386,-0.000711201,-0.199434,0.00165796,0.0277138,692,883,-0.0332791,-0.0443778
-525,141,0.0189209,0.0361328,0.00232386,-0.000680082,-0.00049485,0.00240328,-0.0007595,-0.159133,0.00190647,0.0338769,699,883,0.0189253,-0.0361389
-518,141,0.0641479,-0.0560303,0.00268537,-0.000724876,-0.00042419,0.00273734,-0.000776848,-0.121912,0.00213157,0.0394088,706,883,0.0641608,0.0560512
-511,141,0.00201416,-0.0187988,0.00297981,-0.00071828,-0.000342283,0.00301123,-0.000749693,-0.0915207,0.0022985,0.0370177,713,883,0.00202492,0.018791
-504,141,-0.0317993,0.0939331,0.00301686,-0.000610604,-0.000332742,0.00304713,-0.000640873,-0.0907197,0.00227533,0.0387809,720,883,-0.0318172,-0.0939478
-497,141,0,0,0,0,0,0,0,0,0,-1,727,883,0,0
-490,141,0,0,0,0,0,0,0,0,0,-1,734,883,0,0
-483,141,0,0,0,0,0,0,0,0,0,-1,741,883,0,0
-476,141,0,0,0,0,0,0,0,0,0,-1,748,883,0,0
-469,141,0,0,0,0,0,0,0,0,0,-1,755,883,0,0
-462,141,0,0,0,0,0,0,0,0,0,-1,762,883,0,0
-455,141,0,0,0,0,0,0,0,0,0,-1,769,883,0,0
-448,141,0,0,0,0,0,0,0,0,0,-1,776,883,0,0
-441,141,0,0,0,0,0,0,0,0,0,-1,783,883,0,0
-434,141,0,0,0,0,0,0,0,0,0,-1,790,883,0,0
-427,141,0,0,0,0,0,0,0,0,0,-1,797,883,0,0
-420,141,0,0,0,0,0,0,0,0,0,-1,804,883,0,0
-413,141,0,0,0,0,0,0,0,0,0,-1,811,883,0,0
-406,141,0,0,0,0,0,0,0,0,0,-1,818,883,0,0
-399,141,0,0,0,0,0,0,0,0,0,-1,825,883,0,0
-392,141,0,0,0,0,0,0,0,0,0,-1,832,883,0,0
-385,141,0,0,0,0,0,0,0,0,0,-1,839,883,0,0
-378,141,0,0,0,0,0,0,0,0,0,-1,846,883,0,0
-371,141,0,0,0,0,0,0,0,0,0,-1,853,883,0,0
-364,141,0,0,0,0,0,0,0,0,0,-1,860,883,0,0
-357,141,0,0,0,0,0,0,0,0,0,-1,867,883,0,0
-350,141,0,0,0,0,0,0,0,0,0,-1,874,883,0,0
-343,141,0,0,0,0,0,0,0,0,0,-1,881,883,0,0
-336,141,0,0,0,0,0,0,0,0,0,-1,888,883,0,0
-329,141,0,0,0,0,0,0,0,0,0,-1,895,883,0,0
-322,141,0,0,0,0,0,0,0,0,0,-1,902,883,0,0
-315,141,0,0,0,0,0,0,0,0,0,-1,909,883,0,0
-308,141,0,0,0,0,0,0,0,0,0,-1,916,883,0,0
-301,141,0,0,0,0,0,0,0,0,0,-1,923,883,0,0
-294,141,0,0,0,0,0,0,0,0,0,-1,930,883,0,0
-287,141,0,0,0,0,0,0,0,0,0,-1,937,883,0,0
-280,141,0,0,0,0,0,0,0,0,0,-1,944,883,0,0
-273,141,0,0,0,0,0,0,0,0,0,-1,951,883,0,0
-266,141,0,0,0,0,0,0,0,0,0,-1,958,883,0,0
-259,141,0,0,0,0,0,0,0,0,0,-1,965,883,0,0
-252,141,0,0,0,0,0,0,0,0,0,-1,972,883,0,0
-245,141,0,0,0,0,0,0,0,0,0,-1,979,883,0,0
-238,141,0,0,0,0,0,0,0,0,0,-1,986,883,0,0
-231,141,0,0,0,0,0,0,0,0,0,-1,993,883,0,0
-224,141,0,0,0,0,0,0,0,0,0,-1,1000,883,0,0
-217,141,0,0,0,0,0,0,0,0,0,-1,1007,883,0,0
-210,141,0,0,0,0,0,0,0,0,0,-1,1014,883,0,0
-203,141,0,0,0,0,0,0,0,0,0,-1,1021,883,0,0
-196,141,0,0,0,0,0,0,0,0,0,-1,1028,883,0,0
-189,141,0,0,0,0,0,0,0,0,0,-1,1035,883,0,0
-182,141,0,0,0,0,0,0,0,0,0,-1,1042,883,0,0
-175,141,0,0,0,0,0,0,0,0,0,-1,1049,883,0,0
-168,141,0,0,0,0,0,0,0,0,0,-1,1056,883,0,0
-161,141,0,0,0,0,0,0,0,0,0,-1,1063,883,0,0
-154,141,0,0,0,0,0,0,0,0,0,-1,1070,883,0,0
-147,141,0,0,0,0,0,0,0,0,0,-1,1077,883,0,0
-140,141,0,0,0,0,0,0,0,0,0,-1,1084,883,0,0
-133,141,0,0,0,0,0,0,0,0,0,-1,1091,883,0,0
-126,141,0,0,0,0,0,0,0,0,0,-1,1098,883,0,0
-119,141,0,0,0,0,0,0,0,0,0,-1,1105,883,0,0
-112,141,0,0,0,0,0,0,0,0,0,-1,1112,883,0,0
-105,141,0,0,0,0,0,0,0,0,0,-1,1119,883,0,0
-98,141,0,0,0,0,0,0,0,0,0,-1,1126,883,0,0
-91,141,0,0,0,0,0,0,0,0,0,-1,1133,883,0,0
-84,141,0,0,0,0,0,0,0,0,0,-1,1140,883,0,0
-77,141,0,0,0,0,0,0,0,0,0,-1,1147,883,0,0
-70,141,0,0,0,0,0,0,0,0,0,-1,1154,883,0,0
-63,141,0,0,0,0,0,0,0,0,0,-1,1161,883,0,0
-56,141,0,0,0,0,0,0,0,0,0,-1,1168,883,0,0
-49,141,0,0,0,0,0,0,0,0,0,-1,1175,883,0,0
-42,141,0,0,0,0,0,0,0,0,0,-1,1182,883,0,0
-35,141,0,0,0,0,0,0,0,0,0,-1,1189,883,0,0
-28,141,0,0,0,0,0,0,0,0,0,-1,1196,883,0,0
-21,141,0,0,0,0,0,0,0,0,0,-1,1203,883,0,0
-14,141,0,0,0,0,0,0,0,0,0,-1,1210,883,0,0
-7,141,0,0,0,0,0,0,0,0,0,-1,1217,883,0,0
0,141,0,0,0,0,0,0,0,0,0,-1,1224,883,0,0
7,141,0,0,0,0,0,0,0,0,0,-1,1231,883,0,0
14,141,0,0,0,0,0,0,0,0,0,-1,1238,883,0,0
21,141,0,0,0,0,0,0,0,0,0,-1,1245,883,0,0
28,141,0,0,0,0,0,0,0,0,0,-1,1252,883,0,0
35,141,0,0,0,0,0,0,0,0,0,-1,1259,883,0,0
42,141,0,0,0,0,0,0,0,0,0,-1,1266,883,0,0
49,141,0,0,0,0,0,0,0,0,0,-1,1273,883,0,0
56,141,0,0,0,0,0,0,0,0,0,-1,1280,883,0,0
63,141,0,0,0,0,0,0,0,0,0,-1,1287,883,0,0
70,141,0,0,0,0,0,0,0,0,0,-1,1294,883,0,0
77,141,0,0,0,0,0,0,0,0,0,-1,1301,883,0,0
84,141,0,0,0,0,0,0,0,0,0,-1,1308,883,0,0
91,141,0,0,0,0,0,0,0,0,0,-1,1315,883,0,0
98,141,0,0,0,0,0,0,0,0,0,-1,1322,883,0,0
105,141,0,0,0,0,0,0,0,0,0,-1,1329,883,0,0
112,141,0,0,0,0,0,0,0,0,0,-1,1336,883,0,0
119,141,0,0,0,0,0,0,0,0,0,-1,1343,883,0,0
126,141,0,0,0,0,0,0,0,0,0,-1,1350,883,0,0
133,141,0,0,0,0,0,0,0,0,0,-1,1357,883,0,0
140,141,0,0,0,0,0,0,0,0,0,-1,1364,883,0,0
147,141,0,0,0,0,0,0,0,0,0,-1,1371,883,0,0
154,141,0,0,0,0,0,0,0,0,0,-1,1378,883,0,0
161,141,0,0,0,0,0,0,0,0,0,-1,1385,883,0,0
168,141,0,0,0,0,0,0,0,0,0,-1,1392,883,0,0
175,141,0,0,0,0,0,0,0,0,0,-1,1399,883,0,0
182,141,0,0,0,0,0,0,0,0,0,-1,1406,883,0,0
189,141,0,0,0,0,0,0,0,0,0,-1,1413,883,0,0
196,141,0,0,0,0,0,0,0,0,0,-1,1420,883,0,0
203,141,0,0,0,0,0,0,0,0,0,-1,1427,883,0,0
210,141,0,0,0,0,0,0,0,0,0,-1,1434,883,0,0
217,141,0,0,0,0,0,0,0,0,0,-1,1441,883,0,0
224,141,0,0,0,0,0,0,0,0,0,-1,1448,883,0,0
231,141,0,0,0,0,0,0,0,0,0,-1,1455,883,0,0
238,141,0,0,0,0,0,0,0,0,0,-1,1462,883,0,0
245,141,0,0,0,0,0,0,0,0,0,-1,1469,883,0,0
252,141,0,0,0,0,0,0,0,0,0,-1,1476,883,0,0
259,141,0,0,0,0,0,0,0,0,0,-1,1483,883,0,0
266,141,0,0,0,0,0,0,0,0,0,-1,1490,883,0,0
273,141,0,0,0,0,0,0,0,0,0,-1,1497,883,0,0
280,141,0,0,0,0,0,0,0,0,0,-1,1504,883,0,0
287,141,0,0,0,0,0,0,0,0,0,-1,1511,883,0,0
294,141,0,0,0,0,0,0,0,0,0,-1,1518,883,0,0
301,141,0,0,0,0,0,0,0,0,0,-1,1525,883,0,0
308,141,0,0,0,0,0,0,0,0,0,-1,1532,883,0,0
315,141,0,0,0,0,0,0,0,0,0,-1,1539,883,0,0
322,141,0,0,0,0,0,0,0,0,0,-1,1546,883,0,0
329,141,0,0,0,0,0,0,0,0,0,-1,1553,883,0,0
336,141,0,0,0,0,0,0,0,0,0,-1,1560,883,0,0
343,141,0,0,0,0,0,0,0,0,0,-1,1567,883,0,0
350,141,0,0,0,0,0,0,0,0,0,-1,1574,883,0,0
357,141,0,0,0,0,0,0,0,0,0,-1,1581,883,0,0
364,141,0,0,0,0,0,0,0,0,0,-1,1588,883,0,0
371,141,0,0,0,0,0,0,0,0,0,-1,1595,883,0,0
378,141,0,0,0,0,0,0,0,0,0,-1,1602,883,0,0
385,141,0,0,0,0,0,0,0,0,0,-1,1609,883,0,0
392,141,0,0,0,0,0,0,0,0,0,-1,1616,883,0,0
399,141,0,0,0,0,0,0,0,0,0,-1,1623,883,0,0
406,141,0,0,0,0,0,0,0,0,0,-1,1630,883,0,0
413,141,0,0,0,0,0,0,0,0,0,-1,1637,883,0,0
420,141,0,0,0,0,0,0,0,0,0,-1,1644,883,0,0
427,141,0,0,0,0,0,0,0,0,0,-1,1651,883,0,0
434,141,0,0,0,0,0,0,0,0,0,-1,1658,883,0,0
441,141,0,0,0,0,0,0,0,0,0,-1,1665,883,0,0
448,141,0,0,0,0,0,0,0,0,0,-1,1672,883,0,0
455,141,0,0,0,0,0,0,0,0,0,-1,1679,883,0,0
462,141,0,0,0,0,0,0,0,0,0,-1,1686,883,0,0
469,141,0,0,0,0,0,0,0,0,0,-1,1693,883,0,0
476,141,0,0,0,0,0,0,0,0,0,-1,1700,883,0,0
483,141,0,0,0,0,0,0,0,0,0,-1,1707,883,0,0
490,141,0,0,0,0,0,0,0,0,0,-1,1714,883,0,0
497,141,0,0,0,0,0,0,0,0,0,-1,1721,883,0,0
504,141,0,0,0,0,0,0,0,0,0,-1,1728,883,0,0
511,141,0,0,0,0,0,0,0,0,0,-1,1735,883,0,0
518,141,0,0,0,0,0,0,0,0,0,-1,1742,883,0,0
525,141,0,0,0,0,0,0,0,0,0,-1,1749,883,0,0
532,141,0,0,0,0,0,0,0,0,0,-1,1756,883,0,0
539,141,0,0,0,0,0,0,0,0,0,-1,1763,883,0,0
546,141,0,0,0,0,0,0,0,0,0,-1,1770,883,0,0
553,141,0,0,0,0,0,0,0,0,0,-1,1777,883,0,0
560,141,0,0,0,0,0,0,0,0,0,-1,1784,883,0,0
567,141,0,0,0,0,0,0,0,0,0,-1,1791,883,0,0
574,141,0,0,0,0,0,0,0,0,0,-1,1798,883,0,0
581,141,0,0,0,0,0,0,0,0,0,-1,1805,883,0,0
588,141,0,0,0,0,0,0,0,0,0,-1,1812,883,0,0
595,141,0,0,0,0,0,0,0,0,0,-1,1819,883,0,0
602,141,0,0,0,0,0,0,0,0,0,-1,1826,883,0,0
609,141,0,0,0,0,0,0,0,0,0,-1,1833,883,0,0
616,141,0,0,0,0,0,0,0,0,0,-1,1840,883,0,0
623,141,-0.0393066,0.136047,0.00135477,-0.00138744,-0.00280868,0.00310914,-0.00314182,-0.55833,0.00360901,0.0383016,1847,883,-0.0392968,-0.136032
630,141,-0.00610352,-0.0548706,0.000797926,-0.00158868,-0.00185798,0.00181281,-0.00260356,-0.499942,0.00256338,0.0373742,1854,883,-0.00613781,0.0548451
637,141,0.0477295,-0.00415039,0.000421823,-0.00134103,-0.00122389,0.00104865,-0.00196786,-0.473326,0.00176833,0.0361369,1861,883,0.0477135,0.00415235
644,141,-0.0174561,0.0844727,0.000190726,-0.00104677,-0.000824991,0.000603219,-0.00145926,-0.463646,0.00122449,0.0361501,1868,883,-0.017511,-0.0844696
651,141,0.0111084,0.0178833,2.70259e-05,-0.000747613,-0.000568079,0.00032726,-0.00104785,-0.486193,0.000829458,0.0357455,1875,883,0.0111242,-0.01787
658,141,0.0632324,6.10352e-05,-5.5041e-05,-0.000477357,-0.000398695,0.000184961,-0.000717359,-0.541866,0.000550353,0.0336322,1882,883,0.0632082,-7.6605e-05
665,141,-0.0345459,0.0822754,-8.1826e-05,-0.000218354,-0.000279337,0.000137467,-0.000437648,-0.665558,0.000346792,0.0228117,1889,883,-0.0344927,-0.082282
672,141,-0.036377,0.0736084,-0.000157574,-6.38516e-05,-0.000194685,8.9533e-05,-0.000310958,-0.903502,0.000242718,0.0139604,1896,883,-0.0363497,-0.0735836
679,141,-0.020752,0.0310059,-0.000193387,9.38039e-05,-0.000136713,0.000148476,-0.000248059,-1.19037,0.000231333,0.0125619,1903,883,-0.0207684,-0.0309877
686,141,0.0202637,-0.00518799,-0.000157602,0.000182985,-0.000113442,0.00021731,-0.000191928,-1.27697,0.000236425,0.0258978,1910,883,0.0202478,0.00518726
693,141,-0.0289307,0.0377197,-8.04878e-05,0.000240076,-0.000120449,0.000280289,-0.000120701,-1.24857,0.000237545,0.0246642,1917,883,-0.0289712,-0.0376915
700,141,-0.0494385,0.0606689,-6.30458e-05,0.000265047,-0.000123338,0.00030624,-0.000104239,-1.24846,0.00024637,0.0124335,1924,883,-0.0494477,-0.0606934
707,141,-0.0321045,0.0488892,-9.52938e-05,0.000274569,-0.000169479,0.000340482,-0.000161207,-1.19988,0.00029575,0.0111585,1931,883,-0.0320852,-0.0489117
714,141,-0.0307617,0.0390015,5.09308e-05,0.000200665,-0.000209552,0.000348323,-9.67268e-05,-0.956967,0.00027029,0.0117471,1938,883,-0.0307933,-0.038985
721,141,-0.0321045,0.0281982,0.000296188,2.1998e-05,-8.24864e-05,0.00031909,-9.04096e-07,-0.270825,0.000213028,0.0115524,1945,883,-0.0320947,-0.0281891
728,141,-0.0413818,0.0250854,0.000155264,-0.00114949,0.000372627,0.000254184,-0.00124841,0.259481,0.000928669,0.0129959,1952,883,-0.0414361,-0.0250814
735,141,-0.0415039,0.0612793,1.23364e-05,-0.00239373,0.00121721,0.000520705,-0.0029021,0.395629,0.00212962,0.0122422,1959,883,-0.0415152,-0.0612757
742,141,-0.0408936,0.0874634,0.000183413,-0.00396243,0.00227315,0.00118689,-0.00496591,0.415718,0.00376905,0.0137968,1966,883,-0.0408941,-0.0874637
749,141,-0.0407715,0.0699463,0.000367637,-0.00552216,0.00332215,0.00186223,-0.00701675,0.42276,0.00540656,0.0124633,1973,883,-0.040796,-0.0699567
756,141,-0.0302734,0.0663452,0.000530548,-0.00787239,0.00496207,0.00283096,-0.0101728,0.434106,0.00789653,0.0189568,1980,883,-0.0303057,-0.0663264
763,141,0.0180664,-0.00604248,0.000770431,-0.010808,0.00711968,0.00415753,-0.0141951,0.44405,0.0111116,0.0421132,1987,883,0.018083,0.00606893
770,141,0.0463867,-0.0893555,0,0,0,0,0,0,0,-1,1994,883,0.0463663,0.0893704
777,141,0.559204,-0.447327,0.00167067,-0.0182826,0.0131046,0.00816415,-0.0247761,0.460049,0.0198078,0.0438044,2001,883,0.559149,0.447324
784,141,-0.0701904,-0.561829,0.00251489,-0.0225205,0.0168803,0.0110123,-0.031018,0.46636,0.0251658,0.0430955,2008,883,-0.0702142,0.561808
791,141,0.0628662,-0.00360107,0.00380583,-0.0265975,0.0210497,0.0145692,-0.0373609,0.47267,0.0309294,0.0414068,2015,883,0.0629261,0.00358405
798,141,0,0,0,0,0,0,0,0,0,-1,2022,883,0,0
805,141,0,0,0,0,0,0,0,0,0,-1,2029,883,0,0
812,141,0,0,0,0,0,0,0,0,0,-1,2036,883,0,0
-700,134,0,0,0,0,0,0,0,0,0,-1,524,890,0,0
-693,134,0,0,0,0,0,0,0,0,0,-1,531,890,0,0
-686,134,0,0,0,0,0,0,0,0,0,-1,538,890,0,0
-679,134,0,0,0,0,0,0,0,0,0,-1,545,890,0,0
-672,134,-0.759888,3.27618,0,0,0,0,0,0,0,-1,552,890,-0.759905,-3.27616
-665,134,-0.663086,3.23456,0.0418311,-0.0423896,-0.00827821,0.0426371,-0.0431956,-0.0970542,0.0495558,0.0499363,559,890,-0.663079,-3.23458
-658,134,-0.766113,3.40479,0.0337662,-0.0272689,-0.00859017,0.0349522,-0.0284548,-0.137192,0.036672,0.0451647,566,890,-0.766085,-3.40477
-651,134,-0.818054,3.5387,0,0,0,0,0,0,0,-1,573,890,-0.818082,-3.53868
-644,134,0.0911255,-0.010376,0.0202246,-0.00955006,-0.0069104,0.0217503,-0.0110757,-0.217292,0.0192832,0.0410465,580,890,0.0911249,0.0103949
-637,134,0.0281372,0.27301,0.0149422,-0.00490118,-0.00561566,0.0164212,-0.00638017,-0.257521,0.0135832,0.0410966,587,890,0.0281119,-0.273032
-630,134,-0.0227661,0.0656128,0.0106105,-0.00188266,-0.00431584,0.0119564,-0.0032286,-0.302301,0.00923716,0.0347958,594,890,-0.0227791,-0.0655904
-623,134,0.00134277,0.053894,0.00723918,-0.000286763,-0.00321363,0.00842468,-0.00147226,-0.35341,0.00616608,0.0186693,601,890,0.00135017,-0.0538673
-616,134,-0.0203247,0.0635376,0.00458248,0.00114016,-0.00234857,0.00577304,-5.04074e-05,-0.469179,0.00386561,0.010303,608,890,-0.0202992,-0.0635653
-609,134,-0.0270996,0.0594482,0.00236239,0.00230194,-0.00157933,0.00391179,0.000752544,-0.775831,0.00239672,0.0102259,615,890,-0.0270755,-0.059443
-602,134,-0.0324707,0.0502319,0.00079372,0.00252128,-0.000721138,0.00278273,0.000532264,-1.22298,0.00170564,0.0113372,622,890,-0.0324748,-0.0502275
-595,134,-0.0320435,0.0546875,0.000201162,-0.000700296,-5.67111e-05,0.000204716,-0.000703849,-0.0625816,0.000550314,0.0109218,629,890,-0.0320577,-0.0546717
-588,134,-0.0298462,0.067627,0.000150952,-0.000296392,4.80039e-06,0.000151004,-0.000296444,0.0107292,0.000262843,0.0168669,636,890,-0.0298507,-0.067637
-581,134,-0.0427246,0.0665283,0.000234458,-0.000226445,-8.15235e-05,0.000248453,-0.00024044,-0.170008,0.000282275,0.0205017,643,890,-0.0427249,-0.0665441
-574,134,-0.0336914,0.06604,0.000314277,-0.000293106,-0.000219254,0.000385153,-0.000363983,-0.312657,0.000432571,0.0194943,650,890,-0.0337218,-0.0660413
-567,134,-0.0443115,0.06427,0.000477484,-0.000369109,-0.000359911,0.00060981,-0.000501435,-0.352321,0.000642593,0.018129,657,890,-0.0443269,-0.0642847
-560,134,-0.071106,-0.00140381,0.00070952,-0.000464652,-0.000416768,0.00084241,-0.000597542,-0.308667,0.000835354,0.0272844,664,890,-0.0710883,0.00140218
-553,134,-0.0650635,-0.0227661,0.000982334,-0.000564579,-0.000429661,0.00109366,-0.000675907,-0.253531,0.00103111,0.0384086,671,890,-0.0650645,0.022756
-546,134,0.00811768,0.0946655,0.00130403,-0.000642239,-0.00049203,0.00142135,-0.000759556,-0.234064,0.00127832,0.026634,678,890,0.00809398,-0.0946871
-539,134,0.0112915,0.072998,0.00165451,-0.000724424,-0.000540313,0.00177147,-0.000841391,-0.213191,0.00154007,0.018986,685,890,0.0113196,-0.0730248
-532,134,-0.0231323,0.041748,0.0020722,-0.000805789,-0.000556575,0.00217608,-0.000909676,-0.18453,0.00183089,0.0235765,692,890,-0.0231571,-0.0417565
-525,134,0.0149536,0.0321655,0.00251215,-0.000857883,-0.00055391,0.00260086,-0.00094659,-0.158799,0.00212105,0.0349937,699,890,0.0149703,-0.0321788
-518,134,0.133301,-0.0227661,0.00296513,-0.000860878,-0.00052084,0.00303477,-0.000930513,-0.13291,0.0023944,0.0416385,706,890,0.133286,0.0227538
-511,134,0.10437,0.0467529,0.00338268,-0.000803202,-0.000465662,0.00343385,-0.00085438,-0.109463,0.00262087,0.0437894,713,890,0.104346,-0.046748
-504,134,0,0,0,0,0,0,0,0,0,-1,720,890,0,0
-497,134,0,0,0,0,0,0,0,0,0,-1,727,890,0,0
-490,134,0,0,0,0,0,0,0,0,0,-1,734,890,0,0
-483,134,0,0,0,0,0,0,0,0,0,-1,741,890,0,0
-476,134,0,0,0,0,0,0,0,0,0,-1,748,890,0,0
-469,134,0,0,0,0,0,0,0,0,0,-1,755,890,0,0
-462,134,0,0,0,0,0,0,0,0,0,-1,762,890,0,0
-455,134,0,0,0,0,0,0,0,0,0,-1,769,890,0,0
-448,134,0,0,0,0,0,0,0,0,0,-1,776,890,0,0
-441,134,0,0,0,0,0,0,0,0,0,-1,783,890,0,0
-434,134,0,0,0,0,0,0,0,0,0,-1,790,890,0,0
-427,134,0,0,0,0,0,0,0,0,0,-1,797,890,0,0
-420,134,0,0,0,0,0,0,0,0,0,-1,804,890,0,0
-413,134,0,0,0,0,0,0,0,0,0,-1,811,890,0,0
-406,134,0,0,0,0,0,0,0,0,0,-1,818,890,0,0
-399,134,0,0,0,0,0,0,0,0,0,-1,825,890,0,0
-392,134,0,0,0,0,0,0,0,0,0,-1,832,890,0,0
-385,134,0,0,0,0,0,0,0,0,0,-1,839,890,0,0
-378,134,0,0,0,0,0,0,0,0,0,-1,846,890,0,0
-371,134,0,0,0,0,0,0,0,0,0,-1,853,890,0,0
-364,134,0,0,0,0,0,0,0,0,0,-1,860,890,0,0
-357,134,0,0,0,0,0,0,0,0,0,-1,867,890,0,0
-350,134,0,0,0,0,0,0,0,0,0,-1,874,890,0,0
-343,134,0,0,0,0,0,0,0,0,0,-1,881,890,0,0
-336,134,0,0,0,0,0,0,0,0,0,-1,888,890,0,0
-329,134,0,0,0,0,0,0,0,0,0,-1,895,890,0,0
-322,134,0,0,0,0,0,0,0,0,0,-1,902,890,0,0
-315,134,0,0,0,0,0,0,0,0,0,-1,909,890,0,0
-308,134,0,0,0,0,0,0,0,0,0,-1,916,890,0,0
-301,134,0,0,0,0,0,0,0,0,0,-1,923,890,0,0
-294,134,0,0,0,0,0,0,0,0,0,-1,930,890,0,0
-287,134,0,0,0,0,0,0,0,0,0,-1,937,890,0,0
-280,134,0,0,0,0,0,0,0,0,0,-1,944,890,0,0
-273,134,0,0,0,0,0,0,0,0,0,-1,951,890,0,0
-266,134,0,0,0,0,0,0,0,0,0,-1,958,890,0,0
-259,134,0,0,0,0,0,0,0,0,0,-1,965,890,0,0
-252,134,0,0,0,0,0,0,0,0,0,-1,972,890,0,0
-245,134,0,0,0,0,0,0,0,0,0,-1,979,890,0,0
-238,134,0,0,0,0,0,0,0,0,0,-1,986,890,0,0
-231,134,0,0,0,0,0,0,0,0,0,-1,993,890,0,0
-224,134,0,0,0,0,0,0,0,0,0,-1,1000,890,0,0
-217,134,0,0,0,0,0,0,0,0,0,-1,1007,890,0,0
-210,134,0,0,0,0,0,0,0,0,0,-1,1014,890,0,0
-203,134,0,0,0,0,0,0,0,0,0,-1,1021,890,0,0
-196,134,0,0,0,0,0,0,0,0,0,-1,1028,890,0,0
-189,134,0,0,0,0,0,0,0,0,0,-1,1035,890,0,0
-182,134,0,0,0,0,0,0,0,0,0,-1,1042,890,0,0
-175,134,0,0,0,0,0,0,0,0,0,-1,1049,890,0,0
-168,134,0,0,0,0,0,0,0,0,0,-1,1056,890,0,0
-161,134,0,0,0,0,0,0,0,0,0,-1,1063,890,0,0
-154,134,0,0,0,0,0,0,0,0,0,-1,1070,890,0,0
-147,134,0,0,0,0,0,0,0,0,0,-1,1077,890,0,0
-140,134,0,0,0,0,0,0,0,0,0,-1,1084,890,0,0
-133,134,0,0,0,0,0,0,0,0,0,-1,1091,890,0,0
-126,134,0,0,0,0,0,0,0,0,0,-1,1098,890,0,0
-119,134,0,0,0,0,0,0,0,0,0,-1,1105,890,0,0
-112,134,0,0,0,0,0,0,0,0,0,-1,1112,890,0,0
-105,134,0,0,0,0,0,0,0,0,0,-1,1119,890,0,0
-98,134,0,0,0,0,0,0,0,0,0,-1,1126,890,0,0
-91,134,0,0,0,0,0,0,0,0,0,-1,1133,890,0,0
-84,134,0,0,0,0,0,0,0,0,0,-1,1140,890,0,0
-77,134,0,0,0,0,0,0,0,0,0,-1,1147,890,0,0
-70,134,0,0,0,0,0,0,0,0,0,-1,1154,890,0,0
-63,134,0,0,0,0,0,0,0,0,0,-1,1161,890,0,0
-56,134,0,0,0,0,0,0,0,0,0,-1,1168,890,0,0
-49,134,0,0,0,0,0,0,0,0,0,-1,1175,890,0,0
-42,134,0,0,0,0,0,0,0,0,0,-1,1182,890,0,0
-35,134,0,0,0,0,0,0,0,0,0,-1,1189,890,0,0
-28,134,0,0,0,0,0,0,0,0,0,-1,1196,890,0,0
-21,134,0,0,0,0,0,0,0,0,0,-1,1203,890,0,0
-14,134,0,0,0,0,0,0,0,0,0,-1,1210,890,0,0
-7,134,0,0,0,0,0,0,0,0,0,-1,1217,890,0,0
0,134,0,0,0,0,0,0,0,0,0,-1,1224,890,0,0
7,134,0,0,0,0,0,0,0,0,0,-1,1231,890,0,0
14,134,0,0,0,0,0,0,0,0,0,-1,1238,890,0,0
21,134,0,0,0,0,0,0,0,0,0,-1,1245,890,0,0
28,134,0,0,0,0,0,0,0,0,0,-1,1252,890,0,0
35,134,0,0,0,0,0,0,0,0,0,-1,1259,890,0,0
42,134,0,0,0,0,0,0,0,0,0,-1,1266,890,0,0
49,134,0,0,0,0,0,0,0,0,0,-1,1273,890,0,0
56,134,0,0,0,0,0,0,0,0,0,-1,1280,890,0,0
63,134,0,0,0,0,0,0,0,0,0,-1,1287,890,0,0
70,134,0,0,0,0,0,0,0,0,0,-1,1294,890,0,0
77,134,0,0,0,0,0,0,0,0,0,-1,1301,890,0,0
84,134,0,0,0,0,0,0,0,0,0,-1,1308,890,0,0
91,134,0,0,0,0,0,0,0,0,0,-1,1315,890,0,0
98,134,0,0,0,0,0,0,0,0,0,-1,1322,890,0,0
105,134,0,0,0,0,0,0,0,0,0,-1,1329,890,0,0
112,134,0,0,0,0,0,0,0,0,0,-1,1336,890,0,0
119,134,0,0,0,0,0,0,0,0,0,-1,1343,890,0,0
126,134,0,0,0,0,0,0,0,0,0,-1,1350,890,0,0
133,134,0,0,0,0,0,0,0,0,0,-1,1357,890,0,0
140,134,0,0,0,0,0,0,0,0,0,-1,1364,890,0,0
147,134,0,0,0,0,0,0,0,0,0,-1,1371,890,0,0
154,134,0,0,0,0,0,0,0,0,0,-1,1378,890,0,0
161,134,0,0,0,0,0,0,0,0,0,-1,1385,890,0,0
168,134,0,0,0,0,0,0,0,0,0,-1,1392,890,0,0
175,134,0,0,0,0,0,0,0,0,0,-1,1399,890,0,0
182,134,0,0,0,0,0,0,0,0,0,-1,1406,890,0,0
189,134,0,0,0,0,0,0,0,0,0,-1,1413,890,0,0
196,134,0,0,0,0,0,0,0,0,0,-1,1420,890,0,0
203,134,0,0,0,0,0,0,0,0,0,-1,1427,890,0,0
210,134,0,0,0,0,0,0,0,0,0,-1,1434,890,0,0
217,134,0,0,0,0,0,0,0,0,0,-1,1441,890,0,0
224,134,0,0,0,0,0,0,0,0,0,-1,1448,890,0,0
231,134,0,0,0,0,0,0,0,0,0,-1,1455,890,0,0
238,134,0,0,0,0,0,0,0,0,0,-1,1462,890,0,0
245,134,0,0,0,0,0,0,0,0,0,-1,1469,890,0,0
252,134,0,0,0,0,0,0,0,0,0,-1,1476,890,0,0
259,134,0,0,0,0,0,0,0,0,0,-1,1483,890,0,0
266,134,0,0,0,0,0,0,0,0,0,-1,1490,890,0,0
273,134,0,0,0,0,0,0,0,0,0,-1,1497,890,0,0
280,134,0,0,0,0,0,0,0,0,0,-1,1504,890,0,0
287,134,0,0,0,0,0,0,0,0,0,-1,1511,890,0,0
294,134,0,0,0,0,0,0,0,0,0,-1,1518,890,0,0
301,134,0,0,0,0,0,0,0,0,0,-1,1525,890,0,0
308,134,0,0,0,0,0,0,0,0,0,-1,1532,890,0,0
315,134,0,0,0,0,0,0,0,0,0,-1,1539,890,0,0
322,134,0,0,0,0,0,0,0,0,0,-1,1546,890,0,0
329,134,0,0,0,0,0,0,0,0,0,-1,1553,890,0,0
336,134,0,0,0,0,0,0,0,0,0,-1,1560,890,0,0
343,134,0,0,0,0,0,0,0,0,0,-1,1567,890,0,0
350,134,0,0,0,0,0,0,0,0,0,-1,1574,890,0,0
357,134,0,0,0,0,0,0,0,0,0,-1,1581,890,0,0
364,134,0,0,0,0,0,0,0,0,0,-1,1588,890,0,0
371,134,0,0,0,0,0,0,0,0,0,-1,1595,890,0,0
378,134,0,0,0,0,0,0,0,0,0,-1,1602,890,0,0
385,134,0,0,0,0,0,0,0,0,0,-1,1609,890,0,0
392,134,0,0,0,0,0,0,0,0,0,-1,1616,890,0,0
399,134,0,0,0,0,0,0,0,0,0,-1,1623,890,0,0
406,134,0,0,0,0,0,0,0,0,0,-1,1630,890,0,0
413,134,0,0,0,0,0,0,0,0,0,-1,1637,890,0,0
420,134,0,0,0,0,0,0,0,0,0,-1,1644,890,0,0
427,134,0,0,0,0,0,0,0,0,0,-1,1651,890,0,0
434,134,0,0,0,0,0,0,0,0,0,-1,1658,890,0,0
441,134,0,0,0,0,0,0,0,0,0,-1,1665,890,0,0
448,134,0,0,0,0,0,0,0,0,0,-1,1672,890,0,0
455,134,0,0,0,0,0,0,0,0,0,-1,1679,890,0,0
462,134,0,0,0,0,0,0,0,0,0,-1,1686,890,0,0
469,134,0,0,0,0,0,0,0,0,0,-1,1693,890,0,0
476,134,0,0,0,0,0,0,0,0,0,-1,1700,890,0,0
483,134,0,0,0,0,0,0,0,0,0,-1,1707,890,0,0
490,134,0,0,0,0,0,0,0,0,0,-1,1714,890,0,0
497,134,0,0,0,0,0,0,0,0,0,-1,1721,890,0,0
504,134,0,0,0,0,0,0,0,0,0,-1,1728,890,0,0
511,134,0,0,0,0,0,0,0,0,0,-1,1735,890,0,0
518,134,0,0,0,0,0,0,0,0,0,-1,1742,890,0,0
525,134,0,0,0,0,0,0,0,0,0,-1,1749,890,0,0
532,134,0,0,0,0,0,0,0,0,0,-1,1756,890,0,0
539,134,0,0,0,0,0,0,0,0,0,-1,1763,890,0,0
546,134,0,0,0,0,0,0,0,0,0,-1,1770,890,0,0
553,134,0,0,0,0,0,0,0,0,0,-1,1777,890,0,0
560,134,0,0,0,0,0,0,0,0,0,-1,1784,890,0,0
567,134,0,0,0,0,0,0,0,0,0,-1,1791,890,0,0
574,134,0,0,0,0,0,0,0,0,0,-1,1798,890,0,0
581,134,0,0,0,0,0,0,0,0,0,-1,1805,890,0,0
588,134,0,0,0,0,0,0,0,0,0,-1,1812,890,0,0
595,134,0,0,0,0,0,0,0,0,0,-1,1819,890,0,0
602,134,0,0,0,0,0,0,0,0,0,-1,1826,890,0,0
609,134,0,0,0,0,0,0,0,0,0,-1,1833,890,0,0
616,134,0,0,0,0,0,0,0,0,0,-1,1840,890,0,0
623,134,-0.0759277,0.0852661,0.00147823,-0.000654405,-0.00312974,0.00371832,-0.00289449,-0.621213,0.00382777,0.0377297,1847,890,-0.0759112,-0.085293
630,134,-0.0803223,0.100891,0.000773333,-0.00102954,-0.00209763,0.00215502,-0.00241123,-0.582459,0.00263771,0.0378404,1854,890,-0.080289,-0.100883
637,134,-0.0258789,0.263977,0.000369966,-0.000922946,-0.00143345,0.00129599,-0.00184896,-0.573564,0.00182507,0.03834,1861,890,-0.0258693,-0.263952
644,134,-0.0197754,0.262817,0.000157114,-0.000743219,-0.00100338,0.000806682,-0.00139279,-0.574532,0.0012848,0.0363228,1868,890,-0.019782,-0.262801
651,134,0.0411377,0.0430908,9.40157e-06,-0.000537129,-0.000712471,0.000499215,-0.00102694,-0.602277,0.000898516,0.0372771,1875,890,0.0411705,-0.0431039
658,134,0.105835,-0.0369873,-7.29409e-05,-0.00033437,-0.000512676,0.000325422,-0.000732733,-0.660575,0.000625831,0.0354001,1882,890,0.105883,0.0369995
665,134,0.0288086,0.0563354,-9.90124e-05,-0.000140023,-0.000367276,0.00024833,-0.000487365,-0.757512,0.000432162,0.0246282,1889,890,0.0287963,-0.0563171
672,134,-0.00537109,0.0631714,-0.000149248,-2.36572e-05,-0.000261189,0.000182179,-0.000355084,-0.90337,0.000315498,0.0150256,1896,890,-0.00536567,-0.0631901
679,134,-0.0200195,0.0404663,-0.000163976,0.000102706,-0.000184698,0.000197166,-0.000258436,-1.09805,0.000263834,0.0104099,1903,890,-0.020068,-0.0404386
686,134,0.0344238,-0.015564,-0.0001322,0.000175429,-0.000134849,0.000226171,-0.000182942,-1.2109,0.00023664,0.0261989,1910,890,0.0343872,0.0155851
693,134,-0.0306396,0.0507202,-7.46589e-05,0.000230044,-0.000126496,0.000275713,-0.000120328,-1.22433,0.000234447,0.0179329,1917,890,-0.0306784,-0.0507446
700,134,-0.0263672,0.0568237,-4.54925e-05,0.000249665,-0.000116612,0.000290176,-8.60037e-05,-1.23644,0.000227601,0.0150486,1924,890,-0.0263365,-0.0568196
707,134,-0.0114746,0.055603,-2.79644e-05,0.000245445,-0.000137633,0.000302728,-8.52468e-05,-1.17641,0.000235436,0.0140112,1931,890,-0.011501,-0.0556242
714,134,-0.0249023,0.0366211,0.000133752,0.000166683,-0.000167119,0.000318146,-1.77104e-05,-0.834502,0.00021824,0.0132172,1938,890,-0.0248517,-0.0366444
721,134,-0.029541,0.0230713,0.000339594,-8.02036e-06,-5.01832e-05,0.000346693,-1.51201e-05,-0.140543,0.00023633,0.0130159,1945,890,-0.0295302,-0.0230571
728,134,-0.0354004,0.0202637,0.000119676,-0.00112735,0.00040314,0.000238652,-0.00124633,0.286977,0.000920804,0.0137372,1952,890,-0.0353983,-0.0202808
735,134,-0.0528564,0.0314331,-7.27488e-05,-0.00226641,0.0012117,0.000464818,-0.00280398,0.417558,0.00204197,0.0168443,1959,890,-0.0528705,-0.0314328
742,134,-0.0479736,0.0551147,8.48752e-05,-0.00363761,0.00217149,0.00108363,-0.00463636,0.431089,0.00350835,0.0120815,1966,890,-0.04801,-0.0550906
749,134,-0.0369873,0.0565796,0.00023131,-0.00486672,0.00305773,0.00166315,-0.00629856,0.437942,0.00484944,0.011216,1973,890,-0.0369907,-0.0565635
756,134,-0.0351563,0.0489502,0.000305787,-0.00682989,0.00447914,0.00246439,-0.0089885,0.449083,0.00696077,0.0162045,1980,890,-0.0352169,-0.0489717
763,134,0.00805664,-0.0177612,0.000437514,-0.00921694,0.00630809,0.00355347,-0.0123329,0.458805,0.00962755,0.0368541,1987,890,0.00799959,0.0177778
770,134,0.17627,-0.165527,0.000677197,-0.0119723,0.00855315,0.00499006,-0.0162852,0.467036,0.0128473,0.0409292,1994,890,0.176281,0.165542
777,134,0.164429,-0.23175,0.00111151,-0.0149562,0.011173,0.00683919,-0.0206838,0.473704,0.016547,0.0459201,2001,890,0.164456,0.231748
784,134,-0.36499,-0.050415,0.00187344,-0.0179212,0.0140722,0.00918035,-0.0252281,0.478923,0.0205733,0.0429722,2008,890,-0.365022,0.0503899
791,134,-0.00683594,0.528198,0.00314916,-0.0203925,0.017074,0.0121166,-0.0293599,0.483609,0.0246266,0.0399183,2015,890,-0.0068354,-0.528176
798,134,0,0,0,0,0,0,0,0,0,-1,2022,890,0,0
805,134,0,0,0,0,0,0,0,0,0,-1,2029,890,0,0
812,134,0,0,0,0,0,0,0,0,0,-1,2036,890,0,0
-700,127,0,0,0,0,0,0,0,0,0,-1,524,897,0,0
-693,127,0,0,0,0,0,0,0,0,0,-1,531,897,0,0
-686,127,0,0,0,0,0,0,0,0,0,-1,538,897,0,0
-679,127,-0.576416,3.66595,0,0,0,0,0,0,0,-1,545,897,-0.576388,-3.66594
-672,127,-0.824707,3.81891,0.0519048,-0.0589621,-0.00753005,0.052414,-0.0594712,-0.0675065,0.0646398,0.0480952,552,897,-0.824708,-3.81891
-665,127,-0.798279,4.00012,0.0432169,-0.038262,-0.00944431,0.0442972,-0.0393424,-0.113899,0.0483176,0.0487412,559,897,-0.798309,-4.00013
-658,127,-0.85321,4.08069,0.0349849,-0.0237628,-0.00970323,0.0365461,-0.025324,-0.159525,0.035916,0.0466956,566,897,-0.853225,-4.08068
-651,127,-0.748596,3.90649,0.0275138,-0.0137714,-0.00898227,0.0293834,-0.0156409,-0.205211,0.0263953,0.0450187,573,897,-0.748572,-3.90649
-644,127,0.268188,0.0240479,0,0,0,0,0,0,0,-1,580,897,0.268207,-0.0240543
-637,127,0.0724487,-0.0346069,0.0155087,-0.00299848,-0.00623837,0.0174152,-0.00490492,-0.296585,0.0135444,0.0407721,587,897,0.0724675,0.0345796
-630,127,0.0344238,0.0241699,0.0109957,-0.00036687,-0.00476585,0.01273,-0.00210113,-0.348998,0.00926677,0.0267432,594,897,0.03442,-0.0241592
-623,127,-0.00872803,0.0441284,0.00746881,0.00085122,-0.00354333,0.00900803,-0.000688004,-0.409806,0.00624733,0.0122915,601,897,-0.00872243,-0.0441035
-616,127,-0.0153198,0.0618286,0.00463282,0.00198253,-0.00258166,0.00620957,0.000405783,-0.548286,0.0040113,0.00942633,608,897,-0.0153043,-0.0618042
-609,127,-0.0140991,0.046936,0.00236504,0.00284549,-0.00167427,0.00429667,0.000913852,-0.856652,0.00261364,0.0123284,615,897,-0.0141239,-0.0469253
-602,127,-0.0169678,0.0422363,0.000801844,0.00278507,-0.000659195,0.00298418,0.000602728,-1.27745,0.00182208,0.0138564,622,897,-0.0169813,-0.0422458
-595,127,-0.00946045,0.0405273,0.000216275,-0.000725515,3.93194e-05,0.000217913,-0.000727154,0.0416531,0.000571429,0.0123347,629,897,-0.00946561,-0.0405144
-588,127,-0.00646973,0.0460815,9.28749e-05,-0.000307811,0.000127691,0.000130108,-0.000345044,0.283719,0.00028353,0.015735,636,897,-0.00647124,-0.0460545
-581,127,-0.0350952,0.0413818,0.000147999,-0.000212708,4.6617e-05,0.000153926,-0.000218636,0.12647,0.000216178,0.0200686,643,897,-0.0351099,-0.0413587
-574,127,-0.00866699,0.0439453,0.000240957,-0.000232695,-7.25273e-05,0.000251814,-0.000243551,-0.148589,0.000286013,0.0195247,650,897,-0.0086762,-0.0439725
-567,127,0.0065918,0.0864258,0.000425821,-0.00028372,-0.000206646,0.000481617,-0.000339516,-0.263717,0.000476441,0.0257606,657,897,0.00659782,-0.0864374
-560,127,-0.0164185,0.0718384,0.000662919,-0.000364865,-0.000258662,0.000724345,-0.000426291,-0.233158,0.000671708,0.0270213,664,897,-0.0164011,-0.0718356
-553,127,-0.0344238,0.0645752,0.000940169,-0.000461084,-0.000267557,0.000989518,-0.000510433,-0.182395,0.000880599,0.0355312,671,897,-0.0344055,-0.0645558
-546,127,-0.00231934,0.102051,0.00127019,-0.000551781,-0.000321201,0.00132516,-0.000606748,-0.169489,0.0011408,0.0233374,678,897,-0.00231733,-0.102023
-539,127,-0.00213623,0.0723267,0.00166197,-0.00067523,-0.000367538,0.0017184,-0.000731665,-0.152358,0.00145228,0.0203006,685,897,-0.00211256,-0.0723106
-532,127,0.0057373,0.0540771,0.00215225,-0.000829972,-0.000410277,0.00220767,-0.000885386,-0.134252,0.00183936,0.016996,692,897,0.00574664,-0.0540882
-525,127,0.00378418,0.135193,0.0027143,-0.00101569,-0.000456079,0.00276926,-0.00107065,-0.11992,0.00228813,0.0331242,699,897,0.00380591,-0.135195
-518,127,0.114441,0.250183,0.00336339,-0.00123295,-0.000488852,0.00341481,-0.00128437,-0.104795,0.00280447,0.0399724,706,897,0.114469,-0.250159
-511,127,0.151611,0.0984497,0.00407511,-0.00150066,-0.000511329,0.00412162,-0.00154716,-0.0906975,0.0033835,0.0416773,713,897,0.151599,-0.0984778
-504,127,0,0,0,0,0,0,0,0,0,-1,720,897,0,0
-497,127,0,0,0,0,0,0,0,0,0,-1,727,897,0,0
-490,127,0,0,0,0,0,0,0,0,0,-1,734,897,0,0
-483,127,0,0,0,0,0,0,0,0,0,-1,741,897,0,0
-476,127,0,0,0,0,0,0,0,0,0,-1,748,897,0,0
-469,127,0,0,0,0,0,0,0,0,0,-1,755,897,0,0
-462,127,0,0,0,0,0,0,0,0,0,-1,762,897,0,0
-455,127,0,0,0,0,0,0,0,0,0,-1,769,897,0,0
-448,127,0,0,0,0,0,0,0,0,0,-1,776,897,0,0
-441,127,0,0,0,0,0,0,0,0,0,-1,783,897,0,0
-434,127,0,0,0,0,0,0,0,0,0,-1,790,897,0,0
-427,127,0,0,0,0,0,0,0,0,0,-1,797,897,0,0
-420,127,0,0,0,0,0,0,0,0,0,-1,804,897,0,0
-413,127,0,0,0,0,0,0,0,0,0,-1,811,897,0,0
-406,127,0,0,0,0,0,0,0,0,0,-1,818,897,0,0
-399,127,0,0,0,0,0,0,0,0,0,-1,825,897,0,0
-392,127,0,0,0,0,0,0,0,0,0,-1,832,897,0,0
-385,127,0,0,0,0,0,0,0,0,0,-1,839,897,0,0
-378,127,0,0,0,0,0,0,0,0,0,-1,846,897,0,0
-371,127,0,0,0,0,0,0,0,0,0,-1,853,897,0,0
-364,127,0,0,0,0,0,0,0,0,0,-1,860,897,0,0
-357,127,0,0,0,0,0,0,0,0,0,-1,867,897,0,0
-350,127,0,0,0,0,0,0,0,0,0,-1,874,897,0,0
-343,127,0,0,0,0,0,0,0,0,0,-1,881,897,0,0
-336,127,0,0,0,0,0,0,0,0,0,-1,888,897,0,0
-329,127,0,0,0,0,0,0,0,0,0,-1,895,897,0,0
-322,127,0,0,0,0,0,0,0,0,0,-1,902,897,0,0
-315,127,0,0,0,0,0,0,0,0,0,-1,909,897,0,0
-308,127,0,0,0,0,0,0,0,0,0,-1,916,897,0,0
-301,127,0,0,0,0,0,0,0,0,0,-1,923,897,0,0
-294,127,0,0,0,0,0,0,0,0,0,-1,930,897,0,0
-287,127,0,0,0,0,0,0,0,0,0,-1,937,897,0,0
-280,127,0,0,0,0,0,0,0,0,0,-1,944,897,0,0
-273,127,0,0,0,0,0,0,0,0,0,-1,951,897,0,0
-266,127,0,0,0,0,0,0,0,0,0,-1,958,897,0,0
-259,127,0,0,0,0,0,0,0,0,0,-1,965,897,0,0
-252,127,0,0,0,0,0,0,0,0,0,-1,972,897,0,0
-245,127,0,0,0,0,0,0,0,0,0,-1,979,897,0,0
-238,127,0,0,0,0,0,0,0,0,0,-1,986,897,0,0
-231,127,0,0,0,0,0,0,0,0,0,-1,993,897,0,0
-224,127,0,0,0,0,0,0,0,0,0,-1,1000,897,0,0
-217,127,0,0,0,0,0,0,0,0,0,-1,1007,897,0,0
-210,127,0,0,0,0,0,0,0,0,0,-1,1014,897,0,0
-203,127,0,0,0,0,0,0,0,0,0,-1,1021,897,0,0
-196,127,0,0,0,0,0,0,0,0,0,-1,1028,897,0,0
-189,127,0,0,0,0,0,0,0,0,0,-1,1035,897,0,0
-182,127,0,0,0,0,0,0,0,0,0,-1,1042,897,0,0
-175,127,0,0,0,0,0,0,0,0,0,-1,1049,897,0,0
-168,127,0,0,0,0,0,0,0,0,0,-1,1056,897,0,0
-161,127,0,0,0,0,0,0,0,0,0,-1,1063,897,0,0
-154,127,0,0,0,0,0,0,0,0,0,-1,1070,897,0,0
-147,127,0,0,0,0,0,0,0,0,0,-1,1077,897,0,0
-140,127,0,0,0,0,0,0,0,0,0,-1,1084,897,0,0
-133,127,0,0,0,0,0,0,0,0,0,-1,1091,897,0,0
-126,127,0,0,0,0,0,0,0,0,0,-1,1098,897,0,0
-119,127,0,0,0,0,0,0,0,0,0,-1,1105,897,0,0
-112,127,0,0,0,0,0,0,0,0,0,-1,1112,897,0,0
-105,127,0,0,0,0,0,0,0,0,0,-1,1119,897,0,0
-98,127,0,0,0,0,0,0,0,0,0,-1,1126,897,0,0
-91,127,0,0,0,0,0,0,0,0,0,-1,1133,897,0,0
-84,127,0,0,0,0,0,0,0,0,0,-1,1140,897,0,0
-77,127,0,0,0,0,0,0,0,0,0,-1,1147,897,0,0
-70,127,0,0,0,0,0,0,0,0,0,-1,1154,897,0,0
-63,127,0,0,0,0,0,0,0,0,0,-1,1161,897,0,0
-56,127,0,0,0,0,0,0,0,0,0,-1,1168,897,0,0
-49,127,0,0,0,0,0,0,0,0,0,-1,1175,897,0,0
-42,127,0,0,0,0,0,0,0,0,0,-1,1182,897,0,0
-35,127,0,0,0,0,0,0,0,0,0,-1,1189,897,0,0
-28,127,0,0,0,0,0,0,0,0,0,-1,1196,897,0,0
-21,127,0,0,0,0,0,0,0,0,0,-1,1203,897,0,0
-14,127,0,0,0,0,0,0,0,0,0,-1,1210,897,0,0
-7,127,0,0,0,0,0,0,0,0,0,-1,1217,897,0,0
0,127,0,0,0,0,0,0,0,0,0,-1,1224,897,0,0
7,127,0,0,0,0,0,0,0,0,0,-1,1231,897,0,0
14,127,0,0,0,0,0,0,0,0,0,-1,1238,897,0,0
21,127,0,0,0,0,0,0,0,0,0,-1,1245,897,0,0
28,127,0,0,0,0,0,0,0,0,0,-1,1252,897,0,0
35,127,0,0,0,0,0,0,0,0,0,-1,1259,897,0,0
42,127,0,0,0,0,0,0,0,0,0,-1,1266,897,0,0
49,127,0,0,0,0,0,0,0,0,0,-1,1273,897,0,0
56,127,0,0,0,0,0,0,0,0,0,-1,1280,897,0,0
63,127,0,0,0,0,0,0,0,0,0,-1,1287,897,0,0
70,127,0,0,0,0,0,0,0,0,0,-1,1294,897,0,0
77,127,0,0,0,0,0,0,0,0,0,-1,1301,897,0,0
84,127,0,0,0,0,0,0,0,0,0,-1,1308,897,0,0
91,127,0,0,0,0,0,0,0,0,0,-1,1315,897,0,0
98,127,0,0,0,0,0,0,0,0,0,-1,1322,897,0,0
105,127,0,0,0,0,0,0,0,0,0,-1,1329,897,0,0
112,127,0,0,0,0,0,0,0,0,0,-1,1336,897,0,0
119,127,0,0,0,0,0,0,0,0,0,-1,1343,897,0,0
126,127,0,0,0,0,0,0,0,0,0,-1,1350,897,0,0
133,127,0,0,0,0,0,0,0,0,0,-1,1357,897,0,0
140,127,0,0,0,0,0,0,0,0,0,-1,1364,897,0,0
147,127,0,0,0,0,0,0,0,0,0,-1,1371,897,0,0
154,127,0,0,0,0,0,0,0,0,0,-1,1378,897,0,0
161,127,0,0,0,0,0,0,0,0,0,-1,1385,897,0,0
168,127,0,0,0,0,0,0,0,0,0,-1,1392,897,0,0
175,127,0,0,0,0,0,0,0,0,0,-1,1399,897,0,0
182,127,0,0,0,0,0,0,0,0,0,-1,1406,897,0,0
189,127,0,0,0,0,0,0,0,0,0,-1,1413,897,0,0
196,127,0,0,0,0,0,0,0,0,0,-1,1420,897,0,0
203,127,0,0,0,0,0,0,0,0,0,-1,1427,897,0,0
210,127,0,0,0,0,0,0,0,0,0,-1,1434,897,0,0
217,127,0,0,0,0,0,0,0,0,0,-1,1441,897,0,0
224,127,0,0,0,0,0,0,0,0,0,-1,1448,897,0,0
231,127,0,0,0,0,0,0,0,0,0,-1,1455,897,0,0
238,127,0,0,0,0,0,0,0,0,0,-1,1462,897,0,0
245,127,0,0,0,0,0,0,0,0,0,-1,1469,897,0,0
252,127,0,0,0,0,0,0,0,0,0,-1,1476,897,0,0
259,127,0,0,0,0,0,0,0,0,0,-1,1483,897,0,0
266,127,0,0,0,0,0,0,0,0,0,-1,1490,897,0,0
273,127,0,0,0,0,0,0,0,0,0,-1,1497,897,0,0
280,127,0,0,0,0,0,0,0,0,0,-1,1504,897,0,0
287,127,0,0,0,0,0,0,0,0,0,-1,1511,897,0,0
294,127,0,0,0,0,0,0,0,0,0,-1,1518,897,0,0
301,127,0,0,0,0,0,0,0,0,0,-1,1525,897,0,0
308,127,0,0,0,0,0,0,0,0,0,-1,1532,897,0,0
315,127,0,0,0,0,0,0,0,0,0,-1,1539,897,0,0
322,127,0,0,0,0,0,0,0,0,0,-1,1546,897,0,0
329,127,0,0,0,0,0,0,0,0,0,-1,1553,897,0,0
336,127,0,0,0,0,0,0,0,0,0,-1,1560,897,0,0
343,127,0,0,0,0,0,0,0,0,0,-1,1567,897,0,0
350,127,0,0,0,0,0,0,0,0,0,-1,1574,897,0,0
357,127,0,0,0,0,0,0,0,0,0,-1,1581,897,0,0
364,127,0,0,0,0,0,0,0,0,0,-1,1588,897,0,0
371,127,0,0,0,0,0,0,0,0,0,-1,1595,897,0,0
378,127,0,0,0,0,0,0,0,0,0,-1,1602,897,0,0
385,127,0,0,0,0,0,0,0,0,0,-1,1609,897,0,0
392,127,0,0,0,0,0,0,0,0,0,-1,1616,897,0,0
399,127,0,0,0,0,0,0,0,0,0,-1,1623,897,0,0
406,127,0,0,0,0,0,0,0,0,0,-1,1630,897,0,0
413,127,0,0,0,0,0,0,0,0,0,-1,1637,897,0,0
420,127,0,0,0,0,0,0,0,0,0,-1,1644,897,0,0
427,127,0,0,0,0,0,0,0,0,0,-1,1651,897,0,0
434,127,0,0,0,0,0,0,0,0,0,-1,1658,897,0,0
441,127,0,0,0,0,0,0,0,0,0,-1,1665,897,0,0
448,127,0,0,0,0,0,0,0,0,0,-1,1672,897,0,0
455,127,0,0,0,0,0,0,0,0,0,-1,1679,897,0,0
462,127,0,0,0,0,0,0,0,0,0,-1,1686,897,0,0
469,127,0,0,0,0,0,0,0,0,0,-1,1693,897,0,0
476,127,0,0,0,0,0,0,0,0,0,-1,1700,897,0,0
483,127,0,0,0,0,0,0,0,0,0,-1,1707,897,0,0
490,127,0,0,0,0,0,0,0,0,0,-1,1714,897,0,0
497,127,0,0,0,0,0,0,0,0,0,-1,1721,897,0,0
504,127,0,0,0,0,0,0,0,0,0,-1,1728,897,0,0
511,127,0,0,0,0,0,0,0,0,0,-1,1735,897,0,0
518,127,0,0,0,0,0,0,0,0,0,-1,1742,897,0,0
525,127,0,0,0,0,0,0,0,0,0,-1,1749,897,0,0
532,127,0,0,0,0,0,0,0,0,0,-1,1756,897,0,0
539,127,0,0,0,0,0,0,0,0,0,-1,1763,897,0,0
546,127,0,0,0,0,0,0,0,0,0,-1,1770,897,0,0
553,127,0,0,0,0,0,0,0,0,0,-1,1777,897,0,0
560,127,0,0,0,0,0,0,0,0,0,-1,1784,897,0,0
567,127,0,0,0,0,0,0,0,0,0,-1,1791,897,0,0
574,127,0,0,0,0,0,0,0,0,0,-1,1798,897,0,0
581,127,0,0,0,0,0,0,0,0,0,-1,1805,897,0,0
588,127,0,0,0,0,0,0,0,0,0,-1,1812,897,0,0
595,127,0,0,0,0,0,0,0,0,0,-1,1819,897,0,0
602,127,0,0,0,0,0,0,0,0,0,-1,1826,897,0,0
609,127,0,0,0,0,0,0,0,0,0,-1,1833,897,0,0
616,127,0,0,0,0,0,0,0,0,0,-1,1840,897,0,0
623,127,0,0,0,0,0,0,0,0,0,-1,1847,897,0,0
630,127,-0.160034,0.240479,0.000474715,-0.000284825,-0.0023507,0.00247613,-0.00228624,-0.705312,0.00275028,0.0367307,1854,897,-0.159983,-0.240462
637,127,-0.120972,0.209595,0.000105858,-0.0004042,-0.00164198,0.0015125,-0.00181084,-0.708355,0.0019213,0.0368886,1861,897,-0.121001,-0.209601
644,127,-0.0283203,0.172485,-3.83104e-05,-0.000391023,-0.00117313,0.000971641,-0.00140097,-0.710792,0.00137729,0.0364631,1868,897,-0.0283181,-0.172471
651,127,-0.0836182,0.0963745,-0.000123268,-0.000306637,-0.000846397,0.000636396,-0.0010663,-0.731447,0.000993442,0.0396354,1875,897,-0.0836703,-0.0963927
658,127,-0.00964355,0.0596924,-0.000151899,-0.000190916,-0.000615213,0.000444115,-0.000786929,-0.769548,0.000719871,0.0370849,1882,897,-0.00967507,-0.0596772
665,127,0.034668,0.0715332,-0.00014929,-6.58333e-05,-0.000449104,0.000343477,-0.0005586,-0.831722,0.000525727,0.0302634,1889,897,0.0346812,-0.0715344
672,127,-0.0393066,0.0457764,-0.000152044,1.97987e-05,-0.000329336,0.000274237,-0.000406482,-0.913001,0.000395478,0.0250913,1896,897,-0.0393151,-0.0457498
679,127,-0.0428467,0.0427246,-0.000129223,0.000112662,-0.000237452,0.000258198,-0.000274759,-1.02094,0.000307752,0.0161192,1903,897,-0.042812,-0.0427442
686,127,-0.0045166,0.0498047,-8.94587e-05,0.000166256,-0.000162868,0.000245457,-0.00016866,-1.11817,0.000240457,0.0129397,1910,897,-0.00449946,-0.0498335
693,127,-0.0223389,0.0332642,-3.82637e-05,0.000218356,-0.000134111,0.000275651,-9.55589e-05,-1.16705,0.000222567,0.0157055,1917,897,-0.0223949,-0.0332874
700,127,-0.0205078,0.0176392,-8.72986e-07,0.000229951,-0.000110509,0.000274327,-4.52491e-05,-1.18895,0.000199684,0.0173666,1924,897,-0.0205536,-0.0176505
707,127,-0.0327148,0.0352173,6.02606e-05,0.00022333,-0.000108891,0.000277829,5.76153e-06,-1.10676,0.000183329,0.0167134,1931,897,-0.0326695,-0.0352007
714,127,-0.0452881,0.0631104,0.000223547,0.000152919,-0.000143209,0.000335732,4.07336e-05,-0.664515,0.000211555,0.0144184,1938,897,-0.0453344,-0.0630996
721,127,-0.0258789,0.0612793,0.000338901,-1.25551e-05,-5.10932e-05,0.000346178,-1.98321e-05,-0.141475,0.000237672,0.0118818,1945,897,-0.0258698,-0.0613062
728,127,-0.0174561,0.0442505,1.22318e-05,-0.00102862,0.000350287,0.000119137,-0.00113552,0.296214,0.000799692,0.0117526,1952,897,-0.0174679,-0.0442358
735,127,-0.0303955,0.0355225,-0.000231273,-0.00197862,0.00105014,0.000261103,-0.00247099,0.438435,0.0017409,0.0173888,1959,897,-0.0304013,-0.0355093
742,127,-0.0269775,0.0489502,-0.000103243,-0.00305256,0.00184575,0.000784603,-0.0039404,0.448349,0.00292377,0.0157972,1966,897,-0.0269664,-0.0489435
749,127,-0.0166016,0.0481567,3.62226e-06,-0.00387345,0.00249932,0.00122808,-0.00509791,0.455548,0.00387341,0.0116855,1973,897,-0.0166155,-0.0481696
756,127,-0.0255127,0.0344238,-3.72602e-06,-0.00534537,0.00361448,0.00181964,-0.00716873,0.467211,0.00548721,0.0146078,1980,897,-0.0255295,-0.0343965
763,127,0.0216064,-0.00274658,4.71479e-05,-0.0070725,0.00502769,0.00264768,-0.00967303,0.477346,0.00748892,0.0216391,1987,897,0.0215918,0.00276057
770,127,0.0290527,-0.108704,0.000222521,-0.00896989,0.00672999,0.00377603,-0.0125234,0.485805,0.00985186,0.0379517,1994,897,0.029111,0.108687
777,127,-0.208008,-0.100708,0.000630786,-0.0108694,0.00866195,0.00527746,-0.0155161,0.492379,0.0124809,0.0463812,2001,897,-0.208002,0.100696
784,127,-0.31958,0.297729,0.00143779,-0.0124961,0.0107088,0.00724645,-0.0183048,0.497006,0.0152056,0.0451992,2008,897,-0.319625,-0.297728
791,127,-0.0933838,0.772278,0.00287032,-0.0133572,0.0126696,0.00980157,-0.0202885,0.500596,0.0177207,0.0414889,2015,897,-0.093328,-0.77228
798,127,0,0,0,0,0,0,0,0,0,-1,2022,897,0,0
805,127,0,0,0,0,0,0,0,0,0,-1,2029,897,0,0
812,127,0,0,0,0,0,0,0,0,0,-1,2036,897,0,0
-700,120,0,0,0,0,0,0,0,0,0,-1,524,904,0,0
-693,120,0,0,0,0,0,0,0,0,0,-1,531,904,0,0
-686,120,0,0,0,0,0,0,0,0,0,-1,538,904,0,0
-679,120,-0.282898,3.86371,0,0,0,0,0,0,0,-1,545,904,-0.282872,-3.8637
-672,120,-0.610596,4.02643,0.0523765,-0.0555979,-0.0088587,0.0530985,-0.0563198,-0.0813197,0.0631818,0.0398857,552,904,-0.610578,-4.02645
-665,120,-0.432251,4.37854,0.0434207,-0.0355226,-0.0107872,0.0448682,-0.0369701,-0.133388,0.0473226,0.0430333,559,904,-0.432269,-4.37855
-658,120,-0.952698,4.61658,0,0,0,0,0,0,0,-1,566,904,-0.952672,-4.61657
-651,120,0.156555,-0.0366211,0.0274085,-0.0117974,-0.0100914,0.0298535,-0.0142424,-0.237705,0.0259851,0.0452606,573,904,0.156567,0.0366068
-644,120,0.19397,0.0314331,0.0208267,-0.00550967,-0.00863037,0.0234028,-0.00808583,-0.29008,0.0188833,0.046117,580,904,0.193996,-0.0314557
-637,120,0.107849,0.0427856,0.0153096,-0.00171169,-0.00693226,0.0177756,-0.00417772,-0.341772,0.0134609,0.0381794,587,904,0.107863,-0.0427772
-630,120,0.000427246,0.0196533,0.0107943,0.000689539,-0.00526805,0.0130411,-0.00155732,-0.403147,0.00925695,0.0204282,594,904,0.000433521,-0.0196334
-623,120,-0.0273438,0.0176392,0.00728029,0.00164762,-0.00391997,0.00929074,-0.00036284,-0.473895,0.00631825,0.0103241,601,904,-0.0273499,-0.0176159
-616,120,-0.0043335,0.0369263,0.00442032,0.00252919,-0.00285081,0.00647829,0.000471219,-0.625266,0.00417067,0.0096626,608,904,-0.00434343,-0.0369471
-609,120,-0.0213013,0.0557861,0.00224651,0.00310947,-0.00179063,0.00451987,0.000836106,-0.903626,0.00277683,0.0119734,615,904,-0.0213068,-0.0557764
-602,120,-0.055542,0.0853271,0.000804383,0.00284255,-0.000609148,0.00301073,0.000636203,-1.30142,0.00183228,0.0121324,622,904,-0.0555444,-0.0853419
-595,120,-0.0197144,0.0623779,0.000271777,-0.00073447,8.7063e-05,0.000279254,-0.000741947,0.0856742,0.000609429,0.0145859,629,904,-0.0197127,-0.0623739
-588,120,-0.0098877,0.010498,9.11529e-05,-0.000293686,0.000172516,0.000157165,-0.000359699,0.365457,0.000305953,0.0189918,636,904,-0.00991557,-0.0105096
-581,120,-0.0296021,0.0113525,0.000119818,-0.00013694,6.98044e-05,0.000137568,-0.000154691,0.249011,0.000168832,0.0213796,643,904,-0.0296255,-0.0113363
-574,120,-0.0308228,0.0405884,0.000250156,-0.000105712,-3.39581e-05,0.000253367,-0.000108923,-0.0942897,0.000214638,0.0174587,650,904,-0.0308527,-0.040574
-567,120,0.000183105,0.0916138,0.000466671,-0.000118254,-0.000159244,0.000507215,-0.000158797,-0.249302,0.000401678,0.0285939,657,904,0.000199294,-0.0916018
-560,120,0.0012207,0.13916,0.000728677,-0.000173329,-0.000204319,0.0007728,-0.000217452,-0.212686,0.000600945,0.0360968,664,904,0.00120023,-0.13916
-553,120,-0.00616455,0.184937,0.00103635,-0.00023962,-0.000206979,0.00106909,-0.000272355,-0.156856,0.000818752,0.0393748,671,904,-0.00614694,-0.184909
-546,120,-0.00543213,0.119568,0.00140559,-0.000318278,-0.000245184,0.00143979,-0.000352472,-0.138569,0.0010964,0.0319466,678,904,-0.00545853,-0.11955
-539,120,-0.0248413,0.0689087,0.00187279,-0.000449954,-0.000269345,0.00190362,-0.000480778,-0.113945,0.00145604,0.0230699,685,904,-0.024868,-0.068888
-532,120,-0.088501,0.072876,0.00246604,-0.0006477,-0.000298082,0.00249432,-0.000675979,-0.0945866,0.00192812,0.0253419,692,904,-0.088499,-0.0728577
-525,120,-0.120361,0.175171,0.0031657,-0.000929573,-0.000335446,0.00319299,-0.000956867,-0.0811893,0.00250919,0.0339965,699,904,-0.120334,-0.175182
-518,120,-0.130066,0.285645,0.00399755,-0.00131354,-0.000364312,0.00402243,-0.00133842,-0.068169,0.0032218,0.0385075,706,904,-0.130041,-0.285652
-511,120,-0.0111084,0.0591431,0.00494014,-0.0018486,-0.000388068,0.00496226,-0.00187071,-0.0569163,0.00407739,0.0381032,713,904,-0.0110997,-0.05913
-504,120,0,0,0,0,0,0,0,0,0,-1,720,904,0,0
-497,120,0,0,0,0,0,0,0,0,0,-1,727,904,0,0
-490,120,0,0,0,0,0,0,0,0,0,-1,734,904,0,0
-483,120,0,0,0,0,0,0,0,0,0,-1,741,904,0,0
-476,120,0,0,0,0,0,0,0,0,0,-1,748,904,0,0
-469,120,0,0,0,0,0,0,0,0,0,-1,755,904,0,0
-462,120,0,0,0,0,0,0,0,0,0,-1,762,904,0,0
-455,120,0,0,0,0,0,0,0,0,0,-1,769,904,0,0
-448,120,0,0,0,0,0,0,0,0,0,-1,776,904,0,0
-441,120,0,0,0,0,0,0,0,0,0,-1,783,904,0,0
-434,120,0,0,0,0,0,0,0,0,0,-1,790,904,0,0
-427,120,0,0,0,0,0,0,0,0,0,-1,797,904,0,0
-420,120,0,0,0,0,0,0,0,0,0,-1,804,904,0,0
-413,120,0,0,0,0,0,0,0,0,0,-1,811,904,0,0
-406,120,0,0,0,0,0,0,0,0,0,-1,818,904,0,0
-399,120,0,0,0,0,0,0,0,0,0,-1,825,904,0,0
-392,120,0,0,0,0,0,0,0,0,0,-1,832,904,0,0
-385,120,0,0,0,0,0,0,0,0,0,-1,839,904,0,0
-378,120,0,0,0,0,0,0,0,0,0,-1,846,904,0,0
-371,120,0,0,0,0,0,0,0,0,0,-1,853,904,0,0
-364,120,0,0,0,0,0,0,0,0,0,-1,860,904,0,0
-357,120,0,0,0,0,0,0,0,0,0,-1,867,904,0,0
-350,120,0,0,0,0,0,0,0,0,0,-1,874,904,0,0
-343,120,0,0,0,0,0,0,0,0,0,-1,881,904,0,0
-336,120,0,0,0,0,0,0,0,0,0,-1,888,904,0,0
-329,120,0,0,0,0,0,0,0,0,0,-1,895,904,0,0
-322,120,0,0,0,0,0,0,0,0,0,-1,902,904,0,0
-315,120,0,0,0,0,0,0,0,0,0,-1,909,904,0,0
-308,120,0,0,0,0,0,0,0,0,0,-1,916,904,0,0
-301,120,0,0,0,0,0,0,0,0,0,-1,923,904,0,0
-294,120,0,0,0,0,0,0,0,0,0,-1,930,904,0,0
-287,120,0,0,0,0,0,0,0,0,0,-1,937,904,0,0
-280,120,0,0,0,0,0,0,0,0,0,-1,944,904,0,0
-273,120,0,0,0,0,0,0,0,0,0,-1,951,904,0,0
-266,120,0,0,0,0,0,0,0,0,0,-1,958,904,0,0
-259,120,0,0,0,0,0,0,0,0,0,-1,965,904,0,0
-252,120,0,0,0,0,0,0,0,0,0,-1,972,904,0,0
-245,120,0,0,0,0,0,0,0,0,0,-1,979,904,0,0
-238,120,0,0,0,0,0,0,0,0,0,-1,986,904,0,0
-231,120,0,0,0,0,0,0,0,0,0,-1,993,904,0,0
-224,120,0,0,0,0,0,0,0,0,0,-1,1000,904,0,0
-217,120,0,0,0,0,0,0,0,0,0,-1,1007,904,0,0
-210,120,0,0,0,0,0,0,0,0,0,-1,1014,904,0,0
-203,120,0,0,0,0,0,0,0,0,0,-1,1021,904,0,0
-196,120,0,0,0,0,0,0,0,0,0,-1,1028,904,0,0
-189,120,0,0,0,0,0,0,0,0,0,-1,1035,904,0,0
-182,120,0,0,0,0,0,0,0,0,0,-1,1042,904,0,0
-175,120,0,0,0,0,0,0,0,0,0,-1,1049,904,0,0
-168,120,0,0,0,0,0,0,0,0,0,-1,1056,904,0,0
-161,120,0,0,0,0,0,0,0,0,0,-1,1063,904,0,0
-154,120,0,0,0,0,0,0,0,0,0,-1,1070,904,0,0
-147,120,0,0,0,0,0,0,0,0,0,-1,1077,904,0,0
-140,120,0,0,0,0,0,0,0,0,0,-1,1084,904,0,0
-133,120,0,0,0,0,0,0,0,0,0,-1,1091,904,0,0
-126,120,0,0,0,0,0,0,0,0,0,-1,1098,904,0,0
-119,120,0,0,0,0,0,0,0,0,0,-1,1105,904,0,0
-112,120,0,0,0,0,0,0,0,0,0,-1,1112,904,0,0
-105,120,0,0,0,0,0,0,0,0,0,-1,1119,904,0,0
-98,120,0,0,0,0,0,0,0,0,0,-1,1126,904,0,0
-91,120,0,0,0,0,0,0,0,0,0,-1,1133,904,0,0
-84,120,0,0,0,0,0,0,0,0,0,-1,1140,904,0,0
-77,120,0,0,0,0,0,0,0,0,0,-1,1147,904,0,0
-70,120,0,0,0,0,0,0,0,0,0,-1,1154,904,0,0
-63,120,0,0,0,0,0,0,0,0,0,-1,1161,904,0,0
-56,120,0,0,0,0,0,0,0,0,0,-1,1168,904,0,0
-49,120,0,0,0,0,0,0,0,0,0,-1,1175,904,0,0
-42,120,0,0,0,0,0,0,0,0,0,-1,1182,904,0,0
-35,120,0,0,0,0,0,0,0,0,0,-1,1189,904,0,0
-28,120,0,0,0,0,0,0,0,0,0,-1,1196,904,0,0
-21,120,0,0,0,0,0,0,0,0,0,-1,1203,904,0,0
-14,120,0,0,0,0,0,0,0,0,0,-1,1210,904,0,0
-7,120,0,0,0,0,0,0,0,0,0,-1,1217,904,0,0
0,120,0,0,0,0,0,0,0,0,0,-1,1224,904,0,0
7,120,0,0,0,0,0,0,0,0,0,-1,1231,904,0,0
14,120,0,0,0,0,0,0,0,0,0,-1,1238,904,0,0
21,120,0,0,0,0,0,0,0,0,0,-1,1245,904,0,0
28,120,0,0,0,0,0,0,0,0,0,-1,1252,904,0,0
35,120,0,0,0,0,0,0,0,0,0,-1,1259,904,0,0
42,120,0,0,0,0,0,0,0,0,0,-1,1266,904,0,0
49,120,0,0,0,0,0,0,0,0,0,-1,1273,904,0,0
56,120,0,0,0,0,0,0,0,0,0,-1,1280,904,0,0
63,120,0,0,0,0,0,0,0,0,0,-1,1287,904,0,0
70,120,0,0,0,0,0,0,0,0,0,-1,1294,904,0,0
77,120,0,0,0,0,0,0,0,0,0,-1,1301,904,0,0
84,120,0,0,0,0,0,0,0,0,0,-1,1308,904,0,0
91,120,0,0,0,0,0,0,0,0,0,-1,1315,904,0,0
98,120,0,0,0,0,0,0,0,0,0,-1,1322,904,0,0
105,120,0,0,0,0,0,0,0,0,0,-1,1329,904,0,0
112,120,0,0,0,0,0,0,0,0,0,-1,1336,904,0,0
119,120,0,0,0,0,0,0,0,0,0,-1,1343,904,0,0
126,120,0,0,0,0,0,0,0,0,0,-1,1350,904,0,0
133,120,0,0,0,0,0,0,0,0,0,-1,1357,904,0,0
140,120,0,0,0,0,0,0,0,0,0,-1,1364,904,0,0
147,120,0,0,0,0,0,0,0,0,0,-1,1371,904,0,0
154,120,0,0,0,0,0,0,0,0,0,-1,1378,904,0,0
161,120,0,0,0,0,0,0,0,0,0,-1,1385,904,0,0
168,120,0,0,0,0,0,0,0,0,0,-1,1392,904,0,0
175,120,0,0,0,0,0,0,0,0,0,-1,1399,904,0,0
182,120,0,0,0,0,0,0,0,0,0,-1,1406,904,0,0
189,120,0,0,0,0,0,0,0,0,0,-1,1413,904,0,0
196,120,0,0,0,0,0,0,0,0,0,-1,1420,904,0,0
203,120,0,0,0,0,0,0,0,0,0,-1,1427,904,0,0
210,120,0,0,0,0,0,0,0,0,0,-1,1434,904,0,0
217,120,0,0,0,0,0,0,0,0,0,-1,1441,904,0,0
224,120,0,0,0,0,0,0,0,0,0,-1,1448,904,0,0
231,120,0,0,0,0,0,0,0,0,0,-1,1455,904,0,0
238,120,0,0,0,0,0,0,0,0,0,-1,1462,904,0,0
245,120,0,0,0,0,0,0,0,0,0,-1,1469,904,0,0
252,120,0,0,0,0,0,0,0,0,0,-1,1476,904,0,0
259,120,0,0,0,0,0,0,0,0,0,-1,1483,904,0,0
266,120,0,0,0,0,0,0,0,0,0,-1,1490,904,0,0
273,120,0,0,0,0,0,0,0,0,0,-1,1497,904,0,0
280,120,0,0,0,0,0,0,0,0,0,-1,1504,904,0,0
287,120,0,0,0,0,0,0,0,0,0,-1,1511,904,0,0
294,120,0,0,0,0,0,0,0,0,0,-1,1518,904,0,0
301,120,0,0,0,0,0,0,0,0,0,-1,1525,904,0,0
308,120,0,0,0,0,0,0,0,0,0,-1,1532,904,0,0
315,120,0,0,0,0,0,0,0,0,0,-1,1539,904,0,0
322,120,0,0,0,0,0,0,0,0,0,-1,1546,904,0,0
329,120,0,0,0,0,0,0,0,0,0,-1,1553,904,0,0
336,120,0,0,0,0,0,0,0,0,0,-1,1560,904,0,0
343,120,0,0,0,0,0,0,0,0,0,-1,1567,904,0,0
350,120,0,0,0,0,0,0,0,0,0,-1,1574,904,0,0
357,120,0,0,0,0,0,0,0,0,0,-1,1581,904,0,0
364,120,0,0,0,0,0,0,0,0,0,-1,1588,904,0,0
371,120,0,0,0,0,0,0,0,0,0,-1,1595,904,0,0
378,120,0,0,0,0,0,0,0,0,0,-1,1602,904,0,0
385,120,0,0,0,0,0,0,0,0,0,-1,1609,904,0,0
392,120,0,0,0,0,0,0,0,0,0,-1,1616,904,0,0
399,120,0,0,0,0,0,0,0,0,0,-1,1623,904,0,0
406,120,0,0,0,0,0,0,0,0,0,-1,1630,904,0,0
413,120,0,0,0,0,0,0,0,0,0,-1,1637,904,0,0
420,120,0,0,0,0,0,0,0,0,0,-1,1644,904,0,0
427,120,0,0,0,0,0,0,0,0,0,-1,1651,904,0,0
434,120,0,0,0,0,0,0,0,0,0,-1,1658,904,0,0
441,120,0,0,0,0,0,0,0,0,0,-1,1665,904,0,0
448,120,0,0,0,0,0,0,0,0,0,-1,1672,904,0,0
455,120,0,0,0,0,0,0,0,0,0,-1,1679,904,0,0
462,120,0,0,0,0,0,0,0,0,0,-1,1686,904,0,0
469,120,0,0,0,0,0,0,0,0,0,-1,1693,904,0,0
476,120,0,0,0,0,0,0,0,0,0,-1,1700,904,0,0
483,120,0,0,0,0,0,0,0,0,0,-1,1707,904,0,0
490,120,0,0,0,0,0,0,0,0,0,-1,1714,904,0,0
497,120,0,0,0,0,0,0,0,0,0,-1,1721,904,0,0
504,120,0,0,0,0,0,0,0,0,0,-1,1728,904,0,0
511,120,0,0,0,0,0,0,0,0,0,-1,1735,904,0,0
518,120,0,0,0,0,0,0,0,0,0,-1,1742,904,0,0
525,120,0,0,0,0,0,0,0,0,0,-1,1749,904,0,0
532,120,0,0,0,0,0,0,0,0,0,-1,1756,904,0,0
539,120,0,0,0,0,0,0,0,0,0,-1,1763,904,0,0
546,120,0,0,0,0,0,0,0,0,0,-1,1770,904,0,0
553,120,0,0,0,0,0,0,0,0,0,-1,1777,904,0,0
560,120,0,0,0,0,0,0,0,0,0,-1,1784,904,0,0
567,120,0,0,0,0,0,0,0,0,0,-1,1791,904,0,0
574,120,0,0,0,0,0,0,0,0,0,-1,1798,904,0,0
581,120,0,0,0,0,0,0,0,0,0,-1,1805,904,0,0
588,120,0,0,0,0,0,0,0,0,0,-1,1812,904,0,0
595,120,0,0,0,0,0,0,0,0,0,-1,1819,904,0,0
602,120,0,0,0,0,0,0,0,0,0,-1,1826,904,0,0
609,120,0,0,0,0,0,0,0,0,0,-1,1833,904,0,0
616,120,0,0,0,0,0,0,0,0,0,-1,1840,904,0,0
623,120,0,0,0,0,0,0,0,0,0,-1,1847,904,0,0
630,120,-0.135742,0.195129,9.82544e-05,0.000402168,-0.00237509,0.00263015,-0.00212973,-0.817344,0.00275318,0.0370973,1854,904,-0.135686,-0.195135
637,120,-0.184937,-0.0310059,-0.000178891,9.77388e-05,-0.00173818,0.0017031,-0.00178425,-0.825102,0.00201361,0.0400992,1861,904,-0.184895,0.0310048
644,120,-0.050293,0.00610352,-0.000236318,-8.55685e-06,-0.00130477,0.00118729,-0.00143217,-0.828928,0.00151455,0.037481,1868,904,-0.0502321,-0.00612875
651,120,-0.102661,0.10614,-0.000249966,-3.82915e-06,-0.000988419,0.000869154,-0.00112295,-0.847335,0.00115325,0.0383954,1875,904,-0.102692,-0.106114
658,120,-0.0931396,0.0561523,-0.000224477,5.87697e-05,-0.000752424,0.000682783,-0.00084849,-0.878421,0.000885805,0.0379583,1882,904,-0.0931751,-0.0561367
665,120,-0.0681152,0.0545044,-0.000190457,0.000140083,-0.000581963,0.000579789,-0.000630162,-0.923749,0.000698767,0.0321422,1889,904,-0.0680631,-0.0544879
672,120,-0.106201,0.0233765,-0.000156878,0.000204911,-0.000447425,0.000506626,-0.000458593,-0.977503,0.0005575,0.0298281,1896,904,-0.106185,-0.0233905
679,120,-0.0856934,-0.0133667,-0.000109229,0.000267472,-0.000333235,0.000461903,-0.00030366,-1.04262,0.000445134,0.0240126,1903,904,-0.08572,0.013373
686,120,-0.0378418,0.0509644,-6.33201e-05,0.000294041,-0.000231383,0.000407704,-0.000176983,-1.11419,0.000346219,0.0122589,1910,904,-0.0377873,-0.0509505
693,120,-0.0288086,0.0379028,-1.52241e-05,0.000329766,-0.000175499,0.000403348,-8.8807e-05,-1.17378,0.000302873,0.0189272,1917,904,-0.0288109,-0.0379215
700,120,-0.0461426,0.0281372,2.56334e-05,0.000321017,-0.00013052,0.000370425,-2.37746e-05,-1.20892,0.000255244,0.0159733,1924,904,-0.0461331,-0.0281675
707,120,-0.036377,0.0491943,0.000123348,0.000293463,-0.000106188,0.000344459,7.23512e-05,-1.12308,0.000209725,0.0168377,1931,904,-0.0364186,-0.0491719
714,120,-0.0308838,0.0716553,0.00028267,0.000213985,-0.000126335,0.000379247,0.000117408,-0.652685,0.000224189,0.0141941,1938,904,-0.0308986,-0.0716414
721,120,-0.0289307,0.0768433,0.000321764,2.56768e-05,-3.626e-05,0.00032614,2.13009e-05,-0.120099,0.000210686,0.0120392,1945,904,-0.0289909,-0.0768468
728,120,-0.0233154,0.0614014,-6.04914e-05,-0.000876855,0.00031131,4.46748e-05,-0.000982021,0.325782,0.000670069,0.00858207,1952,904,-0.023359,-0.0614279
735,120,-0.0233154,0.0444336,-0.000317775,-0.00162294,0.000887144,0.000130954,-0.00207167,0.468287,0.00142677,0.0110203,1959,904,-0.0233615,-0.0444145
742,120,-0.0240479,0.0532837,-0.000217082,-0.0023605,0.00151124,0.000563887,-0.00314146,0.476976,0.00230537,0.0122583,1966,904,-0.0240922,-0.0533099
749,120,-0.0279541,0.0505981,-0.000130883,-0.00274344,0.0019429,0.000904037,-0.00377836,0.48944,0.00286814,0.0102664,1973,904,-0.027965,-0.0506082
756,120,-0.0299072,0.0505981,-0.000166428,-0.00362793,0.00270738,0.00131614,-0.0051105,0.501,0.00392006,0.0126009,1980,904,-0.0299018,-0.050591
763,120,-0.00927734,-0.019104,-0.000142414,-0.00459368,0.00368453,0.00193651,-0.0066726,0.513703,0.00521516,0.0207644,1987,904,-0.0092233,0.0191186
770,120,0.0192871,-0.117859,2.68997e-05,-0.00550416,0.00481531,0.00281433,-0.00829159,0.524736,0.00666687,0.0395729,1994,904,0.0192406,0.117876
777,120,-0.0701904,0.102295,0.000464624,-0.00617064,0.00601813,0.00401901,-0.00972502,0.533488,0.00815988,0.0475778,2001,904,-0.0702284,-0.102317
784,120,-0.218262,0.496521,0,0,0,0,0,0,0,-1,2008,904,-0.218284,-0.496548
791,120,-0.423462,0.921204,0,0,0,0,0,0,0,-1,2015,904,-0.423498,-0.921201
798,120,-0.60498,1.04199,0,0,0,0,0,0,0,-1,2022,904,-0.60496,-1.04197
805,120,0,0,0,0,0,0,0,0,0,-1,2029,904,0,0
812,120,0,0,0,0,0,0,0,0,0,-1,2036,904,0,0
-700,113,0,0,0,0,0,0,0,0,0,-1,524,911,0,0
-693,113,0,0,0,0,0,0,0,0,0,-1,531,911,0,0
-686,113,0,0,0,0,0,0,0,0,0,-1,538,911,0,0
-679,113,-0.602966,3.34528,0,0,0,0,0,0,0,-1,545,911,-0.602962,-3.34527
-672,113,-0.333069,3.98627,0.0520737,-0.0524403,-0.0104503,0.0531084,-0.053475,-0.0986871,0.0615361,0.04731,552,911,-0.333076,-3.98628
-665,113,0.30249,4.69958,0.0436488,-0.0334471,-0.0120628,0.0454921,-0.0352904,-0.151638,0.0467636,0.0426079,559,911,0.30252,-4.69958
-658,113,0.885437,4.85876,0.0354708,-0.0199314,-0.0120507,0.0379785,-0.022439,-0.205166,0.0352646,0.0428612,566,911,0.885448,-4.85877
-651,113,1.50275,5.08453,0,0,0,0,0,0,0,-1,573,911,1.50276,-5.08452
-644,113,-0.0615234,0.116394,0.021337,-0.00453787,-0.00943762,0.0244135,-0.00761436,-0.315119,0.0193206,0.0424499,580,911,-0.0614989,-0.116374
-637,113,0.0078125,0.0690918,0.0157418,-0.000910203,-0.00761011,0.0186957,-0.00386409,-0.370252,0.0139316,0.0334923,587,911,0.00781413,-0.0690938
-630,113,-0.0535278,0.00567627,0.0111871,0.00145812,-0.00579908,0.0138918,-0.00124658,-0.436409,0.00970345,0.0150074,594,911,-0.0535528,-0.00568588
-623,113,-0.0220337,0.0282593,0.00758566,0.00228952,-0.00436015,0.0100389,-0.000163699,-0.5125,0.00674782,0.00958927,601,911,-0.0220046,-0.0282839
-616,113,-0.00762939,0.0488281,0.00458656,0.00298942,-0.00322457,0.00710997,0.000466009,-0.664015,0.00459253,0.00858546,608,911,-0.00763393,-0.0488133
-609,113,-0.0307007,0.0704956,0.00229665,0.00334381,-0.0020359,0.00492237,0.000718083,-0.911258,0.00307034,0.0101224,615,911,-0.0307151,-0.0705082
-602,113,-0.069458,0.0961914,0.000888196,0.00286953,-0.000735505,0.00311272,0.000645012,-1.25148,0.00189705,0.0130097,622,911,-0.0694357,-0.096196
-595,113,-0.0453491,0.0921631,0.00040347,-0.000638125,-2.9276e-05,0.000404293,-0.000638947,-0.0280774,0.000607372,0.0152024,629,911,-0.0453439,-0.0921426
-588,113,-0.00695801,0.0427856,0.000149017,-0.000260943,8.49564e-05,0.000165926,-0.000277851,0.196455,0.000258917,0.016529,636,911,-0.00694606,-0.0427637
-581,113,-0.0112305,0.046936,0.000136037,-9.12566e-05,1.41847e-05,0.000136918,-9.21384e-05,0.0620862,0.000133086,0.0188101,643,911,-0.0112145,-0.0469478
-574,113,-0.0239868,0.0620117,0.00027128,-5.14563e-05,-5.86675e-05,0.000281614,-6.17901e-05,-0.174353,0.000211372,0.0156647,650,911,-0.0239827,-0.0620027
-567,113,-0.0215454,0.0670776,0.000505504,-4.98304e-05,-0.000173659,0.000555338,-9.96637e-05,-0.279451,0.000407529,0.0258357,657,911,-0.0215399,-0.0670875
-560,113,-0.0131226,0.144043,0.00077598,-7.66896e-05,-0.000218251,0.000828597,-0.000129307,-0.23657,0.000600162,0.0384155,664,911,-0.0131458,-0.144013
-553,113,-0.00683594,0.154968,0.001107,-9.88353e-05,-0.000213667,0.00114374,-0.000135576,-0.170289,0.000811473,0.0383523,671,911,-0.00686171,-0.154968
-546,113,-0.0574341,0.0330811,0.00152364,-0.000141895,-0.000228633,0.00155445,-0.00017271,-0.133972,0.00109841,0.0332073,678,911,-0.0574446,-0.0330635
-539,113,-0.0617676,0.108765,0.00207368,-0.000234502,-0.000229916,0.00209635,-0.000257181,-0.0983219,0.00149071,0.0307912,685,911,-0.0617479,-0.108766
-532,113,-0.0911255,0.0807495,0.00278517,-0.000393946,-0.000231327,0.00280191,-0.00041069,-0.0722575,0.00201881,0.0353824,692,911,-0.0911377,-0.0807289
-525,113,-0.0693359,0.0843506,0.00365272,-0.000644455,-0.000237765,0.00366583,-0.000657571,-0.0551063,0.00269,0.0367948,699,911,-0.0693198,-0.0843546
-518,113,-0.0440674,0.136353,0.0047208,-0.00101495,-0.000225122,0.00472962,-0.00102377,-0.0391687,0.00354398,0.0384128,706,911,-0.0440791,-0.136335
-511,113,-0.108337,0.113342,0.00598851,-0.00156989,-0.000195139,0.00599355,-0.00157492,-0.0257946,0.00461121,0.0397399,713,911,-0.108364,-0.113337
-504,113,0,0,0,0,0,0,0,0,0,-1,720,911,0,0
-497,113,0,0,0,0,0,0,0,0,0,-1,727,911,0,0
-490,113,0,0,0,0,0,0,0,0,0,-1,734,911,0,0
-483,113,0,0,0,0,0,0,0,0,0,-1,741,911,0,0
-476,113,0,0,0,0,0,0,0,0,0,-1,748,911,0,0
-469,113,0,0,0,0,0,0,0,0,0,-1,755,911,0,0
-462,113,0,0,0,0,0,0,0,0,0,-1,762,911,0,0
-455,113,0,0,0,0,0,0,0,0,0,-1,769,911,0,0
-448,113,0,0,0,0,0,0,0,0,0,-1,776,911,0,0
-441,113,0,0,0,0,0,0,0,0,0,-1,783,911,0,0
-434,113,0,0,0,0,0,0,0,0,0,-1,790,911,0,0
-427,113,0,0,0,0,0,0,0,0,0,-1,797,911,0,0
-420,113,0,0,0,0,0,0,0,0,0,-1,804,911,0,0
-413,113,0,0,0,0,0,0,0,0,0,-1,811,911,0,0
-406,113,0,0,0,0,0,0,0,0,0,-1,818,911,0,0
-399,113,0,0,0,0,0,0,0,0,0,-1,825,911,0,0
-392,113,0,0,0,0,0,0,0,0,0,-1,832,911,0,0
-385,113,0,0,0,0,0,0,0,0,0,-1,839,911,0,0
-378,113,0,0,0,0,0,0,0,0,0,-1,846,911,0,0
-371,113,0,0,0,0,0,0,0,0,0,-1,853,911,0,0
-364,113,0,0,0,0,0,0,0,0,0,-1,860,911,0,0
-357,113,0,0,0,0,0,0,0,0,0,-1,867,911,0,0
-350,113,0,0,0,0,0,0,0,0,0,-1,874,911,0,0
-343,113,0,0,0,0,0,0,0,0,0,-1,881,911,0,0
-336,113,0,0,0,0,0,0,0,0,0,-1,888,911,0,0
-329,113,0,0,0,0,0,0,0,0,0,-1,895,911,0,0
-322,113,0,0,0,0,0,0,0,0,0,-1,902,911,0,0
-315,113,0,0,0,0,0,0,0,0,0,-1,909,911,0,0
-308,113,0,0,0,0,0,0,0,0,0,-1,916,911,0,0
-301,113,0,0,0,0,0,0,0,0,0,-1,923,911,0,0
-294,113,0,0,0,0,0,0,0,0,0,-1,930,911,0,0
-287,113,0,0,0,0,0,0,0,0,0,-1,937,911,0,0
-280,113,0,0,0,0,0,0,0,0,0,-1,944,911,0,0
-273,113,0,0,0,0,0,0,0,0,0,-1,951,911,0,0
-266,113,0,0,0,0,0,0,0,0,0,-1,958,911,0,0
-259,113,0,0,0,0,0,0,0,0,0,-1,965,911,0,0
-252,113,0,0,0,0,0,0,0,0,0,-1,972,911,0,0
-245,113,0,0,0,0,0,0,0,0,0,-1,979,911,0,0
-238,113,0,0,0,0,0,0,0,0,0,-1,986,911,0,0
-231,113,0,0,0,0,0,0,0,0,0,-1,993,911,0,0
-224,113,0,0,0,0,0,0,0,0,0,-1,1000,911,0,0
-217,113,0,0,0,0,0,0,0,0,0,-1,1007,911,0,0
-210,113,0,0,0,0,0,0,0,0,0,-1,1014,911,0,0
-203,113,0,0,0,0,0,0,0,0,0,-1,1021,911,0,0
-196,113,0,0,0,0,0,0,0,0,0,-1,1028,911,0,0
-189,113,0,0,0,0,0,0,0,0,0,-1,1035,911,0,0
-182,113,0,0,0,0,0,0,0,0,0,-1,1042,911,0,0
-175,113,0,0,0,0,0,0,0,0,0,-1,1049,911,0,0
-168,113,0,0,0,0,0,0,0,0,0,-1,1056,911,0,0
-161,113,0,0,0,0,0,0,0,0,0,-1,1063,911,0,0
-154,113,0,0,0,0,0,0,0,0,0,-1,1070,911,0,0
-147,113,0,0,0,0,0,0,0,0,0,-1,1077,911,0,0
-140,113,0,0,0,0,0,0,0,0,0,-1,1084,911,0,0
-133,113,0,0,0,0,0,0,0,0,0,-1,1091,911,0,0
-126,113,0,0,0,0,0,0,0,0,0,-1,1098,911,0,0
-119,113,0,0,0,0,0,0,0,0,0,-1,1105,911,0,0
-112,113,0,0,0,0,0,0,0,0,0,-1,1112,911,0,0
-105,113,0,0,0,0,0,0,0,0,0,-1,1119,911,0,0
-98,113,0,0,0,0,0,0,0,0,0,-1,1126,911,0,0
-91,113,0,0,0,0,0,0,0,0,0,-1,1133,911,0,0
-84,113,0,0,0,0,0,0,0,0,0,-1,1140,911,0,0
-77,113,0,0,0,0,0,0,0,0,0,-1,1147,911,0,0
-70,113,0,0,0,0,0,0,0,0,0,-1,1154,911,0,0
-63,113,0,0,0,0,0,0,0,0,0,-1,1161,911,0,0
-56,113,0,0,0,0,0,0,0,0,0,-1,1168,911,0,0
-49,113,0,0,0,0,0,0,0,0,0,-1,1175,911,0,0
-42,113,0,0,0,0,0,0,0,0,0,-1,1182,911,0,0
-35,113,0,0,0,0,0,0,0,0,0,-1,1189,911,0,0
-28,113,0,0,0,0,0,0,0,0,0,-1,1196,911,0,0
-21,113,0,0,0,0,0,0,0,0,0,-1,1203,911,0,0
-14,113,0,0,0,0,0,0,0,0,0,-1,1210,911,0,0
-7,113,0,0,0,0,0,0,0,0,0,-1,1217,911,0,0
0,113,0,0,0,0,0,0,0,0,0,-1,1224,911,0,0
7,113,0,0,0,0,0,0,0,0,0,-1,1231,911,0,0
14,113,0,0,0,0,0,0,0,0,0,-1,1238,911,0,0
21,113,0,0,0,0,0,0,0,0,0,-1,1245,911,0,0
28,113,0,0,0,0,0,0,0,0,0,-1,1252,911,0,0
35,113,0,0,0,0,0,0,0,0,0,-1,1259,911,0,0
42,113,0,0,0,0,0,0,0,0,0,-1,1266,911,0,0
49,113,0,0,0,0,0,0,0,0,0,-1,1273,911,0,0
56,113,0,0,0,0,0,0,0,0,0,-1,1280,911,0,0
63,113,0,0,0,0,0,0,0,0,0,-1,1287,911,0,0
70,113,0,0,0,0,0,0,0,0,0,-1,1294,911,0,0
77,113,0,0,0,0,0,0,0,0,0,-1,1301,911,0,0
84,113,0,0,0,0,0,0,0,0,0,-1,1308,911,0,0
91,113,0,0,0,0,0,0,0,0,0,-1,1315,911,0,0
98,113,0,0,0,0,0,0,0,0,0,-1,1322,911,0,0
105,113,0,0,0,0,0,0,0,0,0,-1,1329,911,0,0
112,113,0,0,0,0,0,0,0,0,0,-1,1336,911,0,0
119,113,0,0,0,0,0,0,0,0,0,-1,1343,911,0,0
126,113,0,0,0,0,0,0,0,0,0,-1,1350,911,0,0
133,113,0,0,0,0,0,0,0,0,0,-1,1357,911,0,0
140,113,0,0,0,0,0,0,0,0,0,-1,1364,911,0,0
147,113,0,0,0,0,0,0,0,0,0,-1,1371,911,0,0
154,113,0,0,0,0,0,0,0,0,0,-1,1378,911,0,0
161,113,0,0,0,0,0,0,0,0,0,-1,1385,911,0,0
168,113,0,0,0,0,0,0,0,0,0,-1,1392,911,0,0
175,113,0,0,0,0,0,0,0,0,0,-1,1399,911,0,0
182,113,0,0,0,0,0,0,0,0,0,-1,1406,911,0,0
189,113,0,0,0,0,0,0,0,0,0,-1,1413,911,0,0
196,113,0,0,0,0,0,0,0,0,0,-1,1420,911,0,0
203,113,0,0,0,0,0,0,0,0,0,-1,1427,911,0,0
210,113,0,0,0,0,0,0,0,0,0,-1,1434,911,0,0
217,113,0,0,0,0,0,0,0,0,0,-1,1441,911,0,0
224,113,0,0,0,0,0,0,0,0,0,-1,1448,911,0,0
231,113,0,0,0,0,0,0,0,0,0,-1,1455,911,0,0
238,113,0,0,0,0,0,0,0,0,0,-1,1462,911,0,0
245,113,0,0,0,0,0,0,0,0,0,-1,1469,911,0,0
252,113,0,0,0,0,0,0,0,0,0,-1,1476,911,0,0
259,113,0,0,0,0,0,0,0,0,0,-1,1483,911,0,0
266,113,0,0,0,0,0,0,0,0,0,-1,1490,911,0,0
273,113,0,0,0,0,0,0,0,0,0,-1,1497,911,0,0
280,113,0,0,0,0,0,0,0,0,0,-1,1504,911,0,0
287,113,0,0,0,0,0,0,0,0,0,-1,1511,911,0,0
294,113,0,0,0,0,0,0,0,0,0,-1,1518,911,0,0
301,113,0,0,0,0,0,0,0,0,0,-1,1525,911,0,0
308,113,0,0,0,0,0,0,0,0,0,-1,1532,911,0,0
315,113,0,0,0,0,0,0,0,0,0,-1,1539,911,0,0
322,113,0,0,0,0,0,0,0,0,0,-1,1546,911,0,0
329,113,0,0,0,0,0,0,0,0,0,-1,1553,911,0,0
336,113,0,0,0,0,0,0,0,0,0,-1,1560,911,0,0
343,113,0,0,0,0,0,0,0,0,0,-1,1567,911,0,0
350,113,0,0,0,0,0,0,0,0,0,-1,1574,911,0,0
357,113,0,0,0,0,0,0,0,0,0,-1,1581,911,0,0
364,113,0,0,0,0,0,0,0,0,0,-1,1588,911,0,0
371,113,0,0,0,0,0,0,0,0,0,-1,1595,911,0,0
378,113,0,0,0,0,0,0,0,0,0,-1,1602,911,0,0
385,113,0,0,0,0,0,0,0,0,0,-1,1609,911,0,0
392,113,0,0,0,0,0,0,0,0,0,-1,1616,911,0,0
399,113,0,0,0,0,0,0,0,0,0,-1,1623,911,0,0
406,113,0,0,0,0,0,0,0,0,0,-1,1630,911,0,0
413,113,0,0,0,0,0,0,0,0,0,-1,1637,911,0,0
420,113,0,0,0,0,0,0,0,0,0,-1,1644,911,0,0
427,113,0,0,0,0,0,0,0,0,0,-1,1651,911,0,0
434,113,0,0,0,0,0,0,0,0,0,-1,1658,911,0,0
441,113,0,0,0,0,0,0,0,0,0,-1,1665,911,0,0
448,113,0,0,0,0,0,0,0,0,0,-1,1672,911,0,0
455,113,0,0,0,0,0,0,0,0,0,-1,1679,911,0,0
462,113,0,0,0,0,0,0,0,0,0,-1,1686,911,0,0
469,113,0,0,0,0,0,0,0,0,0,-1,1693,911,0,0
476,113,0,0,0,0,0,0,0,0,0,-1,1700,911,0,0
483,113,0,0,0,0,0,0,0,0,0,-1,1707,911,0,0
490,113,0,0,0,0,0,0,0,0,0,-1,1714,911,0,0
497,113,0,0,0,0,0,0,0,0,0,-1,1721,911,0,0
504,113,0,0,0,0,0,0,0,0,0,-1,1728,911,0,0
511,113,0,0,0,0,0,0,0,0,0,-1,1735,911,0,0
518,113,0,0,0,0,0,0,0,0,0,-1,1742,911,0,0
525,113,0,0,0,0,0,0,0,0,0,-1,1749,911,0,0
532,113,0,0,0,0,0,0,0,0,0,-1,1756,911,0,0
539,113,0,0,0,0,0,0,0,0,0,-1,1763,911,0,0
546,113,0,0,0,0,0,0,0,0,0,-1,1770,911,0,0
553,113,0,0,0,0,0,0,0,0,0,-1,1777,911,0,0
560,113,0,0,0,0,0,0,0,0,0,-1,1784,911,0,0
567,113,0,0,0,0,0,0,0,0,0,-1,1791,911,0,0
574,113,0,0,0,0,0,0,0,0,0,-1,1798,911,0,0
581,113,0,0,0,0,0,0,0,0,0,-1,1805,911,0,0
588,113,0,0,0,0,0,0,0,0,0,-1,1812,911,0,0
595,113,0,0,0,0,0,0,0,0,0,-1,1819,911,0,0
602,113,0,0,0,0,0,0,0,0,0,-1,1826,911,0,0
609,113,0,0,0,0,0,0,0,0,0,-1,1833,911,0,0
616,113,0,0,0,0,0,0,0,0,0,-1,1840,911,0,0
623,113,0,0,0,0,0,0,0,0,0,-1,1847,911,0,0
630,113,-0.00671387,-0.00872803,-0.000912422,0.00130826,-0.00248868,0.00292306,-0.00252722,-0.995224,0.00314948,0.0379827,1854,911,-0.00671113,0.0086986
637,113,-0.0394287,-0.0200195,-0.000904111,0.000767171,-0.00186424,0.00197449,-0.00211143,-0.996096,0.00235945,0.0368394,1861,911,-0.0394286,0.0199996
644,113,0.00439453,0.102661,-0.000740847,0.000498757,-0.00143083,0.00143825,-0.00168035,-0.989787,0.00180233,0.0363937,1868,911,0.00439613,-0.102666
651,113,-0.0494385,0.101685,-0.000583308,0.000387784,-0.00110708,0.00111111,-0.00130663,-0.992058,0.00139741,0.0377978,1875,911,-0.0494772,-0.101701
658,113,-0.108154,0.003479,-0.000429628,0.000367087,-0.000858376,0.000915037,-0.000977578,-1.00265,0.0010929,0.0395548,1882,911,-0.108139,-0.00348196
665,113,-0.105713,0.059082,-0.000302787,0.000387451,-0.000669717,0.000795743,-0.000711079,-1.02331,0.000870421,0.0327965,1889,911,-0.105774,-0.0590857
672,113,-0.081543,0.136658,-0.000197464,0.000406093,-0.000518763,0.000704468,-0.00049584,-1.04884,0.000696479,0.0310517,1896,911,-0.0815094,-0.136664
679,113,-0.0512695,0.0795898,-0.000107241,0.000427268,-0.000386618,0.000630011,-0.000309985,-1.08782,0.000553092,0.0295769,1903,911,-0.0512507,-0.0795802
686,113,-0.0412598,0.0164795,-3.96334e-05,0.000421454,-0.000263872,0.000541308,-0.000159488,-1.14444,0.000424151,0.0193931,1910,911,-0.0412844,-0.0164862
693,113,-0.0377197,0.0440674,1.792e-05,0.000440331,-0.00018512,0.000509976,-5.1725e-05,-1.21096,0.000358472,0.0148959,1917,911,-0.0377204,-0.0440677
700,113,-0.0229492,0.0513306,5.02654e-05,0.000411725,-0.000133909,0.000455928,6.0622e-06,-1.25196,0.000301951,0.0157167,1924,911,-0.0229076,-0.0513578
707,113,-0.0147705,0.0656128,0.000135107,0.000374322,-0.000109095,0.000416602,9.28262e-05,-1.20106,0.000252545,0.0159754,1931,911,-0.0147586,-0.0655925
714,113,-0.0344238,0.0546875,0.000259451,0.000301448,-0.000107637,0.000390115,0.000170784,-0.881734,0.000225814,0.0137561,1938,911,-0.0344717,-0.0546667
721,113,-0.0373535,0.0521851,0.000204332,0.000121735,-7.11737e-06,0.000204941,0.000121126,-0.0853318,0.000118975,0.0135,1945,911,-0.0373358,-0.0521807
728,113,-0.0238037,0.0578003,-0.000230174,-0.00063014,0.000291764,-7.64342e-05,-0.000783879,0.48496,0.000499063,0.0139578,1952,911,-0.0238407,-0.057808
735,113,-0.0355225,0.0516357,-0.000511106,-0.00119203,0.000707238,-6.66492e-05,-0.00163649,0.56107,0.00106947,0.0135221,1959,911,-0.035527,-0.0516435
742,113,-0.0432129,0.0533447,-0.000430519,-0.00155529,0.00113215,0.000271232,-0.00225704,0.55488,0.00160277,0.0112638,1966,911,-0.0432089,-0.0533478
749,113,-0.0388184,0.0643921,-0.000338791,-0.00155049,0.00133726,0.000523459,-0.00241274,0.572703,0.00180841,0.0087043,1973,911,-0.0388774,-0.0643748
756,113,-0.0219727,0.0527954,-0.000355703,-0.00187177,0.0017572,0.000799992,-0.00302747,0.581764,0.00233119,0.0103858,1980,911,-0.0219536,-0.0527882
763,113,-0.0164795,0.00231934,-0.000285423,-0.00213807,0.00231347,0.00128029,-0.00370378,0.594971,0.0029888,0.018995,1987,911,-0.0165392,-0.00232002
770,113,-0.11084,0.156982,-2.56078e-05,-0.00217941,0.00291068,0.00200101,-0.00420602,0.608216,0.00365823,0.0384029,1994,911,-0.110888,-0.156972
777,113,-0.253052,0.390686,0.000554791,-0.00181519,0.00345952,0.00302664,-0.00428704,0.620395,0.00424341,0.0449251,2001,911,-0.253013,-0.390712
784,113,-0.297241,0.631836,0.00165582,-0.000784285,0.0038227,0.00444845,-0.00357691,0.630928,0.00464254,0.0442064,2008,911,-0.297264,-0.63181
791,113,-0.32605,0.724487,0.00352791,0.00131309,0.00377939,0.00635879,-0.0015178,0.642881,0.00482536,0.04553,2015,911,-0.326059,-0.724459
798,113,-0.452637,0.656677,0.00654391,0.00510701,0.00299454,0.00890498,0.00274594,0.667663,0.00526567,0.0439527,2022,911,-0.452614,-0.656689
805,113,0,0,0,0,0,0,0,0,0,-1,2029,911,0,0
812,113,0,0,0,0,0,0,0,0,0,-1,2036,911,0,0
-700,106,0,0,0,0,0,0,0,0,0,-1,524,918,0,0
-693,106,0,0,0,0,0,0,0,0,0,-1,531,918,0,0
-686,106,0,0,0,0,0,0,0,0,0,-1,538,918,0,0
-679,106,0.188477,-1.84668,0,0,0,0,0,0,0,-1,545,918,0.188449,1.8467
-672,106,0.889404,4.2821,0.0509086,-0.0484208,-0.0128989,0.0525564,-0.0500685,-0.127053,0.0592563,0.047453,552,918,0.889411,-4.28212
-665,106,1.09949,4.90723,0.0430436,-0.0307203,-0.0138951,0.0455742,-0.0332509,-0.180149,0.0456947,0.0472426,559,918,1.09949,-4.90724
-658,106,1.83075,5.00964,0.0352187,-0.0179996,-0.0134825,0.0384395,-0.0212204,-0.234492,0.0349195,0.0439025,566,918,1.83074,-5.00965
-651,106,0.0806274,0.0292358,0,0,0,0,0,0,0,-1,573,918,0.0806193,-0.029234
-644,106,-0.303406,0.290588,0.021399,-0.00347037,-0.0103687,0.0251548,-0.00722612,-0.347521,0.0196271,0.0410233,580,918,-0.303435,-0.290561
-637,106,-0.119141,0.0965576,0.0158447,-0.000103537,-0.00835891,0.019423,-0.00368182,-0.404476,0.0143344,0.028566,587,918,-0.119138,-0.0965599
-630,106,-0.0494385,0.0440063,0.0113532,0.00218396,-0.00634642,0.0145977,-0.00106058,-0.472599,0.0101039,0.011001,594,918,-0.0494114,-0.044023
-623,106,-0.0154419,0.0497437,0.00774428,0.0028756,-0.00477655,0.010671,-5.11687e-05,-0.549732,0.00713115,0.00806318,601,918,-0.0154629,-0.0497401
-616,106,-0.0136108,0.0545044,0.00466604,0.00339088,-0.00357427,0.00765914,0.00039777,-0.697136,0.0049788,0.00862959,608,918,-0.0136369,-0.054507
-609,106,-0.0234985,0.0599976,0.00230894,0.00349846,-0.0022785,0.00525855,0.000548852,-0.913065,0.00333783,0.0101521,615,918,-0.0234808,-0.0599852
-602,106,-0.0268555,0.0569458,0.000947213,0.00280069,-0.000863516,0.00314064,0.00060726,-1.19575,0.00192356,0.0106842,622,918,-0.0268636,-0.0569331
-595,106,-0.0393677,0.0670166,0.000514637,-0.00045639,-0.000123534,0.000530107,-0.00047186,-0.124577,0.000578811,0.0133421,629,918,-0.0393604,-0.0669988
-588,106,-0.0321045,0.0682373,0.000215635,-0.000178958,1.36178e-05,0.000216105,-0.000179427,0.0344563,0.000228688,0.0144402,636,918,-0.032109,-0.068237
-581,106,-0.0233765,0.0656128,0.000166723,-3.96731e-05,-2.87209e-05,0.000170645,-4.35952e-05,-0.13572,0.000130741,0.0144394,643,918,-0.0233676,-0.0656308
-574,106,-0.0263062,0.0271606,0.000311972,1.2084e-05,-7.5183e-05,0.000329765,-5.70889e-06,-0.232386,0.000221771,0.0137888,650,918,-0.0263058,-0.0271766
-567,106,-0.017395,0.0667114,0.000564091,2.38662e-05,-0.000190145,0.000624306,-3.63484e-05,-0.306685,0.000428834,0.0226187,657,918,-0.0174114,-0.0666968
-560,106,-0.00219727,0.153015,0.00083607,1.42157e-05,-0.000242421,0.000902247,-5.19621e-05,-0.266494,0.000619546,0.0319919,664,918,-0.00221214,-0.153041
-553,106,-0.0152588,0.122803,0.00118307,2.13432e-07,-0.000245587,0.00123203,-4.8749e-05,-0.196789,0.000838079,0.0329408,671,918,-0.015231,-0.122823
-546,106,-0.0310669,0.0531006,0.00164169,-3.49711e-05,-0.00025018,0.00167823,-7.15053e-05,-0.145006,0.0011434,0.0334993,678,918,-0.0310423,-0.0530732
-539,106,0.0627441,0.104187,0.00226457,-0.000120091,-0.000239807,0.00228844,-0.000143967,-0.0992383,0.00157581,0.0350424,685,918,0.0627162,-0.104212
-532,106,0.135803,0.198059,0.00308612,-0.000277822,-0.000221105,0.0031006,-0.000292293,-0.065353,0.00217106,0.0375646,692,918,0.135817,-0.198079
-525,106,-0.0320435,0.0216675,0.00412235,-0.000543038,-0.000195401,0.00413052,-0.000551207,-0.0417857,0.0029546,0.0374768,699,918,-0.0320506,-0.0216387
-518,106,-0.0109863,-0.0268555,0.00544447,-0.000957467,-0.000124881,0.0054469,-0.000959902,-0.0194968,0.00398991,0.0379897,706,918,-0.0109813,0.0268574
-511,106,0,0,0,0,0,0,0,0,0,-1,713,918,0,0
-504,106,0,0,0,0,0,0,0,0,0,-1,720,918,0,0
-497,106,0,0,0,0,0,0,0,0,0,-1,727,918,0,0
-490,106,0,0,0,0,0,0,0,0,0,-1,734,918,0,0
-483,106,0,0,0,0,0,0,0,0,0,-1,741,918,0,0
-476,106,0,0,0,0,0,0,0,0,0,-1,748,918,0,0
-469,106,0,0,0,0,0,0,0,0,0,-1,755,918,0,0
-462,106,0,0,0,0,0,0,0,0,0,-1,762,918,0,0
-455,106,0,0,0,0,0,0,0,0,0,-1,769,918,0,0
-448,106,0,0,0,0,0,0,0,0,0,-1,776,918,0,0
-441,106,0,0,0,0,0,0,0,0,0,-1,783,918,0,0
-434,106,0,0,0,0,0,0,0,0,0,-1,790,918,0,0
-427,106,0,0,0,0,0,0,0,0,0,-1,797,918,0,0
-420,106,0,0,0,0,0,0,0,0,0,-1,804,918,0,0
-413,106,0,0,0,0,0,0,0,0,0,-1,811,918,0,0
-406,106,0,0,0,0,0,0,0,0,0,-1,818,918,0,0
-399,106,0,0,0,0,0,0,0,0,0,-1,825,918,0,0
-392,106,0,0,0,0,0,0,0,0,0,-1,832,918,0,0
-385,106,0,0,0,0,0,0,0,0,0,-1,839,918,0,0
-378,106,0,0,0,0,0,0,0,0,0,-1,846,918,0,0
-371,106,0,0,0,0,0,0,0,0,0,-1,853,918,0,0
-364,106,0,0,0,0,0,0,0,0,0,-1,860,918,0,0
-357,106,0,0,0,0,0,0,0,0,0,-1,867,918,0,0
-350,106,0,0,0,0,0,0,0,0,0,-1,874,918,0,0
-343,106,0,0,0,0,0,0,0,0,0,-1,881,918,0,0
-336,106,0,0,0,0,0,0,0,0,0,-1,888,918,0,0
-329,106,0,0,0,0,0,0,0,0,0,-1,895,918,0,0
-322,106,0,0,0,0,0,0,0,0,0,-1,902,918,0,0
-315,106,0,0,0,0,0,0,0,0,0,-1,909,918,0,0
-308,106,0,0,0,0,0,0,0,0,0,-1,916,918,0,0
-301,106,0,0,0,0,0,0,0,0,0,-1,923,918,0,0
-294,106,0,0,0,0,0,0,0,0,0,-1,930,918,0,0
-287,106,0,0,0,0,0,0,0,0,0,-1,937,918,0,0
-280,106,0,0,0,0,0,0,0,0,0,-1,944,918,0,0
-273,106,0,0,0,0,0,0,0,0,0,-1,951,918,0,0
-266,106,0,0,0,0,0,0,0,0,0,-1,958,918,0,0
-259,106,0,0,0,0,0,0,0,0,0,-1,965,918,0,0
-252,106,0,0,0,0,0,0,0,0,0,-1,972,918,0,0
-245,106,0,0,0,0,0,0,0,0,0,-1,979,918,0,0
-238,106,0,0,0,0,0,0,0,0,0,-1,986,918,0,0
-231,106,0,0,0,0,0,0,0,0,0,-1,993,918,0,0
-224,106,0,0,0,0,0,0,0,0,0,-1,1000,918,0,0
-217,106,0,0,0,0,0,0,0,0,0,-1,1007,918,0,0
-210,106,0,0,0,0,0,0,0,0,0,-1,1014,918,0,0
-203,106,0,0,0,0,0,0,0,0,0,-1,1021,918,0,0
-196,106,0,0,0,0,0,0,0,0,0,-1,1028,918,0,0
-189,106,0,0,0,0,0,0,0,0,0,-1,1035,918,0,0
-182,106,0,0,0,0,0,0,0,0,0,-1,1042,918,0,0
-175,106,0,0,0,0,0,0,0,0,0,-1,1049,918,0,0
-168,106,0,0,0,0,0,0,0,0,0,-1,1056,918,0,0
-161,106,0,0,0,0,0,0,0,0,0,-1,1063,918,0,0
-154,106,0,0,0,0,0,0,0,0,0,-1,1070,918,0,0
-147,106,0,0,0,0,0,0,0,0,0,-1,1077,918,0,0
-140,106,0,0,0,0,0,0,0,0,0,-1,1084,918,0,0
-133,106,0,0,0,0,0,0,0,0,0,-1,1091,918,0,0
-126,106,0,0,0,0,0,0,0,0,0,-1,1098,918,0,0
-119,106,0,0,0,0,0,0,0,0,0,-1,1105,918,0,0
-112,106,0,0,0,0,0,0,0,0,0,-1,1112,918,0,0
-105,106,0,0,0,0,0,0,0,0,0,-1,1119,918,0,0
-98,106,0,0,0,0,0,0,0,0,0,-1,1126,918,0,0
-91,106,0,0,0,0,0,0,0,0,0,-1,1133,918,0,0
-84,106,0,0,0,0,0,0,0,0,0,-1,1140,918,0,0
-77,106,0,0,0,0,0,0,0,0,0,-1,1147,918,0,0
-70,106,0,0,0,0,0,0,0,0,0,-1,1154,918,0,0
-63,106,0,0,0,0,0,0,0,0,0,-1,1161,918,0,0
-56,106,0,0,0,0,0,0,0,0,0,-1,1168,918,0,0
-49,106,0,0,0,0,0,0,0,0,0,-1,1175,918,0,0
-42,106,0,0,0,0,0,0,0,0,0,-1,1182,918,0,0
-35,106,0,0,0,0,0,0,0,0,0,-1,1189,918,0,0
-28,106,0,0,0,0,0,0,0,0,0,-1,1196,918,0,0
-21,106,0,0,0,0,0,0,0,0,0,-1,1203,918,0,0
-14,106,0,0,0,0,0,0,0,0,0,-1,1210,918,0,0
-7,106,0,0,0,0,0,0,0,0,0,-1,1217,918,0,0
0,106,0,0,0,0,0,0,0,0,0,-1,1224,918,0,0
7,106,0,0,0,0,0,0,0,0,0,-1,1231,918,0,0
14,106,0,0,0,0,0,0,0,0,0,-1,1238,918,0,0
21,106,0,0,0,0,0,0,0,0,0,-1,1245,918,0,0
28,106,0,0,0,0,0,0,0,0,0,-1,1252,918,0,0
35,106,0,0,0,0,0,0,0,0,0,-1,1259,918,0,0
42,106,0,0,0,0,0,0,0,0,0,-1,1266,918,0,0
49,106,0,0,0,0,0,0,0,0,0,-1,1273,918,0,0
56,106,0,0,0,0,0,0,0,0,0,-1,1280,918,0,0
63,106,0,0,0,0,0,0,0,0,0,-1,1287,918,0,0
70,106,0,0,0,0,0,0,0,0,0,-1,1294,918,0,0
77,106,0,0,0,0,0,0,0,0,0,-1,1301,918,0,0
84,106,0,0,0,0,0,0,0,0,0,-1,1308,918,0,0
91,106,0,0,0,0,0,0,0,0,0,-1,1315,918,0,0
98,106,0,0,0,0,0,0,0,0,0,-1,1322,918,0,0
105,106,0,0,0,0,0,0,0,0,0,-1,1329,918,0,0
112,106,0,0,0,0,0,0,0,0,0,-1,1336,918,0,0
119,106,0,0,0,0,0,0,0,0,0,-1,1343,918,0,0
126,106,0,0,0,0,0,0,0,0,0,-1,1350,918,0,0
133,106,0,0,0,0,0,0,0,0,0,-1,1357,918,0,0
140,106,0,0,0,0,0,0,0,0,0,-1,1364,918,0,0
147,106,0,0,0,0,0,0,0,0,0,-1,1371,918,0,0
154,106,0,0,0,0,0,0,0,0,0,-1,1378,918,0,0
161,106,0,0,0,0,0,0,0,0,0,-1,1385,918,0,0
168,106,0,0,0,0,0,0,0,0,0,-1,1392,918,0,0
175,106,0,0,0,0,0,0,0,0,0,-1,1399,918,0,0
182,106,0,0,0,0,0,0,0,0,0,-1,1406,918,0,0
189,106,0,0,0,0,0,0,0,0,0,-1,1413,918,0,0
196,106,0,0,0,0,0,0,0,0,0,-1,1420,918,0,0
203,106,0,0,0,0,0,0,0,0,0,-1,1427,918,0,0
210,106,0,0,0,0,0,0,0,0,0,-1,1434,918,0,0
217,106,0,0,0,0,0,0,0,0,0,-1,1441,918,0,0
224,106,0,0,0,0,0,0,0,0,0,-1,1448,918,0,0
231,106,0,0,0,0,0,0,0,0,0,-1,1455,918,0,0
238,106,0,0,0,0,0,0,0,0,0,-1,1462,918,0,0
245,106,0,0,0,0,0,0,0,0,0,-1,1469,918,0,0
252,106,0,0,0,0,0,0,0,0,0,-1,1476,918,0,0
259,106,0,0,0,0,0,0,0,0,0,-1,1483,918,0,0
266,106,0,0,0,0,0,0,0,0,0,-1,1490,918,0,0
273,106,0,0,0,0,0,0,0,0,0,-1,1497,918,0,0
280,106,0,0,0,0,0,0,0,0,0,-1,1504,918,0,0
287,106,0,0,0,0,0,0,0,0,0,-1,1511,918,0,0
294,106,0,0,0,0,0,0,0,0,0,-1,1518,918,0,0
301,106,0,0,0,0,0,0,0,0,0,-1,1525,918,0,0
308,106,0,0,0,0,0,0,0,0,0,-1,1532,918,0,0
315,106,0,0,0,0,0,0,0,0,0,-1,1539,918,0,0
322,106,0,0,0,0,0,0,0,0,0,-1,1546,918,0,0
329,106,0,0,0,0,0,0,0,0,0,-1,1553,918,0,0
336,106,0,0,0,0,0,0,0,0,0,-1,1560,918,0,0
343,106,0,0,0,0,0,0,0,0,0,-1,1567,918,0,0
350,106,0,0,0,0,0,0,0,0,0,-1,1574,918,0,0
357,106,0,0,0,0,0,0,0,0,0,-1,1581,918,0,0
364,106,0,0,0,0,0,0,0,0,0,-1,1588,918,0,0
371,106,0,0,0,0,0,0,0,0,0,-1,1595,918,0,0
378,106,0,0,0,0,0,0,0,0,0,-1,1602,918,0,0
385,106,0,0,0,0,0,0,0,0,0,-1,1609,918,0,0
392,106,0,0,0,0,0,0,0,0,0,-1,1616,918,0,0
399,106,0,0,0,0,0,0,0,0,0,-1,1623,918,0,0
406,106,0,0,0,0,0,0,0,0,0,-1,1630,918,0,0
413,106,0,0,0,0,0,0,0,0,0,-1,1637,918,0,0
420,106,0,0,0,0,0,0,0,0,0,-1,1644,918,0,0
427,106,0,0,0,0,0,0,0,0,0,-1,1651,918,0,0
434,106,0,0,0,0,0,0,0,0,0,-1,1658,918,0,0
441,106,0,0,0,0,0,0,0,0,0,-1,1665,918,0,0
448,106,0,0,0,0,0,0,0,0,0,-1,1672,918,0,0
455,106,0,0,0,0,0,0,0,0,0,-1,1679,918,0,0
462,106,0,0,0,0,0,0,0,0,0,-1,1686,918,0,0
469,106,0,0,0,0,0,0,0,0,0,-1,1693,918,0,0
476,106,0,0,0,0,0,0,0,0,0,-1,1700,918,0,0
483,106,0,0,0,0,0,0,0,0,0,-1,1707,918,0,0
490,106,0,0,0,0,0,0,0,0,0,-1,1714,918,0,0
497,106,0,0,0,0,0,0,0,0,0,-1,1721,918,0,0
504,106,0,0,0,0,0,0,0,0,0,-1,1728,918,0,0
511,106,0,0,0,0,0,0,0,0,0,-1,1735,918,0,0
518,106,0,0,0,0,0,0,0,0,0,-1,1742,918,0,0
525,106,0,0,0,0,0,0,0,0,0,-1,1749,918,0,0
532,106,0,0,0,0,0,0,0,0,0,-1,1756,918,0,0
539,106,0,0,0,0,0,0,0,0,0,-1,1763,918,0,0
546,106,0,0,0,0,0,0,0,0,0,-1,1770,918,0,0
553,106,0,0,0,0,0,0,0,0,0,-1,1777,918,0,0
560,106,0,0,0,0,0,0,0,0,0,-1,1784,918,0,0
567,106,0,0,0,0,0,0,0,0,0,-1,1791,918,0,0
574,106,0,0,0,0,0,0,0,0,0,-1,1798,918,0,0
581,106,0,0,0,0,0,0,0,0,0,-1,1805,918,0,0
588,106,0,0,0,0,0,0,0,0,0,-1,1812,918,0,0
595,106,0,0,0,0,0,0,0,0,0,-1,1819,918,0,0
602,106,0,0,0,0,0,0,0,0,0,-1,1826,918,0,0
609,106,0,0,0,0,0,0,0,0,0,-1,1833,918,0,0
616,106,0,0,0,0,0,0,0,0,0,-1,1840,918,0,0
623,106,0,0,0,0,0,0,0,0,0,-1,1847,918,0,0
630,106,0.0908203,-0.00854492,-0.00211377,0.00204328,-0.00247738,0.00319859,-0.00326908,-1.13444,0.00373419,0.0380563,1854,918,0.0908147,0.0085259
637,106,0.0854492,0.145386,-0.00176495,0.0013748,-0.00191807,0.00228353,-0.00267368,-1.12835,0.002865,0.0360255,1861,918,0.0854568,-0.145397
644,106,0.0623779,0.171387,-0.00136493,0.000993862,-0.00151434,0.0017339,-0.00210497,-1.11624,0.00221982,0.0329328,1868,918,0.0623821,-0.171394
651,106,-0.0219727,0.108948,-0.00102149,0.00078872,-0.0012,0.00138668,-0.00161945,-1.10851,0.00173732,0.0344004,1875,918,-0.021913,-0.10893
658,106,-0.0617676,0.0614624,-0.000729633,0.000684935,-0.000946675,0.00115936,-0.00120406,-1.10623,0.00136461,0.037225,1882,918,-0.061708,-0.0614329
665,106,-0.0821533,0.118713,-0.000501476,0.000634304,-0.000742287,0.00100102,-0.000868193,-1.11193,0.0010801,0.0342743,1889,918,-0.082117,-0.118728
672,106,-0.00109863,0.239807,-0.000314428,0.000599261,-0.000574406,0.000876344,-0.00059151,-1.12134,0.000852768,0.0327486,1896,918,-0.00112974,-0.239804
679,106,0.0126953,0.159241,-0.000177577,0.000563486,-0.000421909,0.000754471,-0.000368562,-1.14573,0.000661021,0.0307882,1903,918,0.0126839,-0.159268
686,106,-0.0159912,0.012146,-8.08924e-05,0.000517524,-0.000279897,0.000628033,-0.000191401,-1.19476,0.000494982,0.0216244,1910,918,-0.0159415,-0.0121306
693,106,-0.022583,0.0396729,5.13537e-06,0.000508938,-0.000176547,0.000564646,-5.05718e-05,-1.26515,0.00039437,0.0104779,1917,918,-0.022529,-0.039703
700,106,-0.0302734,0.0710449,5.05247e-05,0.000461546,-0.000116233,0.000492138,1.9932e-05,-1.31343,0.000321654,0.0156134,1924,918,-0.030259,-0.0710583
707,106,-0.0212402,0.0709839,0.000134899,0.000421471,-8.71448e-05,0.00044589,0.00011048,-1.29759,0.000268131,0.0176402,1931,918,-0.0212624,-0.0709999
714,106,-0.0466309,0.053772,0.000238991,0.000370075,-5.07617e-05,0.000387434,0.000221633,-1.2413,0.000224458,0.0131247,1938,918,-0.0466183,-0.0537706
721,106,-0.0356445,0.0477905,0.000140304,0.000211562,8.03008e-05,0.000263783,8.80831e-05,0.994196,0.00015507,0.0138175,1945,918,-0.0356878,-0.0477748
728,106,-0.027832,0.06427,-0.000255093,-0.000363438,0.000344411,3.93802e-05,-0.000657911,0.707393,0.000452306,0.0143255,1952,918,-0.0278488,-0.0642859
735,106,-0.0279541,0.0582886,-0.000438867,-0.000691337,0.000592905,4.10922e-05,-0.0011713,0.68051,0.000794916,0.0131368,1959,918,-0.0279317,-0.0583076
742,106,-0.0310059,0.0567627,-0.000262288,-0.00074223,0.00084281,0.000374048,-0.00137857,0.646705,0.00106583,0.0100255,1966,918,-0.030961,-0.0567398
749,106,-0.0263672,0.0568237,2.10911e-06,-0.000416831,0.000951142,0.000766574,-0.0011813,0.677013,0.00113307,0.0078797,1973,918,-0.0263956,-0.0568395
756,106,-0.0263672,0.0477905,0.000191164,-0.000251411,0.00112454,0.00111598,-0.00117623,0.688249,0.00132356,0.00873392,1980,918,-0.0263437,-0.0478102
763,106,-0.0349121,0.0571289,0.000543502,8.91056e-05,0.00137544,0.00171038,-0.00107777,0.703546,0.00162349,0.0150836,1987,918,-0.0349502,-0.0571155
770,106,-0.0808105,0.166687,0.0011662,0.000804243,0.0015881,0.0025836,-0.00061316,0.728664,0.00195904,0.0321206,1994,918,-0.0807809,-0.166659
777,106,-0.18457,0.309021,0.00219448,0.00207753,0.00167132,0.00380835,0.000463668,0.767911,0.00239932,0.040368,2001,918,-0.184523,-0.309021
784,106,-0.185059,0.344849,0.00382208,0.00415706,0.00150289,0.00550177,0.00247737,0.840891,0.00318168,0.0428107,2008,918,-0.185086,-0.344829
791,106,-0.0474854,0.226807,0.00627911,0.00739327,0.000891979,0.00788784,0.00578454,1.06453,0.00471647,0.0432953,2015,918,-0.0474614,-0.22681
798,106,0.013916,-0.0780029,0.00988045,0.0123263,-0.000422358,0.0123971,0.00980956,-1.40452,0.00755148,0.0411469,2022,918,0.0138949,0.0780001
805,106,0,0,0,0,0,0,0,0,0,-1,2029,918,0,0
812,106,0,0,0,0,0,0,0,0,0,-1,2036,918,0,0
-700,99,0,0,0,0,0,0,0,0,0,-1,524,925,0,0
-693,99,0,0,0,0,0,0,0,0,0,-1,531,925,0,0
-686,99,0,0,0,0,0,0,0,0,0,-1,538,925,0,0
-679,99,-0.523926,-1.21808,0,0,0,0,0,0,0,-1,545,925,-0.52392,1.21806
-672,99,0.109741,-1.0437,0,0,0,0,0,0,0,-1,552,925,0.109755,1.04372
-665,99,1.85913,5.12964,0,0,0,0,0,0,0,-1,559,925,1.85914,-5.12964
-658,99,2.16272,4.93109,0,0,0,0,0,0,0,-1,566,925,2.16271,-4.9311
-651,99,-0.537292,0.370667,0,0,0,0,0,0,0,-1,573,925,-0.537274,-0.370653
-644,99,-0.305054,0.237183,0.0203743,-0.00257277,-0.0114013,0.0250758,-0.00727429,-0.391121,0.0195973,0.0435765,580,925,-0.305053,-0.237167
-637,99,-0.0629272,0.0943604,0.0150341,0.000439713,-0.00908429,0.0193891,-0.00391529,-0.447031,0.0144095,0.0285128,587,925,-0.0629088,-0.0943686
-630,99,-0.034668,0.0514526,0.0107741,0.00259377,-0.00677968,0.0146019,-0.00123399,-0.513978,0.0101709,0.0122737,594,925,-0.0346391,-0.0514298
-623,99,-0.0198364,0.0494385,0.00732664,0.00315735,-0.00503966,0.0106958,-0.000211798,-0.58929,0.00720216,0.00660895,601,925,-0.0198656,-0.0494268
-616,99,-0.0227661,0.0455933,0.00433572,0.00353632,-0.00374567,0.00770295,0.000169088,-0.732245,0.00507988,0.00799631,608,925,-0.0227663,-0.0455972
-609,99,-0.0258789,0.0440674,0.00203114,0.00338966,-0.00236467,0.0051707,0.000250096,-0.925259,0.00336686,0.00926797,615,925,-0.0258943,-0.0440452
-602,99,-0.0233154,0.0482178,0.000781426,0.0025254,-0.000921336,0.00292196,0.000384863,-1.16434,0.00183321,0.00873641,622,925,-0.0233357,-0.0482162
-595,99,-0.0324097,0.0651245,0.00047818,-0.000265001,-0.000165846,0.00051351,-0.000300331,-0.209892,0.000475214,0.0117021,629,925,-0.0324372,-0.065098
-588,99,-0.041687,0.0793457,0.000202731,-2.96289e-05,1.46845e-06,0.000202741,-2.96382e-05,0.00631938,0.000146046,0.0113866,636,925,-0.0417068,-0.0793494
-581,99,-0.0315552,0.0736084,0.000170214,0.000116265,-3.66693e-05,0.000188762,9.77177e-05,-0.468284,0.000109004,0.010235,643,925,-0.0315454,-0.0735788
-574,99,-0.0247803,0.0441895,0.000352062,0.000221441,-7.4274e-05,0.000385656,0.000187847,-0.424762,0.000222684,0.0100214,650,925,-0.0248076,-0.0441708
-567,99,-0.0197754,0.0932007,0.000627748,0.000256288,-0.00018219,0.000702188,0.000181847,-0.387888,0.000420817,0.0216931,657,925,-0.0197585,-0.0932192
-560,99,0.00219727,0.13092,0.000903431,0.00026969,-0.000238905,0.000983402,0.000189719,-0.323013,0.000602403,0.0314193,664,925,0.00222368,-0.130938
-553,99,-0.0316772,0.0470581,0.00126213,0.000264343,-0.000254867,0.00132346,0.000203012,-0.23615,0.000823027,0.0343253,671,925,-0.0316595,-0.0470377
-546,99,-0.0764771,-0.0057373,0.00175258,0.000225047,-0.000269535,0.00179874,0.000178882,-0.169629,0.00114421,0.0367946,678,925,-0.0764795,0.00572353
-539,99,0.0323486,0.110474,0.00243008,0.000120329,-0.000276738,0.00246277,8.76347e-05,-0.117596,0.00161343,0.0363317,685,925,0.0323389,-0.110499
-532,99,0.0259399,0.0881348,0.00333175,-7.8558e-05,-0.000284752,0.00335537,-0.000102171,-0.082734,0.00227173,0.0373441,692,925,0.0259382,-0.0881436
-525,99,0.0393066,0.0325928,0.00448959,-0.000414752,-0.000299683,0.00450783,-0.000432996,-0.0608042,0.00315946,0.0388121,699,925,0.0393139,-0.0326009
-518,99,0.133301,-0.134827,0.00599264,-0.000930443,-0.000289992,0.00600477,-0.000942569,-0.04179,0.00435153,0.0391086,706,925,0.133303,0.134836
-511,99,0,0,0,0,0,0,0,0,0,-1,713,925,0,0
-504,99,0,0,0,0,0,0,0,0,0,-1,720,925,0,0
-497,99,0,0,0,0,0,0,0,0,0,-1,727,925,0,0
-490,99,0,0,0,0,0,0,0,0,0,-1,734,925,0,0
-483,99,0,0,0,0,0,0,0,0,0,-1,741,925,0,0
-476,99,0,0,0,0,0,0,0,0,0,-1,748,925,0,0
-469,99,0,0,0,0,0,0,0,0,0,-1,755,925,0,0
-462,99,0,0,0,0,0,0,0,0,0,-1,762,925,0,0
-455,99,0,0,0,0,0,0,0,0,0,-1,769,925,0,0
-448,99,0,0,0,0,0,0,0,0,0,-1,776,925,0,0
-441,99,0,0,0,0,0,0,0,0,0,-1,783,925,0,0
-434,99,0,0,0,0,0,0,0,0,0,-1,790,925,0,0
-427,99,0,0,0,0,0,0,0,0,0,-1,797,925,0,0
-420,99,0,0,0,0,0,0,0,0,0,-1,804,925,0,0
-413,99,0,0,0,0,0,0,0,0,0,-1,811,925,0,0
-406,99,0,0,0,0,0,0,0,0,0,-1,818,925,0,0
-399,99,0,0,0,0,0,0,0,0,0,-1,825,925,0,0
-392,99,0,0,0,0,0,0,0,0,0,-1,832,925,0,0
-385,99,0,0,0,0,0,0,0,0,0,-1,839,925,0,0
-378,99,0,0,0,0,0,0,0,0,0,-1,846,925,0,0
-371,99,0,0,0,0,0,0,0,0,0,-1,853,925,0,0
-364,99,0,0,0,0,0,0,0,0,0,-1,860,925,0,0
-357,99,0,0,0,0,0,0,0,0,0,-1,867,925,0,0
-350,99,0,0,0,0,0,0,0,0,0,-1,874,925,0,0
-343,99,0,0,0,0,0,0,0,0,0,-1,881,925,0,0
-336,99,0,0,0,0,0,0,0,0,0,-1,888,925,0,0
-329,99,0,0,0,0,0,0,0,0,0,-1,895,925,0,0
-322,99,0,0,0,0,0,0,0,0,0,-1,902,925,0,0
-315,99,0,0,0,0,0,0,0,0,0,-1,909,925,0,0
-308,99,0,0,0,0,0,0,0,0,0,-1,916,925,0,0
-301,99,0,0,0,0,0,0,0,0,0,-1,923,925,0,0
-294,99,0,0,0,0,0,0,0,0,0,-1,930,925,0,0
-287,99,0,0,0,0,0,0,0,0,0,-1,937,925,0,0
-280,99,0,0,0,0,0,0,0,0,0,-1,944,925,0,0
-273,99,0,0,0,0,0,0,0,0,0,-1,951,925,0,0
-266,99,0,0,0,0,0,0,0,0,0,-1,958,925,0,0
-259,99,0,0,0,0,0,0,0,0,0,-1,965,925,0,0
-252,99,0,0,0,0,0,0,0,0,0,-1,972,925,0,0
-245,99,0,0,0,0,0,0,0,0,0,-1,979,925,0,0
-238,99,0,0,0,0,0,0,0,0,0,-1,986,925,0,0
-231,99,0,0,0,0,0,0,0,0,0,-1,993,925,0,0
-224,99,0,0,0,0,0,0,0,0,0,-1,1000,925,0,0
-217,99,0,0,0,0,0,0,0,0,0,-1,1007,925,0,0
-210,99,0,0,0,0,0,0,0,0,0,-1,1014,925,0,0
-203,99,0,0,0,0,0,0,0,0,0,-1,1021,925,0,0
-196,99,0,0,0,0,0,0,0,0,0,-1,1028,925,0,0
-189,99,0,0,0,0,0,0,0,0,0,-1,1035,925,0,0
-182,99,0,0,0,0,0,0,0,0,0,-1,1042,925,0,0
-175,99,0,0,0,0,0,0,0,0,0,-1,1049,925,0,0
-168,99,0,0,0,0,0,0,0,0,0,-1,1056,925,0,0
-161,99,0,0,0,0,0,0,0,0,0,-1,1063,925,0,0
-154,99,0,0,0,0,0,0,0,0,0,-1,1070,925,0,0
-147,99,0,0,0,0,0,0,0,0,0,-1,1077,925,0,0
-140,99,0,0,0,0,0,0,0,0,0,-1,1084,925,0,0
-133,99,0,0,0,0,0,0,0,0,0,-1,1091,925,0,0
-126,99,0,0,0,0,0,0,0,0,0,-1,1098,925,0,0
-119,99,0,0,0,0,0,0,0,0,0,-1,1105,925,0,0
-112,99,0,0,0,0,0,0,0,0,0,-1,1112,925,0,0
-105,99,0,0,0,0,0,0,0,0,0,-1,1119,925,0,0
-98,99,0,0,0,0,0,0,0,0,0,-1,1126,925,0,0
-91,99,0,0,0,0,0,0,0,0,0,-1,1133,925,0,0
-84,99,0,0,0,0,0,0,0,0,0,-1,1140,925,0,0
-77,99,0,0,0,0,0,0,0,0,0,-1,1147,925,0,0
-70,99,0,0,0,0,0,0,0,0,0,-1,1154,925,0,0
-63,99,0,0,0,0,0,0,0,0,0,-1,1161,925,0,0
-56,99,0,0,0,0,0,0,0,0,0,-1,1168,925,0,0
-49,99,0,0,0,0,0,0,0,0,0,-1,1175,925,0,0
-42,99,0,0,0,0,0,0,0,0,0,-1,1182,925,0,0
-35,99,0,0,0,0,0,0,0,0,0,-1,1189,925,0,0
-28,99,0,0,0,0,0,0,0,0,0,-1,1196,925,0,0
-21,99,0,0,0,0,0,0,0,0,0,-1,1203,925,0,0
-14,99,0,0,0,0,0,0,0,0,0,-1,1210,925,0,0
-7,99,0,0,0,0,0,0,0,0,0,-1,1217,925,0,0
0,99,0,0,0,0,0,0,0,0,0,-1,1224,925,0,0
7,99,0,0,0,0,0,0,0,0,0,-1,1231,925,0,0
14,99,0,0,0,0,0,0,0,0,0,-1,1238,925,0,0
21,99,0,0,0,0,0,0,0,0,0,-1,1245,925,0,0
28,99,0,0,0,0,0,0,0,0,0,-1,1252,925,0,0
35,99,0,0,0,0,0,0,0,0,0,-1,1259,925,0,0
42,99,0,0,0,0,0,0,0,0,0,-1,1266,925,0,0
49,99,0,0,0,0,0,0,0,0,0,-1,1273,925,0,0
56,99,0,0,0,0,0,0,0,0,0,-1,1280,925,0,0
63,99,0,0,0,0,0,0,0,0,0,-1,1287,925,0,0
70,99,0,0,0,0,0,0,0,0,0,-1,1294,925,0,0
77,99,0,0,0,0,0,0,0,0,0,-1,1301,925,0,0
84,99,0,0,0,0,0,0,0,0,0,-1,1308,925,0,0
91,99,0,0,0,0,0,0,0,0,0,-1,1315,925,0,0
98,99,0,0,0,0,0,0,0,0,0,-1,1322,925,0,0
105,99,0,0,0,0,0,0,0,0,0,-1,1329,925,0,0
112,99,0,0,0,0,0,0,0,0,0,-1,1336,925,0,0
119,99,0,0,0,0,0,0,0,0,0,-1,1343,925,0,0
126,99,0,0,0,0,0,0,0,0,0,-1,1350,925,0,0
133,99,0,0,0,0,0,0,0,0,0,-1,1357,925,0,0
140,99,0,0,0,0,0,0,0,0,0,-1,1364,925,0,0
147,99,0,0,0,0,0,0,0,0,0,-1,1371,925,0,0
154,99,0,0,0,0,0,0,0,0,0,-1,1378,925,0,0
161,99,0,0,0,0,0,0,0,0,0,-1,1385,925,0,0
168,99,0,0,0,0,0,0,0,0,0,-1,1392,925,0,0
175,99,0,0,0,0,0,0,0,0,0,-1,1399,925,0,0
182,99,0,0,0,0,0,0,0,0,0,-1,1406,925,0,0
189,99,0,0,0,0,0,0,0,0,0,-1,1413,925,0,0
196,99,0,0,0,0,0,0,0,0,0,-1,1420,925,0,0
203,99,0,0,0,0,0,0,0,0,0,-1,1427,925,0,0
210,99,0,0,0,0,0,0,0,0,0,-1,1434,925,0,0
217,99,0,0,0,0,0,0,0,0,0,-1,1441,925,0,0
224,99,0,0,0,0,0,0,0,0,0,-1,1448,925,0,0
231,99,0,0,0,0,0,0,0,0,0,-1,1455,925,0,0
238,99,0,0,0,0,0,0,0,0,0,-1,1462,925,0,0
245,99,0,0,0,0,0,0,0,0,0,-1,1469,925,0,0
252,99,0,0,0,0,0,0,0,0,0,-1,1476,925,0,0
259,99,0,0,0,0,0,0,0,0,0,-1,1483,925,0,0
266,99,0,0,0,0,0,0,0,0,0,-1,1490,925,0,0
273,99,0,0,0,0,0,0,0,0,0,-1,1497,925,0,0
280,99,0,0,0,0,0,0,0,0,0,-1,1504,925,0,0
287,99,0,0,0,0,0,0,0,0,0,-1,1511,925,0,0
294,99,0,0,0,0,0,0,0,0,0,-1,1518,925,0,0
301,99,0,0,0,0,0,0,0,0,0,-1,1525,925,0,0
308,99,0,0,0,0,0,0,0,0,0,-1,1532,925,0,0
315,99,0,0,0,0,0,0,0,0,0,-1,1539,925,0,0
322,99,0,0,0,0,0,0,0,0,0,-1,1546,925,0,0
329,99,0,0,0,0,0,0,0,0,0,-1,1553,925,0,0
336,99,0,0,0,0,0,0,0,0,0,-1,1560,925,0,0
343,99,0,0,0,0,0,0,0,0,0,-1,1567,925,0,0
350,99,0,0,0,0,0,0,0,0,0,-1,1574,925,0,0
357,99,0,0,0,0,0,0,0,0,0,-1,1581,925,0,0
364,99,0,0,0,0,0,0,0,0,0,-1,1588,925,0,0
371,99,0,0,0,0,0,0,0,0,0,-1,1595,925,0,0
378,99,0,0,0,0,0,0,0,0,0,-1,1602,925,0,0
385,99,0,0,0,0,0,0,0,0,0,-1,1609,925,0,0
392,99,0,0,0,0,0,0,0,0,0,-1,1616,925,0,0
399,99,0,0,0,0,0,0,0,0,0,-1,1623,925,0,0
406,99,0,0,0,0,0,0,0,0,0,-1,1630,925,0,0
413,99,0,0,0,0,0,0,0,0,0,-1,1637,925,0,0
420,99,0,0,0,0,0,0,0,0,0,-1,1644,925,0,0
427,99,0,0,0,0,0,0,0,0,0,-1,1651,925,0,0
434,99,0,0,0,0,0,0,0,0,0,-1,1658,925,0,0
441,99,0,0,0,0,0,0,0,0,0,-1,1665,925,0,0
448,99,0,0,0,0,0,0,0,0,0,-1,1672,925,0,0
455,99,0,0,0,0,0,0,0,0,0,-1,1679,925,0,0
462,99,0,0,0,0,0,0,0,0,0,-1,1686,925,0,0
469,99,0,0,0,0,0,0,0,0,0,-1,1693,925,0,0
476,99,0,0,0,0,0,0,0,0,0,-1,1700,925,0,0
483,99,0,0,0,0,0,0,0,0,0,-1,1707,925,0,0
490,99,0,0,0,0,0,0,0,0,0,-1,1714,925,0,0
497,99,0,0,0,0,0,0,0,0,0,-1,1721,925,0,0
504,99,0,0,0,0,0,0,0,0,0,-1,1728,925,0,0
511,99,0,0,0,0,0,0,0,0,0,-1,1735,925,0,0
518,99,0,0,0,0,0,0,0,0,0,-1,1742,925,0,0
525,99,0,0,0,0,0,0,0,0,0,-1,1749,925,0,0
532,99,0,0,0,0,0,0,0,0,0,-1,1756,925,0,0
539,99,0,0,0,0,0,0,0,0,0,-1,1763,925,0,0
546,99,0,0,0,0,0,0,0,0,0,-1,1770,925,0,0
553,99,0,0,0,0,0,0,0,0,0,-1,1777,925,0,0
560,99,0,0,0,0,0,0,0,0,0,-1,1784,925,0,0
567,99,0,0,0,0,0,0,0,0,0,-1,1791,925,0,0
574,99,0,0,0,0,0,0,0,0,0,-1,1798,925,0,0
581,99,0,0,0,0,0,0,0,0,0,-1,1805,925,0,0
588,99,0,0,0,0,0,0,0,0,0,-1,1812,925,0,0
595,99,0,0,0,0,0,0,0,0,0,-1,1819,925,0,0
602,99,0,0,0,0,0,0,0,0,0,-1,1826,925,0,0
609,99,0,0,0,0,0,0,0,0,0,-1,1833,925,0,0
616,99,0,0,0,0,0,0,0,0,0,-1,1840,925,0,0
623,99,0,0,0,0,0,0,0,0,0,-1,1847,925,0,0
630,99,0,0,0,0,0,0,0,0,0,-1,1854,925,0,0
637,99,0.101929,0.165527,-0.00232796,0.00178464,-0.00191951,0.00254132,-0.00308465,-1.19529,0.0032532,0.0396149,1861,925,0.101882,-0.16552
644,99,-0.00244141,0.186035,-0.00181194,0.00135627,-0.00154219,0.00198299,-0.00243866,-1.1848,0.00255735,0.0323907,1868,925,-0.00242419,-0.186024
651,99,-0.0443115,0.165833,-0.00135336,0.00110694,-0.00124329,0.0016258,-0.00187222,-1.17544,0.00202125,0.0309985,1875,925,-0.0443349,-0.165825
658,99,-0.0500488,0.213684,-0.000969532,0.000955577,-0.000994593,0.00137712,-0.00139108,-1.16991,0.00159823,0.0329997,1882,925,-0.0500111,-0.213701
665,99,-0.0643311,0.149658,-0.000669197,0.000859491,-0.000784454,0.00119041,-0.00100011,-1.17161,0.00126628,0.0333243,1889,925,-0.0643886,-0.149671
672,99,-0.0367432,0.165833,-0.000428481,0.000789907,-0.000601342,0.00103671,-0.000675283,-1.18134,0.000995734,0.033698,1896,925,-0.0367695,-0.165811
679,99,-0.0333252,0.103394,-0.000255767,0.000707821,-0.000434335,0.000874697,-0.000422643,-1.20398,0.000764027,0.0316188,1903,925,-0.0333395,-0.103394
686,99,-0.02771,0.0627441,-0.000129752,0.000629466,-0.000286158,0.000725241,-0.000225526,-1.24782,0.000573642,0.0232576,1910,925,-0.0276623,-0.0627505
693,99,-0.0135498,0.0563354,-1.16083e-05,0.000589015,-0.000165081,0.000631397,-5.39902e-05,-1.31949,0.000440034,0.0133322,1917,925,-0.0135197,-0.0563603
700,99,-0.019165,0.0394287,5.08075e-05,0.000520203,-0.000100836,0.000540948,3.00628e-05,-1.3679,0.00035104,0.0147514,1924,925,-0.0191157,-0.0394505
707,99,-0.00939941,0.0679321,0.000127326,0.00046928,-7.27997e-05,0.000484134,0.000112472,-1.36953,0.000292562,0.0169336,1931,925,-0.00945836,-0.0679152
714,99,-0.0316162,0.0649414,0.000195747,0.000415775,-1.59654e-05,0.000416927,0.000194595,-1.49874,0.000240891,0.0130083,1938,925,-0.0315944,-0.0649583
721,99,-0.043335,0.057312,5.9314e-05,0.000269261,0.000130664,0.000331896,-3.32051e-06,1.1238,0.000222379,0.0156951,1945,925,-0.0432867,-0.0573348
728,99,-0.0218506,0.0599365,-0.000296821,-0.000153049,0.000330094,0.000112896,-0.000562766,0.892611,0.000417923,0.0141299,1952,925,-0.0218803,-0.059953
735,99,-0.0167236,0.0483398,-0.000409837,-0.000286893,0.000429433,8.54451e-05,-0.000782175,0.856489,0.00055214,0.0119713,1959,925,-0.0167768,-0.0483573
742,99,-0.0325928,0.0410156,-0.000185565,-0.000124303,0.00051887,0.00036484,-0.000674708,0.814881,0.000609006,0.00988135,1966,925,-0.032609,-0.0410118
749,99,-0.0393066,0.0387573,0.000192613,0.00044849,0.000525809,0.000861702,-0.000220598,0.904738,0.000660398,0.00809069,1973,925,-0.0392572,-0.0387525
756,99,-0.0429688,0.0256348,0.000551437,0.00103819,0.000532693,0.00138047,0.000209158,0.999679,0.000859125,0.00906547,1980,925,-0.042914,-0.0256584
763,99,-0.0317383,0.0376587,0.00111809,0.00185492,0.000558962,0.00215596,0.000817053,1.07677,0.00125684,0.0119658,1987,925,-0.0317192,-0.0376425
770,99,-0.0272217,0.122131,0.00202135,0.0031531,0.000516593,0.00335344,0.00182101,1.20085,0.0019385,0.0241106,1994,925,-0.0272677,-0.122108
777,99,-0.00390625,0.136108,0.00340102,0.00511709,0.000334437,0.00517996,0.00333815,1.38497,0.00303196,0.0386558,2001,925,-0.00393985,-0.136119
784,99,-0.0299072,-0.0115356,0.00544289,0.00798231,-6.81339e-05,0.00798414,0.00544107,-1.54399,0.00470978,0.0409142,2008,925,-0.0299462,0.0115098
791,99,0.0292969,-0.155212,0.0083617,0.0120629,-0.000822867,0.0122376,0.008187,-1.3616,0.00719868,0.042832,2015,925,0.0293531,0.155228
798,99,0.120239,-0.27063,0.0124258,0.0178308,-0.00207714,0.0185369,0.0117198,-1.24315,0.0108263,0.0420747,2022,925,0.120266,0.270646
805,99,0,0,0,0,0,0,0,0,0,-1,2029,925,0,0
812,99,0,0,0,0,0,0,0,0,0,-1,2036,925,0,0
-700,92,0,0,0,0,0,0,0,0,0,-1,524,932,0,0
-693,92,0,0,0,0,0,0,0,0,0,-1,531,932,0,0
-686,92,-1.92664,-0.812622,0.0527435,-0.0861826,-0.0192239,0.0553545,-0.0887936,-0.134996,0.0839671,0.0459824,538,932,-1.92663,0.812618
-679,92,-1.28131,-0.60437,0.0497607,-0.0591433,-0.021228,0.0537522,-0.0631348,-0.185862,0.0675572,0.043648,545,932,-1.28129,0.604382
-672,92,-0.667175,-0.380371,0.0443544,-0.0391746,-0.0212186,0.0494355,-0.0442556,-0.235035,0.0541201,0.0433131,552,932,-0.667187,0.380365
-665,92,-1.06287,0.0699463,0,0,0,0,0,0,0,-1,559,932,-1.06289,-0.0699474
-658,92,-0.49469,1.20221,0,0,0,0,0,0,0,-1,566,932,-0.49471,-1.20224
-651,92,-0.496765,0.24054,0,0,0,0,0,0,0,-1,573,932,-0.496794,-0.240541
-644,92,-0.269897,0.14325,0.0190457,-0.00178808,-0.0125901,0.0249696,-0.00771202,-0.439789,0.0197262,0.0423649,580,932,-0.269899,-0.143258
-637,92,-0.0357056,0.0512085,0.0140474,0.000830581,-0.00990624,0.0193472,-0.00446917,-0.491248,0.0146174,0.0234979,587,932,-0.0357186,-0.0512295
-630,92,-0.0241089,0.0551147,0.0101379,0.00281843,-0.00726214,0.0146103,-0.00165402,-0.551998,0.0103358,0.0113036,594,932,-0.0241027,-0.0551186
-623,92,-0.0155029,0.0527344,0.00692173,0.0032619,-0.00532476,0.0107222,-0.000538605,-0.61989,0.00733429,0.00780019,601,932,-0.015505,-0.0527045
-616,92,-0.0214844,0.0375366,0.00406329,0.00347161,-0.00391259,0.0076912,-0.000156306,-0.747663,0.00518036,0.00763619,608,932,-0.0214761,-0.0375395
-609,92,-0.0227661,0.0344238,0.00182354,0.00318876,-0.00245349,0.00505283,-4.05288e-05,-0.921077,0.00338214,0.00806369,615,932,-0.0227589,-0.0344084
-602,92,-0.020874,0.0527344,0.000666116,0.00217361,-0.00103398,0.00269941,0.000140315,-1.10035,0.0017547,0.00785723,622,932,-0.020902,-0.0527573
-595,92,-0.0181885,0.0749512,0.000458267,-0.000133381,-0.000264347,0.000559169,-0.000234283,-0.364633,0.000470726,0.0123274,629,932,-0.0181625,-0.074955
-588,92,-0.0172119,0.0731201,0.000226568,5.95791e-05,-6.81056e-05,0.000250822,3.53253e-05,-0.342118,0.000156772,0.013939,636,932,-0.0172128,-0.0731464
-581,92,-0.015564,0.0670776,0.000212814,0.000206952,-9.41346e-05,0.000304063,0.000115703,-0.769836,0.000177214,0.0113225,643,932,-0.0155633,-0.0670723
-574,92,-0.012146,0.0830078,0.000416116,0.00035107,-0.000130665,0.000518244,0.000248941,-0.663425,0.000299286,0.0132186,650,932,-0.0121414,-0.0830127
-567,92,-0.000610352,0.110229,0.000718109,0.000402314,-0.00022855,0.000838001,0.000282423,-0.483114,0.000492313,0.0247303,657,932,-0.000580494,-0.110234
-560,92,0.0394897,0.0562744,0.00101479,0.000442155,-0.000295786,0.00114013,0.000316809,-0.400832,0.000679565,0.0328899,664,932,0.0394744,-0.0562746
-553,92,-0.0469971,-0.0770264,0.00140983,0.000467364,-0.00033699,0.00151793,0.000359268,-0.310402,0.000915989,0.0343931,671,932,-0.0469863,0.0770075
-546,92,-0.048645,-0.086792,0.00196089,0.000447046,-0.000381177,0.00205145,0.000356485,-0.233257,0.00126565,0.0371969,678,932,-0.0486689,0.0867923
-539,92,-0.0594482,0.0125122,0.00272876,0.000352687,-0.000437458,0.00280675,0.000274706,-0.176406,0.00178665,0.0363121,685,932,-0.0594222,-0.0125396
-532,92,-0.0444336,-0.101868,0.00375454,0.000150801,-0.0005227,0.00382882,7.65175e-05,-0.141169,0.00252743,0.0375353,692,932,-0.0444411,0.101888
-525,92,0.0516357,-0.110107,0.00508955,-0.000207331,-0.0006598,0.0051705,-0.000288281,-0.122079,0.003547,0.0363354,699,932,0.0516273,0.110117
-518,92,0.168335,-0.074585,0.00685246,-0.000769269,-0.000844433,0.00694489,-0.000861705,-0.109031,0.00494227,0.0371269,706,932,0.168329,0.0745763
-511,92,0,0,0,0,0,0,0,0,0,-1,713,932,0,0
-504,92,0,0,0,0,0,0,0,0,0,-1,720,932,0,0
-497,92,0,0,0,0,0,0,0,0,0,-1,727,932,0,0
-490,92,0,0,0,0,0,0,0,0,0,-1,734,932,0,0
-483,92,0,0,0,0,0,0,0,0,0,-1,741,932,0,0
-476,92,0,0,0,0,0,0,0,0,0,-1,748,932,0,0
-469,92,0,0,0,0,0,0,0,0,0,-1,755,932,0,0
-462,92,0,0,0,0,0,0,0,0,0,-1,762,932,0,0
-455,92,0,0,0,0,0,0,0,0,0,-1,769,932,0,0
-448,92,0,0,0,0,0,0,0,0,0,-1,776,932,0,0
-441,92,0,0,0,0,0,0,0,0,0,-1,783,932,0,0
-434,92,0,0,0,0,0,0,0,0,0,-1,790,932,0,0
-427,92,0,0,0,0,0,0,0,0,0,-1,797,932,0,0
-420,92,0,0,0,0,0,0,0,0,0,-1,804,932,0,0
-413,92,0,0,0,0,0,0,0,0,0,-1,811,932,0,0
-406,92,0,0,0,0,0,0,0,0,0,-1,818,932,0,0
-399,92,0,0,0,0,0,0,0,0,0,-1,825,932,0,0
-392,92,0,0,0,0,0,0,0,0,0,-1,832,932,0,0
-385,92,0,0,0,0,0,0,0,0,0,-1,839,932,0,0
-378,92,0,0,0,0,0,0,0,0,0,-1,846,932,0,0
-371,92,0,0,0,0,0,0,0,0,0,-1,853,932,0,0
-364,92,0,0,0,0,0,0,0,0,0,-1,860,932,0,0
-357,92,0,0,0,0,0,0,0,0,0,-1,867,932,0,0
-350,92,0,0,0,0,0,0,0,0,0,-1,874,932,0,0
-343,92,0,0,0,0,0,0,0,0,0,-1,881,932,0,0
-336,92,0,0,0,0,0,0,0,0,0,-1,888,932,0,0
-329,92,0,0,0,0,0,0,0,0,0,-1,895,932,0,0
-322,92,0,0,0,0,0,0,0,0,0,-1,902,932,0,0
-315,92,0,0,0,0,0,0,0,0,0,-1,909,932,0,0
-308,92,0,0,0,0,0,0,0,0,0,-1,916,932,0,0
-301,92,0,0,0,0,0,0,0,0,0,-1,923,932,0,0
-294,92,0,0,0,0,0,0,0,0,0,-1,930,932,0,0
-287,92,0,0,0,0,0,0,0,0,0,-1,937,932,0,0
-280,92,0,0,0,0,0,0,0,0,0,-1,944,932,0,0
-273,92,0,0,0,0,0,0,0,0,0,-1,951,932,0,0
-266,92,0,0,0,0,0,0,0,0,0,-1,958,932,0,0
-259,92,0,0,0,0,0,0,0,0,0,-1,965,932,0,0
-252,92,0,0,0,0,0,0,0,0,0,-1,972,932,0,0
-245,92,0,0,0,0,0,0,0,0,0,-1,979,932,0,0
-238,92,0,0,0,0,0,0,0,0,0,-1,986,932,0,0
-231,92,0,0,0,0,0,0,0,0,0,-1,993,932,0,0
-224,92,0,0,0,0,0,0,0,0,0,-1,1000,932,0,0
-217,92,0,0,0,0,0,0,0,0,0,-1,1007,932,0,0
-210,92,0,0,0,0,0,0,0,0,0,-1,1014,932,0,0
-203,92,0,0,0,0,0,0,0,0,0,-1,1021,932,0,0
-196,92,0,0,0,0,0,0,0,0,0,-1,1028,932,0,0
-189,92,0,0,0,0,0,0,0,0,0,-1,1035,932,0,0
-182,92,0,0,0,0,0,0,0,0,0,-1,1042,932,0,0
-175,92,0,0,0,0,0,0,0,0,0,-1,1049,932,0,0
-168,92,0,0,0,0,0,0,0,0,0,-1,1056,932,0,0
-161,92,0,0,0,0,0,0,0,0,0,-1,1063,932,0,0
-154,92,0,0,0,0,0,0,0,0,0,-1,1070,932,0,0
-147,92,0,0,0,0,0,0,0,0,0,-1,1077,932,0,0
-140,92,0,0,0,0,0,0,0,0,0,-1,1084,932,0,0
-133,92,0,0,0,0,0,0,0,0,0,-1,1091,932,0,0
-126,92,0,0,0,0,0,0,0,0,0,-1,1098,932,0,0
-119,92,0,0,0,0,0,0,0,0,0,-1,1105,932,0,0
-112,92,0,0,0,0,0,0,0,0,0,-1,1112,932,0,0
-105,92,0,0,0,0,0,0,0,0,0,-1,1119,932,0,0
-98,92,0,0,0,0,0,0,0,0,0,-1,1126,932,0,0
-91,92,0,0,0,0,0,0,0,0,0,-1,1133,932,0,0
-84,92,0,0,0,0,0,0,0,0,0,-1,1140,932,0,0
-77,92,0,0,0,0,0,0,0,0,0,-1,1147,932,0,0
-70,92,0,0,0,0,0,0,0,0,0,-1,1154,932,0,0
-63,92,0,0,0,0,0,0,0,0,0,-1,1161,932,0,0
-56,92,0,0,0,0,0,0,0,0,0,-1,1168,932,0,0
-49,92,0,0,0,0,0,0,0,0,0,-1,1175,932,0,0
-42,92,0,0,0,0,0,0,0,0,0,-1,1182,932,0,0
-35,92,0,0,0,0,0,0,0,0,0,-1,1189,932,0,0
-28,92,0,0,0,0,0,0,0,0,0,-1,1196,932,0,0
-21,92,0,0,0,0,0,0,0,0,0,-1,1203,932,0,0
-14,92,0,0,0,0,0,0,0,0,0,-1,1210,932,0,0
-7,92,0,0,0,0,0,0,0,0,0,-1,1217,932,0,0
0,92,0,0,0,0,0,0,0,0,0,-1,1224,932,0,0
7,92,0,0,0,0,0,0,0,0,0,-1,1231,932,0,0
14,92,0,0,0,0,0,0,0,0,0,-1,1238,932,0,0
21,92,0,0,0,0,0,0,0,0,0,-1,1245,932,0,0
28,92,0,0,0,0,0,0,0,0,0,-1,1252,932,0,0
35,92,0,0,0,0,0,0,0,0,0,-1,1259,932,0,0
42,92,0,0,0,0,0,0,0,0,0,-1,1266,932,0,0
49,92,0,0,0,0,0,0,0,0,0,-1,1273,932,0,0
56,92,0,0,0,0,0,0,0,0,0,-1,1280,932,0,0
63,92,0,0,0,0,0,0,0,0,0,-1,1287,932,0,0
70,92,0,0,0,0,0,0,0,0,0,-1,1294,932,0,0
77,92,0,0,0,0,0,0,0,0,0,-1,1301,932,0,0
84,92,0,0,0,0,0,0,0,0,0,-1,1308,932,0,0
91,92,0,0,0,0,0,0,0,0,0,-1,1315,932,0,0
98,92,0,0,0,0,0,0,0,0,0,-1,1322,932,0,0
105,92,0,0,0,0,0,0,0,0,0,-1,1329,932,0,0
112,92,0,0,0,0,0,0,0,0,0,-1,1336,932,0,0
119,92,0,0,0,0,0,0,0,0,0,-1,1343,932,0,0
126,92,0,0,0,0,0,0,0,0,0,-1,1350,932,0,0
133,92,0,0,0,0,0,0,0,0,0,-1,1357,932,0,0
140,92,0,0,0,0,0,0,0,0,0,-1,1364,932,0,0
147,92,0,0,0,0,0,0,0,0,0,-1,1371,932,0,0
154,92,0,0,0,0,0,0,0,0,0,-1,1378,932,0,0
161,92,0,0,0,0,0,0,0,0,0,-1,1385,932,0,0
168,92,0,0,0,0,0,0,0,0,0,-1,1392,932,0,0
175,92,0,0,0,0,0,0,0,0,0,-1,1399,932,0,0
182,92,0,0,0,0,0,0,0,0,0,-1,1406,932,0,0
189,92,0,0,0,0,0,0,0,0,0,-1,1413,932,0,0
196,92,0,0,0,0,0,0,0,0,0,-1,1420,932,0,0
203,92,0,0,0,0,0,0,0,0,0,-1,1427,932,0,0
210,92,0,0,0,0,0,0,0,0,0,-1,1434,932,0,0
217,92,0,0,0,0,0,0,0,0,0,-1,1441,932,0,0
224,92,0,0,0,0,0,0,0,0,0,-1,1448,932,0,0
231,92,0,0,0,0,0,0,0,0,0,-1,1455,932,0,0
238,92,0,0,0,0,0,0,0,0,0,-1,1462,932,0,0
245,92,0,0,0,0,0,0,0,0,0,-1,1469,932,0,0
252,92,0,0,0,0,0,0,0,0,0,-1,1476,932,0,0
259,92,0,0,0,0,0,0,0,0,0,-1,1483,932,0,0
266,92,0,0,0,0,0,0,0,0,0,-1,1490,932,0,0
273,92,0,0,0,0,0,0,0,0,0,-1,1497,932,0,0
280,92,0,0,0,0,0,0,0,0,0,-1,1504,932,0,0
287,92,0,0,0,0,0,0,0,0,0,-1,1511,932,0,0
294,92,0,0,0,0,0,0,0,0,0,-1,1518,932,0,0
301,92,0,0,0,0,0,0,0,0,0,-1,1525,932,0,0
308,92,0,0,0,0,0,0,0,0,0,-1,1532,932,0,0
315,92,0,0,0,0,0,0,0,0,0,-1,1539,932,0,0
322,92,0,0,0,0,0,0,0,0,0,-1,1546,932,0,0
329,92,0,0,0,0,0,0,0,0,0,-1,1553,932,0,0
336,92,0,0,0,0,0,0,0,0,0,-1,1560,932,0,0
343,92,0,0,0,0,0,0,0,0,0,-1,1567,932,0,0
350,92,0,0,0,0,0,0,0,0,0,-1,1574,932,0,0
357,92,0,0,0,0,0,0,0,0,0,-1,1581,932,0,0
364,92,0,0,0,0,0,0,0,0,0,-1,1588,932,0,0
371,92,0,0,0,0,0,0,0,0,0,-1,1595,932,0,0
378,92,0,0,0,0,0,0,0,0,0,-1,1602,932,0,0
385,92,0,0,0,0,0,0,0,0,0,-1,1609,932,0,0
392,92,0,0,0,0,0,0,0,0,0,-1,1616,932,0,0
399,92,0,0,0,0,0,0,0,0,0,-1,1623,932,0,0
406,92,0,0,0,0,0,0,0,0,0,-1,1630,932,0,0
413,92,0,0,0,0,0,0,0,0,0,-1,1637,932,0,0
420,92,0,0,0,0,0,0,0,0,0,-1,1644,932,0,0
427,92,0,0,0,0,0,0,0,0,0,-1,1651,932,0,0
434,92,0,0,0,0,0,0,0,0,0,-1,1658,932,0,0
441,92,0,0,0,0,0,0,0,0,0,-1,1665,932,0,0
448,92,0,0,0,0,0,0,0,0,0,-1,1672,932,0,0
455,92,0,0,0,0,0,0,0,0,0,-1,1679,932,0,0
462,92,0,0,0,0,0,0,0,0,0,-1,1686,932,0,0
469,92,0,0,0,0,0,0,0,0,0,-1,1693,932,0,0
476,92,0,0,0,0,0,0,0,0,0,-1,1700,932,0,0
483,92,0,0,0,0,0,0,0,0,0,-1,1707,932,0,0
490,92,0,0,0,0,0,0,0,0,0,-1,1714,932,0,0
497,92,0,0,0,0,0,0,0,0,0,-1,1721,932,0,0
504,92,0,0,0,0,0,0,0,0,0,-1,1728,932,0,0
511,92,0,0,0,0,0,0,0,0,0,-1,1735,932,0,0
518,92,0,0,0,0,0,0,0,0,0,-1,1742,932,0,0
525,92,0,0,0,0,0,0,0,0,0,-1,1749,932,0,0
532,92,0,0,0,0,0,0,0,0,0,-1,1756,932,0,0
539,92,0,0,0,0,0,0,0,0,0,-1,1763,932,0,0
546,92,0,0,0,0,0,0,0,0,0,-1,1770,932,0,0
553,92,0,0,0,0,0,0,0,0,0,-1,1777,932,0,0
560,92,0,0,0,0,0,0,0,0,0,-1,1784,932,0,0
567,92,0,0,0,0,0,0,0,0,0,-1,1791,932,0,0
574,92,0,0,0,0,0,0,0,0,0,-1,1798,932,0,0
581,92,0,0,0,0,0,0,0,0,0,-1,1805,932,0,0
588,92,0,0,0,0,0,0,0,0,0,-1,1812,932,0,0
595,92,0,0,0,0,0,0,0,0,0,-1,1819,932,0,0
602,92,0,0,0,0,0,0,0,0,0,-1,1826,932,0,0
609,92,0,0,0,0,0,0,0,0,0,-1,1833,932,0,0
616,92,0,0,0,0,0,0,0,0,0,-1,1840,932,0,0
623,92,0,0,0,0,0,0,0,0,0,-1,1847,932,0,0
630,92,0,0,0,0,0,0,0,0,0,-1,1854,932,0,0
637,92,-0.0206299,0.245056,-0.00267327,0.00232565,-0.00160928,0.00279891,-0.00314654,-1.28478,0.00343456,0.0434552,1861,932,-0.0206331,-0.245043
644,92,-0.0739746,0.144348,-0.00209032,0.00180543,-0.00135058,0.00222785,-0.00251274,-1.26767,0.00273863,0.0369693,1868,932,-0.0740314,-0.14432
651,92,-0.0264893,0.251038,-0.00155441,0.00147278,-0.00113184,0.00184917,-0.0019308,-1.24976,0.00218253,0.0343833,1875,932,-0.0264368,-0.251068
658,92,-0.0177002,0.214539,-0.00111156,0.00124387,-0.000931055,0.00156745,-0.00143513,-1.23632,0.0017341,0.0373034,1882,932,-0.0176522,-0.214536
665,92,-0.0166016,0.0823975,-0.000768581,0.00107844,-0.000747037,0.00134276,-0.0010329,-1.23072,0.00137547,0.036435,1889,932,-0.0165488,-0.0823994
672,92,-0.0447998,0.0535889,-0.000498338,0.000950523,-0.000574189,0.00115048,-0.000698295,-1.23569,0.00107798,0.0350049,1896,932,-0.0447879,-0.053611
679,92,-0.0574951,0.0790405,-0.000302114,0.000826033,-0.000416209,0.000962966,-0.000439047,-1.25295,0.000828077,0.0314765,1903,932,-0.0575107,-0.0790704
686,92,-0.0158691,0.074707,-0.000155518,0.000712498,-0.000274295,0.000791911,-0.000234931,-1.28899,0.000621239,0.0231738,1910,932,-0.015889,-0.0747102
693,92,-0.0126953,0.0689087,-1.87368e-05,0.000632223,-0.000142953,0.000662232,-4.87463e-05,-1.36388,0.000458601,0.0136895,1917,932,-0.0126959,-0.0688851
700,92,-0.0233154,0.0296631,5.05046e-05,0.000532469,-8.02575e-05,0.000545482,3.74913e-05,-1.41005,0.000351824,0.0132963,1924,932,-0.0233414,-0.029679
707,92,-0.0335693,0.0518188,0.000123083,0.000462453,-5.968e-05,0.000472642,0.000112894,-1.4017,0.000285016,0.0146825,1931,932,-0.0336094,-0.0517907
714,92,-0.0506592,0.0549927,0.000176745,0.000397915,6.97482e-06,0.000398135,0.000176525,1.5393,0.000230354,0.0170467,1938,932,-0.0506531,-0.0549924
721,92,-0.0325928,0.0525513,2.79379e-05,0.000271043,0.000156225,0.000347434,-4.84525e-05,1.11601,0.000249347,0.0194285,1945,932,-0.0325421,-0.0525772
728,92,-0.041626,0.0616455,-0.000265875,5.78243e-05,0.000267816,0.000208898,-0.000416949,1.0572,0.000367928,0.0150889,1952,932,-0.0415893,-0.0616322
735,92,-0.0366211,0.0390625,-0.000284293,0.000115812,0.000181018,0.000185553,-0.000354033,1.20305,0.000316552,0.0135509,1959,932,-0.036674,-0.0390507
742,92,-0.0299072,0.0258179,9.21927e-06,0.000524502,8.32127e-05,0.000537606,-3.88542e-06,1.41459,0.000359706,0.0138944,1966,932,-0.0299043,-0.0258134
749,92,-0.0390625,0.0355225,0.000479662,0.00132152,-4.17742e-05,0.00132359,0.000477594,-1.52134,0.000773977,0.011829,1973,932,-0.0390802,-0.0355494
756,92,-0.0546875,0.0357666,0.00095578,0.00231117,-0.000264192,0.00236084,0.000906104,-1.38494,0.00137525,0.0114655,1980,932,-0.0546343,-0.0357752
763,92,-0.019165,0.0545044,0.00163189,0.00353589,-0.000535652,0.00367624,0.00149154,-1.31454,0.00213502,0.0141716,1987,932,-0.0191621,-0.0544969
770,92,-0.00830078,0.132385,0.0026745,0.00531936,-0.000903904,0.00559876,0.0023951,-1.27101,0.00324366,0.0231747,1994,932,-0.00831101,-0.132381
777,92,-0.0523682,0.272217,0.00417108,0.00780017,-0.00143967,0.00830192,0.00366933,-1.23544,0.00480386,0.0387267,2001,932,-0.0523522,-0.272216
784,92,-0.143188,0.41925,0.00626129,0.0111651,-0.002193,0.0120028,0.00542365,-1.20594,0.00694049,0.0419637,2008,932,-0.143197,-0.419244
791,92,-0.197754,0.431885,0.00908479,0.0156384,-0.00325604,0.016981,0.00774215,-1.17969,0.00981668,0.0408468,2015,932,-0.197805,-0.431892
798,92,0.3396,0.77655,0.0127708,0.0215336,-0.00470489,0.0235812,0.0107231,-1.1603,0.0136332,0.0442086,2022,932,0.339609,-0.776568
805,92,0,0,0,0,0,0,0,0,0,-1,2029,932,0,0
812,92,0,0,0,0,0,0,0,0,0,-1,2036,932,0,0
-700,85,0,0,0,0,0,0,0,0,0,-1,524,939,0,0
-693,85,0,0,0,0,0,0,0,0,0,-1,531,939,0,0
-686,85,-1.83319,-0.169617,0.0460126,-0.0755985,-0.0280451,0.0521685,-0.0817545,-0.216075,0.0779468,0.0423084,538,939,-1.8332,0.169591
-679,85,-1.73975,0.131958,0.0445058,-0.0518741,-0.0273953,0.0517485,-0.0591168,-0.258463,0.0640552,0.0419966,545,939,-1.73976,-0.131977
-672,85,-1.44568,0.382324,0.0403149,-0.0341712,-0.0254768,0.0481951,-0.0420515,-0.299977,0.0521441,0.0414352,552,939,-1.44567,-0.382316
-665,85,-1.02448,0.588867,0.0348475,-0.021029,-0.0228054,0.0429735,-0.0291551,-0.342294,0.0418974,0.0440666,559,939,-1.02448,-0.588891
-658,85,-0.476563,1.02905,0.0289057,-0.0115517,-0.0197088,0.0369195,-0.0195655,-0.386191,0.0331207,0.044346,566,939,-0.476582,-1.02907
-651,85,-0.345276,0.492798,0.023069,-0.00506586,-0.0164436,0.0306415,-0.0126383,-0.43156,0.0256981,0.042076,573,939,-0.345298,-0.492811
-644,85,0.0465698,0.0464478,0.0177057,-0.000979415,-0.0132191,0.0245504,-0.00782414,-0.477779,0.0195053,0.0330164,580,939,0.0465589,-0.0464696
-637,85,-0.00012207,0.0505371,0.0130493,0.00126906,-0.0102131,0.018949,-0.00463066,-0.523834,0.0144261,0.0157396,587,939,-0.000142999,-0.0505401
-630,85,-0.010376,0.0418091,0.00952816,0.00308237,-0.00727291,0.0142603,-0.00164975,-0.576832,0.0101018,0.00969836,594,939,-0.0103693,-0.0418216
-623,85,-0.0163574,0.0443726,0.00652792,0.00339319,-0.00520993,0.0104011,-0.00048003,-0.639284,0.00709951,0.00835968,601,939,-0.0163645,-0.0443852
-616,85,-0.0269165,0.0476685,0.00377942,0.00346984,-0.00374412,0.00737194,-0.000122684,-0.764739,0.00495603,0.00806846,608,939,-0.0269013,-0.0476968
-609,85,-0.0447388,0.0524292,0.00158656,0.00305816,-0.00231974,0.004756,-0.000111284,-0.938974,0.00320841,0.010877,615,939,-0.0447497,-0.0524084
-602,85,-0.0334473,0.0599365,0.000512243,0.00191327,-0.000997189,0.0024314,-5.89283e-06,-1.09159,0.0016229,0.0143568,622,939,-0.0334695,-0.0599387
-595,85,-0.00469971,0.0686035,0.00041257,4.16348e-05,-0.000280793,0.000563618,-0.000109414,-0.493533,0.000417029,0.0143558,629,939,-0.00472163,-0.0686089
-588,85,-0.0181885,0.0596924,0.000264321,0.000133677,-9.95388e-05,0.000318057,7.99406e-05,-0.495022,0.00019105,0.0132101,636,939,-0.0181815,-0.0597166
-581,85,-0.02771,0.0466309,0.000285724,0.000241076,-0.000121404,0.00038684,0.00013996,-0.694474,0.000226168,0.011233,643,939,-0.0276807,-0.046616
-574,85,-0.0210571,0.0970459,0.000521214,0.000380767,-0.000142326,0.000609698,0.000292283,-0.556221,0.000352109,0.0167122,650,939,-0.0210277,-0.0970362
-567,85,0.00634766,0.0991211,0.000863164,0.000426933,-0.000211212,0.000948668,0.000341429,-0.38466,0.000554834,0.0258996,657,939,0.00636331,-0.0990915
-560,85,0.0432739,0.0280762,0.00121337,0.000474064,-0.000259101,0.00129513,0.0003923,-0.305676,0.000766865,0.032368,664,939,0.0432863,-0.0280468
-553,85,0.0533447,-0.0548706,0.00168568,0.000508441,-0.000290461,0.00175344,0.000440676,-0.229202,0.00105326,0.0383459,671,939,0.0533163,0.054862
-546,85,0.0646973,-0.0890503,0.00234838,0.000494858,-0.000323257,0.00240313,0.000440099,-0.167804,0.0014774,0.0392807,678,939,0.0647044,0.0890629
-539,85,0.0595093,0.0311279,0.00326774,0.000409161,-0.000379262,0.00331721,0.000359698,-0.129686,0.00210186,0.035629,685,939,0.0595094,-0.0311041
-532,85,0.0090332,0.0333862,0.00449021,0.000219073,-0.000483306,0.00454422,0.000165066,-0.111282,0.00297598,0.0359779,692,939,0.00900853,-0.0333896
-525,85,0.0617065,-0.0529175,0.00608896,-0.000124264,-0.000674885,0.00616142,-0.000196726,-0.106959,0.00417473,0.0343679,699,939,0.0617322,0.0529317
-518,85,0.126953,-0.0274658,0.00821399,-0.000679104,-0.000981898,0.00832111,-0.000786227,-0.108667,0.00582719,0.0315437,706,939,0.126943,0.0274751
-511,85,0,0,0,0,0,0,0,0,0,-1,713,939,0,0
-504,85,0,0,0,0,0,0,0,0,0,-1,720,939,0,0
-497,85,0,0,0,0,0,0,0,0,0,-1,727,939,0,0
-490,85,0,0,0,0,0,0,0,0,0,-1,734,939,0,0
-483,85,0,0,0,0,0,0,0,0,0,-1,741,939,0,0
-476,85,0,0,0,0,0,0,0,0,0,-1,748,939,0,0
-469,85,0,0,0,0,0,0,0,0,0,-1,755,939,0,0
-462,85,0,0,0,0,0,0,0,0,0,-1,762,939,0,0
-455,85,0,0,0,0,0,0,0,0,0,-1,769,939,0,0
-448,85,0,0,0,0,0,0,0,0,0,-1,776,939,0,0
-441,85,0,0,0,0,0,0,0,0,0,-1,783,939,0,0
-434,85,0,0,0,0,0,0,0,0,0,-1,790,939,0,0
-427,85,0,0,0,0,0,0,0,0,0,-1,797,939,0,0
-420,85,0,0,0,0,0,0,0,0,0,-1,804,939,0,0
-413,85,0,0,0,0,0,0,0,0,0,-1,811,939,0,0
-406,85,0,0,0,0,0,0,0,0,0,-1,818,939,0,0
-399,85,0,0,0,0,0,0,0,0,0,-1,825,939,0,0
-392,85,0,0,0,0,0,0,0,0,0,-1,832,939,0,0
-385,85,0,0,0,0,0,0,0,0,0,-1,839,939,0,0
-378,85,0,0,0,0,0,0,0,0,0,-1,846,939,0,0
-371,85,0,0,0,0,0,0,0,0,0,-1,853,939,0,0
-364,85,0,0,0,0,0,0,0,0,0,-1,860,939,0,0
-357,85,0,0,0,0,0,0,0,0,0,-1,867,939,0,0
-350,85,0,0,0,0,0,0,0,0,0,-1,874,939,0,0
-343,85,0,0,0,0,0,0,0,0,0,-1,881,939,0,0
-336,85,0,0,0,0,0,0,0,0,0,-1,888,939,0,0
-329,85,0,0,0,0,0,0,0,0,0,-1,895,939,0,0
-322,85,0,0,0,0,0,0,0,0,0,-1,902,939,0,0
-315,85,0,0,0,0,0,0,0,0,0,-1,909,939,0,0
-308,85,0,0,0,0,0,0,0,0,0,-1,916,939,0,0
-301,85,0,0,0,0,0,0,0,0,0,-1,923,939,0,0
-294,85,0,0,0,0,0,0,0,0,0,-1,930,939,0,0
-287,85,0,0,0,0,0,0,0,0,0,-1,937,939,0,0
-280,85,0,0,0,0,0,0,0,0,0,-1,944,939,0,0
-273,85,0,0,0,0,0,0,0,0,0,-1,951,939,0,0
-266,85,0,0,0,0,0,0,0,0,0,-1,958,939,0,0
-259,85,0,0,0,0,0,0,0,0,0,-1,965,939,0,0
-252,85,0,0,0,0,0,0,0,0,0,-1,972,939,0,0
-245,85,0,0,0,0,0,0,0,0,0,-1,979,939,0,0
-238,85,0,0,0,0,0,0,0,0,0,-1,986,939,0,0
-231,85,0,0,0,0,0,0,0,0,0,-1,993,939,0,0
-224,85,0,0,0,0,0,0,0,0,0,-1,1000,939,0,0
-217,85,0,0,0,0,0,0,0,0,0,-1,1007,939,0,0
-210,85,0,0,0,0,0,0,0,0,0,-1,1014,939,0,0
-203,85,0,0,0,0,0,0,0,0,0,-1,1021,939,0,0
-196,85,0,0,0,0,0,0,0,0,0,-1,1028,939,0,0
-189,85,0,0,0,0,0,0,0,0,0,-1,1035,939,0,0
-182,85,0,0,0,0,0,0,0,0,0,-1,1042,939,0,0
-175,85,0,0,0,0,0,0,0,0,0,-1,1049,939,0,0
-168,85,0,0,0,0,0,0,0,0,0,-1,1056,939,0,0
-161,85,0,0,0,0,0,0,0,0,0,-1,1063,939,0,0
-154,85,0,0,0,0,0,0,0,0,0,-1,1070,939,0,0
-147,85,0,0,0,0,0,0,0,0,0,-1,1077,939,0,0
-140,85,0,0,0,0,0,0,0,0,0,-1,1084,939,0,0
-133,85,0,0,0,0,0,0,0,0,0,-1,1091,939,0,0
-126,85,0,0,0,0,0,0,0,0,0,-1,1098,939,0,0
-119,85,0,0,0,0,0,0,0,0,0,-1,1105,939,0,0
-112,85,0,0,0,0,0,0,0,0,0,-1,1112,939,0,0
-105,85,0,0,0,0,0,0,0,0,0,-1,1119,939,0,0
-98,85,0,0,0,0,0,0,0,0,0,-1,1126,939,0,0
-91,85,0,0,0,0,0,0,0,0,0,-1,1133,939,0,0
-84,85,0,0,0,0,0,0,0,0,0,-1,1140,939,0,0
-77,85,0,0,0,0,0,0,0,0,0,-1,1147,939,0,0
-70,85,0,0,0,0,0,0,0,0,0,-1,1154,939,0,0
-63,85,0,0,0,0,0,0,0,0,0,-1,1161,939,0,0
-56,85,0,0,0,0,0,0,0,0,0,-1,1168,939,0,0
-49,85,0,0,0,0,0,0,0,0,0,-1,1175,939,0,0
-42,85,0,0,0,0,0,0,0,0,0,-1,1182,939,0,0
-35,85,0,0,0,0,0,0,0,0,0,-1,1189,939,0,0
-28,85,0,0,0,0,0,0,0,0,0,-1,1196,939,0,0
-21,85,0,0,0,0,0,0,0,0,0,-1,1203,939,0,0
-14,85,0,0,0,0,0,0,0,0,0,-1,1210,939,0,0
-7,85,0,0,0,0,0,0,0,0,0,-1,1217,939,0,0
0,85,0,0,0,0,0,0,0,0,0,-1,1224,939,0,0
7,85,0,0,0,0,0,0,0,0,0,-1,1231,939,0,0
14,85,0,0,0,0,0,0,0,0,0,-1,1238,939,0,0
21,85,0,0,0,0,0,0,0,0,0,-1,1245,939,0,0
28,85,0,0,0,0,0,0,0,0,0,-1,1252,939,0,0
35,85,0,0,0,0,0,0,0,0,0,-1,1259,939,0,0
42,85,0,0,0,0,0,0,0,0,0,-1,1266,939,0,0
49,85,0,0,0,0,0,0,0,0,0,-1,1273,939,0,0
56,85,0,0,0,0,0,0,0,0,0,-1,1280,939,0,0
63,85,0,0,0,0,0,0,0,0,0,-1,1287,939,0,0
70,85,0,0,0,0,0,0,0,0,0,-1,1294,939,0,0
77,85,0,0,0,0,0,0,0,0,0,-1,1301,939,0,0
84,85,0,0,0,0,0,0,0,0,0,-1,1308,939,0,0
91,85,0,0,0,0,0,0,0,0,0,-1,1315,939,0,0
98,85,0,0,0,0,0,0,0,0,0,-1,1322,939,0,0
105,85,0,0,0,0,0,0,0,0,0,-1,1329,939,0,0
112,85,0,0,0,0,0,0,0,0,0,-1,1336,939,0,0
119,85,0,0,0,0,0,0,0,0,0,-1,1343,939,0,0
126,85,0,0,0,0,0,0,0,0,0,-1,1350,939,0,0
133,85,0,0,0,0,0,0,0,0,0,-1,1357,939,0,0
140,85,0,0,0,0,0,0,0,0,0,-1,1364,939,0,0
147,85,0,0,0,0,0,0,0,0,0,-1,1371,939,0,0
154,85,0,0,0,0,0,0,0,0,0,-1,1378,939,0,0
161,85,0,0,0,0,0,0,0,0,0,-1,1385,939,0,0
168,85,0,0,0,0,0,0,0,0,0,-1,1392,939,0,0
175,85,0,0,0,0,0,0,0,0,0,-1,1399,939,0,0
182,85,0,0,0,0,0,0,0,0,0,-1,1406,939,0,0
189,85,0,0,0,0,0,0,0,0,0,-1,1413,939,0,0
196,85,0,0,0,0,0,0,0,0,0,-1,1420,939,0,0
203,85,0,0,0,0,0,0,0,0,0,-1,1427,939,0,0
210,85,0,0,0,0,0,0,0,0,0,-1,1434,939,0,0
217,85,0,0,0,0,0,0,0,0,0,-1,1441,939,0,0
224,85,0,0,0,0,0,0,0,0,0,-1,1448,939,0,0
231,85,0,0,0,0,0,0,0,0,0,-1,1455,939,0,0
238,85,0,0,0,0,0,0,0,0,0,-1,1462,939,0,0
245,85,0,0,0,0,0,0,0,0,0,-1,1469,939,0,0
252,85,0,0,0,0,0,0,0,0,0,-1,1476,939,0,0
259,85,0,0,0,0,0,0,0,0,0,-1,1483,939,0,0
266,85,0,0,0,0,0,0,0,0,0,-1,1490,939,0,0
273,85,0,0,0,0,0,0,0,0,0,-1,1497,939,0,0
280,85,0,0,0,0,0,0,0,0,0,-1,1504,939,0,0
287,85,0,0,0,0,0,0,0,0,0,-1,1511,939,0,0
294,85,0,0,0,0,0,0,0,0,0,-1,1518,939,0,0
301,85,0,0,0,0,0,0,0,0,0,-1,1525,939,0,0
308,85,0,0,0,0,0,0,0,0,0,-1,1532,939,0,0
315,85,0,0,0,0,0,0,0,0,0,-1,1539,939,0,0
322,85,0,0,0,0,0,0,0,0,0,-1,1546,939,0,0
329,85,0,0,0,0,0,0,0,0,0,-1,1553,939,0,0
336,85,0,0,0,0,0,0,0,0,0,-1,1560,939,0,0
343,85,0,0,0,0,0,0,0,0,0,-1,1567,939,0,0
350,85,0,0,0,0,0,0,0,0,0,-1,1574,939,0,0
357,85,0,0,0,0,0,0,0,0,0,-1,1581,939,0,0
364,85,0,0,0,0,0,0,0,0,0,-1,1588,939,0,0
371,85,0,0,0,0,0,0,0,0,0,-1,1595,939,0,0
378,85,0,0,0,0,0,0,0,0,0,-1,1602,939,0,0
385,85,0,0,0,0,0,0,0,0,0,-1,1609,939,0,0
392,85,0,0,0,0,0,0,0,0,0,-1,1616,939,0,0
399,85,0,0,0,0,0,0,0,0,0,-1,1623,939,0,0
406,85,0,0,0,0,0,0,0,0,0,-1,1630,939,0,0
413,85,0,0,0,0,0,0,0,0,0,-1,1637,939,0,0
420,85,0,0,0,0,0,0,0,0,0,-1,1644,939,0,0
427,85,0,0,0,0,0,0,0,0,0,-1,1651,939,0,0
434,85,0,0,0,0,0,0,0,0,0,-1,1658,939,0,0
441,85,0,0,0,0,0,0,0,0,0,-1,1665,939,0,0
448,85,0,0,0,0,0,0,0,0,0,-1,1672,939,0,0
455,85,0,0,0,0,0,0,0,0,0,-1,1679,939,0,0
462,85,0,0,0,0,0,0,0,0,0,-1,1686,939,0,0
469,85,0,0,0,0,0,0,0,0,0,-1,1693,939,0,0
476,85,0,0,0,0,0,0,0,0,0,-1,1700,939,0,0
483,85,0,0,0,0,0,0,0,0,0,-1,1707,939,0,0
490,85,0,0,0,0,0,0,0,0,0,-1,1714,939,0,0
497,85,0,0,0,0,0,0,0,0,0,-1,1721,939,0,0
504,85,0,0,0,0,0,0,0,0,0,-1,1728,939,0,0
511,85,0,0,0,0,0,0,0,0,0,-1,1735,939,0,0
518,85,0,0,0,0,0,0,0,0,0,-1,1742,939,0,0
525,85,0,0,0,0,0,0,0,0,0,-1,1749,939,0,0
532,85,0,0,0,0,0,0,0,0,0,-1,1756,939,0,0
539,85,0,0,0,0,0,0,0,0,0,-1,1763,939,0,0
546,85,0,0,0,0,0,0,0,0,0,-1,1770,939,0,0
553,85,0,0,0,0,0,0,0,0,0,-1,1777,939,0,0
560,85,0,0,0,0,0,0,0,0,0,-1,1784,939,0,0
567,85,0,0,0,0,0,0,0,0,0,-1,1791,939,0,0
574,85,0,0,0,0,0,0,0,0,0,-1,1798,939,0,0
581,85,0,0,0,0,0,0,0,0,0,-1,1805,939,0,0
588,85,0,0,0,0,0,0,0,0,0,-1,1812,939,0,0
595,85,0,0,0,0,0,0,0,0,0,-1,1819,939,0,0
602,85,0,0,0,0,0,0,0,0,0,-1,1826,939,0,0
609,85,0,0,0,0,0,0,0,0,0,-1,1833,939,0,0
616,85,0,0,0,0,0,0,0,0,0,-1,1840,939,0,0
623,85,0,0,0,0,0,0,0,0,0,-1,1847,939,0,0
630,85,0,0,0,0,0,0,0,0,0,-1,1854,939,0,0
637,85,0.00109863,0.185852,-0.00301895,0.00316304,-0.00128272,0.00341863,-0.00327454,-1.37412,0.0038646,0.0433998,1861,939,0.00112163,-0.185832
644,85,-0.0321045,0.0807495,-0.00236865,0.00248176,-0.00109693,0.0027183,-0.00260519,-1.35841,0.00307375,0.039206,1868,939,-0.0321308,-0.080737
651,85,0.0585938,0.0715332,-0.0017496,0.00200088,-0.000941073,0.00222377,-0.00197249,-1.33824,0.00242416,0.0350855,1875,939,0.0585611,-0.071513
658,85,-0.0340576,0.138733,-0.00124568,0.00163902,-0.000782778,0.00183774,-0.0014444,-1.32218,0.00189947,0.0349775,1882,939,-0.0340769,-0.138735
665,85,-0.0413818,0.041626,-0.000858922,0.00135993,-0.000628719,0.00152569,-0.00102469,-1.31301,0.0014819,0.0361608,1889,939,-0.0413372,-0.0416563
672,85,-0.0395508,-0.0684204,-0.000558435,0.00114078,-0.000477185,0.00126561,-0.00068327,-1.31492,0.00114181,0.0360481,1896,939,-0.0395988,0.0684381
679,85,-0.0218506,-0.0300903,-0.000336232,0.000956911,-0.000336648,0.0010393,-0.000418623,-1.33077,0.000866787,0.0322196,1903,939,-0.0218005,0.0301053
686,85,-0.0141602,0.048584,-0.000169157,0.000790638,-0.000208894,0.000834131,-0.000212651,-1.36552,0.000638879,0.026457,1910,939,-0.0142028,-0.0485703
693,85,-0.0244141,0.0484009,-1.65943e-05,0.000659007,-7.65907e-05,0.000667581,-2.51683e-05,-1.45931,0.000453677,0.0164231,1917,939,-0.0244213,-0.0484306
700,85,-0.026001,0.017395,6.23332e-05,0.000525075,-2.58523e-05,0.000526515,6.08933e-05,-1.51516,0.000332576,0.0109284,1924,939,-0.0260196,-0.0174093
707,85,-0.0407715,0.0335083,0.000134592,0.000429444,-2.28153e-05,0.000431199,0.000132837,-1.49403,0.000254994,0.0139109,1931,939,-0.040831,-0.0335169
714,85,-0.0407715,0.0404663,0.000176926,0.000357647,4.60597e-05,0.000368709,0.000165864,1.3351,0.000213231,0.0210493,1938,939,-0.0407577,-0.0404695
721,85,-0.0255127,0.0250244,2.28787e-05,0.000256281,0.000190372,0.000362875,-8.37151e-05,1.06037,0.000274116,0.0181242,1945,939,-0.0255595,-0.0250134
728,85,-0.038208,0.0543823,-0.000175122,0.000157573,0.000245332,0.000287636,-0.000305186,1.08332,0.000342316,0.0145677,1952,939,-0.03825,-0.054406
735,85,-0.0467529,0.0454102,-9.65811e-05,0.000326301,2.86361e-05,0.000328231,-9.85114e-05,1.50349,0.000258005,0.0145134,1959,939,-0.0466957,-0.0454252
742,85,-0.0324707,0.0391235,0.000204503,0.00084932,-0.00022251,0.000918649,0.000135175,-1.26875,0.000572717,0.0130978,1966,939,-0.0325182,-0.0391394
749,85,-0.0379639,0.0432739,0.000720186,0.00171356,-0.000432364,0.00187538,0.000558362,-1.21266,0.00111189,0.0117846,1973,939,-0.0379659,-0.0432632
756,85,-0.0325928,0.0484619,0.00124515,0.00287873,-0.000832246,0.00322804,0.000895846,-1.17341,0.00192423,0.011143,1980,939,-0.0325417,-0.0484356
763,85,-0.0161133,0.0764771,0.00191854,0.00420848,-0.00134453,0.0048295,0.00129752,-1.1381,0.00288608,0.0115614,1987,939,-0.0161343,-0.0764828
770,85,-0.0241699,0.109497,0.00295032,0.00612656,-0.00196369,0.00706395,0.00201293,-1.12542,0.00420222,0.0170574,1994,939,-0.0241157,-0.109476
777,85,-0.101563,0.176331,0.00435521,0.00869991,-0.00277644,0.0100529,0.00300226,-1.11736,0.00595883,0.036976,2001,939,-0.101503,-0.176343
784,85,-0.145996,0.371033,0.00621718,0.012069,-0.00381082,0.0139476,0.00433857,-1.11279,0.00824204,0.04206,2008,939,-0.146047,-0.37106
791,85,0.0482178,0.384216,0.00859845,0.0163831,-0.00513168,0.0189316,0.00604994,-1.10985,0.0111649,0.0426626,2015,939,0.0482597,-0.384208
798,85,0.152466,0.369263,0.0115187,0.0218362,-0.00677927,0.0251963,0.0081586,-1.11064,0.0148451,0.0425648,2022,939,0.152418,-0.369289
805,85,0.193359,0.350708,0,0,0,0,0,0,0,-1,2029,939,0.19338,-0.350708
812,85,0,0,0,0,0,0,0,0,0,-1,2036,939,0,0
-700,78,0,0,0,0,0,0,0,0,0,-1,524,946,0,0
-693,78,0,0,0,0,0,0,0,0,0,-1,531,946,0,0
-686,78,-0.30426,1.89435,0,0,0,0,0,0,0,-1,538,946,-0.304249,-1.89437
-679,78,-2.52063,0.752869,0,0,0,0,0,0,0,-1,545,946,-2.52064,-0.752845
-672,78,-1.72992,1.0387,0.0384023,-0.0311552,-0.0304195,0.0498286,-0.0425815,-0.359318,0.0534076,0.0445122,552,946,-1.7299,-1.03869
-665,78,-0.958374,1.14667,0.0333426,-0.0193643,-0.026374,0.0442731,-0.0302948,-0.392894,0.0433032,0.045036,559,946,-0.95836,-1.14666
-658,78,-0.456482,0.939819,0.0276928,-0.0108176,-0.0221991,0.037824,-0.0209489,-0.428148,0.0343956,0.0456715,566,946,-0.456455,-0.939838
-651,78,-0.185303,0.501892,0.0220813,-0.00493704,-0.0181047,0.0311614,-0.0140172,-0.464875,0.0267026,0.0428805,573,946,-0.185328,-0.501887
-644,78,0.019043,0.065979,0.0168996,-0.00120274,-0.0142655,0.0247431,-0.00904622,-0.502705,0.0201978,0.0245761,580,946,0.0190585,-0.0659773
-637,78,-0.00372314,0.048645,0.0124043,0.000883691,-0.0108269,0.0189078,-0.00561986,-0.540924,0.0148376,0.0116302,587,946,-0.00374564,-0.0486753
-630,78,-0.00134277,0.0401001,0.00912063,0.00266294,-0.00753511,0.0140895,-0.00230598,-0.58298,0.0102485,0.0107293,594,946,-0.00136539,-0.0400958
-623,78,-0.0189209,0.0450439,0.00616047,0.00297694,-0.00527367,0.0100774,-0.000939951,-0.638829,0.00705247,0.0105087,601,946,-0.0189358,-0.045044
-616,78,-0.0461426,0.0558472,0.00350235,0.0031323,-0.00365235,0.00697435,-0.000339709,-0.76009,0.00476684,0.00932204,608,946,-0.0461179,-0.0558723
-609,78,-0.0501709,0.062561,0.00134428,0.00275626,-0.00215346,0.0043165,-0.00021597,-0.943797,0.00295229,0.0107178,615,946,-0.0501451,-0.0625643
-602,78,-0.0393677,0.0524292,0.000336494,0.00160083,-0.000939064,0.00210069,-0.000163361,-1.08165,0.00145797,0.0147307,622,946,-0.0393923,-0.0524421
-595,78,-0.0203857,0.0556641,0.000343709,0.000196868,-0.00026829,0.000548444,-7.86615e-06,-0.651838,0.000368279,0.0138412,629,946,-0.020377,-0.0556899
-588,78,-0.0275879,0.0722656,0.000293146,0.000228866,-8.10655e-05,0.00034821,0.000173802,-0.596669,0.000201039,0.0116257,636,946,-0.0275681,-0.0722383
-581,78,-0.03125,0.0632324,0.000355824,0.000328567,-0.000105186,0.000448261,0.000236131,-0.720973,0.000258927,0.0123261,643,946,-0.0312275,-0.0632517
-574,78,-0.0280151,0.0653687,0.000608255,0.00048058,-0.000125298,0.000685041,0.000403794,-0.549796,0.000397613,0.0166016,650,946,-0.0280271,-0.0653489
-567,78,-0.0137939,0.0986328,0.000981928,0.000538681,-0.000169121,0.00103908,0.000481524,-0.325916,0.000600451,0.0257266,657,946,-0.0138206,-0.0986599
-560,78,0.0210571,0.0554199,0.00139105,0.000604382,-0.00019043,0.00143473,0.000560709,-0.22544,0.000834898,0.0307918,664,946,0.0210849,-0.0554349
-553,78,0.0454102,-0.00927734,0.00194283,0.000650336,-0.000196144,0.00197194,0.000621225,-0.147338,0.00116418,0.0405633,671,946,0.0453974,0.00927527
-546,78,0.0166016,-0.0731812,0.0027197,0.000650706,-0.00020356,0.00273954,0.000630869,-0.0971446,0.00165661,0.0406824,678,946,0.016575,0.0731562
-539,78,-0.00177002,0.0691528,0.003783,0.00058563,-0.0002379,0.00380061,0.000568026,-0.0738627,0.00236722,0.0362712,685,946,-0.00178993,-0.0691704
-532,78,-0.0927124,0.135986,0.00517902,0.000427685,-0.000328371,0.0052016,0.000405098,-0.0686762,0.0033409,0.0368945,692,946,-0.0927046,-0.135982
-525,78,-0.0144653,0.107971,0.00699169,0.00013188,-0.000522622,0.00703128,9.22915e-05,-0.0756046,0.00465706,0.0362902,699,946,-0.0144602,-0.107974
-518,78,0.114136,0.124207,0.00938344,-0.000362798,-0.000881426,0.00946251,-0.00044187,-0.0894703,0.00646067,0.0357043,706,946,0.114122,-0.124237
-511,78,0,0,0,0,0,0,0,0,0,-1,713,946,0,0
-504,78,0,0,0,0,0,0,0,0,0,-1,720,946,0,0
-497,78,0,0,0,0,0,0,0,0,0,-1,727,946,0,0
-490,78,0,0,0,0,0,0,0,0,0,-1,734,946,0,0
-483,78,0,0,0,0,0,0,0,0,0,-1,741,946,0,0
-476,78,0,0,0,0,0,0,0,0,0,-1,748,946,0,0
-469,78,0,0,0,0,0,0,0,0,0,-1,755,946,0,0
-462,78,0,0,0,0,0,0,0,0,0,-1,762,946,0,0
-455,78,0,0,0,0,0,0,0,0,0,-1,769,946,0,0
-448,78,0,0,0,0,0,0,0,0,0,-1,776,946,0,0
-441,78,0,0,0,0,0,0,0,0,0,-1,783,946,0,0
-434,78,0,0,0,0,0,0,0,0,0,-1,790,946,0,0
-427,78,0,0,0,0,0,0,0,0,0,-1,797,946,0,0
-420,78,0,0,0,0,0,0,0,0,0,-1,804,946,0,0
-413,78,0,0,0,0,0,0,0,0,0,-1,811,946,0,0
-406,78,0,0,0,0,0,0,0,0,0,-1,818,946,0,0
-399,78,0,0,0,0,0,0,0,0,0,-1,825,946,0,0
-392,78,0,0,0,0,0,0,0,0,0,-1,832,946,0,0
-385,78,0,0,0,0,0,0,0,0,0,-1,839,946,0,0
-378,78,0,0,0,0,0,0,0,0,0,-1,846,946,0,0
-371,78,0,0,0,0,0,0,0,0,0,-1,853,946,0,0
-364,78,0,0,0,0,0,0,0,0,0,-1,860,946,0,0
-357,78,0,0,0,0,0,0,0,0,0,-1,867,946,0,0
-350,78,0,0,0,0,0,0,0,0,0,-1,874,946,0,0
-343,78,0,0,0,0,0,0,0,0,0,-1,881,946,0,0
-336,78,0,0,0,0,0,0,0,0,0,-1,888,946,0,0
-329,78,0,0,0,0,0,0,0,0,0,-1,895,946,0,0
-322,78,0,0,0,0,0,0,0,0,0,-1,902,946,0,0
-315,78,0,0,0,0,0,0,0,0,0,-1,909,946,0,0
-308,78,0,0,0,0,0,0,0,0,0,-1,916,946,0,0
-301,78,0,0,0,0,0,0,0,0,0,-1,923,946,0,0
-294,78,0,0,0,0,0,0,0,0,0,-1,930,946,0,0
-287,78,0,0,0,0,0,0,0,0,0,-1,937,946,0,0
-280,78,0,0,0,0,0,0,0,0,0,-1,944,946,0,0
-273,78,0,0,0,0,0,0,0,0,0,-1,951,946,0,0
-266,78,0,0,0,0,0,0,0,0,0,-1,958,946,0,0
-259,78,0,0,0,0,0,0,0,0,0,-1,965,946,0,0
-252,78,0,0,0,0,0,0,0,0,0,-1,972,946,0,0
-245,78,0,0,0,0,0,0,0,0,0,-1,979,946,0,0
-238,78,0,0,0,0,0,0,0,0,0,-1,986,946,0,0
-231,78,0,0,0,0,0,0,0,0,0,-1,993,946,0,0
-224,78,0,0,0,0,0,0,0,0,0,-1,1000,946,0,0
-217,78,0,0,0,0,0,0,0,0,0,-1,1007,946,0,0
-210,78,0,0,0,0,0,0,0,0,0,-1,1014,946,0,0
-203,78,0,0,0,0,0,0,0,0,0,-1,1021,946,0,0
-196,78,0,0,0,0,0,0,0,0,0,-1,1028,946,0,0
-189,78,0,0,0,0,0,0,0,0,0,-1,1035,946,0,0
-182,78,0,0,0,0,0,0,0,0,0,-1,1042,946,0,0
-175,78,0,0,0,0,0,0,0,0,0,-1,1049,946,0,0
-168,78,0,0,0,0,0,0,0,0,0,-1,1056,946,0,0
-161,78,0,0,0,0,0,0,0,0,0,-1,1063,946,0,0
-154,78,0,0,0,0,0,0,0,0,0,-1,1070,946,0,0
-147,78,0,0,0,0,0,0,0,0,0,-1,1077,946,0,0
-140,78,0,0,0,0,0,0,0,0,0,-1,1084,946,0,0
-133,78,0,0,0,0,0,0,0,0,0,-1,1091,946,0,0
-126,78,0,0,0,0,0,0,0,0,0,-1,1098,946,0,0
-119,78,0,0,0,0,0,0,0,0,0,-1,1105,946,0,0
-112,78,0,0,0,0,0,0,0,0,0,-1,1112,946,0,0
-105,78,0,0,0,0,0,0,0,0,0,-1,1119,946,0,0
-98,78,0,0,0,0,0,0,0,0,0,-1,1126,946,0,0
-91,78,0,0,0,0,0,0,0,0,0,-1,1133,946,0,0
-84,78,0,0,0,0,0,0,0,0,0,-1,1140,946,0,0
-77,78,0,0,0,0,0,0,0,0,0,-1,1147,946,0,0
-70,78,0,0,0,0,0,0,0,0,0,-1,1154,946,0,0
-63,78,0,0,0,0,0,0,0,0,0,-1,1161,946,0,0
-56,78,0,0,0,0,0,0,0,0,0,-1,1168,946,0,0
-49,78,0,0,0,0,0,0,0,0,0,-1,1175,946,0,0
-42,78,0,0,0,0,0,0,0,0,0,-1,1182,946,0,0
-35,78,0,0,0,0,0,0,0,0,0,-1,1189,946,0,0
-28,78,0,0,0,0,0,0,0,0,0,-1,1196,946,0,0
-21,78,0,0,0,0,0,0,0,0,0,-1,1203,946,0,0
-14,78,0,0,0,0,0,0,0,0,0,-1,1210,946,0,0
-7,78,0,0,0,0,0,0,0,0,0,-1,1217,946,0,0
0,78,0,0,0,0,0,0,0,0,0,-1,1224,946,0,0
7,78,0,0,0,0,0,0,0,0,0,-1,1231,946,0,0
14,78,0,0,0,0,0,0,0,0,0,-1,1238,946,0,0
21,78,0,0,0,0,0,0,0,0,0,-1,1245,946,0,0
28,78,0,0,0,0,0,0,0,0,0,-1,1252,946,0,0
35,78,0,0,0,0,0,0,0,0,0,-1,1259,946,0,0
42,78,0,0,0,0,0,0,0,0,0,-1,1266,946,0,0
49,78,0,0,0,0,0,0,0,0,0,-1,1273,946,0,0
56,78,0,0,0,0,0,0,0,0,0,-1,1280,946,0,0
63,78,0,0,0,0,0,0,0,0,0,-1,1287,946,0,0
70,78,0,0,0,0,0,0,0,0,0,-1,1294,946,0,0
77,78,0,0,0,0,0,0,0,0,0,-1,1301,946,0,0
84,78,0,0,0,0,0,0,0,0,0,-1,1308,946,0,0
91,78,0,0,0,0,0,0,0,0,0,-1,1315,946,0,0
98,78,0,0,0,0,0,0,0,0,0,-1,1322,946,0,0
105,78,0,0,0,0,0,0,0,0,0,-1,1329,946,0,0
112,78,0,0,0,0,0,0,0,0,0,-1,1336,946,0,0
119,78,0,0,0,0,0,0,0,0,0,-1,1343,946,0,0
126,78,0,0,0,0,0,0,0,0,0,-1,1350,946,0,0
133,78,0,0,0,0,0,0,0,0,0,-1,1357,946,0,0
140,78,0,0,0,0,0,0,0,0,0,-1,1364,946,0,0
147,78,0,0,0,0,0,0,0,0,0,-1,1371,946,0,0
154,78,0,0,0,0,0,0,0,0,0,-1,1378,946,0,0
161,78,0,0,0,0,0,0,0,0,0,-1,1385,946,0,0
168,78,0,0,0,0,0,0,0,0,0,-1,1392,946,0,0
175,78,0,0,0,0,0,0,0,0,0,-1,1399,946,0,0
182,78,0,0,0,0,0,0,0,0,0,-1,1406,946,0,0
189,78,0,0,0,0,0,0,0,0,0,-1,1413,946,0,0
196,78,0,0,0,0,0,0,0,0,0,-1,1420,946,0,0
203,78,0,0,0,0,0,0,0,0,0,-1,1427,946,0,0
210,78,0,0,0,0,0,0,0,0,0,-1,1434,946,0,0
217,78,0,0,0,0,0,0,0,0,0,-1,1441,946,0,0
224,78,0,0,0,0,0,0,0,0,0,-1,1448,946,0,0
231,78,0,0,0,0,0,0,0,0,0,-1,1455,946,0,0
238,78,0,0,0,0,0,0,0,0,0,-1,1462,946,0,0
245,78,0,0,0,0,0,0,0,0,0,-1,1469,946,0,0
252,78,0,0,0,0,0,0,0,0,0,-1,1476,946,0,0
259,78,0,0,0,0,0,0,0,0,0,-1,1483,946,0,0
266,78,0,0,0,0,0,0,0,0,0,-1,1490,946,0,0
273,78,0,0,0,0,0,0,0,0,0,-1,1497,946,0,0
280,78,0,0,0,0,0,0,0,0,0,-1,1504,946,0,0
287,78,0,0,0,0,0,0,0,0,0,-1,1511,946,0,0
294,78,0,0,0,0,0,0,0,0,0,-1,1518,946,0,0
301,78,0,0,0,0,0,0,0,0,0,-1,1525,946,0,0
308,78,0,0,0,0,0,0,0,0,0,-1,1532,946,0,0
315,78,0,0,0,0,0,0,0,0,0,-1,1539,946,0,0
322,78,0,0,0,0,0,0,0,0,0,-1,1546,946,0,0
329,78,0,0,0,0,0,0,0,0,0,-1,1553,946,0,0
336,78,0,0,0,0,0,0,0,0,0,-1,1560,946,0,0
343,78,0,0,0,0,0,0,0,0,0,-1,1567,946,0,0
350,78,0,0,0,0,0,0,0,0,0,-1,1574,946,0,0
357,78,0,0,0,0,0,0,0,0,0,-1,1581,946,0,0
364,78,0,0,0,0,0,0,0,0,0,-1,1588,946,0,0
371,78,0,0,0,0,0,0,0,0,0,-1,1595,946,0,0
378,78,0,0,0,0,0,0,0,0,0,-1,1602,946,0,0
385,78,0,0,0,0,0,0,0,0,0,-1,1609,946,0,0
392,78,0,0,0,0,0,0,0,0,0,-1,1616,946,0,0
399,78,0,0,0,0,0,0,0,0,0,-1,1623,946,0,0
406,78,0,0,0,0,0,0,0,0,0,-1,1630,946,0,0
413,78,0,0,0,0,0,0,0,0,0,-1,1637,946,0,0
420,78,0,0,0,0,0,0,0,0,0,-1,1644,946,0,0
427,78,0,0,0,0,0,0,0,0,0,-1,1651,946,0,0
434,78,0,0,0,0,0,0,0,0,0,-1,1658,946,0,0
441,78,0,0,0,0,0,0,0,0,0,-1,1665,946,0,0
448,78,0,0,0,0,0,0,0,0,0,-1,1672,946,0,0
455,78,0,0,0,0,0,0,0,0,0,-1,1679,946,0,0
462,78,0,0,0,0,0,0,0,0,0,-1,1686,946,0,0
469,78,0,0,0,0,0,0,0,0,0,-1,1693,946,0,0
476,78,0,0,0,0,0,0,0,0,0,-1,1700,946,0,0
483,78,0,0,0,0,0,0,0,0,0,-1,1707,946,0,0
490,78,0,0,0,0,0,0,0,0,0,-1,1714,946,0,0
497,78,0,0,0,0,0,0,0,0,0,-1,1721,946,0,0
504,78,0,0,0,0,0,0,0,0,0,-1,1728,946,0,0
511,78,0,0,0,0,0,0,0,0,0,-1,1735,946,0,0
518,78,0,0,0,0,0,0,0,0,0,-1,1742,946,0,0
525,78,0,0,0,0,0,0,0,0,0,-1,1749,946,0,0
532,78,0,0,0,0,0,0,0,0,0,-1,1756,946,0,0
539,78,0,0,0,0,0,0,0,0,0,-1,1763,946,0,0
546,78,0,0,0,0,0,0,0,0,0,-1,1770,946,0,0
553,78,0,0,0,0,0,0,0,0,0,-1,1777,946,0,0
560,78,0,0,0,0,0,0,0,0,0,-1,1784,946,0,0
567,78,0,0,0,0,0,0,0,0,0,-1,1791,946,0,0
574,78,0,0,0,0,0,0,0,0,0,-1,1798,946,0,0
581,78,0,0,0,0,0,0,0,0,0,-1,1805,946,0,0
588,78,0,0,0,0,0,0,0,0,0,-1,1812,946,0,0
595,78,0,0,0,0,0,0,0,0,0,-1,1819,946,0,0
602,78,0,0,0,0,0,0,0,0,0,-1,1826,946,0,0
609,78,0,0,0,0,0,0,0,0,0,-1,1833,946,0,0
616,78,0,0,0,0,0,0,0,0,0,-1,1840,946,0,0
623,78,0,0,0,0,0,0,0,0,0,-1,1847,946,0,0
630,78,0,0,0,0,0,0,0,0,0,-1,1854,946,0,0
637,78,0.00305176,0.139343,-0.00321944,0.00388295,-0.00101585,0.00402539,-0.00336188,-1.43149,0.00427077,0.0393094,1861,946,0.00307273,-0.139346
644,78,-0.0513916,-0.048645,-0.00254983,0.00303742,-0.000830166,0.00315816,-0.00267057,-1.42637,0.00336914,0.0401698,1868,946,-0.051389,0.0486297
651,78,0.0107422,-0.0957642,-0.00187182,0.00242016,-0.00070816,0.00253398,-0.00198565,-1.41143,0.0026158,0.0369458,1875,946,0.0107735,0.0957859
658,78,-0.0450439,-0.0315552,-0.00132835,0.00193914,-0.000581877,0.00203967,-0.00142887,-1.39972,0.00201289,0.0323563,1882,946,-0.0450617,0.0315726
665,78,-0.0605469,-0.0510864,-0.000910825,0.00155919,-0.000459437,0.00164188,-0.000993515,-1.39272,0.00153682,0.0333517,1889,946,-0.0605316,0.0510579
672,78,-0.0305176,-0.0927124,-0.000590084,0.00125983,-0.000337862,0.0013196,-0.000649858,-1.39569,0.00115878,0.0361022,1896,946,-0.0305462,0.0926849
679,78,-0.0383301,-0.0166626,-0.000353047,0.00102144,-0.000217272,0.00105497,-0.000386574,-1.41769,0.000861582,0.0353594,1903,946,-0.0383211,0.0166596
686,78,-0.0881348,0.046814,-0.000172687,0.000810472,-0.000108697,0.000822346,-0.000184561,-1.46199,0.000618991,0.031312,1910,946,-0.0881821,-0.046818
693,78,-0.0424805,0.0307007,-9.49989e-06,0.00064293,1.47199e-05,0.000643262,-9.83183e-06,1.54825,0.000432156,0.0215966,1917,946,-0.0424918,-0.0306786
700,78,-0.0244141,0.0328979,7.965e-05,0.000492445,5.04078e-05,0.000498511,7.35837e-05,1.45103,0.000310731,0.0122392,1924,946,-0.0244018,-0.0328949
707,78,-0.0336914,0.034729,0.000150755,0.000373337,3.51321e-05,0.00037875,0.000145341,1.41791,0.000220633,0.0137791,1931,946,-0.0337262,-0.0347583
714,78,-0.0332031,0.0497437,0.000179105,0.000295525,0.000104317,0.000356774,0.000117856,1.03988,0.000209899,0.015847,1938,946,-0.0332308,-0.0497316
721,78,-0.0317383,0.0310059,2.07497e-05,0.000222434,0.00024171,0.000383495,-0.000140311,0.983022,0.000313095,0.0146324,1945,946,-0.0317488,-0.0310253
728,78,-0.019165,0.0541992,-0.000124308,0.000171848,0.000236757,0.000303021,-0.000255481,1.06486,0.000322841,0.0156291,1952,946,-0.0191052,-0.0542278
735,78,-0.0343018,0.0488281,6.3711e-06,0.000389447,-8.86548e-05,0.000408969,-1.31513e-05,-1.35405,0.000277134,0.0115088,1959,946,-0.0343352,-0.0488405
742,78,-0.0275879,0.0467529,0.000246566,0.000940687,-0.000476507,0.00118313,4.12657e-06,-1.10015,0.000787379,0.011433,1966,946,-0.0276425,-0.0467461
749,78,-0.0284424,0.0463867,0.000728775,0.00179252,-0.000756711,0.00218558,0.000335715,-1.09172,0.00135904,0.0119005,1973,946,-0.028446,-0.0463621
756,78,-0.00439453,0.0396118,0.00121991,0.00302897,-0.00129002,0.00369997,0.000548897,-1.09116,0.00230557,0.0125559,1980,946,-0.00433926,-0.0395997
763,78,0.000488281,0.0440674,0.00179737,0.00426681,-0.00199172,0.00537549,0.000688699,-1.06287,0.00337758,0.0110261,1987,946,0.000517791,-0.0440448
770,78,-0.0162354,0.0426025,0.00269655,0.00610796,-0.00279459,0.00767627,0.00112824,-1.0594,0.00478597,0.0153604,1994,946,-0.016268,-0.0426327
777,78,-0.119995,0.00262451,0.00388908,0.00852097,-0.00379215,0.0106484,0.0017616,-1.05953,0.00659071,0.03642,2001,946,-0.120024,-0.00261926
784,78,-0.185913,-0.221313,0.00542349,0.0116052,-0.00498604,0.0143807,0.00264801,-1.06286,0.0088377,0.0437939,2008,946,-0.185964,0.221323
791,78,0.0185547,-0.236267,0.0073284,0.0154506,-0.00640588,0.0189742,0.00380479,-1.06791,0.0115913,0.0414907,2015,946,0.0186038,0.23627
798,78,0.138428,-0.402893,0.00958893,0.0201567,-0.00805569,0.0245068,0.00523884,-1.07566,0.0149018,0.0399435,2022,946,0.13839,0.402875
805,78,-0.719849,-0.517151,0,0,0,0,0,0,0,-1,2029,946,-0.719855,0.517166
812,78,0,0,0,0,0,0,0,0,0,-1,2036,946,0,0
-700,71,0,0,0,0,0,0,0,0,0,-1,524,953,0,0
-693,71,0,0,0,0,0,0,0,0,0,-1,531,953,0,0
-686,71,-0.359131,2.30499,0,0,0,0,0,0,0,-1,538,953,-0.35915,-2.30497
-679,71,-1.71765,1.17273,0,0,0,0,0,0,0,-1,545,953,-1.71764,-1.17273
-672,71,-1.28717,1.57654,0,0,0,0,0,0,0,-1,552,953,-1.28716,-1.57652
-665,71,0.716797,0.882324,0,0,0,0,0,0,0,-1,559,953,0.716776,-0.882315
-658,71,0.527893,0.652405,0.0238644,-0.0122712,-0.0241565,0.0359625,-0.0243693,-0.464305,0.0350463,0.0482148,566,953,0.527892,-0.652403
-651,71,0.312195,0.333618,0.0189334,-0.00685782,-0.0192282,0.02919,-0.0171144,-0.490017,0.0270351,0.0427749,573,953,0.312198,-0.333639
-644,71,0.00933838,0.0947266,0.0143873,-0.0032504,-0.0148211,0.0228147,-0.0116779,-0.517023,0.0202574,0.0288638,580,953,0.00931036,-0.0947181
-637,71,-0.0180664,0.0678101,0.0104709,-0.00105035,-0.0110269,0.0171513,-0.00773069,-0.544688,0.0147048,0.0117309,587,953,-0.0180883,-0.0678163
-630,71,-0.0057373,0.0566406,0.00773729,0.000929076,-0.00746308,0.012536,-0.0038696,-0.57143,0.00990248,0.0112908,594,953,-0.00573877,-0.0566109
-623,71,-0.0245972,0.0457764,0.0051566,0.00151779,-0.00506767,0.00872158,-0.00204719,-0.613053,0.00660342,0.0113743,601,953,-0.0245806,-0.0457845
-616,71,-0.0576782,0.0535889,0.00283054,0.00193868,-0.00337662,0.00579055,-0.00102133,-0.719745,0.004242,0.0112051,608,953,-0.0576561,-0.0535779
-609,71,-0.0447388,0.0669556,0.000978665,0.00177664,-0.00189304,0.00331229,-0.000556981,-0.88926,0.00241535,0.0132755,615,953,-0.0447528,-0.0669837
-602,71,-0.0294189,0.0497437,0.000143429,0.00084771,-0.00084181,0.00140806,-0.000416925,-0.983495,0.00110424,0.0149293,622,953,-0.0294025,-0.0497512
-595,71,-0.0408325,0.0562134,0.000257573,0.000187897,-0.000265768,0.000490777,-4.53065e-05,-0.720228,0.000343285,0.0149442,629,953,-0.0408363,-0.0562346
-588,71,-0.041687,0.0878906,0.000307056,0.000211635,-8.64302e-05,0.00035807,0.000160621,-0.533205,0.000207096,0.0149919,636,953,-0.0417035,-0.0878795
-581,71,-0.0153198,0.0983276,0.000405631,0.000323533,-0.000113739,0.000485502,0.000243663,-0.612219,0.000280305,0.0194654,643,953,-0.0152985,-0.0983132
-574,71,-0.00378418,0.0768433,0.000665905,0.000493185,-0.000135104,0.000739892,0.000419198,-0.501022,0.000428437,0.0212717,650,953,-0.0037629,-0.0768228
-567,71,-0.0139771,0.0628662,0.00105562,0.00055982,-0.000165763,0.00110594,0.000509506,-0.294693,0.00063917,0.0180702,657,953,-0.0139843,-0.0628718
-560,71,-0.0331421,0.0581665,0.00150163,0.000644374,-0.000173882,0.00153556,0.000610447,-0.192693,0.000892737,0.02595,664,953,-0.0331581,-0.0581618
-553,71,-0.0324097,0.000976563,0.00210339,0.000719053,-0.000173748,0.00212486,0.000697579,-0.122969,0.00125067,0.0375295,671,953,-0.032402,-0.000957153
-546,71,-0.112671,0.0308838,0.00294903,0.000766746,-0.000182387,0.00296417,0.000751608,-0.0828104,0.00177931,0.0377307,678,953,-0.112686,-0.0309022
-539,71,-0.13031,0.0637207,0.00409052,0.00077475,-0.000229096,0.00410627,0.000758996,-0.068658,0.00252286,0.0372759,685,953,-0.13034,-0.0636995
-532,71,-0.205139,-0.000854492,0.00557004,0.00072057,-0.000346625,0.00559469,0.000695919,-0.0709959,0.00352082,0.0425545,692,953,-0.20511,0.000877062
-525,71,0.0169067,0.249023,0.00747454,0.000563271,-0.000589633,0.00752448,0.000513327,-0.0845009,0.00485427,0.0420355,699,953,0.0168939,-0.249042
-518,71,0,0,0,0,0,0,0,0,0,-1,706,953,0,0
-511,71,0,0,0,0,0,0,0,0,0,-1,713,953,0,0
-504,71,0,0,0,0,0,0,0,0,0,-1,720,953,0,0
-497,71,0,0,0,0,0,0,0,0,0,-1,727,953,0,0
-490,71,0,0,0,0,0,0,0,0,0,-1,734,953,0,0
-483,71,0,0,0,0,0,0,0,0,0,-1,741,953,0,0
-476,71,0,0,0,0,0,0,0,0,0,-1,748,953,0,0
-469,71,0,0,0,0,0,0,0,0,0,-1,755,953,0,0
-462,71,0,0,0,0,0,0,0,0,0,-1,762,953,0,0
-455,71,0,0,0,0,0,0,0,0,0,-1,769,953,0,0
-448,71,0,0,0,0,0,0,0,0,0,-1,776,953,0,0
-441,71,0,0,0,0,0,0,0,0,0,-1,783,953,0,0
-434,71,0,0,0,0,0,0,0,0,0,-1,790,953,0,0
-427,71,0,0,0,0,0,0,0,0,0,-1,797,953,0,0
-420,71,0,0,0,0,0,0,0,0,0,-1,804,953,0,0
-413,71,0,0,0,0,0,0,0,0,0,-1,811,953,0,0
-406,71,0,0,0,0,0,0,0,0,0,-1,818,953,0,0
-399,71,0,0,0,0,0,0,0,0,0,-1,825,953,0,0
-392,71,0,0,0,0,0,0,0,0,0,-1,832,953,0,0
-385,71,0,0,0,0,0,0,0,0,0,-1,839,953,0,0
-378,71,0,0,0,0,0,0,0,0,0,-1,846,953,0,0
-371,71,0,0,0,0,0,0,0,0,0,-1,853,953,0,0
-364,71,0,0,0,0,0,0,0,0,0,-1,860,953,0,0
-357,71,0,0,0,0,0,0,0,0,0,-1,867,953,0,0
-350,71,0,0,0,0,0,0,0,0,0,-1,874,953,0,0
-343,71,0,0,0,0,0,0,0,0,0,-1,881,953,0,0
-336,71,0,0,0,0,0,0,0,0,0,-1,888,953,0,0
-329,71,0,0,0,0,0,0,0,0,0,-1,895,953,0,0
-322,71,0,0,0,0,0,0,0,0,0,-1,902,953,0,0
-315,71,0,0,0,0,0,0,0,0,0,-1,909,953,0,0
-308,71,0,0,0,0,0,0,0,0,0,-1,916,953,0,0
-301,71,0,0,0,0,0,0,0,0,0,-1,923,953,0,0
-294,71,0,0,0,0,0,0,0,0,0,-1,930,953,0,0
-287,71,0,0,0,0,0,0,0,0,0,-1,937,953,0,0
-280,71,0,0,0,0,0,0,0,0,0,-1,944,953,0,0
-273,71,0,0,0,0,0,0,0,0,0,-1,951,953,0,0
-266,71,0,0,0,0,0,0,0,0,0,-1,958,953,0,0
-259,71,0,0,0,0,0,0,0,0,0,-1,965,953,0,0
-252,71,0,0,0,0,0,0,0,0,0,-1,972,953,0,0
-245,71,0,0,0,0,0,0,0,0,0,-1,979,953,0,0
-238,71,0,0,0,0,0,0,0,0,0,-1,986,953,0,0
-231,71,0,0,0,0,0,0,0,0,0,-1,993,953,0,0
-224,71,0,0,0,0,0,0,0,0,0,-1,1000,953,0,0
-217,71,0,0,0,0,0,0,0,0,0,-1,1007,953,0,0
-210,71,0,0,0,0,0,0,0,0,0,-1,1014,953,0,0
-203,71,0,0,0,0,0,0,0,0,0,-1,1021,953,0,0
-196,71,0,0,0,0,0,0,0,0,0,-1,1028,953,0,0
-189,71,0,0,0,0,0,0,0,0,0,-1,1035,953,0,0
-182,71,0,0,0,0,0,0,0,0,0,-1,1042,953,0,0
-175,71,0,0,0,0,0,0,0,0,0,-1,1049,953,0,0
-168,71,0,0,0,0,0,0,0,0,0,-1,1056,953,0,0
-161,71,0,0,0,0,0,0,0,0,0,-1,1063,953,0,0
-154,71,0,0,0,0,0,0,0,0,0,-1,1070,953,0,0
-147,71,0,0,0,0,0,0,0,0,0,-1,1077,953,0,0
-140,71,0,0,0,0,0,0,0,0,0,-1,1084,953,0,0
-133,71,0,0,0,0,0,0,0,0,0,-1,1091,953,0,0
-126,71,0,0,0,0,0,0,0,0,0,-1,1098,953,0,0
-119,71,0,0,0,0,0,0,0,0,0,-1,1105,953,0,0
-112,71,0,0,0,0,0,0,0,0,0,-1,1112,953,0,0
-105,71,0,0,0,0,0,0,0,0,0,-1,1119,953,0,0
-98,71,0,0,0,0,0,0,0,0,0,-1,1126,953,0,0
-91,71,0,0,0,0,0,0,0,0,0,-1,1133,953,0,0
-84,71,0,0,0,0,0,0,0,0,0,-1,1140,953,0,0
-77,71,0,0,0,0,0,0,0,0,0,-1,1147,953,0,0
-70,71,0,0,0,0,0,0,0,0,0,-1,1154,953,0,0
-63,71,0,0,0,0,0,0,0,0,0,-1,1161,953,0,0
-56,71,0,0,0,0,0,0,0,0,0,-1,1168,953,0,0
-49,71,0,0,0,0,0,0,0,0,0,-1,1175,953,0,0
-42,71,0,0,0,0,0,0,0,0,0,-1,1182,953,0,0
-35,71,0,0,0,0,0,0,0,0,0,-1,1189,953,0,0
-28,71,0,0,0,0,0,0,0,0,0,-1,1196,953,0,0
-21,71,0,0,0,0,0,0,0,0,0,-1,1203,953,0,0
-14,71,0,0,0,0,0,0,0,0,0,-1,1210,953,0,0
-7,71,0,0,0,0,0,0,0,0,0,-1,1217,953,0,0
0,71,0,0,0,0,0,0,0,0,0,-1,1224,953,0,0
7,71,0,0,0,0,0,0,0,0,0,-1,1231,953,0,0
14,71,0,0,0,0,0,0,0,0,0,-1,1238,953,0,0
21,71,0,0,0,0,0,0,0,0,0,-1,1245,953,0,0
28,71,0,0,0,0,0,0,0,0,0,-1,1252,953,0,0
35,71,0,0,0,0,0,0,0,0,0,-1,1259,953,0,0
42,71,0,0,0,0,0,0,0,0,0,-1,1266,953,0,0
49,71,0,0,0,0,0,0,0,0,0,-1,1273,953,0,0
56,71,0,0,0,0,0,0,0,0,0,-1,1280,953,0,0
63,71,0,0,0,0,0,0,0,0,0,-1,1287,953,0,0
70,71,0,0,0,0,0,0,0,0,0,-1,1294,953,0,0
77,71,0,0,0,0,0,0,0,0,0,-1,1301,953,0,0
84,71,0,0,0,0,0,0,0,0,0,-1,1308,953,0,0
91,71,0,0,0,0,0,0,0,0,0,-1,1315,953,0,0
98,71,0,0,0,0,0,0,0,0,0,-1,1322,953,0,0
105,71,0,0,0,0,0,0,0,0,0,-1,1329,953,0,0
112,71,0,0,0,0,0,0,0,0,0,-1,1336,953,0,0
119,71,0,0,0,0,0,0,0,0,0,-1,1343,953,0,0
126,71,0,0,0,0,0,0,0,0,0,-1,1350,953,0,0
133,71,0,0,0,0,0,0,0,0,0,-1,1357,953,0,0
140,71,0,0,0,0,0,0,0,0,0,-1,1364,953,0,0
147,71,0,0,0,0,0,0,0,0,0,-1,1371,953,0,0
154,71,0,0,0,0,0,0,0,0,0,-1,1378,953,0,0
161,71,0,0,0,0,0,0,0,0,0,-1,1385,953,0,0
168,71,0,0,0,0,0,0,0,0,0,-1,1392,953,0,0
175,71,0,0,0,0,0,0,0,0,0,-1,1399,953,0,0
182,71,0,0,0,0,0,0,0,0,0,-1,1406,953,0,0
189,71,0,0,0,0,0,0,0,0,0,-1,1413,953,0,0
196,71,0,0,0,0,0,0,0,0,0,-1,1420,953,0,0
203,71,0,0,0,0,0,0,0,0,0,-1,1427,953,0,0
210,71,0,0,0,0,0,0,0,0,0,-1,1434,953,0,0
217,71,0,0,0,0,0,0,0,0,0,-1,1441,953,0,0
224,71,0,0,0,0,0,0,0,0,0,-1,1448,953,0,0
231,71,0,0,0,0,0,0,0,0,0,-1,1455,953,0,0
238,71,0,0,0,0,0,0,0,0,0,-1,1462,953,0,0
245,71,0,0,0,0,0,0,0,0,0,-1,1469,953,0,0
252,71,0,0,0,0,0,0,0,0,0,-1,1476,953,0,0
259,71,0,0,0,0,0,0,0,0,0,-1,1483,953,0,0
266,71,0,0,0,0,0,0,0,0,0,-1,1490,953,0,0
273,71,0,0,0,0,0,0,0,0,0,-1,1497,953,0,0
280,71,0,0,0,0,0,0,0,0,0,-1,1504,953,0,0
287,71,0,0,0,0,0,0,0,0,0,-1,1511,953,0,0
294,71,0,0,0,0,0,0,0,0,0,-1,1518,953,0,0
301,71,0,0,0,0,0,0,0,0,0,-1,1525,953,0,0
308,71,0,0,0,0,0,0,0,0,0,-1,1532,953,0,0
315,71,0,0,0,0,0,0,0,0,0,-1,1539,953,0,0
322,71,0,0,0,0,0,0,0,0,0,-1,1546,953,0,0
329,71,0,0,0,0,0,0,0,0,0,-1,1553,953,0,0
336,71,0,0,0,0,0,0,0,0,0,-1,1560,953,0,0
343,71,0,0,0,0,0,0,0,0,0,-1,1567,953,0,0
350,71,0,0,0,0,0,0,0,0,0,-1,1574,953,0,0
357,71,0,0,0,0,0,0,0,0,0,-1,1581,953,0,0
364,71,0,0,0,0,0,0,0,0,0,-1,1588,953,0,0
371,71,0,0,0,0,0,0,0,0,0,-1,1595,953,0,0
378,71,0,0,0,0,0,0,0,0,0,-1,1602,953,0,0
385,71,0,0,0,0,0,0,0,0,0,-1,1609,953,0,0
392,71,0,0,0,0,0,0,0,0,0,-1,1616,953,0,0
399,71,0,0,0,0,0,0,0,0,0,-1,1623,953,0,0
406,71,0,0,0,0,0,0,0,0,0,-1,1630,953,0,0
413,71,0,0,0,0,0,0,0,0,0,-1,1637,953,0,0
420,71,0,0,0,0,0,0,0,0,0,-1,1644,953,0,0
427,71,0,0,0,0,0,0,0,0,0,-1,1651,953,0,0
434,71,0,0,0,0,0,0,0,0,0,-1,1658,953,0,0
441,71,0,0,0,0,0,0,0,0,0,-1,1665,953,0,0
448,71,0,0,0,0,0,0,0,0,0,-1,1672,953,0,0
455,71,0,0,0,0,0,0,0,0,0,-1,1679,953,0,0
462,71,0,0,0,0,0,0,0,0,0,-1,1686,953,0,0
469,71,0,0,0,0,0,0,0,0,0,-1,1693,953,0,0
476,71,0,0,0,0,0,0,0,0,0,-1,1700,953,0,0
483,71,0,0,0,0,0,0,0,0,0,-1,1707,953,0,0
490,71,0,0,0,0,0,0,0,0,0,-1,1714,953,0,0
497,71,0,0,0,0,0,0,0,0,0,-1,1721,953,0,0
504,71,0,0,0,0,0,0,0,0,0,-1,1728,953,0,0
511,71,0,0,0,0,0,0,0,0,0,-1,1735,953,0,0
518,71,0,0,0,0,0,0,0,0,0,-1,1742,953,0,0
525,71,0,0,0,0,0,0,0,0,0,-1,1749,953,0,0
532,71,0,0,0,0,0,0,0,0,0,-1,1756,953,0,0
539,71,0,0,0,0,0,0,0,0,0,-1,1763,953,0,0
546,71,0,0,0,0,0,0,0,0,0,-1,1770,953,0,0
553,71,0,0,0,0,0,0,0,0,0,-1,1777,953,0,0
560,71,0,0,0,0,0,0,0,0,0,-1,1784,953,0,0
567,71,0,0,0,0,0,0,0,0,0,-1,1791,953,0,0
574,71,0,0,0,0,0,0,0,0,0,-1,1798,953,0,0
581,71,0,0,0,0,0,0,0,0,0,-1,1805,953,0,0
588,71,0,0,0,0,0,0,0,0,0,-1,1812,953,0,0
595,71,0,0,0,0,0,0,0,0,0,-1,1819,953,0,0
602,71,0,0,0,0,0,0,0,0,0,-1,1826,953,0,0
609,71,0,0,0,0,0,0,0,0,0,-1,1833,953,0,0
616,71,0,0,0,0,0,0,0,0,0,-1,1840,953,0,0
623,71,0,0,0,0,0,0,0,0,0,-1,1847,953,0,0
630,71,0,0,0,0,0,0,0,0,0,-1,1854,953,0,0
637,71,-0.0594482,0.0441895,-0.00319822,0.00369374,-0.0004474,0.00372266,-0.00322714,-1.50624,0.00401587,0.0371277,1861,953,-0.0594084,-0.044215
644,71,-0.0883789,-0.107422,-0.00254613,0.00288326,-0.000381224,0.00290989,-0.00257276,-1.50104,0.00316741,0.0408868,1868,953,-0.0883745,0.107404
651,71,-0.0157471,0.088501,-0.00185162,0.00229334,-0.000367792,0.00232573,-0.001884,-1.48298,0.00243494,0.0379538,1875,953,-0.0157026,-0.0884845
658,71,-0.0556641,0.122742,-0.0013054,0.00182859,-0.000320963,0.00186112,-0.00133793,-1.46978,0.00185519,0.0327562,1882,953,-0.0556392,-0.122727
665,71,-0.0343018,0.00567627,-0.00088546,0.00145539,-0.000261414,0.00148422,-0.000914299,-1.46092,0.00139776,0.0320319,1889,953,-0.0343581,-0.00567279
672,71,-0.0180664,-0.0212402,-0.000567653,0.00115932,-0.000191238,0.00118024,-0.000588577,-1.46182,0.0010401,0.0340466,1896,953,-0.0180463,0.0212422
679,71,-0.0980225,0.0181885,-0.000335467,0.000926107,-0.000108491,0.000935369,-0.000344729,-1.48563,0.000764839,0.0347293,1903,953,-0.0980509,-0.0182119
686,71,-0.129395,-0.00128174,-0.000156007,0.00072291,-3.07368e-05,0.000723983,-0.000157081,-1.53588,0.000542648,0.0342198,1910,953,-0.129397,0.00131066
693,71,-0.036377,0.013916,5.3232e-06,0.000563182,7.50013e-05,0.00057309,-4.58438e-06,1.43946,0.000383597,0.0291656,1917,953,-0.0363567,-0.0138986
700,71,-0.0184326,0.039856,9.71925e-05,0.000426227,9.98804e-05,0.000454172,6.92466e-05,1.29798,0.000282542,0.0200003,1924,953,-0.018396,-0.0398801
707,71,-0.0262451,0.0201416,0.000155462,0.000307186,6.96386e-05,0.000334303,0.000128346,1.19947,0.000194736,0.0116445,1931,953,-0.0261873,-0.0201268
714,71,-0.0330811,0.0327759,0.000176869,0.000231091,0.000130755,0.000337517,7.04434e-05,0.887621,0.000205593,0.0124498,1938,953,-0.0331021,-0.0327464
721,71,-0.0461426,0.0458374,4.12579e-05,0.000182073,0.00025883,0.000379901,-0.00015657,0.918196,0.000318552,0.0123845,1945,953,-0.0461405,-0.0458503
728,71,-0.0440674,0.0726318,-5.41473e-05,0.000169614,0.000211353,0.000296871,-0.000181405,1.02883,0.000278803,0.0134385,1952,953,-0.0440181,-0.0726354
735,71,-0.0333252,0.0499878,0.000116533,0.000397994,-0.000188042,0.000492136,2.23917e-05,-1.10664,0.000320887,0.00867068,1959,953,-0.0333227,-0.0499626
742,71,-0.00976563,0.0357666,0.000296925,0.000928177,-0.000677784,0.00136022,-0.000135119,-1.0033,0.000955045,0.00991691,1966,953,-0.00971017,-0.0357497
749,71,-0.00549316,0.0377808,0.000724868,0.00173794,-0.00100978,0.00236112,0.000101696,-1.01787,0.0015413,0.0135853,1973,953,-0.00550778,-0.0377705
756,71,-0.00695801,0.0485229,0.00115803,0.00300501,-0.00163564,0.00395986,0.000203177,-1.04239,0.00257485,0.0138755,1980,953,-0.00691369,-0.0485386
763,71,-0.00415039,0.0491333,0.0016054,0.00412901,-0.00247443,0.00564479,8.96214e-05,-1.02118,0.00373368,0.0117923,1987,953,-0.00418098,-0.0491295
770,71,-0.0310059,0.0227051,0.00232786,0.005847,-0.00340317,0.00791858,0.000256288,-1.02399,0.00519573,0.0141992,1994,953,-0.0309756,-0.0226756
777,71,-0.103394,-0.0961914,0.00325574,0.00806241,-0.0045236,0.0107815,0.000536671,-1.02958,0.00701561,0.032382,2001,953,-0.103384,0.0961759
784,71,-0.0922852,-0.42865,0.00440598,0.0108472,-0.00581908,0.0142775,0.000975736,-1.03815,0.00921032,0.0418068,2008,953,-0.0922334,0.428658
791,71,-0.0998535,-0.600708,0.00578619,0.0142553,-0.00729081,0.0184521,0.00158942,-1.04849,0.0118073,0.0413484,2015,953,-0.099803,0.600698
798,71,-0.343994,-0.559143,0.00736525,0.0183269,-0.00891736,0.0233131,0.00237904,-1.06095,0.0148129,0.0396251,2022,953,-0.343989,0.55913
805,71,-0.240479,-0.818359,0.00905014,0.0230704,-0.0106677,0.0288252,0.00329541,-1.07609,0.0182179,0.0412392,2029,953,-0.240443,0.818383
812,71,0,0,0,0,0,0,0,0,0,-1,2036,953,0,0
-700,64,0,0,0,0,0,0,0,0,0,-1,524,960,0,0
-693,64,0,0,0,0,0,0,0,0,0,-1,531,960,0,0
-686,64,-0.337341,2.91956,0.028503,-0.0509168,-0.0563743,0.0577491,-0.080163,-0.478563,0.0799734,0.0440531,538,960,-0.337346,-2.91954
-679,64,-0.584595,2.25629,0.0295698,-0.0365323,-0.0480003,0.0547974,-0.0617598,-0.483895,0.0673343,0.0444604,545,960,-0.584576,-2.25629
-672,64,-0.746826,1.72034,0,0,0,0,0,0,0,-1,552,960,-0.746803,-1.72031
-665,64,-0.557983,0.787292,0.0243773,-0.0169907,-0.0327987,0.0424694,-0.0350828,-0.504078,0.0448424,0.0455842,559,960,-0.557993,-0.787292
-658,64,0.772278,0.586853,0.0202949,-0.010721,-0.026203,0.0352351,-0.0256612,-0.518199,0.0353031,0.0481335,566,960,0.772305,-0.586836
-651,64,0.0615234,0.102966,0.0161257,-0.00625756,-0.0203776,0.0281827,-0.0183146,-0.53428,0.027046,0.0429461,573,960,0.0615495,-0.102958
-644,64,-0.000915527,0.0789185,0.0122346,-0.00325448,-0.015374,0.0217045,-0.0127245,-0.552081,0.0201017,0.028825,580,960,-0.000899895,-0.0789372
-637,64,-0.0229492,0.0805054,0.00887169,-0.00138241,-0.0112167,0.0160776,-0.00858831,-0.571031,0.014458,0.0132207,587,960,-0.0229528,-0.0804839
-630,64,-0.0220947,0.0662231,0.00663857,0.000408909,-0.00739795,0.0115507,-0.0045032,-0.586142,0.00956178,0.0117496,594,960,-0.0220937,-0.0661944
-623,64,-0.0184937,0.0388184,0.00436648,0.000948229,-0.00487472,0.00782301,-0.0025083,-0.616789,0.00622231,0.0120258,601,960,-0.0185037,-0.0387971
-616,64,-0.0454102,0.0621338,0.00231561,0.00135409,-0.00302643,0.00489923,-0.00122952,-0.706629,0.0037439,0.0140393,608,960,-0.0454347,-0.0621289
-609,64,-0.0314331,0.069397,0.000687404,0.00113953,-0.00163112,0.00256018,-0.000733241,-0.854257,0.0019966,0.0144909,615,960,-0.0314281,-0.0694045
-602,64,-0.000915527,0.060791,-3.77195e-05,0.000377476,-0.000777326,0.000974449,-0.000634692,-0.915886,0.000935915,0.0162204,622,960,-0.000945007,-0.0607971
-595,64,-0.0219116,0.0657959,0.000160202,0.000211466,-0.000288672,0.000475642,-0.000103974,-0.829678,0.000356838,0.0157518,629,960,-0.0219259,-0.0657928
-588,64,-0.026123,0.0836182,0.000311929,0.000221999,-0.000127517,0.000402177,0.000131752,-0.615896,0.000236753,0.0189917,636,960,-0.026113,-0.0836242
-581,64,-0.0177612,0.0725708,0.000446402,0.000326221,-0.000172158,0.000568655,0.000203968,-0.617487,0.000332655,0.0234457,643,960,-0.0177376,-0.0725823
-574,64,-0.00366211,0.071106,0.000721261,0.000499842,-0.000205287,0.000843788,0.000377315,-0.538106,0.000488067,0.026843,650,960,-0.00365534,-0.0710847
-567,64,0.00372314,0.0543823,0.00113756,0.000561463,-0.000233494,0.00122031,0.000478713,-0.340588,0.000709974,0.0228471,657,960,0.00369865,-0.0543832
-560,64,0.00335693,-0.00213623,0.0016252,0.000663556,-0.000245322,0.00168417,0.000604588,-0.235892,0.000985161,0.0292147,664,960,0.00336106,0.00214899
-553,64,-0.0385132,-0.0785522,0.00228186,0.000773613,-0.000257515,0.00232462,0.000730857,-0.164531,0.00137259,0.0326259,671,960,-0.0385216,0.0785329
-546,64,-0.114319,-0.0443726,0.00319322,0.000886962,-0.000288634,0.00322879,0.000851387,-0.122633,0.0019323,0.0351594,678,960,-0.114289,0.0443428
-539,64,-0.237366,0.0280762,0.00438908,0.00100101,-0.000370335,0.00442909,0.000961005,-0.107613,0.00269023,0.0378111,685,960,-0.237359,-0.0280806
-532,64,-0.0269775,0.205139,0.00589839,0.00110495,-0.000537919,0.00595802,0.00104532,-0.11039,0.00367348,0.04146,692,960,-0.0269492,-0.205155
-525,64,0.0167847,0.244629,0.00779715,0.00116963,-0.000854815,0.00790563,0.00106116,-0.126228,0.00495473,0.0409745,699,960,0.0168054,-0.244627
-518,64,0,0,0,0,0,0,0,0,0,-1,706,960,0,0
-511,64,0,0,0,0,0,0,0,0,0,-1,713,960,0,0
-504,64,0,0,0,0,0,0,0,0,0,-1,720,960,0,0
-497,64,0,0,0,0,0,0,0,0,0,-1,727,960,0,0
-490,64,0,0,0,0,0,0,0,0,0,-1,734,960,0,0
-483,64,0,0,0,0,0,0,0,0,0,-1,741,960,0,0
-476,64,0,0,0,0,0,0,0,0,0,-1,748,960,0,0
-469,64,0,0,0,0,0,0,0,0,0,-1,755,960,0,0
-462,64,0,0,0,0,0,0,0,0,0,-1,762,960,0,0
-455,64,0,0,0,0,0,0,0,0,0,-1,769,960,0,0
-448,64,0,0,0,0,0,0,0,0,0,-1,776,960,0,0
-441,64,0,0,0,0,0,0,0,0,0,-1,783,960,0,0
-434,64,0,0,0,0,0,0,0,0,0,-1,790,960,0,0
-427,64,0,0,0,0,0,0,0,0,0,-1,797,960,0,0
-420,64,0,0,0,0,0,0,0,0,0,-1,804,960,0,0
-413,64,0,0,0,0,0,0,0,0,0,-1,811,960,0,0
-406,64,0,0,0,0,0,0,0,0,0,-1,818,960,0,0
-399,64,0,0,0,0,0,0,0,0,0,-1,825,960,0,0
-392,64,0,0,0,0,0,0,0,0,0,-1,832,960,0,0
-385,64,0,0,0,0,0,0,0,0,0,-1,839,960,0,0
-378,64,0,0,0,0,0,0,0,0,0,-1,846,960,0,0
-371,64,0,0,0,0,0,0,0,0,0,-1,853,960,0,0
-364,64,0,0,0,0,0,0,0,0,0,-1,860,960,0,0
-357,64,0,0,0,0,0,0,0,0,0,-1,867,960,0,0
-350,64,0,0,0,0,0,0,0,0,0,-1,874,960,0,0
-343,64,0,0,0,0,0,0,0,0,0,-1,881,960,0,0
-336,64,0,0,0,0,0,0,0,0,0,-1,888,960,0,0
-329,64,0,0,0,0,0,0,0,0,0,-1,895,960,0,0
-322,64,0,0,0,0,0,0,0,0,0,-1,902,960,0,0
-315,64,0,0,0,0,0,0,0,0,0,-1,909,960,0,0
-308,64,0,0,0,0,0,0,0,0,0,-1,916,960,0,0
-301,64,0,0,0,0,0,0,0,0,0,-1,923,960,0,0
-294,64,0,0,0,0,0,0,0,0,0,-1,930,960,0,0
-287,64,0,0,0,0,0,0,0,0,0,-1,937,960,0,0
-280,64,0,0,0,0,0,0,0,0,0,-1,944,960,0,0
-273,64,0,0,0,0,0,0,0,0,0,-1,951,960,0,0
-266,64,0,0,0,0,0,0,0,0,0,-1,958,960,0,0
-259,64,0,0,0,0,0,0,0,0,0,-1,965,960,0,0
-252,64,0,0,0,0,0,0,0,0,0,-1,972,960,0,0
-245,64,0,0,0,0,0,0,0,0,0,-1,979,960,0,0
-238,64,0,0,0,0,0,0,0,0,0,-1,986,960,0,0
-231,64,0,0,0,0,0,0,0,0,0,-1,993,960,0,0
-224,64,0,0,0,0,0,0,0,0,0,-1,1000,960,0,0
-217,64,0,0,0,0,0,0,0,0,0,-1,1007,960,0,0
-210,64,0,0,0,0,0,0,0,0,0,-1,1014,960,0,0
-203,64,0,0,0,0,0,0,0,0,0,-1,1021,960,0,0
-196,64,0,0,0,0,0,0,0,0,0,-1,1028,960,0,0
-189,64,0,0,0,0,0,0,0,0,0,-1,1035,960,0,0
-182,64,0,0,0,0,0,0,0,0,0,-1,1042,960,0,0
-175,64,0,0,0,0,0,0,0,0,0,-1,1049,960,0,0
-168,64,0,0,0,0,0,0,0,0,0,-1,1056,960,0,0
-161,64,0,0,0,0,0,0,0,0,0,-1,1063,960,0,0
-154,64,0,0,0,0,0,0,0,0,0,-1,1070,960,0,0
-147,64,0,0,0,0,0,0,0,0,0,-1,1077,960,0,0
-140,64,0,0,0,0,0,0,0,0,0,-1,1084,960,0,0
-133,64,0,0,0,0,0,0,0,0,0,-1,1091,960,0,0
-126,64,0,0,0,0,0,0,0,0,0,-1,1098,960,0,0
-119,64,0,0,0,0,0,0,0,0,0,-1,1105,960,0,0
-112,64,0,0,0,0,0,0,0,0,0,-1,1112,960,0,0
-105,64,0,0,0,0,0,0,0,0,0,-1,1119,960,0,0
-98,64,0,0,0,0,0,0,0,0,0,-1,1126,960,0,0
-91,64,0,0,0,0,0,0,0,0,0,-1,1133,960,0,0
-84,64,0,0,0,0,0,0,0,0,0,-1,1140,960,0,0
-77,64,0,0,0,0,0,0,0,0,0,-1,1147,960,0,0
-70,64,0,0,0,0,0,0,0,0,0,-1,1154,960,0,0
-63,64,0,0,0,0,0,0,0,0,0,-1,1161,960,0,0
-56,64,0,0,0,0,0,0,0,0,0,-1,1168,960,0,0
-49,64,0,0,0,0,0,0,0,0,0,-1,1175,960,0,0
-42,64,0,0,0,0,0,0,0,0,0,-1,1182,960,0,0
-35,64,0,0,0,0,0,0,0,0,0,-1,1189,960,0,0
-28,64,0,0,0,0,0,0,0,0,0,-1,1196,960,0,0
-21,64,0,0,0,0,0,0,0,0,0,-1,1203,960,0,0
-14,64,0,0,0,0,0,0,0,0,0,-1,1210,960,0,0
-7,64,0,0,0,0,0,0,0,0,0,-1,1217,960,0,0
0,64,0,0,0,0,0,0,0,0,0,-1,1224,960,0,0
7,64,0,0,0,0,0,0,0,0,0,-1,1231,960,0,0
14,64,0,0,0,0,0,0,0,0,0,-1,1238,960,0,0
21,64,0,0,0,0,0,0,0,0,0,-1,1245,960,0,0
28,64,0,0,0,0,0,0,0,0,0,-1,1252,960,0,0
35,64,0,0,0,0,0,0,0,0,0,-1,1259,960,0,0
42,64,0,0,0,0,0,0,0,0,0,-1,1266,960,0,0
49,64,0,0,0,0,0,0,0,0,0,-1,1273,960,0,0
56,64,0,0,0,0,0,0,0,0,0,-1,1280,960,0,0
63,64,0,0,0,0,0,0,0,0,0,-1,1287,960,0,0
70,64,0,0,0,0,0,0,0,0,0,-1,1294,960,0,0
77,64,0,0,0,0,0,0,0,0,0,-1,1301,960,0,0
84,64,0,0,0,0,0,0,0,0,0,-1,1308,960,0,0
91,64,0,0,0,0,0,0,0,0,0,-1,1315,960,0,0
98,64,0,0,0,0,0,0,0,0,0,-1,1322,960,0,0
105,64,0,0,0,0,0,0,0,0,0,-1,1329,960,0,0
112,64,0,0,0,0,0,0,0,0,0,-1,1336,960,0,0
119,64,0,0,0,0,0,0,0,0,0,-1,1343,960,0,0
126,64,0,0,0,0,0,0,0,0,0,-1,1350,960,0,0
133,64,0,0,0,0,0,0,0,0,0,-1,1357,960,0,0
140,64,0,0,0,0,0,0,0,0,0,-1,1364,960,0,0
147,64,0,0,0,0,0,0,0,0,0,-1,1371,960,0,0
154,64,0,0,0,0,0,0,0,0,0,-1,1378,960,0,0
161,64,0,0,0,0,0,0,0,0,0,-1,1385,960,0,0
168,64,0,0,0,0,0,0,0,0,0,-1,1392,960,0,0
175,64,0,0,0,0,0,0,0,0,0,-1,1399,960,0,0
182,64,0,0,0,0,0,0,0,0,0,-1,1406,960,0,0
189,64,0,0,0,0,0,0,0,0,0,-1,1413,960,0,0
196,64,0,0,0,0,0,0,0,0,0,-1,1420,960,0,0
203,64,0,0,0,0,0,0,0,0,0,-1,1427,960,0,0
210,64,0,0,0,0,0,0,0,0,0,-1,1434,960,0,0
217,64,0,0,0,0,0,0,0,0,0,-1,1441,960,0,0
224,64,0,0,0,0,0,0,0,0,0,-1,1448,960,0,0
231,64,0,0,0,0,0,0,0,0,0,-1,1455,960,0,0
238,64,0,0,0,0,0,0,0,0,0,-1,1462,960,0,0
245,64,0,0,0,0,0,0,0,0,0,-1,1469,960,0,0
252,64,0,0,0,0,0,0,0,0,0,-1,1476,960,0,0
259,64,0,0,0,0,0,0,0,0,0,-1,1483,960,0,0
266,64,0,0,0,0,0,0,0,0,0,-1,1490,960,0,0
273,64,0,0,0,0,0,0,0,0,0,-1,1497,960,0,0
280,64,0,0,0,0,0,0,0,0,0,-1,1504,960,0,0
287,64,0,0,0,0,0,0,0,0,0,-1,1511,960,0,0
294,64,0,0,0,0,0,0,0,0,0,-1,1518,960,0,0
301,64,0,0,0,0,0,0,0,0,0,-1,1525,960,0,0
308,64,0,0,0,0,0,0,0,0,0,-1,1532,960,0,0
315,64,0,0,0,0,0,0,0,0,0,-1,1539,960,0,0
322,64,0,0,0,0,0,0,0,0,0,-1,1546,960,0,0
329,64,0,0,0,0,0,0,0,0,0,-1,1553,960,0,0
336,64,0,0,0,0,0,0,0,0,0,-1,1560,960,0,0
343,64,0,0,0,0,0,0,0,0,0,-1,1567,960,0,0
350,64,0,0,0,0,0,0,0,0,0,-1,1574,960,0,0
357,64,0,0,0,0,0,0,0,0,0,-1,1581,960,0,0
364,64,0,0,0,0,0,0,0,0,0,-1,1588,960,0,0
371,64,0,0,0,0,0,0,0,0,0,-1,1595,960,0,0
378,64,0,0,0,0,0,0,0,0,0,-1,1602,960,0,0
385,64,0,0,0,0,0,0,0,0,0,-1,1609,960,0,0
392,64,0,0,0,0,0,0,0,0,0,-1,1616,960,0,0
399,64,0,0,0,0,0,0,0,0,0,-1,1623,960,0,0
406,64,0,0,0,0,0,0,0,0,0,-1,1630,960,0,0
413,64,0,0,0,0,0,0,0,0,0,-1,1637,960,0,0
420,64,0,0,0,0,0,0,0,0,0,-1,1644,960,0,0
427,64,0,0,0,0,0,0,0,0,0,-1,1651,960,0,0
434,64,0,0,0,0,0,0,0,0,0,-1,1658,960,0,0
441,64,0,0,0,0,0,0,0,0,0,-1,1665,960,0,0
448,64,0,0,0,0,0,0,0,0,0,-1,1672,960,0,0
455,64,0,0,0,0,0,0,0,0,0,-1,1679,960,0,0
462,64,0,0,0,0,0,0,0,0,0,-1,1686,960,0,0
469,64,0,0,0,0,0,0,0,0,0,-1,1693,960,0,0
476,64,0,0,0,0,0,0,0,0,0,-1,1700,960,0,0
483,64,0,0,0,0,0,0,0,0,0,-1,1707,960,0,0
490,64,0,0,0,0,0,0,0,0,0,-1,1714,960,0,0
497,64,0,0,0,0,0,0,0,0,0,-1,1721,960,0,0
504,64,0,0,0,0,0,0,0,0,0,-1,1728,960,0,0
511,64,0,0,0,0,0,0,0,0,0,-1,1735,960,0,0
518,64,0,0,0,0,0,0,0,0,0,-1,1742,960,0,0
525,64,0,0,0,0,0,0,0,0,0,-1,1749,960,0,0
532,64,0,0,0,0,0,0,0,0,0,-1,1756,960,0,0
539,64,0,0,0,0,0,0,0,0,0,-1,1763,960,0,0
546,64,0,0,0,0,0,0,0,0,0,-1,1770,960,0,0
553,64,0,0,0,0,0,0,0,0,0,-1,1777,960,0,0
560,64,0,0,0,0,0,0,0,0,0,-1,1784,960,0,0
567,64,0,0,0,0,0,0,0,0,0,-1,1791,960,0,0
574,64,0,0,0,0,0,0,0,0,0,-1,1798,960,0,0
581,64,0,0,0,0,0,0,0,0,0,-1,1805,960,0,0
588,64,0,0,0,0,0,0,0,0,0,-1,1812,960,0,0
595,64,0,0,0,0,0,0,0,0,0,-1,1819,960,0,0
602,64,0,0,0,0,0,0,0,0,0,-1,1826,960,0,0
609,64,0,0,0,0,0,0,0,0,0,-1,1833,960,0,0
616,64,0,0,0,0,0,0,0,0,0,-1,1840,960,0,0
623,64,0,0,0,0,0,0,0,0,0,-1,1847,960,0,0
630,64,0,0,0,0,0,0,0,0,0,-1,1854,960,0,0
637,64,0,0,0,0,0,0,0,0,0,-1,1861,960,0,0
644,64,0.0720215,-0.0706177,-0.00228839,0.00244054,0.000256925,0.00245445,-0.00230231,1.51668,0.00274679,0.0372154,1868,960,0.072034,0.070635
651,64,-0.0194092,0.0339966,-0.00163624,0.00202851,9.61674e-05,0.00203104,-0.00163877,1.54458,0.00212279,0.0338744,1875,960,-0.0194622,-0.0340145
658,64,-0.0977783,0.163208,-0.00114116,0.00169089,2.07994e-05,0.00169104,-0.00114131,1.56345,0.00164549,0.0300883,1882,960,-0.097749,-0.163232
665,64,-0.0822754,0.127319,-0.000764206,0.00140259,-1.06003e-05,0.00140265,-0.000764258,-1.5659,0.00126903,0.0324852,1889,960,-0.0822417,-0.127332
672,64,-0.0128174,0.0674438,-0.000483049,0.00115968,-1.18389e-05,0.00115977,-0.000483135,-1.56359,0.000974977,0.0353335,1896,960,-0.0128337,-0.0674451
679,64,-0.00842285,-0.0838013,-0.00028182,0.000957998,1.80422e-05,0.00095826,-0.000282082,1.55625,0.000750745,0.0366357,1903,960,-0.00844993,0.0838107
686,64,-0.0975342,-0.102234,-0.000128021,0.000778686,4.91005e-05,0.000781337,-0.000130672,1.51685,0.000569468,0.0341316,1910,960,-0.0975553,0.102237
693,64,-0.0273438,-0.0757446,1.63482e-05,0.000619089,0.000126179,0.000644437,-9.00036e-06,1.37254,0.000432656,0.0303685,1917,960,-0.0273076,0.0757187
700,64,-0.0142822,-0.0349731,0.000107389,0.000490508,0.000138984,0.000535616,6.22805e-05,1.25697,0.000338234,0.0219388,1924,960,-0.0142753,0.0349461
707,64,-0.0224609,-0.00537109,0.000150089,0.000366206,9.4311e-05,0.000401574,0.000114721,1.21201,0.000238843,0.012611,1931,960,-0.0224733,0.00539255
714,64,-0.0250244,0.0216064,0.000159395,0.000275626,0.00013901,0.00036818,6.68422e-05,0.98339,0.000226485,0.0111884,1938,960,-0.0250115,-0.0216286
721,64,-0.0480957,0.0518799,4.42232e-05,0.000230308,0.000250361,0.000404357,-0.000129825,0.963306,0.0003217,0.0125792,1945,960,-0.0481091,-0.0518918
728,64,-0.0507813,0.069397,-8.73885e-06,0.00022873,0.000172068,0.000319053,-9.90623e-05,1.0874,0.000252291,0.0114619,1952,960,-0.0507792,-0.0693788
735,64,-0.0344238,0.0479736,0.000192715,0.000408152,-0.000260033,0.000581895,1.89724e-05,-0.981763,0.000381763,0.0110512,1959,960,-0.0344729,-0.0479618
742,64,-0.0118408,0.039978,0.000304148,0.000830334,-0.00081288,0.00142164,-0.000287154,-0.941906,0.00105656,0.0110319,1966,960,-0.0118957,-0.0399752
749,64,-0.0198975,0.0582275,0.000640763,0.0015427,-0.00118085,0.00235577,-0.000172303,-0.967802,0.00163098,0.0110192,1973,960,-0.0199086,-0.0582542
756,64,-0.0234375,0.0628662,0.000978724,0.00277278,-0.00185067,0.00393236,-0.000180859,-1.01107,0.00268389,0.0124051,1980,960,-0.0234382,-0.0628573
763,64,-0.0240479,0.0619507,0.00125255,0.00368175,-0.00277246,0.00549399,-0.000559692,-0.991853,0.00386276,0.0119375,1987,960,-0.0240693,-0.0619785
770,64,-0.0367432,0.0648804,0.00174113,0.00515642,-0.00376154,0.00757978,-0.000682235,-0.998476,0.00529527,0.0123846,1994,960,-0.0367745,-0.0648818
777,64,-0.100342,0.053833,0.00234249,0.00702978,-0.00493139,0.0101461,-0.000773836,-1.00722,0.00703622,0.028739,2001,960,-0.100361,-0.053812
784,64,-0.071167,-0.662659,0.00304781,0.00934527,-0.00625269,0.0131973,-0.000804221,-1.01865,0.00907816,0.0427043,2008,960,-0.071188,0.66263
791,64,0.0836182,-1.12408,0.00384806,0.0121253,-0.00770308,0.0167312,-0.000757776,-1.03191,0.0114151,0.0461461,2015,960,0.0835917,1.12408
798,64,0.165161,-1.16199,0.00471035,0.0153627,-0.00924176,0.0207032,-0.000630178,-1.04681,0.0140169,0.041694,2022,960,0.165211,1.16201
805,64,0.263794,-1.1087,0.0055532,0.0190046,-0.0108061,0.0250071,-0.000449321,-1.06376,0.0168232,0.043919,2029,960,0.263789,1.10872
812,64,0,0,0,0,0,0,0,0,0,-1,2036,960,0,0
-700,57,0,0,0,0,0,0,0,0,0,-1,524,967,0,0
-693,57,0,0,0,0,0,0,0,0,0,-1,531,967,0,0
-686,57,-0.0934448,3.354,0.0204904,-0.0344288,-0.0623281,0.0611397,-0.0750781,-0.577908,0.0787825,0.0418741,538,967,-0.0934157,-3.35398
-679,57,-0.280701,2.38348,0.0222218,-0.0234565,-0.0522315,0.0563893,-0.057624,-0.57929,0.0658269,0.0429379,545,967,-0.280698,-2.38348
-672,57,-0.344604,1.60962,0,0,0,0,0,0,0,-1,552,967,-0.344618,-1.60963
-665,57,-0.141541,1.08887,0.0188769,-0.00916266,-0.0345382,0.0421323,-0.0324181,-0.592598,0.0431633,0.0447966,559,967,-0.141524,-1.08884
-658,57,0.251282,0.901184,0.0157642,-0.00487024,-0.0271311,0.0344736,-0.0235796,-0.603706,0.0337132,0.0467518,566,967,0.251292,-0.901181
-651,57,0.182861,-0.0253296,0.0125158,-0.0020111,-0.020745,0.0272322,-0.0167275,-0.617003,0.0256205,0.0416977,573,967,0.182892,0.0253009
-644,57,0.0164185,-0.00244141,0.00945022,-0.000270385,-0.0153926,0.0207316,-0.0115518,-0.632474,0.0188883,0.027134,580,967,0.0164481,0.00244169
-637,57,-0.0223999,0.0581055,0.00679776,0.000647597,-0.0110507,0.0151932,-0.00774788,-0.649696,0.0134756,0.0137527,587,967,-0.0223974,-0.0580997
-630,57,-0.0350952,0.055481,0.00518704,0.00164384,-0.0071228,0.0107553,-0.00392438,-0.66351,0.00877582,0.0120572,594,967,-0.0350985,-0.0554696
-623,57,-0.0184326,0.0491943,0.00331571,0.00162803,-0.00455727,0.00710661,-0.00216287,-0.693853,0.0055997,0.011424,601,967,-0.018448,-0.0491804
-616,57,-0.0187988,0.0636597,0.00164574,0.0016652,-0.00266178,0.00431727,-0.00100632,-0.787226,0.00326572,0.0122903,608,967,-0.0187884,-0.0636827
-609,57,-0.0274658,0.06604,0.00035548,0.00122824,-0.00134988,0.00221052,-0.000626803,-0.941732,0.00172109,0.01276,615,967,-0.0274623,-0.0660269
-602,57,-0.00854492,0.0656128,-0.000212729,0.000432703,-0.000709171,0.000889133,-0.00066916,-0.998926,0.000902664,0.0111839,622,967,-0.0085447,-0.0655977
-595,57,-0.0171509,0.0637207,6.05639e-05,0.000278518,-0.000305006,0.00049343,-0.000154349,-0.956978,0.000390701,0.011913,629,967,-0.0171258,-0.0637129
-588,57,-0.0261841,0.0651245,0.00031643,0.000296054,-0.000177812,0.000484346,0.000128138,-0.756781,0.000289787,0.0152812,636,967,-0.0261854,-0.0651507
-581,57,-0.0227051,0.0834961,0.000485692,0.000413473,-0.000230996,0.000683384,0.000215781,-0.707866,0.000403382,0.0204289,643,967,-0.0227312,-0.0834877
-574,57,-0.0249023,0.0757446,0.000764572,0.000606437,-0.000272763,0.000969496,0.000401513,-0.644327,0.000562483,0.026505,650,967,-0.0248897,-0.0757418
-567,57,0.0123901,0.079834,0.0011964,0.000687927,-0.000296028,0.00133238,0.000551948,-0.430599,0.000773012,0.0307666,657,967,0.012366,-0.0798624
-560,57,0.0892944,0.121338,0.00172204,0.000832566,-0.000312362,0.00182078,0.000733832,-0.306151,0.0010578,0.034235,664,967,0.0893001,-0.121338
-553,57,-0.034668,-0.0708008,0.00241945,0.000997203,-0.000331177,0.00249279,0.000923868,-0.21792,0.00145518,0.0328393,671,967,-0.0346551,0.0708087
-546,57,-0.11261,-0.0447998,0.00338152,0.00118598,-0.000377072,0.00344448,0.00112302,-0.165431,0.0020284,0.0353329,678,967,-0.112612,0.0448145
-539,57,-0.0778198,0.0760498,0.00461805,0.00140563,-0.000486771,0.00469019,0.00133349,-0.147129,0.0027906,0.0382182,685,967,-0.0778194,-0.0760389
-532,57,0.0366211,-0.0760498,0.00615361,0.00166306,-0.000704813,0.00626164,0.00155503,-0.152084,0.0037647,0.0384478,692,967,0.0366053,0.0760784
-525,57,0.0437012,0.0267944,0.00807118,0.00194134,-0.00110625,0.00826471,0.0017478,-0.173194,0.00502948,0.0385208,699,967,0.0436978,-0.0267891
-518,57,0,0,0,0,0,0,0,0,0,-1,706,967,0,0
-511,57,0,0,0,0,0,0,0,0,0,-1,713,967,0,0
-504,57,0,0,0,0,0,0,0,0,0,-1,720,967,0,0
-497,57,0,0,0,0,0,0,0,0,0,-1,727,967,0,0
-490,57,0,0,0,0,0,0,0,0,0,-1,734,967,0,0
-483,57,0,0,0,0,0,0,0,0,0,-1,741,967,0,0
-476,57,0,0,0,0,0,0,0,0,0,-1,748,967,0,0
-469,57,0,0,0,0,0,0,0,0,0,-1,755,967,0,0
-462,57,0,0,0,0,0,0,0,0,0,-1,762,967,0,0
-455,57,0,0,0,0,0,0,0,0,0,-1,769,967,0,0
-448,57,0,0,0,0,0,0,0,0,0,-1,776,967,0,0
-441,57,0,0,0,0,0,0,0,0,0,-1,783,967,0,0
-434,57,0,0,0,0,0,0,0,0,0,-1,790,967,0,0
-427,57,0,0,0,0,0,0,0,0,0,-1,797,967,0,0
-420,57,0,0,0,0,0,0,0,0,0,-1,804,967,0,0
-413,57,0,0,0,0,0,0,0,0,0,-1,811,967,0,0
-406,57,0,0,0,0,0,0,0,0,0,-1,818,967,0,0
-399,57,0,0,0,0,0,0,0,0,0,-1,825,967,0,0
-392,57,0,0,0,0,0,0,0,0,0,-1,832,967,0,0
-385,57,0,0,0,0,0,0,0,0,0,-1,839,967,0,0
-378,57,0,0,0,0,0,0,0,0,0,-1,846,967,0,0
-371,57,0,0,0,0,0,0,0,0,0,-1,853,967,0,0
-364,57,0,0,0,0,0,0,0,0,0,-1,860,967,0,0
-357,57,0,0,0,0,0,0,0,0,0,-1,867,967,0,0
-350,57,0,0,0,0,0,0,0,0,0,-1,874,967,0,0
-343,57,0,0,0,0,0,0,0,0,0,-1,881,967,0,0
-336,57,0,0,0,0,0,0,0,0,0,-1,888,967,0,0
-329,57,0,0,0,0,0,0,0,0,0,-1,895,967,0,0
-322,57,0,0,0,0,0,0,0,0,0,-1,902,967,0,0
-315,57,0,0,0,0,0,0,0,0,0,-1,909,967,0,0
-308,57,0,0,0,0,0,0,0,0,0,-1,916,967,0,0
-301,57,0,0,0,0,0,0,0,0,0,-1,923,967,0,0
-294,57,0,0,0,0,0,0,0,0,0,-1,930,967,0,0
-287,57,0,0,0,0,0,0,0,0,0,-1,937,967,0,0
-280,57,0,0,0,0,0,0,0,0,0,-1,944,967,0,0
-273,57,0,0,0,0,0,0,0,0,0,-1,951,967,0,0
-266,57,0,0,0,0,0,0,0,0,0,-1,958,967,0,0
-259,57,0,0,0,0,0,0,0,0,0,-1,965,967,0,0
-252,57,0,0,0,0,0,0,0,0,0,-1,972,967,0,0
-245,57,0,0,0,0,0,0,0,0,0,-1,979,967,0,0
-238,57,0,0,0,0,0,0,0,0,0,-1,986,967,0,0
-231,57,0,0,0,0,0,0,0,0,0,-1,993,967,0,0
-224,57,0,0,0,0,0,0,0,0,0,-1,1000,967,0,0
-217,57,0,0,0,0,0,0,0,0,0,-1,1007,967,0,0
-210,57,0,0,0,0,0,0,0,0,0,-1,1014,967,0,0
-203,57,0,0,0,0,0,0,0,0,0,-1,1021,967,0,0
-196,57,0,0,0,0,0,0,0,0,0,-1,1028,967,0,0
-189,57,0,0,0,0,0,0,0,0,0,-1,1035,967,0,0
-182,57,0,0,0,0,0,0,0,0,0,-1,1042,967,0,0
-175,57,0,0,0,0,0,0,0,0,0,-1,1049,967,0,0
-168,57,0,0,0,0,0,0,0,0,0,-1,1056,967,0,0
-161,57,0,0,0,0,0,0,0,0,0,-1,1063,967,0,0
-154,57,0,0,0,0,0,0,0,0,0,-1,1070,967,0,0
-147,57,0,0,0,0,0,0,0,0,0,-1,1077,967,0,0
-140,57,0,0,0,0,0,0,0,0,0,-1,1084,967,0,0
-133,57,0,0,0,0,0,0,0,0,0,-1,1091,967,0,0
-126,57,0,0,0,0,0,0,0,0,0,-1,1098,967,0,0
-119,57,0,0,0,0,0,0,0,0,0,-1,1105,967,0,0
-112,57,0,0,0,0,0,0,0,0,0,-1,1112,967,0,0
-105,57,0,0,0,0,0,0,0,0,0,-1,1119,967,0,0
-98,57,0,0,0,0,0,0,0,0,0,-1,1126,967,0,0
-91,57,0,0,0,0,0,0,0,0,0,-1,1133,967,0,0
-84,57,0,0,0,0,0,0,0,0,0,-1,1140,967,0,0
-77,57,0,0,0,0,0,0,0,0,0,-1,1147,967,0,0
-70,57,0,0,0,0,0,0,0,0,0,-1,1154,967,0,0
-63,57,0,0,0,0,0,0,0,0,0,-1,1161,967,0,0
-56,57,0,0,0,0,0,0,0,0,0,-1,1168,967,0,0
-49,57,0,0,0,0,0,0,0,0,0,-1,1175,967,0,0
-42,57,0,0,0,0,0,0,0,0,0,-1,1182,967,0,0
-35,57,0,0,0,0,0,0,0,0,0,-1,1189,967,0,0
-28,57,0,0,0,0,0,0,0,0,0,-1,1196,967,0,0
-21,57,0,0,0,0,0,0,0,0,0,-1,1203,967,0,0
-14,57,0,0,0,0,0,0,0,0,0,-1,1210,967,0,0
-7,57,0,0,0,0,0,0,0,0,0,-1,1217,967,0,0
0,57,0,0,0,0,0,0,0,0,0,-1,1224,967,0,0
7,57,0,0,0,0,0,0,0,0,0,-1,1231,967,0,0
14,57,0,0,0,0,0,0,0,0,0,-1,1238,967,0,0
21,57,0,0,0,0,0,0,0,0,0,-1,1245,967,0,0
28,57,0,0,0,0,0,0,0,0,0,-1,1252,967,0,0
35,57,0,0,0,0,0,0,0,0,0,-1,1259,967,0,0
42,57,0,0,0,0,0,0,0,0,0,-1,1266,967,0,0
49,57,0,0,0,0,0,0,0,0,0,-1,1273,967,0,0
56,57,0,0,0,0,0,0,0,0,0,-1,1280,967,0,0
63,57,0,0,0,0,0,0,0,0,0,-1,1287,967,0,0
70,57,0,0,0,0,0,0,0,0,0,-1,1294,967,0,0
77,57,0,0,0,0,0,0,0,0,0,-1,1301,967,0,0
84,57,0,0,0,0,0,0,0,0,0,-1,1308,967,0,0
91,57,0,0,0,0,0,0,0,0,0,-1,1315,967,0,0
98,57,0,0,0,0,0,0,0,0,0,-1,1322,967,0,0
105,57,0,0,0,0,0,0,0,0,0,-1,1329,967,0,0
112,57,0,0,0,0,0,0,0,0,0,-1,1336,967,0,0
119,57,0,0,0,0,0,0,0,0,0,-1,1343,967,0,0
126,57,0,0,0,0,0,0,0,0,0,-1,1350,967,0,0
133,57,0,0,0,0,0,0,0,0,0,-1,1357,967,0,0
140,57,0,0,0,0,0,0,0,0,0,-1,1364,967,0,0
147,57,0,0,0,0,0,0,0,0,0,-1,1371,967,0,0
154,57,0,0,0,0,0,0,0,0,0,-1,1378,967,0,0
161,57,0,0,0,0,0,0,0,0,0,-1,1385,967,0,0
168,57,0,0,0,0,0,0,0,0,0,-1,1392,967,0,0
175,57,0,0,0,0,0,0,0,0,0,-1,1399,967,0,0
182,57,0,0,0,0,0,0,0,0,0,-1,1406,967,0,0
189,57,0,0,0,0,0,0,0,0,0,-1,1413,967,0,0
196,57,0,0,0,0,0,0,0,0,0,-1,1420,967,0,0
203,57,0,0,0,0,0,0,0,0,0,-1,1427,967,0,0
210,57,0,0,0,0,0,0,0,0,0,-1,1434,967,0,0
217,57,0,0,0,0,0,0,0,0,0,-1,1441,967,0,0
224,57,0,0,0,0,0,0,0,0,0,-1,1448,967,0,0
231,57,0,0,0,0,0,0,0,0,0,-1,1455,967,0,0
238,57,0,0,0,0,0,0,0,0,0,-1,1462,967,0,0
245,57,0,0,0,0,0,0,0,0,0,-1,1469,967,0,0
252,57,0,0,0,0,0,0,0,0,0,-1,1476,967,0,0
259,57,0,0,0,0,0,0,0,0,0,-1,1483,967,0,0
266,57,0,0,0,0,0,0,0,0,0,-1,1490,967,0,0
273,57,0,0,0,0,0,0,0,0,0,-1,1497,967,0,0
280,57,0,0,0,0,0,0,0,0,0,-1,1504,967,0,0
287,57,0,0,0,0,0,0,0,0,0,-1,1511,967,0,0
294,57,0,0,0,0,0,0,0,0,0,-1,1518,967,0,0
301,57,0,0,0,0,0,0,0,0,0,-1,1525,967,0,0
308,57,0,0,0,0,0,0,0,0,0,-1,1532,967,0,0
315,57,0,0,0,0,0,0,0,0,0,-1,1539,967,0,0
322,57,0,0,0,0,0,0,0,0,0,-1,1546,967,0,0
329,57,0,0,0,0,0,0,0,0,0,-1,1553,967,0,0
336,57,0,0,0,0,0,0,0,0,0,-1,1560,967,0,0
343,57,0,0,0,0,0,0,0,0,0,-1,1567,967,0,0
350,57,0,0,0,0,0,0,0,0,0,-1,1574,967,0,0
357,57,0,0,0,0,0,0,0,0,0,-1,1581,967,0,0
364,57,0,0,0,0,0,0,0,0,0,-1,1588,967,0,0
371,57,0,0,0,0,0,0,0,0,0,-1,1595,967,0,0
378,57,0,0,0,0,0,0,0,0,0,-1,1602,967,0,0
385,57,0,0,0,0,0,0,0,0,0,-1,1609,967,0,0
392,57,0,0,0,0,0,0,0,0,0,-1,1616,967,0,0
399,57,0,0,0,0,0,0,0,0,0,-1,1623,967,0,0
406,57,0,0,0,0,0,0,0,0,0,-1,1630,967,0,0
413,57,0,0,0,0,0,0,0,0,0,-1,1637,967,0,0
420,57,0,0,0,0,0,0,0,0,0,-1,1644,967,0,0
427,57,0,0,0,0,0,0,0,0,0,-1,1651,967,0,0
434,57,0,0,0,0,0,0,0,0,0,-1,1658,967,0,0
441,57,0,0,0,0,0,0,0,0,0,-1,1665,967,0,0
448,57,0,0,0,0,0,0,0,0,0,-1,1672,967,0,0
455,57,0,0,0,0,0,0,0,0,0,-1,1679,967,0,0
462,57,0,0,0,0,0,0,0,0,0,-1,1686,967,0,0
469,57,0,0,0,0,0,0,0,0,0,-1,1693,967,0,0
476,57,0,0,0,0,0,0,0,0,0,-1,1700,967,0,0
483,57,0,0,0,0,0,0,0,0,0,-1,1707,967,0,0
490,57,0,0,0,0,0,0,0,0,0,-1,1714,967,0,0
497,57,0,0,0,0,0,0,0,0,0,-1,1721,967,0,0
504,57,0,0,0,0,0,0,0,0,0,-1,1728,967,0,0
511,57,0,0,0,0,0,0,0,0,0,-1,1735,967,0,0
518,57,0,0,0,0,0,0,0,0,0,-1,1742,967,0,0
525,57,0,0,0,0,0,0,0,0,0,-1,1749,967,0,0
532,57,0,0,0,0,0,0,0,0,0,-1,1756,967,0,0
539,57,0,0,0,0,0,0,0,0,0,-1,1763,967,0,0
546,57,0,0,0,0,0,0,0,0,0,-1,1770,967,0,0
553,57,0,0,0,0,0,0,0,0,0,-1,1777,967,0,0
560,57,0,0,0,0,0,0,0,0,0,-1,1784,967,0,0
567,57,0,0,0,0,0,0,0,0,0,-1,1791,967,0,0
574,57,0,0,0,0,0,0,0,0,0,-1,1798,967,0,0
581,57,0,0,0,0,0,0,0,0,0,-1,1805,967,0,0
588,57,0,0,0,0,0,0,0,0,0,-1,1812,967,0,0
595,57,0,0,0,0,0,0,0,0,0,-1,1819,967,0,0
602,57,0,0,0,0,0,0,0,0,0,-1,1826,967,0,0
609,57,0,0,0,0,0,0,0,0,0,-1,1833,967,0,0
616,57,0,0,0,0,0,0,0,0,0,-1,1840,967,0,0
623,57,0,0,0,0,0,0,0,0,0,-1,1847,967,0,0
630,57,0,0,0,0,0,0,0,0,0,-1,1854,967,0,0
637,57,0,0,0,0,0,0,0,0,0,-1,1861,967,0,0
644,57,0.104126,-0.0679932,-0.00201111,0.00217683,0.000494592,0.00223445,-0.00206873,1.45482,0.00248505,0.0339211,1868,967,0.104126,0.0679708
651,57,0.02771,-0.0400391,-0.00137743,0.00194895,0.000317489,0.00197898,-0.00140746,1.47649,0.00196442,0.0287137,1875,967,0.027738,0.0400279
658,57,-0.0368652,0.0726929,-0.000929986,0.00173158,0.000231666,0.0017516,-0.00095,1.48462,0.00158249,0.0286739,1882,967,-0.036879,-0.0727186
665,57,-0.0554199,0.0524902,-0.000597232,0.00151517,0.000186209,0.00153146,-0.000613521,1.48354,0.00127564,0.0352769,1889,967,-0.0554495,-0.0525153
672,57,0.0168457,-0.010376,-0.00035516,0.00130818,0.000163781,0.00132416,-0.000371133,1.47358,0.00102904,0.0366111,1896,967,0.0169001,0.0103506
679,57,-0.0462646,0.180908,-0.000189451,0.00111767,0.000170454,0.00113953,-0.000211313,1.44323,0.000839045,0.036556,1903,967,-0.046279,-0.180935
686,57,-0.0904541,-0.0924072,-6.63472e-05,0.000938754,0.000176615,0.000968885,-9.64786e-05,1.40182,0.000680367,0.0342316,1910,967,-0.0904019,0.0924081
693,57,-0.0667725,-0.100403,5.01178e-05,0.000753759,0.000227113,0.000820696,-1.68191e-05,1.28418,0.000552823,0.0279202,1917,967,-0.0667759,0.100423
700,57,-0.0272217,-0.0360107,0.000133887,0.000622788,0.000228933,0.00071325,4.34252e-05,1.19448,0.000461706,0.0184701,1924,967,-0.0272626,0.036006
707,57,-0.0264893,0.0116577,0.000159869,0.000477417,0.000167103,0.000549148,8.81372e-05,1.16532,0.000340543,0.0136795,1931,967,-0.0264359,-0.0116465
714,57,-0.0246582,0.0356445,0.000156943,0.000357617,0.000181517,0.000464682,4.98772e-05,1.03788,0.000294574,0.0135657,1938,967,-0.0246254,-0.0356205
721,57,-0.0273438,0.0408936,6.86105e-05,0.000295477,0.000260447,0.000466121,-0.000102033,0.990778,0.000349755,0.0146693,1945,967,-0.0273234,-0.0408771
728,57,-0.032959,0.0525513,5.44585e-05,0.00027241,0.000150525,0.000349266,-2.23976e-05,1.09871,0.000240657,0.0169744,1952,967,-0.0329985,-0.0525588
735,57,-0.038208,0.0472412,0.000260756,0.000371493,-0.000309694,0.000630729,1.52021e-06,-0.873857,0.00041998,0.0151709,1959,967,-0.0382234,-0.0472207
742,57,-0.0111084,0.0241699,0.000263177,0.00061287,-0.000936386,0.00139059,-0.000514547,-0.877698,0.00113804,0.01355,1966,967,-0.0110475,-0.0241763
749,57,-0.0300293,0.0549316,0.000471442,0.00109892,-0.00138022,0.00220061,-0.000630249,-0.897154,0.00171617,0.0118814,1973,967,-0.0300612,-0.054942
756,57,-0.0333252,0.0515137,0.000684743,0.00219132,-0.00212078,0.00368862,-0.000812559,-0.956045,0.00276995,0.00992874,1980,967,-0.033266,-0.0515236
763,57,-0.0251465,0.0333862,0.000758213,0.00282899,-0.00316801,0.00512652,-0.00153932,-0.94334,0.00403,0.0107535,1987,967,-0.0251565,-0.0333967
770,57,-0.0167236,0.0466309,0.000980049,0.00395893,-0.00427278,0.00699443,-0.00205545,-0.953106,0.00547819,0.0104304,1994,967,-0.0167216,-0.0466214
777,57,-0.0406494,0.103943,0.00124254,0.00539751,-0.00556892,0.00926383,-0.00262378,-0.963928,0.00721138,0.0255828,2001,967,-0.0406541,-0.103955
784,57,0.282471,0.214844,0.00152973,0.00717513,-0.00701669,0.0119156,-0.00321074,-0.976635,0.00920261,0.0429222,2008,967,0.282524,-0.214858
791,57,0.281982,-1.79956,0.00184014,0.00930654,-0.00857172,0.0149227,-0.00377605,-0.990774,0.0114173,0.0484322,2015,967,0.282005,1.79953
798,57,0.623901,-0.159729,0.00216832,0.0117715,-0.01017,0.0182164,-0.00427658,-1.00595,0.0137926,0.0476422,2022,967,0.623848,0.159741
805,57,0.95752,-0.25708,0,0,0,0,0,0,0,-1,2029,967,0.957547,0.257085
812,57,0,0,0,0,0,0,0,0,0,-1,2036,967,0,0
-700,50,0,0,0,0,0,0,0,0,0,-1,524,974,0,0
-693,50,0.44165,5.76044,0,0,0,0,0,0,0,-1,531,974,0.44165,-5.76042
-686,50,0.142944,3.76312,0.0146809,-0.0149884,-0.065183,0.066696,-0.0670035,-0.673511,0.0771915,0.0426106,538,974,0.142916,-3.76314
-679,50,0.0452271,2.59692,0.016631,-0.00813606,-0.0539166,0.0595679,-0.051073,-0.672516,0.0639413,0.0423333,545,974,0.0452029,-2.59691
-672,50,-0.163025,1.56439,0.0161926,-0.00338749,-0.0436836,0.0511698,-0.0383646,-0.675163,0.0518686,0.0430705,552,974,-0.16301,-1.56438
-665,50,-0.501404,0.413513,0.0144049,-0.000237499,-0.0346122,0.0424618,-0.0282944,-0.681174,0.0411231,0.0483125,559,974,-0.501424,-0.413541
-658,50,0.301941,0.383179,0.0119909,0.00166862,-0.0267438,0.034067,-0.0204075,-0.690078,0.0317788,0.0470935,566,974,0.301966,-0.383166
-651,50,0.164307,0.1026,0.00944435,0.00262235,-0.0200943,0.0264151,-0.0143484,-0.701325,0.023876,0.0386871,573,974,0.164287,-0.10261
-644,50,-0.0122681,-0.0222778,0.00703667,0.00289325,-0.0146419,0.0197527,-0.00982277,-0.715119,0.0173933,0.0240277,580,974,-0.012254,0.022306
-637,50,-0.0418091,0.0298462,0.00496843,0.0027248,-0.0103176,0.0142251,-0.00653182,-0.731247,0.0122553,0.0131443,587,974,-0.0418188,-0.0298447
-630,50,-0.0396118,0.0556641,0.00386876,0.00280575,-0.00645269,0.00981179,-0.00313728,-0.744306,0.00780018,0.00999227,594,974,-0.0396319,-0.0556941
-623,50,-0.0238037,0.0652466,0.00233273,0.00218874,-0.00397577,0.00623715,-0.00171568,-0.776344,0.0048326,0.0104458,601,974,-0.0238098,-0.0652668
-616,50,-0.0234985,0.0577393,0.000985333,0.00182115,-0.00212765,0.00357155,-0.000765064,-0.882373,0.00267281,0.0101129,608,974,-0.023477,-0.057727
-609,50,-0.0328369,0.0473633,3.64121e-05,0.00117231,-0.000952657,0.00171347,-0.000504747,-1.0542,0.00134257,0.00976455,615,974,-0.0328168,-0.0473832
-602,50,-0.0279541,0.0479736,-0.000375005,0.000395673,-0.00057806,0.000705057,-0.000684388,-1.07938,0.000802226,0.010698,622,974,-0.0279423,-0.0479805
-595,50,-0.0343018,0.0543823,-3.72657e-05,0.000266225,-0.000275414,0.000428931,-0.000199972,-1.03719,0.000371031,0.0112921,629,974,-0.0343223,-0.0544094
-588,50,-0.0301514,0.071228,0.000304172,0.000292566,-0.00019463,0.000493085,0.000103653,-0.770495,0.000300198,0.0121219,636,974,-0.0301585,-0.0712163
-581,50,-0.0221558,0.0792236,0.000502784,0.000409109,-0.000257813,0.00071798,0.000193914,-0.695542,0.000428886,0.0178415,643,974,-0.0221787,-0.0792005
-574,50,-0.0275879,0.0514526,0.000786006,0.000611267,-0.000302675,0.00101367,0.000383603,-0.644889,0.00059098,0.0237197,650,974,-0.0275669,-0.0514739
-567,50,0.00891113,-0.0805054,0.00121727,0.000707384,-0.000314787,0.00136741,0.000557251,-0.445025,0.000793961,0.0325028,657,974,0.00888495,0.0805318
-560,50,0.00292969,-0.0703125,0.00175081,0.000875466,-0.000322615,0.00185686,0.000769413,-0.317601,0.00107729,0.0383212,664,974,0.00294354,0.0702954
-553,50,-0.136841,0.0450439,0.00245783,0.00107763,-0.000332762,0.00253387,0.00100159,-0.224652,0.00147358,0.0371489,671,974,-0.13681,-0.0450174
-546,50,-0.0530396,-0.00970459,0.00342287,0.00132164,-0.000371777,0.00348671,0.0012578,-0.170058,0.00203891,0.0351368,678,974,-0.0530686,0.00969621
-539,50,0.113281,0.163269,0.00463494,0.00162337,-0.000481149,0.00470995,0.00154836,-0.15464,0.00277195,0.0370312,685,974,0.113251,-0.163249
-532,50,0.116455,-0.0270996,0.00610393,0.00200694,-0.000711002,0.00622381,0.00188706,-0.167038,0.00368493,0.0369167,692,974,0.116426,0.0270697
-525,50,0.043396,-0.0999756,0.00789246,0.00246644,-0.00113042,0.00811854,0.00224035,-0.197395,0.00484156,0.0374849,699,974,0.0434116,0.0999622
-518,50,0,0,0,0,0,0,0,0,0,-1,706,974,0,0
-511,50,0,0,0,0,0,0,0,0,0,-1,713,974,0,0
-504,50,0,0,0,0,0,0,0,0,0,-1,720,974,0,0
-497,50,0,0,0,0,0,0,0,0,0,-1,727,974,0,0
-490,50,0,0,0,0,0,0,0,0,0,-1,734,974,0,0
-483,50,0,0,0,0,0,0,0,0,0,-1,741,974,0,0
-476,50,0,0,0,0,0,0,0,0,0,-1,748,974,0,0
-469,50,0,0,0,0,0,0,0,0,0,-1,755,974,0,0
-462,50,0,0,0,0,0,0,0,0,0,-1,762,974,0,0
-455,50,0,0,0,0,0,0,0,0,0,-1,769,974,0,0
-448,50,0,0,0,0,0,0,0,0,0,-1,776,974,0,0
-441,50,0,0,0,0,0,0,0,0,0,-1,783,974,0,0
-434,50,0,0,0,0,0,0,0,0,0,-1,790,974,0,0
-427,50,0,0,0,0,0,0,0,0,0,-1,797,974,0,0
-420,50,0,0,0,0,0,0,0,0,0,-1,804,974,0,0
-413,50,0,0,0,0,0,0,0,0,0,-1,811,974,0,0
-406,50,0,0,0,0,0,0,0,0,0,-1,818,974,0,0
-399,50,0,0,0,0,0,0,0,0,0,-1,825,974,0,0
-392,50,0,0,0,0,0,0,0,0,0,-1,832,974,0,0
-385,50,0,0,0,0,0,0,0,0,0,-1,839,974,0,0
-378,50,0,0,0,0,0,0,0,0,0,-1,846,974,0,0
-371,50,0,0,0,0,0,0,0,0,0,-1,853,974,0,0
-364,50,0,0,0,0,0,0,0,0,0,-1,860,974,0,0
-357,50,0,0,0,0,0,0,0,0,0,-1,867,974,0,0
-350,50,0,0,0,0,0,0,0,0,0,-1,874,974,0,0
-343,50,0,0,0,0,0,0,0,0,0,-1,881,974,0,0
-336,50,0,0,0,0,0,0,0,0,0,-1,888,974,0,0
-329,50,0,0,0,0,0,0,0,0,0,-1,895,974,0,0
-322,50,0,0,0,0,0,0,0,0,0,-1,902,974,0,0
-315,50,0,0,0,0,0,0,0,0,0,-1,909,974,0,0
-308,50,0,0,0,0,0,0,0,0,0,-1,916,974,0,0
-301,50,0,0,0,0,0,0,0,0,0,-1,923,974,0,0
-294,50,0,0,0,0,0,0,0,0,0,-1,930,974,0,0
-287,50,0,0,0,0,0,0,0,0,0,-1,937,974,0,0
-280,50,0,0,0,0,0,0,0,0,0,-1,944,974,0,0
-273,50,0,0,0,0,0,0,0,0,0,-1,951,974,0,0
-266,50,0,0,0,0,0,0,0,0,0,-1,958,974,0,0
-259,50,0,0,0,0,0,0,0,0,0,-1,965,974,0,0
-252,50,0,0,0,0,0,0,0,0,0,-1,972,974,0,0
-245,50,0,0,0,0,0,0,0,0,0,-1,979,974,0,0
-238,50,0,0,0,0,0,0,0,0,0,-1,986,974,0,0
-231,50,0,0,0,0,0,0,0,0,0,-1,993,974,0,0
-224,50,0,0,0,0,0,0,0,0,0,-1,1000,974,0,0
-217,50,0,0,0,0,0,0,0,0,0,-1,1007,974,0,0
-210,50,0,0,0,0,0,0,0,0,0,-1,1014,974,0,0
-203,50,0,0,0,0,0,0,0,0,0,-1,1021,974,0,0
-196,50,0,0,0,0,0,0,0,0,0,-1,1028,974,0,0
-189,50,0,0,0,0,0,0,0,0,0,-1,1035,974,0,0
-182,50,0,0,0,0,0,0,0,0,0,-1,1042,974,0,0
-175,50,0,0,0,0,0,0,0,0,0,-1,1049,974,0,0
-168,50,0,0,0,0,0,0,0,0,0,-1,1056,974,0,0
-161,50,0,0,0,0,0,0,0,0,0,-1,1063,974,0,0
-154,50,0,0,0,0,0,0,0,0,0,-1,1070,974,0,0
-147,50,0,0,0,0,0,0,0,0,0,-1,1077,974,0,0
-140,50,0,0,0,0,0,0,0,0,0,-1,1084,974,0,0
-133,50,0,0,0,0,0,0,0,0,0,-1,1091,974,0,0
-126,50,0,0,0,0,0,0,0,0,0,-1,1098,974,0,0
-119,50,0,0,0,0,0,0,0,0,0,-1,1105,974,0,0
-112,50,0,0,0,0,0,0,0,0,0,-1,1112,974,0,0
-105,50,0,0,0,0,0,0,0,0,0,-1,1119,974,0,0
-98,50,0,0,0,0,0,0,0,0,0,-1,1126,974,0,0
-91,50,0,0,0,0,0,0,0,0,0,-1,1133,974,0,0
-84,50,0,0,0,0,0,0,0,0,0,-1,1140,974,0,0
-77,50,0,0,0,0,0,0,0,0,0,-1,1147,974,0,0
-70,50,0,0,0,0,0,0,0,0,0,-1,1154,974,0,0
-63,50,0,0,0,0,0,0,0,0,0,-1,1161,974,0,0
-56,50,0,0,0,0,0,0,0,0,0,-1,1168,974,0,0
-49,50,0,0,0,0,0,0,0,0,0,-1,1175,974,0,0
-42,50,0,0,0,0,0,0,0,0,0,-1,1182,974,0,0
-35,50,0,0,0,0,0,0,0,0,0,-1,1189,974,0,0
-28,50,0,0,0,0,0,0,0,0,0,-1,1196,974,0,0
-21,50,0,0,0,0,0,0,0,0,0,-1,1203,974,0,0
-14,50,0,0,0,0,0,0,0,0,0,-1,1210,974,0,0
-7,50,0,0,0,0,0,0,0,0,0,-1,1217,974,0,0
0,50,0,0,0,0,0,0,0,0,0,-1,1224,974,0,0
7,50,0,0,0,0,0,0,0,0,0,-1,1231,974,0,0
14,50,0,0,0,0,0,0,0,0,0,-1,1238,974,0,0
21,50,0,0,0,0,0,0,0,0,0,-1,1245,974,0,0
28,50,0,0,0,0,0,0,0,0,0,-1,1252,974,0,0
35,50,0,0,0,0,0,0,0,0,0,-1,1259,974,0,0
42,50,0,0,0,0,0,0,0,0,0,-1,1266,974,0,0
49,50,0,0,0,0,0,0,0,0,0,-1,1273,974,0,0
56,50,0,0,0,0,0,0,0,0,0,-1,1280,974,0,0
63,50,0,0,0,0,0,0,0,0,0,-1,1287,974,0,0
70,50,0,0,0,0,0,0,0,0,0,-1,1294,974,0,0
77,50,0,0,0,0,0,0,0,0,0,-1,1301,974,0,0
84,50,0,0,0,0,0,0,0,0,0,-1,1308,974,0,0
91,50,0,0,0,0,0,0,0,0,0,-1,1315,974,0,0
98,50,0,0,0,0,0,0,0,0,0,-1,1322,974,0,0
105,50,0,0,0,0,0,0,0,0,0,-1,1329,974,0,0
112,50,0,0,0,0,0,0,0,0,0,-1,1336,974,0,0
119,50,0,0,0,0,0,0,0,0,0,-1,1343,974,0,0
126,50,0,0,0,0,0,0,0,0,0,-1,1350,974,0,0
133,50,0,0,0,0,0,0,0,0,0,-1,1357,974,0,0
140,50,0,0,0,0,0,0,0,0,0,-1,1364,974,0,0
147,50,0,0,0,0,0,0,0,0,0,-1,1371,974,0,0
154,50,0,0,0,0,0,0,0,0,0,-1,1378,974,0,0
161,50,0,0,0,0,0,0,0,0,0,-1,1385,974,0,0
168,50,0,0,0,0,0,0,0,0,0,-1,1392,974,0,0
175,50,0,0,0,0,0,0,0,0,0,-1,1399,974,0,0
182,50,0,0,0,0,0,0,0,0,0,-1,1406,974,0,0
189,50,0,0,0,0,0,0,0,0,0,-1,1413,974,0,0
196,50,0,0,0,0,0,0,0,0,0,-1,1420,974,0,0
203,50,0,0,0,0,0,0,0,0,0,-1,1427,974,0,0
210,50,0,0,0,0,0,0,0,0,0,-1,1434,974,0,0
217,50,0,0,0,0,0,0,0,0,0,-1,1441,974,0,0
224,50,0,0,0,0,0,0,0,0,0,-1,1448,974,0,0
231,50,0,0,0,0,0,0,0,0,0,-1,1455,974,0,0
238,50,0,0,0,0,0,0,0,0,0,-1,1462,974,0,0
245,50,0,0,0,0,0,0,0,0,0,-1,1469,974,0,0
252,50,0,0,0,0,0,0,0,0,0,-1,1476,974,0,0
259,50,0,0,0,0,0,0,0,0,0,-1,1483,974,0,0
266,50,0,0,0,0,0,0,0,0,0,-1,1490,974,0,0
273,50,0,0,0,0,0,0,0,0,0,-1,1497,974,0,0
280,50,0,0,0,0,0,0,0,0,0,-1,1504,974,0,0
287,50,0,0,0,0,0,0,0,0,0,-1,1511,974,0,0
294,50,0,0,0,0,0,0,0,0,0,-1,1518,974,0,0
301,50,0,0,0,0,0,0,0,0,0,-1,1525,974,0,0
308,50,0,0,0,0,0,0,0,0,0,-1,1532,974,0,0
315,50,0,0,0,0,0,0,0,0,0,-1,1539,974,0,0
322,50,0,0,0,0,0,0,0,0,0,-1,1546,974,0,0
329,50,0,0,0,0,0,0,0,0,0,-1,1553,974,0,0
336,50,0,0,0,0,0,0,0,0,0,-1,1560,974,0,0
343,50,0,0,0,0,0,0,0,0,0,-1,1567,974,0,0
350,50,0,0,0,0,0,0,0,0,0,-1,1574,974,0,0
357,50,0,0,0,0,0,0,0,0,0,-1,1581,974,0,0
364,50,0,0,0,0,0,0,0,0,0,-1,1588,974,0,0
371,50,0,0,0,0,0,0,0,0,0,-1,1595,974,0,0
378,50,0,0,0,0,0,0,0,0,0,-1,1602,974,0,0
385,50,0,0,0,0,0,0,0,0,0,-1,1609,974,0,0
392,50,0,0,0,0,0,0,0,0,0,-1,1616,974,0,0
399,50,0,0,0,0,0,0,0,0,0,-1,1623,974,0,0
406,50,0,0,0,0,0,0,0,0,0,-1,1630,974,0,0
413,50,0,0,0,0,0,0,0,0,0,-1,1637,974,0,0
420,50,0,0,0,0,0,0,0,0,0,-1,1644,974,0,0
427,50,0,0,0,0,0,0,0,0,0,-1,1651,974,0,0
434,50,0,0,0,0,0,0,0,0,0,-1,1658,974,0,0
441,50,0,0,0,0,0,0,0,0,0,-1,1665,974,0,0
448,50,0,0,0,0,0,0,0,0,0,-1,1672,974,0,0
455,50,0,0,0,0,0,0,0,0,0,-1,1679,974,0,0
462,50,0,0,0,0,0,0,0,0,0,-1,1686,974,0,0
469,50,0,0,0,0,0,0,0,0,0,-1,1693,974,0,0
476,50,0,0,0,0,0,0,0,0,0,-1,1700,974,0,0
483,50,0,0,0,0,0,0,0,0,0,-1,1707,974,0,0
490,50,0,0,0,0,0,0,0,0,0,-1,1714,974,0,0
497,50,0,0,0,0,0,0,0,0,0,-1,1721,974,0,0
504,50,0,0,0,0,0,0,0,0,0,-1,1728,974,0,0
511,50,0,0,0,0,0,0,0,0,0,-1,1735,974,0,0
518,50,0,0,0,0,0,0,0,0,0,-1,1742,974,0,0
525,50,0,0,0,0,0,0,0,0,0,-1,1749,974,0,0
532,50,0,0,0,0,0,0,0,0,0,-1,1756,974,0,0
539,50,0,0,0,0,0,0,0,0,0,-1,1763,974,0,0
546,50,0,0,0,0,0,0,0,0,0,-1,1770,974,0,0
553,50,0,0,0,0,0,0,0,0,0,-1,1777,974,0,0
560,50,0,0,0,0,0,0,0,0,0,-1,1784,974,0,0
567,50,0,0,0,0,0,0,0,0,0,-1,1791,974,0,0
574,50,0,0,0,0,0,0,0,0,0,-1,1798,974,0,0
581,50,0,0,0,0,0,0,0,0,0,-1,1805,974,0,0
588,50,0,0,0,0,0,0,0,0,0,-1,1812,974,0,0
595,50,0,0,0,0,0,0,0,0,0,-1,1819,974,0,0
602,50,0,0,0,0,0,0,0,0,0,-1,1826,974,0,0
609,50,0,0,0,0,0,0,0,0,0,-1,1833,974,0,0
616,50,0,0,0,0,0,0,0,0,0,-1,1840,974,0,0
623,50,0,0,0,0,0,0,0,0,0,-1,1847,974,0,0
630,50,0,0,0,0,0,0,0,0,0,-1,1854,974,0,0
637,50,0,0,0,0,0,0,0,0,0,-1,1861,974,0,0
644,50,0.0179443,0.0209961,-0.00174656,0.00188732,0.000537263,0.00196509,-0.00182433,1.42704,0.00218833,0.035026,1868,974,0.0179419,-0.0209807
651,50,-0.0241699,0.0916748,-0.00112371,0.00172675,0.000403423,0.00178274,-0.00117971,1.43288,0.00172214,0.0299647,1875,974,-0.0241484,-0.0916828
658,50,-0.0177002,0.138,-0.000712925,0.00155463,0.000355292,0.00160899,-0.00076729,1.41896,0.00140034,0.0333179,1882,974,-0.0176419,-0.137985
665,50,-0.0140381,-0.039917,-0.000414138,0.00137061,0.000332694,0.00143061,-0.000474138,1.39237,0.00114499,0.0374998,1889,974,-0.0139803,0.0399032
672,50,0.0384521,-0.193115,-0.000201216,0.00118695,0.000317369,0.00125607,-0.000270333,1.35636,0.00094053,0.0368262,1896,974,0.0384989,0.193091
679,50,-0.0391846,0.0202637,-6.33859e-05,0.0010141,0.000321187,0.00110257,-0.000151864,1.30199,0.000790548,0.0346577,1903,974,-0.0391609,-0.0202639
686,50,-0.0662842,-0.0172119,3.3957e-05,0.000849501,0.000321503,0.000961,-7.7542e-05,1.23697,0.000668016,0.0366523,1910,974,-0.0663007,0.0172194
693,50,-0.0107422,-0.0343018,0.00011927,0.000673009,0.000353227,0.000844945,-5.26659e-05,1.1178,0.000581647,0.033394,1917,974,-0.0107694,0.034278
700,50,-0.0297852,0.0454712,0.000187714,0.00056203,0.000344804,0.000767196,-1.74514e-05,1.03405,0.000517379,0.0159029,1924,974,-0.0297995,-0.0454566
707,50,-0.0294189,0.0453491,0.000195372,0.000427185,0.000271057,0.000606077,1.64803e-05,0.987437,0.000398671,0.0136775,1931,974,-0.0294528,-0.0453533
714,50,-0.0305176,0.0357056,0.000174379,0.000308888,0.000255939,0.000506262,-2.29945e-05,0.913881,0.000345428,0.0140004,1938,974,-0.0305486,-0.0357086
721,50,-0.0252686,0.0285034,0.000103712,0.000242562,0.000306943,0.000487833,-0.00014156,0.896618,0.000381272,0.0145563,1945,974,-0.0252221,-0.0284748
728,50,-0.034668,0.0460205,0.000108398,0.000204843,0.000188441,0.000351134,-3.78928e-05,0.910661,0.000247689,0.0170369,1952,974,-0.0346434,-0.0460468
735,50,-0.0350342,0.0570679,0.000287963,0.000240499,-0.000260371,0.000525681,2.78102e-06,-0.739951,0.000349531,0.0153997,1959,974,-0.0349884,-0.0570411
742,50,-0.00976563,0.029541,0.000157077,0.000308111,-0.000925438,0.00116111,-0.00069592,-0.826109,0.00108331,0.0129228,1966,974,-0.00975596,-0.0295655
749,50,-0.0305176,0.0458374,0.00017957,0.000536024,-0.00148499,0.00185344,-0.00113785,-0.845122,0.00174342,0.0135748,1973,974,-0.0304771,-0.0458539
756,50,-0.0335693,0.043335,0.000205832,0.00144197,-0.00234481,0.0032488,-0.001601,-0.914262,0.0028534,0.0106972,1980,974,-0.0336302,-0.0433521
763,50,-0.0234375,0.0374756,3.47973e-05,0.00181783,-0.00358087,0.00461649,-0.00276386,-0.907401,0.00430557,0.0109926,1987,974,-0.0234459,-0.0374946
770,50,-0.0216064,0.0371704,-7.68492e-05,0.00259506,-0.00488866,0.00632701,-0.00380881,-0.91878,0.00591181,0.0104662,1994,974,-0.0216477,-0.0371825
777,50,0.00158691,0.031189,-0.000234292,0.00361392,-0.00645314,0.0084237,-0.00504407,-0.930285,0.00785681,0.0211013,2001,974,0.00155551,-0.0312181
784,50,0.0415039,0.0197144,-0.00046318,0.00490901,-0.00824148,0.0108911,-0.00644526,-0.942932,0.0101183,0.0390791,2008,974,0.0415618,-0.0197148
791,50,0.0812988,-0.0495605,-0.000764021,0.00651203,-0.0102068,0.0137097,-0.00796174,-0.956595,0.0126579,0.0463406,2015,974,0.0813552,0.0495545
798,50,0.198853,-0.452454,-0.00112958,0.00842789,-0.012282,0.016828,-0.00952974,-0.970929,0.0154109,0.0446703,2022,974,0.19884,0.452457
805,50,0.450562,-0.373291,-0.0015534,0.010637,-0.0143415,0.0201248,-0.0110412,-0.986336,0.0182466,0.039783,2029,974,0.450506,0.37328
812,50,0,0,0,0,0,0,0,0,0,-1,2036,974,0,0
-700,43,0,0,0,0,0,0,0,0,0,-1,524,981,0,0
-693,43,0.660522,5.46301,0,0,0,0,0,0,0,-1,531,981,0.660501,-5.46299
-686,43,0.479126,4.0639,0.0112064,0.000101698,-0.0647095,0.0706012,-0.0592932,-0.742601,0.0750893,0.0462702,538,981,0.479117,-4.06392
-679,43,0.0808105,2.87927,0.0131489,0.00499558,-0.0535166,0.0627439,-0.0445994,-0.747384,0.0622691,0.042558,545,981,0.0808199,-2.87927
-672,43,-0.0270386,1.88104,0.0129726,0.00739965,-0.0432195,0.0534954,-0.0331231,-0.753206,0.0504682,0.0477207,552,981,-0.0270165,-1.88105
-665,43,-0.250122,0.747864,0.0115818,0.00821408,-0.0340532,0.0439927,-0.0241968,-0.760695,0.0399184,0.0496485,559,981,-0.250108,-0.747838
-658,43,-0.455505,-0.352234,0.00962813,0.00800396,-0.0261153,0.034944,-0.0173119,-0.769855,0.0307371,0.0485214,566,981,-0.455508,0.352247
-651,43,0.161011,0.0252686,0.00754671,0.00716866,-0.0194474,0.026806,-0.0120907,-0.780538,0.0229865,0.0384966,573,981,0.161038,-0.0252778
-644,43,-0.0438843,0.0394287,0.00557161,0.00601459,-0.0140305,0.0198254,-0.00823916,-0.793291,0.016657,0.0174979,580,981,-0.0438761,-0.039402
-637,43,-0.0369873,0.0547485,0.00389012,0.00493342,-0.00978327,0.0142089,-0.0053854,-0.812033,0.0116889,0.0113492,587,981,-0.0370065,-0.0547391
-630,43,-0.0268555,0.0605469,0.00310266,0.00397592,-0.0060354,0.00959047,-0.00251189,-0.821507,0.00737494,0.0115131,594,981,-0.0268803,-0.0605455
-623,43,-0.0307617,0.0526123,0.00175347,0.00277309,-0.00363705,0.00593589,-0.00140933,-0.855031,0.00450119,0.0111175,601,981,-0.0307587,-0.0526093
-616,43,-0.0409546,0.0432129,0.000582434,0.0019407,-0.00179428,0.00318008,-0.000656941,-0.966315,0.00236958,0.009666,608,981,-0.0409494,-0.0431872
-609,43,-0.0402222,0.0384521,-0.000131884,0.0010027,-0.000697549,0.00133452,-0.000463699,-1.12679,0.00107802,0.0116402,615,981,-0.0402037,-0.0384629
-602,43,-0.0305786,0.0558472,-0.000462325,0.000231611,-0.000439392,0.000444511,-0.000675225,-1.1196,0.000651038,0.0143815,622,981,-0.0305659,-0.0558184
-595,43,-0.0405273,0.0606689,-0.000100423,0.000103991,-0.00023728,0.00026014,-0.000256573,-0.988761,0.000298327,0.0132589,629,981,-0.0405376,-0.0606886
-588,43,-0.0390625,0.0686035,0.000296256,0.000119655,-0.000193265,0.000420437,-4.52627e-06,-0.571114,0.000281812,0.0127861,636,981,-0.0390611,-0.0686324
-581,43,-0.0266724,0.0880127,0.000503343,0.000196851,-0.000259477,0.000651449,4.87458e-05,-0.51866,0.000418997,0.0181596,643,981,-0.0266816,-0.0880337
-574,43,-0.0203247,0.0545654,0.000770571,0.000360304,-0.000304484,0.000932575,0.0001983,-0.488967,0.00056729,0.024738,650,981,-0.0203061,-0.0545738
-567,43,0.0286865,-0.106384,0.00117893,0.00043668,-0.000302848,0.00128681,0.000328794,-0.342219,0.00077198,0.0320451,657,981,0.0287056,0.106388
-560,43,0.0316162,-0.197998,0.0016913,0.000592795,-0.000301858,0.00176878,0.000515313,-0.251261,0.00105043,0.0381741,664,981,0.0316298,0.198014
-553,43,-0.093689,-0.0740967,0.00236618,0.000811493,-0.000301379,0.00242256,0.000755115,-0.18493,0.00143135,0.0384913,671,981,-0.0936715,0.0741054
-546,43,-0.0423584,0.0220337,0.00327195,0.00111458,-0.000328916,0.00332098,0.00106555,-0.147984,0.00195796,0.0378195,678,981,-0.0423405,-0.0220198
-539,43,0.194031,0.163818,0.00437149,0.00153716,-0.000427053,0.00443444,0.00147421,-0.146344,0.0026077,0.0397424,685,981,0.194008,-0.163843
-532,43,0.240723,-0.00665283,0.00565097,0.00212861,-0.0006396,0.00576352,0.00201607,-0.174177,0.00337724,0.0379018,692,981,0.240721,0.00662888
-525,43,0.177734,-0.236633,0.00713517,0.00291672,-0.00101354,0.00736605,0.00268584,-0.223975,0.00430444,0.0383687,699,981,0.177744,0.236657
-518,43,0,0,0,0,0,0,0,0,0,-1,706,981,0,0
-511,43,0,0,0,0,0,0,0,0,0,-1,713,981,0,0
-504,43,0,0,0,0,0,0,0,0,0,-1,720,981,0,0
-497,43,0,0,0,0,0,0,0,0,0,-1,727,981,0,0
-490,43,0,0,0,0,0,0,0,0,0,-1,734,981,0,0
-483,43,0,0,0,0,0,0,0,0,0,-1,741,981,0,0
-476,43,0,0,0,0,0,0,0,0,0,-1,748,981,0,0
-469,43,0,0,0,0,0,0,0,0,0,-1,755,981,0,0
-462,43,0,0,0,0,0,0,0,0,0,-1,762,981,0,0
-455,43,0,0,0,0,0,0,0,0,0,-1,769,981,0,0
-448,43,0,0,0,0,0,0,0,0,0,-1,776,981,0,0
-441,43,0,0,0,0,0,0,0,0,0,-1,783,981,0,0
-434,43,0,0,0,0,0,0,0,0,0,-1,790,981,0,0
-427,43,0,0,0,0,0,0,0,0,0,-1,797,981,0,0
-420,43,0,0,0,0,0,0,0,0,0,-1,804,981,0,0
-413,43,0,0,0,0,0,0,0,0,0,-1,811,981,0,0
-406,43,0,0,0,0,0,0,0,0,0,-1,818,981,0,0
-399,43,0,0,0,0,0,0,0,0,0,-1,825,981,0,0
-392,43,0,0,0,0,0,0,0,0,0,-1,832,981,0,0
-385,43,0,0,0,0,0,0,0,0,0,-1,839,981,0,0
-378,43,0,0,0,0,0,0,0,0,0,-1,846,981,0,0
-371,43,0,0,0,0,0,0,0,0,0,-1,853,981,0,0
-364,43,0,0,0,0,0,0,0,0,0,-1,860,981,0,0
-357,43,0,0,0,0,0,0,0,0,0,-1,867,981,0,0
-350,43,0,0,0,0,0,0,0,0,0,-1,874,981,0,0
-343,43,0,0,0,0,0,0,0,0,0,-1,881,981,0,0
-336,43,0,0,0,0,0,0,0,0,0,-1,888,981,0,0
-329,43,0,0,0,0,0,0,0,0,0,-1,895,981,0,0
-322,43,0,0,0,0,0,0,0,0,0,-1,902,981,0,0
-315,43,0,0,0,0,0,0,0,0,0,-1,909,981,0,0
-308,43,0,0,0,0,0,0,0,0,0,-1,916,981,0,0
-301,43,0,0,0,0,0,0,0,0,0,-1,923,981,0,0
-294,43,0,0,0,0,0,0,0,0,0,-1,930,981,0,0
-287,43,0,0,0,0,0,0,0,0,0,-1,937,981,0,0
-280,43,0,0,0,0,0,0,0,0,0,-1,944,981,0,0
-273,43,0,0,0,0,0,0,0,0,0,-1,951,981,0,0
-266,43,0,0,0,0,0,0,0,0,0,-1,958,981,0,0
-259,43,0,0,0,0,0,0,0,0,0,-1,965,981,0,0
-252,43,0,0,0,0,0,0,0,0,0,-1,972,981,0,0
-245,43,0,0,0,0,0,0,0,0,0,-1,979,981,0,0
-238,43,0,0,0,0,0,0,0,0,0,-1,986,981,0,0
-231,43,0,0,0,0,0,0,0,0,0,-1,993,981,0,0
-224,43,0,0,0,0,0,0,0,0,0,-1,1000,981,0,0
-217,43,0,0,0,0,0,0,0,0,0,-1,1007,981,0,0
-210,43,0,0,0,0,0,0,0,0,0,-1,1014,981,0,0
-203,43,0,0,0,0,0,0,0,0,0,-1,1021,981,0,0
-196,43,0,0,0,0,0,0,0,0,0,-1,1028,981,0,0
-189,43,0,0,0,0,0,0,0,0,0,-1,1035,981,0,0
-182,43,0,0,0,0,0,0,0,0,0,-1,1042,981,0,0
-175,43,0,0,0,0,0,0,0,0,0,-1,1049,981,0,0
-168,43,0,0,0,0,0,0,0,0,0,-1,1056,981,0,0
-161,43,0,0,0,0,0,0,0,0,0,-1,1063,981,0,0
-154,43,0,0,0,0,0,0,0,0,0,-1,1070,981,0,0
-147,43,0,0,0,0,0,0,0,0,0,-1,1077,981,0,0
-140,43,0,0,0,0,0,0,0,0,0,-1,1084,981,0,0
-133,43,0,0,0,0,0,0,0,0,0,-1,1091,981,0,0
-126,43,0,0,0,0,0,0,0,0,0,-1,1098,981,0,0
-119,43,0,0,0,0,0,0,0,0,0,-1,1105,981,0,0
-112,43,0,0,0,0,0,0,0,0,0,-1,1112,981,0,0
-105,43,0,0,0,0,0,0,0,0,0,-1,1119,981,0,0
-98,43,0,0,0,0,0,0,0,0,0,-1,1126,981,0,0
-91,43,0,0,0,0,0,0,0,0,0,-1,1133,981,0,0
-84,43,0,0,0,0,0,0,0,0,0,-1,1140,981,0,0
-77,43,0,0,0,0,0,0,0,0,0,-1,1147,981,0,0
-70,43,0,0,0,0,0,0,0,0,0,-1,1154,981,0,0
-63,43,0,0,0,0,0,0,0,0,0,-1,1161,981,0,0
-56,43,0,0,0,0,0,0,0,0,0,-1,1168,981,0,0
-49,43,0,0,0,0,0,0,0,0,0,-1,1175,981,0,0
-42,43,0,0,0,0,0,0,0,0,0,-1,1182,981,0,0
-35,43,0,0,0,0,0,0,0,0,0,-1,1189,981,0,0
-28,43,0,0,0,0,0,0,0,0,0,-1,1196,981,0,0
-21,43,0,0,0,0,0,0,0,0,0,-1,1203,981,0,0
-14,43,0,0,0,0,0,0,0,0,0,-1,1210,981,0,0
-7,43,0,0,0,0,0,0,0,0,0,-1,1217,981,0,0
0,43,0,0,0,0,0,0,0,0,0,-1,1224,981,0,0
7,43,0,0,0,0,0,0,0,0,0,-1,1231,981,0,0
14,43,0,0,0,0,0,0,0,0,0,-1,1238,981,0,0
21,43,0,0,0,0,0,0,0,0,0,-1,1245,981,0,0
28,43,0,0,0,0,0,0,0,0,0,-1,1252,981,0,0
35,43,0,0,0,0,0,0,0,0,0,-1,1259,981,0,0
42,43,0,0,0,0,0,0,0,0,0,-1,1266,981,0,0
49,43,0,0,0,0,0,0,0,0,0,-1,1273,981,0,0
56,43,0,0,0,0,0,0,0,0,0,-1,1280,981,0,0
63,43,0,0,0,0,0,0,0,0,0,-1,1287,981,0,0
70,43,0,0,0,0,0,0,0,0,0,-1,1294,981,0,0
77,43,0,0,0,0,0,0,0,0,0,-1,1301,981,0,0
84,43,0,0,0,0,0,0,0,0,0,-1,1308,981,0,0
91,43,0,0,0,0,0,0,0,0,0,-1,1315,981,0,0
98,43,0,0,0,0,0,0,0,0,0,-1,1322,981,0,0
105,43,0,0,0,0,0,0,0,0,0,-1,1329,981,0,0
112,43,0,0,0,0,0,0,0,0,0,-1,1336,981,0,0
119,43,0,0,0,0,0,0,0,0,0,-1,1343,981,0,0
126,43,0,0,0,0,0,0,0,0,0,-1,1350,981,0,0
133,43,0,0,0,0,0,0,0,0,0,-1,1357,981,0,0
140,43,0,0,0,0,0,0,0,0,0,-1,1364,981,0,0
147,43,0,0,0,0,0,0,0,0,0,-1,1371,981,0,0
154,43,0,0,0,0,0,0,0,0,0,-1,1378,981,0,0
161,43,0,0,0,0,0,0,0,0,0,-1,1385,981,0,0
168,43,0,0,0,0,0,0,0,0,0,-1,1392,981,0,0
175,43,0,0,0,0,0,0,0,0,0,-1,1399,981,0,0
182,43,0,0,0,0,0,0,0,0,0,-1,1406,981,0,0
189,43,0,0,0,0,0,0,0,0,0,-1,1413,981,0,0
196,43,0,0,0,0,0,0,0,0,0,-1,1420,981,0,0
203,43,0,0,0,0,0,0,0,0,0,-1,1427,981,0,0
210,43,0,0,0,0,0,0,0,0,0,-1,1434,981,0,0
217,43,0,0,0,0,0,0,0,0,0,-1,1441,981,0,0
224,43,0,0,0,0,0,0,0,0,0,-1,1448,981,0,0
231,43,0,0,0,0,0,0,0,0,0,-1,1455,981,0,0
238,43,0,0,0,0,0,0,0,0,0,-1,1462,981,0,0
245,43,0,0,0,0,0,0,0,0,0,-1,1469,981,0,0
252,43,0,0,0,0,0,0,0,0,0,-1,1476,981,0,0
259,43,0,0,0,0,0,0,0,0,0,-1,1483,981,0,0
266,43,0,0,0,0,0,0,0,0,0,-1,1490,981,0,0
273,43,0,0,0,0,0,0,0,0,0,-1,1497,981,0,0
280,43,0,0,0,0,0,0,0,0,0,-1,1504,981,0,0
287,43,0,0,0,0,0,0,0,0,0,-1,1511,981,0,0
294,43,0,0,0,0,0,0,0,0,0,-1,1518,981,0,0
301,43,0,0,0,0,0,0,0,0,0,-1,1525,981,0,0
308,43,0,0,0,0,0,0,0,0,0,-1,1532,981,0,0
315,43,0,0,0,0,0,0,0,0,0,-1,1539,981,0,0
322,43,0,0,0,0,0,0,0,0,0,-1,1546,981,0,0
329,43,0,0,0,0,0,0,0,0,0,-1,1553,981,0,0
336,43,0,0,0,0,0,0,0,0,0,-1,1560,981,0,0
343,43,0,0,0,0,0,0,0,0,0,-1,1567,981,0,0
350,43,0,0,0,0,0,0,0,0,0,-1,1574,981,0,0
357,43,0,0,0,0,0,0,0,0,0,-1,1581,981,0,0
364,43,0,0,0,0,0,0,0,0,0,-1,1588,981,0,0
371,43,0,0,0,0,0,0,0,0,0,-1,1595,981,0,0
378,43,0,0,0,0,0,0,0,0,0,-1,1602,981,0,0
385,43,0,0,0,0,0,0,0,0,0,-1,1609,981,0,0
392,43,0,0,0,0,0,0,0,0,0,-1,1616,981,0,0
399,43,0,0,0,0,0,0,0,0,0,-1,1623,981,0,0
406,43,0,0,0,0,0,0,0,0,0,-1,1630,981,0,0
413,43,0,0,0,0,0,0,0,0,0,-1,1637,981,0,0
420,43,0,0,0,0,0,0,0,0,0,-1,1644,981,0,0
427,43,0,0,0,0,0,0,0,0,0,-1,1651,981,0,0
434,43,0,0,0,0,0,0,0,0,0,-1,1658,981,0,0
441,43,0,0,0,0,0,0,0,0,0,-1,1665,981,0,0
448,43,0,0,0,0,0,0,0,0,0,-1,1672,981,0,0
455,43,0,0,0,0,0,0,0,0,0,-1,1679,981,0,0
462,43,0,0,0,0,0,0,0,0,0,-1,1686,981,0,0
469,43,0,0,0,0,0,0,0,0,0,-1,1693,981,0,0
476,43,0,0,0,0,0,0,0,0,0,-1,1700,981,0,0
483,43,0,0,0,0,0,0,0,0,0,-1,1707,981,0,0
490,43,0,0,0,0,0,0,0,0,0,-1,1714,981,0,0
497,43,0,0,0,0,0,0,0,0,0,-1,1721,981,0,0
504,43,0,0,0,0,0,0,0,0,0,-1,1728,981,0,0
511,43,0,0,0,0,0,0,0,0,0,-1,1735,981,0,0
518,43,0,0,0,0,0,0,0,0,0,-1,1742,981,0,0
525,43,0,0,0,0,0,0,0,0,0,-1,1749,981,0,0
532,43,0,0,0,0,0,0,0,0,0,-1,1756,981,0,0
539,43,0,0,0,0,0,0,0,0,0,-1,1763,981,0,0
546,43,0,0,0,0,0,0,0,0,0,-1,1770,981,0,0
553,43,0,0,0,0,0,0,0,0,0,-1,1777,981,0,0
560,43,0,0,0,0,0,0,0,0,0,-1,1784,981,0,0
567,43,0,0,0,0,0,0,0,0,0,-1,1791,981,0,0
574,43,0,0,0,0,0,0,0,0,0,-1,1798,981,0,0
581,43,0,0,0,0,0,0,0,0,0,-1,1805,981,0,0
588,43,0,0,0,0,0,0,0,0,0,-1,1812,981,0,0
595,43,0,0,0,0,0,0,0,0,0,-1,1819,981,0,0
602,43,0,0,0,0,0,0,0,0,0,-1,1826,981,0,0
609,43,0,0,0,0,0,0,0,0,0,-1,1833,981,0,0
616,43,0,0,0,0,0,0,0,0,0,-1,1840,981,0,0
623,43,0,0,0,0,0,0,0,0,0,-1,1847,981,0,0
630,43,0,0,0,0,0,0,0,0,0,-1,1854,981,0,0
637,43,0,0,0,0,0,0,0,0,0,-1,1861,981,0,0
644,43,-0.114624,0.0533447,-0.00136215,0.00102316,0.000493589,0.00112126,-0.00146026,1.3746,0.00149472,0.0361838,1868,981,-0.114634,-0.0533584
651,43,-0.081665,0.0808716,-0.000810188,0.000995459,0.00040033,0.00108024,-0.000894964,1.36211,0.00114205,0.0350942,1875,981,-0.0816526,-0.0808524
658,43,0.0407715,0.0866699,-0.000465617,0.000932027,0.000392274,0.0010346,-0.000568188,1.31504,0.000938339,0.0352239,1882,981,0.0408011,-0.0866453
665,43,0.0505371,0.0206909,-0.000215941,0.000842959,0.000397455,0.000975542,-0.000348524,1.24882,0.000792507,0.0367117,1889,981,0.0505388,-0.0206668
672,43,0.0229492,-0.160278,-3.80797e-05,0.000740925,0.000396721,0.000907389,-0.000204544,1.17351,0.000683389,0.0362737,1896,981,0.0229761,0.160264
679,43,-0.0307617,-0.0950928,7.06405e-05,0.000639588,0.000405687,0.000850601,-0.000140372,1.09117,0.000619185,0.0349718,1903,981,-0.0307551,0.0951061
686,43,-0.0258789,-0.00866699,0.000143377,0.00053929,0.000406651,0.000793607,-0.00011094,1.01191,0.000569664,0.03414,1910,981,-0.0258544,0.00867782
693,43,0.0216064,-0.0176392,0.000196877,0.000418196,0.000430012,0.000751559,-0.000136486,0.911336,0.000552186,0.0325389,1917,981,0.0216115,0.0176118
700,43,-0.0411377,0.0483398,0.000252218,0.000361662,0.000422444,0.000732914,-0.000119034,0.849808,0.000532739,0.0257112,1924,981,-0.0411145,-0.0483678
707,43,-0.0234375,0.0818481,0.000246711,0.000271493,0.000345367,0.000604691,-8.64873e-05,0.803329,0.000434833,0.0167229,1931,981,-0.0234736,-0.0818583
714,43,-0.0256348,0.055542,0.000205697,0.000187295,0.000309264,0.000505896,-0.000112905,0.770527,0.000380524,0.0134632,1938,981,-0.0256642,-0.0555413
721,43,-0.0303955,0.0274048,0.000141544,0.000142187,0.000339983,0.000481848,-0.000198117,0.785871,0.00040381,0.0145099,1945,981,-0.0304073,-0.027408
728,43,-0.017334,0.0266724,0.000153996,0.000120775,0.000229131,0.000367118,-9.23468e-05,0.749214,0.000280639,0.0148379,1952,981,-0.0173531,-0.026682
735,43,-0.0145264,0.0437622,0.00030065,0.000146815,-0.000181838,0.00042117,2.62954e-05,-0.585312,0.000272438,0.0117689,1959,981,-0.0145018,-0.0437914
742,43,-0.019043,0.0436401,3.17203e-05,0.000145958,-0.000876706,0.000967404,-0.000789726,-0.817928,0.00101621,0.0134705,1966,981,-0.0190769,-0.0436215
749,43,-0.0449219,0.0533447,-0.000131662,0.000303742,-0.00154008,0.00164143,-0.00146935,-0.855612,0.00179692,0.0151971,1973,981,-0.0449742,-0.053368
756,43,-0.0256348,0.0397949,-0.000285573,0.00115928,-0.00248212,0.00302197,-0.00214826,-0.927012,0.00299921,0.0143807,1980,981,-0.0256749,-0.0398093
763,43,-0.0166016,0.0375366,-0.000689859,0.00144534,-0.0038577,0.00438044,-0.00362496,-0.920392,0.00462878,0.0165628,1987,981,-0.0166056,-0.0375405
770,43,-0.0289307,0.0490723,-0.00112433,0.00210598,-0.00533429,0.00606428,-0.00508263,-0.932404,0.00644399,0.0139365,1994,981,-0.0288711,-0.0490496
777,43,-0.0246582,-0.0055542,-0.00168856,0.00298316,-0.00713372,0.00815372,-0.00685911,-0.943616,0.00867839,0.0195425,2001,981,-0.0246003,0.00555655
784,43,-0.0151367,-0.0342407,-0.00242135,0.0041081,-0.0092374,0.0106407,-0.00895397,-0.955259,0.011327,0.0413111,2008,981,-0.0151262,0.034232
791,43,0.00891113,-0.0587769,-0.00332463,0.00551428,-0.0116093,0.0135169,-0.0113272,-0.96727,0.0143623,0.0450583,2015,981,0.00893942,0.0587659
798,43,-0.267212,-0.434082,-0.00438283,0.00720945,-0.0141943,0.0167455,-0.0139188,-0.979237,0.0177291,0.0446479,2022,981,-0.267203,0.434067
805,43,-0.54187,-0.856384,-0.00556332,0.00918279,-0.0168812,0.0202308,-0.0166113,-0.991294,0.021305,0.0450786,2029,981,-0.541893,0.856398
812,43,-0.846191,-1.18518,-0.00680981,0.0113509,-0.0194927,0.0237744,-0.0192333,-1.00337,0.0248766,0.0468219,2036,981,-0.846144,1.1852
-700,36,0,0,0,0,0,0,0,0,0,-1,524,988,0,0
-693,36,1.06122,5.11578,0,0,0,0,0,0,0,-1,531,988,1.0612,-5.1158
-686,36,0.614258,3.96393,0.00620477,0.0103531,-0.0702807,0.0785902,-0.0620324,-0.80015,0.0813759,0.0460791,538,988,0.614263,-3.96394
-679,36,-0.179626,2.66931,0.00853086,0.0149387,-0.0570868,0.0689114,-0.0454419,-0.813431,0.0664838,0.0455063,545,988,-0.179638,-2.66932
-672,36,0.220276,1.95428,0.00894998,0.0162268,-0.0453407,0.0580748,-0.0328981,-0.825435,0.0531895,0.0486109,552,988,0.220259,-1.95431
-665,36,-0.146667,1.04395,0,0,0,0,0,0,0,-1,559,988,-0.146688,-1.04393
-658,36,0.620911,-0.423279,0,0,0,0,0,0,0,-1,566,988,0.620906,0.423267
-651,36,0.265869,-0.172607,0.00549352,0.011526,-0.0193978,0.0281407,-0.0111212,-0.862527,0.023367,0.0348962,573,988,0.265865,0.172634
-644,36,-0.0446777,0.0673828,0.00405945,0.00913126,-0.0137467,0.020574,-0.00738329,-0.87661,0.0167293,0.0173926,580,988,-0.0446722,-0.0673735
-637,36,-0.0270386,0.079895,0.00280847,0.00723834,-0.00931634,0.0145994,-0.00455262,-0.902105,0.0115535,0.0121362,587,988,-0.0270093,-0.0799247
-630,36,-0.0335083,0.0622559,0.00239149,0.00531624,-0.00557542,0.00961788,-0.00191015,-0.913654,0.00713439,0.0116349,594,988,-0.0335223,-0.0622442
-623,36,-0.0427246,0.0452881,0.00130838,0.00347397,-0.00321475,0.00578339,-0.00100103,-0.947841,0.00422895,0.0119167,601,988,-0.0427014,-0.0453039
-616,36,-0.0549927,0.0408325,0.000314175,0.00212522,-0.00138837,0.00287726,-0.00043787,-1.07437,0.00207956,0.0101225,608,988,-0.0549628,-0.0408554
-609,36,-0.0280151,0.06073,-0.000200104,0.000841279,-0.000413918,0.000985755,-0.00034458,-1.23497,0.000797251,0.0145534,615,988,-0.0279917,-0.0607556
-602,36,-0.0115967,0.0899658,-0.000473242,4.27044e-05,-0.00027964,0.00016519,-0.000595728,-1.15796,0.000462163,0.0185927,622,988,-0.011627,-0.0899732
-595,36,-0.0107422,0.0791016,-0.0001304,-9.57e-05,-0.000182338,7.01115e-05,-0.000296211,-0.832832,0.000224524,0.0190811,629,988,-0.0107241,-0.0790992
-588,36,-0.00811768,0.0706787,0.000279284,-9.35225e-05,-0.000167773,0.000343667,-0.000157906,-0.366422,0.00029613,0.0182261,636,988,-0.00811416,-0.0706671
-581,36,-0.00561523,0.0952148,0.000471401,-3.78602e-05,-0.000228243,0.000558723,-0.000125182,-0.365403,0.000420467,0.0198454,643,988,-0.00560965,-0.0952443
-574,36,-0.00189209,0.0755615,0.000709175,9.70657e-05,-0.000280758,0.000818445,-1.2204e-05,-0.371158,0.000549743,0.0235013,650,988,-0.00190756,-0.0755402
-567,36,-0.00408936,-0.0239258,0.00107523,0.000186024,-0.000291166,0.00116208,9.91666e-05,-0.289903,0.000743874,0.0323015,657,988,-0.00411353,0.0239463
-560,36,0.00396729,-0.0266724,0.00153597,0.000374248,-0.000305941,0.00161162,0.000298604,-0.24239,0.000990002,0.0387963,664,988,0.00396114,0.0266759
-553,36,-0.103333,0.0691528,0.00213545,0.000670122,-0.000330021,0.00220635,0.000599225,-0.21161,0.00131739,0.0392304,671,988,-0.103304,-0.069141
-546,36,-0.0313721,0.0592651,0.00291921,0.00111086,-0.000393909,0.00300129,0.00102878,-0.20543,0.00176112,0.0396807,678,988,-0.0314022,-0.0592656
-539,36,0.248352,0.153931,0.00381835,0.00174994,-0.000544731,0.00395303,0.00161526,-0.242396,0.00229496,0.041764,685,988,0.248333,-0.15391
-532,36,0.604553,0.0635376,0,0,0,0,0,0,0,-1,692,988,0.604564,-0.0635591
-525,36,0.35968,-0.24231,0,0,0,0,0,0,0,-1,699,988,0.359695,0.242338
-518,36,0,0,0,0,0,0,0,0,0,-1,706,988,0,0
-511,36,0,0,0,0,0,0,0,0,0,-1,713,988,0,0
-504,36,0,0,0,0,0,0,0,0,0,-1,720,988,0,0
-497,36,0,0,0,0,0,0,0,0,0,-1,727,988,0,0
-490,36,0,0,0,0,0,0,0,0,0,-1,734,988,0,0
-483,36,0,0,0,0,0,0,0,0,0,-1,741,988,0,0
-476,36,0,0,0,0,0,0,0,0,0,-1,748,988,0,0
-469,36,0,0,0,0,0,0,0,0,0,-1,755,988,0,0
-462,36,0,0,0,0,0,0,0,0,0,-1,762,988,0,0
-455,36,0,0,0,0,0,0,0,0,0,-1,769,988,0,0
-448,36,0,0,0,0,0,0,0,0,0,-1,776,988,0,0
-441,36,0,0,0,0,0,0,0,0,0,-1,783,988,0,0
-434,36,0,0,0,0,0,0,0,0,0,-1,790,988,0,0
-427,36,0,0,0,0,0,0,0,0,0,-1,797,988,0,0
-420,36,0,0,0,0,0,0,0,0,0,-1,804,988,0,0
-413,36,0,0,0,0,0,0,0,0,0,-1,811,988,0,0
-406,36,0,0,0,0,0,0,0,0,0,-1,818,988,0,0
-399,36,0,0,0,0,0,0,0,0,0,-1,825,988,0,0
-392,36,0,0,0,0,0,0,0,0,0,-1,832,988,0,0
-385,36,0,0,0,0,0,0,0,0,0,-1,839,988,0,0
-378,36,0,0,0,0,0,0,0,0,0,-1,846,988,0,0
-371,36,0,0,0,0,0,0,0,0,0,-1,853,988,0,0
-364,36,0,0,0,0,0,0,0,0,0,-1,860,988,0,0
-357,36,0,0,0,0,0,0,0,0,0,-1,867,988,0,0
-350,36,0,0,0,0,0,0,0,0,0,-1,874,988,0,0
-343,36,0,0,0,0,0,0,0,0,0,-1,881,988,0,0
-336,36,0,0,0,0,0,0,0,0,0,-1,888,988,0,0
-329,36,0,0,0,0,0,0,0,0,0,-1,895,988,0,0
-322,36,0,0,0,0,0,0,0,0,0,-1,902,988,0,0
-315,36,0,0,0,0,0,0,0,0,0,-1,909,988,0,0
-308,36,0,0,0,0,0,0,0,0,0,-1,916,988,0,0
-301,36,0,0,0,0,0,0,0,0,0,-1,923,988,0,0
-294,36,0,0,0,0,0,0,0,0,0,-1,930,988,0,0
-287,36,0,0,0,0,0,0,0,0,0,-1,937,988,0,0
-280,36,0,0,0,0,0,0,0,0,0,-1,944,988,0,0
-273,36,0,0,0,0,0,0,0,0,0,-1,951,988,0,0
-266,36,0,0,0,0,0,0,0,0,0,-1,958,988,0,0
-259,36,0,0,0,0,0,0,0,0,0,-1,965,988,0,0
-252,36,0,0,0,0,0,0,0,0,0,-1,972,988,0,0
-245,36,0,0,0,0,0,0,0,0,0,-1,979,988,0,0
-238,36,0,0,0,0,0,0,0,0,0,-1,986,988,0,0
-231,36,0,0,0,0,0,0,0,0,0,-1,993,988,0,0
-224,36,0,0,0,0,0,0,0,0,0,-1,1000,988,0,0
-217,36,0,0,0,0,0,0,0,0,0,-1,1007,988,0,0
-210,36,0,0,0,0,0,0,0,0,0,-1,1014,988,0,0
-203,36,0,0,0,0,0,0,0,0,0,-1,1021,988,0,0
-196,36,0,0,0,0,0,0,0,0,0,-1,1028,988,0,0
-189,36,0,0,0,0,0,0,0,0,0,-1,1035,988,0,0
-182,36,0,0,0,0,0,0,0,0,0,-1,1042,988,0,0
-175,36,0,0,0,0,0,0,0,0,0,-1,1049,988,0,0
-168,36,0,0,0,0,0,0,0,0,0,-1,1056,988,0,0
-161,36,0,0,0,0,0,0,0,0,0,-1,1063,988,0,0
-154,36,0,0,0,0,0,0,0,0,0,-1,1070,988,0,0
-147,36,0,0,0,0,0,0,0,0,0,-1,1077,988,0,0
-140,36,0,0,0,0,0,0,0,0,0,-1,1084,988,0,0
-133,36,0,0,0,0,0,0,0,0,0,-1,1091,988,0,0
-126,36,0,0,0,0,0,0,0,0,0,-1,1098,988,0,0
-119,36,0,0,0,0,0,0,0,0,0,-1,1105,988,0,0
-112,36,0,0,0,0,0,0,0,0,0,-1,1112,988,0,0
-105,36,0,0,0,0,0,0,0,0,0,-1,1119,988,0,0
-98,36,0,0,0,0,0,0,0,0,0,-1,1126,988,0,0
-91,36,0,0,0,0,0,0,0,0,0,-1,1133,988,0,0
-84,36,0,0,0,0,0,0,0,0,0,-1,1140,988,0,0
-77,36,0,0,0,0,0,0,0,0,0,-1,1147,988,0,0
-70,36,0,0,0,0,0,0,0,0,0,-1,1154,988,0,0
-63,36,0,0,0,0,0,0,0,0,0,-1,1161,988,0,0
-56,36,0,0,0,0,0,0,0,0,0,-1,1168,988,0,0
-49,36,0,0,0,0,0,0,0,0,0,-1,1175,988,0,0
-42,36,0,0,0,0,0,0,0,0,0,-1,1182,988,0,0
-35,36,0,0,0,0,0,0,0,0,0,-1,1189,988,0,0
-28,36,0,0,0,0,0,0,0,0,0,-1,1196,988,0,0
-21,36,0,0,0,0,0,0,0,0,0,-1,1203,988,0,0
-14,36,0,0,0,0,0,0,0,0,0,-1,1210,988,0,0
-7,36,0,0,0,0,0,0,0,0,0,-1,1217,988,0,0
0,36,0,0,0,0,0,0,0,0,0,-1,1224,988,0,0
7,36,0,0,0,0,0,0,0,0,0,-1,1231,988,0,0
14,36,0,0,0,0,0,0,0,0,0,-1,1238,988,0,0
21,36,0,0,0,0,0,0,0,0,0,-1,1245,988,0,0
28,36,0,0,0,0,0,0,0,0,0,-1,1252,988,0,0
35,36,0,0,0,0,0,0,0,0,0,-1,1259,988,0,0
42,36,0,0,0,0,0,0,0,0,0,-1,1266,988,0,0
49,36,0,0,0,0,0,0,0,0,0,-1,1273,988,0,0
56,36,0,0,0,0,0,0,0,0,0,-1,1280,988,0,0
63,36,0,0,0,0,0,0,0,0,0,-1,1287,988,0,0
70,36,0,0,0,0,0,0,0,0,0,-1,1294,988,0,0
77,36,0,0,0,0,0,0,0,0,0,-1,1301,988,0,0
84,36,0,0,0,0,0,0,0,0,0,-1,1308,988,0,0
91,36,0,0,0,0,0,0,0,0,0,-1,1315,988,0,0
98,36,0,0,0,0,0,0,0,0,0,-1,1322,988,0,0
105,36,0,0,0,0,0,0,0,0,0,-1,1329,988,0,0
112,36,0,0,0,0,0,0,0,0,0,-1,1336,988,0,0
119,36,0,0,0,0,0,0,0,0,0,-1,1343,988,0,0
126,36,0,0,0,0,0,0,0,0,0,-1,1350,988,0,0
133,36,0,0,0,0,0,0,0,0,0,-1,1357,988,0,0
140,36,0,0,0,0,0,0,0,0,0,-1,1364,988,0,0
147,36,0,0,0,0,0,0,0,0,0,-1,1371,988,0,0
154,36,0,0,0,0,0,0,0,0,0,-1,1378,988,0,0
161,36,0,0,0,0,0,0,0,0,0,-1,1385,988,0,0
168,36,0,0,0,0,0,0,0,0,0,-1,1392,988,0,0
175,36,0,0,0,0,0,0,0,0,0,-1,1399,988,0,0
182,36,0,0,0,0,0,0,0,0,0,-1,1406,988,0,0
189,36,0,0,0,0,0,0,0,0,0,-1,1413,988,0,0
196,36,0,0,0,0,0,0,0,0,0,-1,1420,988,0,0
203,36,0,0,0,0,0,0,0,0,0,-1,1427,988,0,0
210,36,0,0,0,0,0,0,0,0,0,-1,1434,988,0,0
217,36,0,0,0,0,0,0,0,0,0,-1,1441,988,0,0
224,36,0,0,0,0,0,0,0,0,0,-1,1448,988,0,0
231,36,0,0,0,0,0,0,0,0,0,-1,1455,988,0,0
238,36,0,0,0,0,0,0,0,0,0,-1,1462,988,0,0
245,36,0,0,0,0,0,0,0,0,0,-1,1469,988,0,0
252,36,0,0,0,0,0,0,0,0,0,-1,1476,988,0,0
259,36,0,0,0,0,0,0,0,0,0,-1,1483,988,0,0
266,36,0,0,0,0,0,0,0,0,0,-1,1490,988,0,0
273,36,0,0,0,0,0,0,0,0,0,-1,1497,988,0,0
280,36,0,0,0,0,0,0,0,0,0,-1,1504,988,0,0
287,36,0,0,0,0,0,0,0,0,0,-1,1511,988,0,0
294,36,0,0,0,0,0,0,0,0,0,-1,1518,988,0,0
301,36,0,0,0,0,0,0,0,0,0,-1,1525,988,0,0
308,36,0,0,0,0,0,0,0,0,0,-1,1532,988,0,0
315,36,0,0,0,0,0,0,0,0,0,-1,1539,988,0,0
322,36,0,0,0,0,0,0,0,0,0,-1,1546,988,0,0
329,36,0,0,0,0,0,0,0,0,0,-1,1553,988,0,0
336,36,0,0,0,0,0,0,0,0,0,-1,1560,988,0,0
343,36,0,0,0,0,0,0,0,0,0,-1,1567,988,0,0
350,36,0,0,0,0,0,0,0,0,0,-1,1574,988,0,0
357,36,0,0,0,0,0,0,0,0,0,-1,1581,988,0,0
364,36,0,0,0,0,0,0,0,0,0,-1,1588,988,0,0
371,36,0,0,0,0,0,0,0,0,0,-1,1595,988,0,0
378,36,0,0,0,0,0,0,0,0,0,-1,1602,988,0,0
385,36,0,0,0,0,0,0,0,0,0,-1,1609,988,0,0
392,36,0,0,0,0,0,0,0,0,0,-1,1616,988,0,0
399,36,0,0,0,0,0,0,0,0,0,-1,1623,988,0,0
406,36,0,0,0,0,0,0,0,0,0,-1,1630,988,0,0
413,36,0,0,0,0,0,0,0,0,0,-1,1637,988,0,0
420,36,0,0,0,0,0,0,0,0,0,-1,1644,988,0,0
427,36,0,0,0,0,0,0,0,0,0,-1,1651,988,0,0
434,36,0,0,0,0,0,0,0,0,0,-1,1658,988,0,0
441,36,0,0,0,0,0,0,0,0,0,-1,1665,988,0,0
448,36,0,0,0,0,0,0,0,0,0,-1,1672,988,0,0
455,36,0,0,0,0,0,0,0,0,0,-1,1679,988,0,0
462,36,0,0,0,0,0,0,0,0,0,-1,1686,988,0,0
469,36,0,0,0,0,0,0,0,0,0,-1,1693,988,0,0
476,36,0,0,0,0,0,0,0,0,0,-1,1700,988,0,0
483,36,0,0,0,0,0,0,0,0,0,-1,1707,988,0,0
490,36,0,0,0,0,0,0,0,0,0,-1,1714,988,0,0
497,36,0,0,0,0,0,0,0,0,0,-1,1721,988,0,0
504,36,0,0,0,0,0,0,0,0,0,-1,1728,988,0,0
511,36,0,0,0,0,0,0,0,0,0,-1,1735,988,0,0
518,36,0,0,0,0,0,0,0,0,0,-1,1742,988,0,0
525,36,0,0,0,0,0,0,0,0,0,-1,1749,988,0,0
532,36,0,0,0,0,0,0,0,0,0,-1,1756,988,0,0
539,36,0,0,0,0,0,0,0,0,0,-1,1763,988,0,0
546,36,0,0,0,0,0,0,0,0,0,-1,1770,988,0,0
553,36,0,0,0,0,0,0,0,0,0,-1,1777,988,0,0
560,36,0,0,0,0,0,0,0,0,0,-1,1784,988,0,0
567,36,0,0,0,0,0,0,0,0,0,-1,1791,988,0,0
574,36,0,0,0,0,0,0,0,0,0,-1,1798,988,0,0
581,36,0,0,0,0,0,0,0,0,0,-1,1805,988,0,0
588,36,0,0,0,0,0,0,0,0,0,-1,1812,988,0,0
595,36,0,0,0,0,0,0,0,0,0,-1,1819,988,0,0
602,36,0,0,0,0,0,0,0,0,0,-1,1826,988,0,0
609,36,0,0,0,0,0,0,0,0,0,-1,1833,988,0,0
616,36,0,0,0,0,0,0,0,0,0,-1,1840,988,0,0
623,36,0,0,0,0,0,0,0,0,0,-1,1847,988,0,0
630,36,0,0,0,0,0,0,0,0,0,-1,1854,988,0,0
637,36,0,0,0,0,0,0,0,0,0,-1,1861,988,0,0
644,36,-0.0687256,-0.0946655,-0.00121624,-0.000157451,0.000356939,-4.83597e-05,-0.00132533,1.27418,0.000867882,0.0378385,1868,988,-0.0687822,0.0946692
651,36,-0.0606689,-0.0458374,-0.000659333,1.75807e-05,0.000296977,0.0001294,-0.000771152,1.21069,0.000562221,0.0385904,1875,988,-0.0606316,0.0458257
658,36,0.0455322,-0.0256348,-0.000323795,0.000131062,0.000321066,0.000297088,-0.000489822,1.09355,0.000458843,0.036391,1882,988,0.045525,0.0256101
665,36,0.052002,0.0550537,-8.27145e-05,0.000197274,0.000351795,0.000435906,-0.000321347,0.974764,0.000438864,0.0345355,1889,988,0.0519797,-0.055041
672,36,-0.0213623,0.0499878,8.75999e-05,0.000226463,0.000368874,0.000532383,-0.00021832,0.878422,0.000445883,0.0346061,1896,988,-0.0213355,-0.0499755
679,36,-0.0827637,0.0379028,0.000186124,0.000233767,0.000388909,0.000599583,-0.000179692,0.815986,0.000471183,0.0342441,1903,988,-0.0827287,-0.0378763
686,36,-0.0332031,0.0494995,0.000244846,0.000223676,0.000398907,0.000633308,-0.000164786,0.772133,0.000486527,0.0308968,1910,988,-0.0331599,-0.0495091
693,36,0.0189209,-0.0142212,0.000276054,0.000178854,0.000420855,0.000651106,-0.000196198,0.727913,0.000512154,0.0332858,1917,988,0.0188848,0.014201
700,36,-0.0390625,0.0212402,0.00032245,0.000187521,0.000423549,0.000683874,-0.000173903,0.70642,0.0005236,0.0301593,1924,988,-0.0390882,-0.021245
707,36,-0.0273438,0.0753784,0.000307687,0.000153286,0.00035661,0.000595357,-0.000134384,0.678801,0.000448462,0.0175561,1931,988,-0.0273842,-0.0753998
714,36,-0.0192871,0.0338135,0.000243877,0.000107239,0.000311861,0.000494814,-0.000143699,0.677567,0.000386779,0.013196,1938,988,-0.0192271,-0.0338072
721,36,-0.00817871,0.00891113,0.000180163,8.50669e-05,0.000330087,0.000466109,-0.000200879,0.713867,0.000395104,0.0171656,1945,988,-0.00820435,-0.00889656
728,36,0.000976563,0.0274048,0.000196392,7.98802e-05,0.000228462,0.000373909,-9.76365e-05,0.660562,0.000287401,0.0159941,1952,988,0.000956105,-0.0274167
735,36,-0.0174561,0.0511475,0.00030044,0.000109163,-0.000132783,0.000368441,4.11615e-05,-0.4733,0.000233122,0.0146311,1959,988,-0.017494,-0.0511343
742,36,-0.041748,0.0587158,-0.000108775,6.93967e-05,-0.000851428,0.000836386,-0.000875765,-0.837524,0.000988598,0.012343,1966,988,-0.041778,-0.058746
749,36,-0.0145264,0.0516968,-0.000408825,0.000117781,-0.00164983,0.00152518,-0.00181623,-0.864528,0.0019316,0.0137977,1973,988,-0.0145522,-0.0517158
756,36,0.00231934,0.0375366,-0.0006325,0.000853129,-0.00267348,0.00288507,-0.00266445,-0.920903,0.00320486,0.0127735,1980,988,0.00231082,-0.037539
763,36,0.00146484,0.0319214,-0.00116819,0.00104536,-0.00419378,0.00427595,-0.00439878,-0.914411,0.00500852,0.0139853,1987,988,0.00145754,-0.0319458
770,36,-0.00952148,0.0293579,-0.00177546,0.00154274,-0.00585152,0.00596582,-0.00619854,-0.923539,0.00702353,0.0125,1994,988,-0.00957607,-0.0293629
777,36,-0.0513916,0.0444946,-0.00253673,0.00221175,-0.00789639,0.00808311,-0.0084081,-0.931436,0.00952182,0.0215443,2001,988,-0.0513446,-0.0445097
784,36,0.50415,0.431152,0,0,0,0,0,0,0,-1,2008,988,0.504138,-0.431151
791,36,0.212158,0.0762939,-0.00464188,0.00417935,-0.0131209,0.0136111,-0.0140736,-0.947541,0.0159845,0.0404848,2015,988,0.212196,-0.076273
798,36,-0.0811768,-0.277039,-0.00596752,0.0055349,-0.0162457,0.0170173,-0.01745,-0.955521,0.0199002,0.0410025,2022,988,-0.0812036,0.277044
805,36,-0.381836,-0.665344,-0.00742987,0.00716121,-0.0196185,0.0207967,-0.0210654,-0.96341,0.0241693,0.0473653,2029,988,-0.381854,0.665331
812,36,-0.679443,-1.01227,-0.00898826,0.00903026,-0.0230984,0.0248142,-0.0247722,-0.971343,0.0286287,0.0483141,2036,988,-0.679427,1.01229
-700,29,0,0,0,0,0,0,0,0,0,-1,524,995,0,0
-693,29,0.00958252,-0.0200806,0,0,0,0,0,0,0,-1,531,995,0.00957348,0.0200805
-686,29,0.715149,3.8465,0,0,0,0,0,0,0,-1,538,995,0.715173,-3.84652
-679,29,-0.636414,2.35767,0.00559083,0.0200683,-0.0574527,0.0707365,-0.0450774,-0.848065,0.06741,0.0458239,545,995,-0.636395,-2.35764
-672,29,0.763367,2.10791,0.00635394,0.0212061,-0.0451705,0.0595569,-0.0319968,-0.86687,0.0536509,0.0430194,552,995,0.763388,-2.1079
-665,29,0.884888,0.937927,0.00605802,0.0200078,-0.0346037,0.0483326,-0.0222668,-0.884848,0.0416763,0.0442652,559,995,0.884889,-0.937904
-658,29,0.992126,-0.246033,0,0,0,0,0,0,0,-1,566,995,0.992125,0.246005
-651,29,0.214233,-0.034729,0.00417926,0.0144448,-0.0185476,0.0285568,-0.00993273,-0.920387,0.0230728,0.0341019,573,995,0.214226,0.0347023
-644,29,-0.0206909,0.0688477,0.00314191,0.0113819,-0.0128981,0.020802,-0.0062782,-0.939989,0.0163671,0.016541,580,995,-0.020704,-0.0688445
-637,29,-0.0230713,0.0792236,0.00219198,0.00898751,-0.0085008,0.0147444,-0.00356496,-0.975522,0.0112085,0.01127,587,995,-0.023074,-0.0792529
-630,29,-0.03125,0.0753784,0.00196123,0.00636538,-0.00486535,0.00950379,-0.00117718,-0.997907,0.00676249,0.0103524,594,995,-0.0312397,-0.0753517
-623,29,-0.034668,0.0755005,0.00100855,0.0041185,-0.00259901,0.00559219,-0.000465133,-1.05498,0.00389244,0.0103069,601,995,-0.0346982,-0.0754714
-616,29,-0.0407104,0.0579834,0.000134716,0.00230829,-0.000894,0.00262875,-0.000185743,-1.22661,0.00181758,0.0129404,608,995,-0.0407283,-0.0579603
-609,29,-0.00976563,0.0644531,-0.000185082,0.000678229,-9.30757e-05,0.00068815,-0.000195003,-1.46461,0.000535731,0.0198203,615,995,-0.00979283,-0.0644684
-602,29,0.0267944,0.0899658,-0.0004112,-5.85228e-05,-0.000110129,-2.69582e-05,-0.000442764,-1.29166,0.000286613,0.0203075,622,995,0.0267961,-0.0899799
-595,29,0.0211182,0.0772705,-0.000120975,-0.000187199,-0.000155132,4.5396e-06,-0.000312714,-0.680255,0.000210005,0.0179656,629,995,0.0211051,-0.0772603
-588,29,0.00927734,0.0436401,0.000254949,-0.00019182,-0.000184106,0.000321039,-0.000257911,-0.344652,0.000334919,0.0211033,636,995,0.00924843,-0.0436479
-581,29,-0.00384521,0.0355225,0.000414459,-0.000138356,-0.000257898,0.000516089,-0.000239986,-0.375385,0.000446117,0.0289811,643,995,-0.00383397,-0.0355287
-574,29,0.00231934,0.0554199,0.000620661,-6.63205e-06,-0.000339034,0.000768878,-0.00015485,-0.412138,0.000571241,0.0271466,650,995,0.00233042,-0.0553933
-567,29,-0.0290527,-0.0432129,0.000942606,0.000116448,-0.000389277,0.00109713,-3.8074e-05,-0.37787,0.000744434,0.0311186,657,995,-0.0290377,0.0431841
-560,29,-0.1651,-0.0178223,0.00134808,0.00035201,-0.000448716,0.00152041,0.000179684,-0.366676,0.000959335,0.0364666,664,995,-0.165129,0.0178123
-553,29,-0.188477,0.0428467,0.00187449,0.000729512,-0.000523954,0.00207806,0.00052594,-0.37058,0.00124758,0.0377403,671,995,-0.188466,-0.0428577
-546,29,-0.0443726,0.0819702,0.00254879,0.00129679,-0.000642788,0.00282004,0.00102554,-0.399314,0.0016482,0.0402001,678,995,-0.0443855,-0.0819653
-539,29,0.0132446,0.137024,0.00328142,0.00211934,-0.000851497,0.00373123,0.00166953,-0.485999,0.00215819,0.041914,685,995,0.013254,-0.137034
-532,29,0.246033,0.107117,0.00400849,0.00328704,-0.00118362,0.00488513,0.00241039,-0.637487,0.00282051,0.0442668,692,995,0.246037,-0.107123
-525,29,0.292725,-0.0271606,0,0,0,0,0,0,0,-1,699,995,0.292719,0.027163
-518,29,0,0,0,0,0,0,0,0,0,-1,706,995,0,0
-511,29,0,0,0,0,0,0,0,0,0,-1,713,995,0,0
-504,29,0,0,0,0,0,0,0,0,0,-1,720,995,0,0
-497,29,0,0,0,0,0,0,0,0,0,-1,727,995,0,0
-490,29,0,0,0,0,0,0,0,0,0,-1,734,995,0,0
-483,29,0,0,0,0,0,0,0,0,0,-1,741,995,0,0
-476,29,0,0,0,0,0,0,0,0,0,-1,748,995,0,0
-469,29,0,0,0,0,0,0,0,0,0,-1,755,995,0,0
-462,29,0,0,0,0,0,0,0,0,0,-1,762,995,0,0
-455,29,0,0,0,0,0,0,0,0,0,-1,769,995,0,0
-448,29,0,0,0,0,0,0,0,0,0,-1,776,995,0,0
-441,29,0,0,0,0,0,0,0,0,0,-1,783,995,0,0
-434,29,0,0,0,0,0,0,0,0,0,-1,790,995,0,0
-427,29,0,0,0,0,0,0,0,0,0,-1,797,995,0,0
-420,29,0,0,0,0,0,0,0,0,0,-1,804,995,0,0
-413,29,0,0,0,0,0,0,0,0,0,-1,811,995,0,0
-406,29,0,0,0,0,0,0,0,0,0,-1,818,995,0,0
-399,29,0,0,0,0,0,0,0,0,0,-1,825,995,0,0
-392,29,0,0,0,0,0,0,0,0,0,-1,832,995,0,0
-385,29,0,0,0,0,0,0,0,0,0,-1,839,995,0,0
-378,29,0,0,0,0,0,0,0,0,0,-1,846,995,0,0
-371,29,0,0,0,0,0,0,0,0,0,-1,853,995,0,0
-364,29,0,0,0,0,0,0,0,0,0,-1,860,995,0,0
-357,29,0,0,0,0,0,0,0,0,0,-1,867,995,0,0
-350,29,0,0,0,0,0,0,0,0,0,-1,874,995,0,0
-343,29,0,0,0,0,0,0,0,0,0,-1,881,995,0,0
-336,29,0,0,0,0,0,0,0,0,0,-1,888,995,0,0
-329,29,0,0,0,0,0,0,0,0,0,-1,895,995,0,0
-322,29,0,0,0,0,0,0,0,0,0,-1,902,995,0,0
-315,29,0,0,0,0,0,0,0,0,0,-1,909,995,0,0
-308,29,0,0,0,0,0,0,0,0,0,-1,916,995,0,0
-301,29,0,0,0,0,0,0,0,0,0,-1,923,995,0,0
-294,29,0,0,0,0,0,0,0,0,0,-1,930,995,0,0
-287,29,0,0,0,0,0,0,0,0,0,-1,937,995,0,0
-280,29,0,0,0,0,0,0,0,0,0,-1,944,995,0,0
-273,29,0,0,0,0,0,0,0,0,0,-1,951,995,0,0
-266,29,0,0,0,0,0,0,0,0,0,-1,958,995,0,0
-259,29,0,0,0,0,0,0,0,0,0,-1,965,995,0,0
-252,29,0,0,0,0,0,0,0,0,0,-1,972,995,0,0
-245,29,0,0,0,0,0,0,0,0,0,-1,979,995,0,0
-238,29,0,0,0,0,0,0,0,0,0,-1,986,995,0,0
-231,29,0,0,0,0,0,0,0,0,0,-1,993,995,0,0
-224,29,0,0,0,0,0,0,0,0,0,-1,1000,995,0,0
-217,29,0,0,0,0,0,0,0,0,0,-1,1007,995,0,0
-210,29,0,0,0,0,0,0,0,0,0,-1,1014,995,0,0
-203,29,0,0,0,0,0,0,0,0,0,-1,1021,995,0,0
-196,29,0,0,0,0,0,0,0,0,0,-1,1028,995,0,0
-189,29,0,0,0,0,0,0,0,0,0,-1,1035,995,0,0
-182,29,0,0,0,0,0,0,0,0,0,-1,1042,995,0,0
-175,29,0,0,0,0,0,0,0,0,0,-1,1049,995,0,0
-168,29,0,0,0,0,0,0,0,0,0,-1,1056,995,0,0
-161,29,0,0,0,0,0,0,0,0,0,-1,1063,995,0,0
-154,29,0,0,0,0,0,0,0,0,0,-1,1070,995,0,0
-147,29,0,0,0,0,0,0,0,0,0,-1,1077,995,0,0
-140,29,0,0,0,0,0,0,0,0,0,-1,1084,995,0,0
-133,29,0,0,0,0,0,0,0,0,0,-1,1091,995,0,0
-126,29,0,0,0,0,0,0,0,0,0,-1,1098,995,0,0
-119,29,0,0,0,0,0,0,0,0,0,-1,1105,995,0,0
-112,29,0,0,0,0,0,0,0,0,0,-1,1112,995,0,0
-105,29,0,0,0,0,0,0,0,0,0,-1,1119,995,0,0
-98,29,0,0,0,0,0,0,0,0,0,-1,1126,995,0,0
-91,29,0,0,0,0,0,0,0,0,0,-1,1133,995,0,0
-84,29,0,0,0,0,0,0,0,0,0,-1,1140,995,0,0
-77,29,0,0,0,0,0,0,0,0,0,-1,1147,995,0,0
-70,29,0,0,0,0,0,0,0,0,0,-1,1154,995,0,0
-63,29,0,0,0,0,0,0,0,0,0,-1,1161,995,0,0
-56,29,0,0,0,0,0,0,0,0,0,-1,1168,995,0,0
-49,29,0,0,0,0,0,0,0,0,0,-1,1175,995,0,0
-42,29,0,0,0,0,0,0,0,0,0,-1,1182,995,0,0
-35,29,0,0,0,0,0,0,0,0,0,-1,1189,995,0,0
-28,29,0,0,0,0,0,0,0,0,0,-1,1196,995,0,0
-21,29,0,0,0,0,0,0,0,0,0,-1,1203,995,0,0
-14,29,0,0,0,0,0,0,0,0,0,-1,1210,995,0,0
-7,29,0,0,0,0,0,0,0,0,0,-1,1217,995,0,0
0,29,0,0,0,0,0,0,0,0,0,-1,1224,995,0,0
7,29,0,0,0,0,0,0,0,0,0,-1,1231,995,0,0
14,29,0,0,0,0,0,0,0,0,0,-1,1238,995,0,0
21,29,0,0,0,0,0,0,0,0,0,-1,1245,995,0,0
28,29,0,0,0,0,0,0,0,0,0,-1,1252,995,0,0
35,29,0,0,0,0,0,0,0,0,0,-1,1259,995,0,0
42,29,0,0,0,0,0,0,0,0,0,-1,1266,995,0,0
49,29,0,0,0,0,0,0,0,0,0,-1,1273,995,0,0
56,29,0,0,0,0,0,0,0,0,0,-1,1280,995,0,0
63,29,0,0,0,0,0,0,0,0,0,-1,1287,995,0,0
70,29,0,0,0,0,0,0,0,0,0,-1,1294,995,0,0
77,29,0,0,0,0,0,0,0,0,0,-1,1301,995,0,0
84,29,0,0,0,0,0,0,0,0,0,-1,1308,995,0,0
91,29,0,0,0,0,0,0,0,0,0,-1,1315,995,0,0
98,29,0,0,0,0,0,0,0,0,0,-1,1322,995,0,0
105,29,0,0,0,0,0,0,0,0,0,-1,1329,995,0,0
112,29,0,0,0,0,0,0,0,0,0,-1,1336,995,0,0
119,29,0,0,0,0,0,0,0,0,0,-1,1343,995,0,0
126,29,0,0,0,0,0,0,0,0,0,-1,1350,995,0,0
133,29,0,0,0,0,0,0,0,0,0,-1,1357,995,0,0
140,29,0,0,0,0,0,0,0,0,0,-1,1364,995,0,0
147,29,0,0,0,0,0,0,0,0,0,-1,1371,995,0,0
154,29,0,0,0,0,0,0,0,0,0,-1,1378,995,0,0
161,29,0,0,0,0,0,0,0,0,0,-1,1385,995,0,0
168,29,0,0,0,0,0,0,0,0,0,-1,1392,995,0,0
175,29,0,0,0,0,0,0,0,0,0,-1,1399,995,0,0
182,29,0,0,0,0,0,0,0,0,0,-1,1406,995,0,0
189,29,0,0,0,0,0,0,0,0,0,-1,1413,995,0,0
196,29,0,0,0,0,0,0,0,0,0,-1,1420,995,0,0
203,29,0,0,0,0,0,0,0,0,0,-1,1427,995,0,0
210,29,0,0,0,0,0,0,0,0,0,-1,1434,995,0,0
217,29,0,0,0,0,0,0,0,0,0,-1,1441,995,0,0
224,29,0,0,0,0,0,0,0,0,0,-1,1448,995,0,0
231,29,0,0,0,0,0,0,0,0,0,-1,1455,995,0,0
238,29,0,0,0,0,0,0,0,0,0,-1,1462,995,0,0
245,29,0,0,0,0,0,0,0,0,0,-1,1469,995,0,0
252,29,0,0,0,0,0,0,0,0,0,-1,1476,995,0,0
259,29,0,0,0,0,0,0,0,0,0,-1,1483,995,0,0
266,29,0,0,0,0,0,0,0,0,0,-1,1490,995,0,0
273,29,0,0,0,0,0,0,0,0,0,-1,1497,995,0,0
280,29,0,0,0,0,0,0,0,0,0,-1,1504,995,0,0
287,29,0,0,0,0,0,0,0,0,0,-1,1511,995,0,0
294,29,0,0,0,0,0,0,0,0,0,-1,1518,995,0,0
301,29,0,0,0,0,0,0,0,0,0,-1,1525,995,0,0
308,29,0,0,0,0,0,0,0,0,0,-1,1532,995,0,0
315,29,0,0,0,0,0,0,0,0,0,-1,1539,995,0,0
322,29,0,0,0,0,0,0,0,0,0,-1,1546,995,0,0
329,29,0,0,0,0,0,0,0,0,0,-1,1553,995,0,0
336,29,0,0,0,0,0,0,0,0,0,-1,1560,995,0,0
343,29,0,0,0,0,0,0,0,0,0,-1,1567,995,0,0
350,29,0,0,0,0,0,0,0,0,0,-1,1574,995,0,0
357,29,0,0,0,0,0,0,0,0,0,-1,1581,995,0,0
364,29,0,0,0,0,0,0,0,0,0,-1,1588,995,0,0
371,29,0,0,0,0,0,0,0,0,0,-1,1595,995,0,0
378,29,0,0,0,0,0,0,0,0,0,-1,1602,995,0,0
385,29,0,0,0,0,0,0,0,0,0,-1,1609,995,0,0
392,29,0,0,0,0,0,0,0,0,0,-1,1616,995,0,0
399,29,0,0,0,0,0,0,0,0,0,-1,1623,995,0,0
406,29,0,0,0,0,0,0,0,0,0,-1,1630,995,0,0
413,29,0,0,0,0,0,0,0,0,0,-1,1637,995,0,0
420,29,0,0,0,0,0,0,0,0,0,-1,1644,995,0,0
427,29,0,0,0,0,0,0,0,0,0,-1,1651,995,0,0
434,29,0,0,0,0,0,0,0,0,0,-1,1658,995,0,0
441,29,0,0,0,0,0,0,0,0,0,-1,1665,995,0,0
448,29,0,0,0,0,0,0,0,0,0,-1,1672,995,0,0
455,29,0,0,0,0,0,0,0,0,0,-1,1679,995,0,0
462,29,0,0,0,0,0,0,0,0,0,-1,1686,995,0,0
469,29,0,0,0,0,0,0,0,0,0,-1,1693,995,0,0
476,29,0,0,0,0,0,0,0,0,0,-1,1700,995,0,0
483,29,0,0,0,0,0,0,0,0,0,-1,1707,995,0,0
490,29,0,0,0,0,0,0,0,0,0,-1,1714,995,0,0
497,29,0,0,0,0,0,0,0,0,0,-1,1721,995,0,0
504,29,0,0,0,0,0,0,0,0,0,-1,1728,995,0,0
511,29,0,0,0,0,0,0,0,0,0,-1,1735,995,0,0
518,29,0,0,0,0,0,0,0,0,0,-1,1742,995,0,0
525,29,0,0,0,0,0,0,0,0,0,-1,1749,995,0,0
532,29,0,0,0,0,0,0,0,0,0,-1,1756,995,0,0
539,29,0,0,0,0,0,0,0,0,0,-1,1763,995,0,0
546,29,0,0,0,0,0,0,0,0,0,-1,1770,995,0,0
553,29,0,0,0,0,0,0,0,0,0,-1,1777,995,0,0
560,29,0,0,0,0,0,0,0,0,0,-1,1784,995,0,0
567,29,0,0,0,0,0,0,0,0,0,-1,1791,995,0,0
574,29,0,0,0,0,0,0,0,0,0,-1,1798,995,0,0
581,29,0,0,0,0,0,0,0,0,0,-1,1805,995,0,0
588,29,0,0,0,0,0,0,0,0,0,-1,1812,995,0,0
595,29,0,0,0,0,0,0,0,0,0,-1,1819,995,0,0
602,29,0,0,0,0,0,0,0,0,0,-1,1826,995,0,0
609,29,0,0,0,0,0,0,0,0,0,-1,1833,995,0,0
616,29,0,0,0,0,0,0,0,0,0,-1,1840,995,0,0
623,29,0,0,0,0,0,0,0,0,0,-1,1847,995,0,0
630,29,0,0,0,0,0,0,0,0,0,-1,1854,995,0,0
637,29,0,0,0,0,0,0,0,0,0,-1,1861,995,0,0
644,29,-0.0748291,-0.138916,-0.00122795,-0.00139314,2.07587e-05,-0.00122539,-0.00139571,0.123119,0.000879214,0.0375987,1868,995,-0.0748833,0.138903
651,29,-0.0690918,-0.239258,-0.000614437,-0.000981838,2.24838e-05,-0.000613066,-0.000983209,0.060894,0.000573402,0.0401193,1875,995,-0.0690947,0.239239
658,29,-0.0114746,-0.074707,-0.000246734,-0.000674618,0.000105195,-0.000222271,-0.000699081,0.228493,0.000412437,0.0393679,1882,995,-0.0115115,0.0746939
665,29,-0.019043,0.0784302,9.46723e-06,-0.000445408,0.000187429,7.67454e-05,-0.000512686,0.344629,0.000370035,0.035419,1889,995,-0.0190386,-0.0784103
672,29,-0.0947266,0.125427,0.00018614,-0.000281287,0.000247561,0.00029288,-0.000388027,0.407082,0.000394399,0.0332548,1896,995,-0.0946868,-0.125423
679,29,-0.108398,0.145874,0.000283201,-0.000165301,0.000301079,0.000434366,-0.000316465,0.465308,0.00043527,0.0331151,1903,995,-0.108359,-0.145865
686,29,-0.0477295,0.0886841,0.000333592,-8.6463e-05,0.000338938,0.000522301,-0.000275172,0.508022,0.000467732,0.0321608,1910,995,-0.0477521,-0.0886872
693,29,0.0402832,-0.0317383,0.000346749,-5.14661e-05,0.00037332,0.000570739,-0.000275456,0.540416,0.000498368,0.0336273,1917,995,0.0403044,0.031735
700,29,-0.00878906,-0.0112305,0.000382469,2.08468e-05,0.00039567,0.000636683,-0.000233368,0.571079,0.000520003,0.0286697,1924,995,-0.0087509,0.0112426
707,29,-0.0606689,0.0480957,0.000360348,3.81397e-05,0.000353915,0.000588102,-0.000189614,0.571811,0.00046825,0.0162818,1931,995,-0.0607228,-0.0481125
714,29,-0.0236816,0.0366821,0.000276381,2.41549e-05,0.000313401,0.000488092,-0.000187555,0.59411,0.000402743,0.0123301,1938,995,-0.0236737,-0.0366651
721,29,-0.0181885,0.0246582,0.00021156,2.21428e-05,0.000324152,0.000454556,-0.000220853,0.643267,0.000397653,0.0151544,1945,995,-0.0181619,-0.024669
728,29,-0.046875,0.0307617,0.00022383,2.11827e-05,0.00023811,0.000381279,-0.000136266,0.584237,0.000309765,0.0151849,1952,995,-0.0468342,-0.0307327
735,29,-0.0571289,0.0500488,0.000274405,1.72356e-05,-6.32457e-05,0.000289117,2.52326e-06,-0.228557,0.000191909,0.0132635,1959,995,-0.057095,-0.0500468
742,29,-0.067627,0.046936,-0.000243529,-0.000111234,-0.000771627,0.000597076,-0.000951839,-0.828156,0.000902051,0.0107622,1966,995,-0.0676328,-0.0469631
749,29,-0.0372314,0.0456543,-0.000618161,-0.000294849,-0.00166572,0.00121704,-0.00213005,-0.833771,0.00195626,0.0113961,1973,995,-0.0372385,-0.0456778
756,29,-0.0032959,0.0517578,-0.000867715,0.000205013,-0.00273594,0.00245666,-0.00311937,-0.882193,0.00322689,0.0105163,1980,995,-0.00328161,-0.0517785
763,29,0.00390625,0.0478516,-0.00140189,0.000172216,-0.0043159,0.00377224,-0.00500192,-0.875588,0.00508232,0.00997172,1987,995,0.00396108,-0.0478257
770,29,-0.0280762,0.0401611,-0.00204228,0.0003368,-0.00606825,0.005331,-0.00703648,-0.882185,0.00716296,0.0110832,1994,995,-0.0280647,-0.0401844
777,29,-0.0446777,0.0915527,-0.00280399,0.000599538,-0.00824151,0.00731315,-0.00951759,-0.887211,0.00974498,0.0198196,2001,995,-0.0447091,-0.0915351
784,29,0.504883,0.567444,0,0,0,0,0,0,0,-1,2008,995,0.50491,-0.567464
791,29,0.157593,0.208862,-0.00472181,0.00154316,-0.0138574,0.0126177,-0.0157964,-0.896555,0.0164391,0.0394944,2015,995,0.15764,-0.20887
798,29,-0.211792,-0.242126,-0.00579669,0.00231621,-0.0172613,0.0159913,-0.0194718,-0.900805,0.0205075,0.0394842,2022,995,-0.211736,0.242097
805,29,-0.351685,-0.536682,-0.00684231,0.00336722,-0.0209855,0.0198599,-0.023335,-0.904707,0.0249654,0.0460395,2029,995,-0.351638,0.536659
812,29,-0.294434,-0.38269,-0.00775386,0.00475807,-0.0249004,0.0241764,-0.0271722,-0.908471,0.0296629,0.0473475,2036,995,-0.294457,0.382704
-700,22,0,0,0,0,0,0,0,0,0,-1,524,1002,0,0
-693,22,0.000610352,-0.295715,0,0,0,0,0,0,0,-1,531,1002,0.000595867,0.295723
-686,22,-0.416931,-0.565125,0,0,0,0,0,0,0,-1,538,1002,-0.416936,0.565099
-679,22,-0.976624,2.0636,0,0,0,0,0,0,0,-1,545,1002,-0.976618,-2.06357
-672,22,1.40338,2.52631,0,0,0,0,0,0,0,-1,552,1002,1.40341,-2.52629
-665,22,1.54913,1.33124,0.00386352,0.0222426,-0.0311575,0.0455375,-0.0194314,-0.928801,0.038506,0.0449598,559,1002,1.54911,-1.33125
-658,22,-0.0392456,-0.0540161,0.00360449,0.0193773,-0.0227547,0.0355735,-0.0125917,-0.952212,0.0288441,0.0418551,566,1002,-0.0392601,0.0539915
-651,22,-0.0652466,0.0396729,0.00304911,0.0159103,-0.0160524,0.0267722,-0.00781282,-0.97591,0.0209439,0.0335941,573,1002,-0.0652759,-0.0396967
-644,22,-0.0170288,0.0569458,0.00241731,0.0124973,-0.010889,0.0194561,-0.00454149,-1.00214,0.01472,0.0140325,580,1002,-0.0170244,-0.0569549
-637,22,-0.0144043,0.0751953,0.00175802,0.00991828,-0.00689013,0.0138457,-0.00216943,-1.05272,0.0100321,0.0101215,587,1002,-0.0143977,-0.0752028
-630,22,-0.0211792,0.0771484,0.00172355,0.00690853,-0.00365283,0.00879534,-0.00016327,-1.09401,0.00591874,0.0100608,594,1002,-0.0211716,-0.0771562
-623,22,-0.0157471,0.0717163,0.00092505,0.00453108,-0.00171065,0.00521346,0.000242666,-1.19124,0.00339764,0.00967283,601,1002,-0.0157701,-0.0716953
-616,22,-0.0244751,0.0656128,0.000143989,0.00237725,-0.000299224,0.00241664,0.000104592,-1.43989,0.00157739,0.0161327,608,1002,-0.0244519,-0.0655914
-609,22,-0.0256958,0.0656128,-7.65938e-05,0.000491837,0.000186342,0.000547477,-0.000132234,1.28063,0.000416126,0.0256598,615,1002,-0.0256831,-0.0655914
-602,22,0.0118408,0.0563965,-0.000291481,-9.96103e-05,-1.87626e-07,-9.96101e-05,-0.000291481,-1.56982,0.000171074,0.0241522,622,1002,0.0118365,-0.0563946
-595,22,0.0164795,0.039856,-7.0969e-05,-0.000198676,-0.000149801,2.80195e-05,-0.000297665,-0.583931,0.000208412,0.0200378,629,1002,0.0165008,-0.0398508
-588,22,-0.013855,0.0267334,0.000252863,-0.000213599,-0.000218092,0.000338945,-0.000299681,-0.375934,0.000368943,0.0255806,636,1002,-0.0138735,-0.0267279
-581,22,-0.0543823,0.0231323,0.000383844,-0.000174407,-0.000322675,0.000531369,-0.000321931,-0.428819,0.000497575,0.0347738,643,1002,-0.0543521,-0.023109
-574,22,-0.0210571,0.0606689,0.000558252,-5.90612e-05,-0.000447282,0.000793038,-0.000293847,-0.483382,0.0006492,0.0305266,650,1002,-0.0210282,-0.0606966
-567,22,-0.0350952,0.0338745,0.000824237,7.24589e-05,-0.000557784,0.00112097,-0.000224271,-0.488902,0.000832203,0.0287204,657,1002,-0.0350719,-0.0338716
-560,22,-0.0824585,-0.122803,0.00115906,0.000311005,-0.000687447,0.00154273,-7.26702e-05,-0.509053,0.00105355,0.035286,664,1002,-0.0824481,0.122811
-553,22,-0.0473633,-0.105896,0.00158921,0.000703045,-0.000842541,0.00209807,0.000194184,-0.543326,0.00133869,0.0373775,671,1002,-0.047393,0.105918
-546,22,-0.00799561,0.106934,0.00212235,0.00130638,-0.00104403,0.00283528,0.000593448,-0.599131,0.00172671,0.0382302,678,1002,-0.00798988,-0.106903
-539,22,-0.0713501,0.201599,0.00265385,0.00219973,-0.00133436,0.00378033,0.00107326,-0.701123,0.0022495,0.0407059,685,1002,-0.0713745,-0.201621
-532,22,-0.0650635,0.0859985,0.00309505,0.00349649,-0.00173208,0.00503944,0.0015521,-0.843082,0.00298018,0.0434323,692,1002,-0.0650538,-0.086015
-525,22,0,0,0,0,0,0,0,0,0,-1,699,1002,0,0
-518,22,0,0,0,0,0,0,0,0,0,-1,706,1002,0,0
-511,22,0,0,0,0,0,0,0,0,0,-1,713,1002,0,0
-504,22,0,0,0,0,0,0,0,0,0,-1,720,1002,0,0
-497,22,0,0,0,0,0,0,0,0,0,-1,727,1002,0,0
-490,22,0,0,0,0,0,0,0,0,0,-1,734,1002,0,0
-483,22,0,0,0,0,0,0,0,0,0,-1,741,1002,0,0
-476,22,0,0,0,0,0,0,0,0,0,-1,748,1002,0,0
-469,22,0,0,0,0,0,0,0,0,0,-1,755,1002,0,0
-462,22,0,0,0,0,0,0,0,0,0,-1,762,1002,0,0
-455,22,0,0,0,0,0,0,0,0,0,-1,769,1002,0,0
-448,22,0,0,0,0,0,0,0,0,0,-1,776,1002,0,0
-441,22,0,0,0,0,0,0,0,0,0,-1,783,1002,0,0
-434,22,0,0,0,0,0,0,0,0,0,-1,790,1002,0,0
-427,22,0,0,0,0,0,0,0,0,0,-1,797,1002,0,0
-420,22,0,0,0,0,0,0,0,0,0,-1,804,1002,0,0
-413,22,0,0,0,0,0,0,0,0,0,-1,811,1002,0,0
-406,22,0,0,0,0,0,0,0,0,0,-1,818,1002,0,0
-399,22,0,0,0,0,0,0,0,0,0,-1,825,1002,0,0
-392,22,0,0,0,0,0,0,0,0,0,-1,832,1002,0,0
-385,22,0,0,0,0,0,0,0,0,0,-1,839,1002,0,0
-378,22,0,0,0,0,0,0,0,0,0,-1,846,1002,0,0
-371,22,0,0,0,0,0,0,0,0,0,-1,853,1002,0,0
-364,22,0,0,0,0,0,0,0,0,0,-1,860,1002,0,0
-357,22,0,0,0,0,0,0,0,0,0,-1,867,1002,0,0
-350,22,0,0,0,0,0,0,0,0,0,-1,874,1002,0,0
-343,22,0,0,0,0,0,0,0,0,0,-1,881,1002,0,0
-336,22,0,0,0,0,0,0,0,0,0,-1,888,1002,0,0
-329,22,0,0,0,0,0,0,0,0,0,-1,895,1002,0,0
-322,22,0,0,0,0,0,0,0,0,0,-1,902,1002,0,0
-315,22,0,0,0,0,0,0,0,0,0,-1,909,1002,0,0
-308,22,0,0,0,0,0,0,0,0,0,-1,916,1002,0,0
-301,22,0,0,0,0,0,0,0,0,0,-1,923,1002,0,0
-294,22,0,0,0,0,0,0,0,0,0,-1,930,1002,0,0
-287,22,0,0,0,0,0,0,0,0,0,-1,937,1002,0,0
-280,22,0,0,0,0,0,0,0,0,0,-1,944,1002,0,0
-273,22,0,0,0,0,0,0,0,0,0,-1,951,1002,0,0
-266,22,0,0,0,0,0,0,0,0,0,-1,958,1002,0,0
-259,22,0,0,0,0,0,0,0,0,0,-1,965,1002,0,0
-252,22,0,0,0,0,0,0,0,0,0,-1,972,1002,0,0
-245,22,0,0,0,0,0,0,0,0,0,-1,979,1002,0,0
-238,22,0,0,0,0,0,0,0,0,0,-1,986,1002,0,0
-231,22,0,0,0,0,0,0,0,0,0,-1,993,1002,0,0
-224,22,0,0,0,0,0,0,0,0,0,-1,1000,1002,0,0
-217,22,0,0,0,0,0,0,0,0,0,-1,1007,1002,0,0
-210,22,0,0,0,0,0,0,0,0,0,-1,1014,1002,0,0
-203,22,0,0,0,0,0,0,0,0,0,-1,1021,1002,0,0
-196,22,0,0,0,0,0,0,0,0,0,-1,1028,1002,0,0
-189,22,0,0,0,0,0,0,0,0,0,-1,1035,1002,0,0
-182,22,0,0,0,0,0,0,0,0,0,-1,1042,1002,0,0
-175,22,0,0,0,0,0,0,0,0,0,-1,1049,1002,0,0
-168,22,0,0,0,0,0,0,0,0,0,-1,1056,1002,0,0
-161,22,0,0,0,0,0,0,0,0,0,-1,1063,1002,0,0
-154,22,0,0,0,0,0,0,0,0,0,-1,1070,1002,0,0
-147,22,0,0,0,0,0,0,0,0,0,-1,1077,1002,0,0
-140,22,0,0,0,0,0,0,0,0,0,-1,1084,1002,0,0
-133,22,0,0,0,0,0,0,0,0,0,-1,1091,1002,0,0
-126,22,0,0,0,0,0,0,0,0,0,-1,1098,1002,0,0
-119,22,0,0,0,0,0,0,0,0,0,-1,1105,1002,0,0
-112,22,0,0,0,0,0,0,0,0,0,-1,1112,1002,0,0
-105,22,0,0,0,0,0,0,0,0,0,-1,1119,1002,0,0
-98,22,0,0,0,0,0,0,0,0,0,-1,1126,1002,0,0
-91,22,0,0,0,0,0,0,0,0,0,-1,1133,1002,0,0
-84,22,0,0,0,0,0,0,0,0,0,-1,1140,1002,0,0
-77,22,0,0,0,0,0,0,0,0,0,-1,1147,1002,0,0
-70,22,0,0,0,0,0,0,0,0,0,-1,1154,1002,0,0
-63,22,0,0,0,0,0,0,0,0,0,-1,1161,1002,0,0
-56,22,0,0,0,0,0,0,0,0,0,-1,1168,1002,0,0
-49,22,0,0,0,0,0,0,0,0,0,-1,1175,1002,0,0
-42,22,0,0,0,0,0,0,0,0,0,-1,1182,1002,0,0
-35,22,0,0,0,0,0,0,0,0,0,-1,1189,1002,0,0
-28,22,0,0,0,0,0,0,0,0,0,-1,1196,1002,0,0
-21,22,0,0,0,0,0,0,0,0,0,-1,1203,1002,0,0
-14,22,0,0,0,0,0,0,0,0,0,-1,1210,1002,0,0
-7,22,0,0,0,0,0,0,0,0,0,-1,1217,1002,0,0
0,22,0,0,0,0,0,0,0,0,0,-1,1224,1002,0,0
7,22,0,0,0,0,0,0,0,0,0,-1,1231,1002,0,0
14,22,0,0,0,0,0,0,0,0,0,-1,1238,1002,0,0
21,22,0,0,0,0,0,0,0,0,0,-1,1245,1002,0,0
28,22,0,0,0,0,0,0,0,0,0,-1,1252,1002,0,0
35,22,0,0,0,0,0,0,0,0,0,-1,1259,1002,0,0
42,22,0,0,0,0,0,0,0,0,0,-1,1266,1002,0,0
49,22,0,0,0,0,0,0,0,0,0,-1,1273,1002,0,0
56,22,0,0,0,0,0,0,0,0,0,-1,1280,1002,0,0
63,22,0,0,0,0,0,0,0,0,0,-1,1287,1002,0,0
70,22,0,0,0,0,0,0,0,0,0,-1,1294,1002,0,0
77,22,0,0,0,0,0,0,0,0,0,-1,1301,1002,0,0
84,22,0,0,0,0,0,0,0,0,0,-1,1308,1002,0,0
91,22,0,0,0,0,0,0,0,0,0,-1,1315,1002,0,0
98,22,0,0,0,0,0,0,0,0,0,-1,1322,1002,0,0
105,22,0,0,0,0,0,0,0,0,0,-1,1329,1002,0,0
112,22,0,0,0,0,0,0,0,0,0,-1,1336,1002,0,0
119,22,0,0,0,0,0,0,0,0,0,-1,1343,1002,0,0
126,22,0,0,0,0,0,0,0,0,0,-1,1350,1002,0,0
133,22,0,0,0,0,0,0,0,0,0,-1,1357,1002,0,0
140,22,0,0,0,0,0,0,0,0,0,-1,1364,1002,0,0
147,22,0,0,0,0,0,0,0,0,0,-1,1371,1002,0,0
154,22,0,0,0,0,0,0,0,0,0,-1,1378,1002,0,0
161,22,0,0,0,0,0,0,0,0,0,-1,1385,1002,0,0
168,22,0,0,0,0,0,0,0,0,0,-1,1392,1002,0,0
175,22,0,0,0,0,0,0,0,0,0,-1,1399,1002,0,0
182,22,0,0,0,0,0,0,0,0,0,-1,1406,1002,0,0
189,22,0,0,0,0,0,0,0,0,0,-1,1413,1002,0,0
196,22,0,0,0,0,0,0,0,0,0,-1,1420,1002,0,0
203,22,0,0,0,0,0,0,0,0,0,-1,1427,1002,0,0
210,22,0,0,0,0,0,0,0,0,0,-1,1434,1002,0,0
217,22,0,0,0,0,0,0,0,0,0,-1,1441,1002,0,0
224,22,0,0,0,0,0,0,0,0,0,-1,1448,1002,0,0
231,22,0,0,0,0,0,0,0,0,0,-1,1455,1002,0,0
238,22,0,0,0,0,0,0,0,0,0,-1,1462,1002,0,0
245,22,0,0,0,0,0,0,0,0,0,-1,1469,1002,0,0
252,22,0,0,0,0,0,0,0,0,0,-1,1476,1002,0,0
259,22,0,0,0,0,0,0,0,0,0,-1,1483,1002,0,0
266,22,0,0,0,0,0,0,0,0,0,-1,1490,1002,0,0
273,22,0,0,0,0,0,0,0,0,0,-1,1497,1002,0,0
280,22,0,0,0,0,0,0,0,0,0,-1,1504,1002,0,0
287,22,0,0,0,0,0,0,0,0,0,-1,1511,1002,0,0
294,22,0,0,0,0,0,0,0,0,0,-1,1518,1002,0,0
301,22,0,0,0,0,0,0,0,0,0,-1,1525,1002,0,0
308,22,0,0,0,0,0,0,0,0,0,-1,1532,1002,0,0
315,22,0,0,0,0,0,0,0,0,0,-1,1539,1002,0,0
322,22,0,0,0,0,0,0,0,0,0,-1,1546,1002,0,0
329,22,0,0,0,0,0,0,0,0,0,-1,1553,1002,0,0
336,22,0,0,0,0,0,0,0,0,0,-1,1560,1002,0,0
343,22,0,0,0,0,0,0,0,0,0,-1,1567,1002,0,0
350,22,0,0,0,0,0,0,0,0,0,-1,1574,1002,0,0
357,22,0,0,0,0,0,0,0,0,0,-1,1581,1002,0,0
364,22,0,0,0,0,0,0,0,0,0,-1,1588,1002,0,0
371,22,0,0,0,0,0,0,0,0,0,-1,1595,1002,0,0
378,22,0,0,0,0,0,0,0,0,0,-1,1602,1002,0,0
385,22,0,0,0,0,0,0,0,0,0,-1,1609,1002,0,0
392,22,0,0,0,0,0,0,0,0,0,-1,1616,1002,0,0
399,22,0,0,0,0,0,0,0,0,0,-1,1623,1002,0,0
406,22,0,0,0,0,0,0,0,0,0,-1,1630,1002,0,0
413,22,0,0,0,0,0,0,0,0,0,-1,1637,1002,0,0
420,22,0,0,0,0,0,0,0,0,0,-1,1644,1002,0,0
427,22,0,0,0,0,0,0,0,0,0,-1,1651,1002,0,0
434,22,0,0,0,0,0,0,0,0,0,-1,1658,1002,0,0
441,22,0,0,0,0,0,0,0,0,0,-1,1665,1002,0,0
448,22,0,0,0,0,0,0,0,0,0,-1,1672,1002,0,0
455,22,0,0,0,0,0,0,0,0,0,-1,1679,1002,0,0
462,22,0,0,0,0,0,0,0,0,0,-1,1686,1002,0,0
469,22,0,0,0,0,0,0,0,0,0,-1,1693,1002,0,0
476,22,0,0,0,0,0,0,0,0,0,-1,1700,1002,0,0
483,22,0,0,0,0,0,0,0,0,0,-1,1707,1002,0,0
490,22,0,0,0,0,0,0,0,0,0,-1,1714,1002,0,0
497,22,0,0,0,0,0,0,0,0,0,-1,1721,1002,0,0
504,22,0,0,0,0,0,0,0,0,0,-1,1728,1002,0,0
511,22,0,0,0,0,0,0,0,0,0,-1,1735,1002,0,0
518,22,0,0,0,0,0,0,0,0,0,-1,1742,1002,0,0
525,22,0,0,0,0,0,0,0,0,0,-1,1749,1002,0,0
532,22,0,0,0,0,0,0,0,0,0,-1,1756,1002,0,0
539,22,0,0,0,0,0,0,0,0,0,-1,1763,1002,0,0
546,22,0,0,0,0,0,0,0,0,0,-1,1770,1002,0,0
553,22,0,0,0,0,0,0,0,0,0,-1,1777,1002,0,0
560,22,0,0,0,0,0,0,0,0,0,-1,1784,1002,0,0
567,22,0,0,0,0,0,0,0,0,0,-1,1791,1002,0,0
574,22,0,0,0,0,0,0,0,0,0,-1,1798,1002,0,0
581,22,0,0,0,0,0,0,0,0,0,-1,1805,1002,0,0
588,22,0,0,0,0,0,0,0,0,0,-1,1812,1002,0,0
595,22,0,0,0,0,0,0,0,0,0,-1,1819,1002,0,0
602,22,0,0,0,0,0,0,0,0,0,-1,1826,1002,0,0
609,22,0,0,0,0,0,0,0,0,0,-1,1833,1002,0,0
616,22,0,0,0,0,0,0,0,0,0,-1,1840,1002,0,0
623,22,0,0,0,0,0,0,0,0,0,-1,1847,1002,0,0
630,22,0,0,0,0,0,0,0,0,0,-1,1854,1002,0,0
637,22,0,0,0,0,0,0,0,0,0,-1,1861,1002,0,0
644,22,-0.150024,-0.106628,-0.00151668,-0.00222657,-0.000456185,-0.00129362,-0.00244963,-0.454785,0.00141504,0.0349212,1868,1002,-0.150083,0.106601
651,22,-0.162354,-0.243591,-0.000806014,-0.00159672,-0.000369073,-0.000660517,-0.00174222,-0.375516,0.00101562,0.0380436,1875,1002,-0.162308,0.243591
658,22,-0.0656738,-0.0650024,-0.000357229,-0.0011485,-0.000206001,-0.000306811,-0.00119892,-0.240028,0.000719167,0.0385145,1882,1002,-0.0656347,0.0650165
665,22,-0.112305,0.0540771,-4.26532e-05,-0.000820651,-5.17245e-05,-3.92294e-05,-0.000824075,-0.0660964,0.000536785,0.0355586,1889,1002,-0.112258,-0.0540724
672,22,-0.137207,0.0806274,0.000178459,-0.000587061,6.99415e-05,0.000184797,-0.000593398,0.0903677,0.000469482,0.0348328,1896,1002,-0.137195,-0.080599
679,22,-0.102295,0.140564,0.000304615,-0.000421727,0.000171487,0.000343067,-0.000460179,0.220578,0.000465395,0.0340115,1903,1002,-0.102336,-0.140571
686,22,-0.0335693,0.147461,0.000371346,-0.000303927,0.000248725,0.000453069,-0.00038565,0.317456,0.000484756,0.0347565,1910,1002,-0.0335854,-0.147486
693,22,-0.0209961,0.0445557,0.00038608,-0.000228328,0.000306013,0.000512487,-0.000354734,0.391728,0.000503444,0.032892,1917,1002,-0.0210202,-0.0445769
700,22,-0.0301514,0.0219727,0.000419887,-0.000119928,0.00035478,0.000595759,-0.000295799,0.460218,0.000524362,0.0273377,1924,1002,-0.0301256,-0.0219476
707,22,-0.0632324,0.0606689,0.000402782,-8.48152e-05,0.000344511,0.000581033,-0.000263066,0.477472,0.000498733,0.0210831,1931,1002,-0.0631799,-0.0606557
714,22,-0.0280762,0.0765381,0.000313398,-8.07407e-05,0.000314964,0.000487865,-0.000255207,0.505851,0.000435966,0.012321,1938,1002,-0.0280384,-0.076558
721,22,-0.0264893,0.0616455,0.000249805,-6.48527e-05,0.000324473,0.00045308,-0.000268128,0.559661,0.000420929,0.0111414,1945,1002,-0.0264299,-0.0616207
728,22,-0.0679932,0.0413208,0.000250475,-6.23156e-05,0.000269956,0.000406066,-0.000217907,0.522855,0.00036567,0.0133414,1952,1002,-0.0679822,-0.0413032
735,22,-0.0612793,0.0480347,0.000244292,-8.48866e-05,4.53956e-05,0.000250438,-9.10322e-05,0.13456,0.000204183,0.0143163,1959,1002,-0.06127,-0.0480419
742,22,-0.0523682,0.0609131,-0.000324662,-0.000300363,-0.000587406,0.000275019,-0.000900044,-0.795739,0.000709693,0.013738,1966,1002,-0.052364,-0.060885
749,22,-0.0404053,0.0629883,-0.000716146,-0.000701551,-0.00149629,0.000787464,-0.00220516,-0.787837,0.00179125,0.0108635,1973,1002,-0.0404627,-0.0629789
756,22,-0.0220947,0.0443726,-0.00091891,-0.00046838,-0.00254339,0.0018597,-0.00324699,-0.829567,0.0029844,0.0143663,1980,1002,-0.022138,-0.0443487
763,22,-0.0585938,0.0623169,-0.00134744,-0.000731748,-0.00407553,0.00304755,-0.00512674,-0.823094,0.00477004,0.0153781,1987,1002,-0.0586248,-0.0622902
770,22,-0.0426025,0.0518188,-0.00189052,-0.000919125,-0.0057949,0.0044104,-0.00722004,-0.827208,0.00677984,0.010159,1994,1002,-0.0426002,-0.0517988
777,22,-0.039917,0.0671387,-0.00248527,-0.00108658,-0.00794338,0.00618818,-0.00976003,-0.829305,0.00928436,0.0174742,2001,1002,-0.0399239,-0.0671687
784,22,0.164185,0.293335,0,0,0,0,0,0,0,-1,2008,1002,0.16419,-0.293305
791,22,-0.157593,-0.13385,-0.00375934,-0.00120361,-0.0135751,0.0111537,-0.0161166,-0.832326,0.0158312,0.0426152,2015,1002,-0.157595,0.133876
798,22,-0.480591,-0.567261,-0.00429325,-0.00101234,-0.0170442,0.0144702,-0.0197758,-0.833374,0.0198509,0.0437277,2022,1002,-0.48059,0.567234
805,22,-0.488892,-0.883362,-0.00459635,-0.000511445,-0.0209009,0.0184466,-0.0235544,-0.834104,0.024309,0.0496157,2029,1002,-0.488835,0.883369
812,22,-0.711304,-1.22003,0,0,0,0,0,0,0,-1,2036,1002,-0.711297,1.22002
-700,15,0,0,0,0,0,0,0,0,0,-1,524,1009,0,0
-693,15,1.27246,-2.21655,0,0,0,0,0,0,0,-1,531,1009,1.27248,2.21654
-686,15,-0.771729,2.56989,0,0,0,0,0,0,0,-1,538,1009,-0.771758,-2.56986
-679,15,-1.11993,2.66565,0,0,0,0,0,0,0,-1,545,1009,-1.11995,-2.66568
-672,15,-0.160095,2.40948,0.00226764,0.0240873,-0.0378274,0.0525467,-0.0261918,-0.925793,0.0463008,0.0462953,552,1009,-0.160077,-2.40947
-665,15,-0.512634,-0.308777,0.00307814,0.0226969,-0.0281134,0.0426631,-0.0168881,-0.953255,0.0354392,0.0425584,559,1009,-0.512631,0.308788
-658,15,-0.291077,-0.194153,0.00322959,0.0198348,-0.0202278,0.0333976,-0.0103332,-0.980142,0.0263926,0.0408638,566,1009,-0.291086,0.194128
-651,15,-0.085022,0.0354614,0.00297839,0.0163127,-0.0140286,0.0251778,-0.00588674,-1.00723,0.019053,0.0315011,573,1009,-0.0850323,-0.0354847
-644,15,-0.0136719,0.0682983,0.00256308,0.0128459,-0.00931776,0.0183466,-0.00293762,-1.03751,0.0133187,0.0122761,580,1009,-0.0137013,-0.068287
-637,15,-0.0116577,0.0705566,0.0020082,0.0103148,-0.00565631,0.0131789,-0.000855882,-1.10208,0.00908467,0.00960498,587,1009,-0.0116533,-0.070573
-630,15,-0.0147705,0.0673828,0.00201287,0.00711123,-0.00275338,0.0083143,0.000809801,-1.15885,0.00529362,0.00907887,594,1009,-0.0147789,-0.0673552
-623,15,-0.0113525,0.0545044,0.00126491,0.0047122,-0.00105273,0.00500826,0.000968851,-1.29665,0.00306732,0.00797277,601,1009,-0.011323,-0.0544783
-616,15,-0.0343628,0.0422363,0.00043784,0.00237743,0.000114985,0.00238422,0.000431047,1.51179,0.00146706,0.0119246,608,1009,-0.0343901,-0.0422202
-609,15,-0.0224609,0.0450439,0.000187574,0.000374607,0.000375576,0.000668133,-0.000105953,0.907414,0.000484616,0.0182082,615,1009,-0.0224493,-0.0450199
-602,15,0.0106201,0.0439453,-8.44491e-05,-9.33728e-05,9.44496e-05,5.64399e-06,-0.000183466,0.761795,0.000124235,0.0183991,622,1009,0.0105952,-0.0439549
-595,15,-0.015686,0.0307617,2.28584e-05,-0.000149848,-0.000107174,7.4139e-05,-0.000201129,-0.446284,0.000164467,0.0186214,629,1009,-0.0156587,-0.0307891
-588,15,-0.0385132,0.026001,0.000269734,-0.000150205,-0.000192415,0.000344564,-0.000225036,-0.3709,0.000331263,0.024765,636,1009,-0.0385021,-0.0260019
-581,15,-0.0539551,0.050293,0.000368314,-9.62058e-05,-0.000315497,0.000527823,-0.000255715,-0.468103,0.00046138,0.0337398,643,1009,-0.0539557,-0.0503227
-574,15,-0.06073,0.148987,0.000502115,2.0387e-05,-0.000474817,0.000793667,-0.000271165,-0.550672,0.000638976,0.0292734,650,1009,-0.0607518,-0.149017
-567,15,-0.109436,0.137451,0.000707331,0.000162782,-0.00063169,0.00112293,-0.000252813,-0.581917,0.000845582,0.0288611,657,1009,-0.109428,-0.137479
-560,15,-0.115112,0.117554,0.000950921,0.000411348,-0.000821043,0.00154537,-0.000183097,-0.62666,0.00109638,0.0352011,664,1009,-0.115117,-0.117532
-553,15,-0.0395508,0.103882,0.00125184,0.000812441,-0.00104894,0.00210384,-3.95648e-05,-0.682167,0.00141593,0.0359997,671,1009,-0.0395246,-0.103862
-546,15,-0.0326538,0.0205078,0.0015968,0.00142685,-0.00133205,0.00284658,0.000177071,-0.753545,0.00184153,0.036502,678,1009,-0.0326288,-0.0204936
-539,15,-0.0357666,0.0571289,0.00187464,0.00233457,-0.00170836,0.00382837,0.000380837,-0.852301,0.00243525,0.0400386,685,1009,-0.0357616,-0.0570989
-532,15,-0.0770264,-0.0582886,0.00196592,0.0036465,-0.0021859,0.00514806,0.000464369,-0.968897,0.0032882,0.0411019,692,1009,-0.0770428,0.0583012
-525,15,0,0,0,0,0,0,0,0,0,-1,699,1009,0,0
-518,15,0,0,0,0,0,0,0,0,0,-1,706,1009,0,0
-511,15,0,0,0,0,0,0,0,0,0,-1,713,1009,0,0
-504,15,0,0,0,0,0,0,0,0,0,-1,720,1009,0,0
-497,15,0,0,0,0,0,0,0,0,0,-1,727,1009,0,0
-490,15,0,0,0,0,0,0,0,0,0,-1,734,1009,0,0
-483,15,0,0,0,0,0,0,0,0,0,-1,741,1009,0,0
-476,15,0,0,0,0,0,0,0,0,0,-1,748,1009,0,0
-469,15,0,0,0,0,0,0,0,0,0,-1,755,1009,0,0
-462,15,0,0,0,0,0,0,0,0,0,-1,762,1009,0,0
-455,15,0,0,0,0,0,0,0,0,0,-1,769,1009,0,0
-448,15,0,0,0,0,0,0,0,0,0,-1,776,1009,0,0
-441,15,0,0,0,0,0,0,0,0,0,-1,783,1009,0,0
-434,15,0,0,0,0,0,0,0,0,0,-1,790,1009,0,0
-427,15,0,0,0,0,0,0,0,0,0,-1,797,1009,0,0
-420,15,0,0,0,0,0,0,0,0,0,-1,804,1009,0,0
-413,15,0,0,0,0,0,0,0,0,0,-1,811,1009,0,0
-406,15,0,0,0,0,0,0,0,0,0,-1,818,1009,0,0
-399,15,0,0,0,0,0,0,0,0,0,-1,825,1009,0,0
-392,15,0,0,0,0,0,0,0,0,0,-1,832,1009,0,0
-385,15,0,0,0,0,0,0,0,0,0,-1,839,1009,0,0
-378,15,0,0,0,0,0,0,0,0,0,-1,846,1009,0,0
-371,15,0,0,0,0,0,0,0,0,0,-1,853,1009,0,0
-364,15,0,0,0,0,0,0,0,0,0,-1,860,1009,0,0
-357,15,0,0,0,0,0,0,0,0,0,-1,867,1009,0,0
-350,15,0,0,0,0,0,0,0,0,0,-1,874,1009,0,0
-343,15,0,0,0,0,0,0,0,0,0,-1,881,1009,0,0
-336,15,0,0,0,0,0,0,0,0,0,-1,888,1009,0,0
-329,15,0,0,0,0,0,0,0,0,0,-1,895,1009,0,0
-322,15,0,0,0,0,0,0,0,0,0,-1,902,1009,0,0
-315,15,0,0,0,0,0,0,0,0,0,-1,909,1009,0,0
-308,15,0,0,0,0,0,0,0,0,0,-1,916,1009,0,0
-301,15,0,0,0,0,0,0,0,0,0,-1,923,1009,0,0
-294,15,0,0,0,0,0,0,0,0,0,-1,930,1009,0,0
-287,15,0,0,0,0,0,0,0,0,0,-1,937,1009,0,0
-280,15,0,0,0,0,0,0,0,0,0,-1,944,1009,0,0
-273,15,0,0,0,0,0,0,0,0,0,-1,951,1009,0,0
-266,15,0,0,0,0,0,0,0,0,0,-1,958,1009,0,0
-259,15,0,0,0,0,0,0,0,0,0,-1,965,1009,0,0
-252,15,0,0,0,0,0,0,0,0,0,-1,972,1009,0,0
-245,15,0,0,0,0,0,0,0,0,0,-1,979,1009,0,0
-238,15,0,0,0,0,0,0,0,0,0,-1,986,1009,0,0
-231,15,0,0,0,0,0,0,0,0,0,-1,993,1009,0,0
-224,15,0,0,0,0,0,0,0,0,0,-1,1000,1009,0,0
-217,15,0,0,0,0,0,0,0,0,0,-1,1007,1009,0,0
-210,15,0,0,0,0,0,0,0,0,0,-1,1014,1009,0,0
-203,15,0,0,0,0,0,0,0,0,0,-1,1021,1009,0,0
-196,15,0,0,0,0,0,0,0,0,0,-1,1028,1009,0,0
-189,15,0,0,0,0,0,0,0,0,0,-1,1035,1009,0,0
-182,15,0,0,0,0,0,0,0,0,0,-1,1042,1009,0,0
-175,15,0,0,0,0,0,0,0,0,0,-1,1049,1009,0,0
-168,15,0,0,0,0,0,0,0,0,0,-1,1056,1009,0,0
-161,15,0,0,0,0,0,0,0,0,0,-1,1063,1009,0,0
-154,15,0,0,0,0,0,0,0,0,0,-1,1070,1009,0,0
-147,15,0,0,0,0,0,0,0,0,0,-1,1077,1009,0,0
-140,15,0,0,0,0,0,0,0,0,0,-1,1084,1009,0,0
-133,15,0,0,0,0,0,0,0,0,0,-1,1091,1009,0,0
-126,15,0,0,0,0,0,0,0,0,0,-1,1098,1009,0,0
-119,15,0,0,0,0,0,0,0,0,0,-1,1105,1009,0,0
-112,15,0,0,0,0,0,0,0,0,0,-1,1112,1009,0,0
-105,15,0,0,0,0,0,0,0,0,0,-1,1119,1009,0,0
-98,15,0,0,0,0,0,0,0,0,0,-1,1126,1009,0,0
-91,15,0,0,0,0,0,0,0,0,0,-1,1133,1009,0,0
-84,15,0,0,0,0,0,0,0,0,0,-1,1140,1009,0,0
-77,15,0,0,0,0,0,0,0,0,0,-1,1147,1009,0,0
-70,15,0,0,0,0,0,0,0,0,0,-1,1154,1009,0,0
-63,15,0,0,0,0,0,0,0,0,0,-1,1161,1009,0,0
-56,15,0,0,0,0,0,0,0,0,0,-1,1168,1009,0,0
-49,15,0,0,0,0,0,0,0,0,0,-1,1175,1009,0,0
-42,15,0,0,0,0,0,0,0,0,0,-1,1182,1009,0,0
-35,15,0,0,0,0,0,0,0,0,0,-1,1189,1009,0,0
-28,15,0,0,0,0,0,0,0,0,0,-1,1196,1009,0,0
-21,15,0,0,0,0,0,0,0,0,0,-1,1203,1009,0,0
-14,15,0,0,0,0,0,0,0,0,0,-1,1210,1009,0,0
-7,15,0,0,0,0,0,0,0,0,0,-1,1217,1009,0,0
0,15,0,0,0,0,0,0,0,0,0,-1,1224,1009,0,0
7,15,0,0,0,0,0,0,0,0,0,-1,1231,1009,0,0
14,15,0,0,0,0,0,0,0,0,0,-1,1238,1009,0,0
21,15,0,0,0,0,0,0,0,0,0,-1,1245,1009,0,0
28,15,0,0,0,0,0,0,0,0,0,-1,1252,1009,0,0
35,15,0,0,0,0,0,0,0,0,0,-1,1259,1009,0,0
42,15,0,0,0,0,0,0,0,0,0,-1,1266,1009,0,0
49,15,0,0,0,0,0,0,0,0,0,-1,1273,1009,0,0
56,15,0,0,0,0,0,0,0,0,0,-1,1280,1009,0,0
63,15,0,0,0,0,0,0,0,0,0,-1,1287,1009,0,0
70,15,0,0,0,0,0,0,0,0,0,-1,1294,1009,0,0
77,15,0,0,0,0,0,0,0,0,0,-1,1301,1009,0,0
84,15,0,0,0,0,0,0,0,0,0,-1,1308,1009,0,0
91,15,0,0,0,0,0,0,0,0,0,-1,1315,1009,0,0
98,15,0,0,0,0,0,0,0,0,0,-1,1322,1009,0,0
105,15,0,0,0,0,0,0,0,0,0,-1,1329,1009,0,0
112,15,0,0,0,0,0,0,0,0,0,-1,1336,1009,0,0
119,15,0,0,0,0,0,0,0,0,0,-1,1343,1009,0,0
126,15,0,0,0,0,0,0,0,0,0,-1,1350,1009,0,0
133,15,0,0,0,0,0,0,0,0,0,-1,1357,1009,0,0
140,15,0,0,0,0,0,0,0,0,0,-1,1364,1009,0,0
147,15,0,0,0,0,0,0,0,0,0,-1,1371,1009,0,0
154,15,0,0,0,0,0,0,0,0,0,-1,1378,1009,0,0
161,15,0,0,0,0,0,0,0,0,0,-1,1385,1009,0,0
168,15,0,0,0,0,0,0,0,0,0,-1,1392,1009,0,0
175,15,0,0,0,0,0,0,0,0,0,-1,1399,1009,0,0
182,15,0,0,0,0,0,0,0,0,0,-1,1406,1009,0,0
189,15,0,0,0,0,0,0,0,0,0,-1,1413,1009,0,0
196,15,0,0,0,0,0,0,0,0,0,-1,1420,1009,0,0
203,15,0,0,0,0,0,0,0,0,0,-1,1427,1009,0,0
210,15,0,0,0,0,0,0,0,0,0,-1,1434,1009,0,0
217,15,0,0,0,0,0,0,0,0,0,-1,1441,1009,0,0
224,15,0,0,0,0,0,0,0,0,0,-1,1448,1009,0,0
231,15,0,0,0,0,0,0,0,0,0,-1,1455,1009,0,0
238,15,0,0,0,0,0,0,0,0,0,-1,1462,1009,0,0
245,15,0,0,0,0,0,0,0,0,0,-1,1469,1009,0,0
252,15,0,0,0,0,0,0,0,0,0,-1,1476,1009,0,0
259,15,0,0,0,0,0,0,0,0,0,-1,1483,1009,0,0
266,15,0,0,0,0,0,0,0,0,0,-1,1490,1009,0,0
273,15,0,0,0,0,0,0,0,0,0,-1,1497,1009,0,0
280,15,0,0,0,0,0,0,0,0,0,-1,1504,1009,0,0
287,15,0,0,0,0,0,0,0,0,0,-1,1511,1009,0,0
294,15,0,0,0,0,0,0,0,0,0,-1,1518,1009,0,0
301,15,0,0,0,0,0,0,0,0,0,-1,1525,1009,0,0
308,15,0,0,0,0,0,0,0,0,0,-1,1532,1009,0,0
315,15,0,0,0,0,0,0,0,0,0,-1,1539,1009,0,0
322,15,0,0,0,0,0,0,0,0,0,-1,1546,1009,0,0
329,15,0,0,0,0,0,0,0,0,0,-1,1553,1009,0,0
336,15,0,0,0,0,0,0,0,0,0,-1,1560,1009,0,0
343,15,0,0,0,0,0,0,0,0,0,-1,1567,1009,0,0
350,15,0,0,0,0,0,0,0,0,0,-1,1574,1009,0,0
357,15,0,0,0,0,0,0,0,0,0,-1,1581,1009,0,0
364,15,0,0,0,0,0,0,0,0,0,-1,1588,1009,0,0
371,15,0,0,0,0,0,0,0,0,0,-1,1595,1009,0,0
378,15,0,0,0,0,0,0,0,0,0,-1,1602,1009,0,0
385,15,0,0,0,0,0,0,0,0,0,-1,1609,1009,0,0
392,15,0,0,0,0,0,0,0,0,0,-1,1616,1009,0,0
399,15,0,0,0,0,0,0,0,0,0,-1,1623,1009,0,0
406,15,0,0,0,0,0,0,0,0,0,-1,1630,1009,0,0
413,15,0,0,0,0,0,0,0,0,0,-1,1637,1009,0,0
420,15,0,0,0,0,0,0,0,0,0,-1,1644,1009,0,0
427,15,0,0,0,0,0,0,0,0,0,-1,1651,1009,0,0
434,15,0,0,0,0,0,0,0,0,0,-1,1658,1009,0,0
441,15,0,0,0,0,0,0,0,0,0,-1,1665,1009,0,0
448,15,0,0,0,0,0,0,0,0,0,-1,1672,1009,0,0
455,15,0,0,0,0,0,0,0,0,0,-1,1679,1009,0,0
462,15,0,0,0,0,0,0,0,0,0,-1,1686,1009,0,0
469,15,0,0,0,0,0,0,0,0,0,-1,1693,1009,0,0
476,15,0,0,0,0,0,0,0,0,0,-1,1700,1009,0,0
483,15,0,0,0,0,0,0,0,0,0,-1,1707,1009,0,0
490,15,0,0,0,0,0,0,0,0,0,-1,1714,1009,0,0
497,15,0,0,0,0,0,0,0,0,0,-1,1721,1009,0,0
504,15,0,0,0,0,0,0,0,0,0,-1,1728,1009,0,0
511,15,0,0,0,0,0,0,0,0,0,-1,1735,1009,0,0
518,15,0,0,0,0,0,0,0,0,0,-1,1742,1009,0,0
525,15,0,0,0,0,0,0,0,0,0,-1,1749,1009,0,0
532,15,0,0,0,0,0,0,0,0,0,-1,1756,1009,0,0
539,15,0,0,0,0,0,0,0,0,0,-1,1763,1009,0,0
546,15,0,0,0,0,0,0,0,0,0,-1,1770,1009,0,0
553,15,0,0,0,0,0,0,0,0,0,-1,1777,1009,0,0
560,15,0,0,0,0,0,0,0,0,0,-1,1784,1009,0,0
567,15,0,0,0,0,0,0,0,0,0,-1,1791,1009,0,0
574,15,0,0,0,0,0,0,0,0,0,-1,1798,1009,0,0
581,15,0,0,0,0,0,0,0,0,0,-1,1805,1009,0,0
588,15,0,0,0,0,0,0,0,0,0,-1,1812,1009,0,0
595,15,0,0,0,0,0,0,0,0,0,-1,1819,1009,0,0
602,15,0,0,0,0,0,0,0,0,0,-1,1826,1009,0,0
609,15,0,0,0,0,0,0,0,0,0,-1,1833,1009,0,0
616,15,0,0,0,0,0,0,0,0,0,-1,1840,1009,0,0
623,15,0,0,0,0,0,0,0,0,0,-1,1847,1009,0,0
630,15,0,0,0,0,0,0,0,0,0,-1,1854,1009,0,0
637,15,0,0,0,0,0,0,0,0,0,-1,1861,1009,0,0
644,15,-0.119019,-0.0553589,-0.00189896,-0.00277815,-0.00096565,-0.00127755,-0.00339956,-0.5718,0.00198282,0.0359758,1868,1009,-0.119004,0.0553672
651,15,-0.147461,-0.0287476,-0.00108217,-0.00195734,-0.000769946,-0.000634153,-0.00240537,-0.526994,0.00143953,0.0357073,1875,1009,-0.147464,0.028773
658,15,-0.106201,0.0129395,-0.000539718,-0.00141037,-0.000517321,-0.00029893,-0.00165116,-0.435629,0.0010159,0.0353841,1882,1009,-0.106257,-0.0129684
665,15,-0.0583496,0.0380859,-0.00015531,-0.00102504,-0.000287251,-6.90024e-05,-0.00111135,-0.291879,0.000719001,0.0360368,1889,1009,-0.0582926,-0.0381096
672,15,-0.076416,0.0609131,0.000122302,-0.000758762,-0.000102871,0.000134154,-0.000770614,-0.114702,0.000563806,0.0358441,1896,1009,-0.0763616,-0.0609022
679,15,-0.0305176,0.0741577,0.000287396,-0.000575498,4.52864e-05,0.000289766,-0.000577868,0.0522905,0.000510051,0.0354091,1903,1009,-0.0305714,-0.074188
686,15,-0.0020752,0.0369873,0.000377802,-0.000446044,0.000158015,0.00040707,-0.000475312,0.183146,0.000509951,0.038868,1910,1009,-0.00205179,-0.0369611
693,15,-0.0570068,0.00665283,0.00040392,-0.000353296,0.000237604,0.000472301,-0.000421678,0.280224,0.000516415,0.0340458,1917,1009,-0.0569802,-0.00663816
700,15,-0.0440674,0.0123901,0.000441992,-0.000230365,0.00030862,0.000562171,-0.000350544,0.371342,0.000531657,0.0254203,1924,1009,-0.0440313,-0.012375
707,15,-0.0584717,0.0629272,0.000432502,-0.000187948,0.000319092,0.000567316,-0.000322761,0.399743,0.000520311,0.0196854,1931,1009,-0.058507,-0.0629343
714,15,-0.0394287,0.0635986,0.000344756,-0.000169847,0.00029462,0.000478613,-0.000303704,0.426455,0.000455418,0.0123224,1938,1009,-0.0393694,-0.0636201
721,15,-0.0236816,0.0531616,0.000281743,-0.000139585,0.000305916,0.000442514,-0.000300356,0.48387,0.000431506,0.0103349,1945,1009,-0.023715,-0.05314
728,15,-0.0412598,0.0466309,0.000264623,-0.000120091,0.000282703,0.000414206,-0.000269673,0.486666,0.000397766,0.0141158,1952,1009,-0.0412915,-0.0466184
735,15,-0.0384521,0.0581665,0.000226787,-0.000120104,0.000150478,0.000282965,-0.000176282,0.357307,0.00026752,0.0150655,1959,1009,-0.0384536,-0.0581651
742,15,-0.0462646,0.05896,-0.000317901,-0.000362818,-0.000345862,6.23061e-06,-0.000686949,-0.752976,0.000460057,0.0150879,1966,1009,-0.0462055,-0.0589597
749,15,-0.0308838,0.0455322,-0.000599677,-0.000902406,-0.00114728,0.000406181,-0.00190826,-0.71981,0.00142697,0.00982888,1973,1009,-0.0308749,-0.0455176
756,15,-0.0322266,0.0517578,-0.00061756,-0.00085948,-0.0019878,0.00125296,-0.00273,-0.75501,0.00235168,0.0113998,1980,1009,-0.0322004,-0.051783
763,15,-0.0402832,0.0559692,-0.000787778,-0.00127755,-0.00328964,0.00226608,-0.00433141,-0.748246,0.00387078,0.0111342,1987,1009,-0.0402651,-0.0559581
770,15,-0.0372314,0.0481567,-0.00102965,-0.00171053,-0.00473575,0.00337787,-0.00611806,-0.749516,0.00555805,0.0101816,1994,1009,-0.0371712,-0.0481569
777,15,-0.0264893,0.0697021,-0.00121101,-0.00219087,-0.00655972,0.00487705,-0.00827893,-0.748124,0.00767979,0.0174282,2001,1009,-0.0265259,-0.0696934
784,15,0.0249023,0.117676,0,0,0,0,0,0,0,-1,2008,1009,0.0248472,-0.117649
791,15,-0.248291,-0.384583,-0.00124854,-0.00312983,-0.0114274,0.00927688,-0.0136552,-0.744333,0.0133201,0.0431517,2015,1009,-0.248307,0.384591
798,15,-0.522827,-0.894043,-0.000922734,-0.0034314,-0.0144881,0.0123652,-0.0167194,-0.742218,0.0168546,0.04562,2022,1009,-0.522785,0.894071
805,15,-0.502319,-1.18671,-0.000174938,-0.0034512,-0.0179606,0.016222,-0.0198482,-0.73992,0.0208602,0.0481751,2029,1009,-0.502283,1.18672
812,15,-0.646118,-1.56201,0,0,0,0,0,0,0,-1,2036,1009,-0.646096,1.56202
-700,8,0,0,0,0,0,0,0,0,0,-1,524,1016,0,0
-693,8,-0.395508,1.4588,0,0,0,0,0,0,0,-1,531,1016,-0.395528,-1.45881
-686,8,-0.627991,1.68561,-0.00539671,0.0160478,-0.0587701,0.0650658,-0.0544147,-0.875628,0.0690734,0.0481416,538,1016,-0.627995,-1.68558
-679,8,-0.890137,1.76703,-0.00185749,0.0220416,-0.0455938,0.0572257,-0.0370416,-0.913559,0.0548396,0.0498613,545,1016,-0.890119,-1.767
-672,8,-0.739441,1.66052,0.000326188,0.0236851,-0.0344634,0.0483943,-0.024383,-0.948772,0.0427735,0.0443728,552,1016,-0.73942,-1.6605
-665,8,-1.15179,2.17957,0,0,0,0,0,0,0,-1,559,1016,-1.15181,-2.17955
-658,8,-0.304565,-0.0844727,0.00212165,0.0199482,-0.0178921,0.0310243,-0.00895441,-1.01649,0.0242257,0.0318036,566,1016,-0.304543,0.0844432
-651,8,-0.0266113,0.071228,0.00224543,0.0165199,-0.0121674,0.0234888,-0.00472353,-1.05065,0.0174482,0.0167034,573,1016,-0.026636,-0.0712382
-644,8,-0.0142212,0.0558472,0.00216685,0.0131694,-0.00788011,0.0172785,-0.0019423,-1.09013,0.012218,0.00995393,580,1016,-0.0142352,-0.0558364
-637,8,-0.0166626,0.0527954,0.00182734,0.010733,-0.00452248,0.0126269,-6.65202e-05,-1.17422,0.00844019,0.00838161,587,1016,-0.016634,-0.052824
-630,8,-0.0162964,0.0481567,0.00192615,0.00734247,-0.00193999,0.00796563,0.001303,-1.25999,0.00493378,0.00950633,594,1016,-0.0163039,-0.0481491
-623,8,-0.0128784,0.0386963,0.00132245,0.0049274,-0.000471581,0.00498807,0.00126178,-1.44285,0.00299474,0.0113363,601,1016,-0.01288,-0.0386875
-616,8,-0.0248413,0.0358887,0.000553606,0.00242841,0.000452846,0.00253206,0.000449955,1.34578,0.00155984,0.0108082,608,1016,-0.0248409,-0.0359183
-609,8,-0.000976563,0.0299683,0.000376317,0.000307189,0.000491885,0.00083485,-0.000151345,0.750321,0.000613272,0.0136482,615,1016,-0.000975686,-0.0299644
-602,8,0.0169678,0.0253906,8.44096e-05,-7.47993e-05,0.000163164,0.000186353,-0.000176742,0.558446,0.000209657,0.0199562,622,1016,0.0169863,-0.0254034
-595,8,-0.0220337,0.0181274,8.24972e-05,-9.45715e-05,-6.3211e-05,0.000102747,-0.000114821,-0.310021,0.000125677,0.0180709,629,1016,-0.0220409,-0.0181206
-588,8,-0.0357056,0.0281982,0.000254495,-6.21712e-05,-0.000155061,0.000317776,-0.000125453,-0.387478,0.000263807,0.0184639,636,1016,-0.0357143,-0.0281884
-581,8,-0.0148926,0.0602417,0.000316697,1.07901e-05,-0.00028719,0.000489124,-0.000161638,-0.540711,0.000391254,0.0252171,643,1016,-0.0148929,-0.0602479
-574,8,-0.0202637,0.204041,0.000420222,0.000124371,-0.000459428,0.000754952,-0.000210358,-0.629651,0.000586141,0.0308547,650,1016,-0.0202504,-0.204023
-567,8,0.0533447,-0.0171509,0.000566339,0.000273987,-0.000641474,0.00107808,-0.000237756,-0.673373,0.000809693,0.0350658,657,1016,0.0533502,0.0171257
-560,8,0.0360107,0.0252686,0.000723313,0.000519391,-0.000863493,0.00149084,-0.00024814,-0.72663,0.0010861,0.0374343,664,1016,0.0360265,-0.025254
-553,8,0.0334473,0.0480957,0.000905417,0.000901037,-0.00112916,0.00203239,-0.00022593,-0.784428,0.00143617,0.0367046,671,1016,0.0334741,-0.0481021
-546,8,-0.00396729,-0.0952759,0.00108519,0.00147403,-0.00144994,0.00274252,-0.000183306,-0.852046,0.00189241,0.0356571,678,1016,-0.00399069,0.0953064
-539,8,-0.0372314,-0.106384,0.00115849,0.00230755,-0.0018535,0.00367352,-0.000207481,-0.935687,0.00252102,0.0373663,685,1016,-0.0372548,0.106363
-532,8,-0.0645752,-0.0894775,0.000992776,0.00349311,-0.00233267,0.00488949,-0.000403613,-1.03139,0.00340219,0.0386298,692,1016,-0.064553,0.0894477
-525,8,0,0,0,0,0,0,0,0,0,-1,699,1016,0,0
-518,8,0,0,0,0,0,0,0,0,0,-1,706,1016,0,0
-511,8,0,0,0,0,0,0,0,0,0,-1,713,1016,0,0
-504,8,0,0,0,0,0,0,0,0,0,-1,720,1016,0,0
-497,8,0,0,0,0,0,0,0,0,0,-1,727,1016,0,0
-490,8,0,0,0,0,0,0,0,0,0,-1,734,1016,0,0
-483,8,0,0,0,0,0,0,0,0,0,-1,741,1016,0,0
-476,8,0,0,0,0,0,0,0,0,0,-1,748,1016,0,0
-469,8,0,0,0,0,0,0,0,0,0,-1,755,1016,0,0
-462,8,0,0,0,0,0,0,0,0,0,-1,762,1016,0,0
-455,8,0,0,0,0,0,0,0,0,0,-1,769,1016,0,0
-448,8,0,0,0,0,0,0,0,0,0,-1,776,1016,0,0
-441,8,0,0,0,0,0,0,0,0,0,-1,783,1016,0,0
-434,8,0,0,0,0,0,0,0,0,0,-1,790,1016,0,0
-427,8,0,0,0,0,0,0,0,0,0,-1,797,1016,0,0
-420,8,0,0,0,0,0,0,0,0,0,-1,804,1016,0,0
-413,8,0,0,0,0,0,0,0,0,0,-1,811,1016,0,0
-406,8,0,0,0,0,0,0,0,0,0,-1,818,1016,0,0
-399,8,0,0,0,0,0,0,0,0,0,-1,825,1016,0,0
-392,8,0,0,0,0,0,0,0,0,0,-1,832,1016,0,0
-385,8,0,0,0,0,0,0,0,0,0,-1,839,1016,0,0
-378,8,0,0,0,0,0,0,0,0,0,-1,846,1016,0,0
-371,8,0,0,0,0,0,0,0,0,0,-1,853,1016,0,0
-364,8,0,0,0,0,0,0,0,0,0,-1,860,1016,0,0
-357,8,0,0,0,0,0,0,0,0,0,-1,867,1016,0,0
-350,8,0,0,0,0,0,0,0,0,0,-1,874,1016,0,0
-343,8,0,0,0,0,0,0,0,0,0,-1,881,1016,0,0
-336,8,0,0,0,0,0,0,0,0,0,-1,888,1016,0,0
-329,8,0,0,0,0,0,0,0,0,0,-1,895,1016,0,0
-322,8,0,0,0,0,0,0,0,0,0,-1,902,1016,0,0
-315,8,0,0,0,0,0,0,0,0,0,-1,909,1016,0,0
-308,8,0,0,0,0,0,0,0,0,0,-1,916,1016,0,0
-301,8,0,0,0,0,0,0,0,0,0,-1,923,1016,0,0
-294,8,0,0,0,0,0,0,0,0,0,-1,930,1016,0,0
-287,8,0,0,0,0,0,0,0,0,0,-1,937,1016,0,0
-280,8,0,0,0,0,0,0,0,0,0,-1,944,1016,0,0
-273,8,0,0,0,0,0,0,0,0,0,-1,951,1016,0,0
-266,8,0,0,0,0,0,0,0,0,0,-1,958,1016,0,0
-259,8,0,0,0,0,0,0,0,0,0,-1,965,1016,0,0
-252,8,0,0,0,0,0,0,0,0,0,-1,972,1016,0,0
-245,8,0,0,0,0,0,0,0,0,0,-1,979,1016,0,0
-238,8,0,0,0,0,0,0,0,0,0,-1,986,1016,0,0
-231,8,0,0,0,0,0,0,0,0,0,-1,993,1016,0,0
-224,8,0,0,0,0,0,0,0,0,0,-1,1000,1016,0,0
-217,8,0,0,0,0,0,0,0,0,0,-1,1007,1016,0,0
-210,8,0,0,0,0,0,0,0,0,0,-1,1014,1016,0,0
-203,8,0,0,0,0,0,0,0,0,0,-1,1021,1016,0,0
-196,8,0,0,0,0,0,0,0,0,0,-1,1028,1016,0,0
-189,8,0,0,0,0,0,0,0,0,0,-1,1035,1016,0,0
-182,8,0,0,0,0,0,0,0,0,0,-1,1042,1016,0,0
-175,8,0,0,0,0,0,0,0,0,0,-1,1049,1016,0,0
-168,8,0,0,0,0,0,0,0,0,0,-1,1056,1016,0,0
-161,8,0,0,0,0,0,0,0,0,0,-1,1063,1016,0,0
-154,8,0,0,0,0,0,0,0,0,0,-1,1070,1016,0,0
-147,8,0,0,0,0,0,0,0,0,0,-1,1077,1016,0,0
-140,8,0,0,0,0,0,0,0,0,0,-1,1084,1016,0,0
-133,8,0,0,0,0,0,0,0,0,0,-1,1091,1016,0,0
-126,8,0,0,0,0,0,0,0,0,0,-1,1098,1016,0,0
-119,8,0,0,0,0,0,0,0,0,0,-1,1105,1016,0,0
-112,8,0,0,0,0,0,0,0,0,0,-1,1112,1016,0,0
-105,8,0,0,0,0,0,0,0,0,0,-1,1119,1016,0,0
-98,8,0,0,0,0,0,0,0,0,0,-1,1126,1016,0,0
-91,8,0,0,0,0,0,0,0,0,0,-1,1133,1016,0,0
-84,8,0,0,0,0,0,0,0,0,0,-1,1140,1016,0,0
-77,8,0,0,0,0,0,0,0,0,0,-1,1147,1016,0,0
-70,8,0,0,0,0,0,0,0,0,0,-1,1154,1016,0,0
-63,8,0,0,0,0,0,0,0,0,0,-1,1161,1016,0,0
-56,8,0,0,0,0,0,0,0,0,0,-1,1168,1016,0,0
-49,8,0,0,0,0,0,0,0,0,0,-1,1175,1016,0,0
-42,8,0,0,0,0,0,0,0,0,0,-1,1182,1016,0,0
-35,8,0,0,0,0,0,0,0,0,0,-1,1189,1016,0,0
-28,8,0,0,0,0,0,0,0,0,0,-1,1196,1016,0,0
-21,8,0,0,0,0,0,0,0,0,0,-1,1203,1016,0,0
-14,8,0,0,0,0,0,0,0,0,0,-1,1210,1016,0,0
-7,8,0,0,0,0,0,0,0,0,0,-1,1217,1016,0,0
0,8,0,0,0,0,0,0,0,0,0,-1,1224,1016,0,0
7,8,0,0,0,0,0,0,0,0,0,-1,1231,1016,0,0
14,8,0,0,0,0,0,0,0,0,0,-1,1238,1016,0,0
21,8,0,0,0,0,0,0,0,0,0,-1,1245,1016,0,0
28,8,0,0,0,0,0,0,0,0,0,-1,1252,1016,0,0
35,8,0,0,0,0,0,0,0,0,0,-1,1259,1016,0,0
42,8,0,0,0,0,0,0,0,0,0,-1,1266,1016,0,0
49,8,0,0,0,0,0,0,0,0,0,-1,1273,1016,0,0
56,8,0,0,0,0,0,0,0,0,0,-1,1280,1016,0,0
63,8,0,0,0,0,0,0,0,0,0,-1,1287,1016,0,0
70,8,0,0,0,0,0,0,0,0,0,-1,1294,1016,0,0
77,8,0,0,0,0,0,0,0,0,0,-1,1301,1016,0,0
84,8,0,0,0,0,0,0,0,0,0,-1,1308,1016,0,0
91,8,0,0,0,0,0,0,0,0,0,-1,1315,1016,0,0
98,8,0,0,0,0,0,0,0,0,0,-1,1322,1016,0,0
105,8,0,0,0,0,0,0,0,0,0,-1,1329,1016,0,0
112,8,0,0,0,0,0,0,0,0,0,-1,1336,1016,0,0
119,8,0,0,0,0,0,0,0,0,0,-1,1343,1016,0,0
126,8,0,0,0,0,0,0,0,0,0,-1,1350,1016,0,0
133,8,0,0,0,0,0,0,0,0,0,-1,1357,1016,0,0
140,8,0,0,0,0,0,0,0,0,0,-1,1364,1016,0,0
147,8,0,0,0,0,0,0,0,0,0,-1,1371,1016,0,0
154,8,0,0,0,0,0,0,0,0,0,-1,1378,1016,0,0
161,8,0,0,0,0,0,0,0,0,0,-1,1385,1016,0,0
168,8,0,0,0,0,0,0,0,0,0,-1,1392,1016,0,0
175,8,0,0,0,0,0,0,0,0,0,-1,1399,1016,0,0
182,8,0,0,0,0,0,0,0,0,0,-1,1406,1016,0,0
189,8,0,0,0,0,0,0,0,0,0,-1,1413,1016,0,0
196,8,0,0,0,0,0,0,0,0,0,-1,1420,1016,0,0
203,8,0,0,0,0,0,0,0,0,0,-1,1427,1016,0,0
210,8,0,0,0,0,0,0,0,0,0,-1,1434,1016,0,0
217,8,0,0,0,0,0,0,0,0,0,-1,1441,1016,0,0
224,8,0,0,0,0,0,0,0,0,0,-1,1448,1016,0,0
231,8,0,0,0,0,0,0,0,0,0,-1,1455,1016,0,0
238,8,0,0,0,0,0,0,0,0,0,-1,1462,1016,0,0
245,8,0,0,0,0,0,0,0,0,0,-1,1469,1016,0,0
252,8,0,0,0,0,0,0,0,0,0,-1,1476,1016,0,0
259,8,0,0,0,0,0,0,0,0,0,-1,1483,1016,0,0
266,8,0,0,0,0,0,0,0,0,0,-1,1490,1016,0,0
273,8,0,0,0,0,0,0,0,0,0,-1,1497,1016,0,0
280,8,0,0,0,0,0,0,0,0,0,-1,1504,1016,0,0
287,8,0,0,0,0,0,0,0,0,0,-1,1511,1016,0,0
294,8,0,0,0,0,0,0,0,0,0,-1,1518,1016,0,0
301,8,0,0,0,0,0,0,0,0,0,-1,1525,1016,0,0
308,8,0,0,0,0,0,0,0,0,0,-1,1532,1016,0,0
315,8,0,0,0,0,0,0,0,0,0,-1,1539,1016,0,0
322,8,0,0,0,0,0,0,0,0,0,-1,1546,1016,0,0
329,8,0,0,0,0,0,0,0,0,0,-1,1553,1016,0,0
336,8,0,0,0,0,0,0,0,0,0,-1,1560,1016,0,0
343,8,0,0,0,0,0,0,0,0,0,-1,1567,1016,0,0
350,8,0,0,0,0,0,0,0,0,0,-1,1574,1016,0,0
357,8,0,0,0,0,0,0,0,0,0,-1,1581,1016,0,0
364,8,0,0,0,0,0,0,0,0,0,-1,1588,1016,0,0
371,8,0,0,0,0,0,0,0,0,0,-1,1595,1016,0,0
378,8,0,0,0,0,0,0,0,0,0,-1,1602,1016,0,0
385,8,0,0,0,0,0,0,0,0,0,-1,1609,1016,0,0
392,8,0,0,0,0,0,0,0,0,0,-1,1616,1016,0,0
399,8,0,0,0,0,0,0,0,0,0,-1,1623,1016,0,0
406,8,0,0,0,0,0,0,0,0,0,-1,1630,1016,0,0
413,8,0,0,0,0,0,0,0,0,0,-1,1637,1016,0,0
420,8,0,0,0,0,0,0,0,0,0,-1,1644,1016,0,0
427,8,0,0,0,0,0,0,0,0,0,-1,1651,1016,0,0
434,8,0,0,0,0,0,0,0,0,0,-1,1658,1016,0,0
441,8,0,0,0,0,0,0,0,0,0,-1,1665,1016,0,0
448,8,0,0,0,0,0,0,0,0,0,-1,1672,1016,0,0
455,8,0,0,0,0,0,0,0,0,0,-1,1679,1016,0,0
462,8,0,0,0,0,0,0,0,0,0,-1,1686,1016,0,0
469,8,0,0,0,0,0,0,0,0,0,-1,1693,1016,0,0
476,8,0,0,0,0,0,0,0,0,0,-1,1700,1016,0,0
483,8,0,0,0,0,0,0,0,0,0,-1,1707,1016,0,0
490,8,0,0,0,0,0,0,0,0,0,-1,1714,1016,0,0
497,8,0,0,0,0,0,0,0,0,0,-1,1721,1016,0,0
504,8,0,0,0,0,0,0,0,0,0,-1,1728,1016,0,0
511,8,0,0,0,0,0,0,0,0,0,-1,1735,1016,0,0
518,8,0,0,0,0,0,0,0,0,0,-1,1742,1016,0,0
525,8,0,0,0,0,0,0,0,0,0,-1,1749,1016,0,0
532,8,0,0,0,0,0,0,0,0,0,-1,1756,1016,0,0
539,8,0,0,0,0,0,0,0,0,0,-1,1763,1016,0,0
546,8,0,0,0,0,0,0,0,0,0,-1,1770,1016,0,0
553,8,0,0,0,0,0,0,0,0,0,-1,1777,1016,0,0
560,8,0,0,0,0,0,0,0,0,0,-1,1784,1016,0,0
567,8,0,0,0,0,0,0,0,0,0,-1,1791,1016,0,0
574,8,0,0,0,0,0,0,0,0,0,-1,1798,1016,0,0
581,8,0,0,0,0,0,0,0,0,0,-1,1805,1016,0,0
588,8,0,0,0,0,0,0,0,0,0,-1,1812,1016,0,0
595,8,0,0,0,0,0,0,0,0,0,-1,1819,1016,0,0
602,8,0,0,0,0,0,0,0,0,0,-1,1826,1016,0,0
609,8,0,0,0,0,0,0,0,0,0,-1,1833,1016,0,0
616,8,0,0,0,0,0,0,0,0,0,-1,1840,1016,0,0
623,8,0,0,0,0,0,0,0,0,0,-1,1847,1016,0,0
630,8,0,0,0,0,0,0,0,0,0,-1,1854,1016,0,0
637,8,0,0,0,0,0,0,0,0,0,-1,1861,1016,0,0
644,8,-0.0185547,0.103821,-0.00188369,-0.00329899,-0.00145431,-0.000973996,-0.00420868,-0.558967,0.00254405,0.0360249,1868,1016,-0.0185657,-0.103836
651,8,-0.0633545,0.0429688,-0.00108406,-0.00238138,-0.00113553,-0.000424975,-0.00304046,-0.525897,0.00190122,0.0328629,1875,1016,-0.0634131,-0.0429667
658,8,-0.130005,-0.0673218,-0.000536511,-0.00177049,-0.000790926,-0.000150385,-0.00215662,-0.454158,0.00139033,0.0333255,1882,1016,-0.129987,0.0673016
665,8,-0.095459,-0.0903931,-0.000146221,-0.001325,-0.000492079,3.2193e-05,-0.00150341,-0.34783,0.00101318,0.0360678,1889,1016,-0.095399,0.090423
672,8,-0.0928955,-0.102417,0.000142721,-0.00100459,-0.00025247,0.000195821,-0.00105769,-0.207298,0.000778653,0.037676,1896,1016,-0.0928904,0.102395
679,8,-0.067627,-0.115356,0.00031636,-0.000776718,-6.37816e-05,0.000320069,-0.000780427,-0.0580877,0.00065364,0.0371661,1903,1016,-0.0676344,0.115336
686,8,0.0693359,-0.190674,0.000411346,-0.000611317,7.80992e-05,0.000417276,-0.000617247,0.0757828,0.00060099,0.039166,1910,1016,0.0693492,0.190675
693,8,-0.024292,-0.109924,0.000440928,-0.000489066,0.000177105,0.000473513,-0.000521651,0.181955,0.000574782,0.0351877,1917,1016,-0.0242638,0.109928
700,8,-0.0194092,-0.0280151,0.00047312,-0.00034235,0.000263989,0.000551119,-0.00042035,0.287291,0.000562569,0.0260893,1924,1016,-0.0194477,0.0280319
707,8,-0.053833,0.0319824,0.000462192,-0.000277414,0.00028661,0.000560257,-0.000375478,0.329666,0.000543746,0.0171863,1931,1016,-0.0537968,-0.0319561
714,8,-0.0393066,0.0266113,0.000375215,-0.000236223,0.000265991,0.00047473,-0.000335739,0.35801,0.000470213,0.0120212,1938,1016,-0.0392899,-0.026634
721,8,-0.0247803,0.0409546,0.000313212,-0.00018961,0.000275517,0.000434785,-0.000311183,0.415557,0.000432651,0.0106216,1945,1016,-0.0247994,-0.0409797
728,8,-0.029541,0.0531616,0.000281552,-0.000149843,0.000276712,0.000416704,-0.000284995,0.45434,0.000407498,0.0121129,1952,1016,-0.0295373,-0.0531634
735,8,-0.0288086,0.0582886,0.000201147,-0.000105655,0.000243152,0.000335243,-0.000239752,0.503989,0.000333496,0.0135145,1959,1016,-0.028834,-0.058271
742,8,-0.0385742,0.0379639,-0.000335064,-0.000328355,-6.3603e-05,-0.000268018,-0.000395401,-0.811745,0.000233048,0.0112289,1966,1016,-0.0385172,-0.0379504
749,8,-0.0318604,0.0298462,-0.000552245,-0.00088515,-0.000669616,-2.87035e-05,-0.00140869,-0.663578,0.000929708,0.00842795,1973,1016,-0.0318454,-0.0298649
756,8,-0.0118408,0.0491333,-0.000459937,-0.00086967,-0.00119493,0.000547566,-0.00187717,-0.700501,0.00146841,0.0112848,1980,1016,-0.011796,-0.0491276
763,8,-0.0157471,0.0390015,-0.000447266,-0.00128235,-0.00216219,0.00133733,-0.00306694,-0.690017,0.00260735,0.0123156,1987,1016,-0.0158007,-0.0389908
770,8,-0.0179443,0.0375977,-0.000486579,-0.00174198,-0.00319188,0.00213873,-0.00436729,-0.68831,0.003829,0.0131239,1994,1016,-0.0179897,-0.0375899
777,8,-0.0169678,0.0609131,-0.000379256,-0.00226687,-0.00451984,0.00329426,-0.00594039,-0.68247,0.0054041,0.0166172,2001,1016,-0.0170014,-0.0608961
784,8,-0.0369873,0.0986328,-8.14095e-05,-0.00282838,-0.00618016,0.00487604,-0.00778583,-0.676055,0.0073744,0.0332596,2008,1016,-0.0370014,-0.0986458
791,8,-0.197144,-0.257996,0.000509279,-0.00336664,-0.00820186,0.00699902,-0.00985638,-0.669384,0.00977797,0.0427583,2015,1016,-0.197203,0.257995
798,8,-0.849976,-1.15619,0.00153419,-0.0037941,-0.0106155,0.00981476,-0.0120747,-0.662454,0.0126603,0.0462228,2022,1016,-0.849966,1.1562
805,8,-0.768311,-1.71991,0.00320435,-0.00397585,-0.0134558,0.0135407,-0.0143122,-0.655031,0.0160829,0.0471278,2029,1016,-0.768348,1.71992
812,8,-0.730957,-2.14233,0.00575958,-0.00370225,-0.0167743,0.0184574,-0.0164001,-0.647952,0.0201366,0.0474859,2036,1016,-0.731009,2.14231
-700,1,0,0,0,0,0,0,0,0,0,-1,524,1023,0,0
-693,1,-0.48468,0.280579,0,0,0,0,0,0,0,-1,531,1023,-0.484694,-0.280561
-686,1,-0.501282,0.679626,-0.00719065,0.0125936,-0.0543789,0.0579729,-0.0525699,-0.87537,0.0638473,0.0458046,538,1023,-0.501287,-0.679604
-679,1,-0.670044,0.818054,-0.0034069,0.0189807,-0.0418217,0.0510807,-0.0355069,-0.916161,0.0502602,0.0496782,545,1023,-0.670059,-0.818037
-672,1,-0.702332,0.859558,-0.000883029,0.0211691,-0.0312533,0.0432843,-0.0229982,-0.95498,0.0388611,0.0452999,552,1023,-0.702308,-0.859556
-665,1,-0.381042,1.00616,0,0,0,0,0,0,0,-1,559,1023,-0.381057,-1.00616
-658,1,-0.0681152,0.0918579,0.00160716,0.0184964,-0.0156947,0.0278741,-0.00777053,-1.03221,0.021643,0.0296304,566,1023,-0.06813,-0.0918783
-651,1,-0.0447998,0.0697021,0.00199446,0.0154878,-0.0104219,0.0211561,-0.00367389,-1.07266,0.0154748,0.0126838,573,1023,-0.0448171,-0.0696754
-644,1,-0.026062,0.0501709,0.00213955,0.01256,-0.00653132,0.0157047,-0.00100514,-1.12208,0.0108204,0.00944031,580,1023,-0.0260815,-0.0501676
-637,1,-0.0105591,0.0327759,0.00191624,0.010443,-0.00345219,0.0116654,0.000693818,-1.23047,0.00755632,0.00815215,587,1023,-0.0105288,-0.0327952
-630,1,-0.0090332,0.0123291,0.00204972,0.00713749,-0.00115684,0.00738818,0.00179903,-1.3574,0.00444873,0.0119753,594,1023,-0.00902331,-0.0123138
-623,1,-0.03302,0.0278931,0.00154693,0.00487676,9.15427e-05,0.00487928,0.00154441,1.54333,0.00287958,0.0126372,601,1023,-0.0330019,-0.0279133
-616,1,-0.0300903,0.0395508,0.000781277,0.00231086,0.000749052,0.00261658,0.000475562,1.1833,0.00160946,0.0139507,608,1023,-0.030077,-0.039553
-609,1,-0.0178833,0.0550537,0.000532981,0.000168121,0.000578507,0.000957141,-0.000256039,0.632661,0.000738389,0.0140097,615,1023,-0.0178809,-0.0550666
-602,1,-0.0248413,0.0353394,0.000206773,-0.000129409,0.000191149,0.000293226,-0.000215862,0.424748,0.000295051,0.0124892,622,1023,-0.0248253,-0.035332
-595,1,-0.0234985,0.0465088,0.000122316,-0.000148896,-6.9221e-05,0.000138961,-0.000165542,-0.235989,0.000176028,0.0119971,629,1023,-0.0235214,-0.0465324
-588,1,-0.0175781,0.0623779,0.000212741,-0.000112888,-0.000163118,0.000280395,-0.000180542,-0.393165,0.000268196,0.0162491,636,1023,-0.0175998,-0.0623932
-581,1,-0.00750732,0.0960693,0.00023954,-5.85022e-05,-0.000298813,0.00042443,-0.000243392,-0.554091,0.000390261,0.0227032,643,1023,-0.00752502,-0.096058
-574,1,-0.0273438,0.151978,0.000306746,1.73881e-05,-0.000481617,0.000664945,-0.000340811,-0.639485,0.00059064,0.0317377,650,1023,-0.0273177,-0.151994
-567,1,0.0310059,-0.0788574,0.000389434,0.000134994,-0.000679186,0.000953212,-0.000428784,-0.692815,0.000816821,0.0381354,657,1023,0.0309807,0.0788448
-560,1,0.0791626,-0.234741,0.000459363,0.000333449,-0.000917328,0.00131589,-0.00052308,-0.751137,0.00109413,0.0396402,664,1023,0.0791873,0.234763
-553,1,-0.00164795,-0.113403,0.000529728,0.000644824,-0.0011964,0.00178505,-0.000610503,-0.80943,0.00143742,0.0370841,671,1023,-0.00164283,0.11338
-546,1,0.0137329,-0.0828857,0.000567181,0.00111393,-0.00152162,0.00238654,-0.000705431,-0.87428,0.00187104,0.0367507,678,1023,0.0137064,0.0829001
-539,1,0.0307007,-0.0741577,0.000483495,0.0017915,-0.00190741,0.00315391,-0.000878919,-0.950554,0.00244874,0.0370554,685,1023,0.0306725,0.0741814
-532,1,-0.0131226,-0.0783691,0.000144551,0.00274362,-0.00233703,0.00411813,-0.00122996,-1.03914,0.00323433,0.0385333,692,1023,-0.0131249,0.078364
-525,1,0,0,0,0,0,0,0,0,0,-1,699,1023,0,0
-518,1,0,0,0,0,0,0,0,0,0,-1,706,1023,0,0
-511,1,0,0,0,0,0,0,0,0,0,-1,713,1023,0,0
-504,1,0,0,0,0,0,0,0,0,0,-1,720,1023,0,0
-497,1,0,0,0,0,0,0,0,0,0,-1,727,1023,0,0
-490,1,0,0,0,0,0,0,0,0,0,-1,734,1023,0,0
-483,1,0,0,0,0,0,0,0,0,0,-1,741,1023,0,0
-476,1,0,0,0,0,0,0,0,0,0,-1,748,1023,0,0
-469,1,0,0,0,0,0,0,0,0,0,-1,755,1023,0,0
-462,1,0,0,0,0,0,0,0,0,0,-1,762,1023,0,0
-455,1,0,0,0,0,0,0,0,0,0,-1,769,1023,0,0
-448,1,0,0,0,0,0,0,0,0,0,-1,776,1023,0,0
-441,1,0,0,0,0,0,0,0,0,0,-1,783,1023,0,0
-434,1,0,0,0,0,0,0,0,0,0,-1,790,1023,0,0
-427,1,0,0,0,0,0,0,0,0,0,-1,797,1023,0,0
-420,1,0,0,0,0,0,0,0,0,0,-1,804,1023,0,0
-413,1,0,0,0,0,0,0,0,0,0,-1,811,1023,0,0
-406,1,0,0,0,0,0,0,0,0,0,-1,818,1023,0,0
-399,1,0,0,0,0,0,0,0,0,0,-1,825,1023,0,0
-392,1,0,0,0,0,0,0,0,0,0,-1,832,1023,0,0
-385,1,0,0,0,0,0,0,0,0,0,-1,839,1023,0,0
-378,1,0,0,0,0,0,0,0,0,0,-1,846,1023,0,0
-371,1,0,0,0,0,0,0,0,0,0,-1,853,1023,0,0
-364,1,0,0,0,0,0,0,0,0,0,-1,860,1023,0,0
-357,1,0,0,0,0,0,0,0,0,0,-1,867,1023,0,0
-350,1,0,0,0,0,0,0,0,0,0,-1,874,1023,0,0
-343,1,0,0,0,0,0,0,0,0,0,-1,881,1023,0,0
-336,1,0,0,0,0,0,0,0,0,0,-1,888,1023,0,0
-329,1,0,0,0,0,0,0,0,0,0,-1,895,1023,0,0
-322,1,0,0,0,0,0,0,0,0,0,-1,902,1023,0,0
-315,1,0,0,0,0,0,0,0,0,0,-1,909,1023,0,0
-308,1,0,0,0,0,0,0,0,0,0,-1,916,1023,0,0
-301,1,0,0,0,0,0,0,0,0,0,-1,923,1023,0,0
-294,1,0,0,0,0,0,0,0,0,0,-1,930,1023,0,0
-287,1,0,0,0,0,0,0,0,0,0,-1,937,1023,0,0
-280,1,0,0,0,0,0,0,0,0,0,-1,944,1023,0,0
-273,1,0,0,0,0,0,0,0,0,0,-1,951,1023,0,0
-266,1,0,0,0,0,0,0,0,0,0,-1,958,1023,0,0
-259,1,0,0,0,0,0,0,0,0,0,-1,965,1023,0,0
-252,1,0,0,0,0,0,0,0,0,0,-1,972,1023,0,0
-245,1,0,0,0,0,0,0,0,0,0,-1,979,1023,0,0
-238,1,0,0,0,0,0,0,0,0,0,-1,986,1023,0,0
-231,1,0,0,0,0,0,0,0,0,0,-1,993,1023,0,0
-224,1,0,0,0,0,0,0,0,0,0,-1,1000,1023,0,0
-217,1,0,0,0,0,0,0,0,0,0,-1,1007,1023,0,0
-210,1,0,0,0,0,0,0,0,0,0,-1,1014,1023,0,0
-203,1,0,0,0,0,0,0,0,0,0,-1,1021,1023,0,0
-196,1,0,0,0,0,0,0,0,0,0,-1,1028,1023,0,0
-189,1,0,0,0,0,0,0,0,0,0,-1,1035,1023,0,0
-182,1,0,0,0,0,0,0,0,0,0,-1,1042,1023,0,0
-175,1,0,0,0,0,0,0,0,0,0,-1,1049,1023,0,0
-168,1,0,0,0,0,0,0,0,0,0,-1,1056,1023,0,0
-161,1,0,0,0,0,0,0,0,0,0,-1,1063,1023,0,0
-154,1,0,0,0,0,0,0,0,0,0,-1,1070,1023,0,0
-147,1,0,0,0,0,0,0,0,0,0,-1,1077,1023,0,0
-140,1,0,0,0,0,0,0,0,0,0,-1,1084,1023,0,0
-133,1,0,0,0,0,0,0,0,0,0,-1,1091,1023,0,0
-126,1,0,0,0,0,0,0,0,0,0,-1,1098,1023,0,0
-119,1,0,0,0,0,0,0,0,0,0,-1,1105,1023,0,0
-112,1,0,0,0,0,0,0,0,0,0,-1,1112,1023,0,0
-105,1,0,0,0,0,0,0,0,0,0,-1,1119,1023,0,0
-98,1,0,0,0,0,0,0,0,0,0,-1,1126,1023,0,0
-91,1,0,0,0,0,0,0,0,0,0,-1,1133,1023,0,0
-84,1,0,0,0,0,0,0,0,0,0,-1,1140,1023,0,0
-77,1,0,0,0,0,0,0,0,0,0,-1,1147,1023,0,0
-70,1,0,0,0,0,0,0,0,0,0,-1,1154,1023,0,0
-63,1,0,0,0,0,0,0,0,0,0,-1,1161,1023,0,0
-56,1,0,0,0,0,0,0,0,0,0,-1,1168,1023,0,0
-49,1,0,0,0,0,0,0,0,0,0,-1,1175,1023,0,0
-42,1,0,0,0,0,0,0,0,0,0,-1,1182,1023,0,0
-35,1,0,0,0,0,0,0,0,0,0,-1,1189,1023,0,0
-28,1,0,0,0,0,0,0,0,0,0,-1,1196,1023,0,0
-21,1,0,0,0,0,0,0,0,0,0,-1,1203,1023,0,0
-14,1,0,0,0,0,0,0,0,0,0,-1,1210,1023,0,0
-7,1,0,0,0,0,0,0,0,0,0,-1,1217,1023,0,0
0,1,0,0,0,0,0,0,0,0,0,-1,1224,1023,0,0
7,1,0,0,0,0,0,0,0,0,0,-1,1231,1023,0,0
14,1,0,0,0,0,0,0,0,0,0,-1,1238,1023,0,0
21,1,0,0,0,0,0,0,0,0,0,-1,1245,1023,0,0
28,1,0,0,0,0,0,0,0,0,0,-1,1252,1023,0,0
35,1,0,0,0,0,0,0,0,0,0,-1,1259,1023,0,0
42,1,0,0,0,0,0,0,0,0,0,-1,1266,1023,0,0
49,1,0,0,0,0,0,0,0,0,0,-1,1273,1023,0,0
56,1,0,0,0,0,0,0,0,0,0,-1,1280,1023,0,0
63,1,0,0,0,0,0,0,0,0,0,-1,1287,1023,0,0
70,1,0,0,0,0,0,0,0,0,0,-1,1294,1023,0,0
77,1,0,0,0,0,0,0,0,0,0,-1,1301,1023,0,0
84,1,0,0,0,0,0,0,0,0,0,-1,1308,1023,0,0
91,1,0,0,0,0,0,0,0,0,0,-1,1315,1023,0,0
98,1,0,0,0,0,0,0,0,0,0,-1,1322,1023,0,0
105,1,0,0,0,0,0,0,0,0,0,-1,1329,1023,0,0
112,1,0,0,0,0,0,0,0,0,0,-1,1336,1023,0,0
119,1,0,0,0,0,0,0,0,0,0,-1,1343,1023,0,0
126,1,0,0,0,0,0,0,0,0,0,-1,1350,1023,0,0
133,1,0,0,0,0,0,0,0,0,0,-1,1357,1023,0,0
140,1,0,0,0,0,0,0,0,0,0,-1,1364,1023,0,0
147,1,0,0,0,0,0,0,0,0,0,-1,1371,1023,0,0
154,1,0,0,0,0,0,0,0,0,0,-1,1378,1023,0,0
161,1,0,0,0,0,0,0,0,0,0,-1,1385,1023,0,0
168,1,0,0,0,0,0,0,0,0,0,-1,1392,1023,0,0
175,1,0,0,0,0,0,0,0,0,0,-1,1399,1023,0,0
182,1,0,0,0,0,0,0,0,0,0,-1,1406,1023,0,0
189,1,0,0,0,0,0,0,0,0,0,-1,1413,1023,0,0
196,1,0,0,0,0,0,0,0,0,0,-1,1420,1023,0,0
203,1,0,0,0,0,0,0,0,0,0,-1,1427,1023,0,0
210,1,0,0,0,0,0,0,0,0,0,-1,1434,1023,0,0
217,1,0,0,0,0,0,0,0,0,0,-1,1441,1023,0,0
224,1,0,0,0,0,0,0,0,0,0,-1,1448,1023,0,0
231,1,0,0,0,0,0,0,0,0,0,-1,1455,1023,0,0
238,1,0,0,0,0,0,0,0,0,0,-1,1462,1023,0,0
245,1,0,0,0,0,0,0,0,0,0,-1,1469,1023,0,0
252,1,0,0,0,0,0,0,0,0,0,-1,1476,1023,0,0
259,1,0,0,0,0,0,0,0,0,0,-1,1483,1023,0,0
266,1,0,0,0,0,0,0,0,0,0,-1,1490,1023,0,0
273,1,0,0,0,0,0,0,0,0,0,-1,1497,1023,0,0
280,1,0,0,0,0,0,0,0,0,0,-1,1504,1023,0,0
287,1,0,0,0,0,0,0,0,0,0,-1,1511,1023,0,0
294,1,0,0,0,0,0,0,0,0,0,-1,1518,1023,0,0
301,1,0,0,0,0,0,0,0,0,0,-1,1525,1023,0,0
308,1,0,0,0,0,0,0,0,0,0,-1,1532,1023,0,0
315,1,0,0,0,0,0,0,0,0,0,-1,1539,1023,0,0
322,1,0,0,0,0,0,0,0,0,0,-1,1546,1023,0,0
329,1,0,0,0,0,0,0,0,0,0,-1,1553,1023,0,0
336,1,0,0,0,0,0,0,0,0,0,-1,1560,1023,0,0
343,1,0,0,0,0,0,0,0,0,0,-1,1567,1023,0,0
350,1,0,0,0,0,0,0,0,0,0,-1,1574,1023,0,0
357,1,0,0,0,0,0,0,0,0,0,-1,1581,1023,0,0
364,1,0,0,0,0,0,0,0,0,0,-1,1588,1023,0,0
371,1,0,0,0,0,0,0,0,0,0,-1,1595,1023,0,0
378,1,0,0,0,0,0,0,0,0,0,-1,1602,1023,0,0
385,1,0,0,0,0,0,0,0,0,0,-1,1609,1023,0,0
392,1,0,0,0,0,0,0,0,0,0,-1,1616,1023,0,0
399,1,0,0,0,0,0,0,0,0,0,-1,1623,1023,0,0
406,1,0,0,0,0,0,0,0,0,0,-1,1630,1023,0,0
413,1,0,0,0,0,0,0,0,0,0,-1,1637,1023,0,0
420,1,0,0,0,0,0,0,0,0,0,-1,1644,1023,0,0
427,1,0,0,0,0,0,0,0,0,0,-1,1651,1023,0,0
434,1,0,0,0,0,0,0,0,0,0,-1,1658,1023,0,0
441,1,0,0,0,0,0,0,0,0,0,-1,1665,1023,0,0
448,1,0,0,0,0,0,0,0,0,0,-1,1672,1023,0,0
455,1,0,0,0,0,0,0,0,0,0,-1,1679,1023,0,0
462,1,0,0,0,0,0,0,0,0,0,-1,1686,1023,0,0
469,1,0,0,0,0,0,0,0,0,0,-1,1693,1023,0,0
476,1,0,0,0,0,0,0,0,0,0,-1,1700,1023,0,0
483,1,0,0,0,0,0,0,0,0,0,-1,1707,1023,0,0
490,1,0,0,0,0,0,0,0,0,0,-1,1714,1023,0,0
497,1,0,0,0,0,0,0,0,0,0,-1,1721,1023,0,0
504,1,0,0,0,0,0,0,0,0,0,-1,1728,1023,0,0
511,1,0,0,0,0,0,0,0,0,0,-1,1735,1023,0,0
518,1,0,0,0,0,0,0,0,0,0,-1,1742,1023,0,0
525,1,0,0,0,0,0,0,0,0,0,-1,1749,1023,0,0
532,1,0,0,0,0,0,0,0,0,0,-1,1756,1023,0,0
539,1,0,0,0,0,0,0,0,0,0,-1,1763,1023,0,0
546,1,0,0,0,0,0,0,0,0,0,-1,1770,1023,0,0
553,1,0,0,0,0,0,0,0,0,0,-1,1777,1023,0,0
560,1,0,0,0,0,0,0,0,0,0,-1,1784,1023,0,0
567,1,0,0,0,0,0,0,0,0,0,-1,1791,1023,0,0
574,1,0,0,0,0,0,0,0,0,0,-1,1798,1023,0,0
581,1,0,0,0,0,0,0,0,0,0,-1,1805,1023,0,0
588,1,0,0,0,0,0,0,0,0,0,-1,1812,1023,0,0
595,1,0,0,0,0,0,0,0,0,0,-1,1819,1023,0,0
602,1,0,0,0,0,0,0,0,0,0,-1,1826,1023,0,0
609,1,0,0,0,0,0,0,0,0,0,-1,1833,1023,0,0
616,1,0,0,0,0,0,0,0,0,0,-1,1840,1023,0,0
623,1,0,0,0,0,0,0,0,0,0,-1,1847,1023,0,0
630,1,0,0,0,0,0,0,0,0,0,-1,1854,1023,0,0
637,1,0,0,0,0,0,0,0,0,0,-1,1861,1023,0,0
644,1,0,0,0,0,0,0,0,0,0,-1,1868,1023,0,0
651,1,-0.0239258,0.052124,-0.00118881,-0.00251769,-0.00140611,-0.000298052,-0.00340844,-0.56468,0.00217975,0.0320162,1875,1023,-0.0238776,-0.0521066
658,1,-0.0703125,-0.0297241,-0.000609386,-0.00196113,-0.00101518,-6.56717e-05,-0.00250484,-0.491709,0.00164844,0.034863,1882,1023,-0.0703247,0.0296973
665,1,-0.100342,-0.0864868,-0.000190591,-0.00153279,-0.00067867,9.27551e-05,-0.00181614,-0.395503,0.00124283,0.0370364,1889,1023,-0.100365,0.0864563
672,1,-0.144043,-0.167236,0.000124663,-0.0012074,-0.000400213,0.000235657,-0.00131839,-0.270538,0.000967097,0.0391181,1896,1023,-0.14399,0.167246
679,1,-0.149292,-0.209045,0.00031803,-0.000963499,-0.000177287,0.000342104,-0.000987572,-0.134964,0.000797269,0.0380998,1903,1023,-0.149244,0.209043
686,1,-0.100098,-0.195313,0.000425786,-0.000776342,-6.95073e-06,0.000425827,-0.000776382,-0.00578176,0.000703863,0.0382462,1910,1023,-0.100145,0.195332
693,1,0.0150146,-0.132019,0.000465484,-0.000630626,0.000113934,0.000477201,-0.000642344,0.102484,0.000648709,0.0349495,1917,1023,0.0150225,0.132012
700,1,0.0383301,0.00158691,0.000498057,-0.000465247,0.000218753,0.000545406,-0.000512595,0.213159,0.000610935,0.0267728,1924,1023,0.0383016,-0.00161521
707,1,-0.00500488,0.00891113,0.000492345,-0.000386769,0.00025651,0.000561716,-0.00045614,0.264124,0.000588712,0.0185395,1931,1023,-0.00502165,-0.00889211
714,1,-0.0214844,-0.000549316,0.00041078,-0.000322103,0.000243091,0.00048408,-0.000395403,0.292863,0.000508629,0.0130513,1938,1023,-0.021533,0.000570418
721,1,-0.0223389,0.0335693,0.000345205,-0.00025121,0.000251719,0.000437242,-0.000343247,0.350531,0.000451703,0.0110257,1945,1023,-0.0222817,-0.0335632
728,1,-0.0333252,0.0485229,0.000285838,-0.00019561,0.000266946,0.00040457,-0.000314342,0.418503,0.000416152,0.0108351,1952,1023,-0.0333559,-0.048538
735,1,-0.0161133,0.0394897,0.000152303,-0.000125671,0.000313909,0.000356618,-0.000329986,0.576989,0.000396511,0.0119379,1959,1023,-0.0161433,-0.0394887
742,1,-0.0145264,0.0390015,-0.000373251,-0.00023539,0.000172091,-0.000118938,-0.000489703,0.975886,0.000294928,0.0102677,1966,1023,-0.0145231,-0.0389823
749,1,-0.0317383,0.0522461,-0.000532482,-0.0007719,-0.000320937,-0.000309656,-0.000994727,-0.60689,0.000587781,0.00894244,1973,1023,-0.0317982,-0.0522205
756,1,-0.0274658,0.057312,-0.00030525,-0.000779098,-0.000615107,0.000116984,-0.00120133,-0.601567,0.000842594,0.00974923,1980,1023,-0.0275132,-0.0572984
763,1,-0.0209961,0.0623779,-8.84134e-05,-0.00117333,-0.00130085,0.000778554,-0.00204029,-0.58786,0.00168093,0.0122926,1987,1023,-0.0209512,-0.0624005
770,1,-0.0196533,0.0574951,0.00011927,-0.0016297,-0.00200005,0.00142765,-0.00293809,-0.579305,0.00257035,0.0124468,1994,1023,-0.0196899,-0.0574907
777,1,-0.0360107,0.0337524,0.000592197,-0.0021844,-0.00291878,0.00243603,-0.00402823,-0.563412,0.00376969,0.0141508,2001,1023,-0.0360068,-0.0337503
784,1,-0.0556641,0.0346069,0.00141265,-0.00282826,-0.00408464,0.00389443,-0.00531004,-0.545981,0.00533512,0.03379,2008,1023,-0.0556599,-0.0345849
791,1,-0.0316162,0.0446777,0.00272531,-0.00352653,-0.00552329,0.00594589,-0.00674711,-0.527894,0.00733317,0.0444553,2015,1023,-0.0316311,-0.0446475
798,1,-0.0185547,-0.0916748,0.00472534,-0.00422214,-0.00725902,0.00877848,-0.00827528,-0.509239,0.00984742,0.046022,2022,1023,-0.0185652,0.0916449
805,1,-0.69812,-1.64917,0.00769408,-0.00482173,-0.00932136,0.0126633,-0.00979098,-0.489779,0.0129993,0.0474421,2029,1023,-0.698145,1.64922
812,1,-0.768799,-2.66284,0.0119563,-0.00517658,-0.0117617,0.0179405,-0.0111608,-0.470653,0.016953,0.048653,2036,1023,-0.768759,2.66284
-700,-6,0,0,0,0,0,0,0,0,0,-1,524,1030,0,0
-693,-6,-0.247437,-0.621948,-0.0131196,-0.00440518,-0.0636597,0.0550463,-0.0725711,-0.819568,0.0739111,0.0386556,531,1030,-0.247431,0.62189
-686,-6,-0.305176,-0.395874,-0.00793854,0.00773884,-0.0498854,0.0503977,-0.0505974,-0.863328,0.0583096,0.0418827,538,1030,-0.305191,0.395891
-679,-6,-0.93396,-0.294434,0,0,0,0,0,0,0,-1,545,1030,-0.93397,0.294435
-672,-6,-0.667664,-0.0355225,-0.00153269,0.0168134,-0.0281478,0.0372451,-0.0219644,-0.942916,0.034562,0.0493329,552,1030,-0.667669,0.0355196
-665,-6,-0.391846,0.265137,0.00022799,0.016965,-0.0200497,0.0303226,-0.0131296,-0.983101,0.0257334,0.0444114,559,1030,-0.391835,-0.265198
-658,-6,-0.147766,0.132813,0.00131539,0.0155283,-0.0136656,0.0238247,-0.00698106,-1.02517,0.0186509,0.036684,566,1030,-0.147767,-0.132827
-651,-6,-0.0467529,0.143188,0.0018585,0.0132103,-0.00883978,0.0180395,-0.00297072,-1.07079,0.0131291,0.0298834,573,1030,-0.0467496,-0.143189
-644,-6,-0.0283813,0.120728,0.00213447,0.0109555,-0.00531716,0.0134533,-0.000363337,-1.13163,0.00909237,0.0218794,580,1030,-0.0283718,-0.120783
-637,-6,-0.0255737,0.0700684,0.00198167,0.00937327,-0.00250172,0.0101404,0.00121456,-1.27327,0.00639397,0.0121348,587,1030,-0.0255626,-0.0700812
-630,-6,-0.0214233,0.0435791,0.0021356,0.00643977,-0.000466493,0.00648975,0.00208562,-1.46407,0.00382573,0.0112515,594,1030,-0.0214534,-0.0436019
-623,-6,-0.0441895,0.0209961,0.00172702,0.00455293,0.000611705,0.00467966,0.00160029,1.36651,0.00274642,0.012005,601,1030,-0.0442061,-0.0209474
-616,-6,-0.0413818,0.0487061,0.000973974,0.00205298,0.000989604,0.00264059,0.000386366,1.03496,0.00164678,0.0124365,608,1030,-0.041366,-0.0486935
-609,-6,-0.00811768,0.0588379,0.000657074,1.19041e-05,0.000626598,0.00103925,-0.000370271,0.547682,0.000843786,0.0145058,615,1030,-0.00810703,-0.0587993
-602,-6,-0.0202637,0.0505371,0.000310978,-0.000169102,0.000212212,0.000391333,-0.000249457,0.361971,0.000372971,0.0124049,622,1030,-0.0202705,-0.0505053
-595,-6,0.0012207,0.0531006,0.000145455,-0.000198853,-5.52405e-05,0.000154101,-0.000207498,-0.15525,0.000209527,0.0128827,629,1030,0.00123354,-0.0530645
-588,-6,0.00250244,0.0649414,0.000157161,-0.000187673,-0.000158292,0.000218803,-0.000249316,-0.371356,0.00027046,0.0130722,636,1030,0.00252927,-0.0649127
-581,-6,-0.0143433,0.100708,0.000149607,-0.000159673,-0.000302145,0.000334386,-0.000344451,-0.548874,0.000391941,0.0197792,643,1030,-0.0143452,-0.100723
-574,-6,-0.0385132,0.0963135,0.000176629,-0.000129698,-0.000495268,0.000541876,-0.000494945,-0.635436,0.000598813,0.028966,650,1030,-0.0385169,-0.0963489
-567,-6,-0.0375366,-0.0601807,0.000189029,-5.81074e-05,-0.000715927,0.000791973,-0.000661051,-0.699941,0.000840039,0.037845,657,1030,-0.0375224,0.0601912
-560,-6,-0.0386353,-0.02771,0.000168367,7.9443e-05,-0.000981042,0.00110595,-0.000858144,-0.762753,0.00113698,0.0392561,664,1030,-0.0386305,0.0277288
-553,-6,-0.0167847,-0.108032,0.000129128,0.000312177,-0.00128775,0.00151165,-0.00107034,-0.820875,0.00149795,0.038284,671,1030,-0.01679,0.10806
-546,-6,0.00140381,-0.0189209,3.72307e-05,0.000680518,-0.00163102,0.00202131,-0.00130356,-0.882751,0.00193446,0.0372442,678,1030,0.00142176,0.0189353
-539,-6,0.00457764,0.0222168,-0.000170382,0.00122772,-0.00200531,0.00265233,-0.00159499,-0.953112,0.00247739,0.0373872,685,1030,0.00456555,-0.0222575
-532,-6,-0.0432739,0.0152588,-0.000619451,0.00200732,-0.00237737,0.00340998,-0.00202211,-1.03776,0.00317015,0.0401005,692,1030,-0.0432457,-0.0152018
-525,-6,0,0,0,0,0,0,0,0,0,-1,699,1030,0,0
-518,-6,0,0,0,0,0,0,0,0,0,-1,706,1030,0,0
-511,-6,0,0,0,0,0,0,0,0,0,-1,713,1030,0,0
-504,-6,0,0,0,0,0,0,0,0,0,-1,720,1030,0,0
-497,-6,0,0,0,0,0,0,0,0,0,-1,727,1030,0,0
-490,-6,0,0,0,0,0,0,0,0,0,-1,734,1030,0,0
-483,-6,0,0,0,0,0,0,0,0,0,-1,741,1030,0,0
-476,-6,0,0,0,0,0,0,0,0,0,-1,748,1030,0,0
-469,-6,0,0,0,0,0,0,0,0,0,-1,755,1030,0,0
-462,-6,0,0,0,0,0,0,0,0,0,-1,762,1030,0,0
-455,-6,0,0,0,0,0,0,0,0,0,-1,769,1030,0,0
-448,-6,0,0,0,0,0,0,0,0,0,-1,776,1030,0,0
-441,-6,0,0,0,0,0,0,0,0,0,-1,783,1030,0,0
-434,-6,0,0,0,0,0,0,0,0,0,-1,790,1030,0,0
-427,-6,0,0,0,0,0,0,0,0,0,-1,797,1030,0,0
-420,-6,0,0,0,0,0,0,0,0,0,-1,804,1030,0,0
-413,-6,0,0,0,0,0,0,0,0,0,-1,811,1030,0,0
-406,-6,0,0,0,0,0,0,0,0,0,-1,818,1030,0,0
-399,-6,0,0,0,0,0,0,0,0,0,-1,825,1030,0,0
-392,-6,0,0,0,0,0,0,0,0,0,-1,832,1030,0,0
-385,-6,0,0,0,0,0,0,0,0,0,-1,839,1030,0,0
-378,-6,0,0,0,0,0,0,0,0,0,-1,846,1030,0,0
-371,-6,0,0,0,0,0,0,0,0,0,-1,853,1030,0,0
-364,-6,0,0,0,0,0,0,0,0,0,-1,860,1030,0,0
-357,-6,0,0,0,0,0,0,0,0,0,-1,867,1030,0,0
-350,-6,0,0,0,0,0,0,0,0,0,-1,874,1030,0,0
-343,-6,0,0,0,0,0,0,0,0,0,-1,881,1030,0,0
-336,-6,0,0,0,0,0,0,0,0,0,-1,888,1030,0,0
-329,-6,0,0,0,0,0,0,0,0,0,-1,895,1030,0,0
-322,-6,0,0,0,0,0,0,0,0,0,-1,902,1030,0,0
-315,-6,0,0,0,0,0,0,0,0,0,-1,909,1030,0,0
-308,-6,0,0,0,0,0,0,0,0,0,-1,916,1030,0,0
-301,-6,0,0,0,0,0,0,0,0,0,-1,923,1030,0,0
-294,-6,0,0,0,0,0,0,0,0,0,-1,930,1030,0,0
-287,-6,0,0,0,0,0,0,0,0,0,-1,937,1030,0,0
-280,-6,0,0,0,0,0,0,0,0,0,-1,944,1030,0,0
-273,-6,0,0,0,0,0,0,0,0,0,-1,951,1030,0,0
-266,-6,0,0,0,0,0,0,0,0,0,-1,958,1030,0,0
-259,-6,0,0,0,0,0,0,0,0,0,-1,965,1030,0,0
-252,-6,0,0,0,0,0,0,0,0,0,-1,972,1030,0,0
-245,-6,0,0,0,0,0,0,0,0,0,-1,979,1030,0,0
-238,-6,0,0,0,0,0,0,0,0,0,-1,986,1030,0,0
-231,-6,0,0,0,0,0,0,0,0,0,-1,993,1030,0,0
-224,-6,0,0,0,0,0,0,0,0,0,-1,1000,1030,0,0
-217,-6,0,0,0,0,0,0,0,0,0,-1,1007,1030,0,0
-210,-6,0,0,0,0,0,0,0,0,0,-1,1014,1030,0,0
-203,-6,0,0,0,0,0,0,0,0,0,-1,1021,1030,0,0
-196,-6,0,0,0,0,0,0,0,0,0,-1,1028,1030,0,0
-189,-6,0,0,0,0,0,0,0,0,0,-1,1035,1030,0,0
-182,-6,0,0,0,0,0,0,0,0,0,-1,1042,1030,0,0
-175,-6,0,0,0,0,0,0,0,0,0,-1,1049,1030,0,0
-168,-6,0,0,0,0,0,0,0,0,0,-1,1056,1030,0,0
-161,-6,0,0,0,0,0,0,0,0,0,-1,1063,1030,0,0
-154,-6,0,0,0,0,0,0,0,0,0,-1,1070,1030,0,0
-147,-6,0,0,0,0,0,0,0,0,0,-1,1077,1030,0,0
-140,-6,0,0,0,0,0,0,0,0,0,-1,1084,1030,0,0
-133,-6,0,0,0,0,0,0,0,0,0,-1,1091,1030,0,0
-126,-6,0,0,0,0,0,0,0,0,0,-1,1098,1030,0,0
-119,-6,0,0,0,0,0,0,0,0,0,-1,1105,1030,0,0
-112,-6,0,0,0,0,0,0,0,0,0,-1,1112,1030,0,0
-105,-6,0,0,0,0,0,0,0,0,0,-1,1119,1030,0,0
-98,-6,0,0,0,0,0,0,0,0,0,-1,1126,1030,0,0
-91,-6,0,0,0,0,0,0,0,0,0,-1,1133,1030,0,0
-84,-6,0,0,0,0,0,0,0,0,0,-1,1140,1030,0,0
-77,-6,0,0,0,0,0,0,0,0,0,-1,1147,1030,0,0
-70,-6,0,0,0,0,0,0,0,0,0,-1,1154,1030,0,0
-63,-6,0,0,0,0,0,0,0,0,0,-1,1161,1030,0,0
-56,-6,0,0,0,0,0,0,0,0,0,-1,1168,1030,0,0
-49,-6,0,0,0,0,0,0,0,0,0,-1,1175,1030,0,0
-42,-6,0,0,0,0,0,0,0,0,0,-1,1182,1030,0,0
-35,-6,0,0,0,0,0,0,0,0,0,-1,1189,1030,0,0
-28,-6,0,0,0,0,0,0,0,0,0,-1,1196,1030,0,0
-21,-6,0,0,0,0,0,0,0,0,0,-1,1203,1030,0,0
-14,-6,0,0,0,0,0,0,0,0,0,-1,1210,1030,0,0
-7,-6,0,0,0,0,0,0,0,0,0,-1,1217,1030,0,0
0,-6,0,0,0,0,0,0,0,0,0,-1,1224,1030,0,0
7,-6,0,0,0,0,0,0,0,0,0,-1,1231,1030,0,0
14,-6,0,0,0,0,0,0,0,0,0,-1,1238,1030,0,0
21,-6,0,0,0,0,0,0,0,0,0,-1,1245,1030,0,0
28,-6,0,0,0,0,0,0,0,0,0,-1,1252,1030,0,0
35,-6,0,0,0,0,0,0,0,0,0,-1,1259,1030,0,0
42,-6,0,0,0,0,0,0,0,0,0,-1,1266,1030,0,0
49,-6,0,0,0,0,0,0,0,0,0,-1,1273,1030,0,0
56,-6,0,0,0,0,0,0,0,0,0,-1,1280,1030,0,0
63,-6,0,0,0,0,0,0,0,0,0,-1,1287,1030,0,0
70,-6,0,0,0,0,0,0,0,0,0,-1,1294,1030,0,0
77,-6,0,0,0,0,0,0,0,0,0,-1,1301,1030,0,0
84,-6,0,0,0,0,0,0,0,0,0,-1,1308,1030,0,0
91,-6,0,0,0,0,0,0,0,0,0,-1,1315,1030,0,0
98,-6,0,0,0,0,0,0,0,0,0,-1,1322,1030,0,0
105,-6,0,0,0,0,0,0,0,0,0,-1,1329,1030,0,0
112,-6,0,0,0,0,0,0,0,0,0,-1,1336,1030,0,0
119,-6,0,0,0,0,0,0,0,0,0,-1,1343,1030,0,0
126,-6,0,0,0,0,0,0,0,0,0,-1,1350,1030,0,0
133,-6,0,0,0,0,0,0,0,0,0,-1,1357,1030,0,0
140,-6,0,0,0,0,0,0,0,0,0,-1,1364,1030,0,0
147,-6,0,0,0,0,0,0,0,0,0,-1,1371,1030,0,0
154,-6,0,0,0,0,0,0,0,0,0,-1,1378,1030,0,0
161,-6,0,0,0,0,0,0,0,0,0,-1,1385,1030,0,0
168,-6,0,0,0,0,0,0,0,0,0,-1,1392,1030,0,0
175,-6,0,0,0,0,0,0,0,0,0,-1,1399,1030,0,0
182,-6,0,0,0,0,0,0,0,0,0,-1,1406,1030,0,0
189,-6,0,0,0,0,0,0,0,0,0,-1,1413,1030,0,0
196,-6,0,0,0,0,0,0,0,0,0,-1,1420,1030,0,0
203,-6,0,0,0,0,0,0,0,0,0,-1,1427,1030,0,0
210,-6,0,0,0,0,0,0,0,0,0,-1,1434,1030,0,0
217,-6,0,0,0,0,0,0,0,0,0,-1,1441,1030,0,0
224,-6,0,0,0,0,0,0,0,0,0,-1,1448,1030,0,0
231,-6,0,0,0,0,0,0,0,0,0,-1,1455,1030,0,0
238,-6,0,0,0,0,0,0,0,0,0,-1,1462,1030,0,0
245,-6,0,0,0,0,0,0,0,0,0,-1,1469,1030,0,0
252,-6,0,0,0,0,0,0,0,0,0,-1,1476,1030,0,0
259,-6,0,0,0,0,0,0,0,0,0,-1,1483,1030,0,0
266,-6,0,0,0,0,0,0,0,0,0,-1,1490,1030,0,0
273,-6,0,0,0,0,0,0,0,0,0,-1,1497,1030,0,0
280,-6,0,0,0,0,0,0,0,0,0,-1,1504,1030,0,0
287,-6,0,0,0,0,0,0,0,0,0,-1,1511,1030,0,0
294,-6,0,0,0,0,0,0,0,0,0,-1,1518,1030,0,0
301,-6,0,0,0,0,0,0,0,0,0,-1,1525,1030,0,0
308,-6,0,0,0,0,0,0,0,0,0,-1,1532,1030,0,0
315,-6,0,0,0,0,0,0,0,0,0,-1,1539,1030,0,0
322,-6,0,0,0,0,0,0,0,0,0,-1,1546,1030,0,0
329,-6,0,0,0,0,0,0,0,0,0,-1,1553,1030,0,0
336,-6,0,0,0,0,0,0,0,0,0,-1,1560,1030,0,0
343,-6,0,0,0,0,0,0,0,0,0,-1,1567,1030,0,0
350,-6,0,0,0,0,0,0,0,0,0,-1,1574,1030,0,0
357,-6,0,0,0,0,0,0,0,0,0,-1,1581,1030,0,0
364,-6,0,0,0,0,0,0,0,0,0,-1,1588,1030,0,0
371,-6,0,0,0,0,0,0,0,0,0,-1,1595,1030,0,0
378,-6,0,0,0,0,0,0,0,0,0,-1,1602,1030,0,0
385,-6,0,0,0,0,0,0,0,0,0,-1,1609,1030,0,0
392,-6,0,0,0,0,0,0,0,0,0,-1,1616,1030,0,0
399,-6,0,0,0,0,0,0,0,0,0,-1,1623,1030,0,0
406,-6,0,0,0,0,0,0,0,0,0,-1,1630,1030,0,0
413,-6,0,0,0,0,0,0,0,0,0,-1,1637,1030,0,0
420,-6,0,0,0,0,0,0,0,0,0,-1,1644,1030,0,0
427,-6,0,0,0,0,0,0,0,0,0,-1,1651,1030,0,0
434,-6,0,0,0,0,0,0,0,0,0,-1,1658,1030,0,0
441,-6,0,0,0,0,0,0,0,0,0,-1,1665,1030,0,0
448,-6,0,0,0,0,0,0,0,0,0,-1,1672,1030,0,0
455,-6,0,0,0,0,0,0,0,0,0,-1,1679,1030,0,0
462,-6,0,0,0,0,0,0,0,0,0,-1,1686,1030,0,0
469,-6,0,0,0,0,0,0,0,0,0,-1,1693,1030,0,0
476,-6,0,0,0,0,0,0,0,0,0,-1,1700,1030,0,0
483,-6,0,0,0,0,0,0,0,0,0,-1,1707,1030,0,0
490,-6,0,0,0,0,0,0,0,0,0,-1,1714,1030,0,0
497,-6,0,0,0,0,0,0,0,0,0,-1,1721,1030,0,0
504,-6,0,0,0,0,0,0,0,0,0,-1,1728,1030,0,0
511,-6,0,0,0,0,0,0,0,0,0,-1,1735,1030,0,0
518,-6,0,0,0,0,0,0,0,0,0,-1,1742,1030,0,0
525,-6,0,0,0,0,0,0,0,0,0,-1,1749,1030,0,0
532,-6,0,0,0,0,0,0,0,0,0,-1,1756,1030,0,0
539,-6,0,0,0,0,0,0,0,0,0,-1,1763,1030,0,0
546,-6,0,0,0,0,0,0,0,0,0,-1,1770,1030,0,0
553,-6,0,0,0,0,0,0,0,0,0,-1,1777,1030,0,0
560,-6,0,0,0,0,0,0,0,0,0,-1,1784,1030,0,0
567,-6,0,0,0,0,0,0,0,0,0,-1,1791,1030,0,0
574,-6,0,0,0,0,0,0,0,0,0,-1,1798,1030,0,0
581,-6,0,0,0,0,0,0,0,0,0,-1,1805,1030,0,0
588,-6,0,0,0,0,0,0,0,0,0,-1,1812,1030,0,0
595,-6,0,0,0,0,0,0,0,0,0,-1,1819,1030,0,0
602,-6,0,0,0,0,0,0,0,0,0,-1,1826,1030,0,0
609,-6,0,0,0,0,0,0,0,0,0,-1,1833,1030,0,0
616,-6,0,0,0,0,0,0,0,0,0,-1,1840,1030,0,0
623,-6,0,0,0,0,0,0,0,0,0,-1,1847,1030,0,0
630,-6,0,0,0,0,0,0,0,0,0,-1,1854,1030,0,0
637,-6,0,0,0,0,0,0,0,0,0,-1,1861,1030,0,0
644,-6,0,0,0,0,0,0,0,0,0,-1,1868,1030,0,0
651,-6,-0.0617676,0.126953,-0.00160826,-0.00218729,-0.00159252,-0.000279153,-0.0035164,-0.695482,0.00225698,0.0329561,1875,1030,-0.0618269,-0.126982
658,-6,-0.0946045,0.140259,-0.000936043,-0.00182918,-0.00118849,-0.000112999,-0.00265223,-0.605685,0.00173172,0.0375801,1882,1030,-0.0945927,-0.140212
665,-6,-0.0543213,-0.0253906,-0.000431658,-0.00152997,-0.000841556,2.40685e-05,-0.0019857,-0.496316,0.00133189,0.0396526,1889,1030,-0.054273,0.0253398
672,-6,-0.111694,-0.0689697,-4.32511e-05,-0.00128363,-0.000544533,0.000161878,-0.00148876,-0.360266,0.00105063,0.0388246,1896,1030,-0.111656,0.0690021
679,-6,-0.17395,-0.0683594,0.00020794,-0.00108186,-0.000301755,0.000275046,-0.00114897,-0.218824,0.000872237,0.0374379,1903,1030,-0.17389,0.068327
686,-6,-0.152832,-0.0611572,0.000358652,-0.00091118,-0.000112151,0.000368481,-0.000921009,-0.087418,0.000766931,0.0345393,1910,1030,-0.152819,0.0611451
693,-6,-0.0974121,0.00915527,0.000432783,-0.000763734,2.62446e-05,0.000433358,-0.00076431,0.0219201,0.000700219,0.0331888,1917,1030,-0.0973786,-0.00917826
700,-6,-0.0318604,0.0131836,0.000485528,-0.000592907,0.000148579,0.000505623,-0.000613003,0.134436,0.00064683,0.0264691,1924,1030,-0.0318663,-0.013187
707,-6,-0.0231934,0.000488281,0.000504502,-0.000510034,0.000201502,0.000543058,-0.00054859,0.189058,0.000630266,0.020262,1931,1030,-0.0231591,-0.000487602
714,-6,-0.0194092,0.0220947,0.000446441,-0.000425604,0.000197718,0.000489176,-0.000468338,0.212863,0.000552864,0.01707,1938,1030,-0.019404,-0.0220415
721,-6,-0.0217285,0.0493164,0.000380203,-0.00032687,0.000211207,0.000438487,-0.000385155,0.269257,0.000475862,0.0125186,1945,1030,-0.0217003,-0.0492821
728,-6,-0.0385742,0.046875,0.000302779,-0.000248652,0.000250698,0.000399714,-0.000345587,0.368955,0.000430678,0.0124056,1952,1030,-0.0385694,-0.0468879
735,-6,-0.0106201,0.0318604,0.000156623,-0.000165637,0.000337308,0.00036931,-0.000378325,0.562576,0.000431658,0.0136613,1959,1030,-0.0106752,-0.0318177
742,-6,-0.0065918,0.0400391,-0.000285978,-0.000165089,0.000343107,0.000122857,-0.000573924,0.872587,0.000429467,0.0108791,1966,1030,-0.00658544,-0.0399792
749,-6,-0.0247803,0.052124,-0.000297874,-0.000712252,5.2618e-05,-0.000291297,-0.000718829,0.124352,0.000417493,0.010678,1973,1030,-0.0247435,-0.0521111
756,-6,-0.0306396,0.0516357,9.31408e-05,-0.00073506,-1.05949e-05,9.32763e-05,-0.000735195,-0.0127899,0.000523997,0.0112234,1980,1030,-0.0306087,-0.0516529
763,-6,-0.026001,0.0638428,0.000556488,-0.00113623,-0.000411063,0.000651031,-0.00123078,-0.226064,0.00110351,0.0106938,1987,1030,-0.0260436,-0.0638231
770,-6,-0.022583,0.0656738,0.00106566,-0.00160117,-0.000760598,0.00126734,-0.00180285,-0.25919,0.00178154,0.0100394,1994,1030,-0.0226112,-0.06562
777,-6,-0.0372314,0.036499,0.00192964,-0.00218375,-0.0012508,0.00228012,-0.00253423,-0.273199,0.00278086,0.0136349,2001,1030,-0.0372324,-0.0365476
784,-6,0.0349121,0.0273438,0.00324021,-0.00288249,-0.00191236,0.00378843,-0.00343071,-0.279184,0.00416968,0.0348372,2008,1030,0.0348536,-0.0272867
791,-6,0.167114,0.00830078,0,0,0,0,0,0,0,-1,2015,1030,0.167161,-0.00833697
798,-6,-0.820435,0.414063,0,0,0,0,0,0,0,-1,2022,1030,-0.820395,-0.414064
805,-6,-0.153198,0.677856,0,0,0,0,0,0,0,-1,2029,1030,-0.153149,-0.677808
812,-6,-0.596436,-3.22949,0,0,0,0,0,0,0,-1,2036,1030,-0.596375,3.22952
-700,-13,0,0,0,0,0,0,0,0,0,-1,524,1037,0,0
-693,-13,0.347168,1.3147,-0.012944,-0.00842906,-0.0590366,0.0483932,-0.0697662,-0.804508,0.0685904,0.0414575,531,1037,0.347178,-1.31472
-686,-13,0.050415,-1.41772,-0.00851758,0.00301212,-0.0463383,0.0439428,-0.0494482,-0.847284,0.0539505,0.0431509,538,1037,0.0504234,1.41778
-679,-13,-0.675537,-2.56702,-0.00508976,0.00946993,-0.0353522,0.0382841,-0.0339039,-0.88694,0.0417033,0.0482223,545,1037,-0.675541,2.56701
-672,-13,-0.593079,-0.799683,0,0,0,0,0,0,0,-1,552,1037,-0.593077,0.799718
-665,-13,-0.387207,-0.46228,-0.000711802,0.0132981,-0.0184789,0.0260553,-0.0134689,-0.966569,0.0232018,0.0450478,559,1037,-0.387199,0.462326
-658,-13,-0.213562,-0.234741,0.000521574,0.0125277,-0.012497,0.0203887,-0.00733938,-1.00931,0.0165892,0.0428081,566,1037,-0.213549,0.234686
-651,-13,-0.0760498,0.0386963,0.0012387,0.0108621,-0.0079888,0.0153764,-0.00327554,-1.05646,0.0114993,0.0400466,573,1037,-0.0760219,-0.0386913
-644,-13,-0.0270386,0.0997314,0.00169109,0.00924509,-0.00470132,0.0114987,-0.000562509,-1.1238,0.00786001,0.0279758,580,1037,-0.0270286,-0.0997823
-637,-13,-0.038147,0.0690918,0.00168045,0.00807711,-0.00199871,0.00865028,0.00110729,-1.29152,0.00543548,0.0171088,587,1037,-0.0381384,-0.0691501
-630,-13,-0.0404663,0.0679932,0.00190075,0.00561197,-0.000135642,0.00561692,0.0018958,-1.53431,0.00329952,0.0108276,594,1037,-0.0404692,-0.0679331
-623,-13,-0.0490112,0.0698242,0.00164577,0.00413354,0.000855494,0.00439933,0.00137998,1.26956,0.00259807,0.00930104,601,1037,-0.0490364,-0.069772
-616,-13,-0.0401001,0.0588379,0.00104317,0.00178425,0.00109032,0.00256527,0.000262149,0.949198,0.00162984,0.0100753,608,1037,-0.0401137,-0.0588708
-609,-13,0.00604248,0.05896,0.000691664,-4.38794e-05,0.000628299,0.00105191,-0.000404129,0.520611,0.000867935,0.0162577,615,1037,0.00601787,-0.0589683
-602,-13,-0.00396729,0.0551758,0.000344641,-8.76854e-05,0.000235025,0.000447795,-0.000190839,0.413589,0.000378533,0.0115915,622,1037,-0.00393943,-0.0552311
-595,-13,0.00128174,0.0598145,0.000152609,-0.000100624,-9.04862e-06,0.000152932,-0.000100947,-0.0356717,0.000147598,0.011719,629,1037,0.00130023,-0.0597831
-588,-13,0.0123901,0.0644531,0.000106892,-9.46174e-05,-0.000118892,0.000161979,-0.000149705,-0.433893,0.000179997,0.0117969,636,1037,0.0123598,-0.0645056
-581,-13,-0.0214233,0.0908203,7.73188e-05,-7.02556e-05,-0.000278281,0.000291429,-0.000284366,-0.655803,0.000332443,0.0137683,643,1037,-0.0214082,-0.0908528
-574,-13,-0.0813599,0.221436,7.61046e-05,-5.44353e-05,-0.000478482,0.000493748,-0.000472079,-0.717611,0.000557667,0.0311752,650,1037,-0.0813599,-0.221494
-567,-13,-0.105225,0.213501,3.9696e-05,-8.59436e-06,-0.000725949,0.000741902,-0.0007108,-0.768774,0.000838782,0.0390616,657,1037,-0.105204,-0.213442
-560,-13,-0.0934448,0.223022,-4.1306e-05,7.73607e-05,-0.00103033,0.00105006,-0.00101401,-0.81416,0.00119175,0.0411678,664,1037,-0.0934486,-0.22298
-553,-13,0.0299683,0.171997,-0.000155346,0.000226606,-0.00138933,0.00143802,-0.00136676,-0.8537,0.00161951,0.0397726,671,1037,0.0299703,-0.171989
-546,-13,0.0388794,0.0270996,-0.000341668,0.000473549,-0.00179048,0.00190223,-0.00177035,-0.897317,0.00212082,0.0347012,678,1037,0.0388566,-0.0270708
-539,-13,-0.0513306,-0.0344238,-0.000642796,0.000851901,-0.0022103,0.00243778,-0.00222868,-0.948425,0.00269508,0.034134,685,1037,-0.0513506,0.0343697
-532,-13,-0.13269,-0.0391846,-0.00118194,0.00139941,-0.00260041,0.00301184,-0.00279436,-1.01575,0.003353,0.037267,692,1037,-0.132698,0.0392264
-525,-13,0,0,0,0,0,0,0,0,0,-1,699,1037,0,0
-518,-13,0,0,0,0,0,0,0,0,0,-1,706,1037,0,0
-511,-13,0,0,0,0,0,0,0,0,0,-1,713,1037,0,0
-504,-13,0,0,0,0,0,0,0,0,0,-1,720,1037,0,0
-497,-13,0,0,0,0,0,0,0,0,0,-1,727,1037,0,0
-490,-13,0,0,0,0,0,0,0,0,0,-1,734,1037,0,0
-483,-13,0,0,0,0,0,0,0,0,0,-1,741,1037,0,0
-476,-13,0,0,0,0,0,0,0,0,0,-1,748,1037,0,0
-469,-13,0,0,0,0,0,0,0,0,0,-1,755,1037,0,0
-462,-13,0,0,0,0,0,0,0,0,0,-1,762,1037,0,0
-455,-13,0,0,0,0,0,0,0,0,0,-1,769,1037,0,0
-448,-13,0,0,0,0,0,0,0,0,0,-1,776,1037,0,0
-441,-13,0,0,0,0,0,0,0,0,0,-1,783,1037,0,0
-434,-13,0,0,0,0,0,0,0,0,0,-1,790,1037,0,0
-427,-13,0,0,0,0,0,0,0,0,0,-1,797,1037,0,0
-420,-13,0,0,0,0,0,0,0,0,0,-1,804,1037,0,0
-413,-13,0,0,0,0,0,0,0,0,0,-1,811,1037,0,0
-406,-13,0,0,0,0,0,0,0,0,0,-1,818,1037,0,0
-399,-13,0,0,0,0,0,0,0,0,0,-1,825,1037,0,0
-392,-13,0,0,0,0,0,0,0,0,0,-1,832,1037,0,0
-385,-13,0,0,0,0,0,0,0,0,0,-1,839,1037,0,0
-378,-13,0,0,0,0,0,0,0,0,0,-1,846,1037,0,0
-371,-13,0,0,0,0,0,0,0,0,0,-1,853,1037,0,0
-364,-13,0,0,0,0,0,0,0,0,0,-1,860,1037,0,0
-357,-13,0,0,0,0,0,0,0,0,0,-1,867,1037,0,0
-350,-13,0,0,0,0,0,0,0,0,0,-1,874,1037,0,0
-343,-13,0,0,0,0,0,0,0,0,0,-1,881,1037,0,0
-336,-13,0,0,0,0,0,0,0,0,0,-1,888,1037,0,0
-329,-13,0,0,0,0,0,0,0,0,0,-1,895,1037,0,0
-322,-13,0,0,0,0,0,0,0,0,0,-1,902,1037,0,0
-315,-13,0,0,0,0,0,0,0,0,0,-1,909,1037,0,0
-308,-13,0,0,0,0,0,0,0,0,0,-1,916,1037,0,0
-301,-13,0,0,0,0,0,0,0,0,0,-1,923,1037,0,0
-294,-13,0,0,0,0,0,0,0,0,0,-1,930,1037,0,0
-287,-13,0,0,0,0,0,0,0,0,0,-1,937,1037,0,0
-280,-13,0,0,0,0,0,0,0,0,0,-1,944,1037,0,0
-273,-13,0,0,0,0,0,0,0,0,0,-1,951,1037,0,0
-266,-13,0,0,0,0,0,0,0,0,0,-1,958,1037,0,0
-259,-13,0,0,0,0,0,0,0,0,0,-1,965,1037,0,0
-252,-13,0,0,0,0,0,0,0,0,0,-1,972,1037,0,0
-245,-13,0,0,0,0,0,0,0,0,0,-1,979,1037,0,0
-238,-13,0,0,0,0,0,0,0,0,0,-1,986,1037,0,0
-231,-13,0,0,0,0,0,0,0,0,0,-1,993,1037,0,0
-224,-13,0,0,0,0,0,0,0,0,0,-1,1000,1037,0,0
-217,-13,0,0,0,0,0,0,0,0,0,-1,1007,1037,0,0
-210,-13,0,0,0,0,0,0,0,0,0,-1,1014,1037,0,0
-203,-13,0,0,0,0,0,0,0,0,0,-1,1021,1037,0,0
-196,-13,0,0,0,0,0,0,0,0,0,-1,1028,1037,0,0
-189,-13,0,0,0,0,0,0,0,0,0,-1,1035,1037,0,0
-182,-13,0,0,0,0,0,0,0,0,0,-1,1042,1037,0,0
-175,-13,0,0,0,0,0,0,0,0,0,-1,1049,1037,0,0
-168,-13,0,0,0,0,0,0,0,0,0,-1,1056,1037,0,0
-161,-13,0,0,0,0,0,0,0,0,0,-1,1063,1037,0,0
-154,-13,0,0,0,0,0,0,0,0,0,-1,1070,1037,0,0
-147,-13,0,0,0,0,0,0,0,0,0,-1,1077,1037,0,0
-140,-13,0,0,0,0,0,0,0,0,0,-1,1084,1037,0,0
-133,-13,0,0,0,0,0,0,0,0,0,-1,1091,1037,0,0
-126,-13,0,0,0,0,0,0,0,0,0,-1,1098,1037,0,0
-119,-13,0,0,0,0,0,0,0,0,0,-1,1105,1037,0,0
-112,-13,0,0,0,0,0,0,0,0,0,-1,1112,1037,0,0
-105,-13,0,0,0,0,0,0,0,0,0,-1,1119,1037,0,0
-98,-13,0,0,0,0,0,0,0,0,0,-1,1126,1037,0,0
-91,-13,0,0,0,0,0,0,0,0,0,-1,1133,1037,0,0
-84,-13,0,0,0,0,0,0,0,0,0,-1,1140,1037,0,0
-77,-13,0,0,0,0,0,0,0,0,0,-1,1147,1037,0,0
-70,-13,0,0,0,0,0,0,0,0,0,-1,1154,1037,0,0
-63,-13,0,0,0,0,0,0,0,0,0,-1,1161,1037,0,0
-56,-13,0,0,0,0,0,0,0,0,0,-1,1168,1037,0,0
-49,-13,0,0,0,0,0,0,0,0,0,-1,1175,1037,0,0
-42,-13,0,0,0,0,0,0,0,0,0,-1,1182,1037,0,0
-35,-13,0,0,0,0,0,0,0,0,0,-1,1189,1037,0,0
-28,-13,0,0,0,0,0,0,0,0,0,-1,1196,1037,0,0
-21,-13,0,0,0,0,0,0,0,0,0,-1,1203,1037,0,0
-14,-13,0,0,0,0,0,0,0,0,0,-1,1210,1037,0,0
-7,-13,0,0,0,0,0,0,0,0,0,-1,1217,1037,0,0
0,-13,0,0,0,0,0,0,0,0,0,-1,1224,1037,0,0
7,-13,0,0,0,0,0,0,0,0,0,-1,1231,1037,0,0
14,-13,0,0,0,0,0,0,0,0,0,-1,1238,1037,0,0
21,-13,0,0,0,0,0,0,0,0,0,-1,1245,1037,0,0
28,-13,0,0,0,0,0,0,0,0,0,-1,1252,1037,0,0
35,-13,0,0,0,0,0,0,0,0,0,-1,1259,1037,0,0
42,-13,0,0,0,0,0,0,0,0,0,-1,1266,1037,0,0
49,-13,0,0,0,0,0,0,0,0,0,-1,1273,1037,0,0
56,-13,0,0,0,0,0,0,0,0,0,-1,1280,1037,0,0
63,-13,0,0,0,0,0,0,0,0,0,-1,1287,1037,0,0
70,-13,0,0,0,0,0,0,0,0,0,-1,1294,1037,0,0
77,-13,0,0,0,0,0,0,0,0,0,-1,1301,1037,0,0
84,-13,0,0,0,0,0,0,0,0,0,-1,1308,1037,0,0
91,-13,0,0,0,0,0,0,0,0,0,-1,1315,1037,0,0
98,-13,0,0,0,0,0,0,0,0,0,-1,1322,1037,0,0
105,-13,0,0,0,0,0,0,0,0,0,-1,1329,1037,0,0
112,-13,0,0,0,0,0,0,0,0,0,-1,1336,1037,0,0
119,-13,0,0,0,0,0,0,0,0,0,-1,1343,1037,0,0
126,-13,0,0,0,0,0,0,0,0,0,-1,1350,1037,0,0
133,-13,0,0,0,0,0,0,0,0,0,-1,1357,1037,0,0
140,-13,0,0,0,0,0,0,0,0,0,-1,1364,1037,0,0
147,-13,0,0,0,0,0,0,0,0,0,-1,1371,1037,0,0
154,-13,0,0,0,0,0,0,0,0,0,-1,1378,1037,0,0
161,-13,0,0,0,0,0,0,0,0,0,-1,1385,1037,0,0
168,-13,0,0,0,0,0,0,0,0,0,-1,1392,1037,0,0
175,-13,0,0,0,0,0,0,0,0,0,-1,1399,1037,0,0
182,-13,0,0,0,0,0,0,0,0,0,-1,1406,1037,0,0
189,-13,0,0,0,0,0,0,0,0,0,-1,1413,1037,0,0
196,-13,0,0,0,0,0,0,0,0,0,-1,1420,1037,0,0
203,-13,0,0,0,0,0,0,0,0,0,-1,1427,1037,0,0
210,-13,0,0,0,0,0,0,0,0,0,-1,1434,1037,0,0
217,-13,0,0,0,0,0,0,0,0,0,-1,1441,1037,0,0
224,-13,0,0,0,0,0,0,0,0,0,-1,1448,1037,0,0
231,-13,0,0,0,0,0,0,0,0,0,-1,1455,1037,0,0
238,-13,0,0,0,0,0,0,0,0,0,-1,1462,1037,0,0
245,-13,0,0,0,0,0,0,0,0,0,-1,1469,1037,0,0
252,-13,0,0,0,0,0,0,0,0,0,-1,1476,1037,0,0
259,-13,0,0,0,0,0,0,0,0,0,-1,1483,1037,0,0
266,-13,0,0,0,0,0,0,0,0,0,-1,1490,1037,0,0
273,-13,0,0,0,0,0,0,0,0,0,-1,1497,1037,0,0
280,-13,0,0,0,0,0,0,0,0,0,-1,1504,1037,0,0
287,-13,0,0,0,0,0,0,0,0,0,-1,1511,1037,0,0
294,-13,0,0,0,0,0,0,0,0,0,-1,1518,1037,0,0
301,-13,0,0,0,0,0,0,0,0,0,-1,1525,1037,0,0
308,-13,0,0,0,0,0,0,0,0,0,-1,1532,1037,0,0
315,-13,0,0,0,0,0,0,0,0,0,-1,1539,1037,0,0
322,-13,0,0,0,0,0,0,0,0,0,-1,1546,1037,0,0
329,-13,0,0,0,0,0,0,0,0,0,-1,1553,1037,0,0
336,-13,0,0,0,0,0,0,0,0,0,-1,1560,1037,0,0
343,-13,0,0,0,0,0,0,0,0,0,-1,1567,1037,0,0
350,-13,0,0,0,0,0,0,0,0,0,-1,1574,1037,0,0
357,-13,0,0,0,0,0,0,0,0,0,-1,1581,1037,0,0
364,-13,0,0,0,0,0,0,0,0,0,-1,1588,1037,0,0
371,-13,0,0,0,0,0,0,0,0,0,-1,1595,1037,0,0
378,-13,0,0,0,0,0,0,0,0,0,-1,1602,1037,0,0
385,-13,0,0,0,0,0,0,0,0,0,-1,1609,1037,0,0
392,-13,0,0,0,0,0,0,0,0,0,-1,1616,1037,0,0
399,-13,0,0,0,0,0,0,0,0,0,-1,1623,1037,0,0
406,-13,0,0,0,0,0,0,0,0,0,-1,1630,1037,0,0
413,-13,0,0,0,0,0,0,0,0,0,-1,1637,1037,0,0
420,-13,0,0,0,0,0,0,0,0,0,-1,1644,1037,0,0
427,-13,0,0,0,0,0,0,0,0,0,-1,1651,1037,0,0
434,-13,0,0,0,0,0,0,0,0,0,-1,1658,1037,0,0
441,-13,0,0,0,0,0,0,0,0,0,-1,1665,1037,0,0
448,-13,0,0,0,0,0,0,0,0,0,-1,1672,1037,0,0
455,-13,0,0,0,0,0,0,0,0,0,-1,1679,1037,0,0
462,-13,0,0,0,0,0,0,0,0,0,-1,1686,1037,0,0
469,-13,0,0,0,0,0,0,0,0,0,-1,1693,1037,0,0
476,-13,0,0,0,0,0,0,0,0,0,-1,1700,1037,0,0
483,-13,0,0,0,0,0,0,0,0,0,-1,1707,1037,0,0
490,-13,0,0,0,0,0,0,0,0,0,-1,1714,1037,0,0
497,-13,0,0,0,0,0,0,0,0,0,-1,1721,1037,0,0
504,-13,0,0,0,0,0,0,0,0,0,-1,1728,1037,0,0
511,-13,0,0,0,0,0,0,0,0,0,-1,1735,1037,0,0
518,-13,0,0,0,0,0,0,0,0,0,-1,1742,1037,0,0
525,-13,0,0,0,0,0,0,0,0,0,-1,1749,1037,0,0
532,-13,0,0,0,0,0,0,0,0,0,-1,1756,1037,0,0
539,-13,0,0,0,0,0,0,0,0,0,-1,1763,1037,0,0
546,-13,0,0,0,0,0,0,0,0,0,-1,1770,1037,0,0
553,-13,0,0,0,0,0,0,0,0,0,-1,1777,1037,0,0
560,-13,0,0,0,0,0,0,0,0,0,-1,1784,1037,0,0
567,-13,0,0,0,0,0,0,0,0,0,-1,1791,1037,0,0
574,-13,0,0,0,0,0,0,0,0,0,-1,1798,1037,0,0
581,-13,0,0,0,0,0,0,0,0,0,-1,1805,1037,0,0
588,-13,0,0,0,0,0,0,0,0,0,-1,1812,1037,0,0
595,-13,0,0,0,0,0,0,0,0,0,-1,1819,1037,0,0
602,-13,0,0,0,0,0,0,0,0,0,-1,1826,1037,0,0
609,-13,0,0,0,0,0,0,0,0,0,-1,1833,1037,0,0
616,-13,0,0,0,0,0,0,0,0,0,-1,1840,1037,0,0
623,-13,0,0,0,0,0,0,0,0,0,-1,1847,1037,0,0
630,-13,0,0,0,0,0,0,0,0,0,-1,1854,1037,0,0
637,-13,0,0,0,0,0,0,0,0,0,-1,1861,1037,0,0
644,-13,0,0,0,0,0,0,0,0,0,-1,1868,1037,0,0
651,-13,-0.0898438,0.24939,-0.00233138,-0.00192773,-0.00140134,-0.000713752,-0.00354536,-0.856919,0.00216523,0.0351284,1875,1037,-0.0898928,-0.249334
658,-13,-0.125366,0.239136,-0.00149884,-0.00167056,-0.00110125,-0.000480114,-0.00268929,-0.746494,0.00165618,0.0408721,1882,1037,-0.125367,-0.239159
665,-13,-0.0302734,0.0799561,-0.00085566,-0.0014436,-0.000835525,-0.000263898,-0.00203536,-0.616243,0.00127806,0.0399167,1889,1037,-0.030276,-0.0799408
672,-13,-0.0252686,0.0098877,-0.000352142,-0.00124951,-0.000587805,-6.13452e-05,-0.00154031,-0.459412,0.00100705,0.0337814,1896,1037,-0.0253144,-0.00983459
679,-13,-0.103271,-0.0146484,-1.07757e-05,-0.00108203,-0.000373446,0.000106559,-0.00119936,-0.304427,0.000837357,0.0327661,1903,1037,-0.103276,0.0146276
686,-13,-0.0888672,0.0292969,0.000208373,-0.000932386,-0.000197882,0.000241723,-0.000965737,-0.166969,0.00073772,0.033662,1910,1037,-0.0888743,-0.0293456
693,-13,-0.0842285,0.0651855,0.000337538,-0.000795187,-6.40414e-05,0.000341147,-0.000798796,-0.0562983,0.000675595,0.0340342,1917,1037,-0.0841683,-0.0651552
700,-13,-0.0620117,0.0123291,0.000427063,-0.00062985,5.93896e-05,0.00043039,-0.000633177,0.0559567,0.00061776,0.0303565,1924,1037,-0.061991,-0.012279
707,-13,-0.0358887,-0.0214844,0.000481046,-0.000553066,0.000118105,0.000494364,-0.000566383,0.112283,0.000612893,0.0235022,1931,1037,-0.0359329,0.0214534
714,-13,-0.0200195,0.0397949,0.000460129,-0.000461311,0.000123751,0.000476459,-0.000477641,0.131205,0.00055085,0.0161865,1938,1037,-0.0200503,-0.0397938
721,-13,-0.024292,0.0710449,0.000400065,-0.000352961,0.000150146,0.000428899,-0.000381795,0.189728,0.000468318,0.0129936,1945,1037,-0.0243108,-0.0710051
728,-13,-0.0297852,0.0493164,0.000306037,-0.000263607,0.000214959,0.00037805,-0.00033562,0.323256,0.00041228,0.0140129,1952,1037,-0.0298391,-0.0492998
735,-13,-0.0180664,0.0377197,0.000157445,-0.000162412,0.000352544,0.00038464,-0.000389607,0.572459,0.000447015,0.0166799,1959,1037,-0.0180387,-0.0377673
742,-13,-0.0166016,0.0445557,-0.000178934,-0.000102814,0.000528131,0.000388627,-0.000670375,0.821369,0.000618586,0.00960919,1966,1037,-0.016566,-0.0445431
749,-13,-0.0284424,0.0478516,2.53341e-06,-0.000586892,0.000490911,0.000280402,-0.00086476,0.515064,0.000689256,0.0143933,1973,1037,-0.028447,-0.0478083
756,-13,-0.0155029,0.0388184,0.000638585,-0.00053742,0.000781309,0.00102843,-0.000927268,0.462821,0.00112963,0.012142,1980,1037,-0.0155208,-0.0387748
763,-13,-0.0169678,0.0389404,0.00143997,-0.000886321,0.000794346,0.00168533,-0.00113168,0.299588,0.00163684,0.00914262,1987,1037,-0.0170063,-0.0389118
770,-13,-0.024292,0.0523682,0.00235789,-0.00126604,0.000939898,0.00258715,-0.0014953,0.239255,0.00238494,0.00831368,1994,1037,-0.0243386,-0.052361
777,-13,-0.0424805,0.0723877,0.00374725,-0.00175375,0.00106149,0.00394497,-0.00195147,0.184158,0.00346856,0.0110785,2001,1037,-0.0425407,-0.0724363
784,-13,-0.0142822,0.0761719,0.00570618,-0.0023485,0.00112214,0.00585958,-0.0025019,0.135869,0.00495555,0.0261485,2008,1037,-0.0142709,-0.0761692
791,-13,-0.161377,0.324097,0,0,0,0,0,0,0,-1,2015,1037,-0.161328,-0.324044
798,-13,-0.351074,0.685181,0.011961,-0.00376724,0.000864495,0.0120083,-0.00381462,0.0547448,0.00953494,0.0452678,2022,1037,-0.351017,-0.685158
805,-13,0.311768,1.13184,0.0167033,-0.00450745,0.000412378,0.0167113,-0.00451546,0.0194322,0.0129119,0.04126,2029,1037,0.311801,-1.13178
812,-13,0.481079,1.83813,0,0,0,0,0,0,0,-1,2036,1037,0.481104,-1.83808
-700,-20,0.675903,1.99146,-0.0096281,-0.0300516,-0.0704812,0.0513772,-0.0910569,-0.713456,0.0832913,0.0482789,524,1044,0.675884,-1.99149
-693,-20,0.376099,1.56531,-0.00756227,-0.0121351,-0.0565269,0.0467245,-0.0664219,-0.765185,0.0656542,0.0426062,531,1044,0.37608,-1.56532
-686,-20,0.193054,1.08447,-0.00535885,-0.0010583,-0.0442177,0.0410613,-0.0474785,-0.809694,0.0511632,0.0437953,538,1044,0.193065,-1.08446
-679,-20,-0.578979,-2.36096,-0.00339329,0.00552308,-0.0336197,0.0349789,-0.0328492,-0.851317,0.039167,0.046978,545,1044,-0.578997,2.36092
-672,-20,-0.442932,-1.82764,0,0,0,0,0,0,0,-1,552,1044,-0.442907,1.82763
-665,-20,-0.348267,-1.27368,-0.000500758,0.0102514,-0.0174541,0.0231386,-0.013388,-0.934793,0.0213376,0.0439257,559,1044,-0.348271,1.2737
-658,-20,-0.261108,-0.930298,0.000430877,0.0100487,-0.0117684,0.0179529,-0.00747323,-0.97936,0.0150897,0.0453218,566,1044,-0.261126,0.930341
-651,-20,-0.13739,-0.101807,0.00102019,0.00894176,-0.00750218,0.0134645,-0.00350258,-1.02828,0.0103435,0.0388896,573,1044,-0.137403,0.101762
-644,-20,-0.0238647,0.0367432,0.00125783,0.00787186,-0.00432294,0.0100077,-0.00087796,-1.11191,0.00698284,0.0254276,580,1044,-0.0238518,-0.0367993
-637,-20,-0.0342407,0.0393066,0.00127631,0.00693203,-0.00170067,0.00740403,0.000804309,-1.30007,0.00469096,0.0152042,587,1044,-0.0342395,-0.0393233
-630,-20,-0.0446167,0.0742188,0.00158647,0.00492757,-2.09378e-05,0.0049277,0.00158634,-1.56453,0.00290453,0.0125702,594,1044,-0.0445997,-0.0742174
-623,-20,-0.0457764,0.0759277,0.00151752,0.00382028,0.000907644,0.00413502,0.00120278,1.23701,0.00245597,0.0117387,601,1044,-0.0457535,-0.0759135
-616,-20,-0.0372925,0.074585,0.00108163,0.00166268,0.00104427,0.00245608,0.000288223,0.921072,0.00155027,0.0121317,608,1044,-0.0372933,-0.0746354
-609,-20,-0.0220947,0.0773926,0.000711009,8.62262e-05,0.000587206,0.00106375,-0.000266513,0.54094,0.000812703,0.0146429,615,1044,-0.0221103,-0.0773746
-602,-20,-0.0169678,0.0595703,0.000369572,7.68914e-05,0.000232428,0.000497892,-5.14282e-05,0.504442,0.000350331,0.0110106,622,1044,-0.0169724,-0.0595976
-595,-20,-0.0196533,0.0594482,0.000147803,7.81794e-05,2.48505e-05,0.000155763,7.02196e-05,0.30998,9.00749e-05,0.0092012,629,1044,-0.0196486,-0.0594693
-588,-20,-0.0136719,0.0609131,6.22538e-05,9.31771e-05,-9.79646e-05,0.000176893,-2.14618e-05,-0.863667,0.000125695,0.0102109,636,1044,-0.0136793,-0.0608761
-581,-20,-0.0351563,0.0987549,3.22717e-05,0.000117844,-0.000285892,0.000364134,-0.000214018,-0.859676,0.000337526,0.0185352,643,1044,-0.0351854,-0.0987033
-574,-20,-0.0725708,0.23645,2.05647e-05,0.000132961,-0.000519421,0.000599215,-0.000445689,-0.839285,0.000605442,0.035097,650,1044,-0.0725532,-0.236394
-567,-20,-0.0980225,0.334595,-3.24549e-05,0.000154992,-0.000815311,0.000881949,-0.000759412,-0.842624,0.00094852,0.0408384,657,1044,-0.0980427,-0.334607
-560,-20,-0.00830078,0.284668,-0.000130455,0.000184513,-0.00119209,0.00122948,-0.00117542,-0.851072,0.00138858,0.0423588,664,1044,-0.00828117,-0.284623
-553,-20,0.0714722,0.160278,-0.000266158,0.000233827,-0.0016575,0.00166008,-0.00169241,-0.860246,0.0019356,0.0414108,671,1044,0.0714995,-0.160227
-546,-20,-0.00897217,-0.0412598,-0.000484631,0.000325445,-0.00220474,0.00216205,-0.00232123,-0.876241,0.00258897,0.0368767,678,1044,-0.0089587,0.0412031
-539,-20,-0.065918,-0.109985,-0.000813527,0.000477398,-0.00281414,0.00271915,-0.00305528,-0.89813,0.00333575,0.0372563,685,1044,-0.0659367,0.109966
-532,-20,-0.0627441,-0.117188,-0.00137443,0.000704453,-0.0034563,0.00327423,-0.00394421,-0.931465,0.00417355,0.0373485,692,1044,-0.0627738,0.117197
-525,-20,0,0,0,0,0,0,0,0,0,-1,699,1044,0,0
-518,-20,0,0,0,0,0,0,0,0,0,-1,706,1044,0,0
-511,-20,0,0,0,0,0,0,0,0,0,-1,713,1044,0,0
-504,-20,0,0,0,0,0,0,0,0,0,-1,720,1044,0,0
-497,-20,0,0,0,0,0,0,0,0,0,-1,727,1044,0,0
-490,-20,0,0,0,0,0,0,0,0,0,-1,734,1044,0,0
-483,-20,0,0,0,0,0,0,0,0,0,-1,741,1044,0,0
-476,-20,0,0,0,0,0,0,0,0,0,-1,748,1044,0,0
-469,-20,0,0,0,0,0,0,0,0,0,-1,755,1044,0,0
-462,-20,0,0,0,0,0,0,0,0,0,-1,762,1044,0,0
-455,-20,0,0,0,0,0,0,0,0,0,-1,769,1044,0,0
-448,-20,0,0,0,0,0,0,0,0,0,-1,776,1044,0,0
-441,-20,0,0,0,0,0,0,0,0,0,-1,783,1044,0,0
-434,-20,0,0,0,0,0,0,0,0,0,-1,790,1044,0,0
-427,-20,0,0,0,0,0,0,0,0,0,-1,797,1044,0,0
-420,-20,0,0,0,0,0,0,0,0,0,-1,804,1044,0,0
-413,-20,0,0,0,0,0,0,0,0,0,-1,811,1044,0,0
-406,-20,0,0,0,0,0,0,0,0,0,-1,818,1044,0,0
-399,-20,0,0,0,0,0,0,0,0,0,-1,825,1044,0,0
-392,-20,0,0,0,0,0,0,0,0,0,-1,832,1044,0,0
-385,-20,0,0,0,0,0,0,0,0,0,-1,839,1044,0,0
-378,-20,0,0,0,0,0,0,0,0,0,-1,846,1044,0,0
-371,-20,0,0,0,0,0,0,0,0,0,-1,853,1044,0,0
-364,-20,0,0,0,0,0,0,0,0,0,-1,860,1044,0,0
-357,-20,0,0,0,0,0,0,0,0,0,-1,867,1044,0,0
-350,-20,0,0,0,0,0,0,0,0,0,-1,874,1044,0,0
-343,-20,0,0,0,0,0,0,0,0,0,-1,881,1044,0,0
-336,-20,0,0,0,0,0,0,0,0,0,-1,888,1044,0,0
-329,-20,0,0,0,0,0,0,0,0,0,-1,895,1044,0,0
-322,-20,0,0,0,0,0,0,0,0,0,-1,902,1044,0,0
-315,-20,0,0,0,0,0,0,0,0,0,-1,909,1044,0,0
-308,-20,0,0,0,0,0,0,0,0,0,-1,916,1044,0,0
-301,-20,0,0,0,0,0,0,0,0,0,-1,923,1044,0,0
-294,-20,0,0,0,0,0,0,0,0,0,-1,930,1044,0,0
-287,-20,0,0,0,0,0,0,0,0,0,-1,937,1044,0,0
-280,-20,0,0,0,0,0,0,0,0,0,-1,944,1044,0,0
-273,-20,0,0,0,0,0,0,0,0,0,-1,951,1044,0,0
-266,-20,0,0,0,0,0,0,0,0,0,-1,958,1044,0,0
-259,-20,0,0,0,0,0,0,0,0,0,-1,965,1044,0,0
-252,-20,0,0,0,0,0,0,0,0,0,-1,972,1044,0,0
-245,-20,0,0,0,0,0,0,0,0,0,-1,979,1044,0,0
-238,-20,0,0,0,0,0,0,0,0,0,-1,986,1044,0,0
-231,-20,0,0,0,0,0,0,0,0,0,-1,993,1044,0,0
-224,-20,0,0,0,0,0,0,0,0,0,-1,1000,1044,0,0
-217,-20,0,0,0,0,0,0,0,0,0,-1,1007,1044,0,0
-210,-20,0,0,0,0,0,0,0,0,0,-1,1014,1044,0,0
-203,-20,0,0,0,0,0,0,0,0,0,-1,1021,1044,0,0
-196,-20,0,0,0,0,0,0,0,0,0,-1,1028,1044,0,0
-189,-20,0,0,0,0,0,0,0,0,0,-1,1035,1044,0,0
-182,-20,0,0,0,0,0,0,0,0,0,-1,1042,1044,0,0
-175,-20,0,0,0,0,0,0,0,0,0,-1,1049,1044,0,0
-168,-20,0,0,0,0,0,0,0,0,0,-1,1056,1044,0,0
-161,-20,0,0,0,0,0,0,0,0,0,-1,1063,1044,0,0
-154,-20,0,0,0,0,0,0,0,0,0,-1,1070,1044,0,0
-147,-20,0,0,0,0,0,0,0,0,0,-1,1077,1044,0,0
-140,-20,0,0,0,0,0,0,0,0,0,-1,1084,1044,0,0
-133,-20,0,0,0,0,0,0,0,0,0,-1,1091,1044,0,0
-126,-20,0,0,0,0,0,0,0,0,0,-1,1098,1044,0,0
-119,-20,0,0,0,0,0,0,0,0,0,-1,1105,1044,0,0
-112,-20,0,0,0,0,0,0,0,0,0,-1,1112,1044,0,0
-105,-20,0,0,0,0,0,0,0,0,0,-1,1119,1044,0,0
-98,-20,0,0,0,0,0,0,0,0,0,-1,1126,1044,0,0
-91,-20,0,0,0,0,0,0,0,0,0,-1,1133,1044,0,0
-84,-20,0,0,0,0,0,0,0,0,0,-1,1140,1044,0,0
-77,-20,0,0,0,0,0,0,0,0,0,-1,1147,1044,0,0
-70,-20,0,0,0,0,0,0,0,0,0,-1,1154,1044,0,0
-63,-20,0,0,0,0,0,0,0,0,0,-1,1161,1044,0,0
-56,-20,0,0,0,0,0,0,0,0,0,-1,1168,1044,0,0
-49,-20,0,0,0,0,0,0,0,0,0,-1,1175,1044,0,0
-42,-20,0,0,0,0,0,0,0,0,0,-1,1182,1044,0,0
-35,-20,0,0,0,0,0,0,0,0,0,-1,1189,1044,0,0
-28,-20,0,0,0,0,0,0,0,0,0,-1,1196,1044,0,0
-21,-20,0,0,0,0,0,0,0,0,0,-1,1203,1044,0,0
-14,-20,0,0,0,0,0,0,0,0,0,-1,1210,1044,0,0
-7,-20,0,0,0,0,0,0,0,0,0,-1,1217,1044,0,0
0,-20,0,0,0,0,0,0,0,0,0,-1,1224,1044,0,0
7,-20,0,0,0,0,0,0,0,0,0,-1,1231,1044,0,0
14,-20,0,0,0,0,0,0,0,0,0,-1,1238,1044,0,0
21,-20,0,0,0,0,0,0,0,0,0,-1,1245,1044,0,0
28,-20,0,0,0,0,0,0,0,0,0,-1,1252,1044,0,0
35,-20,0,0,0,0,0,0,0,0,0,-1,1259,1044,0,0
42,-20,0,0,0,0,0,0,0,0,0,-1,1266,1044,0,0
49,-20,0,0,0,0,0,0,0,0,0,-1,1273,1044,0,0
56,-20,0,0,0,0,0,0,0,0,0,-1,1280,1044,0,0
63,-20,0,0,0,0,0,0,0,0,0,-1,1287,1044,0,0
70,-20,0,0,0,0,0,0,0,0,0,-1,1294,1044,0,0
77,-20,0,0,0,0,0,0,0,0,0,-1,1301,1044,0,0
84,-20,0,0,0,0,0,0,0,0,0,-1,1308,1044,0,0
91,-20,0,0,0,0,0,0,0,0,0,-1,1315,1044,0,0
98,-20,0,0,0,0,0,0,0,0,0,-1,1322,1044,0,0
105,-20,0,0,0,0,0,0,0,0,0,-1,1329,1044,0,0
112,-20,0,0,0,0,0,0,0,0,0,-1,1336,1044,0,0
119,-20,0,0,0,0,0,0,0,0,0,-1,1343,1044,0,0
126,-20,0,0,0,0,0,0,0,0,0,-1,1350,1044,0,0
133,-20,0,0,0,0,0,0,0,0,0,-1,1357,1044,0,0
140,-20,0,0,0,0,0,0,0,0,0,-1,1364,1044,0,0
147,-20,0,0,0,0,0,0,0,0,0,-1,1371,1044,0,0
154,-20,0,0,0,0,0,0,0,0,0,-1,1378,1044,0,0
161,-20,0,0,0,0,0,0,0,0,0,-1,1385,1044,0,0
168,-20,0,0,0,0,0,0,0,0,0,-1,1392,1044,0,0
175,-20,0,0,0,0,0,0,0,0,0,-1,1399,1044,0,0
182,-20,0,0,0,0,0,0,0,0,0,-1,1406,1044,0,0
189,-20,0,0,0,0,0,0,0,0,0,-1,1413,1044,0,0
196,-20,0,0,0,0,0,0,0,0,0,-1,1420,1044,0,0
203,-20,0,0,0,0,0,0,0,0,0,-1,1427,1044,0,0
210,-20,0,0,0,0,0,0,0,0,0,-1,1434,1044,0,0
217,-20,0,0,0,0,0,0,0,0,0,-1,1441,1044,0,0
224,-20,0,0,0,0,0,0,0,0,0,-1,1448,1044,0,0
231,-20,0,0,0,0,0,0,0,0,0,-1,1455,1044,0,0
238,-20,0,0,0,0,0,0,0,0,0,-1,1462,1044,0,0
245,-20,0,0,0,0,0,0,0,0,0,-1,1469,1044,0,0
252,-20,0,0,0,0,0,0,0,0,0,-1,1476,1044,0,0
259,-20,0,0,0,0,0,0,0,0,0,-1,1483,1044,0,0
266,-20,0,0,0,0,0,0,0,0,0,-1,1490,1044,0,0
273,-20,0,0,0,0,0,0,0,0,0,-1,1497,1044,0,0
280,-20,0,0,0,0,0,0,0,0,0,-1,1504,1044,0,0
287,-20,0,0,0,0,0,0,0,0,0,-1,1511,1044,0,0
294,-20,0,0,0,0,0,0,0,0,0,-1,1518,1044,0,0
301,-20,0,0,0,0,0,0,0,0,0,-1,1525,1044,0,0
308,-20,0,0,0,0,0,0,0,0,0,-1,1532,1044,0,0
315,-20,0,0,0,0,0,0,0,0,0,-1,1539,1044,0,0
322,-20,0,0,0,0,0,0,0,0,0,-1,1546,1044,0,0
329,-20,0,0,0,0,0,0,0,0,0,-1,1553,1044,0,0
336,-20,0,0,0,0,0,0,0,0,0,-1,1560,1044,0,0
343,-20,0,0,0,0,0,0,0,0,0,-1,1567,1044,0,0
350,-20,0,0,0,0,0,0,0,0,0,-1,1574,1044,0,0
357,-20,0,0,0,0,0,0,0,0,0,-1,1581,1044,0,0
364,-20,0,0,0,0,0,0,0,0,0,-1,1588,1044,0,0
371,-20,0,0,0,0,0,0,0,0,0,-1,1595,1044,0,0
378,-20,0,0,0,0,0,0,0,0,0,-1,1602,1044,0,0
385,-20,0,0,0,0,0,0,0,0,0,-1,1609,1044,0,0
392,-20,0,0,0,0,0,0,0,0,0,-1,1616,1044,0,0
399,-20,0,0,0,0,0,0,0,0,0,-1,1623,1044,0,0
406,-20,0,0,0,0,0,0,0,0,0,-1,1630,1044,0,0
413,-20,0,0,0,0,0,0,0,0,0,-1,1637,1044,0,0
420,-20,0,0,0,0,0,0,0,0,0,-1,1644,1044,0,0
427,-20,0,0,0,0,0,0,0,0,0,-1,1651,1044,0,0
434,-20,0,0,0,0,0,0,0,0,0,-1,1658,1044,0,0
441,-20,0,0,0,0,0,0,0,0,0,-1,1665,1044,0,0
448,-20,0,0,0,0,0,0,0,0,0,-1,1672,1044,0,0
455,-20,0,0,0,0,0,0,0,0,0,-1,1679,1044,0,0
462,-20,0,0,0,0,0,0,0,0,0,-1,1686,1044,0,0
469,-20,0,0,0,0,0,0,0,0,0,-1,1693,1044,0,0
476,-20,0,0,0,0,0,0,0,0,0,-1,1700,1044,0,0
483,-20,0,0,0,0,0,0,0,0,0,-1,1707,1044,0,0
490,-20,0,0,0,0,0,0,0,0,0,-1,1714,1044,0,0
497,-20,0,0,0,0,0,0,0,0,0,-1,1721,1044,0,0
504,-20,0,0,0,0,0,0,0,0,0,-1,1728,1044,0,0
511,-20,0,0,0,0,0,0,0,0,0,-1,1735,1044,0,0
518,-20,0,0,0,0,0,0,0,0,0,-1,1742,1044,0,0
525,-20,0,0,0,0,0,0,0,0,0,-1,1749,1044,0,0
532,-20,0,0,0,0,0,0,0,0,0,-1,1756,1044,0,0
539,-20,0,0,0,0,0,0,0,0,0,-1,1763,1044,0,0
546,-20,0,0,0,0,0,0,0,0,0,-1,1770,1044,0,0
553,-20,0,0,0,0,0,0,0,0,0,-1,1777,1044,0,0
560,-20,0,0,0,0,0,0,0,0,0,-1,1784,1044,0,0
567,-20,0,0,0,0,0,0,0,0,0,-1,1791,1044,0,0
574,-20,0,0,0,0,0,0,0,0,0,-1,1798,1044,0,0
581,-20,0,0,0,0,0,0,0,0,0,-1,1805,1044,0,0
588,-20,0,0,0,0,0,0,0,0,0,-1,1812,1044,0,0
595,-20,0,0,0,0,0,0,0,0,0,-1,1819,1044,0,0
602,-20,0,0,0,0,0,0,0,0,0,-1,1826,1044,0,0
609,-20,0,0,0,0,0,0,0,0,0,-1,1833,1044,0,0
616,-20,0,0,0,0,0,0,0,0,0,-1,1840,1044,0,0
623,-20,0,0,0,0,0,0,0,0,0,-1,1847,1044,0,0
630,-20,0,0,0,0,0,0,0,0,0,-1,1854,1044,0,0
637,-20,0,0,0,0,0,0,0,0,0,-1,1861,1044,0,0
644,-20,0,0,0,0,0,0,0,0,0,-1,1868,1044,0,0
651,-20,-0.0323486,0.189575,-0.00278604,-0.00161426,-0.000965252,-0.001071,-0.0033293,-1.05817,0.00196249,0.0370792,1875,1044,-0.0323003,-0.189544
658,-20,-0.0812988,0.146973,-0.00187846,-0.00139674,-0.000853555,-0.00075071,-0.00252449,-0.922914,0.00149688,0.03816,1882,1044,-0.0813577,-0.14698
665,-20,-0.0367432,0.142456,-0.00116021,-0.00121717,-0.000722863,-0.000465267,-0.00191211,-0.765711,0.00115143,0.0354289,1889,1044,-0.0367234,-0.14251
672,-20,0.00561523,0.101318,-0.000590543,-0.0010714,-0.000560441,-0.000221136,-0.00144081,-0.582771,0.000895971,0.02376,1896,1044,0.00555937,-0.101342
679,-20,0.0179443,0.032959,-0.0001947,-0.000945424,-0.000398974,-2.22697e-05,-0.00111785,-0.407941,0.000737925,0.0259909,1903,1044,0.0179228,-0.0329932
686,-20,-0.0423584,0.0419922,6.91924e-05,-0.000829704,-0.000254172,0.000136084,-0.000896595,-0.25734,0.000647873,0.0326386,1910,1044,-0.0423426,-0.0419556
693,-20,-0.0405273,-0.00964355,0.000237377,-0.00072052,-0.000135988,0.000256308,-0.000739451,-0.138325,0.000597033,0.0359455,1917,1044,-0.0404854,0.00968703
700,-20,0.00561523,-0.0144043,0.000351908,-0.000579618,-2.10887e-05,0.000352385,-0.000580095,-0.0226234,0.000543692,0.032217,1924,1044,0.00562837,0.0144477
707,-20,0.00146484,-0.00585938,0.000431474,-0.000516505,3.06751e-05,0.000432466,-0.000517496,0.0323134,0.000549192,0.0226135,1931,1044,0.00147224,0.00589905
714,-20,-0.0155029,0.0229492,0.000441736,-0.000431572,4.30363e-05,0.000443852,-0.000433688,0.0491209,0.000506659,0.0136614,1938,1044,-0.0154507,-0.0229455
721,-20,-0.0294189,0.0568848,0.000393183,-0.000331043,8.4601e-05,0.000402934,-0.000340794,0.114757,0.000429891,0.00917995,1945,1044,-0.0293713,-0.0568414
728,-20,-0.0366211,0.0631104,0.000291208,-0.000241896,0.000167509,0.000339472,-0.000290161,0.28053,0.00036389,0.0110075,1952,1044,-0.0366437,-0.0631402
735,-20,-0.0159912,0.069458,0.000144266,-0.000132979,0.000339491,0.000372345,-0.000361058,0.591567,0.000423447,0.014682,1959,1044,-0.0159635,-0.069503
742,-20,-0.0137939,0.057373,-7.43507e-05,-7.37165e-06,0.000659805,0.000619793,-0.000701515,0.810755,0.000763344,0.0129711,1966,1044,-0.0138367,-0.0573181
749,-20,-0.0245361,0.0386963,0.000272829,-0.000371052,0.000862992,0.000871975,-0.000970198,0.606867,0.00106408,0.0142336,1973,1044,-0.0245102,-0.0386797
756,-20,-0.0100098,0.036499,0.00109387,-0.000161803,0.00153074,0.00212053,-0.00118846,0.590784,0.00193554,0.0111728,1980,1044,-0.00998756,-0.0365558
763,-20,-0.00256348,0.0279541,0.00216306,-0.000370733,0.00199136,0.00325636,-0.00146403,0.502092,0.00279004,0.0103761,1987,1044,-0.0026145,-0.0279819
770,-20,-0.0213623,0.0424805,0.00341259,-0.000551801,0.00267568,0.00476031,-0.00189952,0.466598,0.00396154,0.0101488,1994,1044,-0.021397,-0.0424956
777,-20,-0.0455322,0.0773926,0.00522578,-0.000800905,0.00348188,0.00681718,-0.00239231,0.428705,0.00551789,0.0113708,2001,1044,-0.0455912,-0.0773697
784,-20,-0.0460205,0.0765381,0.00770195,-0.00111541,0.00437336,0.00950316,-0.00291662,0.390688,0.00749915,0.0164565,2008,1044,-0.046013,-0.076479
791,-20,0.197632,0.450684,0,0,0,0,0,0,0,-1,2015,1044,0.197671,-0.450671
798,-20,0.151489,0.975098,0.0152334,-0.00188722,0.00617198,0.0172264,-0.00388021,0.312341,0.0129725,0.0432055,2022,1044,0.151516,-0.975038
805,-20,0.440186,1.5625,0.0206825,-0.00230223,0.00690332,0.0225965,-0.00421622,0.270463,0.0166486,0.0443103,2029,1044,0.440243,-1.56248
812,-20,0.79895,2.1355,0.0275287,-0.00270129,0.00728688,0.0291935,-0.0043661,0.224611,0.021069,0.046498,2036,1044,0.798974,-2.13553
-700,-27,0.996399,2.4054,0,0,0,0,0,0,0,-1,524,1051,0.996405,-2.40539
-693,-27,0.90625,1.96301,0,0,0,0,0,0,0,-1,531,1051,0.906222,-1.96307
-686,-27,0.557861,1.37866,-0.00702455,-0.00322922,-0.0413214,0.0362381,-0.0464919,-0.808344,0.0478863,0.044983,538,1051,0.557873,-1.37868
-679,-27,0.0905151,1.00293,-0.00542888,0.00328081,-0.0311748,0.0304034,-0.0325515,-0.854795,0.0363541,0.0449052,545,1051,0.0904975,-1.00288
-672,-27,-0.394958,-1.93445,0,0,0,0,0,0,0,-1,552,1051,-0.394959,1.93446
-665,-27,-0.23407,-1.8988,-0.00241944,0.00841714,-0.0159,0.0197967,-0.013799,-0.949614,0.0194992,0.0494079,559,1051,-0.234068,1.89878
-658,-27,-0.100403,0.150269,-0.00123005,0.00852857,-0.0106047,0.0153226,-0.00802409,-1.00101,0.013697,0.044148,566,1051,-0.100424,-0.150265
-651,-27,-0.0518799,0.0375977,-0.000335207,0.00774165,-0.00666871,0.0114994,-0.00409297,-1.05765,0.00933466,0.0323395,573,1051,-0.0518784,-0.0375559
-644,-27,-0.0245972,0.0114746,0.00010631,0.00701191,-0.00370289,0.00862204,-0.00150382,-1.16063,0.00630933,0.013932,580,1051,-0.0245808,-0.0115053
-637,-27,-0.0187988,0.0117188,0.000393632,0.00611682,-0.00129246,0.00639516,0.000115295,-1.35868,0.00422553,0.011666,587,1051,-0.0187814,-0.0117698
-630,-27,-0.039856,0.0665283,0.000953558,0.00443091,0.000209725,0.00444351,0.000940955,1.51077,0.00270383,0.0163686,594,1051,-0.0398263,-0.0665513
-623,-27,-0.0490112,0.074585,0.00120108,0.00357032,0.00103505,0.0039588,0.000812598,1.21174,0.00241436,0.0153369,601,1051,-0.0489874,-0.0746189
-616,-27,-0.0266724,0.0611572,0.00098016,0.00158334,0.00104411,0.00236854,0.000194952,0.925995,0.00151822,0.0131422,608,1051,-0.0266432,-0.0611623
-609,-27,-0.0386963,0.0708008,0.000663933,0.000221533,0.000543323,0.00102936,-0.000143893,0.592082,0.000738888,0.0133348,615,1051,-0.0386884,-0.0707976
-602,-27,-0.0374146,0.0783691,0.000360842,0.000242613,0.000230055,0.000539256,6.41986e-05,0.65964,0.00034013,0.0111033,622,1051,-0.0374046,-0.0784295
-595,-27,-0.0162354,0.0666504,0.000140312,0.000255183,5.3987e-05,0.000276573,0.000118922,1.19357,0.0001602,0.00883906,629,1051,-0.0162149,-0.0666105
-588,-27,-0.020874,0.0672607,5.30164e-05,0.000280235,-7.06912e-05,0.000300433,3.28187e-05,-1.29249,0.000190295,0.011486,636,1051,-0.0208956,-0.0672655
-581,-27,-0.0311279,0.0700684,4.01767e-05,0.000297848,-0.000272149,0.000470116,-0.000132092,-1.00647,0.000365487,0.0177537,643,1051,-0.0311284,-0.0701194
-574,-27,0.00170898,0.0914307,4.70217e-05,0.000305256,-0.000513643,0.000705762,-0.000353484,-0.908534,0.000622728,0.0313199,650,1051,0.0016865,-0.0914776
-567,-27,-0.00299072,0.158936,1.65377e-05,0.000290367,-0.000826551,0.000991266,-0.000684362,-0.867476,0.000972818,0.0390043,657,1051,-0.00299616,-0.158898
-560,-27,0.0289917,0.270874,-4.74223e-05,0.000244964,-0.00123858,0.00134595,-0.00114841,-0.844143,0.00144162,0.0443415,664,1051,0.0289733,-0.27086
-553,-27,0.0956421,0.192627,-0.000141994,0.00017084,-0.00176777,0.0017891,-0.00176025,-0.829525,0.00204924,0.0415285,671,1051,0.0956124,-0.192635
-546,-27,0.0245972,0.0765381,-0.000315809,7.44285e-05,-0.00241732,0.0023045,-0.00254588,-0.825669,0.00280152,0.0397022,678,1051,0.0245689,-0.0765454
-539,-27,0.0235596,0.0771484,-0.00058201,-4.30801e-05,-0.00317596,0.00287483,-0.00349992,-0.827719,0.00368636,0.0404057,685,1051,0.0235293,-0.0771538
-532,-27,0.0664673,-0.041626,-0.00106519,-0.000183242,-0.00404403,0.00344379,-0.00469222,-0.839705,0.00471572,0.0398953,692,1051,0.0664656,0.0415858
-525,-27,0,0,0,0,0,0,0,0,0,-1,699,1051,0,0
-518,-27,0,0,0,0,0,0,0,0,0,-1,706,1051,0,0
-511,-27,0,0,0,0,0,0,0,0,0,-1,713,1051,0,0
-504,-27,0,0,0,0,0,0,0,0,0,-1,720,1051,0,0
-497,-27,0,0,0,0,0,0,0,0,0,-1,727,1051,0,0
-490,-27,0,0,0,0,0,0,0,0,0,-1,734,1051,0,0
-483,-27,0,0,0,0,0,0,0,0,0,-1,741,1051,0,0
-476,-27,0,0,0,0,0,0,0,0,0,-1,748,1051,0,0
-469,-27,0,0,0,0,0,0,0,0,0,-1,755,1051,0,0
-462,-27,0,0,0,0,0,0,0,0,0,-1,762,1051,0,0
-455,-27,0,0,0,0,0,0,0,0,0,-1,769,1051,0,0
-448,-27,0,0,0,0,0,0,0,0,0,-1,776,1051,0,0
-441,-27,0,0,0,0,0,0,0,0,0,-1,783,1051,0,0
-434,-27,0,0,0,0,0,0,0,0,0,-1,790,1051,0,0
-427,-27,0,0,0,0,0,0,0,0,0,-1,797,1051,0,0
-420,-27,0,0,0,0,0,0,0,0,0,-1,804,1051,0,0
-413,-27,0,0,0,0,0,0,0,0,0,-1,811,1051,0,0
-406,-27,0,0,0,0,0,0,0,0,0,-1,818,1051,0,0
-399,-27,0,0,0,0,0,0,0,0,0,-1,825,1051,0,0
-392,-27,0,0,0,0,0,0,0,0,0,-1,832,1051,0,0
-385,-27,0,0,0,0,0,0,0,0,0,-1,839,1051,0,0
-378,-27,0,0,0,0,0,0,0,0,0,-1,846,1051,0,0
-371,-27,0,0,0,0,0,0,0,0,0,-1,853,1051,0,0
-364,-27,0,0,0,0,0,0,0,0,0,-1,860,1051,0,0
-357,-27,0,0,0,0,0,0,0,0,0,-1,867,1051,0,0
-350,-27,0,0,0,0,0,0,0,0,0,-1,874,1051,0,0
-343,-27,0,0,0,0,0,0,0,0,0,-1,881,1051,0,0
-336,-27,0,0,0,0,0,0,0,0,0,-1,888,1051,0,0
-329,-27,0,0,0,0,0,0,0,0,0,-1,895,1051,0,0
-322,-27,0,0,0,0,0,0,0,0,0,-1,902,1051,0,0
-315,-27,0,0,0,0,0,0,0,0,0,-1,909,1051,0,0
-308,-27,0,0,0,0,0,0,0,0,0,-1,916,1051,0,0
-301,-27,0,0,0,0,0,0,0,0,0,-1,923,1051,0,0
-294,-27,0,0,0,0,0,0,0,0,0,-1,930,1051,0,0
-287,-27,0,0,0,0,0,0,0,0,0,-1,937,1051,0,0
-280,-27,0,0,0,0,0,0,0,0,0,-1,944,1051,0,0
-273,-27,0,0,0,0,0,0,0,0,0,-1,951,1051,0,0
-266,-27,0,0,0,0,0,0,0,0,0,-1,958,1051,0,0
-259,-27,0,0,0,0,0,0,0,0,0,-1,965,1051,0,0
-252,-27,0,0,0,0,0,0,0,0,0,-1,972,1051,0,0
-245,-27,0,0,0,0,0,0,0,0,0,-1,979,1051,0,0
-238,-27,0,0,0,0,0,0,0,0,0,-1,986,1051,0,0
-231,-27,0,0,0,0,0,0,0,0,0,-1,993,1051,0,0
-224,-27,0,0,0,0,0,0,0,0,0,-1,1000,1051,0,0
-217,-27,0,0,0,0,0,0,0,0,0,-1,1007,1051,0,0
-210,-27,0,0,0,0,0,0,0,0,0,-1,1014,1051,0,0
-203,-27,0,0,0,0,0,0,0,0,0,-1,1021,1051,0,0
-196,-27,0,0,0,0,0,0,0,0,0,-1,1028,1051,0,0
-189,-27,0,0,0,0,0,0,0,0,0,-1,1035,1051,0,0
-182,-27,0,0,0,0,0,0,0,0,0,-1,1042,1051,0,0
-175,-27,0,0,0,0,0,0,0,0,0,-1,1049,1051,0,0
-168,-27,0,0,0,0,0,0,0,0,0,-1,1056,1051,0,0
-161,-27,0,0,0,0,0,0,0,0,0,-1,1063,1051,0,0
-154,-27,0,0,0,0,0,0,0,0,0,-1,1070,1051,0,0
-147,-27,0,0,0,0,0,0,0,0,0,-1,1077,1051,0,0
-140,-27,0,0,0,0,0,0,0,0,0,-1,1084,1051,0,0
-133,-27,0,0,0,0,0,0,0,0,0,-1,1091,1051,0,0
-126,-27,0,0,0,0,0,0,0,0,0,-1,1098,1051,0,0
-119,-27,0,0,0,0,0,0,0,0,0,-1,1105,1051,0,0
-112,-27,0,0,0,0,0,0,0,0,0,-1,1112,1051,0,0
-105,-27,0,0,0,0,0,0,0,0,0,-1,1119,1051,0,0
-98,-27,0,0,0,0,0,0,0,0,0,-1,1126,1051,0,0
-91,-27,0,0,0,0,0,0,0,0,0,-1,1133,1051,0,0
-84,-27,0,0,0,0,0,0,0,0,0,-1,1140,1051,0,0
-77,-27,0,0,0,0,0,0,0,0,0,-1,1147,1051,0,0
-70,-27,0,0,0,0,0,0,0,0,0,-1,1154,1051,0,0
-63,-27,0,0,0,0,0,0,0,0,0,-1,1161,1051,0,0
-56,-27,0,0,0,0,0,0,0,0,0,-1,1168,1051,0,0
-49,-27,0,0,0,0,0,0,0,0,0,-1,1175,1051,0,0
-42,-27,0,0,0,0,0,0,0,0,0,-1,1182,1051,0,0
-35,-27,0,0,0,0,0,0,0,0,0,-1,1189,1051,0,0
-28,-27,0,0,0,0,0,0,0,0,0,-1,1196,1051,0,0
-21,-27,0,0,0,0,0,0,0,0,0,-1,1203,1051,0,0
-14,-27,0,0,0,0,0,0,0,0,0,-1,1210,1051,0,0
-7,-27,0,0,0,0,0,0,0,0,0,-1,1217,1051,0,0
0,-27,0,0,0,0,0,0,0,0,0,-1,1224,1051,0,0
7,-27,0,0,0,0,0,0,0,0,0,-1,1231,1051,0,0
14,-27,0,0,0,0,0,0,0,0,0,-1,1238,1051,0,0
21,-27,0,0,0,0,0,0,0,0,0,-1,1245,1051,0,0
28,-27,0,0,0,0,0,0,0,0,0,-1,1252,1051,0,0
35,-27,0,0,0,0,0,0,0,0,0,-1,1259,1051,0,0
42,-27,0,0,0,0,0,0,0,0,0,-1,1266,1051,0,0
49,-27,0,0,0,0,0,0,0,0,0,-1,1273,1051,0,0
56,-27,0,0,0,0,0,0,0,0,0,-1,1280,1051,0,0
63,-27,0,0,0,0,0,0,0,0,0,-1,1287,1051,0,0
70,-27,0,0,0,0,0,0,0,0,0,-1,1294,1051,0,0
77,-27,0,0,0,0,0,0,0,0,0,-1,1301,1051,0,0
84,-27,0,0,0,0,0,0,0,0,0,-1,1308,1051,0,0
91,-27,0,0,0,0,0,0,0,0,0,-1,1315,1051,0,0
98,-27,0,0,0,0,0,0,0,0,0,-1,1322,1051,0,0
105,-27,0,0,0,0,0,0,0,0,0,-1,1329,1051,0,0
112,-27,0,0,0,0,0,0,0,0,0,-1,1336,1051,0,0
119,-27,0,0,0,0,0,0,0,0,0,-1,1343,1051,0,0
126,-27,0,0,0,0,0,0,0,0,0,-1,1350,1051,0,0
133,-27,0,0,0,0,0,0,0,0,0,-1,1357,1051,0,0
140,-27,0,0,0,0,0,0,0,0,0,-1,1364,1051,0,0
147,-27,0,0,0,0,0,0,0,0,0,-1,1371,1051,0,0
154,-27,0,0,0,0,0,0,0,0,0,-1,1378,1051,0,0
161,-27,0,0,0,0,0,0,0,0,0,-1,1385,1051,0,0
168,-27,0,0,0,0,0,0,0,0,0,-1,1392,1051,0,0
175,-27,0,0,0,0,0,0,0,0,0,-1,1399,1051,0,0
182,-27,0,0,0,0,0,0,0,0,0,-1,1406,1051,0,0
189,-27,0,0,0,0,0,0,0,0,0,-1,1413,1051,0,0
196,-27,0,0,0,0,0,0,0,0,0,-1,1420,1051,0,0
203,-27,0,0,0,0,0,0,0,0,0,-1,1427,1051,0,0
210,-27,0,0,0,0,0,0,0,0,0,-1,1434,1051,0,0
217,-27,0,0,0,0,0,0,0,0,0,-1,1441,1051,0,0
224,-27,0,0,0,0,0,0,0,0,0,-1,1448,1051,0,0
231,-27,0,0,0,0,0,0,0,0,0,-1,1455,1051,0,0
238,-27,0,0,0,0,0,0,0,0,0,-1,1462,1051,0,0
245,-27,0,0,0,0,0,0,0,0,0,-1,1469,1051,0,0
252,-27,0,0,0,0,0,0,0,0,0,-1,1476,1051,0,0
259,-27,0,0,0,0,0,0,0,0,0,-1,1483,1051,0,0
266,-27,0,0,0,0,0,0,0,0,0,-1,1490,1051,0,0
273,-27,0,0,0,0,0,0,0,0,0,-1,1497,1051,0,0
280,-27,0,0,0,0,0,0,0,0,0,-1,1504,1051,0,0
287,-27,0,0,0,0,0,0,0,0,0,-1,1511,1051,0,0
294,-27,0,0,0,0,0,0,0,0,0,-1,1518,1051,0,0
301,-27,0,0,0,0,0,0,0,0,0,-1,1525,1051,0,0
308,-27,0,0,0,0,0,0,0,0,0,-1,1532,1051,0,0
315,-27,0,0,0,0,0,0,0,0,0,-1,1539,1051,0,0
322,-27,0,0,0,0,0,0,0,0,0,-1,1546,1051,0,0
329,-27,0,0,0,0,0,0,0,0,0,-1,1553,1051,0,0
336,-27,0,0,0,0,0,0,0,0,0,-1,1560,1051,0,0
343,-27,0,0,0,0,0,0,0,0,0,-1,1567,1051,0,0
350,-27,0,0,0,0,0,0,0,0,0,-1,1574,1051,0,0
357,-27,0,0,0,0,0,0,0,0,0,-1,1581,1051,0,0
364,-27,0,0,0,0,0,0,0,0,0,-1,1588,1051,0,0
371,-27,0,0,0,0,0,0,0,0,0,-1,1595,1051,0,0
378,-27,0,0,0,0,0,0,0,0,0,-1,1602,1051,0,0
385,-27,0,0,0,0,0,0,0,0,0,-1,1609,1051,0,0
392,-27,0,0,0,0,0,0,0,0,0,-1,1616,1051,0,0
399,-27,0,0,0,0,0,0,0,0,0,-1,1623,1051,0,0
406,-27,0,0,0,0,0,0,0,0,0,-1,1630,1051,0,0
413,-27,0,0,0,0,0,0,0,0,0,-1,1637,1051,0,0
420,-27,0,0,0,0,0,0,0,0,0,-1,1644,1051,0,0
427,-27,0,0,0,0,0,0,0,0,0,-1,1651,1051,0,0
434,-27,0,0,0,0,0,0,0,0,0,-1,1658,1051,0,0
441,-27,0,0,0,0,0,0,0,0,0,-1,1665,1051,0,0
448,-27,0,0,0,0,0,0,0,0,0,-1,1672,1051,0,0
455,-27,0,0,0,0,0,0,0,0,0,-1,1679,1051,0,0
462,-27,0,0,0,0,0,0,0,0,0,-1,1686,1051,0,0
469,-27,0,0,0,0,0,0,0,0,0,-1,1693,1051,0,0
476,-27,0,0,0,0,0,0,0,0,0,-1,1700,1051,0,0
483,-27,0,0,0,0,0,0,0,0,0,-1,1707,1051,0,0
490,-27,0,0,0,0,0,0,0,0,0,-1,1714,1051,0,0
497,-27,0,0,0,0,0,0,0,0,0,-1,1721,1051,0,0
504,-27,0,0,0,0,0,0,0,0,0,-1,1728,1051,0,0
511,-27,0,0,0,0,0,0,0,0,0,-1,1735,1051,0,0
518,-27,0,0,0,0,0,0,0,0,0,-1,1742,1051,0,0
525,-27,0,0,0,0,0,0,0,0,0,-1,1749,1051,0,0
532,-27,0,0,0,0,0,0,0,0,0,-1,1756,1051,0,0
539,-27,0,0,0,0,0,0,0,0,0,-1,1763,1051,0,0
546,-27,0,0,0,0,0,0,0,0,0,-1,1770,1051,0,0
553,-27,0,0,0,0,0,0,0,0,0,-1,1777,1051,0,0
560,-27,0,0,0,0,0,0,0,0,0,-1,1784,1051,0,0
567,-27,0,0,0,0,0,0,0,0,0,-1,1791,1051,0,0
574,-27,0,0,0,0,0,0,0,0,0,-1,1798,1051,0,0
581,-27,0,0,0,0,0,0,0,0,0,-1,1805,1051,0,0
588,-27,0,0,0,0,0,0,0,0,0,-1,1812,1051,0,0
595,-27,0,0,0,0,0,0,0,0,0,-1,1819,1051,0,0
602,-27,0,0,0,0,0,0,0,0,0,-1,1826,1051,0,0
609,-27,0,0,0,0,0,0,0,0,0,-1,1833,1051,0,0
616,-27,0,0,0,0,0,0,0,0,0,-1,1840,1051,0,0
623,-27,0,0,0,0,0,0,0,0,0,-1,1847,1051,0,0
630,-27,0,0,0,0,0,0,0,0,0,-1,1854,1051,0,0
637,-27,0,0,0,0,0,0,0,0,0,-1,1861,1051,0,0
644,-27,0,0,0,0,0,0,0,0,0,-1,1868,1051,0,0
651,-27,0.0803223,0.085083,-0.00299462,-0.000707184,-0.000481281,-0.000610046,-0.00309176,-1.37164,0.00189091,0.0371042,1875,1051,0.0803002,-0.0850996
658,-27,0.0302734,0.0179443,-0.00210927,-0.000678308,-0.000547935,-0.000492598,-0.00229499,-1.24402,0.00139509,0.0369421,1882,1051,0.0303072,-0.0179217
665,-27,-0.0991211,0.162476,-0.001379,-0.000656225,-0.000547643,-0.000361478,-0.00167375,-1.07705,0.00101698,0.0336942,1889,1051,-0.0990821,-0.162496
672,-27,-0.109375,0.163574,-0.000787788,-0.000635834,-0.000474045,-0.000231716,-0.00119191,-0.86486,0.000729733,0.0270988,1896,1051,-0.109351,-0.163607
679,-27,-0.0598145,0.121338,-0.000366122,-0.000605525,-0.000373107,-9.3985e-05,-0.000877662,-0.630173,0.000556432,0.0259041,1903,1051,-0.0597653,-0.121313
686,-27,-0.0446777,0.135986,-7.49558e-05,-0.000562378,-0.000267899,4.35002e-05,-0.000680834,-0.416321,0.000469062,0.033657,1910,1051,-0.0447296,-0.135965
693,-27,-0.0550537,0.0621338,0.000123349,-0.000509609,-0.00017374,0.000167903,-0.000554162,-0.251029,0.000436314,0.035997,1917,1051,-0.0550176,-0.0621513
700,-27,-0.00683594,0.0559082,0.000258904,-0.000418894,-7.79595e-05,0.000267755,-0.000427746,-0.113052,0.000405073,0.0326324,1924,1051,-0.00683744,-0.0559464
707,-27,-0.0134277,0.0500488,0.000356571,-0.00039039,-3.88087e-05,0.000358582,-0.000392401,-0.0517696,0.000433727,0.0179219,1931,1051,-0.0134177,-0.0500047
714,-27,-0.0246582,0.0465088,0.000398022,-0.000327794,-2.67447e-05,0.000399006,-0.000328779,-0.0367813,0.000420838,0.0109463,1938,1051,-0.0246582,-0.0465545
721,-27,-0.0231934,0.0614014,0.000369526,-0.00024399,2.09609e-05,0.000370241,-0.000244706,0.0341122,0.000357497,0.00907002,1945,1051,-0.0231667,-0.0613486
728,-27,-0.0313721,0.0584717,0.000268415,-0.000165054,0.000112369,0.000295813,-0.000192452,0.239154,0.000283998,0.0120034,1952,1051,-0.0313316,-0.0585097
735,-27,-0.0343018,0.0583496,0.000123491,-6.14068e-05,0.000305466,0.000350192,-0.000288107,0.638456,0.000369103,0.015157,1959,1051,-0.0343239,-0.0583672
742,-27,-0.0284424,0.0456543,-8.01209e-06,9.38021e-05,0.000730616,0.000775283,-0.000689493,0.82018,0.000846172,0.0155073,1966,1051,-0.0284637,-0.0456376
749,-27,-0.0101318,0.0491943,0.000437698,-0.000179675,0.00113195,0.00130229,-0.00104427,0.652283,0.00135752,0.011269,1973,1051,-0.0101054,-0.0492012
756,-27,-0.00402832,0.0518799,0.00136203,0.000152741,0.00210832,0.0029507,-0.00143593,0.645752,0.00258246,0.0109506,1980,1051,-0.00397158,-0.0518807
763,-27,-0.00830078,0.0369873,0.00258484,8.41907e-05,0.00295125,0.0045397,-0.00187067,0.585031,0.00380646,0.0123516,1987,1051,-0.0083285,-0.0369584
770,-27,-0.0303955,0.0281982,0.00403577,8.1216e-05,0.00409791,0.00660849,-0.00249151,0.56062,0.00543016,0.0142245,1994,1051,-0.030453,-0.0281746
777,-27,-0.0541992,0.0736084,0.00610923,6.03823e-05,0.00550514,0.00936603,-0.00319641,0.534214,0.00753885,0.0144659,2001,1051,-0.0542079,-0.0736477
784,-27,0.0791016,0.081665,0,0,0,0,0,0,0,-1,2008,1051,0.0790708,-0.0816626
791,-27,0.309204,0.664307,0.0125636,-7.02789e-07,0.00895875,0.0172233,-0.00466043,0.479622,0.0133105,0.0414017,2015,1051,0.309168,-0.664297
798,-27,0.527222,1.31396,0.0172489,-2.21387e-05,0.0108659,0.0224929,-0.00526612,0.449637,0.0170243,0.0472452,2022,1051,0.527179,-1.31394
805,-27,0.718628,1.92603,0.0231397,-1.95653e-05,0.0127419,0.0287776,-0.0056575,0.416575,0.0213226,0.046029,2029,1051,0.718591,-1.926
812,-27,1.00647,2.49939,0.0303941,1.03355e-05,0.0143404,0.0360934,-0.00568895,0.378287,0.0261656,0.044913,2036,1051,1.00646,-2.49935
-700,-34,0.200562,1.75879,0,0,0,0,0,0,0,-1,524,1058,0.200553,-1.75879
-693,-34,0.747559,2.08508,0,0,0,0,0,0,0,-1,531,1058,0.747582,-2.08505
-686,-34,0.447937,1.64319,-0.00511008,-0.00307242,-0.0384243,0.0343466,-0.0425291,-0.798653,0.0444679,0.0480087,538,1058,0.447922,-1.64323
-679,-34,0.169006,1.00012,-0.00437237,0.00247935,-0.0287506,0.0280075,-0.0299005,-0.844698,0.0334391,0.0428681,545,1058,0.169023,-1.00013
-672,-34,-0.041687,0.471191,-0.00332322,0.00557205,-0.0207731,0.0223683,-0.0201195,-0.890859,0.0245418,0.0435901,552,1058,-0.0416936,-0.471172
-665,-34,-0.130188,-2.52429,0,0,0,0,0,0,0,-1,559,1058,-0.130192,2.52432
-658,-34,-0.0601807,0.253296,-0.0011737,0.0070309,-0.00950612,0.0132821,-0.00742491,-0.989098,0.0121136,0.0411481,566,1058,-0.0601721,-0.253294
-651,-34,-0.0410156,0.0908203,-0.00036162,0.00638782,-0.00590073,0.00981069,-0.0037845,-1.04515,0.00810214,0.0252008,573,1058,-0.0410343,-0.0908667
-644,-34,-0.0298462,0.020874,-5.05042e-05,0.00589029,-0.00313354,0.00723757,-0.00139779,-1.16474,0.00535217,0.00904687,580,1058,-0.0298734,-0.0208547
-637,-34,-0.0142212,0.0247803,0.000243612,0.00500131,-0.000926732,0.00517545,6.94722e-05,-1.38505,0.00342738,0.00998512,587,1058,-0.0141986,-0.0247848
-630,-34,-0.0333862,0.069458,0.000870247,0.00359681,0.000348267,0.00364059,0.000826466,1.44574,0.00220385,0.0137893,594,1058,-0.0333798,-0.0694865
-623,-34,-0.0374756,0.0821533,0.00116267,0.00296193,0.00103572,0.00343418,0.000690417,1.14299,0.00209754,0.0126453,601,1058,-0.0374456,-0.0821342
-616,-34,-0.00231934,0.0689697,0.00101988,0.00123519,0.000981153,0.00211457,0.000140489,0.840041,0.0013653,0.019326,608,1058,-0.00232474,-0.0690129
-609,-34,-0.0205688,0.0588379,0.000632601,0.000235382,0.000469719,0.000943974,-7.59908e-05,0.585384,0.000656115,0.0188105,615,1058,-0.0205846,-0.0587793
-602,-34,-0.0571289,0.0491943,0.000298855,0.000347531,0.000188969,0.000513723,0.000132663,0.849441,0.000307939,0.0144146,622,1058,-0.0571341,-0.0491707
-595,-34,-0.0170898,0.0532227,9.89083e-05,0.000386162,5.07611e-05,0.000394868,9.02021e-05,1.40094,0.000238923,0.0114982,629,1058,-0.0170984,-0.0532268
-588,-34,-0.0157471,0.0581055,3.84062e-05,0.00042345,-6.66647e-05,0.000434665,2.71908e-05,-1.40412,0.000281152,0.0158832,636,1058,-0.0157732,-0.058078
-581,-34,-0.0259399,0.0701904,6.40595e-05,0.000440986,-0.000260583,0.000574116,-6.90701e-05,-1.09847,0.000407722,0.0189488,643,1058,-0.025966,-0.0702427
-574,-34,-0.00183105,0.0435791,0.000115898,0.0004514,-0.000482994,0.000794945,-0.000227647,-0.952539,0.000619938,0.0302451,650,1058,-0.00183552,-0.0435965
-567,-34,0.0147095,0.00549316,0.000151632,0.000413765,-0.000775844,0.00106954,-0.000504139,-0.869075,0.000927902,0.0369374,657,1058,0.0146973,-0.00550993
-560,-34,0.0380859,0.124634,0.000184753,0.000309029,-0.00117554,0.00142407,-0.000930285,-0.811803,0.00136922,0.0394852,664,1058,0.0380978,-0.124681
-553,-34,0.0769043,0.118408,0.000219159,0.000126168,-0.00170901,0.00188231,-0.00153698,-0.771798,0.00197748,0.0397493,671,1058,0.0769155,-0.11836
-546,-34,0.0611572,0.137085,0.000207024,-0.000145695,-0.0023886,0.00242577,-0.00236444,-0.748548,0.0027657,0.0404487,678,1058,0.0611297,-0.137071
-539,-34,0.0489502,0.112183,0.000151617,-0.000525713,-0.00321565,0.00304638,-0.00342048,-0.732933,0.00373573,0.0393188,685,1058,0.0489478,-0.112181
-532,-34,0.0643311,-0.0787354,-6.45307e-05,-0.00102837,-0.00422371,0.00370466,-0.00479756,-0.728594,0.00492226,0.0400015,692,1058,0.0643451,0.0787635
-525,-34,0,0,0,0,0,0,0,0,0,-1,699,1058,0,0
-518,-34,0,0,0,0,0,0,0,0,0,-1,706,1058,0,0
-511,-34,0,0,0,0,0,0,0,0,0,-1,713,1058,0,0
-504,-34,0,0,0,0,0,0,0,0,0,-1,720,1058,0,0
-497,-34,0,0,0,0,0,0,0,0,0,-1,727,1058,0,0
-490,-34,0,0,0,0,0,0,0,0,0,-1,734,1058,0,0
-483,-34,0,0,0,0,0,0,0,0,0,-1,741,1058,0,0
-476,-34,0,0,0,0,0,0,0,0,0,-1,748,1058,0,0
-469,-34,0,0,0,0,0,0,0,0,0,-1,755,1058,0,0
-462,-34,0,0,0,0,0,0,0,0,0,-1,762,1058,0,0
-455,-34,0,0,0,0,0,0,0,0,0,-1,769,1058,0,0
-448,-34,0,0,0,0,0,0,0,0,0,-1,776,1058,0,0
-441,-34,0,0,0,0,0,0,0,0,0,-1,783,1058,0,0
-434,-34,0,0,0,0,0,0,0,0,0,-1,790,1058,0,0
-427,-34,0,0,0,0,0,0,0,0,0,-1,797,1058,0,0
-420,-34,0,0,0,0,0,0,0,0,0,-1,804,1058,0,0
-413,-34,0,0,0,0,0,0,0,0,0,-1,811,1058,0,0
-406,-34,0,0,0,0,0,0,0,0,0,-1,818,1058,0,0
-399,-34,0,0,0,0,0,0,0,0,0,-1,825,1058,0,0
-392,-34,0,0,0,0,0,0,0,0,0,-1,832,1058,0,0
-385,-34,0,0,0,0,0,0,0,0,0,-1,839,1058,0,0
-378,-34,0,0,0,0,0,0,0,0,0,-1,846,1058,0,0
-371,-34,0,0,0,0,0,0,0,0,0,-1,853,1058,0,0
-364,-34,0,0,0,0,0,0,0,0,0,-1,860,1058,0,0
-357,-34,0,0,0,0,0,0,0,0,0,-1,867,1058,0,0
-350,-34,0,0,0,0,0,0,0,0,0,-1,874,1058,0,0
-343,-34,0,0,0,0,0,0,0,0,0,-1,881,1058,0,0
-336,-34,0,0,0,0,0,0,0,0,0,-1,888,1058,0,0
-329,-34,0,0,0,0,0,0,0,0,0,-1,895,1058,0,0
-322,-34,0,0,0,0,0,0,0,0,0,-1,902,1058,0,0
-315,-34,0,0,0,0,0,0,0,0,0,-1,909,1058,0,0
-308,-34,0,0,0,0,0,0,0,0,0,-1,916,1058,0,0
-301,-34,0,0,0,0,0,0,0,0,0,-1,923,1058,0,0
-294,-34,0,0,0,0,0,0,0,0,0,-1,930,1058,0,0
-287,-34,0,0,0,0,0,0,0,0,0,-1,937,1058,0,0
-280,-34,0,0,0,0,0,0,0,0,0,-1,944,1058,0,0
-273,-34,0,0,0,0,0,0,0,0,0,-1,951,1058,0,0
-266,-34,0,0,0,0,0,0,0,0,0,-1,958,1058,0,0
-259,-34,0,0,0,0,0,0,0,0,0,-1,965,1058,0,0
-252,-34,0,0,0,0,0,0,0,0,0,-1,972,1058,0,0
-245,-34,0,0,0,0,0,0,0,0,0,-1,979,1058,0,0
-238,-34,0,0,0,0,0,0,0,0,0,-1,986,1058,0,0
-231,-34,0,0,0,0,0,0,0,0,0,-1,993,1058,0,0
-224,-34,0,0,0,0,0,0,0,0,0,-1,1000,1058,0,0
-217,-34,0,0,0,0,0,0,0,0,0,-1,1007,1058,0,0
-210,-34,0,0,0,0,0,0,0,0,0,-1,1014,1058,0,0
-203,-34,0,0,0,0,0,0,0,0,0,-1,1021,1058,0,0
-196,-34,0,0,0,0,0,0,0,0,0,-1,1028,1058,0,0
-189,-34,0,0,0,0,0,0,0,0,0,-1,1035,1058,0,0
-182,-34,0,0,0,0,0,0,0,0,0,-1,1042,1058,0,0
-175,-34,0,0,0,0,0,0,0,0,0,-1,1049,1058,0,0
-168,-34,0,0,0,0,0,0,0,0,0,-1,1056,1058,0,0
-161,-34,0,0,0,0,0,0,0,0,0,-1,1063,1058,0,0
-154,-34,0,0,0,0,0,0,0,0,0,-1,1070,1058,0,0
-147,-34,0,0,0,0,0,0,0,0,0,-1,1077,1058,0,0
-140,-34,0,0,0,0,0,0,0,0,0,-1,1084,1058,0,0
-133,-34,0,0,0,0,0,0,0,0,0,-1,1091,1058,0,0
-126,-34,0,0,0,0,0,0,0,0,0,-1,1098,1058,0,0
-119,-34,0,0,0,0,0,0,0,0,0,-1,1105,1058,0,0
-112,-34,0,0,0,0,0,0,0,0,0,-1,1112,1058,0,0
-105,-34,0,0,0,0,0,0,0,0,0,-1,1119,1058,0,0
-98,-34,0,0,0,0,0,0,0,0,0,-1,1126,1058,0,0
-91,-34,0,0,0,0,0,0,0,0,0,-1,1133,1058,0,0
-84,-34,0,0,0,0,0,0,0,0,0,-1,1140,1058,0,0
-77,-34,0,0,0,0,0,0,0,0,0,-1,1147,1058,0,0
-70,-34,0,0,0,0,0,0,0,0,0,-1,1154,1058,0,0
-63,-34,0,0,0,0,0,0,0,0,0,-1,1161,1058,0,0
-56,-34,0,0,0,0,0,0,0,0,0,-1,1168,1058,0,0
-49,-34,0,0,0,0,0,0,0,0,0,-1,1175,1058,0,0
-42,-34,0,0,0,0,0,0,0,0,0,-1,1182,1058,0,0
-35,-34,0,0,0,0,0,0,0,0,0,-1,1189,1058,0,0
-28,-34,0,0,0,0,0,0,0,0,0,-1,1196,1058,0,0
-21,-34,0,0,0,0,0,0,0,0,0,-1,1203,1058,0,0
-14,-34,0,0,0,0,0,0,0,0,0,-1,1210,1058,0,0
-7,-34,0,0,0,0,0,0,0,0,0,-1,1217,1058,0,0
0,-34,0,0,0,0,0,0,0,0,0,-1,1224,1058,0,0
7,-34,0,0,0,0,0,0,0,0,0,-1,1231,1058,0,0
14,-34,0,0,0,0,0,0,0,0,0,-1,1238,1058,0,0
21,-34,0,0,0,0,0,0,0,0,0,-1,1245,1058,0,0
28,-34,0,0,0,0,0,0,0,0,0,-1,1252,1058,0,0
35,-34,0,0,0,0,0,0,0,0,0,-1,1259,1058,0,0
42,-34,0,0,0,0,0,0,0,0,0,-1,1266,1058,0,0
49,-34,0,0,0,0,0,0,0,0,0,-1,1273,1058,0,0
56,-34,0,0,0,0,0,0,0,0,0,-1,1280,1058,0,0
63,-34,0,0,0,0,0,0,0,0,0,-1,1287,1058,0,0
70,-34,0,0,0,0,0,0,0,0,0,-1,1294,1058,0,0
77,-34,0,0,0,0,0,0,0,0,0,-1,1301,1058,0,0
84,-34,0,0,0,0,0,0,0,0,0,-1,1308,1058,0,0
91,-34,0,0,0,0,0,0,0,0,0,-1,1315,1058,0,0
98,-34,0,0,0,0,0,0,0,0,0,-1,1322,1058,0,0
105,-34,0,0,0,0,0,0,0,0,0,-1,1329,1058,0,0
112,-34,0,0,0,0,0,0,0,0,0,-1,1336,1058,0,0
119,-34,0,0,0,0,0,0,0,0,0,-1,1343,1058,0,0
126,-34,0,0,0,0,0,0,0,0,0,-1,1350,1058,0,0
133,-34,0,0,0,0,0,0,0,0,0,-1,1357,1058,0,0
140,-34,0,0,0,0,0,0,0,0,0,-1,1364,1058,0,0
147,-34,0,0,0,0,0,0,0,0,0,-1,1371,1058,0,0
154,-34,0,0,0,0,0,0,0,0,0,-1,1378,1058,0,0
161,-34,0,0,0,0,0,0,0,0,0,-1,1385,1058,0,0
168,-34,0,0,0,0,0,0,0,0,0,-1,1392,1058,0,0
175,-34,0,0,0,0,0,0,0,0,0,-1,1399,1058,0,0
182,-34,0,0,0,0,0,0,0,0,0,-1,1406,1058,0,0
189,-34,0,0,0,0,0,0,0,0,0,-1,1413,1058,0,0
196,-34,0,0,0,0,0,0,0,0,0,-1,1420,1058,0,0
203,-34,0,0,0,0,0,0,0,0,0,-1,1427,1058,0,0
210,-34,0,0,0,0,0,0,0,0,0,-1,1434,1058,0,0
217,-34,0,0,0,0,0,0,0,0,0,-1,1441,1058,0,0
224,-34,0,0,0,0,0,0,0,0,0,-1,1448,1058,0,0
231,-34,0,0,0,0,0,0,0,0,0,-1,1455,1058,0,0
238,-34,0,0,0,0,0,0,0,0,0,-1,1462,1058,0,0
245,-34,0,0,0,0,0,0,0,0,0,-1,1469,1058,0,0
252,-34,0,0,0,0,0,0,0,0,0,-1,1476,1058,0,0
259,-34,0,0,0,0,0,0,0,0,0,-1,1483,1058,0,0
266,-34,0,0,0,0,0,0,0,0,0,-1,1490,1058,0,0
273,-34,0,0,0,0,0,0,0,0,0,-1,1497,1058,0,0
280,-34,0,0,0,0,0,0,0,0,0,-1,1504,1058,0,0
287,-34,0,0,0,0,0,0,0,0,0,-1,1511,1058,0,0
294,-34,0,0,0,0,0,0,0,0,0,-1,1518,1058,0,0
301,-34,0,0,0,0,0,0,0,0,0,-1,1525,1058,0,0
308,-34,0,0,0,0,0,0,0,0,0,-1,1532,1058,0,0
315,-34,0,0,0,0,0,0,0,0,0,-1,1539,1058,0,0
322,-34,0,0,0,0,0,0,0,0,0,-1,1546,1058,0,0
329,-34,0,0,0,0,0,0,0,0,0,-1,1553,1058,0,0
336,-34,0,0,0,0,0,0,0,0,0,-1,1560,1058,0,0
343,-34,0,0,0,0,0,0,0,0,0,-1,1567,1058,0,0
350,-34,0,0,0,0,0,0,0,0,0,-1,1574,1058,0,0
357,-34,0,0,0,0,0,0,0,0,0,-1,1581,1058,0,0
364,-34,0,0,0,0,0,0,0,0,0,-1,1588,1058,0,0
371,-34,0,0,0,0,0,0,0,0,0,-1,1595,1058,0,0
378,-34,0,0,0,0,0,0,0,0,0,-1,1602,1058,0,0
385,-34,0,0,0,0,0,0,0,0,0,-1,1609,1058,0,0
392,-34,0,0,0,0,0,0,0,0,0,-1,1616,1058,0,0
399,-34,0,0,0,0,0,0,0,0,0,-1,1623,1058,0,0
406,-34,0,0,0,0,0,0,0,0,0,-1,1630,1058,0,0
413,-34,0,0,0,0,0,0,0,0,0,-1,1637,1058,0,0
420,-34,0,0,0,0,0,0,0,0,0,-1,1644,1058,0,0
427,-34,0,0,0,0,0,0,0,0,0,-1,1651,1058,0,0
434,-34,0,0,0,0,0,0,0,0,0,-1,1658,1058,0,0
441,-34,0,0,0,0,0,0,0,0,0,-1,1665,1058,0,0
448,-34,0,0,0,0,0,0,0,0,0,-1,1672,1058,0,0
455,-34,0,0,0,0,0,0,0,0,0,-1,1679,1058,0,0
462,-34,0,0,0,0,0,0,0,0,0,-1,1686,1058,0,0
469,-34,0,0,0,0,0,0,0,0,0,-1,1693,1058,0,0
476,-34,0,0,0,0,0,0,0,0,0,-1,1700,1058,0,0
483,-34,0,0,0,0,0,0,0,0,0,-1,1707,1058,0,0
490,-34,0,0,0,0,0,0,0,0,0,-1,1714,1058,0,0
497,-34,0,0,0,0,0,0,0,0,0,-1,1721,1058,0,0
504,-34,0,0,0,0,0,0,0,0,0,-1,1728,1058,0,0
511,-34,0,0,0,0,0,0,0,0,0,-1,1735,1058,0,0
518,-34,0,0,0,0,0,0,0,0,0,-1,1742,1058,0,0
525,-34,0,0,0,0,0,0,0,0,0,-1,1749,1058,0,0
532,-34,0,0,0,0,0,0,0,0,0,-1,1756,1058,0,0
539,-34,0,0,0,0,0,0,0,0,0,-1,1763,1058,0,0
546,-34,0,0,0,0,0,0,0,0,0,-1,1770,1058,0,0
553,-34,0,0,0,0,0,0,0,0,0,-1,1777,1058,0,0
560,-34,0,0,0,0,0,0,0,0,0,-1,1784,1058,0,0
567,-34,0,0,0,0,0,0,0,0,0,-1,1791,1058,0,0
574,-34,0,0,0,0,0,0,0,0,0,-1,1798,1058,0,0
581,-34,0,0,0,0,0,0,0,0,0,-1,1805,1058,0,0
588,-34,0,0,0,0,0,0,0,0,0,-1,1812,1058,0,0
595,-34,0,0,0,0,0,0,0,0,0,-1,1819,1058,0,0
602,-34,0,0,0,0,0,0,0,0,0,-1,1826,1058,0,0
609,-34,0,0,0,0,0,0,0,0,0,-1,1833,1058,0,0
616,-34,0,0,0,0,0,0,0,0,0,-1,1840,1058,0,0
623,-34,0,0,0,0,0,0,0,0,0,-1,1847,1058,0,0
630,-34,0,0,0,0,0,0,0,0,0,-1,1854,1058,0,0
637,-34,0,0,0,0,0,0,0,0,0,-1,1861,1058,0,0
644,-34,0,0,0,0,0,0,0,0,0,-1,1868,1058,0,0
651,-34,0.0275879,-0.0332031,-0.00298868,0.000309493,0.000294848,0.000335644,-0.00301483,1.48233,0.0021306,0.0357404,1875,1058,0.0276302,0.033186
658,-34,0.0648193,-0.00158691,-0.00220118,0.00013024,1.51766e-05,0.000130339,-0.00220128,1.56429,0.00151284,0.0398839,1882,1058,0.0648442,0.00163664
665,-34,-0.0512695,0.170776,-0.00151147,-1.63226e-05,-0.000154654,-4.93194e-07,-0.0015273,-1.4688,0.00101804,0.0383208,1889,1058,-0.0512154,-0.170799
672,-34,-0.0805664,0.0723877,-0.000934595,-0.000130657,-0.000212311,-7.80329e-05,-0.000987219,-1.32783,0.000633738,0.0329709,1896,1058,-0.0805385,-0.0723798
679,-34,-0.0842285,0.0778809,-0.000510701,-0.000205367,-0.000210767,-9.77847e-05,-0.000618284,-1.09884,0.00038377,0.0317305,1903,1058,-0.084284,-0.077868
686,-34,-0.0340576,0.153931,-0.000207991,-0.000243426,-0.000177921,-4.69077e-05,-0.000404509,-0.735772,0.000255476,0.035759,1910,1058,-0.0341135,-0.153889
693,-34,-0.0292969,0.167236,8.67846e-06,-0.00025379,-0.00013413,6.50965e-05,-0.000310208,-0.398155,0.000231575,0.0378722,1917,1058,-0.0293428,-0.167291
700,-34,-0.0383301,0.108154,0.00015554,-0.000216496,-7.69616e-05,0.000170832,-0.000231789,-0.196144,0.00023334,0.032986,1924,1058,-0.0383124,-0.108119
707,-34,-0.0462646,0.0848389,0.000273333,-0.000240586,-6.67913e-05,0.000281872,-0.000249125,-0.127151,0.000306765,0.0174215,1931,1058,-0.0462473,-0.0848125
714,-34,-0.0318604,0.0705566,0.000346135,-0.000210222,-7.01577e-05,0.000354846,-0.000218933,-0.123526,0.000334355,0.0103694,1938,1058,-0.0318889,-0.0705732
721,-34,-0.00305176,0.0668945,0.000337095,-0.00014799,-2.25473e-05,0.000338141,-0.000149036,-0.046348,0.000288248,0.0117814,1945,1058,-0.00311243,-0.0668483
728,-34,-0.0267334,0.0631104,0.000241169,-8.36822e-05,7.55561e-05,0.000257882,-0.000100396,0.2177,0.000213409,0.0116618,1952,1058,-0.0266937,-0.0630771
735,-34,-0.05896,0.0478516,9.84501e-05,9.11818e-06,0.000282472,0.000339766,-0.000232198,0.706985,0.000332165,0.0122655,1959,1058,-0.0589287,-0.0478721
742,-34,-0.0574951,0.0332031,2.75178e-05,0.000179962,0.000770663,0.000878163,-0.000670683,0.83469,0.000896897,0.0136695,1966,1058,-0.0574943,-0.0332553
749,-34,-0.0170898,0.0489502,0.000507946,-3.70756e-05,0.0012987,0.00156242,-0.00109155,0.681982,0.00154028,0.0123758,1973,1058,-0.0170743,-0.0489567
756,-34,-0.00756836,0.0618896,0.0014194,0.000352319,0.00246327,0.00340625,-0.00163453,0.678747,0.00296961,0.010215,1980,1058,-0.00753081,-0.0618657
763,-34,-0.0291748,0.0471191,0.0026252,0.000293331,0.00351709,0.00516457,-0.00224604,0.625346,0.00438773,0.0109207,1987,1058,-0.0291218,-0.0471402
770,-34,-0.0421143,0.0418701,0.00407567,0.000348055,0.00493248,0.00748473,-0.003061,0.604758,0.0062646,0.0157689,1994,1058,-0.0421115,-0.0418804
777,-34,-0.0578613,0.0725098,0.0061368,0.000386196,0.00668961,0.0105429,-0.00401987,0.582427,0.0086844,0.0165147,2001,1058,-0.0578254,-0.0725385
784,-34,-0.0570068,0.122681,0.00890362,0.000404263,0.00876515,0.014395,-0.00508708,0.559676,0.011668,0.0312548,2008,1058,-0.0569989,-0.12265
791,-34,0.19812,0.93811,0.0124902,0.000395544,0.0111033,0.0190862,-0.00620039,0.536036,0.015218,0.0421467,2015,1058,0.198091,-0.938061
798,-34,0.251221,1.65051,0.0170481,0.000342936,0.0136145,0.024668,-0.00727697,0.510252,0.019333,0.0465468,2022,1058,0.251216,-1.65056
805,-34,1.02808,2.31042,0.0227102,0.00022585,0.0161628,0.0311562,-0.00822009,0.481528,0.023985,0.0488279,2029,1058,1.0281,-2.31039
812,-34,1.24072,2.88562,0.0295895,-9.26737e-06,0.018475,0.0384618,-0.00888158,0.447709,0.0290577,0.0495433,2036,1058,1.24077,-2.88568
-700,-41,0.371155,2.22681,0.00284462,-0.0177935,-0.0592124,0.0526304,-0.0675793,-0.699129,0.0695818,0.0448153,524,1065,0.371183,-2.22685
-693,-41,0.202515,1.90283,-0.0021912,-0.00749591,-0.0460943,0.041327,-0.0510141,-0.756659,0.0534109,0.0449454,531,1065,0.202531,-1.90283
-686,-41,0.259583,1.57434,-0.0043993,-0.00103354,-0.0351148,0.0324387,-0.0378716,-0.809342,0.040634,0.0450979,538,1065,0.259592,-1.57432
-679,-41,0.236694,1.11401,-0.00502619,0.00284466,-0.0260082,0.0252135,-0.027395,-0.860486,0.0303823,0.0409142,545,1065,0.236694,-1.114
-672,-41,0.059082,0.396606,-0.0047475,0.00491041,-0.0186012,0.0192992,-0.0191363,-0.912397,0.0221908,0.0407531,552,1065,0.0590958,-0.396655
-665,-41,-0.166626,-0.0119629,-0.00396142,0.0056983,-0.0127603,0.0145122,-0.0127753,-0.966319,0.0157651,0.0416305,559,1065,-0.166613,0.0119225
-658,-41,-0.10907,0.050415,-0.00299985,0.00562131,-0.00832008,0.0106812,-0.00805969,-1.02441,0.0108553,0.0387932,566,1065,-0.109092,-0.0504263
-651,-41,-0.0332642,0.0888672,-0.00204795,0.00500649,-0.00508849,0.00767072,-0.00471218,-1.08846,0.00721697,0.0252099,573,1065,-0.033294,-0.0889191
-644,-41,-0.0302124,0.0367432,-0.0016428,0.00467154,-0.00253637,0.00556417,-0.00253543,-1.2324,0.00478405,0.00950426,580,1065,-0.0302233,-0.0367416
-637,-41,-0.0326538,0.043335,-0.00107963,0.00375929,-0.000555435,0.00382222,-0.00114257,-1.45797,0.00300237,0.00965661,587,1065,-0.03265,-0.0433329
-630,-41,-0.0214233,0.0634766,-0.000147489,0.00264145,0.000464772,0.00271687,-0.000222903,1.40994,0.00188993,0.01087,594,1065,-0.0213999,-0.0634637
-623,-41,-0.0169067,0.0666504,0.000415506,0.00223628,0.000996278,0.00267547,-2.36905e-05,1.15559,0.0017916,0.0106247,601,1065,-0.0169024,-0.0666547
-616,-41,-0.00842285,0.0615234,0.000619251,0.000814754,0.00080827,0.00153116,-9.7157e-05,0.845576,0.00105465,0.0144781,608,1065,-0.00841536,-0.0615647
-609,-41,-0.012207,0.0479736,0.000460605,0.000238099,0.000342384,0.000709358,-1.06535e-05,0.628311,0.000476496,0.020622,615,1065,-0.0122196,-0.04798
-602,-41,-0.0393066,0.036377,0.000212252,0.000378039,0.000139076,0.000457051,0.000133239,1.05415,0.000271417,0.0125991,622,1065,-0.0393266,-0.036434
-595,-41,-0.0215454,0.039917,5.82383e-05,0.00042179,3.71895e-05,0.000425556,5.4473e-05,1.46989,0.000267402,0.0128991,629,1065,-0.0215467,-0.0399705
-588,-41,-0.0270996,0.0415039,2.68767e-05,0.00044852,-6.59704e-05,0.0004586,1.6796e-05,-1.41916,0.000300292,0.0197959,636,1065,-0.0271211,-0.0415542
-581,-41,-0.0291138,0.00756836,9.28496e-05,0.000447043,-0.000238629,0.000567111,-2.72185e-05,-1.10462,0.000387466,0.0312074,643,1065,-0.0291182,-0.00755952
-574,-41,-0.0951538,-0.107178,0.000192496,0.000434855,-0.000424749,0.000755372,-0.000128021,-0.924355,0.000551233,0.03394,650,1065,-0.0951822,0.10718
-567,-41,-0.101746,-0.107544,0.000301416,0.000358199,-0.000673162,0.00100357,-0.000343953,-0.806474,0.000808464,0.0380851,657,1065,-0.101749,0.107564
-560,-41,0.012207,-0.020752,0.000442222,0.000193277,-0.00102605,0.00135133,-0.000715827,-0.725037,0.00121212,0.0378152,664,1065,0.0122294,0.0207131
-553,-41,0.0143433,-0.0264893,0.000619603,-7.69554e-05,-0.00151797,0.00182873,-0.00128608,-0.672631,0.00180741,0.0368957,671,1065,0.0143665,0.0264747
-546,-41,-0.0407104,-0.0098877,0.000788483,-0.000470687,-0.00216924,0.00241766,-0.00209986,-0.644162,0.00261034,0.0368508,678,1065,-0.0407209,0.0099368
-539,-41,-0.0818481,-0.139404,0.000966371,-0.00101341,-0.00299518,0.003131,-0.00317804,-0.625802,0.00364256,0.0379077,685,1065,-0.0818259,0.139344
-532,-41,-0.0655518,-0.258057,0.00103363,-0.00172002,-0.00406199,0.00394579,-0.00463218,-0.621998,0.00495778,0.0391835,692,1065,-0.0655511,0.258012
-525,-41,0,0,0,0,0,0,0,0,0,-1,699,1065,0,0
-518,-41,0,0,0,0,0,0,0,0,0,-1,706,1065,0,0
-511,-41,0,0,0,0,0,0,0,0,0,-1,713,1065,0,0
-504,-41,0,0,0,0,0,0,0,0,0,-1,720,1065,0,0
-497,-41,0,0,0,0,0,0,0,0,0,-1,727,1065,0,0
-490,-41,0,0,0,0,0,0,0,0,0,-1,734,1065,0,0
-483,-41,0,0,0,0,0,0,0,0,0,-1,741,1065,0,0
-476,-41,0,0,0,0,0,0,0,0,0,-1,748,1065,0,0
-469,-41,0,0,0,0,0,0,0,0,0,-1,755,1065,0,0
-462,-41,0,0,0,0,0,0,0,0,0,-1,762,1065,0,0
-455,-41,0,0,0,0,0,0,0,0,0,-1,769,1065,0,0
-448,-41,0,0,0,0,0,0,0,0,0,-1,776,1065,0,0
-441,-41,0,0,0,0,0,0,0,0,0,-1,783,1065,0,0
-434,-41,0,0,0,0,0,0,0,0,0,-1,790,1065,0,0
-427,-41,0,0,0,0,0,0,0,0,0,-1,797,1065,0,0
-420,-41,0,0,0,0,0,0,0,0,0,-1,804,1065,0,0
-413,-41,0,0,0,0,0,0,0,0,0,-1,811,1065,0,0
-406,-41,0,0,0,0,0,0,0,0,0,-1,818,1065,0,0
-399,-41,0,0,0,0,0,0,0,0,0,-1,825,1065,0,0
-392,-41,0,0,0,0,0,0,0,0,0,-1,832,1065,0,0
-385,-41,0,0,0,0,0,0,0,0,0,-1,839,1065,0,0
-378,-41,0,0,0,0,0,0,0,0,0,-1,846,1065,0,0
-371,-41,0,0,0,0,0,0,0,0,0,-1,853,1065,0,0
-364,-41,0,0,0,0,0,0,0,0,0,-1,860,1065,0,0
-357,-41,0,0,0,0,0,0,0,0,0,-1,867,1065,0,0
-350,-41,0,0,0,0,0,0,0,0,0,-1,874,1065,0,0
-343,-41,0,0,0,0,0,0,0,0,0,-1,881,1065,0,0
-336,-41,0,0,0,0,0,0,0,0,0,-1,888,1065,0,0
-329,-41,0,0,0,0,0,0,0,0,0,-1,895,1065,0,0
-322,-41,0,0,0,0,0,0,0,0,0,-1,902,1065,0,0
-315,-41,0,0,0,0,0,0,0,0,0,-1,909,1065,0,0
-308,-41,0,0,0,0,0,0,0,0,0,-1,916,1065,0,0
-301,-41,0,0,0,0,0,0,0,0,0,-1,923,1065,0,0
-294,-41,0,0,0,0,0,0,0,0,0,-1,930,1065,0,0
-287,-41,0,0,0,0,0,0,0,0,0,-1,937,1065,0,0
-280,-41,0,0,0,0,0,0,0,0,0,-1,944,1065,0,0
-273,-41,0,0,0,0,0,0,0,0,0,-1,951,1065,0,0
-266,-41,0,0,0,0,0,0,0,0,0,-1,958,1065,0,0
-259,-41,0,0,0,0,0,0,0,0,0,-1,965,1065,0,0
-252,-41,0,0,0,0,0,0,0,0,0,-1,972,1065,0,0
-245,-41,0,0,0,0,0,0,0,0,0,-1,979,1065,0,0
-238,-41,0,0,0,0,0,0,0,0,0,-1,986,1065,0,0
-231,-41,0,0,0,0,0,0,0,0,0,-1,993,1065,0,0
-224,-41,0,0,0,0,0,0,0,0,0,-1,1000,1065,0,0
-217,-41,0,0,0,0,0,0,0,0,0,-1,1007,1065,0,0
-210,-41,0,0,0,0,0,0,0,0,0,-1,1014,1065,0,0
-203,-41,0,0,0,0,0,0,0,0,0,-1,1021,1065,0,0
-196,-41,0,0,0,0,0,0,0,0,0,-1,1028,1065,0,0
-189,-41,0,0,0,0,0,0,0,0,0,-1,1035,1065,0,0
-182,-41,0,0,0,0,0,0,0,0,0,-1,1042,1065,0,0
-175,-41,0,0,0,0,0,0,0,0,0,-1,1049,1065,0,0
-168,-41,0,0,0,0,0,0,0,0,0,-1,1056,1065,0,0
-161,-41,0,0,0,0,0,0,0,0,0,-1,1063,1065,0,0
-154,-41,0,0,0,0,0,0,0,0,0,-1,1070,1065,0,0
-147,-41,0,0,0,0,0,0,0,0,0,-1,1077,1065,0,0
-140,-41,0,0,0,0,0,0,0,0,0,-1,1084,1065,0,0
-133,-41,0,0,0,0,0,0,0,0,0,-1,1091,1065,0,0
-126,-41,0,0,0,0,0,0,0,0,0,-1,1098,1065,0,0
-119,-41,0,0,0,0,0,0,0,0,0,-1,1105,1065,0,0
-112,-41,0,0,0,0,0,0,0,0,0,-1,1112,1065,0,0
-105,-41,0,0,0,0,0,0,0,0,0,-1,1119,1065,0,0
-98,-41,0,0,0,0,0,0,0,0,0,-1,1126,1065,0,0
-91,-41,0,0,0,0,0,0,0,0,0,-1,1133,1065,0,0
-84,-41,0,0,0,0,0,0,0,0,0,-1,1140,1065,0,0
-77,-41,0,0,0,0,0,0,0,0,0,-1,1147,1065,0,0
-70,-41,0,0,0,0,0,0,0,0,0,-1,1154,1065,0,0
-63,-41,0,0,0,0,0,0,0,0,0,-1,1161,1065,0,0
-56,-41,0,0,0,0,0,0,0,0,0,-1,1168,1065,0,0
-49,-41,0,0,0,0,0,0,0,0,0,-1,1175,1065,0,0
-42,-41,0,0,0,0,0,0,0,0,0,-1,1182,1065,0,0
-35,-41,0,0,0,0,0,0,0,0,0,-1,1189,1065,0,0
-28,-41,0,0,0,0,0,0,0,0,0,-1,1196,1065,0,0
-21,-41,0,0,0,0,0,0,0,0,0,-1,1203,1065,0,0
-14,-41,0,0,0,0,0,0,0,0,0,-1,1210,1065,0,0
-7,-41,0,0,0,0,0,0,0,0,0,-1,1217,1065,0,0
0,-41,0,0,0,0,0,0,0,0,0,-1,1224,1065,0,0
7,-41,0,0,0,0,0,0,0,0,0,-1,1231,1065,0,0
14,-41,0,0,0,0,0,0,0,0,0,-1,1238,1065,0,0
21,-41,0,0,0,0,0,0,0,0,0,-1,1245,1065,0,0
28,-41,0,0,0,0,0,0,0,0,0,-1,1252,1065,0,0
35,-41,0,0,0,0,0,0,0,0,0,-1,1259,1065,0,0
42,-41,0,0,0,0,0,0,0,0,0,-1,1266,1065,0,0
49,-41,0,0,0,0,0,0,0,0,0,-1,1273,1065,0,0
56,-41,0,0,0,0,0,0,0,0,0,-1,1280,1065,0,0
63,-41,0,0,0,0,0,0,0,0,0,-1,1287,1065,0,0
70,-41,0,0,0,0,0,0,0,0,0,-1,1294,1065,0,0
77,-41,0,0,0,0,0,0,0,0,0,-1,1301,1065,0,0
84,-41,0,0,0,0,0,0,0,0,0,-1,1308,1065,0,0
91,-41,0,0,0,0,0,0,0,0,0,-1,1315,1065,0,0
98,-41,0,0,0,0,0,0,0,0,0,-1,1322,1065,0,0
105,-41,0,0,0,0,0,0,0,0,0,-1,1329,1065,0,0
112,-41,0,0,0,0,0,0,0,0,0,-1,1336,1065,0,0
119,-41,0,0,0,0,0,0,0,0,0,-1,1343,1065,0,0
126,-41,0,0,0,0,0,0,0,0,0,-1,1350,1065,0,0
133,-41,0,0,0,0,0,0,0,0,0,-1,1357,1065,0,0
140,-41,0,0,0,0,0,0,0,0,0,-1,1364,1065,0,0
147,-41,0,0,0,0,0,0,0,0,0,-1,1371,1065,0,0
154,-41,0,0,0,0,0,0,0,0,0,-1,1378,1065,0,0
161,-41,0,0,0,0,0,0,0,0,0,-1,1385,1065,0,0
168,-41,0,0,0,0,0,0,0,0,0,-1,1392,1065,0,0
175,-41,0,0,0,0,0,0,0,0,0,-1,1399,1065,0,0
182,-41,0,0,0,0,0,0,0,0,0,-1,1406,1065,0,0
189,-41,0,0,0,0,0,0,0,0,0,-1,1413,1065,0,0
196,-41,0,0,0,0,0,0,0,0,0,-1,1420,1065,0,0
203,-41,0,0,0,0,0,0,0,0,0,-1,1427,1065,0,0
210,-41,0,0,0,0,0,0,0,0,0,-1,1434,1065,0,0
217,-41,0,0,0,0,0,0,0,0,0,-1,1441,1065,0,0
224,-41,0,0,0,0,0,0,0,0,0,-1,1448,1065,0,0
231,-41,0,0,0,0,0,0,0,0,0,-1,1455,1065,0,0
238,-41,0,0,0,0,0,0,0,0,0,-1,1462,1065,0,0
245,-41,0,0,0,0,0,0,0,0,0,-1,1469,1065,0,0
252,-41,0,0,0,0,0,0,0,0,0,-1,1476,1065,0,0
259,-41,0,0,0,0,0,0,0,0,0,-1,1483,1065,0,0
266,-41,0,0,0,0,0,0,0,0,0,-1,1490,1065,0,0
273,-41,0,0,0,0,0,0,0,0,0,-1,1497,1065,0,0
280,-41,0,0,0,0,0,0,0,0,0,-1,1504,1065,0,0
287,-41,0,0,0,0,0,0,0,0,0,-1,1511,1065,0,0
294,-41,0,0,0,0,0,0,0,0,0,-1,1518,1065,0,0
301,-41,0,0,0,0,0,0,0,0,0,-1,1525,1065,0,0
308,-41,0,0,0,0,0,0,0,0,0,-1,1532,1065,0,0
315,-41,0,0,0,0,0,0,0,0,0,-1,1539,1065,0,0
322,-41,0,0,0,0,0,0,0,0,0,-1,1546,1065,0,0
329,-41,0,0,0,0,0,0,0,0,0,-1,1553,1065,0,0
336,-41,0,0,0,0,0,0,0,0,0,-1,1560,1065,0,0
343,-41,0,0,0,0,0,0,0,0,0,-1,1567,1065,0,0
350,-41,0,0,0,0,0,0,0,0,0,-1,1574,1065,0,0
357,-41,0,0,0,0,0,0,0,0,0,-1,1581,1065,0,0
364,-41,0,0,0,0,0,0,0,0,0,-1,1588,1065,0,0
371,-41,0,0,0,0,0,0,0,0,0,-1,1595,1065,0,0
378,-41,0,0,0,0,0,0,0,0,0,-1,1602,1065,0,0
385,-41,0,0,0,0,0,0,0,0,0,-1,1609,1065,0,0
392,-41,0,0,0,0,0,0,0,0,0,-1,1616,1065,0,0
399,-41,0,0,0,0,0,0,0,0,0,-1,1623,1065,0,0
406,-41,0,0,0,0,0,0,0,0,0,-1,1630,1065,0,0
413,-41,0,0,0,0,0,0,0,0,0,-1,1637,1065,0,0
420,-41,0,0,0,0,0,0,0,0,0,-1,1644,1065,0,0
427,-41,0,0,0,0,0,0,0,0,0,-1,1651,1065,0,0
434,-41,0,0,0,0,0,0,0,0,0,-1,1658,1065,0,0
441,-41,0,0,0,0,0,0,0,0,0,-1,1665,1065,0,0
448,-41,0,0,0,0,0,0,0,0,0,-1,1672,1065,0,0
455,-41,0,0,0,0,0,0,0,0,0,-1,1679,1065,0,0
462,-41,0,0,0,0,0,0,0,0,0,-1,1686,1065,0,0
469,-41,0,0,0,0,0,0,0,0,0,-1,1693,1065,0,0
476,-41,0,0,0,0,0,0,0,0,0,-1,1700,1065,0,0
483,-41,0,0,0,0,0,0,0,0,0,-1,1707,1065,0,0
490,-41,0,0,0,0,0,0,0,0,0,-1,1714,1065,0,0
497,-41,0,0,0,0,0,0,0,0,0,-1,1721,1065,0,0
504,-41,0,0,0,0,0,0,0,0,0,-1,1728,1065,0,0
511,-41,0,0,0,0,0,0,0,0,0,-1,1735,1065,0,0
518,-41,0,0,0,0,0,0,0,0,0,-1,1742,1065,0,0
525,-41,0,0,0,0,0,0,0,0,0,-1,1749,1065,0,0
532,-41,0,0,0,0,0,0,0,0,0,-1,1756,1065,0,0
539,-41,0,0,0,0,0,0,0,0,0,-1,1763,1065,0,0
546,-41,0,0,0,0,0,0,0,0,0,-1,1770,1065,0,0
553,-41,0,0,0,0,0,0,0,0,0,-1,1777,1065,0,0
560,-41,0,0,0,0,0,0,0,0,0,-1,1784,1065,0,0
567,-41,0,0,0,0,0,0,0,0,0,-1,1791,1065,0,0
574,-41,0,0,0,0,0,0,0,0,0,-1,1798,1065,0,0
581,-41,0,0,0,0,0,0,0,0,0,-1,1805,1065,0,0
588,-41,0,0,0,0,0,0,0,0,0,-1,1812,1065,0,0
595,-41,0,0,0,0,0,0,0,0,0,-1,1819,1065,0,0
602,-41,0,0,0,0,0,0,0,0,0,-1,1826,1065,0,0
609,-41,0,0,0,0,0,0,0,0,0,-1,1833,1065,0,0
616,-41,0,0,0,0,0,0,0,0,0,-1,1840,1065,0,0
623,-41,0,0,0,0,0,0,0,0,0,-1,1847,1065,0,0
630,-41,0,0,0,0,0,0,0,0,0,-1,1854,1065,0,0
637,-41,0,0,0,0,0,0,0,0,0,-1,1861,1065,0,0
644,-41,0,0,0,0,0,0,0,0,0,-1,1868,1065,0,0
651,-41,-0.095459,-0.0332031,-0.0028881,0.000513404,0.00105405,0.000813549,-0.00318824,1.29339,0.00244227,0.0312748,1875,1065,-0.0954983,0.0332424
658,-41,-0.00415039,0.0526123,-0.00219456,0.000233757,0.000600897,0.000374316,-0.00233511,1.34101,0.00169535,0.0364645,1882,1065,-0.00420692,-0.0525859
665,-41,0.00585938,0.135498,-0.00155604,2.19797e-05,0.000280803,7.04583e-05,-0.00160452,1.39984,0.00109392,0.0373777,1889,1065,0.00589721,-0.135489
672,-41,-0.0667725,0.0670166,-0.00100865,-0.000135537,9.85494e-05,-0.000124552,-0.00101963,1.45979,0.000642276,0.0351406,1896,1065,-0.0668017,-0.0669989
679,-41,-0.0751953,0.0228271,-0.000599357,-0.000233467,-4.28177e-07,-0.000233466,-0.000599358,-1.56963,0.000348844,0.0338689,1903,1065,-0.0751538,-0.0228571
686,-41,0.0158691,0.0622559,-0.000300323,-0.000279002,-4.44414e-05,-0.000243961,-0.000335365,-0.903114,0.000200189,0.0354697,1910,1065,0.0158177,-0.0623088
693,-41,-0.00695801,0.0665283,-7.96715e-05,-0.000287416,-5.70268e-05,-6.50469e-05,-0.00030204,-0.251041,0.000183561,0.03826,1917,1065,-0.00700429,-0.0665321
700,-41,-0.0617676,0.097168,6.85848e-05,-0.000242049,-4.07846e-05,7.38504e-05,-0.000247315,-0.128396,0.000194231,0.0321221,1924,1065,-0.0617974,-0.097196
707,-41,-0.048584,0.0809326,0.000196263,-0.000266658,-6.52284e-05,0.000205278,-0.000275674,-0.137344,0.000278667,0.0178787,1931,1065,-0.0486258,-0.0809218
714,-41,-0.0292969,0.0562744,0.00029043,-0.000230937,-8.81225e-05,0.000304922,-0.000245429,-0.162992,0.000318364,0.0083355,1938,1065,-0.0292957,-0.056247
721,-41,0.0130615,0.0506592,0.000297682,-0.000159584,-4.48263e-05,0.000302035,-0.000163937,-0.0968032,0.000272939,0.0136696,1945,1065,0.0130805,-0.0506347
728,-41,-0.0157471,0.0512695,0.000206015,-7.87515e-05,5.54739e-05,0.00021644,-8.91764e-05,0.185759,0.000181475,0.015163,1952,1065,-0.0157678,-0.0512823
735,-41,-0.0415039,0.0610352,6.528e-05,2.48155e-05,0.000267049,0.000312862,-0.000222766,0.747589,0.0003107,0.0138113,1959,1065,-0.0414919,-0.0609986
742,-41,-0.0482178,0.0438232,2.63291e-05,0.000250017,0.000787902,0.000933974,-0.000657628,0.855903,0.000923517,0.0122647,1966,1065,-0.0482181,-0.0437768
749,-41,-0.00415039,0.0554199,0.000483382,0.000111546,0.00138629,0.00169616,-0.00110124,0.71874,0.00162721,0.0122459,1973,1065,-0.00409083,-0.0554478
756,-41,-0.00195313,0.0598145,0.00133334,0.000568126,0.00266678,0.00364482,-0.00174335,0.714148,0.00317477,0.0127419,1980,1065,-0.00193709,-0.0598465
763,-41,-0.0294189,0.0463867,0.00247657,0.000494147,0.00384203,0.00545319,-0.00248247,0.659155,0.00468745,0.0107037,1987,1065,-0.0293975,-0.0464014
770,-41,-0.0296631,0.0489502,0.00384754,0.000607102,0.00541747,0.00788189,-0.00342725,0.640095,0.00669605,0.011776,1994,1065,-0.0296335,-0.0489751
777,-41,-0.0349121,0.0495605,0.00580037,0.000693856,0.00738948,0.0110653,-0.00457104,0.619056,0.00928354,0.0133811,2001,1065,-0.0349433,-0.0496182
784,-41,-0.0708008,0.0838623,0.008424,0.000732264,0.00973932,0.0150493,-0.00589303,0.597356,0.0124703,0.0242587,2008,1065,-0.0708055,-0.0838511
791,-41,-0.0664063,0.850098,0.0118249,0.000688581,0.012414,0.0198623,-0.00734884,0.574579,0.0162547,0.0406544,2015,1065,-0.0664076,-0.850148
798,-41,-0.230347,1.39099,0.0161445,0.000502874,0.0153202,0.0255246,-0.00887727,0.549396,0.0206225,0.0433024,2022,1065,-0.230286,-1.39099
805,-41,-0.424805,1.55054,0.0214988,9.10222e-05,0.0183117,0.0320056,-0.0104158,0.520912,0.0255274,0.042464,2029,1065,-0.424822,-1.55051
812,-41,1.37573,3.12903,0,0,0,0,0,0,0,-1,2036,1065,1.37573,-3.12905
-700,-48,0.323486,2.7323,0.00821757,-0.00738644,-0.0548258,0.0557937,-0.0549625,-0.71472,0.0639457,0.044099,524,1072,0.323497,-2.73232
-693,-48,0.155029,2.14075,0.000609953,-0.000461303,-0.042324,0.0424017,-0.0422531,-0.779071,0.0488755,0.0423442,531,1072,0.155053,-2.14079
-686,-48,0.155823,1.29773,-0.00326077,0.00359078,-0.0320246,0.0323723,-0.0320423,-0.838682,0.0371899,0.0439269,538,1072,0.155831,-1.29769
-679,-48,-0.121643,0.376221,-0.00490505,0.00575375,-0.0235857,0.0246047,-0.023756,-0.896512,0.0279225,0.0418398,545,1072,-0.121623,-0.376231
-672,-48,-0.137878,0.0743408,-0.00519211,0.00662552,-0.0167915,0.0185175,-0.0170841,-0.954579,0.0205601,0.0421184,552,1072,-0.137861,-0.0742799
-665,-48,-0.0843506,-0.240234,-0.00466573,0.0066132,-0.0114832,0.013767,-0.0118195,-1.01365,0.0147866,0.0454604,559,1072,-0.0843753,0.240184
-658,-48,0.0123291,-0.127197,-0.00376713,0.00602939,-0.007481,0.0100731,-0.00781081,-1.07526,0.0103528,0.0451394,566,1072,0.0123288,0.127255
-651,-48,-0.027832,0.057373,-0.0027592,0.00511897,-0.00458993,0.00722835,-0.00486857,-1.14002,0.00702831,0.0285781,573,1072,-0.0278058,-0.057425
-644,-48,-0.0379639,0.0435791,-0.00237244,0.0046356,-0.00222177,0.0052806,-0.00301745,-1.28825,0.00484991,0.011416,580,1072,-0.0379666,-0.0435218
-637,-48,-0.0253906,0.0423584,-0.00167803,0.00344641,-0.00044002,0.00348392,-0.00171554,-1.48576,0.00305923,0.01094,587,1072,-0.0254195,-0.0423719
-630,-48,-0.0139771,0.0592041,-0.000603397,0.00240952,0.000346764,0.00244891,-0.000642792,1.45767,0.00188379,0.0129434,594,1072,-0.0140039,-0.0591488
-623,-48,-0.0178223,0.0583496,7.06459e-05,0.00203367,0.000750858,0.00228794,-0.000183622,1.24428,0.00159004,0.0090959,601,1072,-0.017812,-0.0584039
-616,-48,-0.0267334,0.0610352,0.000525993,0.000727523,0.000538191,0.0011743,7.92153e-05,0.877941,0.000757844,0.00844029,608,1072,-0.0267394,-0.0609752
-609,-48,-0.0305786,0.057373,0.00038861,0.000291631,0.000188319,0.000534582,0.000145659,0.659392,0.000319116,0.0108492,615,1072,-0.0305554,-0.0573462
-602,-48,-0.0339355,0.0421143,9.96473e-05,0.000410639,8.03493e-05,0.000430172,8.01147e-05,1.33233,0.000264158,0.0114527,622,1072,-0.0339062,-0.0421172
-595,-48,-0.0168457,0.0657959,4.55659e-06,0.000451769,2.14915e-05,0.000452799,3.52616e-06,1.52289,0.000300698,0.0129015,629,1072,-0.0168164,-0.065844
-588,-48,-0.0255127,0.0588379,-2.99629e-06,0.000465105,-6.26472e-05,0.000473344,-1.12355e-05,-1.44003,0.000319374,0.0243375,636,1072,-0.0255375,-0.058783
-581,-48,-0.0285645,-0.0184326,9.6577e-05,0.000443476,-0.000208484,0.000541229,-1.17524e-06,-1.13236,0.000361211,0.0366924,643,1072,-0.0285683,0.018441
-574,-48,-0.0507813,-0.120117,0.000244038,0.000405605,-0.000354311,0.000688225,-3.85818e-05,-0.897483,0.000472203,0.0379249,650,1072,-0.0508039,0.120098
-567,-48,-0.0273438,0.0270996,0.000427396,0.000296089,-0.000553894,0.000919514,-0.000196029,-0.726408,0.000687729,0.0388159,657,1072,-0.0273631,-0.0270716
-560,-48,-0.0318604,-0.0187988,0.000675118,9.38648e-05,-0.000854286,0.00128686,-0.000517876,-0.62144,0.00107303,0.0380943,664,1072,-0.0318445,0.0188022
-553,-48,-0.0524292,-0.0393066,0.000990322,-0.000216265,-0.00129513,0.00181578,-0.00104172,-0.567434,0.00166983,0.0367097,671,1072,-0.0524121,0.0393077
-546,-48,-0.126709,-0.0634766,0.00132844,-0.000651815,-0.00190392,0.0024843,-0.00180767,-0.545619,0.00248821,0.0356135,678,1072,-0.126726,0.0634411
-539,-48,-0.156982,-0.231934,0.0017115,-0.00123646,-0.00270732,0.00332008,-0.00284504,-0.536115,0.00356296,0.0369485,685,1072,-0.157008,0.231976
-532,-48,-0.140747,-0.197632,0.00200932,-0.0019765,-0.00379968,0.00430701,-0.00427419,-0.543873,0.00495437,0.0377593,692,1072,-0.140742,0.197667
-525,-48,0,0,0,0,0,0,0,0,0,-1,699,1072,0,0
-518,-48,0,0,0,0,0,0,0,0,0,-1,706,1072,0,0
-511,-48,0,0,0,0,0,0,0,0,0,-1,713,1072,0,0
-504,-48,0,0,0,0,0,0,0,0,0,-1,720,1072,0,0
-497,-48,0,0,0,0,0,0,0,0,0,-1,727,1072,0,0
-490,-48,0,0,0,0,0,0,0,0,0,-1,734,1072,0,0
-483,-48,0,0,0,0,0,0,0,0,0,-1,741,1072,0,0
-476,-48,0,0,0,0,0,0,0,0,0,-1,748,1072,0,0
-469,-48,0,0,0,0,0,0,0,0,0,-1,755,1072,0,0
-462,-48,0,0,0,0,0,0,0,0,0,-1,762,1072,0,0
-455,-48,0,0,0,0,0,0,0,0,0,-1,769,1072,0,0
-448,-48,0,0,0,0,0,0,0,0,0,-1,776,1072,0,0
-441,-48,0,0,0,0,0,0,0,0,0,-1,783,1072,0,0
-434,-48,0,0,0,0,0,0,0,0,0,-1,790,1072,0,0
-427,-48,0,0,0,0,0,0,0,0,0,-1,797,1072,0,0
-420,-48,0,0,0,0,0,0,0,0,0,-1,804,1072,0,0
-413,-48,0,0,0,0,0,0,0,0,0,-1,811,1072,0,0
-406,-48,0,0,0,0,0,0,0,0,0,-1,818,1072,0,0
-399,-48,0,0,0,0,0,0,0,0,0,-1,825,1072,0,0
-392,-48,0,0,0,0,0,0,0,0,0,-1,832,1072,0,0
-385,-48,0,0,0,0,0,0,0,0,0,-1,839,1072,0,0
-378,-48,0,0,0,0,0,0,0,0,0,-1,846,1072,0,0
-371,-48,0,0,0,0,0,0,0,0,0,-1,853,1072,0,0
-364,-48,0,0,0,0,0,0,0,0,0,-1,860,1072,0,0
-357,-48,0,0,0,0,0,0,0,0,0,-1,867,1072,0,0
-350,-48,0,0,0,0,0,0,0,0,0,-1,874,1072,0,0
-343,-48,0,0,0,0,0,0,0,0,0,-1,881,1072,0,0
-336,-48,0,0,0,0,0,0,0,0,0,-1,888,1072,0,0
-329,-48,0,0,0,0,0,0,0,0,0,-1,895,1072,0,0
-322,-48,0,0,0,0,0,0,0,0,0,-1,902,1072,0,0
-315,-48,0,0,0,0,0,0,0,0,0,-1,909,1072,0,0
-308,-48,0,0,0,0,0,0,0,0,0,-1,916,1072,0,0
-301,-48,0,0,0,0,0,0,0,0,0,-1,923,1072,0,0
-294,-48,0,0,0,0,0,0,0,0,0,-1,930,1072,0,0
-287,-48,0,0,0,0,0,0,0,0,0,-1,937,1072,0,0
-280,-48,0,0,0,0,0,0,0,0,0,-1,944,1072,0,0
-273,-48,0,0,0,0,0,0,0,0,0,-1,951,1072,0,0
-266,-48,0,0,0,0,0,0,0,0,0,-1,958,1072,0,0
-259,-48,0,0,0,0,0,0,0,0,0,-1,965,1072,0,0
-252,-48,0,0,0,0,0,0,0,0,0,-1,972,1072,0,0
-245,-48,0,0,0,0,0,0,0,0,0,-1,979,1072,0,0
-238,-48,0,0,0,0,0,0,0,0,0,-1,986,1072,0,0
-231,-48,0,0,0,0,0,0,0,0,0,-1,993,1072,0,0
-224,-48,0,0,0,0,0,0,0,0,0,-1,1000,1072,0,0
-217,-48,0,0,0,0,0,0,0,0,0,-1,1007,1072,0,0
-210,-48,0,0,0,0,0,0,0,0,0,-1,1014,1072,0,0
-203,-48,0,0,0,0,0,0,0,0,0,-1,1021,1072,0,0
-196,-48,0,0,0,0,0,0,0,0,0,-1,1028,1072,0,0
-189,-48,0,0,0,0,0,0,0,0,0,-1,1035,1072,0,0
-182,-48,0,0,0,0,0,0,0,0,0,-1,1042,1072,0,0
-175,-48,0,0,0,0,0,0,0,0,0,-1,1049,1072,0,0
-168,-48,0,0,0,0,0,0,0,0,0,-1,1056,1072,0,0
-161,-48,0,0,0,0,0,0,0,0,0,-1,1063,1072,0,0
-154,-48,0,0,0,0,0,0,0,0,0,-1,1070,1072,0,0
-147,-48,0,0,0,0,0,0,0,0,0,-1,1077,1072,0,0
-140,-48,0,0,0,0,0,0,0,0,0,-1,1084,1072,0,0
-133,-48,0,0,0,0,0,0,0,0,0,-1,1091,1072,0,0
-126,-48,0,0,0,0,0,0,0,0,0,-1,1098,1072,0,0
-119,-48,0,0,0,0,0,0,0,0,0,-1,1105,1072,0,0
-112,-48,0,0,0,0,0,0,0,0,0,-1,1112,1072,0,0
-105,-48,0,0,0,0,0,0,0,0,0,-1,1119,1072,0,0
-98,-48,0,0,0,0,0,0,0,0,0,-1,1126,1072,0,0
-91,-48,0,0,0,0,0,0,0,0,0,-1,1133,1072,0,0
-84,-48,0,0,0,0,0,0,0,0,0,-1,1140,1072,0,0
-77,-48,0,0,0,0,0,0,0,0,0,-1,1147,1072,0,0
-70,-48,0,0,0,0,0,0,0,0,0,-1,1154,1072,0,0
-63,-48,0,0,0,0,0,0,0,0,0,-1,1161,1072,0,0
-56,-48,0,0,0,0,0,0,0,0,0,-1,1168,1072,0,0
-49,-48,0,0,0,0,0,0,0,0,0,-1,1175,1072,0,0
-42,-48,0,0,0,0,0,0,0,0,0,-1,1182,1072,0,0
-35,-48,0,0,0,0,0,0,0,0,0,-1,1189,1072,0,0
-28,-48,0,0,0,0,0,0,0,0,0,-1,1196,1072,0,0
-21,-48,0,0,0,0,0,0,0,0,0,-1,1203,1072,0,0
-14,-48,0,0,0,0,0,0,0,0,0,-1,1210,1072,0,0
-7,-48,0,0,0,0,0,0,0,0,0,-1,1217,1072,0,0
0,-48,0,0,0,0,0,0,0,0,0,-1,1224,1072,0,0
7,-48,0,0,0,0,0,0,0,0,0,-1,1231,1072,0,0
14,-48,0,0,0,0,0,0,0,0,0,-1,1238,1072,0,0
21,-48,0,0,0,0,0,0,0,0,0,-1,1245,1072,0,0
28,-48,0,0,0,0,0,0,0,0,0,-1,1252,1072,0,0
35,-48,0,0,0,0,0,0,0,0,0,-1,1259,1072,0,0
42,-48,0,0,0,0,0,0,0,0,0,-1,1266,1072,0,0
49,-48,0,0,0,0,0,0,0,0,0,-1,1273,1072,0,0
56,-48,0,0,0,0,0,0,0,0,0,-1,1280,1072,0,0
63,-48,0,0,0,0,0,0,0,0,0,-1,1287,1072,0,0
70,-48,0,0,0,0,0,0,0,0,0,-1,1294,1072,0,0
77,-48,0,0,0,0,0,0,0,0,0,-1,1301,1072,0,0
84,-48,0,0,0,0,0,0,0,0,0,-1,1308,1072,0,0
91,-48,0,0,0,0,0,0,0,0,0,-1,1315,1072,0,0
98,-48,0,0,0,0,0,0,0,0,0,-1,1322,1072,0,0
105,-48,0,0,0,0,0,0,0,0,0,-1,1329,1072,0,0
112,-48,0,0,0,0,0,0,0,0,0,-1,1336,1072,0,0
119,-48,0,0,0,0,0,0,0,0,0,-1,1343,1072,0,0
126,-48,0,0,0,0,0,0,0,0,0,-1,1350,1072,0,0
133,-48,0,0,0,0,0,0,0,0,0,-1,1357,1072,0,0
140,-48,0,0,0,0,0,0,0,0,0,-1,1364,1072,0,0
147,-48,0,0,0,0,0,0,0,0,0,-1,1371,1072,0,0
154,-48,0,0,0,0,0,0,0,0,0,-1,1378,1072,0,0
161,-48,0,0,0,0,0,0,0,0,0,-1,1385,1072,0,0
168,-48,0,0,0,0,0,0,0,0,0,-1,1392,1072,0,0
175,-48,0,0,0,0,0,0,0,0,0,-1,1399,1072,0,0
182,-48,0,0,0,0,0,0,0,0,0,-1,1406,1072,0,0
189,-48,0,0,0,0,0,0,0,0,0,-1,1413,1072,0,0
196,-48,0,0,0,0,0,0,0,0,0,-1,1420,1072,0,0
203,-48,0,0,0,0,0,0,0,0,0,-1,1427,1072,0,0
210,-48,0,0,0,0,0,0,0,0,0,-1,1434,1072,0,0
217,-48,0,0,0,0,0,0,0,0,0,-1,1441,1072,0,0
224,-48,0,0,0,0,0,0,0,0,0,-1,1448,1072,0,0
231,-48,0,0,0,0,0,0,0,0,0,-1,1455,1072,0,0
238,-48,0,0,0,0,0,0,0,0,0,-1,1462,1072,0,0
245,-48,0,0,0,0,0,0,0,0,0,-1,1469,1072,0,0
252,-48,0,0,0,0,0,0,0,0,0,-1,1476,1072,0,0
259,-48,0,0,0,0,0,0,0,0,0,-1,1483,1072,0,0
266,-48,0,0,0,0,0,0,0,0,0,-1,1490,1072,0,0
273,-48,0,0,0,0,0,0,0,0,0,-1,1497,1072,0,0
280,-48,0,0,0,0,0,0,0,0,0,-1,1504,1072,0,0
287,-48,0,0,0,0,0,0,0,0,0,-1,1511,1072,0,0
294,-48,0,0,0,0,0,0,0,0,0,-1,1518,1072,0,0
301,-48,0,0,0,0,0,0,0,0,0,-1,1525,1072,0,0
308,-48,0,0,0,0,0,0,0,0,0,-1,1532,1072,0,0
315,-48,0,0,0,0,0,0,0,0,0,-1,1539,1072,0,0
322,-48,0,0,0,0,0,0,0,0,0,-1,1546,1072,0,0
329,-48,0,0,0,0,0,0,0,0,0,-1,1553,1072,0,0
336,-48,0,0,0,0,0,0,0,0,0,-1,1560,1072,0,0
343,-48,0,0,0,0,0,0,0,0,0,-1,1567,1072,0,0
350,-48,0,0,0,0,0,0,0,0,0,-1,1574,1072,0,0
357,-48,0,0,0,0,0,0,0,0,0,-1,1581,1072,0,0
364,-48,0,0,0,0,0,0,0,0,0,-1,1588,1072,0,0
371,-48,0,0,0,0,0,0,0,0,0,-1,1595,1072,0,0
378,-48,0,0,0,0,0,0,0,0,0,-1,1602,1072,0,0
385,-48,0,0,0,0,0,0,0,0,0,-1,1609,1072,0,0
392,-48,0,0,0,0,0,0,0,0,0,-1,1616,1072,0,0
399,-48,0,0,0,0,0,0,0,0,0,-1,1623,1072,0,0
406,-48,0,0,0,0,0,0,0,0,0,-1,1630,1072,0,0
413,-48,0,0,0,0,0,0,0,0,0,-1,1637,1072,0,0
420,-48,0,0,0,0,0,0,0,0,0,-1,1644,1072,0,0
427,-48,0,0,0,0,0,0,0,0,0,-1,1651,1072,0,0
434,-48,0,0,0,0,0,0,0,0,0,-1,1658,1072,0,0
441,-48,0,0,0,0,0,0,0,0,0,-1,1665,1072,0,0
448,-48,0,0,0,0,0,0,0,0,0,-1,1672,1072,0,0
455,-48,0,0,0,0,0,0,0,0,0,-1,1679,1072,0,0
462,-48,0,0,0,0,0,0,0,0,0,-1,1686,1072,0,0
469,-48,0,0,0,0,0,0,0,0,0,-1,1693,1072,0,0
476,-48,0,0,0,0,0,0,0,0,0,-1,1700,1072,0,0
483,-48,0,0,0,0,0,0,0,0,0,-1,1707,1072,0,0
490,-48,0,0,0,0,0,0,0,0,0,-1,1714,1072,0,0
497,-48,0,0,0,0,0,0,0,0,0,-1,1721,1072,0,0
504,-48,0,0,0,0,0,0,0,0,0,-1,1728,1072,0,0
511,-48,0,0,0,0,0,0,0,0,0,-1,1735,1072,0,0
518,-48,0,0,0,0,0,0,0,0,0,-1,1742,1072,0,0
525,-48,0,0,0,0,0,0,0,0,0,-1,1749,1072,0,0
532,-48,0,0,0,0,0,0,0,0,0,-1,1756,1072,0,0
539,-48,0,0,0,0,0,0,0,0,0,-1,1763,1072,0,0
546,-48,0,0,0,0,0,0,0,0,0,-1,1770,1072,0,0
553,-48,0,0,0,0,0,0,0,0,0,-1,1777,1072,0,0
560,-48,0,0,0,0,0,0,0,0,0,-1,1784,1072,0,0
567,-48,0,0,0,0,0,0,0,0,0,-1,1791,1072,0,0
574,-48,0,0,0,0,0,0,0,0,0,-1,1798,1072,0,0
581,-48,0,0,0,0,0,0,0,0,0,-1,1805,1072,0,0
588,-48,0,0,0,0,0,0,0,0,0,-1,1812,1072,0,0
595,-48,0,0,0,0,0,0,0,0,0,-1,1819,1072,0,0
602,-48,0,0,0,0,0,0,0,0,0,-1,1826,1072,0,0
609,-48,0,0,0,0,0,0,0,0,0,-1,1833,1072,0,0
616,-48,0,0,0,0,0,0,0,0,0,-1,1840,1072,0,0
623,-48,0,0,0,0,0,0,0,0,0,-1,1847,1072,0,0
630,-48,0,0,0,0,0,0,0,0,0,-1,1854,1072,0,0
637,-48,0,0,0,0,0,0,0,0,0,-1,1861,1072,0,0
644,-48,0,0,0,0,0,0,0,0,0,-1,1868,1072,0,0
651,-48,-0.086792,-0.0167236,-0.00229689,0.000112747,0.00192145,0.00117587,-0.00336002,1.06543,0.00271812,0.0272447,1875,1072,-0.0867682,0.0167264
658,-48,-0.0644531,0.105103,-0.00184037,-5.95259e-05,0.0012421,0.000578343,-0.00247823,1.09638,0.00187491,0.0314189,1882,1072,-0.0643932,-0.105131
665,-48,-0.0518799,0.182251,-0.00136132,-0.000188415,0.000741222,0.000170297,-0.00172003,1.12007,0.00120746,0.0364318,1889,1072,-0.0518697,-0.182203
672,-48,-0.0874023,0.0964355,-0.000923551,-0.000282994,0.000415415,-7.87264e-05,-0.00112782,1.1138,0.000727059,0.0374768,1896,1072,-0.0873841,-0.0964839
679,-48,-0.0977783,-0.0507813,-0.000586148,-0.000330606,0.000203653,-0.000217961,-0.000698793,1.06556,0.000412854,0.0361203,1903,1072,-0.0977412,0.0507803
686,-48,0.0117188,-0.024292,-0.000329424,-0.000335198,7.63809e-05,-0.000255876,-0.000408746,0.766506,0.000238475,0.0354642,1910,1072,0.0116832,0.0242794
693,-48,-0.074585,0.0772705,-0.000132035,-0.000311805,5.99782e-06,-0.000131836,-0.000312005,0.0333145,0.000180855,0.0342625,1917,1072,-0.0746294,-0.0772626
700,-48,-0.0841064,0.121216,-6.60233e-06,-0.000235296,-2.04426e-05,-4.78937e-06,-0.000237109,-0.0884542,0.000156501,0.0300352,1924,1072,-0.0840611,-0.121237
707,-48,-0.039917,0.055542,0.000112162,-0.00023778,-7.64496e-05,0.000128134,-0.000253753,-0.205965,0.000224424,0.0182728,1931,1072,-0.0399568,-0.0555804
714,-48,-0.0247803,0.0493164,0.000215729,-0.000192846,-0.000115848,0.000246291,-0.000223407,-0.257932,0.000271288,0.0103618,1938,1072,-0.0247337,-0.0492741
721,-48,-0.0114746,0.0469971,0.000243549,-0.000119458,-7.49492e-05,0.000258415,-0.000134324,-0.195804,0.00023049,0.0133314,1945,1072,-0.0114333,-0.0470359
728,-48,-0.0162354,0.0637207,0.000166574,-3.29806e-05,2.74303e-05,0.000170276,-3.66824e-05,0.134143,0.000127516,0.0177228,1952,1072,-0.0162459,-0.0637087
735,-48,-0.0415039,0.0767822,3.56008e-05,6.79839e-05,0.000239614,0.000291952,-0.000188368,0.819134,0.000279454,0.0155995,1959,1072,-0.0415069,-0.0768364
742,-48,-0.0447998,0.0645752,2.28336e-05,0.000347996,0.00076588,0.000968361,-0.000597531,0.889986,0.00091248,0.0124185,1966,1072,-0.0448316,-0.064558
749,-48,-0.0183105,0.0524902,0.000453318,0.000349502,0.00140629,0.00180866,-0.00100584,0.766951,0.00164684,0.0112512,1973,1072,-0.0183529,-0.0525375
756,-48,-0.0134277,0.0480957,0.00123408,0.000929217,0.00274599,0.00383186,-0.00166856,0.757671,0.00325651,0.0117603,1980,1072,-0.0134114,-0.048102
763,-48,-0.00415039,0.0439453,0.00230414,0.000928053,0.00402787,0.00570231,-0.00247011,0.700804,0.00483979,0.0125179,1987,1072,-0.00414785,-0.04394
770,-48,0.0161133,0.039917,0.00358184,0.00120719,0.00572207,0.00823847,-0.00344944,0.683101,0.00693427,0.0121346,1994,1072,0.0161126,-0.0399277
777,-48,-0.0268555,0.0460205,0.00540211,0.00149331,0.00786877,0.0115556,-0.00466014,0.663674,0.00964016,0.0101346,2001,1072,-0.0268658,-0.0460053
784,-48,-0.067749,0.0649414,0.00784499,0.00175402,0.0104608,0.0156946,-0.00609563,0.643747,0.0129811,0.0219212,2008,1072,-0.0678018,-0.0649235
791,-48,-0.122559,0.39563,0.0110126,0.00193311,0.0134617,0.0206794,-0.00773371,0.62277,0.0169624,0.0399491,2015,1072,-0.12256,-0.395651
798,-48,-0.155518,0.7229,0,0,0,0,0,0,0,-1,2022,1072,-0.155564,-0.722898
805,-48,-0.298828,0.380005,0,0,0,0,0,0,0,-1,2029,1072,-0.298799,-0.38001
812,-48,-0.281982,0.160767,0,0,0,0,0,0,0,-1,2036,1072,-0.282007,-0.160802
-700,-55,-0.186096,3.14978,0.0113171,0.0100466,-0.0492064,0.0598924,-0.0385286,-0.778944,0.0572679,0.0450316,524,1079,-0.186079,-3.14981
-693,-55,-0.10614,2.33484,0.00224132,0.0121695,-0.0374163,0.0449496,-0.0305388,-0.851349,0.0438472,0.0451971,531,1079,-0.10617,-2.33487
-686,-55,-0.0178223,1.60388,-0.00256471,0.0125583,-0.027944,0.0339458,-0.0239522,-0.917532,0.033593,0.0461096,538,1079,-0.0178365,-1.60388
-679,-55,0.0687866,1.04211,-0.00478359,0.0119412,-0.0203387,0.0255695,-0.0184119,-0.980442,0.0255045,0.0482129,545,1079,0.0687805,-1.04216
-672,-55,1.41095,2.15259,0,0,0,0,0,0,0,-1,552,1079,1.41093,-2.15253
-665,-55,0.0137329,-0.247925,-0.00503916,0.00923671,-0.0097016,0.0141433,-0.00994578,-1.10256,0.0139781,0.046005,559,1079,0.01373,0.247893
-658,-55,0.0178833,0.059082,-0.00419631,0.00761368,-0.00627043,0.0103219,-0.00690452,-1.16309,0.0100107,0.0476517,566,1079,0.0178609,-0.0590439
-651,-55,-0.0549927,0.106567,-0.00317686,0.00601689,-0.00382721,0.00740155,-0.00456153,-1.22365,0.00697146,0.0316045,573,1079,-0.0549855,-0.106607
-644,-55,-0.0378418,0.067749,-0.00285222,0.00509826,-0.00173396,0.00545997,-0.00321393,-1.36514,0.00506354,0.0124606,580,1079,-0.0378539,-0.0677072
-637,-55,-0.0112915,0.0374756,-0.00204881,0.0033612,-0.000226511,0.00337067,-0.00205828,-1.52902,0.00316478,0.0104967,587,1079,-0.0113156,-0.0374738
-630,-55,-0.0151978,0.0543213,-0.000856789,0.00225028,0.000292233,0.00227753,-0.000884036,1.47783,0.0018835,0.0121843,594,1079,-0.0151758,-0.0543415
-623,-55,-0.0307007,0.0640869,-0.000146491,0.00183344,0.00053873,0.00197053,-0.000283584,1.32161,0.0014177,0.0118907,601,1079,-0.0307252,-0.0641207
-616,-55,-0.022583,0.0612793,0.000364614,0.000678476,0.000266878,0.000831144,0.000211947,1.05118,0.000498693,0.0117626,608,1079,-0.0226007,-0.0613176
-609,-55,-0.015564,0.0554199,0.000272973,0.000372971,2.48323e-05,0.000378798,0.000267146,1.34031,0.000224757,0.0129372,615,1079,-0.0155536,-0.0553945
-602,-55,-0.03302,0.0473633,1.39642e-05,0.000508455,-1.31382e-05,0.000508804,1.36154e-05,-1.54425,0.000334757,0.0121791,622,1079,-0.0330442,-0.0473292
-595,-55,-0.0197144,0.0773926,-3.89281e-05,0.000575568,-4.23793e-05,0.000578477,-4.1837e-05,-1.50226,0.000400326,0.0128347,629,1079,-0.0197228,-0.0774254
-588,-55,-0.0167847,0.0770264,-3.42747e-05,0.00060259,-0.000114757,0.000622637,-5.43218e-05,-1.39785,0.000434332,0.0232796,636,1079,-0.0168008,-0.0770397
-581,-55,-0.0317383,0.0195313,9.74096e-05,0.000591565,-0.000241196,0.000689774,-7.99657e-07,-1.18412,0.000460116,0.0353773,643,1079,-0.0317156,-0.0195353
-574,-55,0.0339355,0.0786133,0.000291694,0.000573535,-0.00035512,0.000814673,5.05557e-05,-0.974282,0.000527072,0.0371974,650,1079,0.033909,-0.0785863
-567,-55,-0.00805664,0.0876465,0.000541643,0.000480018,-0.000511566,0.00102332,-1.66311e-06,-0.755318,0.000682771,0.0377883,657,1079,-0.00803055,-0.0876501
-560,-55,-0.0644531,0.141846,0.000886852,0.000289447,-0.000758512,0.00140336,-0.000227059,-0.597823,0.00101972,0.0377597,664,1079,-0.0644574,-0.141824
-553,-55,-0.0449829,0.0921631,0.00133208,-1.71835e-05,-0.00113619,0.00197884,-0.000663936,-0.517486,0.00158751,0.0363884,671,1079,-0.0449679,-0.0921953
-546,-55,-0.116089,-0.0341797,0.00183914,-0.000462694,-0.00167279,0.0027187,-0.00134225,-0.484077,0.00238906,0.0357835,678,1079,-0.116118,0.0342083
-539,-55,-0.160156,-0.0996094,0.00243433,-0.00107778,-0.0024006,0.0036526,-0.00229604,-0.469618,0.00346409,0.0354866,685,1079,-0.160148,0.0995535
-532,-55,-0.197144,-0.0057373,0.00300042,-0.0018794,-0.00343143,0.00477096,-0.00364994,-0.476347,0.00487615,0.035611,692,1079,-0.197115,0.00569858
-525,-55,0,0,0,0,0,0,0,0,0,-1,699,1079,0,0
-518,-55,0,0,0,0,0,0,0,0,0,-1,706,1079,0,0
-511,-55,0,0,0,0,0,0,0,0,0,-1,713,1079,0,0
-504,-55,0,0,0,0,0,0,0,0,0,-1,720,1079,0,0
-497,-55,0,0,0,0,0,0,0,0,0,-1,727,1079,0,0
-490,-55,0,0,0,0,0,0,0,0,0,-1,734,1079,0,0
-483,-55,0,0,0,0,0,0,0,0,0,-1,741,1079,0,0
-476,-55,0,0,0,0,0,0,0,0,0,-1,748,1079,0,0
-469,-55,0,0,0,0,0,0,0,0,0,-1,755,1079,0,0
-462,-55,0,0,0,0,0,0,0,0,0,-1,762,1079,0,0
-455,-55,0,0,0,0,0,0,0,0,0,-1,769,1079,0,0
-448,-55,0,0,0,0,0,0,0,0,0,-1,776,1079,0,0
-441,-55,0,0,0,0,0,0,0,0,0,-1,783,1079,0,0
-434,-55,0,0,0,0,0,0,0,0,0,-1,790,1079,0,0
-427,-55,0,0,0,0,0,0,0,0,0,-1,797,1079,0,0
-420,-55,0,0,0,0,0,0,0,0,0,-1,804,1079,0,0
-413,-55,0,0,0,0,0,0,0,0,0,-1,811,1079,0,0
-406,-55,0,0,0,0,0,0,0,0,0,-1,818,1079,0,0
-399,-55,0,0,0,0,0,0,0,0,0,-1,825,1079,0,0
-392,-55,0,0,0,0,0,0,0,0,0,-1,832,1079,0,0
-385,-55,0,0,0,0,0,0,0,0,0,-1,839,1079,0,0
-378,-55,0,0,0,0,0,0,0,0,0,-1,846,1079,0,0
-371,-55,0,0,0,0,0,0,0,0,0,-1,853,1079,0,0
-364,-55,0,0,0,0,0,0,0,0,0,-1,860,1079,0,0
-357,-55,0,0,0,0,0,0,0,0,0,-1,867,1079,0,0
-350,-55,0,0,0,0,0,0,0,0,0,-1,874,1079,0,0
-343,-55,0,0,0,0,0,0,0,0,0,-1,881,1079,0,0
-336,-55,0,0,0,0,0,0,0,0,0,-1,888,1079,0,0
-329,-55,0,0,0,0,0,0,0,0,0,-1,895,1079,0,0
-322,-55,0,0,0,0,0,0,0,0,0,-1,902,1079,0,0
-315,-55,0,0,0,0,0,0,0,0,0,-1,909,1079,0,0
-308,-55,0,0,0,0,0,0,0,0,0,-1,916,1079,0,0
-301,-55,0,0,0,0,0,0,0,0,0,-1,923,1079,0,0
-294,-55,0,0,0,0,0,0,0,0,0,-1,930,1079,0,0
-287,-55,0,0,0,0,0,0,0,0,0,-1,937,1079,0,0
-280,-55,0,0,0,0,0,0,0,0,0,-1,944,1079,0,0
-273,-55,0,0,0,0,0,0,0,0,0,-1,951,1079,0,0
-266,-55,0,0,0,0,0,0,0,0,0,-1,958,1079,0,0
-259,-55,0,0,0,0,0,0,0,0,0,-1,965,1079,0,0
-252,-55,0,0,0,0,0,0,0,0,0,-1,972,1079,0,0
-245,-55,0,0,0,0,0,0,0,0,0,-1,979,1079,0,0
-238,-55,0,0,0,0,0,0,0,0,0,-1,986,1079,0,0
-231,-55,0,0,0,0,0,0,0,0,0,-1,993,1079,0,0
-224,-55,0,0,0,0,0,0,0,0,0,-1,1000,1079,0,0
-217,-55,0,0,0,0,0,0,0,0,0,-1,1007,1079,0,0
-210,-55,0,0,0,0,0,0,0,0,0,-1,1014,1079,0,0
-203,-55,0,0,0,0,0,0,0,0,0,-1,1021,1079,0,0
-196,-55,0,0,0,0,0,0,0,0,0,-1,1028,1079,0,0
-189,-55,0,0,0,0,0,0,0,0,0,-1,1035,1079,0,0
-182,-55,0,0,0,0,0,0,0,0,0,-1,1042,1079,0,0
-175,-55,0,0,0,0,0,0,0,0,0,-1,1049,1079,0,0
-168,-55,0,0,0,0,0,0,0,0,0,-1,1056,1079,0,0
-161,-55,0,0,0,0,0,0,0,0,0,-1,1063,1079,0,0
-154,-55,0,0,0,0,0,0,0,0,0,-1,1070,1079,0,0
-147,-55,0,0,0,0,0,0,0,0,0,-1,1077,1079,0,0
-140,-55,0,0,0,0,0,0,0,0,0,-1,1084,1079,0,0
-133,-55,0,0,0,0,0,0,0,0,0,-1,1091,1079,0,0
-126,-55,0,0,0,0,0,0,0,0,0,-1,1098,1079,0,0
-119,-55,0,0,0,0,0,0,0,0,0,-1,1105,1079,0,0
-112,-55,0,0,0,0,0,0,0,0,0,-1,1112,1079,0,0
-105,-55,0,0,0,0,0,0,0,0,0,-1,1119,1079,0,0
-98,-55,0,0,0,0,0,0,0,0,0,-1,1126,1079,0,0
-91,-55,0,0,0,0,0,0,0,0,0,-1,1133,1079,0,0
-84,-55,0,0,0,0,0,0,0,0,0,-1,1140,1079,0,0
-77,-55,0,0,0,0,0,0,0,0,0,-1,1147,1079,0,0
-70,-55,0,0,0,0,0,0,0,0,0,-1,1154,1079,0,0
-63,-55,0,0,0,0,0,0,0,0,0,-1,1161,1079,0,0
-56,-55,0,0,0,0,0,0,0,0,0,-1,1168,1079,0,0
-49,-55,0,0,0,0,0,0,0,0,0,-1,1175,1079,0,0
-42,-55,0,0,0,0,0,0,0,0,0,-1,1182,1079,0,0
-35,-55,0,0,0,0,0,0,0,0,0,-1,1189,1079,0,0
-28,-55,0,0,0,0,0,0,0,0,0,-1,1196,1079,0,0
-21,-55,0,0,0,0,0,0,0,0,0,-1,1203,1079,0,0
-14,-55,0,0,0,0,0,0,0,0,0,-1,1210,1079,0,0
-7,-55,0,0,0,0,0,0,0,0,0,-1,1217,1079,0,0
0,-55,0,0,0,0,0,0,0,0,0,-1,1224,1079,0,0
7,-55,0,0,0,0,0,0,0,0,0,-1,1231,1079,0,0
14,-55,0,0,0,0,0,0,0,0,0,-1,1238,1079,0,0
21,-55,0,0,0,0,0,0,0,0,0,-1,1245,1079,0,0
28,-55,0,0,0,0,0,0,0,0,0,-1,1252,1079,0,0
35,-55,0,0,0,0,0,0,0,0,0,-1,1259,1079,0,0
42,-55,0,0,0,0,0,0,0,0,0,-1,1266,1079,0,0
49,-55,0,0,0,0,0,0,0,0,0,-1,1273,1079,0,0
56,-55,0,0,0,0,0,0,0,0,0,-1,1280,1079,0,0
63,-55,0,0,0,0,0,0,0,0,0,-1,1287,1079,0,0
70,-55,0,0,0,0,0,0,0,0,0,-1,1294,1079,0,0
77,-55,0,0,0,0,0,0,0,0,0,-1,1301,1079,0,0
84,-55,0,0,0,0,0,0,0,0,0,-1,1308,1079,0,0
91,-55,0,0,0,0,0,0,0,0,0,-1,1315,1079,0,0
98,-55,0,0,0,0,0,0,0,0,0,-1,1322,1079,0,0
105,-55,0,0,0,0,0,0,0,0,0,-1,1329,1079,0,0
112,-55,0,0,0,0,0,0,0,0,0,-1,1336,1079,0,0
119,-55,0,0,0,0,0,0,0,0,0,-1,1343,1079,0,0
126,-55,0,0,0,0,0,0,0,0,0,-1,1350,1079,0,0
133,-55,0,0,0,0,0,0,0,0,0,-1,1357,1079,0,0
140,-55,0,0,0,0,0,0,0,0,0,-1,1364,1079,0,0
147,-55,0,0,0,0,0,0,0,0,0,-1,1371,1079,0,0
154,-55,0,0,0,0,0,0,0,0,0,-1,1378,1079,0,0
161,-55,0,0,0,0,0,0,0,0,0,-1,1385,1079,0,0
168,-55,0,0,0,0,0,0,0,0,0,-1,1392,1079,0,0
175,-55,0,0,0,0,0,0,0,0,0,-1,1399,1079,0,0
182,-55,0,0,0,0,0,0,0,0,0,-1,1406,1079,0,0
189,-55,0,0,0,0,0,0,0,0,0,-1,1413,1079,0,0
196,-55,0,0,0,0,0,0,0,0,0,-1,1420,1079,0,0
203,-55,0,0,0,0,0,0,0,0,0,-1,1427,1079,0,0
210,-55,0,0,0,0,0,0,0,0,0,-1,1434,1079,0,0
217,-55,0,0,0,0,0,0,0,0,0,-1,1441,1079,0,0
224,-55,0,0,0,0,0,0,0,0,0,-1,1448,1079,0,0
231,-55,0,0,0,0,0,0,0,0,0,-1,1455,1079,0,0
238,-55,0,0,0,0,0,0,0,0,0,-1,1462,1079,0,0
245,-55,0,0,0,0,0,0,0,0,0,-1,1469,1079,0,0
252,-55,0,0,0,0,0,0,0,0,0,-1,1476,1079,0,0
259,-55,0,0,0,0,0,0,0,0,0,-1,1483,1079,0,0
266,-55,0,0,0,0,0,0,0,0,0,-1,1490,1079,0,0
273,-55,0,0,0,0,0,0,0,0,0,-1,1497,1079,0,0
280,-55,0,0,0,0,0,0,0,0,0,-1,1504,1079,0,0
287,-55,0,0,0,0,0,0,0,0,0,-1,1511,1079,0,0
294,-55,0,0,0,0,0,0,0,0,0,-1,1518,1079,0,0
301,-55,0,0,0,0,0,0,0,0,0,-1,1525,1079,0,0
308,-55,0,0,0,0,0,0,0,0,0,-1,1532,1079,0,0
315,-55,0,0,0,0,0,0,0,0,0,-1,1539,1079,0,0
322,-55,0,0,0,0,0,0,0,0,0,-1,1546,1079,0,0
329,-55,0,0,0,0,0,0,0,0,0,-1,1553,1079,0,0
336,-55,0,0,0,0,0,0,0,0,0,-1,1560,1079,0,0
343,-55,0,0,0,0,0,0,0,0,0,-1,1567,1079,0,0
350,-55,0,0,0,0,0,0,0,0,0,-1,1574,1079,0,0
357,-55,0,0,0,0,0,0,0,0,0,-1,1581,1079,0,0
364,-55,0,0,0,0,0,0,0,0,0,-1,1588,1079,0,0
371,-55,0,0,0,0,0,0,0,0,0,-1,1595,1079,0,0
378,-55,0,0,0,0,0,0,0,0,0,-1,1602,1079,0,0
385,-55,0,0,0,0,0,0,0,0,0,-1,1609,1079,0,0
392,-55,0,0,0,0,0,0,0,0,0,-1,1616,1079,0,0
399,-55,0,0,0,0,0,0,0,0,0,-1,1623,1079,0,0
406,-55,0,0,0,0,0,0,0,0,0,-1,1630,1079,0,0
413,-55,0,0,0,0,0,0,0,0,0,-1,1637,1079,0,0
420,-55,0,0,0,0,0,0,0,0,0,-1,1644,1079,0,0
427,-55,0,0,0,0,0,0,0,0,0,-1,1651,1079,0,0
434,-55,0,0,0,0,0,0,0,0,0,-1,1658,1079,0,0
441,-55,0,0,0,0,0,0,0,0,0,-1,1665,1079,0,0
448,-55,0,0,0,0,0,0,0,0,0,-1,1672,1079,0,0
455,-55,0,0,0,0,0,0,0,0,0,-1,1679,1079,0,0
462,-55,0,0,0,0,0,0,0,0,0,-1,1686,1079,0,0
469,-55,0,0,0,0,0,0,0,0,0,-1,1693,1079,0,0
476,-55,0,0,0,0,0,0,0,0,0,-1,1700,1079,0,0
483,-55,0,0,0,0,0,0,0,0,0,-1,1707,1079,0,0
490,-55,0,0,0,0,0,0,0,0,0,-1,1714,1079,0,0
497,-55,0,0,0,0,0,0,0,0,0,-1,1721,1079,0,0
504,-55,0,0,0,0,0,0,0,0,0,-1,1728,1079,0,0
511,-55,0,0,0,0,0,0,0,0,0,-1,1735,1079,0,0
518,-55,0,0,0,0,0,0,0,0,0,-1,1742,1079,0,0
525,-55,0,0,0,0,0,0,0,0,0,-1,1749,1079,0,0
532,-55,0,0,0,0,0,0,0,0,0,-1,1756,1079,0,0
539,-55,0,0,0,0,0,0,0,0,0,-1,1763,1079,0,0
546,-55,0,0,0,0,0,0,0,0,0,-1,1770,1079,0,0
553,-55,0,0,0,0,0,0,0,0,0,-1,1777,1079,0,0
560,-55,0,0,0,0,0,0,0,0,0,-1,1784,1079,0,0
567,-55,0,0,0,0,0,0,0,0,0,-1,1791,1079,0,0
574,-55,0,0,0,0,0,0,0,0,0,-1,1798,1079,0,0
581,-55,0,0,0,0,0,0,0,0,0,-1,1805,1079,0,0
588,-55,0,0,0,0,0,0,0,0,0,-1,1812,1079,0,0
595,-55,0,0,0,0,0,0,0,0,0,-1,1819,1079,0,0
602,-55,0,0,0,0,0,0,0,0,0,-1,1826,1079,0,0
609,-55,0,0,0,0,0,0,0,0,0,-1,1833,1079,0,0
616,-55,0,0,0,0,0,0,0,0,0,-1,1840,1079,0,0
623,-55,0,0,0,0,0,0,0,0,0,-1,1847,1079,0,0
630,-55,0,0,0,0,0,0,0,0,0,-1,1854,1079,0,0
637,-55,0,0,0,0,0,0,0,0,0,-1,1861,1079,0,0
644,-55,0,0,0,0,0,0,0,0,0,-1,1868,1079,0,0
651,-55,0.0469971,-0.0205078,-0.00147197,-0.000362308,0.00237301,0.00151987,-0.00335414,0.90024,0.00287967,0.0290733,1875,1079,0.0469691,0.0205347
658,-55,-0.0338135,0.100586,-0.00129806,-0.000181822,0.00159529,0.000950161,-0.00243004,0.953671,0.00201294,0.0299018,1882,1079,-0.0338462,-0.100646
665,-55,-0.106079,0.129883,-0.00102543,-9.08954e-05,0.00100686,0.000551837,-0.00166816,1.00265,0.00133464,0.0349879,1889,1079,-0.106101,-0.129924
672,-55,-0.0528564,0.0863037,-0.000741215,-5.33485e-05,0.00060136,0.000295484,-0.00109005,1.04516,0.000842643,0.0368295,1896,1079,-0.0528564,-0.0863574
679,-55,-0.0447998,-0.0592041,-0.000509173,-3.30736e-05,0.000320246,0.000127907,-0.000670154,1.10501,0.000494945,0.0347886,1903,1079,-0.0448083,0.0592533
686,-55,-0.00695801,-0.0253906,-0.000319608,-1.51424e-05,0.000138625,3.85173e-05,-0.000373268,1.20147,0.000262627,0.0356836,1910,1079,-0.00690164,0.0253473
693,-55,-0.10083,0.134644,-0.000163872,5.64332e-07,2.83934e-05,5.32898e-06,-0.000168637,1.40454,0.000114242,0.0355834,1917,1079,-0.100854,-0.134601
700,-55,-0.105347,0.142944,-7.32167e-05,6.66427e-05,-2.31097e-05,7.03624e-05,-7.69364e-05,-1.41121,8.50712e-05,0.0305063,1924,1079,-0.105381,-0.14293
707,-55,-0.0440674,0.0662842,2.7908e-05,4.33798e-05,-0.000103688,0.00013962,-6.83319e-05,-0.822633,0.00012239,0.0175356,1931,1079,-0.0440206,-0.0662731
714,-55,-0.0220947,0.0526123,0.00013345,4.03939e-05,-0.000157756,0.000251396,-7.75525e-05,-0.641996,0.000198562,0.0110209,1938,1079,-0.0221435,-0.052673
721,-55,-0.0239258,0.0550537,0.000181358,5.77574e-05,-0.000121208,0.000255611,-1.64962e-05,-0.549643,0.000176164,0.012038,1945,1079,-0.0239278,-0.0550619
728,-55,-0.026123,0.0606689,0.000127218,9.23517e-05,-2.18852e-05,0.000137764,8.18049e-05,-0.449077,8.00036e-05,0.0160717,1952,1079,-0.0261304,-0.0607297
735,-55,-0.0455322,0.0655518,9.92814e-06,0.000131335,0.000168945,0.000250151,-0.000108888,0.957869,0.000212572,0.01492,1959,1079,-0.0455271,-0.0655689
742,-55,-0.0461426,0.0662842,-5.42516e-06,0.000370474,0.000633634,0.000843445,-0.000478396,0.929576,0.000772806,0.0139446,1966,1079,-0.0461266,-0.0662407
749,-55,-0.0371094,0.0579834,0.000362508,0.000431542,0.00125804,0.00165554,-0.000861486,0.799113,0.00147711,0.0107866,1973,1079,-0.0370665,-0.0580141
756,-55,-0.0258789,0.0559082,0.00099204,0.00104666,0.00257673,0.00359622,-0.00155752,0.790698,0.00305213,0.0107825,1980,1079,-0.0258233,-0.0559081
763,-55,0.0163574,0.0565186,0.00179231,0.00104604,0.00380278,0.00524021,-0.00240187,0.736494,0.00451246,0.0145622,1987,1079,0.0164134,-0.0565727
770,-55,0.0432129,0.0413818,0.00278837,0.00137741,0.00544607,0.00757446,-0.00340868,0.720987,0.00649138,0.0143238,1994,1079,0.0432154,-0.0413746
777,-55,-0.00927734,0.0638428,0.0042143,0.00173743,0.00755147,0.0106282,-0.00467648,0.704122,0.00905615,0.0116579,2001,1079,-0.0093324,-0.0638277
784,-55,-0.0556641,0.0853271,0.00612944,0.00209238,0.010123,0.0144332,-0.00621136,0.686988,0.0122301,0.0283964,2008,1079,-0.055671,-0.08532
791,-55,-0.131958,0.0740967,0.00861766,0.00238006,0.013144,0.0190078,-0.00801013,0.668913,0.0160238,0.043316,2015,1079,-0.132005,-0.0741251
798,-55,-0.188232,0.0638428,0,0,0,0,0,0,0,-1,2022,1079,-0.188179,-0.0637932
805,-55,0.027832,0.534668,0.0157263,0.00224745,0.0202882,0.0303652,-0.0123914,0.62504,0.0254022,0.0454198,2029,1079,0.0277841,-0.534672
812,-55,0.0174561,0.421631,0.0205495,0.00138522,0.0240953,0.0368981,-0.0149634,0.596147,0.030822,0.0409387,2036,1079,0.0173959,-0.421615
-700,-62,-0.265564,3.14478,0.013316,0.030077,-0.0410253,0.063569,-0.020176,-0.886151,0.0504674,0.0481686,524,1086,-0.265592,-3.14478
-693,-62,-0.333191,2.50342,0.00274023,0.0267627,-0.030504,0.0475351,-0.0180321,-0.972956,0.0391118,0.0494141,531,1086,-0.333171,-2.5034
-686,-62,1.92487,1.43994,0,0,0,0,0,0,0,-1,538,1086,1.92488,-1.43994
-679,-62,1.24225,1.39307,0,0,0,0,0,0,0,-1,545,1086,1.24225,-1.39309
-672,-62,0.962708,1.49902,-0.00649657,0.0152949,-0.0110657,0.0199287,-0.0111304,-1.17423,0.0181702,0.048053,552,1086,0.962694,-1.49904
-665,-62,0.010498,0.390137,-0.00617474,0.0119872,-0.00738264,0.0146096,-0.00879707,-1.22949,0.013652,0.0452862,559,1086,0.0105249,-0.39013
-658,-62,-0.00427246,0.321899,-0.00525462,0.00912306,-0.00470981,0.0105285,-0.00666007,-1.2808,0.0100073,0.0473358,566,1086,-0.00429949,-0.321953
-651,-62,-0.0307617,0.14856,-0.00409502,0.00672755,-0.00284603,0.00743034,-0.00479781,-1.3287,0.00711425,0.0335936,573,1086,-0.0307619,-0.148593
-644,-62,-0.0302124,0.0655518,-0.00370418,0.00530781,-0.00112568,0.00544629,-0.00384266,-1.44839,0.00538955,0.0102964,580,1086,-0.0302364,-0.0654916
-637,-62,-0.0166626,0.032959,-0.00269438,0.00298048,5.48452e-08,0.00298048,-0.00269438,1.57079,0.00327777,0.00886095,587,1086,-0.0166814,-0.0330054
-630,-62,-0.0342407,0.0456543,-0.0013243,0.00180604,0.000216067,0.00182089,-0.00133914,1.50221,0.0018315,0.00961222,594,1086,-0.0342105,-0.0457147
-623,-62,-0.041626,0.0623779,-0.00050102,0.00136129,0.00031411,0.00141284,-0.000552573,1.40812,0.00117041,0.0109186,601,1086,-0.0415994,-0.0624095
-616,-62,-0.0165405,0.0480957,0.000186498,0.000492988,1.17301e-05,0.000493436,0.00018605,1.5326,0.000287742,0.0120075,608,1086,-0.0165571,-0.0481014
-609,-62,-0.0088501,0.0509033,0.000183558,0.00040923,-0.000163711,0.000495224,9.75643e-05,-1.08713,0.000302911,0.0127661,615,1086,-0.00886603,-0.0509397
-602,-62,-0.0304565,0.0535889,-4.71667e-05,0.000617055,-0.000129897,0.000641554,-7.1666e-05,-1.38438,0.000453483,0.0123189,622,1086,-0.0304588,-0.0536095
-595,-62,-0.0276489,0.0592041,-5.0462e-05,0.000728191,-0.000125709,0.000747983,-7.02538e-05,-1.41464,0.000523646,0.014233,629,1086,-0.0276509,-0.0592386
-588,-62,-0.0171509,0.0892334,-3.60349e-05,0.000768617,-0.000186863,0.000809895,-7.73124e-05,-1.35339,0.000567459,0.0206564,636,1086,-0.017132,-0.0892021
-581,-62,-0.00384521,0.0778809,0.000119253,0.000765715,-0.00029594,0.000880729,4.2388e-06,-1.20012,0.000585745,0.0301396,643,1086,-0.00386547,-0.0779378
-574,-62,0.00543213,0.0701904,0.000351845,0.000764691,-0.000383132,0.000993469,0.000123066,-1.03249,0.00062534,0.0333577,650,1086,0.00543508,-0.0702366
-567,-62,-0.0889282,0.0726318,0.000650214,0.000678545,-0.000496621,0.0011612,0.000167556,-0.799656,0.000724768,0.0356044,657,1086,-0.0889057,-0.0725925
-560,-62,-0.167053,0.0933838,0.00106283,0.000477458,-0.000687172,0.00151705,2.32368e-05,-0.584069,0.00100371,0.0347726,664,1086,-0.167081,-0.0933605
-553,-62,-0.0602417,0.1698,0.00159621,0.000130012,-0.000995919,0.00209975,-0.000373534,-0.468125,0.00153953,0.0334751,671,1086,-0.0602692,-0.16979
-546,-62,0.00976563,0.0421143,0.00221881,-0.000400545,-0.00145351,0.00286565,-0.00104738,-0.418703,0.00233908,0.0305694,678,1086,0.00976422,-0.0421295
-539,-62,0.0512085,0.0244141,0.0029611,-0.00116007,-0.00210103,0.00384337,-0.00204233,-0.397559,0.00345073,0.0342241,685,1086,0.0512251,-0.0244606
-532,-62,0.0232544,0.0214844,0.00372676,-0.00219152,-0.00307342,0.00503404,-0.00349881,-0.40217,0.00495295,0.0370047,692,1086,0.0232847,-0.0215237
-525,-62,0,0,0,0,0,0,0,0,0,-1,699,1086,0,0
-518,-62,0,0,0,0,0,0,0,0,0,-1,706,1086,0,0
-511,-62,0,0,0,0,0,0,0,0,0,-1,713,1086,0,0
-504,-62,0,0,0,0,0,0,0,0,0,-1,720,1086,0,0
-497,-62,0,0,0,0,0,0,0,0,0,-1,727,1086,0,0
-490,-62,0,0,0,0,0,0,0,0,0,-1,734,1086,0,0
-483,-62,0,0,0,0,0,0,0,0,0,-1,741,1086,0,0
-476,-62,0,0,0,0,0,0,0,0,0,-1,748,1086,0,0
-469,-62,0,0,0,0,0,0,0,0,0,-1,755,1086,0,0
-462,-62,0,0,0,0,0,0,0,0,0,-1,762,1086,0,0
-455,-62,0,0,0,0,0,0,0,0,0,-1,769,1086,0,0
-448,-62,0,0,0,0,0,0,0,0,0,-1,776,1086,0,0
-441,-62,0,0,0,0,0,0,0,0,0,-1,783,1086,0,0
-434,-62,0,0,0,0,0,0,0,0,0,-1,790,1086,0,0
-427,-62,0,0,0,0,0,0,0,0,0,-1,797,1086,0,0
-420,-62,0,0,0,0,0,0,0,0,0,-1,804,1086,0,0
-413,-62,0,0,0,0,0,0,0,0,0,-1,811,1086,0,0
-406,-62,0,0,0,0,0,0,0,0,0,-1,818,1086,0,0
-399,-62,0,0,0,0,0,0,0,0,0,-1,825,1086,0,0
-392,-62,0,0,0,0,0,0,0,0,0,-1,832,1086,0,0
-385,-62,0,0,0,0,0,0,0,0,0,-1,839,1086,0,0
-378,-62,0,0,0,0,0,0,0,0,0,-1,846,1086,0,0
-371,-62,0,0,0,0,0,0,0,0,0,-1,853,1086,0,0
-364,-62,0,0,0,0,0,0,0,0,0,-1,860,1086,0,0
-357,-62,0,0,0,0,0,0,0,0,0,-1,867,1086,0,0
-350,-62,0,0,0,0,0,0,0,0,0,-1,874,1086,0,0
-343,-62,0,0,0,0,0,0,0,0,0,-1,881,1086,0,0
-336,-62,0,0,0,0,0,0,0,0,0,-1,888,1086,0,0
-329,-62,0,0,0,0,0,0,0,0,0,-1,895,1086,0,0
-322,-62,0,0,0,0,0,0,0,0,0,-1,902,1086,0,0
-315,-62,0,0,0,0,0,0,0,0,0,-1,909,1086,0,0
-308,-62,0,0,0,0,0,0,0,0,0,-1,916,1086,0,0
-301,-62,0,0,0,0,0,0,0,0,0,-1,923,1086,0,0
-294,-62,0,0,0,0,0,0,0,0,0,-1,930,1086,0,0
-287,-62,0,0,0,0,0,0,0,0,0,-1,937,1086,0,0
-280,-62,0,0,0,0,0,0,0,0,0,-1,944,1086,0,0
-273,-62,0,0,0,0,0,0,0,0,0,-1,951,1086,0,0
-266,-62,0,0,0,0,0,0,0,0,0,-1,958,1086,0,0
-259,-62,0,0,0,0,0,0,0,0,0,-1,965,1086,0,0
-252,-62,0,0,0,0,0,0,0,0,0,-1,972,1086,0,0
-245,-62,0,0,0,0,0,0,0,0,0,-1,979,1086,0,0
-238,-62,0,0,0,0,0,0,0,0,0,-1,986,1086,0,0
-231,-62,0,0,0,0,0,0,0,0,0,-1,993,1086,0,0
-224,-62,0,0,0,0,0,0,0,0,0,-1,1000,1086,0,0
-217,-62,0,0,0,0,0,0,0,0,0,-1,1007,1086,0,0
-210,-62,0,0,0,0,0,0,0,0,0,-1,1014,1086,0,0
-203,-62,0,0,0,0,0,0,0,0,0,-1,1021,1086,0,0
-196,-62,0,0,0,0,0,0,0,0,0,-1,1028,1086,0,0
-189,-62,0,0,0,0,0,0,0,0,0,-1,1035,1086,0,0
-182,-62,0,0,0,0,0,0,0,0,0,-1,1042,1086,0,0
-175,-62,0,0,0,0,0,0,0,0,0,-1,1049,1086,0,0
-168,-62,0,0,0,0,0,0,0,0,0,-1,1056,1086,0,0
-161,-62,0,0,0,0,0,0,0,0,0,-1,1063,1086,0,0
-154,-62,0,0,0,0,0,0,0,0,0,-1,1070,1086,0,0
-147,-62,0,0,0,0,0,0,0,0,0,-1,1077,1086,0,0
-140,-62,0,0,0,0,0,0,0,0,0,-1,1084,1086,0,0
-133,-62,0,0,0,0,0,0,0,0,0,-1,1091,1086,0,0
-126,-62,0,0,0,0,0,0,0,0,0,-1,1098,1086,0,0
-119,-62,0,0,0,0,0,0,0,0,0,-1,1105,1086,0,0
-112,-62,0,0,0,0,0,0,0,0,0,-1,1112,1086,0,0
-105,-62,0,0,0,0,0,0,0,0,0,-1,1119,1086,0,0
-98,-62,0,0,0,0,0,0,0,0,0,-1,1126,1086,0,0
-91,-62,0,0,0,0,0,0,0,0,0,-1,1133,1086,0,0
-84,-62,0,0,0,0,0,0,0,0,0,-1,1140,1086,0,0
-77,-62,0,0,0,0,0,0,0,0,0,-1,1147,1086,0,0
-70,-62,0,0,0,0,0,0,0,0,0,-1,1154,1086,0,0
-63,-62,0,0,0,0,0,0,0,0,0,-1,1161,1086,0,0
-56,-62,0,0,0,0,0,0,0,0,0,-1,1168,1086,0,0
-49,-62,0,0,0,0,0,0,0,0,0,-1,1175,1086,0,0
-42,-62,0,0,0,0,0,0,0,0,0,-1,1182,1086,0,0
-35,-62,0,0,0,0,0,0,0,0,0,-1,1189,1086,0,0
-28,-62,0,0,0,0,0,0,0,0,0,-1,1196,1086,0,0
-21,-62,0,0,0,0,0,0,0,0,0,-1,1203,1086,0,0
-14,-62,0,0,0,0,0,0,0,0,0,-1,1210,1086,0,0
-7,-62,0,0,0,0,0,0,0,0,0,-1,1217,1086,0,0
0,-62,0,0,0,0,0,0,0,0,0,-1,1224,1086,0,0
7,-62,0,0,0,0,0,0,0,0,0,-1,1231,1086,0,0
14,-62,0,0,0,0,0,0,0,0,0,-1,1238,1086,0,0
21,-62,0,0,0,0,0,0,0,0,0,-1,1245,1086,0,0
28,-62,0,0,0,0,0,0,0,0,0,-1,1252,1086,0,0
35,-62,0,0,0,0,0,0,0,0,0,-1,1259,1086,0,0
42,-62,0,0,0,0,0,0,0,0,0,-1,1266,1086,0,0
49,-62,0,0,0,0,0,0,0,0,0,-1,1273,1086,0,0
56,-62,0,0,0,0,0,0,0,0,0,-1,1280,1086,0,0
63,-62,0,0,0,0,0,0,0,0,0,-1,1287,1086,0,0
70,-62,0,0,0,0,0,0,0,0,0,-1,1294,1086,0,0
77,-62,0,0,0,0,0,0,0,0,0,-1,1301,1086,0,0
84,-62,0,0,0,0,0,0,0,0,0,-1,1308,1086,0,0
91,-62,0,0,0,0,0,0,0,0,0,-1,1315,1086,0,0
98,-62,0,0,0,0,0,0,0,0,0,-1,1322,1086,0,0
105,-62,0,0,0,0,0,0,0,0,0,-1,1329,1086,0,0
112,-62,0,0,0,0,0,0,0,0,0,-1,1336,1086,0,0
119,-62,0,0,0,0,0,0,0,0,0,-1,1343,1086,0,0
126,-62,0,0,0,0,0,0,0,0,0,-1,1350,1086,0,0
133,-62,0,0,0,0,0,0,0,0,0,-1,1357,1086,0,0
140,-62,0,0,0,0,0,0,0,0,0,-1,1364,1086,0,0
147,-62,0,0,0,0,0,0,0,0,0,-1,1371,1086,0,0
154,-62,0,0,0,0,0,0,0,0,0,-1,1378,1086,0,0
161,-62,0,0,0,0,0,0,0,0,0,-1,1385,1086,0,0
168,-62,0,0,0,0,0,0,0,0,0,-1,1392,1086,0,0
175,-62,0,0,0,0,0,0,0,0,0,-1,1399,1086,0,0
182,-62,0,0,0,0,0,0,0,0,0,-1,1406,1086,0,0
189,-62,0,0,0,0,0,0,0,0,0,-1,1413,1086,0,0
196,-62,0,0,0,0,0,0,0,0,0,-1,1420,1086,0,0
203,-62,0,0,0,0,0,0,0,0,0,-1,1427,1086,0,0
210,-62,0,0,0,0,0,0,0,0,0,-1,1434,1086,0,0
217,-62,0,0,0,0,0,0,0,0,0,-1,1441,1086,0,0
224,-62,0,0,0,0,0,0,0,0,0,-1,1448,1086,0,0
231,-62,0,0,0,0,0,0,0,0,0,-1,1455,1086,0,0
238,-62,0,0,0,0,0,0,0,0,0,-1,1462,1086,0,0
245,-62,0,0,0,0,0,0,0,0,0,-1,1469,1086,0,0
252,-62,0,0,0,0,0,0,0,0,0,-1,1476,1086,0,0
259,-62,0,0,0,0,0,0,0,0,0,-1,1483,1086,0,0
266,-62,0,0,0,0,0,0,0,0,0,-1,1490,1086,0,0
273,-62,0,0,0,0,0,0,0,0,0,-1,1497,1086,0,0
280,-62,0,0,0,0,0,0,0,0,0,-1,1504,1086,0,0
287,-62,0,0,0,0,0,0,0,0,0,-1,1511,1086,0,0
294,-62,0,0,0,0,0,0,0,0,0,-1,1518,1086,0,0
301,-62,0,0,0,0,0,0,0,0,0,-1,1525,1086,0,0
308,-62,0,0,0,0,0,0,0,0,0,-1,1532,1086,0,0
315,-62,0,0,0,0,0,0,0,0,0,-1,1539,1086,0,0
322,-62,0,0,0,0,0,0,0,0,0,-1,1546,1086,0,0
329,-62,0,0,0,0,0,0,0,0,0,-1,1553,1086,0,0
336,-62,0,0,0,0,0,0,0,0,0,-1,1560,1086,0,0
343,-62,0,0,0,0,0,0,0,0,0,-1,1567,1086,0,0
350,-62,0,0,0,0,0,0,0,0,0,-1,1574,1086,0,0
357,-62,0,0,0,0,0,0,0,0,0,-1,1581,1086,0,0
364,-62,0,0,0,0,0,0,0,0,0,-1,1588,1086,0,0
371,-62,0,0,0,0,0,0,0,0,0,-1,1595,1086,0,0
378,-62,0,0,0,0,0,0,0,0,0,-1,1602,1086,0,0
385,-62,0,0,0,0,0,0,0,0,0,-1,1609,1086,0,0
392,-62,0,0,0,0,0,0,0,0,0,-1,1616,1086,0,0
399,-62,0,0,0,0,0,0,0,0,0,-1,1623,1086,0,0
406,-62,0,0,0,0,0,0,0,0,0,-1,1630,1086,0,0
413,-62,0,0,0,0,0,0,0,0,0,-1,1637,1086,0,0
420,-62,0,0,0,0,0,0,0,0,0,-1,1644,1086,0,0
427,-62,0,0,0,0,0,0,0,0,0,-1,1651,1086,0,0
434,-62,0,0,0,0,0,0,0,0,0,-1,1658,1086,0,0
441,-62,0,0,0,0,0,0,0,0,0,-1,1665,1086,0,0
448,-62,0,0,0,0,0,0,0,0,0,-1,1672,1086,0,0
455,-62,0,0,0,0,0,0,0,0,0,-1,1679,1086,0,0
462,-62,0,0,0,0,0,0,0,0,0,-1,1686,1086,0,0
469,-62,0,0,0,0,0,0,0,0,0,-1,1693,1086,0,0
476,-62,0,0,0,0,0,0,0,0,0,-1,1700,1086,0,0
483,-62,0,0,0,0,0,0,0,0,0,-1,1707,1086,0,0
490,-62,0,0,0,0,0,0,0,0,0,-1,1714,1086,0,0
497,-62,0,0,0,0,0,0,0,0,0,-1,1721,1086,0,0
504,-62,0,0,0,0,0,0,0,0,0,-1,1728,1086,0,0
511,-62,0,0,0,0,0,0,0,0,0,-1,1735,1086,0,0
518,-62,0,0,0,0,0,0,0,0,0,-1,1742,1086,0,0
525,-62,0,0,0,0,0,0,0,0,0,-1,1749,1086,0,0
532,-62,0,0,0,0,0,0,0,0,0,-1,1756,1086,0,0
539,-62,0,0,0,0,0,0,0,0,0,-1,1763,1086,0,0
546,-62,0,0,0,0,0,0,0,0,0,-1,1770,1086,0,0
553,-62,0,0,0,0,0,0,0,0,0,-1,1777,1086,0,0
560,-62,0,0,0,0,0,0,0,0,0,-1,1784,1086,0,0
567,-62,0,0,0,0,0,0,0,0,0,-1,1791,1086,0,0
574,-62,0,0,0,0,0,0,0,0,0,-1,1798,1086,0,0
581,-62,0,0,0,0,0,0,0,0,0,-1,1805,1086,0,0
588,-62,0,0,0,0,0,0,0,0,0,-1,1812,1086,0,0
595,-62,0,0,0,0,0,0,0,0,0,-1,1819,1086,0,0
602,-62,0,0,0,0,0,0,0,0,0,-1,1826,1086,0,0
609,-62,0,0,0,0,0,0,0,0,0,-1,1833,1086,0,0
616,-62,0,0,0,0,0,0,0,0,0,-1,1840,1086,0,0
623,-62,0,0,0,0,0,0,0,0,0,-1,1847,1086,0,0
630,-62,0,0,0,0,0,0,0,0,0,-1,1854,1086,0,0
637,-62,0,0,0,0,0,0,0,0,0,-1,1861,1086,0,0
644,-62,0,0,0,0,0,0,0,0,0,-1,1868,1086,0,0
651,-62,0.172363,-0.0606689,-0.000799758,-0.000648894,0.00244034,0.00171718,-0.00316583,0.800849,0.00286027,0.03425,1875,1086,0.172403,0.0606112
658,-62,0.0791016,-0.0155029,-0.000806884,-0.00016847,0.00169424,0.00123637,-0.00221172,0.87851,0.00201713,0.0356156,1882,1086,0.0791106,0.0155532
665,-62,-0.0936279,0.139526,-0.000688793,0.000100221,0.0011171,0.000890425,-0.001479,0.955139,0.00138198,0.0345656,1889,1086,-0.0936325,-0.139518
672,-62,-0.0318604,0.153564,-0.000535649,0.000241412,0.000702971,0.000656077,-0.000950315,1.03785,0.000932622,0.0325613,1896,1086,-0.0318184,-0.153619
679,-62,0.00305176,0.0700684,-0.000401214,0.000307686,0.000402258,0.000489376,-0.000582904,1.14655,0.000619866,0.0322423,1903,1086,0.0030158,-0.0700982
686,-62,-0.0313721,0.0111084,-0.000278343,0.000330668,0.000197207,0.000388949,-0.000336625,1.28344,0.000419273,0.0354389,1910,1086,-0.0313113,-0.0110678
693,-62,-0.0454102,0.0736084,-0.000170234,0.000323935,6.38835e-05,0.00033206,-0.000178359,1.44429,0.000299111,0.0346518,1917,1086,-0.0453738,-0.0735659
700,-62,-0.0471191,0.104126,-0.000117321,0.000367992,-5.90866e-06,0.000368064,-0.000117393,-1.55862,0.000292469,0.026984,1924,1086,-0.0471447,-0.10408
707,-62,-0.0349121,0.0389404,-4.18493e-05,0.000314242,-0.000103577,0.000342178,-6.97854e-05,-1.30735,0.000254589,0.015472,1931,1086,-0.0349624,-0.0388819
714,-62,-0.0284424,0.0545654,5.12476e-05,0.000255532,-0.000173336,0.000354582,-4.78023e-05,-1.05165,0.000253827,0.00987989,1938,1086,-0.0284114,-0.0545999
721,-62,-0.0252686,0.0643311,0.000109824,0.00020847,-0.000149691,0.000316755,1.53873e-06,-0.944546,0.000210659,0.0113258,1945,1086,-0.0252427,-0.0643538
728,-62,-0.0289307,0.0396729,7.31238e-05,0.000185541,-6.30855e-05,0.000213826,4.48387e-05,-1.14931,0.000130204,0.0135707,1952,1086,-0.0289532,-0.0396845
735,-62,-0.0336914,0.0541992,-3.17431e-05,0.000150252,9.26258e-05,0.000189101,-7.0592e-05,1.17366,0.00015505,0.0141221,1959,1086,-0.0336331,-0.0542425
742,-62,-0.0296631,0.0632324,-5.5341e-05,0.000277309,0.00046119,0.000601249,-0.000379281,0.958461,0.000570924,0.0121694,1966,1086,-0.0297111,-0.0632609
749,-62,-0.0368652,0.0531006,0.000204706,0.000222891,0.000950573,0.00116442,-0.000736818,0.790181,0.00110689,0.0111734,1973,1086,-0.0369193,-0.0531086
756,-62,-0.0566406,0.0692139,0.000659219,0.000689991,0.00205354,0.00272821,-0.001379,0.789144,0.00241357,0.0122668,1980,1086,-0.0566341,-0.0692533
763,-62,-0.022583,0.0566406,0.00121954,0.000569224,0.00297645,0.00388854,-0.00209977,0.730992,0.00350839,0.0130698,1987,1086,-0.0226231,-0.0566783
770,-62,0,0.0372314,0.00191514,0.000720885,0.00425452,0.00561423,-0.00297821,0.715678,0.00503806,0.0106333,1994,1086,1.3184e-05,-0.0372133
777,-62,-0.0284424,0.029541,0.00291852,0.000877858,0.00588051,0.00786656,-0.00407018,0.699498,0.0070069,0.0120727,2001,1086,-0.0284795,-0.0295525
784,-62,-0.0715332,0.00415039,0.00426737,0.00101662,0.00784597,0.0106546,-0.00537056,0.683263,0.00941826,0.0245508,2008,1086,-0.0715103,-0.00417894
791,-62,-0.147583,-0.0335693,0.0060298,0.00109367,0.0101312,0.0139892,-0.00686571,0.66592,0.0122725,0.0402066,2015,1086,-0.147589,0.033614
798,-62,-0.171509,-0.0770264,0.00829234,0.00103041,0.0126925,0.0178631,-0.00854031,0.646084,0.0155575,0.0425673,2022,1086,-0.171463,0.0770846
805,-62,0.11438,0.0222168,0.0111195,0.000704062,0.0154459,0.022212,-0.0103885,0.622804,0.0192301,0.0409751,2029,1086,0.114398,-0.0221893
812,-62,0.326294,0.377441,0.0146399,-7.77351e-05,0.0182063,0.0269184,-0.0123562,0.593342,0.0231889,0.0419072,2036,1086,0.326258,-0.377392
-700,-69,-0.329529,3.07959,0.0124899,0.0479388,-0.0302577,0.0652812,-0.00485254,-1.05035,0.0452252,0.0459443,524,1093,-0.329507,-3.07965
-693,-69,1.46368,0.879883,0.00169907,0.0409915,-0.0210902,0.0501683,-0.0074778,-1.16038,0.0361966,0.0470897,531,1093,1.46371,-0.879934
-686,-69,1.23676,0.904419,-0.00402246,0.0338567,-0.0145457,0.0387978,-0.00896354,-1.24333,0.0293135,0.0456881,538,1093,1.23674,-0.90439
-679,-69,0.873474,0.845337,-0.00665497,0.0271287,-0.0098049,0.0297682,-0.00929439,-1.30784,0.0235627,0.048135,545,1093,0.87348,-0.845313
-672,-69,0.502686,0.888916,-0.00737107,0.0211189,-0.00640673,0.0224933,-0.00874548,-1.35947,0.0186088,0.0485074,552,1093,0.50268,-0.888864
-665,-69,0.39386,0.974609,-0.00691222,0.0159617,-0.00404129,0.0166547,-0.00760523,-1.40097,0.0143276,0.0450484,559,1093,0.393845,-0.974592
-658,-69,0.238464,0.490356,-0.00584886,0.0116962,-0.00244967,0.0120318,-0.00618447,-1.43464,0.0106963,0.0435422,566,1093,0.238486,-0.490353
-651,-69,-0.0153198,0.0629883,-0.00455751,0.00829515,-0.00141997,0.00845016,-0.00471252,-1.46206,0.00770093,0.0309623,573,1093,-0.0153428,-0.0629654
-644,-69,-0.0363159,0.0428467,-0.00411233,0.00617265,-0.000259057,0.00617917,-0.00411885,-1.54563,0.0059851,0.00878306,580,1093,-0.0363421,-0.0428255
-637,-69,-0.0255127,0.0379639,-0.0029362,0.00320186,0.000309336,0.00321741,-0.00295175,1.52057,0.00356287,0.0105978,587,1093,-0.0254978,-0.0379345
-630,-69,-0.0363159,0.0355225,-0.00146804,0.00168783,0.000134221,0.00169353,-0.00147374,1.52837,0.00183009,0.0122001,594,1093,-0.0363447,-0.0355557
-623,-69,-0.0375366,0.0643311,-0.000642527,0.00110525,4.35679e-05,0.00110634,-0.000643612,1.54589,0.00102204,0.0111585,601,1093,-0.0375645,-0.0643264
-616,-69,-0.00891113,0.0639648,0.000128688,0.000346838,-0.000320084,0.000575922,-0.000100396,-0.949613,0.000421418,0.0116139,608,1093,-0.00890914,-0.063995
-609,-69,-0.00872803,0.0334473,0.00015693,0.000387849,-0.000409236,0.000697601,-0.000152822,-0.922892,0.000523497,0.011399,615,1093,-0.00870576,-0.0334328
-602,-69,-0.0123291,0.0566406,-6.9397e-05,0.000630385,-0.000276663,0.00072655,-0.000165562,-1.23627,0.000547956,0.0141975,622,1093,-0.0123395,-0.0566477
-595,-69,-0.00164795,0.0568848,-3.80994e-05,0.000765727,-0.000210646,0.000817582,-8.99549e-05,-1.32942,0.00057738,0.0166678,629,1093,-0.0016222,-0.056863
-588,-69,-0.0115356,0.0772705,-2.84142e-05,0.000806783,-0.000242186,0.000871929,-9.35603e-05,-1.30802,0.00061485,0.0190763,636,1093,-0.0115285,-0.0773055
-581,-69,-0.00811768,0.101318,0.000144229,0.000796393,-0.000325278,0.000930893,9.72964e-06,-1.17871,0.000617377,0.0247311,643,1093,-0.00809536,-0.101351
-574,-69,-0.0216064,0.0899658,0.000416628,0.000784187,-0.000378334,0.00102102,0.000179798,-1.01149,0.000629364,0.029842,650,1093,-0.0216075,-0.0899691
-567,-69,-0.155762,0.0411377,0.000753383,0.000685625,-0.000433993,0.00115482,0.000284191,-0.746445,0.000694799,0.0340798,657,1093,-0.155751,-0.0411536
-560,-69,-0.246033,0.000732422,0.00121994,0.000459723,-0.000552605,0.00151055,0.00016912,-0.484135,0.000955659,0.0358184,664,1093,-0.246013,-0.000738877
-553,-69,-0.0718994,0.192505,0.00182931,6.58603e-05,-0.00077853,0.00212383,-0.000228658,-0.361661,0.00149793,0.0367343,671,1093,-0.0719141,-0.192515
-546,-69,0.0669556,0.159912,0.00256487,-0.000543541,-0.00115155,0.00294499,-0.000923666,-0.318835,0.00233298,0.0341322,678,1093,0.0669753,-0.159925
-539,-69,0.133484,0.0310059,0.00347289,-0.00142749,-0.00173048,0.00402236,-0.00197697,-0.307458,0.00353018,0.0364124,685,1093,0.133477,-0.0310164
-532,-69,0.213867,-0.0301514,0.00449698,-0.00264497,-0.0026796,0.00539055,-0.00353853,-0.321873,0.00519204,0.0387836,692,1093,0.213877,0.0301413
-525,-69,0,0,0,0,0,0,0,0,0,-1,699,1093,0,0
-518,-69,0,0,0,0,0,0,0,0,0,-1,706,1093,0,0
-511,-69,0,0,0,0,0,0,0,0,0,-1,713,1093,0,0
-504,-69,0,0,0,0,0,0,0,0,0,-1,720,1093,0,0
-497,-69,0,0,0,0,0,0,0,0,0,-1,727,1093,0,0
-490,-69,0,0,0,0,0,0,0,0,0,-1,734,1093,0,0
-483,-69,0,0,0,0,0,0,0,0,0,-1,741,1093,0,0
-476,-69,0,0,0,0,0,0,0,0,0,-1,748,1093,0,0
-469,-69,0,0,0,0,0,0,0,0,0,-1,755,1093,0,0
-462,-69,0,0,0,0,0,0,0,0,0,-1,762,1093,0,0
-455,-69,0,0,0,0,0,0,0,0,0,-1,769,1093,0,0
-448,-69,0,0,0,0,0,0,0,0,0,-1,776,1093,0,0
-441,-69,0,0,0,0,0,0,0,0,0,-1,783,1093,0,0
-434,-69,0,0,0,0,0,0,0,0,0,-1,790,1093,0,0
-427,-69,0,0,0,0,0,0,0,0,0,-1,797,1093,0,0
-420,-69,0,0,0,0,0,0,0,0,0,-1,804,1093,0,0
-413,-69,0,0,0,0,0,0,0,0,0,-1,811,1093,0,0
-406,-69,0,0,0,0,0,0,0,0,0,-1,818,1093,0,0
-399,-69,0,0,0,0,0,0,0,0,0,-1,825,1093,0,0
-392,-69,0,0,0,0,0,0,0,0,0,-1,832,1093,0,0
-385,-69,0,0,0,0,0,0,0,0,0,-1,839,1093,0,0
-378,-69,0,0,0,0,0,0,0,0,0,-1,846,1093,0,0
-371,-69,0,0,0,0,0,0,0,0,0,-1,853,1093,0,0
-364,-69,0,0,0,0,0,0,0,0,0,-1,860,1093,0,0
-357,-69,0,0,0,0,0,0,0,0,0,-1,867,1093,0,0
-350,-69,0,0,0,0,0,0,0,0,0,-1,874,1093,0,0
-343,-69,0,0,0,0,0,0,0,0,0,-1,881,1093,0,0
-336,-69,0,0,0,0,0,0,0,0,0,-1,888,1093,0,0
-329,-69,0,0,0,0,0,0,0,0,0,-1,895,1093,0,0
-322,-69,0,0,0,0,0,0,0,0,0,-1,902,1093,0,0
-315,-69,0,0,0,0,0,0,0,0,0,-1,909,1093,0,0
-308,-69,0,0,0,0,0,0,0,0,0,-1,916,1093,0,0
-301,-69,0,0,0,0,0,0,0,0,0,-1,923,1093,0,0
-294,-69,0,0,0,0,0,0,0,0,0,-1,930,1093,0,0
-287,-69,0,0,0,0,0,0,0,0,0,-1,937,1093,0,0
-280,-69,0,0,0,0,0,0,0,0,0,-1,944,1093,0,0
-273,-69,0,0,0,0,0,0,0,0,0,-1,951,1093,0,0
-266,-69,0,0,0,0,0,0,0,0,0,-1,958,1093,0,0
-259,-69,0,0,0,0,0,0,0,0,0,-1,965,1093,0,0
-252,-69,0,0,0,0,0,0,0,0,0,-1,972,1093,0,0
-245,-69,0,0,0,0,0,0,0,0,0,-1,979,1093,0,0
-238,-69,0,0,0,0,0,0,0,0,0,-1,986,1093,0,0
-231,-69,0,0,0,0,0,0,0,0,0,-1,993,1093,0,0
-224,-69,0,0,0,0,0,0,0,0,0,-1,1000,1093,0,0
-217,-69,0,0,0,0,0,0,0,0,0,-1,1007,1093,0,0
-210,-69,0,0,0,0,0,0,0,0,0,-1,1014,1093,0,0
-203,-69,0,0,0,0,0,0,0,0,0,-1,1021,1093,0,0
-196,-69,0,0,0,0,0,0,0,0,0,-1,1028,1093,0,0
-189,-69,0,0,0,0,0,0,0,0,0,-1,1035,1093,0,0
-182,-69,0,0,0,0,0,0,0,0,0,-1,1042,1093,0,0
-175,-69,0,0,0,0,0,0,0,0,0,-1,1049,1093,0,0
-168,-69,0,0,0,0,0,0,0,0,0,-1,1056,1093,0,0
-161,-69,0,0,0,0,0,0,0,0,0,-1,1063,1093,0,0
-154,-69,0,0,0,0,0,0,0,0,0,-1,1070,1093,0,0
-147,-69,0,0,0,0,0,0,0,0,0,-1,1077,1093,0,0
-140,-69,0,0,0,0,0,0,0,0,0,-1,1084,1093,0,0
-133,-69,0,0,0,0,0,0,0,0,0,-1,1091,1093,0,0
-126,-69,0,0,0,0,0,0,0,0,0,-1,1098,1093,0,0
-119,-69,0,0,0,0,0,0,0,0,0,-1,1105,1093,0,0
-112,-69,0,0,0,0,0,0,0,0,0,-1,1112,1093,0,0
-105,-69,0,0,0,0,0,0,0,0,0,-1,1119,1093,0,0
-98,-69,0,0,0,0,0,0,0,0,0,-1,1126,1093,0,0
-91,-69,0,0,0,0,0,0,0,0,0,-1,1133,1093,0,0
-84,-69,0,0,0,0,0,0,0,0,0,-1,1140,1093,0,0
-77,-69,0,0,0,0,0,0,0,0,0,-1,1147,1093,0,0
-70,-69,0,0,0,0,0,0,0,0,0,-1,1154,1093,0,0
-63,-69,0,0,0,0,0,0,0,0,0,-1,1161,1093,0,0
-56,-69,0,0,0,0,0,0,0,0,0,-1,1168,1093,0,0
-49,-69,0,0,0,0,0,0,0,0,0,-1,1175,1093,0,0
-42,-69,0,0,0,0,0,0,0,0,0,-1,1182,1093,0,0
-35,-69,0,0,0,0,0,0,0,0,0,-1,1189,1093,0,0
-28,-69,0,0,0,0,0,0,0,0,0,-1,1196,1093,0,0
-21,-69,0,0,0,0,0,0,0,0,0,-1,1203,1093,0,0
-14,-69,0,0,0,0,0,0,0,0,0,-1,1210,1093,0,0
-7,-69,0,0,0,0,0,0,0,0,0,-1,1217,1093,0,0
0,-69,0,0,0,0,0,0,0,0,0,-1,1224,1093,0,0
7,-69,0,0,0,0,0,0,0,0,0,-1,1231,1093,0,0
14,-69,0,0,0,0,0,0,0,0,0,-1,1238,1093,0,0
21,-69,0,0,0,0,0,0,0,0,0,-1,1245,1093,0,0
28,-69,0,0,0,0,0,0,0,0,0,-1,1252,1093,0,0
35,-69,0,0,0,0,0,0,0,0,0,-1,1259,1093,0,0
42,-69,0,0,0,0,0,0,0,0,0,-1,1266,1093,0,0
49,-69,0,0,0,0,0,0,0,0,0,-1,1273,1093,0,0
56,-69,0,0,0,0,0,0,0,0,0,-1,1280,1093,0,0
63,-69,0,0,0,0,0,0,0,0,0,-1,1287,1093,0,0
70,-69,0,0,0,0,0,0,0,0,0,-1,1294,1093,0,0
77,-69,0,0,0,0,0,0,0,0,0,-1,1301,1093,0,0
84,-69,0,0,0,0,0,0,0,0,0,-1,1308,1093,0,0
91,-69,0,0,0,0,0,0,0,0,0,-1,1315,1093,0,0
98,-69,0,0,0,0,0,0,0,0,0,-1,1322,1093,0,0
105,-69,0,0,0,0,0,0,0,0,0,-1,1329,1093,0,0
112,-69,0,0,0,0,0,0,0,0,0,-1,1336,1093,0,0
119,-69,0,0,0,0,0,0,0,0,0,-1,1343,1093,0,0
126,-69,0,0,0,0,0,0,0,0,0,-1,1350,1093,0,0
133,-69,0,0,0,0,0,0,0,0,0,-1,1357,1093,0,0
140,-69,0,0,0,0,0,0,0,0,0,-1,1364,1093,0,0
147,-69,0,0,0,0,0,0,0,0,0,-1,1371,1093,0,0
154,-69,0,0,0,0,0,0,0,0,0,-1,1378,1093,0,0
161,-69,0,0,0,0,0,0,0,0,0,-1,1385,1093,0,0
168,-69,0,0,0,0,0,0,0,0,0,-1,1392,1093,0,0
175,-69,0,0,0,0,0,0,0,0,0,-1,1399,1093,0,0
182,-69,0,0,0,0,0,0,0,0,0,-1,1406,1093,0,0
189,-69,0,0,0,0,0,0,0,0,0,-1,1413,1093,0,0
196,-69,0,0,0,0,0,0,0,0,0,-1,1420,1093,0,0
203,-69,0,0,0,0,0,0,0,0,0,-1,1427,1093,0,0
210,-69,0,0,0,0,0,0,0,0,0,-1,1434,1093,0,0
217,-69,0,0,0,0,0,0,0,0,0,-1,1441,1093,0,0
224,-69,0,0,0,0,0,0,0,0,0,-1,1448,1093,0,0
231,-69,0,0,0,0,0,0,0,0,0,-1,1455,1093,0,0
238,-69,0,0,0,0,0,0,0,0,0,-1,1462,1093,0,0
245,-69,0,0,0,0,0,0,0,0,0,-1,1469,1093,0,0
252,-69,0,0,0,0,0,0,0,0,0,-1,1476,1093,0,0
259,-69,0,0,0,0,0,0,0,0,0,-1,1483,1093,0,0
266,-69,0,0,0,0,0,0,0,0,0,-1,1490,1093,0,0
273,-69,0,0,0,0,0,0,0,0,0,-1,1497,1093,0,0
280,-69,0,0,0,0,0,0,0,0,0,-1,1504,1093,0,0
287,-69,0,0,0,0,0,0,0,0,0,-1,1511,1093,0,0
294,-69,0,0,0,0,0,0,0,0,0,-1,1518,1093,0,0
301,-69,0,0,0,0,0,0,0,0,0,-1,1525,1093,0,0
308,-69,0,0,0,0,0,0,0,0,0,-1,1532,1093,0,0
315,-69,0,0,0,0,0,0,0,0,0,-1,1539,1093,0,0
322,-69,0,0,0,0,0,0,0,0,0,-1,1546,1093,0,0
329,-69,0,0,0,0,0,0,0,0,0,-1,1553,1093,0,0
336,-69,0,0,0,0,0,0,0,0,0,-1,1560,1093,0,0
343,-69,0,0,0,0,0,0,0,0,0,-1,1567,1093,0,0
350,-69,0,0,0,0,0,0,0,0,0,-1,1574,1093,0,0
357,-69,0,0,0,0,0,0,0,0,0,-1,1581,1093,0,0
364,-69,0,0,0,0,0,0,0,0,0,-1,1588,1093,0,0
371,-69,0,0,0,0,0,0,0,0,0,-1,1595,1093,0,0
378,-69,0,0,0,0,0,0,0,0,0,-1,1602,1093,0,0
385,-69,0,0,0,0,0,0,0,0,0,-1,1609,1093,0,0
392,-69,0,0,0,0,0,0,0,0,0,-1,1616,1093,0,0
399,-69,0,0,0,0,0,0,0,0,0,-1,1623,1093,0,0
406,-69,0,0,0,0,0,0,0,0,0,-1,1630,1093,0,0
413,-69,0,0,0,0,0,0,0,0,0,-1,1637,1093,0,0
420,-69,0,0,0,0,0,0,0,0,0,-1,1644,1093,0,0
427,-69,0,0,0,0,0,0,0,0,0,-1,1651,1093,0,0
434,-69,0,0,0,0,0,0,0,0,0,-1,1658,1093,0,0
441,-69,0,0,0,0,0,0,0,0,0,-1,1665,1093,0,0
448,-69,0,0,0,0,0,0,0,0,0,-1,1672,1093,0,0
455,-69,0,0,0,0,0,0,0,0,0,-1,1679,1093,0,0
462,-69,0,0,0,0,0,0,0,0,0,-1,1686,1093,0,0
469,-69,0,0,0,0,0,0,0,0,0,-1,1693,1093,0,0
476,-69,0,0,0,0,0,0,0,0,0,-1,1700,1093,0,0
483,-69,0,0,0,0,0,0,0,0,0,-1,1707,1093,0,0
490,-69,0,0,0,0,0,0,0,0,0,-1,1714,1093,0,0
497,-69,0,0,0,0,0,0,0,0,0,-1,1721,1093,0,0
504,-69,0,0,0,0,0,0,0,0,0,-1,1728,1093,0,0
511,-69,0,0,0,0,0,0,0,0,0,-1,1735,1093,0,0
518,-69,0,0,0,0,0,0,0,0,0,-1,1742,1093,0,0
525,-69,0,0,0,0,0,0,0,0,0,-1,1749,1093,0,0
532,-69,0,0,0,0,0,0,0,0,0,-1,1756,1093,0,0
539,-69,0,0,0,0,0,0,0,0,0,-1,1763,1093,0,0
546,-69,0,0,0,0,0,0,0,0,0,-1,1770,1093,0,0
553,-69,0,0,0,0,0,0,0,0,0,-1,1777,1093,0,0
560,-69,0,0,0,0,0,0,0,0,0,-1,1784,1093,0,0
567,-69,0,0,0,0,0,0,0,0,0,-1,1791,1093,0,0
574,-69,0,0,0,0,0,0,0,0,0,-1,1798,1093,0,0
581,-69,0,0,0,0,0,0,0,0,0,-1,1805,1093,0,0
588,-69,0,0,0,0,0,0,0,0,0,-1,1812,1093,0,0
595,-69,0,0,0,0,0,0,0,0,0,-1,1819,1093,0,0
602,-69,0,0,0,0,0,0,0,0,0,-1,1826,1093,0,0
609,-69,0,0,0,0,0,0,0,0,0,-1,1833,1093,0,0
616,-69,0,0,0,0,0,0,0,0,0,-1,1840,1093,0,0
623,-69,0,0,0,0,0,0,0,0,0,-1,1847,1093,0,0
630,-69,0,0,0,0,0,0,0,0,0,-1,1854,1093,0,0
637,-69,0,0,0,0,0,0,0,0,0,-1,1861,1093,0,0
644,-69,0,0,0,0,0,0,0,0,0,-1,1868,1093,0,0
651,-69,0.0782471,-0.0625,-0.000236641,-0.000792365,0.00218522,0.00168831,-0.00271731,0.72216,0.00256661,0.0366051,1875,1093,0.078248,0.0624649
658,-69,0.0230713,0.060791,-0.000369477,-0.000105615,0.00158754,0.00135547,-0.00183056,0.826855,0.00184626,0.0396546,1882,1093,0.0231188,-0.0608431
665,-69,0.0131836,0.122559,-0.000365612,0.000273881,0.00111356,0.00111269,-0.00120442,0.925206,0.00133814,0.0398047,1889,1093,0.0131536,-0.122542
672,-69,-0.0294189,0.148682,-0.000317204,0.000470694,0.000758611,0.000931547,-0.000778057,1.02488,0.000988365,0.0330336,1896,1093,-0.0294669,-0.148728
679,-69,-0.0159912,0.0327148,-0.000262203,0.000552757,0.000487221,0.000780434,-0.00048988,1.13365,0.000739783,0.0329059,1903,1093,-0.0160226,-0.0327401
686,-69,-0.0241699,0.0209961,-0.00019494,0.000565264,0.000291613,0.00066424,-0.000293916,1.24359,0.000566797,0.0355893,1910,1093,-0.0241253,-0.0210185
693,-69,-0.0345459,0.0328369,-0.000130714,0.000531633,0.000155524,0.000566334,-0.000165415,1.35127,0.000443108,0.0316386,1917,1093,-0.0345704,-0.0328517
700,-69,-0.0244141,0.0135498,-0.000115947,0.00055224,7.94619e-05,0.00056156,-0.000125267,1.45404,0.000422367,0.0238148,1924,1093,-0.0244328,-0.0135531
707,-69,-0.0300293,0.0273438,-7.00871e-05,0.000473348,-2.70232e-05,0.000474688,-7.14275e-05,-1.52123,0.000342758,0.0145968,1931,1093,-0.0300347,-0.0273016
714,-69,-0.0196533,0.081665,2.43403e-06,0.000380502,-0.000111821,0.000411099,-2.81628e-05,-1.30371,0.000283919,0.0109415,1938,1093,-0.0196067,-0.0816565
721,-69,-0.0106201,0.069458,6.25821e-05,0.00028571,-0.000111129,0.000331614,1.66782e-05,-1.17907,0.000215731,0.0153771,1945,1093,-0.0105868,-0.0694878
728,-69,-0.03479,0.0388184,4.62685e-05,0.00022149,-4.61591e-05,0.000232906,3.48525e-05,-1.32834,0.000145056,0.0139597,1952,1093,-0.0348204,-0.0388555
735,-69,-0.0322266,0.0294189,-2.80076e-05,0.00013795,6.50863e-05,0.000160431,-5.04883e-05,1.23823,0.000127169,0.0132643,1959,1093,-0.0322737,-0.0293693
742,-69,-0.017334,0.0361328,-6.18832e-05,0.000176991,0.000335213,0.000413409,-0.000298302,0.956537,0.000412694,0.0110891,1966,1093,-0.0173854,-0.0361808
749,-69,-0.0290527,0.0368652,5.65726e-05,2.60335e-05,0.000690124,0.000731596,-0.00064899,0.774337,0.000797557,0.0127686,1973,1093,-0.0291076,-0.0368962
756,-69,-0.0460205,0.0545654,0.000309689,0.000336041,0.00154913,0.00187205,-0.00122632,0.789651,0.00180175,0.0130481,1980,1093,-0.0460513,-0.0545161
763,-69,-0.0491943,0.052002,0.000634702,4.24008e-05,0.00216392,0.00252264,-0.00184554,0.717391,0.00253205,0.0123561,1987,1093,-0.0492484,-0.0519623
770,-69,-0.0441895,0.03479,0.00102596,-2.72198e-05,0.00308093,0.00362498,-0.00262624,0.700757,0.00362446,0.0118634,1994,1093,-0.0442287,-0.0348207
777,-69,-0.0388184,0.0233154,0.00160398,-0.000141289,0.00423493,0.00505524,-0.00359255,0.683792,0.00501656,0.0163035,2001,1093,-0.0387892,-0.0233722
784,-69,-0.0942383,-0.0775146,0.00239155,-0.000321233,0.00560942,0.00680624,-0.00473592,0.666772,0.00669951,0.0268859,2008,1093,-0.0942728,0.077535
791,-69,-0.151123,-0.16626,0.00344849,-0.000601676,0.00718027,0.00888378,-0.00603697,0.647951,0.00866661,0.0406426,2015,1093,-0.151144,0.166241
798,-69,0.0107422,-0.350952,0.00484137,-0.0010439,0.00890713,0.0112794,-0.00748189,0.625858,0.0109055,0.0459667,2022,1093,0.0107272,0.350977
805,-69,0.0596924,-0.0947266,0.00661783,-0.00174275,0.0107098,0.0139343,-0.00905922,0.59933,0.0133744,0.0453214,2029,1093,0.0597079,0.0947163
812,-69,0.206665,0.282959,0.00891264,-0.00284063,0.0124187,0.016775,-0.010703,0.564406,0.015993,0.0432351,2036,1093,0.206687,-0.282977
-700,-76,0,0,0,0,0,0,0,0,0,-1,524,1100,0,0
-693,-76,0.785095,0.338257,-0.0013629,0.0538141,-0.012153,0.0563722,-0.00392105,-1.36333,0.0389543,0.0416421,531,1100,0.785067,-0.33828
-686,-76,0.621216,0.35022,-0.00663553,0.0444014,-0.00725084,0.0454115,-0.00764567,-1.43237,0.0331184,0.047184,538,1100,0.621207,-0.350241
-679,-76,0.373413,0.417847,-0.00879098,0.0355301,-0.00410494,0.0359071,-0.00916796,-1.47922,0.0275081,0.0472468,545,1100,0.373432,-0.417821
-672,-76,0.328735,0.562988,-0.00905833,0.0276064,-0.00215494,0.0277326,-0.00918455,-1.51229,0.0221927,0.046105,552,1100,0.328759,-0.562956
-665,-76,0.384033,0.637939,-0.00820495,0.020813,-0.00102895,0.0208495,-0.00824139,-1.5354,0.0173134,0.0456582,559,1100,0.384055,-0.637985
-658,-76,-0.086792,-0.238647,-0.00680458,0.015207,-0.000439049,0.0152157,-0.00681334,-1.55086,0.0130232,0.0418915,566,1100,-0.0867684,0.238613
-651,-76,-0.0354004,0.00952148,-0.00524272,0.0107545,-0.000171167,0.0107564,-0.00524455,-1.5601,0.00941906,0.0257077,573,1100,-0.0354218,-0.00958129
-644,-76,-0.022583,0.0421143,-0.00461251,0.00778929,0.000435002,0.00780453,-0.00462775,1.53578,0.00725547,0.00934574,580,1100,-0.0226036,-0.0421299
-637,-76,-0.0169678,0.0430908,-0.00321984,0.00414248,0.000545499,0.00418267,-0.00326003,1.49724,0.00430804,0.0117462,587,1100,-0.0169711,-0.0431387
-630,-76,-0.039978,0.045166,-0.0016136,0.00213701,3.89775e-05,0.00213741,-0.001614,1.56041,0.0021729,0.0134561,594,1100,-0.0399533,-0.0451474
-623,-76,-0.0349121,0.0488281,-0.000740681,0.00122639,-0.000198976,0.00124632,-0.000760607,-1.47099,0.00116995,0.01239,601,1100,-0.0348876,-0.0488264
-616,-76,-0.0151978,0.0411377,7.7864e-05,0.000457551,-0.000611577,0.000908073,-0.000372657,-0.935891,0.000760663,0.0102167,608,1100,-0.0151851,-0.0411969
-609,-76,-0.0248413,0.0290527,0.00014694,0.000395608,-0.000611582,0.000895366,-0.000352818,-0.885681,0.000742986,0.0111589,615,1100,-0.0248574,-0.0290888
-602,-76,-0.020813,0.0369873,-6.89022e-05,0.000517737,-0.000387687,0.000710563,-0.000261728,-1.10925,0.000580948,0.0161676,622,1100,-0.0208209,-0.0369622
-595,-76,-0.00524902,0.0274658,-7.95417e-06,0.000624998,-0.000261725,0.000719201,-0.000102157,-1.2253,0.000516895,0.0203491,629,1100,-0.00527695,-0.027475
-588,-76,-0.00439453,0.0522461,-1.01884e-05,0.000676755,-0.000259762,0.000763921,-9.73548e-05,-1.24704,0.000544641,0.0215558,636,1100,-0.004405,-0.052221
-581,-76,-0.0240479,0.041748,0.000161669,0.000681774,-0.000310353,0.000826625,1.68187e-05,-1.13412,0.000545563,0.0249678,643,1100,-0.0240624,-0.0417728
-574,-76,-0.0640259,-0.0299072,0.000453923,0.000682599,-0.000320388,0.000908441,0.000228082,-0.956791,0.000545726,0.0312644,650,1100,-0.0640287,0.0299078
-567,-76,-0.166443,-0.151733,0.000802277,0.000624745,-0.000310172,0.00103613,0.000390888,-0.646031,0.000604191,0.0358605,657,1100,-0.166469,0.151734
-560,-76,-0.196289,-0.109863,0.00128115,0.000466062,-0.000345434,0.00140785,0.000339362,-0.351549,0.000848383,0.0397517,664,1100,-0.196296,0.109817
-553,-76,-0.0764771,0.134033,0.00190723,0.000169027,-0.000471787,0.00202702,4.92298e-05,-0.248667,0.00133524,0.0396312,671,1100,-0.0765,-0.133981
-546,-76,0.0230713,0.229858,0.00267485,-0.000310686,-0.000735217,0.00284609,-0.000481919,-0.228822,0.00207675,0.0365293,678,1100,0.0230727,-0.22988
-539,-76,0.0629883,0.132813,0.00363898,-0.00103139,-0.00120751,0.0039327,-0.00132511,-0.238615,0.00315759,0.0357538,685,1100,0.0629795,-0.132782
-532,-76,0.184998,0.083252,0.00477141,-0.00205403,-0.00206969,0.00534997,-0.00263258,-0.272579,0.0046969,0.0361227,692,1100,0.184982,-0.0832375
-525,-76,0,0,0,0,0,0,0,0,0,-1,699,1100,0,0
-518,-76,0,0,0,0,0,0,0,0,0,-1,706,1100,0,0
-511,-76,0,0,0,0,0,0,0,0,0,-1,713,1100,0,0
-504,-76,0,0,0,0,0,0,0,0,0,-1,720,1100,0,0
-497,-76,0,0,0,0,0,0,0,0,0,-1,727,1100,0,0
-490,-76,0,0,0,0,0,0,0,0,0,-1,734,1100,0,0
-483,-76,0,0,0,0,0,0,0,0,0,-1,741,1100,0,0
-476,-76,0,0,0,0,0,0,0,0,0,-1,748,1100,0,0
-469,-76,0,0,0,0,0,0,0,0,0,-1,755,1100,0,0
-462,-76,0,0,0,0,0,0,0,0,0,-1,762,1100,0,0
-455,-76,0,0,0,0,0,0,0,0,0,-1,769,1100,0,0
-448,-76,0,0,0,0,0,0,0,0,0,-1,776,1100,0,0
-441,-76,0,0,0,0,0,0,0,0,0,-1,783,1100,0,0
-434,-76,0,0,0,0,0,0,0,0,0,-1,790,1100,0,0
-427,-76,0,0,0,0,0,0,0,0,0,-1,797,1100,0,0
-420,-76,0,0,0,0,0,0,0,0,0,-1,804,1100,0,0
-413,-76,0,0,0,0,0,0,0,0,0,-1,811,1100,0,0
-406,-76,0,0,0,0,0,0,0,0,0,-1,818,1100,0,0
-399,-76,0,0,0,0,0,0,0,0,0,-1,825,1100,0,0
-392,-76,0,0,0,0,0,0,0,0,0,-1,832,1100,0,0
-385,-76,0,0,0,0,0,0,0,0,0,-1,839,1100,0,0
-378,-76,0,0,0,0,0,0,0,0,0,-1,846,1100,0,0
-371,-76,0,0,0,0,0,0,0,0,0,-1,853,1100,0,0
-364,-76,0,0,0,0,0,0,0,0,0,-1,860,1100,0,0
-357,-76,0,0,0,0,0,0,0,0,0,-1,867,1100,0,0
-350,-76,0,0,0,0,0,0,0,0,0,-1,874,1100,0,0
-343,-76,0,0,0,0,0,0,0,0,0,-1,881,1100,0,0
-336,-76,0,0,0,0,0,0,0,0,0,-1,888,1100,0,0
-329,-76,0,0,0,0,0,0,0,0,0,-1,895,1100,0,0
-322,-76,0,0,0,0,0,0,0,0,0,-1,902,1100,0,0
-315,-76,0,0,0,0,0,0,0,0,0,-1,909,1100,0,0
-308,-76,0,0,0,0,0,0,0,0,0,-1,916,1100,0,0
-301,-76,0,0,0,0,0,0,0,0,0,-1,923,1100,0,0
-294,-76,0,0,0,0,0,0,0,0,0,-1,930,1100,0,0
-287,-76,0,0,0,0,0,0,0,0,0,-1,937,1100,0,0
-280,-76,0,0,0,0,0,0,0,0,0,-1,944,1100,0,0
-273,-76,0,0,0,0,0,0,0,0,0,-1,951,1100,0,0
-266,-76,0,0,0,0,0,0,0,0,0,-1,958,1100,0,0
-259,-76,0,0,0,0,0,0,0,0,0,-1,965,1100,0,0
-252,-76,0,0,0,0,0,0,0,0,0,-1,972,1100,0,0
-245,-76,0,0,0,0,0,0,0,0,0,-1,979,1100,0,0
-238,-76,0,0,0,0,0,0,0,0,0,-1,986,1100,0,0
-231,-76,0,0,0,0,0,0,0,0,0,-1,993,1100,0,0
-224,-76,0,0,0,0,0,0,0,0,0,-1,1000,1100,0,0
-217,-76,0,0,0,0,0,0,0,0,0,-1,1007,1100,0,0
-210,-76,0,0,0,0,0,0,0,0,0,-1,1014,1100,0,0
-203,-76,0,0,0,0,0,0,0,0,0,-1,1021,1100,0,0
-196,-76,0,0,0,0,0,0,0,0,0,-1,1028,1100,0,0
-189,-76,0,0,0,0,0,0,0,0,0,-1,1035,1100,0,0
-182,-76,0,0,0,0,0,0,0,0,0,-1,1042,1100,0,0
-175,-76,0,0,0,0,0,0,0,0,0,-1,1049,1100,0,0
-168,-76,0,0,0,0,0,0,0,0,0,-1,1056,1100,0,0
-161,-76,0,0,0,0,0,0,0,0,0,-1,1063,1100,0,0
-154,-76,0,0,0,0,0,0,0,0,0,-1,1070,1100,0,0
-147,-76,0,0,0,0,0,0,0,0,0,-1,1077,1100,0,0
-140,-76,0,0,0,0,0,0,0,0,0,-1,1084,1100,0,0
-133,-76,0,0,0,0,0,0,0,0,0,-1,1091,1100,0,0
-126,-76,0,0,0,0,0,0,0,0,0,-1,1098,1100,0,0
-119,-76,0,0,0,0,0,0,0,0,0,-1,1105,1100,0,0
-112,-76,0,0,0,0,0,0,0,0,0,-1,1112,1100,0,0
-105,-76,0,0,0,0,0,0,0,0,0,-1,1119,1100,0,0
-98,-76,0,0,0,0,0,0,0,0,0,-1,1126,1100,0,0
-91,-76,0,0,0,0,0,0,0,0,0,-1,1133,1100,0,0
-84,-76,0,0,0,0,0,0,0,0,0,-1,1140,1100,0,0
-77,-76,0,0,0,0,0,0,0,0,0,-1,1147,1100,0,0
-70,-76,0,0,0,0,0,0,0,0,0,-1,1154,1100,0,0
-63,-76,0,0,0,0,0,0,0,0,0,-1,1161,1100,0,0
-56,-76,0,0,0,0,0,0,0,0,0,-1,1168,1100,0,0
-49,-76,0,0,0,0,0,0,0,0,0,-1,1175,1100,0,0
-42,-76,0,0,0,0,0,0,0,0,0,-1,1182,1100,0,0
-35,-76,0,0,0,0,0,0,0,0,0,-1,1189,1100,0,0
-28,-76,0,0,0,0,0,0,0,0,0,-1,1196,1100,0,0
-21,-76,0,0,0,0,0,0,0,0,0,-1,1203,1100,0,0
-14,-76,0,0,0,0,0,0,0,0,0,-1,1210,1100,0,0
-7,-76,0,0,0,0,0,0,0,0,0,-1,1217,1100,0,0
0,-76,0,0,0,0,0,0,0,0,0,-1,1224,1100,0,0
7,-76,0,0,0,0,0,0,0,0,0,-1,1231,1100,0,0
14,-76,0,0,0,0,0,0,0,0,0,-1,1238,1100,0,0
21,-76,0,0,0,0,0,0,0,0,0,-1,1245,1100,0,0
28,-76,0,0,0,0,0,0,0,0,0,-1,1252,1100,0,0
35,-76,0,0,0,0,0,0,0,0,0,-1,1259,1100,0,0
42,-76,0,0,0,0,0,0,0,0,0,-1,1266,1100,0,0
49,-76,0,0,0,0,0,0,0,0,0,-1,1273,1100,0,0
56,-76,0,0,0,0,0,0,0,0,0,-1,1280,1100,0,0
63,-76,0,0,0,0,0,0,0,0,0,-1,1287,1100,0,0
70,-76,0,0,0,0,0,0,0,0,0,-1,1294,1100,0,0
77,-76,0,0,0,0,0,0,0,0,0,-1,1301,1100,0,0
84,-76,0,0,0,0,0,0,0,0,0,-1,1308,1100,0,0
91,-76,0,0,0,0,0,0,0,0,0,-1,1315,1100,0,0
98,-76,0,0,0,0,0,0,0,0,0,-1,1322,1100,0,0
105,-76,0,0,0,0,0,0,0,0,0,-1,1329,1100,0,0
112,-76,0,0,0,0,0,0,0,0,0,-1,1336,1100,0,0
119,-76,0,0,0,0,0,0,0,0,0,-1,1343,1100,0,0
126,-76,0,0,0,0,0,0,0,0,0,-1,1350,1100,0,0
133,-76,0,0,0,0,0,0,0,0,0,-1,1357,1100,0,0
140,-76,0,0,0,0,0,0,0,0,0,-1,1364,1100,0,0
147,-76,0,0,0,0,0,0,0,0,0,-1,1371,1100,0,0
154,-76,0,0,0,0,0,0,0,0,0,-1,1378,1100,0,0
161,-76,0,0,0,0,0,0,0,0,0,-1,1385,1100,0,0
168,-76,0,0,0,0,0,0,0,0,0,-1,1392,1100,0,0
175,-76,0,0,0,0,0,0,0,0,0,-1,1399,1100,0,0
182,-76,0,0,0,0,0,0,0,0,0,-1,1406,1100,0,0
189,-76,0,0,0,0,0,0,0,0,0,-1,1413,1100,0,0
196,-76,0,0,0,0,0,0,0,0,0,-1,1420,1100,0,0
203,-76,0,0,0,0,0,0,0,0,0,-1,1427,1100,0,0
210,-76,0,0,0,0,0,0,0,0,0,-1,1434,1100,0,0
217,-76,0,0,0,0,0,0,0,0,0,-1,1441,1100,0,0
224,-76,0,0,0,0,0,0,0,0,0,-1,1448,1100,0,0
231,-76,0,0,0,0,0,0,0,0,0,-1,1455,1100,0,0
238,-76,0,0,0,0,0,0,0,0,0,-1,1462,1100,0,0
245,-76,0,0,0,0,0,0,0,0,0,-1,1469,1100,0,0
252,-76,0,0,0,0,0,0,0,0,0,-1,1476,1100,0,0
259,-76,0,0,0,0,0,0,0,0,0,-1,1483,1100,0,0
266,-76,0,0,0,0,0,0,0,0,0,-1,1490,1100,0,0
273,-76,0,0,0,0,0,0,0,0,0,-1,1497,1100,0,0
280,-76,0,0,0,0,0,0,0,0,0,-1,1504,1100,0,0
287,-76,0,0,0,0,0,0,0,0,0,-1,1511,1100,0,0
294,-76,0,0,0,0,0,0,0,0,0,-1,1518,1100,0,0
301,-76,0,0,0,0,0,0,0,0,0,-1,1525,1100,0,0
308,-76,0,0,0,0,0,0,0,0,0,-1,1532,1100,0,0
315,-76,0,0,0,0,0,0,0,0,0,-1,1539,1100,0,0
322,-76,0,0,0,0,0,0,0,0,0,-1,1546,1100,0,0
329,-76,0,0,0,0,0,0,0,0,0,-1,1553,1100,0,0
336,-76,0,0,0,0,0,0,0,0,0,-1,1560,1100,0,0
343,-76,0,0,0,0,0,0,0,0,0,-1,1567,1100,0,0
350,-76,0,0,0,0,0,0,0,0,0,-1,1574,1100,0,0
357,-76,0,0,0,0,0,0,0,0,0,-1,1581,1100,0,0
364,-76,0,0,0,0,0,0,0,0,0,-1,1588,1100,0,0
371,-76,0,0,0,0,0,0,0,0,0,-1,1595,1100,0,0
378,-76,0,0,0,0,0,0,0,0,0,-1,1602,1100,0,0
385,-76,0,0,0,0,0,0,0,0,0,-1,1609,1100,0,0
392,-76,0,0,0,0,0,0,0,0,0,-1,1616,1100,0,0
399,-76,0,0,0,0,0,0,0,0,0,-1,1623,1100,0,0
406,-76,0,0,0,0,0,0,0,0,0,-1,1630,1100,0,0
413,-76,0,0,0,0,0,0,0,0,0,-1,1637,1100,0,0
420,-76,0,0,0,0,0,0,0,0,0,-1,1644,1100,0,0
427,-76,0,0,0,0,0,0,0,0,0,-1,1651,1100,0,0
434,-76,0,0,0,0,0,0,0,0,0,-1,1658,1100,0,0
441,-76,0,0,0,0,0,0,0,0,0,-1,1665,1100,0,0
448,-76,0,0,0,0,0,0,0,0,0,-1,1672,1100,0,0
455,-76,0,0,0,0,0,0,0,0,0,-1,1679,1100,0,0
462,-76,0,0,0,0,0,0,0,0,0,-1,1686,1100,0,0
469,-76,0,0,0,0,0,0,0,0,0,-1,1693,1100,0,0
476,-76,0,0,0,0,0,0,0,0,0,-1,1700,1100,0,0
483,-76,0,0,0,0,0,0,0,0,0,-1,1707,1100,0,0
490,-76,0,0,0,0,0,0,0,0,0,-1,1714,1100,0,0
497,-76,0,0,0,0,0,0,0,0,0,-1,1721,1100,0,0
504,-76,0,0,0,0,0,0,0,0,0,-1,1728,1100,0,0
511,-76,0,0,0,0,0,0,0,0,0,-1,1735,1100,0,0
518,-76,0,0,0,0,0,0,0,0,0,-1,1742,1100,0,0
525,-76,0,0,0,0,0,0,0,0,0,-1,1749,1100,0,0
532,-76,0,0,0,0,0,0,0,0,0,-1,1756,1100,0,0
539,-76,0,0,0,0,0,0,0,0,0,-1,1763,1100,0,0
546,-76,0,0,0,0,0,0,0,0,0,-1,1770,1100,0,0
553,-76,0,0,0,0,0,0,0,0,0,-1,1777,1100,0,0
560,-76,0,0,0,0,0,0,0,0,0,-1,1784,1100,0,0
567,-76,0,0,0,0,0,0,0,0,0,-1,1791,1100,0,0
574,-76,0,0,0,0,0,0,0,0,0,-1,1798,1100,0,0
581,-76,0,0,0,0,0,0,0,0,0,-1,1805,1100,0,0
588,-76,0,0,0,0,0,0,0,0,0,-1,1812,1100,0,0
595,-76,0,0,0,0,0,0,0,0,0,-1,1819,1100,0,0
602,-76,0,0,0,0,0,0,0,0,0,-1,1826,1100,0,0
609,-76,0,0,0,0,0,0,0,0,0,-1,1833,1100,0,0
616,-76,0,0,0,0,0,0,0,0,0,-1,1840,1100,0,0
623,-76,0,0,0,0,0,0,0,0,0,-1,1847,1100,0,0
630,-76,0,0,0,0,0,0,0,0,0,-1,1854,1100,0,0
637,-76,0,0,0,0,0,0,0,0,0,-1,1861,1100,0,0
644,-76,0,0,0,0,0,0,0,0,0,-1,1868,1100,0,0
651,-76,0.0301514,-0.000976563,0.000387294,-0.00133836,0.00171679,0.00144588,-0.00239695,0.552543,0.0022412,0.0390275,1875,1100,0.0301421,0.00102547
658,-76,0.046875,0.0296631,0.000104306,-0.000450026,0.00129753,0.00115394,-0.00149966,0.680174,0.00153639,0.0403086,1882,1100,0.0469056,-0.0297217
665,-76,0.0721436,-0.010376,-1.36146e-05,7.60243e-05,0.000963474,0.000995721,-0.000933311,0.808641,0.00111392,0.037006,1889,1100,0.0721996,0.0104303
672,-76,0.000854492,0.0186768,-7.10289e-05,0.000376704,0.000704063,0.000891634,-0.00058596,0.939325,0.000859153,0.0327201,1896,1100,0.000868424,-0.0186242
679,-76,-0.0725098,0.0512695,-9.13622e-05,0.000527411,0.000494965,0.000801728,-0.00036568,1.06472,0.000689498,0.0332712,1903,1100,-0.0725206,-0.0512237
686,-76,-0.0186768,0.052124,-7.71537e-05,0.000580783,0.000337371,0.000723025,-0.000219396,1.17179,0.000569416,0.0337539,1910,1100,-0.0186708,-0.0520801
693,-76,-0.0239258,0.0517578,-5.62259e-05,0.000568722,0.000222344,0.000639754,-0.000127258,1.26157,0.000474643,0.0321135,1917,1100,-0.0239439,-0.0517889
700,-76,-0.0107422,0.00146484,-8.25685e-05,0.000601838,0.00016108,0.000637854,-0.000118584,1.35082,0.00046978,0.0251101,1924,1100,-0.0107134,-0.00147565
707,-76,-0.020874,0.0247803,-6.59846e-05,0.000535291,5.63565e-05,0.000540528,-7.12212e-05,1.47814,0.000386287,0.0151613,1931,1100,-0.0208579,-0.0247693
714,-76,-0.00195313,0.0758057,-1.29222e-05,0.00044324,-3.18103e-05,0.000445448,-1.51298e-05,-1.50151,0.000302135,0.016363,1938,1100,-0.00196828,-0.0757965
721,-76,-0.034668,0.0476074,4.35376e-05,0.000330523,-4.35754e-05,0.000336993,3.70671e-05,-1.42338,0.000213382,0.0166877,1945,1100,-0.0347108,-0.0476339
728,-76,-0.05896,0.0223389,4.35144e-05,0.000242271,-1.85228e-06,0.000242288,4.34972e-05,-1.56148,0.000149156,0.016465,1952,1100,-0.0589502,-0.0223585
735,-76,-0.0585938,0.00952148,-9.28215e-06,0.000108312,6.43996e-05,0.000136718,-3.76883e-05,1.15537,0.000105966,0.0159112,1959,1100,-0.0585484,-0.00952066
742,-76,-0.0201416,0.0400391,-6.2701e-05,9.26903e-05,0.000261443,0.000287739,-0.000257749,0.929832,0.000315096,0.0112836,1966,1100,-0.0201121,-0.0400876
749,-76,-0.0341797,0.034668,-2.42083e-05,-0.000155148,0.000505815,0.000420356,-0.000599713,0.721039,0.000591964,0.0123703,1973,1100,-0.0342371,-0.034695
756,-76,-0.0461426,0.0430908,0.000118633,-1.26745e-05,0.00115045,0.0012053,-0.00109935,0.756895,0.00133106,0.0133969,1980,1100,-0.0461033,-0.0430756
763,-76,-0.0407715,0.0402832,0.000250455,-0.000457678,0.00149398,0.00143176,-0.00163898,0.669047,0.00177423,0.0126034,1987,1100,-0.0407342,-0.0402869
770,-76,-0.0224609,0.0339355,0.000438081,-0.000730742,0.00210595,0.00203921,-0.00233187,0.650052,0.00252553,0.012449,1994,1100,-0.0224236,-0.033954
777,-76,-0.0195313,0.026123,0.000719955,-0.00109267,0.00285983,0.00281364,-0.00318636,0.631949,0.00346633,0.0154332,2001,1100,-0.0195906,-0.0260918
784,-76,-0.0471191,-0.0150146,0.00110964,-0.00156037,0.00373214,0.00373836,-0.00418909,0.613637,0.00457938,0.0277067,2008,1100,-0.047091,0.0150474
791,-76,-0.088623,0.00146484,0.00165611,-0.00215852,0.00469332,0.00481487,-0.00531728,0.592397,0.0058522,0.0396463,2015,1100,-0.0886423,-0.00141521
798,-76,-0.135986,-0.017334,0,0,0,0,0,0,0,-1,2022,1100,-0.135973,0.0172983
805,-76,-0.401001,-0.383423,0.00335834,-0.00393663,0.00668117,0.00732284,-0.00790112,0.53554,0.00879167,0.0455603,2029,1100,-0.401003,0.38344
812,-76,-0.148071,0.0714111,0.00465099,-0.0052737,0.0074565,0.00864544,-0.00926815,0.491799,0.0103445,0.0438778,2036,1100,-0.148126,-0.0714666
-700,-83,0,0,0,0,0,0,0,0,0,-1,524,1107,0,0
-693,-83,0.954895,-0.693481,0,0,0,0,0,0,0,-1,531,1107,0.954871,0.693517
-686,-83,0.550537,-0.440063,-0.00964334,0.0518114,0.000399407,0.051814,-0.00964594,1.5643,0.0381665,0.0472293,538,1107,0.55052,0.440074
-679,-83,0.0643921,-0.165161,-0.0108779,0.0415682,0.00151397,0.0416118,-0.0109216,1.54196,0.032009,0.0475274,545,1107,0.0644153,0.165104
-672,-83,-0.517639,0.0272217,-0.0104597,0.0324132,0.00180002,0.0324886,-0.0105351,1.52891,0.0258953,0.0455808,552,1107,-0.517668,-0.0271876
-665,-83,-0.858521,0.225952,-0.00911498,0.0245476,0.00162009,0.0246254,-0.00919277,1.52282,0.0201912,0.043835,559,1107,-0.858497,-0.225915
-658,-83,-0.449524,0.113403,-0.00736699,0.0180347,0.00123295,0.0180944,-0.0074267,1.52241,0.0151576,0.0394258,566,1107,-0.449526,-0.113373
-651,-83,-0.0927734,-0.0197754,-0.00557129,0.0128403,0.000809995,0.0128758,-0.00560686,1.52692,0.0109426,0.0272654,573,1107,-0.0927525,0.0197402
-644,-83,-0.0186768,0.0169678,-0.0047436,0.00924353,0.000924107,0.00930432,-0.00480439,1.50511,0.00828262,0.0132815,580,1107,-0.0186918,-0.0169758
-637,-83,-0.0229492,0.0577393,-0.00319486,0.00507371,0.000616973,0.00511949,-0.00324064,1.49673,0.00486719,0.0103184,587,1107,-0.0229473,-0.0577478
-630,-83,-0.026062,0.067749,-0.00156402,0.0027057,-9.72374e-05,0.00270791,-0.00156623,-1.54804,0.00249685,0.0148905,594,1107,-0.0260902,-0.0678063
-623,-83,-0.0252075,0.0479736,-0.00073415,0.00150626,-0.000383855,0.0015702,-0.000798092,-1.40573,0.00139135,0.014126,601,1107,-0.0252089,-0.047964
-616,-83,-0.024231,0.0273438,8.20437e-05,0.000698627,-0.000820217,0.00126658,-0.000485907,-0.965163,0.00104472,0.0101331,608,1107,-0.0242199,-0.0272839
-609,-83,-0.0299072,0.0405273,0.000177639,0.00043143,-0.000705275,0.00102113,-0.000412065,-0.874408,0.000852,0.0100879,615,1107,-0.0298933,-0.0405379
-602,-83,-0.0383911,0.0483398,-3.1106e-05,0.000366028,-0.000429001,0.000640188,-0.000305266,-1.00215,0.000557158,0.0135143,622,1107,-0.0384086,-0.0483943
-595,-83,-0.0308228,0.0494385,3.86842e-05,0.000419092,-0.000295149,0.000580016,-0.00012224,-1.07162,0.000433211,0.016937,629,1107,-0.0308274,-0.0494953
-588,-83,-0.0078125,0.0284424,7.41968e-06,0.000466447,-0.000276403,0.000596204,-0.000122337,-1.13189,0.000443903,0.0221758,636,1107,-0.00779314,-0.0284096
-581,-83,-0.0218506,-0.00793457,0.000162464,0.000485104,-0.000295164,0.000660156,-1.25879e-05,-1.03549,0.000444359,0.0275671,643,1107,-0.0218747,0.00796441
-574,-83,-0.0620117,-0.10791,0.000452647,0.000512811,-0.000267474,0.000751889,0.000213568,-0.841396,0.000447397,0.0313353,650,1107,-0.0619934,0.107885
-567,-83,-0.212402,-0.215942,0.000788532,0.000508923,-0.000200208,0.000892917,0.000404538,-0.480607,0.000516283,0.0354209,657,1107,-0.212406,0.215887
-560,-83,-0.137268,-0.180908,0.00124306,0.000450646,-0.000156775,0.00127295,0.000420756,-0.188393,0.000748875,0.0388626,664,1107,-0.137254,0.180942
-553,-83,-0.0349731,-0.00830078,0.00183591,0.000312373,-0.00017907,0.00185668,0.000291609,-0.115439,0.00115294,0.0358021,671,1107,-0.0349864,0.00825811
-546,-83,-0.0374756,0.208374,0.00257043,6.14468e-05,-0.000312963,0.00260888,2.29981e-05,-0.122241,0.00173164,0.0341256,678,1107,-0.0374487,-0.208412
-539,-83,0.0366211,0.211426,0.00350155,-0.000345387,-0.000630671,0.00360231,-0.000446141,-0.158418,0.00256323,0.0368875,685,1107,0.0366016,-0.211433
-532,-83,0.0990601,0.122559,0.00462182,-0.00095662,-0.00131033,0.00491427,-0.00124907,-0.219592,0.0037623,0.0377816,692,1107,0.0990774,-0.122609
-525,-83,0,0,0,0,0,0,0,0,0,-1,699,1107,0,0
-518,-83,0,0,0,0,0,0,0,0,0,-1,706,1107,0,0
-511,-83,0,0,0,0,0,0,0,0,0,-1,713,1107,0,0
-504,-83,0,0,0,0,0,0,0,0,0,-1,720,1107,0,0
-497,-83,0,0,0,0,0,0,0,0,0,-1,727,1107,0,0
-490,-83,0,0,0,0,0,0,0,0,0,-1,734,1107,0,0
-483,-83,0,0,0,0,0,0,0,0,0,-1,741,1107,0,0
-476,-83,0,0,0,0,0,0,0,0,0,-1,748,1107,0,0
-469,-83,0,0,0,0,0,0,0,0,0,-1,755,1107,0,0
-462,-83,0,0,0,0,0,0,0,0,0,-1,762,1107,0,0
-455,-83,0,0,0,0,0,0,0,0,0,-1,769,1107,0,0
-448,-83,0,0,0,0,0,0,0,0,0,-1,776,1107,0,0
-441,-83,0,0,0,0,0,0,0,0,0,-1,783,1107,0,0
-434,-83,0,0,0,0,0,0,0,0,0,-1,790,1107,0,0
-427,-83,0,0,0,0,0,0,0,0,0,-1,797,1107,0,0
-420,-83,0,0,0,0,0,0,0,0,0,-1,804,1107,0,0
-413,-83,0,0,0,0,0,0,0,0,0,-1,811,1107,0,0
-406,-83,0,0,0,0,0,0,0,0,0,-1,818,1107,0,0
-399,-83,0,0,0,0,0,0,0,0,0,-1,825,1107,0,0
-392,-83,0,0,0,0,0,0,0,0,0,-1,832,1107,0,0
-385,-83,0,0,0,0,0,0,0,0,0,-1,839,1107,0,0
-378,-83,0,0,0,0,0,0,0,0,0,-1,846,1107,0,0
-371,-83,0,0,0,0,0,0,0,0,0,-1,853,1107,0,0
-364,-83,0,0,0,0,0,0,0,0,0,-1,860,1107,0,0
-357,-83,0,0,0,0,0,0,0,0,0,-1,867,1107,0,0
-350,-83,0,0,0,0,0,0,0,0,0,-1,874,1107,0,0
-343,-83,0,0,0,0,0,0,0,0,0,-1,881,1107,0,0
-336,-83,0,0,0,0,0,0,0,0,0,-1,888,1107,0,0
-329,-83,0,0,0,0,0,0,0,0,0,-1,895,1107,0,0
-322,-83,0,0,0,0,0,0,0,0,0,-1,902,1107,0,0
-315,-83,0,0,0,0,0,0,0,0,0,-1,909,1107,0,0
-308,-83,0,0,0,0,0,0,0,0,0,-1,916,1107,0,0
-301,-83,0,0,0,0,0,0,0,0,0,-1,923,1107,0,0
-294,-83,0,0,0,0,0,0,0,0,0,-1,930,1107,0,0
-287,-83,0,0,0,0,0,0,0,0,0,-1,937,1107,0,0
-280,-83,0,0,0,0,0,0,0,0,0,-1,944,1107,0,0
-273,-83,0,0,0,0,0,0,0,0,0,-1,951,1107,0,0
-266,-83,0,0,0,0,0,0,0,0,0,-1,958,1107,0,0
-259,-83,0,0,0,0,0,0,0,0,0,-1,965,1107,0,0
-252,-83,0,0,0,0,0,0,0,0,0,-1,972,1107,0,0
-245,-83,0,0,0,0,0,0,0,0,0,-1,979,1107,0,0
-238,-83,0,0,0,0,0,0,0,0,0,-1,986,1107,0,0
-231,-83,0,0,0,0,0,0,0,0,0,-1,993,1107,0,0
-224,-83,0,0,0,0,0,0,0,0,0,-1,1000,1107,0,0
-217,-83,0,0,0,0,0,0,0,0,0,-1,1007,1107,0,0
-210,-83,0,0,0,0,0,0,0,0,0,-1,1014,1107,0,0
-203,-83,0,0,0,0,0,0,0,0,0,-1,1021,1107,0,0
-196,-83,0,0,0,0,0,0,0,0,0,-1,1028,1107,0,0
-189,-83,0,0,0,0,0,0,0,0,0,-1,1035,1107,0,0
-182,-83,0,0,0,0,0,0,0,0,0,-1,1042,1107,0,0
-175,-83,0,0,0,0,0,0,0,0,0,-1,1049,1107,0,0
-168,-83,0,0,0,0,0,0,0,0,0,-1,1056,1107,0,0
-161,-83,0,0,0,0,0,0,0,0,0,-1,1063,1107,0,0
-154,-83,0,0,0,0,0,0,0,0,0,-1,1070,1107,0,0
-147,-83,0,0,0,0,0,0,0,0,0,-1,1077,1107,0,0
-140,-83,0,0,0,0,0,0,0,0,0,-1,1084,1107,0,0
-133,-83,0,0,0,0,0,0,0,0,0,-1,1091,1107,0,0
-126,-83,0,0,0,0,0,0,0,0,0,-1,1098,1107,0,0
-119,-83,0,0,0,0,0,0,0,0,0,-1,1105,1107,0,0
-112,-83,0,0,0,0,0,0,0,0,0,-1,1112,1107,0,0
-105,-83,0,0,0,0,0,0,0,0,0,-1,1119,1107,0,0
-98,-83,0,0,0,0,0,0,0,0,0,-1,1126,1107,0,0
-91,-83,0,0,0,0,0,0,0,0,0,-1,1133,1107,0,0
-84,-83,0,0,0,0,0,0,0,0,0,-1,1140,1107,0,0
-77,-83,0,0,0,0,0,0,0,0,0,-1,1147,1107,0,0
-70,-83,0,0,0,0,0,0,0,0,0,-1,1154,1107,0,0
-63,-83,0,0,0,0,0,0,0,0,0,-1,1161,1107,0,0
-56,-83,0,0,0,0,0,0,0,0,0,-1,1168,1107,0,0
-49,-83,0,0,0,0,0,0,0,0,0,-1,1175,1107,0,0
-42,-83,0,0,0,0,0,0,0,0,0,-1,1182,1107,0,0
-35,-83,0,0,0,0,0,0,0,0,0,-1,1189,1107,0,0
-28,-83,0,0,0,0,0,0,0,0,0,-1,1196,1107,0,0
-21,-83,0,0,0,0,0,0,0,0,0,-1,1203,1107,0,0
-14,-83,0,0,0,0,0,0,0,0,0,-1,1210,1107,0,0
-7,-83,0,0,0,0,0,0,0,0,0,-1,1217,1107,0,0
0,-83,0,0,0,0,0,0,0,0,0,-1,1224,1107,0,0
7,-83,0,0,0,0,0,0,0,0,0,-1,1231,1107,0,0
14,-83,0,0,0,0,0,0,0,0,0,-1,1238,1107,0,0
21,-83,0,0,0,0,0,0,0,0,0,-1,1245,1107,0,0
28,-83,0,0,0,0,0,0,0,0,0,-1,1252,1107,0,0
35,-83,0,0,0,0,0,0,0,0,0,-1,1259,1107,0,0
42,-83,0,0,0,0,0,0,0,0,0,-1,1266,1107,0,0
49,-83,0,0,0,0,0,0,0,0,0,-1,1273,1107,0,0
56,-83,0,0,0,0,0,0,0,0,0,-1,1280,1107,0,0
63,-83,0,0,0,0,0,0,0,0,0,-1,1287,1107,0,0
70,-83,0,0,0,0,0,0,0,0,0,-1,1294,1107,0,0
77,-83,0,0,0,0,0,0,0,0,0,-1,1301,1107,0,0
84,-83,0,0,0,0,0,0,0,0,0,-1,1308,1107,0,0
91,-83,0,0,0,0,0,0,0,0,0,-1,1315,1107,0,0
98,-83,0,0,0,0,0,0,0,0,0,-1,1322,1107,0,0
105,-83,0,0,0,0,0,0,0,0,0,-1,1329,1107,0,0
112,-83,0,0,0,0,0,0,0,0,0,-1,1336,1107,0,0
119,-83,0,0,0,0,0,0,0,0,0,-1,1343,1107,0,0
126,-83,0,0,0,0,0,0,0,0,0,-1,1350,1107,0,0
133,-83,0,0,0,0,0,0,0,0,0,-1,1357,1107,0,0
140,-83,0,0,0,0,0,0,0,0,0,-1,1364,1107,0,0
147,-83,0,0,0,0,0,0,0,0,0,-1,1371,1107,0,0
154,-83,0,0,0,0,0,0,0,0,0,-1,1378,1107,0,0
161,-83,0,0,0,0,0,0,0,0,0,-1,1385,1107,0,0
168,-83,0,0,0,0,0,0,0,0,0,-1,1392,1107,0,0
175,-83,0,0,0,0,0,0,0,0,0,-1,1399,1107,0,0
182,-83,0,0,0,0,0,0,0,0,0,-1,1406,1107,0,0
189,-83,0,0,0,0,0,0,0,0,0,-1,1413,1107,0,0
196,-83,0,0,0,0,0,0,0,0,0,-1,1420,1107,0,0
203,-83,0,0,0,0,0,0,0,0,0,-1,1427,1107,0,0
210,-83,0,0,0,0,0,0,0,0,0,-1,1434,1107,0,0
217,-83,0,0,0,0,0,0,0,0,0,-1,1441,1107,0,0
224,-83,0,0,0,0,0,0,0,0,0,-1,1448,1107,0,0
231,-83,0,0,0,0,0,0,0,0,0,-1,1455,1107,0,0
238,-83,0,0,0,0,0,0,0,0,0,-1,1462,1107,0,0
245,-83,0,0,0,0,0,0,0,0,0,-1,1469,1107,0,0
252,-83,0,0,0,0,0,0,0,0,0,-1,1476,1107,0,0
259,-83,0,0,0,0,0,0,0,0,0,-1,1483,1107,0,0
266,-83,0,0,0,0,0,0,0,0,0,-1,1490,1107,0,0
273,-83,0,0,0,0,0,0,0,0,0,-1,1497,1107,0,0
280,-83,0,0,0,0,0,0,0,0,0,-1,1504,1107,0,0
287,-83,0,0,0,0,0,0,0,0,0,-1,1511,1107,0,0
294,-83,0,0,0,0,0,0,0,0,0,-1,1518,1107,0,0
301,-83,0,0,0,0,0,0,0,0,0,-1,1525,1107,0,0
308,-83,0,0,0,0,0,0,0,0,0,-1,1532,1107,0,0
315,-83,0,0,0,0,0,0,0,0,0,-1,1539,1107,0,0
322,-83,0,0,0,0,0,0,0,0,0,-1,1546,1107,0,0
329,-83,0,0,0,0,0,0,0,0,0,-1,1553,1107,0,0
336,-83,0,0,0,0,0,0,0,0,0,-1,1560,1107,0,0
343,-83,0,0,0,0,0,0,0,0,0,-1,1567,1107,0,0
350,-83,0,0,0,0,0,0,0,0,0,-1,1574,1107,0,0
357,-83,0,0,0,0,0,0,0,0,0,-1,1581,1107,0,0
364,-83,0,0,0,0,0,0,0,0,0,-1,1588,1107,0,0
371,-83,0,0,0,0,0,0,0,0,0,-1,1595,1107,0,0
378,-83,0,0,0,0,0,0,0,0,0,-1,1602,1107,0,0
385,-83,0,0,0,0,0,0,0,0,0,-1,1609,1107,0,0
392,-83,0,0,0,0,0,0,0,0,0,-1,1616,1107,0,0
399,-83,0,0,0,0,0,0,0,0,0,-1,1623,1107,0,0
406,-83,0,0,0,0,0,0,0,0,0,-1,1630,1107,0,0
413,-83,0,0,0,0,0,0,0,0,0,-1,1637,1107,0,0
420,-83,0,0,0,0,0,0,0,0,0,-1,1644,1107,0,0
427,-83,0,0,0,0,0,0,0,0,0,-1,1651,1107,0,0
434,-83,0,0,0,0,0,0,0,0,0,-1,1658,1107,0,0
441,-83,0,0,0,0,0,0,0,0,0,-1,1665,1107,0,0
448,-83,0,0,0,0,0,0,0,0,0,-1,1672,1107,0,0
455,-83,0,0,0,0,0,0,0,0,0,-1,1679,1107,0,0
462,-83,0,0,0,0,0,0,0,0,0,-1,1686,1107,0,0
469,-83,0,0,0,0,0,0,0,0,0,-1,1693,1107,0,0
476,-83,0,0,0,0,0,0,0,0,0,-1,1700,1107,0,0
483,-83,0,0,0,0,0,0,0,0,0,-1,1707,1107,0,0
490,-83,0,0,0,0,0,0,0,0,0,-1,1714,1107,0,0
497,-83,0,0,0,0,0,0,0,0,0,-1,1721,1107,0,0
504,-83,0,0,0,0,0,0,0,0,0,-1,1728,1107,0,0
511,-83,0,0,0,0,0,0,0,0,0,-1,1735,1107,0,0
518,-83,0,0,0,0,0,0,0,0,0,-1,1742,1107,0,0
525,-83,0,0,0,0,0,0,0,0,0,-1,1749,1107,0,0
532,-83,0,0,0,0,0,0,0,0,0,-1,1756,1107,0,0
539,-83,0,0,0,0,0,0,0,0,0,-1,1763,1107,0,0
546,-83,0,0,0,0,0,0,0,0,0,-1,1770,1107,0,0
553,-83,0,0,0,0,0,0,0,0,0,-1,1777,1107,0,0
560,-83,0,0,0,0,0,0,0,0,0,-1,1784,1107,0,0
567,-83,0,0,0,0,0,0,0,0,0,-1,1791,1107,0,0
574,-83,0,0,0,0,0,0,0,0,0,-1,1798,1107,0,0
581,-83,0,0,0,0,0,0,0,0,0,-1,1805,1107,0,0
588,-83,0,0,0,0,0,0,0,0,0,-1,1812,1107,0,0
595,-83,0,0,0,0,0,0,0,0,0,-1,1819,1107,0,0
602,-83,0,0,0,0,0,0,0,0,0,-1,1826,1107,0,0
609,-83,0,0,0,0,0,0,0,0,0,-1,1833,1107,0,0
616,-83,0,0,0,0,0,0,0,0,0,-1,1840,1107,0,0
623,-83,0,0,0,0,0,0,0,0,0,-1,1847,1107,0,0
630,-83,0,0,0,0,0,0,0,0,0,-1,1854,1107,0,0
637,-83,0,0,0,0,0,0,0,0,0,-1,1861,1107,0,0
644,-83,-0.0396729,-0.173096,0.00169394,-0.00346751,0.0014756,0.00208601,-0.00385958,0.259704,0.00348323,0.0323076,1868,1107,-0.0397139,0.17307
651,-83,0.00012207,-0.192749,0.00103752,-0.00204255,0.00111819,0.00140066,-0.00240568,0.314008,0.00222298,0.0419334,1875,1107,6.99303e-05,0.192703
658,-83,-0.0455322,-0.0362549,0.00062103,-0.00104258,0.000859057,0.000985001,-0.00140655,0.400758,0.00138789,0.0421643,1882,1107,-0.0455377,0.0362314
665,-83,0.000732422,-0.0377197,0.000380311,-0.000401064,0.000660576,0.000757085,-0.000777838,0.518349,0.000886215,0.0345477,1889,1107,0.00069948,0.0377223
672,-83,-0.0181885,-0.100464,0.000213004,8.69917e-06,0.000502538,0.000623666,-0.000401963,0.685128,0.000596741,0.032288,1896,1107,-0.0181441,0.100516
679,-83,-0.0545654,-0.0323486,0.000111618,0.000253585,0.000368883,0.000558252,-0.000193049,0.880451,0.000450522,0.0329082,1903,1107,-0.0545133,0.0322899
686,-83,-0.0175781,0.0200195,6.50066e-05,0.000383663,0.000265638,0.000534092,-8.54216e-05,1.05553,0.000387685,0.0307652,1910,1107,-0.0175445,-0.0199926
693,-83,-0.00305176,0.0374756,3.3705e-05,0.000433836,0.000188456,0.000508619,-4.10786e-05,1.19303,0.000353569,0.0300516,1917,1107,-0.00303473,-0.0375256
700,-83,-0.0179443,0.0255127,-3.40455e-05,0.00051788,0.000155425,0.000558639,-7.4804e-05,1.31433,0.000399701,0.0239693,1924,1107,-0.0179633,-0.0255379
707,-83,-0.0355225,0.0238037,-4.96001e-05,0.000496858,6.84653e-05,0.000505305,-5.80475e-05,1.44803,0.000357792,0.0142377,1931,1107,-0.0354985,-0.023827
714,-83,-0.0230713,0.0421143,-2.4046e-05,0.000431223,-6.41385e-06,0.000431314,-2.41363e-05,-1.55671,0.000295916,0.0174359,1938,1107,-0.0230262,-0.0421575
721,-83,-0.0465088,0.0377197,2.17633e-05,0.000335624,-1.62987e-05,0.000336468,2.09192e-05,-1.51905,0.000217674,0.0154957,1945,1107,-0.0465635,-0.0377251
728,-83,-0.0528564,0.0128174,4.38025e-05,0.000250885,2.25871e-05,0.00025332,4.13675e-05,1.46341,0.000156919,0.0170941,1952,1107,-0.0528547,-0.0127687
735,-83,-0.0264893,0.00500488,1.00009e-05,8.36129e-05,5.68652e-05,0.000114544,-2.09303e-05,1.07262,8.42111e-05,0.0180155,1959,1107,-0.0264817,-0.00506221
742,-83,-0.0107422,0.0374756,-0.000109704,2.03666e-05,0.000132736,0.000103143,-0.000192481,1.01319,0.000173257,0.0105678,1966,1107,-0.0107356,-0.0374701
749,-83,-0.0447998,0.03125,-0.000166427,-0.000331124,0.00024202,6.87118e-06,-0.000504422,0.621414,0.000338595,0.00973067,1973,1107,-0.0448392,-0.0312214
756,-83,-0.0356445,0.0400391,-0.000145898,-0.000360235,0.000664914,0.000420429,-0.000926562,0.705497,0.000795775,0.012205,1980,1107,-0.0356397,-0.0400317
763,-83,-0.0255127,0.0354004,-0.000203276,-0.000936509,0.000719108,0.000237278,-0.00137706,0.549661,0.0010065,0.0108786,1987,1107,-0.0255364,-0.0354342
770,-83,-0.0224609,0.0352783,-0.000233224,-0.00140399,0.000995966,0.000336651,-0.00197387,0.519715,0.00144129,0.0134358,1994,1107,-0.0225041,-0.0352428
777,-83,-0.0179443,0.0283203,-0.0002516,-0.0019989,0.00131741,0.000455524,-0.00270602,0.492615,0.00197346,0.013656,2001,1107,-0.0179485,-0.0282691
784,-83,-0.0220947,0.0249023,-0.000245962,-0.00273531,0.00165853,0.000582991,-0.00356427,0.463497,0.00259245,0.0215877,2008,1107,-0.022054,-0.0248983
791,-83,-0.0422363,0.0262451,-0.000166489,-0.00362847,0.00199063,0.000740499,-0.00453546,0.427525,0.0032983,0.0379141,2015,1107,-0.0421853,-0.0262034
798,-83,0.0533447,0.0164795,9.89766e-06,-0.00469839,0.00228223,0.000934563,-0.00562305,0.384945,0.00409592,0.0426309,2022,1107,0.0533714,-0.0165315
805,-83,-0.105347,-0.143433,0.000304595,-0.00597905,0.00246258,0.00115468,-0.00682914,0.332394,0.00498246,0.0438713,2029,1107,-0.105334,0.143432
812,-83,-0.37854,-0.26355,0.000838141,-0.00750673,0.00238996,0.00147415,-0.00814274,0.260088,0.00598074,0.0459822,2036,1107,-0.378502,0.263544
-700,-90,0,0,0,0,0,0,0,0,0,-1,524,1114,0,0
-693,-90,0.602234,-1.35449,0,0,0,0,0,0,0,-1,531,1114,0.602252,1.3545
-686,-90,0.26178,-1.07275,0,0,0,0,0,0,0,-1,538,1114,0.261772,1.07277
-679,-90,-0.207825,-0.730347,0,0,0,0,0,0,0,-1,545,1114,-0.207808,0.730362
-672,-90,-0.631409,-0.194336,-0.0123144,0.0355429,0.00584902,0.0362474,-0.0130189,1.45093,0.0294789,0.0454963,552,1114,-0.63138,0.194323
-665,-90,-1.63763,0.546387,-0.0102161,0.0268592,0.00454943,0.0274093,-0.0107662,1.45047,0.0227281,0.0461715,559,1114,-1.63764,-0.546387
-658,-90,-0.619202,0.170776,0,0,0,0,0,0,0,-1,566,1114,-0.619204,-0.170812
-651,-90,-0.0357056,-0.0369873,-0.00580931,0.0140315,0.00220076,0.0142726,-0.00605049,1.46164,0.0120494,0.0277721,573,1114,-0.0356788,0.0369623
-644,-90,-0.0471802,0.0279541,-0.00470099,0.0100057,0.00179445,0.0102215,-0.00491678,1.45112,0.00891718,0.0118534,580,1114,-0.047189,-0.0278935
-637,-90,-0.0423584,0.060791,-0.0029842,0.00552138,0.00104124,0.00564699,-0.00310981,1.45074,0.00512599,0.0106498,587,1114,-0.04238,-0.0607878
-630,-90,-0.0307007,0.0651855,-0.00134717,0.00296755,9.30898e-05,0.00296955,-0.00134918,1.54923,0.00255125,0.010543,594,1114,-0.0306797,-0.0651855
-623,-90,-0.0227051,0.0617676,-0.000586282,0.00167706,-0.000297335,0.00171547,-0.000624691,-1.44233,0.00139916,0.00875979,601,1114,-0.0227063,-0.0618028
-616,-90,-0.0241699,0.0620117,0.000184692,0.000888227,-0.000821579,0.00143018,-0.000357259,-0.98767,0.00109219,0.00714032,608,1114,-0.0241672,-0.0619938
-609,-90,-0.0175781,0.0650635,0.000268882,0.000399502,-0.000715652,0.00105282,-0.000384434,-0.830902,0.000859187,0.00985328,615,1114,-0.0176035,-0.0650882
-602,-90,-0.0290527,0.0769043,3.69312e-05,0.000225405,-0.000447757,0.000588734,-0.000326398,-0.889116,0.00053554,0.0103907,622,1114,-0.0290637,-0.0769351
-595,-90,-0.0122681,0.0809326,8.52956e-05,0.000223506,-0.000326961,0.000488585,-0.000179783,-0.889544,0.000399375,0.0122714,629,1114,-0.0122764,-0.0809519
-588,-90,0.00354004,0.0268555,1.42582e-05,0.000228485,-0.000306468,0.000446019,-0.000203276,-0.953517,0.000383504,0.0170755,636,1114,0.00355309,-0.026853
-581,-90,-0.0384521,-0.0142822,0.000146568,0.000219152,-0.000312173,0.000497136,-0.000131415,-0.843267,0.000382823,0.0252082,643,1114,-0.0384813,0.0142657
-574,-90,-0.0681763,-0.0412598,0.000432323,0.000226834,-0.000278883,0.000626785,3.23709e-05,-0.608906,0.000407495,0.0308677,650,1114,-0.0681976,0.0412562
-567,-90,-0.14978,-0.0472412,0.000746957,0.000213136,-0.000191342,0.000808456,0.000151636,-0.310981,0.00049621,0.0316833,657,1114,-0.149785,0.0472415
-560,-90,-0.0761108,-0.0505371,0.00116715,0.00016878,-0.000116556,0.00118057,0.000155353,-0.114691,0.000740715,0.0348062,664,1114,-0.076097,0.0504786
-553,-90,-0.00445557,-0.0114746,0.00171876,7.69698e-05,-9.24246e-05,0.00172395,7.17831e-05,-0.0560588,0.00112614,0.033577,671,1114,-0.00447795,0.0114522
-546,-90,0.00360107,0.0698242,0.0024203,-8.82028e-05,-0.000162838,0.00243082,-9.87292e-05,-0.0645532,0.00165444,0.0340831,678,1114,0.00359911,-0.0697716
-539,-90,0.0444946,0.226929,0.0033296,-0.000359736,-0.000399375,0.00337234,-0.000402474,-0.106606,0.00239369,0.0372723,685,1114,0.0445193,-0.226935
-532,-90,0.0720825,0.108765,0.00447038,-0.000778845,-0.000973109,0.00464497,-0.000953435,-0.177526,0.00345854,0.037482,692,1114,0.0721055,-0.108743
-525,-90,0,0,0,0,0,0,0,0,0,-1,699,1114,0,0
-518,-90,0,0,0,0,0,0,0,0,0,-1,706,1114,0,0
-511,-90,0,0,0,0,0,0,0,0,0,-1,713,1114,0,0
-504,-90,0,0,0,0,0,0,0,0,0,-1,720,1114,0,0
-497,-90,0,0,0,0,0,0,0,0,0,-1,727,1114,0,0
-490,-90,0,0,0,0,0,0,0,0,0,-1,734,1114,0,0
-483,-90,0,0,0,0,0,0,0,0,0,-1,741,1114,0,0
-476,-90,0,0,0,0,0,0,0,0,0,-1,748,1114,0,0
-469,-90,0,0,0,0,0,0,0,0,0,-1,755,1114,0,0
-462,-90,0,0,0,0,0,0,0,0,0,-1,762,1114,0,0
-455,-90,0,0,0,0,0,0,0,0,0,-1,769,1114,0,0
-448,-90,0,0,0,0,0,0,0,0,0,-1,776,1114,0,0
-441,-90,0,0,0,0,0,0,0,0,0,-1,783,1114,0,0
-434,-90,0,0,0,0,0,0,0,0,0,-1,790,1114,0,0
-427,-90,0,0,0,0,0,0,0,0,0,-1,797,1114,0,0
-420,-90,0,0,0,0,0,0,0,0,0,-1,804,1114,0,0
-413,-90,0,0,0,0,0,0,0,0,0,-1,811,1114,0,0
-406,-90,0,0,0,0,0,0,0,0,0,-1,818,1114,0,0
-399,-90,0,0,0,0,0,0,0,0,0,-1,825,1114,0,0
-392,-90,0,0,0,0,0,0,0,0,0,-1,832,1114,0,0
-385,-90,0,0,0,0,0,0,0,0,0,-1,839,1114,0,0
-378,-90,0,0,0,0,0,0,0,0,0,-1,846,1114,0,0
-371,-90,0,0,0,0,0,0,0,0,0,-1,853,1114,0,0
-364,-90,0,0,0,0,0,0,0,0,0,-1,860,1114,0,0
-357,-90,0,0,0,0,0,0,0,0,0,-1,867,1114,0,0
-350,-90,0,0,0,0,0,0,0,0,0,-1,874,1114,0,0
-343,-90,0,0,0,0,0,0,0,0,0,-1,881,1114,0,0
-336,-90,0,0,0,0,0,0,0,0,0,-1,888,1114,0,0
-329,-90,0,0,0,0,0,0,0,0,0,-1,895,1114,0,0
-322,-90,0,0,0,0,0,0,0,0,0,-1,902,1114,0,0
-315,-90,0,0,0,0,0,0,0,0,0,-1,909,1114,0,0
-308,-90,0,0,0,0,0,0,0,0,0,-1,916,1114,0,0
-301,-90,0,0,0,0,0,0,0,0,0,-1,923,1114,0,0
-294,-90,0,0,0,0,0,0,0,0,0,-1,930,1114,0,0
-287,-90,0,0,0,0,0,0,0,0,0,-1,937,1114,0,0
-280,-90,0,0,0,0,0,0,0,0,0,-1,944,1114,0,0
-273,-90,0,0,0,0,0,0,0,0,0,-1,951,1114,0,0
-266,-90,0,0,0,0,0,0,0,0,0,-1,958,1114,0,0
-259,-90,0,0,0,0,0,0,0,0,0,-1,965,1114,0,0
-252,-90,0,0,0,0,0,0,0,0,0,-1,972,1114,0,0
-245,-90,0,0,0,0,0,0,0,0,0,-1,979,1114,0,0
-238,-90,0,0,0,0,0,0,0,0,0,-1,986,1114,0,0
-231,-90,0,0,0,0,0,0,0,0,0,-1,993,1114,0,0
-224,-90,0,0,0,0,0,0,0,0,0,-1,1000,1114,0,0
-217,-90,0,0,0,0,0,0,0,0,0,-1,1007,1114,0,0
-210,-90,0,0,0,0,0,0,0,0,0,-1,1014,1114,0,0
-203,-90,0,0,0,0,0,0,0,0,0,-1,1021,1114,0,0
-196,-90,0,0,0,0,0,0,0,0,0,-1,1028,1114,0,0
-189,-90,0,0,0,0,0,0,0,0,0,-1,1035,1114,0,0
-182,-90,0,0,0,0,0,0,0,0,0,-1,1042,1114,0,0
-175,-90,0,0,0,0,0,0,0,0,0,-1,1049,1114,0,0
-168,-90,0,0,0,0,0,0,0,0,0,-1,1056,1114,0,0
-161,-90,0,0,0,0,0,0,0,0,0,-1,1063,1114,0,0
-154,-90,0,0,0,0,0,0,0,0,0,-1,1070,1114,0,0
-147,-90,0,0,0,0,0,0,0,0,0,-1,1077,1114,0,0
-140,-90,0,0,0,0,0,0,0,0,0,-1,1084,1114,0,0
-133,-90,0,0,0,0,0,0,0,0,0,-1,1091,1114,0,0
-126,-90,0,0,0,0,0,0,0,0,0,-1,1098,1114,0,0
-119,-90,0,0,0,0,0,0,0,0,0,-1,1105,1114,0,0
-112,-90,0,0,0,0,0,0,0,0,0,-1,1112,1114,0,0
-105,-90,0,0,0,0,0,0,0,0,0,-1,1119,1114,0,0
-98,-90,0,0,0,0,0,0,0,0,0,-1,1126,1114,0,0
-91,-90,0,0,0,0,0,0,0,0,0,-1,1133,1114,0,0
-84,-90,0,0,0,0,0,0,0,0,0,-1,1140,1114,0,0
-77,-90,0,0,0,0,0,0,0,0,0,-1,1147,1114,0,0
-70,-90,0,0,0,0,0,0,0,0,0,-1,1154,1114,0,0
-63,-90,0,0,0,0,0,0,0,0,0,-1,1161,1114,0,0
-56,-90,0,0,0,0,0,0,0,0,0,-1,1168,1114,0,0
-49,-90,0,0,0,0,0,0,0,0,0,-1,1175,1114,0,0
-42,-90,0,0,0,0,0,0,0,0,0,-1,1182,1114,0,0
-35,-90,0,0,0,0,0,0,0,0,0,-1,1189,1114,0,0
-28,-90,0,0,0,0,0,0,0,0,0,-1,1196,1114,0,0
-21,-90,0,0,0,0,0,0,0,0,0,-1,1203,1114,0,0
-14,-90,0,0,0,0,0,0,0,0,0,-1,1210,1114,0,0
-7,-90,0,0,0,0,0,0,0,0,0,-1,1217,1114,0,0
0,-90,0,0,0,0,0,0,0,0,0,-1,1224,1114,0,0
7,-90,0,0,0,0,0,0,0,0,0,-1,1231,1114,0,0
14,-90,0,0,0,0,0,0,0,0,0,-1,1238,1114,0,0
21,-90,0,0,0,0,0,0,0,0,0,-1,1245,1114,0,0
28,-90,0,0,0,0,0,0,0,0,0,-1,1252,1114,0,0
35,-90,0,0,0,0,0,0,0,0,0,-1,1259,1114,0,0
42,-90,0,0,0,0,0,0,0,0,0,-1,1266,1114,0,0
49,-90,0,0,0,0,0,0,0,0,0,-1,1273,1114,0,0
56,-90,0,0,0,0,0,0,0,0,0,-1,1280,1114,0,0
63,-90,0,0,0,0,0,0,0,0,0,-1,1287,1114,0,0
70,-90,0,0,0,0,0,0,0,0,0,-1,1294,1114,0,0
77,-90,0,0,0,0,0,0,0,0,0,-1,1301,1114,0,0
84,-90,0,0,0,0,0,0,0,0,0,-1,1308,1114,0,0
91,-90,0,0,0,0,0,0,0,0,0,-1,1315,1114,0,0
98,-90,0,0,0,0,0,0,0,0,0,-1,1322,1114,0,0
105,-90,0,0,0,0,0,0,0,0,0,-1,1329,1114,0,0
112,-90,0,0,0,0,0,0,0,0,0,-1,1336,1114,0,0
119,-90,0,0,0,0,0,0,0,0,0,-1,1343,1114,0,0
126,-90,0,0,0,0,0,0,0,0,0,-1,1350,1114,0,0
133,-90,0,0,0,0,0,0,0,0,0,-1,1357,1114,0,0
140,-90,0,0,0,0,0,0,0,0,0,-1,1364,1114,0,0
147,-90,0,0,0,0,0,0,0,0,0,-1,1371,1114,0,0
154,-90,0,0,0,0,0,0,0,0,0,-1,1378,1114,0,0
161,-90,0,0,0,0,0,0,0,0,0,-1,1385,1114,0,0
168,-90,0,0,0,0,0,0,0,0,0,-1,1392,1114,0,0
175,-90,0,0,0,0,0,0,0,0,0,-1,1399,1114,0,0
182,-90,0,0,0,0,0,0,0,0,0,-1,1406,1114,0,0
189,-90,0,0,0,0,0,0,0,0,0,-1,1413,1114,0,0
196,-90,0,0,0,0,0,0,0,0,0,-1,1420,1114,0,0
203,-90,0,0,0,0,0,0,0,0,0,-1,1427,1114,0,0
210,-90,0,0,0,0,0,0,0,0,0,-1,1434,1114,0,0
217,-90,0,0,0,0,0,0,0,0,0,-1,1441,1114,0,0
224,-90,0,0,0,0,0,0,0,0,0,-1,1448,1114,0,0
231,-90,0,0,0,0,0,0,0,0,0,-1,1455,1114,0,0
238,-90,0,0,0,0,0,0,0,0,0,-1,1462,1114,0,0
245,-90,0,0,0,0,0,0,0,0,0,-1,1469,1114,0,0
252,-90,0,0,0,0,0,0,0,0,0,-1,1476,1114,0,0
259,-90,0,0,0,0,0,0,0,0,0,-1,1483,1114,0,0
266,-90,0,0,0,0,0,0,0,0,0,-1,1490,1114,0,0
273,-90,0,0,0,0,0,0,0,0,0,-1,1497,1114,0,0
280,-90,0,0,0,0,0,0,0,0,0,-1,1504,1114,0,0
287,-90,0,0,0,0,0,0,0,0,0,-1,1511,1114,0,0
294,-90,0,0,0,0,0,0,0,0,0,-1,1518,1114,0,0
301,-90,0,0,0,0,0,0,0,0,0,-1,1525,1114,0,0
308,-90,0,0,0,0,0,0,0,0,0,-1,1532,1114,0,0
315,-90,0,0,0,0,0,0,0,0,0,-1,1539,1114,0,0
322,-90,0,0,0,0,0,0,0,0,0,-1,1546,1114,0,0
329,-90,0,0,0,0,0,0,0,0,0,-1,1553,1114,0,0
336,-90,0,0,0,0,0,0,0,0,0,-1,1560,1114,0,0
343,-90,0,0,0,0,0,0,0,0,0,-1,1567,1114,0,0
350,-90,0,0,0,0,0,0,0,0,0,-1,1574,1114,0,0
357,-90,0,0,0,0,0,0,0,0,0,-1,1581,1114,0,0
364,-90,0,0,0,0,0,0,0,0,0,-1,1588,1114,0,0
371,-90,0,0,0,0,0,0,0,0,0,-1,1595,1114,0,0
378,-90,0,0,0,0,0,0,0,0,0,-1,1602,1114,0,0
385,-90,0,0,0,0,0,0,0,0,0,-1,1609,1114,0,0
392,-90,0,0,0,0,0,0,0,0,0,-1,1616,1114,0,0
399,-90,0,0,0,0,0,0,0,0,0,-1,1623,1114,0,0
406,-90,0,0,0,0,0,0,0,0,0,-1,1630,1114,0,0
413,-90,0,0,0,0,0,0,0,0,0,-1,1637,1114,0,0
420,-90,0,0,0,0,0,0,0,0,0,-1,1644,1114,0,0
427,-90,0,0,0,0,0,0,0,0,0,-1,1651,1114,0,0
434,-90,0,0,0,0,0,0,0,0,0,-1,1658,1114,0,0
441,-90,0,0,0,0,0,0,0,0,0,-1,1665,1114,0,0
448,-90,0,0,0,0,0,0,0,0,0,-1,1672,1114,0,0
455,-90,0,0,0,0,0,0,0,0,0,-1,1679,1114,0,0
462,-90,0,0,0,0,0,0,0,0,0,-1,1686,1114,0,0
469,-90,0,0,0,0,0,0,0,0,0,-1,1693,1114,0,0
476,-90,0,0,0,0,0,0,0,0,0,-1,1700,1114,0,0
483,-90,0,0,0,0,0,0,0,0,0,-1,1707,1114,0,0
490,-90,0,0,0,0,0,0,0,0,0,-1,1714,1114,0,0
497,-90,0,0,0,0,0,0,0,0,0,-1,1721,1114,0,0
504,-90,0,0,0,0,0,0,0,0,0,-1,1728,1114,0,0
511,-90,0,0,0,0,0,0,0,0,0,-1,1735,1114,0,0
518,-90,0,0,0,0,0,0,0,0,0,-1,1742,1114,0,0
525,-90,0,0,0,0,0,0,0,0,0,-1,1749,1114,0,0
532,-90,0,0,0,0,0,0,0,0,0,-1,1756,1114,0,0
539,-90,0,0,0,0,0,0,0,0,0,-1,1763,1114,0,0
546,-90,0,0,0,0,0,0,0,0,0,-1,1770,1114,0,0
553,-90,0,0,0,0,0,0,0,0,0,-1,1777,1114,0,0
560,-90,0,0,0,0,0,0,0,0,0,-1,1784,1114,0,0
567,-90,0,0,0,0,0,0,0,0,0,-1,1791,1114,0,0
574,-90,0,0,0,0,0,0,0,0,0,-1,1798,1114,0,0
581,-90,0,0,0,0,0,0,0,0,0,-1,1805,1114,0,0
588,-90,0,0,0,0,0,0,0,0,0,-1,1812,1114,0,0
595,-90,0,0,0,0,0,0,0,0,0,-1,1819,1114,0,0
602,-90,0,0,0,0,0,0,0,0,0,-1,1826,1114,0,0
609,-90,0,0,0,0,0,0,0,0,0,-1,1833,1114,0,0
616,-90,0,0,0,0,0,0,0,0,0,-1,1840,1114,0,0
623,-90,0,0,0,0,0,0,0,0,0,-1,1847,1114,0,0
630,-90,0,0,0,0,0,0,0,0,0,-1,1854,1114,0,0
637,-90,0,0,0,0,0,0,0,0,0,-1,1861,1114,0,0
644,-90,-0.0727539,-0.106323,0.00209867,-0.00353411,0.000277008,0.00211226,-0.0035477,0.0490203,0.00330262,0.0309902,1868,1114,-0.0727278,0.106374
651,-90,-0.0773926,-0.184937,0.00138109,-0.00215663,0.000200014,0.00139236,-0.0021679,0.0562986,0.00207171,0.0389202,1875,1114,-0.0773873,0.18489
658,-90,-0.0821533,-0.106323,0.000927456,-0.00120984,0.000188141,0.000943892,-0.00122627,0.0871349,0.00125648,0.0397748,1882,1114,-0.0821264,0.106306
665,-90,-0.0266113,-0.0300293,0.000634945,-0.000600264,0.000182249,0.000661274,-0.000626592,0.143473,0.00074364,0.0355878,1889,1114,-0.0266427,0.0299864
672,-90,-0.0152588,0.000976563,0.000409988,-0.000203422,0.000169251,0.000453588,-0.000247023,0.252126,0.000410317,0.036246,1896,1114,-0.0152079,-0.0010074
679,-90,0.0142822,0.0528564,0.000264705,3.9551e-05,0.000144313,0.000335158,-3.09015e-05,0.454157,0.000234419,0.0331824,1903,1114,0.0143394,-0.0528159
686,-90,0.0249023,-0.0211182,0.000181362,0.000175016,0.000121245,0.000299476,5.6902e-05,0.772316,0.000183645,0.0292903,1910,1114,0.0249374,0.0210833
693,-90,0.0175781,-0.0738525,0.000112831,0.00023781,0.000100984,0.000294075,5.6566e-05,1.06247,0.000180179,0.0304534,1917,1114,0.0176276,0.0739075
700,-90,-0.0181885,-0.00646973,1.60795e-05,0.000336425,0.000111337,0.000371319,-1.88149e-05,1.26708,0.00025405,0.0239217,1924,1114,-0.0182408,0.00650506
707,-90,-0.045166,0.00793457,-2.47139e-05,0.000336053,6.20636e-05,0.000346432,-3.50922e-05,1.40511,0.000243496,0.0128262,1931,1114,-0.0451334,-0.00788926
714,-90,-0.0292969,0.0377197,-2.56336e-05,0.000288527,9.23573e-06,0.000288798,-2.59049e-05,1.54143,0.000201722,0.017003,1938,1114,-0.0293315,-0.037711
721,-90,-0.0368652,0.0634766,5.86214e-06,0.000218457,3.56907e-06,0.000218517,5.80223e-06,1.55401,0.000143783,0.0163379,1945,1114,-0.0368403,-0.0634246
728,-90,-0.0218506,0.0457764,3.12068e-05,0.000150227,4.40183e-05,0.000164738,1.66963e-05,1.25237,0.000104704,0.0157756,1952,1114,-0.0218015,-0.0458342
735,-90,-0.00219727,0.0452881,-4.75451e-06,-3.50356e-05,3.40453e-05,1.73651e-05,-5.71553e-05,0.576172,4.50224e-05,0.0166187,1959,1114,-0.00224494,-0.0453422
742,-90,-0.0137939,0.0369873,-0.000168685,-0.000171458,1.52602e-05,-0.000154748,-0.000185394,0.740099,0.000114753,0.0130135,1966,1114,-0.0137976,-0.0369797
749,-90,-0.0318604,0.0286865,-0.000313678,-0.000676351,-2.63889e-06,-0.000313658,-0.00067637,-0.00727569,0.000390845,0.010407,1973,1114,-0.0318488,-0.0287132
756,-90,-0.0222168,0.036377,-0.000406679,-0.000967575,0.000183099,-0.000352199,-0.00102205,0.289199,0.000599508,0.0118064,1980,1114,-0.0222286,-0.036326
763,-90,-0.0174561,0.034668,-0.000616541,-0.00177469,-4.75393e-05,-0.000614593,-0.00177663,-0.040956,0.00104185,0.0117137,1987,1114,-0.0174643,-0.0346717
770,-90,-0.0415039,0.0349121,-0.000824771,-0.00257548,-0.000109307,-0.000817973,-0.00258228,-0.0621142,0.00152389,0.014408,1994,1114,-0.0415327,-0.0348831
777,-90,-0.0372314,0.0455322,-0.00109036,-0.00358395,-0.000229287,-0.00106945,-0.00360485,-0.0909348,0.00213786,0.0128562,2001,1114,-0.0371916,-0.0455084
784,-90,-0.00598145,0.0769043,-0.00140029,-0.00481762,-0.000438545,-0.00134491,-0.004873,-0.125619,0.00290602,0.0238424,2008,1114,-0.00592314,-0.0768471
791,-90,-0.0822754,-0.412964,0,0,0,0,0,0,0,-1,2015,1114,-0.0823339,0.413006
798,-90,0.194336,0.351929,-0.00200099,-0.00800884,-0.00127626,-0.00174111,-0.00826871,-0.200878,0.0050335,0.0405754,2022,1114,0.194341,-0.351988
805,-90,0.0437012,0.459229,-0.00227576,-0.0099901,-0.00202546,-0.0017763,-0.0104896,-0.241768,0.00648258,0.0430467,2029,1114,0.0436423,-0.459258
812,-90,0.11499,0.630249,-0.00241117,-0.0122332,-0.00316999,-0.00147694,-0.0131674,-0.286597,0.00832974,0.0452787,2036,1114,0.11504,-0.630202
-700,-97,0,0,0,0,0,0,0,0,0,-1,524,1121,0,0
-693,-97,1.91534,2.30981,0,0,0,0,0,0,0,-1,531,1121,1.91534,-2.3098
-686,-97,0.0219727,-1.54456,0,0,0,0,0,0,0,-1,538,1121,0.0219771,1.54453
-679,-97,0.129883,-0.495361,0,0,0,0,0,0,0,-1,545,1121,0.129869,0.49532
-672,-97,-0.54657,-0.375244,-0.0146293,0.0378928,0.00974263,0.0396418,-0.0163782,1.39317,0.0332598,0.0448778,552,1121,-0.546597,0.375233
-665,-97,-2.18805,1.01001,-0.0116743,0.028468,0.00732294,0.0297621,-0.0129685,1.39588,0.0252977,0.0456948,559,1121,-2.18806,-1.01003
-658,-97,0.321533,0.450317,-0.0087842,0.0207922,0.00520042,0.0216799,-0.00967194,1.40172,0.0185383,0.0430788,566,1121,0.321511,-0.450302
-651,-97,-0.0444336,0.0090332,-0.00623184,0.0147481,0.00348145,0.0153107,-0.00679447,1.41057,0.0130743,0.0280976,573,1121,-0.0444086,-0.00899582
-644,-97,-0.0482788,0.0501709,-0.00476681,0.010363,0.00255781,0.0107838,-0.00518752,1.40777,0.00940782,0.00950167,580,1121,-0.0482925,-0.0501311
-637,-97,-0.0357666,0.0529785,-0.00284191,0.0056766,0.00138128,0.00589498,-0.00306029,1.414,0.00525596,0.0102831,587,1121,-0.0357638,-0.0529508
-630,-97,-0.0223999,0.0582275,-0.00116852,0.00306296,0.000256581,0.00307846,-0.00118402,1.51045,0.00254067,0.00870363,594,1121,-0.0223854,-0.0581679
-623,-97,-0.0198975,0.0655518,-0.000453,0.00177378,-0.000190544,0.00178996,-0.000469187,-1.48605,0.00137662,0.0101655,601,1121,-0.0199136,-0.0655634
-616,-97,-0.0161743,0.0582275,0.000284139,0.00104713,-0.000760296,0.00151627,-0.000185006,-1.01793,0.00107782,0.010283,608,1121,-0.016196,-0.0581742
-609,-97,-0.00756836,0.0625,0.000372555,0.000390566,-0.000671005,0.00105263,-0.000289505,-0.792108,0.000815564,0.0124795,615,1121,-0.00756516,-0.0625602
-602,-97,-0.0152588,0.0594482,0.000142444,0.000124837,-0.000408987,0.000542722,-0.000275441,-0.774637,0.000480695,0.0120277,622,1121,-0.0152549,-0.0593989
-595,-97,-0.0170898,0.053833,0.000158761,8.72522e-05,-0.000302313,0.000427427,-0.000181413,-0.726537,0.000360953,0.0160305,629,1121,-0.0171134,-0.053839
-588,-97,-0.00775146,0.0108643,3.94002e-05,6.02946e-05,-0.000278133,0.000328177,-0.000228482,-0.80417,0.000323101,0.0187716,636,1121,-0.00774272,-0.0109145
-581,-97,-0.0316162,-0.055542,0.000146855,3.09864e-05,-0.000276667,0.000371589,-0.000193747,-0.682189,0.000331736,0.0261943,643,1121,-0.0316296,0.0554876
-574,-97,-0.0297241,-0.0620117,0.000428481,8.80584e-06,-0.000244026,0.000540483,-0.000103196,-0.430292,0.000399192,0.0368878,650,1121,-0.0297076,0.0620483
-567,-97,-0.0765381,0.0616455,0.000713466,-2.09967e-05,-0.000146471,0.000741599,-4.91291e-05,-0.189758,0.000511562,0.0351266,657,1121,-0.0765519,-0.0616661
-560,-97,-0.0196533,0.123169,0.00108647,-6.98694e-05,-5.75883e-05,0.00108933,-7.27303e-05,-0.0496386,0.000751636,0.0365867,664,1121,-0.0196313,-0.123185
-553,-97,-0.0164185,0.151733,0.00157912,-0.000151242,-1.4093e-05,0.00157924,-0.000151357,-0.00814383,0.00110673,0.0379807,671,1121,-0.0164303,-0.151677
-546,-97,0.0403442,0.026123,0.00222463,-0.00028603,-5.83185e-05,0.00222599,-0.000287384,-0.0232116,0.00158848,0.0382563,678,1121,0.0403289,-0.0260718
-539,-97,0.0140991,0.072998,0.00308432,-0.00050189,-0.000260114,0.00310309,-0.000520659,-0.0720293,0.00226234,0.0365345,685,1121,0.0141137,-0.0730236
-532,-97,-0.0336304,0.0510254,0.00421052,-0.000839323,-0.000780474,0.0043284,-0.000957197,-0.149896,0.00325196,0.0342213,692,1121,-0.0336311,-0.0510313
-525,-97,0,0,0,0,0,0,0,0,0,-1,699,1121,0,0
-518,-97,0,0,0,0,0,0,0,0,0,-1,706,1121,0,0
-511,-97,0,0,0,0,0,0,0,0,0,-1,713,1121,0,0
-504,-97,0,0,0,0,0,0,0,0,0,-1,720,1121,0,0
-497,-97,0,0,0,0,0,0,0,0,0,-1,727,1121,0,0
-490,-97,0,0,0,0,0,0,0,0,0,-1,734,1121,0,0
-483,-97,0,0,0,0,0,0,0,0,0,-1,741,1121,0,0
-476,-97,0,0,0,0,0,0,0,0,0,-1,748,1121,0,0
-469,-97,0,0,0,0,0,0,0,0,0,-1,755,1121,0,0
-462,-97,0,0,0,0,0,0,0,0,0,-1,762,1121,0,0
-455,-97,0,0,0,0,0,0,0,0,0,-1,769,1121,0,0
-448,-97,0,0,0,0,0,0,0,0,0,-1,776,1121,0,0
-441,-97,0,0,0,0,0,0,0,0,0,-1,783,1121,0,0
-434,-97,0,0,0,0,0,0,0,0,0,-1,790,1121,0,0
-427,-97,0,0,0,0,0,0,0,0,0,-1,797,1121,0,0
-420,-97,0,0,0,0,0,0,0,0,0,-1,804,1121,0,0
-413,-97,0,0,0,0,0,0,0,0,0,-1,811,1121,0,0
-406,-97,0,0,0,0,0,0,0,0,0,-1,818,1121,0,0
-399,-97,0,0,0,0,0,0,0,0,0,-1,825,1121,0,0
-392,-97,0,0,0,0,0,0,0,0,0,-1,832,1121,0,0
-385,-97,0,0,0,0,0,0,0,0,0,-1,839,1121,0,0
-378,-97,0,0,0,0,0,0,0,0,0,-1,846,1121,0,0
-371,-97,0,0,0,0,0,0,0,0,0,-1,853,1121,0,0
-364,-97,0,0,0,0,0,0,0,0,0,-1,860,1121,0,0
-357,-97,0,0,0,0,0,0,0,0,0,-1,867,1121,0,0
-350,-97,0,0,0,0,0,0,0,0,0,-1,874,1121,0,0
-343,-97,0,0,0,0,0,0,0,0,0,-1,881,1121,0,0
-336,-97,0,0,0,0,0,0,0,0,0,-1,888,1121,0,0
-329,-97,0,0,0,0,0,0,0,0,0,-1,895,1121,0,0
-322,-97,0,0,0,0,0,0,0,0,0,-1,902,1121,0,0
-315,-97,0,0,0,0,0,0,0,0,0,-1,909,1121,0,0
-308,-97,0,0,0,0,0,0,0,0,0,-1,916,1121,0,0
-301,-97,0,0,0,0,0,0,0,0,0,-1,923,1121,0,0
-294,-97,0,0,0,0,0,0,0,0,0,-1,930,1121,0,0
-287,-97,0,0,0,0,0,0,0,0,0,-1,937,1121,0,0
-280,-97,0,0,0,0,0,0,0,0,0,-1,944,1121,0,0
-273,-97,0,0,0,0,0,0,0,0,0,-1,951,1121,0,0
-266,-97,0,0,0,0,0,0,0,0,0,-1,958,1121,0,0
-259,-97,0,0,0,0,0,0,0,0,0,-1,965,1121,0,0
-252,-97,0,0,0,0,0,0,0,0,0,-1,972,1121,0,0
-245,-97,0,0,0,0,0,0,0,0,0,-1,979,1121,0,0
-238,-97,0,0,0,0,0,0,0,0,0,-1,986,1121,0,0
-231,-97,0,0,0,0,0,0,0,0,0,-1,993,1121,0,0
-224,-97,0,0,0,0,0,0,0,0,0,-1,1000,1121,0,0
-217,-97,0,0,0,0,0,0,0,0,0,-1,1007,1121,0,0
-210,-97,0,0,0,0,0,0,0,0,0,-1,1014,1121,0,0
-203,-97,0,0,0,0,0,0,0,0,0,-1,1021,1121,0,0
-196,-97,0,0,0,0,0,0,0,0,0,-1,1028,1121,0,0
-189,-97,0,0,0,0,0,0,0,0,0,-1,1035,1121,0,0
-182,-97,0,0,0,0,0,0,0,0,0,-1,1042,1121,0,0
-175,-97,0,0,0,0,0,0,0,0,0,-1,1049,1121,0,0
-168,-97,0,0,0,0,0,0,0,0,0,-1,1056,1121,0,0
-161,-97,0,0,0,0,0,0,0,0,0,-1,1063,1121,0,0
-154,-97,0,0,0,0,0,0,0,0,0,-1,1070,1121,0,0
-147,-97,0,0,0,0,0,0,0,0,0,-1,1077,1121,0,0
-140,-97,0,0,0,0,0,0,0,0,0,-1,1084,1121,0,0
-133,-97,0,0,0,0,0,0,0,0,0,-1,1091,1121,0,0
-126,-97,0,0,0,0,0,0,0,0,0,-1,1098,1121,0,0
-119,-97,0,0,0,0,0,0,0,0,0,-1,1105,1121,0,0
-112,-97,0,0,0,0,0,0,0,0,0,-1,1112,1121,0,0
-105,-97,0,0,0,0,0,0,0,0,0,-1,1119,1121,0,0
-98,-97,0,0,0,0,0,0,0,0,0,-1,1126,1121,0,0
-91,-97,0,0,0,0,0,0,0,0,0,-1,1133,1121,0,0
-84,-97,0,0,0,0,0,0,0,0,0,-1,1140,1121,0,0
-77,-97,0,0,0,0,0,0,0,0,0,-1,1147,1121,0,0
-70,-97,0,0,0,0,0,0,0,0,0,-1,1154,1121,0,0
-63,-97,0,0,0,0,0,0,0,0,0,-1,1161,1121,0,0
-56,-97,0,0,0,0,0,0,0,0,0,-1,1168,1121,0,0
-49,-97,0,0,0,0,0,0,0,0,0,-1,1175,1121,0,0
-42,-97,0,0,0,0,0,0,0,0,0,-1,1182,1121,0,0
-35,-97,0,0,0,0,0,0,0,0,0,-1,1189,1121,0,0
-28,-97,0,0,0,0,0,0,0,0,0,-1,1196,1121,0,0
-21,-97,0,0,0,0,0,0,0,0,0,-1,1203,1121,0,0
-14,-97,0,0,0,0,0,0,0,0,0,-1,1210,1121,0,0
-7,-97,0,0,0,0,0,0,0,0,0,-1,1217,1121,0,0
0,-97,0,0,0,0,0,0,0,0,0,-1,1224,1121,0,0
7,-97,0,0,0,0,0,0,0,0,0,-1,1231,1121,0,0
14,-97,0,0,0,0,0,0,0,0,0,-1,1238,1121,0,0
21,-97,0,0,0,0,0,0,0,0,0,-1,1245,1121,0,0
28,-97,0,0,0,0,0,0,0,0,0,-1,1252,1121,0,0
35,-97,0,0,0,0,0,0,0,0,0,-1,1259,1121,0,0
42,-97,0,0,0,0,0,0,0,0,0,-1,1266,1121,0,0
49,-97,0,0,0,0,0,0,0,0,0,-1,1273,1121,0,0
56,-97,0,0,0,0,0,0,0,0,0,-1,1280,1121,0,0
63,-97,0,0,0,0,0,0,0,0,0,-1,1287,1121,0,0
70,-97,0,0,0,0,0,0,0,0,0,-1,1294,1121,0,0
77,-97,0,0,0,0,0,0,0,0,0,-1,1301,1121,0,0
84,-97,0,0,0,0,0,0,0,0,0,-1,1308,1121,0,0
91,-97,0,0,0,0,0,0,0,0,0,-1,1315,1121,0,0
98,-97,0,0,0,0,0,0,0,0,0,-1,1322,1121,0,0
105,-97,0,0,0,0,0,0,0,0,0,-1,1329,1121,0,0
112,-97,0,0,0,0,0,0,0,0,0,-1,1336,1121,0,0
119,-97,0,0,0,0,0,0,0,0,0,-1,1343,1121,0,0
126,-97,0,0,0,0,0,0,0,0,0,-1,1350,1121,0,0
133,-97,0,0,0,0,0,0,0,0,0,-1,1357,1121,0,0
140,-97,0,0,0,0,0,0,0,0,0,-1,1364,1121,0,0
147,-97,0,0,0,0,0,0,0,0,0,-1,1371,1121,0,0
154,-97,0,0,0,0,0,0,0,0,0,-1,1378,1121,0,0
161,-97,0,0,0,0,0,0,0,0,0,-1,1385,1121,0,0
168,-97,0,0,0,0,0,0,0,0,0,-1,1392,1121,0,0
175,-97,0,0,0,0,0,0,0,0,0,-1,1399,1121,0,0
182,-97,0,0,0,0,0,0,0,0,0,-1,1406,1121,0,0
189,-97,0,0,0,0,0,0,0,0,0,-1,1413,1121,0,0
196,-97,0,0,0,0,0,0,0,0,0,-1,1420,1121,0,0
203,-97,0,0,0,0,0,0,0,0,0,-1,1427,1121,0,0
210,-97,0,0,0,0,0,0,0,0,0,-1,1434,1121,0,0
217,-97,0,0,0,0,0,0,0,0,0,-1,1441,1121,0,0
224,-97,0,0,0,0,0,0,0,0,0,-1,1448,1121,0,0
231,-97,0,0,0,0,0,0,0,0,0,-1,1455,1121,0,0
238,-97,0,0,0,0,0,0,0,0,0,-1,1462,1121,0,0
245,-97,0,0,0,0,0,0,0,0,0,-1,1469,1121,0,0
252,-97,0,0,0,0,0,0,0,0,0,-1,1476,1121,0,0
259,-97,0,0,0,0,0,0,0,0,0,-1,1483,1121,0,0
266,-97,0,0,0,0,0,0,0,0,0,-1,1490,1121,0,0
273,-97,0,0,0,0,0,0,0,0,0,-1,1497,1121,0,0
280,-97,0,0,0,0,0,0,0,0,0,-1,1504,1121,0,0
287,-97,0,0,0,0,0,0,0,0,0,-1,1511,1121,0,0
294,-97,0,0,0,0,0,0,0,0,0,-1,1518,1121,0,0
301,-97,0,0,0,0,0,0,0,0,0,-1,1525,1121,0,0
308,-97,0,0,0,0,0,0,0,0,0,-1,1532,1121,0,0
315,-97,0,0,0,0,0,0,0,0,0,-1,1539,1121,0,0
322,-97,0,0,0,0,0,0,0,0,0,-1,1546,1121,0,0
329,-97,0,0,0,0,0,0,0,0,0,-1,1553,1121,0,0
336,-97,0,0,0,0,0,0,0,0,0,-1,1560,1121,0,0
343,-97,0,0,0,0,0,0,0,0,0,-1,1567,1121,0,0
350,-97,0,0,0,0,0,0,0,0,0,-1,1574,1121,0,0
357,-97,0,0,0,0,0,0,0,0,0,-1,1581,1121,0,0
364,-97,0,0,0,0,0,0,0,0,0,-1,1588,1121,0,0
371,-97,0,0,0,0,0,0,0,0,0,-1,1595,1121,0,0
378,-97,0,0,0,0,0,0,0,0,0,-1,1602,1121,0,0
385,-97,0,0,0,0,0,0,0,0,0,-1,1609,1121,0,0
392,-97,0,0,0,0,0,0,0,0,0,-1,1616,1121,0,0
399,-97,0,0,0,0,0,0,0,0,0,-1,1623,1121,0,0
406,-97,0,0,0,0,0,0,0,0,0,-1,1630,1121,0,0
413,-97,0,0,0,0,0,0,0,0,0,-1,1637,1121,0,0
420,-97,0,0,0,0,0,0,0,0,0,-1,1644,1121,0,0
427,-97,0,0,0,0,0,0,0,0,0,-1,1651,1121,0,0
434,-97,0,0,0,0,0,0,0,0,0,-1,1658,1121,0,0
441,-97,0,0,0,0,0,0,0,0,0,-1,1665,1121,0,0
448,-97,0,0,0,0,0,0,0,0,0,-1,1672,1121,0,0
455,-97,0,0,0,0,0,0,0,0,0,-1,1679,1121,0,0
462,-97,0,0,0,0,0,0,0,0,0,-1,1686,1121,0,0
469,-97,0,0,0,0,0,0,0,0,0,-1,1693,1121,0,0
476,-97,0,0,0,0,0,0,0,0,0,-1,1700,1121,0,0
483,-97,0,0,0,0,0,0,0,0,0,-1,1707,1121,0,0
490,-97,0,0,0,0,0,0,0,0,0,-1,1714,1121,0,0
497,-97,0,0,0,0,0,0,0,0,0,-1,1721,1121,0,0
504,-97,0,0,0,0,0,0,0,0,0,-1,1728,1121,0,0
511,-97,0,0,0,0,0,0,0,0,0,-1,1735,1121,0,0
518,-97,0,0,0,0,0,0,0,0,0,-1,1742,1121,0,0
525,-97,0,0,0,0,0,0,0,0,0,-1,1749,1121,0,0
532,-97,0,0,0,0,0,0,0,0,0,-1,1756,1121,0,0
539,-97,0,0,0,0,0,0,0,0,0,-1,1763,1121,0,0
546,-97,0,0,0,0,0,0,0,0,0,-1,1770,1121,0,0
553,-97,0,0,0,0,0,0,0,0,0,-1,1777,1121,0,0
560,-97,0,0,0,0,0,0,0,0,0,-1,1784,1121,0,0
567,-97,0,0,0,0,0,0,0,0,0,-1,1791,1121,0,0
574,-97,0,0,0,0,0,0,0,0,0,-1,1798,1121,0,0
581,-97,0,0,0,0,0,0,0,0,0,-1,1805,1121,0,0
588,-97,0,0,0,0,0,0,0,0,0,-1,1812,1121,0,0
595,-97,0,0,0,0,0,0,0,0,0,-1,1819,1121,0,0
602,-97,0,0,0,0,0,0,0,0,0,-1,1826,1121,0,0
609,-97,0,0,0,0,0,0,0,0,0,-1,1833,1121,0,0
616,-97,0,0,0,0,0,0,0,0,0,-1,1840,1121,0,0
623,-97,0,0,0,0,0,0,0,0,0,-1,1847,1121,0,0
630,-97,0,0,0,0,0,0,0,0,0,-1,1854,1121,0,0
637,-97,0,0,0,0,0,0,0,0,0,-1,1861,1121,0,0
644,-97,-0.179565,0.0915527,0.00216445,-0.00314769,-0.000610341,0.00223367,-0.00321691,-0.112935,0.00316392,0.0321948,1868,1121,-0.179562,-0.0915145
651,-97,-0.111694,0.0455322,0.00145016,-0.00193238,-0.000519952,0.00152828,-0.0020105,-0.149131,0.00204943,0.0349383,1875,1121,-0.111701,-0.0455519
658,-97,0.0246582,0.0101318,0.00102389,-0.00112659,-0.000353737,0.00108059,-0.00118328,-0.158915,0.00130749,0.0341069,1882,1121,0.0246181,-0.0101038
665,-97,0.0275879,0.120972,0.000731638,-0.000633443,-0.000213379,0.000764215,-0.00066602,-0.151499,0.000826395,0.0353817,1889,1121,0.0276021,-0.120926
672,-97,-0.0192871,0.198975,0.000492261,-0.000319995,-0.000111303,0.000507237,-0.000334971,-0.133746,0.000489627,0.0381375,1896,1121,-0.0193128,-0.199026
679,-97,-0.0437012,0.190796,0.000335769,-0.000135501,-4.66736e-05,0.000340347,-0.000140079,-0.0977725,0.000285294,0.037062,1903,1121,-0.0436586,-0.190758
686,-97,-0.0135498,0.138062,0.000238699,-3.85327e-05,-1.70018e-06,0.000238709,-3.85431e-05,-0.0061324,0.000173421,0.0324219,1910,1121,-0.0135348,-0.138098
693,-97,0.0328369,-0.000244141,0.000152471,3.32332e-06,2.19664e-05,0.000155639,1.55393e-07,0.143229,0.000103707,0.0305249,1917,1121,0.0328602,0.00028003
700,-97,0.00268555,0.0263672,3.90601e-05,8.82693e-05,6.92892e-05,0.000137193,-9.86339e-06,0.956004,9.49206e-05,0.0210404,1924,1121,0.00262583,-0.0263215
707,-97,-0.0338135,0.0213623,-1.64321e-05,9.48403e-05,5.59327e-05,0.000118096,-3.96873e-05,1.17677,9.47711e-05,0.0114105,1931,1121,-0.0338172,-0.0213891
714,-97,-0.0219727,0.0563965,-3.18564e-05,6.3263e-05,2.39942e-05,6.89728e-05,-3.75663e-05,1.33717,6.23949e-05,0.0173305,1938,1121,-0.0219193,-0.0563454
721,-97,-0.0407715,0.059082,-1.47815e-05,1.6761e-05,2.39306e-05,2.96499e-05,-2.76704e-05,1.07675,3.31005e-05,0.0168814,1945,1121,-0.0408279,-0.0590734
728,-97,-0.0289307,0.0314941,3.6332e-05,-2.77869e-05,8.18339e-05,9.21622e-05,-8.36171e-05,0.598706,0.000101526,0.0166919,1952,1121,-0.0289271,-0.0315267
735,-97,-0.017334,0.0297852,2.99111e-05,-0.000226585,4.01798e-05,3.60579e-05,-0.000232732,0.151806,0.000168465,0.01573,1959,1121,-0.0172826,-0.0297873
742,-97,-0.0262451,0.0296631,-0.000157083,-0.000463183,-6.87646e-05,-0.000142345,-0.000477921,-0.211134,0.000283346,0.012473,1966,1121,-0.0262372,-0.0296547
749,-97,-0.0457764,0.0469971,-0.000304293,-0.00113825,-0.000171653,-0.000270344,-0.0011722,-0.195257,0.000708753,0.0140143,1973,1121,-0.0457697,-0.0469516
756,-97,-0.0426025,0.0371094,-0.000385164,-0.00172352,-0.000190725,-0.000358515,-0.00175017,-0.138825,0.00106754,0.0127783,1980,1121,-0.0426277,-0.0371541
763,-97,-0.0393066,0.0203857,-0.000608919,-0.00280862,-0.000644508,-0.000433991,-0.00298355,-0.265029,0.00186131,0.0110404,1987,1121,-0.0393314,-0.020349
770,-97,-0.0418701,0.0162354,-0.000824098,-0.00401496,-0.000985595,-0.000544216,-0.00429484,-0.276688,0.00270017,0.00928375,1994,1121,-0.0418574,-0.0161777
777,-97,-0.0178223,0.0432129,-0.00112435,-0.00553207,-0.00147599,-0.000675753,-0.00598067,-0.29506,0.00378204,0.0121133,2001,1121,-0.0178192,-0.0432122
784,-97,0.0991211,0.0976563,0,0,0,0,0,0,0,-1,2008,1121,0.0991709,-0.0976669
791,-97,0.131592,-0.371094,0,0,0,0,0,0,0,-1,2015,1121,0.131627,0.37107
798,-97,0.181519,-0.540039,0,0,0,0,0,0,0,-1,2022,1121,0.181506,0.540018
805,-97,-0.0703125,0.504517,0,0,0,0,0,0,0,-1,2029,1121,-0.0703283,-0.504508
812,-97,0.405273,1.10291,0,0,0,0,0,0,0,-1,2036,1121,0.405267,-1.10297
-700,-104,0,0,0,0,0,0,0,0,0,-1,524,1128,0,0
-693,-104,1.18121,0.809082,-0.0253806,0.08196,0.0261628,0.0879973,-0.0314178,1.34401,0.0714774,0.0484103,531,1128,1.1812,-0.809102
-686,-104,0.526489,0.311279,-0.0238002,0.0659752,0.0219801,0.0710678,-0.0288928,1.34312,0.0593999,0.0484308,538,1128,0.526494,-0.311315
-679,-104,0.167419,-1.07227,0,0,0,0,0,0,0,-1,545,1128,0.167395,1.07221
-672,-104,-0.468689,-0.870117,-0.0167958,0.0399933,0.0134649,0.0430242,-0.0198266,1.3494,0.0371016,0.0475432,552,1128,-0.468697,0.870167
-665,-104,0.572327,0.477539,-0.0129731,0.0299883,0.00982174,0.0321272,-0.0151121,1.35637,0.0278571,0.0437474,559,1128,0.572335,-0.477548
-658,-104,0.30011,0.314697,-0.00947413,0.021868,0.00680904,0.0232833,-0.0108895,1.36585,0.0201576,0.0411548,566,1128,0.300081,-0.31474
-651,-104,-0.0740967,0.0336914,-0.00652265,0.015489,0.00447195,0.0163629,-0.00739649,1.37782,0.0140393,0.0345686,573,1128,-0.0740672,-0.033668
-644,-104,-0.0441895,0.0361328,-0.00471049,0.0107703,0.00306199,0.011354,-0.00529412,1.38245,0.00982174,0.0139124,580,1128,-0.044186,-0.0361642
-637,-104,-0.0247192,0.0523682,-0.00260731,0.00589594,0.00150416,0.00615417,-0.00286554,1.40078,0.00532166,0.00967695,587,1128,-0.0247429,-0.0523378
-630,-104,-0.0177002,0.0628662,-0.000941603,0.00320514,0.000255224,0.00322079,-0.000957252,1.50956,0.00252744,0.0099751,594,1128,-0.0176922,-0.0629145
-623,-104,-0.015686,0.0576172,-0.000303472,0.00190191,-0.000172992,0.0019154,-0.000316959,-1.49299,0.00139464,0.0126286,601,1128,-0.015711,-0.057643
-616,-104,-0.0252075,0.0437012,0.000372715,0.00121813,-0.000704928,0.00161737,-2.65306e-05,-1.05548,0.0010872,0.0134661,608,1128,-0.025218,-0.0436948
-609,-104,-0.0202026,0.0247803,0.000471504,0.000389293,-0.000597509,0.00102932,-0.000168522,-0.751055,0.000748736,0.0162193,615,1128,-0.0202122,-0.0248001
-602,-104,-0.0101318,0.0349121,0.000250729,3.02853e-05,-0.000334906,0.000493085,-0.00021207,-0.626424,0.000417758,0.0145716,622,1128,-0.0101526,-0.0349657
-595,-104,-0.0182495,0.0534668,0.000214811,-2.37633e-05,-0.000225842,0.000350933,-0.000159886,-0.542426,0.000301719,0.0148384,629,1128,-0.0182399,-0.0535082
-588,-104,-0.0197144,0.013916,4.54124e-05,-5.07484e-05,-0.000189188,0.000192534,-0.00019787,-0.660962,0.000225407,0.0202949,636,1128,-0.0197125,-0.0139062
-581,-104,-0.0162964,-0.0419922,0.00012948,-6.35001e-05,-0.000175117,0.000232931,-0.000166951,-0.533592,0.000231917,0.0277688,643,1128,-0.016306,0.0419538
-574,-104,-0.0180664,-0.0444336,0.000405156,-7.57885e-05,-0.000131147,0.000438593,-0.000109226,-0.249642,0.000334796,0.0370662,650,1128,-0.0180771,0.0444049
-567,-104,0.0477905,-0.0765381,0.000659565,-7.4325e-05,-1.70823e-05,0.000659963,-7.47225e-05,-0.0232596,0.00046688,0.0351922,657,1128,0.0477864,0.0765873
-560,-104,0.0440674,0.0438232,0.000983254,-6.41544e-05,8.88421e-05,0.000990736,-7.16366e-05,0.084021,0.000685618,0.0394378,664,1128,0.0440452,-0.0438199
-553,-104,0.0100098,0.0269775,0.00141082,-5.27778e-05,0.000149758,0.00142599,-6.79442e-05,0.100929,0.000974095,0.0424606,671,1128,0.00998364,-0.0269489
-546,-104,0.0353394,-0.0869141,0.00198491,-5.33131e-05,0.00012376,0.0019924,-6.08002e-05,0.0604237,0.00134899,0.0411755,678,1128,0.0353397,0.0869261
-539,-104,-0.128723,0.0334473,0.00276674,-8.36383e-05,-5.73343e-05,0.0027679,-8.47911e-05,-0.0201038,0.00187417,0.037767,685,1128,-0.128727,-0.0334596
-532,-104,-0.129028,0.0229492,0.00382859,-0.000177113,-0.000544306,0.00390123,-0.000249758,-0.132678,0.00268795,0.0361746,692,1128,-0.129006,-0.0229472
-525,-104,-0.0192261,-0.0249023,0.00521968,-0.00040056,-0.00154348,0.00561566,-0.000796546,-0.251137,0.00403558,0.0347913,699,1128,-0.0192005,0.0249385
-518,-104,0,0,0,0,0,0,0,0,0,-1,706,1128,0,0
-511,-104,0,0,0,0,0,0,0,0,0,-1,713,1128,0,0
-504,-104,0,0,0,0,0,0,0,0,0,-1,720,1128,0,0
-497,-104,0,0,0,0,0,0,0,0,0,-1,727,1128,0,0
-490,-104,0,0,0,0,0,0,0,0,0,-1,734,1128,0,0
-483,-104,0,0,0,0,0,0,0,0,0,-1,741,1128,0,0
-476,-104,0,0,0,0,0,0,0,0,0,-1,748,1128,0,0
-469,-104,0,0,0,0,0,0,0,0,0,-1,755,1128,0,0
-462,-104,0,0,0,0,0,0,0,0,0,-1,762,1128,0,0
-455,-104,0,0,0,0,0,0,0,0,0,-1,769,1128,0,0
-448,-104,0,0,0,0,0,0,0,0,0,-1,776,1128,0,0
-441,-104,0,0,0,0,0,0,0,0,0,-1,783,1128,0,0
-434,-104,0,0,0,0,0,0,0,0,0,-1,790,1128,0,0
-427,-104,0,0,0,0,0,0,0,0,0,-1,797,1128,0,0
-420,-104,0,0,0,0,0,0,0,0,0,-1,804,1128,0,0
-413,-104,0,0,0,0,0,0,0,0,0,-1,811,1128,0,0
-406,-104,0,0,0,0,0,0,0,0,0,-1,818,1128,0,0
-399,-104,0,0,0,0,0,0,0,0,0,-1,825,1128,0,0
-392,-104,0,0,0,0,0,0,0,0,0,-1,832,1128,0,0
-385,-104,0,0,0,0,0,0,0,0,0,-1,839,1128,0,0
-378,-104,0,0,0,0,0,0,0,0,0,-1,846,1128,0,0
-371,-104,0,0,0,0,0,0,0,0,0,-1,853,1128,0,0
-364,-104,0,0,0,0,0,0,0,0,0,-1,860,1128,0,0
-357,-104,0,0,0,0,0,0,0,0,0,-1,867,1128,0,0
-350,-104,0,0,0,0,0,0,0,0,0,-1,874,1128,0,0
-343,-104,0,0,0,0,0,0,0,0,0,-1,881,1128,0,0
-336,-104,0,0,0,0,0,0,0,0,0,-1,888,1128,0,0
-329,-104,0,0,0,0,0,0,0,0,0,-1,895,1128,0,0
-322,-104,0,0,0,0,0,0,0,0,0,-1,902,1128,0,0
-315,-104,0,0,0,0,0,0,0,0,0,-1,909,1128,0,0
-308,-104,0,0,0,0,0,0,0,0,0,-1,916,1128,0,0
-301,-104,0,0,0,0,0,0,0,0,0,-1,923,1128,0,0
-294,-104,0,0,0,0,0,0,0,0,0,-1,930,1128,0,0
-287,-104,0,0,0,0,0,0,0,0,0,-1,937,1128,0,0
-280,-104,0,0,0,0,0,0,0,0,0,-1,944,1128,0,0
-273,-104,0,0,0,0,0,0,0,0,0,-1,951,1128,0,0
-266,-104,0,0,0,0,0,0,0,0,0,-1,958,1128,0,0
-259,-104,0,0,0,0,0,0,0,0,0,-1,965,1128,0,0
-252,-104,0,0,0,0,0,0,0,0,0,-1,972,1128,0,0
-245,-104,0,0,0,0,0,0,0,0,0,-1,979,1128,0,0
-238,-104,0,0,0,0,0,0,0,0,0,-1,986,1128,0,0
-231,-104,0,0,0,0,0,0,0,0,0,-1,993,1128,0,0
-224,-104,0,0,0,0,0,0,0,0,0,-1,1000,1128,0,0
-217,-104,0,0,0,0,0,0,0,0,0,-1,1007,1128,0,0
-210,-104,0,0,0,0,0,0,0,0,0,-1,1014,1128,0,0
-203,-104,0,0,0,0,0,0,0,0,0,-1,1021,1128,0,0
-196,-104,0,0,0,0,0,0,0,0,0,-1,1028,1128,0,0
-189,-104,0,0,0,0,0,0,0,0,0,-1,1035,1128,0,0
-182,-104,0,0,0,0,0,0,0,0,0,-1,1042,1128,0,0
-175,-104,0,0,0,0,0,0,0,0,0,-1,1049,1128,0,0
-168,-104,0,0,0,0,0,0,0,0,0,-1,1056,1128,0,0
-161,-104,0,0,0,0,0,0,0,0,0,-1,1063,1128,0,0
-154,-104,0,0,0,0,0,0,0,0,0,-1,1070,1128,0,0
-147,-104,0,0,0,0,0,0,0,0,0,-1,1077,1128,0,0
-140,-104,0,0,0,0,0,0,0,0,0,-1,1084,1128,0,0
-133,-104,0,0,0,0,0,0,0,0,0,-1,1091,1128,0,0
-126,-104,0,0,0,0,0,0,0,0,0,-1,1098,1128,0,0
-119,-104,0,0,0,0,0,0,0,0,0,-1,1105,1128,0,0
-112,-104,0,0,0,0,0,0,0,0,0,-1,1112,1128,0,0
-105,-104,0,0,0,0,0,0,0,0,0,-1,1119,1128,0,0
-98,-104,0,0,0,0,0,0,0,0,0,-1,1126,1128,0,0
-91,-104,0,0,0,0,0,0,0,0,0,-1,1133,1128,0,0
-84,-104,0,0,0,0,0,0,0,0,0,-1,1140,1128,0,0
-77,-104,0,0,0,0,0,0,0,0,0,-1,1147,1128,0,0
-70,-104,0,0,0,0,0,0,0,0,0,-1,1154,1128,0,0
-63,-104,0,0,0,0,0,0,0,0,0,-1,1161,1128,0,0
-56,-104,0,0,0,0,0,0,0,0,0,-1,1168,1128,0,0
-49,-104,0,0,0,0,0,0,0,0,0,-1,1175,1128,0,0
-42,-104,0,0,0,0,0,0,0,0,0,-1,1182,1128,0,0
-35,-104,0,0,0,0,0,0,0,0,0,-1,1189,1128,0,0
-28,-104,0,0,0,0,0,0,0,0,0,-1,1196,1128,0,0
-21,-104,0,0,0,0,0,0,0,0,0,-1,1203,1128,0,0
-14,-104,0,0,0,0,0,0,0,0,0,-1,1210,1128,0,0
-7,-104,0,0,0,0,0,0,0,0,0,-1,1217,1128,0,0
0,-104,0,0,0,0,0,0,0,0,0,-1,1224,1128,0,0
7,-104,0,0,0,0,0,0,0,0,0,-1,1231,1128,0,0
14,-104,0,0,0,0,0,0,0,0,0,-1,1238,1128,0,0
21,-104,0,0,0,0,0,0,0,0,0,-1,1245,1128,0,0
28,-104,0,0,0,0,0,0,0,0,0,-1,1252,1128,0,0
35,-104,0,0,0,0,0,0,0,0,0,-1,1259,1128,0,0
42,-104,0,0,0,0,0,0,0,0,0,-1,1266,1128,0,0
49,-104,0,0,0,0,0,0,0,0,0,-1,1273,1128,0,0
56,-104,0,0,0,0,0,0,0,0,0,-1,1280,1128,0,0
63,-104,0,0,0,0,0,0,0,0,0,-1,1287,1128,0,0
70,-104,0,0,0,0,0,0,0,0,0,-1,1294,1128,0,0
77,-104,0,0,0,0,0,0,0,0,0,-1,1301,1128,0,0
84,-104,0,0,0,0,0,0,0,0,0,-1,1308,1128,0,0
91,-104,0,0,0,0,0,0,0,0,0,-1,1315,1128,0,0
98,-104,0,0,0,0,0,0,0,0,0,-1,1322,1128,0,0
105,-104,0,0,0,0,0,0,0,0,0,-1,1329,1128,0,0
112,-104,0,0,0,0,0,0,0,0,0,-1,1336,1128,0,0
119,-104,0,0,0,0,0,0,0,0,0,-1,1343,1128,0,0
126,-104,0,0,0,0,0,0,0,0,0,-1,1350,1128,0,0
133,-104,0,0,0,0,0,0,0,0,0,-1,1357,1128,0,0
140,-104,0,0,0,0,0,0,0,0,0,-1,1364,1128,0,0
147,-104,0,0,0,0,0,0,0,0,0,-1,1371,1128,0,0
154,-104,0,0,0,0,0,0,0,0,0,-1,1378,1128,0,0
161,-104,0,0,0,0,0,0,0,0,0,-1,1385,1128,0,0
168,-104,0,0,0,0,0,0,0,0,0,-1,1392,1128,0,0
175,-104,0,0,0,0,0,0,0,0,0,-1,1399,1128,0,0
182,-104,0,0,0,0,0,0,0,0,0,-1,1406,1128,0,0
189,-104,0,0,0,0,0,0,0,0,0,-1,1413,1128,0,0
196,-104,0,0,0,0,0,0,0,0,0,-1,1420,1128,0,0
203,-104,0,0,0,0,0,0,0,0,0,-1,1427,1128,0,0
210,-104,0,0,0,0,0,0,0,0,0,-1,1434,1128,0,0
217,-104,0,0,0,0,0,0,0,0,0,-1,1441,1128,0,0
224,-104,0,0,0,0,0,0,0,0,0,-1,1448,1128,0,0
231,-104,0,0,0,0,0,0,0,0,0,-1,1455,1128,0,0
238,-104,0,0,0,0,0,0,0,0,0,-1,1462,1128,0,0
245,-104,0,0,0,0,0,0,0,0,0,-1,1469,1128,0,0
252,-104,0,0,0,0,0,0,0,0,0,-1,1476,1128,0,0
259,-104,0,0,0,0,0,0,0,0,0,-1,1483,1128,0,0
266,-104,0,0,0,0,0,0,0,0,0,-1,1490,1128,0,0
273,-104,0,0,0,0,0,0,0,0,0,-1,1497,1128,0,0
280,-104,0,0,0,0,0,0,0,0,0,-1,1504,1128,0,0
287,-104,0,0,0,0,0,0,0,0,0,-1,1511,1128,0,0
294,-104,0,0,0,0,0,0,0,0,0,-1,1518,1128,0,0
301,-104,0,0,0,0,0,0,0,0,0,-1,1525,1128,0,0
308,-104,0,0,0,0,0,0,0,0,0,-1,1532,1128,0,0
315,-104,0,0,0,0,0,0,0,0,0,-1,1539,1128,0,0
322,-104,0,0,0,0,0,0,0,0,0,-1,1546,1128,0,0
329,-104,0,0,0,0,0,0,0,0,0,-1,1553,1128,0,0
336,-104,0,0,0,0,0,0,0,0,0,-1,1560,1128,0,0
343,-104,0,0,0,0,0,0,0,0,0,-1,1567,1128,0,0
350,-104,0,0,0,0,0,0,0,0,0,-1,1574,1128,0,0
357,-104,0,0,0,0,0,0,0,0,0,-1,1581,1128,0,0
364,-104,0,0,0,0,0,0,0,0,0,-1,1588,1128,0,0
371,-104,0,0,0,0,0,0,0,0,0,-1,1595,1128,0,0
378,-104,0,0,0,0,0,0,0,0,0,-1,1602,1128,0,0
385,-104,0,0,0,0,0,0,0,0,0,-1,1609,1128,0,0
392,-104,0,0,0,0,0,0,0,0,0,-1,1616,1128,0,0
399,-104,0,0,0,0,0,0,0,0,0,-1,1623,1128,0,0
406,-104,0,0,0,0,0,0,0,0,0,-1,1630,1128,0,0
413,-104,0,0,0,0,0,0,0,0,0,-1,1637,1128,0,0
420,-104,0,0,0,0,0,0,0,0,0,-1,1644,1128,0,0
427,-104,0,0,0,0,0,0,0,0,0,-1,1651,1128,0,0
434,-104,0,0,0,0,0,0,0,0,0,-1,1658,1128,0,0
441,-104,0,0,0,0,0,0,0,0,0,-1,1665,1128,0,0
448,-104,0,0,0,0,0,0,0,0,0,-1,1672,1128,0,0
455,-104,0,0,0,0,0,0,0,0,0,-1,1679,1128,0,0
462,-104,0,0,0,0,0,0,0,0,0,-1,1686,1128,0,0
469,-104,0,0,0,0,0,0,0,0,0,-1,1693,1128,0,0
476,-104,0,0,0,0,0,0,0,0,0,-1,1700,1128,0,0
483,-104,0,0,0,0,0,0,0,0,0,-1,1707,1128,0,0
490,-104,0,0,0,0,0,0,0,0,0,-1,1714,1128,0,0
497,-104,0,0,0,0,0,0,0,0,0,-1,1721,1128,0,0
504,-104,0,0,0,0,0,0,0,0,0,-1,1728,1128,0,0
511,-104,0,0,0,0,0,0,0,0,0,-1,1735,1128,0,0
518,-104,0,0,0,0,0,0,0,0,0,-1,1742,1128,0,0
525,-104,0,0,0,0,0,0,0,0,0,-1,1749,1128,0,0
532,-104,0,0,0,0,0,0,0,0,0,-1,1756,1128,0,0
539,-104,0,0,0,0,0,0,0,0,0,-1,1763,1128,0,0
546,-104,0,0,0,0,0,0,0,0,0,-1,1770,1128,0,0
553,-104,0,0,0,0,0,0,0,0,0,-1,1777,1128,0,0
560,-104,0,0,0,0,0,0,0,0,0,-1,1784,1128,0,0
567,-104,0,0,0,0,0,0,0,0,0,-1,1791,1128,0,0
574,-104,0,0,0,0,0,0,0,0,0,-1,1798,1128,0,0
581,-104,0,0,0,0,0,0,0,0,0,-1,1805,1128,0,0
588,-104,0,0,0,0,0,0,0,0,0,-1,1812,1128,0,0
595,-104,0,0,0,0,0,0,0,0,0,-1,1819,1128,0,0
602,-104,0,0,0,0,0,0,0,0,0,-1,1826,1128,0,0
609,-104,0,0,0,0,0,0,0,0,0,-1,1833,1128,0,0
616,-104,0,0,0,0,0,0,0,0,0,-1,1840,1128,0,0
623,-104,0,0,0,0,0,0,0,0,0,-1,1847,1128,0,0
630,-104,0,0,0,0,0,0,0,0,0,-1,1854,1128,0,0
637,-104,0,0,0,0,0,0,0,0,0,-1,1861,1128,0,0
644,-104,-0.212646,0.193848,0.00233209,-0.0028436,-0.00106399,0.00254228,-0.00305379,-0.19504,0.00323539,0.0323092,1868,1128,-0.212645,-0.193836
651,-104,-0.115479,0.179688,0.00156947,-0.00176195,-0.000918062,0.00180572,-0.00199819,-0.251864,0.00219713,0.0328674,1875,1128,-0.115468,-0.179703
658,-104,0.0614014,0.0802002,0.00113565,-0.00108021,-0.000652195,0.00131336,-0.00125792,-0.26602,0.00148464,0.0347771,1882,1128,0.0613667,-0.0801763
665,-104,0.0247803,0.119751,0.000824232,-0.000681808,-0.000428886,0.000937804,-0.000795381,-0.258866,0.00100178,0.0377975,1889,1128,0.0247411,-0.119786
672,-104,-0.0264893,0.0843506,0.000564921,-0.000433351,-0.000262455,0.000629717,-0.000498147,-0.242045,0.000652648,0.0378037,1896,1128,-0.0264557,-0.0843537
679,-104,-0.0649414,0.0117188,0.000394268,-0.000292278,-0.00014689,0.000424375,-0.000322386,-0.202166,0.000432481,0.0374566,1903,1128,-0.0649335,-0.011752
686,-104,-0.0585938,0.126587,0.000282253,-0.0002223,-6.44914e-05,0.000290366,-0.000230412,-0.125139,0.000301335,0.0356221,1910,1128,-0.0586475,-0.126615
693,-104,-0.0349121,0.0651855,0.00017837,-0.000188944,-2.34724e-05,0.000179864,-0.000190438,-0.0635582,0.000213823,0.0307319,1917,1128,-0.0348948,-0.0651884
700,-104,-0.0284424,0.0412598,5.42369e-05,-0.000114306,4.07029e-05,6.35518e-05,-0.000123621,0.224977,0.000109903,0.0190152,1924,1128,-0.0284435,-0.0412974
707,-104,-0.0240479,0.0522461,-1.54834e-05,-9.69231e-05,4.46639e-05,4.23652e-06,-0.000116643,0.415779,7.9212e-05,0.0134845,1931,1128,-0.0240695,-0.0522458
714,-104,-0.0371094,0.0482178,-4.28865e-05,-0.000106963,2.34996e-05,-3.51921e-05,-0.000114657,0.316424,6.78224e-05,0.0182829,1938,1128,-0.0370574,-0.0482623
721,-104,-0.0718994,0.0319824,-3.56119e-05,-0.000128497,2.64843e-05,-2.85911e-05,-0.000135517,0.259133,8.24832e-05,0.0175656,1945,1128,-0.0719247,-0.0320005
728,-104,-0.0294189,0.0057373,5.06037e-05,-0.000146316,0.000101039,9.32226e-05,-0.000188935,0.399163,0.000165998,0.0205024,1952,1128,-0.0294098,-0.00573901
735,-104,-0.0239258,0.00598145,0.000120498,-0.000323747,7.13827e-05,0.000131686,-0.000334935,0.155471,0.000277792,0.0189065,1959,1128,-0.0239598,-0.00592052
742,-104,-0.0413818,0.0289307,-8.66838e-06,-0.000629339,-5.15348e-05,-4.41854e-06,-0.000633589,-0.08228,0.000420927,0.0125828,1966,1128,-0.0413525,-0.028908
749,-104,-0.0512695,0.0523682,-0.000110299,-0.00138123,-0.000136675,-9.57671e-05,-0.00139576,-0.105925,0.000900285,0.0154069,1973,1128,-0.0512764,-0.0523236
756,-104,-0.0527344,0.0455322,-0.000127424,-0.00206839,-0.000186231,-0.000109717,-0.0020861,-0.0947955,0.00135564,0.0152314,1980,1128,-0.0526879,-0.045515
763,-104,-0.0454102,0.0390625,-0.000288054,-0.00327777,-0.000699229,-0.000132603,-0.00343323,-0.218761,0.00224592,0.0128207,1987,1128,-0.0454617,-0.0390344
770,-104,-0.0430908,0.0408936,-0.000428437,-0.00467566,-0.00109893,-0.000160944,-0.00494315,-0.238768,0.00324312,0.0102049,1994,1128,-0.0430788,-0.0408438
777,-104,-0.0285645,0.0263672,-0.000681967,-0.00643445,-0.00170133,-0.000216459,-0.00689996,-0.267077,0.00452955,0.0167401,2001,1128,-0.0285357,-0.0264049
784,-104,0.00708008,-0.101074,-0.00103634,-0.00857335,-0.00254719,-0.000256244,-0.00935345,-0.297189,0.006152,0.0339536,2008,1128,0.0070657,0.101078
791,-104,0.103027,-0.23291,-0.00145407,-0.0111,-0.00369629,-0.000200563,-0.0123535,-0.326956,0.00816962,0.0437004,2015,1128,0.102995,0.232875
798,-104,0.0578613,-0.286621,-0.00196581,-0.013999,-0.00521333,-2.13692e-05,-0.0159435,-0.356995,0.0106219,0.0465442,2022,1128,0.0578167,0.286646
805,-104,0.0360107,-0.160767,-0.00259091,-0.0172361,-0.00722093,0.000370577,-0.0201976,-0.389205,0.0135902,0.0456742,2029,1128,0.0360696,0.160823
812,-104,-1.01978,-0.630493,-0.00326163,-0.0207246,-0.00991222,0.00121638,-0.0252026,-0.424322,0.0172215,0.0461968,2036,1128,-1.01972,0.630503
-700,-111,0,0,0,0,0,0,0,0,0,-1,524,1135,0,0
-693,-111,0.421082,-0.704834,-0.0315569,0.0864596,0.0340463,0.0955772,-0.0406744,1.30914,0.0807656,0.0475818,531,1135,0.421087,0.704818
-686,-111,0.0302734,-0.208862,-0.0281468,0.0696794,0.0275842,0.0769213,-0.0353887,1.31405,0.0663036,0.0443809,538,1135,0.0302759,0.20892
-679,-111,0.205139,0.274292,0,0,0,0,0,0,0,-1,545,1135,0.205156,-0.274336
-672,-111,0.466614,0.577759,-0.0187796,0.0426879,0.0161545,0.0466749,-0.0227666,1.32883,0.0408765,0.0477151,552,1135,0.466605,-0.577749
-665,-111,0.390137,0.611084,-0.0142297,0.0322617,0.0116068,0.0349983,-0.0169663,1.33925,0.030598,0.0477027,559,1135,0.390156,-0.611056
-658,-111,0.23645,0.572388,-0.0102133,0.0237278,0.00795222,0.0254986,-0.0119841,1.35169,0.0221046,0.0426519,566,1135,0.236474,-0.572423
-651,-111,-0.0292969,0.197388,-0.00690661,0.0169503,0.00517748,0.0180255,-0.00798179,1.36604,0.015384,0.0369838,573,1135,-0.0293079,-0.197364
-644,-111,-0.024231,0.0369873,-0.00473086,0.0118111,0.00339053,0.0124791,-0.00539882,1.37628,0.0105882,0.0235042,580,1135,-0.0242008,-0.0370323
-637,-111,-0.0162964,0.0567627,-0.00246968,0.00669206,0.00155455,0.00694864,-0.00272627,1.40722,0.0057604,0.00887297,587,1135,-0.0162712,-0.0567158
-630,-111,-0.00421143,0.057373,-0.000814658,0.00372742,0.000245848,0.00374069,-0.000827926,1.51688,0.00281071,0.0115992,594,1135,-0.00423062,-0.0573202
-623,-111,-0.0106812,0.0369873,-0.000223186,0.00222738,-0.000143104,0.00223571,-0.000231515,-1.51266,0.00157333,0.0108665,601,1135,-0.0107065,-0.0370369
-616,-111,-0.0320435,0.0249023,0.000406486,0.0014613,-0.000613578,0.00174299,0.000124797,-1.14041,0.00112271,0.0118998,608,1135,-0.0320628,-0.0248832
-609,-111,-0.0214844,0.0214844,0.000531024,0.000433357,-0.000488563,0.000973188,-8.80624e-06,-0.735587,0.000651747,0.0143975,615,1135,-0.0214726,-0.0215259
-602,-111,-0.0210571,0.0180664,0.000323469,-3.29042e-05,-0.000240821,0.000444858,-0.000154293,-0.466891,0.000359223,0.0147297,622,1135,-0.0210466,-0.0180108
-595,-111,-0.0192261,0.0455322,0.000232143,-0.000112417,-0.000148303,0.000287182,-0.000167457,-0.355372,0.000265503,0.0121671,629,1135,-0.0192132,-0.0455284
-588,-111,-0.0115967,0.072876,2.46807e-05,-0.000131907,-0.000112007,8.30454e-05,-0.000190272,-0.480369,0.000161797,0.0183982,636,1135,-0.0116109,-0.0728972
-581,-111,0.00274658,0.0279541,9.20925e-05,-0.000130497,-8.80968e-05,0.00012274,-0.000161145,-0.334787,0.0001644,0.0274325,643,1135,0.00274948,-0.0279259
-574,-111,0.0114746,-0.0765381,0.000362868,-0.000133012,-3.7792e-05,0.000365732,-0.000135876,-0.0756299,0.000299567,0.0385836,650,1135,0.0114585,0.0765979
-567,-111,0.0547485,-0.237671,0.000595665,-0.000114594,8.32199e-05,0.000605286,-0.000124214,0.115092,0.000450671,0.0380968,657,1135,0.0547741,0.237699
-560,-111,0.0794067,-0.130249,0.000884496,-5.98189e-05,0.000198256,0.00092443,-9.97534e-05,0.198769,0.000652086,0.0394119,664,1135,0.0794092,0.130308
-553,-111,0.0492554,-0.00622559,0.00126347,2.17019e-05,0.00027323,0.00132093,-3.5759e-05,0.207282,0.000892776,0.0403503,671,1135,0.0492278,0.00624254
-546,-111,0.0351563,-0.0142822,0.00178334,0.000120332,0.000269864,0.00182603,7.76358e-05,0.156912,0.00119232,0.034882,678,1135,0.0351411,0.0142606
-539,-111,-0.0709839,0.0583496,0.00249977,0.000221038,0.000125907,0.00250671,0.000214102,0.0550298,0.00160454,0.0359109,685,1135,-0.0709787,-0.0583385
-532,-111,-0.153809,0.0770264,0.00348949,0.000289982,-0.000291073,0.00351576,0.000263717,-0.0899898,0.00226107,0.0373003,692,1135,-0.153781,-0.0770373
-525,-111,-0.0586548,-0.0533447,0.00480345,0.000260852,-0.00115536,0.00508041,-1.61133e-05,-0.235282,0.00339233,0.0356357,699,1135,-0.0586336,0.0533631
-518,-111,0,0,0,0,0,0,0,0,0,-1,706,1135,0,0
-511,-111,0,0,0,0,0,0,0,0,0,-1,713,1135,0,0
-504,-111,0,0,0,0,0,0,0,0,0,-1,720,1135,0,0
-497,-111,0,0,0,0,0,0,0,0,0,-1,727,1135,0,0
-490,-111,0,0,0,0,0,0,0,0,0,-1,734,1135,0,0
-483,-111,0,0,0,0,0,0,0,0,0,-1,741,1135,0,0
-476,-111,0,0,0,0,0,0,0,0,0,-1,748,1135,0,0
-469,-111,0,0,0,0,0,0,0,0,0,-1,755,1135,0,0
-462,-111,0,0,0,0,0,0,0,0,0,-1,762,1135,0,0
-455,-111,0,0,0,0,0,0,0,0,0,-1,769,1135,0,0
-448,-111,0,0,0,0,0,0,0,0,0,-1,776,1135,0,0
-441,-111,0,0,0,0,0,0,0,0,0,-1,783,1135,0,0
-434,-111,0,0,0,0,0,0,0,0,0,-1,790,1135,0,0
-427,-111,0,0,0,0,0,0,0,0,0,-1,797,1135,0,0
-420,-111,0,0,0,0,0,0,0,0,0,-1,804,1135,0,0
-413,-111,0,0,0,0,0,0,0,0,0,-1,811,1135,0,0
-406,-111,0,0,0,0,0,0,0,0,0,-1,818,1135,0,0
-399,-111,0,0,0,0,0,0,0,0,0,-1,825,1135,0,0
-392,-111,0,0,0,0,0,0,0,0,0,-1,832,1135,0,0
-385,-111,0,0,0,0,0,0,0,0,0,-1,839,1135,0,0
-378,-111,0,0,0,0,0,0,0,0,0,-1,846,1135,0,0
-371,-111,0,0,0,0,0,0,0,0,0,-1,853,1135,0,0
-364,-111,0,0,0,0,0,0,0,0,0,-1,860,1135,0,0
-357,-111,0,0,0,0,0,0,0,0,0,-1,867,1135,0,0
-350,-111,0,0,0,0,0,0,0,0,0,-1,874,1135,0,0
-343,-111,0,0,0,0,0,0,0,0,0,-1,881,1135,0,0
-336,-111,0,0,0,0,0,0,0,0,0,-1,888,1135,0,0
-329,-111,0,0,0,0,0,0,0,0,0,-1,895,1135,0,0
-322,-111,0,0,0,0,0,0,0,0,0,-1,902,1135,0,0
-315,-111,0,0,0,0,0,0,0,0,0,-1,909,1135,0,0
-308,-111,0,0,0,0,0,0,0,0,0,-1,916,1135,0,0
-301,-111,0,0,0,0,0,0,0,0,0,-1,923,1135,0,0
-294,-111,0,0,0,0,0,0,0,0,0,-1,930,1135,0,0
-287,-111,0,0,0,0,0,0,0,0,0,-1,937,1135,0,0
-280,-111,0,0,0,0,0,0,0,0,0,-1,944,1135,0,0
-273,-111,0,0,0,0,0,0,0,0,0,-1,951,1135,0,0
-266,-111,0,0,0,0,0,0,0,0,0,-1,958,1135,0,0
-259,-111,0,0,0,0,0,0,0,0,0,-1,965,1135,0,0
-252,-111,0,0,0,0,0,0,0,0,0,-1,972,1135,0,0
-245,-111,0,0,0,0,0,0,0,0,0,-1,979,1135,0,0
-238,-111,0,0,0,0,0,0,0,0,0,-1,986,1135,0,0
-231,-111,0,0,0,0,0,0,0,0,0,-1,993,1135,0,0
-224,-111,0,0,0,0,0,0,0,0,0,-1,1000,1135,0,0
-217,-111,0,0,0,0,0,0,0,0,0,-1,1007,1135,0,0
-210,-111,0,0,0,0,0,0,0,0,0,-1,1014,1135,0,0
-203,-111,0,0,0,0,0,0,0,0,0,-1,1021,1135,0,0
-196,-111,0,0,0,0,0,0,0,0,0,-1,1028,1135,0,0
-189,-111,0,0,0,0,0,0,0,0,0,-1,1035,1135,0,0
-182,-111,0,0,0,0,0,0,0,0,0,-1,1042,1135,0,0
-175,-111,0,0,0,0,0,0,0,0,0,-1,1049,1135,0,0
-168,-111,0,0,0,0,0,0,0,0,0,-1,1056,1135,0,0
-161,-111,0,0,0,0,0,0,0,0,0,-1,1063,1135,0,0
-154,-111,0,0,0,0,0,0,0,0,0,-1,1070,1135,0,0
-147,-111,0,0,0,0,0,0,0,0,0,-1,1077,1135,0,0
-140,-111,0,0,0,0,0,0,0,0,0,-1,1084,1135,0,0
-133,-111,0,0,0,0,0,0,0,0,0,-1,1091,1135,0,0
-126,-111,0,0,0,0,0,0,0,0,0,-1,1098,1135,0,0
-119,-111,0,0,0,0,0,0,0,0,0,-1,1105,1135,0,0
-112,-111,0,0,0,0,0,0,0,0,0,-1,1112,1135,0,0
-105,-111,0,0,0,0,0,0,0,0,0,-1,1119,1135,0,0
-98,-111,0,0,0,0,0,0,0,0,0,-1,1126,1135,0,0
-91,-111,0,0,0,0,0,0,0,0,0,-1,1133,1135,0,0
-84,-111,0,0,0,0,0,0,0,0,0,-1,1140,1135,0,0
-77,-111,0,0,0,0,0,0,0,0,0,-1,1147,1135,0,0
-70,-111,0,0,0,0,0,0,0,0,0,-1,1154,1135,0,0
-63,-111,0,0,0,0,0,0,0,0,0,-1,1161,1135,0,0
-56,-111,0,0,0,0,0,0,0,0,0,-1,1168,1135,0,0
-49,-111,0,0,0,0,0,0,0,0,0,-1,1175,1135,0,0
-42,-111,0,0,0,0,0,0,0,0,0,-1,1182,1135,0,0
-35,-111,0,0,0,0,0,0,0,0,0,-1,1189,1135,0,0
-28,-111,0,0,0,0,0,0,0,0,0,-1,1196,1135,0,0
-21,-111,0,0,0,0,0,0,0,0,0,-1,1203,1135,0,0
-14,-111,0,0,0,0,0,0,0,0,0,-1,1210,1135,0,0
-7,-111,0,0,0,0,0,0,0,0,0,-1,1217,1135,0,0
0,-111,0,0,0,0,0,0,0,0,0,-1,1224,1135,0,0
7,-111,0,0,0,0,0,0,0,0,0,-1,1231,1135,0,0
14,-111,0,0,0,0,0,0,0,0,0,-1,1238,1135,0,0
21,-111,0,0,0,0,0,0,0,0,0,-1,1245,1135,0,0
28,-111,0,0,0,0,0,0,0,0,0,-1,1252,1135,0,0
35,-111,0,0,0,0,0,0,0,0,0,-1,1259,1135,0,0
42,-111,0,0,0,0,0,0,0,0,0,-1,1266,1135,0,0
49,-111,0,0,0,0,0,0,0,0,0,-1,1273,1135,0,0
56,-111,0,0,0,0,0,0,0,0,0,-1,1280,1135,0,0
63,-111,0,0,0,0,0,0,0,0,0,-1,1287,1135,0,0
70,-111,0,0,0,0,0,0,0,0,0,-1,1294,1135,0,0
77,-111,0,0,0,0,0,0,0,0,0,-1,1301,1135,0,0
84,-111,0,0,0,0,0,0,0,0,0,-1,1308,1135,0,0
91,-111,0,0,0,0,0,0,0,0,0,-1,1315,1135,0,0
98,-111,0,0,0,0,0,0,0,0,0,-1,1322,1135,0,0
105,-111,0,0,0,0,0,0,0,0,0,-1,1329,1135,0,0
112,-111,0,0,0,0,0,0,0,0,0,-1,1336,1135,0,0
119,-111,0,0,0,0,0,0,0,0,0,-1,1343,1135,0,0
126,-111,0,0,0,0,0,0,0,0,0,-1,1350,1135,0,0
133,-111,0,0,0,0,0,0,0,0,0,-1,1357,1135,0,0
140,-111,0,0,0,0,0,0,0,0,0,-1,1364,1135,0,0
147,-111,0,0,0,0,0,0,0,0,0,-1,1371,1135,0,0
154,-111,0,0,0,0,0,0,0,0,0,-1,1378,1135,0,0
161,-111,0,0,0,0,0,0,0,0,0,-1,1385,1135,0,0
168,-111,0,0,0,0,0,0,0,0,0,-1,1392,1135,0,0
175,-111,0,0,0,0,0,0,0,0,0,-1,1399,1135,0,0
182,-111,0,0,0,0,0,0,0,0,0,-1,1406,1135,0,0
189,-111,0,0,0,0,0,0,0,0,0,-1,1413,1135,0,0
196,-111,0,0,0,0,0,0,0,0,0,-1,1420,1135,0,0
203,-111,0,0,0,0,0,0,0,0,0,-1,1427,1135,0,0
210,-111,0,0,0,0,0,0,0,0,0,-1,1434,1135,0,0
217,-111,0,0,0,0,0,0,0,0,0,-1,1441,1135,0,0
224,-111,0,0,0,0,0,0,0,0,0,-1,1448,1135,0,0
231,-111,0,0,0,0,0,0,0,0,0,-1,1455,1135,0,0
238,-111,0,0,0,0,0,0,0,0,0,-1,1462,1135,0,0
245,-111,0,0,0,0,0,0,0,0,0,-1,1469,1135,0,0
252,-111,0,0,0,0,0,0,0,0,0,-1,1476,1135,0,0
259,-111,0,0,0,0,0,0,0,0,0,-1,1483,1135,0,0
266,-111,0,0,0,0,0,0,0,0,0,-1,1490,1135,0,0
273,-111,0,0,0,0,0,0,0,0,0,-1,1497,1135,0,0
280,-111,0,0,0,0,0,0,0,0,0,-1,1504,1135,0,0
287,-111,0,0,0,0,0,0,0,0,0,-1,1511,1135,0,0
294,-111,0,0,0,0,0,0,0,0,0,-1,1518,1135,0,0
301,-111,0,0,0,0,0,0,0,0,0,-1,1525,1135,0,0
308,-111,0,0,0,0,0,0,0,0,0,-1,1532,1135,0,0
315,-111,0,0,0,0,0,0,0,0,0,-1,1539,1135,0,0
322,-111,0,0,0,0,0,0,0,0,0,-1,1546,1135,0,0
329,-111,0,0,0,0,0,0,0,0,0,-1,1553,1135,0,0
336,-111,0,0,0,0,0,0,0,0,0,-1,1560,1135,0,0
343,-111,0,0,0,0,0,0,0,0,0,-1,1567,1135,0,0
350,-111,0,0,0,0,0,0,0,0,0,-1,1574,1135,0,0
357,-111,0,0,0,0,0,0,0,0,0,-1,1581,1135,0,0
364,-111,0,0,0,0,0,0,0,0,0,-1,1588,1135,0,0
371,-111,0,0,0,0,0,0,0,0,0,-1,1595,1135,0,0
378,-111,0,0,0,0,0,0,0,0,0,-1,1602,1135,0,0
385,-111,0,0,0,0,0,0,0,0,0,-1,1609,1135,0,0
392,-111,0,0,0,0,0,0,0,0,0,-1,1616,1135,0,0
399,-111,0,0,0,0,0,0,0,0,0,-1,1623,1135,0,0
406,-111,0,0,0,0,0,0,0,0,0,-1,1630,1135,0,0
413,-111,0,0,0,0,0,0,0,0,0,-1,1637,1135,0,0
420,-111,0,0,0,0,0,0,0,0,0,-1,1644,1135,0,0
427,-111,0,0,0,0,0,0,0,0,0,-1,1651,1135,0,0
434,-111,0,0,0,0,0,0,0,0,0,-1,1658,1135,0,0
441,-111,0,0,0,0,0,0,0,0,0,-1,1665,1135,0,0
448,-111,0,0,0,0,0,0,0,0,0,-1,1672,1135,0,0
455,-111,0,0,0,0,0,0,0,0,0,-1,1679,1135,0,0
462,-111,0,0,0,0,0,0,0,0,0,-1,1686,1135,0,0
469,-111,0,0,0,0,0,0,0,0,0,-1,1693,1135,0,0
476,-111,0,0,0,0,0,0,0,0,0,-1,1700,1135,0,0
483,-111,0,0,0,0,0,0,0,0,0,-1,1707,1135,0,0
490,-111,0,0,0,0,0,0,0,0,0,-1,1714,1135,0,0
497,-111,0,0,0,0,0,0,0,0,0,-1,1721,1135,0,0
504,-111,0,0,0,0,0,0,0,0,0,-1,1728,1135,0,0
511,-111,0,0,0,0,0,0,0,0,0,-1,1735,1135,0,0
518,-111,0,0,0,0,0,0,0,0,0,-1,1742,1135,0,0
525,-111,0,0,0,0,0,0,0,0,0,-1,1749,1135,0,0
532,-111,0,0,0,0,0,0,0,0,0,-1,1756,1135,0,0
539,-111,0,0,0,0,0,0,0,0,0,-1,1763,1135,0,0
546,-111,0,0,0,0,0,0,0,0,0,-1,1770,1135,0,0
553,-111,0,0,0,0,0,0,0,0,0,-1,1777,1135,0,0
560,-111,0,0,0,0,0,0,0,0,0,-1,1784,1135,0,0
567,-111,0,0,0,0,0,0,0,0,0,-1,1791,1135,0,0
574,-111,0,0,0,0,0,0,0,0,0,-1,1798,1135,0,0
581,-111,0,0,0,0,0,0,0,0,0,-1,1805,1135,0,0
588,-111,0,0,0,0,0,0,0,0,0,-1,1812,1135,0,0
595,-111,0,0,0,0,0,0,0,0,0,-1,1819,1135,0,0
602,-111,0,0,0,0,0,0,0,0,0,-1,1826,1135,0,0
609,-111,0,0,0,0,0,0,0,0,0,-1,1833,1135,0,0
616,-111,0,0,0,0,0,0,0,0,0,-1,1840,1135,0,0
623,-111,0,0,0,0,0,0,0,0,0,-1,1847,1135,0,0
630,-111,0,0,0,0,0,0,0,0,0,-1,1854,1135,0,0
637,-111,0,0,0,0,0,0,0,0,0,-1,1861,1135,0,0
644,-111,-0.140625,0.271729,0.0022741,-0.00245238,-0.00129722,0.00260673,-0.002785,-0.251006,0.00311348,0.0346069,1868,1135,-0.140626,-0.271783
651,-111,-0.175171,0.287842,0.00156511,-0.00150149,-0.00111408,0.00192711,-0.00186349,-0.314175,0.00218861,0.0345693,1875,1135,-0.175171,-0.287832
658,-111,-0.0179443,0.0913086,0.00118303,-0.000970272,-0.000785186,0.00143893,-0.00122617,-0.315055,0.00154033,0.0366768,1882,1135,-0.0179528,-0.0913548
665,-111,0.0310059,0.0557861,0.000889504,-0.000677084,-0.000520912,0.0010469,-0.000834481,-0.293433,0.00108852,0.0377069,1889,1135,0.0309797,-0.0558401
672,-111,0.00109863,-0.0537109,0.000634678,-0.000504503,-0.000325099,0.000720924,-0.000590749,-0.259321,0.000758537,0.0361333,1896,1135,0.00112397,0.0536948
679,-111,0.0245361,-0.103516,0.000461903,-0.000417057,-0.000186726,0.000499927,-0.00045508,-0.200885,0.000551576,0.035599,1903,1135,0.024539,0.10357
686,-111,-0.0449219,0.0733643,0.000340001,-0.000381646,-9.04846e-05,0.000351173,-0.000392819,-0.122853,0.000429768,0.0333656,1910,1135,-0.0449234,-0.0733919
693,-111,-0.0762939,0.0480957,0.000224866,-0.000358079,-4.82737e-05,0.000228836,-0.000362049,-0.0820651,0.000344026,0.0282569,1917,1135,-0.0762986,-0.0480494
700,-111,-0.0476074,0.0183105,9.59713e-05,-0.000299871,2.04416e-05,9.70241e-05,-0.000300924,0.0514584,0.000239598,0.0171573,1924,1135,-0.0476595,-0.018315
707,-111,-0.00463867,0.0825195,8.07766e-06,-0.000278687,2.84036e-05,1.08639e-05,-0.000281474,0.0977825,0.000191373,0.0205772,1931,1135,-0.00465809,-0.0824786
714,-111,-0.0202637,0.0462646,-4.22707e-05,-0.000266259,8.47777e-06,-4.19503e-05,-0.00026658,0.0377771,0.000165518,0.0134057,1938,1135,-0.0202093,-0.0462353
721,-111,-0.0419922,0.0389404,-5.22473e-05,-0.000259809,1.49191e-05,-5.11804e-05,-0.000260876,0.0713885,0.000159616,0.0120603,1945,1135,-0.0420051,-0.0389149
728,-111,-0.0241699,0.0390625,7.4176e-05,-0.000251993,0.000110881,0.0001083,-0.000286117,0.298553,0.000235304,0.0158322,1952,1135,-0.0241811,-0.0390411
735,-111,-0.00476074,0.0286865,0.000216078,-0.000399549,0.000127237,0.000241339,-0.00042481,0.195984,0.000389433,0.0157585,1959,1135,-0.00477188,-0.0286906
742,-111,0.00256348,0.0338135,0.0001418,-0.000704975,7.46698e-05,0.000148334,-0.000711509,0.0872839,0.000530739,0.0105724,1966,1135,0.00261049,-0.0338426
749,-111,-0.0250244,0.0667725,7.40157e-05,-0.00140552,7.62644e-05,7.79364e-05,-0.00140944,0.0513646,0.000966656,0.0142305,1973,1135,-0.0250288,-0.0668252
756,-111,-0.048584,0.0559082,5.31606e-05,-0.00220297,3.78757e-06,5.3167e-05,-0.00220298,0.00167878,0.00148669,0.016309,1980,1135,-0.0485663,-0.0559195
763,-111,-0.0372314,0.0476074,-5.9579e-05,-0.00347071,-0.00046702,3.20526e-06,-0.0035335,-0.133635,0.00235673,0.0126488,1987,1135,-0.037285,-0.0476195
770,-111,-0.052124,0.076416,-0.000173676,-0.0049721,-0.000838176,-3.14792e-05,-0.0051143,-0.16805,0.00339909,0.00936089,1994,1135,-0.0520867,-0.0764318
777,-111,-0.0545654,0.0594482,-0.000440982,-0.00687735,-0.00146073,-0.000124986,-0.00719335,-0.213045,0.00475445,0.0206715,2001,1135,-0.0545514,-0.0594247
784,-111,-0.0128174,0.0406494,-0.000856468,-0.00921447,-0.00238633,-0.000223131,-0.00984781,-0.259422,0.00649211,0.0387213,2008,1135,-0.0128433,-0.0406517
791,-111,0.0604248,0.144043,-0.00139829,-0.0120012,-0.00370216,-0.000233571,-0.0131659,-0.304801,0.00870048,0.0437015,2015,1135,0.0603863,-0.144015
798,-111,-0.133911,-0.00244141,-0.00211524,-0.0152246,-0.00550997,-0.000107004,-0.0172329,-0.34951,0.0114531,0.0472861,2022,1135,-0.133958,0.00243528
805,-111,-0.228027,-0.174561,-0.00304235,-0.0188456,-0.00798214,0.000287689,-0.0221756,-0.395234,0.0148806,0.0459215,2029,1135,-0.228016,0.17455
812,-111,-0.0767822,-0.396362,-0.00415311,-0.0227649,-0.0113843,0.00124477,-0.0281628,-0.442757,0.0192035,0.0424753,2036,1135,-0.0767908,0.396367
-700,-118,0,0,0,0,0,0,0,0,0,-1,524,1142,0,0
-693,-118,0.00732422,-0.962036,-0.0347146,0.086015,0.0412233,0.0987479,-0.0474475,1.27122,0.0861207,0.0483129,531,1142,0.00730054,0.962024
-686,-118,-0.238098,-0.65271,-0.0296548,0.06919,0.0325906,0.0789683,-0.039433,1.27931,0.0696177,0.0430866,538,1142,-0.238068,0.65277
-679,-118,1.73065,2.33167,0,0,0,0,0,0,0,-1,545,1142,1.73067,-2.33165
-672,-118,1.3385,1.7124,0,0,0,0,0,0,0,-1,552,1142,1.3385,-1.71238
-665,-118,0.707703,1.06604,0,0,0,0,0,0,0,-1,559,1142,0.707726,-1.06607
-658,-118,-0.0181885,0.792603,-0.00960217,0.0235833,0.00923868,0.0259819,-0.0120008,1.31678,0.0224191,0.040227,566,1142,-0.0181831,-0.792662
-651,-118,-0.13147,0.314087,-0.00625484,0.0168162,0.00608331,0.0183219,-0.0077606,1.32815,0.0154648,0.0367123,573,1142,-0.131445,-0.31411
-644,-118,-0.012146,-0.00158691,-0.00400326,0.011636,0.00394085,0.0125729,-0.00494017,1.33739,0.0104264,0.0254681,580,1142,-0.0121629,0.00157136
-637,-118,-0.0102539,0.0415039,-0.00179999,0.00664905,0.00182288,0.00702555,-0.00217649,1.36711,0.00555324,0.0144245,587,1142,-0.0102554,-0.0415139
-630,-118,0.00665283,0.0446777,-0.000312359,0.00362269,0.000433941,0.00366997,-0.000359644,1.46226,0.00257492,0.0165213,594,1142,0.00665394,-0.0446352
-623,-118,0.0108032,0.0341797,0.000128494,0.00212367,5.80605e-06,0.00212369,0.000128477,1.56789,0.00137497,0.013459,601,1142,0.0108164,-0.034178
-616,-118,-0.0181274,0.0262451,0.000596878,0.00139087,-0.000487877,0.00162286,0.000364882,-1.12692,0.000983117,0.0120584,608,1142,-0.0181261,-0.0261891
-609,-118,-0.0142822,0.0235596,0.000704814,0.000254195,-0.00041525,0.000951941,7.06717e-06,-0.536831,0.000632285,0.0123145,615,1142,-0.0143066,-0.0235624
-602,-118,-0.0194702,0.0294189,0.00049311,-0.000247599,-0.000232209,0.000559887,-0.000314376,-0.280015,0.000511347,0.0119683,622,1142,-0.0194614,-0.0294504
-595,-118,-0.0270996,0.0493164,0.000300718,-0.000236905,-0.000187514,0.000359658,-0.000295845,-0.304546,0.000379053,0.00975758,629,1142,-0.0271,-0.0493737
-588,-118,-0.0147095,0.071167,4.04499e-05,-0.000282178,-0.000172383,0.000115225,-0.000356953,-0.409279,0.000284271,0.0136742,636,1142,-0.0147382,-0.0711431
-581,-118,-0.0171509,0.0662842,8.52052e-05,-0.00030942,-0.00014535,0.000132962,-0.000357176,-0.31745,0.000292685,0.0321178,643,1142,-0.017177,-0.0662273
-574,-118,0.00378418,-0.0670166,0.0003357,-0.000344652,-8.60496e-05,0.000346415,-0.000355367,-0.123879,0.000405185,0.0418821,650,1142,0.00379721,0.0670555
-567,-118,0.0685425,-0.235107,0.000529597,-0.000347798,5.21009e-05,0.00053268,-0.000350881,0.0591045,0.000513711,0.0432264,657,1142,0.0685375,0.235053
-560,-118,0.0714722,-0.126953,0.000757448,-0.000298874,0.000201705,0.000794653,-0.000336079,0.182404,0.000670485,0.036079,664,1142,0.0714796,0.12701
-553,-118,0.115784,0.0106201,0.00105168,-0.000197659,0.000337428,0.00113699,-0.000282968,0.247633,0.000867832,0.0355387,671,1142,0.115796,-0.0106684
-546,-118,0.0308228,0.102173,0.00147069,-4.65678e-05,0.000427802,0.001583,-0.000158877,0.256732,0.00111208,0.0338485,678,1142,0.030852,-0.102124
-539,-118,-0.139648,0.268066,0.00206574,0.000150262,0.000423744,0.00215529,6.07076e-05,0.208275,0.00141706,0.0356081,685,1142,-0.139671,-0.268024
-532,-118,-0.247437,0.252441,0.0029107,0.000368096,0.000214618,0.00292868,0.000350108,0.0836205,0.00184685,0.0386216,692,1142,-0.247415,-0.252436
-525,-118,-0.0536499,0.0292969,0.00408079,0.000552398,-0.000372904,0.00411977,0.000513417,-0.104154,0.00259238,0.0397037,699,1142,-0.0536652,-0.0292994
-518,-118,0,0,0,0,0,0,0,0,0,-1,706,1142,0,0
-511,-118,0,0,0,0,0,0,0,0,0,-1,713,1142,0,0
-504,-118,0,0,0,0,0,0,0,0,0,-1,720,1142,0,0
-497,-118,0,0,0,0,0,0,0,0,0,-1,727,1142,0,0
-490,-118,0,0,0,0,0,0,0,0,0,-1,734,1142,0,0
-483,-118,0,0,0,0,0,0,0,0,0,-1,741,1142,0,0
-476,-118,0,0,0,0,0,0,0,0,0,-1,748,1142,0,0
-469,-118,0,0,0,0,0,0,0,0,0,-1,755,1142,0,0
-462,-118,0,0,0,0,0,0,0,0,0,-1,762,1142,0,0
-455,-118,0,0,0,0,0,0,0,0,0,-1,769,1142,0,0
-448,-118,0,0,0,0,0,0,0,0,0,-1,776,1142,0,0
-441,-118,0,0,0,0,0,0,0,0,0,-1,783,1142,0,0
-434,-118,0,0,0,0,0,0,0,0,0,-1,790,1142,0,0
-427,-118,0,0,0,0,0,0,0,0,0,-1,797,1142,0,0
-420,-118,0,0,0,0,0,0,0,0,0,-1,804,1142,0,0
-413,-118,0,0,0,0,0,0,0,0,0,-1,811,1142,0,0
-406,-118,0,0,0,0,0,0,0,0,0,-1,818,1142,0,0
-399,-118,0,0,0,0,0,0,0,0,0,-1,825,1142,0,0
-392,-118,0,0,0,0,0,0,0,0,0,-1,832,1142,0,0
-385,-118,0,0,0,0,0,0,0,0,0,-1,839,1142,0,0
-378,-118,0,0,0,0,0,0,0,0,0,-1,846,1142,0,0
-371,-118,0,0,0,0,0,0,0,0,0,-1,853,1142,0,0
-364,-118,0,0,0,0,0,0,0,0,0,-1,860,1142,0,0
-357,-118,0,0,0,0,0,0,0,0,0,-1,867,1142,0,0
-350,-118,0,0,0,0,0,0,0,0,0,-1,874,1142,0,0
-343,-118,0,0,0,0,0,0,0,0,0,-1,881,1142,0,0
-336,-118,0,0,0,0,0,0,0,0,0,-1,888,1142,0,0
-329,-118,0,0,0,0,0,0,0,0,0,-1,895,1142,0,0
-322,-118,0,0,0,0,0,0,0,0,0,-1,902,1142,0,0
-315,-118,0,0,0,0,0,0,0,0,0,-1,909,1142,0,0
-308,-118,0,0,0,0,0,0,0,0,0,-1,916,1142,0,0
-301,-118,0,0,0,0,0,0,0,0,0,-1,923,1142,0,0
-294,-118,0,0,0,0,0,0,0,0,0,-1,930,1142,0,0
-287,-118,0,0,0,0,0,0,0,0,0,-1,937,1142,0,0
-280,-118,0,0,0,0,0,0,0,0,0,-1,944,1142,0,0
-273,-118,0,0,0,0,0,0,0,0,0,-1,951,1142,0,0
-266,-118,0,0,0,0,0,0,0,0,0,-1,958,1142,0,0
-259,-118,0,0,0,0,0,0,0,0,0,-1,965,1142,0,0
-252,-118,0,0,0,0,0,0,0,0,0,-1,972,1142,0,0
-245,-118,0,0,0,0,0,0,0,0,0,-1,979,1142,0,0
-238,-118,0,0,0,0,0,0,0,0,0,-1,986,1142,0,0
-231,-118,0,0,0,0,0,0,0,0,0,-1,993,1142,0,0
-224,-118,0,0,0,0,0,0,0,0,0,-1,1000,1142,0,0
-217,-118,0,0,0,0,0,0,0,0,0,-1,1007,1142,0,0
-210,-118,0,0,0,0,0,0,0,0,0,-1,1014,1142,0,0
-203,-118,0,0,0,0,0,0,0,0,0,-1,1021,1142,0,0
-196,-118,0,0,0,0,0,0,0,0,0,-1,1028,1142,0,0
-189,-118,0,0,0,0,0,0,0,0,0,-1,1035,1142,0,0
-182,-118,0,0,0,0,0,0,0,0,0,-1,1042,1142,0,0
-175,-118,0,0,0,0,0,0,0,0,0,-1,1049,1142,0,0
-168,-118,0,0,0,0,0,0,0,0,0,-1,1056,1142,0,0
-161,-118,0,0,0,0,0,0,0,0,0,-1,1063,1142,0,0
-154,-118,0,0,0,0,0,0,0,0,0,-1,1070,1142,0,0
-147,-118,0,0,0,0,0,0,0,0,0,-1,1077,1142,0,0
-140,-118,0,0,0,0,0,0,0,0,0,-1,1084,1142,0,0
-133,-118,0,0,0,0,0,0,0,0,0,-1,1091,1142,0,0
-126,-118,0,0,0,0,0,0,0,0,0,-1,1098,1142,0,0
-119,-118,0,0,0,0,0,0,0,0,0,-1,1105,1142,0,0
-112,-118,0,0,0,0,0,0,0,0,0,-1,1112,1142,0,0
-105,-118,0,0,0,0,0,0,0,0,0,-1,1119,1142,0,0
-98,-118,0,0,0,0,0,0,0,0,0,-1,1126,1142,0,0
-91,-118,0,0,0,0,0,0,0,0,0,-1,1133,1142,0,0
-84,-118,0,0,0,0,0,0,0,0,0,-1,1140,1142,0,0
-77,-118,0,0,0,0,0,0,0,0,0,-1,1147,1142,0,0
-70,-118,0,0,0,0,0,0,0,0,0,-1,1154,1142,0,0
-63,-118,0,0,0,0,0,0,0,0,0,-1,1161,1142,0,0
-56,-118,0,0,0,0,0,0,0,0,0,-1,1168,1142,0,0
-49,-118,0,0,0,0,0,0,0,0,0,-1,1175,1142,0,0
-42,-118,0,0,0,0,0,0,0,0,0,-1,1182,1142,0,0
-35,-118,0,0,0,0,0,0,0,0,0,-1,1189,1142,0,0
-28,-118,0,0,0,0,0,0,0,0,0,-1,1196,1142,0,0
-21,-118,0,0,0,0,0,0,0,0,0,-1,1203,1142,0,0
-14,-118,0,0,0,0,0,0,0,0,0,-1,1210,1142,0,0
-7,-118,0,0,0,0,0,0,0,0,0,-1,1217,1142,0,0
0,-118,0,0,0,0,0,0,0,0,0,-1,1224,1142,0,0
7,-118,0,0,0,0,0,0,0,0,0,-1,1231,1142,0,0
14,-118,0,0,0,0,0,0,0,0,0,-1,1238,1142,0,0
21,-118,0,0,0,0,0,0,0,0,0,-1,1245,1142,0,0
28,-118,0,0,0,0,0,0,0,0,0,-1,1252,1142,0,0
35,-118,0,0,0,0,0,0,0,0,0,-1,1259,1142,0,0
42,-118,0,0,0,0,0,0,0,0,0,-1,1266,1142,0,0
49,-118,0,0,0,0,0,0,0,0,0,-1,1273,1142,0,0
56,-118,0,0,0,0,0,0,0,0,0,-1,1280,1142,0,0
63,-118,0,0,0,0,0,0,0,0,0,-1,1287,1142,0,0
70,-118,0,0,0,0,0,0,0,0,0,-1,1294,1142,0,0
77,-118,0,0,0,0,0,0,0,0,0,-1,1301,1142,0,0
84,-118,0,0,0,0,0,0,0,0,0,-1,1308,1142,0,0
91,-118,0,0,0,0,0,0,0,0,0,-1,1315,1142,0,0
98,-118,0,0,0,0,0,0,0,0,0,-1,1322,1142,0,0
105,-118,0,0,0,0,0,0,0,0,0,-1,1329,1142,0,0
112,-118,0,0,0,0,0,0,0,0,0,-1,1336,1142,0,0
119,-118,0,0,0,0,0,0,0,0,0,-1,1343,1142,0,0
126,-118,0,0,0,0,0,0,0,0,0,-1,1350,1142,0,0
133,-118,0,0,0,0,0,0,0,0,0,-1,1357,1142,0,0
140,-118,0,0,0,0,0,0,0,0,0,-1,1364,1142,0,0
147,-118,0,0,0,0,0,0,0,0,0,-1,1371,1142,0,0
154,-118,0,0,0,0,0,0,0,0,0,-1,1378,1142,0,0
161,-118,0,0,0,0,0,0,0,0,0,-1,1385,1142,0,0
168,-118,0,0,0,0,0,0,0,0,0,-1,1392,1142,0,0
175,-118,0,0,0,0,0,0,0,0,0,-1,1399,1142,0,0
182,-118,0,0,0,0,0,0,0,0,0,-1,1406,1142,0,0
189,-118,0,0,0,0,0,0,0,0,0,-1,1413,1142,0,0
196,-118,0,0,0,0,0,0,0,0,0,-1,1420,1142,0,0
203,-118,0,0,0,0,0,0,0,0,0,-1,1427,1142,0,0
210,-118,0,0,0,0,0,0,0,0,0,-1,1434,1142,0,0
217,-118,0,0,0,0,0,0,0,0,0,-1,1441,1142,0,0
224,-118,0,0,0,0,0,0,0,0,0,-1,1448,1142,0,0
231,-118,0,0,0,0,0,0,0,0,0,-1,1455,1142,0,0
238,-118,0,0,0,0,0,0,0,0,0,-1,1462,1142,0,0
245,-118,0,0,0,0,0,0,0,0,0,-1,1469,1142,0,0
252,-118,0,0,0,0,0,0,0,0,0,-1,1476,1142,0,0
259,-118,0,0,0,0,0,0,0,0,0,-1,1483,1142,0,0
266,-118,0,0,0,0,0,0,0,0,0,-1,1490,1142,0,0
273,-118,0,0,0,0,0,0,0,0,0,-1,1497,1142,0,0
280,-118,0,0,0,0,0,0,0,0,0,-1,1504,1142,0,0
287,-118,0,0,0,0,0,0,0,0,0,-1,1511,1142,0,0
294,-118,0,0,0,0,0,0,0,0,0,-1,1518,1142,0,0
301,-118,0,0,0,0,0,0,0,0,0,-1,1525,1142,0,0
308,-118,0,0,0,0,0,0,0,0,0,-1,1532,1142,0,0
315,-118,0,0,0,0,0,0,0,0,0,-1,1539,1142,0,0
322,-118,0,0,0,0,0,0,0,0,0,-1,1546,1142,0,0
329,-118,0,0,0,0,0,0,0,0,0,-1,1553,1142,0,0
336,-118,0,0,0,0,0,0,0,0,0,-1,1560,1142,0,0
343,-118,0,0,0,0,0,0,0,0,0,-1,1567,1142,0,0
350,-118,0,0,0,0,0,0,0,0,0,-1,1574,1142,0,0
357,-118,0,0,0,0,0,0,0,0,0,-1,1581,1142,0,0
364,-118,0,0,0,0,0,0,0,0,0,-1,1588,1142,0,0
371,-118,0,0,0,0,0,0,0,0,0,-1,1595,1142,0,0
378,-118,0,0,0,0,0,0,0,0,0,-1,1602,1142,0,0
385,-118,0,0,0,0,0,0,0,0,0,-1,1609,1142,0,0
392,-118,0,0,0,0,0,0,0,0,0,-1,1616,1142,0,0
399,-118,0,0,0,0,0,0,0,0,0,-1,1623,1142,0,0
406,-118,0,0,0,0,0,0,0,0,0,-1,1630,1142,0,0
413,-118,0,0,0,0,0,0,0,0,0,-1,1637,1142,0,0
420,-118,0,0,0,0,0,0,0,0,0,-1,1644,1142,0,0
427,-118,0,0,0,0,0,0,0,0,0,-1,1651,1142,0,0
434,-118,0,0,0,0,0,0,0,0,0,-1,1658,1142,0,0
441,-118,0,0,0,0,0,0,0,0,0,-1,1665,1142,0,0
448,-118,0,0,0,0,0,0,0,0,0,-1,1672,1142,0,0
455,-118,0,0,0,0,0,0,0,0,0,-1,1679,1142,0,0
462,-118,0,0,0,0,0,0,0,0,0,-1,1686,1142,0,0
469,-118,0,0,0,0,0,0,0,0,0,-1,1693,1142,0,0
476,-118,0,0,0,0,0,0,0,0,0,-1,1700,1142,0,0
483,-118,0,0,0,0,0,0,0,0,0,-1,1707,1142,0,0
490,-118,0,0,0,0,0,0,0,0,0,-1,1714,1142,0,0
497,-118,0,0,0,0,0,0,0,0,0,-1,1721,1142,0,0
504,-118,0,0,0,0,0,0,0,0,0,-1,1728,1142,0,0
511,-118,0,0,0,0,0,0,0,0,0,-1,1735,1142,0,0
518,-118,0,0,0,0,0,0,0,0,0,-1,1742,1142,0,0
525,-118,0,0,0,0,0,0,0,0,0,-1,1749,1142,0,0
532,-118,0,0,0,0,0,0,0,0,0,-1,1756,1142,0,0
539,-118,0,0,0,0,0,0,0,0,0,-1,1763,1142,0,0
546,-118,0,0,0,0,0,0,0,0,0,-1,1770,1142,0,0
553,-118,0,0,0,0,0,0,0,0,0,-1,1777,1142,0,0
560,-118,0,0,0,0,0,0,0,0,0,-1,1784,1142,0,0
567,-118,0,0,0,0,0,0,0,0,0,-1,1791,1142,0,0
574,-118,0,0,0,0,0,0,0,0,0,-1,1798,1142,0,0
581,-118,0,0,0,0,0,0,0,0,0,-1,1805,1142,0,0
588,-118,0,0,0,0,0,0,0,0,0,-1,1812,1142,0,0
595,-118,0,0,0,0,0,0,0,0,0,-1,1819,1142,0,0
602,-118,0,0,0,0,0,0,0,0,0,-1,1826,1142,0,0
609,-118,0,0,0,0,0,0,0,0,0,-1,1833,1142,0,0
616,-118,0,0,0,0,0,0,0,0,0,-1,1840,1142,0,0
623,-118,0,0,0,0,0,0,0,0,0,-1,1847,1142,0,0
630,-118,0,0,0,0,0,0,0,0,0,-1,1854,1142,0,0
637,-118,0,0,0,0,0,0,0,0,0,-1,1861,1142,0,0
644,-118,-0.079834,0.269775,0.00178704,-0.00176698,-0.00166936,0.00244818,-0.00242811,-0.377087,0.00281533,0.0371779,1868,1142,-0.0798602,-0.269758
651,-118,-0.0960693,0.213867,0.00129731,-0.00104773,-0.00138004,0.00193568,-0.0016861,-0.43326,0.00209269,0.0347684,1875,1142,-0.0961212,-0.213921
658,-118,-0.107544,0.0137939,0.00107547,-0.00074294,-0.000970489,0.00149612,-0.00116359,-0.408995,0.00153958,0.0361801,1882,1142,-0.107563,-0.013785
665,-118,-0.0587158,-0.0648193,0.000869921,-0.000615306,-0.000663569,0.0011232,-0.000868584,-0.364623,0.00115308,0.037348,1889,1142,-0.0586644,0.0648488
672,-118,-0.043335,-0.0560303,0.000664572,-0.000565477,-0.000438254,0.000804744,-0.000705649,-0.309559,0.000872651,0.0389552,1896,1142,-0.0433474,0.0559845
679,-118,-0.0269775,-0.0587158,0.00051495,-0.000565206,-0.000278653,0.000582599,-0.000632855,-0.238163,0.000701943,0.0360254,1903,1142,-0.0269292,0.0587533
686,-118,-0.0368652,-0.0258789,0.000393849,-0.000585754,-0.000171317,0.000422945,-0.00061485,-0.168234,0.000602577,0.0302304,1910,1142,-0.0368821,0.0258969
693,-118,-0.0614014,-0.00646973,0.000274251,-0.000585903,-0.000127539,0.000292763,-0.000604416,-0.144144,0.000528301,0.0258484,1917,1142,-0.0613562,0.00644343
700,-118,-0.0401611,0.027832,0.000150545,-0.000553418,-5.21447e-05,0.000154387,-0.00055726,-0.0735381,0.000432259,0.0128141,1924,1142,-0.0402066,-0.0278265
707,-118,0.03125,0.139771,4.97705e-05,-0.000531594,-3.64689e-05,5.20493e-05,-0.000533873,-0.0624037,0.000374473,0.0309173,1931,1142,0.0311968,-0.139713
714,-118,-0.00708008,0.0361328,-3.54924e-05,-0.000494615,-5.09807e-05,-2.98997e-05,-0.000500208,-0.109266,0.000323966,0.0227485,1938,1142,-0.00707501,-0.0361623
721,-118,-0.0205078,0.0400391,-7.56544e-05,-0.000451161,-3.63314e-05,-7.21715e-05,-0.000454644,-0.095572,0.000282133,0.00945791,1945,1142,-0.0204824,-0.040035
728,-118,-0.0178223,0.0483398,6.75198e-05,-0.000397347,9.49327e-05,8.61591e-05,-0.000415986,0.193876,0.00031006,0.0124215,1952,1142,-0.0178409,-0.0482857
735,-118,0.00769043,0.0440674,0.000248915,-0.000481455,0.000180524,0.000291099,-0.000523638,0.229553,0.000476732,0.0131592,1959,1142,0.00763095,-0.0440101
742,-118,0.00830078,0.0651855,0.00022065,-0.000727644,0.000224979,0.000271318,-0.000778312,0.221517,0.000629127,0.0196841,1966,1142,0.00827186,-0.0651799
749,-118,0.0134277,0.0478516,0.000214869,-0.00128422,0.000375247,0.000303553,-0.00137291,0.232076,0.00103145,0.0202953,1973,1142,0.0134405,-0.0478394
756,-118,-0.0032959,0.0419922,0.000273982,-0.00200482,0.000371882,0.000333135,-0.00206397,0.157742,0.00149941,0.0179596,1980,1142,-0.00333999,-0.0420224
763,-118,-0.0302734,0.034668,0.000260361,-0.00317301,1.82058e-05,0.000260458,-0.00317311,0.0053024,0.00220735,0.00994034,1987,1142,-0.0303134,-0.0346407
770,-118,-0.0373535,0.0649414,0.000259408,-0.00456267,-0.000229334,0.00027029,-0.00457355,-0.0474165,0.00314301,0.0105622,1994,1142,-0.0373516,-0.064977
777,-118,-0.0423584,0.128662,0.000111624,-0.00633809,-0.000751901,0.00019812,-0.00642458,-0.114533,0.0043506,0.0224809,2001,1142,-0.0423286,-0.128616
784,-118,0.0765381,0.335205,-0.000172882,-0.00853011,-0.00160871,0.000126087,-0.00882908,-0.183748,0.00592853,0.0385895,2008,1142,0.0765282,-0.335168
791,-118,0.15918,0.465942,-0.00057427,-0.011157,-0.00291257,0.000174364,-0.0119056,-0.25159,0.00799584,0.0441129,2015,1142,0.159141,-0.465962
798,-118,-0.231567,0.300171,-0.00114168,-0.0141992,-0.00480004,0.000432961,-0.0157738,-0.316986,0.0106631,0.0496174,2022,1142,-0.231566,-0.300158
805,-118,-0.0288086,0.052124,-0.00189772,-0.0176027,-0.00748861,0.00110063,-0.0206011,-0.380841,0.0141153,0.0498774,2029,1142,-0.0288447,-0.0521019
812,-118,0.193115,-0.285889,-0.00282945,-0.0212432,-0.0113105,0.00254772,-0.0266204,-0.443786,0.0186542,0.0484785,2036,1142,0.193058,0.285845
-700,-125,0,0,0,0,0,0,0,0,0,-1,524,1149,0,0
-693,-125,-0.132874,-1.30774,-0.0432836,0.0850944,0.0489305,0.101617,-0.0598066,1.24514,0.0942345,0.0459359,531,1149,-0.132846,1.30777
-686,-125,-0.510681,-0.917969,-0.0357285,0.0685033,0.0378033,0.0807703,-0.0479955,1.25702,0.0751414,0.0432548,538,1149,-0.510658,0.918027
-679,-125,1.21277,1.37817,0,0,0,0,0,0,0,-1,545,1149,1.21278,-1.37821
-672,-125,0.805115,1.04773,0,0,0,0,0,0,0,-1,552,1149,0.805106,-1.04768
-665,-125,0.297791,0.620483,-0.0168104,0.0318891,0.0154042,0.0363525,-0.0212738,1.28876,0.0336481,0.0377615,559,1149,0.297802,-0.620426
-658,-125,-0.167664,0.13501,-0.01211,0.0234376,0.0107363,0.0264286,-0.0151009,1.2991,0.0242726,0.039467,566,1149,-0.167674,-0.134992
-651,-125,-0.0884399,0.0725098,-0.00827867,0.0166654,0.00721057,0.0185998,-0.010213,1.3087,0.0168683,0.0377088,573,1149,-0.0884494,-0.0724837
-644,-125,-0.032959,0.0246582,-0.00532764,0.0114402,0.00466358,0.01265,-0.00653742,1.31698,0.0112637,0.0235465,580,1149,-0.0329891,-0.0246427
-637,-125,-0.0157471,0.026123,-0.00278841,0.00660106,0.00228934,0.0071295,-0.00331686,1.34394,0.00616365,0.0128979,587,1149,-0.0157686,-0.0261754
-630,-125,0.00482178,0.0438232,-0.00116692,0.00349646,0.000802206,0.0036306,-0.00130106,1.40512,0.00295128,0.0141334,594,1149,0.00480036,-0.04381
-623,-125,0.0112305,0.0511475,-0.0005084,0.00195709,0.000290696,0.0019909,-0.000542211,1.45501,0.00154015,0.012386,601,1149,0.0112146,-0.0510898
-616,-125,-0.0152588,0.045166,0.000136693,0.00115212,-0.000178408,0.00118255,0.00010626,-1.40184,0.000755443,0.0116235,608,1149,-0.0152407,-0.045216
-609,-125,-0.0267944,0.0384521,0.000450277,-9.11966e-05,-0.000156256,0.000492133,-0.000133053,-0.261725,0.000380279,0.0114229,615,1149,-0.0268219,-0.0385131
-602,-125,-0.0222778,0.0449219,0.000481766,-0.000723071,-8.82297e-05,0.000488192,-0.000729498,-0.0727126,0.00070762,0.0105633,622,1149,-0.0222494,-0.0449618
-595,-125,-0.0214233,0.0513916,0.000354901,-0.000728146,-8.86392e-05,0.000362108,-0.000735353,-0.081123,0.000645718,0.00909962,629,1149,-0.0214419,-0.0513934
-588,-125,-0.0164795,0.0430908,5.66145e-05,-0.000892503,-6.73578e-05,6.1371e-05,-0.000897259,-0.070498,0.000619644,0.0144319,636,1149,-0.0164833,-0.0430537
-581,-125,-0.0305176,0.0388184,7.43137e-05,-0.00102611,-1.61965e-05,7.4552e-05,-0.00102635,-0.0147142,0.000710391,0.0346153,643,1149,-0.0305384,-0.0387588
-574,-125,-0.0459595,0.0854492,0.000300739,-0.00114523,6.06169e-05,0.000303276,-0.00114776,0.0418236,0.000883786,0.0432267,650,1149,-0.0459683,-0.0854474
-567,-125,0.0488281,-0.11145,0.000457034,-0.00121003,0.000201119,0.000480954,-0.00123395,0.11838,0.00102142,0.0383121,657,1149,0.0488586,0.111481
-560,-125,0.0530396,-0.0865479,0.000622314,-0.00117732,0.000352721,0.000688976,-0.00124398,0.186792,0.00113122,0.034257,664,1149,0.0530125,0.0865878
-553,-125,0.0861206,-0.0769043,0.000829967,-0.001015,0.000482409,0.00094849,-0.00113352,0.240918,0.00120363,0.0354566,671,1149,0.0861204,0.0768992
-546,-125,0.0557251,-0.00622559,0.001141,-0.00070339,0.000556569,0.00129593,-0.000858327,0.271505,0.00125229,0.0389693,678,1149,0.055716,0.00618857
-539,-125,-0.0136719,0.171997,0.00160219,-0.000221557,0.000531189,0.00174562,-0.000364991,0.263735,0.00130257,0.0384628,685,1149,-0.0137016,-0.171972
-532,-125,-0.0888062,0.198608,0.00228504,0.00043447,0.000308647,0.00233516,0.00038435,0.160982,0.00144579,0.0361184,692,1149,-0.088794,-0.198662
-525,-125,-0.0115356,0.19519,0.00327943,0.0012479,-0.000296109,0.00332171,0.00120562,-0.141827,0.00194165,0.0393246,699,1149,-0.0115567,-0.195221
-518,-125,0,0,0,0,0,0,0,0,0,-1,706,1149,0,0
-511,-125,0,0,0,0,0,0,0,0,0,-1,713,1149,0,0
-504,-125,0,0,0,0,0,0,0,0,0,-1,720,1149,0,0
-497,-125,0,0,0,0,0,0,0,0,0,-1,727,1149,0,0
-490,-125,0,0,0,0,0,0,0,0,0,-1,734,1149,0,0
-483,-125,0,0,0,0,0,0,0,0,0,-1,741,1149,0,0
-476,-125,0,0,0,0,0,0,0,0,0,-1,748,1149,0,0
-469,-125,0,0,0,0,0,0,0,0,0,-1,755,1149,0,0
-462,-125,0,0,0,0,0,0,0,0,0,-1,762,1149,0,0
-455,-125,0,0,0,0,0,0,0,0,0,-1,769,1149,0,0
-448,-125,0,0,0,0,0,0,0,0,0,-1,776,1149,0,0
-441,-125,0,0,0,0,0,0,0,0,0,-1,783,1149,0,0
-434,-125,0,0,0,0,0,0,0,0,0,-1,790,1149,0,0
-427,-125,0,0,0,0,0,0,0,0,0,-1,797,1149,0,0
-420,-125,0,0,0,0,0,0,0,0,0,-1,804,1149,0,0
-413,-125,0,0,0,0,0,0,0,0,0,-1,811,1149,0,0
-406,-125,0,0,0,0,0,0,0,0,0,-1,818,1149,0,0
-399,-125,0,0,0,0,0,0,0,0,0,-1,825,1149,0,0
-392,-125,0,0,0,0,0,0,0,0,0,-1,832,1149,0,0
-385,-125,0,0,0,0,0,0,0,0,0,-1,839,1149,0,0
-378,-125,0,0,0,0,0,0,0,0,0,-1,846,1149,0,0
-371,-125,0,0,0,0,0,0,0,0,0,-1,853,1149,0,0
-364,-125,0,0,0,0,0,0,0,0,0,-1,860,1149,0,0
-357,-125,0,0,0,0,0,0,0,0,0,-1,867,1149,0,0
-350,-125,0,0,0,0,0,0,0,0,0,-1,874,1149,0,0
-343,-125,0,0,0,0,0,0,0,0,0,-1,881,1149,0,0
-336,-125,0,0,0,0,0,0,0,0,0,-1,888,1149,0,0
-329,-125,0,0,0,0,0,0,0,0,0,-1,895,1149,0,0
-322,-125,0,0,0,0,0,0,0,0,0,-1,902,1149,0,0
-315,-125,0,0,0,0,0,0,0,0,0,-1,909,1149,0,0
-308,-125,0,0,0,0,0,0,0,0,0,-1,916,1149,0,0
-301,-125,0,0,0,0,0,0,0,0,0,-1,923,1149,0,0
-294,-125,0,0,0,0,0,0,0,0,0,-1,930,1149,0,0
-287,-125,0,0,0,0,0,0,0,0,0,-1,937,1149,0,0
-280,-125,0,0,0,0,0,0,0,0,0,-1,944,1149,0,0
-273,-125,0,0,0,0,0,0,0,0,0,-1,951,1149,0,0
-266,-125,0,0,0,0,0,0,0,0,0,-1,958,1149,0,0
-259,-125,0,0,0,0,0,0,0,0,0,-1,965,1149,0,0
-252,-125,0,0,0,0,0,0,0,0,0,-1,972,1149,0,0
-245,-125,0,0,0,0,0,0,0,0,0,-1,979,1149,0,0
-238,-125,0,0,0,0,0,0,0,0,0,-1,986,1149,0,0
-231,-125,0,0,0,0,0,0,0,0,0,-1,993,1149,0,0
-224,-125,0,0,0,0,0,0,0,0,0,-1,1000,1149,0,0
-217,-125,0,0,0,0,0,0,0,0,0,-1,1007,1149,0,0
-210,-125,0,0,0,0,0,0,0,0,0,-1,1014,1149,0,0
-203,-125,0,0,0,0,0,0,0,0,0,-1,1021,1149,0,0
-196,-125,0,0,0,0,0,0,0,0,0,-1,1028,1149,0,0
-189,-125,0,0,0,0,0,0,0,0,0,-1,1035,1149,0,0
-182,-125,0,0,0,0,0,0,0,0,0,-1,1042,1149,0,0
-175,-125,0,0,0,0,0,0,0,0,0,-1,1049,1149,0,0
-168,-125,0,0,0,0,0,0,0,0,0,-1,1056,1149,0,0
-161,-125,0,0,0,0,0,0,0,0,0,-1,1063,1149,0,0
-154,-125,0,0,0,0,0,0,0,0,0,-1,1070,1149,0,0
-147,-125,0,0,0,0,0,0,0,0,0,-1,1077,1149,0,0
-140,-125,0,0,0,0,0,0,0,0,0,-1,1084,1149,0,0
-133,-125,0,0,0,0,0,0,0,0,0,-1,1091,1149,0,0
-126,-125,0,0,0,0,0,0,0,0,0,-1,1098,1149,0,0
-119,-125,0,0,0,0,0,0,0,0,0,-1,1105,1149,0,0
-112,-125,0,0,0,0,0,0,0,0,0,-1,1112,1149,0,0
-105,-125,0,0,0,0,0,0,0,0,0,-1,1119,1149,0,0
-98,-125,0,0,0,0,0,0,0,0,0,-1,1126,1149,0,0
-91,-125,0,0,0,0,0,0,0,0,0,-1,1133,1149,0,0
-84,-125,0,0,0,0,0,0,0,0,0,-1,1140,1149,0,0
-77,-125,0,0,0,0,0,0,0,0,0,-1,1147,1149,0,0
-70,-125,0,0,0,0,0,0,0,0,0,-1,1154,1149,0,0
-63,-125,0,0,0,0,0,0,0,0,0,-1,1161,1149,0,0
-56,-125,0,0,0,0,0,0,0,0,0,-1,1168,1149,0,0
-49,-125,0,0,0,0,0,0,0,0,0,-1,1175,1149,0,0
-42,-125,0,0,0,0,0,0,0,0,0,-1,1182,1149,0,0
-35,-125,0,0,0,0,0,0,0,0,0,-1,1189,1149,0,0
-28,-125,0,0,0,0,0,0,0,0,0,-1,1196,1149,0,0
-21,-125,0,0,0,0,0,0,0,0,0,-1,1203,1149,0,0
-14,-125,0,0,0,0,0,0,0,0,0,-1,1210,1149,0,0
-7,-125,0,0,0,0,0,0,0,0,0,-1,1217,1149,0,0
0,-125,0,0,0,0,0,0,0,0,0,-1,1224,1149,0,0
7,-125,0,0,0,0,0,0,0,0,0,-1,1231,1149,0,0
14,-125,0,0,0,0,0,0,0,0,0,-1,1238,1149,0,0
21,-125,0,0,0,0,0,0,0,0,0,-1,1245,1149,0,0
28,-125,0,0,0,0,0,0,0,0,0,-1,1252,1149,0,0
35,-125,0,0,0,0,0,0,0,0,0,-1,1259,1149,0,0
42,-125,0,0,0,0,0,0,0,0,0,-1,1266,1149,0,0
49,-125,0,0,0,0,0,0,0,0,0,-1,1273,1149,0,0
56,-125,0,0,0,0,0,0,0,0,0,-1,1280,1149,0,0
63,-125,0,0,0,0,0,0,0,0,0,-1,1287,1149,0,0
70,-125,0,0,0,0,0,0,0,0,0,-1,1294,1149,0,0
77,-125,0,0,0,0,0,0,0,0,0,-1,1301,1149,0,0
84,-125,0,0,0,0,0,0,0,0,0,-1,1308,1149,0,0
91,-125,0,0,0,0,0,0,0,0,0,-1,1315,1149,0,0
98,-125,0,0,0,0,0,0,0,0,0,-1,1322,1149,0,0
105,-125,0,0,0,0,0,0,0,0,0,-1,1329,1149,0,0
112,-125,0,0,0,0,0,0,0,0,0,-1,1336,1149,0,0
119,-125,0,0,0,0,0,0,0,0,0,-1,1343,1149,0,0
126,-125,0,0,0,0,0,0,0,0,0,-1,1350,1149,0,0
133,-125,0,0,0,0,0,0,0,0,0,-1,1357,1149,0,0
140,-125,0,0,0,0,0,0,0,0,0,-1,1364,1149,0,0
147,-125,0,0,0,0,0,0,0,0,0,-1,1371,1149,0,0
154,-125,0,0,0,0,0,0,0,0,0,-1,1378,1149,0,0
161,-125,0,0,0,0,0,0,0,0,0,-1,1385,1149,0,0
168,-125,0,0,0,0,0,0,0,0,0,-1,1392,1149,0,0
175,-125,0,0,0,0,0,0,0,0,0,-1,1399,1149,0,0
182,-125,0,0,0,0,0,0,0,0,0,-1,1406,1149,0,0
189,-125,0,0,0,0,0,0,0,0,0,-1,1413,1149,0,0
196,-125,0,0,0,0,0,0,0,0,0,-1,1420,1149,0,0
203,-125,0,0,0,0,0,0,0,0,0,-1,1427,1149,0,0
210,-125,0,0,0,0,0,0,0,0,0,-1,1434,1149,0,0
217,-125,0,0,0,0,0,0,0,0,0,-1,1441,1149,0,0
224,-125,0,0,0,0,0,0,0,0,0,-1,1448,1149,0,0
231,-125,0,0,0,0,0,0,0,0,0,-1,1455,1149,0,0
238,-125,0,0,0,0,0,0,0,0,0,-1,1462,1149,0,0
245,-125,0,0,0,0,0,0,0,0,0,-1,1469,1149,0,0
252,-125,0,0,0,0,0,0,0,0,0,-1,1476,1149,0,0
259,-125,0,0,0,0,0,0,0,0,0,-1,1483,1149,0,0
266,-125,0,0,0,0,0,0,0,0,0,-1,1490,1149,0,0
273,-125,0,0,0,0,0,0,0,0,0,-1,1497,1149,0,0
280,-125,0,0,0,0,0,0,0,0,0,-1,1504,1149,0,0
287,-125,0,0,0,0,0,0,0,0,0,-1,1511,1149,0,0
294,-125,0,0,0,0,0,0,0,0,0,-1,1518,1149,0,0
301,-125,0,0,0,0,0,0,0,0,0,-1,1525,1149,0,0
308,-125,0,0,0,0,0,0,0,0,0,-1,1532,1149,0,0
315,-125,0,0,0,0,0,0,0,0,0,-1,1539,1149,0,0
322,-125,0,0,0,0,0,0,0,0,0,-1,1546,1149,0,0
329,-125,0,0,0,0,0,0,0,0,0,-1,1553,1149,0,0
336,-125,0,0,0,0,0,0,0,0,0,-1,1560,1149,0,0
343,-125,0,0,0,0,0,0,0,0,0,-1,1567,1149,0,0
350,-125,0,0,0,0,0,0,0,0,0,-1,1574,1149,0,0
357,-125,0,0,0,0,0,0,0,0,0,-1,1581,1149,0,0
364,-125,0,0,0,0,0,0,0,0,0,-1,1588,1149,0,0
371,-125,0,0,0,0,0,0,0,0,0,-1,1595,1149,0,0
378,-125,0,0,0,0,0,0,0,0,0,-1,1602,1149,0,0
385,-125,0,0,0,0,0,0,0,0,0,-1,1609,1149,0,0
392,-125,0,0,0,0,0,0,0,0,0,-1,1616,1149,0,0
399,-125,0,0,0,0,0,0,0,0,0,-1,1623,1149,0,0
406,-125,0,0,0,0,0,0,0,0,0,-1,1630,1149,0,0
413,-125,0,0,0,0,0,0,0,0,0,-1,1637,1149,0,0
420,-125,0,0,0,0,0,0,0,0,0,-1,1644,1149,0,0
427,-125,0,0,0,0,0,0,0,0,0,-1,1651,1149,0,0
434,-125,0,0,0,0,0,0,0,0,0,-1,1658,1149,0,0
441,-125,0,0,0,0,0,0,0,0,0,-1,1665,1149,0,0
448,-125,0,0,0,0,0,0,0,0,0,-1,1672,1149,0,0
455,-125,0,0,0,0,0,0,0,0,0,-1,1679,1149,0,0
462,-125,0,0,0,0,0,0,0,0,0,-1,1686,1149,0,0
469,-125,0,0,0,0,0,0,0,0,0,-1,1693,1149,0,0
476,-125,0,0,0,0,0,0,0,0,0,-1,1700,1149,0,0
483,-125,0,0,0,0,0,0,0,0,0,-1,1707,1149,0,0
490,-125,0,0,0,0,0,0,0,0,0,-1,1714,1149,0,0
497,-125,0,0,0,0,0,0,0,0,0,-1,1721,1149,0,0
504,-125,0,0,0,0,0,0,0,0,0,-1,1728,1149,0,0
511,-125,0,0,0,0,0,0,0,0,0,-1,1735,1149,0,0
518,-125,0,0,0,0,0,0,0,0,0,-1,1742,1149,0,0
525,-125,0,0,0,0,0,0,0,0,0,-1,1749,1149,0,0
532,-125,0,0,0,0,0,0,0,0,0,-1,1756,1149,0,0
539,-125,0,0,0,0,0,0,0,0,0,-1,1763,1149,0,0
546,-125,0,0,0,0,0,0,0,0,0,-1,1770,1149,0,0
553,-125,0,0,0,0,0,0,0,0,0,-1,1777,1149,0,0
560,-125,0,0,0,0,0,0,0,0,0,-1,1784,1149,0,0
567,-125,0,0,0,0,0,0,0,0,0,-1,1791,1149,0,0
574,-125,0,0,0,0,0,0,0,0,0,-1,1798,1149,0,0
581,-125,0,0,0,0,0,0,0,0,0,-1,1805,1149,0,0
588,-125,0,0,0,0,0,0,0,0,0,-1,1812,1149,0,0
595,-125,0,0,0,0,0,0,0,0,0,-1,1819,1149,0,0
602,-125,0,0,0,0,0,0,0,0,0,-1,1826,1149,0,0
609,-125,0,0,0,0,0,0,0,0,0,-1,1833,1149,0,0
616,-125,0,0,0,0,0,0,0,0,0,-1,1840,1149,0,0
623,-125,0,0,0,0,0,0,0,0,0,-1,1847,1149,0,0
630,-125,0,0,0,0,0,0,0,0,0,-1,1854,1149,0,0
637,-125,0,0,0,0,0,0,0,0,0,-1,1861,1149,0,0
644,-125,-0.00378418,0.0350342,0.00101417,-0.00106674,-0.00199614,0.00222474,-0.00227732,-0.545153,0.00259932,0.0371542,1868,1149,-0.00377756,-0.0350781
651,-125,0.0770264,-0.0447998,0.000788896,-0.000653217,-0.00161891,0.00184006,-0.00170439,-0.575888,0.00204689,0.0352037,1875,1149,0.0770219,0.044856
658,-125,-0.0612793,-0.0332031,0.000740991,-0.000601366,-0.00116862,0.00141746,-0.00127784,-0.524732,0.00155683,0.0367395,1882,1149,-0.0612775,0.0332502
665,-125,-0.161011,-0.179077,0.000631648,-0.00065682,-0.000859128,0.00106126,-0.00108643,-0.463689,0.00124,0.0407128,1889,1149,-0.161042,0.179096
672,-125,-0.0732422,-0.264404,0.000485406,-0.000740218,-0.000636884,0.000756427,-0.00101124,-0.402329,0.00102409,0.0410363,1896,1149,-0.073234,0.264456
679,-125,-0.0847168,-0.146362,0.000367844,-0.000828115,-0.000481339,0.000537502,-0.000997773,-0.338873,0.000899571,0.0346747,1903,1149,-0.0847279,0.146355
686,-125,-0.0866699,-0.0974121,0.000256612,-0.000897658,-0.000379996,0.000370477,-0.00101152,-0.291135,0.000826016,0.031436,1910,1149,-0.086678,0.0973838
693,-125,-0.0822754,-0.0588379,0.000142381,-0.00091272,-0.000343568,0.000244392,-0.00101473,-0.288627,0.000770973,0.0241906,1917,1149,-0.0822325,0.0588442
700,-125,-0.0211182,0.0827637,3.90734e-05,-0.000892374,-0.000264803,0.000109091,-0.000962393,-0.2585,0.000680878,0.00918351,1924,1149,-0.0211715,-0.082793
707,-125,0.0571289,0.157104,-5.16864e-05,-0.000854601,-0.000233993,1.15291e-05,-0.000917817,-0.26386,0.000615757,0.0366231,1931,1149,0.0571825,-0.157159
714,-125,-0.0267334,0.0484619,-0.000147474,-0.00077913,-0.000233774,-7.03672e-05,-0.000856236,-0.318597,0.000548874,0.0288327,1938,1149,-0.0267451,-0.0485091
721,-125,-0.0490723,0.0374756,-0.000203087,-0.000681146,-0.000202473,-0.000128859,-0.000755374,-0.351392,0.000466599,0.0152242,1945,1149,-0.0490582,-0.0374395
728,-125,-0.0280762,0.0374756,-4.0054e-05,-0.00055045,-2.33768e-05,-3.89855e-05,-0.000551519,-0.0456739,0.000355398,0.0105571,1952,1149,-0.028061,-0.0374731
735,-125,-0.0219727,0.0473633,0.000170717,-0.000515461,0.000151144,0.000202534,-0.000547278,0.207479,0.000447896,0.0139823,1959,1149,-0.022023,-0.0473632
742,-125,-0.0345459,0.0577393,0.000188447,-0.000624782,0.000308169,0.000292031,-0.000728367,0.324266,0.000606816,0.0220999,1966,1149,-0.03452,-0.0577865
749,-125,-0.0233154,0.0407715,0.000271148,-0.000888001,0.000612722,0.00053498,-0.00115183,0.406596,0.000995352,0.0249109,1973,1149,-0.0233096,-0.0407182
756,-125,0.00402832,0.0435791,0.000451276,-0.00129781,0.000687898,0.000689401,-0.00153594,0.333252,0.00131542,0.0203342,1980,1149,0.00398557,-0.0436274
763,-125,-0.0234375,0.0473633,0.000578012,-0.00214835,0.000479576,0.000659911,-0.00223025,0.169142,0.00174881,0.0110375,1987,1149,-0.0233888,-0.0474101
770,-125,-0.0178223,0.0452881,0.000732163,-0.00312406,0.00036642,0.000766671,-0.00315857,0.0939007,0.0024024,0.0123282,1994,1149,-0.0177778,-0.0452607
777,-125,-0.019165,0.0756836,0.000777962,-0.00438674,-3.58824e-05,0.000778212,-0.00438699,-0.00694717,0.00321561,0.0232831,2001,1149,-0.0191125,-0.075646
784,-125,-0.0305176,0.103882,0.000740971,-0.00596034,-0.000791438,0.000833172,-0.00605254,-0.115976,0.0043395,0.040385,2008,1149,-0.0305119,-0.103842
791,-125,-0.0252686,0.105591,0.00065013,-0.00785107,-0.00203391,0.00111168,-0.00831263,-0.22315,0.00594705,0.0447778,2015,1149,-0.0253031,-0.105539
798,-125,-0.259766,0.384766,0.000471831,-0.0100218,-0.00392769,0.00177908,-0.011329,-0.321298,0.00821023,0.0471263,2022,1149,-0.259752,-0.384822
805,-125,0.152466,0.354614,0.000216731,-0.0123899,-0.00671961,0.00312671,-0.0152999,-0.408676,0.0113862,0.0482463,2029,1149,0.152478,-0.354591
812,-125,0.262939,0.364014,-8.459e-05,-0.0147907,-0.0107792,0.00561065,-0.0204859,-0.486074,0.0158618,0.0489727,2036,1149,0.262915,-0.364
-700,-132,0,0,0,0,0,0,0,0,0,-1,524,1156,0,0
-693,-132,-0.809021,-1.69324,-0.0394475,0.0847356,0.0484135,0.101379,-0.0560911,1.23967,0.0921603,0.0451532,531,1156,-0.809024,1.69322
-686,-132,-0.96637,-1.14795,-0.0332255,0.0691868,0.0372271,0.0812888,-0.0453275,1.25649,0.0740783,0.04809,538,1156,-0.966386,1.148
-679,-132,-1.12128,-0.584839,0,0,0,0,0,0,0,-1,545,1156,-1.12125,0.584798
-672,-132,0.35498,0.361206,0,0,0,0,0,0,0,-1,552,1156,0.354987,-0.361173
-665,-132,0.0314331,-0.102539,-0.0166312,0.0335348,0.0150573,0.0377072,-0.0208036,1.30048,0.0342479,0.0402644,559,1156,0.0314538,0.102504
-658,-132,-0.171509,-0.42688,-0.0123135,0.0249892,0.010484,0.0277339,-0.0150582,1.31475,0.0250647,0.0417356,566,1156,-0.171513,0.426899
-651,-132,-0.231812,-0.299438,-0.0086917,0.0180091,0.00702914,0.0197465,-0.0104291,1.32848,0.0176966,0.0393057,573,1156,-0.231841,0.299379
-644,-132,-0.0645752,0.0529785,-0.00581177,0.0125184,0.00453114,0.0135773,-0.00687068,1.34122,0.0120154,0.0214648,580,1156,-0.0645514,-0.0529187
-637,-132,-0.0160522,0.0441895,-0.00329277,0.00756066,0.00221654,0.00799588,-0.00372799,1.37691,0.00691666,0.0111167,587,1156,-0.0160262,-0.0441536
-630,-132,0.00152588,0.0529785,-0.00166125,0.00420675,0.000750998,0.00430134,-0.00175584,1.4455,0.00359858,0.00956768,594,1156,0.00152268,-0.0529599
-623,-132,-0.0233765,0.0755615,-0.000907094,0.00235093,0.000245864,0.00236938,-0.000925543,1.4959,0.00196226,0.015368,601,1156,-0.0233795,-0.0756073
-616,-132,-0.0455933,0.0777588,-0.000188611,0.00121486,-0.000120302,0.0012251,-0.000198849,-1.4859,0.000890446,0.019293,608,1156,-0.0455955,-0.0777197
-609,-132,-0.0386353,0.055542,0.000242273,-0.000212532,-6.46276e-05,0.000251278,-0.000221537,-0.138449,0.00027316,0.0112209,615,1156,-0.0386154,-0.0555415
-602,-132,-0.026001,0.0411377,0.000447042,-0.00107368,-3.87243e-05,0.000448027,-0.00107466,-0.0254425,0.0009036,0.0098624,622,1156,-0.0260255,-0.041089
-595,-132,-0.0115356,0.0443115,0.000364551,-0.00120699,-2.07513e-05,0.000364825,-0.00120726,-0.0132014,0.000950093,0.0097733,629,1156,-0.0115516,-0.0442947
-588,-132,-0.0238037,0.0401611,3.33552e-05,-0.00153485,5.04965e-05,3.49795e-05,-0.00153647,0.0321559,0.00103617,0.0148311,636,1156,-0.023779,-0.0401698
-581,-132,-0.0228271,0.0147705,2.81488e-05,-0.00178257,0.000118727,3.59004e-05,-0.00179032,0.0651971,0.00120569,0.0349667,643,1156,-0.0228155,-0.0147766
-574,-132,-0.0539551,0.161865,0.00024899,-0.00198948,0.000195531,0.000265941,-0.00200643,0.0864777,0.00143451,0.0430323,650,1156,-0.0539739,-0.161884
-567,-132,0.0172729,0.0150146,0.000408351,-0.00213171,0.000316805,0.000447268,-0.00217062,0.122229,0.00161692,0.0369255,657,1156,0.0172808,-0.0150113
-560,-132,-0.0221558,-0.0162354,0.00056375,-0.00213764,0.000437515,0.000632842,-0.00220673,0.156627,0.00172133,0.0326031,664,1156,-0.0221475,0.0162275
-553,-132,-0.0504761,-0.0704346,0.000754353,-0.00194852,0.000520652,0.000851178,-0.00204534,0.183867,0.00171903,0.0360589,671,1156,-0.0504467,0.0704082
-546,-132,-0.00860596,-0.0700684,0.00103659,-0.00152461,0.000533718,0.00114336,-0.00163138,0.19744,0.00161023,0.0405401,678,1156,-0.00860552,0.07009
-539,-132,0.0997314,-0.083374,0.0014465,-0.000826208,0.000441461,0.00152924,-0.000908947,0.185272,0.00142279,0.0397987,685,1156,0.0997336,0.0834237
-532,-132,0.0549927,-0.0513916,0.00204551,0.000174876,0.000168773,0.00206062,0.000159771,0.0892617,0.00132371,0.0370909,692,1156,0.0549768,0.0513428
-525,-132,0.000854492,0.101196,0.00292767,0.00148713,-0.000463868,0.00306412,0.00135069,-0.28608,0.0017732,0.0378194,699,1156,0.000830669,-0.101139
-518,-132,0,0,0,0,0,0,0,0,0,-1,706,1156,0,0
-511,-132,0,0,0,0,0,0,0,0,0,-1,713,1156,0,0
-504,-132,0,0,0,0,0,0,0,0,0,-1,720,1156,0,0
-497,-132,0,0,0,0,0,0,0,0,0,-1,727,1156,0,0
-490,-132,0,0,0,0,0,0,0,0,0,-1,734,1156,0,0
-483,-132,0,0,0,0,0,0,0,0,0,-1,741,1156,0,0
-476,-132,0,0,0,0,0,0,0,0,0,-1,748,1156,0,0
-469,-132,0,0,0,0,0,0,0,0,0,-1,755,1156,0,0
-462,-132,0,0,0,0,0,0,0,0,0,-1,762,1156,0,0
-455,-132,0,0,0,0,0,0,0,0,0,-1,769,1156,0,0
-448,-132,0,0,0,0,0,0,0,0,0,-1,776,1156,0,0
-441,-132,0,0,0,0,0,0,0,0,0,-1,783,1156,0,0
-434,-132,0,0,0,0,0,0,0,0,0,-1,790,1156,0,0
-427,-132,0,0,0,0,0,0,0,0,0,-1,797,1156,0,0
-420,-132,0,0,0,0,0,0,0,0,0,-1,804,1156,0,0
-413,-132,0,0,0,0,0,0,0,0,0,-1,811,1156,0,0
-406,-132,0,0,0,0,0,0,0,0,0,-1,818,1156,0,0
-399,-132,0,0,0,0,0,0,0,0,0,-1,825,1156,0,0
-392,-132,0,0,0,0,0,0,0,0,0,-1,832,1156,0,0
-385,-132,0,0,0,0,0,0,0,0,0,-1,839,1156,0,0
-378,-132,0,0,0,0,0,0,0,0,0,-1,846,1156,0,0
-371,-132,0,0,0,0,0,0,0,0,0,-1,853,1156,0,0
-364,-132,0,0,0,0,0,0,0,0,0,-1,860,1156,0,0
-357,-132,0,0,0,0,0,0,0,0,0,-1,867,1156,0,0
-350,-132,0,0,0,0,0,0,0,0,0,-1,874,1156,0,0
-343,-132,0,0,0,0,0,0,0,0,0,-1,881,1156,0,0
-336,-132,0,0,0,0,0,0,0,0,0,-1,888,1156,0,0
-329,-132,0,0,0,0,0,0,0,0,0,-1,895,1156,0,0
-322,-132,0,0,0,0,0,0,0,0,0,-1,902,1156,0,0
-315,-132,0,0,0,0,0,0,0,0,0,-1,909,1156,0,0
-308,-132,0,0,0,0,0,0,0,0,0,-1,916,1156,0,0
-301,-132,0,0,0,0,0,0,0,0,0,-1,923,1156,0,0
-294,-132,0,0,0,0,0,0,0,0,0,-1,930,1156,0,0
-287,-132,0,0,0,0,0,0,0,0,0,-1,937,1156,0,0
-280,-132,0,0,0,0,0,0,0,0,0,-1,944,1156,0,0
-273,-132,0,0,0,0,0,0,0,0,0,-1,951,1156,0,0
-266,-132,0,0,0,0,0,0,0,0,0,-1,958,1156,0,0
-259,-132,0,0,0,0,0,0,0,0,0,-1,965,1156,0,0
-252,-132,0,0,0,0,0,0,0,0,0,-1,972,1156,0,0
-245,-132,0,0,0,0,0,0,0,0,0,-1,979,1156,0,0
-238,-132,0,0,0,0,0,0,0,0,0,-1,986,1156,0,0
-231,-132,0,0,0,0,0,0,0,0,0,-1,993,1156,0,0
-224,-132,0,0,0,0,0,0,0,0,0,-1,1000,1156,0,0
-217,-132,0,0,0,0,0,0,0,0,0,-1,1007,1156,0,0
-210,-132,0,0,0,0,0,0,0,0,0,-1,1014,1156,0,0
-203,-132,0,0,0,0,0,0,0,0,0,-1,1021,1156,0,0
-196,-132,0,0,0,0,0,0,0,0,0,-1,1028,1156,0,0
-189,-132,0,0,0,0,0,0,0,0,0,-1,1035,1156,0,0
-182,-132,0,0,0,0,0,0,0,0,0,-1,1042,1156,0,0
-175,-132,0,0,0,0,0,0,0,0,0,-1,1049,1156,0,0
-168,-132,0,0,0,0,0,0,0,0,0,-1,1056,1156,0,0
-161,-132,0,0,0,0,0,0,0,0,0,-1,1063,1156,0,0
-154,-132,0,0,0,0,0,0,0,0,0,-1,1070,1156,0,0
-147,-132,0,0,0,0,0,0,0,0,0,-1,1077,1156,0,0
-140,-132,0,0,0,0,0,0,0,0,0,-1,1084,1156,0,0
-133,-132,0,0,0,0,0,0,0,0,0,-1,1091,1156,0,0
-126,-132,0,0,0,0,0,0,0,0,0,-1,1098,1156,0,0
-119,-132,0,0,0,0,0,0,0,0,0,-1,1105,1156,0,0
-112,-132,0,0,0,0,0,0,0,0,0,-1,1112,1156,0,0
-105,-132,0,0,0,0,0,0,0,0,0,-1,1119,1156,0,0
-98,-132,0,0,0,0,0,0,0,0,0,-1,1126,1156,0,0
-91,-132,0,0,0,0,0,0,0,0,0,-1,1133,1156,0,0
-84,-132,0,0,0,0,0,0,0,0,0,-1,1140,1156,0,0
-77,-132,0,0,0,0,0,0,0,0,0,-1,1147,1156,0,0
-70,-132,0,0,0,0,0,0,0,0,0,-1,1154,1156,0,0
-63,-132,0,0,0,0,0,0,0,0,0,-1,1161,1156,0,0
-56,-132,0,0,0,0,0,0,0,0,0,-1,1168,1156,0,0
-49,-132,0,0,0,0,0,0,0,0,0,-1,1175,1156,0,0
-42,-132,0,0,0,0,0,0,0,0,0,-1,1182,1156,0,0
-35,-132,0,0,0,0,0,0,0,0,0,-1,1189,1156,0,0
-28,-132,0,0,0,0,0,0,0,0,0,-1,1196,1156,0,0
-21,-132,0,0,0,0,0,0,0,0,0,-1,1203,1156,0,0
-14,-132,0,0,0,0,0,0,0,0,0,-1,1210,1156,0,0
-7,-132,0,0,0,0,0,0,0,0,0,-1,1217,1156,0,0
0,-132,0,0,0,0,0,0,0,0,0,-1,1224,1156,0,0
7,-132,0,0,0,0,0,0,0,0,0,-1,1231,1156,0,0
14,-132,0,0,0,0,0,0,0,0,0,-1,1238,1156,0,0
21,-132,0,0,0,0,0,0,0,0,0,-1,1245,1156,0,0
28,-132,0,0,0,0,0,0,0,0,0,-1,1252,1156,0,0
35,-132,0,0,0,0,0,0,0,0,0,-1,1259,1156,0,0
42,-132,0,0,0,0,0,0,0,0,0,-1,1266,1156,0,0
49,-132,0,0,0,0,0,0,0,0,0,-1,1273,1156,0,0
56,-132,0,0,0,0,0,0,0,0,0,-1,1280,1156,0,0
63,-132,0,0,0,0,0,0,0,0,0,-1,1287,1156,0,0
70,-132,0,0,0,0,0,0,0,0,0,-1,1294,1156,0,0
77,-132,0,0,0,0,0,0,0,0,0,-1,1301,1156,0,0
84,-132,0,0,0,0,0,0,0,0,0,-1,1308,1156,0,0
91,-132,0,0,0,0,0,0,0,0,0,-1,1315,1156,0,0
98,-132,0,0,0,0,0,0,0,0,0,-1,1322,1156,0,0
105,-132,0,0,0,0,0,0,0,0,0,-1,1329,1156,0,0
112,-132,0,0,0,0,0,0,0,0,0,-1,1336,1156,0,0
119,-132,0,0,0,0,0,0,0,0,0,-1,1343,1156,0,0
126,-132,0,0,0,0,0,0,0,0,0,-1,1350,1156,0,0
133,-132,0,0,0,0,0,0,0,0,0,-1,1357,1156,0,0
140,-132,0,0,0,0,0,0,0,0,0,-1,1364,1156,0,0
147,-132,0,0,0,0,0,0,0,0,0,-1,1371,1156,0,0
154,-132,0,0,0,0,0,0,0,0,0,-1,1378,1156,0,0
161,-132,0,0,0,0,0,0,0,0,0,-1,1385,1156,0,0
168,-132,0,0,0,0,0,0,0,0,0,-1,1392,1156,0,0
175,-132,0,0,0,0,0,0,0,0,0,-1,1399,1156,0,0
182,-132,0,0,0,0,0,0,0,0,0,-1,1406,1156,0,0
189,-132,0,0,0,0,0,0,0,0,0,-1,1413,1156,0,0
196,-132,0,0,0,0,0,0,0,0,0,-1,1420,1156,0,0
203,-132,0,0,0,0,0,0,0,0,0,-1,1427,1156,0,0
210,-132,0,0,0,0,0,0,0,0,0,-1,1434,1156,0,0
217,-132,0,0,0,0,0,0,0,0,0,-1,1441,1156,0,0
224,-132,0,0,0,0,0,0,0,0,0,-1,1448,1156,0,0
231,-132,0,0,0,0,0,0,0,0,0,-1,1455,1156,0,0
238,-132,0,0,0,0,0,0,0,0,0,-1,1462,1156,0,0
245,-132,0,0,0,0,0,0,0,0,0,-1,1469,1156,0,0
252,-132,0,0,0,0,0,0,0,0,0,-1,1476,1156,0,0
259,-132,0,0,0,0,0,0,0,0,0,-1,1483,1156,0,0
266,-132,0,0,0,0,0,0,0,0,0,-1,1490,1156,0,0
273,-132,0,0,0,0,0,0,0,0,0,-1,1497,1156,0,0
280,-132,0,0,0,0,0,0,0,0,0,-1,1504,1156,0,0
287,-132,0,0,0,0,0,0,0,0,0,-1,1511,1156,0,0
294,-132,0,0,0,0,0,0,0,0,0,-1,1518,1156,0,0
301,-132,0,0,0,0,0,0,0,0,0,-1,1525,1156,0,0
308,-132,0,0,0,0,0,0,0,0,0,-1,1532,1156,0,0
315,-132,0,0,0,0,0,0,0,0,0,-1,1539,1156,0,0
322,-132,0,0,0,0,0,0,0,0,0,-1,1546,1156,0,0
329,-132,0,0,0,0,0,0,0,0,0,-1,1553,1156,0,0
336,-132,0,0,0,0,0,0,0,0,0,-1,1560,1156,0,0
343,-132,0,0,0,0,0,0,0,0,0,-1,1567,1156,0,0
350,-132,0,0,0,0,0,0,0,0,0,-1,1574,1156,0,0
357,-132,0,0,0,0,0,0,0,0,0,-1,1581,1156,0,0
364,-132,0,0,0,0,0,0,0,0,0,-1,1588,1156,0,0
371,-132,0,0,0,0,0,0,0,0,0,-1,1595,1156,0,0
378,-132,0,0,0,0,0,0,0,0,0,-1,1602,1156,0,0
385,-132,0,0,0,0,0,0,0,0,0,-1,1609,1156,0,0
392,-132,0,0,0,0,0,0,0,0,0,-1,1616,1156,0,0
399,-132,0,0,0,0,0,0,0,0,0,-1,1623,1156,0,0
406,-132,0,0,0,0,0,0,0,0,0,-1,1630,1156,0,0
413,-132,0,0,0,0,0,0,0,0,0,-1,1637,1156,0,0
420,-132,0,0,0,0,0,0,0,0,0,-1,1644,1156,0,0
427,-132,0,0,0,0,0,0,0,0,0,-1,1651,1156,0,0
434,-132,0,0,0,0,0,0,0,0,0,-1,1658,1156,0,0
441,-132,0,0,0,0,0,0,0,0,0,-1,1665,1156,0,0
448,-132,0,0,0,0,0,0,0,0,0,-1,1672,1156,0,0
455,-132,0,0,0,0,0,0,0,0,0,-1,1679,1156,0,0
462,-132,0,0,0,0,0,0,0,0,0,-1,1686,1156,0,0
469,-132,0,0,0,0,0,0,0,0,0,-1,1693,1156,0,0
476,-132,0,0,0,0,0,0,0,0,0,-1,1700,1156,0,0
483,-132,0,0,0,0,0,0,0,0,0,-1,1707,1156,0,0
490,-132,0,0,0,0,0,0,0,0,0,-1,1714,1156,0,0
497,-132,0,0,0,0,0,0,0,0,0,-1,1721,1156,0,0
504,-132,0,0,0,0,0,0,0,0,0,-1,1728,1156,0,0
511,-132,0,0,0,0,0,0,0,0,0,-1,1735,1156,0,0
518,-132,0,0,0,0,0,0,0,0,0,-1,1742,1156,0,0
525,-132,0,0,0,0,0,0,0,0,0,-1,1749,1156,0,0
532,-132,0,0,0,0,0,0,0,0,0,-1,1756,1156,0,0
539,-132,0,0,0,0,0,0,0,0,0,-1,1763,1156,0,0
546,-132,0,0,0,0,0,0,0,0,0,-1,1770,1156,0,0
553,-132,0,0,0,0,0,0,0,0,0,-1,1777,1156,0,0
560,-132,0,0,0,0,0,0,0,0,0,-1,1784,1156,0,0
567,-132,0,0,0,0,0,0,0,0,0,-1,1791,1156,0,0
574,-132,0,0,0,0,0,0,0,0,0,-1,1798,1156,0,0
581,-132,0,0,0,0,0,0,0,0,0,-1,1805,1156,0,0
588,-132,0,0,0,0,0,0,0,0,0,-1,1812,1156,0,0
595,-132,0,0,0,0,0,0,0,0,0,-1,1819,1156,0,0
602,-132,0,0,0,0,0,0,0,0,0,-1,1826,1156,0,0
609,-132,0,0,0,0,0,0,0,0,0,-1,1833,1156,0,0
616,-132,0,0,0,0,0,0,0,0,0,-1,1840,1156,0,0
623,-132,0,0,0,0,0,0,0,0,0,-1,1847,1156,0,0
630,-132,0,0,0,0,0,0,0,0,0,-1,1854,1156,0,0
637,-132,0,0,0,0,0,0,0,0,0,-1,1861,1156,0,0
644,-132,0.0170898,0.0789795,0.000402854,-0.000451548,-0.00173885,0.00176621,-0.0018149,-0.664944,0.00206762,0.0386108,1868,1156,0.0171028,-0.0790399
651,-132,0.015625,0.0599365,0.000354244,-0.000382367,-0.00143971,0.00147201,-0.00150013,-0.660174,0.00171599,0.0380079,1875,1156,0.0155808,-0.0599165
658,-132,-0.0643311,0.105103,0.000385555,-0.000585266,-0.00112206,0.0011227,-0.00132241,-0.581251,0.00141326,0.0369997,1882,1156,-0.0643263,-0.105134
665,-132,-0.129272,0.0930176,0.000303687,-0.000819639,-0.000946095,0.000842279,-0.00135823,-0.517524,0.00128205,0.0383686,1889,1156,-0.129306,-0.0929853
672,-132,-0.0756836,0.0200195,0.000170307,-0.00103042,-0.000831537,0.000595561,-0.00145567,-0.472732,0.00121849,0.0374574,1896,1156,-0.075627,-0.0200145
679,-132,-0.0649414,-0.0991211,5.41056e-05,-0.00119719,-0.000757436,0.000410876,-0.00155396,-0.440199,0.00119668,0.0354702,1903,1156,-0.0649033,0.0991308
686,-132,-0.0673828,-0.0587158,-6.87471e-05,-0.00130641,-0.000716877,0.000259451,-0.00163461,-0.429335,0.00118572,0.0328754,1910,1156,-0.0674125,0.0587388
693,-132,-0.0644531,0.00817871,-0.000183081,-0.00132107,-0.000720807,0.000166249,-0.0016704,-0.451282,0.00117295,0.0221357,1917,1156,-0.0644304,-0.00819562
700,-132,0.00378418,0.0756836,-0.000258487,-0.0012925,-0.000652711,5.71688e-05,-0.00160816,-0.450448,0.00109166,0.0202343,1924,1156,0.00374901,-0.0756476
707,-132,-0.026123,0.110596,-0.000319571,-0.00121875,-0.000607499,-1.33924e-05,-0.00152493,-0.466841,0.00101219,0.0293453,1931,1156,-0.0261536,-0.110563
714,-132,-0.0428467,0.0656738,-0.000406246,-0.00108992,-0.000577042,-7.73905e-05,-0.00141878,-0.517992,0.00092114,0.0272607,1938,1156,-0.042841,-0.0657103
721,-132,-0.0540771,0.0397949,-0.000466452,-0.000926587,-0.000508041,-0.000138813,-0.00125423,-0.572786,0.000793935,0.0197284,1945,1156,-0.0540591,-0.0397715
728,-132,-0.0456543,0.0460205,-0.00028248,-0.00072147,-0.000273459,-0.000151321,-0.000852628,-0.447217,0.000525295,0.0113475,1952,1156,-0.0456784,-0.0459653
735,-132,-0.0344238,0.038208,-3.67496e-05,-0.000578556,-1.30324e-05,-3.64363e-05,-0.000578869,-0.0240351,0.000374359,0.0135808,1959,1156,-0.0344186,-0.0382024
742,-132,-0.0535889,0.0268555,4.2338e-05,-0.000558794,0.000227964,0.000119009,-0.000635464,0.324443,0.00046838,0.0192464,1966,1156,-0.0535446,-0.0268224
749,-132,-0.0488281,0.0330811,0.000221439,-0.00052701,0.000671176,0.000615668,-0.000921239,0.531081,0.000893161,0.0235988,1973,1156,-0.0488532,-0.033118
756,-132,-0.0168457,0.0319824,0.000485937,-0.000709185,0.00080641,0.000892058,-0.00111531,0.466536,0.00116134,0.0207439,1980,1156,-0.0168485,-0.0319495
763,-132,-0.0180664,0.0540771,0.000723031,-0.00127165,0.000726983,0.000959868,-0.00150848,0.314937,0.00143679,0.0123759,1987,1156,-0.0181272,-0.0540287
770,-132,-0.00744629,0.0722656,0.000989964,-0.00186537,0.000715766,0.00115934,-0.00203475,0.232365,0.00186706,0.0121576,1994,1156,-0.00742719,-0.0722689
777,-132,-0.00524902,0.0714111,0.00118893,-0.0026417,0.000421127,0.00123468,-0.00268745,0.108215,0.00231565,0.0203936,2001,1156,-0.00519377,-0.0714548
784,-132,0.0692139,0.371826,0.00136009,-0.00361365,-0.000217729,0.0013696,-0.00362316,-0.0436644,0.00297884,0.0411412,2008,1156,0.0692507,-0.371823
791,-132,-0.396118,-0.369385,0.00153751,-0.00477558,-0.00134336,0.00181147,-0.00504955,-0.201181,0.00410563,0.0466279,2015,1156,-0.396119,0.369439
798,-132,-0.207153,0.269287,0,0,0,0,0,0,0,-1,2022,1156,-0.207137,-0.26925
805,-132,0.0646973,0.0233154,0.00188255,-0.00742716,-0.00586208,0.00471312,-0.0102577,-0.449843,0.00883882,0.0438982,2029,1156,0.0647155,-0.0233702
812,-132,0.134644,0.0908203,0.00212442,-0.00864357,-0.00990185,0.00801136,-0.0145305,-0.536387,0.0131947,0.0443874,2036,1156,0.134598,-0.090857
-700,-139,0,0,0,0,0,0,0,0,0,-1,524,1163,0,0
-693,-139,0.757751,-1.85059,0,0,0,0,0,0,0,-1,531,1163,0.757764,1.85058
-686,-139,0.544739,-1.57031,0,0,0,0,0,0,0,-1,538,1163,0.544769,1.57033
-679,-139,1.13922,-0.858398,0,0,0,0,0,0,0,-1,545,1163,1.13925,0.858453
-672,-139,0.543152,-0.472168,-0.019618,0.0464415,0.0201877,0.0521223,-0.0252988,1.29649,0.0455846,0.0418521,552,1163,0.543142,0.472207
-665,-139,0.170227,-0.592163,-0.0156389,0.0361899,0.0146286,0.0400337,-0.0194827,1.31384,0.035038,0.0422326,559,1163,0.170199,0.592221
-658,-139,-0.427612,-0.664063,0,0,0,0,0,0,0,-1,566,1163,-0.427622,0.664003
-651,-139,-0.236511,-0.310669,-0.00888196,0.0200561,0.00698688,0.0216547,-0.0104806,1.34586,0.0189235,0.0412936,573,1163,-0.236516,0.310632
-644,-139,-0.043396,0.0427246,-0.00625513,0.0141569,0.00458065,0.0151377,-0.00723594,1.35986,0.0131832,0.0230869,580,1163,-0.0433726,-0.0427025
-637,-139,-0.000427246,0.0640869,-0.00387181,0.00895302,0.00234188,0.00936728,-0.00428607,1.39572,0.00806267,0.0123122,587,1163,-0.000420378,-0.0640966
-630,-139,0.0032959,0.0598145,-0.00230257,0.00524865,0.000907867,0.00535627,-0.00241019,1.45281,0.00459024,0.010031,594,1163,0.00328825,-0.0597935
-623,-139,-0.00823975,0.0489502,-0.00147816,0.00295295,0.000372601,0.00298406,-0.00150928,1.48749,0.0026404,0.0157099,601,1163,-0.00823386,-0.0489403
-616,-139,-0.0390625,0.0338135,-0.000690678,0.00143057,6.02511e-05,0.00143228,-0.000692388,1.54242,0.00125123,0.0181005,608,1163,-0.039076,-0.0338607
-609,-139,-0.0111084,0.050293,-0.00011384,-0.000162889,0.000124947,-1.10339e-05,-0.000265695,0.688491,0.000173569,0.0204048,615,1163,-0.0110791,-0.050259
-602,-139,-0.0151367,0.0557861,0.000317631,-0.00121821,7.79007e-05,0.000321572,-0.00122215,0.050549,0.000940465,0.0114733,622,1163,-0.0151322,-0.0557672
-595,-139,-0.0162964,0.0494385,0.000319298,-0.00142632,7.62646e-05,0.000322624,-0.00142965,0.0435784,0.00107687,0.00944777,629,1163,-0.0163159,-0.0494988
-588,-139,-0.036499,0.0541992,-6.36722e-06,-0.0018626,0.000175194,1.00232e-05,-0.00187899,0.0932842,0.00125601,0.0138086,636,1163,-0.0364854,-0.0541848
-581,-139,-0.0192261,0.0302734,-6.23851e-06,-0.00217903,0.000248128,2.1737e-05,-0.00220701,0.112272,0.00147864,0.0298687,643,1163,-0.0191997,-0.0302587
-574,-139,-0.0441284,0.114746,0.000216311,-0.00243974,0.000312613,0.000252609,-0.00247604,0.115594,0.00174101,0.041086,650,1163,-0.0441187,-0.114733
-567,-139,-0.0562134,0.100708,0.000394539,-0.00262735,0.000404527,0.000447755,-0.00268056,0.130798,0.00195347,0.0390868,657,1163,-0.0562392,-0.100674
-560,-139,-0.0456543,0.0532227,0.000572365,-0.00265396,0.000490479,0.000645282,-0.00272688,0.147583,0.00206687,0.0349791,664,1163,-0.0456491,-0.0531728
-553,-139,-0.0822754,0.036499,0.000788053,-0.00246344,0.000525997,0.000871027,-0.00254641,0.156456,0.00205057,0.0383556,671,1163,-0.0822979,-0.0365006
-546,-139,-0.107544,0.029541,0.00108968,-0.0019956,0.000491357,0.00116605,-0.00207197,0.154178,0.0018937,0.0393228,678,1163,-0.107557,-0.0295112
-539,-139,0.0245972,-0.0479736,0.00149659,-0.00120215,0.000366349,0.00154544,-0.001251,0.132553,0.0016175,0.0380433,685,1163,0.0245998,0.0479321
-532,-139,-0.0314941,-0.148682,0.0020484,-4.20658e-05,0.00010975,0.00205414,-4.78118e-05,0.0523086,0.00138564,0.0373125,692,1163,-0.031497,0.148687
-525,-139,0.00592041,-0.188965,0.00283103,0.00151037,-0.000432304,0.00295995,0.00138145,-0.289829,0.00171019,0.0381529,699,1163,0.00591657,0.189017
-518,-139,0,0,0,0,0,0,0,0,0,-1,706,1163,0,0
-511,-139,0,0,0,0,0,0,0,0,0,-1,713,1163,0,0
-504,-139,0,0,0,0,0,0,0,0,0,-1,720,1163,0,0
-497,-139,0,0,0,0,0,0,0,0,0,-1,727,1163,0,0
-490,-139,0,0,0,0,0,0,0,0,0,-1,734,1163,0,0
-483,-139,0,0,0,0,0,0,0,0,0,-1,741,1163,0,0
-476,-139,0,0,0,0,0,0,0,0,0,-1,748,1163,0,0
-469,-139,0,0,0,0,0,0,0,0,0,-1,755,1163,0,0
-462,-139,0,0,0,0,0,0,0,0,0,-1,762,1163,0,0
-455,-139,0,0,0,0,0,0,0,0,0,-1,769,1163,0,0
-448,-139,0,0,0,0,0,0,0,0,0,-1,776,1163,0,0
-441,-139,0,0,0,0,0,0,0,0,0,-1,783,1163,0,0
-434,-139,0,0,0,0,0,0,0,0,0,-1,790,1163,0,0
-427,-139,0,0,0,0,0,0,0,0,0,-1,797,1163,0,0
-420,-139,0,0,0,0,0,0,0,0,0,-1,804,1163,0,0
-413,-139,0,0,0,0,0,0,0,0,0,-1,811,1163,0,0
-406,-139,0,0,0,0,0,0,0,0,0,-1,818,1163,0,0
-399,-139,0,0,0,0,0,0,0,0,0,-1,825,1163,0,0
-392,-139,0,0,0,0,0,0,0,0,0,-1,832,1163,0,0
-385,-139,0,0,0,0,0,0,0,0,0,-1,839,1163,0,0
-378,-139,0,0,0,0,0,0,0,0,0,-1,846,1163,0,0
-371,-139,0,0,0,0,0,0,0,0,0,-1,853,1163,0,0
-364,-139,0,0,0,0,0,0,0,0,0,-1,860,1163,0,0
-357,-139,0,0,0,0,0,0,0,0,0,-1,867,1163,0,0
-350,-139,0,0,0,0,0,0,0,0,0,-1,874,1163,0,0
-343,-139,0,0,0,0,0,0,0,0,0,-1,881,1163,0,0
-336,-139,0,0,0,0,0,0,0,0,0,-1,888,1163,0,0
-329,-139,0,0,0,0,0,0,0,0,0,-1,895,1163,0,0
-322,-139,0,0,0,0,0,0,0,0,0,-1,902,1163,0,0
-315,-139,0,0,0,0,0,0,0,0,0,-1,909,1163,0,0
-308,-139,0,0,0,0,0,0,0,0,0,-1,916,1163,0,0
-301,-139,0,0,0,0,0,0,0,0,0,-1,923,1163,0,0
-294,-139,0,0,0,0,0,0,0,0,0,-1,930,1163,0,0
-287,-139,0,0,0,0,0,0,0,0,0,-1,937,1163,0,0
-280,-139,0,0,0,0,0,0,0,0,0,-1,944,1163,0,0
-273,-139,0,0,0,0,0,0,0,0,0,-1,951,1163,0,0
-266,-139,0,0,0,0,0,0,0,0,0,-1,958,1163,0,0
-259,-139,0,0,0,0,0,0,0,0,0,-1,965,1163,0,0
-252,-139,0,0,0,0,0,0,0,0,0,-1,972,1163,0,0
-245,-139,0,0,0,0,0,0,0,0,0,-1,979,1163,0,0
-238,-139,0,0,0,0,0,0,0,0,0,-1,986,1163,0,0
-231,-139,0,0,0,0,0,0,0,0,0,-1,993,1163,0,0
-224,-139,0,0,0,0,0,0,0,0,0,-1,1000,1163,0,0
-217,-139,0,0,0,0,0,0,0,0,0,-1,1007,1163,0,0
-210,-139,0,0,0,0,0,0,0,0,0,-1,1014,1163,0,0
-203,-139,0,0,0,0,0,0,0,0,0,-1,1021,1163,0,0
-196,-139,0,0,0,0,0,0,0,0,0,-1,1028,1163,0,0
-189,-139,0,0,0,0,0,0,0,0,0,-1,1035,1163,0,0
-182,-139,0,0,0,0,0,0,0,0,0,-1,1042,1163,0,0
-175,-139,0,0,0,0,0,0,0,0,0,-1,1049,1163,0,0
-168,-139,0,0,0,0,0,0,0,0,0,-1,1056,1163,0,0
-161,-139,0,0,0,0,0,0,0,0,0,-1,1063,1163,0,0
-154,-139,0,0,0,0,0,0,0,0,0,-1,1070,1163,0,0
-147,-139,0,0,0,0,0,0,0,0,0,-1,1077,1163,0,0
-140,-139,0,0,0,0,0,0,0,0,0,-1,1084,1163,0,0
-133,-139,0,0,0,0,0,0,0,0,0,-1,1091,1163,0,0
-126,-139,0,0,0,0,0,0,0,0,0,-1,1098,1163,0,0
-119,-139,0,0,0,0,0,0,0,0,0,-1,1105,1163,0,0
-112,-139,0,0,0,0,0,0,0,0,0,-1,1112,1163,0,0
-105,-139,0,0,0,0,0,0,0,0,0,-1,1119,1163,0,0
-98,-139,0,0,0,0,0,0,0,0,0,-1,1126,1163,0,0
-91,-139,0,0,0,0,0,0,0,0,0,-1,1133,1163,0,0
-84,-139,0,0,0,0,0,0,0,0,0,-1,1140,1163,0,0
-77,-139,0,0,0,0,0,0,0,0,0,-1,1147,1163,0,0
-70,-139,0,0,0,0,0,0,0,0,0,-1,1154,1163,0,0
-63,-139,0,0,0,0,0,0,0,0,0,-1,1161,1163,0,0
-56,-139,0,0,0,0,0,0,0,0,0,-1,1168,1163,0,0
-49,-139,0,0,0,0,0,0,0,0,0,-1,1175,1163,0,0
-42,-139,0,0,0,0,0,0,0,0,0,-1,1182,1163,0,0
-35,-139,0,0,0,0,0,0,0,0,0,-1,1189,1163,0,0
-28,-139,0,0,0,0,0,0,0,0,0,-1,1196,1163,0,0
-21,-139,0,0,0,0,0,0,0,0,0,-1,1203,1163,0,0
-14,-139,0,0,0,0,0,0,0,0,0,-1,1210,1163,0,0
-7,-139,0,0,0,0,0,0,0,0,0,-1,1217,1163,0,0
0,-139,0,0,0,0,0,0,0,0,0,-1,1224,1163,0,0
7,-139,0,0,0,0,0,0,0,0,0,-1,1231,1163,0,0
14,-139,0,0,0,0,0,0,0,0,0,-1,1238,1163,0,0
21,-139,0,0,0,0,0,0,0,0,0,-1,1245,1163,0,0
28,-139,0,0,0,0,0,0,0,0,0,-1,1252,1163,0,0
35,-139,0,0,0,0,0,0,0,0,0,-1,1259,1163,0,0
42,-139,0,0,0,0,0,0,0,0,0,-1,1266,1163,0,0
49,-139,0,0,0,0,0,0,0,0,0,-1,1273,1163,0,0
56,-139,0,0,0,0,0,0,0,0,0,-1,1280,1163,0,0
63,-139,0,0,0,0,0,0,0,0,0,-1,1287,1163,0,0
70,-139,0,0,0,0,0,0,0,0,0,-1,1294,1163,0,0
77,-139,0,0,0,0,0,0,0,0,0,-1,1301,1163,0,0
84,-139,0,0,0,0,0,0,0,0,0,-1,1308,1163,0,0
91,-139,0,0,0,0,0,0,0,0,0,-1,1315,1163,0,0
98,-139,0,0,0,0,0,0,0,0,0,-1,1322,1163,0,0
105,-139,0,0,0,0,0,0,0,0,0,-1,1329,1163,0,0
112,-139,0,0,0,0,0,0,0,0,0,-1,1336,1163,0,0
119,-139,0,0,0,0,0,0,0,0,0,-1,1343,1163,0,0
126,-139,0,0,0,0,0,0,0,0,0,-1,1350,1163,0,0
133,-139,0,0,0,0,0,0,0,0,0,-1,1357,1163,0,0
140,-139,0,0,0,0,0,0,0,0,0,-1,1364,1163,0,0
147,-139,0,0,0,0,0,0,0,0,0,-1,1371,1163,0,0
154,-139,0,0,0,0,0,0,0,0,0,-1,1378,1163,0,0
161,-139,0,0,0,0,0,0,0,0,0,-1,1385,1163,0,0
168,-139,0,0,0,0,0,0,0,0,0,-1,1392,1163,0,0
175,-139,0,0,0,0,0,0,0,0,0,-1,1399,1163,0,0
182,-139,0,0,0,0,0,0,0,0,0,-1,1406,1163,0,0
189,-139,0,0,0,0,0,0,0,0,0,-1,1413,1163,0,0
196,-139,0,0,0,0,0,0,0,0,0,-1,1420,1163,0,0
203,-139,0,0,0,0,0,0,0,0,0,-1,1427,1163,0,0
210,-139,0,0,0,0,0,0,0,0,0,-1,1434,1163,0,0
217,-139,0,0,0,0,0,0,0,0,0,-1,1441,1163,0,0
224,-139,0,0,0,0,0,0,0,0,0,-1,1448,1163,0,0
231,-139,0,0,0,0,0,0,0,0,0,-1,1455,1163,0,0
238,-139,0,0,0,0,0,0,0,0,0,-1,1462,1163,0,0
245,-139,0,0,0,0,0,0,0,0,0,-1,1469,1163,0,0
252,-139,0,0,0,0,0,0,0,0,0,-1,1476,1163,0,0
259,-139,0,0,0,0,0,0,0,0,0,-1,1483,1163,0,0
266,-139,0,0,0,0,0,0,0,0,0,-1,1490,1163,0,0
273,-139,0,0,0,0,0,0,0,0,0,-1,1497,1163,0,0
280,-139,0,0,0,0,0,0,0,0,0,-1,1504,1163,0,0
287,-139,0,0,0,0,0,0,0,0,0,-1,1511,1163,0,0
294,-139,0,0,0,0,0,0,0,0,0,-1,1518,1163,0,0
301,-139,0,0,0,0,0,0,0,0,0,-1,1525,1163,0,0
308,-139,0,0,0,0,0,0,0,0,0,-1,1532,1163,0,0
315,-139,0,0,0,0,0,0,0,0,0,-1,1539,1163,0,0
322,-139,0,0,0,0,0,0,0,0,0,-1,1546,1163,0,0
329,-139,0,0,0,0,0,0,0,0,0,-1,1553,1163,0,0
336,-139,0,0,0,0,0,0,0,0,0,-1,1560,1163,0,0
343,-139,0,0,0,0,0,0,0,0,0,-1,1567,1163,0,0
350,-139,0,0,0,0,0,0,0,0,0,-1,1574,1163,0,0
357,-139,0,0,0,0,0,0,0,0,0,-1,1581,1163,0,0
364,-139,0,0,0,0,0,0,0,0,0,-1,1588,1163,0,0
371,-139,0,0,0,0,0,0,0,0,0,-1,1595,1163,0,0
378,-139,0,0,0,0,0,0,0,0,0,-1,1602,1163,0,0
385,-139,0,0,0,0,0,0,0,0,0,-1,1609,1163,0,0
392,-139,0,0,0,0,0,0,0,0,0,-1,1616,1163,0,0
399,-139,0,0,0,0,0,0,0,0,0,-1,1623,1163,0,0
406,-139,0,0,0,0,0,0,0,0,0,-1,1630,1163,0,0
413,-139,0,0,0,0,0,0,0,0,0,-1,1637,1163,0,0
420,-139,0,0,0,0,0,0,0,0,0,-1,1644,1163,0,0
427,-139,0,0,0,0,0,0,0,0,0,-1,1651,1163,0,0
434,-139,0,0,0,0,0,0,0,0,0,-1,1658,1163,0,0
441,-139,0,0,0,0,0,0,0,0,0,-1,1665,1163,0,0
448,-139,0,0,0,0,0,0,0,0,0,-1,1672,1163,0,0
455,-139,0,0,0,0,0,0,0,0,0,-1,1679,1163,0,0
462,-139,0,0,0,0,0,0,0,0,0,-1,1686,1163,0,0
469,-139,0,0,0,0,0,0,0,0,0,-1,1693,1163,0,0
476,-139,0,0,0,0,0,0,0,0,0,-1,1700,1163,0,0
483,-139,0,0,0,0,0,0,0,0,0,-1,1707,1163,0,0
490,-139,0,0,0,0,0,0,0,0,0,-1,1714,1163,0,0
497,-139,0,0,0,0,0,0,0,0,0,-1,1721,1163,0,0
504,-139,0,0,0,0,0,0,0,0,0,-1,1728,1163,0,0
511,-139,0,0,0,0,0,0,0,0,0,-1,1735,1163,0,0
518,-139,0,0,0,0,0,0,0,0,0,-1,1742,1163,0,0
525,-139,0,0,0,0,0,0,0,0,0,-1,1749,1163,0,0
532,-139,0,0,0,0,0,0,0,0,0,-1,1756,1163,0,0
539,-139,0,0,0,0,0,0,0,0,0,-1,1763,1163,0,0
546,-139,0,0,0,0,0,0,0,0,0,-1,1770,1163,0,0
553,-139,0,0,0,0,0,0,0,0,0,-1,1777,1163,0,0
560,-139,0,0,0,0,0,0,0,0,0,-1,1784,1163,0,0
567,-139,0,0,0,0,0,0,0,0,0,-1,1791,1163,0,0
574,-139,0,0,0,0,0,0,0,0,0,-1,1798,1163,0,0
581,-139,0,0,0,0,0,0,0,0,0,-1,1805,1163,0,0
588,-139,0,0,0,0,0,0,0,0,0,-1,1812,1163,0,0
595,-139,0,0,0,0,0,0,0,0,0,-1,1819,1163,0,0
602,-139,0,0,0,0,0,0,0,0,0,-1,1826,1163,0,0
609,-139,0,0,0,0,0,0,0,0,0,-1,1833,1163,0,0
616,-139,0,0,0,0,0,0,0,0,0,-1,1840,1163,0,0
623,-139,0,0,0,0,0,0,0,0,0,-1,1847,1163,0,0
630,-139,0,0,0,0,0,0,0,0,0,-1,1854,1163,0,0
637,-139,0,0,0,0,0,0,0,0,0,-1,1861,1163,0,0
644,-139,0.0450439,0.143555,-0.000220868,0.000177564,-0.00155583,0.00154688,-0.00159019,-0.849074,0.00181124,0.038629,1868,1163,0.0449904,-0.143614
651,-139,-0.0111084,0.0223389,-8.458e-05,-4.3274e-05,-0.00127365,0.00120989,-0.00133774,-0.793505,0.00147149,0.037405,1875,1163,-0.0110703,-0.0223744
658,-139,-0.0250244,0.0574951,4.13321e-05,-0.00047271,-0.00102875,0.000844683,-0.00127606,-0.662985,0.00123283,0.0374005,1882,1163,-0.0249845,-0.0575294
665,-139,-0.0395508,0.173218,6.96041e-06,-0.000869693,-0.000938876,0.000604789,-0.00146752,-0.567004,0.00123052,0.035132,1889,1163,-0.0395508,-0.173166
672,-139,-0.0462646,0.123779,-9.71323e-05,-0.00119902,-0.000899439,0.00040669,-0.00170284,-0.510604,0.0012923,0.0328637,1896,1163,-0.0463109,-0.123771
679,-139,-0.000976563,0.0106201,-0.000199813,-0.00144246,-0.000888523,0.000263074,-0.00190535,-0.480277,0.00136639,0.0312853,1903,1163,-0.000974203,-0.0106229
686,-139,-0.0125732,0.0216064,-0.000321169,-0.00159625,-0.000901783,0.000145676,-0.0020631,-0.477701,0.00142644,0.0279152,1910,1163,-0.0126071,-0.0216087
693,-139,-0.0230713,0.0299072,-0.000424709,-0.00161683,-0.000945296,9.67591e-05,-0.0021383,-0.504106,0.00145886,0.0158464,1917,1163,-0.0230942,-0.0298789
700,-139,0.0239258,0.0999756,-0.000469619,-0.00158892,-0.000895569,2.6786e-05,-0.00208532,-0.506131,0.00139923,0.029231,1924,1163,0.0239441,-0.100015
707,-139,-0.00756836,0.0388184,-0.000507894,-0.00148696,-0.00084691,-1.92135e-05,-0.00197564,-0.523347,0.00131073,0.0205631,1931,1163,-0.00751622,-0.038787
714,-139,-0.00622559,0.020874,-0.000598339,-0.00131383,-0.000800354,-7.94158e-05,-0.00183275,-0.575227,0.00119624,0.021219,1938,1163,-0.00617683,-0.0208432
721,-139,-0.0338135,0.0487061,-0.000665597,-0.00109843,-0.000709845,-0.000139912,-0.00162412,-0.637434,0.00103925,0.0151531,1945,1163,-0.0337558,-0.0487007
728,-139,-0.0272217,0.0421143,-0.000454204,-0.000840558,-0.00044118,-0.000165762,-0.001129,-0.57904,0.000703948,0.0174685,1952,1163,-0.0272664,-0.0421349
735,-139,-0.0264893,0.0366211,-0.000143586,-0.000614341,-0.000111901,-0.00011834,-0.000639586,-0.221892,0.00039293,0.0149137,1959,1163,-0.0264924,-0.0365814
742,-139,-0.026001,0.0159912,6.20444e-05,-0.000522317,0.000197255,0.000122396,-0.000582669,0.296913,0.000435022,0.0209098,1966,1163,-0.0259946,-0.0159676
749,-139,-0.0405273,0.0167236,0.000412432,-0.000278296,0.000768612,0.000909707,-0.000775571,0.574248,0.000974023,0.0190561,1973,1163,-0.0405835,-0.0167261
756,-139,-0.045166,0.020874,0.000868377,-0.000247763,0.00100168,0.00145696,-0.000836344,0.531247,0.0013401,0.0103337,1980,1163,-0.0452191,-0.0208795
763,-139,-0.03125,0.0379639,0.00137865,-0.0005288,0.00112681,0.00190116,-0.00105131,0.434199,0.00172799,0.00957192,1987,1163,-0.031268,-0.037977
770,-139,-0.0223389,0.0620117,0.0019512,-0.000773353,0.0012919,0.00246637,-0.00128852,0.379444,0.00220315,0.0111916,1994,1163,-0.0223853,-0.0619885
777,-139,-0.0170898,0.102905,0.00254707,-0.00108338,0.00121721,0.0029174,-0.00145371,0.295346,0.00257039,0.0205842,2001,1163,-0.0170423,-0.102868
784,-139,-0.158936,0.0230713,0.00321991,-0.00144997,0.000851303,0.00337026,-0.00160032,0.174808,0.00292978,0.0390509,2008,1163,-0.158976,-0.0230742
791,-139,-0.286743,-0.103027,0.00400955,-0.00184386,5.03118e-05,0.00400998,-0.00184429,0.00859446,0.0034562,0.04823,2015,1163,-0.286761,0.103051
798,-139,-0.202026,0.0133057,0.00490833,-0.00219099,-0.00137594,0.00516568,-0.00244833,-0.184897,0.0044883,0.0466949,2022,1163,-0.202077,-0.0132654
805,-139,-0.119995,0.0799561,0.00596541,-0.00236611,-0.00369964,0.00737108,-0.00377178,-0.363103,0.00654425,0.0424095,2029,1163,-0.119974,-0.0800146
812,-139,0,0,0,0,0,0,0,0,0,-1,2036,1163,0,0
-700,-146,0,0,0,0,0,0,0,0,0,-1,524,1170,0,0
-693,-146,0.810181,-1.64038,0,0,0,0,0,0,0,-1,531,1170,0.810201,1.64035
-686,-146,0.609924,-1.35559,0,0,0,0,0,0,0,-1,538,1170,0.609953,1.35561
-679,-146,0.519226,-0.965332,0,0,0,0,0,0,0,-1,545,1170,0.51922,0.965287
-672,-146,0.253235,-0.560669,-0.0169811,0.0502527,0.0198668,0.0556843,-0.0224126,1.30392,0.0464332,0.0424784,552,1170,0.253211,0.560665
-665,-146,-0.164612,-0.583984,-0.0138785,0.0394326,0.0146498,0.0431931,-0.017639,1.31953,0.0361396,0.0438947,559,1170,-0.164636,0.583966
-658,-146,-0.366699,-0.653931,0,0,0,0,0,0,0,-1,566,1170,-0.366689,0.653987
-651,-146,-0.224121,-0.322266,-0.00833768,0.0221308,0.00735341,0.0238127,-0.0100195,1.34594,0.0200668,0.0371484,573,1170,-0.224118,0.322297
-644,-146,-0.0458984,-0.0159912,-0.00606578,0.0157022,0.00497731,0.0167863,-0.00714986,1.35634,0.0141879,0.0199052,580,1170,-0.0458922,0.0160088
-637,-146,-0.00476074,0.0526123,-0.00393672,0.0102193,0.00278424,0.0107472,-0.00446465,1.38341,0.00902881,0.0106014,587,1170,-0.00476454,-0.0525617
-630,-146,-0.0045166,0.05896,-0.00250533,0.00611072,0.00130653,0.00630448,-0.00269909,1.42357,0.00533533,0.0100643,594,1170,-0.00449778,-0.0590192
-623,-146,-0.0148315,0.0496826,-0.00171364,0.00334638,0.000631942,0.00342411,-0.00179137,1.44841,0.00305995,0.0124411,601,1170,-0.0148182,-0.0496603
-616,-146,-0.0313721,0.0377197,-0.000987139,0.00147708,0.000309677,0.0015154,-0.00102546,1.44768,0.00147603,0.0177697,608,1170,-0.031361,-0.0377635
-609,-146,-0.0101929,0.0394287,-0.000403738,-0.000194689,0.000348424,6.45512e-05,-0.000662979,0.931122,0.000464999,0.0171543,615,1170,-0.010202,-0.0393716
-602,-146,-0.00402832,0.0410156,0.000181018,-0.00126563,0.000208882,0.000210574,-0.00129518,0.140566,0.00094153,0.0169961,622,1170,-0.00400919,-0.0410598
-595,-146,-0.0201416,0.0383301,0.000229198,-0.00144726,0.000203418,0.000253527,-0.00147159,0.119037,0.00107557,0.00949471,629,1170,-0.0201226,-0.0383405
-588,-146,-0.045166,0.0438232,-0.000111878,-0.00193793,0.00034525,-4.87821e-05,-0.00200103,0.18076,0.00131806,0.0111077,636,1170,-0.0451612,-0.0437919
-581,-146,-0.0413818,0.0649414,-0.00011854,-0.00227435,0.000442595,-3.12106e-05,-0.00236168,0.194808,0.00156415,0.0219175,643,1170,-0.0413775,-0.0649677
-574,-146,-0.0783081,0.0742188,9.15025e-05,-0.00254892,0.00051442,0.000188184,-0.0026456,0.185776,0.00182969,0.0376764,650,1170,-0.0782793,-0.0742395
-567,-146,-0.0916748,0.0394287,0.000277409,-0.00274558,0.000597449,0.000391203,-0.00285938,0.188211,0.00204914,0.0390123,657,1170,-0.0916597,-0.0394456
-560,-146,-0.0466919,0.0643311,0.000470625,-0.00277264,0.000667966,0.000602808,-0.00290483,0.195365,0.00216564,0.0387713,664,1170,-0.0466934,-0.0643659
-553,-146,-0.0455933,0.0568848,0.00071463,-0.00259338,0.000670682,0.000845436,-0.00272418,0.192615,0.00215397,0.0385313,671,1170,-0.0456162,-0.0568488
-546,-146,0.00543213,-0.0178223,0.00104828,-0.00213354,0.000597174,0.00115666,-0.00224192,0.179546,0.00199524,0.0379156,678,1170,0.00545675,0.0177783
-539,-146,-0.0630493,0.0740967,0.00148045,-0.00134688,0.00043937,0.00154716,-0.00141358,0.150669,0.00170996,0.0369556,685,1170,-0.0630518,-0.074042
-532,-146,-0.0838623,0.0457764,0.00203271,-0.000190789,0.000179681,0.00204714,-0.000205215,0.0801171,0.00143805,0.035554,692,1170,-0.0838753,-0.0457825
-525,-146,-0.00836182,-0.0462646,0.00278102,0.00136835,-0.000319659,0.00284999,0.00129938,-0.212491,0.00164757,0.0368822,699,1170,-0.00835578,0.0462778
-518,-146,0,0,0,0,0,0,0,0,0,-1,706,1170,0,0
-511,-146,0,0,0,0,0,0,0,0,0,-1,713,1170,0,0
-504,-146,0,0,0,0,0,0,0,0,0,-1,720,1170,0,0
-497,-146,0,0,0,0,0,0,0,0,0,-1,727,1170,0,0
-490,-146,0,0,0,0,0,0,0,0,0,-1,734,1170,0,0
-483,-146,0,0,0,0,0,0,0,0,0,-1,741,1170,0,0
-476,-146,0,0,0,0,0,0,0,0,0,-1,748,1170,0,0
-469,-146,0,0,0,0,0,0,0,0,0,-1,755,1170,0,0
-462,-146,0,0,0,0,0,0,0,0,0,-1,762,1170,0,0
-455,-146,0,0,0,0,0,0,0,0,0,-1,769,1170,0,0
-448,-146,0,0,0,0,0,0,0,0,0,-1,776,1170,0,0
-441,-146,0,0,0,0,0,0,0,0,0,-1,783,1170,0,0
-434,-146,0,0,0,0,0,0,0,0,0,-1,790,1170,0,0
-427,-146,0,0,0,0,0,0,0,0,0,-1,797,1170,0,0
-420,-146,0,0,0,0,0,0,0,0,0,-1,804,1170,0,0
-413,-146,0,0,0,0,0,0,0,0,0,-1,811,1170,0,0
-406,-146,0,0,0,0,0,0,0,0,0,-1,818,1170,0,0
-399,-146,0,0,0,0,0,0,0,0,0,-1,825,1170,0,0
-392,-146,0,0,0,0,0,0,0,0,0,-1,832,1170,0,0
-385,-146,0,0,0,0,0,0,0,0,0,-1,839,1170,0,0
-378,-146,0,0,0,0,0,0,0,0,0,-1,846,1170,0,0
-371,-146,0,0,0,0,0,0,0,0,0,-1,853,1170,0,0
-364,-146,0,0,0,0,0,0,0,0,0,-1,860,1170,0,0
-357,-146,0,0,0,0,0,0,0,0,0,-1,867,1170,0,0
-350,-146,0,0,0,0,0,0,0,0,0,-1,874,1170,0,0
-343,-146,0,0,0,0,0,0,0,0,0,-1,881,1170,0,0
-336,-146,0,0,0,0,0,0,0,0,0,-1,888,1170,0,0
-329,-146,0,0,0,0,0,0,0,0,0,-1,895,1170,0,0
-322,-146,0,0,0,0,0,0,0,0,0,-1,902,1170,0,0
-315,-146,0,0,0,0,0,0,0,0,0,-1,909,1170,0,0
-308,-146,0,0,0,0,0,0,0,0,0,-1,916,1170,0,0
-301,-146,0,0,0,0,0,0,0,0,0,-1,923,1170,0,0
-294,-146,0,0,0,0,0,0,0,0,0,-1,930,1170,0,0
-287,-146,0,0,0,0,0,0,0,0,0,-1,937,1170,0,0
-280,-146,0,0,0,0,0,0,0,0,0,-1,944,1170,0,0
-273,-146,0,0,0,0,0,0,0,0,0,-1,951,1170,0,0
-266,-146,0,0,0,0,0,0,0,0,0,-1,958,1170,0,0
-259,-146,0,0,0,0,0,0,0,0,0,-1,965,1170,0,0
-252,-146,0,0,0,0,0,0,0,0,0,-1,972,1170,0,0
-245,-146,0,0,0,0,0,0,0,0,0,-1,979,1170,0,0
-238,-146,0,0,0,0,0,0,0,0,0,-1,986,1170,0,0
-231,-146,0,0,0,0,0,0,0,0,0,-1,993,1170,0,0
-224,-146,0,0,0,0,0,0,0,0,0,-1,1000,1170,0,0
-217,-146,0,0,0,0,0,0,0,0,0,-1,1007,1170,0,0
-210,-146,0,0,0,0,0,0,0,0,0,-1,1014,1170,0,0
-203,-146,0,0,0,0,0,0,0,0,0,-1,1021,1170,0,0
-196,-146,0,0,0,0,0,0,0,0,0,-1,1028,1170,0,0
-189,-146,0,0,0,0,0,0,0,0,0,-1,1035,1170,0,0
-182,-146,0,0,0,0,0,0,0,0,0,-1,1042,1170,0,0
-175,-146,0,0,0,0,0,0,0,0,0,-1,1049,1170,0,0
-168,-146,0,0,0,0,0,0,0,0,0,-1,1056,1170,0,0
-161,-146,0,0,0,0,0,0,0,0,0,-1,1063,1170,0,0
-154,-146,0,0,0,0,0,0,0,0,0,-1,1070,1170,0,0
-147,-146,0,0,0,0,0,0,0,0,0,-1,1077,1170,0,0
-140,-146,0,0,0,0,0,0,0,0,0,-1,1084,1170,0,0
-133,-146,0,0,0,0,0,0,0,0,0,-1,1091,1170,0,0
-126,-146,0,0,0,0,0,0,0,0,0,-1,1098,1170,0,0
-119,-146,0,0,0,0,0,0,0,0,0,-1,1105,1170,0,0
-112,-146,0,0,0,0,0,0,0,0,0,-1,1112,1170,0,0
-105,-146,0,0,0,0,0,0,0,0,0,-1,1119,1170,0,0
-98,-146,0,0,0,0,0,0,0,0,0,-1,1126,1170,0,0
-91,-146,0,0,0,0,0,0,0,0,0,-1,1133,1170,0,0
-84,-146,0,0,0,0,0,0,0,0,0,-1,1140,1170,0,0
-77,-146,0,0,0,0,0,0,0,0,0,-1,1147,1170,0,0
-70,-146,0,0,0,0,0,0,0,0,0,-1,1154,1170,0,0
-63,-146,0,0,0,0,0,0,0,0,0,-1,1161,1170,0,0
-56,-146,0,0,0,0,0,0,0,0,0,-1,1168,1170,0,0
-49,-146,0,0,0,0,0,0,0,0,0,-1,1175,1170,0,0
-42,-146,0,0,0,0,0,0,0,0,0,-1,1182,1170,0,0
-35,-146,0,0,0,0,0,0,0,0,0,-1,1189,1170,0,0
-28,-146,0,0,0,0,0,0,0,0,0,-1,1196,1170,0,0
-21,-146,0,0,0,0,0,0,0,0,0,-1,1203,1170,0,0
-14,-146,0,0,0,0,0,0,0,0,0,-1,1210,1170,0,0
-7,-146,0,0,0,0,0,0,0,0,0,-1,1217,1170,0,0
0,-146,0,0,0,0,0,0,0,0,0,-1,1224,1170,0,0
7,-146,0,0,0,0,0,0,0,0,0,-1,1231,1170,0,0
14,-146,0,0,0,0,0,0,0,0,0,-1,1238,1170,0,0
21,-146,0,0,0,0,0,0,0,0,0,-1,1245,1170,0,0
28,-146,0,0,0,0,0,0,0,0,0,-1,1252,1170,0,0
35,-146,0,0,0,0,0,0,0,0,0,-1,1259,1170,0,0
42,-146,0,0,0,0,0,0,0,0,0,-1,1266,1170,0,0
49,-146,0,0,0,0,0,0,0,0,0,-1,1273,1170,0,0
56,-146,0,0,0,0,0,0,0,0,0,-1,1280,1170,0,0
63,-146,0,0,0,0,0,0,0,0,0,-1,1287,1170,0,0
70,-146,0,0,0,0,0,0,0,0,0,-1,1294,1170,0,0
77,-146,0,0,0,0,0,0,0,0,0,-1,1301,1170,0,0
84,-146,0,0,0,0,0,0,0,0,0,-1,1308,1170,0,0
91,-146,0,0,0,0,0,0,0,0,0,-1,1315,1170,0,0
98,-146,0,0,0,0,0,0,0,0,0,-1,1322,1170,0,0
105,-146,0,0,0,0,0,0,0,0,0,-1,1329,1170,0,0
112,-146,0,0,0,0,0,0,0,0,0,-1,1336,1170,0,0
119,-146,0,0,0,0,0,0,0,0,0,-1,1343,1170,0,0
126,-146,0,0,0,0,0,0,0,0,0,-1,1350,1170,0,0
133,-146,0,0,0,0,0,0,0,0,0,-1,1357,1170,0,0
140,-146,0,0,0,0,0,0,0,0,0,-1,1364,1170,0,0
147,-146,0,0,0,0,0,0,0,0,0,-1,1371,1170,0,0
154,-146,0,0,0,0,0,0,0,0,0,-1,1378,1170,0,0
161,-146,0,0,0,0,0,0,0,0,0,-1,1385,1170,0,0
168,-146,0,0,0,0,0,0,0,0,0,-1,1392,1170,0,0
175,-146,0,0,0,0,0,0,0,0,0,-1,1399,1170,0,0
182,-146,0,0,0,0,0,0,0,0,0,-1,1406,1170,0,0
189,-146,0,0,0,0,0,0,0,0,0,-1,1413,1170,0,0
196,-146,0,0,0,0,0,0,0,0,0,-1,1420,1170,0,0
203,-146,0,0,0,0,0,0,0,0,0,-1,1427,1170,0,0
210,-146,0,0,0,0,0,0,0,0,0,-1,1434,1170,0,0
217,-146,0,0,0,0,0,0,0,0,0,-1,1441,1170,0,0
224,-146,0,0,0,0,0,0,0,0,0,-1,1448,1170,0,0
231,-146,0,0,0,0,0,0,0,0,0,-1,1455,1170,0,0
238,-146,0,0,0,0,0,0,0,0,0,-1,1462,1170,0,0
245,-146,0,0,0,0,0,0,0,0,0,-1,1469,1170,0,0
252,-146,0,0,0,0,0,0,0,0,0,-1,1476,1170,0,0
259,-146,0,0,0,0,0,0,0,0,0,-1,1483,1170,0,0
266,-146,0,0,0,0,0,0,0,0,0,-1,1490,1170,0,0
273,-146,0,0,0,0,0,0,0,0,0,-1,1497,1170,0,0
280,-146,0,0,0,0,0,0,0,0,0,-1,1504,1170,0,0
287,-146,0,0,0,0,0,0,0,0,0,-1,1511,1170,0,0
294,-146,0,0,0,0,0,0,0,0,0,-1,1518,1170,0,0
301,-146,0,0,0,0,0,0,0,0,0,-1,1525,1170,0,0
308,-146,0,0,0,0,0,0,0,0,0,-1,1532,1170,0,0
315,-146,0,0,0,0,0,0,0,0,0,-1,1539,1170,0,0
322,-146,0,0,0,0,0,0,0,0,0,-1,1546,1170,0,0
329,-146,0,0,0,0,0,0,0,0,0,-1,1553,1170,0,0
336,-146,0,0,0,0,0,0,0,0,0,-1,1560,1170,0,0
343,-146,0,0,0,0,0,0,0,0,0,-1,1567,1170,0,0
350,-146,0,0,0,0,0,0,0,0,0,-1,1574,1170,0,0
357,-146,0,0,0,0,0,0,0,0,0,-1,1581,1170,0,0
364,-146,0,0,0,0,0,0,0,0,0,-1,1588,1170,0,0
371,-146,0,0,0,0,0,0,0,0,0,-1,1595,1170,0,0
378,-146,0,0,0,0,0,0,0,0,0,-1,1602,1170,0,0
385,-146,0,0,0,0,0,0,0,0,0,-1,1609,1170,0,0
392,-146,0,0,0,0,0,0,0,0,0,-1,1616,1170,0,0
399,-146,0,0,0,0,0,0,0,0,0,-1,1623,1170,0,0
406,-146,0,0,0,0,0,0,0,0,0,-1,1630,1170,0,0
413,-146,0,0,0,0,0,0,0,0,0,-1,1637,1170,0,0
420,-146,0,0,0,0,0,0,0,0,0,-1,1644,1170,0,0
427,-146,0,0,0,0,0,0,0,0,0,-1,1651,1170,0,0
434,-146,0,0,0,0,0,0,0,0,0,-1,1658,1170,0,0
441,-146,0,0,0,0,0,0,0,0,0,-1,1665,1170,0,0
448,-146,0,0,0,0,0,0,0,0,0,-1,1672,1170,0,0
455,-146,0,0,0,0,0,0,0,0,0,-1,1679,1170,0,0
462,-146,0,0,0,0,0,0,0,0,0,-1,1686,1170,0,0
469,-146,0,0,0,0,0,0,0,0,0,-1,1693,1170,0,0
476,-146,0,0,0,0,0,0,0,0,0,-1,1700,1170,0,0
483,-146,0,0,0,0,0,0,0,0,0,-1,1707,1170,0,0
490,-146,0,0,0,0,0,0,0,0,0,-1,1714,1170,0,0
497,-146,0,0,0,0,0,0,0,0,0,-1,1721,1170,0,0
504,-146,0,0,0,0,0,0,0,0,0,-1,1728,1170,0,0
511,-146,0,0,0,0,0,0,0,0,0,-1,1735,1170,0,0
518,-146,0,0,0,0,0,0,0,0,0,-1,1742,1170,0,0
525,-146,0,0,0,0,0,0,0,0,0,-1,1749,1170,0,0
532,-146,0,0,0,0,0,0,0,0,0,-1,1756,1170,0,0
539,-146,0,0,0,0,0,0,0,0,0,-1,1763,1170,0,0
546,-146,0,0,0,0,0,0,0,0,0,-1,1770,1170,0,0
553,-146,0,0,0,0,0,0,0,0,0,-1,1777,1170,0,0
560,-146,0,0,0,0,0,0,0,0,0,-1,1784,1170,0,0
567,-146,0,0,0,0,0,0,0,0,0,-1,1791,1170,0,0
574,-146,0,0,0,0,0,0,0,0,0,-1,1798,1170,0,0
581,-146,0,0,0,0,0,0,0,0,0,-1,1805,1170,0,0
588,-146,0,0,0,0,0,0,0,0,0,-1,1812,1170,0,0
595,-146,0,0,0,0,0,0,0,0,0,-1,1819,1170,0,0
602,-146,0,0,0,0,0,0,0,0,0,-1,1826,1170,0,0
609,-146,0,0,0,0,0,0,0,0,0,-1,1833,1170,0,0
616,-146,0,0,0,0,0,0,0,0,0,-1,1840,1170,0,0
623,-146,0,0,0,0,0,0,0,0,0,-1,1847,1170,0,0
630,-146,0,0,0,0,0,0,0,0,0,-1,1854,1170,0,0
637,-146,0.060791,-0.0301514,-0.00085039,0.000478962,-0.0015538,0.00150428,-0.00187571,-0.987507,0.00195536,0.0361665,1861,1170,0.0607348,0.0301182
644,-146,0.0544434,0.0500488,-0.000842339,0.00105121,-0.00123443,0.00166013,-0.00145126,-1.11254,0.00179771,0.0380384,1868,1170,0.0544645,-0.0500811
651,-146,0.0653076,-0.000366211,-0.000521011,0.000529544,-0.000998597,0.00113259,-0.00112406,-1.02752,0.00130288,0.0332957,1875,1170,0.0653471,0.000389326
658,-146,0.0350342,0.0289307,-0.000232671,-0.000138694,-0.000857651,0.000673254,-0.00104462,-0.812764,0.00099951,0.0340665,1882,1170,0.0349813,-0.0289165
665,-146,0.00891113,0.0915527,-0.000143509,-0.000719232,-0.000873992,0.000488807,-0.00135155,-0.626311,0.00110076,0.0345803,1889,1170,0.00893328,-0.0915471
672,-146,0.0437012,0.092041,-0.000149788,-0.00119073,-0.000926369,0.000392308,-0.00173283,-0.529454,0.00130578,0.0309463,1896,1170,0.0437348,-0.0919884
679,-146,0.0421143,0.0270996,-0.000184953,-0.00153592,-0.000994279,0.00034159,-0.00206246,-0.487025,0.00150184,0.0245733,1903,1170,0.0420948,-0.0270764
686,-146,-0.0234375,0.02771,-0.000267948,-0.00176086,-0.00107627,0.000295391,-0.0023242,-0.482204,0.00165673,0.0168158,1910,1170,-0.0233829,-0.027744
693,-146,-0.0330811,0.0509033,-0.000340443,-0.00181479,-0.00116536,0.000301326,-0.00245656,-0.503385,0.00174683,0.0100376,1917,1170,-0.0331046,-0.0508591
700,-146,0.0499268,0.199341,-0.000362639,-0.00180568,-0.00114347,0.00026792,-0.00243624,-0.503951,0.00172043,0.0354127,1924,1170,0.0498828,-0.199296
707,-146,0.0366211,0.115112,-0.000399788,-0.0016996,-0.00110096,0.000228776,-0.00232816,-0.518766,0.00163371,0.0256607,1931,1170,0.0366797,-0.115069
714,-146,0.00708008,0.0435791,-0.000528098,-0.00150084,-0.00104781,0.000140723,-0.00216966,-0.568108,0.00149555,0.0153725,1938,1170,0.00703789,-0.0435991
721,-146,-0.0296631,0.053833,-0.000644179,-0.00124927,-0.000941218,4.1923e-05,-0.00193537,-0.629894,0.00130445,0.0192161,1945,1170,-0.029712,-0.0538709
728,-146,-0.0341797,0.0461426,-0.000468255,-0.00093582,-0.000647798,-1.33458e-05,-0.00139073,-0.612227,0.000922736,0.0164978,1952,1170,-0.0342242,-0.0460909
735,-146,-0.0463867,0.0587158,-0.000166721,-0.000587504,-0.000237735,-5.96503e-05,-0.000694575,-0.42317,0.000444503,0.0159472,1959,1170,-0.0463533,-0.0587516
742,-146,-0.0367432,0.0501709,0.000113975,-0.00041918,0.00019101,0.000175343,-0.000480548,0.310866,0.000392107,0.0159991,1966,1170,-0.0367631,-0.0501366
749,-146,-0.0460205,0.0462646,0.000573214,5.92349e-05,0.000928528,0.00127966,-0.000647211,0.650392,0.00113228,0.014984,1973,1170,-0.046011,-0.0462786
756,-146,-0.0500488,0.0357666,0.00117169,0.000317956,0.00128036,0.00209447,-0.000604821,0.624494,0.00163563,0.0114451,1980,1170,-0.0500022,-0.0357669
763,-146,-0.0472412,0.0297852,0.00190198,0.000378018,0.00165072,0.00295809,-0.0006781,0.569167,0.00223269,0.00978108,1987,1170,-0.0472592,-0.0297437
770,-146,-0.0390625,0.0518799,0.002745,0.000530026,0.0020464,0.00396437,-0.000689345,0.537372,0.00290013,0.0109674,1994,1170,-0.0390732,-0.0519343
777,-146,-0.0479736,0.0970459,0.00370307,0.000743248,0.0022619,0.00492618,-0.000479859,0.495709,0.0034552,0.0203924,2001,1170,-0.0480282,-0.0970746
784,-146,0.433716,0.562378,0.00484058,0.00104867,0.0022501,0.00588701,2.23983e-06,0.435304,0.00392393,0.0358035,2008,1170,0.433761,-0.562364
791,-146,-0.151367,0.194458,0.0062023,0.00149861,0.00185998,0.00684891,0.000852006,0.334571,0.0043101,0.0455104,2015,1170,-0.151338,-0.194439
798,-146,-0.0623779,0.264282,0.00778841,0.00218876,0.000884874,0.00792491,0.00205225,0.153056,0.00474936,0.0438356,2022,1170,-0.0623678,-0.264252
805,-146,-0.0910645,0.247314,0.00964544,0.00326713,-0.000968648,0.0097893,0.00312327,-0.147438,0.00577391,0.0422936,2029,1170,-0.0910724,-0.247357
812,-146,0,0,0,0,0,0,0,0,0,-1,2036,1170,0,0
-700,-153,0,0,0,0,0,0,0,0,0,-1,524,1177,0,0
-693,-153,0,0,0,0,0,0,0,0,0,-1,531,1177,0,0
-686,-153,1.42664,3.06482,0,0,0,0,0,0,0,-1,538,1177,1.42663,-3.06477
-679,-153,1.53247,3.23328,0,0,0,0,0,0,0,-1,545,1177,1.53246,-3.23324
-672,-153,-0.320923,-0.323242,0,0,0,0,0,0,0,-1,552,1177,-0.320926,0.323272
-665,-153,-0.700256,-0.468994,0,0,0,0,0,0,0,-1,559,1177,-0.700279,0.46903
-658,-153,-0.655823,-0.565918,0,0,0,0,0,0,0,-1,566,1177,-0.655822,0.565869
-651,-153,-0.188904,-0.0734863,-0.00844865,0.0241915,0.0081733,0.0261237,-0.0103809,1.33865,0.0217194,0.046745,573,1177,-0.188914,0.0735063
-644,-153,-0.0397949,-0.0206299,-0.00642279,0.0173046,0.00569834,0.0186021,-0.00772034,1.34691,0.0156242,0.0267707,580,1177,-0.0398021,0.0206473
-637,-153,-0.00506592,0.0487061,-0.00446173,0.0115555,0.00345716,0.0122698,-0.00517607,1.36704,0.0103462,0.0108859,587,1177,-0.00504438,-0.0486465
-630,-153,-0.0234985,0.0355225,-0.00306193,0.00708909,0.00185102,0.00741609,-0.00338892,1.39594,0.00638107,0.00968738,594,1177,-0.0235151,-0.0354685
-623,-153,-0.0239258,0.0457764,-0.0022051,0.00387939,0.000947426,0.0040235,-0.00234921,1.41984,0.00372137,0.00934309,601,1177,-0.0239234,-0.0457624
-616,-153,-0.0234375,0.0487061,-0.00148228,0.00162688,0.000551092,0.00172167,-0.00157707,1.40046,0.00190514,0.0109433,608,1177,-0.0234474,-0.0486589
-609,-153,-0.00915527,0.043457,-0.000760024,-0.000160549,0.000406354,4.46547e-05,-0.000965228,1.10317,0.000658875,0.0168808,615,1177,-0.00913274,-0.0434631
-602,-153,-0.0195923,0.0388184,3.33807e-05,-0.00124482,0.000141235,4.88004e-05,-0.00126024,0.108747,0.000856892,0.0199924,622,1177,-0.0195804,-0.0387644
-595,-153,-0.0316162,0.0457764,0.000114839,-0.00148798,0.000161628,0.000130975,-0.00150412,0.0995052,0.00104913,0.0143018,629,1177,-0.0316203,-0.0457524
-588,-153,-0.0496826,0.050415,-0.000245457,-0.00207925,0.000364482,-0.000175669,-0.00214904,0.189182,0.00137788,0.00958693,636,1177,-0.0497094,-0.0504093
-581,-153,-0.0556641,0.039917,-0.000266909,-0.00247986,0.000478089,-0.000168039,-0.00257873,0.203927,0.00166597,0.018559,643,1177,-0.0556408,-0.0398888
-574,-153,-0.0875854,0.0430908,-7.89651e-05,-0.00278675,0.000547849,2.76777e-05,-0.00289339,0.192253,0.00193822,0.0385397,650,1177,-0.0875766,-0.0430782
-567,-153,-0.164001,0.151733,0.00011379,-0.00301356,0.000620462,0.000232391,-0.00313216,0.188871,0.00216972,0.0431057,657,1177,-0.164031,-0.15177
-560,-153,-0.0911255,0.101074,0.000328568,-0.00306215,0.00068407,0.000461375,-0.00319496,0.191758,0.00229925,0.0406842,664,1177,-0.0911306,-0.10113
-553,-153,-0.0472412,0.0960693,0.000611503,-0.00291334,0.000676532,0.000736891,-0.00303872,0.18326,0.00231095,0.0361752,671,1177,-0.0472428,-0.0960444
-546,-153,-0.0140381,0.0596924,0.000998662,-0.00247747,0.000598837,0.00109893,-0.00257774,0.165902,0.00217921,0.0360113,678,1177,-0.0140118,-0.0596673
-539,-153,-0.132751,0.0870361,0.00149655,-0.00170445,0.000451792,0.00155909,-0.001767,0.137562,0.00192157,0.036123,685,1177,-0.132762,-0.0870649
-532,-153,-0.103333,0.0935059,0.00211764,-0.000543887,0.000232739,0.00213784,-0.000564086,0.0865702,0.0016458,0.0375949,692,1177,-0.103332,-0.0935087
-525,-153,-0.0622559,0.148071,0.00292848,0.00105116,-0.000183659,0.00294628,0.00103336,-0.0966097,0.00172612,0.0362118,699,1177,-0.0622593,-0.148095
-518,-153,0,0,0,0,0,0,0,0,0,-1,706,1177,0,0
-511,-153,0,0,0,0,0,0,0,0,0,-1,713,1177,0,0
-504,-153,0,0,0,0,0,0,0,0,0,-1,720,1177,0,0
-497,-153,0,0,0,0,0,0,0,0,0,-1,727,1177,0,0
-490,-153,0,0,0,0,0,0,0,0,0,-1,734,1177,0,0
-483,-153,0,0,0,0,0,0,0,0,0,-1,741,1177,0,0
-476,-153,0,0,0,0,0,0,0,0,0,-1,748,1177,0,0
-469,-153,0,0,0,0,0,0,0,0,0,-1,755,1177,0,0
-462,-153,0,0,0,0,0,0,0,0,0,-1,762,1177,0,0
-455,-153,0,0,0,0,0,0,0,0,0,-1,769,1177,0,0
-448,-153,0,0,0,0,0,0,0,0,0,-1,776,1177,0,0
-441,-153,0,0,0,0,0,0,0,0,0,-1,783,1177,0,0
-434,-153,0,0,0,0,0,0,0,0,0,-1,790,1177,0,0
-427,-153,0,0,0,0,0,0,0,0,0,-1,797,1177,0,0
-420,-153,0,0,0,0,0,0,0,0,0,-1,804,1177,0,0
-413,-153,0,0,0,0,0,0,0,0,0,-1,811,1177,0,0
-406,-153,0,0,0,0,0,0,0,0,0,-1,818,1177,0,0
-399,-153,0,0,0,0,0,0,0,0,0,-1,825,1177,0,0
-392,-153,0,0,0,0,0,0,0,0,0,-1,832,1177,0,0
-385,-153,0,0,0,0,0,0,0,0,0,-1,839,1177,0,0
-378,-153,0,0,0,0,0,0,0,0,0,-1,846,1177,0,0
-371,-153,0,0,0,0,0,0,0,0,0,-1,853,1177,0,0
-364,-153,0,0,0,0,0,0,0,0,0,-1,860,1177,0,0
-357,-153,0,0,0,0,0,0,0,0,0,-1,867,1177,0,0
-350,-153,0,0,0,0,0,0,0,0,0,-1,874,1177,0,0
-343,-153,0,0,0,0,0,0,0,0,0,-1,881,1177,0,0
-336,-153,0,0,0,0,0,0,0,0,0,-1,888,1177,0,0
-329,-153,0,0,0,0,0,0,0,0,0,-1,895,1177,0,0
-322,-153,0,0,0,0,0,0,0,0,0,-1,902,1177,0,0
-315,-153,0,0,0,0,0,0,0,0,0,-1,909,1177,0,0
-308,-153,0,0,0,0,0,0,0,0,0,-1,916,1177,0,0
-301,-153,0,0,0,0,0,0,0,0,0,-1,923,1177,0,0
-294,-153,0,0,0,0,0,0,0,0,0,-1,930,1177,0,0
-287,-153,0,0,0,0,0,0,0,0,0,-1,937,1177,0,0
-280,-153,0,0,0,0,0,0,0,0,0,-1,944,1177,0,0
-273,-153,0,0,0,0,0,0,0,0,0,-1,951,1177,0,0
-266,-153,0,0,0,0,0,0,0,0,0,-1,958,1177,0,0
-259,-153,0,0,0,0,0,0,0,0,0,-1,965,1177,0,0
-252,-153,0,0,0,0,0,0,0,0,0,-1,972,1177,0,0
-245,-153,0,0,0,0,0,0,0,0,0,-1,979,1177,0,0
-238,-153,0,0,0,0,0,0,0,0,0,-1,986,1177,0,0
-231,-153,0,0,0,0,0,0,0,0,0,-1,993,1177,0,0
-224,-153,0,0,0,0,0,0,0,0,0,-1,1000,1177,0,0
-217,-153,0,0,0,0,0,0,0,0,0,-1,1007,1177,0,0
-210,-153,0,0,0,0,0,0,0,0,0,-1,1014,1177,0,0
-203,-153,0,0,0,0,0,0,0,0,0,-1,1021,1177,0,0
-196,-153,0,0,0,0,0,0,0,0,0,-1,1028,1177,0,0
-189,-153,0,0,0,0,0,0,0,0,0,-1,1035,1177,0,0
-182,-153,0,0,0,0,0,0,0,0,0,-1,1042,1177,0,0
-175,-153,0,0,0,0,0,0,0,0,0,-1,1049,1177,0,0
-168,-153,0,0,0,0,0,0,0,0,0,-1,1056,1177,0,0
-161,-153,0,0,0,0,0,0,0,0,0,-1,1063,1177,0,0
-154,-153,0,0,0,0,0,0,0,0,0,-1,1070,1177,0,0
-147,-153,0,0,0,0,0,0,0,0,0,-1,1077,1177,0,0
-140,-153,0,0,0,0,0,0,0,0,0,-1,1084,1177,0,0
-133,-153,0,0,0,0,0,0,0,0,0,-1,1091,1177,0,0
-126,-153,0,0,0,0,0,0,0,0,0,-1,1098,1177,0,0
-119,-153,0,0,0,0,0,0,0,0,0,-1,1105,1177,0,0
-112,-153,0,0,0,0,0,0,0,0,0,-1,1112,1177,0,0
-105,-153,0,0,0,0,0,0,0,0,0,-1,1119,1177,0,0
-98,-153,0,0,0,0,0,0,0,0,0,-1,1126,1177,0,0
-91,-153,0,0,0,0,0,0,0,0,0,-1,1133,1177,0,0
-84,-153,0,0,0,0,0,0,0,0,0,-1,1140,1177,0,0
-77,-153,0,0,0,0,0,0,0,0,0,-1,1147,1177,0,0
-70,-153,0,0,0,0,0,0,0,0,0,-1,1154,1177,0,0
-63,-153,0,0,0,0,0,0,0,0,0,-1,1161,1177,0,0
-56,-153,0,0,0,0,0,0,0,0,0,-1,1168,1177,0,0
-49,-153,0,0,0,0,0,0,0,0,0,-1,1175,1177,0,0
-42,-153,0,0,0,0,0,0,0,0,0,-1,1182,1177,0,0
-35,-153,0,0,0,0,0,0,0,0,0,-1,1189,1177,0,0
-28,-153,0,0,0,0,0,0,0,0,0,-1,1196,1177,0,0
-21,-153,0,0,0,0,0,0,0,0,0,-1,1203,1177,0,0
-14,-153,0,0,0,0,0,0,0,0,0,-1,1210,1177,0,0
-7,-153,0,0,0,0,0,0,0,0,0,-1,1217,1177,0,0
0,-153,0,0,0,0,0,0,0,0,0,-1,1224,1177,0,0
7,-153,0,0,0,0,0,0,0,0,0,-1,1231,1177,0,0
14,-153,0,0,0,0,0,0,0,0,0,-1,1238,1177,0,0
21,-153,0,0,0,0,0,0,0,0,0,-1,1245,1177,0,0
28,-153,0,0,0,0,0,0,0,0,0,-1,1252,1177,0,0
35,-153,0,0,0,0,0,0,0,0,0,-1,1259,1177,0,0
42,-153,0,0,0,0,0,0,0,0,0,-1,1266,1177,0,0
49,-153,0,0,0,0,0,0,0,0,0,-1,1273,1177,0,0
56,-153,0,0,0,0,0,0,0,0,0,-1,1280,1177,0,0
63,-153,0,0,0,0,0,0,0,0,0,-1,1287,1177,0,0
70,-153,0,0,0,0,0,0,0,0,0,-1,1294,1177,0,0
77,-153,0,0,0,0,0,0,0,0,0,-1,1301,1177,0,0
84,-153,0,0,0,0,0,0,0,0,0,-1,1308,1177,0,0
91,-153,0,0,0,0,0,0,0,0,0,-1,1315,1177,0,0
98,-153,0,0,0,0,0,0,0,0,0,-1,1322,1177,0,0
105,-153,0,0,0,0,0,0,0,0,0,-1,1329,1177,0,0
112,-153,0,0,0,0,0,0,0,0,0,-1,1336,1177,0,0
119,-153,0,0,0,0,0,0,0,0,0,-1,1343,1177,0,0
126,-153,0,0,0,0,0,0,0,0,0,-1,1350,1177,0,0
133,-153,0,0,0,0,0,0,0,0,0,-1,1357,1177,0,0
140,-153,0,0,0,0,0,0,0,0,0,-1,1364,1177,0,0
147,-153,0,0,0,0,0,0,0,0,0,-1,1371,1177,0,0
154,-153,0,0,0,0,0,0,0,0,0,-1,1378,1177,0,0
161,-153,0,0,0,0,0,0,0,0,0,-1,1385,1177,0,0
168,-153,0,0,0,0,0,0,0,0,0,-1,1392,1177,0,0
175,-153,0,0,0,0,0,0,0,0,0,-1,1399,1177,0,0
182,-153,0,0,0,0,0,0,0,0,0,-1,1406,1177,0,0
189,-153,0,0,0,0,0,0,0,0,0,-1,1413,1177,0,0
196,-153,0,0,0,0,0,0,0,0,0,-1,1420,1177,0,0
203,-153,0,0,0,0,0,0,0,0,0,-1,1427,1177,0,0
210,-153,0,0,0,0,0,0,0,0,0,-1,1434,1177,0,0
217,-153,0,0,0,0,0,0,0,0,0,-1,1441,1177,0,0
224,-153,0,0,0,0,0,0,0,0,0,-1,1448,1177,0,0
231,-153,0,0,0,0,0,0,0,0,0,-1,1455,1177,0,0
238,-153,0,0,0,0,0,0,0,0,0,-1,1462,1177,0,0
245,-153,0,0,0,0,0,0,0,0,0,-1,1469,1177,0,0
252,-153,0,0,0,0,0,0,0,0,0,-1,1476,1177,0,0
259,-153,0,0,0,0,0,0,0,0,0,-1,1483,1177,0,0
266,-153,0,0,0,0,0,0,0,0,0,-1,1490,1177,0,0
273,-153,0,0,0,0,0,0,0,0,0,-1,1497,1177,0,0
280,-153,0,0,0,0,0,0,0,0,0,-1,1504,1177,0,0
287,-153,0,0,0,0,0,0,0,0,0,-1,1511,1177,0,0
294,-153,0,0,0,0,0,0,0,0,0,-1,1518,1177,0,0
301,-153,0,0,0,0,0,0,0,0,0,-1,1525,1177,0,0
308,-153,0,0,0,0,0,0,0,0,0,-1,1532,1177,0,0
315,-153,0,0,0,0,0,0,0,0,0,-1,1539,1177,0,0
322,-153,0,0,0,0,0,0,0,0,0,-1,1546,1177,0,0
329,-153,0,0,0,0,0,0,0,0,0,-1,1553,1177,0,0
336,-153,0,0,0,0,0,0,0,0,0,-1,1560,1177,0,0
343,-153,0,0,0,0,0,0,0,0,0,-1,1567,1177,0,0
350,-153,0,0,0,0,0,0,0,0,0,-1,1574,1177,0,0
357,-153,0,0,0,0,0,0,0,0,0,-1,1581,1177,0,0
364,-153,0,0,0,0,0,0,0,0,0,-1,1588,1177,0,0
371,-153,0,0,0,0,0,0,0,0,0,-1,1595,1177,0,0
378,-153,0,0,0,0,0,0,0,0,0,-1,1602,1177,0,0
385,-153,0,0,0,0,0,0,0,0,0,-1,1609,1177,0,0
392,-153,0,0,0,0,0,0,0,0,0,-1,1616,1177,0,0
399,-153,0,0,0,0,0,0,0,0,0,-1,1623,1177,0,0
406,-153,0,0,0,0,0,0,0,0,0,-1,1630,1177,0,0
413,-153,0,0,0,0,0,0,0,0,0,-1,1637,1177,0,0
420,-153,0,0,0,0,0,0,0,0,0,-1,1644,1177,0,0
427,-153,0,0,0,0,0,0,0,0,0,-1,1651,1177,0,0
434,-153,0,0,0,0,0,0,0,0,0,-1,1658,1177,0,0
441,-153,0,0,0,0,0,0,0,0,0,-1,1665,1177,0,0
448,-153,0,0,0,0,0,0,0,0,0,-1,1672,1177,0,0
455,-153,0,0,0,0,0,0,0,0,0,-1,1679,1177,0,0
462,-153,0,0,0,0,0,0,0,0,0,-1,1686,1177,0,0
469,-153,0,0,0,0,0,0,0,0,0,-1,1693,1177,0,0
476,-153,0,0,0,0,0,0,0,0,0,-1,1700,1177,0,0
483,-153,0,0,0,0,0,0,0,0,0,-1,1707,1177,0,0
490,-153,0,0,0,0,0,0,0,0,0,-1,1714,1177,0,0
497,-153,0,0,0,0,0,0,0,0,0,-1,1721,1177,0,0
504,-153,0,0,0,0,0,0,0,0,0,-1,1728,1177,0,0
511,-153,0,0,0,0,0,0,0,0,0,-1,1735,1177,0,0
518,-153,0,0,0,0,0,0,0,0,0,-1,1742,1177,0,0
525,-153,0,0,0,0,0,0,0,0,0,-1,1749,1177,0,0
532,-153,0,0,0,0,0,0,0,0,0,-1,1756,1177,0,0
539,-153,0,0,0,0,0,0,0,0,0,-1,1763,1177,0,0
546,-153,0,0,0,0,0,0,0,0,0,-1,1770,1177,0,0
553,-153,0,0,0,0,0,0,0,0,0,-1,1777,1177,0,0
560,-153,0,0,0,0,0,0,0,0,0,-1,1784,1177,0,0
567,-153,0,0,0,0,0,0,0,0,0,-1,1791,1177,0,0
574,-153,0,0,0,0,0,0,0,0,0,-1,1798,1177,0,0
581,-153,0,0,0,0,0,0,0,0,0,-1,1805,1177,0,0
588,-153,0,0,0,0,0,0,0,0,0,-1,1812,1177,0,0
595,-153,0,0,0,0,0,0,0,0,0,-1,1819,1177,0,0
602,-153,0,0,0,0,0,0,0,0,0,-1,1826,1177,0,0
609,-153,0,0,0,0,0,0,0,0,0,-1,1833,1177,0,0
616,-153,0,0,0,0,0,0,0,0,0,-1,1840,1177,0,0
623,-153,0,0,0,0,0,0,0,0,0,-1,1847,1177,0,0
630,-153,0,0,0,0,0,0,0,0,0,-1,1854,1177,0,0
637,-153,-0.00964355,-0.0391846,-0.00147102,0.00127574,-0.0012005,0.00172646,-0.00192175,-1.21163,0.0021073,0.0363212,1861,1177,-0.00965947,0.0391564
644,-153,0.0404053,0.0620117,-0.00136807,0.00166519,-0.000834783,0.00187975,-0.00158264,-1.31921,0.00200146,0.0365946,1868,1177,0.0403881,-0.062005
651,-153,0.0708008,0.115723,-0.000868953,0.00089501,-0.000705073,0.0011422,-0.00111614,-1.2336,0.00130388,0.0286467,1875,1177,0.0708565,-0.115755
658,-153,0.0561523,0.09375,-0.000447291,5.02101e-05,-0.000716954,0.00056034,-0.000957421,-0.952378,0.00088622,0.0300573,1882,1177,0.0561594,-0.0937625
665,-153,0.0419922,0.0678711,-0.000256064,-0.0006597,-0.000867587,0.00043287,-0.00134863,-0.67112,0.00107289,0.032427,1889,1177,0.0419552,-0.0678288
672,-153,0.0119629,0.0751953,-0.000183269,-0.00122597,-0.00102764,0.00044771,-0.00185694,-0.550653,0.00141108,0.0308396,1896,1177,0.0120133,-0.0752219
679,-153,-0.0108643,0.0455322,-0.000164949,-0.00163372,-0.00118172,0.000491988,-0.00229065,-0.507375,0.00171479,0.0229103,1903,1177,-0.0109066,-0.0455579
686,-153,-0.03125,0.0385742,-0.000221803,-0.00189826,-0.00133326,0.000514838,-0.0026349,-0.504769,0.00195099,0.0134525,1910,1177,-0.0312363,-0.0386065
693,-153,-0.0266113,0.0700684,-0.000269941,-0.00197013,-0.00146247,0.000571554,-0.00281162,-0.52213,0.00209113,0.0188301,1917,1177,-0.0266467,-0.0700751
700,-153,0.052124,0.270386,-0.000267127,-0.00197385,-0.00146294,0.000573154,-0.00281413,-0.521367,0.00209346,0.0370747,1924,1177,0.0521565,-0.270393
707,-153,0.0306396,0.278198,-0.000299144,-0.00186661,-0.00141939,0.00053851,-0.00270426,-0.533147,0.00200658,0.0307742,1931,1177,0.0306706,-0.278167
714,-153,-0.00476074,0.0465088,-0.000468434,-0.00165125,-0.0013523,0.00041613,-0.00253581,-0.579263,0.00184496,0.0164724,1938,1177,-0.00470457,-0.0465127
721,-153,-0.0203857,0.0482178,-0.000633194,-0.00137205,-0.00122888,0.000280591,-0.00228583,-0.639385,0.00162551,0.0141992,1945,1177,-0.0203972,-0.0482653
728,-153,-0.036499,0.0473633,-0.000502927,-0.00101422,-0.000928412,0.000204392,-0.00172154,-0.651047,0.00122154,0.0185281,1952,1177,-0.0365109,-0.047388
735,-153,-0.0577393,0.059082,-0.000234187,-0.000576389,-0.000473008,9.77147e-05,-0.000908291,-0.611855,0.000640588,0.0154994,1959,1177,-0.057728,-0.059022
742,-153,-0.0372314,0.0550537,9.72819e-05,-0.000326636,3.59099e-05,0.000100302,-0.000329656,0.0839129,0.000259743,0.0138025,1966,1177,-0.0371873,-0.0550268
749,-153,-0.0308838,0.0465088,0.000616703,0.000347359,0.000893609,0.00138573,-0.000421669,0.710608,0.00109186,0.0147429,1973,1177,-0.0308864,-0.0465154
756,-153,-0.0284424,0.041626,0.00131399,0.00080723,0.00132838,0.00241294,-0.000291723,0.691159,0.00171416,0.0100598,1980,1177,-0.0283912,-0.0416857
763,-153,-0.0339355,0.0438232,0.00220515,0.00111838,0.00186024,0.00359975,-0.000276208,0.643299,0.002497,0.00989031,1987,1177,-0.0339265,-0.0437669
770,-153,-0.0297852,0.0457764,0.00325369,0.00161952,0.00241892,0.0049898,-0.000116586,0.62252,0.00336607,0.00960124,1994,1177,-0.0297757,-0.0457992
777,-153,-0.0284424,0.0426025,0.00451895,0.00230101,0.00286918,0.00648602,0.000333939,0.600986,0.00421711,0.0212741,2001,1177,-0.0285019,-0.0425438
784,-153,0.432007,0.486938,0.00608699,0.0032175,0.00317455,0.00813596,0.00116853,0.57316,0.00507947,0.0406672,2008,1177,0.431998,-0.486946
791,-153,0.878296,0.920654,0.00802282,0.00444908,0.00318592,0.00988876,0.00258315,0.529825,0.00592231,0.0442596,2015,1177,0.878282,-0.920702
798,-153,0.0681152,0.451416,0,0,0,0,0,0,0,-1,2022,1177,0.0681148,-0.451451
805,-153,-0.0494385,0.298218,0,0,0,0,0,0,0,-1,2029,1177,-0.0493957,-0.298165
812,-153,0,0,0,0,0,0,0,0,0,-1,2036,1177,0,0
-700,-160,0,0,0,0,0,0,0,0,0,-1,524,1184,0,0
-693,-160,0,0,0,0,0,0,0,0,0,-1,531,1184,0,0
-686,-160,1.37817,2.74585,-0.0125878,0.0840835,0.0329187,0.0942284,-0.0227327,1.27185,0.0716095,0.0477486,538,1184,1.37819,-2.74579
-679,-160,1.37494,2.70203,-0.0133287,0.0701627,0.0259863,0.0775901,-0.0207561,1.2924,0.0598572,0.0462724,545,1184,1.37492,-2.70201
-672,-160,1.26123,2.65027,-0.0128078,0.0573172,0.0202074,0.0627234,-0.018214,1.30938,0.049028,0.0441508,552,1184,1.26125,-2.65027
-665,-160,-1.23834,-0.458252,0,0,0,0,0,0,0,-1,559,1184,-1.23836,0.45824
-658,-160,1.11115,-2.03406,0,0,0,0,0,0,0,-1,566,1184,1.11117,2.03402
-651,-160,-0.067627,0.0449219,0,0,0,0,0,0,0,-1,573,1184,-0.0676277,-0.0449271
-644,-160,-0.0324707,0.0483398,-0.0063066,0.0193334,0.00569795,0.0205426,-0.00751582,1.36168,0.0167714,0.0375381,580,1184,-0.0324473,-0.0483503
-637,-160,-0.00952148,0.0571289,-0.00457033,0.0133924,0.00350176,0.0140509,-0.00522884,1.38492,0.0115131,0.0135418,587,1184,-0.0095254,-0.0571761
-630,-160,-0.0293579,0.0317383,-0.00327984,0.008534,0.00188143,0.0088264,-0.00357224,1.41662,0.00736949,0.00849885,594,1184,-0.0293611,-0.0317526
-623,-160,-0.0307007,0.0296631,-0.00242041,0.00483787,0.000890768,0.00494559,-0.00252813,1.45045,0.00438955,0.00862581,601,1184,-0.0307004,-0.0296191
-616,-160,-0.0237427,0.0435791,-0.00162479,0.00210282,0.000506356,0.00217038,-0.00169234,1.43816,0.00223583,0.0073547,608,1184,-0.0237133,-0.0436036
-609,-160,-0.0213013,0.0560303,-0.000933009,0.000121965,0.000327001,0.000215101,-0.00102614,1.29333,0.000765932,0.0118668,615,1184,-0.021276,-0.0560611
-602,-160,-0.00860596,0.06604,-0.00014114,-0.00114242,9.41513e-05,-0.000132364,-0.0011512,0.0929453,0.000727369,0.017815,622,1184,-0.00862584,-0.0659858
-595,-160,-0.00714111,0.0737305,-3.22055e-05,-0.00156117,0.000188069,-9.41195e-06,-0.00158396,0.120609,0.00105285,0.0176316,629,1184,-0.00716222,-0.0737618
-588,-160,-0.0162354,0.0825195,-0.000382762,-0.00233812,0.00046751,-0.000276733,-0.00244415,0.223021,0.00154547,0.0167474,636,1184,-0.0162326,-0.0824628
-581,-160,-0.0551758,0.0495605,-0.000385393,-0.00286243,0.000611083,-0.000242842,-0.00300498,0.229176,0.00192748,0.0150857,643,1184,-0.0551664,-0.04955
-574,-160,-0.0870361,0.0183105,-0.000209211,-0.0032498,0.000681235,-6.35594e-05,-0.00339545,0.210634,0.00224275,0.0387134,650,1184,-0.087012,-0.0183176
-567,-160,-0.214661,0.385376,-1.00366e-05,-0.00354061,0.000754977,0.000144632,-0.00369528,0.202069,0.00251312,0.0451705,657,1184,-0.21467,-0.385332
-560,-160,-0.134399,0.205078,0.000220334,-0.00364916,0.000822953,0.000388084,-0.00381691,0.201085,0.00268334,0.0380001,664,1184,-0.13441,-0.205119
-553,-160,-0.0371704,0.102539,0.000532434,-0.0035564,0.000806882,0.000685902,-0.00370987,0.187954,0.00273075,0.0358302,671,1184,-0.0371922,-0.102483
-546,-160,-0.111938,0.12561,0.000951763,-0.00314524,0.000711887,0.00107193,-0.00326541,0.16723,0.00260873,0.0350506,678,1184,-0.11194,-0.12565
-539,-160,-0.123474,0.0577393,0.00147884,-0.00234864,0.000541111,0.00155387,-0.00242367,0.137779,0.00231466,0.0361998,685,1184,-0.123501,-0.0577618
-532,-160,-0.0706787,0.022583,0.00211225,-0.00109279,0.000302879,0.00214062,-0.00112117,0.0933991,0.00191361,0.0391439,692,1184,-0.0706999,-0.0225699
-525,-160,-0.03479,0.115601,0.00289835,0.000703272,-0.000116563,0.00290453,0.0006971,-0.0529034,0.00175087,0.0397003,699,1184,-0.0347952,-0.11554
-518,-160,-0.0352173,0.0964355,0.00379746,0.00329396,-0.000834025,0.0044169,0.00267452,-0.638823,0.00256896,0.0396453,706,1184,-0.0352476,-0.0964641
-511,-160,0,0,0,0,0,0,0,0,0,-1,713,1184,0,0
-504,-160,0,0,0,0,0,0,0,0,0,-1,720,1184,0,0
-497,-160,0,0,0,0,0,0,0,0,0,-1,727,1184,0,0
-490,-160,0,0,0,0,0,0,0,0,0,-1,734,1184,0,0
-483,-160,0,0,0,0,0,0,0,0,0,-1,741,1184,0,0
-476,-160,0,0,0,0,0,0,0,0,0,-1,748,1184,0,0
-469,-160,0,0,0,0,0,0,0,0,0,-1,755,1184,0,0
-462,-160,0,0,0,0,0,0,0,0,0,-1,762,1184,0,0
-455,-160,0,0,0,0,0,0,0,0,0,-1,769,1184,0,0
-448,-160,0,0,0,0,0,0,0,0,0,-1,776,1184,0,0
-441,-160,0,0,0,0,0,0,0,0,0,-1,783,1184,0,0
-434,-160,0,0,0,0,0,0,0,0,0,-1,790,1184,0,0
-427,-160,0,0,0,0,0,0,0,0,0,-1,797,1184,0,0
-420,-160,0,0,0,0,0,0,0,0,0,-1,804,1184,0,0
-413,-160,0,0,0,0,0,0,0,0,0,-1,811,1184,0,0
-406,-160,0,0,0,0,0,0,0,0,0,-1,818,1184,0,0
-399,-160,0,0,0,0,0,0,0,0,0,-1,825,1184,0,0
-392,-160,0,0,0,0,0,0,0,0,0,-1,832,1184,0,0
-385,-160,0,0,0,0,0,0,0,0,0,-1,839,1184,0,0
-378,-160,0,0,0,0,0,0,0,0,0,-1,846,1184,0,0
-371,-160,0,0,0,0,0,0,0,0,0,-1,853,1184,0,0
-364,-160,0,0,0,0,0,0,0,0,0,-1,860,1184,0,0
-357,-160,0,0,0,0,0,0,0,0,0,-1,867,1184,0,0
-350,-160,0,0,0,0,0,0,0,0,0,-1,874,1184,0,0
-343,-160,0,0,0,0,0,0,0,0,0,-1,881,1184,0,0
-336,-160,0,0,0,0,0,0,0,0,0,-1,888,1184,0,0
-329,-160,0,0,0,0,0,0,0,0,0,-1,895,1184,0,0
-322,-160,0,0,0,0,0,0,0,0,0,-1,902,1184,0,0
-315,-160,0,0,0,0,0,0,0,0,0,-1,909,1184,0,0
-308,-160,0,0,0,0,0,0,0,0,0,-1,916,1184,0,0
-301,-160,0,0,0,0,0,0,0,0,0,-1,923,1184,0,0
-294,-160,0,0,0,0,0,0,0,0,0,-1,930,1184,0,0
-287,-160,0,0,0,0,0,0,0,0,0,-1,937,1184,0,0
-280,-160,0,0,0,0,0,0,0,0,0,-1,944,1184,0,0
-273,-160,0,0,0,0,0,0,0,0,0,-1,951,1184,0,0
-266,-160,0,0,0,0,0,0,0,0,0,-1,958,1184,0,0
-259,-160,0,0,0,0,0,0,0,0,0,-1,965,1184,0,0
-252,-160,0,0,0,0,0,0,0,0,0,-1,972,1184,0,0
-245,-160,0,0,0,0,0,0,0,0,0,-1,979,1184,0,0
-238,-160,0,0,0,0,0,0,0,0,0,-1,986,1184,0,0
-231,-160,0,0,0,0,0,0,0,0,0,-1,993,1184,0,0
-224,-160,0,0,0,0,0,0,0,0,0,-1,1000,1184,0,0
-217,-160,0,0,0,0,0,0,0,0,0,-1,1007,1184,0,0
-210,-160,0,0,0,0,0,0,0,0,0,-1,1014,1184,0,0
-203,-160,0,0,0,0,0,0,0,0,0,-1,1021,1184,0,0
-196,-160,0,0,0,0,0,0,0,0,0,-1,1028,1184,0,0
-189,-160,0,0,0,0,0,0,0,0,0,-1,1035,1184,0,0
-182,-160,0,0,0,0,0,0,0,0,0,-1,1042,1184,0,0
-175,-160,0,0,0,0,0,0,0,0,0,-1,1049,1184,0,0
-168,-160,0,0,0,0,0,0,0,0,0,-1,1056,1184,0,0
-161,-160,0,0,0,0,0,0,0,0,0,-1,1063,1184,0,0
-154,-160,0,0,0,0,0,0,0,0,0,-1,1070,1184,0,0
-147,-160,0,0,0,0,0,0,0,0,0,-1,1077,1184,0,0
-140,-160,0,0,0,0,0,0,0,0,0,-1,1084,1184,0,0
-133,-160,0,0,0,0,0,0,0,0,0,-1,1091,1184,0,0
-126,-160,0,0,0,0,0,0,0,0,0,-1,1098,1184,0,0
-119,-160,0,0,0,0,0,0,0,0,0,-1,1105,1184,0,0
-112,-160,0,0,0,0,0,0,0,0,0,-1,1112,1184,0,0
-105,-160,0,0,0,0,0,0,0,0,0,-1,1119,1184,0,0
-98,-160,0,0,0,0,0,0,0,0,0,-1,1126,1184,0,0
-91,-160,0,0,0,0,0,0,0,0,0,-1,1133,1184,0,0
-84,-160,0,0,0,0,0,0,0,0,0,-1,1140,1184,0,0
-77,-160,0,0,0,0,0,0,0,0,0,-1,1147,1184,0,0
-70,-160,0,0,0,0,0,0,0,0,0,-1,1154,1184,0,0
-63,-160,0,0,0,0,0,0,0,0,0,-1,1161,1184,0,0
-56,-160,0,0,0,0,0,0,0,0,0,-1,1168,1184,0,0
-49,-160,0,0,0,0,0,0,0,0,0,-1,1175,1184,0,0
-42,-160,0,0,0,0,0,0,0,0,0,-1,1182,1184,0,0
-35,-160,0,0,0,0,0,0,0,0,0,-1,1189,1184,0,0
-28,-160,0,0,0,0,0,0,0,0,0,-1,1196,1184,0,0
-21,-160,0,0,0,0,0,0,0,0,0,-1,1203,1184,0,0
-14,-160,0,0,0,0,0,0,0,0,0,-1,1210,1184,0,0
-7,-160,0,0,0,0,0,0,0,0,0,-1,1217,1184,0,0
0,-160,0,0,0,0,0,0,0,0,0,-1,1224,1184,0,0
7,-160,0,0,0,0,0,0,0,0,0,-1,1231,1184,0,0
14,-160,0,0,0,0,0,0,0,0,0,-1,1238,1184,0,0
21,-160,0,0,0,0,0,0,0,0,0,-1,1245,1184,0,0
28,-160,0,0,0,0,0,0,0,0,0,-1,1252,1184,0,0
35,-160,0,0,0,0,0,0,0,0,0,-1,1259,1184,0,0
42,-160,0,0,0,0,0,0,0,0,0,-1,1266,1184,0,0
49,-160,0,0,0,0,0,0,0,0,0,-1,1273,1184,0,0
56,-160,0,0,0,0,0,0,0,0,0,-1,1280,1184,0,0
63,-160,0,0,0,0,0,0,0,0,0,-1,1287,1184,0,0
70,-160,0,0,0,0,0,0,0,0,0,-1,1294,1184,0,0
77,-160,0,0,0,0,0,0,0,0,0,-1,1301,1184,0,0
84,-160,0,0,0,0,0,0,0,0,0,-1,1308,1184,0,0
91,-160,0,0,0,0,0,0,0,0,0,-1,1315,1184,0,0
98,-160,0,0,0,0,0,0,0,0,0,-1,1322,1184,0,0
105,-160,0,0,0,0,0,0,0,0,0,-1,1329,1184,0,0
112,-160,0,0,0,0,0,0,0,0,0,-1,1336,1184,0,0
119,-160,0,0,0,0,0,0,0,0,0,-1,1343,1184,0,0
126,-160,0,0,0,0,0,0,0,0,0,-1,1350,1184,0,0
133,-160,0,0,0,0,0,0,0,0,0,-1,1357,1184,0,0
140,-160,0,0,0,0,0,0,0,0,0,-1,1364,1184,0,0
147,-160,0,0,0,0,0,0,0,0,0,-1,1371,1184,0,0
154,-160,0,0,0,0,0,0,0,0,0,-1,1378,1184,0,0
161,-160,0,0,0,0,0,0,0,0,0,-1,1385,1184,0,0
168,-160,0,0,0,0,0,0,0,0,0,-1,1392,1184,0,0
175,-160,0,0,0,0,0,0,0,0,0,-1,1399,1184,0,0
182,-160,0,0,0,0,0,0,0,0,0,-1,1406,1184,0,0
189,-160,0,0,0,0,0,0,0,0,0,-1,1413,1184,0,0
196,-160,0,0,0,0,0,0,0,0,0,-1,1420,1184,0,0
203,-160,0,0,0,0,0,0,0,0,0,-1,1427,1184,0,0
210,-160,0,0,0,0,0,0,0,0,0,-1,1434,1184,0,0
217,-160,0,0,0,0,0,0,0,0,0,-1,1441,1184,0,0
224,-160,0,0,0,0,0,0,0,0,0,-1,1448,1184,0,0
231,-160,0,0,0,0,0,0,0,0,0,-1,1455,1184,0,0
238,-160,0,0,0,0,0,0,0,0,0,-1,1462,1184,0,0
245,-160,0,0,0,0,0,0,0,0,0,-1,1469,1184,0,0
252,-160,0,0,0,0,0,0,0,0,0,-1,1476,1184,0,0
259,-160,0,0,0,0,0,0,0,0,0,-1,1483,1184,0,0
266,-160,0,0,0,0,0,0,0,0,0,-1,1490,1184,0,0
273,-160,0,0,0,0,0,0,0,0,0,-1,1497,1184,0,0
280,-160,0,0,0,0,0,0,0,0,0,-1,1504,1184,0,0
287,-160,0,0,0,0,0,0,0,0,0,-1,1511,1184,0,0
294,-160,0,0,0,0,0,0,0,0,0,-1,1518,1184,0,0
301,-160,0,0,0,0,0,0,0,0,0,-1,1525,1184,0,0
308,-160,0,0,0,0,0,0,0,0,0,-1,1532,1184,0,0
315,-160,0,0,0,0,0,0,0,0,0,-1,1539,1184,0,0
322,-160,0,0,0,0,0,0,0,0,0,-1,1546,1184,0,0
329,-160,0,0,0,0,0,0,0,0,0,-1,1553,1184,0,0
336,-160,0,0,0,0,0,0,0,0,0,-1,1560,1184,0,0
343,-160,0,0,0,0,0,0,0,0,0,-1,1567,1184,0,0
350,-160,0,0,0,0,0,0,0,0,0,-1,1574,1184,0,0
357,-160,0,0,0,0,0,0,0,0,0,-1,1581,1184,0,0
364,-160,0,0,0,0,0,0,0,0,0,-1,1588,1184,0,0
371,-160,0,0,0,0,0,0,0,0,0,-1,1595,1184,0,0
378,-160,0,0,0,0,0,0,0,0,0,-1,1602,1184,0,0
385,-160,0,0,0,0,0,0,0,0,0,-1,1609,1184,0,0
392,-160,0,0,0,0,0,0,0,0,0,-1,1616,1184,0,0
399,-160,0,0,0,0,0,0,0,0,0,-1,1623,1184,0,0
406,-160,0,0,0,0,0,0,0,0,0,-1,1630,1184,0,0
413,-160,0,0,0,0,0,0,0,0,0,-1,1637,1184,0,0
420,-160,0,0,0,0,0,0,0,0,0,-1,1644,1184,0,0
427,-160,0,0,0,0,0,0,0,0,0,-1,1651,1184,0,0
434,-160,0,0,0,0,0,0,0,0,0,-1,1658,1184,0,0
441,-160,0,0,0,0,0,0,0,0,0,-1,1665,1184,0,0
448,-160,0,0,0,0,0,0,0,0,0,-1,1672,1184,0,0
455,-160,0,0,0,0,0,0,0,0,0,-1,1679,1184,0,0
462,-160,0,0,0,0,0,0,0,0,0,-1,1686,1184,0,0
469,-160,0,0,0,0,0,0,0,0,0,-1,1693,1184,0,0
476,-160,0,0,0,0,0,0,0,0,0,-1,1700,1184,0,0
483,-160,0,0,0,0,0,0,0,0,0,-1,1707,1184,0,0
490,-160,0,0,0,0,0,0,0,0,0,-1,1714,1184,0,0
497,-160,0,0,0,0,0,0,0,0,0,-1,1721,1184,0,0
504,-160,0,0,0,0,0,0,0,0,0,-1,1728,1184,0,0
511,-160,0,0,0,0,0,0,0,0,0,-1,1735,1184,0,0
518,-160,0,0,0,0,0,0,0,0,0,-1,1742,1184,0,0
525,-160,0,0,0,0,0,0,0,0,0,-1,1749,1184,0,0
532,-160,0,0,0,0,0,0,0,0,0,-1,1756,1184,0,0
539,-160,0,0,0,0,0,0,0,0,0,-1,1763,1184,0,0
546,-160,0,0,0,0,0,0,0,0,0,-1,1770,1184,0,0
553,-160,0,0,0,0,0,0,0,0,0,-1,1777,1184,0,0
560,-160,0,0,0,0,0,0,0,0,0,-1,1784,1184,0,0
567,-160,0,0,0,0,0,0,0,0,0,-1,1791,1184,0,0
574,-160,0,0,0,0,0,0,0,0,0,-1,1798,1184,0,0
581,-160,0,0,0,0,0,0,0,0,0,-1,1805,1184,0,0
588,-160,0,0,0,0,0,0,0,0,0,-1,1812,1184,0,0
595,-160,0,0,0,0,0,0,0,0,0,-1,1819,1184,0,0
602,-160,0,0,0,0,0,0,0,0,0,-1,1826,1184,0,0
609,-160,0,0,0,0,0,0,0,0,0,-1,1833,1184,0,0
616,-160,0,0,0,0,0,0,0,0,0,-1,1840,1184,0,0
623,-160,0,0,0,0,0,0,0,0,0,-1,1847,1184,0,0
630,-160,0,0,0,0,0,0,0,0,0,-1,1854,1184,0,0
637,-160,-0.0253906,0.0737305,-0.00211777,0.00158764,-0.000942411,0.00181355,-0.00234369,-1.33552,0.00240668,0.038583,1861,1184,-0.0253576,-0.0737843
644,-160,-0.0430908,0.0925293,-0.00177385,0.0017009,-0.000551621,0.00178637,-0.00185932,-1.41708,0.00210498,0.0390142,1868,1184,-0.0430701,-0.092531
651,-160,-0.0933838,0.118408,-0.0010402,0.000715567,-0.000530606,0.000863462,-0.0011881,-1.29897,0.0011894,0.0359588,1875,1184,-0.0933725,-0.11836
658,-160,-0.0931396,0.0623779,-0.000464363,-0.000246819,-0.000683298,0.000336311,-0.00104749,-0.864329,0.000833368,0.0351069,1882,1184,-0.0931017,-0.0623925
665,-160,0.046875,0.0137939,-0.000160781,-0.00102125,-0.000945147,0.000447446,-0.00162948,-0.57181,0.00126219,0.032923,1889,1184,0.0469297,-0.0137987
672,-160,-0.0150146,0.0629883,-1.33912e-05,-0.0016111,-0.00118754,0.000618983,-0.00224347,-0.489315,0.00173909,0.0301736,1896,1184,-0.0149893,-0.0629285
679,-160,-0.0336914,0.0449219,4.99744e-05,-0.00200777,-0.00139758,0.000756556,-0.00271436,-0.468098,0.00210752,0.0220981,1903,1184,-0.0336306,-0.0448802
686,-160,-0.0264893,0.0318604,6.39383e-06,-0.00224074,-0.00159254,0.000831822,-0.00306617,-0.478188,0.00237054,0.0126605,1910,1184,-0.0265214,-0.031895
693,-160,-0.0151367,0.132813,-4.13676e-05,-0.00227793,-0.00173998,0.000908701,-0.003228,-0.499785,0.00251034,0.0330852,1917,1184,-0.0150862,-0.132783
700,-160,0.0432129,0.343262,-4.25315e-05,-0.00224626,-0.00175016,0.000923733,-0.00321252,-0.504455,0.00250698,0.0379438,1924,1184,0.0432209,-0.343312
707,-160,0.000610352,0.225708,-9.65745e-05,-0.00209394,-0.00169495,0.000872028,-0.00306255,-0.519173,0.00238609,0.0332596,1931,1184,0.000620911,-0.225734
714,-160,-0.0168457,0.0443115,-0.000325043,-0.00182682,-0.00160609,0.000697021,-0.00284889,-0.566732,0.00216925,0.0210528,1938,1184,-0.0168157,-0.0442976
721,-160,-0.0308838,0.0393066,-0.000546473,-0.00149204,-0.00146831,0.000523287,-0.0025618,-0.629643,0.00190639,0.0102596,1945,1184,-0.0309194,-0.0392557
728,-160,-0.0397949,0.0391846,-0.000477919,-0.00108929,-0.00116239,0.000418305,-0.00198551,-0.656819,0.00148291,0.0100693,1952,1184,-0.0397679,-0.0391839
735,-160,-0.0386963,0.0415039,-0.000268649,-0.000588967,-0.000660898,0.00025122,-0.00110884,-0.666522,0.000835647,0.0127626,1959,1184,-0.0387513,-0.041447
742,-160,-0.0148926,0.0233154,9.94372e-05,-0.000270496,-8.28177e-05,0.000117131,-0.00028819,-0.210488,0.000240859,0.0152473,1966,1184,-0.0149091,-0.0233023
749,-160,-0.00622559,0.0264893,0.000677147,0.000537802,0.000864899,0.00147518,-0.000260227,0.745207,0.00108069,0.0162437,1973,1184,-0.00617721,-0.0264778
756,-160,-0.0166016,0.0323486,0.00150505,0.00114516,0.00135995,0.0026969,-4.66951e-05,0.719621,0.0018137,0.00985551,1980,1184,-0.0166122,-0.0322912
763,-160,-0.0357666,0.0239258,0.00263309,0.00164467,0.00205091,0.0042485,2.92631e-05,0.667168,0.00282263,0.0102633,1987,1184,-0.0357638,-0.0239497
770,-160,-0.0447998,0.041748,0.00395319,0.00241075,0.00275659,0.00604441,0.000319523,0.648999,0.00392743,0.015816,1994,1184,-0.0447646,-0.0418003
777,-160,-0.0693359,0.0771484,0.0056334,0.00345648,0.00343278,0.00814615,0.000943722,0.631873,0.00514513,0.028562,2001,1184,-0.0693357,-0.0772018
784,-160,0.359619,0.258545,0.00779903,0.00486217,0.00405405,0.0106424,0.0020188,0.611641,0.00652691,0.0407448,2008,1184,0.359676,-0.258546
791,-160,0.579224,0.811035,0.0105632,0.00674007,0.00448261,0.0135248,0.00377847,0.583852,0.00805798,0.0448355,2015,1184,0.579194,-0.81108
798,-160,0.808838,1.44287,0.014011,0.00924994,0.00452091,0.0167399,0.00652112,0.543062,0.00974303,0.0436873,2022,1184,0.808809,-1.44293
805,-160,0.00183105,0.364014,0.0182838,0.012607,0.00388024,0.020253,0.0106378,0.469622,0.011698,0.0442406,2029,1184,0.00184247,-0.364013
812,-160,0,0,0,0,0,0,0,0,0,-1,2036,1184,0,0
-700,-167,0,0,0,0,0,0,0,0,0,-1,524,1191,0,0
-693,-167,0,0,0,0,0,0,0,0,0,-1,531,1191,0,0
-686,-167,1.21423,2.10022,-0.0069291,0.0898121,0.0307056,0.098735,-0.0158521,1.28799,0.0716939,0.0443321,538,1191,1.21426,-2.10018
-679,-167,1.20258,2.09241,-0.00902352,0.0757075,0.0247416,0.082403,-0.015719,1.30651,0.0608555,0.0424782,545,1191,1.20257,-2.09238
-672,-167,1.07654,2.29749,-0.00953978,0.0623448,0.0195957,0.0673395,-0.0145345,1.32122,0.0504408,0.0455022,552,1191,1.07655,-2.29753
-665,-167,1.4256,2.54138,0,0,0,0,0,0,0,-1,559,1191,1.42561,-2.54144
-658,-167,1.64349,1.56433,0,0,0,0,0,0,0,-1,566,1191,1.64351,-1.5643
-651,-167,-0.399658,0.229248,-0.00681972,0.0296632,0.00832459,0.0314729,-0.00862944,1.35673,0.0243731,0.0499685,573,1191,-0.399667,-0.229251
-644,-167,-0.0631104,0.043457,-0.00543771,0.0217335,0.00583889,0.0229351,-0.0066393,1.36784,0.017918,0.0402459,580,1191,-0.063113,-0.0434843
-637,-167,-0.0249023,0.052002,-0.00406625,0.0153499,0.00375042,0.0160491,-0.00476549,1.38647,0.0125922,0.0158682,587,1191,-0.0248824,-0.052012
-630,-167,-0.0280762,0.0379639,-0.00299556,0.0100588,0.00214525,0.0104023,-0.00333906,1.41203,0.00827557,0.00868965,594,1191,-0.0280491,-0.0379454
-623,-167,-0.022522,0.0306396,-0.00229783,0.00586923,0.00105362,0.00600296,-0.00243157,1.44454,0.00501308,0.00903386,601,1191,-0.0225506,-0.0306999
-616,-167,-0.0281982,0.0357666,-0.00165311,0.00263884,0.000586967,0.00271767,-0.00173193,1.4373,0.00258991,0.0113706,608,1191,-0.0281823,-0.035793
-609,-167,-0.0338745,0.043457,-0.00110131,0.000416659,0.000386389,0.000509352,-0.001194,1.33535,0.00100956,0.012656,615,1191,-0.0338485,-0.0434505
-602,-167,-0.0351563,0.0306396,-0.000340087,-0.00100799,0.000145126,-0.000309916,-0.00103816,0.204975,0.000615391,0.013717,622,1191,-0.0351769,-0.03062
-595,-167,0.00408936,0.0548096,-0.000230095,-0.00154546,0.000304451,-0.000163046,-0.00161251,0.216771,0.00102499,0.0165413,629,1191,0.00406912,-0.0548652
-588,-167,-0.0292358,0.0491943,-0.00058381,-0.00244897,0.000651688,-0.000378672,-0.00265411,0.30496,0.00165766,0.014465,636,1191,-0.0292141,-0.0492037
-581,-167,-0.0339966,0.0471191,-0.000567007,-0.00305042,0.000812161,-0.000324989,-0.00329244,0.289614,0.00209505,0.013901,643,1191,-0.0339959,-0.0471168
-574,-167,0.010498,-0.43335,-0.000400408,-0.00348731,0.00088448,-0.000164942,-0.00372277,0.260185,0.00242874,0.0314539,650,1191,0.0105215,0.433326
-567,-167,0.0570068,-0.965942,0,0,0,0,0,0,0,-1,657,1191,0.0569846,0.965996
-560,-167,-0.101135,0.0664063,4.08153e-05,-0.003973,0.00104744,0.000297714,-0.0042299,0.240515,0.00292423,0.0381244,664,1191,-0.101146,-0.0664392
-553,-167,-0.0210571,0.020752,0.00038501,-0.00393486,0.00103519,0.000620266,-0.00417012,0.223463,0.00300822,0.0362426,671,1191,-0.0210481,-0.0207933
-546,-167,-0.06427,0.067627,0.000855824,-0.00357603,0.000929014,0.00104269,-0.00376289,0.198493,0.00291891,0.0329001,678,1191,-0.0642728,-0.0675923
-539,-167,-0.0792847,0.0499268,0.0014418,-0.00280551,0.000735712,0.00156563,-0.00292934,0.166748,0.00263468,0.0347041,685,1191,-0.0793039,-0.0498697
-532,-167,-0.0665283,0.041748,0.00212479,-0.00152684,0.000472388,0.00218491,-0.00158696,0.126588,0.00218679,0.038189,692,1191,-0.0665271,-0.0416946
-525,-167,-0.0648804,0.130005,0.00291736,0.000379994,5.29359e-05,0.00291846,0.00037889,0.0208505,0.00183245,0.0407475,699,1191,-0.0648689,-0.130044
-518,-167,-0.0585938,0.202393,0.00371626,0.00314291,-0.000577229,0.00407408,0.00278509,-0.554917,0.00240446,0.0405492,706,1191,-0.0585691,-0.202356
-511,-167,0,0,0,0,0,0,0,0,0,-1,713,1191,0,0
-504,-167,0,0,0,0,0,0,0,0,0,-1,720,1191,0,0
-497,-167,0,0,0,0,0,0,0,0,0,-1,727,1191,0,0
-490,-167,0,0,0,0,0,0,0,0,0,-1,734,1191,0,0
-483,-167,0,0,0,0,0,0,0,0,0,-1,741,1191,0,0
-476,-167,0,0,0,0,0,0,0,0,0,-1,748,1191,0,0
-469,-167,0,0,0,0,0,0,0,0,0,-1,755,1191,0,0
-462,-167,0,0,0,0,0,0,0,0,0,-1,762,1191,0,0
-455,-167,0,0,0,0,0,0,0,0,0,-1,769,1191,0,0
-448,-167,0,0,0,0,0,0,0,0,0,-1,776,1191,0,0
-441,-167,0,0,0,0,0,0,0,0,0,-1,783,1191,0,0
-434,-167,0,0,0,0,0,0,0,0,0,-1,790,1191,0,0
-427,-167,0,0,0,0,0,0,0,0,0,-1,797,1191,0,0
-420,-167,0,0,0,0,0,0,0,0,0,-1,804,1191,0,0
-413,-167,0,0,0,0,0,0,0,0,0,-1,811,1191,0,0
-406,-167,0,0,0,0,0,0,0,0,0,-1,818,1191,0,0
-399,-167,0,0,0,0,0,0,0,0,0,-1,825,1191,0,0
-392,-167,0,0,0,0,0,0,0,0,0,-1,832,1191,0,0
-385,-167,0,0,0,0,0,0,0,0,0,-1,839,1191,0,0
-378,-167,0,0,0,0,0,0,0,0,0,-1,846,1191,0,0
-371,-167,0,0,0,0,0,0,0,0,0,-1,853,1191,0,0
-364,-167,0,0,0,0,0,0,0,0,0,-1,860,1191,0,0
-357,-167,0,0,0,0,0,0,0,0,0,-1,867,1191,0,0
-350,-167,0,0,0,0,0,0,0,0,0,-1,874,1191,0,0
-343,-167,0,0,0,0,0,0,0,0,0,-1,881,1191,0,0
-336,-167,0,0,0,0,0,0,0,0,0,-1,888,1191,0,0
-329,-167,0,0,0,0,0,0,0,0,0,-1,895,1191,0,0
-322,-167,0,0,0,0,0,0,0,0,0,-1,902,1191,0,0
-315,-167,0,0,0,0,0,0,0,0,0,-1,909,1191,0,0
-308,-167,0,0,0,0,0,0,0,0,0,-1,916,1191,0,0
-301,-167,0,0,0,0,0,0,0,0,0,-1,923,1191,0,0
-294,-167,0,0,0,0,0,0,0,0,0,-1,930,1191,0,0
-287,-167,0,0,0,0,0,0,0,0,0,-1,937,1191,0,0
-280,-167,0,0,0,0,0,0,0,0,0,-1,944,1191,0,0
-273,-167,0,0,0,0,0,0,0,0,0,-1,951,1191,0,0
-266,-167,0,0,0,0,0,0,0,0,0,-1,958,1191,0,0
-259,-167,0,0,0,0,0,0,0,0,0,-1,965,1191,0,0
-252,-167,0,0,0,0,0,0,0,0,0,-1,972,1191,0,0
-245,-167,0,0,0,0,0,0,0,0,0,-1,979,1191,0,0
-238,-167,0,0,0,0,0,0,0,0,0,-1,986,1191,0,0
-231,-167,0,0,0,0,0,0,0,0,0,-1,993,1191,0,0
-224,-167,0,0,0,0,0,0,0,0,0,-1,1000,1191,0,0
-217,-167,0,0,0,0,0,0,0,0,0,-1,1007,1191,0,0
-210,-167,0,0,0,0,0,0,0,0,0,-1,1014,1191,0,0
-203,-167,0,0,0,0,0,0,0,0,0,-1,1021,1191,0,0
-196,-167,0,0,0,0,0,0,0,0,0,-1,1028,1191,0,0
-189,-167,0,0,0,0,0,0,0,0,0,-1,1035,1191,0,0
-182,-167,0,0,0,0,0,0,0,0,0,-1,1042,1191,0,0
-175,-167,0,0,0,0,0,0,0,0,0,-1,1049,1191,0,0
-168,-167,0,0,0,0,0,0,0,0,0,-1,1056,1191,0,0
-161,-167,0,0,0,0,0,0,0,0,0,-1,1063,1191,0,0
-154,-167,0,0,0,0,0,0,0,0,0,-1,1070,1191,0,0
-147,-167,0,0,0,0,0,0,0,0,0,-1,1077,1191,0,0
-140,-167,0,0,0,0,0,0,0,0,0,-1,1084,1191,0,0
-133,-167,0,0,0,0,0,0,0,0,0,-1,1091,1191,0,0
-126,-167,0,0,0,0,0,0,0,0,0,-1,1098,1191,0,0
-119,-167,0,0,0,0,0,0,0,0,0,-1,1105,1191,0,0
-112,-167,0,0,0,0,0,0,0,0,0,-1,1112,1191,0,0
-105,-167,0,0,0,0,0,0,0,0,0,-1,1119,1191,0,0
-98,-167,0,0,0,0,0,0,0,0,0,-1,1126,1191,0,0
-91,-167,0,0,0,0,0,0,0,0,0,-1,1133,1191,0,0
-84,-167,0,0,0,0,0,0,0,0,0,-1,1140,1191,0,0
-77,-167,0,0,0,0,0,0,0,0,0,-1,1147,1191,0,0
-70,-167,0,0,0,0,0,0,0,0,0,-1,1154,1191,0,0
-63,-167,0,0,0,0,0,0,0,0,0,-1,1161,1191,0,0
-56,-167,0,0,0,0,0,0,0,0,0,-1,1168,1191,0,0
-49,-167,0,0,0,0,0,0,0,0,0,-1,1175,1191,0,0
-42,-167,0,0,0,0,0,0,0,0,0,-1,1182,1191,0,0
-35,-167,0,0,0,0,0,0,0,0,0,-1,1189,1191,0,0
-28,-167,0,0,0,0,0,0,0,0,0,-1,1196,1191,0,0
-21,-167,0,0,0,0,0,0,0,0,0,-1,1203,1191,0,0
-14,-167,0,0,0,0,0,0,0,0,0,-1,1210,1191,0,0
-7,-167,0,0,0,0,0,0,0,0,0,-1,1217,1191,0,0
0,-167,0,0,0,0,0,0,0,0,0,-1,1224,1191,0,0
7,-167,0,0,0,0,0,0,0,0,0,-1,1231,1191,0,0
14,-167,0,0,0,0,0,0,0,0,0,-1,1238,1191,0,0
21,-167,0,0,0,0,0,0,0,0,0,-1,1245,1191,0,0
28,-167,0,0,0,0,0,0,0,0,0,-1,1252,1191,0,0
35,-167,0,0,0,0,0,0,0,0,0,-1,1259,1191,0,0
42,-167,0,0,0,0,0,0,0,0,0,-1,1266,1191,0,0
49,-167,0,0,0,0,0,0,0,0,0,-1,1273,1191,0,0
56,-167,0,0,0,0,0,0,0,0,0,-1,1280,1191,0,0
63,-167,0,0,0,0,0,0,0,0,0,-1,1287,1191,0,0
70,-167,0,0,0,0,0,0,0,0,0,-1,1294,1191,0,0
77,-167,0,0,0,0,0,0,0,0,0,-1,1301,1191,0,0
84,-167,0,0,0,0,0,0,0,0,0,-1,1308,1191,0,0
91,-167,0,0,0,0,0,0,0,0,0,-1,1315,1191,0,0
98,-167,0,0,0,0,0,0,0,0,0,-1,1322,1191,0,0
105,-167,0,0,0,0,0,0,0,0,0,-1,1329,1191,0,0
112,-167,0,0,0,0,0,0,0,0,0,-1,1336,1191,0,0
119,-167,0,0,0,0,0,0,0,0,0,-1,1343,1191,0,0
126,-167,0,0,0,0,0,0,0,0,0,-1,1350,1191,0,0
133,-167,0,0,0,0,0,0,0,0,0,-1,1357,1191,0,0
140,-167,0,0,0,0,0,0,0,0,0,-1,1364,1191,0,0
147,-167,0,0,0,0,0,0,0,0,0,-1,1371,1191,0,0
154,-167,0,0,0,0,0,0,0,0,0,-1,1378,1191,0,0
161,-167,0,0,0,0,0,0,0,0,0,-1,1385,1191,0,0
168,-167,0,0,0,0,0,0,0,0,0,-1,1392,1191,0,0
175,-167,0,0,0,0,0,0,0,0,0,-1,1399,1191,0,0
182,-167,0,0,0,0,0,0,0,0,0,-1,1406,1191,0,0
189,-167,0,0,0,0,0,0,0,0,0,-1,1413,1191,0,0
196,-167,0,0,0,0,0,0,0,0,0,-1,1420,1191,0,0
203,-167,0,0,0,0,0,0,0,0,0,-1,1427,1191,0,0
210,-167,0,0,0,0,0,0,0,0,0,-1,1434,1191,0,0
217,-167,0,0,0,0,0,0,0,0,0,-1,1441,1191,0,0
224,-167,0,0,0,0,0,0,0,0,0,-1,1448,1191,0,0
231,-167,0,0,0,0,0,0,0,0,0,-1,1455,1191,0,0
238,-167,0,0,0,0,0,0,0,0,0,-1,1462,1191,0,0
245,-167,0,0,0,0,0,0,0,0,0,-1,1469,1191,0,0
252,-167,0,0,0,0,0,0,0,0,0,-1,1476,1191,0,0
259,-167,0,0,0,0,0,0,0,0,0,-1,1483,1191,0,0
266,-167,0,0,0,0,0,0,0,0,0,-1,1490,1191,0,0
273,-167,0,0,0,0,0,0,0,0,0,-1,1497,1191,0,0
280,-167,0,0,0,0,0,0,0,0,0,-1,1504,1191,0,0
287,-167,0,0,0,0,0,0,0,0,0,-1,1511,1191,0,0
294,-167,0,0,0,0,0,0,0,0,0,-1,1518,1191,0,0
301,-167,0,0,0,0,0,0,0,0,0,-1,1525,1191,0,0
308,-167,0,0,0,0,0,0,0,0,0,-1,1532,1191,0,0
315,-167,0,0,0,0,0,0,0,0,0,-1,1539,1191,0,0
322,-167,0,0,0,0,0,0,0,0,0,-1,1546,1191,0,0
329,-167,0,0,0,0,0,0,0,0,0,-1,1553,1191,0,0
336,-167,0,0,0,0,0,0,0,0,0,-1,1560,1191,0,0
343,-167,0,0,0,0,0,0,0,0,0,-1,1567,1191,0,0
350,-167,0,0,0,0,0,0,0,0,0,-1,1574,1191,0,0
357,-167,0,0,0,0,0,0,0,0,0,-1,1581,1191,0,0
364,-167,0,0,0,0,0,0,0,0,0,-1,1588,1191,0,0
371,-167,0,0,0,0,0,0,0,0,0,-1,1595,1191,0,0
378,-167,0,0,0,0,0,0,0,0,0,-1,1602,1191,0,0
385,-167,0,0,0,0,0,0,0,0,0,-1,1609,1191,0,0
392,-167,0,0,0,0,0,0,0,0,0,-1,1616,1191,0,0
399,-167,0,0,0,0,0,0,0,0,0,-1,1623,1191,0,0
406,-167,0,0,0,0,0,0,0,0,0,-1,1630,1191,0,0
413,-167,0,0,0,0,0,0,0,0,0,-1,1637,1191,0,0
420,-167,0,0,0,0,0,0,0,0,0,-1,1644,1191,0,0
427,-167,0,0,0,0,0,0,0,0,0,-1,1651,1191,0,0
434,-167,0,0,0,0,0,0,0,0,0,-1,1658,1191,0,0
441,-167,0,0,0,0,0,0,0,0,0,-1,1665,1191,0,0
448,-167,0,0,0,0,0,0,0,0,0,-1,1672,1191,0,0
455,-167,0,0,0,0,0,0,0,0,0,-1,1679,1191,0,0
462,-167,0,0,0,0,0,0,0,0,0,-1,1686,1191,0,0
469,-167,0,0,0,0,0,0,0,0,0,-1,1693,1191,0,0
476,-167,0,0,0,0,0,0,0,0,0,-1,1700,1191,0,0
483,-167,0,0,0,0,0,0,0,0,0,-1,1707,1191,0,0
490,-167,0,0,0,0,0,0,0,0,0,-1,1714,1191,0,0
497,-167,0,0,0,0,0,0,0,0,0,-1,1721,1191,0,0
504,-167,0,0,0,0,0,0,0,0,0,-1,1728,1191,0,0
511,-167,0,0,0,0,0,0,0,0,0,-1,1735,1191,0,0
518,-167,0,0,0,0,0,0,0,0,0,-1,1742,1191,0,0
525,-167,0,0,0,0,0,0,0,0,0,-1,1749,1191,0,0
532,-167,0,0,0,0,0,0,0,0,0,-1,1756,1191,0,0
539,-167,0,0,0,0,0,0,0,0,0,-1,1763,1191,0,0
546,-167,0,0,0,0,0,0,0,0,0,-1,1770,1191,0,0
553,-167,0,0,0,0,0,0,0,0,0,-1,1777,1191,0,0
560,-167,0,0,0,0,0,0,0,0,0,-1,1784,1191,0,0
567,-167,0,0,0,0,0,0,0,0,0,-1,1791,1191,0,0
574,-167,0,0,0,0,0,0,0,0,0,-1,1798,1191,0,0
581,-167,0,0,0,0,0,0,0,0,0,-1,1805,1191,0,0
588,-167,0,0,0,0,0,0,0,0,0,-1,1812,1191,0,0
595,-167,0,0,0,0,0,0,0,0,0,-1,1819,1191,0,0
602,-167,0,0,0,0,0,0,0,0,0,-1,1826,1191,0,0
609,-167,0,0,0,0,0,0,0,0,0,-1,1833,1191,0,0
616,-167,0,0,0,0,0,0,0,0,0,-1,1840,1191,0,0
623,-167,0,0,0,0,0,0,0,0,0,-1,1847,1191,0,0
630,-167,0,0,0,0,0,0,0,0,0,-1,1854,1191,0,0
637,-167,0.0186768,0.165405,-0.00232172,0.00158647,-0.000634262,0.00168682,-0.00242207,-1.41387,0.0023849,0.0403533,1861,1191,0.0186739,-0.165425
644,-167,-0.048584,0.115356,-0.00182025,0.00141611,-0.000284279,0.0014409,-0.00184503,-1.48384,0.00190191,0.040394,1868,1191,-0.0485682,-0.115308
651,-167,-0.251709,0.00842285,-0.000984185,0.00026372,-0.000371849,0.00036612,-0.00108659,-1.30208,0.000872425,0.0380307,1875,1191,-0.251738,-0.00841223
658,-167,-0.223267,-0.0551758,-0.000360096,-0.000773344,-0.000641595,0.000107325,-0.00124077,-0.629619,0.000865174,0.0389213,1882,1191,-0.223268,0.0551817
665,-167,0.0490723,0.0134277,-1.38729e-05,-0.00158022,-0.000985266,0.000461568,-0.00205566,-0.449591,0.00154741,0.0354697,1889,1191,0.0490907,-0.013487
672,-167,0.0045166,0.0812988,0.000161398,-0.0021646,-0.00128621,0.000732438,-0.00273564,-0.41783,0.0021107,0.0263344,1896,1191,0.00447572,-0.0812558
679,-167,-0.00939941,0.0570068,0.000247584,-0.00252373,-0.00153665,0.000931065,-0.00320721,-0.41851,0.00250681,0.0181573,1903,1191,-0.00934592,-0.0569831
686,-167,-0.0202637,0.0402832,0.000204379,-0.00270562,-0.00175712,0.00103072,-0.00353196,-0.43959,0.00276305,0.0213506,1910,1191,-0.0202148,-0.0402238
693,-167,0.0666504,0.321899,0.00014659,-0.00269485,-0.00190958,0.00110598,-0.00365424,-0.465574,0.00287659,0.0415705,1917,1191,0.0666148,-0.321847
700,-167,0.141602,0.390137,0.000132859,-0.0026036,-0.00192644,0.00112752,-0.00359825,-0.476617,0.00285001,0.0377962,1924,1191,0.141614,-0.390146
707,-167,0.010376,0.0931396,6.06698e-05,-0.00238019,-0.00186529,0.00106931,-0.00338883,-0.495708,0.00268753,0.0302308,1931,1191,0.0104271,-0.0930883
714,-167,-0.0257568,0.0197754,-0.000204334,-0.00203274,-0.00175996,0.000864704,-0.00310178,-0.545858,0.0024084,0.0153551,1938,1191,-0.0257701,-0.0197902
721,-167,-0.0471191,0.0281982,-0.000442788,-0.00161845,-0.00161323,0.00068637,-0.00274761,-0.610683,0.00209829,0.012484,1945,1191,-0.0470888,-0.0281523
728,-167,-0.0393066,0.0532227,-0.000411169,-0.00117913,-0.00131692,0.00057661,-0.00216691,-0.643543,0.00167032,0.0112611,1952,1191,-0.0393085,-0.0531927
735,-167,-0.0112305,0.055542,-0.000240849,-0.000579431,-0.00077963,0.000387659,-0.00120794,-0.678487,0.00096094,0.0131832,1959,1191,-0.0112188,-0.0554861
742,-167,-0.0430908,0.0427246,0.000179482,-9.68154e-05,-0.000133219,0.00023325,-0.000150584,-0.383616,0.000223314,0.014842,1966,1191,-0.0431109,-0.0427006
749,-167,-0.0247803,0.0308838,0.00083641,0.00084609,0.000883604,0.00172487,-4.23677e-05,0.788137,0.00116429,0.0128558,1973,1191,-0.024736,-0.0309273
756,-167,-0.0205078,0.0239258,0.00175866,0.00164256,0.00144885,0.00315062,0.000250599,0.765377,0.00202206,0.00914583,1980,1191,-0.0205301,-0.0239514
763,-167,-0.0428467,0.0153809,0.00298696,0.00238886,0.00226247,0.00497006,0.000405756,0.71969,0.00318674,0.0108287,1987,1191,-0.0428853,-0.0153975
770,-167,-0.0699463,0.0651855,0.00446461,0.00349137,0.00310958,0.00712541,0.000830567,0.707782,0.00449905,0.0211146,1994,1191,-0.069974,-0.065204
777,-167,-0.109253,0.125977,0.00637549,0.00498761,0.00400952,0.00975068,0.00161242,0.69971,0.00603521,0.0362799,2001,1191,-0.109231,-0.125925
784,-167,-0.294922,0.195435,0.00885784,0.00698572,0.00494507,0.0129547,0.0028889,0.691859,0.00785265,0.0435652,2008,1191,-0.294915,-0.195463
791,-167,-0.127808,0.580688,0.0120371,0.00962984,0.00579103,0.0167483,0.0049187,0.682933,0.00994024,0.0454549,2015,1191,-0.127759,-0.58073
798,-167,0.115601,0.987671,0.0160165,0.0131117,0.0063645,0.0210923,0.00803601,0.673218,0.0122921,0.0454781,2022,1191,0.115553,-0.987614
805,-167,0.596558,1.16101,0.020967,0.0176787,0.00638684,0.0259179,0.0127278,0.65942,0.0149645,0.047356,2029,1191,0.596584,-1.16099
812,-167,0,0,0,0,0,0,0,0,0,-1,2036,1191,0,0
-700,-174,0,0,0,0,0,0,0,0,0,-1,524,1198,0,0
-693,-174,0,0,0,0,0,0,0,0,0,-1,531,1198,0,0
-686,-174,0.79126,1.5116,-0.000781047,0.0951859,0.0288951,0.103214,-0.00880954,1.29978,0.0719262,0.043779,538,1198,0.79123,-1.51157
-679,-174,0.893372,1.58215,-0.00431753,0.0798334,0.0235643,0.0859826,-0.0104667,1.31553,0.0611102,0.0430693,545,1198,0.893398,-1.58213
-672,-174,0.888672,1.67517,0,0,0,0,0,0,0,-1,552,1198,0.888651,-1.67522
-665,-174,1.54315,0.829956,0,0,0,0,0,0,0,-1,559,1198,1.54313,-0.829995
-658,-174,1.34882,1.07849,-0.00603768,0.0408794,0.0111106,0.0433775,-0.00853581,1.34963,0.0321436,0.0465135,566,1198,1.34883,-1.07844
-651,-174,-0.398621,1.60144,-0.00528511,0.0310047,0.00810928,0.0327343,-0.00701477,1.36065,0.0244982,0.0428702,573,1198,-0.398623,-1.60149
-644,-174,-0.0975342,0.0618896,0,0,0,0,0,0,0,-1,580,1198,-0.0975534,-0.0619298
-637,-174,-0.0353394,0.0684814,-0.00332413,0.0161933,0.00369656,0.0168699,-0.0040008,1.38975,0.0127905,0.0218381,587,1198,-0.0353298,-0.068539
-630,-174,-0.032959,0.0321045,-0.0025017,0.0107674,0.00213896,0.0111036,-0.00283798,1.41486,0.00850769,0.0110424,594,1198,-0.0329478,-0.0321553
-623,-174,-0.0291748,0.0300293,-0.0019777,0.00636806,0.00101659,0.0064901,-0.00209975,1.45131,0.00517077,0.0124898,601,1198,-0.029159,-0.0300064
-616,-174,-0.0194702,0.0395508,-0.00151766,0.0029668,0.00054936,0.00303311,-0.00158398,1.45066,0.00270909,0.0171841,608,1198,-0.0195005,-0.0396009
-609,-174,-0.0324707,0.0388184,-0.00113515,0.000644536,0.000329893,0.000703719,-0.00119433,1.39328,0.00110798,0.019355,615,1198,-0.0324495,-0.0388487
-602,-174,-0.0356445,0.0216064,-0.000463756,-0.000780528,0.000104147,-0.000432583,-0.000811702,0.290833,0.000468975,0.0139194,622,1198,-0.0356411,-0.0215558
-595,-174,-0.0353394,0.0146484,-0.000404664,-0.00138212,0.000351327,-0.000291491,-0.0014953,0.311635,0.000915305,0.0121737,629,1198,-0.0353172,-0.014677
-588,-174,-0.0304565,0.0336914,-0.000802066,-0.00233832,0.000787214,-0.000470317,-0.00267006,0.398835,0.00164583,0.0118438,636,1198,-0.0304276,-0.0336704
-581,-174,-0.0345459,0.0437012,-0.000798785,-0.00295537,0.000968619,-0.000427617,-0.00332654,0.365934,0.00208979,0.0133058,643,1198,-0.0345171,-0.0437184
-574,-174,-0.00537109,-0.202148,-0.000664152,-0.00340818,0.00106563,-0.000298929,-0.00377341,0.330183,0.00242212,0.0296044,650,1198,-0.00536386,0.202167
-567,-174,0.153198,-0.635864,-0.000490192,-0.00375471,0.0011616,-0.000119057,-0.00412585,0.309252,0.00271175,0.0408308,657,1198,0.153205,0.635817
-560,-174,-0.245789,0.587524,-0.000249353,-0.00395685,0.00125451,0.00013524,-0.00434144,0.297473,0.00294041,0.0419647,664,1198,-0.245768,-0.587548
-553,-174,0.0276489,-0.0258789,0.000114832,-0.00399594,0.00123586,0.000457772,-0.00433888,0.27068,0.00305662,0.0374596,671,1198,0.0276249,0.0259243
-546,-174,0.00714111,0.0318604,0.000636144,-0.00374955,0.00110886,0.00090056,-0.00401396,0.234086,0.00302124,0.0286647,678,1198,0.00716201,-0.0318453
-539,-174,-0.0559082,0.131958,0.00129354,-0.00311089,0.000876864,0.0014617,-0.00327904,0.189465,0.0028033,0.033103,685,1198,-0.0558985,-0.131997
-532,-174,-0.136902,0.119751,0.00205363,-0.00197178,0.000560378,0.00213019,-0.00204834,0.135771,0.00241263,0.0413098,692,1198,-0.136922,-0.119753
-525,-174,-0.114929,0.127808,0.00289255,-0.000189648,0.000101823,0.00289591,-0.000193008,0.0329879,0.00199805,0.0388542,699,1198,-0.114919,-0.127801
-518,-174,-0.0515137,-0.00292969,0.00365871,0.0024449,-0.000512557,0.00384619,0.00225742,-0.350657,0.00223176,0.0382336,706,1198,-0.0515428,0.00293592
-511,-174,0,0,0,0,0,0,0,0,0,-1,713,1198,0,0
-504,-174,0,0,0,0,0,0,0,0,0,-1,720,1198,0,0
-497,-174,0,0,0,0,0,0,0,0,0,-1,727,1198,0,0
-490,-174,0,0,0,0,0,0,0,0,0,-1,734,1198,0,0
-483,-174,0,0,0,0,0,0,0,0,0,-1,741,1198,0,0
-476,-174,0,0,0,0,0,0,0,0,0,-1,748,1198,0,0
-469,-174,0,0,0,0,0,0,0,0,0,-1,755,1198,0,0
-462,-174,0,0,0,0,0,0,0,0,0,-1,762,1198,0,0
-455,-174,0,0,0,0,0,0,0,0,0,-1,769,1198,0,0
-448,-174,0,0,0,0,0,0,0,0,0,-1,776,1198,0,0
-441,-174,0,0,0,0,0,0,0,0,0,-1,783,1198,0,0
-434,-174,0,0,0,0,0,0,0,0,0,-1,790,1198,0,0
-427,-174,0,0,0,0,0,0,0,0,0,-1,797,1198,0,0
-420,-174,0,0,0,0,0,0,0,0,0,-1,804,1198,0,0
-413,-174,0,0,0,0,0,0,0,0,0,-1,811,1198,0,0
-406,-174,0,0,0,0,0,0,0,0,0,-1,818,1198,0,0
-399,-174,0,0,0,0,0,0,0,0,0,-1,825,1198,0,0
-392,-174,0,0,0,0,0,0,0,0,0,-1,832,1198,0,0
-385,-174,0,0,0,0,0,0,0,0,0,-1,839,1198,0,0
-378,-174,0,0,0,0,0,0,0,0,0,-1,846,1198,0,0
-371,-174,0,0,0,0,0,0,0,0,0,-1,853,1198,0,0
-364,-174,0,0,0,0,0,0,0,0,0,-1,860,1198,0,0
-357,-174,0,0,0,0,0,0,0,0,0,-1,867,1198,0,0
-350,-174,0,0,0,0,0,0,0,0,0,-1,874,1198,0,0
-343,-174,0,0,0,0,0,0,0,0,0,-1,881,1198,0,0
-336,-174,0,0,0,0,0,0,0,0,0,-1,888,1198,0,0
-329,-174,0,0,0,0,0,0,0,0,0,-1,895,1198,0,0
-322,-174,0,0,0,0,0,0,0,0,0,-1,902,1198,0,0
-315,-174,0,0,0,0,0,0,0,0,0,-1,909,1198,0,0
-308,-174,0,0,0,0,0,0,0,0,0,-1,916,1198,0,0
-301,-174,0,0,0,0,0,0,0,0,0,-1,923,1198,0,0
-294,-174,0,0,0,0,0,0,0,0,0,-1,930,1198,0,0
-287,-174,0,0,0,0,0,0,0,0,0,-1,937,1198,0,0
-280,-174,0,0,0,0,0,0,0,0,0,-1,944,1198,0,0
-273,-174,0,0,0,0,0,0,0,0,0,-1,951,1198,0,0
-266,-174,0,0,0,0,0,0,0,0,0,-1,958,1198,0,0
-259,-174,0,0,0,0,0,0,0,0,0,-1,965,1198,0,0
-252,-174,0,0,0,0,0,0,0,0,0,-1,972,1198,0,0
-245,-174,0,0,0,0,0,0,0,0,0,-1,979,1198,0,0
-238,-174,0,0,0,0,0,0,0,0,0,-1,986,1198,0,0
-231,-174,0,0,0,0,0,0,0,0,0,-1,993,1198,0,0
-224,-174,0,0,0,0,0,0,0,0,0,-1,1000,1198,0,0
-217,-174,0,0,0,0,0,0,0,0,0,-1,1007,1198,0,0
-210,-174,0,0,0,0,0,0,0,0,0,-1,1014,1198,0,0
-203,-174,0,0,0,0,0,0,0,0,0,-1,1021,1198,0,0
-196,-174,0,0,0,0,0,0,0,0,0,-1,1028,1198,0,0
-189,-174,0,0,0,0,0,0,0,0,0,-1,1035,1198,0,0
-182,-174,0,0,0,0,0,0,0,0,0,-1,1042,1198,0,0
-175,-174,0,0,0,0,0,0,0,0,0,-1,1049,1198,0,0
-168,-174,0,0,0,0,0,0,0,0,0,-1,1056,1198,0,0
-161,-174,0,0,0,0,0,0,0,0,0,-1,1063,1198,0,0
-154,-174,0,0,0,0,0,0,0,0,0,-1,1070,1198,0,0
-147,-174,0,0,0,0,0,0,0,0,0,-1,1077,1198,0,0
-140,-174,0,0,0,0,0,0,0,0,0,-1,1084,1198,0,0
-133,-174,0,0,0,0,0,0,0,0,0,-1,1091,1198,0,0
-126,-174,0,0,0,0,0,0,0,0,0,-1,1098,1198,0,0
-119,-174,0,0,0,0,0,0,0,0,0,-1,1105,1198,0,0
-112,-174,0,0,0,0,0,0,0,0,0,-1,1112,1198,0,0
-105,-174,0,0,0,0,0,0,0,0,0,-1,1119,1198,0,0
-98,-174,0,0,0,0,0,0,0,0,0,-1,1126,1198,0,0
-91,-174,0,0,0,0,0,0,0,0,0,-1,1133,1198,0,0
-84,-174,0,0,0,0,0,0,0,0,0,-1,1140,1198,0,0
-77,-174,0,0,0,0,0,0,0,0,0,-1,1147,1198,0,0
-70,-174,0,0,0,0,0,0,0,0,0,-1,1154,1198,0,0
-63,-174,0,0,0,0,0,0,0,0,0,-1,1161,1198,0,0
-56,-174,0,0,0,0,0,0,0,0,0,-1,1168,1198,0,0
-49,-174,0,0,0,0,0,0,0,0,0,-1,1175,1198,0,0
-42,-174,0,0,0,0,0,0,0,0,0,-1,1182,1198,0,0
-35,-174,0,0,0,0,0,0,0,0,0,-1,1189,1198,0,0
-28,-174,0,0,0,0,0,0,0,0,0,-1,1196,1198,0,0
-21,-174,0,0,0,0,0,0,0,0,0,-1,1203,1198,0,0
-14,-174,0,0,0,0,0,0,0,0,0,-1,1210,1198,0,0
-7,-174,0,0,0,0,0,0,0,0,0,-1,1217,1198,0,0
0,-174,0,0,0,0,0,0,0,0,0,-1,1224,1198,0,0
7,-174,0,0,0,0,0,0,0,0,0,-1,1231,1198,0,0
14,-174,0,0,0,0,0,0,0,0,0,-1,1238,1198,0,0
21,-174,0,0,0,0,0,0,0,0,0,-1,1245,1198,0,0
28,-174,0,0,0,0,0,0,0,0,0,-1,1252,1198,0,0
35,-174,0,0,0,0,0,0,0,0,0,-1,1259,1198,0,0
42,-174,0,0,0,0,0,0,0,0,0,-1,1266,1198,0,0
49,-174,0,0,0,0,0,0,0,0,0,-1,1273,1198,0,0
56,-174,0,0,0,0,0,0,0,0,0,-1,1280,1198,0,0
63,-174,0,0,0,0,0,0,0,0,0,-1,1287,1198,0,0
70,-174,0,0,0,0,0,0,0,0,0,-1,1294,1198,0,0
77,-174,0,0,0,0,0,0,0,0,0,-1,1301,1198,0,0
84,-174,0,0,0,0,0,0,0,0,0,-1,1308,1198,0,0
91,-174,0,0,0,0,0,0,0,0,0,-1,1315,1198,0,0
98,-174,0,0,0,0,0,0,0,0,0,-1,1322,1198,0,0
105,-174,0,0,0,0,0,0,0,0,0,-1,1329,1198,0,0
112,-174,0,0,0,0,0,0,0,0,0,-1,1336,1198,0,0
119,-174,0,0,0,0,0,0,0,0,0,-1,1343,1198,0,0
126,-174,0,0,0,0,0,0,0,0,0,-1,1350,1198,0,0
133,-174,0,0,0,0,0,0,0,0,0,-1,1357,1198,0,0
140,-174,0,0,0,0,0,0,0,0,0,-1,1364,1198,0,0
147,-174,0,0,0,0,0,0,0,0,0,-1,1371,1198,0,0
154,-174,0,0,0,0,0,0,0,0,0,-1,1378,1198,0,0
161,-174,0,0,0,0,0,0,0,0,0,-1,1385,1198,0,0
168,-174,0,0,0,0,0,0,0,0,0,-1,1392,1198,0,0
175,-174,0,0,0,0,0,0,0,0,0,-1,1399,1198,0,0
182,-174,0,0,0,0,0,0,0,0,0,-1,1406,1198,0,0
189,-174,0,0,0,0,0,0,0,0,0,-1,1413,1198,0,0
196,-174,0,0,0,0,0,0,0,0,0,-1,1420,1198,0,0
203,-174,0,0,0,0,0,0,0,0,0,-1,1427,1198,0,0
210,-174,0,0,0,0,0,0,0,0,0,-1,1434,1198,0,0
217,-174,0,0,0,0,0,0,0,0,0,-1,1441,1198,0,0
224,-174,0,0,0,0,0,0,0,0,0,-1,1448,1198,0,0
231,-174,0,0,0,0,0,0,0,0,0,-1,1455,1198,0,0
238,-174,0,0,0,0,0,0,0,0,0,-1,1462,1198,0,0
245,-174,0,0,0,0,0,0,0,0,0,-1,1469,1198,0,0
252,-174,0,0,0,0,0,0,0,0,0,-1,1476,1198,0,0
259,-174,0,0,0,0,0,0,0,0,0,-1,1483,1198,0,0
266,-174,0,0,0,0,0,0,0,0,0,-1,1490,1198,0,0
273,-174,0,0,0,0,0,0,0,0,0,-1,1497,1198,0,0
280,-174,0,0,0,0,0,0,0,0,0,-1,1504,1198,0,0
287,-174,0,0,0,0,0,0,0,0,0,-1,1511,1198,0,0
294,-174,0,0,0,0,0,0,0,0,0,-1,1518,1198,0,0
301,-174,0,0,0,0,0,0,0,0,0,-1,1525,1198,0,0
308,-174,0,0,0,0,0,0,0,0,0,-1,1532,1198,0,0
315,-174,0,0,0,0,0,0,0,0,0,-1,1539,1198,0,0
322,-174,0,0,0,0,0,0,0,0,0,-1,1546,1198,0,0
329,-174,0,0,0,0,0,0,0,0,0,-1,1553,1198,0,0
336,-174,0,0,0,0,0,0,0,0,0,-1,1560,1198,0,0
343,-174,0,0,0,0,0,0,0,0,0,-1,1567,1198,0,0
350,-174,0,0,0,0,0,0,0,0,0,-1,1574,1198,0,0
357,-174,0,0,0,0,0,0,0,0,0,-1,1581,1198,0,0
364,-174,0,0,0,0,0,0,0,0,0,-1,1588,1198,0,0
371,-174,0,0,0,0,0,0,0,0,0,-1,1595,1198,0,0
378,-174,0,0,0,0,0,0,0,0,0,-1,1602,1198,0,0
385,-174,0,0,0,0,0,0,0,0,0,-1,1609,1198,0,0
392,-174,0,0,0,0,0,0,0,0,0,-1,1616,1198,0,0
399,-174,0,0,0,0,0,0,0,0,0,-1,1623,1198,0,0
406,-174,0,0,0,0,0,0,0,0,0,-1,1630,1198,0,0
413,-174,0,0,0,0,0,0,0,0,0,-1,1637,1198,0,0
420,-174,0,0,0,0,0,0,0,0,0,-1,1644,1198,0,0
427,-174,0,0,0,0,0,0,0,0,0,-1,1651,1198,0,0
434,-174,0,0,0,0,0,0,0,0,0,-1,1658,1198,0,0
441,-174,0,0,0,0,0,0,0,0,0,-1,1665,1198,0,0
448,-174,0,0,0,0,0,0,0,0,0,-1,1672,1198,0,0
455,-174,0,0,0,0,0,0,0,0,0,-1,1679,1198,0,0
462,-174,0,0,0,0,0,0,0,0,0,-1,1686,1198,0,0
469,-174,0,0,0,0,0,0,0,0,0,-1,1693,1198,0,0
476,-174,0,0,0,0,0,0,0,0,0,-1,1700,1198,0,0
483,-174,0,0,0,0,0,0,0,0,0,-1,1707,1198,0,0
490,-174,0,0,0,0,0,0,0,0,0,-1,1714,1198,0,0
497,-174,0,0,0,0,0,0,0,0,0,-1,1721,1198,0,0
504,-174,0,0,0,0,0,0,0,0,0,-1,1728,1198,0,0
511,-174,0,0,0,0,0,0,0,0,0,-1,1735,1198,0,0
518,-174,0,0,0,0,0,0,0,0,0,-1,1742,1198,0,0
525,-174,0,0,0,0,0,0,0,0,0,-1,1749,1198,0,0
532,-174,0,0,0,0,0,0,0,0,0,-1,1756,1198,0,0
539,-174,0,0,0,0,0,0,0,0,0,-1,1763,1198,0,0
546,-174,0,0,0,0,0,0,0,0,0,-1,1770,1198,0,0
553,-174,0,0,0,0,0,0,0,0,0,-1,1777,1198,0,0
560,-174,0,0,0,0,0,0,0,0,0,-1,1784,1198,0,0
567,-174,0,0,0,0,0,0,0,0,0,-1,1791,1198,0,0
574,-174,0,0,0,0,0,0,0,0,0,-1,1798,1198,0,0
581,-174,0,0,0,0,0,0,0,0,0,-1,1805,1198,0,0
588,-174,0,0,0,0,0,0,0,0,0,-1,1812,1198,0,0
595,-174,0,0,0,0,0,0,0,0,0,-1,1819,1198,0,0
602,-174,0,0,0,0,0,0,0,0,0,-1,1826,1198,0,0
609,-174,0,0,0,0,0,0,0,0,0,-1,1833,1198,0,0
616,-174,0,0,0,0,0,0,0,0,0,-1,1840,1198,0,0
623,-174,0,0,0,0,0,0,0,0,0,-1,1847,1198,0,0
630,-174,0,0,0,0,0,0,0,0,0,-1,1854,1198,0,0
637,-174,0.0777588,0.140015,-0.00178927,0.00125159,-0.000318925,0.00128468,-0.00182236,-1.46742,0.00180278,0.0380563,1861,1198,0.0777917,-0.139987
644,-174,0.0394287,0.0456543,-0.00147443,0.000845109,-0.000111304,0.000850437,-0.00147976,-1.52296,0.0013616,0.0372015,1868,1198,0.0394176,-0.0456673
651,-174,-0.161499,-0.0159912,-0.000856464,-0.000378246,-0.000342611,-0.000199557,-0.00103515,-1.09006,0.000634137,0.0351779,1875,1198,-0.161482,0.0159934
658,-174,-0.155151,-0.00439453,-0.000419044,-0.00141125,-0.000723358,-3.80134e-05,-0.00179228,-0.48482,0.00118239,0.0357894,1882,1198,-0.15516,0.00438822
665,-174,-0.0130615,-0.000976563,-0.00018239,-0.00219071,-0.00112372,0.000320463,-0.00269356,-0.420764,0.0019115,0.031548,1889,1198,-0.0130666,0.000998151
672,-174,-0.00805664,0.0206299,-6.51815e-05,-0.00272518,-0.00145199,0.000573876,-0.00336424,-0.414611,0.00245657,0.0231555,1896,1198,-0.00801577,-0.0206543
679,-174,-0.0181885,0.0588379,1.21465e-05,-0.00302072,-0.00170833,0.000779997,-0.00378857,-0.422417,0.00282188,0.0180882,1903,1198,-0.0182257,-0.0588291
686,-174,0.22876,0.542236,0,0,0,0,0,0,0,-1,1910,1198,0.228776,-0.542225
693,-174,0.30127,0.484863,-6.43179e-05,-0.00308208,-0.00205653,0.000977494,-0.00412389,-0.468904,0.00312645,0.0420352,1917,1198,0.301302,-0.484873
700,-174,0.244263,0.392456,-3.70355e-05,-0.00292616,-0.00206752,0.00104059,-0.00400378,-0.480474,0.00307531,0.0397785,1924,1198,0.244251,-0.392511
707,-174,0.0203857,0.103027,-6.76877e-05,-0.00262909,-0.00199847,0.00102523,-0.00372201,-0.500444,0.00288447,0.0268531,1931,1198,0.0204313,-0.103012
714,-174,-0.0153809,0.0286865,-0.000295259,-0.00220391,-0.00187483,0.000854159,-0.00335333,-0.54998,0.00256807,0.0160011,1938,1198,-0.0154337,-0.0286783
721,-174,-0.0355225,0.0469971,-0.000466901,-0.00170012,-0.00169155,0.000716922,-0.00288394,-0.610621,0.00220088,0.0136517,1945,1198,-0.0355177,-0.0470012
728,-174,-0.0270996,0.0632324,-0.000404302,-0.00123932,-0.00141963,0.000657943,-0.00230156,-0.642383,0.00179436,0.0112476,1952,1198,-0.0270606,-0.0632095
735,-174,-0.012085,0.0545654,-0.000279239,-0.000547755,-0.000855482,0.000452456,-0.00127945,-0.707564,0.00103722,0.010453,1959,1198,-0.0121013,-0.0545919
742,-174,-0.0483398,0.0375977,0.000182732,0.000105487,-0.000180046,0.000328251,-4.0032e-05,-0.679742,0.000233326,0.0178407,1966,1198,-0.0483821,-0.0376373
749,-174,-0.0396729,0.0408936,0.000862696,0.00112733,0.000878603,0.00188353,0.000106503,0.860137,0.00122173,0.0155451,1973,1198,-0.0397034,-0.0408742
756,-174,-0.0291748,0.0272217,0.00179729,0.00210464,0.00151847,0.00347719,0.000424732,0.835829,0.00219032,0.00915692,1980,1198,-0.029158,-0.0272303
763,-174,-0.0522461,0.0170898,0.00303461,0.00311322,0.00242841,0.00550264,0.000645188,0.79349,0.0034734,0.0116525,1987,1198,-0.0521853,-0.0171185
770,-174,-0.0626221,0.0290527,0.00456802,0.00455711,0.00341945,0.00798202,0.00114311,0.784601,0.00498419,0.0238756,1994,1198,-0.0625751,-0.0290216
777,-174,-0.136108,-0.0826416,0.0065936,0.00652437,0.00455623,0.0111153,0.00200262,0.7816,0.00684111,0.0432013,2001,1198,-0.136132,0.0826216
784,-174,-0.372681,-0.0726318,0.00926643,0.0091647,0.00583283,0.0150486,0.00338251,0.781038,0.00911653,0.0452462,2008,1198,-0.372667,0.072681
791,-174,-0.696167,0.250854,0.0127325,0.0126769,0.00714383,0.0198486,0.00556082,0.783455,0.011823,0.0442304,2015,1198,-0.696113,-0.250895
798,-174,-0.401367,0.146606,0.0171223,0.0173202,0.00833156,0.0255534,0.00888909,0.791335,0.0149792,0.0435311,2022,1198,-0.401419,-0.146653
805,-174,0.0839844,-0.0888672,0.0226566,0.023427,0.00913937,0.0321893,0.0138943,0.806459,0.0186423,0.0439945,2029,1198,0.0840335,0.0889246
812,-174,0,0,0,0,0,0,0,0,0,-1,2036,1198,0,0
-700,-181,0,0,0,0,0,0,0,0,0,-1,524,1205,0,0
-693,-181,0,0,0,0,0,0,0,0,0,-1,531,1205,0,0
-686,-181,0.479126,1.20618,0,0,0,0,0,0,0,-1,538,1205,0.479117,-1.20612
-679,-181,0.507385,1.12598,0.0011601,0.0821423,0.0223468,0.0878996,-0.00459716,1.31865,0.0601906,0.0432506,545,1205,0.507384,-1.12599
-672,-181,0.591003,1.04492,-0.00154301,0.0669829,0.0179384,0.0713947,-0.00595481,1.32964,0.0497004,0.0428975,552,1205,0.590997,-1.04497
-665,-181,0.799133,0.88501,-0.0028643,0.0534666,0.0139729,0.0567422,-0.00613982,1.34053,0.040032,0.0445787,559,1205,0.799128,-0.88501
-658,-181,0.796814,0.659058,-0.00331104,0.0416924,0.0105053,0.0440239,-0.00564254,1.3524,0.0313996,0.043811,566,1205,0.796788,-0.659018
-651,-181,-0.0921631,1.11719,-0.00320713,0.0316821,0.00757249,0.0332548,-0.0047798,1.36603,0.0239228,0.0418789,573,1205,-0.0921399,-1.1172
-644,-181,-0.170349,0.635376,-0.00279785,0.0234012,0.00519964,0.0243954,-0.00379207,1.38187,0.0176639,0.0379967,580,1205,-0.170319,-0.635389
-637,-181,-0.041687,0.0568848,-0.0022546,0.01676,0.00331684,0.0173219,-0.00281657,1.40296,0.0125923,0.0230779,587,1205,-0.0416566,-0.0569142
-630,-181,-0.0372314,0.0330811,-0.00176721,0.0113155,0.0018348,0.0115679,-0.00201967,1.43406,0.00846587,0.0109501,594,1205,-0.0372034,-0.0330601
-623,-181,-0.0459595,0.0439453,-0.0014838,0.00682367,0.000735559,0.00688829,-0.00154843,1.48316,0.00518598,0.0126252,601,1205,-0.0459675,-0.04389
-616,-181,-0.0246582,0.0467529,-0.00125923,0.00336029,0.00029807,0.00337944,-0.00127839,1.50663,0.0027789,0.0127923,608,1205,-0.0246579,-0.0467843
-609,-181,-0.0144043,0.0432129,-0.00110926,0.00101819,8.52936e-05,0.0010216,-0.00111268,1.53079,0.0012326,0.0131105,615,1205,-0.0144142,-0.0432147
-602,-181,-0.0201416,0.0360107,-0.000602022,-0.000378133,-6.5799e-05,-0.000360228,-0.000619928,-1.3051,0.000359481,0.0120821,622,1205,-0.0201237,-0.0360251
-595,-181,-0.0366821,0.032959,-0.000646124,-0.0010093,0.000307293,-0.000470777,-0.00118465,0.518536,0.000688741,0.0116102,629,1205,-0.0366722,-0.0329462
-588,-181,-0.0379639,0.0450439,-0.00108955,-0.00200409,0.000845585,-0.000585512,-0.00250812,0.537533,0.0015151,0.010254,636,1205,-0.0379523,-0.0450669
-581,-181,-0.0346069,0.057373,-0.00117926,-0.00262299,0.00109248,-0.000591696,-0.00321055,0.493449,0.00197294,0.0106472,643,1205,-0.0346243,-0.0574055
-574,-181,-0.020874,-0.0684814,-0.00111597,-0.00308736,0.00123223,-0.000523697,-0.00367964,0.44805,0.0022985,0.0256328,650,1205,-0.020886,0.0684266
-567,-181,-0.24884,0.0561523,-0.000994547,-0.00348893,0.0013649,-0.000392837,-0.00409064,0.415215,0.00260604,0.0419419,657,1205,-0.248863,-0.0561669
-560,-181,-0.359863,0.828735,-0.000824559,-0.00375316,0.00148846,-0.000200871,-0.00437685,0.39679,0.0028533,0.0453113,664,1205,-0.359888,-0.828766
-553,-181,-0.261475,0.517212,-0.000512393,-0.00393031,0.00148975,4.57831e-05,-0.00448849,0.358488,0.0030077,0.0401028,671,1205,-0.261463,-0.517251
-546,-181,-0.0255737,0.0523682,-2.48589e-06,-0.00390606,0.00137127,0.000431068,-0.00433962,0.306224,0.00304695,0.0327154,678,1205,-0.0255473,-0.052335
-539,-181,-0.0974731,0.289795,0.000689243,-0.00357354,0.00112877,0.000969689,-0.00385399,0.243521,0.00294624,0.0368627,685,1205,-0.0974786,-0.289807
-532,-181,-0.150452,0.142334,0.00153935,-0.00282506,0.000778694,0.00167412,-0.00295983,0.171377,0.00270952,0.0414375,692,1205,-0.150431,-0.142394
-525,-181,-0.132019,-0.0136719,0.00252422,-0.0015093,0.00028079,0.00254367,-0.00152875,0.0691696,0.00237543,0.0384826,699,1205,-0.13201,0.0137147
-518,-181,-0.0197754,0.0552979,0.00351278,0.000569101,-0.000371828,0.00355902,0.00052286,-0.123725,0.00221902,0.0368218,706,1205,-0.0197521,-0.0553215
-511,-181,0,0,0,0,0,0,0,0,0,-1,713,1205,0,0
-504,-181,0,0,0,0,0,0,0,0,0,-1,720,1205,0,0
-497,-181,0,0,0,0,0,0,0,0,0,-1,727,1205,0,0
-490,-181,0,0,0,0,0,0,0,0,0,-1,734,1205,0,0
-483,-181,0,0,0,0,0,0,0,0,0,-1,741,1205,0,0
-476,-181,0,0,0,0,0,0,0,0,0,-1,748,1205,0,0
-469,-181,0,0,0,0,0,0,0,0,0,-1,755,1205,0,0
-462,-181,0,0,0,0,0,0,0,0,0,-1,762,1205,0,0
-455,-181,0,0,0,0,0,0,0,0,0,-1,769,1205,0,0
-448,-181,0,0,0,0,0,0,0,0,0,-1,776,1205,0,0
-441,-181,0,0,0,0,0,0,0,0,0,-1,783,1205,0,0
-434,-181,0,0,0,0,0,0,0,0,0,-1,790,1205,0,0
-427,-181,0,0,0,0,0,0,0,0,0,-1,797,1205,0,0
-420,-181,0,0,0,0,0,0,0,0,0,-1,804,1205,0,0
-413,-181,0,0,0,0,0,0,0,0,0,-1,811,1205,0,0
-406,-181,0,0,0,0,0,0,0,0,0,-1,818,1205,0,0
-399,-181,0,0,0,0,0,0,0,0,0,-1,825,1205,0,0
-392,-181,0,0,0,0,0,0,0,0,0,-1,832,1205,0,0
-385,-181,0,0,0,0,0,0,0,0,0,-1,839,1205,0,0
-378,-181,0,0,0,0,0,0,0,0,0,-1,846,1205,0,0
-371,-181,0,0,0,0,0,0,0,0,0,-1,853,1205,0,0
-364,-181,0,0,0,0,0,0,0,0,0,-1,860,1205,0,0
-357,-181,0,0,0,0,0,0,0,0,0,-1,867,1205,0,0
-350,-181,0,0,0,0,0,0,0,0,0,-1,874,1205,0,0
-343,-181,0,0,0,0,0,0,0,0,0,-1,881,1205,0,0
-336,-181,0,0,0,0,0,0,0,0,0,-1,888,1205,0,0
-329,-181,0,0,0,0,0,0,0,0,0,-1,895,1205,0,0
-322,-181,0,0,0,0,0,0,0,0,0,-1,902,1205,0,0
-315,-181,0,0,0,0,0,0,0,0,0,-1,909,1205,0,0
-308,-181,0,0,0,0,0,0,0,0,0,-1,916,1205,0,0
-301,-181,0,0,0,0,0,0,0,0,0,-1,923,1205,0,0
-294,-181,0,0,0,0,0,0,0,0,0,-1,930,1205,0,0
-287,-181,0,0,0,0,0,0,0,0,0,-1,937,1205,0,0
-280,-181,0,0,0,0,0,0,0,0,0,-1,944,1205,0,0
-273,-181,0,0,0,0,0,0,0,0,0,-1,951,1205,0,0
-266,-181,0,0,0,0,0,0,0,0,0,-1,958,1205,0,0
-259,-181,0,0,0,0,0,0,0,0,0,-1,965,1205,0,0
-252,-181,0,0,0,0,0,0,0,0,0,-1,972,1205,0,0
-245,-181,0,0,0,0,0,0,0,0,0,-1,979,1205,0,0
-238,-181,0,0,0,0,0,0,0,0,0,-1,986,1205,0,0
-231,-181,0,0,0,0,0,0,0,0,0,-1,993,1205,0,0
-224,-181,0,0,0,0,0,0,0,0,0,-1,1000,1205,0,0
-217,-181,0,0,0,0,0,0,0,0,0,-1,1007,1205,0,0
-210,-181,0,0,0,0,0,0,0,0,0,-1,1014,1205,0,0
-203,-181,0,0,0,0,0,0,0,0,0,-1,1021,1205,0,0
-196,-181,0,0,0,0,0,0,0,0,0,-1,1028,1205,0,0
-189,-181,0,0,0,0,0,0,0,0,0,-1,1035,1205,0,0
-182,-181,0,0,0,0,0,0,0,0,0,-1,1042,1205,0,0
-175,-181,0,0,0,0,0,0,0,0,0,-1,1049,1205,0,0
-168,-181,0,0,0,0,0,0,0,0,0,-1,1056,1205,0,0
-161,-181,0,0,0,0,0,0,0,0,0,-1,1063,1205,0,0
-154,-181,0,0,0,0,0,0,0,0,0,-1,1070,1205,0,0
-147,-181,0,0,0,0,0,0,0,0,0,-1,1077,1205,0,0
-140,-181,0,0,0,0,0,0,0,0,0,-1,1084,1205,0,0
-133,-181,0,0,0,0,0,0,0,0,0,-1,1091,1205,0,0
-126,-181,0,0,0,0,0,0,0,0,0,-1,1098,1205,0,0
-119,-181,0,0,0,0,0,0,0,0,0,-1,1105,1205,0,0
-112,-181,0,0,0,0,0,0,0,0,0,-1,1112,1205,0,0
-105,-181,0,0,0,0,0,0,0,0,0,-1,1119,1205,0,0
-98,-181,0,0,0,0,0,0,0,0,0,-1,1126,1205,0,0
-91,-181,0,0,0,0,0,0,0,0,0,-1,1133,1205,0,0
-84,-181,0,0,0,0,0,0,0,0,0,-1,1140,1205,0,0
-77,-181,0,0,0,0,0,0,0,0,0,-1,1147,1205,0,0
-70,-181,0,0,0,0,0,0,0,0,0,-1,1154,1205,0,0
-63,-181,0,0,0,0,0,0,0,0,0,-1,1161,1205,0,0
-56,-181,0,0,0,0,0,0,0,0,0,-1,1168,1205,0,0
-49,-181,0,0,0,0,0,0,0,0,0,-1,1175,1205,0,0
-42,-181,0,0,0,0,0,0,0,0,0,-1,1182,1205,0,0
-35,-181,0,0,0,0,0,0,0,0,0,-1,1189,1205,0,0
-28,-181,0,0,0,0,0,0,0,0,0,-1,1196,1205,0,0
-21,-181,0,0,0,0,0,0,0,0,0,-1,1203,1205,0,0
-14,-181,0,0,0,0,0,0,0,0,0,-1,1210,1205,0,0
-7,-181,0,0,0,0,0,0,0,0,0,-1,1217,1205,0,0
0,-181,0,0,0,0,0,0,0,0,0,-1,1224,1205,0,0
7,-181,0,0,0,0,0,0,0,0,0,-1,1231,1205,0,0
14,-181,0,0,0,0,0,0,0,0,0,-1,1238,1205,0,0
21,-181,0,0,0,0,0,0,0,0,0,-1,1245,1205,0,0
28,-181,0,0,0,0,0,0,0,0,0,-1,1252,1205,0,0
35,-181,0,0,0,0,0,0,0,0,0,-1,1259,1205,0,0
42,-181,0,0,0,0,0,0,0,0,0,-1,1266,1205,0,0
49,-181,0,0,0,0,0,0,0,0,0,-1,1273,1205,0,0
56,-181,0,0,0,0,0,0,0,0,0,-1,1280,1205,0,0
63,-181,0,0,0,0,0,0,0,0,0,-1,1287,1205,0,0
70,-181,0,0,0,0,0,0,0,0,0,-1,1294,1205,0,0
77,-181,0,0,0,0,0,0,0,0,0,-1,1301,1205,0,0
84,-181,0,0,0,0,0,0,0,0,0,-1,1308,1205,0,0
91,-181,0,0,0,0,0,0,0,0,0,-1,1315,1205,0,0
98,-181,0,0,0,0,0,0,0,0,0,-1,1322,1205,0,0
105,-181,0,0,0,0,0,0,0,0,0,-1,1329,1205,0,0
112,-181,0,0,0,0,0,0,0,0,0,-1,1336,1205,0,0
119,-181,0,0,0,0,0,0,0,0,0,-1,1343,1205,0,0
126,-181,0,0,0,0,0,0,0,0,0,-1,1350,1205,0,0
133,-181,0,0,0,0,0,0,0,0,0,-1,1357,1205,0,0
140,-181,0,0,0,0,0,0,0,0,0,-1,1364,1205,0,0
147,-181,0,0,0,0,0,0,0,0,0,-1,1371,1205,0,0
154,-181,0,0,0,0,0,0,0,0,0,-1,1378,1205,0,0
161,-181,0,0,0,0,0,0,0,0,0,-1,1385,1205,0,0
168,-181,0,0,0,0,0,0,0,0,0,-1,1392,1205,0,0
175,-181,0,0,0,0,0,0,0,0,0,-1,1399,1205,0,0
182,-181,0,0,0,0,0,0,0,0,0,-1,1406,1205,0,0
189,-181,0,0,0,0,0,0,0,0,0,-1,1413,1205,0,0
196,-181,0,0,0,0,0,0,0,0,0,-1,1420,1205,0,0
203,-181,0,0,0,0,0,0,0,0,0,-1,1427,1205,0,0
210,-181,0,0,0,0,0,0,0,0,0,-1,1434,1205,0,0
217,-181,0,0,0,0,0,0,0,0,0,-1,1441,1205,0,0
224,-181,0,0,0,0,0,0,0,0,0,-1,1448,1205,0,0
231,-181,0,0,0,0,0,0,0,0,0,-1,1455,1205,0,0
238,-181,0,0,0,0,0,0,0,0,0,-1,1462,1205,0,0
245,-181,0,0,0,0,0,0,0,0,0,-1,1469,1205,0,0
252,-181,0,0,0,0,0,0,0,0,0,-1,1476,1205,0,0
259,-181,0,0,0,0,0,0,0,0,0,-1,1483,1205,0,0
266,-181,0,0,0,0,0,0,0,0,0,-1,1490,1205,0,0
273,-181,0,0,0,0,0,0,0,0,0,-1,1497,1205,0,0
280,-181,0,0,0,0,0,0,0,0,0,-1,1504,1205,0,0
287,-181,0,0,0,0,0,0,0,0,0,-1,1511,1205,0,0
294,-181,0,0,0,0,0,0,0,0,0,-1,1518,1205,0,0
301,-181,0,0,0,0,0,0,0,0,0,-1,1525,1205,0,0
308,-181,0,0,0,0,0,0,0,0,0,-1,1532,1205,0,0
315,-181,0,0,0,0,0,0,0,0,0,-1,1539,1205,0,0
322,-181,0,0,0,0,0,0,0,0,0,-1,1546,1205,0,0
329,-181,0,0,0,0,0,0,0,0,0,-1,1553,1205,0,0
336,-181,0,0,0,0,0,0,0,0,0,-1,1560,1205,0,0
343,-181,0,0,0,0,0,0,0,0,0,-1,1567,1205,0,0
350,-181,0,0,0,0,0,0,0,0,0,-1,1574,1205,0,0
357,-181,0,0,0,0,0,0,0,0,0,-1,1581,1205,0,0
364,-181,0,0,0,0,0,0,0,0,0,-1,1588,1205,0,0
371,-181,0,0,0,0,0,0,0,0,0,-1,1595,1205,0,0
378,-181,0,0,0,0,0,0,0,0,0,-1,1602,1205,0,0
385,-181,0,0,0,0,0,0,0,0,0,-1,1609,1205,0,0
392,-181,0,0,0,0,0,0,0,0,0,-1,1616,1205,0,0
399,-181,0,0,0,0,0,0,0,0,0,-1,1623,1205,0,0
406,-181,0,0,0,0,0,0,0,0,0,-1,1630,1205,0,0
413,-181,0,0,0,0,0,0,0,0,0,-1,1637,1205,0,0
420,-181,0,0,0,0,0,0,0,0,0,-1,1644,1205,0,0
427,-181,0,0,0,0,0,0,0,0,0,-1,1651,1205,0,0
434,-181,0,0,0,0,0,0,0,0,0,-1,1658,1205,0,0
441,-181,0,0,0,0,0,0,0,0,0,-1,1665,1205,0,0
448,-181,0,0,0,0,0,0,0,0,0,-1,1672,1205,0,0
455,-181,0,0,0,0,0,0,0,0,0,-1,1679,1205,0,0
462,-181,0,0,0,0,0,0,0,0,0,-1,1686,1205,0,0
469,-181,0,0,0,0,0,0,0,0,0,-1,1693,1205,0,0
476,-181,0,0,0,0,0,0,0,0,0,-1,1700,1205,0,0
483,-181,0,0,0,0,0,0,0,0,0,-1,1707,1205,0,0
490,-181,0,0,0,0,0,0,0,0,0,-1,1714,1205,0,0
497,-181,0,0,0,0,0,0,0,0,0,-1,1721,1205,0,0
504,-181,0,0,0,0,0,0,0,0,0,-1,1728,1205,0,0
511,-181,0,0,0,0,0,0,0,0,0,-1,1735,1205,0,0
518,-181,0,0,0,0,0,0,0,0,0,-1,1742,1205,0,0
525,-181,0,0,0,0,0,0,0,0,0,-1,1749,1205,0,0
532,-181,0,0,0,0,0,0,0,0,0,-1,1756,1205,0,0
539,-181,0,0,0,0,0,0,0,0,0,-1,1763,1205,0,0
546,-181,0,0,0,0,0,0,0,0,0,-1,1770,1205,0,0
553,-181,0,0,0,0,0,0,0,0,0,-1,1777,1205,0,0
560,-181,0,0,0,0,0,0,0,0,0,-1,1784,1205,0,0
567,-181,0,0,0,0,0,0,0,0,0,-1,1791,1205,0,0
574,-181,0,0,0,0,0,0,0,0,0,-1,1798,1205,0,0
581,-181,0,0,0,0,0,0,0,0,0,-1,1805,1205,0,0
588,-181,0,0,0,0,0,0,0,0,0,-1,1812,1205,0,0
595,-181,0,0,0,0,0,0,0,0,0,-1,1819,1205,0,0
602,-181,0,0,0,0,0,0,0,0,0,-1,1826,1205,0,0
609,-181,0,0,0,0,0,0,0,0,0,-1,1833,1205,0,0
616,-181,0,0,0,0,0,0,0,0,0,-1,1840,1205,0,0
623,-181,0,0,0,0,0,0,0,0,0,-1,1847,1205,0,0
630,-181,0.0333252,0.108887,-0.00308115,0.00181425,2.76166e-05,0.00181441,-0.00308131,1.56516,0.00285792,0.0323108,1854,1205,0.0332917,-0.108925
637,-181,0.11377,0.11084,-0.00170185,0.00122017,-0.000196787,0.00123336,-0.00171505,-1.50385,0.00170982,0.0328494,1861,1205,0.113829,-0.110797
644,-181,0.0762939,0.108887,-0.000979357,0.00048098,-0.000137098,0.00049374,-0.000992116,-1.478,0.000873797,0.0347949,1868,1205,0.0763443,-0.10888
651,-181,-0.019165,0.0461426,-0.000196609,-0.000824597,-0.000483904,6.62466e-05,-0.00108745,-0.497605,0.000748029,0.0336004,1875,1205,-0.0192256,-0.0461163
658,-181,-0.105957,-0.0174561,0.000274592,-0.00186633,-0.000933465,0.000624428,-0.00221617,-0.35857,0.00172371,0.0307362,1882,1205,-0.10596,0.0174351
665,-181,-0.0184326,-0.00317383,0.000494969,-0.00262657,-0.0013541,0.0010005,-0.0031321,-0.357307,0.00248951,0.0278646,1889,1205,-0.0184909,0.00315961
672,-181,0.0125732,0.020874,0.00055761,-0.00311549,-0.00168295,0.00121209,-0.00376998,-0.370892,0.00300011,0.0197209,1896,1205,0.012603,-0.020851
679,-181,0.000610352,0.0958252,0.000571452,-0.00336121,-0.0019227,0.00135525,-0.00414501,-0.387089,0.00330894,0.0229543,1903,1205,0.000624133,-0.095852
686,-181,0.436157,0.994873,0,0,0,0,0,0,0,-1,1910,1205,0.436184,-0.994898
693,-181,0.51709,0.931641,0.000339447,-0.00333457,-0.002218,0.00138239,-0.00437752,-0.43954,0.00347212,0.0458359,1917,1205,0.517043,-0.93159
700,-181,0.230957,0.310913,0.000297067,-0.0031245,-0.00221215,0.00138278,-0.00421022,-0.456257,0.00336385,0.0424953,1924,1205,0.230949,-0.310883
707,-181,0.0166016,0.0828857,0.000192408,-0.00276768,-0.0021184,0.00129657,-0.00387185,-0.480484,0.00310501,0.0192024,1931,1205,0.0165744,-0.0828831
714,-181,-0.0148926,0.052124,-0.000163872,-0.0022759,-0.00198446,0.00102805,-0.00346782,-0.540884,0.00272011,0.0149933,1938,1205,-0.0148773,-0.0520936
721,-181,-0.0250244,0.0544434,-0.000406406,-0.00170698,-0.00174347,0.000804103,-0.00291749,-0.606897,0.0022612,0.0125196,1945,1205,-0.0249638,-0.0544233
728,-181,-0.019043,0.0552979,-0.000363138,-0.0012693,-0.00148084,0.000732385,-0.00236483,-0.636939,0.00186914,0.0112968,1952,1205,-0.0190522,-0.0553232
735,-181,0.00012207,0.0494385,-0.000302278,-0.00054298,-0.000867521,0.000453201,-0.00129846,-0.716473,0.00104984,0.0105067,1959,1205,8.21734e-05,-0.0494717
742,-181,-0.00695801,0.0560303,0.000146128,0.00016443,-0.000183125,0.000338632,-2.80743e-05,-0.810362,0.000235671,0.0150304,1966,1205,-0.00691053,-0.0560251
749,-181,-0.0172119,0.0408936,0.000779759,0.00112958,0.000883563,0.00185538,5.39604e-05,0.883115,0.00121933,0.0139561,1973,1205,-0.0171915,-0.0409101
756,-181,-0.0257568,0.0198975,0.00166346,0.00212965,0.00156738,0.00348117,0.000311937,0.859214,0.00222411,0.0105734,1980,1205,-0.0257726,-0.0199013
763,-181,-0.0443115,0.027832,0.00285427,0.0031933,0.00251571,0.0055452,0.000502369,0.819039,0.00354124,0.0110359,1987,1205,-0.0443252,-0.0278171
770,-181,-0.0393066,0.0551758,0.00437754,0.00472088,0.00359642,0.00814972,0.000948693,0.809247,0.00514615,0.0233094,1994,1205,-0.0393614,-0.0552134
777,-181,-0.253296,-0.211548,0.00644807,0.00683586,0.00488986,0.0115357,0.00174826,0.805214,0.007179,0.0425192,2001,1205,-0.253235,0.211605
784,-181,-0.46228,-0.377197,0.00924843,0.00972526,0.00639573,0.015887,0.00308667,0.804028,0.00972709,0.0466198,2008,1205,-0.462257,0.3772
791,-181,-0.64563,-0.357056,0.0129628,0.0136434,0.00802607,0.0213364,0.00526982,0.806588,0.0128335,0.0491681,2015,1205,-0.645622,0.357058
798,-181,1.3551,-1.07727,0,0,0,0,0,0,0,-1,2022,1205,1.35507,1.07732
805,-181,0,0,0,0,0,0,0,0,0,-1,2029,1205,0,0
812,-181,0,0,0,0,0,0,0,0,0,-1,2036,1205,0,0
-700,-188,0,0,0,0,0,0,0,0,0,-1,524,1212,0,0
-693,-188,0,0,0,0,0,0,0,0,0,-1,531,1212,0,0
-686,-188,0,0,0,0,0,0,0,0,0,-1,538,1212,0,0
-679,-188,0.128296,0.626343,0.00577881,0.0842394,0.020563,0.0893019,0.000716276,1.3294,0.0592973,0.0453121,545,1212,0.128285,-0.626351
-672,-188,0.296936,0.387085,0.00224084,0.0686671,0.0166138,0.0725906,-0.00168268,1.33889,0.0489643,0.0439946,552,1212,0.296954,-0.387065
-665,-188,0.461609,0.242432,0.000186596,0.0548466,0.0129496,0.0577593,-0.00272612,1.34955,0.0394463,0.042219,559,1212,0.461636,-0.242442
-658,-188,0.412781,-0.00585938,-0.000907349,0.0428633,0.00970007,0.0449166,-0.00296067,1.36219,0.0309785,0.0422973,566,1212,0.412765,0.00587449
-651,-188,0.165649,0.196655,-0.00136644,0.0327059,0.00693145,0.034062,-0.00272256,1.37759,0.0236678,0.0424336,573,1212,0.165627,-0.196671
-644,-188,0.0628662,0.253174,-0.00143383,0.0243066,0.00468553,0.025133,-0.00226021,1.39622,0.0175573,0.0388245,580,1212,0.0628871,-0.253166
-637,-188,-0.043457,0.0355225,-0.00128411,0.0175565,0.00295625,0.0180095,-0.00173708,1.41875,0.0126253,0.0202716,587,1212,-0.0434776,-0.0355348
-630,-188,-0.0494385,0.0509033,-0.00108906,0.0120424,0.00157723,0.0122291,-0.00127585,1.45292,0.00860962,0.00941509,594,1212,-0.0494551,-0.0508675
-623,-188,-0.0453491,0.06604,-0.00103092,0.0074276,0.000528531,0.0074605,-0.00106382,1.50863,0.00536356,0.00972042,601,1212,-0.0453485,-0.0659875
-616,-188,-0.0285645,0.0615234,-0.0010058,0.00389413,0.000111764,0.00389668,-0.00100835,1.548,0.00299111,0.00972177,608,1212,-0.0285493,-0.0614882
-609,-188,-0.0100098,0.0693359,-0.00104181,0.00148253,-0.000100415,0.00148652,-0.00104579,-1.5311,0.0014694,0.0124089,615,1212,-0.0100031,-0.0692998
-602,-188,0.000366211,0.0756836,-0.000715592,8.03981e-05,-0.000187167,0.000122212,-0.000757405,-1.351,0.000550217,0.0151494,622,1212,0.000355173,-0.0756594
-595,-188,-0.031311,0.0516357,-0.000844838,-0.000601149,0.000229677,-0.000462998,-0.000982989,1.02927,0.000567847,0.0116339,629,1212,-0.0313344,-0.0516133
-588,-188,-0.0410767,0.0524902,-0.00131607,-0.00166271,0.000841338,-0.000630383,-0.00234839,0.683816,0.00140348,0.00881766,636,1212,-0.0410891,-0.0524815
-581,-188,-0.0337524,0.0709229,-0.00144745,-0.00230546,0.00116171,-0.000638063,-0.00311485,0.608523,0.00189993,0.00828341,643,1212,-0.0337777,-0.0709485
-574,-188,0.0131836,0.043335,-0.00140908,-0.0027936,0.00134432,-0.000589246,-0.00361343,0.547629,0.00223854,0.0212919,650,1212,0.0131622,-0.0433666
-567,-188,-0.0785522,0.412842,-0.0012811,-0.00325132,0.00151187,-0.000461721,-0.0040707,0.496654,0.00257374,0.0407644,657,1212,-0.0785254,-0.41281
-560,-188,-0.33075,0.681763,-0.00112435,-0.0035817,0.00166173,-0.00028639,-0.00441966,0.467059,0.00285577,0.0463131,664,1212,-0.33073,-0.681775
-553,-188,-0.36145,0.489502,-0.000818786,-0.00389193,0.00168372,-7.58877e-05,-0.00463483,0.415531,0.0030649,0.0412409,671,1212,-0.361445,-0.489532
-546,-188,-0.154968,0.199341,-0.000270668,-0.00408093,0.0015578,0.000285148,-0.00463675,0.342716,0.00319047,0.0382929,678,1212,-0.154953,-0.199355
-539,-188,-0.0794678,0.24292,0.000483798,-0.00402963,0.00128948,0.000826222,-0.00437206,0.259562,0.00322558,0.0350971,685,1212,-0.0794783,-0.242967
-532,-188,-0.0113525,0.18689,0.00142551,-0.0036272,0.000863303,0.00156894,-0.00377063,0.164639,0.00316895,0.0386165,692,1212,-0.0113338,-0.186856
-525,-188,-0.0105591,0.0181885,0.00251399,-0.00271204,0.00023666,0.00252469,-0.00272273,0.0451617,0.00303032,0.0384027,699,1212,-0.0105806,-0.0181342
-518,-188,0.000549316,0.114136,0.00361928,-0.00109832,-0.000620895,0.00369963,-0.00117867,-0.128693,0.00293917,0.0380476,706,1212,0.000529677,-0.114098
-511,-188,0.0244751,0.189697,0.00388946,0.000470936,-0.000619158,0.00399814,0.00036225,-0.173767,0.00255326,0.0338359,713,1212,0.0244799,-0.189713
-504,-188,0,0,0,0,0,0,0,0,0,-1,720,1212,0,0
-497,-188,0,0,0,0,0,0,0,0,0,-1,727,1212,0,0
-490,-188,0,0,0,0,0,0,0,0,0,-1,734,1212,0,0
-483,-188,0,0,0,0,0,0,0,0,0,-1,741,1212,0,0
-476,-188,0,0,0,0,0,0,0,0,0,-1,748,1212,0,0
-469,-188,0,0,0,0,0,0,0,0,0,-1,755,1212,0,0
-462,-188,0,0,0,0,0,0,0,0,0,-1,762,1212,0,0
-455,-188,0,0,0,0,0,0,0,0,0,-1,769,1212,0,0
-448,-188,0,0,0,0,0,0,0,0,0,-1,776,1212,0,0
-441,-188,0,0,0,0,0,0,0,0,0,-1,783,1212,0,0
-434,-188,0,0,0,0,0,0,0,0,0,-1,790,1212,0,0
-427,-188,0,0,0,0,0,0,0,0,0,-1,797,1212,0,0
-420,-188,0,0,0,0,0,0,0,0,0,-1,804,1212,0,0
-413,-188,0,0,0,0,0,0,0,0,0,-1,811,1212,0,0
-406,-188,0,0,0,0,0,0,0,0,0,-1,818,1212,0,0
-399,-188,0,0,0,0,0,0,0,0,0,-1,825,1212,0,0
-392,-188,0,0,0,0,0,0,0,0,0,-1,832,1212,0,0
-385,-188,0,0,0,0,0,0,0,0,0,-1,839,1212,0,0
-378,-188,0,0,0,0,0,0,0,0,0,-1,846,1212,0,0
-371,-188,0,0,0,0,0,0,0,0,0,-1,853,1212,0,0
-364,-188,0,0,0,0,0,0,0,0,0,-1,860,1212,0,0
-357,-188,0,0,0,0,0,0,0,0,0,-1,867,1212,0,0
-350,-188,0,0,0,0,0,0,0,0,0,-1,874,1212,0,0
-343,-188,0,0,0,0,0,0,0,0,0,-1,881,1212,0,0
-336,-188,0,0,0,0,0,0,0,0,0,-1,888,1212,0,0
-329,-188,0,0,0,0,0,0,0,0,0,-1,895,1212,0,0
-322,-188,0,0,0,0,0,0,0,0,0,-1,902,1212,0,0
-315,-188,0,0,0,0,0,0,0,0,0,-1,909,1212,0,0
-308,-188,0,0,0,0,0,0,0,0,0,-1,916,1212,0,0
-301,-188,0,0,0,0,0,0,0,0,0,-1,923,1212,0,0
-294,-188,0,0,0,0,0,0,0,0,0,-1,930,1212,0,0
-287,-188,0,0,0,0,0,0,0,0,0,-1,937,1212,0,0
-280,-188,0,0,0,0,0,0,0,0,0,-1,944,1212,0,0
-273,-188,0,0,0,0,0,0,0,0,0,-1,951,1212,0,0
-266,-188,0,0,0,0,0,0,0,0,0,-1,958,1212,0,0
-259,-188,0,0,0,0,0,0,0,0,0,-1,965,1212,0,0
-252,-188,0,0,0,0,0,0,0,0,0,-1,972,1212,0,0
-245,-188,0,0,0,0,0,0,0,0,0,-1,979,1212,0,0
-238,-188,0,0,0,0,0,0,0,0,0,-1,986,1212,0,0
-231,-188,0,0,0,0,0,0,0,0,0,-1,993,1212,0,0
-224,-188,0,0,0,0,0,0,0,0,0,-1,1000,1212,0,0
-217,-188,0,0,0,0,0,0,0,0,0,-1,1007,1212,0,0
-210,-188,0,0,0,0,0,0,0,0,0,-1,1014,1212,0,0
-203,-188,0,0,0,0,0,0,0,0,0,-1,1021,1212,0,0
-196,-188,0,0,0,0,0,0,0,0,0,-1,1028,1212,0,0
-189,-188,0,0,0,0,0,0,0,0,0,-1,1035,1212,0,0
-182,-188,0,0,0,0,0,0,0,0,0,-1,1042,1212,0,0
-175,-188,0,0,0,0,0,0,0,0,0,-1,1049,1212,0,0
-168,-188,0,0,0,0,0,0,0,0,0,-1,1056,1212,0,0
-161,-188,0,0,0,0,0,0,0,0,0,-1,1063,1212,0,0
-154,-188,0,0,0,0,0,0,0,0,0,-1,1070,1212,0,0
-147,-188,0,0,0,0,0,0,0,0,0,-1,1077,1212,0,0
-140,-188,0,0,0,0,0,0,0,0,0,-1,1084,1212,0,0
-133,-188,0,0,0,0,0,0,0,0,0,-1,1091,1212,0,0
-126,-188,0,0,0,0,0,0,0,0,0,-1,1098,1212,0,0
-119,-188,0,0,0,0,0,0,0,0,0,-1,1105,1212,0,0
-112,-188,0,0,0,0,0,0,0,0,0,-1,1112,1212,0,0
-105,-188,0,0,0,0,0,0,0,0,0,-1,1119,1212,0,0
-98,-188,0,0,0,0,0,0,0,0,0,-1,1126,1212,0,0
-91,-188,0,0,0,0,0,0,0,0,0,-1,1133,1212,0,0
-84,-188,0,0,0,0,0,0,0,0,0,-1,1140,1212,0,0
-77,-188,0,0,0,0,0,0,0,0,0,-1,1147,1212,0,0
-70,-188,0,0,0,0,0,0,0,0,0,-1,1154,1212,0,0
-63,-188,0,0,0,0,0,0,0,0,0,-1,1161,1212,0,0
-56,-188,0,0,0,0,0,0,0,0,0,-1,1168,1212,0,0
-49,-188,0,0,0,0,0,0,0,0,0,-1,1175,1212,0,0
-42,-188,0,0,0,0,0,0,0,0,0,-1,1182,1212,0,0
-35,-188,0,0,0,0,0,0,0,0,0,-1,1189,1212,0,0
-28,-188,0,0,0,0,0,0,0,0,0,-1,1196,1212,0,0
-21,-188,0,0,0,0,0,0,0,0,0,-1,1203,1212,0,0
-14,-188,0,0,0,0,0,0,0,0,0,-1,1210,1212,0,0
-7,-188,0,0,0,0,0,0,0,0,0,-1,1217,1212,0,0
0,-188,0,0,0,0,0,0,0,0,0,-1,1224,1212,0,0
7,-188,0,0,0,0,0,0,0,0,0,-1,1231,1212,0,0
14,-188,0,0,0,0,0,0,0,0,0,-1,1238,1212,0,0
21,-188,0,0,0,0,0,0,0,0,0,-1,1245,1212,0,0
28,-188,0,0,0,0,0,0,0,0,0,-1,1252,1212,0,0
35,-188,0,0,0,0,0,0,0,0,0,-1,1259,1212,0,0
42,-188,0,0,0,0,0,0,0,0,0,-1,1266,1212,0,0
49,-188,0,0,0,0,0,0,0,0,0,-1,1273,1212,0,0
56,-188,0,0,0,0,0,0,0,0,0,-1,1280,1212,0,0
63,-188,0,0,0,0,0,0,0,0,0,-1,1287,1212,0,0
70,-188,0,0,0,0,0,0,0,0,0,-1,1294,1212,0,0
77,-188,0,0,0,0,0,0,0,0,0,-1,1301,1212,0,0
84,-188,0,0,0,0,0,0,0,0,0,-1,1308,1212,0,0
91,-188,0,0,0,0,0,0,0,0,0,-1,1315,1212,0,0
98,-188,0,0,0,0,0,0,0,0,0,-1,1322,1212,0,0
105,-188,0,0,0,0,0,0,0,0,0,-1,1329,1212,0,0
112,-188,0,0,0,0,0,0,0,0,0,-1,1336,1212,0,0
119,-188,0,0,0,0,0,0,0,0,0,-1,1343,1212,0,0
126,-188,0,0,0,0,0,0,0,0,0,-1,1350,1212,0,0
133,-188,0,0,0,0,0,0,0,0,0,-1,1357,1212,0,0
140,-188,0,0,0,0,0,0,0,0,0,-1,1364,1212,0,0
147,-188,0,0,0,0,0,0,0,0,0,-1,1371,1212,0,0
154,-188,0,0,0,0,0,0,0,0,0,-1,1378,1212,0,0
161,-188,0,0,0,0,0,0,0,0,0,-1,1385,1212,0,0
168,-188,0,0,0,0,0,0,0,0,0,-1,1392,1212,0,0
175,-188,0,0,0,0,0,0,0,0,0,-1,1399,1212,0,0
182,-188,0,0,0,0,0,0,0,0,0,-1,1406,1212,0,0
189,-188,0,0,0,0,0,0,0,0,0,-1,1413,1212,0,0
196,-188,0,0,0,0,0,0,0,0,0,-1,1420,1212,0,0
203,-188,0,0,0,0,0,0,0,0,0,-1,1427,1212,0,0
210,-188,0,0,0,0,0,0,0,0,0,-1,1434,1212,0,0
217,-188,0,0,0,0,0,0,0,0,0,-1,1441,1212,0,0
224,-188,0,0,0,0,0,0,0,0,0,-1,1448,1212,0,0
231,-188,0,0,0,0,0,0,0,0,0,-1,1455,1212,0,0
238,-188,0,0,0,0,0,0,0,0,0,-1,1462,1212,0,0
245,-188,0,0,0,0,0,0,0,0,0,-1,1469,1212,0,0
252,-188,0,0,0,0,0,0,0,0,0,-1,1476,1212,0,0
259,-188,0,0,0,0,0,0,0,0,0,-1,1483,1212,0,0
266,-188,0,0,0,0,0,0,0,0,0,-1,1490,1212,0,0
273,-188,0,0,0,0,0,0,0,0,0,-1,1497,1212,0,0
280,-188,0,0,0,0,0,0,0,0,0,-1,1504,1212,0,0
287,-188,0,0,0,0,0,0,0,0,0,-1,1511,1212,0,0
294,-188,0,0,0,0,0,0,0,0,0,-1,1518,1212,0,0
301,-188,0,0,0,0,0,0,0,0,0,-1,1525,1212,0,0
308,-188,0,0,0,0,0,0,0,0,0,-1,1532,1212,0,0
315,-188,0,0,0,0,0,0,0,0,0,-1,1539,1212,0,0
322,-188,0,0,0,0,0,0,0,0,0,-1,1546,1212,0,0
329,-188,0,0,0,0,0,0,0,0,0,-1,1553,1212,0,0
336,-188,0,0,0,0,0,0,0,0,0,-1,1560,1212,0,0
343,-188,0,0,0,0,0,0,0,0,0,-1,1567,1212,0,0
350,-188,0,0,0,0,0,0,0,0,0,-1,1574,1212,0,0
357,-188,0,0,0,0,0,0,0,0,0,-1,1581,1212,0,0
364,-188,0,0,0,0,0,0,0,0,0,-1,1588,1212,0,0
371,-188,0,0,0,0,0,0,0,0,0,-1,1595,1212,0,0
378,-188,0,0,0,0,0,0,0,0,0,-1,1602,1212,0,0
385,-188,0,0,0,0,0,0,0,0,0,-1,1609,1212,0,0
392,-188,0,0,0,0,0,0,0,0,0,-1,1616,1212,0,0
399,-188,0,0,0,0,0,0,0,0,0,-1,1623,1212,0,0
406,-188,0,0,0,0,0,0,0,0,0,-1,1630,1212,0,0
413,-188,0,0,0,0,0,0,0,0,0,-1,1637,1212,0,0
420,-188,0,0,0,0,0,0,0,0,0,-1,1644,1212,0,0
427,-188,0,0,0,0,0,0,0,0,0,-1,1651,1212,0,0
434,-188,0,0,0,0,0,0,0,0,0,-1,1658,1212,0,0
441,-188,0,0,0,0,0,0,0,0,0,-1,1665,1212,0,0
448,-188,0,0,0,0,0,0,0,0,0,-1,1672,1212,0,0
455,-188,0,0,0,0,0,0,0,0,0,-1,1679,1212,0,0
462,-188,0,0,0,0,0,0,0,0,0,-1,1686,1212,0,0
469,-188,0,0,0,0,0,0,0,0,0,-1,1693,1212,0,0
476,-188,0,0,0,0,0,0,0,0,0,-1,1700,1212,0,0
483,-188,0,0,0,0,0,0,0,0,0,-1,1707,1212,0,0
490,-188,0,0,0,0,0,0,0,0,0,-1,1714,1212,0,0
497,-188,0,0,0,0,0,0,0,0,0,-1,1721,1212,0,0
504,-188,0,0,0,0,0,0,0,0,0,-1,1728,1212,0,0
511,-188,0,0,0,0,0,0,0,0,0,-1,1735,1212,0,0
518,-188,0,0,0,0,0,0,0,0,0,-1,1742,1212,0,0
525,-188,0,0,0,0,0,0,0,0,0,-1,1749,1212,0,0
532,-188,0,0,0,0,0,0,0,0,0,-1,1756,1212,0,0
539,-188,0,0,0,0,0,0,0,0,0,-1,1763,1212,0,0
546,-188,0,0,0,0,0,0,0,0,0,-1,1770,1212,0,0
553,-188,0,0,0,0,0,0,0,0,0,-1,1777,1212,0,0
560,-188,0,0,0,0,0,0,0,0,0,-1,1784,1212,0,0
567,-188,0,0,0,0,0,0,0,0,0,-1,1791,1212,0,0
574,-188,0,0,0,0,0,0,0,0,0,-1,1798,1212,0,0
581,-188,0,0,0,0,0,0,0,0,0,-1,1805,1212,0,0
588,-188,0,0,0,0,0,0,0,0,0,-1,1812,1212,0,0
595,-188,0,0,0,0,0,0,0,0,0,-1,1819,1212,0,0
602,-188,0,0,0,0,0,0,0,0,0,-1,1826,1212,0,0
609,-188,0,0,0,0,0,0,0,0,0,-1,1833,1212,0,0
616,-188,0,0,0,0,0,0,0,0,0,-1,1840,1212,0,0
623,-188,0,0,0,0,0,0,0,0,0,-1,1847,1212,0,0
630,-188,-0.0281982,0.0632324,-0.00280926,0.00194659,-0.000104995,0.00194891,-0.00281158,-1.54873,0.00276347,0.0364933,1854,1212,-0.0281863,-0.0631772
637,-188,-0.0358887,0.0567627,-0.00126913,0.00116529,-0.000285227,0.00119826,-0.00130211,-1.45571,0.001444,0.0345614,1861,1212,-0.0358737,-0.0567422
644,-188,-0.0545654,0.109863,-0.000519037,0.000165515,-0.000312913,0.000286992,-0.000640515,-1.20049,0.000548309,0.0314512,1868,1212,-0.0546216,-0.109852
651,-188,-0.0662842,-0.0447998,0.000176678,-0.00113712,-0.000683985,0.00046812,-0.00142856,-0.402798,0.00114089,0.0275537,1875,1212,-0.0663394,0.0447764
658,-188,-0.0552979,-0.046875,0.000545747,-0.00212813,-0.00111708,0.000951009,-0.00253339,-0.348022,0.00207972,0.0261581,1882,1212,-0.0553338,0.0469116
665,-188,-0.00280762,0.0113525,0.000695308,-0.00283096,-0.00149687,0.00124502,-0.00338067,-0.351951,0.00276389,0.0235172,1889,1212,-0.00279131,-0.0113428
672,-188,-0.00561523,0.052002,0.000709993,-0.00325939,-0.00178412,0.00139403,-0.00394343,-0.366115,0.00319661,0.0191875,1896,1212,-0.00566454,-0.0520073
679,-188,-0.0250244,0.141968,0.000699662,-0.00345884,-0.00198194,0.00149293,-0.00425211,-0.38072,0.00344205,0.0389782,1903,1212,-0.0249831,-0.141991
686,-188,-0.0528564,0.197144,0,0,0,0,0,0,0,-1,1910,1212,-0.0528237,-0.19711
693,-188,0.753174,1.36536,0,0,0,0,0,0,0,-1,1917,1212,0.75318,-1.36536
700,-188,0.144165,0.253296,0,0,0,0,0,0,0,-1,1924,1212,0.144169,-0.253347
707,-188,-0.0220947,0.0380859,0.000252073,-0.00275706,-0.00207902,0.00131383,-0.00381882,-0.472173,0.00307873,0.0104282,1931,1212,-0.0221174,-0.0380745
714,-188,-0.0206299,0.039917,-0.000144431,-0.00223183,-0.00192712,0.00100347,-0.00337973,-0.537219,0.0026517,0.00890647,1938,1212,-0.0206048,-0.0399374
721,-188,-0.0268555,0.0635986,-0.000398105,-0.0016543,-0.00164643,0.000735967,-0.00278837,-0.603173,0.00214671,0.0105085,1945,1212,-0.0268204,-0.0636034
728,-188,-0.0258789,0.0557861,-0.000362113,-0.00127433,-0.00140312,0.000657168,-0.00229361,-0.628251,0.00178883,0.00958718,1952,1212,-0.0258381,-0.0558364
735,-188,-0.0202637,0.0490723,-0.000355839,-0.00057236,-0.000778223,0.000321618,-0.00124982,-0.716285,0.000958574,0.0125895,1959,1212,-0.0202263,-0.0490189
742,-188,-0.0206299,0.0397949,7.34268e-05,0.000184502,-6.83218e-05,0.000217012,4.09174e-05,-1.12667,0.000133148,0.0128599,1966,1212,-0.0205922,-0.0398274
749,-188,-0.0168457,0.0373535,0.000643204,0.00104364,0.000986585,0.00185012,-0.000163275,0.885508,0.00129128,0.0120912,1973,1212,-0.0168186,-0.0373896
756,-188,-0.0186768,0.0284424,0.00146429,0.00202032,0.00170757,0.00347236,1.22461e-05,0.866097,0.00231083,0.0113266,1980,1212,-0.0186227,-0.0284229
763,-188,-0.0258789,0.0462646,0.00260419,0.0030558,0.0026941,0.00553354,0.000126447,0.827208,0.00364761,0.0129832,1987,1212,-0.025833,-0.0462207
770,-188,-0.0405273,0.0654297,0.00412143,0.00457982,0.00387158,0.00822898,0.000472276,0.814963,0.00533554,0.0209774,1994,1212,-0.0405207,-0.065397
777,-188,-0.083374,0.09729,0.00624312,0.00671681,0.00532313,0.0118084,0.00115157,0.80763,0.00751784,0.0423135,2001,1212,-0.0833377,-0.0972973
784,-188,0.102295,0.185669,0.00918146,0.00967436,0.00705151,0.0164837,0.00237209,0.802866,0.01029,0.0444622,2008,1212,0.102244,-0.185616
791,-188,0.537842,0.0151367,0.0131607,0.013736,0.008984,0.022437,0.00445975,0.8014,0.0137152,0.044792,2015,1212,0.53783,-0.0151065
798,-188,0.851929,-0.426025,0.0184246,0.0192734,0.0110106,0.0298678,0.00783021,0.804663,0.0178827,0.0453226,2022,1212,0.851908,0.426086
805,-188,0,0,0,0,0,0,0,0,0,-1,2029,1212,0,0
812,-188,0,0,0,0,0,0,0,0,0,-1,2036,1212,0,0
-700,-195,0,0,0,0,0,0,0,0,0,-1,524,1219,0,0
-693,-195,0,0,0,0,0,0,0,0,0,-1,531,1219,0,0
-686,-195,0,0,0,0,0,0,0,0,0,-1,538,1219,0,0
-679,-195,-0.110596,-0.188965,0.0102395,0.0846063,0.0199362,0.0896136,0.00523221,1.32472,0.058077,0.0452372,545,1219,-0.110605,0.188973
-672,-195,-0.00738525,-0.305786,0.0060774,0.0695558,0.0159311,0.0733297,0.00230357,1.3382,0.048137,0.0460771,552,1219,-0.00739108,0.305751
-665,-195,-0.024292,-0.2146,0.00335575,0.0559773,0.0122625,0.0586945,0.000638496,1.35273,0.0389186,0.0449356,559,1219,-0.0242792,0.21462
-658,-195,-0.216919,-0.139526,0.00160892,0.0440836,0.00905718,0.0459343,-0.000241771,1.36924,0.0307037,0.0436068,566,1219,-0.216937,0.139469
-651,-195,-0.207581,0.142578,0.000548554,0.0339201,0.00636511,0.0350929,-0.000624275,1.38858,0.0236061,0.0434,573,1219,-0.207562,-0.142556
-644,-195,-0.0681763,0.159058,-4.29864e-05,0.0254461,0.00421021,0.0261235,-0.000720413,1.41126,0.0176607,0.039862,580,1219,-0.0682028,-0.159048
-637,-195,-0.053894,0.0881348,-0.000327612,0.0185698,0.00257165,0.0189136,-0.000671324,1.43793,0.0128387,0.0208729,587,1219,-0.0538827,-0.0881654
-630,-195,-0.043335,0.0643311,-0.000453775,0.0129589,0.00128636,0.0130812,-0.00057603,1.47604,0.00891899,0.00769504,594,1219,-0.0433374,-0.0643153
-623,-195,-0.0424805,0.0721436,-0.00062973,0.0082058,0.000324984,0.00821774,-0.000641667,1.53408,0.00570442,0.00741452,601,1219,-0.0425056,-0.0721394
-616,-195,-0.0386353,0.067627,-0.000806903,0.00458725,-6.39888e-05,0.00458801,-0.000807662,-1.55894,0.00336041,0.00872734,608,1219,-0.0386352,-0.0676294
-609,-195,-0.0586548,0.0421143,-0.00101532,0.00198537,-0.000258281,0.00200744,-0.00103739,-1.48556,0.00178742,0.0155227,615,1219,-0.0586484,-0.042127
-602,-195,-0.0495605,0.043335,-0.000870577,0.000494205,-0.000275617,0.000547763,-0.000924136,-1.37887,0.000859012,0.0199514,622,1219,-0.0495801,-0.0433953
-595,-195,-0.0535278,0.069458,-0.00108213,-0.000265448,0.000182534,-0.000226507,-0.00112107,1.36061,0.000684485,0.0135859,629,1219,-0.0535561,-0.0694372
-588,-195,-0.0438843,0.0583496,-0.0015521,-0.00138261,0.000843477,-0.00061963,-0.00231508,0.835465,0.00138388,0.00697622,636,1219,-0.0438915,-0.0583343
-581,-195,-0.0258179,0.0598145,-0.00172487,-0.00201018,0.0012487,-0.000610702,-0.00312435,0.728524,0.00191212,0.00726296,643,1219,-0.0258244,-0.0597935
-574,-195,-0.000732422,0.0560303,-0.00171894,-0.00251724,0.00150249,-0.000563484,-0.00367269,0.655567,0.00228392,0.0175748,650,1219,-0.000713391,-0.0559714
-567,-195,-0.0405884,0.214111,-0.00158523,-0.00299273,0.00170845,-0.000441259,-0.0041367,0.590027,0.00262312,0.0350259,657,1219,-0.0405837,-0.214114
-560,-195,-0.286865,0.490967,-0.00145479,-0.00334205,0.0018918,-0.00028434,-0.0045125,0.554055,0.00291818,0.0417476,664,1219,-0.286889,-0.491007
-553,-195,-0.488281,0.67981,0,0,0,0,0,0,0,-1,671,1219,-0.488256,-0.679806
-546,-195,-0.0430298,0.0474854,-0.000622268,-0.0040303,0.00181166,0.000160837,-0.0048134,0.408003,0.00326387,0.0394499,678,1219,-0.0430269,-0.047476
-539,-195,-0.0437012,0.074707,0.000168577,-0.00414007,0.00151625,0.000648664,-0.00462016,0.306641,0.00331753,0.0328122,685,1219,-0.0437066,-0.0746546
-532,-195,-0.00958252,0.0895996,0.00117805,-0.00393795,0.00100909,0.00136989,-0.00412979,0.187871,0.00330583,0.0333175,692,1219,-0.00956322,-0.0896208
-525,-195,0.0109863,-0.0158691,0.00234944,-0.00326186,0.000246994,0.00236029,-0.00327271,0.0439042,0.0032664,0.0364913,699,1219,0.0110012,0.0158495
-518,-195,-0.0300293,0.0258789,0.00355626,-0.00193749,-0.000814313,0.00367442,-0.00205565,-0.144099,0.00335197,0.0374106,706,1219,-0.0300129,-0.0259145
-511,-195,-0.0462646,0.110352,0.00407864,-0.000292142,-0.00145049,0.0045162,-0.000729698,-0.29298,0.00328119,0.0365557,713,1219,-0.0462564,-0.110395
-504,-195,0,0,0,0,0,0,0,0,0,-1,720,1219,0,0
-497,-195,0,0,0,0,0,0,0,0,0,-1,727,1219,0,0
-490,-195,0,0,0,0,0,0,0,0,0,-1,734,1219,0,0
-483,-195,0,0,0,0,0,0,0,0,0,-1,741,1219,0,0
-476,-195,0,0,0,0,0,0,0,0,0,-1,748,1219,0,0
-469,-195,0,0,0,0,0,0,0,0,0,-1,755,1219,0,0
-462,-195,0,0,0,0,0,0,0,0,0,-1,762,1219,0,0
-455,-195,0,0,0,0,0,0,0,0,0,-1,769,1219,0,0
-448,-195,0,0,0,0,0,0,0,0,0,-1,776,1219,0,0
-441,-195,0,0,0,0,0,0,0,0,0,-1,783,1219,0,0
-434,-195,0,0,0,0,0,0,0,0,0,-1,790,1219,0,0
-427,-195,0,0,0,0,0,0,0,0,0,-1,797,1219,0,0
-420,-195,0,0,0,0,0,0,0,0,0,-1,804,1219,0,0
-413,-195,0,0,0,0,0,0,0,0,0,-1,811,1219,0,0
-406,-195,0,0,0,0,0,0,0,0,0,-1,818,1219,0,0
-399,-195,0,0,0,0,0,0,0,0,0,-1,825,1219,0,0
-392,-195,0,0,0,0,0,0,0,0,0,-1,832,1219,0,0
-385,-195,0,0,0,0,0,0,0,0,0,-1,839,1219,0,0
-378,-195,0,0,0,0,0,0,0,0,0,-1,846,1219,0,0
-371,-195,0,0,0,0,0,0,0,0,0,-1,853,1219,0,0
-364,-195,0,0,0,0,0,0,0,0,0,-1,860,1219,0,0
-357,-195,0,0,0,0,0,0,0,0,0,-1,867,1219,0,0
-350,-195,0,0,0,0,0,0,0,0,0,-1,874,1219,0,0
-343,-195,0,0,0,0,0,0,0,0,0,-1,881,1219,0,0
-336,-195,0,0,0,0,0,0,0,0,0,-1,888,1219,0,0
-329,-195,0,0,0,0,0,0,0,0,0,-1,895,1219,0,0
-322,-195,0,0,0,0,0,0,0,0,0,-1,902,1219,0,0
-315,-195,0,0,0,0,0,0,0,0,0,-1,909,1219,0,0
-308,-195,0,0,0,0,0,0,0,0,0,-1,916,1219,0,0
-301,-195,0,0,0,0,0,0,0,0,0,-1,923,1219,0,0
-294,-195,0,0,0,0,0,0,0,0,0,-1,930,1219,0,0
-287,-195,0,0,0,0,0,0,0,0,0,-1,937,1219,0,0
-280,-195,0,0,0,0,0,0,0,0,0,-1,944,1219,0,0
-273,-195,0,0,0,0,0,0,0,0,0,-1,951,1219,0,0
-266,-195,0,0,0,0,0,0,0,0,0,-1,958,1219,0,0
-259,-195,0,0,0,0,0,0,0,0,0,-1,965,1219,0,0
-252,-195,0,0,0,0,0,0,0,0,0,-1,972,1219,0,0
-245,-195,0,0,0,0,0,0,0,0,0,-1,979,1219,0,0
-238,-195,0,0,0,0,0,0,0,0,0,-1,986,1219,0,0
-231,-195,0,0,0,0,0,0,0,0,0,-1,993,1219,0,0
-224,-195,0,0,0,0,0,0,0,0,0,-1,1000,1219,0,0
-217,-195,0,0,0,0,0,0,0,0,0,-1,1007,1219,0,0
-210,-195,0,0,0,0,0,0,0,0,0,-1,1014,1219,0,0
-203,-195,0,0,0,0,0,0,0,0,0,-1,1021,1219,0,0
-196,-195,0,0,0,0,0,0,0,0,0,-1,1028,1219,0,0
-189,-195,0,0,0,0,0,0,0,0,0,-1,1035,1219,0,0
-182,-195,0,0,0,0,0,0,0,0,0,-1,1042,1219,0,0
-175,-195,0,0,0,0,0,0,0,0,0,-1,1049,1219,0,0
-168,-195,0,0,0,0,0,0,0,0,0,-1,1056,1219,0,0
-161,-195,0,0,0,0,0,0,0,0,0,-1,1063,1219,0,0
-154,-195,0,0,0,0,0,0,0,0,0,-1,1070,1219,0,0
-147,-195,0,0,0,0,0,0,0,0,0,-1,1077,1219,0,0
-140,-195,0,0,0,0,0,0,0,0,0,-1,1084,1219,0,0
-133,-195,0,0,0,0,0,0,0,0,0,-1,1091,1219,0,0
-126,-195,0,0,0,0,0,0,0,0,0,-1,1098,1219,0,0
-119,-195,0,0,0,0,0,0,0,0,0,-1,1105,1219,0,0
-112,-195,0,0,0,0,0,0,0,0,0,-1,1112,1219,0,0
-105,-195,0,0,0,0,0,0,0,0,0,-1,1119,1219,0,0
-98,-195,0,0,0,0,0,0,0,0,0,-1,1126,1219,0,0
-91,-195,0,0,0,0,0,0,0,0,0,-1,1133,1219,0,0
-84,-195,0,0,0,0,0,0,0,0,0,-1,1140,1219,0,0
-77,-195,0,0,0,0,0,0,0,0,0,-1,1147,1219,0,0
-70,-195,0,0,0,0,0,0,0,0,0,-1,1154,1219,0,0
-63,-195,0,0,0,0,0,0,0,0,0,-1,1161,1219,0,0
-56,-195,0,0,0,0,0,0,0,0,0,-1,1168,1219,0,0
-49,-195,0,0,0,0,0,0,0,0,0,-1,1175,1219,0,0
-42,-195,0,0,0,0,0,0,0,0,0,-1,1182,1219,0,0
-35,-195,0,0,0,0,0,0,0,0,0,-1,1189,1219,0,0
-28,-195,0,0,0,0,0,0,0,0,0,-1,1196,1219,0,0
-21,-195,0,0,0,0,0,0,0,0,0,-1,1203,1219,0,0
-14,-195,0,0,0,0,0,0,0,0,0,-1,1210,1219,0,0
-7,-195,0,0,0,0,0,0,0,0,0,-1,1217,1219,0,0
0,-195,0,0,0,0,0,0,0,0,0,-1,1224,1219,0,0
7,-195,0,0,0,0,0,0,0,0,0,-1,1231,1219,0,0
14,-195,0,0,0,0,0,0,0,0,0,-1,1238,1219,0,0
21,-195,0,0,0,0,0,0,0,0,0,-1,1245,1219,0,0
28,-195,0,0,0,0,0,0,0,0,0,-1,1252,1219,0,0
35,-195,0,0,0,0,0,0,0,0,0,-1,1259,1219,0,0
42,-195,0,0,0,0,0,0,0,0,0,-1,1266,1219,0,0
49,-195,0,0,0,0,0,0,0,0,0,-1,1273,1219,0,0
56,-195,0,0,0,0,0,0,0,0,0,-1,1280,1219,0,0
63,-195,0,0,0,0,0,0,0,0,0,-1,1287,1219,0,0
70,-195,0,0,0,0,0,0,0,0,0,-1,1294,1219,0,0
77,-195,0,0,0,0,0,0,0,0,0,-1,1301,1219,0,0
84,-195,0,0,0,0,0,0,0,0,0,-1,1308,1219,0,0
91,-195,0,0,0,0,0,0,0,0,0,-1,1315,1219,0,0
98,-195,0,0,0,0,0,0,0,0,0,-1,1322,1219,0,0
105,-195,0,0,0,0,0,0,0,0,0,-1,1329,1219,0,0
112,-195,0,0,0,0,0,0,0,0,0,-1,1336,1219,0,0
119,-195,0,0,0,0,0,0,0,0,0,-1,1343,1219,0,0
126,-195,0,0,0,0,0,0,0,0,0,-1,1350,1219,0,0
133,-195,0,0,0,0,0,0,0,0,0,-1,1357,1219,0,0
140,-195,0,0,0,0,0,0,0,0,0,-1,1364,1219,0,0
147,-195,0,0,0,0,0,0,0,0,0,-1,1371,1219,0,0
154,-195,0,0,0,0,0,0,0,0,0,-1,1378,1219,0,0
161,-195,0,0,0,0,0,0,0,0,0,-1,1385,1219,0,0
168,-195,0,0,0,0,0,0,0,0,0,-1,1392,1219,0,0
175,-195,0,0,0,0,0,0,0,0,0,-1,1399,1219,0,0
182,-195,0,0,0,0,0,0,0,0,0,-1,1406,1219,0,0
189,-195,0,0,0,0,0,0,0,0,0,-1,1413,1219,0,0
196,-195,0,0,0,0,0,0,0,0,0,-1,1420,1219,0,0
203,-195,0,0,0,0,0,0,0,0,0,-1,1427,1219,0,0
210,-195,0,0,0,0,0,0,0,0,0,-1,1434,1219,0,0
217,-195,0,0,0,0,0,0,0,0,0,-1,1441,1219,0,0
224,-195,0,0,0,0,0,0,0,0,0,-1,1448,1219,0,0
231,-195,0,0,0,0,0,0,0,0,0,-1,1455,1219,0,0
238,-195,0,0,0,0,0,0,0,0,0,-1,1462,1219,0,0
245,-195,0,0,0,0,0,0,0,0,0,-1,1469,1219,0,0
252,-195,0,0,0,0,0,0,0,0,0,-1,1476,1219,0,0
259,-195,0,0,0,0,0,0,0,0,0,-1,1483,1219,0,0
266,-195,0,0,0,0,0,0,0,0,0,-1,1490,1219,0,0
273,-195,0,0,0,0,0,0,0,0,0,-1,1497,1219,0,0
280,-195,0,0,0,0,0,0,0,0,0,-1,1504,1219,0,0
287,-195,0,0,0,0,0,0,0,0,0,-1,1511,1219,0,0
294,-195,0,0,0,0,0,0,0,0,0,-1,1518,1219,0,0
301,-195,0,0,0,0,0,0,0,0,0,-1,1525,1219,0,0
308,-195,0,0,0,0,0,0,0,0,0,-1,1532,1219,0,0
315,-195,0,0,0,0,0,0,0,0,0,-1,1539,1219,0,0
322,-195,0,0,0,0,0,0,0,0,0,-1,1546,1219,0,0
329,-195,0,0,0,0,0,0,0,0,0,-1,1553,1219,0,0
336,-195,0,0,0,0,0,0,0,0,0,-1,1560,1219,0,0
343,-195,0,0,0,0,0,0,0,0,0,-1,1567,1219,0,0
350,-195,0,0,0,0,0,0,0,0,0,-1,1574,1219,0,0
357,-195,0,0,0,0,0,0,0,0,0,-1,1581,1219,0,0
364,-195,0,0,0,0,0,0,0,0,0,-1,1588,1219,0,0
371,-195,0,0,0,0,0,0,0,0,0,-1,1595,1219,0,0
378,-195,0,0,0,0,0,0,0,0,0,-1,1602,1219,0,0
385,-195,0,0,0,0,0,0,0,0,0,-1,1609,1219,0,0
392,-195,0,0,0,0,0,0,0,0,0,-1,1616,1219,0,0
399,-195,0,0,0,0,0,0,0,0,0,-1,1623,1219,0,0
406,-195,0,0,0,0,0,0,0,0,0,-1,1630,1219,0,0
413,-195,0,0,0,0,0,0,0,0,0,-1,1637,1219,0,0
420,-195,0,0,0,0,0,0,0,0,0,-1,1644,1219,0,0
427,-195,0,0,0,0,0,0,0,0,0,-1,1651,1219,0,0
434,-195,0,0,0,0,0,0,0,0,0,-1,1658,1219,0,0
441,-195,0,0,0,0,0,0,0,0,0,-1,1665,1219,0,0
448,-195,0,0,0,0,0,0,0,0,0,-1,1672,1219,0,0
455,-195,0,0,0,0,0,0,0,0,0,-1,1679,1219,0,0
462,-195,0,0,0,0,0,0,0,0,0,-1,1686,1219,0,0
469,-195,0,0,0,0,0,0,0,0,0,-1,1693,1219,0,0
476,-195,0,0,0,0,0,0,0,0,0,-1,1700,1219,0,0
483,-195,0,0,0,0,0,0,0,0,0,-1,1707,1219,0,0
490,-195,0,0,0,0,0,0,0,0,0,-1,1714,1219,0,0
497,-195,0,0,0,0,0,0,0,0,0,-1,1721,1219,0,0
504,-195,0,0,0,0,0,0,0,0,0,-1,1728,1219,0,0
511,-195,0,0,0,0,0,0,0,0,0,-1,1735,1219,0,0
518,-195,0,0,0,0,0,0,0,0,0,-1,1742,1219,0,0
525,-195,0,0,0,0,0,0,0,0,0,-1,1749,1219,0,0
532,-195,0,0,0,0,0,0,0,0,0,-1,1756,1219,0,0
539,-195,0,0,0,0,0,0,0,0,0,-1,1763,1219,0,0
546,-195,0,0,0,0,0,0,0,0,0,-1,1770,1219,0,0
553,-195,0,0,0,0,0,0,0,0,0,-1,1777,1219,0,0
560,-195,0,0,0,0,0,0,0,0,0,-1,1784,1219,0,0
567,-195,0,0,0,0,0,0,0,0,0,-1,1791,1219,0,0
574,-195,0,0,0,0,0,0,0,0,0,-1,1798,1219,0,0
581,-195,0,0,0,0,0,0,0,0,0,-1,1805,1219,0,0
588,-195,0,0,0,0,0,0,0,0,0,-1,1812,1219,0,0
595,-195,0,0,0,0,0,0,0,0,0,-1,1819,1219,0,0
602,-195,0,0,0,0,0,0,0,0,0,-1,1826,1219,0,0
609,-195,0,0,0,0,0,0,0,0,0,-1,1833,1219,0,0
616,-195,0,0,0,0,0,0,0,0,0,-1,1840,1219,0,0
623,-195,0,0,0,0,0,0,0,0,0,-1,1847,1219,0,0
630,-195,-0.0233154,-0.0144043,-0.002388,0.00174534,3.70453e-05,0.00174568,-0.00238833,1.56183,0.00239637,0.0368314,1854,1219,-0.0232838,0.0143525
637,-195,-0.0148926,0.0170898,-0.000775416,0.000791186,-0.000260161,0.00083326,-0.000817491,-1.41046,0.000953076,0.0338862,1861,1219,-0.0149223,-0.017058
644,-195,-0.0316162,0.0772705,-2.39522e-05,-0.000390789,-0.000478617,0.000305188,-0.000719929,-0.602417,0.000607783,0.0314765,1868,1219,-0.0316507,-0.0772194
651,-195,-0.0281982,0.0206299,0.000568637,-0.00164684,-0.00091642,0.000898574,-0.00197678,-0.34558,0.00169854,0.0247222,1875,1219,-0.0282252,-0.0206394
658,-195,-0.0159912,0.00439453,0.000828691,-0.00255872,-0.00134692,0.00129897,-0.003029,-0.335919,0.00256444,0.0205499,1882,1219,-0.0160267,-0.00439145
665,-195,-0.0065918,0.0216064,0.000898055,-0.00317903,-0.00168871,0.00150666,-0.00378764,-0.345907,0.00314981,0.0179308,1889,1219,-0.00663586,-0.0215545
672,-195,-0.0455322,0.0814209,0.000856144,-0.0035282,-0.00192805,0.00158339,-0.00425544,-0.360691,0.00348673,0.027209,1896,1219,-0.0455908,-0.0814462
679,-195,-0.0454102,0.192383,0.000813031,-0.00365877,-0.002071,0.0016248,-0.00447054,-0.373565,0.00364475,0.0435123,1903,1219,-0.0453759,-0.19238
686,-195,-0.997192,-0.19873,0,0,0,0,0,0,0,-1,1910,1219,-0.997244,0.198785
693,-195,-0.570923,-0.106812,0.000501572,-0.00347482,-0.00220281,0.00148075,-0.004454,-0.418281,0.00356689,0.0406082,1917,1219,-0.570893,0.106852
700,-195,-0.0396729,-0.00646973,0.000419669,-0.00318753,-0.00215317,0.00142483,-0.00419268,-0.436759,0.00337195,0.02169,1924,1219,-0.0397103,0.00641429
707,-195,-0.0339355,0.0314941,0.000278304,-0.00275463,-0.00200242,0.00127368,-0.00375001,-0.461315,0.0030156,0.00972824,1931,1219,-0.0339223,-0.0315023
714,-195,-0.0252686,0.0455322,-0.000163867,-0.00220215,-0.00179736,0.000883181,-0.0032492,-0.527489,0.0025128,0.0116266,1938,1219,-0.0252135,-0.0454793
721,-195,-0.0275879,0.0596924,-0.000445342,-0.00159439,-0.00145758,0.000546857,-0.00258659,-0.597666,0.00193264,0.0106249,1945,1219,-0.0275306,-0.0596767
728,-195,-0.0301514,0.0633545,-0.000431935,-0.00128477,-0.00122151,0.000435444,-0.00215215,-0.617466,0.00159979,0.00934171,1952,1219,-0.0301114,-0.0634092
735,-195,-0.0273438,0.0467529,-0.000536255,-0.000689623,-0.000592953,-1.50485e-05,-0.00121083,-0.721093,0.000802251,0.0113424,1959,1219,-0.0274017,-0.0467357
742,-195,-0.0267334,0.0284424,-0.000245659,7.42192e-05,0.000101625,0.000103775,-0.000275214,1.28778,0.000226149,0.0126692,1966,1219,-0.0267819,-0.0284635
749,-195,-0.0230713,0.0253906,0.000131327,0.000769455,0.00111128,0.00160657,-0.000705785,0.925195,0.00136839,0.01206,1973,1219,-0.0230185,-0.0254098
756,-195,-0.019043,0.0372314,0.000720109,0.00164673,0.00185047,0.00309101,-0.000724168,0.908064,0.00233972,0.0114319,1980,1219,-0.0190917,-0.0372817
763,-195,-0.0164795,0.0465088,0.00159721,0.00259786,0.00285651,0.00499753,-0.000802464,0.872095,0.00362887,0.0128859,1987,1219,-0.0164397,-0.0464651
770,-195,-0.0378418,0.0386963,0.00284297,0.00404137,0.00410225,0.00758795,-0.000703613,0.857918,0.00530874,0.0255034,1994,1219,-0.0378206,-0.0387169
777,-195,-0.105835,0.0812988,0.00468418,0.00612121,0.00567248,0.0111205,-0.000315109,0.848396,0.0075209,0.0420979,2001,1219,-0.10588,-0.0812722
784,-195,-0.121826,0.220337,0.00735261,0.00906705,0.00758121,0.0158393,0.000580311,0.841695,0.0103715,0.0417475,2008,1219,-0.121786,-0.220382
791,-195,0.0917969,0.532837,0.0111062,0.0131947,0.00978422,0.0219902,0.00231066,0.838559,0.0139539,0.0433042,2015,1219,0.0917927,-0.532844
798,-195,0.398071,0.304932,0.0162436,0.0189161,0.0122178,0.0298705,0.00528915,0.839865,0.0184057,0.0418814,2022,1219,0.398049,-0.304914
805,-195,0,0,0,0,0,0,0,0,0,-1,2029,1219,0,0
812,-195,0,0,0,0,0,0,0,0,0,-1,2036,1219,0,0
-700,-202,0,0,0,0,0,0,0,0,0,-1,524,1226,0,0
-693,-202,0,0,0,0,0,0,0,0,0,-1,531,1226,0,0
-686,-202,0,0,0,0,0,0,0,0,0,-1,538,1226,0,0
-679,-202,-0.460327,-0.900635,0.0129088,0.0827718,0.0199971,0.0880907,0.00758994,1.31083,0.0563678,0.0468059,545,1226,-0.460303,0.900675
-672,-202,-0.272217,-0.986694,0.00863298,0.0687222,0.0158392,0.0726416,0.00471352,1.32822,0.0469355,0.0462038,552,1226,-0.27224,0.986647
-665,-202,-0.148193,-1.22583,0.00561005,0.055749,0.012099,0.0585159,0.00284313,1.34597,0.0380983,0.0451629,559,1226,-0.148196,1.22581
-658,-202,-0.434875,0.55249,0.00347965,0.0442374,0.00888438,0.0460898,0.00162723,1.36524,0.0301988,0.0429052,566,1226,-0.434895,-0.552431
-651,-202,-0.262695,0.503052,0.00201958,0.0343054,0.00621611,0.0354609,0.000864122,1.38701,0.0233579,0.044711,573,1226,-0.262687,-0.503066
-644,-202,-0.118347,0.24292,0.00105578,0.0259519,0.00409653,0.0266087,0.000399048,1.41183,0.0176076,0.0449243,580,1226,-0.118352,-0.242885
-637,-202,-0.0510254,0.0922852,0.000449738,0.0191121,0.00248948,0.0194385,0.000123361,1.44044,0.0129181,0.0334636,587,1226,-0.0510043,-0.0922667
-630,-202,-0.0165405,0.0471191,7.92811e-05,0.0135299,0.00124292,0.0136438,-3.46084e-05,1.47942,0.00910743,0.0131959,594,1226,-0.0165135,-0.0471017
-623,-202,-0.0223389,0.0532227,-0.000269994,0.00877255,0.000321638,0.00878398,-0.00028142,1.53529,0.00595201,0.00741689,601,1226,-0.0223397,-0.0531874
-616,-202,-0.0354004,0.0461426,-0.000594548,0.00518651,-8.98401e-05,0.0051879,-0.000595944,-1.55526,0.0036734,0.0074489,608,1226,-0.0353881,-0.0461849
-609,-202,-0.0631104,0.0301514,-0.000918768,0.00246247,-0.00031299,0.0024912,-0.000947497,-1.47927,0.00205093,0.0184309,615,1226,-0.0630855,-0.0302093
-602,-202,-0.0592041,0.0350342,-0.000964927,0.000919511,-0.000309871,0.000969158,-0.00101457,-1.41193,0.00114541,0.0204933,622,1226,-0.0591781,-0.0349942
-595,-202,-0.0692139,0.0690918,-0.00127469,0.000111492,0.000138268,0.000125149,-0.00128834,1.47234,0.000903506,0.014928,629,1226,-0.0692328,-0.0690614
-588,-202,-0.0211182,0.0563965,-0.00173895,-0.00103234,0.000811399,-0.000500662,-0.00227063,0.990734,0.00137753,0.00740388,636,1226,-0.0211102,-0.056389
-581,-202,-0.0222778,0.048584,-0.00195339,-0.00161326,0.00126885,-0.000503124,-0.00306352,0.852017,0.00189701,0.00851642,643,1226,-0.0222658,-0.0486319
-574,-202,-0.012085,0.0407715,-0.00198617,-0.00211903,0.00157977,-0.000471433,-0.00363377,0.764384,0.00228166,0.0114603,650,1226,-0.0120798,-0.0408216
-567,-202,0.0101929,0.0374756,-0.00181699,-0.00260632,0.00179442,-0.000374351,-0.00404896,0.677151,0.00258358,0.0285957,657,1226,0.0101647,-0.0374404
-560,-202,-0.222961,-0.261841,-0.0016987,-0.00294388,0.00198715,-0.000238887,-0.00440369,0.633589,0.00285949,0.0400306,664,1226,-0.222966,0.261882
-553,-202,-0.387817,-0.551147,0,0,0,0,0,0,0,-1,671,1226,-0.387812,0.551165
-546,-202,0.0284424,-0.0334473,-0.000861475,-0.00380686,0.00190605,7.4533e-05,-0.00474287,0.45648,0.00318705,0.0426702,678,1226,0.0284367,0.0334915
-539,-202,-0.0377808,0.0505371,-2.41631e-05,-0.00407569,0.0015821,0.000520433,-0.00462029,0.33152,0.00326752,0.0343329,685,1226,-0.0377686,-0.0504861
-532,-202,-0.0488281,0.0491943,0.00105721,-0.00409576,0.00101809,0.00125106,-0.00428962,0.188158,0.00335543,0.0252369,692,1226,-0.0488333,-0.0491602
-525,-202,-0.0465088,0.0155029,0.00230762,-0.00372083,0.000181252,0.00231306,-0.00372627,0.0300299,0.00351849,0.0319418,699,1226,-0.0465292,-0.0155639
-518,-202,-0.0602417,-0.0184326,0.00359286,-0.00279512,-0.000966904,0.003736,-0.00293827,-0.146978,0.00386256,0.0375742,706,1226,-0.0602623,0.0183846
-511,-202,-0.0350952,0.0144043,0.00431506,-0.00140156,-0.00196165,0.00492345,-0.00200995,-0.300735,0.00411912,0.0383543,713,1226,-0.0350739,-0.0143521
-504,-202,0,0,0,0,0,0,0,0,0,-1,720,1226,0,0
-497,-202,0,0,0,0,0,0,0,0,0,-1,727,1226,0,0
-490,-202,0,0,0,0,0,0,0,0,0,-1,734,1226,0,0
-483,-202,0,0,0,0,0,0,0,0,0,-1,741,1226,0,0
-476,-202,0,0,0,0,0,0,0,0,0,-1,748,1226,0,0
-469,-202,0,0,0,0,0,0,0,0,0,-1,755,1226,0,0
-462,-202,0,0,0,0,0,0,0,0,0,-1,762,1226,0,0
-455,-202,0,0,0,0,0,0,0,0,0,-1,769,1226,0,0
-448,-202,0,0,0,0,0,0,0,0,0,-1,776,1226,0,0
-441,-202,0,0,0,0,0,0,0,0,0,-1,783,1226,0,0
-434,-202,0,0,0,0,0,0,0,0,0,-1,790,1226,0,0
-427,-202,0,0,0,0,0,0,0,0,0,-1,797,1226,0,0
-420,-202,0,0,0,0,0,0,0,0,0,-1,804,1226,0,0
-413,-202,0,0,0,0,0,0,0,0,0,-1,811,1226,0,0
-406,-202,0,0,0,0,0,0,0,0,0,-1,818,1226,0,0
-399,-202,0,0,0,0,0,0,0,0,0,-1,825,1226,0,0
-392,-202,0,0,0,0,0,0,0,0,0,-1,832,1226,0,0
-385,-202,0,0,0,0,0,0,0,0,0,-1,839,1226,0,0
-378,-202,0,0,0,0,0,0,0,0,0,-1,846,1226,0,0
-371,-202,0,0,0,0,0,0,0,0,0,-1,853,1226,0,0
-364,-202,0,0,0,0,0,0,0,0,0,-1,860,1226,0,0
-357,-202,0,0,0,0,0,0,0,0,0,-1,867,1226,0,0
-350,-202,0,0,0,0,0,0,0,0,0,-1,874,1226,0,0
-343,-202,0,0,0,0,0,0,0,0,0,-1,881,1226,0,0
-336,-202,0,0,0,0,0,0,0,0,0,-1,888,1226,0,0
-329,-202,0,0,0,0,0,0,0,0,0,-1,895,1226,0,0
-322,-202,0,0,0,0,0,0,0,0,0,-1,902,1226,0,0
-315,-202,0,0,0,0,0,0,0,0,0,-1,909,1226,0,0
-308,-202,0,0,0,0,0,0,0,0,0,-1,916,1226,0,0
-301,-202,0,0,0,0,0,0,0,0,0,-1,923,1226,0,0
-294,-202,0,0,0,0,0,0,0,0,0,-1,930,1226,0,0
-287,-202,0,0,0,0,0,0,0,0,0,-1,937,1226,0,0
-280,-202,0,0,0,0,0,0,0,0,0,-1,944,1226,0,0
-273,-202,0,0,0,0,0,0,0,0,0,-1,951,1226,0,0
-266,-202,0,0,0,0,0,0,0,0,0,-1,958,1226,0,0
-259,-202,0,0,0,0,0,0,0,0,0,-1,965,1226,0,0
-252,-202,0,0,0,0,0,0,0,0,0,-1,972,1226,0,0
-245,-202,0,0,0,0,0,0,0,0,0,-1,979,1226,0,0
-238,-202,0,0,0,0,0,0,0,0,0,-1,986,1226,0,0
-231,-202,0,0,0,0,0,0,0,0,0,-1,993,1226,0,0
-224,-202,0,0,0,0,0,0,0,0,0,-1,1000,1226,0,0
-217,-202,0,0,0,0,0,0,0,0,0,-1,1007,1226,0,0
-210,-202,0,0,0,0,0,0,0,0,0,-1,1014,1226,0,0
-203,-202,0,0,0,0,0,0,0,0,0,-1,1021,1226,0,0
-196,-202,0,0,0,0,0,0,0,0,0,-1,1028,1226,0,0
-189,-202,0,0,0,0,0,0,0,0,0,-1,1035,1226,0,0
-182,-202,0,0,0,0,0,0,0,0,0,-1,1042,1226,0,0
-175,-202,0,0,0,0,0,0,0,0,0,-1,1049,1226,0,0
-168,-202,0,0,0,0,0,0,0,0,0,-1,1056,1226,0,0
-161,-202,0,0,0,0,0,0,0,0,0,-1,1063,1226,0,0
-154,-202,0,0,0,0,0,0,0,0,0,-1,1070,1226,0,0
-147,-202,0,0,0,0,0,0,0,0,0,-1,1077,1226,0,0
-140,-202,0,0,0,0,0,0,0,0,0,-1,1084,1226,0,0
-133,-202,0,0,0,0,0,0,0,0,0,-1,1091,1226,0,0
-126,-202,0,0,0,0,0,0,0,0,0,-1,1098,1226,0,0
-119,-202,0,0,0,0,0,0,0,0,0,-1,1105,1226,0,0
-112,-202,0,0,0,0,0,0,0,0,0,-1,1112,1226,0,0
-105,-202,0,0,0,0,0,0,0,0,0,-1,1119,1226,0,0
-98,-202,0,0,0,0,0,0,0,0,0,-1,1126,1226,0,0
-91,-202,0,0,0,0,0,0,0,0,0,-1,1133,1226,0,0
-84,-202,0,0,0,0,0,0,0,0,0,-1,1140,1226,0,0
-77,-202,0,0,0,0,0,0,0,0,0,-1,1147,1226,0,0
-70,-202,0,0,0,0,0,0,0,0,0,-1,1154,1226,0,0
-63,-202,0,0,0,0,0,0,0,0,0,-1,1161,1226,0,0
-56,-202,0,0,0,0,0,0,0,0,0,-1,1168,1226,0,0
-49,-202,0,0,0,0,0,0,0,0,0,-1,1175,1226,0,0
-42,-202,0,0,0,0,0,0,0,0,0,-1,1182,1226,0,0
-35,-202,0,0,0,0,0,0,0,0,0,-1,1189,1226,0,0
-28,-202,0,0,0,0,0,0,0,0,0,-1,1196,1226,0,0
-21,-202,0,0,0,0,0,0,0,0,0,-1,1203,1226,0,0
-14,-202,0,0,0,0,0,0,0,0,0,-1,1210,1226,0,0
-7,-202,0,0,0,0,0,0,0,0,0,-1,1217,1226,0,0
0,-202,0,0,0,0,0,0,0,0,0,-1,1224,1226,0,0
7,-202,0,0,0,0,0,0,0,0,0,-1,1231,1226,0,0
14,-202,0,0,0,0,0,0,0,0,0,-1,1238,1226,0,0
21,-202,0,0,0,0,0,0,0,0,0,-1,1245,1226,0,0
28,-202,0,0,0,0,0,0,0,0,0,-1,1252,1226,0,0
35,-202,0,0,0,0,0,0,0,0,0,-1,1259,1226,0,0
42,-202,0,0,0,0,0,0,0,0,0,-1,1266,1226,0,0
49,-202,0,0,0,0,0,0,0,0,0,-1,1273,1226,0,0
56,-202,0,0,0,0,0,0,0,0,0,-1,1280,1226,0,0
63,-202,0,0,0,0,0,0,0,0,0,-1,1287,1226,0,0
70,-202,0,0,0,0,0,0,0,0,0,-1,1294,1226,0,0
77,-202,0,0,0,0,0,0,0,0,0,-1,1301,1226,0,0
84,-202,0,0,0,0,0,0,0,0,0,-1,1308,1226,0,0
91,-202,0,0,0,0,0,0,0,0,0,-1,1315,1226,0,0
98,-202,0,0,0,0,0,0,0,0,0,-1,1322,1226,0,0
105,-202,0,0,0,0,0,0,0,0,0,-1,1329,1226,0,0
112,-202,0,0,0,0,0,0,0,0,0,-1,1336,1226,0,0
119,-202,0,0,0,0,0,0,0,0,0,-1,1343,1226,0,0
126,-202,0,0,0,0,0,0,0,0,0,-1,1350,1226,0,0
133,-202,0,0,0,0,0,0,0,0,0,-1,1357,1226,0,0
140,-202,0,0,0,0,0,0,0,0,0,-1,1364,1226,0,0
147,-202,0,0,0,0,0,0,0,0,0,-1,1371,1226,0,0
154,-202,0,0,0,0,0,0,0,0,0,-1,1378,1226,0,0
161,-202,0,0,0,0,0,0,0,0,0,-1,1385,1226,0,0
168,-202,0,0,0,0,0,0,0,0,0,-1,1392,1226,0,0
175,-202,0,0,0,0,0,0,0,0,0,-1,1399,1226,0,0
182,-202,0,0,0,0,0,0,0,0,0,-1,1406,1226,0,0
189,-202,0,0,0,0,0,0,0,0,0,-1,1413,1226,0,0
196,-202,0,0,0,0,0,0,0,0,0,-1,1420,1226,0,0
203,-202,0,0,0,0,0,0,0,0,0,-1,1427,1226,0,0
210,-202,0,0,0,0,0,0,0,0,0,-1,1434,1226,0,0
217,-202,0,0,0,0,0,0,0,0,0,-1,1441,1226,0,0
224,-202,0,0,0,0,0,0,0,0,0,-1,1448,1226,0,0
231,-202,0,0,0,0,0,0,0,0,0,-1,1455,1226,0,0
238,-202,0,0,0,0,0,0,0,0,0,-1,1462,1226,0,0
245,-202,0,0,0,0,0,0,0,0,0,-1,1469,1226,0,0
252,-202,0,0,0,0,0,0,0,0,0,-1,1476,1226,0,0
259,-202,0,0,0,0,0,0,0,0,0,-1,1483,1226,0,0
266,-202,0,0,0,0,0,0,0,0,0,-1,1490,1226,0,0
273,-202,0,0,0,0,0,0,0,0,0,-1,1497,1226,0,0
280,-202,0,0,0,0,0,0,0,0,0,-1,1504,1226,0,0
287,-202,0,0,0,0,0,0,0,0,0,-1,1511,1226,0,0
294,-202,0,0,0,0,0,0,0,0,0,-1,1518,1226,0,0
301,-202,0,0,0,0,0,0,0,0,0,-1,1525,1226,0,0
308,-202,0,0,0,0,0,0,0,0,0,-1,1532,1226,0,0
315,-202,0,0,0,0,0,0,0,0,0,-1,1539,1226,0,0
322,-202,0,0,0,0,0,0,0,0,0,-1,1546,1226,0,0
329,-202,0,0,0,0,0,0,0,0,0,-1,1553,1226,0,0
336,-202,0,0,0,0,0,0,0,0,0,-1,1560,1226,0,0
343,-202,0,0,0,0,0,0,0,0,0,-1,1567,1226,0,0
350,-202,0,0,0,0,0,0,0,0,0,-1,1574,1226,0,0
357,-202,0,0,0,0,0,0,0,0,0,-1,1581,1226,0,0
364,-202,0,0,0,0,0,0,0,0,0,-1,1588,1226,0,0
371,-202,0,0,0,0,0,0,0,0,0,-1,1595,1226,0,0
378,-202,0,0,0,0,0,0,0,0,0,-1,1602,1226,0,0
385,-202,0,0,0,0,0,0,0,0,0,-1,1609,1226,0,0
392,-202,0,0,0,0,0,0,0,0,0,-1,1616,1226,0,0
399,-202,0,0,0,0,0,0,0,0,0,-1,1623,1226,0,0
406,-202,0,0,0,0,0,0,0,0,0,-1,1630,1226,0,0
413,-202,0,0,0,0,0,0,0,0,0,-1,1637,1226,0,0
420,-202,0,0,0,0,0,0,0,0,0,-1,1644,1226,0,0
427,-202,0,0,0,0,0,0,0,0,0,-1,1651,1226,0,0
434,-202,0,0,0,0,0,0,0,0,0,-1,1658,1226,0,0
441,-202,0,0,0,0,0,0,0,0,0,-1,1665,1226,0,0
448,-202,0,0,0,0,0,0,0,0,0,-1,1672,1226,0,0
455,-202,0,0,0,0,0,0,0,0,0,-1,1679,1226,0,0
462,-202,0,0,0,0,0,0,0,0,0,-1,1686,1226,0,0
469,-202,0,0,0,0,0,0,0,0,0,-1,1693,1226,0,0
476,-202,0,0,0,0,0,0,0,0,0,-1,1700,1226,0,0
483,-202,0,0,0,0,0,0,0,0,0,-1,1707,1226,0,0
490,-202,0,0,0,0,0,0,0,0,0,-1,1714,1226,0,0
497,-202,0,0,0,0,0,0,0,0,0,-1,1721,1226,0,0
504,-202,0,0,0,0,0,0,0,0,0,-1,1728,1226,0,0
511,-202,0,0,0,0,0,0,0,0,0,-1,1735,1226,0,0
518,-202,0,0,0,0,0,0,0,0,0,-1,1742,1226,0,0
525,-202,0,0,0,0,0,0,0,0,0,-1,1749,1226,0,0
532,-202,0,0,0,0,0,0,0,0,0,-1,1756,1226,0,0
539,-202,0,0,0,0,0,0,0,0,0,-1,1763,1226,0,0
546,-202,0,0,0,0,0,0,0,0,0,-1,1770,1226,0,0
553,-202,0,0,0,0,0,0,0,0,0,-1,1777,1226,0,0
560,-202,0,0,0,0,0,0,0,0,0,-1,1784,1226,0,0
567,-202,0,0,0,0,0,0,0,0,0,-1,1791,1226,0,0
574,-202,0,0,0,0,0,0,0,0,0,-1,1798,1226,0,0
581,-202,0,0,0,0,0,0,0,0,0,-1,1805,1226,0,0
588,-202,0,0,0,0,0,0,0,0,0,-1,1812,1226,0,0
595,-202,0,0,0,0,0,0,0,0,0,-1,1819,1226,0,0
602,-202,0,0,0,0,0,0,0,0,0,-1,1826,1226,0,0
609,-202,0,0,0,0,0,0,0,0,0,-1,1833,1226,0,0
616,-202,0,0,0,0,0,0,0,0,0,-1,1840,1226,0,0
623,-202,0,0,0,0,0,0,0,0,0,-1,1847,1226,0,0
630,-202,-0.0429688,-0.00805664,-0.0019251,0.00154337,-5.95094e-05,0.00154439,-0.00192612,-1.55365,0.00200774,0.0335565,1854,1226,-0.0429724,0.00802862
637,-202,0.0178223,-0.00244141,-0.000362222,0.000433901,-0.000448083,0.000635199,-0.000563519,-1.14857,0.000692493,0.0326208,1861,1226,0.0178474,0.00241147
644,-202,-0.00683594,0.0325928,0.000331142,-0.000877111,-0.000812284,0.000739327,-0.0012853,-0.465657,0.001183,0.0318496,1868,1226,-0.00679773,-0.0326439
651,-202,-0.0123291,0.0234375,0.000792237,-0.00207717,-0.00127774,0.00127873,-0.00256366,-0.363797,0.00225938,0.0252439,1875,1226,-0.0123696,-0.0234149
658,-202,-0.0267334,0.0306396,0.000936307,-0.00291142,-0.00168063,0.001567,-0.00354212,-0.35901,0.00302233,0.0190285,1882,1226,-0.0266789,-0.0306728
665,-202,-0.0045166,0.0352783,0.000928566,-0.00345699,-0.00197068,0.00168398,-0.00421241,-0.366052,0.00350706,0.0168745,1889,1226,-0.00449642,-0.0353339
672,-202,0.0078125,0.0313721,0.000833698,-0.003736,-0.00215379,0.00168881,-0.00459111,-0.377939,0.00375256,0.0362746,1896,1226,0.00784926,-0.0313417
679,-202,0.010498,0.0249023,0,0,0,0,0,0,0,-1,1903,1226,0.0104421,-0.0248542
686,-202,-0.514038,0.039917,0,0,0,0,0,0,0,-1,1910,1226,-0.514031,-0.0398732
693,-202,-0.281982,0.0406494,0.000436786,-0.00351259,-0.00224006,0.00144828,-0.00452409,-0.424139,0.00359734,0.0401122,1917,1226,-0.282003,-0.0406302
700,-202,-0.032959,0.0322266,0.00033841,-0.00317618,-0.00214336,0.00135277,-0.00419055,-0.442026,0.0033373,0.0146574,1924,1226,-0.0329734,-0.0321931
707,-202,-0.0447998,0.0500488,0.000185814,-0.00269175,-0.0019333,0.00115696,-0.00366289,-0.465505,0.00290541,0.0125581,1931,1226,-0.0447945,-0.0500975
714,-202,-0.0274658,0.0551758,-0.000290703,-0.00211684,-0.00165901,0.000689907,-0.00309745,-0.533835,0.00232925,0.0120617,1938,1226,-0.0274384,-0.0552205
721,-202,-0.0181885,0.0594482,-0.000595281,-0.0014706,-0.00123877,0.000280872,-0.00234676,-0.615591,0.00166604,0.0107053,1945,1226,-0.0182056,-0.0595009
728,-202,-0.0217285,0.0605469,-0.000621188,-0.00126017,-0.000981342,9.13605e-05,-0.00197272,-0.628026,0.00134663,0.00949145,1952,1226,-0.0217551,-0.060517
735,-202,-0.0098877,0.0395508,-0.000861421,-0.000793202,-0.000317789,-0.000507697,-0.00114693,-0.838861,0.000663627,0.00964701,1959,1226,-0.00993862,-0.039594
742,-202,-0.00964355,0.0332031,-0.00075072,-5.60297e-05,0.000399348,0.000125896,-0.000932646,1.14333,0.000667697,0.00926274,1966,1226,-0.0095944,-0.0331892
749,-202,-0.0213623,0.0457764,-0.000620613,0.00043875,0.00138445,0.00139139,-0.00157325,0.968103,0.00171271,0.00828294,1973,1226,-0.0213757,-0.0458336
756,-202,-0.0147705,0.0427246,-0.000328569,0.00115382,0.00218693,0.00272174,-0.00189649,0.948783,0.00268049,0.00861835,1980,1226,-0.0147404,-0.0427285
763,-202,-0.0148926,0.0461426,0.000210817,0.00195681,0.00326628,0.00446475,-0.00229712,0.915984,0.00397027,0.0130664,1987,1226,-0.0149518,-0.0461418
770,-202,-0.0546875,0.0134277,0.00110257,0.00324082,0.00464208,0.0069353,-0.00259191,0.89858,0.00568788,0.0351889,1994,1226,-0.0547191,-0.0134071
777,-202,0.0369873,-0.200317,0.00257169,0.00516412,0.00640496,0.0104027,-0.00266691,0.885238,0.00797418,0.0425512,2001,1226,0.0369938,0.200259
784,-202,-0.109863,-0.27832,0.00487199,0.00797553,0.00858655,0.0151494,-0.00230188,0.874794,0.0109479,0.0423244,2008,1226,-0.109872,0.278338
791,-202,-0.336792,-0.363647,0,0,0,0,0,0,0,-1,2015,1226,-0.336755,0.36359
798,-202,0.0458984,0.562866,0,0,0,0,0,0,0,-1,2022,1226,0.0459245,-0.562813
805,-202,0,0,0,0,0,0,0,0,0,-1,2029,1226,0,0
812,-202,0,0,0,0,0,0,0,0,0,-1,2036,1226,0,0
-700,-209,0,0,0,0,0,0,0,0,0,-1,524,1233,0,0
-693,-209,0,0,0,0,0,0,0,0,0,-1,531,1233,0,0
-686,-209,0,0,0,0,0,0,0,0,0,-1,538,1233,0,0
-679,-209,-0.755432,-1.40088,0,0,0,0,0,0,0,-1,545,1233,-0.755459,1.40094
-672,-209,-0.551392,-1.61328,0,0,0,0,0,0,0,-1,552,1233,-0.551386,1.6133
-665,-209,-0.43335,-1.85974,0,0,0,0,0,0,0,-1,559,1233,-0.433336,1.85969
-658,-209,-0.423035,1.05762,0.00433432,0.0427802,0.00958812,0.0450388,0.00207579,1.33946,0.0293584,0.0435072,566,1233,-0.423009,-1.0576
-651,-209,-0.078186,-0.272217,0.00272542,0.0334257,0.00681693,0.0348714,0.00127981,1.36183,0.0228329,0.041531,573,1233,-0.0782034,0.272181
-644,-209,0.378052,0.0269775,0.001591,0.0254939,0.0045996,0.0263484,0.000736451,1.3871,0.0173253,0.0448327,580,1233,0.378063,-0.026961
-637,-209,0.184631,-0.346313,0.000821156,0.0189398,0.00289415,0.0193909,0.000370095,1.41619,0.0128057,0.0412148,587,1233,0.184641,0.346336
-630,-209,-0.00292969,-0.00549316,0.00031968,0.0135743,0.00157116,0.013758,0.000135987,1.45441,0.00912702,0.0210986,594,1233,-0.00290875,0.00545768
-623,-209,-0.00793457,0.0437012,-0.000110315,0.00898197,0.000591825,0.00902033,-0.000148676,1.50607,0.00606372,0.0102541,601,1233,-0.00790856,-0.0436776
-616,-209,-0.0239868,0.0546875,-0.000480616,0.00556561,6.89103e-05,0.00556639,-0.000481401,1.5594,0.00388136,0.0104516,608,1233,-0.0239822,-0.0546619
-609,-209,-0.0426025,0.0397949,-0.000849051,0.00283075,-0.000262717,0.00284941,-0.000867712,-1.49988,0.00224545,0.0126864,615,1233,-0.0425954,-0.0397972
-602,-209,-0.0472412,0.0285645,-0.00105708,0.00128722,-0.000295876,0.00132398,-0.00109385,-1.44717,0.00139804,0.0154258,622,1233,-0.0472319,-0.0286101
-595,-209,-0.0375366,0.0234375,-0.00143935,0.000468786,7.21072e-05,0.000471507,-0.00144207,1.53308,0.0011512,0.0118677,629,1233,-0.0375149,-0.0234273
-588,-209,-0.0258789,0.0332031,-0.00187224,-0.000675527,0.000708673,-0.000346387,-0.00220138,1.13599,0.00136683,0.0126467,636,1233,-0.0258923,-0.0331878
-581,-209,-0.0150757,0.0534668,-0.00211287,-0.00121649,0.0012096,-0.000374715,-0.00295464,0.962819,0.0018575,0.0110303,643,1233,-0.0150533,-0.053427
-574,-209,-0.0147705,0.0369873,-0.0021633,-0.0017327,0.00157187,-0.000361455,-0.00353455,0.853461,0.0022456,0.0100671,650,1233,-0.0147522,-0.0369438
-567,-209,-0.00335693,0.0192871,-0.00195789,-0.00225978,0.00180233,-0.000300194,-0.00391748,0.743621,0.00251756,0.0207947,657,1233,-0.00334037,-0.0192658
-560,-209,0.0233765,-0.00390625,-0.00185242,-0.00262798,0.00200591,-0.000197151,-0.00428326,0.689917,0.00279211,0.03987,664,1233,0.0233727,0.00392949
-553,-209,-0.0609131,0.249634,-0.00160096,-0.00318193,0.0020876,-0.000159196,-0.00462369,0.604411,0.00303079,0.0454522,671,1233,-0.0608996,-0.24966
-546,-209,-0.164795,0.235718,-0.000963076,-0.00380217,0.00190566,-6.35465e-06,-0.00475889,0.46528,0.00317048,0.0418422,678,1233,-0.164817,-0.235682
-539,-209,-0.204102,0.251221,-4.11214e-05,-0.00428983,0.00152092,0.000447202,-0.00477815,0.310674,0.00334448,0.036457,685,1233,-0.204125,-0.251239
-532,-209,-0.0465088,0.0799561,0.00114677,-0.00461589,0.000884119,0.00127936,-0.00474849,0.148862,0.00366727,0.026181,692,1233,-0.046515,-0.0799874
-525,-209,-0.00854492,0.0240479,0.0025359,-0.00463317,-5.65059e-05,0.00253634,-0.00463362,-0.00788124,0.00419819,0.0296078,699,1233,-0.00853708,-0.0240702
-518,-209,-0.0129395,0.00219727,0.00400042,-0.00419243,-0.00134227,0.00421473,-0.00440673,-0.158322,0.00497801,0.0384496,706,1233,-0.0129332,-0.00223317
-511,-209,-0.03479,0.0250244,0.00508454,-0.00321679,-0.00271213,0.00589206,-0.00402432,-0.289388,0.00575898,0.0388974,713,1233,-0.0347791,-0.025079
-504,-209,0,0,0,0,0,0,0,0,0,-1,720,1233,0,0
-497,-209,0,0,0,0,0,0,0,0,0,-1,727,1233,0,0
-490,-209,0,0,0,0,0,0,0,0,0,-1,734,1233,0,0
-483,-209,0,0,0,0,0,0,0,0,0,-1,741,1233,0,0
-476,-209,0,0,0,0,0,0,0,0,0,-1,748,1233,0,0
-469,-209,0,0,0,0,0,0,0,0,0,-1,755,1233,0,0
-462,-209,0,0,0,0,0,0,0,0,0,-1,762,1233,0,0
-455,-209,0,0,0,0,0,0,0,0,0,-1,769,1233,0,0
-448,-209,0,0,0,0,0,0,0,0,0,-1,776,1233,0,0
-441,-209,0,0,0,0,0,0,0,0,0,-1,783,1233,0,0
-434,-209,0,0,0,0,0,0,0,0,0,-1,790,1233,0,0
-427,-209,0,0,0,0,0,0,0,0,0,-1,797,1233,0,0
-420,-209,0,0,0,0,0,0,0,0,0,-1,804,1233,0,0
-413,-209,0,0,0,0,0,0,0,0,0,-1,811,1233,0,0
-406,-209,0,0,0,0,0,0,0,0,0,-1,818,1233,0,0
-399,-209,0,0,0,0,0,0,0,0,0,-1,825,1233,0,0
-392,-209,0,0,0,0,0,0,0,0,0,-1,832,1233,0,0
-385,-209,0,0,0,0,0,0,0,0,0,-1,839,1233,0,0
-378,-209,0,0,0,0,0,0,0,0,0,-1,846,1233,0,0
-371,-209,0,0,0,0,0,0,0,0,0,-1,853,1233,0,0
-364,-209,0,0,0,0,0,0,0,0,0,-1,860,1233,0,0
-357,-209,0,0,0,0,0,0,0,0,0,-1,867,1233,0,0
-350,-209,0,0,0,0,0,0,0,0,0,-1,874,1233,0,0
-343,-209,0,0,0,0,0,0,0,0,0,-1,881,1233,0,0
-336,-209,0,0,0,0,0,0,0,0,0,-1,888,1233,0,0
-329,-209,0,0,0,0,0,0,0,0,0,-1,895,1233,0,0
-322,-209,0,0,0,0,0,0,0,0,0,-1,902,1233,0,0
-315,-209,0,0,0,0,0,0,0,0,0,-1,909,1233,0,0
-308,-209,0,0,0,0,0,0,0,0,0,-1,916,1233,0,0
-301,-209,0,0,0,0,0,0,0,0,0,-1,923,1233,0,0
-294,-209,0,0,0,0,0,0,0,0,0,-1,930,1233,0,0
-287,-209,0,0,0,0,0,0,0,0,0,-1,937,1233,0,0
-280,-209,0,0,0,0,0,0,0,0,0,-1,944,1233,0,0
-273,-209,0,0,0,0,0,0,0,0,0,-1,951,1233,0,0
-266,-209,0,0,0,0,0,0,0,0,0,-1,958,1233,0,0
-259,-209,0,0,0,0,0,0,0,0,0,-1,965,1233,0,0
-252,-209,0,0,0,0,0,0,0,0,0,-1,972,1233,0,0
-245,-209,0,0,0,0,0,0,0,0,0,-1,979,1233,0,0
-238,-209,0,0,0,0,0,0,0,0,0,-1,986,1233,0,0
-231,-209,0,0,0,0,0,0,0,0,0,-1,993,1233,0,0
-224,-209,0,0,0,0,0,0,0,0,0,-1,1000,1233,0,0
-217,-209,0,0,0,0,0,0,0,0,0,-1,1007,1233,0,0
-210,-209,0,0,0,0,0,0,0,0,0,-1,1014,1233,0,0
-203,-209,0,0,0,0,0,0,0,0,0,-1,1021,1233,0,0
-196,-209,0,0,0,0,0,0,0,0,0,-1,1028,1233,0,0
-189,-209,0,0,0,0,0,0,0,0,0,-1,1035,1233,0,0
-182,-209,0,0,0,0,0,0,0,0,0,-1,1042,1233,0,0
-175,-209,0,0,0,0,0,0,0,0,0,-1,1049,1233,0,0
-168,-209,0,0,0,0,0,0,0,0,0,-1,1056,1233,0,0
-161,-209,0,0,0,0,0,0,0,0,0,-1,1063,1233,0,0
-154,-209,0,0,0,0,0,0,0,0,0,-1,1070,1233,0,0
-147,-209,0,0,0,0,0,0,0,0,0,-1,1077,1233,0,0
-140,-209,0,0,0,0,0,0,0,0,0,-1,1084,1233,0,0
-133,-209,0,0,0,0,0,0,0,0,0,-1,1091,1233,0,0
-126,-209,0,0,0,0,0,0,0,0,0,-1,1098,1233,0,0
-119,-209,0,0,0,0,0,0,0,0,0,-1,1105,1233,0,0
-112,-209,0,0,0,0,0,0,0,0,0,-1,1112,1233,0,0
-105,-209,0,0,0,0,0,0,0,0,0,-1,1119,1233,0,0
-98,-209,0,0,0,0,0,0,0,0,0,-1,1126,1233,0,0
-91,-209,0,0,0,0,0,0,0,0,0,-1,1133,1233,0,0
-84,-209,0,0,0,0,0,0,0,0,0,-1,1140,1233,0,0
-77,-209,0,0,0,0,0,0,0,0,0,-1,1147,1233,0,0
-70,-209,0,0,0,0,0,0,0,0,0,-1,1154,1233,0,0
-63,-209,0,0,0,0,0,0,0,0,0,-1,1161,1233,0,0
-56,-209,0,0,0,0,0,0,0,0,0,-1,1168,1233,0,0
-49,-209,0,0,0,0,0,0,0,0,0,-1,1175,1233,0,0
-42,-209,0,0,0,0,0,0,0,0,0,-1,1182,1233,0,0
-35,-209,0,0,0,0,0,0,0,0,0,-1,1189,1233,0,0
-28,-209,0,0,0,0,0,0,0,0,0,-1,1196,1233,0,0
-21,-209,0,0,0,0,0,0,0,0,0,-1,1203,1233,0,0
-14,-209,0,0,0,0,0,0,0,0,0,-1,1210,1233,0,0
-7,-209,0,0,0,0,0,0,0,0,0,-1,1217,1233,0,0
0,-209,0,0,0,0,0,0,0,0,0,-1,1224,1233,0,0
7,-209,0,0,0,0,0,0,0,0,0,-1,1231,1233,0,0
14,-209,0,0,0,0,0,0,0,0,0,-1,1238,1233,0,0
21,-209,0,0,0,0,0,0,0,0,0,-1,1245,1233,0,0
28,-209,0,0,0,0,0,0,0,0,0,-1,1252,1233,0,0
35,-209,0,0,0,0,0,0,0,0,0,-1,1259,1233,0,0
42,-209,0,0,0,0,0,0,0,0,0,-1,1266,1233,0,0
49,-209,0,0,0,0,0,0,0,0,0,-1,1273,1233,0,0
56,-209,0,0,0,0,0,0,0,0,0,-1,1280,1233,0,0
63,-209,0,0,0,0,0,0,0,0,0,-1,1287,1233,0,0
70,-209,0,0,0,0,0,0,0,0,0,-1,1294,1233,0,0
77,-209,0,0,0,0,0,0,0,0,0,-1,1301,1233,0,0
84,-209,0,0,0,0,0,0,0,0,0,-1,1308,1233,0,0
91,-209,0,0,0,0,0,0,0,0,0,-1,1315,1233,0,0
98,-209,0,0,0,0,0,0,0,0,0,-1,1322,1233,0,0
105,-209,0,0,0,0,0,0,0,0,0,-1,1329,1233,0,0
112,-209,0,0,0,0,0,0,0,0,0,-1,1336,1233,0,0
119,-209,0,0,0,0,0,0,0,0,0,-1,1343,1233,0,0
126,-209,0,0,0,0,0,0,0,0,0,-1,1350,1233,0,0
133,-209,0,0,0,0,0,0,0,0,0,-1,1357,1233,0,0
140,-209,0,0,0,0,0,0,0,0,0,-1,1364,1233,0,0
147,-209,0,0,0,0,0,0,0,0,0,-1,1371,1233,0,0
154,-209,0,0,0,0,0,0,0,0,0,-1,1378,1233,0,0
161,-209,0,0,0,0,0,0,0,0,0,-1,1385,1233,0,0
168,-209,0,0,0,0,0,0,0,0,0,-1,1392,1233,0,0
175,-209,0,0,0,0,0,0,0,0,0,-1,1399,1233,0,0
182,-209,0,0,0,0,0,0,0,0,0,-1,1406,1233,0,0
189,-209,0,0,0,0,0,0,0,0,0,-1,1413,1233,0,0
196,-209,0,0,0,0,0,0,0,0,0,-1,1420,1233,0,0
203,-209,0,0,0,0,0,0,0,0,0,-1,1427,1233,0,0
210,-209,0,0,0,0,0,0,0,0,0,-1,1434,1233,0,0
217,-209,0,0,0,0,0,0,0,0,0,-1,1441,1233,0,0
224,-209,0,0,0,0,0,0,0,0,0,-1,1448,1233,0,0
231,-209,0,0,0,0,0,0,0,0,0,-1,1455,1233,0,0
238,-209,0,0,0,0,0,0,0,0,0,-1,1462,1233,0,0
245,-209,0,0,0,0,0,0,0,0,0,-1,1469,1233,0,0
252,-209,0,0,0,0,0,0,0,0,0,-1,1476,1233,0,0
259,-209,0,0,0,0,0,0,0,0,0,-1,1483,1233,0,0
266,-209,0,0,0,0,0,0,0,0,0,-1,1490,1233,0,0
273,-209,0,0,0,0,0,0,0,0,0,-1,1497,1233,0,0
280,-209,0,0,0,0,0,0,0,0,0,-1,1504,1233,0,0
287,-209,0,0,0,0,0,0,0,0,0,-1,1511,1233,0,0
294,-209,0,0,0,0,0,0,0,0,0,-1,1518,1233,0,0
301,-209,0,0,0,0,0,0,0,0,0,-1,1525,1233,0,0
308,-209,0,0,0,0,0,0,0,0,0,-1,1532,1233,0,0
315,-209,0,0,0,0,0,0,0,0,0,-1,1539,1233,0,0
322,-209,0,0,0,0,0,0,0,0,0,-1,1546,1233,0,0
329,-209,0,0,0,0,0,0,0,0,0,-1,1553,1233,0,0
336,-209,0,0,0,0,0,0,0,0,0,-1,1560,1233,0,0
343,-209,0,0,0,0,0,0,0,0,0,-1,1567,1233,0,0
350,-209,0,0,0,0,0,0,0,0,0,-1,1574,1233,0,0
357,-209,0,0,0,0,0,0,0,0,0,-1,1581,1233,0,0
364,-209,0,0,0,0,0,0,0,0,0,-1,1588,1233,0,0
371,-209,0,0,0,0,0,0,0,0,0,-1,1595,1233,0,0
378,-209,0,0,0,0,0,0,0,0,0,-1,1602,1233,0,0
385,-209,0,0,0,0,0,0,0,0,0,-1,1609,1233,0,0
392,-209,0,0,0,0,0,0,0,0,0,-1,1616,1233,0,0
399,-209,0,0,0,0,0,0,0,0,0,-1,1623,1233,0,0
406,-209,0,0,0,0,0,0,0,0,0,-1,1630,1233,0,0
413,-209,0,0,0,0,0,0,0,0,0,-1,1637,1233,0,0
420,-209,0,0,0,0,0,0,0,0,0,-1,1644,1233,0,0
427,-209,0,0,0,0,0,0,0,0,0,-1,1651,1233,0,0
434,-209,0,0,0,0,0,0,0,0,0,-1,1658,1233,0,0
441,-209,0,0,0,0,0,0,0,0,0,-1,1665,1233,0,0
448,-209,0,0,0,0,0,0,0,0,0,-1,1672,1233,0,0
455,-209,0,0,0,0,0,0,0,0,0,-1,1679,1233,0,0
462,-209,0,0,0,0,0,0,0,0,0,-1,1686,1233,0,0
469,-209,0,0,0,0,0,0,0,0,0,-1,1693,1233,0,0
476,-209,0,0,0,0,0,0,0,0,0,-1,1700,1233,0,0
483,-209,0,0,0,0,0,0,0,0,0,-1,1707,1233,0,0
490,-209,0,0,0,0,0,0,0,0,0,-1,1714,1233,0,0
497,-209,0,0,0,0,0,0,0,0,0,-1,1721,1233,0,0
504,-209,0,0,0,0,0,0,0,0,0,-1,1728,1233,0,0
511,-209,0,0,0,0,0,0,0,0,0,-1,1735,1233,0,0
518,-209,0,0,0,0,0,0,0,0,0,-1,1742,1233,0,0
525,-209,0,0,0,0,0,0,0,0,0,-1,1749,1233,0,0
532,-209,0,0,0,0,0,0,0,0,0,-1,1756,1233,0,0
539,-209,0,0,0,0,0,0,0,0,0,-1,1763,1233,0,0
546,-209,0,0,0,0,0,0,0,0,0,-1,1770,1233,0,0
553,-209,0,0,0,0,0,0,0,0,0,-1,1777,1233,0,0
560,-209,0,0,0,0,0,0,0,0,0,-1,1784,1233,0,0
567,-209,0,0,0,0,0,0,0,0,0,-1,1791,1233,0,0
574,-209,0,0,0,0,0,0,0,0,0,-1,1798,1233,0,0
581,-209,0,0,0,0,0,0,0,0,0,-1,1805,1233,0,0
588,-209,0,0,0,0,0,0,0,0,0,-1,1812,1233,0,0
595,-209,0,0,0,0,0,0,0,0,0,-1,1819,1233,0,0
602,-209,0,0,0,0,0,0,0,0,0,-1,1826,1233,0,0
609,-209,0,0,0,0,0,0,0,0,0,-1,1833,1233,0,0
616,-209,0,0,0,0,0,0,0,0,0,-1,1840,1233,0,0
623,-209,-0.0012207,0.106201,-0.00383909,0.00252377,-3.76763e-05,0.002524,-0.00383931,-1.56488,0.00369993,0.0292482,1847,1233,-0.00125079,-0.106222
630,-209,-0.0540771,0.0328369,-0.00154314,0.00135767,-0.000223235,0.00137475,-0.00156022,-1.49444,0.00169563,0.0309203,1854,1233,-0.0541197,-0.0327861
637,-209,-0.0148926,-0.0224609,0.000100669,0.000169687,-0.000712081,0.000848095,-0.000577739,-0.80961,0.000828124,0.0325203,1861,1233,-0.0148516,0.0224188
644,-209,-0.0246582,-0.0183105,0.000826041,-0.00117329,-0.00119357,0.00138328,-0.00173053,-0.43679,0.00180148,0.0286413,1868,1233,-0.0245999,0.0183247
651,-209,0.0231934,0.010376,0.00120821,-0.00229125,-0.00166894,0.00187652,-0.00295956,-0.380886,0.00281535,0.0221493,1875,1233,0.0231923,-0.0103538
658,-209,-0.0136719,0.039917,0.00125078,-0.00304988,-0.00203233,0.00205922,-0.00385831,-0.378598,0.00346872,0.0178388,1882,1233,-0.0136857,-0.039963
665,-209,0.0482178,0.0511475,0.0011518,-0.00353224,-0.00225979,0.00206427,-0.00444471,-0.383766,0.00384082,0.0283099,1889,1233,0.0482441,-0.051092
672,-209,0.197021,0.0930176,0.000977662,-0.00376281,-0.00237736,0.00196449,-0.00474963,-0.393449,0.00398602,0.0444816,1896,1233,0.19699,-0.0930133
679,-209,0.270386,-0.270874,0.000835831,-0.00380868,-0.00239744,0.00185133,-0.00482418,-0.400663,0.00397946,0.0445193,1903,1233,0.270412,0.270878
686,-209,-0.247925,-0.275757,0,0,0,0,0,0,0,-1,1910,1233,-0.247868,0.275813
693,-209,-0.13208,-0.119751,0.00042334,-0.00345879,-0.00226653,0.00146638,-0.00450184,-0.431298,0.00359124,0.0381138,1917,1233,-0.132133,0.119761
700,-209,-0.027832,0.0161133,0.000254964,-0.00311241,-0.00210516,0.00126692,-0.00412437,-0.448091,0.00325513,0.0131336,1924,1233,-0.0278111,-0.0161041
707,-209,-0.038208,0.0411377,4.58577e-05,-0.00262225,-0.00182193,0.000969925,-0.00354632,-0.469385,0.00274524,0.0124143,1931,1233,-0.038252,-0.0410799
714,-209,-0.0310059,0.0507813,-0.000484865,-0.00204034,-0.00148613,0.000414731,-0.00293993,-0.544329,0.00211182,0.0114855,1938,1233,-0.0310037,-0.0507345
721,-209,-0.0131836,0.0568848,-0.000832839,-0.00135696,-0.000981069,-7.94316e-05,-0.00211036,-0.654887,0.00138119,0.0112984,1945,1233,-0.0132341,-0.056864
728,-209,-0.0123291,0.0540771,-0.00092665,-0.00117837,-0.000702268,-0.000339054,-0.00176597,-0.696729,0.00108215,0.010934,1952,1233,-0.0123781,-0.0540202
735,-209,0.0090332,0.0356445,-0.00135446,-0.0008398,-3.18237e-05,-0.00083784,-0.00135642,-1.50927,0.000790325,0.0114999,1959,1233,0.00899003,-0.0356411
742,-209,0.00671387,0.0318604,-0.00152138,-0.000108145,0.000665098,0.000155632,-0.00178515,1.19323,0.00124522,0.00956192,1966,1233,0.00667132,-0.0318629
749,-209,-0.0181885,0.0548096,-0.00173001,0.000236362,0.00158325,0.00111686,-0.00261051,1.06325,0.00220884,0.00755735,1973,1233,-0.0182215,-0.0547641
756,-209,-0.0197754,0.0584717,-0.00187682,0.00082438,0.00239126,0.0022201,-0.00327254,1.04247,0.00319052,0.00793107,1980,1233,-0.0197772,-0.0584904
763,-209,-0.0335693,0.0540771,-0.00186107,0.00152037,0.00346832,0.00368812,-0.00402882,1.01219,0.00445682,0.0142647,1987,1233,-0.0335304,-0.0540986
770,-209,0.0256348,0.0528564,-0.00157633,0.00266369,0.00486547,0.00585096,-0.0047636,0.990858,0.00613903,0.0394609,1994,1233,0.0256257,-0.0528423
777,-209,0.282471,-0.0374756,-0.000815451,0.00441618,0.00667729,0.00897175,-0.00537102,0.972084,0.00836733,0.0450492,2001,1233,0.2825,0.037471
784,-209,0.122192,0.162109,0.000686283,0.00702692,0.00895783,0.0133589,-0.00564569,0.955478,0.0112695,0.041956,2008,1233,0.12225,-0.162081
791,-209,-0.362793,0.235962,0,0,0,0,0,0,0,-1,2015,1233,-0.362744,-0.235975
798,-209,-0.315918,0.518921,0,0,0,0,0,0,0,-1,2022,1233,-0.315904,-0.518967
805,-209,0,0,0,0,0,0,0,0,0,-1,2029,1233,0,0
812,-209,0,0,0,0,0,0,0,0,0,-1,2036,1233,0,0
-700,-216,0,0,0,0,0,0,0,0,0,-1,524,1240,0,0
-693,-216,0,0,0,0,0,0,0,0,0,-1,531,1240,0,0
-686,-216,0,0,0,0,0,0,0,0,0,-1,538,1240,0,0
-679,-216,-0.889038,-1.65796,0,0,0,0,0,0,0,-1,545,1240,-0.889065,1.65791
-672,-216,-0.574219,-1.06812,0.00998912,0.060994,0.0182186,0.0668331,0.00415003,1.26064,0.0432385,0.0433909,552,1240,-0.574225,1.06816
-665,-216,-0.737,-0.368042,0.0071559,0.0498223,0.0141864,0.0541086,0.00286959,1.27738,0.0351549,0.043886,559,1240,-0.737022,0.368029
-658,-216,-0.260559,-0.29248,0.00491558,0.0398297,0.0106916,0.0428436,0.0019017,1.29603,0.0279501,0.0447387,566,1240,-0.260543,0.29247
-651,-216,0.0283203,-0.355225,0.00320181,0.0311564,0.00775596,0.0331641,0.00119412,1.3175,0.0217223,0.0407296,573,1240,0.0283414,0.355272
-644,-216,0.221741,-0.500488,0.00193346,0.0238059,0.00537327,0.0250546,0.000684727,1.34245,0.0164796,0.0428215,580,1240,0.221753,0.500476
-637,-216,0.0396729,-0.317871,0.00103072,0.0177247,0.00350352,0.0184302,0.00032526,1.3721,0.0121798,0.0422652,587,1240,0.0396904,0.317922
-630,-216,-0.0618286,-0.0770264,0.00041912,0.0127726,0.00204611,0.0131027,8.90396e-05,1.41085,0.00870558,0.0258184,594,1240,-0.0618288,0.0769889
-623,-216,-0.00512695,0.043457,-6.90006e-05,0.00852295,0.000958557,0.00862859,-0.000174643,1.46103,0.00581148,0.0117137,601,1240,-0.00512963,-0.0434525
-616,-216,-0.0196533,0.0646973,-0.000459604,0.00541667,0.000289993,0.00543095,-0.00047388,1.52161,0.00378848,0.0122812,608,1240,-0.0196331,-0.0646783
-609,-216,-0.0331421,0.0617676,-0.000843076,0.00277711,-0.00015199,0.00278348,-0.000849445,-1.52891,0.00219431,0.0128143,615,1240,-0.0331663,-0.0617362
-602,-216,-0.0245972,0.0449219,-0.00116498,0.00130647,-0.000243507,0.00133023,-0.00118874,-1.47351,0.0014551,0.0130667,622,1240,-0.0246037,-0.0448701
-595,-216,-0.0274048,0.015625,-0.00157942,0.000626883,2.32341e-06,0.000626885,-0.00157942,1.56974,0.00131279,0.0170365,629,1240,-0.0274026,-0.0156728
-588,-216,-0.00732422,0.0345459,-0.00195615,-0.000511741,0.000568746,-0.000314679,-0.00215321,1.23726,0.00134293,0.0180801,636,1240,-0.00730175,-0.0345126
-581,-216,-0.00994873,0.0419922,-0.00220445,-0.0010073,0.00112263,-0.000333637,-0.00287811,1.03032,0.00181776,0.0149519,643,1240,-0.00994502,-0.0419953
-574,-216,-0.0158081,0.0429688,-0.00225297,-0.00151936,0.00154423,-0.000298966,-0.00347336,0.902005,0.00222263,0.0111914,650,1240,-0.0158201,-0.0429996
-567,-216,-0.0296021,0.0759277,-0.00198883,-0.00207422,0.00180402,-0.000226997,-0.00383605,0.773567,0.00248516,0.0196644,657,1240,-0.0295724,-0.0759119
-560,-216,-0.0583496,0.189819,-0.00186522,-0.00246024,0.00202054,-0.0001204,-0.00420505,0.712302,0.00276411,0.0341992,664,1240,-0.0583689,-0.189868
-553,-216,-0.11377,0.315674,-0.00160381,-0.00308598,0.00211207,-0.000106581,-0.00458321,0.616668,0.00302057,0.0406545,671,1240,-0.113786,-0.315652
-546,-216,-0.321106,0.540161,-0.000921176,-0.00382861,0.00190445,2.09806e-05,-0.00477076,0.45941,0.00318752,0.040061,678,1240,-0.321118,-0.540201
-539,-216,-0.472839,0.745972,6.25464e-05,-0.00446352,0.00147682,0.000501794,-0.00490277,0.289095,0.00344797,0.0393805,685,1240,-0.472816,-0.74597
-532,-216,-0.288879,0.415283,0.00132465,-0.00499874,0.000778457,0.00141908,-0.00509316,0.120707,0.00395428,0.0354811,692,1240,-0.288909,-0.415321
-525,-216,-0.0110474,0.0584717,0.00279744,-0.00529591,-0.000252702,0.00280532,-0.00530379,-0.0311829,0.0047553,0.0359095,699,1240,-0.0110566,-0.0584545
-518,-216,0.0521851,-0.067627,0.00435,-0.00522489,-0.00165174,0.00462693,-0.00550181,-0.166113,0.0058551,0.0384691,706,1240,0.0521616,0.0676025
-511,-216,-0.0716553,0.0604248,0.00560989,-0.00465383,-0.00326129,0.00655849,-0.00560243,-0.283057,0.00702834,0.0378217,713,1240,-0.0716453,-0.0603719
-504,-216,-0.136536,0.127441,0.00590795,-0.0026824,-0.00516156,0.0083277,-0.00510215,-0.438379,0.00782792,0.0386335,720,1240,-0.136565,-0.127483
-497,-216,0,0,0,0,0,0,0,0,0,-1,727,1240,0,0
-490,-216,0,0,0,0,0,0,0,0,0,-1,734,1240,0,0
-483,-216,0,0,0,0,0,0,0,0,0,-1,741,1240,0,0
-476,-216,0,0,0,0,0,0,0,0,0,-1,748,1240,0,0
-469,-216,0,0,0,0,0,0,0,0,0,-1,755,1240,0,0
-462,-216,0,0,0,0,0,0,0,0,0,-1,762,1240,0,0
-455,-216,0,0,0,0,0,0,0,0,0,-1,769,1240,0,0
-448,-216,0,0,0,0,0,0,0,0,0,-1,776,1240,0,0
-441,-216,0,0,0,0,0,0,0,0,0,-1,783,1240,0,0
-434,-216,0,0,0,0,0,0,0,0,0,-1,790,1240,0,0
-427,-216,0,0,0,0,0,0,0,0,0,-1,797,1240,0,0
-420,-216,0,0,0,0,0,0,0,0,0,-1,804,1240,0,0
-413,-216,0,0,0,0,0,0,0,0,0,-1,811,1240,0,0
-406,-216,0,0,0,0,0,0,0,0,0,-1,818,1240,0,0
-399,-216,0,0,0,0,0,0,0,0,0,-1,825,1240,0,0
-392,-216,0,0,0,0,0,0,0,0,0,-1,832,1240,0,0
-385,-216,0,0,0,0,0,0,0,0,0,-1,839,1240,0,0
-378,-216,0,0,0,0,0,0,0,0,0,-1,846,1240,0,0
-371,-216,0,0,0,0,0,0,0,0,0,-1,853,1240,0,0
-364,-216,0,0,0,0,0,0,0,0,0,-1,860,1240,0,0
-357,-216,0,0,0,0,0,0,0,0,0,-1,867,1240,0,0
-350,-216,0,0,0,0,0,0,0,0,0,-1,874,1240,0,0
-343,-216,0,0,0,0,0,0,0,0,0,-1,881,1240,0,0
-336,-216,0,0,0,0,0,0,0,0,0,-1,888,1240,0,0
-329,-216,0,0,0,0,0,0,0,0,0,-1,895,1240,0,0
-322,-216,0,0,0,0,0,0,0,0,0,-1,902,1240,0,0
-315,-216,0,0,0,0,0,0,0,0,0,-1,909,1240,0,0
-308,-216,0,0,0,0,0,0,0,0,0,-1,916,1240,0,0
-301,-216,0,0,0,0,0,0,0,0,0,-1,923,1240,0,0
-294,-216,0,0,0,0,0,0,0,0,0,-1,930,1240,0,0
-287,-216,0,0,0,0,0,0,0,0,0,-1,937,1240,0,0
-280,-216,0,0,0,0,0,0,0,0,0,-1,944,1240,0,0
-273,-216,0,0,0,0,0,0,0,0,0,-1,951,1240,0,0
-266,-216,0,0,0,0,0,0,0,0,0,-1,958,1240,0,0
-259,-216,0,0,0,0,0,0,0,0,0,-1,965,1240,0,0
-252,-216,0,0,0,0,0,0,0,0,0,-1,972,1240,0,0
-245,-216,0,0,0,0,0,0,0,0,0,-1,979,1240,0,0
-238,-216,0,0,0,0,0,0,0,0,0,-1,986,1240,0,0
-231,-216,0,0,0,0,0,0,0,0,0,-1,993,1240,0,0
-224,-216,0,0,0,0,0,0,0,0,0,-1,1000,1240,0,0
-217,-216,0,0,0,0,0,0,0,0,0,-1,1007,1240,0,0
-210,-216,0,0,0,0,0,0,0,0,0,-1,1014,1240,0,0
-203,-216,0,0,0,0,0,0,0,0,0,-1,1021,1240,0,0
-196,-216,0,0,0,0,0,0,0,0,0,-1,1028,1240,0,0
-189,-216,0,0,0,0,0,0,0,0,0,-1,1035,1240,0,0
-182,-216,0,0,0,0,0,0,0,0,0,-1,1042,1240,0,0
-175,-216,0,0,0,0,0,0,0,0,0,-1,1049,1240,0,0
-168,-216,0,0,0,0,0,0,0,0,0,-1,1056,1240,0,0
-161,-216,0,0,0,0,0,0,0,0,0,-1,1063,1240,0,0
-154,-216,0,0,0,0,0,0,0,0,0,-1,1070,1240,0,0
-147,-216,0,0,0,0,0,0,0,0,0,-1,1077,1240,0,0
-140,-216,0,0,0,0,0,0,0,0,0,-1,1084,1240,0,0
-133,-216,0,0,0,0,0,0,0,0,0,-1,1091,1240,0,0
-126,-216,0,0,0,0,0,0,0,0,0,-1,1098,1240,0,0
-119,-216,0,0,0,0,0,0,0,0,0,-1,1105,1240,0,0
-112,-216,0,0,0,0,0,0,0,0,0,-1,1112,1240,0,0
-105,-216,0,0,0,0,0,0,0,0,0,-1,1119,1240,0,0
-98,-216,0,0,0,0,0,0,0,0,0,-1,1126,1240,0,0
-91,-216,0,0,0,0,0,0,0,0,0,-1,1133,1240,0,0
-84,-216,0,0,0,0,0,0,0,0,0,-1,1140,1240,0,0
-77,-216,0,0,0,0,0,0,0,0,0,-1,1147,1240,0,0
-70,-216,0,0,0,0,0,0,0,0,0,-1,1154,1240,0,0
-63,-216,0,0,0,0,0,0,0,0,0,-1,1161,1240,0,0
-56,-216,0,0,0,0,0,0,0,0,0,-1,1168,1240,0,0
-49,-216,0,0,0,0,0,0,0,0,0,-1,1175,1240,0,0
-42,-216,0,0,0,0,0,0,0,0,0,-1,1182,1240,0,0
-35,-216,0,0,0,0,0,0,0,0,0,-1,1189,1240,0,0
-28,-216,0,0,0,0,0,0,0,0,0,-1,1196,1240,0,0
-21,-216,0,0,0,0,0,0,0,0,0,-1,1203,1240,0,0
-14,-216,0,0,0,0,0,0,0,0,0,-1,1210,1240,0,0
-7,-216,0,0,0,0,0,0,0,0,0,-1,1217,1240,0,0
0,-216,0,0,0,0,0,0,0,0,0,-1,1224,1240,0,0
7,-216,0,0,0,0,0,0,0,0,0,-1,1231,1240,0,0
14,-216,0,0,0,0,0,0,0,0,0,-1,1238,1240,0,0
21,-216,0,0,0,0,0,0,0,0,0,-1,1245,1240,0,0
28,-216,0,0,0,0,0,0,0,0,0,-1,1252,1240,0,0
35,-216,0,0,0,0,0,0,0,0,0,-1,1259,1240,0,0
42,-216,0,0,0,0,0,0,0,0,0,-1,1266,1240,0,0
49,-216,0,0,0,0,0,0,0,0,0,-1,1273,1240,0,0
56,-216,0,0,0,0,0,0,0,0,0,-1,1280,1240,0,0
63,-216,0,0,0,0,0,0,0,0,0,-1,1287,1240,0,0
70,-216,0,0,0,0,0,0,0,0,0,-1,1294,1240,0,0
77,-216,0,0,0,0,0,0,0,0,0,-1,1301,1240,0,0
84,-216,0,0,0,0,0,0,0,0,0,-1,1308,1240,0,0
91,-216,0,0,0,0,0,0,0,0,0,-1,1315,1240,0,0
98,-216,0,0,0,0,0,0,0,0,0,-1,1322,1240,0,0
105,-216,0,0,0,0,0,0,0,0,0,-1,1329,1240,0,0
112,-216,0,0,0,0,0,0,0,0,0,-1,1336,1240,0,0
119,-216,0,0,0,0,0,0,0,0,0,-1,1343,1240,0,0
126,-216,0,0,0,0,0,0,0,0,0,-1,1350,1240,0,0
133,-216,0,0,0,0,0,0,0,0,0,-1,1357,1240,0,0
140,-216,0,0,0,0,0,0,0,0,0,-1,1364,1240,0,0
147,-216,0,0,0,0,0,0,0,0,0,-1,1371,1240,0,0
154,-216,0,0,0,0,0,0,0,0,0,-1,1378,1240,0,0
161,-216,0,0,0,0,0,0,0,0,0,-1,1385,1240,0,0
168,-216,0,0,0,0,0,0,0,0,0,-1,1392,1240,0,0
175,-216,0,0,0,0,0,0,0,0,0,-1,1399,1240,0,0
182,-216,0,0,0,0,0,0,0,0,0,-1,1406,1240,0,0
189,-216,0,0,0,0,0,0,0,0,0,-1,1413,1240,0,0
196,-216,0,0,0,0,0,0,0,0,0,-1,1420,1240,0,0
203,-216,0,0,0,0,0,0,0,0,0,-1,1427,1240,0,0
210,-216,0,0,0,0,0,0,0,0,0,-1,1434,1240,0,0
217,-216,0,0,0,0,0,0,0,0,0,-1,1441,1240,0,0
224,-216,0,0,0,0,0,0,0,0,0,-1,1448,1240,0,0
231,-216,0,0,0,0,0,0,0,0,0,-1,1455,1240,0,0
238,-216,0,0,0,0,0,0,0,0,0,-1,1462,1240,0,0
245,-216,0,0,0,0,0,0,0,0,0,-1,1469,1240,0,0
252,-216,0,0,0,0,0,0,0,0,0,-1,1476,1240,0,0
259,-216,0,0,0,0,0,0,0,0,0,-1,1483,1240,0,0
266,-216,0,0,0,0,0,0,0,0,0,-1,1490,1240,0,0
273,-216,0,0,0,0,0,0,0,0,0,-1,1497,1240,0,0
280,-216,0,0,0,0,0,0,0,0,0,-1,1504,1240,0,0
287,-216,0,0,0,0,0,0,0,0,0,-1,1511,1240,0,0
294,-216,0,0,0,0,0,0,0,0,0,-1,1518,1240,0,0
301,-216,0,0,0,0,0,0,0,0,0,-1,1525,1240,0,0
308,-216,0,0,0,0,0,0,0,0,0,-1,1532,1240,0,0
315,-216,0,0,0,0,0,0,0,0,0,-1,1539,1240,0,0
322,-216,0,0,0,0,0,0,0,0,0,-1,1546,1240,0,0
329,-216,0,0,0,0,0,0,0,0,0,-1,1553,1240,0,0
336,-216,0,0,0,0,0,0,0,0,0,-1,1560,1240,0,0
343,-216,0,0,0,0,0,0,0,0,0,-1,1567,1240,0,0
350,-216,0,0,0,0,0,0,0,0,0,-1,1574,1240,0,0
357,-216,0,0,0,0,0,0,0,0,0,-1,1581,1240,0,0
364,-216,0,0,0,0,0,0,0,0,0,-1,1588,1240,0,0
371,-216,0,0,0,0,0,0,0,0,0,-1,1595,1240,0,0
378,-216,0,0,0,0,0,0,0,0,0,-1,1602,1240,0,0
385,-216,0,0,0,0,0,0,0,0,0,-1,1609,1240,0,0
392,-216,0,0,0,0,0,0,0,0,0,-1,1616,1240,0,0
399,-216,0,0,0,0,0,0,0,0,0,-1,1623,1240,0,0
406,-216,0,0,0,0,0,0,0,0,0,-1,1630,1240,0,0
413,-216,0,0,0,0,0,0,0,0,0,-1,1637,1240,0,0
420,-216,0,0,0,0,0,0,0,0,0,-1,1644,1240,0,0
427,-216,0,0,0,0,0,0,0,0,0,-1,1651,1240,0,0
434,-216,0,0,0,0,0,0,0,0,0,-1,1658,1240,0,0
441,-216,0,0,0,0,0,0,0,0,0,-1,1665,1240,0,0
448,-216,0,0,0,0,0,0,0,0,0,-1,1672,1240,0,0
455,-216,0,0,0,0,0,0,0,0,0,-1,1679,1240,0,0
462,-216,0,0,0,0,0,0,0,0,0,-1,1686,1240,0,0
469,-216,0,0,0,0,0,0,0,0,0,-1,1693,1240,0,0
476,-216,0,0,0,0,0,0,0,0,0,-1,1700,1240,0,0
483,-216,0,0,0,0,0,0,0,0,0,-1,1707,1240,0,0
490,-216,0,0,0,0,0,0,0,0,0,-1,1714,1240,0,0
497,-216,0,0,0,0,0,0,0,0,0,-1,1721,1240,0,0
504,-216,0,0,0,0,0,0,0,0,0,-1,1728,1240,0,0
511,-216,0,0,0,0,0,0,0,0,0,-1,1735,1240,0,0
518,-216,0,0,0,0,0,0,0,0,0,-1,1742,1240,0,0
525,-216,0,0,0,0,0,0,0,0,0,-1,1749,1240,0,0
532,-216,0,0,0,0,0,0,0,0,0,-1,1756,1240,0,0
539,-216,0,0,0,0,0,0,0,0,0,-1,1763,1240,0,0
546,-216,0,0,0,0,0,0,0,0,0,-1,1770,1240,0,0
553,-216,0,0,0,0,0,0,0,0,0,-1,1777,1240,0,0
560,-216,0,0,0,0,0,0,0,0,0,-1,1784,1240,0,0
567,-216,0,0,0,0,0,0,0,0,0,-1,1791,1240,0,0
574,-216,0,0,0,0,0,0,0,0,0,-1,1798,1240,0,0
581,-216,0,0,0,0,0,0,0,0,0,-1,1805,1240,0,0
588,-216,0,0,0,0,0,0,0,0,0,-1,1812,1240,0,0
595,-216,0,0,0,0,0,0,0,0,0,-1,1819,1240,0,0
602,-216,0,0,0,0,0,0,0,0,0,-1,1826,1240,0,0
609,-216,0,0,0,0,0,0,0,0,0,-1,1833,1240,0,0
616,-216,0,0,0,0,0,0,0,0,0,-1,1840,1240,0,0
623,-216,0.0596924,0.114502,-0.00359659,0.00209405,-1.1997e-05,0.00209408,-0.00359661,-1.56869,0.00332348,0.0336117,1847,1240,0.0596405,-0.114458
630,-216,-0.0213623,0.101929,-0.000841265,0.000973811,-0.000325057,0.00103027,-0.000897722,-1.39883,0.001114,0.0314236,1854,1240,-0.0213396,-0.101919
637,-216,-0.024292,0.0550537,0.000925532,-0.000148456,-0.000905899,0.00144164,-0.00066456,-0.517853,0.00124329,0.0282985,1861,1240,-0.0243033,-0.0550514
644,-216,0.0216064,-0.0109863,0.00168912,-0.00137685,-0.00147357,0.0022825,-0.00197023,-0.382819,0.00245752,0.0232553,1868,1240,0.0215861,0.0110012
651,-216,0.0269775,0.0499268,0.00197296,-0.00234999,-0.00194623,0.00272006,-0.00309708,-0.366523,0.00336088,0.0192516,1875,1240,0.0270265,-0.0499459
658,-216,0.012207,0.128052,0.00187414,-0.00301352,-0.00227222,0.00276727,-0.00390665,-0.374512,0.00387186,0.0266699,1882,1240,0.0122391,-0.127998
665,-216,0.0114746,0.182251,0.00162228,-0.00343305,-0.00244999,0.00261478,-0.00442555,-0.384897,0.0041093,0.0373468,1889,1240,0.0114718,-0.182244
672,-216,-0.0838623,0.118774,0.00130679,-0.00363121,-0.00251468,0.00236193,-0.00468635,-0.397283,0.00414243,0.0433414,1896,1240,-0.0838378,-0.11874
679,-216,0.302246,-0.0522461,0.00101515,-0.00367248,-0.00248494,0.00208724,-0.00474456,-0.407308,0.00404258,0.0450113,1903,1240,0.302291,0.0522444
686,-216,0.196411,-0.307129,0.000717956,-0.00356487,-0.0023712,0.00177158,-0.00461849,-0.418138,0.0038094,0.0458066,1910,1240,0.196436,0.307091
693,-216,0.010498,-0.0843506,0.000428033,-0.00332525,-0.00225028,0.0014815,-0.00437872,-0.437844,0.00351853,0.0309992,1917,1240,0.0104601,0.0843383
700,-216,-0.0274658,0.00463867,9.63014e-05,-0.00299677,-0.00202207,0.00109546,-0.00399592,-0.458937,0.00309442,0.0125733,1924,1240,-0.0274626,-0.00464647
707,-216,-0.0413818,0.0239258,-0.000225846,-0.0025268,-0.00165946,0.00064294,-0.00339558,-0.482297,0.00250568,0.0139415,1931,1240,-0.0413772,-0.0239483
714,-216,-0.0330811,0.0449219,-0.000777632,-0.00195176,-0.00127319,3.73266e-05,-0.00276671,-0.569377,0.00185704,0.0128999,1938,1240,-0.0330682,-0.0449791
721,-216,-0.0170898,0.0476074,-0.00112298,-0.00124388,-0.000710175,-0.000470687,-0.00189617,-0.742938,0.00114008,0.011776,1945,1240,-0.0171128,-0.047618
728,-216,-0.0111084,0.034668,-0.00121041,-0.00100214,-0.0004747,-0.00062029,-0.00159227,-0.893372,0.000926739,0.00981027,1952,1240,-0.0110541,-0.0346976
735,-216,0.00891113,0.0241699,-0.00173594,-0.000722046,0.000151726,-0.000699827,-0.00175816,1.42539,0.00102208,0.0082995,1959,1240,0.00888322,-0.0242009
742,-216,-0.00305176,0.0379639,-0.00205838,7.48387e-05,0.000728985,0.000300156,-0.0022837,1.27103,0.00163175,0.00860714,1966,1240,-0.0030587,-0.0379218
749,-216,-0.00854492,0.0408936,-0.0024606,0.000392539,0.00147113,0.0010152,-0.00308326,1.17041,0.00246461,0.00771405,1973,1240,-0.00853454,-0.0409125
756,-216,-0.0164795,0.0531006,-0.00280547,0.00109177,0.00221902,0.00209631,-0.00381001,1.1457,0.00345753,0.00781362,1980,1240,-0.0164357,-0.0530905
763,-216,-0.0297852,0.0734863,-0.00304539,0.00193339,0.00318127,0.0034835,-0.00459549,1.11739,0.00467911,0.0131445,1987,1240,-0.0298375,-0.0734325
770,-216,0.00634766,0.0898438,-0.00302424,0.00326218,0.00447765,0.00558972,-0.00535178,1.09142,0.00631758,0.0357461,1994,1240,0.00636875,-0.0897881
777,-216,0.328491,0.0672607,-0.00253173,0.00527818,0.00622706,0.00872339,-0.00597694,1.06545,0.00853647,0.0444783,2001,1240,0.32852,-0.0672101
784,-216,0.527344,0.487793,-0.00126045,0.00827873,0.00854763,0.0132974,-0.00627917,1.03988,0.0115421,0.0432136,2008,1240,0.527403,-0.487852
791,-216,0.437988,0.968628,0.0012106,0.0126902,0.011617,0.0199081,-0.00600726,1.01485,0.0156633,0.04488,2015,1240,0.438036,-0.968604
798,-216,0,0,0,0,0,0,0,0,0,-1,2022,1240,0,0
805,-216,0,0,0,0,0,0,0,0,0,-1,2029,1240,0,0
812,-216,0,0,0,0,0,0,0,0,0,-1,2036,1240,0,0
-700,-223,0,0,0,0,0,0,0,0,0,-1,524,1247,0,0
-693,-223,0,0,0,0,0,0,0,0,0,-1,531,1247,0,0
-686,-223,0,0,0,0,0,0,0,0,0,-1,538,1247,0,0
-679,-223,0,0,0,0,0,0,0,0,0,-1,545,1247,0,0
-672,-223,-0.312378,-0.975708,0.0092372,0.0553262,0.0184801,0.0618208,0.00274253,1.23284,0.0403308,0.0432324,552,1247,-0.312408,0.975664
-665,-223,-0.280457,-0.647461,0.00661018,0.0451773,0.0145092,0.0500261,0.00176132,1.24827,0.0327794,0.0437916,559,1247,-0.280441,0.647401
-658,-223,-0.0490723,-0.494629,0.00446691,0.0360854,0.0110329,0.0395545,0.000997756,1.26615,0.0260435,0.0421933,566,1247,-0.0490434,0.494583
-651,-223,0.105408,-0.395508,0.00280705,0.0281974,0.00809124,0.0305566,0.000447801,1.28708,0.0202235,0.0431183,573,1247,0.105405,0.395497
-644,-223,0.226257,-0.285645,0.00156999,0.0215167,0.00568294,0.0230222,6.45043e-05,1.31183,0.0153267,0.0460225,580,1247,0.226261,0.285641
-637,-223,-0.0847168,-0.301025,0,0,0,0,0,0,0,-1,587,1247,-0.0847469,0.301043
-630,-223,-0.154602,0.255371,9.05063e-05,0.0115185,0.00228417,0.0119581,-0.00034913,1.38065,0.00809098,0.0354496,594,1247,-0.154589,-0.255425
-623,-223,-0.0397949,0.059082,-0.000364508,0.00770533,0.00118618,0.00787608,-0.000535251,1.42783,0.00543792,0.0193715,601,1247,-0.0397954,-0.0591297
-616,-223,-0.0482178,0.0657959,-0.000689847,0.00495388,0.000462378,0.00499151,-0.000727478,1.48959,0.00359479,0.0135044,608,1247,-0.0482137,-0.0658507
-609,-223,-0.0373535,0.0545654,-0.0010143,0.00248402,-3.54207e-05,0.00248438,-0.00101466,-1.56067,0.00207873,0.0110858,615,1247,-0.0373572,-0.0545105
-602,-223,-0.0297852,0.0388184,-0.00136976,0.00111729,-0.000159579,0.00112749,-0.00137996,-1.50698,0.00145012,0.0149939,622,1247,-0.0297645,-0.0388789
-595,-223,0.00500488,0.0544434,-0.0017475,0.00059907,1.48511e-05,0.000599164,-0.00174759,1.56447,0.00140794,0.0202711,629,1247,0.00497438,-0.0544572
-588,-223,0.0134277,0.036377,-0.00204088,-0.000415983,0.00052657,-0.000260264,-0.0021966,1.28327,0.00138582,0.0215443,636,1247,0.0134102,-0.0363172
-581,-223,-0.00158691,0.0435791,-0.00227324,-0.000822485,0.00110229,-0.000228314,-0.00286741,1.07641,0.00184023,0.0180943,643,1247,-0.00157657,-0.0435244
-574,-223,-0.0307007,0.0357666,-0.00229925,-0.00127497,0.00157395,-0.000131941,-0.00344228,0.942688,0.00225216,0.0154208,650,1247,-0.0306816,-0.0357801
-567,-223,-0.0584717,0.0571289,-0.00194772,-0.00184629,0.0018234,-7.29017e-05,-0.00372111,0.799301,0.0024568,0.0210228,657,1247,-0.0584989,-0.0571653
-560,-223,-0.0800171,0.119751,-0.00176264,-0.00227461,0.00201603,1.35908e-05,-0.00405084,0.722249,0.0027051,0.0308453,664,1247,-0.0800306,-0.119743
-553,-223,-0.168457,0.220947,-0.00145335,-0.00307347,0.002108,-5.126e-06,-0.0045217,0.601957,0.00301276,0.0419384,671,1247,-0.168477,-0.221006
-546,-223,-0.430603,0.564087,-0.000728685,-0.00412627,0.00192101,0.000136929,-0.00499189,0.423355,0.0033745,0.0439858,678,1247,-0.430586,-0.564027
-539,-223,-0.616882,1.01941,0.000309397,-0.00508825,0.00149112,0.000693932,-0.00547278,0.252384,0.00390046,0.0410739,685,1247,-0.616871,-1.01941
-532,-223,-0.540344,0.696777,0.00161471,-0.00610758,0.000819542,0.00170073,-0.00619359,0.104575,0.00479753,0.0406254,692,1247,-0.540328,-0.696814
-525,-223,-0.265381,0.380981,0.00311478,-0.00706903,-0.00015507,0.00311714,-0.00707139,-0.0152224,0.00602822,0.0437887,699,1247,-0.265355,-0.381027
-518,-223,-0.0202026,0.0236816,0,0,0,0,0,0,0,-1,706,1247,-0.02022,-0.0237081
-511,-223,-0.112366,0.112061,0.00599828,-0.00835798,-0.00297675,0.00659103,-0.00895073,-0.196556,0.00900745,0.0363026,713,1247,-0.112372,-0.112035
-504,-223,-0.172913,0.0563965,0.00651964,-0.00785984,-0.00479303,0.00797083,-0.00931102,-0.293995,0.00998767,0.0361492,720,1247,-0.172932,-0.0564083
-497,-223,0,0,0,0,0,0,0,0,0,-1,727,1247,0,0
-490,-223,0,0,0,0,0,0,0,0,0,-1,734,1247,0,0
-483,-223,0,0,0,0,0,0,0,0,0,-1,741,1247,0,0
-476,-223,0,0,0,0,0,0,0,0,0,-1,748,1247,0,0
-469,-223,0,0,0,0,0,0,0,0,0,-1,755,1247,0,0
-462,-223,0,0,0,0,0,0,0,0,0,-1,762,1247,0,0
-455,-223,0,0,0,0,0,0,0,0,0,-1,769,1247,0,0
-448,-223,0,0,0,0,0,0,0,0,0,-1,776,1247,0,0
-441,-223,0,0,0,0,0,0,0,0,0,-1,783,1247,0,0
-434,-223,0,0,0,0,0,0,0,0,0,-1,790,1247,0,0
-427,-223,0,0,0,0,0,0,0,0,0,-1,797,1247,0,0
-420,-223,0,0,0,0,0,0,0,0,0,-1,804,1247,0,0
-413,-223,0,0,0,0,0,0,0,0,0,-1,811,1247,0,0
-406,-223,0,0,0,0,0,0,0,0,0,-1,818,1247,0,0
-399,-223,0,0,0,0,0,0,0,0,0,-1,825,1247,0,0
-392,-223,0,0,0,0,0,0,0,0,0,-1,832,1247,0,0
-385,-223,0,0,0,0,0,0,0,0,0,-1,839,1247,0,0
-378,-223,0,0,0,0,0,0,0,0,0,-1,846,1247,0,0
-371,-223,0,0,0,0,0,0,0,0,0,-1,853,1247,0,0
-364,-223,0,0,0,0,0,0,0,0,0,-1,860,1247,0,0
-357,-223,0,0,0,0,0,0,0,0,0,-1,867,1247,0,0
-350,-223,0,0,0,0,0,0,0,0,0,-1,874,1247,0,0
-343,-223,0,0,0,0,0,0,0,0,0,-1,881,1247,0,0
-336,-223,0,0,0,0,0,0,0,0,0,-1,888,1247,0,0
-329,-223,0,0,0,0,0,0,0,0,0,-1,895,1247,0,0
-322,-223,0,0,0,0,0,0,0,0,0,-1,902,1247,0,0
-315,-223,0,0,0,0,0,0,0,0,0,-1,909,1247,0,0
-308,-223,0,0,0,0,0,0,0,0,0,-1,916,1247,0,0
-301,-223,0,0,0,0,0,0,0,0,0,-1,923,1247,0,0
-294,-223,0,0,0,0,0,0,0,0,0,-1,930,1247,0,0
-287,-223,0,0,0,0,0,0,0,0,0,-1,937,1247,0,0
-280,-223,0,0,0,0,0,0,0,0,0,-1,944,1247,0,0
-273,-223,0,0,0,0,0,0,0,0,0,-1,951,1247,0,0
-266,-223,0,0,0,0,0,0,0,0,0,-1,958,1247,0,0
-259,-223,0,0,0,0,0,0,0,0,0,-1,965,1247,0,0
-252,-223,0,0,0,0,0,0,0,0,0,-1,972,1247,0,0
-245,-223,0,0,0,0,0,0,0,0,0,-1,979,1247,0,0
-238,-223,0,0,0,0,0,0,0,0,0,-1,986,1247,0,0
-231,-223,0,0,0,0,0,0,0,0,0,-1,993,1247,0,0
-224,-223,0,0,0,0,0,0,0,0,0,-1,1000,1247,0,0
-217,-223,0,0,0,0,0,0,0,0,0,-1,1007,1247,0,0
-210,-223,0,0,0,0,0,0,0,0,0,-1,1014,1247,0,0
-203,-223,0,0,0,0,0,0,0,0,0,-1,1021,1247,0,0
-196,-223,0,0,0,0,0,0,0,0,0,-1,1028,1247,0,0
-189,-223,0,0,0,0,0,0,0,0,0,-1,1035,1247,0,0
-182,-223,0,0,0,0,0,0,0,0,0,-1,1042,1247,0,0
-175,-223,0,0,0,0,0,0,0,0,0,-1,1049,1247,0,0
-168,-223,0,0,0,0,0,0,0,0,0,-1,1056,1247,0,0
-161,-223,0,0,0,0,0,0,0,0,0,-1,1063,1247,0,0
-154,-223,0,0,0,0,0,0,0,0,0,-1,1070,1247,0,0
-147,-223,0,0,0,0,0,0,0,0,0,-1,1077,1247,0,0
-140,-223,0,0,0,0,0,0,0,0,0,-1,1084,1247,0,0
-133,-223,0,0,0,0,0,0,0,0,0,-1,1091,1247,0,0
-126,-223,0,0,0,0,0,0,0,0,0,-1,1098,1247,0,0
-119,-223,0,0,0,0,0,0,0,0,0,-1,1105,1247,0,0
-112,-223,0,0,0,0,0,0,0,0,0,-1,1112,1247,0,0
-105,-223,0,0,0,0,0,0,0,0,0,-1,1119,1247,0,0
-98,-223,0,0,0,0,0,0,0,0,0,-1,1126,1247,0,0
-91,-223,0,0,0,0,0,0,0,0,0,-1,1133,1247,0,0
-84,-223,0,0,0,0,0,0,0,0,0,-1,1140,1247,0,0
-77,-223,0,0,0,0,0,0,0,0,0,-1,1147,1247,0,0
-70,-223,0,0,0,0,0,0,0,0,0,-1,1154,1247,0,0
-63,-223,0,0,0,0,0,0,0,0,0,-1,1161,1247,0,0
-56,-223,0,0,0,0,0,0,0,0,0,-1,1168,1247,0,0
-49,-223,0,0,0,0,0,0,0,0,0,-1,1175,1247,0,0
-42,-223,0,0,0,0,0,0,0,0,0,-1,1182,1247,0,0
-35,-223,0,0,0,0,0,0,0,0,0,-1,1189,1247,0,0
-28,-223,0,0,0,0,0,0,0,0,0,-1,1196,1247,0,0
-21,-223,0,0,0,0,0,0,0,0,0,-1,1203,1247,0,0
-14,-223,0,0,0,0,0,0,0,0,0,-1,1210,1247,0,0
-7,-223,0,0,0,0,0,0,0,0,0,-1,1217,1247,0,0
0,-223,0,0,0,0,0,0,0,0,0,-1,1224,1247,0,0
7,-223,0,0,0,0,0,0,0,0,0,-1,1231,1247,0,0
14,-223,0,0,0,0,0,0,0,0,0,-1,1238,1247,0,0
21,-223,0,0,0,0,0,0,0,0,0,-1,1245,1247,0,0
28,-223,0,0,0,0,0,0,0,0,0,-1,1252,1247,0,0
35,-223,0,0,0,0,0,0,0,0,0,-1,1259,1247,0,0
42,-223,0,0,0,0,0,0,0,0,0,-1,1266,1247,0,0
49,-223,0,0,0,0,0,0,0,0,0,-1,1273,1247,0,0
56,-223,0,0,0,0,0,0,0,0,0,-1,1280,1247,0,0
63,-223,0,0,0,0,0,0,0,0,0,-1,1287,1247,0,0
70,-223,0,0,0,0,0,0,0,0,0,-1,1294,1247,0,0
77,-223,0,0,0,0,0,0,0,0,0,-1,1301,1247,0,0
84,-223,0,0,0,0,0,0,0,0,0,-1,1308,1247,0,0
91,-223,0,0,0,0,0,0,0,0,0,-1,1315,1247,0,0
98,-223,0,0,0,0,0,0,0,0,0,-1,1322,1247,0,0
105,-223,0,0,0,0,0,0,0,0,0,-1,1329,1247,0,0
112,-223,0,0,0,0,0,0,0,0,0,-1,1336,1247,0,0
119,-223,0,0,0,0,0,0,0,0,0,-1,1343,1247,0,0
126,-223,0,0,0,0,0,0,0,0,0,-1,1350,1247,0,0
133,-223,0,0,0,0,0,0,0,0,0,-1,1357,1247,0,0
140,-223,0,0,0,0,0,0,0,0,0,-1,1364,1247,0,0
147,-223,0,0,0,0,0,0,0,0,0,-1,1371,1247,0,0
154,-223,0,0,0,0,0,0,0,0,0,-1,1378,1247,0,0
161,-223,0,0,0,0,0,0,0,0,0,-1,1385,1247,0,0
168,-223,0,0,0,0,0,0,0,0,0,-1,1392,1247,0,0
175,-223,0,0,0,0,0,0,0,0,0,-1,1399,1247,0,0
182,-223,0,0,0,0,0,0,0,0,0,-1,1406,1247,0,0
189,-223,0,0,0,0,0,0,0,0,0,-1,1413,1247,0,0
196,-223,0,0,0,0,0,0,0,0,0,-1,1420,1247,0,0
203,-223,0,0,0,0,0,0,0,0,0,-1,1427,1247,0,0
210,-223,0,0,0,0,0,0,0,0,0,-1,1434,1247,0,0
217,-223,0,0,0,0,0,0,0,0,0,-1,1441,1247,0,0
224,-223,0,0,0,0,0,0,0,0,0,-1,1448,1247,0,0
231,-223,0,0,0,0,0,0,0,0,0,-1,1455,1247,0,0
238,-223,0,0,0,0,0,0,0,0,0,-1,1462,1247,0,0
245,-223,0,0,0,0,0,0,0,0,0,-1,1469,1247,0,0
252,-223,0,0,0,0,0,0,0,0,0,-1,1476,1247,0,0
259,-223,0,0,0,0,0,0,0,0,0,-1,1483,1247,0,0
266,-223,0,0,0,0,0,0,0,0,0,-1,1490,1247,0,0
273,-223,0,0,0,0,0,0,0,0,0,-1,1497,1247,0,0
280,-223,0,0,0,0,0,0,0,0,0,-1,1504,1247,0,0
287,-223,0,0,0,0,0,0,0,0,0,-1,1511,1247,0,0
294,-223,0,0,0,0,0,0,0,0,0,-1,1518,1247,0,0
301,-223,0,0,0,0,0,0,0,0,0,-1,1525,1247,0,0
308,-223,0,0,0,0,0,0,0,0,0,-1,1532,1247,0,0
315,-223,0,0,0,0,0,0,0,0,0,-1,1539,1247,0,0
322,-223,0,0,0,0,0,0,0,0,0,-1,1546,1247,0,0
329,-223,0,0,0,0,0,0,0,0,0,-1,1553,1247,0,0
336,-223,0,0,0,0,0,0,0,0,0,-1,1560,1247,0,0
343,-223,0,0,0,0,0,0,0,0,0,-1,1567,1247,0,0
350,-223,0,0,0,0,0,0,0,0,0,-1,1574,1247,0,0
357,-223,0,0,0,0,0,0,0,0,0,-1,1581,1247,0,0
364,-223,0,0,0,0,0,0,0,0,0,-1,1588,1247,0,0
371,-223,0,0,0,0,0,0,0,0,0,-1,1595,1247,0,0
378,-223,0,0,0,0,0,0,0,0,0,-1,1602,1247,0,0
385,-223,0,0,0,0,0,0,0,0,0,-1,1609,1247,0,0
392,-223,0,0,0,0,0,0,0,0,0,-1,1616,1247,0,0
399,-223,0,0,0,0,0,0,0,0,0,-1,1623,1247,0,0
406,-223,0,0,0,0,0,0,0,0,0,-1,1630,1247,0,0
413,-223,0,0,0,0,0,0,0,0,0,-1,1637,1247,0,0
420,-223,0,0,0,0,0,0,0,0,0,-1,1644,1247,0,0
427,-223,0,0,0,0,0,0,0,0,0,-1,1651,1247,0,0
434,-223,0,0,0,0,0,0,0,0,0,-1,1658,1247,0,0
441,-223,0,0,0,0,0,0,0,0,0,-1,1665,1247,0,0
448,-223,0,0,0,0,0,0,0,0,0,-1,1672,1247,0,0
455,-223,0,0,0,0,0,0,0,0,0,-1,1679,1247,0,0
462,-223,0,0,0,0,0,0,0,0,0,-1,1686,1247,0,0
469,-223,0,0,0,0,0,0,0,0,0,-1,1693,1247,0,0
476,-223,0,0,0,0,0,0,0,0,0,-1,1700,1247,0,0
483,-223,0,0,0,0,0,0,0,0,0,-1,1707,1247,0,0
490,-223,0,0,0,0,0,0,0,0,0,-1,1714,1247,0,0
497,-223,0,0,0,0,0,0,0,0,0,-1,1721,1247,0,0
504,-223,0,0,0,0,0,0,0,0,0,-1,1728,1247,0,0
511,-223,0,0,0,0,0,0,0,0,0,-1,1735,1247,0,0
518,-223,0,0,0,0,0,0,0,0,0,-1,1742,1247,0,0
525,-223,0,0,0,0,0,0,0,0,0,-1,1749,1247,0,0
532,-223,0,0,0,0,0,0,0,0,0,-1,1756,1247,0,0
539,-223,0,0,0,0,0,0,0,0,0,-1,1763,1247,0,0
546,-223,0,0,0,0,0,0,0,0,0,-1,1770,1247,0,0
553,-223,0,0,0,0,0,0,0,0,0,-1,1777,1247,0,0
560,-223,0,0,0,0,0,0,0,0,0,-1,1784,1247,0,0
567,-223,0,0,0,0,0,0,0,0,0,-1,1791,1247,0,0
574,-223,0,0,0,0,0,0,0,0,0,-1,1798,1247,0,0
581,-223,0,0,0,0,0,0,0,0,0,-1,1805,1247,0,0
588,-223,0,0,0,0,0,0,0,0,0,-1,1812,1247,0,0
595,-223,0,0,0,0,0,0,0,0,0,-1,1819,1247,0,0
602,-223,0,0,0,0,0,0,0,0,0,-1,1826,1247,0,0
609,-223,0,0,0,0,0,0,0,0,0,-1,1833,1247,0,0
616,-223,0,0,0,0,0,0,0,0,0,-1,1840,1247,0,0
623,-223,-0.0335693,0.161255,-0.0027568,0.0017103,3.20296e-05,0.00171053,-0.00275703,1.56363,0.00260283,0.035043,1847,1247,-0.0335321,-0.16125
630,-223,-0.088623,0.132324,6.2506e-05,0.000642188,-0.000430626,0.00087143,-0.000166735,-1.08161,0.00064377,0.0313581,1854,1247,-0.0886068,-0.132333
637,-223,-0.0391846,0.0344238,0.00167363,-0.000403342,-0.00108211,0.00213495,-0.000864662,-0.402984,0.00178284,0.0253445,1861,1247,-0.0392014,-0.0343984
644,-223,0.00183105,0.00976563,0.0023106,-0.0014703,-0.00167769,0.00294769,-0.00210739,-0.362921,0.00293196,0.0200627,1868,1247,0.00179401,-0.00974543
651,-223,0.00415039,0.0562744,0.00244539,-0.00229252,-0.00211178,0.00325001,-0.00309714,-0.364032,0.00366488,0.0231703,1875,1247,0.00414174,-0.0563132
658,-223,0.101807,0.288696,0.00222177,-0.00284856,-0.00238599,0.00316799,-0.00379477,-0.377547,0.00402537,0.0397948,1882,1247,0.101856,-0.288668
665,-223,0.0341797,0.348511,0.00185129,-0.00320141,-0.00251639,0.00289071,-0.00424082,-0.391712,0.00414191,0.0438771,1889,1247,0.0342327,-0.348455
672,-223,-0.425171,-0.0107422,0.00142868,-0.00339534,-0.00253522,0.00251597,-0.00448263,-0.405149,0.00409348,0.045537,1896,1247,-0.425229,0.010696
679,-223,0.225952,0.275879,0,0,0,0,0,0,0,-1,1903,1247,0.225917,-0.275836
686,-223,0.38501,-0.0935059,0.000650305,-0.00333548,-0.00229312,0.00169551,-0.00438068,-0.427666,0.00362047,0.0422062,1910,1247,0.384988,0.0935482
693,-223,-0.0141602,-0.00146484,0.00029407,-0.00308593,-0.00213633,0.00132804,-0.0041199,-0.45076,0.00328015,0.0203836,1917,1247,-0.0141484,0.00142797
700,-223,-0.0335693,0.0266113,-0.000157737,-0.00275939,-0.00185709,0.000808799,-0.00372593,-0.479879,0.00279287,0.00977371,1924,1247,-0.0335437,-0.0266353
707,-223,-0.0314941,0.0454102,-0.000566398,-0.00230114,-0.00144302,0.000249868,-0.00311741,-0.514791,0.00216637,0.0123118,1931,1247,-0.0315469,-0.0454159
714,-223,-0.026001,0.0561523,-0.00114593,-0.00173884,-0.00103182,-0.000368815,-0.00251595,-0.645509,0.00156888,0.0105002,1938,1247,-0.0259596,-0.0561775
721,-223,-0.0319824,0.053833,-0.00152805,-0.0010041,-0.000443211,-0.00075123,-0.00178093,-1.05232,0.0010324,0.0126066,1945,1247,-0.0319711,-0.0538123
728,-223,-0.0391846,0.0499268,-0.00166091,-0.000738427,-0.000239792,-0.000679819,-0.00171952,-1.33108,0.000999988,0.0129951,1952,1247,-0.0391653,-0.0499096
735,-223,-0.0269775,0.0384521,-0.00230768,-0.000543959,0.000336695,-0.00048187,-0.00236977,1.38844,0.00144624,0.00994869,1959,1247,-0.0269646,-0.0384118
742,-223,-0.0235596,0.0330811,-0.00283846,0.000259958,0.000812731,0.0004602,-0.00303871,1.32923,0.00219534,0.00875158,1966,1247,-0.0235691,-0.0331172
749,-223,-0.0168457,0.0288086,-0.00354551,0.000515069,0.00138371,0.000941758,-0.0039722,1.27168,0.00301154,0.00890752,1973,1247,-0.0169011,-0.0287894
756,-223,-0.0111084,0.0388184,-0.00433387,0.00110961,0.0019855,0.00175686,-0.00498112,1.25567,0.00403591,0.00952412,1980,1247,-0.0110644,-0.0388788
763,-223,-0.00537109,0.0318604,-0.00507736,0.00185759,0.00278144,0.00283532,-0.00605509,1.23277,0.00524388,0.0126906,1987,1247,-0.00531987,-0.031866
770,-223,-0.0192871,-0.00976563,-0.00569361,0.00300964,0.00386473,0.00447805,-0.00716201,1.20769,0.00677968,0.0331285,1994,1247,-0.0193457,0.00970972
777,-223,-0.187378,-0.0297852,0,0,0,0,0,0,0,-1,2001,1247,-0.187435,0.0297459
784,-223,0.625,-0.21521,-0.0058831,0.00732535,0.00731975,0.0105799,-0.0091376,1.15243,0.011394,0.0455079,2008,1247,0.624982,0.215217
791,-223,0.508301,0.161499,-0.00485895,0.0111374,0.0100097,0.0159519,-0.00967347,1.12248,0.0149421,0.0485325,2015,1247,0.508351,-0.161542
798,-223,0,0,0,0,0,0,0,0,0,-1,2022,1247,0,0
805,-223,0,0,0,0,0,0,0,0,0,-1,2029,1247,0,0
812,-223,0,0,0,0,0,0,0,0,0,-1,2036,1247,0,0
-700,-230,0,0,0,0,0,0,0,0,0,-1,524,1254,0,0
-693,-230,0,0,0,0,0,0,0,0,0,-1,531,1254,0,0
-686,-230,0,0,0,0,0,0,0,0,0,-1,538,1254,0,0
-679,-230,0,0,0,0,0,0,0,0,0,-1,545,1254,0,0
-672,-230,-0.270264,-0.968262,0.0067705,0.0497405,0.0187839,0.0567939,-0.000282902,1.21159,0.0379573,0.0451316,552,1254,-0.270252,0.968246
-665,-230,-0.203918,-0.745239,0.0052533,0.0403092,0.0147872,0.0457135,-0.000151025,1.2204,0.0305261,0.0436528,559,1254,-0.2039,0.745224
-658,-230,-0.0585938,-0.540283,0.00374672,0.0320046,0.0112469,0.0359344,-0.000183107,1.23464,0.0240175,0.0432827,566,1254,-0.0586094,0.54026
-651,-230,0.14447,-0.469849,0.00243542,0.0248971,0.00824648,0.0275995,-0.000267017,1.25412,0.0184893,0.0451539,573,1254,0.144462,0.469829
-644,-230,0.253052,-0.325195,0,0,0,0,0,0,0,-1,580,1254,0.253038,0.325254
-637,-230,0.0571899,0.558716,0.000577334,0.0140586,0.00382807,0.0150697,-0.000433825,1.31255,0.0101942,0.0447199,587,1254,0.0571741,-0.558713
-630,-230,-0.0111084,0.346313,8.07529e-06,0.0101495,0.00232318,0.0106563,-0.000498783,1.35599,0.00727618,0.0404309,594,1254,-0.0111332,-0.346324
-623,-230,-0.0488281,0.0961914,-0.000413096,0.00685774,0.0012144,0.00705521,-0.000610566,1.4096,0.00491964,0.0249553,601,1254,-0.0488081,-0.0961775
-616,-230,-0.053772,0.0671387,-0.000705765,0.00454056,0.000424517,0.00457469,-0.000739893,1.49057,0.00332399,0.014228,608,1254,-0.053794,-0.0671726
-609,-230,-0.0288086,0.0474854,-0.000984635,0.00234776,-0.000123929,0.00235236,-0.000989238,-1.53368,0.00198206,0.011261,615,1254,-0.0288044,-0.0474949
-602,-230,-0.0178223,0.0374756,-0.00142206,0.0011991,-0.000270656,0.00122676,-0.00144972,-1.46897,0.00154705,0.0118156,622,1254,-0.0178061,-0.0374484
-595,-230,-0.00848389,0.0585938,-0.00182372,0.000903317,-0.000188694,0.000916312,-0.00183672,-1.50204,0.0016188,0.0188462,629,1254,-0.00846862,-0.0585716
-588,-230,-0.00628662,0.0274658,-0.00201093,7.11751e-05,0.000247052,0.000100088,-0.00203984,1.4543,0.00139446,0.0249977,636,1254,-0.00626864,-0.0275108
-581,-230,-0.0386963,0.0289307,-0.00219396,-0.000241348,0.000822184,5.8732e-05,-0.00249404,1.22084,0.00168261,0.0215521,643,1254,-0.0387078,-0.0289864
-574,-230,-0.0305176,0.0334473,-0.00219136,-0.00059845,0.00127617,0.00010941,-0.00289922,1.06437,0.00197029,0.015418,650,1254,-0.0305196,-0.033507
-567,-230,-0.0276489,0.00366211,-0.00180288,-0.00118216,0.00149071,3.01554e-05,-0.00301519,0.88803,0.00202026,0.0171436,657,1254,-0.0276721,-0.0036142
-560,-230,-0.050354,-0.000366211,-0.00160999,-0.00166156,0.00166625,3.06731e-05,-0.00330223,0.777661,0.00221178,0.0272603,664,1254,-0.0503615,0.000311853
-553,-230,-0.188293,0.0280762,-0.00128911,-0.00264346,0.00176007,-8.04372e-05,-0.00385213,0.601756,0.0025417,0.0423785,671,1254,-0.188276,-0.0281353
-546,-230,-0.392029,0.46167,-0.000564584,-0.00400565,0.00160157,6.54673e-05,-0.0046357,0.374801,0.00311252,0.0465457,678,1254,-0.392024,-0.461683
-539,-230,0.213806,-0.637207,0,0,0,0,0,0,0,-1,685,1254,0.213797,0.637241
-532,-230,0.18866,0.311646,0.00174385,-0.00681869,0.000608836,0.00178692,-0.00686177,0.070631,0.00527208,0.0446656,692,1254,0.188639,-0.311689
-525,-230,-0.547424,0.755859,0.00320412,-0.00845871,-0.000229619,0.00320864,-0.00846323,-0.0196779,0.00696267,0.0471609,699,1254,-0.547444,-0.755883
-518,-230,0.122681,-0.189087,0.00472146,-0.0101366,-0.00131154,0.00483634,-0.0102515,-0.0873709,0.00889603,0.0415368,706,1254,0.122705,0.189104
-511,-230,-0.0340576,0.00842285,0.00609359,-0.0117072,-0.00260632,0.00646735,-0.0120809,-0.142434,0.0108711,0.0351195,713,1254,-0.0340821,-0.00838879
-504,-230,-0.108704,0.0632324,0.00688798,-0.0126852,-0.00413247,0.0077247,-0.0135219,-0.199773,0.012418,0.0336604,720,1254,-0.10872,-0.0632697
-497,-230,0,0,0,0,0,0,0,0,0,-1,727,1254,0,0
-490,-230,0,0,0,0,0,0,0,0,0,-1,734,1254,0,0
-483,-230,0,0,0,0,0,0,0,0,0,-1,741,1254,0,0
-476,-230,0,0,0,0,0,0,0,0,0,-1,748,1254,0,0
-469,-230,0,0,0,0,0,0,0,0,0,-1,755,1254,0,0
-462,-230,0,0,0,0,0,0,0,0,0,-1,762,1254,0,0
-455,-230,0,0,0,0,0,0,0,0,0,-1,769,1254,0,0
-448,-230,0,0,0,0,0,0,0,0,0,-1,776,1254,0,0
-441,-230,0,0,0,0,0,0,0,0,0,-1,783,1254,0,0
-434,-230,0,0,0,0,0,0,0,0,0,-1,790,1254,0,0
-427,-230,0,0,0,0,0,0,0,0,0,-1,797,1254,0,0
-420,-230,0,0,0,0,0,0,0,0,0,-1,804,1254,0,0
-413,-230,0,0,0,0,0,0,0,0,0,-1,811,1254,0,0
-406,-230,0,0,0,0,0,0,0,0,0,-1,818,1254,0,0
-399,-230,0,0,0,0,0,0,0,0,0,-1,825,1254,0,0
-392,-230,0,0,0,0,0,0,0,0,0,-1,832,1254,0,0
-385,-230,0,0,0,0,0,0,0,0,0,-1,839,1254,0,0
-378,-230,0,0,0,0,0,0,0,0,0,-1,846,1254,0,0
-371,-230,0,0,0,0,0,0,0,0,0,-1,853,1254,0,0
-364,-230,0,0,0,0,0,0,0,0,0,-1,860,1254,0,0
-357,-230,0,0,0,0,0,0,0,0,0,-1,867,1254,0,0
-350,-230,0,0,0,0,0,0,0,0,0,-1,874,1254,0,0
-343,-230,0,0,0,0,0,0,0,0,0,-1,881,1254,0,0
-336,-230,0,0,0,0,0,0,0,0,0,-1,888,1254,0,0
-329,-230,0,0,0,0,0,0,0,0,0,-1,895,1254,0,0
-322,-230,0,0,0,0,0,0,0,0,0,-1,902,1254,0,0
-315,-230,0,0,0,0,0,0,0,0,0,-1,909,1254,0,0
-308,-230,0,0,0,0,0,0,0,0,0,-1,916,1254,0,0
-301,-230,0,0,0,0,0,0,0,0,0,-1,923,1254,0,0
-294,-230,0,0,0,0,0,0,0,0,0,-1,930,1254,0,0
-287,-230,0,0,0,0,0,0,0,0,0,-1,937,1254,0,0
-280,-230,0,0,0,0,0,0,0,0,0,-1,944,1254,0,0
-273,-230,0,0,0,0,0,0,0,0,0,-1,951,1254,0,0
-266,-230,0,0,0,0,0,0,0,0,0,-1,958,1254,0,0
-259,-230,0,0,0,0,0,0,0,0,0,-1,965,1254,0,0
-252,-230,0,0,0,0,0,0,0,0,0,-1,972,1254,0,0
-245,-230,0,0,0,0,0,0,0,0,0,-1,979,1254,0,0
-238,-230,0,0,0,0,0,0,0,0,0,-1,986,1254,0,0
-231,-230,0,0,0,0,0,0,0,0,0,-1,993,1254,0,0
-224,-230,0,0,0,0,0,0,0,0,0,-1,1000,1254,0,0
-217,-230,0,0,0,0,0,0,0,0,0,-1,1007,1254,0,0
-210,-230,0,0,0,0,0,0,0,0,0,-1,1014,1254,0,0
-203,-230,0,0,0,0,0,0,0,0,0,-1,1021,1254,0,0
-196,-230,0,0,0,0,0,0,0,0,0,-1,1028,1254,0,0
-189,-230,0,0,0,0,0,0,0,0,0,-1,1035,1254,0,0
-182,-230,0,0,0,0,0,0,0,0,0,-1,1042,1254,0,0
-175,-230,0,0,0,0,0,0,0,0,0,-1,1049,1254,0,0
-168,-230,0,0,0,0,0,0,0,0,0,-1,1056,1254,0,0
-161,-230,0,0,0,0,0,0,0,0,0,-1,1063,1254,0,0
-154,-230,0,0,0,0,0,0,0,0,0,-1,1070,1254,0,0
-147,-230,0,0,0,0,0,0,0,0,0,-1,1077,1254,0,0
-140,-230,0,0,0,0,0,0,0,0,0,-1,1084,1254,0,0
-133,-230,0,0,0,0,0,0,0,0,0,-1,1091,1254,0,0
-126,-230,0,0,0,0,0,0,0,0,0,-1,1098,1254,0,0
-119,-230,0,0,0,0,0,0,0,0,0,-1,1105,1254,0,0
-112,-230,0,0,0,0,0,0,0,0,0,-1,1112,1254,0,0
-105,-230,0,0,0,0,0,0,0,0,0,-1,1119,1254,0,0
-98,-230,0,0,0,0,0,0,0,0,0,-1,1126,1254,0,0
-91,-230,0,0,0,0,0,0,0,0,0,-1,1133,1254,0,0
-84,-230,0,0,0,0,0,0,0,0,0,-1,1140,1254,0,0
-77,-230,0,0,0,0,0,0,0,0,0,-1,1147,1254,0,0
-70,-230,0,0,0,0,0,0,0,0,0,-1,1154,1254,0,0
-63,-230,0,0,0,0,0,0,0,0,0,-1,1161,1254,0,0
-56,-230,0,0,0,0,0,0,0,0,0,-1,1168,1254,0,0
-49,-230,0,0,0,0,0,0,0,0,0,-1,1175,1254,0,0
-42,-230,0,0,0,0,0,0,0,0,0,-1,1182,1254,0,0
-35,-230,0,0,0,0,0,0,0,0,0,-1,1189,1254,0,0
-28,-230,0,0,0,0,0,0,0,0,0,-1,1196,1254,0,0
-21,-230,0,0,0,0,0,0,0,0,0,-1,1203,1254,0,0
-14,-230,0,0,0,0,0,0,0,0,0,-1,1210,1254,0,0
-7,-230,0,0,0,0,0,0,0,0,0,-1,1217,1254,0,0
0,-230,0,0,0,0,0,0,0,0,0,-1,1224,1254,0,0
7,-230,0,0,0,0,0,0,0,0,0,-1,1231,1254,0,0
14,-230,0,0,0,0,0,0,0,0,0,-1,1238,1254,0,0
21,-230,0,0,0,0,0,0,0,0,0,-1,1245,1254,0,0
28,-230,0,0,0,0,0,0,0,0,0,-1,1252,1254,0,0
35,-230,0,0,0,0,0,0,0,0,0,-1,1259,1254,0,0
42,-230,0,0,0,0,0,0,0,0,0,-1,1266,1254,0,0
49,-230,0,0,0,0,0,0,0,0,0,-1,1273,1254,0,0
56,-230,0,0,0,0,0,0,0,0,0,-1,1280,1254,0,0
63,-230,0,0,0,0,0,0,0,0,0,-1,1287,1254,0,0
70,-230,0,0,0,0,0,0,0,0,0,-1,1294,1254,0,0
77,-230,0,0,0,0,0,0,0,0,0,-1,1301,1254,0,0
84,-230,0,0,0,0,0,0,0,0,0,-1,1308,1254,0,0
91,-230,0,0,0,0,0,0,0,0,0,-1,1315,1254,0,0
98,-230,0,0,0,0,0,0,0,0,0,-1,1322,1254,0,0
105,-230,0,0,0,0,0,0,0,0,0,-1,1329,1254,0,0
112,-230,0,0,0,0,0,0,0,0,0,-1,1336,1254,0,0
119,-230,0,0,0,0,0,0,0,0,0,-1,1343,1254,0,0
126,-230,0,0,0,0,0,0,0,0,0,-1,1350,1254,0,0
133,-230,0,0,0,0,0,0,0,0,0,-1,1357,1254,0,0
140,-230,0,0,0,0,0,0,0,0,0,-1,1364,1254,0,0
147,-230,0,0,0,0,0,0,0,0,0,-1,1371,1254,0,0
154,-230,0,0,0,0,0,0,0,0,0,-1,1378,1254,0,0
161,-230,0,0,0,0,0,0,0,0,0,-1,1385,1254,0,0
168,-230,0,0,0,0,0,0,0,0,0,-1,1392,1254,0,0
175,-230,0,0,0,0,0,0,0,0,0,-1,1399,1254,0,0
182,-230,0,0,0,0,0,0,0,0,0,-1,1406,1254,0,0
189,-230,0,0,0,0,0,0,0,0,0,-1,1413,1254,0,0
196,-230,0,0,0,0,0,0,0,0,0,-1,1420,1254,0,0
203,-230,0,0,0,0,0,0,0,0,0,-1,1427,1254,0,0
210,-230,0,0,0,0,0,0,0,0,0,-1,1434,1254,0,0
217,-230,0,0,0,0,0,0,0,0,0,-1,1441,1254,0,0
224,-230,0,0,0,0,0,0,0,0,0,-1,1448,1254,0,0
231,-230,0,0,0,0,0,0,0,0,0,-1,1455,1254,0,0
238,-230,0,0,0,0,0,0,0,0,0,-1,1462,1254,0,0
245,-230,0,0,0,0,0,0,0,0,0,-1,1469,1254,0,0
252,-230,0,0,0,0,0,0,0,0,0,-1,1476,1254,0,0
259,-230,0,0,0,0,0,0,0,0,0,-1,1483,1254,0,0
266,-230,0,0,0,0,0,0,0,0,0,-1,1490,1254,0,0
273,-230,0,0,0,0,0,0,0,0,0,-1,1497,1254,0,0
280,-230,0,0,0,0,0,0,0,0,0,-1,1504,1254,0,0
287,-230,0,0,0,0,0,0,0,0,0,-1,1511,1254,0,0
294,-230,0,0,0,0,0,0,0,0,0,-1,1518,1254,0,0
301,-230,0,0,0,0,0,0,0,0,0,-1,1525,1254,0,0
308,-230,0,0,0,0,0,0,0,0,0,-1,1532,1254,0,0
315,-230,0,0,0,0,0,0,0,0,0,-1,1539,1254,0,0
322,-230,0,0,0,0,0,0,0,0,0,-1,1546,1254,0,0
329,-230,0,0,0,0,0,0,0,0,0,-1,1553,1254,0,0
336,-230,0,0,0,0,0,0,0,0,0,-1,1560,1254,0,0
343,-230,0,0,0,0,0,0,0,0,0,-1,1567,1254,0,0
350,-230,0,0,0,0,0,0,0,0,0,-1,1574,1254,0,0
357,-230,0,0,0,0,0,0,0,0,0,-1,1581,1254,0,0
364,-230,0,0,0,0,0,0,0,0,0,-1,1588,1254,0,0
371,-230,0,0,0,0,0,0,0,0,0,-1,1595,1254,0,0
378,-230,0,0,0,0,0,0,0,0,0,-1,1602,1254,0,0
385,-230,0,0,0,0,0,0,0,0,0,-1,1609,1254,0,0
392,-230,0,0,0,0,0,0,0,0,0,-1,1616,1254,0,0
399,-230,0,0,0,0,0,0,0,0,0,-1,1623,1254,0,0
406,-230,0,0,0,0,0,0,0,0,0,-1,1630,1254,0,0
413,-230,0,0,0,0,0,0,0,0,0,-1,1637,1254,0,0
420,-230,0,0,0,0,0,0,0,0,0,-1,1644,1254,0,0
427,-230,0,0,0,0,0,0,0,0,0,-1,1651,1254,0,0
434,-230,0,0,0,0,0,0,0,0,0,-1,1658,1254,0,0
441,-230,0,0,0,0,0,0,0,0,0,-1,1665,1254,0,0
448,-230,0,0,0,0,0,0,0,0,0,-1,1672,1254,0,0
455,-230,0,0,0,0,0,0,0,0,0,-1,1679,1254,0,0
462,-230,0,0,0,0,0,0,0,0,0,-1,1686,1254,0,0
469,-230,0,0,0,0,0,0,0,0,0,-1,1693,1254,0,0
476,-230,0,0,0,0,0,0,0,0,0,-1,1700,1254,0,0
483,-230,0,0,0,0,0,0,0,0,0,-1,1707,1254,0,0
490,-230,0,0,0,0,0,0,0,0,0,-1,1714,1254,0,0
497,-230,0,0,0,0,0,0,0,0,0,-1,1721,1254,0,0
504,-230,0,0,0,0,0,0,0,0,0,-1,1728,1254,0,0
511,-230,0,0,0,0,0,0,0,0,0,-1,1735,1254,0,0
518,-230,0,0,0,0,0,0,0,0,0,-1,1742,1254,0,0
525,-230,0,0,0,0,0,0,0,0,0,-1,1749,1254,0,0
532,-230,0,0,0,0,0,0,0,0,0,-1,1756,1254,0,0
539,-230,0,0,0,0,0,0,0,0,0,-1,1763,1254,0,0
546,-230,0,0,0,0,0,0,0,0,0,-1,1770,1254,0,0
553,-230,0,0,0,0,0,0,0,0,0,-1,1777,1254,0,0
560,-230,0,0,0,0,0,0,0,0,0,-1,1784,1254,0,0
567,-230,0,0,0,0,0,0,0,0,0,-1,1791,1254,0,0
574,-230,0,0,0,0,0,0,0,0,0,-1,1798,1254,0,0
581,-230,0,0,0,0,0,0,0,0,0,-1,1805,1254,0,0
588,-230,0,0,0,0,0,0,0,0,0,-1,1812,1254,0,0
595,-230,0,0,0,0,0,0,0,0,0,-1,1819,1254,0,0
602,-230,0,0,0,0,0,0,0,0,0,-1,1826,1254,0,0
609,-230,0,0,0,0,0,0,0,0,0,-1,1833,1254,0,0
616,-230,0.0198975,0.0894775,-0.0072697,0.00185575,0.000109912,0.00185707,-0.00727103,1.55875,0.00557053,0.0311185,1840,1254,0.019855,-0.0894916
623,-230,-0.00817871,0.136353,-0.00161168,0.0014938,-0.000582321,0.0015994,-0.00171728,-1.3914,0.00191529,0.0315874,1847,1254,-0.00817568,-0.136398
630,-230,-0.057373,0.108032,0.00166402,0.000900052,-0.00117533,0.00251787,4.61939e-05,-0.628282,0.0016634,0.0269103,1854,1254,-0.0573855,-0.107985
637,-230,-0.0157471,0.0413818,0.003349,0.000188487,-0.00178665,0.00415397,-0.000616489,-0.423312,0.00299603,0.0216034,1861,1254,-0.0157441,-0.0413348
644,-230,-0.0123291,-0.00378418,0.00393538,-0.00059726,-0.00226172,0.00487087,-0.00153275,-0.392191,0.00386094,0.0164298,1868,1254,-0.0122786,0.00381051
651,-230,0.0126953,0.0327148,0,0,0,0,0,0,0,-1,1875,1254,0.0126787,-0.0326546
658,-230,0.236938,0.277588,0.0035082,-0.00174951,-0.00267589,0.00463051,-0.00287183,-0.397132,0.00437097,0.0417833,1882,1254,0.236908,-0.277564
665,-230,0.920654,0.674316,0.00292432,-0.00212538,-0.00266741,0.00407234,-0.0032734,-0.406424,0.00424942,0.0445685,1889,1254,0.920659,-0.674377
672,-230,0.251831,0.417236,0,0,0,0,0,0,0,-1,1896,1254,0.251814,-0.417255
679,-230,0.178467,0.303589,0.00163123,-0.00256117,-0.00243508,0.00274808,-0.00367802,-0.430023,0.00372304,0.0455327,1903,1254,0.178521,-0.303602
686,-230,0.0869141,0.168213,0.0010215,-0.00256291,-0.00215659,0.00203338,-0.00357479,-0.438708,0.00327839,0.0368756,1910,1254,0.0868751,-0.168261
693,-230,-0.00683594,0.0386963,0.000460574,-0.00238561,-0.00194091,0.0014442,-0.00336925,-0.469064,0.00285217,0.0157496,1917,1254,-0.00688859,-0.0386658
700,-230,-0.0183105,0.0310059,-0.000170514,-0.00215005,-0.0016129,0.000732091,-0.00305266,-0.510197,0.002318,0.0103817,1924,1254,-0.0183448,-0.0310093
707,-230,-0.00366211,0.0437012,-0.000760201,-0.00183908,-0.00116062,-1.97847e-05,-0.0025795,-0.567857,0.00171311,0.00881889,1931,1254,-0.00367348,-0.0437509
714,-230,-0.026123,0.0510254,-0.00143512,-0.0013557,-0.000762657,-0.000631722,-0.0021591,-0.811409,0.00128181,0.010944,1938,1254,-0.0261547,-0.050984
721,-230,-0.0273438,0.0454102,-0.00190654,-0.000630378,-0.000210773,-0.000596467,-0.00194045,-1.41128,0.0011477,0.0112735,1945,1254,-0.0273535,-0.0453712
728,-230,-0.0238037,0.0465088,-0.00212069,-0.000296773,-7.16259e-05,-0.000293964,-0.00212349,-1.53161,0.00132856,0.0124088,1952,1254,-0.0237539,-0.0465387
735,-230,-0.036499,0.0380859,-0.00289659,-0.000164704,0.000419781,-0.000101656,-0.00295963,1.42172,0.00194009,0.012731,1959,1254,-0.0365528,-0.0381452
742,-230,-0.0356445,0.0352783,-0.0036336,0.000652546,0.000777946,0.000789377,-0.00377043,1.39669,0.0028139,0.0100551,1966,1254,-0.0356281,-0.0352804
749,-230,-0.0153809,0.0286865,-0.00463892,0.000897258,0.00119099,0.0011426,-0.00488426,1.36764,0.00369638,0.00960927,1973,1254,-0.0153744,-0.0287008
756,-230,-0.0157471,0.0214844,-0.00582781,0.0013206,0.00164797,0.00168222,-0.00618944,1.35478,0.0047866,0.0109569,1980,1254,-0.0158065,-0.0215267
763,-230,-0.0246582,-0.0357666,-0.00702361,0.00189737,0.0022881,0.00245,-0.00757624,1.33381,0.00603559,0.0220371,1987,1254,-0.0246183,0.0357872
770,-230,-0.192383,-0.140137,-0.00821324,0.00269378,0.00317976,0.00355308,-0.00907254,1.30686,0.00751801,0.0391491,1994,1254,-0.192349,0.140184
777,-230,-0.286865,-0.190308,-0.00932747,0.00378209,0.00441679,0.00513131,-0.0106767,1.27432,0.00931206,0.0441408,2001,1254,-0.28682,0.190321
784,-230,-0.415771,-0.310547,-0.0102083,0.00525482,0.00611547,0.00738105,-0.0123345,1.23619,0.0115019,0.0439794,2008,1254,-0.415796,0.310496
791,-230,0.567383,-0.496338,0,0,0,0,0,0,0,-1,2015,1254,0.567324,0.496285
798,-230,0,0,0,0,0,0,0,0,0,-1,2022,1254,0,0
805,-230,0,0,0,0,0,0,0,0,0,-1,2029,1254,0,0
812,-230,0,0,0,0,0,0,0,0,0,-1,2036,1254,0,0
-700,-237,0,0,0,0,0,0,0,0,0,-1,524,1261,0,0
-693,-237,0,0,0,0,0,0,0,0,0,-1,531,1261,0,0
-686,-237,0,0,0,0,0,0,0,0,0,-1,538,1261,0,0
-679,-237,0,0,0,0,0,0,0,0,0,-1,545,1261,0,0
-672,-237,-0.219421,-0.945068,0,0,0,0,0,0,0,-1,552,1261,-0.21943,0.945077
-665,-237,0.259766,-0.665283,0,0,0,0,0,0,0,-1,559,1261,0.259737,0.665302
-658,-237,0.191162,-0.866333,0,0,0,0,0,0,0,-1,566,1261,0.191143,0.866337
-651,-237,0.213745,-0.559937,-1.33531e-05,0.0211588,0.00826941,0.0240058,-0.00286038,1.23922,0.0170376,0.0476131,573,1261,0.213769,0.559968
-644,-237,-0.125183,0.337769,-0.000639502,0.0160704,0.00584563,0.0179124,-0.00248144,1.26555,0.0128488,0.0489495,580,1261,-0.125191,-0.337736
-637,-237,0.20697,0.266357,-0.00104419,0.0119569,0.00389532,0.0130346,-0.00212194,1.30087,0.00947659,0.0484396,587,1261,0.206969,-0.266392
-630,-237,0.168762,0.40625,-0.00126312,0.00869647,0.00238465,0.00923798,-0.00180464,1.3475,0.00684002,0.0438758,594,1261,0.168734,-0.406225
-623,-237,-0.00390625,0.136719,-0.00135892,0.00598527,0.00127308,0.00619969,-0.00157334,1.40393,0.00474532,0.0280202,601,1261,-0.00391488,-0.136669
-616,-237,-0.0512085,0.0855713,-0.00135962,0.00412853,0.00045265,0.00416561,-0.0013967,1.48905,0.0033414,0.012948,608,1261,-0.0512282,-0.0856026
-609,-237,-0.03125,0.0531006,-0.00137016,0.00222966,-0.000130687,0.0022344,-0.0013749,-1.53456,0.00210343,0.0155815,615,1261,-0.0312458,-0.0531223
-602,-237,-0.0160522,0.026123,-0.00159911,0.00127483,-0.000308398,0.00130755,-0.00163183,-1.46509,0.00170049,0.0115459,622,1261,-0.0160497,-0.0261252
-595,-237,-0.0258179,0.0195313,-0.00182662,0.00119087,-0.000318361,0.0012241,-0.00185984,-1.46682,0.00179308,0.0147128,629,1261,-0.0258267,-0.0195823
-588,-237,-0.0264282,0.00170898,-0.00185778,0.00044874,2.87225e-05,0.000449097,-0.00185814,1.55835,0.00141246,0.0247515,636,1261,-0.0264388,-0.00166991
-581,-237,-0.0358276,0.0090332,-0.0019505,0.000147882,0.000600087,0.000307371,-0.00210999,1.31103,0.00151952,0.0221069,643,1261,-0.0358436,-0.00903957
-574,-237,-0.0269165,0.0078125,-0.00187268,-0.000160075,0.00104837,0.00033726,-0.00237002,1.12785,0.0017036,0.0135349,650,1261,-0.0269064,-0.00786295
-567,-237,-0.0152588,-0.00109863,-0.00140691,-0.000711839,0.00121011,0.000199657,-0.0023184,0.925231,0.00161627,0.0122647,657,1261,-0.0152327,0.00105629
-560,-237,-0.00720215,-0.0179443,-0.00117022,-0.00117618,0.00134303,0.000169831,-0.00251623,0.784289,0.00173687,0.0179324,664,1261,-0.00718423,0.0179788
-553,-237,-0.0734863,0.020874,-0.000790879,-0.0022666,0.00140817,6.10295e-05,-0.00311851,0.544071,0.00209965,0.0385947,671,1261,-0.0734602,-0.0209349
-546,-237,-0.0276489,-0.388062,-2.14276e-05,-0.00363259,0.00117921,0.00032953,-0.00398355,0.289273,0.00277208,0.0476729,678,1261,-0.0276463,0.388054
-539,-237,0.0427246,-0.35498,0.00105165,-0.00472,0.000652415,0.00112448,-0.00479283,0.111169,0.0036286,0.0451828,685,1261,0.0427455,0.355013
-532,-237,0.0298462,0.266479,0.00234478,-0.00596127,-6.40468e-05,0.00234527,-0.00596177,-0.00771026,0.00494525,0.0483285,692,1261,0.0298407,-0.266518
-525,-237,-0.000183105,0.738281,0,0,0,0,0,0,0,-1,699,1261,-0.000206296,-0.738225
-518,-237,-0.241882,0.404663,0.00524038,-0.00861548,-0.00221631,0.00558626,-0.00896136,-0.154811,0.00847408,0.0437745,706,1261,-0.241908,-0.404621
-511,-237,0.0789795,-0.0814209,0.00655472,-0.0095781,-0.00368259,0.00735558,-0.010379,-0.214137,0.0102885,0.0366284,713,1261,0.0789608,0.0813894
-504,-237,-0.0628052,0.0581055,0.00738832,-0.00975735,-0.00542297,0.00895956,-0.0113286,-0.282014,0.01174,0.0378628,720,1261,-0.0628221,-0.0581498
-497,-237,-0.00872803,-0.179932,0.00728911,-0.00845907,-0.00734724,0.0101846,-0.0113545,-0.3754,0.0124417,0.0431416,727,1261,-0.00870504,0.179916
-490,-237,0,0,0,0,0,0,0,0,0,-1,734,1261,0,0
-483,-237,0,0,0,0,0,0,0,0,0,-1,741,1261,0,0
-476,-237,0,0,0,0,0,0,0,0,0,-1,748,1261,0,0
-469,-237,0,0,0,0,0,0,0,0,0,-1,755,1261,0,0
-462,-237,0,0,0,0,0,0,0,0,0,-1,762,1261,0,0
-455,-237,0,0,0,0,0,0,0,0,0,-1,769,1261,0,0
-448,-237,0,0,0,0,0,0,0,0,0,-1,776,1261,0,0
-441,-237,0,0,0,0,0,0,0,0,0,-1,783,1261,0,0
-434,-237,0,0,0,0,0,0,0,0,0,-1,790,1261,0,0
-427,-237,0,0,0,0,0,0,0,0,0,-1,797,1261,0,0
-420,-237,0,0,0,0,0,0,0,0,0,-1,804,1261,0,0
-413,-237,0,0,0,0,0,0,0,0,0,-1,811,1261,0,0
-406,-237,0,0,0,0,0,0,0,0,0,-1,818,1261,0,0
-399,-237,0,0,0,0,0,0,0,0,0,-1,825,1261,0,0
-392,-237,0,0,0,0,0,0,0,0,0,-1,832,1261,0,0
-385,-237,0,0,0,0,0,0,0,0,0,-1,839,1261,0,0
-378,-237,0,0,0,0,0,0,0,0,0,-1,846,1261,0,0
-371,-237,0,0,0,0,0,0,0,0,0,-1,853,1261,0,0
-364,-237,0,0,0,0,0,0,0,0,0,-1,860,1261,0,0
-357,-237,0,0,0,0,0,0,0,0,0,-1,867,1261,0,0
-350,-237,0,0,0,0,0,0,0,0,0,-1,874,1261,0,0
-343,-237,0,0,0,0,0,0,0,0,0,-1,881,1261,0,0
-336,-237,0,0,0,0,0,0,0,0,0,-1,888,1261,0,0
-329,-237,0,0,0,0,0,0,0,0,0,-1,895,1261,0,0
-322,-237,0,0,0,0,0,0,0,0,0,-1,902,1261,0,0
-315,-237,0,0,0,0,0,0,0,0,0,-1,909,1261,0,0
-308,-237,0,0,0,0,0,0,0,0,0,-1,916,1261,0,0
-301,-237,0,0,0,0,0,0,0,0,0,-1,923,1261,0,0
-294,-237,0,0,0,0,0,0,0,0,0,-1,930,1261,0,0
-287,-237,0,0,0,0,0,0,0,0,0,-1,937,1261,0,0
-280,-237,0,0,0,0,0,0,0,0,0,-1,944,1261,0,0
-273,-237,0,0,0,0,0,0,0,0,0,-1,951,1261,0,0
-266,-237,0,0,0,0,0,0,0,0,0,-1,958,1261,0,0
-259,-237,0,0,0,0,0,0,0,0,0,-1,965,1261,0,0
-252,-237,0,0,0,0,0,0,0,0,0,-1,972,1261,0,0
-245,-237,0,0,0,0,0,0,0,0,0,-1,979,1261,0,0
-238,-237,0,0,0,0,0,0,0,0,0,-1,986,1261,0,0
-231,-237,0,0,0,0,0,0,0,0,0,-1,993,1261,0,0
-224,-237,0,0,0,0,0,0,0,0,0,-1,1000,1261,0,0
-217,-237,0,0,0,0,0,0,0,0,0,-1,1007,1261,0,0
-210,-237,0,0,0,0,0,0,0,0,0,-1,1014,1261,0,0
-203,-237,0,0,0,0,0,0,0,0,0,-1,1021,1261,0,0
-196,-237,0,0,0,0,0,0,0,0,0,-1,1028,1261,0,0
-189,-237,0,0,0,0,0,0,0,0,0,-1,1035,1261,0,0
-182,-237,0,0,0,0,0,0,0,0,0,-1,1042,1261,0,0
-175,-237,0,0,0,0,0,0,0,0,0,-1,1049,1261,0,0
-168,-237,0,0,0,0,0,0,0,0,0,-1,1056,1261,0,0
-161,-237,0,0,0,0,0,0,0,0,0,-1,1063,1261,0,0
-154,-237,0,0,0,0,0,0,0,0,0,-1,1070,1261,0,0
-147,-237,0,0,0,0,0,0,0,0,0,-1,1077,1261,0,0
-140,-237,0,0,0,0,0,0,0,0,0,-1,1084,1261,0,0
-133,-237,0,0,0,0,0,0,0,0,0,-1,1091,1261,0,0
-126,-237,0,0,0,0,0,0,0,0,0,-1,1098,1261,0,0
-119,-237,0,0,0,0,0,0,0,0,0,-1,1105,1261,0,0
-112,-237,0,0,0,0,0,0,0,0,0,-1,1112,1261,0,0
-105,-237,0,0,0,0,0,0,0,0,0,-1,1119,1261,0,0
-98,-237,0,0,0,0,0,0,0,0,0,-1,1126,1261,0,0
-91,-237,0,0,0,0,0,0,0,0,0,-1,1133,1261,0,0
-84,-237,0,0,0,0,0,0,0,0,0,-1,1140,1261,0,0
-77,-237,0,0,0,0,0,0,0,0,0,-1,1147,1261,0,0
-70,-237,0,0,0,0,0,0,0,0,0,-1,1154,1261,0,0
-63,-237,0,0,0,0,0,0,0,0,0,-1,1161,1261,0,0
-56,-237,0,0,0,0,0,0,0,0,0,-1,1168,1261,0,0
-49,-237,0,0,0,0,0,0,0,0,0,-1,1175,1261,0,0
-42,-237,0,0,0,0,0,0,0,0,0,-1,1182,1261,0,0
-35,-237,0,0,0,0,0,0,0,0,0,-1,1189,1261,0,0
-28,-237,0,0,0,0,0,0,0,0,0,-1,1196,1261,0,0
-21,-237,0,0,0,0,0,0,0,0,0,-1,1203,1261,0,0
-14,-237,0,0,0,0,0,0,0,0,0,-1,1210,1261,0,0
-7,-237,0,0,0,0,0,0,0,0,0,-1,1217,1261,0,0
0,-237,0,0,0,0,0,0,0,0,0,-1,1224,1261,0,0
7,-237,0,0,0,0,0,0,0,0,0,-1,1231,1261,0,0
14,-237,0,0,0,0,0,0,0,0,0,-1,1238,1261,0,0
21,-237,0,0,0,0,0,0,0,0,0,-1,1245,1261,0,0
28,-237,0,0,0,0,0,0,0,0,0,-1,1252,1261,0,0
35,-237,0,0,0,0,0,0,0,0,0,-1,1259,1261,0,0
42,-237,0,0,0,0,0,0,0,0,0,-1,1266,1261,0,0
49,-237,0,0,0,0,0,0,0,0,0,-1,1273,1261,0,0
56,-237,0,0,0,0,0,0,0,0,0,-1,1280,1261,0,0
63,-237,0,0,0,0,0,0,0,0,0,-1,1287,1261,0,0
70,-237,0,0,0,0,0,0,0,0,0,-1,1294,1261,0,0
77,-237,0,0,0,0,0,0,0,0,0,-1,1301,1261,0,0
84,-237,0,0,0,0,0,0,0,0,0,-1,1308,1261,0,0
91,-237,0,0,0,0,0,0,0,0,0,-1,1315,1261,0,0
98,-237,0,0,0,0,0,0,0,0,0,-1,1322,1261,0,0
105,-237,0,0,0,0,0,0,0,0,0,-1,1329,1261,0,0
112,-237,0,0,0,0,0,0,0,0,0,-1,1336,1261,0,0
119,-237,0,0,0,0,0,0,0,0,0,-1,1343,1261,0,0
126,-237,0,0,0,0,0,0,0,0,0,-1,1350,1261,0,0
133,-237,0,0,0,0,0,0,0,0,0,-1,1357,1261,0,0
140,-237,0,0,0,0,0,0,0,0,0,-1,1364,1261,0,0
147,-237,0,0,0,0,0,0,0,0,0,-1,1371,1261,0,0
154,-237,0,0,0,0,0,0,0,0,0,-1,1378,1261,0,0
161,-237,0,0,0,0,0,0,0,0,0,-1,1385,1261,0,0
168,-237,0,0,0,0,0,0,0,0,0,-1,1392,1261,0,0
175,-237,0,0,0,0,0,0,0,0,0,-1,1399,1261,0,0
182,-237,0,0,0,0,0,0,0,0,0,-1,1406,1261,0,0
189,-237,0,0,0,0,0,0,0,0,0,-1,1413,1261,0,0
196,-237,0,0,0,0,0,0,0,0,0,-1,1420,1261,0,0
203,-237,0,0,0,0,0,0,0,0,0,-1,1427,1261,0,0
210,-237,0,0,0,0,0,0,0,0,0,-1,1434,1261,0,0
217,-237,0,0,0,0,0,0,0,0,0,-1,1441,1261,0,0
224,-237,0,0,0,0,0,0,0,0,0,-1,1448,1261,0,0
231,-237,0,0,0,0,0,0,0,0,0,-1,1455,1261,0,0
238,-237,0,0,0,0,0,0,0,0,0,-1,1462,1261,0,0
245,-237,0,0,0,0,0,0,0,0,0,-1,1469,1261,0,0
252,-237,0,0,0,0,0,0,0,0,0,-1,1476,1261,0,0
259,-237,0,0,0,0,0,0,0,0,0,-1,1483,1261,0,0
266,-237,0,0,0,0,0,0,0,0,0,-1,1490,1261,0,0
273,-237,0,0,0,0,0,0,0,0,0,-1,1497,1261,0,0
280,-237,0,0,0,0,0,0,0,0,0,-1,1504,1261,0,0
287,-237,0,0,0,0,0,0,0,0,0,-1,1511,1261,0,0
294,-237,0,0,0,0,0,0,0,0,0,-1,1518,1261,0,0
301,-237,0,0,0,0,0,0,0,0,0,-1,1525,1261,0,0
308,-237,0,0,0,0,0,0,0,0,0,-1,1532,1261,0,0
315,-237,0,0,0,0,0,0,0,0,0,-1,1539,1261,0,0
322,-237,0,0,0,0,0,0,0,0,0,-1,1546,1261,0,0
329,-237,0,0,0,0,0,0,0,0,0,-1,1553,1261,0,0
336,-237,0,0,0,0,0,0,0,0,0,-1,1560,1261,0,0
343,-237,0,0,0,0,0,0,0,0,0,-1,1567,1261,0,0
350,-237,0,0,0,0,0,0,0,0,0,-1,1574,1261,0,0
357,-237,0,0,0,0,0,0,0,0,0,-1,1581,1261,0,0
364,-237,0,0,0,0,0,0,0,0,0,-1,1588,1261,0,0
371,-237,0,0,0,0,0,0,0,0,0,-1,1595,1261,0,0
378,-237,0,0,0,0,0,0,0,0,0,-1,1602,1261,0,0
385,-237,0,0,0,0,0,0,0,0,0,-1,1609,1261,0,0
392,-237,0,0,0,0,0,0,0,0,0,-1,1616,1261,0,0
399,-237,0,0,0,0,0,0,0,0,0,-1,1623,1261,0,0
406,-237,0,0,0,0,0,0,0,0,0,-1,1630,1261,0,0
413,-237,0,0,0,0,0,0,0,0,0,-1,1637,1261,0,0
420,-237,0,0,0,0,0,0,0,0,0,-1,1644,1261,0,0
427,-237,0,0,0,0,0,0,0,0,0,-1,1651,1261,0,0
434,-237,0,0,0,0,0,0,0,0,0,-1,1658,1261,0,0
441,-237,0,0,0,0,0,0,0,0,0,-1,1665,1261,0,0
448,-237,0,0,0,0,0,0,0,0,0,-1,1672,1261,0,0
455,-237,0,0,0,0,0,0,0,0,0,-1,1679,1261,0,0
462,-237,0,0,0,0,0,0,0,0,0,-1,1686,1261,0,0
469,-237,0,0,0,0,0,0,0,0,0,-1,1693,1261,0,0
476,-237,0,0,0,0,0,0,0,0,0,-1,1700,1261,0,0
483,-237,0,0,0,0,0,0,0,0,0,-1,1707,1261,0,0
490,-237,0,0,0,0,0,0,0,0,0,-1,1714,1261,0,0
497,-237,0,0,0,0,0,0,0,0,0,-1,1721,1261,0,0
504,-237,0,0,0,0,0,0,0,0,0,-1,1728,1261,0,0
511,-237,0,0,0,0,0,0,0,0,0,-1,1735,1261,0,0
518,-237,0,0,0,0,0,0,0,0,0,-1,1742,1261,0,0
525,-237,0,0,0,0,0,0,0,0,0,-1,1749,1261,0,0
532,-237,0,0,0,0,0,0,0,0,0,-1,1756,1261,0,0
539,-237,0,0,0,0,0,0,0,0,0,-1,1763,1261,0,0
546,-237,0,0,0,0,0,0,0,0,0,-1,1770,1261,0,0
553,-237,0,0,0,0,0,0,0,0,0,-1,1777,1261,0,0
560,-237,0,0,0,0,0,0,0,0,0,-1,1784,1261,0,0
567,-237,0,0,0,0,0,0,0,0,0,-1,1791,1261,0,0
574,-237,0,0,0,0,0,0,0,0,0,-1,1798,1261,0,0
581,-237,0,0,0,0,0,0,0,0,0,-1,1805,1261,0,0
588,-237,0,0,0,0,0,0,0,0,0,-1,1812,1261,0,0
595,-237,0,0,0,0,0,0,0,0,0,-1,1819,1261,0,0
602,-237,0,0,0,0,0,0,0,0,0,-1,1826,1261,0,0
609,-237,0,0,0,0,0,0,0,0,0,-1,1833,1261,0,0
616,-237,0.0355225,0.122437,-0.00564038,0.00248542,-0.000768765,0.00255751,-0.00571247,-1.47729,0.00488912,0.0307399,1840,1261,0.0355254,-0.1224
623,-237,0.012207,0.0969238,0.00029867,0.00278861,-0.00196533,0.00387011,-0.000782836,-1.06773,0.00287675,0.0278582,1847,1261,0.0122157,-0.0969049
630,-237,-0.0130615,0.0599365,0.00369455,0.00246795,-0.00272841,0.00587774,0.000284765,-0.674844,0.00382711,0.0217475,1854,1261,-0.0131006,-0.0598779
637,-237,-0.0446777,0.0439453,0.00527523,0.00181449,-0.00323138,0.00721037,-0.000120653,-0.539581,0.00484763,0.0164505,1861,1261,-0.0446449,-0.0439302
644,-237,-0.0552979,0.0725098,0.00570878,0.00103331,-0.00346181,0.00754827,-0.000806167,-0.488423,0.00532129,0.030865,1868,1261,-0.0552646,-0.072529
651,-237,-0.0458984,0.223999,0,0,0,0,0,0,0,-1,1875,1261,-0.0458793,-0.223992
658,-237,0.200562,0.505371,0,0,0,0,0,0,0,-1,1882,1261,0.200522,-0.505376
665,-237,0.459961,0.687012,0,0,0,0,0,0,0,-1,1889,1261,0.459959,-0.686961
672,-237,0.269775,0.24939,0.00326924,-0.00126841,-0.00281581,0.00461654,-0.0026157,-0.446281,0.00422847,0.0433724,1896,1261,0.269796,-0.249342
679,-237,0.172607,0.263794,0.00234029,-0.00170361,-0.00244894,0.00349412,-0.00285744,-0.440307,0.00367321,0.0393147,1903,1261,0.172559,-0.263755
686,-237,0.055542,0.141968,0.00148683,-0.00177517,-0.00202602,0.00245678,-0.00274512,-0.446499,0.00300486,0.0253684,1910,1261,0.0554881,-0.142027
693,-237,-0.0201416,0.0473633,0.000753271,-0.00166343,-0.00171336,0.00164151,-0.00255167,-0.478277,0.00243987,0.0121691,1917,1261,-0.0201883,-0.0473677
700,-237,-0.0316162,0.0368652,-6.61533e-05,-0.00151331,-0.00130484,0.000702306,-0.00228177,-0.53224,0.00180151,0.00995176,1924,1261,-0.0315813,-0.0368596
707,-237,-0.0187988,0.0397949,-0.000868356,-0.00134656,-0.000846956,-0.000227399,-0.00198752,-0.647824,0.00125609,0.0085135,1931,1261,-0.0187478,-0.0397428
714,-237,-0.00537109,0.0421143,-0.00166343,-0.00102769,-0.000537833,-0.000720815,-0.0019703,-1.05229,0.00115112,0.0107327,1938,1261,-0.0053915,-0.0420713
721,-237,-0.0172119,0.0389404,-0.00224809,-0.000363077,-8.15762e-05,-0.000359553,-0.00225162,-1.52763,0.00139674,0.0117887,1945,1261,-0.0172271,-0.0388963
728,-237,-0.0101318,0.0462646,-0.00258115,3.46951e-05,-5.69574e-05,3.59346e-05,-0.00258239,-1.54904,0.0017337,0.011969,1952,1261,-0.0101738,-0.0462523
735,-237,-0.0231934,0.0361328,-0.00351707,0.000105806,0.000304528,0.000131226,-0.00354249,1.48752,0.00240659,0.0170515,1959,1261,-0.023232,-0.0361576
742,-237,-0.0238037,0.029541,-0.00447399,0.000916626,0.000530276,0.000968294,-0.00452566,1.47367,0.00338634,0.01369,1966,1261,-0.0238458,-0.0295746
749,-237,-0.038208,0.0462646,-0.00574302,0.00126731,0.000769079,0.00135069,-0.0058264,1.4628,0.00440409,0.0091079,1973,1261,-0.0381964,-0.0462716
756,-237,-0.0692139,0.017334,-0.00721835,0.00183964,0.00108282,0.00196729,-0.007346,1.45346,0.00566806,0.0123954,1980,1261,-0.069176,-0.017287
763,-237,-0.153687,-0.0827637,-0.00874808,0.00260723,0.00157449,0.0028215,-0.00896235,1.43554,0.00710467,0.0264216,1987,1261,-0.15368,0.0827905
770,-237,-0.444214,0.0917969,-0.0103243,0.00364486,0.00230477,0.0040153,-0.0106948,1.41143,0.00877987,0.0404647,1994,1261,-0.444239,-0.0918307
777,-237,-0.476074,0.00439453,-0.0119058,0.00503767,0.00337222,0.00568417,-0.0125523,1.38138,0.0107749,0.040899,2001,1261,-0.476018,-0.00439815
784,-237,-0.400757,-0.0458984,0,0,0,0,0,0,0,-1,2008,1261,-0.400712,0.0459454
791,-237,0.110596,0.286255,0,0,0,0,0,0,0,-1,2015,1261,0.110598,-0.28628
798,-237,0,0,0,0,0,0,0,0,0,-1,2022,1261,0,0
805,-237,0,0,0,0,0,0,0,0,0,-1,2029,1261,0,0
812,-237,0,0,0,0,0,0,0,0,0,-1,2036,1261,0,0
-700,-244,0,0,0,0,0,0,0,0,0,-1,524,1268,0,0
-693,-244,0,0,0,0,0,0,0,0,0,-1,531,1268,0,0
-686,-244,0,0,0,0,0,0,0,0,0,-1,538,1268,0,0
-679,-244,0,0,0,0,0,0,0,0,0,-1,545,1268,0,0
-672,-244,0.122742,-1.36609,0,0,0,0,0,0,0,-1,552,1268,0.122726,1.36612
-665,-244,0.236938,-1.06079,-0.0024643,0.0296012,0.0145296,0.0352055,-0.00806853,1.20267,0.0265714,0.0499895,559,1268,0.236909,1.06084
-658,-244,0.231628,-0.815308,-0.00283286,0.0230317,0.0110387,0.0271023,-0.00690344,1.21751,0.0207556,0.0456193,566,1268,0.231645,0.815254
-651,-244,0.222717,-0.609009,-0.0030544,0.0177079,0.00807865,0.020481,-0.00582745,1.24014,0.0159552,0.0438794,573,1268,0.222722,0.609024
-644,-244,-0.0604858,-0.00463867,-0.0030885,0.0134284,0.00565412,0.0151785,-0.00483861,1.27062,0.0120599,0.0475329,580,1268,-0.0604883,0.00464984
-637,-244,0.416382,0.534546,0,0,0,0,0,0,0,-1,587,1268,0.416378,-0.534516
-630,-244,0.191956,0.314819,-0.00268055,0.00735868,0.00224297,0.00783701,-0.00315888,1.36068,0.00653719,0.0438415,594,1268,0.191952,-0.314837
-623,-244,-0.0150757,0.202637,-0.00235058,0.00518601,0.00115795,0.0053599,-0.00252448,1.42173,0.00464913,0.0316378,601,1268,-0.0150709,-0.202602
-616,-244,-0.0757446,0.103516,-0.00199904,0.00368925,0.000366564,0.00371277,-0.00202256,1.50671,0.00335888,0.0151589,608,1268,-0.0757181,-0.103472
-609,-244,-0.0371094,0.0517578,-0.00169411,0.00201004,-0.000195555,0.00202034,-0.0017044,-1.5182,0.00215306,0.0145684,615,1268,-0.0371388,-0.0517008
-602,-244,-0.0235596,0.0240479,-0.00165836,0.00115179,-0.000383135,0.00120309,-0.00170966,-1.43769,0.00169013,0.0139747,622,1268,-0.0235859,-0.0239962
-595,-244,-0.0106201,0.019043,-0.00166861,0.00118454,-0.000416892,0.00124421,-0.00172828,-1.42864,0.00172374,0.0153067,629,1268,-0.010643,-0.0190184
-588,-244,-0.0134888,0.0427246,-0.00155974,0.000490187,-0.000107759,0.000495836,-0.00156539,-1.51842,0.0012423,0.0196943,636,1268,-0.013494,-0.0427848
-581,-244,-0.0206299,0.0307617,-0.00154932,0.000147772,0.000460698,0.000264769,-0.00166631,1.3221,0.00120884,0.0166007,643,1268,-0.0206381,-0.0307197
-574,-244,-0.0355835,0.0349121,-0.00141277,-8.7083e-05,0.000894318,0.000363252,-0.00186311,1.10431,0.00137919,0.0118687,650,1268,-0.0356026,-0.034908
-567,-244,-0.0227051,0.0397949,-0.000959957,-0.000569461,0.00105609,0.000309281,-0.0018387,0.876805,0.00134084,0.00915192,657,1268,-0.0227344,-0.0397469
-560,-244,-0.00787354,0.0158691,-0.00084737,-0.000943964,0.0012484,0.000353663,-0.002145,0.766064,0.0015613,0.0100963,664,1268,-0.00784894,-0.0158328
-553,-244,-0.0227051,0.0480957,-0.000515243,-0.00206056,0.00136691,0.000282271,-0.00285807,0.528157,0.0020061,0.0287749,671,1268,-0.0227201,-0.0480759
-546,-244,-0.00268555,0.0128174,3.33581e-05,-0.0032855,0.00120163,0.000422736,-0.00367488,0.313365,0.0026023,0.0481305,678,1268,-0.00270478,-0.0128078
-539,-244,-0.138611,-0.0419922,0.000786504,-0.00404204,0.000745181,0.000898891,-0.00415443,0.14969,0.00311281,0.0419638,685,1268,-0.138604,0.0419725
-532,-244,-0.243774,0.383057,0.00163237,-0.00487622,0.000175756,0.00163711,-0.00488096,0.0269774,0.00391547,0.0453673,692,1268,-0.243804,-0.383028
-525,-244,-0.14502,0.6604,0,0,0,0,0,0,0,-1,699,1268,-0.145023,-0.66043
-518,-244,-0.254211,0.39563,0.00322659,-0.00672554,-0.00147079,0.0034394,-0.00693835,-0.143695,0.00610406,0.0461588,706,1268,-0.254216,-0.395613
-511,-244,0.0317993,-0.0178223,0.00377453,-0.00724949,-0.00265822,0.00438203,-0.00785699,-0.224677,0.00716051,0.0432861,713,1268,0.0318093,0.0178111
-504,-244,-0.00506592,0.0330811,0.00389785,-0.00707034,-0.00409132,0.00525585,-0.00842834,-0.320479,0.00797103,0.0420609,720,1268,-0.00504382,-0.0330938
-497,-244,0.0141602,-0.152222,0.0033122,-0.0055949,-0.00578131,0.00615643,-0.00843913,-0.457203,0.00846103,0.0430029,727,1268,0.014188,0.152232
-490,-244,0,0,0,0,0,0,0,0,0,-1,734,1268,0,0
-483,-244,0,0,0,0,0,0,0,0,0,-1,741,1268,0,0
-476,-244,0,0,0,0,0,0,0,0,0,-1,748,1268,0,0
-469,-244,0,0,0,0,0,0,0,0,0,-1,755,1268,0,0
-462,-244,0,0,0,0,0,0,0,0,0,-1,762,1268,0,0
-455,-244,0,0,0,0,0,0,0,0,0,-1,769,1268,0,0
-448,-244,0,0,0,0,0,0,0,0,0,-1,776,1268,0,0
-441,-244,0,0,0,0,0,0,0,0,0,-1,783,1268,0,0
-434,-244,0,0,0,0,0,0,0,0,0,-1,790,1268,0,0
-427,-244,0,0,0,0,0,0,0,0,0,-1,797,1268,0,0
-420,-244,0,0,0,0,0,0,0,0,0,-1,804,1268,0,0
-413,-244,0,0,0,0,0,0,0,0,0,-1,811,1268,0,0
-406,-244,0,0,0,0,0,0,0,0,0,-1,818,1268,0,0
-399,-244,0,0,0,0,0,0,0,0,0,-1,825,1268,0,0
-392,-244,0,0,0,0,0,0,0,0,0,-1,832,1268,0,0
-385,-244,0,0,0,0,0,0,0,0,0,-1,839,1268,0,0
-378,-244,0,0,0,0,0,0,0,0,0,-1,846,1268,0,0
-371,-244,0,0,0,0,0,0,0,0,0,-1,853,1268,0,0
-364,-244,0,0,0,0,0,0,0,0,0,-1,860,1268,0,0
-357,-244,0,0,0,0,0,0,0,0,0,-1,867,1268,0,0
-350,-244,0,0,0,0,0,0,0,0,0,-1,874,1268,0,0
-343,-244,0,0,0,0,0,0,0,0,0,-1,881,1268,0,0
-336,-244,0,0,0,0,0,0,0,0,0,-1,888,1268,0,0
-329,-244,0,0,0,0,0,0,0,0,0,-1,895,1268,0,0
-322,-244,0,0,0,0,0,0,0,0,0,-1,902,1268,0,0
-315,-244,0,0,0,0,0,0,0,0,0,-1,909,1268,0,0
-308,-244,0,0,0,0,0,0,0,0,0,-1,916,1268,0,0
-301,-244,0,0,0,0,0,0,0,0,0,-1,923,1268,0,0
-294,-244,0,0,0,0,0,0,0,0,0,-1,930,1268,0,0
-287,-244,0,0,0,0,0,0,0,0,0,-1,937,1268,0,0
-280,-244,0,0,0,0,0,0,0,0,0,-1,944,1268,0,0
-273,-244,0,0,0,0,0,0,0,0,0,-1,951,1268,0,0
-266,-244,0,0,0,0,0,0,0,0,0,-1,958,1268,0,0
-259,-244,0,0,0,0,0,0,0,0,0,-1,965,1268,0,0
-252,-244,0,0,0,0,0,0,0,0,0,-1,972,1268,0,0
-245,-244,0,0,0,0,0,0,0,0,0,-1,979,1268,0,0
-238,-244,0,0,0,0,0,0,0,0,0,-1,986,1268,0,0
-231,-244,0,0,0,0,0,0,0,0,0,-1,993,1268,0,0
-224,-244,0,0,0,0,0,0,0,0,0,-1,1000,1268,0,0
-217,-244,0,0,0,0,0,0,0,0,0,-1,1007,1268,0,0
-210,-244,0,0,0,0,0,0,0,0,0,-1,1014,1268,0,0
-203,-244,0,0,0,0,0,0,0,0,0,-1,1021,1268,0,0
-196,-244,0,0,0,0,0,0,0,0,0,-1,1028,1268,0,0
-189,-244,0,0,0,0,0,0,0,0,0,-1,1035,1268,0,0
-182,-244,0,0,0,0,0,0,0,0,0,-1,1042,1268,0,0
-175,-244,0,0,0,0,0,0,0,0,0,-1,1049,1268,0,0
-168,-244,0,0,0,0,0,0,0,0,0,-1,1056,1268,0,0
-161,-244,0,0,0,0,0,0,0,0,0,-1,1063,1268,0,0
-154,-244,0,0,0,0,0,0,0,0,0,-1,1070,1268,0,0
-147,-244,0,0,0,0,0,0,0,0,0,-1,1077,1268,0,0
-140,-244,0,0,0,0,0,0,0,0,0,-1,1084,1268,0,0
-133,-244,0,0,0,0,0,0,0,0,0,-1,1091,1268,0,0
-126,-244,0,0,0,0,0,0,0,0,0,-1,1098,1268,0,0
-119,-244,0,0,0,0,0,0,0,0,0,-1,1105,1268,0,0
-112,-244,0,0,0,0,0,0,0,0,0,-1,1112,1268,0,0
-105,-244,0,0,0,0,0,0,0,0,0,-1,1119,1268,0,0
-98,-244,0,0,0,0,0,0,0,0,0,-1,1126,1268,0,0
-91,-244,0,0,0,0,0,0,0,0,0,-1,1133,1268,0,0
-84,-244,0,0,0,0,0,0,0,0,0,-1,1140,1268,0,0
-77,-244,0,0,0,0,0,0,0,0,0,-1,1147,1268,0,0
-70,-244,0,0,0,0,0,0,0,0,0,-1,1154,1268,0,0
-63,-244,0,0,0,0,0,0,0,0,0,-1,1161,1268,0,0
-56,-244,0,0,0,0,0,0,0,0,0,-1,1168,1268,0,0
-49,-244,0,0,0,0,0,0,0,0,0,-1,1175,1268,0,0
-42,-244,0,0,0,0,0,0,0,0,0,-1,1182,1268,0,0
-35,-244,0,0,0,0,0,0,0,0,0,-1,1189,1268,0,0
-28,-244,0,0,0,0,0,0,0,0,0,-1,1196,1268,0,0
-21,-244,0,0,0,0,0,0,0,0,0,-1,1203,1268,0,0
-14,-244,0,0,0,0,0,0,0,0,0,-1,1210,1268,0,0
-7,-244,0,0,0,0,0,0,0,0,0,-1,1217,1268,0,0
0,-244,0,0,0,0,0,0,0,0,0,-1,1224,1268,0,0
7,-244,0,0,0,0,0,0,0,0,0,-1,1231,1268,0,0
14,-244,0,0,0,0,0,0,0,0,0,-1,1238,1268,0,0
21,-244,0,0,0,0,0,0,0,0,0,-1,1245,1268,0,0
28,-244,0,0,0,0,0,0,0,0,0,-1,1252,1268,0,0
35,-244,0,0,0,0,0,0,0,0,0,-1,1259,1268,0,0
42,-244,0,0,0,0,0,0,0,0,0,-1,1266,1268,0,0
49,-244,0,0,0,0,0,0,0,0,0,-1,1273,1268,0,0
56,-244,0,0,0,0,0,0,0,0,0,-1,1280,1268,0,0
63,-244,0,0,0,0,0,0,0,0,0,-1,1287,1268,0,0
70,-244,0,0,0,0,0,0,0,0,0,-1,1294,1268,0,0
77,-244,0,0,0,0,0,0,0,0,0,-1,1301,1268,0,0
84,-244,0,0,0,0,0,0,0,0,0,-1,1308,1268,0,0
91,-244,0,0,0,0,0,0,0,0,0,-1,1315,1268,0,0
98,-244,0,0,0,0,0,0,0,0,0,-1,1322,1268,0,0
105,-244,0,0,0,0,0,0,0,0,0,-1,1329,1268,0,0
112,-244,0,0,0,0,0,0,0,0,0,-1,1336,1268,0,0
119,-244,0,0,0,0,0,0,0,0,0,-1,1343,1268,0,0
126,-244,0,0,0,0,0,0,0,0,0,-1,1350,1268,0,0
133,-244,0,0,0,0,0,0,0,0,0,-1,1357,1268,0,0
140,-244,0,0,0,0,0,0,0,0,0,-1,1364,1268,0,0
147,-244,0,0,0,0,0,0,0,0,0,-1,1371,1268,0,0
154,-244,0,0,0,0,0,0,0,0,0,-1,1378,1268,0,0
161,-244,0,0,0,0,0,0,0,0,0,-1,1385,1268,0,0
168,-244,0,0,0,0,0,0,0,0,0,-1,1392,1268,0,0
175,-244,0,0,0,0,0,0,0,0,0,-1,1399,1268,0,0
182,-244,0,0,0,0,0,0,0,0,0,-1,1406,1268,0,0
189,-244,0,0,0,0,0,0,0,0,0,-1,1413,1268,0,0
196,-244,0,0,0,0,0,0,0,0,0,-1,1420,1268,0,0
203,-244,0,0,0,0,0,0,0,0,0,-1,1427,1268,0,0
210,-244,0,0,0,0,0,0,0,0,0,-1,1434,1268,0,0
217,-244,0,0,0,0,0,0,0,0,0,-1,1441,1268,0,0
224,-244,0,0,0,0,0,0,0,0,0,-1,1448,1268,0,0
231,-244,0,0,0,0,0,0,0,0,0,-1,1455,1268,0,0
238,-244,0,0,0,0,0,0,0,0,0,-1,1462,1268,0,0
245,-244,0,0,0,0,0,0,0,0,0,-1,1469,1268,0,0
252,-244,0,0,0,0,0,0,0,0,0,-1,1476,1268,0,0
259,-244,0,0,0,0,0,0,0,0,0,-1,1483,1268,0,0
266,-244,0,0,0,0,0,0,0,0,0,-1,1490,1268,0,0
273,-244,0,0,0,0,0,0,0,0,0,-1,1497,1268,0,0
280,-244,0,0,0,0,0,0,0,0,0,-1,1504,1268,0,0
287,-244,0,0,0,0,0,0,0,0,0,-1,1511,1268,0,0
294,-244,0,0,0,0,0,0,0,0,0,-1,1518,1268,0,0
301,-244,0,0,0,0,0,0,0,0,0,-1,1525,1268,0,0
308,-244,0,0,0,0,0,0,0,0,0,-1,1532,1268,0,0
315,-244,0,0,0,0,0,0,0,0,0,-1,1539,1268,0,0
322,-244,0,0,0,0,0,0,0,0,0,-1,1546,1268,0,0
329,-244,0,0,0,0,0,0,0,0,0,-1,1553,1268,0,0
336,-244,0,0,0,0,0,0,0,0,0,-1,1560,1268,0,0
343,-244,0,0,0,0,0,0,0,0,0,-1,1567,1268,0,0
350,-244,0,0,0,0,0,0,0,0,0,-1,1574,1268,0,0
357,-244,0,0,0,0,0,0,0,0,0,-1,1581,1268,0,0
364,-244,0,0,0,0,0,0,0,0,0,-1,1588,1268,0,0
371,-244,0,0,0,0,0,0,0,0,0,-1,1595,1268,0,0
378,-244,0,0,0,0,0,0,0,0,0,-1,1602,1268,0,0
385,-244,0,0,0,0,0,0,0,0,0,-1,1609,1268,0,0
392,-244,0,0,0,0,0,0,0,0,0,-1,1616,1268,0,0
399,-244,0,0,0,0,0,0,0,0,0,-1,1623,1268,0,0
406,-244,0,0,0,0,0,0,0,0,0,-1,1630,1268,0,0
413,-244,0,0,0,0,0,0,0,0,0,-1,1637,1268,0,0
420,-244,0,0,0,0,0,0,0,0,0,-1,1644,1268,0,0
427,-244,0,0,0,0,0,0,0,0,0,-1,1651,1268,0,0
434,-244,0,0,0,0,0,0,0,0,0,-1,1658,1268,0,0
441,-244,0,0,0,0,0,0,0,0,0,-1,1665,1268,0,0
448,-244,0,0,0,0,0,0,0,0,0,-1,1672,1268,0,0
455,-244,0,0,0,0,0,0,0,0,0,-1,1679,1268,0,0
462,-244,0,0,0,0,0,0,0,0,0,-1,1686,1268,0,0
469,-244,0,0,0,0,0,0,0,0,0,-1,1693,1268,0,0
476,-244,0,0,0,0,0,0,0,0,0,-1,1700,1268,0,0
483,-244,0,0,0,0,0,0,0,0,0,-1,1707,1268,0,0
490,-244,0,0,0,0,0,0,0,0,0,-1,1714,1268,0,0
497,-244,0,0,0,0,0,0,0,0,0,-1,1721,1268,0,0
504,-244,0,0,0,0,0,0,0,0,0,-1,1728,1268,0,0
511,-244,0,0,0,0,0,0,0,0,0,-1,1735,1268,0,0
518,-244,0,0,0,0,0,0,0,0,0,-1,1742,1268,0,0
525,-244,0,0,0,0,0,0,0,0,0,-1,1749,1268,0,0
532,-244,0,0,0,0,0,0,0,0,0,-1,1756,1268,0,0
539,-244,0,0,0,0,0,0,0,0,0,-1,1763,1268,0,0
546,-244,0,0,0,0,0,0,0,0,0,-1,1770,1268,0,0
553,-244,0,0,0,0,0,0,0,0,0,-1,1777,1268,0,0
560,-244,0,0,0,0,0,0,0,0,0,-1,1784,1268,0,0
567,-244,0,0,0,0,0,0,0,0,0,-1,1791,1268,0,0
574,-244,0,0,0,0,0,0,0,0,0,-1,1798,1268,0,0
581,-244,0,0,0,0,0,0,0,0,0,-1,1805,1268,0,0
588,-244,0,0,0,0,0,0,0,0,0,-1,1812,1268,0,0
595,-244,0,0,0,0,0,0,0,0,0,-1,1819,1268,0,0
602,-244,0,0,0,0,0,0,0,0,0,-1,1826,1268,0,0
609,-244,0,0,0,0,0,0,0,0,0,-1,1833,1268,0,0
616,-244,-0.00537109,0.102417,-0.00432219,0.00237595,-0.00340534,0.00380313,-0.00574938,-1.17393,0.00555317,0.0305546,1840,1268,-0.00539403,-0.102475
623,-244,-0.019043,0.0742188,0.00133349,0.00302081,-0.00420111,0.00646213,-0.00210783,-0.88449,0.00515636,0.0241958,1847,1268,-0.0190484,-0.0742648
630,-244,-0.00268555,0.0795898,0.00463915,0.00291897,-0.00459116,0.00845009,-0.000891969,-0.692804,0.00595303,0.0205501,1854,1268,-0.00269929,-0.0796233
637,-244,-0.0209961,0.107788,0.00616994,0.00240648,-0.00470523,0.00935577,-0.00077934,-0.595178,0.00651252,0.0313769,1861,1268,-0.0210396,-0.107795
644,-244,-0.0234375,0.212891,0.00659021,0.00173827,-0.00460708,0.00937102,-0.00104253,-0.543058,0.00662227,0.0391153,1868,1268,-0.0234347,-0.212948
651,-244,-0.116333,0.68811,0,0,0,0,0,0,0,-1,1875,1268,-0.116353,-0.688079
658,-244,0.142334,0.55127,0.00573031,0.000545871,-0.00396112,0.00787202,-0.00159583,-0.495661,0.00585293,0.0458769,1882,1268,0.142387,-0.551314
665,-244,0.236694,0.337646,0.0049057,6.33763e-05,-0.00353419,0.00676852,-0.00179945,-0.485081,0.00521666,0.0444766,1889,1268,0.236735,-0.337696
672,-244,0.33252,0.376587,0.00398151,-0.000450745,-0.00309369,0.00557092,-0.00204016,-0.474595,0.00454913,0.0446733,1896,1268,0.332536,-0.376531
679,-244,-0.0123291,0.0863037,0.00288916,-0.00107292,-0.00262285,0.00419503,-0.0023788,-0.461955,0.00384339,0.0389844,1903,1268,-0.0123864,-0.0863418
686,-244,-0.0238037,0.076416,0.00181705,-0.00119587,-0.00212384,0.00291446,-0.00229328,-0.476925,0.00301381,0.0181809,1910,1268,-0.0237667,-0.0764167
693,-244,-0.0484619,0.055542,0.000880463,-0.00114062,-0.00172599,0.00186998,-0.00213013,-0.520559,0.00231109,0.00864621,1917,1268,-0.0484525,-0.0555389
700,-244,-0.0516357,0.0466309,-0.0001316,-0.00105668,-0.00124737,0.000736223,-0.0019245,-0.607851,0.00158641,0.00787254,1924,1268,-0.0515926,-0.0466001
707,-244,-0.0291748,0.0389404,-0.00105635,-0.00102542,-0.000758735,-0.00028199,-0.00179977,-0.795587,0.00111777,0.00859834,1931,1268,-0.0291725,-0.0389731
714,-244,0.00695801,0.0445557,-0.0018036,-0.000863235,-0.000498289,-0.000648316,-0.00201851,-1.16359,0.00118997,0.00896823,1938,1268,0.00691366,-0.0445721
721,-244,-0.00512695,0.0473633,-0.00236316,-0.000195774,-0.00010161,-0.000191021,-0.00236792,-1.52405,0.00151895,0.00923814,1945,1268,-0.00511576,-0.047411
728,-244,-0.0180664,0.0534668,-0.00267727,0.000316563,-0.000141358,0.000323222,-0.00268393,-1.52372,0.00190619,0.0123504,1952,1268,-0.0181136,-0.0534379
735,-244,-0.0113525,0.0467529,-0.0036067,0.000394753,0.000136604,0.000399411,-0.00361136,1.53671,0.00255115,0.0192203,1959,1268,-0.0113929,-0.0467009
742,-244,-0.0112305,0.0397949,-0.00459901,0.00128992,0.000293465,0.00130451,-0.0046136,1.52113,0.00359045,0.0142185,1966,1268,-0.0112052,-0.0397684
749,-244,-0.0380859,0.0336914,-0.00594102,0.00194175,0.000428855,0.00196501,-0.00596428,1.51661,0.00476812,0.0169418,1973,1268,-0.0380802,-0.0337324
756,-244,-0.121704,0.0179443,-0.0075315,0.0028692,0.000622537,0.00290633,-0.00756863,1.51122,0.00624421,0.0232706,1980,1268,-0.121657,-0.0179805
763,-244,-0.283936,-0.0368652,-0.00928875,0.00413769,0.000956488,0.00420548,-0.00935655,1.50003,0.00801609,0.036366,1987,1268,-0.28398,0.0368205
770,-244,-0.526123,0.255371,-0.0112368,0.00585572,0.00149564,0.00598561,-0.0113667,1.48417,0.0101776,0.0399707,1994,1268,-0.526162,-0.25537
777,-244,-0.73877,0.136841,-0.013398,0.00815805,0.00234267,0.0084097,-0.0136497,1.46378,0.0128552,0.0419222,2001,1268,-0.738766,-0.136869
784,-244,-1.17517,-0.0358887,-0.0157154,0.0112202,0.00363263,0.0117016,-0.0161967,1.43907,0.0161766,0.0433456,2008,1268,-1.17522,0.0359274
791,-244,0,0,0,0,0,0,0,0,0,-1,2015,1268,0,0
798,-244,0,0,0,0,0,0,0,0,0,-1,2022,1268,0,0
805,-244,0,0,0,0,0,0,0,0,0,-1,2029,1268,0,0
812,-244,0,0,0,0,0,0,0,0,0,-1,2036,1268,0,0
-700,-251,0,0,0,0,0,0,0,0,0,-1,524,1275,0,0
-693,-251,0,0,0,0,0,0,0,0,0,-1,531,1275,0,0
-686,-251,0,0,0,0,0,0,0,0,0,-1,538,1275,0,0
-679,-251,0,0,0,0,0,0,0,0,0,-1,545,1275,0,0
-672,-251,0,0,0,0,0,0,0,0,0,-1,552,1275,0,0
-665,-251,0.666382,-1.85779,-0.00687749,0.0241881,0.0138121,0.0294409,-0.0121303,1.20738,0.024685,0.0450716,559,1275,0.666396,1.85773
-658,-251,0.378479,-1.31958,-0.00683136,0.0188019,0.0102927,0.0224232,-0.0104526,1.23249,0.0193958,0.0423127,566,1275,0.378496,1.31952
-651,-251,0.270569,-0.630493,-0.00650575,0.0145401,0.00738649,0.0168737,-0.00883943,1.26478,0.0150851,0.0415945,573,1275,0.270572,0.630461
-644,-251,0.136047,-0.246582,-0.00594883,0.0111543,0.00505631,0.0125373,-0.00733183,1.30381,0.0116019,0.0432799,580,1275,0.136018,0.24662
-637,-251,0.0775146,-0.0909424,-0.00522151,0.00848214,0.00323865,0.009209,-0.00594836,1.35002,0.00881834,0.04525,587,1275,0.0775202,0.0909043
-630,-251,0.0742188,0.171509,-0.00442177,0.00638176,0.0018722,0.00669701,-0.00473702,1.40398,0.00663369,0.0443839,594,1275,0.0742385,-0.171474
-623,-251,-0.0350952,0.200562,-0.00361612,0.00469473,0.000893971,0.00478981,-0.0037112,1.46484,0.00492121,0.0360076,601,1275,-0.0351045,-0.200572
-616,-251,-0.0349121,0.0908203,-0.00287388,0.00347281,0.00019972,0.00347909,-0.00288016,1.53937,0.00367694,0.0192237,608,1275,-0.034909,-0.0908446
-609,-251,-0.0458374,0.039917,-0.00221795,0.00195243,-0.000304785,0.00197458,-0.00224011,-1.49823,0.00243496,0.0194469,615,1275,-0.0458663,-0.0398824
-602,-251,-0.0307007,0.0318604,-0.00185966,0.0011011,-0.000478399,0.00117648,-0.00193504,-1.41451,0.00181415,0.0146772,622,1275,-0.0307251,-0.031888
-595,-251,-0.0209351,0.0314941,-0.0015954,0.00115559,-0.000512656,0.00124802,-0.00168783,-1.39242,0.00170134,0.0126238,629,1275,-0.0209564,-0.0315395
-588,-251,-0.00854492,0.0385742,-0.00130385,0.000490983,-0.000238427,0.000522115,-0.00133499,-1.44096,0.00110591,0.0146314,636,1275,-0.00856876,-0.0385708
-581,-251,-0.0152588,0.0522461,-0.00112643,5.43475e-05,0.000288923,0.000121253,-0.00119334,1.34324,0.000838902,0.0131775,643,1275,-0.0152764,-0.0522432
-574,-251,-0.0244141,0.0626221,-0.000900953,-0.000125801,0.000661906,0.000253653,-0.00128041,1.05026,0.000949517,0.0120206,650,1275,-0.0244147,-0.0625908
-567,-251,-0.0457764,0.0368652,-0.000463453,-0.0005747,0.000821206,0.000304011,-0.00134216,0.751583,0.00101146,0.0104454,657,1275,-0.0458043,-0.0368167
-560,-251,-0.0385742,0.0245361,-0.000434766,-0.000848366,0.00105679,0.000435271,-0.0017184,0.688776,0.00131493,0.00977941,664,1275,-0.0385621,-0.024551
-553,-251,-0.0181274,0.0528564,1.19111e-05,-0.00192258,0.00116113,0.000555886,-0.00246656,0.438121,0.0018576,0.0212026,671,1275,-0.0181316,-0.0528289
-546,-251,-0.053833,0.0032959,0.000596458,-0.0031056,0.000998225,0.000848465,-0.00335761,0.247288,0.00256838,0.0415869,678,1275,-0.0538406,-0.00325205
-539,-251,-0.194275,0.0986328,0.00121671,-0.00365578,0.00055507,0.00127914,-0.00371821,0.112007,0.00299758,0.0421176,685,1275,-0.194278,-0.0986361
-532,-251,-0.122192,0.0771484,0.00187394,-0.00423684,4.41358e-05,0.00187426,-0.00423715,0.00722212,0.00361527,0.0455608,692,1275,-0.122188,-0.0771795
-525,-251,0.0688477,-0.0228271,0,0,0,0,0,0,0,-1,699,1275,0.068872,0.022837
-518,-251,-0.173096,0.110474,0.00293911,-0.00572493,-0.00136292,0.00314845,-0.00593427,-0.152405,0.00532549,0.0466844,706,1275,-0.173116,-0.110488
-511,-251,0.186584,-0.199829,0.00316102,-0.00614039,-0.00242735,0.00375637,-0.00673574,-0.240519,0.00613849,0.0413176,713,1275,0.186581,0.199855
-504,-251,-0.0765991,0.153809,0.00292313,-0.00596077,-0.00372598,0.00427893,-0.00731657,-0.348982,0.0067708,0.039964,720,1275,-0.0766236,-0.153865
-497,-251,0.0369873,-0.048584,0.00191622,-0.00462532,-0.00529069,0.00486552,-0.00757463,-0.508546,0.00723887,0.0422087,727,1275,0.0369612,0.0485699
-490,-251,0,0,0,0,0,0,0,0,0,-1,734,1275,0,0
-483,-251,0,0,0,0,0,0,0,0,0,-1,741,1275,0,0
-476,-251,0,0,0,0,0,0,0,0,0,-1,748,1275,0,0
-469,-251,0,0,0,0,0,0,0,0,0,-1,755,1275,0,0
-462,-251,0,0,0,0,0,0,0,0,0,-1,762,1275,0,0
-455,-251,0,0,0,0,0,0,0,0,0,-1,769,1275,0,0
-448,-251,0,0,0,0,0,0,0,0,0,-1,776,1275,0,0
-441,-251,0,0,0,0,0,0,0,0,0,-1,783,1275,0,0
-434,-251,0,0,0,0,0,0,0,0,0,-1,790,1275,0,0
-427,-251,0,0,0,0,0,0,0,0,0,-1,797,1275,0,0
-420,-251,0,0,0,0,0,0,0,0,0,-1,804,1275,0,0
-413,-251,0,0,0,0,0,0,0,0,0,-1,811,1275,0,0
-406,-251,0,0,0,0,0,0,0,0,0,-1,818,1275,0,0
-399,-251,0,0,0,0,0,0,0,0,0,-1,825,1275,0,0
-392,-251,0,0,0,0,0,0,0,0,0,-1,832,1275,0,0
-385,-251,0,0,0,0,0,0,0,0,0,-1,839,1275,0,0
-378,-251,0,0,0,0,0,0,0,0,0,-1,846,1275,0,0
-371,-251,0,0,0,0,0,0,0,0,0,-1,853,1275,0,0
-364,-251,0,0,0,0,0,0,0,0,0,-1,860,1275,0,0
-357,-251,0,0,0,0,0,0,0,0,0,-1,867,1275,0,0
-350,-251,0,0,0,0,0,0,0,0,0,-1,874,1275,0,0
-343,-251,0,0,0,0,0,0,0,0,0,-1,881,1275,0,0
-336,-251,0,0,0,0,0,0,0,0,0,-1,888,1275,0,0
-329,-251,0,0,0,0,0,0,0,0,0,-1,895,1275,0,0
-322,-251,0,0,0,0,0,0,0,0,0,-1,902,1275,0,0
-315,-251,0,0,0,0,0,0,0,0,0,-1,909,1275,0,0
-308,-251,0,0,0,0,0,0,0,0,0,-1,916,1275,0,0
-301,-251,0,0,0,0,0,0,0,0,0,-1,923,1275,0,0
-294,-251,0,0,0,0,0,0,0,0,0,-1,930,1275,0,0
-287,-251,0,0,0,0,0,0,0,0,0,-1,937,1275,0,0
-280,-251,0,0,0,0,0,0,0,0,0,-1,944,1275,0,0
-273,-251,0,0,0,0,0,0,0,0,0,-1,951,1275,0,0
-266,-251,0,0,0,0,0,0,0,0,0,-1,958,1275,0,0
-259,-251,0,0,0,0,0,0,0,0,0,-1,965,1275,0,0
-252,-251,0,0,0,0,0,0,0,0,0,-1,972,1275,0,0
-245,-251,0,0,0,0,0,0,0,0,0,-1,979,1275,0,0
-238,-251,0,0,0,0,0,0,0,0,0,-1,986,1275,0,0
-231,-251,0,0,0,0,0,0,0,0,0,-1,993,1275,0,0
-224,-251,0,0,0,0,0,0,0,0,0,-1,1000,1275,0,0
-217,-251,0,0,0,0,0,0,0,0,0,-1,1007,1275,0,0
-210,-251,0,0,0,0,0,0,0,0,0,-1,1014,1275,0,0
-203,-251,0,0,0,0,0,0,0,0,0,-1,1021,1275,0,0
-196,-251,0,0,0,0,0,0,0,0,0,-1,1028,1275,0,0
-189,-251,0,0,0,0,0,0,0,0,0,-1,1035,1275,0,0
-182,-251,0,0,0,0,0,0,0,0,0,-1,1042,1275,0,0
-175,-251,0,0,0,0,0,0,0,0,0,-1,1049,1275,0,0
-168,-251,0,0,0,0,0,0,0,0,0,-1,1056,1275,0,0
-161,-251,0,0,0,0,0,0,0,0,0,-1,1063,1275,0,0
-154,-251,0,0,0,0,0,0,0,0,0,-1,1070,1275,0,0
-147,-251,0,0,0,0,0,0,0,0,0,-1,1077,1275,0,0
-140,-251,0,0,0,0,0,0,0,0,0,-1,1084,1275,0,0
-133,-251,0,0,0,0,0,0,0,0,0,-1,1091,1275,0,0
-126,-251,0,0,0,0,0,0,0,0,0,-1,1098,1275,0,0
-119,-251,0,0,0,0,0,0,0,0,0,-1,1105,1275,0,0
-112,-251,0,0,0,0,0,0,0,0,0,-1,1112,1275,0,0
-105,-251,0,0,0,0,0,0,0,0,0,-1,1119,1275,0,0
-98,-251,0,0,0,0,0,0,0,0,0,-1,1126,1275,0,0
-91,-251,0,0,0,0,0,0,0,0,0,-1,1133,1275,0,0
-84,-251,0,0,0,0,0,0,0,0,0,-1,1140,1275,0,0
-77,-251,0,0,0,0,0,0,0,0,0,-1,1147,1275,0,0
-70,-251,0,0,0,0,0,0,0,0,0,-1,1154,1275,0,0
-63,-251,0,0,0,0,0,0,0,0,0,-1,1161,1275,0,0
-56,-251,0,0,0,0,0,0,0,0,0,-1,1168,1275,0,0
-49,-251,0,0,0,0,0,0,0,0,0,-1,1175,1275,0,0
-42,-251,0,0,0,0,0,0,0,0,0,-1,1182,1275,0,0
-35,-251,0,0,0,0,0,0,0,0,0,-1,1189,1275,0,0
-28,-251,0,0,0,0,0,0,0,0,0,-1,1196,1275,0,0
-21,-251,0,0,0,0,0,0,0,0,0,-1,1203,1275,0,0
-14,-251,0,0,0,0,0,0,0,0,0,-1,1210,1275,0,0
-7,-251,0,0,0,0,0,0,0,0,0,-1,1217,1275,0,0
0,-251,0,0,0,0,0,0,0,0,0,-1,1224,1275,0,0
7,-251,0,0,0,0,0,0,0,0,0,-1,1231,1275,0,0
14,-251,0,0,0,0,0,0,0,0,0,-1,1238,1275,0,0
21,-251,0,0,0,0,0,0,0,0,0,-1,1245,1275,0,0
28,-251,0,0,0,0,0,0,0,0,0,-1,1252,1275,0,0
35,-251,0,0,0,0,0,0,0,0,0,-1,1259,1275,0,0
42,-251,0,0,0,0,0,0,0,0,0,-1,1266,1275,0,0
49,-251,0,0,0,0,0,0,0,0,0,-1,1273,1275,0,0
56,-251,0,0,0,0,0,0,0,0,0,-1,1280,1275,0,0
63,-251,0,0,0,0,0,0,0,0,0,-1,1287,1275,0,0
70,-251,0,0,0,0,0,0,0,0,0,-1,1294,1275,0,0
77,-251,0,0,0,0,0,0,0,0,0,-1,1301,1275,0,0
84,-251,0,0,0,0,0,0,0,0,0,-1,1308,1275,0,0
91,-251,0,0,0,0,0,0,0,0,0,-1,1315,1275,0,0
98,-251,0,0,0,0,0,0,0,0,0,-1,1322,1275,0,0
105,-251,0,0,0,0,0,0,0,0,0,-1,1329,1275,0,0
112,-251,0,0,0,0,0,0,0,0,0,-1,1336,1275,0,0
119,-251,0,0,0,0,0,0,0,0,0,-1,1343,1275,0,0
126,-251,0,0,0,0,0,0,0,0,0,-1,1350,1275,0,0
133,-251,0,0,0,0,0,0,0,0,0,-1,1357,1275,0,0
140,-251,0,0,0,0,0,0,0,0,0,-1,1364,1275,0,0
147,-251,0,0,0,0,0,0,0,0,0,-1,1371,1275,0,0
154,-251,0,0,0,0,0,0,0,0,0,-1,1378,1275,0,0
161,-251,0,0,0,0,0,0,0,0,0,-1,1385,1275,0,0
168,-251,0,0,0,0,0,0,0,0,0,-1,1392,1275,0,0
175,-251,0,0,0,0,0,0,0,0,0,-1,1399,1275,0,0
182,-251,0,0,0,0,0,0,0,0,0,-1,1406,1275,0,0
189,-251,0,0,0,0,0,0,0,0,0,-1,1413,1275,0,0
196,-251,0,0,0,0,0,0,0,0,0,-1,1420,1275,0,0
203,-251,0,0,0,0,0,0,0,0,0,-1,1427,1275,0,0
210,-251,0,0,0,0,0,0,0,0,0,-1,1434,1275,0,0
217,-251,0,0,0,0,0,0,0,0,0,-1,1441,1275,0,0
224,-251,0,0,0,0,0,0,0,0,0,-1,1448,1275,0,0
231,-251,0,0,0,0,0,0,0,0,0,-1,1455,1275,0,0
238,-251,0,0,0,0,0,0,0,0,0,-1,1462,1275,0,0
245,-251,0,0,0,0,0,0,0,0,0,-1,1469,1275,0,0
252,-251,0,0,0,0,0,0,0,0,0,-1,1476,1275,0,0
259,-251,0,0,0,0,0,0,0,0,0,-1,1483,1275,0,0
266,-251,0,0,0,0,0,0,0,0,0,-1,1490,1275,0,0
273,-251,0,0,0,0,0,0,0,0,0,-1,1497,1275,0,0
280,-251,0,0,0,0,0,0,0,0,0,-1,1504,1275,0,0
287,-251,0,0,0,0,0,0,0,0,0,-1,1511,1275,0,0
294,-251,0,0,0,0,0,0,0,0,0,-1,1518,1275,0,0
301,-251,0,0,0,0,0,0,0,0,0,-1,1525,1275,0,0
308,-251,0,0,0,0,0,0,0,0,0,-1,1532,1275,0,0
315,-251,0,0,0,0,0,0,0,0,0,-1,1539,1275,0,0
322,-251,0,0,0,0,0,0,0,0,0,-1,1546,1275,0,0
329,-251,0,0,0,0,0,0,0,0,0,-1,1553,1275,0,0
336,-251,0,0,0,0,0,0,0,0,0,-1,1560,1275,0,0
343,-251,0,0,0,0,0,0,0,0,0,-1,1567,1275,0,0
350,-251,0,0,0,0,0,0,0,0,0,-1,1574,1275,0,0
357,-251,0,0,0,0,0,0,0,0,0,-1,1581,1275,0,0
364,-251,0,0,0,0,0,0,0,0,0,-1,1588,1275,0,0
371,-251,0,0,0,0,0,0,0,0,0,-1,1595,1275,0,0
378,-251,0,0,0,0,0,0,0,0,0,-1,1602,1275,0,0
385,-251,0,0,0,0,0,0,0,0,0,-1,1609,1275,0,0
392,-251,0,0,0,0,0,0,0,0,0,-1,1616,1275,0,0
399,-251,0,0,0,0,0,0,0,0,0,-1,1623,1275,0,0
406,-251,0,0,0,0,0,0,0,0,0,-1,1630,1275,0,0
413,-251,0,0,0,0,0,0,0,0,0,-1,1637,1275,0,0
420,-251,0,0,0,0,0,0,0,0,0,-1,1644,1275,0,0
427,-251,0,0,0,0,0,0,0,0,0,-1,1651,1275,0,0
434,-251,0,0,0,0,0,0,0,0,0,-1,1658,1275,0,0
441,-251,0,0,0,0,0,0,0,0,0,-1,1665,1275,0,0
448,-251,0,0,0,0,0,0,0,0,0,-1,1672,1275,0,0
455,-251,0,0,0,0,0,0,0,0,0,-1,1679,1275,0,0
462,-251,0,0,0,0,0,0,0,0,0,-1,1686,1275,0,0
469,-251,0,0,0,0,0,0,0,0,0,-1,1693,1275,0,0
476,-251,0,0,0,0,0,0,0,0,0,-1,1700,1275,0,0
483,-251,0,0,0,0,0,0,0,0,0,-1,1707,1275,0,0
490,-251,0,0,0,0,0,0,0,0,0,-1,1714,1275,0,0
497,-251,0,0,0,0,0,0,0,0,0,-1,1721,1275,0,0
504,-251,0,0,0,0,0,0,0,0,0,-1,1728,1275,0,0
511,-251,0,0,0,0,0,0,0,0,0,-1,1735,1275,0,0
518,-251,0,0,0,0,0,0,0,0,0,-1,1742,1275,0,0
525,-251,0,0,0,0,0,0,0,0,0,-1,1749,1275,0,0
532,-251,0,0,0,0,0,0,0,0,0,-1,1756,1275,0,0
539,-251,0,0,0,0,0,0,0,0,0,-1,1763,1275,0,0
546,-251,0,0,0,0,0,0,0,0,0,-1,1770,1275,0,0
553,-251,0,0,0,0,0,0,0,0,0,-1,1777,1275,0,0
560,-251,0,0,0,0,0,0,0,0,0,-1,1784,1275,0,0
567,-251,0,0,0,0,0,0,0,0,0,-1,1791,1275,0,0
574,-251,0,0,0,0,0,0,0,0,0,-1,1798,1275,0,0
581,-251,0,0,0,0,0,0,0,0,0,-1,1805,1275,0,0
588,-251,0,0,0,0,0,0,0,0,0,-1,1812,1275,0,0
595,-251,0,0,0,0,0,0,0,0,0,-1,1819,1275,0,0
602,-251,0,0,0,0,0,0,0,0,0,-1,1826,1275,0,0
609,-251,-0.00390625,0.0241699,-0.0103483,-3.90798e-05,-0.00626413,0.00291861,-0.013306,-1.12967,0.00998671,0.0272109,1833,1275,-0.00388587,-0.0241367
616,-251,-0.0263672,0.0362549,-0.00428197,0.00216369,-0.00663527,0.0063174,-0.00843569,-1.01147,0.00854692,0.0241189,1840,1275,-0.0263808,-0.0362952
623,-251,-0.0151367,0.0446777,0.00140683,0.00306351,-0.00688133,0.00916618,-0.00469584,-0.845298,0.00814078,0.0210348,1847,1275,-0.015122,-0.0446626
630,-251,0.0407715,0.0599365,0.00486931,0.00317194,-0.0067618,0.0108355,-0.00279423,-0.722969,0.0083131,0.030814,1854,1275,0.0408101,-0.0599735
637,-251,-0.0345459,-0.0345459,0.00656775,0.00281958,-0.00639773,0.0113602,-0.0019729,-0.642919,0.00830957,0.0370887,1861,1275,-0.0345293,0.0345033
644,-251,-0.026001,0.0993652,0.00708103,0.00227699,-0.00589019,0.0110401,-0.00168212,-0.591792,0.00798012,0.0422839,1868,1275,-0.0260311,-0.0993327
651,-251,0.20752,0.483765,0,0,0,0,0,0,0,-1,1875,1275,0.207471,-0.483744
658,-251,0.304565,0.441895,0.00631453,0.001249,-0.00460974,0.00904148,-0.00147795,-0.534192,0.0065759,0.0486527,1882,1275,0.304617,-0.441892
665,-251,0.323486,0.449707,0.00549739,0.00081735,-0.00395152,0.00774978,-0.00143504,-0.518073,0.00570534,0.0438482,1889,1275,0.323522,-0.449714
672,-251,0.329712,0.492554,0.00456919,0.000297008,-0.00334308,0.00640034,-0.00153415,-0.501111,0.00485968,0.0442358,1896,1275,0.329731,-0.492553
679,-251,-0.0488281,0.108032,0.00332759,-0.000455321,-0.00272108,0.00475003,-0.00187776,-0.481679,0.00394451,0.0373325,1903,1275,-0.048843,-0.108017
686,-251,-0.0532227,0.0643311,0.00198336,-0.000633936,-0.00210895,0.00315669,-0.00180727,-0.507713,0.00290103,0.0148298,1910,1275,-0.0531625,-0.0643456
693,-251,-0.0371094,0.067627,0.0008553,-0.000635943,-0.00162393,0.0018966,-0.00167724,-0.570181,0.00206465,0.00832751,1917,1275,-0.0370742,-0.0676595
700,-251,-0.0361328,0.0646973,-0.000288234,-0.000593508,-0.00106832,0.000638303,-0.00152004,-0.714441,0.00128031,0.00803227,1924,1275,-0.036077,-0.0647469
707,-251,-0.0148926,0.0397949,-0.00128884,-0.000666925,-0.000564969,-0.000332993,-0.00162278,-1.03697,0.000989705,0.00968911,1931,1275,-0.0148421,-0.0397559
714,-251,0.00634766,0.0441895,-0.00199455,-0.000528012,-0.000350288,-0.000448641,-0.00207392,-1.34797,0.00125998,0.00974784,1938,1275,0.00639329,-0.0442061
721,-251,-0.00146484,0.041626,-0.00252889,0.000241468,2.97848e-06,0.000241471,-0.00252889,1.56972,0.00177191,0.00841047,1945,1275,-0.0014446,-0.0416181
728,-251,-0.0264893,0.0389404,-0.00280644,0.000956118,-7.85933e-05,0.000957759,-0.00280808,-1.54992,0.00226,0.00942975,1952,1275,-0.0265183,-0.038999
735,-251,-0.0181885,0.0388184,-0.0036895,0.00116122,0.00011322,0.00116386,-0.00369214,1.54747,0.00292754,0.0122721,1959,1275,-0.0182002,-0.0387695
742,-251,-0.0192871,0.0634766,-0.00469412,0.00227782,0.000160157,0.00228149,-0.0046978,1.54784,0.00410921,0.0140248,1966,1275,-0.0192551,-0.0635207
749,-251,-0.0596924,0.0524902,-0.00607967,0.00335768,0.000153245,0.00336017,-0.00608216,1.55456,0.00552652,0.0215623,1973,1275,-0.0596424,-0.052551
756,-251,-0.249512,0.100464,-0.00776695,0.00480826,0.000157337,0.00481023,-0.00776892,1.55829,0.00732923,0.0361324,1980,1275,-0.249543,-0.100494
763,-251,-0.388672,0.279785,-0.00971487,0.00674183,0.000210607,0.00674453,-0.00971757,1.558,0.00955592,0.0409533,1987,1275,-0.388726,-0.279795
770,-251,-0.534302,0.409546,-0.0119743,0.00928601,0.000360242,0.00929211,-0.0119804,1.55386,0.0123144,0.0411645,1994,1275,-0.534352,-0.409593
777,-251,-0.781128,0.515991,-0.014622,0.0125984,0.000681654,0.0126154,-0.014639,1.54578,0.0157498,0.044519,2001,1275,-0.781091,-0.515953
784,-251,-1.0426,0.592407,-0.0176836,0.0168895,0.00128204,0.016937,-0.0177311,1.53378,0.0200174,0.0470345,2008,1275,-1.04264,-0.592455
791,-251,0,0,0,0,0,0,0,0,0,-1,2015,1275,0,0
798,-251,0,0,0,0,0,0,0,0,0,-1,2022,1275,0,0
805,-251,0,0,0,0,0,0,0,0,0,-1,2029,1275,0,0
812,-251,0,0,0,0,0,0,0,0,0,-1,2036,1275,0,0
-700,-258,0,0,0,0,0,0,0,0,0,-1,524,1282,0,0
-693,-258,0,0,0,0,0,0,0,0,0,-1,531,1282,0,0
-686,-258,0,0,0,0,0,0,0,0,0,-1,538,1282,0,0
-679,-258,0,0,0,0,0,0,0,0,0,-1,545,1282,0,0
-672,-258,0,0,0,0,0,0,0,0,0,-1,552,1282,0,0
-665,-258,0.536072,-1.95874,-0.0123415,0.0185135,0.0118428,0.0225348,-0.0163628,1.24345,0.0225516,0.0431175,559,1282,0.536083,1.95868
-658,-258,0.290649,-1.41028,-0.0116631,0.0142228,0.00862801,0.016835,-0.0142752,1.27681,0.0179818,0.0436377,566,1282,0.29063,1.41033
-651,-258,0.294556,-0.822144,-0.0106163,0.0110495,0.0060793,0.0126388,-0.0122055,1.3151,0.0143446,0.0425045,573,1282,0.294532,0.822197
-644,-258,0.191528,-0.263306,-0.00933244,0.00863028,0.00408917,0.00951737,-0.0102195,1.35717,0.0113975,0.0446002,580,1282,0.191551,0.26325
-637,-258,0.118408,-0.0472412,-0.00792179,0.00676381,0.00257591,0.00720253,-0.00836051,1.4021,0.00899361,0.0461103,587,1282,0.118429,0.0472277
-630,-258,0.15033,-0.0513916,-0.0065171,0.00529932,0.00146321,0.00547781,-0.00669559,1.44941,0.00704002,0.0464486,594,1282,0.150328,0.051429
-623,-258,-0.0625,0.187378,-0.00518458,0.00412973,0.00068917,0.00418045,-0.00523529,1.49734,0.00544754,0.0427969,601,1282,-0.062528,-0.187348
-616,-258,-0.0390625,0.0712891,-0.00401622,0.0032302,0.000152053,0.00323339,-0.00401941,1.54983,0.00419559,0.0300136,608,1282,-0.0390823,-0.0713493
-609,-258,0.00561523,0.029541,-0.00299196,0.00195661,-0.000229791,0.00196726,-0.00300261,-1.52449,0.00289003,0.016712,615,1282,0.00560032,-0.0295397
-602,-258,-0.020874,0.0316162,-0.00229451,0.00116648,-0.000356413,0.0012028,-0.00233083,-1.46924,0.00207451,0.0143965,622,1282,-0.0209019,-0.0316315
-595,-258,-0.0308838,0.0446777,-0.00174443,0.00129651,-0.000383425,0.00134411,-0.00179203,-1.44728,0.0018168,0.0113143,629,1282,-0.0308571,-0.0447325
-588,-258,-0.00970459,0.0482178,-0.0012508,0.000726068,-0.000147289,0.000736982,-0.00126171,-1.49683,0.00116713,0.0113769,636,1282,-0.00969765,-0.0482284
-581,-258,-0.0178833,0.0350342,-0.000879451,0.000250186,0.000319248,0.000334166,-0.000963431,1.31357,0.000777978,0.0129273,643,1282,-0.017911,-0.0350126
-574,-258,-0.0177002,0.0217285,-0.000549307,0.000144227,0.00061777,0.0005059,-0.00091098,1.04114,0.000829105,0.0136047,650,1282,-0.0177281,-0.0217813
-567,-258,-0.0305176,0.0167236,-0.000134159,-0.000231676,0.000764388,0.000583024,-0.000948859,0.753547,0.0008928,0.0135077,657,1282,-0.0305139,-0.0166916
-560,-258,-0.0524902,0.0501709,-0.00017123,-0.000369288,0.0010084,0.00074299,-0.00128351,0.736453,0.00118379,0.0177346,664,1282,-0.0525195,-0.0501155
-553,-258,-0.0562744,0.0882568,0.000289282,-0.00136464,0.00112122,0.000855521,-0.00193088,0.467655,0.00164818,0.0193018,671,1282,-0.0562938,-0.0882334
-546,-258,-0.0534058,0.0905762,0.000773333,-0.00240949,0.000991445,0.0010569,-0.00269306,0.278579,0.00223267,0.035784,678,1282,-0.0533805,-0.090532
-539,-258,-0.0596313,0.104614,0.00117431,-0.00266611,0.000582559,0.00126074,-0.00275253,0.147279,0.00236982,0.0429639,685,1282,-0.0596493,-0.104667
-532,-258,-0.0262451,0.0339355,0.00149219,-0.00287573,0.000155028,0.00149769,-0.00288122,0.035433,0.00256989,0.0478697,692,1282,-0.0262549,-0.033935
-525,-258,0.118225,-0.0286865,0,0,0,0,0,0,0,-1,699,1282,0.118237,0.0287076
-518,-258,0.170349,0.266235,0,0,0,0,0,0,0,-1,706,1282,0.170362,-0.266295
-511,-258,-0.442017,0.804565,0,0,0,0,0,0,0,-1,713,1282,-0.441989,-0.804529
-504,-258,-0.320801,0.544434,0.000593932,-0.00315713,-0.00276714,0.00206125,-0.00462445,-0.487567,0.00395342,0.0416924,720,1282,-0.320806,-0.544478
-497,-258,-0.111389,0.235718,-0.000890971,-0.00158128,-0.00399161,0.00277037,-0.00524263,-0.74227,0.00469913,0.0433517,727,1282,-0.111394,-0.235754
-490,-258,0.0692749,-0.0666504,-0.00361491,0.00186643,-0.00529477,0.0050878,-0.00683628,-1.02422,0.006909,0.0443022,734,1282,0.0692545,0.0666568
-483,-258,0,0,0,0,0,0,0,0,0,-1,741,1282,0,0
-476,-258,0,0,0,0,0,0,0,0,0,-1,748,1282,0,0
-469,-258,0,0,0,0,0,0,0,0,0,-1,755,1282,0,0
-462,-258,0,0,0,0,0,0,0,0,0,-1,762,1282,0,0
-455,-258,0,0,0,0,0,0,0,0,0,-1,769,1282,0,0
-448,-258,0,0,0,0,0,0,0,0,0,-1,776,1282,0,0
-441,-258,0,0,0,0,0,0,0,0,0,-1,783,1282,0,0
-434,-258,0,0,0,0,0,0,0,0,0,-1,790,1282,0,0
-427,-258,0,0,0,0,0,0,0,0,0,-1,797,1282,0,0
-420,-258,0,0,0,0,0,0,0,0,0,-1,804,1282,0,0
-413,-258,0,0,0,0,0,0,0,0,0,-1,811,1282,0,0
-406,-258,0,0,0,0,0,0,0,0,0,-1,818,1282,0,0
-399,-258,0,0,0,0,0,0,0,0,0,-1,825,1282,0,0
-392,-258,0,0,0,0,0,0,0,0,0,-1,832,1282,0,0
-385,-258,0,0,0,0,0,0,0,0,0,-1,839,1282,0,0
-378,-258,0,0,0,0,0,0,0,0,0,-1,846,1282,0,0
-371,-258,0,0,0,0,0,0,0,0,0,-1,853,1282,0,0
-364,-258,0,0,0,0,0,0,0,0,0,-1,860,1282,0,0
-357,-258,0,0,0,0,0,0,0,0,0,-1,867,1282,0,0
-350,-258,0,0,0,0,0,0,0,0,0,-1,874,1282,0,0
-343,-258,0,0,0,0,0,0,0,0,0,-1,881,1282,0,0
-336,-258,0,0,0,0,0,0,0,0,0,-1,888,1282,0,0
-329,-258,0,0,0,0,0,0,0,0,0,-1,895,1282,0,0
-322,-258,0,0,0,0,0,0,0,0,0,-1,902,1282,0,0
-315,-258,0,0,0,0,0,0,0,0,0,-1,909,1282,0,0
-308,-258,0,0,0,0,0,0,0,0,0,-1,916,1282,0,0
-301,-258,0,0,0,0,0,0,0,0,0,-1,923,1282,0,0
-294,-258,0,0,0,0,0,0,0,0,0,-1,930,1282,0,0
-287,-258,0,0,0,0,0,0,0,0,0,-1,937,1282,0,0
-280,-258,0,0,0,0,0,0,0,0,0,-1,944,1282,0,0
-273,-258,0,0,0,0,0,0,0,0,0,-1,951,1282,0,0
-266,-258,0,0,0,0,0,0,0,0,0,-1,958,1282,0,0
-259,-258,0,0,0,0,0,0,0,0,0,-1,965,1282,0,0
-252,-258,0,0,0,0,0,0,0,0,0,-1,972,1282,0,0
-245,-258,0,0,0,0,0,0,0,0,0,-1,979,1282,0,0
-238,-258,0,0,0,0,0,0,0,0,0,-1,986,1282,0,0
-231,-258,0,0,0,0,0,0,0,0,0,-1,993,1282,0,0
-224,-258,0,0,0,0,0,0,0,0,0,-1,1000,1282,0,0
-217,-258,0,0,0,0,0,0,0,0,0,-1,1007,1282,0,0
-210,-258,0,0,0,0,0,0,0,0,0,-1,1014,1282,0,0
-203,-258,0,0,0,0,0,0,0,0,0,-1,1021,1282,0,0
-196,-258,0,0,0,0,0,0,0,0,0,-1,1028,1282,0,0
-189,-258,0,0,0,0,0,0,0,0,0,-1,1035,1282,0,0
-182,-258,0,0,0,0,0,0,0,0,0,-1,1042,1282,0,0
-175,-258,0,0,0,0,0,0,0,0,0,-1,1049,1282,0,0
-168,-258,0,0,0,0,0,0,0,0,0,-1,1056,1282,0,0
-161,-258,0,0,0,0,0,0,0,0,0,-1,1063,1282,0,0
-154,-258,0,0,0,0,0,0,0,0,0,-1,1070,1282,0,0
-147,-258,0,0,0,0,0,0,0,0,0,-1,1077,1282,0,0
-140,-258,0,0,0,0,0,0,0,0,0,-1,1084,1282,0,0
-133,-258,0,0,0,0,0,0,0,0,0,-1,1091,1282,0,0
-126,-258,0,0,0,0,0,0,0,0,0,-1,1098,1282,0,0
-119,-258,0,0,0,0,0,0,0,0,0,-1,1105,1282,0,0
-112,-258,0,0,0,0,0,0,0,0,0,-1,1112,1282,0,0
-105,-258,0,0,0,0,0,0,0,0,0,-1,1119,1282,0,0
-98,-258,0,0,0,0,0,0,0,0,0,-1,1126,1282,0,0
-91,-258,0,0,0,0,0,0,0,0,0,-1,1133,1282,0,0
-84,-258,0,0,0,0,0,0,0,0,0,-1,1140,1282,0,0
-77,-258,0,0,0,0,0,0,0,0,0,-1,1147,1282,0,0
-70,-258,0,0,0,0,0,0,0,0,0,-1,1154,1282,0,0
-63,-258,0,0,0,0,0,0,0,0,0,-1,1161,1282,0,0
-56,-258,0,0,0,0,0,0,0,0,0,-1,1168,1282,0,0
-49,-258,0,0,0,0,0,0,0,0,0,-1,1175,1282,0,0
-42,-258,0,0,0,0,0,0,0,0,0,-1,1182,1282,0,0
-35,-258,0,0,0,0,0,0,0,0,0,-1,1189,1282,0,0
-28,-258,0,0,0,0,0,0,0,0,0,-1,1196,1282,0,0
-21,-258,0,0,0,0,0,0,0,0,0,-1,1203,1282,0,0
-14,-258,0,0,0,0,0,0,0,0,0,-1,1210,1282,0,0
-7,-258,0,0,0,0,0,0,0,0,0,-1,1217,1282,0,0
0,-258,0,0,0,0,0,0,0,0,0,-1,1224,1282,0,0
7,-258,0,0,0,0,0,0,0,0,0,-1,1231,1282,0,0
14,-258,0,0,0,0,0,0,0,0,0,-1,1238,1282,0,0
21,-258,0,0,0,0,0,0,0,0,0,-1,1245,1282,0,0
28,-258,0,0,0,0,0,0,0,0,0,-1,1252,1282,0,0
35,-258,0,0,0,0,0,0,0,0,0,-1,1259,1282,0,0
42,-258,0,0,0,0,0,0,0,0,0,-1,1266,1282,0,0
49,-258,0,0,0,0,0,0,0,0,0,-1,1273,1282,0,0
56,-258,0,0,0,0,0,0,0,0,0,-1,1280,1282,0,0
63,-258,0,0,0,0,0,0,0,0,0,-1,1287,1282,0,0
70,-258,0,0,0,0,0,0,0,0,0,-1,1294,1282,0,0
77,-258,0,0,0,0,0,0,0,0,0,-1,1301,1282,0,0
84,-258,0,0,0,0,0,0,0,0,0,-1,1308,1282,0,0
91,-258,0,0,0,0,0,0,0,0,0,-1,1315,1282,0,0
98,-258,0,0,0,0,0,0,0,0,0,-1,1322,1282,0,0
105,-258,0,0,0,0,0,0,0,0,0,-1,1329,1282,0,0
112,-258,0,0,0,0,0,0,0,0,0,-1,1336,1282,0,0
119,-258,0,0,0,0,0,0,0,0,0,-1,1343,1282,0,0
126,-258,0,0,0,0,0,0,0,0,0,-1,1350,1282,0,0
133,-258,0,0,0,0,0,0,0,0,0,-1,1357,1282,0,0
140,-258,0,0,0,0,0,0,0,0,0,-1,1364,1282,0,0
147,-258,0,0,0,0,0,0,0,0,0,-1,1371,1282,0,0
154,-258,0,0,0,0,0,0,0,0,0,-1,1378,1282,0,0
161,-258,0,0,0,0,0,0,0,0,0,-1,1385,1282,0,0
168,-258,0,0,0,0,0,0,0,0,0,-1,1392,1282,0,0
175,-258,0,0,0,0,0,0,0,0,0,-1,1399,1282,0,0
182,-258,0,0,0,0,0,0,0,0,0,-1,1406,1282,0,0
189,-258,0,0,0,0,0,0,0,0,0,-1,1413,1282,0,0
196,-258,0,0,0,0,0,0,0,0,0,-1,1420,1282,0,0
203,-258,0,0,0,0,0,0,0,0,0,-1,1427,1282,0,0
210,-258,0,0,0,0,0,0,0,0,0,-1,1434,1282,0,0
217,-258,0,0,0,0,0,0,0,0,0,-1,1441,1282,0,0
224,-258,0,0,0,0,0,0,0,0,0,-1,1448,1282,0,0
231,-258,0,0,0,0,0,0,0,0,0,-1,1455,1282,0,0
238,-258,0,0,0,0,0,0,0,0,0,-1,1462,1282,0,0
245,-258,0,0,0,0,0,0,0,0,0,-1,1469,1282,0,0
252,-258,0,0,0,0,0,0,0,0,0,-1,1476,1282,0,0
259,-258,0,0,0,0,0,0,0,0,0,-1,1483,1282,0,0
266,-258,0,0,0,0,0,0,0,0,0,-1,1490,1282,0,0
273,-258,0,0,0,0,0,0,0,0,0,-1,1497,1282,0,0
280,-258,0,0,0,0,0,0,0,0,0,-1,1504,1282,0,0
287,-258,0,0,0,0,0,0,0,0,0,-1,1511,1282,0,0
294,-258,0,0,0,0,0,0,0,0,0,-1,1518,1282,0,0
301,-258,0,0,0,0,0,0,0,0,0,-1,1525,1282,0,0
308,-258,0,0,0,0,0,0,0,0,0,-1,1532,1282,0,0
315,-258,0,0,0,0,0,0,0,0,0,-1,1539,1282,0,0
322,-258,0,0,0,0,0,0,0,0,0,-1,1546,1282,0,0
329,-258,0,0,0,0,0,0,0,0,0,-1,1553,1282,0,0
336,-258,0,0,0,0,0,0,0,0,0,-1,1560,1282,0,0
343,-258,0,0,0,0,0,0,0,0,0,-1,1567,1282,0,0
350,-258,0,0,0,0,0,0,0,0,0,-1,1574,1282,0,0
357,-258,0,0,0,0,0,0,0,0,0,-1,1581,1282,0,0
364,-258,0,0,0,0,0,0,0,0,0,-1,1588,1282,0,0
371,-258,0,0,0,0,0,0,0,0,0,-1,1595,1282,0,0
378,-258,0,0,0,0,0,0,0,0,0,-1,1602,1282,0,0
385,-258,0,0,0,0,0,0,0,0,0,-1,1609,1282,0,0
392,-258,0,0,0,0,0,0,0,0,0,-1,1616,1282,0,0
399,-258,0,0,0,0,0,0,0,0,0,-1,1623,1282,0,0
406,-258,0,0,0,0,0,0,0,0,0,-1,1630,1282,0,0
413,-258,0,0,0,0,0,0,0,0,0,-1,1637,1282,0,0
420,-258,0,0,0,0,0,0,0,0,0,-1,1644,1282,0,0
427,-258,0,0,0,0,0,0,0,0,0,-1,1651,1282,0,0
434,-258,0,0,0,0,0,0,0,0,0,-1,1658,1282,0,0
441,-258,0,0,0,0,0,0,0,0,0,-1,1665,1282,0,0
448,-258,0,0,0,0,0,0,0,0,0,-1,1672,1282,0,0
455,-258,0,0,0,0,0,0,0,0,0,-1,1679,1282,0,0
462,-258,0,0,0,0,0,0,0,0,0,-1,1686,1282,0,0
469,-258,0,0,0,0,0,0,0,0,0,-1,1693,1282,0,0
476,-258,0,0,0,0,0,0,0,0,0,-1,1700,1282,0,0
483,-258,0,0,0,0,0,0,0,0,0,-1,1707,1282,0,0
490,-258,0,0,0,0,0,0,0,0,0,-1,1714,1282,0,0
497,-258,0,0,0,0,0,0,0,0,0,-1,1721,1282,0,0
504,-258,0,0,0,0,0,0,0,0,0,-1,1728,1282,0,0
511,-258,0,0,0,0,0,0,0,0,0,-1,1735,1282,0,0
518,-258,0,0,0,0,0,0,0,0,0,-1,1742,1282,0,0
525,-258,0,0,0,0,0,0,0,0,0,-1,1749,1282,0,0
532,-258,0,0,0,0,0,0,0,0,0,-1,1756,1282,0,0
539,-258,0,0,0,0,0,0,0,0,0,-1,1763,1282,0,0
546,-258,0,0,0,0,0,0,0,0,0,-1,1770,1282,0,0
553,-258,0,0,0,0,0,0,0,0,0,-1,1777,1282,0,0
560,-258,0,0,0,0,0,0,0,0,0,-1,1784,1282,0,0
567,-258,0,0,0,0,0,0,0,0,0,-1,1791,1282,0,0
574,-258,0,0,0,0,0,0,0,0,0,-1,1798,1282,0,0
581,-258,0,0,0,0,0,0,0,0,0,-1,1805,1282,0,0
588,-258,0,0,0,0,0,0,0,0,0,-1,1812,1282,0,0
595,-258,0,0,0,0,0,0,0,0,0,-1,1819,1282,0,0
602,-258,0,0,0,0,0,0,0,0,0,-1,1826,1282,0,0
609,-258,0.0032959,0.00280762,-0.0116736,0.0045864,-0.00837082,0.00812549,-0.0152126,-1.1708,0.0136798,0.0235016,1833,1282,0.00332189,-0.00278428
616,-258,-0.0419922,-0.0101318,-0.0052355,0.00605002,-0.00875178,0.0108204,-0.0100059,-1.07174,0.0120272,0.0207179,1840,1282,-0.0419851,0.0101562
623,-258,-0.0616455,-0.0758057,0.000598823,0.00635019,-0.00872174,0.0126581,-0.00570908,-0.944643,0.0108543,0.0289778,1847,1282,-0.0615893,0.0758167
630,-258,0.204102,0.102051,0.00431186,0.00592669,-0.00829727,0.0134557,-0.00321718,-0.833901,0.0102132,0.0405399,1854,1282,0.204157,-0.102066
637,-258,0.109253,0.219971,0.00629232,0.00512633,-0.007623,0.0133546,-0.00193593,-0.747233,0.00961356,0.0423431,1861,1282,0.109202,-0.220002
644,-258,0.13562,0.0860596,0.00704979,0.00420936,-0.00681972,0.0125956,-0.00133646,-0.68274,0.00887616,0.0467071,1868,1282,0.135675,-0.0861117
651,-258,0.422852,0.200073,0.00700686,0.00329196,-0.00596121,0.0113933,-0.00109448,-0.63437,0.0079854,0.0457632,1875,1282,0.422838,-0.20009
658,-258,0.510498,0.391357,0.00667401,0.00252035,-0.00508677,0.0100916,-0.000897219,-0.591586,0.00704586,0.0471784,1882,1282,0.510504,-0.391368
665,-258,0.473145,0.785767,0,0,0,0,0,0,0,-1,1889,1282,0.473103,-0.785734
672,-258,0.288574,0.409058,0,0,0,0,0,0,0,-1,1896,1282,0.288545,-0.409039
679,-258,0.104004,0.0323486,0,0,0,0,0,0,0,-1,1903,1282,0.103986,-0.0323435
686,-258,-0.036377,0.0505371,0.00238223,-0.000144386,-0.00196492,0.00345492,-0.00121707,-0.499703,0.00279862,0.014455,1910,1282,-0.0364337,-0.0505093
693,-258,-0.0148926,0.050293,0.00107851,-0.00023544,-0.00139449,0.00196303,-0.00111997,-0.565259,0.00180202,0.00887552,1917,1282,-0.0148846,-0.0503453
700,-258,-0.0197754,0.0513916,-0.000172734,-0.000238861,-0.000792164,0.000587056,-0.000998651,-0.764541,0.000925732,0.00812446,1924,1282,-0.0197657,-0.0514186
707,-258,-0.0125732,0.0334473,-0.00123937,-0.000347787,-0.00029772,-0.000257512,-0.00132964,-1.27639,0.000814279,0.00989326,1931,1282,-0.0126227,-0.0334565
714,-258,-0.012085,0.0270996,-0.00190508,-0.000141269,-0.000147248,-0.000129061,-0.00191729,-1.48808,0.00123742,0.00934172,1938,1282,-0.0120322,-0.0270486
721,-258,-0.0164795,0.0289307,-0.00241742,0.000776241,0.000133202,0.000781787,-0.00242297,1.52918,0.00192945,0.00879633,1945,1282,-0.0164286,-0.0289136
728,-258,-0.0159912,0.0301514,-0.00266905,0.00178207,9.06523e-06,0.00178208,-0.00266907,1.56876,0.00258683,0.0093419,1952,1282,-0.0159902,-0.0302037
735,-258,-0.0297852,0.0357666,-0.00347046,0.00227534,0.000132477,0.00227839,-0.00347351,1.54776,0.00334467,0.0132881,1959,1282,-0.0297401,-0.0357179
742,-258,-0.0231934,0.0679932,-0.00439711,0.00371201,0.000111972,0.00371356,-0.00439866,1.55699,0.00468916,0.0143486,1966,1282,-0.0232214,-0.0679585
749,-258,-0.140503,0.0831299,-0.00565615,0.00530638,1.44145e-05,0.0053064,-0.00565617,1.56948,0.00633032,0.0241619,1973,1282,-0.140465,-0.08313
756,-258,-0.3479,0.0905762,-0.00719364,0.00738889,-0.000112404,0.00738976,-0.00719451,-1.56309,0.00842048,0.0372504,1980,1282,-0.34786,-0.0905627
763,-258,-0.410156,0.171265,-0.00897045,0.0100673,-0.000262647,0.010071,-0.00897407,-1.557,0.0110017,0.04466,1987,1282,-0.410122,-0.17127
770,-258,-0.339233,0.25,-0.0110386,0.0134498,-0.000413072,0.0134568,-0.0110456,-1.55393,0.0141693,0.046338,1994,1282,-0.339194,-0.24998
777,-258,-0.779297,0.900024,-0.0134674,0.0176499,-0.00052788,0.0176589,-0.0134764,-1.55384,0.0180299,0.0459415,2001,1282,-0.779308,-0.900016
784,-258,-1.01428,0.937744,-0.0162827,0.0227822,-0.000556481,0.0227902,-0.0162906,-1.55656,0.0226671,0.0465252,2008,1282,-1.01422,-0.937769
791,-258,0,0,0,0,0,0,0,0,0,-1,2015,1282,0,0
798,-258,0,0,0,0,0,0,0,0,0,-1,2022,1282,0,0
805,-258,0,0,0,0,0,0,0,0,0,-1,2029,1282,0,0
812,-258,0,0,0,0,0,0,0,0,0,-1,2036,1282,0,0
-700,-265,0,0,0,0,0,0,0,0,0,-1,524,1289,0,0
-693,-265,0,0,0,0,0,0,0,0,0,-1,531,1289,0,0
-686,-265,0,0,0,0,0,0,0,0,0,-1,538,1289,0,0
-679,-265,0,0,0,0,0,0,0,0,0,-1,545,1289,0,0
-672,-265,0,0,0,0,0,0,0,0,0,-1,552,1289,0,0
-665,-265,0.485596,-2.29761,0,0,0,0,0,0,0,-1,559,1289,0.485585,2.29765
-658,-265,0.107117,-1.3446,0,0,0,0,0,0,0,-1,566,1289,0.107127,1.34466
-651,-265,0.175049,-0.900513,-0.015033,0.00834831,0.00457175,0.00921044,-0.0158952,1.38441,0.014665,0.0457223,573,1289,0.17503,0.900501
-644,-265,0.105896,-0.295288,-0.0129664,0.00672757,0.00301646,0.00717923,-0.0134181,1.42217,0.0120723,0.0461813,580,1289,0.105884,0.295249
-637,-265,0.161621,-0.0119629,0,0,0,0,0,0,0,-1,587,1289,0.161634,0.0120034
-630,-265,0.147034,0.135254,-0.00879905,0.0046382,0.00107566,0.00472376,-0.00888461,1.49142,0.00797827,0.0434068,594,1289,0.147008,-0.135277
-623,-265,0.106018,0.250488,-0.00693909,0.0038763,0.000534445,0.00390265,-0.00696544,1.52154,0.00635721,0.0428147,601,1289,0.106025,-0.250513
-616,-265,0.102295,0.0234375,-0.00533519,0.0032264,0.00016905,0.00322974,-0.00533852,1.55106,0.00499658,0.0336034,608,1289,0.102323,-0.0234718
-609,-265,-0.00140381,0.0350342,-0.00394569,0.00215856,-0.000131268,0.00216138,-0.00394851,-1.54931,0.00357749,0.0159245,615,1289,-0.00138256,-0.0350618
-602,-265,-0.010376,0.0339355,-0.00288564,0.00152486,-0.000262476,0.00154043,-0.00290121,-1.51156,0.00260419,0.0145966,622,1289,-0.0103922,-0.0339611
-595,-265,-0.00933838,0.0651855,-0.00205185,0.00171023,-0.000261363,0.0017283,-0.00206992,-1.50177,0.00219586,0.0112179,629,1289,-0.00935948,-0.0651901
-588,-265,-0.00213623,0.0588379,-0.0013769,0.0012574,-4.79846e-05,0.00125828,-0.00137778,-1.55259,0.00152245,0.00936287,636,1289,-0.00210722,-0.0588796
-581,-265,-0.0154419,0.0421143,-0.000835201,0.000744701,0.000341452,0.000815338,-0.000905839,1.3668,0.00099418,0.0117162,643,1289,-0.0154688,-0.0421467
-574,-265,-0.0193481,0.053833,-0.000400717,0.000730419,0.000537205,0.000944886,-0.000615185,1.19095,0.000907388,0.0134693,650,1289,-0.0193443,-0.0538533
-567,-265,-0.0209961,0.0526123,-1.14945e-05,0.000475752,0.000643814,0.000920495,-0.000456238,0.966275,0.000809781,0.0186851,657,1289,-0.020977,-0.0525514
-560,-265,-0.0454102,0.060791,-0.000125866,0.000523622,0.000894611,0.00115061,-0.00075285,0.959503,0.00110693,0.0197929,664,1289,-0.0453934,-0.0607764
-553,-265,-0.0570679,0.0881348,0.000306338,-0.000344437,0.00102346,0.00105489,-0.00109299,0.631487,0.00124014,0.0184293,671,1289,-0.0570946,-0.0881287
-546,-265,-0.0245361,0.118408,0.000607788,-0.00117362,0.000959016,0.00102592,-0.00159176,0.411156,0.00152304,0.0261749,678,1289,-0.0245389,-0.118461
-539,-265,0.0493164,0.162842,0.000658138,-0.00100003,0.00063677,0.000874452,-0.00121634,0.327474,0.00121249,0.0417625,685,1289,0.049333,-0.162898
-532,-265,0.10199,0.139404,0.000588112,-0.000783494,0.000332516,0.000664473,-0.000859854,0.22573,0.000882477,0.0443058,692,1289,0.101972,-0.139462
-525,-265,0.152893,0.125244,0,0,0,0,0,0,0,-1,699,1289,0.152895,-0.125198
-518,-265,0.670105,0.316528,0,0,0,0,0,0,0,-1,706,1289,0.670082,-0.316554
-511,-265,0.629395,-0.470581,0,0,0,0,0,0,0,-1,713,1289,0.629413,0.470588
-504,-265,0.961426,-1.30005,0,0,0,0,0,0,0,-1,720,1289,0.961426,1.3
-497,-265,0.317017,-0.325806,0,0,0,0,0,0,0,-1,727,1289,0.316987,0.325785
-490,-265,0.182007,-0.15564,0,0,0,0,0,0,0,-1,734,1289,0.182006,0.155628
-483,-265,0,0,0,0,0,0,0,0,0,-1,741,1289,0,0
-476,-265,0,0,0,0,0,0,0,0,0,-1,748,1289,0,0
-469,-265,0,0,0,0,0,0,0,0,0,-1,755,1289,0,0
-462,-265,0,0,0,0,0,0,0,0,0,-1,762,1289,0,0
-455,-265,0,0,0,0,0,0,0,0,0,-1,769,1289,0,0
-448,-265,0,0,0,0,0,0,0,0,0,-1,776,1289,0,0
-441,-265,0,0,0,0,0,0,0,0,0,-1,783,1289,0,0
-434,-265,0,0,0,0,0,0,0,0,0,-1,790,1289,0,0
-427,-265,0,0,0,0,0,0,0,0,0,-1,797,1289,0,0
-420,-265,0,0,0,0,0,0,0,0,0,-1,804,1289,0,0
-413,-265,0,0,0,0,0,0,0,0,0,-1,811,1289,0,0
-406,-265,0,0,0,0,0,0,0,0,0,-1,818,1289,0,0
-399,-265,0,0,0,0,0,0,0,0,0,-1,825,1289,0,0
-392,-265,0,0,0,0,0,0,0,0,0,-1,832,1289,0,0
-385,-265,0,0,0,0,0,0,0,0,0,-1,839,1289,0,0
-378,-265,0,0,0,0,0,0,0,0,0,-1,846,1289,0,0
-371,-265,0,0,0,0,0,0,0,0,0,-1,853,1289,0,0
-364,-265,0,0,0,0,0,0,0,0,0,-1,860,1289,0,0
-357,-265,0,0,0,0,0,0,0,0,0,-1,867,1289,0,0
-350,-265,0,0,0,0,0,0,0,0,0,-1,874,1289,0,0
-343,-265,0,0,0,0,0,0,0,0,0,-1,881,1289,0,0
-336,-265,0,0,0,0,0,0,0,0,0,-1,888,1289,0,0
-329,-265,0,0,0,0,0,0,0,0,0,-1,895,1289,0,0
-322,-265,0,0,0,0,0,0,0,0,0,-1,902,1289,0,0
-315,-265,0,0,0,0,0,0,0,0,0,-1,909,1289,0,0
-308,-265,0,0,0,0,0,0,0,0,0,-1,916,1289,0,0
-301,-265,0,0,0,0,0,0,0,0,0,-1,923,1289,0,0
-294,-265,0,0,0,0,0,0,0,0,0,-1,930,1289,0,0
-287,-265,0,0,0,0,0,0,0,0,0,-1,937,1289,0,0
-280,-265,0,0,0,0,0,0,0,0,0,-1,944,1289,0,0
-273,-265,0,0,0,0,0,0,0,0,0,-1,951,1289,0,0
-266,-265,0,0,0,0,0,0,0,0,0,-1,958,1289,0,0
-259,-265,0,0,0,0,0,0,0,0,0,-1,965,1289,0,0
-252,-265,0,0,0,0,0,0,0,0,0,-1,972,1289,0,0
-245,-265,0,0,0,0,0,0,0,0,0,-1,979,1289,0,0
-238,-265,0,0,0,0,0,0,0,0,0,-1,986,1289,0,0
-231,-265,0,0,0,0,0,0,0,0,0,-1,993,1289,0,0
-224,-265,0,0,0,0,0,0,0,0,0,-1,1000,1289,0,0
-217,-265,0,0,0,0,0,0,0,0,0,-1,1007,1289,0,0
-210,-265,0,0,0,0,0,0,0,0,0,-1,1014,1289,0,0
-203,-265,0,0,0,0,0,0,0,0,0,-1,1021,1289,0,0
-196,-265,0,0,0,0,0,0,0,0,0,-1,1028,1289,0,0
-189,-265,0,0,0,0,0,0,0,0,0,-1,1035,1289,0,0
-182,-265,0,0,0,0,0,0,0,0,0,-1,1042,1289,0,0
-175,-265,0,0,0,0,0,0,0,0,0,-1,1049,1289,0,0
-168,-265,0,0,0,0,0,0,0,0,0,-1,1056,1289,0,0
-161,-265,0,0,0,0,0,0,0,0,0,-1,1063,1289,0,0
-154,-265,0,0,0,0,0,0,0,0,0,-1,1070,1289,0,0
-147,-265,0,0,0,0,0,0,0,0,0,-1,1077,1289,0,0
-140,-265,0,0,0,0,0,0,0,0,0,-1,1084,1289,0,0
-133,-265,0,0,0,0,0,0,0,0,0,-1,1091,1289,0,0
-126,-265,0,0,0,0,0,0,0,0,0,-1,1098,1289,0,0
-119,-265,0,0,0,0,0,0,0,0,0,-1,1105,1289,0,0
-112,-265,0,0,0,0,0,0,0,0,0,-1,1112,1289,0,0
-105,-265,0,0,0,0,0,0,0,0,0,-1,1119,1289,0,0
-98,-265,0,0,0,0,0,0,0,0,0,-1,1126,1289,0,0
-91,-265,0,0,0,0,0,0,0,0,0,-1,1133,1289,0,0
-84,-265,0,0,0,0,0,0,0,0,0,-1,1140,1289,0,0
-77,-265,0,0,0,0,0,0,0,0,0,-1,1147,1289,0,0
-70,-265,0,0,0,0,0,0,0,0,0,-1,1154,1289,0,0
-63,-265,0,0,0,0,0,0,0,0,0,-1,1161,1289,0,0
-56,-265,0,0,0,0,0,0,0,0,0,-1,1168,1289,0,0
-49,-265,0,0,0,0,0,0,0,0,0,-1,1175,1289,0,0
-42,-265,0,0,0,0,0,0,0,0,0,-1,1182,1289,0,0
-35,-265,0,0,0,0,0,0,0,0,0,-1,1189,1289,0,0
-28,-265,0,0,0,0,0,0,0,0,0,-1,1196,1289,0,0
-21,-265,0,0,0,0,0,0,0,0,0,-1,1203,1289,0,0
-14,-265,0,0,0,0,0,0,0,0,0,-1,1210,1289,0,0
-7,-265,0,0,0,0,0,0,0,0,0,-1,1217,1289,0,0
0,-265,0,0,0,0,0,0,0,0,0,-1,1224,1289,0,0
7,-265,0,0,0,0,0,0,0,0,0,-1,1231,1289,0,0
14,-265,0,0,0,0,0,0,0,0,0,-1,1238,1289,0,0
21,-265,0,0,0,0,0,0,0,0,0,-1,1245,1289,0,0
28,-265,0,0,0,0,0,0,0,0,0,-1,1252,1289,0,0
35,-265,0,0,0,0,0,0,0,0,0,-1,1259,1289,0,0
42,-265,0,0,0,0,0,0,0,0,0,-1,1266,1289,0,0
49,-265,0,0,0,0,0,0,0,0,0,-1,1273,1289,0,0
56,-265,0,0,0,0,0,0,0,0,0,-1,1280,1289,0,0
63,-265,0,0,0,0,0,0,0,0,0,-1,1287,1289,0,0
70,-265,0,0,0,0,0,0,0,0,0,-1,1294,1289,0,0
77,-265,0,0,0,0,0,0,0,0,0,-1,1301,1289,0,0
84,-265,0,0,0,0,0,0,0,0,0,-1,1308,1289,0,0
91,-265,0,0,0,0,0,0,0,0,0,-1,1315,1289,0,0
98,-265,0,0,0,0,0,0,0,0,0,-1,1322,1289,0,0
105,-265,0,0,0,0,0,0,0,0,0,-1,1329,1289,0,0
112,-265,0,0,0,0,0,0,0,0,0,-1,1336,1289,0,0
119,-265,0,0,0,0,0,0,0,0,0,-1,1343,1289,0,0
126,-265,0,0,0,0,0,0,0,0,0,-1,1350,1289,0,0
133,-265,0,0,0,0,0,0,0,0,0,-1,1357,1289,0,0
140,-265,0,0,0,0,0,0,0,0,0,-1,1364,1289,0,0
147,-265,0,0,0,0,0,0,0,0,0,-1,1371,1289,0,0
154,-265,0,0,0,0,0,0,0,0,0,-1,1378,1289,0,0
161,-265,0,0,0,0,0,0,0,0,0,-1,1385,1289,0,0
168,-265,0,0,0,0,0,0,0,0,0,-1,1392,1289,0,0
175,-265,0,0,0,0,0,0,0,0,0,-1,1399,1289,0,0
182,-265,0,0,0,0,0,0,0,0,0,-1,1406,1289,0,0
189,-265,0,0,0,0,0,0,0,0,0,-1,1413,1289,0,0
196,-265,0,0,0,0,0,0,0,0,0,-1,1420,1289,0,0
203,-265,0,0,0,0,0,0,0,0,0,-1,1427,1289,0,0
210,-265,0,0,0,0,0,0,0,0,0,-1,1434,1289,0,0
217,-265,0,0,0,0,0,0,0,0,0,-1,1441,1289,0,0
224,-265,0,0,0,0,0,0,0,0,0,-1,1448,1289,0,0
231,-265,0,0,0,0,0,0,0,0,0,-1,1455,1289,0,0
238,-265,0,0,0,0,0,0,0,0,0,-1,1462,1289,0,0
245,-265,0,0,0,0,0,0,0,0,0,-1,1469,1289,0,0
252,-265,0,0,0,0,0,0,0,0,0,-1,1476,1289,0,0
259,-265,0,0,0,0,0,0,0,0,0,-1,1483,1289,0,0
266,-265,0,0,0,0,0,0,0,0,0,-1,1490,1289,0,0
273,-265,0,0,0,0,0,0,0,0,0,-1,1497,1289,0,0
280,-265,0,0,0,0,0,0,0,0,0,-1,1504,1289,0,0
287,-265,0,0,0,0,0,0,0,0,0,-1,1511,1289,0,0
294,-265,0,0,0,0,0,0,0,0,0,-1,1518,1289,0,0
301,-265,0,0,0,0,0,0,0,0,0,-1,1525,1289,0,0
308,-265,0,0,0,0,0,0,0,0,0,-1,1532,1289,0,0
315,-265,0,0,0,0,0,0,0,0,0,-1,1539,1289,0,0
322,-265,0,0,0,0,0,0,0,0,0,-1,1546,1289,0,0
329,-265,0,0,0,0,0,0,0,0,0,-1,1553,1289,0,0
336,-265,0,0,0,0,0,0,0,0,0,-1,1560,1289,0,0
343,-265,0,0,0,0,0,0,0,0,0,-1,1567,1289,0,0
350,-265,0,0,0,0,0,0,0,0,0,-1,1574,1289,0,0
357,-265,0,0,0,0,0,0,0,0,0,-1,1581,1289,0,0
364,-265,0,0,0,0,0,0,0,0,0,-1,1588,1289,0,0
371,-265,0,0,0,0,0,0,0,0,0,-1,1595,1289,0,0
378,-265,0,0,0,0,0,0,0,0,0,-1,1602,1289,0,0
385,-265,0,0,0,0,0,0,0,0,0,-1,1609,1289,0,0
392,-265,0,0,0,0,0,0,0,0,0,-1,1616,1289,0,0
399,-265,0,0,0,0,0,0,0,0,0,-1,1623,1289,0,0
406,-265,0,0,0,0,0,0,0,0,0,-1,1630,1289,0,0
413,-265,0,0,0,0,0,0,0,0,0,-1,1637,1289,0,0
420,-265,0,0,0,0,0,0,0,0,0,-1,1644,1289,0,0
427,-265,0,0,0,0,0,0,0,0,0,-1,1651,1289,0,0
434,-265,0,0,0,0,0,0,0,0,0,-1,1658,1289,0,0
441,-265,0,0,0,0,0,0,0,0,0,-1,1665,1289,0,0
448,-265,0,0,0,0,0,0,0,0,0,-1,1672,1289,0,0
455,-265,0,0,0,0,0,0,0,0,0,-1,1679,1289,0,0
462,-265,0,0,0,0,0,0,0,0,0,-1,1686,1289,0,0
469,-265,0,0,0,0,0,0,0,0,0,-1,1693,1289,0,0
476,-265,0,0,0,0,0,0,0,0,0,-1,1700,1289,0,0
483,-265,0,0,0,0,0,0,0,0,0,-1,1707,1289,0,0
490,-265,0,0,0,0,0,0,0,0,0,-1,1714,1289,0,0
497,-265,0,0,0,0,0,0,0,0,0,-1,1721,1289,0,0
504,-265,0,0,0,0,0,0,0,0,0,-1,1728,1289,0,0
511,-265,0,0,0,0,0,0,0,0,0,-1,1735,1289,0,0
518,-265,0,0,0,0,0,0,0,0,0,-1,1742,1289,0,0
525,-265,0,0,0,0,0,0,0,0,0,-1,1749,1289,0,0
532,-265,0,0,0,0,0,0,0,0,0,-1,1756,1289,0,0
539,-265,0,0,0,0,0,0,0,0,0,-1,1763,1289,0,0
546,-265,0,0,0,0,0,0,0,0,0,-1,1770,1289,0,0
553,-265,0,0,0,0,0,0,0,0,0,-1,1777,1289,0,0
560,-265,0,0,0,0,0,0,0,0,0,-1,1784,1289,0,0
567,-265,0,0,0,0,0,0,0,0,0,-1,1791,1289,0,0
574,-265,0,0,0,0,0,0,0,0,0,-1,1798,1289,0,0
581,-265,0,0,0,0,0,0,0,0,0,-1,1805,1289,0,0
588,-265,0,0,0,0,0,0,0,0,0,-1,1812,1289,0,0
595,-265,0,0,0,0,0,0,0,0,0,-1,1819,1289,0,0
602,-265,-0.00341797,-0.00268555,-0.0169914,0.0113375,-0.00630849,0.0126788,-0.0183327,-1.3613,0.0180034,0.0250672,1826,1289,-0.00341818,0.00263514
609,-265,-0.0136719,-0.00378418,-0.0105168,0.0122063,-0.0077677,0.0146078,-0.0129183,-1.27095,0.0159022,0.0251317,1833,1289,-0.013702,0.00379171
616,-265,-0.052124,-0.0397949,-0.00413071,0.0121124,-0.00839658,0.0156726,-0.00769086,-1.16977,0.0137488,0.0279602,1840,1289,-0.0521495,0.0398149
623,-265,-0.0424805,-0.127686,0.00141062,0.0110868,-0.00848021,0.0160119,-0.00351454,-1.04463,0.0120187,0.0391141,1847,1289,-0.0424532,0.127647
630,-265,0.433228,0.0408936,0.00495452,0.00960455,-0.00812919,0.0157347,-0.0011756,-0.924684,0.0109028,0.0417941,1854,1289,0.433245,-0.0408533
637,-265,-0.413818,0.139771,0.00685842,0.00800076,-0.00748699,0.0149383,-7.91582e-05,-0.823468,0.00998538,0.0460349,1861,1289,-0.413771,-0.139812
644,-265,0.2323,-0.00439453,0.0075884,0.00646267,-0.00668397,0.0137332,0.000317904,-0.743392,0.00905134,0.0440865,1868,1289,0.232334,0.00444874
651,-265,0.82019,0.0952148,0.00752469,0.00507051,-0.00581174,0.0122375,0.00035773,-0.681356,0.00804172,0.0479955,1875,1289,0.820246,-0.0952361
658,-265,0.791138,0.407715,0,0,0,0,0,0,0,-1,1882,1289,0.791183,-0.407732
665,-265,0.0214844,0.0212402,0,0,0,0,0,0,0,-1,1889,1289,0.0215433,-0.0212816
672,-265,0.0032959,0.00109863,0.00558122,0.00204307,-0.00329353,0.00755073,7.35614e-05,-0.538941,0.00500948,0.0481827,1896,1289,0.00331319,-0.00114673
679,-265,-0.0250244,0.0134277,0.00438733,0.000697342,-0.00241008,0.00557754,-0.00049287,-0.458714,0.00389307,0.0198423,1903,1289,-0.0250651,-0.0133779
686,-265,-0.0130615,0.0408936,0.00273085,0.000257639,-0.00169795,0.00359478,-0.000606285,-0.470666,0.00262208,0.0108111,1910,1289,-0.0130625,-0.0408726
693,-265,-0.00610352,0.0303955,0.00129407,9.51797e-05,-0.00108153,0.00193116,-0.000541918,-0.532345,0.00150105,0.0087583,1917,1289,-0.00612288,-0.03036
700,-265,-0.00793457,0.034668,-1.7032e-05,5.04265e-05,-0.000490907,0.000508761,-0.000475367,-0.819698,0.000568296,0.00907694,1924,1289,-0.00796587,-0.0346272
707,-265,-0.0045166,0.0250244,-0.00111481,-8.73219e-05,-3.79877e-05,-8.59195e-05,-0.00111621,-1.53389,0.000717219,0.00953115,1931,1289,-0.00445793,-0.0250173
714,-265,-0.0219727,0.022583,-0.00172682,0.000123274,2.8699e-05,0.000123719,-0.00172726,1.55529,0.00119489,0.00867972,1938,1289,-0.0219684,-0.0226134
721,-265,-0.0252686,0.0238037,-0.00220949,0.00114455,0.000235408,0.00116099,-0.00222593,1.50107,0.0019874,0.00792922,1945,1289,-0.025305,-0.0238245
728,-265,-0.0227051,0.0361328,-0.00243289,0.00238562,6.09735e-05,0.00238639,-0.00243366,1.55815,0.0027829,0.0118438,1952,1289,-0.0226631,-0.036148
735,-265,-0.0344238,0.0476074,-0.00313985,0.00318055,9.80328e-05,0.00318207,-0.00314137,1.55529,0.00365086,0.0151788,1959,1289,-0.0343995,-0.0476532
742,-265,-0.0198975,0.079834,-0.00396228,0.00494316,-7.7344e-07,0.00494316,-0.00396228,-1.57071,0.00515194,0.0162617,1966,1289,-0.0198918,-0.0797941
749,-265,-0.101685,0.246948,-0.00504806,0.00708871,-0.000205284,0.00709218,-0.00505153,-1.55389,0.0070441,0.0305513,1973,1289,-0.101671,-0.246931
756,-265,-0.274902,0.247559,-0.00634903,0.00989975,-0.000491979,0.00991463,-0.00636391,-1.54056,0.00947266,0.0392353,1980,1289,-0.274921,-0.247515
763,-265,-0.395142,0.0632324,-0.00783025,0.0135096,-0.000873959,0.0135453,-0.00786598,-1.52993,0.0125059,0.0442426,1987,1289,-0.395185,-0.0632695
770,-265,-0.110352,-0.19873,-0.00954141,0.0180445,-0.00134459,0.0181099,-0.0096068,-1.52221,0.0162513,0.0432039,1994,1289,-0.110295,0.198761
777,-265,0.278198,-0.363525,-0.0115272,0.0236168,-0.00189585,0.0237188,-0.0116291,-1.51706,0.0208022,0.044186,2001,1289,0.278226,0.363525
784,-265,0,0,0,0,0,0,0,0,0,-1,2008,1289,0,0
791,-265,0,0,0,0,0,0,0,0,0,-1,2015,1289,0,0
798,-265,0,0,0,0,0,0,0,0,0,-1,2022,1289,0,0
805,-265,0,0,0,0,0,0,0,0,0,-1,2029,1289,0,0
812,-265,0,0,0,0,0,0,0,0,0,-1,2036,1289,0,0
-700,-272,0,0,0,0,0,0,0,0,0,-1,524,1296,0,0
-693,-272,0,0,0,0,0,0,0,0,0,-1,531,1296,0,0
-686,-272,0,0,0,0,0,0,0,0,0,-1,538,1296,0,0
-679,-272,0,0,0,0,0,0,0,0,0,-1,545,1296,0,0
-672,-272,0,0,0,0,0,0,0,0,0,-1,552,1296,0,0
-665,-272,0,0,0,0,0,0,0,0,0,-1,559,1296,0,0
-658,-272,0.35968,1.36511,-0.0231242,0.00978917,0.00391467,0.0102484,-0.0235834,1.45403,0.0200321,0.0412014,566,1296,0.359671,-1.36506
-651,-272,0.329712,1.60095,-0.0207289,0.00836144,0.00251067,0.00857653,-0.020944,1.48533,0.0175351,0.0420298,573,1296,0.32974,-1.60099
-644,-272,-0.0553589,-0.431274,-0.0179975,0.00740133,0.00160506,0.00750236,-0.0180985,1.50794,0.0151968,0.0465316,580,1296,-0.05533,0.431303
-637,-272,0.0043335,0.809937,-0.0151414,0.00663273,0.00102501,0.00668088,-0.0151896,1.52386,0.0129415,0.0446869,587,1296,0.00430356,-0.809987
-630,-272,0.0402222,0.359131,-0.0123866,0.00590917,0.000656363,0.00593269,-0.0124101,1.53498,0.0108081,0.0426837,594,1296,0.0402188,-0.359126
-623,-272,-0.268738,0.989868,0,0,0,0,0,0,0,-1,601,1296,-0.268723,-0.989819
-616,-272,0.139954,0.0057373,-0.00761691,0.00440414,0.00030832,0.00441204,-0.00762482,1.54517,0.00703151,0.0339175,608,1296,0.139974,-0.00575841
-609,-272,-0.0233154,0.0574951,-0.00566316,0.00324634,0.000118162,0.00324791,-0.00566473,1.55754,0.00520839,0.0175904,615,1296,-0.0232939,-0.0575104
-602,-272,-0.0281982,0.0456543,-0.00410163,0.00250306,5.13682e-05,0.00250346,-0.00410203,1.56302,0.00385072,0.0127278,622,1296,-0.0281918,-0.045626
-595,-272,-0.0222778,0.0646973,-0.00285839,0.0024465,8.38608e-05,0.00244783,-0.00285972,1.55499,0.00306739,0.00976471,629,1296,-0.0222608,-0.0647558
-588,-272,0.00280762,0.0646973,-0.00186605,0.00189451,0.00024981,0.00191103,-0.00188257,1.50475,0.00219026,0.00932233,636,1296,0.0028161,-0.064656
-581,-272,-0.0111084,0.0621338,-0.000985461,0.00113909,0.00050113,0.00125136,-0.00109773,1.3504,0.00135722,0.00936135,643,1296,-0.0111166,-0.0620924
-574,-272,-0.0265503,0.072876,-0.000333845,0.00110952,0.000549116,0.00129467,-0.000519,1.24558,0.00107857,0.0142439,650,1296,-0.0265426,-0.072933
-567,-272,-0.0300903,0.0698242,8.41309e-05,0.000899952,0.000600032,0.0012176,-0.000233513,1.08392,0.000899727,0.0188975,657,1296,-0.0300669,-0.0697964
-560,-272,-0.0426025,0.0612793,-0.000109439,0.00114488,0.00084396,0.0015692,-0.000533753,1.10494,0.00126224,0.0188647,664,1296,-0.0425784,-0.06128
-553,-272,-0.0203857,0.0645752,0.000322778,0.000460854,0.000966608,0.00136089,-0.000577255,0.821049,0.00114907,0.0135286,671,1296,-0.0203863,-0.0646345
-546,-272,-0.00976563,0.0655518,0.000468016,-8.74749e-05,0.000889708,0.00112232,-0.000741782,0.634103,0.00108369,0.0174149,678,1296,-0.00976955,-0.0655609
-539,-272,-0.0282593,0.16748,0.00020539,0.000570087,0.000581045,0.000996725,-0.000221248,0.937445,0.000749202,0.0397507,685,1296,-0.0282677,-0.167483
-532,-272,0.0958862,0.0938721,-0.000209448,0.0012624,0.000333259,0.00133434,-0.000281389,1.35819,0.000996686,0.0465348,692,1296,0.095913,-0.0938264
-525,-272,0.189636,1.42981,0,0,0,0,0,0,0,-1,699,1296,0.189621,-1.42983
-518,-272,0.327454,0.446655,-0.00226829,0.00199527,-0.000124142,0.00199888,-0.0022719,-1.54171,0.00246742,0.0457698,706,1296,0.327461,-0.446616
-511,-272,0.312317,0.0098877,-0.00378854,0.00271549,-0.000632988,0.00277653,-0.00384958,-1.47468,0.00384227,0.0462715,713,1296,0.312298,-0.00984987
-504,-272,0.304199,-0.416504,-0.00588869,0.0038697,-0.00127959,0.0040347,-0.00605369,-1.44256,0.00586328,0.0495742,720,1296,0.304187,0.416553
-497,-272,0.375671,-0.651611,-0.00869157,0.00566699,-0.00204624,0.00595291,-0.00897748,-1.43197,0.00867882,0.0498771,727,1296,0.375667,0.651648
-490,-272,0.0338745,-0.136475,0,0,0,0,0,0,0,-1,734,1296,0.0338696,0.136416
-483,-272,-0.0487671,0.0897217,0,0,0,0,0,0,0,-1,741,1296,-0.0487647,-0.0897377
-476,-272,0,0,0,0,0,0,0,0,0,-1,748,1296,0,0
-469,-272,0,0,0,0,0,0,0,0,0,-1,755,1296,0,0
-462,-272,0,0,0,0,0,0,0,0,0,-1,762,1296,0,0
-455,-272,0,0,0,0,0,0,0,0,0,-1,769,1296,0,0
-448,-272,0,0,0,0,0,0,0,0,0,-1,776,1296,0,0
-441,-272,0,0,0,0,0,0,0,0,0,-1,783,1296,0,0
-434,-272,0,0,0,0,0,0,0,0,0,-1,790,1296,0,0
-427,-272,0,0,0,0,0,0,0,0,0,-1,797,1296,0,0
-420,-272,0,0,0,0,0,0,0,0,0,-1,804,1296,0,0
-413,-272,0,0,0,0,0,0,0,0,0,-1,811,1296,0,0
-406,-272,0,0,0,0,0,0,0,0,0,-1,818,1296,0,0
-399,-272,0,0,0,0,0,0,0,0,0,-1,825,1296,0,0
-392,-272,0,0,0,0,0,0,0,0,0,-1,832,1296,0,0
-385,-272,0,0,0,0,0,0,0,0,0,-1,839,1296,0,0
-378,-272,0,0,0,0,0,0,0,0,0,-1,846,1296,0,0
-371,-272,0,0,0,0,0,0,0,0,0,-1,853,1296,0,0
-364,-272,0,0,0,0,0,0,0,0,0,-1,860,1296,0,0
-357,-272,0,0,0,0,0,0,0,0,0,-1,867,1296,0,0
-350,-272,0,0,0,0,0,0,0,0,0,-1,874,1296,0,0
-343,-272,0,0,0,0,0,0,0,0,0,-1,881,1296,0,0
-336,-272,0,0,0,0,0,0,0,0,0,-1,888,1296,0,0
-329,-272,0,0,0,0,0,0,0,0,0,-1,895,1296,0,0
-322,-272,0,0,0,0,0,0,0,0,0,-1,902,1296,0,0
-315,-272,0,0,0,0,0,0,0,0,0,-1,909,1296,0,0
-308,-272,0,0,0,0,0,0,0,0,0,-1,916,1296,0,0
-301,-272,0,0,0,0,0,0,0,0,0,-1,923,1296,0,0
-294,-272,0,0,0,0,0,0,0,0,0,-1,930,1296,0,0
-287,-272,0,0,0,0,0,0,0,0,0,-1,937,1296,0,0
-280,-272,0,0,0,0,0,0,0,0,0,-1,944,1296,0,0
-273,-272,0,0,0,0,0,0,0,0,0,-1,951,1296,0,0
-266,-272,0,0,0,0,0,0,0,0,0,-1,958,1296,0,0
-259,-272,0,0,0,0,0,0,0,0,0,-1,965,1296,0,0
-252,-272,0,0,0,0,0,0,0,0,0,-1,972,1296,0,0
-245,-272,0,0,0,0,0,0,0,0,0,-1,979,1296,0,0
-238,-272,0,0,0,0,0,0,0,0,0,-1,986,1296,0,0
-231,-272,0,0,0,0,0,0,0,0,0,-1,993,1296,0,0
-224,-272,0,0,0,0,0,0,0,0,0,-1,1000,1296,0,0
-217,-272,0,0,0,0,0,0,0,0,0,-1,1007,1296,0,0
-210,-272,0,0,0,0,0,0,0,0,0,-1,1014,1296,0,0
-203,-272,0,0,0,0,0,0,0,0,0,-1,1021,1296,0,0
-196,-272,0,0,0,0,0,0,0,0,0,-1,1028,1296,0,0
-189,-272,0,0,0,0,0,0,0,0,0,-1,1035,1296,0,0
-182,-272,0,0,0,0,0,0,0,0,0,-1,1042,1296,0,0
-175,-272,0,0,0,0,0,0,0,0,0,-1,1049,1296,0,0
-168,-272,0,0,0,0,0,0,0,0,0,-1,1056,1296,0,0
-161,-272,0,0,0,0,0,0,0,0,0,-1,1063,1296,0,0
-154,-272,0,0,0,0,0,0,0,0,0,-1,1070,1296,0,0
-147,-272,0,0,0,0,0,0,0,0,0,-1,1077,1296,0,0
-140,-272,0,0,0,0,0,0,0,0,0,-1,1084,1296,0,0
-133,-272,0,0,0,0,0,0,0,0,0,-1,1091,1296,0,0
-126,-272,0,0,0,0,0,0,0,0,0,-1,1098,1296,0,0
-119,-272,0,0,0,0,0,0,0,0,0,-1,1105,1296,0,0
-112,-272,0,0,0,0,0,0,0,0,0,-1,1112,1296,0,0
-105,-272,0,0,0,0,0,0,0,0,0,-1,1119,1296,0,0
-98,-272,0,0,0,0,0,0,0,0,0,-1,1126,1296,0,0
-91,-272,0,0,0,0,0,0,0,0,0,-1,1133,1296,0,0
-84,-272,0,0,0,0,0,0,0,0,0,-1,1140,1296,0,0
-77,-272,0,0,0,0,0,0,0,0,0,-1,1147,1296,0,0
-70,-272,0,0,0,0,0,0,0,0,0,-1,1154,1296,0,0
-63,-272,0,0,0,0,0,0,0,0,0,-1,1161,1296,0,0
-56,-272,0,0,0,0,0,0,0,0,0,-1,1168,1296,0,0
-49,-272,0,0,0,0,0,0,0,0,0,-1,1175,1296,0,0
-42,-272,0,0,0,0,0,0,0,0,0,-1,1182,1296,0,0
-35,-272,0,0,0,0,0,0,0,0,0,-1,1189,1296,0,0
-28,-272,0,0,0,0,0,0,0,0,0,-1,1196,1296,0,0
-21,-272,0,0,0,0,0,0,0,0,0,-1,1203,1296,0,0
-14,-272,0,0,0,0,0,0,0,0,0,-1,1210,1296,0,0
-7,-272,0,0,0,0,0,0,0,0,0,-1,1217,1296,0,0
0,-272,0,0,0,0,0,0,0,0,0,-1,1224,1296,0,0
7,-272,0,0,0,0,0,0,0,0,0,-1,1231,1296,0,0
14,-272,0,0,0,0,0,0,0,0,0,-1,1238,1296,0,0
21,-272,0,0,0,0,0,0,0,0,0,-1,1245,1296,0,0
28,-272,0,0,0,0,0,0,0,0,0,-1,1252,1296,0,0
35,-272,0,0,0,0,0,0,0,0,0,-1,1259,1296,0,0
42,-272,0,0,0,0,0,0,0,0,0,-1,1266,1296,0,0
49,-272,0,0,0,0,0,0,0,0,0,-1,1273,1296,0,0
56,-272,0,0,0,0,0,0,0,0,0,-1,1280,1296,0,0
63,-272,0,0,0,0,0,0,0,0,0,-1,1287,1296,0,0
70,-272,0,0,0,0,0,0,0,0,0,-1,1294,1296,0,0
77,-272,0,0,0,0,0,0,0,0,0,-1,1301,1296,0,0
84,-272,0,0,0,0,0,0,0,0,0,-1,1308,1296,0,0
91,-272,0,0,0,0,0,0,0,0,0,-1,1315,1296,0,0
98,-272,0,0,0,0,0,0,0,0,0,-1,1322,1296,0,0
105,-272,0,0,0,0,0,0,0,0,0,-1,1329,1296,0,0
112,-272,0,0,0,0,0,0,0,0,0,-1,1336,1296,0,0
119,-272,0,0,0,0,0,0,0,0,0,-1,1343,1296,0,0
126,-272,0,0,0,0,0,0,0,0,0,-1,1350,1296,0,0
133,-272,0,0,0,0,0,0,0,0,0,-1,1357,1296,0,0
140,-272,0,0,0,0,0,0,0,0,0,-1,1364,1296,0,0
147,-272,0,0,0,0,0,0,0,0,0,-1,1371,1296,0,0
154,-272,0,0,0,0,0,0,0,0,0,-1,1378,1296,0,0
161,-272,0,0,0,0,0,0,0,0,0,-1,1385,1296,0,0
168,-272,0,0,0,0,0,0,0,0,0,-1,1392,1296,0,0
175,-272,0,0,0,0,0,0,0,0,0,-1,1399,1296,0,0
182,-272,0,0,0,0,0,0,0,0,0,-1,1406,1296,0,0
189,-272,0,0,0,0,0,0,0,0,0,-1,1413,1296,0,0
196,-272,0,0,0,0,0,0,0,0,0,-1,1420,1296,0,0
203,-272,0,0,0,0,0,0,0,0,0,-1,1427,1296,0,0
210,-272,0,0,0,0,0,0,0,0,0,-1,1434,1296,0,0
217,-272,0,0,0,0,0,0,0,0,0,-1,1441,1296,0,0
224,-272,0,0,0,0,0,0,0,0,0,-1,1448,1296,0,0
231,-272,0,0,0,0,0,0,0,0,0,-1,1455,1296,0,0
238,-272,0,0,0,0,0,0,0,0,0,-1,1462,1296,0,0
245,-272,0,0,0,0,0,0,0,0,0,-1,1469,1296,0,0
252,-272,0,0,0,0,0,0,0,0,0,-1,1476,1296,0,0
259,-272,0,0,0,0,0,0,0,0,0,-1,1483,1296,0,0
266,-272,0,0,0,0,0,0,0,0,0,-1,1490,1296,0,0
273,-272,0,0,0,0,0,0,0,0,0,-1,1497,1296,0,0
280,-272,0,0,0,0,0,0,0,0,0,-1,1504,1296,0,0
287,-272,0,0,0,0,0,0,0,0,0,-1,1511,1296,0,0
294,-272,0,0,0,0,0,0,0,0,0,-1,1518,1296,0,0
301,-272,0,0,0,0,0,0,0,0,0,-1,1525,1296,0,0
308,-272,0,0,0,0,0,0,0,0,0,-1,1532,1296,0,0
315,-272,0,0,0,0,0,0,0,0,0,-1,1539,1296,0,0
322,-272,0,0,0,0,0,0,0,0,0,-1,1546,1296,0,0
329,-272,0,0,0,0,0,0,0,0,0,-1,1553,1296,0,0
336,-272,0,0,0,0,0,0,0,0,0,-1,1560,1296,0,0
343,-272,0,0,0,0,0,0,0,0,0,-1,1567,1296,0,0
350,-272,0,0,0,0,0,0,0,0,0,-1,1574,1296,0,0
357,-272,0,0,0,0,0,0,0,0,0,-1,1581,1296,0,0
364,-272,0,0,0,0,0,0,0,0,0,-1,1588,1296,0,0
371,-272,0,0,0,0,0,0,0,0,0,-1,1595,1296,0,0
378,-272,0,0,0,0,0,0,0,0,0,-1,1602,1296,0,0
385,-272,0,0,0,0,0,0,0,0,0,-1,1609,1296,0,0
392,-272,0,0,0,0,0,0,0,0,0,-1,1616,1296,0,0
399,-272,0,0,0,0,0,0,0,0,0,-1,1623,1296,0,0
406,-272,0,0,0,0,0,0,0,0,0,-1,1630,1296,0,0
413,-272,0,0,0,0,0,0,0,0,0,-1,1637,1296,0,0
420,-272,0,0,0,0,0,0,0,0,0,-1,1644,1296,0,0
427,-272,0,0,0,0,0,0,0,0,0,-1,1651,1296,0,0
434,-272,0,0,0,0,0,0,0,0,0,-1,1658,1296,0,0
441,-272,0,0,0,0,0,0,0,0,0,-1,1665,1296,0,0
448,-272,0,0,0,0,0,0,0,0,0,-1,1672,1296,0,0
455,-272,0,0,0,0,0,0,0,0,0,-1,1679,1296,0,0
462,-272,0,0,0,0,0,0,0,0,0,-1,1686,1296,0,0
469,-272,0,0,0,0,0,0,0,0,0,-1,1693,1296,0,0
476,-272,0,0,0,0,0,0,0,0,0,-1,1700,1296,0,0
483,-272,0,0,0,0,0,0,0,0,0,-1,1707,1296,0,0
490,-272,0,0,0,0,0,0,0,0,0,-1,1714,1296,0,0
497,-272,0,0,0,0,0,0,0,0,0,-1,1721,1296,0,0
504,-272,0,0,0,0,0,0,0,0,0,-1,1728,1296,0,0
511,-272,0,0,0,0,0,0,0,0,0,-1,1735,1296,0,0
518,-272,0,0,0,0,0,0,0,0,0,-1,1742,1296,0,0
525,-272,0,0,0,0,0,0,0,0,0,-1,1749,1296,0,0
532,-272,0,0,0,0,0,0,0,0,0,-1,1756,1296,0,0
539,-272,0,0,0,0,0,0,0,0,0,-1,1763,1296,0,0
546,-272,0,0,0,0,0,0,0,0,0,-1,1770,1296,0,0
553,-272,0,0,0,0,0,0,0,0,0,-1,1777,1296,0,0
560,-272,0,0,0,0,0,0,0,0,0,-1,1784,1296,0,0
567,-272,0,0,0,0,0,0,0,0,0,-1,1791,1296,0,0
574,-272,0,0,0,0,0,0,0,0,0,-1,1798,1296,0,0
581,-272,0,0,0,0,0,0,0,0,0,-1,1805,1296,0,0
588,-272,0,0,0,0,0,0,0,0,0,-1,1812,1296,0,0
595,-272,0,0,0,0,0,0,0,0,0,-1,1819,1296,0,0
602,-272,0.00256348,0.0169678,-0.018032,0.0186874,-0.00629867,0.0197378,-0.0190824,-1.40555,0.0224139,0.0275563,1826,1296,0.00259444,-0.0169714
609,-272,-0.0189209,0.00732422,-0.0112461,0.0182899,-0.00758164,0.0201224,-0.0130785,-1.33365,0.0193118,0.0323097,1833,1296,-0.0189388,-0.00732184
616,-272,-0.043457,-0.03479,-0.00467366,0.0168969,-0.00820299,0.0196619,-0.00743871,-1.24568,0.0161683,0.0405969,1840,1296,-0.0434715,0.0347823
623,-272,0.012207,-0.0559082,0.000920289,0.0147614,-0.00828328,0.0186347,-0.00295299,-1.1334,0.0135154,0.0446244,1847,1296,0.0122678,0.0558609
630,-272,-1.56812,0.294067,0,0,0,0,0,0,0,-1,1854,1296,-1.56808,-0.294108
637,-272,-0.920288,0.249634,0,0,0,0,0,0,0,-1,1861,1296,-0.920247,-0.249617
644,-272,-0.272461,0.205078,0,0,0,0,0,0,0,-1,1868,1296,-0.27241,-0.205126
651,-272,1.19263,0.0240479,0,0,0,0,0,0,0,-1,1875,1296,1.19259,-0.0240258
658,-272,-0.490234,0.12439,0,0,0,0,0,0,0,-1,1882,1296,-0.490214,-0.124335
665,-272,-0.0327148,-0.0772705,0,0,0,0,0,0,0,-1,1889,1296,-0.0326827,0.0773305
672,-272,-0.0197754,-0.0415039,0.00607839,0.00256569,-0.00315745,0.00793511,0.000708978,-0.531582,0.00507029,0.0479103,1896,1296,-0.0197521,0.0415014
679,-272,0.00500488,-0.00158691,0.00495251,0.00105577,-0.00218331,0.0059304,7.78819e-05,-0.421101,0.0039279,0.0169517,1903,1296,0.0049818,0.00157355
686,-272,0.00756836,0.0281982,0.00318249,0.000587432,-0.00145669,0.00383573,-6.58158e-05,-0.421561,0.00257937,0.0118799,1910,1296,0.00757078,-0.0281468
693,-272,-0.0181885,0.0361328,0.00161726,0.000394309,-0.000803987,0.00201588,-4.31447e-06,-0.460288,0.00134536,0.00993962,1917,1296,-0.0182239,-0.0361243
700,-272,-0.0177002,0.0531006,0.000235225,0.000365926,-0.000235946,0.000545404,5.57464e-05,-0.920497,0.000346519,0.00952802,1924,1296,-0.0176493,-0.0531165
707,-272,-0.0130615,0.0421143,-0.000886014,0.000234519,0.000181816,0.000263282,-0.000914777,1.4139,0.000713981,0.0101709,1931,1296,-0.0130752,-0.0421603
714,-272,-0.0212402,0.0219727,-0.00144237,0.000477418,0.000199059,0.00049784,-0.00146279,1.46856,0.00117678,0.00971992,1938,1296,-0.0212988,-0.0219808
721,-272,-0.0352783,0.024292,-0.00190045,0.00160284,0.000368952,0.00164127,-0.00193888,1.467,0.00206938,0.009482,1945,1296,-0.035223,-0.0242651
728,-272,-0.0297852,0.0411377,-0.00209432,0.00305301,0.000192584,0.0030602,-0.00210152,1.53345,0.00299721,0.0111021,1952,1296,-0.0298236,-0.0411242
735,-272,-0.0163574,0.0625,-0.00269528,0.0041322,0.000187398,0.00413734,-0.00270042,1.54338,0.00397673,0.0118056,1959,1296,-0.0164069,-0.0624861
742,-272,-0.00524902,0.104492,-0.00337676,0.0061595,3.77049e-05,0.00615965,-0.0033769,1.56684,0.00558352,0.0203298,1966,1296,-0.00529835,-0.104456
749,-272,-0.0218506,0.324219,-0.00423447,0.00881019,-0.000224317,0.00881404,-0.00423833,-1.55361,0.00768859,0.0363459,1973,1296,-0.0218002,-0.324261
756,-272,-0.337891,0.300537,-0.0052275,0.0122941,-0.000618468,0.0123159,-0.0052493,-1.53556,0.0104112,0.0412496,1980,1296,-0.337891,-0.300517
763,-272,-0.549072,-0.200439,-0.00633881,0.0167641,-0.00117546,0.0168238,-0.00639846,-1.52009,0.0138504,0.0400704,1987,1296,-0.549122,0.200381
770,-272,-0.665649,-0.597534,-0.00762554,0.0223603,-0.00190819,0.0224813,-0.00774649,-1.5075,0.01813,0.0471148,1994,1296,-0.665674,0.597565
777,-272,-0.850464,-0.990601,0,0,0,0,0,0,0,-1,2001,1296,-0.850513,0.99056
784,-272,0,0,0,0,0,0,0,0,0,-1,2008,1296,0,0
791,-272,0,0,0,0,0,0,0,0,0,-1,2015,1296,0,0
798,-272,0,0,0,0,0,0,0,0,0,-1,2022,1296,0,0
805,-272,0,0,0,0,0,0,0,0,0,-1,2029,1296,0,0
812,-272,0,0,0,0,0,0,0,0,0,-1,2036,1296,0,0
-700,-279,0,0,0,0,0,0,0,0,0,-1,524,1303,0,0
-693,-279,0,0,0,0,0,0,0,0,0,-1,531,1303,0,0
-686,-279,0,0,0,0,0,0,0,0,0,-1,538,1303,0,0
-679,-279,0,0,0,0,0,0,0,0,0,-1,545,1303,0,0
-672,-279,0,0,0,0,0,0,0,0,0,-1,552,1303,0,0
-665,-279,0,0,0,0,0,0,0,0,0,-1,559,1303,0,0
-658,-279,0.619263,1.0603,-0.028825,0.0111103,0.00123194,0.0111483,-0.028863,1.53999,0.0238433,0.0419068,566,1303,0.619238,-1.06024
-651,-279,0.447632,1.34229,-0.0260559,0.0106155,0.000713799,0.0106294,-0.0260698,1.55134,0.0218044,0.0402872,573,1303,0.44764,-1.34226
-644,-279,0.387878,1.13013,-0.0227833,0.0100496,0.000586534,0.0100601,-0.0227938,1.55294,0.0194373,0.0413847,580,1303,0.387902,-1.1301
-637,-279,0.125671,0.806152,-0.0192986,0.00932432,0.000606607,0.00933717,-0.0193115,1.54962,0.0168712,0.042618,587,1303,0.125663,-0.806188
-630,-279,-0.329712,0.918457,-0.015888,0.00841465,0.000674686,0.00843336,-0.0159067,1.54306,0.0142718,0.0427263,594,1303,-0.329682,-0.918457
-623,-279,-0.361084,0.582642,-0.0127054,0.00734435,0.00074798,0.00737222,-0.0127332,1.53356,0.0117446,0.0417492,601,1303,-0.361114,-0.582585
-616,-279,-0.0378418,0.0794678,-0.00985557,0.00617131,0.00079474,0.00621062,-0.00989488,1.52137,0.00937926,0.0385799,608,1303,-0.0378529,-0.0795203
-609,-279,-0.0335083,0.039917,-0.00735466,0.00467834,0.000678191,0.00471644,-0.00739277,1.51467,0.00704794,0.0250189,615,1303,-0.0334885,-0.0399427
-602,-279,-0.0249023,0.0408936,-0.00531349,0.00359351,0.000638004,0.00363898,-0.00535896,1.49965,0.0052265,0.0113422,622,1303,-0.0249159,-0.0408565
-595,-279,-0.013916,0.0490723,-0.00366614,0.0031404,0.000657705,0.00320337,-0.00372911,1.47534,0.00400631,0.00925646,629,1303,-0.0139115,-0.0490657
-588,-279,0.0205688,0.0649414,-0.0023405,0.00235306,0.000722912,0.00246188,-0.00244932,1.42139,0.00283549,0.00946977,636,1303,0.0205877,-0.0649702
-581,-279,-0.0114746,0.0570068,-0.00113489,0.00128749,0.000782375,0.00151821,-0.0013656,1.28403,0.00166575,0.0111527,643,1303,-0.0114678,-0.0570267
-574,-279,-0.0317383,0.048584,-0.000268786,0.00114596,0.000663117,0.00140818,-0.000531001,1.19424,0.00115714,0.0110602,650,1303,-0.0317529,-0.0485453
-567,-279,-0.0397339,0.0632324,0.000178493,0.000918807,0.000669436,0.00131361,-0.000216309,1.03795,0.000956033,0.0133858,657,1303,-0.0397452,-0.0632201
-560,-279,-0.0411377,0.0715332,-0.000108512,0.0013251,0.000921342,0.00177564,-0.000559045,1.11599,0.00140761,0.0150198,664,1303,-0.0411124,-0.0715415
-553,-279,-0.0168457,0.0675049,0.000272217,0.000887156,0.0010693,0.00169231,-0.000532937,0.925393,0.00134161,0.0119476,671,1303,-0.0168385,-0.0674617
-546,-279,-0.0179443,0.038208,0.00024437,0.000683554,0.00101292,0.00150041,-0.000572487,0.892142,0.00123611,0.0123808,678,1303,-0.0179577,-0.0381953
-539,-279,-0.024292,0.102295,-0.000325223,0.00178103,0.000790996,0.002045,-0.000589196,1.2487,0.0015964,0.0354843,685,1303,-0.0242808,-0.102332
-532,-279,-0.385864,1.40857,0,0,0,0,0,0,0,-1,692,1303,-0.385878,-1.4086
-525,-279,0.010498,1.07056,-0.00238088,0.00368413,0.000666695,0.00375655,-0.00245331,1.46259,0.00361149,0.0452375,699,1303,0.010495,-1.07059
-518,-279,-0.0352783,0.528809,-0.00412461,0.00464161,0.000501505,0.0046702,-0.0041532,1.51384,0.00509711,0.0420137,706,1303,-0.03526,-0.528836
-511,-279,-0.235107,0.501099,-0.00624287,0.00593401,0.000144945,0.00593573,-0.00624459,1.5589,0.00703307,0.0434428,713,1303,-0.235098,-0.501111
-504,-279,-0.356018,0.509766,-0.00898358,0.00763232,-0.000340006,0.00763927,-0.00899053,-1.55035,0.00961178,0.0460342,720,1303,-0.356008,-0.509793
-497,-279,-0.357056,0.479004,-0.0124654,0.00985788,-0.000925029,0.00989614,-0.0125037,-1.52945,0.0129617,0.0460022,727,1303,-0.357045,-0.478996
-490,-279,-0.419312,0.386108,0,0,0,0,0,0,0,-1,734,1303,-0.419315,-0.38607
-483,-279,-0.292297,0.249878,0,0,0,0,0,0,0,-1,741,1303,-0.292302,-0.249867
-476,-279,0,0,0,0,0,0,0,0,0,-1,748,1303,0,0
-469,-279,0,0,0,0,0,0,0,0,0,-1,755,1303,0,0
-462,-279,0,0,0,0,0,0,0,0,0,-1,762,1303,0,0
-455,-279,0,0,0,0,0,0,0,0,0,-1,769,1303,0,0
-448,-279,0,0,0,0,0,0,0,0,0,-1,776,1303,0,0
-441,-279,0,0,0,0,0,0,0,0,0,-1,783,1303,0,0
-434,-279,0,0,0,0,0,0,0,0,0,-1,790,1303,0,0
-427,-279,0,0,0,0,0,0,0,0,0,-1,797,1303,0,0
-420,-279,0,0,0,0,0,0,0,0,0,-1,804,1303,0,0
-413,-279,0,0,0,0,0,0,0,0,0,-1,811,1303,0,0
-406,-279,0,0,0,0,0,0,0,0,0,-1,818,1303,0,0
-399,-279,0,0,0,0,0,0,0,0,0,-1,825,1303,0,0
-392,-279,0,0,0,0,0,0,0,0,0,-1,832,1303,0,0
-385,-279,0,0,0,0,0,0,0,0,0,-1,839,1303,0,0
-378,-279,0,0,0,0,0,0,0,0,0,-1,846,1303,0,0
-371,-279,0,0,0,0,0,0,0,0,0,-1,853,1303,0,0
-364,-279,0,0,0,0,0,0,0,0,0,-1,860,1303,0,0
-357,-279,0,0,0,0,0,0,0,0,0,-1,867,1303,0,0
-350,-279,0,0,0,0,0,0,0,0,0,-1,874,1303,0,0
-343,-279,0,0,0,0,0,0,0,0,0,-1,881,1303,0,0
-336,-279,0,0,0,0,0,0,0,0,0,-1,888,1303,0,0
-329,-279,0,0,0,0,0,0,0,0,0,-1,895,1303,0,0
-322,-279,0,0,0,0,0,0,0,0,0,-1,902,1303,0,0
-315,-279,0,0,0,0,0,0,0,0,0,-1,909,1303,0,0
-308,-279,0,0,0,0,0,0,0,0,0,-1,916,1303,0,0
-301,-279,0,0,0,0,0,0,0,0,0,-1,923,1303,0,0
-294,-279,0,0,0,0,0,0,0,0,0,-1,930,1303,0,0
-287,-279,0,0,0,0,0,0,0,0,0,-1,937,1303,0,0
-280,-279,0,0,0,0,0,0,0,0,0,-1,944,1303,0,0
-273,-279,0,0,0,0,0,0,0,0,0,-1,951,1303,0,0
-266,-279,0,0,0,0,0,0,0,0,0,-1,958,1303,0,0
-259,-279,0,0,0,0,0,0,0,0,0,-1,965,1303,0,0
-252,-279,0,0,0,0,0,0,0,0,0,-1,972,1303,0,0
-245,-279,0,0,0,0,0,0,0,0,0,-1,979,1303,0,0
-238,-279,0,0,0,0,0,0,0,0,0,-1,986,1303,0,0
-231,-279,0,0,0,0,0,0,0,0,0,-1,993,1303,0,0
-224,-279,0,0,0,0,0,0,0,0,0,-1,1000,1303,0,0
-217,-279,0,0,0,0,0,0,0,0,0,-1,1007,1303,0,0
-210,-279,0,0,0,0,0,0,0,0,0,-1,1014,1303,0,0
-203,-279,0,0,0,0,0,0,0,0,0,-1,1021,1303,0,0
-196,-279,0,0,0,0,0,0,0,0,0,-1,1028,1303,0,0
-189,-279,0,0,0,0,0,0,0,0,0,-1,1035,1303,0,0
-182,-279,0,0,0,0,0,0,0,0,0,-1,1042,1303,0,0
-175,-279,0,0,0,0,0,0,0,0,0,-1,1049,1303,0,0
-168,-279,0,0,0,0,0,0,0,0,0,-1,1056,1303,0,0
-161,-279,0,0,0,0,0,0,0,0,0,-1,1063,1303,0,0
-154,-279,0,0,0,0,0,0,0,0,0,-1,1070,1303,0,0
-147,-279,0,0,0,0,0,0,0,0,0,-1,1077,1303,0,0
-140,-279,0,0,0,0,0,0,0,0,0,-1,1084,1303,0,0
-133,-279,0,0,0,0,0,0,0,0,0,-1,1091,1303,0,0
-126,-279,0,0,0,0,0,0,0,0,0,-1,1098,1303,0,0
-119,-279,0,0,0,0,0,0,0,0,0,-1,1105,1303,0,0
-112,-279,0,0,0,0,0,0,0,0,0,-1,1112,1303,0,0
-105,-279,0,0,0,0,0,0,0,0,0,-1,1119,1303,0,0
-98,-279,0,0,0,0,0,0,0,0,0,-1,1126,1303,0,0
-91,-279,0,0,0,0,0,0,0,0,0,-1,1133,1303,0,0
-84,-279,0,0,0,0,0,0,0,0,0,-1,1140,1303,0,0
-77,-279,0,0,0,0,0,0,0,0,0,-1,1147,1303,0,0
-70,-279,0,0,0,0,0,0,0,0,0,-1,1154,1303,0,0
-63,-279,0,0,0,0,0,0,0,0,0,-1,1161,1303,0,0
-56,-279,0,0,0,0,0,0,0,0,0,-1,1168,1303,0,0
-49,-279,0,0,0,0,0,0,0,0,0,-1,1175,1303,0,0
-42,-279,0,0,0,0,0,0,0,0,0,-1,1182,1303,0,0
-35,-279,0,0,0,0,0,0,0,0,0,-1,1189,1303,0,0
-28,-279,0,0,0,0,0,0,0,0,0,-1,1196,1303,0,0
-21,-279,0,0,0,0,0,0,0,0,0,-1,1203,1303,0,0
-14,-279,0,0,0,0,0,0,0,0,0,-1,1210,1303,0,0
-7,-279,0,0,0,0,0,0,0,0,0,-1,1217,1303,0,0
0,-279,0,0,0,0,0,0,0,0,0,-1,1224,1303,0,0
7,-279,0,0,0,0,0,0,0,0,0,-1,1231,1303,0,0
14,-279,0,0,0,0,0,0,0,0,0,-1,1238,1303,0,0
21,-279,0,0,0,0,0,0,0,0,0,-1,1245,1303,0,0
28,-279,0,0,0,0,0,0,0,0,0,-1,1252,1303,0,0
35,-279,0,0,0,0,0,0,0,0,0,-1,1259,1303,0,0
42,-279,0,0,0,0,0,0,0,0,0,-1,1266,1303,0,0
49,-279,0,0,0,0,0,0,0,0,0,-1,1273,1303,0,0
56,-279,0,0,0,0,0,0,0,0,0,-1,1280,1303,0,0
63,-279,0,0,0,0,0,0,0,0,0,-1,1287,1303,0,0
70,-279,0,0,0,0,0,0,0,0,0,-1,1294,1303,0,0
77,-279,0,0,0,0,0,0,0,0,0,-1,1301,1303,0,0
84,-279,0,0,0,0,0,0,0,0,0,-1,1308,1303,0,0
91,-279,0,0,0,0,0,0,0,0,0,-1,1315,1303,0,0
98,-279,0,0,0,0,0,0,0,0,0,-1,1322,1303,0,0
105,-279,0,0,0,0,0,0,0,0,0,-1,1329,1303,0,0
112,-279,0,0,0,0,0,0,0,0,0,-1,1336,1303,0,0
119,-279,0,0,0,0,0,0,0,0,0,-1,1343,1303,0,0
126,-279,0,0,0,0,0,0,0,0,0,-1,1350,1303,0,0
133,-279,0,0,0,0,0,0,0,0,0,-1,1357,1303,0,0
140,-279,0,0,0,0,0,0,0,0,0,-1,1364,1303,0,0
147,-279,0,0,0,0,0,0,0,0,0,-1,1371,1303,0,0
154,-279,0,0,0,0,0,0,0,0,0,-1,1378,1303,0,0
161,-279,0,0,0,0,0,0,0,0,0,-1,1385,1303,0,0
168,-279,0,0,0,0,0,0,0,0,0,-1,1392,1303,0,0
175,-279,0,0,0,0,0,0,0,0,0,-1,1399,1303,0,0
182,-279,0,0,0,0,0,0,0,0,0,-1,1406,1303,0,0
189,-279,0,0,0,0,0,0,0,0,0,-1,1413,1303,0,0
196,-279,0,0,0,0,0,0,0,0,0,-1,1420,1303,0,0
203,-279,0,0,0,0,0,0,0,0,0,-1,1427,1303,0,0
210,-279,0,0,0,0,0,0,0,0,0,-1,1434,1303,0,0
217,-279,0,0,0,0,0,0,0,0,0,-1,1441,1303,0,0
224,-279,0,0,0,0,0,0,0,0,0,-1,1448,1303,0,0
231,-279,0,0,0,0,0,0,0,0,0,-1,1455,1303,0,0
238,-279,0,0,0,0,0,0,0,0,0,-1,1462,1303,0,0
245,-279,0,0,0,0,0,0,0,0,0,-1,1469,1303,0,0
252,-279,0,0,0,0,0,0,0,0,0,-1,1476,1303,0,0
259,-279,0,0,0,0,0,0,0,0,0,-1,1483,1303,0,0
266,-279,0,0,0,0,0,0,0,0,0,-1,1490,1303,0,0
273,-279,0,0,0,0,0,0,0,0,0,-1,1497,1303,0,0
280,-279,0,0,0,0,0,0,0,0,0,-1,1504,1303,0,0
287,-279,0,0,0,0,0,0,0,0,0,-1,1511,1303,0,0
294,-279,0,0,0,0,0,0,0,0,0,-1,1518,1303,0,0
301,-279,0,0,0,0,0,0,0,0,0,-1,1525,1303,0,0
308,-279,0,0,0,0,0,0,0,0,0,-1,1532,1303,0,0
315,-279,0,0,0,0,0,0,0,0,0,-1,1539,1303,0,0
322,-279,0,0,0,0,0,0,0,0,0,-1,1546,1303,0,0
329,-279,0,0,0,0,0,0,0,0,0,-1,1553,1303,0,0
336,-279,0,0,0,0,0,0,0,0,0,-1,1560,1303,0,0
343,-279,0,0,0,0,0,0,0,0,0,-1,1567,1303,0,0
350,-279,0,0,0,0,0,0,0,0,0,-1,1574,1303,0,0
357,-279,0,0,0,0,0,0,0,0,0,-1,1581,1303,0,0
364,-279,0,0,0,0,0,0,0,0,0,-1,1588,1303,0,0
371,-279,0,0,0,0,0,0,0,0,0,-1,1595,1303,0,0
378,-279,0,0,0,0,0,0,0,0,0,-1,1602,1303,0,0
385,-279,0,0,0,0,0,0,0,0,0,-1,1609,1303,0,0
392,-279,0,0,0,0,0,0,0,0,0,-1,1616,1303,0,0
399,-279,0,0,0,0,0,0,0,0,0,-1,1623,1303,0,0
406,-279,0,0,0,0,0,0,0,0,0,-1,1630,1303,0,0
413,-279,0,0,0,0,0,0,0,0,0,-1,1637,1303,0,0
420,-279,0,0,0,0,0,0,0,0,0,-1,1644,1303,0,0
427,-279,0,0,0,0,0,0,0,0,0,-1,1651,1303,0,0
434,-279,0,0,0,0,0,0,0,0,0,-1,1658,1303,0,0
441,-279,0,0,0,0,0,0,0,0,0,-1,1665,1303,0,0
448,-279,0,0,0,0,0,0,0,0,0,-1,1672,1303,0,0
455,-279,0,0,0,0,0,0,0,0,0,-1,1679,1303,0,0
462,-279,0,0,0,0,0,0,0,0,0,-1,1686,1303,0,0
469,-279,0,0,0,0,0,0,0,0,0,-1,1693,1303,0,0
476,-279,0,0,0,0,0,0,0,0,0,-1,1700,1303,0,0
483,-279,0,0,0,0,0,0,0,0,0,-1,1707,1303,0,0
490,-279,0,0,0,0,0,0,0,0,0,-1,1714,1303,0,0
497,-279,0,0,0,0,0,0,0,0,0,-1,1721,1303,0,0
504,-279,0,0,0,0,0,0,0,0,0,-1,1728,1303,0,0
511,-279,0,0,0,0,0,0,0,0,0,-1,1735,1303,0,0
518,-279,0,0,0,0,0,0,0,0,0,-1,1742,1303,0,0
525,-279,0,0,0,0,0,0,0,0,0,-1,1749,1303,0,0
532,-279,0,0,0,0,0,0,0,0,0,-1,1756,1303,0,0
539,-279,0,0,0,0,0,0,0,0,0,-1,1763,1303,0,0
546,-279,0,0,0,0,0,0,0,0,0,-1,1770,1303,0,0
553,-279,0,0,0,0,0,0,0,0,0,-1,1777,1303,0,0
560,-279,0,0,0,0,0,0,0,0,0,-1,1784,1303,0,0
567,-279,0,0,0,0,0,0,0,0,0,-1,1791,1303,0,0
574,-279,0,0,0,0,0,0,0,0,0,-1,1798,1303,0,0
581,-279,0,0,0,0,0,0,0,0,0,-1,1805,1303,0,0
588,-279,0,0,0,0,0,0,0,0,0,-1,1812,1303,0,0
595,-279,0,0,0,0,0,0,0,0,0,-1,1819,1303,0,0
602,-279,-0.00170898,0.0640869,-0.0185767,0.0255261,-0.0049362,0.0260718,-0.0191224,-1.46069,0.0261955,0.0355399,1826,1303,-0.00165629,-0.0640695
609,-279,-0.0479736,0.0725098,-0.0115086,0.0232645,-0.0066014,0.0244756,-0.0127197,-1.38936,0.0218293,0.0436376,1833,1303,-0.0479496,-0.0725539
616,-279,0.0357666,-0.435791,-0.00488031,0.0203677,-0.0075464,0.0224513,-0.00696391,-1.3014,0.0177502,0.0449795,1840,1303,0.0357264,0.435757
623,-279,0.0140381,-0.0958252,0,0,0,0,0,0,0,-1,1847,1303,0.0140121,0.0957786
630,-279,-1.38904,0.431396,0.00442844,0.0140334,-0.00761704,0.0182356,0.000226314,-1.06667,0.0120823,0.0452083,1854,1303,-1.38909,-0.431441
637,-279,-0.731445,0.284912,0.00670703,0.0112781,-0.00704991,0.0164037,0.00158144,-0.94215,0.0104486,0.0456767,1861,1303,-0.731422,-0.284923
644,-279,-0.171875,0.218018,0,0,0,0,0,0,0,-1,1868,1303,-0.17192,-0.218029
651,-279,-0.656616,-0.0517578,0.00807688,0.00690925,-0.00538462,0.0129092,0.00207688,-0.731398,0.0080042,0.0463565,1875,1303,-0.656605,0.0517333
658,-279,-0.351563,-0.0618896,0.00811232,0.00507853,-0.00452071,0.0113638,0.00182701,-0.623529,0.00704629,0.0474335,1882,1303,-0.351621,0.0619094
665,-279,0.0390625,0.0924072,0.00741829,0.0037892,-0.00376039,0.00977904,0.00142845,-0.560606,0.00609922,0.0452689,1889,1303,0.0390972,-0.0924609
672,-279,0.0421143,0.017334,0.00671048,0.00264356,-0.00291794,0.00823361,0.00112043,-0.481083,0.00515633,0.0321652,1896,1303,0.0421488,-0.0173409
679,-279,0.0126953,-0.0157471,0.00564465,0.00105741,-0.00188376,0.00631906,0.000382992,-0.343798,0.00409102,0.0181187,1903,1303,0.0127509,0.0157859
686,-279,-0.0256348,0.0045166,0.00375987,0.000612765,-0.00117117,0.00414788,0.000224763,-0.319915,0.00269346,0.0179634,1910,1303,-0.0256017,-0.00453197
693,-279,-0.0447998,0.0325928,0.00207944,0.00045436,-0.000526292,0.00223499,0.000298806,-0.287383,0.00140105,0.0149198,1917,1303,-0.0448054,-0.0326039
700,-279,-0.0322266,0.0444336,0.0006471,0.000510956,2.30443e-06,0.000647139,0.000510917,0.0169199,0.000393949,0.00982799,1924,1303,-0.0322584,-0.0444307
707,-279,-0.0352783,0.038208,-0.000488709,0.000459944,0.000369555,0.000586913,-0.000615679,1.23986,0.000694383,0.00811055,1931,1303,-0.0353059,-0.0382485
714,-279,-0.0371094,0.0391846,-0.00101669,0.000808541,0.00034527,0.00087167,-0.00107982,1.38995,0.00112883,0.00958713,1938,1303,-0.0370644,-0.0391604
721,-279,-0.0357666,0.0422363,-0.00146999,0.00207528,0.000487798,0.00214118,-0.00153588,1.43653,0.00213251,0.0111671,1945,1303,-0.0357262,-0.0422116
728,-279,-0.0290527,0.0386963,-0.00162815,0.00372914,0.000347808,0.00375163,-0.00165064,1.50624,0.00319666,0.0115247,1952,1303,-0.0290307,-0.0387047
735,-279,-0.0155029,0.0473633,-0.00205609,0.00513519,0.000337911,0.00515104,-0.00207194,1.52394,0.00429463,0.0117239,1959,1303,-0.0155588,-0.0474018
742,-279,-0.00671387,0.0469971,-0.00247343,0.00750795,0.000208539,0.00751231,-0.00247778,1.54992,0.00600696,0.022301,1966,1303,-0.00665681,-0.046947
749,-279,-0.032959,0.0759277,-0.00293034,0.0107452,-2.9252e-05,0.0107452,-0.0029304,-1.56866,0.00831425,0.0383211,1973,1303,-0.0329127,-0.0759791
756,-279,-0.308105,0.0500488,-0.00339488,0.0150359,-0.000413436,0.0150452,-0.00340415,-1.54838,0.0113365,0.0417561,1980,1303,-0.308137,-0.050028
763,-279,-0.449219,-0.382568,-0.00386151,0.0205845,-0.00098679,0.0206243,-0.00390127,-1.53052,0.0152176,0.0402335,1987,1303,-0.449251,0.382589
770,-279,-0.581543,-0.787231,-0.00439276,0.0275831,-0.00177949,0.0276818,-0.00449149,-1.51537,0.0201195,0.046249,1994,1303,-0.581546,0.787196
777,-279,-0.724731,-1.13354,0,0,0,0,0,0,0,-1,2001,1303,-0.72476,1.13355
784,-279,0,0,0,0,0,0,0,0,0,-1,2008,1303,0,0
791,-279,0,0,0,0,0,0,0,0,0,-1,2015,1303,0,0
798,-279,0,0,0,0,0,0,0,0,0,-1,2022,1303,0,0
805,-279,0,0,0,0,0,0,0,0,0,-1,2029,1303,0,0
812,-279,0,0,0,0,0,0,0,0,0,-1,2036,1303,0,0
-700,-286,0,0,0,0,0,0,0,0,0,-1,524,1310,0,0
-693,-286,0,0,0,0,0,0,0,0,0,-1,531,1310,0,0
-686,-286,0,0,0,0,0,0,0,0,0,-1,538,1310,0,0
-679,-286,0,0,0,0,0,0,0,0,0,-1,545,1310,0,0
-672,-286,0,0,0,0,0,0,0,0,0,-1,552,1310,0,0
-665,-286,0,0,0,0,0,0,0,0,0,-1,559,1310,0,0
-658,-286,0.967834,1.36072,-0.0355617,0.0146486,-0.00226281,0.0147504,-0.0356635,-1.52585,0.0299296,0.0463113,566,1310,0.967863,-1.36075
-651,-286,0.697144,1.20667,-0.0324816,0.0150394,-0.00167604,0.0150985,-0.0325407,-1.53559,0.0281123,0.0461275,573,1310,0.697141,-1.20664
-644,-286,0.46698,0.968262,-0.0286709,0.014678,-0.000896247,0.0146965,-0.0286894,-1.55013,0.0254794,0.0423371,580,1310,0.466984,-0.968201
-637,-286,0.176636,0.669678,-0.0245164,0.0137409,-0.000211844,0.0137421,-0.0245176,-1.56526,0.0223794,0.0401146,587,1310,0.176643,-0.669678
-630,-286,-0.26886,0.474976,-0.0203771,0.0123916,0.000331465,0.0123949,-0.0203804,1.56068,0.0191092,0.0421501,594,1310,-0.268887,-0.474974
-623,-286,-0.443726,0.126343,-0.0164575,0.0107554,0.000729835,0.010775,-0.016477,1.544,0.0158483,0.04187,601,1310,-0.443748,-0.126291
-616,-286,-0.306213,-0.0266113,-0.0128765,0.00896557,0.000991184,0.00901045,-0.0129214,1.52554,0.0127293,0.0415855,608,1310,-0.306229,0.026554
-609,-286,-0.132507,0.0045166,-0.0097142,0.00693394,0.00100101,0.00699391,-0.00977418,1.51096,0.00972532,0.0305382,615,1310,-0.132483,-0.00447201
-602,-286,-0.026001,0.026001,-0.00709186,0.00534861,0.00102639,0.00543272,-0.00717598,1.48903,0.00730279,0.0127607,622,1310,-0.0259873,-0.026029
-595,-286,-0.0167236,0.0322266,-0.00493773,0.00433463,0.00106188,0.00445469,-0.00505779,1.45822,0.00549571,0.00967744,629,1310,-0.0167448,-0.032258
-588,-286,0.00817871,0.0467529,-0.0032042,0.00316733,0.00106861,0.00334178,-0.00337865,1.40898,0.00388006,0.00970122,636,1310,0.00815602,-0.0468088
-581,-286,-0.0012207,0.0411377,-0.00155083,0.00170914,0.000984505,0.00198339,-0.00182508,1.29912,0.00219945,0.0126621,643,1310,-0.00123402,-0.0410984
-574,-286,-0.0235596,0.0314941,-0.000355876,0.00125295,0.000749606,0.00154808,-0.000651004,1.19572,0.00130438,0.0134662,650,1310,-0.0235342,-0.0315335
-567,-286,-0.036499,0.0443115,0.000218919,0.000901019,0.000726359,0.00136241,-0.000242473,1.00489,0.000998956,0.0112516,657,1310,-0.0365242,-0.0443636
-560,-286,-0.0308228,0.0559082,-5.88393e-05,0.00139441,0.000965702,0.00187632,-0.000540753,1.10793,0.00146479,0.0112119,664,1310,-0.0308348,-0.0559207
-553,-286,-0.012146,0.0496826,0.000353922,0.00117598,0.00112063,0.00195858,-0.00042868,0.961172,0.0014696,0.00957313,671,1310,-0.0121278,-0.0497298
-546,-286,-0.0137329,0.0466309,0.000211157,0.00134494,0.00107795,0.00199597,-0.000439878,1.02747,0.00149895,0.0109409,678,1310,-0.0137111,-0.0465801
-539,-286,-0.0102539,0.126709,-0.000629456,0.00290112,0.000935534,0.0031337,-0.000862033,1.32713,0.00242803,0.0242281,685,1310,-0.0102763,-0.126706
-532,-286,-0.153137,0.854492,0,0,0,0,0,0,0,-1,692,1310,-0.153141,-0.854484
-525,-286,0.179443,0.726685,-0.00337773,0.00579298,0.00101812,0.00590465,-0.0034894,1.46155,0.00548308,0.0449139,699,1310,0.179447,-0.72668
-518,-286,0.492859,0.60083,-0.00560173,0.00730908,0.000966901,0.00738109,-0.00567374,1.49646,0.00755867,0.0453363,706,1310,0.49288,-0.600854
-511,-286,0.917236,0.542358,0,0,0,0,0,0,0,-1,713,1310,0.917256,-0.542409
-504,-286,-0.388672,0.795898,-0.0114872,0.011486,0.000341241,0.011491,-0.0114922,1.55595,0.0132694,0.0430107,720,1310,-0.388682,-0.795932
-497,-286,-0.332825,0.685181,-0.0155028,0.0141518,-0.000113329,0.0141522,-0.0155033,-1.56697,0.0171275,0.0430352,727,1310,-0.332852,-0.685215
-490,-286,-0.340271,0.585571,-0.0202782,0.0171889,-0.000611117,0.0171988,-0.0202882,-1.55449,0.0216676,0.0427602,734,1310,-0.340278,-0.585588
-483,-286,-0.28833,0.536621,-0.0257051,0.020487,-0.00100909,0.020509,-0.0257271,-1.54896,0.026751,0.0415751,741,1310,-0.28831,-0.536611
-476,-286,-0.18335,0.335938,-0.0308109,0.0235248,-0.000985137,0.0235427,-0.0308288,-1.55267,0.0314852,0.0383769,748,1310,-0.183352,-0.335975
-469,-286,0,0,0,0,0,0,0,0,0,-1,755,1310,0,0
-462,-286,0,0,0,0,0,0,0,0,0,-1,762,1310,0,0
-455,-286,0,0,0,0,0,0,0,0,0,-1,769,1310,0,0
-448,-286,0,0,0,0,0,0,0,0,0,-1,776,1310,0,0
-441,-286,0,0,0,0,0,0,0,0,0,-1,783,1310,0,0
-434,-286,0,0,0,0,0,0,0,0,0,-1,790,1310,0,0
-427,-286,0,0,0,0,0,0,0,0,0,-1,797,1310,0,0
-420,-286,0,0,0,0,0,0,0,0,0,-1,804,1310,0,0
-413,-286,0,0,0,0,0,0,0,0,0,-1,811,1310,0,0
-406,-286,0,0,0,0,0,0,0,0,0,-1,818,1310,0,0
-399,-286,0,0,0,0,0,0,0,0,0,-1,825,1310,0,0
-392,-286,0,0,0,0,0,0,0,0,0,-1,832,1310,0,0
-385,-286,0,0,0,0,0,0,0,0,0,-1,839,1310,0,0
-378,-286,0,0,0,0,0,0,0,0,0,-1,846,1310,0,0
-371,-286,0,0,0,0,0,0,0,0,0,-1,853,1310,0,0
-364,-286,0,0,0,0,0,0,0,0,0,-1,860,1310,0,0
-357,-286,0,0,0,0,0,0,0,0,0,-1,867,1310,0,0
-350,-286,0,0,0,0,0,0,0,0,0,-1,874,1310,0,0
-343,-286,0,0,0,0,0,0,0,0,0,-1,881,1310,0,0
-336,-286,0,0,0,0,0,0,0,0,0,-1,888,1310,0,0
-329,-286,0,0,0,0,0,0,0,0,0,-1,895,1310,0,0
-322,-286,0,0,0,0,0,0,0,0,0,-1,902,1310,0,0
-315,-286,0,0,0,0,0,0,0,0,0,-1,909,1310,0,0
-308,-286,0,0,0,0,0,0,0,0,0,-1,916,1310,0,0
-301,-286,0,0,0,0,0,0,0,0,0,-1,923,1310,0,0
-294,-286,0,0,0,0,0,0,0,0,0,-1,930,1310,0,0
-287,-286,0,0,0,0,0,0,0,0,0,-1,937,1310,0,0
-280,-286,0,0,0,0,0,0,0,0,0,-1,944,1310,0,0
-273,-286,0,0,0,0,0,0,0,0,0,-1,951,1310,0,0
-266,-286,0,0,0,0,0,0,0,0,0,-1,958,1310,0,0
-259,-286,0,0,0,0,0,0,0,0,0,-1,965,1310,0,0
-252,-286,0,0,0,0,0,0,0,0,0,-1,972,1310,0,0
-245,-286,0,0,0,0,0,0,0,0,0,-1,979,1310,0,0
-238,-286,0,0,0,0,0,0,0,0,0,-1,986,1310,0,0
-231,-286,0,0,0,0,0,0,0,0,0,-1,993,1310,0,0
-224,-286,0,0,0,0,0,0,0,0,0,-1,1000,1310,0,0
-217,-286,0,0,0,0,0,0,0,0,0,-1,1007,1310,0,0
-210,-286,0,0,0,0,0,0,0,0,0,-1,1014,1310,0,0
-203,-286,0,0,0,0,0,0,0,0,0,-1,1021,1310,0,0
-196,-286,0,0,0,0,0,0,0,0,0,-1,1028,1310,0,0
-189,-286,0,0,0,0,0,0,0,0,0,-1,1035,1310,0,0
-182,-286,0,0,0,0,0,0,0,0,0,-1,1042,1310,0,0
-175,-286,0,0,0,0,0,0,0,0,0,-1,1049,1310,0,0
-168,-286,0,0,0,0,0,0,0,0,0,-1,1056,1310,0,0
-161,-286,0,0,0,0,0,0,0,0,0,-1,1063,1310,0,0
-154,-286,0,0,0,0,0,0,0,0,0,-1,1070,1310,0,0
-147,-286,0,0,0,0,0,0,0,0,0,-1,1077,1310,0,0
-140,-286,0,0,0,0,0,0,0,0,0,-1,1084,1310,0,0
-133,-286,0,0,0,0,0,0,0,0,0,-1,1091,1310,0,0
-126,-286,0,0,0,0,0,0,0,0,0,-1,1098,1310,0,0
-119,-286,0,0,0,0,0,0,0,0,0,-1,1105,1310,0,0
-112,-286,0,0,0,0,0,0,0,0,0,-1,1112,1310,0,0
-105,-286,0,0,0,0,0,0,0,0,0,-1,1119,1310,0,0
-98,-286,0,0,0,0,0,0,0,0,0,-1,1126,1310,0,0
-91,-286,0,0,0,0,0,0,0,0,0,-1,1133,1310,0,0
-84,-286,0,0,0,0,0,0,0,0,0,-1,1140,1310,0,0
-77,-286,0,0,0,0,0,0,0,0,0,-1,1147,1310,0,0
-70,-286,0,0,0,0,0,0,0,0,0,-1,1154,1310,0,0
-63,-286,0,0,0,0,0,0,0,0,0,-1,1161,1310,0,0
-56,-286,0,0,0,0,0,0,0,0,0,-1,1168,1310,0,0
-49,-286,0,0,0,0,0,0,0,0,0,-1,1175,1310,0,0
-42,-286,0,0,0,0,0,0,0,0,0,-1,1182,1310,0,0
-35,-286,0,0,0,0,0,0,0,0,0,-1,1189,1310,0,0
-28,-286,0,0,0,0,0,0,0,0,0,-1,1196,1310,0,0
-21,-286,0,0,0,0,0,0,0,0,0,-1,1203,1310,0,0
-14,-286,0,0,0,0,0,0,0,0,0,-1,1210,1310,0,0
-7,-286,0,0,0,0,0,0,0,0,0,-1,1217,1310,0,0
0,-286,0,0,0,0,0,0,0,0,0,-1,1224,1310,0,0
7,-286,0,0,0,0,0,0,0,0,0,-1,1231,1310,0,0
14,-286,0,0,0,0,0,0,0,0,0,-1,1238,1310,0,0
21,-286,0,0,0,0,0,0,0,0,0,-1,1245,1310,0,0
28,-286,0,0,0,0,0,0,0,0,0,-1,1252,1310,0,0
35,-286,0,0,0,0,0,0,0,0,0,-1,1259,1310,0,0
42,-286,0,0,0,0,0,0,0,0,0,-1,1266,1310,0,0
49,-286,0,0,0,0,0,0,0,0,0,-1,1273,1310,0,0
56,-286,0,0,0,0,0,0,0,0,0,-1,1280,1310,0,0
63,-286,0,0,0,0,0,0,0,0,0,-1,1287,1310,0,0
70,-286,0,0,0,0,0,0,0,0,0,-1,1294,1310,0,0
77,-286,0,0,0,0,0,0,0,0,0,-1,1301,1310,0,0
84,-286,0,0,0,0,0,0,0,0,0,-1,1308,1310,0,0
91,-286,0,0,0,0,0,0,0,0,0,-1,1315,1310,0,0
98,-286,0,0,0,0,0,0,0,0,0,-1,1322,1310,0,0
105,-286,0,0,0,0,0,0,0,0,0,-1,1329,1310,0,0
112,-286,0,0,0,0,0,0,0,0,0,-1,1336,1310,0,0
119,-286,0,0,0,0,0,0,0,0,0,-1,1343,1310,0,0
126,-286,0,0,0,0,0,0,0,0,0,-1,1350,1310,0,0
133,-286,0,0,0,0,0,0,0,0,0,-1,1357,1310,0,0
140,-286,0,0,0,0,0,0,0,0,0,-1,1364,1310,0,0
147,-286,0,0,0,0,0,0,0,0,0,-1,1371,1310,0,0
154,-286,0,0,0,0,0,0,0,0,0,-1,1378,1310,0,0
161,-286,0,0,0,0,0,0,0,0,0,-1,1385,1310,0,0
168,-286,0,0,0,0,0,0,0,0,0,-1,1392,1310,0,0
175,-286,0,0,0,0,0,0,0,0,0,-1,1399,1310,0,0
182,-286,0,0,0,0,0,0,0,0,0,-1,1406,1310,0,0
189,-286,0,0,0,0,0,0,0,0,0,-1,1413,1310,0,0
196,-286,0,0,0,0,0,0,0,0,0,-1,1420,1310,0,0
203,-286,0,0,0,0,0,0,0,0,0,-1,1427,1310,0,0
210,-286,0,0,0,0,0,0,0,0,0,-1,1434,1310,0,0
217,-286,0,0,0,0,0,0,0,0,0,-1,1441,1310,0,0
224,-286,0,0,0,0,0,0,0,0,0,-1,1448,1310,0,0
231,-286,0,0,0,0,0,0,0,0,0,-1,1455,1310,0,0
238,-286,0,0,0,0,0,0,0,0,0,-1,1462,1310,0,0
245,-286,0,0,0,0,0,0,0,0,0,-1,1469,1310,0,0
252,-286,0,0,0,0,0,0,0,0,0,-1,1476,1310,0,0
259,-286,0,0,0,0,0,0,0,0,0,-1,1483,1310,0,0
266,-286,0,0,0,0,0,0,0,0,0,-1,1490,1310,0,0
273,-286,0,0,0,0,0,0,0,0,0,-1,1497,1310,0,0
280,-286,0,0,0,0,0,0,0,0,0,-1,1504,1310,0,0
287,-286,0,0,0,0,0,0,0,0,0,-1,1511,1310,0,0
294,-286,0,0,0,0,0,0,0,0,0,-1,1518,1310,0,0
301,-286,0,0,0,0,0,0,0,0,0,-1,1525,1310,0,0
308,-286,0,0,0,0,0,0,0,0,0,-1,1532,1310,0,0
315,-286,0,0,0,0,0,0,0,0,0,-1,1539,1310,0,0
322,-286,0,0,0,0,0,0,0,0,0,-1,1546,1310,0,0
329,-286,0,0,0,0,0,0,0,0,0,-1,1553,1310,0,0
336,-286,0,0,0,0,0,0,0,0,0,-1,1560,1310,0,0
343,-286,0,0,0,0,0,0,0,0,0,-1,1567,1310,0,0
350,-286,0,0,0,0,0,0,0,0,0,-1,1574,1310,0,0
357,-286,0,0,0,0,0,0,0,0,0,-1,1581,1310,0,0
364,-286,0,0,0,0,0,0,0,0,0,-1,1588,1310,0,0
371,-286,0,0,0,0,0,0,0,0,0,-1,1595,1310,0,0
378,-286,0,0,0,0,0,0,0,0,0,-1,1602,1310,0,0
385,-286,0,0,0,0,0,0,0,0,0,-1,1609,1310,0,0
392,-286,0,0,0,0,0,0,0,0,0,-1,1616,1310,0,0
399,-286,0,0,0,0,0,0,0,0,0,-1,1623,1310,0,0
406,-286,0,0,0,0,0,0,0,0,0,-1,1630,1310,0,0
413,-286,0,0,0,0,0,0,0,0,0,-1,1637,1310,0,0
420,-286,0,0,0,0,0,0,0,0,0,-1,1644,1310,0,0
427,-286,0,0,0,0,0,0,0,0,0,-1,1651,1310,0,0
434,-286,0,0,0,0,0,0,0,0,0,-1,1658,1310,0,0
441,-286,0,0,0,0,0,0,0,0,0,-1,1665,1310,0,0
448,-286,0,0,0,0,0,0,0,0,0,-1,1672,1310,0,0
455,-286,0,0,0,0,0,0,0,0,0,-1,1679,1310,0,0
462,-286,0,0,0,0,0,0,0,0,0,-1,1686,1310,0,0
469,-286,0,0,0,0,0,0,0,0,0,-1,1693,1310,0,0
476,-286,0,0,0,0,0,0,0,0,0,-1,1700,1310,0,0
483,-286,0,0,0,0,0,0,0,0,0,-1,1707,1310,0,0
490,-286,0,0,0,0,0,0,0,0,0,-1,1714,1310,0,0
497,-286,0,0,0,0,0,0,0,0,0,-1,1721,1310,0,0
504,-286,0,0,0,0,0,0,0,0,0,-1,1728,1310,0,0
511,-286,0,0,0,0,0,0,0,0,0,-1,1735,1310,0,0
518,-286,0,0,0,0,0,0,0,0,0,-1,1742,1310,0,0
525,-286,0,0,0,0,0,0,0,0,0,-1,1749,1310,0,0
532,-286,0,0,0,0,0,0,0,0,0,-1,1756,1310,0,0
539,-286,0,0,0,0,0,0,0,0,0,-1,1763,1310,0,0
546,-286,0,0,0,0,0,0,0,0,0,-1,1770,1310,0,0
553,-286,0,0,0,0,0,0,0,0,0,-1,1777,1310,0,0
560,-286,0,0,0,0,0,0,0,0,0,-1,1784,1310,0,0
567,-286,0,0,0,0,0,0,0,0,0,-1,1791,1310,0,0
574,-286,0,0,0,0,0,0,0,0,0,-1,1798,1310,0,0
581,-286,0,0,0,0,0,0,0,0,0,-1,1805,1310,0,0
588,-286,0,0,0,0,0,0,0,0,0,-1,1812,1310,0,0
595,-286,-0.163574,-0.224854,0,0,0,0,0,0,0,-1,1819,1310,-0.163535,0.224793
602,-286,0.541992,0.0593262,0,0,0,0,0,0,0,-1,1826,1310,0.542,-0.0593608
609,-286,0.397949,-0.266602,0,0,0,0,0,0,0,-1,1833,1310,0.397943,0.266561
616,-286,-0.193726,-0.874634,0,0,0,0,0,0,0,-1,1840,1310,-0.193681,0.874618
623,-286,-1.50977,0.444702,-0.000496838,0.0189805,-0.00685471,0.021151,-0.00266736,-1.26414,0.0150687,0.0464738,1847,1310,-1.50975,-0.444652
630,-286,-1.01221,0.373535,0.00316122,0.0151384,-0.00686576,0.0182603,3.92655e-05,-1.14403,0.0121605,0.042297,1854,1310,-1.01225,-0.373567
637,-286,-0.440552,0.328125,0.00546561,0.0119093,-0.00644088,0.0158892,0.0014857,-1.01731,0.0101339,0.04111,1861,1310,-0.440564,-0.328092
644,-286,-0.700806,-0.35498,0.00667727,0.00922614,-0.00574037,0.0138319,0.00207156,-0.894633,0.00861415,0.0415501,1868,1310,-0.700858,0.354934
651,-286,-0.437866,-0.614014,0.00704251,0.00702655,-0.00489517,0.0119297,0.00213935,-0.784583,0.00734463,0.0420179,1875,1310,-0.437819,0.61399
658,-286,-0.274536,-0.331421,0.00723109,0.00494439,-0.00407497,0.0103201,0.0018554,-0.648625,0.00635255,0.0433574,1882,1310,-0.274518,0.331435
665,-286,-0.0263672,-0.189697,0.00658997,0.00355853,-0.00336891,0.00876843,0.00138008,-0.574007,0.00544422,0.0399076,1889,1310,-0.0263538,0.189654
672,-286,0.0106201,-0.0147705,0.00599638,0.00242551,-0.00254557,0.00732024,0.00110166,-0.479569,0.00455754,0.0218978,1896,1310,0.0106155,0.0148175
679,-286,-0.026001,0.00585938,0.00512624,0.00087686,-0.00148526,0.0055939,0.000409197,-0.305043,0.00360063,0.0179014,1903,1310,-0.0259854,-0.00580878
686,-286,-0.0615234,0.00109863,0.0033218,0.000496699,-0.000810046,0.00353758,0.000280914,-0.26034,0.00227055,0.0180069,1910,1310,-0.0614906,-0.00115386
693,-286,-0.0554199,0.0308838,0.0017178,0.000382097,-0.000192393,0.00174496,0.000354937,-0.140242,0.0010649,0.014812,1917,1310,-0.0553729,-0.0309424
700,-286,-0.0336914,0.0258789,0.000404828,0.000511173,0.000276003,0.000739078,0.000176922,0.880558,0.00044561,0.0103278,1924,1310,-0.0337434,-0.0258542
707,-286,-0.0233154,0.0352783,-0.000569121,0.000568817,0.00059483,0.000822981,-0.000823285,1.16699,0.000950472,0.00780231,1931,1310,-0.0233312,-0.0353339
714,-286,-0.0377197,0.0456543,-0.000911058,0.00105068,0.000575404,0.00120699,-0.00106738,1.30553,0.00131393,0.0081425,1938,1310,-0.0377448,-0.0456052
721,-286,-0.0356445,0.0484619,-0.00122393,0.00247878,0.000742449,0.0026221,-0.00136726,1.3801,0.00234093,0.0107359,1945,1310,-0.0356152,-0.0484924
728,-286,-0.0354004,0.0429688,-0.00126171,0.00433958,0.000688711,0.00442302,-0.00134515,1.45023,0.00348471,0.013541,1952,1310,-0.0354499,-0.0429743
735,-286,-0.0375977,0.03479,-0.00145707,0.00616373,0.000748188,0.00623649,-0.00152983,1.47385,0.00475044,0.0143877,1959,1310,-0.0375407,-0.0348159
742,-286,-0.0253906,0.0107422,-0.00152716,0.00909293,0.000758773,0.00914687,-0.0015811,1.49983,0.00668754,0.0226279,1966,1310,-0.0254086,-0.0107732
749,-286,-0.0390625,-0.0499268,-0.00150432,0.0131395,0.000699289,0.0131728,-0.00153764,1.52319,0.00933671,0.0351188,1973,1310,-0.0390146,0.0499093
756,-286,-0.274048,-0.251953,-0.00134909,0.0185884,0.000538692,0.018603,-0.00136363,1.5438,0.0128806,0.0393091,1980,1310,-0.274039,0.251958
763,-286,-0.450684,-0.534912,-0.0010565,0.0257623,0.000244297,0.0257645,-0.00105873,1.56169,0.0175399,0.0385293,1987,1310,-0.450739,0.53494
770,-286,-0.618774,-1.02856,0,0,0,0,0,0,0,-1,1994,1310,-0.618773,1.02851
777,-286,0,0,0,0,0,0,0,0,0,-1,2001,1310,0,0
784,-286,0,0,0,0,0,0,0,0,0,-1,2008,1310,0,0
791,-286,0,0,0,0,0,0,0,0,0,-1,2015,1310,0,0
798,-286,0,0,0,0,0,0,0,0,0,-1,2022,1310,0,0
805,-286,0,0,0,0,0,0,0,0,0,-1,2029,1310,0,0
812,-286,0,0,0,0,0,0,0,0,0,-1,2036,1310,0,0
-700,-293,0,0,0,0,0,0,0,0,0,-1,524,1317,0,0
-693,-293,0,0,0,0,0,0,0,0,0,-1,531,1317,0,0
-686,-293,0,0,0,0,0,0,0,0,0,-1,538,1317,0,0
-679,-293,0,0,0,0,0,0,0,0,0,-1,545,1317,0,0
-672,-293,0,0,0,0,0,0,0,0,0,-1,552,1317,0,0
-665,-293,0,0,0,0,0,0,0,0,0,-1,559,1317,0,0
-658,-293,0,0,0,0,0,0,0,0,0,-1,566,1317,0,0
-651,-293,0.785889,0.966431,-0.0390565,0.0214291,-0.00318138,0.0215959,-0.0392234,-1.51839,0.0356023,0.0499454,573,1317,0.785866,-0.966438
-644,-293,0.551514,0.775024,-0.0346949,0.0207199,-0.00160383,0.0207663,-0.0347413,-1.54189,0.0323841,0.0455786,580,1317,0.551535,-0.775004
-637,-293,0.229248,0.539795,-0.0298308,0.0191323,-0.000381356,0.0191353,-0.0298338,-1.56301,0.0284964,0.0427148,587,1317,0.22923,-0.539851
-630,-293,-0.254456,0.14856,0,0,0,0,0,0,0,-1,594,1317,-0.254433,-0.148531
-623,-293,-0.565063,-0.291138,0,0,0,0,0,0,0,-1,601,1317,-0.565085,0.291157
-616,-293,-0.400208,-0.0672607,-0.0158962,0.0120422,0.00150524,0.0121231,-0.0159771,1.51713,0.0162744,0.0415947,608,1317,-0.400186,0.0673132
-609,-293,-0.181152,0.0919189,-0.0120608,0.00936753,0.00156012,0.00948052,-0.0121738,1.4985,0.0125343,0.03677,615,1317,-0.181165,-0.0919042
-602,-293,-0.057373,0.0684814,-0.00885641,0.00722588,0.00158958,0.00738149,-0.00901202,1.47321,0.00948039,0.0231188,622,1317,-0.0573582,-0.0684778
-595,-293,-0.0404053,0.0338135,-0.00622249,0.00563688,0.00162986,0.00585679,-0.0064424,1.43668,0.00710363,0.0131436,629,1317,-0.0404257,-0.0338551
-588,-293,-0.0322876,0.0102539,-0.00408023,0.00410388,0.00154546,0.00438599,-0.00436235,1.39024,0.00505086,0.0140017,636,1317,-0.0322917,-0.0102051
-581,-293,-0.0302124,0.0239258,-0.0020782,0.00230272,0.00128409,0.00265136,-0.00242684,1.30568,0.00293285,0.0175399,643,1317,-0.0301914,-0.0239105
-574,-293,-0.0330811,0.0345459,-0.0006717,0.00157602,0.00093895,0.00191663,-0.00101232,1.2228,0.00171769,0.0163611,650,1317,-0.0331109,-0.0345183
-567,-293,-0.02948,0.0432129,-3.9798e-05,0.001094,0.000877067,0.00157143,-0.000517228,1.0723,0.00125604,0.0140927,657,1317,-0.0294885,-0.0432181
-560,-293,-0.0251465,0.0556641,-0.000366903,0.00165786,0.00108443,0.00212902,-0.000838064,1.16092,0.00176627,0.0130568,664,1317,-0.0251284,-0.0556765
-553,-293,-0.00799561,0.0461426,-8.93392e-06,0.00162932,0.00122527,0.00228404,-0.000663662,1.08004,0.00178551,0.0096903,671,1317,-0.00802229,-0.0461653
-546,-293,-0.0124512,0.0518799,-0.000324595,0.002146,0.00120036,0.00263315,-0.000811747,1.18527,0.00207952,0.00920393,678,1317,-0.0124513,-0.0518445
-539,-293,-0.0318604,0.0672607,-0.00147198,0.00407978,0.00115264,0.00430957,-0.00170178,1.37401,0.00357786,0.0163215,685,1317,-0.0318702,-0.067319
-532,-293,0.0166016,0.0543213,-0.00284256,0.00613875,0.00123229,0.00630476,-0.00300857,1.43689,0.00548816,0.0331725,692,1317,0.0166318,-0.0543082
-525,-293,0.274841,0.400757,-0.00490963,0.00776706,0.0014525,0.00793136,-0.00507393,1.45816,0.00756878,0.0388391,699,1317,0.274861,-0.40072
-518,-293,0.304138,0.121094,-0.00759071,0.00972514,0.00150902,0.00985566,-0.00772123,1.48452,0.0101729,0.0431863,706,1317,0.30411,-0.121054
-511,-293,-0.774658,1.36707,-0.0106735,0.0120904,0.00135676,0.012171,-0.0107541,1.51147,0.0132442,0.0444018,713,1317,-0.774647,-1.36703
-504,-293,1.98181,-1.66199,0,0,0,0,0,0,0,-1,720,1317,1.98181,1.66202
-497,-293,1.37506,-1.20667,-0.0188008,0.017645,0.000709344,0.0176588,-0.0188146,1.55134,0.0210615,0.0449107,727,1317,1.37506,1.20669
-490,-293,0.436829,-0.704834,-0.0238959,0.0207054,0.000273026,0.020707,-0.0238975,1.56468,0.0257744,0.0438139,734,1317,0.43682,0.704891
-483,-293,0.112854,-0.332153,-0.0295131,0.0236674,-0.000121493,0.0236677,-0.0295134,-1.56851,0.0307659,0.043741,741,1317,0.112835,0.332164
-476,-293,-0.2901,0.324219,-0.0349053,0.0260408,-0.000259923,0.0260419,-0.0349064,-1.56653,0.0353124,0.0439853,748,1317,-0.29008,-0.324197
-469,-293,0,0,0,0,0,0,0,0,0,-1,755,1317,0,0
-462,-293,0,0,0,0,0,0,0,0,0,-1,762,1317,0,0
-455,-293,0,0,0,0,0,0,0,0,0,-1,769,1317,0,0
-448,-293,0,0,0,0,0,0,0,0,0,-1,776,1317,0,0
-441,-293,0,0,0,0,0,0,0,0,0,-1,783,1317,0,0
-434,-293,0,0,0,0,0,0,0,0,0,-1,790,1317,0,0
-427,-293,0,0,0,0,0,0,0,0,0,-1,797,1317,0,0
-420,-293,0,0,0,0,0,0,0,0,0,-1,804,1317,0,0
-413,-293,0,0,0,0,0,0,0,0,0,-1,811,1317,0,0
-406,-293,0,0,0,0,0,0,0,0,0,-1,818,1317,0,0
-399,-293,0,0,0,0,0,0,0,0,0,-1,825,1317,0,0
-392,-293,0,0,0,0,0,0,0,0,0,-1,832,1317,0,0
-385,-293,0,0,0,0,0,0,0,0,0,-1,839,1317,0,0
-378,-293,0,0,0,0,0,0,0,0,0,-1,846,1317,0,0
-371,-293,0,0,0,0,0,0,0,0,0,-1,853,1317,0,0
-364,-293,0,0,0,0,0,0,0,0,0,-1,860,1317,0,0
-357,-293,0,0,0,0,0,0,0,0,0,-1,867,1317,0,0
-350,-293,0,0,0,0,0,0,0,0,0,-1,874,1317,0,0
-343,-293,0,0,0,0,0,0,0,0,0,-1,881,1317,0,0
-336,-293,0,0,0,0,0,0,0,0,0,-1,888,1317,0,0
-329,-293,0,0,0,0,0,0,0,0,0,-1,895,1317,0,0
-322,-293,0,0,0,0,0,0,0,0,0,-1,902,1317,0,0
-315,-293,0,0,0,0,0,0,0,0,0,-1,909,1317,0,0
-308,-293,0,0,0,0,0,0,0,0,0,-1,916,1317,0,0
-301,-293,0,0,0,0,0,0,0,0,0,-1,923,1317,0,0
-294,-293,0,0,0,0,0,0,0,0,0,-1,930,1317,0,0
-287,-293,0,0,0,0,0,0,0,0,0,-1,937,1317,0,0
-280,-293,0,0,0,0,0,0,0,0,0,-1,944,1317,0,0
-273,-293,0,0,0,0,0,0,0,0,0,-1,951,1317,0,0
-266,-293,0,0,0,0,0,0,0,0,0,-1,958,1317,0,0
-259,-293,0,0,0,0,0,0,0,0,0,-1,965,1317,0,0
-252,-293,0,0,0,0,0,0,0,0,0,-1,972,1317,0,0
-245,-293,0,0,0,0,0,0,0,0,0,-1,979,1317,0,0
-238,-293,0,0,0,0,0,0,0,0,0,-1,986,1317,0,0
-231,-293,0,0,0,0,0,0,0,0,0,-1,993,1317,0,0
-224,-293,0,0,0,0,0,0,0,0,0,-1,1000,1317,0,0
-217,-293,0,0,0,0,0,0,0,0,0,-1,1007,1317,0,0
-210,-293,0,0,0,0,0,0,0,0,0,-1,1014,1317,0,0
-203,-293,0,0,0,0,0,0,0,0,0,-1,1021,1317,0,0
-196,-293,0,0,0,0,0,0,0,0,0,-1,1028,1317,0,0
-189,-293,0,0,0,0,0,0,0,0,0,-1,1035,1317,0,0
-182,-293,0,0,0,0,0,0,0,0,0,-1,1042,1317,0,0
-175,-293,0,0,0,0,0,0,0,0,0,-1,1049,1317,0,0
-168,-293,0,0,0,0,0,0,0,0,0,-1,1056,1317,0,0
-161,-293,0,0,0,0,0,0,0,0,0,-1,1063,1317,0,0
-154,-293,0,0,0,0,0,0,0,0,0,-1,1070,1317,0,0
-147,-293,0,0,0,0,0,0,0,0,0,-1,1077,1317,0,0
-140,-293,0,0,0,0,0,0,0,0,0,-1,1084,1317,0,0
-133,-293,0,0,0,0,0,0,0,0,0,-1,1091,1317,0,0
-126,-293,0,0,0,0,0,0,0,0,0,-1,1098,1317,0,0
-119,-293,0,0,0,0,0,0,0,0,0,-1,1105,1317,0,0
-112,-293,0,0,0,0,0,0,0,0,0,-1,1112,1317,0,0
-105,-293,0,0,0,0,0,0,0,0,0,-1,1119,1317,0,0
-98,-293,0,0,0,0,0,0,0,0,0,-1,1126,1317,0,0
-91,-293,0,0,0,0,0,0,0,0,0,-1,1133,1317,0,0
-84,-293,0,0,0,0,0,0,0,0,0,-1,1140,1317,0,0
-77,-293,0,0,0,0,0,0,0,0,0,-1,1147,1317,0,0
-70,-293,0,0,0,0,0,0,0,0,0,-1,1154,1317,0,0
-63,-293,0,0,0,0,0,0,0,0,0,-1,1161,1317,0,0
-56,-293,0,0,0,0,0,0,0,0,0,-1,1168,1317,0,0
-49,-293,0,0,0,0,0,0,0,0,0,-1,1175,1317,0,0
-42,-293,0,0,0,0,0,0,0,0,0,-1,1182,1317,0,0
-35,-293,0,0,0,0,0,0,0,0,0,-1,1189,1317,0,0
-28,-293,0,0,0,0,0,0,0,0,0,-1,1196,1317,0,0
-21,-293,0,0,0,0,0,0,0,0,0,-1,1203,1317,0,0
-14,-293,0,0,0,0,0,0,0,0,0,-1,1210,1317,0,0
-7,-293,0,0,0,0,0,0,0,0,0,-1,1217,1317,0,0
0,-293,0,0,0,0,0,0,0,0,0,-1,1224,1317,0,0
7,-293,0,0,0,0,0,0,0,0,0,-1,1231,1317,0,0
14,-293,0,0,0,0,0,0,0,0,0,-1,1238,1317,0,0
21,-293,0,0,0,0,0,0,0,0,0,-1,1245,1317,0,0
28,-293,0,0,0,0,0,0,0,0,0,-1,1252,1317,0,0
35,-293,0,0,0,0,0,0,0,0,0,-1,1259,1317,0,0
42,-293,0,0,0,0,0,0,0,0,0,-1,1266,1317,0,0
49,-293,0,0,0,0,0,0,0,0,0,-1,1273,1317,0,0
56,-293,0,0,0,0,0,0,0,0,0,-1,1280,1317,0,0
63,-293,0,0,0,0,0,0,0,0,0,-1,1287,1317,0,0
70,-293,0,0,0,0,0,0,0,0,0,-1,1294,1317,0,0
77,-293,0,0,0,0,0,0,0,0,0,-1,1301,1317,0,0
84,-293,0,0,0,0,0,0,0,0,0,-1,1308,1317,0,0
91,-293,0,0,0,0,0,0,0,0,0,-1,1315,1317,0,0
98,-293,0,0,0,0,0,0,0,0,0,-1,1322,1317,0,0
105,-293,0,0,0,0,0,0,0,0,0,-1,1329,1317,0,0
112,-293,0,0,0,0,0,0,0,0,0,-1,1336,1317,0,0
119,-293,0,0,0,0,0,0,0,0,0,-1,1343,1317,0,0
126,-293,0,0,0,0,0,0,0,0,0,-1,1350,1317,0,0
133,-293,0,0,0,0,0,0,0,0,0,-1,1357,1317,0,0
140,-293,0,0,0,0,0,0,0,0,0,-1,1364,1317,0,0
147,-293,0,0,0,0,0,0,0,0,0,-1,1371,1317,0,0
154,-293,0,0,0,0,0,0,0,0,0,-1,1378,1317,0,0
161,-293,0,0,0,0,0,0,0,0,0,-1,1385,1317,0,0
168,-293,0,0,0,0,0,0,0,0,0,-1,1392,1317,0,0
175,-293,0,0,0,0,0,0,0,0,0,-1,1399,1317,0,0
182,-293,0,0,0,0,0,0,0,0,0,-1,1406,1317,0,0
189,-293,0,0,0,0,0,0,0,0,0,-1,1413,1317,0,0
196,-293,0,0,0,0,0,0,0,0,0,-1,1420,1317,0,0
203,-293,0,0,0,0,0,0,0,0,0,-1,1427,1317,0,0
210,-293,0,0,0,0,0,0,0,0,0,-1,1434,1317,0,0
217,-293,0,0,0,0,0,0,0,0,0,-1,1441,1317,0,0
224,-293,0,0,0,0,0,0,0,0,0,-1,1448,1317,0,0
231,-293,0,0,0,0,0,0,0,0,0,-1,1455,1317,0,0
238,-293,0,0,0,0,0,0,0,0,0,-1,1462,1317,0,0
245,-293,0,0,0,0,0,0,0,0,0,-1,1469,1317,0,0
252,-293,0,0,0,0,0,0,0,0,0,-1,1476,1317,0,0
259,-293,0,0,0,0,0,0,0,0,0,-1,1483,1317,0,0
266,-293,0,0,0,0,0,0,0,0,0,-1,1490,1317,0,0
273,-293,0,0,0,0,0,0,0,0,0,-1,1497,1317,0,0
280,-293,0,0,0,0,0,0,0,0,0,-1,1504,1317,0,0
287,-293,0,0,0,0,0,0,0,0,0,-1,1511,1317,0,0
294,-293,0,0,0,0,0,0,0,0,0,-1,1518,1317,0,0
301,-293,0,0,0,0,0,0,0,0,0,-1,1525,1317,0,0
308,-293,0,0,0,0,0,0,0,0,0,-1,1532,1317,0,0
315,-293,0,0,0,0,0,0,0,0,0,-1,1539,1317,0,0
322,-293,0,0,0,0,0,0,0,0,0,-1,1546,1317,0,0
329,-293,0,0,0,0,0,0,0,0,0,-1,1553,1317,0,0
336,-293,0,0,0,0,0,0,0,0,0,-1,1560,1317,0,0
343,-293,0,0,0,0,0,0,0,0,0,-1,1567,1317,0,0
350,-293,0,0,0,0,0,0,0,0,0,-1,1574,1317,0,0
357,-293,0,0,0,0,0,0,0,0,0,-1,1581,1317,0,0
364,-293,0,0,0,0,0,0,0,0,0,-1,1588,1317,0,0
371,-293,0,0,0,0,0,0,0,0,0,-1,1595,1317,0,0
378,-293,0,0,0,0,0,0,0,0,0,-1,1602,1317,0,0
385,-293,0,0,0,0,0,0,0,0,0,-1,1609,1317,0,0
392,-293,0,0,0,0,0,0,0,0,0,-1,1616,1317,0,0
399,-293,0,0,0,0,0,0,0,0,0,-1,1623,1317,0,0
406,-293,0,0,0,0,0,0,0,0,0,-1,1630,1317,0,0
413,-293,0,0,0,0,0,0,0,0,0,-1,1637,1317,0,0
420,-293,0,0,0,0,0,0,0,0,0,-1,1644,1317,0,0
427,-293,0,0,0,0,0,0,0,0,0,-1,1651,1317,0,0
434,-293,0,0,0,0,0,0,0,0,0,-1,1658,1317,0,0
441,-293,0,0,0,0,0,0,0,0,0,-1,1665,1317,0,0
448,-293,0,0,0,0,0,0,0,0,0,-1,1672,1317,0,0
455,-293,0,0,0,0,0,0,0,0,0,-1,1679,1317,0,0
462,-293,0,0,0,0,0,0,0,0,0,-1,1686,1317,0,0
469,-293,0,0,0,0,0,0,0,0,0,-1,1693,1317,0,0
476,-293,0,0,0,0,0,0,0,0,0,-1,1700,1317,0,0
483,-293,0,0,0,0,0,0,0,0,0,-1,1707,1317,0,0
490,-293,0,0,0,0,0,0,0,0,0,-1,1714,1317,0,0
497,-293,0,0,0,0,0,0,0,0,0,-1,1721,1317,0,0
504,-293,0,0,0,0,0,0,0,0,0,-1,1728,1317,0,0
511,-293,0,0,0,0,0,0,0,0,0,-1,1735,1317,0,0
518,-293,0,0,0,0,0,0,0,0,0,-1,1742,1317,0,0
525,-293,0,0,0,0,0,0,0,0,0,-1,1749,1317,0,0
532,-293,0,0,0,0,0,0,0,0,0,-1,1756,1317,0,0
539,-293,0,0,0,0,0,0,0,0,0,-1,1763,1317,0,0
546,-293,0,0,0,0,0,0,0,0,0,-1,1770,1317,0,0
553,-293,0,0,0,0,0,0,0,0,0,-1,1777,1317,0,0
560,-293,0,0,0,0,0,0,0,0,0,-1,1784,1317,0,0
567,-293,0,0,0,0,0,0,0,0,0,-1,1791,1317,0,0
574,-293,0,0,0,0,0,0,0,0,0,-1,1798,1317,0,0
581,-293,0,0,0,0,0,0,0,0,0,-1,1805,1317,0,0
588,-293,0,0,0,0,0,0,0,0,0,-1,1812,1317,0,0
595,-293,1.10181,0.81311,0,0,0,0,0,0,0,-1,1819,1317,1.10181,-0.813168
602,-293,1.00073,0.34668,-0.0143029,0.0347715,-0.00368755,0.035047,-0.0145784,-1.49621,0.0294524,0.0450819,1826,1317,1.00073,-0.34664
609,-293,0.830811,-0.289063,-0.00977383,0.0295697,-0.00459526,0.0300993,-0.0103034,-1.45606,0.0242419,0.0466491,1833,1317,0.830867,0.289078
616,-293,0.463623,-0.599487,-0.00496198,0.0243182,-0.00542602,0.0252914,-0.00593515,-1.39333,0.0191484,0.0450612,1840,1317,0.463583,0.599525
623,-293,0.207642,-1.02478,-0.000690985,0.0194744,-0.00584974,0.0210485,-0.00226506,-1.30794,0.0148451,0.0463751,1847,1317,0.207675,1.02473
630,-293,-0.697144,0.33606,0.00251361,0.0152472,-0.00588018,0.0175472,0.000213656,-1.19795,0.0116276,0.044052,1854,1317,-0.69716,-0.336052
637,-293,-0.311279,0.264771,0.00474362,0.0117741,-0.00547143,0.0147622,0.00175552,-1.07093,0.00931163,0.0457515,1861,1317,-0.311223,-0.264818
644,-293,-0.425293,-0.159668,0.00581159,0.00888145,-0.00486432,0.0124473,0.00224578,-0.938228,0.00766012,0.0480546,1868,1317,-0.425341,0.159664
651,-293,-0.243286,-0.322144,0.00636761,0.00651675,-0.00416764,0.0106105,0.00227387,-0.794343,0.0064507,0.0421891,1875,1317,-0.243269,0.322194
658,-293,0.00793457,-0.357056,0.0067431,0.00421426,-0.00348979,0.00919047,0.00176689,-0.611595,0.00563118,0.0385505,1882,1317,0.00790569,0.357085
665,-293,0.0395508,-0.147095,0.00616462,0.00278683,-0.00291625,0.00784572,0.00110573,-0.522931,0.00490364,0.0302571,1889,1317,0.0395912,0.147131
672,-293,-0.00134277,0.00878906,0.00568806,0.00173671,-0.00218332,0.0066569,0.000767874,-0.417641,0.00420541,0.0152329,1896,1317,-0.00130908,-0.00878162
679,-293,-0.0231934,0.0140381,0.00497547,0.000371079,-0.0011538,0.00524841,9.81335e-05,-0.232293,0.00346669,0.0108583,1903,1317,-0.0231449,-0.013987
686,-293,-0.0100098,0.019165,0.00320305,0.000142048,-0.000541518,0.00329603,4.90727e-05,-0.170036,0.00218118,0.012032,1910,1317,-0.0100468,-0.0192016
693,-293,-0.0133057,0.0267334,0.00159363,0.000118134,2.93624e-05,0.00159421,0.00011755,0.0198895,0.00102587,0.0102936,1917,1317,-0.0132786,-0.0267436
700,-293,-0.0195313,0.0168457,0.000319617,0.000350123,0.000436936,0.000772072,-0.000102332,0.802845,0.000551996,0.00967276,1924,1317,-0.0195189,-0.0168576
707,-293,-0.0128174,0.0299072,-0.000564908,0.000555636,0.000721023,0.000908479,-0.000917752,1.11569,0.00105438,0.00991736,1931,1317,-0.0128734,-0.0298977
714,-293,-0.0362549,0.0444336,-0.000840303,0.00121037,0.00072891,0.00144306,-0.00107299,1.2618,0.00145787,0.00696289,1938,1317,-0.0362921,-0.0444603
721,-293,-0.0290527,0.0371094,-0.00109639,0.00281599,0.000976032,0.00304597,-0.00132636,1.33939,0.00258863,0.00816268,1945,1317,-0.0290996,-0.0371508
728,-293,-0.0286865,0.0236816,-0.00103678,0.00486399,0.00105258,0.00504612,-0.00121892,1.39945,0.0038355,0.0105396,1952,1317,-0.028734,-0.0237311
735,-293,-0.0266113,0.0386963,-0.00101825,0.0071134,0.00129484,0.00731461,-0.00121946,1.41664,0.0053296,0.0130747,1959,1317,-0.0266532,-0.038756
742,-293,-0.0450439,0.0584717,-0.000758699,0.0106087,0.0015714,0.010822,-0.000971925,1.43593,0.00755947,0.0221927,1966,1317,-0.0450022,-0.0584276
749,-293,-0.010376,-0.027832,-0.00027554,0.0154889,0.001886,0.0157114,-0.000498035,1.45337,0.0106441,0.0352069,1973,1317,-0.0103954,0.0278478
756,-293,-0.253052,-0.35376,0.00048018,0.0221565,0.0022391,0.0223854,0.000251302,1.46893,0.0148405,0.0402106,1980,1317,-0.253072,0.35382
763,-293,1.29712,1.74365,0.00151185,0.0310786,0.00265071,0.0313143,0.00127609,1.48209,0.0204641,0.0432467,1987,1317,1.29713,-1.74367
770,-293,1.31177,1.33887,0.0027651,0.0428023,0.00318087,0.0430534,0.00251396,1.49201,0.0279021,0.0470722,1994,1317,1.31183,-1.33887
777,-293,0,0,0,0,0,0,0,0,0,-1,2001,1317,0,0
784,-293,0,0,0,0,0,0,0,0,0,-1,2008,1317,0,0
791,-293,0,0,0,0,0,0,0,0,0,-1,2015,1317,0,0
798,-293,0,0,0,0,0,0,0,0,0,-1,2022,1317,0,0
805,-293,0,0,0,0,0,0,0,0,0,-1,2029,1317,0,0
812,-293,0,0,0,0,0,0,0,0,0,-1,2036,1317,0,0
-700,-300,0,0,0,0,0,0,0,0,0,-1,524,1324,0,0
-693,-300,0,0,0,0,0,0,0,0,0,-1,531,1324,0,0
-686,-300,0,0,0,0,0,0,0,0,0,-1,538,1324,0,0
-679,-300,0,0,0,0,0,0,0,0,0,-1,545,1324,0,0
-672,-300,0,0,0,0,0,0,0,0,0,-1,552,1324,0,0
-665,-300,0,0,0,0,0,0,0,0,0,-1,559,1324,0,0
-658,-300,0,0,0,0,0,0,0,0,0,-1,566,1324,0,0
-651,-300,0.907776,0.786621,0,0,0,0,0,0,0,-1,573,1324,0.907782,-0.786633
-644,-300,0.646667,0.619385,0,0,0,0,0,0,0,-1,580,1324,0.646639,-0.619363
-637,-300,0.211792,0.256348,-0.0354785,0.0248589,0.000399985,0.0248615,-0.0354812,1.56417,0.0350182,0.0447238,587,1324,0.211789,-0.256374
-630,-300,-0.102722,0.09375,0,0,0,0,0,0,0,-1,594,1324,-0.102734,-0.0937153
-623,-300,-0.0371704,-0.152466,0,0,0,0,0,0,0,-1,601,1324,-0.0372003,0.152511
-616,-300,-0.39209,0.0603027,0,0,0,0,0,0,0,-1,608,1324,-0.392098,-0.060353
-609,-300,-0.0203857,-0.186157,-0.0143809,0.0118053,0.00244449,0.0120315,-0.0146071,1.47851,0.0154038,0.0407169,615,1324,-0.0204036,0.186136
-602,-300,-0.0541992,0.0710449,-0.010563,0.00903723,0.00237333,0.00932052,-0.0108463,1.452,0.0116544,0.0277466,622,1324,-0.0541748,-0.0710678
-595,-300,-0.0496216,0.0407715,-0.00742709,0.00681268,0.00228293,0.00716973,-0.00778414,1.41565,0.00863605,0.0156972,629,1324,-0.0496459,-0.0407916
-588,-300,-0.0485229,0.0300293,-0.00489603,0.00487371,0.00203847,0.00528198,-0.00530429,1.37313,0.00611199,0.0190435,636,1324,-0.0485249,-0.0299992
-581,-300,-0.0462036,0.0401611,-0.00257527,0.00275177,0.00158085,0.00318558,-0.00300907,1.30298,0.00357697,0.0192129,643,1324,-0.0462117,-0.0401883
-574,-300,-0.0415649,0.0594482,-0.000958253,0.00178231,0.001112,0.00217674,-0.00135269,1.22993,0.00205615,0.0152882,650,1324,-0.0415468,-0.0594468
-567,-300,-0.0348511,0.0717773,-0.000214284,0.001163,0.000994893,0.00168433,-0.000735618,1.08813,0.0014325,0.0145271,657,1324,-0.0348406,-0.0717186
-560,-300,-0.0324707,0.0657959,-0.000531544,0.00177506,0.00115379,0.00225312,-0.0010096,1.17799,0.0019288,0.0123179,664,1324,-0.0324956,-0.0658165
-553,-300,-0.0259399,0.0612793,-0.000211377,0.0018984,0.00126621,0.00249157,-0.000804543,1.1327,0.00198436,0.0090009,671,1324,-0.0259192,-0.061297
-546,-300,-0.0108643,0.0544434,-0.000653377,0.00269807,0.00125484,0.00311583,-0.00107114,1.24942,0.00251159,0.00771025,678,1324,-0.0108806,-0.0544973
-539,-300,-0.0255127,0.0578613,-0.0020415,0.00488399,0.00132283,0.00512806,-0.00228558,1.38834,0.00438388,0.00960933,685,1324,-0.0255342,-0.0578062
-532,-300,-0.00213623,0.0432129,-0.00365309,0.00717891,0.00152352,0.00738911,-0.00386329,1.43369,0.00660203,0.020161,692,1324,-0.0021506,-0.0432086
-525,-300,0.0231934,0.0699463,-0.00604009,0.00903933,0.00185534,0.00926425,-0.00626501,1.45016,0.00902139,0.0369851,699,1324,0.0231731,-0.0699497
-518,-300,0.0888062,0.0493164,-0.00910172,0.011264,0.00200505,0.0114595,-0.00929725,1.47359,0.0120056,0.0425374,706,1324,0.0887815,-0.049306
-511,-300,-0.592041,0.955688,-0.0125534,0.0138992,0.0019339,0.0140399,-0.012694,1.4982,0.0154413,0.0427545,713,1324,-0.592045,-0.955645
-504,-300,-0.556152,1.11755,-0.0165878,0.0166966,0.00172334,0.0167856,-0.0166768,1.5192,0.0193196,0.0463346,720,1324,-0.556132,-1.11753
-497,-300,1.21375,-0.546509,-0.0213442,0.0195669,0.00134508,0.019611,-0.0213884,1.53797,0.0236784,0.0427134,727,1324,1.21375,0.546514
-490,-300,0.594727,-0.446289,-0.0266748,0.0224334,0.000883856,0.0224493,-0.0266907,1.55281,0.0284062,0.0408119,734,1324,0.594705,0.44635
-483,-300,0.154053,-0.356567,-0.0324215,0.0249856,0.000362001,0.0249879,-0.0324238,1.56449,0.0332392,0.0404729,741,1324,0.154051,0.356526
-476,-300,-0.175659,0.105591,-0.0380373,0.0268346,-0.000101618,0.0268347,-0.0380375,-1.56923,0.0376397,0.0432714,748,1324,-0.175662,-0.10554
-469,-300,0,0,0,0,0,0,0,0,0,-1,755,1324,0,0
-462,-300,0,0,0,0,0,0,0,0,0,-1,762,1324,0,0
-455,-300,0,0,0,0,0,0,0,0,0,-1,769,1324,0,0
-448,-300,0,0,0,0,0,0,0,0,0,-1,776,1324,0,0
-441,-300,0,0,0,0,0,0,0,0,0,-1,783,1324,0,0
-434,-300,0,0,0,0,0,0,0,0,0,-1,790,1324,0,0
-427,-300,0,0,0,0,0,0,0,0,0,-1,797,1324,0,0
-420,-300,0,0,0,0,0,0,0,0,0,-1,804,1324,0,0
-413,-300,0,0,0,0,0,0,0,0,0,-1,811,1324,0,0
-406,-300,0,0,0,0,0,0,0,0,0,-1,818,1324,0,0
-399,-300,0,0,0,0,0,0,0,0,0,-1,825,1324,0,0
-392,-300,0,0,0,0,0,0,0,0,0,-1,832,1324,0,0
-385,-300,0,0,0,0,0,0,0,0,0,-1,839,1324,0,0
-378,-300,0,0,0,0,0,0,0,0,0,-1,846,1324,0,0
-371,-300,0,0,0,0,0,0,0,0,0,-1,853,1324,0,0
-364,-300,0,0,0,0,0,0,0,0,0,-1,860,1324,0,0
-357,-300,0,0,0,0,0,0,0,0,0,-1,867,1324,0,0
-350,-300,0,0,0,0,0,0,0,0,0,-1,874,1324,0,0
-343,-300,0,0,0,0,0,0,0,0,0,-1,881,1324,0,0
-336,-300,0,0,0,0,0,0,0,0,0,-1,888,1324,0,0
-329,-300,0,0,0,0,0,0,0,0,0,-1,895,1324,0,0
-322,-300,0,0,0,0,0,0,0,0,0,-1,902,1324,0,0
-315,-300,0,0,0,0,0,0,0,0,0,-1,909,1324,0,0
-308,-300,0,0,0,0,0,0,0,0,0,-1,916,1324,0,0
-301,-300,0,0,0,0,0,0,0,0,0,-1,923,1324,0,0
-294,-300,0,0,0,0,0,0,0,0,0,-1,930,1324,0,0
-287,-300,0,0,0,0,0,0,0,0,0,-1,937,1324,0,0
-280,-300,0,0,0,0,0,0,0,0,0,-1,944,1324,0,0
-273,-300,0,0,0,0,0,0,0,0,0,-1,951,1324,0,0
-266,-300,0,0,0,0,0,0,0,0,0,-1,958,1324,0,0
-259,-300,0,0,0,0,0,0,0,0,0,-1,965,1324,0,0
-252,-300,0,0,0,0,0,0,0,0,0,-1,972,1324,0,0
-245,-300,0,0,0,0,0,0,0,0,0,-1,979,1324,0,0
-238,-300,0,0,0,0,0,0,0,0,0,-1,986,1324,0,0
-231,-300,0,0,0,0,0,0,0,0,0,-1,993,1324,0,0
-224,-300,0,0,0,0,0,0,0,0,0,-1,1000,1324,0,0
-217,-300,0,0,0,0,0,0,0,0,0,-1,1007,1324,0,0
-210,-300,0,0,0,0,0,0,0,0,0,-1,1014,1324,0,0
-203,-300,0,0,0,0,0,0,0,0,0,-1,1021,1324,0,0
-196,-300,0,0,0,0,0,0,0,0,0,-1,1028,1324,0,0
-189,-300,0,0,0,0,0,0,0,0,0,-1,1035,1324,0,0
-182,-300,0,0,0,0,0,0,0,0,0,-1,1042,1324,0,0
-175,-300,0,0,0,0,0,0,0,0,0,-1,1049,1324,0,0
-168,-300,0,0,0,0,0,0,0,0,0,-1,1056,1324,0,0
-161,-300,0,0,0,0,0,0,0,0,0,-1,1063,1324,0,0
-154,-300,0,0,0,0,0,0,0,0,0,-1,1070,1324,0,0
-147,-300,0,0,0,0,0,0,0,0,0,-1,1077,1324,0,0
-140,-300,0,0,0,0,0,0,0,0,0,-1,1084,1324,0,0
-133,-300,0,0,0,0,0,0,0,0,0,-1,1091,1324,0,0
-126,-300,0,0,0,0,0,0,0,0,0,-1,1098,1324,0,0
-119,-300,0,0,0,0,0,0,0,0,0,-1,1105,1324,0,0
-112,-300,0,0,0,0,0,0,0,0,0,-1,1112,1324,0,0
-105,-300,0,0,0,0,0,0,0,0,0,-1,1119,1324,0,0
-98,-300,0,0,0,0,0,0,0,0,0,-1,1126,1324,0,0
-91,-300,0,0,0,0,0,0,0,0,0,-1,1133,1324,0,0
-84,-300,0,0,0,0,0,0,0,0,0,-1,1140,1324,0,0
-77,-300,0,0,0,0,0,0,0,0,0,-1,1147,1324,0,0
-70,-300,0,0,0,0,0,0,0,0,0,-1,1154,1324,0,0
-63,-300,0,0,0,0,0,0,0,0,0,-1,1161,1324,0,0
-56,-300,0,0,0,0,0,0,0,0,0,-1,1168,1324,0,0
-49,-300,0,0,0,0,0,0,0,0,0,-1,1175,1324,0,0
-42,-300,0,0,0,0,0,0,0,0,0,-1,1182,1324,0,0
-35,-300,0,0,0,0,0,0,0,0,0,-1,1189,1324,0,0
-28,-300,0,0,0,0,0,0,0,0,0,-1,1196,1324,0,0
-21,-300,0,0,0,0,0,0,0,0,0,-1,1203,1324,0,0
-14,-300,0,0,0,0,0,0,0,0,0,-1,1210,1324,0,0
-7,-300,0,0,0,0,0,0,0,0,0,-1,1217,1324,0,0
0,-300,0,0,0,0,0,0,0,0,0,-1,1224,1324,0,0
7,-300,0,0,0,0,0,0,0,0,0,-1,1231,1324,0,0
14,-300,0,0,0,0,0,0,0,0,0,-1,1238,1324,0,0
21,-300,0,0,0,0,0,0,0,0,0,-1,1245,1324,0,0
28,-300,0,0,0,0,0,0,0,0,0,-1,1252,1324,0,0
35,-300,0,0,0,0,0,0,0,0,0,-1,1259,1324,0,0
42,-300,0,0,0,0,0,0,0,0,0,-1,1266,1324,0,0
49,-300,0,0,0,0,0,0,0,0,0,-1,1273,1324,0,0
56,-300,0,0,0,0,0,0,0,0,0,-1,1280,1324,0,0
63,-300,0,0,0,0,0,0,0,0,0,-1,1287,1324,0,0
70,-300,0,0,0,0,0,0,0,0,0,-1,1294,1324,0,0
77,-300,0,0,0,0,0,0,0,0,0,-1,1301,1324,0,0
84,-300,0,0,0,0,0,0,0,0,0,-1,1308,1324,0,0
91,-300,0,0,0,0,0,0,0,0,0,-1,1315,1324,0,0
98,-300,0,0,0,0,0,0,0,0,0,-1,1322,1324,0,0
105,-300,0,0,0,0,0,0,0,0,0,-1,1329,1324,0,0
112,-300,0,0,0,0,0,0,0,0,0,-1,1336,1324,0,0
119,-300,0,0,0,0,0,0,0,0,0,-1,1343,1324,0,0
126,-300,0,0,0,0,0,0,0,0,0,-1,1350,1324,0,0
133,-300,0,0,0,0,0,0,0,0,0,-1,1357,1324,0,0
140,-300,0,0,0,0,0,0,0,0,0,-1,1364,1324,0,0
147,-300,0,0,0,0,0,0,0,0,0,-1,1371,1324,0,0
154,-300,0,0,0,0,0,0,0,0,0,-1,1378,1324,0,0
161,-300,0,0,0,0,0,0,0,0,0,-1,1385,1324,0,0
168,-300,0,0,0,0,0,0,0,0,0,-1,1392,1324,0,0
175,-300,0,0,0,0,0,0,0,0,0,-1,1399,1324,0,0
182,-300,0,0,0,0,0,0,0,0,0,-1,1406,1324,0,0
189,-300,0,0,0,0,0,0,0,0,0,-1,1413,1324,0,0
196,-300,0,0,0,0,0,0,0,0,0,-1,1420,1324,0,0
203,-300,0,0,0,0,0,0,0,0,0,-1,1427,1324,0,0
210,-300,0,0,0,0,0,0,0,0,0,-1,1434,1324,0,0
217,-300,0,0,0,0,0,0,0,0,0,-1,1441,1324,0,0
224,-300,0,0,0,0,0,0,0,0,0,-1,1448,1324,0,0
231,-300,0,0,0,0,0,0,0,0,0,-1,1455,1324,0,0
238,-300,0,0,0,0,0,0,0,0,0,-1,1462,1324,0,0
245,-300,0,0,0,0,0,0,0,0,0,-1,1469,1324,0,0
252,-300,0,0,0,0,0,0,0,0,0,-1,1476,1324,0,0
259,-300,0,0,0,0,0,0,0,0,0,-1,1483,1324,0,0
266,-300,0,0,0,0,0,0,0,0,0,-1,1490,1324,0,0
273,-300,0,0,0,0,0,0,0,0,0,-1,1497,1324,0,0
280,-300,0,0,0,0,0,0,0,0,0,-1,1504,1324,0,0
287,-300,0,0,0,0,0,0,0,0,0,-1,1511,1324,0,0
294,-300,0,0,0,0,0,0,0,0,0,-1,1518,1324,0,0
301,-300,0,0,0,0,0,0,0,0,0,-1,1525,1324,0,0
308,-300,0,0,0,0,0,0,0,0,0,-1,1532,1324,0,0
315,-300,0,0,0,0,0,0,0,0,0,-1,1539,1324,0,0
322,-300,0,0,0,0,0,0,0,0,0,-1,1546,1324,0,0
329,-300,0,0,0,0,0,0,0,0,0,-1,1553,1324,0,0
336,-300,0,0,0,0,0,0,0,0,0,-1,1560,1324,0,0
343,-300,0,0,0,0,0,0,0,0,0,-1,1567,1324,0,0
350,-300,0,0,0,0,0,0,0,0,0,-1,1574,1324,0,0
357,-300,0,0,0,0,0,0,0,0,0,-1,1581,1324,0,0
364,-300,0,0,0,0,0,0,0,0,0,-1,1588,1324,0,0
371,-300,0,0,0,0,0,0,0,0,0,-1,1595,1324,0,0
378,-300,0,0,0,0,0,0,0,0,0,-1,1602,1324,0,0
385,-300,0,0,0,0,0,0,0,0,0,-1,1609,1324,0,0
392,-300,0,0,0,0,0,0,0,0,0,-1,1616,1324,0,0
399,-300,0,0,0,0,0,0,0,0,0,-1,1623,1324,0,0
406,-300,0,0,0,0,0,0,0,0,0,-1,1630,1324,0,0
413,-300,0,0,0,0,0,0,0,0,0,-1,1637,1324,0,0
420,-300,0,0,0,0,0,0,0,0,0,-1,1644,1324,0,0
427,-300,0,0,0,0,0,0,0,0,0,-1,1651,1324,0,0
434,-300,0,0,0,0,0,0,0,0,0,-1,1658,1324,0,0
441,-300,0,0,0,0,0,0,0,0,0,-1,1665,1324,0,0
448,-300,0,0,0,0,0,0,0,0,0,-1,1672,1324,0,0
455,-300,0,0,0,0,0,0,0,0,0,-1,1679,1324,0,0
462,-300,0,0,0,0,0,0,0,0,0,-1,1686,1324,0,0
469,-300,0,0,0,0,0,0,0,0,0,-1,1693,1324,0,0
476,-300,0,0,0,0,0,0,0,0,0,-1,1700,1324,0,0
483,-300,0,0,0,0,0,0,0,0,0,-1,1707,1324,0,0
490,-300,0,0,0,0,0,0,0,0,0,-1,1714,1324,0,0
497,-300,0,0,0,0,0,0,0,0,0,-1,1721,1324,0,0
504,-300,0,0,0,0,0,0,0,0,0,-1,1728,1324,0,0
511,-300,0,0,0,0,0,0,0,0,0,-1,1735,1324,0,0
518,-300,0,0,0,0,0,0,0,0,0,-1,1742,1324,0,0
525,-300,0,0,0,0,0,0,0,0,0,-1,1749,1324,0,0
532,-300,0,0,0,0,0,0,0,0,0,-1,1756,1324,0,0
539,-300,0,0,0,0,0,0,0,0,0,-1,1763,1324,0,0
546,-300,0,0,0,0,0,0,0,0,0,-1,1770,1324,0,0
553,-300,0,0,0,0,0,0,0,0,0,-1,1777,1324,0,0
560,-300,0,0,0,0,0,0,0,0,0,-1,1784,1324,0,0
567,-300,0,0,0,0,0,0,0,0,0,-1,1791,1324,0,0
574,-300,0,0,0,0,0,0,0,0,0,-1,1798,1324,0,0
581,-300,0,0,0,0,0,0,0,0,0,-1,1805,1324,0,0
588,-300,8.01721,4.02283,0,0,0,0,0,0,0,-1,1812,1324,8.01719,-4.02287
595,-300,2.14038,1.15161,0,0,0,0,0,0,0,-1,1819,1324,2.14034,-1.15164
602,-300,1.70398,0.675171,-0.0121235,0.0351252,-0.0085731,0.0366327,-0.0136309,-1.39674,0.0300155,0.0482518,1826,1324,1.70404,-0.675124
609,-300,1.24255,0.159546,-0.00822382,0.0298032,-0.00590489,0.030699,-0.00911963,-1.42024,0.0240884,0.0476584,1833,1324,1.24251,-0.159496
616,-300,0.80603,-0.0754395,-0.00425433,0.0243356,-0.00469412,0.0250866,-0.00500532,-1.41216,0.0186185,0.0466361,1840,1324,0.806006,0.0754696
623,-300,-0.8479,0.315552,-0.000732675,0.0192248,-0.00429626,0.0201104,-0.00161824,-1.36752,0.0139776,0.0488578,1847,1324,-0.847945,-0.315501
630,-300,-0.491333,0.205444,0.00201663,0.0147617,-0.00412503,0.0159802,0.000798041,-1.28355,0.0103977,0.0443526,1854,1324,-0.491375,-0.205473
637,-300,-0.232422,0.0828857,0.004074,0.0111697,-0.00375129,0.0127851,0.00245857,-1.16416,0.00783356,0.0458697,1861,1324,-0.232447,-0.082899
644,-300,-0.155029,-0.101685,0.00501898,0.00820538,-0.00330437,0.0102806,0.00294378,-1.01003,0.00611346,0.0486452,1868,1324,-0.155039,0.101662
651,-300,-0.0662842,-0.158936,0.00562505,0.00577175,-0.00290502,0.00860434,0.00279246,-0.79802,0.00506865,0.0444408,1875,1324,-0.0662523,0.1589
658,-300,-0.0391846,-0.1521,0.00608699,0.00336402,-0.00247185,0.0075475,0.00190351,-0.533671,0.00453242,0.0360752,1882,1324,-0.0391969,0.152117
665,-300,-0.0124512,-0.00439453,0.00551802,0.00197434,-0.00214964,0.00653192,0.000960439,-0.440722,0.0040724,0.0225754,1889,1324,-0.0123918,0.00439372
672,-300,-0.0247803,0.0437012,0.00511931,0.000990547,-0.00165521,0.00570094,0.000408916,-0.337916,0.00367192,0.0102848,1896,1324,-0.0247959,-0.0437074
679,-300,-0.026123,0.0360107,0.00456764,-0.000136721,-0.000718482,0.00467493,-0.000244006,-0.148226,0.00320105,0.0101608,1903,1324,-0.026093,-0.0360151
686,-300,-0.00585938,0.0239258,0.00286795,-0.000199248,-0.000210668,0.00288235,-0.00021365,-0.0682571,0.0019966,0.0100204,1910,1324,-0.00587177,-0.0238662
693,-300,-0.00878906,0.0308838,0.00129511,-9.21985e-05,0.000267389,0.00134486,-0.000141951,0.183963,0.000947445,0.00945014,1917,1324,-0.00878559,-0.0308385
700,-300,-0.027832,0.0256348,7.73493e-05,0.000250878,0.000585748,0.000756252,-0.000428025,0.858926,0.000692441,0.0104408,1924,1324,-0.0278311,-0.0256401
707,-300,-0.0313721,0.0136719,-0.000712667,0.000599373,0.000822901,0.000995745,-0.00110904,1.12191,0.00121578,0.00778046,1931,1324,-0.0313319,-0.0136679
714,-300,-0.0380859,0.0302734,-0.000939019,0.00143512,0.00086148,0.00171478,-0.00121867,1.25691,0.00170168,0.00937891,1938,1324,-0.0380473,-0.0302956
721,-300,-0.0220947,0.0275879,-0.00116251,0.00318558,0.00119988,0.00349471,-0.00147164,1.31864,0.00294556,0.0106096,1945,1324,-0.0220515,-0.0275965
728,-300,-0.0140381,0.0187988,-0.00103083,0.00540463,0.00143779,0.00571125,-0.00133745,1.36069,0.00432284,0.00848668,1952,1324,-0.0140574,-0.0188483
735,-300,-0.0423584,0.0338135,-0.00080277,0.00812458,0.00191235,0.00851699,-0.00119517,1.36841,0.00611544,0.0121734,1959,1324,-0.0423236,-0.0337601
742,-300,-0.0817871,0.100098,-0.0002436,0.0122198,0.00252548,0.0127121,-0.000735897,1.37828,0.00873041,0.0266834,1966,1324,-0.0817524,-0.100155
749,-300,0.17041,0.237915,0.000682005,0.0180174,0.00332817,0.0186344,6.50017e-05,1.38749,0.0124014,0.0393962,1973,1324,0.170381,-0.237908
756,-300,0.534668,0.503784,0.00205024,0.0260698,0.00437429,0.0268417,0.00127842,1.39615,0.0174839,0.0424623,1980,1324,0.534642,-0.503748
763,-300,0.593384,0.868042,0.00387522,0.0370435,0.00576504,0.038017,0.00290176,1.40352,0.0244349,0.0421671,1987,1324,0.593357,-0.86805
770,-300,0.32019,0.675415,0.00614052,0.0517884,0.00766933,0.0530425,0.00488644,1.40871,0.0338506,0.0435896,1994,1324,0.320151,-0.675372
777,-300,0,0,0,0,0,0,0,0,0,-1,2001,1324,0,0
784,-300,0,0,0,0,0,0,0,0,0,-1,2008,1324,0,0
791,-300,0,0,0,0,0,0,0,0,0,-1,2015,1324,0,0
798,-300,0,0,0,0,0,0,0,0,0,-1,2022,1324,0,0
805,-300,0,0,0,0,0,0,0,0,0,-1,2029,1324,0,0
812,-300,0,0,0,0,0,0,0,0,0,-1,2036,1324,0,0
-700,-307,0,0,0,0,0,0,0,0,0,-1,524,1331,0,0
-693,-307,0,0,0,0,0,0,0,0,0,-1,531,1331,0,0
-686,-307,0,0,0,0,0,0,0,0,0,-1,538,1331,0,0
-679,-307,0,0,0,0,0,0,0,0,0,-1,545,1331,0,0
-672,-307,0,0,0,0,0,0,0,0,0,-1,552,1331,0,0
-665,-307,0,0,0,0,0,0,0,0,0,-1,559,1331,0,0
-658,-307,0,0,0,0,0,0,0,0,0,-1,566,1331,0,0
-651,-307,0.155518,3.39526,0,0,0,0,0,0,0,-1,573,1331,0.155519,-3.3953
-644,-307,0.0684204,2.9519,0,0,0,0,0,0,0,-1,580,1331,0.06842,-2.95186
-637,-307,0.246582,-0.213623,0,0,0,0,0,0,0,-1,587,1331,0.246553,0.213671
-630,-307,0.0189819,-0.46875,0,0,0,0,0,0,0,-1,594,1331,0.0189563,0.468735
-623,-307,0.874939,-1.19214,0,0,0,0,0,0,0,-1,601,1331,0.87493,1.19215
-616,-307,0.586548,-0.695679,-0.0220021,0.0184066,0.00355156,0.0187164,-0.0223119,1.48379,0.023718,0.0460392,608,1331,0.586531,0.695647
-609,-307,0.269531,-0.156616,-0.0167196,0.0141661,0.00342188,0.0145407,-0.0170941,1.46177,0.0182842,0.0433221,615,1331,0.269502,0.156632
-602,-307,-0.0257568,0.0311279,-0.0122832,0.0106481,0.00319649,0.0110853,-0.0127204,1.43485,0.013755,0.0317977,622,1331,-0.0257274,-0.0311457
-595,-307,-0.0397949,0.0308838,-0.0086213,0.00774339,0.00290359,0.00824331,-0.00912122,1.4003,0.0100297,0.0132605,629,1331,-0.0397946,-0.0308452
-588,-307,-0.0413208,0.0444336,-0.00568263,0.00534642,0.00244217,0.005863,-0.00619921,1.36235,0.00696502,0.0172462,636,1331,-0.0413376,-0.0444795
-581,-307,-0.0270386,0.0511475,-0.00307218,0.0029203,0.00180394,0.00342144,-0.00357331,1.29983,0.00403874,0.0150548,643,1331,-0.0270358,-0.0511691
-574,-307,-0.0380859,0.0466309,-0.00125512,0.00170534,0.00124088,0.00215666,-0.00170643,1.22197,0.0022354,0.0122108,650,1331,-0.0381079,-0.0466349
-567,-307,-0.0335693,0.052124,-0.000387108,0.000962789,0.00108039,0.00156173,-0.000986053,1.0646,0.00148343,0.0122531,657,1331,-0.0335567,-0.0520897
-560,-307,-0.0187988,0.060791,-0.000664901,0.00158629,0.00119999,0.00210597,-0.00118458,1.16211,0.00192447,0.0124823,664,1331,-0.0188166,-0.0607517
-553,-307,-0.010437,0.0545654,-0.000382247,0.001832,0.00127941,0.00241681,-0.000967047,1.14206,0.00201255,0.00976337,671,1331,-0.0104068,-0.0545616
-546,-307,0.000244141,0.046875,-0.000933365,0.00287365,0.00128131,0.00326472,-0.00132444,1.27456,0.00272735,0.00921556,678,1331,0.000226217,-0.0469132
-539,-307,-0.0012207,0.0501709,-0.00248304,0.00522353,0.00146105,0.00549123,-0.00275073,1.38959,0.00484539,0.0101232,685,1331,-0.0012058,-0.0502285
-532,-307,-0.00195313,0.0587158,-0.00421766,0.00762657,0.00175257,0.00788046,-0.00447154,1.42693,0.00722139,0.0160742,692,1331,-0.00197365,-0.0586905
-525,-307,-0.00970459,0.114502,-0.0067352,0.00959833,0.0021254,0.00987036,-0.00700723,1.4435,0.00979091,0.0351516,699,1331,-0.00972079,-0.114552
-518,-307,-0.398071,0.406494,-0.0100003,0.0119914,0.00229795,0.0122289,-0.0102378,1.46779,0.0129882,0.0418844,706,1331,-0.398083,-0.406468
-511,-307,-0.372803,0.564331,-0.0136245,0.0147666,0.00222406,0.0149398,-0.0137977,1.49309,0.0165959,0.0386754,713,1331,-0.372808,-0.56435
-504,-307,-0.464172,0.741211,-0.0177483,0.0176181,0.00200513,0.0177315,-0.0178616,1.51434,0.0205497,0.0441129,720,1331,-0.464194,-0.741205
-497,-307,-0.664001,1.00317,0,0,0,0,0,0,0,-1,727,1331,-0.663988,-1.00315
-490,-307,-1.12842,1.4093,0,0,0,0,0,0,0,-1,734,1331,-1.12843,-1.40935
-483,-307,0.584839,-0.581909,-0.0333571,0.0253567,0.000299079,0.0253583,-0.0333586,1.5657,0.0340049,0.041199,741,1331,0.584837,0.581859
-476,-307,0.196655,-0.129883,-0.0389188,0.0269947,-0.000445667,0.0269977,-0.0389218,-1.56404,0.0382657,0.0451956,748,1331,0.196632,0.129943
-469,-307,-0.110046,0.203003,-0.0439399,0.0280869,-0.00133999,0.0281118,-0.0439649,-1.5522,0.0419476,0.0428263,755,1331,-0.110066,-0.202952
-462,-307,0,0,0,0,0,0,0,0,0,-1,762,1331,0,0
-455,-307,0,0,0,0,0,0,0,0,0,-1,769,1331,0,0
-448,-307,0,0,0,0,0,0,0,0,0,-1,776,1331,0,0
-441,-307,0,0,0,0,0,0,0,0,0,-1,783,1331,0,0
-434,-307,0,0,0,0,0,0,0,0,0,-1,790,1331,0,0
-427,-307,0,0,0,0,0,0,0,0,0,-1,797,1331,0,0
-420,-307,0,0,0,0,0,0,0,0,0,-1,804,1331,0,0
-413,-307,0,0,0,0,0,0,0,0,0,-1,811,1331,0,0
-406,-307,0,0,0,0,0,0,0,0,0,-1,818,1331,0,0
-399,-307,0,0,0,0,0,0,0,0,0,-1,825,1331,0,0
-392,-307,0,0,0,0,0,0,0,0,0,-1,832,1331,0,0
-385,-307,0,0,0,0,0,0,0,0,0,-1,839,1331,0,0
-378,-307,0,0,0,0,0,0,0,0,0,-1,846,1331,0,0
-371,-307,0,0,0,0,0,0,0,0,0,-1,853,1331,0,0
-364,-307,0,0,0,0,0,0,0,0,0,-1,860,1331,0,0
-357,-307,0,0,0,0,0,0,0,0,0,-1,867,1331,0,0
-350,-307,0,0,0,0,0,0,0,0,0,-1,874,1331,0,0
-343,-307,0,0,0,0,0,0,0,0,0,-1,881,1331,0,0
-336,-307,0,0,0,0,0,0,0,0,0,-1,888,1331,0,0
-329,-307,0,0,0,0,0,0,0,0,0,-1,895,1331,0,0
-322,-307,0,0,0,0,0,0,0,0,0,-1,902,1331,0,0
-315,-307,0,0,0,0,0,0,0,0,0,-1,909,1331,0,0
-308,-307,0,0,0,0,0,0,0,0,0,-1,916,1331,0,0
-301,-307,0,0,0,0,0,0,0,0,0,-1,923,1331,0,0
-294,-307,0,0,0,0,0,0,0,0,0,-1,930,1331,0,0
-287,-307,0,0,0,0,0,0,0,0,0,-1,937,1331,0,0
-280,-307,0,0,0,0,0,0,0,0,0,-1,944,1331,0,0
-273,-307,0,0,0,0,0,0,0,0,0,-1,951,1331,0,0
-266,-307,0,0,0,0,0,0,0,0,0,-1,958,1331,0,0
-259,-307,0,0,0,0,0,0,0,0,0,-1,965,1331,0,0
-252,-307,0,0,0,0,0,0,0,0,0,-1,972,1331,0,0
-245,-307,0,0,0,0,0,0,0,0,0,-1,979,1331,0,0
-238,-307,0,0,0,0,0,0,0,0,0,-1,986,1331,0,0
-231,-307,0,0,0,0,0,0,0,0,0,-1,993,1331,0,0
-224,-307,0,0,0,0,0,0,0,0,0,-1,1000,1331,0,0
-217,-307,0,0,0,0,0,0,0,0,0,-1,1007,1331,0,0
-210,-307,0,0,0,0,0,0,0,0,0,-1,1014,1331,0,0
-203,-307,0,0,0,0,0,0,0,0,0,-1,1021,1331,0,0
-196,-307,0,0,0,0,0,0,0,0,0,-1,1028,1331,0,0
-189,-307,0,0,0,0,0,0,0,0,0,-1,1035,1331,0,0
-182,-307,0,0,0,0,0,0,0,0,0,-1,1042,1331,0,0
-175,-307,0,0,0,0,0,0,0,0,0,-1,1049,1331,0,0
-168,-307,0,0,0,0,0,0,0,0,0,-1,1056,1331,0,0
-161,-307,0,0,0,0,0,0,0,0,0,-1,1063,1331,0,0
-154,-307,0,0,0,0,0,0,0,0,0,-1,1070,1331,0,0
-147,-307,0,0,0,0,0,0,0,0,0,-1,1077,1331,0,0
-140,-307,0,0,0,0,0,0,0,0,0,-1,1084,1331,0,0
-133,-307,0,0,0,0,0,0,0,0,0,-1,1091,1331,0,0
-126,-307,0,0,0,0,0,0,0,0,0,-1,1098,1331,0,0
-119,-307,0,0,0,0,0,0,0,0,0,-1,1105,1331,0,0
-112,-307,0,0,0,0,0,0,0,0,0,-1,1112,1331,0,0
-105,-307,0,0,0,0,0,0,0,0,0,-1,1119,1331,0,0
-98,-307,0,0,0,0,0,0,0,0,0,-1,1126,1331,0,0
-91,-307,0,0,0,0,0,0,0,0,0,-1,1133,1331,0,0
-84,-307,0,0,0,0,0,0,0,0,0,-1,1140,1331,0,0
-77,-307,0,0,0,0,0,0,0,0,0,-1,1147,1331,0,0
-70,-307,0,0,0,0,0,0,0,0,0,-1,1154,1331,0,0
-63,-307,0,0,0,0,0,0,0,0,0,-1,1161,1331,0,0
-56,-307,0,0,0,0,0,0,0,0,0,-1,1168,1331,0,0
-49,-307,0,0,0,0,0,0,0,0,0,-1,1175,1331,0,0
-42,-307,0,0,0,0,0,0,0,0,0,-1,1182,1331,0,0
-35,-307,0,0,0,0,0,0,0,0,0,-1,1189,1331,0,0
-28,-307,0,0,0,0,0,0,0,0,0,-1,1196,1331,0,0
-21,-307,0,0,0,0,0,0,0,0,0,-1,1203,1331,0,0
-14,-307,0,0,0,0,0,0,0,0,0,-1,1210,1331,0,0
-7,-307,0,0,0,0,0,0,0,0,0,-1,1217,1331,0,0
0,-307,0,0,0,0,0,0,0,0,0,-1,1224,1331,0,0
7,-307,0,0,0,0,0,0,0,0,0,-1,1231,1331,0,0
14,-307,0,0,0,0,0,0,0,0,0,-1,1238,1331,0,0
21,-307,0,0,0,0,0,0,0,0,0,-1,1245,1331,0,0
28,-307,0,0,0,0,0,0,0,0,0,-1,1252,1331,0,0
35,-307,0,0,0,0,0,0,0,0,0,-1,1259,1331,0,0
42,-307,0,0,0,0,0,0,0,0,0,-1,1266,1331,0,0
49,-307,0,0,0,0,0,0,0,0,0,-1,1273,1331,0,0
56,-307,0,0,0,0,0,0,0,0,0,-1,1280,1331,0,0
63,-307,0,0,0,0,0,0,0,0,0,-1,1287,1331,0,0
70,-307,0,0,0,0,0,0,0,0,0,-1,1294,1331,0,0
77,-307,0,0,0,0,0,0,0,0,0,-1,1301,1331,0,0
84,-307,0,0,0,0,0,0,0,0,0,-1,1308,1331,0,0
91,-307,0,0,0,0,0,0,0,0,0,-1,1315,1331,0,0
98,-307,0,0,0,0,0,0,0,0,0,-1,1322,1331,0,0
105,-307,0,0,0,0,0,0,0,0,0,-1,1329,1331,0,0
112,-307,0,0,0,0,0,0,0,0,0,-1,1336,1331,0,0
119,-307,0,0,0,0,0,0,0,0,0,-1,1343,1331,0,0
126,-307,0,0,0,0,0,0,0,0,0,-1,1350,1331,0,0
133,-307,0,0,0,0,0,0,0,0,0,-1,1357,1331,0,0
140,-307,0,0,0,0,0,0,0,0,0,-1,1364,1331,0,0
147,-307,0,0,0,0,0,0,0,0,0,-1,1371,1331,0,0
154,-307,0,0,0,0,0,0,0,0,0,-1,1378,1331,0,0
161,-307,0,0,0,0,0,0,0,0,0,-1,1385,1331,0,0
168,-307,0,0,0,0,0,0,0,0,0,-1,1392,1331,0,0
175,-307,0,0,0,0,0,0,0,0,0,-1,1399,1331,0,0
182,-307,0,0,0,0,0,0,0,0,0,-1,1406,1331,0,0
189,-307,0,0,0,0,0,0,0,0,0,-1,1413,1331,0,0
196,-307,0,0,0,0,0,0,0,0,0,-1,1420,1331,0,0
203,-307,0,0,0,0,0,0,0,0,0,-1,1427,1331,0,0
210,-307,0,0,0,0,0,0,0,0,0,-1,1434,1331,0,0
217,-307,0,0,0,0,0,0,0,0,0,-1,1441,1331,0,0
224,-307,0,0,0,0,0,0,0,0,0,-1,1448,1331,0,0
231,-307,0,0,0,0,0,0,0,0,0,-1,1455,1331,0,0
238,-307,0,0,0,0,0,0,0,0,0,-1,1462,1331,0,0
245,-307,0,0,0,0,0,0,0,0,0,-1,1469,1331,0,0
252,-307,0,0,0,0,0,0,0,0,0,-1,1476,1331,0,0
259,-307,0,0,0,0,0,0,0,0,0,-1,1483,1331,0,0
266,-307,0,0,0,0,0,0,0,0,0,-1,1490,1331,0,0
273,-307,0,0,0,0,0,0,0,0,0,-1,1497,1331,0,0
280,-307,0,0,0,0,0,0,0,0,0,-1,1504,1331,0,0
287,-307,0,0,0,0,0,0,0,0,0,-1,1511,1331,0,0
294,-307,0,0,0,0,0,0,0,0,0,-1,1518,1331,0,0
301,-307,0,0,0,0,0,0,0,0,0,-1,1525,1331,0,0
308,-307,0,0,0,0,0,0,0,0,0,-1,1532,1331,0,0
315,-307,0,0,0,0,0,0,0,0,0,-1,1539,1331,0,0
322,-307,0,0,0,0,0,0,0,0,0,-1,1546,1331,0,0
329,-307,0,0,0,0,0,0,0,0,0,-1,1553,1331,0,0
336,-307,0,0,0,0,0,0,0,0,0,-1,1560,1331,0,0
343,-307,0,0,0,0,0,0,0,0,0,-1,1567,1331,0,0
350,-307,0,0,0,0,0,0,0,0,0,-1,1574,1331,0,0
357,-307,0,0,0,0,0,0,0,0,0,-1,1581,1331,0,0
364,-307,0,0,0,0,0,0,0,0,0,-1,1588,1331,0,0
371,-307,0,0,0,0,0,0,0,0,0,-1,1595,1331,0,0
378,-307,0,0,0,0,0,0,0,0,0,-1,1602,1331,0,0
385,-307,0,0,0,0,0,0,0,0,0,-1,1609,1331,0,0
392,-307,0,0,0,0,0,0,0,0,0,-1,1616,1331,0,0
399,-307,0,0,0,0,0,0,0,0,0,-1,1623,1331,0,0
406,-307,0,0,0,0,0,0,0,0,0,-1,1630,1331,0,0
413,-307,0,0,0,0,0,0,0,0,0,-1,1637,1331,0,0
420,-307,0,0,0,0,0,0,0,0,0,-1,1644,1331,0,0
427,-307,0,0,0,0,0,0,0,0,0,-1,1651,1331,0,0
434,-307,0,0,0,0,0,0,0,0,0,-1,1658,1331,0,0
441,-307,0,0,0,0,0,0,0,0,0,-1,1665,1331,0,0
448,-307,0,0,0,0,0,0,0,0,0,-1,1672,1331,0,0
455,-307,0,0,0,0,0,0,0,0,0,-1,1679,1331,0,0
462,-307,0,0,0,0,0,0,0,0,0,-1,1686,1331,0,0
469,-307,0,0,0,0,0,0,0,0,0,-1,1693,1331,0,0
476,-307,0,0,0,0,0,0,0,0,0,-1,1700,1331,0,0
483,-307,0,0,0,0,0,0,0,0,0,-1,1707,1331,0,0
490,-307,0,0,0,0,0,0,0,0,0,-1,1714,1331,0,0
497,-307,0,0,0,0,0,0,0,0,0,-1,1721,1331,0,0
504,-307,0,0,0,0,0,0,0,0,0,-1,1728,1331,0,0
511,-307,0,0,0,0,0,0,0,0,0,-1,1735,1331,0,0
518,-307,0,0,0,0,0,0,0,0,0,-1,1742,1331,0,0
525,-307,0,0,0,0,0,0,0,0,0,-1,1749,1331,0,0
532,-307,0,0,0,0,0,0,0,0,0,-1,1756,1331,0,0
539,-307,0,0,0,0,0,0,0,0,0,-1,1763,1331,0,0
546,-307,0,0,0,0,0,0,0,0,0,-1,1770,1331,0,0
553,-307,0,0,0,0,0,0,0,0,0,-1,1777,1331,0,0
560,-307,0,0,0,0,0,0,0,0,0,-1,1784,1331,0,0
567,-307,0,0,0,0,0,0,0,0,0,-1,1791,1331,0,0
574,-307,0,0,0,0,0,0,0,0,0,-1,1798,1331,0,0
581,-307,0,0,0,0,0,0,0,0,0,-1,1805,1331,0,0
588,-307,3.15845,1.56213,0,0,0,0,0,0,0,-1,1812,1331,3.15839,-1.56219
595,-307,2.63452,1.21875,0,0,0,0,0,0,0,-1,1819,1331,2.63452,-1.21873
602,-307,2.198,0.881592,-0.00840417,0.0372121,-0.0103377,0.0394455,-0.0106376,-1.35802,0.0304683,0.0481737,1826,1331,2.19796,-0.88165
609,-307,1.69812,0.55957,-0.00544538,0.0306699,-0.00584345,0.0315918,-0.00636731,-1.41431,0.0234733,0.0463449,1833,1331,1.69813,-0.559577
616,-307,1.25305,0.358521,-0.00255443,0.0244341,-0.00332348,0.0248374,-0.00295768,-1.45006,0.0176271,0.0451714,1840,1331,1.2531,-0.35853
623,-307,1.06799,-0.128662,-7.26789e-05,0.0187668,-0.00235543,0.0190568,-0.000362704,-1.44828,0.0128271,0.0446684,1847,1331,1.068,0.128656
630,-307,-0.2677,0.0708008,0.00194342,0.0139446,-0.00206882,0.0142913,0.0015968,-1.40479,0.00904236,0.0448279,1854,1331,-0.267645,-0.0707657
637,-307,-0.138916,-0.0671387,0.00361382,0.0101795,-0.00178937,0.0106355,0.00315783,-1.32127,0.006307,0.0431382,1861,1331,-0.13892,0.0670962
644,-307,-0.160889,0.0510254,0,0,0,0,0,0,0,-1,1868,1331,-0.160929,-0.0510119
651,-307,-0.0570068,0.0306396,0,0,0,0,0,0,0,-1,1875,1331,-0.0570453,-0.0306096
658,-307,-0.072998,0.0301514,0.0052322,0.00231208,-0.0014492,0.00582931,0.00171497,-0.390833,0.00345928,0.0328649,1882,1331,-0.0729474,-0.0301498
665,-307,-0.03479,0.0596924,0.00470892,0.0010447,-0.00137427,0.00516706,0.000586553,-0.321784,0.00326679,0.0128352,1889,1331,-0.0347519,-0.0596909
672,-307,-0.0264893,0.0445557,0.00441629,0.000172246,-0.00113088,0.00469881,-0.000110283,-0.24482,0.00316994,0.00860857,1896,1331,-0.0264776,-0.0445022
679,-307,-0.029541,0.0435791,0.00400974,-0.000619912,-0.000331867,0.00403341,-0.00064358,-0.0711978,0.00292714,0.00954396,1903,1331,-0.0295737,-0.043629
686,-307,-0.0246582,0.0307617,0.00245114,-0.000507173,6.5383e-05,0.00245258,-0.000508618,0.0220871,0.00182833,0.00911787,1910,1331,-0.0246217,-0.0307658
693,-307,-0.0196533,0.0378418,0.000998389,-0.000303777,0.000450195,0.00113888,-0.000444265,0.302484,0.000942897,0.0105623,1917,1331,-0.0196499,-0.0378349
700,-307,-0.0303955,0.0336914,-0.000118013,0.000110284,0.000695227,0.000700671,-0.0007084,0.866766,0.000813532,0.0107155,1924,1331,-0.0303408,-0.0336426
707,-307,-0.0432129,0.0240479,-0.000779499,0.000537426,0.000909238,0.00100159,-0.00124366,1.09879,0.0012988,0.0120157,1931,1331,-0.0432196,-0.0240701
714,-307,-0.0357666,0.0175781,-0.000931443,0.00145668,0.00102344,0.00183527,-0.00131003,1.21649,0.00182436,0.011473,1938,1331,-0.0357667,-0.0175296
721,-307,-0.0239258,0.022583,-0.00107151,0.0032161,0.00148114,0.00367799,-0.00153341,1.2685,0.00309256,0.012819,1945,1331,-0.023955,-0.0225912
728,-307,-0.0201416,0.050415,-0.000810225,0.00547332,0.00191076,0.00600874,-0.00134564,1.29759,0.00452162,0.0141619,1952,1331,-0.0201194,-0.050457
735,-307,-0.0643311,0.0633545,-0.000324924,0.0084565,0.00263974,0.00918893,-0.00105735,1.30014,0.0065071,0.0245433,1959,1331,-0.0643412,-0.0633415
742,-307,-0.144043,0.0562744,0.000571942,0.0129249,0.00362563,0.0139104,-0.000413567,1.30539,0.00941449,0.0357707,1966,1331,-0.144033,-0.0563161
749,-307,-0.101074,-0.0678711,0.00195402,0.0193843,0.00496163,0.0206977,0.000640625,1.31202,0.0135899,0.0403994,1973,1331,-0.101079,0.0678925
756,-307,0.128174,-0.126099,0.00391583,0.0285594,0.00676399,0.0302938,0.00218137,1.31978,0.0195095,0.0436699,1980,1331,0.128166,0.12614
763,-307,0.11145,-0.0996094,0.00646046,0.0413723,0.00922692,0.0436609,0.00417188,1.32767,0.0278211,0.0399571,1987,1331,0.111415,0.0995556
770,-307,0,0,0,0,0,0,0,0,0,-1,1994,1331,0,0
777,-307,0,0,0,0,0,0,0,0,0,-1,2001,1331,0,0
784,-307,0,0,0,0,0,0,0,0,0,-1,2008,1331,0,0
791,-307,0,0,0,0,0,0,0,0,0,-1,2015,1331,0,0
798,-307,0,0,0,0,0,0,0,0,0,-1,2022,1331,0,0
805,-307,0,0,0,0,0,0,0,0,0,-1,2029,1331,0,0
812,-307,0,0,0,0,0,0,0,0,0,-1,2036,1331,0,0
-700,-314,0,0,0,0,0,0,0,0,0,-1,524,1338,0,0
-693,-314,0,0,0,0,0,0,0,0,0,-1,531,1338,0,0
-686,-314,0,0,0,0,0,0,0,0,0,-1,538,1338,0,0
-679,-314,0,0,0,0,0,0,0,0,0,-1,545,1338,0,0
-672,-314,0,0,0,0,0,0,0,0,0,-1,552,1338,0,0
-665,-314,0,0,0,0,0,0,0,0,0,-1,559,1338,0,0
-658,-314,0,0,0,0,0,0,0,0,0,-1,566,1338,0,0
-651,-314,0,0,0,0,0,0,0,0,0,-1,573,1338,0,0
-644,-314,0.0476685,2.82678,0,0,0,0,0,0,0,-1,580,1338,0.0476701,-2.82683
-637,-314,3.23743,3.1936,0,0,0,0,0,0,0,-1,587,1338,3.23742,-3.19363
-630,-314,2.51459,3.1167,0,0,0,0,0,0,0,-1,594,1338,2.51458,-3.11675
-623,-314,0.970093,-1.1366,0,0,0,0,0,0,0,-1,601,1338,0.970065,1.13656
-616,-314,0.671387,-0.728027,-0.0232511,0.0216179,0.00430783,0.0220277,-0.023661,1.47594,0.026384,0.0477581,608,1338,0.671363,0.72797
-609,-314,0.360596,-0.340332,-0.0175387,0.0164053,0.0042192,0.0169219,-0.0180553,1.44897,0.0201976,0.0453602,615,1338,0.360618,0.340282
-602,-314,0.234314,-0.123657,-0.0127621,0.0120951,0.00392569,0.0127003,-0.0133673,1.41782,0.0150518,0.0375319,622,1338,0.234299,0.123624
-595,-314,-0.0119629,0.0202637,-0.0088413,0.00853299,0.00348704,0.00920672,-0.00951502,1.37994,0.0108095,0.0211702,629,1338,-0.0119717,-0.0202696
-588,-314,-0.0244141,0.050293,-0.00574663,0.00568959,0.00285898,0.00636448,-0.00642153,1.33898,0.00738203,0.0126981,636,1338,-0.0243884,-0.0502746
-581,-314,-0.0133057,0.0393066,-0.00306376,0.00302447,0.00206939,0.00366125,-0.00370054,1.27228,0.00425036,0.0125183,643,1338,-0.0133034,-0.0393597
-574,-314,-0.0537109,0.00256348,-0.00122493,0.00157623,0.00142323,0.00217245,-0.00182115,1.17409,0.00230868,0.0115994,650,1338,-0.0537316,-0.00256066
-567,-314,-0.026123,0.0273438,-0.000317627,0.000733183,0.00118294,0.00150215,-0.0010866,0.994388,0.00150102,0.0131902,657,1338,-0.0261153,-0.0273311
-560,-314,0.00549316,0.0443115,-0.000632452,0.00134644,0.0012491,0.00195049,-0.00123651,1.12036,0.00185534,0.0140371,664,1338,0.0055223,-0.0442671
-553,-314,0.0130005,0.0424805,-0.00042122,0.00169311,0.00123725,0.00226333,-0.000991442,1.13893,0.00192638,0.0165282,671,1338,0.0130053,-0.0424431
-546,-314,0.00946045,0.0412598,-0.00104747,0.00291041,0.00117656,0.00323375,-0.00137081,1.3026,0.00273001,0.0171865,678,1338,0.00945451,-0.0413011
-539,-314,-0.0169678,0.0366211,-0.00270919,0.00534188,0.00143704,0.00559069,-0.002958,1.39936,0.005013,0.0157079,685,1338,-0.0169977,-0.0366157
-532,-314,-0.0357666,0.0629883,-0.00447898,0.00774471,0.00178554,0.00800018,-0.00473445,1.42868,0.0074325,0.0166402,692,1338,-0.0357441,-0.0629493
-525,-314,-0.0272217,0.117188,-0.00699959,0.00971631,0.00216209,0.00999143,-0.00727471,1.44423,0.0100097,0.0299111,699,1338,-0.0272316,-0.117237
-518,-314,-0.0298462,0.129395,-0.0102891,0.0121209,0.00229056,0.0123527,-0.0105209,1.46997,0.0132202,0.0421199,706,1338,-0.0298399,-0.129444
-511,-314,-0.0943604,0.325928,-0.0138989,0.0148694,0.0021537,0.0150298,-0.0140593,1.49648,0.0167977,0.0416728,713,1338,-0.0943541,-0.325893
-504,-314,-0.420959,0.676636,-0.0179835,0.0176406,0.00189203,0.0177408,-0.0180837,1.51788,0.0206837,0.0440656,720,1338,-0.420937,-0.676625
-497,-314,-0.88092,0.931152,-0.02262,0.0202106,0.00131471,0.0202509,-0.0226603,1.54014,0.0247878,0.0484115,727,1338,-0.880945,-0.931196
-490,-314,-1.39703,1.16321,-0.0276782,0.0225633,0.000698883,0.022573,-0.0276879,1.55689,0.0290682,0.0451172,734,1338,-1.39703,-1.16325
-483,-314,1.1228,-0.531128,0,0,0,0,0,0,0,-1,741,1338,1.12283,0.531138
-476,-314,0.40741,-0.356567,-0.0383002,0.0255352,-0.000850499,0.0255466,-0.0383115,-1.55748,0.0371132,0.0463582,748,1338,0.407393,0.356613
-469,-314,-0.14563,0.0231934,-0.0432849,0.0259714,-0.00169645,0.0260129,-0.0433265,-1.54632,0.0404469,0.043777,755,1338,-0.145612,-0.0232097
-462,-314,0,0,0,0,0,0,0,0,0,-1,762,1338,0,0
-455,-314,0,0,0,0,0,0,0,0,0,-1,769,1338,0,0
-448,-314,0,0,0,0,0,0,0,0,0,-1,776,1338,0,0
-441,-314,0,0,0,0,0,0,0,0,0,-1,783,1338,0,0
-434,-314,0,0,0,0,0,0,0,0,0,-1,790,1338,0,0
-427,-314,0,0,0,0,0,0,0,0,0,-1,797,1338,0,0
-420,-314,0,0,0,0,0,0,0,0,0,-1,804,1338,0,0
-413,-314,0,0,0,0,0,0,0,0,0,-1,811,1338,0,0
-406,-314,0,0,0,0,0,0,0,0,0,-1,818,1338,0,0
-399,-314,0,0,0,0,0,0,0,0,0,-1,825,1338,0,0
-392,-314,0,0,0,0,0,0,0,0,0,-1,832,1338,0,0
-385,-314,0,0,0,0,0,0,0,0,0,-1,839,1338,0,0
-378,-314,0,0,0,0,0,0,0,0,0,-1,846,1338,0,0
-371,-314,0,0,0,0,0,0,0,0,0,-1,853,1338,0,0
-364,-314,0,0,0,0,0,0,0,0,0,-1,860,1338,0,0
-357,-314,0,0,0,0,0,0,0,0,0,-1,867,1338,0,0
-350,-314,0,0,0,0,0,0,0,0,0,-1,874,1338,0,0
-343,-314,0,0,0,0,0,0,0,0,0,-1,881,1338,0,0
-336,-314,0,0,0,0,0,0,0,0,0,-1,888,1338,0,0
-329,-314,0,0,0,0,0,0,0,0,0,-1,895,1338,0,0
-322,-314,0,0,0,0,0,0,0,0,0,-1,902,1338,0,0
-315,-314,0,0,0,0,0,0,0,0,0,-1,909,1338,0,0
-308,-314,0,0,0,0,0,0,0,0,0,-1,916,1338,0,0
-301,-314,0,0,0,0,0,0,0,0,0,-1,923,1338,0,0
-294,-314,0,0,0,0,0,0,0,0,0,-1,930,1338,0,0
-287,-314,0,0,0,0,0,0,0,0,0,-1,937,1338,0,0
-280,-314,0,0,0,0,0,0,0,0,0,-1,944,1338,0,0
-273,-314,0,0,0,0,0,0,0,0,0,-1,951,1338,0,0
-266,-314,0,0,0,0,0,0,0,0,0,-1,958,1338,0,0
-259,-314,0,0,0,0,0,0,0,0,0,-1,965,1338,0,0
-252,-314,0,0,0,0,0,0,0,0,0,-1,972,1338,0,0
-245,-314,0,0,0,0,0,0,0,0,0,-1,979,1338,0,0
-238,-314,0,0,0,0,0,0,0,0,0,-1,986,1338,0,0
-231,-314,0,0,0,0,0,0,0,0,0,-1,993,1338,0,0
-224,-314,0,0,0,0,0,0,0,0,0,-1,1000,1338,0,0
-217,-314,0,0,0,0,0,0,0,0,0,-1,1007,1338,0,0
-210,-314,0,0,0,0,0,0,0,0,0,-1,1014,1338,0,0
-203,-314,0,0,0,0,0,0,0,0,0,-1,1021,1338,0,0
-196,-314,0,0,0,0,0,0,0,0,0,-1,1028,1338,0,0
-189,-314,0,0,0,0,0,0,0,0,0,-1,1035,1338,0,0
-182,-314,0,0,0,0,0,0,0,0,0,-1,1042,1338,0,0
-175,-314,0,0,0,0,0,0,0,0,0,-1,1049,1338,0,0
-168,-314,0,0,0,0,0,0,0,0,0,-1,1056,1338,0,0
-161,-314,0,0,0,0,0,0,0,0,0,-1,1063,1338,0,0
-154,-314,0,0,0,0,0,0,0,0,0,-1,1070,1338,0,0
-147,-314,0,0,0,0,0,0,0,0,0,-1,1077,1338,0,0
-140,-314,0,0,0,0,0,0,0,0,0,-1,1084,1338,0,0
-133,-314,0,0,0,0,0,0,0,0,0,-1,1091,1338,0,0
-126,-314,0,0,0,0,0,0,0,0,0,-1,1098,1338,0,0
-119,-314,0,0,0,0,0,0,0,0,0,-1,1105,1338,0,0
-112,-314,0,0,0,0,0,0,0,0,0,-1,1112,1338,0,0
-105,-314,0,0,0,0,0,0,0,0,0,-1,1119,1338,0,0
-98,-314,0,0,0,0,0,0,0,0,0,-1,1126,1338,0,0
-91,-314,0,0,0,0,0,0,0,0,0,-1,1133,1338,0,0
-84,-314,0,0,0,0,0,0,0,0,0,-1,1140,1338,0,0
-77,-314,0,0,0,0,0,0,0,0,0,-1,1147,1338,0,0
-70,-314,0,0,0,0,0,0,0,0,0,-1,1154,1338,0,0
-63,-314,0,0,0,0,0,0,0,0,0,-1,1161,1338,0,0
-56,-314,0,0,0,0,0,0,0,0,0,-1,1168,1338,0,0
-49,-314,0,0,0,0,0,0,0,0,0,-1,1175,1338,0,0
-42,-314,0,0,0,0,0,0,0,0,0,-1,1182,1338,0,0
-35,-314,0,0,0,0,0,0,0,0,0,-1,1189,1338,0,0
-28,-314,0,0,0,0,0,0,0,0,0,-1,1196,1338,0,0
-21,-314,0,0,0,0,0,0,0,0,0,-1,1203,1338,0,0
-14,-314,0,0,0,0,0,0,0,0,0,-1,1210,1338,0,0
-7,-314,0,0,0,0,0,0,0,0,0,-1,1217,1338,0,0
0,-314,0,0,0,0,0,0,0,0,0,-1,1224,1338,0,0
7,-314,0,0,0,0,0,0,0,0,0,-1,1231,1338,0,0
14,-314,0,0,0,0,0,0,0,0,0,-1,1238,1338,0,0
21,-314,0,0,0,0,0,0,0,0,0,-1,1245,1338,0,0
28,-314,0,0,0,0,0,0,0,0,0,-1,1252,1338,0,0
35,-314,0,0,0,0,0,0,0,0,0,-1,1259,1338,0,0
42,-314,0,0,0,0,0,0,0,0,0,-1,1266,1338,0,0
49,-314,0,0,0,0,0,0,0,0,0,-1,1273,1338,0,0
56,-314,0,0,0,0,0,0,0,0,0,-1,1280,1338,0,0
63,-314,0,0,0,0,0,0,0,0,0,-1,1287,1338,0,0
70,-314,0,0,0,0,0,0,0,0,0,-1,1294,1338,0,0
77,-314,0,0,0,0,0,0,0,0,0,-1,1301,1338,0,0
84,-314,0,0,0,0,0,0,0,0,0,-1,1308,1338,0,0
91,-314,0,0,0,0,0,0,0,0,0,-1,1315,1338,0,0
98,-314,0,0,0,0,0,0,0,0,0,-1,1322,1338,0,0
105,-314,0,0,0,0,0,0,0,0,0,-1,1329,1338,0,0
112,-314,0,0,0,0,0,0,0,0,0,-1,1336,1338,0,0
119,-314,0,0,0,0,0,0,0,0,0,-1,1343,1338,0,0
126,-314,0,0,0,0,0,0,0,0,0,-1,1350,1338,0,0
133,-314,0,0,0,0,0,0,0,0,0,-1,1357,1338,0,0
140,-314,0,0,0,0,0,0,0,0,0,-1,1364,1338,0,0
147,-314,0,0,0,0,0,0,0,0,0,-1,1371,1338,0,0
154,-314,0,0,0,0,0,0,0,0,0,-1,1378,1338,0,0
161,-314,0,0,0,0,0,0,0,0,0,-1,1385,1338,0,0
168,-314,0,0,0,0,0,0,0,0,0,-1,1392,1338,0,0
175,-314,0,0,0,0,0,0,0,0,0,-1,1399,1338,0,0
182,-314,0,0,0,0,0,0,0,0,0,-1,1406,1338,0,0
189,-314,0,0,0,0,0,0,0,0,0,-1,1413,1338,0,0
196,-314,0,0,0,0,0,0,0,0,0,-1,1420,1338,0,0
203,-314,0,0,0,0,0,0,0,0,0,-1,1427,1338,0,0
210,-314,0,0,0,0,0,0,0,0,0,-1,1434,1338,0,0
217,-314,0,0,0,0,0,0,0,0,0,-1,1441,1338,0,0
224,-314,0,0,0,0,0,0,0,0,0,-1,1448,1338,0,0
231,-314,0,0,0,0,0,0,0,0,0,-1,1455,1338,0,0
238,-314,0,0,0,0,0,0,0,0,0,-1,1462,1338,0,0
245,-314,0,0,0,0,0,0,0,0,0,-1,1469,1338,0,0
252,-314,0,0,0,0,0,0,0,0,0,-1,1476,1338,0,0
259,-314,0,0,0,0,0,0,0,0,0,-1,1483,1338,0,0
266,-314,0,0,0,0,0,0,0,0,0,-1,1490,1338,0,0
273,-314,0,0,0,0,0,0,0,0,0,-1,1497,1338,0,0
280,-314,0,0,0,0,0,0,0,0,0,-1,1504,1338,0,0
287,-314,0,0,0,0,0,0,0,0,0,-1,1511,1338,0,0
294,-314,0,0,0,0,0,0,0,0,0,-1,1518,1338,0,0
301,-314,0,0,0,0,0,0,0,0,0,-1,1525,1338,0,0
308,-314,0,0,0,0,0,0,0,0,0,-1,1532,1338,0,0
315,-314,0,0,0,0,0,0,0,0,0,-1,1539,1338,0,0
322,-314,0,0,0,0,0,0,0,0,0,-1,1546,1338,0,0
329,-314,0,0,0,0,0,0,0,0,0,-1,1553,1338,0,0
336,-314,0,0,0,0,0,0,0,0,0,-1,1560,1338,0,0
343,-314,0,0,0,0,0,0,0,0,0,-1,1567,1338,0,0
350,-314,0,0,0,0,0,0,0,0,0,-1,1574,1338,0,0
357,-314,0,0,0,0,0,0,0,0,0,-1,1581,1338,0,0
364,-314,0,0,0,0,0,0,0,0,0,-1,1588,1338,0,0
371,-314,0,0,0,0,0,0,0,0,0,-1,1595,1338,0,0
378,-314,0,0,0,0,0,0,0,0,0,-1,1602,1338,0,0
385,-314,0,0,0,0,0,0,0,0,0,-1,1609,1338,0,0
392,-314,0,0,0,0,0,0,0,0,0,-1,1616,1338,0,0
399,-314,0,0,0,0,0,0,0,0,0,-1,1623,1338,0,0
406,-314,0,0,0,0,0,0,0,0,0,-1,1630,1338,0,0
413,-314,0,0,0,0,0,0,0,0,0,-1,1637,1338,0,0
420,-314,0,0,0,0,0,0,0,0,0,-1,1644,1338,0,0
427,-314,0,0,0,0,0,0,0,0,0,-1,1651,1338,0,0
434,-314,0,0,0,0,0,0,0,0,0,-1,1658,1338,0,0
441,-314,0,0,0,0,0,0,0,0,0,-1,1665,1338,0,0
448,-314,0,0,0,0,0,0,0,0,0,-1,1672,1338,0,0
455,-314,0,0,0,0,0,0,0,0,0,-1,1679,1338,0,0
462,-314,0,0,0,0,0,0,0,0,0,-1,1686,1338,0,0
469,-314,0,0,0,0,0,0,0,0,0,-1,1693,1338,0,0
476,-314,0,0,0,0,0,0,0,0,0,-1,1700,1338,0,0
483,-314,0,0,0,0,0,0,0,0,0,-1,1707,1338,0,0
490,-314,0,0,0,0,0,0,0,0,0,-1,1714,1338,0,0
497,-314,0,0,0,0,0,0,0,0,0,-1,1721,1338,0,0
504,-314,0,0,0,0,0,0,0,0,0,-1,1728,1338,0,0
511,-314,0,0,0,0,0,0,0,0,0,-1,1735,1338,0,0
518,-314,0,0,0,0,0,0,0,0,0,-1,1742,1338,0,0
525,-314,0,0,0,0,0,0,0,0,0,-1,1749,1338,0,0
532,-314,0,0,0,0,0,0,0,0,0,-1,1756,1338,0,0
539,-314,0,0,0,0,0,0,0,0,0,-1,1763,1338,0,0
546,-314,0,0,0,0,0,0,0,0,0,-1,1770,1338,0,0
553,-314,0,0,0,0,0,0,0,0,0,-1,1777,1338,0,0
560,-314,0,0,0,0,0,0,0,0,0,-1,1784,1338,0,0
567,-314,0,0,0,0,0,0,0,0,0,-1,1791,1338,0,0
574,-314,0,0,0,0,0,0,0,0,0,-1,1798,1338,0,0
581,-314,4.67676,0.109863,0,0,0,0,0,0,0,-1,1805,1338,4.67674,-0.109878
588,-314,4.5094,0.612305,0,0,0,0,0,0,0,-1,1812,1338,4.5094,-0.612267
595,-314,-0.526855,-2.06506,0,0,0,0,0,0,0,-1,1819,1338,-0.526831,2.06511
602,-314,-0.700439,-1.74878,-0.00533703,0.0378145,-0.00896505,0.0396029,-0.00712547,-1.37389,0.0290697,0.0459771,1826,1338,-0.700476,1.74875
609,-314,-0.854126,-1.44617,-0.00300786,0.0305753,-0.00387896,0.0310175,-0.00345007,-1.45728,0.0219191,0.0420434,1833,1338,-0.854133,1.44617
616,-314,1.73535,0.710449,-0.0009031,0.0238756,-0.000969616,0.0239135,-0.000940984,-1.53174,0.0162651,0.0433974,1840,1338,1.73534,-0.710402
623,-314,-0.984253,-0.701294,0.000712354,0.0178496,8.35813e-05,0.01785,0.000711946,1.56592,0.0116699,0.0423765,1847,1338,-0.98422,0.701246
630,-314,-0.795776,-0.633179,0.00199011,0.0127899,0.00024946,0.0127956,0.00198435,1.54771,0.00795194,0.0442805,1854,1338,-0.79582,0.633181
637,-314,-0.0534668,-0.431396,0,0,0,0,0,0,0,-1,1861,1338,-0.0534785,0.43145
644,-314,-0.18811,-0.689575,0.0033005,0.00605712,0.000268985,0.00608312,0.00327449,1.47443,0.00351552,0.0427871,1868,1338,-0.188075,0.689564
651,-314,-0.132202,-0.299683,0.00358625,0.00339158,-0.000325724,0.00382887,0.00314896,-0.640208,0.00235883,0.038035,1875,1338,-0.132254,0.299674
658,-314,-0.0656738,0.0437012,0.00403391,0.00111468,-0.000487174,0.00411306,0.00103552,-0.161071,0.00247031,0.0212689,1882,1338,-0.0657326,-0.043681
665,-314,-0.0372314,0.052124,0.0035774,2.05488e-05,-0.000686455,0.00370529,-0.000107336,-0.184186,0.00250673,0.0106123,1889,1338,-0.0372322,-0.0520661
672,-314,-0.0157471,0.0611572,0.00338921,-0.000677859,-0.000701475,0.0035068,-0.000795448,-0.166086,0.00264322,0.0109053,1896,1338,-0.0157958,-0.0611586
679,-314,-0.0147705,0.0592041,0.00311499,-0.00110415,-6.35697e-05,0.00311595,-0.00110511,-0.0150624,0.00252753,0.00947615,1903,1338,-0.0147835,-0.059216
686,-314,-0.0220947,0.0469971,0.00176455,-0.000832345,0.000232106,0.00178514,-0.000852927,0.0884438,0.00155446,0.0111545,1910,1338,-0.0220433,-0.0470129
693,-314,-0.0373535,0.0401611,0.000518801,-0.000563928,0.000529329,0.000734579,-0.000779706,0.387079,0.000874402,0.0106628,1917,1338,-0.037294,-0.0401899
700,-314,-0.0385742,0.0386963,-0.000435769,-0.000137128,0.000715848,0.000444807,-0.0010177,0.88822,0.000865706,0.0112239,1924,1338,-0.0385227,-0.038744
707,-314,-0.0494385,0.0367432,-0.000945286,0.000300854,0.00093545,0.000801743,-0.00144617,1.07919,0.00131549,0.0115632,1931,1338,-0.0493908,-0.036704
714,-314,-0.0489502,0.0291748,-0.00102464,0.00118993,0.00116125,0.00168719,-0.0015219,1.16621,0.00185359,0.0103026,1938,1338,-0.0489285,-0.0291905
721,-314,-0.0501709,0.0319824,-0.00108057,0.00280484,0.0017398,0.00347001,-0.00174573,1.20562,0.00306567,0.0133823,1945,1338,-0.050162,-0.031925
728,-314,-0.0216064,0.0834961,-0.000696371,0.00483656,0.00237619,0.00571696,-0.00157677,1.21597,0.00443141,0.0215667,1952,1338,-0.0216289,-0.0835342
735,-314,-0.00512695,0.0919189,1.77532e-05,0.00777531,0.00336198,0.00902955,-0.00123648,1.21372,0.00647135,0.035072,1959,1338,-0.00511501,-0.0918606
742,-314,-0.209595,0.0627441,0.00122691,0.0122289,0.00471185,0.013971,-0.000515192,1.21666,0.00949038,0.0407912,1966,1338,-0.209618,-0.0627322
749,-314,-0.270752,0.0489502,0.00305874,0.0188534,0.00656076,0.0212231,0.000689059,1.22419,0.0139247,0.0433571,1973,1338,-0.270774,-0.0489387
756,-314,-0.319946,0.0662842,0,0,0,0,0,0,0,-1,1980,1338,-0.319984,-0.0662646
763,-314,-0.0723877,-0.740967,0,0,0,0,0,0,0,-1,1987,1338,-0.0723889,0.740972
770,-314,0,0,0,0,0,0,0,0,0,-1,1994,1338,0,0
777,-314,0,0,0,0,0,0,0,0,0,-1,2001,1338,0,0
784,-314,0,0,0,0,0,0,0,0,0,-1,2008,1338,0,0
791,-314,0,0,0,0,0,0,0,0,0,-1,2015,1338,0,0
798,-314,0,0,0,0,0,0,0,0,0,-1,2022,1338,0,0
805,-314,0,0,0,0,0,0,0,0,0,-1,2029,1338,0,0
812,-314,0,0,0,0,0,0,0,0,0,-1,2036,1338,0,0
-700,-321,0,0,0,0,0,0,0,0,0,-1,524,1345,0,0
-693,-321,0,0,0,0,0,0,0,0,0,-1,531,1345,0,0
-686,-321,0,0,0,0,0,0,0,0,0,-1,538,1345,0,0
-679,-321,0,0,0,0,0,0,0,0,0,-1,545,1345,0,0
-672,-321,0,0,0,0,0,0,0,0,0,-1,552,1345,0,0
-665,-321,0,0,0,0,0,0,0,0,0,-1,559,1345,0,0
-658,-321,0,0,0,0,0,0,0,0,0,-1,566,1345,0,0
-651,-321,0,0,0,0,0,0,0,0,0,-1,573,1345,0,0
-644,-321,3.69196,2.34192,0,0,0,0,0,0,0,-1,580,1345,3.69194,-2.34192
-637,-321,3.01398,2.34399,-0.0465621,0.0459173,0.00267869,0.0459948,-0.0466396,1.54186,0.0534829,0.0484616,587,1345,3.01398,-2.34393
-630,-321,2.33752,2.32153,-0.0389358,0.0388553,0.00423662,0.0390853,-0.0391659,1.51655,0.0451784,0.0462008,594,1345,2.3375,-2.32151
-623,-321,1.61462,2.43433,-0.031502,0.0316493,0.00502179,0.0320461,-0.0318988,1.49194,0.0369187,0.0473055,601,1345,1.61465,-2.43438
-616,-321,0.71521,-0.663696,0,0,0,0,0,0,0,-1,608,1345,0.715211,0.66365
-609,-321,0.475464,-0.64209,0,0,0,0,0,0,0,-1,615,1345,0.475446,0.642123
-602,-321,0.190063,-0.305542,-0.0133153,0.0133545,0.00448207,0.0140876,-0.0140484,1.40867,0.0162443,0.0418718,622,1345,0.190037,0.305506
-595,-321,-0.00140381,-0.00463867,-0.009112,0.00905747,0.00384518,0.00983771,-0.00989224,1.3706,0.0113911,0.0334997,629,1345,-0.00139117,0.00468573
-588,-321,-0.0109253,0.0406494,-0.00585132,0.00585224,0.00305044,0.00659959,-0.00659867,1.33053,0.00762002,0.0123353,636,1345,-0.0109154,-0.0406401
-581,-321,-0.0159912,0.0349121,-0.00311782,0.00303913,0.00212358,0.00370052,-0.00377921,1.26887,0.00431851,0.0113018,643,1345,-0.0159926,-0.0349146
-574,-321,-0.0449219,0.0257568,-0.00124585,0.00138611,0.00141211,0.00200037,-0.00186012,1.16049,0.00222934,0.0133996,650,1345,-0.0449131,-0.0257134
-567,-321,-0.0303955,0.0576172,-0.000281287,0.000463817,0.001099,0.00125169,-0.00106916,0.948815,0.00134133,0.0184255,657,1345,-0.030425,-0.0575811
-560,-321,-0.0402832,0.10083,-0.000567534,0.00102116,0.0011173,0.00159771,-0.00114408,1.09442,0.00159018,0.0230771,664,1345,-0.040291,-0.100831
-553,-321,-0.0343628,0.0592041,-0.000386544,0.00137843,0.00101575,0.0018415,-0.000849617,1.14305,0.00158851,0.0253092,671,1345,-0.0343813,-0.0592535
-546,-321,-0.0220337,0.0303955,-0.0010255,0.00261289,0.000906054,0.00282604,-0.00123864,1.33975,0.00240566,0.0244271,678,1345,-0.0220104,-0.0303778
-539,-321,-0.0719604,0.00683594,-0.00265237,0.00496105,0.00120661,0.0051477,-0.00283902,1.41732,0.00467491,0.0220373,685,1345,-0.0719329,-0.00688196
-532,-321,-0.0531006,0.0482178,-0.00429839,0.00716704,0.0015852,0.00738217,-0.00451352,1.43591,0.00693423,0.0140901,692,1345,-0.0531152,-0.0482725
-525,-321,-0.0336304,0.0720215,-0.00659271,0.00898018,0.0019169,0.00921266,-0.00682519,1.4501,0.0092936,0.0195548,699,1345,-0.0336354,-0.0720472
-518,-321,0.0744019,-0.0587158,-0.00962364,0.0112084,0.00193465,0.0113865,-0.00980179,1.47897,0.0122445,0.0350461,706,1345,0.0743737,0.0587661
-511,-321,0.0286255,0.029541,-0.012947,0.0137226,0.00167998,0.013828,-0.0130524,1.50813,0.0155216,0.0427046,713,1345,0.0285975,-0.0294957
-504,-321,-0.237671,0.518066,0,0,0,0,0,0,0,-1,720,1345,-0.237695,-0.518047
-497,-321,-1.01306,0.81311,-0.0209296,0.0184727,0.000567413,0.0184809,-0.0209377,1.5564,0.0227731,0.046623,727,1345,-1.01308,-0.813146
-490,-321,-1.32025,0.529419,-0.0255098,0.0203825,-0.000142455,0.0203829,-0.0255102,-1.56769,0.0265515,0.0441931,734,1345,-1.32023,-0.529388
-483,-321,1.26141,0.152344,0,0,0,0,0,0,0,-1,741,1345,1.2614,-0.152405
-476,-321,0.643738,-0.026123,-0.0351961,0.0222685,-0.00179059,0.0223243,-0.0352518,-1.53968,0.0335197,0.0473028,748,1345,0.643746,0.0260628
-469,-321,0.0512085,-0.105957,-0.0399576,0.0221032,-0.00260029,0.0222119,-0.0400664,-1.52899,0.0364456,0.0456171,755,1345,0.0511952,0.105966
-462,-321,-0.302002,0.187988,0,0,0,0,0,0,0,-1,762,1345,-0.30198,-0.187953
-455,-321,0,0,0,0,0,0,0,0,0,-1,769,1345,0,0
-448,-321,0,0,0,0,0,0,0,0,0,-1,776,1345,0,0
-441,-321,0,0,0,0,0,0,0,0,0,-1,783,1345,0,0
-434,-321,0,0,0,0,0,0,0,0,0,-1,790,1345,0,0
-427,-321,0,0,0,0,0,0,0,0,0,-1,797,1345,0,0
-420,-321,0,0,0,0,0,0,0,0,0,-1,804,1345,0,0
-413,-321,0,0,0,0,0,0,0,0,0,-1,811,1345,0,0
-406,-321,0,0,0,0,0,0,0,0,0,-1,818,1345,0,0
-399,-321,0,0,0,0,0,0,0,0,0,-1,825,1345,0,0
-392,-321,0,0,0,0,0,0,0,0,0,-1,832,1345,0,0
-385,-321,0,0,0,0,0,0,0,0,0,-1,839,1345,0,0
-378,-321,0,0,0,0,0,0,0,0,0,-1,846,1345,0,0
-371,-321,0,0,0,0,0,0,0,0,0,-1,853,1345,0,0
-364,-321,0,0,0,0,0,0,0,0,0,-1,860,1345,0,0
-357,-321,0,0,0,0,0,0,0,0,0,-1,867,1345,0,0
-350,-321,0,0,0,0,0,0,0,0,0,-1,874,1345,0,0
-343,-321,0,0,0,0,0,0,0,0,0,-1,881,1345,0,0
-336,-321,0,0,0,0,0,0,0,0,0,-1,888,1345,0,0
-329,-321,0,0,0,0,0,0,0,0,0,-1,895,1345,0,0
-322,-321,0,0,0,0,0,0,0,0,0,-1,902,1345,0,0
-315,-321,0,0,0,0,0,0,0,0,0,-1,909,1345,0,0
-308,-321,0,0,0,0,0,0,0,0,0,-1,916,1345,0,0
-301,-321,0,0,0,0,0,0,0,0,0,-1,923,1345,0,0
-294,-321,0,0,0,0,0,0,0,0,0,-1,930,1345,0,0
-287,-321,0,0,0,0,0,0,0,0,0,-1,937,1345,0,0
-280,-321,0,0,0,0,0,0,0,0,0,-1,944,1345,0,0
-273,-321,0,0,0,0,0,0,0,0,0,-1,951,1345,0,0
-266,-321,0,0,0,0,0,0,0,0,0,-1,958,1345,0,0
-259,-321,0,0,0,0,0,0,0,0,0,-1,965,1345,0,0
-252,-321,0,0,0,0,0,0,0,0,0,-1,972,1345,0,0
-245,-321,0,0,0,0,0,0,0,0,0,-1,979,1345,0,0
-238,-321,0,0,0,0,0,0,0,0,0,-1,986,1345,0,0
-231,-321,0,0,0,0,0,0,0,0,0,-1,993,1345,0,0
-224,-321,0,0,0,0,0,0,0,0,0,-1,1000,1345,0,0
-217,-321,0,0,0,0,0,0,0,0,0,-1,1007,1345,0,0
-210,-321,0,0,0,0,0,0,0,0,0,-1,1014,1345,0,0
-203,-321,0,0,0,0,0,0,0,0,0,-1,1021,1345,0,0
-196,-321,0,0,0,0,0,0,0,0,0,-1,1028,1345,0,0
-189,-321,0,0,0,0,0,0,0,0,0,-1,1035,1345,0,0
-182,-321,0,0,0,0,0,0,0,0,0,-1,1042,1345,0,0
-175,-321,0,0,0,0,0,0,0,0,0,-1,1049,1345,0,0
-168,-321,0,0,0,0,0,0,0,0,0,-1,1056,1345,0,0
-161,-321,0,0,0,0,0,0,0,0,0,-1,1063,1345,0,0
-154,-321,0,0,0,0,0,0,0,0,0,-1,1070,1345,0,0
-147,-321,0,0,0,0,0,0,0,0,0,-1,1077,1345,0,0
-140,-321,0,0,0,0,0,0,0,0,0,-1,1084,1345,0,0
-133,-321,0,0,0,0,0,0,0,0,0,-1,1091,1345,0,0
-126,-321,0,0,0,0,0,0,0,0,0,-1,1098,1345,0,0
-119,-321,0,0,0,0,0,0,0,0,0,-1,1105,1345,0,0
-112,-321,0,0,0,0,0,0,0,0,0,-1,1112,1345,0,0
-105,-321,0,0,0,0,0,0,0,0,0,-1,1119,1345,0,0
-98,-321,0,0,0,0,0,0,0,0,0,-1,1126,1345,0,0
-91,-321,0,0,0,0,0,0,0,0,0,-1,1133,1345,0,0
-84,-321,0,0,0,0,0,0,0,0,0,-1,1140,1345,0,0
-77,-321,0,0,0,0,0,0,0,0,0,-1,1147,1345,0,0
-70,-321,0,0,0,0,0,0,0,0,0,-1,1154,1345,0,0
-63,-321,0,0,0,0,0,0,0,0,0,-1,1161,1345,0,0
-56,-321,0,0,0,0,0,0,0,0,0,-1,1168,1345,0,0
-49,-321,0,0,0,0,0,0,0,0,0,-1,1175,1345,0,0
-42,-321,0,0,0,0,0,0,0,0,0,-1,1182,1345,0,0
-35,-321,0,0,0,0,0,0,0,0,0,-1,1189,1345,0,0
-28,-321,0,0,0,0,0,0,0,0,0,-1,1196,1345,0,0
-21,-321,0,0,0,0,0,0,0,0,0,-1,1203,1345,0,0
-14,-321,0,0,0,0,0,0,0,0,0,-1,1210,1345,0,0
-7,-321,0,0,0,0,0,0,0,0,0,-1,1217,1345,0,0
0,-321,0,0,0,0,0,0,0,0,0,-1,1224,1345,0,0
7,-321,0,0,0,0,0,0,0,0,0,-1,1231,1345,0,0
14,-321,0,0,0,0,0,0,0,0,0,-1,1238,1345,0,0
21,-321,0,0,0,0,0,0,0,0,0,-1,1245,1345,0,0
28,-321,0,0,0,0,0,0,0,0,0,-1,1252,1345,0,0
35,-321,0,0,0,0,0,0,0,0,0,-1,1259,1345,0,0
42,-321,0,0,0,0,0,0,0,0,0,-1,1266,1345,0,0
49,-321,0,0,0,0,0,0,0,0,0,-1,1273,1345,0,0
56,-321,0,0,0,0,0,0,0,0,0,-1,1280,1345,0,0
63,-321,0,0,0,0,0,0,0,0,0,-1,1287,1345,0,0
70,-321,0,0,0,0,0,0,0,0,0,-1,1294,1345,0,0
77,-321,0,0,0,0,0,0,0,0,0,-1,1301,1345,0,0
84,-321,0,0,0,0,0,0,0,0,0,-1,1308,1345,0,0
91,-321,0,0,0,0,0,0,0,0,0,-1,1315,1345,0,0
98,-321,0,0,0,0,0,0,0,0,0,-1,1322,1345,0,0
105,-321,0,0,0,0,0,0,0,0,0,-1,1329,1345,0,0
112,-321,0,0,0,0,0,0,0,0,0,-1,1336,1345,0,0
119,-321,0,0,0,0,0,0,0,0,0,-1,1343,1345,0,0
126,-321,0,0,0,0,0,0,0,0,0,-1,1350,1345,0,0
133,-321,0,0,0,0,0,0,0,0,0,-1,1357,1345,0,0
140,-321,0,0,0,0,0,0,0,0,0,-1,1364,1345,0,0
147,-321,0,0,0,0,0,0,0,0,0,-1,1371,1345,0,0
154,-321,0,0,0,0,0,0,0,0,0,-1,1378,1345,0,0
161,-321,0,0,0,0,0,0,0,0,0,-1,1385,1345,0,0
168,-321,0,0,0,0,0,0,0,0,0,-1,1392,1345,0,0
175,-321,0,0,0,0,0,0,0,0,0,-1,1399,1345,0,0
182,-321,0,0,0,0,0,0,0,0,0,-1,1406,1345,0,0
189,-321,0,0,0,0,0,0,0,0,0,-1,1413,1345,0,0
196,-321,0,0,0,0,0,0,0,0,0,-1,1420,1345,0,0
203,-321,0,0,0,0,0,0,0,0,0,-1,1427,1345,0,0
210,-321,0,0,0,0,0,0,0,0,0,-1,1434,1345,0,0
217,-321,0,0,0,0,0,0,0,0,0,-1,1441,1345,0,0
224,-321,0,0,0,0,0,0,0,0,0,-1,1448,1345,0,0
231,-321,0,0,0,0,0,0,0,0,0,-1,1455,1345,0,0
238,-321,0,0,0,0,0,0,0,0,0,-1,1462,1345,0,0
245,-321,0,0,0,0,0,0,0,0,0,-1,1469,1345,0,0
252,-321,0,0,0,0,0,0,0,0,0,-1,1476,1345,0,0
259,-321,0,0,0,0,0,0,0,0,0,-1,1483,1345,0,0
266,-321,0,0,0,0,0,0,0,0,0,-1,1490,1345,0,0
273,-321,0,0,0,0,0,0,0,0,0,-1,1497,1345,0,0
280,-321,0,0,0,0,0,0,0,0,0,-1,1504,1345,0,0
287,-321,0,0,0,0,0,0,0,0,0,-1,1511,1345,0,0
294,-321,0,0,0,0,0,0,0,0,0,-1,1518,1345,0,0
301,-321,0,0,0,0,0,0,0,0,0,-1,1525,1345,0,0
308,-321,0,0,0,0,0,0,0,0,0,-1,1532,1345,0,0
315,-321,0,0,0,0,0,0,0,0,0,-1,1539,1345,0,0
322,-321,0,0,0,0,0,0,0,0,0,-1,1546,1345,0,0
329,-321,0,0,0,0,0,0,0,0,0,-1,1553,1345,0,0
336,-321,0,0,0,0,0,0,0,0,0,-1,1560,1345,0,0
343,-321,0,0,0,0,0,0,0,0,0,-1,1567,1345,0,0
350,-321,0,0,0,0,0,0,0,0,0,-1,1574,1345,0,0
357,-321,0,0,0,0,0,0,0,0,0,-1,1581,1345,0,0
364,-321,0,0,0,0,0,0,0,0,0,-1,1588,1345,0,0
371,-321,0,0,0,0,0,0,0,0,0,-1,1595,1345,0,0
378,-321,0,0,0,0,0,0,0,0,0,-1,1602,1345,0,0
385,-321,0,0,0,0,0,0,0,0,0,-1,1609,1345,0,0
392,-321,0,0,0,0,0,0,0,0,0,-1,1616,1345,0,0
399,-321,0,0,0,0,0,0,0,0,0,-1,1623,1345,0,0
406,-321,0,0,0,0,0,0,0,0,0,-1,1630,1345,0,0
413,-321,0,0,0,0,0,0,0,0,0,-1,1637,1345,0,0
420,-321,0,0,0,0,0,0,0,0,0,-1,1644,1345,0,0
427,-321,0,0,0,0,0,0,0,0,0,-1,1651,1345,0,0
434,-321,0,0,0,0,0,0,0,0,0,-1,1658,1345,0,0
441,-321,0,0,0,0,0,0,0,0,0,-1,1665,1345,0,0
448,-321,0,0,0,0,0,0,0,0,0,-1,1672,1345,0,0
455,-321,0,0,0,0,0,0,0,0,0,-1,1679,1345,0,0
462,-321,0,0,0,0,0,0,0,0,0,-1,1686,1345,0,0
469,-321,0,0,0,0,0,0,0,0,0,-1,1693,1345,0,0
476,-321,0,0,0,0,0,0,0,0,0,-1,1700,1345,0,0
483,-321,0,0,0,0,0,0,0,0,0,-1,1707,1345,0,0
490,-321,0,0,0,0,0,0,0,0,0,-1,1714,1345,0,0
497,-321,0,0,0,0,0,0,0,0,0,-1,1721,1345,0,0
504,-321,0,0,0,0,0,0,0,0,0,-1,1728,1345,0,0
511,-321,0,0,0,0,0,0,0,0,0,-1,1735,1345,0,0
518,-321,0,0,0,0,0,0,0,0,0,-1,1742,1345,0,0
525,-321,0,0,0,0,0,0,0,0,0,-1,1749,1345,0,0
532,-321,0,0,0,0,0,0,0,0,0,-1,1756,1345,0,0
539,-321,0,0,0,0,0,0,0,0,0,-1,1763,1345,0,0
546,-321,0,0,0,0,0,0,0,0,0,-1,1770,1345,0,0
553,-321,0,0,0,0,0,0,0,0,0,-1,1777,1345,0,0
560,-321,0,0,0,0,0,0,0,0,0,-1,1784,1345,0,0
567,-321,0,0,0,0,0,0,0,0,0,-1,1791,1345,0,0
574,-321,0,0,0,0,0,0,0,0,0,-1,1798,1345,0,0
581,-321,4.1864,0.219482,0,0,0,0,0,0,0,-1,1805,1345,4.18643,-0.219433
588,-321,4.09741,1.04944,0,0,0,0,0,0,0,-1,1812,1345,4.09742,-1.0495
595,-321,-0.36499,-1.91858,0,0,0,0,0,0,0,-1,1819,1345,-0.365017,1.9186
602,-321,-0.352539,-1.80945,-0.00424349,0.0367795,-0.00798783,0.03828,-0.00574397,-1.38511,0.0276343,0.0427781,1826,1345,-0.352507,1.80943
609,-321,-0.379883,-1.33948,-0.00181157,0.0291171,-0.0027105,0.0293529,-0.00204731,-1.48404,0.0202855,0.0432647,1833,1345,-0.379904,1.33951
616,-321,-0.308472,-0.911865,0.000180552,0.0220248,0.000449625,0.0220341,0.000171301,1.55022,0.0146326,0.0447403,1840,1345,-0.308477,0.911819
623,-321,-0.54895,-0.593018,0.00138385,0.0160765,0.00177933,0.016289,0.00117144,1.45198,0.0104906,0.0428423,1847,1345,-0.548976,0.592976
630,-321,-0.708618,-0.412476,0.00210604,0.011037,0.0020176,0.0114717,0.00167139,1.35861,0.007156,0.0453575,1854,1345,-0.708564,0.412528
637,-321,0.00256348,-0.0657959,0,0,0,0,0,0,0,-1,1861,1345,0.00254662,0.0657648
644,-321,-0.287964,-0.673584,0.00260406,0.00468809,0.00185299,0.00577196,0.00152019,1.04153,0.0034546,0.0448703,1868,1345,-0.287996,0.673581
651,-321,0.0142822,-0.0206299,0.00263556,0.0020852,0.000793022,0.00319979,0.00152097,0.618398,0.00184815,0.0355104,1875,1345,0.0142478,0.0205716
658,-321,-0.0222168,0.0325928,0.00295423,3.21874e-05,0.000335361,0.00299223,-5.80773e-06,0.112815,0.00199676,0.0157875,1882,1345,-0.0221626,-0.0325321
665,-321,-0.0360107,0.0357666,0.00252913,-0.000819916,-0.000110939,0.0025328,-0.000823587,-0.0330772,0.00201983,0.0130323,1889,1345,-0.0359723,-0.0357454
672,-321,-0.0262451,0.0534668,0.00240608,-0.00132917,-0.000353941,0.00243932,-0.00136242,-0.0936462,0.0022241,0.0115024,1896,1345,-0.0263052,-0.0535191
679,-321,-0.0187988,0.0535889,0.00223454,-0.0014388,0.000139809,0.00223986,-0.00144411,0.0379872,0.00214342,0.0100415,1903,1345,-0.0187521,-0.0535727
686,-321,-0.0292969,0.0439453,0.00110042,-0.00106308,0.000360015,0.00115876,-0.00112142,0.160638,0.00131652,0.0105558,1910,1345,-0.0293025,-0.043966
693,-321,-0.0429688,0.0480957,9.6761e-05,-0.000775366,0.000590773,0.000394975,-0.00107358,0.467469,0.000877526,0.0112463,1917,1345,-0.0429552,-0.0481466
700,-321,-0.0389404,0.0447998,-0.000673174,-0.000401982,0.000745231,0.000219888,-0.00129504,0.87539,0.000945223,0.0115542,1924,1345,-0.0389081,-0.0448062
707,-321,-0.03125,0.036377,-0.00104312,-3.7311e-05,0.000986878,0.000567415,-0.00164784,1.02104,0.00132872,0.0127042,1931,1345,-0.0312462,-0.0364354
714,-321,-0.0427246,0.0197754,-0.00107979,0.000717982,0.00132668,0.00142161,-0.00178342,1.08315,0.00185436,0.0113713,1938,1345,-0.042666,-0.0197462
721,-321,-0.0500488,0.0550537,-0.00110436,0.00206631,0.00202212,0.00305046,-0.00208851,1.11785,0.00298427,0.0141296,1945,1345,-0.0500206,-0.0550561
728,-321,0.0057373,0.11853,-0.000725792,0.00364337,0.00292275,0.00510774,-0.00219016,1.10633,0.00432423,0.0242558,1952,1345,0.00570808,-0.118578
735,-321,-0.199341,-0.0699463,5.03876e-05,0.00617089,0.00419102,0.00830003,-0.00207875,1.10075,0.00634089,0.0398297,1959,1345,-0.199366,0.0698949
742,-321,-0.390747,-0.0228271,0.00135589,0.0101282,0.00594803,0.0131324,-0.0016483,1.1031,0.00935292,0.0431983,1966,1345,-0.390688,0.0227928
749,-321,-0.39209,0.182129,0.00331087,0.016187,0.00837992,0.0203164,-0.000818554,1.11294,0.0138252,0.0453263,1973,1345,-0.392137,-0.182146
756,-321,-0.423462,0.331177,0,0,0,0,0,0,0,-1,1980,1345,-0.423444,-0.331214
763,-321,-0.458984,0.553589,0,0,0,0,0,0,0,-1,1987,1345,-0.458977,-0.553604
770,-321,0,0,0,0,0,0,0,0,0,-1,1994,1345,0,0
777,-321,0,0,0,0,0,0,0,0,0,-1,2001,1345,0,0
784,-321,0,0,0,0,0,0,0,0,0,-1,2008,1345,0,0
791,-321,0,0,0,0,0,0,0,0,0,-1,2015,1345,0,0
798,-321,0,0,0,0,0,0,0,0,0,-1,2022,1345,0,0
805,-321,0,0,0,0,0,0,0,0,0,-1,2029,1345,0,0
812,-321,0,0,0,0,0,0,0,0,0,-1,2036,1345,0,0
-700,-328,0,0,0,0,0,0,0,0,0,-1,524,1352,0,0
-693,-328,0,0,0,0,0,0,0,0,0,-1,531,1352,0,0
-686,-328,0,0,0,0,0,0,0,0,0,-1,538,1352,0,0
-679,-328,0,0,0,0,0,0,0,0,0,-1,545,1352,0,0
-672,-328,0,0,0,0,0,0,0,0,0,-1,552,1352,0,0
-665,-328,0,0,0,0,0,0,0,0,0,-1,559,1352,0,0
-658,-328,0,0,0,0,0,0,0,0,0,-1,566,1352,0,0
-651,-328,0,0,0,0,0,0,0,0,0,-1,573,1352,0,0
-644,-328,0,0,0,0,0,0,0,0,0,-1,580,1352,0,0
-637,-328,2.19464,1.64636,-0.0489632,0.05397,0.00443354,0.0541606,-0.0491538,1.52783,0.059672,0.046288,587,1352,2.19463,-1.64635
-630,-328,2.1178,1.94189,-0.0407166,0.0452586,0.00590181,0.0456619,-0.0411198,1.50258,0.0501263,0.0495094,594,1352,2.11779,-1.94188
-623,-328,1.51837,1.8313,-0.0326149,0.0364292,0.00639712,0.0370169,-0.0332026,1.47918,0.0405612,0.0488568,601,1352,1.5184,-1.83125
-616,-328,0.965515,1.78455,0,0,0,0,0,0,0,-1,608,1352,0.965521,-1.78454
-609,-328,0.242004,1.24817,0,0,0,0,0,0,0,-1,615,1352,0.241988,-1.24815
-602,-328,-0.185181,0.0501709,-0.0130414,0.0146068,0.00489392,0.0154475,-0.0138821,1.40067,0.0169415,0.0435804,622,1352,-0.18518,-0.0501628
-595,-328,-0.159302,0.249023,-0.00869308,0.00960311,0.00395183,0.0104202,-0.00951015,1.36691,0.0115108,0.038637,629,1352,-0.159281,-0.248977
-588,-328,-0.0337524,0.0863037,-0.00541373,0.00599084,0.00297644,0.00672091,-0.0061438,1.33026,0.00742994,0.0224951,636,1352,-0.0337274,-0.0863252
-581,-328,-0.0311279,0.0457764,-0.00276799,0.00306622,0.0019911,0.00368097,-0.00338273,1.27133,0.00407944,0.0116911,643,1352,-0.0311463,-0.0457494
-574,-328,-0.0128784,0.0498047,-0.000995048,0.00124173,0.00125717,0.00180598,-0.00155929,1.14892,0.00194468,0.0124728,650,1352,-0.0128725,-0.0498641
-567,-328,-0.0020752,0.0692139,-7.88856e-05,0.000257095,0.000923415,0.00102768,-0.000849467,0.875376,0.0010854,0.0168051,657,1352,-0.00208285,-0.0692413
-560,-328,-0.0318604,0.101318,-0.00038391,0.000727788,0.000933286,0.00125821,-0.000914335,1.05398,0.00125955,0.0240304,664,1352,-0.0318773,-0.101362
-553,-328,-0.0453491,0.106323,-0.000269159,0.00111544,0.000749715,0.0014436,-0.000597326,1.1582,0.00121163,0.0257434,671,1352,-0.0453673,-0.106277
-546,-328,-0.0716553,0.0510254,-0.000939443,0.0024375,0.000572782,0.002532,-0.00103395,1.40727,0.0021185,0.0241269,678,1352,-0.0716733,-0.0510061
-539,-328,-0.0905151,0.00463867,-0.00252653,0.00472624,0.000881619,0.00483187,-0.00263216,1.45155,0.00437129,0.0207141,685,1352,-0.0905377,-0.00465705
-532,-328,-0.0494995,0.0113525,-0.00401607,0.00685026,0.00124766,0.00699168,-0.00415748,1.45793,0.00650593,0.0141379,692,1352,-0.0494804,-0.0113061
-525,-328,-0.024231,0.0361328,-0.00602552,0.00860318,0.0015088,0.00875718,-0.00617952,1.46908,0.0086664,0.0093687,699,1352,-0.0242405,-0.0361008
-518,-328,-0.0286865,0.0257568,-0.00871723,0.0107701,0.00138661,0.0108683,-0.0088154,1.50012,0.011385,0.0221311,706,1352,-0.0286829,-0.0257025
-511,-328,-0.0827637,0.0646973,-0.0117029,0.013181,0.00100131,0.0132212,-0.0117431,1.53064,0.0144216,0.0354261,713,1352,-0.0827551,-0.0646691
-504,-328,-0.254761,0.493896,-0.0150482,0.015538,0.000520311,0.0155468,-0.015057,1.55379,0.0176699,0.0433668,720,1352,-0.254777,-0.49394
-497,-328,-0.310608,0.70105,-0.0187916,0.0174917,-0.000349274,0.017495,-0.018795,-1.56117,0.0209565,0.0474811,727,1352,-0.310597,-0.701062
-490,-328,-0.437256,0.855957,0,0,0,0,0,0,0,-1,734,1352,-0.437268,-0.855921
-483,-328,0.616394,-1.03271,0,0,0,0,0,0,0,-1,741,1352,0.616393,1.0327
-476,-328,0.594543,-0.0976563,0,0,0,0,0,0,0,-1,748,1352,0.594517,0.0977025
-469,-328,0.18573,-0.152954,-0.03592,0.019211,-0.00362518,0.0194484,-0.0361573,-1.50542,0.0325835,0.0475909,755,1352,0.185722,0.152919
-462,-328,-0.247375,-0.0900879,-0.0402273,0.0173019,-0.00407903,0.0175897,-0.0405151,-1.50036,0.0344062,0.0452991,762,1352,-0.247352,0.0901136
-455,-328,0,0,0,0,0,0,0,0,0,-1,769,1352,0,0
-448,-328,0,0,0,0,0,0,0,0,0,-1,776,1352,0,0
-441,-328,0,0,0,0,0,0,0,0,0,-1,783,1352,0,0
-434,-328,0,0,0,0,0,0,0,0,0,-1,790,1352,0,0
-427,-328,0,0,0,0,0,0,0,0,0,-1,797,1352,0,0
-420,-328,0,0,0,0,0,0,0,0,0,-1,804,1352,0,0
-413,-328,0,0,0,0,0,0,0,0,0,-1,811,1352,0,0
-406,-328,0,0,0,0,0,0,0,0,0,-1,818,1352,0,0
-399,-328,0,0,0,0,0,0,0,0,0,-1,825,1352,0,0
-392,-328,0,0,0,0,0,0,0,0,0,-1,832,1352,0,0
-385,-328,0,0,0,0,0,0,0,0,0,-1,839,1352,0,0
-378,-328,0,0,0,0,0,0,0,0,0,-1,846,1352,0,0
-371,-328,0,0,0,0,0,0,0,0,0,-1,853,1352,0,0
-364,-328,0,0,0,0,0,0,0,0,0,-1,860,1352,0,0
-357,-328,0,0,0,0,0,0,0,0,0,-1,867,1352,0,0
-350,-328,0,0,0,0,0,0,0,0,0,-1,874,1352,0,0
-343,-328,0,0,0,0,0,0,0,0,0,-1,881,1352,0,0
-336,-328,0,0,0,0,0,0,0,0,0,-1,888,1352,0,0
-329,-328,0,0,0,0,0,0,0,0,0,-1,895,1352,0,0
-322,-328,0,0,0,0,0,0,0,0,0,-1,902,1352,0,0
-315,-328,0,0,0,0,0,0,0,0,0,-1,909,1352,0,0
-308,-328,0,0,0,0,0,0,0,0,0,-1,916,1352,0,0
-301,-328,0,0,0,0,0,0,0,0,0,-1,923,1352,0,0
-294,-328,0,0,0,0,0,0,0,0,0,-1,930,1352,0,0
-287,-328,0,0,0,0,0,0,0,0,0,-1,937,1352,0,0
-280,-328,0,0,0,0,0,0,0,0,0,-1,944,1352,0,0
-273,-328,0,0,0,0,0,0,0,0,0,-1,951,1352,0,0
-266,-328,0,0,0,0,0,0,0,0,0,-1,958,1352,0,0
-259,-328,0,0,0,0,0,0,0,0,0,-1,965,1352,0,0
-252,-328,0,0,0,0,0,0,0,0,0,-1,972,1352,0,0
-245,-328,0,0,0,0,0,0,0,0,0,-1,979,1352,0,0
-238,-328,0,0,0,0,0,0,0,0,0,-1,986,1352,0,0
-231,-328,0,0,0,0,0,0,0,0,0,-1,993,1352,0,0
-224,-328,0,0,0,0,0,0,0,0,0,-1,1000,1352,0,0
-217,-328,0,0,0,0,0,0,0,0,0,-1,1007,1352,0,0
-210,-328,0,0,0,0,0,0,0,0,0,-1,1014,1352,0,0
-203,-328,0,0,0,0,0,0,0,0,0,-1,1021,1352,0,0
-196,-328,0,0,0,0,0,0,0,0,0,-1,1028,1352,0,0
-189,-328,0,0,0,0,0,0,0,0,0,-1,1035,1352,0,0
-182,-328,0,0,0,0,0,0,0,0,0,-1,1042,1352,0,0
-175,-328,0,0,0,0,0,0,0,0,0,-1,1049,1352,0,0
-168,-328,0,0,0,0,0,0,0,0,0,-1,1056,1352,0,0
-161,-328,0,0,0,0,0,0,0,0,0,-1,1063,1352,0,0
-154,-328,0,0,0,0,0,0,0,0,0,-1,1070,1352,0,0
-147,-328,0,0,0,0,0,0,0,0,0,-1,1077,1352,0,0
-140,-328,0,0,0,0,0,0,0,0,0,-1,1084,1352,0,0
-133,-328,0,0,0,0,0,0,0,0,0,-1,1091,1352,0,0
-126,-328,0,0,0,0,0,0,0,0,0,-1,1098,1352,0,0
-119,-328,0,0,0,0,0,0,0,0,0,-1,1105,1352,0,0
-112,-328,0,0,0,0,0,0,0,0,0,-1,1112,1352,0,0
-105,-328,0,0,0,0,0,0,0,0,0,-1,1119,1352,0,0
-98,-328,0,0,0,0,0,0,0,0,0,-1,1126,1352,0,0
-91,-328,0,0,0,0,0,0,0,0,0,-1,1133,1352,0,0
-84,-328,0,0,0,0,0,0,0,0,0,-1,1140,1352,0,0
-77,-328,0,0,0,0,0,0,0,0,0,-1,1147,1352,0,0
-70,-328,0,0,0,0,0,0,0,0,0,-1,1154,1352,0,0
-63,-328,0,0,0,0,0,0,0,0,0,-1,1161,1352,0,0
-56,-328,0,0,0,0,0,0,0,0,0,-1,1168,1352,0,0
-49,-328,0,0,0,0,0,0,0,0,0,-1,1175,1352,0,0
-42,-328,0,0,0,0,0,0,0,0,0,-1,1182,1352,0,0
-35,-328,0,0,0,0,0,0,0,0,0,-1,1189,1352,0,0
-28,-328,0,0,0,0,0,0,0,0,0,-1,1196,1352,0,0
-21,-328,0,0,0,0,0,0,0,0,0,-1,1203,1352,0,0
-14,-328,0,0,0,0,0,0,0,0,0,-1,1210,1352,0,0
-7,-328,0,0,0,0,0,0,0,0,0,-1,1217,1352,0,0
0,-328,0,0,0,0,0,0,0,0,0,-1,1224,1352,0,0
7,-328,0,0,0,0,0,0,0,0,0,-1,1231,1352,0,0
14,-328,0,0,0,0,0,0,0,0,0,-1,1238,1352,0,0
21,-328,0,0,0,0,0,0,0,0,0,-1,1245,1352,0,0
28,-328,0,0,0,0,0,0,0,0,0,-1,1252,1352,0,0
35,-328,0,0,0,0,0,0,0,0,0,-1,1259,1352,0,0
42,-328,0,0,0,0,0,0,0,0,0,-1,1266,1352,0,0
49,-328,0,0,0,0,0,0,0,0,0,-1,1273,1352,0,0
56,-328,0,0,0,0,0,0,0,0,0,-1,1280,1352,0,0
63,-328,0,0,0,0,0,0,0,0,0,-1,1287,1352,0,0
70,-328,0,0,0,0,0,0,0,0,0,-1,1294,1352,0,0
77,-328,0,0,0,0,0,0,0,0,0,-1,1301,1352,0,0
84,-328,0,0,0,0,0,0,0,0,0,-1,1308,1352,0,0
91,-328,0,0,0,0,0,0,0,0,0,-1,1315,1352,0,0
98,-328,0,0,0,0,0,0,0,0,0,-1,1322,1352,0,0
105,-328,0,0,0,0,0,0,0,0,0,-1,1329,1352,0,0
112,-328,0,0,0,0,0,0,0,0,0,-1,1336,1352,0,0
119,-328,0,0,0,0,0,0,0,0,0,-1,1343,1352,0,0
126,-328,0,0,0,0,0,0,0,0,0,-1,1350,1352,0,0
133,-328,0,0,0,0,0,0,0,0,0,-1,1357,1352,0,0
140,-328,0,0,0,0,0,0,0,0,0,-1,1364,1352,0,0
147,-328,0,0,0,0,0,0,0,0,0,-1,1371,1352,0,0
154,-328,0,0,0,0,0,0,0,0,0,-1,1378,1352,0,0
161,-328,0,0,0,0,0,0,0,0,0,-1,1385,1352,0,0
168,-328,0,0,0,0,0,0,0,0,0,-1,1392,1352,0,0
175,-328,0,0,0,0,0,0,0,0,0,-1,1399,1352,0,0
182,-328,0,0,0,0,0,0,0,0,0,-1,1406,1352,0,0
189,-328,0,0,0,0,0,0,0,0,0,-1,1413,1352,0,0
196,-328,0,0,0,0,0,0,0,0,0,-1,1420,1352,0,0
203,-328,0,0,0,0,0,0,0,0,0,-1,1427,1352,0,0
210,-328,0,0,0,0,0,0,0,0,0,-1,1434,1352,0,0
217,-328,0,0,0,0,0,0,0,0,0,-1,1441,1352,0,0
224,-328,0,0,0,0,0,0,0,0,0,-1,1448,1352,0,0
231,-328,0,0,0,0,0,0,0,0,0,-1,1455,1352,0,0
238,-328,0,0,0,0,0,0,0,0,0,-1,1462,1352,0,0
245,-328,0,0,0,0,0,0,0,0,0,-1,1469,1352,0,0
252,-328,0,0,0,0,0,0,0,0,0,-1,1476,1352,0,0
259,-328,0,0,0,0,0,0,0,0,0,-1,1483,1352,0,0
266,-328,0,0,0,0,0,0,0,0,0,-1,1490,1352,0,0
273,-328,0,0,0,0,0,0,0,0,0,-1,1497,1352,0,0
280,-328,0,0,0,0,0,0,0,0,0,-1,1504,1352,0,0
287,-328,0,0,0,0,0,0,0,0,0,-1,1511,1352,0,0
294,-328,0,0,0,0,0,0,0,0,0,-1,1518,1352,0,0
301,-328,0,0,0,0,0,0,0,0,0,-1,1525,1352,0,0
308,-328,0,0,0,0,0,0,0,0,0,-1,1532,1352,0,0
315,-328,0,0,0,0,0,0,0,0,0,-1,1539,1352,0,0
322,-328,0,0,0,0,0,0,0,0,0,-1,1546,1352,0,0
329,-328,0,0,0,0,0,0,0,0,0,-1,1553,1352,0,0
336,-328,0,0,0,0,0,0,0,0,0,-1,1560,1352,0,0
343,-328,0,0,0,0,0,0,0,0,0,-1,1567,1352,0,0
350,-328,0,0,0,0,0,0,0,0,0,-1,1574,1352,0,0
357,-328,0,0,0,0,0,0,0,0,0,-1,1581,1352,0,0
364,-328,0,0,0,0,0,0,0,0,0,-1,1588,1352,0,0
371,-328,0,0,0,0,0,0,0,0,0,-1,1595,1352,0,0
378,-328,0,0,0,0,0,0,0,0,0,-1,1602,1352,0,0
385,-328,0,0,0,0,0,0,0,0,0,-1,1609,1352,0,0
392,-328,0,0,0,0,0,0,0,0,0,-1,1616,1352,0,0
399,-328,0,0,0,0,0,0,0,0,0,-1,1623,1352,0,0
406,-328,0,0,0,0,0,0,0,0,0,-1,1630,1352,0,0
413,-328,0,0,0,0,0,0,0,0,0,-1,1637,1352,0,0
420,-328,0,0,0,0,0,0,0,0,0,-1,1644,1352,0,0
427,-328,0,0,0,0,0,0,0,0,0,-1,1651,1352,0,0
434,-328,0,0,0,0,0,0,0,0,0,-1,1658,1352,0,0
441,-328,0,0,0,0,0,0,0,0,0,-1,1665,1352,0,0
448,-328,0,0,0,0,0,0,0,0,0,-1,1672,1352,0,0
455,-328,0,0,0,0,0,0,0,0,0,-1,1679,1352,0,0
462,-328,0,0,0,0,0,0,0,0,0,-1,1686,1352,0,0
469,-328,0,0,0,0,0,0,0,0,0,-1,1693,1352,0,0
476,-328,0,0,0,0,0,0,0,0,0,-1,1700,1352,0,0
483,-328,0,0,0,0,0,0,0,0,0,-1,1707,1352,0,0
490,-328,0,0,0,0,0,0,0,0,0,-1,1714,1352,0,0
497,-328,0,0,0,0,0,0,0,0,0,-1,1721,1352,0,0
504,-328,0,0,0,0,0,0,0,0,0,-1,1728,1352,0,0
511,-328,0,0,0,0,0,0,0,0,0,-1,1735,1352,0,0
518,-328,0,0,0,0,0,0,0,0,0,-1,1742,1352,0,0
525,-328,0,0,0,0,0,0,0,0,0,-1,1749,1352,0,0
532,-328,0,0,0,0,0,0,0,0,0,-1,1756,1352,0,0
539,-328,0,0,0,0,0,0,0,0,0,-1,1763,1352,0,0
546,-328,0,0,0,0,0,0,0,0,0,-1,1770,1352,0,0
553,-328,0,0,0,0,0,0,0,0,0,-1,1777,1352,0,0
560,-328,0,0,0,0,0,0,0,0,0,-1,1784,1352,0,0
567,-328,0,0,0,0,0,0,0,0,0,-1,1791,1352,0,0
574,-328,3.64771,-0.411743,0,0,0,0,0,0,0,-1,1798,1352,3.64767,0.411788
581,-328,3.58875,0.347778,0,0,0,0,0,0,0,-1,1805,1352,3.58879,-0.347792
588,-328,-0.733765,-2.47937,0,0,0,0,0,0,0,-1,1812,1352,-0.733782,2.47935
595,-328,-0.30957,-2.10339,0,0,0,0,0,0,0,-1,1819,1352,-0.309618,2.10338
602,-328,-0.0231934,-1.75378,-0.00185769,0.0330747,-0.0057478,0.0339962,-0.00277913,-1.41184,0.023645,0.0452122,1826,1352,-0.0231582,1.75373
609,-328,0.0820313,-1.10864,0.000110873,0.0254674,-0.00107489,0.0255129,6.53882e-05,-1.52851,0.0169869,0.046431,1833,1352,0.0820019,1.10867
616,-328,-1.04468,-0.755737,0,0,0,0,0,0,0,-1,1840,1352,-1.04468,0.755739
623,-328,-0.693848,-0.513428,0.00240568,0.0129679,0.00298396,0.0137526,0.00162097,1.31364,0.00867867,0.0442322,1847,1352,-0.693792,0.513456
630,-328,-0.290771,-0.161987,0.00270857,0.00832345,0.00329051,0.00984142,0.00119059,1.13857,0.00620229,0.0477772,1854,1352,-0.290817,0.161976
637,-328,-0.00183105,-0.0285645,0.00322257,0.00503125,0.00332586,0.00757353,0.000680295,0.918145,0.00483822,0.0485383,1861,1352,-0.00183758,0.0285393
644,-328,0.0529785,0.0314941,0.00252018,0.00296115,0.00301452,0.00576324,-0.000281909,0.821904,0.0039395,0.041894,1868,1352,0.0529265,-0.0315408
651,-328,0.0301514,0.0567627,0.00225627,0.000674943,0.00157869,0.00323123,-0.000300017,0.553241,0.0022608,0.0257554,1875,1352,0.0301383,-0.0567923
658,-328,-0.0146484,0.0476074,0.00237507,-0.00091309,0.000912094,0.00261112,-0.00114915,0.253251,0.00222502,0.0135109,1882,1352,-0.0146598,-0.0475602
665,-328,-0.0474854,0.0437012,0.00197119,-0.00140452,0.000295892,0.00199693,-0.00143026,0.0867715,0.00198768,0.0125842,1889,1352,-0.0474859,-0.043676
672,-328,-0.0533447,0.0482178,0.00182437,-0.00167617,-0.000124038,0.00182876,-0.00168056,-0.0353748,0.00202671,0.0106419,1896,1352,-0.0533,-0.0482721
679,-328,-0.0351563,0.0430908,0.00160327,-0.00153992,0.000217874,0.0016183,-0.00155495,0.0688772,0.0018322,0.0119608,1903,1352,-0.0351664,-0.0431232
686,-328,-0.0264893,0.041748,0.000631194,-0.00114916,0.000375654,0.000707211,-0.00122518,0.199663,0.00112895,0.0113202,1910,1352,-0.0265232,-0.0417207
693,-328,-0.0234375,0.0472412,-0.000196506,-0.000921016,0.000534531,8.69575e-05,-0.00120448,0.487595,0.000833486,0.00818042,1917,1352,-0.023396,-0.0472061
700,-328,-0.015625,0.0424805,-0.000888275,-0.000697848,0.00067009,-0.000116241,-0.00146988,0.855971,0.000943564,0.0118939,1924,1352,-0.0156461,-0.0424829
707,-328,-0.0106201,0.0262451,-0.00120357,-0.000525743,0.000939662,0.000134256,-0.00186357,0.958475,0.00128946,0.0138208,1931,1352,-0.0106421,-0.026205
714,-328,-0.0336914,0.0158691,-0.00121545,-3.34508e-05,0.00137941,0.000876231,-0.00212513,0.987791,0.00178214,0.011107,1938,1352,-0.0336873,-0.015847
721,-328,-0.0408936,0.0471191,-0.00117406,0.000914799,0.00217916,0.00228689,-0.00254615,1.00887,0.0027917,0.0182432,1945,1352,-0.040919,-0.0471786
728,-328,-0.0408936,0.0742188,-0.000713315,0.00208333,0.00322453,0.00419968,-0.00282966,0.989986,0.004084,0.0332387,1952,1352,-0.0409445,-0.0741726
735,-328,-0.229004,-0.145508,0.000232048,0.00414497,0.00469605,0.0072758,-0.00289879,0.982773,0.00605278,0.0430221,1959,1352,-0.229051,0.145487
742,-328,-0.284912,-0.137207,0.0018376,0.00761168,0.00673753,0.0120547,-0.00260538,0.987814,0.00903106,0.0455379,1966,1352,-0.284912,0.137226
749,-328,-0.643799,-0.153198,0,0,0,0,0,0,0,-1,1973,1352,-0.64374,0.153256
756,-328,-0.68042,0.00500488,0,0,0,0,0,0,0,-1,1980,1352,-0.680368,-0.00504854
763,-328,0,0,0,0,0,0,0,0,0,-1,1987,1352,0,0
770,-328,0,0,0,0,0,0,0,0,0,-1,1994,1352,0,0
777,-328,0,0,0,0,0,0,0,0,0,-1,2001,1352,0,0
784,-328,0,0,0,0,0,0,0,0,0,-1,2008,1352,0,0
791,-328,0,0,0,0,0,0,0,0,0,-1,2015,1352,0,0
798,-328,0,0,0,0,0,0,0,0,0,-1,2022,1352,0,0
805,-328,0,0,0,0,0,0,0,0,0,-1,2029,1352,0,0
812,-328,0,0,0,0,0,0,0,0,0,-1,2036,1352,0,0
-700,-335,0,0,0,0,0,0,0,0,0,-1,524,1359,0,0
-693,-335,0,0,0,0,0,0,0,0,0,-1,531,1359,0,0
-686,-335,0,0,0,0,0,0,0,0,0,-1,538,1359,0,0
-679,-335,0,0,0,0,0,0,0,0,0,-1,545,1359,0,0
-672,-335,0,0,0,0,0,0,0,0,0,-1,552,1359,0,0
-665,-335,0,0,0,0,0,0,0,0,0,-1,559,1359,0,0
-658,-335,0,0,0,0,0,0,0,0,0,-1,566,1359,0,0
-651,-335,0,0,0,0,0,0,0,0,0,-1,573,1359,0,0
-644,-335,0,0,0,0,0,0,0,0,0,-1,580,1359,0,0
-637,-335,2.20734,1.62549,-0.0498995,0.0609599,0.00531517,0.0612142,-0.0501538,1.523,0.0644039,0.0447948,587,1359,2.20735,-1.62546
-630,-335,1.91962,1.2876,-0.0411797,0.0502869,0.00706109,0.0508288,-0.0417216,1.4942,0.0535202,0.0483408,594,1359,1.91961,-1.28763
-623,-335,1.38483,1.20984,-0.0325417,0.0397783,0.00741652,0.0405311,-0.0332944,1.46965,0.0426914,0.0477743,601,1359,1.38481,-1.20981
-616,-335,0.838928,1.04187,0,0,0,0,0,0,0,-1,608,1359,0.83895,-1.04185
-609,-335,0.182556,0.656494,-0.0177371,0.0217347,0.00618211,0.0226803,-0.0186827,1.41902,0.0239181,0.0460226,615,1359,0.182547,-0.656548
-602,-335,-0.410522,0.376343,-0.0121383,0.0150328,0.00511934,0.0159654,-0.0130709,1.39061,0.0167918,0.0437489,622,1359,-0.410536,-0.376331
-595,-335,-0.340454,0.53186,-0.0078191,0.0097393,0.00396593,0.0105935,-0.00867333,1.35865,0.0111421,0.0377337,629,1359,-0.340478,-0.531811
-588,-335,-0.0670776,0.250977,-0.00467688,0.0059102,0.00284454,0.00662607,-0.00539275,1.32425,0.00695124,0.0263547,636,1359,-0.067075,-0.250945
-581,-335,-0.0267334,0.0418701,-0.00224436,0.00299817,0.00181167,0.00356331,-0.00280949,1.26842,0.00368791,0.0126412,643,1359,-0.0267532,-0.0418383
-574,-335,0.00830078,0.0350342,-0.000634008,0.00109687,0.00110206,0.00163269,-0.00116983,1.11825,0.00162538,0.0104434,650,1359,0.00831306,-0.035094
-567,-335,0.0113525,0.0571289,0.000225463,9.06301e-05,0.000761474,0.000922499,-0.000606406,0.741246,0.00088898,0.0145905,657,1359,0.0113646,-0.057178
-560,-335,0.00152588,0.0537109,-5.62167e-05,0.000415719,0.000781375,0.000995979,-0.000636477,0.932039,0.000950087,0.0212341,664,1359,0.00149821,-0.0536652
-553,-335,-0.0426636,0.0638428,1.78703e-05,0.000733011,0.000528832,0.00101381,-0.000262932,1.08267,0.000778465,0.0240157,671,1359,-0.0426601,-0.0638677
-546,-335,-0.0537109,0.0610352,-0.000665947,0.00197382,0.000335772,0.00201586,-0.000707987,1.44624,0.00163192,0.0229764,678,1359,-0.0537234,-0.0610577
-539,-335,-0.0411377,0.0411377,-0.00216925,0.00405798,0.00068021,0.00413142,-0.00224268,1.46325,0.00373355,0.0194125,685,1359,-0.0411584,-0.0411131
-532,-335,-0.0441895,0.019165,-0.00346643,0.00596511,0.00105848,0.00608244,-0.00358376,1.4604,0.00564259,0.0149177,692,1359,-0.0442035,-0.0192154
-525,-335,-0.0202637,0.0292969,-0.00516265,0.00752024,0.0012868,0.00764948,-0.0052919,1.4707,0.00751292,0.00956618,699,1359,-0.0202941,-0.0292539
-518,-335,-0.0524292,0.057251,-0.00748545,0.00947694,0.00106513,0.00954356,-0.00755207,1.50833,0.00989246,0.0116299,706,1359,-0.0524213,-0.0572061
-511,-335,-0.112122,0.0673828,-0.0101097,0.0116371,0.000589327,0.0116531,-0.0101256,1.54372,0.0125842,0.0295304,713,1359,-0.112144,-0.0673556
-504,-335,-0.168518,0.284546,-0.0130409,0.0137053,3.08511e-05,0.0137054,-0.013041,1.56964,0.0154436,0.0422887,720,1359,-0.168548,-0.284521
-497,-335,-0.156067,0.523071,-0.0162479,0.0152565,-0.00090616,0.0152826,-0.0162739,-1.54207,0.0182221,0.0469119,727,1359,-0.156066,-0.523095
-490,-335,-0.32782,0.735474,-0.019648,0.0163108,-0.00169637,0.0163907,-0.0197279,-1.52376,0.0208827,0.0461489,734,1359,-0.3278,-0.73546
-483,-335,0.608337,0.0488281,0,0,0,0,0,0,0,-1,741,1359,0.608357,-0.0488717
-476,-335,0.314941,-0.0860596,0,0,0,0,0,0,0,-1,748,1359,0.314948,0.0861067
-469,-335,0.0149536,-0.345581,-0.0304197,0.0153253,-0.00461041,0.0157853,-0.0308797,-1.47134,0.0274079,0.0455696,755,1359,0.0149451,0.345585
-462,-335,-0.190857,-0.408936,-0.0339055,0.0132637,-0.00538091,0.0138697,-0.0345116,-1.45864,0.0287679,0.0415856,762,1359,-0.190838,0.408922
-455,-335,-0.355774,-0.462402,-0.0372139,0.0100449,-0.00560991,0.0107017,-0.0378707,-1.45425,0.0294694,0.0469722,769,1359,-0.355763,0.462408
-448,-335,0,0,0,0,0,0,0,0,0,-1,776,1359,0,0
-441,-335,0,0,0,0,0,0,0,0,0,-1,783,1359,0,0
-434,-335,0,0,0,0,0,0,0,0,0,-1,790,1359,0,0
-427,-335,0,0,0,0,0,0,0,0,0,-1,797,1359,0,0
-420,-335,0,0,0,0,0,0,0,0,0,-1,804,1359,0,0
-413,-335,0,0,0,0,0,0,0,0,0,-1,811,1359,0,0
-406,-335,0,0,0,0,0,0,0,0,0,-1,818,1359,0,0
-399,-335,0,0,0,0,0,0,0,0,0,-1,825,1359,0,0
-392,-335,0,0,0,0,0,0,0,0,0,-1,832,1359,0,0
-385,-335,0,0,0,0,0,0,0,0,0,-1,839,1359,0,0
-378,-335,0,0,0,0,0,0,0,0,0,-1,846,1359,0,0
-371,-335,0,0,0,0,0,0,0,0,0,-1,853,1359,0,0
-364,-335,0,0,0,0,0,0,0,0,0,-1,860,1359,0,0
-357,-335,0,0,0,0,0,0,0,0,0,-1,867,1359,0,0
-350,-335,0,0,0,0,0,0,0,0,0,-1,874,1359,0,0
-343,-335,0,0,0,0,0,0,0,0,0,-1,881,1359,0,0
-336,-335,0,0,0,0,0,0,0,0,0,-1,888,1359,0,0
-329,-335,0,0,0,0,0,0,0,0,0,-1,895,1359,0,0
-322,-335,0,0,0,0,0,0,0,0,0,-1,902,1359,0,0
-315,-335,0,0,0,0,0,0,0,0,0,-1,909,1359,0,0
-308,-335,0,0,0,0,0,0,0,0,0,-1,916,1359,0,0
-301,-335,0,0,0,0,0,0,0,0,0,-1,923,1359,0,0
-294,-335,0,0,0,0,0,0,0,0,0,-1,930,1359,0,0
-287,-335,0,0,0,0,0,0,0,0,0,-1,937,1359,0,0
-280,-335,0,0,0,0,0,0,0,0,0,-1,944,1359,0,0
-273,-335,0,0,0,0,0,0,0,0,0,-1,951,1359,0,0
-266,-335,0,0,0,0,0,0,0,0,0,-1,958,1359,0,0
-259,-335,0,0,0,0,0,0,0,0,0,-1,965,1359,0,0
-252,-335,0,0,0,0,0,0,0,0,0,-1,972,1359,0,0
-245,-335,0,0,0,0,0,0,0,0,0,-1,979,1359,0,0
-238,-335,0,0,0,0,0,0,0,0,0,-1,986,1359,0,0
-231,-335,0,0,0,0,0,0,0,0,0,-1,993,1359,0,0
-224,-335,0,0,0,0,0,0,0,0,0,-1,1000,1359,0,0
-217,-335,0,0,0,0,0,0,0,0,0,-1,1007,1359,0,0
-210,-335,0,0,0,0,0,0,0,0,0,-1,1014,1359,0,0
-203,-335,0,0,0,0,0,0,0,0,0,-1,1021,1359,0,0
-196,-335,0,0,0,0,0,0,0,0,0,-1,1028,1359,0,0
-189,-335,0,0,0,0,0,0,0,0,0,-1,1035,1359,0,0
-182,-335,0,0,0,0,0,0,0,0,0,-1,1042,1359,0,0
-175,-335,0,0,0,0,0,0,0,0,0,-1,1049,1359,0,0
-168,-335,0,0,0,0,0,0,0,0,0,-1,1056,1359,0,0
-161,-335,0,0,0,0,0,0,0,0,0,-1,1063,1359,0,0
-154,-335,0,0,0,0,0,0,0,0,0,-1,1070,1359,0,0
-147,-335,0,0,0,0,0,0,0,0,0,-1,1077,1359,0,0
-140,-335,0,0,0,0,0,0,0,0,0,-1,1084,1359,0,0
-133,-335,0,0,0,0,0,0,0,0,0,-1,1091,1359,0,0
-126,-335,0,0,0,0,0,0,0,0,0,-1,1098,1359,0,0
-119,-335,0,0,0,0,0,0,0,0,0,-1,1105,1359,0,0
-112,-335,0,0,0,0,0,0,0,0,0,-1,1112,1359,0,0
-105,-335,0,0,0,0,0,0,0,0,0,-1,1119,1359,0,0
-98,-335,0,0,0,0,0,0,0,0,0,-1,1126,1359,0,0
-91,-335,0,0,0,0,0,0,0,0,0,-1,1133,1359,0,0
-84,-335,0,0,0,0,0,0,0,0,0,-1,1140,1359,0,0
-77,-335,0,0,0,0,0,0,0,0,0,-1,1147,1359,0,0
-70,-335,0,0,0,0,0,0,0,0,0,-1,1154,1359,0,0
-63,-335,0,0,0,0,0,0,0,0,0,-1,1161,1359,0,0
-56,-335,0,0,0,0,0,0,0,0,0,-1,1168,1359,0,0
-49,-335,0,0,0,0,0,0,0,0,0,-1,1175,1359,0,0
-42,-335,0,0,0,0,0,0,0,0,0,-1,1182,1359,0,0
-35,-335,0,0,0,0,0,0,0,0,0,-1,1189,1359,0,0
-28,-335,0,0,0,0,0,0,0,0,0,-1,1196,1359,0,0
-21,-335,0,0,0,0,0,0,0,0,0,-1,1203,1359,0,0
-14,-335,0,0,0,0,0,0,0,0,0,-1,1210,1359,0,0
-7,-335,0,0,0,0,0,0,0,0,0,-1,1217,1359,0,0
0,-335,0,0,0,0,0,0,0,0,0,-1,1224,1359,0,0
7,-335,0,0,0,0,0,0,0,0,0,-1,1231,1359,0,0
14,-335,0,0,0,0,0,0,0,0,0,-1,1238,1359,0,0
21,-335,0,0,0,0,0,0,0,0,0,-1,1245,1359,0,0
28,-335,0,0,0,0,0,0,0,0,0,-1,1252,1359,0,0
35,-335,0,0,0,0,0,0,0,0,0,-1,1259,1359,0,0
42,-335,0,0,0,0,0,0,0,0,0,-1,1266,1359,0,0
49,-335,0,0,0,0,0,0,0,0,0,-1,1273,1359,0,0
56,-335,0,0,0,0,0,0,0,0,0,-1,1280,1359,0,0
63,-335,0,0,0,0,0,0,0,0,0,-1,1287,1359,0,0
70,-335,0,0,0,0,0,0,0,0,0,-1,1294,1359,0,0
77,-335,0,0,0,0,0,0,0,0,0,-1,1301,1359,0,0
84,-335,0,0,0,0,0,0,0,0,0,-1,1308,1359,0,0
91,-335,0,0,0,0,0,0,0,0,0,-1,1315,1359,0,0
98,-335,0,0,0,0,0,0,0,0,0,-1,1322,1359,0,0
105,-335,0,0,0,0,0,0,0,0,0,-1,1329,1359,0,0
112,-335,0,0,0,0,0,0,0,0,0,-1,1336,1359,0,0
119,-335,0,0,0,0,0,0,0,0,0,-1,1343,1359,0,0
126,-335,0,0,0,0,0,0,0,0,0,-1,1350,1359,0,0
133,-335,0,0,0,0,0,0,0,0,0,-1,1357,1359,0,0
140,-335,0,0,0,0,0,0,0,0,0,-1,1364,1359,0,0
147,-335,0,0,0,0,0,0,0,0,0,-1,1371,1359,0,0
154,-335,0,0,0,0,0,0,0,0,0,-1,1378,1359,0,0
161,-335,0,0,0,0,0,0,0,0,0,-1,1385,1359,0,0
168,-335,0,0,0,0,0,0,0,0,0,-1,1392,1359,0,0
175,-335,0,0,0,0,0,0,0,0,0,-1,1399,1359,0,0
182,-335,0,0,0,0,0,0,0,0,0,-1,1406,1359,0,0
189,-335,0,0,0,0,0,0,0,0,0,-1,1413,1359,0,0
196,-335,0,0,0,0,0,0,0,0,0,-1,1420,1359,0,0
203,-335,0,0,0,0,0,0,0,0,0,-1,1427,1359,0,0
210,-335,0,0,0,0,0,0,0,0,0,-1,1434,1359,0,0
217,-335,0,0,0,0,0,0,0,0,0,-1,1441,1359,0,0
224,-335,0,0,0,0,0,0,0,0,0,-1,1448,1359,0,0
231,-335,0,0,0,0,0,0,0,0,0,-1,1455,1359,0,0
238,-335,0,0,0,0,0,0,0,0,0,-1,1462,1359,0,0
245,-335,0,0,0,0,0,0,0,0,0,-1,1469,1359,0,0
252,-335,0,0,0,0,0,0,0,0,0,-1,1476,1359,0,0
259,-335,0,0,0,0,0,0,0,0,0,-1,1483,1359,0,0
266,-335,0,0,0,0,0,0,0,0,0,-1,1490,1359,0,0
273,-335,0,0,0,0,0,0,0,0,0,-1,1497,1359,0,0
280,-335,0,0,0,0,0,0,0,0,0,-1,1504,1359,0,0
287,-335,0,0,0,0,0,0,0,0,0,-1,1511,1359,0,0
294,-335,0,0,0,0,0,0,0,0,0,-1,1518,1359,0,0
301,-335,0,0,0,0,0,0,0,0,0,-1,1525,1359,0,0
308,-335,0,0,0,0,0,0,0,0,0,-1,1532,1359,0,0
315,-335,0,0,0,0,0,0,0,0,0,-1,1539,1359,0,0
322,-335,0,0,0,0,0,0,0,0,0,-1,1546,1359,0,0
329,-335,0,0,0,0,0,0,0,0,0,-1,1553,1359,0,0
336,-335,0,0,0,0,0,0,0,0,0,-1,1560,1359,0,0
343,-335,0,0,0,0,0,0,0,0,0,-1,1567,1359,0,0
350,-335,0,0,0,0,0,0,0,0,0,-1,1574,1359,0,0
357,-335,0,0,0,0,0,0,0,0,0,-1,1581,1359,0,0
364,-335,0,0,0,0,0,0,0,0,0,-1,1588,1359,0,0
371,-335,0,0,0,0,0,0,0,0,0,-1,1595,1359,0,0
378,-335,0,0,0,0,0,0,0,0,0,-1,1602,1359,0,0
385,-335,0,0,0,0,0,0,0,0,0,-1,1609,1359,0,0
392,-335,0,0,0,0,0,0,0,0,0,-1,1616,1359,0,0
399,-335,0,0,0,0,0,0,0,0,0,-1,1623,1359,0,0
406,-335,0,0,0,0,0,0,0,0,0,-1,1630,1359,0,0
413,-335,0,0,0,0,0,0,0,0,0,-1,1637,1359,0,0
420,-335,0,0,0,0,0,0,0,0,0,-1,1644,1359,0,0
427,-335,0,0,0,0,0,0,0,0,0,-1,1651,1359,0,0
434,-335,0,0,0,0,0,0,0,0,0,-1,1658,1359,0,0
441,-335,0,0,0,0,0,0,0,0,0,-1,1665,1359,0,0
448,-335,0,0,0,0,0,0,0,0,0,-1,1672,1359,0,0
455,-335,0,0,0,0,0,0,0,0,0,-1,1679,1359,0,0
462,-335,0,0,0,0,0,0,0,0,0,-1,1686,1359,0,0
469,-335,0,0,0,0,0,0,0,0,0,-1,1693,1359,0,0
476,-335,0,0,0,0,0,0,0,0,0,-1,1700,1359,0,0
483,-335,0,0,0,0,0,0,0,0,0,-1,1707,1359,0,0
490,-335,0,0,0,0,0,0,0,0,0,-1,1714,1359,0,0
497,-335,0,0,0,0,0,0,0,0,0,-1,1721,1359,0,0
504,-335,0,0,0,0,0,0,0,0,0,-1,1728,1359,0,0
511,-335,0,0,0,0,0,0,0,0,0,-1,1735,1359,0,0
518,-335,0,0,0,0,0,0,0,0,0,-1,1742,1359,0,0
525,-335,0,0,0,0,0,0,0,0,0,-1,1749,1359,0,0
532,-335,0,0,0,0,0,0,0,0,0,-1,1756,1359,0,0
539,-335,0,0,0,0,0,0,0,0,0,-1,1763,1359,0,0
546,-335,0,0,0,0,0,0,0,0,0,-1,1770,1359,0,0
553,-335,0,0,0,0,0,0,0,0,0,-1,1777,1359,0,0
560,-335,0,0,0,0,0,0,0,0,0,-1,1784,1359,0,0
567,-335,0,0,0,0,0,0,0,0,0,-1,1791,1359,0,0
574,-335,1.78467,-0.4104,0,0,0,0,0,0,0,-1,1798,1359,1.7847,0.410448
581,-335,-3.90955,-1.97168,0,0,0,0,0,0,0,-1,1805,1359,-3.90951,1.97172
588,-335,-4.25989,-2.08301,0,0,0,0,0,0,0,-1,1812,1359,-4.25987,2.08299
595,-335,0.153564,-1.95959,0,0,0,0,0,0,0,-1,1819,1359,0.153578,1.95965
602,-335,0.314087,-1.41272,0,0,0,0,0,0,0,-1,1826,1359,0.314046,1.41272
609,-335,0.0554199,-0.666016,0,0,0,0,0,0,0,-1,1833,1359,0.0553947,0.66603
616,-335,0.0251465,-0.482178,0.00215062,0.0146355,0.00318136,0.0153994,0.0013867,1.33513,0.0098367,0.0454355,1840,1359,0.0251994,0.482213
623,-335,-0.0180664,-0.0992432,0.00258299,0.00970501,0.00420092,0.0116511,0.000636869,1.13697,0.00756407,0.0446478,1847,1359,-0.018021,0.0992715
630,-335,0.164307,0.101563,0.00252416,0.00556108,0.00444151,0.00873652,-0.00065128,0.950109,0.00605313,0.0459835,1854,1359,0.164278,-0.101521
637,-335,-0.137451,0.0604248,0.00279639,0.00274358,0.0043767,0.00714677,-0.0016068,0.782382,0.00538069,0.049614,1861,1359,-0.137466,-0.0604503
644,-335,-0.108643,0.0388184,0.00185887,0.00119937,0.00394965,0.00549251,-0.00243427,0.743751,0.00468869,0.0327192,1868,1359,-0.108701,-0.0388497
651,-335,-0.0266113,0.0563965,0.00139928,-0.000791271,0.00221071,0.00277116,-0.00216316,0.555402,0.00285603,0.0129363,1875,1359,-0.0265887,-0.056404
658,-335,-0.0296631,0.0548096,0.00141392,-0.00193825,0.00139601,0.00191914,-0.00244347,0.347241,0.00252481,0.0112982,1882,1359,-0.0296417,-0.0547507
665,-335,-0.053833,0.0477295,0.00113372,-0.00209051,0.000650031,0.00125983,-0.00221663,0.191638,0.00203232,0.0133373,1889,1359,-0.0538836,-0.047731
672,-335,-0.0452881,0.0345459,0.00103804,-0.00211372,0.000111932,0.00104201,-0.00211769,0.0354545,0.00185916,0.0154011,1896,1359,-0.045334,-0.0344881
679,-335,-0.0269775,0.0472412,0.000836222,-0.00176633,0.000349046,0.000882222,-0.00181233,0.131032,0.00158629,0.0125157,1903,1359,-0.0270177,-0.0472539
686,-335,-0.0146484,0.0366211,8.82094e-05,-0.001331,0.000455054,0.000221583,-0.00146437,0.28511,0.00105787,0.00992207,1910,1359,-0.0146361,-0.0366774
693,-335,-0.0134277,0.0290527,-0.000504147,-0.00112071,0.000575567,-0.000159499,-0.00146535,0.539534,0.000928314,0.00822897,1917,1359,-0.0134444,-0.0290421
700,-335,-0.0172119,0.0300293,-0.00109019,-0.00100018,0.000733222,-0.000310583,-0.00177979,0.816051,0.00109774,0.00913172,1924,1359,-0.017181,-0.0300462
707,-335,-0.00720215,0.0211182,-0.00133014,-0.000986045,0.00105854,-8.56675e-05,-0.00223052,0.865961,0.0014593,0.0126896,1931,1359,-0.00721505,-0.021172
714,-335,-0.0336914,0.00585938,-0.00130344,-0.000758749,0.00161416,0.000605878,-0.00266807,0.868973,0.00201133,0.0149044,1938,1359,-0.0336852,-0.00587581
721,-335,-0.0528564,-0.045166,-0.00118087,-0.000228439,0.00254856,0.00188802,-0.00329733,0.877761,0.00303039,0.0290782,1945,1359,-0.052883,0.0451851
728,-335,-0.265747,-0.0384521,-0.000607716,0.000475771,0.00376423,0.00373705,-0.00386899,0.856867,0.00439157,0.0421582,1952,1359,-0.265768,0.0384731
735,-335,-0.309326,0.0189209,0.000570604,0.00197913,0.00546854,0.00678857,-0.00423883,0.849438,0.00642315,0.0460844,1959,1359,-0.309295,-0.0189227
742,-335,-0.0057373,-0.010498,0,0,0,0,0,0,0,-1,1966,1359,-0.00572542,0.0105351
749,-335,0.699951,0.415405,0,0,0,0,0,0,0,-1,1973,1359,0.699978,-0.415384
756,-335,0.729248,-0.559814,0,0,0,0,0,0,0,-1,1980,1359,0.729194,0.559827
763,-335,0,0,0,0,0,0,0,0,0,-1,1987,1359,0,0
770,-335,0,0,0,0,0,0,0,0,0,-1,1994,1359,0,0
777,-335,0,0,0,0,0,0,0,0,0,-1,2001,1359,0,0
784,-335,0,0,0,0,0,0,0,0,0,-1,2008,1359,0,0
791,-335,0,0,0,0,0,0,0,0,0,-1,2015,1359,0,0
798,-335,0,0,0,0,0,0,0,0,0,-1,2022,1359,0,0
805,-335,0,0,0,0,0,0,0,0,0,-1,2029,1359,0,0
812,-335,0,0,0,0,0,0,0,0,0,-1,2036,1359,0,0
-700,-342,0,0,0,0,0,0,0,0,0,-1,524,1366,0,0
-693,-342,0,0,0,0,0,0,0,0,0,-1,531,1366,0,0
-686,-342,0,0,0,0,0,0,0,0,0,-1,538,1366,0,0
-679,-342,0,0,0,0,0,0,0,0,0,-1,545,1366,0,0
-672,-342,0,0,0,0,0,0,0,0,0,-1,552,1366,0,0
-665,-342,0,0,0,0,0,0,0,0,0,-1,559,1366,0,0
-658,-342,0,0,0,0,0,0,0,0,0,-1,566,1366,0,0
-651,-342,0,0,0,0,0,0,0,0,0,-1,573,1366,0,0
-644,-342,0,0,0,0,0,0,0,0,0,-1,580,1366,0,0
-637,-342,2.50244,0.983398,0,0,0,0,0,0,0,-1,587,1366,2.50242,-0.9834
-630,-342,1.78143,0.483398,0,0,0,0,0,0,0,-1,594,1366,1.78143,-0.483394
-623,-342,1.19489,0.459229,0,0,0,0,0,0,0,-1,601,1366,1.19487,-0.459257
-616,-342,0.556213,-0.0928955,0,0,0,0,0,0,0,-1,608,1366,0.556195,0.0928654
-609,-342,-0.0153809,0.00146484,-0.0157546,0.021592,0.00679533,0.02279,-0.0169526,1.39629,0.0230278,0.043538,615,1366,-0.0153596,-0.00149088
-602,-342,-0.422668,0.265869,-0.0102759,0.0145573,0.00542993,0.0156927,-0.0114113,1.36467,0.0157134,0.0418341,622,1366,-0.422678,-0.265831
-595,-342,-0.282471,0.430054,-0.00625103,0.00934569,0.00413259,0.010373,-0.00727835,1.32714,0.0102431,0.0367203,629,1366,-0.282477,-0.430091
-588,-342,-0.0792236,0.225342,-0.00346817,0.00566964,0.0029618,0.00654566,-0.00434419,1.28322,0.00632993,0.0312589,636,1366,-0.0792037,-0.225298
-581,-342,-0.0360107,0.067749,-0.00140846,0.00292599,0.00192969,0.00366059,-0.00214306,1.20705,0.0033887,0.018447,643,1366,-0.035996,-0.0678039
-574,-342,-0.0186157,0.0656738,-0.000113756,0.00110213,0.00122537,0.00186208,-0.000873708,1.01567,0.0016135,0.00840519,650,1366,-0.0185915,-0.0656779
-567,-342,0.00164795,0.0565186,0.000538636,0.000100772,0.000855054,0.00120234,-0.000562933,0.660069,0.00104123,0.0145347,657,1366,0.00162656,-0.0565534
-560,-342,-0.0197144,0.0313721,0.000195616,0.000240253,0.00086092,0.00107914,-0.000643275,0.798357,0.001005,0.0223305,664,1366,-0.019706,-0.0314038
-553,-342,-0.03479,0.00622559,0.000169114,0.000416302,0.000503639,0.000811291,-0.000225874,0.905721,0.000629801,0.0247211,671,1366,-0.0347971,-0.0061706
-546,-342,0.00384521,0.0299072,-0.000561622,0.00134362,0.000287013,0.00138591,-0.000603919,1.42448,0.00117803,0.0247011,678,1366,0.00385041,-0.0298574
-539,-342,0.00213623,0.079834,-0.00200188,0.00295192,0.000656143,0.00303736,-0.00208731,1.44132,0.00297563,0.0224555,685,1366,0.00214668,-0.0798129
-532,-342,-0.015686,0.0650635,-0.00314915,0.00433155,0.00107494,0.00448295,-0.00330056,1.43087,0.00451106,0.0175429,692,1366,-0.0157003,-0.0650697
-525,-342,-0.0145874,0.0456543,-0.00455669,0.00542774,0.00129343,0.00559258,-0.00472153,1.44404,0.00596193,0.0103545,699,1366,-0.0145933,-0.045707
-518,-342,-0.0372314,0.0500488,-0.00640408,0.0069163,0.000989444,0.0069894,-0.00647718,1.49706,0.00777681,0.00875031,706,1366,-0.0372415,-0.050087
-511,-342,-0.0387573,0.0327148,-0.00852469,0.00852037,0.000533063,0.00853703,-0.00854134,1.53956,0.0098602,0.0216308,713,1366,-0.0387578,-0.032757
-504,-342,0.0122681,-0.0554199,-0.0109092,0.0100152,5.17971e-05,0.0100153,-0.0109094,1.56832,0.0120846,0.0424878,720,1366,0.0122727,0.0554298
-497,-342,-0.174683,0.198975,-0.0134944,0.0110013,-0.000842911,0.0110302,-0.0135233,-1.53644,0.0142003,0.0476257,727,1366,-0.174667,-0.198957
-490,-342,-0.34613,0.464111,-0.0161526,0.0117015,-0.00169065,0.0118037,-0.0162549,-1.5104,0.0162674,0.0457541,734,1366,-0.346125,-0.464075
-483,-342,-0.616211,0.757324,0,0,0,0,0,0,0,-1,741,1366,-0.616201,-0.757313
-476,-342,0.415833,-0.346313,0,0,0,0,0,0,0,-1,748,1366,0.415817,0.346354
-469,-342,0.169312,-0.539917,-0.0247522,0.0103496,-0.00500546,0.0110495,-0.025452,-1.43189,0.021614,0.0405514,755,1366,0.169298,0.539866
-462,-342,-0.0668335,-0.710693,-0.0277531,0.00868412,-0.00614341,0.00969204,-0.028761,-1.40818,0.0230929,0.0429679,762,1366,-0.0668209,0.710716
-455,-342,-0.294312,-0.853882,-0.0309268,0.00615011,-0.00701411,0.00743265,-0.0322094,-1.38994,0.0243319,0.0475172,769,1366,-0.294312,0.853835
-448,-342,-0.528076,-0.971069,0,0,0,0,0,0,0,-1,776,1366,-0.528088,0.971071
-441,-342,0,0,0,0,0,0,0,0,0,-1,783,1366,0,0
-434,-342,0,0,0,0,0,0,0,0,0,-1,790,1366,0,0
-427,-342,0,0,0,0,0,0,0,0,0,-1,797,1366,0,0
-420,-342,0,0,0,0,0,0,0,0,0,-1,804,1366,0,0
-413,-342,0,0,0,0,0,0,0,0,0,-1,811,1366,0,0
-406,-342,0,0,0,0,0,0,0,0,0,-1,818,1366,0,0
-399,-342,0,0,0,0,0,0,0,0,0,-1,825,1366,0,0
-392,-342,0,0,0,0,0,0,0,0,0,-1,832,1366,0,0
-385,-342,0,0,0,0,0,0,0,0,0,-1,839,1366,0,0
-378,-342,0,0,0,0,0,0,0,0,0,-1,846,1366,0,0
-371,-342,0,0,0,0,0,0,0,0,0,-1,853,1366,0,0
-364,-342,0,0,0,0,0,0,0,0,0,-1,860,1366,0,0
-357,-342,0,0,0,0,0,0,0,0,0,-1,867,1366,0,0
-350,-342,0,0,0,0,0,0,0,0,0,-1,874,1366,0,0
-343,-342,0,0,0,0,0,0,0,0,0,-1,881,1366,0,0
-336,-342,0,0,0,0,0,0,0,0,0,-1,888,1366,0,0
-329,-342,0,0,0,0,0,0,0,0,0,-1,895,1366,0,0
-322,-342,0,0,0,0,0,0,0,0,0,-1,902,1366,0,0
-315,-342,0,0,0,0,0,0,0,0,0,-1,909,1366,0,0
-308,-342,0,0,0,0,0,0,0,0,0,-1,916,1366,0,0
-301,-342,0,0,0,0,0,0,0,0,0,-1,923,1366,0,0
-294,-342,0,0,0,0,0,0,0,0,0,-1,930,1366,0,0
-287,-342,0,0,0,0,0,0,0,0,0,-1,937,1366,0,0
-280,-342,0,0,0,0,0,0,0,0,0,-1,944,1366,0,0
-273,-342,0,0,0,0,0,0,0,0,0,-1,951,1366,0,0
-266,-342,0,0,0,0,0,0,0,0,0,-1,958,1366,0,0
-259,-342,0,0,0,0,0,0,0,0,0,-1,965,1366,0,0
-252,-342,0,0,0,0,0,0,0,0,0,-1,972,1366,0,0
-245,-342,0,0,0,0,0,0,0,0,0,-1,979,1366,0,0
-238,-342,0,0,0,0,0,0,0,0,0,-1,986,1366,0,0
-231,-342,0,0,0,0,0,0,0,0,0,-1,993,1366,0,0
-224,-342,0,0,0,0,0,0,0,0,0,-1,1000,1366,0,0
-217,-342,0,0,0,0,0,0,0,0,0,-1,1007,1366,0,0
-210,-342,0,0,0,0,0,0,0,0,0,-1,1014,1366,0,0
-203,-342,0,0,0,0,0,0,0,0,0,-1,1021,1366,0,0
-196,-342,0,0,0,0,0,0,0,0,0,-1,1028,1366,0,0
-189,-342,0,0,0,0,0,0,0,0,0,-1,1035,1366,0,0
-182,-342,0,0,0,0,0,0,0,0,0,-1,1042,1366,0,0
-175,-342,0,0,0,0,0,0,0,0,0,-1,1049,1366,0,0
-168,-342,0,0,0,0,0,0,0,0,0,-1,1056,1366,0,0
-161,-342,0,0,0,0,0,0,0,0,0,-1,1063,1366,0,0
-154,-342,0,0,0,0,0,0,0,0,0,-1,1070,1366,0,0
-147,-342,0,0,0,0,0,0,0,0,0,-1,1077,1366,0,0
-140,-342,0,0,0,0,0,0,0,0,0,-1,1084,1366,0,0
-133,-342,0,0,0,0,0,0,0,0,0,-1,1091,1366,0,0
-126,-342,0,0,0,0,0,0,0,0,0,-1,1098,1366,0,0
-119,-342,0,0,0,0,0,0,0,0,0,-1,1105,1366,0,0
-112,-342,0,0,0,0,0,0,0,0,0,-1,1112,1366,0,0
-105,-342,0,0,0,0,0,0,0,0,0,-1,1119,1366,0,0
-98,-342,0,0,0,0,0,0,0,0,0,-1,1126,1366,0,0
-91,-342,0,0,0,0,0,0,0,0,0,-1,1133,1366,0,0
-84,-342,0,0,0,0,0,0,0,0,0,-1,1140,1366,0,0
-77,-342,0,0,0,0,0,0,0,0,0,-1,1147,1366,0,0
-70,-342,0,0,0,0,0,0,0,0,0,-1,1154,1366,0,0
-63,-342,0,0,0,0,0,0,0,0,0,-1,1161,1366,0,0
-56,-342,0,0,0,0,0,0,0,0,0,-1,1168,1366,0,0
-49,-342,0,0,0,0,0,0,0,0,0,-1,1175,1366,0,0
-42,-342,0,0,0,0,0,0,0,0,0,-1,1182,1366,0,0
-35,-342,0,0,0,0,0,0,0,0,0,-1,1189,1366,0,0
-28,-342,0,0,0,0,0,0,0,0,0,-1,1196,1366,0,0
-21,-342,0,0,0,0,0,0,0,0,0,-1,1203,1366,0,0
-14,-342,0,0,0,0,0,0,0,0,0,-1,1210,1366,0,0
-7,-342,0,0,0,0,0,0,0,0,0,-1,1217,1366,0,0
0,-342,0,0,0,0,0,0,0,0,0,-1,1224,1366,0,0
7,-342,0,0,0,0,0,0,0,0,0,-1,1231,1366,0,0
14,-342,0,0,0,0,0,0,0,0,0,-1,1238,1366,0,0
21,-342,0,0,0,0,0,0,0,0,0,-1,1245,1366,0,0
28,-342,0,0,0,0,0,0,0,0,0,-1,1252,1366,0,0
35,-342,0,0,0,0,0,0,0,0,0,-1,1259,1366,0,0
42,-342,0,0,0,0,0,0,0,0,0,-1,1266,1366,0,0
49,-342,0,0,0,0,0,0,0,0,0,-1,1273,1366,0,0
56,-342,0,0,0,0,0,0,0,0,0,-1,1280,1366,0,0
63,-342,0,0,0,0,0,0,0,0,0,-1,1287,1366,0,0
70,-342,0,0,0,0,0,0,0,0,0,-1,1294,1366,0,0
77,-342,0,0,0,0,0,0,0,0,0,-1,1301,1366,0,0
84,-342,0,0,0,0,0,0,0,0,0,-1,1308,1366,0,0
91,-342,0,0,0,0,0,0,0,0,0,-1,1315,1366,0,0
98,-342,0,0,0,0,0,0,0,0,0,-1,1322,1366,0,0
105,-342,0,0,0,0,0,0,0,0,0,-1,1329,1366,0,0
112,-342,0,0,0,0,0,0,0,0,0,-1,1336,1366,0,0
119,-342,0,0,0,0,0,0,0,0,0,-1,1343,1366,0,0
126,-342,0,0,0,0,0,0,0,0,0,-1,1350,1366,0,0
133,-342,0,0,0,0,0,0,0,0,0,-1,1357,1366,0,0
140,-342,0,0,0,0,0,0,0,0,0,-1,1364,1366,0,0
147,-342,0,0,0,0,0,0,0,0,0,-1,1371,1366,0,0
154,-342,0,0,0,0,0,0,0,0,0,-1,1378,1366,0,0
161,-342,0,0,0,0,0,0,0,0,0,-1,1385,1366,0,0
168,-342,0,0,0,0,0,0,0,0,0,-1,1392,1366,0,0
175,-342,0,0,0,0,0,0,0,0,0,-1,1399,1366,0,0
182,-342,0,0,0,0,0,0,0,0,0,-1,1406,1366,0,0
189,-342,0,0,0,0,0,0,0,0,0,-1,1413,1366,0,0
196,-342,0,0,0,0,0,0,0,0,0,-1,1420,1366,0,0
203,-342,0,0,0,0,0,0,0,0,0,-1,1427,1366,0,0
210,-342,0,0,0,0,0,0,0,0,0,-1,1434,1366,0,0
217,-342,0,0,0,0,0,0,0,0,0,-1,1441,1366,0,0
224,-342,0,0,0,0,0,0,0,0,0,-1,1448,1366,0,0
231,-342,0,0,0,0,0,0,0,0,0,-1,1455,1366,0,0
238,-342,0,0,0,0,0,0,0,0,0,-1,1462,1366,0,0
245,-342,0,0,0,0,0,0,0,0,0,-1,1469,1366,0,0
252,-342,0,0,0,0,0,0,0,0,0,-1,1476,1366,0,0
259,-342,0,0,0,0,0,0,0,0,0,-1,1483,1366,0,0
266,-342,0,0,0,0,0,0,0,0,0,-1,1490,1366,0,0
273,-342,0,0,0,0,0,0,0,0,0,-1,1497,1366,0,0
280,-342,0,0,0,0,0,0,0,0,0,-1,1504,1366,0,0
287,-342,0,0,0,0,0,0,0,0,0,-1,1511,1366,0,0
294,-342,0,0,0,0,0,0,0,0,0,-1,1518,1366,0,0
301,-342,0,0,0,0,0,0,0,0,0,-1,1525,1366,0,0
308,-342,0,0,0,0,0,0,0,0,0,-1,1532,1366,0,0
315,-342,0,0,0,0,0,0,0,0,0,-1,1539,1366,0,0
322,-342,0,0,0,0,0,0,0,0,0,-1,1546,1366,0,0
329,-342,0,0,0,0,0,0,0,0,0,-1,1553,1366,0,0
336,-342,0,0,0,0,0,0,0,0,0,-1,1560,1366,0,0
343,-342,0,0,0,0,0,0,0,0,0,-1,1567,1366,0,0
350,-342,0,0,0,0,0,0,0,0,0,-1,1574,1366,0,0
357,-342,0,0,0,0,0,0,0,0,0,-1,1581,1366,0,0
364,-342,0,0,0,0,0,0,0,0,0,-1,1588,1366,0,0
371,-342,0,0,0,0,0,0,0,0,0,-1,1595,1366,0,0
378,-342,0,0,0,0,0,0,0,0,0,-1,1602,1366,0,0
385,-342,0,0,0,0,0,0,0,0,0,-1,1609,1366,0,0
392,-342,0,0,0,0,0,0,0,0,0,-1,1616,1366,0,0
399,-342,0,0,0,0,0,0,0,0,0,-1,1623,1366,0,0
406,-342,0,0,0,0,0,0,0,0,0,-1,1630,1366,0,0
413,-342,0,0,0,0,0,0,0,0,0,-1,1637,1366,0,0
420,-342,0,0,0,0,0,0,0,0,0,-1,1644,1366,0,0
427,-342,0,0,0,0,0,0,0,0,0,-1,1651,1366,0,0
434,-342,0,0,0,0,0,0,0,0,0,-1,1658,1366,0,0
441,-342,0,0,0,0,0,0,0,0,0,-1,1665,1366,0,0
448,-342,0,0,0,0,0,0,0,0,0,-1,1672,1366,0,0
455,-342,0,0,0,0,0,0,0,0,0,-1,1679,1366,0,0
462,-342,0,0,0,0,0,0,0,0,0,-1,1686,1366,0,0
469,-342,0,0,0,0,0,0,0,0,0,-1,1693,1366,0,0
476,-342,0,0,0,0,0,0,0,0,0,-1,1700,1366,0,0
483,-342,0,0,0,0,0,0,0,0,0,-1,1707,1366,0,0
490,-342,0,0,0,0,0,0,0,0,0,-1,1714,1366,0,0
497,-342,0,0,0,0,0,0,0,0,0,-1,1721,1366,0,0
504,-342,0,0,0,0,0,0,0,0,0,-1,1728,1366,0,0
511,-342,0,0,0,0,0,0,0,0,0,-1,1735,1366,0,0
518,-342,0,0,0,0,0,0,0,0,0,-1,1742,1366,0,0
525,-342,0,0,0,0,0,0,0,0,0,-1,1749,1366,0,0
532,-342,0,0,0,0,0,0,0,0,0,-1,1756,1366,0,0
539,-342,0,0,0,0,0,0,0,0,0,-1,1763,1366,0,0
546,-342,0,0,0,0,0,0,0,0,0,-1,1770,1366,0,0
553,-342,0,0,0,0,0,0,0,0,0,-1,1777,1366,0,0
560,-342,0,0,0,0,0,0,0,0,0,-1,1784,1366,0,0
567,-342,-2.27429,-0.369507,0,0,0,0,0,0,0,-1,1791,1366,-2.27428,0.369454
574,-342,-1.62744,-0.582031,0,0,0,0,0,0,0,-1,1798,1366,-1.62746,0.582059
581,-342,-2.51855,-1.18921,-0.0105415,0.0448573,-0.021403,0.0521628,-0.017847,-1.24186,0.0420076,0.0438681,1805,1366,-2.5186,1.18923
588,-342,-3.16333,-1.79504,-0.00516584,0.0368744,-0.0122342,0.0401755,-0.00846693,-1.30725,0.0300068,0.0428378,1812,1366,-3.16328,1.79507
595,-342,0.405029,-1.26379,0,0,0,0,0,0,0,-1,1819,1366,0.405021,1.26385
602,-342,0.493042,-0.952637,0,0,0,0,0,0,0,-1,1826,1366,0.493079,0.952579
609,-342,0.444702,0.220947,0,0,0,0,0,0,0,-1,1833,1366,0.444663,-0.220952
616,-342,0.55957,0.416138,0.00263381,0.010451,0.00454997,0.0125407,0.000544129,1.14026,0.00818513,0.0462698,1840,1366,0.559548,-0.416167
623,-342,0.40979,0.499512,0.00283301,0.00634304,0.00526391,0.0101368,-0.000960742,0.946306,0.00709981,0.0455114,1847,1366,0.409831,-0.499456
630,-342,0.442383,0.617554,0.00252251,0.00292047,0.00541271,0.00813786,-0.00269487,0.803771,0.00651213,0.0466963,1854,1366,0.442425,-0.617573
637,-342,-0.0791016,0.0653076,0,0,0,0,0,0,0,-1,1861,1366,-0.079054,-0.0653565
644,-342,-0.0552979,0.0510254,0.00154517,-0.000229861,0.00470828,0.00544886,-0.00413355,0.692241,0.00554975,0.0246574,1868,1366,-0.055353,-0.0510138
651,-342,-0.0310059,0.0466309,0.000913944,-0.00186899,0.00272914,0.00258587,-0.00354091,0.549648,0.0035516,0.0142403,1875,1366,-0.03101,-0.0466891
658,-342,-0.0290527,0.0343018,0.000834556,-0.00255126,0.00179645,0.00161009,-0.00332679,0.407532,0.00290718,0.0162421,1882,1366,-0.0290456,-0.034253
665,-342,-0.0343018,0.0142822,0.000649353,-0.00240255,0.000973929,0.000933668,-0.00268687,0.284033,0.00217047,0.0141162,1889,1366,-0.034302,-0.0142231
672,-342,-0.0284424,0.0369873,0.000547492,-0.0022396,0.000362822,0.00059395,-0.00228605,0.127352,0.00175583,0.0119295,1896,1366,-0.0284116,-0.0369331
679,-342,-0.0269775,0.0494385,0.000326882,-0.00166644,0.000443003,0.000420902,-0.00176046,0.20913,0.00133622,0.0113479,1903,1366,-0.0270287,-0.0494648
686,-342,-0.0178223,0.05896,-0.000283461,-0.00127707,0.000515006,-6.46915e-05,-0.00149584,0.401693,0.000976376,0.0094803,1910,1366,-0.0178413,-0.0589283
693,-342,-0.0189209,0.0394287,-0.000728461,-0.00114821,0.000614617,-0.000288872,-0.00158779,0.620871,0.000976586,0.00989009,1917,1366,-0.0188965,-0.0394143
700,-342,-0.0340576,0.0233154,-0.00123645,-0.00117024,0.000792055,-0.000410598,-0.00199609,0.806287,0.00121717,0.0119879,1924,1366,-0.0340712,-0.0232924
707,-342,-0.0236816,0.0311279,-0.00143801,-0.00134092,0.0011744,-0.000214066,-0.00256487,0.806055,0.00164321,0.0120261,1931,1366,-0.0236876,-0.0310692
714,-342,-0.0427246,-0.00549316,-0.00139449,-0.00128373,0.00185239,0.00051411,-0.00319233,0.800342,0.00231867,0.018928,1938,1366,-0.0427507,0.005501
721,-342,-0.0163574,-0.0750732,-0.00121614,-0.00106698,0.00286429,0.0017237,-0.00400682,0.798414,0.00339492,0.0335523,1945,1366,-0.0163851,0.0750184
728,-342,-0.244385,-0.0200195,-0.000544191,-0.00068313,0.00420428,0.00359119,-0.00481851,0.777137,0.00487255,0.0448915,1952,1366,-0.244429,0.0200191
735,-342,-0.438721,0.0819092,0.000848324,0.000453326,0.00608047,0.0067345,-0.00543285,0.769163,0.00703821,0.0460127,1959,1366,-0.43872,-0.0818714
742,-342,-0.202393,0.225586,0,0,0,0,0,0,0,-1,1966,1366,-0.202441,-0.22562
749,-342,-0.072876,0.312134,0,0,0,0,0,0,0,-1,1973,1366,-0.0728322,-0.312073
756,-342,0,0,0,0,0,0,0,0,0,-1,1980,1366,0,0
763,-342,0,0,0,0,0,0,0,0,0,-1,1987,1366,0,0
770,-342,0,0,0,0,0,0,0,0,0,-1,1994,1366,0,0
777,-342,0,0,0,0,0,0,0,0,0,-1,2001,1366,0,0
784,-342,0,0,0,0,0,0,0,0,0,-1,2008,1366,0,0
791,-342,0,0,0,0,0,0,0,0,0,-1,2015,1366,0,0
798,-342,0,0,0,0,0,0,0,0,0,-1,2022,1366,0,0
805,-342,0,0,0,0,0,0,0,0,0,-1,2029,1366,0,0
812,-342,0,0,0,0,0,0,0,0,0,-1,2036,1366,0,0
-700,-349,0,0,0,0,0,0,0,0,0,-1,524,1373,0,0
-693,-349,0,0,0,0,0,0,0,0,0,-1,531,1373,0,0
-686,-349,0,0,0,0,0,0,0,0,0,-1,538,1373,0,0
-679,-349,0,0,0,0,0,0,0,0,0,-1,545,1373,0,0
-672,-349,0,0,0,0,0,0,0,0,0,-1,552,1373,0,0
-665,-349,0,0,0,0,0,0,0,0,0,-1,559,1373,0,0
-658,-349,0,0,0,0,0,0,0,0,0,-1,566,1373,0,0
-651,-349,0,0,0,0,0,0,0,0,0,-1,573,1373,0,0
-644,-349,0,0,0,0,0,0,0,0,0,-1,580,1373,0,0
-637,-349,0,0,0,0,0,0,0,0,0,-1,587,1373,0,0
-630,-349,1.8288,0.234863,0,0,0,0,0,0,0,-1,594,1373,1.8288,-0.234874
-623,-349,0.593811,-0.359619,0,0,0,0,0,0,0,-1,601,1373,0.593801,0.359675
-616,-349,0.268799,-0.402588,0,0,0,0,0,0,0,-1,608,1373,0.268796,0.402573
-609,-349,-0.0854492,-0.479248,-0.0133023,0.0203927,0.00611577,0.0214684,-0.014378,1.39669,0.0208305,0.0433273,615,1373,-0.085475,0.479205
-602,-349,-0.195679,0.279541,-0.00840845,0.013636,0.00485064,0.0146561,-0.00942857,1.36351,0.0140141,0.0446913,622,1373,-0.19565,-0.279521
-595,-349,-0.163635,0.51062,-0.00497272,0.00877205,0.00366172,0.00968669,-0.00588736,1.32602,0.00908044,0.0435119,629,1373,-0.163627,-0.510582
-588,-349,-0.131042,0.178833,-0.00272597,0.00542355,0.00264616,0.00620738,-0.0035098,1.28282,0.00568182,0.0377953,636,1373,-0.131044,-0.178849
-581,-349,-0.0178833,0.0274658,-0.00111307,0.00296607,0.00176135,0.00362135,-0.00176835,1.21463,0.00317245,0.0281566,643,1373,-0.0179111,-0.0274382
-574,-349,-0.00415039,0.0443115,-0.000118077,0.00127901,0.00116864,0.00194197,-0.000781032,1.05478,0.00161905,0.0134022,650,1373,-0.00417404,-0.0443659
-567,-349,-0.0128174,0.0704346,0.000406181,0.000315779,0.000810906,0.00117314,-0.000451185,0.757556,0.000968192,0.0152452,657,1373,-0.0128357,-0.0704392
-560,-349,-0.00622559,0.0635986,0.000152794,0.000284029,0.00080129,0.00102238,-0.00058556,0.826252,0.000939696,0.0191537,664,1373,-0.00621089,-0.0635834
-553,-349,-0.00372314,-0.00549316,0.000165193,0.000337206,0.000346088,0.000607814,-0.000105415,0.907187,0.000444534,0.023073,671,1373,-0.0037301,0.00551473
-546,-349,0.00646973,0.00610352,-0.00040204,0.000951039,4.43997e-05,0.000952495,-0.000403495,1.53803,0.000803985,0.0252228,678,1373,0.00647359,-0.00613928
-539,-349,-0.0206909,0.0543213,-0.00153437,0.00215318,0.000304591,0.00217817,-0.00155936,1.48894,0.0021677,0.0217023,685,1373,-0.0207038,-0.054361
-532,-349,-0.0192871,0.0739746,-0.00222071,0.00310422,0.000577723,0.00316618,-0.00228267,1.46396,0.00315965,0.0164972,692,1373,-0.0192729,-0.0739888
-525,-349,-0.0285034,0.0606689,-0.0030406,0.00380171,0.000603356,0.00385451,-0.0030934,1.48351,0.00401939,0.0114791,699,1373,-0.0285152,-0.060712
-518,-349,-0.0404053,0.0581055,-0.00421462,0.00491183,9.04672e-05,0.00491273,-0.00421552,1.56088,0.00527531,0.00935781,706,1373,-0.0403811,-0.0580483
-511,-349,-0.0127563,0.0380859,-0.00563254,0.00604239,-0.000493082,0.00606318,-0.00565333,-1.52866,0.00676591,0.0165447,713,1373,-0.0127638,-0.0380997
-504,-349,0.0308228,-0.0410156,-0.00727381,0.00708639,-0.00102891,0.00715974,-0.00734716,-1.49963,0.00837579,0.0359599,720,1373,0.0308301,0.0410077
-497,-349,0.036499,-0.125488,-0.00900294,0.00762013,-0.00193575,0.00784257,-0.00922538,-1.45639,0.00986496,0.0442043,727,1373,0.0364731,0.125528
-490,-349,-0.273865,0.12085,-0.0109187,0.00833951,-0.00292978,0.00877535,-0.0113546,-1.42312,0.0116538,0.0457542,734,1373,-0.273863,-0.120908
-483,-349,-0.528076,0.446899,0,0,0,0,0,0,0,-1,741,1373,-0.528051,-0.446875
-476,-349,0.470337,-0.450928,-0.0155968,0.00815446,-0.00486548,0.00911251,-0.0165549,-1.37638,0.0150253,0.0438903,748,1373,0.470309,0.450869
-469,-349,0.1698,-0.513794,-0.0182641,0.00757766,-0.00625202,0.00901076,-0.0196972,-1.34547,0.016953,0.041606,755,1373,0.169799,0.513763
-462,-349,-0.0240479,-0.716797,-0.0212658,0.00655972,-0.0074236,0.00841639,-0.0231225,-1.32572,0.0188573,0.0441633,762,1373,-0.0240638,0.716761
-455,-349,-0.218506,-0.643188,-0.0247483,0.00490098,-0.00844921,0.00713973,-0.026987,-1.31178,0.0207841,0.042654,769,1373,-0.218496,0.643131
-448,-349,-0.634338,-0.754883,-0.029098,0.0026942,-0.00917167,0.00515037,-0.0315541,-1.30914,0.0229464,0.0469514,776,1373,-0.634369,0.754827
-441,-349,0,0,0,0,0,0,0,0,0,-1,783,1373,0,0
-434,-349,0,0,0,0,0,0,0,0,0,-1,790,1373,0,0
-427,-349,0,0,0,0,0,0,0,0,0,-1,797,1373,0,0
-420,-349,0,0,0,0,0,0,0,0,0,-1,804,1373,0,0
-413,-349,0,0,0,0,0,0,0,0,0,-1,811,1373,0,0
-406,-349,0,0,0,0,0,0,0,0,0,-1,818,1373,0,0
-399,-349,0,0,0,0,0,0,0,0,0,-1,825,1373,0,0
-392,-349,0,0,0,0,0,0,0,0,0,-1,832,1373,0,0
-385,-349,0,0,0,0,0,0,0,0,0,-1,839,1373,0,0
-378,-349,0,0,0,0,0,0,0,0,0,-1,846,1373,0,0
-371,-349,0,0,0,0,0,0,0,0,0,-1,853,1373,0,0
-364,-349,0,0,0,0,0,0,0,0,0,-1,860,1373,0,0
-357,-349,0,0,0,0,0,0,0,0,0,-1,867,1373,0,0
-350,-349,0,0,0,0,0,0,0,0,0,-1,874,1373,0,0
-343,-349,0,0,0,0,0,0,0,0,0,-1,881,1373,0,0
-336,-349,0,0,0,0,0,0,0,0,0,-1,888,1373,0,0
-329,-349,0,0,0,0,0,0,0,0,0,-1,895,1373,0,0
-322,-349,0,0,0,0,0,0,0,0,0,-1,902,1373,0,0
-315,-349,0,0,0,0,0,0,0,0,0,-1,909,1373,0,0
-308,-349,0,0,0,0,0,0,0,0,0,-1,916,1373,0,0
-301,-349,0,0,0,0,0,0,0,0,0,-1,923,1373,0,0
-294,-349,0,0,0,0,0,0,0,0,0,-1,930,1373,0,0
-287,-349,0,0,0,0,0,0,0,0,0,-1,937,1373,0,0
-280,-349,0,0,0,0,0,0,0,0,0,-1,944,1373,0,0
-273,-349,0,0,0,0,0,0,0,0,0,-1,951,1373,0,0
-266,-349,0,0,0,0,0,0,0,0,0,-1,958,1373,0,0
-259,-349,0,0,0,0,0,0,0,0,0,-1,965,1373,0,0
-252,-349,0,0,0,0,0,0,0,0,0,-1,972,1373,0,0
-245,-349,0,0,0,0,0,0,0,0,0,-1,979,1373,0,0
-238,-349,0,0,0,0,0,0,0,0,0,-1,986,1373,0,0
-231,-349,0,0,0,0,0,0,0,0,0,-1,993,1373,0,0
-224,-349,0,0,0,0,0,0,0,0,0,-1,1000,1373,0,0
-217,-349,0,0,0,0,0,0,0,0,0,-1,1007,1373,0,0
-210,-349,0,0,0,0,0,0,0,0,0,-1,1014,1373,0,0
-203,-349,0,0,0,0,0,0,0,0,0,-1,1021,1373,0,0
-196,-349,0,0,0,0,0,0,0,0,0,-1,1028,1373,0,0
-189,-349,0,0,0,0,0,0,0,0,0,-1,1035,1373,0,0
-182,-349,0,0,0,0,0,0,0,0,0,-1,1042,1373,0,0
-175,-349,0,0,0,0,0,0,0,0,0,-1,1049,1373,0,0
-168,-349,0,0,0,0,0,0,0,0,0,-1,1056,1373,0,0
-161,-349,0,0,0,0,0,0,0,0,0,-1,1063,1373,0,0
-154,-349,0,0,0,0,0,0,0,0,0,-1,1070,1373,0,0
-147,-349,0,0,0,0,0,0,0,0,0,-1,1077,1373,0,0
-140,-349,0,0,0,0,0,0,0,0,0,-1,1084,1373,0,0
-133,-349,0,0,0,0,0,0,0,0,0,-1,1091,1373,0,0
-126,-349,0,0,0,0,0,0,0,0,0,-1,1098,1373,0,0
-119,-349,0,0,0,0,0,0,0,0,0,-1,1105,1373,0,0
-112,-349,0,0,0,0,0,0,0,0,0,-1,1112,1373,0,0
-105,-349,0,0,0,0,0,0,0,0,0,-1,1119,1373,0,0
-98,-349,0,0,0,0,0,0,0,0,0,-1,1126,1373,0,0
-91,-349,0,0,0,0,0,0,0,0,0,-1,1133,1373,0,0
-84,-349,0,0,0,0,0,0,0,0,0,-1,1140,1373,0,0
-77,-349,0,0,0,0,0,0,0,0,0,-1,1147,1373,0,0
-70,-349,0,0,0,0,0,0,0,0,0,-1,1154,1373,0,0
-63,-349,0,0,0,0,0,0,0,0,0,-1,1161,1373,0,0
-56,-349,0,0,0,0,0,0,0,0,0,-1,1168,1373,0,0
-49,-349,0,0,0,0,0,0,0,0,0,-1,1175,1373,0,0
-42,-349,0,0,0,0,0,0,0,0,0,-1,1182,1373,0,0
-35,-349,0,0,0,0,0,0,0,0,0,-1,1189,1373,0,0
-28,-349,0,0,0,0,0,0,0,0,0,-1,1196,1373,0,0
-21,-349,0,0,0,0,0,0,0,0,0,-1,1203,1373,0,0
-14,-349,0,0,0,0,0,0,0,0,0,-1,1210,1373,0,0
-7,-349,0,0,0,0,0,0,0,0,0,-1,1217,1373,0,0
0,-349,0,0,0,0,0,0,0,0,0,-1,1224,1373,0,0
7,-349,0,0,0,0,0,0,0,0,0,-1,1231,1373,0,0
14,-349,0,0,0,0,0,0,0,0,0,-1,1238,1373,0,0
21,-349,0,0,0,0,0,0,0,0,0,-1,1245,1373,0,0
28,-349,0,0,0,0,0,0,0,0,0,-1,1252,1373,0,0
35,-349,0,0,0,0,0,0,0,0,0,-1,1259,1373,0,0
42,-349,0,0,0,0,0,0,0,0,0,-1,1266,1373,0,0
49,-349,0,0,0,0,0,0,0,0,0,-1,1273,1373,0,0
56,-349,0,0,0,0,0,0,0,0,0,-1,1280,1373,0,0
63,-349,0,0,0,0,0,0,0,0,0,-1,1287,1373,0,0
70,-349,0,0,0,0,0,0,0,0,0,-1,1294,1373,0,0
77,-349,0,0,0,0,0,0,0,0,0,-1,1301,1373,0,0
84,-349,0,0,0,0,0,0,0,0,0,-1,1308,1373,0,0
91,-349,0,0,0,0,0,0,0,0,0,-1,1315,1373,0,0
98,-349,0,0,0,0,0,0,0,0,0,-1,1322,1373,0,0
105,-349,0,0,0,0,0,0,0,0,0,-1,1329,1373,0,0
112,-349,0,0,0,0,0,0,0,0,0,-1,1336,1373,0,0
119,-349,0,0,0,0,0,0,0,0,0,-1,1343,1373,0,0
126,-349,0,0,0,0,0,0,0,0,0,-1,1350,1373,0,0
133,-349,0,0,0,0,0,0,0,0,0,-1,1357,1373,0,0
140,-349,0,0,0,0,0,0,0,0,0,-1,1364,1373,0,0
147,-349,0,0,0,0,0,0,0,0,0,-1,1371,1373,0,0
154,-349,0,0,0,0,0,0,0,0,0,-1,1378,1373,0,0
161,-349,0,0,0,0,0,0,0,0,0,-1,1385,1373,0,0
168,-349,0,0,0,0,0,0,0,0,0,-1,1392,1373,0,0
175,-349,0,0,0,0,0,0,0,0,0,-1,1399,1373,0,0
182,-349,0,0,0,0,0,0,0,0,0,-1,1406,1373,0,0
189,-349,0,0,0,0,0,0,0,0,0,-1,1413,1373,0,0
196,-349,0,0,0,0,0,0,0,0,0,-1,1420,1373,0,0
203,-349,0,0,0,0,0,0,0,0,0,-1,1427,1373,0,0
210,-349,0,0,0,0,0,0,0,0,0,-1,1434,1373,0,0
217,-349,0,0,0,0,0,0,0,0,0,-1,1441,1373,0,0
224,-349,0,0,0,0,0,0,0,0,0,-1,1448,1373,0,0
231,-349,0,0,0,0,0,0,0,0,0,-1,1455,1373,0,0
238,-349,0,0,0,0,0,0,0,0,0,-1,1462,1373,0,0
245,-349,0,0,0,0,0,0,0,0,0,-1,1469,1373,0,0
252,-349,0,0,0,0,0,0,0,0,0,-1,1476,1373,0,0
259,-349,0,0,0,0,0,0,0,0,0,-1,1483,1373,0,0
266,-349,0,0,0,0,0,0,0,0,0,-1,1490,1373,0,0
273,-349,0,0,0,0,0,0,0,0,0,-1,1497,1373,0,0
280,-349,0,0,0,0,0,0,0,0,0,-1,1504,1373,0,0
287,-349,0,0,0,0,0,0,0,0,0,-1,1511,1373,0,0
294,-349,0,0,0,0,0,0,0,0,0,-1,1518,1373,0,0
301,-349,0,0,0,0,0,0,0,0,0,-1,1525,1373,0,0
308,-349,0,0,0,0,0,0,0,0,0,-1,1532,1373,0,0
315,-349,0,0,0,0,0,0,0,0,0,-1,1539,1373,0,0
322,-349,0,0,0,0,0,0,0,0,0,-1,1546,1373,0,0
329,-349,0,0,0,0,0,0,0,0,0,-1,1553,1373,0,0
336,-349,0,0,0,0,0,0,0,0,0,-1,1560,1373,0,0
343,-349,0,0,0,0,0,0,0,0,0,-1,1567,1373,0,0
350,-349,0,0,0,0,0,0,0,0,0,-1,1574,1373,0,0
357,-349,0,0,0,0,0,0,0,0,0,-1,1581,1373,0,0
364,-349,0,0,0,0,0,0,0,0,0,-1,1588,1373,0,0
371,-349,0,0,0,0,0,0,0,0,0,-1,1595,1373,0,0
378,-349,0,0,0,0,0,0,0,0,0,-1,1602,1373,0,0
385,-349,0,0,0,0,0,0,0,0,0,-1,1609,1373,0,0
392,-349,0,0,0,0,0,0,0,0,0,-1,1616,1373,0,0
399,-349,0,0,0,0,0,0,0,0,0,-1,1623,1373,0,0
406,-349,0,0,0,0,0,0,0,0,0,-1,1630,1373,0,0
413,-349,0,0,0,0,0,0,0,0,0,-1,1637,1373,0,0
420,-349,0,0,0,0,0,0,0,0,0,-1,1644,1373,0,0
427,-349,0,0,0,0,0,0,0,0,0,-1,1651,1373,0,0
434,-349,0,0,0,0,0,0,0,0,0,-1,1658,1373,0,0
441,-349,0,0,0,0,0,0,0,0,0,-1,1665,1373,0,0
448,-349,0,0,0,0,0,0,0,0,0,-1,1672,1373,0,0
455,-349,0,0,0,0,0,0,0,0,0,-1,1679,1373,0,0
462,-349,0,0,0,0,0,0,0,0,0,-1,1686,1373,0,0
469,-349,0,0,0,0,0,0,0,0,0,-1,1693,1373,0,0
476,-349,0,0,0,0,0,0,0,0,0,-1,1700,1373,0,0
483,-349,0,0,0,0,0,0,0,0,0,-1,1707,1373,0,0
490,-349,0,0,0,0,0,0,0,0,0,-1,1714,1373,0,0
497,-349,0,0,0,0,0,0,0,0,0,-1,1721,1373,0,0
504,-349,0,0,0,0,0,0,0,0,0,-1,1728,1373,0,0
511,-349,0,0,0,0,0,0,0,0,0,-1,1735,1373,0,0
518,-349,0,0,0,0,0,0,0,0,0,-1,1742,1373,0,0
525,-349,0,0,0,0,0,0,0,0,0,-1,1749,1373,0,0
532,-349,0,0,0,0,0,0,0,0,0,-1,1756,1373,0,0
539,-349,0,0,0,0,0,0,0,0,0,-1,1763,1373,0,0
546,-349,0,0,0,0,0,0,0,0,0,-1,1770,1373,0,0
553,-349,0,0,0,0,0,0,0,0,0,-1,1777,1373,0,0
560,-349,-0.876709,-0.90979,-0.0306746,0.0624756,-0.0405434,0.0776501,-0.0458491,-1.21266,0.0720859,0.0446845,1784,1373,-0.876763,0.909836
567,-349,-1.19482,-0.807251,-0.0201044,0.054571,-0.0306721,0.0655538,-0.0310873,-1.22695,0.0569663,0.0440804,1791,1373,-1.19487,0.807237
574,-349,-1.46179,-0.778564,-0.0128224,0.0471376,-0.0214451,0.0540181,-0.0197028,-1.26033,0.044073,0.0459758,1798,1373,-1.46173,0.77852
581,-349,-1.53564,-0.786011,-0.00680242,0.03958,-0.013459,0.0432025,-0.0104249,-1.30787,0.032833,0.0429405,1805,1373,-1.53564,0.785952
588,-349,-2.09973,-1.48193,-0.00223165,0.0323126,-0.00682526,0.0336123,-0.00353129,-1.38263,0.0236732,0.0415758,1812,1373,-2.09973,1.48199
595,-349,-2.48462,-1.72571,0,0,0,0,0,0,0,-1,1819,1373,-2.48458,1.72575
602,-349,0.291138,-0.142822,0.00258011,0.0193298,0.00171573,0.0195038,0.00240617,1.46976,0.0122793,0.0429027,1826,1373,0.291181,0.142806
609,-349,0.419556,-0.211304,0.00336705,0.0137712,0.00420728,0.0152596,0.00187863,1.23076,0.0096083,0.041399,1833,1373,0.419558,0.211271
616,-349,0.722656,0.849365,0.00402066,0.00853536,0.00534387,0.0120791,0.00047693,0.985239,0.00789855,0.0420553,1840,1373,0.722672,-0.84936
623,-349,0.818237,1.0813,0,0,0,0,0,0,0,-1,1847,1373,0.818183,-1.08124
630,-349,0.769043,1.21179,0,0,0,0,0,0,0,-1,1854,1373,0.769007,-1.2118
637,-349,-0.0675049,-0.0606689,0.00323569,0.000146056,0.00545664,0.00736197,-0.00398023,0.647454,0.00664473,0.0360728,1861,1373,-0.067555,0.0606726
644,-349,0.000488281,0.067627,0.00197021,-0.000412934,0.00489686,0.00581839,-0.00426111,0.66605,0.00584251,0.0216869,1868,1373,0.000473721,-0.0676069
651,-349,-0.0296631,0.0352783,0.00106296,-0.00187725,0.00279091,0.00274727,-0.00356157,0.54299,0.00365251,0.0186576,1875,1373,-0.0297225,-0.0353197
658,-349,-0.0349121,0.0249023,0.000783806,-0.00227533,0.00179129,0.00160972,-0.00310125,0.432024,0.00276495,0.0222465,1882,1373,-0.0348639,-0.0248759
665,-349,-0.0249023,0.0192871,0.000571312,-0.00199271,0.000982308,0.00090438,-0.00232578,0.326902,0.00192418,0.0178156,1889,1373,-0.024904,-0.0192897
672,-349,-0.0402832,0.0311279,0.000358702,-0.00176476,0.000404896,0.000433287,-0.00183935,0.182165,0.0013933,0.01357,1896,1373,-0.0403181,-0.031159
679,-349,-0.043457,0.0350342,2.5255e-06,-0.00118535,0.000477501,0.00017067,-0.00135349,0.338575,0.000964268,0.0119046,1903,1373,-0.0434669,-0.0350586
686,-349,-0.0297852,0.0493164,-0.000552516,-0.000875822,0.000566029,-0.000125509,-0.00130283,0.646305,0.000829886,0.0100999,1910,1373,-0.0298212,-0.0493608
693,-349,-0.0253906,0.0321045,-0.000883824,-0.000835468,0.000674447,-0.000184766,-0.00153453,0.803315,0.000967329,0.0125487,1917,1373,-0.0254502,-0.032141
700,-349,-0.024292,0.0284424,-0.00133244,-0.000981919,0.000887958,-0.000252091,-0.00206227,0.882832,0.00129899,0.0149143,1924,1373,-0.0242987,-0.0283893
707,-349,-0.0290527,0.0323486,-0.00161803,-0.00128639,0.0012848,-0.00015675,-0.00274766,0.849574,0.00178182,0.0143298,1931,1373,-0.0290867,-0.0323455
714,-349,-0.0424805,-0.00488281,-0.00178679,-0.00142937,0.00195426,0.000354332,-0.00357049,0.830995,0.0025068,0.016776,1938,1373,-0.0425352,0.0049326
721,-349,0.0203857,-0.036377,-0.00179432,-0.00162512,0.00288773,0.00117925,-0.00459869,0.800043,0.00352525,0.035284,1945,1373,0.0203669,0.0363975
728,-349,-0.0710449,0.0849609,-0.00141273,-0.00166405,0.00413132,0.00259484,-0.00567163,0.770195,0.0048816,0.0459854,1952,1373,-0.0710684,-0.0849592
735,-349,-0.23584,0.0168457,-0.000440818,-0.00110417,0.00584083,0.00507774,-0.00662273,0.757036,0.00677487,0.0456741,1959,1373,-0.235819,-0.0168354
742,-349,0.0465088,0.153809,0,0,0,0,0,0,0,-1,1966,1373,0.0464641,-0.153816
749,-349,0.744995,0.325684,0,0,0,0,0,0,0,-1,1973,1373,0.744994,-0.325676
756,-349,0,0,0,0,0,0,0,0,0,-1,1980,1373,0,0
763,-349,0,0,0,0,0,0,0,0,0,-1,1987,1373,0,0
770,-349,0,0,0,0,0,0,0,0,0,-1,1994,1373,0,0
777,-349,0,0,0,0,0,0,0,0,0,-1,2001,1373,0,0
784,-349,0,0,0,0,0,0,0,0,0,-1,2008,1373,0,0
791,-349,0,0,0,0,0,0,0,0,0,-1,2015,1373,0,0
798,-349,0,0,0,0,0,0,0,0,0,-1,2022,1373,0,0
805,-349,0,0,0,0,0,0,0,0,0,-1,2029,1373,0,0
812,-349,0,0,0,0,0,0,0,0,0,-1,2036,1373,0,0
-700,-356,0,0,0,0,0,0,0,0,0,-1,524,1380,0,0
-693,-356,0,0,0,0,0,0,0,0,0,-1,531,1380,0,0
-686,-356,0,0,0,0,0,0,0,0,0,-1,538,1380,0,0
-679,-356,0,0,0,0,0,0,0,0,0,-1,545,1380,0,0
-672,-356,0,0,0,0,0,0,0,0,0,-1,552,1380,0,0
-665,-356,0,0,0,0,0,0,0,0,0,-1,559,1380,0,0
-658,-356,0,0,0,0,0,0,0,0,0,-1,566,1380,0,0
-651,-356,0,0,0,0,0,0,0,0,0,-1,573,1380,0,0
-644,-356,0,0,0,0,0,0,0,0,0,-1,580,1380,0,0
-637,-356,0,0,0,0,0,0,0,0,0,-1,587,1380,0,0
-630,-356,-0.638672,1.57446,0,0,0,0,0,0,0,-1,594,1380,-0.638682,-1.57443
-623,-356,-0.508179,1.29077,0,0,0,0,0,0,0,-1,601,1380,-0.508184,-1.29073
-616,-356,0.169678,-0.79541,0,0,0,0,0,0,0,-1,608,1380,0.169694,0.795438
-609,-356,-0.0414429,-0.438232,-0.00659628,0.0184573,0.00389188,0.019048,-0.00718693,1.42018,0.0156542,0.0467839,615,1380,-0.041462,0.4382
-602,-356,-0.0870361,0.509888,-0.00321878,0.0124033,0.00312142,0.0130039,-0.00381938,1.38071,0.010184,0.0471479,622,1380,-0.087023,-0.509938
-595,-356,-0.0164185,0.798706,-0.00118133,0.00813983,0.00239512,0.00871925,-0.00176076,1.33344,0.00647999,0.0450847,629,1380,-0.0164019,-0.798751
-588,-356,0.0337524,0.220703,-0.000122803,0.00524415,0.00179162,0.00578727,-0.000665925,1.27646,0.00409823,0.0429835,636,1380,0.033735,-0.220753
-581,-356,-0.00384521,-0.013916,0.000520708,0.00314432,0.00124471,0.00364087,2.41596e-05,1.19122,0.00241923,0.0319045,643,1380,-0.00385466,0.0138809
-574,-356,-0.00286865,-0.000732422,0.000792312,0.00165671,0.000908631,0.00223069,0.000218326,1.00739,0.00141996,0.0182638,650,1380,-0.0028882,0.000783453
-567,-356,-0.0180664,0.0479736,0.000839942,0.000788689,0.000692963,0.00150775,0.000120879,0.766916,0.000967396,0.0154473,657,1380,-0.0180589,-0.0480226
-560,-356,-0.010498,0.0527344,0.000387754,0.000624577,0.00078719,0.00130221,-0.00028988,0.86005,0.000979177,0.0162761,664,1380,-0.0104872,-0.052748
-553,-356,-0.00152588,0.0351563,0.000190502,0.000577431,0.000361318,0.000793819,-2.58863e-05,1.0312,0.000538049,0.018418,671,1380,-0.00153221,-0.0351931
-546,-356,-0.0263672,0.0201416,-0.000681735,0.000987842,0.000125549,0.000997231,-0.000691123,1.49616,0.000980098,0.0196089,678,1380,-0.0263624,-0.0202002
-539,-356,-0.0177002,0.0388184,-0.00170558,0.00190219,0.000344293,0.00193475,-0.00173815,1.4765,0.00212156,0.0138867,685,1380,-0.0177058,-0.0388186
-532,-356,-0.0465088,0.057373,-0.00208634,0.00261329,0.000540405,0.00267463,-0.00214768,1.45777,0.0027897,0.0138238,692,1380,-0.0465135,-0.0573337
-525,-356,-0.0484009,0.0645752,-0.00253864,0.0030789,0.000457091,0.00311585,-0.00257559,1.49013,0.00329089,0.0113411,699,1380,-0.0483709,-0.0645486
-518,-356,-0.0339966,0.0686035,-0.00326904,0.00395468,-0.00018524,0.00395943,-0.00327378,-1.54518,0.00418235,0.00970575,706,1380,-0.0339809,-0.0686596
-511,-356,-0.0231934,0.0421143,-0.00418569,0.0047541,-0.000821109,0.00482889,-0.00426048,-1.47996,0.00525117,0.0136646,713,1380,-0.0232019,-0.0421535
-504,-356,0.0402832,-0.00964355,-0.00525234,0.00546786,-0.0013403,0.00563289,-0.00541737,-1.44828,0.00638028,0.0258244,720,1380,0.0403071,0.00968907
-497,-356,-0.053833,0.0161133,-0.00627712,0.00566897,-0.00216905,0.00605061,-0.00665876,-1.39663,0.00734056,0.0407101,727,1380,-0.0538623,-0.0161638
-490,-356,-0.261719,0.079834,-0.00745308,0.00626477,-0.00319427,0.0069721,-0.00816042,-1.35288,0.00874574,0.0459536,734,1380,-0.2617,-0.0797965
-483,-356,-0.209961,-0.0823975,-0.00905013,0.00624377,-0.00390101,0.00718132,-0.00998769,-1.33493,0.00995658,0.045908,741,1380,-0.209967,0.0823496
-476,-356,-0.0200806,-0.305298,-0.0106651,0.00620824,-0.00508627,0.00762284,-0.0120797,-1.29953,0.0114719,0.0440643,748,1380,-0.0200876,0.305295
-469,-356,0.2854,-0.620239,0,0,0,0,0,0,0,-1,755,1380,0.285408,0.620296
-462,-356,0.10968,-0.743408,-0.0151404,0.00526574,-0.00777374,0.00788973,-0.0177644,-1.24526,0.0151727,0.0456328,762,1380,0.109677,0.743362
-455,-356,-0.123718,-0.7146,-0.0182006,0.00433596,-0.00900511,0.00749217,-0.0213568,-1.23368,0.0172852,0.0457764,769,1380,-0.123733,0.714641
-448,-356,-0.00708008,-0.650146,-0.0221115,0.00306176,-0.0102159,0.00668588,-0.0257357,-1.22989,0.0197663,0.0460034,776,1380,-0.00705714,0.650184
-441,-356,0.137024,-0.478149,0,0,0,0,0,0,0,-1,783,1380,0.137021,0.478193
-434,-356,0,0,0,0,0,0,0,0,0,-1,790,1380,0,0
-427,-356,0,0,0,0,0,0,0,0,0,-1,797,1380,0,0
-420,-356,0,0,0,0,0,0,0,0,0,-1,804,1380,0,0
-413,-356,0,0,0,0,0,0,0,0,0,-1,811,1380,0,0
-406,-356,0,0,0,0,0,0,0,0,0,-1,818,1380,0,0
-399,-356,0,0,0,0,0,0,0,0,0,-1,825,1380,0,0
-392,-356,0,0,0,0,0,0,0,0,0,-1,832,1380,0,0
-385,-356,0,0,0,0,0,0,0,0,0,-1,839,1380,0,0
-378,-356,0,0,0,0,0,0,0,0,0,-1,846,1380,0,0
-371,-356,0,0,0,0,0,0,0,0,0,-1,853,1380,0,0
-364,-356,0,0,0,0,0,0,0,0,0,-1,860,1380,0,0
-357,-356,0,0,0,0,0,0,0,0,0,-1,867,1380,0,0
-350,-356,0,0,0,0,0,0,0,0,0,-1,874,1380,0,0
-343,-356,0,0,0,0,0,0,0,0,0,-1,881,1380,0,0
-336,-356,0,0,0,0,0,0,0,0,0,-1,888,1380,0,0
-329,-356,0,0,0,0,0,0,0,0,0,-1,895,1380,0,0
-322,-356,0,0,0,0,0,0,0,0,0,-1,902,1380,0,0
-315,-356,0,0,0,0,0,0,0,0,0,-1,909,1380,0,0
-308,-356,0,0,0,0,0,0,0,0,0,-1,916,1380,0,0
-301,-356,0,0,0,0,0,0,0,0,0,-1,923,1380,0,0
-294,-356,0,0,0,0,0,0,0,0,0,-1,930,1380,0,0
-287,-356,0,0,0,0,0,0,0,0,0,-1,937,1380,0,0
-280,-356,0,0,0,0,0,0,0,0,0,-1,944,1380,0,0
-273,-356,0,0,0,0,0,0,0,0,0,-1,951,1380,0,0
-266,-356,0,0,0,0,0,0,0,0,0,-1,958,1380,0,0
-259,-356,0,0,0,0,0,0,0,0,0,-1,965,1380,0,0
-252,-356,0,0,0,0,0,0,0,0,0,-1,972,1380,0,0
-245,-356,0,0,0,0,0,0,0,0,0,-1,979,1380,0,0
-238,-356,0,0,0,0,0,0,0,0,0,-1,986,1380,0,0
-231,-356,0,0,0,0,0,0,0,0,0,-1,993,1380,0,0
-224,-356,0,0,0,0,0,0,0,0,0,-1,1000,1380,0,0
-217,-356,0,0,0,0,0,0,0,0,0,-1,1007,1380,0,0
-210,-356,0,0,0,0,0,0,0,0,0,-1,1014,1380,0,0
-203,-356,0,0,0,0,0,0,0,0,0,-1,1021,1380,0,0
-196,-356,0,0,0,0,0,0,0,0,0,-1,1028,1380,0,0
-189,-356,0,0,0,0,0,0,0,0,0,-1,1035,1380,0,0
-182,-356,0,0,0,0,0,0,0,0,0,-1,1042,1380,0,0
-175,-356,0,0,0,0,0,0,0,0,0,-1,1049,1380,0,0
-168,-356,0,0,0,0,0,0,0,0,0,-1,1056,1380,0,0
-161,-356,0,0,0,0,0,0,0,0,0,-1,1063,1380,0,0
-154,-356,0,0,0,0,0,0,0,0,0,-1,1070,1380,0,0
-147,-356,0,0,0,0,0,0,0,0,0,-1,1077,1380,0,0
-140,-356,0,0,0,0,0,0,0,0,0,-1,1084,1380,0,0
-133,-356,0,0,0,0,0,0,0,0,0,-1,1091,1380,0,0
-126,-356,0,0,0,0,0,0,0,0,0,-1,1098,1380,0,0
-119,-356,0,0,0,0,0,0,0,0,0,-1,1105,1380,0,0
-112,-356,0,0,0,0,0,0,0,0,0,-1,1112,1380,0,0
-105,-356,0,0,0,0,0,0,0,0,0,-1,1119,1380,0,0
-98,-356,0,0,0,0,0,0,0,0,0,-1,1126,1380,0,0
-91,-356,0,0,0,0,0,0,0,0,0,-1,1133,1380,0,0
-84,-356,0,0,0,0,0,0,0,0,0,-1,1140,1380,0,0
-77,-356,0,0,0,0,0,0,0,0,0,-1,1147,1380,0,0
-70,-356,0,0,0,0,0,0,0,0,0,-1,1154,1380,0,0
-63,-356,0,0,0,0,0,0,0,0,0,-1,1161,1380,0,0
-56,-356,0,0,0,0,0,0,0,0,0,-1,1168,1380,0,0
-49,-356,0,0,0,0,0,0,0,0,0,-1,1175,1380,0,0
-42,-356,0,0,0,0,0,0,0,0,0,-1,1182,1380,0,0
-35,-356,0,0,0,0,0,0,0,0,0,-1,1189,1380,0,0
-28,-356,0,0,0,0,0,0,0,0,0,-1,1196,1380,0,0
-21,-356,0,0,0,0,0,0,0,0,0,-1,1203,1380,0,0
-14,-356,0,0,0,0,0,0,0,0,0,-1,1210,1380,0,0
-7,-356,0,0,0,0,0,0,0,0,0,-1,1217,1380,0,0
0,-356,0,0,0,0,0,0,0,0,0,-1,1224,1380,0,0
7,-356,0,0,0,0,0,0,0,0,0,-1,1231,1380,0,0
14,-356,0,0,0,0,0,0,0,0,0,-1,1238,1380,0,0
21,-356,0,0,0,0,0,0,0,0,0,-1,1245,1380,0,0
28,-356,0,0,0,0,0,0,0,0,0,-1,1252,1380,0,0
35,-356,0,0,0,0,0,0,0,0,0,-1,1259,1380,0,0
42,-356,0,0,0,0,0,0,0,0,0,-1,1266,1380,0,0
49,-356,0,0,0,0,0,0,0,0,0,-1,1273,1380,0,0
56,-356,0,0,0,0,0,0,0,0,0,-1,1280,1380,0,0
63,-356,0,0,0,0,0,0,0,0,0,-1,1287,1380,0,0
70,-356,0,0,0,0,0,0,0,0,0,-1,1294,1380,0,0
77,-356,0,0,0,0,0,0,0,0,0,-1,1301,1380,0,0
84,-356,0,0,0,0,0,0,0,0,0,-1,1308,1380,0,0
91,-356,0,0,0,0,0,0,0,0,0,-1,1315,1380,0,0
98,-356,0,0,0,0,0,0,0,0,0,-1,1322,1380,0,0
105,-356,0,0,0,0,0,0,0,0,0,-1,1329,1380,0,0
112,-356,0,0,0,0,0,0,0,0,0,-1,1336,1380,0,0
119,-356,0,0,0,0,0,0,0,0,0,-1,1343,1380,0,0
126,-356,0,0,0,0,0,0,0,0,0,-1,1350,1380,0,0
133,-356,0,0,0,0,0,0,0,0,0,-1,1357,1380,0,0
140,-356,0,0,0,0,0,0,0,0,0,-1,1364,1380,0,0
147,-356,0,0,0,0,0,0,0,0,0,-1,1371,1380,0,0
154,-356,0,0,0,0,0,0,0,0,0,-1,1378,1380,0,0
161,-356,0,0,0,0,0,0,0,0,0,-1,1385,1380,0,0
168,-356,0,0,0,0,0,0,0,0,0,-1,1392,1380,0,0
175,-356,0,0,0,0,0,0,0,0,0,-1,1399,1380,0,0
182,-356,0,0,0,0,0,0,0,0,0,-1,1406,1380,0,0
189,-356,0,0,0,0,0,0,0,0,0,-1,1413,1380,0,0
196,-356,0,0,0,0,0,0,0,0,0,-1,1420,1380,0,0
203,-356,0,0,0,0,0,0,0,0,0,-1,1427,1380,0,0
210,-356,0,0,0,0,0,0,0,0,0,-1,1434,1380,0,0
217,-356,0,0,0,0,0,0,0,0,0,-1,1441,1380,0,0
224,-356,0,0,0,0,0,0,0,0,0,-1,1448,1380,0,0
231,-356,0,0,0,0,0,0,0,0,0,-1,1455,1380,0,0
238,-356,0,0,0,0,0,0,0,0,0,-1,1462,1380,0,0
245,-356,0,0,0,0,0,0,0,0,0,-1,1469,1380,0,0
252,-356,0,0,0,0,0,0,0,0,0,-1,1476,1380,0,0
259,-356,0,0,0,0,0,0,0,0,0,-1,1483,1380,0,0
266,-356,0,0,0,0,0,0,0,0,0,-1,1490,1380,0,0
273,-356,0,0,0,0,0,0,0,0,0,-1,1497,1380,0,0
280,-356,0,0,0,0,0,0,0,0,0,-1,1504,1380,0,0
287,-356,0,0,0,0,0,0,0,0,0,-1,1511,1380,0,0
294,-356,0,0,0,0,0,0,0,0,0,-1,1518,1380,0,0
301,-356,0,0,0,0,0,0,0,0,0,-1,1525,1380,0,0
308,-356,0,0,0,0,0,0,0,0,0,-1,1532,1380,0,0
315,-356,0,0,0,0,0,0,0,0,0,-1,1539,1380,0,0
322,-356,0,0,0,0,0,0,0,0,0,-1,1546,1380,0,0
329,-356,0,0,0,0,0,0,0,0,0,-1,1553,1380,0,0
336,-356,0,0,0,0,0,0,0,0,0,-1,1560,1380,0,0
343,-356,0,0,0,0,0,0,0,0,0,-1,1567,1380,0,0
350,-356,0,0,0,0,0,0,0,0,0,-1,1574,1380,0,0
357,-356,0,0,0,0,0,0,0,0,0,-1,1581,1380,0,0
364,-356,0,0,0,0,0,0,0,0,0,-1,1588,1380,0,0
371,-356,0,0,0,0,0,0,0,0,0,-1,1595,1380,0,0
378,-356,0,0,0,0,0,0,0,0,0,-1,1602,1380,0,0
385,-356,0,0,0,0,0,0,0,0,0,-1,1609,1380,0,0
392,-356,0,0,0,0,0,0,0,0,0,-1,1616,1380,0,0
399,-356,0,0,0,0,0,0,0,0,0,-1,1623,1380,0,0
406,-356,0,0,0,0,0,0,0,0,0,-1,1630,1380,0,0
413,-356,0,0,0,0,0,0,0,0,0,-1,1637,1380,0,0
420,-356,0,0,0,0,0,0,0,0,0,-1,1644,1380,0,0
427,-356,0,0,0,0,0,0,0,0,0,-1,1651,1380,0,0
434,-356,0,0,0,0,0,0,0,0,0,-1,1658,1380,0,0
441,-356,0,0,0,0,0,0,0,0,0,-1,1665,1380,0,0
448,-356,0,0,0,0,0,0,0,0,0,-1,1672,1380,0,0
455,-356,0,0,0,0,0,0,0,0,0,-1,1679,1380,0,0
462,-356,0,0,0,0,0,0,0,0,0,-1,1686,1380,0,0
469,-356,0,0,0,0,0,0,0,0,0,-1,1693,1380,0,0
476,-356,0,0,0,0,0,0,0,0,0,-1,1700,1380,0,0
483,-356,0,0,0,0,0,0,0,0,0,-1,1707,1380,0,0
490,-356,0,0,0,0,0,0,0,0,0,-1,1714,1380,0,0
497,-356,0,0,0,0,0,0,0,0,0,-1,1721,1380,0,0
504,-356,0,0,0,0,0,0,0,0,0,-1,1728,1380,0,0
511,-356,0,0,0,0,0,0,0,0,0,-1,1735,1380,0,0
518,-356,0,0,0,0,0,0,0,0,0,-1,1742,1380,0,0
525,-356,0,0,0,0,0,0,0,0,0,-1,1749,1380,0,0
532,-356,0,0,0,0,0,0,0,0,0,-1,1756,1380,0,0
539,-356,0,0,0,0,0,0,0,0,0,-1,1763,1380,0,0
546,-356,0,0,0,0,0,0,0,0,0,-1,1770,1380,0,0
553,-356,0,0,0,0,0,0,0,0,0,-1,1777,1380,0,0
560,-356,0.285645,-1.15991,-0.023722,0.0510122,-0.0222862,0.0571534,-0.0298632,-1.30191,0.051056,0.0477209,1784,1380,0.28562,1.15993
567,-356,-0.0900879,-1.18079,-0.0153021,0.0467345,-0.0167649,0.0509752,-0.0195428,-1.32304,0.0420401,0.0447361,1791,1380,-0.0901422,1.18081
574,-356,-0.359009,-1.22217,-0.00917932,0.041347,-0.0113524,0.0437805,-0.0116128,-1.35963,0.033731,0.0438086,1798,1380,-0.359028,1.22217
581,-356,-0.613281,-1.35059,-0.00414479,0.0351921,-0.00638339,0.036202,-0.00515473,-1.41388,0.0260237,0.041484,1805,1380,-0.613289,1.35059
588,-356,-0.981323,-1.29504,-0.000180941,0.028989,-0.00209388,0.0291385,-0.000330478,-1.4995,0.0195368,0.0424157,1812,1380,-0.981294,1.29505
595,-356,0.66394,0.118042,0.00230703,0.0234803,0.00113385,0.0235409,0.00224648,1.51745,0.0150013,0.0467272,1819,1380,0.663961,-0.117986
602,-356,0.562012,0.140625,0.0037528,0.0176475,0.00353194,0.0184938,0.00290655,1.33563,0.0114836,0.0452232,1826,1380,0.56206,-0.140621
609,-356,0.520508,0.158325,0.00433441,0.0124911,0.0052301,0.015045,0.0017805,1.11654,0.00949233,0.0398849,1833,1380,0.520461,-0.158369
616,-356,0.117188,0.0780029,0.00478511,0.00760326,0.00579039,0.0121536,0.000234816,0.904752,0.00802524,0.0407965,1840,1380,0.117228,-0.0779959
623,-356,-0.0181885,-0.0368652,0.00459513,0.00431559,0.00581287,0.0102699,-0.00135919,0.773378,0.00734173,0.0399292,1847,1380,-0.0181659,0.0369177
630,-356,-0.00805664,0.00280762,0.00385331,0.00157563,0.00570434,0.00853139,-0.00310245,0.686871,0.0069563,0.0314416,1854,1380,-0.00800653,-0.00281243
637,-356,-0.00415039,0.041626,0.00353608,-9.47696e-05,0.00531286,0.00733513,-0.00389381,0.620766,0.00658374,0.018178,1861,1380,-0.00417925,-0.0416008
644,-356,0.00256348,0.0601807,0.0022396,-0.00036154,0.00476057,0.00587405,-0.003996,0.652054,0.00573276,0.0151228,1868,1380,0.00255606,-0.0601922
651,-356,-0.0270996,0.0296631,0.00116366,-0.00163766,0.002663,0.00277189,-0.00324589,0.543295,0.00347796,0.0141961,1875,1380,-0.0271577,-0.0296448
658,-356,-0.0474854,0.0162354,0.000711863,-0.0017865,0.00167012,0.00154829,-0.00262293,0.464301,0.00243475,0.0133425,1882,1380,-0.0474736,-0.0162684
665,-356,-0.0394287,0.038208,0.000482967,-0.00139737,0.000916409,0.000855705,-0.00177011,0.386301,0.00154635,0.0129968,1889,1380,-0.039463,-0.0381734
672,-356,-0.050293,0.0528564,0.000149097,-0.00109939,0.000417531,0.000275861,-0.00122616,0.294759,0.000923232,0.01389,1896,1380,-0.0503444,-0.052796
679,-356,-0.0544434,0.034668,-0.000302691,-0.000566,0.000471726,5.54079e-05,-0.000924099,0.649315,0.000635341,0.0150535,1903,1380,-0.0544991,-0.0346356
686,-356,-0.0501709,0.0355225,-0.00078304,-0.000313119,0.000568038,6.66347e-05,-0.00116279,0.981501,0.000798335,0.0132131,1910,1380,-0.0501315,-0.0355613
693,-356,-0.0197754,0.0374756,-0.00103994,-0.000319826,0.000713878,0.000119657,-0.00147942,1.01897,0.00102849,0.0120327,1917,1380,-0.0198098,-0.0374177
700,-356,-0.0102539,0.0418701,-0.00148235,-0.000559247,0.000964707,4.8636e-05,-0.00209023,1.00852,0.00140998,0.0157145,1924,1380,-0.0102522,-0.0419196
707,-356,-0.0408936,0.0249023,-0.00179962,-0.00100811,0.00139479,4.59821e-05,-0.00285372,0.923635,0.00191799,0.0182828,1931,1380,-0.0408766,-0.0248841
714,-356,-0.0880127,-0.0397949,-0.00197718,-0.00157207,0.00202085,0.000256353,-0.00380561,0.835347,0.00262669,0.0280727,1938,1380,-0.0879743,0.0397542
721,-356,-0.00500488,-0.0148926,-0.00192609,-0.00242139,0.00281996,0.000657077,-0.00500456,0.741601,0.00357558,0.0382869,1945,1380,-0.00504363,0.0148464
728,-356,-0.397827,-0.125244,-0.00145324,-0.00337473,0.00386757,0.00157113,-0.0063991,0.663657,0.00487491,0.0439747,1952,1380,-0.397784,0.125224
735,-356,-0.177124,-0.0324707,-0.000259888,-0.00427468,0.00521932,0.00332476,-0.00785933,0.601814,0.00663169,0.0465694,1959,1380,-0.177069,0.0325151
742,-356,0.20874,0.202026,0.00208985,-0.00482595,0.00695596,0.00639999,-0.00913609,0.55473,0.00901601,0.0457303,1966,1380,0.208691,-0.201977
749,-356,0.589111,0.39502,0,0,0,0,0,0,0,-1,1973,1380,0.589154,-0.395053
756,-356,0,0,0,0,0,0,0,0,0,-1,1980,1380,0,0
763,-356,0,0,0,0,0,0,0,0,0,-1,1987,1380,0,0
770,-356,0,0,0,0,0,0,0,0,0,-1,1994,1380,0,0
777,-356,0,0,0,0,0,0,0,0,0,-1,2001,1380,0,0
784,-356,0,0,0,0,0,0,0,0,0,-1,2008,1380,0,0
791,-356,0,0,0,0,0,0,0,0,0,-1,2015,1380,0,0
798,-356,0,0,0,0,0,0,0,0,0,-1,2022,1380,0,0
805,-356,0,0,0,0,0,0,0,0,0,-1,2029,1380,0,0
812,-356,0,0,0,0,0,0,0,0,0,-1,2036,1380,0,0
-700,-363,0,0,0,0,0,0,0,0,0,-1,524,1387,0,0
-693,-363,0,0,0,0,0,0,0,0,0,-1,531,1387,0,0
-686,-363,0,0,0,0,0,0,0,0,0,-1,538,1387,0,0
-679,-363,0,0,0,0,0,0,0,0,0,-1,545,1387,0,0
-672,-363,0,0,0,0,0,0,0,0,0,-1,552,1387,0,0
-665,-363,0,0,0,0,0,0,0,0,0,-1,559,1387,0,0
-658,-363,0,0,0,0,0,0,0,0,0,-1,566,1387,0,0
-651,-363,0,0,0,0,0,0,0,0,0,-1,573,1387,0,0
-644,-363,0,0,0,0,0,0,0,0,0,-1,580,1387,0,0
-637,-363,0,0,0,0,0,0,0,0,0,-1,587,1387,0,0
-630,-363,0,0,0,0,0,0,0,0,0,-1,594,1387,0,0
-623,-363,-0.348633,1.11792,0,0,0,0,0,0,0,-1,601,1387,-0.348639,-1.11789
-616,-363,-0.36145,0.612183,0.00096624,0.0234185,0.000915759,0.0234558,0.00092895,1.5301,0.0153369,0.0471808,608,1387,-0.361451,-0.612126
-609,-363,0.255615,-0.644531,0.00423524,0.0159741,0.00106066,0.0160692,0.00414018,1.48141,0.00963396,0.0454883,615,1387,0.255644,0.644525
-602,-363,0.0161743,0.682373,0.00566873,0.0107151,0.00104301,0.0109222,0.00546166,1.37481,0.00630594,0.0475104,622,1387,0.0161687,-0.68232
-595,-363,0.2724,1.02551,0.00581866,0.00709051,0.000977543,0.00762077,0.0052884,1.07377,0.00450884,0.045021,629,1387,0.27238,-1.02547
-588,-363,0.217285,0.240234,0,0,0,0,0,0,0,-1,636,1387,0.217311,-0.240245
-581,-363,0.00488281,0.00598145,0.00433236,0.00291165,0.000819968,0.00470687,0.00253713,0.428452,0.00272027,0.0329715,643,1387,0.00487448,-0.00595845
-574,-363,-0.00463867,0.0205078,0.00338762,0.00165558,0.000786023,0.00369113,0.00135206,0.368507,0.00215632,0.0244701,650,1387,-0.00465774,-0.020479
-567,-363,-0.0317993,0.0412598,0.00250674,0.000902113,0.000753487,0.00280508,0.000603767,0.377013,0.00170482,0.0159312,657,1387,-0.0317982,-0.0412934
-560,-363,-0.0169678,0.022583,0.00149133,0.000652182,0.00098426,0.00214172,1.79943e-06,0.583918,0.00142721,0.0118431,664,1387,-0.0169789,-0.0225461
-553,-363,-0.0447998,0.0462646,0.000897416,0.000569483,0.000573026,0.00132947,0.000137426,0.646051,0.000844243,0.0121882,671,1387,-0.0448073,-0.0463169
-546,-363,-0.0255737,0.0469971,-0.000476631,0.000774384,0.000401271,0.000892031,-0.000594277,1.2856,0.000863841,0.0117619,678,1387,-0.0255493,-0.047029
-539,-363,-0.0152588,0.0456543,-0.00159962,0.00143865,0.000489361,0.00151553,-0.0016765,1.41498,0.0018437,0.0132571,685,1387,-0.0152744,-0.0456615
-532,-363,-0.0205078,0.0561523,-0.00162937,0.00192995,0.000561727,0.0020165,-0.00171592,1.41793,0.00215724,0.0119138,692,1387,-0.0205307,-0.0562011
-525,-363,-0.0258789,0.0562744,-0.00166886,0.00218494,0.000329014,0.00221283,-0.00169675,1.48624,0.00226374,0.0090195,699,1387,-0.0258933,-0.0562929
-518,-363,-0.0302124,0.0516357,-0.00186656,0.00279475,-0.000478882,0.00284344,-0.00191525,-1.46947,0.00276479,0.00776878,706,1387,-0.0302131,-0.051611
-511,-363,-0.0259399,0.0339355,-0.00220638,0.00322202,-0.00118329,0.00346874,-0.0024531,-1.36524,0.0034357,0.0124699,713,1387,-0.0259619,-0.0339934
-504,-363,-0.000671387,0.00622559,-0.0026316,0.00354281,-0.00171126,0.00398538,-0.00307417,-1.31772,0.00408713,0.0186778,720,1387,-0.000690137,-0.00616731
-497,-363,-0.00897217,0.0241699,-0.00290758,0.00334826,-0.00246354,0.00420191,-0.00376123,-1.23723,0.00459987,0.0331479,727,1387,-0.00898613,-0.0242054
-490,-363,-0.152649,0.060791,-0.00334996,0.00379906,-0.00353712,0.0052533,-0.0048042,-1.18073,0.00580863,0.042615,734,1387,-0.152623,-0.060788
-483,-363,-0.174866,-0.010376,-0.00432335,0.00378381,-0.00418905,0.00555944,-0.00609898,-1.16988,0.00673339,0.0425345,741,1387,-0.174862,0.0104033
-476,-363,-0.0336304,0.022583,-0.0052913,0.00389747,-0.00535024,0.00635527,-0.0077491,-1.14017,0.00815641,0.0423942,748,1387,-0.0336553,-0.0225437
-469,-363,0.190796,-0.316406,-0.00686073,0.00382807,-0.00682581,0.00715283,-0.0101855,-1.11753,0.0100612,0.0402614,755,1387,0.190809,0.316384
-462,-363,0.274475,-0.745483,-0.00893527,0.00369788,-0.00799965,0.00757413,-0.0128115,-1.11958,0.0118984,0.0417855,762,1387,0.274476,0.745524
-455,-363,0.0900269,-0.863037,0,0,0,0,0,0,0,-1,769,1387,0.0900123,0.862996
-448,-363,0.0610962,-0.115234,0,0,0,0,0,0,0,-1,776,1387,0.0610851,0.115194
-441,-363,-0.146606,-0.262451,-0.0209182,0.00252132,-0.0118265,0.00745147,-0.0258483,-1.17583,0.0201799,0.0491351,783,1387,-0.146589,0.262429
-434,-363,-0.238831,-0.368042,-0.0280054,0.00117751,-0.0134406,0.00642444,-0.0332523,-1.19861,0.024591,0.0475288,790,1387,-0.23885,0.368015
-427,-363,0,0,0,0,0,0,0,0,0,-1,797,1387,0,0
-420,-363,0,0,0,0,0,0,0,0,0,-1,804,1387,0,0
-413,-363,0,0,0,0,0,0,0,0,0,-1,811,1387,0,0
-406,-363,0,0,0,0,0,0,0,0,0,-1,818,1387,0,0
-399,-363,0,0,0,0,0,0,0,0,0,-1,825,1387,0,0
-392,-363,0,0,0,0,0,0,0,0,0,-1,832,1387,0,0
-385,-363,0,0,0,0,0,0,0,0,0,-1,839,1387,0,0
-378,-363,0,0,0,0,0,0,0,0,0,-1,846,1387,0,0
-371,-363,0,0,0,0,0,0,0,0,0,-1,853,1387,0,0
-364,-363,0,0,0,0,0,0,0,0,0,-1,860,1387,0,0
-357,-363,0,0,0,0,0,0,0,0,0,-1,867,1387,0,0
-350,-363,0,0,0,0,0,0,0,0,0,-1,874,1387,0,0
-343,-363,0,0,0,0,0,0,0,0,0,-1,881,1387,0,0
-336,-363,0,0,0,0,0,0,0,0,0,-1,888,1387,0,0
-329,-363,0,0,0,0,0,0,0,0,0,-1,895,1387,0,0
-322,-363,0,0,0,0,0,0,0,0,0,-1,902,1387,0,0
-315,-363,0,0,0,0,0,0,0,0,0,-1,909,1387,0,0
-308,-363,0,0,0,0,0,0,0,0,0,-1,916,1387,0,0
-301,-363,0,0,0,0,0,0,0,0,0,-1,923,1387,0,0
-294,-363,0,0,0,0,0,0,0,0,0,-1,930,1387,0,0
-287,-363,0,0,0,0,0,0,0,0,0,-1,937,1387,0,0
-280,-363,0,0,0,0,0,0,0,0,0,-1,944,1387,0,0
-273,-363,0,0,0,0,0,0,0,0,0,-1,951,1387,0,0
-266,-363,0,0,0,0,0,0,0,0,0,-1,958,1387,0,0
-259,-363,0,0,0,0,0,0,0,0,0,-1,965,1387,0,0
-252,-363,0,0,0,0,0,0,0,0,0,-1,972,1387,0,0
-245,-363,0,0,0,0,0,0,0,0,0,-1,979,1387,0,0
-238,-363,0,0,0,0,0,0,0,0,0,-1,986,1387,0,0
-231,-363,0,0,0,0,0,0,0,0,0,-1,993,1387,0,0
-224,-363,0,0,0,0,0,0,0,0,0,-1,1000,1387,0,0
-217,-363,0,0,0,0,0,0,0,0,0,-1,1007,1387,0,0
-210,-363,0,0,0,0,0,0,0,0,0,-1,1014,1387,0,0
-203,-363,0,0,0,0,0,0,0,0,0,-1,1021,1387,0,0
-196,-363,0,0,0,0,0,0,0,0,0,-1,1028,1387,0,0
-189,-363,0,0,0,0,0,0,0,0,0,-1,1035,1387,0,0
-182,-363,0,0,0,0,0,0,0,0,0,-1,1042,1387,0,0
-175,-363,0,0,0,0,0,0,0,0,0,-1,1049,1387,0,0
-168,-363,0,0,0,0,0,0,0,0,0,-1,1056,1387,0,0
-161,-363,0,0,0,0,0,0,0,0,0,-1,1063,1387,0,0
-154,-363,0,0,0,0,0,0,0,0,0,-1,1070,1387,0,0
-147,-363,0,0,0,0,0,0,0,0,0,-1,1077,1387,0,0
-140,-363,0,0,0,0,0,0,0,0,0,-1,1084,1387,0,0
-133,-363,0,0,0,0,0,0,0,0,0,-1,1091,1387,0,0
-126,-363,0,0,0,0,0,0,0,0,0,-1,1098,1387,0,0
-119,-363,0,0,0,0,0,0,0,0,0,-1,1105,1387,0,0
-112,-363,0,0,0,0,0,0,0,0,0,-1,1112,1387,0,0
-105,-363,0,0,0,0,0,0,0,0,0,-1,1119,1387,0,0
-98,-363,0,0,0,0,0,0,0,0,0,-1,1126,1387,0,0
-91,-363,0,0,0,0,0,0,0,0,0,-1,1133,1387,0,0
-84,-363,0,0,0,0,0,0,0,0,0,-1,1140,1387,0,0
-77,-363,0,0,0,0,0,0,0,0,0,-1,1147,1387,0,0
-70,-363,0,0,0,0,0,0,0,0,0,-1,1154,1387,0,0
-63,-363,0,0,0,0,0,0,0,0,0,-1,1161,1387,0,0
-56,-363,0,0,0,0,0,0,0,0,0,-1,1168,1387,0,0
-49,-363,0,0,0,0,0,0,0,0,0,-1,1175,1387,0,0
-42,-363,0,0,0,0,0,0,0,0,0,-1,1182,1387,0,0
-35,-363,0,0,0,0,0,0,0,0,0,-1,1189,1387,0,0
-28,-363,0,0,0,0,0,0,0,0,0,-1,1196,1387,0,0
-21,-363,0,0,0,0,0,0,0,0,0,-1,1203,1387,0,0
-14,-363,0,0,0,0,0,0,0,0,0,-1,1210,1387,0,0
-7,-363,0,0,0,0,0,0,0,0,0,-1,1217,1387,0,0
0,-363,0,0,0,0,0,0,0,0,0,-1,1224,1387,0,0
7,-363,0,0,0,0,0,0,0,0,0,-1,1231,1387,0,0
14,-363,0,0,0,0,0,0,0,0,0,-1,1238,1387,0,0
21,-363,0,0,0,0,0,0,0,0,0,-1,1245,1387,0,0
28,-363,0,0,0,0,0,0,0,0,0,-1,1252,1387,0,0
35,-363,0,0,0,0,0,0,0,0,0,-1,1259,1387,0,0
42,-363,0,0,0,0,0,0,0,0,0,-1,1266,1387,0,0
49,-363,0,0,0,0,0,0,0,0,0,-1,1273,1387,0,0
56,-363,0,0,0,0,0,0,0,0,0,-1,1280,1387,0,0
63,-363,0,0,0,0,0,0,0,0,0,-1,1287,1387,0,0
70,-363,0,0,0,0,0,0,0,0,0,-1,1294,1387,0,0
77,-363,0,0,0,0,0,0,0,0,0,-1,1301,1387,0,0
84,-363,0,0,0,0,0,0,0,0,0,-1,1308,1387,0,0
91,-363,0,0,0,0,0,0,0,0,0,-1,1315,1387,0,0
98,-363,0,0,0,0,0,0,0,0,0,-1,1322,1387,0,0
105,-363,0,0,0,0,0,0,0,0,0,-1,1329,1387,0,0
112,-363,0,0,0,0,0,0,0,0,0,-1,1336,1387,0,0
119,-363,0,0,0,0,0,0,0,0,0,-1,1343,1387,0,0
126,-363,0,0,0,0,0,0,0,0,0,-1,1350,1387,0,0
133,-363,0,0,0,0,0,0,0,0,0,-1,1357,1387,0,0
140,-363,0,0,0,0,0,0,0,0,0,-1,1364,1387,0,0
147,-363,0,0,0,0,0,0,0,0,0,-1,1371,1387,0,0
154,-363,0,0,0,0,0,0,0,0,0,-1,1378,1387,0,0
161,-363,0,0,0,0,0,0,0,0,0,-1,1385,1387,0,0
168,-363,0,0,0,0,0,0,0,0,0,-1,1392,1387,0,0
175,-363,0,0,0,0,0,0,0,0,0,-1,1399,1387,0,0
182,-363,0,0,0,0,0,0,0,0,0,-1,1406,1387,0,0
189,-363,0,0,0,0,0,0,0,0,0,-1,1413,1387,0,0
196,-363,0,0,0,0,0,0,0,0,0,-1,1420,1387,0,0
203,-363,0,0,0,0,0,0,0,0,0,-1,1427,1387,0,0
210,-363,0,0,0,0,0,0,0,0,0,-1,1434,1387,0,0
217,-363,0,0,0,0,0,0,0,0,0,-1,1441,1387,0,0
224,-363,0,0,0,0,0,0,0,0,0,-1,1448,1387,0,0
231,-363,0,0,0,0,0,0,0,0,0,-1,1455,1387,0,0
238,-363,0,0,0,0,0,0,0,0,0,-1,1462,1387,0,0
245,-363,0,0,0,0,0,0,0,0,0,-1,1469,1387,0,0
252,-363,0,0,0,0,0,0,0,0,0,-1,1476,1387,0,0
259,-363,0,0,0,0,0,0,0,0,0,-1,1483,1387,0,0
266,-363,0,0,0,0,0,0,0,0,0,-1,1490,1387,0,0
273,-363,0,0,0,0,0,0,0,0,0,-1,1497,1387,0,0
280,-363,0,0,0,0,0,0,0,0,0,-1,1504,1387,0,0
287,-363,0,0,0,0,0,0,0,0,0,-1,1511,1387,0,0
294,-363,0,0,0,0,0,0,0,0,0,-1,1518,1387,0,0
301,-363,0,0,0,0,0,0,0,0,0,-1,1525,1387,0,0
308,-363,0,0,0,0,0,0,0,0,0,-1,1532,1387,0,0
315,-363,0,0,0,0,0,0,0,0,0,-1,1539,1387,0,0
322,-363,0,0,0,0,0,0,0,0,0,-1,1546,1387,0,0
329,-363,0,0,0,0,0,0,0,0,0,-1,1553,1387,0,0
336,-363,0,0,0,0,0,0,0,0,0,-1,1560,1387,0,0
343,-363,0,0,0,0,0,0,0,0,0,-1,1567,1387,0,0
350,-363,0,0,0,0,0,0,0,0,0,-1,1574,1387,0,0
357,-363,0,0,0,0,0,0,0,0,0,-1,1581,1387,0,0
364,-363,0,0,0,0,0,0,0,0,0,-1,1588,1387,0,0
371,-363,0,0,0,0,0,0,0,0,0,-1,1595,1387,0,0
378,-363,0,0,0,0,0,0,0,0,0,-1,1602,1387,0,0
385,-363,0,0,0,0,0,0,0,0,0,-1,1609,1387,0,0
392,-363,0,0,0,0,0,0,0,0,0,-1,1616,1387,0,0
399,-363,0,0,0,0,0,0,0,0,0,-1,1623,1387,0,0
406,-363,0,0,0,0,0,0,0,0,0,-1,1630,1387,0,0
413,-363,0,0,0,0,0,0,0,0,0,-1,1637,1387,0,0
420,-363,0,0,0,0,0,0,0,0,0,-1,1644,1387,0,0
427,-363,0,0,0,0,0,0,0,0,0,-1,1651,1387,0,0
434,-363,0,0,0,0,0,0,0,0,0,-1,1658,1387,0,0
441,-363,0,0,0,0,0,0,0,0,0,-1,1665,1387,0,0
448,-363,0,0,0,0,0,0,0,0,0,-1,1672,1387,0,0
455,-363,0,0,0,0,0,0,0,0,0,-1,1679,1387,0,0
462,-363,0,0,0,0,0,0,0,0,0,-1,1686,1387,0,0
469,-363,0,0,0,0,0,0,0,0,0,-1,1693,1387,0,0
476,-363,0,0,0,0,0,0,0,0,0,-1,1700,1387,0,0
483,-363,0,0,0,0,0,0,0,0,0,-1,1707,1387,0,0
490,-363,0,0,0,0,0,0,0,0,0,-1,1714,1387,0,0
497,-363,0,0,0,0,0,0,0,0,0,-1,1721,1387,0,0
504,-363,0,0,0,0,0,0,0,0,0,-1,1728,1387,0,0
511,-363,0,0,0,0,0,0,0,0,0,-1,1735,1387,0,0
518,-363,0,0,0,0,0,0,0,0,0,-1,1742,1387,0,0
525,-363,0,0,0,0,0,0,0,0,0,-1,1749,1387,0,0
532,-363,0,0,0,0,0,0,0,0,0,-1,1756,1387,0,0
539,-363,0,0,0,0,0,0,0,0,0,-1,1763,1387,0,0
546,-363,0,0,0,0,0,0,0,0,0,-1,1770,1387,0,0
553,-363,3.0481,0.921631,0,0,0,0,0,0,0,-1,1777,1387,3.04814,-0.921668
560,-363,6.30359,1.43799,0,0,0,0,0,0,0,-1,1784,1387,6.3036,-1.43801
567,-363,5.76428,0.598633,0,0,0,0,0,0,0,-1,1791,1387,5.76429,-0.598606
574,-363,0.745117,-1.66052,0,0,0,0,0,0,0,-1,1798,1387,0.745165,1.66058
581,-363,0.267334,-0.172852,0,0,0,0,0,0,0,-1,1805,1387,0.267288,0.172804
588,-363,-0.364624,-0.842896,0.000227396,0.0234814,0.00160765,0.023592,0.000116778,1.5021,0.0156892,0.0430688,1812,1387,-0.364583,0.84295
595,-363,-0.87085,-0.994019,0.00253719,0.0187166,0.00317453,0.0193172,0.00193662,1.38382,0.0122836,0.0444366,1819,1387,-0.8708,0.994055
602,-363,0.848389,0.381592,0.00387518,0.0134724,0.00437265,0.0151659,0.00218174,1.2013,0.00946751,0.0486432,1826,1387,0.84842,-0.38157
609,-363,0.40332,0.341431,0.00448172,0.00891453,0.00531803,0.0124595,0.000936706,0.982838,0.0080124,0.0440836,1833,1387,0.403381,-0.341436
616,-363,0.0214844,0.104858,0.00491558,0.0046283,0.00536146,0.0101353,-0.000591448,0.772006,0.00696241,0.043493,1840,1387,0.0215217,-0.104809
623,-363,-0.133301,0.0683594,0.00474593,0.00191553,0.00510277,0.00862611,-0.00196465,0.650128,0.00650528,0.0399744,1847,1387,-0.133298,-0.0683243
630,-363,-0.00524902,0.0672607,0.00401257,-0.000181803,0.00493163,0.00727441,-0.00344365,0.584356,0.00631845,0.0251426,1854,1387,-0.0053072,-0.0672901
637,-363,-0.0288086,0.0223389,0.00364604,-0.00136112,0.00450174,0.00629354,-0.00400862,0.531627,0.00599652,0.0125036,1861,1387,-0.0287533,-0.0223064
644,-363,-0.0325928,0.0372314,0.00243553,-0.00118563,0.00400816,0.00502308,-0.00377318,0.573255,0.00509558,0.0101098,1868,1387,-0.0326475,-0.037247
651,-363,-0.0247803,0.0170898,0.00127144,-0.00202302,0.00210768,0.00229922,-0.0030508,0.453708,0.00309898,0.010104,1875,1387,-0.0247468,-0.0171147
658,-363,-0.012085,-0.00866699,0.000698239,-0.00170523,0.00129066,0.00126001,-0.002267,0.41053,0.0020638,0.0113526,1882,1387,-0.0120341,0.0086471
665,-363,-0.0256348,0.0292969,0.000453879,-0.00107956,0.00070274,0.000727209,-0.00135289,0.370944,0.00121892,0.0110632,1889,1387,-0.0256917,-0.0293374
672,-363,-0.0473633,0.0686035,3.6623e-05,-0.000664871,0.000314521,0.000156989,-0.000785236,0.3655,0.00058291,0.0125499,1896,1387,-0.0473403,-0.0686429
679,-363,-0.0474854,0.0611572,-0.000527188,-0.000106199,0.000382045,0.000119502,-0.000752889,1.03719,0.000546136,0.0145169,1903,1387,-0.0474464,-0.0611461
686,-363,-0.0273438,0.0390625,-0.00101171,0.000122201,0.000520455,0.000324863,-0.00121438,1.19947,0.000936839,0.0142965,1910,1387,-0.0273016,-0.0390712
693,-363,-0.0111084,0.0395508,-0.00121573,0.000106836,0.000724515,0.000426479,-0.00153538,1.1553,0.00119146,0.0129783,1917,1387,-0.0110712,-0.0395482
700,-363,-0.0192871,0.0341797,-0.00163288,-0.000172673,0.00104076,0.000368539,-0.00217409,1.09127,0.00158657,0.0145088,1924,1387,-0.0192552,-0.0341411
707,-363,-0.0360107,0.0157471,-0.00194067,-0.000775705,0.00150764,0.000258066,-0.00297444,0.969742,0.00207434,0.0213269,1931,1387,-0.0360131,-0.0157105
714,-363,-0.102295,-0.105957,-0.00209038,-0.00173537,0.00212522,0.000219751,-0.0040455,0.827062,0.00277315,0.0346116,1938,1387,-0.102303,0.105907
721,-363,-0.0794678,0.0664063,-0.00197726,-0.00310073,0.00290551,0.000420316,-0.00549831,0.689909,0.00381338,0.0397458,1945,1387,-0.0794567,-0.0664666
728,-363,-0.151611,0.150391,-0.00138789,-0.00495745,0.00386852,0.00108771,-0.00743305,0.569268,0.00535489,0.0403695,1952,1387,-0.151638,-0.150426
735,-363,-0.114014,0.241943,1.77621e-05,-0.00738817,0.00501907,0.00255203,-0.00992244,0.467581,0.00760964,0.041624,1959,1387,-0.113985,-0.24196
742,-363,0.103516,0.400024,0.00277316,-0.0105134,0.00633375,0.00530864,-0.0130489,0.380776,0.0109082,0.0429068,1966,1387,0.103455,-0.400072
749,-363,0,0,0,0,0,0,0,0,0,-1,1973,1387,0,0
756,-363,0,0,0,0,0,0,0,0,0,-1,1980,1387,0,0
763,-363,0,0,0,0,0,0,0,0,0,-1,1987,1387,0,0
770,-363,0,0,0,0,0,0,0,0,0,-1,1994,1387,0,0
777,-363,0,0,0,0,0,0,0,0,0,-1,2001,1387,0,0
784,-363,0,0,0,0,0,0,0,0,0,-1,2008,1387,0,0
791,-363,0,0,0,0,0,0,0,0,0,-1,2015,1387,0,0
798,-363,0,0,0,0,0,0,0,0,0,-1,2022,1387,0,0
805,-363,0,0,0,0,0,0,0,0,0,-1,2029,1387,0,0
812,-363,0,0,0,0,0,0,0,0,0,-1,2036,1387,0,0
-700,-370,0,0,0,0,0,0,0,0,0,-1,524,1394,0,0
-693,-370,0,0,0,0,0,0,0,0,0,-1,531,1394,0,0
-686,-370,0,0,0,0,0,0,0,0,0,-1,538,1394,0,0
-679,-370,0,0,0,0,0,0,0,0,0,-1,545,1394,0,0
-672,-370,0,0,0,0,0,0,0,0,0,-1,552,1394,0,0
-665,-370,0,0,0,0,0,0,0,0,0,-1,559,1394,0,0
-658,-370,0,0,0,0,0,0,0,0,0,-1,566,1394,0,0
-651,-370,0,0,0,0,0,0,0,0,0,-1,573,1394,0,0
-644,-370,0,0,0,0,0,0,0,0,0,-1,580,1394,0,0
-637,-370,0,0,0,0,0,0,0,0,0,-1,587,1394,0,0
-630,-370,0,0,0,0,0,0,0,0,0,-1,594,1394,0,0
-623,-370,-0.299194,0.550049,0,0,0,0,0,0,0,-1,601,1394,-0.299183,-0.550019
-616,-370,-0.369995,0.491821,0.0125959,0.0189394,-0.00138423,0.0192283,0.012307,-1.36504,0.0112457,0.041849,608,1394,-0.369982,-0.491862
-609,-370,-0.541504,0.274536,0.0139209,0.0125066,-0.000357256,0.014006,0.0124215,-0.233903,0.00885656,0.0414189,615,1394,-0.54151,-0.274479
-602,-370,-0.354797,0.171509,0.0133172,0.00818269,0.000322695,0.0133374,0.00816249,0.0625201,0.0077645,0.0431118,622,1394,-0.354817,-0.171547
-595,-370,0.178772,0.559937,0,0,0,0,0,0,0,-1,629,1394,0.178742,-0.559905
-588,-370,0.019043,0.284302,0.00930871,0.00348954,0.00107669,0.00950154,0.00329671,0.177212,0.0055707,0.0440332,636,1394,0.0190204,-0.284307
-581,-370,-0.0491943,0.0439453,0.00711834,0.00220149,0.00119417,0.00739303,0.0019268,0.22609,0.00442842,0.0413775,643,1394,-0.049164,-0.0439756
-574,-370,-0.0466919,0.0687256,0.00510508,0.00128062,0.00124888,0.00547678,0.000908923,0.289277,0.00338908,0.0349203,650,1394,-0.0467007,-0.0687584
-567,-370,-0.0402222,0.039917,0.00343787,0.000723405,0.00121788,0.00390418,0.000257095,0.365668,0.00252146,0.018565,657,1394,-0.0402091,-0.0399698
-560,-370,-0.0245972,0.0145264,0.0019964,0.000473118,0.00142023,0.00284633,-0.000376813,0.539275,0.00203482,0.0127072,664,1394,-0.0245699,-0.0144678
-553,-370,-0.0446167,0.0354004,0.00111276,0.000435472,0.000943913,0.00177694,-0.000228707,0.613168,0.00126775,0.0103212,671,1394,-0.0446323,-0.0354126
-546,-370,-0.0303955,0.043335,-0.000600817,0.000488114,0.000754448,0.000874042,-0.000986746,1.09796,0.00107498,0.0128575,678,1394,-0.030399,-0.0433386
-539,-370,-0.0172729,0.0776367,-0.00169672,0.000981244,0.000565132,0.00109562,-0.00181109,1.37111,0.00169505,0.016191,685,1394,-0.0172489,-0.0776109
-532,-370,-0.0180054,0.0938721,-0.00133688,0.00128261,0.000533008,0.00138691,-0.00144118,1.37755,0.0016329,0.0191952,692,1394,-0.0180014,-0.0939325
-525,-370,-0.0117188,0.0432129,-0.000944021,0.00136929,0.000171194,0.00138189,-0.000956622,1.49733,0.00135756,0.0106919,699,1394,-0.0117102,-0.0432237
-518,-370,-0.0281372,0.0336914,-0.000606848,0.00174157,-0.000754754,0.00196322,-0.000828497,-1.28516,0.00165558,0.0081158,706,1394,-0.0281141,-0.0337437
-511,-370,-0.00750732,0.0253906,-0.000371923,0.00183867,-0.00148902,0.00258779,-0.00112104,-1.10468,0.0021964,0.0123067,713,1394,-0.00749805,-0.0253647
-504,-370,-0.00610352,0.0227051,-0.000173134,0.00183025,-0.00198367,0.00305079,-0.00139368,-1.01921,0.0026248,0.0159783,720,1394,-0.00608478,-0.0227417
-497,-370,-0.00970459,0.0300293,0.000247028,0.00130963,-0.00262779,0.00345929,-0.00190263,-0.885146,0.00313889,0.0230633,727,1394,-0.00970899,-0.0299793
-490,-370,0.00531006,0.00512695,0.000457116,0.00181533,-0.00372027,0.00491797,-0.00264553,-0.875675,0.004432,0.0352004,734,1394,0.00534031,-0.00517943
-483,-370,0.0308228,-0.00146484,3.35829e-05,0.00199349,-0.00431131,0.00543482,-0.00340774,-0.897149,0.00514977,0.040388,741,1394,0.0308323,0.00149435
-476,-370,0.0649414,0.0645752,-0.000379981,0.00235335,-0.00537897,0.00653655,-0.00456319,-0.909804,0.00644211,0.0402915,748,1394,0.0649254,-0.0645339
-469,-370,0.471252,-0.323242,-0.00155341,0.00261631,-0.00675705,0.00760282,-0.00653993,-0.935037,0.008173,0.0367165,755,1394,0.47126,0.323233
-462,-370,0.418823,-0.754272,-0.00334297,0.00300914,-0.00776241,0.00822012,-0.00855395,-0.979586,0.00968515,0.042035,762,1394,0.418805,0.754214
-455,-370,0.177429,-0.745972,0,0,0,0,0,0,0,-1,769,1394,0.177442,0.746
-448,-370,-0.330505,0.0698242,0,0,0,0,0,0,0,-1,776,1394,-0.330513,-0.0697897
-441,-370,-0.493164,-0.0610352,-0.0150107,0.00393445,-0.011108,0.00906041,-0.0201367,-1.13845,0.0172565,0.0420132,783,1394,-0.493194,0.0610943
-434,-370,-0.651123,0.0479736,-0.0218272,0.00329092,-0.0125915,0.00851603,-0.0270523,-1.17745,0.0214448,0.042984,790,1394,-0.651153,-0.048005
-427,-370,0,0,0,0,0,0,0,0,0,-1,797,1394,0,0
-420,-370,0,0,0,0,0,0,0,0,0,-1,804,1394,0,0
-413,-370,0,0,0,0,0,0,0,0,0,-1,811,1394,0,0
-406,-370,0,0,0,0,0,0,0,0,0,-1,818,1394,0,0
-399,-370,0,0,0,0,0,0,0,0,0,-1,825,1394,0,0
-392,-370,0,0,0,0,0,0,0,0,0,-1,832,1394,0,0
-385,-370,0,0,0,0,0,0,0,0,0,-1,839,1394,0,0
-378,-370,0,0,0,0,0,0,0,0,0,-1,846,1394,0,0
-371,-370,0,0,0,0,0,0,0,0,0,-1,853,1394,0,0
-364,-370,0,0,0,0,0,0,0,0,0,-1,860,1394,0,0
-357,-370,0,0,0,0,0,0,0,0,0,-1,867,1394,0,0
-350,-370,0,0,0,0,0,0,0,0,0,-1,874,1394,0,0
-343,-370,0,0,0,0,0,0,0,0,0,-1,881,1394,0,0
-336,-370,0,0,0,0,0,0,0,0,0,-1,888,1394,0,0
-329,-370,0,0,0,0,0,0,0,0,0,-1,895,1394,0,0
-322,-370,0,0,0,0,0,0,0,0,0,-1,902,1394,0,0
-315,-370,0,0,0,0,0,0,0,0,0,-1,909,1394,0,0
-308,-370,0,0,0,0,0,0,0,0,0,-1,916,1394,0,0
-301,-370,0,0,0,0,0,0,0,0,0,-1,923,1394,0,0
-294,-370,0,0,0,0,0,0,0,0,0,-1,930,1394,0,0
-287,-370,0,0,0,0,0,0,0,0,0,-1,937,1394,0,0
-280,-370,0,0,0,0,0,0,0,0,0,-1,944,1394,0,0
-273,-370,0,0,0,0,0,0,0,0,0,-1,951,1394,0,0
-266,-370,0,0,0,0,0,0,0,0,0,-1,958,1394,0,0
-259,-370,0,0,0,0,0,0,0,0,0,-1,965,1394,0,0
-252,-370,0,0,0,0,0,0,0,0,0,-1,972,1394,0,0
-245,-370,0,0,0,0,0,0,0,0,0,-1,979,1394,0,0
-238,-370,0,0,0,0,0,0,0,0,0,-1,986,1394,0,0
-231,-370,0,0,0,0,0,0,0,0,0,-1,993,1394,0,0
-224,-370,0,0,0,0,0,0,0,0,0,-1,1000,1394,0,0
-217,-370,0,0,0,0,0,0,0,0,0,-1,1007,1394,0,0
-210,-370,0,0,0,0,0,0,0,0,0,-1,1014,1394,0,0
-203,-370,0,0,0,0,0,0,0,0,0,-1,1021,1394,0,0
-196,-370,0,0,0,0,0,0,0,0,0,-1,1028,1394,0,0
-189,-370,0,0,0,0,0,0,0,0,0,-1,1035,1394,0,0
-182,-370,0,0,0,0,0,0,0,0,0,-1,1042,1394,0,0
-175,-370,0,0,0,0,0,0,0,0,0,-1,1049,1394,0,0
-168,-370,0,0,0,0,0,0,0,0,0,-1,1056,1394,0,0
-161,-370,0,0,0,0,0,0,0,0,0,-1,1063,1394,0,0
-154,-370,0,0,0,0,0,0,0,0,0,-1,1070,1394,0,0
-147,-370,0,0,0,0,0,0,0,0,0,-1,1077,1394,0,0
-140,-370,0,0,0,0,0,0,0,0,0,-1,1084,1394,0,0
-133,-370,0,0,0,0,0,0,0,0,0,-1,1091,1394,0,0
-126,-370,0,0,0,0,0,0,0,0,0,-1,1098,1394,0,0
-119,-370,0,0,0,0,0,0,0,0,0,-1,1105,1394,0,0
-112,-370,0,0,0,0,0,0,0,0,0,-1,1112,1394,0,0
-105,-370,0,0,0,0,0,0,0,0,0,-1,1119,1394,0,0
-98,-370,0,0,0,0,0,0,0,0,0,-1,1126,1394,0,0
-91,-370,0,0,0,0,0,0,0,0,0,-1,1133,1394,0,0
-84,-370,0,0,0,0,0,0,0,0,0,-1,1140,1394,0,0
-77,-370,0,0,0,0,0,0,0,0,0,-1,1147,1394,0,0
-70,-370,0,0,0,0,0,0,0,0,0,-1,1154,1394,0,0
-63,-370,0,0,0,0,0,0,0,0,0,-1,1161,1394,0,0
-56,-370,0,0,0,0,0,0,0,0,0,-1,1168,1394,0,0
-49,-370,0,0,0,0,0,0,0,0,0,-1,1175,1394,0,0
-42,-370,0,0,0,0,0,0,0,0,0,-1,1182,1394,0,0
-35,-370,0,0,0,0,0,0,0,0,0,-1,1189,1394,0,0
-28,-370,0,0,0,0,0,0,0,0,0,-1,1196,1394,0,0
-21,-370,0,0,0,0,0,0,0,0,0,-1,1203,1394,0,0
-14,-370,0,0,0,0,0,0,0,0,0,-1,1210,1394,0,0
-7,-370,0,0,0,0,0,0,0,0,0,-1,1217,1394,0,0
0,-370,0,0,0,0,0,0,0,0,0,-1,1224,1394,0,0
7,-370,0,0,0,0,0,0,0,0,0,-1,1231,1394,0,0
14,-370,0,0,0,0,0,0,0,0,0,-1,1238,1394,0,0
21,-370,0,0,0,0,0,0,0,0,0,-1,1245,1394,0,0
28,-370,0,0,0,0,0,0,0,0,0,-1,1252,1394,0,0
35,-370,0,0,0,0,0,0,0,0,0,-1,1259,1394,0,0
42,-370,0,0,0,0,0,0,0,0,0,-1,1266,1394,0,0
49,-370,0,0,0,0,0,0,0,0,0,-1,1273,1394,0,0
56,-370,0,0,0,0,0,0,0,0,0,-1,1280,1394,0,0
63,-370,0,0,0,0,0,0,0,0,0,-1,1287,1394,0,0
70,-370,0,0,0,0,0,0,0,0,0,-1,1294,1394,0,0
77,-370,0,0,0,0,0,0,0,0,0,-1,1301,1394,0,0
84,-370,0,0,0,0,0,0,0,0,0,-1,1308,1394,0,0
91,-370,0,0,0,0,0,0,0,0,0,-1,1315,1394,0,0
98,-370,0,0,0,0,0,0,0,0,0,-1,1322,1394,0,0
105,-370,0,0,0,0,0,0,0,0,0,-1,1329,1394,0,0
112,-370,0,0,0,0,0,0,0,0,0,-1,1336,1394,0,0
119,-370,0,0,0,0,0,0,0,0,0,-1,1343,1394,0,0
126,-370,0,0,0,0,0,0,0,0,0,-1,1350,1394,0,0
133,-370,0,0,0,0,0,0,0,0,0,-1,1357,1394,0,0
140,-370,0,0,0,0,0,0,0,0,0,-1,1364,1394,0,0
147,-370,0,0,0,0,0,0,0,0,0,-1,1371,1394,0,0
154,-370,0,0,0,0,0,0,0,0,0,-1,1378,1394,0,0
161,-370,0,0,0,0,0,0,0,0,0,-1,1385,1394,0,0
168,-370,0,0,0,0,0,0,0,0,0,-1,1392,1394,0,0
175,-370,0,0,0,0,0,0,0,0,0,-1,1399,1394,0,0
182,-370,0,0,0,0,0,0,0,0,0,-1,1406,1394,0,0
189,-370,0,0,0,0,0,0,0,0,0,-1,1413,1394,0,0
196,-370,0,0,0,0,0,0,0,0,0,-1,1420,1394,0,0
203,-370,0,0,0,0,0,0,0,0,0,-1,1427,1394,0,0
210,-370,0,0,0,0,0,0,0,0,0,-1,1434,1394,0,0
217,-370,0,0,0,0,0,0,0,0,0,-1,1441,1394,0,0
224,-370,0,0,0,0,0,0,0,0,0,-1,1448,1394,0,0
231,-370,0,0,0,0,0,0,0,0,0,-1,1455,1394,0,0
238,-370,0,0,0,0,0,0,0,0,0,-1,1462,1394,0,0
245,-370,0,0,0,0,0,0,0,0,0,-1,1469,1394,0,0
252,-370,0,0,0,0,0,0,0,0,0,-1,1476,1394,0,0
259,-370,0,0,0,0,0,0,0,0,0,-1,1483,1394,0,0
266,-370,0,0,0,0,0,0,0,0,0,-1,1490,1394,0,0
273,-370,0,0,0,0,0,0,0,0,0,-1,1497,1394,0,0
280,-370,0,0,0,0,0,0,0,0,0,-1,1504,1394,0,0
287,-370,0,0,0,0,0,0,0,0,0,-1,1511,1394,0,0
294,-370,0,0,0,0,0,0,0,0,0,-1,1518,1394,0,0
301,-370,0,0,0,0,0,0,0,0,0,-1,1525,1394,0,0
308,-370,0,0,0,0,0,0,0,0,0,-1,1532,1394,0,0
315,-370,0,0,0,0,0,0,0,0,0,-1,1539,1394,0,0
322,-370,0,0,0,0,0,0,0,0,0,-1,1546,1394,0,0
329,-370,0,0,0,0,0,0,0,0,0,-1,1553,1394,0,0
336,-370,0,0,0,0,0,0,0,0,0,-1,1560,1394,0,0
343,-370,0,0,0,0,0,0,0,0,0,-1,1567,1394,0,0
350,-370,0,0,0,0,0,0,0,0,0,-1,1574,1394,0,0
357,-370,0,0,0,0,0,0,0,0,0,-1,1581,1394,0,0
364,-370,0,0,0,0,0,0,0,0,0,-1,1588,1394,0,0
371,-370,0,0,0,0,0,0,0,0,0,-1,1595,1394,0,0
378,-370,0,0,0,0,0,0,0,0,0,-1,1602,1394,0,0
385,-370,0,0,0,0,0,0,0,0,0,-1,1609,1394,0,0
392,-370,0,0,0,0,0,0,0,0,0,-1,1616,1394,0,0
399,-370,0,0,0,0,0,0,0,0,0,-1,1623,1394,0,0
406,-370,0,0,0,0,0,0,0,0,0,-1,1630,1394,0,0
413,-370,0,0,0,0,0,0,0,0,0,-1,1637,1394,0,0
420,-370,0,0,0,0,0,0,0,0,0,-1,1644,1394,0,0
427,-370,0,0,0,0,0,0,0,0,0,-1,1651,1394,0,0
434,-370,0,0,0,0,0,0,0,0,0,-1,1658,1394,0,0
441,-370,0,0,0,0,0,0,0,0,0,-1,1665,1394,0,0
448,-370,0,0,0,0,0,0,0,0,0,-1,1672,1394,0,0
455,-370,0,0,0,0,0,0,0,0,0,-1,1679,1394,0,0
462,-370,0,0,0,0,0,0,0,0,0,-1,1686,1394,0,0
469,-370,0,0,0,0,0,0,0,0,0,-1,1693,1394,0,0
476,-370,0,0,0,0,0,0,0,0,0,-1,1700,1394,0,0
483,-370,0,0,0,0,0,0,0,0,0,-1,1707,1394,0,0
490,-370,0,0,0,0,0,0,0,0,0,-1,1714,1394,0,0
497,-370,0,0,0,0,0,0,0,0,0,-1,1721,1394,0,0
504,-370,0,0,0,0,0,0,0,0,0,-1,1728,1394,0,0
511,-370,0,0,0,0,0,0,0,0,0,-1,1735,1394,0,0
518,-370,0,0,0,0,0,0,0,0,0,-1,1742,1394,0,0
525,-370,0,0,0,0,0,0,0,0,0,-1,1749,1394,0,0
532,-370,0,0,0,0,0,0,0,0,0,-1,1756,1394,0,0
539,-370,0,0,0,0,0,0,0,0,0,-1,1763,1394,0,0
546,-370,0.194336,-1.08643,0,0,0,0,0,0,0,-1,1770,1394,0.194366,1.08647
553,-370,5.61511,2.66675,0,0,0,0,0,0,0,-1,1777,1394,5.6151,-2.66674
560,-370,5.14954,1.75195,-0.0202588,0.0379157,0.00567422,0.038464,-0.0208071,1.47447,0.0347226,0.0484214,1784,1394,5.14948,-1.75197
567,-370,4.63049,0.878784,-0.0146581,0.0346383,0.00478081,0.0350977,-0.0151175,1.475,0.0297469,0.0480559,1791,1394,4.63049,-0.878746
574,-370,4.12244,-0.000976563,0,0,0,0,0,0,0,-1,1798,1394,4.1224,0.000929352
581,-370,0.2948,-0.30835,-0.00561937,0.0245819,0.00398361,0.0250985,-0.00613598,1.44183,0.0191089,0.0434772,1805,1394,0.294779,0.30833
588,-370,0.00476074,-0.5896,-0.00206307,0.0191864,0.00407163,0.0199398,-0.00281653,1.38782,0.0143247,0.0430621,1812,1394,0.00479232,0.589611
595,-370,-0.52478,-0.357178,0,0,0,0,0,0,0,-1,1819,1394,-0.524816,0.357181
602,-370,-0.420166,-0.329224,0.00163079,0.0101628,0.0040781,0.0117985,-4.86756e-06,1.18936,0.00786729,0.0454388,1826,1394,-0.420169,0.329191
609,-370,-0.386963,-0.343506,0.00247174,0.00614913,0.00433451,0.00901881,-0.000397938,0.985994,0.00614948,0.0445681,1833,1394,-0.386999,0.343504
616,-370,-0.0672607,-0.171631,0.00303595,0.00238025,0.00390775,0.00662957,-0.00121338,0.743548,0.00487477,0.0450582,1840,1394,-0.067211,0.171611
623,-370,-0.190063,-0.104858,0.0031045,0.000175876,0.00346541,0.00540227,-0.00212189,0.585501,0.00447958,0.0401995,1847,1394,-0.190113,0.104886
630,-370,-0.0234375,0.0466309,0.00266756,-0.00133209,0.00336824,0.00458492,-0.00324945,0.5175,0.00454503,0.0199892,1854,1394,-0.0234629,-0.0465966
637,-370,-0.0355225,0.0428467,0.00252521,-0.00209686,0.00304001,0.00403289,-0.00360454,0.460398,0.00441178,0.0122074,1861,1394,-0.0354959,-0.0428054
644,-370,-0.0314941,0.0301514,0.00168221,-0.00159327,0.00273078,0.0032287,-0.00313977,0.515286,0.00367696,0.0103531,1868,1394,-0.0315007,-0.0301302
651,-370,-0.00415039,0.0126953,0.000718618,-0.00207578,0.00119077,0.0011572,-0.00251436,0.352901,0.00216751,0.0112023,1875,1394,-0.0041931,-0.012673
658,-370,0.00244141,0.010376,0.00025665,-0.00146057,0.000638696,0.000468154,-0.00167208,0.319783,0.0012992,0.0124599,1882,1394,0.00240697,-0.0104195
665,-370,-0.0253906,0.0267334,0.000215464,-0.000700642,0.000305912,0.000308224,-0.000793402,0.294412,0.000656264,0.0128543,1889,1394,-0.0254048,-0.0266812
672,-370,-0.0385742,0.0439453,-0.000173384,-0.000148081,0.000108723,-5.12754e-05,-0.000270189,0.84332,0.0001657,0.0129316,1896,1394,-0.0385633,-0.0439747
679,-370,-0.0427246,0.045166,-0.000800451,0.000365904,0.000203064,0.000400246,-0.000834794,1.40326,0.000727614,0.0130589,1903,1394,-0.0427321,-0.0451468
686,-370,-0.024292,0.0413818,-0.00124341,0.000553147,0.000388758,0.000633662,-0.00132392,1.36657,0.00115339,0.0133101,1910,1394,-0.0242651,-0.0413356
693,-370,-0.00708008,0.0375977,-0.00142652,0.000547377,0.000655205,0.000745063,-0.00162421,1.27776,0.00139894,0.0112533,1917,1394,-0.00713124,-0.0376431
700,-370,-0.026001,0.0369873,-0.00181874,0.000301094,0.00104093,0.000726764,-0.00224441,1.18261,0.00178844,0.0131375,1924,1394,-0.0259632,-0.0369994
707,-370,-0.0301514,0.0228271,-0.00211176,-0.000263359,0.00156828,0.000632784,-0.0030079,1.05166,0.00224611,0.0226608,1931,1394,-0.0301118,-0.0227748
714,-370,-0.234253,-0.424805,0,0,0,0,0,0,0,-1,1938,1394,-0.234281,0.424791
721,-370,-0.0952148,0.227539,-0.00204633,-0.00257608,0.00307237,0.000772563,-0.00539498,0.742398,0.0038799,0.0391342,1945,1394,-0.0951571,-0.227561
728,-370,-0.120972,0.521973,-0.0013103,-0.00451626,0.00407315,0.00146395,-0.00729051,0.597932,0.0054147,0.0388658,1952,1394,-0.120975,-0.521924
735,-370,0.0179443,0.444214,0.00035914,-0.00712121,0.00523078,0.00304935,-0.00981143,0.475026,0.00775976,0.0410754,1959,1394,0.0179511,-0.444201
742,-370,0.0992432,0.314575,0.0036163,-0.0105515,0.00646984,0.00612617,-0.0130614,0.370062,0.0113166,0.0446641,1966,1394,0.0992285,-0.314614
749,-370,0,0,0,0,0,0,0,0,0,-1,1973,1394,0,0
756,-370,0,0,0,0,0,0,0,0,0,-1,1980,1394,0,0
763,-370,0,0,0,0,0,0,0,0,0,-1,1987,1394,0,0
770,-370,0,0,0,0,0,0,0,0,0,-1,1994,1394,0,0
777,-370,0,0,0,0,0,0,0,0,0,-1,2001,1394,0,0
784,-370,0,0,0,0,0,0,0,0,0,-1,2008,1394,0,0
791,-370,0,0,0,0,0,0,0,0,0,-1,2015,1394,0,0
798,-370,0,0,0,0,0,0,0,0,0,-1,2022,1394,0,0
805,-370,0,0,0,0,0,0,0,0,0,-1,2029,1394,0,0
812,-370,0,0,0,0,0,0,0,0,0,-1,2036,1394,0,0
-700,-377,0,0,0,0,0,0,0,0,0,-1,524,1401,0,0
-693,-377,0,0,0,0,0,0,0,0,0,-1,531,1401,0,0
-686,-377,0,0,0,0,0,0,0,0,0,-1,538,1401,0,0
-679,-377,0,0,0,0,0,0,0,0,0,-1,545,1401,0,0
-672,-377,0,0,0,0,0,0,0,0,0,-1,552,1401,0,0
-665,-377,0,0,0,0,0,0,0,0,0,-1,559,1401,0,0
-658,-377,0,0,0,0,0,0,0,0,0,-1,566,1401,0,0
-651,-377,0,0,0,0,0,0,0,0,0,-1,573,1401,0,0
-644,-377,0,0,0,0,0,0,0,0,0,-1,580,1401,0,0
-637,-377,0,0,0,0,0,0,0,0,0,-1,587,1401,0,0
-630,-377,0,0,0,0,0,0,0,0,0,-1,594,1401,0,0
-623,-377,0,0,0,0,0,0,0,0,0,-1,601,1401,0,0
-616,-377,-0.319153,0.421265,0.0282346,0.0131317,-0.00549137,0.0300202,0.0113461,-0.314372,0.0175034,0.0427526,608,1401,-0.319151,-0.421289
-609,-377,-0.502258,0.335083,0.0265834,0.00842941,-0.00313521,0.0271096,0.00790321,-0.166286,0.0160988,0.0415926,615,1401,-0.502233,-0.335108
-602,-377,-0.303711,0.219971,0.0229938,0.00554751,-0.00145974,0.0231151,0.00542622,-0.0829022,0.0139575,0.0393784,622,1401,-0.303712,-0.219972
-595,-377,-0.0140991,0.332031,0.0186327,0.00380043,-0.000284503,0.0186382,0.00379498,-0.0191719,0.0113735,0.0435768,629,1401,-0.0140786,-0.331999
-588,-377,0.00524902,0.286621,0.0142076,0.00274472,0.00052169,0.0142313,0.00272103,0.0453863,0.00872313,0.0495217,636,1401,0.00527583,-0.286616
-581,-377,0.06427,0.104492,0.0102414,0.00206041,0.00101128,0.0103645,0.00193726,0.121184,0.00636302,0.0483631,643,1401,0.064294,-0.104538
-574,-377,-0.0664063,0.0817871,0.00689058,0.00151349,0.00126023,0.00717128,0.00123278,0.219165,0.00442751,0.0439831,650,1401,-0.0663994,-0.0818179
-567,-377,-0.0637207,0.0606689,0.00426862,0.00117798,0.00131959,0.00475538,0.000691229,0.353384,0.00296681,0.0237004,657,1401,-0.0637411,-0.0606662
-560,-377,-0.0272217,0.0391846,0.00234915,0.000923001,0.00154107,0.00333413,-6.19789e-05,0.568711,0.0022437,0.0145231,664,1401,-0.0271981,-0.0391827
-553,-377,-0.0338135,0.0397949,0.00111477,0.000900017,0.00108563,0.00209832,-8.35363e-05,0.736105,0.00142754,0.0115878,671,1401,-0.0337851,-0.0397979
-546,-377,-0.0278931,0.0529785,-0.00107348,0.000775754,0.00100498,0.00121675,-0.00151447,1.15729,0.00157999,0.0140976,678,1401,-0.0279162,-0.0530348
-539,-377,-0.0192871,0.0598145,-0.00219545,0.00106968,0.000662716,0.00119906,-0.00232484,1.37799,0.00206884,0.0178759,685,1401,-0.0192701,-0.0598676
-532,-377,-0.0314941,0.0682373,-0.00148279,0.00117871,0.000588036,0.00130284,-0.00160692,1.36275,0.00168301,0.0190799,692,1401,-0.031487,-0.0682553
-525,-377,-0.026123,0.0421143,-0.000751668,0.00110316,0.000187132,0.00112185,-0.000770359,1.47124,0.00109873,0.0146633,699,1401,-0.0261123,-0.0420915
-518,-377,-0.0319214,0.0341797,-9.10236e-06,0.0012313,-0.000721346,0.00156241,-0.00034021,-1.14047,0.00117159,0.00954784,706,1401,-0.0318957,-0.0342085
-511,-377,-0.00518799,0.0355225,0.000692029,0.00100659,-0.00137371,0.00223199,-0.000533375,-0.842396,0.00169401,0.0105353,713,1401,-0.00519165,-0.0355598
-504,-377,-0.0193481,0.0200195,0.00140761,0.000680854,-0.00172245,0.00280459,-0.00071613,-0.68144,0.0021486,0.00998474,720,1401,-0.0193557,-0.0200032
-497,-377,-0.0269775,0.0235596,0.00240952,-0.00013196,-0.00215518,0.0036407,-0.00136314,-0.519022,0.00298705,0.0121288,727,1401,-0.0269755,-0.0236198
-490,-377,-0.000427246,-0.0217285,0.00317551,0.000386926,-0.00318349,0.00525666,-0.00169422,-0.578993,0.00418509,0.0286078,734,1401,-0.000444687,0.0217309
-483,-377,0.0112915,0.000854492,0.00322071,0.000743018,-0.00365872,0.00584463,-0.0018809,-0.622156,0.00465191,0.0422586,741,1401,0.0112932,-0.000894787
-476,-377,0.325989,-0.286011,0.00322495,0.00115602,-0.0045138,0.0068213,-0.00244034,-0.672754,0.00554303,0.0408668,748,1401,0.325992,0.286001
-469,-377,0.559631,-0.541626,0.00234254,0.00148566,-0.00567192,0.00760218,-0.00377398,-0.747702,0.00669084,0.0404114,755,1401,0.55965,0.541612
-462,-377,0.842285,-0.821899,0,0,0,0,0,0,0,-1,762,1401,0.842303,0.821926
-455,-377,-0.687134,0.0499268,0,0,0,0,0,0,0,-1,769,1401,-0.687143,-0.0498848
-448,-377,-0.656799,0.180298,-0.0056863,0.00369169,-0.00799685,0.00827288,-0.0102675,-1.05056,0.0107249,0.0431067,776,1401,-0.65678,-0.180347
-441,-377,-0.787659,0.223267,-0.0106477,0.00435079,-0.0090488,0.00860397,-0.0149008,-1.13141,0.0137319,0.0455745,783,1401,-0.787654,-0.223318
-434,-377,-0.672668,0.165894,0,0,0,0,0,0,0,-1,790,1401,-0.672672,-0.165845
-427,-377,-0.487122,-0.000732422,0,0,0,0,0,0,0,-1,797,1401,-0.487144,0.000700779
-420,-377,0,0,0,0,0,0,0,0,0,-1,804,1401,0,0
-413,-377,0,0,0,0,0,0,0,0,0,-1,811,1401,0,0
-406,-377,0,0,0,0,0,0,0,0,0,-1,818,1401,0,0
-399,-377,0,0,0,0,0,0,0,0,0,-1,825,1401,0,0
-392,-377,0,0,0,0,0,0,0,0,0,-1,832,1401,0,0
-385,-377,0,0,0,0,0,0,0,0,0,-1,839,1401,0,0
-378,-377,0,0,0,0,0,0,0,0,0,-1,846,1401,0,0
-371,-377,0,0,0,0,0,0,0,0,0,-1,853,1401,0,0
-364,-377,0,0,0,0,0,0,0,0,0,-1,860,1401,0,0
-357,-377,0,0,0,0,0,0,0,0,0,-1,867,1401,0,0
-350,-377,0,0,0,0,0,0,0,0,0,-1,874,1401,0,0
-343,-377,0,0,0,0,0,0,0,0,0,-1,881,1401,0,0
-336,-377,0,0,0,0,0,0,0,0,0,-1,888,1401,0,0
-329,-377,0,0,0,0,0,0,0,0,0,-1,895,1401,0,0
-322,-377,0,0,0,0,0,0,0,0,0,-1,902,1401,0,0
-315,-377,0,0,0,0,0,0,0,0,0,-1,909,1401,0,0
-308,-377,0,0,0,0,0,0,0,0,0,-1,916,1401,0,0
-301,-377,0,0,0,0,0,0,0,0,0,-1,923,1401,0,0
-294,-377,0,0,0,0,0,0,0,0,0,-1,930,1401,0,0
-287,-377,0,0,0,0,0,0,0,0,0,-1,937,1401,0,0
-280,-377,0,0,0,0,0,0,0,0,0,-1,944,1401,0,0
-273,-377,0,0,0,0,0,0,0,0,0,-1,951,1401,0,0
-266,-377,0,0,0,0,0,0,0,0,0,-1,958,1401,0,0
-259,-377,0,0,0,0,0,0,0,0,0,-1,965,1401,0,0
-252,-377,0,0,0,0,0,0,0,0,0,-1,972,1401,0,0
-245,-377,0,0,0,0,0,0,0,0,0,-1,979,1401,0,0
-238,-377,0,0,0,0,0,0,0,0,0,-1,986,1401,0,0
-231,-377,0,0,0,0,0,0,0,0,0,-1,993,1401,0,0
-224,-377,0,0,0,0,0,0,0,0,0,-1,1000,1401,0,0
-217,-377,0,0,0,0,0,0,0,0,0,-1,1007,1401,0,0
-210,-377,0,0,0,0,0,0,0,0,0,-1,1014,1401,0,0
-203,-377,0,0,0,0,0,0,0,0,0,-1,1021,1401,0,0
-196,-377,0,0,0,0,0,0,0,0,0,-1,1028,1401,0,0
-189,-377,0,0,0,0,0,0,0,0,0,-1,1035,1401,0,0
-182,-377,0,0,0,0,0,0,0,0,0,-1,1042,1401,0,0
-175,-377,0,0,0,0,0,0,0,0,0,-1,1049,1401,0,0
-168,-377,0,0,0,0,0,0,0,0,0,-1,1056,1401,0,0
-161,-377,0,0,0,0,0,0,0,0,0,-1,1063,1401,0,0
-154,-377,0,0,0,0,0,0,0,0,0,-1,1070,1401,0,0
-147,-377,0,0,0,0,0,0,0,0,0,-1,1077,1401,0,0
-140,-377,0,0,0,0,0,0,0,0,0,-1,1084,1401,0,0
-133,-377,0,0,0,0,0,0,0,0,0,-1,1091,1401,0,0
-126,-377,0,0,0,0,0,0,0,0,0,-1,1098,1401,0,0
-119,-377,0,0,0,0,0,0,0,0,0,-1,1105,1401,0,0
-112,-377,0,0,0,0,0,0,0,0,0,-1,1112,1401,0,0
-105,-377,0,0,0,0,0,0,0,0,0,-1,1119,1401,0,0
-98,-377,0,0,0,0,0,0,0,0,0,-1,1126,1401,0,0
-91,-377,0,0,0,0,0,0,0,0,0,-1,1133,1401,0,0
-84,-377,0,0,0,0,0,0,0,0,0,-1,1140,1401,0,0
-77,-377,0,0,0,0,0,0,0,0,0,-1,1147,1401,0,0
-70,-377,0,0,0,0,0,0,0,0,0,-1,1154,1401,0,0
-63,-377,0,0,0,0,0,0,0,0,0,-1,1161,1401,0,0
-56,-377,0,0,0,0,0,0,0,0,0,-1,1168,1401,0,0
-49,-377,0,0,0,0,0,0,0,0,0,-1,1175,1401,0,0
-42,-377,0,0,0,0,0,0,0,0,0,-1,1182,1401,0,0
-35,-377,0,0,0,0,0,0,0,0,0,-1,1189,1401,0,0
-28,-377,0,0,0,0,0,0,0,0,0,-1,1196,1401,0,0
-21,-377,0,0,0,0,0,0,0,0,0,-1,1203,1401,0,0
-14,-377,0,0,0,0,0,0,0,0,0,-1,1210,1401,0,0
-7,-377,0,0,0,0,0,0,0,0,0,-1,1217,1401,0,0
0,-377,0,0,0,0,0,0,0,0,0,-1,1224,1401,0,0
7,-377,0,0,0,0,0,0,0,0,0,-1,1231,1401,0,0
14,-377,0,0,0,0,0,0,0,0,0,-1,1238,1401,0,0
21,-377,0,0,0,0,0,0,0,0,0,-1,1245,1401,0,0
28,-377,0,0,0,0,0,0,0,0,0,-1,1252,1401,0,0
35,-377,0,0,0,0,0,0,0,0,0,-1,1259,1401,0,0
42,-377,0,0,0,0,0,0,0,0,0,-1,1266,1401,0,0
49,-377,0,0,0,0,0,0,0,0,0,-1,1273,1401,0,0
56,-377,0,0,0,0,0,0,0,0,0,-1,1280,1401,0,0
63,-377,0,0,0,0,0,0,0,0,0,-1,1287,1401,0,0
70,-377,0,0,0,0,0,0,0,0,0,-1,1294,1401,0,0
77,-377,0,0,0,0,0,0,0,0,0,-1,1301,1401,0,0
84,-377,0,0,0,0,0,0,0,0,0,-1,1308,1401,0,0
91,-377,0,0,0,0,0,0,0,0,0,-1,1315,1401,0,0
98,-377,0,0,0,0,0,0,0,0,0,-1,1322,1401,0,0
105,-377,0,0,0,0,0,0,0,0,0,-1,1329,1401,0,0
112,-377,0,0,0,0,0,0,0,0,0,-1,1336,1401,0,0
119,-377,0,0,0,0,0,0,0,0,0,-1,1343,1401,0,0
126,-377,0,0,0,0,0,0,0,0,0,-1,1350,1401,0,0
133,-377,0,0,0,0,0,0,0,0,0,-1,1357,1401,0,0
140,-377,0,0,0,0,0,0,0,0,0,-1,1364,1401,0,0
147,-377,0,0,0,0,0,0,0,0,0,-1,1371,1401,0,0
154,-377,0,0,0,0,0,0,0,0,0,-1,1378,1401,0,0
161,-377,0,0,0,0,0,0,0,0,0,-1,1385,1401,0,0
168,-377,0,0,0,0,0,0,0,0,0,-1,1392,1401,0,0
175,-377,0,0,0,0,0,0,0,0,0,-1,1399,1401,0,0
182,-377,0,0,0,0,0,0,0,0,0,-1,1406,1401,0,0
189,-377,0,0,0,0,0,0,0,0,0,-1,1413,1401,0,0
196,-377,0,0,0,0,0,0,0,0,0,-1,1420,1401,0,0
203,-377,0,0,0,0,0,0,0,0,0,-1,1427,1401,0,0
210,-377,0,0,0,0,0,0,0,0,0,-1,1434,1401,0,0
217,-377,0,0,0,0,0,0,0,0,0,-1,1441,1401,0,0
224,-377,0,0,0,0,0,0,0,0,0,-1,1448,1401,0,0
231,-377,0,0,0,0,0,0,0,0,0,-1,1455,1401,0,0
238,-377,0,0,0,0,0,0,0,0,0,-1,1462,1401,0,0
245,-377,0,0,0,0,0,0,0,0,0,-1,1469,1401,0,0
252,-377,0,0,0,0,0,0,0,0,0,-1,1476,1401,0,0
259,-377,0,0,0,0,0,0,0,0,0,-1,1483,1401,0,0
266,-377,0,0,0,0,0,0,0,0,0,-1,1490,1401,0,0
273,-377,0,0,0,0,0,0,0,0,0,-1,1497,1401,0,0
280,-377,0,0,0,0,0,0,0,0,0,-1,1504,1401,0,0
287,-377,0,0,0,0,0,0,0,0,0,-1,1511,1401,0,0
294,-377,0,0,0,0,0,0,0,0,0,-1,1518,1401,0,0
301,-377,0,0,0,0,0,0,0,0,0,-1,1525,1401,0,0
308,-377,0,0,0,0,0,0,0,0,0,-1,1532,1401,0,0
315,-377,0,0,0,0,0,0,0,0,0,-1,1539,1401,0,0
322,-377,0,0,0,0,0,0,0,0,0,-1,1546,1401,0,0
329,-377,0,0,0,0,0,0,0,0,0,-1,1553,1401,0,0
336,-377,0,0,0,0,0,0,0,0,0,-1,1560,1401,0,0
343,-377,0,0,0,0,0,0,0,0,0,-1,1567,1401,0,0
350,-377,0,0,0,0,0,0,0,0,0,-1,1574,1401,0,0
357,-377,0,0,0,0,0,0,0,0,0,-1,1581,1401,0,0
364,-377,0,0,0,0,0,0,0,0,0,-1,1588,1401,0,0
371,-377,0,0,0,0,0,0,0,0,0,-1,1595,1401,0,0
378,-377,0,0,0,0,0,0,0,0,0,-1,1602,1401,0,0
385,-377,0,0,0,0,0,0,0,0,0,-1,1609,1401,0,0
392,-377,0,0,0,0,0,0,0,0,0,-1,1616,1401,0,0
399,-377,0,0,0,0,0,0,0,0,0,-1,1623,1401,0,0
406,-377,0,0,0,0,0,0,0,0,0,-1,1630,1401,0,0
413,-377,0,0,0,0,0,0,0,0,0,-1,1637,1401,0,0
420,-377,0,0,0,0,0,0,0,0,0,-1,1644,1401,0,0
427,-377,0,0,0,0,0,0,0,0,0,-1,1651,1401,0,0
434,-377,0,0,0,0,0,0,0,0,0,-1,1658,1401,0,0
441,-377,0,0,0,0,0,0,0,0,0,-1,1665,1401,0,0
448,-377,0,0,0,0,0,0,0,0,0,-1,1672,1401,0,0
455,-377,0,0,0,0,0,0,0,0,0,-1,1679,1401,0,0
462,-377,0,0,0,0,0,0,0,0,0,-1,1686,1401,0,0
469,-377,0,0,0,0,0,0,0,0,0,-1,1693,1401,0,0
476,-377,0,0,0,0,0,0,0,0,0,-1,1700,1401,0,0
483,-377,0,0,0,0,0,0,0,0,0,-1,1707,1401,0,0
490,-377,0,0,0,0,0,0,0,0,0,-1,1714,1401,0,0
497,-377,0,0,0,0,0,0,0,0,0,-1,1721,1401,0,0
504,-377,0,0,0,0,0,0,0,0,0,-1,1728,1401,0,0
511,-377,0,0,0,0,0,0,0,0,0,-1,1735,1401,0,0
518,-377,0,0,0,0,0,0,0,0,0,-1,1742,1401,0,0
525,-377,0,0,0,0,0,0,0,0,0,-1,1749,1401,0,0
532,-377,0,0,0,0,0,0,0,0,0,-1,1756,1401,0,0
539,-377,0,0,0,0,0,0,0,0,0,-1,1763,1401,0,0
546,-377,0.623901,-0.856079,0,0,0,0,0,0,0,-1,1770,1401,0.623929,0.856059
553,-377,2.83301,0.943604,0,0,0,0,0,0,0,-1,1777,1401,2.83302,-0.943605
560,-377,2.98584,0.748779,-0.0194462,0.0343998,0.0149476,0.0382709,-0.0233173,1.31738,0.0359056,0.045647,1784,1401,2.98582,-0.748759
567,-377,3.45459,1.11609,-0.0149781,0.031707,0.012706,0.034941,-0.0182122,1.32156,0.0311906,0.0417681,1791,1401,3.45465,-1.11608
574,-377,2.96851,0.202759,0,0,0,0,0,0,0,-1,1798,1401,2.96856,-0.202725
581,-377,0.235596,-0.512817,-0.00659387,0.0228414,0.00868819,0.0252145,-0.00896698,1.30416,0.0204643,0.0430133,1805,1401,0.23557,0.512761
588,-377,0.124634,-0.33313,-0.00313466,0.0178982,0.00734199,0.0202076,-0.00544399,1.26606,0.0156062,0.0402622,1812,1401,0.124658,0.333071
595,-377,-0.225586,-0.140015,-0.000902878,0.014221,0.00605396,0.0163458,-0.0030277,1.23325,0.0120341,0.0382808,1819,1401,-0.225641,0.140071
602,-377,-0.109863,-0.0327148,0.000565106,0.00970233,0.0050589,0.0119502,-0.00168279,1.15266,0.00858291,0.0427335,1826,1401,-0.109817,0.0326665
609,-377,-0.159546,-0.0979004,0.00153007,0.00597025,0.00459402,0.0088525,-0.00135217,1.01048,0.00640018,0.0458355,1833,1401,-0.159528,0.0979028
616,-377,-0.220581,-0.201782,0.00211242,0.00245607,0.00363197,0.00592027,-0.00135178,0.809035,0.00446616,0.0440491,1840,1401,-0.220636,0.201747
623,-377,-0.0751953,-0.0227051,0.00226974,0.00037266,0.00285968,0.00433409,-0.00169169,0.625261,0.00358875,0.0338989,1847,1401,-0.0751667,0.0227343
630,-377,-0.0288086,0.0296631,0.0019655,-0.000990211,0.00262841,0.00350304,-0.00252774,0.529293,0.00349702,0.0169575,1854,1401,-0.0288358,-0.0296207
637,-377,-0.0288086,0.0275879,0.001896,-0.00168417,0.00222284,0.00295993,-0.00274811,0.446411,0.0032963,0.0111845,1861,1401,-0.0288215,-0.0276324
644,-377,-0.0192871,0.0238037,0.0012803,-0.00114812,0.00193957,0.00235437,-0.00222219,0.505732,0.00264265,0.0103281,1868,1401,-0.0192652,-0.0237599
651,-377,0.00549316,0.0174561,0.000427276,-0.00149878,0.000657961,0.000630582,-0.00170208,0.299688,0.00139332,0.0125108,1875,1401,0.00547229,-0.0174864
658,-377,0.00939941,-0.00231934,1.94028e-05,-0.000907049,0.00020199,6.15266e-05,-0.000949173,0.205597,0.000654256,0.0136671,1882,1401,0.00934278,0.00229748
665,-377,-0.0131836,-0.0145264,-5.3379e-06,-0.000200051,-4.06989e-05,2.82664e-06,-0.000208216,-0.19798,0.000139762,0.0156601,1889,1401,-0.0132155,0.0145655
672,-377,-0.0202637,0.0032959,-0.000402043,0.000485991,-7.50736e-05,0.000492293,-0.000408344,-1.48705,0.000520736,0.0152202,1896,1401,-0.0202823,-0.00333854
679,-377,-0.0499268,0.0406494,-0.000997773,0.000921347,1.30071e-05,0.000921436,-0.000997861,1.56402,0.0011084,0.016118,1903,1401,-0.0498728,-0.040708
686,-377,-0.0411377,0.0419922,-0.00141192,0.00107333,0.000195996,0.0010887,-0.00142728,1.49258,0.00145698,0.014486,1910,1401,-0.0411952,-0.041983
693,-377,-0.0249023,0.0322266,-0.00158623,0.0011187,0.000479081,0.00120105,-0.00166857,1.40058,0.00166409,0.0108575,1917,1401,-0.0249374,-0.0322582
700,-377,-0.0196533,0.0340576,-0.00196575,0.000963818,0.000879306,0.00120748,-0.00220941,1.30048,0.00200081,0.0163295,1924,1401,-0.0196939,-0.0341
707,-377,-0.0394287,-0.000488281,-0.00227735,0.000526862,0.00142152,0.00112141,-0.0028719,1.17466,0.00237823,0.035047,1931,1401,-0.0394452,0.000544944
714,-377,-0.0167236,-0.0324707,-0.00242128,-0.000274448,0.00210964,0.00101916,-0.00371489,1.02074,0.00287713,0.0421693,1938,1401,-0.0167228,0.0324154
721,-377,-0.163574,0.84436,0,0,0,0,0,0,0,-1,1945,1401,-0.163598,-0.844346
728,-377,-0.211182,0.862549,-0.00150517,-0.00342357,0.00396937,0.00161925,-0.00654799,0.666846,0.00499337,0.0435347,1952,1401,-0.211129,-0.862532
735,-377,-0.342773,0.627441,0.000206922,-0.00602453,0.00510253,0.00306979,-0.00888739,0.511301,0.00717068,0.0444241,1959,1401,-0.342762,-0.62746
742,-377,0,0,0,0,0,0,0,0,0,-1,1966,1401,0,0
749,-377,0,0,0,0,0,0,0,0,0,-1,1973,1401,0,0
756,-377,0,0,0,0,0,0,0,0,0,-1,1980,1401,0,0
763,-377,0,0,0,0,0,0,0,0,0,-1,1987,1401,0,0
770,-377,0,0,0,0,0,0,0,0,0,-1,1994,1401,0,0
777,-377,0,0,0,0,0,0,0,0,0,-1,2001,1401,0,0
784,-377,0,0,0,0,0,0,0,0,0,-1,2008,1401,0,0
791,-377,0,0,0,0,0,0,0,0,0,-1,2015,1401,0,0
798,-377,0,0,0,0,0,0,0,0,0,-1,2022,1401,0,0
805,-377,0,0,0,0,0,0,0,0,0,-1,2029,1401,0,0
812,-377,0,0,0,0,0,0,0,0,0,-1,2036,1401,0,0
-700,-384,0,0,0,0,0,0,0,0,0,-1,524,1408,0,0
-693,-384,0,0,0,0,0,0,0,0,0,-1,531,1408,0,0
-686,-384,0,0,0,0,0,0,0,0,0,-1,538,1408,0,0
-679,-384,0,0,0,0,0,0,0,0,0,-1,545,1408,0,0
-672,-384,0,0,0,0,0,0,0,0,0,-1,552,1408,0,0
-665,-384,0,0,0,0,0,0,0,0,0,-1,559,1408,0,0
-658,-384,0,0,0,0,0,0,0,0,0,-1,566,1408,0,0
-651,-384,0,0,0,0,0,0,0,0,0,-1,573,1408,0,0
-644,-384,0,0,0,0,0,0,0,0,0,-1,580,1408,0,0
-637,-384,0,0,0,0,0,0,0,0,0,-1,587,1408,0,0
-630,-384,0,0,0,0,0,0,0,0,0,-1,594,1408,0,0
-623,-384,0,0,0,0,0,0,0,0,0,-1,601,1408,0,0
-616,-384,-0.200317,0.297119,0.0450386,0.00733738,-0.00976765,0.0474189,0.00495706,-0.239035,0.0300967,0.0481732,608,1408,-0.200321,-0.297161
-609,-384,-0.384766,0.251831,0.0397465,0.00460226,-0.00567868,0.0406413,0.00370747,-0.156285,0.0259468,0.0418152,615,1408,-0.384736,-0.251849
-602,-384,-0.321594,0.144897,0.032663,0.00313827,-0.00285771,0.0329371,0.00286422,-0.0956078,0.0210683,0.0397139,622,1408,-0.321593,-0.144859
-595,-384,-0.136292,-0.125122,0.0253694,0.00242893,-0.000944147,0.0254082,0.00239014,-0.0410639,0.0162009,0.0426078,629,1408,-0.136313,0.125168
-588,-384,0.164246,0.354248,0,0,0,0,0,0,0,-1,636,1408,0.16424,-0.354244
-581,-384,-0.045105,0.107178,0,0,0,0,0,0,0,-1,643,1408,-0.0450906,-0.107123
-574,-384,-0.0926514,0.122803,0.00814892,0.00180408,0.0015739,0.00851789,0.00143511,0.23027,0.00526581,0.0463854,650,1408,-0.0926254,-0.122858
-567,-384,-0.156372,0.236084,0.00459337,0.00170205,0.00169018,0.00537181,0.000923607,0.431609,0.00331649,0.0349494,657,1408,-0.156376,-0.236048
-560,-384,-0.0440063,0.0684814,0.00220264,0.00150226,0.00189491,0.00377945,-7.45483e-05,0.694026,0.00254485,0.0205818,664,1408,-0.043991,-0.0685177
-553,-384,-0.0150146,0.034668,0.000658952,0.00151149,0.00145053,0.00259709,-0.000426645,0.928311,0.00188973,0.0154924,671,1408,-0.0150405,-0.0346206
-546,-384,-0.0131226,0.0494385,-0.00196525,0.00125041,0.00144568,0.00180478,-0.00251962,1.20462,0.00250804,0.0128321,678,1408,-0.0131357,-0.0493867
-539,-384,-0.0374756,0.0494385,-0.00308554,0.00144554,0.00087035,0.00160697,-0.00324697,1.3874,0.00285524,0.0131994,685,1408,-0.0374592,-0.0494374
-532,-384,-0.0716553,0.0330811,-0.00197781,0.00140319,0.000683914,0.00153629,-0.00211091,1.37858,0.00211441,0.0196276,692,1408,-0.0716771,-0.0331011
-525,-384,-0.067627,0.0327148,-0.00094864,0.00118198,0.000182737,0.00119754,-0.000964199,1.48586,0.0012505,0.0199354,699,1408,-0.0676276,-0.0327659
-518,-384,-0.0284424,0.0366211,9.77651e-05,0.00109224,-0.000767796,0.00150975,-0.000319741,-1.07275,0.00112828,0.0116325,706,1408,-0.028449,-0.0365831
-511,-384,-0.0169678,0.0384521,0.00118546,0.000563724,-0.00138654,0.00229555,-0.000546369,-0.67512,0.0017413,0.00921254,713,1408,-0.0169946,-0.0384555
-504,-384,-0.0274658,0.0352783,0.00227888,-2.53568e-05,-0.00165156,0.00314047,-0.000886948,-0.480844,0.00244355,0.0100341,720,1408,-0.0274936,-0.0352473
-497,-384,-0.038147,0.0300293,0.00366672,-0.00106942,-0.00191609,0.00434482,-0.00174752,-0.340143,0.0036224,0.0106462,727,1408,-0.0381175,-0.030027
-490,-384,-0.0251465,0.0178223,0.00482463,-0.000570771,-0.00287582,0.00607002,-0.00181616,-0.408673,0.00476877,0.0185496,734,1408,-0.0251216,-0.0178443
-483,-384,-0.0424194,0.0280762,0.00520793,-4.72341e-05,-0.00325689,0.00676503,-0.00160433,-0.445969,0.00512913,0.0388106,741,1408,-0.0424305,-0.0280582
-476,-384,-0.0585327,0.0020752,0.00544528,0.000350615,-0.00386861,0.00752991,-0.00173402,-0.494248,0.00568676,0.0446333,748,1408,-0.0585379,-0.00206974
-469,-384,-0.107117,0.00500488,0,0,0,0,0,0,0,-1,755,1408,-0.107141,-0.00498882
-462,-384,2.1839,-1.75928,0,0,0,0,0,0,0,-1,762,1408,2.18392,1.75922
-455,-384,-1.25256,0.284424,0,0,0,0,0,0,0,-1,769,1408,-1.25254,-0.284384
-448,-384,-1.03271,0.503906,-0.00201062,0.00337584,-0.00656374,0.0077774,-0.00641218,-0.980084,0.00820499,0.0462754,776,1408,-1.03269,-0.503929
-441,-384,-0.885254,0.549683,-0.00623123,0.00449147,-0.00754744,0.00838798,-0.0101277,-1.09422,0.0107058,0.0470067,783,1408,-0.885252,-0.549709
-434,-384,-0.535828,0.200317,-0.0115204,0.00542654,-0.00876617,0.00914509,-0.015239,-1.16961,0.0142239,0.0478378,790,1408,-0.535855,-0.200269
-427,-384,-0.449768,-0.244507,-0.0182018,0.00576312,-0.0104267,0.00966446,-0.0221032,-1.21275,0.0188039,0.0450255,797,1408,-0.449767,0.244547
-420,-384,-0.523804,-0.979858,-0.0249575,0.00469713,-0.0132369,0.00974605,-0.0300064,-1.2064,0.0239241,0.0421377,804,1408,-0.523809,0.979883
-413,-384,0,0,0,0,0,0,0,0,0,-1,811,1408,0,0
-406,-384,0,0,0,0,0,0,0,0,0,-1,818,1408,0,0
-399,-384,0,0,0,0,0,0,0,0,0,-1,825,1408,0,0
-392,-384,0,0,0,0,0,0,0,0,0,-1,832,1408,0,0
-385,-384,0,0,0,0,0,0,0,0,0,-1,839,1408,0,0
-378,-384,0,0,0,0,0,0,0,0,0,-1,846,1408,0,0
-371,-384,0,0,0,0,0,0,0,0,0,-1,853,1408,0,0
-364,-384,0,0,0,0,0,0,0,0,0,-1,860,1408,0,0
-357,-384,0,0,0,0,0,0,0,0,0,-1,867,1408,0,0
-350,-384,0,0,0,0,0,0,0,0,0,-1,874,1408,0,0
-343,-384,0,0,0,0,0,0,0,0,0,-1,881,1408,0,0
-336,-384,0,0,0,0,0,0,0,0,0,-1,888,1408,0,0
-329,-384,0,0,0,0,0,0,0,0,0,-1,895,1408,0,0
-322,-384,0,0,0,0,0,0,0,0,0,-1,902,1408,0,0
-315,-384,0,0,0,0,0,0,0,0,0,-1,909,1408,0,0
-308,-384,0,0,0,0,0,0,0,0,0,-1,916,1408,0,0
-301,-384,0,0,0,0,0,0,0,0,0,-1,923,1408,0,0
-294,-384,0,0,0,0,0,0,0,0,0,-1,930,1408,0,0
-287,-384,0,0,0,0,0,0,0,0,0,-1,937,1408,0,0
-280,-384,0,0,0,0,0,0,0,0,0,-1,944,1408,0,0
-273,-384,0,0,0,0,0,0,0,0,0,-1,951,1408,0,0
-266,-384,0,0,0,0,0,0,0,0,0,-1,958,1408,0,0
-259,-384,0,0,0,0,0,0,0,0,0,-1,965,1408,0,0
-252,-384,0,0,0,0,0,0,0,0,0,-1,972,1408,0,0
-245,-384,0,0,0,0,0,0,0,0,0,-1,979,1408,0,0
-238,-384,0,0,0,0,0,0,0,0,0,-1,986,1408,0,0
-231,-384,0,0,0,0,0,0,0,0,0,-1,993,1408,0,0
-224,-384,0,0,0,0,0,0,0,0,0,-1,1000,1408,0,0
-217,-384,0,0,0,0,0,0,0,0,0,-1,1007,1408,0,0
-210,-384,0,0,0,0,0,0,0,0,0,-1,1014,1408,0,0
-203,-384,0,0,0,0,0,0,0,0,0,-1,1021,1408,0,0
-196,-384,0,0,0,0,0,0,0,0,0,-1,1028,1408,0,0
-189,-384,0,0,0,0,0,0,0,0,0,-1,1035,1408,0,0
-182,-384,0,0,0,0,0,0,0,0,0,-1,1042,1408,0,0
-175,-384,0,0,0,0,0,0,0,0,0,-1,1049,1408,0,0
-168,-384,0,0,0,0,0,0,0,0,0,-1,1056,1408,0,0
-161,-384,0,0,0,0,0,0,0,0,0,-1,1063,1408,0,0
-154,-384,0,0,0,0,0,0,0,0,0,-1,1070,1408,0,0
-147,-384,0,0,0,0,0,0,0,0,0,-1,1077,1408,0,0
-140,-384,0,0,0,0,0,0,0,0,0,-1,1084,1408,0,0
-133,-384,0,0,0,0,0,0,0,0,0,-1,1091,1408,0,0
-126,-384,0,0,0,0,0,0,0,0,0,-1,1098,1408,0,0
-119,-384,0,0,0,0,0,0,0,0,0,-1,1105,1408,0,0
-112,-384,0,0,0,0,0,0,0,0,0,-1,1112,1408,0,0
-105,-384,0,0,0,0,0,0,0,0,0,-1,1119,1408,0,0
-98,-384,0,0,0,0,0,0,0,0,0,-1,1126,1408,0,0
-91,-384,0,0,0,0,0,0,0,0,0,-1,1133,1408,0,0
-84,-384,0,0,0,0,0,0,0,0,0,-1,1140,1408,0,0
-77,-384,0,0,0,0,0,0,0,0,0,-1,1147,1408,0,0
-70,-384,0,0,0,0,0,0,0,0,0,-1,1154,1408,0,0
-63,-384,0,0,0,0,0,0,0,0,0,-1,1161,1408,0,0
-56,-384,0,0,0,0,0,0,0,0,0,-1,1168,1408,0,0
-49,-384,0,0,0,0,0,0,0,0,0,-1,1175,1408,0,0
-42,-384,0,0,0,0,0,0,0,0,0,-1,1182,1408,0,0
-35,-384,0,0,0,0,0,0,0,0,0,-1,1189,1408,0,0
-28,-384,0,0,0,0,0,0,0,0,0,-1,1196,1408,0,0
-21,-384,0,0,0,0,0,0,0,0,0,-1,1203,1408,0,0
-14,-384,0,0,0,0,0,0,0,0,0,-1,1210,1408,0,0
-7,-384,0,0,0,0,0,0,0,0,0,-1,1217,1408,0,0
0,-384,0,0,0,0,0,0,0,0,0,-1,1224,1408,0,0
7,-384,0,0,0,0,0,0,0,0,0,-1,1231,1408,0,0
14,-384,0,0,0,0,0,0,0,0,0,-1,1238,1408,0,0
21,-384,0,0,0,0,0,0,0,0,0,-1,1245,1408,0,0
28,-384,0,0,0,0,0,0,0,0,0,-1,1252,1408,0,0
35,-384,0,0,0,0,0,0,0,0,0,-1,1259,1408,0,0
42,-384,0,0,0,0,0,0,0,0,0,-1,1266,1408,0,0
49,-384,0,0,0,0,0,0,0,0,0,-1,1273,1408,0,0
56,-384,0,0,0,0,0,0,0,0,0,-1,1280,1408,0,0
63,-384,0,0,0,0,0,0,0,0,0,-1,1287,1408,0,0
70,-384,0,0,0,0,0,0,0,0,0,-1,1294,1408,0,0
77,-384,0,0,0,0,0,0,0,0,0,-1,1301,1408,0,0
84,-384,0,0,0,0,0,0,0,0,0,-1,1308,1408,0,0
91,-384,0,0,0,0,0,0,0,0,0,-1,1315,1408,0,0
98,-384,0,0,0,0,0,0,0,0,0,-1,1322,1408,0,0
105,-384,0,0,0,0,0,0,0,0,0,-1,1329,1408,0,0
112,-384,0,0,0,0,0,0,0,0,0,-1,1336,1408,0,0
119,-384,0,0,0,0,0,0,0,0,0,-1,1343,1408,0,0
126,-384,0,0,0,0,0,0,0,0,0,-1,1350,1408,0,0
133,-384,0,0,0,0,0,0,0,0,0,-1,1357,1408,0,0
140,-384,0,0,0,0,0,0,0,0,0,-1,1364,1408,0,0
147,-384,0,0,0,0,0,0,0,0,0,-1,1371,1408,0,0
154,-384,0,0,0,0,0,0,0,0,0,-1,1378,1408,0,0
161,-384,0,0,0,0,0,0,0,0,0,-1,1385,1408,0,0
168,-384,0,0,0,0,0,0,0,0,0,-1,1392,1408,0,0
175,-384,0,0,0,0,0,0,0,0,0,-1,1399,1408,0,0
182,-384,0,0,0,0,0,0,0,0,0,-1,1406,1408,0,0
189,-384,0,0,0,0,0,0,0,0,0,-1,1413,1408,0,0
196,-384,0,0,0,0,0,0,0,0,0,-1,1420,1408,0,0
203,-384,0,0,0,0,0,0,0,0,0,-1,1427,1408,0,0
210,-384,0,0,0,0,0,0,0,0,0,-1,1434,1408,0,0
217,-384,0,0,0,0,0,0,0,0,0,-1,1441,1408,0,0
224,-384,0,0,0,0,0,0,0,0,0,-1,1448,1408,0,0
231,-384,0,0,0,0,0,0,0,0,0,-1,1455,1408,0,0
238,-384,0,0,0,0,0,0,0,0,0,-1,1462,1408,0,0
245,-384,0,0,0,0,0,0,0,0,0,-1,1469,1408,0,0
252,-384,0,0,0,0,0,0,0,0,0,-1,1476,1408,0,0
259,-384,0,0,0,0,0,0,0,0,0,-1,1483,1408,0,0
266,-384,0,0,0,0,0,0,0,0,0,-1,1490,1408,0,0
273,-384,0,0,0,0,0,0,0,0,0,-1,1497,1408,0,0
280,-384,0,0,0,0,0,0,0,0,0,-1,1504,1408,0,0
287,-384,0,0,0,0,0,0,0,0,0,-1,1511,1408,0,0
294,-384,0,0,0,0,0,0,0,0,0,-1,1518,1408,0,0
301,-384,0,0,0,0,0,0,0,0,0,-1,1525,1408,0,0
308,-384,0,0,0,0,0,0,0,0,0,-1,1532,1408,0,0
315,-384,0,0,0,0,0,0,0,0,0,-1,1539,1408,0,0
322,-384,0,0,0,0,0,0,0,0,0,-1,1546,1408,0,0
329,-384,0,0,0,0,0,0,0,0,0,-1,1553,1408,0,0
336,-384,0,0,0,0,0,0,0,0,0,-1,1560,1408,0,0
343,-384,0,0,0,0,0,0,0,0,0,-1,1567,1408,0,0
350,-384,0,0,0,0,0,0,0,0,0,-1,1574,1408,0,0
357,-384,0,0,0,0,0,0,0,0,0,-1,1581,1408,0,0
364,-384,0,0,0,0,0,0,0,0,0,-1,1588,1408,0,0
371,-384,0,0,0,0,0,0,0,0,0,-1,1595,1408,0,0
378,-384,0,0,0,0,0,0,0,0,0,-1,1602,1408,0,0
385,-384,0,0,0,0,0,0,0,0,0,-1,1609,1408,0,0
392,-384,0,0,0,0,0,0,0,0,0,-1,1616,1408,0,0
399,-384,0,0,0,0,0,0,0,0,0,-1,1623,1408,0,0
406,-384,0,0,0,0,0,0,0,0,0,-1,1630,1408,0,0
413,-384,0,0,0,0,0,0,0,0,0,-1,1637,1408,0,0
420,-384,0,0,0,0,0,0,0,0,0,-1,1644,1408,0,0
427,-384,0,0,0,0,0,0,0,0,0,-1,1651,1408,0,0
434,-384,0,0,0,0,0,0,0,0,0,-1,1658,1408,0,0
441,-384,0,0,0,0,0,0,0,0,0,-1,1665,1408,0,0
448,-384,0,0,0,0,0,0,0,0,0,-1,1672,1408,0,0
455,-384,0,0,0,0,0,0,0,0,0,-1,1679,1408,0,0
462,-384,0,0,0,0,0,0,0,0,0,-1,1686,1408,0,0
469,-384,0,0,0,0,0,0,0,0,0,-1,1693,1408,0,0
476,-384,0,0,0,0,0,0,0,0,0,-1,1700,1408,0,0
483,-384,0,0,0,0,0,0,0,0,0,-1,1707,1408,0,0
490,-384,0,0,0,0,0,0,0,0,0,-1,1714,1408,0,0
497,-384,0,0,0,0,0,0,0,0,0,-1,1721,1408,0,0
504,-384,0,0,0,0,0,0,0,0,0,-1,1728,1408,0,0
511,-384,0,0,0,0,0,0,0,0,0,-1,1735,1408,0,0
518,-384,0,0,0,0,0,0,0,0,0,-1,1742,1408,0,0
525,-384,0,0,0,0,0,0,0,0,0,-1,1749,1408,0,0
532,-384,0,0,0,0,0,0,0,0,0,-1,1756,1408,0,0
539,-384,2.35388,-1.35083,0,0,0,0,0,0,0,-1,1763,1408,2.35388,1.35077
546,-384,2.58899,-0.441528,0,0,0,0,0,0,0,-1,1770,1408,2.58894,0.441578
553,-384,2.53723,0.934204,0,0,0,0,0,0,0,-1,1777,1408,2.53719,-0.934203
560,-384,2.34827,1.03088,-0.0186485,0.0306495,0.0201518,0.0378387,-0.0258376,1.22812,0.0369805,0.0458872,1784,1408,2.34823,-1.03085
567,-384,2.16821,1.17725,-0.0151685,0.0287251,0.0175123,0.0348557,-0.0212991,1.23405,0.0327344,0.0424641,1791,1408,2.16825,-1.17729
574,-384,1.81409,0.543091,0,0,0,0,0,0,0,-1,1798,1408,1.81413,-0.543053
581,-384,0.064209,-0.627441,-0.00763982,0.0213598,0.0119433,0.0256453,-0.0119253,1.22629,0.0221683,0.0427369,1805,1408,0.0642124,0.627406
588,-384,0.126343,-0.34314,-0.00431391,0.0170264,0.00972578,0.0207938,-0.00808131,1.20123,0.0172012,0.0412856,1812,1408,0.12639,0.343186
595,-384,0.085083,0.218872,-0.00215771,0.0139508,0.0076895,0.017032,-0.00523896,1.18968,0.0134456,0.0431036,1819,1408,0.085091,-0.218877
602,-384,0.216064,-0.0419922,-0.000713893,0.00988588,0.00606105,0.0126374,-0.00346541,1.14465,0.00978676,0.0418638,1826,1408,0.21606,0.041972
609,-384,0.00341797,-0.0113525,0.000316913,0.0065172,0.00514627,0.00942497,-0.00259086,1.05649,0.00730179,0.0419031,1833,1408,0.00346309,0.0113452
616,-384,-0.0559082,-0.022583,0.000889512,0.00331546,0.0038412,0.00613065,-0.00192568,0.938334,0.00485793,0.0373455,1840,1408,-0.0558693,0.0225549
623,-384,-0.0247803,0.0371094,0.00112893,0.00129357,0.00282861,0.00404106,-0.00161856,0.799946,0.00336588,0.0238001,1847,1408,-0.0247274,-0.0370979
630,-384,-0.027832,0.0253906,0.000980826,-2.65279e-05,0.00243662,0.00296528,-0.00201098,0.683478,0.0028906,0.0151855,1854,1408,-0.027832,-0.0254237
637,-384,-0.0454102,0.0385742,0.00103253,-0.000762054,0.0019065,0.00224234,-0.00197186,0.565452,0.00243474,0.0140152,1861,1408,-0.0453784,-0.0385613
644,-384,-0.0308838,0.0499268,0.000691843,-0.000339156,0.00157949,0.00183782,-0.00148514,0.627662,0.00192211,0.0142147,1868,1408,-0.0309265,-0.04988
651,-384,-0.00476074,0.0311279,5.19677e-05,-0.000666607,0.000473905,0.000287385,-0.000902024,0.461052,0.000716617,0.0140963,1875,1408,-0.00472681,-0.0310799
658,-384,0.00292969,-0.0020752,-0.000198502,-0.000195409,1.98559e-05,-0.000177039,-0.000216871,0.824269,0.000133302,0.0140526,1882,1408,0.00288369,0.00206142
665,-384,-0.0117188,-0.000366211,-0.000144769,0.000393896,-0.000221174,0.000473072,-0.000223945,-1.22703,0.000410902,0.014846,1889,1408,-0.0117564,0.000351152
672,-384,-0.00524902,0.0134277,-0.000474429,0.00103486,-0.000266269,0.00108046,-0.000520027,-1.4012,0.000942737,0.0138883,1896,1408,-0.00520399,-0.0134447
679,-384,-0.0128174,0.0197754,-0.000952451,0.00144074,-0.00023974,0.00146452,-0.000976231,-1.47193,0.00141854,0.0147855,1903,1408,-0.0127791,-0.019783
686,-384,-0.0336914,0.029541,-0.00129,0.00163755,-0.000115317,0.00164208,-0.00129453,-1.53149,0.00169941,0.0120617,1910,1408,-0.0336426,-0.0295547
693,-384,-0.0455322,0.0136719,-0.00144153,0.00179639,0.00013506,0.00180201,-0.00144715,1.52918,0.00187963,0.0144765,1917,1408,-0.0455913,-0.0136334
700,-384,-0.0252686,0.0106201,-0.00179515,0.00181034,0.000503365,0.0018793,-0.00186411,1.43465,0.00216126,0.0299131,1924,1408,-0.025271,-0.0106498
707,-384,-0.0141602,-0.0306396,-0.00210142,0.00159246,0.00102899,0.00185976,-0.00236872,1.31665,0.0024472,0.0438383,1931,1408,-0.0142104,0.0306716
714,-384,0.0766602,0.0147705,-0.00226683,0.00103737,0.00172293,0.00177231,-0.00300177,1.16761,0.00278661,0.0465299,1938,1408,0.0766296,-0.0148086
721,-384,-0.102295,0.335938,-0.00215544,2.96757e-05,0.00260825,0.00176495,-0.00389071,0.983739,0.0033413,0.0434834,1945,1408,-0.102321,-0.335959
728,-384,-0.251831,1.1676,0,0,0,0,0,0,0,-1,1952,1408,-0.251772,-1.16756
735,-384,-0.412354,1.06909,0,0,0,0,0,0,0,-1,1959,1408,-0.4123,-1.06904
742,-384,0,0,0,0,0,0,0,0,0,-1,1966,1408,0,0
749,-384,0,0,0,0,0,0,0,0,0,-1,1973,1408,0,0
756,-384,0,0,0,0,0,0,0,0,0,-1,1980,1408,0,0
763,-384,0,0,0,0,0,0,0,0,0,-1,1987,1408,0,0
770,-384,0,0,0,0,0,0,0,0,0,-1,1994,1408,0,0
777,-384,0,0,0,0,0,0,0,0,0,-1,2001,1408,0,0
784,-384,0,0,0,0,0,0,0,0,0,-1,2008,1408,0,0
791,-384,0,0,0,0,0,0,0,0,0,-1,2015,1408,0,0
798,-384,0,0,0,0,0,0,0,0,0,-1,2022,1408,0,0
805,-384,0,0,0,0,0,0,0,0,0,-1,2029,1408,0,0
812,-384,0,0,0,0,0,0,0,0,0,-1,2036,1408,0,0
-700,-391,0,0,0,0,0,0,0,0,0,-1,524,1415,0,0
-693,-391,0,0,0,0,0,0,0,0,0,-1,531,1415,0,0
-686,-391,0,0,0,0,0,0,0,0,0,-1,538,1415,0,0
-679,-391,0,0,0,0,0,0,0,0,0,-1,545,1415,0,0
-672,-391,0,0,0,0,0,0,0,0,0,-1,552,1415,0,0
-665,-391,0,0,0,0,0,0,0,0,0,-1,559,1415,0,0
-658,-391,0,0,0,0,0,0,0,0,0,-1,566,1415,0,0
-651,-391,0,0,0,0,0,0,0,0,0,-1,573,1415,0,0
-644,-391,0,0,0,0,0,0,0,0,0,-1,580,1415,0,0
-637,-391,0,0,0,0,0,0,0,0,0,-1,587,1415,0,0
-630,-391,0,0,0,0,0,0,0,0,0,-1,594,1415,0,0
-623,-391,0,0,0,0,0,0,0,0,0,-1,601,1415,0,0
-616,-391,0,0,0,0,0,0,0,0,0,-1,608,1415,0,0
-609,-391,-0.588745,0.0644531,0.0556036,0.000281966,-0.0072058,0.0565267,-0.000641203,-0.127421,0.0379,0.0433409,615,1415,-0.588743,-0.0644049
-602,-391,-0.494995,-0.0689697,0.043648,0.000275203,-0.00345738,0.0439219,1.33365e-06,-0.0790479,0.0292808,0.045229,622,1415,-0.495018,0.0689133
-595,-391,-0.357361,-0.231079,0.032582,0.000477073,-0.000920716,0.0326084,0.000450689,-0.0286469,0.0215903,0.0429377,629,1415,-0.357332,0.231043
-588,-391,0.250061,-1.64795,0,0,0,0,0,0,0,-1,636,1415,0.250058,1.64791
-581,-391,0.127808,-0.949341,0.0150616,0.0010525,0.00184115,0.0152996,0.000814566,0.128518,0.00993932,0.0462616,643,1415,0.127837,0.949335
-574,-391,0.0141602,-0.074707,0.00886559,0.00125498,0.00239418,0.00955611,0.000564463,0.280796,0.00619117,0.0476178,650,1415,0.014135,0.0746466
-567,-391,-0.105957,0.764282,0,0,0,0,0,0,0,-1,657,1415,-0.105957,-0.76432
-560,-391,-0.0695801,0.100708,0.00139483,0.0012419,0.00272883,0.00404827,-0.00141154,0.771391,0.00327246,0.0296975,664,1415,-0.0695829,-0.100661
-553,-391,-0.00506592,0.0440674,-0.000489393,0.00134195,0.00228078,0.00288401,-0.00203145,0.976286,0.00285213,0.0168374,671,1415,-0.00509535,-0.0440548
-546,-391,-0.00756836,0.0467529,-0.00351761,0.00101649,0.00231056,0.00198645,-0.00448757,1.17334,0.00382962,0.0104902,678,1415,-0.00755234,-0.0466996
-539,-391,-0.0214844,0.0351563,-0.00455891,0.00120333,0.00144827,0.00154686,-0.00490244,1.3379,0.00388788,0.0119025,685,1415,-0.0215074,-0.0351476
-532,-391,-0.0633545,0.019043,-0.00297715,0.00109175,0.0011017,0.00137089,-0.0032563,1.32264,0.00274444,0.0222952,692,1415,-0.0633597,-0.0190174
-525,-391,-0.0521851,0.0340576,-0.00158215,0.000812955,0.00046932,0.000901635,-0.00167083,1.38404,0.00150718,0.0221364,699,1415,-0.0522069,-0.0340114
-518,-391,-0.0358276,0.0418701,-0.000240278,0.000613818,-0.000546852,0.000880612,-0.000507073,-1.1169,0.000810798,0.0127445,706,1415,-0.0358087,-0.0418319
-511,-391,-0.024231,0.0321045,0.00118873,-9.02533e-05,-0.00117049,0.00188303,-0.000784552,-0.535381,0.00158306,0.00970383,713,1415,-0.0242552,-0.0320556
-504,-391,-0.0150146,0.0352783,0.00263529,-0.000823628,-0.00140299,0.0031328,-0.00132114,-0.340776,0.00264144,0.00899256,720,1415,-0.0150298,-0.0352832
-497,-391,-0.0175171,0.0195313,0.0043009,-0.00197903,-0.0015474,0.00466148,-0.00233961,-0.228938,0.00411551,0.00887226,727,1415,-0.0175149,-0.0195149
-490,-391,-0.0177612,0.0374756,0.00572042,-0.00140248,-0.00244042,0.00647633,-0.00215839,-0.300373,0.00518888,0.0104983,734,1415,-0.0177558,-0.0374798
-483,-391,-0.0574341,0.043335,0.00632681,-0.000680495,-0.00274296,0.0072728,-0.00162649,-0.332109,0.00547188,0.0231383,741,1415,-0.0574357,-0.0433878
-476,-391,-0.108948,0.0147705,0.00661482,-0.00023884,-0.00314341,0.00783817,-0.00146219,-0.371143,0.00577488,0.0371009,748,1415,-0.108952,-0.0147436
-469,-391,-0.0206299,-0.175171,0.00616198,0.000121783,-0.00395576,0.00811873,-0.00183497,-0.459365,0.00611659,0.0455892,755,1415,-0.0206243,0.175168
-462,-391,1.40997,-1.17712,0.00526705,0.000923966,-0.00445593,0.00805241,-0.0018614,-0.558665,0.0060844,0.0470813,762,1415,1.40996,1.17709
-455,-391,1.58667,-1.18726,0.00309086,0.00190673,-0.00472036,0.00725614,-0.00225855,-0.72301,0.00574034,0.0435427,769,1415,1.58669,1.18722
-448,-391,-1.28217,0.734619,0,0,0,0,0,0,0,-1,776,1415,-1.28216,-0.734577
-441,-391,-0.893555,0.635742,-0.00324807,0.00467679,-0.00639483,0.00823731,-0.00680859,-1.06276,0.0086998,0.0456056,783,1415,-0.893557,-0.635691
-434,-391,-0.498474,0.244873,-0.00761419,0.0061368,-0.00749243,0.00943032,-0.0109077,-1.15664,0.0117525,0.0460849,790,1415,-0.498449,-0.244845
-427,-391,-0.409241,-0.227051,-0.0130824,0.00716251,-0.00890965,0.0105251,-0.016445,-1.20992,0.0156957,0.0435219,797,1415,-0.409261,0.227078
-420,-391,-0.385742,-0.829834,-0.0186532,0.00752108,-0.0110546,0.0115651,-0.0226972,-1.22009,0.0201264,0.0417049,804,1415,-0.385716,0.829836
-413,-391,0,0,0,0,0,0,0,0,0,-1,811,1415,0,0
-406,-391,0,0,0,0,0,0,0,0,0,-1,818,1415,0,0
-399,-391,0,0,0,0,0,0,0,0,0,-1,825,1415,0,0
-392,-391,0,0,0,0,0,0,0,0,0,-1,832,1415,0,0
-385,-391,0,0,0,0,0,0,0,0,0,-1,839,1415,0,0
-378,-391,0,0,0,0,0,0,0,0,0,-1,846,1415,0,0
-371,-391,0,0,0,0,0,0,0,0,0,-1,853,1415,0,0
-364,-391,0,0,0,0,0,0,0,0,0,-1,860,1415,0,0
-357,-391,0,0,0,0,0,0,0,0,0,-1,867,1415,0,0
-350,-391,0,0,0,0,0,0,0,0,0,-1,874,1415,0,0
-343,-391,0,0,0,0,0,0,0,0,0,-1,881,1415,0,0
-336,-391,0,0,0,0,0,0,0,0,0,-1,888,1415,0,0
-329,-391,0,0,0,0,0,0,0,0,0,-1,895,1415,0,0
-322,-391,0,0,0,0,0,0,0,0,0,-1,902,1415,0,0
-315,-391,0,0,0,0,0,0,0,0,0,-1,909,1415,0,0
-308,-391,0,0,0,0,0,0,0,0,0,-1,916,1415,0,0
-301,-391,0,0,0,0,0,0,0,0,0,-1,923,1415,0,0
-294,-391,0,0,0,0,0,0,0,0,0,-1,930,1415,0,0
-287,-391,0,0,0,0,0,0,0,0,0,-1,937,1415,0,0
-280,-391,0,0,0,0,0,0,0,0,0,-1,944,1415,0,0
-273,-391,0,0,0,0,0,0,0,0,0,-1,951,1415,0,0
-266,-391,0,0,0,0,0,0,0,0,0,-1,958,1415,0,0
-259,-391,0,0,0,0,0,0,0,0,0,-1,965,1415,0,0
-252,-391,0,0,0,0,0,0,0,0,0,-1,972,1415,0,0
-245,-391,0,0,0,0,0,0,0,0,0,-1,979,1415,0,0
-238,-391,0,0,0,0,0,0,0,0,0,-1,986,1415,0,0
-231,-391,0,0,0,0,0,0,0,0,0,-1,993,1415,0,0
-224,-391,0,0,0,0,0,0,0,0,0,-1,1000,1415,0,0
-217,-391,0,0,0,0,0,0,0,0,0,-1,1007,1415,0,0
-210,-391,0,0,0,0,0,0,0,0,0,-1,1014,1415,0,0
-203,-391,0,0,0,0,0,0,0,0,0,-1,1021,1415,0,0
-196,-391,0,0,0,0,0,0,0,0,0,-1,1028,1415,0,0
-189,-391,0,0,0,0,0,0,0,0,0,-1,1035,1415,0,0
-182,-391,0,0,0,0,0,0,0,0,0,-1,1042,1415,0,0
-175,-391,0,0,0,0,0,0,0,0,0,-1,1049,1415,0,0
-168,-391,0,0,0,0,0,0,0,0,0,-1,1056,1415,0,0
-161,-391,0,0,0,0,0,0,0,0,0,-1,1063,1415,0,0
-154,-391,0,0,0,0,0,0,0,0,0,-1,1070,1415,0,0
-147,-391,0,0,0,0,0,0,0,0,0,-1,1077,1415,0,0
-140,-391,0,0,0,0,0,0,0,0,0,-1,1084,1415,0,0
-133,-391,0,0,0,0,0,0,0,0,0,-1,1091,1415,0,0
-126,-391,0,0,0,0,0,0,0,0,0,-1,1098,1415,0,0
-119,-391,0,0,0,0,0,0,0,0,0,-1,1105,1415,0,0
-112,-391,0,0,0,0,0,0,0,0,0,-1,1112,1415,0,0
-105,-391,0,0,0,0,0,0,0,0,0,-1,1119,1415,0,0
-98,-391,0,0,0,0,0,0,0,0,0,-1,1126,1415,0,0
-91,-391,0,0,0,0,0,0,0,0,0,-1,1133,1415,0,0
-84,-391,0,0,0,0,0,0,0,0,0,-1,1140,1415,0,0
-77,-391,0,0,0,0,0,0,0,0,0,-1,1147,1415,0,0
-70,-391,0,0,0,0,0,0,0,0,0,-1,1154,1415,0,0
-63,-391,0,0,0,0,0,0,0,0,0,-1,1161,1415,0,0
-56,-391,0,0,0,0,0,0,0,0,0,-1,1168,1415,0,0
-49,-391,0,0,0,0,0,0,0,0,0,-1,1175,1415,0,0
-42,-391,0,0,0,0,0,0,0,0,0,-1,1182,1415,0,0
-35,-391,0,0,0,0,0,0,0,0,0,-1,1189,1415,0,0
-28,-391,0,0,0,0,0,0,0,0,0,-1,1196,1415,0,0
-21,-391,0,0,0,0,0,0,0,0,0,-1,1203,1415,0,0
-14,-391,0,0,0,0,0,0,0,0,0,-1,1210,1415,0,0
-7,-391,0,0,0,0,0,0,0,0,0,-1,1217,1415,0,0
0,-391,0,0,0,0,0,0,0,0,0,-1,1224,1415,0,0
7,-391,0,0,0,0,0,0,0,0,0,-1,1231,1415,0,0
14,-391,0,0,0,0,0,0,0,0,0,-1,1238,1415,0,0
21,-391,0,0,0,0,0,0,0,0,0,-1,1245,1415,0,0
28,-391,0,0,0,0,0,0,0,0,0,-1,1252,1415,0,0
35,-391,0,0,0,0,0,0,0,0,0,-1,1259,1415,0,0
42,-391,0,0,0,0,0,0,0,0,0,-1,1266,1415,0,0
49,-391,0,0,0,0,0,0,0,0,0,-1,1273,1415,0,0
56,-391,0,0,0,0,0,0,0,0,0,-1,1280,1415,0,0
63,-391,0,0,0,0,0,0,0,0,0,-1,1287,1415,0,0
70,-391,0,0,0,0,0,0,0,0,0,-1,1294,1415,0,0
77,-391,0,0,0,0,0,0,0,0,0,-1,1301,1415,0,0
84,-391,0,0,0,0,0,0,0,0,0,-1,1308,1415,0,0
91,-391,0,0,0,0,0,0,0,0,0,-1,1315,1415,0,0
98,-391,0,0,0,0,0,0,0,0,0,-1,1322,1415,0,0
105,-391,0,0,0,0,0,0,0,0,0,-1,1329,1415,0,0
112,-391,0,0,0,0,0,0,0,0,0,-1,1336,1415,0,0
119,-391,0,0,0,0,0,0,0,0,0,-1,1343,1415,0,0
126,-391,0,0,0,0,0,0,0,0,0,-1,1350,1415,0,0
133,-391,0,0,0,0,0,0,0,0,0,-1,1357,1415,0,0
140,-391,0,0,0,0,0,0,0,0,0,-1,1364,1415,0,0
147,-391,0,0,0,0,0,0,0,0,0,-1,1371,1415,0,0
154,-391,0,0,0,0,0,0,0,0,0,-1,1378,1415,0,0
161,-391,0,0,0,0,0,0,0,0,0,-1,1385,1415,0,0
168,-391,0,0,0,0,0,0,0,0,0,-1,1392,1415,0,0
175,-391,0,0,0,0,0,0,0,0,0,-1,1399,1415,0,0
182,-391,0,0,0,0,0,0,0,0,0,-1,1406,1415,0,0
189,-391,0,0,0,0,0,0,0,0,0,-1,1413,1415,0,0
196,-391,0,0,0,0,0,0,0,0,0,-1,1420,1415,0,0
203,-391,0,0,0,0,0,0,0,0,0,-1,1427,1415,0,0
210,-391,0,0,0,0,0,0,0,0,0,-1,1434,1415,0,0
217,-391,0,0,0,0,0,0,0,0,0,-1,1441,1415,0,0
224,-391,0,0,0,0,0,0,0,0,0,-1,1448,1415,0,0
231,-391,0,0,0,0,0,0,0,0,0,-1,1455,1415,0,0
238,-391,0,0,0,0,0,0,0,0,0,-1,1462,1415,0,0
245,-391,0,0,0,0,0,0,0,0,0,-1,1469,1415,0,0
252,-391,0,0,0,0,0,0,0,0,0,-1,1476,1415,0,0
259,-391,0,0,0,0,0,0,0,0,0,-1,1483,1415,0,0
266,-391,0,0,0,0,0,0,0,0,0,-1,1490,1415,0,0
273,-391,0,0,0,0,0,0,0,0,0,-1,1497,1415,0,0
280,-391,0,0,0,0,0,0,0,0,0,-1,1504,1415,0,0
287,-391,0,0,0,0,0,0,0,0,0,-1,1511,1415,0,0
294,-391,0,0,0,0,0,0,0,0,0,-1,1518,1415,0,0
301,-391,0,0,0,0,0,0,0,0,0,-1,1525,1415,0,0
308,-391,0,0,0,0,0,0,0,0,0,-1,1532,1415,0,0
315,-391,0,0,0,0,0,0,0,0,0,-1,1539,1415,0,0
322,-391,0,0,0,0,0,0,0,0,0,-1,1546,1415,0,0
329,-391,0,0,0,0,0,0,0,0,0,-1,1553,1415,0,0
336,-391,0,0,0,0,0,0,0,0,0,-1,1560,1415,0,0
343,-391,0,0,0,0,0,0,0,0,0,-1,1567,1415,0,0
350,-391,0,0,0,0,0,0,0,0,0,-1,1574,1415,0,0
357,-391,0,0,0,0,0,0,0,0,0,-1,1581,1415,0,0
364,-391,0,0,0,0,0,0,0,0,0,-1,1588,1415,0,0
371,-391,0,0,0,0,0,0,0,0,0,-1,1595,1415,0,0
378,-391,0,0,0,0,0,0,0,0,0,-1,1602,1415,0,0
385,-391,0,0,0,0,0,0,0,0,0,-1,1609,1415,0,0
392,-391,0,0,0,0,0,0,0,0,0,-1,1616,1415,0,0
399,-391,0,0,0,0,0,0,0,0,0,-1,1623,1415,0,0
406,-391,0,0,0,0,0,0,0,0,0,-1,1630,1415,0,0
413,-391,0,0,0,0,0,0,0,0,0,-1,1637,1415,0,0
420,-391,0,0,0,0,0,0,0,0,0,-1,1644,1415,0,0
427,-391,0,0,0,0,0,0,0,0,0,-1,1651,1415,0,0
434,-391,0,0,0,0,0,0,0,0,0,-1,1658,1415,0,0
441,-391,0,0,0,0,0,0,0,0,0,-1,1665,1415,0,0
448,-391,0,0,0,0,0,0,0,0,0,-1,1672,1415,0,0
455,-391,0,0,0,0,0,0,0,0,0,-1,1679,1415,0,0
462,-391,0,0,0,0,0,0,0,0,0,-1,1686,1415,0,0
469,-391,0,0,0,0,0,0,0,0,0,-1,1693,1415,0,0
476,-391,0,0,0,0,0,0,0,0,0,-1,1700,1415,0,0
483,-391,0,0,0,0,0,0,0,0,0,-1,1707,1415,0,0
490,-391,0,0,0,0,0,0,0,0,0,-1,1714,1415,0,0
497,-391,0,0,0,0,0,0,0,0,0,-1,1721,1415,0,0
504,-391,0,0,0,0,0,0,0,0,0,-1,1728,1415,0,0
511,-391,0,0,0,0,0,0,0,0,0,-1,1735,1415,0,0
518,-391,0,0,0,0,0,0,0,0,0,-1,1742,1415,0,0
525,-391,0,0,0,0,0,0,0,0,0,-1,1749,1415,0,0
532,-391,1.9375,-2.12903,0,0,0,0,0,0,0,-1,1756,1415,1.9375,2.12908
539,-391,2.12366,-1.5199,-0.0188833,0.0197626,0.0263058,0.0330797,-0.0322004,1.10217,0.0376906,0.0444227,1763,1415,2.12363,1.51986
546,-391,2.11743,-0.729614,-0.0205526,0.0249029,0.0260996,0.0367836,-0.0324332,1.14362,0.0399886,0.0428948,1770,1415,2.11738,0.729602
553,-391,1.71252,0.0523682,0,0,0,0,0,0,0,-1,1777,1415,1.71247,-0.0523839
560,-391,1.73474,0.905518,-0.0182821,0.0272256,0.0223049,0.0363347,-0.0273912,1.18308,0.0369127,0.0460131,1784,1415,1.73473,-0.90556
567,-391,1.55981,1.15796,-0.0155318,0.025871,0.019673,0.0337278,-0.0233886,1.19083,0.0331558,0.0443307,1791,1415,1.55983,-1.15791
574,-391,1.40942,1.34253,0,0,0,0,0,0,0,-1,1798,1415,1.40944,-1.34256
581,-391,-0.13501,-0.575684,-0.00841499,0.0196499,0.0135171,0.0251013,-0.0138664,1.18745,0.0228076,0.0406458,1805,1415,-0.134995,0.575687
588,-391,-0.0888672,-0.429565,-0.00505439,0.0157901,0.0108497,0.0204124,-0.00967671,1.16805,0.0177367,0.0439169,1812,1415,-0.0889217,0.429582
595,-391,0.19043,-0.250366,-0.00285389,0.0131855,0.00845118,0.0168164,-0.00648486,1.165,0.0138868,0.0467646,1819,1415,0.190378,0.250355
602,-391,0.14502,-0.141357,-0.00136601,0.00961349,0.00651675,0.0126446,-0.00439714,1.13543,0.0102159,0.045378,1826,1415,0.145062,0.141303
609,-391,0.0324707,0.0135498,-0.000235853,0.00665336,0.00537961,0.00959667,-0.00317916,1.07016,0.00768006,0.0388061,1833,1415,0.0324635,-0.0135306
616,-391,-0.0301514,0.00012207,0.000352707,0.00383148,0.00390982,0.00637136,-0.00218718,0.994691,0.00513434,0.0241714,1840,1415,-0.0301199,-0.000160018
623,-391,-0.0137939,0.0375977,0.000645734,0.00191938,0.00277389,0.00412861,-0.0015635,0.898232,0.00339575,0.0139829,1847,1415,-0.0138281,-0.0375632
630,-391,-0.0180664,0.0288086,0.000575559,0.000688663,0.00226075,0.00289357,-0.00162935,0.797903,0.00264509,0.0148196,1854,1415,-0.018095,-0.028786
637,-391,-0.0323486,0.0338135,0.000671493,-4.53415e-05,0.00163319,0.00198513,-0.00135898,0.677381,0.00194197,0.0150939,1861,1415,-0.0323832,-0.0338552
644,-391,-0.0406494,0.0369873,0.000490175,0.000282223,0.00124932,0.00163983,-0.000867437,0.743881,0.00147029,0.0151095,1868,1415,-0.0407082,-0.0370183
651,-391,-0.0255127,0.0297852,-3.91557e-05,1.38961e-05,0.000294092,0.000282656,-0.000307916,0.830374,0.000341071,0.0144996,1875,1415,-0.02552,-0.0297869
658,-391,-0.00854492,0.0402832,-0.000245402,0.000400386,-0.000179491,0.000446921,-0.000291937,-1.31712,0.000429696,0.0140283,1882,1415,-0.00858205,-0.0403041
665,-391,-0.0170898,0.0460205,-0.000219257,0.00090342,-0.00044276,0.00105702,-0.000372858,-1.23687,0.000856461,0.0115083,1889,1415,-0.0171314,-0.0459931
672,-391,-0.00305176,0.0371094,-0.000554859,0.00149327,-0.000523062,0.00161912,-0.000680708,-1.33468,0.00136415,0.0109442,1896,1415,-0.00305242,-0.0371234
679,-391,0.0032959,0.0236816,-0.00100393,0.00192089,-0.000577602,0.00203083,-0.00111386,-1.38272,0.00184114,0.0105894,1903,1415,0.00324172,-0.0236704
686,-391,-0.0255127,0.039917,-0.0013449,0.0022283,-0.000528915,0.00230495,-0.00142155,-1.42688,0.00217155,0.0111658,1910,1415,-0.0254981,-0.0398885
693,-391,-0.0648193,0.0256348,-0.00153356,0.00257812,-0.000342417,0.00260644,-0.00156188,-1.48827,0.00243164,0.0206744,1917,1415,-0.0648346,-0.02563
700,-391,-0.0804443,-0.000976563,-0.00190289,0.00285159,-2.95687e-05,0.00285177,-0.00190307,-1.56458,0.00276336,0.0369161,1924,1415,-0.080458,0.000956295
707,-391,-0.0301514,0.0163574,-0.00225214,0.00295619,0.000447532,0.00299437,-0.00229031,1.4857,0.00306012,0.0455579,1931,1415,-0.0301504,-0.0163387
714,-391,0.0383301,0.0524902,-0.00249981,0.00279365,0.00110786,0.00301615,-0.00272232,1.37259,0.00331456,0.0483211,1938,1415,0.0383034,-0.0524442
721,-391,-0.151855,0.131714,-0.00253457,0.00225912,0.00197345,0.00296701,-0.00324246,1.22639,0.00358621,0.0442009,1945,1415,-0.151836,-0.131712
728,-391,-0.262085,0.0935059,-0.00217823,0.00126847,0.00300933,0.00301297,-0.00392274,1.04544,0.0040158,0.0423436,1952,1415,-0.262057,-0.0935521
735,-391,0,0,0,0,0,0,0,0,0,-1,1959,1415,0,0
742,-391,0,0,0,0,0,0,0,0,0,-1,1966,1415,0,0
749,-391,0,0,0,0,0,0,0,0,0,-1,1973,1415,0,0
756,-391,0,0,0,0,0,0,0,0,0,-1,1980,1415,0,0
763,-391,0,0,0,0,0,0,0,0,0,-1,1987,1415,0,0
770,-391,0,0,0,0,0,0,0,0,0,-1,1994,1415,0,0
777,-391,0,0,0,0,0,0,0,0,0,-1,2001,1415,0,0
784,-391,0,0,0,0,0,0,0,0,0,-1,2008,1415,0,0
791,-391,0,0,0,0,0,0,0,0,0,-1,2015,1415,0,0
798,-391,0,0,0,0,0,0,0,0,0,-1,2022,1415,0,0
805,-391,0,0,0,0,0,0,0,0,0,-1,2029,1415,0,0
812,-391,0,0,0,0,0,0,0,0,0,-1,2036,1415,0,0
-700,-398,0,0,0,0,0,0,0,0,0,-1,524,1422,0,0
-693,-398,0,0,0,0,0,0,0,0,0,-1,531,1422,0,0
-686,-398,0,0,0,0,0,0,0,0,0,-1,538,1422,0,0
-679,-398,0,0,0,0,0,0,0,0,0,-1,545,1422,0,0
-672,-398,0,0,0,0,0,0,0,0,0,-1,552,1422,0,0
-665,-398,0,0,0,0,0,0,0,0,0,-1,559,1422,0,0
-658,-398,0,0,0,0,0,0,0,0,0,-1,566,1422,0,0
-651,-398,0,0,0,0,0,0,0,0,0,-1,573,1422,0,0
-644,-398,0,0,0,0,0,0,0,0,0,-1,580,1422,0,0
-637,-398,0,0,0,0,0,0,0,0,0,-1,587,1422,0,0
-630,-398,0,0,0,0,0,0,0,0,0,-1,594,1422,0,0
-623,-398,0,0,0,0,0,0,0,0,0,-1,601,1422,0,0
-616,-398,0,0,0,0,0,0,0,0,0,-1,608,1422,0,0
-609,-398,-0.605774,0.20166,0.0720865,-0.00276616,-0.0083765,0.0730125,-0.00369209,-0.110092,0.0499512,0.044725,615,1422,-0.605774,-0.201643
-602,-398,-0.561035,-0.0543213,0.0547484,-0.00179022,-0.00354802,0.0549702,-0.002012,-0.0624274,0.0373355,0.0460629,622,1422,-0.561062,0.0543704
-595,-398,1.35394,-1.37122,0,0,0,0,0,0,0,-1,629,1422,1.35394,1.37119
-588,-398,0.698547,-1.26904,0.0270088,-0.000708497,0.00178633,0.0271234,-0.000823149,0.0640951,0.0183628,0.0472745,636,1422,0.69854,1.2691
-581,-398,0.116211,-0.997192,0.0169018,-0.000203899,0.00306545,0.0174346,-0.000736654,0.172075,0.0118762,0.0445382,643,1422,0.116229,0.997132
-574,-398,-0.0344238,0.0529785,0,0,0,0,0,0,0,-1,650,1422,-0.0344018,-0.052944
-567,-398,0.0827637,-0.239502,0.00368456,0.000281376,0.00382281,0.00616738,-0.00220144,0.576006,0.00500933,0.043057,657,1422,0.082745,0.239468
-560,-398,-0.0556641,0.000610352,0.00027098,0.000196383,0.00386881,0.00410267,-0.00363531,0.780578,0.00447024,0.0340533,664,1422,-0.0556827,-0.000560451
-553,-398,-0.0184937,0.0200195,-0.0018764,0.000345724,0.00335773,0.00277145,-0.00430212,0.945176,0.00411568,0.0208534,671,1422,-0.0184671,-0.019989
-546,-398,-0.00128174,0.0400391,-0.00522838,-8.61575e-06,0.0033547,0.00163186,-0.00686886,1.11598,0.0052091,0.010408,678,1422,-0.0012571,-0.040097
-539,-398,-0.00854492,0.0461426,-0.00612961,0.000246446,0.00213074,0.000892942,-0.00677611,1.27621,0.00484257,0.0114271,685,1422,-0.00854671,-0.0460843
-532,-398,-0.0168457,0.03125,-0.00402883,0.000152107,0.00159195,0.000689254,-0.00456598,1.24538,0.00329783,0.0195486,692,1422,-0.0168413,-0.0313047
-525,-398,-0.00823975,0.0458984,-0.00226776,-7.65445e-05,0.000823955,0.000198709,-0.00254301,1.24839,0.00176531,0.0190391,699,1422,-0.00821105,-0.0459306
-518,-398,-0.0227661,0.0473633,-0.000668761,-0.000231691,-0.000232312,-0.00013128,-0.000769172,-1.16282,0.000475106,0.015357,706,1422,-0.0227582,-0.0474098
-511,-398,-0.0199585,0.0294189,0.00106195,-0.000942879,-0.000872171,0.00138826,-0.00126919,-0.358016,0.00153479,0.0109723,713,1422,-0.0199307,-0.0294317
-504,-398,-0.0160522,0.0217285,0.00277679,-0.00161526,-0.00108054,0.00302823,-0.00186671,-0.228631,0.00285249,0.0109159,720,1422,-0.0160644,-0.0217033
-497,-398,-0.0152588,0.00878906,0.00457969,-0.00266953,-0.00110905,0.00474557,-0.00283541,-0.148466,0.00442295,0.00895483,727,1422,-0.0152752,-0.00883074
-490,-398,-0.0220947,0.0185547,0.00611461,-0.00185899,-0.00189955,0.00654402,-0.00228839,-0.22232,0.00529302,0.00873305,734,1422,-0.0220717,-0.0185889
-483,-398,-0.0501099,0.0297852,0.0068538,-0.00087203,-0.00211044,0.00739271,-0.00141094,-0.250013,0.0054599,0.0128381,741,1422,-0.0500908,-0.0297349
-476,-398,-0.0697632,0.0147705,0.00709444,-0.000292339,-0.00229742,0.00775068,-0.000948578,-0.278232,0.00551059,0.0292091,748,1422,-0.0697778,-0.0147147
-469,-398,0.193298,-0.223267,0.00667863,0.000225133,-0.00294827,0.00782272,-0.000918956,-0.370166,0.0055469,0.0429096,755,1422,0.193289,0.223288
-462,-398,0.739868,-0.663208,0.00596722,0.00113175,-0.00334769,0.00767895,-0.000579979,-0.472659,0.00532317,0.0460125,762,1422,0.73986,0.66322
-455,-398,0.781311,-0.758789,0.003986,0.0022387,-0.00340487,0.00662752,-0.000402816,-0.659814,0.00455855,0.0404632,769,1422,0.781294,0.75881
-448,-398,1.20514,-0.825562,0.00161559,0.00367071,-0.00394334,0.00671817,-0.00143188,-0.912854,0.00502455,0.0432945,776,1422,1.20516,0.825557
-441,-398,1.7276,-1.00281,-0.0014691,0.00525755,-0.00466759,0.00764734,-0.00385889,-1.0976,0.00676209,0.0475355,783,1422,1.72757,1.00282
-434,-398,-0.650757,0.263428,-0.00512188,0.00690171,-0.0054305,0.00899128,-0.00721145,-1.20348,0.00937344,0.0468966,790,1422,-0.650742,-0.263424
-427,-398,-0.10675,-0.375122,0,0,0,0,0,0,0,-1,797,1422,-0.106765,0.37509
-420,-398,-0.272278,-0.823975,-0.0141484,0.00868449,-0.00769629,0.0110364,-0.0165004,-1.27422,0.0160023,0.0451552,804,1422,-0.2723,0.82399
-413,-398,-0.259338,-1.36487,0,0,0,0,0,0,0,-1,811,1422,-0.259345,1.36487
-406,-398,0,0,0,0,0,0,0,0,0,-1,818,1422,0,0
-399,-398,0,0,0,0,0,0,0,0,0,-1,825,1422,0,0
-392,-398,0,0,0,0,0,0,0,0,0,-1,832,1422,0,0
-385,-398,0,0,0,0,0,0,0,0,0,-1,839,1422,0,0
-378,-398,0,0,0,0,0,0,0,0,0,-1,846,1422,0,0
-371,-398,0,0,0,0,0,0,0,0,0,-1,853,1422,0,0
-364,-398,0,0,0,0,0,0,0,0,0,-1,860,1422,0,0
-357,-398,0,0,0,0,0,0,0,0,0,-1,867,1422,0,0
-350,-398,0,0,0,0,0,0,0,0,0,-1,874,1422,0,0
-343,-398,0,0,0,0,0,0,0,0,0,-1,881,1422,0,0
-336,-398,0,0,0,0,0,0,0,0,0,-1,888,1422,0,0
-329,-398,0,0,0,0,0,0,0,0,0,-1,895,1422,0,0
-322,-398,0,0,0,0,0,0,0,0,0,-1,902,1422,0,0
-315,-398,0,0,0,0,0,0,0,0,0,-1,909,1422,0,0
-308,-398,0,0,0,0,0,0,0,0,0,-1,916,1422,0,0
-301,-398,0,0,0,0,0,0,0,0,0,-1,923,1422,0,0
-294,-398,0,0,0,0,0,0,0,0,0,-1,930,1422,0,0
-287,-398,0,0,0,0,0,0,0,0,0,-1,937,1422,0,0
-280,-398,0,0,0,0,0,0,0,0,0,-1,944,1422,0,0
-273,-398,0,0,0,0,0,0,0,0,0,-1,951,1422,0,0
-266,-398,0,0,0,0,0,0,0,0,0,-1,958,1422,0,0
-259,-398,0,0,0,0,0,0,0,0,0,-1,965,1422,0,0
-252,-398,0,0,0,0,0,0,0,0,0,-1,972,1422,0,0
-245,-398,0,0,0,0,0,0,0,0,0,-1,979,1422,0,0
-238,-398,0,0,0,0,0,0,0,0,0,-1,986,1422,0,0
-231,-398,0,0,0,0,0,0,0,0,0,-1,993,1422,0,0
-224,-398,0,0,0,0,0,0,0,0,0,-1,1000,1422,0,0
-217,-398,0,0,0,0,0,0,0,0,0,-1,1007,1422,0,0
-210,-398,0,0,0,0,0,0,0,0,0,-1,1014,1422,0,0
-203,-398,0,0,0,0,0,0,0,0,0,-1,1021,1422,0,0
-196,-398,0,0,0,0,0,0,0,0,0,-1,1028,1422,0,0
-189,-398,0,0,0,0,0,0,0,0,0,-1,1035,1422,0,0
-182,-398,0,0,0,0,0,0,0,0,0,-1,1042,1422,0,0
-175,-398,0,0,0,0,0,0,0,0,0,-1,1049,1422,0,0
-168,-398,0,0,0,0,0,0,0,0,0,-1,1056,1422,0,0
-161,-398,0,0,0,0,0,0,0,0,0,-1,1063,1422,0,0
-154,-398,0,0,0,0,0,0,0,0,0,-1,1070,1422,0,0
-147,-398,0,0,0,0,0,0,0,0,0,-1,1077,1422,0,0
-140,-398,0,0,0,0,0,0,0,0,0,-1,1084,1422,0,0
-133,-398,0,0,0,0,0,0,0,0,0,-1,1091,1422,0,0
-126,-398,0,0,0,0,0,0,0,0,0,-1,1098,1422,0,0
-119,-398,0,0,0,0,0,0,0,0,0,-1,1105,1422,0,0
-112,-398,0,0,0,0,0,0,0,0,0,-1,1112,1422,0,0
-105,-398,0,0,0,0,0,0,0,0,0,-1,1119,1422,0,0
-98,-398,0,0,0,0,0,0,0,0,0,-1,1126,1422,0,0
-91,-398,0,0,0,0,0,0,0,0,0,-1,1133,1422,0,0
-84,-398,0,0,0,0,0,0,0,0,0,-1,1140,1422,0,0
-77,-398,0,0,0,0,0,0,0,0,0,-1,1147,1422,0,0
-70,-398,0,0,0,0,0,0,0,0,0,-1,1154,1422,0,0
-63,-398,0,0,0,0,0,0,0,0,0,-1,1161,1422,0,0
-56,-398,0,0,0,0,0,0,0,0,0,-1,1168,1422,0,0
-49,-398,0,0,0,0,0,0,0,0,0,-1,1175,1422,0,0
-42,-398,0,0,0,0,0,0,0,0,0,-1,1182,1422,0,0
-35,-398,0,0,0,0,0,0,0,0,0,-1,1189,1422,0,0
-28,-398,0,0,0,0,0,0,0,0,0,-1,1196,1422,0,0
-21,-398,0,0,0,0,0,0,0,0,0,-1,1203,1422,0,0
-14,-398,0,0,0,0,0,0,0,0,0,-1,1210,1422,0,0
-7,-398,0,0,0,0,0,0,0,0,0,-1,1217,1422,0,0
0,-398,0,0,0,0,0,0,0,0,0,-1,1224,1422,0,0
7,-398,0,0,0,0,0,0,0,0,0,-1,1231,1422,0,0
14,-398,0,0,0,0,0,0,0,0,0,-1,1238,1422,0,0
21,-398,0,0,0,0,0,0,0,0,0,-1,1245,1422,0,0
28,-398,0,0,0,0,0,0,0,0,0,-1,1252,1422,0,0
35,-398,0,0,0,0,0,0,0,0,0,-1,1259,1422,0,0
42,-398,0,0,0,0,0,0,0,0,0,-1,1266,1422,0,0
49,-398,0,0,0,0,0,0,0,0,0,-1,1273,1422,0,0
56,-398,0,0,0,0,0,0,0,0,0,-1,1280,1422,0,0
63,-398,0,0,0,0,0,0,0,0,0,-1,1287,1422,0,0
70,-398,0,0,0,0,0,0,0,0,0,-1,1294,1422,0,0
77,-398,0,0,0,0,0,0,0,0,0,-1,1301,1422,0,0
84,-398,0,0,0,0,0,0,0,0,0,-1,1308,1422,0,0
91,-398,0,0,0,0,0,0,0,0,0,-1,1315,1422,0,0
98,-398,0,0,0,0,0,0,0,0,0,-1,1322,1422,0,0
105,-398,0,0,0,0,0,0,0,0,0,-1,1329,1422,0,0
112,-398,0,0,0,0,0,0,0,0,0,-1,1336,1422,0,0
119,-398,0,0,0,0,0,0,0,0,0,-1,1343,1422,0,0
126,-398,0,0,0,0,0,0,0,0,0,-1,1350,1422,0,0
133,-398,0,0,0,0,0,0,0,0,0,-1,1357,1422,0,0
140,-398,0,0,0,0,0,0,0,0,0,-1,1364,1422,0,0
147,-398,0,0,0,0,0,0,0,0,0,-1,1371,1422,0,0
154,-398,0,0,0,0,0,0,0,0,0,-1,1378,1422,0,0
161,-398,0,0,0,0,0,0,0,0,0,-1,1385,1422,0,0
168,-398,0,0,0,0,0,0,0,0,0,-1,1392,1422,0,0
175,-398,0,0,0,0,0,0,0,0,0,-1,1399,1422,0,0
182,-398,0,0,0,0,0,0,0,0,0,-1,1406,1422,0,0
189,-398,0,0,0,0,0,0,0,0,0,-1,1413,1422,0,0
196,-398,0,0,0,0,0,0,0,0,0,-1,1420,1422,0,0
203,-398,0,0,0,0,0,0,0,0,0,-1,1427,1422,0,0
210,-398,0,0,0,0,0,0,0,0,0,-1,1434,1422,0,0
217,-398,0,0,0,0,0,0,0,0,0,-1,1441,1422,0,0
224,-398,0,0,0,0,0,0,0,0,0,-1,1448,1422,0,0
231,-398,0,0,0,0,0,0,0,0,0,-1,1455,1422,0,0
238,-398,0,0,0,0,0,0,0,0,0,-1,1462,1422,0,0
245,-398,0,0,0,0,0,0,0,0,0,-1,1469,1422,0,0
252,-398,0,0,0,0,0,0,0,0,0,-1,1476,1422,0,0
259,-398,0,0,0,0,0,0,0,0,0,-1,1483,1422,0,0
266,-398,0,0,0,0,0,0,0,0,0,-1,1490,1422,0,0
273,-398,0,0,0,0,0,0,0,0,0,-1,1497,1422,0,0
280,-398,0,0,0,0,0,0,0,0,0,-1,1504,1422,0,0
287,-398,0,0,0,0,0,0,0,0,0,-1,1511,1422,0,0
294,-398,0,0,0,0,0,0,0,0,0,-1,1518,1422,0,0
301,-398,0,0,0,0,0,0,0,0,0,-1,1525,1422,0,0
308,-398,0,0,0,0,0,0,0,0,0,-1,1532,1422,0,0
315,-398,0,0,0,0,0,0,0,0,0,-1,1539,1422,0,0
322,-398,0,0,0,0,0,0,0,0,0,-1,1546,1422,0,0
329,-398,0,0,0,0,0,0,0,0,0,-1,1553,1422,0,0
336,-398,0,0,0,0,0,0,0,0,0,-1,1560,1422,0,0
343,-398,0,0,0,0,0,0,0,0,0,-1,1567,1422,0,0
350,-398,0,0,0,0,0,0,0,0,0,-1,1574,1422,0,0
357,-398,0,0,0,0,0,0,0,0,0,-1,1581,1422,0,0
364,-398,0,0,0,0,0,0,0,0,0,-1,1588,1422,0,0
371,-398,0,0,0,0,0,0,0,0,0,-1,1595,1422,0,0
378,-398,0,0,0,0,0,0,0,0,0,-1,1602,1422,0,0
385,-398,0,0,0,0,0,0,0,0,0,-1,1609,1422,0,0
392,-398,0,0,0,0,0,0,0,0,0,-1,1616,1422,0,0
399,-398,0,0,0,0,0,0,0,0,0,-1,1623,1422,0,0
406,-398,0,0,0,0,0,0,0,0,0,-1,1630,1422,0,0
413,-398,0,0,0,0,0,0,0,0,0,-1,1637,1422,0,0
420,-398,0,0,0,0,0,0,0,0,0,-1,1644,1422,0,0
427,-398,0,0,0,0,0,0,0,0,0,-1,1651,1422,0,0
434,-398,0,0,0,0,0,0,0,0,0,-1,1658,1422,0,0
441,-398,0,0,0,0,0,0,0,0,0,-1,1665,1422,0,0
448,-398,0,0,0,0,0,0,0,0,0,-1,1672,1422,0,0
455,-398,0,0,0,0,0,0,0,0,0,-1,1679,1422,0,0
462,-398,0,0,0,0,0,0,0,0,0,-1,1686,1422,0,0
469,-398,0,0,0,0,0,0,0,0,0,-1,1693,1422,0,0
476,-398,0,0,0,0,0,0,0,0,0,-1,1700,1422,0,0
483,-398,0,0,0,0,0,0,0,0,0,-1,1707,1422,0,0
490,-398,0,0,0,0,0,0,0,0,0,-1,1714,1422,0,0
497,-398,0,0,0,0,0,0,0,0,0,-1,1721,1422,0,0
504,-398,0,0,0,0,0,0,0,0,0,-1,1728,1422,0,0
511,-398,0,0,0,0,0,0,0,0,0,-1,1735,1422,0,0
518,-398,0,0,0,0,0,0,0,0,0,-1,1742,1422,0,0
525,-398,0,0,0,0,0,0,0,0,0,-1,1749,1422,0,0
532,-398,1.91785,1.19812,0,0,0,0,0,0,0,-1,1756,1422,1.91787,-1.19817
539,-398,1.5564,-1.6095,-0.0172624,0.0187512,0.0255491,0.0320014,-0.0305127,1.09237,0.0360959,0.0480782,1763,1422,1.55644,1.60948
546,-398,1.70618,-1.01489,-0.0193708,0.0229939,0.0258925,0.0352647,-0.0316416,1.12823,0.0386473,0.0443949,1770,1422,1.70618,1.01495
553,-398,1.06104,-0.132446,0,0,0,0,0,0,0,-1,1777,1422,1.061,0.132468
560,-398,1.26697,0.603638,0,0,0,0,0,0,0,-1,1784,1422,1.26699,-0.603611
567,-398,1.10669,0.819702,0,0,0,0,0,0,0,-1,1791,1422,1.10673,-0.819704
574,-398,1.20813,1.14392,0,0,0,0,0,0,0,-1,1798,1422,1.20808,-1.14386
581,-398,1.39465,1.49353,0,0,0,0,0,0,0,-1,1805,1422,1.3946,-1.49358
588,-398,-0.231567,-0.309937,-0.00611235,0.0148332,0.0115125,0.0199237,-0.0112029,1.15447,0.0182045,0.047073,1812,1422,-0.231607,0.309914
595,-398,-0.132202,-0.296753,-0.00381383,0.0124885,0.00892754,0.0164262,-0.00775161,1.15538,0.0142554,0.0460255,1819,1422,-0.132253,0.296728
602,-398,-0.00610352,-0.137085,-0.00222236,0.00923473,0.00681433,0.0124085,-0.00539614,1.13492,0.0105419,0.0437926,1826,1422,-0.00608847,0.13713
609,-398,-0.0344238,0.0255127,-0.00095703,0.00656689,0.005515,0.00948083,-0.00387097,1.08471,0.00793223,0.0345388,1833,1422,-0.03446,-0.0254536
616,-398,-0.0123291,0.024292,-0.000322842,0.00404811,0.00395761,0.00638359,-0.00265832,1.03767,0.005366,0.0144928,1840,1422,-0.0123732,-0.0242936
623,-398,-0.0155029,0.0255127,6.21545e-05,0.00222728,0.00274971,0.00409986,-0.00181043,0.97293,0.0034966,0.0102207,1847,1422,-0.0155115,-0.0255676
630,-398,-0.0136719,0.0250244,0.000114775,0.00108969,0.0021208,0.00277833,-0.00157386,0.89836,0.00254461,0.0112234,1854,1422,-0.0137035,-0.0250224
637,-398,-0.0186768,0.0239258,0.000267216,0.000380598,0.0013728,0.00169788,-0.00105007,0.806034,0.00160115,0.0136011,1861,1422,-0.0186865,-0.0238798
644,-398,-0.0517578,0.0183105,0.00034408,0.000648185,0.000912348,0.00142106,-0.000428799,0.867969,0.00111806,0.019429,1868,1422,-0.0518047,-0.0183535
651,-398,-0.0616455,0.0296631,-6.53229e-05,0.000495458,0.000110085,0.000516294,-8.6159e-05,1.38374,0.000376219,0.0230932,1875,1422,-0.0616879,-0.0296695
658,-398,-0.0297852,0.0605469,-0.000208074,0.000859044,-0.00037808,0.000979419,-0.000328449,-1.26256,0.000785657,0.0175049,1882,1422,-0.0298444,-0.0606054
665,-398,-0.012085,0.0506592,-0.000194925,0.00132826,-0.000665771,0.00157824,-0.000444903,-1.21161,0.00122764,0.0127886,1889,1422,-0.0120682,-0.0506685
672,-398,-0.00256348,0.0343018,-0.000514362,0.00193609,-0.000795539,0.0021717,-0.000749979,-1.28285,0.00175214,0.012102,1896,1422,-0.00253316,-0.0342419
679,-398,-0.00317383,0.0246582,-0.000908108,0.00243998,-0.000936097,0.00268393,-0.00115206,-1.31586,0.00227281,0.0103705,1903,1422,-0.0031613,-0.0246617
686,-398,-0.0159912,0.0435791,-0.0012269,0.00289909,-0.000978396,0.00311934,-0.00144715,-1.34937,0.00269474,0.0147064,1910,1422,-0.0160148,-0.043623
693,-398,-0.0145264,0.0474854,-0.00143524,0.00347618,-0.000892602,0.00363337,-0.00159243,-1.39648,0.00309287,0.0310947,1917,1422,-0.0145211,-0.0474391
700,-398,-0.0880127,0.0349121,-0.00181455,0.00404937,-0.000677319,0.00412659,-0.00189177,-1.45728,0.00355365,0.0411326,1924,1422,-0.0879611,-0.034911
707,-398,-0.0299072,0.0751953,-0.00220243,0.0045268,-0.000295691,0.00453977,-0.0022154,-1.52697,0.00397631,0.0457235,1931,1422,-0.0299435,-0.075248
714,-398,-0.121826,-0.019043,-0.00253639,0.00481701,0.000279065,0.00482759,-0.00254697,1.53292,0.00432504,0.0481601,1938,1422,-0.121771,0.0189843
721,-398,-0.198853,-0.0758057,-0.00274105,0.00482842,0.00105938,0.00497389,-0.00288652,1.43433,0.00459124,0.0435607,1945,1422,-0.198808,0.0757682
728,-398,-0.265747,-0.0621338,-0.00268893,0.0045087,0.00199173,0.0050231,-0.00320332,1.31806,0.0047881,0.0428467,1952,1422,-0.265693,0.0620954
735,-398,0,0,0,0,0,0,0,0,0,-1,1959,1422,0,0
742,-398,0,0,0,0,0,0,0,0,0,-1,1966,1422,0,0
749,-398,0,0,0,0,0,0,0,0,0,-1,1973,1422,0,0
756,-398,0,0,0,0,0,0,0,0,0,-1,1980,1422,0,0
763,-398,0,0,0,0,0,0,0,0,0,-1,1987,1422,0,0
770,-398,0,0,0,0,0,0,0,0,0,-1,1994,1422,0,0
777,-398,0,0,0,0,0,0,0,0,0,-1,2001,1422,0,0
784,-398,0,0,0,0,0,0,0,0,0,-1,2008,1422,0,0
791,-398,0,0,0,0,0,0,0,0,0,-1,2015,1422,0,0
798,-398,0,0,0,0,0,0,0,0,0,-1,2022,1422,0,0
805,-398,0,0,0,0,0,0,0,0,0,-1,2029,1422,0,0
812,-398,0,0,0,0,0,0,0,0,0,-1,2036,1422,0,0
-700,-405,0,0,0,0,0,0,0,0,0,-1,524,1429,0,0
-693,-405,0,0,0,0,0,0,0,0,0,-1,531,1429,0,0
-686,-405,0,0,0,0,0,0,0,0,0,-1,538,1429,0,0
-679,-405,0,0,0,0,0,0,0,0,0,-1,545,1429,0,0
-672,-405,0,0,0,0,0,0,0,0,0,-1,552,1429,0,0
-665,-405,0,0,0,0,0,0,0,0,0,-1,559,1429,0,0
-658,-405,0,0,0,0,0,0,0,0,0,-1,566,1429,0,0
-651,-405,0,0,0,0,0,0,0,0,0,-1,573,1429,0,0
-644,-405,0,0,0,0,0,0,0,0,0,-1,580,1429,0,0
-637,-405,0,0,0,0,0,0,0,0,0,-1,587,1429,0,0
-630,-405,0,0,0,0,0,0,0,0,0,-1,594,1429,0,0
-623,-405,0,0,0,0,0,0,0,0,0,-1,601,1429,0,0
-616,-405,0,0,0,0,0,0,0,0,0,-1,608,1429,0,0
-609,-405,0,0,0,0,0,0,0,0,0,-1,615,1429,0,0
-602,-405,-0.417664,-0.202148,0.0660905,-0.00343115,-0.00295102,0.0662156,-0.00355619,-0.0423459,0.0453756,0.0434287,622,1429,-0.417691,0.202103
-595,-405,1.82776,-1.27917,0.0461574,-0.00208159,0.000888055,0.0461738,-0.00209793,0.0184012,0.0315051,0.0459077,629,1429,1.82779,1.27917
-588,-405,1.0506,-1.11646,0.0303892,-0.0011929,0.00326018,0.0307223,-0.00152593,0.101798,0.0210086,0.0484071,636,1429,1.05062,1.11643
-581,-405,0.206543,-1.005,0.0181618,-0.000489211,0.0046691,0.0192654,-0.00159278,0.232096,0.0134061,0.043997,643,1429,0.206518,1.00498
-574,-405,-0.227661,-0.783813,0,0,0,0,0,0,0,-1,650,1429,-0.227631,0.783778
-567,-405,0.0820313,-0.599854,0.00266983,3.78235e-05,0.00535768,0.00687077,-0.00416312,0.664968,0.00643403,0.046966,657,1429,0.0820078,0.599876
-560,-405,-0.0612793,-0.236206,-0.00110912,-0.000138994,0.00522357,0.00462199,-0.0058701,0.831695,0.00607188,0.0413592,664,1429,-0.0612495,0.236232
-553,-405,-0.0160522,-0.0797119,-0.00334178,-0.000126363,0.00461074,0.00314892,-0.00661706,0.953151,0.00575569,0.0303695,671,1429,-0.0160436,0.0797253
-546,-405,-0.00854492,0.00964355,-0.00682006,-0.000618616,0.00453188,0.00177178,-0.00921046,1.08542,0.00680819,0.0126638,678,1429,-0.00854181,-0.00961578
-539,-405,-0.020874,0.0283203,-0.00749392,-0.000397667,0.00293588,0.000659484,-0.00855107,1.22517,0.00593277,0.0104449,685,1429,-0.0208763,-0.0283589
-532,-405,-0.0286865,0.0438232,-0.00487971,-0.000578149,0.0021944,0.000343733,-0.00580159,1.17308,0.00398725,0.0153359,692,1429,-0.0287047,-0.0438181
-525,-405,-0.0170288,0.0737305,-0.00275176,-0.000799718,0.00129173,-0.000156736,-0.00339474,1.10893,0.00221277,0.0141797,699,1429,-0.0170378,-0.0736966
-518,-405,-0.0145874,0.0552979,-0.000961419,-0.000908078,0.000193221,-0.000739696,-0.0011298,0.853981,0.000662618,0.0135533,706,1429,-0.0145633,-0.0553159
-511,-405,-0.0222778,0.0413818,0.000974858,-0.00158367,-0.000497231,0.00106809,-0.00167691,-0.185357,0.00159777,0.0141431,713,1429,-0.0222746,-0.0413507
-504,-405,-0.0214844,0.0184326,0.00285556,-0.00212354,-0.000734577,0.00296167,-0.00222966,-0.143461,0.00300713,0.0158662,720,1429,-0.0214778,-0.0184243
-497,-405,-0.0128784,0.022583,0.00468805,-0.00295316,-0.000688207,0.00474954,-0.00301465,-0.0891095,0.0045198,0.0120038,727,1429,-0.0128876,-0.0225753
-490,-405,-0.017334,0.0297852,0.00624891,-0.00193916,-0.00137903,0.00647493,-0.00216518,-0.162451,0.00519111,0.0103195,734,1429,-0.017334,-0.0297632
-483,-405,-0.0444946,0.0233154,0.00703418,-0.000681762,-0.00153322,0.00732768,-0.00097526,-0.189138,0.00524055,0.00831506,741,1429,-0.0445102,-0.0232915
-476,-405,-0.0554199,0.0327148,0.00715862,3.3072e-05,-0.00151809,0.00746857,-0.000276873,-0.2014,0.00507386,0.0179355,748,1429,-0.0554085,-0.0326997
-469,-405,0.123291,-0.118774,0.00674576,0.000665695,-0.0019885,0.00733834,7.31084e-05,-0.289628,0.00486804,0.0341321,755,1429,0.123316,0.118827
-462,-405,0.429749,-0.407837,0.00618618,0.00160964,-0.00229011,0.00713531,0.000660507,-0.392899,0.00455271,0.0411362,762,1429,0.429737,0.407817
-455,-405,0.610352,-0.530029,0.00437208,0.00273811,-0.00213009,0.00583649,0.0012737,-0.602278,0.00354357,0.0417513,769,1429,0.610368,0.530021
-448,-405,0.764282,-0.525146,0.00235741,0.00413174,-0.00245224,0.00585237,0.000636791,-0.958962,0.00370759,0.0436406,776,1429,0.764303,0.525152
-441,-405,0.240051,-1.44824,0,0,0,0,0,0,0,-1,783,1429,0.240048,1.4482
-434,-405,0.214905,-1.20667,-0.00335622,0.00738532,-0.00337748,0.00835904,-0.00432994,-1.29011,0.00744807,0.0470062,790,1429,0.214913,1.2067
-427,-405,0.242554,-0.953613,-0.00698103,0.00846109,-0.0039316,0.00940445,-0.00792439,-1.3353,0.010017,0.0450081,797,1429,0.242524,0.953657
-420,-405,-0.067749,-0.940674,-0.0105885,0.00908857,-0.0046075,0.010114,-0.0116139,-1.35181,0.0125546,0.0465791,804,1429,-0.0677521,0.940701
-413,-405,0.137268,-1.05249,0,0,0,0,0,0,0,-1,811,1429,0.137286,1.05255
-406,-405,0.0594482,-0.616699,0,0,0,0,0,0,0,-1,818,1429,0.0594524,0.616749
-399,-405,0,0,0,0,0,0,0,0,0,-1,825,1429,0,0
-392,-405,0,0,0,0,0,0,0,0,0,-1,832,1429,0,0
-385,-405,0,0,0,0,0,0,0,0,0,-1,839,1429,0,0
-378,-405,0,0,0,0,0,0,0,0,0,-1,846,1429,0,0
-371,-405,0,0,0,0,0,0,0,0,0,-1,853,1429,0,0
-364,-405,0,0,0,0,0,0,0,0,0,-1,860,1429,0,0
-357,-405,0,0,0,0,0,0,0,0,0,-1,867,1429,0,0
-350,-405,0,0,0,0,0,0,0,0,0,-1,874,1429,0,0
-343,-405,0,0,0,0,0,0,0,0,0,-1,881,1429,0,0
-336,-405,0,0,0,0,0,0,0,0,0,-1,888,1429,0,0
-329,-405,0,0,0,0,0,0,0,0,0,-1,895,1429,0,0
-322,-405,0,0,0,0,0,0,0,0,0,-1,902,1429,0,0
-315,-405,0,0,0,0,0,0,0,0,0,-1,909,1429,0,0
-308,-405,0,0,0,0,0,0,0,0,0,-1,916,1429,0,0
-301,-405,0,0,0,0,0,0,0,0,0,-1,923,1429,0,0
-294,-405,0,0,0,0,0,0,0,0,0,-1,930,1429,0,0
-287,-405,0,0,0,0,0,0,0,0,0,-1,937,1429,0,0
-280,-405,0,0,0,0,0,0,0,0,0,-1,944,1429,0,0
-273,-405,0,0,0,0,0,0,0,0,0,-1,951,1429,0,0
-266,-405,0,0,0,0,0,0,0,0,0,-1,958,1429,0,0
-259,-405,0,0,0,0,0,0,0,0,0,-1,965,1429,0,0
-252,-405,0,0,0,0,0,0,0,0,0,-1,972,1429,0,0
-245,-405,0,0,0,0,0,0,0,0,0,-1,979,1429,0,0
-238,-405,0,0,0,0,0,0,0,0,0,-1,986,1429,0,0
-231,-405,0,0,0,0,0,0,0,0,0,-1,993,1429,0,0
-224,-405,0,0,0,0,0,0,0,0,0,-1,1000,1429,0,0
-217,-405,0,0,0,0,0,0,0,0,0,-1,1007,1429,0,0
-210,-405,0,0,0,0,0,0,0,0,0,-1,1014,1429,0,0
-203,-405,0,0,0,0,0,0,0,0,0,-1,1021,1429,0,0
-196,-405,0,0,0,0,0,0,0,0,0,-1,1028,1429,0,0
-189,-405,0,0,0,0,0,0,0,0,0,-1,1035,1429,0,0
-182,-405,0,0,0,0,0,0,0,0,0,-1,1042,1429,0,0
-175,-405,0,0,0,0,0,0,0,0,0,-1,1049,1429,0,0
-168,-405,0,0,0,0,0,0,0,0,0,-1,1056,1429,0,0
-161,-405,0,0,0,0,0,0,0,0,0,-1,1063,1429,0,0
-154,-405,0,0,0,0,0,0,0,0,0,-1,1070,1429,0,0
-147,-405,0,0,0,0,0,0,0,0,0,-1,1077,1429,0,0
-140,-405,0,0,0,0,0,0,0,0,0,-1,1084,1429,0,0
-133,-405,0,0,0,0,0,0,0,0,0,-1,1091,1429,0,0
-126,-405,0,0,0,0,0,0,0,0,0,-1,1098,1429,0,0
-119,-405,0,0,0,0,0,0,0,0,0,-1,1105,1429,0,0
-112,-405,0,0,0,0,0,0,0,0,0,-1,1112,1429,0,0
-105,-405,0,0,0,0,0,0,0,0,0,-1,1119,1429,0,0
-98,-405,0,0,0,0,0,0,0,0,0,-1,1126,1429,0,0
-91,-405,0,0,0,0,0,0,0,0,0,-1,1133,1429,0,0
-84,-405,0,0,0,0,0,0,0,0,0,-1,1140,1429,0,0
-77,-405,0,0,0,0,0,0,0,0,0,-1,1147,1429,0,0
-70,-405,0,0,0,0,0,0,0,0,0,-1,1154,1429,0,0
-63,-405,0,0,0,0,0,0,0,0,0,-1,1161,1429,0,0
-56,-405,0,0,0,0,0,0,0,0,0,-1,1168,1429,0,0
-49,-405,0,0,0,0,0,0,0,0,0,-1,1175,1429,0,0
-42,-405,0,0,0,0,0,0,0,0,0,-1,1182,1429,0,0
-35,-405,0,0,0,0,0,0,0,0,0,-1,1189,1429,0,0
-28,-405,0,0,0,0,0,0,0,0,0,-1,1196,1429,0,0
-21,-405,0,0,0,0,0,0,0,0,0,-1,1203,1429,0,0
-14,-405,0,0,0,0,0,0,0,0,0,-1,1210,1429,0,0
-7,-405,0,0,0,0,0,0,0,0,0,-1,1217,1429,0,0
0,-405,0,0,0,0,0,0,0,0,0,-1,1224,1429,0,0
7,-405,0,0,0,0,0,0,0,0,0,-1,1231,1429,0,0
14,-405,0,0,0,0,0,0,0,0,0,-1,1238,1429,0,0
21,-405,0,0,0,0,0,0,0,0,0,-1,1245,1429,0,0
28,-405,0,0,0,0,0,0,0,0,0,-1,1252,1429,0,0
35,-405,0,0,0,0,0,0,0,0,0,-1,1259,1429,0,0
42,-405,0,0,0,0,0,0,0,0,0,-1,1266,1429,0,0
49,-405,0,0,0,0,0,0,0,0,0,-1,1273,1429,0,0
56,-405,0,0,0,0,0,0,0,0,0,-1,1280,1429,0,0
63,-405,0,0,0,0,0,0,0,0,0,-1,1287,1429,0,0
70,-405,0,0,0,0,0,0,0,0,0,-1,1294,1429,0,0
77,-405,0,0,0,0,0,0,0,0,0,-1,1301,1429,0,0
84,-405,0,0,0,0,0,0,0,0,0,-1,1308,1429,0,0
91,-405,0,0,0,0,0,0,0,0,0,-1,1315,1429,0,0
98,-405,0,0,0,0,0,0,0,0,0,-1,1322,1429,0,0
105,-405,0,0,0,0,0,0,0,0,0,-1,1329,1429,0,0
112,-405,0,0,0,0,0,0,0,0,0,-1,1336,1429,0,0
119,-405,0,0,0,0,0,0,0,0,0,-1,1343,1429,0,0
126,-405,0,0,0,0,0,0,0,0,0,-1,1350,1429,0,0
133,-405,0,0,0,0,0,0,0,0,0,-1,1357,1429,0,0
140,-405,0,0,0,0,0,0,0,0,0,-1,1364,1429,0,0
147,-405,0,0,0,0,0,0,0,0,0,-1,1371,1429,0,0
154,-405,0,0,0,0,0,0,0,0,0,-1,1378,1429,0,0
161,-405,0,0,0,0,0,0,0,0,0,-1,1385,1429,0,0
168,-405,0,0,0,0,0,0,0,0,0,-1,1392,1429,0,0
175,-405,0,0,0,0,0,0,0,0,0,-1,1399,1429,0,0
182,-405,0,0,0,0,0,0,0,0,0,-1,1406,1429,0,0
189,-405,0,0,0,0,0,0,0,0,0,-1,1413,1429,0,0
196,-405,0,0,0,0,0,0,0,0,0,-1,1420,1429,0,0
203,-405,0,0,0,0,0,0,0,0,0,-1,1427,1429,0,0
210,-405,0,0,0,0,0,0,0,0,0,-1,1434,1429,0,0
217,-405,0,0,0,0,0,0,0,0,0,-1,1441,1429,0,0
224,-405,0,0,0,0,0,0,0,0,0,-1,1448,1429,0,0
231,-405,0,0,0,0,0,0,0,0,0,-1,1455,1429,0,0
238,-405,0,0,0,0,0,0,0,0,0,-1,1462,1429,0,0
245,-405,0,0,0,0,0,0,0,0,0,-1,1469,1429,0,0
252,-405,0,0,0,0,0,0,0,0,0,-1,1476,1429,0,0
259,-405,0,0,0,0,0,0,0,0,0,-1,1483,1429,0,0
266,-405,0,0,0,0,0,0,0,0,0,-1,1490,1429,0,0
273,-405,0,0,0,0,0,0,0,0,0,-1,1497,1429,0,0
280,-405,0,0,0,0,0,0,0,0,0,-1,1504,1429,0,0
287,-405,0,0,0,0,0,0,0,0,0,-1,1511,1429,0,0
294,-405,0,0,0,0,0,0,0,0,0,-1,1518,1429,0,0
301,-405,0,0,0,0,0,0,0,0,0,-1,1525,1429,0,0
308,-405,0,0,0,0,0,0,0,0,0,-1,1532,1429,0,0
315,-405,0,0,0,0,0,0,0,0,0,-1,1539,1429,0,0
322,-405,0,0,0,0,0,0,0,0,0,-1,1546,1429,0,0
329,-405,0,0,0,0,0,0,0,0,0,-1,1553,1429,0,0
336,-405,0,0,0,0,0,0,0,0,0,-1,1560,1429,0,0
343,-405,0,0,0,0,0,0,0,0,0,-1,1567,1429,0,0
350,-405,0,0,0,0,0,0,0,0,0,-1,1574,1429,0,0
357,-405,0,0,0,0,0,0,0,0,0,-1,1581,1429,0,0
364,-405,0,0,0,0,0,0,0,0,0,-1,1588,1429,0,0
371,-405,0,0,0,0,0,0,0,0,0,-1,1595,1429,0,0
378,-405,0,0,0,0,0,0,0,0,0,-1,1602,1429,0,0
385,-405,0,0,0,0,0,0,0,0,0,-1,1609,1429,0,0
392,-405,0,0,0,0,0,0,0,0,0,-1,1616,1429,0,0
399,-405,0,0,0,0,0,0,0,0,0,-1,1623,1429,0,0
406,-405,0,0,0,0,0,0,0,0,0,-1,1630,1429,0,0
413,-405,0,0,0,0,0,0,0,0,0,-1,1637,1429,0,0
420,-405,0,0,0,0,0,0,0,0,0,-1,1644,1429,0,0
427,-405,0,0,0,0,0,0,0,0,0,-1,1651,1429,0,0
434,-405,0,0,0,0,0,0,0,0,0,-1,1658,1429,0,0
441,-405,0,0,0,0,0,0,0,0,0,-1,1665,1429,0,0
448,-405,0,0,0,0,0,0,0,0,0,-1,1672,1429,0,0
455,-405,0,0,0,0,0,0,0,0,0,-1,1679,1429,0,0
462,-405,0,0,0,0,0,0,0,0,0,-1,1686,1429,0,0
469,-405,0,0,0,0,0,0,0,0,0,-1,1693,1429,0,0
476,-405,0,0,0,0,0,0,0,0,0,-1,1700,1429,0,0
483,-405,0,0,0,0,0,0,0,0,0,-1,1707,1429,0,0
490,-405,0,0,0,0,0,0,0,0,0,-1,1714,1429,0,0
497,-405,0,0,0,0,0,0,0,0,0,-1,1721,1429,0,0
504,-405,0,0,0,0,0,0,0,0,0,-1,1728,1429,0,0
511,-405,0,0,0,0,0,0,0,0,0,-1,1735,1429,0,0
518,-405,0,0,0,0,0,0,0,0,0,-1,1742,1429,0,0
525,-405,1.9729,0.118652,0,0,0,0,0,0,0,-1,1749,1429,1.97295,-0.118675
532,-405,1.85693,0.686279,-0.00966264,0.0142553,0.0229957,0.0282159,-0.0236232,1.02518,0.0299684,0.0454187,1756,1429,1.85688,-0.686339
539,-405,1.22156,1.11011,-0.0148768,0.0178486,0.0245877,0.0310205,-0.0280487,1.07899,0.034118,0.0462623,1763,1429,1.22157,-1.11011
546,-405,0.996582,-0.860962,-0.0168056,0.0208748,0.0253382,0.0336096,-0.0295403,1.10508,0.0364849,0.0438869,1770,1429,0.996535,0.860906
553,-405,1.4491,-0.559204,0,0,0,0,0,0,0,-1,1777,1429,1.44908,0.559216
560,-405,0.91748,0.0391846,0,0,0,0,0,0,0,-1,1784,1429,0.917477,-0.0391614
567,-405,0.762085,0.266846,-0.0155293,0.0212341,0.0214811,0.0311247,-0.02542,1.1393,0.0327014,0.0427429,1791,1429,0.762134,-0.266814
574,-405,0.653931,0.458374,-0.012474,0.0191399,0.0183488,0.0275515,-0.0208856,1.14096,0.0280533,0.0403935,1798,1429,0.653988,-0.458413
581,-405,0.734009,0.512329,-0.0092125,0.0162741,0.0149446,0.0231709,-0.0161093,1.13843,0.0228002,0.0417569,1805,1429,0.734023,-0.512281
588,-405,0.659668,0.620972,-0.00600433,0.0130051,0.0117764,0.0186339,-0.0116331,1.12493,0.0176298,0.0439027,1812,1429,0.659643,-0.620922
595,-405,-0.0715332,0.00585938,-0.00376134,0.0108946,0.00899208,0.0151665,-0.00803322,1.12729,0.0136038,0.0437139,1819,1429,-0.0714819,-0.0058333
602,-405,-0.000366211,0.0177002,-0.00224105,0.00801711,0.00667166,0.0113034,-0.00552734,1.11311,0.00990614,0.0352589,1826,1429,-0.000387465,-0.0176494
609,-405,-0.0240479,0.0292969,-0.001063,0.00569373,0.00520261,0.00851863,-0.0038879,1.07336,0.00732734,0.0161804,1833,1429,-0.0240723,-0.029273
616,-405,-0.0229492,0.045166,-0.000570399,0.00351721,0.00355073,0.00557034,-0.00262353,1.04654,0.00483163,0.00914195,1840,1429,-0.0229735,-0.0451197
623,-405,-0.0280762,0.0306396,-0.000246248,0.00187539,0.00230094,0.00334828,-0.00171913,1.0014,0.00297564,0.00936493,1847,1429,-0.0280779,-0.0306367
630,-405,-0.0183105,0.019043,-0.000169654,0.000947351,0.00159802,0.00208165,-0.00130396,0.953511,0.0019718,0.0102031,1854,1429,-0.0183011,-0.0190654
637,-405,-0.0166016,0.0272217,1.64239e-05,0.000374358,0.000826953,0.00104149,-0.000650706,0.891964,0.000985635,0.0110167,1861,1429,-0.0166023,-0.0272556
644,-405,-0.0567627,0.0625,0.000156419,0.000666309,0.000347142,0.000842067,-1.93387e-05,1.10212,0.000567934,0.0290318,1868,1429,-0.0567246,-0.0625318
651,-405,-0.0667725,0.0510254,-8.41259e-05,0.000694121,-0.000296028,0.000793925,-0.00018393,-1.24562,0.000600064,0.0301962,1875,1429,-0.0667828,-0.0509931
658,-405,-0.0743408,0.0477295,-9.42471e-05,0.00112143,-0.000778503,0.00150129,-0.000474099,-1.11685,0.00119078,0.0198181,1882,1429,-0.0742984,-0.0477416
665,-405,-0.0216064,0.043335,-1.65721e-05,0.00164143,-0.00106347,0.00216085,-0.000535983,-1.11646,0.00164853,0.0167224,1889,1429,-0.0216048,-0.0433125
672,-405,-0.020752,0.00195313,-0.000237843,0.0023734,-0.00121879,0.00285387,-0.000718308,-1.19529,0.00218179,0.0209223,1896,1429,-0.0207414,-0.00192446
679,-405,-0.0404053,-0.0373535,-0.000530815,0.00301021,-0.00145693,0.00353259,-0.00105319,-1.22653,0.0027736,0.0180831,1903,1429,-0.0403655,0.0373543
686,-405,-0.0274658,0.00512695,-0.000764747,0.0036437,-0.00161173,0.00417009,-0.00129114,-1.25512,0.00329585,0.0262241,1910,1429,-0.0274987,-0.00509219
693,-405,-0.0610352,-0.21106,-0.000940696,0.00443168,-0.0016703,0.00490865,-0.00141766,-1.29264,0.00383338,0.0382609,1917,1429,-0.0609995,0.211079
700,-405,-0.116455,-0.192871,-0.00127796,0.00527774,-0.00160751,0.00565069,-0.00165092,-1.34282,0.0044214,0.0438114,1924,1429,-0.116432,0.192929
707,-405,-0.169556,-0.162598,-0.00164043,0.00610132,-0.0013815,0.00634046,-0.00187957,-1.39939,0.00497333,0.0448033,1931,1429,-0.169539,0.16259
714,-405,-0.170898,-0.218872,-0.00198146,0.00683073,-0.000955929,0.00693323,-0.00208396,-1.46397,0.00545125,0.0446799,1938,1429,-0.170938,0.218903
721,-405,-0.257446,-0.190186,-0.00226987,0.00739761,-0.000327309,0.00740868,-0.00228094,-1.53699,0.00584959,0.0427792,1945,1429,-0.257498,0.190178
728,-405,0,0,0,0,0,0,0,0,0,-1,1952,1429,0,0
735,-405,0,0,0,0,0,0,0,0,0,-1,1959,1429,0,0
742,-405,0,0,0,0,0,0,0,0,0,-1,1966,1429,0,0
749,-405,0,0,0,0,0,0,0,0,0,-1,1973,1429,0,0
756,-405,0,0,0,0,0,0,0,0,0,-1,1980,1429,0,0
763,-405,0,0,0,0,0,0,0,0,0,-1,1987,1429,0,0
770,-405,0,0,0,0,0,0,0,0,0,-1,1994,1429,0,0
777,-405,0,0,0,0,0,0,0,0,0,-1,2001,1429,0,0
784,-405,0,0,0,0,0,0,0,0,0,-1,2008,1429,0,0
791,-405,0,0,0,0,0,0,0,0,0,-1,2015,1429,0,0
798,-405,0,0,0,0,0,0,0,0,0,-1,2022,1429,0,0
805,-405,0,0,0,0,0,0,0,0,0,-1,2029,1429,0,0
812,-405,0,0,0,0,0,0,0,0,0,-1,2036,1429,0,0
-700,-412,0,0,0,0,0,0,0,0,0,-1,524,1436,0,0
-693,-412,0,0,0,0,0,0,0,0,0,-1,531,1436,0,0
-686,-412,0,0,0,0,0,0,0,0,0,-1,538,1436,0,0
-679,-412,0,0,0,0,0,0,0,0,0,-1,545,1436,0,0
-672,-412,0,0,0,0,0,0,0,0,0,-1,552,1436,0,0
-665,-412,0,0,0,0,0,0,0,0,0,-1,559,1436,0,0
-658,-412,0,0,0,0,0,0,0,0,0,-1,566,1436,0,0
-651,-412,0,0,0,0,0,0,0,0,0,-1,573,1436,0,0
-644,-412,0,0,0,0,0,0,0,0,0,-1,580,1436,0,0
-637,-412,0,0,0,0,0,0,0,0,0,-1,587,1436,0,0
-630,-412,0,0,0,0,0,0,0,0,0,-1,594,1436,0,0
-623,-412,0,0,0,0,0,0,0,0,0,-1,601,1436,0,0
-616,-412,0,0,0,0,0,0,0,0,0,-1,608,1436,0,0
-609,-412,0,0,0,0,0,0,0,0,0,-1,615,1436,0,0
-602,-412,-0.114685,-0.237549,0.0783324,-0.00592584,-0.00168102,0.0783659,-0.00595937,-0.0199403,0.0543394,0.0459133,622,1436,-0.114675,0.237554
-595,-412,1.95355,-1.26343,0.0531062,-0.00373403,0.00265334,0.0532298,-0.00385762,0.0465457,0.0368398,0.0492545,629,1436,1.95356,1.2634
-588,-412,1.17883,-1.01343,0,0,0,0,0,0,0,-1,636,1436,1.17886,1.01348
-581,-412,0.30957,-0.894897,0,0,0,0,0,0,0,-1,643,1436,0.309551,0.894859
-574,-412,0.440186,-0.210938,0,0,0,0,0,0,0,-1,650,1436,0.440179,0.210987
-567,-412,0.280762,0.0151367,0,0,0,0,0,0,0,-1,657,1436,0.280783,-0.0150874
-560,-412,0.121216,-0.503174,-0.00180019,-0.0018719,0.0064745,0.00463855,-0.00831065,0.782629,0.00757577,0.0417974,664,1436,0.121243,0.503155
-553,-412,0.0469971,0.0445557,-0.00402022,-0.00205854,0.00566339,0.00270832,-0.00878708,0.871143,0.00693929,0.0359994,671,1436,0.0469855,-0.0445224
-546,-412,-0.0404053,0.0391846,-0.00747178,-0.0026839,0.00541813,0.000845589,-0.0110013,0.993421,0.00763168,0.0195782,678,1436,-0.0404031,-0.039183
-539,-412,-0.0249023,0.00598145,-0.00786589,-0.00244498,0.00342241,-0.000789718,-0.00952115,1.12031,0.00610125,0.0104731,685,1436,-0.0248941,-0.00594898
-532,-412,-0.0179443,0.0106201,-0.004847,-0.00259258,0.00246273,-0.00101136,-0.00642823,1.00002,0.00399131,0.0135564,692,1436,-0.0179371,-0.0106494
-525,-412,-0.0297241,0.0421143,-0.00251385,-0.00265285,0.00146006,-0.00112164,-0.00404506,0.761616,0.00241141,0.0136159,699,1436,-0.0297322,-0.0421602
-518,-412,-0.0269165,0.0385742,-0.000742267,-0.00250844,0.000363086,-0.000670537,-0.00258017,0.195043,0.00154586,0.0139751,706,1436,-0.0268873,-0.0385939
-511,-412,-0.0472412,0.0281982,0.00115627,-0.00289655,-0.000333225,0.00118348,-0.00292376,-0.0814913,0.00244124,0.0175897,713,1436,-0.047234,-0.028259
-504,-412,-0.0397339,0.0196533,0.00294283,-0.00307572,-0.000563927,0.00299521,-0.0031281,-0.0926239,0.00353558,0.0175395,720,1436,-0.0397346,-0.0196979
-497,-412,-0.0181885,0.0428467,0.00446724,-0.00345813,-0.000423754,0.00448983,-0.00348073,-0.0532656,0.00461408,0.0125851,727,1436,-0.0181897,-0.0428275
-490,-412,-0.0245972,0.0455322,0.00575867,-0.00212693,-0.000969599,0.00587614,-0.0022444,-0.120566,0.00484217,0.0110331,734,1436,-0.0246244,-0.0455617
-483,-412,-0.0299072,0.0189209,0.00637992,-0.000584528,-0.00104043,0.00653203,-0.000736637,-0.14517,0.00461985,0.00805424,741,1436,-0.0299042,-0.018883
-476,-412,-0.0296631,0.0275879,0.00620721,0.000218674,-0.000803686,0.0063132,0.000112692,-0.131114,0.00417174,0.0120504,748,1436,-0.029666,-0.0276085
-469,-412,0.0055542,0.0078125,0.00568236,0.000911971,-0.00108528,0.00591766,0.000676671,-0.213506,0.00374001,0.0206081,755,1436,0.00553769,-0.00775274
-462,-412,0.178589,-0.141724,0.00516634,0.00176809,-0.00132711,0.00562319,0.00131123,-0.331541,0.00339714,0.0346573,762,1436,0.178611,0.141695
-455,-412,0.242371,-0.269653,0.00347976,0.00281155,-0.00104331,0.00424116,0.00205015,-0.630441,0.00244909,0.0417247,769,1436,0.242363,0.26966
-448,-412,0.494263,-0.374512,0.00179055,0.00409367,-0.00123358,0.00462965,0.00125456,-1.16091,0.00276481,0.0394414,776,1436,0.494246,0.374451
-441,-412,0.767395,-1.90735,0,0,0,0,0,0,0,-1,783,1436,0.767373,1.90736
-434,-412,0.624939,-1.71497,-0.00290318,0.00717204,-0.00184112,0.00749794,-0.00322909,-1.3956,0.00635462,0.0466614,790,1436,0.624969,1.715
-427,-412,0.670349,-1.51208,-0.00569143,0.00819208,-0.00217055,0.00852351,-0.00602286,-1.41927,0.00843962,0.0461635,797,1436,0.670344,1.51208
-420,-412,0.443909,-1.21216,-0.00827242,0.00887898,-0.00250713,0.00923795,-0.00863139,-1.42858,0.0103188,0.0456835,804,1436,0.44389,1.21218
-413,-412,0.230957,-0.927734,-0.00971776,0.00924688,-0.00288309,0.00967549,-0.0101464,-1.42321,0.0114452,0.0472544,811,1436,0.23094,0.927694
-406,-412,-0.0630493,-0.707886,-0.00871088,0.00916118,-0.00305691,0.00966958,-0.00921929,-1.40599,0.0109065,0.0477124,818,1436,-0.0630667,0.70788
-399,-412,-0.56311,-0.532837,0,0,0,0,0,0,0,-1,825,1436,-0.563085,0.532839
-392,-412,0,0,0,0,0,0,0,0,0,-1,832,1436,0,0
-385,-412,0,0,0,0,0,0,0,0,0,-1,839,1436,0,0
-378,-412,0,0,0,0,0,0,0,0,0,-1,846,1436,0,0
-371,-412,0,0,0,0,0,0,0,0,0,-1,853,1436,0,0
-364,-412,0,0,0,0,0,0,0,0,0,-1,860,1436,0,0
-357,-412,0,0,0,0,0,0,0,0,0,-1,867,1436,0,0
-350,-412,0,0,0,0,0,0,0,0,0,-1,874,1436,0,0
-343,-412,0,0,0,0,0,0,0,0,0,-1,881,1436,0,0
-336,-412,0,0,0,0,0,0,0,0,0,-1,888,1436,0,0
-329,-412,0,0,0,0,0,0,0,0,0,-1,895,1436,0,0
-322,-412,0,0,0,0,0,0,0,0,0,-1,902,1436,0,0
-315,-412,0,0,0,0,0,0,0,0,0,-1,909,1436,0,0
-308,-412,0,0,0,0,0,0,0,0,0,-1,916,1436,0,0
-301,-412,0,0,0,0,0,0,0,0,0,-1,923,1436,0,0
-294,-412,0,0,0,0,0,0,0,0,0,-1,930,1436,0,0
-287,-412,0,0,0,0,0,0,0,0,0,-1,937,1436,0,0
-280,-412,0,0,0,0,0,0,0,0,0,-1,944,1436,0,0
-273,-412,0,0,0,0,0,0,0,0,0,-1,951,1436,0,0
-266,-412,0,0,0,0,0,0,0,0,0,-1,958,1436,0,0
-259,-412,0,0,0,0,0,0,0,0,0,-1,965,1436,0,0
-252,-412,0,0,0,0,0,0,0,0,0,-1,972,1436,0,0
-245,-412,0,0,0,0,0,0,0,0,0,-1,979,1436,0,0
-238,-412,0,0,0,0,0,0,0,0,0,-1,986,1436,0,0
-231,-412,0,0,0,0,0,0,0,0,0,-1,993,1436,0,0
-224,-412,0,0,0,0,0,0,0,0,0,-1,1000,1436,0,0
-217,-412,0,0,0,0,0,0,0,0,0,-1,1007,1436,0,0
-210,-412,0,0,0,0,0,0,0,0,0,-1,1014,1436,0,0
-203,-412,0,0,0,0,0,0,0,0,0,-1,1021,1436,0,0
-196,-412,0,0,0,0,0,0,0,0,0,-1,1028,1436,0,0
-189,-412,0,0,0,0,0,0,0,0,0,-1,1035,1436,0,0
-182,-412,0,0,0,0,0,0,0,0,0,-1,1042,1436,0,0
-175,-412,0,0,0,0,0,0,0,0,0,-1,1049,1436,0,0
-168,-412,0,0,0,0,0,0,0,0,0,-1,1056,1436,0,0
-161,-412,0,0,0,0,0,0,0,0,0,-1,1063,1436,0,0
-154,-412,0,0,0,0,0,0,0,0,0,-1,1070,1436,0,0
-147,-412,0,0,0,0,0,0,0,0,0,-1,1077,1436,0,0
-140,-412,0,0,0,0,0,0,0,0,0,-1,1084,1436,0,0
-133,-412,0,0,0,0,0,0,0,0,0,-1,1091,1436,0,0
-126,-412,0,0,0,0,0,0,0,0,0,-1,1098,1436,0,0
-119,-412,0,0,0,0,0,0,0,0,0,-1,1105,1436,0,0
-112,-412,0,0,0,0,0,0,0,0,0,-1,1112,1436,0,0
-105,-412,0,0,0,0,0,0,0,0,0,-1,1119,1436,0,0
-98,-412,0,0,0,0,0,0,0,0,0,-1,1126,1436,0,0
-91,-412,0,0,0,0,0,0,0,0,0,-1,1133,1436,0,0
-84,-412,0,0,0,0,0,0,0,0,0,-1,1140,1436,0,0
-77,-412,0,0,0,0,0,0,0,0,0,-1,1147,1436,0,0
-70,-412,0,0,0,0,0,0,0,0,0,-1,1154,1436,0,0
-63,-412,0,0,0,0,0,0,0,0,0,-1,1161,1436,0,0
-56,-412,0,0,0,0,0,0,0,0,0,-1,1168,1436,0,0
-49,-412,0,0,0,0,0,0,0,0,0,-1,1175,1436,0,0
-42,-412,0,0,0,0,0,0,0,0,0,-1,1182,1436,0,0
-35,-412,0,0,0,0,0,0,0,0,0,-1,1189,1436,0,0
-28,-412,0,0,0,0,0,0,0,0,0,-1,1196,1436,0,0
-21,-412,0,0,0,0,0,0,0,0,0,-1,1203,1436,0,0
-14,-412,0,0,0,0,0,0,0,0,0,-1,1210,1436,0,0
-7,-412,0,0,0,0,0,0,0,0,0,-1,1217,1436,0,0
0,-412,0,0,0,0,0,0,0,0,0,-1,1224,1436,0,0
7,-412,0,0,0,0,0,0,0,0,0,-1,1231,1436,0,0
14,-412,0,0,0,0,0,0,0,0,0,-1,1238,1436,0,0
21,-412,0,0,0,0,0,0,0,0,0,-1,1245,1436,0,0
28,-412,0,0,0,0,0,0,0,0,0,-1,1252,1436,0,0
35,-412,0,0,0,0,0,0,0,0,0,-1,1259,1436,0,0
42,-412,0,0,0,0,0,0,0,0,0,-1,1266,1436,0,0
49,-412,0,0,0,0,0,0,0,0,0,-1,1273,1436,0,0
56,-412,0,0,0,0,0,0,0,0,0,-1,1280,1436,0,0
63,-412,0,0,0,0,0,0,0,0,0,-1,1287,1436,0,0
70,-412,0,0,0,0,0,0,0,0,0,-1,1294,1436,0,0
77,-412,0,0,0,0,0,0,0,0,0,-1,1301,1436,0,0
84,-412,0,0,0,0,0,0,0,0,0,-1,1308,1436,0,0
91,-412,0,0,0,0,0,0,0,0,0,-1,1315,1436,0,0
98,-412,0,0,0,0,0,0,0,0,0,-1,1322,1436,0,0
105,-412,0,0,0,0,0,0,0,0,0,-1,1329,1436,0,0
112,-412,0,0,0,0,0,0,0,0,0,-1,1336,1436,0,0
119,-412,0,0,0,0,0,0,0,0,0,-1,1343,1436,0,0
126,-412,0,0,0,0,0,0,0,0,0,-1,1350,1436,0,0
133,-412,0,0,0,0,0,0,0,0,0,-1,1357,1436,0,0
140,-412,0,0,0,0,0,0,0,0,0,-1,1364,1436,0,0
147,-412,0,0,0,0,0,0,0,0,0,-1,1371,1436,0,0
154,-412,0,0,0,0,0,0,0,0,0,-1,1378,1436,0,0
161,-412,0,0,0,0,0,0,0,0,0,-1,1385,1436,0,0
168,-412,0,0,0,0,0,0,0,0,0,-1,1392,1436,0,0
175,-412,0,0,0,0,0,0,0,0,0,-1,1399,1436,0,0
182,-412,0,0,0,0,0,0,0,0,0,-1,1406,1436,0,0
189,-412,0,0,0,0,0,0,0,0,0,-1,1413,1436,0,0
196,-412,0,0,0,0,0,0,0,0,0,-1,1420,1436,0,0
203,-412,0,0,0,0,0,0,0,0,0,-1,1427,1436,0,0
210,-412,0,0,0,0,0,0,0,0,0,-1,1434,1436,0,0
217,-412,0,0,0,0,0,0,0,0,0,-1,1441,1436,0,0
224,-412,0,0,0,0,0,0,0,0,0,-1,1448,1436,0,0
231,-412,0,0,0,0,0,0,0,0,0,-1,1455,1436,0,0
238,-412,0,0,0,0,0,0,0,0,0,-1,1462,1436,0,0
245,-412,0,0,0,0,0,0,0,0,0,-1,1469,1436,0,0
252,-412,0,0,0,0,0,0,0,0,0,-1,1476,1436,0,0
259,-412,0,0,0,0,0,0,0,0,0,-1,1483,1436,0,0
266,-412,0,0,0,0,0,0,0,0,0,-1,1490,1436,0,0
273,-412,0,0,0,0,0,0,0,0,0,-1,1497,1436,0,0
280,-412,0,0,0,0,0,0,0,0,0,-1,1504,1436,0,0
287,-412,0,0,0,0,0,0,0,0,0,-1,1511,1436,0,0
294,-412,0,0,0,0,0,0,0,0,0,-1,1518,1436,0,0
301,-412,0,0,0,0,0,0,0,0,0,-1,1525,1436,0,0
308,-412,0,0,0,0,0,0,0,0,0,-1,1532,1436,0,0
315,-412,0,0,0,0,0,0,0,0,0,-1,1539,1436,0,0
322,-412,0,0,0,0,0,0,0,0,0,-1,1546,1436,0,0
329,-412,0,0,0,0,0,0,0,0,0,-1,1553,1436,0,0
336,-412,0,0,0,0,0,0,0,0,0,-1,1560,1436,0,0
343,-412,0,0,0,0,0,0,0,0,0,-1,1567,1436,0,0
350,-412,0,0,0,0,0,0,0,0,0,-1,1574,1436,0,0
357,-412,0,0,0,0,0,0,0,0,0,-1,1581,1436,0,0
364,-412,0,0,0,0,0,0,0,0,0,-1,1588,1436,0,0
371,-412,0,0,0,0,0,0,0,0,0,-1,1595,1436,0,0
378,-412,0,0,0,0,0,0,0,0,0,-1,1602,1436,0,0
385,-412,0,0,0,0,0,0,0,0,0,-1,1609,1436,0,0
392,-412,0,0,0,0,0,0,0,0,0,-1,1616,1436,0,0
399,-412,0,0,0,0,0,0,0,0,0,-1,1623,1436,0,0
406,-412,0,0,0,0,0,0,0,0,0,-1,1630,1436,0,0
413,-412,0,0,0,0,0,0,0,0,0,-1,1637,1436,0,0
420,-412,0,0,0,0,0,0,0,0,0,-1,1644,1436,0,0
427,-412,0,0,0,0,0,0,0,0,0,-1,1651,1436,0,0
434,-412,0,0,0,0,0,0,0,0,0,-1,1658,1436,0,0
441,-412,0,0,0,0,0,0,0,0,0,-1,1665,1436,0,0
448,-412,0,0,0,0,0,0,0,0,0,-1,1672,1436,0,0
455,-412,0,0,0,0,0,0,0,0,0,-1,1679,1436,0,0
462,-412,0,0,0,0,0,0,0,0,0,-1,1686,1436,0,0
469,-412,0,0,0,0,0,0,0,0,0,-1,1693,1436,0,0
476,-412,0,0,0,0,0,0,0,0,0,-1,1700,1436,0,0
483,-412,0,0,0,0,0,0,0,0,0,-1,1707,1436,0,0
490,-412,0,0,0,0,0,0,0,0,0,-1,1714,1436,0,0
497,-412,0,0,0,0,0,0,0,0,0,-1,1721,1436,0,0
504,-412,0,0,0,0,0,0,0,0,0,-1,1728,1436,0,0
511,-412,0,0,0,0,0,0,0,0,0,-1,1735,1436,0,0
518,-412,0.511108,0.380371,0,0,0,0,0,0,0,-1,1742,1436,0.511164,-0.380325
525,-412,2.50525,0.0428467,0,0,0,0,0,0,0,-1,1749,1436,2.50525,-0.0428005
532,-412,1.91296,0.304199,-0.0082857,0.0139259,0.0185816,0.0244676,-0.0188274,1.05475,0.025067,0.0438331,1756,1436,1.91296,-0.304234
539,-412,1.32324,0.588989,-0.0134117,0.0163022,0.0212455,0.0273701,-0.0244796,1.09053,0.0299509,0.0461621,1763,1436,1.32318,-0.589043
546,-412,0.541138,0.418335,0,0,0,0,0,0,0,-1,1770,1436,0.541153,-0.418389
553,-412,0.963989,-0.80188,0,0,0,0,0,0,0,-1,1777,1436,0.964003,0.801839
560,-412,0.747192,-0.654419,0,0,0,0,0,0,0,-1,1784,1436,0.747234,0.654403
567,-412,0.48999,-0.56897,-0.0153016,0.0178033,0.0200531,0.0272529,-0.0247513,1.13043,0.0300362,0.0425492,1791,1436,0.489992,0.569006
574,-412,0.388672,-0.723267,-0.0124927,0.0159636,0.0170759,0.0239621,-0.0204913,1.13274,0.0256913,0.0381615,1798,1436,0.388694,0.723226
581,-412,0.218018,-0.558594,-0.00940199,0.0134211,0.0137655,0.0198901,-0.015871,1.13148,0.0206901,0.0376605,1805,1436,0.218068,0.55857
588,-412,0.055542,-0.216309,-0.00629289,0.0105043,0.0106135,0.0156402,-0.0114288,1.12011,0.0156912,0.0380086,1812,1436,0.0555445,0.216266
595,-412,0.0270996,-0.0565186,-0.00401945,0.00865795,0.00789182,0.0124415,-0.007803,1.12374,0.01179,0.0380964,1819,1436,0.0270525,0.0565749
602,-412,-0.000488281,0.0345459,-0.00244998,0.00624929,0.0056733,0.00904847,-0.00524917,1.11245,0.00835133,0.0222969,1826,1436,-0.000521518,-0.034539
609,-412,-0.020752,0.0373535,-0.00122935,0.00438978,0.00432125,0.00673453,-0.00357409,1.07365,0.0060442,0.00820792,1833,1436,-0.0207091,-0.0373931
616,-412,-0.0325928,0.0385742,-0.000752509,0.00266218,0.00279997,0.00423429,-0.00232463,1.05918,0.00383992,0.0068498,1840,1436,-0.0325863,-0.0386026
623,-412,-0.0389404,0.02771,-0.000412944,0.00131126,0.001676,0.00233389,-0.00143557,1.02294,0.0021968,0.00866543,1847,1436,-0.0389963,-0.0276883
630,-412,-0.0297852,0.0212402,-0.000315958,0.000701381,0.00103236,0.00134358,-0.00095816,1.0143,0.00133511,0.0116316,1854,1436,-0.0297575,-0.0212188
637,-412,-0.0164795,0.0314941,-0.000120945,0.000374503,0.000348758,0.000554563,-0.000301005,1.0942,0.000501141,0.0136473,1861,1436,-0.0165337,-0.0315086
644,-412,-0.00927734,0.0224609,9.14551e-05,0.000756907,-7.12106e-05,0.000764442,8.39201e-05,-1.46538,0.000484085,0.0146486,1868,1436,-0.00925925,-0.0224353
651,-412,-0.0469971,0.00415039,-5.43261e-05,0.00104094,-0.00054273,0.00126432,-0.000277704,-1.18034,0.000949086,0.0256426,1875,1436,-0.0469908,-0.00418897
658,-412,-0.0400391,0.0223389,-4.84029e-05,0.00156383,-0.0010358,0.00207024,-0.000554806,-1.11607,0.00159754,0.0154068,1882,1436,-0.0400082,-0.0223242
665,-412,-0.027832,0.0386963,-6.93355e-06,0.00216893,-0.00134325,0.00280956,-0.000647563,-1.12578,0.00212209,0.018923,1889,1436,-0.0278205,-0.0387128
672,-412,-0.0388184,0.00805664,-0.000194878,0.003022,-0.001553,0.00364939,-0.000822261,-1.18686,0.00274832,0.0234524,1896,1436,-0.0387799,-0.00811007
679,-412,-0.0563965,-0.0321045,-0.000412276,0.00380501,-0.00185789,0.00450673,-0.00111399,-1.20966,0.00343654,0.0268397,1903,1436,-0.0564287,0.0321429
686,-412,-0.0476074,-0.0489502,-0.000610811,0.00463283,-0.00211663,0.00538059,-0.00135857,-1.2312,0.00411536,0.0388676,1910,1436,-0.0475903,0.0489109
693,-412,0.0124512,-0.2948,-0.000811121,0.00565757,-0.00232622,0.00640723,-0.00156078,-1.25904,0.00487574,0.0422121,1917,1436,0.0124064,0.294821
700,-412,-0.0874023,-0.376099,-0.00113266,0.00677615,-0.00244081,0.00746878,-0.00182528,-1.2943,0.00568612,0.0437942,1924,1436,-0.0873883,0.37608
707,-412,-0.371704,-0.279419,-0.00150665,0.0079474,-0.00243449,0.00853747,-0.00209673,-1.333,0.0065042,0.0448382,1931,1436,-0.371663,0.279475
714,-412,-0.289063,-0.387573,-0.00191998,0.00912555,-0.00226658,0.00957257,-0.002367,-1.37607,0.00729977,0.0431104,1938,1436,-0.289098,0.387632
721,-412,0,0,0,0,0,0,0,0,0,-1,1945,1436,0,0
728,-412,0,0,0,0,0,0,0,0,0,-1,1952,1436,0,0
735,-412,0,0,0,0,0,0,0,0,0,-1,1959,1436,0,0
742,-412,0,0,0,0,0,0,0,0,0,-1,1966,1436,0,0
749,-412,0,0,0,0,0,0,0,0,0,-1,1973,1436,0,0
756,-412,0,0,0,0,0,0,0,0,0,-1,1980,1436,0,0
763,-412,0,0,0,0,0,0,0,0,0,-1,1987,1436,0,0
770,-412,0,0,0,0,0,0,0,0,0,-1,1994,1436,0,0
777,-412,0,0,0,0,0,0,0,0,0,-1,2001,1436,0,0
784,-412,0,0,0,0,0,0,0,0,0,-1,2008,1436,0,0
791,-412,0,0,0,0,0,0,0,0,0,-1,2015,1436,0,0
798,-412,0,0,0,0,0,0,0,0,0,-1,2022,1436,0,0
805,-412,0,0,0,0,0,0,0,0,0,-1,2029,1436,0,0
812,-412,0,0,0,0,0,0,0,0,0,-1,2036,1436,0,0
-700,-419,0,0,0,0,0,0,0,0,0,-1,524,1443,0,0
-693,-419,0,0,0,0,0,0,0,0,0,-1,531,1443,0,0
-686,-419,0,0,0,0,0,0,0,0,0,-1,538,1443,0,0
-679,-419,0,0,0,0,0,0,0,0,0,-1,545,1443,0,0
-672,-419,0,0,0,0,0,0,0,0,0,-1,552,1443,0,0
-665,-419,0,0,0,0,0,0,0,0,0,-1,559,1443,0,0
-658,-419,0,0,0,0,0,0,0,0,0,-1,566,1443,0,0
-651,-419,0,0,0,0,0,0,0,0,0,-1,573,1443,0,0
-644,-419,0,0,0,0,0,0,0,0,0,-1,580,1443,0,0
-637,-419,0,0,0,0,0,0,0,0,0,-1,587,1443,0,0
-630,-419,0,0,0,0,0,0,0,0,0,-1,594,1443,0,0
-623,-419,0,0,0,0,0,0,0,0,0,-1,601,1443,0,0
-616,-419,0,0,0,0,0,0,0,0,0,-1,608,1443,0,0
-609,-419,0,0,0,0,0,0,0,0,0,-1,615,1443,0,0
-602,-419,0,0,0,0,0,0,0,0,0,-1,622,1443,0,0
-595,-419,-0.441223,0.250977,0.0583823,-0.00504769,0.00588363,0.0589234,-0.00558883,0.0917152,0.0412715,0.044286,629,1443,-0.441238,-0.251008
-588,-419,0.0685425,0.393799,0,0,0,0,0,0,0,-1,636,1443,0.0685493,-0.393851
-581,-419,0.559326,0.257935,0,0,0,0,0,0,0,-1,643,1443,0.559313,-0.257954
-574,-419,0.436646,0.266235,0,0,0,0,0,0,0,-1,650,1443,0.436658,-0.266277
-567,-419,0.413818,0.244629,0,0,0,0,0,0,0,-1,657,1443,0.413804,-0.244662
-560,-419,0.294189,0.275146,-0.00335972,-0.00389154,0.0075621,0.00394114,-0.0111924,0.767823,0.00906552,0.0422134,664,1443,0.294166,-0.275103
-553,-419,0.0561523,0.187378,-0.00522796,-0.00444686,0.00640763,0.00158211,-0.0112569,0.815836,0.00808376,0.0388001,671,1443,0.0561714,-0.187418
-546,-419,-0.0579224,0.0911865,-0.00828539,-0.00523387,0.00590267,-0.000662955,-0.0128563,0.911873,0.00835865,0.0323973,678,1443,-0.0579375,-0.0912189
-539,-419,-0.0389404,0.0509033,-0.00818053,-0.00502182,0.00350943,-0.00275274,-0.0104496,0.996839,0.00625413,0.0209673,685,1443,-0.0389181,-0.0509375
-532,-419,-0.00714111,0.0323486,-0.00472641,-0.00513461,0.00233698,-0.00258464,-0.00727639,0.741841,0.00425933,0.0121455,692,1443,-0.00713216,-0.0323503
-525,-419,-0.00457764,0.0340576,-0.00215033,-0.00501545,0.00124788,-0.00168304,-0.00548274,0.358305,0.00324314,0.0113591,699,1443,-0.00459197,-0.0340481
-518,-419,-0.0238647,0.0389404,-0.000394146,-0.00456275,0.000190011,-0.000385502,-0.0045714,0.0454557,0.00292757,0.0151773,706,1443,-0.023872,-0.0389296
-511,-419,-0.0356445,0.0374756,0.00142274,-0.00458896,-0.000473793,0.00145986,-0.00462607,-0.0781687,0.00366879,0.0189519,713,1443,-0.0356172,-0.0374844
-504,-419,-0.0350342,0.0380859,0.00306137,-0.00432607,-0.000656593,0.00311927,-0.00438397,-0.0879609,0.00435246,0.0188125,720,1443,-0.0350078,-0.0380464
-497,-419,-0.0214233,0.0474854,0.00417023,-0.00415356,-0.000378982,0.00418745,-0.00417078,-0.0454048,0.00482563,0.0127353,727,1443,-0.0214058,-0.0474392
-490,-419,-0.0195313,0.0427246,0.00512921,-0.00246735,-0.000716444,0.00519619,-0.00253433,-0.0932164,0.00455056,0.010377,734,1443,-0.0195479,-0.0426943
-483,-419,-0.0153198,0.0145264,0.00554898,-0.000640411,-0.000675809,0.00562191,-0.000713342,-0.107501,0.00400694,0.00916815,741,1443,-0.0153044,-0.0145111
-476,-419,-0.0168457,0.013916,0.00504492,0.000300416,-0.000215594,0.0050547,0.000290639,-0.0453162,0.00327722,0.00914278,748,1443,-0.0168204,-0.0139034
-469,-419,-0.00616455,0.0106201,0.00442106,0.0010807,-0.000337327,0.00445479,0.00104698,-0.0996448,0.00268967,0.0123522,755,1443,-0.00615513,-0.0106352
-462,-419,0.0193481,0.0175781,0.00399209,0.001862,-0.000593504,0.00414629,0.00170779,-0.254199,0.00240622,0.0218967,762,1443,0.0193513,-0.0175778
-455,-419,0.0730591,-0.0819092,0.0025093,0.00282215,-0.00032993,0.00303086,0.00230059,-1.00677,0.00182648,0.0348652,769,1443,0.0730806,0.0818506
-448,-419,1.01843,-2.14148,0,0,0,0,0,0,0,-1,776,1443,1.01844,2.14146
-441,-419,0.842285,-2.18176,-0.00058282,0.00535879,-0.000913581,0.00549609,-0.000720119,-1.42163,0.00392617,0.0443129,783,1443,0.842298,2.18171
-434,-419,0.893982,-2.22729,-0.00244778,0.00689727,-0.00118646,0.00704555,-0.00259607,-1.44646,0.00576079,0.0489502,790,1443,0.893967,2.22732
-427,-419,1.11377,-2.21143,-0.00445023,0.00786906,-0.00152702,0.00805552,-0.00463669,-1.44929,0.00741593,0.045067,797,1443,1.11377,2.2114
-420,-419,0.4599,-1.302,-0.00610883,0.00861732,-0.00183456,0.00884243,-0.00633393,-1.4487,0.00880188,0.0418497,804,1443,0.459887,1.30202
-413,-419,0.123657,-0.863525,-0.00675404,0.00926816,-0.00207326,0.00953209,-0.00701797,-1.44418,0.00959186,0.0436569,811,1443,0.123627,0.863468
-406,-419,-0.255554,-0.649536,-0.00521949,0.00997024,-0.00211605,0.0102595,-0.00550876,-1.43493,0.00924052,0.0450368,818,1443,-0.255571,0.649488
-399,-419,-0.6698,-0.456787,0,0,0,0,0,0,0,-1,825,1443,-0.669823,0.456845
-392,-419,0,0,0,0,0,0,0,0,0,-1,832,1443,0,0
-385,-419,0,0,0,0,0,0,0,0,0,-1,839,1443,0,0
-378,-419,0,0,0,0,0,0,0,0,0,-1,846,1443,0,0
-371,-419,0,0,0,0,0,0,0,0,0,-1,853,1443,0,0
-364,-419,0,0,0,0,0,0,0,0,0,-1,860,1443,0,0
-357,-419,0,0,0,0,0,0,0,0,0,-1,867,1443,0,0
-350,-419,0,0,0,0,0,0,0,0,0,-1,874,1443,0,0
-343,-419,0,0,0,0,0,0,0,0,0,-1,881,1443,0,0
-336,-419,0,0,0,0,0,0,0,0,0,-1,888,1443,0,0
-329,-419,0,0,0,0,0,0,0,0,0,-1,895,1443,0,0
-322,-419,0,0,0,0,0,0,0,0,0,-1,902,1443,0,0
-315,-419,0,0,0,0,0,0,0,0,0,-1,909,1443,0,0
-308,-419,0,0,0,0,0,0,0,0,0,-1,916,1443,0,0
-301,-419,0,0,0,0,0,0,0,0,0,-1,923,1443,0,0
-294,-419,0,0,0,0,0,0,0,0,0,-1,930,1443,0,0
-287,-419,0,0,0,0,0,0,0,0,0,-1,937,1443,0,0
-280,-419,0,0,0,0,0,0,0,0,0,-1,944,1443,0,0
-273,-419,0,0,0,0,0,0,0,0,0,-1,951,1443,0,0
-266,-419,0,0,0,0,0,0,0,0,0,-1,958,1443,0,0
-259,-419,0,0,0,0,0,0,0,0,0,-1,965,1443,0,0
-252,-419,0,0,0,0,0,0,0,0,0,-1,972,1443,0,0
-245,-419,0,0,0,0,0,0,0,0,0,-1,979,1443,0,0
-238,-419,0,0,0,0,0,0,0,0,0,-1,986,1443,0,0
-231,-419,0,0,0,0,0,0,0,0,0,-1,993,1443,0,0
-224,-419,0,0,0,0,0,0,0,0,0,-1,1000,1443,0,0
-217,-419,0,0,0,0,0,0,0,0,0,-1,1007,1443,0,0
-210,-419,0,0,0,0,0,0,0,0,0,-1,1014,1443,0,0
-203,-419,0,0,0,0,0,0,0,0,0,-1,1021,1443,0,0
-196,-419,0,0,0,0,0,0,0,0,0,-1,1028,1443,0,0
-189,-419,0,0,0,0,0,0,0,0,0,-1,1035,1443,0,0
-182,-419,0,0,0,0,0,0,0,0,0,-1,1042,1443,0,0
-175,-419,0,0,0,0,0,0,0,0,0,-1,1049,1443,0,0
-168,-419,0,0,0,0,0,0,0,0,0,-1,1056,1443,0,0
-161,-419,0,0,0,0,0,0,0,0,0,-1,1063,1443,0,0
-154,-419,0,0,0,0,0,0,0,0,0,-1,1070,1443,0,0
-147,-419,0,0,0,0,0,0,0,0,0,-1,1077,1443,0,0
-140,-419,0,0,0,0,0,0,0,0,0,-1,1084,1443,0,0
-133,-419,0,0,0,0,0,0,0,0,0,-1,1091,1443,0,0
-126,-419,0,0,0,0,0,0,0,0,0,-1,1098,1443,0,0
-119,-419,0,0,0,0,0,0,0,0,0,-1,1105,1443,0,0
-112,-419,0,0,0,0,0,0,0,0,0,-1,1112,1443,0,0
-105,-419,0,0,0,0,0,0,0,0,0,-1,1119,1443,0,0
-98,-419,0,0,0,0,0,0,0,0,0,-1,1126,1443,0,0
-91,-419,0,0,0,0,0,0,0,0,0,-1,1133,1443,0,0
-84,-419,0,0,0,0,0,0,0,0,0,-1,1140,1443,0,0
-77,-419,0,0,0,0,0,0,0,0,0,-1,1147,1443,0,0
-70,-419,0,0,0,0,0,0,0,0,0,-1,1154,1443,0,0
-63,-419,0,0,0,0,0,0,0,0,0,-1,1161,1443,0,0
-56,-419,0,0,0,0,0,0,0,0,0,-1,1168,1443,0,0
-49,-419,0,0,0,0,0,0,0,0,0,-1,1175,1443,0,0
-42,-419,0,0,0,0,0,0,0,0,0,-1,1182,1443,0,0
-35,-419,0,0,0,0,0,0,0,0,0,-1,1189,1443,0,0
-28,-419,0,0,0,0,0,0,0,0,0,-1,1196,1443,0,0
-21,-419,0,0,0,0,0,0,0,0,0,-1,1203,1443,0,0
-14,-419,0,0,0,0,0,0,0,0,0,-1,1210,1443,0,0
-7,-419,0,0,0,0,0,0,0,0,0,-1,1217,1443,0,0
0,-419,0,0,0,0,0,0,0,0,0,-1,1224,1443,0,0
7,-419,0,0,0,0,0,0,0,0,0,-1,1231,1443,0,0
14,-419,0,0,0,0,0,0,0,0,0,-1,1238,1443,0,0
21,-419,0,0,0,0,0,0,0,0,0,-1,1245,1443,0,0
28,-419,0,0,0,0,0,0,0,0,0,-1,1252,1443,0,0
35,-419,0,0,0,0,0,0,0,0,0,-1,1259,1443,0,0
42,-419,0,0,0,0,0,0,0,0,0,-1,1266,1443,0,0
49,-419,0,0,0,0,0,0,0,0,0,-1,1273,1443,0,0
56,-419,0,0,0,0,0,0,0,0,0,-1,1280,1443,0,0
63,-419,0,0,0,0,0,0,0,0,0,-1,1287,1443,0,0
70,-419,0,0,0,0,0,0,0,0,0,-1,1294,1443,0,0
77,-419,0,0,0,0,0,0,0,0,0,-1,1301,1443,0,0
84,-419,0,0,0,0,0,0,0,0,0,-1,1308,1443,0,0
91,-419,0,0,0,0,0,0,0,0,0,-1,1315,1443,0,0
98,-419,0,0,0,0,0,0,0,0,0,-1,1322,1443,0,0
105,-419,0,0,0,0,0,0,0,0,0,-1,1329,1443,0,0
112,-419,0,0,0,0,0,0,0,0,0,-1,1336,1443,0,0
119,-419,0,0,0,0,0,0,0,0,0,-1,1343,1443,0,0
126,-419,0,0,0,0,0,0,0,0,0,-1,1350,1443,0,0
133,-419,0,0,0,0,0,0,0,0,0,-1,1357,1443,0,0
140,-419,0,0,0,0,0,0,0,0,0,-1,1364,1443,0,0
147,-419,0,0,0,0,0,0,0,0,0,-1,1371,1443,0,0
154,-419,0,0,0,0,0,0,0,0,0,-1,1378,1443,0,0
161,-419,0,0,0,0,0,0,0,0,0,-1,1385,1443,0,0
168,-419,0,0,0,0,0,0,0,0,0,-1,1392,1443,0,0
175,-419,0,0,0,0,0,0,0,0,0,-1,1399,1443,0,0
182,-419,0,0,0,0,0,0,0,0,0,-1,1406,1443,0,0
189,-419,0,0,0,0,0,0,0,0,0,-1,1413,1443,0,0
196,-419,0,0,0,0,0,0,0,0,0,-1,1420,1443,0,0
203,-419,0,0,0,0,0,0,0,0,0,-1,1427,1443,0,0
210,-419,0,0,0,0,0,0,0,0,0,-1,1434,1443,0,0
217,-419,0,0,0,0,0,0,0,0,0,-1,1441,1443,0,0
224,-419,0,0,0,0,0,0,0,0,0,-1,1448,1443,0,0
231,-419,0,0,0,0,0,0,0,0,0,-1,1455,1443,0,0
238,-419,0,0,0,0,0,0,0,0,0,-1,1462,1443,0,0
245,-419,0,0,0,0,0,0,0,0,0,-1,1469,1443,0,0
252,-419,0,0,0,0,0,0,0,0,0,-1,1476,1443,0,0
259,-419,0,0,0,0,0,0,0,0,0,-1,1483,1443,0,0
266,-419,0,0,0,0,0,0,0,0,0,-1,1490,1443,0,0
273,-419,0,0,0,0,0,0,0,0,0,-1,1497,1443,0,0
280,-419,0,0,0,0,0,0,0,0,0,-1,1504,1443,0,0
287,-419,0,0,0,0,0,0,0,0,0,-1,1511,1443,0,0
294,-419,0,0,0,0,0,0,0,0,0,-1,1518,1443,0,0
301,-419,0,0,0,0,0,0,0,0,0,-1,1525,1443,0,0
308,-419,0,0,0,0,0,0,0,0,0,-1,1532,1443,0,0
315,-419,0,0,0,0,0,0,0,0,0,-1,1539,1443,0,0
322,-419,0,0,0,0,0,0,0,0,0,-1,1546,1443,0,0
329,-419,0,0,0,0,0,0,0,0,0,-1,1553,1443,0,0
336,-419,0,0,0,0,0,0,0,0,0,-1,1560,1443,0,0
343,-419,0,0,0,0,0,0,0,0,0,-1,1567,1443,0,0
350,-419,0,0,0,0,0,0,0,0,0,-1,1574,1443,0,0
357,-419,0,0,0,0,0,0,0,0,0,-1,1581,1443,0,0
364,-419,0,0,0,0,0,0,0,0,0,-1,1588,1443,0,0
371,-419,0,0,0,0,0,0,0,0,0,-1,1595,1443,0,0
378,-419,0,0,0,0,0,0,0,0,0,-1,1602,1443,0,0
385,-419,0,0,0,0,0,0,0,0,0,-1,1609,1443,0,0
392,-419,0,0,0,0,0,0,0,0,0,-1,1616,1443,0,0
399,-419,0,0,0,0,0,0,0,0,0,-1,1623,1443,0,0
406,-419,0,0,0,0,0,0,0,0,0,-1,1630,1443,0,0
413,-419,0,0,0,0,0,0,0,0,0,-1,1637,1443,0,0
420,-419,0,0,0,0,0,0,0,0,0,-1,1644,1443,0,0
427,-419,0,0,0,0,0,0,0,0,0,-1,1651,1443,0,0
434,-419,0,0,0,0,0,0,0,0,0,-1,1658,1443,0,0
441,-419,0,0,0,0,0,0,0,0,0,-1,1665,1443,0,0
448,-419,0,0,0,0,0,0,0,0,0,-1,1672,1443,0,0
455,-419,0,0,0,0,0,0,0,0,0,-1,1679,1443,0,0
462,-419,0,0,0,0,0,0,0,0,0,-1,1686,1443,0,0
469,-419,0,0,0,0,0,0,0,0,0,-1,1693,1443,0,0
476,-419,0,0,0,0,0,0,0,0,0,-1,1700,1443,0,0
483,-419,0,0,0,0,0,0,0,0,0,-1,1707,1443,0,0
490,-419,0,0,0,0,0,0,0,0,0,-1,1714,1443,0,0
497,-419,0,0,0,0,0,0,0,0,0,-1,1721,1443,0,0
504,-419,0,0,0,0,0,0,0,0,0,-1,1728,1443,0,0
511,-419,-0.774536,-0.227539,0,0,0,0,0,0,0,-1,1735,1443,-0.774594,0.227536
518,-419,2.52087,-0.629028,0,0,0,0,0,0,0,-1,1742,1443,2.52085,0.629034
525,-419,2.15833,-0.365723,0,0,0,0,0,0,0,-1,1749,1443,2.15828,0.365717
532,-419,1.74487,-0.0910645,-0.00658142,0.0126062,0.0110581,0.0176521,-0.0116274,1.14271,0.0170234,0.0446385,1756,1443,1.74482,0.0910169
539,-419,1.19128,0.207275,-0.011492,0.0144512,0.0144972,0.0209329,-0.0179737,1.15036,0.0224843,0.0446341,1763,1443,1.1913,-0.207278
546,-419,0.476685,0.332886,-0.0139466,0.0155674,0.0161533,0.0226896,-0.0210688,1.15553,0.0252696,0.0460053,1770,1443,0.476657,-0.332845
553,-419,-0.444458,-0.0466309,-0.0154133,0.0160183,0.0169977,0.0234522,-0.0228472,1.15851,0.0267317,0.0430002,1777,1443,-0.444424,0.0465768
560,-419,0.658936,-1.50806,0,0,0,0,0,0,0,-1,1784,1443,0.658931,1.50805
567,-419,0.170288,-1.53296,0,0,0,0,0,0,0,-1,1791,1443,0.170331,1.53301
574,-419,-0.106567,0.505249,-0.0119488,0.0133821,0.0133247,0.0191004,-0.0176671,1.16542,0.0212331,0.0452212,1798,1443,-0.106606,-0.505195
581,-419,-0.0803223,0.367065,-0.00907087,0.0110989,0.0105935,0.0156403,-0.0136122,1.1658,0.0169025,0.0438758,1805,1443,-0.0802781,-0.367085
588,-419,-0.171509,-0.236694,-0.00615567,0.00849455,0.00789264,0.0119375,-0.00959861,1.15946,0.0124583,0.0384739,1812,1443,-0.171486,0.236716
595,-419,-0.111206,-0.0854492,-0.00396731,0.00679057,0.00563002,0.00919817,-0.00637491,1.1667,0.00904024,0.0293891,1819,1443,-0.111204,0.0853898
602,-419,-0.0252686,0.0216064,-0.00245744,0.00479007,0.00386883,0.00646721,-0.00413458,1.16175,0.00617014,0.0136141,1826,1443,-0.0252731,-0.0215688
609,-419,-0.0189209,0.029541,-0.00128944,0.00331666,0.00290095,0.0047176,-0.00269038,1.1209,0.00433005,0.0098608,1833,1443,-0.0189275,-0.0295369
616,-419,-0.0264893,0.0516357,-0.000834906,0.00196606,0.00175179,0.00280837,-0.00167722,1.1226,0.00261706,0.00987807,1840,1443,-0.0265036,-0.0516775
623,-419,-0.0253906,0.0323486,-0.000500695,0.000885583,0.000912711,0.00133852,-0.000953629,1.11015,0.00132958,0.00862126,1847,1443,-0.0253953,-0.0323489
630,-419,-0.0245361,0.0321045,-0.000416825,0.000579557,0.000454221,0.00075554,-0.000592808,1.20116,0.000780357,0.0118858,1854,1443,-0.0245089,-0.0320769
637,-419,-0.0216064,0.050293,-0.00024232,0.000488764,-3.76623e-05,0.000490699,-0.000244255,-1.51946,0.000432205,0.013031,1861,1443,-0.0215934,-0.0502426
644,-419,-0.0187988,0.0584717,-5.71032e-05,0.00100397,-0.000363597,0.00111661,-0.00016974,-1.27039,0.000806958,0.0115219,1868,1443,-0.0187933,-0.0584429
651,-419,-0.0197754,0.0562744,-0.000131864,0.00153311,-0.000661457,0.0017639,-0.000362655,-1.23509,0.00131361,0.0114935,1875,1443,-0.0198005,-0.0562729
658,-419,-0.0280762,0.0385742,-7.0776e-05,0.00221379,-0.00107605,0.00264081,-0.000497791,-1.19302,0.00194779,0.0120044,1882,1443,-0.0280614,-0.0385758
665,-419,-0.0311279,0.0534668,-6.34735e-05,0.00294934,-0.00134358,0.00346146,-0.0005756,-1.20663,0.00252151,0.0169484,1889,1443,-0.0311614,-0.0534974
672,-419,-0.0106201,0.0487061,-0.000223735,0.00391501,-0.00155014,0.00443122,-0.000739945,-1.24934,0.00322918,0.0195135,1896,1443,-0.0106395,-0.048725
679,-419,-0.0621338,0.0212402,-0.000383601,0.00487906,-0.00183767,0.00545723,-0.000961777,-1.26598,0.0039975,0.0298271,1903,1443,-0.0621681,-0.021247
686,-419,-0.117432,-0.0150146,-0.00053488,0.00592283,-0.00210621,0.00654905,-0.0011611,-1.2818,0.00480011,0.0429676,1910,1443,-0.117474,0.0149669
693,-419,0.0721436,-0.307983,-0.000712278,0.00717103,-0.00236815,0.00782773,-0.00136897,-1.30029,0.00572958,0.0458099,1917,1443,0.0720854,0.308028
700,-419,-0.0869141,-0.380493,-0.000965377,0.00854745,-0.00257969,0.00920198,-0.00161991,-1.32232,0.00673983,0.0469039,1924,1443,-0.0868577,0.38054
707,-419,-0.335449,-0.300537,0,0,0,0,0,0,0,-1,1931,1443,-0.33541,0.300509
714,-419,-0.435303,-0.247925,0,0,0,0,0,0,0,-1,1938,1443,-0.435248,0.247925
721,-419,0,0,0,0,0,0,0,0,0,-1,1945,1443,0,0
728,-419,0,0,0,0,0,0,0,0,0,-1,1952,1443,0,0
735,-419,0,0,0,0,0,0,0,0,0,-1,1959,1443,0,0
742,-419,0,0,0,0,0,0,0,0,0,-1,1966,1443,0,0
749,-419,0,0,0,0,0,0,0,0,0,-1,1973,1443,0,0
756,-419,0,0,0,0,0,0,0,0,0,-1,1980,1443,0,0
763,-419,0,0,0,0,0,0,0,0,0,-1,1987,1443,0,0
770,-419,0,0,0,0,0,0,0,0,0,-1,1994,1443,0,0
777,-419,0,0,0,0,0,0,0,0,0,-1,2001,1443,0,0
784,-419,0,0,0,0,0,0,0,0,0,-1,2008,1443,0,0
791,-419,0,0,0,0,0,0,0,0,0,-1,2015,1443,0,0
798,-419,0,0,0,0,0,0,0,0,0,-1,2022,1443,0,0
805,-419,0,0,0,0,0,0,0,0,0,-1,2029,1443,0,0
812,-419,0,0,0,0,0,0,0,0,0,-1,2036,1443,0,0
-700,-426,0,0,0,0,0,0,0,0,0,-1,524,1450,0,0
-693,-426,0,0,0,0,0,0,0,0,0,-1,531,1450,0,0
-686,-426,0,0,0,0,0,0,0,0,0,-1,538,1450,0,0
-679,-426,0,0,0,0,0,0,0,0,0,-1,545,1450,0,0
-672,-426,0,0,0,0,0,0,0,0,0,-1,552,1450,0,0
-665,-426,0,0,0,0,0,0,0,0,0,-1,559,1450,0,0
-658,-426,0,0,0,0,0,0,0,0,0,-1,566,1450,0,0
-651,-426,0,0,0,0,0,0,0,0,0,-1,573,1450,0,0
-644,-426,0,0,0,0,0,0,0,0,0,-1,580,1450,0,0
-637,-426,0,0,0,0,0,0,0,0,0,-1,587,1450,0,0
-630,-426,0,0,0,0,0,0,0,0,0,-1,594,1450,0,0
-623,-426,0,0,0,0,0,0,0,0,0,-1,601,1450,0,0
-616,-426,0,0,0,0,0,0,0,0,0,-1,608,1450,0,0
-609,-426,0,0,0,0,0,0,0,0,0,-1,615,1450,0,0
-602,-426,0,0,0,0,0,0,0,0,0,-1,622,1450,0,0
-595,-426,0,0,0,0,0,0,0,0,0,-1,629,1450,0,0
-588,-426,1.03052,-0.769165,0,0,0,0,0,0,0,-1,636,1450,1.03051,0.769161
-581,-426,0.789795,-0.553101,0,0,0,0,0,0,0,-1,643,1450,0.789821,0.55314
-574,-426,0.429382,0.645508,0,0,0,0,0,0,0,-1,650,1450,0.429399,-0.645541
-567,-426,0.546814,0.474243,0,0,0,0,0,0,0,-1,657,1450,0.546825,-0.474237
-560,-426,0.415527,0.360718,-0.0053168,-0.00622774,0.00860149,0.00284127,-0.0143858,0.758946,0.0106645,0.04346,664,1450,0.415516,-0.360699
-553,-426,0.0771484,0.0153809,-0.00657537,-0.0072912,0.00688273,-4.12543e-05,-0.0138253,0.759421,0.00920316,0.0402591,671,1450,0.0771643,-0.0154214
-546,-426,0.0596313,-0.0390625,-0.00891361,-0.00828414,0.00587847,-0.00271199,-0.0144858,0.812143,0.00889212,0.0402368,678,1450,0.0596084,0.0390497
-539,-426,-0.0593262,0.0480957,-0.00822286,-0.00807722,0.00304901,-0.00510017,-0.0111999,0.797338,0.00647485,0.0337971,685,1450,-0.0593235,-0.0481096
-532,-426,-0.0176392,0.050293,-0.00435551,-0.00810555,0.00160492,-0.00376244,-0.00869862,0.353967,0.00503737,0.0176335,692,1450,-0.0176482,-0.0503067
-525,-426,-0.0146484,0.034668,-0.00157154,-0.00774031,0.000428525,-0.00154192,-0.00776993,0.069025,0.00475015,0.0107577,699,1450,-0.0146499,-0.0346407
-518,-426,-0.0204468,0.0357666,0.000148084,-0.00690825,-0.000569285,0.000193717,-0.00695389,-0.0799877,0.00470183,0.0145144,706,1450,-0.0204361,-0.0358121
-511,-426,-0.0146484,0.0562744,0.00187147,-0.00651836,-0.00117832,0.00203382,-0.00668071,-0.136918,0.00526437,0.0151383,713,1450,-0.0146699,-0.0562789
-504,-426,-0.0211792,0.0349121,0.00334016,-0.00578521,-0.0012748,0.0035149,-0.00595995,-0.136224,0.00553069,0.0144167,720,1450,-0.0211885,-0.0349374
-497,-426,-0.0128784,0.036499,0.00400022,-0.00502617,-0.000802817,0.00407107,-0.00509702,-0.0880204,0.00530423,0.0109692,727,1450,-0.0128495,-0.0364682
-490,-426,-0.019043,0.0415039,0.00459506,-0.00299781,-0.000884208,0.00469666,-0.00309941,-0.114413,0.00453245,0.0105247,734,1450,-0.0190646,-0.0415287
-483,-426,-0.0108032,0.0251465,0.00478306,-0.000950774,-0.000681405,0.00486293,-0.00103064,-0.116674,0.00363454,0.010732,741,1450,-0.0108201,-0.0251964
-476,-426,-0.0174561,0.019165,0.00398858,0.000124742,1.92943e-05,0.00398868,0.000124645,0.00499339,0.00261856,0.00857463,748,1450,-0.0174613,-0.0191047
-469,-426,-0.0257568,0.0184326,0.00329155,0.0009628,5.22018e-05,0.00329272,0.000961631,0.0224012,0.00195509,0.00645429,755,1450,-0.0257838,-0.0183717
-462,-426,-0.00396729,0.0534668,0.00294452,0.00165054,-0.000209235,0.00297751,0.00161755,-0.156391,0.00172121,0.0125938,762,1450,-0.00398076,-0.0534639
-455,-426,0.00860596,0.0823975,0.00168157,0.00248565,2.44302e-05,0.00248639,0.00168083,1.54045,0.00146487,0.024476,769,1450,0.00859693,-0.082444
-448,-426,0.660095,-2.99536,0,0,0,0,0,0,0,-1,776,1450,0.660077,2.9953
-441,-426,0.885254,-2.95007,0,0,0,0,0,0,0,-1,783,1450,0.885258,2.95008
-434,-426,1.18939,-2.7384,0,0,0,0,0,0,0,-1,790,1450,1.18938,2.73846
-427,-426,0.640442,-1.44495,-0.00313999,0.00674918,-0.00118558,0.00688933,-0.00328013,-1.45313,0.00599333,0.0462322,797,1450,0.64042,1.4449
-420,-426,0.123291,-1.12708,-0.00399943,0.00738183,-0.00148114,0.00757143,-0.00418903,-1.44348,0.00688287,0.0444864,804,1450,0.123291,1.12705
-413,-426,-0.293274,-0.744507,-0.00411548,0.00802547,-0.00159584,0.00823173,-0.00432174,-1.44226,0.007364,0.0448406,811,1450,-0.293257,0.744537
-406,-426,-0.629028,-0.323608,-0.00276908,0.00890145,-0.00155164,0.00910422,-0.00297185,-1.44085,0.0072656,0.0462706,818,1450,-0.629046,0.323601
-399,-426,-0.866699,0.074585,0.000558992,0.0102994,-0.00129598,0.0104689,0.000389508,-1.44076,0.00685312,0.04468,825,1450,-0.866712,-0.0745599
-392,-426,-1.0531,0.46875,0,0,0,0,0,0,0,-1,832,1450,-1.05312,-0.468721
-385,-426,0,0,0,0,0,0,0,0,0,-1,839,1450,0,0
-378,-426,0,0,0,0,0,0,0,0,0,-1,846,1450,0,0
-371,-426,0,0,0,0,0,0,0,0,0,-1,853,1450,0,0
-364,-426,0,0,0,0,0,0,0,0,0,-1,860,1450,0,0
-357,-426,0,0,0,0,0,0,0,0,0,-1,867,1450,0,0
-350,-426,0,0,0,0,0,0,0,0,0,-1,874,1450,0,0
-343,-426,0,0,0,0,0,0,0,0,0,-1,881,1450,0,0
-336,-426,0,0,0,0,0,0,0,0,0,-1,888,1450,0,0
-329,-426,0,0,0,0,0,0,0,0,0,-1,895,1450,0,0
-322,-426,0,0,0,0,0,0,0,0,0,-1,902,1450,0,0
-315,-426,0,0,0,0,0,0,0,0,0,-1,909,1450,0,0
-308,-426,0,0,0,0,0,0,0,0,0,-1,916,1450,0,0
-301,-426,0,0,0,0,0,0,0,0,0,-1,923,1450,0,0
-294,-426,0,0,0,0,0,0,0,0,0,-1,930,1450,0,0
-287,-426,0,0,0,0,0,0,0,0,0,-1,937,1450,0,0
-280,-426,0,0,0,0,0,0,0,0,0,-1,944,1450,0,0
-273,-426,0,0,0,0,0,0,0,0,0,-1,951,1450,0,0
-266,-426,0,0,0,0,0,0,0,0,0,-1,958,1450,0,0
-259,-426,0,0,0,0,0,0,0,0,0,-1,965,1450,0,0
-252,-426,0,0,0,0,0,0,0,0,0,-1,972,1450,0,0
-245,-426,0,0,0,0,0,0,0,0,0,-1,979,1450,0,0
-238,-426,0,0,0,0,0,0,0,0,0,-1,986,1450,0,0
-231,-426,0,0,0,0,0,0,0,0,0,-1,993,1450,0,0
-224,-426,0,0,0,0,0,0,0,0,0,-1,1000,1450,0,0
-217,-426,0,0,0,0,0,0,0,0,0,-1,1007,1450,0,0
-210,-426,0,0,0,0,0,0,0,0,0,-1,1014,1450,0,0
-203,-426,0,0,0,0,0,0,0,0,0,-1,1021,1450,0,0
-196,-426,0,0,0,0,0,0,0,0,0,-1,1028,1450,0,0
-189,-426,0,0,0,0,0,0,0,0,0,-1,1035,1450,0,0
-182,-426,0,0,0,0,0,0,0,0,0,-1,1042,1450,0,0
-175,-426,0,0,0,0,0,0,0,0,0,-1,1049,1450,0,0
-168,-426,0,0,0,0,0,0,0,0,0,-1,1056,1450,0,0
-161,-426,0,0,0,0,0,0,0,0,0,-1,1063,1450,0,0
-154,-426,0,0,0,0,0,0,0,0,0,-1,1070,1450,0,0
-147,-426,0,0,0,0,0,0,0,0,0,-1,1077,1450,0,0
-140,-426,0,0,0,0,0,0,0,0,0,-1,1084,1450,0,0
-133,-426,0,0,0,0,0,0,0,0,0,-1,1091,1450,0,0
-126,-426,0,0,0,0,0,0,0,0,0,-1,1098,1450,0,0
-119,-426,0,0,0,0,0,0,0,0,0,-1,1105,1450,0,0
-112,-426,0,0,0,0,0,0,0,0,0,-1,1112,1450,0,0
-105,-426,0,0,0,0,0,0,0,0,0,-1,1119,1450,0,0
-98,-426,0,0,0,0,0,0,0,0,0,-1,1126,1450,0,0
-91,-426,0,0,0,0,0,0,0,0,0,-1,1133,1450,0,0
-84,-426,0,0,0,0,0,0,0,0,0,-1,1140,1450,0,0
-77,-426,0,0,0,0,0,0,0,0,0,-1,1147,1450,0,0
-70,-426,0,0,0,0,0,0,0,0,0,-1,1154,1450,0,0
-63,-426,0,0,0,0,0,0,0,0,0,-1,1161,1450,0,0
-56,-426,0,0,0,0,0,0,0,0,0,-1,1168,1450,0,0
-49,-426,0,0,0,0,0,0,0,0,0,-1,1175,1450,0,0
-42,-426,0,0,0,0,0,0,0,0,0,-1,1182,1450,0,0
-35,-426,0,0,0,0,0,0,0,0,0,-1,1189,1450,0,0
-28,-426,0,0,0,0,0,0,0,0,0,-1,1196,1450,0,0
-21,-426,0,0,0,0,0,0,0,0,0,-1,1203,1450,0,0
-14,-426,0,0,0,0,0,0,0,0,0,-1,1210,1450,0,0
-7,-426,0,0,0,0,0,0,0,0,0,-1,1217,1450,0,0
0,-426,0,0,0,0,0,0,0,0,0,-1,1224,1450,0,0
7,-426,0,0,0,0,0,0,0,0,0,-1,1231,1450,0,0
14,-426,0,0,0,0,0,0,0,0,0,-1,1238,1450,0,0
21,-426,0,0,0,0,0,0,0,0,0,-1,1245,1450,0,0
28,-426,0,0,0,0,0,0,0,0,0,-1,1252,1450,0,0
35,-426,0,0,0,0,0,0,0,0,0,-1,1259,1450,0,0
42,-426,0,0,0,0,0,0,0,0,0,-1,1266,1450,0,0
49,-426,0,0,0,0,0,0,0,0,0,-1,1273,1450,0,0
56,-426,0,0,0,0,0,0,0,0,0,-1,1280,1450,0,0
63,-426,0,0,0,0,0,0,0,0,0,-1,1287,1450,0,0
70,-426,0,0,0,0,0,0,0,0,0,-1,1294,1450,0,0
77,-426,0,0,0,0,0,0,0,0,0,-1,1301,1450,0,0
84,-426,0,0,0,0,0,0,0,0,0,-1,1308,1450,0,0
91,-426,0,0,0,0,0,0,0,0,0,-1,1315,1450,0,0
98,-426,0,0,0,0,0,0,0,0,0,-1,1322,1450,0,0
105,-426,0,0,0,0,0,0,0,0,0,-1,1329,1450,0,0
112,-426,0,0,0,0,0,0,0,0,0,-1,1336,1450,0,0
119,-426,0,0,0,0,0,0,0,0,0,-1,1343,1450,0,0
126,-426,0,0,0,0,0,0,0,0,0,-1,1350,1450,0,0
133,-426,0,0,0,0,0,0,0,0,0,-1,1357,1450,0,0
140,-426,0,0,0,0,0,0,0,0,0,-1,1364,1450,0,0
147,-426,0,0,0,0,0,0,0,0,0,-1,1371,1450,0,0
154,-426,0,0,0,0,0,0,0,0,0,-1,1378,1450,0,0
161,-426,0,0,0,0,0,0,0,0,0,-1,1385,1450,0,0
168,-426,0,0,0,0,0,0,0,0,0,-1,1392,1450,0,0
175,-426,0,0,0,0,0,0,0,0,0,-1,1399,1450,0,0
182,-426,0,0,0,0,0,0,0,0,0,-1,1406,1450,0,0
189,-426,0,0,0,0,0,0,0,0,0,-1,1413,1450,0,0
196,-426,0,0,0,0,0,0,0,0,0,-1,1420,1450,0,0
203,-426,0,0,0,0,0,0,0,0,0,-1,1427,1450,0,0
210,-426,0,0,0,0,0,0,0,0,0,-1,1434,1450,0,0
217,-426,0,0,0,0,0,0,0,0,0,-1,1441,1450,0,0
224,-426,0,0,0,0,0,0,0,0,0,-1,1448,1450,0,0
231,-426,0,0,0,0,0,0,0,0,0,-1,1455,1450,0,0
238,-426,0,0,0,0,0,0,0,0,0,-1,1462,1450,0,0
245,-426,0,0,0,0,0,0,0,0,0,-1,1469,1450,0,0
252,-426,0,0,0,0,0,0,0,0,0,-1,1476,1450,0,0
259,-426,0,0,0,0,0,0,0,0,0,-1,1483,1450,0,0
266,-426,0,0,0,0,0,0,0,0,0,-1,1490,1450,0,0
273,-426,0,0,0,0,0,0,0,0,0,-1,1497,1450,0,0
280,-426,0,0,0,0,0,0,0,0,0,-1,1504,1450,0,0
287,-426,0,0,0,0,0,0,0,0,0,-1,1511,1450,0,0
294,-426,0,0,0,0,0,0,0,0,0,-1,1518,1450,0,0
301,-426,0,0,0,0,0,0,0,0,0,-1,1525,1450,0,0
308,-426,0,0,0,0,0,0,0,0,0,-1,1532,1450,0,0
315,-426,0,0,0,0,0,0,0,0,0,-1,1539,1450,0,0
322,-426,0,0,0,0,0,0,0,0,0,-1,1546,1450,0,0
329,-426,0,0,0,0,0,0,0,0,0,-1,1553,1450,0,0
336,-426,0,0,0,0,0,0,0,0,0,-1,1560,1450,0,0
343,-426,0,0,0,0,0,0,0,0,0,-1,1567,1450,0,0
350,-426,0,0,0,0,0,0,0,0,0,-1,1574,1450,0,0
357,-426,0,0,0,0,0,0,0,0,0,-1,1581,1450,0,0
364,-426,0,0,0,0,0,0,0,0,0,-1,1588,1450,0,0
371,-426,0,0,0,0,0,0,0,0,0,-1,1595,1450,0,0
378,-426,0,0,0,0,0,0,0,0,0,-1,1602,1450,0,0
385,-426,0,0,0,0,0,0,0,0,0,-1,1609,1450,0,0
392,-426,0,0,0,0,0,0,0,0,0,-1,1616,1450,0,0
399,-426,0,0,0,0,0,0,0,0,0,-1,1623,1450,0,0
406,-426,0,0,0,0,0,0,0,0,0,-1,1630,1450,0,0
413,-426,0,0,0,0,0,0,0,0,0,-1,1637,1450,0,0
420,-426,0,0,0,0,0,0,0,0,0,-1,1644,1450,0,0
427,-426,0,0,0,0,0,0,0,0,0,-1,1651,1450,0,0
434,-426,0,0,0,0,0,0,0,0,0,-1,1658,1450,0,0
441,-426,0,0,0,0,0,0,0,0,0,-1,1665,1450,0,0
448,-426,0,0,0,0,0,0,0,0,0,-1,1672,1450,0,0
455,-426,0,0,0,0,0,0,0,0,0,-1,1679,1450,0,0
462,-426,0,0,0,0,0,0,0,0,0,-1,1686,1450,0,0
469,-426,0,0,0,0,0,0,0,0,0,-1,1693,1450,0,0
476,-426,0,0,0,0,0,0,0,0,0,-1,1700,1450,0,0
483,-426,0,0,0,0,0,0,0,0,0,-1,1707,1450,0,0
490,-426,0,0,0,0,0,0,0,0,0,-1,1714,1450,0,0
497,-426,0,0,0,0,0,0,0,0,0,-1,1721,1450,0,0
504,-426,-0.93335,-0.203735,0.0461951,0.000112578,-0.0346152,0.0647365,-0.0184288,-0.491753,0.0504356,0.04125,1728,1450,-0.933335,0.203749
511,-426,-0.516968,-0.300781,0.0280291,0.00242158,-0.0201897,0.0391327,-0.00868199,-0.502814,0.0294127,0.0462176,1735,1450,-0.517006,0.300797
518,-426,-0.043457,-0.648315,0,0,0,0,0,0,0,-1,1742,1450,-0.0434307,0.648362
525,-426,1.99438,-0.741699,0,0,0,0,0,0,0,-1,1749,1450,1.99442,0.741646
532,-426,1.15503,-0.579346,-0.00452488,0.0101598,0.00554882,0.0120207,-0.00638577,1.24722,0.0107917,0.0470446,1756,1450,1.15507,0.579314
539,-426,0.902954,-0.397217,-0.00910653,0.0116076,0.0092402,0.0151303,-0.0126293,1.20656,0.0160487,0.0447689,1763,1450,0.902976,0.397232
546,-426,0.436157,-0.265259,-0.0113819,0.012459,0.0112494,0.016929,-0.0158518,1.19257,0.0189294,0.0436434,1770,1450,0.436213,0.265209
553,-426,-0.271851,0.0786133,-0.0130051,0.0127854,0.012609,0.0179255,-0.0181452,1.18371,0.0208256,0.0440618,1777,1450,-0.271898,-0.0785893
560,-426,-0.265625,0.333496,-0.0135852,0.0127329,0.0130912,0.0181357,-0.018988,1.17939,0.0214352,0.0424686,1784,1450,-0.265677,-0.333482
567,-426,0.0874023,-0.30835,0,0,0,0,0,0,0,-1,1791,1450,0.0873549,0.30832
574,-426,0.132324,-0.0161133,-0.0103879,0.0107798,0.0104725,0.0150853,-0.0146933,1.18074,0.0171932,0.0466637,1798,1450,0.132348,0.0161425
581,-426,-0.00769043,0.128418,-0.00785402,0.00895516,0.00829539,0.0123595,-0.0112583,1.18137,0.0136407,0.0435367,1805,1450,-0.00764559,-0.128431
588,-426,-0.114868,0.0186768,-0.00526554,0.006797,0.00602837,0.00929318,-0.00776172,1.17822,0.00985988,0.0328031,1812,1450,-0.114876,-0.0187212
595,-426,-0.0461426,0.0222168,-0.00330717,0.0053519,0.00418535,0.00704417,-0.00499943,1.18656,0.0069867,0.0212033,1819,1450,-0.0461335,-0.0221834
602,-426,-0.0372314,0.00402832,-0.00199828,0.00380951,0.00278799,0.00493122,-0.00311999,1.18828,0.00468741,0.0138205,1826,1450,-0.0372176,-0.00403436
609,-426,-0.0273438,0.0228271,-0.00101453,0.00272014,0.00207214,0.00364219,-0.00193659,1.15213,0.0032707,0.0102669,1833,1450,-0.02735,-0.0228058
616,-426,-0.020874,0.0406494,-0.000671391,0.00194443,0.00113981,0.0023714,-0.00109836,1.21238,0.00204771,0.0114689,1840,1450,-0.0208806,-0.0406024
623,-426,-0.0162354,0.0264893,-0.000391368,0.0012273,0.000419484,0.00132955,-0.00049362,1.3317,0.00108886,0.0100405,1847,1450,-0.0162128,-0.0264519
630,-426,-0.0195313,0.0333252,-0.000318114,0.00130355,2.80255e-05,0.00130403,-0.000318598,1.55352,0.000992745,0.0110501,1854,1450,-0.0194837,-0.0333161
637,-426,-0.0185547,0.0297852,-0.000145659,0.0015599,-0.000415588,0.00165578,-0.000241534,-1.34407,0.00119254,0.0118549,1861,1450,-0.0185139,-0.0297463
644,-426,-0.0454102,0.0447998,8.32988e-05,0.00233909,-0.000749213,0.00256525,-0.000142861,-1.27763,0.00175972,0.0116,1868,1450,-0.0453949,-0.044763
651,-426,-0.0495605,0.0522461,0.000105831,0.00317116,-0.00104351,0.00349267,-0.000215681,-1.27192,0.00240357,0.0114111,1875,1450,-0.0495586,-0.0522825
658,-426,-0.0377197,0.0262451,0.000279301,0.00418193,-0.00146046,0.00466795,-0.000206711,-1.24954,0.00318311,0.010896,1882,1450,-0.0377575,-0.0261862
665,-426,-0.0367432,0.0297852,0.000398453,0.00523511,-0.00172518,0.00578739,-0.000153833,-1.26097,0.00391055,0.0149693,1889,1450,-0.0367713,-0.0297531
672,-426,-0.0158691,0.0217285,0.000375317,0.00647656,-0.00195473,0.00704909,-0.000197219,-1.28587,0.00476649,0.0225262,1896,1450,-0.0159162,-0.0216727
679,-426,-0.0878906,0.0128174,0.000343345,0.0077377,-0.00224712,0.00836702,-0.000285984,-1.29773,0.00567575,0.0325904,1903,1450,-0.0878916,-0.0127632
686,-426,-0.168945,-0.0113525,0.000301041,0.00904499,-0.00252205,0.00972029,-0.000374253,-1.30918,0.00660848,0.0413351,1910,1450,-0.168975,0.0113239
693,-426,0.015625,-0.297241,0.000226586,0.0104727,-0.00277883,0.0111778,-0.000478531,-1.32229,0.00761637,0.0453717,1917,1450,0.0156372,0.297215
700,-426,-0.0522461,-0.28894,9.73691e-05,0.0119877,-0.00301633,0.0127092,-0.000624042,-1.33604,0.00868826,0.0477449,1924,1450,-0.0522828,0.28893
707,-426,-0.0238037,-0.334351,-6.03653e-05,0.0135742,-0.00323967,0.0143048,-0.000790983,-1.34898,0.00981085,0.0495937,1931,1450,-0.0237963,0.334317
714,-426,0,0,0,0,0,0,0,0,0,-1,1938,1450,0,0
721,-426,0,0,0,0,0,0,0,0,0,-1,1945,1450,0,0
728,-426,0,0,0,0,0,0,0,0,0,-1,1952,1450,0,0
735,-426,0,0,0,0,0,0,0,0,0,-1,1959,1450,0,0
742,-426,0,0,0,0,0,0,0,0,0,-1,1966,1450,0,0
749,-426,0,0,0,0,0,0,0,0,0,-1,1973,1450,0,0
756,-426,0,0,0,0,0,0,0,0,0,-1,1980,1450,0,0
763,-426,0,0,0,0,0,0,0,0,0,-1,1987,1450,0,0
770,-426,0,0,0,0,0,0,0,0,0,-1,1994,1450,0,0
777,-426,0,0,0,0,0,0,0,0,0,-1,2001,1450,0,0
784,-426,0,0,0,0,0,0,0,0,0,-1,2008,1450,0,0
791,-426,0,0,0,0,0,0,0,0,0,-1,2015,1450,0,0
798,-426,0,0,0,0,0,0,0,0,0,-1,2022,1450,0,0
805,-426,0,0,0,0,0,0,0,0,0,-1,2029,1450,0,0
812,-426,0,0,0,0,0,0,0,0,0,-1,2036,1450,0,0
-700,-433,0,0,0,0,0,0,0,0,0,-1,524,1457,0,0
-693,-433,0,0,0,0,0,0,0,0,0,-1,531,1457,0,0
-686,-433,0,0,0,0,0,0,0,0,0,-1,538,1457,0,0
-679,-433,0,0,0,0,0,0,0,0,0,-1,545,1457,0,0
-672,-433,0,0,0,0,0,0,0,0,0,-1,552,1457,0,0
-665,-433,0,0,0,0,0,0,0,0,0,-1,559,1457,0,0
-658,-433,0,0,0,0,0,0,0,0,0,-1,566,1457,0,0
-651,-433,0,0,0,0,0,0,0,0,0,-1,573,1457,0,0
-644,-433,0,0,0,0,0,0,0,0,0,-1,580,1457,0,0
-637,-433,0,0,0,0,0,0,0,0,0,-1,587,1457,0,0
-630,-433,0,0,0,0,0,0,0,0,0,-1,594,1457,0,0
-623,-433,0,0,0,0,0,0,0,0,0,-1,601,1457,0,0
-616,-433,0,0,0,0,0,0,0,0,0,-1,608,1457,0,0
-609,-433,0,0,0,0,0,0,0,0,0,-1,615,1457,0,0
-602,-433,0,0,0,0,0,0,0,0,0,-1,622,1457,0,0
-595,-433,0,0,0,0,0,0,0,0,0,-1,629,1457,0,0
-588,-433,1.19666,-0.661255,0,0,0,0,0,0,0,-1,636,1457,1.19666,0.661312
-581,-433,0.924255,-0.48645,0.0141761,-0.00334264,0.0163048,0.0239254,-0.013092,0.538905,0.0216749,0.0432541,643,1457,0.924267,0.486497
-574,-433,0.749084,-0.371582,0.00206713,-0.00446057,0.0146591,0.0138213,-0.0162148,0.67586,0.0173597,0.0471581,650,1457,0.749106,0.37159
-567,-433,0.609009,0.0418701,-0.00461787,-0.00629653,0.0123592,0.0069305,-0.0178449,0.751495,0.0147595,0.0475062,657,1457,0.609032,-0.0418569
-560,-433,0.250488,0.17981,-0.00743394,-0.00835417,0.0098787,0.00199535,-0.0177835,0.762127,0.0125736,0.0467289,664,1457,0.250509,-0.179811
-553,-433,0.24646,-0.369019,0,0,0,0,0,0,0,-1,671,1457,0.246454,0.369022
-546,-433,0.32843,-0.38147,-0.00882412,-0.0112651,0.00576817,-0.00414874,-0.0159405,0.681139,0.00954938,0.0407528,678,1457,0.328405,0.381478
-539,-433,0.195313,-0.23291,-0.00732969,-0.0110495,0.00248183,-0.00608818,-0.012291,0.463839,0.0070963,0.0396966,685,1457,0.195294,0.232922
-532,-433,-0.0133057,0.0134277,-0.00308466,-0.0109407,0.000731718,-0.00301709,-0.0110082,0.0920857,0.00656832,0.0239972,692,1457,-0.0132915,-0.0134715
-525,-433,-0.0237427,0.0372314,-0.000158716,-0.0102766,-0.000558091,-0.000128026,-0.0103073,-0.0549367,0.00682925,0.0119514,699,1457,-0.023716,-0.0372381
-518,-433,-0.0183105,0.0323486,0.00144148,-0.0090341,-0.00153037,0.00166047,-0.00925309,-0.142133,0.00679023,0.0144546,706,1457,-0.0183085,-0.0323419
-511,-433,-0.0223999,0.0462646,0.00297809,-0.00823673,-0.00212125,0.00336591,-0.00862454,-0.180827,0.00714116,0.0141117,713,1457,-0.02241,-0.0462452
-504,-433,-0.0255127,0.0268555,0.004167,-0.00704346,-0.0021545,0.00456681,-0.00744327,-0.183481,0.007,0.0110057,720,1457,-0.0254896,-0.0268408
-497,-433,-0.0216675,0.0196533,0.00425255,-0.00569448,-0.00151811,0.00447909,-0.00592101,-0.148128,0.00602371,0.0110875,727,1457,-0.021666,-0.0196624
-490,-433,-0.0142212,0.0317383,0.00436351,-0.00335312,-0.00136328,0.00459728,-0.00358688,-0.169822,0.00473712,0.0129804,734,1457,-0.0141998,-0.031751
-483,-433,-0.00317383,0.0412598,0.00418261,-0.00117785,-0.00097853,0.00435565,-0.00135089,-0.175028,0.00344355,0.0142177,741,1457,-0.00314979,-0.0412472
-476,-433,-0.0111084,0.0316162,0.0030649,4.58911e-06,-8.34283e-05,0.00306717,2.31643e-06,-0.0272344,0.00204401,0.010126,748,1457,-0.0111166,-0.0315762
-469,-433,-0.0152588,0.0441895,0.00224068,0.000871147,0.000109055,0.00224931,0.000862517,0.0789664,0.00131034,0.0092753,755,1457,-0.0152567,-0.044218
-462,-433,-0.0181885,0.0552979,0.00190075,0.00145847,-0.000127246,0.00193475,0.00142448,-0.261072,0.00115785,0.00818355,762,1457,-0.0182029,-0.0552525
-455,-433,-0.0112915,0.072998,0.000830507,0.00218271,7.41614e-05,0.00218676,0.000826451,1.51617,0.00127501,0.016186,769,1457,-0.0113017,-0.0729929
-448,-433,-0.0442505,0.154785,0.000156532,0.00299307,-0.000125747,0.00299864,0.000150969,-1.52658,0.00195072,0.0309098,776,1457,-0.0442575,-0.154774
-441,-433,1.03094,-3.66699,0,0,0,0,0,0,0,-1,783,1457,1.03093,3.66697
-434,-433,-0.401184,0.74585,0,0,0,0,0,0,0,-1,790,1457,-0.401205,-0.745851
-427,-433,-1.21173,1.11804,-0.00223924,0.00570851,-0.00109174,0.00585575,-0.00238648,-1.43674,0.00489715,0.0416879,797,1457,-1.21175,-1.11806
-420,-433,-1.76105,1.6731,-0.00258965,0.00627232,-0.00135767,0.00647566,-0.00279298,-1.42214,0.00549024,0.041511,804,1457,-1.76107,-1.6731
-413,-433,-0.461609,-0.713867,-0.00243809,0.00693768,-0.00133843,0.007125,-0.00262541,-1.43174,0.00582579,0.0442892,811,1457,-0.461592,0.713908
-406,-433,-0.600647,-0.29248,-0.0013433,0.00781646,-0.00111796,0.00795093,-0.00147777,-1.45109,0.0058557,0.0459884,818,1457,-0.600661,0.292476
-399,-433,-0.201172,-0.026123,0.00114187,0.00930525,-0.00120554,0.00947956,0.000967559,-1.4272,0.00602315,0.046674,825,1457,-0.201143,0.0260724
-392,-433,0.0691528,0.0102539,0.00530881,0.0101353,-0.00140445,0.0105142,0.00492988,-1.30726,0.0060743,0.0462878,832,1457,0.0691695,-0.0102158
-385,-433,0.317322,0.466187,0.00922818,0.0134799,-0.00200372,0.0142754,0.00843272,-1.19288,0.008287,0.0435058,839,1457,0.3173,-0.466172
-378,-433,0,0,0,0,0,0,0,0,0,-1,846,1457,0,0
-371,-433,0,0,0,0,0,0,0,0,0,-1,853,1457,0,0
-364,-433,0,0,0,0,0,0,0,0,0,-1,860,1457,0,0
-357,-433,0,0,0,0,0,0,0,0,0,-1,867,1457,0,0
-350,-433,0,0,0,0,0,0,0,0,0,-1,874,1457,0,0
-343,-433,0,0,0,0,0,0,0,0,0,-1,881,1457,0,0
-336,-433,0,0,0,0,0,0,0,0,0,-1,888,1457,0,0
-329,-433,0,0,0,0,0,0,0,0,0,-1,895,1457,0,0
-322,-433,0,0,0,0,0,0,0,0,0,-1,902,1457,0,0
-315,-433,0,0,0,0,0,0,0,0,0,-1,909,1457,0,0
-308,-433,0,0,0,0,0,0,0,0,0,-1,916,1457,0,0
-301,-433,0,0,0,0,0,0,0,0,0,-1,923,1457,0,0
-294,-433,0,0,0,0,0,0,0,0,0,-1,930,1457,0,0
-287,-433,0,0,0,0,0,0,0,0,0,-1,937,1457,0,0
-280,-433,0,0,0,0,0,0,0,0,0,-1,944,1457,0,0
-273,-433,0,0,0,0,0,0,0,0,0,-1,951,1457,0,0
-266,-433,0,0,0,0,0,0,0,0,0,-1,958,1457,0,0
-259,-433,0,0,0,0,0,0,0,0,0,-1,965,1457,0,0
-252,-433,0,0,0,0,0,0,0,0,0,-1,972,1457,0,0
-245,-433,0,0,0,0,0,0,0,0,0,-1,979,1457,0,0
-238,-433,0,0,0,0,0,0,0,0,0,-1,986,1457,0,0
-231,-433,0,0,0,0,0,0,0,0,0,-1,993,1457,0,0
-224,-433,0,0,0,0,0,0,0,0,0,-1,1000,1457,0,0
-217,-433,0,0,0,0,0,0,0,0,0,-1,1007,1457,0,0
-210,-433,0,0,0,0,0,0,0,0,0,-1,1014,1457,0,0
-203,-433,0,0,0,0,0,0,0,0,0,-1,1021,1457,0,0
-196,-433,0,0,0,0,0,0,0,0,0,-1,1028,1457,0,0
-189,-433,0,0,0,0,0,0,0,0,0,-1,1035,1457,0,0
-182,-433,0,0,0,0,0,0,0,0,0,-1,1042,1457,0,0
-175,-433,0,0,0,0,0,0,0,0,0,-1,1049,1457,0,0
-168,-433,0,0,0,0,0,0,0,0,0,-1,1056,1457,0,0
-161,-433,0,0,0,0,0,0,0,0,0,-1,1063,1457,0,0
-154,-433,0,0,0,0,0,0,0,0,0,-1,1070,1457,0,0
-147,-433,0,0,0,0,0,0,0,0,0,-1,1077,1457,0,0
-140,-433,0,0,0,0,0,0,0,0,0,-1,1084,1457,0,0
-133,-433,0,0,0,0,0,0,0,0,0,-1,1091,1457,0,0
-126,-433,0,0,0,0,0,0,0,0,0,-1,1098,1457,0,0
-119,-433,0,0,0,0,0,0,0,0,0,-1,1105,1457,0,0
-112,-433,0,0,0,0,0,0,0,0,0,-1,1112,1457,0,0
-105,-433,0,0,0,0,0,0,0,0,0,-1,1119,1457,0,0
-98,-433,0,0,0,0,0,0,0,0,0,-1,1126,1457,0,0
-91,-433,0,0,0,0,0,0,0,0,0,-1,1133,1457,0,0
-84,-433,0,0,0,0,0,0,0,0,0,-1,1140,1457,0,0
-77,-433,0,0,0,0,0,0,0,0,0,-1,1147,1457,0,0
-70,-433,0,0,0,0,0,0,0,0,0,-1,1154,1457,0,0
-63,-433,0,0,0,0,0,0,0,0,0,-1,1161,1457,0,0
-56,-433,0,0,0,0,0,0,0,0,0,-1,1168,1457,0,0
-49,-433,0,0,0,0,0,0,0,0,0,-1,1175,1457,0,0
-42,-433,0,0,0,0,0,0,0,0,0,-1,1182,1457,0,0
-35,-433,0,0,0,0,0,0,0,0,0,-1,1189,1457,0,0
-28,-433,0,0,0,0,0,0,0,0,0,-1,1196,1457,0,0
-21,-433,0,0,0,0,0,0,0,0,0,-1,1203,1457,0,0
-14,-433,0,0,0,0,0,0,0,0,0,-1,1210,1457,0,0
-7,-433,0,0,0,0,0,0,0,0,0,-1,1217,1457,0,0
0,-433,0,0,0,0,0,0,0,0,0,-1,1224,1457,0,0
7,-433,0,0,0,0,0,0,0,0,0,-1,1231,1457,0,0
14,-433,0,0,0,0,0,0,0,0,0,-1,1238,1457,0,0
21,-433,0,0,0,0,0,0,0,0,0,-1,1245,1457,0,0
28,-433,0,0,0,0,0,0,0,0,0,-1,1252,1457,0,0
35,-433,0,0,0,0,0,0,0,0,0,-1,1259,1457,0,0
42,-433,0,0,0,0,0,0,0,0,0,-1,1266,1457,0,0
49,-433,0,0,0,0,0,0,0,0,0,-1,1273,1457,0,0
56,-433,0,0,0,0,0,0,0,0,0,-1,1280,1457,0,0
63,-433,0,0,0,0,0,0,0,0,0,-1,1287,1457,0,0
70,-433,0,0,0,0,0,0,0,0,0,-1,1294,1457,0,0
77,-433,0,0,0,0,0,0,0,0,0,-1,1301,1457,0,0
84,-433,0,0,0,0,0,0,0,0,0,-1,1308,1457,0,0
91,-433,0,0,0,0,0,0,0,0,0,-1,1315,1457,0,0
98,-433,0,0,0,0,0,0,0,0,0,-1,1322,1457,0,0
105,-433,0,0,0,0,0,0,0,0,0,-1,1329,1457,0,0
112,-433,0,0,0,0,0,0,0,0,0,-1,1336,1457,0,0
119,-433,0,0,0,0,0,0,0,0,0,-1,1343,1457,0,0
126,-433,0,0,0,0,0,0,0,0,0,-1,1350,1457,0,0
133,-433,0,0,0,0,0,0,0,0,0,-1,1357,1457,0,0
140,-433,0,0,0,0,0,0,0,0,0,-1,1364,1457,0,0
147,-433,0,0,0,0,0,0,0,0,0,-1,1371,1457,0,0
154,-433,0,0,0,0,0,0,0,0,0,-1,1378,1457,0,0
161,-433,0,0,0,0,0,0,0,0,0,-1,1385,1457,0,0
168,-433,0,0,0,0,0,0,0,0,0,-1,1392,1457,0,0
175,-433,0,0,0,0,0,0,0,0,0,-1,1399,1457,0,0
182,-433,0,0,0,0,0,0,0,0,0,-1,1406,1457,0,0
189,-433,0,0,0,0,0,0,0,0,0,-1,1413,1457,0,0
196,-433,0,0,0,0,0,0,0,0,0,-1,1420,1457,0,0
203,-433,0,0,0,0,0,0,0,0,0,-1,1427,1457,0,0
210,-433,0,0,0,0,0,0,0,0,0,-1,1434,1457,0,0
217,-433,0,0,0,0,0,0,0,0,0,-1,1441,1457,0,0
224,-433,0,0,0,0,0,0,0,0,0,-1,1448,1457,0,0
231,-433,0,0,0,0,0,0,0,0,0,-1,1455,1457,0,0
238,-433,0,0,0,0,0,0,0,0,0,-1,1462,1457,0,0
245,-433,0,0,0,0,0,0,0,0,0,-1,1469,1457,0,0
252,-433,0,0,0,0,0,0,0,0,0,-1,1476,1457,0,0
259,-433,0,0,0,0,0,0,0,0,0,-1,1483,1457,0,0
266,-433,0,0,0,0,0,0,0,0,0,-1,1490,1457,0,0
273,-433,0,0,0,0,0,0,0,0,0,-1,1497,1457,0,0
280,-433,0,0,0,0,0,0,0,0,0,-1,1504,1457,0,0
287,-433,0,0,0,0,0,0,0,0,0,-1,1511,1457,0,0
294,-433,0,0,0,0,0,0,0,0,0,-1,1518,1457,0,0
301,-433,0,0,0,0,0,0,0,0,0,-1,1525,1457,0,0
308,-433,0,0,0,0,0,0,0,0,0,-1,1532,1457,0,0
315,-433,0,0,0,0,0,0,0,0,0,-1,1539,1457,0,0
322,-433,0,0,0,0,0,0,0,0,0,-1,1546,1457,0,0
329,-433,0,0,0,0,0,0,0,0,0,-1,1553,1457,0,0
336,-433,0,0,0,0,0,0,0,0,0,-1,1560,1457,0,0
343,-433,0,0,0,0,0,0,0,0,0,-1,1567,1457,0,0
350,-433,0,0,0,0,0,0,0,0,0,-1,1574,1457,0,0
357,-433,0,0,0,0,0,0,0,0,0,-1,1581,1457,0,0
364,-433,0,0,0,0,0,0,0,0,0,-1,1588,1457,0,0
371,-433,0,0,0,0,0,0,0,0,0,-1,1595,1457,0,0
378,-433,0,0,0,0,0,0,0,0,0,-1,1602,1457,0,0
385,-433,0,0,0,0,0,0,0,0,0,-1,1609,1457,0,0
392,-433,0,0,0,0,0,0,0,0,0,-1,1616,1457,0,0
399,-433,0,0,0,0,0,0,0,0,0,-1,1623,1457,0,0
406,-433,0,0,0,0,0,0,0,0,0,-1,1630,1457,0,0
413,-433,0,0,0,0,0,0,0,0,0,-1,1637,1457,0,0
420,-433,0,0,0,0,0,0,0,0,0,-1,1644,1457,0,0
427,-433,0,0,0,0,0,0,0,0,0,-1,1651,1457,0,0
434,-433,0,0,0,0,0,0,0,0,0,-1,1658,1457,0,0
441,-433,0,0,0,0,0,0,0,0,0,-1,1665,1457,0,0
448,-433,0,0,0,0,0,0,0,0,0,-1,1672,1457,0,0
455,-433,0,0,0,0,0,0,0,0,0,-1,1679,1457,0,0
462,-433,0,0,0,0,0,0,0,0,0,-1,1686,1457,0,0
469,-433,0,0,0,0,0,0,0,0,0,-1,1693,1457,0,0
476,-433,0,0,0,0,0,0,0,0,0,-1,1700,1457,0,0
483,-433,0,0,0,0,0,0,0,0,0,-1,1707,1457,0,0
490,-433,0,0,0,0,0,0,0,0,0,-1,1714,1457,0,0
497,-433,0,0,0,0,0,0,0,0,0,-1,1721,1457,0,0
504,-433,-0.657471,-0.0446777,0.0399256,0.00416633,-0.0310743,0.057897,-0.013805,-0.524337,0.0439288,0.0422579,1728,1457,-0.657519,0.0446744
511,-433,-0.277832,-0.296997,0.0248466,0.00405618,-0.020339,0.0372929,-0.00839012,-0.549155,0.0280796,0.0439584,1735,1457,-0.277789,0.297036
518,-433,0.191772,-0.482544,0.0126153,0.00548745,-0.0114997,0.0210906,-0.00298794,-0.635135,0.0151549,0.0464339,1742,1457,0.191781,0.482515
525,-433,0.668091,-0.681152,0,0,0,0,0,0,0,-1,1749,1457,0.668083,0.681107
532,-433,0.707397,-0.804077,-0.00331199,0.00817671,0.000876288,0.00824316,-0.00337844,1.49511,0.0069029,0.0489592,1756,1457,0.707372,0.804078
539,-433,0.495972,-0.599854,-0.00762359,0.00925917,0.00444001,0.0103556,-0.00872006,1.32869,0.0110268,0.0436051,1763,1457,0.495945,0.59982
546,-433,0.421509,-0.155151,-0.00981824,0.0100119,0.00662912,0.0120239,-0.0118302,1.27613,0.0137723,0.0448053,1770,1457,0.421465,0.155173
553,-433,-0.0474854,0.163696,-0.0115537,0.0103061,0.00834923,0.0131302,-0.0143778,1.24463,0.0158872,0.0410146,1777,1457,-0.0475441,-0.163651
560,-433,-0.107422,0.15564,-0.012253,0.0103085,0.00917941,0.0135714,-0.0155158,1.22927,0.016806,0.0418918,1784,1457,-0.107472,-0.155694
567,-433,-0.277954,0.137695,-0.0114428,0.00981086,0.00882583,0.012998,-0.0146299,1.22426,0.0159602,0.0471126,1791,1457,-0.277942,-0.137705
574,-433,-0.0509033,-0.262207,-0.00947554,0.00887956,0.00749737,0.0115527,-0.0121486,1.22831,0.0136854,0.0475985,1798,1457,-0.050864,0.262268
581,-433,0.0192871,0.0515137,-0.00718923,0.00745531,0.00593404,0.00955793,-0.00929185,1.23027,0.0108833,0.0396046,1805,1457,0.0192994,-0.0515701
588,-433,-0.0299072,0.0516357,-0.00485924,0.00573436,0.00417839,0.00718404,-0.00630893,1.23684,0.00779563,0.0274127,1812,1457,-0.0299106,-0.0516782
595,-433,-0.0183105,0.05896,-0.0030425,0.0045564,0.00281549,0.00548588,-0.00397198,1.25193,0.00548377,0.0201804,1819,1457,-0.0183405,-0.0589318
602,-433,-0.0202637,0.0666504,-0.00181272,0.00342457,0.00180993,0.00398919,-0.00237733,1.26841,0.00371477,0.0182533,1826,1457,-0.0202054,-0.0666818
609,-433,-0.0231934,0.0568848,-0.000865046,0.00265795,0.00129522,0.00308288,-0.00128998,1.25378,0.00259445,0.01316,1833,1457,-0.0231548,-0.0568628
616,-433,-0.0185547,0.03125,-0.000442721,0.0024286,0.000504078,0.00251452,-0.000528644,1.40196,0.00187753,0.0111397,1840,1457,-0.0185978,-0.0312982
623,-433,-0.034668,0.0217285,-7.83752e-05,0.00214481,-0.000112856,0.00215052,-8.40895e-05,-1.52021,0.00146252,0.00971726,1847,1457,-0.0347103,-0.0217189
630,-433,-0.0462646,0.0366211,4.50738e-05,0.00261837,-0.00053493,0.00272514,-6.16959e-05,-1.37379,0.00183767,0.0126007,1854,1457,-0.0462286,-0.0366124
637,-433,-0.0438232,0.0253906,0.000285131,0.00326337,-0.00100599,0.00357133,-2.28279e-05,-1.27373,0.00238853,0.0134352,1861,1457,-0.0438173,-0.0253495
644,-433,-0.0441895,0.0373535,0.000623799,0.0043896,-0.00143508,0.00487414,0.000139258,-1.24518,0.00320402,0.0141955,1868,1457,-0.0441835,-0.037367
651,-433,-0.0482178,0.0574951,0.000808801,0.00561048,-0.00182979,0.00622828,0.000191002,-1.24518,0.00409001,0.0112509,1875,1457,-0.0482577,-0.0575288
658,-433,-0.036499,0.0185547,0.00116383,0.00705122,-0.00233232,0.0078632,0.000351852,-1.23578,0.00512887,0.0116163,1882,1457,-0.0365559,-0.0185561
665,-433,-0.048584,0.0045166,0.00145889,0.00856602,-0.00263483,0.00943627,0.000588641,-1.25179,0.0061041,0.0158582,1889,1457,-0.0485263,-0.00450149
672,-433,-0.0384521,-0.0306396,0.00163449,0.0102294,-0.00285729,0.0110926,0.000771304,-1.27741,0.00715183,0.0319658,1896,1457,-0.0384533,0.0306914
679,-433,-0.0839844,0.0124512,0.00179454,0.0119245,-0.00306504,0.0127797,0.000939347,-1.2987,0.00822457,0.0391601,1903,1457,-0.0839681,-0.0124396
686,-433,-0.174438,-0.0297852,0.00194202,0.0135902,-0.00321085,0.0144166,0.00111557,-1.31887,0.00926165,0.0430662,1910,1457,-0.174423,0.0297291
693,-433,-0.0655518,-0.258667,0.00206473,0.0152485,-0.00327934,0.0160192,0.00129408,-1.33998,0.0102753,0.0430909,1917,1457,-0.065534,0.258702
700,-433,0.0650635,-0.246704,0.00215897,0.0169097,-0.0033148,0.0176203,0.0014483,-1.3596,0.0112951,0.0426594,1924,1457,0.0650108,0.246754
707,-433,0.374512,-0.422729,0.00227141,0.0185348,-0.00336851,0.0192049,0.00160133,-1.37443,0.0123043,0.043216,1931,1457,0.374523,0.42276
714,-433,0,0,0,0,0,0,0,0,0,-1,1938,1457,0,0
721,-433,0,0,0,0,0,0,0,0,0,-1,1945,1457,0,0
728,-433,0,0,0,0,0,0,0,0,0,-1,1952,1457,0,0
735,-433,0,0,0,0,0,0,0,0,0,-1,1959,1457,0,0
742,-433,0,0,0,0,0,0,0,0,0,-1,1966,1457,0,0
749,-433,0,0,0,0,0,0,0,0,0,-1,1973,1457,0,0
756,-433,0,0,0,0,0,0,0,0,0,-1,1980,1457,0,0
763,-433,0,0,0,0,0,0,0,0,0,-1,1987,1457,0,0
770,-433,0,0,0,0,0,0,0,0,0,-1,1994,1457,0,0
777,-433,0,0,0,0,0,0,0,0,0,-1,2001,1457,0,0
784,-433,0,0,0,0,0,0,0,0,0,-1,2008,1457,0,0
791,-433,0,0,0,0,0,0,0,0,0,-1,2015,1457,0,0
798,-433,0,0,0,0,0,0,0,0,0,-1,2022,1457,0,0
805,-433,0,0,0,0,0,0,0,0,0,-1,2029,1457,0,0
812,-433,0,0,0,0,0,0,0,0,0,-1,2036,1457,0,0
-700,-440,0,0,0,0,0,0,0,0,0,-1,524,1464,0,0
-693,-440,0,0,0,0,0,0,0,0,0,-1,531,1464,0,0
-686,-440,0,0,0,0,0,0,0,0,0,-1,538,1464,0,0
-679,-440,0,0,0,0,0,0,0,0,0,-1,545,1464,0,0
-672,-440,0,0,0,0,0,0,0,0,0,-1,552,1464,0,0
-665,-440,0,0,0,0,0,0,0,0,0,-1,559,1464,0,0
-658,-440,0,0,0,0,0,0,0,0,0,-1,566,1464,0,0
-651,-440,0,0,0,0,0,0,0,0,0,-1,573,1464,0,0
-644,-440,0,0,0,0,0,0,0,0,0,-1,580,1464,0,0
-637,-440,0,0,0,0,0,0,0,0,0,-1,587,1464,0,0
-630,-440,0,0,0,0,0,0,0,0,0,-1,594,1464,0,0
-623,-440,0,0,0,0,0,0,0,0,0,-1,601,1464,0,0
-616,-440,0,0,0,0,0,0,0,0,0,-1,608,1464,0,0
-609,-440,0,0,0,0,0,0,0,0,0,-1,615,1464,0,0
-602,-440,0,0,0,0,0,0,0,0,0,-1,622,1464,0,0
-595,-440,0,0,0,0,0,0,0,0,0,-1,629,1464,0,0
-588,-440,0,0,0,0,0,0,0,0,0,-1,636,1464,0,0
-581,-440,1.07593,-0.504395,0.0081695,0.00192871,0.0199422,0.025234,-0.0151358,0.707792,0.0235493,0.0443118,643,1464,1.07592,0.504382
-574,-440,0.731812,-0.457397,-0.00325418,-4.81598e-05,0.0169291,0.0153536,-0.018656,0.832602,0.0196663,0.0420217,650,1464,0.731817,0.457359
-567,-440,0.892212,-0.069458,-0.00868947,-0.00287426,0.0134236,0.00795301,-0.0195167,0.892053,0.0163214,0.0420468,657,1464,0.892202,0.0695126
-560,-440,0.237793,0.352539,-0.0101031,-0.00593363,0.00982156,0.002022,-0.0180588,0.889977,0.0127667,0.0470857,664,1464,0.237764,-0.352487
-553,-440,-0.128784,0.357056,0,0,0,0,0,0,0,-1,671,1464,-0.128757,-0.357007
-546,-440,0.666077,-0.62085,-0.00884486,-0.0103687,0.00423487,-0.00530389,-0.0139096,0.696395,0.00810579,0.0422975,678,1464,0.666049,0.620813
-539,-440,0.2453,-0.327271,-0.00648013,-0.01063,0.000624581,-0.00638816,-0.010722,0.146193,0.00622809,0.0430373,685,1464,0.245293,0.32722
-532,-440,0.0645142,-0.0666504,-0.00195162,-0.0108442,-0.00127972,-0.00177112,-0.0110247,-0.140121,0.00683636,0.0315344,692,1464,0.0644992,0.0666348
-525,-440,-0.0232544,0.0372314,0.00110589,-0.0103583,-0.00253792,0.00164261,-0.010895,-0.208407,0.00786824,0.012646,699,1464,-0.0232634,-0.0372486
-518,-440,-0.0174561,0.0358887,0.00267563,-0.00918994,-0.00336519,0.00356358,-0.0100779,-0.257984,0.00816977,0.010545,706,1464,-0.0174499,-0.0358475
-511,-440,-0.0112915,0.0300293,0.00411234,-0.0084125,-0.0038134,0.00518203,-0.00948219,-0.273481,0.00858688,0.0132363,713,1464,-0.0112874,-0.0300414
-504,-440,-0.0341187,0.0308838,0.00509286,-0.00713799,-0.00366522,0.00610711,-0.00815224,-0.269967,0.00826082,0.0159622,720,1464,-0.0341222,-0.0308595
-497,-440,-0.0407104,0.017334,0.00471622,-0.00557008,-0.00275678,0.00540847,-0.00626232,-0.246019,0.00674414,0.0186723,727,1464,-0.0407085,-0.0173722
-490,-440,-0.0135498,-0.032959,0.00439368,-0.00317601,-0.00228992,0.0050325,-0.00381482,-0.272053,0.00512411,0.019592,734,1464,-0.0135303,0.0329521
-483,-440,0.00140381,-0.000854492,0.00386078,-0.00118698,-0.00160843,0.00432973,-0.00165593,-0.283693,0.0035689,0.0180717,741,1464,0.00140564,0.000878343
-476,-440,-0.022644,0.0078125,0.00246511,6.12603e-05,-0.000451082,0.00254697,-2.05976e-05,-0.179517,0.00170489,0.0130782,748,1464,-0.0226332,-0.00776688
-469,-440,-0.0395508,0.0098877,0.00148666,0.00097049,-6.41981e-06,0.00148674,0.00097041,-0.0124348,0.000871614,0.0116157,755,1464,-0.0395577,-0.00994075
-462,-440,-0.0435181,0.0336914,0.00106169,0.00148511,-0.000133561,0.00152372,0.00102308,-1.28939,0.000896793,0.0116037,762,1464,-0.0435035,-0.0337371
-455,-440,-0.0289307,0.055542,9.07804e-05,0.0021393,8.63037e-05,0.00214293,8.7151e-05,1.52877,0.00140047,0.011672,769,1464,-0.0289572,-0.0555549
-448,-440,-0.0373535,0.0755615,-0.000409588,0.00284651,-5.40383e-05,0.00284741,-0.000410484,-1.55421,0.00204885,0.0199684,776,1464,-0.0373487,-0.0755669
-441,-440,-0.0657349,0.197266,-0.000966076,0.00375776,-0.00040557,0.00379233,-0.00100064,-1.48577,0.0029195,0.0338958,783,1464,-0.0657046,-0.197275
-434,-440,-0.117615,0.841064,0,0,0,0,0,0,0,-1,790,1464,-0.11761,-0.841101
-427,-440,-0.780701,1.35315,-0.00185504,0.00526406,-0.000796704,0.00535213,-0.00194311,-1.4607,0.00436251,0.0401575,797,1464,-0.780677,-1.35314
-420,-440,-1.31635,1.63782,-0.0019244,0.00584045,-0.000951498,0.00595535,-0.00203929,-1.45063,0.00479674,0.0403616,804,1464,-1.31636,-1.63779
-413,-440,-0.508972,-0.432739,-0.00172445,0.00660612,-0.000724428,0.00666865,-0.00178698,-1.4847,0.00514591,0.0437677,811,1464,-0.508972,0.432789
-406,-440,-0.410095,-0.0599365,0,0,0,0,0,0,0,-1,818,1464,-0.410081,0.059888
-399,-440,0.278015,-0.240112,0.000717294,0.00954111,-0.000271525,0.00954946,0.000708947,-1.54006,0.00614364,0.0464768,825,1464,0.277998,0.240075
-392,-440,0.583496,-0.320068,0.00393799,0.0101349,-0.000473205,0.0101708,0.00390206,-1.49502,0.00592487,0.0479782,832,1464,0.583517,0.3201
-385,-440,0.532959,-0.136475,0.00701132,0.012035,-0.00084902,0.0121747,0.00687171,-1.40782,0.00704846,0.0466369,839,1464,0.532943,0.136415
-378,-440,0.647827,-0.0168457,0,0,0,0,0,0,0,-1,846,1464,0.64781,0.0168742
-371,-440,0,0,0,0,0,0,0,0,0,-1,853,1464,0,0
-364,-440,0,0,0,0,0,0,0,0,0,-1,860,1464,0,0
-357,-440,0,0,0,0,0,0,0,0,0,-1,867,1464,0,0
-350,-440,0,0,0,0,0,0,0,0,0,-1,874,1464,0,0
-343,-440,0,0,0,0,0,0,0,0,0,-1,881,1464,0,0
-336,-440,0,0,0,0,0,0,0,0,0,-1,888,1464,0,0
-329,-440,0,0,0,0,0,0,0,0,0,-1,895,1464,0,0
-322,-440,0,0,0,0,0,0,0,0,0,-1,902,1464,0,0
-315,-440,0,0,0,0,0,0,0,0,0,-1,909,1464,0,0
-308,-440,0,0,0,0,0,0,0,0,0,-1,916,1464,0,0
-301,-440,0,0,0,0,0,0,0,0,0,-1,923,1464,0,0
-294,-440,0,0,0,0,0,0,0,0,0,-1,930,1464,0,0
-287,-440,0,0,0,0,0,0,0,0,0,-1,937,1464,0,0
-280,-440,0,0,0,0,0,0,0,0,0,-1,944,1464,0,0
-273,-440,0,0,0,0,0,0,0,0,0,-1,951,1464,0,0
-266,-440,0,0,0,0,0,0,0,0,0,-1,958,1464,0,0
-259,-440,0,0,0,0,0,0,0,0,0,-1,965,1464,0,0
-252,-440,0,0,0,0,0,0,0,0,0,-1,972,1464,0,0
-245,-440,0,0,0,0,0,0,0,0,0,-1,979,1464,0,0
-238,-440,0,0,0,0,0,0,0,0,0,-1,986,1464,0,0
-231,-440,0,0,0,0,0,0,0,0,0,-1,993,1464,0,0
-224,-440,0,0,0,0,0,0,0,0,0,-1,1000,1464,0,0
-217,-440,0,0,0,0,0,0,0,0,0,-1,1007,1464,0,0
-210,-440,0,0,0,0,0,0,0,0,0,-1,1014,1464,0,0
-203,-440,0,0,0,0,0,0,0,0,0,-1,1021,1464,0,0
-196,-440,0,0,0,0,0,0,0,0,0,-1,1028,1464,0,0
-189,-440,0,0,0,0,0,0,0,0,0,-1,1035,1464,0,0
-182,-440,0,0,0,0,0,0,0,0,0,-1,1042,1464,0,0
-175,-440,0,0,0,0,0,0,0,0,0,-1,1049,1464,0,0
-168,-440,0,0,0,0,0,0,0,0,0,-1,1056,1464,0,0
-161,-440,0,0,0,0,0,0,0,0,0,-1,1063,1464,0,0
-154,-440,0,0,0,0,0,0,0,0,0,-1,1070,1464,0,0
-147,-440,0,0,0,0,0,0,0,0,0,-1,1077,1464,0,0
-140,-440,0,0,0,0,0,0,0,0,0,-1,1084,1464,0,0
-133,-440,0,0,0,0,0,0,0,0,0,-1,1091,1464,0,0
-126,-440,0,0,0,0,0,0,0,0,0,-1,1098,1464,0,0
-119,-440,0,0,0,0,0,0,0,0,0,-1,1105,1464,0,0
-112,-440,0,0,0,0,0,0,0,0,0,-1,1112,1464,0,0
-105,-440,0,0,0,0,0,0,0,0,0,-1,1119,1464,0,0
-98,-440,0,0,0,0,0,0,0,0,0,-1,1126,1464,0,0
-91,-440,0,0,0,0,0,0,0,0,0,-1,1133,1464,0,0
-84,-440,0,0,0,0,0,0,0,0,0,-1,1140,1464,0,0
-77,-440,0,0,0,0,0,0,0,0,0,-1,1147,1464,0,0
-70,-440,0,0,0,0,0,0,0,0,0,-1,1154,1464,0,0
-63,-440,0,0,0,0,0,0,0,0,0,-1,1161,1464,0,0
-56,-440,0,0,0,0,0,0,0,0,0,-1,1168,1464,0,0
-49,-440,0,0,0,0,0,0,0,0,0,-1,1175,1464,0,0
-42,-440,0,0,0,0,0,0,0,0,0,-1,1182,1464,0,0
-35,-440,0,0,0,0,0,0,0,0,0,-1,1189,1464,0,0
-28,-440,0,0,0,0,0,0,0,0,0,-1,1196,1464,0,0
-21,-440,0,0,0,0,0,0,0,0,0,-1,1203,1464,0,0
-14,-440,0,0,0,0,0,0,0,0,0,-1,1210,1464,0,0
-7,-440,0,0,0,0,0,0,0,0,0,-1,1217,1464,0,0
0,-440,0,0,0,0,0,0,0,0,0,-1,1224,1464,0,0
7,-440,0,0,0,0,0,0,0,0,0,-1,1231,1464,0,0
14,-440,0,0,0,0,0,0,0,0,0,-1,1238,1464,0,0
21,-440,0,0,0,0,0,0,0,0,0,-1,1245,1464,0,0
28,-440,0,0,0,0,0,0,0,0,0,-1,1252,1464,0,0
35,-440,0,0,0,0,0,0,0,0,0,-1,1259,1464,0,0
42,-440,0,0,0,0,0,0,0,0,0,-1,1266,1464,0,0
49,-440,0,0,0,0,0,0,0,0,0,-1,1273,1464,0,0
56,-440,0,0,0,0,0,0,0,0,0,-1,1280,1464,0,0
63,-440,0,0,0,0,0,0,0,0,0,-1,1287,1464,0,0
70,-440,0,0,0,0,0,0,0,0,0,-1,1294,1464,0,0
77,-440,0,0,0,0,0,0,0,0,0,-1,1301,1464,0,0
84,-440,0,0,0,0,0,0,0,0,0,-1,1308,1464,0,0
91,-440,0,0,0,0,0,0,0,0,0,-1,1315,1464,0,0
98,-440,0,0,0,0,0,0,0,0,0,-1,1322,1464,0,0
105,-440,0,0,0,0,0,0,0,0,0,-1,1329,1464,0,0
112,-440,0,0,0,0,0,0,0,0,0,-1,1336,1464,0,0
119,-440,0,0,0,0,0,0,0,0,0,-1,1343,1464,0,0
126,-440,0,0,0,0,0,0,0,0,0,-1,1350,1464,0,0
133,-440,0,0,0,0,0,0,0,0,0,-1,1357,1464,0,0
140,-440,0,0,0,0,0,0,0,0,0,-1,1364,1464,0,0
147,-440,0,0,0,0,0,0,0,0,0,-1,1371,1464,0,0
154,-440,0,0,0,0,0,0,0,0,0,-1,1378,1464,0,0
161,-440,0,0,0,0,0,0,0,0,0,-1,1385,1464,0,0
168,-440,0,0,0,0,0,0,0,0,0,-1,1392,1464,0,0
175,-440,0,0,0,0,0,0,0,0,0,-1,1399,1464,0,0
182,-440,0,0,0,0,0,0,0,0,0,-1,1406,1464,0,0
189,-440,0,0,0,0,0,0,0,0,0,-1,1413,1464,0,0
196,-440,0,0,0,0,0,0,0,0,0,-1,1420,1464,0,0
203,-440,0,0,0,0,0,0,0,0,0,-1,1427,1464,0,0
210,-440,0,0,0,0,0,0,0,0,0,-1,1434,1464,0,0
217,-440,0,0,0,0,0,0,0,0,0,-1,1441,1464,0,0
224,-440,0,0,0,0,0,0,0,0,0,-1,1448,1464,0,0
231,-440,0,0,0,0,0,0,0,0,0,-1,1455,1464,0,0
238,-440,0,0,0,0,0,0,0,0,0,-1,1462,1464,0,0
245,-440,0,0,0,0,0,0,0,0,0,-1,1469,1464,0,0
252,-440,0,0,0,0,0,0,0,0,0,-1,1476,1464,0,0
259,-440,0,0,0,0,0,0,0,0,0,-1,1483,1464,0,0
266,-440,0,0,0,0,0,0,0,0,0,-1,1490,1464,0,0
273,-440,0,0,0,0,0,0,0,0,0,-1,1497,1464,0,0
280,-440,0,0,0,0,0,0,0,0,0,-1,1504,1464,0,0
287,-440,0,0,0,0,0,0,0,0,0,-1,1511,1464,0,0
294,-440,0,0,0,0,0,0,0,0,0,-1,1518,1464,0,0
301,-440,0,0,0,0,0,0,0,0,0,-1,1525,1464,0,0
308,-440,0,0,0,0,0,0,0,0,0,-1,1532,1464,0,0
315,-440,0,0,0,0,0,0,0,0,0,-1,1539,1464,0,0
322,-440,0,0,0,0,0,0,0,0,0,-1,1546,1464,0,0
329,-440,0,0,0,0,0,0,0,0,0,-1,1553,1464,0,0
336,-440,0,0,0,0,0,0,0,0,0,-1,1560,1464,0,0
343,-440,0,0,0,0,0,0,0,0,0,-1,1567,1464,0,0
350,-440,0,0,0,0,0,0,0,0,0,-1,1574,1464,0,0
357,-440,0,0,0,0,0,0,0,0,0,-1,1581,1464,0,0
364,-440,0,0,0,0,0,0,0,0,0,-1,1588,1464,0,0
371,-440,0,0,0,0,0,0,0,0,0,-1,1595,1464,0,0
378,-440,0,0,0,0,0,0,0,0,0,-1,1602,1464,0,0
385,-440,0,0,0,0,0,0,0,0,0,-1,1609,1464,0,0
392,-440,0,0,0,0,0,0,0,0,0,-1,1616,1464,0,0
399,-440,0,0,0,0,0,0,0,0,0,-1,1623,1464,0,0
406,-440,0,0,0,0,0,0,0,0,0,-1,1630,1464,0,0
413,-440,0,0,0,0,0,0,0,0,0,-1,1637,1464,0,0
420,-440,0,0,0,0,0,0,0,0,0,-1,1644,1464,0,0
427,-440,0,0,0,0,0,0,0,0,0,-1,1651,1464,0,0
434,-440,0,0,0,0,0,0,0,0,0,-1,1658,1464,0,0
441,-440,0,0,0,0,0,0,0,0,0,-1,1665,1464,0,0
448,-440,0,0,0,0,0,0,0,0,0,-1,1672,1464,0,0
455,-440,0,0,0,0,0,0,0,0,0,-1,1679,1464,0,0
462,-440,0,0,0,0,0,0,0,0,0,-1,1686,1464,0,0
469,-440,0,0,0,0,0,0,0,0,0,-1,1693,1464,0,0
476,-440,0,0,0,0,0,0,0,0,0,-1,1700,1464,0,0
483,-440,0,0,0,0,0,0,0,0,0,-1,1707,1464,0,0
490,-440,0,0,0,0,0,0,0,0,0,-1,1714,1464,0,0
497,-440,-0.692383,0.467163,0.0461218,0.00983302,-0.0346174,0.0670617,-0.0111069,-0.544011,0.048833,0.0388356,1721,1464,-0.692389,-0.46711
504,-440,-0.277222,0.155273,0.0340539,0.00656496,-0.0271928,0.0507784,-0.0101595,-0.5514,0.0376979,0.0415138,1728,1464,-0.277188,-0.155291
511,-440,0.194336,-0.0994873,0.0223925,0.00505958,-0.0191834,0.0347762,-0.00732417,-0.573237,0.0259721,0.0442607,1735,1464,0.194286,0.0994282
518,-440,0.700317,-0.312134,0.0124261,0.00550716,-0.0122327,0.0216791,-0.00374581,-0.647594,0.0158496,0.0468843,1742,1464,0.700354,0.31216
525,-440,1.18848,-0.587646,0,0,0,0,0,0,0,-1,1749,1464,1.18842,0.587641
532,-440,0.199829,-0.573975,0,0,0,0,0,0,0,-1,1756,1464,0.199873,0.573926
539,-440,0.39917,0.0727539,0,0,0,0,0,0,0,-1,1763,1464,0.399208,-0.0727235
546,-440,0.275635,0.0537109,-0.00731345,0.0078455,0.00373487,0.00871574,-0.00818369,1.34188,0.0097585,0.0451792,1770,1464,0.275631,-0.053757
553,-440,0.182251,0.0710449,-0.00910094,0.00807875,0.00560731,0.00974695,-0.0107691,1.28163,0.0118499,0.0413296,1777,1464,0.182246,-0.0709903
560,-440,-0.0461426,0.118408,-0.00989124,0.00807714,0.00655424,0.0102138,-0.0120279,1.25566,0.0128555,0.041421,1784,1464,-0.0461027,-0.118431
567,-440,-0.329834,0.0343018,-0.00931247,0.00770372,0.0063969,0.00984024,-0.011449,1.24845,0.012303,0.0457806,1791,1464,-0.329842,-0.0343327
574,-440,-0.150391,0.0837402,-0.00774653,0.00696667,0.0053749,0.00872101,-0.00950086,1.2553,0.0105236,0.0441338,1798,1464,-0.150352,-0.0837896
581,-440,-0.0163574,0.0788574,-0.00590776,0.00581634,0.0042089,0.00717083,-0.00726225,1.25945,0.008333,0.029368,1805,1464,-0.0163189,-0.0788958
588,-440,-0.0390625,0.0498047,-0.00400028,0.00447504,0.00279643,0.00531456,-0.0048398,1.27914,0.00586476,0.0196658,1812,1464,-0.0390954,-0.0498071
595,-440,-0.0266113,0.0523682,-0.00246922,0.00353989,0.001754,0.00401439,-0.00294373,1.30659,0.0040331,0.0171879,1819,1464,-0.0265721,-0.0523189
602,-440,-0.00976563,0.0723877,-0.0014352,0.00277385,0.00100167,0.00300006,-0.00166142,1.34868,0.00272805,0.0166386,1826,1464,-0.00980555,-0.072351
609,-440,-0.0356445,0.0665283,-0.000622138,0.00230531,0.000597959,0.00242274,-0.000739566,1.37688,0.00191002,0.0139438,1833,1464,-0.0356764,-0.066551
616,-440,-0.0314941,0.0480957,-0.000221113,0.00253829,-0.000138326,0.00254521,-0.00022803,-1.52083,0.0017777,0.0148584,1840,1464,-0.0315478,-0.0481347
623,-440,-0.0367432,0.0280762,0.00016719,0.00272133,-0.000697352,0.00289932,-1.08026e-05,-1.32089,0.00193649,0.0126473,1847,1464,-0.0367986,-0.0280596
630,-440,-0.0599365,0.0201416,0.00033341,0.00363977,-0.00109363,0.00396876,4.41377e-06,-1.27858,0.00264437,0.0105428,1854,1464,-0.0599494,-0.0201389
637,-440,-0.0552979,0.0314941,0.000621382,0.00472162,-0.00153277,0.00523127,0.000111741,-1.2498,0.00345087,0.0143522,1861,1464,-0.0553557,-0.0314335
644,-440,-0.0386963,0.0410156,0.00104899,0.00627602,-0.00200589,0.00695706,0.000367959,-1.24349,0.00452038,0.0138768,1868,1464,-0.0386873,-0.0410299
651,-440,-0.03125,0.0490723,0.00136786,0.00798706,-0.00244599,0.00879283,0.000562081,-1.25257,0.0056838,0.0106747,1875,1464,-0.0312337,-0.0490185
658,-440,-0.03125,0.0238037,0.00186387,0.00995045,-0.00296819,0.010923,0.000891347,-1.25417,0.00700379,0.0126375,1882,1464,-0.0311923,-0.0238621
665,-440,-0.043335,-0.0318604,0.0023097,0.0120169,-0.00324328,0.0130008,0.00132581,-1.27626,0.00826081,0.0257318,1889,1464,-0.0433419,0.0318356
672,-440,0.0206299,-0.0910645,0.002676,0.0141659,-0.00339615,0.0150947,0.00174725,-1.30385,0.00953422,0.0385271,1896,1464,0.0206776,0.0911117
679,-440,-0.039917,0.000854492,0.00300374,0.0162954,-0.00343588,0.017131,0.0021681,-1.33222,0.0107709,0.0416831,1903,1464,-0.0398933,-0.000890986
686,-440,-0.123291,-0.0356445,0.00331469,0.0182676,-0.00332878,0.0189752,0.00260712,-1.36135,0.0118768,0.0415668,1910,1464,-0.123346,0.0356559
693,-440,-0.173462,-0.323975,0.00361065,0.0200511,-0.00307994,0.0206092,0.00305261,-1.39155,0.0128434,0.0473765,1917,1464,-0.173498,0.323918
700,-440,-0.0550537,-0.499268,0,0,0,0,0,0,0,-1,1924,1464,-0.0550782,0.499261
707,-440,0,0,0,0,0,0,0,0,0,-1,1931,1464,0,0
714,-440,0,0,0,0,0,0,0,0,0,-1,1938,1464,0,0
721,-440,0,0,0,0,0,0,0,0,0,-1,1945,1464,0,0
728,-440,0,0,0,0,0,0,0,0,0,-1,1952,1464,0,0
735,-440,0,0,0,0,0,0,0,0,0,-1,1959,1464,0,0
742,-440,0,0,0,0,0,0,0,0,0,-1,1966,1464,0,0
749,-440,0,0,0,0,0,0,0,0,0,-1,1973,1464,0,0
756,-440,0,0,0,0,0,0,0,0,0,-1,1980,1464,0,0
763,-440,0,0,0,0,0,0,0,0,0,-1,1987,1464,0,0
770,-440,0,0,0,0,0,0,0,0,0,-1,1994,1464,0,0
777,-440,0,0,0,0,0,0,0,0,0,-1,2001,1464,0,0
784,-440,0,0,0,0,0,0,0,0,0,-1,2008,1464,0,0
791,-440,0,0,0,0,0,0,0,0,0,-1,2015,1464,0,0
798,-440,0,0,0,0,0,0,0,0,0,-1,2022,1464,0,0
805,-440,0,0,0,0,0,0,0,0,0,-1,2029,1464,0,0
812,-440,0,0,0,0,0,0,0,0,0,-1,2036,1464,0,0
-700,-447,0,0,0,0,0,0,0,0,0,-1,524,1471,0,0
-693,-447,0,0,0,0,0,0,0,0,0,-1,531,1471,0,0
-686,-447,0,0,0,0,0,0,0,0,0,-1,538,1471,0,0
-679,-447,0,0,0,0,0,0,0,0,0,-1,545,1471,0,0
-672,-447,0,0,0,0,0,0,0,0,0,-1,552,1471,0,0
-665,-447,0,0,0,0,0,0,0,0,0,-1,559,1471,0,0
-658,-447,0,0,0,0,0,0,0,0,0,-1,566,1471,0,0
-651,-447,0,0,0,0,0,0,0,0,0,-1,573,1471,0,0
-644,-447,0,0,0,0,0,0,0,0,0,-1,580,1471,0,0
-637,-447,0,0,0,0,0,0,0,0,0,-1,587,1471,0,0
-630,-447,0,0,0,0,0,0,0,0,0,-1,594,1471,0,0
-623,-447,0,0,0,0,0,0,0,0,0,-1,601,1471,0,0
-616,-447,0,0,0,0,0,0,0,0,0,-1,608,1471,0,0
-609,-447,0,0,0,0,0,0,0,0,0,-1,615,1471,0,0
-602,-447,0,0,0,0,0,0,0,0,0,-1,622,1471,0,0
-595,-447,0,0,0,0,0,0,0,0,0,-1,629,1471,0,0
-588,-447,0,0,0,0,0,0,0,0,0,-1,636,1471,0,0
-581,-447,1.1098,-0.630737,0,0,0,0,0,0,0,-1,643,1471,1.10979,0.630747
-574,-447,0.785767,-0.650635,0,0,0,0,0,0,0,-1,650,1471,0.785794,0.650604
-567,-447,1.06909,-0.448975,-0.013806,0.00479955,0.0150353,0.0131773,-0.0221838,1.06244,0.0206353,0.0422156,657,1471,1.0691,0.448959
-560,-447,0.232605,0.454346,-0.013358,3.75005e-05,0.0103164,0.00563968,-0.0189602,1.07332,0.0148806,0.045067,664,1471,0.232577,-0.454389
-553,-447,-0.115051,0.490479,0,0,0,0,0,0,0,-1,671,1471,-0.115028,-0.490461
-546,-447,-0.467041,1.54297,-0.00894303,-0.00716845,0.00309349,-0.00483751,-0.011274,0.925061,0.00653081,0.0442402,678,1471,-0.467066,-1.54295
-539,-447,-0.362915,0.620483,-0.00558814,-0.00840453,-0.000854902,-0.00534895,-0.00864372,-0.272808,0.00503721,0.046401,685,1471,-0.362936,-0.620496
-532,-447,0.169739,0.230713,0,0,0,0,0,0,0,-1,692,1471,0.169721,-0.230722
-525,-447,0.00518799,0.0526123,0.00246541,-0.00929493,-0.00423397,0.00383113,-0.0106607,-0.312025,0.00867101,0.0228579,699,1471,0.0051818,-0.0526686
-518,-447,-0.00689697,0.0305176,0.00399438,-0.00845511,-0.00495376,0.00572496,-0.0101857,-0.336092,0.00930558,0.0121575,706,1471,-0.00688186,-0.030537
-511,-447,-0.00115967,0.0175781,0.00525635,-0.0078949,-0.00529394,0.00712256,-0.00976112,-0.338917,0.0097874,0.0128352,713,1471,-0.00116182,-0.0175709
-504,-447,-0.0114746,0.0720215,0.00592444,-0.00671618,-0.00498804,0.00765565,-0.00844738,-0.334063,0.00930083,0.0185362,720,1471,-0.0114478,-0.0720506
-497,-447,-0.048584,0.0627441,0.00505385,-0.00514582,-0.00384102,0.00633851,-0.00643048,-0.322762,0.00737224,0.0228205,727,1471,-0.0485931,-0.0627653
-490,-447,-0.0249634,-0.0338135,0.00424258,-0.0029236,-0.00305007,0.00536496,-0.00404598,-0.352607,0.00545117,0.0216267,734,1471,-0.0249774,0.0337529
-483,-447,-0.0289917,-0.020874,0.00331567,-0.00126246,-0.00211918,0.00414603,-0.00209281,-0.37344,0.00366644,0.0198385,741,1471,-0.0289736,0.0208793
-476,-447,-0.0142822,-0.00415039,0.00162999,-5.854e-05,-0.000724074,0.00189796,-0.00032651,-0.354456,0.00138701,0.0139815,748,1471,-0.0142968,0.0041139
-469,-447,-0.0394897,-0.00756836,0.000445431,0.000805219,-2.78422e-05,0.000807361,0.000443289,-1.49402,0.000466877,0.0119825,755,1471,-0.0394846,0.00756297
-462,-447,-0.0350952,0.0340576,-0.000109878,0.00121888,-1.20617e-05,0.00121899,-0.000109988,-1.56172,0.000851696,0.011475,762,1471,-0.0351104,-0.0340015
-455,-447,-0.039917,0.050415,-0.000984976,0.00177512,0.000213379,0.00179152,-0.00100137,1.4941,0.00163385,0.0108908,769,1471,-0.0398948,-0.050374
-448,-447,-0.0414429,0.0311279,-0.00132548,0.00237541,0.000103149,0.00237828,-0.00132836,1.54295,0.00216845,0.0138297,776,1471,-0.0414202,-0.0311367
-441,-447,-0.0462646,0.0736084,-0.00161223,0.00317134,-0.000222717,0.00318168,-0.00162258,-1.52437,0.00282201,0.0236015,783,1471,-0.0462652,-0.0736355
-434,-447,-0.0114136,0.672241,0,0,0,0,0,0,0,-1,790,1471,-0.0113841,-0.672261
-427,-447,-0.37677,1.07483,-0.00193554,0.00448356,-0.000562917,0.00453255,-0.00198453,-1.48399,0.00385731,0.0404179,797,1471,-0.376766,-1.0748
-420,-447,-0.694275,1.2301,-0.00179447,0.00510013,-0.000682394,0.00516702,-0.00186136,-1.47308,0.00420478,0.0416664,804,1471,-0.69426,-1.23004
-413,-447,-0.626953,0.2146,-0.00147036,0.00598813,-0.000449199,0.00601508,-0.00149731,-1.51086,0.00459128,0.0480786,811,1471,-0.626936,-0.214562
-406,-447,-0.46875,0.221069,-0.000765256,0.0075426,-9.81519e-05,0.00754376,-0.000766415,-1.55898,0.00530314,0.0450605,818,1471,-0.468746,-0.221083
-399,-447,-0.213135,0.17334,0.000653354,0.00949984,-0.000387666,0.00951679,0.000636398,-1.52709,0.00614339,0.0431279,825,1471,-0.213125,-0.173337
-392,-447,1.00745,-0.625854,0,0,0,0,0,0,0,-1,832,1471,1.00747,0.625907
-385,-447,1.07031,-0.415405,0,0,0,0,0,0,0,-1,839,1471,1.07033,0.415404
-378,-447,1.21881,-0.310181,0,0,0,0,0,0,0,-1,846,1471,1.21879,0.31013
-371,-447,-2.20605,-4.12329,0,0,0,0,0,0,0,-1,853,1471,-2.20605,4.12329
-364,-447,0,0,0,0,0,0,0,0,0,-1,860,1471,0,0
-357,-447,0,0,0,0,0,0,0,0,0,-1,867,1471,0,0
-350,-447,0,0,0,0,0,0,0,0,0,-1,874,1471,0,0
-343,-447,0,0,0,0,0,0,0,0,0,-1,881,1471,0,0
-336,-447,0,0,0,0,0,0,0,0,0,-1,888,1471,0,0
-329,-447,0,0,0,0,0,0,0,0,0,-1,895,1471,0,0
-322,-447,0,0,0,0,0,0,0,0,0,-1,902,1471,0,0
-315,-447,0,0,0,0,0,0,0,0,0,-1,909,1471,0,0
-308,-447,0,0,0,0,0,0,0,0,0,-1,916,1471,0,0
-301,-447,0,0,0,0,0,0,0,0,0,-1,923,1471,0,0
-294,-447,0,0,0,0,0,0,0,0,0,-1,930,1471,0,0
-287,-447,0,0,0,0,0,0,0,0,0,-1,937,1471,0,0
-280,-447,0,0,0,0,0,0,0,0,0,-1,944,1471,0,0
-273,-447,0,0,0,0,0,0,0,0,0,-1,951,1471,0,0
-266,-447,0,0,0,0,0,0,0,0,0,-1,958,1471,0,0
-259,-447,0,0,0,0,0,0,0,0,0,-1,965,1471,0,0
-252,-447,0,0,0,0,0,0,0,0,0,-1,972,1471,0,0
-245,-447,0,0,0,0,0,0,0,0,0,-1,979,1471,0,0
-238,-447,0,0,0,0,0,0,0,0,0,-1,986,1471,0,0
-231,-447,0,0,0,0,0,0,0,0,0,-1,993,1471,0,0
-224,-447,0,0,0,0,0,0,0,0,0,-1,1000,1471,0,0
-217,-447,0,0,0,0,0,0,0,0,0,-1,1007,1471,0,0
-210,-447,0,0,0,0,0,0,0,0,0,-1,1014,1471,0,0
-203,-447,0,0,0,0,0,0,0,0,0,-1,1021,1471,0,0
-196,-447,0,0,0,0,0,0,0,0,0,-1,1028,1471,0,0
-189,-447,0,0,0,0,0,0,0,0,0,-1,1035,1471,0,0
-182,-447,0,0,0,0,0,0,0,0,0,-1,1042,1471,0,0
-175,-447,0,0,0,0,0,0,0,0,0,-1,1049,1471,0,0
-168,-447,0,0,0,0,0,0,0,0,0,-1,1056,1471,0,0
-161,-447,0,0,0,0,0,0,0,0,0,-1,1063,1471,0,0
-154,-447,0,0,0,0,0,0,0,0,0,-1,1070,1471,0,0
-147,-447,0,0,0,0,0,0,0,0,0,-1,1077,1471,0,0
-140,-447,0,0,0,0,0,0,0,0,0,-1,1084,1471,0,0
-133,-447,0,0,0,0,0,0,0,0,0,-1,1091,1471,0,0
-126,-447,0,0,0,0,0,0,0,0,0,-1,1098,1471,0,0
-119,-447,0,0,0,0,0,0,0,0,0,-1,1105,1471,0,0
-112,-447,0,0,0,0,0,0,0,0,0,-1,1112,1471,0,0
-105,-447,0,0,0,0,0,0,0,0,0,-1,1119,1471,0,0
-98,-447,0,0,0,0,0,0,0,0,0,-1,1126,1471,0,0
-91,-447,0,0,0,0,0,0,0,0,0,-1,1133,1471,0,0
-84,-447,0,0,0,0,0,0,0,0,0,-1,1140,1471,0,0
-77,-447,0,0,0,0,0,0,0,0,0,-1,1147,1471,0,0
-70,-447,0,0,0,0,0,0,0,0,0,-1,1154,1471,0,0
-63,-447,0,0,0,0,0,0,0,0,0,-1,1161,1471,0,0
-56,-447,0,0,0,0,0,0,0,0,0,-1,1168,1471,0,0
-49,-447,0,0,0,0,0,0,0,0,0,-1,1175,1471,0,0
-42,-447,0,0,0,0,0,0,0,0,0,-1,1182,1471,0,0
-35,-447,0,0,0,0,0,0,0,0,0,-1,1189,1471,0,0
-28,-447,0,0,0,0,0,0,0,0,0,-1,1196,1471,0,0
-21,-447,0,0,0,0,0,0,0,0,0,-1,1203,1471,0,0
-14,-447,0,0,0,0,0,0,0,0,0,-1,1210,1471,0,0
-7,-447,0,0,0,0,0,0,0,0,0,-1,1217,1471,0,0
0,-447,0,0,0,0,0,0,0,0,0,-1,1224,1471,0,0
7,-447,0,0,0,0,0,0,0,0,0,-1,1231,1471,0,0
14,-447,0,0,0,0,0,0,0,0,0,-1,1238,1471,0,0
21,-447,0,0,0,0,0,0,0,0,0,-1,1245,1471,0,0
28,-447,0,0,0,0,0,0,0,0,0,-1,1252,1471,0,0
35,-447,0,0,0,0,0,0,0,0,0,-1,1259,1471,0,0
42,-447,0,0,0,0,0,0,0,0,0,-1,1266,1471,0,0
49,-447,0,0,0,0,0,0,0,0,0,-1,1273,1471,0,0
56,-447,0,0,0,0,0,0,0,0,0,-1,1280,1471,0,0
63,-447,0,0,0,0,0,0,0,0,0,-1,1287,1471,0,0
70,-447,0,0,0,0,0,0,0,0,0,-1,1294,1471,0,0
77,-447,0,0,0,0,0,0,0,0,0,-1,1301,1471,0,0
84,-447,0,0,0,0,0,0,0,0,0,-1,1308,1471,0,0
91,-447,0,0,0,0,0,0,0,0,0,-1,1315,1471,0,0
98,-447,0,0,0,0,0,0,0,0,0,-1,1322,1471,0,0
105,-447,0,0,0,0,0,0,0,0,0,-1,1329,1471,0,0
112,-447,0,0,0,0,0,0,0,0,0,-1,1336,1471,0,0
119,-447,0,0,0,0,0,0,0,0,0,-1,1343,1471,0,0
126,-447,0,0,0,0,0,0,0,0,0,-1,1350,1471,0,0
133,-447,0,0,0,0,0,0,0,0,0,-1,1357,1471,0,0
140,-447,0,0,0,0,0,0,0,0,0,-1,1364,1471,0,0
147,-447,0,0,0,0,0,0,0,0,0,-1,1371,1471,0,0
154,-447,0,0,0,0,0,0,0,0,0,-1,1378,1471,0,0
161,-447,0,0,0,0,0,0,0,0,0,-1,1385,1471,0,0
168,-447,0,0,0,0,0,0,0,0,0,-1,1392,1471,0,0
175,-447,0,0,0,0,0,0,0,0,0,-1,1399,1471,0,0
182,-447,0,0,0,0,0,0,0,0,0,-1,1406,1471,0,0
189,-447,0,0,0,0,0,0,0,0,0,-1,1413,1471,0,0
196,-447,0,0,0,0,0,0,0,0,0,-1,1420,1471,0,0
203,-447,0,0,0,0,0,0,0,0,0,-1,1427,1471,0,0
210,-447,0,0,0,0,0,0,0,0,0,-1,1434,1471,0,0
217,-447,0,0,0,0,0,0,0,0,0,-1,1441,1471,0,0
224,-447,0,0,0,0,0,0,0,0,0,-1,1448,1471,0,0
231,-447,0,0,0,0,0,0,0,0,0,-1,1455,1471,0,0
238,-447,0,0,0,0,0,0,0,0,0,-1,1462,1471,0,0
245,-447,0,0,0,0,0,0,0,0,0,-1,1469,1471,0,0
252,-447,0,0,0,0,0,0,0,0,0,-1,1476,1471,0,0
259,-447,0,0,0,0,0,0,0,0,0,-1,1483,1471,0,0
266,-447,0,0,0,0,0,0,0,0,0,-1,1490,1471,0,0
273,-447,0,0,0,0,0,0,0,0,0,-1,1497,1471,0,0
280,-447,0,0,0,0,0,0,0,0,0,-1,1504,1471,0,0
287,-447,0,0,0,0,0,0,0,0,0,-1,1511,1471,0,0
294,-447,0,0,0,0,0,0,0,0,0,-1,1518,1471,0,0
301,-447,0,0,0,0,0,0,0,0,0,-1,1525,1471,0,0
308,-447,0,0,0,0,0,0,0,0,0,-1,1532,1471,0,0
315,-447,0,0,0,0,0,0,0,0,0,-1,1539,1471,0,0
322,-447,0,0,0,0,0,0,0,0,0,-1,1546,1471,0,0
329,-447,0,0,0,0,0,0,0,0,0,-1,1553,1471,0,0
336,-447,0,0,0,0,0,0,0,0,0,-1,1560,1471,0,0
343,-447,0,0,0,0,0,0,0,0,0,-1,1567,1471,0,0
350,-447,0,0,0,0,0,0,0,0,0,-1,1574,1471,0,0
357,-447,0,0,0,0,0,0,0,0,0,-1,1581,1471,0,0
364,-447,0,0,0,0,0,0,0,0,0,-1,1588,1471,0,0
371,-447,0,0,0,0,0,0,0,0,0,-1,1595,1471,0,0
378,-447,0,0,0,0,0,0,0,0,0,-1,1602,1471,0,0
385,-447,0,0,0,0,0,0,0,0,0,-1,1609,1471,0,0
392,-447,0,0,0,0,0,0,0,0,0,-1,1616,1471,0,0
399,-447,0,0,0,0,0,0,0,0,0,-1,1623,1471,0,0
406,-447,0,0,0,0,0,0,0,0,0,-1,1630,1471,0,0
413,-447,0,0,0,0,0,0,0,0,0,-1,1637,1471,0,0
420,-447,0,0,0,0,0,0,0,0,0,-1,1644,1471,0,0
427,-447,0,0,0,0,0,0,0,0,0,-1,1651,1471,0,0
434,-447,0,0,0,0,0,0,0,0,0,-1,1658,1471,0,0
441,-447,0,0,0,0,0,0,0,0,0,-1,1665,1471,0,0
448,-447,0,0,0,0,0,0,0,0,0,-1,1672,1471,0,0
455,-447,0,0,0,0,0,0,0,0,0,-1,1679,1471,0,0
462,-447,0,0,0,0,0,0,0,0,0,-1,1686,1471,0,0
469,-447,0,0,0,0,0,0,0,0,0,-1,1693,1471,0,0
476,-447,0,0,0,0,0,0,0,0,0,-1,1700,1471,0,0
483,-447,0,0,0,0,0,0,0,0,0,-1,1707,1471,0,0
490,-447,-0.794189,1.14526,0,0,0,0,0,0,0,-1,1714,1471,-0.794204,-1.14521
497,-447,-0.380859,0.779175,0.0417584,0.0122711,-0.0289834,0.0595327,-0.00550314,-0.550109,0.0416442,0.0411213,1721,1471,-0.380819,-0.779163
504,-447,0.240479,0.240967,0.0317572,0.0081421,-0.0236803,0.0464104,-0.00651115,-0.554125,0.0333234,0.0410495,1728,1471,0.240536,-0.240969
511,-447,0.613647,0.104858,0.0217869,0.0055888,-0.0178803,0.0333169,-0.00594115,-0.572741,0.0244336,0.0447064,1735,1471,0.613685,-0.104913
518,-447,1.02893,-0.134277,0,0,0,0,0,0,0,-1,1742,1471,1.02893,0.134279
525,-447,0.277954,0.171997,0,0,0,0,0,0,0,-1,1749,1471,0.278004,-0.171959
532,-447,1.5575,0.0281982,0,0,0,0,0,0,0,-1,1756,1471,1.55745,-0.0281711
539,-447,0.82666,-1.36548,0,0,0,0,0,0,0,-1,1763,1471,0.826659,1.36553
546,-447,0.0751953,0.0621338,0,0,0,0,0,0,0,-1,1770,1471,0.0751418,-0.0621362
553,-447,-0.115234,0.0256348,0,0,0,0,0,0,0,-1,1777,1471,-0.115248,-0.0256928
560,-447,-0.158325,0.0601807,-0.00769459,0.00569178,0.00414783,0.0068728,-0.00887562,1.2934,0.00911683,0.0418751,1784,1471,-0.158332,-0.0602103
567,-447,-0.123413,0.0380859,-0.00728238,0.00545848,0.00417213,0.0067031,-0.008527,1.28088,0.0088141,0.0353426,1791,1471,-0.123422,-0.0380957
574,-447,-0.0439453,0.0423584,-0.00606205,0.00495316,0.00344815,0.00594351,-0.0070524,1.29111,0.0075123,0.0214534,1798,1471,-0.0439244,-0.0424004
581,-447,0.00109863,0.0415039,-0.00465531,0.00413324,0.00265553,0.00487331,-0.00539538,1.299,0.00593118,0.0111678,1805,1471,0.00104188,-0.041547
588,-447,-0.00585938,0.0526123,-0.0031918,0.00319266,0.00155381,0.00355073,-0.00354987,1.3443,0.00409954,0.0111266,1812,1471,-0.00584197,-0.0526046
595,-447,-0.0296631,0.0528564,-0.00197842,0.0025169,0.000805783,0.00265697,-0.0021185,1.39868,0.00276295,0.0110398,1819,1471,-0.0297049,-0.0528773
602,-447,-0.0186768,0.038208,-0.00117568,0.00210614,0.000260938,0.00212676,-0.0011963,1.49195,0.00194348,0.00994361,1826,1471,-0.0187253,-0.0382061
609,-447,-0.0201416,0.0435791,-0.000506217,0.00190855,-0.000120312,0.00191453,-0.000512197,-1.52114,0.00147699,0.0110974,1833,1471,-0.0201592,-0.0435858
616,-447,-0.0269775,0.0307617,-0.000116769,0.00262146,-0.000890487,0.00288557,-0.000380886,-1.28246,0.00206243,0.0131293,1840,1471,-0.0270126,-0.0307701
623,-447,-0.0505371,0.0164795,0.000308199,0.003269,-0.00147345,0.00387729,-0.000300095,-1.17927,0.00269048,0.0147683,1847,1471,-0.0505115,-0.0164304
630,-447,-0.0452881,0.019165,0.000531366,0.00464851,-0.00187712,0.00537585,-0.000195975,-1.20113,0.00365098,0.00823182,1854,1471,-0.0452538,-0.019139
637,-447,-0.0361328,0.0246582,0.000878842,0.00621854,-0.00232218,0.00708714,1.02397e-05,-1.21286,0.00472135,0.00877866,1861,1471,-0.0361873,-0.0246851
644,-447,-0.0289307,0.0268555,0.001425,0.00830771,-0.00287151,0.00934837,0.000384333,-1.22311,0.00610817,0.00926752,1868,1471,-0.0289601,-0.026905
651,-447,-0.0126953,0.0378418,0.00191811,0.0106667,-0.00336342,0.0118103,0.000774522,-1.24305,0.00762848,0.0118441,1875,1471,-0.0127414,-0.03784
658,-447,-0.0301514,0.00952148,0.0026033,0.0133489,-0.00388779,0.014608,0.00134421,-1.2576,0.00932293,0.0209461,1882,1471,-0.0301342,-0.00955757
665,-447,-0.0839844,-0.0936279,0.00325954,0.0162002,-0.0040924,0.0173857,0.00207397,-1.28881,0.0109648,0.0380722,1889,1471,-0.0840404,0.093633
672,-447,0.0748291,-0.146729,0.00385656,0.0190939,-0.00405622,0.0201064,0.00284406,-1.32618,0.012564,0.0435312,1896,1471,0.0748691,0.146739
679,-447,0.110962,-0.0360107,0.0043916,0.0218644,-0.00374768,0.0226343,0.00362169,-1.36818,0.0140389,0.0429789,1903,1471,0.110907,0.035987
686,-447,-0.249878,-0.353882,0,0,0,0,0,0,0,-1,1910,1471,-0.249918,0.35386
693,-447,-0.226074,-0.26001,0,0,0,0,0,0,0,-1,1917,1471,-0.226063,0.259996
700,-447,0,0,0,0,0,0,0,0,0,-1,1924,1471,0,0
707,-447,0,0,0,0,0,0,0,0,0,-1,1931,1471,0,0
714,-447,0,0,0,0,0,0,0,0,0,-1,1938,1471,0,0
721,-447,0,0,0,0,0,0,0,0,0,-1,1945,1471,0,0
728,-447,0,0,0,0,0,0,0,0,0,-1,1952,1471,0,0
735,-447,0,0,0,0,0,0,0,0,0,-1,1959,1471,0,0
742,-447,0,0,0,0,0,0,0,0,0,-1,1966,1471,0,0
749,-447,0,0,0,0,0,0,0,0,0,-1,1973,1471,0,0
756,-447,0,0,0,0,0,0,0,0,0,-1,1980,1471,0,0
763,-447,0,0,0,0,0,0,0,0,0,-1,1987,1471,0,0
770,-447,0,0,0,0,0,0,0,0,0,-1,1994,1471,0,0
777,-447,0,0,0,0,0,0,0,0,0,-1,2001,1471,0,0
784,-447,0,0,0,0,0,0,0,0,0,-1,2008,1471,0,0
791,-447,0,0,0,0,0,0,0,0,0,-1,2015,1471,0,0
798,-447,0,0,0,0,0,0,0,0,0,-1,2022,1471,0,0
805,-447,0,0,0,0,0,0,0,0,0,-1,2029,1471,0,0
812,-447,0,0,0,0,0,0,0,0,0,-1,2036,1471,0,0
-700,-454,0,0,0,0,0,0,0,0,0,-1,524,1478,0,0
-693,-454,0,0,0,0,0,0,0,0,0,-1,531,1478,0,0
-686,-454,0,0,0,0,0,0,0,0,0,-1,538,1478,0,0
-679,-454,0,0,0,0,0,0,0,0,0,-1,545,1478,0,0
-672,-454,0,0,0,0,0,0,0,0,0,-1,552,1478,0,0
-665,-454,0,0,0,0,0,0,0,0,0,-1,559,1478,0,0
-658,-454,0,0,0,0,0,0,0,0,0,-1,566,1478,0,0
-651,-454,0,0,0,0,0,0,0,0,0,-1,573,1478,0,0
-644,-454,0,0,0,0,0,0,0,0,0,-1,580,1478,0,0
-637,-454,0,0,0,0,0,0,0,0,0,-1,587,1478,0,0
-630,-454,0,0,0,0,0,0,0,0,0,-1,594,1478,0,0
-623,-454,0,0,0,0,0,0,0,0,0,-1,601,1478,0,0
-616,-454,0,0,0,0,0,0,0,0,0,-1,608,1478,0,0
-609,-454,0,0,0,0,0,0,0,0,0,-1,615,1478,0,0
-602,-454,0,0,0,0,0,0,0,0,0,-1,622,1478,0,0
-595,-454,0,0,0,0,0,0,0,0,0,-1,629,1478,0,0
-588,-454,0,0,0,0,0,0,0,0,0,-1,636,1478,0,0
-581,-454,0,0,0,0,0,0,0,0,0,-1,643,1478,0,0
-574,-454,1.89142,-1.65735,0,0,0,0,0,0,0,-1,650,1478,1.89139,1.65739
-567,-454,1.20099,-0.925415,-0.0190699,0.0167371,0.0169102,0.0234606,-0.0257934,1.19236,0.0284474,0.0467381,657,1478,1.20096,0.925423
-560,-454,0.562927,-0.191772,-0.0167297,0.00900905,0.0110275,0.0130874,-0.0208081,1.21656,0.0197381,0.0452771,664,1478,0.562921,0.191794
-553,-454,0.118164,0.784424,0,0,0,0,0,0,0,-1,671,1478,0.118192,-0.784379
-546,-454,-1.35339,2.46375,0,0,0,0,0,0,0,-1,678,1478,-1.35339,-2.46376
-539,-454,-0.928223,1.53479,-0.00467709,-0.00525225,-0.00244185,-0.00250594,-0.00742339,-0.726783,0.00436063,0.0459871,685,1478,-0.928233,-1.53484
-532,-454,-0.376343,0.896118,0.000453431,-0.0071434,-0.00479807,0.00277461,-0.00946458,-0.450582,0.00740982,0.0420316,692,1478,-0.376342,-0.896121
-525,-454,-0.150513,0.41687,0,0,0,0,0,0,0,-1,699,1478,-0.150543,-0.41683
-518,-454,-0.129211,0.225708,0,0,0,0,0,0,0,-1,706,1478,-0.129212,-0.225709
-511,-454,-0.0186768,0.0290527,0.00643325,-0.00721562,-0.00683167,0.00926514,-0.0100475,-0.392964,0.0111532,0.0113846,713,1478,-0.0187047,-0.029016
-504,-454,0.000305176,0.0561523,0.00681991,-0.00624615,-0.00629614,0.00936003,-0.00878626,-0.383468,0.0104785,0.0145644,720,1478,0.000296367,-0.0561634
-497,-454,-0.0245972,0.0773926,0.00556921,-0.00477779,-0.00490462,0.00752455,-0.00673313,-0.379362,0.0082359,0.0183125,727,1478,-0.0245949,-0.0774416
-490,-454,-0.0297852,0.0236816,0.00446038,-0.00286096,-0.00383304,0.00609997,-0.00450054,-0.404198,0.00614339,0.0158646,734,1478,-0.0298132,-0.0236238
-483,-454,-0.0360107,0.017334,0.00344604,-0.00164235,-0.00274241,0.00464267,-0.00283898,-0.411437,0.00436117,0.0141812,741,1478,-0.0360061,-0.0173686
-476,-454,-0.0344238,-0.00183105,0.00171741,-0.00056255,-0.00123299,0.00225666,-0.0011018,-0.412288,0.00197685,0.0118862,748,1478,-0.0344531,0.00181949
-469,-454,-0.0248413,0.0223389,0.000517624,0.00017642,-0.000385878,0.00076893,-7.48864e-05,-0.57726,0.000539318,0.00849034,755,1478,-0.0248552,-0.0223143
-462,-454,-0.0357666,0.0415039,-2.09523e-05,0.000457321,-0.000296522,0.00059912,-0.000162751,-1.12474,0.000463292,0.00961239,762,1478,-0.0357599,-0.0415587
-455,-454,-0.0401611,0.0251465,-0.00066952,0.000897667,-0.000157945,0.000913426,-0.00068528,-1.47135,0.000926141,0.0106199,769,1478,-0.0401645,-0.0251199
-448,-454,-0.0413208,0.0273438,-0.000786915,0.00138631,-0.000320058,0.00143246,-0.000833071,-1.42757,0.00132318,0.0105398,776,1478,-0.0413398,-0.0273024
-441,-454,-0.0220947,0.0541992,-0.000789975,0.00206987,-0.000679861,0.00222327,-0.000943368,-1.34889,0.00187738,0.0182756,783,1478,-0.0221225,-0.0542597
-434,-454,0.074707,0.0562744,-0.000740203,0.00284111,-0.000898546,0.00305391,-0.000953003,-1.33825,0.00241706,0.0295784,790,1478,0.0746804,-0.0562785
-427,-454,0.0956421,0.00341797,-0.000734947,0.00320002,-0.0010134,0.00344567,-0.000980598,-1.33298,0.00268436,0.0412168,797,1478,0.0956244,-0.00336711
-420,-454,-0.359863,0.432373,-0.00057287,0.00388233,-0.00109007,0.00413474,-0.000825284,-1.34325,0.0030688,0.042836,804,1478,-0.359847,-0.432328
-413,-454,-0.617371,0.079834,-0.000330514,0.0049125,-0.000848803,0.00504649,-0.000464504,-1.41423,0.00352937,0.0452695,811,1478,-0.617355,-0.079886
-406,-454,-0.731445,0.163452,0.000279123,0.00664625,-0.00062037,0.00670613,0.000219241,-1.47457,0.00439949,0.0448282,818,1478,-0.731438,-0.163393
-399,-454,-0.642273,0.299194,0.00142245,0.00865975,-0.00109305,0.00882123,0.00126097,-1.42412,0.00550881,0.043181,825,1478,-0.642263,-0.299247
-392,-454,-0.826965,0.283691,0,0,0,0,0,0,0,-1,832,1478,-0.826953,-0.283699
-385,-454,0.46582,-0.0384521,0,0,0,0,0,0,0,-1,839,1478,0.465821,0.0384769
-378,-454,-0.637756,0.896729,0,0,0,0,0,0,0,-1,846,1478,-0.637748,-0.896732
-371,-454,2.99365,-1.69226,0,0,0,0,0,0,0,-1,853,1478,2.99364,1.69221
-364,-454,2.58234,-1.42346,0,0,0,0,0,0,0,-1,860,1478,2.58236,1.42348
-357,-454,0,0,0,0,0,0,0,0,0,-1,867,1478,0,0
-350,-454,0,0,0,0,0,0,0,0,0,-1,874,1478,0,0
-343,-454,0,0,0,0,0,0,0,0,0,-1,881,1478,0,0
-336,-454,0,0,0,0,0,0,0,0,0,-1,888,1478,0,0
-329,-454,0,0,0,0,0,0,0,0,0,-1,895,1478,0,0
-322,-454,0,0,0,0,0,0,0,0,0,-1,902,1478,0,0
-315,-454,0,0,0,0,0,0,0,0,0,-1,909,1478,0,0
-308,-454,0,0,0,0,0,0,0,0,0,-1,916,1478,0,0
-301,-454,0,0,0,0,0,0,0,0,0,-1,923,1478,0,0
-294,-454,0,0,0,0,0,0,0,0,0,-1,930,1478,0,0
-287,-454,0,0,0,0,0,0,0,0,0,-1,937,1478,0,0
-280,-454,0,0,0,0,0,0,0,0,0,-1,944,1478,0,0
-273,-454,0,0,0,0,0,0,0,0,0,-1,951,1478,0,0
-266,-454,0,0,0,0,0,0,0,0,0,-1,958,1478,0,0
-259,-454,0,0,0,0,0,0,0,0,0,-1,965,1478,0,0
-252,-454,0,0,0,0,0,0,0,0,0,-1,972,1478,0,0
-245,-454,0,0,0,0,0,0,0,0,0,-1,979,1478,0,0
-238,-454,0,0,0,0,0,0,0,0,0,-1,986,1478,0,0
-231,-454,0,0,0,0,0,0,0,0,0,-1,993,1478,0,0
-224,-454,0,0,0,0,0,0,0,0,0,-1,1000,1478,0,0
-217,-454,0,0,0,0,0,0,0,0,0,-1,1007,1478,0,0
-210,-454,0,0,0,0,0,0,0,0,0,-1,1014,1478,0,0
-203,-454,0,0,0,0,0,0,0,0,0,-1,1021,1478,0,0
-196,-454,0,0,0,0,0,0,0,0,0,-1,1028,1478,0,0
-189,-454,0,0,0,0,0,0,0,0,0,-1,1035,1478,0,0
-182,-454,0,0,0,0,0,0,0,0,0,-1,1042,1478,0,0
-175,-454,0,0,0,0,0,0,0,0,0,-1,1049,1478,0,0
-168,-454,0,0,0,0,0,0,0,0,0,-1,1056,1478,0,0
-161,-454,0,0,0,0,0,0,0,0,0,-1,1063,1478,0,0
-154,-454,0,0,0,0,0,0,0,0,0,-1,1070,1478,0,0
-147,-454,0,0,0,0,0,0,0,0,0,-1,1077,1478,0,0
-140,-454,0,0,0,0,0,0,0,0,0,-1,1084,1478,0,0
-133,-454,0,0,0,0,0,0,0,0,0,-1,1091,1478,0,0
-126,-454,0,0,0,0,0,0,0,0,0,-1,1098,1478,0,0
-119,-454,0,0,0,0,0,0,0,0,0,-1,1105,1478,0,0
-112,-454,0,0,0,0,0,0,0,0,0,-1,1112,1478,0,0
-105,-454,0,0,0,0,0,0,0,0,0,-1,1119,1478,0,0
-98,-454,0,0,0,0,0,0,0,0,0,-1,1126,1478,0,0
-91,-454,0,0,0,0,0,0,0,0,0,-1,1133,1478,0,0
-84,-454,0,0,0,0,0,0,0,0,0,-1,1140,1478,0,0
-77,-454,0,0,0,0,0,0,0,0,0,-1,1147,1478,0,0
-70,-454,0,0,0,0,0,0,0,0,0,-1,1154,1478,0,0
-63,-454,0,0,0,0,0,0,0,0,0,-1,1161,1478,0,0
-56,-454,0,0,0,0,0,0,0,0,0,-1,1168,1478,0,0
-49,-454,0,0,0,0,0,0,0,0,0,-1,1175,1478,0,0
-42,-454,0,0,0,0,0,0,0,0,0,-1,1182,1478,0,0
-35,-454,0,0,0,0,0,0,0,0,0,-1,1189,1478,0,0
-28,-454,0,0,0,0,0,0,0,0,0,-1,1196,1478,0,0
-21,-454,0,0,0,0,0,0,0,0,0,-1,1203,1478,0,0
-14,-454,0,0,0,0,0,0,0,0,0,-1,1210,1478,0,0
-7,-454,0,0,0,0,0,0,0,0,0,-1,1217,1478,0,0
0,-454,0,0,0,0,0,0,0,0,0,-1,1224,1478,0,0
7,-454,0,0,0,0,0,0,0,0,0,-1,1231,1478,0,0
14,-454,0,0,0,0,0,0,0,0,0,-1,1238,1478,0,0
21,-454,0,0,0,0,0,0,0,0,0,-1,1245,1478,0,0
28,-454,0,0,0,0,0,0,0,0,0,-1,1252,1478,0,0
35,-454,0,0,0,0,0,0,0,0,0,-1,1259,1478,0,0
42,-454,0,0,0,0,0,0,0,0,0,-1,1266,1478,0,0
49,-454,0,0,0,0,0,0,0,0,0,-1,1273,1478,0,0
56,-454,0,0,0,0,0,0,0,0,0,-1,1280,1478,0,0
63,-454,0,0,0,0,0,0,0,0,0,-1,1287,1478,0,0
70,-454,0,0,0,0,0,0,0,0,0,-1,1294,1478,0,0
77,-454,0,0,0,0,0,0,0,0,0,-1,1301,1478,0,0
84,-454,0,0,0,0,0,0,0,0,0,-1,1308,1478,0,0
91,-454,0,0,0,0,0,0,0,0,0,-1,1315,1478,0,0
98,-454,0,0,0,0,0,0,0,0,0,-1,1322,1478,0,0
105,-454,0,0,0,0,0,0,0,0,0,-1,1329,1478,0,0
112,-454,0,0,0,0,0,0,0,0,0,-1,1336,1478,0,0
119,-454,0,0,0,0,0,0,0,0,0,-1,1343,1478,0,0
126,-454,0,0,0,0,0,0,0,0,0,-1,1350,1478,0,0
133,-454,0,0,0,0,0,0,0,0,0,-1,1357,1478,0,0
140,-454,0,0,0,0,0,0,0,0,0,-1,1364,1478,0,0
147,-454,0,0,0,0,0,0,0,0,0,-1,1371,1478,0,0
154,-454,0,0,0,0,0,0,0,0,0,-1,1378,1478,0,0
161,-454,0,0,0,0,0,0,0,0,0,-1,1385,1478,0,0
168,-454,0,0,0,0,0,0,0,0,0,-1,1392,1478,0,0
175,-454,0,0,0,0,0,0,0,0,0,-1,1399,1478,0,0
182,-454,0,0,0,0,0,0,0,0,0,-1,1406,1478,0,0
189,-454,0,0,0,0,0,0,0,0,0,-1,1413,1478,0,0
196,-454,0,0,0,0,0,0,0,0,0,-1,1420,1478,0,0
203,-454,0,0,0,0,0,0,0,0,0,-1,1427,1478,0,0
210,-454,0,0,0,0,0,0,0,0,0,-1,1434,1478,0,0
217,-454,0,0,0,0,0,0,0,0,0,-1,1441,1478,0,0
224,-454,0,0,0,0,0,0,0,0,0,-1,1448,1478,0,0
231,-454,0,0,0,0,0,0,0,0,0,-1,1455,1478,0,0
238,-454,0,0,0,0,0,0,0,0,0,-1,1462,1478,0,0
245,-454,0,0,0,0,0,0,0,0,0,-1,1469,1478,0,0
252,-454,0,0,0,0,0,0,0,0,0,-1,1476,1478,0,0
259,-454,0,0,0,0,0,0,0,0,0,-1,1483,1478,0,0
266,-454,0,0,0,0,0,0,0,0,0,-1,1490,1478,0,0
273,-454,0,0,0,0,0,0,0,0,0,-1,1497,1478,0,0
280,-454,0,0,0,0,0,0,0,0,0,-1,1504,1478,0,0
287,-454,0,0,0,0,0,0,0,0,0,-1,1511,1478,0,0
294,-454,0,0,0,0,0,0,0,0,0,-1,1518,1478,0,0
301,-454,0,0,0,0,0,0,0,0,0,-1,1525,1478,0,0
308,-454,0,0,0,0,0,0,0,0,0,-1,1532,1478,0,0
315,-454,0,0,0,0,0,0,0,0,0,-1,1539,1478,0,0
322,-454,0,0,0,0,0,0,0,0,0,-1,1546,1478,0,0
329,-454,0,0,0,0,0,0,0,0,0,-1,1553,1478,0,0
336,-454,0,0,0,0,0,0,0,0,0,-1,1560,1478,0,0
343,-454,0,0,0,0,0,0,0,0,0,-1,1567,1478,0,0
350,-454,0,0,0,0,0,0,0,0,0,-1,1574,1478,0,0
357,-454,0,0,0,0,0,0,0,0,0,-1,1581,1478,0,0
364,-454,0,0,0,0,0,0,0,0,0,-1,1588,1478,0,0
371,-454,0,0,0,0,0,0,0,0,0,-1,1595,1478,0,0
378,-454,0,0,0,0,0,0,0,0,0,-1,1602,1478,0,0
385,-454,0,0,0,0,0,0,0,0,0,-1,1609,1478,0,0
392,-454,0,0,0,0,0,0,0,0,0,-1,1616,1478,0,0
399,-454,0,0,0,0,0,0,0,0,0,-1,1623,1478,0,0
406,-454,0,0,0,0,0,0,0,0,0,-1,1630,1478,0,0
413,-454,0,0,0,0,0,0,0,0,0,-1,1637,1478,0,0
420,-454,0,0,0,0,0,0,0,0,0,-1,1644,1478,0,0
427,-454,0,0,0,0,0,0,0,0,0,-1,1651,1478,0,0
434,-454,0,0,0,0,0,0,0,0,0,-1,1658,1478,0,0
441,-454,0,0,0,0,0,0,0,0,0,-1,1665,1478,0,0
448,-454,0,0,0,0,0,0,0,0,0,-1,1672,1478,0,0
455,-454,0,0,0,0,0,0,0,0,0,-1,1679,1478,0,0
462,-454,0,0,0,0,0,0,0,0,0,-1,1686,1478,0,0
469,-454,0,0,0,0,0,0,0,0,0,-1,1693,1478,0,0
476,-454,0,0,0,0,0,0,0,0,0,-1,1700,1478,0,0
483,-454,-3.63013,4.02722,0,0,0,0,0,0,0,-1,1707,1478,-3.63011,-4.02716
490,-454,-0.476807,1.05676,0,0,0,0,0,0,0,-1,1714,1478,-0.47675,-1.05676
497,-454,0.069458,0.876099,0.0339875,0.015701,-0.0232903,0.049865,-0.000176454,-0.598353,0.0333023,0.0450948,1721,1478,0.0694103,-0.876084
504,-454,0.807373,0.69519,0.0263481,0.0106518,-0.0195104,0.0395297,-0.00252975,-0.594173,0.0272355,0.045654,1728,1478,0.807316,-0.695211
511,-454,0.261475,-0.646851,0.0187801,0.00712968,-0.0153652,0.0293873,-0.0034775,-0.604211,0.0208476,0.0425355,1735,1478,0.261453,0.646867
518,-454,0.392212,0.0661621,0,0,0,0,0,0,0,-1,1742,1478,0.392264,-0.0661564
525,-454,0.215454,0.111938,0.00505932,0.00396981,-0.00821093,0.0127436,-0.00371442,-0.752274,0.00996728,0.0455621,1749,1478,0.215463,-0.111919
532,-454,0.923462,-0.297607,0.000417143,0.00357652,-0.00477043,0.00702201,-0.00302835,-0.945287,0.00595332,0.0462275,1756,1478,0.923482,0.297562
539,-454,0.674805,-0.382324,0,0,0,0,0,0,0,-1,1763,1478,0.674826,0.382364
546,-454,0.293213,-0.210571,-0.00360234,0.00409561,-3.82338e-07,0.00409561,-0.00360234,-1.57075,0.00444745,0.0419431,1770,1478,0.293168,0.210573
553,-454,0.108521,0.0621338,-0.00506604,0.00418622,0.00188907,0.00455706,-0.00543688,1.37696,0.00577745,0.0388655,1777,1478,0.108529,-0.0621098
560,-454,-0.0844727,0.00756836,-0.00575939,0.00417233,0.00287092,0.0049425,-0.00652955,1.3087,0.00664448,0.0322332,1784,1478,-0.0844129,-0.00757136
567,-454,-0.0151367,0.0155029,-0.0054419,0.00403407,0.00295278,0.00487886,-0.00628669,1.29214,0.0064635,0.0169692,1791,1478,-0.0150825,-0.0155204
574,-454,-0.0218506,0.0213623,-0.00452729,0.00369496,0.0024053,0.0043469,-0.00517923,1.30611,0.00550691,0.00964756,1798,1478,-0.0218814,-0.0213136
581,-454,-0.00012207,0.0240479,-0.0035313,0.00314939,0.00185884,0.00363177,-0.00401368,1.31689,0.00441593,0.00938204,1805,1478,-0.000115053,-0.024072
588,-454,-0.00549316,0.0445557,-0.00249641,0.00255551,0.000987684,0.00274175,-0.00268265,1.38443,0.00313184,0.01146,1812,1478,-0.00547933,-0.0446072
595,-454,-0.0289307,0.0494385,-0.00160935,0.00204161,0.000407351,0.00208651,-0.00165425,1.46102,0.00216453,0.0112102,1819,1478,-0.0288983,-0.0494666
602,-454,-0.0247803,0.0395508,-0.00102101,0.00191454,-3.82779e-05,0.00191504,-0.00102151,-1.55776,0.00172138,0.00793858,1826,1478,-0.0248124,-0.0396035
609,-454,-0.00268555,0.0517578,-0.000482359,0.00193417,-0.000487096,0.00202866,-0.000576847,-1.37919,0.00158022,0.00970175,1833,1478,-0.00266907,-0.0517156
616,-454,-0.0148926,0.0340576,-7.05428e-05,0.00309486,-0.0013992,0.00362467,-0.000600351,-1.20883,0.00263942,0.0123171,1840,1478,-0.0148772,-0.0340816
623,-454,-0.0322266,0.0155029,0.000427029,0.00415964,-0.00208269,0.00508989,-0.000503218,-1.15073,0.00357283,0.00992495,1847,1478,-0.0322183,-0.0155093
630,-454,-0.02771,0.0345459,0.000738332,0.00599394,-0.00253051,0.00701426,-0.000281992,-1.18753,0.00477295,0.00816446,1854,1478,-0.0276659,-0.0345898
637,-454,-0.0257568,0.0421143,0.00117478,0.00807549,-0.0030251,0.00921383,3.64301e-05,-1.21089,0.00613045,0.00825038,1861,1478,-0.0258048,-0.0420568
644,-454,-0.0288086,0.0406494,0.00187957,0.0107679,-0.00369461,0.0121031,0.000544406,-1.22402,0.00789353,0.0103132,1868,1478,-0.0288379,-0.0406818
651,-454,-0.00305176,0.0705566,0.00260464,0.0138943,-0.00426645,0.0153253,0.00117369,-1.24719,0.00984896,0.0167939,1875,1478,-0.00310634,-0.0705161
658,-454,-0.0166016,0.0303955,0.00354693,0.0174664,-0.00480285,0.0189628,0.00205058,-1.26877,0.0120168,0.0301769,1882,1478,-0.0165697,-0.0303525
665,-454,-0.248291,-0.0734863,0.0044796,0.0213114,-0.00490964,0.0226388,0.0031522,-1.30674,0.0141592,0.0423165,1889,1478,-0.248282,0.0734671
672,-454,-0.0596924,-0.224121,0.00534554,0.0251993,-0.00460038,0.0262135,0.00433138,-1.35382,0.0162257,0.0468954,1896,1478,-0.0596338,0.22412
679,-454,0.272217,-0.20105,0.00609973,0.0288416,-0.0037791,0.0294532,0.00548819,-1.41037,0.0180858,0.0438127,1903,1478,0.272258,0.200993
686,-454,0.124023,-0.430664,0,0,0,0,0,0,0,-1,1910,1478,0.123963,0.430683
693,-454,-0.0845947,-0.398438,0,0,0,0,0,0,0,-1,1917,1478,-0.0845603,0.398396
700,-454,0,0,0,0,0,0,0,0,0,-1,1924,1478,0,0
707,-454,0,0,0,0,0,0,0,0,0,-1,1931,1478,0,0
714,-454,0,0,0,0,0,0,0,0,0,-1,1938,1478,0,0
721,-454,0,0,0,0,0,0,0,0,0,-1,1945,1478,0,0
728,-454,0,0,0,0,0,0,0,0,0,-1,1952,1478,0,0
735,-454,0,0,0,0,0,0,0,0,0,-1,1959,1478,0,0
742,-454,0,0,0,0,0,0,0,0,0,-1,1966,1478,0,0
749,-454,0,0,0,0,0,0,0,0,0,-1,1973,1478,0,0
756,-454,0,0,0,0,0,0,0,0,0,-1,1980,1478,0,0
763,-454,0,0,0,0,0,0,0,0,0,-1,1987,1478,0,0
770,-454,0,0,0,0,0,0,0,0,0,-1,1994,1478,0,0
777,-454,0,0,0,0,0,0,0,0,0,-1,2001,1478,0,0
784,-454,0,0,0,0,0,0,0,0,0,-1,2008,1478,0,0
791,-454,0,0,0,0,0,0,0,0,0,-1,2015,1478,0,0
798,-454,0,0,0,0,0,0,0,0,0,-1,2022,1478,0,0
805,-454,0,0,0,0,0,0,0,0,0,-1,2029,1478,0,0
812,-454,0,0,0,0,0,0,0,0,0,-1,2036,1478,0,0
-700,-461,0,0,0,0,0,0,0,0,0,-1,524,1485,0,0
-693,-461,0,0,0,0,0,0,0,0,0,-1,531,1485,0,0
-686,-461,0,0,0,0,0,0,0,0,0,-1,538,1485,0,0
-679,-461,0,0,0,0,0,0,0,0,0,-1,545,1485,0,0
-672,-461,0,0,0,0,0,0,0,0,0,-1,552,1485,0,0
-665,-461,0,0,0,0,0,0,0,0,0,-1,559,1485,0,0
-658,-461,0,0,0,0,0,0,0,0,0,-1,566,1485,0,0
-651,-461,0,0,0,0,0,0,0,0,0,-1,573,1485,0,0
-644,-461,0,0,0,0,0,0,0,0,0,-1,580,1485,0,0
-637,-461,0,0,0,0,0,0,0,0,0,-1,587,1485,0,0
-630,-461,0,0,0,0,0,0,0,0,0,-1,594,1485,0,0
-623,-461,0,0,0,0,0,0,0,0,0,-1,601,1485,0,0
-616,-461,0,0,0,0,0,0,0,0,0,-1,608,1485,0,0
-609,-461,0,0,0,0,0,0,0,0,0,-1,615,1485,0,0
-602,-461,0,0,0,0,0,0,0,0,0,-1,622,1485,0,0
-595,-461,0,0,0,0,0,0,0,0,0,-1,629,1485,0,0
-588,-461,0,0,0,0,0,0,0,0,0,-1,636,1485,0,0
-581,-461,0,0,0,0,0,0,0,0,0,-1,643,1485,0,0
-574,-461,0,0,0,0,0,0,0,0,0,-1,650,1485,0,0
-567,-461,1.44855,-1.33777,0,0,0,0,0,0,0,-1,657,1485,1.44855,1.33773
-560,-461,0.865845,-0.500244,0,0,0,0,0,0,0,-1,664,1485,0.865829,0.50024
-553,-461,-1.974,3.61304,0,0,0,0,0,0,0,-1,671,1485,-1.97402,-3.61301
-546,-461,-1.94641,2.9021,-0.00905588,0.00339845,0.000676059,0.00343504,-0.00909247,1.51673,0.00747457,0.0481247,678,1485,-1.9464,-2.90208
-539,-461,-1.59375,2.29224,-0.00337013,-0.00113354,-0.00422757,0.00212114,-0.00662481,-0.914699,0.00526791,0.0433118,685,1485,-1.59375,-2.29229
-532,-461,-1.06451,1.55933,0.00196277,-0.00424874,-0.00685543,0.00638314,-0.00866911,-0.57271,0.00872376,0.038898,692,1485,-1.06449,-1.55935
-525,-461,-0.789734,1.04517,0.00530296,-0.00575172,-0.00815083,0.00962384,-0.0100726,-0.487449,0.0113727,0.0375634,699,1485,-0.789717,-1.04522
-518,-461,-0.343201,0.549438,0.00677992,-0.00602871,-0.00856821,0.0110728,-0.0103216,-0.464465,0.0123546,0.0301176,706,1485,-0.34321,-0.549482
-511,-461,-0.0161743,0.00195313,0,0,0,0,0,0,0,-1,713,1485,-0.0161985,-0.00199127
-504,-461,-0.017395,0.0410156,0.00780204,-0.00542171,-0.00766019,0.0113092,-0.0089289,-0.429359,0.0117114,0.00894157,720,1485,-0.0174184,-0.0409568
-497,-461,-0.0234985,0.0452881,0.00624772,-0.00414639,-0.00600742,0.00899412,-0.00689279,-0.428799,0.00919902,0.00988309,727,1485,-0.0234851,-0.0453425
-490,-461,-0.0318604,0.0419922,0.00486041,-0.00242113,-0.00472385,0.0071837,-0.00474442,-0.457083,0.00693454,0.0112624,734,1485,-0.0318883,-0.0420009
-483,-461,-0.0221558,0.0368652,0.00362084,-0.00159258,-0.00345084,0.00533886,-0.00331059,-0.461929,0.00503932,0.0118358,741,1485,-0.0221575,-0.0368402
-476,-461,-0.0183105,0.0372314,0.00180527,-0.000577927,-0.00183157,0.00279875,-0.00157141,-0.497004,0.00255606,0.00955007,748,1485,-0.0183035,-0.0372714
-469,-461,-0.0360718,0.0461426,0.000503263,0.000111342,-0.000830086,0.0011602,-0.0005456,-0.669484,0.00100593,0.0103874,755,1485,-0.0360504,-0.0461121
-462,-461,-0.0553589,0.0303955,-0.000164934,0.000361914,-0.00062313,0.000775013,-0.000578033,-0.985377,0.000783936,0.0165299,762,1485,-0.0553478,-0.0304232
-455,-461,-0.0567017,0.0500488,-0.000752501,0.000773305,-0.000533529,0.000941355,-0.000920551,-1.26565,0.00107499,0.0213493,769,1485,-0.056708,-0.0500594
-448,-461,-0.041687,0.057251,-0.000824685,0.0012093,-0.000707843,0.00143138,-0.00104677,-1.26677,0.0014365,0.0164614,776,1485,-0.0416686,-0.0572791
-441,-461,-0.0106812,0.0427246,-0.000749175,0.00181734,-0.00104699,0.00219026,-0.0011221,-1.22862,0.00194526,0.0124894,783,1485,-0.0106932,-0.0427114
-434,-461,0.0344238,0.0057373,-0.000641852,0.00242678,-0.00120904,0.00284589,-0.00106097,-1.23711,0.00233278,0.0181577,790,1485,0.0344501,-0.0057059
-427,-461,0.0266113,-0.00854492,-0.000607167,0.00269354,-0.00123789,0.00310621,-0.00101983,-1.24902,0.00248161,0.024684,797,1485,0.0266104,0.00854511
-420,-461,-0.191589,0.0244141,-0.000458426,0.00333809,-0.00123292,0.00370334,-0.000823675,-1.28279,0.00278436,0.037369,804,1485,-0.191618,-0.0244389
-413,-461,-0.462341,0.0515137,-0.000243176,0.00438726,-0.000980128,0.00458618,-0.000442095,-1.37056,0.00321496,0.0446378,811,1485,-0.462313,-0.0514866
-406,-461,-0.676147,0.12146,0.000374066,0.00615647,-0.000822949,0.00627131,0.000259225,-1.43214,0.0040972,0.0445613,818,1485,-0.676162,-0.12148
-399,-461,-0.64624,0.409546,0.0013938,0.00810229,-0.00138257,0.00837606,0.00112003,-1.37531,0.00525067,0.0432362,825,1485,-0.64622,-0.409501
-392,-461,0.508911,-0.132813,0,0,0,0,0,0,0,-1,832,1485,0.508933,0.13277
-385,-461,0.413452,-0.0477295,0,0,0,0,0,0,0,-1,839,1485,0.413447,0.0476859
-378,-461,0.317932,0.0373535,0,0,0,0,0,0,0,-1,846,1485,0.317961,-0.0373986
-371,-461,2.12866,-1.3938,0,0,0,0,0,0,0,-1,853,1485,2.12865,1.3938
-364,-461,2.06238,-1.18274,0,0,0,0,0,0,0,-1,860,1485,2.06239,1.18274
-357,-461,1.85126,-1.01428,0,0,0,0,0,0,0,-1,867,1485,1.85123,1.01425
-350,-461,0,0,0,0,0,0,0,0,0,-1,874,1485,0,0
-343,-461,0,0,0,0,0,0,0,0,0,-1,881,1485,0,0
-336,-461,0,0,0,0,0,0,0,0,0,-1,888,1485,0,0
-329,-461,0,0,0,0,0,0,0,0,0,-1,895,1485,0,0
-322,-461,0,0,0,0,0,0,0,0,0,-1,902,1485,0,0
-315,-461,0,0,0,0,0,0,0,0,0,-1,909,1485,0,0
-308,-461,0,0,0,0,0,0,0,0,0,-1,916,1485,0,0
-301,-461,0,0,0,0,0,0,0,0,0,-1,923,1485,0,0
-294,-461,0,0,0,0,0,0,0,0,0,-1,930,1485,0,0
-287,-461,0,0,0,0,0,0,0,0,0,-1,937,1485,0,0
-280,-461,0,0,0,0,0,0,0,0,0,-1,944,1485,0,0
-273,-461,0,0,0,0,0,0,0,0,0,-1,951,1485,0,0
-266,-461,0,0,0,0,0,0,0,0,0,-1,958,1485,0,0
-259,-461,0,0,0,0,0,0,0,0,0,-1,965,1485,0,0
-252,-461,0,0,0,0,0,0,0,0,0,-1,972,1485,0,0
-245,-461,0,0,0,0,0,0,0,0,0,-1,979,1485,0,0
-238,-461,0,0,0,0,0,0,0,0,0,-1,986,1485,0,0
-231,-461,0,0,0,0,0,0,0,0,0,-1,993,1485,0,0
-224,-461,0,0,0,0,0,0,0,0,0,-1,1000,1485,0,0
-217,-461,0,0,0,0,0,0,0,0,0,-1,1007,1485,0,0
-210,-461,0,0,0,0,0,0,0,0,0,-1,1014,1485,0,0
-203,-461,0,0,0,0,0,0,0,0,0,-1,1021,1485,0,0
-196,-461,0,0,0,0,0,0,0,0,0,-1,1028,1485,0,0
-189,-461,0,0,0,0,0,0,0,0,0,-1,1035,1485,0,0
-182,-461,0,0,0,0,0,0,0,0,0,-1,1042,1485,0,0
-175,-461,0,0,0,0,0,0,0,0,0,-1,1049,1485,0,0
-168,-461,0,0,0,0,0,0,0,0,0,-1,1056,1485,0,0
-161,-461,0,0,0,0,0,0,0,0,0,-1,1063,1485,0,0
-154,-461,0,0,0,0,0,0,0,0,0,-1,1070,1485,0,0
-147,-461,0,0,0,0,0,0,0,0,0,-1,1077,1485,0,0
-140,-461,0,0,0,0,0,0,0,0,0,-1,1084,1485,0,0
-133,-461,0,0,0,0,0,0,0,0,0,-1,1091,1485,0,0
-126,-461,0,0,0,0,0,0,0,0,0,-1,1098,1485,0,0
-119,-461,0,0,0,0,0,0,0,0,0,-1,1105,1485,0,0
-112,-461,0,0,0,0,0,0,0,0,0,-1,1112,1485,0,0
-105,-461,0,0,0,0,0,0,0,0,0,-1,1119,1485,0,0
-98,-461,0,0,0,0,0,0,0,0,0,-1,1126,1485,0,0
-91,-461,0,0,0,0,0,0,0,0,0,-1,1133,1485,0,0
-84,-461,0,0,0,0,0,0,0,0,0,-1,1140,1485,0,0
-77,-461,0,0,0,0,0,0,0,0,0,-1,1147,1485,0,0
-70,-461,0,0,0,0,0,0,0,0,0,-1,1154,1485,0,0
-63,-461,0,0,0,0,0,0,0,0,0,-1,1161,1485,0,0
-56,-461,0,0,0,0,0,0,0,0,0,-1,1168,1485,0,0
-49,-461,0,0,0,0,0,0,0,0,0,-1,1175,1485,0,0
-42,-461,0,0,0,0,0,0,0,0,0,-1,1182,1485,0,0
-35,-461,0,0,0,0,0,0,0,0,0,-1,1189,1485,0,0
-28,-461,0,0,0,0,0,0,0,0,0,-1,1196,1485,0,0
-21,-461,0,0,0,0,0,0,0,0,0,-1,1203,1485,0,0
-14,-461,0,0,0,0,0,0,0,0,0,-1,1210,1485,0,0
-7,-461,0,0,0,0,0,0,0,0,0,-1,1217,1485,0,0
0,-461,0,0,0,0,0,0,0,0,0,-1,1224,1485,0,0
7,-461,0,0,0,0,0,0,0,0,0,-1,1231,1485,0,0
14,-461,0,0,0,0,0,0,0,0,0,-1,1238,1485,0,0
21,-461,0,0,0,0,0,0,0,0,0,-1,1245,1485,0,0
28,-461,0,0,0,0,0,0,0,0,0,-1,1252,1485,0,0
35,-461,0,0,0,0,0,0,0,0,0,-1,1259,1485,0,0
42,-461,0,0,0,0,0,0,0,0,0,-1,1266,1485,0,0
49,-461,0,0,0,0,0,0,0,0,0,-1,1273,1485,0,0
56,-461,0,0,0,0,0,0,0,0,0,-1,1280,1485,0,0
63,-461,0,0,0,0,0,0,0,0,0,-1,1287,1485,0,0
70,-461,0,0,0,0,0,0,0,0,0,-1,1294,1485,0,0
77,-461,0,0,0,0,0,0,0,0,0,-1,1301,1485,0,0
84,-461,0,0,0,0,0,0,0,0,0,-1,1308,1485,0,0
91,-461,0,0,0,0,0,0,0,0,0,-1,1315,1485,0,0
98,-461,0,0,0,0,0,0,0,0,0,-1,1322,1485,0,0
105,-461,0,0,0,0,0,0,0,0,0,-1,1329,1485,0,0
112,-461,0,0,0,0,0,0,0,0,0,-1,1336,1485,0,0
119,-461,0,0,0,0,0,0,0,0,0,-1,1343,1485,0,0
126,-461,0,0,0,0,0,0,0,0,0,-1,1350,1485,0,0
133,-461,0,0,0,0,0,0,0,0,0,-1,1357,1485,0,0
140,-461,0,0,0,0,0,0,0,0,0,-1,1364,1485,0,0
147,-461,0,0,0,0,0,0,0,0,0,-1,1371,1485,0,0
154,-461,0,0,0,0,0,0,0,0,0,-1,1378,1485,0,0
161,-461,0,0,0,0,0,0,0,0,0,-1,1385,1485,0,0
168,-461,0,0,0,0,0,0,0,0,0,-1,1392,1485,0,0
175,-461,0,0,0,0,0,0,0,0,0,-1,1399,1485,0,0
182,-461,0,0,0,0,0,0,0,0,0,-1,1406,1485,0,0
189,-461,0,0,0,0,0,0,0,0,0,-1,1413,1485,0,0
196,-461,0,0,0,0,0,0,0,0,0,-1,1420,1485,0,0
203,-461,0,0,0,0,0,0,0,0,0,-1,1427,1485,0,0
210,-461,0,0,0,0,0,0,0,0,0,-1,1434,1485,0,0
217,-461,0,0,0,0,0,0,0,0,0,-1,1441,1485,0,0
224,-461,0,0,0,0,0,0,0,0,0,-1,1448,1485,0,0
231,-461,0,0,0,0,0,0,0,0,0,-1,1455,1485,0,0
238,-461,0,0,0,0,0,0,0,0,0,-1,1462,1485,0,0
245,-461,0,0,0,0,0,0,0,0,0,-1,1469,1485,0,0
252,-461,0,0,0,0,0,0,0,0,0,-1,1476,1485,0,0
259,-461,0,0,0,0,0,0,0,0,0,-1,1483,1485,0,0
266,-461,0,0,0,0,0,0,0,0,0,-1,1490,1485,0,0
273,-461,0,0,0,0,0,0,0,0,0,-1,1497,1485,0,0
280,-461,0,0,0,0,0,0,0,0,0,-1,1504,1485,0,0
287,-461,0,0,0,0,0,0,0,0,0,-1,1511,1485,0,0
294,-461,0,0,0,0,0,0,0,0,0,-1,1518,1485,0,0
301,-461,0,0,0,0,0,0,0,0,0,-1,1525,1485,0,0
308,-461,0,0,0,0,0,0,0,0,0,-1,1532,1485,0,0
315,-461,0,0,0,0,0,0,0,0,0,-1,1539,1485,0,0
322,-461,0,0,0,0,0,0,0,0,0,-1,1546,1485,0,0
329,-461,0,0,0,0,0,0,0,0,0,-1,1553,1485,0,0
336,-461,0,0,0,0,0,0,0,0,0,-1,1560,1485,0,0
343,-461,0,0,0,0,0,0,0,0,0,-1,1567,1485,0,0
350,-461,0,0,0,0,0,0,0,0,0,-1,1574,1485,0,0
357,-461,0,0,0,0,0,0,0,0,0,-1,1581,1485,0,0
364,-461,0,0,0,0,0,0,0,0,0,-1,1588,1485,0,0
371,-461,0,0,0,0,0,0,0,0,0,-1,1595,1485,0,0
378,-461,0,0,0,0,0,0,0,0,0,-1,1602,1485,0,0
385,-461,0,0,0,0,0,0,0,0,0,-1,1609,1485,0,0
392,-461,0,0,0,0,0,0,0,0,0,-1,1616,1485,0,0
399,-461,0,0,0,0,0,0,0,0,0,-1,1623,1485,0,0
406,-461,0,0,0,0,0,0,0,0,0,-1,1630,1485,0,0
413,-461,0,0,0,0,0,0,0,0,0,-1,1637,1485,0,0
420,-461,0,0,0,0,0,0,0,0,0,-1,1644,1485,0,0
427,-461,0,0,0,0,0,0,0,0,0,-1,1651,1485,0,0
434,-461,0,0,0,0,0,0,0,0,0,-1,1658,1485,0,0
441,-461,0,0,0,0,0,0,0,0,0,-1,1665,1485,0,0
448,-461,0,0,0,0,0,0,0,0,0,-1,1672,1485,0,0
455,-461,0,0,0,0,0,0,0,0,0,-1,1679,1485,0,0
462,-461,0,0,0,0,0,0,0,0,0,-1,1686,1485,0,0
469,-461,0,0,0,0,0,0,0,0,0,-1,1693,1485,0,0
476,-461,0.665039,-1.0752,0,0,0,0,0,0,0,-1,1700,1485,0.665079,1.07515
483,-461,0.364014,0.762817,0,0,0,0,0,0,0,-1,1707,1485,0.364049,-0.762846
490,-461,-0.0435791,0.724487,0,0,0,0,0,0,0,-1,1714,1485,-0.0436017,-0.724499
497,-461,0.489014,0.536377,0.028814,0.0174477,-0.0181546,0.0421542,0.00410752,-0.63371,0.0268386,0.0418455,1721,1485,0.489073,-0.536319
504,-461,0.7052,-0.721802,0.0229164,0.0119044,-0.0152738,0.0336463,0.00117451,-0.612405,0.0220498,0.0454436,1728,1485,0.70516,0.721781
511,-461,0.602173,-0.352295,0.016955,0.00776885,-0.0122272,0.0254234,-0.000699466,-0.60573,0.0171868,0.0443236,1735,1485,0.602228,0.352242
518,-461,0.398315,0.236328,0.0109857,0.0054605,-0.00941002,0.0180302,-0.00158409,-0.642621,0.0125815,0.0421554,1742,1485,0.398369,-0.236291
525,-461,0.244751,0.170654,0.0049495,0.00306752,-0.00711101,0.0111815,-0.00316449,-0.719616,0.0087031,0.0434922,1749,1485,0.244755,-0.170679
532,-461,0.375977,-0.324341,0.000956475,0.0020268,-0.00438012,0.00590433,-0.00292105,-0.846187,0.00519147,0.0471354,1756,1485,0.375969,0.324309
539,-461,0.064209,-0.249023,-0.00108837,0.00172023,-0.00209421,0.0028374,-0.00220554,-1.08075,0.00291915,0.0476476,1763,1485,0.0642547,0.249083
546,-461,-0.00964355,-0.178345,-0.00199665,0.00194398,-0.000293782,0.00196576,-0.00201843,-1.49679,0.00230034,0.0459075,1770,1485,-0.00961659,0.178363
553,-461,0.0153809,0.0751953,-0.00319128,0.00188112,0.00139038,0.00223723,-0.00354739,1.32006,0.00336819,0.0373893,1777,1485,0.0153514,-0.0751559
560,-461,0.00280762,0.0744629,-0.00377509,0.00178847,0.00220653,0.00255733,-0.00454395,1.2355,0.00415306,0.0187998,1784,1485,0.00285097,-0.0744705
567,-461,-0.0178223,0.0203857,-0.00354912,0.00169782,0.0022242,0.00251378,-0.00436507,1.21919,0.00401916,0.0104621,1791,1485,-0.0177891,-0.0203257
574,-461,-0.0155029,0.00769043,-0.00290649,0.00152242,0.00172448,0.00211468,-0.00349875,1.23998,0.00327359,0.0117554,1798,1485,-0.0155251,-0.00774327
581,-461,0.000732422,0.027832,-0.00226824,0.00127248,0.00129327,0.00169454,-0.00269031,1.25534,0.00255326,0.0116625,1805,1485,0.000707228,-0.027821
588,-461,-0.0234375,0.0522461,-0.00163708,0.0010696,0.000569372,0.00118449,-0.00175198,1.37168,0.00170589,0.0101554,1812,1485,-0.0234612,-0.0522835
595,-461,-0.0327148,0.0531006,-0.00108659,0.000863605,4.43393e-05,0.000864612,-0.0010876,1.54808,0.00112956,0.00816174,1819,1485,-0.032718,-0.0530644
602,-461,-0.0283203,0.0385742,-0.000717919,0.00110033,-0.000371272,0.00117322,-0.000790808,-1.37694,0.00114108,0.00832377,1826,1485,-0.0282954,-0.038578
609,-461,-0.0186768,0.0372314,-0.000333693,0.00146551,-0.000886825,0.00182913,-0.000697319,-1.18167,0.00150665,0.0106094,1833,1485,-0.0186979,-0.0371864
616,-461,-0.0162354,0.0255127,4.53469e-05,0.00319262,-0.00194881,0.00412382,-0.000885852,-1.12504,0.00308716,0.0124601,1840,1485,-0.0162256,-0.0255313
623,-461,-0.0159912,0.0235596,0.000556274,0.0048314,-0.00275545,0.0061812,-0.000793524,-1.11529,0.00440917,0.0107479,1847,1485,-0.0159705,-0.0235141
630,-461,-0.0175781,0.0355225,0.00092202,0.00725824,-0.00328343,0.00865278,-0.000472524,-1.16916,0.00593231,0.00861617,1854,1485,-0.0175306,-0.0355352
637,-461,-0.0109863,0.045166,0.0014284,0.00997754,-0.00386233,0.011464,-5.80633e-05,-1.20341,0.0076621,0.0100945,1861,1485,-0.0109629,-0.045194
644,-461,-0.0168457,0.0407715,0.00228161,0.0134096,-0.00467714,0.0151143,0.000576926,-1.22129,0.0098895,0.0125658,1868,1485,-0.0167985,-0.0407716
651,-461,0.00585938,0.0626221,0.00327354,0.0174596,-0.00535206,0.0192522,0.00148087,-1.24759,0.0123708,0.020435,1875,1485,0.00581277,-0.0626463
658,-461,0.0308838,0.0507813,0.00452627,0.0221242,-0.00590216,0.0239203,0.00273008,-1.27537,0.0151193,0.0373232,1882,1485,0.0309318,-0.0508108
665,-461,-0.0821533,-0.353394,0.00580384,0.0272252,-0.00588033,0.0287332,0.0042958,-1.31975,0.0178962,0.0427434,1889,1485,-0.0821453,0.353364
672,-461,0.366089,-0.869751,0,0,0,0,0,0,0,-1,1896,1485,0.366098,0.86971
679,-461,0.332275,-0.445068,0.00802822,0.0373191,-0.003703,0.03778,0.00756733,-1.44697,0.0230815,0.0450165,1903,1485,0.332249,0.445026
686,-461,0.161255,-0.0737305,0.00877669,0.0413811,-0.00119908,0.0414252,0.00873265,-1.53409,0.0252151,0.0434368,1910,1485,0.161292,0.0737521
693,-461,0,0,0,0,0,0,0,0,0,-1,1917,1485,0,0
700,-461,0,0,0,0,0,0,0,0,0,-1,1924,1485,0,0
707,-461,0,0,0,0,0,0,0,0,0,-1,1931,1485,0,0
714,-461,0,0,0,0,0,0,0,0,0,-1,1938,1485,0,0
721,-461,0,0,0,0,0,0,0,0,0,-1,1945,1485,0,0
728,-461,0,0,0,0,0,0,0,0,0,-1,1952,1485,0,0
735,-461,0,0,0,0,0,0,0,0,0,-1,1959,1485,0,0
742,-461,0,0,0,0,0,0,0,0,0,-1,1966,1485,0,0
749,-461,0,0,0,0,0,0,0,0,0,-1,1973,1485,0,0
756,-461,0,0,0,0,0,0,0,0,0,-1,1980,1485,0,0
763,-461,0,0,0,0,0,0,0,0,0,-1,1987,1485,0,0
770,-461,0,0,0,0,0,0,0,0,0,-1,1994,1485,0,0
777,-461,0,0,0,0,0,0,0,0,0,-1,2001,1485,0,0
784,-461,0,0,0,0,0,0,0,0,0,-1,2008,1485,0,0
791,-461,0,0,0,0,0,0,0,0,0,-1,2015,1485,0,0
798,-461,0,0,0,0,0,0,0,0,0,-1,2022,1485,0,0
805,-461,0,0,0,0,0,0,0,0,0,-1,2029,1485,0,0
812,-461,0,0,0,0,0,0,0,0,0,-1,2036,1485,0,0
-700,-468,0,0,0,0,0,0,0,0,0,-1,524,1492,0,0
-693,-468,0,0,0,0,0,0,0,0,0,-1,531,1492,0,0
-686,-468,0,0,0,0,0,0,0,0,0,-1,538,1492,0,0
-679,-468,0,0,0,0,0,0,0,0,0,-1,545,1492,0,0
-672,-468,0,0,0,0,0,0,0,0,0,-1,552,1492,0,0
-665,-468,0,0,0,0,0,0,0,0,0,-1,559,1492,0,0
-658,-468,0,0,0,0,0,0,0,0,0,-1,566,1492,0,0
-651,-468,0,0,0,0,0,0,0,0,0,-1,573,1492,0,0
-644,-468,0,0,0,0,0,0,0,0,0,-1,580,1492,0,0
-637,-468,0,0,0,0,0,0,0,0,0,-1,587,1492,0,0
-630,-468,0,0,0,0,0,0,0,0,0,-1,594,1492,0,0
-623,-468,0,0,0,0,0,0,0,0,0,-1,601,1492,0,0
-616,-468,0,0,0,0,0,0,0,0,0,-1,608,1492,0,0
-609,-468,0,0,0,0,0,0,0,0,0,-1,615,1492,0,0
-602,-468,0,0,0,0,0,0,0,0,0,-1,622,1492,0,0
-595,-468,0,0,0,0,0,0,0,0,0,-1,629,1492,0,0
-588,-468,0,0,0,0,0,0,0,0,0,-1,636,1492,0,0
-581,-468,0,0,0,0,0,0,0,0,0,-1,643,1492,0,0
-574,-468,0,0,0,0,0,0,0,0,0,-1,650,1492,0,0
-567,-468,-0.110107,1.45898,0,0,0,0,0,0,0,-1,657,1492,-0.110092,-1.45901
-560,-468,-2.11029,3.44019,0,0,0,0,0,0,0,-1,664,1492,-2.11026,-3.44019
-553,-468,-2.77728,3.77429,0,0,0,0,0,0,0,-1,671,1492,-2.77729,-3.77424
-546,-468,-2.81439,3.20886,0,0,0,0,0,0,0,-1,678,1492,-2.81439,-3.20884
-539,-468,-1.34753,2.73999,0,0,0,0,0,0,0,-1,685,1492,-1.34755,-2.73997
-532,-468,-0.966675,2.22314,0.00236077,0.000320687,-0.00896209,0.0103607,-0.00767922,-0.728733,0.0104536,0.0426385,692,1492,-0.96669,-2.2232
-525,-468,-0.56604,1.79675,0.00597616,-0.00230681,-0.0102887,0.0129257,-0.00925631,-0.594057,0.012865,0.0422732,699,1492,-0.566057,-1.79676
-518,-468,-0.274658,0.964722,0.00753238,-0.00340748,-0.0105474,0.0139438,-0.00981892,-0.546187,0.0137881,0.0387328,706,1492,-0.274673,-0.964748
-511,-468,0.0194092,0.180298,0,0,0,0,0,0,0,-1,713,1492,0.0194071,-0.180338
-504,-468,-0.0280151,0.0496826,0.00829431,-0.00380534,-0.00908925,0.013163,-0.00867407,-0.491766,0.0126961,0.0107662,720,1492,-0.028042,-0.0496496
-497,-468,-0.0130005,0.0545654,0.00662191,-0.00288265,-0.00717468,0.0104755,-0.0067362,-0.492888,0.010015,0.007801,727,1492,-0.0130206,-0.0545176
-490,-468,-0.00744629,0.0593262,0.0051161,-0.00150905,-0.00566538,0.00836628,-0.00475922,-0.52085,0.0076728,0.00775837,734,1492,-0.00745634,-0.0592719
-483,-468,-0.015564,0.0534668,0.00381109,-0.00113928,-0.00422177,0.00622977,-0.00355796,-0.52026,0.0057207,0.00866598,741,1492,-0.0155501,-0.0534346
-476,-468,-0.0220947,0.0410156,0.00202074,-0.000282279,-0.00249404,0.00361627,-0.00187781,-0.569126,0.0032245,0.00861201,748,1492,-0.0220941,-0.0410101
-469,-468,-0.0199585,0.0340576,0.000652747,0.000313795,-0.00134265,0.00183657,-0.00087003,-0.722618,0.00159553,0.0113617,755,1492,-0.0199443,-0.0340727
-462,-468,-0.038269,0.0134277,-8.5376e-05,0.000513407,-0.000985445,0.00124394,-0.000815906,-0.932874,0.00119778,0.0209624,762,1492,-0.0382485,-0.0134361
-455,-468,-0.0429077,0.00549316,-0.000597326,0.000867892,-0.00091347,0.00130624,-0.00103568,-1.12338,0.00135511,0.0219048,769,1492,-0.042912,-0.00548586
-448,-468,-0.0259399,0.0426025,-0.000666499,0.00124387,-0.00108433,0.00173374,-0.00115636,-1.14648,0.00167966,0.0129468,776,1492,-0.0259688,-0.0426408
-441,-468,-0.0135498,0.0333252,-0.000579017,0.00174567,-0.00137172,0.00238128,-0.00121463,-1.13688,0.00211221,0.0113373,783,1492,-0.0135435,-0.0332757
-434,-468,0.0020752,0.020752,-0.000465872,0.00222115,-0.00148788,0.00288234,-0.00112706,-1.15262,0.00238763,0.0107523,790,1492,0.00205811,-0.0207141
-427,-468,-0.012146,0.00854492,-0.000414966,0.00243113,-0.001464,0.00304974,-0.00103358,-1.17101,0.00245143,0.0121547,797,1492,-0.0121301,-0.00855253
-420,-468,-0.0569458,0.0302734,-0.000294787,0.00306067,-0.0014063,0.00357211,-0.000806228,-1.22199,0.00269072,0.0201279,804,1492,-0.0569292,-0.0303291
-413,-468,-0.0453491,0.0130615,-0.000120316,0.00411749,-0.00115855,0.00441354,-0.000416366,-1.32062,0.00309051,0.0394696,811,1492,-0.0453207,-0.0130258
-406,-468,0.15155,-0.530396,0.00049443,0.00592133,-0.00108369,0.00612973,0.000286033,-1.38081,0.00399456,0.0407282,818,1492,0.151531,0.5304
-399,-468,0.0259399,-0.618408,0.00139949,0.00780184,-0.00167739,0.00821468,0.000986644,-1.32947,0.005179,0.0413914,825,1492,0.025944,0.618411
-392,-468,0.526001,-0.167847,0,0,0,0,0,0,0,-1,832,1492,0.525989,0.167793
-385,-468,0.422974,-0.0368652,0,0,0,0,0,0,0,-1,839,1492,0.422963,0.0368875
-378,-468,0.319946,0.0939941,0,0,0,0,0,0,0,-1,846,1492,0.319936,-0.0940179
-371,-468,1.37592,-1.1825,0,0,0,0,0,0,0,-1,853,1492,1.37592,1.18254
-364,-468,-1.09656,1.65857,0,0,0,0,0,0,0,-1,860,1492,-1.09657,-1.65863
-357,-468,-1.54852,1.93628,0,0,0,0,0,0,0,-1,867,1492,-1.54854,-1.93628
-350,-468,-1.98639,2.19495,0,0,0,0,0,0,0,-1,874,1492,-1.98639,-2.19498
-343,-468,0,0,0,0,0,0,0,0,0,-1,881,1492,0,0
-336,-468,0,0,0,0,0,0,0,0,0,-1,888,1492,0,0
-329,-468,0,0,0,0,0,0,0,0,0,-1,895,1492,0,0
-322,-468,0,0,0,0,0,0,0,0,0,-1,902,1492,0,0
-315,-468,0,0,0,0,0,0,0,0,0,-1,909,1492,0,0
-308,-468,0,0,0,0,0,0,0,0,0,-1,916,1492,0,0
-301,-468,0,0,0,0,0,0,0,0,0,-1,923,1492,0,0
-294,-468,0,0,0,0,0,0,0,0,0,-1,930,1492,0,0
-287,-468,0,0,0,0,0,0,0,0,0,-1,937,1492,0,0
-280,-468,0,0,0,0,0,0,0,0,0,-1,944,1492,0,0
-273,-468,0,0,0,0,0,0,0,0,0,-1,951,1492,0,0
-266,-468,0,0,0,0,0,0,0,0,0,-1,958,1492,0,0
-259,-468,0,0,0,0,0,0,0,0,0,-1,965,1492,0,0
-252,-468,0,0,0,0,0,0,0,0,0,-1,972,1492,0,0
-245,-468,0,0,0,0,0,0,0,0,0,-1,979,1492,0,0
-238,-468,0,0,0,0,0,0,0,0,0,-1,986,1492,0,0
-231,-468,0,0,0,0,0,0,0,0,0,-1,993,1492,0,0
-224,-468,0,0,0,0,0,0,0,0,0,-1,1000,1492,0,0
-217,-468,0,0,0,0,0,0,0,0,0,-1,1007,1492,0,0
-210,-468,0,0,0,0,0,0,0,0,0,-1,1014,1492,0,0
-203,-468,0,0,0,0,0,0,0,0,0,-1,1021,1492,0,0
-196,-468,0,0,0,0,0,0,0,0,0,-1,1028,1492,0,0
-189,-468,0,0,0,0,0,0,0,0,0,-1,1035,1492,0,0
-182,-468,0,0,0,0,0,0,0,0,0,-1,1042,1492,0,0
-175,-468,0,0,0,0,0,0,0,0,0,-1,1049,1492,0,0
-168,-468,0,0,0,0,0,0,0,0,0,-1,1056,1492,0,0
-161,-468,0,0,0,0,0,0,0,0,0,-1,1063,1492,0,0
-154,-468,0,0,0,0,0,0,0,0,0,-1,1070,1492,0,0
-147,-468,0,0,0,0,0,0,0,0,0,-1,1077,1492,0,0
-140,-468,0,0,0,0,0,0,0,0,0,-1,1084,1492,0,0
-133,-468,0,0,0,0,0,0,0,0,0,-1,1091,1492,0,0
-126,-468,0,0,0,0,0,0,0,0,0,-1,1098,1492,0,0
-119,-468,0,0,0,0,0,0,0,0,0,-1,1105,1492,0,0
-112,-468,0,0,0,0,0,0,0,0,0,-1,1112,1492,0,0
-105,-468,0,0,0,0,0,0,0,0,0,-1,1119,1492,0,0
-98,-468,0,0,0,0,0,0,0,0,0,-1,1126,1492,0,0
-91,-468,0,0,0,0,0,0,0,0,0,-1,1133,1492,0,0
-84,-468,0,0,0,0,0,0,0,0,0,-1,1140,1492,0,0
-77,-468,0,0,0,0,0,0,0,0,0,-1,1147,1492,0,0
-70,-468,0,0,0,0,0,0,0,0,0,-1,1154,1492,0,0
-63,-468,0,0,0,0,0,0,0,0,0,-1,1161,1492,0,0
-56,-468,0,0,0,0,0,0,0,0,0,-1,1168,1492,0,0
-49,-468,0,0,0,0,0,0,0,0,0,-1,1175,1492,0,0
-42,-468,0,0,0,0,0,0,0,0,0,-1,1182,1492,0,0
-35,-468,0,0,0,0,0,0,0,0,0,-1,1189,1492,0,0
-28,-468,0,0,0,0,0,0,0,0,0,-1,1196,1492,0,0
-21,-468,0,0,0,0,0,0,0,0,0,-1,1203,1492,0,0
-14,-468,0,0,0,0,0,0,0,0,0,-1,1210,1492,0,0
-7,-468,0,0,0,0,0,0,0,0,0,-1,1217,1492,0,0
0,-468,0,0,0,0,0,0,0,0,0,-1,1224,1492,0,0
7,-468,0,0,0,0,0,0,0,0,0,-1,1231,1492,0,0
14,-468,0,0,0,0,0,0,0,0,0,-1,1238,1492,0,0
21,-468,0,0,0,0,0,0,0,0,0,-1,1245,1492,0,0
28,-468,0,0,0,0,0,0,0,0,0,-1,1252,1492,0,0
35,-468,0,0,0,0,0,0,0,0,0,-1,1259,1492,0,0
42,-468,0,0,0,0,0,0,0,0,0,-1,1266,1492,0,0
49,-468,0,0,0,0,0,0,0,0,0,-1,1273,1492,0,0
56,-468,0,0,0,0,0,0,0,0,0,-1,1280,1492,0,0
63,-468,0,0,0,0,0,0,0,0,0,-1,1287,1492,0,0
70,-468,0,0,0,0,0,0,0,0,0,-1,1294,1492,0,0
77,-468,0,0,0,0,0,0,0,0,0,-1,1301,1492,0,0
84,-468,0,0,0,0,0,0,0,0,0,-1,1308,1492,0,0
91,-468,0,0,0,0,0,0,0,0,0,-1,1315,1492,0,0
98,-468,0,0,0,0,0,0,0,0,0,-1,1322,1492,0,0
105,-468,0,0,0,0,0,0,0,0,0,-1,1329,1492,0,0
112,-468,0,0,0,0,0,0,0,0,0,-1,1336,1492,0,0
119,-468,0,0,0,0,0,0,0,0,0,-1,1343,1492,0,0
126,-468,0,0,0,0,0,0,0,0,0,-1,1350,1492,0,0
133,-468,0,0,0,0,0,0,0,0,0,-1,1357,1492,0,0
140,-468,0,0,0,0,0,0,0,0,0,-1,1364,1492,0,0
147,-468,0,0,0,0,0,0,0,0,0,-1,1371,1492,0,0
154,-468,0,0,0,0,0,0,0,0,0,-1,1378,1492,0,0
161,-468,0,0,0,0,0,0,0,0,0,-1,1385,1492,0,0
168,-468,0,0,0,0,0,0,0,0,0,-1,1392,1492,0,0
175,-468,0,0,0,0,0,0,0,0,0,-1,1399,1492,0,0
182,-468,0,0,0,0,0,0,0,0,0,-1,1406,1492,0,0
189,-468,0,0,0,0,0,0,0,0,0,-1,1413,1492,0,0
196,-468,0,0,0,0,0,0,0,0,0,-1,1420,1492,0,0
203,-468,0,0,0,0,0,0,0,0,0,-1,1427,1492,0,0
210,-468,0,0,0,0,0,0,0,0,0,-1,1434,1492,0,0
217,-468,0,0,0,0,0,0,0,0,0,-1,1441,1492,0,0
224,-468,0,0,0,0,0,0,0,0,0,-1,1448,1492,0,0
231,-468,0,0,0,0,0,0,0,0,0,-1,1455,1492,0,0
238,-468,0,0,0,0,0,0,0,0,0,-1,1462,1492,0,0
245,-468,0,0,0,0,0,0,0,0,0,-1,1469,1492,0,0
252,-468,0,0,0,0,0,0,0,0,0,-1,1476,1492,0,0
259,-468,0,0,0,0,0,0,0,0,0,-1,1483,1492,0,0
266,-468,0,0,0,0,0,0,0,0,0,-1,1490,1492,0,0
273,-468,0,0,0,0,0,0,0,0,0,-1,1497,1492,0,0
280,-468,0,0,0,0,0,0,0,0,0,-1,1504,1492,0,0
287,-468,0,0,0,0,0,0,0,0,0,-1,1511,1492,0,0
294,-468,0,0,0,0,0,0,0,0,0,-1,1518,1492,0,0
301,-468,0,0,0,0,0,0,0,0,0,-1,1525,1492,0,0
308,-468,0,0,0,0,0,0,0,0,0,-1,1532,1492,0,0
315,-468,0,0,0,0,0,0,0,0,0,-1,1539,1492,0,0
322,-468,0,0,0,0,0,0,0,0,0,-1,1546,1492,0,0
329,-468,0,0,0,0,0,0,0,0,0,-1,1553,1492,0,0
336,-468,0,0,0,0,0,0,0,0,0,-1,1560,1492,0,0
343,-468,0,0,0,0,0,0,0,0,0,-1,1567,1492,0,0
350,-468,0,0,0,0,0,0,0,0,0,-1,1574,1492,0,0
357,-468,0,0,0,0,0,0,0,0,0,-1,1581,1492,0,0
364,-468,0,0,0,0,0,0,0,0,0,-1,1588,1492,0,0
371,-468,0,0,0,0,0,0,0,0,0,-1,1595,1492,0,0
378,-468,0,0,0,0,0,0,0,0,0,-1,1602,1492,0,0
385,-468,0,0,0,0,0,0,0,0,0,-1,1609,1492,0,0
392,-468,0,0,0,0,0,0,0,0,0,-1,1616,1492,0,0
399,-468,0,0,0,0,0,0,0,0,0,-1,1623,1492,0,0
406,-468,0,0,0,0,0,0,0,0,0,-1,1630,1492,0,0
413,-468,0,0,0,0,0,0,0,0,0,-1,1637,1492,0,0
420,-468,0,0,0,0,0,0,0,0,0,-1,1644,1492,0,0
427,-468,0,0,0,0,0,0,0,0,0,-1,1651,1492,0,0
434,-468,0,0,0,0,0,0,0,0,0,-1,1658,1492,0,0
441,-468,0,0,0,0,0,0,0,0,0,-1,1665,1492,0,0
448,-468,0,0,0,0,0,0,0,0,0,-1,1672,1492,0,0
455,-468,0,0,0,0,0,0,0,0,0,-1,1679,1492,0,0
462,-468,0,0,0,0,0,0,0,0,0,-1,1686,1492,0,0
469,-468,0.100708,3.37292,0,0,0,0,0,0,0,-1,1693,1492,0.100749,-3.37296
476,-468,0.317505,1.21204,0,0,0,0,0,0,0,-1,1700,1492,0.317552,-1.21206
483,-468,0.41394,0.9823,0,0,0,0,0,0,0,-1,1707,1492,0.41395,-0.982316
490,-468,0.508179,0.74231,0.0291354,0.0259511,-0.0147117,0.0423408,0.0127457,-0.731495,0.0250824,0.0431164,1714,1492,0.508228,-0.742259
497,-468,0.602539,0.474854,0.024083,0.018254,-0.0135129,0.0349922,0.00734492,-0.679184,0.0213061,0.0433978,1721,1492,0.602552,-0.474802
504,-468,0.544067,0.150269,0.019584,0.0124335,-0.0114336,0.0279882,0.00402924,-0.633867,0.0174713,0.0442305,1728,1492,0.544127,-0.150257
511,-468,0.443359,0.218384,0.0148824,0.007857,-0.00933309,0.021342,0.00139747,-0.605412,0.0137858,0.0445103,1735,1492,0.443307,-0.218421
518,-468,0.307617,0.380493,0.00991992,0.00492121,-0.00741418,0.0152447,-0.000403557,-0.622828,0.0103003,0.0416848,1742,1492,0.307639,-0.380471
525,-468,0.186035,0.162964,0.00448287,0.00214323,-0.00604424,0.00946946,-0.00284335,-0.689809,0.00744402,0.041446,1749,1492,0.186088,-0.163012
532,-468,-0.229858,-0.0136719,0.00113378,0.000775039,-0.00398281,0.00494126,-0.00303244,-0.762895,0.00464738,0.0414822,1756,1492,-0.229856,0.0136318
539,-468,-0.517578,-0.036499,-0.000279436,0.000222347,-0.00217843,0.00216428,-0.00222137,-0.842731,0.00253213,0.0435202,1763,1492,-0.517592,0.0365409
546,-468,-0.287354,-0.109863,-0.00075827,0.000396906,-0.000671307,0.000704903,-0.00106627,-1.14065,0.00102966,0.0444805,1770,1492,-0.287297,0.109871
553,-468,-0.0334473,0.043457,-0.00161434,0.00031946,0.000762047,0.000583662,-0.00187854,1.23706,0.00148564,0.0299416,1777,1492,-0.0334008,-0.0433987
560,-468,-0.0258789,0.0404053,-0.00206574,0.000285487,0.0013995,0.000937625,-0.00271788,1.13473,0.00219235,0.0129812,1784,1492,-0.0258875,-0.0404435
567,-468,-0.00305176,0.0247803,-0.00191817,0.000320368,0.00134994,0.000954694,-0.00255249,1.13152,0.00209375,0.0120099,1791,1492,-0.00306213,-0.024743
574,-468,-0.00292969,0.0167236,-0.00152193,0.000324848,0.000890492,0.000684277,-0.00188136,1.18716,0.00153407,0.0127338,1798,1492,-0.00291981,-0.0167843
581,-468,0.00366211,0.0231934,-0.00120997,0.000295843,0.000544958,0.00047237,-0.00138649,1.25753,0.00111563,0.0130996,1805,1492,0.00360877,-0.0232299
588,-468,-0.0114746,0.0395508,-0.00094616,0.000373781,-5.91363e-05,0.000376425,-0.000948804,-1.52611,0.000788551,0.0117399,1812,1492,-0.0114187,-0.0395363
595,-468,-0.0162354,0.039917,-0.000724751,0.000405689,-0.000520059,0.000608541,-0.000927603,-1.19889,0.000893247,0.00941865,1819,1492,-0.0162928,-0.0398686
602,-468,-0.0102539,0.0258789,-0.000573588,0.000815836,-0.0009226,0.00127603,-0.00103379,-1.10811,0.00133602,0.00809304,1826,1492,-0.0102346,-0.0258807
609,-468,-0.0250244,0.0227051,-0.000319707,0.00134444,-0.00151404,0.00223998,-0.00121525,-1.03666,0.00202391,0.00900056,1833,1492,-0.0250141,-0.0227335
616,-468,-0.020752,0.02771,3.08756e-05,0.00345573,-0.00272157,0.00495879,-0.00147218,-1.06621,0.00389057,0.0089714,1840,1492,-0.0208117,-0.0277236
623,-468,-0.0186768,0.0286865,0.000553423,0.00550541,-0.00366182,0.00744976,-0.00139093,-1.08267,0.00548921,0.00933433,1847,1492,-0.018722,-0.0286684
630,-468,-0.0205078,0.0151367,0.00096992,0.00838178,-0.00428114,0.0103382,-0.000986486,-1.14215,0.00724338,0.00945505,1854,1492,-0.0205014,-0.0151679
637,-468,-0.0102539,0.0205078,0.00154939,0.0116828,-0.00496102,0.0137072,-0.000474962,-1.18337,0.00930048,0.0124955,1861,1492,-0.0102437,-0.0205623
644,-468,-0.0065918,0.0133057,0.00256571,0.0159065,-0.00592139,0.0181556,0.000316632,-1.2078,0.0119996,0.0188492,1868,1492,-0.00660955,-0.0133568
651,-468,0.00390625,0.00317383,0.00384524,0.0209821,-0.00671467,0.0232996,0.00152768,-1.23845,0.0150497,0.0347335,1875,1492,0.00386841,-0.00317833
658,-468,-0.0511475,-0.116821,0.00544288,0.0268953,-0.00728562,0.0291356,0.00320252,-1.27247,0.0184491,0.0394568,1882,1492,-0.0511126,0.116761
665,-468,-0.0400391,-0.398926,0.00710321,0.0335236,-0.00711171,0.0353163,0.00531055,-1.32387,0.0219888,0.0399976,1889,1492,-0.0400004,0.398938
672,-468,0.44104,-1.59985,0,0,0,0,0,0,0,-1,1896,1492,0.441038,1.59987
679,-468,0.246094,-0.909668,0.010027,0.0470352,-0.00358112,0.0473786,0.00968367,-1.47521,0.0289037,0.0457351,1903,1492,0.246089,0.90967
686,-468,-0.00842285,-0.155273,0.0109527,0.0527005,0.000345548,0.0527034,0.0109498,1.56252,0.032114,0.045501,1910,1492,-0.00846945,0.155303
693,-468,0,0,0,0,0,0,0,0,0,-1,1917,1492,0,0
700,-468,0,0,0,0,0,0,0,0,0,-1,1924,1492,0,0
707,-468,0,0,0,0,0,0,0,0,0,-1,1931,1492,0,0
714,-468,0,0,0,0,0,0,0,0,0,-1,1938,1492,0,0
721,-468,0,0,0,0,0,0,0,0,0,-1,1945,1492,0,0
728,-468,0,0,0,0,0,0,0,0,0,-1,1952,1492,0,0
735,-468,0,0,0,0,0,0,0,0,0,-1,1959,1492,0,0
742,-468,0,0,0,0,0,0,0,0,0,-1,1966,1492,0,0
749,-468,0,0,0,0,0,0,0,0,0,-1,1973,1492,0,0
756,-468,0,0,0,0,0,0,0,0,0,-1,1980,1492,0,0
763,-468,0,0,0,0,0,0,0,0,0,-1,1987,1492,0,0
770,-468,0,0,0,0,0,0,0,0,0,-1,1994,1492,0,0
777,-468,0,0,0,0,0,0,0,0,0,-1,2001,1492,0,0
784,-468,0,0,0,0,0,0,0,0,0,-1,2008,1492,0,0
791,-468,0,0,0,0,0,0,0,0,0,-1,2015,1492,0,0
798,-468,0,0,0,0,0,0,0,0,0,-1,2022,1492,0,0
805,-468,0,0,0,0,0,0,0,0,0,-1,2029,1492,0,0
812,-468,0,0,0,0,0,0,0,0,0,-1,2036,1492,0,0
-700,-475,0,0,0,0,0,0,0,0,0,-1,524,1499,0,0
-693,-475,0,0,0,0,0,0,0,0,0,-1,531,1499,0,0
-686,-475,0,0,0,0,0,0,0,0,0,-1,538,1499,0,0
-679,-475,0,0,0,0,0,0,0,0,0,-1,545,1499,0,0
-672,-475,0,0,0,0,0,0,0,0,0,-1,552,1499,0,0
-665,-475,0,0,0,0,0,0,0,0,0,-1,559,1499,0,0
-658,-475,0,0,0,0,0,0,0,0,0,-1,566,1499,0,0
-651,-475,0,0,0,0,0,0,0,0,0,-1,573,1499,0,0
-644,-475,0,0,0,0,0,0,0,0,0,-1,580,1499,0,0
-637,-475,0,0,0,0,0,0,0,0,0,-1,587,1499,0,0
-630,-475,0,0,0,0,0,0,0,0,0,-1,594,1499,0,0
-623,-475,0,0,0,0,0,0,0,0,0,-1,601,1499,0,0
-616,-475,0,0,0,0,0,0,0,0,0,-1,608,1499,0,0
-609,-475,0,0,0,0,0,0,0,0,0,-1,615,1499,0,0
-602,-475,0,0,0,0,0,0,0,0,0,-1,622,1499,0,0
-595,-475,0,0,0,0,0,0,0,0,0,-1,629,1499,0,0
-588,-475,0,0,0,0,0,0,0,0,0,-1,636,1499,0,0
-581,-475,0,0,0,0,0,0,0,0,0,-1,643,1499,0,0
-574,-475,0,0,0,0,0,0,0,0,0,-1,650,1499,0,0
-567,-475,0,0,0,0,0,0,0,0,0,-1,657,1499,0,0
-560,-475,-2.98346,4.53064,0,0,0,0,0,0,0,-1,664,1499,-2.98344,-4.53066
-553,-475,-3.38599,4.31055,0,0,0,0,0,0,0,-1,671,1499,-3.38598,-4.3106
-546,-475,-3.46594,3.74377,0,0,0,0,0,0,0,-1,678,1499,-3.46596,-3.74375
-539,-475,-0.512634,3.63623,0,0,0,0,0,0,0,-1,685,1499,-0.512649,-3.63623
-532,-475,-0.356689,2.97461,0.002667,0.00558756,-0.0110696,0.0152928,-0.00703827,-0.850978,0.0131832,0.0439767,692,1499,-0.3567,-2.97457
-525,-475,-0.370789,2.19177,0.00652617,0.0018163,-0.0124942,0.0168855,-0.008543,-0.69225,0.0149422,0.0424781,699,1499,-0.370788,-2.19174
-518,-475,-0.306458,1.28796,0.00812372,-0.000151296,-0.0126117,0.0172592,-0.0092868,-0.626895,0.015555,0.0441412,706,1499,-0.306449,-1.28794
-511,-475,-0.276489,0.321045,0.00890303,-0.00143645,-0.012015,0.0168133,-0.00934668,-0.582233,0.0153071,0.0411981,713,1499,-0.27647,-0.32106
-504,-475,-0.0612183,0.0791016,0.00856423,-0.00171709,-0.0105673,0.0151749,-0.00832779,-0.559016,0.0137599,0.0222861,720,1499,-0.0612023,-0.0791497
-497,-475,-0.0161133,0.0556641,0.00685732,-0.00127077,-0.0083853,0.0121115,-0.00652497,-0.559747,0.0109197,0.0104804,727,1499,-0.0161133,-0.0556843
-490,-475,-0.00164795,0.0522461,0.00530349,-0.000432037,-0.00660337,0.00963493,-0.00476348,-0.580543,0.00847004,0.00774214,734,1499,-0.00167335,-0.0522903
-483,-475,-0.0162354,0.0509033,0.00401529,-0.000641653,-0.00495988,0.00716607,-0.00379243,-0.565939,0.00642605,0.00796285,741,1499,-0.0162231,-0.0509451
-476,-475,-0.0266113,0.0367432,0.00232321,-3.77553e-05,-0.00312391,0.00448224,-0.00219679,-0.604749,0.00393067,0.00917522,748,1499,-0.0266194,-0.0366943
-469,-475,-0.0195313,0.0246582,0.000939777,0.000418066,-0.00182763,0.00252507,-0.00116723,-0.714512,0.00217927,0.0102661,755,1499,-0.0195561,-0.0246244
-462,-475,-0.0169678,0.0128174,0.000207901,0.000510909,-0.00129019,0.00165846,-0.000939653,-0.843844,0.00151904,0.0150731,762,1499,-0.0169765,-0.0127982
-455,-475,-0.0212402,0.0288086,-0.000224063,0.00076779,-0.00119658,0.00156714,-0.00102341,-0.98185,0.0015066,0.0145114,769,1499,-0.0212176,-0.028783
-448,-475,-0.0170288,0.0447998,-0.000347745,0.00107324,-0.00133532,0.00187533,-0.00114983,-1.02989,0.00176324,0.0118902,776,1499,-0.0170411,-0.0447855
-441,-475,-0.0148315,0.0406494,-0.000261817,0.00143534,-0.00154999,0.00235384,-0.00118032,-1.03585,0.0020776,0.014736,783,1499,-0.0148495,-0.040706
-434,-475,-0.00494385,0.00695801,-0.000154409,0.00186021,-0.00165575,0.00279098,-0.00108519,-1.05867,0.00230901,0.00979545,790,1499,-0.0049408,-0.00692066
-427,-475,-0.003479,0.0114746,-0.000138633,0.00208955,-0.0016031,0.00292767,-0.000976751,-1.08907,0.00234614,0.00987599,797,1499,-0.00347416,-0.0114588
-420,-475,-0.015625,0.0256348,-0.000101224,0.00276466,-0.00151284,0.00341546,-0.000752029,-1.16454,0.00256467,0.0125697,804,1499,-0.0156106,-0.0256953
-413,-475,0.0351563,0.0234375,-2.16614e-06,0.00387893,-0.00129579,0.00427179,-0.000395026,-1.27642,0.00298825,0.0256248,811,1499,0.0351412,-0.0233768
-406,-475,0.105774,-0.175781,0.000589656,0.00573589,-0.00129301,0.00604249,0.000283049,-1.33797,0.00393737,0.0392374,818,1499,0.10579,0.175721
-399,-475,0.0894165,-0.328613,0.00137223,0.00756986,-0.00183203,0.0080709,0.000871182,-1.30383,0.005115,0.0450088,825,1499,0.0894079,0.328597
-392,-475,0.181702,0.199219,0.00369664,0.00847876,-0.00283947,0.00979981,0.00237559,-1.13534,0.0059029,0.0472205,832,1499,0.181688,-0.199236
-385,-475,0.41925,0.0065918,0.00639731,0.00987791,-0.00378047,0.0122994,0.00397581,-1.00111,0.00724745,0.0456451,839,1499,0.419236,-0.00664324
-378,-475,0.251343,0.13269,0.010147,0.0114774,-0.0053327,0.0161863,0.0054382,-0.847446,0.00951127,0.0478831,846,1499,0.251362,-0.132683
-371,-475,0.0897827,0.305908,0,0,0,0,0,0,0,-1,853,1499,0.0897768,-0.305912
-364,-475,-0.999084,1.4845,0.0215141,0.012735,-0.0119994,0.0299017,0.00434752,-0.610052,0.0186549,0.0489457,860,1499,-0.999102,-1.48446
-357,-475,-1.3584,1.68542,0.0285628,0.0115248,-0.0168478,0.0389229,0.00116463,-0.551321,0.0255692,0.0465135,867,1499,-1.35838,-1.68536
-350,-475,-1.68756,1.82141,0.0388064,0.00737329,-0.0240451,0.0518158,-0.00563608,-0.495938,0.0365676,0.0460667,874,1499,-1.68754,-1.8214
-343,-475,-0.749512,1.42261,0.0498871,0.000340279,-0.0318509,0.0654647,-0.0152373,-0.454872,0.0495101,0.0448332,881,1499,-0.749516,-1.42257
-336,-475,0,0,0,0,0,0,0,0,0,-1,888,1499,0,0
-329,-475,0,0,0,0,0,0,0,0,0,-1,895,1499,0,0
-322,-475,0,0,0,0,0,0,0,0,0,-1,902,1499,0,0
-315,-475,0,0,0,0,0,0,0,0,0,-1,909,1499,0,0
-308,-475,0,0,0,0,0,0,0,0,0,-1,916,1499,0,0
-301,-475,0,0,0,0,0,0,0,0,0,-1,923,1499,0,0
-294,-475,0,0,0,0,0,0,0,0,0,-1,930,1499,0,0
-287,-475,0,0,0,0,0,0,0,0,0,-1,937,1499,0,0
-280,-475,0,0,0,0,0,0,0,0,0,-1,944,1499,0,0
-273,-475,0,0,0,0,0,0,0,0,0,-1,951,1499,0,0
-266,-475,0,0,0,0,0,0,0,0,0,-1,958,1499,0,0
-259,-475,0,0,0,0,0,0,0,0,0,-1,965,1499,0,0
-252,-475,0,0,0,0,0,0,0,0,0,-1,972,1499,0,0
-245,-475,0,0,0,0,0,0,0,0,0,-1,979,1499,0,0
-238,-475,0,0,0,0,0,0,0,0,0,-1,986,1499,0,0
-231,-475,0,0,0,0,0,0,0,0,0,-1,993,1499,0,0
-224,-475,0,0,0,0,0,0,0,0,0,-1,1000,1499,0,0
-217,-475,0,0,0,0,0,0,0,0,0,-1,1007,1499,0,0
-210,-475,0,0,0,0,0,0,0,0,0,-1,1014,1499,0,0
-203,-475,0,0,0,0,0,0,0,0,0,-1,1021,1499,0,0
-196,-475,0,0,0,0,0,0,0,0,0,-1,1028,1499,0,0
-189,-475,0,0,0,0,0,0,0,0,0,-1,1035,1499,0,0
-182,-475,0,0,0,0,0,0,0,0,0,-1,1042,1499,0,0
-175,-475,0,0,0,0,0,0,0,0,0,-1,1049,1499,0,0
-168,-475,0,0,0,0,0,0,0,0,0,-1,1056,1499,0,0
-161,-475,0,0,0,0,0,0,0,0,0,-1,1063,1499,0,0
-154,-475,0,0,0,0,0,0,0,0,0,-1,1070,1499,0,0
-147,-475,0,0,0,0,0,0,0,0,0,-1,1077,1499,0,0
-140,-475,0,0,0,0,0,0,0,0,0,-1,1084,1499,0,0
-133,-475,0,0,0,0,0,0,0,0,0,-1,1091,1499,0,0
-126,-475,0,0,0,0,0,0,0,0,0,-1,1098,1499,0,0
-119,-475,0,0,0,0,0,0,0,0,0,-1,1105,1499,0,0
-112,-475,0,0,0,0,0,0,0,0,0,-1,1112,1499,0,0
-105,-475,0,0,0,0,0,0,0,0,0,-1,1119,1499,0,0
-98,-475,0,0,0,0,0,0,0,0,0,-1,1126,1499,0,0
-91,-475,0,0,0,0,0,0,0,0,0,-1,1133,1499,0,0
-84,-475,0,0,0,0,0,0,0,0,0,-1,1140,1499,0,0
-77,-475,0,0,0,0,0,0,0,0,0,-1,1147,1499,0,0
-70,-475,0,0,0,0,0,0,0,0,0,-1,1154,1499,0,0
-63,-475,0,0,0,0,0,0,0,0,0,-1,1161,1499,0,0
-56,-475,0,0,0,0,0,0,0,0,0,-1,1168,1499,0,0
-49,-475,0,0,0,0,0,0,0,0,0,-1,1175,1499,0,0
-42,-475,0,0,0,0,0,0,0,0,0,-1,1182,1499,0,0
-35,-475,0,0,0,0,0,0,0,0,0,-1,1189,1499,0,0
-28,-475,0,0,0,0,0,0,0,0,0,-1,1196,1499,0,0
-21,-475,0,0,0,0,0,0,0,0,0,-1,1203,1499,0,0
-14,-475,0,0,0,0,0,0,0,0,0,-1,1210,1499,0,0
-7,-475,0,0,0,0,0,0,0,0,0,-1,1217,1499,0,0
0,-475,0,0,0,0,0,0,0,0,0,-1,1224,1499,0,0
7,-475,0,0,0,0,0,0,0,0,0,-1,1231,1499,0,0
14,-475,0,0,0,0,0,0,0,0,0,-1,1238,1499,0,0
21,-475,0,0,0,0,0,0,0,0,0,-1,1245,1499,0,0
28,-475,0,0,0,0,0,0,0,0,0,-1,1252,1499,0,0
35,-475,0,0,0,0,0,0,0,0,0,-1,1259,1499,0,0
42,-475,0,0,0,0,0,0,0,0,0,-1,1266,1499,0,0
49,-475,0,0,0,0,0,0,0,0,0,-1,1273,1499,0,0
56,-475,0,0,0,0,0,0,0,0,0,-1,1280,1499,0,0
63,-475,0,0,0,0,0,0,0,0,0,-1,1287,1499,0,0
70,-475,0,0,0,0,0,0,0,0,0,-1,1294,1499,0,0
77,-475,0,0,0,0,0,0,0,0,0,-1,1301,1499,0,0
84,-475,0,0,0,0,0,0,0,0,0,-1,1308,1499,0,0
91,-475,0,0,0,0,0,0,0,0,0,-1,1315,1499,0,0
98,-475,0,0,0,0,0,0,0,0,0,-1,1322,1499,0,0
105,-475,0,0,0,0,0,0,0,0,0,-1,1329,1499,0,0
112,-475,0,0,0,0,0,0,0,0,0,-1,1336,1499,0,0
119,-475,0,0,0,0,0,0,0,0,0,-1,1343,1499,0,0
126,-475,0,0,0,0,0,0,0,0,0,-1,1350,1499,0,0
133,-475,0,0,0,0,0,0,0,0,0,-1,1357,1499,0,0
140,-475,0,0,0,0,0,0,0,0,0,-1,1364,1499,0,0
147,-475,0,0,0,0,0,0,0,0,0,-1,1371,1499,0,0
154,-475,0,0,0,0,0,0,0,0,0,-1,1378,1499,0,0
161,-475,0,0,0,0,0,0,0,0,0,-1,1385,1499,0,0
168,-475,0,0,0,0,0,0,0,0,0,-1,1392,1499,0,0
175,-475,0,0,0,0,0,0,0,0,0,-1,1399,1499,0,0
182,-475,0,0,0,0,0,0,0,0,0,-1,1406,1499,0,0
189,-475,0,0,0,0,0,0,0,0,0,-1,1413,1499,0,0
196,-475,0,0,0,0,0,0,0,0,0,-1,1420,1499,0,0
203,-475,0,0,0,0,0,0,0,0,0,-1,1427,1499,0,0
210,-475,0,0,0,0,0,0,0,0,0,-1,1434,1499,0,0
217,-475,0,0,0,0,0,0,0,0,0,-1,1441,1499,0,0
224,-475,0,0,0,0,0,0,0,0,0,-1,1448,1499,0,0
231,-475,0,0,0,0,0,0,0,0,0,-1,1455,1499,0,0
238,-475,0,0,0,0,0,0,0,0,0,-1,1462,1499,0,0
245,-475,0,0,0,0,0,0,0,0,0,-1,1469,1499,0,0
252,-475,0,0,0,0,0,0,0,0,0,-1,1476,1499,0,0
259,-475,0,0,0,0,0,0,0,0,0,-1,1483,1499,0,0
266,-475,0,0,0,0,0,0,0,0,0,-1,1490,1499,0,0
273,-475,0,0,0,0,0,0,0,0,0,-1,1497,1499,0,0
280,-475,0,0,0,0,0,0,0,0,0,-1,1504,1499,0,0
287,-475,0,0,0,0,0,0,0,0,0,-1,1511,1499,0,0
294,-475,0,0,0,0,0,0,0,0,0,-1,1518,1499,0,0
301,-475,0,0,0,0,0,0,0,0,0,-1,1525,1499,0,0
308,-475,0,0,0,0,0,0,0,0,0,-1,1532,1499,0,0
315,-475,0,0,0,0,0,0,0,0,0,-1,1539,1499,0,0
322,-475,0,0,0,0,0,0,0,0,0,-1,1546,1499,0,0
329,-475,0,0,0,0,0,0,0,0,0,-1,1553,1499,0,0
336,-475,0,0,0,0,0,0,0,0,0,-1,1560,1499,0,0
343,-475,0,0,0,0,0,0,0,0,0,-1,1567,1499,0,0
350,-475,0,0,0,0,0,0,0,0,0,-1,1574,1499,0,0
357,-475,0,0,0,0,0,0,0,0,0,-1,1581,1499,0,0
364,-475,0,0,0,0,0,0,0,0,0,-1,1588,1499,0,0
371,-475,0,0,0,0,0,0,0,0,0,-1,1595,1499,0,0
378,-475,0,0,0,0,0,0,0,0,0,-1,1602,1499,0,0
385,-475,0,0,0,0,0,0,0,0,0,-1,1609,1499,0,0
392,-475,0,0,0,0,0,0,0,0,0,-1,1616,1499,0,0
399,-475,0,0,0,0,0,0,0,0,0,-1,1623,1499,0,0
406,-475,0,0,0,0,0,0,0,0,0,-1,1630,1499,0,0
413,-475,0,0,0,0,0,0,0,0,0,-1,1637,1499,0,0
420,-475,0,0,0,0,0,0,0,0,0,-1,1644,1499,0,0
427,-475,0,0,0,0,0,0,0,0,0,-1,1651,1499,0,0
434,-475,0,0,0,0,0,0,0,0,0,-1,1658,1499,0,0
441,-475,0,0,0,0,0,0,0,0,0,-1,1665,1499,0,0
448,-475,0,0,0,0,0,0,0,0,0,-1,1672,1499,0,0
455,-475,0,0,0,0,0,0,0,0,0,-1,1679,1499,0,0
462,-475,0.465576,0.714844,0,0,0,0,0,0,0,-1,1686,1499,0.465547,-0.714797
469,-475,0.045166,2.25879,0.019884,0.0471031,-0.0122117,0.0517786,0.0152084,-1.20514,0.0307307,0.0474928,1693,1499,0.0452011,-2.25876
476,-475,0.223389,2.35999,0.0250297,0.043856,-0.0113035,0.0491526,0.0197331,-1.1326,0.0285613,0.0486269,1700,1499,0.223441,-2.35998
483,-475,0.463867,1.20178,0,0,0,0,0,0,0,-1,1707,1499,0.463851,-1.20178
490,-475,0.796509,1.11133,0.0239837,0.0265531,-0.0100893,0.0354391,0.0150977,-0.848722,0.0205353,0.0415245,1714,1499,0.796491,-1.11129
497,-475,0.264648,0.487793,0.0200451,0.0187595,-0.00950212,0.0289261,0.00987846,-0.751626,0.0169779,0.0448775,1721,1499,0.264621,-0.487742
504,-475,0.110229,0.210571,0.0167462,0.0128702,-0.0080884,0.0231255,0.00649085,-0.667811,0.013773,0.0438212,1728,1499,0.110197,-0.210557
511,-475,0.131958,0.335815,0.0131005,0.00803137,-0.00674997,0.0177761,0.0033558,-0.605797,0.0109056,0.0403203,1735,1499,0.131914,-0.335851
518,-475,0.194946,0.405273,0.00898945,0.00478872,-0.00552599,0.0128008,0.00097739,-0.603786,0.00822743,0.04378,1742,1499,0.195001,-0.405323
525,-475,0.0458984,0.230347,0.0040595,0.00184487,-0.00489758,0.00797338,-0.00206902,-0.67422,0.00612292,0.0442306,1749,1499,0.0459103,-0.230389
532,-475,-0.129028,0.155762,0.00129335,0.000315111,-0.00336691,0.00420648,-0.00259802,-0.713267,0.003965,0.0417773,1756,1499,-0.12899,-0.155768
539,-475,-0.298584,0.0343018,0.000444243,-0.000340361,-0.00193214,0.00202351,-0.00191962,-0.68524,0.00227683,0.0414118,1763,1499,-0.298564,-0.0343272
546,-475,-0.0697021,0.0383301,0.00034523,-0.000156904,-0.000660171,0.000800463,-0.000612137,-0.603691,0.000817978,0.0343117,1770,1499,-0.0696469,-0.0382961
553,-475,-0.0386963,0.0352783,-0.000201496,-0.000189657,0.000575658,0.000380112,-0.000771265,0.790539,0.000677414,0.016566,1777,1499,-0.0386925,-0.03523
560,-475,-0.0322266,0.0209961,-0.000553192,-0.000118098,0.00110335,0.00078895,-0.00146024,0.882734,0.00131771,0.0118934,1784,1499,-0.0322292,-0.0210128
567,-475,0.0137939,-0.00720215,-0.000499652,3.52733e-05,0.00104114,0.000842752,-0.00130713,0.911127,0.00125085,0.0132243,1791,1499,0.0137444,0.00719109
574,-475,0.00964355,0.012207,-0.000336709,0.000168343,0.000639111,0.000603009,-0.000771374,0.973545,0.000795482,0.0136279,1798,1499,0.00967646,-0.0122112
581,-475,-0.00646973,0.032959,-0.000301342,0.000276418,0.000360559,0.00044955,-0.000474474,1.12313,0.00053355,0.0114356,1805,1499,-0.00642326,-0.0329769
588,-475,-0.0245361,0.0308838,-0.000344657,0.000518661,-0.000141888,0.000541383,-0.000367379,-1.41201,0.00052787,0.0103944,1812,1499,-0.0244947,-0.0308913
595,-475,-0.0170898,0.0135498,-0.00040618,0.000644345,-0.000578701,0.000900617,-0.000662452,-1.15391,0.000905923,0.0105914,1819,1499,-0.0170815,-0.0135864
602,-475,0.000854492,0.00744629,-0.00047143,0.00111925,-0.00101193,0.00161098,-0.000963165,-1.11846,0.00150179,0.0116099,1826,1499,0.000890338,-0.00740702
609,-475,0.0123291,0.0112305,-0.000332108,0.00167062,-0.00173969,0.00267655,-0.00133804,-1.04654,0.00236038,0.0105468,1833,1499,0.0123678,-0.0112897
616,-475,0.00415039,0.0302734,4.10957e-05,0.00404349,-0.00315744,0.0057805,-0.00169591,-1.06785,0.00452615,0.00972926,1840,1499,0.00411145,-0.0303126
623,-475,-0.0140381,0.0322266,0.000628608,0.00635771,-0.00430836,0.0086669,-0.00168058,-1.07878,0.00641197,0.00992524,1847,1499,-0.0140872,-0.0322411
630,-475,-0.0322266,0.0239258,0.00114277,0.00963402,-0.00510637,0.0120292,-0.00125242,-1.13221,0.00846787,0.0116662,1854,1499,-0.0322339,-0.0238947
637,-475,-0.0233154,-0.00756836,0.00183422,0.0135201,-0.0059739,0.0160334,-0.000679126,-1.17256,0.0109224,0.0210517,1861,1499,-0.0233234,0.00752969
644,-475,-0.119263,-0.189575,0.00304719,0.018602,-0.0071579,0.0213945,0.000254657,-1.19882,0.0141789,0.0349629,1868,1499,-0.119254,0.189616
651,-475,-0.226074,-0.333374,0.00464458,0.0248578,-0.00814069,0.0277286,0.00177373,-1.23176,0.0179238,0.0409653,1875,1499,-0.226025,0.333421
658,-475,-0.0863037,-0.344238,0.00659949,0.0322014,-0.00877588,0.0349208,0.00388012,-1.27031,0.022101,0.0406098,1882,1499,-0.0863414,0.34422
665,-475,0.201538,-0.223755,0.00867258,0.0405804,-0.00849285,0.0427001,0.00655287,-1.32621,0.0265533,0.0401816,1889,1499,0.201562,0.223812
672,-475,0.474854,-2.20349,0.0106592,0.0495557,-0.0069313,0.050754,0.00946093,-1.39962,0.0311648,0.046034,1896,1499,0.474807,2.2035
679,-475,0.388672,-1.24072,0.0123631,0.0582641,-0.00348189,0.0585267,0.0121005,-1.49551,0.035675,0.0438517,1903,1499,0.388633,1.24069
686,-475,0,0,0,0,0,0,0,0,0,-1,1910,1499,0,0
693,-475,0,0,0,0,0,0,0,0,0,-1,1917,1499,0,0
700,-475,0,0,0,0,0,0,0,0,0,-1,1924,1499,0,0
707,-475,0,0,0,0,0,0,0,0,0,-1,1931,1499,0,0
714,-475,0,0,0,0,0,0,0,0,0,-1,1938,1499,0,0
721,-475,0,0,0,0,0,0,0,0,0,-1,1945,1499,0,0
728,-475,0,0,0,0,0,0,0,0,0,-1,1952,1499,0,0
735,-475,0,0,0,0,0,0,0,0,0,-1,1959,1499,0,0
742,-475,0,0,0,0,0,0,0,0,0,-1,1966,1499,0,0
749,-475,0,0,0,0,0,0,0,0,0,-1,1973,1499,0,0
756,-475,0,0,0,0,0,0,0,0,0,-1,1980,1499,0,0
763,-475,0,0,0,0,0,0,0,0,0,-1,1987,1499,0,0
770,-475,0,0,0,0,0,0,0,0,0,-1,1994,1499,0,0
777,-475,0,0,0,0,0,0,0,0,0,-1,2001,1499,0,0
784,-475,0,0,0,0,0,0,0,0,0,-1,2008,1499,0,0
791,-475,0,0,0,0,0,0,0,0,0,-1,2015,1499,0,0
798,-475,0,0,0,0,0,0,0,0,0,-1,2022,1499,0,0
805,-475,0,0,0,0,0,0,0,0,0,-1,2029,1499,0,0
812,-475,0,0,0,0,0,0,0,0,0,-1,2036,1499,0,0
-700,-482,0,0,0,0,0,0,0,0,0,-1,524,1506,0,0
-693,-482,0,0,0,0,0,0,0,0,0,-1,531,1506,0,0
-686,-482,0,0,0,0,0,0,0,0,0,-1,538,1506,0,0
-679,-482,0,0,0,0,0,0,0,0,0,-1,545,1506,0,0
-672,-482,0,0,0,0,0,0,0,0,0,-1,552,1506,0,0
-665,-482,0,0,0,0,0,0,0,0,0,-1,559,1506,0,0
-658,-482,0,0,0,0,0,0,0,0,0,-1,566,1506,0,0
-651,-482,0,0,0,0,0,0,0,0,0,-1,573,1506,0,0
-644,-482,0,0,0,0,0,0,0,0,0,-1,580,1506,0,0
-637,-482,0,0,0,0,0,0,0,0,0,-1,587,1506,0,0
-630,-482,0,0,0,0,0,0,0,0,0,-1,594,1506,0,0
-623,-482,0,0,0,0,0,0,0,0,0,-1,601,1506,0,0
-616,-482,0,0,0,0,0,0,0,0,0,-1,608,1506,0,0
-609,-482,0,0,0,0,0,0,0,0,0,-1,615,1506,0,0
-602,-482,0,0,0,0,0,0,0,0,0,-1,622,1506,0,0
-595,-482,0,0,0,0,0,0,0,0,0,-1,629,1506,0,0
-588,-482,0,0,0,0,0,0,0,0,0,-1,636,1506,0,0
-581,-482,0,0,0,0,0,0,0,0,0,-1,643,1506,0,0
-574,-482,0,0,0,0,0,0,0,0,0,-1,650,1506,0,0
-567,-482,0,0,0,0,0,0,0,0,0,-1,657,1506,0,0
-560,-482,0,0,0,0,0,0,0,0,0,-1,664,1506,0,0
-553,-482,0.373352,3.71655,0,0,0,0,0,0,0,-1,671,1506,0.373351,-3.7166
-546,-482,-0.00146484,3.06726,0,0,0,0,0,0,0,-1,678,1506,-0.00145251,-3.06724
-539,-482,-0.387573,2.41846,0,0,0,0,0,0,0,-1,685,1506,-0.387545,-2.41842
-532,-482,-1.11108,1.99951,0,0,0,0,0,0,0,-1,692,1506,-1.11107,-1.99956
-525,-482,-0.869385,1.67603,0.00853308,0.00722084,-0.0146327,0.0225244,-0.00677045,-0.762994,0.0177098,0.0429245,699,1506,-0.869398,-1.67602
-518,-482,-0.65625,1.14978,0.0101223,0.00420133,-0.0145604,0.0220202,-0.00769654,-0.685103,0.0178089,0.0474633,706,1506,-0.656256,-1.14984
-511,-482,-0.439087,0.444946,0.0106955,0.00212984,-0.0136496,0.0207184,-0.0078931,-0.633378,0.0170631,0.0487809,713,1506,-0.439094,-0.445
-504,-482,-0.133301,0.129028,0.0100491,0.00117344,-0.0118732,0.0182868,-0.0070642,-0.606553,0.0151069,0.0377931,720,1506,-0.133313,-0.129069
-497,-482,-0.0540161,0.0870361,0.00821607,0.000984236,-0.00945915,0.0147269,-0.00552657,-0.602835,0.0120888,0.0210371,727,1506,-0.0540079,-0.0870212
-490,-482,-0.0153198,0.0560303,0.00647578,0.00124105,-0.00744265,0.0117479,-0.00403105,-0.616317,0.00946616,0.0115142,734,1506,-0.0153098,-0.0560019
-483,-482,-0.00372314,0.0437012,0.00507326,0.000476202,-0.00566575,0.00888897,-0.00333952,-0.592698,0.00729844,0.00760174,741,1506,-0.00374003,-0.0436834
-476,-482,-0.00872803,0.0355225,0.00336127,0.000868706,-0.00378406,0.006099,-0.00186902,-0.626317,0.00481157,0.00859807,748,1506,-0.00870671,-0.0354727
-469,-482,-0.0195923,0.0323486,0.00184397,0.00126289,-0.0023778,0.00394891,-0.000842055,-0.724605,0.00295358,0.00935403,755,1506,-0.019582,-0.0324076
-462,-482,-0.0206909,0.0360107,0.000990986,0.00132039,-0.00168522,0.00284893,-0.00053756,-0.83411,0.00210152,0.0113051,762,1506,-0.0206682,-0.0360666
-455,-482,-0.0230103,0.039917,0.00041645,0.0015222,-0.00151909,0.0025859,-0.00064725,-0.959922,0.00197535,0.0123071,769,1506,-0.023006,-0.0398879
-448,-482,-0.0136719,0.048584,0.000121215,0.00180167,-0.00160758,0.00277536,-0.000852479,-1.02621,0.00219041,0.0120634,776,1506,-0.0136487,-0.0486439
-441,-482,-0.0244751,0.0318604,0.00017217,0.00211257,-0.00175064,0.00314387,-0.000859133,-1.03843,0.00243338,0.0114746,783,1506,-0.0244538,-0.0318559
-434,-482,-0.0167236,0.0476074,0.00023866,0.00251104,-0.0018197,0.00352013,-0.000770435,-1.06448,0.00264129,0.0136204,790,1506,-0.0167489,-0.0476139
-427,-482,-0.0197144,0.0600586,0.00020903,0.00272265,-0.00171784,0.00359435,-0.000662667,-1.10122,0.00264494,0.0152127,797,1506,-0.0196968,-0.0600695
-420,-482,-0.0332642,0.0559082,0.000172576,0.00340901,-0.00157426,0.00404843,-0.000466841,-1.18498,0.00286726,0.0155049,804,1506,-0.0332646,-0.0558766
-413,-482,-0.0221558,0.0476074,0.000225412,0.00449105,-0.00137565,0.00489621,-0.000179749,-1.28437,0.00332567,0.0169265,811,1506,-0.0221714,-0.047607
-406,-482,-0.0108032,-0.0213623,0.000817491,0.00629258,-0.00141262,0.00663556,0.000474508,-1.33261,0.00427433,0.0314393,818,1506,-0.0108049,0.0213303
-399,-482,0.0142822,0.0386963,0.00148632,0.00798289,-0.00185233,0.00847393,0.000995291,-1.31167,0.00534848,0.0412394,825,1506,0.014302,-0.0386882
-392,-482,0.131592,0.108032,0.00354742,0.0089672,-0.00272593,0.010101,0.00241358,-1.17662,0.00609104,0.0466784,832,1506,0.131584,-0.108013
-385,-482,0.142822,0.267334,0.00622673,0.0102605,-0.00340328,0.0121996,0.00428759,-1.05289,0.00714632,0.0471918,839,1506,0.142824,-0.267327
-378,-482,-0.0935669,0.635986,0.00999574,0.011972,-0.00440925,0.0155025,0.00646524,-0.895627,0.00899132,0.0428757,846,1506,-0.0935388,-0.636013
-371,-482,-0.669983,0.942505,0.0148388,0.0134761,-0.0064578,0.0206511,0.00766379,-0.732838,0.0120542,0.0442202,853,1506,-0.670012,-0.942529
-364,-482,-0.927002,1.33972,0.0212601,0.0140404,-0.00897967,0.0273283,0.00797215,-0.594283,0.0162279,0.0452983,860,1506,-0.926977,-1.33978
-357,-482,-0.901184,1.69678,0.0283762,0.0143515,-0.0122094,0.0354437,0.00728394,-0.524729,0.0216142,0.0445279,867,1506,-0.901181,-1.69682
-350,-482,-0.509827,1.8446,0.037937,0.01289,-0.0166848,0.0462755,0.00455157,-0.463457,0.0294506,0.043702,874,1506,-0.509844,-1.84464
-343,-482,-0.201111,2.15894,0.0477309,0.00991529,-0.0214027,0.0573814,0.000264745,-0.423605,0.0381663,0.04377,881,1506,-0.20114,-2.15898
-336,-482,0.0688477,2.47437,0,0,0,0,0,0,0,-1,888,1506,0.0688575,-2.4744
-329,-482,0,0,0,0,0,0,0,0,0,-1,895,1506,0,0
-322,-482,0,0,0,0,0,0,0,0,0,-1,902,1506,0,0
-315,-482,0,0,0,0,0,0,0,0,0,-1,909,1506,0,0
-308,-482,0,0,0,0,0,0,0,0,0,-1,916,1506,0,0
-301,-482,0,0,0,0,0,0,0,0,0,-1,923,1506,0,0
-294,-482,0,0,0,0,0,0,0,0,0,-1,930,1506,0,0
-287,-482,0,0,0,0,0,0,0,0,0,-1,937,1506,0,0
-280,-482,0,0,0,0,0,0,0,0,0,-1,944,1506,0,0
-273,-482,0,0,0,0,0,0,0,0,0,-1,951,1506,0,0
-266,-482,0,0,0,0,0,0,0,0,0,-1,958,1506,0,0
-259,-482,0,0,0,0,0,0,0,0,0,-1,965,1506,0,0
-252,-482,0,0,0,0,0,0,0,0,0,-1,972,1506,0,0
-245,-482,0,0,0,0,0,0,0,0,0,-1,979,1506,0,0
-238,-482,0,0,0,0,0,0,0,0,0,-1,986,1506,0,0
-231,-482,0,0,0,0,0,0,0,0,0,-1,993,1506,0,0
-224,-482,0,0,0,0,0,0,0,0,0,-1,1000,1506,0,0
-217,-482,0,0,0,0,0,0,0,0,0,-1,1007,1506,0,0
-210,-482,0,0,0,0,0,0,0,0,0,-1,1014,1506,0,0
-203,-482,0,0,0,0,0,0,0,0,0,-1,1021,1506,0,0
-196,-482,0,0,0,0,0,0,0,0,0,-1,1028,1506,0,0
-189,-482,0,0,0,0,0,0,0,0,0,-1,1035,1506,0,0
-182,-482,0,0,0,0,0,0,0,0,0,-1,1042,1506,0,0
-175,-482,0,0,0,0,0,0,0,0,0,-1,1049,1506,0,0
-168,-482,0,0,0,0,0,0,0,0,0,-1,1056,1506,0,0
-161,-482,0,0,0,0,0,0,0,0,0,-1,1063,1506,0,0
-154,-482,0,0,0,0,0,0,0,0,0,-1,1070,1506,0,0
-147,-482,0,0,0,0,0,0,0,0,0,-1,1077,1506,0,0
-140,-482,0,0,0,0,0,0,0,0,0,-1,1084,1506,0,0
-133,-482,0,0,0,0,0,0,0,0,0,-1,1091,1506,0,0
-126,-482,0,0,0,0,0,0,0,0,0,-1,1098,1506,0,0
-119,-482,0,0,0,0,0,0,0,0,0,-1,1105,1506,0,0
-112,-482,0,0,0,0,0,0,0,0,0,-1,1112,1506,0,0
-105,-482,0,0,0,0,0,0,0,0,0,-1,1119,1506,0,0
-98,-482,0,0,0,0,0,0,0,0,0,-1,1126,1506,0,0
-91,-482,0,0,0,0,0,0,0,0,0,-1,1133,1506,0,0
-84,-482,0,0,0,0,0,0,0,0,0,-1,1140,1506,0,0
-77,-482,0,0,0,0,0,0,0,0,0,-1,1147,1506,0,0
-70,-482,0,0,0,0,0,0,0,0,0,-1,1154,1506,0,0
-63,-482,0,0,0,0,0,0,0,0,0,-1,1161,1506,0,0
-56,-482,0,0,0,0,0,0,0,0,0,-1,1168,1506,0,0
-49,-482,0,0,0,0,0,0,0,0,0,-1,1175,1506,0,0
-42,-482,0,0,0,0,0,0,0,0,0,-1,1182,1506,0,0
-35,-482,0,0,0,0,0,0,0,0,0,-1,1189,1506,0,0
-28,-482,0,0,0,0,0,0,0,0,0,-1,1196,1506,0,0
-21,-482,0,0,0,0,0,0,0,0,0,-1,1203,1506,0,0
-14,-482,0,0,0,0,0,0,0,0,0,-1,1210,1506,0,0
-7,-482,0,0,0,0,0,0,0,0,0,-1,1217,1506,0,0
0,-482,0,0,0,0,0,0,0,0,0,-1,1224,1506,0,0
7,-482,0,0,0,0,0,0,0,0,0,-1,1231,1506,0,0
14,-482,0,0,0,0,0,0,0,0,0,-1,1238,1506,0,0
21,-482,0,0,0,0,0,0,0,0,0,-1,1245,1506,0,0
28,-482,0,0,0,0,0,0,0,0,0,-1,1252,1506,0,0
35,-482,0,0,0,0,0,0,0,0,0,-1,1259,1506,0,0
42,-482,0,0,0,0,0,0,0,0,0,-1,1266,1506,0,0
49,-482,0,0,0,0,0,0,0,0,0,-1,1273,1506,0,0
56,-482,0,0,0,0,0,0,0,0,0,-1,1280,1506,0,0
63,-482,0,0,0,0,0,0,0,0,0,-1,1287,1506,0,0
70,-482,0,0,0,0,0,0,0,0,0,-1,1294,1506,0,0
77,-482,0,0,0,0,0,0,0,0,0,-1,1301,1506,0,0
84,-482,0,0,0,0,0,0,0,0,0,-1,1308,1506,0,0
91,-482,0,0,0,0,0,0,0,0,0,-1,1315,1506,0,0
98,-482,0,0,0,0,0,0,0,0,0,-1,1322,1506,0,0
105,-482,0,0,0,0,0,0,0,0,0,-1,1329,1506,0,0
112,-482,0,0,0,0,0,0,0,0,0,-1,1336,1506,0,0
119,-482,0,0,0,0,0,0,0,0,0,-1,1343,1506,0,0
126,-482,0,0,0,0,0,0,0,0,0,-1,1350,1506,0,0
133,-482,0,0,0,0,0,0,0,0,0,-1,1357,1506,0,0
140,-482,0,0,0,0,0,0,0,0,0,-1,1364,1506,0,0
147,-482,0,0,0,0,0,0,0,0,0,-1,1371,1506,0,0
154,-482,0,0,0,0,0,0,0,0,0,-1,1378,1506,0,0
161,-482,0,0,0,0,0,0,0,0,0,-1,1385,1506,0,0
168,-482,0,0,0,0,0,0,0,0,0,-1,1392,1506,0,0
175,-482,0,0,0,0,0,0,0,0,0,-1,1399,1506,0,0
182,-482,0,0,0,0,0,0,0,0,0,-1,1406,1506,0,0
189,-482,0,0,0,0,0,0,0,0,0,-1,1413,1506,0,0
196,-482,0,0,0,0,0,0,0,0,0,-1,1420,1506,0,0
203,-482,0,0,0,0,0,0,0,0,0,-1,1427,1506,0,0
210,-482,0,0,0,0,0,0,0,0,0,-1,1434,1506,0,0
217,-482,0,0,0,0,0,0,0,0,0,-1,1441,1506,0,0
224,-482,0,0,0,0,0,0,0,0,0,-1,1448,1506,0,0
231,-482,0,0,0,0,0,0,0,0,0,-1,1455,1506,0,0
238,-482,0,0,0,0,0,0,0,0,0,-1,1462,1506,0,0
245,-482,0,0,0,0,0,0,0,0,0,-1,1469,1506,0,0
252,-482,0,0,0,0,0,0,0,0,0,-1,1476,1506,0,0
259,-482,0,0,0,0,0,0,0,0,0,-1,1483,1506,0,0
266,-482,0,0,0,0,0,0,0,0,0,-1,1490,1506,0,0
273,-482,0,0,0,0,0,0,0,0,0,-1,1497,1506,0,0
280,-482,0,0,0,0,0,0,0,0,0,-1,1504,1506,0,0
287,-482,0,0,0,0,0,0,0,0,0,-1,1511,1506,0,0
294,-482,0,0,0,0,0,0,0,0,0,-1,1518,1506,0,0
301,-482,0,0,0,0,0,0,0,0,0,-1,1525,1506,0,0
308,-482,0,0,0,0,0,0,0,0,0,-1,1532,1506,0,0
315,-482,0,0,0,0,0,0,0,0,0,-1,1539,1506,0,0
322,-482,0,0,0,0,0,0,0,0,0,-1,1546,1506,0,0
329,-482,0,0,0,0,0,0,0,0,0,-1,1553,1506,0,0
336,-482,0,0,0,0,0,0,0,0,0,-1,1560,1506,0,0
343,-482,0,0,0,0,0,0,0,0,0,-1,1567,1506,0,0
350,-482,0,0,0,0,0,0,0,0,0,-1,1574,1506,0,0
357,-482,0,0,0,0,0,0,0,0,0,-1,1581,1506,0,0
364,-482,0,0,0,0,0,0,0,0,0,-1,1588,1506,0,0
371,-482,0,0,0,0,0,0,0,0,0,-1,1595,1506,0,0
378,-482,0,0,0,0,0,0,0,0,0,-1,1602,1506,0,0
385,-482,0,0,0,0,0,0,0,0,0,-1,1609,1506,0,0
392,-482,0,0,0,0,0,0,0,0,0,-1,1616,1506,0,0
399,-482,0,0,0,0,0,0,0,0,0,-1,1623,1506,0,0
406,-482,0,0,0,0,0,0,0,0,0,-1,1630,1506,0,0
413,-482,0,0,0,0,0,0,0,0,0,-1,1637,1506,0,0
420,-482,0,0,0,0,0,0,0,0,0,-1,1644,1506,0,0
427,-482,0,0,0,0,0,0,0,0,0,-1,1651,1506,0,0
434,-482,0,0,0,0,0,0,0,0,0,-1,1658,1506,0,0
441,-482,0,0,0,0,0,0,0,0,0,-1,1665,1506,0,0
448,-482,1.52258,3.80969,0,0,0,0,0,0,0,-1,1672,1506,1.52258,-3.80967
455,-482,0.743774,2.30249,0,0,0,0,0,0,0,-1,1679,1506,0.743805,-2.30244
462,-482,-0.0845947,0.740356,0.00950164,0.0497723,-0.0091222,0.0517423,0.00753163,-1.35811,0.0322786,0.0463295,1686,1506,-0.0845832,-0.74032
469,-482,0.116821,1.255,0.0165839,0.0456441,-0.00875827,0.0480796,0.0141484,-1.29957,0.0285313,0.0457501,1693,1506,0.116802,-1.25499
476,-482,0.38562,1.65857,0.0203826,0.0428679,-0.00779265,0.0453045,0.0179459,-1.26775,0.0263441,0.0428815,1700,1506,0.385611,-1.65854
483,-482,0.677734,1.66956,0.0212658,0.0348067,-0.00667925,0.0375469,0.0185257,-1.18149,0.0216783,0.042886,1707,1506,0.677761,-1.66957
490,-482,0.711914,1.15881,0.0196173,0.0264436,-0.00671654,0.0305645,0.0154964,-1.02048,0.017647,0.0439708,1714,1506,0.711935,-1.15879
497,-482,0.242676,0.431763,0.0163853,0.0189458,-0.00645519,0.0242465,0.0110847,-0.883291,0.0140158,0.0458401,1721,1506,0.242688,-0.431707
504,-482,0.0795898,0.223145,0.0139018,0.0132607,-0.00543885,0.0190295,0.00813292,-0.755964,0.0110252,0.0439874,1728,1506,0.0796227,-0.223183
511,-482,0.259888,0.0147705,0.0109506,0.00837985,-0.00465261,0.0144921,0.00483834,-0.650623,0.00851962,0.045214,1735,1506,0.259863,-0.0147477
518,-482,0.0432129,0.329102,0.00736204,0.00503191,-0.00393934,0.010305,0.00208896,-0.641621,0.00629037,0.0461988,1742,1506,0.0432044,-0.329079
525,-482,0.000732422,0.620117,0.00279,0.00202207,-0.00391872,0.00634352,-0.00153145,-0.736563,0.00482126,0.0440372,1749,1506,0.000747129,-0.62017
532,-482,-0.00378418,0.326782,0.000508117,0.000314236,-0.00288359,0.00329639,-0.00247404,-0.768595,0.00334282,0.0387765,1756,1506,-0.00381826,-0.32678
539,-482,-0.0339355,0.10083,0.000155112,-0.000503328,-0.00181996,0.00167539,-0.00202361,-0.695919,0.00213877,0.0294425,1763,1506,-0.0338773,-0.100805
546,-482,-0.0335693,0.0546875,0.000434937,-0.000420798,-0.00079003,0.000905522,-0.000891383,-0.537219,0.00103745,0.0159081,1770,1506,-0.0336054,-0.054746
553,-482,-0.0274658,0.0379639,0.000243255,-0.000504165,0.000245075,0.000316446,-0.000577357,0.290217,0.000523315,0.0133006,1777,1506,-0.0274954,-0.0379786
560,-482,-0.0344238,0.0253906,0.000106028,-0.000440043,0.000671742,0.000558104,-0.000892119,0.592367,0.000844656,0.0123289,1784,1506,-0.0344151,-0.0253377
567,-482,0.00463867,0.0111084,0.000225,-0.000276419,0.000618734,0.000641889,-0.000693308,0.592909,0.000771067,0.014282,1791,1506,0.00462555,-0.0110532
574,-482,0.0141602,0.0270996,0.000327953,-9.95785e-05,0.000297426,0.000480464,-0.000252089,0.473809,0.000429736,0.0129847,1798,1506,0.0142126,-0.0271311
581,-482,-0.0195313,0.0428467,0.000262533,8.84108e-05,0.00010076,0.000308635,4.23095e-05,0.429103,0.000193204,0.00949395,1805,1506,-0.0195753,-0.0428356
588,-482,-0.0446777,0.0350342,8.9074e-05,0.000443884,-0.000287817,0.000604579,-7.16203e-05,-1.06159,0.000428924,0.0109149,1812,1506,-0.0446986,-0.0350234
595,-482,-0.0231934,0.00305176,-0.000106838,0.000644971,-0.000676131,0.00104267,-0.000504534,-1.0391,0.000911109,0.0155936,1819,1506,-0.0231477,-0.00307366
602,-482,0.0109863,-0.00378418,-0.000280383,0.00117326,-0.00110496,0.00176901,-0.000876138,-1.07631,0.00155591,0.0188593,1826,1506,0.0109911,0.00382759
609,-482,0.0241699,0.00830078,-0.000189769,0.00178389,-0.00191601,0.00295227,-0.00135815,-1.0232,0.00254472,0.0148018,1833,1506,0.0242304,-0.00826138
616,-482,0.00756836,0.0174561,0.00018682,0.00437344,-0.00350336,0.00636124,-0.00180098,-1.05469,0.00495156,0.0109447,1840,1506,0.00759566,-0.0174896
623,-482,-0.0119629,0.0289307,0.000805259,0.0069163,-0.00485165,0.00959443,-0.00187287,-1.06642,0.00710336,0.0108571,1847,1506,-0.0120092,-0.0289678
630,-482,-0.0297852,0.036377,0.00138554,0.0105311,-0.00584147,0.0133767,-0.00146012,-1.11748,0.00944224,0.0185649,1854,1506,-0.0297806,-0.0363766
637,-482,-0.0900879,-0.00292969,0.00217009,0.014923,-0.0069115,0.0179502,-0.000857063,-1.15798,0.0122625,0.0353351,1861,1506,-0.0901,0.00298092
644,-482,-0.373291,-0.226929,0.00355277,0.0207948,-0.00833838,0.0241676,0.000180014,-1.18643,0.016052,0.0380177,1868,1506,-0.373294,0.22698
651,-482,-0.363037,-0.658447,0.00543268,0.028194,-0.00953066,0.0316576,0.00196905,-1.22222,0.0204803,0.0395105,1875,1506,-0.363026,0.658466
658,-482,0.083252,-0.609497,0.00774433,0.037048,-0.0102081,0.0402534,0.00453892,-1.26654,0.0254579,0.0384965,1882,1506,0.0832885,0.609512
665,-482,0.410889,-3.27234,0.0102103,0.0473159,-0.00980431,0.0497472,0.00777902,-1.32772,0.0308999,0.0452614,1889,1506,0.410941,3.27233
672,-482,0.602295,-2.62512,0.0125554,0.0586354,-0.00775035,0.059904,0.0112868,-1.40855,0.036756,0.0484083,1896,1506,0.602306,2.62512
679,-482,0,0,0,0,0,0,0,0,0,-1,1903,1506,0,0
686,-482,0,0,0,0,0,0,0,0,0,-1,1910,1506,0,0
693,-482,0,0,0,0,0,0,0,0,0,-1,1917,1506,0,0
700,-482,0,0,0,0,0,0,0,0,0,-1,1924,1506,0,0
707,-482,0,0,0,0,0,0,0,0,0,-1,1931,1506,0,0
714,-482,0,0,0,0,0,0,0,0,0,-1,1938,1506,0,0
721,-482,0,0,0,0,0,0,0,0,0,-1,1945,1506,0,0
728,-482,0,0,0,0,0,0,0,0,0,-1,1952,1506,0,0
735,-482,0,0,0,0,0,0,0,0,0,-1,1959,1506,0,0
742,-482,0,0,0,0,0,0,0,0,0,-1,1966,1506,0,0
749,-482,0,0,0,0,0,0,0,0,0,-1,1973,1506,0,0
756,-482,0,0,0,0,0,0,0,0,0,-1,1980,1506,0,0
763,-482,0,0,0,0,0,0,0,0,0,-1,1987,1506,0,0
770,-482,0,0,0,0,0,0,0,0,0,-1,1994,1506,0,0
777,-482,0,0,0,0,0,0,0,0,0,-1,2001,1506,0,0
784,-482,0,0,0,0,0,0,0,0,0,-1,2008,1506,0,0
791,-482,0,0,0,0,0,0,0,0,0,-1,2015,1506,0,0
798,-482,0,0,0,0,0,0,0,0,0,-1,2022,1506,0,0
805,-482,0,0,0,0,0,0,0,0,0,-1,2029,1506,0,0
812,-482,0,0,0,0,0,0,0,0,0,-1,2036,1506,0,0
-700,-489,0,0,0,0,0,0,0,0,0,-1,524,1513,0,0
-693,-489,0,0,0,0,0,0,0,0,0,-1,531,1513,0,0
-686,-489,0,0,0,0,0,0,0,0,0,-1,538,1513,0,0
-679,-489,0,0,0,0,0,0,0,0,0,-1,545,1513,0,0
-672,-489,0,0,0,0,0,0,0,0,0,-1,552,1513,0,0
-665,-489,0,0,0,0,0,0,0,0,0,-1,559,1513,0,0
-658,-489,0,0,0,0,0,0,0,0,0,-1,566,1513,0,0
-651,-489,0,0,0,0,0,0,0,0,0,-1,573,1513,0,0
-644,-489,0,0,0,0,0,0,0,0,0,-1,580,1513,0,0
-637,-489,0,0,0,0,0,0,0,0,0,-1,587,1513,0,0
-630,-489,0,0,0,0,0,0,0,0,0,-1,594,1513,0,0
-623,-489,0,0,0,0,0,0,0,0,0,-1,601,1513,0,0
-616,-489,0,0,0,0,0,0,0,0,0,-1,608,1513,0,0
-609,-489,0,0,0,0,0,0,0,0,0,-1,615,1513,0,0
-602,-489,0,0,0,0,0,0,0,0,0,-1,622,1513,0,0
-595,-489,0,0,0,0,0,0,0,0,0,-1,629,1513,0,0
-588,-489,0,0,0,0,0,0,0,0,0,-1,636,1513,0,0
-581,-489,0,0,0,0,0,0,0,0,0,-1,643,1513,0,0
-574,-489,0,0,0,0,0,0,0,0,0,-1,650,1513,0,0
-567,-489,0,0,0,0,0,0,0,0,0,-1,657,1513,0,0
-560,-489,0,0,0,0,0,0,0,0,0,-1,664,1513,0,0
-553,-489,0.0231934,0.47522,0,0,0,0,0,0,0,-1,671,1513,0.0232001,-0.475247
-546,-489,0.404968,3.0542,0,0,0,0,0,0,0,-1,678,1513,0.404991,-3.05421
-539,-489,0.0549316,2.50403,-0.00305866,0.0297048,-0.0114992,0.0333379,-0.00669177,-1.26478,0.0247592,0.0461729,685,1513,0.0549403,-2.50405
-532,-489,-0.250183,1.81128,0.00472373,0.0199223,-0.0156091,0.0296837,-0.00503762,-1.01194,0.0216644,0.0461935,692,1513,-0.250193,-1.81134
-525,-489,-0.669678,1.25122,0.00893363,0.0136278,-0.016931,0.0283736,-0.0058122,-0.854273,0.0211214,0.0457987,699,1513,-0.669665,-1.25122
-518,-489,-0.531433,0.890625,0.0105282,0.0096426,-0.0164277,0.026519,-0.00634829,-0.771925,0.0201319,0.0465126,706,1513,-0.531404,-0.890645
-511,-489,-0.301636,0.520508,0.0109792,0.00684218,-0.0150567,0.0241088,-0.00628737,-0.717134,0.0185274,0.0486935,713,1513,-0.301647,-0.520563
-504,-489,-0.0678101,0.187744,0.0102563,0.00519345,-0.0128726,0.020844,-0.00539424,-0.688311,0.0160001,0.0448187,720,1513,-0.0677961,-0.18775
-497,-489,-0.0756226,0.101685,0.00856722,0.0043284,-0.0102296,0.0168946,-0.00399901,-0.683251,0.0128059,0.0358704,727,1513,-0.0756235,-0.101704
-490,-489,-0.034729,0.0666504,0.00686443,0.00396912,-0.00798022,0.0135272,-0.00269368,-0.695671,0.0100373,0.0182309,734,1513,-0.0347362,-0.0666492
-483,-489,-0.00958252,0.0474854,0.00552981,0.00263797,-0.00607964,0.0103331,-0.00216532,-0.668652,0.00771251,0.00914103,741,1513,-0.00957462,-0.0475222
-476,-489,-0.0144653,0.0328369,0.00391966,0.00265273,-0.00414945,0.00748372,-0.000911326,-0.709651,0.00531901,0.00853527,748,1513,-0.0144684,-0.0328809
-469,-489,-0.0155029,0.0405273,0.00231555,0.00282146,-0.00260626,0.00518701,-5.0002e-05,-0.833775,0.00347479,0.00955541,755,1513,-0.0155242,-0.0405402
-462,-489,-0.0149536,0.0377197,0.00135039,0.00265007,-0.0017072,0.00382693,0.000173531,-0.967253,0.00249545,0.0146376,762,1513,-0.0149548,-0.0376953
-455,-489,-0.00671387,0.0141602,0.000652074,0.00252571,-0.00136023,0.00324051,-6.27269e-05,-1.08696,0.00218155,0.0175592,769,1513,-0.00672703,-0.0141323
-448,-489,-0.00665283,0.0220947,0.000109588,0.00257456,-0.00134962,0.00316978,-0.000485625,-1.15543,0.00229227,0.0155333,776,1513,-0.00664821,-0.0221105
-441,-489,-0.0125122,0.0375977,-7.45092e-05,0.00259426,-0.00133366,0.00314647,-0.000626719,-1.17823,0.00233476,0.0135706,783,1513,-0.0124832,-0.0375556
-434,-489,-0.0272827,0.0686035,-0.000246002,0.00274934,-0.00130634,0.00323901,-0.000735677,-1.21216,0.00244179,0.0153955,790,1513,-0.0272612,-0.0686593
-427,-489,-0.059021,0.0673828,-0.000505038,0.00274196,-0.0011333,0.00309839,-0.00086147,-1.26608,0.00240475,0.0168339,797,1513,-0.0590448,-0.0674172
-420,-489,-0.0634155,0.0559082,-0.000766591,0.0032507,-0.000877004,0.00343381,-0.000949701,-1.36496,0.00266283,0.0152592,804,1513,-0.0634381,-0.0559202
-413,-489,-0.0499878,0.0534668,-0.000873977,0.00416835,-0.000647576,0.00425019,-0.000955815,-1.44509,0.00320001,0.0139935,811,1513,-0.0499876,-0.0535278
-406,-489,-0.0163574,0.00744629,-0.000386078,0.00580132,-0.00070474,0.00588058,-0.000465332,-1.45881,0.00408434,0.0189798,818,1513,-0.0163662,-0.00741861
-399,-489,-0.0283813,-0.0316162,0.000123665,0.00730336,-0.00106505,0.00745802,-3.09958e-05,-1.42659,0.00498238,0.0300361,825,1513,-0.028366,0.0316404
-392,-489,0.000793457,0.0865479,0.00196326,0.00834338,-0.00186218,0.00884712,0.00145951,-1.30661,0.00547679,0.0389363,832,1513,0.000781586,-0.0866078
-385,-489,0.0593262,0.22876,0.0046918,0.00952211,-0.00239255,0.0105065,0.00370736,-1.18045,0.00615289,0.0434704,839,1513,0.0593232,-0.228754
-378,-489,-0.059082,0.547485,0.0085215,0.0113288,-0.0030371,0.013271,0.00657939,-1.00186,0.00766208,0.0387279,846,1513,-0.0590623,-0.547537
-371,-489,-0.326355,0.761963,0.0131585,0.0130778,-0.00442962,0.0175479,0.00868835,-0.780846,0.0101315,0.0394857,853,1513,-0.326365,-0.761956
-364,-489,-0.791626,1.26526,0.0195952,0.0142758,-0.00605574,0.0235496,0.0103215,-0.57848,0.0136308,0.0415024,860,1513,-0.791638,-1.26521
-357,-489,-0.935974,2.03259,0.0266442,0.0157705,-0.0080577,0.0309278,0.0114869,-0.488611,0.0180519,0.0416963,867,1513,-0.935956,-2.03265
-350,-489,-0.0203247,2.63721,0,0,0,0,0,0,0,-1,874,1513,-0.0203403,-2.63723
-343,-489,0.102051,3.01184,0,0,0,0,0,0,0,-1,881,1513,0.102065,-3.01179
-336,-489,0.511902,3.18054,0,0,0,0,0,0,0,-1,888,1513,0.511894,-3.18056
-329,-489,0.45874,0.473511,0,0,0,0,0,0,0,-1,895,1513,0.458739,-0.47348
-322,-489,0,0,0,0,0,0,0,0,0,-1,902,1513,0,0
-315,-489,0,0,0,0,0,0,0,0,0,-1,909,1513,0,0
-308,-489,0,0,0,0,0,0,0,0,0,-1,916,1513,0,0
-301,-489,0,0,0,0,0,0,0,0,0,-1,923,1513,0,0
-294,-489,0,0,0,0,0,0,0,0,0,-1,930,1513,0,0
-287,-489,0,0,0,0,0,0,0,0,0,-1,937,1513,0,0
-280,-489,0,0,0,0,0,0,0,0,0,-1,944,1513,0,0
-273,-489,0,0,0,0,0,0,0,0,0,-1,951,1513,0,0
-266,-489,0,0,0,0,0,0,0,0,0,-1,958,1513,0,0
-259,-489,0,0,0,0,0,0,0,0,0,-1,965,1513,0,0
-252,-489,0,0,0,0,0,0,0,0,0,-1,972,1513,0,0
-245,-489,0,0,0,0,0,0,0,0,0,-1,979,1513,0,0
-238,-489,0,0,0,0,0,0,0,0,0,-1,986,1513,0,0
-231,-489,0,0,0,0,0,0,0,0,0,-1,993,1513,0,0
-224,-489,0,0,0,0,0,0,0,0,0,-1,1000,1513,0,0
-217,-489,0,0,0,0,0,0,0,0,0,-1,1007,1513,0,0
-210,-489,0,0,0,0,0,0,0,0,0,-1,1014,1513,0,0
-203,-489,0,0,0,0,0,0,0,0,0,-1,1021,1513,0,0
-196,-489,0,0,0,0,0,0,0,0,0,-1,1028,1513,0,0
-189,-489,0,0,0,0,0,0,0,0,0,-1,1035,1513,0,0
-182,-489,0,0,0,0,0,0,0,0,0,-1,1042,1513,0,0
-175,-489,0,0,0,0,0,0,0,0,0,-1,1049,1513,0,0
-168,-489,0,0,0,0,0,0,0,0,0,-1,1056,1513,0,0
-161,-489,0,0,0,0,0,0,0,0,0,-1,1063,1513,0,0
-154,-489,0,0,0,0,0,0,0,0,0,-1,1070,1513,0,0
-147,-489,0,0,0,0,0,0,0,0,0,-1,1077,1513,0,0
-140,-489,0,0,0,0,0,0,0,0,0,-1,1084,1513,0,0
-133,-489,0,0,0,0,0,0,0,0,0,-1,1091,1513,0,0
-126,-489,0,0,0,0,0,0,0,0,0,-1,1098,1513,0,0
-119,-489,0,0,0,0,0,0,0,0,0,-1,1105,1513,0,0
-112,-489,0,0,0,0,0,0,0,0,0,-1,1112,1513,0,0
-105,-489,0,0,0,0,0,0,0,0,0,-1,1119,1513,0,0
-98,-489,0,0,0,0,0,0,0,0,0,-1,1126,1513,0,0
-91,-489,0,0,0,0,0,0,0,0,0,-1,1133,1513,0,0
-84,-489,0,0,0,0,0,0,0,0,0,-1,1140,1513,0,0
-77,-489,0,0,0,0,0,0,0,0,0,-1,1147,1513,0,0
-70,-489,0,0,0,0,0,0,0,0,0,-1,1154,1513,0,0
-63,-489,0,0,0,0,0,0,0,0,0,-1,1161,1513,0,0
-56,-489,0,0,0,0,0,0,0,0,0,-1,1168,1513,0,0
-49,-489,0,0,0,0,0,0,0,0,0,-1,1175,1513,0,0
-42,-489,0,0,0,0,0,0,0,0,0,-1,1182,1513,0,0
-35,-489,0,0,0,0,0,0,0,0,0,-1,1189,1513,0,0
-28,-489,0,0,0,0,0,0,0,0,0,-1,1196,1513,0,0
-21,-489,0,0,0,0,0,0,0,0,0,-1,1203,1513,0,0
-14,-489,0,0,0,0,0,0,0,0,0,-1,1210,1513,0,0
-7,-489,0,0,0,0,0,0,0,0,0,-1,1217,1513,0,0
0,-489,0,0,0,0,0,0,0,0,0,-1,1224,1513,0,0
7,-489,0,0,0,0,0,0,0,0,0,-1,1231,1513,0,0
14,-489,0,0,0,0,0,0,0,0,0,-1,1238,1513,0,0
21,-489,0,0,0,0,0,0,0,0,0,-1,1245,1513,0,0
28,-489,0,0,0,0,0,0,0,0,0,-1,1252,1513,0,0
35,-489,0,0,0,0,0,0,0,0,0,-1,1259,1513,0,0
42,-489,0,0,0,0,0,0,0,0,0,-1,1266,1513,0,0
49,-489,0,0,0,0,0,0,0,0,0,-1,1273,1513,0,0
56,-489,0,0,0,0,0,0,0,0,0,-1,1280,1513,0,0
63,-489,0,0,0,0,0,0,0,0,0,-1,1287,1513,0,0
70,-489,0,0,0,0,0,0,0,0,0,-1,1294,1513,0,0
77,-489,0,0,0,0,0,0,0,0,0,-1,1301,1513,0,0
84,-489,0,0,0,0,0,0,0,0,0,-1,1308,1513,0,0
91,-489,0,0,0,0,0,0,0,0,0,-1,1315,1513,0,0
98,-489,0,0,0,0,0,0,0,0,0,-1,1322,1513,0,0
105,-489,0,0,0,0,0,0,0,0,0,-1,1329,1513,0,0
112,-489,0,0,0,0,0,0,0,0,0,-1,1336,1513,0,0
119,-489,0,0,0,0,0,0,0,0,0,-1,1343,1513,0,0
126,-489,0,0,0,0,0,0,0,0,0,-1,1350,1513,0,0
133,-489,0,0,0,0,0,0,0,0,0,-1,1357,1513,0,0
140,-489,0,0,0,0,0,0,0,0,0,-1,1364,1513,0,0
147,-489,0,0,0,0,0,0,0,0,0,-1,1371,1513,0,0
154,-489,0,0,0,0,0,0,0,0,0,-1,1378,1513,0,0
161,-489,0,0,0,0,0,0,0,0,0,-1,1385,1513,0,0
168,-489,0,0,0,0,0,0,0,0,0,-1,1392,1513,0,0
175,-489,0,0,0,0,0,0,0,0,0,-1,1399,1513,0,0
182,-489,0,0,0,0,0,0,0,0,0,-1,1406,1513,0,0
189,-489,0,0,0,0,0,0,0,0,0,-1,1413,1513,0,0
196,-489,0,0,0,0,0,0,0,0,0,-1,1420,1513,0,0
203,-489,0,0,0,0,0,0,0,0,0,-1,1427,1513,0,0
210,-489,0,0,0,0,0,0,0,0,0,-1,1434,1513,0,0
217,-489,0,0,0,0,0,0,0,0,0,-1,1441,1513,0,0
224,-489,0,0,0,0,0,0,0,0,0,-1,1448,1513,0,0
231,-489,0,0,0,0,0,0,0,0,0,-1,1455,1513,0,0
238,-489,0,0,0,0,0,0,0,0,0,-1,1462,1513,0,0
245,-489,0,0,0,0,0,0,0,0,0,-1,1469,1513,0,0
252,-489,0,0,0,0,0,0,0,0,0,-1,1476,1513,0,0
259,-489,0,0,0,0,0,0,0,0,0,-1,1483,1513,0,0
266,-489,0,0,0,0,0,0,0,0,0,-1,1490,1513,0,0
273,-489,0,0,0,0,0,0,0,0,0,-1,1497,1513,0,0
280,-489,0,0,0,0,0,0,0,0,0,-1,1504,1513,0,0
287,-489,0,0,0,0,0,0,0,0,0,-1,1511,1513,0,0
294,-489,0,0,0,0,0,0,0,0,0,-1,1518,1513,0,0
301,-489,0,0,0,0,0,0,0,0,0,-1,1525,1513,0,0
308,-489,0,0,0,0,0,0,0,0,0,-1,1532,1513,0,0
315,-489,0,0,0,0,0,0,0,0,0,-1,1539,1513,0,0
322,-489,0,0,0,0,0,0,0,0,0,-1,1546,1513,0,0
329,-489,0,0,0,0,0,0,0,0,0,-1,1553,1513,0,0
336,-489,0,0,0,0,0,0,0,0,0,-1,1560,1513,0,0
343,-489,0,0,0,0,0,0,0,0,0,-1,1567,1513,0,0
350,-489,0,0,0,0,0,0,0,0,0,-1,1574,1513,0,0
357,-489,0,0,0,0,0,0,0,0,0,-1,1581,1513,0,0
364,-489,0,0,0,0,0,0,0,0,0,-1,1588,1513,0,0
371,-489,0,0,0,0,0,0,0,0,0,-1,1595,1513,0,0
378,-489,0,0,0,0,0,0,0,0,0,-1,1602,1513,0,0
385,-489,0,0,0,0,0,0,0,0,0,-1,1609,1513,0,0
392,-489,0,0,0,0,0,0,0,0,0,-1,1616,1513,0,0
399,-489,0,0,0,0,0,0,0,0,0,-1,1623,1513,0,0
406,-489,0,0,0,0,0,0,0,0,0,-1,1630,1513,0,0
413,-489,0,0,0,0,0,0,0,0,0,-1,1637,1513,0,0
420,-489,0,0,0,0,0,0,0,0,0,-1,1644,1513,0,0
427,-489,0,0,0,0,0,0,0,0,0,-1,1651,1513,0,0
434,-489,0,0,0,0,0,0,0,0,0,-1,1658,1513,0,0
441,-489,1.6637,4.24817,0,0,0,0,0,0,0,-1,1665,1513,1.6637,-4.24818
448,-489,0.738647,3.11462,-0.00669862,0.0444647,-0.00911956,0.0460416,-0.00827553,-1.39957,0.0337924,0.0473995,1672,1513,0.738668,-3.11467
455,-489,-0.174805,1.98853,0.00217032,0.0471443,-0.00855001,0.0487149,0.000599729,-1.38913,0.0322786,0.0412982,1679,1513,-0.174833,-1.98849
462,-489,-0.989868,0.839233,0.00845709,0.0460928,-0.00802076,0.0477309,0.00681903,-1.36934,0.0298087,0.0457109,1686,1513,-0.989856,-0.83923
469,-489,-1.93262,-0.21228,0.0135163,0.0423857,-0.00700431,0.0439954,0.0119066,-1.34491,0.0262765,0.0479508,1693,1513,-1.93261,0.212251
476,-489,0.527588,1.01501,0.0163554,0.0402206,-0.00561526,0.0414758,0.0151002,-1.35088,0.0242392,0.0426337,1700,1513,0.527528,-1.01502
483,-489,0.546265,1.20313,0.0173433,0.0331014,-0.0041518,0.0341284,0.0163163,-1.32831,0.0197103,0.0466896,1707,1513,0.546218,-1.20317
490,-489,0.329956,1.05066,0.0160769,0.025529,-0.00410752,0.0270645,0.0145414,-1.21305,0.0156402,0.0478711,1714,1513,0.32994,-1.05062
497,-489,0.175659,0.447876,0.0133519,0.0186582,-0.00398357,0.0207913,0.0112188,-1.07918,0.0120164,0.0431324,1721,1513,0.175667,-0.44785
504,-489,0.150757,0.150269,0.011396,0.0133869,-0.00322341,0.0157651,0.00901784,-0.935167,0.00913339,0.0428532,1728,1513,0.150774,-0.150254
511,-489,-0.041626,0.0853271,0.00893777,0.00871686,-0.00280454,0.011634,0.0060206,-0.765716,0.00671828,0.0476529,1735,1513,-0.0416037,-0.0853621
518,-489,-0.0782471,0.134766,0.00570624,0.00544141,-0.00245229,0.00802968,0.00311796,-0.758426,0.00467434,0.0458588,1742,1513,-0.0782168,-0.134769
525,-489,-0.0976563,0.145752,0.00143408,0.00260747,-0.00288082,0.00496073,-0.000919174,-0.885853,0.0036523,0.0425795,1749,1513,-0.0976945,-0.145797
532,-489,-0.0522461,0.118408,-0.000460678,0.00087276,-0.00226654,0.00256861,-0.00215652,-0.928442,0.00273151,0.0324188,1756,1513,-0.0522395,-0.118382
539,-489,-0.0297852,0.0654297,-0.000464176,-4.05071e-05,-0.00154728,0.00130937,-0.00181405,-0.853429,0.00181114,0.0162797,1763,1513,-0.0297873,-0.0653782
546,-489,-0.0354004,0.0445557,8.34908e-05,-5.71703e-05,-0.000764827,0.000781214,-0.000754893,-0.739549,0.000886915,0.0116068,1770,1513,-0.0353468,-0.0445585
553,-489,-0.00402832,0.0322266,0.000183112,-0.00019556,6.04712e-05,0.000192534,-0.000204983,0.154573,0.000229544,0.0135895,1777,1513,-0.00400504,-0.0321874
560,-489,-0.00610352,0.0479736,0.000239293,-0.000174179,0.000387926,0.000472132,-0.000407019,0.540578,0.000508042,0.0130023,1784,1513,-0.00616096,-0.0479502
567,-489,-0.0167236,0.0634766,0.000462414,-6.54288e-05,0.000332514,0.000623016,-0.000226031,0.44995,0.000507745,0.0140652,1791,1513,-0.0167287,-0.0635276
574,-489,-0.0220947,0.0638428,0.000634572,7.53975e-05,5.2392e-05,0.000639439,7.0531e-05,0.0926212,0.000404835,0.0137948,1798,1513,-0.0221552,-0.063858
581,-489,-0.0136719,0.0490723,0.00057666,0.00026127,-8.78095e-05,0.00059946,0.000238471,-0.254036,0.000348499,0.00995366,1805,1513,-0.0136973,-0.0490745
588,-489,-0.0415039,0.0452881,0.000396055,0.000619954,-0.000384538,0.000908506,0.000107502,-0.927047,0.000573207,0.0125194,1812,1513,-0.0415463,-0.0452832
595,-489,-0.0222168,0.0283203,0.000200303,0.000807315,-0.00072294,0.00128787,-0.000280256,-0.984136,0.000965654,0.0187632,1819,1513,-0.0222667,-0.0283255
602,-489,-0.00170898,0.029541,4.84336e-05,0.00129954,-0.00113317,0.00196836,-0.000620383,-1.0376,0.00156069,0.0229684,1826,1513,-0.00169839,-0.0295082
609,-489,0.00134277,0.0170898,0.000169764,0.00190697,-0.00198685,0.00320678,-0.00113005,-0.991467,0.0025978,0.0161076,1833,1513,0.00136285,-0.017076
616,-489,-0.00708008,0.0166016,0.000587072,0.00455543,-0.00366798,0.00674151,-0.001599,-1.03333,0.0051114,0.00998539,1840,1513,-0.00710345,-0.0166494
623,-489,-0.0124512,0.0437012,0.00124958,0.00720796,-0.00514913,0.0101776,-0.00172011,-1.04766,0.00742518,0.0137205,1847,1513,-0.0124868,-0.0437391
630,-489,-0.0369873,0.0512695,0.00188948,0.0110244,-0.00629383,0.0142335,-0.00131955,-1.09928,0.00995801,0.0294008,1854,1513,-0.0369911,-0.0512191
637,-489,-0.0310059,-0.176758,0.00275451,0.0158016,-0.00753687,0.0192461,-0.000689938,-1.14213,0.0130668,0.0425334,1861,1513,-0.0309681,0.176724
644,-489,-0.547852,-0.294922,0,0,0,0,0,0,0,-1,1868,1513,-0.547874,0.294899
651,-489,-0.266846,-0.71106,0,0,0,0,0,0,0,-1,1875,1513,-0.26681,0.711011
658,-489,0.0142822,-1.12708,0,0,0,0,0,0,0,-1,1882,1513,0.014254,1.12712
665,-489,0.957764,-3.57495,0,0,0,0,0,0,0,-1,1889,1513,0.957817,3.57496
672,-489,0,0,0,0,0,0,0,0,0,-1,1896,1513,0,0
679,-489,0,0,0,0,0,0,0,0,0,-1,1903,1513,0,0
686,-489,0,0,0,0,0,0,0,0,0,-1,1910,1513,0,0
693,-489,0,0,0,0,0,0,0,0,0,-1,1917,1513,0,0
700,-489,0,0,0,0,0,0,0,0,0,-1,1924,1513,0,0
707,-489,0,0,0,0,0,0,0,0,0,-1,1931,1513,0,0
714,-489,0,0,0,0,0,0,0,0,0,-1,1938,1513,0,0
721,-489,0,0,0,0,0,0,0,0,0,-1,1945,1513,0,0
728,-489,0,0,0,0,0,0,0,0,0,-1,1952,1513,0,0
735,-489,0,0,0,0,0,0,0,0,0,-1,1959,1513,0,0
742,-489,0,0,0,0,0,0,0,0,0,-1,1966,1513,0,0
749,-489,0,0,0,0,0,0,0,0,0,-1,1973,1513,0,0
756,-489,0,0,0,0,0,0,0,0,0,-1,1980,1513,0,0
763,-489,0,0,0,0,0,0,0,0,0,-1,1987,1513,0,0
770,-489,0,0,0,0,0,0,0,0,0,-1,1994,1513,0,0
777,-489,0,0,0,0,0,0,0,0,0,-1,2001,1513,0,0
784,-489,0,0,0,0,0,0,0,0,0,-1,2008,1513,0,0
791,-489,0,0,0,0,0,0,0,0,0,-1,2015,1513,0,0
798,-489,0,0,0,0,0,0,0,0,0,-1,2022,1513,0,0
805,-489,0,0,0,0,0,0,0,0,0,-1,2029,1513,0,0
812,-489,0,0,0,0,0,0,0,0,0,-1,2036,1513,0,0
-700,-496,0,0,0,0,0,0,0,0,0,-1,524,1520,0,0
-693,-496,0,0,0,0,0,0,0,0,0,-1,531,1520,0,0
-686,-496,0,0,0,0,0,0,0,0,0,-1,538,1520,0,0
-679,-496,0,0,0,0,0,0,0,0,0,-1,545,1520,0,0
-672,-496,0,0,0,0,0,0,0,0,0,-1,552,1520,0,0
-665,-496,0,0,0,0,0,0,0,0,0,-1,559,1520,0,0
-658,-496,0,0,0,0,0,0,0,0,0,-1,566,1520,0,0
-651,-496,0,0,0,0,0,0,0,0,0,-1,573,1520,0,0
-644,-496,0,0,0,0,0,0,0,0,0,-1,580,1520,0,0
-637,-496,0,0,0,0,0,0,0,0,0,-1,587,1520,0,0
-630,-496,0,0,0,0,0,0,0,0,0,-1,594,1520,0,0
-623,-496,0,0,0,0,0,0,0,0,0,-1,601,1520,0,0
-616,-496,0,0,0,0,0,0,0,0,0,-1,608,1520,0,0
-609,-496,0,0,0,0,0,0,0,0,0,-1,615,1520,0,0
-602,-496,0,0,0,0,0,0,0,0,0,-1,622,1520,0,0
-595,-496,0,0,0,0,0,0,0,0,0,-1,629,1520,0,0
-588,-496,0,0,0,0,0,0,0,0,0,-1,636,1520,0,0
-581,-496,0,0,0,0,0,0,0,0,0,-1,643,1520,0,0
-574,-496,0,0,0,0,0,0,0,0,0,-1,650,1520,0,0
-567,-496,0,0,0,0,0,0,0,0,0,-1,657,1520,0,0
-560,-496,0,0,0,0,0,0,0,0,0,-1,664,1520,0,0
-553,-496,0,0,0,0,0,0,0,0,0,-1,671,1520,0,0
-546,-496,0.342773,0.630615,0,0,0,0,0,0,0,-1,678,1520,0.342774,-0.630599
-539,-496,-0.0248413,0.548218,-0.00228025,0.0400508,-0.014218,0.0443829,-0.00661238,-1.27504,0.0320211,0.0453539,685,1520,-0.024855,-0.548256
-532,-496,-0.514099,1.25488,0.00570854,0.0283106,-0.0184111,0.0386123,-0.00459323,-1.06066,0.0274012,0.0454716,692,1520,-0.514126,-1.25482
-525,-496,-0.51355,0.872681,0.0097156,0.0206114,-0.0192308,0.0351511,-0.00482407,-0.923427,0.0251965,0.0483297,699,1520,-0.513528,-0.872709
-518,-496,-0.259033,0.515747,0.0112418,0.0155077,-0.0181673,0.0316669,-0.00491734,-0.843834,0.0229268,0.0465854,706,1520,-0.259031,-0.515763
-511,-496,-0.0762329,0.276123,0.0115358,0.0119028,-0.0162979,0.0280183,-0.00457964,-0.791028,0.0203777,0.0455435,713,1520,-0.0762415,-0.276109
-504,-496,0.00714111,0.248291,0.0107032,0.00948756,-0.0137388,0.0238476,-0.00365687,-0.763292,0.0172471,0.0463367,720,1520,0.00716795,-0.248263
-497,-496,-0.0519409,0.102661,0.00910874,0.00793819,-0.0109103,0.0194495,-0.00240257,-0.758602,0.0138369,0.0451891,727,1520,-0.0519472,-0.102688
-490,-496,-0.0161743,0.0335693,0.00737466,0.00688071,-0.00842711,0.0155584,-0.00130305,-0.770749,0.0108328,0.0336626,734,1520,-0.0161764,-0.0336251
-483,-496,-0.00665283,0.0212402,0.00603798,0.00500254,-0.00640636,0.0119475,-0.000906983,-0.745079,0.00828389,0.0158736,741,1520,-0.00663737,-0.0212402
-476,-496,-0.0231934,0.0264893,0.00444287,0.00454041,-0.00439061,0.00888252,0.000100758,-0.790952,0.00588838,0.0090204,748,1520,-0.0232118,-0.0265451
-469,-496,-0.0344238,0.0316162,0.00274305,0.00435637,-0.00266678,0.00633582,0.000763608,-0.932266,0.00399375,0.00924783,755,1520,-0.0343949,-0.0315575
-462,-496,-0.0333862,0.012207,0.00168701,0.00384894,-0.00151524,0.00462927,0.00090667,-1.09523,0.00283274,0.0134854,762,1520,-0.0333675,-0.0122356
-455,-496,-0.00799561,0.0057373,0.000871649,0.00330873,-0.000930725,0.00362352,0.000556863,-1.24466,0.00225311,0.0181874,769,1520,-0.0080234,-0.00575226
-448,-496,-0.0106812,0.0136719,0.000113091,0.0030121,-0.000753488,0.00319624,-7.10526e-05,-1.33111,0.0021549,0.0175197,776,1520,-0.0106676,-0.0136282
-441,-496,-0.00244141,0.0360107,-0.000215704,0.00260447,-0.000512953,0.00269487,-0.000306105,-1.39635,0.00190682,0.0135454,783,1520,-0.00243933,-0.0359924
-434,-496,-0.0248413,0.0473633,-0.00048867,0.00245942,-0.000334879,0.00249698,-0.000526231,-1.4591,0.00186498,0.0118259,790,1520,-0.0248638,-0.0473322
-427,-496,-0.0512695,0.0438232,-0.000819876,0.0021968,-6.37358e-05,0.00219814,-0.000821222,-1.54968,0.00180264,0.0147738,797,1520,-0.0512747,-0.0438144
-420,-496,-0.0368652,0.043457,-0.0011297,0.00247432,0.000293394,0.00249805,-0.00115342,1.4901,0.0021553,0.0155903,804,1520,-0.0368447,-0.0434033
-413,-496,-0.0354614,0.0395508,-0.00121834,0.00323482,0.000532304,0.00329757,-0.00128108,1.45346,0.0027276,0.0128632,811,1520,-0.035448,-0.0394961
-406,-496,-0.0108643,0.0177002,-0.000687488,0.00472654,0.000437568,0.00476168,-0.000722625,1.49067,0.00344071,0.0134562,818,1520,-0.0108676,-0.0177296
-399,-496,0.0164185,0.015625,-0.000187732,0.00614249,0.000122185,0.00614484,-0.00019009,1.5515,0.00416137,0.0169896,825,1520,0.0164138,-0.015585
-392,-496,0.0403442,0.0550537,0.00151829,0.00737282,-0.000650141,0.00744415,0.00144696,-1.46152,0.00455766,0.0265945,832,1520,0.0403717,-0.0550012
-385,-496,0.00634766,0.0799561,0.00437314,0.0085814,-0.0010781,0.00884151,0.00411303,-1.33405,0.00510877,0.0375657,839,1520,0.00635427,-0.0799377
-378,-496,-0.318359,0.331665,0.00827209,0.0105666,-0.00143824,0.0112591,0.00757958,-1.12206,0.00662916,0.0368332,846,1520,-0.31838,-0.331634
-371,-496,-0.474915,0.605103,0.0127082,0.012726,-0.00238592,0.0151031,0.0103312,-0.787262,0.00891449,0.0379757,853,1520,-0.474907,-0.605118
-364,-496,-0.629639,0.876099,0.0190071,0.0145771,-0.00338633,0.0208385,0.0127457,-0.495775,0.0121307,0.0409927,860,1520,-0.629633,-0.876143
-357,-496,0.0126953,0.431274,0.0259121,0.0169047,-0.00447673,0.0277585,0.0150582,-0.391199,0.0160457,0.041495,867,1520,0.0127042,-0.431276
-350,-496,1.00043,-0.0155029,0,0,0,0,0,0,0,-1,874,1520,1.00041,0.0155202
-343,-496,0.481445,3.85913,0,0,0,0,0,0,0,-1,881,1520,0.48145,-3.85918
-336,-496,2.24652,-0.0650635,0,0,0,0,0,0,0,-1,888,1520,2.24655,0.0650081
-329,-496,3.07294,0.394897,0,0,0,0,0,0,0,-1,895,1520,3.07296,-0.394873
-322,-496,3.89313,0.985962,0,0,0,0,0,0,0,-1,902,1520,3.89314,-0.985987
-315,-496,4.79059,1.79688,0,0,0,0,0,0,0,-1,909,1520,4.79061,-1.79686
-308,-496,0,0,0,0,0,0,0,0,0,-1,916,1520,0,0
-301,-496,0,0,0,0,0,0,0,0,0,-1,923,1520,0,0
-294,-496,0,0,0,0,0,0,0,0,0,-1,930,1520,0,0
-287,-496,0,0,0,0,0,0,0,0,0,-1,937,1520,0,0
-280,-496,0,0,0,0,0,0,0,0,0,-1,944,1520,0,0
-273,-496,0,0,0,0,0,0,0,0,0,-1,951,1520,0,0
-266,-496,0,0,0,0,0,0,0,0,0,-1,958,1520,0,0
-259,-496,0,0,0,0,0,0,0,0,0,-1,965,1520,0,0
-252,-496,0,0,0,0,0,0,0,0,0,-1,972,1520,0,0
-245,-496,0,0,0,0,0,0,0,0,0,-1,979,1520,0,0
-238,-496,0,0,0,0,0,0,0,0,0,-1,986,1520,0,0
-231,-496,0,0,0,0,0,0,0,0,0,-1,993,1520,0,0
-224,-496,0,0,0,0,0,0,0,0,0,-1,1000,1520,0,0
-217,-496,0,0,0,0,0,0,0,0,0,-1,1007,1520,0,0
-210,-496,0,0,0,0,0,0,0,0,0,-1,1014,1520,0,0
-203,-496,0,0,0,0,0,0,0,0,0,-1,1021,1520,0,0
-196,-496,0,0,0,0,0,0,0,0,0,-1,1028,1520,0,0
-189,-496,0,0,0,0,0,0,0,0,0,-1,1035,1520,0,0
-182,-496,0,0,0,0,0,0,0,0,0,-1,1042,1520,0,0
-175,-496,0,0,0,0,0,0,0,0,0,-1,1049,1520,0,0
-168,-496,0,0,0,0,0,0,0,0,0,-1,1056,1520,0,0
-161,-496,0,0,0,0,0,0,0,0,0,-1,1063,1520,0,0
-154,-496,0,0,0,0,0,0,0,0,0,-1,1070,1520,0,0
-147,-496,0,0,0,0,0,0,0,0,0,-1,1077,1520,0,0
-140,-496,0,0,0,0,0,0,0,0,0,-1,1084,1520,0,0
-133,-496,0,0,0,0,0,0,0,0,0,-1,1091,1520,0,0
-126,-496,0,0,0,0,0,0,0,0,0,-1,1098,1520,0,0
-119,-496,0,0,0,0,0,0,0,0,0,-1,1105,1520,0,0
-112,-496,0,0,0,0,0,0,0,0,0,-1,1112,1520,0,0
-105,-496,0,0,0,0,0,0,0,0,0,-1,1119,1520,0,0
-98,-496,0,0,0,0,0,0,0,0,0,-1,1126,1520,0,0
-91,-496,0,0,0,0,0,0,0,0,0,-1,1133,1520,0,0
-84,-496,0,0,0,0,0,0,0,0,0,-1,1140,1520,0,0
-77,-496,0,0,0,0,0,0,0,0,0,-1,1147,1520,0,0
-70,-496,0,0,0,0,0,0,0,0,0,-1,1154,1520,0,0
-63,-496,0,0,0,0,0,0,0,0,0,-1,1161,1520,0,0
-56,-496,0,0,0,0,0,0,0,0,0,-1,1168,1520,0,0
-49,-496,0,0,0,0,0,0,0,0,0,-1,1175,1520,0,0
-42,-496,0,0,0,0,0,0,0,0,0,-1,1182,1520,0,0
-35,-496,0,0,0,0,0,0,0,0,0,-1,1189,1520,0,0
-28,-496,0,0,0,0,0,0,0,0,0,-1,1196,1520,0,0
-21,-496,0,0,0,0,0,0,0,0,0,-1,1203,1520,0,0
-14,-496,0,0,0,0,0,0,0,0,0,-1,1210,1520,0,0
-7,-496,0,0,0,0,0,0,0,0,0,-1,1217,1520,0,0
0,-496,0,0,0,0,0,0,0,0,0,-1,1224,1520,0,0
7,-496,0,0,0,0,0,0,0,0,0,-1,1231,1520,0,0
14,-496,0,0,0,0,0,0,0,0,0,-1,1238,1520,0,0
21,-496,0,0,0,0,0,0,0,0,0,-1,1245,1520,0,0
28,-496,0,0,0,0,0,0,0,0,0,-1,1252,1520,0,0
35,-496,0,0,0,0,0,0,0,0,0,-1,1259,1520,0,0
42,-496,0,0,0,0,0,0,0,0,0,-1,1266,1520,0,0
49,-496,0,0,0,0,0,0,0,0,0,-1,1273,1520,0,0
56,-496,0,0,0,0,0,0,0,0,0,-1,1280,1520,0,0
63,-496,0,0,0,0,0,0,0,0,0,-1,1287,1520,0,0
70,-496,0,0,0,0,0,0,0,0,0,-1,1294,1520,0,0
77,-496,0,0,0,0,0,0,0,0,0,-1,1301,1520,0,0
84,-496,0,0,0,0,0,0,0,0,0,-1,1308,1520,0,0
91,-496,0,0,0,0,0,0,0,0,0,-1,1315,1520,0,0
98,-496,0,0,0,0,0,0,0,0,0,-1,1322,1520,0,0
105,-496,0,0,0,0,0,0,0,0,0,-1,1329,1520,0,0
112,-496,0,0,0,0,0,0,0,0,0,-1,1336,1520,0,0
119,-496,0,0,0,0,0,0,0,0,0,-1,1343,1520,0,0
126,-496,0,0,0,0,0,0,0,0,0,-1,1350,1520,0,0
133,-496,0,0,0,0,0,0,0,0,0,-1,1357,1520,0,0
140,-496,0,0,0,0,0,0,0,0,0,-1,1364,1520,0,0
147,-496,0,0,0,0,0,0,0,0,0,-1,1371,1520,0,0
154,-496,0,0,0,0,0,0,0,0,0,-1,1378,1520,0,0
161,-496,0,0,0,0,0,0,0,0,0,-1,1385,1520,0,0
168,-496,0,0,0,0,0,0,0,0,0,-1,1392,1520,0,0
175,-496,0,0,0,0,0,0,0,0,0,-1,1399,1520,0,0
182,-496,0,0,0,0,0,0,0,0,0,-1,1406,1520,0,0
189,-496,0,0,0,0,0,0,0,0,0,-1,1413,1520,0,0
196,-496,0,0,0,0,0,0,0,0,0,-1,1420,1520,0,0
203,-496,0,0,0,0,0,0,0,0,0,-1,1427,1520,0,0
210,-496,0,0,0,0,0,0,0,0,0,-1,1434,1520,0,0
217,-496,0,0,0,0,0,0,0,0,0,-1,1441,1520,0,0
224,-496,0,0,0,0,0,0,0,0,0,-1,1448,1520,0,0
231,-496,0,0,0,0,0,0,0,0,0,-1,1455,1520,0,0
238,-496,0,0,0,0,0,0,0,0,0,-1,1462,1520,0,0
245,-496,0,0,0,0,0,0,0,0,0,-1,1469,1520,0,0
252,-496,0,0,0,0,0,0,0,0,0,-1,1476,1520,0,0
259,-496,0,0,0,0,0,0,0,0,0,-1,1483,1520,0,0
266,-496,0,0,0,0,0,0,0,0,0,-1,1490,1520,0,0
273,-496,0,0,0,0,0,0,0,0,0,-1,1497,1520,0,0
280,-496,0,0,0,0,0,0,0,0,0,-1,1504,1520,0,0
287,-496,0,0,0,0,0,0,0,0,0,-1,1511,1520,0,0
294,-496,0,0,0,0,0,0,0,0,0,-1,1518,1520,0,0
301,-496,0,0,0,0,0,0,0,0,0,-1,1525,1520,0,0
308,-496,0,0,0,0,0,0,0,0,0,-1,1532,1520,0,0
315,-496,0,0,0,0,0,0,0,0,0,-1,1539,1520,0,0
322,-496,0,0,0,0,0,0,0,0,0,-1,1546,1520,0,0
329,-496,0,0,0,0,0,0,0,0,0,-1,1553,1520,0,0
336,-496,0,0,0,0,0,0,0,0,0,-1,1560,1520,0,0
343,-496,0,0,0,0,0,0,0,0,0,-1,1567,1520,0,0
350,-496,0,0,0,0,0,0,0,0,0,-1,1574,1520,0,0
357,-496,0,0,0,0,0,0,0,0,0,-1,1581,1520,0,0
364,-496,0,0,0,0,0,0,0,0,0,-1,1588,1520,0,0
371,-496,0,0,0,0,0,0,0,0,0,-1,1595,1520,0,0
378,-496,0,0,0,0,0,0,0,0,0,-1,1602,1520,0,0
385,-496,0,0,0,0,0,0,0,0,0,-1,1609,1520,0,0
392,-496,0,0,0,0,0,0,0,0,0,-1,1616,1520,0,0
399,-496,0,0,0,0,0,0,0,0,0,-1,1623,1520,0,0
406,-496,0,0,0,0,0,0,0,0,0,-1,1630,1520,0,0
413,-496,0,0,0,0,0,0,0,0,0,-1,1637,1520,0,0
420,-496,0,0,0,0,0,0,0,0,0,-1,1644,1520,0,0
427,-496,0,0,0,0,0,0,0,0,0,-1,1651,1520,0,0
434,-496,0.297363,1.75134,0,0,0,0,0,0,0,-1,1658,1520,0.297336,-1.75133
441,-496,1.83276,4.21411,0,0,0,0,0,0,0,-1,1665,1520,1.8327,-4.21408
448,-496,0.419922,2.98694,-0.00335195,0.0408986,-0.010225,0.0431471,-0.00560039,-1.35434,0.0308017,0.0456745,1672,1520,0.419945,-2.98699
455,-496,-1.04102,1.65918,0.00253417,0.0425947,-0.00865935,0.0443864,0.000742521,-1.36677,0.0293465,0.0408785,1679,1520,-1.04098,-1.65921
462,-496,-3.12268,2.12427,0,0,0,0,0,0,0,-1,1686,1520,-3.12263,-2.12425
469,-496,-2.98401,-0.0394287,0.0106988,0.0381467,-0.00594742,0.0393799,0.00946556,-1.36633,0.0237358,0.0465406,1693,1520,-2.98403,0.0394194
476,-496,0.538086,0.297852,0.012834,0.0366167,-0.0042883,0.0373663,0.0120844,-1.39774,0.0220174,0.0428383,1700,1520,0.538096,-0.297888
483,-496,1.11523,0.568726,0.013872,0.0304837,-0.00246848,0.0308428,0.013513,-1.42635,0.0178525,0.0445515,1707,1520,1.11529,-0.568727
490,-496,0.611816,0.523193,0,0,0,0,0,0,0,-1,1714,1520,0.611767,-0.523214
497,-496,0.127319,0.320313,0.0107334,0.0177222,-0.00205846,0.0182835,0.0101721,-1.30463,0.0105783,0.0409472,1721,1520,0.127261,-0.320271
504,-496,-0.0185547,0.157227,0.00922375,0.0129814,-0.00139588,0.0134432,0.00876196,-1.25131,0.00787973,0.0390372,1728,1520,-0.0185027,-0.157192
511,-496,-0.119507,-0.114136,0.00714914,0.00869062,-0.00117036,0.00932124,0.00651853,-1.07658,0.00552231,0.0437836,1735,1520,-0.119538,0.114179
518,-496,-0.151978,-0.0699463,0.00420088,0.00561653,-0.00101762,0.00614829,0.00366912,-1.08927,0.00357181,0.0434553,1742,1520,-0.151995,0.0699997
525,-496,-0.371826,-0.284546,0.000252902,0.00308425,-0.00172256,0.00389823,-0.000561074,-1.12936,0.00280461,0.0364408,1749,1520,-0.371801,0.284578
532,-496,-0.0633545,0.0112305,-0.00129627,0.00142691,-0.0014338,0.00204262,-0.00191198,-1.16518,0.00228361,0.0219118,1756,1520,-0.0633238,-0.0112328
539,-496,-0.0343018,0.0373535,-0.0010571,0.000439571,-0.00101494,0.000952232,-0.00156976,-1.10307,0.00147055,0.0119251,1763,1520,-0.0343474,-0.0373379
546,-496,-0.0390625,0.0273438,-0.000331444,0.000325106,-0.000476104,0.000575139,-0.000581476,-1.08722,0.000667775,0.00967194,1770,1520,-0.0390688,-0.0273616
553,-496,-0.012085,0.0336914,2.46463e-05,0.000112681,0.000112556,0.00018952,-5.21935e-05,0.97179,0.000146869,0.0142201,1777,1520,-0.0120469,-0.0336382
560,-496,-0.00610352,0.0537109,0.000248251,7.26308e-05,0.000337244,0.00050893,-0.000188048,0.658038,0.000416373,0.0135546,1784,1520,-0.00606516,-0.0536732
567,-496,-0.0290527,0.050293,0.0005881,8.95863e-05,0.000270972,0.000707021,-2.93347e-05,0.413558,0.000481423,0.0115877,1791,1520,-0.0290045,-0.05029
574,-496,-0.0192871,0.057373,0.000860869,0.000156773,1.36109e-05,0.000861132,0.00015651,0.0193215,0.000529682,0.0122481,1798,1520,-0.019245,-0.0573221
581,-496,-0.0184326,0.0544434,0.000864054,0.000297542,-0.000105683,0.000883127,0.000278469,-0.178553,0.000521338,0.0129098,1805,1520,-0.0184052,-0.0544107
588,-496,-0.019165,0.0256348,0.000748855,0.000615143,-0.000349867,0.0010382,0.000325802,-0.690991,0.000613098,0.015141,1812,1520,-0.019184,-0.0255967
595,-496,-0.0229492,0.0341797,0.000618849,0.000752468,-0.000654667,0.00134373,2.75911e-05,-0.836248,0.000886763,0.0165082,1819,1520,-0.0229519,-0.034209
602,-496,-0.00952148,0.0385742,0.000554212,0.00119125,-0.00103043,0.00195126,-0.000205802,-0.935296,0.00137459,0.0160259,1826,1520,-0.00949164,-0.0386109
609,-496,-0.0078125,0.0333252,0.000744022,0.00177818,-0.00186924,0.00320054,-0.000678334,-0.920337,0.00239208,0.013235,1833,1520,-0.00786461,-0.0333579
616,-496,-0.0214844,0.0284424,0.00121223,0.00438206,-0.00355061,0.00668543,-0.00109115,-0.995317,0.00486166,0.0113493,1840,1520,-0.0214841,-0.0284377
623,-496,-0.0169678,0.050415,0.00191563,0.0070631,-0.00508442,0.0101881,-0.00120935,-1.0197,0.00722897,0.0229751,1847,1520,-0.016919,-0.05038
630,-496,0.0128174,0.050293,0.0026054,0.0109906,-0.00632781,0.0143887,-0.000792724,-1.07798,0.00986734,0.038094,1854,1520,0.0128092,-0.0502481
637,-496,0.0803223,-0.119751,0.00354926,0.0160546,-0.00767939,0.0197049,-0.000101036,-1.12707,0.0131704,0.0441489,1861,1520,0.0802933,0.119703
644,-496,-0.43457,-0.49353,0.00522979,0.0231756,-0.00945809,0.0272399,0.00116549,-1.16494,0.0177842,0.0471185,1868,1520,-0.434547,0.493475
651,-496,-0.258911,-0.758911,0,0,0,0,0,0,0,-1,1875,1520,-0.258909,0.758921
658,-496,0.0383301,-1.12341,0,0,0,0,0,0,0,-1,1882,1520,0.0382951,1.12339
665,-496,1.52051,-4.24011,0,0,0,0,0,0,0,-1,1889,1520,1.52046,4.2401
672,-496,0,0,0,0,0,0,0,0,0,-1,1896,1520,0,0
679,-496,0,0,0,0,0,0,0,0,0,-1,1903,1520,0,0
686,-496,0,0,0,0,0,0,0,0,0,-1,1910,1520,0,0
693,-496,0,0,0,0,0,0,0,0,0,-1,1917,1520,0,0
700,-496,0,0,0,0,0,0,0,0,0,-1,1924,1520,0,0
707,-496,0,0,0,0,0,0,0,0,0,-1,1931,1520,0,0
714,-496,0,0,0,0,0,0,0,0,0,-1,1938,1520,0,0
721,-496,0,0,0,0,0,0,0,0,0,-1,1945,1520,0,0
728,-496,0,0,0,0,0,0,0,0,0,-1,1952,1520,0,0
735,-496,0,0,0,0,0,0,0,0,0,-1,1959,1520,0,0
742,-496,0,0,0,0,0,0,0,0,0,-1,1966,1520,0,0
749,-496,0,0,0,0,0,0,0,0,0,-1,1973,1520,0,0
756,-496,0,0,0,0,0,0,0,0,0,-1,1980,1520,0,0
763,-496,0,0,0,0,0,0,0,0,0,-1,1987,1520,0,0
770,-496,0,0,0,0,0,0,0,0,0,-1,1994,1520,0,0
777,-496,0,0,0,0,0,0,0,0,0,-1,2001,1520,0,0
784,-496,0,0,0,0,0,0,0,0,0,-1,2008,1520,0,0
791,-496,0,0,0,0,0,0,0,0,0,-1,2015,1520,0,0
798,-496,0,0,0,0,0,0,0,0,0,-1,2022,1520,0,0
805,-496,0,0,0,0,0,0,0,0,0,-1,2029,1520,0,0
812,-496,0,0,0,0,0,0,0,0,0,-1,2036,1520,0,0
-700,-503,0,0,0,0,0,0,0,0,0,-1,524,1527,0,0
-693,-503,0,0,0,0,0,0,0,0,0,-1,531,1527,0,0
-686,-503,0,0,0,0,0,0,0,0,0,-1,538,1527,0,0
-679,-503,0,0,0,0,0,0,0,0,0,-1,545,1527,0,0
-672,-503,0,0,0,0,0,0,0,0,0,-1,552,1527,0,0
-665,-503,0,0,0,0,0,0,0,0,0,-1,559,1527,0,0
-658,-503,0,0,0,0,0,0,0,0,0,-1,566,1527,0,0
-651,-503,0,0,0,0,0,0,0,0,0,-1,573,1527,0,0
-644,-503,0,0,0,0,0,0,0,0,0,-1,580,1527,0,0
-637,-503,0,0,0,0,0,0,0,0,0,-1,587,1527,0,0
-630,-503,0,0,0,0,0,0,0,0,0,-1,594,1527,0,0
-623,-503,0,0,0,0,0,0,0,0,0,-1,601,1527,0,0
-616,-503,0,0,0,0,0,0,0,0,0,-1,608,1527,0,0
-609,-503,0,0,0,0,0,0,0,0,0,-1,615,1527,0,0
-602,-503,0,0,0,0,0,0,0,0,0,-1,622,1527,0,0
-595,-503,0,0,0,0,0,0,0,0,0,-1,629,1527,0,0
-588,-503,0,0,0,0,0,0,0,0,0,-1,636,1527,0,0
-581,-503,0,0,0,0,0,0,0,0,0,-1,643,1527,0,0
-574,-503,0,0,0,0,0,0,0,0,0,-1,650,1527,0,0
-567,-503,0,0,0,0,0,0,0,0,0,-1,657,1527,0,0
-560,-503,0,0,0,0,0,0,0,0,0,-1,664,1527,0,0
-553,-503,0,0,0,0,0,0,0,0,0,-1,671,1527,0,0
-546,-503,0,0,0,0,0,0,0,0,0,-1,678,1527,0,0
-539,-503,-0.127319,0.380493,-0.00176233,0.0494732,-0.0170567,0.0546321,-0.00692122,-1.27709,0.0389341,0.0438565,685,1527,-0.127334,-0.380484
-532,-503,-0.325989,0.405884,0.00598555,0.0360533,-0.020661,0.0465713,-0.00453239,-1.09992,0.0326633,0.0454385,692,1527,-0.326007,-0.405897
-525,-503,-0.225464,0.368042,0.00996733,0.0272134,-0.0208686,0.0411703,-0.00398959,-0.981318,0.0288688,0.0457963,699,1527,-0.225476,-0.368062
-518,-503,-0.1922,0.230469,0.0116138,0.0212144,-0.0194023,0.0364014,-0.00357314,-0.906668,0.0255421,0.0449777,706,1527,-0.192204,-0.230487
-511,-503,-0.0584106,0.153931,0.011829,0.016957,-0.0171027,0.0316869,-0.00290082,-0.859803,0.0221549,0.0427928,713,1527,-0.0584121,-0.15398
-504,-503,-0.220276,0.418579,0.0110387,0.0139202,-0.0143003,0.0268522,-0.00189319,-0.835604,0.0185647,0.0443883,720,1527,-0.220257,-0.41853
-497,-503,-0.0483398,0.312866,0.0095829,0.0117478,-0.011347,0.0220639,-0.000733153,-0.832953,0.0149596,0.0481218,727,1527,-0.0483333,-0.312896
-490,-503,0.100769,0.171265,0.0078873,0.00995454,-0.00866396,0.0176463,0.000195515,-0.844768,0.0116996,0.0440605,734,1527,0.100795,-0.171314
-483,-503,0.0541992,0.0866699,0.00655997,0.00753363,-0.00653497,0.0135999,0.000493724,-0.822577,0.00890658,0.0326585,741,1527,0.0541965,-0.0866546
-476,-503,-0.00537109,0.03125,0.00493757,0.0065178,-0.00442836,0.010226,0.00122939,-0.87368,0.00644671,0.0137907,748,1527,-0.00537136,-0.0312144
-469,-503,-0.0317993,0.0377197,0.00315776,0.00593593,-0.00256461,0.00746349,0.00163021,-1.0336,0.00453109,0.00744838,755,1527,-0.0317981,-0.0377066
-462,-503,-0.0436401,0.0335693,0.00212345,0.00499759,-0.00124375,0.00546107,0.00165997,-1.21409,0.00323272,0.00982168,762,1527,-0.0436467,-0.0335914
-455,-503,-0.00872803,0.0480957,0.00122022,0.00395302,-0.000461477,0.00402884,0.0011444,-1.40794,0.00239728,0.0156747,769,1527,-0.00872604,-0.0480603
-448,-503,-0.00805664,0.0524902,0.000310331,0.0032616,-0.000197005,0.00327469,0.000297239,-1.50444,0.0020911,0.0155611,776,1527,-0.00802729,-0.0525483
-441,-503,-0.00195313,0.050293,-6.49832e-05,0.00243245,0.000131443,0.00243935,-7.18822e-05,1.51836,0.00165072,0.0119214,783,1527,-0.00194047,-0.0503189
-434,-503,-0.0112915,0.029541,-0.000339203,0.00205073,0.000296056,0.00208685,-0.000375331,1.44937,0.00153175,0.00934874,790,1527,-0.0113083,-0.0295503
-427,-503,-0.0256958,0.0224609,-0.00063495,0.00157754,0.000487991,0.00168039,-0.000737801,1.36307,0.00143106,0.0151885,797,1527,-0.0256964,-0.0225085
-420,-503,-0.015625,-0.000976563,-0.00089066,0.00169371,0.000769841,0.00190565,-0.0011026,1.30215,0.00175732,0.0173746,804,1527,-0.0156139,0.00102768
-413,-503,-0.0308838,0.02771,-0.000885589,0.00234346,0.000877035,0.00256629,-0.00110842,1.32199,0.00217654,0.0137352,811,1527,-0.0308619,-0.0277544
-406,-503,-0.0245972,0.0439453,-0.000287595,0.00373501,0.00064251,0.00383514,-0.000387727,1.41619,0.00269531,0.010373,818,1527,-0.0246169,-0.0439951
-399,-503,0.00866699,0.0482178,0.000209914,0.00511003,0.0002966,0.00512792,0.000192026,1.51056,0.00335644,0.0105324,825,1527,0.00866284,-0.0482092
-392,-503,0.0269165,0.0528564,0.00173539,0.00650781,-0.000473081,0.00655425,0.00168894,-1.47294,0.00392943,0.0148161,832,1527,0.0269125,-0.0527992
-385,-503,-0.0128784,0.055542,0.00458463,0.00774058,-0.000791746,0.00792807,0.00439714,-1.33827,0.00458637,0.0279729,839,1527,-0.0128562,-0.0555224
-378,-503,-0.230164,0.177856,0.0083667,0.00981495,-0.000828854,0.0101914,0.0079902,-1.14443,0.00619237,0.0355199,846,1527,-0.230169,-0.177823
-371,-503,-0.300415,0.355103,0.012421,0.0122262,-0.00129578,0.0136231,0.0110242,-0.747888,0.00835165,0.0394078,853,1527,-0.300436,-0.355126
-364,-503,0.013916,0.618896,0.0181351,0.0144063,-0.00159383,0.0187235,0.0138179,-0.35366,0.0112108,0.0435709,860,1527,0.0138879,-0.61885
-357,-503,0.555908,0.0682373,0.0243668,0.0172017,-0.00179647,0.024792,0.0167765,-0.232403,0.0146085,0.0453799,867,1527,0.555892,-0.0682557
-350,-503,1.45233,-0.516846,0,0,0,0,0,0,0,-1,874,1527,1.45231,0.516844
-343,-503,2.12866,-0.773438,0.0385249,0.0239839,-0.00169375,0.0387195,0.0237893,-0.114441,0.0225489,0.0421084,881,1527,2.12867,0.773456
-336,-503,2.87543,-0.670898,0,0,0,0,0,0,0,-1,888,1527,2.87545,0.67091
-329,-503,3.71747,-0.187622,0,0,0,0,0,0,0,-1,895,1527,3.71748,0.187676
-322,-503,4.54303,0.362549,0,0,0,0,0,0,0,-1,902,1527,4.543,-0.362546
-315,-503,5.31482,0.89624,0,0,0,0,0,0,0,-1,909,1527,5.31483,-0.896197
-308,-503,6.04938,1.40845,0,0,0,0,0,0,0,-1,916,1527,6.04937,-1.40842
-301,-503,0,0,0,0,0,0,0,0,0,-1,923,1527,0,0
-294,-503,0,0,0,0,0,0,0,0,0,-1,930,1527,0,0
-287,-503,0,0,0,0,0,0,0,0,0,-1,937,1527,0,0
-280,-503,0,0,0,0,0,0,0,0,0,-1,944,1527,0,0
-273,-503,0,0,0,0,0,0,0,0,0,-1,951,1527,0,0
-266,-503,0,0,0,0,0,0,0,0,0,-1,958,1527,0,0
-259,-503,0,0,0,0,0,0,0,0,0,-1,965,1527,0,0
-252,-503,0,0,0,0,0,0,0,0,0,-1,972,1527,0,0
-245,-503,0,0,0,0,0,0,0,0,0,-1,979,1527,0,0
-238,-503,0,0,0,0,0,0,0,0,0,-1,986,1527,0,0
-231,-503,0,0,0,0,0,0,0,0,0,-1,993,1527,0,0
-224,-503,0,0,0,0,0,0,0,0,0,-1,1000,1527,0,0
-217,-503,0,0,0,0,0,0,0,0,0,-1,1007,1527,0,0
-210,-503,0,0,0,0,0,0,0,0,0,-1,1014,1527,0,0
-203,-503,0,0,0,0,0,0,0,0,0,-1,1021,1527,0,0
-196,-503,0,0,0,0,0,0,0,0,0,-1,1028,1527,0,0
-189,-503,0,0,0,0,0,0,0,0,0,-1,1035,1527,0,0
-182,-503,0,0,0,0,0,0,0,0,0,-1,1042,1527,0,0
-175,-503,0,0,0,0,0,0,0,0,0,-1,1049,1527,0,0
-168,-503,0,0,0,0,0,0,0,0,0,-1,1056,1527,0,0
-161,-503,0,0,0,0,0,0,0,0,0,-1,1063,1527,0,0
-154,-503,0,0,0,0,0,0,0,0,0,-1,1070,1527,0,0
-147,-503,0,0,0,0,0,0,0,0,0,-1,1077,1527,0,0
-140,-503,0,0,0,0,0,0,0,0,0,-1,1084,1527,0,0
-133,-503,0,0,0,0,0,0,0,0,0,-1,1091,1527,0,0
-126,-503,0,0,0,0,0,0,0,0,0,-1,1098,1527,0,0
-119,-503,0,0,0,0,0,0,0,0,0,-1,1105,1527,0,0
-112,-503,0,0,0,0,0,0,0,0,0,-1,1112,1527,0,0
-105,-503,0,0,0,0,0,0,0,0,0,-1,1119,1527,0,0
-98,-503,0,0,0,0,0,0,0,0,0,-1,1126,1527,0,0
-91,-503,0,0,0,0,0,0,0,0,0,-1,1133,1527,0,0
-84,-503,0,0,0,0,0,0,0,0,0,-1,1140,1527,0,0
-77,-503,0,0,0,0,0,0,0,0,0,-1,1147,1527,0,0
-70,-503,0,0,0,0,0,0,0,0,0,-1,1154,1527,0,0
-63,-503,0,0,0,0,0,0,0,0,0,-1,1161,1527,0,0
-56,-503,0,0,0,0,0,0,0,0,0,-1,1168,1527,0,0
-49,-503,0,0,0,0,0,0,0,0,0,-1,1175,1527,0,0
-42,-503,0,0,0,0,0,0,0,0,0,-1,1182,1527,0,0
-35,-503,0,0,0,0,0,0,0,0,0,-1,1189,1527,0,0
-28,-503,0,0,0,0,0,0,0,0,0,-1,1196,1527,0,0
-21,-503,0,0,0,0,0,0,0,0,0,-1,1203,1527,0,0
-14,-503,0,0,0,0,0,0,0,0,0,-1,1210,1527,0,0
-7,-503,0,0,0,0,0,0,0,0,0,-1,1217,1527,0,0
0,-503,0,0,0,0,0,0,0,0,0,-1,1224,1527,0,0
7,-503,0,0,0,0,0,0,0,0,0,-1,1231,1527,0,0
14,-503,0,0,0,0,0,0,0,0,0,-1,1238,1527,0,0
21,-503,0,0,0,0,0,0,0,0,0,-1,1245,1527,0,0
28,-503,0,0,0,0,0,0,0,0,0,-1,1252,1527,0,0
35,-503,0,0,0,0,0,0,0,0,0,-1,1259,1527,0,0
42,-503,0,0,0,0,0,0,0,0,0,-1,1266,1527,0,0
49,-503,0,0,0,0,0,0,0,0,0,-1,1273,1527,0,0
56,-503,0,0,0,0,0,0,0,0,0,-1,1280,1527,0,0
63,-503,0,0,0,0,0,0,0,0,0,-1,1287,1527,0,0
70,-503,0,0,0,0,0,0,0,0,0,-1,1294,1527,0,0
77,-503,0,0,0,0,0,0,0,0,0,-1,1301,1527,0,0
84,-503,0,0,0,0,0,0,0,0,0,-1,1308,1527,0,0
91,-503,0,0,0,0,0,0,0,0,0,-1,1315,1527,0,0
98,-503,0,0,0,0,0,0,0,0,0,-1,1322,1527,0,0
105,-503,0,0,0,0,0,0,0,0,0,-1,1329,1527,0,0
112,-503,0,0,0,0,0,0,0,0,0,-1,1336,1527,0,0
119,-503,0,0,0,0,0,0,0,0,0,-1,1343,1527,0,0
126,-503,0,0,0,0,0,0,0,0,0,-1,1350,1527,0,0
133,-503,0,0,0,0,0,0,0,0,0,-1,1357,1527,0,0
140,-503,0,0,0,0,0,0,0,0,0,-1,1364,1527,0,0
147,-503,0,0,0,0,0,0,0,0,0,-1,1371,1527,0,0
154,-503,0,0,0,0,0,0,0,0,0,-1,1378,1527,0,0
161,-503,0,0,0,0,0,0,0,0,0,-1,1385,1527,0,0
168,-503,0,0,0,0,0,0,0,0,0,-1,1392,1527,0,0
175,-503,0,0,0,0,0,0,0,0,0,-1,1399,1527,0,0
182,-503,0,0,0,0,0,0,0,0,0,-1,1406,1527,0,0
189,-503,0,0,0,0,0,0,0,0,0,-1,1413,1527,0,0
196,-503,0,0,0,0,0,0,0,0,0,-1,1420,1527,0,0
203,-503,0,0,0,0,0,0,0,0,0,-1,1427,1527,0,0
210,-503,0,0,0,0,0,0,0,0,0,-1,1434,1527,0,0
217,-503,0,0,0,0,0,0,0,0,0,-1,1441,1527,0,0
224,-503,0,0,0,0,0,0,0,0,0,-1,1448,1527,0,0
231,-503,0,0,0,0,0,0,0,0,0,-1,1455,1527,0,0
238,-503,0,0,0,0,0,0,0,0,0,-1,1462,1527,0,0
245,-503,0,0,0,0,0,0,0,0,0,-1,1469,1527,0,0
252,-503,0,0,0,0,0,0,0,0,0,-1,1476,1527,0,0
259,-503,0,0,0,0,0,0,0,0,0,-1,1483,1527,0,0
266,-503,0,0,0,0,0,0,0,0,0,-1,1490,1527,0,0
273,-503,0,0,0,0,0,0,0,0,0,-1,1497,1527,0,0
280,-503,0,0,0,0,0,0,0,0,0,-1,1504,1527,0,0
287,-503,0,0,0,0,0,0,0,0,0,-1,1511,1527,0,0
294,-503,0,0,0,0,0,0,0,0,0,-1,1518,1527,0,0
301,-503,0,0,0,0,0,0,0,0,0,-1,1525,1527,0,0
308,-503,0,0,0,0,0,0,0,0,0,-1,1532,1527,0,0
315,-503,0,0,0,0,0,0,0,0,0,-1,1539,1527,0,0
322,-503,0,0,0,0,0,0,0,0,0,-1,1546,1527,0,0
329,-503,0,0,0,0,0,0,0,0,0,-1,1553,1527,0,0
336,-503,0,0,0,0,0,0,0,0,0,-1,1560,1527,0,0
343,-503,0,0,0,0,0,0,0,0,0,-1,1567,1527,0,0
350,-503,0,0,0,0,0,0,0,0,0,-1,1574,1527,0,0
357,-503,0,0,0,0,0,0,0,0,0,-1,1581,1527,0,0
364,-503,0,0,0,0,0,0,0,0,0,-1,1588,1527,0,0
371,-503,0,0,0,0,0,0,0,0,0,-1,1595,1527,0,0
378,-503,0,0,0,0,0,0,0,0,0,-1,1602,1527,0,0
385,-503,0,0,0,0,0,0,0,0,0,-1,1609,1527,0,0
392,-503,0,0,0,0,0,0,0,0,0,-1,1616,1527,0,0
399,-503,0,0,0,0,0,0,0,0,0,-1,1623,1527,0,0
406,-503,0,0,0,0,0,0,0,0,0,-1,1630,1527,0,0
413,-503,0,0,0,0,0,0,0,0,0,-1,1637,1527,0,0
420,-503,0,0,0,0,0,0,0,0,0,-1,1644,1527,0,0
427,-503,-0.160889,0.434814,0,0,0,0,0,0,0,-1,1651,1527,-0.160829,-0.43482
434,-503,-0.351807,0.663452,0,0,0,0,0,0,0,-1,1658,1527,-0.351821,-0.6635
441,-503,-0.597778,1.54468,0,0,0,0,0,0,0,-1,1665,1527,-0.597789,-1.54462
448,-503,-1.2572,1.43079,0,0,0,0,0,0,0,-1,1672,1527,-1.25717,-1.43076
455,-503,-1.63281,1.38049,0.00178735,0.0371608,-0.00846804,0.0390834,-0.000135314,-1.34753,0.0261008,0.0462942,1679,1527,-1.63287,-1.38046
462,-503,-2.80884,1.09119,0.00519613,0.0358552,-0.00707443,0.0374088,0.00364247,-1.35461,0.0238181,0.0459348,1686,1527,-2.80881,-1.09123
469,-503,-3.73279,0.433228,0,0,0,0,0,0,0,-1,1693,1527,-3.73283,-0.433245
476,-503,0.33606,-0.0231934,0.00971174,0.0318022,-0.00387929,0.0324636,0.0090503,-1.40192,0.0193447,0.0444401,1700,1527,0.336075,0.0231601
483,-503,0.539795,0.182129,0.0109308,0.0266294,-0.00181369,0.0268362,0.010724,-1.45726,0.0155976,0.0423193,1707,1527,0.539751,-0.182168
490,-503,0.328003,0.226563,0.0105246,0.0209883,-0.00133511,0.0211559,0.010357,-1.44587,0.0122153,0.046095,1714,1527,0.327996,-0.226543
497,-503,0.0374756,0.192505,0.00876672,0.0156832,-0.00112568,0.0158618,0.00858812,-1.41345,0.0091683,0.0418913,1721,1527,0.0374896,-0.192487
504,-503,-0.0383301,0.00598145,0.00763291,0.0115829,-0.000508003,0.0116472,0.00756863,-1.44492,0.00682439,0.0396257,1728,1527,-0.038326,-0.00596816
511,-503,-0.0620117,-0.173462,0.00583597,0.00781594,-0.000371589,0.00788338,0.00576853,-1.39126,0.0047116,0.0424985,1735,1527,-0.0619552,0.17345
518,-503,-0.160034,-0.0726318,0.00312954,0.00508992,-0.000289926,0.0051319,0.00308756,-1.427,0.00298324,0.0396826,1742,1527,-0.159989,0.0725846
525,-503,-0.076416,-0.0394287,-0.000408026,0.00297066,-0.00108526,0.00328922,-0.000726581,-1.28529,0.00247088,0.0242427,1749,1527,-0.0764654,0.0394216
532,-503,-0.00305176,0.036499,-0.00167103,0.00148778,-0.000965295,0.00175941,-0.00194265,-1.2965,0.00213826,0.0103783,1756,1527,-0.00299356,-0.0364599
539,-503,-0.0186768,0.0340576,-0.00138259,0.000477211,-0.000677539,0.000697864,-0.00160324,-1.25596,0.00136239,0.0107188,1763,1527,-0.0187089,-0.034034
546,-503,-0.0300293,0.0281982,-0.00065541,0.000290745,-0.000265044,0.000359932,-0.000724597,-1.31545,0.000637843,0.0107636,1770,1527,-0.030028,-0.02814
553,-503,-0.00927734,0.0330811,-0.000196457,-5.75313e-05,0.000211286,9.54169e-05,-0.000349406,0.944214,0.000270414,0.013243,1777,1527,-0.00933554,-0.0330747
560,-503,-0.00976563,0.0404053,9.30874e-05,-0.000185378,0.000454374,0.000429083,-0.000521373,0.636727,0.000549608,0.0129511,1784,1527,-0.00977412,-0.0403673
567,-503,-0.0355225,0.0341797,0.000484131,-0.000268295,0.000496952,0.000731213,-0.000515378,0.461402,0.000723307,0.0115144,1791,1527,-0.0355824,-0.0341655
574,-503,-0.0222168,0.0511475,0.000797866,-0.000312932,0.000350978,0.000899471,-0.000414537,0.281786,0.000775672,0.012002,1798,1527,-0.0221634,-0.05111
581,-503,-0.0306396,0.048584,0.000875365,-0.000273962,0.00029757,0.000947839,-0.000346436,0.238899,0.000773673,0.0131343,1805,1527,-0.0306695,-0.0485261
588,-503,-0.0300293,0.0150146,0.000859614,-4.53515e-05,0.000137219,0.000879962,-6.57003e-05,0.147222,0.000609723,0.0153608,1812,1527,-0.0300131,-0.0149836
595,-503,-0.0371094,0.0197754,0.000841363,2.38365e-05,-0.00011652,0.000857646,7.55343e-06,-0.138845,0.000569263,0.0115675,1819,1527,-0.037075,-0.0198084
602,-503,-0.0224609,0.0463867,0.00091781,0.000407169,-0.000454222,0.00118355,0.000141427,-0.529353,0.000746372,0.0116875,1826,1527,-0.0225179,-0.0464138
609,-503,-0.0090332,0.0401611,0.00121783,0.000973707,-0.00126074,0.00236241,-0.000170864,-0.737139,0.00163487,0.013847,1833,1527,-0.00898976,-0.0401982
616,-503,-0.0305176,-0.000610352,0.00175361,0.00348907,-0.00291672,0.0056644,-0.000421723,-0.92998,0.0039244,0.0163776,1840,1527,-0.0305753,0.000662598
623,-503,-0.0617676,-0.0549316,0.00247389,0.00617742,-0.00449907,0.0091909,-0.000539593,-0.980626,0.00631482,0.0310237,1847,1527,-0.0617229,0.05492
630,-503,-0.0688477,-0.119019,0.00316979,0.0101616,-0.00585668,0.0134864,-0.00015502,-1.05447,0.00904305,0.0397057,1854,1527,-0.0688323,0.118998
637,-503,-0.0865479,-0.169434,0.00414909,0.0154176,-0.00737065,0.0190608,0.000505879,-1.11173,0.012542,0.0436024,1861,1527,-0.0865248,0.16941
644,-503,-0.148804,-0.0889893,0.00592137,0.0229365,-0.00934437,0.027066,0.00179185,-1.15468,0.0174774,0.0479417,1868,1527,-0.148745,0.0889487
651,-503,-0.335571,-0.87915,0,0,0,0,0,0,0,-1,1875,1527,-0.335628,0.879167
658,-503,0.903931,0.0449219,0,0,0,0,0,0,0,-1,1882,1527,0.90398,-0.0448964
665,-503,0,0,0,0,0,0,0,0,0,-1,1889,1527,0,0
672,-503,0,0,0,0,0,0,0,0,0,-1,1896,1527,0,0
679,-503,0,0,0,0,0,0,0,0,0,-1,1903,1527,0,0
686,-503,0,0,0,0,0,0,0,0,0,-1,1910,1527,0,0
693,-503,0,0,0,0,0,0,0,0,0,-1,1917,1527,0,0
700,-503,0,0,0,0,0,0,0,0,0,-1,1924,1527,0,0
707,-503,0,0,0,0,0,0,0,0,0,-1,1931,1527,0,0
714,-503,0,0,0,0,0,0,0,0,0,-1,1938,1527,0,0
721,-503,0,0,0,0,0,0,0,0,0,-1,1945,1527,0,0
728,-503,0,0,0,0,0,0,0,0,0,-1,1952,1527,0,0
735,-503,0,0,0,0,0,0,0,0,0,-1,1959,1527,0,0
742,-503,0,0,0,0,0,0,0,0,0,-1,1966,1527,0,0
749,-503,0,0,0,0,0,0,0,0,0,-1,1973,1527,0,0
756,-503,0,0,0,0,0,0,0,0,0,-1,1980,1527,0,0
763,-503,0,0,0,0,0,0,0,0,0,-1,1987,1527,0,0
770,-503,0,0,0,0,0,0,0,0,0,-1,1994,1527,0,0
777,-503,0,0,0,0,0,0,0,0,0,-1,2001,1527,0,0
784,-503,0,0,0,0,0,0,0,0,0,-1,2008,1527,0,0
791,-503,0,0,0,0,0,0,0,0,0,-1,2015,1527,0,0
798,-503,0,0,0,0,0,0,0,0,0,-1,2022,1527,0,0
805,-503,0,0,0,0,0,0,0,0,0,-1,2029,1527,0,0
812,-503,0,0,0,0,0,0,0,0,0,-1,2036,1527,0,0
-700,-510,0,0,0,0,0,0,0,0,0,-1,524,1534,0,0
-693,-510,0,0,0,0,0,0,0,0,0,-1,531,1534,0,0
-686,-510,0,0,0,0,0,0,0,0,0,-1,538,1534,0,0
-679,-510,0,0,0,0,0,0,0,0,0,-1,545,1534,0,0
-672,-510,0,0,0,0,0,0,0,0,0,-1,552,1534,0,0
-665,-510,0,0,0,0,0,0,0,0,0,-1,559,1534,0,0
-658,-510,0,0,0,0,0,0,0,0,0,-1,566,1534,0,0
-651,-510,0,0,0,0,0,0,0,0,0,-1,573,1534,0,0
-644,-510,0,0,0,0,0,0,0,0,0,-1,580,1534,0,0
-637,-510,0,0,0,0,0,0,0,0,0,-1,587,1534,0,0
-630,-510,0,0,0,0,0,0,0,0,0,-1,594,1534,0,0
-623,-510,0,0,0,0,0,0,0,0,0,-1,601,1534,0,0
-616,-510,0,0,0,0,0,0,0,0,0,-1,608,1534,0,0
-609,-510,0,0,0,0,0,0,0,0,0,-1,615,1534,0,0
-602,-510,0,0,0,0,0,0,0,0,0,-1,622,1534,0,0
-595,-510,0,0,0,0,0,0,0,0,0,-1,629,1534,0,0
-588,-510,0,0,0,0,0,0,0,0,0,-1,636,1534,0,0
-581,-510,0,0,0,0,0,0,0,0,0,-1,643,1534,0,0
-574,-510,0,0,0,0,0,0,0,0,0,-1,650,1534,0,0
-567,-510,0,0,0,0,0,0,0,0,0,-1,657,1534,0,0
-560,-510,0,0,0,0,0,0,0,0,0,-1,664,1534,0,0
-553,-510,0,0,0,0,0,0,0,0,0,-1,671,1534,0,0
-546,-510,0,0,0,0,0,0,0,0,0,-1,678,1534,0,0
-539,-510,0,0,0,0,0,0,0,0,0,-1,685,1534,0,0
-532,-510,-0.196777,0.453369,0.00615151,0.0388234,-0.0222233,0.0500689,-0.00509402,-1.10234,0.0352004,0.0433934,692,1534,-0.196796,-0.453332
-525,-510,0.0959473,0.449951,0.010351,0.0306901,-0.0221355,0.0448803,-0.00383926,-1.00073,0.0312786,0.0436022,699,1534,0.0959668,-0.449891
-518,-510,-0.102051,0.314575,0,0,0,0,0,0,0,-1,706,1534,-0.102058,-0.314515
-511,-510,-0.0830688,0.333496,0.0123283,0.0210251,-0.0179437,0.0351398,-0.00178634,-0.904274,0.0240441,0.0441601,713,1534,-0.0830736,-0.33354
-504,-510,-0.298218,0.391968,0.0113615,0.0179504,-0.0150247,0.0300376,-0.000725709,-0.893326,0.0202713,0.0439123,720,1534,-0.298216,-0.392006
-497,-510,-0.470093,0.755249,0.00982605,0.0155176,-0.0119591,0.0249648,0.000378778,-0.902204,0.0165184,0.0437799,727,1534,-0.470086,-0.755306
-490,-510,-0.0174561,0.425049,0.00801108,0.0133764,-0.00915845,0.020237,0.00115049,-0.927872,0.0131247,0.0437903,734,1534,-0.0174842,-0.425053
-483,-510,0.0252686,0.23999,0.00657275,0.0105423,-0.0069098,0.0157467,0.00136832,-0.925253,0.0100727,0.0378694,741,1534,0.0252683,-0.239935
-476,-510,0.0377197,0.0394287,0.00483399,0.00900946,-0.00472937,0.0120914,0.00175205,-0.993255,0.00754503,0.0214047,748,1534,0.0377252,-0.0394557
-469,-510,-0.0168457,0.036377,0.00293211,0.00808117,-0.00281383,0.00932054,0.00169274,-1.15591,0.00573336,0.008281,755,1534,-0.0168572,-0.0364081
-462,-510,-0.0357666,0.0421143,0.00193496,0.00670358,-0.00139952,0.00708398,0.00155457,-1.3054,0.00429919,0.00960007,762,1534,-0.035753,-0.0421585
-455,-510,-0.0302734,0.0480957,0.000997299,0.00515162,-0.000468482,0.00520379,0.000945123,-1.45988,0.00320101,0.0123938,769,1534,-0.0302681,-0.0480505
-448,-510,-0.0143433,0.053833,4.76142e-05,0.00404949,-0.000151785,0.00405524,4.18655e-05,-1.53294,0.00268965,0.0123292,776,1534,-0.0143138,-0.0538645
-441,-510,-0.0203247,0.0592041,-0.000232249,0.00279219,0.000233927,0.00281018,-0.000250236,1.49406,0.00196219,0.0125374,783,1534,-0.0203067,-0.0591952
-434,-510,-0.0427856,0.0440674,-0.000356868,0.00215053,0.000371233,0.00220434,-0.000410676,1.42685,0.00162386,0.013135,790,1534,-0.0428061,-0.0440462
-427,-510,-0.0439453,0.00598145,-0.00049646,0.00142539,0.000503561,0.00154934,-0.000620409,1.32945,0.00129041,0.0207031,797,1534,-0.0439229,-0.00599833
-420,-510,-0.0309448,-0.0185547,-0.00059046,0.00129841,0.000753109,0.00156192,-0.00085397,1.23421,0.00141464,0.0209183,804,1534,-0.030932,0.0185774
-413,-510,-0.0349731,0.0397949,-0.000402992,0.00175119,0.000793406,0.00201187,-0.000663667,1.25336,0.00160876,0.0107119,811,1534,-0.0349537,-0.0397761
-406,-510,-0.034668,0.0516357,0.000322788,0.00291341,0.000493352,0.00300418,0.000232016,1.38884,0.0019301,0.0104367,818,1534,-0.0346918,-0.0516569
-399,-510,-0.020813,0.0495605,0.000863476,0.00412901,0.000206446,0.004142,0.000850477,1.50791,0.00252603,0.0109017,825,1534,-0.0208257,-0.0496193
-392,-510,-0.0158691,0.0356445,0.00214597,0.00551366,-0.000488308,0.00558303,0.0020766,-1.42967,0.00325841,0.013181,832,1534,-0.0158953,-0.0356923
-385,-510,-0.0405273,0.043457,0.00482177,0.0066173,-0.000653827,0.00683016,0.00460892,-1.25607,0.00402291,0.0170868,839,1534,-0.0404979,-0.0434732
-378,-510,-0.0739746,0.107788,0.00830997,0.0086053,-0.00039867,0.00888277,0.0080325,-0.962762,0.00565975,0.0273703,846,1534,-0.0739739,-0.107735
-371,-510,0.108154,0.141113,0.0118504,0.0109938,-0.000450085,0.0120434,0.0108008,-0.405074,0.00764846,0.038971,853,1534,0.108154,-0.141142
-364,-510,0.476868,0.23999,0.0168187,0.0132366,-0.000178097,0.0168275,0.0132278,-0.0495562,0.0102317,0.0456231,860,1534,0.476865,-0.239934
-357,-510,0.81427,-0.0147705,0.0222684,0.016221,0.000228099,0.022277,0.0162124,0.0376472,0.013299,0.0485377,867,1534,0.814294,0.0147586
-350,-510,1.15228,-0.280884,0,0,0,0,0,0,0,-1,874,1534,1.15226,0.280862
-343,-510,2.90411,-1.46716,0,0,0,0,0,0,0,-1,881,1534,2.90409,1.46722
-336,-510,3.72394,-1.31006,0,0,0,0,0,0,0,-1,888,1534,3.72395,1.31
-329,-510,4.362,-0.770264,0,0,0,0,0,0,0,-1,895,1534,4.36201,0.770226
-322,-510,5.19287,-0.260864,0,0,0,0,0,0,0,-1,902,1534,5.19287,0.260894
-315,-510,5.78131,0.0557861,0,0,0,0,0,0,0,-1,909,1534,5.7813,-0.0557794
-308,-510,-0.693909,2.68567,0,0,0,0,0,0,0,-1,916,1534,-0.693895,-2.6857
-301,-510,-0.764038,2.66724,0,0,0,0,0,0,0,-1,923,1534,-0.764021,-2.66725
-294,-510,0,0,0,0,0,0,0,0,0,-1,930,1534,0,0
-287,-510,0,0,0,0,0,0,0,0,0,-1,937,1534,0,0
-280,-510,0,0,0,0,0,0,0,0,0,-1,944,1534,0,0
-273,-510,0,0,0,0,0,0,0,0,0,-1,951,1534,0,0
-266,-510,0,0,0,0,0,0,0,0,0,-1,958,1534,0,0
-259,-510,0,0,0,0,0,0,0,0,0,-1,965,1534,0,0
-252,-510,0,0,0,0,0,0,0,0,0,-1,972,1534,0,0
-245,-510,0,0,0,0,0,0,0,0,0,-1,979,1534,0,0
-238,-510,0,0,0,0,0,0,0,0,0,-1,986,1534,0,0
-231,-510,0,0,0,0,0,0,0,0,0,-1,993,1534,0,0
-224,-510,0,0,0,0,0,0,0,0,0,-1,1000,1534,0,0
-217,-510,0,0,0,0,0,0,0,0,0,-1,1007,1534,0,0
-210,-510,0,0,0,0,0,0,0,0,0,-1,1014,1534,0,0
-203,-510,0,0,0,0,0,0,0,0,0,-1,1021,1534,0,0
-196,-510,0,0,0,0,0,0,0,0,0,-1,1028,1534,0,0
-189,-510,0,0,0,0,0,0,0,0,0,-1,1035,1534,0,0
-182,-510,0,0,0,0,0,0,0,0,0,-1,1042,1534,0,0
-175,-510,0,0,0,0,0,0,0,0,0,-1,1049,1534,0,0
-168,-510,0,0,0,0,0,0,0,0,0,-1,1056,1534,0,0
-161,-510,0,0,0,0,0,0,0,0,0,-1,1063,1534,0,0
-154,-510,0,0,0,0,0,0,0,0,0,-1,1070,1534,0,0
-147,-510,0,0,0,0,0,0,0,0,0,-1,1077,1534,0,0
-140,-510,0,0,0,0,0,0,0,0,0,-1,1084,1534,0,0
-133,-510,0,0,0,0,0,0,0,0,0,-1,1091,1534,0,0
-126,-510,0,0,0,0,0,0,0,0,0,-1,1098,1534,0,0
-119,-510,0,0,0,0,0,0,0,0,0,-1,1105,1534,0,0
-112,-510,0,0,0,0,0,0,0,0,0,-1,1112,1534,0,0
-105,-510,0,0,0,0,0,0,0,0,0,-1,1119,1534,0,0
-98,-510,0,0,0,0,0,0,0,0,0,-1,1126,1534,0,0
-91,-510,0,0,0,0,0,0,0,0,0,-1,1133,1534,0,0
-84,-510,0,0,0,0,0,0,0,0,0,-1,1140,1534,0,0
-77,-510,0,0,0,0,0,0,0,0,0,-1,1147,1534,0,0
-70,-510,0,0,0,0,0,0,0,0,0,-1,1154,1534,0,0
-63,-510,0,0,0,0,0,0,0,0,0,-1,1161,1534,0,0
-56,-510,0,0,0,0,0,0,0,0,0,-1,1168,1534,0,0
-49,-510,0,0,0,0,0,0,0,0,0,-1,1175,1534,0,0
-42,-510,0,0,0,0,0,0,0,0,0,-1,1182,1534,0,0
-35,-510,0,0,0,0,0,0,0,0,0,-1,1189,1534,0,0
-28,-510,0,0,0,0,0,0,0,0,0,-1,1196,1534,0,0
-21,-510,0,0,0,0,0,0,0,0,0,-1,1203,1534,0,0
-14,-510,0,0,0,0,0,0,0,0,0,-1,1210,1534,0,0
-7,-510,0,0,0,0,0,0,0,0,0,-1,1217,1534,0,0
0,-510,0,0,0,0,0,0,0,0,0,-1,1224,1534,0,0
7,-510,0,0,0,0,0,0,0,0,0,-1,1231,1534,0,0
14,-510,0,0,0,0,0,0,0,0,0,-1,1238,1534,0,0
21,-510,0,0,0,0,0,0,0,0,0,-1,1245,1534,0,0
28,-510,0,0,0,0,0,0,0,0,0,-1,1252,1534,0,0
35,-510,0,0,0,0,0,0,0,0,0,-1,1259,1534,0,0
42,-510,0,0,0,0,0,0,0,0,0,-1,1266,1534,0,0
49,-510,0,0,0,0,0,0,0,0,0,-1,1273,1534,0,0
56,-510,0,0,0,0,0,0,0,0,0,-1,1280,1534,0,0
63,-510,0,0,0,0,0,0,0,0,0,-1,1287,1534,0,0
70,-510,0,0,0,0,0,0,0,0,0,-1,1294,1534,0,0
77,-510,0,0,0,0,0,0,0,0,0,-1,1301,1534,0,0
84,-510,0,0,0,0,0,0,0,0,0,-1,1308,1534,0,0
91,-510,0,0,0,0,0,0,0,0,0,-1,1315,1534,0,0
98,-510,0,0,0,0,0,0,0,0,0,-1,1322,1534,0,0
105,-510,0,0,0,0,0,0,0,0,0,-1,1329,1534,0,0
112,-510,0,0,0,0,0,0,0,0,0,-1,1336,1534,0,0
119,-510,0,0,0,0,0,0,0,0,0,-1,1343,1534,0,0
126,-510,0,0,0,0,0,0,0,0,0,-1,1350,1534,0,0
133,-510,0,0,0,0,0,0,0,0,0,-1,1357,1534,0,0
140,-510,0,0,0,0,0,0,0,0,0,-1,1364,1534,0,0
147,-510,0,0,0,0,0,0,0,0,0,-1,1371,1534,0,0
154,-510,0,0,0,0,0,0,0,0,0,-1,1378,1534,0,0
161,-510,0,0,0,0,0,0,0,0,0,-1,1385,1534,0,0
168,-510,0,0,0,0,0,0,0,0,0,-1,1392,1534,0,0
175,-510,0,0,0,0,0,0,0,0,0,-1,1399,1534,0,0
182,-510,0,0,0,0,0,0,0,0,0,-1,1406,1534,0,0
189,-510,0,0,0,0,0,0,0,0,0,-1,1413,1534,0,0
196,-510,0,0,0,0,0,0,0,0,0,-1,1420,1534,0,0
203,-510,0,0,0,0,0,0,0,0,0,-1,1427,1534,0,0
210,-510,0,0,0,0,0,0,0,0,0,-1,1434,1534,0,0
217,-510,0,0,0,0,0,0,0,0,0,-1,1441,1534,0,0
224,-510,0,0,0,0,0,0,0,0,0,-1,1448,1534,0,0
231,-510,0,0,0,0,0,0,0,0,0,-1,1455,1534,0,0
238,-510,0,0,0,0,0,0,0,0,0,-1,1462,1534,0,0
245,-510,0,0,0,0,0,0,0,0,0,-1,1469,1534,0,0
252,-510,0,0,0,0,0,0,0,0,0,-1,1476,1534,0,0
259,-510,0,0,0,0,0,0,0,0,0,-1,1483,1534,0,0
266,-510,0,0,0,0,0,0,0,0,0,-1,1490,1534,0,0
273,-510,0,0,0,0,0,0,0,0,0,-1,1497,1534,0,0
280,-510,0,0,0,0,0,0,0,0,0,-1,1504,1534,0,0
287,-510,0,0,0,0,0,0,0,0,0,-1,1511,1534,0,0
294,-510,0,0,0,0,0,0,0,0,0,-1,1518,1534,0,0
301,-510,0,0,0,0,0,0,0,0,0,-1,1525,1534,0,0
308,-510,0,0,0,0,0,0,0,0,0,-1,1532,1534,0,0
315,-510,0,0,0,0,0,0,0,0,0,-1,1539,1534,0,0
322,-510,0,0,0,0,0,0,0,0,0,-1,1546,1534,0,0
329,-510,0,0,0,0,0,0,0,0,0,-1,1553,1534,0,0
336,-510,0,0,0,0,0,0,0,0,0,-1,1560,1534,0,0
343,-510,0,0,0,0,0,0,0,0,0,-1,1567,1534,0,0
350,-510,0,0,0,0,0,0,0,0,0,-1,1574,1534,0,0
357,-510,0,0,0,0,0,0,0,0,0,-1,1581,1534,0,0
364,-510,0,0,0,0,0,0,0,0,0,-1,1588,1534,0,0
371,-510,0,0,0,0,0,0,0,0,0,-1,1595,1534,0,0
378,-510,0,0,0,0,0,0,0,0,0,-1,1602,1534,0,0
385,-510,0,0,0,0,0,0,0,0,0,-1,1609,1534,0,0
392,-510,0,0,0,0,0,0,0,0,0,-1,1616,1534,0,0
399,-510,0,0,0,0,0,0,0,0,0,-1,1623,1534,0,0
406,-510,0,0,0,0,0,0,0,0,0,-1,1630,1534,0,0
413,-510,0,0,0,0,0,0,0,0,0,-1,1637,1534,0,0
420,-510,0.454346,0.459351,0.0048734,0.013614,-0.00749949,0.0179237,0.000563732,-1.04922,0.0117657,0.0428673,1644,1534,0.454369,-0.459393
427,-510,0.207031,0.585083,0.000305583,0.0209799,-0.00895263,0.0243178,-0.00303229,-1.21392,0.0173114,0.0434227,1651,1534,0.207055,-0.585035
434,-510,-0.069458,0.631348,-0.00340355,0.0269079,-0.00987579,0.0298416,-0.00633725,-1.28204,0.0223089,0.0446608,1658,1534,-0.0694115,-0.631339
441,-510,-0.279053,0.895874,-0.00423306,0.0300165,-0.0100611,0.0327534,-0.00696989,-1.3052,0.0244917,0.0458778,1665,1534,-0.279089,-0.895827
448,-510,-0.904297,0.777588,-0.00247582,0.0315078,-0.00960652,0.0340354,-0.0050034,-1.31352,0.0245288,0.0456548,1672,1534,-0.904302,-0.777582
455,-510,-1.57678,0.536621,0.000672593,0.031274,-0.00811094,0.0332909,-0.0013443,-1.32708,0.0226553,0.0463634,1679,1534,-1.57674,-0.536571
462,-510,-2.47485,0.151855,0.00348575,0.0298393,-0.0067525,0.0314688,0.00185632,-1.33402,0.0203886,0.0442128,1686,1534,-2.47491,-0.15189
469,-510,0.132568,0.199463,0.00570787,0.0270373,-0.0054167,0.0283341,0.00441112,-1.33582,0.0176042,0.0459805,1693,1534,0.132526,-0.19944
476,-510,0.081665,0.11499,0.00709318,0.0263606,-0.0037311,0.0270579,0.00639589,-1.38604,0.0163296,0.0463939,1700,1534,0.0817211,-0.115016
483,-510,0.232544,0.103149,0.00843554,0.0221358,-0.00151601,0.0223016,0.00826979,-1.4619,0.0130183,0.0448654,1707,1534,0.23255,-0.103169
490,-510,0.0209961,0.10083,0.00842948,0.0174731,-0.000846569,0.0175517,0.00835092,-1.47826,0.0101374,0.0472325,1714,1534,0.0210498,-0.100808
497,-510,-0.0985107,0.106201,0.00711698,0.0130352,-0.00054295,0.0130846,0.00706759,-1.48006,0.00756251,0.0415388,1721,1534,-0.0985276,-0.106159
504,-510,-0.114502,0.0581055,0.0062771,0.00961801,5.85297e-05,0.00961904,0.00627608,1.55328,0.00563896,0.0388784,1728,1534,-0.114455,-0.0581366
511,-510,-0.0478516,-0.0252686,0.0046866,0.00646969,0.000160915,0.00648409,0.00467219,1.48151,0.0038631,0.0375386,1735,1534,-0.0478987,0.025251
518,-510,0.0106201,0.0535889,0.00222583,0.0041818,0.000205656,0.00420319,0.00220444,1.46716,0.00242768,0.029399,1742,1534,0.0106626,-0.0536346
525,-510,-0.00915527,0.0529785,-0.000847247,0.00252801,-0.000583139,0.00262592,-0.000945156,-1.40445,0.00213653,0.0141007,1749,1534,-0.0091055,-0.0529914
532,-510,0.00390625,0.0418701,-0.00187603,0.00129392,-0.000551565,0.00138715,-0.00196926,-1.40335,0.00194752,0.0109247,1756,1534,0.00384776,-0.0418226
539,-510,-0.0131836,0.0371094,-0.00161131,0.000385814,-0.000339202,0.000441853,-0.00166735,-1.40707,0.00128444,0.0115849,1763,1534,-0.0132205,-0.0371231
546,-510,-0.0186768,0.0284424,-0.000936163,0.000275249,4.2628e-06,0.000275264,-0.000936178,1.56728,0.000733302,0.0110682,1770,1534,-0.0187158,-0.0284509
553,-510,-0.0136719,0.0263672,-0.000383273,-0.00010807,0.000391866,0.000169651,-0.000660994,0.954245,0.000506769,0.0122827,1777,1534,-0.0136131,-0.0264171
560,-510,-0.039917,0.0291748,4.58318e-05,-0.000182951,0.00053496,0.000478494,-0.000615613,0.680068,0.000633334,0.0123485,1784,1534,-0.0399226,-0.0291977
567,-510,-0.0395508,0.0145264,0.000526214,-0.000298643,0.000595415,0.000838089,-0.000610518,0.482502,0.000839787,0.0112884,1791,1534,-0.0396008,-0.0145743
574,-510,-0.0284424,0.0258789,0.000993895,-0.000383331,0.000490537,0.00115075,-0.000540185,0.309485,0.000997249,0.0124662,1798,1534,-0.0284583,-0.0258981
581,-510,-0.0454102,0.0375977,0.00130002,-0.000394131,0.000414325,0.00139592,-0.000490031,0.227455,0.00112995,0.0112806,1805,1534,-0.0453941,-0.0375456
588,-510,-0.0379639,0.0303955,0.00154051,-0.000220377,0.000240116,0.00157267,-0.000252532,0.133123,0.00114197,0.0113984,1812,1534,-0.0379974,-0.0304216
595,-510,-0.0263672,0.0174561,0.00176632,-0.00019893,-7.47519e-05,0.00176916,-0.000201769,-0.0379637,0.00125213,0.0106373,1819,1534,-0.0263963,-0.0174516
602,-510,-0.0179443,0.0314941,0.00213614,0.000116185,-0.000506458,0.00225601,-3.68478e-06,-0.232406,0.00150523,0.0140613,1826,1534,-0.0179421,-0.0314606
609,-510,0.0195313,0.0594482,0.00271227,0.000622218,-0.00140991,0.00342222,-8.77309e-05,-0.466476,0.00231128,0.0227481,1833,1534,0.0195392,-0.0594606
616,-510,0.00476074,0.000488281,0.00347246,0.00291742,-0.00312374,0.00633099,5.88957e-05,-0.741094,0.00420117,0.0332502,1840,1534,0.0047131,-0.0005325
623,-510,-0.0229492,-0.141724,0.00430285,0.00546372,-0.00482022,0.00973832,2.82447e-05,-0.845318,0.00648282,0.0364085,1847,1534,-0.0229445,0.141744
630,-510,-0.14978,-0.302368,0.0050283,0.00930233,-0.00636176,0.0138764,0.000454214,-0.947435,0.00910332,0.0393901,1854,1534,-0.149827,0.302313
637,-510,-0.223755,-0.260254,0.00602214,0.0145382,-0.00807138,0.0194059,0.0011545,-1.02812,0.0125701,0.043858,1861,1534,-0.223808,0.260263
644,-510,-0.284424,-0.161011,0.00772131,0.0221362,-0.0101861,0.0274069,0.00245063,-1.0933,0.0175116,0.0476992,1868,1534,-0.284439,0.16103
651,-510,-0.339111,-0.0784912,0,0,0,0,0,0,0,-1,1875,1534,-0.339116,0.0785302
658,-510,0,0,0,0,0,0,0,0,0,-1,1882,1534,0,0
665,-510,0,0,0,0,0,0,0,0,0,-1,1889,1534,0,0
672,-510,0,0,0,0,0,0,0,0,0,-1,1896,1534,0,0
679,-510,0,0,0,0,0,0,0,0,0,-1,1903,1534,0,0
686,-510,0,0,0,0,0,0,0,0,0,-1,1910,1534,0,0
693,-510,0,0,0,0,0,0,0,0,0,-1,1917,1534,0,0
700,-510,0,0,0,0,0,0,0,0,0,-1,1924,1534,0,0
707,-510,0,0,0,0,0,0,0,0,0,-1,1931,1534,0,0
714,-510,0,0,0,0,0,0,0,0,0,-1,1938,1534,0,0
721,-510,0,0,0,0,0,0,0,0,0,-1,1945,1534,0,0
728,-510,0,0,0,0,0,0,0,0,0,-1,1952,1534,0,0
735,-510,0,0,0,0,0,0,0,0,0,-1,1959,1534,0,0
742,-510,0,0,0,0,0,0,0,0,0,-1,1966,1534,0,0
749,-510,0,0,0,0,0,0,0,0,0,-1,1973,1534,0,0
756,-510,0,0,0,0,0,0,0,0,0,-1,1980,1534,0,0
763,-510,0,0,0,0,0,0,0,0,0,-1,1987,1534,0,0
770,-510,0,0,0,0,0,0,0,0,0,-1,1994,1534,0,0
777,-510,0,0,0,0,0,0,0,0,0,-1,2001,1534,0,0
784,-510,0,0,0,0,0,0,0,0,0,-1,2008,1534,0,0
791,-510,0,0,0,0,0,0,0,0,0,-1,2015,1534,0,0
798,-510,0,0,0,0,0,0,0,0,0,-1,2022,1534,0,0
805,-510,0,0,0,0,0,0,0,0,0,-1,2029,1534,0,0
812,-510,0,0,0,0,0,0,0,0,0,-1,2036,1534,0,0
-700,-517,0,0,0,0,0,0,0,0,0,-1,524,1541,0,0
-693,-517,0,0,0,0,0,0,0,0,0,-1,531,1541,0,0
-686,-517,0,0,0,0,0,0,0,0,0,-1,538,1541,0,0
-679,-517,0,0,0,0,0,0,0,0,0,-1,545,1541,0,0
-672,-517,0,0,0,0,0,0,0,0,0,-1,552,1541,0,0
-665,-517,0,0,0,0,0,0,0,0,0,-1,559,1541,0,0
-658,-517,0,0,0,0,0,0,0,0,0,-1,566,1541,0,0
-651,-517,0,0,0,0,0,0,0,0,0,-1,573,1541,0,0
-644,-517,0,0,0,0,0,0,0,0,0,-1,580,1541,0,0
-637,-517,0,0,0,0,0,0,0,0,0,-1,587,1541,0,0
-630,-517,0,0,0,0,0,0,0,0,0,-1,594,1541,0,0
-623,-517,0,0,0,0,0,0,0,0,0,-1,601,1541,0,0
-616,-517,0,0,0,0,0,0,0,0,0,-1,608,1541,0,0
-609,-517,0,0,0,0,0,0,0,0,0,-1,615,1541,0,0
-602,-517,0,0,0,0,0,0,0,0,0,-1,622,1541,0,0
-595,-517,0,0,0,0,0,0,0,0,0,-1,629,1541,0,0
-588,-517,0,0,0,0,0,0,0,0,0,-1,636,1541,0,0
-581,-517,0,0,0,0,0,0,0,0,0,-1,643,1541,0,0
-574,-517,0,0,0,0,0,0,0,0,0,-1,650,1541,0,0
-567,-517,0,0,0,0,0,0,0,0,0,-1,657,1541,0,0
-560,-517,0,0,0,0,0,0,0,0,0,-1,664,1541,0,0
-553,-517,0,0,0,0,0,0,0,0,0,-1,671,1541,0,0
-546,-517,0,0,0,0,0,0,0,0,0,-1,678,1541,0,0
-539,-517,0,0,0,0,0,0,0,0,0,-1,685,1541,0,0
-532,-517,0,0,0,0,0,0,0,0,0,-1,692,1541,0,0
-525,-517,0.651855,0.925537,0.0116346,0.0330503,-0.0237172,0.0483649,-0.0036799,-0.99744,0.0335372,0.0418122,699,1541,0.651829,-0.9255
-518,-517,0.928711,1.15063,0.0137361,0.028494,-0.0222244,0.0445324,-0.00230229,-0.945683,0.0304847,0.0461202,706,1541,0.928725,-1.1506
-511,-517,-0.503357,0.487793,0.0136737,0.0251563,-0.0194753,0.039719,-0.000888981,-0.928737,0.0267806,0.0451745,713,1541,-0.503366,-0.487784
-504,-517,-0.266663,0.330566,0.0124146,0.0223418,-0.016399,0.034512,0.000244448,-0.932353,0.0229269,0.0457673,720,1541,-0.266645,-0.330613
-497,-517,-0.636536,0.620728,0.0106233,0.019939,-0.0130749,0.0291609,0.00140135,-0.95651,0.0189907,0.0469904,727,1541,-0.636507,-0.620704
-490,-517,0.439575,-0.311768,0.00848389,0.0176244,-0.00997526,0.0240265,0.00208176,-1.00021,0.0153708,0.0391168,734,1541,0.4396,0.311757
-483,-517,0.020752,0.148071,0.0067407,0.0145523,-0.00747044,0.0190764,0.00221663,-1.02627,0.0120469,0.0388675,741,1541,0.020754,-0.148115
-476,-517,0.0505371,-0.0311279,0.00474843,0.0125975,-0.00510547,0.0151125,0.00223341,-1.11308,0.00941921,0.0280864,748,1541,0.0505377,0.0310775
-469,-517,-0.024292,0.0158691,0.00264764,0.0113305,-0.00305765,0.0122992,0.00167897,-1.26399,0.00770104,0.0114483,755,1541,-0.02432,-0.0158751
-462,-517,-0.0361328,0.0373535,0.00160982,0.00950769,-0.00148437,0.00977745,0.00134005,-1.39102,0.00612071,0.0118643,762,1541,-0.0361632,-0.0373401
-455,-517,-0.0333862,0.0424805,0.000555119,0.00743646,-0.000332381,0.00745248,0.000539101,-1.52264,0.00479872,0.0119876,769,1541,-0.0333967,-0.0424659
-448,-517,-0.0245972,0.0456543,-0.000493991,0.00587451,9.04883e-05,0.0058758,-0.000495276,1.55659,0.00409229,0.0124333,776,1541,-0.0245917,-0.0455939
-441,-517,-0.0499268,0.0443115,-0.000722346,0.00414279,0.000547564,0.00420365,-0.000783212,1.46009,0.0030967,0.0115823,783,1541,-0.0499133,-0.0443452
-434,-517,-0.0597534,0.0291748,-0.00072078,0.00316712,0.000655626,0.0032747,-0.000828363,1.40815,0.00250533,0.0135678,790,1541,-0.0597466,-0.0291466
-427,-517,-0.0518188,0.0201416,-0.000739288,0.00210423,0.000747912,0.00228895,-0.000924007,1.32866,0.00190998,0.0123302,797,1541,-0.0518195,-0.0201226
-420,-517,-0.0515747,0.0252686,-0.000680906,0.00158668,0.000965624,0.00194216,-0.00103638,1.21806,0.00174596,0.0184833,804,1541,-0.0515633,-0.0252088
-413,-517,-0.0288696,0.0460205,-0.000301664,0.00169843,0.000923086,0.00205933,-0.000662565,1.1981,0.00163901,0.0102699,811,1541,-0.0288521,-0.0460279
-406,-517,-0.0344238,0.0450439,0.000562163,0.00243179,0.000520018,0.00256669,0.000427259,1.31697,0.00158798,0.0105174,818,1541,-0.0344083,-0.0450752
-399,-517,-0.0336914,0.0430908,0.00118408,0.0033376,0.000263423,0.00336935,0.00115232,1.45083,0.00197741,0.0107395,825,1541,-0.0336975,-0.0431254
-392,-517,-0.034729,0.0284424,0.00227115,0.00450665,-0.000368534,0.00456584,0.00221196,-1.41155,0.00263651,0.0108223,832,1541,-0.0347467,-0.0284145
-385,-517,-0.031311,0.0415039,0.00473213,0.00533462,-0.000424432,0.00555385,0.0045129,-1.09402,0.00340898,0.0116918,839,1541,-0.0313004,-0.041544
-378,-517,-0.0223999,0.0699463,0.00782696,0.00706953,2.32878e-05,0.00782767,0.00706881,0.0307073,0.00498479,0.0189096,846,1541,-0.0224036,-0.0699022
-371,-517,0.159302,-0.0179443,0.0107994,0.00922259,0.000247561,0.0108374,0.00918463,0.152124,0.00674187,0.0327771,853,1541,0.159284,0.0179054
-364,-517,0.351501,-0.151001,0,0,0,0,0,0,0,-1,860,1541,0.351494,0.150986
-357,-517,0.0665894,-0.147827,0,0,0,0,0,0,0,-1,867,1541,0.0666111,0.147771
-350,-517,0.153564,0.20459,0,0,0,0,0,0,0,-1,874,1541,0.153575,-0.204648
-343,-517,3.67828,-2.14246,0,0,0,0,0,0,0,-1,881,1541,3.67829,2.14244
-336,-517,0.194092,-0.741211,0.0358556,0.0272135,0.00503908,0.0381726,0.0248965,0.430981,0.0223767,0.0420822,888,1541,0.194094,0.741151
-329,-517,1.65948,0.705566,0.0408854,0.0328627,0.00619957,0.0442582,0.0294899,0.498253,0.0260194,0.0474981,895,1541,1.6595,-0.705611
-322,-517,1.37848,0.67041,0.0461922,0.0398578,0.00722455,0.0509133,0.0351367,0.578818,0.0300949,0.0477511,902,1541,1.37849,-0.670374
-315,-517,-0.312012,2.42163,0,0,0,0,0,0,0,-1,909,1541,-0.312014,-2.42166
-308,-517,-0.453796,2.21472,0.0502889,0.0461964,0.0117856,0.0602045,0.0362808,0.699444,0.0350023,0.0457544,916,1541,-0.453779,-2.21473
-301,-517,-0.540588,2.01392,0,0,0,0,0,0,0,-1,923,1541,-0.54058,-2.0139
-294,-517,-0.40863,1.85229,0,0,0,0,0,0,0,-1,930,1541,-0.408657,-1.85226
-287,-517,-0.314453,1.69336,0,0,0,0,0,0,0,-1,937,1541,-0.314475,-1.69337
-280,-517,0,0,0,0,0,0,0,0,0,-1,944,1541,0,0
-273,-517,0,0,0,0,0,0,0,0,0,-1,951,1541,0,0
-266,-517,0,0,0,0,0,0,0,0,0,-1,958,1541,0,0
-259,-517,0,0,0,0,0,0,0,0,0,-1,965,1541,0,0
-252,-517,0,0,0,0,0,0,0,0,0,-1,972,1541,0,0
-245,-517,0,0,0,0,0,0,0,0,0,-1,979,1541,0,0
-238,-517,0,0,0,0,0,0,0,0,0,-1,986,1541,0,0
-231,-517,0,0,0,0,0,0,0,0,0,-1,993,1541,0,0
-224,-517,0,0,0,0,0,0,0,0,0,-1,1000,1541,0,0
-217,-517,0,0,0,0,0,0,0,0,0,-1,1007,1541,0,0
-210,-517,0,0,0,0,0,0,0,0,0,-1,1014,1541,0,0
-203,-517,0,0,0,0,0,0,0,0,0,-1,1021,1541,0,0
-196,-517,0,0,0,0,0,0,0,0,0,-1,1028,1541,0,0
-189,-517,0,0,0,0,0,0,0,0,0,-1,1035,1541,0,0
-182,-517,0,0,0,0,0,0,0,0,0,-1,1042,1541,0,0
-175,-517,0,0,0,0,0,0,0,0,0,-1,1049,1541,0,0
-168,-517,0,0,0,0,0,0,0,0,0,-1,1056,1541,0,0
-161,-517,0,0,0,0,0,0,0,0,0,-1,1063,1541,0,0
-154,-517,0,0,0,0,0,0,0,0,0,-1,1070,1541,0,0
-147,-517,0,0,0,0,0,0,0,0,0,-1,1077,1541,0,0
-140,-517,0,0,0,0,0,0,0,0,0,-1,1084,1541,0,0
-133,-517,0,0,0,0,0,0,0,0,0,-1,1091,1541,0,0
-126,-517,0,0,0,0,0,0,0,0,0,-1,1098,1541,0,0
-119,-517,0,0,0,0,0,0,0,0,0,-1,1105,1541,0,0
-112,-517,0,0,0,0,0,0,0,0,0,-1,1112,1541,0,0
-105,-517,0,0,0,0,0,0,0,0,0,-1,1119,1541,0,0
-98,-517,0,0,0,0,0,0,0,0,0,-1,1126,1541,0,0
-91,-517,0,0,0,0,0,0,0,0,0,-1,1133,1541,0,0
-84,-517,0,0,0,0,0,0,0,0,0,-1,1140,1541,0,0
-77,-517,0,0,0,0,0,0,0,0,0,-1,1147,1541,0,0
-70,-517,0,0,0,0,0,0,0,0,0,-1,1154,1541,0,0
-63,-517,0,0,0,0,0,0,0,0,0,-1,1161,1541,0,0
-56,-517,0,0,0,0,0,0,0,0,0,-1,1168,1541,0,0
-49,-517,0,0,0,0,0,0,0,0,0,-1,1175,1541,0,0
-42,-517,0,0,0,0,0,0,0,0,0,-1,1182,1541,0,0
-35,-517,0,0,0,0,0,0,0,0,0,-1,1189,1541,0,0
-28,-517,0,0,0,0,0,0,0,0,0,-1,1196,1541,0,0
-21,-517,0,0,0,0,0,0,0,0,0,-1,1203,1541,0,0
-14,-517,0,0,0,0,0,0,0,0,0,-1,1210,1541,0,0
-7,-517,0,0,0,0,0,0,0,0,0,-1,1217,1541,0,0
0,-517,0,0,0,0,0,0,0,0,0,-1,1224,1541,0,0
7,-517,0,0,0,0,0,0,0,0,0,-1,1231,1541,0,0
14,-517,0,0,0,0,0,0,0,0,0,-1,1238,1541,0,0
21,-517,0,0,0,0,0,0,0,0,0,-1,1245,1541,0,0
28,-517,0,0,0,0,0,0,0,0,0,-1,1252,1541,0,0
35,-517,0,0,0,0,0,0,0,0,0,-1,1259,1541,0,0
42,-517,0,0,0,0,0,0,0,0,0,-1,1266,1541,0,0
49,-517,0,0,0,0,0,0,0,0,0,-1,1273,1541,0,0
56,-517,0,0,0,0,0,0,0,0,0,-1,1280,1541,0,0
63,-517,0,0,0,0,0,0,0,0,0,-1,1287,1541,0,0
70,-517,0,0,0,0,0,0,0,0,0,-1,1294,1541,0,0
77,-517,0,0,0,0,0,0,0,0,0,-1,1301,1541,0,0
84,-517,0,0,0,0,0,0,0,0,0,-1,1308,1541,0,0
91,-517,0,0,0,0,0,0,0,0,0,-1,1315,1541,0,0
98,-517,0,0,0,0,0,0,0,0,0,-1,1322,1541,0,0
105,-517,0,0,0,0,0,0,0,0,0,-1,1329,1541,0,0
112,-517,0,0,0,0,0,0,0,0,0,-1,1336,1541,0,0
119,-517,0,0,0,0,0,0,0,0,0,-1,1343,1541,0,0
126,-517,0,0,0,0,0,0,0,0,0,-1,1350,1541,0,0
133,-517,0,0,0,0,0,0,0,0,0,-1,1357,1541,0,0
140,-517,0,0,0,0,0,0,0,0,0,-1,1364,1541,0,0
147,-517,0,0,0,0,0,0,0,0,0,-1,1371,1541,0,0
154,-517,0,0,0,0,0,0,0,0,0,-1,1378,1541,0,0
161,-517,0,0,0,0,0,0,0,0,0,-1,1385,1541,0,0
168,-517,0,0,0,0,0,0,0,0,0,-1,1392,1541,0,0
175,-517,0,0,0,0,0,0,0,0,0,-1,1399,1541,0,0
182,-517,0,0,0,0,0,0,0,0,0,-1,1406,1541,0,0
189,-517,0,0,0,0,0,0,0,0,0,-1,1413,1541,0,0
196,-517,0,0,0,0,0,0,0,0,0,-1,1420,1541,0,0
203,-517,0,0,0,0,0,0,0,0,0,-1,1427,1541,0,0
210,-517,0,0,0,0,0,0,0,0,0,-1,1434,1541,0,0
217,-517,0,0,0,0,0,0,0,0,0,-1,1441,1541,0,0
224,-517,0,0,0,0,0,0,0,0,0,-1,1448,1541,0,0
231,-517,0,0,0,0,0,0,0,0,0,-1,1455,1541,0,0
238,-517,0,0,0,0,0,0,0,0,0,-1,1462,1541,0,0
245,-517,0,0,0,0,0,0,0,0,0,-1,1469,1541,0,0
252,-517,0,0,0,0,0,0,0,0,0,-1,1476,1541,0,0
259,-517,0,0,0,0,0,0,0,0,0,-1,1483,1541,0,0
266,-517,0,0,0,0,0,0,0,0,0,-1,1490,1541,0,0
273,-517,0,0,0,0,0,0,0,0,0,-1,1497,1541,0,0
280,-517,0,0,0,0,0,0,0,0,0,-1,1504,1541,0,0
287,-517,0,0,0,0,0,0,0,0,0,-1,1511,1541,0,0
294,-517,0,0,0,0,0,0,0,0,0,-1,1518,1541,0,0
301,-517,0,0,0,0,0,0,0,0,0,-1,1525,1541,0,0
308,-517,0,0,0,0,0,0,0,0,0,-1,1532,1541,0,0
315,-517,0,0,0,0,0,0,0,0,0,-1,1539,1541,0,0
322,-517,0,0,0,0,0,0,0,0,0,-1,1546,1541,0,0
329,-517,0,0,0,0,0,0,0,0,0,-1,1553,1541,0,0
336,-517,0,0,0,0,0,0,0,0,0,-1,1560,1541,0,0
343,-517,0,0,0,0,0,0,0,0,0,-1,1567,1541,0,0
350,-517,0,0,0,0,0,0,0,0,0,-1,1574,1541,0,0
357,-517,0,0,0,0,0,0,0,0,0,-1,1581,1541,0,0
364,-517,0,0,0,0,0,0,0,0,0,-1,1588,1541,0,0
371,-517,0,0,0,0,0,0,0,0,0,-1,1595,1541,0,0
378,-517,0,0,0,0,0,0,0,0,0,-1,1602,1541,0,0
385,-517,0,0,0,0,0,0,0,0,0,-1,1609,1541,0,0
392,-517,0,0,0,0,0,0,0,0,0,-1,1616,1541,0,0
399,-517,0,0,0,0,0,0,0,0,0,-1,1623,1541,0,0
406,-517,-0.000610352,2.95435,0.02364,0.00824036,0.000886746,0.0236909,0.00818947,0.0573296,0.0138934,0.0495511,1630,1541,-0.000626547,-2.95434
413,-517,0.431396,3.92297,0.00859228,0.0130794,-0.00394676,0.0153757,0.00629595,-1.04385,0.00892553,0.0468226,1637,1541,0.431448,-3.92296
420,-517,0.901367,4.80408,0.00360292,0.0185433,-0.00527687,0.0202191,0.00192712,-1.2633,0.0128851,0.0488606,1644,1541,0.901337,-4.80413
427,-517,0.984497,0.886841,-2.13053e-05,0.0223539,-0.00704338,0.0243864,-0.00205382,-1.28986,0.0169837,0.0438465,1651,1541,0.984544,-0.886887
434,-517,0.203125,0.600342,-0.00316305,0.0255967,-0.00813359,0.0277376,-0.00530394,-1.31342,0.0204899,0.0430882,1658,1541,0.203092,-0.600287
441,-517,-0.125244,0.451904,-0.00405154,0.0268056,-0.00859342,0.0290373,-0.00628331,-1.3167,0.0217572,0.0434709,1665,1541,-0.125264,-0.451957
448,-517,-0.479614,0.386353,-0.00283495,0.0269325,-0.00837564,0.0291274,-0.00502977,-1.31451,0.0212938,0.0441367,1672,1541,-0.479634,-0.38638
455,-517,-1.11768,0.12439,-0.000449722,0.0259152,-0.00725,0.0277774,-0.00231185,-1.31939,0.019335,0.0434666,1679,1541,-1.11772,-0.124441
462,-517,0.203613,0.449707,0.00185212,0.0243982,-0.00620357,0.0259924,0.000257928,-1.31926,0.017243,0.042065,1686,1541,0.203576,-0.449665
469,-517,0.172363,0.480225,0.00371976,0.0218731,-0.0051471,0.0232309,0.00236194,-1.31287,0.0147631,0.0463502,1693,1541,0.172304,-0.480183
476,-517,0.120483,0.336548,0.00490371,0.0214459,-0.00373635,0.0222507,0.00409894,-1.35865,0.0136738,0.0457669,1700,1541,0.120508,-0.336587
483,-517,0.232666,0.242798,0.00639852,0.0181103,-0.00158384,0.0183207,0.00618811,-1.43872,0.0107615,0.0435647,1707,1541,0.232645,-0.242766
490,-517,0.119263,0.106323,0.0068341,0.0144123,-0.000867765,0.0145104,0.006736,-1.45823,0.00838471,0.0399067,1714,1541,0.119244,-0.106333
497,-517,-0.0904541,0.116455,0.00598035,0.010819,-0.000547698,0.0108802,0.00591913,-1.45948,0.00628979,0.035376,1721,1541,-0.0904449,-0.11651
504,-517,-0.0686035,0.0587158,0.00543699,0.00806097,-8.98971e-06,0.008061,0.00543696,-1.56737,0.00474753,0.0306193,1728,1541,-0.0685689,-0.0586903
511,-517,0.00292969,0.0831299,0.00409253,0.00552107,5.02788e-05,0.00552284,0.00409076,1.53566,0.00330948,0.025646,1735,1541,0.00292411,-0.0831191
518,-517,-0.00952148,0.0556641,0.00192218,0.00365116,7.30411e-05,0.00365424,0.0019191,1.52865,0.00211067,0.0180787,1742,1541,-0.00946915,-0.0556337
525,-517,-0.0266113,0.0198975,-0.000665351,0.00240544,-0.000632516,0.00253062,-0.000790532,-1.37541,0.00200328,0.0106873,1749,1541,-0.0266228,-0.0199136
532,-517,-0.00549316,0.0163574,-0.00150765,0.00141144,-0.000594918,0.00152803,-0.00162424,-1.37727,0.00182024,0.0101963,1756,1541,-0.0054643,-0.016338
539,-517,-0.00170898,0.0189209,-0.00135132,0.000625472,-0.000355605,0.000687496,-0.00141334,-1.39812,0.00123682,0.0108098,1763,1541,-0.00173512,-0.0188703
546,-517,-0.00915527,0.0164795,-0.000834268,0.000631725,1.34457e-05,0.000631848,-0.000834391,1.56163,0.000849221,0.0109261,1770,1541,-0.00911844,-0.0164401
553,-517,-0.0222168,0.019043,-0.000358866,0.000330824,0.000418381,0.000528161,-0.000556202,1.13007,0.000626127,0.0145481,1777,1541,-0.0222665,-0.019014
560,-517,-0.0430908,0.0264893,5.6925e-05,0.000341487,0.0006434,0.00085815,-0.000459738,0.894217,0.000772386,0.0143548,1784,1541,-0.043151,-0.0264386
567,-517,-0.0334473,0.0380859,0.000535938,0.000250255,0.000876173,0.00128084,-0.000494643,0.704595,0.00105804,0.0117333,1791,1541,-0.0334138,-0.0381246
574,-517,-0.0174561,0.0290527,0.00104504,0.000218281,0.000920574,0.00164079,-0.000377468,0.574369,0.001239,0.0124842,1798,1541,-0.0174823,-0.0290763
581,-517,-0.0350342,0.0183105,0.00145119,0.000263665,0.000946068,0.00197439,-0.000259532,0.505161,0.00141075,0.0138326,1805,1541,-0.0350902,-0.0182722
588,-517,-0.0369873,0.0279541,0.0018726,0.000463206,0.000870583,0.00228796,4.78531e-05,0.445158,0.00150961,0.0137905,1812,1541,-0.037019,-0.0279341
595,-517,-0.0310059,0.0310059,0.00234728,0.000506635,0.000613157,0.00253283,0.000321084,0.293854,0.00159235,0.0120732,1819,1541,-0.0310564,-0.031014
602,-517,-0.0106201,0.0158691,0.00303549,0.000799781,0.00018822,0.00305122,0.000784046,0.083406,0.00182968,0.0179463,1826,1541,-0.0105833,-0.0159148
609,-517,0.0981445,0.0810547,0.0039129,0.00124114,-0.000700455,0.0040854,0.00106864,-0.241465,0.00244647,0.0346611,1833,1541,0.0981595,-0.0810397
616,-517,0.184326,0.0860596,0.00494105,0.00323206,-0.00233066,0.00656892,0.0016042,-0.609691,0.00395454,0.0387535,1840,1541,0.184335,-0.0860807
623,-517,0.35376,-0.178467,0.00599298,0.00549116,-0.00399615,0.00974609,0.00173805,-0.754045,0.00600251,0.039976,1847,1541,0.353796,0.178512
630,-517,0.0793457,-0.280396,0.00696106,0.00892086,-0.00568034,0.0137052,0.00217672,-0.870811,0.0085046,0.0442597,1854,1541,0.0793843,0.280455
637,-517,-0.0982666,-0.323608,0.00818543,0.0139179,-0.00771867,0.0192853,0.00281802,-0.963177,0.0120281,0.0481306,1861,1541,-0.0982639,0.323669
644,-517,-0.144043,-0.215332,0.0100424,0.0213098,-0.0100955,0.0272371,0.00411507,-1.0399,0.0169537,0.0480007,1868,1541,-0.144034,0.215309
651,-517,0,0,0,0,0,0,0,0,0,-1,1875,1541,0,0
658,-517,0,0,0,0,0,0,0,0,0,-1,1882,1541,0,0
665,-517,0,0,0,0,0,0,0,0,0,-1,1889,1541,0,0
672,-517,0,0,0,0,0,0,0,0,0,-1,1896,1541,0,0
679,-517,0,0,0,0,0,0,0,0,0,-1,1903,1541,0,0
686,-517,0,0,0,0,0,0,0,0,0,-1,1910,1541,0,0
693,-517,0,0,0,0,0,0,0,0,0,-1,1917,1541,0,0
700,-517,0,0,0,0,0,0,0,0,0,-1,1924,1541,0,0
707,-517,0,0,0,0,0,0,0,0,0,-1,1931,1541,0,0
714,-517,0,0,0,0,0,0,0,0,0,-1,1938,1541,0,0
721,-517,0,0,0,0,0,0,0,0,0,-1,1945,1541,0,0
728,-517,0,0,0,0,0,0,0,0,0,-1,1952,1541,0,0
735,-517,0,0,0,0,0,0,0,0,0,-1,1959,1541,0,0
742,-517,0,0,0,0,0,0,0,0,0,-1,1966,1541,0,0
749,-517,0,0,0,0,0,0,0,0,0,-1,1973,1541,0,0
756,-517,0,0,0,0,0,0,0,0,0,-1,1980,1541,0,0
763,-517,0,0,0,0,0,0,0,0,0,-1,1987,1541,0,0
770,-517,0,0,0,0,0,0,0,0,0,-1,1994,1541,0,0
777,-517,0,0,0,0,0,0,0,0,0,-1,2001,1541,0,0
784,-517,0,0,0,0,0,0,0,0,0,-1,2008,1541,0,0
791,-517,0,0,0,0,0,0,0,0,0,-1,2015,1541,0,0
798,-517,0,0,0,0,0,0,0,0,0,-1,2022,1541,0,0
805,-517,0,0,0,0,0,0,0,0,0,-1,2029,1541,0,0
812,-517,0,0,0,0,0,0,0,0,0,-1,2036,1541,0,0
-700,-524,0,0,0,0,0,0,0,0,0,-1,524,1548,0,0
-693,-524,0,0,0,0,0,0,0,0,0,-1,531,1548,0,0
-686,-524,0,0,0,0,0,0,0,0,0,-1,538,1548,0,0
-679,-524,0,0,0,0,0,0,0,0,0,-1,545,1548,0,0
-672,-524,0,0,0,0,0,0,0,0,0,-1,552,1548,0,0
-665,-524,0,0,0,0,0,0,0,0,0,-1,559,1548,0,0
-658,-524,0,0,0,0,0,0,0,0,0,-1,566,1548,0,0
-651,-524,0,0,0,0,0,0,0,0,0,-1,573,1548,0,0
-644,-524,0,0,0,0,0,0,0,0,0,-1,580,1548,0,0
-637,-524,0,0,0,0,0,0,0,0,0,-1,587,1548,0,0
-630,-524,0,0,0,0,0,0,0,0,0,-1,594,1548,0,0
-623,-524,0,0,0,0,0,0,0,0,0,-1,601,1548,0,0
-616,-524,0,0,0,0,0,0,0,0,0,-1,608,1548,0,0
-609,-524,0,0,0,0,0,0,0,0,0,-1,615,1548,0,0
-602,-524,0,0,0,0,0,0,0,0,0,-1,622,1548,0,0
-595,-524,0,0,0,0,0,0,0,0,0,-1,629,1548,0,0
-588,-524,0,0,0,0,0,0,0,0,0,-1,636,1548,0,0
-581,-524,0,0,0,0,0,0,0,0,0,-1,643,1548,0,0
-574,-524,0,0,0,0,0,0,0,0,0,-1,650,1548,0,0
-567,-524,0,0,0,0,0,0,0,0,0,-1,657,1548,0,0
-560,-524,0,0,0,0,0,0,0,0,0,-1,664,1548,0,0
-553,-524,0,0,0,0,0,0,0,0,0,-1,671,1548,0,0
-546,-524,0,0,0,0,0,0,0,0,0,-1,678,1548,0,0
-539,-524,0,0,0,0,0,0,0,0,0,-1,685,1548,0,0
-532,-524,0,0,0,0,0,0,0,0,0,-1,692,1548,0,0
-525,-524,0.504761,1.69751,0.0159183,0.03274,-0.0264012,0.0520377,-0.00337939,-0.939604,0.0358714,0.0393694,699,1548,0.504734,-1.69748
-518,-524,0.938904,1.47156,0.0175335,0.0302958,-0.0240405,0.0487876,-0.000958296,-0.915124,0.0328491,0.0450548,706,1548,0.93891,-1.4716
-511,-524,-0.832153,0.376465,0.0167233,0.0283506,-0.0207154,0.0440526,0.00102126,-0.922202,0.029034,0.0452367,713,1548,-0.832128,-0.376431
-504,-524,-0.0704346,0.234131,0.0148426,0.0262017,-0.017236,0.0386698,0.0023745,-0.944555,0.0250259,0.0432868,720,1548,-0.0704186,-0.234137
-497,-524,0.578125,-0.521118,0.0125977,0.0240098,-0.0134507,0.0329148,0.00369278,-0.986002,0.0208217,0.0396444,727,1548,0.578109,0.521087
-490,-524,0.100647,-0.132446,0.00999685,0.0215817,-0.00996728,0.0273174,0.0042611,-1.04862,0.0169705,0.0384132,734,1548,0.100647,0.132443
-483,-524,-0.0900269,-0.0732422,0.00781514,0.0183317,-0.00717861,0.0219719,0.00417501,-1.1015,0.0134736,0.0428942,741,1548,-0.0900037,0.073195
-476,-524,-0.0537109,-0.00256348,0.00546953,0.0159305,-0.00464512,0.0176954,0.00370466,-1.2077,0.0107764,0.0406262,748,1548,-0.0537231,0.00251339
-469,-524,-0.057251,0.0354004,0.00309255,0.0142936,-0.00252199,0.0148352,0.0025509,-1.35924,0.00915903,0.0293069,755,1548,-0.0572288,-0.0354161
-462,-524,-0.0593262,0.0559082,0.00189546,0.0119985,-0.000898369,0.0120778,0.0018162,-1.4828,0.00751994,0.0216737,762,1548,-0.059341,-0.0558818
-455,-524,-0.0407104,0.0710449,0.000636434,0.00940952,0.000362141,0.00942445,0.000621511,1.52961,0.00608638,0.0136924,769,1548,-0.0407132,-0.071002
-448,-524,-0.0169067,0.0577393,-0.000586396,0.00743124,0.000778306,0.00750609,-0.00066125,1.47491,0.00523841,0.0113195,776,1548,-0.0168811,-0.0577034
-441,-524,-0.0375366,0.0438232,-0.000875837,0.00530785,0.00118627,0.00552761,-0.0010956,1.38762,0.00409937,0.0106295,783,1548,-0.0375445,-0.0438699
-434,-524,-0.0491943,0.0228271,-0.000869728,0.00406935,0.00118566,0.00433923,-0.00113961,1.34699,0.00333817,0.0118703,790,1548,-0.0491701,-0.0228681
-427,-524,-0.0327759,0.0136719,-0.00088095,0.00274797,0.00118015,0.003098,-0.00123098,1.28246,0.00257566,0.011611,797,1548,-0.0327675,-0.0136818
-420,-524,-0.032959,0.0317383,-0.00081768,0.00190346,0.00134519,0.00245619,-0.00137041,1.18094,0.00223873,0.009985,804,1548,-0.0329434,-0.0317714
-413,-524,-0.0119629,0.0429688,-0.000377029,0.00177127,0.00110491,0.00223811,-0.000843863,1.17104,0.00183907,0.00977411,811,1548,-0.0119478,-0.0429528
-406,-524,-0.00640869,0.0487061,0.000550536,0.00215461,0.000654101,0.00238752,0.000317628,1.22872,0.00149708,0.0103217,818,1548,-0.00638872,-0.048701
-399,-524,-0.0141602,0.0418701,0.00118874,0.00276358,0.000446415,0.00288132,0.001071,1.31292,0.00168169,0.00881672,825,1548,-0.0141775,-0.041841
-392,-524,-0.0258789,0.0356445,0.00207604,0.00366975,-0.000131601,0.00368054,0.00206525,-1.48896,0.00213025,0.00951681,832,1548,-0.025882,-0.0356931
-385,-524,-0.0408325,0.0557861,0.00425682,0.00423292,-0.000124449,0.00436989,0.00411985,-0.737524,0.00283359,0.010337,839,1548,-0.0408419,-0.0557564
-378,-524,-0.0323486,0.0593262,0.00692446,0.00564692,0.000413128,0.00704642,0.00552497,0.287045,0.00428154,0.0120826,846,1548,-0.0323316,-0.0592966
-371,-524,0.010498,0.0273438,0.00935194,0.00745948,0.000776953,0.00963005,0.00718138,0.343739,0.00577939,0.0216135,853,1548,0.0104742,-0.0272906
-364,-524,-0.0273438,0.0371094,0.0127766,0.00928763,0.0015708,0.0133796,0.00868465,0.366526,0.00783837,0.0330461,860,1548,-0.0273609,-0.0371439
-357,-524,-0.071106,-0.0239258,0.0167081,0.0120226,0.00248704,0.0177821,0.0109487,0.407633,0.0103577,0.0440521,867,1548,-0.0711155,0.0238836
-350,-524,0.0996704,0.228027,0.0212259,0.0155612,0.00362184,0.0229914,0.0137957,0.453556,0.0133624,0.0462607,874,1548,0.0996697,-0.228055
-343,-524,-0.0377808,0.069458,0,0,0,0,0,0,0,-1,881,1548,-0.0378007,-0.0693992
-336,-524,0.148132,-0.0760498,0.030588,0.0243639,0.00618878,0.0344031,0.0205488,0.552434,0.0199876,0.041542,888,1548,0.148146,0.0760328
-329,-524,0.836731,0.155151,0.0350192,0.0296888,0.00751531,0.0403279,0.0243801,0.614999,0.0234524,0.0464326,895,1548,0.836712,-0.155161
-322,-524,1.04694,0.0932617,0.0396487,0.0361733,0.008801,0.0468819,0.0289401,0.687931,0.0273144,0.0491422,902,1548,1.04694,-0.0932354
-315,-524,-0.582642,1.56519,0,0,0,0,0,0,0,-1,909,1548,-0.582652,-1.56521
-308,-524,-0.219482,1.80505,0,0,0,0,0,0,0,-1,916,1548,-0.219456,-1.80506
-301,-524,-0.15448,2.29919,0,0,0,0,0,0,0,-1,923,1548,-0.154458,-2.29917
-294,-524,0.242371,2.16748,0,0,0,0,0,0,0,-1,930,1548,0.242396,-2.16752
-287,-524,-0.323181,-2.05957,0,0,0,0,0,0,0,-1,937,1548,-0.323196,2.0596
-280,-524,-0.00170898,-1.67737,0,0,0,0,0,0,0,-1,944,1548,-0.00171635,1.67737
-273,-524,0,0,0,0,0,0,0,0,0,-1,951,1548,0,0
-266,-524,0,0,0,0,0,0,0,0,0,-1,958,1548,0,0
-259,-524,0,0,0,0,0,0,0,0,0,-1,965,1548,0,0
-252,-524,0,0,0,0,0,0,0,0,0,-1,972,1548,0,0
-245,-524,0,0,0,0,0,0,0,0,0,-1,979,1548,0,0
-238,-524,0,0,0,0,0,0,0,0,0,-1,986,1548,0,0
-231,-524,0,0,0,0,0,0,0,0,0,-1,993,1548,0,0
-224,-524,0,0,0,0,0,0,0,0,0,-1,1000,1548,0,0
-217,-524,0,0,0,0,0,0,0,0,0,-1,1007,1548,0,0
-210,-524,0,0,0,0,0,0,0,0,0,-1,1014,1548,0,0
-203,-524,0,0,0,0,0,0,0,0,0,-1,1021,1548,0,0
-196,-524,0,0,0,0,0,0,0,0,0,-1,1028,1548,0,0
-189,-524,0,0,0,0,0,0,0,0,0,-1,1035,1548,0,0
-182,-524,0,0,0,0,0,0,0,0,0,-1,1042,1548,0,0
-175,-524,0,0,0,0,0,0,0,0,0,-1,1049,1548,0,0
-168,-524,0,0,0,0,0,0,0,0,0,-1,1056,1548,0,0
-161,-524,0,0,0,0,0,0,0,0,0,-1,1063,1548,0,0
-154,-524,0,0,0,0,0,0,0,0,0,-1,1070,1548,0,0
-147,-524,0,0,0,0,0,0,0,0,0,-1,1077,1548,0,0
-140,-524,0,0,0,0,0,0,0,0,0,-1,1084,1548,0,0
-133,-524,0,0,0,0,0,0,0,0,0,-1,1091,1548,0,0
-126,-524,0,0,0,0,0,0,0,0,0,-1,1098,1548,0,0
-119,-524,0,0,0,0,0,0,0,0,0,-1,1105,1548,0,0
-112,-524,0,0,0,0,0,0,0,0,0,-1,1112,1548,0,0
-105,-524,0,0,0,0,0,0,0,0,0,-1,1119,1548,0,0
-98,-524,0,0,0,0,0,0,0,0,0,-1,1126,1548,0,0
-91,-524,0,0,0,0,0,0,0,0,0,-1,1133,1548,0,0
-84,-524,0,0,0,0,0,0,0,0,0,-1,1140,1548,0,0
-77,-524,0,0,0,0,0,0,0,0,0,-1,1147,1548,0,0
-70,-524,0,0,0,0,0,0,0,0,0,-1,1154,1548,0,0
-63,-524,0,0,0,0,0,0,0,0,0,-1,1161,1548,0,0
-56,-524,0,0,0,0,0,0,0,0,0,-1,1168,1548,0,0
-49,-524,0,0,0,0,0,0,0,0,0,-1,1175,1548,0,0
-42,-524,0,0,0,0,0,0,0,0,0,-1,1182,1548,0,0
-35,-524,0,0,0,0,0,0,0,0,0,-1,1189,1548,0,0
-28,-524,0,0,0,0,0,0,0,0,0,-1,1196,1548,0,0
-21,-524,0,0,0,0,0,0,0,0,0,-1,1203,1548,0,0
-14,-524,0,0,0,0,0,0,0,0,0,-1,1210,1548,0,0
-7,-524,0,0,0,0,0,0,0,0,0,-1,1217,1548,0,0
0,-524,0,0,0,0,0,0,0,0,0,-1,1224,1548,0,0
7,-524,0,0,0,0,0,0,0,0,0,-1,1231,1548,0,0
14,-524,0,0,0,0,0,0,0,0,0,-1,1238,1548,0,0
21,-524,0,0,0,0,0,0,0,0,0,-1,1245,1548,0,0
28,-524,0,0,0,0,0,0,0,0,0,-1,1252,1548,0,0
35,-524,0,0,0,0,0,0,0,0,0,-1,1259,1548,0,0
42,-524,0,0,0,0,0,0,0,0,0,-1,1266,1548,0,0
49,-524,0,0,0,0,0,0,0,0,0,-1,1273,1548,0,0
56,-524,0,0,0,0,0,0,0,0,0,-1,1280,1548,0,0
63,-524,0,0,0,0,0,0,0,0,0,-1,1287,1548,0,0
70,-524,0,0,0,0,0,0,0,0,0,-1,1294,1548,0,0
77,-524,0,0,0,0,0,0,0,0,0,-1,1301,1548,0,0
84,-524,0,0,0,0,0,0,0,0,0,-1,1308,1548,0,0
91,-524,0,0,0,0,0,0,0,0,0,-1,1315,1548,0,0
98,-524,0,0,0,0,0,0,0,0,0,-1,1322,1548,0,0
105,-524,0,0,0,0,0,0,0,0,0,-1,1329,1548,0,0
112,-524,0,0,0,0,0,0,0,0,0,-1,1336,1548,0,0
119,-524,0,0,0,0,0,0,0,0,0,-1,1343,1548,0,0
126,-524,0,0,0,0,0,0,0,0,0,-1,1350,1548,0,0
133,-524,0,0,0,0,0,0,0,0,0,-1,1357,1548,0,0
140,-524,0,0,0,0,0,0,0,0,0,-1,1364,1548,0,0
147,-524,0,0,0,0,0,0,0,0,0,-1,1371,1548,0,0
154,-524,0,0,0,0,0,0,0,0,0,-1,1378,1548,0,0
161,-524,0,0,0,0,0,0,0,0,0,-1,1385,1548,0,0
168,-524,0,0,0,0,0,0,0,0,0,-1,1392,1548,0,0
175,-524,0,0,0,0,0,0,0,0,0,-1,1399,1548,0,0
182,-524,0,0,0,0,0,0,0,0,0,-1,1406,1548,0,0
189,-524,0,0,0,0,0,0,0,0,0,-1,1413,1548,0,0
196,-524,0,0,0,0,0,0,0,0,0,-1,1420,1548,0,0
203,-524,0,0,0,0,0,0,0,0,0,-1,1427,1548,0,0
210,-524,0,0,0,0,0,0,0,0,0,-1,1434,1548,0,0
217,-524,0,0,0,0,0,0,0,0,0,-1,1441,1548,0,0
224,-524,0,0,0,0,0,0,0,0,0,-1,1448,1548,0,0
231,-524,0,0,0,0,0,0,0,0,0,-1,1455,1548,0,0
238,-524,0,0,0,0,0,0,0,0,0,-1,1462,1548,0,0
245,-524,0,0,0,0,0,0,0,0,0,-1,1469,1548,0,0
252,-524,0,0,0,0,0,0,0,0,0,-1,1476,1548,0,0
259,-524,0,0,0,0,0,0,0,0,0,-1,1483,1548,0,0
266,-524,0,0,0,0,0,0,0,0,0,-1,1490,1548,0,0
273,-524,0,0,0,0,0,0,0,0,0,-1,1497,1548,0,0
280,-524,0,0,0,0,0,0,0,0,0,-1,1504,1548,0,0
287,-524,0,0,0,0,0,0,0,0,0,-1,1511,1548,0,0
294,-524,0,0,0,0,0,0,0,0,0,-1,1518,1548,0,0
301,-524,0,0,0,0,0,0,0,0,0,-1,1525,1548,0,0
308,-524,0,0,0,0,0,0,0,0,0,-1,1532,1548,0,0
315,-524,0,0,0,0,0,0,0,0,0,-1,1539,1548,0,0
322,-524,0,0,0,0,0,0,0,0,0,-1,1546,1548,0,0
329,-524,0,0,0,0,0,0,0,0,0,-1,1553,1548,0,0
336,-524,0,0,0,0,0,0,0,0,0,-1,1560,1548,0,0
343,-524,0,0,0,0,0,0,0,0,0,-1,1567,1548,0,0
350,-524,0,0,0,0,0,0,0,0,0,-1,1574,1548,0,0
357,-524,0,0,0,0,0,0,0,0,0,-1,1581,1548,0,0
364,-524,0,0,0,0,0,0,0,0,0,-1,1588,1548,0,0
371,-524,0,0,0,0,0,0,0,0,0,-1,1595,1548,0,0
378,-524,0,0,0,0,0,0,0,0,0,-1,1602,1548,0,0
385,-524,0,0,0,0,0,0,0,0,0,-1,1609,1548,0,0
392,-524,0,0,0,0,0,0,0,0,0,-1,1616,1548,0,0
399,-524,0.0889893,1.70276,0,0,0,0,0,0,0,-1,1623,1548,0.089005,-1.70271
406,-524,0.234497,2.51245,0.0168082,0.0161209,0.00277367,0.0192594,0.0136697,0.723767,0.011441,0.0448806,1630,1548,0.234503,-2.51243
413,-524,0.739502,3.41907,0.00594862,0.0187754,-0.00162524,0.0189781,0.00574589,-1.4467,0.0112376,0.0421759,1637,1548,0.739458,-3.41901
420,-524,1.1582,4.41589,0.00201528,0.0212392,-0.00333277,0.0218006,0.00145389,-1.40392,0.0140742,0.0449348,1644,1548,1.15819,-4.41594
427,-524,1.59583,5.48157,0,0,0,0,0,0,0,-1,1651,1548,1.5958,-5.48161
434,-524,-0.101929,-0.291382,-0.00379585,0.0236897,-0.00629714,0.0250637,-0.00516988,-1.35596,0.0186725,0.0452773,1658,1548,-0.101884,0.29143
441,-524,-0.0742188,-0.11084,-0.00464378,0.0236432,-0.00690594,0.0252392,-0.00623974,-1.34368,0.0192462,0.0462582,1665,1548,-0.0742531,0.110825
448,-524,-0.27002,0.039917,-0.00368841,0.0228722,-0.0069788,0.0245943,-0.00541044,-1.32888,0.0184658,0.0451012,1672,1548,-0.270072,-0.0398746
455,-524,-0.380005,0.102295,0,0,0,0,0,0,0,-1,1679,1548,-0.380043,-0.10235
462,-524,-0.765259,-0.174072,0,0,0,0,0,0,0,-1,1686,1548,-0.765202,0.174092
469,-524,0.460327,0.618408,0,0,0,0,0,0,0,-1,1693,1548,0.460309,-0.61841
476,-524,0.292236,0.465698,0.0029846,0.0173712,-0.00367515,0.0182557,0.00210013,-1.33463,0.0115343,0.0432633,1700,1548,0.292266,-0.465695
483,-524,0.214233,0.285645,0.0046538,0.0148011,-0.00171339,0.0150826,0.0043723,-1.40796,0.00896058,0.0384531,1707,1548,0.214226,-0.285655
490,-524,0.0904541,0.183472,0.00545817,0.0119435,-0.00099529,0.0120928,0.00530886,-1.42189,0.00699905,0.0325092,1714,1548,0.0905017,-0.183514
497,-524,-0.0593262,0.095459,0.00499556,0.00908599,-0.000664956,0.00919138,0.00489018,-1.41362,0.00531027,0.0231609,1721,1548,-0.0593597,-0.0954206
504,-524,-0.0430908,0.0375977,0.00469098,0.00688291,-0.000183747,0.00689821,0.00467568,-1.48774,0.00406576,0.0140811,1728,1548,-0.0430623,-0.0376242
511,-524,-0.0384521,0.0394287,0.00355716,0.00486035,-0.00013442,0.00487407,0.00354344,-1.46908,0.00290911,0.0149692,1735,1548,-0.038494,-0.039394
518,-524,-0.0239258,0.0455322,0.0016638,0.003333,-0.000104322,0.00333949,0.0016573,-1.50862,0.00192808,0.0142499,1742,1548,-0.0238846,-0.0455818
525,-524,-0.00195313,0.0333252,-0.000459524,0.00238833,-0.000676126,0.0025407,-0.000611895,-1.34914,0.00193037,0.0121909,1749,1548,-0.0019991,-0.0333447
532,-524,0.00305176,0.0137939,-0.00115173,0.00158593,-0.000575387,0.00170194,-0.00126775,-1.37183,0.00172065,0.00902415,1756,1548,0.00305967,-0.0138232
539,-524,0.00146484,0.00891113,-0.00113528,0.000919023,-0.000272499,0.000954555,-0.00117081,-1.44114,0.0012292,0.00984393,1763,1548,0.00141489,-0.00885419
546,-524,-0.0135498,0.0148926,-0.000808829,0.00106305,0.00013172,0.00107227,-0.000818053,1.50089,0.00109466,0.0127422,1770,1548,-0.0135516,-0.0149184
553,-524,-0.0101318,0.0153809,-0.000455785,0.000812592,0.000593632,0.00104708,-0.00069027,1.19461,0.00101008,0.0204408,1777,1548,-0.010143,-0.0153763
560,-524,-0.0175781,-0.03125,-6.51576e-05,0.000900765,0.000871062,0.0014138,-0.000578188,1.03853,0.00118332,0.0277347,1784,1548,-0.0176318,0.0312028
567,-524,-0.012207,0.036377,0.00041992,0.000901635,0.0012328,0.00191689,-0.000595331,0.88187,0.00151585,0.0163295,1791,1548,-0.0121964,-0.0364318
574,-524,-0.0187988,0.0413818,0.000994449,0.000970971,0.00139218,0.00237494,-0.00040952,0.781182,0.00173598,0.011602,1798,1548,-0.0187933,-0.0413696
581,-524,-0.0134277,0.00866699,0.00153417,0.00111808,0.00150411,0.00284455,-0.000192304,0.716676,0.00196361,0.0128389,1805,1548,-0.0134076,-0.00860622
588,-524,-0.0213623,0.0187988,0.00220021,0.00138406,0.00149963,0.00334629,0.000237973,0.652556,0.00215592,0.0124583,1812,1548,-0.0213516,-0.0187877
595,-524,-0.0340576,0.0361328,0.00301692,0.00148958,0.00127808,0.00374211,0.000764393,0.516103,0.002283,0.012438,1819,1548,-0.0340161,-0.0361789
602,-524,-0.0256348,-0.024292,0.0041342,0.00176342,0.000851052,0.00440807,0.00148955,0.311336,0.00258919,0.0250477,1826,1548,-0.0256692,0.0243213
609,-524,0.0465088,-0.0219727,0.00544307,0.00211183,-2.79774e-05,0.00544331,0.0021116,-0.00839769,0.0031689,0.0377929,1833,1548,0.046496,0.0220117
616,-524,0.232422,0.130493,0.00686957,0.00374773,-0.00159358,0.00753934,0.00307796,-0.397875,0.0043772,0.0383327,1840,1548,0.232437,-0.130517
623,-524,0.265503,-0.389282,0,0,0,0,0,0,0,-1,1847,1548,0.265549,0.389234
630,-524,0.34021,-0.0228271,0,0,0,0,0,0,0,-1,1854,1548,0.340213,0.0227785
637,-524,0.0236816,-0.389404,0,0,0,0,0,0,0,-1,1861,1548,0.0236456,0.389396
644,-524,-0.0565186,-0.277222,0,0,0,0,0,0,0,-1,1868,1548,-0.0564804,0.277202
651,-524,0,0,0,0,0,0,0,0,0,-1,1875,1548,0,0
658,-524,0,0,0,0,0,0,0,0,0,-1,1882,1548,0,0
665,-524,0,0,0,0,0,0,0,0,0,-1,1889,1548,0,0
672,-524,0,0,0,0,0,0,0,0,0,-1,1896,1548,0,0
679,-524,0,0,0,0,0,0,0,0,0,-1,1903,1548,0,0
686,-524,0,0,0,0,0,0,0,0,0,-1,1910,1548,0,0
693,-524,0,0,0,0,0,0,0,0,0,-1,1917,1548,0,0
700,-524,0,0,0,0,0,0,0,0,0,-1,1924,1548,0,0
707,-524,0,0,0,0,0,0,0,0,0,-1,1931,1548,0,0
714,-524,0,0,0,0,0,0,0,0,0,-1,1938,1548,0,0
721,-524,0,0,0,0,0,0,0,0,0,-1,1945,1548,0,0
728,-524,0,0,0,0,0,0,0,0,0,-1,1952,1548,0,0
735,-524,0,0,0,0,0,0,0,0,0,-1,1959,1548,0,0
742,-524,0,0,0,0,0,0,0,0,0,-1,1966,1548,0,0
749,-524,0,0,0,0,0,0,0,0,0,-1,1973,1548,0,0
756,-524,0,0,0,0,0,0,0,0,0,-1,1980,1548,0,0
763,-524,0,0,0,0,0,0,0,0,0,-1,1987,1548,0,0
770,-524,0,0,0,0,0,0,0,0,0,-1,1994,1548,0,0
777,-524,0,0,0,0,0,0,0,0,0,-1,2001,1548,0,0
784,-524,0,0,0,0,0,0,0,0,0,-1,2008,1548,0,0
791,-524,0,0,0,0,0,0,0,0,0,-1,2015,1548,0,0
798,-524,0,0,0,0,0,0,0,0,0,-1,2022,1548,0,0
805,-524,0,0,0,0,0,0,0,0,0,-1,2029,1548,0,0
812,-524,0,0,0,0,0,0,0,0,0,-1,2036,1548,0,0
-700,-531,0,0,0,0,0,0,0,0,0,-1,524,1555,0,0
-693,-531,0,0,0,0,0,0,0,0,0,-1,531,1555,0,0
-686,-531,0,0,0,0,0,0,0,0,0,-1,538,1555,0,0
-679,-531,0,0,0,0,0,0,0,0,0,-1,545,1555,0,0
-672,-531,0,0,0,0,0,0,0,0,0,-1,552,1555,0,0
-665,-531,0,0,0,0,0,0,0,0,0,-1,559,1555,0,0
-658,-531,0,0,0,0,0,0,0,0,0,-1,566,1555,0,0
-651,-531,0,0,0,0,0,0,0,0,0,-1,573,1555,0,0
-644,-531,0,0,0,0,0,0,0,0,0,-1,580,1555,0,0
-637,-531,0,0,0,0,0,0,0,0,0,-1,587,1555,0,0
-630,-531,0,0,0,0,0,0,0,0,0,-1,594,1555,0,0
-623,-531,0,0,0,0,0,0,0,0,0,-1,601,1555,0,0
-616,-531,0,0,0,0,0,0,0,0,0,-1,608,1555,0,0
-609,-531,0,0,0,0,0,0,0,0,0,-1,615,1555,0,0
-602,-531,0,0,0,0,0,0,0,0,0,-1,622,1555,0,0
-595,-531,0,0,0,0,0,0,0,0,0,-1,629,1555,0,0
-588,-531,0,0,0,0,0,0,0,0,0,-1,636,1555,0,0
-581,-531,0,0,0,0,0,0,0,0,0,-1,643,1555,0,0
-574,-531,0,0,0,0,0,0,0,0,0,-1,650,1555,0,0
-567,-531,0,0,0,0,0,0,0,0,0,-1,657,1555,0,0
-560,-531,0,0,0,0,0,0,0,0,0,-1,664,1555,0,0
-553,-531,0,0,0,0,0,0,0,0,0,-1,671,1555,0,0
-546,-531,0,0,0,0,0,0,0,0,0,-1,678,1555,0,0
-539,-531,0,0,0,0,0,0,0,0,0,-1,685,1555,0,0
-532,-531,0,0,0,0,0,0,0,0,0,-1,692,1555,0,0
-525,-531,0,0,0,0,0,0,0,0,0,-1,699,1555,0,0
-518,-531,0.887024,2.00525,0,0,0,0,0,0,0,-1,706,1555,0.887025,-2.00523
-511,-531,-1.09631,0.240356,0.0203938,0.0305778,-0.0219587,0.0480271,0.00294444,-0.89933,0.0310831,0.045211,713,1555,-1.09629,-0.240331
-504,-531,0.325378,0.092041,0.0174759,0.0291343,-0.0176247,0.0418688,0.00474145,-0.945106,0.026474,0.0423998,720,1555,0.325359,-0.0920508
-497,-531,0.122864,-0.24231,0,0,0,0,0,0,0,-1,727,1555,0.122846,0.24234
-490,-531,-0.215637,0.108276,0.0112137,0.0247035,-0.00906868,0.0292605,0.00665658,-1.10515,0.0177102,0.0435601,734,1555,-0.215645,-0.108254
-483,-531,-0.29718,0.127075,0.00844757,0.0213103,-0.0059197,0.02362,0.00613793,-1.1988,0.0141516,0.0437805,741,1555,-0.297174,-0.127086
-476,-531,-0.118347,0.14209,0.00562377,0.0185175,-0.0032303,0.0192816,0.00485975,-1.33855,0.0115795,0.0414135,748,1555,-0.118373,-0.142123
-469,-531,-0.156555,0.0240479,0.00290309,0.0166024,-0.00106894,0.0166853,0.00282018,-1.49339,0.0103128,0.0396754,755,1555,-0.156565,-0.0240011
-462,-531,-0.11554,0.0164795,0.00153577,0.0139092,0.000505594,0.0139298,0.00151515,1.53003,0.00882496,0.0371242,762,1555,-0.115542,-0.0164896
-455,-531,-0.0437012,0.0718994,0.000137267,0.0108696,0.00172489,0.01114,-0.000133142,1.41529,0.00747147,0.0241207,769,1555,-0.0437238,-0.0718965
-448,-531,-0.00921631,0.0722656,-0.00116116,0.00859319,0.00196636,0.00897466,-0.00154264,1.37918,0.00655808,0.0110616,776,1555,-0.0092457,-0.0722429
-441,-531,-0.0177612,0.0432129,-0.00142766,0.00620415,0.00214142,0.00676396,-0.00198746,1.3151,0.00529756,0.0106808,783,1555,-0.0177522,-0.0432686
-434,-531,-0.0303345,0.0501709,-0.00134935,0.00480658,0.00187881,0.00533469,-0.00187746,1.29678,0.00432047,0.010739,790,1555,-0.0303576,-0.0501957
-427,-531,-0.0302124,0.0350342,-0.00130324,0.00335831,0.00165951,0.00388874,-0.00183367,1.26143,0.0033741,0.0109932,797,1555,-0.0302091,-0.035015
-420,-531,-0.0372925,0.0279541,-0.00118731,0.00232386,0.00164929,0.00297705,-0.00184051,1.1937,0.0028071,0.0096343,804,1555,-0.0372825,-0.0279655
-413,-531,-0.0157471,0.0330811,-0.000626955,0.00207368,0.00107787,0.00245113,-0.0010044,1.23396,0.0020525,0.00859012,811,1555,-0.0157661,-0.0330937
-406,-531,-0.00439453,0.0275879,0.000409714,0.00223114,0.000518795,0.00236854,0.000272312,1.31189,0.00149654,0.00993021,818,1555,-0.00438514,-0.027551
-399,-531,-0.00164795,0.0327148,0.00108405,0.00265023,0.000345633,0.00272312,0.00101117,1.36297,0.00158945,0.0116477,825,1555,-0.00162616,-0.0326761
-392,-531,-0.0320435,0.0541992,0.00176169,0.00341693,-0.000149,0.00343024,0.00174839,-1.48173,0.00198057,0.0145561,832,1555,-0.0320618,-0.054183
-385,-531,-0.0481567,0.0617676,0.00367446,0.00382769,-4.93426e-05,0.0038422,0.00365995,-1.28471,0.00250293,0.0123775,839,1555,-0.0481324,-0.061765
-378,-531,-0.0377808,0.048584,0.0059504,0.00503086,0.000610556,0.00625494,0.00472632,0.462677,0.00376531,0.00874969,846,1555,-0.0377698,-0.0485658
-371,-531,-0.0234985,0.0386963,0.00790874,0.00659275,0.00115746,0.00858216,0.00591932,0.526938,0.00507242,0.00941047,853,1555,-0.023487,-0.0386648
-364,-531,-0.0487061,0.020752,0.010679,0.00820668,0.00215799,0.0119298,0.00695587,0.525299,0.00691928,0.0177948,860,1555,-0.048681,-0.0207635
-357,-531,-0.0625,-0.0109863,0.0139522,0.0107408,0.00326818,0.0159878,0.00870516,0.557063,0.00924274,0.029901,867,1555,-0.0625263,0.0110027
-350,-531,0.0535278,0.155151,0.017742,0.0140544,0.00456375,0.0208204,0.0109761,0.593419,0.0120266,0.0380426,874,1555,0.0535029,-0.155123
-343,-531,-0.121887,0.0683594,0.0217567,0.0180979,0.00591137,0.0261153,0.0137393,0.635335,0.0150845,0.0431094,881,1555,-0.121888,-0.0683364
-336,-531,-0.221558,0.0930176,0.0256979,0.0222805,0.00739082,0.0315749,0.0164034,0.671799,0.0182344,0.0447926,888,1555,-0.221557,-0.0929858
-329,-531,0.370789,0.196411,0.0294152,0.0271319,0.00881483,0.037162,0.0193851,0.720999,0.0214622,0.0427958,895,1555,0.370798,-0.196455
-322,-531,-1.133,0.944702,0,0,0,0,0,0,0,-1,902,1555,-1.13297,-0.944712
-315,-531,-0.631165,1.22656,0.0361453,0.0371009,0.0114708,0.0481039,0.0251423,0.806213,0.0277823,0.0483747,909,1555,-0.631142,-1.2265
-308,-531,-0.180542,1.5835,0.0343332,0.0398439,0.0144141,0.0517636,0.0224135,0.879838,0.029975,0.0466993,916,1555,-0.180556,-1.58348
-301,-531,-0.0933228,1.87866,0.0324331,0.0425757,0.016896,0.0551451,0.0198638,0.931194,0.0322502,0.0459454,923,1555,-0.0933125,-1.87865
-294,-531,0.298584,1.77429,0.0279932,0.0487904,0.0148891,0.0565526,0.0202309,1.09022,0.0330883,0.0482927,930,1555,0.298572,-1.77429
-287,-531,0.453125,1.87488,0,0,0,0,0,0,0,-1,937,1555,0.453102,-1.87492
-280,-531,-0.213257,-1.36816,0,0,0,0,0,0,0,-1,944,1555,-0.213261,1.36822
-273,-531,-0.153687,-0.827881,0,0,0,0,0,0,0,-1,951,1555,-0.153691,0.827887
-266,-531,0.247192,-0.542725,0,0,0,0,0,0,0,-1,958,1555,0.247217,0.542698
-259,-531,0,0,0,0,0,0,0,0,0,-1,965,1555,0,0
-252,-531,0,0,0,0,0,0,0,0,0,-1,972,1555,0,0
-245,-531,0,0,0,0,0,0,0,0,0,-1,979,1555,0,0
-238,-531,0,0,0,0,0,0,0,0,0,-1,986,1555,0,0
-231,-531,0,0,0,0,0,0,0,0,0,-1,993,1555,0,0
-224,-531,0,0,0,0,0,0,0,0,0,-1,1000,1555,0,0
-217,-531,0,0,0,0,0,0,0,0,0,-1,1007,1555,0,0
-210,-531,0,0,0,0,0,0,0,0,0,-1,1014,1555,0,0
-203,-531,0,0,0,0,0,0,0,0,0,-1,1021,1555,0,0
-196,-531,0,0,0,0,0,0,0,0,0,-1,1028,1555,0,0
-189,-531,0,0,0,0,0,0,0,0,0,-1,1035,1555,0,0
-182,-531,0,0,0,0,0,0,0,0,0,-1,1042,1555,0,0
-175,-531,0,0,0,0,0,0,0,0,0,-1,1049,1555,0,0
-168,-531,0,0,0,0,0,0,0,0,0,-1,1056,1555,0,0
-161,-531,0,0,0,0,0,0,0,0,0,-1,1063,1555,0,0
-154,-531,0,0,0,0,0,0,0,0,0,-1,1070,1555,0,0
-147,-531,0,0,0,0,0,0,0,0,0,-1,1077,1555,0,0
-140,-531,0,0,0,0,0,0,0,0,0,-1,1084,1555,0,0
-133,-531,0,0,0,0,0,0,0,0,0,-1,1091,1555,0,0
-126,-531,0,0,0,0,0,0,0,0,0,-1,1098,1555,0,0
-119,-531,0,0,0,0,0,0,0,0,0,-1,1105,1555,0,0
-112,-531,0,0,0,0,0,0,0,0,0,-1,1112,1555,0,0
-105,-531,0,0,0,0,0,0,0,0,0,-1,1119,1555,0,0
-98,-531,0,0,0,0,0,0,0,0,0,-1,1126,1555,0,0
-91,-531,0,0,0,0,0,0,0,0,0,-1,1133,1555,0,0
-84,-531,0,0,0,0,0,0,0,0,0,-1,1140,1555,0,0
-77,-531,0,0,0,0,0,0,0,0,0,-1,1147,1555,0,0
-70,-531,0,0,0,0,0,0,0,0,0,-1,1154,1555,0,0
-63,-531,0,0,0,0,0,0,0,0,0,-1,1161,1555,0,0
-56,-531,0,0,0,0,0,0,0,0,0,-1,1168,1555,0,0
-49,-531,0,0,0,0,0,0,0,0,0,-1,1175,1555,0,0
-42,-531,0,0,0,0,0,0,0,0,0,-1,1182,1555,0,0
-35,-531,0,0,0,0,0,0,0,0,0,-1,1189,1555,0,0
-28,-531,0,0,0,0,0,0,0,0,0,-1,1196,1555,0,0
-21,-531,0,0,0,0,0,0,0,0,0,-1,1203,1555,0,0
-14,-531,0,0,0,0,0,0,0,0,0,-1,1210,1555,0,0
-7,-531,0,0,0,0,0,0,0,0,0,-1,1217,1555,0,0
0,-531,0,0,0,0,0,0,0,0,0,-1,1224,1555,0,0
7,-531,0,0,0,0,0,0,0,0,0,-1,1231,1555,0,0
14,-531,0,0,0,0,0,0,0,0,0,-1,1238,1555,0,0
21,-531,0,0,0,0,0,0,0,0,0,-1,1245,1555,0,0
28,-531,0,0,0,0,0,0,0,0,0,-1,1252,1555,0,0
35,-531,0,0,0,0,0,0,0,0,0,-1,1259,1555,0,0
42,-531,0,0,0,0,0,0,0,0,0,-1,1266,1555,0,0
49,-531,0,0,0,0,0,0,0,0,0,-1,1273,1555,0,0
56,-531,0,0,0,0,0,0,0,0,0,-1,1280,1555,0,0
63,-531,0,0,0,0,0,0,0,0,0,-1,1287,1555,0,0
70,-531,0,0,0,0,0,0,0,0,0,-1,1294,1555,0,0
77,-531,0,0,0,0,0,0,0,0,0,-1,1301,1555,0,0
84,-531,0,0,0,0,0,0,0,0,0,-1,1308,1555,0,0
91,-531,0,0,0,0,0,0,0,0,0,-1,1315,1555,0,0
98,-531,0,0,0,0,0,0,0,0,0,-1,1322,1555,0,0
105,-531,0,0,0,0,0,0,0,0,0,-1,1329,1555,0,0
112,-531,0,0,0,0,0,0,0,0,0,-1,1336,1555,0,0
119,-531,0,0,0,0,0,0,0,0,0,-1,1343,1555,0,0
126,-531,0,0,0,0,0,0,0,0,0,-1,1350,1555,0,0
133,-531,0,0,0,0,0,0,0,0,0,-1,1357,1555,0,0
140,-531,0,0,0,0,0,0,0,0,0,-1,1364,1555,0,0
147,-531,0,0,0,0,0,0,0,0,0,-1,1371,1555,0,0
154,-531,0,0,0,0,0,0,0,0,0,-1,1378,1555,0,0
161,-531,0,0,0,0,0,0,0,0,0,-1,1385,1555,0,0
168,-531,0,0,0,0,0,0,0,0,0,-1,1392,1555,0,0
175,-531,0,0,0,0,0,0,0,0,0,-1,1399,1555,0,0
182,-531,0,0,0,0,0,0,0,0,0,-1,1406,1555,0,0
189,-531,0,0,0,0,0,0,0,0,0,-1,1413,1555,0,0
196,-531,0,0,0,0,0,0,0,0,0,-1,1420,1555,0,0
203,-531,0,0,0,0,0,0,0,0,0,-1,1427,1555,0,0
210,-531,0,0,0,0,0,0,0,0,0,-1,1434,1555,0,0
217,-531,0,0,0,0,0,0,0,0,0,-1,1441,1555,0,0
224,-531,0,0,0,0,0,0,0,0,0,-1,1448,1555,0,0
231,-531,0,0,0,0,0,0,0,0,0,-1,1455,1555,0,0
238,-531,0,0,0,0,0,0,0,0,0,-1,1462,1555,0,0
245,-531,0,0,0,0,0,0,0,0,0,-1,1469,1555,0,0
252,-531,0,0,0,0,0,0,0,0,0,-1,1476,1555,0,0
259,-531,0,0,0,0,0,0,0,0,0,-1,1483,1555,0,0
266,-531,0,0,0,0,0,0,0,0,0,-1,1490,1555,0,0
273,-531,0,0,0,0,0,0,0,0,0,-1,1497,1555,0,0
280,-531,0,0,0,0,0,0,0,0,0,-1,1504,1555,0,0
287,-531,0,0,0,0,0,0,0,0,0,-1,1511,1555,0,0
294,-531,0,0,0,0,0,0,0,0,0,-1,1518,1555,0,0
301,-531,0,0,0,0,0,0,0,0,0,-1,1525,1555,0,0
308,-531,0,0,0,0,0,0,0,0,0,-1,1532,1555,0,0
315,-531,0,0,0,0,0,0,0,0,0,-1,1539,1555,0,0
322,-531,0,0,0,0,0,0,0,0,0,-1,1546,1555,0,0
329,-531,0,0,0,0,0,0,0,0,0,-1,1553,1555,0,0
336,-531,0,0,0,0,0,0,0,0,0,-1,1560,1555,0,0
343,-531,0,0,0,0,0,0,0,0,0,-1,1567,1555,0,0
350,-531,0,0,0,0,0,0,0,0,0,-1,1574,1555,0,0
357,-531,0,0,0,0,0,0,0,0,0,-1,1581,1555,0,0
364,-531,0,0,0,0,0,0,0,0,0,-1,1588,1555,0,0
371,-531,0,0,0,0,0,0,0,0,0,-1,1595,1555,0,0
378,-531,0,0,0,0,0,0,0,0,0,-1,1602,1555,0,0
385,-531,-0.281982,0.427124,0,0,0,0,0,0,0,-1,1609,1555,-0.281989,-0.427154
392,-531,-0.109375,0.948486,0,0,0,0,0,0,0,-1,1616,1555,-0.109421,-0.948445
399,-531,0.200806,1.52344,0,0,0,0,0,0,0,-1,1623,1555,0.200746,-1.52349
406,-531,0.355469,1.70068,0,0,0,0,0,0,0,-1,1630,1555,0.355503,-1.70065
413,-531,0.983398,2.68311,0.0028412,0.0219655,4.65647e-05,0.0219656,0.00284109,1.56836,0.0137946,0.0427425,1637,1555,0.983419,-2.68316
420,-531,1.25415,3.67651,-8.96692e-05,0.0219382,-0.00165644,0.0220621,-0.000213534,-1.49616,0.0147798,0.0448487,1644,1555,1.25421,-3.67654
427,-531,1.21448,4.61279,0,0,0,0,0,0,0,-1,1651,1555,1.21452,-4.6128
434,-531,0.300293,-0.608154,0,0,0,0,0,0,0,-1,1658,1555,0.300309,0.608094
441,-531,-0.218872,-0.119995,0,0,0,0,0,0,0,-1,1665,1555,-0.218906,0.120019
448,-531,-0.290894,-0.0748291,-0.00437191,0.0185289,-0.005464,0.0197658,-0.00560879,-1.34818,0.0153913,0.0426365,1672,1555,-0.290844,0.0748418
455,-531,-1.1532,-0.821899,0,0,0,0,0,0,0,-1,1679,1555,-1.15316,0.82193
462,-531,-0.298462,-0.0949707,-0.000982572,0.0151229,-0.00454701,0.016318,-0.00217764,-1.31378,0.0116724,0.0426001,1686,1555,-0.298445,0.0949749
469,-531,0.248291,0.376343,0.000456371,0.0131712,-0.00407493,0.0143651,-0.000737485,-1.2858,0.00983179,0.044061,1693,1555,0.248284,-0.376345
476,-531,0.213013,0.266235,0.00149642,0.0130229,-0.00333529,0.0139184,0.000600903,-1.30848,0.00908528,0.0411355,1700,1555,0.213022,-0.266265
483,-531,0.095459,0.101807,0.00323453,0.0110981,-0.00160085,0.0114115,0.00292113,-1.37747,0.00684498,0.0362923,1707,1555,0.0954753,-0.101779
490,-531,0.0230713,0.117432,0.00430431,0.00898866,-0.000896878,0.0091545,0.00413846,-1.38795,0.00529344,0.0255762,1714,1555,0.0230424,-0.117459
497,-531,-0.0334473,0.0556641,0.00415652,0.00681854,-0.00056815,0.00693473,0.00404033,-1.36908,0.00402195,0.0124714,1721,1555,-0.0334234,-0.055672
504,-531,-0.0369873,0.0391846,0.00401746,0.00514373,-0.000158706,0.00516567,0.00399552,-1.43345,0.00312757,0.0101359,1728,1555,-0.036947,-0.0392334
511,-531,-0.0405273,0.0285645,0.00303396,0.00366153,-0.000135839,0.00368967,0.00300582,-1.36652,0.00226648,0.013147,1735,1555,-0.0404919,-0.0285456
518,-531,-0.0343018,0.0252686,0.00140257,0.00253808,-0.000112782,0.00254917,0.00139148,-1.47275,0.00147383,0.0137074,1742,1555,-0.0342916,-0.0252465
525,-531,-0.00964355,0.0344238,-0.000277619,0.00195715,-0.000558014,0.00208873,-0.000409205,-1.33922,0.00154704,0.0117933,1749,1555,-0.00969618,-0.0344268
532,-531,0.0100098,0.0179443,-0.000832363,0.00143029,-0.000400492,0.00149908,-0.000901159,-1.40068,0.00140004,0.00913946,1756,1555,0.00996505,-0.0179169
539,-531,-0.000366211,0.0125732,-0.00093884,0.000969896,-4.15929e-05,0.000970802,-0.000939746,-1.54902,0.0011031,0.0112244,1763,1555,-0.000352683,-0.0125204
546,-531,-0.019043,0.00341797,-0.00081208,0.00131463,0.000386919,0.00138284,-0.000880286,1.39631,0.00131731,0.0152692,1770,1555,-0.0190451,-0.0034783
553,-531,0.0131836,0.000366211,-0.000568477,0.00117597,0.000884634,0.00154606,-0.00093857,1.17457,0.00144872,0.0279006,1777,1555,0.0131941,-0.000338719
560,-531,-0.0012207,-0.0222168,-0.000168108,0.00143204,0.00117531,0.00205375,-0.000789824,1.08424,0.00169494,0.029164,1784,1555,-0.00120744,0.0222492
567,-531,-0.036377,0.0296631,0.000350087,0.00160226,0.00163143,0.00272361,-0.000771263,0.968615,0.00212012,0.0169839,1791,1555,-0.0363452,-0.0297012
574,-531,-0.0368652,0.053833,0.00101633,0.00182063,0.00189061,0.00335139,-0.00051443,0.890191,0.002424,0.0115461,1798,1555,-0.0368483,-0.0538642
581,-531,-0.0142822,0.0236816,0.00173146,0.00211073,0.00207655,0.00400628,-0.000164093,0.830934,0.0027272,0.0107742,1805,1555,-0.0142927,-0.0237257
588,-531,-0.0162354,-0.00195313,0.00269883,0.00250011,0.00212536,0.00472715,0.000471789,0.762039,0.00300654,0.0137119,1812,1555,-0.0162849,0.00198954
595,-531,-0.0975342,-0.0380859,0.00392183,0.00272284,0.00192839,0.00534176,0.00130291,0.634695,0.00321608,0.0261997,1819,1555,-0.0975266,0.038085
602,-531,-0.1427,-0.140259,0.00555318,0.00301327,0.00148844,0.00623982,0.00232663,0.432221,0.00364117,0.0376148,1826,1555,-0.142733,0.140201
609,-531,-0.00695801,-0.0673828,0.00743087,0.00329075,0.000596852,0.0075152,0.00320643,0.140356,0.00435443,0.0371593,1833,1555,-0.00698546,0.0674058
616,-531,0.110718,0.188354,0.00935272,0.00414335,-0.000842647,0.00948563,0.00401043,-0.156443,0.00549825,0.0387835,1840,1555,0.110698,-0.188312
623,-531,0.388184,0.452393,0.0111174,0.00512466,-0.00239324,0.0119558,0.00428621,-0.336979,0.00699421,0.0426159,1847,1555,0.388128,-0.452426
630,-531,0.292114,0.0810547,0,0,0,0,0,0,0,-1,1854,1555,0.292153,-0.0811018
637,-531,0.241821,0.223389,0,0,0,0,0,0,0,-1,1861,1555,0.241807,-0.223376
644,-531,0,0,0,0,0,0,0,0,0,-1,1868,1555,0,0
651,-531,0,0,0,0,0,0,0,0,0,-1,1875,1555,0,0
658,-531,0,0,0,0,0,0,0,0,0,-1,1882,1555,0,0
665,-531,0,0,0,0,0,0,0,0,0,-1,1889,1555,0,0
672,-531,0,0,0,0,0,0,0,0,0,-1,1896,1555,0,0
679,-531,0,0,0,0,0,0,0,0,0,-1,1903,1555,0,0
686,-531,0,0,0,0,0,0,0,0,0,-1,1910,1555,0,0
693,-531,0,0,0,0,0,0,0,0,0,-1,1917,1555,0,0
700,-531,0,0,0,0,0,0,0,0,0,-1,1924,1555,0,0
707,-531,0,0,0,0,0,0,0,0,0,-1,1931,1555,0,0
714,-531,0,0,0,0,0,0,0,0,0,-1,1938,1555,0,0
721,-531,0,0,0,0,0,0,0,0,0,-1,1945,1555,0,0
728,-531,0,0,0,0,0,0,0,0,0,-1,1952,1555,0,0
735,-531,0,0,0,0,0,0,0,0,0,-1,1959,1555,0,0
742,-531,0,0,0,0,0,0,0,0,0,-1,1966,1555,0,0
749,-531,0,0,0,0,0,0,0,0,0,-1,1973,1555,0,0
756,-531,0,0,0,0,0,0,0,0,0,-1,1980,1555,0,0
763,-531,0,0,0,0,0,0,0,0,0,-1,1987,1555,0,0
770,-531,0,0,0,0,0,0,0,0,0,-1,1994,1555,0,0
777,-531,0,0,0,0,0,0,0,0,0,-1,2001,1555,0,0
784,-531,0,0,0,0,0,0,0,0,0,-1,2008,1555,0,0
791,-531,0,0,0,0,0,0,0,0,0,-1,2015,1555,0,0
798,-531,0,0,0,0,0,0,0,0,0,-1,2022,1555,0,0
805,-531,0,0,0,0,0,0,0,0,0,-1,2029,1555,0,0
812,-531,0,0,0,0,0,0,0,0,0,-1,2036,1555,0,0
-700,-538,0,0,0,0,0,0,0,0,0,-1,524,1562,0,0
-693,-538,0,0,0,0,0,0,0,0,0,-1,531,1562,0,0
-686,-538,0,0,0,0,0,0,0,0,0,-1,538,1562,0,0
-679,-538,0,0,0,0,0,0,0,0,0,-1,545,1562,0,0
-672,-538,0,0,0,0,0,0,0,0,0,-1,552,1562,0,0
-665,-538,0,0,0,0,0,0,0,0,0,-1,559,1562,0,0
-658,-538,0,0,0,0,0,0,0,0,0,-1,566,1562,0,0
-651,-538,0,0,0,0,0,0,0,0,0,-1,573,1562,0,0
-644,-538,0,0,0,0,0,0,0,0,0,-1,580,1562,0,0
-637,-538,0,0,0,0,0,0,0,0,0,-1,587,1562,0,0
-630,-538,0,0,0,0,0,0,0,0,0,-1,594,1562,0,0
-623,-538,0,0,0,0,0,0,0,0,0,-1,601,1562,0,0
-616,-538,0,0,0,0,0,0,0,0,0,-1,608,1562,0,0
-609,-538,0,0,0,0,0,0,0,0,0,-1,615,1562,0,0
-602,-538,0,0,0,0,0,0,0,0,0,-1,622,1562,0,0
-595,-538,0,0,0,0,0,0,0,0,0,-1,629,1562,0,0
-588,-538,0,0,0,0,0,0,0,0,0,-1,636,1562,0,0
-581,-538,0,0,0,0,0,0,0,0,0,-1,643,1562,0,0
-574,-538,0,0,0,0,0,0,0,0,0,-1,650,1562,0,0
-567,-538,0,0,0,0,0,0,0,0,0,-1,657,1562,0,0
-560,-538,0,0,0,0,0,0,0,0,0,-1,664,1562,0,0
-553,-538,0,0,0,0,0,0,0,0,0,-1,671,1562,0,0
-546,-538,0,0,0,0,0,0,0,0,0,-1,678,1562,0,0
-539,-538,0,0,0,0,0,0,0,0,0,-1,685,1562,0,0
-532,-538,0,0,0,0,0,0,0,0,0,-1,692,1562,0,0
-525,-538,0,0,0,0,0,0,0,0,0,-1,699,1562,0,0
-518,-538,0,0,0,0,0,0,0,0,0,-1,706,1562,0,0
-511,-538,0.734192,-0.525024,0.02491,0.03209,-0.0244077,0.0531703,0.00382968,-0.858418,0.0342418,0.045898,713,1562,0.734212,0.525036
-504,-538,0.474182,-0.297607,0.0207444,0.0312377,-0.0188552,0.0455626,0.00641943,-0.921096,0.0284775,0.0444419,720,1562,0.474163,0.297565
-497,-538,0.11969,-0.0249023,0,0,0,0,0,0,0,-1,727,1562,0.119675,0.0249043
-490,-538,0.034668,-1.96069,0,0,0,0,0,0,0,-1,734,1562,0.0346538,1.96067
-483,-538,-0.0608521,-1.12573,0.00950495,0.0237953,-0.00501056,0.0253771,0.0079232,-1.26501,0.0149919,0.0449904,741,1562,-0.0608293,1.12568
-476,-538,0.130737,0.216797,0.00614675,0.0207566,-0.00203447,0.0210346,0.00586874,-1.43498,0.0125335,0.0411838,748,1562,0.130757,-0.216775
-469,-538,0.00537109,-0.427246,0.00305543,0.0185956,0.00021078,0.0185985,0.00305257,1.55724,0.0115171,0.0406031,755,1562,0.00536564,0.427238
-462,-538,-0.00671387,-0.292236,0.0014804,0.0155401,0.00176071,0.0157572,0.00126326,1.44809,0.0101101,0.041832,762,1562,-0.00673548,0.29221
-455,-538,0.069458,-0.192993,-7.1406e-05,0.0120621,0.00293917,0.0127366,-0.000745889,1.34522,0.00875027,0.0367444,769,1562,0.0694782,0.19305
-448,-538,-0.0189209,0.0655518,-0.00143219,0.00947127,0.0030072,0.0102457,-0.00220658,1.31876,0.00767248,0.0150126,776,1562,-0.0188913,-0.0655304
-441,-538,-0.0143433,0.0418701,-0.00168741,0.00683129,0.00295059,0.00775345,-0.00260957,1.26788,0.00622393,0.0122485,783,1562,-0.0143189,-0.0419005
-434,-538,-0.0259399,0.0488281,-0.00156049,0.00523694,0.00244492,0.00602498,-0.00234852,1.25899,0.00498735,0.0105002,790,1562,-0.0259642,-0.0488171
-427,-538,-0.052002,0.0788574,-0.00147804,0.00362442,0.00204972,0.00434583,-0.00219944,1.23238,0.00384604,0.0108591,797,1562,-0.0519856,-0.0788632
-420,-538,-0.0464478,0.0671387,-0.00131607,0.00235574,0.00188862,0.00315374,-0.00211406,1.17102,0.00306105,0.0142153,804,1562,-0.0464507,-0.067111
-413,-538,-0.0367432,0.0422363,-0.000683737,0.00196932,0.00104312,0.00233033,-0.00104475,1.23761,0.00199517,0.0154588,811,1562,-0.0367344,-0.0422369
-406,-538,-0.0122681,0.0168457,0.000401133,0.00191103,0.000366195,0.00199516,0.000317007,1.34498,0.00123804,0.0123176,818,1562,-0.0122843,-0.0168119
-399,-538,0.00335693,0.0140381,0.00106573,0.00214729,0.000184635,0.00217794,0.00103508,1.40629,0.00125795,0.0113406,825,1562,0.00336353,-0.0139971
-392,-538,-0.0161133,0.0294189,0.00156558,0.00275028,-0.000294373,0.00281939,0.00149647,-1.34019,0.0016288,0.0120599,832,1562,-0.0161312,-0.0293579
-385,-538,-0.0300293,0.0401611,0.00319609,0.0030355,-0.000181701,0.00331444,0.00291714,-0.577346,0.00208982,0.0102328,839,1562,-0.0300312,-0.0401975
-378,-538,-0.0222778,0.0467529,0.00507045,0.0040395,0.000463652,0.00524829,0.00386165,0.36626,0.00314041,0.00812206,846,1562,-0.0222755,-0.0467285
-371,-538,-0.0258179,0.0550537,0.00659758,0.0053421,0.00102969,0.0071758,0.00476388,0.511659,0.00421647,0.00862355,853,1562,-0.0258392,-0.0551021
-364,-538,-0.0338135,0.0408936,0.0087562,0.00669635,0.00201566,0.00998982,0.00546273,0.549208,0.00577605,0.00813636,860,1562,-0.0338302,-0.0408858
-357,-538,-0.0452881,0,0.0113842,0.00892309,0.00308892,0.0134787,0.00682863,0.595846,0.00778213,0.0138812,867,1562,-0.0453107,5.11255e-05
-350,-538,-0.043396,0.00378418,0.0144525,0.0118692,0.00429421,0.0176451,0.00867659,0.639308,0.0101879,0.0279647,874,1562,-0.0433664,-0.00374736
-343,-538,-0.11145,0.0245361,0.0177492,0.0154677,0.00552527,0.0222502,0.0109667,0.683598,0.0128466,0.0391162,881,1562,-0.111425,-0.0244758
-336,-538,-0.0405273,0.0820313,0.0209395,0.0191176,0.00681315,0.0269024,0.0131548,0.718939,0.0155333,0.0420398,888,1562,-0.040532,-0.0820217
-329,-538,-0.024292,0.0955811,0.0238928,0.0232984,0.00803768,0.0316388,0.0155524,0.766916,0.0182675,0.0403178,895,1562,-0.024293,-0.0955917
-322,-538,-0.0383911,0.115601,0.0268073,0.0281477,0.00915075,0.0366528,0.0183022,0.821954,0.0211615,0.0393324,902,1562,-0.0383956,-0.115656
-315,-538,-0.693054,0.898315,0.0290353,0.0317725,0.0100617,0.0405582,0.0202495,0.852993,0.0234163,0.0426466,909,1562,-0.693045,-0.898337
-308,-538,-0.258789,1.27466,0.027057,0.0340892,0.012241,0.0433091,0.0178371,0.925254,0.0251337,0.0436346,916,1562,-0.25879,-1.27462
-301,-538,-0.0189209,1.44604,0.0252229,0.0363227,0.0137045,0.0455584,0.0159871,0.977789,0.0266901,0.0443437,923,1562,-0.0189365,-1.44609
-294,-538,0.167664,1.56372,0.0208242,0.0416691,0.0113871,0.0466834,0.0158099,1.156,0.0274164,0.0435103,930,1562,0.167663,-1.56367
-287,-538,0.388855,1.66516,0,0,0,0,0,0,0,-1,937,1562,0.388879,-1.66512
-280,-538,0.247009,-0.0753174,0,0,0,0,0,0,0,-1,944,1562,0.247018,0.0753255
-273,-538,0.357178,-0.508179,0,0,0,0,0,0,0,-1,951,1562,0.357189,0.508173
-266,-538,0.149902,-0.319824,0.016857,0.0554361,-0.00122101,0.0554747,0.0168183,-1.53919,0.0328452,0.0452773,958,1562,0.149925,0.319866
-259,-538,0.510498,-0.0427246,0.020003,0.0593886,-0.00604248,0.0602948,0.0190969,-1.42194,0.0355822,0.0476879,965,1562,0.510519,0.0426705
-252,-538,0,0,0,0,0,0,0,0,0,-1,972,1562,0,0
-245,-538,0,0,0,0,0,0,0,0,0,-1,979,1562,0,0
-238,-538,0,0,0,0,0,0,0,0,0,-1,986,1562,0,0
-231,-538,0,0,0,0,0,0,0,0,0,-1,993,1562,0,0
-224,-538,0,0,0,0,0,0,0,0,0,-1,1000,1562,0,0
-217,-538,0,0,0,0,0,0,0,0,0,-1,1007,1562,0,0
-210,-538,0,0,0,0,0,0,0,0,0,-1,1014,1562,0,0
-203,-538,0,0,0,0,0,0,0,0,0,-1,1021,1562,0,0
-196,-538,0,0,0,0,0,0,0,0,0,-1,1028,1562,0,0
-189,-538,0,0,0,0,0,0,0,0,0,-1,1035,1562,0,0
-182,-538,0,0,0,0,0,0,0,0,0,-1,1042,1562,0,0
-175,-538,0,0,0,0,0,0,0,0,0,-1,1049,1562,0,0
-168,-538,0,0,0,0,0,0,0,0,0,-1,1056,1562,0,0
-161,-538,0,0,0,0,0,0,0,0,0,-1,1063,1562,0,0
-154,-538,0,0,0,0,0,0,0,0,0,-1,1070,1562,0,0
-147,-538,0,0,0,0,0,0,0,0,0,-1,1077,1562,0,0
-140,-538,0,0,0,0,0,0,0,0,0,-1,1084,1562,0,0
-133,-538,0,0,0,0,0,0,0,0,0,-1,1091,1562,0,0
-126,-538,0,0,0,0,0,0,0,0,0,-1,1098,1562,0,0
-119,-538,0,0,0,0,0,0,0,0,0,-1,1105,1562,0,0
-112,-538,0,0,0,0,0,0,0,0,0,-1,1112,1562,0,0
-105,-538,0,0,0,0,0,0,0,0,0,-1,1119,1562,0,0
-98,-538,0,0,0,0,0,0,0,0,0,-1,1126,1562,0,0
-91,-538,0,0,0,0,0,0,0,0,0,-1,1133,1562,0,0
-84,-538,0,0,0,0,0,0,0,0,0,-1,1140,1562,0,0
-77,-538,0,0,0,0,0,0,0,0,0,-1,1147,1562,0,0
-70,-538,0,0,0,0,0,0,0,0,0,-1,1154,1562,0,0
-63,-538,0,0,0,0,0,0,0,0,0,-1,1161,1562,0,0
-56,-538,0,0,0,0,0,0,0,0,0,-1,1168,1562,0,0
-49,-538,0,0,0,0,0,0,0,0,0,-1,1175,1562,0,0
-42,-538,0,0,0,0,0,0,0,0,0,-1,1182,1562,0,0
-35,-538,0,0,0,0,0,0,0,0,0,-1,1189,1562,0,0
-28,-538,0,0,0,0,0,0,0,0,0,-1,1196,1562,0,0
-21,-538,0,0,0,0,0,0,0,0,0,-1,1203,1562,0,0
-14,-538,0,0,0,0,0,0,0,0,0,-1,1210,1562,0,0
-7,-538,0,0,0,0,0,0,0,0,0,-1,1217,1562,0,0
0,-538,0,0,0,0,0,0,0,0,0,-1,1224,1562,0,0
7,-538,0,0,0,0,0,0,0,0,0,-1,1231,1562,0,0
14,-538,0,0,0,0,0,0,0,0,0,-1,1238,1562,0,0
21,-538,0,0,0,0,0,0,0,0,0,-1,1245,1562,0,0
28,-538,0,0,0,0,0,0,0,0,0,-1,1252,1562,0,0
35,-538,0,0,0,0,0,0,0,0,0,-1,1259,1562,0,0
42,-538,0,0,0,0,0,0,0,0,0,-1,1266,1562,0,0
49,-538,0,0,0,0,0,0,0,0,0,-1,1273,1562,0,0
56,-538,0,0,0,0,0,0,0,0,0,-1,1280,1562,0,0
63,-538,0,0,0,0,0,0,0,0,0,-1,1287,1562,0,0
70,-538,0,0,0,0,0,0,0,0,0,-1,1294,1562,0,0
77,-538,0,0,0,0,0,0,0,0,0,-1,1301,1562,0,0
84,-538,0,0,0,0,0,0,0,0,0,-1,1308,1562,0,0
91,-538,0,0,0,0,0,0,0,0,0,-1,1315,1562,0,0
98,-538,0,0,0,0,0,0,0,0,0,-1,1322,1562,0,0
105,-538,0,0,0,0,0,0,0,0,0,-1,1329,1562,0,0
112,-538,0,0,0,0,0,0,0,0,0,-1,1336,1562,0,0
119,-538,0,0,0,0,0,0,0,0,0,-1,1343,1562,0,0
126,-538,0,0,0,0,0,0,0,0,0,-1,1350,1562,0,0
133,-538,0,0,0,0,0,0,0,0,0,-1,1357,1562,0,0
140,-538,0,0,0,0,0,0,0,0,0,-1,1364,1562,0,0
147,-538,0,0,0,0,0,0,0,0,0,-1,1371,1562,0,0
154,-538,0,0,0,0,0,0,0,0,0,-1,1378,1562,0,0
161,-538,0,0,0,0,0,0,0,0,0,-1,1385,1562,0,0
168,-538,0,0,0,0,0,0,0,0,0,-1,1392,1562,0,0
175,-538,0,0,0,0,0,0,0,0,0,-1,1399,1562,0,0
182,-538,0,0,0,0,0,0,0,0,0,-1,1406,1562,0,0
189,-538,0,0,0,0,0,0,0,0,0,-1,1413,1562,0,0
196,-538,0,0,0,0,0,0,0,0,0,-1,1420,1562,0,0
203,-538,0,0,0,0,0,0,0,0,0,-1,1427,1562,0,0
210,-538,0,0,0,0,0,0,0,0,0,-1,1434,1562,0,0
217,-538,0,0,0,0,0,0,0,0,0,-1,1441,1562,0,0
224,-538,0,0,0,0,0,0,0,0,0,-1,1448,1562,0,0
231,-538,0,0,0,0,0,0,0,0,0,-1,1455,1562,0,0
238,-538,0,0,0,0,0,0,0,0,0,-1,1462,1562,0,0
245,-538,0,0,0,0,0,0,0,0,0,-1,1469,1562,0,0
252,-538,0,0,0,0,0,0,0,0,0,-1,1476,1562,0,0
259,-538,0,0,0,0,0,0,0,0,0,-1,1483,1562,0,0
266,-538,0,0,0,0,0,0,0,0,0,-1,1490,1562,0,0
273,-538,0,0,0,0,0,0,0,0,0,-1,1497,1562,0,0
280,-538,0,0,0,0,0,0,0,0,0,-1,1504,1562,0,0
287,-538,0,0,0,0,0,0,0,0,0,-1,1511,1562,0,0
294,-538,0,0,0,0,0,0,0,0,0,-1,1518,1562,0,0
301,-538,0,0,0,0,0,0,0,0,0,-1,1525,1562,0,0
308,-538,0,0,0,0,0,0,0,0,0,-1,1532,1562,0,0
315,-538,0,0,0,0,0,0,0,0,0,-1,1539,1562,0,0
322,-538,0,0,0,0,0,0,0,0,0,-1,1546,1562,0,0
329,-538,0,0,0,0,0,0,0,0,0,-1,1553,1562,0,0
336,-538,0,0,0,0,0,0,0,0,0,-1,1560,1562,0,0
343,-538,0,0,0,0,0,0,0,0,0,-1,1567,1562,0,0
350,-538,0,0,0,0,0,0,0,0,0,-1,1574,1562,0,0
357,-538,0,0,0,0,0,0,0,0,0,-1,1581,1562,0,0
364,-538,0,0,0,0,0,0,0,0,0,-1,1588,1562,0,0
371,-538,0,0,0,0,0,0,0,0,0,-1,1595,1562,0,0
378,-538,-0.468384,0.0529785,0.0270362,0.0165022,0.0142428,0.0369546,0.00658371,0.608296,0.0227615,0.048879,1602,1562,-0.468425,-0.0530185
385,-538,-0.330688,0.505859,0.0234931,0.0215602,0.0122822,0.0348468,0.0102065,0.746136,0.0206861,0.0453231,1609,1562,-0.330652,-0.505864
392,-538,-0.135132,0.96228,0.0185686,0.0248437,0.00980487,0.0320008,0.0114115,0.940249,0.0187272,0.0460834,1616,1562,-0.13514,-0.96222
399,-538,0.260864,1.34521,0.0119511,0.0247939,0.00689182,0.0277922,0.00895271,1.16044,0.0163808,0.0445736,1623,1562,0.260893,-1.3452
406,-538,0.471313,1.52271,0,0,0,0,0,0,0,-1,1630,1562,0.471283,-1.5227
413,-538,0.970703,2.15991,0,0,0,0,0,0,0,-1,1637,1562,0.970731,-2.15995
420,-538,2.05286,0.141724,0,0,0,0,0,0,0,-1,1644,1562,2.05288,-0.141704
427,-538,1.93542,0.428955,-0.0039747,0.0190334,-0.00200846,0.0192074,-0.00414871,-1.48437,0.0143886,0.046513,1651,1562,1.93541,-0.428968
434,-538,0.309204,-0.485352,-0.00568112,0.0177912,-0.003325,0.0182531,-0.00614304,-1.43276,0.0146521,0.0468072,1658,1562,0.309159,0.485348
441,-538,-0.203613,-0.23999,-0.0060348,0.0163388,-0.00416666,0.0170895,-0.00678557,-1.39252,0.0142058,0.0459855,1665,1562,-0.203606,0.23993
448,-538,-0.261963,-0.272705,-0.00512459,0.0145705,-0.00455641,0.0155735,-0.00612762,-1.35412,0.0129187,0.0429807,1672,1562,-0.261922,0.272674
455,-538,-0.299316,-0.383179,0,0,0,0,0,0,0,-1,1679,1562,-0.299347,0.383223
462,-538,0.0740967,-0.0970459,-0.00216474,0.0109386,-0.00407779,0.0121039,-0.00333011,-1.29243,0.00937852,0.0422504,1686,1562,0.0741513,0.0970669
469,-538,0.511719,0.390503,-0.000882204,0.00921932,-0.0038128,0.0104969,-0.00215976,-1.24748,0.00781792,0.041861,1693,1562,0.511715,-0.390455
476,-538,0.246216,0.237183,6.06089e-05,0.0090924,-0.00334195,0.0101945,-0.00104149,-1.25225,0.00716877,0.0349419,1700,1562,0.246236,-0.237143
483,-538,0.0294189,0.0623779,0.00177268,0.00766964,-0.00178802,0.00816943,0.00127289,-1.29823,0.00507548,0.0241536,1707,1562,0.0294454,-0.062317
490,-538,0.00439453,0.0577393,0.00303443,0.00617623,-0.00105563,0.00649797,0.00271269,-1.27496,0.0037686,0.0126483,1714,1562,0.00445429,-0.0577422
497,-538,-0.0153809,0.046875,0.00318024,0.00457559,-0.00067729,0.00485027,0.00290556,-1.18551,0.00281856,0.00924856,1721,1562,-0.0154311,-0.0468326
504,-538,-0.0220947,0.0480957,0.00320313,0.00333045,-0.000305409,0.00357876,0.00295482,-0.888149,0.00220745,0.00861011,1728,1562,-0.0220679,-0.0480486
511,-538,-0.027832,0.0527344,0.00237666,0.0023186,-0.000299476,0.00264851,0.00204675,-0.737077,0.00160318,0.00893361,1735,1562,-0.027876,-0.0527861
518,-538,-0.0306396,0.0549316,0.00103207,0.00153166,-0.000243775,0.00163089,0.000932833,-1.18419,0.000944844,0.00989442,1742,1562,-0.030618,-0.0549692
525,-538,-0.0263672,0.0415039,-0.000196186,0.00127357,-0.000538332,0.00144965,-0.000372268,-1.25468,0.0011115,0.0103435,1749,1562,-0.0263064,-0.0414603
532,-538,-0.00708008,0.0222168,-0.000588373,0.00100466,-0.000347334,0.0010771,-0.000660809,-1.36519,0.00101293,0.0106774,1756,1562,-0.00704826,-0.0221939
539,-538,-0.00695801,0.0166016,-0.000769783,0.000777117,5.97002e-05,0.000779417,-0.000772083,1.53228,0.000895763,0.0129483,1763,1562,-0.00696063,-0.016561
546,-538,-0.00805664,0.0196533,-0.000783445,0.00137694,0.000525966,0.00149819,-0.000904692,1.34423,0.00140134,0.0151639,1770,1562,-0.00800003,-0.0196362
553,-538,0.0150146,0.00256348,-0.000623329,0.00140043,0.00105924,0.00185344,-0.00107633,1.16667,0.00171122,0.0249603,1777,1562,0.0149631,-0.00254042
560,-538,-0.010376,0.000854492,-0.000196442,0.00189041,0.00135187,0.0025547,-0.00086073,1.11406,0.00205115,0.025389,1784,1562,-0.0103307,-0.000909697
567,-538,-0.0618896,0.0288086,0.000354907,0.00230435,0.00190956,0.00347357,-0.000814319,1.02138,0.00262953,0.0179749,1791,1562,-0.0619432,-0.0288487
574,-538,-0.0418701,0.0576172,0.00112269,0.00276242,0.00229291,0.00437763,-0.000492524,0.957098,0.00309568,0.0110642,1798,1562,-0.0418355,-0.0576543
581,-538,-0.00231934,0.0228271,0.00204957,0.00330534,0.00257279,0.00532576,2.91537e-05,0.905083,0.00354083,0.0131553,1805,1562,-0.00235858,-0.0227725
588,-538,-0.0913086,-0.0938721,0.00337366,0.00391387,0.00269118,0.00634847,0.000939063,0.835414,0.00395662,0.0297528,1812,1562,-0.0912532,0.0939162
595,-538,-0.23645,-0.173828,0.00506974,0.00435384,0.00252615,0.00726318,0.0021604,0.715018,0.00430657,0.0404753,1819,1562,-0.236449,0.173875
602,-538,-0.164795,-0.162842,0.00729238,0.00478078,0.00207243,0.00845981,0.00361336,0.513005,0.00490154,0.0426822,1826,1562,-0.164787,0.162868
609,-538,0.0391846,-0.0529785,0.00983002,0.00508087,0.00128854,0.0101571,0.00475379,0.248587,0.0058682,0.0402309,1833,1562,0.0391777,0.0529511
616,-538,0.251343,0.238892,0.0123927,0.00513193,0.000110507,0.0123944,0.00513025,0.015215,0.00719115,0.0391808,1840,1562,0.251333,-0.238905
623,-538,0.474365,0.481567,0.0146105,0.0050467,-0.00141014,0.0148141,0.00484312,-0.143381,0.00872205,0.0434051,1847,1562,0.474406,-0.48152
630,-538,0.745605,0.720581,0,0,0,0,0,0,0,-1,1854,1562,0.745652,-0.720566
637,-538,0,0,0,0,0,0,0,0,0,-1,1861,1562,0,0
644,-538,0,0,0,0,0,0,0,0,0,-1,1868,1562,0,0
651,-538,0,0,0,0,0,0,0,0,0,-1,1875,1562,0,0
658,-538,0,0,0,0,0,0,0,0,0,-1,1882,1562,0,0
665,-538,0,0,0,0,0,0,0,0,0,-1,1889,1562,0,0
672,-538,0,0,0,0,0,0,0,0,0,-1,1896,1562,0,0
679,-538,0,0,0,0,0,0,0,0,0,-1,1903,1562,0,0
686,-538,0,0,0,0,0,0,0,0,0,-1,1910,1562,0,0
693,-538,0,0,0,0,0,0,0,0,0,-1,1917,1562,0,0
700,-538,0,0,0,0,0,0,0,0,0,-1,1924,1562,0,0
707,-538,0,0,0,0,0,0,0,0,0,-1,1931,1562,0,0
714,-538,0,0,0,0,0,0,0,0,0,-1,1938,1562,0,0
721,-538,0,0,0,0,0,0,0,0,0,-1,1945,1562,0,0
728,-538,0,0,0,0,0,0,0,0,0,-1,1952,1562,0,0
735,-538,0,0,0,0,0,0,0,0,0,-1,1959,1562,0,0
742,-538,0,0,0,0,0,0,0,0,0,-1,1966,1562,0,0
749,-538,0,0,0,0,0,0,0,0,0,-1,1973,1562,0,0
756,-538,0,0,0,0,0,0,0,0,0,-1,1980,1562,0,0
763,-538,0,0,0,0,0,0,0,0,0,-1,1987,1562,0,0
770,-538,0,0,0,0,0,0,0,0,0,-1,1994,1562,0,0
777,-538,0,0,0,0,0,0,0,0,0,-1,2001,1562,0,0
784,-538,0,0,0,0,0,0,0,0,0,-1,2008,1562,0,0
791,-538,0,0,0,0,0,0,0,0,0,-1,2015,1562,0,0
798,-538,0,0,0,0,0,0,0,0,0,-1,2022,1562,0,0
805,-538,0,0,0,0,0,0,0,0,0,-1,2029,1562,0,0
812,-538,0,0,0,0,0,0,0,0,0,-1,2036,1562,0,0
-700,-545,0,0,0,0,0,0,0,0,0,-1,524,1569,0,0
-693,-545,0,0,0,0,0,0,0,0,0,-1,531,1569,0,0
-686,-545,0,0,0,0,0,0,0,0,0,-1,538,1569,0,0
-679,-545,0,0,0,0,0,0,0,0,0,-1,545,1569,0,0
-672,-545,0,0,0,0,0,0,0,0,0,-1,552,1569,0,0
-665,-545,0,0,0,0,0,0,0,0,0,-1,559,1569,0,0
-658,-545,0,0,0,0,0,0,0,0,0,-1,566,1569,0,0
-651,-545,0,0,0,0,0,0,0,0,0,-1,573,1569,0,0
-644,-545,0,0,0,0,0,0,0,0,0,-1,580,1569,0,0
-637,-545,0,0,0,0,0,0,0,0,0,-1,587,1569,0,0
-630,-545,0,0,0,0,0,0,0,0,0,-1,594,1569,0,0
-623,-545,0,0,0,0,0,0,0,0,0,-1,601,1569,0,0
-616,-545,0,0,0,0,0,0,0,0,0,-1,608,1569,0,0
-609,-545,0,0,0,0,0,0,0,0,0,-1,615,1569,0,0
-602,-545,0,0,0,0,0,0,0,0,0,-1,622,1569,0,0
-595,-545,0,0,0,0,0,0,0,0,0,-1,629,1569,0,0
-588,-545,0,0,0,0,0,0,0,0,0,-1,636,1569,0,0
-581,-545,0,0,0,0,0,0,0,0,0,-1,643,1569,0,0
-574,-545,0,0,0,0,0,0,0,0,0,-1,650,1569,0,0
-567,-545,0,0,0,0,0,0,0,0,0,-1,657,1569,0,0
-560,-545,0,0,0,0,0,0,0,0,0,-1,664,1569,0,0
-553,-545,0,0,0,0,0,0,0,0,0,-1,671,1569,0,0
-546,-545,0,0,0,0,0,0,0,0,0,-1,678,1569,0,0
-539,-545,0,0,0,0,0,0,0,0,0,-1,685,1569,0,0
-532,-545,0,0,0,0,0,0,0,0,0,-1,692,1569,0,0
-525,-545,0,0,0,0,0,0,0,0,0,-1,699,1569,0,0
-518,-545,0,0,0,0,0,0,0,0,0,-1,706,1569,0,0
-511,-545,0,0,0,0,0,0,0,0,0,-1,713,1569,0,0
-504,-545,0.273743,-0.405884,0,0,0,0,0,0,0,-1,720,1569,0.273756,0.405937
-497,-545,0.23822,0.479492,0,0,0,0,0,0,0,-1,727,1569,0.238193,-0.479466
-490,-545,0.0889282,-1.2887,0,0,0,0,0,0,0,-1,734,1569,0.0889003,1.28871
-483,-545,0.165955,-1.17822,0.0108584,0.0258342,-0.0036183,0.0266626,0.01003,-1.34573,0.0155502,0.0454799,741,1569,0.165934,1.17825
-476,-545,0.26825,-1.02869,0.00670417,0.0226353,-0.000363011,0.0226436,0.0066959,-1.54803,0.0134321,0.0413477,748,1569,0.268219,1.02864
-469,-545,0.445496,-0.839355,0.00310746,0.0201722,0.00187707,0.0203762,0.00290342,1.46252,0.0127272,0.0414947,755,1569,0.445469,0.839305
-462,-545,0.256531,-0.676147,0.00122604,0.0167549,0.00330813,0.0174303,0.000550673,1.36941,0.0114411,0.0404395,762,1569,0.256523,0.676123
-455,-545,0.123291,-0.239014,-0.000516321,0.0128695,0.00433809,0.0141525,-0.00179925,1.28326,0.0100883,0.0398804,769,1569,0.123283,0.239075
-448,-545,0.00402832,0.00488281,-0.00191601,0.00995743,0.00412981,0.0112526,-0.00321116,1.2669,0.00877031,0.0264609,776,1569,0.00401436,-0.00490951
-441,-545,-0.0493164,0.0441895,-0.00213989,0.00707522,0.00375498,0.00841152,-0.00347619,1.2289,0.00705778,0.0152787,783,1569,-0.0492898,-0.0441853
-434,-545,-0.0397949,0.0418701,-0.00195111,0.00526036,0.00296742,0.00632441,-0.00301516,1.2265,0.00550387,0.0117326,790,1569,-0.0397777,-0.0418635
-427,-545,-0.0397949,0.0863037,-0.00183623,0.0034675,0.00239423,0.00438841,-0.00275714,1.2036,0.00416117,0.0149754,797,1569,-0.0397959,-0.0862635
-420,-545,-0.0383301,0.0749512,-0.00163361,0.00196325,0.00207146,0.00290805,-0.00257841,1.14288,0.00316951,0.0211469,804,1569,-0.0383305,-0.074936
-413,-545,-0.0232544,0.0427246,-0.000915699,0.00145986,0.000918289,0.00177344,-0.00122928,1.24173,0.00174308,0.0211246,811,1569,-0.0232515,-0.0427747
-406,-545,-0.00762939,0.000854492,0.000248524,0.00115156,0.000137275,0.00117197,0.000228118,1.42322,0.000717465,0.0153494,818,1569,-0.00760753,-0.000820795
-399,-545,0.0105591,-0.000610352,0.00094953,0.00120642,-7.38994e-05,0.00122616,0.000929788,-1.30975,0.00073874,0.0104225,825,1569,0.0105883,0.000585287
-392,-545,-0.00311279,0.013916,0.00134631,0.00155592,-0.000552413,0.00201338,0.00088885,-0.879147,0.00116508,0.0104349,832,1569,-0.00309201,-0.0139762
-385,-545,-0.0162964,0.0380859,0.00270481,0.00167468,-0.00047496,0.00289037,0.00148911,-0.372455,0.00166901,0.00887005,839,1569,-0.0162952,-0.0380946
-378,-545,-0.0241089,0.0537109,0.00420428,0.00240351,7.09103e-05,0.00420707,0.00240072,0.0392965,0.00243702,0.0101337,846,1569,-0.0240841,-0.0537684
-371,-545,-0.0405884,0.0544434,0.00536589,0.00334648,0.00055686,0.00550927,0.00320311,0.252,0.0031948,0.0134553,853,1569,-0.0405625,-0.054434
-364,-545,-0.0285645,0.0427246,0.00697544,0.0043003,0.00139941,0.00757371,0.00370204,0.403994,0.00437305,0.00894125,860,1569,-0.0285801,-0.0427044
-357,-545,-0.024292,0.0263672,0.00897553,0.00603262,0.00229658,0.0102316,0.00477653,0.500487,0.00591156,0.00928047,867,1569,-0.0242723,-0.026413
-350,-545,-0.0305786,0.0196533,0.0113171,0.00840967,0.00326474,0.0134372,0.00628962,0.575936,0.00776323,0.0132986,874,1569,-0.0305669,-0.0196635
-343,-545,-0.0588989,0.0223389,0.0138677,0.0113914,0.00424054,0.0170472,0.00821195,0.643355,0.00984438,0.0213057,881,1569,-0.0589186,-0.0223025
-336,-545,-0.043396,0.0185547,0.0163122,0.0143438,0.00519897,0.0206193,0.0100367,0.69185,0.0119059,0.0282931,888,1569,-0.0433682,-0.0185632
-329,-545,-0.0491333,0.138916,0.0185596,0.0177872,0.00610592,0.0242915,0.0120553,0.753816,0.0140249,0.0350975,895,1569,-0.0491573,-0.13891
-322,-545,-0.076416,0.0980225,0.020793,0.0217555,0.00691094,0.0282019,0.0143466,0.82016,0.0162832,0.0404942,902,1569,-0.0764186,-0.0980446
-315,-545,-0.85675,0.597778,0,0,0,0,0,0,0,-1,909,1569,-0.85674,-0.59776
-308,-545,-0.329102,0.813721,0.0206757,0.0266439,0.00917398,0.0333069,0.0140127,0.942638,0.0193102,0.0437114,916,1569,-0.329074,-0.813716
-301,-545,0.179626,0.916504,0.0191193,0.0285247,0.0101836,0.035039,0.012605,1.00171,0.0204934,0.0465181,923,1569,0.179656,-0.916536
-294,-545,0.647034,1.00464,0.0150945,0.0332028,0.00833507,0.0364552,0.0118421,1.19876,0.0214736,0.0424559,930,1569,0.647011,-1.00469
-287,-545,1.09515,0.915649,0,0,0,0,0,0,0,-1,937,1569,1.09518,-0.915594
-280,-545,0.126587,-0.160034,0.00734695,0.0409776,0.00392467,0.0414296,0.00689502,1.45615,0.0256324,0.0494442,944,1569,0.126603,0.160093
-273,-545,0.104675,-0.170776,0,0,0,0,0,0,0,-1,951,1569,0.104704,0.170777
-266,-545,0.0205078,-0.199707,0.0104406,0.0470171,-0.00296055,0.0472552,0.0102025,-1.49055,0.0287133,0.0472553,958,1569,0.0204776,0.199673
-259,-545,0.179993,-0.119629,0.0124224,0.0512015,-0.00736552,0.0525534,0.0110706,-1.38928,0.0319904,0.0438138,965,1569,0.180009,0.119632
-252,-545,0.578247,-0.160278,0,0,0,0,0,0,0,-1,972,1569,0.578249,0.160292
-245,-545,-3.01636,1.97083,0,0,0,0,0,0,0,-1,979,1569,-3.01635,-1.97083
-238,-545,0,0,0,0,0,0,0,0,0,-1,986,1569,0,0
-231,-545,0,0,0,0,0,0,0,0,0,-1,993,1569,0,0
-224,-545,0,0,0,0,0,0,0,0,0,-1,1000,1569,0,0
-217,-545,0,0,0,0,0,0,0,0,0,-1,1007,1569,0,0
-210,-545,0,0,0,0,0,0,0,0,0,-1,1014,1569,0,0
-203,-545,0,0,0,0,0,0,0,0,0,-1,1021,1569,0,0
-196,-545,0,0,0,0,0,0,0,0,0,-1,1028,1569,0,0
-189,-545,0,0,0,0,0,0,0,0,0,-1,1035,1569,0,0
-182,-545,0,0,0,0,0,0,0,0,0,-1,1042,1569,0,0
-175,-545,0,0,0,0,0,0,0,0,0,-1,1049,1569,0,0
-168,-545,0,0,0,0,0,0,0,0,0,-1,1056,1569,0,0
-161,-545,0,0,0,0,0,0,0,0,0,-1,1063,1569,0,0
-154,-545,0,0,0,0,0,0,0,0,0,-1,1070,1569,0,0
-147,-545,0,0,0,0,0,0,0,0,0,-1,1077,1569,0,0
-140,-545,0,0,0,0,0,0,0,0,0,-1,1084,1569,0,0
-133,-545,0,0,0,0,0,0,0,0,0,-1,1091,1569,0,0
-126,-545,0,0,0,0,0,0,0,0,0,-1,1098,1569,0,0
-119,-545,0,0,0,0,0,0,0,0,0,-1,1105,1569,0,0
-112,-545,0,0,0,0,0,0,0,0,0,-1,1112,1569,0,0
-105,-545,0,0,0,0,0,0,0,0,0,-1,1119,1569,0,0
-98,-545,0,0,0,0,0,0,0,0,0,-1,1126,1569,0,0
-91,-545,0,0,0,0,0,0,0,0,0,-1,1133,1569,0,0
-84,-545,0,0,0,0,0,0,0,0,0,-1,1140,1569,0,0
-77,-545,0,0,0,0,0,0,0,0,0,-1,1147,1569,0,0
-70,-545,0,0,0,0,0,0,0,0,0,-1,1154,1569,0,0
-63,-545,0,0,0,0,0,0,0,0,0,-1,1161,1569,0,0
-56,-545,0,0,0,0,0,0,0,0,0,-1,1168,1569,0,0
-49,-545,0,0,0,0,0,0,0,0,0,-1,1175,1569,0,0
-42,-545,0,0,0,0,0,0,0,0,0,-1,1182,1569,0,0
-35,-545,0,0,0,0,0,0,0,0,0,-1,1189,1569,0,0
-28,-545,0,0,0,0,0,0,0,0,0,-1,1196,1569,0,0
-21,-545,0,0,0,0,0,0,0,0,0,-1,1203,1569,0,0
-14,-545,0,0,0,0,0,0,0,0,0,-1,1210,1569,0,0
-7,-545,0,0,0,0,0,0,0,0,0,-1,1217,1569,0,0
0,-545,0,0,0,0,0,0,0,0,0,-1,1224,1569,0,0
7,-545,0,0,0,0,0,0,0,0,0,-1,1231,1569,0,0
14,-545,0,0,0,0,0,0,0,0,0,-1,1238,1569,0,0
21,-545,0,0,0,0,0,0,0,0,0,-1,1245,1569,0,0
28,-545,0,0,0,0,0,0,0,0,0,-1,1252,1569,0,0
35,-545,0,0,0,0,0,0,0,0,0,-1,1259,1569,0,0
42,-545,0,0,0,0,0,0,0,0,0,-1,1266,1569,0,0
49,-545,0,0,0,0,0,0,0,0,0,-1,1273,1569,0,0
56,-545,0,0,0,0,0,0,0,0,0,-1,1280,1569,0,0
63,-545,0,0,0,0,0,0,0,0,0,-1,1287,1569,0,0
70,-545,0,0,0,0,0,0,0,0,0,-1,1294,1569,0,0
77,-545,0,0,0,0,0,0,0,0,0,-1,1301,1569,0,0
84,-545,0,0,0,0,0,0,0,0,0,-1,1308,1569,0,0
91,-545,0,0,0,0,0,0,0,0,0,-1,1315,1569,0,0
98,-545,0,0,0,0,0,0,0,0,0,-1,1322,1569,0,0
105,-545,0,0,0,0,0,0,0,0,0,-1,1329,1569,0,0
112,-545,0,0,0,0,0,0,0,0,0,-1,1336,1569,0,0
119,-545,0,0,0,0,0,0,0,0,0,-1,1343,1569,0,0
126,-545,0,0,0,0,0,0,0,0,0,-1,1350,1569,0,0
133,-545,0,0,0,0,0,0,0,0,0,-1,1357,1569,0,0
140,-545,0,0,0,0,0,0,0,0,0,-1,1364,1569,0,0
147,-545,0,0,0,0,0,0,0,0,0,-1,1371,1569,0,0
154,-545,0,0,0,0,0,0,0,0,0,-1,1378,1569,0,0
161,-545,0,0,0,0,0,0,0,0,0,-1,1385,1569,0,0
168,-545,0,0,0,0,0,0,0,0,0,-1,1392,1569,0,0
175,-545,0,0,0,0,0,0,0,0,0,-1,1399,1569,0,0
182,-545,0,0,0,0,0,0,0,0,0,-1,1406,1569,0,0
189,-545,0,0,0,0,0,0,0,0,0,-1,1413,1569,0,0
196,-545,0,0,0,0,0,0,0,0,0,-1,1420,1569,0,0
203,-545,0,0,0,0,0,0,0,0,0,-1,1427,1569,0,0
210,-545,0,0,0,0,0,0,0,0,0,-1,1434,1569,0,0
217,-545,0,0,0,0,0,0,0,0,0,-1,1441,1569,0,0
224,-545,0,0,0,0,0,0,0,0,0,-1,1448,1569,0,0
231,-545,0,0,0,0,0,0,0,0,0,-1,1455,1569,0,0
238,-545,0,0,0,0,0,0,0,0,0,-1,1462,1569,0,0
245,-545,0,0,0,0,0,0,0,0,0,-1,1469,1569,0,0
252,-545,0,0,0,0,0,0,0,0,0,-1,1476,1569,0,0
259,-545,0,0,0,0,0,0,0,0,0,-1,1483,1569,0,0
266,-545,0,0,0,0,0,0,0,0,0,-1,1490,1569,0,0
273,-545,0,0,0,0,0,0,0,0,0,-1,1497,1569,0,0
280,-545,0,0,0,0,0,0,0,0,0,-1,1504,1569,0,0
287,-545,0,0,0,0,0,0,0,0,0,-1,1511,1569,0,0
294,-545,0,0,0,0,0,0,0,0,0,-1,1518,1569,0,0
301,-545,0,0,0,0,0,0,0,0,0,-1,1525,1569,0,0
308,-545,0,0,0,0,0,0,0,0,0,-1,1532,1569,0,0
315,-545,0,0,0,0,0,0,0,0,0,-1,1539,1569,0,0
322,-545,0,0,0,0,0,0,0,0,0,-1,1546,1569,0,0
329,-545,0,0,0,0,0,0,0,0,0,-1,1553,1569,0,0
336,-545,0,0,0,0,0,0,0,0,0,-1,1560,1569,0,0
343,-545,0,0,0,0,0,0,0,0,0,-1,1567,1569,0,0
350,-545,0,0,0,0,0,0,0,0,0,-1,1574,1569,0,0
357,-545,0,0,0,0,0,0,0,0,0,-1,1581,1569,0,0
364,-545,-0.33728,-0.220947,0.024954,0.018076,0.0229044,0.0446761,-0.00164616,0.710882,0.0303477,0.0487508,1588,1569,-0.33732,0.220915
371,-545,-0.44043,0.0179443,0,0,0,0,0,0,0,-1,1595,1569,-0.440489,-0.0178991
378,-545,-0.198853,0.286255,0.0188265,0.0255966,0.0130011,0.0356461,0.00877695,0.912754,0.0214457,0.0465799,1602,1569,-0.198906,-0.286196
385,-545,-0.00244141,0.335327,0.0155866,0.0277063,0.0107927,0.034024,0.00926891,1.04121,0.0203107,0.0453997,1609,1569,-0.00245086,-0.335346
392,-545,0.165405,0.524048,0.0114894,0.0287197,0.00841304,0.0321461,0.00806294,1.18403,0.0193125,0.0453778,1616,1569,0.165371,-0.524103
399,-545,0.350464,0.701782,0.00670277,0.0269011,0.00617931,0.0286415,0.0049623,1.29625,0.017674,0.0453926,1623,1569,0.350448,-0.701822
406,-545,0.738403,0.614746,0,0,0,0,0,0,0,-1,1630,1569,0.738344,-0.614791
413,-545,1.29871,0.38269,0,0,0,0,0,0,0,-1,1637,1569,1.2987,-0.382641
420,-545,1.35596,0.356567,-0.00308326,0.0204114,0.000939353,0.0204489,-0.00312076,1.5309,0.014783,0.0425253,1644,1569,1.35593,-0.356568
427,-545,1.41956,0.336182,-0.00454357,0.0169749,-0.000512087,0.016987,-0.00455575,-1.54702,0.0131099,0.0494112,1651,1569,1.41957,-0.336133
434,-545,0.428589,-0.44458,-0.00579023,0.0150334,-0.00180542,0.0151888,-0.0059456,-1.48495,0.0125849,0.0451289,1658,1569,0.428557,0.444558
441,-545,0.212891,-0.400146,-0.00594073,0.0132266,-0.00267915,0.0135941,-0.00630816,-1.4345,0.0117444,0.0440116,1665,1569,0.2129,0.400122
448,-545,-0.221802,-0.423096,-0.00509239,0.0112481,-0.00313692,0.0118296,-0.00567389,-1.3875,0.0103119,0.0445289,1672,1569,-0.221786,0.423118
455,-545,-0.27002,-0.327759,-0.00398659,0.00913814,-0.00303478,0.00980589,-0.00465434,-1.35422,0.00852339,0.0415041,1679,1569,-0.270028,0.327759
462,-545,-0.209717,-0.108154,-0.00269618,0.00757034,-0.0030723,0.0084195,-0.00354535,-1.30114,0.0070964,0.0402533,1686,1569,-0.209716,0.108126
469,-545,-0.0549316,0.220825,-0.0016676,0.00607421,-0.00303619,0.00712289,-0.00271629,-1.23823,0.00586748,0.0386686,1693,1569,-0.0549286,-0.220836
476,-545,0.00500488,0.0825195,-0.000919105,0.0059282,-0.00287942,0.00697807,-0.00196898,-1.22116,0.00542873,0.0271587,1700,1569,0.00499581,-0.0825144
483,-545,-0.00537109,0.0462646,0.000623623,0.00486789,-0.00162277,0.00541725,7.42711e-05,-1.24438,0.003587,0.0122138,1707,1569,-0.00537713,-0.0462917
490,-545,-0.00952148,0.046875,0.00194551,0.00380809,-0.000991998,0.00423745,0.00151616,-1.16232,0.00247925,0.0106995,1714,1569,-0.00954794,-0.0468332
497,-545,-0.00378418,0.0537109,0.00229817,0.00261769,-0.000662512,0.00313943,0.00177643,-0.903709,0.00181778,0.0154351,1721,1569,-0.00382414,-0.0536544
504,-545,0.00878906,0.0518799,0.00241272,0.00165731,-0.000406679,0.00259004,0.00147999,-0.411159,0.00150044,0.0141327,1728,1569,0.00875086,-0.0518401
511,-545,-0.0162354,0.0318604,0.00174925,0.000968009,-0.000456405,0.00195937,0.000757888,-0.431454,0.00114087,0.0100858,1735,1569,-0.016261,-0.031899
518,-545,-0.027832,0.0461426,0.000749723,0.00035342,-0.000459604,0.00105207,5.10714e-05,-0.581871,0.000684992,0.011418,1742,1569,-0.0277868,-0.0460922
525,-545,-0.0209961,0.048584,6.04594e-05,0.00025181,-0.000636455,0.000799741,-0.000487472,-0.860002,0.000750427,0.0117422,1749,1569,-0.0210461,-0.0486411
532,-545,-0.0111084,0.0307617,-9.4163e-05,0.000159358,-0.00039157,0.000444174,-0.000378979,-0.941937,0.000475744,0.0112777,1756,1569,-0.0110533,-0.0307207
539,-545,-0.0148926,0.026123,-0.000306365,0.000146619,6.35651e-05,0.000155369,-0.000315116,1.43399,0.000276805,0.0140216,1763,1569,-0.0149092,-0.0261383
546,-545,-0.0307617,0.0430908,-0.000388922,0.00102045,0.000584301,0.00123118,-0.000599654,1.22466,0.00107779,0.0159104,1770,1569,-0.0307642,-0.0431149
553,-545,-0.0306396,0.02771,-0.0002506,0.00126289,0.00116005,0.0018912,-0.000878913,1.07441,0.00163453,0.0226137,1777,1569,-0.0306069,-0.0276896
560,-545,-0.000610352,-0.0187988,0.000224435,0.00206768,0.00145144,0.00286538,-0.00057326,1.06827,0.00212724,0.0232868,1784,1569,-0.000552439,0.0188152
567,-545,-0.0187988,0.0147705,0.000811806,0.00283868,0.0021008,0.00415771,-0.000507224,1.01013,0.00295542,0.0217702,1791,1569,-0.0188507,-0.0147989
574,-545,-0.0230713,0.0418701,0.00167995,0.00368336,0.00259422,0.00546255,-9.92382e-05,0.969644,0.00367522,0.0204539,1798,1569,-0.023052,-0.0418778
581,-545,0.0355225,-0.0141602,0.00280138,0.00466199,0.00296861,0.00684266,0.000620722,0.937242,0.00436958,0.0307918,1805,1569,0.0354866,0.0141373
588,-545,-0.0612793,-0.33667,0.00444914,0.00569121,0.00315613,0.00828682,0.00185353,0.882542,0.00502205,0.0439355,1812,1569,-0.0612736,0.336632
595,-545,-0.247681,-0.268311,0.00658349,0.00657847,0.00299593,0.00957691,0.00358506,0.784979,0.00558713,0.0435455,1819,1569,-0.247663,0.268251
602,-545,-0.0413818,-0.108887,0.00940832,0.00737764,0.00245875,0.0110531,0.00573283,0.589588,0.00638301,0.0433722,1826,1569,-0.0413991,0.108896
609,-545,0.0604248,0.0686035,0.0127913,0.00799819,0.00150912,0.0132269,0.00756263,0.280986,0.00766272,0.0418853,1833,1569,0.0603699,-0.0685477
616,-545,0.212036,0.280273,0.0164537,0.00825461,6.54583e-05,0.0164542,0.00825409,0.00798296,0.00949985,0.0411183,1840,1569,0.212047,-0.280215
623,-545,0.426147,0.544189,0.0199451,0.00844858,-0.00179575,0.0202191,0.00817461,-0.151397,0.0117445,0.0423934,1847,1569,0.426136,-0.544149
630,-545,0,0,0,0,0,0,0,0,0,-1,1854,1569,0,0
637,-545,0,0,0,0,0,0,0,0,0,-1,1861,1569,0,0
644,-545,0,0,0,0,0,0,0,0,0,-1,1868,1569,0,0
651,-545,0,0,0,0,0,0,0,0,0,-1,1875,1569,0,0
658,-545,0,0,0,0,0,0,0,0,0,-1,1882,1569,0,0
665,-545,0,0,0,0,0,0,0,0,0,-1,1889,1569,0,0
672,-545,0,0,0,0,0,0,0,0,0,-1,1896,1569,0,0
679,-545,0,0,0,0,0,0,0,0,0,-1,1903,1569,0,0
686,-545,0,0,0,0,0,0,0,0,0,-1,1910,1569,0,0
693,-545,0,0,0,0,0,0,0,0,0,-1,1917,1569,0,0
700,-545,0,0,0,0,0,0,0,0,0,-1,1924,1569,0,0
707,-545,0,0,0,0,0,0,0,0,0,-1,1931,1569,0,0
714,-545,0,0,0,0,0,0,0,0,0,-1,1938,1569,0,0
721,-545,0,0,0,0,0,0,0,0,0,-1,1945,1569,0,0
728,-545,0,0,0,0,0,0,0,0,0,-1,1952,1569,0,0
735,-545,0,0,0,0,0,0,0,0,0,-1,1959,1569,0,0
742,-545,0,0,0,0,0,0,0,0,0,-1,1966,1569,0,0
749,-545,0,0,0,0,0,0,0,0,0,-1,1973,1569,0,0
756,-545,0,0,0,0,0,0,0,0,0,-1,1980,1569,0,0
763,-545,0,0,0,0,0,0,0,0,0,-1,1987,1569,0,0
770,-545,0,0,0,0,0,0,0,0,0,-1,1994,1569,0,0
777,-545,0,0,0,0,0,0,0,0,0,-1,2001,1569,0,0
784,-545,0,0,0,0,0,0,0,0,0,-1,2008,1569,0,0
791,-545,0,0,0,0,0,0,0,0,0,-1,2015,1569,0,0
798,-545,0,0,0,0,0,0,0,0,0,-1,2022,1569,0,0
805,-545,0,0,0,0,0,0,0,0,0,-1,2029,1569,0,0
812,-545,0,0,0,0,0,0,0,0,0,-1,2036,1569,0,0
-700,-552,0,0,0,0,0,0,0,0,0,-1,524,1576,0,0
-693,-552,0,0,0,0,0,0,0,0,0,-1,531,1576,0,0
-686,-552,0,0,0,0,0,0,0,0,0,-1,538,1576,0,0
-679,-552,0,0,0,0,0,0,0,0,0,-1,545,1576,0,0
-672,-552,0,0,0,0,0,0,0,0,0,-1,552,1576,0,0
-665,-552,0,0,0,0,0,0,0,0,0,-1,559,1576,0,0
-658,-552,0,0,0,0,0,0,0,0,0,-1,566,1576,0,0
-651,-552,0,0,0,0,0,0,0,0,0,-1,573,1576,0,0
-644,-552,0,0,0,0,0,0,0,0,0,-1,580,1576,0,0
-637,-552,0,0,0,0,0,0,0,0,0,-1,587,1576,0,0
-630,-552,0,0,0,0,0,0,0,0,0,-1,594,1576,0,0
-623,-552,0,0,0,0,0,0,0,0,0,-1,601,1576,0,0
-616,-552,0,0,0,0,0,0,0,0,0,-1,608,1576,0,0
-609,-552,0,0,0,0,0,0,0,0,0,-1,615,1576,0,0
-602,-552,0,0,0,0,0,0,0,0,0,-1,622,1576,0,0
-595,-552,0,0,0,0,0,0,0,0,0,-1,629,1576,0,0
-588,-552,0,0,0,0,0,0,0,0,0,-1,636,1576,0,0
-581,-552,0,0,0,0,0,0,0,0,0,-1,643,1576,0,0
-574,-552,0,0,0,0,0,0,0,0,0,-1,650,1576,0,0
-567,-552,0,0,0,0,0,0,0,0,0,-1,657,1576,0,0
-560,-552,0,0,0,0,0,0,0,0,0,-1,664,1576,0,0
-553,-552,0,0,0,0,0,0,0,0,0,-1,671,1576,0,0
-546,-552,0,0,0,0,0,0,0,0,0,-1,678,1576,0,0
-539,-552,0,0,0,0,0,0,0,0,0,-1,685,1576,0,0
-532,-552,0,0,0,0,0,0,0,0,0,-1,692,1576,0,0
-525,-552,0,0,0,0,0,0,0,0,0,-1,699,1576,0,0
-518,-552,0,0,0,0,0,0,0,0,0,-1,706,1576,0,0
-511,-552,0,0,0,0,0,0,0,0,0,-1,713,1576,0,0
-504,-552,0,0,0,0,0,0,0,0,0,-1,720,1576,0,0
-497,-552,1.3833,-2.54993,0,0,0,0,0,0,0,-1,727,1576,1.38332,2.54988
-490,-552,0.519592,-1.52686,0,0,0,0,0,0,0,-1,734,1576,0.519598,1.52687
-483,-552,0.507629,-1.3479,0.0127263,0.0268575,-0.00165294,0.0270483,0.0125355,-1.45589,0.0156302,0.0421899,741,1576,0.50761,1.34789
-476,-552,0.534729,-1.17957,0.00770493,0.0237621,0.0019598,0.0239979,0.00746919,1.45109,0.0141805,0.0404352,748,1576,0.534703,1.17955
-469,-552,0.75824,-1.01526,0.00356323,0.0211514,0.0041741,0.0220918,0.00262289,1.34922,0.0139361,0.0424375,755,1576,0.758244,1.01524
-462,-552,0.489807,-0.491577,0.00136821,0.0175114,0.00541373,0.0191588,-0.000279199,1.2754,0.0128666,0.040258,762,1576,0.489781,0.491526
-455,-552,-0.445129,-0.197144,0,0,0,0,0,0,0,-1,769,1576,-0.445133,0.197107
-448,-552,-0.187134,-0.365601,-0.00193947,0.0102762,0.00559713,0.0124529,-0.00411618,1.1999,0.00996159,0.0381099,776,1576,-0.187152,0.365547
-441,-552,-0.323059,0.190674,-0.00213689,0.00726673,0.00480698,0.00928906,-0.00415922,1.17257,0.00795043,0.0340414,783,1576,-0.323071,-0.190667
-434,-552,-0.0562134,0.0361328,-0.00191286,0.00528929,0.00369717,0.0068493,-0.00347287,1.17151,0.00606485,0.0185827,790,1576,-0.0561845,-0.0361859
-427,-552,-0.0229492,0.0424805,-0.00179071,0.00339064,0.00292944,0.00471062,-0.00311068,1.14745,0.00454702,0.0135637,797,1576,-0.0229734,-0.0425373
-420,-552,-0.0098877,0.0473633,-0.00159333,0.00169719,0.00242457,0.00298202,-0.00287816,1.0835,0.00338355,0.0168198,804,1576,-0.00988106,-0.0473537
-413,-552,0.00622559,0.0270996,-0.000877043,0.00110845,0.000948386,0.00148865,-0.00125724,1.18952,0.00158722,0.0149154,811,1576,0.00621122,-0.027128
-406,-552,0.003479,-0.00195313,0.000243411,0.000569834,0.000131207,0.000616034,0.000197211,1.23224,0.000363258,0.0115292,818,1576,0.00349515,0.00189901
-399,-552,-0.0154419,-0.000488281,0.00085268,0.000442497,-5.75055e-05,0.00086059,0.000434587,-0.136685,0.00049687,0.0126968,825,1576,-0.0154288,0.000433895
-392,-552,-0.0391846,0.00317383,0.00101766,0.000561967,-0.00046713,0.00130955,0.00027008,-0.558493,0.000798383,0.0141632,832,1576,-0.0391814,-0.00312628
-385,-552,-0.0421753,0.0369873,0.00198566,0.000544496,-0.000365795,0.00207319,0.000456966,-0.23487,0.00125778,0.0123511,839,1576,-0.0421694,-0.0369968
-378,-552,-0.0292969,0.0501709,0.00302898,0.00104592,0.000131685,0.00303769,0.00103722,0.0660189,0.00178296,0.0138232,846,1576,-0.0292682,-0.0502102
-371,-552,-0.0370483,0.0362549,0.00379813,0.00171954,0.000596566,0.00395718,0.00156049,0.260545,0.00230162,0.0185623,853,1576,-0.0370434,-0.0362243
-364,-552,-0.0237427,0.0291748,0.00487248,0.00237953,0.00134724,0.00546142,0.00179058,0.412114,0.00321484,0.0144624,860,1576,-0.0237494,-0.0291531
-357,-552,-0.0181885,0.0351563,0.00625608,0.0037169,0.00208942,0.00743139,0.0025416,0.512393,0.00436133,0.00945889,867,1576,-0.0181836,-0.0351222
-350,-552,-0.0177612,0.0317383,0.00795226,0.005624,0.00284306,0.00986029,0.00371597,0.591079,0.0057501,0.00895269,874,1576,-0.0177837,-0.0316793
-343,-552,-0.0229492,0.0235596,0.00989593,0.00806232,0.00356109,0.0126563,0.00530191,0.659409,0.0073391,0.00917505,881,1576,-0.0229278,-0.0235779
-336,-552,-0.00341797,0.0380859,0.0117901,0.0104074,0.00418454,0.01534,0.00685745,0.70353,0.00887309,0.0124541,888,1576,-0.0034278,-0.0381439
-329,-552,0.0224609,0.0917969,0.013572,0.0131761,0.00474769,0.0181258,0.00862222,0.764565,0.0104691,0.0272241,895,1576,0.0224409,-0.0918347
-322,-552,0.0189819,0.0601807,0.0153956,0.0163134,0.00523506,0.0211097,0.0105994,0.829117,0.0121877,0.0418412,902,1576,0.0189632,-0.0601487
-315,-552,0.00354004,0.00817871,0.0168846,0.0186521,0.00558209,0.0234199,0.0121167,0.863905,0.0135242,0.0461721,909,1576,0.0035343,-0.00821392
-308,-552,-0.17865,0.231445,0.0154664,0.0201118,0.00672517,0.0249041,0.0106741,0.951672,0.0144271,0.0451,916,1576,-0.178661,-0.231468
-301,-552,0.221252,0.312744,0.0143428,0.021552,0.00736353,0.0261459,0.00974894,1.01301,0.0152571,0.046665,923,1576,0.221252,-0.312753
-294,-552,0.415283,0.150879,0.0107194,0.0253834,0.00598456,0.0275157,0.00858714,1.22852,0.0162559,0.0435187,930,1576,0.415269,-0.150862
-287,-552,0.166138,-0.208862,0.00608508,0.0282679,0.00485455,0.0292838,0.00506922,1.36451,0.0180713,0.0458703,937,1576,0.166127,0.208917
-280,-552,0.086792,-0.28833,0.0037214,0.0318771,0.0022588,0.0320572,0.00354133,1.49125,0.0202943,0.0467442,944,1576,0.0868048,0.288358
-273,-552,0.0673828,-0.364014,0,0,0,0,0,0,0,-1,951,1576,0.0673563,0.364066
-266,-552,-0.225891,0.122559,0,0,0,0,0,0,0,-1,958,1576,-0.225874,-0.122572
-259,-552,-0.113892,-0.0229492,0.0066493,0.0407615,-0.00698539,0.0421365,0.00527428,-1.37644,0.0265084,0.0445217,965,1576,-0.113869,0.0229541
-252,-552,-4.33734,1.53796,0,0,0,0,0,0,0,-1,972,1576,-4.33732,-1.538
-245,-552,-3.29181,1.45642,0.0160708,0.0489353,-0.0162354,0.055603,0.00940311,-1.18111,0.0343658,0.0482099,979,1576,-3.29183,-1.45646
-238,-552,-2.49103,1.36841,0.0278614,0.0542154,-0.022444,0.0670647,0.0150122,-1.05084,0.0406407,0.0429437,986,1576,-2.49106,-1.36836
-231,-552,-1.82233,1.11011,0.0496003,0.0606671,-0.0279102,0.0835871,0.0266802,-0.883258,0.0492996,0.0424607,993,1576,-1.82234,-1.11017
-224,-552,0,0,0,0,0,0,0,0,0,-1,1000,1576,0,0
-217,-552,0,0,0,0,0,0,0,0,0,-1,1007,1576,0,0
-210,-552,0,0,0,0,0,0,0,0,0,-1,1014,1576,0,0
-203,-552,0,0,0,0,0,0,0,0,0,-1,1021,1576,0,0
-196,-552,0,0,0,0,0,0,0,0,0,-1,1028,1576,0,0
-189,-552,0,0,0,0,0,0,0,0,0,-1,1035,1576,0,0
-182,-552,0,0,0,0,0,0,0,0,0,-1,1042,1576,0,0
-175,-552,0,0,0,0,0,0,0,0,0,-1,1049,1576,0,0
-168,-552,0,0,0,0,0,0,0,0,0,-1,1056,1576,0,0
-161,-552,0,0,0,0,0,0,0,0,0,-1,1063,1576,0,0
-154,-552,0,0,0,0,0,0,0,0,0,-1,1070,1576,0,0
-147,-552,0,0,0,0,0,0,0,0,0,-1,1077,1576,0,0
-140,-552,0,0,0,0,0,0,0,0,0,-1,1084,1576,0,0
-133,-552,0,0,0,0,0,0,0,0,0,-1,1091,1576,0,0
-126,-552,0,0,0,0,0,0,0,0,0,-1,1098,1576,0,0
-119,-552,0,0,0,0,0,0,0,0,0,-1,1105,1576,0,0
-112,-552,0,0,0,0,0,0,0,0,0,-1,1112,1576,0,0
-105,-552,0,0,0,0,0,0,0,0,0,-1,1119,1576,0,0
-98,-552,0,0,0,0,0,0,0,0,0,-1,1126,1576,0,0
-91,-552,0,0,0,0,0,0,0,0,0,-1,1133,1576,0,0
-84,-552,0,0,0,0,0,0,0,0,0,-1,1140,1576,0,0
-77,-552,0,0,0,0,0,0,0,0,0,-1,1147,1576,0,0
-70,-552,0,0,0,0,0,0,0,0,0,-1,1154,1576,0,0
-63,-552,0,0,0,0,0,0,0,0,0,-1,1161,1576,0,0
-56,-552,0,0,0,0,0,0,0,0,0,-1,1168,1576,0,0
-49,-552,0,0,0,0,0,0,0,0,0,-1,1175,1576,0,0
-42,-552,0,0,0,0,0,0,0,0,0,-1,1182,1576,0,0
-35,-552,0,0,0,0,0,0,0,0,0,-1,1189,1576,0,0
-28,-552,0,0,0,0,0,0,0,0,0,-1,1196,1576,0,0
-21,-552,0,0,0,0,0,0,0,0,0,-1,1203,1576,0,0
-14,-552,0,0,0,0,0,0,0,0,0,-1,1210,1576,0,0
-7,-552,0,0,0,0,0,0,0,0,0,-1,1217,1576,0,0
0,-552,0,0,0,0,0,0,0,0,0,-1,1224,1576,0,0
7,-552,0,0,0,0,0,0,0,0,0,-1,1231,1576,0,0
14,-552,0,0,0,0,0,0,0,0,0,-1,1238,1576,0,0
21,-552,0,0,0,0,0,0,0,0,0,-1,1245,1576,0,0
28,-552,0,0,0,0,0,0,0,0,0,-1,1252,1576,0,0
35,-552,0,0,0,0,0,0,0,0,0,-1,1259,1576,0,0
42,-552,0,0,0,0,0,0,0,0,0,-1,1266,1576,0,0
49,-552,0,0,0,0,0,0,0,0,0,-1,1273,1576,0,0
56,-552,0,0,0,0,0,0,0,0,0,-1,1280,1576,0,0
63,-552,0,0,0,0,0,0,0,0,0,-1,1287,1576,0,0
70,-552,0,0,0,0,0,0,0,0,0,-1,1294,1576,0,0
77,-552,0,0,0,0,0,0,0,0,0,-1,1301,1576,0,0
84,-552,0,0,0,0,0,0,0,0,0,-1,1308,1576,0,0
91,-552,0,0,0,0,0,0,0,0,0,-1,1315,1576,0,0
98,-552,0,0,0,0,0,0,0,0,0,-1,1322,1576,0,0
105,-552,0,0,0,0,0,0,0,0,0,-1,1329,1576,0,0
112,-552,0,0,0,0,0,0,0,0,0,-1,1336,1576,0,0
119,-552,0,0,0,0,0,0,0,0,0,-1,1343,1576,0,0
126,-552,0,0,0,0,0,0,0,0,0,-1,1350,1576,0,0
133,-552,0,0,0,0,0,0,0,0,0,-1,1357,1576,0,0
140,-552,0,0,0,0,0,0,0,0,0,-1,1364,1576,0,0
147,-552,0,0,0,0,0,0,0,0,0,-1,1371,1576,0,0
154,-552,0,0,0,0,0,0,0,0,0,-1,1378,1576,0,0
161,-552,0,0,0,0,0,0,0,0,0,-1,1385,1576,0,0
168,-552,0,0,0,0,0,0,0,0,0,-1,1392,1576,0,0
175,-552,0,0,0,0,0,0,0,0,0,-1,1399,1576,0,0
182,-552,0,0,0,0,0,0,0,0,0,-1,1406,1576,0,0
189,-552,0,0,0,0,0,0,0,0,0,-1,1413,1576,0,0
196,-552,0,0,0,0,0,0,0,0,0,-1,1420,1576,0,0
203,-552,0,0,0,0,0,0,0,0,0,-1,1427,1576,0,0
210,-552,0,0,0,0,0,0,0,0,0,-1,1434,1576,0,0
217,-552,0,0,0,0,0,0,0,0,0,-1,1441,1576,0,0
224,-552,0,0,0,0,0,0,0,0,0,-1,1448,1576,0,0
231,-552,0,0,0,0,0,0,0,0,0,-1,1455,1576,0,0
238,-552,0,0,0,0,0,0,0,0,0,-1,1462,1576,0,0
245,-552,0,0,0,0,0,0,0,0,0,-1,1469,1576,0,0
252,-552,0,0,0,0,0,0,0,0,0,-1,1476,1576,0,0
259,-552,0,0,0,0,0,0,0,0,0,-1,1483,1576,0,0
266,-552,0,0,0,0,0,0,0,0,0,-1,1490,1576,0,0
273,-552,0,0,0,0,0,0,0,0,0,-1,1497,1576,0,0
280,-552,0,0,0,0,0,0,0,0,0,-1,1504,1576,0,0
287,-552,0,0,0,0,0,0,0,0,0,-1,1511,1576,0,0
294,-552,0,0,0,0,0,0,0,0,0,-1,1518,1576,0,0
301,-552,0,0,0,0,0,0,0,0,0,-1,1525,1576,0,0
308,-552,0,0,0,0,0,0,0,0,0,-1,1532,1576,0,0
315,-552,0,0,0,0,0,0,0,0,0,-1,1539,1576,0,0
322,-552,0,0,0,0,0,0,0,0,0,-1,1546,1576,0,0
329,-552,0,0,0,0,0,0,0,0,0,-1,1553,1576,0,0
336,-552,0,0,0,0,0,0,0,0,0,-1,1560,1576,0,0
343,-552,0,0,0,0,0,0,0,0,0,-1,1567,1576,0,0
350,-552,1.65625,3.3042,0,0,0,0,0,0,0,-1,1574,1576,1.65622,-3.3042
357,-552,-0.138794,0.10022,0,0,0,0,0,0,0,-1,1581,1576,-0.138763,-0.100165
364,-552,-0.0531006,-0.0147705,0,0,0,0,0,0,0,-1,1588,1576,-0.0530455,0.0147573
371,-552,-0.38916,-0.162354,0,0,0,0,0,0,0,-1,1595,1576,-0.38916,0.162407
378,-552,-0.0667725,0.490112,0.0126489,0.0318307,0.011769,0.0374219,0.0070577,1.12729,0.0229598,0.0456008,1602,1576,-0.0667262,-0.490089
385,-552,0.106689,0.509766,0.0096356,0.0312769,0.00979507,0.0350518,0.00586071,1.20295,0.02168,0.0419646,1609,1576,0.106629,-0.509767
392,-552,-0.64856,0.677979,0.0061533,0.0302751,0.00763444,0.0324883,0.0039401,1.28863,0.0204723,0.0437964,1616,1576,-0.648546,-0.677979
399,-552,0.196899,0.103394,0,0,0,0,0,0,0,-1,1623,1576,0.196907,-0.103361
406,-552,0.185303,0.517456,0,0,0,0,0,0,0,-1,1630,1576,0.185278,-0.51746
413,-552,0.384155,0.788086,-0.00254258,0.0219363,0.00317677,0.0223418,-0.00294813,1.44382,0.0159682,0.0428007,1637,1576,0.384161,-0.788114
420,-552,0.627563,0.707153,-0.00410408,0.0189831,0.00189163,0.0191371,-0.00425804,1.48958,0.014389,0.0412465,1644,1576,0.627551,-0.707205
427,-552,0.519775,0.0754395,0,0,0,0,0,0,0,-1,1651,1576,0.519743,-0.0754246
434,-552,0.474976,-0.0426025,-0.00649855,0.0125878,-0.000542585,0.0126032,-0.00651396,-1.5424,0.0112224,0.0440597,1658,1576,0.47497,0.0426331
441,-552,-0.337524,-0.451416,-0.00669838,0.0106416,-0.00138671,0.0107518,-0.00680858,-1.4915,0.0102233,0.0459516,1665,1576,-0.337544,0.451412
448,-552,-0.383057,-0.345947,-0.00610257,0.00863031,-0.0018548,0.00886023,-0.00633249,-1.44746,0.0088119,0.0420435,1672,1576,-0.383087,0.345987
455,-552,-0.276733,-0.250366,-0.00538919,0.00658831,-0.0018731,0.0068744,-0.00567528,-1.41923,0.00725658,0.0384893,1679,1576,-0.276699,0.250345
462,-552,-0.0791016,0.0437012,-0.00446877,0.00512093,-0.00208383,0.00555417,-0.00490201,-1.36581,0.0060408,0.0371668,1686,1576,-0.0791233,-0.0436577
469,-552,-0.0527344,0.0426025,-0.00367811,0.00387957,-0.00222134,0.0044841,-0.00428264,-1.30508,0.00506193,0.0289276,1693,1576,-0.0527517,-0.0426086
476,-552,-0.0141602,0.0629883,-0.00305137,0.00373491,-0.00231282,0.00444817,-0.00376463,-1.27166,0.00474713,0.014499,1700,1576,-0.0141504,-0.0629609
483,-552,-0.00366211,0.0548096,-0.00157329,0.00295919,-0.00134028,0.00332586,-0.00193996,-1.30376,0.00307512,0.0131295,1707,1576,-0.00364967,-0.0548515
490,-552,-0.0162354,0.0571289,-5.82612e-05,0.00219666,-0.000783193,0.00244199,-0.000303593,-1.26723,0.00173805,0.0131002,1714,1576,-0.0162771,-0.0571126
497,-552,0.0163574,0.0679932,0.000672539,0.00130205,-0.000474565,0.00155675,0.000417836,-1.07822,0.000930376,0.0203002,1721,1576,0.0163896,-0.0679856
504,-552,0.0220947,0.060791,0.00111985,0.00051606,-0.000294215,0.00123951,0.000396407,-0.386256,0.000730955,0.0215887,1728,1576,0.0220555,-0.0607911
511,-552,-0.0194092,0.0321045,0.000929791,1.61805e-05,-0.000350412,0.00104871,-0.000102739,-0.327175,0.000735782,0.0157648,1735,1576,-0.0194689,-0.0320819
518,-552,-0.0299072,0.0371094,0.000529074,-0.000507129,-0.000351243,0.000636912,-0.000614967,-0.297884,0.00072281,0.0126874,1742,1576,-0.0298968,-0.0371539
525,-552,-0.0178223,0.0419922,0.0005933,-0.000600785,-0.000401123,0.000715534,-0.00072302,-0.295791,0.000830553,0.0109902,1749,1576,-0.0178452,-0.0419892
532,-552,0.00598145,0.0229492,0.000747901,-0.000575779,-0.000101255,0.000755602,-0.00058348,-0.0759062,0.000775245,0.0119293,1756,1576,0.00600886,-0.0229589
539,-552,-0.00305176,0.00134277,0.000619386,-0.000398231,0.000417622,0.000768828,-0.000547674,0.343643,0.000763649,0.0161952,1763,1576,-0.0031053,-0.00140161
546,-552,-0.0262451,0.0220947,0.000541227,0.000737146,0.000984458,0.00162851,-0.000350133,0.834988,0.00121926,0.0192749,1770,1576,-0.0262092,-0.0220752
553,-552,-0.0349121,0.050293,0.000695557,0.00123359,0.00159586,0.00258295,-0.000653805,0.868899,0.00197629,0.0201128,1777,1576,-0.0349702,-0.0503172
560,-552,-0.0111084,0.0150146,0.00123885,0.00240418,0.00185499,0.00376587,-0.000122835,0.937573,0.00255251,0.023168,1784,1576,-0.0111137,-0.0150714
567,-552,-0.0289307,0.0108643,0.00185847,0.00362229,0.00254826,0.00543693,4.38325e-05,0.951988,0.0036101,0.0288555,1791,1576,-0.0289123,-0.0109209
574,-552,0.0489502,0.0689697,0.0027984,0.00497459,0.00310561,0.00717721,0.000595792,0.953898,0.00459909,0.0351164,1798,1576,0.0489726,-0.0689625
581,-552,0.147583,0.0471191,0.00406796,0.00654892,0.00351028,0.00903145,0.00158543,0.955242,0.00556824,0.0427891,1805,1576,0.147535,-0.0471456
588,-552,-0.37793,1.04712,0.00599619,0.00823426,0.00367837,0.01096,0.0032704,0.93306,0.00649699,0.0460909,1812,1576,-0.37798,-1.04711
595,-552,-0.443604,2.04944,0,0,0,0,0,0,0,-1,1819,1576,-0.443608,-2.04941
602,-552,0.101685,-0.157959,0.0120811,0.0113139,0.0027345,0.0144588,0.00893622,0.715705,0.00842497,0.0416846,1826,1576,0.101719,0.157971
609,-552,0.178223,0.00512695,0.0163817,0.0125606,0.00145805,0.0168745,0.0120678,0.325931,0.0100386,0.0420458,1833,1576,0.178276,-0.00511182
616,-552,0.2229,0.188599,0.0213251,0.0133843,-0.000470185,0.0213528,0.0133566,-0.0589374,0.0124569,0.040708,1840,1576,0.222928,-0.188619
623,-552,0,0,0,0,0,0,0,0,0,-1,1847,1576,0,0
630,-552,0,0,0,0,0,0,0,0,0,-1,1854,1576,0,0
637,-552,0,0,0,0,0,0,0,0,0,-1,1861,1576,0,0
644,-552,0,0,0,0,0,0,0,0,0,-1,1868,1576,0,0
651,-552,0,0,0,0,0,0,0,0,0,-1,1875,1576,0,0
658,-552,0,0,0,0,0,0,0,0,0,-1,1882,1576,0,0
665,-552,0,0,0,0,0,0,0,0,0,-1,1889,1576,0,0
672,-552,0,0,0,0,0,0,0,0,0,-1,1896,1576,0,0
679,-552,0,0,0,0,0,0,0,0,0,-1,1903,1576,0,0
686,-552,0,0,0,0,0,0,0,0,0,-1,1910,1576,0,0
693,-552,0,0,0,0,0,0,0,0,0,-1,1917,1576,0,0
700,-552,0,0,0,0,0,0,0,0,0,-1,1924,1576,0,0
707,-552,0,0,0,0,0,0,0,0,0,-1,1931,1576,0,0
714,-552,0,0,0,0,0,0,0,0,0,-1,1938,1576,0,0
721,-552,0,0,0,0,0,0,0,0,0,-1,1945,1576,0,0
728,-552,0,0,0,0,0,0,0,0,0,-1,1952,1576,0,0
735,-552,0,0,0,0,0,0,0,0,0,-1,1959,1576,0,0
742,-552,0,0,0,0,0,0,0,0,0,-1,1966,1576,0,0
749,-552,0,0,0,0,0,0,0,0,0,-1,1973,1576,0,0
756,-552,0,0,0,0,0,0,0,0,0,-1,1980,1576,0,0
763,-552,0,0,0,0,0,0,0,0,0,-1,1987,1576,0,0
770,-552,0,0,0,0,0,0,0,0,0,-1,1994,1576,0,0
777,-552,0,0,0,0,0,0,0,0,0,-1,2001,1576,0,0
784,-552,0,0,0,0,0,0,0,0,0,-1,2008,1576,0,0
791,-552,0,0,0,0,0,0,0,0,0,-1,2015,1576,0,0
798,-552,0,0,0,0,0,0,0,0,0,-1,2022,1576,0,0
805,-552,0,0,0,0,0,0,0,0,0,-1,2029,1576,0,0
812,-552,0,0,0,0,0,0,0,0,0,-1,2036,1576,0,0
-700,-559,0,0,0,0,0,0,0,0,0,-1,524,1583,0,0
-693,-559,0,0,0,0,0,0,0,0,0,-1,531,1583,0,0
-686,-559,0,0,0,0,0,0,0,0,0,-1,538,1583,0,0
-679,-559,0,0,0,0,0,0,0,0,0,-1,545,1583,0,0
-672,-559,0,0,0,0,0,0,0,0,0,-1,552,1583,0,0
-665,-559,0,0,0,0,0,0,0,0,0,-1,559,1583,0,0
-658,-559,0,0,0,0,0,0,0,0,0,-1,566,1583,0,0
-651,-559,0,0,0,0,0,0,0,0,0,-1,573,1583,0,0
-644,-559,0,0,0,0,0,0,0,0,0,-1,580,1583,0,0
-637,-559,0,0,0,0,0,0,0,0,0,-1,587,1583,0,0
-630,-559,0,0,0,0,0,0,0,0,0,-1,594,1583,0,0
-623,-559,0,0,0,0,0,0,0,0,0,-1,601,1583,0,0
-616,-559,0,0,0,0,0,0,0,0,0,-1,608,1583,0,0
-609,-559,0,0,0,0,0,0,0,0,0,-1,615,1583,0,0
-602,-559,0,0,0,0,0,0,0,0,0,-1,622,1583,0,0
-595,-559,0,0,0,0,0,0,0,0,0,-1,629,1583,0,0
-588,-559,0,0,0,0,0,0,0,0,0,-1,636,1583,0,0
-581,-559,0,0,0,0,0,0,0,0,0,-1,643,1583,0,0
-574,-559,0,0,0,0,0,0,0,0,0,-1,650,1583,0,0
-567,-559,0,0,0,0,0,0,0,0,0,-1,657,1583,0,0
-560,-559,0,0,0,0,0,0,0,0,0,-1,664,1583,0,0
-553,-559,0,0,0,0,0,0,0,0,0,-1,671,1583,0,0
-546,-559,0,0,0,0,0,0,0,0,0,-1,678,1583,0,0
-539,-559,0,0,0,0,0,0,0,0,0,-1,685,1583,0,0
-532,-559,0,0,0,0,0,0,0,0,0,-1,692,1583,0,0
-525,-559,0,0,0,0,0,0,0,0,0,-1,699,1583,0,0
-518,-559,0,0,0,0,0,0,0,0,0,-1,706,1583,0,0
-511,-559,0,0,0,0,0,0,0,0,0,-1,713,1583,0,0
-504,-559,0,0,0,0,0,0,0,0,0,-1,720,1583,0,0
-497,-559,0,0,0,0,0,0,0,0,0,-1,727,1583,0,0
-490,-559,1.11005,-1.55688,0,0,0,0,0,0,0,-1,734,1583,1.11007,1.55689
-483,-559,0.90094,-1.38501,0.0152914,0.0269665,0.000849061,0.0270279,0.0152299,1.49858,0.0156465,0.043375,741,1583,0.900961,1.38498
-476,-559,1.03705,-1.20959,0.00922805,0.0240945,0.00476791,0.0254923,0.00783032,1.28563,0.0150784,0.0443013,748,1583,1.03708,1.20958
-469,-559,1.36755,-0.883057,0.00461894,0.0213398,0.0068169,0.0237667,0.00219202,1.22877,0.0151667,0.0450973,755,1583,1.36755,0.883025
-462,-559,0.62207,0.14917,0.00217739,0.0175638,0.00774143,0.0207845,-0.0010434,1.17653,0.0142169,0.0379846,762,1583,0.622057,-0.149213
-455,-559,-0.650635,-0.205933,0.000218894,0.0132971,0.00811574,0.0171804,-0.00366434,1.12451,0.0128504,0.040558,769,1583,-0.65061,0.20594
-448,-559,-0.93573,0.53479,0,0,0,0,0,0,0,-1,776,1583,-0.935751,-0.534786
-441,-559,-0.63562,0.443359,-0.00121036,0.00701804,0.0058155,0.0100275,-0.00421983,1.09325,0.00845044,0.0414418,783,1583,-0.635604,-0.443371
-434,-559,-0.320862,0.286499,-0.000970431,0.0049158,0.00438578,0.00725444,-0.00330908,1.08092,0.00623903,0.0322892,790,1583,-0.320844,-0.286542
-427,-559,-0.050293,0.0501709,-0.000853453,0.00298211,0.00343754,0.00500064,-0.00287198,1.03984,0.00460031,0.0195797,797,1583,-0.0502798,-0.0501173
-420,-559,-0.00280762,0.0185547,-0.000710565,0.00117071,0.00278006,0.00316496,-0.00270481,0.948528,0.00339238,0.0148176,804,1583,-0.00283013,-0.0185726
-413,-559,-0.00598145,0.0205078,-8.21481e-05,0.000566576,0.00101226,0.00130517,-0.000820742,0.940447,0.00123797,0.00990741,811,1583,-0.00598403,-0.0205545
-406,-559,-0.000732422,0.0249023,0.000887282,-4.98993e-05,0.000183303,0.000921859,-8.44759e-05,0.18644,0.000644579,0.00841971,818,1583,-0.000757032,-0.024941
-399,-559,-0.00762939,0.0183105,0.00126964,-0.000250256,3.56455e-05,0.00127047,-0.000251092,0.0234354,0.000941903,0.0115589,825,1583,-0.00764828,-0.0183063
-392,-559,-0.0550537,0.00524902,0.00104121,-0.00026138,-0.000275298,0.001097,-0.000317174,-0.199957,0.000856857,0.0147599,832,1583,-0.0550553,-0.00524836
-385,-559,-0.0489502,0.0355225,0.00153571,-0.000312685,-0.000143415,0.00154678,-0.000323747,-0.0769746,0.00115433,0.0144092,839,1583,-0.0489642,-0.0355156
-378,-559,-0.0340576,0.0465088,0.00208203,6.20505e-05,0.000302689,0.00212641,1.76686e-05,0.145588,0.00141176,0.0140205,846,1583,-0.0340755,-0.0465448
-371,-559,-0.0372925,0.0247803,0.00243755,0.000599421,0.000726252,0.00268986,0.00034711,0.334371,0.00168947,0.0210538,853,1583,-0.0372623,-0.0248136
-364,-559,-0.015686,-0.000488281,0.00296247,0.00110463,0.00137031,0.00368903,0.000378065,0.487531,0.00234352,0.0186021,860,1583,-0.0156653,0.000444936
-357,-559,-0.0147095,0.0257568,0.00377634,0.00214174,0.00193882,0.00506309,0.000854993,0.585928,0.00312957,0.0112497,867,1583,-0.0147066,-0.0257329
-350,-559,-0.0111084,0.015625,0.00493548,0.00366137,0.00248314,0.00686198,0.00173486,0.65983,0.00411998,0.00896803,874,1583,-0.0110951,-0.015681
-343,-559,-0.00811768,0.0166016,0.00642146,0.00560663,0.00298598,0.00902769,0.0030004,0.717596,0.0053089,0.0102073,881,1583,-0.00810866,-0.0165526
-336,-559,-0.00494385,0.0318604,0.00795281,0.00740123,0.00334408,0.0110325,0.00432158,0.744256,0.00641919,0.0101426,888,1583,-0.00495159,-0.03188
-329,-559,0.00665283,0.0484619,0.00944948,0.00953749,0.00363174,0.0131255,0.00586148,0.791456,0.00759241,0.012779,895,1583,0.00663131,-0.0484091
-322,-559,-0.00708008,0.0483398,0.010996,0.0118819,0.00388596,0.0153501,0.00752783,0.842146,0.00886291,0.0287826,902,1583,-0.00709901,-0.0482837
-315,-559,0.0655518,0.0627441,0.0123311,0.0135871,0.00404837,0.0170559,0.00886232,0.862342,0.00984974,0.0380977,909,1583,0.0655216,-0.0627769
-308,-559,0.0411987,0.0822754,0.011352,0.0145793,0.0048313,0.0180593,0.007872,0.946572,0.0104551,0.0396511,916,1583,0.0411859,-0.0822854
-301,-559,0.0524902,-0.0770264,0.0105761,0.0154536,0.00528808,0.0188382,0.0071915,1.00145,0.0109771,0.0442714,923,1583,0.052477,0.0770102
-294,-559,0.130432,-0.270508,0.0074083,0.0184347,0.00430603,0.019917,0.00592598,1.23926,0.0118091,0.0434867,930,1583,0.130416,0.270534
-287,-559,0.125732,-0.393433,0.00334608,0.0208984,0.00334616,0.0215147,0.00272981,1.38866,0.0135253,0.0455114,937,1583,0.125725,0.393435
-280,-559,0.111328,-0.511963,0,0,0,0,0,0,0,-1,944,1583,0.111344,0.511927
-273,-559,0.0760498,1.06531,0,0,0,0,0,0,0,-1,951,1583,0.0760547,-1.06527
-266,-559,0.976074,-0.589844,0,0,0,0,0,0,0,-1,958,1583,0.976086,0.5899
-259,-559,0.815796,-0.702637,0,0,0,0,0,0,0,-1,965,1583,0.815766,0.702635
-252,-559,-0.146423,-0.477783,0,0,0,0,0,0,0,-1,972,1583,-0.146402,0.477766
-245,-559,-0.182556,0.23938,0.0097262,0.0379937,-0.0140021,0.0437552,0.00396471,-1.18044,0.0279425,0.0424098,979,1583,-0.182537,-0.239341
-238,-559,-2.51239,1.30701,0.0190057,0.0422745,-0.019139,0.0530379,0.00824234,-1.0585,0.0329565,0.0461482,986,1583,-2.51242,-1.30706
-231,-559,-1.86157,0.75293,0.0354325,0.0475076,-0.0229127,0.0651648,0.0177753,-0.914221,0.0388964,0.0453612,993,1583,-1.86157,-0.752894
-224,-559,-0.435242,0.49646,0.0582168,0.0552418,-0.0256183,0.0823908,0.0310679,-0.756399,0.0480451,0.0415284,1000,1583,-0.435245,-0.496407
-217,-559,0,0,0,0,0,0,0,0,0,-1,1007,1583,0,0
-210,-559,0,0,0,0,0,0,0,0,0,-1,1014,1583,0,0
-203,-559,0,0,0,0,0,0,0,0,0,-1,1021,1583,0,0
-196,-559,0,0,0,0,0,0,0,0,0,-1,1028,1583,0,0
-189,-559,0,0,0,0,0,0,0,0,0,-1,1035,1583,0,0
-182,-559,0,0,0,0,0,0,0,0,0,-1,1042,1583,0,0
-175,-559,0,0,0,0,0,0,0,0,0,-1,1049,1583,0,0
-168,-559,0,0,0,0,0,0,0,0,0,-1,1056,1583,0,0
-161,-559,0,0,0,0,0,0,0,0,0,-1,1063,1583,0,0
-154,-559,0,0,0,0,0,0,0,0,0,-1,1070,1583,0,0
-147,-559,0,0,0,0,0,0,0,0,0,-1,1077,1583,0,0
-140,-559,0,0,0,0,0,0,0,0,0,-1,1084,1583,0,0
-133,-559,0,0,0,0,0,0,0,0,0,-1,1091,1583,0,0
-126,-559,0,0,0,0,0,0,0,0,0,-1,1098,1583,0,0
-119,-559,0,0,0,0,0,0,0,0,0,-1,1105,1583,0,0
-112,-559,0,0,0,0,0,0,0,0,0,-1,1112,1583,0,0
-105,-559,0,0,0,0,0,0,0,0,0,-1,1119,1583,0,0
-98,-559,0,0,0,0,0,0,0,0,0,-1,1126,1583,0,0
-91,-559,0,0,0,0,0,0,0,0,0,-1,1133,1583,0,0
-84,-559,0,0,0,0,0,0,0,0,0,-1,1140,1583,0,0
-77,-559,0,0,0,0,0,0,0,0,0,-1,1147,1583,0,0
-70,-559,0,0,0,0,0,0,0,0,0,-1,1154,1583,0,0
-63,-559,0,0,0,0,0,0,0,0,0,-1,1161,1583,0,0
-56,-559,0,0,0,0,0,0,0,0,0,-1,1168,1583,0,0
-49,-559,0,0,0,0,0,0,0,0,0,-1,1175,1583,0,0
-42,-559,0,0,0,0,0,0,0,0,0,-1,1182,1583,0,0
-35,-559,0,0,0,0,0,0,0,0,0,-1,1189,1583,0,0
-28,-559,0,0,0,0,0,0,0,0,0,-1,1196,1583,0,0
-21,-559,0,0,0,0,0,0,0,0,0,-1,1203,1583,0,0
-14,-559,0,0,0,0,0,0,0,0,0,-1,1210,1583,0,0
-7,-559,0,0,0,0,0,0,0,0,0,-1,1217,1583,0,0
0,-559,0,0,0,0,0,0,0,0,0,-1,1224,1583,0,0
7,-559,0,0,0,0,0,0,0,0,0,-1,1231,1583,0,0
14,-559,0,0,0,0,0,0,0,0,0,-1,1238,1583,0,0
21,-559,0,0,0,0,0,0,0,0,0,-1,1245,1583,0,0
28,-559,0,0,0,0,0,0,0,0,0,-1,1252,1583,0,0
35,-559,0,0,0,0,0,0,0,0,0,-1,1259,1583,0,0
42,-559,0,0,0,0,0,0,0,0,0,-1,1266,1583,0,0
49,-559,0,0,0,0,0,0,0,0,0,-1,1273,1583,0,0
56,-559,0,0,0,0,0,0,0,0,0,-1,1280,1583,0,0
63,-559,0,0,0,0,0,0,0,0,0,-1,1287,1583,0,0
70,-559,0,0,0,0,0,0,0,0,0,-1,1294,1583,0,0
77,-559,0,0,0,0,0,0,0,0,0,-1,1301,1583,0,0
84,-559,0,0,0,0,0,0,0,0,0,-1,1308,1583,0,0
91,-559,0,0,0,0,0,0,0,0,0,-1,1315,1583,0,0
98,-559,0,0,0,0,0,0,0,0,0,-1,1322,1583,0,0
105,-559,0,0,0,0,0,0,0,0,0,-1,1329,1583,0,0
112,-559,0,0,0,0,0,0,0,0,0,-1,1336,1583,0,0
119,-559,0,0,0,0,0,0,0,0,0,-1,1343,1583,0,0
126,-559,0,0,0,0,0,0,0,0,0,-1,1350,1583,0,0
133,-559,0,0,0,0,0,0,0,0,0,-1,1357,1583,0,0
140,-559,0,0,0,0,0,0,0,0,0,-1,1364,1583,0,0
147,-559,0,0,0,0,0,0,0,0,0,-1,1371,1583,0,0
154,-559,0,0,0,0,0,0,0,0,0,-1,1378,1583,0,0
161,-559,0,0,0,0,0,0,0,0,0,-1,1385,1583,0,0
168,-559,0,0,0,0,0,0,0,0,0,-1,1392,1583,0,0
175,-559,0,0,0,0,0,0,0,0,0,-1,1399,1583,0,0
182,-559,0,0,0,0,0,0,0,0,0,-1,1406,1583,0,0
189,-559,0,0,0,0,0,0,0,0,0,-1,1413,1583,0,0
196,-559,0,0,0,0,0,0,0,0,0,-1,1420,1583,0,0
203,-559,0,0,0,0,0,0,0,0,0,-1,1427,1583,0,0
210,-559,0,0,0,0,0,0,0,0,0,-1,1434,1583,0,0
217,-559,0,0,0,0,0,0,0,0,0,-1,1441,1583,0,0
224,-559,0,0,0,0,0,0,0,0,0,-1,1448,1583,0,0
231,-559,0,0,0,0,0,0,0,0,0,-1,1455,1583,0,0
238,-559,0,0,0,0,0,0,0,0,0,-1,1462,1583,0,0
245,-559,0,0,0,0,0,0,0,0,0,-1,1469,1583,0,0
252,-559,0,0,0,0,0,0,0,0,0,-1,1476,1583,0,0
259,-559,0,0,0,0,0,0,0,0,0,-1,1483,1583,0,0
266,-559,0,0,0,0,0,0,0,0,0,-1,1490,1583,0,0
273,-559,0,0,0,0,0,0,0,0,0,-1,1497,1583,0,0
280,-559,0,0,0,0,0,0,0,0,0,-1,1504,1583,0,0
287,-559,0,0,0,0,0,0,0,0,0,-1,1511,1583,0,0
294,-559,0,0,0,0,0,0,0,0,0,-1,1518,1583,0,0
301,-559,0,0,0,0,0,0,0,0,0,-1,1525,1583,0,0
308,-559,0,0,0,0,0,0,0,0,0,-1,1532,1583,0,0
315,-559,0,0,0,0,0,0,0,0,0,-1,1539,1583,0,0
322,-559,0,0,0,0,0,0,0,0,0,-1,1546,1583,0,0
329,-559,0,0,0,0,0,0,0,0,0,-1,1553,1583,0,0
336,-559,0.26709,1.83069,0.0199323,0.00390845,0.0355833,0.0483945,-0.0245538,0.674665,0.0428599,0.043523,1560,1583,0.267102,-1.83072
343,-559,0.677002,2.43542,0,0,0,0,0,0,0,-1,1567,1583,0.677043,-2.43543
350,-559,1.11316,3.05994,0,0,0,0,0,0,0,-1,1574,1583,1.11317,-3.05994
357,-559,1.77307,3.63184,0,0,0,0,0,0,0,-1,1581,1583,1.77306,-3.63179
364,-559,-0.431763,-1.11047,0,0,0,0,0,0,0,-1,1588,1583,-0.431813,1.11052
371,-559,-0.29248,-0.468872,0,0,0,0,0,0,0,-1,1595,1583,-0.292479,0.468843
378,-559,-0.0748291,0.275391,0.00828009,0.0346702,0.0107892,0.0385197,0.00443058,1.22808,0.0243378,0.0472843,1602,1583,-0.0748635,-0.275362
385,-559,0.248901,0.966553,0.00568552,0.0326025,0.00889459,0.0352761,0.00301191,1.2788,0.0225805,0.0419809,1609,1583,0.248962,-0.966557
392,-559,-0.484253,0.569092,0.00279241,0.0303764,0.00683887,0.0319789,0.00118995,1.34063,0.0209339,0.0419289,1616,1583,-0.484256,-0.569096
399,-559,-0.878418,0.500977,0.000103532,0.0260474,0.00514899,0.0270319,-0.000881009,1.38187,0.018322,0.0410299,1623,1583,-0.878423,-0.501001
406,-559,-0.400757,0.838989,0,0,0,0,0,0,0,-1,1630,1583,-0.400758,-0.838971
413,-559,-0.0864258,0.774292,-0.00338175,0.0201962,0.00328169,0.0206444,-0.00382999,1.43505,0.0152013,0.0440955,1637,1583,-0.0864584,-0.774348
420,-559,-0.0371094,0.597534,-0.00434427,0.0170199,0.002297,0.0172641,-0.00458845,1.46489,0.0133053,0.0417652,1644,1583,-0.0370786,-0.597524
427,-559,0.347778,0.404053,-0.00503897,0.0126811,0.00137194,0.0127867,-0.00514456,1.49398,0.0106614,0.0434668,1651,1583,0.347831,-0.404112
434,-559,0.444458,0.0881348,-0.00562572,0.0100214,0.000250958,0.0100254,-0.00562974,1.55476,0.0091565,0.0461723,1658,1583,0.44445,-0.0881173
441,-559,0.0727539,-0.110962,-0.00549077,0.00805584,-0.000515821,0.00807545,-0.00551039,-1.53279,0.00789025,0.044451,1665,1583,0.0727714,0.110913
448,-559,-0.174805,-0.136475,-0.00473778,0.00612587,-0.000902086,0.00620027,-0.00481218,-1.48851,0.00637485,0.0425893,1672,1583,-0.17479,0.136505
455,-559,-0.1521,-0.110107,-0.00400778,0.00426465,-0.000940012,0.00437012,-0.00411325,-1.45906,0.00489863,0.0348172,1679,1583,-0.152042,0.110147
462,-559,-0.00134277,0.00915527,-0.00315011,0.00297932,-0.00122097,0.00321358,-0.00338437,-1.38124,0.00380975,0.0269029,1686,1583,-0.00138487,-0.00918889
469,-559,-0.00463867,0.0478516,-0.00246992,0.00204902,-0.00144241,0.00247017,-0.00289108,-1.28671,0.0030985,0.0150211,1693,1583,-0.00460177,-0.0478573
476,-559,-0.0275879,0.0621338,-0.0019922,0.00200673,-0.00167633,0.00261647,-0.00260194,-1.22194,0.00301285,0.00991419,1700,1583,-0.0275793,-0.0621176
483,-559,-0.0117188,0.050293,-0.000844132,0.00152991,-0.000917564,0.0018432,-0.00115743,-1.24177,0.00174743,0.0117475,1707,1583,-0.0117179,-0.0503171
490,-559,-0.0108643,0.0440674,0.000464626,0.00107507,-0.000426494,0.00129431,0.000245389,-1.09598,0.00079382,0.0136939,1714,1583,-0.0108156,-0.0440428
497,-559,0.0045166,0.067627,0.00114781,0.000419835,-0.000172769,0.00118673,0.000380913,-0.221584,0.000699647,0.0171093,1721,1583,0.00451056,-0.0676868
504,-559,-0.0012207,0.057251,0.00160476,-0.000212337,-3.01322e-05,0.00160526,-0.000212837,-0.0165766,0.00114771,0.0216171,1728,1583,-0.0011755,-0.0572262
511,-559,-0.0231934,0.0377197,0.00148508,-0.00056467,-8.85482e-05,0.0014889,-0.000568488,-0.0430925,0.00122681,0.0192519,1735,1583,-0.0232151,-0.0376897
518,-559,-0.013916,0.0402832,0.00127908,-0.0010247,-0.000121487,0.00128547,-0.00103109,-0.0525396,0.00134015,0.0119632,1742,1583,-0.0139633,-0.0402561
525,-559,-0.0223389,0.0229492,0.00156334,-0.0011788,-0.000138065,0.00157027,-0.00118573,-0.0501802,0.00159633,0.0103496,1749,1583,-0.0223074,-0.022977
532,-559,-0.00854492,0.00671387,0.00185657,-0.00115913,0.000190724,0.00186859,-0.00117114,0.0629095,0.00177032,0.0122049,1756,1583,-0.0085506,-0.00671252
539,-559,-0.00488281,0.00695801,0.00186695,-0.000894935,0.000740646,0.00205303,-0.00108101,0.246145,0.00183822,0.016711,1763,1583,-0.00490222,-0.00691725
546,-559,-0.0205078,-0.0166016,0.0019039,0.000414857,0.00132955,0.00268319,-0.000364435,0.530161,0.00192182,0.0142122,1770,1583,-0.0205155,0.0166242
553,-559,-0.0321045,0.0239258,0.00218577,0.0011257,0.00194996,0.00367644,-0.000364971,0.652695,0.00258124,0.0127614,1777,1583,-0.0320472,-0.0238907
560,-559,-0.0344238,0.0423584,0.00288651,0.00264208,0.00215782,0.00492557,0.000603014,0.757108,0.00310231,0.0219134,1784,1583,-0.0344495,-0.0423914
567,-559,-0.0537109,0.0292969,0.0036071,0.00434243,0.0028606,0.00685889,0.00109063,0.849311,0.00425589,0.0341574,1791,1583,-0.0536722,-0.029298
574,-559,0.157715,0.174194,0.00467383,0.00630832,0.00344756,0.00903418,0.00194797,0.901775,0.0054899,0.0413637,1798,1583,0.157657,-0.174175
581,-559,-0.0985107,0.613403,0.00612268,0.00866142,0.00383533,0.011432,0.00335212,0.945208,0.00678579,0.041993,1805,1583,-0.0985071,-0.613403
588,-559,-0.389771,1.17676,0.00832256,0.0112739,0.00388608,0.013955,0.00564139,0.966852,0.00810603,0.0412641,1812,1583,-0.389778,-1.17679
595,-559,-0.526733,1.79321,0.0113238,0.0139716,0.0034709,0.0163625,0.0089329,0.967595,0.00946019,0.0423716,1819,1583,-0.526706,-1.79316
602,-559,-0.408936,2.24243,0.0154229,0.0164871,0.00247569,0.0184872,0.0134227,0.891253,0.0110312,0.0431663,1826,1583,-0.408959,-2.2424
609,-559,0.0457764,-0.314087,0.0205705,0.0186764,0.00050235,0.0206955,0.0185514,0.243854,0.0131407,0.0424534,1833,1583,0.0457773,0.314059
616,-559,0,0,0,0,0,0,0,0,0,-1,1840,1583,0,0
623,-559,0,0,0,0,0,0,0,0,0,-1,1847,1583,0,0
630,-559,0,0,0,0,0,0,0,0,0,-1,1854,1583,0,0
637,-559,0,0,0,0,0,0,0,0,0,-1,1861,1583,0,0
644,-559,0,0,0,0,0,0,0,0,0,-1,1868,1583,0,0
651,-559,0,0,0,0,0,0,0,0,0,-1,1875,1583,0,0
658,-559,0,0,0,0,0,0,0,0,0,-1,1882,1583,0,0
665,-559,0,0,0,0,0,0,0,0,0,-1,1889,1583,0,0
672,-559,0,0,0,0,0,0,0,0,0,-1,1896,1583,0,0
679,-559,0,0,0,0,0,0,0,0,0,-1,1903,1583,0,0
686,-559,0,0,0,0,0,0,0,0,0,-1,1910,1583,0,0
693,-559,0,0,0,0,0,0,0,0,0,-1,1917,1583,0,0
700,-559,0,0,0,0,0,0,0,0,0,-1,1924,1583,0,0
707,-559,0,0,0,0,0,0,0,0,0,-1,1931,1583,0,0
714,-559,0,0,0,0,0,0,0,0,0,-1,1938,1583,0,0
721,-559,0,0,0,0,0,0,0,0,0,-1,1945,1583,0,0
728,-559,0,0,0,0,0,0,0,0,0,-1,1952,1583,0,0
735,-559,0,0,0,0,0,0,0,0,0,-1,1959,1583,0,0
742,-559,0,0,0,0,0,0,0,0,0,-1,1966,1583,0,0
749,-559,0,0,0,0,0,0,0,0,0,-1,1973,1583,0,0
756,-559,0,0,0,0,0,0,0,0,0,-1,1980,1583,0,0
763,-559,0,0,0,0,0,0,0,0,0,-1,1987,1583,0,0
770,-559,0,0,0,0,0,0,0,0,0,-1,1994,1583,0,0
777,-559,0,0,0,0,0,0,0,0,0,-1,2001,1583,0,0
784,-559,0,0,0,0,0,0,0,0,0,-1,2008,1583,0,0
791,-559,0,0,0,0,0,0,0,0,0,-1,2015,1583,0,0
798,-559,0,0,0,0,0,0,0,0,0,-1,2022,1583,0,0
805,-559,0,0,0,0,0,0,0,0,0,-1,2029,1583,0,0
812,-559,0,0,0,0,0,0,0,0,0,-1,2036,1583,0,0
-700,-566,0,0,0,0,0,0,0,0,0,-1,524,1590,0,0
-693,-566,0,0,0,0,0,0,0,0,0,-1,531,1590,0,0
-686,-566,0,0,0,0,0,0,0,0,0,-1,538,1590,0,0
-679,-566,0,0,0,0,0,0,0,0,0,-1,545,1590,0,0
-672,-566,0,0,0,0,0,0,0,0,0,-1,552,1590,0,0
-665,-566,0,0,0,0,0,0,0,0,0,-1,559,1590,0,0
-658,-566,0,0,0,0,0,0,0,0,0,-1,566,1590,0,0
-651,-566,0,0,0,0,0,0,0,0,0,-1,573,1590,0,0
-644,-566,0,0,0,0,0,0,0,0,0,-1,580,1590,0,0
-637,-566,0,0,0,0,0,0,0,0,0,-1,587,1590,0,0
-630,-566,0,0,0,0,0,0,0,0,0,-1,594,1590,0,0
-623,-566,0,0,0,0,0,0,0,0,0,-1,601,1590,0,0
-616,-566,0,0,0,0,0,0,0,0,0,-1,608,1590,0,0
-609,-566,0,0,0,0,0,0,0,0,0,-1,615,1590,0,0
-602,-566,0,0,0,0,0,0,0,0,0,-1,622,1590,0,0
-595,-566,0,0,0,0,0,0,0,0,0,-1,629,1590,0,0
-588,-566,0,0,0,0,0,0,0,0,0,-1,636,1590,0,0
-581,-566,0,0,0,0,0,0,0,0,0,-1,643,1590,0,0
-574,-566,0,0,0,0,0,0,0,0,0,-1,650,1590,0,0
-567,-566,0,0,0,0,0,0,0,0,0,-1,657,1590,0,0
-560,-566,0,0,0,0,0,0,0,0,0,-1,664,1590,0,0
-553,-566,0,0,0,0,0,0,0,0,0,-1,671,1590,0,0
-546,-566,0,0,0,0,0,0,0,0,0,-1,678,1590,0,0
-539,-566,0,0,0,0,0,0,0,0,0,-1,685,1590,0,0
-532,-566,0,0,0,0,0,0,0,0,0,-1,692,1590,0,0
-525,-566,0,0,0,0,0,0,0,0,0,-1,699,1590,0,0
-518,-566,0,0,0,0,0,0,0,0,0,-1,706,1590,0,0
-511,-566,0,0,0,0,0,0,0,0,0,-1,713,1590,0,0
-504,-566,0,0,0,0,0,0,0,0,0,-1,720,1590,0,0
-497,-566,0,0,0,0,0,0,0,0,0,-1,727,1590,0,0
-490,-566,0,0,0,0,0,0,0,0,0,-1,734,1590,0,0
-483,-566,1.80273,-1.32776,0.0185918,0.0261625,0.00476007,0.0284589,0.0162954,1.12131,0.0164884,0.0421107,741,1590,1.80274,1.3278
-476,-566,2.02277,-1.43848,0.0113851,0.0231624,0.00893445,0.0279742,0.00657325,1.07677,0.0168903,0.0439919,748,1590,2.02277,1.43852
-469,-566,2.12024,-0.858398,0,0,0,0,0,0,0,-1,755,1590,2.12022,0.858457
-462,-566,-0.0736084,-0.659058,0.0035943,0.0163304,0.0108451,0.0225388,-0.00261415,1.05087,0.0159688,0.0401548,762,1590,-0.0736157,0.659058
-455,-566,-0.375122,-0.250732,0.00157258,0.0121461,0.0105748,0.018682,-0.00496338,1.0172,0.0143972,0.0407848,769,1590,-0.375128,0.250737
-448,-566,0.519714,-0.663696,0,0,0,0,0,0,0,-1,776,1590,0.519737,0.663641
-441,-566,0.446289,-0.461914,0.000268225,0.00602477,0.00703114,0.010744,-0.00445096,0.979673,0.00902009,0.0433201,783,1590,0.446275,0.461863
-434,-566,-0.186157,0.0865479,0.000507634,0.00394354,0.0051654,0.00766918,-0.00321801,0.945938,0.00645846,0.047253,790,1590,-0.186144,-0.0865305
-427,-566,-0.117126,0.0684814,0.000584501,0.00209509,0.00396208,0.00537322,-0.00269363,0.879584,0.00474228,0.0393427,797,1590,-0.1171,-0.0684573
-420,-566,-0.0669556,0.0324707,0.000632642,0.000290353,0.00308932,0.00355555,-0.00263256,0.757727,0.00358593,0.0238509,804,1590,-0.0669383,-0.0324112
-413,-566,-0.036438,0.0108643,0.00113569,-0.000213476,0.000963776,0.00163751,-0.000715296,0.480055,0.00139275,0.0100864,811,1590,-0.0364242,-0.0108068
-406,-566,-0.0197754,0.0218506,0.00193915,-0.00079516,6.98312e-05,0.00194094,-0.000796942,0.0255167,0.00162606,0.00717418,818,1590,-0.0197508,-0.0218429
-399,-566,-0.010498,0.0223389,0.00206774,-0.000980999,-8.15916e-05,0.00206993,-0.000983181,-0.0267369,0.00179955,0.0089629,825,1590,-0.0105133,-0.0223536
-392,-566,-0.0463257,0.0231934,0.00153248,-0.000963851,-0.000368809,0.00158583,-0.0010172,-0.143653,0.00151477,0.0111948,832,1590,-0.0463537,-0.0231986
-385,-566,-0.0350342,0.0426025,0.00163096,-0.000950323,-0.000267954,0.00165848,-0.000977845,-0.102352,0.0015389,0.0136608,839,1590,-0.0350606,-0.0425966
-378,-566,-0.0415649,0.0665283,0.00178578,-0.000596078,6.74071e-05,0.00178769,-0.000597984,0.02827,0.00143332,0.0144934,846,1590,-0.0415504,-0.0664771
-371,-566,-0.0586548,0.0289307,0.00184519,-9.10447e-05,0.000401232,0.00192504,-0.000170896,0.196449,0.00134395,0.0190698,853,1590,-0.0586825,-0.028899
-364,-566,-0.013855,0.00256348,0.00195103,0.000373355,0.000908128,0.00236509,-4.07037e-05,0.427789,0.00159047,0.0187153,860,1590,-0.0138607,-0.00254199
-357,-566,-0.010498,0.0340576,0.00229732,0.00118235,0.00129548,0.00315017,0.00032949,0.582209,0.00199936,0.015664,867,1590,-0.0104959,-0.0340377
-350,-566,0.0131226,0.0235596,0.003022,0.00236398,0.001658,0.00438332,0.00100266,0.687451,0.00265195,0.0177293,874,1590,0.0131112,-0.0236076
-343,-566,-0.0045166,0.00610352,0.00416649,0.00388261,0.00201894,0.00604848,0.00200063,0.750303,0.00355814,0.0234176,881,1590,-0.00453134,-0.00613974
-336,-566,-0.0184326,0.0238037,0.00543919,0.00522271,0.00222311,0.00755669,0.00310521,0.761073,0.00438588,0.0207608,888,1590,-0.0184191,-0.023825
-329,-566,-0.0179443,0.0386963,0.00671679,0.006812,0.0023608,0.00912567,0.00440312,0.795479,0.00526978,0.0108324,895,1590,-0.0179707,-0.0386379
-322,-566,-0.0114746,0.0317383,0.00800411,0.00846302,0.00251795,0.0107619,0.00570519,0.830836,0.00621717,0.0106302,902,1590,-0.0114911,-0.0317836
-315,-566,0.000976563,0.0244141,0.00912123,0.00959173,0.00262699,0.011994,0.00671898,0.830055,0.00694144,0.0214012,909,1590,0.000949307,-0.0244581
-308,-566,0.0203247,0.0290527,0.00844169,0.0101369,0.00321124,0.0126105,0.00596806,0.914427,0.00728414,0.0321464,916,1590,0.0203215,-0.0290434
-301,-566,-0.0193481,-0.0214844,0.00783436,0.0104966,0.00364418,0.0130452,0.0052858,0.960505,0.00757662,0.0396252,923,1590,-0.0193259,0.0215428
-294,-566,0.0160522,-0.239502,0.0050934,0.0126382,0.00302835,0.0137033,0.00402824,1.23258,0.00813244,0.0399598,930,1590,0.0160676,0.239459
-287,-566,0.235962,-0.399536,0.00155564,0.0145511,0.0023461,0.0149617,0.00114506,1.39755,0.00961555,0.0448027,937,1590,0.235963,0.399585
-280,-566,0.519958,-0.674561,0,0,0,0,0,0,0,-1,944,1590,0.519966,0.674577
-273,-566,0.866211,-0.496094,0,0,0,0,0,0,0,-1,951,1590,0.866221,0.496065
-266,-566,0.709839,-0.469238,0.000119841,0.0200553,-0.00272325,0.0204206,-0.000245471,-1.43745,0.0136963,0.0454215,958,1590,0.709821,0.469252
-259,-566,0.59082,-0.61499,0.000277124,0.0226982,-0.00508616,0.023798,-0.000822706,-1.35784,0.0161466,0.0483664,965,1590,0.590801,0.61499
-252,-566,0.288086,-0.572876,0.00167788,0.0253461,-0.00782819,0.0277009,-0.000676976,-1.27859,0.018697,0.0461941,972,1590,0.288064,0.57282
-245,-566,0.147034,0.00561523,0.00550695,0.0284684,-0.011597,0.0333063,0.00066904,-1.17558,0.0219846,0.0448243,979,1590,0.147007,-0.00559186
-238,-566,-0.0913696,0.57251,0.0126032,0.0320529,-0.0158257,0.0409029,0.00375325,-1.0609,0.0261076,0.0477683,986,1590,-0.0913562,-0.572512
-231,-566,-1.7403,0.578491,0.0249798,0.0363924,-0.0184996,0.0500457,0.0113265,-0.934996,0.0303024,0.0492671,993,1590,-1.7403,-0.578552
-224,-566,-0.324646,0.271118,0.0427987,0.0436956,-0.0204978,0.0637499,0.0227444,-0.796335,0.037306,0.0459484,1000,1590,-0.32463,-0.271166
-217,-566,0.575439,-0.00854492,0,0,0,0,0,0,0,-1,1007,1590,0.575429,0.00850148
-210,-566,0.158813,-0.0393066,0,0,0,0,0,0,0,-1,1014,1590,0.158805,0.0392733
-203,-566,0,0,0,0,0,0,0,0,0,-1,1021,1590,0,0
-196,-566,0,0,0,0,0,0,0,0,0,-1,1028,1590,0,0
-189,-566,0,0,0,0,0,0,0,0,0,-1,1035,1590,0,0
-182,-566,0,0,0,0,0,0,0,0,0,-1,1042,1590,0,0
-175,-566,0,0,0,0,0,0,0,0,0,-1,1049,1590,0,0
-168,-566,0,0,0,0,0,0,0,0,0,-1,1056,1590,0,0
-161,-566,0,0,0,0,0,0,0,0,0,-1,1063,1590,0,0
-154,-566,0,0,0,0,0,0,0,0,0,-1,1070,1590,0,0
-147,-566,0,0,0,0,0,0,0,0,0,-1,1077,1590,0,0
-140,-566,0,0,0,0,0,0,0,0,0,-1,1084,1590,0,0
-133,-566,0,0,0,0,0,0,0,0,0,-1,1091,1590,0,0
-126,-566,0,0,0,0,0,0,0,0,0,-1,1098,1590,0,0
-119,-566,0,0,0,0,0,0,0,0,0,-1,1105,1590,0,0
-112,-566,0,0,0,0,0,0,0,0,0,-1,1112,1590,0,0
-105,-566,0,0,0,0,0,0,0,0,0,-1,1119,1590,0,0
-98,-566,0,0,0,0,0,0,0,0,0,-1,1126,1590,0,0
-91,-566,0,0,0,0,0,0,0,0,0,-1,1133,1590,0,0
-84,-566,0,0,0,0,0,0,0,0,0,-1,1140,1590,0,0
-77,-566,0,0,0,0,0,0,0,0,0,-1,1147,1590,0,0
-70,-566,0,0,0,0,0,0,0,0,0,-1,1154,1590,0,0
-63,-566,0,0,0,0,0,0,0,0,0,-1,1161,1590,0,0
-56,-566,0,0,0,0,0,0,0,0,0,-1,1168,1590,0,0
-49,-566,0,0,0,0,0,0,0,0,0,-1,1175,1590,0,0
-42,-566,0,0,0,0,0,0,0,0,0,-1,1182,1590,0,0
-35,-566,0,0,0,0,0,0,0,0,0,-1,1189,1590,0,0
-28,-566,0,0,0,0,0,0,0,0,0,-1,1196,1590,0,0
-21,-566,0,0,0,0,0,0,0,0,0,-1,1203,1590,0,0
-14,-566,0,0,0,0,0,0,0,0,0,-1,1210,1590,0,0
-7,-566,0,0,0,0,0,0,0,0,0,-1,1217,1590,0,0
0,-566,0,0,0,0,0,0,0,0,0,-1,1224,1590,0,0
7,-566,0,0,0,0,0,0,0,0,0,-1,1231,1590,0,0
14,-566,0,0,0,0,0,0,0,0,0,-1,1238,1590,0,0
21,-566,0,0,0,0,0,0,0,0,0,-1,1245,1590,0,0
28,-566,0,0,0,0,0,0,0,0,0,-1,1252,1590,0,0
35,-566,0,0,0,0,0,0,0,0,0,-1,1259,1590,0,0
42,-566,0,0,0,0,0,0,0,0,0,-1,1266,1590,0,0
49,-566,0,0,0,0,0,0,0,0,0,-1,1273,1590,0,0
56,-566,0,0,0,0,0,0,0,0,0,-1,1280,1590,0,0
63,-566,0,0,0,0,0,0,0,0,0,-1,1287,1590,0,0
70,-566,0,0,0,0,0,0,0,0,0,-1,1294,1590,0,0
77,-566,0,0,0,0,0,0,0,0,0,-1,1301,1590,0,0
84,-566,0,0,0,0,0,0,0,0,0,-1,1308,1590,0,0
91,-566,0,0,0,0,0,0,0,0,0,-1,1315,1590,0,0
98,-566,0,0,0,0,0,0,0,0,0,-1,1322,1590,0,0
105,-566,0,0,0,0,0,0,0,0,0,-1,1329,1590,0,0
112,-566,0,0,0,0,0,0,0,0,0,-1,1336,1590,0,0
119,-566,0,0,0,0,0,0,0,0,0,-1,1343,1590,0,0
126,-566,0,0,0,0,0,0,0,0,0,-1,1350,1590,0,0
133,-566,0,0,0,0,0,0,0,0,0,-1,1357,1590,0,0
140,-566,0,0,0,0,0,0,0,0,0,-1,1364,1590,0,0
147,-566,0,0,0,0,0,0,0,0,0,-1,1371,1590,0,0
154,-566,0,0,0,0,0,0,0,0,0,-1,1378,1590,0,0
161,-566,0,0,0,0,0,0,0,0,0,-1,1385,1590,0,0
168,-566,0,0,0,0,0,0,0,0,0,-1,1392,1590,0,0
175,-566,0,0,0,0,0,0,0,0,0,-1,1399,1590,0,0
182,-566,0,0,0,0,0,0,0,0,0,-1,1406,1590,0,0
189,-566,0,0,0,0,0,0,0,0,0,-1,1413,1590,0,0
196,-566,0,0,0,0,0,0,0,0,0,-1,1420,1590,0,0
203,-566,0,0,0,0,0,0,0,0,0,-1,1427,1590,0,0
210,-566,0,0,0,0,0,0,0,0,0,-1,1434,1590,0,0
217,-566,0,0,0,0,0,0,0,0,0,-1,1441,1590,0,0
224,-566,0,0,0,0,0,0,0,0,0,-1,1448,1590,0,0
231,-566,0,0,0,0,0,0,0,0,0,-1,1455,1590,0,0
238,-566,0,0,0,0,0,0,0,0,0,-1,1462,1590,0,0
245,-566,0,0,0,0,0,0,0,0,0,-1,1469,1590,0,0
252,-566,0,0,0,0,0,0,0,0,0,-1,1476,1590,0,0
259,-566,0,0,0,0,0,0,0,0,0,-1,1483,1590,0,0
266,-566,0,0,0,0,0,0,0,0,0,-1,1490,1590,0,0
273,-566,0,0,0,0,0,0,0,0,0,-1,1497,1590,0,0
280,-566,0,0,0,0,0,0,0,0,0,-1,1504,1590,0,0
287,-566,0,0,0,0,0,0,0,0,0,-1,1511,1590,0,0
294,-566,0,0,0,0,0,0,0,0,0,-1,1518,1590,0,0
301,-566,0,0,0,0,0,0,0,0,0,-1,1525,1590,0,0
308,-566,0,0,0,0,0,0,0,0,0,-1,1532,1590,0,0
315,-566,0,0,0,0,0,0,0,0,0,-1,1539,1590,0,0
322,-566,0.186646,0.500122,0,0,0,0,0,0,0,-1,1546,1590,0.18659,-0.500159
329,-566,-0.138184,1.31824,0,0,0,0,0,0,0,-1,1553,1590,-0.13814,-1.31822
336,-566,0.189453,1.93274,0,0,0,0,0,0,0,-1,1560,1590,0.189474,-1.9327
343,-566,0.535034,2.69592,0,0,0,0,0,0,0,-1,1567,1590,0.535054,-2.6959
350,-566,0.576538,2.82776,0,0,0,0,0,0,0,-1,1574,1590,0.576503,-2.82772
357,-566,0.196777,-0.598022,0,0,0,0,0,0,0,-1,1581,1590,0.196828,0.598009
364,-566,-0.138062,0.928955,0,0,0,0,0,0,0,-1,1588,1590,-0.138118,-0.928951
371,-566,0.333008,0.134399,0,0,0,0,0,0,0,-1,1595,1590,0.333058,-0.134406
378,-566,0.190186,0.271851,0.00541576,0.036113,0.0101054,0.039141,0.00238778,1.27967,0.0253356,0.0492021,1602,1590,0.190139,-0.271896
385,-566,-0.0535889,0.281738,0.00322227,0.0333308,0.00836842,0.0355004,0.00105267,1.31712,0.023324,0.0456142,1609,1590,-0.053611,-0.281776
392,-566,-0.426392,0.0235596,0.000889463,0.0304537,0.0064362,0.0317941,-0.000450941,1.36547,0.021348,0.0439211,1616,1590,-0.426333,-0.0236121
399,-566,-0.305176,0.175659,-0.00112602,0.0256785,0.0048774,0.0265384,-0.00198593,1.39628,0.01839,0.0406106,1623,1590,-0.305217,-0.175657
406,-566,-0.200317,0.392456,-0.00251919,0.0224113,0.00422688,0.0231084,-0.00321635,1.40733,0.016582,0.0448051,1630,1590,-0.200267,-0.392485
413,-566,-0.140503,0.351074,-0.00354906,0.0197269,0.00364293,0.0202838,-0.00410589,1.41912,0.0150786,0.0457011,1637,1590,-0.140548,-0.351089
420,-566,-0.857666,0.549683,-0.00428964,0.0165211,0.00291721,0.0169223,-0.00469083,1.43413,0.0131275,0.0429913,1644,1590,-0.857724,-0.549692
427,-566,0.380981,0.480713,-0.00469292,0.0119829,0.00225591,0.0122827,-0.00499272,1.43868,0.0102657,0.043224,1651,1590,0.380923,-0.480749
434,-566,0.313232,0.265625,-0.00507996,0.00912408,0.00128195,0.00923885,-0.00519473,1.48151,0.00844157,0.0419515,1658,1590,0.313237,-0.265593
441,-566,0.0584717,0.102295,-0.00491907,0.00708588,0.000614958,0.0071173,-0.00495049,1.51975,0.00700468,0.0375211,1665,1590,0.0585153,-0.102268
448,-566,0.015625,0.0626221,-0.00427169,0.00513257,0.000314016,0.00514305,-0.00428216,1.53746,0.00544921,0.0300606,1672,1590,0.015655,-0.0626778
455,-566,-0.0339355,0.0148926,-0.00370096,0.00331269,0.000258492,0.00332221,-0.00371047,1.53401,0.00406238,0.0184333,1679,1590,-0.0339308,-0.0149036
462,-566,-0.020874,0.00964355,-0.00301661,0.00204592,-0.000104,0.00204806,-0.00301874,-1.55026,0.00294316,0.0122034,1686,1590,-0.0208647,-0.00959653
469,-566,-0.0299072,0.0264893,-0.00246624,0.00129299,-0.000430126,0.00134158,-0.00251482,-1.45831,0.00226058,0.0110043,1693,1590,-0.0299155,-0.0265202
476,-566,-0.0356445,0.0406494,-0.00209027,0.00113207,-0.000809832,0.00132415,-0.00228234,-1.33792,0.00210656,0.00925699,1700,1590,-0.0356551,-0.0406026
483,-566,-0.0269775,0.0386963,-0.00112499,0.00086695,-0.000284081,0.000906673,-0.00116471,-1.43187,0.001199,0.00947579,1707,1590,-0.0269478,-0.0386378
490,-566,-0.0227051,0.0316162,0.000145196,0.000660474,8.69682e-05,0.000674757,0.000130914,1.40802,0.000413172,0.00933284,1714,1590,-0.022734,-0.0316198
497,-566,-0.000244141,0.0540771,0.000971333,0.000227131,0.000235751,0.00103973,0.000158735,0.282368,0.000646767,0.012824,1721,1590,-0.000244317,-0.0541306
504,-566,0.00476074,0.0394287,0.00159486,-0.000281666,0.000283592,0.00163678,-0.000323588,0.146761,0.00121351,0.0177269,1728,1590,0.00482013,-0.0393735
511,-566,-0.00952148,0.0352783,0.00176656,-0.000541237,0.000170223,0.00177905,-0.000553726,0.0732319,0.0014074,0.0175004,1735,1590,-0.00957654,-0.0353234
518,-566,-0.0147705,0.0471191,0.00200401,-0.00100383,7.1882e-05,0.00200573,-0.00100554,0.0238801,0.00177024,0.0110836,1742,1590,-0.0147946,-0.0471088
525,-566,-0.0224609,0.00952148,0.00264549,-0.00122661,7.3886e-05,0.0026469,-0.00122802,0.0190724,0.00228664,0.010752,1749,1590,-0.0224092,-0.0095759
532,-566,-0.0162354,0.00512695,0.00313173,-0.00122814,0.000398426,0.00316784,-0.00126425,0.0903873,0.00263637,0.0128592,1756,1590,-0.0162673,-0.00508111
539,-566,-0.0297852,0.0146484,0.00336288,-0.000896255,0.000944436,0.00356291,-0.00109628,0.208712,0.00281283,0.0147541,1763,1590,-0.0297928,-0.0147023
546,-566,-0.0284424,0.00378418,0.00360789,0.000560666,0.0015366,0.00424819,-7.96409e-05,0.394822,0.00285905,0.0123321,1770,1590,-0.0284795,-0.00375302
553,-566,-0.0223389,0.0300293,0.00409885,0.00149217,0.00215537,0.0053143,0.000276718,0.513466,0.00345432,0.0193562,1777,1590,-0.0223731,-0.0300351
560,-566,0.00891113,0.0111084,0.00501746,0.00336572,0.00230394,0.00663908,0.0017441,0.613302,0.00397437,0.0307486,1784,1590,0.00895486,-0.011105
567,-566,0.0166016,-0.0290527,0.00588636,0.00560887,0.00298728,0.00873812,0.00275711,0.762192,0.00515814,0.0415666,1791,1590,0.0165863,0.0290487
574,-566,-0.0604248,-0.0361328,0.00711753,0.00825362,0.00357971,0.0113101,0.00406107,0.864084,0.00661577,0.0435752,1798,1590,-0.0604501,0.0361125
581,-566,-0.215088,0.324829,0.00880259,0.0115496,0.00388573,0.0142974,0.00605476,0.955282,0.00828679,0.0404998,1805,1590,-0.21512,-0.324778
588,-566,-0.365479,0.850342,0.0113091,0.0153475,0.00374694,0.0175847,0.00907196,1.03254,0.0101542,0.0404524,1812,1590,-0.365527,-0.850306
595,-566,-0.343018,1.25781,0.0147152,0.0193314,0.00307217,0.0208659,0.0131807,1.10757,0.0121854,0.0417982,1819,1590,-0.342989,-1.25775
602,-566,-0.380127,1.57227,0.019424,0.0233391,0.00168481,0.0239643,0.0187988,1.21547,0.014563,0.0458098,1826,1590,-0.38007,-1.57224
609,-566,0,0,0,0,0,0,0,0,0,-1,1833,1590,0,0
616,-566,0,0,0,0,0,0,0,0,0,-1,1840,1590,0,0
623,-566,0,0,0,0,0,0,0,0,0,-1,1847,1590,0,0
630,-566,0,0,0,0,0,0,0,0,0,-1,1854,1590,0,0
637,-566,0,0,0,0,0,0,0,0,0,-1,1861,1590,0,0
644,-566,0,0,0,0,0,0,0,0,0,-1,1868,1590,0,0
651,-566,0,0,0,0,0,0,0,0,0,-1,1875,1590,0,0
658,-566,0,0,0,0,0,0,0,0,0,-1,1882,1590,0,0
665,-566,0,0,0,0,0,0,0,0,0,-1,1889,1590,0,0
672,-566,0,0,0,0,0,0,0,0,0,-1,1896,1590,0,0
679,-566,0,0,0,0,0,0,0,0,0,-1,1903,1590,0,0
686,-566,0,0,0,0,0,0,0,0,0,-1,1910,1590,0,0
693,-566,0,0,0,0,0,0,0,0,0,-1,1917,1590,0,0
700,-566,0,0,0,0,0,0,0,0,0,-1,1924,1590,0,0
707,-566,0,0,0,0,0,0,0,0,0,-1,1931,1590,0,0
714,-566,0,0,0,0,0,0,0,0,0,-1,1938,1590,0,0
721,-566,0,0,0,0,0,0,0,0,0,-1,1945,1590,0,0
728,-566,0,0,0,0,0,0,0,0,0,-1,1952,1590,0,0
735,-566,0,0,0,0,0,0,0,0,0,-1,1959,1590,0,0
742,-566,0,0,0,0,0,0,0,0,0,-1,1966,1590,0,0
749,-566,0,0,0,0,0,0,0,0,0,-1,1973,1590,0,0
756,-566,0,0,0,0,0,0,0,0,0,-1,1980,1590,0,0
763,-566,0,0,0,0,0,0,0,0,0,-1,1987,1590,0,0
770,-566,0,0,0,0,0,0,0,0,0,-1,1994,1590,0,0
777,-566,0,0,0,0,0,0,0,0,0,-1,2001,1590,0,0
784,-566,0,0,0,0,0,0,0,0,0,-1,2008,1590,0,0
791,-566,0,0,0,0,0,0,0,0,0,-1,2015,1590,0,0
798,-566,0,0,0,0,0,0,0,0,0,-1,2022,1590,0,0
805,-566,0,0,0,0,0,0,0,0,0,-1,2029,1590,0,0
812,-566,0,0,0,0,0,0,0,0,0,-1,2036,1590,0,0
-700,-573,0,0,0,0,0,0,0,0,0,-1,524,1597,0,0
-693,-573,0,0,0,0,0,0,0,0,0,-1,531,1597,0,0
-686,-573,0,0,0,0,0,0,0,0,0,-1,538,1597,0,0
-679,-573,0,0,0,0,0,0,0,0,0,-1,545,1597,0,0
-672,-573,0,0,0,0,0,0,0,0,0,-1,552,1597,0,0
-665,-573,0,0,0,0,0,0,0,0,0,-1,559,1597,0,0
-658,-573,0,0,0,0,0,0,0,0,0,-1,566,1597,0,0
-651,-573,0,0,0,0,0,0,0,0,0,-1,573,1597,0,0
-644,-573,0,0,0,0,0,0,0,0,0,-1,580,1597,0,0
-637,-573,0,0,0,0,0,0,0,0,0,-1,587,1597,0,0
-630,-573,0,0,0,0,0,0,0,0,0,-1,594,1597,0,0
-623,-573,0,0,0,0,0,0,0,0,0,-1,601,1597,0,0
-616,-573,0,0,0,0,0,0,0,0,0,-1,608,1597,0,0
-609,-573,0,0,0,0,0,0,0,0,0,-1,615,1597,0,0
-602,-573,0,0,0,0,0,0,0,0,0,-1,622,1597,0,0
-595,-573,0,0,0,0,0,0,0,0,0,-1,629,1597,0,0
-588,-573,0,0,0,0,0,0,0,0,0,-1,636,1597,0,0
-581,-573,0,0,0,0,0,0,0,0,0,-1,643,1597,0,0
-574,-573,0,0,0,0,0,0,0,0,0,-1,650,1597,0,0
-567,-573,0,0,0,0,0,0,0,0,0,-1,657,1597,0,0
-560,-573,0,0,0,0,0,0,0,0,0,-1,664,1597,0,0
-553,-573,0,0,0,0,0,0,0,0,0,-1,671,1597,0,0
-546,-573,0,0,0,0,0,0,0,0,0,-1,678,1597,0,0
-539,-573,0,0,0,0,0,0,0,0,0,-1,685,1597,0,0
-532,-573,0,0,0,0,0,0,0,0,0,-1,692,1597,0,0
-525,-573,0,0,0,0,0,0,0,0,0,-1,699,1597,0,0
-518,-573,0,0,0,0,0,0,0,0,0,-1,706,1597,0,0
-511,-573,0,0,0,0,0,0,0,0,0,-1,713,1597,0,0
-504,-573,0,0,0,0,0,0,0,0,0,-1,720,1597,0,0
-497,-573,0,0,0,0,0,0,0,0,0,-1,727,1597,0,0
-490,-573,0,0,0,0,0,0,0,0,0,-1,734,1597,0,0
-483,-573,0,0,0,0,0,0,0,0,0,-1,741,1597,0,0
-476,-573,2.88556,-1.89343,0.0147398,0.0210874,0.0146599,0.0329131,0.00291415,0.892,0.0210381,0.0447528,748,1597,2.88555,1.89344
-469,-573,3.28204,-1.64441,0.00895161,0.0176168,0.0154418,0.0293223,-0.00275394,0.922169,0.0205279,0.0450541,755,1597,3.28206,1.64435
-462,-573,0.501282,-0.873779,0,0,0,0,0,0,0,-1,762,1597,0.501289,0.87383
-455,-573,-0.0791016,-0.421631,0.00383719,0.0102917,0.0131757,0.0206296,-0.00650075,0.905503,0.0163564,0.0448974,769,1597,-0.0791128,0.421647
-448,-573,0.284546,-0.530151,0.00276025,0.00746897,0.0105501,0.0159242,-0.00569501,0.895179,0.0129392,0.0458069,776,1597,0.284552,0.53021
-441,-573,0.377136,-0.304199,0.00273568,0.00490561,0.00790272,0.0117975,-0.00415621,0.853617,0.00955657,0.0442068,783,1597,0.377108,0.30418
-434,-573,0.244568,-0.391235,0.00295595,0.00300546,0.00554231,0.00852307,-0.00256166,0.787631,0.00670118,0.043453,790,1597,0.244597,0.391249
-427,-573,-0.0222168,-0.173828,0.00290054,0.00124216,0.00413703,0.00629066,-0.00214796,0.686493,0.00506395,0.0398587,797,1597,-0.0221898,0.173882
-420,-573,-0.0665894,0.0838623,0.00275973,-0.000485113,0.00309785,0.0046343,-0.00235968,0.544175,0.00410854,0.0360225,804,1597,-0.0665804,-0.0838145
-413,-573,-0.0516968,0.0324707,0.00307693,-0.000847996,0.000675775,0.00319002,-0.000961089,0.165816,0.00250917,0.0253295,811,1597,-0.0516879,-0.0324531
-406,-573,-0.00970459,0.00854492,0.00365224,-0.00136452,-0.000190552,0.00365946,-0.00137175,-0.0379103,0.0030032,0.012441,818,1597,-0.00969524,-0.00858434
-399,-573,-0.0180054,0.0222168,0.00345733,-0.0015219,-0.000267307,0.00347164,-0.00153621,-0.0534795,0.00296239,0.00958266,825,1597,-0.0179806,-0.0222745
-392,-573,-0.0299683,0.0280762,0.00257691,-0.00147171,-0.000444,0.00262503,-0.00151983,-0.107957,0.00242123,0.0101013,832,1597,-0.0299784,-0.0281269
-385,-573,-0.0357056,0.0333252,0.00217749,-0.00136494,-0.000331749,0.00220829,-0.00139574,-0.0925776,0.00209834,0.0124737,839,1597,-0.035685,-0.0333297
-378,-573,-0.0611572,0.0461426,0.00186668,-0.00103829,-9.41066e-05,0.00186972,-0.00104133,-0.0323499,0.00170323,0.0140041,846,1597,-0.0611712,-0.0461262
-371,-573,-0.0479126,0.0383301,0.00156515,-0.000563517,0.000146633,0.0015752,-0.00057357,0.0684541,0.00128474,0.0142711,853,1597,-0.047904,-0.0382826
-364,-573,-0.00622559,0.0245361,0.00121948,-0.00011931,0.000500798,0.00138608,-0.00028591,0.321153,0.00103264,0.0161725,860,1597,-0.00620946,-0.0244838
-357,-573,-0.0108643,0.0340576,0.00105216,0.00047682,0.000724048,0.00154359,-1.46128e-05,0.596308,0.00103396,0.0193007,867,1597,-0.0108463,-0.0340377
-350,-573,0.0216064,0.0307617,0.00133186,0.00135785,0.000896855,0.0022418,0.000447906,0.792644,0.00136986,0.0154765,874,1597,0.0216327,-0.0308079
-343,-573,0.0233765,0.0147705,0.00213761,0.00249222,0.00109165,0.00342087,0.00120896,0.865905,0.00200313,0.0200749,881,1597,0.0234034,-0.0147971
-336,-573,-0.0137329,0.0255127,0.00317461,0.00343515,0.00112951,0.00444188,0.00216789,0.842812,0.00256476,0.0160068,888,1597,-0.0137089,-0.0255586
-329,-573,-0.015625,0.0410156,0.00427775,0.00455361,0.00112696,0.00555106,0.00328031,0.846291,0.00322252,0.0147198,895,1597,-0.0156363,-0.0409571
-322,-573,-0.00421143,0.0410156,0.00539173,0.00567495,0.00119158,0.00673331,0.00433337,0.844542,0.00394054,0.0109487,902,1597,-0.00424021,-0.0410563
-315,-573,-0.00268555,0.0354004,0.00636799,0.00631019,0.00131323,0.00765264,0.00502555,0.774397,0.00449,0.0139376,909,1597,-0.00266403,-0.0353921
-308,-573,0,0.000854492,0.00596362,0.00647725,0.00183111,0.00806947,0.00437141,0.85507,0.00466431,0.0207244,916,1597,2.14822e-05,-0.000841061
-301,-573,-0.0143433,0.00805664,0.00554228,0.00645846,0.00229309,0.00833877,0.00366197,0.883985,0.00482626,0.0244736,923,1597,-0.0143274,-0.00809722
-294,-573,0.00860596,-0.0163574,0.0032945,0.00789059,0.0020019,0.00864027,0.00254482,1.21248,0.00512694,0.0297575,930,1597,0.00857995,0.0163322
-287,-573,0.286438,-0.271484,0.000375308,0.00928662,0.00159625,0.00956392,9.80063e-05,1.39879,0.00634353,0.0395254,937,1597,0.286418,0.271499
-280,-573,0.435669,-0.280273,-0.00105219,0.0106519,0.000315249,0.0106604,-0.00106068,1.54389,0.00748556,0.0469234,944,1597,0.435694,0.280259
-273,-573,0.638245,-0.378784,-0.000550275,0.0120397,-0.000968892,0.0121139,-0.000624401,-1.49444,0.00829189,0.0469566,951,1597,0.638269,0.378838
-266,-573,0.531494,-0.412964,-0.00105652,0.0133982,-0.00204372,0.0136816,-0.00133992,-1.43301,0.00959893,0.0441083,958,1597,0.531464,0.412991
-259,-573,0.460632,-0.514893,-0.00111976,0.0156047,-0.0038575,0.0164516,-0.00196661,-1.35469,0.0116786,0.0455167,965,1597,0.460608,0.514835
-252,-573,0.712036,-0.651367,-0.000240516,0.017777,-0.00602464,0.0196058,-0.00206938,-1.27607,0.0138121,0.0490397,972,1597,0.712033,0.651341
-245,-573,0.362976,-0.0944824,0.00262336,0.0204343,-0.00919293,0.024328,-0.00127028,-1.17016,0.0166582,0.048385,979,1597,0.362946,0.0945092
-238,-573,-0.0585327,0.155151,0.00781556,0.0234818,-0.012637,0.0305165,0.000780901,-1.06284,0.0200891,0.0476115,986,1597,-0.0585351,-0.155121
-231,-573,-1.32159,0.43811,0.017125,0.0271733,-0.0145814,0.0375718,0.00672646,-0.951308,0.023134,0.0469829,993,1597,-1.32158,-0.438169
-224,-573,-0.439941,0.00585938,0.0312053,0.0340424,-0.0161528,0.0488388,0.0164089,-0.829196,0.0286984,0.0453123,1000,1597,-0.439931,-0.00581516
-217,-573,0.221802,0.10376,0.0461522,0.0410258,-0.0173059,0.0610837,0.0260943,-0.711877,0.0353911,0.0441774,1007,1597,0.221799,-0.103781
-210,-573,0.0549927,0.529297,0,0,0,0,0,0,0,-1,1014,1597,0.0550183,-0.529299
-203,-573,-0.492065,0.749634,0,0,0,0,0,0,0,-1,1021,1597,-0.49209,-0.749693
-196,-573,-1.12708,0.93103,0,0,0,0,0,0,0,-1,1028,1597,-1.12707,-0.93097
-189,-573,-1.99902,1.25427,0,0,0,0,0,0,0,-1,1035,1597,-1.99898,-1.25428
-182,-573,0,0,0,0,0,0,0,0,0,-1,1042,1597,0,0
-175,-573,0,0,0,0,0,0,0,0,0,-1,1049,1597,0,0
-168,-573,0,0,0,0,0,0,0,0,0,-1,1056,1597,0,0
-161,-573,0,0,0,0,0,0,0,0,0,-1,1063,1597,0,0
-154,-573,0,0,0,0,0,0,0,0,0,-1,1070,1597,0,0
-147,-573,0,0,0,0,0,0,0,0,0,-1,1077,1597,0,0
-140,-573,0,0,0,0,0,0,0,0,0,-1,1084,1597,0,0
-133,-573,0,0,0,0,0,0,0,0,0,-1,1091,1597,0,0
-126,-573,0,0,0,0,0,0,0,0,0,-1,1098,1597,0,0
-119,-573,0,0,0,0,0,0,0,0,0,-1,1105,1597,0,0
-112,-573,0,0,0,0,0,0,0,0,0,-1,1112,1597,0,0
-105,-573,0,0,0,0,0,0,0,0,0,-1,1119,1597,0,0
-98,-573,0,0,0,0,0,0,0,0,0,-1,1126,1597,0,0
-91,-573,0,0,0,0,0,0,0,0,0,-1,1133,1597,0,0
-84,-573,0,0,0,0,0,0,0,0,0,-1,1140,1597,0,0
-77,-573,0,0,0,0,0,0,0,0,0,-1,1147,1597,0,0
-70,-573,0,0,0,0,0,0,0,0,0,-1,1154,1597,0,0
-63,-573,0,0,0,0,0,0,0,0,0,-1,1161,1597,0,0
-56,-573,0,0,0,0,0,0,0,0,0,-1,1168,1597,0,0
-49,-573,0,0,0,0,0,0,0,0,0,-1,1175,1597,0,0
-42,-573,0,0,0,0,0,0,0,0,0,-1,1182,1597,0,0
-35,-573,0,0,0,0,0,0,0,0,0,-1,1189,1597,0,0
-28,-573,0,0,0,0,0,0,0,0,0,-1,1196,1597,0,0
-21,-573,0,0,0,0,0,0,0,0,0,-1,1203,1597,0,0
-14,-573,0,0,0,0,0,0,0,0,0,-1,1210,1597,0,0
-7,-573,0,0,0,0,0,0,0,0,0,-1,1217,1597,0,0
0,-573,0,0,0,0,0,0,0,0,0,-1,1224,1597,0,0
7,-573,0,0,0,0,0,0,0,0,0,-1,1231,1597,0,0
14,-573,0,0,0,0,0,0,0,0,0,-1,1238,1597,0,0
21,-573,0,0,0,0,0,0,0,0,0,-1,1245,1597,0,0
28,-573,0,0,0,0,0,0,0,0,0,-1,1252,1597,0,0
35,-573,0,0,0,0,0,0,0,0,0,-1,1259,1597,0,0
42,-573,0,0,0,0,0,0,0,0,0,-1,1266,1597,0,0
49,-573,0,0,0,0,0,0,0,0,0,-1,1273,1597,0,0
56,-573,0,0,0,0,0,0,0,0,0,-1,1280,1597,0,0
63,-573,0,0,0,0,0,0,0,0,0,-1,1287,1597,0,0
70,-573,0,0,0,0,0,0,0,0,0,-1,1294,1597,0,0
77,-573,0,0,0,0,0,0,0,0,0,-1,1301,1597,0,0
84,-573,0,0,0,0,0,0,0,0,0,-1,1308,1597,0,0
91,-573,0,0,0,0,0,0,0,0,0,-1,1315,1597,0,0
98,-573,0,0,0,0,0,0,0,0,0,-1,1322,1597,0,0
105,-573,0,0,0,0,0,0,0,0,0,-1,1329,1597,0,0
112,-573,0,0,0,0,0,0,0,0,0,-1,1336,1597,0,0
119,-573,0,0,0,0,0,0,0,0,0,-1,1343,1597,0,0
126,-573,0,0,0,0,0,0,0,0,0,-1,1350,1597,0,0
133,-573,0,0,0,0,0,0,0,0,0,-1,1357,1597,0,0
140,-573,0,0,0,0,0,0,0,0,0,-1,1364,1597,0,0
147,-573,0,0,0,0,0,0,0,0,0,-1,1371,1597,0,0
154,-573,0,0,0,0,0,0,0,0,0,-1,1378,1597,0,0
161,-573,0,0,0,0,0,0,0,0,0,-1,1385,1597,0,0
168,-573,0,0,0,0,0,0,0,0,0,-1,1392,1597,0,0
175,-573,0,0,0,0,0,0,0,0,0,-1,1399,1597,0,0
182,-573,0,0,0,0,0,0,0,0,0,-1,1406,1597,0,0
189,-573,0,0,0,0,0,0,0,0,0,-1,1413,1597,0,0
196,-573,0,0,0,0,0,0,0,0,0,-1,1420,1597,0,0
203,-573,0,0,0,0,0,0,0,0,0,-1,1427,1597,0,0
210,-573,0,0,0,0,0,0,0,0,0,-1,1434,1597,0,0
217,-573,0,0,0,0,0,0,0,0,0,-1,1441,1597,0,0
224,-573,0,0,0,0,0,0,0,0,0,-1,1448,1597,0,0
231,-573,0,0,0,0,0,0,0,0,0,-1,1455,1597,0,0
238,-573,0,0,0,0,0,0,0,0,0,-1,1462,1597,0,0
245,-573,0,0,0,0,0,0,0,0,0,-1,1469,1597,0,0
252,-573,0,0,0,0,0,0,0,0,0,-1,1476,1597,0,0
259,-573,0,0,0,0,0,0,0,0,0,-1,1483,1597,0,0
266,-573,0,0,0,0,0,0,0,0,0,-1,1490,1597,0,0
273,-573,0,0,0,0,0,0,0,0,0,-1,1497,1597,0,0
280,-573,0,0,0,0,0,0,0,0,0,-1,1504,1597,0,0
287,-573,0,0,0,0,0,0,0,0,0,-1,1511,1597,0,0
294,-573,0,0,0,0,0,0,0,0,0,-1,1518,1597,0,0
301,-573,0,0,0,0,0,0,0,0,0,-1,1525,1597,0,0
308,-573,0.0947266,-0.548462,0,0,0,0,0,0,0,-1,1532,1597,0.0947795,0.548409
315,-573,0.250854,-0.255615,0.0139981,0.00835419,0.0316543,0.042956,-0.0206037,0.740941,0.037445,0.0429336,1539,1597,0.250856,0.255616
322,-573,0.12207,0.342773,0.0141588,0.0189884,0.0313704,0.0480368,-0.0148896,0.823811,0.0379736,0.0413375,1546,1597,0.122032,-0.342737
329,-573,-0.0671387,1.26794,0,0,0,0,0,0,0,-1,1553,1597,-0.0671251,-1.26798
336,-573,0.164429,1.83398,0.0133336,0.0285266,0.0247162,0.0467873,-0.00492711,0.93449,0.0329569,0.0487227,1560,1597,0.164469,-1.83402
343,-573,0.518677,2.75415,0.013142,0.0316632,0.0227131,0.046931,-0.00212585,0.97897,0.0320195,0.0493281,1567,1597,0.518683,-2.7542
350,-573,0.898071,3.59534,0,0,0,0,0,0,0,-1,1574,1597,0.898043,-3.59536
357,-573,0.288574,-0.371338,0,0,0,0,0,0,0,-1,1581,1597,0.288563,0.371372
364,-573,0.277466,-0.313354,0,0,0,0,0,0,0,-1,1588,1597,0.277523,0.313343
371,-573,0.224609,-0.366455,0.00470414,0.0356142,0.0111716,0.0392292,0.00108923,1.25785,0.0257974,0.0434471,1595,1597,0.22465,0.366413
378,-573,0.225708,-0.288818,0.00283649,0.0345154,0.00931017,0.037049,0.000302939,1.3051,0.024599,0.0462888,1602,1597,0.225733,0.288774
385,-573,0.143188,-0.177002,0.00101402,0.0312385,0.00782696,0.0331451,-0.000892587,1.33186,0.0224002,0.0440394,1609,1597,0.143157,0.177032
392,-573,0.147461,-0.344849,-0.000939682,0.0279072,0.0061349,0.0291577,-0.00219019,1.36972,0.0202081,0.0437671,1616,1597,0.147467,0.344791
399,-573,0.121826,-0.317749,-0.00259989,0.0228785,0.00477403,0.0237437,-0.00346505,1.39152,0.0171016,0.0427623,1623,1597,0.121885,0.317753
406,-573,-0.191406,-0.202637,-0.00371194,0.0197086,0.00434375,0.0204883,-0.00449161,1.3932,0.0153763,0.0436872,1630,1597,-0.191459,0.202674
413,-573,-0.160278,-0.0910645,-0.00456841,0.0172435,0.00403069,0.0179645,-0.00528942,1.39379,0.0140748,0.0450973,1637,1597,-0.160251,0.0910842
420,-573,-1.86694,0.612061,0,0,0,0,0,0,0,-1,1644,1597,-1.86689,-0.612052
427,-573,0.342529,0.268188,-0.00508292,0.00987459,0.00303166,0.0104657,-0.00567403,1.37823,0.00945417,0.0403427,1651,1597,0.342574,-0.268167
434,-573,0.171875,0.252319,-0.00516751,0.00712493,0.00216853,0.00749627,-0.00553885,1.4012,0.00755406,0.0319511,1658,1597,0.171913,-0.252362
441,-573,0.0253906,0.0932617,-0.00482015,0.00533152,0.00155257,0.00556366,-0.00505229,1.42238,0.00613149,0.0212267,1665,1597,0.0253671,-0.0932135
448,-573,-0.0118408,0.0357666,-0.004079,0.00366874,0.00128279,0.00387561,-0.00428587,1.41091,0.00471402,0.0135863,1672,1597,-0.0118897,-0.0358131
455,-573,-0.0057373,0.0344238,-0.00343991,0.0021764,0.00116603,0.00240887,-0.00367237,1.37401,0.00353618,0.0133216,1679,1597,-0.0057894,-0.0344751
462,-573,-0.00134277,0.0415039,-0.00266802,0.00116162,0.000711003,0.00128937,-0.00279576,1.39303,0.00241141,0.0171836,1686,1597,-0.00128611,-0.0415066
469,-573,-0.00268555,0.0430908,-0.00207082,0.000728612,0.00028006,0.000756355,-0.00209856,1.47206,0.00170793,0.0132071,1693,1597,-0.00268629,-0.043139
476,-573,-0.010498,0.0462646,-0.00166695,0.000681298,-0.000230382,0.000703687,-0.00168933,-1.47392,0.00142014,0.0119812,1700,1597,-0.0105286,-0.0462534
483,-573,-0.0220947,0.0439453,-0.000829379,0.000593702,6.34383e-05,0.000596524,-0.000832201,1.52634,0.000828608,0.0101986,1707,1597,-0.0220992,-0.0439812
490,-573,-0.0223389,0.0325928,0.000377078,0.000589361,0.000352706,0.00085155,0.000114889,0.931555,0.000533543,0.00886765,1714,1597,-0.0223219,-0.0326313
497,-573,-0.0125732,0.0338135,0.00134099,0.000372063,0.000412449,0.00149278,0.000220273,0.352639,0.000930494,0.013849,1721,1597,-0.0126224,-0.0337865
504,-573,-0.000244141,0.0126953,0.00214093,-2.41958e-05,0.000410788,0.00221625,-9.9514e-05,0.181337,0.00151176,0.0156457,1728,1597,-0.000189281,-0.012687
511,-573,-0.00012207,0.0065918,0.00264561,-0.000194344,0.000276666,0.00267231,-0.000221046,0.0962138,0.00185961,0.0163664,1735,1597,-0.000137968,-0.0065746
518,-573,-0.00964355,0.0216064,0.00324964,-0.000630096,0.000168417,0.00325694,-0.000637393,0.0433008,0.002412,0.0128889,1742,1597,-0.00959633,-0.0215682
525,-573,-0.00280762,0.0183105,0.00418024,-0.00084889,0.000175935,0.00418638,-0.000855037,0.0349262,0.0031153,0.0155971,1749,1597,-0.00280323,-0.0182709
532,-573,-0.00549316,0.0426025,0.00495777,-0.000813075,0.00047067,0.00499591,-0.000851211,0.080848,0.0036476,0.0147893,1756,1597,-0.0054709,-0.0425422
539,-573,0.00854492,0.0489502,0.00552975,-0.000369846,0.000982298,0.00568901,-0.000529102,0.160728,0.00398078,0.0145943,1763,1597,0.0085792,-0.0490074
546,-573,0.0274658,0.0496826,0.0061153,0.0012391,0.00155421,0.00656855,0.000785852,0.283758,0.004142,0.0203883,1770,1597,0.0274741,-0.0496424
553,-573,0.0430908,0.0192871,0.0069418,0.00243302,0.00214545,0.00779952,0.0015753,0.380321,0.00476224,0.0351382,1777,1597,0.0430401,-0.019248
560,-573,0.0411377,-0.0426025,0.00818429,0.00469025,0.00221818,0.00926082,0.00361373,0.451834,0.00538952,0.0437084,1784,1597,0.0411418,0.0426552
567,-573,0.0301514,-0.0812988,0.0092798,0.0075217,0.00285922,0.011392,0.00540945,0.636262,0.00657998,0.0473228,1791,1597,0.0301079,0.0813524
574,-573,-0.000732422,-0.425171,0.0107784,0.0108747,0.00341775,0.0142446,0.00740846,0.79244,0.00822636,0.0441954,1798,1597,-0.000700872,0.425148
581,-573,-0.215454,0.0429688,0.0128329,0.0152236,0.00353102,0.0177561,0.0103004,0.948606,0.0102952,0.0433643,1805,1597,-0.215495,-0.0429403
588,-573,-0.208008,0.356934,0.0156821,0.0203986,0.00310699,0.0219409,0.0141397,1.11002,0.0128426,0.0452531,1812,1597,-0.207987,-0.356936
595,-573,-0.238403,0.562012,0.0194741,0.0260176,0.00209707,0.026632,0.0188597,1.2858,0.0158139,0.0459656,1819,1597,-0.23838,-0.562063
602,-573,0,0,0,0,0,0,0,0,0,-1,1826,1597,0,0
609,-573,0,0,0,0,0,0,0,0,0,-1,1833,1597,0,0
616,-573,0,0,0,0,0,0,0,0,0,-1,1840,1597,0,0
623,-573,0,0,0,0,0,0,0,0,0,-1,1847,1597,0,0
630,-573,0,0,0,0,0,0,0,0,0,-1,1854,1597,0,0
637,-573,0,0,0,0,0,0,0,0,0,-1,1861,1597,0,0
644,-573,0,0,0,0,0,0,0,0,0,-1,1868,1597,0,0
651,-573,0,0,0,0,0,0,0,0,0,-1,1875,1597,0,0
658,-573,0,0,0,0,0,0,0,0,0,-1,1882,1597,0,0
665,-573,0,0,0,0,0,0,0,0,0,-1,1889,1597,0,0
672,-573,0,0,0,0,0,0,0,0,0,-1,1896,1597,0,0
679,-573,0,0,0,0,0,0,0,0,0,-1,1903,1597,0,0
686,-573,0,0,0,0,0,0,0,0,0,-1,1910,1597,0,0
693,-573,0,0,0,0,0,0,0,0,0,-1,1917,1597,0,0
700,-573,0,0,0,0,0,0,0,0,0,-1,1924,1597,0,0
707,-573,0,0,0,0,0,0,0,0,0,-1,1931,1597,0,0
714,-573,0,0,0,0,0,0,0,0,0,-1,1938,1597,0,0
721,-573,0,0,0,0,0,0,0,0,0,-1,1945,1597,0,0
728,-573,0,0,0,0,0,0,0,0,0,-1,1952,1597,0,0
735,-573,0,0,0,0,0,0,0,0,0,-1,1959,1597,0,0
742,-573,0,0,0,0,0,0,0,0,0,-1,1966,1597,0,0
749,-573,0,0,0,0,0,0,0,0,0,-1,1973,1597,0,0
756,-573,0,0,0,0,0,0,0,0,0,-1,1980,1597,0,0
763,-573,0,0,0,0,0,0,0,0,0,-1,1987,1597,0,0
770,-573,0,0,0,0,0,0,0,0,0,-1,1994,1597,0,0
777,-573,0,0,0,0,0,0,0,0,0,-1,2001,1597,0,0
784,-573,0,0,0,0,0,0,0,0,0,-1,2008,1597,0,0
791,-573,0,0,0,0,0,0,0,0,0,-1,2015,1597,0,0
798,-573,0,0,0,0,0,0,0,0,0,-1,2022,1597,0,0
805,-573,0,0,0,0,0,0,0,0,0,-1,2029,1597,0,0
812,-573,0,0,0,0,0,0,0,0,0,-1,2036,1597,0,0
-700,-580,0,0,0,0,0,0,0,0,0,-1,524,1604,0,0
-693,-580,0,0,0,0,0,0,0,0,0,-1,531,1604,0,0
-686,-580,0,0,0,0,0,0,0,0,0,-1,538,1604,0,0
-679,-580,0,0,0,0,0,0,0,0,0,-1,545,1604,0,0
-672,-580,0,0,0,0,0,0,0,0,0,-1,552,1604,0,0
-665,-580,0,0,0,0,0,0,0,0,0,-1,559,1604,0,0
-658,-580,0,0,0,0,0,0,0,0,0,-1,566,1604,0,0
-651,-580,0,0,0,0,0,0,0,0,0,-1,573,1604,0,0
-644,-580,0,0,0,0,0,0,0,0,0,-1,580,1604,0,0
-637,-580,0,0,0,0,0,0,0,0,0,-1,587,1604,0,0
-630,-580,0,0,0,0,0,0,0,0,0,-1,594,1604,0,0
-623,-580,0,0,0,0,0,0,0,0,0,-1,601,1604,0,0
-616,-580,0,0,0,0,0,0,0,0,0,-1,608,1604,0,0
-609,-580,0,0,0,0,0,0,0,0,0,-1,615,1604,0,0
-602,-580,0,0,0,0,0,0,0,0,0,-1,622,1604,0,0
-595,-580,0,0,0,0,0,0,0,0,0,-1,629,1604,0,0
-588,-580,0,0,0,0,0,0,0,0,0,-1,636,1604,0,0
-581,-580,0,0,0,0,0,0,0,0,0,-1,643,1604,0,0
-574,-580,0,0,0,0,0,0,0,0,0,-1,650,1604,0,0
-567,-580,0,0,0,0,0,0,0,0,0,-1,657,1604,0,0
-560,-580,0,0,0,0,0,0,0,0,0,-1,664,1604,0,0
-553,-580,0,0,0,0,0,0,0,0,0,-1,671,1604,0,0
-546,-580,0,0,0,0,0,0,0,0,0,-1,678,1604,0,0
-539,-580,0,0,0,0,0,0,0,0,0,-1,685,1604,0,0
-532,-580,0,0,0,0,0,0,0,0,0,-1,692,1604,0,0
-525,-580,0,0,0,0,0,0,0,0,0,-1,699,1604,0,0
-518,-580,0,0,0,0,0,0,0,0,0,-1,706,1604,0,0
-511,-580,0,0,0,0,0,0,0,0,0,-1,713,1604,0,0
-504,-580,0,0,0,0,0,0,0,0,0,-1,720,1604,0,0
-497,-580,0,0,0,0,0,0,0,0,0,-1,727,1604,0,0
-490,-580,0,0,0,0,0,0,0,0,0,-1,734,1604,0,0
-483,-580,0,0,0,0,0,0,0,0,0,-1,741,1604,0,0
-476,-580,0,0,0,0,0,0,0,0,0,-1,748,1604,0,0
-469,-580,0.396973,-0.749512,0.0127462,0.0139726,0.0215226,0.0348908,-0.00817193,0.79964,0.0264093,0.0454305,755,1604,0.39699,0.749478
-462,-580,0.233276,-0.698364,0.00945909,0.0109875,0.0185666,0.0288056,-0.00835901,0.805966,0.0225134,0.0456928,762,1604,0.233306,0.698312
-455,-580,0.138428,-0.670044,0.00738186,0.00802562,0.015596,0.023303,-0.00789556,0.795716,0.0187304,0.0461583,769,1604,0.138412,0.670085
-448,-580,0.317993,-0.512939,0.00636873,0.00574038,0.0117975,0.0178563,-0.00574714,0.772086,0.0142126,0.0465474,776,1604,0.317968,0.512923
-441,-580,0.369263,-0.148193,0.00618138,0.00374312,0.00827875,0.0133303,-0.00340578,0.712293,0.0102132,0.0459278,783,1604,0.369251,0.148197
-434,-580,0.314453,-0.0568848,0.00612728,0.00206495,0.00550019,0.00995937,-0.00176714,0.608521,0.00730027,0.0427827,790,1604,0.314462,0.0568955
-427,-580,0.245605,-0.0290527,0.00579982,0.000347102,0.0039595,0.00788081,-0.00173389,0.483894,0.00591714,0.0411106,797,1604,0.245585,0.0291033
-420,-580,-0.0640869,0.103882,0.00537041,-0.00124169,0.00279416,0.00639303,-0.0022643,0.350841,0.00518432,0.040123,804,1604,-0.0640868,-0.103901
-413,-580,-0.209656,-0.000610352,0.00537051,-0.00143602,0.000174592,0.00537499,-0.0014405,0.0256282,0.00414773,0.0408976,811,1604,-0.209673,0.000625343
-406,-580,-0.0157471,0.00500488,0.00557598,-0.00184257,-0.000577701,0.00562069,-0.00188729,-0.0772519,0.00450984,0.0334675,818,1604,-0.0157381,-0.00499707
-399,-580,-0.000854492,0.0307617,0.00495617,-0.00194522,-0.000529681,0.00499658,-0.00198564,-0.0761554,0.00415425,0.0143343,825,1604,-0.000868988,-0.0307685
-392,-580,-0.00469971,0.0296631,0.00369055,-0.00184772,-0.000545309,0.00374373,-0.0019009,-0.0972182,0.00331631,0.0104168,832,1604,-0.00472683,-0.02963
-385,-580,-0.0129395,0.0313721,0.00290486,-0.00168856,-0.000336692,0.00292941,-0.00171311,-0.0727803,0.00271085,0.0109948,839,1604,-0.0129649,-0.0313827
-378,-580,-0.027771,0.0389404,0.00224962,-0.00136849,-8.91372e-05,0.00225182,-0.00137068,-0.0246165,0.00211197,0.0135643,846,1604,-0.0277989,-0.038982
-371,-580,-0.0228271,0.0429688,0.00166182,-0.000901137,0.000133269,0.00166873,-0.000908049,0.0518121,0.00150916,0.0124054,853,1604,-0.0228031,-0.0430228
-364,-580,-0.00952148,0.0477295,0.00100212,-0.000453312,0.000425059,0.00111717,-0.000568357,0.264323,0.000990183,0.0175681,860,1604,-0.00950824,-0.0477457
-357,-580,-0.0124512,0.0256348,0.000459136,3.66151e-06,0.000574059,0.000848981,-0.000386183,0.596563,0.000729617,0.0128874,867,1604,-0.0124409,-0.0256294
-350,-580,0.00860596,0.036377,0.000424316,0.000657759,0.000640902,0.00119248,-0.000110407,0.875471,0.000834229,0.0105281,874,1604,0.00859248,-0.0364347
-343,-580,0.010498,0.0198975,0.000990023,0.00148014,0.000735858,0.00201067,0.000459491,0.946134,0.00121656,0.0108047,881,1604,0.0104755,-0.0198996
-336,-580,-0.00488281,0.00769043,0.0018467,0.00211774,0.000672181,0.00266792,0.00129651,0.884872,0.00154053,0.0172752,888,1604,-0.0048739,-0.00773816
-329,-580,-0.0134888,0.0233154,0.00279353,0.00289362,0.000539416,0.00338531,0.00230184,0.831654,0.00199626,0.0151018,895,1604,-0.0134959,-0.0233704
-322,-580,-0.0220947,0.010498,0.00369982,0.00368599,0.000499047,0.004192,0.00319381,0.778469,0.00252849,0.016457,902,1604,-0.0220927,-0.0105444
-315,-580,-0.0274048,0.0476074,0.00445443,0.00394618,0.000623332,0.00487345,0.00352716,0.59184,0.00290608,0.0127338,909,1604,-0.0274026,-0.0476179
-308,-580,-0.0321045,0.0395508,0.00420318,0.00382075,0.00104679,0.00507607,0.00294785,0.695058,0.00294338,0.0130542,916,1604,-0.0321214,-0.0395338
-301,-580,-0.0119629,0.0216064,0.00386489,0.0035106,0.00147806,0.00517638,0.00219911,0.725757,0.00299982,0.0120061,923,1604,-0.0119698,-0.0216386
-294,-580,0.00683594,-0.00476074,0.00203472,0.00433753,0.0013978,0.00499709,0.00137517,1.12992,0.00298069,0.0175777,930,1604,0.00684616,0.00481252
-287,-580,0.224426,-0.0812988,-0.000314174,0.00526332,0.00116734,0.00549778,-0.000548636,1.37258,0.00386108,0.0352509,937,1604,0.224406,0.0813551
-280,-580,0.363586,-0.208252,-0.00150232,0.00611748,0.00020373,0.00612292,-0.00150777,1.54408,0.00466645,0.0397558,944,1604,0.363574,0.208199
-273,-580,0.396179,-0.282837,-0.00117429,0.00713449,-0.000674891,0.00718895,-0.00122875,-1.49027,0.00525037,0.042547,951,1604,0.396159,0.282793
-266,-580,0.458435,-0.402954,-0.00167059,0.00818885,-0.00140747,0.00838583,-0.00186758,-1.43174,0.00630595,0.0436445,958,1604,0.458442,0.40299
-259,-580,0.460388,-0.563232,-0.0018423,0.00999581,-0.00273639,0.0105977,-0.00244422,-1.35428,0.00800525,0.0427088,965,1604,0.460405,0.5632
-252,-580,0.555603,-0.800415,-0.00135713,0.0117331,-0.00436463,0.0130549,-0.00267893,-1.27673,0.00972009,0.0468043,972,1604,0.555581,0.800471
-245,-580,0.637573,-1.02063,0,0,0,0,0,0,0,-1,979,1604,0.637593,1.02065
-238,-580,-0.410767,0.235107,0,0,0,0,0,0,0,-1,986,1604,-0.410758,-0.235167
-231,-580,-0.296204,0.236938,0.0112032,0.0198425,-0.0113002,0.0276205,0.00342514,-0.96796,0.0173848,0.048499,993,1604,-0.296177,-0.23699
-224,-580,-0.0296631,0.0909424,0.0222764,0.0262352,-0.012643,0.0370528,0.0114588,-0.863049,0.0219052,0.0410435,1000,1604,-0.0296514,-0.0909096
-217,-580,0.198364,0.369995,0.0337075,0.0326927,-0.0137544,0.0469638,0.0194363,-0.766962,0.0272484,0.0423571,1007,1604,0.198361,-0.369988
-210,-580,0.291931,0.993896,0,0,0,0,0,0,0,-1,1014,1604,0.291934,-0.993865
-203,-580,-0.491333,1.39526,0,0,0,0,0,0,0,-1,1021,1604,-0.491331,-1.39523
-196,-580,-1.06006,1.62756,0,0,0,0,0,0,0,-1,1028,1604,-1.06007,-1.62758
-189,-580,-1.75964,1.51331,0,0,0,0,0,0,0,-1,1035,1604,-1.75959,-1.51335
-182,-580,-2.46436,1.3866,0,0,0,0,0,0,0,-1,1042,1604,-2.4643,-1.38659
-175,-580,-3.25684,3.27466,0,0,0,0,0,0,0,-1,1049,1604,-3.2568,-3.27471
-168,-580,0,0,0,0,0,0,0,0,0,-1,1056,1604,0,0
-161,-580,0,0,0,0,0,0,0,0,0,-1,1063,1604,0,0
-154,-580,0,0,0,0,0,0,0,0,0,-1,1070,1604,0,0
-147,-580,0,0,0,0,0,0,0,0,0,-1,1077,1604,0,0
-140,-580,0,0,0,0,0,0,0,0,0,-1,1084,1604,0,0
-133,-580,0,0,0,0,0,0,0,0,0,-1,1091,1604,0,0
-126,-580,0,0,0,0,0,0,0,0,0,-1,1098,1604,0,0
-119,-580,0,0,0,0,0,0,0,0,0,-1,1105,1604,0,0
-112,-580,0,0,0,0,0,0,0,0,0,-1,1112,1604,0,0
-105,-580,0,0,0,0,0,0,0,0,0,-1,1119,1604,0,0
-98,-580,0,0,0,0,0,0,0,0,0,-1,1126,1604,0,0
-91,-580,0,0,0,0,0,0,0,0,0,-1,1133,1604,0,0
-84,-580,0,0,0,0,0,0,0,0,0,-1,1140,1604,0,0
-77,-580,0,0,0,0,0,0,0,0,0,-1,1147,1604,0,0
-70,-580,0,0,0,0,0,0,0,0,0,-1,1154,1604,0,0
-63,-580,0,0,0,0,0,0,0,0,0,-1,1161,1604,0,0
-56,-580,0,0,0,0,0,0,0,0,0,-1,1168,1604,0,0
-49,-580,0,0,0,0,0,0,0,0,0,-1,1175,1604,0,0
-42,-580,0,0,0,0,0,0,0,0,0,-1,1182,1604,0,0
-35,-580,0,0,0,0,0,0,0,0,0,-1,1189,1604,0,0
-28,-580,0,0,0,0,0,0,0,0,0,-1,1196,1604,0,0
-21,-580,0,0,0,0,0,0,0,0,0,-1,1203,1604,0,0
-14,-580,0,0,0,0,0,0,0,0,0,-1,1210,1604,0,0
-7,-580,0,0,0,0,0,0,0,0,0,-1,1217,1604,0,0
0,-580,0,0,0,0,0,0,0,0,0,-1,1224,1604,0,0
7,-580,0,0,0,0,0,0,0,0,0,-1,1231,1604,0,0
14,-580,0,0,0,0,0,0,0,0,0,-1,1238,1604,0,0
21,-580,0,0,0,0,0,0,0,0,0,-1,1245,1604,0,0
28,-580,0,0,0,0,0,0,0,0,0,-1,1252,1604,0,0
35,-580,0,0,0,0,0,0,0,0,0,-1,1259,1604,0,0
42,-580,0,0,0,0,0,0,0,0,0,-1,1266,1604,0,0
49,-580,0,0,0,0,0,0,0,0,0,-1,1273,1604,0,0
56,-580,0,0,0,0,0,0,0,0,0,-1,1280,1604,0,0
63,-580,0,0,0,0,0,0,0,0,0,-1,1287,1604,0,0
70,-580,0,0,0,0,0,0,0,0,0,-1,1294,1604,0,0
77,-580,0,0,0,0,0,0,0,0,0,-1,1301,1604,0,0
84,-580,0,0,0,0,0,0,0,0,0,-1,1308,1604,0,0
91,-580,0,0,0,0,0,0,0,0,0,-1,1315,1604,0,0
98,-580,0,0,0,0,0,0,0,0,0,-1,1322,1604,0,0
105,-580,0,0,0,0,0,0,0,0,0,-1,1329,1604,0,0
112,-580,0,0,0,0,0,0,0,0,0,-1,1336,1604,0,0
119,-580,0,0,0,0,0,0,0,0,0,-1,1343,1604,0,0
126,-580,0,0,0,0,0,0,0,0,0,-1,1350,1604,0,0
133,-580,0,0,0,0,0,0,0,0,0,-1,1357,1604,0,0
140,-580,0,0,0,0,0,0,0,0,0,-1,1364,1604,0,0
147,-580,0,0,0,0,0,0,0,0,0,-1,1371,1604,0,0
154,-580,0,0,0,0,0,0,0,0,0,-1,1378,1604,0,0
161,-580,0,0,0,0,0,0,0,0,0,-1,1385,1604,0,0
168,-580,0,0,0,0,0,0,0,0,0,-1,1392,1604,0,0
175,-580,0,0,0,0,0,0,0,0,0,-1,1399,1604,0,0
182,-580,0,0,0,0,0,0,0,0,0,-1,1406,1604,0,0
189,-580,0,0,0,0,0,0,0,0,0,-1,1413,1604,0,0
196,-580,0,0,0,0,0,0,0,0,0,-1,1420,1604,0,0
203,-580,0,0,0,0,0,0,0,0,0,-1,1427,1604,0,0
210,-580,0,0,0,0,0,0,0,0,0,-1,1434,1604,0,0
217,-580,0,0,0,0,0,0,0,0,0,-1,1441,1604,0,0
224,-580,0,0,0,0,0,0,0,0,0,-1,1448,1604,0,0
231,-580,0,0,0,0,0,0,0,0,0,-1,1455,1604,0,0
238,-580,0,0,0,0,0,0,0,0,0,-1,1462,1604,0,0
245,-580,0,0,0,0,0,0,0,0,0,-1,1469,1604,0,0
252,-580,0,0,0,0,0,0,0,0,0,-1,1476,1604,0,0
259,-580,0,0,0,0,0,0,0,0,0,-1,1483,1604,0,0
266,-580,0,0,0,0,0,0,0,0,0,-1,1490,1604,0,0
273,-580,0,0,0,0,0,0,0,0,0,-1,1497,1604,0,0
280,-580,0,0,0,0,0,0,0,0,0,-1,1504,1604,0,0
287,-580,0,0,0,0,0,0,0,0,0,-1,1511,1604,0,0
294,-580,-0.647827,-0.501953,0,0,0,0,0,0,0,-1,1518,1604,-0.647786,0.501904
301,-580,-0.607422,-0.891846,0,0,0,0,0,0,0,-1,1525,1604,-0.607393,0.891839
308,-580,0.0810547,-0.942261,0,0,0,0,0,0,0,-1,1532,1604,0.0810563,0.942236
315,-580,0.236694,-0.286865,0.0080285,0.0160451,0.021298,0.0337087,-0.00963504,0.878411,0.0262796,0.0423166,1539,1604,0.236686,0.286862
322,-580,0.286011,0.497681,0.0083996,0.0250384,0.0215989,0.0398647,-0.00642671,0.96923,0.0289574,0.044452,1546,1604,0.286057,-0.497631
329,-580,0.2677,1.06042,0.00788299,0.0303349,0.020138,0.0421645,-0.00394663,1.03967,0.0295133,0.0432107,1553,1604,0.267696,-1.06042
336,-580,0.274658,1.7196,0.00959639,0.0318878,0.0195883,0.0432793,-0.00179517,1.04405,0.0294695,0.0450482,1560,1604,0.274692,-1.71966
343,-580,0.309814,2.4751,0.0103387,0.0334583,0.0188768,0.0440336,-0.000236584,1.06014,0.0294349,0.0478683,1567,1604,0.309798,-2.47509
350,-580,0.631226,2.85132,0,0,0,0,0,0,0,-1,1574,1604,0.631224,-2.85137
357,-580,0.671997,-2.13123,0,0,0,0,0,0,0,-1,1581,1604,0.672033,2.13124
364,-580,0.814209,-1.47046,0,0,0,0,0,0,0,-1,1588,1604,0.814267,1.47048
371,-580,0.782715,-1.50549,0.00293689,0.0326909,0.00963638,0.0355392,8.86358e-05,1.28341,0.0236633,0.0437352,1595,1604,0.782688,1.5055
378,-580,0.440063,-1.17273,0.0014301,0.031056,0.00800694,0.0330815,-0.000595434,1.32302,0.0222555,0.0438657,1602,1604,0.44007,1.17279
385,-580,0.344971,-0.703979,-3.76872e-05,0.0275222,0.0066444,0.0290405,-0.00155594,1.34615,0.0198992,0.0454543,1609,1604,0.345016,0.703961
392,-580,0.375977,0.186523,-0.00162158,0.0239087,0.00505158,0.0248719,-0.00258478,1.38239,0.0175066,0.0471749,1616,1604,0.375975,-0.186547
399,-580,0.323486,-0.425903,-0.00302056,0.0188074,0.00369979,0.0194175,-0.00363061,1.40738,0.0143095,0.0484221,1623,1604,0.323458,0.425928
406,-580,-0.168823,-0.758301,0,0,0,0,0,0,0,-1,1630,1604,-0.168832,0.758351
413,-580,0.0512695,-0.0955811,-0.00464776,0.0137884,0.00291907,0.0142395,-0.00509891,1.41746,0.0115733,0.0409544,1637,1604,0.0512874,0.0955796
420,-580,0.251099,0.159546,-0.004903,0.0112357,0.00242464,0.0115921,-0.0052594,1.42485,0.0099556,0.0356761,1644,1604,0.25105,-0.159544
427,-580,0.144409,0.103882,-0.00474871,0.00720836,0.00212211,0.00757381,-0.00511417,1.40026,0.00737115,0.0307141,1651,1604,0.144431,-0.103835
434,-580,0.00622559,0.0655518,-0.00458991,0.00479806,0.0013952,0.00500102,-0.00479287,1.42634,0.00565493,0.0208455,1658,1604,0.00626407,-0.065508
441,-580,-0.0368652,0.0147705,-0.00414198,0.00344679,0.000919306,0.00355657,-0.00425176,1.45195,0.00451409,0.0103776,1665,1604,-0.0368747,-0.0147686
448,-580,-0.0263672,0.0343018,-0.00339396,0.0022698,0.000831545,0.00238936,-0.00351352,1.42799,0.00342857,0.00995202,1672,1604,-0.0263072,-0.0343263
455,-580,-0.00109863,0.0513916,-0.00273485,0.00128098,0.000859083,0.00145704,-0.00291091,1.36866,0.00256798,0.0177954,1679,1604,-0.00112598,-0.0513843
462,-580,-0.00720215,0.0297852,-0.00192109,0.000637548,0.000546391,0.000749344,-0.00203288,1.36897,0.00166232,0.0228916,1686,1604,-0.00714122,-0.029773
469,-580,-0.00268555,0.0252686,-0.00129754,0.000565277,0.000209741,0.0005886,-0.00132086,1.46005,0.00112913,0.0176459,1693,1604,-0.00264927,-0.025214
476,-580,-0.00561523,0.0373535,-0.000920768,0.000776651,-0.00013834,0.000787852,-0.000931968,-1.49001,0.0009941,0.0125725,1700,1604,-0.00558053,-0.0373732
483,-580,-0.0126953,0.0397949,-0.000249021,0.000836164,0.000172945,0.000863059,-0.000275916,1.41652,0.000686095,0.0110993,1707,1604,-0.0126839,-0.0398289
490,-580,-0.0233154,0.0308838,0.000866281,0.000952738,0.000483576,0.00139501,0.000424005,0.829977,0.000825793,0.0125209,1714,1604,-0.0233109,-0.0308966
497,-580,-0.0310059,0.017334,0.00190263,0.000836275,0.000540097,0.00212839,0.000610517,0.395922,0.0012655,0.0103976,1721,1604,-0.0310303,-0.0173817
504,-580,-0.0267334,-0.0206299,0.00284214,0.000483338,0.000579883,0.00297699,0.00034849,0.228483,0.0018793,0.015296,1728,1604,-0.0267671,0.020664
511,-580,-0.0219727,0.017334,0.00358027,0.000329437,0.000504425,0.00365675,0.000252966,0.150456,0.00235804,0.0152773,1735,1604,-0.0220208,-0.0173505
518,-580,-0.00915527,0.0205078,0.00445335,-0.000133697,0.000454296,0.00449791,-0.000178257,0.0977732,0.00305976,0.0138642,1742,1604,-0.00920719,-0.0205128
525,-580,-0.0164795,0.0268555,0.00566224,-0.000353365,0.000498757,0.00570331,-0.000394437,0.082163,0.00394027,0.0157822,1749,1604,-0.016423,-0.0268084
532,-580,-0.0236816,0.0494385,0.00675013,-0.000307521,0.000782494,0.00683585,-0.000393237,0.109106,0.00469381,0.0173277,1756,1604,-0.0236871,-0.049467
539,-580,0.0189209,0.0744629,0.00771676,0.000192223,0.0012596,0.00792201,-1.30348e-05,0.161535,0.00528569,0.0212673,1763,1604,0.0188835,-0.074467
546,-580,0.154785,0.147095,0.00875532,0.0018935,0.00181223,0.00920453,0.00144429,0.242979,0.00571607,0.0355127,1770,1604,0.154732,-0.147078
553,-580,0.288208,0.167725,0.0100558,0.00333203,0.00234986,0.0107956,0.00259219,0.30502,0.00650743,0.0451502,1777,1604,0.288208,-0.167774
560,-580,-0.0870361,-0.246826,0.0117657,0.00596418,0.00231851,0.0125784,0.00515147,0.337148,0.00730167,0.0446308,1784,1604,-0.0870128,0.246848
567,-580,-0.0938721,-0.241333,0.0132602,0.00940022,0.00286148,0.0147818,0.00787871,0.488703,0.00854044,0.0477212,1791,1604,-0.0938625,0.241318
574,-580,0.114014,-0.43457,0.0152358,0.0135148,0.0032666,0.0177533,0.0109973,0.656614,0.0103469,0.044792,1798,1604,0.113971,0.434629
581,-580,-0.10498,-0.259644,0.0179453,0.0189288,0.00296224,0.0214399,0.0154343,0.867651,0.0127711,0.043246,1805,1604,-0.104973,0.259584
588,-580,0.0168457,-0.115723,0.0214302,0.0255871,0.0019271,0.026343,0.0206743,1.19698,0.0160105,0.0484152,1812,1604,0.0168806,0.115753
595,-580,0,0,0,0,0,0,0,0,0,-1,1819,1604,0,0
602,-580,0,0,0,0,0,0,0,0,0,-1,1826,1604,0,0
609,-580,0,0,0,0,0,0,0,0,0,-1,1833,1604,0,0
616,-580,0,0,0,0,0,0,0,0,0,-1,1840,1604,0,0
623,-580,0,0,0,0,0,0,0,0,0,-1,1847,1604,0,0
630,-580,0,0,0,0,0,0,0,0,0,-1,1854,1604,0,0
637,-580,0,0,0,0,0,0,0,0,0,-1,1861,1604,0,0
644,-580,0,0,0,0,0,0,0,0,0,-1,1868,1604,0,0
651,-580,0,0,0,0,0,0,0,0,0,-1,1875,1604,0,0
658,-580,0,0,0,0,0,0,0,0,0,-1,1882,1604,0,0
665,-580,0,0,0,0,0,0,0,0,0,-1,1889,1604,0,0
672,-580,0,0,0,0,0,0,0,0,0,-1,1896,1604,0,0
679,-580,0,0,0,0,0,0,0,0,0,-1,1903,1604,0,0
686,-580,0,0,0,0,0,0,0,0,0,-1,1910,1604,0,0
693,-580,0,0,0,0,0,0,0,0,0,-1,1917,1604,0,0
700,-580,0,0,0,0,0,0,0,0,0,-1,1924,1604,0,0
707,-580,0,0,0,0,0,0,0,0,0,-1,1931,1604,0,0
714,-580,0,0,0,0,0,0,0,0,0,-1,1938,1604,0,0
721,-580,0,0,0,0,0,0,0,0,0,-1,1945,1604,0,0
728,-580,0,0,0,0,0,0,0,0,0,-1,1952,1604,0,0
735,-580,0,0,0,0,0,0,0,0,0,-1,1959,1604,0,0
742,-580,0,0,0,0,0,0,0,0,0,-1,1966,1604,0,0
749,-580,0,0,0,0,0,0,0,0,0,-1,1973,1604,0,0
756,-580,0,0,0,0,0,0,0,0,0,-1,1980,1604,0,0
763,-580,0,0,0,0,0,0,0,0,0,-1,1987,1604,0,0
770,-580,0,0,0,0,0,0,0,0,0,-1,1994,1604,0,0
777,-580,0,0,0,0,0,0,0,0,0,-1,2001,1604,0,0
784,-580,0,0,0,0,0,0,0,0,0,-1,2008,1604,0,0
791,-580,0,0,0,0,0,0,0,0,0,-1,2015,1604,0,0
798,-580,0,0,0,0,0,0,0,0,0,-1,2022,1604,0,0
805,-580,0,0,0,0,0,0,0,0,0,-1,2029,1604,0,0
812,-580,0,0,0,0,0,0,0,0,0,-1,2036,1604,0,0
-700,-587,0,0,0,0,0,0,0,0,0,-1,524,1611,0,0
-693,-587,0,0,0,0,0,0,0,0,0,-1,531,1611,0,0
-686,-587,0,0,0,0,0,0,0,0,0,-1,538,1611,0,0
-679,-587,0,0,0,0,0,0,0,0,0,-1,545,1611,0,0
-672,-587,0,0,0,0,0,0,0,0,0,-1,552,1611,0,0
-665,-587,0,0,0,0,0,0,0,0,0,-1,559,1611,0,0
-658,-587,0,0,0,0,0,0,0,0,0,-1,566,1611,0,0
-651,-587,0,0,0,0,0,0,0,0,0,-1,573,1611,0,0
-644,-587,0,0,0,0,0,0,0,0,0,-1,580,1611,0,0
-637,-587,0,0,0,0,0,0,0,0,0,-1,587,1611,0,0
-630,-587,0,0,0,0,0,0,0,0,0,-1,594,1611,0,0
-623,-587,0,0,0,0,0,0,0,0,0,-1,601,1611,0,0
-616,-587,0,0,0,0,0,0,0,0,0,-1,608,1611,0,0
-609,-587,0,0,0,0,0,0,0,0,0,-1,615,1611,0,0
-602,-587,0,0,0,0,0,0,0,0,0,-1,622,1611,0,0
-595,-587,0,0,0,0,0,0,0,0,0,-1,629,1611,0,0
-588,-587,0,0,0,0,0,0,0,0,0,-1,636,1611,0,0
-581,-587,0,0,0,0,0,0,0,0,0,-1,643,1611,0,0
-574,-587,0,0,0,0,0,0,0,0,0,-1,650,1611,0,0
-567,-587,0,0,0,0,0,0,0,0,0,-1,657,1611,0,0
-560,-587,0,0,0,0,0,0,0,0,0,-1,664,1611,0,0
-553,-587,0,0,0,0,0,0,0,0,0,-1,671,1611,0,0
-546,-587,0,0,0,0,0,0,0,0,0,-1,678,1611,0,0
-539,-587,0,0,0,0,0,0,0,0,0,-1,685,1611,0,0
-532,-587,0,0,0,0,0,0,0,0,0,-1,692,1611,0,0
-525,-587,0,0,0,0,0,0,0,0,0,-1,699,1611,0,0
-518,-587,0,0,0,0,0,0,0,0,0,-1,706,1611,0,0
-511,-587,0,0,0,0,0,0,0,0,0,-1,713,1611,0,0
-504,-587,0,0,0,0,0,0,0,0,0,-1,720,1611,0,0
-497,-587,0,0,0,0,0,0,0,0,0,-1,727,1611,0,0
-490,-587,0,0,0,0,0,0,0,0,0,-1,734,1611,0,0
-483,-587,0,0,0,0,0,0,0,0,0,-1,741,1611,0,0
-476,-587,0,0,0,0,0,0,0,0,0,-1,748,1611,0,0
-469,-587,0,0,0,0,0,0,0,0,0,-1,755,1611,0,0
-462,-587,-0.174438,-0.599609,0.0137127,0.00756765,0.0225689,0.0334173,-0.0121369,0.717744,0.0272405,0.0411859,762,1611,-0.174462,0.599604
-455,-587,-0.290894,-0.660767,0.0120958,0.00562223,0.0176395,0.026793,-0.00907498,0.694659,0.0215341,0.0419905,769,1611,-0.290907,0.660759
-448,-587,0.21875,-0.575195,0.0111252,0.00400626,0.0126416,0.0206989,-0.00556741,0.648167,0.0159816,0.046534,776,1611,0.21872,0.575244
-441,-587,0.321106,-0.0172119,0,0,0,0,0,0,0,-1,783,1611,0.321105,0.0172403
-434,-587,0.193054,0.259766,0.0103153,0.00121064,0.00504521,0.0125584,-0.00103246,0.418354,0.00873678,0.0471164,790,1611,0.193083,-0.259801
-427,-587,0.194153,0.312012,0.00969245,-0.000321454,0.00327936,0.0106708,-0.00129979,0.289927,0.00758435,0.0445296,797,1611,0.194132,-0.312067
-420,-587,-0.249939,-0.0439453,0.00895891,-0.00165934,0.00196309,0.00931022,-0.00201066,0.177084,0.00697432,0.043409,804,1611,-0.24995,0.0440054
-413,-587,-0.184937,-0.109497,0.0086235,-0.00161128,-0.00083163,0.00869063,-0.00167841,-0.0805511,0.0064267,0.0458886,811,1611,-0.184967,0.109471
-406,-587,-0.143127,0.0333252,0.00840339,-0.0018605,-0.00145823,0.00860655,-0.00206366,-0.138425,0.00653511,0.0446563,818,1611,-0.143138,-0.033368
-399,-587,-0.0215454,0.0697021,0.00731001,-0.00188895,-0.00127989,0.00748476,-0.00206371,-0.135701,0.00580142,0.0319856,825,1611,-0.0215357,-0.0696442
-392,-587,0.0515137,-0.0012207,0.00561766,-0.00176167,-0.0011126,0.00578176,-0.00192577,-0.146437,0.00463186,0.0225736,832,1611,0.0515131,0.00122205
-385,-587,0.0045166,0.0164795,0.00444195,-0.0016249,-0.000772011,0.00453865,-0.00172159,-0.124605,0.00373434,0.0141841,839,1611,0.00454199,-0.0164838
-378,-587,-0.0291748,0.0297852,0.00343109,-0.00136782,-0.000456839,0.00347419,-0.00141092,-0.0940707,0.00290306,0.0121132,846,1611,-0.0291648,-0.0297414
-371,-587,-0.0232544,0.0396729,0.00254499,-0.000938798,-0.000174593,0.00255372,-0.000947526,-0.0499488,0.00209115,0.0125274,853,1611,-0.0232744,-0.0396913
-364,-587,-0.0157471,0.0507813,0.00151909,-0.000547855,0.000127958,0.00152698,-0.000555746,0.0615931,0.00124528,0.0162524,860,1611,-0.0157765,-0.0508066
-357,-587,-0.0213623,0.00366211,0.000573337,-0.000276615,0.00026461,0.000648984,-0.000352262,0.278453,0.00058647,0.0161112,867,1611,-0.021361,-0.00366348
-350,-587,-0.0144043,0.0388184,0.000182231,0.000100808,0.000324705,0.000468766,-0.000185728,0.723034,0.000389472,0.00943789,874,1611,-0.0144282,-0.0388278
-343,-587,-0.0218506,0.0517578,0.00043635,0.000590551,0.000404923,0.000925648,0.000101253,0.879476,0.00058627,0.0112909,881,1611,-0.0218514,-0.0517682
-336,-587,-0.0303955,0.0244141,0.00104371,0.00093957,0.000319496,0.00131535,0.000667931,0.704617,0.00075945,0.0106701,888,1611,-0.0303954,-0.0244051
-329,-587,-0.0317993,-0.0078125,0.00177088,0.00145934,0.000113291,0.00180772,0.0014225,0.314408,0.00109947,0.0129982,895,1611,-0.0317875,0.00784347
-322,-587,-0.0291138,-0.0198975,0.0024267,0.00202591,8.08424e-06,0.00242686,0.00202574,0.0201598,0.00150216,0.016655,902,1611,-0.0290841,0.0199151
-315,-587,-0.0374146,0.0351563,0.00291075,0.00202203,0.000140883,0.00293255,0.00200023,0.153511,0.00173012,0.0131289,909,1611,-0.037402,-0.0351445
-308,-587,-0.0270996,0.0443115,0.00269014,0.00170918,0.000517446,0.00291263,0.00148669,0.406071,0.00168173,0.0128218,916,1611,-0.0271127,-0.0443434
-301,-587,-0.0161743,0.0174561,0.00238808,0.0012401,0.00091507,0.00289429,0.000733899,0.505285,0.00173735,0.0111343,923,1611,-0.0161871,-0.0174754
-294,-587,-0.00506592,0.013916,0.000898499,0.00166424,0.000957549,0.00231263,0.000250114,0.975585,0.00146551,0.0118501,930,1611,-0.00506858,-0.0139049
-287,-587,0.00653076,0.0356445,-0.000940899,0.00223701,0.000842673,0.00244663,-0.00115052,1.32699,0.00212128,0.0215049,937,1611,0.00651593,-0.0356784
-280,-587,0.186829,-0.0910645,-0.0018949,0.00275679,0.000135091,0.00276071,-0.00189882,1.54179,0.00270548,0.0318432,944,1611,0.186803,0.0910939
-273,-587,0.251831,-0.199707,-0.00166424,0.00347932,-0.000427912,0.00351468,-0.0016996,-1.48836,0.00307066,0.0386551,951,1611,0.251821,0.199686
-266,-587,0.184753,-0.110229,-0.00208516,0.00427349,-0.000898895,0.00439812,-0.00220979,-1.43303,0.00388419,0.0425578,958,1611,0.184757,0.110175
-259,-587,0.41272,-0.59436,-0.00223702,0.00576559,-0.001813,0.00615717,-0.0026286,-1.35808,0.00520705,0.0423794,965,1611,0.412722,0.594361
-252,-587,0.575989,-1.10352,-0.00201325,0.00713825,-0.0029837,0.0080251,-0.0029001,-1.28188,0.00653491,0.0424047,972,1611,0.575996,1.10354
-245,-587,-0.742188,0.0408936,-0.00058129,0.0090678,-0.00513705,0.0112906,-0.00280412,-1.16242,0.00861528,0.045845,979,1611,-0.742159,-0.0408972
-238,-587,-0.0838013,-0.0324707,0,0,0,0,0,0,0,-1,986,1611,-0.0838174,0.0324336
-231,-587,0.183594,0.258057,0.00685653,0.0141262,-0.00861287,0.0198398,0.00114291,-0.985071,0.0128625,0.0469472,993,1611,0.183613,-0.258021
-224,-587,0.31488,0.389404,0.0154414,0.0199503,-0.00982745,0.0277786,0.00761313,-0.89815,0.0165748,0.0420495,1000,1611,0.314867,-0.38945
-217,-587,0.3125,0.567505,0.0241879,0.0258003,-0.0109542,0.0359779,0.0140103,-0.822132,0.0209405,0.0432092,1007,1611,0.312514,-0.567475
-210,-587,0.305908,0.768066,0,0,0,0,0,0,0,-1,1014,1611,0.305887,-0.768042
-203,-587,-0.498108,1.98193,0,0,0,0,0,0,0,-1,1021,1611,-0.498097,-1.98199
-196,-587,-2.56897,2.4137,0,0,0,0,0,0,0,-1,1028,1611,-2.56894,-2.41367
-189,-587,-2.80725,1.38196,0,0,0,0,0,0,0,-1,1035,1611,-2.80722,-1.38195
-182,-587,-3.05786,0.490601,0.064768,0.0632438,-0.00986964,0.0739049,0.0541069,-0.746866,0.0441751,0.048035,1042,1611,-3.05789,-0.490637
-175,-587,-2.4856,2.77454,0.0681631,0.072281,-0.00685064,0.0773754,0.0630687,-0.931379,0.0475378,0.0477857,1049,1611,-2.48564,-2.77451
-168,-587,0.0330811,1.03174,0,0,0,0,0,0,0,-1,1056,1611,0.0331378,-1.03168
-161,-587,0.00720215,1.28711,0,0,0,0,0,0,0,-1,1063,1611,0.00720216,-1.28708
-154,-587,-0.146606,1.23328,0,0,0,0,0,0,0,-1,1070,1611,-0.14661,-1.23329
-147,-587,0,0,0,0,0,0,0,0,0,-1,1077,1611,0,0
-140,-587,0,0,0,0,0,0,0,0,0,-1,1084,1611,0,0
-133,-587,0,0,0,0,0,0,0,0,0,-1,1091,1611,0,0
-126,-587,0,0,0,0,0,0,0,0,0,-1,1098,1611,0,0
-119,-587,0,0,0,0,0,0,0,0,0,-1,1105,1611,0,0
-112,-587,0,0,0,0,0,0,0,0,0,-1,1112,1611,0,0
-105,-587,0,0,0,0,0,0,0,0,0,-1,1119,1611,0,0
-98,-587,0,0,0,0,0,0,0,0,0,-1,1126,1611,0,0
-91,-587,0,0,0,0,0,0,0,0,0,-1,1133,1611,0,0
-84,-587,0,0,0,0,0,0,0,0,0,-1,1140,1611,0,0
-77,-587,0,0,0,0,0,0,0,0,0,-1,1147,1611,0,0
-70,-587,0,0,0,0,0,0,0,0,0,-1,1154,1611,0,0
-63,-587,0,0,0,0,0,0,0,0,0,-1,1161,1611,0,0
-56,-587,0,0,0,0,0,0,0,0,0,-1,1168,1611,0,0
-49,-587,0,0,0,0,0,0,0,0,0,-1,1175,1611,0,0
-42,-587,0,0,0,0,0,0,0,0,0,-1,1182,1611,0,0
-35,-587,0,0,0,0,0,0,0,0,0,-1,1189,1611,0,0
-28,-587,0,0,0,0,0,0,0,0,0,-1,1196,1611,0,0
-21,-587,0,0,0,0,0,0,0,0,0,-1,1203,1611,0,0
-14,-587,0,0,0,0,0,0,0,0,0,-1,1210,1611,0,0
-7,-587,0,0,0,0,0,0,0,0,0,-1,1217,1611,0,0
0,-587,0,0,0,0,0,0,0,0,0,-1,1224,1611,0,0
7,-587,0,0,0,0,0,0,0,0,0,-1,1231,1611,0,0
14,-587,0,0,0,0,0,0,0,0,0,-1,1238,1611,0,0
21,-587,0,0,0,0,0,0,0,0,0,-1,1245,1611,0,0
28,-587,0,0,0,0,0,0,0,0,0,-1,1252,1611,0,0
35,-587,0,0,0,0,0,0,0,0,0,-1,1259,1611,0,0
42,-587,0,0,0,0,0,0,0,0,0,-1,1266,1611,0,0
49,-587,0,0,0,0,0,0,0,0,0,-1,1273,1611,0,0
56,-587,0,0,0,0,0,0,0,0,0,-1,1280,1611,0,0
63,-587,0,0,0,0,0,0,0,0,0,-1,1287,1611,0,0
70,-587,0,0,0,0,0,0,0,0,0,-1,1294,1611,0,0
77,-587,0,0,0,0,0,0,0,0,0,-1,1301,1611,0,0
84,-587,0,0,0,0,0,0,0,0,0,-1,1308,1611,0,0
91,-587,0,0,0,0,0,0,0,0,0,-1,1315,1611,0,0
98,-587,0,0,0,0,0,0,0,0,0,-1,1322,1611,0,0
105,-587,0,0,0,0,0,0,0,0,0,-1,1329,1611,0,0
112,-587,0,0,0,0,0,0,0,0,0,-1,1336,1611,0,0
119,-587,0,0,0,0,0,0,0,0,0,-1,1343,1611,0,0
126,-587,0,0,0,0,0,0,0,0,0,-1,1350,1611,0,0
133,-587,0,0,0,0,0,0,0,0,0,-1,1357,1611,0,0
140,-587,0,0,0,0,0,0,0,0,0,-1,1364,1611,0,0
147,-587,0,0,0,0,0,0,0,0,0,-1,1371,1611,0,0
154,-587,0,0,0,0,0,0,0,0,0,-1,1378,1611,0,0
161,-587,0,0,0,0,0,0,0,0,0,-1,1385,1611,0,0
168,-587,0,0,0,0,0,0,0,0,0,-1,1392,1611,0,0
175,-587,0,0,0,0,0,0,0,0,0,-1,1399,1611,0,0
182,-587,0,0,0,0,0,0,0,0,0,-1,1406,1611,0,0
189,-587,0,0,0,0,0,0,0,0,0,-1,1413,1611,0,0
196,-587,0,0,0,0,0,0,0,0,0,-1,1420,1611,0,0
203,-587,0,0,0,0,0,0,0,0,0,-1,1427,1611,0,0
210,-587,0,0,0,0,0,0,0,0,0,-1,1434,1611,0,0
217,-587,0,0,0,0,0,0,0,0,0,-1,1441,1611,0,0
224,-587,0,0,0,0,0,0,0,0,0,-1,1448,1611,0,0
231,-587,0,0,0,0,0,0,0,0,0,-1,1455,1611,0,0
238,-587,0,0,0,0,0,0,0,0,0,-1,1462,1611,0,0
245,-587,0,0,0,0,0,0,0,0,0,-1,1469,1611,0,0
252,-587,0,0,0,0,0,0,0,0,0,-1,1476,1611,0,0
259,-587,0,0,0,0,0,0,0,0,0,-1,1483,1611,0,0
266,-587,0,0,0,0,0,0,0,0,0,-1,1490,1611,0,0
273,-587,1.64807,1.24634,0,0,0,0,0,0,0,-1,1497,1611,1.64803,-1.24639
280,-587,2.45837,2.52319,0,0,0,0,0,0,0,-1,1504,1611,2.45834,-2.52317
287,-587,-0.473022,0.266968,0,0,0,0,0,0,0,-1,1511,1611,-0.473072,-0.266995
294,-587,-1.53894,-1.49036,0,0,0,0,0,0,0,-1,1518,1611,-1.53898,1.4904
301,-587,-0.874268,-1.12439,0,0,0,0,0,0,0,-1,1525,1611,-0.874287,1.12436
308,-587,-0.244873,-0.832275,0,0,0,0,0,0,0,-1,1532,1611,-0.24489,0.832272
315,-587,0.140991,-0.2771,0.00280381,0.019646,0.0129358,0.0266603,-0.00421043,1.07393,0.0193305,0.0443844,1539,1611,0.141023,0.277075
322,-587,0.530884,0.32312,0.00340163,0.026938,0.0138433,0.0333393,-0.00299961,1.13767,0.0232905,0.0463085,1546,1611,0.530933,-0.323117
329,-587,0.623169,0.799927,0.00362397,0.031279,0.0141265,0.0372191,-0.00231613,1.17275,0.0256197,0.0466654,1553,1611,0.623185,-0.799878
336,-587,0.586914,1.33667,0.00611804,0.0316599,0.0149294,0.0385354,-0.000757473,1.13922,0.0259465,0.0481415,1560,1611,0.586862,-1.33669
343,-587,0.666504,1.81519,0.00765029,0.0323402,0.0152657,0.0396278,0.000362666,1.1254,0.0262985,0.0472392,1567,1611,0.666539,-1.81521
350,-587,0.987671,2.34753,0,0,0,0,0,0,0,-1,1574,1611,0.987674,-2.34756
357,-587,1.06494,-3.06323,0.00418834,0.031393,0.0111086,0.0353527,0.000228679,1.22839,0.0234926,0.0456559,1581,1611,1.06489,3.06319
364,-587,1.16541,-2.81763,0.00314894,0.0296529,0.00941956,0.0326595,0.000142284,1.26183,0.0217257,0.0466803,1588,1611,1.16545,2.81763
371,-587,1.31238,-2.59265,0.00203848,0.028785,0.00830477,0.0311538,-0.000330346,1.29294,0.0208802,0.0458996,1595,1611,1.31242,2.59267
378,-587,0.432617,-1.92664,0.00091715,0.0269039,0.0069459,0.0286439,-0.000822887,1.32534,0.0193761,0.0465974,1602,1611,0.432559,1.92668
385,-587,0.4646,0.439087,-0.000131275,0.0234838,0.00576615,0.0248166,-0.00146399,1.34366,0.0170533,0.0456726,1609,1611,0.464585,-0.439026
392,-587,0.378784,0.230469,-0.00128806,0.0199615,0.00434261,0.0208147,-0.00214127,1.37679,0.0146425,0.0458926,1616,1611,0.378787,-0.230468
399,-587,0.364868,0.0283203,-0.00237708,0.0151271,0.00309593,0.0156585,-0.00290852,1.4008,0.0115314,0.0470399,1623,1611,0.3649,-0.0283145
406,-587,0.0543213,0.120117,-0.00309192,0.0126405,0.00258414,0.0130541,-0.00350551,1.41209,0.0100766,0.0392884,1630,1611,0.0543637,-0.120155
413,-587,0.000732422,0.0488281,-0.00380846,0.0110617,0.00232098,0.0114156,-0.0041623,1.41951,0.0093132,0.0294322,1637,1611,0.000780033,-0.0487817
420,-587,-0.012085,0.0447998,-0.00403071,0.00905779,0.00186723,0.00931897,-0.00429188,1.43183,0.0080349,0.0237816,1644,1611,-0.0121387,-0.0448502
427,-587,-0.03125,0.0299072,-0.00385823,0.00556932,0.00166348,0.00585423,-0.00414314,1.40117,0.00580009,0.0174023,1651,1611,-0.0312241,-0.0298861
434,-587,-0.0244141,0.0275879,-0.0036251,0.00360623,0.0010642,0.00375959,-0.00377846,1.42767,0.0043521,0.012579,1658,1611,-0.0244337,-0.0275454
441,-587,-0.0233154,0.0219727,-0.00324933,0.00267397,0.000696699,0.00275481,-0.00333017,1.45528,0.0035184,0.0150486,1665,1611,-0.0233551,-0.0220169
448,-587,-0.0187988,0.0377197,-0.00267521,0.00191074,0.000729487,0.00202398,-0.00278846,1.41679,0.00279012,0.0138393,1672,1611,-0.0188056,-0.0376859
455,-587,-0.0168457,0.0540771,-0.0021256,0.00133044,0.000859834,0.00153254,-0.0023277,1.33994,0.00224442,0.0134494,1679,1611,-0.0168747,-0.0540333
462,-587,-0.0275879,0.0281982,-0.00142227,0.000931988,0.000640336,0.00109488,-0.00158517,1.32169,0.00155593,0.0179006,1686,1611,-0.0275814,-0.0281532
469,-587,-0.0222168,0.0211182,-0.000837965,0.00112528,0.00039052,0.00120011,-0.000912794,1.38148,0.00122364,0.0152417,1693,1611,-0.0222414,-0.0211493
476,-587,-0.0170898,0.0339355,-0.000502889,0.00151419,0.000200456,0.00153392,-0.000522617,1.4727,0.00123427,0.00915335,1700,1611,-0.017109,-0.0339704
483,-587,-0.0144043,0.0378418,6.09635e-05,0.00165517,0.000545903,0.00182418,-0.000108052,1.27055,0.00125369,0.0121758,1707,1611,-0.0144168,-0.0378923
490,-587,-0.026001,0.0292969,0.00112592,0.00179707,0.000874482,0.00239815,0.000524837,0.968603,0.00145571,0.0149312,1714,1611,-0.0260109,-0.0292927
497,-587,-0.0477295,0.0216064,0.00229238,0.00171347,0.000916018,0.00296359,0.00104226,0.632368,0.00173594,0.0114118,1721,1611,-0.0477244,-0.0216256
504,-587,-0.0307617,0.020752,0.00344187,0.00138908,0.000987666,0.0038399,0.000991054,0.383085,0.00230183,0.0115213,1728,1611,-0.0307576,-0.0207059
511,-587,-0.0325928,0.0413818,0.00454483,0.00123125,0.000977402,0.00481165,0.000964428,0.266493,0.00293951,0.0127223,1735,1611,-0.0326154,-0.0413456
518,-587,-0.0178223,0.0457764,0.00584777,0.000717395,0.00098012,0.00602863,0.000536527,0.182484,0.00385272,0.0126326,1742,1611,-0.0178054,-0.045718
525,-587,-0.00231934,0.0565186,0.00750107,0.000466052,0.00104269,0.00765236,0.000314763,0.144089,0.00499996,0.0165892,1749,1611,-0.00226481,-0.0565026
532,-587,0.00183105,0.0682373,0.00908972,0.000479732,0.00128727,0.00927806,0.000291393,0.145278,0.00609057,0.0275736,1756,1611,0.00179932,-0.068277
539,-587,0.000366211,0.0435791,0.0106404,0.000970475,0.00166156,0.0109179,0.000692939,0.165505,0.007059,0.0374988,1763,1611,0.000400848,-0.0436325
546,-587,0.171387,0.220947,0.012364,0.00266381,0.00211145,0.0128036,0.00222413,0.2053,0.00789945,0.0426262,1770,1611,0.171357,-0.220956
553,-587,0.473022,0.457275,0.014402,0.00430714,0.00250466,0.0149893,0.00371986,0.230311,0.00901254,0.0448436,1777,1611,0.472988,-0.45727
560,-587,0.0942383,-0.44165,0.0167924,0.00725431,0.00228502,0.0173116,0.00673516,0.223408,0.0100765,0.0441944,1784,1611,0.0942912,0.441711
567,-587,-0.477905,-0.531616,0.0189092,0.0113009,0.00266648,0.0197507,0.0104594,0.305677,0.0114097,0.0430533,1791,1611,-0.477922,0.531562
574,-587,-0.149902,-0.383667,0.0215517,0.0162494,0.00287222,0.0228093,0.0149918,0.4127,0.0133843,0.0430089,1798,1611,-0.149852,0.383638
581,-587,0.0853271,-0.463867,0.0251257,0.0228241,0.00207436,0.0263471,0.0216027,0.532152,0.0162163,0.0418934,1805,1611,0.0853587,0.463866
588,-587,0,0,0,0,0,0,0,0,0,-1,1812,1611,0,0
595,-587,0,0,0,0,0,0,0,0,0,-1,1819,1611,0,0
602,-587,0,0,0,0,0,0,0,0,0,-1,1826,1611,0,0
609,-587,0,0,0,0,0,0,0,0,0,-1,1833,1611,0,0
616,-587,0,0,0,0,0,0,0,0,0,-1,1840,1611,0,0
623,-587,0,0,0,0,0,0,0,0,0,-1,1847,1611,0,0
630,-587,0,0,0,0,0,0,0,0,0,-1,1854,1611,0,0
637,-587,0,0,0,0,0,0,0,0,0,-1,1861,1611,0,0
644,-587,0,0,0,0,0,0,0,0,0,-1,1868,1611,0,0
651,-587,0,0,0,0,0,0,0,0,0,-1,1875,1611,0,0
658,-587,0,0,0,0,0,0,0,0,0,-1,1882,1611,0,0
665,-587,0,0,0,0,0,0,0,0,0,-1,1889,1611,0,0
672,-587,0,0,0,0,0,0,0,0,0,-1,1896,1611,0,0
679,-587,0,0,0,0,0,0,0,0,0,-1,1903,1611,0,0
686,-587,0,0,0,0,0,0,0,0,0,-1,1910,1611,0,0
693,-587,0,0,0,0,0,0,0,0,0,-1,1917,1611,0,0
700,-587,0,0,0,0,0,0,0,0,0,-1,1924,1611,0,0
707,-587,0,0,0,0,0,0,0,0,0,-1,1931,1611,0,0
714,-587,0,0,0,0,0,0,0,0,0,-1,1938,1611,0,0
721,-587,0,0,0,0,0,0,0,0,0,-1,1945,1611,0,0
728,-587,0,0,0,0,0,0,0,0,0,-1,1952,1611,0,0
735,-587,0,0,0,0,0,0,0,0,0,-1,1959,1611,0,0
742,-587,0,0,0,0,0,0,0,0,0,-1,1966,1611,0,0
749,-587,0,0,0,0,0,0,0,0,0,-1,1973,1611,0,0
756,-587,0,0,0,0,0,0,0,0,0,-1,1980,1611,0,0
763,-587,0,0,0,0,0,0,0,0,0,-1,1987,1611,0,0
770,-587,0,0,0,0,0,0,0,0,0,-1,1994,1611,0,0
777,-587,0,0,0,0,0,0,0,0,0,-1,2001,1611,0,0
784,-587,0,0,0,0,0,0,0,0,0,-1,2008,1611,0,0
791,-587,0,0,0,0,0,0,0,0,0,-1,2015,1611,0,0
798,-587,0,0,0,0,0,0,0,0,0,-1,2022,1611,0,0
805,-587,0,0,0,0,0,0,0,0,0,-1,2029,1611,0,0
812,-587,0,0,0,0,0,0,0,0,0,-1,2036,1611,0,0
-700,-594,0,0,0,0,0,0,0,0,0,-1,524,1618,0,0
-693,-594,0,0,0,0,0,0,0,0,0,-1,531,1618,0,0
-686,-594,0,0,0,0,0,0,0,0,0,-1,538,1618,0,0
-679,-594,0,0,0,0,0,0,0,0,0,-1,545,1618,0,0
-672,-594,0,0,0,0,0,0,0,0,0,-1,552,1618,0,0
-665,-594,0,0,0,0,0,0,0,0,0,-1,559,1618,0,0
-658,-594,0,0,0,0,0,0,0,0,0,-1,566,1618,0,0
-651,-594,0,0,0,0,0,0,0,0,0,-1,573,1618,0,0
-644,-594,0,0,0,0,0,0,0,0,0,-1,580,1618,0,0
-637,-594,0,0,0,0,0,0,0,0,0,-1,587,1618,0,0
-630,-594,0,0,0,0,0,0,0,0,0,-1,594,1618,0,0
-623,-594,0,0,0,0,0,0,0,0,0,-1,601,1618,0,0
-616,-594,0,0,0,0,0,0,0,0,0,-1,608,1618,0,0
-609,-594,0,0,0,0,0,0,0,0,0,-1,615,1618,0,0
-602,-594,0,0,0,0,0,0,0,0,0,-1,622,1618,0,0
-595,-594,0,0,0,0,0,0,0,0,0,-1,629,1618,0,0
-588,-594,0,0,0,0,0,0,0,0,0,-1,636,1618,0,0
-581,-594,0,0,0,0,0,0,0,0,0,-1,643,1618,0,0
-574,-594,0,0,0,0,0,0,0,0,0,-1,650,1618,0,0
-567,-594,0,0,0,0,0,0,0,0,0,-1,657,1618,0,0
-560,-594,0,0,0,0,0,0,0,0,0,-1,664,1618,0,0
-553,-594,0,0,0,0,0,0,0,0,0,-1,671,1618,0,0
-546,-594,0,0,0,0,0,0,0,0,0,-1,678,1618,0,0
-539,-594,0,0,0,0,0,0,0,0,0,-1,685,1618,0,0
-532,-594,0,0,0,0,0,0,0,0,0,-1,692,1618,0,0
-525,-594,0,0,0,0,0,0,0,0,0,-1,699,1618,0,0
-518,-594,0,0,0,0,0,0,0,0,0,-1,706,1618,0,0
-511,-594,0,0,0,0,0,0,0,0,0,-1,713,1618,0,0
-504,-594,0,0,0,0,0,0,0,0,0,-1,720,1618,0,0
-497,-594,0,0,0,0,0,0,0,0,0,-1,727,1618,0,0
-490,-594,0,0,0,0,0,0,0,0,0,-1,734,1618,0,0
-483,-594,0,0,0,0,0,0,0,0,0,-1,741,1618,0,0
-476,-594,0,0,0,0,0,0,0,0,0,-1,748,1618,0,0
-469,-594,0,0,0,0,0,0,0,0,0,-1,755,1618,0,0
-462,-594,0,0,0,0,0,0,0,0,0,-1,762,1618,0,0
-455,-594,-0.793396,-0.670166,0,0,0,0,0,0,0,-1,769,1618,-0.793404,0.670199
-448,-594,0.12439,-0.623901,0,0,0,0,0,0,0,-1,776,1618,0.124366,0.623902
-441,-594,0.0795898,0.574829,0,0,0,0,0,0,0,-1,783,1618,0.0796196,-0.574812
-434,-594,0.129517,0.636597,0.0157583,0.000300034,0.00375147,0.0166206,-0.000562285,0.225937,0.0112725,0.0481525,790,1618,0.129498,-0.636548
-427,-594,0.00579834,0.62085,0.0146562,-0.00125234,0.00174471,0.0148453,-0.00144143,0.107961,0.0104107,0.0432542,797,1618,0.0057773,-0.620845
-420,-594,-0.183411,0.293335,0.0134331,-0.00237256,0.000302995,0.0134389,-0.00237837,0.0191606,0.00984828,0.0432348,804,1618,-0.183435,-0.293324
-413,-594,-0.0284424,-0.0894775,0.0125257,-0.00223847,-0.00260692,0.0129725,-0.00268526,-0.169735,0.0096685,0.0467034,811,1618,-0.0284671,0.0894452
-406,-594,-0.157104,0.0996094,0.0116608,-0.00240846,-0.0031207,0.0123219,-0.00306959,-0.208769,0.00940626,0.0485985,818,1618,-0.15709,-0.099556
-399,-594,0.0330811,0.071167,0.00991688,-0.00244767,-0.00280675,0.0105242,-0.00305498,-0.213088,0.00822577,0.0433411,825,1618,0.0331054,-0.07114
-392,-594,0.123169,-0.0646973,0.00764654,-0.00234818,-0.00244231,0.00821142,-0.00291306,-0.227292,0.00666112,0.0381208,832,1618,0.12315,0.0646534
-385,-594,0.0339966,-0.00646973,0.0059789,-0.00227052,-0.00195274,0.00641779,-0.00270941,-0.221081,0.00541263,0.0258769,839,1618,0.0340037,0.00651888
-378,-594,-0.0378418,0.0404053,0.00458174,-0.00207368,-0.00151996,0.00491244,-0.00240438,-0.21423,0.0043063,0.0112748,846,1618,-0.0378282,-0.0403734
-371,-594,-0.0272217,0.0367432,0.00339034,-0.00162794,-0.00112144,0.00362955,-0.00186715,-0.210154,0.00322744,0.0109334,853,1618,-0.0272308,-0.0367478
-364,-594,-0.012207,0.036499,0.00207429,-0.00118785,-0.000733946,0.00223181,-0.00134538,-0.211418,0.00208632,0.0105161,860,1618,-0.0122112,-0.0365354
-357,-594,-0.00891113,0.0476074,0.000819298,-0.000985528,-0.000511715,0.000954286,-0.00112052,-0.25792,0.00119917,0.0103182,867,1618,-0.00891733,-0.0476474
-350,-594,-0.00848389,0.0637207,0.000201087,-0.000738362,-0.000371831,0.000330445,-0.00086772,-0.334797,0.000714568,0.0133488,874,1618,-0.00846005,-0.063756
-343,-594,-0.0209351,0.0715332,0.000295027,-0.000421705,-0.000214473,0.000354304,-0.000480981,-0.269649,0.000484097,0.013452,881,1618,-0.0209206,-0.0715477
-336,-594,-0.0316772,0.041748,0.000772841,-0.000199027,-0.000234584,0.000826501,-0.000252686,-0.224876,0.000651767,0.0109929,888,1618,-0.0316722,-0.0417415
-329,-594,-0.0285645,0.0196533,0.00138384,0.000219521,-0.000370873,0.00149194,0.000111422,-0.283615,0.000959642,0.0122466,895,1618,-0.0285729,-0.01964
-322,-594,-0.0265503,-0.000610352,0.00189474,0.000742403,-0.000456319,0.00205355,0.00058359,-0.334918,0.00122188,0.0156474,902,1618,-0.0265396,0.0005999
-315,-594,-0.0172729,0.0405273,0.0021707,0.000595527,-0.000301163,0.00222631,0.00053991,-0.182616,0.00134097,0.0159192,909,1618,-0.0172462,-0.0405516
-308,-594,-0.00500488,0.0452881,0.00191645,0.000199798,5.60827e-05,0.00191828,0.000197967,0.0326235,0.00121824,0.0141644,916,1618,-0.00501158,-0.0453282
-301,-594,-0.0181274,0.0334473,0.00158814,-0.000345592,0.000438656,0.001683,-0.000440446,0.212958,0.00129404,0.0106244,923,1618,-0.0181209,-0.0334957
-294,-594,-0.017334,0.0264893,0.000338131,-0.000169476,0.000541647,0.00068249,-0.000513834,0.566301,0.000692982,0.00921075,930,1618,-0.017316,-0.0264322
-287,-594,-0.0135498,0.0379639,-0.00113137,0.000182607,0.000485316,0.00034242,-0.00129118,1.25268,0.000994771,0.0105856,937,1618,-0.0135336,-0.0379214
-280,-594,-0.00280762,0.0579834,-0.00196565,0.000509473,-3.7772e-05,0.00051005,-0.00196623,-1.55554,0.00150983,0.0141735,944,1618,-0.00283653,-0.0579855
-273,-594,0.0294189,0.0734863,-0.00191512,0.00105105,-0.000388673,0.00110113,-0.0019652,-1.44264,0.00179363,0.0238379,951,1618,0.0294105,-0.0735311
-266,-594,0.0236816,0.0834961,-0.00231782,0.00167481,-0.000670784,0.00178449,-0.0024275,-1.40872,0.00244122,0.0295382,958,1618,0.0236682,-0.0835456
-259,-594,-0.126648,0.059082,-0.00251709,0.00291732,-0.00128657,0.00320652,-0.00280629,-1.34969,0.00347406,0.034318,965,1618,-0.126665,-0.0590467
-252,-594,-0.429138,0.189941,-0.00251714,0.00398091,-0.0021238,0.00461347,-0.0031497,-1.28132,0.00450855,0.0414127,972,1618,-0.429165,-0.189911
-245,-594,-0.552917,0.18103,-0.00157919,0.00559622,-0.00385236,0.00727276,-0.00325573,-1.16032,0.00622436,0.0429019,979,1618,-0.552914,-0.181042
-238,-594,0.0385132,0.0916748,0,0,0,0,0,0,0,-1,986,1618,0.0385263,-0.091689
-231,-594,0.515076,0.337646,0.0035444,0.00989068,-0.0066528,0.0140883,-0.000653249,-1.00792,0.00961737,0.0465149,993,1618,0.515072,-0.337679
-224,-594,0.504883,0.48999,0.0101463,0.0150481,-0.00776493,0.0207397,0.00445465,-0.938267,0.0126067,0.0459453,1000,1618,0.504911,-0.489937
-217,-594,0.349365,0.3927,0.0168303,0.020227,-0.00887114,0.0275609,0.0094964,-0.879975,0.0161666,0.0479065,1007,1618,0.349377,-0.392728
-210,-594,0.363708,0.608398,0,0,0,0,0,0,0,-1,1014,1618,0.363681,-0.60844
-203,-594,-1.41687,3.06775,0,0,0,0,0,0,0,-1,1021,1618,-1.41686,-3.0677
-196,-594,-1.58582,1.95923,0.0361743,0.0452089,-0.0107563,0.0523579,0.0290253,-0.9842,0.0302884,0.0497723,1028,1618,-1.58578,-1.95925
-189,-594,-1.76184,0.834595,0,0,0,0,0,0,0,-1,1035,1618,-1.7619,-0.834628
-182,-594,-1.81238,-0.180908,0.0473228,0.0553275,-0.0104774,0.0625409,0.0401093,-0.967846,0.0365857,0.045353,1042,1618,-1.81243,0.180881
-175,-594,-1.81421,1.9342,0.0488318,0.0628917,-0.00922368,0.067459,0.0442645,-1.11102,0.0395757,0.0429454,1049,1618,-1.81424,-1.93423
-168,-594,-0.896362,1.49097,0,0,0,0,0,0,0,-1,1056,1618,-0.896393,-1.49091
-161,-594,0.0209961,1.30066,0,0,0,0,0,0,0,-1,1063,1618,0.0210274,-1.30072
-154,-594,0.377319,0.930298,0.0354243,0.0786625,-0.0148793,0.083288,0.0307988,-1.2694,0.0486269,0.0414692,1070,1618,0.377349,-0.930352
-147,-594,0.112793,1.02808,0.0237941,0.0737774,-0.0168211,0.078911,0.0186605,-1.27459,0.0476219,0.043176,1077,1618,0.112768,-1.02802
-140,-594,-0.115112,-0.351196,0.0123083,0.068854,-0.0166735,0.0734043,0.00775796,-1.30438,0.0465661,0.042202,1084,1618,-0.115167,0.351229
-133,-594,0,0,0,0,0,0,0,0,0,-1,1091,1618,0,0
-126,-594,0,0,0,0,0,0,0,0,0,-1,1098,1618,0,0
-119,-594,0,0,0,0,0,0,0,0,0,-1,1105,1618,0,0
-112,-594,0,0,0,0,0,0,0,0,0,-1,1112,1618,0,0
-105,-594,0,0,0,0,0,0,0,0,0,-1,1119,1618,0,0
-98,-594,0,0,0,0,0,0,0,0,0,-1,1126,1618,0,0
-91,-594,0,0,0,0,0,0,0,0,0,-1,1133,1618,0,0
-84,-594,0,0,0,0,0,0,0,0,0,-1,1140,1618,0,0
-77,-594,0,0,0,0,0,0,0,0,0,-1,1147,1618,0,0
-70,-594,0,0,0,0,0,0,0,0,0,-1,1154,1618,0,0
-63,-594,0,0,0,0,0,0,0,0,0,-1,1161,1618,0,0
-56,-594,0,0,0,0,0,0,0,0,0,-1,1168,1618,0,0
-49,-594,0,0,0,0,0,0,0,0,0,-1,1175,1618,0,0
-42,-594,0,0,0,0,0,0,0,0,0,-1,1182,1618,0,0
-35,-594,0,0,0,0,0,0,0,0,0,-1,1189,1618,0,0
-28,-594,0,0,0,0,0,0,0,0,0,-1,1196,1618,0,0
-21,-594,0,0,0,0,0,0,0,0,0,-1,1203,1618,0,0
-14,-594,0,0,0,0,0,0,0,0,0,-1,1210,1618,0,0
-7,-594,0,0,0,0,0,0,0,0,0,-1,1217,1618,0,0
0,-594,0,0,0,0,0,0,0,0,0,-1,1224,1618,0,0
7,-594,0,0,0,0,0,0,0,0,0,-1,1231,1618,0,0
14,-594,0,0,0,0,0,0,0,0,0,-1,1238,1618,0,0
21,-594,0,0,0,0,0,0,0,0,0,-1,1245,1618,0,0
28,-594,0,0,0,0,0,0,0,0,0,-1,1252,1618,0,0
35,-594,0,0,0,0,0,0,0,0,0,-1,1259,1618,0,0
42,-594,0,0,0,0,0,0,0,0,0,-1,1266,1618,0,0
49,-594,0,0,0,0,0,0,0,0,0,-1,1273,1618,0,0
56,-594,0,0,0,0,0,0,0,0,0,-1,1280,1618,0,0
63,-594,0,0,0,0,0,0,0,0,0,-1,1287,1618,0,0
70,-594,0,0,0,0,0,0,0,0,0,-1,1294,1618,0,0
77,-594,0,0,0,0,0,0,0,0,0,-1,1301,1618,0,0
84,-594,0,0,0,0,0,0,0,0,0,-1,1308,1618,0,0
91,-594,0,0,0,0,0,0,0,0,0,-1,1315,1618,0,0
98,-594,0,0,0,0,0,0,0,0,0,-1,1322,1618,0,0
105,-594,0,0,0,0,0,0,0,0,0,-1,1329,1618,0,0
112,-594,0,0,0,0,0,0,0,0,0,-1,1336,1618,0,0
119,-594,0,0,0,0,0,0,0,0,0,-1,1343,1618,0,0
126,-594,0,0,0,0,0,0,0,0,0,-1,1350,1618,0,0
133,-594,0,0,0,0,0,0,0,0,0,-1,1357,1618,0,0
140,-594,0,0,0,0,0,0,0,0,0,-1,1364,1618,0,0
147,-594,0,0,0,0,0,0,0,0,0,-1,1371,1618,0,0
154,-594,0,0,0,0,0,0,0,0,0,-1,1378,1618,0,0
161,-594,0,0,0,0,0,0,0,0,0,-1,1385,1618,0,0
168,-594,0,0,0,0,0,0,0,0,0,-1,1392,1618,0,0
175,-594,0,0,0,0,0,0,0,0,0,-1,1399,1618,0,0
182,-594,0,0,0,0,0,0,0,0,0,-1,1406,1618,0,0
189,-594,0,0,0,0,0,0,0,0,0,-1,1413,1618,0,0
196,-594,0,0,0,0,0,0,0,0,0,-1,1420,1618,0,0
203,-594,0,0,0,0,0,0,0,0,0,-1,1427,1618,0,0
210,-594,0,0,0,0,0,0,0,0,0,-1,1434,1618,0,0
217,-594,0,0,0,0,0,0,0,0,0,-1,1441,1618,0,0
224,-594,0,0,0,0,0,0,0,0,0,-1,1448,1618,0,0
231,-594,0,0,0,0,0,0,0,0,0,-1,1455,1618,0,0
238,-594,0,0,0,0,0,0,0,0,0,-1,1462,1618,0,0
245,-594,0,0,0,0,0,0,0,0,0,-1,1469,1618,0,0
252,-594,-0.858765,-0.712891,0,0,0,0,0,0,0,-1,1476,1618,-0.858822,0.712862
259,-594,0.143555,0.0915527,0,0,0,0,0,0,0,-1,1483,1618,0.143579,-0.0914957
266,-594,1.03857,0.774658,0.0166426,-0.0216611,0.00571327,0.0174767,-0.0224951,0.144955,0.0231382,0.0452793,1490,1618,1.0386,-0.774709
273,-594,1.65747,1.54004,0.0124324,-0.0163039,0.00450726,0.0131228,-0.0169943,0.151988,0.0174359,0.0428458,1497,1618,1.6575,-1.54007
280,-594,2.43323,2.34595,0.00721195,-0.0104448,0.00236539,0.00752334,-0.0107562,0.130891,0.0106086,0.0407958,1504,1618,2.43328,-2.34597
287,-594,-0.395386,0.335205,0.00450672,-0.00120011,0.00245027,0.00541439,-0.00210778,0.354766,0.00448061,0.0386107,1511,1618,-0.39538,-0.335201
294,-594,-0.171875,0.686035,0,0,0,0,0,0,0,-1,1518,1618,-0.171929,-0.686085
301,-594,-1.14124,-1.35681,0,0,0,0,0,0,0,-1,1525,1618,-1.14118,1.35687
308,-594,-0.328979,-0.841919,0,0,0,0,0,0,0,-1,1532,1618,-0.329021,0.841865
315,-594,0.181885,-0.328369,-0.00117445,0.0214241,0.00739584,0.0236293,-0.0033797,1.28102,0.0169919,0.040826,1539,1618,0.181893,0.328334
322,-594,0.834473,0.0631104,-0.000477096,0.0267998,0.0085454,0.0292558,-0.00293309,1.29093,0.0205514,0.0436916,1546,1618,0.834432,-0.06316
329,-594,0.953857,0.47876,0.000226653,0.0300246,0.00967265,0.0328891,-0.0026378,1.28288,0.0228561,0.0457467,1553,1618,0.95388,-0.478743
336,-594,0.704468,0.925659,0.00316154,0.0295358,0.0111899,0.0336435,-0.000946242,1.21897,0.022751,0.0463335,1560,1618,0.704444,-0.925719
343,-594,0.243408,1.11023,0.00516599,0.0296892,0.0121975,0.0347229,0.00013233,1.17941,0.0231046,0.04361,1567,1618,0.243467,-1.1102
350,-594,0.54834,-1.03235,0,0,0,0,0,0,0,-1,1574,1618,0.548287,1.03237
357,-594,0.449829,-1.05237,0.00261749,0.0277872,0.00930532,0.0308538,-0.00044909,1.25245,0.0207205,0.0412327,1581,1618,0.449776,1.05239
364,-594,1.00562,-3.80347,0.00193699,0.025798,0.00799259,0.0282278,-0.000492816,1.27567,0.0189849,0.048561,1588,1618,1.00557,3.80351
371,-594,1.5625,-3.49902,0.00110133,0.0247407,0.00715663,0.0267385,-0.000896453,1.29858,0.0181319,0.0472077,1595,1618,1.56249,3.49898
378,-594,-0.0704346,0.116943,0,0,0,0,0,0,0,-1,1602,1618,-0.070473,-0.116919
385,-594,0.206421,0.415161,-0.000142363,0.0197018,0.00516303,0.0209647,-0.0014053,1.3309,0.0144677,0.0436053,1609,1618,0.206402,-0.415175
392,-594,0.164429,0.235229,-0.000809849,0.0164395,0.00398854,0.0173171,-0.00168746,1.35421,0.0121464,0.0437953,1616,1618,0.16445,-0.235194
399,-594,0.144165,0.133057,-0.00154752,0.0119992,0.00290309,0.0125951,-0.00214344,1.36834,0.00919489,0.0377126,1623,1618,0.144176,-0.133031
406,-594,0.000610352,0.0740967,-0.00199031,0.00996633,0.00243659,0.0104438,-0.00246779,1.37729,0.00791443,0.0234789,1630,1618,0.000665422,-0.0740649
413,-594,0.00012207,0.0552979,-0.00257569,0.00883795,0.00220882,0.0092505,-0.00298824,1.38615,0.00736792,0.0159337,1637,1618,0.000152449,-0.0552421
420,-594,-0.0111084,0.0496826,-0.00270951,0.00735008,0.00177012,0.00765247,-0.0030119,1.4016,0.00634841,0.0129899,1644,1618,-0.011081,-0.0497256
427,-594,-0.0172119,0.0544434,-0.00252719,0.00441902,0.00160011,0.0047699,-0.00287807,1.35493,0.00446036,0.0107245,1651,1618,-0.0172613,-0.0544131
434,-594,-0.00830078,0.0432129,-0.00227559,0.0028745,0.00105668,0.00308288,-0.00248397,1.3761,0.00322021,0.0152529,1658,1618,-0.00832548,-0.0432604
441,-594,-0.0217285,0.0338135,-0.00202147,0.00229342,0.000705949,0.00240599,-0.00213403,1.41268,0.00262275,0.014341,1665,1618,-0.0216701,-0.0337695
448,-594,-0.00817871,0.0402832,-0.00168046,0.00189222,0.000744227,0.00204105,-0.00182929,1.37342,0.00223566,0.0134777,1672,1618,-0.00812882,-0.0403284
455,-594,-0.0297852,0.0429688,-0.00133907,0.00168735,0.000882686,0.00192598,-0.0015777,1.30676,0.00202618,0.010506,1679,1618,-0.0297538,-0.0429374
462,-594,-0.0424805,0.0285645,-0.000844736,0.00149103,0.00066589,0.00166753,-0.00102123,1.3117,0.00156724,0.0124715,1686,1618,-0.0424884,-0.0285818
469,-594,-0.0423584,0.026123,-0.000400038,0.00188911,0.000408081,0.00195968,-0.00047061,1.39955,0.00148834,0.0113844,1693,1618,-0.0423277,-0.0260675
476,-594,-0.0285645,0.0367432,-0.000186508,0.00244175,0.000321352,0.00248047,-0.000225229,1.45088,0.00173361,0.0110771,1700,1618,-0.0286195,-0.0368011
483,-594,-0.0290527,0.0286865,0.000211051,0.00274738,0.000710211,0.00293271,2.5723e-05,1.31554,0.00194662,0.0145513,1707,1618,-0.0290602,-0.0286549
490,-594,-0.0274658,0.0223389,0.00120268,0.0030015,0.00108062,0.00350803,0.000696149,1.13246,0.00214464,0.0126397,1714,1618,-0.0274858,-0.0223143
497,-594,-0.0405273,0.0249023,0.0025101,0.00304068,0.00112932,0.00393544,0.00161533,0.900763,0.00228424,0.00891463,1721,1618,-0.0405709,-0.0249175
504,-594,-0.0164795,0.0258789,0.0039464,0.00282607,0.00130138,0.00480305,0.00196942,0.582164,0.00278796,0.00968897,1728,1618,-0.0164387,-0.0258368
511,-594,-0.00646973,0.0405273,0.00545523,0.00272112,0.00139571,0.00604185,0.0021345,0.397885,0.00353797,0.0115093,1735,1618,-0.0064533,-0.0405631
518,-594,0.00402832,0.0551758,0.00721226,0.00222487,0.00148995,0.00762347,0.00181366,0.269285,0.00459856,0.0148843,1742,1618,0.00406066,-0.055227
525,-594,0.0692139,0.114136,0.00938794,0.00198544,0.00160533,0.00972109,0.0016523,0.20462,0.0060062,0.0277582,1749,1618,0.0692035,-0.114112
532,-594,0.0736084,0.130249,0.0116231,0.00197474,0.00183309,0.0119597,0.00163821,0.181564,0.00748702,0.0428885,1756,1618,0.073634,-0.130281
539,-594,0.0106201,0.0020752,0.0139564,0.00245234,0.00212955,0.0143379,0.00207078,0.17729,0.0089486,0.0463265,1763,1618,0.0106115,-0.0020362
546,-594,0.212891,0.290039,0.0165625,0.00408947,0.0024658,0.0170323,0.0036197,0.188258,0.0103613,0.0451239,1770,1618,0.21293,-0.290093
553,-594,0.506104,0.563354,0.0195993,0.00587965,0.00268286,0.0201053,0.00537368,0.186404,0.0120196,0.0427514,1777,1618,0.506058,-0.563388
560,-594,0.299438,-0.668213,0,0,0,0,0,0,0,-1,1784,1618,0.299433,0.668187
567,-594,-0.614136,-0.048584,0.0259814,0.0136555,0.00241133,0.0264364,0.0132006,0.186475,0.015263,0.0415695,1791,1618,-0.614135,0.0486154
574,-594,-0.333008,-0.552856,0.0295503,0.0194686,0.00230744,0.0300533,0.0189656,0.21464,0.0175489,0.0460211,1798,1618,-0.33296,0.552826
581,-594,0,0,0,0,0,0,0,0,0,-1,1805,1618,0,0
588,-594,0,0,0,0,0,0,0,0,0,-1,1812,1618,0,0
595,-594,0,0,0,0,0,0,0,0,0,-1,1819,1618,0,0
602,-594,0,0,0,0,0,0,0,0,0,-1,1826,1618,0,0
609,-594,0,0,0,0,0,0,0,0,0,-1,1833,1618,0,0
616,-594,0,0,0,0,0,0,0,0,0,-1,1840,1618,0,0
623,-594,0,0,0,0,0,0,0,0,0,-1,1847,1618,0,0
630,-594,0,0,0,0,0,0,0,0,0,-1,1854,1618,0,0
637,-594,0,0,0,0,0,0,0,0,0,-1,1861,1618,0,0
644,-594,0,0,0,0,0,0,0,0,0,-1,1868,1618,0,0
651,-594,0,0,0,0,0,0,0,0,0,-1,1875,1618,0,0
658,-594,0,0,0,0,0,0,0,0,0,-1,1882,1618,0,0
665,-594,0,0,0,0,0,0,0,0,0,-1,1889,1618,0,0
672,-594,0,0,0,0,0,0,0,0,0,-1,1896,1618,0,0
679,-594,0,0,0,0,0,0,0,0,0,-1,1903,1618,0,0
686,-594,0,0,0,0,0,0,0,0,0,-1,1910,1618,0,0
693,-594,0,0,0,0,0,0,0,0,0,-1,1917,1618,0,0
700,-594,0,0,0,0,0,0,0,0,0,-1,1924,1618,0,0
707,-594,0,0,0,0,0,0,0,0,0,-1,1931,1618,0,0
714,-594,0,0,0,0,0,0,0,0,0,-1,1938,1618,0,0
721,-594,0,0,0,0,0,0,0,0,0,-1,1945,1618,0,0
728,-594,0,0,0,0,0,0,0,0,0,-1,1952,1618,0,0
735,-594,0,0,0,0,0,0,0,0,0,-1,1959,1618,0,0
742,-594,0,0,0,0,0,0,0,0,0,-1,1966,1618,0,0
749,-594,0,0,0,0,0,0,0,0,0,-1,1973,1618,0,0
756,-594,0,0,0,0,0,0,0,0,0,-1,1980,1618,0,0
763,-594,0,0,0,0,0,0,0,0,0,-1,1987,1618,0,0
770,-594,0,0,0,0,0,0,0,0,0,-1,1994,1618,0,0
777,-594,0,0,0,0,0,0,0,0,0,-1,2001,1618,0,0
784,-594,0,0,0,0,0,0,0,0,0,-1,2008,1618,0,0
791,-594,0,0,0,0,0,0,0,0,0,-1,2015,1618,0,0
798,-594,0,0,0,0,0,0,0,0,0,-1,2022,1618,0,0
805,-594,0,0,0,0,0,0,0,0,0,-1,2029,1618,0,0
812,-594,0,0,0,0,0,0,0,0,0,-1,2036,1618,0,0
-700,-601,0,0,0,0,0,0,0,0,0,-1,524,1625,0,0
-693,-601,0,0,0,0,0,0,0,0,0,-1,531,1625,0,0
-686,-601,0,0,0,0,0,0,0,0,0,-1,538,1625,0,0
-679,-601,0,0,0,0,0,0,0,0,0,-1,545,1625,0,0
-672,-601,0,0,0,0,0,0,0,0,0,-1,552,1625,0,0
-665,-601,0,0,0,0,0,0,0,0,0,-1,559,1625,0,0
-658,-601,0,0,0,0,0,0,0,0,0,-1,566,1625,0,0
-651,-601,0,0,0,0,0,0,0,0,0,-1,573,1625,0,0
-644,-601,0,0,0,0,0,0,0,0,0,-1,580,1625,0,0
-637,-601,0,0,0,0,0,0,0,0,0,-1,587,1625,0,0
-630,-601,0,0,0,0,0,0,0,0,0,-1,594,1625,0,0
-623,-601,0,0,0,0,0,0,0,0,0,-1,601,1625,0,0
-616,-601,0,0,0,0,0,0,0,0,0,-1,608,1625,0,0
-609,-601,0,0,0,0,0,0,0,0,0,-1,615,1625,0,0
-602,-601,0,0,0,0,0,0,0,0,0,-1,622,1625,0,0
-595,-601,0,0,0,0,0,0,0,0,0,-1,629,1625,0,0
-588,-601,0,0,0,0,0,0,0,0,0,-1,636,1625,0,0
-581,-601,0,0,0,0,0,0,0,0,0,-1,643,1625,0,0
-574,-601,0,0,0,0,0,0,0,0,0,-1,650,1625,0,0
-567,-601,0,0,0,0,0,0,0,0,0,-1,657,1625,0,0
-560,-601,0,0,0,0,0,0,0,0,0,-1,664,1625,0,0
-553,-601,0,0,0,0,0,0,0,0,0,-1,671,1625,0,0
-546,-601,0,0,0,0,0,0,0,0,0,-1,678,1625,0,0
-539,-601,0,0,0,0,0,0,0,0,0,-1,685,1625,0,0
-532,-601,0,0,0,0,0,0,0,0,0,-1,692,1625,0,0
-525,-601,0,0,0,0,0,0,0,0,0,-1,699,1625,0,0
-518,-601,0,0,0,0,0,0,0,0,0,-1,706,1625,0,0
-511,-601,0,0,0,0,0,0,0,0,0,-1,713,1625,0,0
-504,-601,0,0,0,0,0,0,0,0,0,-1,720,1625,0,0
-497,-601,0,0,0,0,0,0,0,0,0,-1,727,1625,0,0
-490,-601,0,0,0,0,0,0,0,0,0,-1,734,1625,0,0
-483,-601,0,0,0,0,0,0,0,0,0,-1,741,1625,0,0
-476,-601,0,0,0,0,0,0,0,0,0,-1,748,1625,0,0
-469,-601,0,0,0,0,0,0,0,0,0,-1,755,1625,0,0
-462,-601,0,0,0,0,0,0,0,0,0,-1,762,1625,0,0
-455,-601,0,0,0,0,0,0,0,0,0,-1,769,1625,0,0
-448,-601,-0.325806,0.692017,0,0,0,0,0,0,0,-1,776,1625,-0.325832,-0.692019
-441,-601,-0.0647583,0.571289,0.0236735,0.00145031,0.00606403,0.0252205,-9.66871e-05,0.249782,0.016846,0.0445124,783,1625,-0.0647491,-0.571252
-434,-601,0.0174561,0.615601,0.0221299,0.000255395,0.00143914,0.0222242,0.00016112,0.0654147,0.0147627,0.0467763,790,1625,0.0174648,-0.615645
-427,-601,-0.162659,0.835449,0,0,0,0,0,0,0,-1,797,1625,-0.162684,-0.835394
-420,-601,-0.698975,0.204834,0,0,0,0,0,0,0,-1,804,1625,-0.698973,-0.204847
-413,-601,-0.241089,0.126343,0.0168458,-0.00277074,-0.00534649,0.0182083,-0.00413329,-0.249537,0.0137257,0.0473676,811,1625,-0.241085,-0.126392
-406,-601,0.209778,0.0806885,0.0152528,-0.00301576,-0.00574268,0.016908,-0.00467099,-0.280627,0.0131094,0.0466737,818,1625,0.209783,-0.080643
-399,-601,0.368835,0.0488281,0.012792,-0.00318966,-0.00526031,0.014368,-0.00476566,-0.291092,0.0115012,0.0430607,825,1625,0.368832,-0.0488417
-392,-601,0.292786,-0.0432129,0.00995055,-0.00319923,-0.00467358,0.0114424,-0.00469103,-0.308976,0.00958261,0.0420842,832,1625,0.292788,0.0432448
-385,-601,0.194702,-0.0576172,0.00781878,-0.00323347,-0.00400253,0.00911602,-0.00453071,-0.313422,0.00802582,0.0398544,839,1625,0.194716,0.0576189
-378,-601,-0.0512085,0.0723877,0.00607261,-0.00311851,-0.00340047,0.0071939,-0.0042398,-0.318518,0.00667429,0.0288046,846,1625,-0.0512258,-0.0723462
-371,-601,-0.0203247,0.0407715,0.00459109,-0.00265372,-0.00280666,0.00555117,-0.0036138,-0.329595,0.00533066,0.0143197,853,1625,-0.0203076,-0.0407206
-364,-601,-0.0189209,0.0339355,0.00301518,-0.00209428,-0.00221179,0.0038396,-0.00291871,-0.356788,0.00391397,0.0103668,860,1625,-0.0189058,-0.0339194
-357,-601,-0.026123,0.0272217,0.00148,-0.001878,-0.00176015,0.00223353,-0.00263152,-0.404495,0.00281197,0.00942527,867,1625,-0.0261246,-0.0272105
-350,-601,-0.0209351,0.0300293,0.000620703,-0.00165499,-0.00139201,0.00128074,-0.00231503,-0.442765,0.00210445,0.0178647,874,1625,-0.0209209,-0.0300233
-343,-601,-0.0236206,0.0612793,0.000489888,-0.00140432,-0.00100115,0.00092094,-0.00183537,-0.406566,0.00162029,0.0161428,881,1625,-0.0236478,-0.0612639
-336,-601,-0.0349121,0.0498047,0.000741762,-0.00120281,-0.000801491,0.00102953,-0.00149058,-0.344702,0.00146308,0.0114457,888,1625,-0.0349405,-0.0497743
-329,-601,-0.0160522,0.0489502,0.0011659,-0.000756812,-0.000707212,0.001398,-0.000988919,-0.317124,0.00138482,0.0107734,895,1625,-0.0160643,-0.0489374
-322,-601,-0.00238037,0.0526123,0.001453,-0.000116789,-0.000663695,0.00169599,-0.000359782,-0.350963,0.00126772,0.0114062,902,1625,-0.0023953,-0.0526589
-315,-601,-0.0022583,0.0415039,0.00146679,-0.000355617,-0.000412223,0.00155569,-0.000444523,-0.212422,0.00121277,0.0116897,909,1625,-0.00224755,-0.0414669
-308,-601,-0.0182495,0.0456543,0.00110028,-0.000748648,2.11195e-05,0.00110052,-0.000748889,0.0114206,0.00107417,0.0103088,916,1625,-0.0182689,-0.0456065
-301,-601,-0.0209351,0.0477295,0.000735588,-0.00133113,0.000426009,0.000819956,-0.0014155,0.195514,0.00130582,0.00895993,923,1625,-0.0209524,-0.0477245
-294,-601,-0.0164795,0.0273438,-0.000221826,-0.0013332,0.000534391,-6.56402e-06,-0.00154846,0.382933,0.00103013,0.00901537,930,1625,-0.0165015,-0.0273512
-287,-601,-0.0229492,0.0240479,-0.00128669,-0.00114301,0.000488248,-0.000721345,-0.00170835,0.858439,0.000990286,0.00882593,937,1625,-0.0229535,-0.0240811
-280,-601,-0.0178833,0.0384521,-0.00192449,-0.000948564,9.74706e-05,-0.000938924,-0.00193413,1.47222,0.00111683,0.00918678,944,1625,-0.0178733,-0.038433
-273,-601,-0.00592041,0.0404053,-0.00193614,-0.000531857,-0.000122515,-0.000521249,-0.00194675,-1.48442,0.00116367,0.00903226,951,1625,-0.00590235,-0.0404282
-266,-601,0.0010376,0.0318604,-0.00221269,-1.75913e-05,-0.000306056,2.42824e-05,-0.00225456,-1.43482,0.0015112,0.0107485,958,1625,0.00106269,-0.0318234
-259,-601,-0.0292969,0.00170898,-0.00237543,0.000985711,-0.000733199,0.00113869,-0.0025284,-1.3651,0.00216728,0.0210069,965,1625,-0.0292822,-0.00165976
-252,-601,-0.226501,0.171753,-0.00249919,0.0017957,-0.00132568,0.00217193,-0.00287542,-1.29426,0.00292351,0.0350166,972,1625,-0.226477,-0.171711
-245,-601,-0.294067,0.191406,-0.00190797,0.0031318,-0.00268479,0.00429403,-0.00307019,-1.16226,0.00427126,0.037389,979,1625,-0.294078,-0.191456
-238,-601,-0.184082,0.00317383,-0.00106551,0.00476824,-0.00409353,0.00687781,-0.00317507,-1.09495,0.00593382,0.0418396,986,1625,-0.184069,-0.00322169
-231,-601,-0.0427856,-0.222534,0,0,0,0,0,0,0,-1,993,1625,-0.0427609,0.2225
-224,-601,0.341492,0.209473,0.00639165,0.0112097,-0.00602681,0.0152911,0.00231023,-0.97553,0.00951793,0.0469399,1000,1625,0.341485,-0.209442
-217,-601,0.155762,0.455444,0.0113894,0.015683,-0.0070962,0.02095,0.00612238,-0.932286,0.0124387,0.0469735,1007,1625,0.155785,-0.455503
-210,-601,0.38446,0.431641,0.0170836,0.021797,-0.00787395,0.0276594,0.0112213,-0.930807,0.0160636,0.0495828,1014,1625,0.384462,-0.431681
-203,-601,0.602295,0.437012,0,0,0,0,0,0,0,-1,1021,1625,0.602281,-0.437
-196,-601,-0.463135,1.79541,0,0,0,0,0,0,0,-1,1028,1625,-0.463166,-1.7954
-189,-601,-0.810547,1.15186,0,0,0,0,0,0,0,-1,1035,1625,-0.810512,-1.15188
-182,-601,-1.68176,1.02563,0.0341122,0.0470394,-0.0104136,0.0528323,0.0283193,-1.06314,0.0305291,0.044442,1042,1625,-1.68178,-1.02567
-175,-601,-1.14294,0.84668,0.0348769,0.0528841,-0.010164,0.0574588,0.0303021,-1.14786,0.0331904,0.0491469,1049,1625,-1.14292,-0.846727
-168,-601,-0.483765,0.814819,0.0330574,0.059934,-0.0115488,0.0642147,0.0287767,-1.21583,0.0371408,0.0488169,1056,1625,-0.483769,-0.814802
-161,-601,0.0550537,0.651611,0.0318033,0.0647827,-0.014016,0.0699346,0.0266515,-1.21855,0.0407556,0.0438319,1063,1625,0.055083,-0.651595
-154,-601,0.312378,0.474976,0.0256156,0.0627954,-0.0154569,0.0683819,0.0200291,-1.22398,0.0405935,0.0427159,1070,1625,0.312321,-0.474952
-147,-601,-0.101563,-0.0983887,0.0174276,0.0591943,-0.0168991,0.0651753,0.0114466,-1.23063,0.0401819,0.0421186,1077,1625,-0.10155,0.0984327
-140,-601,-0.0601807,-0.4104,0.00894181,0.0550769,-0.016789,0.0605397,0.00347899,-1.25622,0.0392516,0.0437394,1084,1625,-0.0601204,0.410377
-133,-601,0.097168,-0.527588,0.000636925,0.0530834,-0.0167486,0.0579757,-0.00425532,-1.2866,0.0401441,0.0413145,1091,1625,0.0971631,0.527586
-126,-601,0.175049,-0.481567,-0.00968777,0.0510577,-0.0166251,0.05531,-0.0139401,-1.32039,0.0422929,0.0432618,1098,1625,0.175095,0.481516
-119,-601,0.221558,-0.532471,0,0,0,0,0,0,0,-1,1105,1625,0.221498,0.532499
-112,-601,0,0,0,0,0,0,0,0,0,-1,1112,1625,0,0
-105,-601,0,0,0,0,0,0,0,0,0,-1,1119,1625,0,0
-98,-601,0,0,0,0,0,0,0,0,0,-1,1126,1625,0,0
-91,-601,0,0,0,0,0,0,0,0,0,-1,1133,1625,0,0
-84,-601,0,0,0,0,0,0,0,0,0,-1,1140,1625,0,0
-77,-601,0,0,0,0,0,0,0,0,0,-1,1147,1625,0,0
-70,-601,0,0,0,0,0,0,0,0,0,-1,1154,1625,0,0
-63,-601,0,0,0,0,0,0,0,0,0,-1,1161,1625,0,0
-56,-601,0,0,0,0,0,0,0,0,0,-1,1168,1625,0,0
-49,-601,0,0,0,0,0,0,0,0,0,-1,1175,1625,0,0
-42,-601,0,0,0,0,0,0,0,0,0,-1,1182,1625,0,0
-35,-601,0,0,0,0,0,0,0,0,0,-1,1189,1625,0,0
-28,-601,0,0,0,0,0,0,0,0,0,-1,1196,1625,0,0
-21,-601,0,0,0,0,0,0,0,0,0,-1,1203,1625,0,0
-14,-601,0,0,0,0,0,0,0,0,0,-1,1210,1625,0,0
-7,-601,0,0,0,0,0,0,0,0,0,-1,1217,1625,0,0
0,-601,0,0,0,0,0,0,0,0,0,-1,1224,1625,0,0
7,-601,0,0,0,0,0,0,0,0,0,-1,1231,1625,0,0
14,-601,0,0,0,0,0,0,0,0,0,-1,1238,1625,0,0
21,-601,0,0,0,0,0,0,0,0,0,-1,1245,1625,0,0
28,-601,0,0,0,0,0,0,0,0,0,-1,1252,1625,0,0
35,-601,0,0,0,0,0,0,0,0,0,-1,1259,1625,0,0
42,-601,0,0,0,0,0,0,0,0,0,-1,1266,1625,0,0
49,-601,0,0,0,0,0,0,0,0,0,-1,1273,1625,0,0
56,-601,0,0,0,0,0,0,0,0,0,-1,1280,1625,0,0
63,-601,0,0,0,0,0,0,0,0,0,-1,1287,1625,0,0
70,-601,0,0,0,0,0,0,0,0,0,-1,1294,1625,0,0
77,-601,0,0,0,0,0,0,0,0,0,-1,1301,1625,0,0
84,-601,0,0,0,0,0,0,0,0,0,-1,1308,1625,0,0
91,-601,0,0,0,0,0,0,0,0,0,-1,1315,1625,0,0
98,-601,0,0,0,0,0,0,0,0,0,-1,1322,1625,0,0
105,-601,0,0,0,0,0,0,0,0,0,-1,1329,1625,0,0
112,-601,0,0,0,0,0,0,0,0,0,-1,1336,1625,0,0
119,-601,0,0,0,0,0,0,0,0,0,-1,1343,1625,0,0
126,-601,0,0,0,0,0,0,0,0,0,-1,1350,1625,0,0
133,-601,0,0,0,0,0,0,0,0,0,-1,1357,1625,0,0
140,-601,0,0,0,0,0,0,0,0,0,-1,1364,1625,0,0
147,-601,0,0,0,0,0,0,0,0,0,-1,1371,1625,0,0
154,-601,0,0,0,0,0,0,0,0,0,-1,1378,1625,0,0
161,-601,0,0,0,0,0,0,0,0,0,-1,1385,1625,0,0
168,-601,0,0,0,0,0,0,0,0,0,-1,1392,1625,0,0
175,-601,0,0,0,0,0,0,0,0,0,-1,1399,1625,0,0
182,-601,0,0,0,0,0,0,0,0,0,-1,1406,1625,0,0
189,-601,0,0,0,0,0,0,0,0,0,-1,1413,1625,0,0
196,-601,0,0,0,0,0,0,0,0,0,-1,1420,1625,0,0
203,-601,0,0,0,0,0,0,0,0,0,-1,1427,1625,0,0
210,-601,0,0,0,0,0,0,0,0,0,-1,1434,1625,0,0
217,-601,0,0,0,0,0,0,0,0,0,-1,1441,1625,0,0
224,-601,0,0,0,0,0,0,0,0,0,-1,1448,1625,0,0
231,-601,-0.1604,0.355591,0.0276165,-0.0107511,0.0153098,0.0329767,-0.0161113,0.336778,0.0288932,0.046776,1455,1625,-0.160448,-0.355574
238,-601,-0.230835,0.738281,0.0248736,-0.00961655,0.0133776,0.029454,-0.014197,0.329885,0.02571,0.0460639,1462,1625,-0.230774,-0.738296
245,-601,0.123657,0.811035,0.0250749,-0.00968169,0.0126004,0.0291623,-0.013769,0.313675,0.0253119,0.0440484,1469,1625,0.123647,-0.811081
252,-601,0.574097,1.0719,0,0,0,0,0,0,0,-1,1476,1625,0.574102,-1.07196
259,-601,1.22571,0.969116,0,0,0,0,0,0,0,-1,1483,1625,1.2257,-0.969175
266,-601,1.21143,0.910034,0.0142098,-0.00496733,0.00439022,0.0151671,-0.0059246,0.214686,0.012561,0.0479109,1490,1625,1.21145,-0.910038
273,-601,1.67773,1.86328,0.00989086,-0.00181311,0.00261592,0.0104489,-0.00237118,0.210184,0.00787623,0.0483447,1497,1625,1.67776,-1.86329
280,-601,2.17139,2.41113,0.00487581,0.00154463,0.000464928,0.00493948,0.00148096,0.136104,0.002927,0.0461204,1504,1625,2.17133,-2.41116
287,-601,-0.332153,0.480957,0.00153374,0.00738978,-4.28324e-05,0.0073901,0.00153343,-1.56348,0.00450347,0.0423842,1511,1625,-0.332187,-0.480928
294,-601,-0.172119,0.798218,0,0,0,0,0,0,0,-1,1518,1625,-0.1721,-0.798167
301,-601,1.85522,1.82019,0,0,0,0,0,0,0,-1,1525,1625,1.85519,-1.82024
308,-601,1.68127,1.29236,-0.00496085,0.0201533,0.00207106,0.020323,-0.0051305,1.48907,0.0155437,0.0454268,1532,1625,1.68132,-1.29233
315,-601,1.25818,0.688354,-0.00374474,0.0216118,0.00404039,0.0222401,-0.00437298,1.41654,0.0164789,0.041966,1539,1625,1.25813,-0.688371
322,-601,0.905029,0.308594,-0.00305222,0.0253115,0.00518028,0.026228,-0.00396872,1.39569,0.0189473,0.0431107,1546,1625,0.905035,-0.30863
329,-601,0.924438,0.170776,-0.0021598,0.027407,0.00654083,0.0287894,-0.00354215,1.36252,0.020476,0.0456671,1553,1625,0.924466,-0.170819
336,-601,0.455078,-0.82251,0.0008783,0.0263002,0.00828684,0.0287629,-0.00158441,1.28193,0.0197247,0.0450528,1560,1625,0.45512,0.822532
343,-601,0.450928,-0.981201,0.00314017,0.0262229,0.00963478,0.0297159,-0.000352832,1.22299,0.0199292,0.047609,1567,1625,0.450982,0.981185
350,-601,0.380249,-1.09741,0,0,0,0,0,0,0,-1,1574,1625,0.38029,1.09746
357,-601,0.300049,-1.14954,0.00144181,0.0239359,0.00774263,0.0263433,-0.00096561,1.26934,0.0178928,0.045111,1581,1625,0.30005,1.1495
364,-601,0.288208,-0.790039,0.00108334,0.0219069,0.00673833,0.0238972,-0.0009069,1.2836,0.0162422,0.0450219,1588,1625,0.288156,0.789989
371,-601,-0.110962,0.0377197,0,0,0,0,0,0,0,-1,1595,1625,-0.110986,-0.0377596
378,-601,-0.0640869,0.0731201,9.26232e-05,0.0190382,0.00525315,0.0203973,-0.00126645,1.31763,0.0140394,0.0405867,1602,1625,-0.0640597,-0.0731768
385,-601,-0.0360107,0.112061,-0.000160843,0.0162863,0.00448707,0.0174308,-0.00130536,1.32105,0.0120792,0.0411198,1609,1625,-0.0360177,-0.112119
392,-601,-0.038208,0.0861816,-0.000496883,0.0133919,0.00349098,0.01422,-0.00132498,1.33789,0.0099511,0.0340316,1616,1625,-0.0382107,-0.0861232
399,-601,-0.0335693,0.0726318,-0.00101948,0.00945251,0.00251646,0.0100258,-0.00159281,1.34679,0.0072732,0.0175613,1623,1625,-0.0335665,-0.0726187
406,-601,-0.0211182,0.0568848,-0.00134904,0.00781853,0.00203765,0.00825103,-0.00178154,1.36165,0.00618072,0.0113757,1630,1625,-0.0211641,-0.0568355
413,-601,-0.00720215,0.0336914,-0.00185352,0.00703563,0.00180093,0.00738664,-0.00220453,1.37831,0.00580063,0.0100886,1637,1625,-0.00721402,-0.033668
420,-601,-0.0166016,0.0378418,-0.00196188,0.00596892,0.00133802,0.00618858,-0.00218154,1.40808,0.00501368,0.00923582,1644,1625,-0.0165867,-0.0378469
427,-601,-0.0172119,0.0603027,-0.00183901,0.00362845,0.00116699,0.00386712,-0.00207767,1.36906,0.00348367,0.0126165,1651,1625,-0.0171569,-0.0602927
434,-601,-0.012085,0.0585938,-0.00160061,0.00250605,0.000674013,0.00261384,-0.0017084,1.41221,0.00251363,0.0130499,1658,1625,-0.0120288,-0.0586298
441,-601,0.00524902,0.0357666,-0.00143929,0.00222641,0.000347254,0.00225902,-0.00147189,1.47718,0.00216996,0.0148952,1665,1625,0.00527489,-0.0357464
448,-601,-0.0159912,0.0183105,-0.00130512,0.00215963,0.000406183,0.00220661,-0.0013521,1.45564,0.00207427,0.0126909,1672,1625,-0.0160422,-0.018343
455,-601,-0.029541,0.0280762,-0.00110677,0.00232983,0.000601179,0.00243196,-0.0012089,1.40252,0.00214122,0.011422,1679,1625,-0.0295315,-0.0280166
462,-601,-0.0394287,0.0212402,-0.000729264,0.00238243,0.000435616,0.00244226,-0.000789097,1.4343,0.00194531,0.00993186,1686,1625,-0.0394191,-0.0212144
469,-601,-0.0391846,0.0284424,-0.0003602,0.00304168,0.000216956,0.00305546,-0.000373981,1.50736,0.00217239,0.00999644,1693,1625,-0.0391918,-0.0285029
476,-601,-0.0372314,0.0391846,-0.000225928,0.00382567,0.000299052,0.00384763,-0.000247882,1.49751,0.00265158,0.0124752,1700,1625,-0.0372874,-0.0391511
483,-601,-0.0480957,0.0339355,0.00010626,0.00437866,0.000799463,0.00452335,-3.84366e-05,1.39174,0.00302846,0.0153442,1707,1625,-0.0480805,-0.0339639
490,-601,-0.0462646,0.0340576,0.00106331,0.00483914,0.0012593,0.0052206,0.000681848,1.27667,0.00327685,0.011356,1714,1625,-0.0463072,-0.0339983
497,-601,-0.0273438,0.0354004,0.00250653,0.00509402,0.00135535,0.00567398,0.00192658,1.16647,0.00333162,0.00846227,1721,1625,-0.0274031,-0.035443
504,-601,-0.0174561,0.0175781,0.00421685,0.00509017,0.00166829,0.006378,0.00292902,0.913398,0.00368642,0.0108605,1728,1625,-0.0175074,-0.0176243
511,-601,0.022583,0.0388184,0.00616411,0.00510308,0.00189938,0.00760567,0.00366151,0.649214,0.00439215,0.0206788,1735,1625,0.0225317,-0.0387697
518,-601,0.0540771,0.0627441,0.00840606,0.00471858,0.002104,0.00935985,0.00376478,0.425615,0.00543824,0.0311696,1742,1625,0.0541325,-0.0627893
525,-601,0.123779,0.244751,0.0111993,0.00454308,0.00230496,0.0119195,0.00382284,0.302863,0.00702764,0.0414578,1749,1625,0.12374,-0.244801
532,-601,0.165894,0.526978,0.0142354,0.0045354,0.00253055,0.0148559,0.00391492,0.240453,0.00889105,0.0445535,1756,1625,0.165881,-0.527031
539,-601,0.420898,0.93457,0.0174837,0.00506212,0.00272235,0.0180541,0.00449168,0.206552,0.0108532,0.042826,1763,1625,0.420879,-0.934542
546,-601,-0.188599,0.440674,0,0,0,0,0,0,0,-1,1770,1625,-0.18863,-0.440719
553,-601,0.454468,0.642944,0.0255603,0.00854035,0.00290837,0.0260435,0.00805709,0.164658,0.0153962,0.0419225,1777,1625,0.454423,-0.64298
560,-601,1.08728,0.870117,0.0302941,0.011763,0.00209153,0.0305272,0.0115299,0.111005,0.0177998,0.0425066,1784,1625,1.08724,-0.870126
567,-601,1.73401,1.08789,0,0,0,0,0,0,0,-1,1791,1625,1.73405,-1.0879
574,-601,0,0,0,0,0,0,0,0,0,-1,1798,1625,0,0
581,-601,0,0,0,0,0,0,0,0,0,-1,1805,1625,0,0
588,-601,0,0,0,0,0,0,0,0,0,-1,1812,1625,0,0
595,-601,0,0,0,0,0,0,0,0,0,-1,1819,1625,0,0
602,-601,0,0,0,0,0,0,0,0,0,-1,1826,1625,0,0
609,-601,0,0,0,0,0,0,0,0,0,-1,1833,1625,0,0
616,-601,0,0,0,0,0,0,0,0,0,-1,1840,1625,0,0
623,-601,0,0,0,0,0,0,0,0,0,-1,1847,1625,0,0
630,-601,0,0,0,0,0,0,0,0,0,-1,1854,1625,0,0
637,-601,0,0,0,0,0,0,0,0,0,-1,1861,1625,0,0
644,-601,0,0,0,0,0,0,0,0,0,-1,1868,1625,0,0
651,-601,0,0,0,0,0,0,0,0,0,-1,1875,1625,0,0
658,-601,0,0,0,0,0,0,0,0,0,-1,1882,1625,0,0
665,-601,0,0,0,0,0,0,0,0,0,-1,1889,1625,0,0
672,-601,0,0,0,0,0,0,0,0,0,-1,1896,1625,0,0
679,-601,0,0,0,0,0,0,0,0,0,-1,1903,1625,0,0
686,-601,0,0,0,0,0,0,0,0,0,-1,1910,1625,0,0
693,-601,0,0,0,0,0,0,0,0,0,-1,1917,1625,0,0
700,-601,0,0,0,0,0,0,0,0,0,-1,1924,1625,0,0
707,-601,0,0,0,0,0,0,0,0,0,-1,1931,1625,0,0
714,-601,0,0,0,0,0,0,0,0,0,-1,1938,1625,0,0
721,-601,0,0,0,0,0,0,0,0,0,-1,1945,1625,0,0
728,-601,0,0,0,0,0,0,0,0,0,-1,1952,1625,0,0
735,-601,0,0,0,0,0,0,0,0,0,-1,1959,1625,0,0
742,-601,0,0,0,0,0,0,0,0,0,-1,1966,1625,0,0
749,-601,0,0,0,0,0,0,0,0,0,-1,1973,1625,0,0
756,-601,0,0,0,0,0,0,0,0,0,-1,1980,1625,0,0
763,-601,0,0,0,0,0,0,0,0,0,-1,1987,1625,0,0
770,-601,0,0,0,0,0,0,0,0,0,-1,1994,1625,0,0
777,-601,0,0,0,0,0,0,0,0,0,-1,2001,1625,0,0
784,-601,0,0,0,0,0,0,0,0,0,-1,2008,1625,0,0
791,-601,0,0,0,0,0,0,0,0,0,-1,2015,1625,0,0
798,-601,0,0,0,0,0,0,0,0,0,-1,2022,1625,0,0
805,-601,0,0,0,0,0,0,0,0,0,-1,2029,1625,0,0
812,-601,0,0,0,0,0,0,0,0,0,-1,2036,1625,0,0
-700,-608,0,0,0,0,0,0,0,0,0,-1,524,1632,0,0
-693,-608,0,0,0,0,0,0,0,0,0,-1,531,1632,0,0
-686,-608,0,0,0,0,0,0,0,0,0,-1,538,1632,0,0
-679,-608,0,0,0,0,0,0,0,0,0,-1,545,1632,0,0
-672,-608,0,0,0,0,0,0,0,0,0,-1,552,1632,0,0
-665,-608,0,0,0,0,0,0,0,0,0,-1,559,1632,0,0
-658,-608,0,0,0,0,0,0,0,0,0,-1,566,1632,0,0
-651,-608,0,0,0,0,0,0,0,0,0,-1,573,1632,0,0
-644,-608,0,0,0,0,0,0,0,0,0,-1,580,1632,0,0
-637,-608,0,0,0,0,0,0,0,0,0,-1,587,1632,0,0
-630,-608,0,0,0,0,0,0,0,0,0,-1,594,1632,0,0
-623,-608,0,0,0,0,0,0,0,0,0,-1,601,1632,0,0
-616,-608,0,0,0,0,0,0,0,0,0,-1,608,1632,0,0
-609,-608,0,0,0,0,0,0,0,0,0,-1,615,1632,0,0
-602,-608,0,0,0,0,0,0,0,0,0,-1,622,1632,0,0
-595,-608,0,0,0,0,0,0,0,0,0,-1,629,1632,0,0
-588,-608,0,0,0,0,0,0,0,0,0,-1,636,1632,0,0
-581,-608,0,0,0,0,0,0,0,0,0,-1,643,1632,0,0
-574,-608,0,0,0,0,0,0,0,0,0,-1,650,1632,0,0
-567,-608,0,0,0,0,0,0,0,0,0,-1,657,1632,0,0
-560,-608,0,0,0,0,0,0,0,0,0,-1,664,1632,0,0
-553,-608,0,0,0,0,0,0,0,0,0,-1,671,1632,0,0
-546,-608,0,0,0,0,0,0,0,0,0,-1,678,1632,0,0
-539,-608,0,0,0,0,0,0,0,0,0,-1,685,1632,0,0
-532,-608,0,0,0,0,0,0,0,0,0,-1,692,1632,0,0
-525,-608,0,0,0,0,0,0,0,0,0,-1,699,1632,0,0
-518,-608,0,0,0,0,0,0,0,0,0,-1,706,1632,0,0
-511,-608,0,0,0,0,0,0,0,0,0,-1,713,1632,0,0
-504,-608,0,0,0,0,0,0,0,0,0,-1,720,1632,0,0
-497,-608,0,0,0,0,0,0,0,0,0,-1,727,1632,0,0
-490,-608,0,0,0,0,0,0,0,0,0,-1,734,1632,0,0
-483,-608,0,0,0,0,0,0,0,0,0,-1,741,1632,0,0
-476,-608,0,0,0,0,0,0,0,0,0,-1,748,1632,0,0
-469,-608,0,0,0,0,0,0,0,0,0,-1,755,1632,0,0
-462,-608,0,0,0,0,0,0,0,0,0,-1,762,1632,0,0
-455,-608,0,0,0,0,0,0,0,0,0,-1,769,1632,0,0
-448,-608,0,0,0,0,0,0,0,0,0,-1,776,1632,0,0
-441,-608,-0.079895,0.506836,0.0318514,0.00296688,0.00353861,0.0322786,0.00253968,0.120142,0.0207244,0.0443748,783,1632,-0.0798685,-0.506875
-434,-608,-0.0662842,0.251343,0.0295369,0.00148394,-0.00195958,0.0296731,0.00134772,-0.0694036,0.0193485,0.0446205,790,1632,-0.066314,-0.251374
-427,-608,-2.21747,0.0631104,0,0,0,0,0,0,0,-1,797,1632,-2.21746,-0.0631392
-420,-608,-1.38098,0.129272,0.0242934,-0.00214052,-0.00624746,0.0256956,-0.00354268,-0.220779,0.0184252,0.0479471,804,1632,-1.38095,-0.129218
-413,-608,-0.571594,0.0831299,0.0221644,-0.00241349,-0.0090676,0.0251477,-0.00539672,-0.317845,0.0188237,0.0483025,811,1632,-0.571577,-0.0831725
-406,-608,0.263245,0.223511,0.0199801,-0.00283072,-0.0093823,0.0233433,-0.00619389,-0.344191,0.0179859,0.0421366,818,1632,0.263215,-0.223519
-399,-608,0.525452,-0.0272217,0.0168833,-0.00319476,-0.00873634,0.0201524,-0.00646384,-0.358063,0.01603,0.0404715,825,1632,0.525442,0.0272259
-392,-608,0.582214,-0.0460205,0.0135602,-0.00336048,-0.00793744,0.0167008,-0.00650102,-0.37676,0.0138203,0.0428747,832,1632,0.582225,0.0460669
-385,-608,-0.0998535,0.121216,0.0110364,-0.00355607,-0.00712302,0.0139368,-0.00645653,-0.386693,0.0120352,0.0488752,839,1632,-0.0998363,-0.121227
-378,-608,-0.0733032,0.112427,0.00897896,-0.00357623,-0.0063842,0.0116549,-0.00625219,-0.396909,0.0104944,0.0463126,846,1632,-0.0733312,-0.112479
-371,-608,-0.0524292,0.0825195,0.00724902,-0.0031563,-0.00558128,0.00967646,-0.00558374,-0.410247,0.00891547,0.0353127,853,1632,-0.0524105,-0.0825062
-364,-608,-0.0340576,0.0457764,0.00543078,-0.00253483,-0.00471914,0.00762317,-0.00472722,-0.434907,0.00719554,0.0142821,860,1632,-0.0340359,-0.0457402
-357,-608,-0.0269775,0.036499,0.0036377,-0.00232208,-0.00394357,0.00560063,-0.00428502,-0.46185,0.0057243,0.0109698,867,1632,-0.0269773,-0.0364671
-350,-608,-0.0236816,0.0144043,0.00251557,-0.0021541,-0.00325234,0.00418438,-0.00382291,-0.474081,0.00462458,0.0160712,874,1632,-0.0236787,-0.0144511
-343,-608,-0.013855,0.0266113,0.0021116,-0.00197788,-0.00249853,0.00329542,-0.0031617,-0.442474,0.00372829,0.0181602,881,1632,-0.0138302,-0.0266364
-336,-608,-0.00872803,0.0316162,0.00204966,-0.00181902,-0.00193026,0.00284801,-0.00261736,-0.392171,0.00315637,0.0106815,888,1632,-0.00872648,-0.0316008
-329,-608,-0.0108643,0.0395508,0.00219903,-0.00134231,-0.00147364,0.00273203,-0.00187531,-0.347049,0.00267533,0.0096966,895,1632,-0.0108819,-0.0395977
-322,-608,-0.00579834,0.0479736,0.0022083,-0.000565336,-0.00118874,0.00264806,-0.00100509,-0.354322,0.00217909,0.0105135,902,1632,-0.00576968,-0.0479534
-315,-608,0.000183105,0.0362549,0.00192006,-0.000885126,-0.000729186,0.00209828,-0.00106335,-0.239714,0.00185768,0.00967552,909,1632,0.000164075,-0.0362083
-308,-608,-0.0170898,0.0444336,0.00145411,-0.0012834,-8.35814e-05,0.00145666,-0.00128595,-0.030494,0.00158447,0.0100031,916,1632,-0.0170987,-0.0443949
-301,-608,-0.0133057,0.0444336,0.00103917,-0.00185525,0.000405795,0.00109498,-0.00191107,0.136689,0.00175673,0.0094745,923,1632,-0.0132824,-0.0444752
-294,-608,-0.0154419,0.0321045,0.000371502,-0.00208601,0.000592774,0.000507012,-0.00222152,0.224741,0.00167578,0.00930363,930,1632,-0.0154327,-0.0320486
-287,-608,-0.0188599,0.0231934,-0.000354078,-0.00207243,0.000587383,-0.000172484,-0.00225402,0.299837,0.00144861,0.00869065,937,1632,-0.0188781,-0.0231401
-280,-608,-0.0276489,0.0235596,-0.000873562,-0.00207468,0.000362502,-0.000772637,-0.00217561,0.271534,0.00127354,0.00758503,944,1632,-0.0276346,-0.0234994
-273,-608,-0.0254517,0.0323486,-0.000976749,-0.00184489,0.000298159,-0.000884212,-0.00193743,0.300936,0.00111999,0.00766292,951,1632,-0.0254507,-0.0322973
-266,-608,-0.0264893,0.036377,-0.00126206,-0.00151295,0.00024415,-0.00111301,-0.00166199,0.548087,0.000977798,0.00760641,958,1632,-0.0264993,-0.0363865
-259,-608,-0.0220947,0.0211182,-0.00153194,-0.000824121,3.26403e-05,-0.000822619,-0.00153344,1.52481,0.000886115,0.0107809,965,1632,-0.0221112,-0.0211548
-252,-608,-0.0168457,0.0540771,-0.00192633,-0.000346885,-0.000293354,-0.00029416,-0.00197906,-1.39296,0.00123307,0.022228,972,1632,-0.0168536,-0.054138
-245,-608,-0.0396118,0.117554,-0.00177452,0.000666424,-0.00126752,0.00120554,-0.00231363,-1.16864,0.0020651,0.0304574,979,1632,-0.0395872,-0.117552
-238,-608,-0.00689697,0.00244141,-0.00158124,0.0019949,-0.00232731,0.00314172,-0.00272806,-1.11295,0.00339172,0.0368271,986,1632,-0.00690454,-0.00239336
-231,-608,-0.0128174,-0.0842285,-3.2271e-05,0.00366255,-0.00311429,0.00543615,-0.00180588,-1.0531,0.00435278,0.041629,993,1632,-0.0128145,0.0842621
-224,-608,0.0373535,0.117676,0.00347127,0.00748974,-0.00411661,0.0100613,0.000899729,-1.01243,0.00642863,0.0455724,1000,1632,0.0373636,-0.117636
-217,-608,0.17804,0.264648,0.00707912,0.0113333,-0.00514851,0.0147768,0.00363559,-0.981291,0.00889067,0.0453607,1007,1632,0.178055,-0.264663
-210,-608,0.426514,0.246704,0.011267,0.0166169,-0.00602997,0.0205386,0.00734526,-0.994161,0.0120171,0.0470591,1014,1632,0.426542,-0.246681
-203,-608,0.581787,0.213257,0,0,0,0,0,0,0,-1,1021,1632,0.581767,-0.21329
-196,-608,0.0323486,1.19849,0,0,0,0,0,0,0,-1,1028,1632,0.0323034,-1.19843
-189,-608,-0.590332,0.6604,0.0216294,0.0347934,-0.00952257,0.0397873,0.0166355,-1.08779,0.0230737,0.0416247,1035,1632,-0.590342,-0.660354
-182,-608,-0.967407,0.227539,0.0240685,0.0388078,-0.00979545,0.0436963,0.01918,-1.1079,0.0252907,0.0432758,1042,1632,-0.967388,-0.227574
-175,-608,-0.921631,0.328003,0.0246045,0.043063,-0.0100624,0.0474877,0.0201798,-1.15652,0.0275198,0.0490571,1049,1632,-0.921652,-0.328004
-168,-608,-0.487915,0.119019,0.0236851,0.0475751,-0.0115273,0.0522302,0.0190301,-1.18699,0.0305228,0.0464559,1056,1632,-0.487972,-0.119
-161,-608,0.0352783,-0.163818,0.0226668,0.0503147,-0.0136673,0.0559303,0.0170511,-1.18095,0.033101,0.0445989,1063,1632,0.0352869,0.163877
-154,-608,0.255737,-0.130493,0.0182854,0.0486731,-0.0148087,0.054696,0.0122625,-1.18452,0.0331415,0.0470633,1070,1632,0.255743,0.130463
-147,-608,0.0874023,-0.47522,0.0124644,0.0458599,-0.0159554,0.0522574,0.00606689,-1.18946,0.0330024,0.0474395,1077,1632,0.0873701,0.475176
-140,-608,-0.0129395,-0.441528,0.00614862,0.0422629,-0.0160113,0.0483392,7.23116e-05,-1.20809,0.0322021,0.0479492,1084,1632,-0.0129677,0.441562
-133,-608,0.193237,-0.516235,0.000211398,0.0408369,-0.0156469,0.0461646,-0.00511628,-1.24261,0.0326159,0.0460675,1091,1632,0.193266,0.516257
-126,-608,0.35498,-0.514893,-0.00728589,0.039356,-0.0149132,0.0437167,-0.0116466,-1.28632,0.0337042,0.042695,1098,1632,0.354936,0.514863
-119,-608,0.441528,-0.70459,0,0,0,0,0,0,0,-1,1105,1632,0.441531,0.704585
-112,-608,0.617554,-0.812012,0,0,0,0,0,0,0,-1,1112,1632,0.617526,0.811991
-105,-608,-0.647461,-0.727539,-0.0248793,0.0394966,-0.00543084,0.0399516,-0.0253342,-1.48722,0.0380064,0.0416552,1119,1632,-0.647499,0.727528
-98,-608,-1.6051,-0.616455,-0.0250042,0.0429612,-0.000884715,0.0429727,-0.0250157,-1.55778,0.0397069,0.0465501,1126,1632,-1.60516,0.616502
-91,-608,-1.9668,-0.268799,-0.0232305,0.0437321,0.00490458,0.0440895,-0.0235878,1.49807,0.0396666,0.0433364,1133,1632,-1.96681,0.26881
-84,-608,0,0,0,0,0,0,0,0,0,-1,1140,1632,0,0
-77,-608,0,0,0,0,0,0,0,0,0,-1,1147,1632,0,0
-70,-608,0,0,0,0,0,0,0,0,0,-1,1154,1632,0,0
-63,-608,0,0,0,0,0,0,0,0,0,-1,1161,1632,0,0
-56,-608,0,0,0,0,0,0,0,0,0,-1,1168,1632,0,0
-49,-608,0,0,0,0,0,0,0,0,0,-1,1175,1632,0,0
-42,-608,0,0,0,0,0,0,0,0,0,-1,1182,1632,0,0
-35,-608,0,0,0,0,0,0,0,0,0,-1,1189,1632,0,0
-28,-608,0,0,0,0,0,0,0,0,0,-1,1196,1632,0,0
-21,-608,0,0,0,0,0,0,0,0,0,-1,1203,1632,0,0
-14,-608,0,0,0,0,0,0,0,0,0,-1,1210,1632,0,0
-7,-608,0,0,0,0,0,0,0,0,0,-1,1217,1632,0,0
0,-608,0,0,0,0,0,0,0,0,0,-1,1224,1632,0,0
7,-608,0,0,0,0,0,0,0,0,0,-1,1231,1632,0,0
14,-608,0,0,0,0,0,0,0,0,0,-1,1238,1632,0,0
21,-608,0,0,0,0,0,0,0,0,0,-1,1245,1632,0,0
28,-608,0,0,0,0,0,0,0,0,0,-1,1252,1632,0,0
35,-608,0,0,0,0,0,0,0,0,0,-1,1259,1632,0,0
42,-608,0,0,0,0,0,0,0,0,0,-1,1266,1632,0,0
49,-608,0,0,0,0,0,0,0,0,0,-1,1273,1632,0,0
56,-608,0,0,0,0,0,0,0,0,0,-1,1280,1632,0,0
63,-608,0,0,0,0,0,0,0,0,0,-1,1287,1632,0,0
70,-608,0,0,0,0,0,0,0,0,0,-1,1294,1632,0,0
77,-608,0,0,0,0,0,0,0,0,0,-1,1301,1632,0,0
84,-608,0,0,0,0,0,0,0,0,0,-1,1308,1632,0,0
91,-608,0,0,0,0,0,0,0,0,0,-1,1315,1632,0,0
98,-608,0,0,0,0,0,0,0,0,0,-1,1322,1632,0,0
105,-608,0,0,0,0,0,0,0,0,0,-1,1329,1632,0,0
112,-608,0,0,0,0,0,0,0,0,0,-1,1336,1632,0,0
119,-608,0,0,0,0,0,0,0,0,0,-1,1343,1632,0,0
126,-608,0,0,0,0,0,0,0,0,0,-1,1350,1632,0,0
133,-608,0,0,0,0,0,0,0,0,0,-1,1357,1632,0,0
140,-608,0,0,0,0,0,0,0,0,0,-1,1364,1632,0,0
147,-608,0,0,0,0,0,0,0,0,0,-1,1371,1632,0,0
154,-608,0,0,0,0,0,0,0,0,0,-1,1378,1632,0,0
161,-608,0,0,0,0,0,0,0,0,0,-1,1385,1632,0,0
168,-608,0,0,0,0,0,0,0,0,0,-1,1392,1632,0,0
175,-608,0,0,0,0,0,0,0,0,0,-1,1399,1632,0,0
182,-608,0,0,0,0,0,0,0,0,0,-1,1406,1632,0,0
189,-608,0,0,0,0,0,0,0,0,0,-1,1413,1632,0,0
196,-608,0,0,0,0,0,0,0,0,0,-1,1420,1632,0,0
203,-608,0,0,0,0,0,0,0,0,0,-1,1427,1632,0,0
210,-608,-0.088623,-0.26062,0.00850282,-0.0135765,0.00315052,0.00894357,-0.0140173,0.138996,0.0133639,0.0464893,1434,1632,-0.0885826,0.26057
217,-608,-0.285278,-0.408813,0.0140996,-0.0100933,0.0070133,0.0159856,-0.0119793,0.26271,0.0162007,0.0467455,1441,1632,-0.285222,0.408826
224,-608,0.0378418,0.212402,0.0212906,-0.00790483,0.0111657,0.0250713,-0.0116855,0.326483,0.0216856,0.0407716,1448,1632,0.0378809,-0.212387
231,-608,-0.307007,0.517578,0.0224836,-0.00263241,0.0127588,0.0278278,-0.00797664,0.396664,0.021705,0.0438269,1455,1632,-0.307052,-0.517624
238,-608,-0.37915,0.828979,0.0202931,-0.00020897,0.011419,0.0253874,-0.00530319,0.419621,0.0189417,0.0470138,1462,1632,-0.379173,-0.829006
245,-608,0.0709229,0.998169,0.0204355,0.000576783,0.0109843,0.0253131,-0.00430089,0.417901,0.0184767,0.042497,1469,1632,0.0708689,-0.998181
252,-608,0.488403,1.18433,0.0190638,0.00168247,0.00895874,0.0228546,-0.00210833,0.400293,0.0159856,0.0435765,1476,1632,0.488427,-1.18431
259,-608,1.13965,1.10559,0.015058,0.00391714,0.00622331,0.0178398,0.00113538,0.420349,0.0115334,0.047576,1483,1632,1.13963,-1.10555
266,-608,0.997681,1.70129,0,0,0,0,0,0,0,-1,1490,1632,0.997646,-1.70131
273,-608,1.76709,2.21057,0.00779167,0.00747966,0.00234343,0.00998428,0.00528705,0.752161,0.00576778,0.0487797,1497,1632,1.76704,-2.21061
280,-608,2.28235,2.70398,0.00329494,0.00924829,0.000292958,0.00926267,0.00328055,1.52175,0.0054231,0.0488132,1504,1632,2.28238,-2.70401
287,-608,-0.237183,0.540039,-0.000124121,0.0127067,-0.000676593,0.0127423,-0.0001597,-1.51826,0.00854861,0.0453518,1511,1632,-0.237192,-0.540053
294,-608,-0.159302,0.613281,-0.00349179,0.017136,-0.00066469,0.0171574,-0.00351319,-1.53862,0.0127714,0.0447851,1518,1632,-0.15932,-0.61331
301,-608,1.08923,1.73047,0,0,0,0,0,0,0,-1,1525,1632,1.0892,-1.73041
308,-608,1.03406,1.1593,-0.00610586,0.0202415,0.000384414,0.0202471,-0.00611147,1.55621,0.0159309,0.0481493,1532,1632,1.034,-1.15928
315,-608,0.987427,0.596802,-0.005238,0.0204145,0.00201675,0.0205721,-0.00539558,1.49282,0.0158229,0.0429194,1539,1632,0.987469,-0.596797
322,-608,0.871216,0.0603027,-0.00470806,0.0226534,0.00299551,0.0229776,-0.00503217,1.46302,0.0172423,0.0428138,1546,1632,0.871199,-0.0602796
329,-608,0.788086,-0.327637,-0.00383853,0.0236237,0.00421908,0.0242573,-0.0044721,1.42174,0.0178499,0.0459259,1553,1632,0.788143,0.327609
336,-608,0.45752,-0.56897,-0.0008967,0.0220064,0.00584992,0.0234141,-0.00230437,1.33466,0.0164315,0.0449352,1560,1632,0.457521,0.568959
343,-608,0.228516,-0.255859,0,0,0,0,0,0,0,-1,1567,1632,0.228569,0.255811
350,-608,0.21228,-1.1626,0,0,0,0,0,0,0,-1,1574,1632,0.212294,1.16256
357,-608,-0.283325,-1.60339,0,0,0,0,0,0,0,-1,1581,1632,-0.283326,1.60339
364,-608,0.545044,0.571655,0,0,0,0,0,0,0,-1,1588,1632,0.545043,-0.571662
371,-608,-0.152832,0.081665,0.00040866,0.0166356,0.00486934,0.0179846,-0.000940369,1.30053,0.0123152,0.0390276,1595,1632,-0.152888,-0.081612
378,-608,-0.0238037,0.0159912,0.000218401,0.0150624,0.00422683,0.0161816,-0.000900807,1.31195,0.0111002,0.032564,1602,1632,-0.0237853,-0.0159522
385,-608,-0.00598145,0.0788574,0.000233235,0.0128498,0.00363401,0.0138216,-0.000738624,1.30948,0.00947025,0.027949,1609,1632,-0.005972,-0.0787974
392,-608,-0.0270996,0.052124,0.000157684,0.0105089,0.00284679,0.0112402,-0.00057358,1.31936,0.00769178,0.0175155,1616,1632,-0.0271088,-0.0520668
399,-608,-0.0273438,0.0476074,-0.000232256,0.007253,0.00203344,0.00776973,-0.00074899,1.32195,0.00544668,0.00869517,1623,1632,-0.0272832,-0.0476031
406,-608,-0.0161133,0.0430908,-0.000554384,0.00602261,0.00159975,0.00639108,-0.000922854,1.34441,0.0045993,0.00850742,1630,1632,-0.0161601,-0.0431011
413,-608,-0.00720215,0.0330811,-0.00100123,0.00553255,0.00137977,0.00581198,-0.00128065,1.37098,0.00436462,0.00888602,1637,1632,-0.00720808,-0.0330663
420,-608,-0.0178223,0.0306396,-0.00107838,0.004894,0.000914536,0.0050309,-0.00121529,1.4222,0.00382395,0.0147972,1644,1632,-0.0178297,-0.0305878
427,-608,-0.00646973,0.0264893,-0.00101592,0.0031488,0.000744243,0.00327781,-0.00114492,1.39917,0.00265059,0.0162292,1651,1632,-0.00648137,-0.0264961
434,-608,-0.00354004,0.0355225,-0.000840624,0.00251362,0.000285564,0.00253776,-0.000864762,1.48647,0.00204207,0.0130559,1658,1632,-0.00358138,-0.035558
441,-608,-0.0163574,0.043457,-0.000828973,0.00256477,-6.7547e-05,0.00256612,-0.000830317,-1.5509,0.00204451,0.0120255,1665,1632,-0.0163477,-0.0434888
448,-608,-0.0167236,0.0273438,-0.000979218,0.00287507,-7.53582e-05,0.00287654,-0.000980691,-1.55125,0.0023149,0.015132,1672,1632,-0.0166967,-0.0273897
455,-608,-0.00671387,0.0294189,-0.000940077,0.00340966,9.58358e-05,0.00341177,-0.000942188,1.54878,0.00264511,0.0114705,1679,1632,-0.00665817,-0.0293801
462,-608,-0.0228271,0.03125,-0.000708857,0.00380348,-0.000112793,0.0038063,-0.000711674,-1.54582,0.00280501,0.00959117,1686,1632,-0.0228398,-0.0312801
469,-608,-0.0450439,0.0383301,-0.000477782,0.00481376,-0.000373539,0.00484,-0.000504021,-1.50067,0.00340712,0.00771424,1693,1632,-0.0450158,-0.0383756
476,-608,-0.0439453,0.0388184,-0.000531348,0.00592891,-0.000226095,0.00593681,-0.000539251,-1.53586,0.00414932,0.0078511,1700,1632,-0.0439145,-0.0387912
483,-608,-0.0377197,0.0289307,-0.000368118,0.00679867,0.000316296,0.0068126,-0.00038205,1.52678,0.00467429,0.00753271,1707,1632,-0.0377434,-0.0289467
490,-608,-0.0174561,0.0338135,0.00042931,0.00755384,0.000831844,0.00764968,0.000333474,1.45609,0.00499234,0.00801928,1714,1632,-0.017457,-0.0337865
497,-608,-0.0219727,0.0349121,0.00187803,0.00809819,0.000952674,0.00824083,0.00173539,1.42217,0.0050165,0.0105708,1721,1632,-0.0220057,-0.0349553
504,-608,-0.0545654,-0.00549316,0.00375125,0.00840525,0.00141873,0.00880363,0.00335287,1.29704,0.00513066,0.0222378,1728,1632,-0.0545259,0.00543291
511,-608,-0.0184326,0.0244141,0.00609952,0.00859759,0.00182632,0.00956114,0.00513597,1.08532,0.00552521,0.0359601,1735,1632,-0.0183787,-0.024402
518,-608,0.0744629,0.0527344,0.0087689,0.00842666,0.0022206,0.010825,0.0063706,0.746945,0.00628235,0.0423199,1742,1632,0.0744214,-0.0527126
525,-608,0.0345459,0.214111,0.0121905,0.00839448,0.00262153,0.013529,0.007056,0.472067,0.0078134,0.0440101,1749,1632,0.0345768,-0.21407
532,-608,-0.0731201,0.609497,0.0161894,0.00849203,0.00287145,0.0171426,0.00753889,0.320494,0.00992118,0.0424075,1756,1632,-0.0731621,-0.609553
539,-608,-0.279907,1.39038,0.0207102,0.00907902,0.00302433,0.0214496,0.00833964,0.239774,0.0124856,0.0391764,1763,1632,-0.279851,-1.39044
546,-608,-0.178345,0.376831,0.0259196,0.0106164,0.00312871,0.0265346,0.0100015,0.194076,0.0154737,0.0449738,1770,1632,-0.178346,-0.37686
553,-608,0.421143,0.664795,0.0322437,0.0127191,0.00294581,0.0326785,0.0122843,0.146532,0.0190596,0.0438329,1777,1632,0.421108,-0.664747
560,-608,1.02136,0.93335,0.0386702,0.0160449,0.00169904,0.0387971,0.015918,0.0745372,0.0225194,0.0446014,1784,1632,1.02139,-0.933305
567,-608,0,0,0,0,0,0,0,0,0,-1,1791,1632,0,0
574,-608,0,0,0,0,0,0,0,0,0,-1,1798,1632,0,0
581,-608,0,0,0,0,0,0,0,0,0,-1,1805,1632,0,0
588,-608,0,0,0,0,0,0,0,0,0,-1,1812,1632,0,0
595,-608,0,0,0,0,0,0,0,0,0,-1,1819,1632,0,0
602,-608,0,0,0,0,0,0,0,0,0,-1,1826,1632,0,0
609,-608,0,0,0,0,0,0,0,0,0,-1,1833,1632,0,0
616,-608,0,0,0,0,0,0,0,0,0,-1,1840,1632,0,0
623,-608,0,0,0,0,0,0,0,0,0,-1,1847,1632,0,0
630,-608,0,0,0,0,0,0,0,0,0,-1,1854,1632,0,0
637,-608,0,0,0,0,0,0,0,0,0,-1,1861,1632,0,0
644,-608,0,0,0,0,0,0,0,0,0,-1,1868,1632,0,0
651,-608,0,0,0,0,0,0,0,0,0,-1,1875,1632,0,0
658,-608,0,0,0,0,0,0,0,0,0,-1,1882,1632,0,0
665,-608,0,0,0,0,0,0,0,0,0,-1,1889,1632,0,0
672,-608,0,0,0,0,0,0,0,0,0,-1,1896,1632,0,0
679,-608,0,0,0,0,0,0,0,0,0,-1,1903,1632,0,0
686,-608,0,0,0,0,0,0,0,0,0,-1,1910,1632,0,0
693,-608,0,0,0,0,0,0,0,0,0,-1,1917,1632,0,0
700,-608,0,0,0,0,0,0,0,0,0,-1,1924,1632,0,0
707,-608,0,0,0,0,0,0,0,0,0,-1,1931,1632,0,0
714,-608,0,0,0,0,0,0,0,0,0,-1,1938,1632,0,0
721,-608,0,0,0,0,0,0,0,0,0,-1,1945,1632,0,0
728,-608,0,0,0,0,0,0,0,0,0,-1,1952,1632,0,0
735,-608,0,0,0,0,0,0,0,0,0,-1,1959,1632,0,0
742,-608,0,0,0,0,0,0,0,0,0,-1,1966,1632,0,0
749,-608,0,0,0,0,0,0,0,0,0,-1,1973,1632,0,0
756,-608,0,0,0,0,0,0,0,0,0,-1,1980,1632,0,0
763,-608,0,0,0,0,0,0,0,0,0,-1,1987,1632,0,0
770,-608,0,0,0,0,0,0,0,0,0,-1,1994,1632,0,0
777,-608,0,0,0,0,0,0,0,0,0,-1,2001,1632,0,0
784,-608,0,0,0,0,0,0,0,0,0,-1,2008,1632,0,0
791,-608,0,0,0,0,0,0,0,0,0,-1,2015,1632,0,0
798,-608,0,0,0,0,0,0,0,0,0,-1,2022,1632,0,0
805,-608,0,0,0,0,0,0,0,0,0,-1,2029,1632,0,0
812,-608,0,0,0,0,0,0,0,0,0,-1,2036,1632,0,0
-700,-615,0,0,0,0,0,0,0,0,0,-1,524,1639,0,0
-693,-615,0,0,0,0,0,0,0,0,0,-1,531,1639,0,0
-686,-615,0,0,0,0,0,0,0,0,0,-1,538,1639,0,0
-679,-615,0,0,0,0,0,0,0,0,0,-1,545,1639,0,0
-672,-615,0,0,0,0,0,0,0,0,0,-1,552,1639,0,0
-665,-615,0,0,0,0,0,0,0,0,0,-1,559,1639,0,0
-658,-615,0,0,0,0,0,0,0,0,0,-1,566,1639,0,0
-651,-615,0,0,0,0,0,0,0,0,0,-1,573,1639,0,0
-644,-615,0,0,0,0,0,0,0,0,0,-1,580,1639,0,0
-637,-615,0,0,0,0,0,0,0,0,0,-1,587,1639,0,0
-630,-615,0,0,0,0,0,0,0,0,0,-1,594,1639,0,0
-623,-615,0,0,0,0,0,0,0,0,0,-1,601,1639,0,0
-616,-615,0,0,0,0,0,0,0,0,0,-1,608,1639,0,0
-609,-615,0,0,0,0,0,0,0,0,0,-1,615,1639,0,0
-602,-615,0,0,0,0,0,0,0,0,0,-1,622,1639,0,0
-595,-615,0,0,0,0,0,0,0,0,0,-1,629,1639,0,0
-588,-615,0,0,0,0,0,0,0,0,0,-1,636,1639,0,0
-581,-615,0,0,0,0,0,0,0,0,0,-1,643,1639,0,0
-574,-615,0,0,0,0,0,0,0,0,0,-1,650,1639,0,0
-567,-615,0,0,0,0,0,0,0,0,0,-1,657,1639,0,0
-560,-615,0,0,0,0,0,0,0,0,0,-1,664,1639,0,0
-553,-615,0,0,0,0,0,0,0,0,0,-1,671,1639,0,0
-546,-615,0,0,0,0,0,0,0,0,0,-1,678,1639,0,0
-539,-615,0,0,0,0,0,0,0,0,0,-1,685,1639,0,0
-532,-615,0,0,0,0,0,0,0,0,0,-1,692,1639,0,0
-525,-615,0,0,0,0,0,0,0,0,0,-1,699,1639,0,0
-518,-615,0,0,0,0,0,0,0,0,0,-1,706,1639,0,0
-511,-615,0,0,0,0,0,0,0,0,0,-1,713,1639,0,0
-504,-615,0,0,0,0,0,0,0,0,0,-1,720,1639,0,0
-497,-615,0,0,0,0,0,0,0,0,0,-1,727,1639,0,0
-490,-615,0,0,0,0,0,0,0,0,0,-1,734,1639,0,0
-483,-615,0,0,0,0,0,0,0,0,0,-1,741,1639,0,0
-476,-615,0,0,0,0,0,0,0,0,0,-1,748,1639,0,0
-469,-615,0,0,0,0,0,0,0,0,0,-1,755,1639,0,0
-462,-615,0,0,0,0,0,0,0,0,0,-1,762,1639,0,0
-455,-615,0,0,0,0,0,0,0,0,0,-1,769,1639,0,0
-448,-615,0,0,0,0,0,0,0,0,0,-1,776,1639,0,0
-441,-615,0,0,0,0,0,0,0,0,0,-1,783,1639,0,0
-434,-615,-0.0414429,-0.067749,0,0,0,0,0,0,0,-1,790,1639,-0.0414573,0.0677213
-427,-615,-1.80792,0.579224,0,0,0,0,0,0,0,-1,797,1639,-1.80794,-0.579175
-420,-615,-1.31659,0.496094,0.0308269,-0.000960748,-0.0114648,0.0345304,-0.00466428,-0.312452,0.0247221,0.0475687,804,1639,-1.31661,-0.496132
-413,-615,-0.819946,0.357544,0.0277327,-0.00149243,-0.0140493,0.033391,-0.00715077,-0.382874,0.0249877,0.0466591,811,1639,-0.819953,-0.357601
-406,-615,-0.394592,0.297607,0.0246009,-0.00212618,-0.0142104,0.0307443,-0.00826956,-0.40805,0.0237378,0.0449312,818,1639,-0.394599,-0.297609
-399,-615,0.336121,-0.210571,0,0,0,0,0,0,0,-1,825,1639,0.336112,0.21054
-392,-615,0.545105,-0.187256,0,0,0,0,0,0,0,-1,832,1639,0.545091,0.187225
-385,-615,0.754089,-0.16394,0,0,0,0,0,0,0,-1,839,1639,0.754069,0.16391
-378,-615,-0.126709,0.171631,0,0,0,0,0,0,0,-1,846,1639,-0.126701,-0.171677
-371,-615,-0.111694,0.280518,0.00974587,-0.00364189,-0.00954727,0.0147121,-0.00860813,-0.479656,0.0136168,0.0404132,853,1639,-0.11167,-0.280461
-364,-615,-0.0701294,0.124268,0.00780091,-0.00307911,-0.0083458,0.0123231,-0.00760133,-0.496569,0.0116106,0.0283229,860,1639,-0.0701439,-0.124321
-357,-615,0.00128174,0.0340576,0.00591474,-0.00295777,-0.00719785,0.00993362,-0.00697665,-0.509228,0.00981278,0.023691,867,1639,0.00129859,-0.0340089
-350,-615,-0.0134888,-0.00866699,0.00467012,-0.00291784,-0.00611843,0.00807541,-0.00632313,-0.507867,0.00833349,0.0207004,874,1639,-0.0134611,0.00869175
-343,-615,0.0103149,0.00585938,0.00406524,-0.00286899,-0.00494516,0.00663761,-0.00544137,-0.479662,0.0069852,0.0174056,881,1639,0.0103453,-0.0059009
-336,-615,-0.00726318,0.0333252,0.00374619,-0.00278353,-0.00394075,0.00559883,-0.00463617,-0.439463,0.00591788,0.00953102,888,1639,-0.00729152,-0.0333794
-329,-615,-0.0145264,0.0374756,0.00367343,-0.00224557,-0.0030323,0.00495109,-0.00352322,-0.398773,0.00491574,0.0090304,895,1639,-0.0145286,-0.0374435
-322,-615,-0.0123291,0.0415039,0.00343053,-0.00127284,-0.00241389,0.0044489,-0.00229121,-0.399226,0.00395731,0.00921133,902,1639,-0.0123347,-0.0414783
-315,-615,-0.003479,0.0391846,0.00282099,-0.00158587,-0.0016727,0.00338398,-0.00214885,-0.324662,0.0032208,0.0103858,909,1639,-0.00346701,-0.0391693
-308,-615,-0.012146,0.0224609,0.001972,-0.00193531,-0.000653926,0.00207853,-0.00204185,-0.161499,0.00237894,0.0156446,916,1639,-0.0121243,-0.0224576
-301,-615,-0.0139771,0.0224609,0.00131412,-0.0023658,3.74408e-05,0.0013145,-0.00236618,0.0101729,0.00215376,0.0115716,923,1639,-0.0139933,-0.0225176
-294,-615,-0.0216675,0.0354004,0.000824446,-0.00252132,0.000226232,0.000839674,-0.00253654,0.0672097,0.00202967,0.00926635,930,1639,-0.0216549,-0.0354127
-287,-615,-0.0230103,0.0328369,0.000308765,-0.00247691,0.00032373,0.000345891,-0.00251403,0.114185,0.00180242,0.00695349,937,1639,-0.0229966,-0.0328034
-280,-615,-0.0180054,0.019043,-0.000172283,-0.00245685,0.000266518,-0.000141603,-0.00248753,0.11461,0.00161323,0.00744678,944,1639,-0.0180216,-0.0190004
-273,-615,-0.0186768,0.03479,-0.000439255,-0.00232445,0.000316742,-0.00038746,-0.00237624,0.162089,0.0014721,0.00783474,951,1639,-0.018693,-0.0347431
-266,-615,-0.0153809,0.0548096,-0.000727438,-0.00208276,0.000331921,-0.000650515,-0.00215968,0.227728,0.00127932,0.00834697,958,1639,-0.0153831,-0.0548131
-259,-615,-0.00531006,0.0487061,-0.00102302,-0.00159897,0.000256853,-0.000925114,-0.00169687,0.364168,0.000981023,0.0106044,965,1639,-0.00529037,-0.0486565
-252,-615,-0.0154419,0.0351563,-0.00152751,-0.00136157,0.000114628,-0.00130304,-0.00158604,1.09867,0.00097679,0.0115373,972,1639,-0.0154591,-0.0351051
-245,-615,-0.0188599,0.026001,-0.00158224,-0.000619631,-0.000559035,-0.000363255,-0.00183862,-1.14081,0.00112439,0.0151696,979,1639,-0.0188552,-0.0260259
-238,-615,0.00427246,0.0100098,-0.00171123,0.000422432,-0.00134721,0.00107406,-0.00236286,-1.12028,0.00203028,0.0221233,986,1639,0.00427237,-0.00998062
-231,-615,0.0116577,0.0616455,-0.000845438,0.00177095,-0.00203993,0.00288612,-0.00196061,-1.07051,0.00281522,0.0302577,993,1639,0.0116317,-0.0616814
-224,-615,0.0386353,0.0709229,0.00150786,0.00491732,-0.00295357,0.00662282,-0.000197646,-1.04713,0.00448255,0.038936,1000,1639,0.0386267,-0.0709136
-217,-615,0.219055,0.0838623,0.00398132,0.00809231,-0.00387259,0.0104211,0.00165252,-1.02938,0.00646733,0.0428283,1007,1639,0.21905,-0.0838391
-210,-615,0.325562,-0.160034,0.00690263,0.0124989,-0.00473894,0.0152042,0.00419741,-1.05209,0.00906684,0.0480264,1014,1639,0.325558,0.16008
-203,-615,-0.385681,-0.405273,0.00933752,0.0175989,-0.00578812,0.0205791,0.0063573,-1.09531,0.0121671,0.0479361,1021,1639,-0.385705,0.405259
-196,-615,-0.51123,0.573242,0,0,0,0,0,0,0,-1,1028,1639,-0.511272,-0.573252
-189,-615,-0.568237,0.413208,0.0143629,0.0277976,-0.00827204,0.0317362,0.0104243,-1.12642,0.0186789,0.0458948,1035,1639,-0.568285,-0.413236
-182,-615,-0.645996,0.21582,0.0161162,0.0310675,-0.00874285,0.0350951,0.0120887,-1.13911,0.0205864,0.0469841,1042,1639,-0.645985,-0.215844
-175,-615,-0.569092,-0.0646973,0.0168252,0.0340844,-0.00924048,0.0380982,0.0128113,-1.16101,0.0223857,0.0469615,1049,1639,-0.569054,0.0647404
-168,-615,-0.345703,-0.367432,0.0168292,0.0368202,-0.010579,0.0413789,0.0122705,-1.16392,0.0245406,0.0449259,1056,1639,-0.345681,0.367424
-161,-615,-0.186035,-0.571289,0,0,0,0,0,0,0,-1,1063,1639,-0.186055,0.571306
-154,-615,0.515991,-0.987671,0,0,0,0,0,0,0,-1,1070,1639,0.516014,0.987657
-147,-615,0.333496,-0.712402,0,0,0,0,0,0,0,-1,1077,1639,0.333504,0.71241
-140,-615,0.249634,-0.421631,0.00423497,0.0316016,-0.0142034,0.0376406,-0.00180404,-1.16877,0.0257162,0.0481144,1084,1639,0.249605,0.42169
-133,-615,0.217529,-0.294678,-0.000227459,0.0305117,-0.0135314,0.0356195,-0.00533525,-1.20986,0.0257099,0.0440196,1091,1639,0.217522,0.294674
-126,-615,0.168823,-0.36731,-0.00598083,0.0293607,-0.0123269,0.0332354,-0.00985554,-1.26624,0.0260707,0.0409444,1098,1639,0.168808,0.367305
-119,-615,0.0749512,-0.455811,0,0,0,0,0,0,0,-1,1105,1639,0.0749002,0.455762
-112,-615,-0.266846,-0.877686,-0.017524,0.0280873,-0.00816145,0.0295037,-0.0189404,-1.39896,0.02819,0.0385094,1112,1639,-0.266878,0.877705
-105,-615,-0.66626,-1.04871,-0.0195865,0.0296944,-0.00437625,0.03008,-0.0199721,-1.48291,0.0290933,0.0371696,1119,1639,-0.666203,1.04876
-98,-615,-1.28369,-0.832275,-0.0196238,0.0319835,-0.000431495,0.0319871,-0.0196274,-1.56244,0.0300831,0.0430817,1126,1639,-1.28364,0.832295
-91,-615,-1.64465,-0.463745,-0.0182353,0.0320792,0.00416586,0.0324218,-0.0185779,1.48874,0.0298041,0.0443156,1133,1639,-1.64468,0.463782
-84,-615,-1.35559,0.616089,-0.0163325,0.0354775,0.00893626,0.0369755,-0.0178305,1.40471,0.0322794,0.0435733,1140,1639,-1.35553,-0.616144
-77,-615,-1.10657,1.27014,0,0,0,0,0,0,0,-1,1147,1639,-1.10657,-1.27019
-70,-615,0.702759,-0.944946,0,0,0,0,0,0,0,-1,1154,1639,0.702774,0.944908
-63,-615,0.471069,-0.775513,0,0,0,0,0,0,0,-1,1161,1639,0.471057,0.775506
-56,-615,0,0,0,0,0,0,0,0,0,-1,1168,1639,0,0
-49,-615,0,0,0,0,0,0,0,0,0,-1,1175,1639,0,0
-42,-615,0,0,0,0,0,0,0,0,0,-1,1182,1639,0,0
-35,-615,0,0,0,0,0,0,0,0,0,-1,1189,1639,0,0
-28,-615,0,0,0,0,0,0,0,0,0,-1,1196,1639,0,0
-21,-615,0,0,0,0,0,0,0,0,0,-1,1203,1639,0,0
-14,-615,0,0,0,0,0,0,0,0,0,-1,1210,1639,0,0
-7,-615,0,0,0,0,0,0,0,0,0,-1,1217,1639,0,0
0,-615,0,0,0,0,0,0,0,0,0,-1,1224,1639,0,0
7,-615,0,0,0,0,0,0,0,0,0,-1,1231,1639,0,0
14,-615,0,0,0,0,0,0,0,0,0,-1,1238,1639,0,0
21,-615,0,0,0,0,0,0,0,0,0,-1,1245,1639,0,0
28,-615,0,0,0,0,0,0,0,0,0,-1,1252,1639,0,0
35,-615,0,0,0,0,0,0,0,0,0,-1,1259,1639,0,0
42,-615,0,0,0,0,0,0,0,0,0,-1,1266,1639,0,0
49,-615,0,0,0,0,0,0,0,0,0,-1,1273,1639,0,0
56,-615,0,0,0,0,0,0,0,0,0,-1,1280,1639,0,0
63,-615,0,0,0,0,0,0,0,0,0,-1,1287,1639,0,0
70,-615,0,0,0,0,0,0,0,0,0,-1,1294,1639,0,0
77,-615,0,0,0,0,0,0,0,0,0,-1,1301,1639,0,0
84,-615,0,0,0,0,0,0,0,0,0,-1,1308,1639,0,0
91,-615,0,0,0,0,0,0,0,0,0,-1,1315,1639,0,0
98,-615,0,0,0,0,0,0,0,0,0,-1,1322,1639,0,0
105,-615,0,0,0,0,0,0,0,0,0,-1,1329,1639,0,0
112,-615,0,0,0,0,0,0,0,0,0,-1,1336,1639,0,0
119,-615,0,0,0,0,0,0,0,0,0,-1,1343,1639,0,0
126,-615,0,0,0,0,0,0,0,0,0,-1,1350,1639,0,0
133,-615,0,0,0,0,0,0,0,0,0,-1,1357,1639,0,0
140,-615,0,0,0,0,0,0,0,0,0,-1,1364,1639,0,0
147,-615,0,0,0,0,0,0,0,0,0,-1,1371,1639,0,0
154,-615,0,0,0,0,0,0,0,0,0,-1,1378,1639,0,0
161,-615,0,0,0,0,0,0,0,0,0,-1,1385,1639,0,0
168,-615,0,0,0,0,0,0,0,0,0,-1,1392,1639,0,0
175,-615,-0.0422363,-0.13147,0.0306492,-0.0332931,0.00395723,0.0308931,-0.033537,0.0615744,0.0372092,0.0440117,1399,1639,-0.042181,0.131501
182,-615,-0.0483398,-0.151123,0.0138729,-0.0244179,-0.000265237,0.0138747,-0.0244197,-0.00692649,0.022387,0.0460453,1406,1639,-0.0483702,0.151079
189,-615,-0.0820313,-0.108276,0.00306909,-0.0167586,-0.00376435,0.00375971,-0.0174492,-0.181445,0.0130676,0.0454039,1413,1639,-0.0820072,0.108225
196,-615,0.0560303,-0.0249023,0.00230352,-0.0123623,-0.00338937,0.00304894,-0.0131078,-0.216482,0.00991238,0.042379,1420,1639,0.0560298,0.0249417
203,-615,0.106934,0.105347,0.0038496,-0.00817995,-0.00198708,0.00416933,-0.00849969,-0.159539,0.00745553,0.0417286,1427,1639,0.106895,-0.105364
210,-615,-0.0667725,-0.100586,0.00628181,-0.00881809,0.001122,0.00636472,-0.00890101,0.0737649,0.00885413,0.0427115,1434,1639,-0.0668045,0.100633
217,-615,-0.2854,-0.319458,0.0111259,-0.00597367,0.00422948,0.0121149,-0.00696261,0.229694,0.0111475,0.0427819,1441,1639,-0.285391,0.319415
224,-615,-0.321533,-0.512573,0.0168686,-0.00340707,0.00782303,0.019536,-0.00607453,0.328612,0.0154521,0.0416985,1448,1639,-0.321589,0.512518
231,-615,-1.17139,0.861694,0,0,0,0,0,0,0,-1,1455,1639,-1.17136,-0.861687
238,-615,-0.532227,0.889038,0.0163119,0.00545695,0.00917294,0.0215428,0.000226082,0.518258,0.0142871,0.048182,1462,1639,-0.532248,-0.888998
245,-615,0.113892,0.783081,0.0164789,0.00670212,0.009214,0.0220209,0.00116006,0.541509,0.0143096,0.0448492,1469,1639,0.113924,-0.783027
252,-615,0.394653,1.3595,0.0156762,0.00820038,0.00785113,0.0206338,0.00324276,0.563226,0.0128125,0.045538,1476,1639,0.394621,-1.35947
259,-615,0.793823,1.52466,0.0127243,0.0103008,0.00602329,0.0176565,0.00536859,0.686134,0.0104517,0.046876,1483,1639,0.79379,-1.52461
266,-615,1.26282,1.9436,0.00983773,0.0116833,0.0042962,0.0151547,0.00636632,0.891184,0.00878673,0.0478392,1490,1639,1.26276,-1.9436
273,-615,1.88,2.51343,0.00634233,0.0129997,0.00259793,0.0138935,0.00544853,1.23944,0.00808337,0.0452226,1497,1639,1.88006,-2.51344
280,-615,2.4292,3.00488,0.0024031,0.0137747,0.000778915,0.0138278,0.00234999,1.50272,0.0085436,0.0460284,1504,1639,2.4292,-3.00487
287,-615,-0.213379,0.420898,-0.000949974,0.0156238,-0.00050862,0.0156394,-0.000965568,-1.54015,0.0107626,0.0427003,1511,1639,-0.213426,-0.420918
294,-615,-0.189209,0.386719,-0.00406577,0.0182794,-0.000870844,0.0183133,-0.00409965,-1.5319,0.0137802,0.0433204,1518,1639,-0.189264,-0.38671
301,-615,0.281494,0.209839,-0.00633475,0.0195831,-0.000876507,0.0196127,-0.00636435,-1.53703,0.0156345,0.0470075,1525,1639,0.281549,-0.209862
308,-615,0.696167,0.359863,-0.00649961,0.0192812,-0.000383832,0.0192869,-0.00650532,-1.55591,0.0154887,0.0449172,1532,1639,0.696172,-0.359872
315,-615,0.395874,0.373413,-0.00598319,0.0186243,0.000902427,0.0186573,-0.00601624,1.53419,0.0148554,0.0401148,1539,1639,0.395897,-0.373425
322,-615,0.409668,0.213989,-0.00567772,0.0197837,0.0016659,0.0198922,-0.00578625,1.50574,0.0155533,0.0435858,1546,1639,0.409702,-0.213995
329,-615,0.413574,-0.109741,-0.00496243,0.019902,0.00258251,0.0201674,-0.00522783,1.46839,0.0154846,0.0442035,1553,1639,0.413611,0.109778
336,-615,0.28894,-0.332886,-0.00233162,0.0178851,0.0039158,0.0186171,-0.00306358,1.38601,0.0135485,0.0453521,1560,1639,0.288934,0.332828
343,-615,0.0250244,-0.0609131,-3.09137e-05,0.0174516,0.0053262,0.0189464,-0.00152577,1.29717,0.013169,0.0485283,1567,1639,0.0250035,0.0609262
350,-615,0.0308838,0.339111,-0.000101459,0.0162449,0.00508267,0.0176964,-0.00155295,1.29262,0.0123479,0.0462438,1574,1639,0.0308899,-0.339053
357,-615,-0.0932617,0.211914,0,0,0,0,0,0,0,-1,1581,1639,-0.0932757,-0.211958
364,-615,0.385376,0.371582,2.14966e-05,0.0134418,0.00410931,0.0146001,-0.00113681,1.29605,0.0101336,0.0455611,1588,1639,0.385434,-0.371606
371,-615,0.00354004,0.0631104,4.83822e-05,0.0124818,0.00378125,0.0135415,-0.00101126,1.29757,0.00938293,0.0319993,1595,1639,0.00358398,-0.063129
378,-615,-0.0141602,0.039917,6.16182e-05,0.0111242,0.00334727,0.0120581,-0.000872342,1.2987,0.00834474,0.0159856,1602,1639,-0.0141992,-0.0399269
385,-615,-0.0281982,0.0380859,0.000263916,0.00937588,0.00293253,0.0102381,-0.000598283,1.28484,0.0070333,0.0101328,1609,1639,-0.0281521,-0.038124
392,-615,-0.0227051,0.0404053,0.000433922,0.0075509,0.00240028,0.00828475,-0.000299931,1.27409,0.00562581,0.00874606,1616,1639,-0.0226485,-0.0404572
399,-615,-0.027832,0.0421143,0.000179674,0.00499123,0.00177656,0.00557609,-0.000405187,1.25276,0.00385955,0.00971423,1623,1639,-0.0278279,-0.0421702
406,-615,-0.0247803,0.034668,-0.000112084,0.00417775,0.00145591,0.00462519,-0.000559531,1.27263,0.00328589,0.0103411,1630,1639,-0.0247779,-0.0346859
413,-615,-0.0136719,0.0335693,-0.00050576,0.00399709,0.00130975,0.00435035,-0.000859018,1.30735,0.00322493,0.0112436,1637,1639,-0.0136899,-0.0335442
420,-615,0.000366211,0.0235596,-0.000577008,0.00377866,0.000902297,0.00395818,-0.000756524,1.37441,0.00292377,0.0121375,1644,1639,0.000346106,-0.0235171
427,-615,0.00402832,0.026001,-0.000644367,0.00273994,0.000790099,0.00291531,-0.000819736,1.35238,0.00226674,0.013308,1651,1639,0.00400091,-0.0260442
434,-615,-0.00158691,0.0411377,-0.000606463,0.00268614,0.000403976,0.00273498,-0.000655303,1.45048,0.00207651,0.0125767,1658,1639,-0.00163509,-0.041186
441,-615,-0.0131836,0.0323486,-0.000812666,0.0032053,4.2474e-05,0.00320574,-0.000813115,1.56023,0.00245353,0.0131126,1665,1639,-0.0131934,-0.0323683
448,-615,-0.0227051,0.0367432,-0.00125365,0.00397018,-3.14465e-05,0.00397037,-0.00125384,-1.56478,0.00314919,0.0153022,1672,1639,-0.0227599,-0.0367945
455,-615,-0.0250244,0.0546875,-0.00145109,0.00496252,0.00011608,0.00496462,-0.00145319,1.55271,0.0038858,0.014308,1679,1639,-0.0249815,-0.0546819
462,-615,-0.0275879,0.0543213,-0.00142727,0.00578585,-0.000143385,0.0057887,-0.00143012,-1.55093,0.00441376,0.0133353,1686,1639,-0.0275569,-0.0542924
469,-615,-0.0407715,0.0493164,-0.00139052,0.00723088,-0.000485595,0.00725814,-0.00141778,-1.51471,0.00537406,0.0114422,1693,1639,-0.0408114,-0.0493091
476,-615,-0.0395508,0.0410156,-0.00165473,0.00876303,-0.000340814,0.00877416,-0.00166587,-1.53813,0.00647654,0.00986883,1700,1639,-0.0395126,-0.0409948
483,-615,-0.0378418,0.026001,-0.00165344,0.0100389,0.000177446,0.0100416,-0.00165613,1.55562,0.00730926,0.0128572,1707,1639,-0.0379001,-0.025956
490,-615,-0.00524902,0.0354004,-0.00099127,0.0111731,0.000681608,0.0112112,-0.00102934,1.515,0.00783981,0.0150946,1714,1639,-0.00530242,-0.0353565
497,-615,0.000976563,0.0469971,0.000442111,0.0120801,0.000737942,0.0121267,0.000395506,1.50772,0.00795589,0.0206208,1721,1639,0.000951735,-0.047033
504,-615,-0.0472412,-0.0498047,0.00248599,0.0127859,0.00129246,0.0129456,0.00232629,1.44785,0.00796896,0.0370748,1728,1639,-0.0472397,0.0498409
511,-615,-0.0582275,-0.0684814,0.00525936,0.0132904,0.00178908,0.0136709,0.00487883,1.36123,0.00799996,0.0415081,1735,1639,-0.0581682,0.0685015
518,-615,0.0905762,-0.112915,0.00839977,0.013468,0.00231569,0.0143667,0.00750108,1.2006,0.00829732,0.0429848,1742,1639,0.0905747,0.112916
525,-615,0.103882,-0.0721436,0.0125105,0.0137065,0.00288068,0.0160506,0.0101664,0.887742,0.0093761,0.0396422,1749,1639,0.103927,0.0721528
532,-615,-0.227661,0.727417,0.017642,0.0139723,0.00314033,0.0194442,0.0121701,0.521007,0.0113441,0.0393032,1756,1639,-0.22763,-0.727428
539,-615,-0.0853271,1.02979,0.0236032,0.0146486,0.00338685,0.0247399,0.0135119,0.323807,0.0143039,0.0392885,1763,1639,-0.0852748,-1.02981
546,-615,0.409058,1.24609,0.0306716,0.0160673,0.00347779,0.0314575,0.0152814,0.222241,0.0181645,0.0424876,1770,1639,0.409115,-1.24613
553,-615,0.432495,0.717163,0,0,0,0,0,0,0,-1,1777,1639,0.432463,-0.717158
560,-615,0,0,0,0,0,0,0,0,0,-1,1784,1639,0,0
567,-615,0,0,0,0,0,0,0,0,0,-1,1791,1639,0,0
574,-615,0,0,0,0,0,0,0,0,0,-1,1798,1639,0,0
581,-615,0,0,0,0,0,0,0,0,0,-1,1805,1639,0,0
588,-615,0,0,0,0,0,0,0,0,0,-1,1812,1639,0,0
595,-615,0,0,0,0,0,0,0,0,0,-1,1819,1639,0,0
602,-615,0,0,0,0,0,0,0,0,0,-1,1826,1639,0,0
609,-615,0,0,0,0,0,0,0,0,0,-1,1833,1639,0,0
616,-615,0,0,0,0,0,0,0,0,0,-1,1840,1639,0,0
623,-615,0,0,0,0,0,0,0,0,0,-1,1847,1639,0,0
630,-615,0,0,0,0,0,0,0,0,0,-1,1854,1639,0,0
637,-615,0,0,0,0,0,0,0,0,0,-1,1861,1639,0,0
644,-615,0,0,0,0,0,0,0,0,0,-1,1868,1639,0,0
651,-615,0,0,0,0,0,0,0,0,0,-1,1875,1639,0,0
658,-615,0,0,0,0,0,0,0,0,0,-1,1882,1639,0,0
665,-615,0,0,0,0,0,0,0,0,0,-1,1889,1639,0,0
672,-615,0,0,0,0,0,0,0,0,0,-1,1896,1639,0,0
679,-615,0,0,0,0,0,0,0,0,0,-1,1903,1639,0,0
686,-615,0,0,0,0,0,0,0,0,0,-1,1910,1639,0,0
693,-615,0,0,0,0,0,0,0,0,0,-1,1917,1639,0,0
700,-615,0,0,0,0,0,0,0,0,0,-1,1924,1639,0,0
707,-615,0,0,0,0,0,0,0,0,0,-1,1931,1639,0,0
714,-615,0,0,0,0,0,0,0,0,0,-1,1938,1639,0,0
721,-615,0,0,0,0,0,0,0,0,0,-1,1945,1639,0,0
728,-615,0,0,0,0,0,0,0,0,0,-1,1952,1639,0,0
735,-615,0,0,0,0,0,0,0,0,0,-1,1959,1639,0,0
742,-615,0,0,0,0,0,0,0,0,0,-1,1966,1639,0,0
749,-615,0,0,0,0,0,0,0,0,0,-1,1973,1639,0,0
756,-615,0,0,0,0,0,0,0,0,0,-1,1980,1639,0,0
763,-615,0,0,0,0,0,0,0,0,0,-1,1987,1639,0,0
770,-615,0,0,0,0,0,0,0,0,0,-1,1994,1639,0,0
777,-615,0,0,0,0,0,0,0,0,0,-1,2001,1639,0,0
784,-615,0,0,0,0,0,0,0,0,0,-1,2008,1639,0,0
791,-615,0,0,0,0,0,0,0,0,0,-1,2015,1639,0,0
798,-615,0,0,0,0,0,0,0,0,0,-1,2022,1639,0,0
805,-615,0,0,0,0,0,0,0,0,0,-1,2029,1639,0,0
812,-615,0,0,0,0,0,0,0,0,0,-1,2036,1639,0,0
-700,-622,0,0,0,0,0,0,0,0,0,-1,524,1646,0,0
-693,-622,0,0,0,0,0,0,0,0,0,-1,531,1646,0,0
-686,-622,0,0,0,0,0,0,0,0,0,-1,538,1646,0,0
-679,-622,0,0,0,0,0,0,0,0,0,-1,545,1646,0,0
-672,-622,0,0,0,0,0,0,0,0,0,-1,552,1646,0,0
-665,-622,0,0,0,0,0,0,0,0,0,-1,559,1646,0,0
-658,-622,0,0,0,0,0,0,0,0,0,-1,566,1646,0,0
-651,-622,0,0,0,0,0,0,0,0,0,-1,573,1646,0,0
-644,-622,0,0,0,0,0,0,0,0,0,-1,580,1646,0,0
-637,-622,0,0,0,0,0,0,0,0,0,-1,587,1646,0,0
-630,-622,0,0,0,0,0,0,0,0,0,-1,594,1646,0,0
-623,-622,0,0,0,0,0,0,0,0,0,-1,601,1646,0,0
-616,-622,0,0,0,0,0,0,0,0,0,-1,608,1646,0,0
-609,-622,0,0,0,0,0,0,0,0,0,-1,615,1646,0,0
-602,-622,0,0,0,0,0,0,0,0,0,-1,622,1646,0,0
-595,-622,0,0,0,0,0,0,0,0,0,-1,629,1646,0,0
-588,-622,0,0,0,0,0,0,0,0,0,-1,636,1646,0,0
-581,-622,0,0,0,0,0,0,0,0,0,-1,643,1646,0,0
-574,-622,0,0,0,0,0,0,0,0,0,-1,650,1646,0,0
-567,-622,0,0,0,0,0,0,0,0,0,-1,657,1646,0,0
-560,-622,0,0,0,0,0,0,0,0,0,-1,664,1646,0,0
-553,-622,0,0,0,0,0,0,0,0,0,-1,671,1646,0,0
-546,-622,0,0,0,0,0,0,0,0,0,-1,678,1646,0,0
-539,-622,0,0,0,0,0,0,0,0,0,-1,685,1646,0,0
-532,-622,0,0,0,0,0,0,0,0,0,-1,692,1646,0,0
-525,-622,0,0,0,0,0,0,0,0,0,-1,699,1646,0,0
-518,-622,0,0,0,0,0,0,0,0,0,-1,706,1646,0,0
-511,-622,0,0,0,0,0,0,0,0,0,-1,713,1646,0,0
-504,-622,0,0,0,0,0,0,0,0,0,-1,720,1646,0,0
-497,-622,0,0,0,0,0,0,0,0,0,-1,727,1646,0,0
-490,-622,0,0,0,0,0,0,0,0,0,-1,734,1646,0,0
-483,-622,0,0,0,0,0,0,0,0,0,-1,741,1646,0,0
-476,-622,0,0,0,0,0,0,0,0,0,-1,748,1646,0,0
-469,-622,0,0,0,0,0,0,0,0,0,-1,755,1646,0,0
-462,-622,0,0,0,0,0,0,0,0,0,-1,762,1646,0,0
-455,-622,0,0,0,0,0,0,0,0,0,-1,769,1646,0,0
-448,-622,0,0,0,0,0,0,0,0,0,-1,776,1646,0,0
-441,-622,0,0,0,0,0,0,0,0,0,-1,783,1646,0,0
-434,-622,0,0,0,0,0,0,0,0,0,-1,790,1646,0,0
-427,-622,-0.599609,-0.141724,0,0,0,0,0,0,0,-1,797,1646,-0.599614,0.141729
-420,-622,-1.53143,0.79187,0,0,0,0,0,0,0,-1,804,1646,-1.53141,-0.791851
-413,-622,-0.680542,0.244873,0.0331804,-0.00015856,-0.0211473,0.0434382,-0.0104164,-0.451629,0.0329838,0.0450614,811,1646,-0.680516,-0.24487
-406,-622,-0.142029,-0.154175,0.0293928,-0.00113868,-0.0209186,0.0400236,-0.0117694,-0.470184,0.0313508,0.0453245,818,1646,-0.14203,0.154132
-399,-622,0.139099,-0.295654,0.0248124,-0.00218357,-0.0197841,0.0352645,-0.0126356,-0.486036,0.0286653,0.0460445,825,1646,0.139075,0.295647
-392,-622,0.394592,-0.360107,0.0206027,-0.00310145,-0.0185343,0.0307505,-0.0132492,-0.500932,0.0260645,0.0470777,832,1646,0.394592,0.360132
-385,-622,0.658142,-0.462891,0.0173582,-0.00399234,-0.0173598,0.0270624,-0.0136966,-0.509732,0.0239503,0.0475657,839,1646,0.658157,0.462917
-378,-622,0.738892,-0.65918,0.014742,-0.00446489,-0.0162031,0.0239738,-0.0136967,-0.517884,0.0220172,0.0444823,846,1646,0.738913,0.659204
-371,-622,-0.113831,0.392456,0.0127234,-0.0043923,-0.014765,0.0212313,-0.0129003,-0.522755,0.0199006,0.040947,853,1646,-0.113829,-0.392495
-364,-622,-0.10321,0.16272,0.010953,-0.00397606,-0.013083,0.0185511,-0.0115742,-0.526155,0.0175476,0.0392414,860,1646,-0.10324,-0.162755
-357,-622,0.0258789,0.0489502,0.00911,-0.00402378,-0.0114294,0.0157247,-0.0106385,-0.524645,0.0153149,0.0402101,867,1646,0.025867,-0.0489626
-350,-622,0.0466309,0.0129395,0.00771565,-0.00415483,-0.0098275,0.0132611,-0.00970031,-0.513742,0.0133098,0.0325763,874,1646,0.0466571,-0.0129406
-343,-622,-0.00219727,0.0289307,0.00688359,-0.0042735,-0.00811919,0.011156,-0.00854591,-0.484397,0.0114081,0.0203706,881,1646,-0.00221716,-0.0289301
-336,-622,-0.0319824,0.0406494,0.00625652,-0.00424584,-0.00658328,0.00942641,-0.00741573,-0.448744,0.00974689,0.00887185,888,1646,-0.0319812,-0.0406202
-329,-622,-0.0290527,0.0341797,0.00590408,-0.00362177,-0.00511522,0.0081305,-0.00584819,-0.410524,0.00810638,0.00801921,895,1646,-0.0290241,-0.0341211
-322,-622,-0.0209351,0.0341797,0.00532701,-0.00241689,-0.00405333,0.00706055,-0.00415043,-0.40414,0.00654494,0.0102866,902,1646,-0.0209617,-0.034226
-315,-622,-0.0181885,0.0345459,0.00428489,-0.00265283,-0.00295395,0.00537221,-0.00374015,-0.352701,0.00528908,0.0135022,909,1646,-0.0181669,-0.0345118
-308,-622,-0.0153198,0.0253906,0.00294393,-0.00288387,-0.00150769,0.00331087,-0.00325081,-0.23874,0.00378844,0.0128319,916,1646,-0.0153312,-0.025357
-301,-622,-0.0274048,0.0224609,0.00193767,-0.00310668,-0.000545858,0.00199606,-0.00316507,-0.106568,0.00300515,0.0123068,923,1646,-0.027405,-0.022424
-294,-622,-0.0261841,0.0332031,0.00133542,-0.00298211,-0.000319922,0.001359,-0.00300568,-0.0735629,0.00257904,0.00947453,930,1646,-0.0261674,-0.0331526
-287,-622,-0.0130615,0.0350342,0.000810428,-0.00272494,-0.000105956,0.0008136,-0.00272811,-0.0299345,0.00214208,0.00745273,937,1646,-0.0130737,-0.03498
-280,-622,-0.00952148,0.0266113,0.000306198,-0.00250413,-5.16558e-06,0.000306207,-0.00250414,-0.00183806,0.00178029,0.00787091,944,1646,-0.00951738,-0.0265512
-273,-622,-0.0123291,0.0285645,-0.000116176,-0.00233541,0.000128851,-0.000108719,-0.00234287,0.057802,0.00152696,0.0103927,951,1646,-0.0123185,-0.0285902
-266,-622,-0.019104,0.0388184,-0.000436077,-0.00208052,0.00019998,-0.000412107,-0.00210449,0.119293,0.00128779,0.0100538,958,1646,-0.0191143,-0.0387709
-259,-622,-0.00323486,0.0610352,-0.000843459,-0.00166862,0.00022278,-0.000787155,-0.00172493,0.247554,0.000997151,0.0113276,965,1646,-0.0032342,-0.0610847
-252,-622,-0.015564,0.0394287,-0.00135148,-0.00152182,0.000224712,-0.00119634,-0.00167696,0.604256,0.000997156,0.0118427,972,1646,-0.0155686,-0.0394694
-245,-622,-0.0199585,0.022583,-0.00140375,-0.000953484,-0.000205832,-0.000873573,-0.00148366,-1.20047,0.000861083,0.00809558,979,1646,-0.0199843,-0.0225765
-238,-622,-0.0186768,0.0167236,-0.00160302,-0.000129469,-0.000771747,0.000200728,-0.00193322,-1.16651,0.00136067,0.0086328,986,1646,-0.0186803,-0.0166666
-231,-622,-0.0189209,0.0404053,-0.00112907,0.000913737,-0.0013569,0.0015907,-0.00180603,-1.10803,0.00196242,0.0122857,993,1646,-0.0189322,-0.0404066
-224,-622,0.0137939,0.0645752,0.000401637,0.00337173,-0.0021552,0.00450398,-0.000730617,-1.08707,0.00327348,0.0190968,1000,1646,0.0137962,-0.0645366
-217,-622,0.0864258,0.0461426,0.00205183,0.0058583,-0.00293511,0.00745323,0.000456902,-1.07304,0.00482374,0.0280888,1007,1646,0.0864313,-0.0460985
-210,-622,0.105896,-0.0407715,0.00400537,0.00934996,-0.00372043,0.0112584,0.00209697,-1.09684,0.00691342,0.0415496,1014,1646,0.105907,0.0408309
-203,-622,-0.398132,0.140625,0.00565434,0.013399,-0.00476232,0.0156646,0.0033887,-1.12674,0.0095168,0.0452869,1021,1646,-0.398149,-0.140595
-196,-622,-0.376343,0.232544,0.00755097,0.018209,-0.0059973,0.0209028,0.00485714,-1.14863,0.0126314,0.0423966,1028,1646,-0.37631,-0.23256
-189,-622,-0.383911,0.281738,0.00934645,0.0213908,-0.00697701,0.0245852,0.00615205,-1.14144,0.0147728,0.046098,1035,1646,-0.383884,-0.281735
-182,-622,-0.396729,0.174438,0,0,0,0,0,0,0,-1,1042,1646,-0.396757,-0.174381
-175,-622,-0.18396,-0.472046,0,0,0,0,0,0,0,-1,1049,1646,-0.183982,0.472035
-168,-622,0.0313721,-0.785156,0,0,0,0,0,0,0,-1,1056,1646,0.0313112,0.785115
-161,-622,-0.483765,0.360474,0,0,0,0,0,0,0,-1,1063,1646,-0.483784,-0.36047
-154,-622,-1.00989,0.149414,0,0,0,0,0,0,0,-1,1070,1646,-1.00988,-0.149475
-147,-622,0.293823,-0.639282,0,0,0,0,0,0,0,-1,1077,1646,0.29378,0.639251
-140,-622,0.347046,-0.447144,0.0030937,0.0228988,-0.0120561,0.0285979,-0.00260539,-1.12922,0.0199904,0.0482413,1084,1646,0.347058,0.447199
-133,-622,0.361206,-0.343872,-0.000295715,0.0220165,-0.0111938,0.0266642,-0.00494343,-1.17725,0.0196325,0.0415122,1091,1646,0.361155,0.343816
-126,-622,0.376343,-0.364258,-0.00470529,0.0210781,-0.0097401,0.0243439,-0.00797112,-1.24728,0.019439,0.0409508,1098,1646,0.376284,0.3642
-119,-622,0.214478,-0.761719,-0.0102495,0.0197023,-0.00808038,0.0217431,-0.0122903,-1.3234,0.0199003,0.0436793,1105,1646,0.214536,0.761706
-112,-622,-0.00708008,-0.919434,-0.0137864,0.0201835,-0.00600396,0.0212134,-0.0148163,-1.40091,0.0209108,0.0424484,1112,1646,-0.00710605,0.91942
-105,-622,-0.300537,-1.16272,-0.0153753,0.021134,-0.00286808,0.0213579,-0.0155992,-1.49288,0.0214234,0.0417543,1119,1646,-0.300569,1.16274
-98,-622,-0.744873,-1.18872,-0.0154628,0.0224645,0.000550307,0.0224725,-0.0154708,1.55629,0.0220305,0.0439919,1126,1646,-0.744922,1.18871
-91,-622,-0.948486,-0.706543,-0.0144938,0.0220117,0.00430624,0.0225128,-0.0149949,1.45495,0.0217996,0.0448006,1133,1646,-0.948486,0.706593
-84,-622,-0.49585,-0.311768,-0.0129675,0.0235659,0.00779908,0.0251611,-0.0145628,1.36903,0.0232051,0.0431019,1140,1646,-0.495814,0.31171
-77,-622,-0.118408,0.306396,-0.0105479,0.0246998,0.0106473,0.0276664,-0.0135145,1.29907,0.0242392,0.0424109,1147,1646,-0.118424,-0.306436
-70,-622,-0.352051,1.74512,0,0,0,0,0,0,0,-1,1154,1646,-0.352095,-1.74511
-63,-622,0.221802,-0.721558,0,0,0,0,0,0,0,-1,1161,1646,0.221749,0.721501
-56,-622,0.0651855,-0.69812,-0.00118929,0.00453397,0.0162697,0.0181918,-0.0148471,0.872451,0.0191076,0.0409638,1168,1646,0.065213,0.698077
-49,-622,-0.174072,-0.546631,0.00553073,-0.00597582,0.0180184,0.0186921,-0.0191372,0.630864,0.0218412,0.0423975,1175,1646,-0.17408,0.546575
-42,-622,-0.251099,-1.01428,0,0,0,0,0,0,0,-1,1182,1646,-0.251158,1.01423
-35,-622,-0.0751953,0.346313,0,0,0,0,0,0,0,-1,1189,1646,-0.075214,-0.346365
-28,-622,-0.108032,-0.619751,0,0,0,0,0,0,0,-1,1196,1646,-0.108064,0.61976
-21,-622,0.0645752,0.790649,0,0,0,0,0,0,0,-1,1203,1646,0.0645443,-0.790644
-14,-622,-0.390259,-0.495972,0.00997585,-0.0631832,0.0133098,0.012322,-0.0655294,0.174483,0.0483202,0.0407051,1210,1646,-0.3902,0.495922
-7,-622,-0.532959,-0.9646,0.00789548,-0.0553137,0.0100446,0.00945328,-0.0568715,0.153862,0.0414265,0.0436534,1217,1646,-0.532948,0.964621
0,-622,0,0,0,0,0,0,0,0,0,-1,1224,1646,0,0
7,-622,0,0,0,0,0,0,0,0,0,-1,1231,1646,0,0
14,-622,0,0,0,0,0,0,0,0,0,-1,1238,1646,0,0
21,-622,0,0,0,0,0,0,0,0,0,-1,1245,1646,0,0
28,-622,0,0,0,0,0,0,0,0,0,-1,1252,1646,0,0
35,-622,0,0,0,0,0,0,0,0,0,-1,1259,1646,0,0
42,-622,0,0,0,0,0,0,0,0,0,-1,1266,1646,0,0
49,-622,0,0,0,0,0,0,0,0,0,-1,1273,1646,0,0
56,-622,0,0,0,0,0,0,0,0,0,-1,1280,1646,0,0
63,-622,0,0,0,0,0,0,0,0,0,-1,1287,1646,0,0
70,-622,0,0,0,0,0,0,0,0,0,-1,1294,1646,0,0
77,-622,0,0,0,0,0,0,0,0,0,-1,1301,1646,0,0
84,-622,0,0,0,0,0,0,0,0,0,-1,1308,1646,0,0
91,-622,0,0,0,0,0,0,0,0,0,-1,1315,1646,0,0
98,-622,0,0,0,0,0,0,0,0,0,-1,1322,1646,0,0
105,-622,0,0,0,0,0,0,0,0,0,-1,1329,1646,0,0
112,-622,0,0,0,0,0,0,0,0,0,-1,1336,1646,0,0
119,-622,0,0,0,0,0,0,0,0,0,-1,1343,1646,0,0
126,-622,2.4408,-7.9873,0.178477,-0.0742451,0.0476061,0.187148,-0.0829153,0.18015,0.159745,0.047781,1350,1646,2.44084,7.98729
133,-622,4.25366,-7.48645,0.162487,-0.072691,0.0437538,0.170363,-0.0805674,0.178109,0.147935,0.0468607,1357,1646,4.25371,7.4865
140,-622,6.02747,-6.98047,0,0,0,0,0,0,0,-1,1364,1646,6.02748,6.98048
147,-622,0.114136,1.73706,0,0,0,0,0,0,0,-1,1371,1646,0.114114,-1.737
154,-622,0.110107,2.07153,0.0956209,-0.0550758,0.0241689,0.0994022,-0.0588572,0.155197,0.0923652,0.0433206,1378,1646,0.110108,-2.07157
161,-622,0.773071,0.929443,0.0707706,-0.0457269,0.0169553,0.0731882,-0.0481444,0.141629,0.0705471,0.0403795,1385,1646,0.773031,-0.929482
168,-622,0.150513,1.26636,0,0,0,0,0,0,0,-1,1392,1646,0.150497,-1.2663
175,-622,0.0646973,1.78613,0.026759,-0.0267968,0.0079246,0.027907,-0.0279448,0.143863,0.032246,0.046493,1399,1646,0.0647521,-1.78616
182,-622,-0.0194092,0.0179443,0.0122281,-0.0184191,0.00250472,0.0124315,-0.0186225,0.0810108,0.0180474,0.0440693,1406,1646,-0.019469,-0.0179678
189,-622,-0.0114746,-0.150146,0.00291784,-0.0113055,-0.00167563,0.00311257,-0.0115003,-0.115698,0.00888793,0.0392804,1413,1646,-0.011437,0.150135
196,-622,0.160034,-0.252075,0.00182763,-0.00729315,-0.00235337,0.00239906,-0.00786457,-0.238201,0.00619945,0.0389043,1420,1646,0.159985,0.252086
203,-622,0.182617,-0.0810547,0.00291878,-0.00370597,-0.00187863,0.00341443,-0.00420162,-0.257959,0.00440495,0.0399474,1427,1646,0.182556,0.0811049
210,-622,0.074585,-0.185913,0.00509204,-0.00441512,0.000186456,0.00509569,-0.00441877,0.0196021,0.00549781,0.0381529,1434,1646,0.0746038,0.185906
217,-622,-0.175781,-0.25354,0.00905528,-0.00234239,0.0025362,0.00959416,-0.00288126,0.20936,0.00754226,0.0391966,1441,1646,-0.175774,0.25353
224,-622,-0.251343,-0.336304,0.0134456,0.000112995,0.00548548,0.0154124,-0.00185378,0.344264,0.0109453,0.0402691,1448,1646,-0.251332,0.336303
231,-622,-0.0681152,-0.487671,0,0,0,0,0,0,0,-1,1455,1646,-0.0681665,0.487708
238,-622,-0.0299072,-0.0466309,0.013209,0.00885566,0.00740495,0.0187506,0.00331409,0.642451,0.0115552,0.0433541,1462,1646,-0.0298665,0.0466593
245,-622,0.204102,0.765015,0.0133323,0.0102409,0.00771398,0.0196539,0.00391928,0.686518,0.0120113,0.0440323,1469,1646,0.204044,-0.765019
252,-622,0.370972,1.25842,0.012853,0.0118873,0.00680335,0.0191906,0.00554967,0.749973,0.0114032,0.0488008,1476,1646,0.370941,-1.25839
259,-622,0.302979,1.21619,0,0,0,0,0,0,0,-1,1483,1646,0.302933,-1.21615
266,-622,1.48926,2.26477,0.00820155,0.014885,0.00425281,0.016952,0.00613463,1.1184,0.00991091,0.0457346,1490,1646,1.48931,-2.26475
273,-622,1.90662,2.72961,0.00518421,0.0157711,0.0028989,0.0165129,0.00444241,1.32028,0.00986701,0.0471223,1497,1646,1.9066,-2.72957
280,-622,-0.178467,0.645264,0.00183685,0.0159125,0.00141687,0.0160537,0.00169565,1.47146,0.0101844,0.0439898,1504,1646,-0.178517,-0.645236
287,-622,-0.207642,0.298096,-0.00108125,0.0166127,0.000148258,0.0166139,-0.00108249,1.56242,0.0114538,0.0406933,1511,1646,-0.207613,-0.298066
294,-622,-0.0480957,0.260132,-0.00383343,0.0178533,-0.000423532,0.0178616,-0.0038417,-1.55128,0.0133735,0.0420561,1518,1646,-0.0480612,-0.26014
301,-622,0.195679,0.172852,-0.00575911,0.0181869,-0.00059806,0.0182018,-0.00577404,-1.54584,0.014449,0.0457109,1525,1646,0.195634,-0.172887
308,-622,0.503418,0.103638,-0.00599424,0.0173254,-0.000330081,0.0173301,-0.00599891,-1.55665,0.0139886,0.0434588,1532,1646,0.503455,-0.103696
315,-622,0.43689,0.210571,-0.00575312,0.0161646,0.000649469,0.0161839,-0.00577234,1.5412,0.0131429,0.0400065,1539,1646,0.436879,-0.210514
322,-622,0.406006,0.19751,-0.00565066,0.0165127,0.00119448,0.0165769,-0.00571485,1.51711,0.0133698,0.0432859,1546,1646,0.406057,-0.197467
329,-622,0.397095,0.0837402,-0.00504087,0.0159961,0.00181743,0.016152,-0.00519672,1.48525,0.0128553,0.0433839,1553,1646,0.397094,-0.083719
336,-622,-0.126587,-0.0217285,-0.0028045,0.013752,0.00281297,0.0142169,-0.00326937,1.40702,0.010735,0.0447324,1560,1646,-0.126618,0.0216718
343,-622,-0.131958,-0.0821533,-0.000818734,0.0131854,0.00404699,0.0142708,-0.00190414,1.30876,0.0102079,0.0446419,1567,1646,-0.131962,0.0821648
350,-622,-0.0601807,0.0454102,-0.000739013,0.0120582,0.00396036,0.0131847,-0.00186547,1.29368,0.00947304,0.0385547,1574,1646,-0.060156,-0.0453628
357,-622,-0.0458984,0.0952148,-0.000685848,0.0110102,0.00367971,0.0120715,-0.00174721,1.28998,0.00868884,0.0350536,1581,1646,-0.0458864,-0.0951916
364,-622,0.0480957,0.107422,-0.000310534,0.00948428,0.00325514,0.0104674,-0.00129365,1.27749,0.00744702,0.0295959,1588,1646,0.0481267,-0.107418
371,-622,0.0147705,0.0544434,-0.000128491,0.00856589,0.00300532,0.00950358,-0.00106619,1.26836,0.00671937,0.0160801,1595,1646,0.0147467,-0.0544047
378,-622,-0.0102539,0.0476074,-4.61783e-05,0.00740815,0.00268564,0.00827494,-0.00091297,1.2586,0.00584476,0.00930587,1602,1646,-0.0102177,-0.0475763
385,-622,-0.022583,0.0439453,0.000212969,0.00607834,0.00235981,0.00690987,-0.000618564,1.23201,0.004826,0.00882271,1609,1646,-0.0226324,-0.0439598
392,-622,-0.0335693,0.0386963,0.000445757,0.00477626,0.00196649,0.00553597,-0.000313953,1.20213,0.00379962,0.0099976,1616,1646,-0.0336144,-0.038714
399,-622,-0.0430908,0.0421143,0.000255454,0.00283607,0.00146923,0.00350115,-0.000409621,1.14572,0.00248193,0.00964163,1623,1646,-0.0430642,-0.0421269
406,-622,-0.0377197,0.0289307,-3.45826e-05,0.0023679,0.00122582,0.00288294,-0.000549622,1.17303,0.00212895,0.0130111,1630,1646,-0.0376684,-0.0289387
413,-622,-0.0230713,0.0241699,-0.000372376,0.0024481,0.00113348,0.00284716,-0.000771436,1.23228,0.00220079,0.0152377,1637,1646,-0.0230199,-0.0242076
420,-622,-0.00512695,0.0131836,-0.000424644,0.00262385,0.000818568,0.00282974,-0.000630536,1.32438,0.00212804,0.0145898,1644,1646,-0.00514752,-0.0132299
427,-622,0.00219727,0.020752,-0.000531559,0.00228247,0.000825011,0.00250651,-0.000755597,1.30563,0.00197173,0.0115264,1651,1646,0.00219539,-0.0208066
434,-622,0.00354004,0.022583,-0.000501014,0.00282984,0.000527624,0.00291142,-0.000582594,1.41739,0.00216148,0.01235,1658,1646,0.00353929,-0.0225788
441,-622,-0.0167236,0.0292969,-0.000754648,0.0038511,0.000242183,0.0038638,-0.000767348,1.51841,0.00286609,0.0140073,1665,1646,-0.0167658,-0.0292994
448,-622,-0.0467529,0.0424805,-0.00129012,0.00511361,0.000197209,0.00511968,-0.00129619,1.54004,0.00391733,0.0126751,1672,1646,-0.0466978,-0.0424296
455,-622,-0.0627441,0.0189209,-0.00153613,0.00661908,0.000419719,0.00664062,-0.00155767,1.51951,0.0050274,0.0142147,1679,1646,-0.0627753,-0.018888
462,-622,-0.0411377,0.0474854,-0.0015711,0.0079858,0.000184412,0.00798936,-0.00157466,1.55151,0.00592133,0.0157709,1686,1646,-0.0410996,-0.047457
469,-622,-0.0361328,0.0648193,-0.00161261,0.00995519,-0.000177048,0.0099579,-0.00161532,-1.5555,0.00723738,0.0162739,1693,1646,-0.0360847,-0.0647752
476,-622,-0.032959,0.0440674,-0.00198863,0.0120054,-2.2635e-05,0.0120054,-0.00198867,-1.56918,0.00874221,0.0162142,1700,1646,-0.0329485,-0.0441183
483,-622,-0.0112305,0.0218506,-0.00210841,0.0138196,0.000475096,0.0138338,-0.00212257,1.541,0.0100054,0.0234236,1707,1646,-0.0112748,-0.0219112
490,-622,0.0606689,0.0437012,-0.0015969,0.0154599,0.000949942,0.0155126,-0.00164965,1.51533,0.0109332,0.0298848,1714,1646,0.0607171,-0.0436535
497,-622,0.0705566,0.0106201,-0.00026288,0.0168445,0.000885986,0.0168903,-0.000308643,1.51919,0.0113645,0.0372184,1721,1646,0.0705596,-0.0106495
504,-622,0.0526123,-0.0646973,0.00176096,0.0181481,0.0014349,0.0182728,0.00163627,1.48411,0.0116747,0.0450173,1728,1646,0.0526278,0.0646838
511,-622,0.114502,0.0332031,0.00471342,0.0191561,0.00192988,0.0194096,0.00445999,1.44022,0.0117389,0.0439226,1735,1646,0.114492,-0.0331796
518,-622,0.619995,-0.8479,0.00805262,0.0198984,0.00249699,0.0204032,0.00754778,1.37131,0.0119119,0.0410004,1742,1646,0.619974,0.847961
525,-622,0.222656,-0.360596,0.0125632,0.0206081,0.00310121,0.0216648,0.0115065,1.2424,0.0125162,0.038158,1749,1646,0.222625,0.360624
532,-622,0.0461426,0.546265,0.0184911,0.021196,0.00325409,0.0233675,0.0163196,0.982348,0.0138407,0.0375671,1756,1646,0.0461747,-0.546224
539,-622,0.468506,0.563354,0.0255603,0.0221944,0.00380674,0.0280395,0.0197152,0.577266,0.016628,0.0390041,1763,1646,0.468506,-0.563335
546,-622,0.948364,0.581909,0.0346527,0.0237085,0.00390925,0.0359057,0.0224556,0.310161,0.0209464,0.0432163,1770,1646,0.948362,-0.581875
553,-622,0,0,0,0,0,0,0,0,0,-1,1777,1646,0,0
560,-622,0,0,0,0,0,0,0,0,0,-1,1784,1646,0,0
567,-622,0,0,0,0,0,0,0,0,0,-1,1791,1646,0,0
574,-622,0,0,0,0,0,0,0,0,0,-1,1798,1646,0,0
581,-622,0,0,0,0,0,0,0,0,0,-1,1805,1646,0,0
588,-622,0,0,0,0,0,0,0,0,0,-1,1812,1646,0,0
595,-622,0,0,0,0,0,0,0,0,0,-1,1819,1646,0,0
602,-622,0,0,0,0,0,0,0,0,0,-1,1826,1646,0,0
609,-622,0,0,0,0,0,0,0,0,0,-1,1833,1646,0,0
616,-622,0,0,0,0,0,0,0,0,0,-1,1840,1646,0,0
623,-622,0,0,0,0,0,0,0,0,0,-1,1847,1646,0,0
630,-622,0,0,0,0,0,0,0,0,0,-1,1854,1646,0,0
637,-622,0,0,0,0,0,0,0,0,0,-1,1861,1646,0,0
644,-622,0,0,0,0,0,0,0,0,0,-1,1868,1646,0,0
651,-622,0,0,0,0,0,0,0,0,0,-1,1875,1646,0,0
658,-622,0,0,0,0,0,0,0,0,0,-1,1882,1646,0,0
665,-622,0,0,0,0,0,0,0,0,0,-1,1889,1646,0,0
672,-622,0,0,0,0,0,0,0,0,0,-1,1896,1646,0,0
679,-622,0,0,0,0,0,0,0,0,0,-1,1903,1646,0,0
686,-622,0,0,0,0,0,0,0,0,0,-1,1910,1646,0,0
693,-622,0,0,0,0,0,0,0,0,0,-1,1917,1646,0,0
700,-622,0,0,0,0,0,0,0,0,0,-1,1924,1646,0,0
707,-622,0,0,0,0,0,0,0,0,0,-1,1931,1646,0,0
714,-622,0,0,0,0,0,0,0,0,0,-1,1938,1646,0,0
721,-622,0,0,0,0,0,0,0,0,0,-1,1945,1646,0,0
728,-622,0,0,0,0,0,0,0,0,0,-1,1952,1646,0,0
735,-622,0,0,0,0,0,0,0,0,0,-1,1959,1646,0,0
742,-622,0,0,0,0,0,0,0,0,0,-1,1966,1646,0,0
749,-622,0,0,0,0,0,0,0,0,0,-1,1973,1646,0,0
756,-622,0,0,0,0,0,0,0,0,0,-1,1980,1646,0,0
763,-622,0,0,0,0,0,0,0,0,0,-1,1987,1646,0,0
770,-622,0,0,0,0,0,0,0,0,0,-1,1994,1646,0,0
777,-622,0,0,0,0,0,0,0,0,0,-1,2001,1646,0,0
784,-622,0,0,0,0,0,0,0,0,0,-1,2008,1646,0,0
791,-622,0,0,0,0,0,0,0,0,0,-1,2015,1646,0,0
798,-622,0,0,0,0,0,0,0,0,0,-1,2022,1646,0,0
805,-622,0,0,0,0,0,0,0,0,0,-1,2029,1646,0,0
812,-622,0,0,0,0,0,0,0,0,0,-1,2036,1646,0,0
-700,-629,0,0,0,0,0,0,0,0,0,-1,524,1653,0,0
-693,-629,0,0,0,0,0,0,0,0,0,-1,531,1653,0,0
-686,-629,0,0,0,0,0,0,0,0,0,-1,538,1653,0,0
-679,-629,0,0,0,0,0,0,0,0,0,-1,545,1653,0,0
-672,-629,0,0,0,0,0,0,0,0,0,-1,552,1653,0,0
-665,-629,0,0,0,0,0,0,0,0,0,-1,559,1653,0,0
-658,-629,0,0,0,0,0,0,0,0,0,-1,566,1653,0,0
-651,-629,0,0,0,0,0,0,0,0,0,-1,573,1653,0,0
-644,-629,0,0,0,0,0,0,0,0,0,-1,580,1653,0,0
-637,-629,0,0,0,0,0,0,0,0,0,-1,587,1653,0,0
-630,-629,0,0,0,0,0,0,0,0,0,-1,594,1653,0,0
-623,-629,0,0,0,0,0,0,0,0,0,-1,601,1653,0,0
-616,-629,0,0,0,0,0,0,0,0,0,-1,608,1653,0,0
-609,-629,0,0,0,0,0,0,0,0,0,-1,615,1653,0,0
-602,-629,0,0,0,0,0,0,0,0,0,-1,622,1653,0,0
-595,-629,0,0,0,0,0,0,0,0,0,-1,629,1653,0,0
-588,-629,0,0,0,0,0,0,0,0,0,-1,636,1653,0,0
-581,-629,0,0,0,0,0,0,0,0,0,-1,643,1653,0,0
-574,-629,0,0,0,0,0,0,0,0,0,-1,650,1653,0,0
-567,-629,0,0,0,0,0,0,0,0,0,-1,657,1653,0,0
-560,-629,0,0,0,0,0,0,0,0,0,-1,664,1653,0,0
-553,-629,0,0,0,0,0,0,0,0,0,-1,671,1653,0,0
-546,-629,0,0,0,0,0,0,0,0,0,-1,678,1653,0,0
-539,-629,0,0,0,0,0,0,0,0,0,-1,685,1653,0,0
-532,-629,0,0,0,0,0,0,0,0,0,-1,692,1653,0,0
-525,-629,0,0,0,0,0,0,0,0,0,-1,699,1653,0,0
-518,-629,0,0,0,0,0,0,0,0,0,-1,706,1653,0,0
-511,-629,0,0,0,0,0,0,0,0,0,-1,713,1653,0,0
-504,-629,0,0,0,0,0,0,0,0,0,-1,720,1653,0,0
-497,-629,0,0,0,0,0,0,0,0,0,-1,727,1653,0,0
-490,-629,0,0,0,0,0,0,0,0,0,-1,734,1653,0,0
-483,-629,0,0,0,0,0,0,0,0,0,-1,741,1653,0,0
-476,-629,0,0,0,0,0,0,0,0,0,-1,748,1653,0,0
-469,-629,0,0,0,0,0,0,0,0,0,-1,755,1653,0,0
-462,-629,0,0,0,0,0,0,0,0,0,-1,762,1653,0,0
-455,-629,0,0,0,0,0,0,0,0,0,-1,769,1653,0,0
-448,-629,0,0,0,0,0,0,0,0,0,-1,776,1653,0,0
-441,-629,0,0,0,0,0,0,0,0,0,-1,783,1653,0,0
-434,-629,0,0,0,0,0,0,0,0,0,-1,790,1653,0,0
-427,-629,0,0,0,0,0,0,0,0,0,-1,797,1653,0,0
-420,-629,-0.153748,0.440796,0,0,0,0,0,0,0,-1,804,1653,-0.153725,-0.440841
-413,-629,-0.104187,0.138306,0.0374837,0.00222188,-0.0306092,0.0551766,-0.015471,-0.524105,0.042882,0.0425663,811,1653,-0.104187,-0.138303
-406,-629,0.226135,-0.202393,0.0335889,0.00039761,-0.0299731,0.0512541,-0.0172676,-0.532564,0.0411511,0.0411923,818,1653,0.226144,0.202422
-399,-629,0.304932,-0.468994,0.0287613,-0.00128516,-0.0284858,0.0459427,-0.0184665,-0.542737,0.0382979,0.0412838,825,1653,0.304924,0.468958
-392,-629,0.260315,-0.486084,0.0244843,-0.00291667,-0.0267508,0.0408389,-0.0192713,-0.548738,0.0354415,0.0426037,832,1653,0.260318,0.486077
-385,-629,0.330444,-0.519043,0.0211957,-0.00449366,-0.0251059,0.036552,-0.0198499,-0.548948,0.0330361,0.0422278,839,1653,0.330422,0.519044
-378,-629,-0.346619,0.505371,0.0184987,-0.00532895,-0.0235434,0.032971,-0.0198013,-0.551165,0.0307827,0.0460285,846,1653,-0.346628,-0.505357
-371,-629,-0.269775,0.299438,0.0166171,-0.00554389,-0.0214806,0.0297067,-0.0186335,-0.547279,0.0281522,0.0444233,853,1653,-0.2698,-0.299479
-364,-629,-0.151672,0.0665283,0.0151673,-0.00536508,-0.0190305,0.0265241,-0.0167219,-0.53804,0.025181,0.0422157,860,1653,-0.151668,-0.0664723
-357,-629,-0.125793,-0.137329,0.0135469,-0.00564252,-0.0165586,0.0230897,-0.0151854,-0.522816,0.0222547,0.0421352,867,1653,-0.125821,0.137299
-350,-629,-0.0536499,-0.204102,0.0121298,-0.00595587,-0.014238,0.0199539,-0.01378,-0.502476,0.0195847,0.0397425,874,1653,-0.0536314,0.204048
-343,-629,-0.00109863,0.0239258,0.0111136,-0.00625671,-0.0118827,0.0171468,-0.0122899,-0.469814,0.0170722,0.0303067,881,1653,-0.001085,-0.0239511
-336,-629,-0.0713501,0.0479736,0.0101865,-0.0062567,-0.00971085,0.0146887,-0.0107589,-0.434127,0.0147505,0.0160786,888,1653,-0.071347,-0.0480021
-329,-629,-0.0446167,0.0378418,0.00951949,-0.00552001,-0.0075659,0.012667,-0.00866747,-0.394229,0.0123894,0.0103828,895,1653,-0.0446309,-0.0377839
-322,-629,-0.0249023,0.0175781,0.00852631,-0.00406445,-0.00597494,0.0109103,-0.00644845,-0.379644,0.0101318,0.0121392,902,1653,-0.024923,-0.0175413
-315,-629,-0.0390625,0.00805664,0.00692933,-0.00415985,-0.00448116,0.00851379,-0.00574431,-0.339862,0.00828352,0.0154907,909,1653,-0.0390594,-0.00808062
-308,-629,-0.0217285,0.0220947,0.0049798,-0.00423326,-0.00259916,0.00566248,-0.00491594,-0.256853,0.00611252,0.0119221,916,1653,-0.0217384,-0.0221299
-301,-629,-0.00292969,0.0368652,0.00344096,-0.00419089,-0.00136436,0.00367754,-0.00442746,-0.17169,0.0046861,0.0109107,923,1653,-0.00295068,-0.0368162
-294,-629,-0.0153809,0.0368652,0.00248962,-0.00370836,-0.00107414,0.00267049,-0.00388923,-0.166825,0.00380898,0.0116297,930,1653,-0.0153835,-0.0368922
-287,-629,-0.0148315,0.0289307,0.00168891,-0.00312597,-0.000761981,0.00180662,-0.00324368,-0.153267,0.00295488,0.00916306,937,1653,-0.0148548,-0.0289458
-280,-629,-0.00683594,0.0368652,0.00095858,-0.00261328,-0.000503187,0.00102811,-0.00268282,-0.137315,0.00221236,0.00939621,944,1653,-0.00685011,-0.036858
-273,-629,-0.0144653,0.0343018,0.00034415,-0.00232519,-0.000294443,0.000376243,-0.00235729,-0.108566,0.00171079,0.0113674,951,1653,-0.0144918,-0.0343126
-266,-629,-0.0213013,0.0418701,-0.000145595,-0.00197828,-0.00016914,-0.000130115,-0.00199376,-0.0912637,0.00128799,0.0113212,958,1653,-0.0213148,-0.0419055
-259,-629,-0.0261841,0.0556641,-0.000684918,-0.00155453,-7.08096e-05,-0.00067919,-0.00156026,-0.0807181,0.000903325,0.0136024,965,1653,-0.0261834,-0.0556966
-252,-629,-0.0263062,0.034668,-0.00120087,-0.00138511,3.31443e-05,-0.00119509,-0.00139089,0.172688,0.000869375,0.0108994,972,1653,-0.0263315,-0.0347126
-245,-629,-0.0273438,0.0305176,-0.00117342,-0.000888424,-0.000185944,-0.000796655,-0.00126519,-1.11234,0.0007386,0.00775458,979,1653,-0.0273396,-0.0305488
-238,-629,-0.0248413,0.0401611,-0.00130635,-0.000173627,-0.000539258,4.20374e-05,-0.00152202,-1.19035,0.00102898,0.00955642,986,1653,-0.0248211,-0.0402092
-231,-629,-0.0231934,0.0478516,-0.00103771,0.000630261,-0.00100214,0.00110004,-0.00150749,-1.13243,0.00151157,0.00936607,993,1653,-0.0232209,-0.0478228
-224,-629,-0.0103149,0.0622559,-5.40422e-05,0.00250007,-0.00167844,0.00333205,-0.000886018,-1.11061,0.00256817,0.0092914,1000,1653,-0.0102975,-0.0622433
-217,-629,-0.0010376,0.0690918,0.00101139,0.00437537,-0.00230424,0.0055462,-0.000159443,-1.10067,0.00375174,0.0120204,1007,1653,-0.00105841,-0.0690979
-210,-629,-0.00439453,0.0305176,0.00224804,0.00704336,-0.00296659,0.00846007,0.000831327,-1.12527,0.00538437,0.0238413,1014,1653,-0.00436764,-0.0305599
-203,-629,-0.169983,0.105469,0.00330793,0.0101179,-0.00391375,0.0119006,0.00152531,-1.1434,0.00747731,0.0360065,1021,1653,-0.169964,-0.105454
-196,-629,-0.190186,0.183594,0.00461822,0.013665,-0.00496675,0.0158595,0.00242374,-1.15475,0.00986481,0.0360466,1028,1653,-0.190243,-0.18357
-189,-629,-0.175781,0.173218,0.00588761,0.0160265,-0.00574483,0.0186188,0.00329532,-1.14691,0.0114729,0.0371812,1035,1653,-0.175838,-0.173163
-182,-629,-0.133423,0.133789,0.00680304,0.0179245,-0.00616604,0.0206669,0.00406065,-1.15231,0.0126436,0.0427251,1042,1653,-0.133455,-0.133842
-175,-629,-0.0998535,0.12207,0,0,0,0,0,0,0,-1,1049,1653,-0.0998102,-0.122037
-168,-629,0.283203,-0.295898,0.00815415,0.0201749,-0.00758198,0.0238398,0.00448925,-1.12054,0.0146283,0.044876,1056,1653,0.283228,0.29588
-161,-629,-0.0455322,0.219482,0.00828289,0.0204736,-0.00898893,0.0252389,0.00351757,-1.08333,0.0157846,0.0408044,1063,1653,-0.0455831,-0.219433
-154,-629,-0.411743,0.126099,0.00682218,0.0194414,-0.00941647,0.0244667,0.00179683,-1.08057,0.0157464,0.0429804,1070,1653,-0.411748,-0.126108
-147,-629,0.223145,-0.443359,0,0,0,0,0,0,0,-1,1077,1653,0.223131,0.443366
-140,-629,0.229004,-0.485107,0.00241177,0.0159265,-0.00981801,0.0210878,-0.00274957,-1.0868,0.015059,0.0473612,1084,1653,0.229031,0.485109
-133,-629,0.346802,-0.409424,-0.000200956,0.0151743,-0.0088744,0.0192278,-0.00425448,-1.14233,0.0144471,0.0463037,1091,1653,0.346785,0.409458
-126,-629,0.414673,-0.350464,0,0,0,0,0,0,0,-1,1098,1653,0.414622,0.350523
-119,-629,0.779541,-1.01196,-0.00790936,0.0133368,-0.0057532,0.0147946,-0.00936722,-1.32262,0.0140667,0.0448358,1105,1653,0.779554,1.01191
-112,-629,0.63208,-1.04431,-0.0108087,0.0136664,-0.00404133,0.0143165,-0.0114588,-1.41131,0.0149118,0.0452648,1112,1653,0.632048,1.04431
-105,-629,0.582153,-1.14575,0,0,0,0,0,0,0,-1,1119,1653,0.582169,1.1458
-98,-629,0.327393,-1.33569,0,0,0,0,0,0,0,-1,1126,1653,0.327358,1.33563
-91,-629,-0.319336,-1.12378,0,0,0,0,0,0,0,-1,1133,1653,-0.319351,1.12375
-84,-629,0.47644,-1.19958,-0.010639,0.0145081,0.00713652,0.0163922,-0.0125231,1.31268,0.016744,0.0444499,1140,1653,0.476409,1.19961
-77,-629,-0.571899,0.836182,-0.00878506,0.0145239,0.00921996,0.0177299,-0.0119911,1.23615,0.0172657,0.0459598,1147,1653,-0.571927,-0.836143
-70,-629,-0.77478,1.79175,0,0,0,0,0,0,0,-1,1154,1653,-0.77473,-1.7918
-63,-629,-1.328,2.81555,0,0,0,0,0,0,0,-1,1161,1653,-1.32795,-2.81556
-56,-629,-0.542236,-1.22925,-0.00108667,-0.00159142,0.0133551,0.0120185,-0.0146966,0.775951,0.0154497,0.042288,1168,1653,-0.542256,1.22922
-49,-629,-0.359375,-1.09558,0.00578999,-0.00875965,0.0139595,0.0142565,-0.0172262,0.54519,0.0182035,0.0450495,1175,1653,-0.359335,1.09554
-42,-629,-0.274902,-0.775879,0.0112835,-0.0194891,0.0144995,0.0170389,-0.0252445,0.377867,0.0245651,0.0459047,1182,1653,-0.274894,0.775878
-35,-629,-0.145142,-0.506714,0,0,0,0,0,0,0,-1,1189,1653,-0.145183,0.506659
-28,-629,-0.0134277,1.31116,0,0,0,0,0,0,0,-1,1196,1653,-0.0133909,-1.31111
-21,-629,0.216675,0.827393,0.0229125,-0.0450488,0.0102129,0.0244141,-0.0465504,0.145981,0.0416305,0.0475111,1203,1653,0.216678,-0.827381
-14,-629,0.270142,0.250488,0.0264155,-0.0395718,0.00910719,0.0276493,-0.0408057,0.134661,0.0397651,0.0439157,1210,1653,0.270083,-0.250518
-7,-629,-1.34167,3.03308,0.0273476,-0.0322909,0.00695732,0.0281484,-0.0330918,0.114608,0.0353954,0.0469411,1217,1653,-1.3417,-3.03311
0,-629,-0.401001,2.90015,0,0,0,0,0,0,0,-1,1224,1653,-0.401034,-2.90015
7,-629,0.024292,2.58948,0,0,0,0,0,0,0,-1,1231,1653,0.0242662,-2.58953
14,-629,1.17468,1.15295,0,0,0,0,0,0,0,-1,1238,1653,1.17471,-1.15289
21,-629,1.96533,0.684937,0,0,0,0,0,0,0,-1,1245,1653,1.96538,-0.684953
28,-629,2.25659,0.240234,0.0418212,-0.00238133,-0.00364324,0.0421195,-0.00267959,-0.0816869,0.0290141,0.0461306,1252,1653,2.25656,-0.240182
35,-629,2.1593,0.0601807,0.046644,-0.00232255,-0.00464188,0.0470801,-0.0027587,-0.093685,0.0323455,0.0421109,1259,1653,2.1593,-0.060161
42,-629,2.28564,0.323975,0.0521665,-0.00193267,-0.00510829,0.0526447,-0.0024108,-0.0933255,0.035927,0.0438786,1266,1653,2.28561,-0.32395
49,-629,2.52966,-3.00793,0,0,0,0,0,0,0,-1,1273,1653,2.52967,3.00797
56,-629,2.65503,-4.09033,0.0532508,-0.0129507,-0.00420374,0.0535167,-0.0132166,-0.063161,0.0408032,0.0471408,1280,1653,2.65506,4.09031
63,-629,3.09216,-4.93933,0.0672557,-0.0256098,-0.00261649,0.0673294,-0.0256834,-0.0281453,0.0554662,0.0443673,1287,1653,3.09217,4.93929
70,-629,3.72546,-5.65552,0.0816054,-0.0381018,0.00155526,0.0816256,-0.038122,0.0129893,0.0706407,0.0470701,1294,1653,3.72549,5.65553
77,-629,4.34631,-6.41064,0.0979044,-0.0508876,0.00850136,0.0983886,-0.0513717,0.0568891,0.087873,0.0490922,1301,1653,4.34635,6.4106
84,-629,4.79785,-7.08167,0,0,0,0,0,0,0,-1,1308,1653,4.79784,7.08167
91,-629,6.14038,-7.18188,0,0,0,0,0,0,0,-1,1315,1653,6.14041,7.18194
98,-629,-3.10852,-6.77698,0,0,0,0,0,0,0,-1,1322,1653,-3.10848,6.77694
105,-629,-2.04138,-6.68433,0,0,0,0,0,0,0,-1,1329,1653,-2.04143,6.68437
112,-629,-1.25854,-6.42688,0.163174,-0.073329,0.0363346,0.16863,-0.0787853,0.149055,0.145951,0.0462982,1336,1653,-1.25852,6.42688
119,-629,1.63367,-8.02698,0.165671,-0.0710745,0.0409847,0.172566,-0.0779689,0.166658,0.148043,0.0429116,1343,1653,1.63371,8.02703
126,-629,2.20337,-6.83472,0.15629,-0.0691039,0.0405121,0.16335,-0.0761643,0.172547,0.141305,0.0418462,1350,1653,2.20331,6.83472
133,-629,3.49219,-6.51404,0.141959,-0.0670081,0.0387362,0.148908,-0.0739575,0.177515,0.131075,0.0483744,1357,1653,3.49224,6.51399
140,-629,4.65491,-5.98706,0,0,0,0,0,0,0,-1,1364,1653,4.65495,5.98704
147,-629,4.20325,-6.01086,0,0,0,0,0,0,0,-1,1371,1653,4.20325,6.01082
154,-629,0.342651,0.831177,0.084735,-0.0501862,0.0249419,0.0891982,-0.0546494,0.177069,0.0838451,0.0447763,1378,1653,0.342624,-0.831166
161,-629,0.323853,1.18384,0.0632927,-0.0397377,0.0189544,0.0666691,-0.0431141,0.176282,0.0638678,0.0405152,1385,1653,0.323838,-1.18385
168,-629,0.194458,0.953613,0,0,0,0,0,0,0,-1,1392,1653,0.194499,-0.95362
175,-629,0.0942383,1.41113,0.0248497,-0.020479,0.0100018,0.0269585,-0.0225878,0.207798,0.0286427,0.0446966,1399,1653,0.0942087,-1.41115
182,-629,0.0350342,1.87659,0.0119914,-0.0127384,0.00417878,0.0126785,-0.0134254,0.162952,0.0150731,0.0434601,1406,1653,0.0350324,-1.87656
189,-629,0.134155,-0.139893,0.00354232,-0.00620702,-0.000349102,0.00355481,-0.00621951,-0.0357467,0.00571268,0.0386299,1413,1653,0.134192,0.139904
196,-629,0.199097,-0.33374,0.00188774,-0.00267771,-0.00181171,0.00251931,-0.00330928,-0.335432,0.00337542,0.0391279,1420,1653,0.199102,0.333726
203,-629,0.159546,-0.0554199,0,0,0,0,0,0,0,-1,1427,1653,0.159501,0.0553646
210,-629,0.17334,0.11145,0,0,0,0,0,0,0,-1,1434,1653,0.17331,-0.111503
217,-629,-0.00280762,0.619629,0,0,0,0,0,0,0,-1,1441,1653,-0.00277209,-0.619664
224,-629,-0.489502,0.152344,0,0,0,0,0,0,0,-1,1448,1653,-0.489488,-0.1523
231,-629,-0.126953,0.153198,0,0,0,0,0,0,0,-1,1455,1653,-0.126908,-0.153161
238,-629,0.118652,0.444824,0.0106448,0.0104071,0.00580954,0.0163367,0.00471524,0.77517,0.00970889,0.0445221,1462,1653,0.118637,-0.444842
245,-629,0.286255,0.684448,0.0107136,0.0117517,0.00629882,0.0175528,0.00491247,0.826508,0.0104564,0.0437014,1469,1653,0.286196,-0.68444
252,-629,0.394165,0.933228,0.010417,0.0133905,0.00573413,0.0178275,0.00598,0.912244,0.0104769,0.0472738,1476,1653,0.394109,-0.933171
259,-629,0.262817,0.95752,0.00879277,0.0148724,0.00503797,0.0177166,0.00594857,1.05685,0.010411,0.047532,1483,1653,0.262848,-0.957577
266,-629,0.157104,0.882324,0,0,0,0,0,0,0,-1,1490,1653,0.157117,-0.882293
273,-629,0.625977,0.178833,0,0,0,0,0,0,0,-1,1497,1653,0.625958,-0.178777
280,-629,0.751831,0.691162,0,0,0,0,0,0,0,-1,1504,1653,0.751829,-0.691157
287,-629,0.744263,0.686279,-0.00102171,0.016235,0.000640482,0.0162587,-0.00104544,1.53375,0.0112039,0.0461461,1511,1653,0.744257,-0.686302
294,-629,0.439331,0.336426,-0.00343856,0.0165353,-0.000113567,0.016536,-0.00343921,-1.56511,0.0123313,0.04282,1518,1653,0.43939,-0.336377
301,-629,0.426636,0.164551,-0.00506873,0.0162798,-0.000447159,0.0162892,-0.00507809,-1.54986,0.01289,0.0453601,1525,1653,0.426682,-0.164531
308,-629,0.401733,0.251831,-0.00536271,0.0151446,-0.000393553,0.0151521,-0.00537026,-1.55161,0.0122891,0.0469917,1532,1653,0.401758,-0.251803
315,-629,0.420532,0.282227,-0.00535142,0.0137749,0.00029021,0.0137793,-0.00535582,1.55563,0.0113989,0.0449907,1539,1653,0.420557,-0.282173
322,-629,0.311646,0.18396,-0.00545431,0.0135634,0.000630915,0.0135843,-0.00547522,1.53767,0.0113311,0.0428562,1546,1653,0.311621,-0.183911
329,-629,0.134277,0.180542,-0.00502677,0.0126166,0.000980973,0.012671,-0.00508114,1.51542,0.0105568,0.0395741,1553,1653,0.134226,-0.180498
336,-629,0.0400391,0.131348,-0.00322537,0.0102625,0.00169168,0.0104714,-0.00343431,1.44791,0.00836412,0.038355,1560,1653,0.0399869,-0.131351
343,-629,-0.0644531,-0.0246582,-0.00158855,0.00960072,0.00275545,0.0102425,-0.0022303,1.34197,0.00768046,0.03234,1567,1653,-0.0644638,0.0246447
350,-629,-0.057251,-0.0622559,-0.00143592,0.00853472,0.00278109,0.00925798,-0.00215918,1.31637,0.00700355,0.0218043,1574,1653,-0.0572715,0.062199
357,-629,-0.0057373,0.00195313,-0.00127027,0.00754726,0.00264211,0.00827834,-0.00200134,1.30085,0.006293,0.0142656,1581,1653,-0.0057701,-0.0019008
364,-629,0.0115967,0.0161133,-0.00081318,0.00619969,0.00237383,0.00692765,-0.00154115,1.27324,0.00520871,0.0120853,1588,1653,0.0115522,-0.016123
371,-629,-0.00805664,0.0179443,-0.000491219,0.0053481,0.00227302,0.00612858,-0.0012717,1.24004,0.004569,0.00950958,1595,1653,-0.00805692,-0.017896
378,-629,-0.0274658,0.0345459,-0.000255566,0.00438649,0.00209194,0.0051901,-0.00105918,1.20403,0.00386185,0.00841303,1602,1653,-0.0274701,-0.0345235
385,-629,-0.0319824,0.0328369,0.000125099,0.00345255,0.00188387,0.00430218,-0.000724525,1.14711,0.00313764,0.0108762,1609,1653,-0.0319703,-0.0328047
392,-629,-0.043457,0.0401611,0.000521696,0.00263479,0.00166846,0.0035531,-0.000396613,1.06765,0.0025114,0.010059,1616,1653,-0.0434265,-0.0401572
399,-629,-0.0560303,0.0471191,0.000499628,0.00128782,0.00135199,0.00230198,-0.000514536,0.927215,0.00173183,0.0099666,1623,1653,-0.0560498,-0.0471045
406,-629,-0.0404053,0.0269775,0.000294152,0.0010736,0.0012374,0.0019812,-0.000613443,0.937958,0.00156586,0.0131455,1630,1653,-0.0403813,-0.0269398
413,-629,-0.0318604,0.0152588,7.84342e-05,0.00131126,0.00123281,0.00207317,-0.000683481,1.01722,0.0016576,0.0209637,1637,1653,-0.0318092,-0.0152471
420,-629,-0.0137939,0.0192871,6.76184e-05,0.00176063,0.00104097,0.00225584,-0.000427588,1.12676,0.00166482,0.0189137,1644,1653,-0.0137673,-0.0192274
427,-629,0.000732422,0.0283203,-0.000112873,0.0020374,0.00115331,0.00253898,-0.000614459,1.16056,0.00193035,0.0122495,1651,1653,0.000778159,-0.0283142
434,-629,0.000488281,0.0203857,-0.000188372,0.00306152,0.000951373,0.00331954,-0.000446392,1.30596,0.00237584,0.0101745,1658,1653,0.000444669,-0.0204376
441,-629,-0.00476074,0.0388184,-0.000622482,0.00447906,0.000720542,0.00457888,-0.000722298,1.43314,0.00331965,0.0139243,1665,1653,-0.00480833,-0.0388554
448,-629,-0.0297852,0.0393066,-0.00142088,0.00615714,0.000677518,0.00621724,-0.00148098,1.48233,0.00471663,0.0127088,1672,1653,-0.0297679,-0.039317
455,-629,-0.0308838,0.0205078,-0.00189577,0.00815748,0.000959453,0.00824823,-0.00198652,1.47649,0.00626684,0.0124175,1679,1653,-0.0309337,-0.0205678
462,-629,-0.010498,0.0458984,-0.00220948,0.0100963,0.00069981,0.0101359,-0.00224915,1.51417,0.00761848,0.0157704,1686,1653,-0.0105499,-0.0459135
469,-629,-0.026001,0.0330811,-0.00253718,0.0126665,0.000275169,0.0126715,-0.00254216,1.55271,0.00941022,0.0179221,1693,1653,-0.0260145,-0.0330528
476,-629,-0.0498047,-0.02771,-0.0031979,0.0153355,0.000373052,0.015343,-0.0032054,1.55068,0.0114477,0.0246095,1700,1653,-0.0497983,0.0277377
483,-629,0.0317383,-0.0606689,-0.00359824,0.0178215,0.000806215,0.0178518,-0.00362854,1.53323,0.0132771,0.0379865,1707,1653,0.0317429,0.0606574
490,-629,0.14917,-0.0860596,-0.00334279,0.0201183,0.0012149,0.0201811,-0.00340553,1.5192,0.0147211,0.041948,1714,1653,0.149154,0.0860407
497,-629,-0.113159,-0.0838623,-0.00220609,0.0221645,0.00101938,0.0222071,-0.00224865,1.52907,0.0156083,0.0406508,1721,1653,-0.11316,0.083803
504,-629,0.0509033,-0.00964355,-0.000305217,0.024295,0.00150311,0.0243865,-0.000396718,1.51,0.0163915,0.0444066,1728,1653,0.0509623,0.00966837
511,-629,0.160522,0.11731,0.0027107,0.0260949,0.00190877,0.0262497,0.00255592,1.48988,0.0167131,0.0467302,1735,1653,0.160498,-0.117354
518,-629,0.776855,-0.945313,0.00609315,0.0277205,0.00245735,0.0279962,0.00581745,1.45907,0.0170589,0.0415244,1742,1653,0.776875,0.945309
525,-629,0.608154,-0.627441,0.0108193,0.0292279,0.00303409,0.0297151,0.0103321,1.41159,0.0174193,0.0393232,1749,1653,0.608136,0.627481
532,-629,0.310791,0.189087,0.017476,0.0304603,0.00307163,0.0311502,0.016786,1.34983,0.0180027,0.0416936,1756,1653,0.310741,-0.189038
539,-629,0.190918,0.375244,0.0256711,0.0322474,0.00408402,0.0342025,0.0237161,1.12433,0.0202332,0.04182,1763,1653,0.190931,-0.375236
546,-629,0,0,0,0,0,0,0,0,0,-1,1770,1653,0,0
553,-629,0,0,0,0,0,0,0,0,0,-1,1777,1653,0,0
560,-629,0,0,0,0,0,0,0,0,0,-1,1784,1653,0,0
567,-629,0,0,0,0,0,0,0,0,0,-1,1791,1653,0,0
574,-629,0,0,0,0,0,0,0,0,0,-1,1798,1653,0,0
581,-629,0,0,0,0,0,0,0,0,0,-1,1805,1653,0,0
588,-629,0,0,0,0,0,0,0,0,0,-1,1812,1653,0,0
595,-629,0,0,0,0,0,0,0,0,0,-1,1819,1653,0,0
602,-629,0,0,0,0,0,0,0,0,0,-1,1826,1653,0,0
609,-629,0,0,0,0,0,0,0,0,0,-1,1833,1653,0,0
616,-629,0,0,0,0,0,0,0,0,0,-1,1840,1653,0,0
623,-629,0,0,0,0,0,0,0,0,0,-1,1847,1653,0,0
630,-629,0,0,0,0,0,0,0,0,0,-1,1854,1653,0,0
637,-629,0,0,0,0,0,0,0,0,0,-1,1861,1653,0,0
644,-629,0,0,0,0,0,0,0,0,0,-1,1868,1653,0,0
651,-629,0,0,0,0,0,0,0,0,0,-1,1875,1653,0,0
658,-629,0,0,0,0,0,0,0,0,0,-1,1882,1653,0,0
665,-629,0,0,0,0,0,0,0,0,0,-1,1889,1653,0,0
672,-629,0,0,0,0,0,0,0,0,0,-1,1896,1653,0,0
679,-629,0,0,0,0,0,0,0,0,0,-1,1903,1653,0,0
686,-629,0,0,0,0,0,0,0,0,0,-1,1910,1653,0,0
693,-629,0,0,0,0,0,0,0,0,0,-1,1917,1653,0,0
700,-629,0,0,0,0,0,0,0,0,0,-1,1924,1653,0,0
707,-629,0,0,0,0,0,0,0,0,0,-1,1931,1653,0,0
714,-629,0,0,0,0,0,0,0,0,0,-1,1938,1653,0,0
721,-629,0,0,0,0,0,0,0,0,0,-1,1945,1653,0,0
728,-629,0,0,0,0,0,0,0,0,0,-1,1952,1653,0,0
735,-629,0,0,0,0,0,0,0,0,0,-1,1959,1653,0,0
742,-629,0,0,0,0,0,0,0,0,0,-1,1966,1653,0,0
749,-629,0,0,0,0,0,0,0,0,0,-1,1973,1653,0,0
756,-629,0,0,0,0,0,0,0,0,0,-1,1980,1653,0,0
763,-629,0,0,0,0,0,0,0,0,0,-1,1987,1653,0,0
770,-629,0,0,0,0,0,0,0,0,0,-1,1994,1653,0,0
777,-629,0,0,0,0,0,0,0,0,0,-1,2001,1653,0,0
784,-629,0,0,0,0,0,0,0,0,0,-1,2008,1653,0,0
791,-629,0,0,0,0,0,0,0,0,0,-1,2015,1653,0,0
798,-629,0,0,0,0,0,0,0,0,0,-1,2022,1653,0,0
805,-629,0,0,0,0,0,0,0,0,0,-1,2029,1653,0,0
812,-629,0,0,0,0,0,0,0,0,0,-1,2036,1653,0,0
-700,-636,0,0,0,0,0,0,0,0,0,-1,524,1660,0,0
-693,-636,0,0,0,0,0,0,0,0,0,-1,531,1660,0,0
-686,-636,0,0,0,0,0,0,0,0,0,-1,538,1660,0,0
-679,-636,0,0,0,0,0,0,0,0,0,-1,545,1660,0,0
-672,-636,0,0,0,0,0,0,0,0,0,-1,552,1660,0,0
-665,-636,0,0,0,0,0,0,0,0,0,-1,559,1660,0,0
-658,-636,0,0,0,0,0,0,0,0,0,-1,566,1660,0,0
-651,-636,0,0,0,0,0,0,0,0,0,-1,573,1660,0,0
-644,-636,0,0,0,0,0,0,0,0,0,-1,580,1660,0,0
-637,-636,0,0,0,0,0,0,0,0,0,-1,587,1660,0,0
-630,-636,0,0,0,0,0,0,0,0,0,-1,594,1660,0,0
-623,-636,0,0,0,0,0,0,0,0,0,-1,601,1660,0,0
-616,-636,0,0,0,0,0,0,0,0,0,-1,608,1660,0,0
-609,-636,0,0,0,0,0,0,0,0,0,-1,615,1660,0,0
-602,-636,0,0,0,0,0,0,0,0,0,-1,622,1660,0,0
-595,-636,0,0,0,0,0,0,0,0,0,-1,629,1660,0,0
-588,-636,0,0,0,0,0,0,0,0,0,-1,636,1660,0,0
-581,-636,0,0,0,0,0,0,0,0,0,-1,643,1660,0,0
-574,-636,0,0,0,0,0,0,0,0,0,-1,650,1660,0,0
-567,-636,0,0,0,0,0,0,0,0,0,-1,657,1660,0,0
-560,-636,0,0,0,0,0,0,0,0,0,-1,664,1660,0,0
-553,-636,0,0,0,0,0,0,0,0,0,-1,671,1660,0,0
-546,-636,0,0,0,0,0,0,0,0,0,-1,678,1660,0,0
-539,-636,0,0,0,0,0,0,0,0,0,-1,685,1660,0,0
-532,-636,0,0,0,0,0,0,0,0,0,-1,692,1660,0,0
-525,-636,0,0,0,0,0,0,0,0,0,-1,699,1660,0,0
-518,-636,0,0,0,0,0,0,0,0,0,-1,706,1660,0,0
-511,-636,0,0,0,0,0,0,0,0,0,-1,713,1660,0,0
-504,-636,0,0,0,0,0,0,0,0,0,-1,720,1660,0,0
-497,-636,0,0,0,0,0,0,0,0,0,-1,727,1660,0,0
-490,-636,0,0,0,0,0,0,0,0,0,-1,734,1660,0,0
-483,-636,0,0,0,0,0,0,0,0,0,-1,741,1660,0,0
-476,-636,0,0,0,0,0,0,0,0,0,-1,748,1660,0,0
-469,-636,0,0,0,0,0,0,0,0,0,-1,755,1660,0,0
-462,-636,0,0,0,0,0,0,0,0,0,-1,762,1660,0,0
-455,-636,0,0,0,0,0,0,0,0,0,-1,769,1660,0,0
-448,-636,0,0,0,0,0,0,0,0,0,-1,776,1660,0,0
-441,-636,0,0,0,0,0,0,0,0,0,-1,783,1660,0,0
-434,-636,0,0,0,0,0,0,0,0,0,-1,790,1660,0,0
-427,-636,0,0,0,0,0,0,0,0,0,-1,797,1660,0,0
-420,-636,0,0,0,0,0,0,0,0,0,-1,804,1660,0,0
-413,-636,0,0,0,0,0,0,0,0,0,-1,811,1660,0,0
-406,-636,0.255554,-0.228638,0.037089,0.00250188,-0.0421867,0.0653891,-0.0257982,-0.59088,0.0542759,0.0427152,818,1660,0.255553,0.228634
-399,-636,0.316345,-0.668945,0.0323112,-2.08298e-06,-0.0400934,0.0593809,-0.0270718,-0.593864,0.0510622,0.0408671,825,1660,0.316375,0.668903
-392,-636,0.47876,-0.89502,0.0283878,-0.00258063,-0.0373176,0.0533061,-0.0274989,-0.588742,0.0474393,0.0428993,832,1660,0.478782,0.895018
-385,-636,0.730591,-1.01929,0,0,0,0,0,0,0,-1,839,1660,0.730582,1.01927
-378,-636,-0.359985,0.255615,0,0,0,0,0,0,0,-1,846,1660,-0.360001,-0.255643
-371,-636,-0.303894,0.0189209,0.0211317,-0.00694935,-0.0293531,0.0396295,-0.0254471,-0.562316,0.0378682,0.049547,853,1660,-0.303901,-0.0188713
-364,-636,0.200134,-0.172852,0.020105,-0.00709802,-0.0257916,0.0356619,-0.0226549,-0.54275,0.0339472,0.0442386,860,1660,0.200155,0.172871
-357,-636,-0.121704,-0.528564,0,0,0,0,0,0,0,-1,867,1660,-0.121721,0.528563
-350,-636,0.185791,-0.0958252,0.017367,-0.00773684,-0.0186128,0.0272647,-0.0176345,-0.488739,0.0261206,0.0445169,874,1660,0.185773,0.0958629
-343,-636,0.150757,0.114502,0.0162038,-0.00812012,-0.0153428,0.0236203,-0.0155366,-0.450267,0.0227673,0.0410166,881,1660,0.150733,-0.114449
-336,-636,-0.100891,0.153809,0.0149188,-0.00806438,-0.0122959,0.0202571,-0.0134027,-0.409598,0.0195673,0.029676,888,1660,-0.100905,-0.153803
-329,-636,-0.0817871,0.0811768,0.0138888,-0.00715611,-0.00929075,0.0174035,-0.0106707,-0.361656,0.0163633,0.0168043,895,1660,-0.081795,-0.0811932
-322,-636,-0.0346069,0.0303955,0.0124228,-0.00544436,-0.00703751,0.0148618,-0.00788336,-0.333616,0.0133363,0.0106603,902,1660,-0.034617,-0.030369
-315,-636,-0.052002,0.0164795,0.0101909,-0.00534807,-0.00510273,0.0117168,-0.00687389,-0.290558,0.010854,0.0112615,909,1660,-0.0520268,-0.0164354
-308,-636,-0.0315552,0.0203857,0.00757881,-0.00526486,-0.0027666,0.0081494,-0.00583545,-0.203392,0.00811092,0.0105565,916,1660,-0.0315751,-0.0203745
-301,-636,0.00396729,0.0368652,0.00540482,-0.0049668,-0.00128456,0.00556155,-0.00512353,-0.12141,0.00617076,0.0111489,923,1660,0.00399239,-0.0368123
-294,-636,-0.0236816,0.0428467,0.00394914,-0.00415942,-0.00103183,0.00407838,-0.00428866,-0.124607,0.00483122,0.0145166,930,1660,-0.0236696,-0.0428003
-287,-636,-0.0201416,0.03479,0.00269351,-0.00325922,-0.000716218,0.00277847,-0.00334418,-0.118073,0.00353994,0.0121327,937,1660,-0.0201462,-0.0348052
-280,-636,-0.00286865,0.0489502,0.00156906,-0.00244459,-0.000427755,0.00161415,-0.00248967,-0.105004,0.00238725,0.0108125,944,1660,-0.00286872,-0.0490063
-273,-636,-0.0194092,0.0450439,0.000678905,-0.00203697,-0.000275178,0.000706506,-0.00206457,-0.0999685,0.00166269,0.0106334,951,1660,-0.0194215,-0.0450982
-266,-636,-0.0134277,0.0523682,-8.35959e-05,-0.00159972,-0.000190266,-6.00832e-05,-0.00162323,-0.122955,0.0010627,0.0119913,958,1660,-0.0134117,-0.0523079
-259,-636,0.000244141,0.0668945,-0.000854898,-0.0011365,-0.00010562,-0.000819687,-0.00117172,-0.32179,0.000694219,0.0134788,965,1660,0.000262882,-0.066918
-252,-636,-0.0136108,0.0375977,-0.00142501,-0.000984509,-5.42959e-05,-0.000977915,-0.0014316,-1.44995,0.000844805,0.0103991,972,1660,-0.0135893,-0.0375528
-245,-636,-0.00506592,0.0340576,-0.00130131,-0.00047646,-8.54025e-05,-0.00046771,-0.00131006,-1.4687,0.000766604,0.00969579,979,1660,-0.00504033,-0.0340942
-238,-636,0.00524902,0.0429688,-0.0013265,0.000179832,-0.000251559,0.000220732,-0.0013674,-1.40962,0.000993384,0.011322,986,1660,0.00524058,-0.0429252
-231,-636,-0.00964355,0.0391846,-0.00114405,0.000775958,-0.000582436,0.000938825,-0.00130692,-1.29813,0.00130237,0.010267,993,1660,-0.00962845,-0.0391884
-224,-636,-0.0169067,0.0500488,-0.000521715,0.00210281,-0.00113521,0.0025257,-0.000944599,-1.2142,0.00207173,0.00776452,1000,1660,-0.0169174,-0.0500181
-217,-636,-0.0230103,0.0603027,0.00015679,0.00340076,-0.00162104,0.00407194,-0.000514392,-1.17824,0.00290133,0.00861722,1007,1660,-0.0229926,-0.0603574
-210,-636,-0.0184326,0.0270996,0.000925535,0.00528987,-0.00215909,0.00617747,3.79293e-05,-1.18076,0.00410573,0.0126687,1014,1660,-0.0184457,-0.0271009
-203,-636,-0.00146484,0.0291748,0.00159178,0.00746866,-0.00298349,0.00871778,0.000342662,-1.17429,0.00570107,0.0170356,1021,1660,-0.00146681,-0.0291756
-196,-636,0.019165,0.0533447,0.00249992,0.00989648,-0.00385229,0.0115384,0.000858034,-1.1679,0.00742278,0.0170984,1028,1660,0.0192169,-0.0533911
-189,-636,0.0384521,0.0212402,0.00343102,0.0115263,-0.00446529,0.0135055,0.00145187,-1.15359,0.00856082,0.0188278,1035,1660,0.0384976,-0.0211839
-182,-636,0.0587158,-0.000366211,0.00418487,0.0128382,-0.00481766,0.0149869,0.00203621,-1.15128,0.00938643,0.0350139,1042,1660,0.0586777,0.000321408
-175,-636,-0.0427246,0.00927734,0.00473866,0.0137242,-0.00527512,0.0161605,0.00230238,-1.13814,0.0100941,0.0435332,1049,1660,-0.0427661,-0.00931417
-168,-636,0.0263672,-0.0334473,0.00555049,0.014098,-0.00596299,0.0171606,0.00248787,-1.09632,0.0107079,0.0421008,1056,1660,0.0263944,0.0333952
-161,-636,0.135864,0.0622559,0.00595219,0.0141999,-0.00718208,0.0183579,0.00179424,-1.04601,0.0116865,0.0404299,1063,1660,0.135874,-0.0623077
-154,-636,0.127808,0.131226,0.00500646,0.0132978,-0.00744025,0.0176694,0.00063487,-1.03957,0.0115738,0.0431588,1070,1660,0.12777,-0.131223
-147,-636,0.232056,-0.337036,0.00375044,0.0121489,-0.00768591,0.0167079,-0.000808572,-1.03542,0.0114177,0.048815,1077,1660,0.232037,0.337044
-140,-636,0.266479,-0.390015,0.00199414,0.0104502,-0.0076229,0.0149391,-0.00249476,-1.0386,0.0108867,0.0483482,1084,1660,0.26645,0.389993
-133,-636,0.272217,-0.319946,-4.59072e-05,0.009767,-0.0066775,0.0131468,-0.00342572,-1.10224,0.010102,0.045637,1091,1660,0.272228,0.319941
-126,-636,0.316162,-0.362305,-0.00266401,0.00911597,-0.00522918,0.0111023,-0.00465034,-1.20778,0.00934561,0.0432028,1098,1660,0.316172,0.362322
-119,-636,0.4646,-0.619629,-0.00604584,0.00824062,-0.00374247,0.00916162,-0.00696684,-1.3295,0.00934046,0.0412282,1105,1660,0.464588,0.619663
-112,-636,0.894409,-0.95752,-0.00845293,0.0084053,-0.00231787,0.00871818,-0.00876581,-1.43662,0.0100944,0.043029,1112,1660,0.894382,0.957544
-105,-636,2.21606,-1.54846,0,0,0,0,0,0,0,-1,1119,1660,2.21612,1.54841
-98,-636,1.2981,-1.37561,0,0,0,0,0,0,0,-1,1126,1660,1.29816,1.37564
-91,-636,0.313843,-1.42896,0,0,0,0,0,0,0,-1,1133,1660,0.313829,1.42899
-84,-636,-0.347168,-0.377319,-0.00895159,0.00799904,0.00663156,0.0102852,-0.0112377,1.23882,0.0124303,0.0408687,1140,1660,-0.347181,0.377269
-77,-636,-0.744385,0.304443,-0.00755685,0.00756275,0.00809022,0.0110755,-0.0110696,1.16116,0.0127855,0.0403965,1147,1660,-0.744393,-0.304434
-70,-636,-1.34644,0.577881,0,0,0,0,0,0,0,-1,1154,1660,-1.34639,-0.577862
-63,-636,-1.04578,-0.882568,-0.00411851,0.00318022,0.00837465,0.0086661,-0.00960438,0.990874,0.0105531,0.0428537,1161,1660,-1.04573,0.882543
-56,-636,-0.612305,-1.25647,-0.0014257,-0.0043098,0.0108964,0.00812362,-0.0138591,0.719609,0.0128349,0.0412548,1168,1660,-0.61234,1.25643
-49,-636,-0.0622559,-1.10767,0.00514313,-0.00862601,0.010854,0.0111118,-0.0145947,0.502772,0.014887,0.04502,1175,1660,-0.0621991,1.10764
-42,-636,-0.109253,-0.463623,0.0108206,-0.0152295,0.0108859,0.0147707,-0.0191795,0.348086,0.0196562,0.0443965,1182,1660,-0.109277,0.463596
-35,-636,-0.0507813,-0.241089,0.0162012,-0.0211996,0.0109032,0.0191476,-0.024146,0.26393,0.025051,0.0447292,1189,1660,-0.0507783,0.241064
-28,-636,0.129028,1.31482,0,0,0,0,0,0,0,-1,1196,1660,0.129067,-1.31476
-21,-636,0.393188,0.856689,0,0,0,0,0,0,0,-1,1203,1660,0.393208,-0.856642
-14,-636,-2.31958,2.74561,0,0,0,0,0,0,0,-1,1210,1660,-2.31957,-2.74557
-7,-636,-1.63525,2.54065,0.0358942,-0.0166434,0.00504216,0.0363737,-0.017123,0.0948192,0.0315459,0.0464924,1217,1660,-1.63526,-2.5406
0,-636,-0.910034,2.18958,0.038345,-0.0116891,0.00216558,0.0384385,-0.0117827,0.0431745,0.0303261,0.0478598,1224,1660,-0.910088,-2.18958
7,-636,-0.394897,1.97522,0,0,0,0,0,0,0,-1,1231,1660,-0.394913,-1.97518
14,-636,2.16296,0.840454,0,0,0,0,0,0,0,-1,1238,1660,2.16298,-0.840494
21,-636,2.2334,0.0614014,0,0,0,0,0,0,0,-1,1245,1660,2.23342,-0.0614499
28,-636,2.18323,-0.47998,0.0512106,0.00156778,-0.00800461,0.0524694,0.000309005,-0.155979,0.0348771,0.0450574,1252,1660,2.1832,0.479951
35,-636,2.2157,-0.609619,0.0546209,-0.00122712,-0.00976648,0.0562796,-0.00288578,-0.168227,0.0385177,0.0424838,1259,1660,2.21571,0.60956
42,-636,2.42517,-0.298218,0.0577619,-0.00422558,-0.0109275,0.0596319,-0.00609554,-0.169482,0.0419344,0.0455772,1266,1660,2.42512,0.298187
49,-636,1.61292,-2.81421,0,0,0,0,0,0,0,-1,1273,1660,1.61298,2.81425
56,-636,2.05554,-3.51379,0.0558885,-0.0127648,-0.011567,0.0577849,-0.0146613,-0.162509,0.044228,0.0471391,1280,1660,2.05551,3.51384
63,-636,2.49939,-4.20361,0.0664872,-0.0222202,-0.0107562,0.0677728,-0.0235058,-0.118958,0.0547265,0.0438768,1287,1660,2.49934,4.20356
70,-636,3.07605,-4.91162,0.0775308,-0.0319622,-0.00797691,0.0781089,-0.0325403,-0.0723441,0.0656643,0.046856,1294,1660,3.0761,4.91157
77,-636,3.78918,-5.80505,0.0901276,-0.0417521,-0.00267117,0.0901817,-0.0418061,-0.0202436,0.0778906,0.0486823,1301,1660,3.78919,5.80501
84,-636,4.37817,-6.50134,0.105636,-0.0526396,0.00412329,0.105743,-0.0527469,0.0260278,0.0931939,0.0464978,1308,1660,4.37816,6.5014
91,-636,5.05347,-7.22791,0.119954,-0.0632455,0.00987345,0.120484,-0.0637761,0.0536874,0.108049,0.043928,1315,1660,5.05342,7.22787
98,-636,5.27795,-7.80811,0.133574,-0.0720106,0.0169481,0.134962,-0.0733984,0.0817034,0.122035,0.0464237,1322,1660,5.27798,7.80809
105,-636,-2.28931,-5.7478,0,0,0,0,0,0,0,-1,1329,1660,-2.28925,5.74777
112,-636,-1.31494,-5.7981,0.144778,-0.0687181,0.0265394,0.148027,-0.0719678,0.121838,0.12952,0.0486579,1336,1660,-1.31492,5.79807
119,-636,0.848267,-6.94568,0.145998,-0.068493,0.0320278,0.150679,-0.0731732,0.145104,0.131798,0.0434762,1343,1660,0.84828,6.94567
126,-636,1.48352,-6.20789,0.137312,-0.0665266,0.0338519,0.142787,-0.0720015,0.16034,0.126233,0.041272,1350,1660,1.48355,6.20783
133,-636,2.65588,-5.66467,0.124354,-0.063702,0.0337779,0.130237,-0.0695851,0.172438,0.117125,0.0455705,1357,1660,2.65589,5.66469
140,-636,3.45459,-5.05273,0.108926,-0.0569478,0.0318357,0.114827,-0.062848,0.183255,0.104033,0.0439233,1364,1660,3.45455,5.05273
147,-636,4.00879,-4.72168,0.0922026,-0.049404,0.0285974,0.0977598,-0.0549611,0.191932,0.0893201,0.0458955,1371,1660,4.00877,4.72169
154,-636,0.443115,-0.190552,0.0757463,-0.0465292,0.0246964,0.0805459,-0.0513288,0.191952,0.0767583,0.043312,1378,1660,0.443141,0.190573
161,-636,0.376099,0.367188,0.057271,-0.0351318,0.0196955,0.0612939,-0.0391547,0.201484,0.0584617,0.0439195,1385,1660,0.376066,-0.367243
168,-636,0.262573,0.675293,0.0373793,-0.0252698,0.0164729,0.0414466,-0.0293371,0.242068,0.0410658,0.0436984,1392,1660,0.262599,-0.675345
175,-636,0.119263,1.0708,0.0235051,-0.015473,0.0109799,0.0263852,-0.0183532,0.256533,0.0259681,0.0453781,1399,1660,0.119263,-1.07079
182,-636,-0.0800781,0.694824,0,0,0,0,0,0,0,-1,1406,1660,-0.0801005,-0.694826
189,-636,-0.148438,0.909912,0,0,0,0,0,0,0,-1,1413,1660,-0.148479,-0.909956
196,-636,0.0881348,-0.0772705,0.00210334,0.000948421,-0.00163047,0.00325559,-0.000203828,-0.615207,0.00224143,0.0410125,1420,1660,0.0881718,0.0772731
203,-636,-0.503662,0.318359,0.00220276,0.00291129,-0.00216229,0.00474814,0.000365906,-0.866595,0.00305078,0.0448395,1427,1660,-0.503612,-0.318324
210,-636,0.169678,0.283813,0.00367438,0.00174607,-0.00132369,0.00434783,0.00107262,-0.470635,0.00261539,0.0423933,1434,1660,0.169696,-0.283847
217,-636,-0.193481,0.142212,0.00610223,0.00236417,6.92224e-05,0.00610352,0.00236289,0.0185098,0.00355367,0.0422119,1441,1660,-0.193464,-0.142195
224,-636,-0.220703,-0.0255127,0.00845655,0.00393876,0.00206947,0.0092612,0.00313411,0.370832,0.00543923,0.041597,1448,1660,-0.22068,0.0254538
231,-636,0.538208,0.721924,0,0,0,0,0,0,0,-1,1455,1660,0.538263,-0.721885
238,-636,0.472778,0.641479,0.00855488,0.010663,0.00443691,0.0141694,0.00504856,0.902021,0.00829254,0.045446,1462,1660,0.472724,-0.641482
245,-636,0.336792,0.653809,0.00856676,0.0118534,0.00501946,0.0154917,0.00492845,0.943593,0.00913922,0.0434165,1469,1660,0.336831,-0.653797
252,-636,0.293213,0.664917,0.00836003,0.0133618,0.00470483,0.0161891,0.0055327,1.02969,0.00950157,0.0422835,1476,1660,0.293154,-0.66496
259,-636,0.212769,0.64917,0.00715121,0.0144884,0.00434952,0.0165099,0.00512973,1.13574,0.00975703,0.0465225,1483,1660,0.212796,-0.649183
266,-636,0.279907,-0.435059,0.00546568,0.0152292,0.00365643,0.0164467,0.00424817,1.24937,0.00985839,0.0439049,1490,1660,0.279863,0.435082
273,-636,0.481812,-0.243774,0.00335852,0.0156442,0.00299683,0.0163362,0.00266649,1.34385,0.0101198,0.0483849,1497,1660,0.481846,0.24374
280,-636,0.469604,0.14856,0.00111913,0.0151925,0.00215336,0.0155146,0.000797021,1.42231,0.0100879,0.0494237,1504,1660,0.469597,-0.148584
287,-636,0.313843,0.0487061,-0.000856184,0.0147094,0.00109469,0.014786,-0.000932793,1.50093,0.0101825,0.0462887,1511,1660,0.313787,-0.0487648
294,-636,0.339233,0.137207,-0.00286132,0.0143516,0.000307973,0.0143571,-0.00286682,1.55291,0.0106564,0.0441568,1518,1660,0.339215,-0.137194
301,-636,0.348877,0.0305176,-0.00417782,0.0137152,-9.80827e-05,0.0137157,-0.00417835,-1.56531,0.0108092,0.0448053,1525,1660,0.348883,-0.0305516
308,-636,0.226196,0.211914,-0.00446401,0.0124746,-0.000170803,0.0124763,-0.00446573,-1.56071,0.0101394,0.0466731,1532,1660,0.226186,-0.211878
315,-636,0.203979,0.202759,-0.00457727,0.0110783,0.000294097,0.0110838,-0.0045828,1.55202,0.00930106,0.0441344,1539,1660,0.203996,-0.202737
322,-636,0.032959,0.0458984,-0.00477125,0.0105635,0.000458204,0.0105772,-0.00478493,1.54095,0.00907707,0.0385275,1546,1660,0.0329609,-0.04587
329,-636,-0.00793457,0.0493164,-0.00445094,0.00941515,0.000562,0.00943789,-0.00447368,1.53035,0.00820054,0.0257441,1553,1660,-0.00793173,-0.0493406
336,-636,-0.00952148,0.0489502,-0.00303385,0.00722375,0.000963445,0.00731346,-0.00312356,1.47795,0.00618555,0.0197036,1560,1660,-0.00948546,-0.0489102
343,-636,-0.0175781,0.0428467,-0.001715,0.00661354,0.00175821,0.00696949,-0.00207095,1.37104,0.00546895,0.0163524,1567,1660,-0.017533,-0.0428654
350,-636,-0.026123,0.0257568,-0.00154506,0.00578769,0.00179092,0.00620172,-0.00195909,1.34361,0.00491931,0.0100772,1574,1660,-0.0261248,-0.0258143
357,-636,-0.0227051,0.0153809,-0.00135472,0.00508172,0.00168334,0.00549539,-0.00176839,1.32983,0.00437389,0.00913291,1581,1660,-0.0226681,-0.015425
364,-636,-0.0228271,0.00524902,-0.000875909,0.00409265,0.0014861,0.00450321,-0.00128648,1.30125,0.00351044,0.00956039,1588,1660,-0.0228572,-0.00520274
371,-636,-0.03125,0.020752,-0.000459544,0.00351892,0.00143103,0.00398018,-0.000920803,1.25899,0.00300774,0.00823653,1595,1660,-0.0311925,-0.0207994
378,-636,-0.0354004,0.0336914,-0.000180241,0.00288295,0.00126276,0.00333639,-0.000633677,1.22605,0.00246281,0.00805555,1602,1660,-0.0353692,-0.0336503
385,-636,-0.0275879,0.0280762,0.000159831,0.00239796,0.00109506,0.00284461,-0.00028682,1.18352,0.00199888,0.0132158,1609,1660,-0.0275536,-0.0280651
392,-636,-0.0402832,0.0258789,0.000570732,0.00205216,0.000971332,0.00253298,8.99123e-05,1.11115,0.00165949,0.014915,1616,1660,-0.0402758,-0.0258312
399,-636,-0.0471191,0.0333252,0.000601465,0.00119722,0.000756392,0.00171227,8.64086e-05,0.972979,0.00111383,0.0112956,1623,1660,-0.0471474,-0.0332677
406,-636,-0.0283203,0.0354004,0.000420717,0.00111003,0.000749793,0.00159059,-5.984e-05,1.00083,0.00108089,0.0127106,1630,1660,-0.0283591,-0.0354567
413,-636,-0.0292969,0.0273438,0.000275942,0.00137245,0.000815799,0.00180711,-0.000158713,1.08126,0.00126098,0.0194662,1637,1660,-0.02925,-0.0273031
420,-636,-0.00915527,0.010498,0.000278784,0.00190376,0.000732915,0.00218548,-2.94077e-06,1.20382,0.00145797,0.0203087,1644,1660,-0.00916344,-0.0105473
427,-636,-0.017334,0.0349121,7.39681e-06,0.00257932,0.000978334,0.00290916,-0.00032245,1.24561,0.00205537,0.0125008,1651,1660,-0.0173144,-0.0349419
434,-636,-0.0286865,0.0174561,-0.000164462,0.00393503,0.000875166,0.00411405,-0.000343476,1.36903,0.00286406,0.010786,1658,1660,-0.0286368,-0.0174383
441,-636,-0.0129395,-0.0078125,-0.000773037,0.00563508,0.000726281,0.00571636,-0.000854321,1.45934,0.00412528,0.0114812,1665,1660,-0.012944,0.00781387
448,-636,0.0170898,0.0339355,-0.00183933,0.00768653,0.000723103,0.00774111,-0.00189391,1.49546,0.00589435,0.0122969,1672,1660,0.017128,-0.0339665
455,-636,-0.0032959,0.0317383,-0.00250828,0.0101638,0.0011033,0.0102592,-0.00260362,1.4846,0.00785254,0.0122442,1679,1660,-0.00332276,-0.0317351
462,-636,-0.0458984,0.00634766,-0.00310793,0.0126984,0.000856019,0.0127446,-0.00315416,1.51685,0.0097199,0.0158736,1686,1660,-0.0459248,-0.006373
469,-636,-0.133179,-0.0825195,-0.00383407,0.0159838,0.000380115,0.0159911,-0.00384136,1.55163,0.0121454,0.0249661,1693,1660,-0.1332,0.0825203
476,-636,-0.294434,-0.307373,-0.0048892,0.0194046,0.000440611,0.0194126,-0.00489719,1.55267,0.0148459,0.0402006,1700,1660,-0.294405,0.307376
483,-636,-0.525513,-0.769165,-0.00561512,0.0227724,0.000849939,0.0227979,-0.00564054,1.54089,0.0173865,0.0465541,1707,1660,-0.525491,0.769147
490,-636,0.158325,-0.360474,-0.00567342,0.0258467,0.00116647,0.0258898,-0.00571653,1.53386,0.0194475,0.0462268,1714,1660,0.158296,0.360425
497,-636,-0.458374,-0.259888,-0.00493992,0.0286391,0.000812196,0.0286587,-0.00495956,1.54663,0.0209555,0.0429546,1721,1660,-0.458353,0.259856
504,-636,-0.258423,-0.0252686,-0.00337618,0.0316724,0.00120668,0.0317139,-0.00341768,1.53642,0.022369,0.0438136,1728,1660,-0.258376,0.0252293
511,-636,0.163208,0.162842,0,0,0,0,0,0,0,-1,1735,1660,0.163148,-0.162823
518,-636,0.843628,-0.96228,0,0,0,0,0,0,0,-1,1742,1660,0.843657,0.962251
525,-636,1.21265,-0.845337,0,0,0,0,0,0,0,-1,1749,1660,1.21259,0.845307
532,-636,0,0,0,0,0,0,0,0,0,-1,1756,1660,0,0
539,-636,0,0,0,0,0,0,0,0,0,-1,1763,1660,0,0
546,-636,0,0,0,0,0,0,0,0,0,-1,1770,1660,0,0
553,-636,0,0,0,0,0,0,0,0,0,-1,1777,1660,0,0
560,-636,0,0,0,0,0,0,0,0,0,-1,1784,1660,0,0
567,-636,0,0,0,0,0,0,0,0,0,-1,1791,1660,0,0
574,-636,0,0,0,0,0,0,0,0,0,-1,1798,1660,0,0
581,-636,0,0,0,0,0,0,0,0,0,-1,1805,1660,0,0
588,-636,0,0,0,0,0,0,0,0,0,-1,1812,1660,0,0
595,-636,0,0,0,0,0,0,0,0,0,-1,1819,1660,0,0
602,-636,0,0,0,0,0,0,0,0,0,-1,1826,1660,0,0
609,-636,0,0,0,0,0,0,0,0,0,-1,1833,1660,0,0
616,-636,0,0,0,0,0,0,0,0,0,-1,1840,1660,0,0
623,-636,0,0,0,0,0,0,0,0,0,-1,1847,1660,0,0
630,-636,0,0,0,0,0,0,0,0,0,-1,1854,1660,0,0
637,-636,0,0,0,0,0,0,0,0,0,-1,1861,1660,0,0
644,-636,0,0,0,0,0,0,0,0,0,-1,1868,1660,0,0
651,-636,0,0,0,0,0,0,0,0,0,-1,1875,1660,0,0
658,-636,0,0,0,0,0,0,0,0,0,-1,1882,1660,0,0
665,-636,0,0,0,0,0,0,0,0,0,-1,1889,1660,0,0
672,-636,0,0,0,0,0,0,0,0,0,-1,1896,1660,0,0
679,-636,0,0,0,0,0,0,0,0,0,-1,1903,1660,0,0
686,-636,0,0,0,0,0,0,0,0,0,-1,1910,1660,0,0
693,-636,0,0,0,0,0,0,0,0,0,-1,1917,1660,0,0
700,-636,0,0,0,0,0,0,0,0,0,-1,1924,1660,0,0
707,-636,0,0,0,0,0,0,0,0,0,-1,1931,1660,0,0
714,-636,0,0,0,0,0,0,0,0,0,-1,1938,1660,0,0
721,-636,0,0,0,0,0,0,0,0,0,-1,1945,1660,0,0
728,-636,0,0,0,0,0,0,0,0,0,-1,1952,1660,0,0
735,-636,0,0,0,0,0,0,0,0,0,-1,1959,1660,0,0
742,-636,0,0,0,0,0,0,0,0,0,-1,1966,1660,0,0
749,-636,0,0,0,0,0,0,0,0,0,-1,1973,1660,0,0
756,-636,0,0,0,0,0,0,0,0,0,-1,1980,1660,0,0
763,-636,0,0,0,0,0,0,0,0,0,-1,1987,1660,0,0
770,-636,0,0,0,0,0,0,0,0,0,-1,1994,1660,0,0
777,-636,0,0,0,0,0,0,0,0,0,-1,2001,1660,0,0
784,-636,0,0,0,0,0,0,0,0,0,-1,2008,1660,0,0
791,-636,0,0,0,0,0,0,0,0,0,-1,2015,1660,0,0
798,-636,0,0,0,0,0,0,0,0,0,-1,2022,1660,0,0
805,-636,0,0,0,0,0,0,0,0,0,-1,2029,1660,0,0
812,-636,0,0,0,0,0,0,0,0,0,-1,2036,1660,0,0
-700,-643,0,0,0,0,0,0,0,0,0,-1,524,1667,0,0
-693,-643,0,0,0,0,0,0,0,0,0,-1,531,1667,0,0
-686,-643,0,0,0,0,0,0,0,0,0,-1,538,1667,0,0
-679,-643,0,0,0,0,0,0,0,0,0,-1,545,1667,0,0
-672,-643,0,0,0,0,0,0,0,0,0,-1,552,1667,0,0
-665,-643,0,0,0,0,0,0,0,0,0,-1,559,1667,0,0
-658,-643,0,0,0,0,0,0,0,0,0,-1,566,1667,0,0
-651,-643,0,0,0,0,0,0,0,0,0,-1,573,1667,0,0
-644,-643,0,0,0,0,0,0,0,0,0,-1,580,1667,0,0
-637,-643,0,0,0,0,0,0,0,0,0,-1,587,1667,0,0
-630,-643,0,0,0,0,0,0,0,0,0,-1,594,1667,0,0
-623,-643,0,0,0,0,0,0,0,0,0,-1,601,1667,0,0
-616,-643,0,0,0,0,0,0,0,0,0,-1,608,1667,0,0
-609,-643,0,0,0,0,0,0,0,0,0,-1,615,1667,0,0
-602,-643,0,0,0,0,0,0,0,0,0,-1,622,1667,0,0
-595,-643,0,0,0,0,0,0,0,0,0,-1,629,1667,0,0
-588,-643,0,0,0,0,0,0,0,0,0,-1,636,1667,0,0
-581,-643,0,0,0,0,0,0,0,0,0,-1,643,1667,0,0
-574,-643,0,0,0,0,0,0,0,0,0,-1,650,1667,0,0
-567,-643,0,0,0,0,0,0,0,0,0,-1,657,1667,0,0
-560,-643,0,0,0,0,0,0,0,0,0,-1,664,1667,0,0
-553,-643,0,0,0,0,0,0,0,0,0,-1,671,1667,0,0
-546,-643,0,0,0,0,0,0,0,0,0,-1,678,1667,0,0
-539,-643,0,0,0,0,0,0,0,0,0,-1,685,1667,0,0
-532,-643,0,0,0,0,0,0,0,0,0,-1,692,1667,0,0
-525,-643,0,0,0,0,0,0,0,0,0,-1,699,1667,0,0
-518,-643,0,0,0,0,0,0,0,0,0,-1,706,1667,0,0
-511,-643,0,0,0,0,0,0,0,0,0,-1,713,1667,0,0
-504,-643,0,0,0,0,0,0,0,0,0,-1,720,1667,0,0
-497,-643,0,0,0,0,0,0,0,0,0,-1,727,1667,0,0
-490,-643,0,0,0,0,0,0,0,0,0,-1,734,1667,0,0
-483,-643,0,0,0,0,0,0,0,0,0,-1,741,1667,0,0
-476,-643,0,0,0,0,0,0,0,0,0,-1,748,1667,0,0
-469,-643,0,0,0,0,0,0,0,0,0,-1,755,1667,0,0
-462,-643,0,0,0,0,0,0,0,0,0,-1,762,1667,0,0
-455,-643,0,0,0,0,0,0,0,0,0,-1,769,1667,0,0
-448,-643,0,0,0,0,0,0,0,0,0,-1,776,1667,0,0
-441,-643,0,0,0,0,0,0,0,0,0,-1,783,1667,0,0
-434,-643,0,0,0,0,0,0,0,0,0,-1,790,1667,0,0
-427,-643,0,0,0,0,0,0,0,0,0,-1,797,1667,0,0
-420,-643,0,0,0,0,0,0,0,0,0,-1,804,1667,0,0
-413,-643,0,0,0,0,0,0,0,0,0,-1,811,1667,0,0
-406,-643,0,0,0,0,0,0,0,0,0,-1,818,1667,0,0
-399,-643,0.341919,-0.994507,0,0,0,0,0,0,0,-1,825,1667,0.341946,0.994562
-392,-643,0.465088,-1.07922,0,0,0,0,0,0,0,-1,832,1667,0.465093,1.07918
-385,-643,0.868164,2.5437,0.029614,-0.00541888,-0.0466485,0.0619264,-0.0377313,-0.605795,0.0580998,0.0455921,839,1667,0.868142,-2.54368
-378,-643,0.724304,1.65576,0.0273995,-0.007243,-0.0434433,0.0568474,-0.0366908,-0.595702,0.0544207,0.0474467,846,1667,0.724289,-1.65578
-371,-643,-0.290344,-0.182617,0,0,0,0,0,0,0,-1,853,1667,-0.290371,0.18267
-364,-643,0.797729,-0.212646,0.0257649,-0.00884675,-0.0342445,0.0468281,-0.0299099,-0.551435,0.0446622,0.0452884,860,1667,0.79776,0.212704
-357,-643,1.00403,-0.304443,0.0247148,-0.00877135,-0.0285334,0.0410548,-0.0251113,-0.520074,0.0385689,0.0477455,867,1667,1.00405,0.304502
-350,-643,1.19269,-0.452515,0,0,0,0,0,0,0,-1,874,1667,1.19269,0.452514
-343,-643,0.225769,0.233032,0.0218538,-0.00972153,-0.0196173,0.0312472,-0.019115,-0.446573,0.0293565,0.0467449,881,1667,0.225759,-0.233059
-336,-643,0.122803,0.325073,0.0200668,-0.0095804,-0.0154413,0.0266482,-0.0161618,-0.402903,0.0249623,0.0463401,888,1667,0.122819,-0.325044
-329,-643,-0.0823975,0.177612,0.0185661,-0.00848354,-0.0113847,0.0227198,-0.0126373,-0.349846,0.0206883,0.0360065,895,1667,-0.0824219,-0.177659
-322,-643,-0.0274048,0.0357666,0.0165308,-0.00653297,-0.00831344,0.019215,-0.00921719,-0.312311,0.0167502,0.0220521,902,1667,-0.0273992,-0.0357611
-315,-643,-0.0332031,0.0109863,0.0135649,-0.00627186,-0.00583183,0.0151523,-0.00785933,-0.265768,0.0135064,0.014933,909,1667,-0.0331861,-0.0110227
-308,-643,-0.0262451,0.00695801,0.0102323,-0.00608337,-0.00295948,0.0107526,-0.0066036,-0.174006,0.0101156,0.0116441,916,1667,-0.0262638,-0.00699777
-301,-643,0.000671387,0.0405273,0.00739013,-0.00553105,-0.00119302,0.00749936,-0.00564027,-0.0913021,0.00761144,0.0126073,923,1667,0.000687728,-0.0405824
-294,-643,-0.00878906,0.0435791,0.00543096,-0.00439708,-0.00100355,0.00553239,-0.00449851,-0.100726,0.00580159,0.0118687,930,1667,-0.00880261,-0.0436012
-287,-643,-0.00805664,0.0410156,0.0037488,-0.0031828,-0.000690734,0.00381696,-0.00325096,-0.0983612,0.00408502,0.0104221,937,1667,-0.00804135,-0.0410318
-280,-643,-0.00811768,0.0456543,0.00229826,-0.00205016,-0.000447167,0.00234377,-0.00209567,-0.10142,0.00256445,0.0130564,944,1667,-0.00809886,-0.0456855
-273,-643,-0.0159302,0.0303955,0.00122242,-0.00150173,-0.000435937,0.00129048,-0.00156979,-0.154876,0.00165401,0.0113094,951,1667,-0.0159405,-0.0304336
-266,-643,-0.0223389,0.0411377,0.000292752,-0.000964977,-0.00044903,0.000436609,-0.00110883,-0.310041,0.000919968,0.0113048,958,1667,-0.0223104,-0.041176
-259,-643,-0.00738525,0.0549316,-0.000623141,-0.000435571,-0.00043388,-8.54561e-05,-0.000973256,-0.891838,0.000622311,0.0109508,965,1667,-0.00739061,-0.0548805
-252,-643,-0.0119629,0.0228271,-0.00115777,-0.000330579,-0.000521526,-7.85546e-05,-0.0014098,-1.12064,0.000914805,0.0118836,972,1667,-0.0119344,-0.022799
-245,-643,0.0090332,0.0224609,-0.000872706,0.000220623,-0.000400531,0.000351651,-0.00100373,-1.25463,0.000812159,0.0106393,979,1667,0.00903395,-0.0224844
-238,-643,0.0481567,0.0209961,-0.000761199,0.000818294,-0.00041364,0.000920062,-0.000862967,-1.32956,0.00102961,0.013804,986,1667,0.0481641,-0.0210446
-231,-643,-0.00549316,0.0230713,-0.000681687,0.00114858,-0.000671785,0.00136869,-0.000901791,-1.25418,0.00132007,0.0105327,993,1667,-0.00548965,-0.0230975
-224,-643,-0.0266724,0.0313721,-0.000525059,0.00189067,-0.00108241,0.00230471,-0.000939094,-1.20546,0.00192734,0.00830731,1000,1667,-0.0266985,-0.0313197
-217,-643,-0.0301514,0.0189209,-0.000287144,0.0026028,-0.00142121,0.00318459,-0.000868936,-1.18224,0.00246431,0.00716993,1007,1667,-0.0301267,-0.0189514
-210,-643,-0.0153809,0.0200195,-3.75772e-05,0.00374651,-0.00181686,0.00447759,-0.000768661,-1.18823,0.00327152,0.00961093,1014,1667,-0.0153665,-0.0199685
-203,-643,0.00280762,0.0292969,0.000137953,0.00508273,-0.00247644,0.00610969,-0.000889011,-1.17769,0.00439951,0.0111452,1021,1667,0.00280285,-0.0292413
-196,-643,-0.00964355,0.0396729,0.000483041,0.00650411,-0.00311494,0.00782557,-0.000838419,-1.16958,0.00551779,0.0107503,1028,1667,-0.00965477,-0.0397018
-189,-643,-0.0078125,0.0437012,0.000917384,0.0074754,-0.00353044,0.00901468,-0.000621894,-1.15964,0.00622744,0.00991354,1035,1667,-0.00784529,-0.0437038
-182,-643,0.0187988,0.012207,0.00143379,0.00831373,-0.00379942,0.00999908,-0.000251569,-1.15329,0.00675147,0.0159175,1042,1667,0.0188424,-0.0122134
-175,-643,-0.010376,0.00708008,0.0018903,0.00884436,-0.00414081,0.0107744,-3.97023e-05,-1.13464,0.00719618,0.0290474,1049,1667,-0.010337,-0.00703078
-168,-643,-0.000488281,0.00744629,0.00270556,0.00896899,-0.00463525,0.0114313,0.00024325,-1.08249,0.0075411,0.0358886,1056,1667,-0.000463014,-0.00749716
-161,-643,0.0811768,-0.0145264,0.0033432,0.00907044,-0.00566374,0.0125533,-0.000139697,-1.01946,0.00841584,0.0402388,1063,1667,0.081186,0.0145664
-154,-643,0.145264,-0.0129395,0.00289071,0.00832635,-0.00575039,0.0119688,-0.000751775,-1.00616,0.00824125,0.0414951,1070,1667,0.145271,0.0129201
-147,-643,0.246216,-0.278809,0.00226645,0.00742254,-0.00581838,0.0112084,-0.00151945,-0.993943,0.00802686,0.0487611,1077,1667,0.246227,0.27879
-140,-643,0.0838623,-0.161133,0,0,0,0,0,0,0,-1,1084,1667,0.0838493,0.16117
-133,-643,0.364136,-0.276855,-0.00027283,0.0054777,-0.004752,0.00815659,-0.00295172,-1.05747,0.00664391,0.0461518,1091,1667,0.364195,0.276845
-126,-643,0.369507,-0.273315,-0.00213124,0.00496682,-0.0033788,0.00631798,-0.0034824,-1.19038,0.00573666,0.043238,1098,1667,0.369487,0.27336
-119,-643,0.302856,-0.353882,-0.00457764,0.00424744,-0.00205535,0.00470265,-0.00503284,-1.35284,0.00562187,0.0401742,1105,1667,0.302909,0.353927
-112,-643,2.06079,-1.59692,-0.00659751,0.0042354,-0.000854051,0.00430232,-0.00666443,-1.4926,0.00638042,0.0431152,1112,1667,2.06076,1.59693
-105,-643,1.93677,-1.479,-0.00764827,0.00423662,0.000916525,0.00430688,-0.00771854,1.49428,0.0070354,0.0417035,1119,1667,1.93674,1.47901
-98,-643,1.72363,-1.38074,0,0,0,0,0,0,0,-1,1126,1667,1.7236,1.38068
-91,-643,-0.509644,-0.658813,0,0,0,0,0,0,0,-1,1133,1667,-0.509632,0.658841
-84,-643,-0.541748,-0.448853,-0.00765408,0.00335956,0.00619177,0.00613907,-0.0104336,1.14886,0.00967471,0.0420012,1140,1667,-0.541762,0.448841
-77,-643,-0.684448,-0.293579,-0.00662722,0.00287227,0.00713241,0.00669173,-0.0104467,1.07915,0.00997372,0.0410629,1147,1667,-0.684474,0.293605
-70,-643,-0.770508,-0.384033,0,0,0,0,0,0,0,-1,1154,1667,-0.770469,0.383998
-63,-643,-0.604858,-0.775635,-0.00421706,-0.000147015,0.00697937,0.00508796,-0.00945204,0.927254,0.00851978,0.0404335,1161,1667,-0.604819,0.775667
-56,-643,-0.258179,-1.15027,-0.00190986,-0.00488779,0.00876393,0.00549069,-0.0122883,0.701253,0.0105118,0.0422629,1168,1667,-0.258155,1.15029
-49,-643,0.123291,-0.627075,0.00406517,-0.00689446,0.00835954,0.00858087,-0.0114102,0.495276,0.0115803,0.045412,1175,1667,0.123234,0.62707
-42,-643,0.0480957,-0.1604,0.009418,-0.0104223,0.0081259,0.0123212,-0.0133256,0.343148,0.014811,0.0448874,1182,1667,0.048081,0.160393
-35,-643,0.106812,-0.0865479,0.0150866,-0.0132192,0.00796888,0.0171759,-0.0153084,0.256406,0.0187652,0.0452902,1189,1667,0.106871,0.0865985
-28,-643,0.193237,1.22729,0,0,0,0,0,0,0,-1,1196,1667,0.193254,-1.22729
-21,-643,0.312134,0.725342,0.0279043,-0.0159555,0.00524038,0.0285217,-0.016573,0.117281,0.0263383,0.0467418,1203,1667,0.312103,-0.725353
-14,-643,0.443359,0.237183,0,0,0,0,0,0,0,-1,1210,1667,0.443402,-0.23719
-7,-643,-2.52063,1.50793,0,0,0,0,0,0,0,-1,1217,1667,-2.52061,-1.50789
0,-643,-1.39258,1.49365,0,0,0,0,0,0,0,-1,1224,1667,-1.39263,-1.49363
7,-643,-0.0777588,0.864624,0,0,0,0,0,0,0,-1,1231,1667,-0.0777918,-0.86458
14,-643,1.3418,0.759888,0.0484219,0.00397078,-0.00481832,0.0489382,0.00345449,-0.106744,0.0315371,0.0446341,1238,1667,1.34177,-0.759905
21,-643,1.81677,0.0675049,0.0516704,0.00529016,-0.00795666,0.0529975,0.00396314,-0.16526,0.0340875,0.0449221,1245,1667,1.81673,-0.0674835
28,-643,2.30249,-0.852295,0.0540983,0.003347,-0.0112569,0.0564831,0.000962215,-0.208764,0.0373388,0.0451105,1252,1667,2.3025,0.85228
35,-643,2.54114,-1.65735,0.0566995,-0.000946611,-0.0134075,0.0596653,-0.00391239,-0.217697,0.041143,0.0433979,1259,1667,2.54112,1.65732
42,-643,2.84802,-2.39185,0,0,0,0,0,0,0,-1,1266,1667,2.84803,2.39189
49,-643,0.979736,-2.23743,0.0574629,-0.00345548,-0.0173018,0.0620339,-0.00802647,-0.25829,0.0442746,0.0485843,1273,1667,0.979783,2.23747
56,-643,1.47839,-2.90466,0.0554937,-0.0122436,-0.0162244,0.0591793,-0.0159291,-0.223369,0.0456975,0.0477622,1280,1667,1.4784,2.9047
63,-643,1.91821,-3.58362,0.0637301,-0.0195344,-0.0157303,0.0666028,-0.022407,-0.180628,0.0534597,0.0461065,1287,1667,1.91822,3.58366
70,-643,2.45337,-4.26086,0.0722839,-0.0273867,-0.0135632,0.0740966,-0.0291994,-0.132862,0.0614871,0.045014,1294,1667,2.45336,4.26081
77,-643,3.03003,-4.91858,0,0,0,0,0,0,0,-1,1301,1667,3.03001,4.91853
84,-643,3.80005,-5.97241,0.0942665,-0.0439062,-0.00325771,0.0943432,-0.043983,-0.0235596,0.0816079,0.0457657,1308,1667,3.80003,5.97239
91,-643,4.30176,-6.93237,0.105529,-0.0529551,0.00206138,0.105556,-0.0529819,0.0130039,0.0931943,0.0458625,1315,1667,4.30171,6.9324
98,-643,4.45325,-7.77002,0.116885,-0.0611521,0.00853914,0.117294,-0.0615607,0.0478163,0.10492,0.0462496,1322,1667,4.45322,7.76998
105,-643,-2.43567,-4.39893,0.123768,-0.0625482,0.0150385,0.124974,-0.0637542,0.0800245,0.110857,0.0448122,1329,1667,-2.43565,4.39893
112,-643,-1.21252,-4.61011,0.12641,-0.0627834,0.0198214,0.128464,-0.0648378,0.103274,0.1136,0.0451366,1336,1667,-1.21255,4.61007
119,-643,-0.300903,-5.30408,0,0,0,0,0,0,0,-1,1343,1667,-0.300924,5.30404
126,-643,0.93396,-5.03735,0.11923,-0.0616848,0.0279634,0.123454,-0.0659084,0.149907,0.110998,0.0409476,1350,1667,0.933957,5.03736
133,-643,1.83496,-4.60193,0.107979,-0.0585514,0.0287267,0.112795,-0.0633675,0.166108,0.103033,0.0432101,1357,1667,1.83502,4.60191
140,-643,2.94885,-4.01636,0.0950333,-0.0518112,0.0276794,0.100077,-0.0568554,0.180257,0.0917435,0.0424091,1364,1667,2.94884,4.01633
147,-643,3.85266,-3.5177,0.080843,-0.0443338,0.025292,0.0857601,-0.0492509,0.192018,0.0788929,0.0433686,1371,1667,3.85266,3.51764
154,-643,0.791626,-0.38623,0,0,0,0,0,0,0,-1,1378,1667,0.791625,0.386189
161,-643,0.53479,-0.00402832,0.0510766,-0.0305427,0.018497,0.0550728,-0.0345389,0.212777,0.0521881,0.0468347,1385,1667,0.534764,0.00404233
168,-643,0.298218,0.455933,0.0339238,-0.020777,0.0155356,0.0380281,-0.0248813,0.258287,0.0365842,0.0449885,1392,1667,0.298252,-0.455973
175,-643,0.112427,0.893433,0.0218287,-0.011416,0.0105658,0.0249025,-0.0144898,0.283107,0.0230065,0.0463742,1399,1667,0.1124,-0.89344
182,-643,-0.114868,0.727173,0.0118585,-0.00474773,0.00508255,0.0132906,-0.00617981,0.274644,0.0114884,0.044416,1406,1667,-0.114914,-0.727158
189,-643,-0.175415,0.794678,0.00473683,0.000881885,0.000538406,0.00481061,0.0008081,0.136195,0.00297453,0.0435211,1413,1667,-0.175448,-0.79465
196,-643,-0.248901,0.417114,0.0023761,0.00359405,-0.00165241,0.00474612,0.00122402,-0.961945,0.00284523,0.0399914,1420,1667,-0.248929,-0.41715
203,-643,-0.567749,0.472534,0.00215793,0.00486179,-0.00233758,0.00621023,0.00080949,-1.04757,0.00389844,0.0429576,1427,1667,-0.56775,-0.472562
210,-643,-0.519287,0.182983,0.0033107,0.0035364,-0.00179187,0.00521897,0.00162813,-0.816846,0.00308338,0.0449574,1434,1667,-0.519298,-0.182956
217,-643,-0.223633,-0.154175,0.00513614,0.00360666,-0.000676141,0.00539218,0.00335062,-0.361993,0.00314361,0.0463471,1441,1667,-0.223582,0.154211
224,-643,0.0203857,-0.185303,0.00676019,0.00467898,0.000967122,0.00714022,0.00429896,0.374407,0.00415094,0.0442029,1448,1667,0.0204282,0.185254
231,-643,-0.152466,-0.24707,0.00714308,0.00773338,0.00255758,0.0100128,0.00486368,0.842845,0.00578167,0.0406067,1455,1667,-0.15252,0.247018
238,-643,-0.135254,-0.0172119,0.00686337,0.010078,0.00325894,0.0121044,0.00483693,1.01449,0.0070353,0.0404026,1462,1667,-0.135194,0.0172213
245,-643,0.186768,0.382446,0.00682563,0.0110449,0.00386829,0.0133414,0.00452911,1.03504,0.00783387,0.0401226,1469,1667,0.18671,-0.382419
252,-643,0.173462,0.452393,0.00665804,0.0123334,0.00372821,0.014181,0.00481043,1.11069,0.00832734,0.0396966,1476,1667,0.173518,-0.452414
259,-643,-0.317505,0.344849,0.00575691,0.0131147,0.00360113,0.0145839,0.00428775,1.18344,0.00865492,0.0409347,1483,1667,-0.317544,-0.344803
266,-643,-0.0985107,-0.60022,0.00435997,0.0136024,0.00319134,0.0145972,0.00336511,1.26861,0.00882627,0.0410356,1490,1667,-0.09848,0.600176
273,-643,0.193726,-0.500488,0.00261032,0.0138223,0.00284799,0.0145042,0.00192837,1.33577,0.00909509,0.0427279,1497,1667,0.19378,0.500528
280,-643,0.239624,-0.482666,0.000823835,0.0132512,0.00229754,0.0136623,0.000412674,1.39371,0.00897383,0.0458232,1504,1667,0.239579,0.482724
287,-643,0.09729,-0.243774,-0.000700933,0.0125102,0.00145077,0.0126676,-0.000858374,1.4627,0.00874525,0.0451376,1511,1667,0.097274,0.243814
294,-643,-0.0352783,-0.110474,-0.00233591,0.0117392,0.000731212,0.0117771,-0.0023738,1.51903,0.00875064,0.042707,1518,1667,-0.0352422,0.110527
301,-643,-0.192993,-0.0892334,-0.00338745,0.0108966,0.000331659,0.0109043,-0.00339515,1.54759,0.00862691,0.0353257,1525,1667,-0.193011,0.08924
308,-643,-0.120239,0.0350342,-0.00367864,0.0098168,0.000180381,0.00981921,-0.00368105,1.55743,0.00805846,0.0310723,1532,1667,-0.120244,-0.0350061
315,-643,-0.0274658,0.0825195,-0.00389463,0.00851504,0.000462161,0.00853223,-0.00391181,1.53362,0.0073478,0.0244865,1539,1667,-0.0275155,-0.0825543
322,-643,-0.0192871,0.052002,-0.0041555,0.00793445,0.000470956,0.00795277,-0.00417382,1.53192,0.0071137,0.0143508,1546,1667,-0.0192902,-0.0520074
329,-643,-0.0214844,0.0341797,-0.00394931,0.00681275,0.00030851,0.00682159,-0.00395814,1.54216,0.00629645,0.0109508,1553,1667,-0.021474,-0.0341737
336,-643,-0.029541,0.0622559,-0.00292366,0.00495813,0.000375842,0.00497601,-0.00294154,1.52326,0.00462123,0.010452,1560,1667,-0.0295363,-0.0622339
343,-643,-0.0114746,0.067749,-0.00191055,0.00443759,0.000846019,0.00454841,-0.00202136,1.44055,0.00388547,0.012427,1567,1667,-0.0114713,-0.0677507
350,-643,-0.0161133,0.0290527,-0.0017358,0.00388401,0.000742174,0.00398037,-0.00183217,1.44168,0.00343141,0.0118577,1574,1667,-0.01611,-0.0290191
357,-643,-0.03125,0.0152588,-0.00155282,0.00347652,0.000564721,0.00353915,-0.00161545,1.46034,0.00304431,0.0099818,1581,1667,-0.0312567,-0.01521
364,-643,-0.0319824,0.0230713,-0.00106045,0.00282514,0.000378494,0.00286167,-0.00109698,1.47459,0.00236001,0.0087096,1588,1667,-0.0320085,-0.0231046
371,-643,-0.0366211,0.0322266,-0.000493027,0.00252137,0.00032125,0.00255523,-0.000526883,1.4658,0.00190358,0.00738301,1595,1667,-0.0366678,-0.0321979
378,-643,-0.0292969,0.0446777,-0.000166601,0.00216668,0.000132717,0.0021742,-0.000174126,1.51416,0.00151086,0.00893405,1602,1667,-0.0292932,-0.0447065
385,-643,-0.0117188,0.0472412,0.000100946,0.00202365,-5.12664e-05,0.00202502,9.95796e-05,-1.54416,0.00131807,0.0148966,1609,1667,-0.0117425,-0.0472176
392,-643,-0.0344238,0.0249023,0.000535642,0.00205015,-8.66566e-05,0.0020551,0.000530699,-1.51383,0.00123188,0.0153589,1616,1667,-0.0344052,-0.0249392
399,-643,-0.045166,0.0362549,0.000634982,0.00156377,-0.000187287,0.00160011,0.000598639,-1.37912,0.000933534,0.0123341,1623,1667,-0.0451792,-0.0362879
406,-643,-0.0245361,0.0419922,0.000484916,0.00155171,-4.79893e-05,0.00155387,0.000482762,-1.52593,0.00091831,0.0114448,1630,1667,-0.0245964,-0.0420065
413,-643,-0.0335693,0.0396729,0.000403338,0.00176282,0.000135374,0.00177617,0.000389989,1.4725,0.0010779,0.0165899,1637,1667,-0.0335816,-0.0396299
420,-643,-0.0344238,0.0373535,0.000411672,0.00239693,0.000196394,0.00241617,0.00039243,1.47313,0.00149721,0.0160102,1644,1667,-0.0344348,-0.0373042
427,-643,-0.0263672,0.0506592,4.80903e-05,0.00336603,0.000605059,0.00347292,-5.88044e-05,1.39593,0.00233513,0.0134675,1651,1667,-0.0263209,-0.0506101
434,-643,-0.0368652,0.0339355,-0.000220062,0.00500035,0.000618045,0.00507252,-0.000292235,1.45455,0.00348318,0.0135801,1658,1667,-0.0368557,-0.0338774
441,-643,-0.00939941,0.0131836,-0.00101533,0.0069877,0.000567113,0.00702769,-0.00105531,1.5004,0.00507361,0.0137664,1665,1667,-0.00939597,-0.0132387
448,-643,0.0185547,0.026001,-0.00238026,0.00943509,0.000617092,0.00946723,-0.00241241,1.51876,0.00725065,0.0170225,1672,1667,0.0185912,-0.0259764
455,-643,-0.137329,-0.041748,-0.00328552,0.0123854,0.00114314,0.0124683,-0.00336847,1.49836,0.00963338,0.0232732,1679,1667,-0.137384,0.0417783
462,-643,-0.266235,-0.15918,-0.0041943,0.0155544,0.000945163,0.0155996,-0.00423943,1.52308,0.0120638,0.0322384,1686,1667,-0.266182,0.159155
469,-643,-0.347168,-0.240479,-0.00540546,0.0196303,0.000421692,0.0196374,-0.00541256,1.55396,0.01522,0.0369026,1693,1667,-0.347153,0.240478
476,-643,-0.539063,-0.449097,-0.00704796,0.0239174,0.000430482,0.0239233,-0.00705395,1.5569,0.0187479,0.0438577,1700,1667,-0.539033,0.449044
483,-643,-0.604004,-0.776367,-0.00818142,0.0283341,0.000816261,0.0283523,-0.00819965,1.54846,0.0221467,0.0458139,1707,1667,-0.60396,0.776344
490,-643,-0.713989,-0.174072,0,0,0,0,0,0,0,-1,1714,1667,-0.713997,0.174121
497,-643,-0.798706,-0.293213,-0.00845251,0.0359895,0.000525938,0.0359957,-0.00845873,1.55896,0.0272578,0.0445649,1721,1667,-0.798735,0.293214
504,-643,-0.911987,-0.387939,-0.00745911,0.0399991,0.000698356,0.0400094,-0.00746938,1.55609,0.0294799,0.0468946,1728,1667,-0.912047,0.387999
511,-643,-1.00061,-0.463013,0,0,0,0,0,0,0,-1,1735,1667,-1.00065,0.462991
518,-643,0.906006,-0.961548,0,0,0,0,0,0,0,-1,1742,1667,0.90603,0.961539
525,-643,0,0,0,0,0,0,0,0,0,-1,1749,1667,0,0
532,-643,0,0,0,0,0,0,0,0,0,-1,1756,1667,0,0
539,-643,0,0,0,0,0,0,0,0,0,-1,1763,1667,0,0
546,-643,0,0,0,0,0,0,0,0,0,-1,1770,1667,0,0
553,-643,0,0,0,0,0,0,0,0,0,-1,1777,1667,0,0
560,-643,0,0,0,0,0,0,0,0,0,-1,1784,1667,0,0
567,-643,0,0,0,0,0,0,0,0,0,-1,1791,1667,0,0
574,-643,0,0,0,0,0,0,0,0,0,-1,1798,1667,0,0
581,-643,0,0,0,0,0,0,0,0,0,-1,1805,1667,0,0
588,-643,0,0,0,0,0,0,0,0,0,-1,1812,1667,0,0
595,-643,0,0,0,0,0,0,0,0,0,-1,1819,1667,0,0
602,-643,0,0,0,0,0,0,0,0,0,-1,1826,1667,0,0
609,-643,0,0,0,0,0,0,0,0,0,-1,1833,1667,0,0
616,-643,0,0,0,0,0,0,0,0,0,-1,1840,1667,0,0
623,-643,0,0,0,0,0,0,0,0,0,-1,1847,1667,0,0
630,-643,0,0,0,0,0,0,0,0,0,-1,1854,1667,0,0
637,-643,0,0,0,0,0,0,0,0,0,-1,1861,1667,0,0
644,-643,0,0,0,0,0,0,0,0,0,-1,1868,1667,0,0
651,-643,0,0,0,0,0,0,0,0,0,-1,1875,1667,0,0
658,-643,0,0,0,0,0,0,0,0,0,-1,1882,1667,0,0
665,-643,0,0,0,0,0,0,0,0,0,-1,1889,1667,0,0
672,-643,0,0,0,0,0,0,0,0,0,-1,1896,1667,0,0
679,-643,0,0,0,0,0,0,0,0,0,-1,1903,1667,0,0
686,-643,0,0,0,0,0,0,0,0,0,-1,1910,1667,0,0
693,-643,0,0,0,0,0,0,0,0,0,-1,1917,1667,0,0
700,-643,0,0,0,0,0,0,0,0,0,-1,1924,1667,0,0
707,-643,0,0,0,0,0,0,0,0,0,-1,1931,1667,0,0
714,-643,0,0,0,0,0,0,0,0,0,-1,1938,1667,0,0
721,-643,0,0,0,0,0,0,0,0,0,-1,1945,1667,0,0
728,-643,0,0,0,0,0,0,0,0,0,-1,1952,1667,0,0
735,-643,0,0,0,0,0,0,0,0,0,-1,1959,1667,0,0
742,-643,0,0,0,0,0,0,0,0,0,-1,1966,1667,0,0
749,-643,0,0,0,0,0,0,0,0,0,-1,1973,1667,0,0
756,-643,0,0,0,0,0,0,0,0,0,-1,1980,1667,0,0
763,-643,0,0,0,0,0,0,0,0,0,-1,1987,1667,0,0
770,-643,0,0,0,0,0,0,0,0,0,-1,1994,1667,0,0
777,-643,0,0,0,0,0,0,0,0,0,-1,2001,1667,0,0
784,-643,0,0,0,0,0,0,0,0,0,-1,2008,1667,0,0
791,-643,0,0,0,0,0,0,0,0,0,-1,2015,1667,0,0
798,-643,0,0,0,0,0,0,0,0,0,-1,2022,1667,0,0
805,-643,0,0,0,0,0,0,0,0,0,-1,2029,1667,0,0
812,-643,0,0,0,0,0,0,0,0,0,-1,2036,1667,0,0
-700,-650,0,0,0,0,0,0,0,0,0,-1,524,1674,0,0
-693,-650,0,0,0,0,0,0,0,0,0,-1,531,1674,0,0
-686,-650,0,0,0,0,0,0,0,0,0,-1,538,1674,0,0
-679,-650,0,0,0,0,0,0,0,0,0,-1,545,1674,0,0
-672,-650,0,0,0,0,0,0,0,0,0,-1,552,1674,0,0
-665,-650,0,0,0,0,0,0,0,0,0,-1,559,1674,0,0
-658,-650,0,0,0,0,0,0,0,0,0,-1,566,1674,0,0
-651,-650,0,0,0,0,0,0,0,0,0,-1,573,1674,0,0
-644,-650,0,0,0,0,0,0,0,0,0,-1,580,1674,0,0
-637,-650,0,0,0,0,0,0,0,0,0,-1,587,1674,0,0
-630,-650,0,0,0,0,0,0,0,0,0,-1,594,1674,0,0
-623,-650,0,0,0,0,0,0,0,0,0,-1,601,1674,0,0
-616,-650,0,0,0,0,0,0,0,0,0,-1,608,1674,0,0
-609,-650,0,0,0,0,0,0,0,0,0,-1,615,1674,0,0
-602,-650,0,0,0,0,0,0,0,0,0,-1,622,1674,0,0
-595,-650,0,0,0,0,0,0,0,0,0,-1,629,1674,0,0
-588,-650,0,0,0,0,0,0,0,0,0,-1,636,1674,0,0
-581,-650,0,0,0,0,0,0,0,0,0,-1,643,1674,0,0
-574,-650,0,0,0,0,0,0,0,0,0,-1,650,1674,0,0
-567,-650,0,0,0,0,0,0,0,0,0,-1,657,1674,0,0
-560,-650,0,0,0,0,0,0,0,0,0,-1,664,1674,0,0
-553,-650,0,0,0,0,0,0,0,0,0,-1,671,1674,0,0
-546,-650,0,0,0,0,0,0,0,0,0,-1,678,1674,0,0
-539,-650,0,0,0,0,0,0,0,0,0,-1,685,1674,0,0
-532,-650,0,0,0,0,0,0,0,0,0,-1,692,1674,0,0
-525,-650,0,0,0,0,0,0,0,0,0,-1,699,1674,0,0
-518,-650,0,0,0,0,0,0,0,0,0,-1,706,1674,0,0
-511,-650,0,0,0,0,0,0,0,0,0,-1,713,1674,0,0
-504,-650,0,0,0,0,0,0,0,0,0,-1,720,1674,0,0
-497,-650,0,0,0,0,0,0,0,0,0,-1,727,1674,0,0
-490,-650,0,0,0,0,0,0,0,0,0,-1,734,1674,0,0
-483,-650,0,0,0,0,0,0,0,0,0,-1,741,1674,0,0
-476,-650,0,0,0,0,0,0,0,0,0,-1,748,1674,0,0
-469,-650,0,0,0,0,0,0,0,0,0,-1,755,1674,0,0
-462,-650,0,0,0,0,0,0,0,0,0,-1,762,1674,0,0
-455,-650,0,0,0,0,0,0,0,0,0,-1,769,1674,0,0
-448,-650,0,0,0,0,0,0,0,0,0,-1,776,1674,0,0
-441,-650,0,0,0,0,0,0,0,0,0,-1,783,1674,0,0
-434,-650,0,0,0,0,0,0,0,0,0,-1,790,1674,0,0
-427,-650,0,0,0,0,0,0,0,0,0,-1,797,1674,0,0
-420,-650,0,0,0,0,0,0,0,0,0,-1,804,1674,0,0
-413,-650,0,0,0,0,0,0,0,0,0,-1,811,1674,0,0
-406,-650,0,0,0,0,0,0,0,0,0,-1,818,1674,0,0
-399,-650,0,0,0,0,0,0,0,0,0,-1,825,1674,0,0
-392,-650,1.8653,3.83496,0,0,0,0,0,0,0,-1,832,1674,1.86529,-3.83498
-385,-650,1.64636,2.96033,0.0337836,-0.00556118,-0.0604522,0.0776838,-0.0494613,-0.628092,0.0740076,0.0488045,839,1674,1.64634,-2.96027
-378,-650,1.22192,2.31555,0.0322024,-0.00800467,-0.0558573,0.0714637,-0.047266,-0.612661,0.0690215,0.0493146,846,1674,1.22193,-2.31559
-371,-650,1.09546,1.34558,0,0,0,0,0,0,0,-1,853,1674,1.09546,-1.34561
-364,-650,1.00879,0.292603,0.0319389,-0.0108096,-0.0435426,0.0590706,-0.0379412,-0.557235,0.0564509,0.0442739,860,1674,1.00882,-0.292549
-357,-650,1.57281,-0.457642,0.0312063,-0.0105973,-0.0358467,0.0518,-0.0311909,-0.521452,0.0484048,0.0485142,867,1674,1.57282,0.457658
-350,-650,1.78802,-0.641968,0,0,0,0,0,0,0,-1,874,1674,1.78806,0.641986
-343,-650,0.300476,0.223389,0,0,0,0,0,0,0,-1,881,1674,0.300494,-0.223402
-336,-650,-0.0786133,0.369751,0,0,0,0,0,0,0,-1,888,1674,-0.0786111,-0.369769
-329,-650,-0.0628052,0.272949,0,0,0,0,0,0,0,-1,895,1674,-0.0628266,-0.272928
-322,-650,-0.692017,-0.578125,0,0,0,0,0,0,0,-1,902,1674,-0.692039,0.578131
-315,-650,0.00177002,-0.140137,0.0185806,-0.00734656,-0.00703972,0.0203687,-0.00913466,-0.248742,0.0174405,0.0357703,909,1674,0.00177723,0.140153
-308,-650,-0.0126953,-0.00231934,0.0146785,-0.00700065,-0.00365366,0.0152777,-0.00759986,-0.162554,0.013454,0.0209116,916,1674,-0.0127158,0.00233573
-301,-650,-0.0164185,0.0336914,0.0112151,-0.0060745,-0.00159649,0.0113613,-0.00622068,-0.0913092,0.0102946,0.0112897,923,1674,-0.016409,-0.0336466
-294,-650,-0.0137329,0.0377197,0.00858394,-0.00449855,-0.00139085,0.00873017,-0.00464478,-0.104754,0.00784119,0.00899009,930,1674,-0.0137317,-0.0376844
-287,-650,-0.0368652,0.0186768,0.0063336,-0.00287196,-0.00101676,0.00644456,-0.00298293,-0.108705,0.00556393,0.0130265,937,1674,-0.036859,-0.0186666
-280,-650,-0.0237427,0.0272217,0.00436165,-0.00136764,-0.000751278,0.00445853,-0.00146451,-0.128241,0.00356233,0.0134929,944,1674,-0.0237175,-0.0272024
-273,-650,-0.0184326,0.0209961,0.00282838,-0.000664281,-0.000792396,0.00299975,-0.000835647,-0.212984,0.0023289,0.0123282,951,1674,-0.0184494,-0.0209983
-266,-650,-0.0304565,0.0426025,0.00149602,-1.81479e-05,-0.00081783,0.00185339,-0.000375525,-0.411976,0.00137793,0.0107031,958,1674,-0.0304789,-0.0426151
-259,-650,-0.0162964,0.0209961,0.000207583,0.00058433,-0.000802744,0.00122051,-0.000428593,-0.900644,0.000988023,0.0130785,965,1674,-0.0162883,-0.0209505
-252,-650,-0.019043,-0.00183105,-0.000528818,0.000652307,-0.000921931,0.00115661,-0.00103312,-1.07026,0.00126491,0.0119724,972,1674,-0.0190714,0.00181667
-245,-650,0.000732422,0.00317383,-0.000319391,0.00115834,-0.00055448,0.00134325,-0.000504306,-1.2489,0.00110274,0.0108587,979,1674,0.000731475,-0.00317232
-238,-650,-0.00183105,0.00817871,-0.000252079,0.00158647,-0.000369016,0.00165777,-0.000323379,-1.37993,0.00122726,0.0118118,986,1674,-0.00183411,-0.0081717
-231,-650,-0.0263062,0.0332031,-0.000249457,0.00172148,-0.000488708,0.001836,-0.000363981,-1.34061,0.00136164,0.0164676,993,1674,-0.0262946,-0.0331646
-224,-650,-0.0319824,0.0426025,-0.000247864,0.00199551,-0.0007964,0.00224948,-0.000501835,-1.26209,0.00169192,0.0136083,1000,1674,-0.031966,-0.0426245
-217,-650,-0.0341187,0.0306396,-0.000182523,0.00225567,-0.00100298,0.00261524,-0.000542088,-1.22657,0.00194948,0.0090175,1007,1674,-0.0340904,-0.0306737
-210,-650,-0.012085,0.0141602,-0.000116081,0.00280726,-0.00127893,0.00328779,-0.00059661,-1.21139,0.00241541,0.00878084,1014,1674,-0.0121084,-0.0141548
-203,-650,0.00750732,0.0255127,-8.60857e-05,0.00351094,-0.00181857,0.00427013,-0.000845273,-1.17533,0.00316634,0.0133141,1021,1674,0.00747794,-0.0254771
-196,-650,-0.00170898,0.0357666,9.64134e-05,0.00409589,-0.00231236,0.00515327,-0.000960966,-1.14191,0.00379659,0.0128512,1028,1674,-0.00176152,-0.0357561
-189,-650,-0.0115967,0.043457,0.000404686,0.00454964,-0.00261127,0.00581092,-0.00085659,-1.12083,0.00418877,0.0097561,1035,1674,-0.0115421,-0.0434577
-182,-650,0.00439453,0.0413818,0.000822015,0.00498371,-0.00283812,0.00642208,-0.000616353,-1.10172,0.00450093,0.00808845,1042,1674,0.00443159,-0.0413498
-175,-650,0.0107422,0.0255127,0.00121908,0.00521401,-0.00310225,0.00690624,-0.000473143,-1.07143,0.0047697,0.0121645,1049,1674,0.0107223,-0.025533
-168,-650,-0.00488281,0.00646973,0.00199696,0.00514507,-0.00345045,0.00736354,-0.000221516,-0.999392,0.00498451,0.0171523,1056,1674,-0.0048525,-0.00646323
-161,-650,0.0129395,0.0115967,0.00269399,0.00520019,-0.00430643,0.00843213,-0.000537957,-0.92698,0.00580905,0.0259938,1063,1674,0.0128989,-0.0115364
-154,-650,0.0212402,-0.0197754,0.00245377,0.00449011,-0.00422883,0.00782162,-0.000877739,-0.903534,0.00553026,0.029031,1070,1674,0.021197,0.0197161
-147,-650,0.0307617,-0.072876,0.00208538,0.00368482,-0.00411733,0.00707938,-0.00130918,-0.88132,0.00521108,0.037656,1077,1674,0.0307842,0.0729289
-140,-650,0.0567627,-0.0946045,0.00131141,0.00259769,-0.00390307,0.00591025,-0.00200115,-0.867053,0.00474987,0.0455875,1084,1674,0.0567678,0.0945675
-133,-650,0.0802002,-0.11792,0,0,0,0,0,0,0,-1,1091,1674,0.0802274,0.117969
-126,-650,0.17627,0.234009,0,0,0,0,0,0,0,-1,1098,1674,0.176274,-0.234011
-119,-650,2.38965,-1.49341,0,0,0,0,0,0,0,-1,1105,1674,2.3897,1.49341
-112,-650,1.95142,-1.45386,-0.00505664,0.000827574,0.000505739,0.000870725,-0.0050998,1.48568,0.00372419,0.0455862,1112,1674,1.95146,1.45381
-105,-650,1.57861,-1.43616,-0.0060554,0.000786612,0.00193432,0.0012956,-0.00656439,1.31349,0.00486597,0.0424195,1119,1674,1.5786,1.43616
-98,-650,0.934448,-1.37329,0,0,0,0,0,0,0,-1,1126,1674,0.934437,1.37332
-91,-650,0.253906,-0.807739,0,0,0,0,0,0,0,-1,1133,1674,0.253855,0.807697
-84,-650,-0.379761,-0.532104,-0.00659017,0.00023002,0.00576415,0.00351725,-0.0098774,1.05251,0.00801874,0.043541,1140,1674,-0.37977,0.532093
-77,-650,-0.575073,-0.597656,-0.00585306,-8.66856e-05,0.00629003,0.00394946,-0.00988921,1.0003,0.00823142,0.0456416,1147,1674,-0.575092,0.597698
-70,-650,0.24585,-0.0201416,0,0,0,0,0,0,0,-1,1154,1674,0.245855,0.020186
-63,-650,-0.279907,0.343506,0,0,0,0,0,0,0,-1,1161,1674,-0.279928,-0.343513
-56,-650,0.433716,0.330811,-0.00235981,-0.00428648,0.00699585,0.00373873,-0.010385,0.716978,0.00844994,0.0405584,1168,1674,0.433663,-0.33082
-49,-650,0.241455,0.275269,0.00286795,-0.00461627,0.00642208,0.00655864,-0.00830696,0.521599,0.00860242,0.0445041,1175,1674,0.241509,-0.275249
-42,-650,0.019165,0.384155,0.00762235,-0.00601413,0.00606113,0.00992692,-0.0083187,0.363341,0.0105477,0.0451423,1182,1674,0.0191649,-0.38416
-35,-650,0.147339,0.330933,0.0130165,-0.00681137,0.00577232,0.0145745,-0.00836939,0.263631,0.0134072,0.0448812,1189,1674,0.147284,-0.330957
-28,-650,0.101929,0.397583,0.019892,-0.00830817,0.00481172,0.0206904,-0.00910658,0.164431,0.0176313,0.0450549,1196,1674,0.101936,-0.397563
-21,-650,0.0227051,0.324341,0.0256244,-0.00709055,0.00353566,0.0260021,-0.0074683,0.106437,0.0202877,0.0470337,1203,1674,0.0227236,-0.324358
-14,-650,-4.49548,1.51575,0,0,0,0,0,0,0,-1,1210,1674,-4.49553,-1.51575
-7,-650,-3.05432,1.15881,0.0359236,0.000785136,0.00185148,0.0360209,0.000687847,0.0524972,0.023788,0.0467311,1217,1674,-3.0543,-1.15876
0,-650,-1.59998,1.02759,0.0403748,0.0042464,-0.00145574,0.0404334,0.00418784,-0.0402067,0.0256737,0.0418886,1224,1674,-1.59999,-1.02762
7,-650,-0.402344,0.893555,0.0444392,0.00549112,-0.00368737,0.0447853,0.0051451,-0.0935662,0.0282982,0.043411,1231,1674,-0.402324,-0.893548
14,-650,0.524414,0.564575,0.0474439,0.00728179,-0.00657862,0.0484941,0.00623167,-0.158292,0.0304654,0.0430892,1238,1674,0.524411,-0.564584
21,-650,1.42102,0.0733643,0.0506086,0.00707441,-0.00997532,0.0527855,0.00489754,-0.214857,0.0336767,0.0451267,1245,1674,1.42104,-0.0733726
28,-650,2.07874,-0.618774,0,0,0,0,0,0,0,-1,1252,1674,2.07879,0.618819
35,-650,1.5647,-1.35962,0,0,0,0,0,0,0,-1,1259,1674,1.56466,1.35962
42,-650,2.72327,-1.64075,0.0560133,-0.00630521,-0.0169742,0.0603368,-0.0106287,-0.249405,0.0441955,0.0419611,1266,1674,2.72321,1.64079
49,-650,0.0284424,-1.59802,0.0545729,-0.00454514,-0.0193281,0.0603312,-0.0103034,-0.28955,0.0440587,0.0442332,1273,1674,0.0284995,1.59796
56,-650,0.727661,-2.17822,0.0528884,-0.0114023,-0.018695,0.0579294,-0.0164434,-0.263382,0.045111,0.0479424,1280,1674,0.727679,2.17817
63,-650,1.14502,-2.87573,0,0,0,0,0,0,0,-1,1287,1674,1.14503,2.87575
70,-650,1.88135,-3.65845,0,0,0,0,0,0,0,-1,1294,1674,1.8813,3.65849
77,-650,2.56433,-4.30664,0,0,0,0,0,0,0,-1,1301,1674,2.56428,4.30668
84,-650,3.25085,-5.58813,0.0830878,-0.0368734,-0.00749376,0.0835541,-0.0373397,-0.0621463,0.0714778,0.0469239,1308,1674,3.25091,5.58816
91,-650,3.99365,-6.52783,0.0918987,-0.0445555,-0.00260307,0.0919484,-0.0446052,-0.0190672,0.0804032,0.0481331,1315,1674,3.99362,6.5278
98,-650,-3.17395,-3.05908,0.101189,-0.0519901,0.00331014,0.10126,-0.0520616,0.0215962,0.0900268,0.0470923,1322,1674,-3.17397,3.05903
105,-650,-2.17004,-3.23108,0.106814,-0.0550125,0.0101011,0.107442,-0.0556406,0.0620985,0.0957258,0.0459786,1329,1674,-2.17006,3.23106
112,-650,-1.21533,-3.47107,0.108964,-0.0560941,0.0148325,0.110286,-0.0574164,0.0889131,0.0984138,0.0437887,1336,1674,-1.21531,3.47106
119,-650,-0.632324,-4.63623,0.109113,-0.0570373,0.0197941,0.111438,-0.0593629,0.116954,0.100128,0.0453696,1343,1674,-0.632364,4.63619
126,-650,0.406372,-4.18823,0.102505,-0.0556231,0.0227684,0.105718,-0.0588362,0.140194,0.096282,0.0478287,1350,1674,0.406385,4.18826
133,-650,1.45679,-3.63708,0.0929861,-0.0524988,0.0239224,0.0968188,-0.0563315,0.158862,0.0894454,0.047583,1357,1674,1.45684,3.63708
140,-650,2.45679,-3.15637,0.0821955,-0.04614,0.0234164,0.0863346,-0.0502791,0.174954,0.0797844,0.0440882,1364,1674,2.45675,3.15638
147,-650,3.25403,-2.96399,0.0702697,-0.0390817,0.0216306,0.0743929,-0.0432049,0.188361,0.0686864,0.0444875,1371,1674,3.254,2.96394
154,-650,4.09082,-2.72998,0,0,0,0,0,0,0,-1,1378,1674,4.09087,2.72995
161,-650,0.703003,-0.40625,0,0,0,0,0,0,0,-1,1385,1674,0.703043,0.406246
168,-650,-0.153076,1.04114,0,0,0,0,0,0,0,-1,1392,1674,-0.15305,-1.04111
175,-650,-0.138428,0.931763,0.0198452,-0.0081934,0.00946387,0.0227406,-0.0110888,0.296895,0.0199138,0.0440392,1399,1674,-0.138436,-0.931812
182,-650,-0.155151,0.675049,0.0113492,-0.00217996,0.00460686,0.012769,-0.00359967,0.298938,0.00993239,0.0435197,1406,1674,-0.155137,-0.67499
189,-650,-0.244629,0.607056,0.00504431,0.00297491,0.000444902,0.00513591,0.00288331,0.203041,0.00297266,0.0446166,1413,1674,-0.244626,-0.607096
196,-650,-0.399536,0.527466,0,0,0,0,0,0,0,-1,1420,1674,-0.399548,-0.527445
203,-650,-0.505127,0.516602,0.00221053,0.00607255,-0.00245126,0.00726203,0.00102105,-1.11902,0.00453944,0.0423008,1427,1674,-0.50513,-0.516599
210,-650,-0.556519,0.526123,0.0030813,0.00465962,-0.00207801,0.00609327,0.00164764,-0.96687,0.00363949,0.0424314,1434,1674,-0.55651,-0.526141
217,-650,-0.354248,0.156616,0.0043544,0.00432225,-0.0011845,0.00552294,0.00315371,-0.778614,0.00319937,0.0464867,1441,1674,-0.354199,-0.156656
224,-650,0.0908203,-0.350464,0.00533117,0.00497566,0.00012935,0.00537325,0.00493358,0.314535,0.00344497,0.0468375,1448,1674,0.0908421,0.350431
231,-650,-0.310303,-0.43396,0.00556086,0.00726876,0.00152093,0.00815907,0.00467055,1.0412,0.00472709,0.041461,1455,1674,-0.310271,0.433954
238,-650,-0.036377,0.159302,0,0,0,0,0,0,0,-1,1462,1674,-0.0363348,-0.159294
245,-650,0.00390625,0.186523,0.00534026,0.00997358,0.00283841,0.0113207,0.00399311,1.12766,0.00662986,0.0403023,1469,1674,0.00384608,-0.186581
252,-650,-0.0554199,0.383057,0.00519395,0.0110608,0.00281532,0.0121932,0.00406154,1.18837,0.00716931,0.0393888,1476,1674,-0.0553594,-0.383003
259,-650,-0.0438232,-0.356689,0.00453268,0.0115979,0.00283741,0.0125963,0.00353425,1.23245,0.00750226,0.0426545,1483,1674,-0.0438604,0.356694
266,-650,-0.0828857,-0.464355,0.00339233,0.0119256,0.00267282,0.0126937,0.00262428,1.29098,0.00773748,0.0390614,1490,1674,-0.0829265,0.464383
273,-650,-0.193848,-0.265625,0.00196901,0.012051,0.00258809,0.0126765,0.00134345,1.33364,0.0080407,0.0422625,1497,1674,-0.193903,0.265616
280,-650,-0.0523682,-0.201172,0.000591609,0.0114588,0.00228804,0.0119209,0.000129521,1.37152,0.00790444,0.0412219,1504,1674,-0.0523208,0.20114
287,-650,-0.0361328,0.0463867,-0.000499419,0.0105607,0.00165772,0.0108038,-0.000742537,1.42518,0.0074624,0.0386152,1511,1674,-0.0360834,-0.0464439
294,-650,-0.0722656,0.0385742,-0.00173103,0.0094989,0.00106627,0.00959924,-0.00183137,1.47696,0.00708924,0.0336083,1518,1674,-0.0722547,-0.0385787
301,-650,-0.10083,-0.00622559,-0.00250828,0.00852265,0.000720581,0.00856952,-0.00255515,1.50584,0.00672845,0.0235567,1525,1674,-0.100776,0.00623157
308,-650,-0.0539551,0.0140381,-0.00279469,0.00746601,0.000647822,0.00750675,-0.00283543,1.50799,0.00617075,0.0140885,1532,1674,-0.0539999,-0.0140417
315,-650,-0.0101318,0.0439453,-0.0030944,0.00632156,0.000890101,0.00640496,-0.00317781,1.47737,0.00563622,0.00961945,1539,1674,-0.0101188,-0.0439531
322,-650,-0.000366211,0.0386963,-0.00342822,0.00568929,0.000887603,0.00577489,-0.00351382,1.47465,0.00541555,0.008717,1546,1674,-0.00041969,-0.0386701
329,-650,-0.0157471,0.019043,-0.00335633,0.00465996,0.000709821,0.00472233,-0.0034187,1.48316,0.00472027,0.0144499,1553,1674,-0.0157888,-0.0190887
336,-650,-0.0291748,0.0556641,-0.00275603,0.00311113,0.00064174,0.0031805,-0.00282541,1.46311,0.00346953,0.0134257,1560,1674,-0.0291371,-0.0556897
343,-650,-0.0174561,0.0664063,-0.00210831,0.00262192,0.00092447,0.00279617,-0.00228257,1.38449,0.00293721,0.0128821,1567,1674,-0.017421,-0.0664194
350,-650,-0.0148926,0.0206299,-0.00200802,0.00232337,0.000796731,0.00246527,-0.00214992,1.39454,0.00266666,0.0157483,1574,1674,-0.0148395,-0.0205795
357,-650,-0.0229492,-0.0012207,-0.00189202,0.00219716,0.000637008,0.0022941,-0.00198896,1.41978,0.00247491,0.0126838,1581,1674,-0.0229235,0.00119977
364,-650,-0.026123,0.0280762,-0.00141241,0.00184184,0.000494869,0.00191543,-0.001486,1.42317,0.00196903,0.00822207,1588,1674,-0.0261106,-0.0281199
371,-650,-0.0357666,0.0454102,-0.000635157,0.00176379,0.000407846,0.00183123,-0.000702599,1.40692,0.00151051,0.0102639,1595,1674,-0.0357265,-0.0454001
378,-650,-0.0374756,0.03125,-9.98466e-05,0.00162367,0.000155171,0.00163753,-0.000113706,1.48172,0.0011315,0.0120562,1602,1674,-0.037443,-0.0312063
385,-650,-0.0170898,0.0273438,0.000362507,0.00171099,-0.000234926,0.00175075,0.000322751,-1.40316,0.00107584,0.0127006,1609,1674,-0.0171389,-0.0273741
392,-650,-0.036377,0.036499,0.0010678,0.00203,-0.000370099,0.00215589,0.000941912,-1.24294,0.001248,0.0151071,1616,1674,-0.0363185,-0.0365243
399,-650,-0.0494385,0.0577393,0.00151579,0.00180195,-0.000586622,0.00226269,0.00105505,-0.905017,0.00130735,0.0133886,1623,1674,-0.0494756,-0.0576822
406,-650,-0.0323486,0.0551758,0.00173873,0.00178296,-0.000524078,0.00228539,0.0012363,-0.806485,0.00132095,0.0132571,1630,1674,-0.032354,-0.0552351
413,-650,-0.0477295,0.0461426,0.00201492,0.00198072,-0.000461532,0.00245967,0.00153597,-0.766883,0.00143468,0.0136623,1637,1674,-0.0477544,-0.0461613
420,-650,-0.0483398,0.0588379,0.00225157,0.00262621,-0.000414819,0.00289404,0.00198374,-0.997479,0.00170876,0.013354,1644,1674,-0.0483937,-0.0588177
427,-650,-0.036499,0.0625,0.0019695,0.00385702,3.96217e-05,0.00385785,0.00196867,1.54982,0.00222749,0.012411,1651,1674,-0.0365088,-0.0624687
434,-650,-0.0371094,0.0526123,0.0016657,0.00576788,3.14033e-05,0.00576812,0.00166546,1.56314,0.00342789,0.0146835,1658,1674,-0.0371619,-0.0525927
441,-650,0.0247803,0.106812,0.000622309,0.00812155,4.32838e-05,0.0081218,0.000622059,1.56502,0.00521955,0.0241706,1665,1674,0.0247364,-0.106827
448,-650,0.0626221,0.141357,-0.00117505,0.0110881,0.000144162,0.0110898,-0.00117674,1.55904,0.00781502,0.0345411,1672,1674,0.0626754,-0.141302
455,-650,-0.533691,-0.244629,0,0,0,0,0,0,0,-1,1679,1674,-0.533668,0.244679
462,-650,-0.435547,-0.196533,-0.00393594,0.0183768,0.000728551,0.0184006,-0.0039597,1.53819,0.0137779,0.0424837,1686,1674,-0.435513,0.196533
469,-650,-0.476196,-0.370605,-0.00594592,0.023347,0.000241323,0.0233489,-0.00594791,1.56256,0.0178814,0.0429459,1693,1674,-0.476247,0.370562
476,-650,-0.762207,-0.717407,-0.0086521,0.0286584,0.000228984,0.0286598,-0.0086535,1.56466,0.0225514,0.0434186,1700,1674,-0.762151,0.717394
483,-650,-0.762207,-0.635742,0,0,0,0,0,0,0,-1,1707,1674,-0.762226,0.635723
490,-650,-0.44519,-0.0668945,0,0,0,0,0,0,0,-1,1714,1674,-0.445217,0.0668895
497,-650,-1.06067,-0.583984,-0.0126404,0.0442491,0.000198716,0.0442498,-0.0126411,1.5673,0.0344945,0.0426172,1721,1674,-1.06064,0.583998
504,-650,-1.43115,-0.80896,-0.0124749,0.0492629,-8.78317e-05,0.049263,-0.012475,-1.56937,0.0376949,0.0434792,1728,1674,-1.4311,0.80899
511,-650,-1.11267,-0.422363,0,0,0,0,0,0,0,-1,1735,1674,-1.11264,0.422373
518,-650,0,0,0,0,0,0,0,0,0,-1,1742,1674,0,0
525,-650,0,0,0,0,0,0,0,0,0,-1,1749,1674,0,0
532,-650,0,0,0,0,0,0,0,0,0,-1,1756,1674,0,0
539,-650,0,0,0,0,0,0,0,0,0,-1,1763,1674,0,0
546,-650,0,0,0,0,0,0,0,0,0,-1,1770,1674,0,0
553,-650,0,0,0,0,0,0,0,0,0,-1,1777,1674,0,0
560,-650,0,0,0,0,0,0,0,0,0,-1,1784,1674,0,0
567,-650,0,0,0,0,0,0,0,0,0,-1,1791,1674,0,0
574,-650,0,0,0,0,0,0,0,0,0,-1,1798,1674,0,0
581,-650,0,0,0,0,0,0,0,0,0,-1,1805,1674,0,0
588,-650,0,0,0,0,0,0,0,0,0,-1,1812,1674,0,0
595,-650,0,0,0,0,0,0,0,0,0,-1,1819,1674,0,0
602,-650,0,0,0,0,0,0,0,0,0,-1,1826,1674,0,0
609,-650,0,0,0,0,0,0,0,0,0,-1,1833,1674,0,0
616,-650,0,0,0,0,0,0,0,0,0,-1,1840,1674,0,0
623,-650,0,0,0,0,0,0,0,0,0,-1,1847,1674,0,0
630,-650,0,0,0,0,0,0,0,0,0,-1,1854,1674,0,0
637,-650,0,0,0,0,0,0,0,0,0,-1,1861,1674,0,0
644,-650,0,0,0,0,0,0,0,0,0,-1,1868,1674,0,0
651,-650,0,0,0,0,0,0,0,0,0,-1,1875,1674,0,0
658,-650,0,0,0,0,0,0,0,0,0,-1,1882,1674,0,0
665,-650,0,0,0,0,0,0,0,0,0,-1,1889,1674,0,0
672,-650,0,0,0,0,0,0,0,0,0,-1,1896,1674,0,0
679,-650,0,0,0,0,0,0,0,0,0,-1,1903,1674,0,0
686,-650,0,0,0,0,0,0,0,0,0,-1,1910,1674,0,0
693,-650,0,0,0,0,0,0,0,0,0,-1,1917,1674,0,0
700,-650,0,0,0,0,0,0,0,0,0,-1,1924,1674,0,0
707,-650,0,0,0,0,0,0,0,0,0,-1,1931,1674,0,0
714,-650,0,0,0,0,0,0,0,0,0,-1,1938,1674,0,0
721,-650,0,0,0,0,0,0,0,0,0,-1,1945,1674,0,0
728,-650,0,0,0,0,0,0,0,0,0,-1,1952,1674,0,0
735,-650,0,0,0,0,0,0,0,0,0,-1,1959,1674,0,0
742,-650,0,0,0,0,0,0,0,0,0,-1,1966,1674,0,0
749,-650,0,0,0,0,0,0,0,0,0,-1,1973,1674,0,0
756,-650,0,0,0,0,0,0,0,0,0,-1,1980,1674,0,0
763,-650,0,0,0,0,0,0,0,0,0,-1,1987,1674,0,0
770,-650,0,0,0,0,0,0,0,0,0,-1,1994,1674,0,0
777,-650,0,0,0,0,0,0,0,0,0,-1,2001,1674,0,0
784,-650,0,0,0,0,0,0,0,0,0,-1,2008,1674,0,0
791,-650,0,0,0,0,0,0,0,0,0,-1,2015,1674,0,0
798,-650,0,0,0,0,0,0,0,0,0,-1,2022,1674,0,0
805,-650,0,0,0,0,0,0,0,0,0,-1,2029,1674,0,0
812,-650,0,0,0,0,0,0,0,0,0,-1,2036,1674,0,0
-700,-657,0,0,0,0,0,0,0,0,0,-1,524,1681,0,0
-693,-657,0,0,0,0,0,0,0,0,0,-1,531,1681,0,0
-686,-657,0,0,0,0,0,0,0,0,0,-1,538,1681,0,0
-679,-657,0,0,0,0,0,0,0,0,0,-1,545,1681,0,0
-672,-657,0,0,0,0,0,0,0,0,0,-1,552,1681,0,0
-665,-657,0,0,0,0,0,0,0,0,0,-1,559,1681,0,0
-658,-657,0,0,0,0,0,0,0,0,0,-1,566,1681,0,0
-651,-657,0,0,0,0,0,0,0,0,0,-1,573,1681,0,0
-644,-657,0,0,0,0,0,0,0,0,0,-1,580,1681,0,0
-637,-657,0,0,0,0,0,0,0,0,0,-1,587,1681,0,0
-630,-657,0,0,0,0,0,0,0,0,0,-1,594,1681,0,0
-623,-657,0,0,0,0,0,0,0,0,0,-1,601,1681,0,0
-616,-657,0,0,0,0,0,0,0,0,0,-1,608,1681,0,0
-609,-657,0,0,0,0,0,0,0,0,0,-1,615,1681,0,0
-602,-657,0,0,0,0,0,0,0,0,0,-1,622,1681,0,0
-595,-657,0,0,0,0,0,0,0,0,0,-1,629,1681,0,0
-588,-657,0,0,0,0,0,0,0,0,0,-1,636,1681,0,0
-581,-657,0,0,0,0,0,0,0,0,0,-1,643,1681,0,0
-574,-657,0,0,0,0,0,0,0,0,0,-1,650,1681,0,0
-567,-657,0,0,0,0,0,0,0,0,0,-1,657,1681,0,0
-560,-657,0,0,0,0,0,0,0,0,0,-1,664,1681,0,0
-553,-657,0,0,0,0,0,0,0,0,0,-1,671,1681,0,0
-546,-657,0,0,0,0,0,0,0,0,0,-1,678,1681,0,0
-539,-657,0,0,0,0,0,0,0,0,0,-1,685,1681,0,0
-532,-657,0,0,0,0,0,0,0,0,0,-1,692,1681,0,0
-525,-657,0,0,0,0,0,0,0,0,0,-1,699,1681,0,0
-518,-657,0,0,0,0,0,0,0,0,0,-1,706,1681,0,0
-511,-657,0,0,0,0,0,0,0,0,0,-1,713,1681,0,0
-504,-657,0,0,0,0,0,0,0,0,0,-1,720,1681,0,0
-497,-657,0,0,0,0,0,0,0,0,0,-1,727,1681,0,0
-490,-657,0,0,0,0,0,0,0,0,0,-1,734,1681,0,0
-483,-657,0,0,0,0,0,0,0,0,0,-1,741,1681,0,0
-476,-657,0,0,0,0,0,0,0,0,0,-1,748,1681,0,0
-469,-657,0,0,0,0,0,0,0,0,0,-1,755,1681,0,0
-462,-657,0,0,0,0,0,0,0,0,0,-1,762,1681,0,0
-455,-657,0,0,0,0,0,0,0,0,0,-1,769,1681,0,0
-448,-657,0,0,0,0,0,0,0,0,0,-1,776,1681,0,0
-441,-657,0,0,0,0,0,0,0,0,0,-1,783,1681,0,0
-434,-657,0,0,0,0,0,0,0,0,0,-1,790,1681,0,0
-427,-657,0,0,0,0,0,0,0,0,0,-1,797,1681,0,0
-420,-657,0,0,0,0,0,0,0,0,0,-1,804,1681,0,0
-413,-657,0,0,0,0,0,0,0,0,0,-1,811,1681,0,0
-406,-657,0,0,0,0,0,0,0,0,0,-1,818,1681,0,0
-399,-657,0,0,0,0,0,0,0,0,0,-1,825,1681,0,0
-392,-657,0,0,0,0,0,0,0,0,0,-1,832,1681,0,0
-385,-657,2.27216,3.60901,0,0,0,0,0,0,0,-1,839,1681,2.27214,-3.60895
-378,-657,1.72015,2.96826,0,0,0,0,0,0,0,-1,846,1681,1.72016,-2.96829
-371,-657,1.49841,1.98169,0,0,0,0,0,0,0,-1,853,1681,1.49841,-1.98167
-364,-657,1.02545,0.846924,0.0381406,-0.0128751,-0.0532471,0.0716743,-0.0464088,-0.562026,0.0686935,0.0481962,860,1681,1.02543,-0.846891
-357,-657,2.03229,-0.553223,0.0377557,-0.0123777,-0.0432407,0.06267,-0.0372919,-0.522718,0.0583297,0.049173,867,1681,2.03228,0.553206
-350,-657,2.25482,-0.768799,0,0,0,0,0,0,0,-1,874,1681,2.25484,0.76883
-343,-657,2.01581,-1.573,0,0,0,0,0,0,0,-1,881,1681,2.01581,1.57302
-336,-657,-1.21448,-0.981689,0,0,0,0,0,0,0,-1,888,1681,-1.21445,0.981705
-329,-657,-1.00354,-0.739136,0,0,0,0,0,0,0,-1,895,1681,-1.00354,0.739118
-322,-657,-0.677063,-0.502197,0.0282829,-0.00913656,-0.0119643,0.0317812,-0.0126349,-0.284469,0.0264259,0.0419412,902,1681,-0.677036,0.502221
-315,-657,-0.301025,-0.206177,0.0241866,-0.00800033,-0.00855761,0.0263204,-0.0101341,-0.24436,0.0217276,0.0391053,909,1681,-0.301025,0.206215
-308,-657,-0.0418701,0.0330811,0.0197737,-0.00744064,-0.00478314,0.0205899,-0.00825683,-0.169012,0.0171546,0.0356671,916,1681,-0.0418611,-0.0330984
-301,-657,-0.0314941,0.0257568,0.0157233,-0.00607893,-0.00253375,0.0160139,-0.00636952,-0.114188,0.0133169,0.0281961,923,1681,-0.031478,-0.025804
-294,-657,-0.0247192,0.00915527,0.012366,-0.00400931,-0.00235141,0.0126969,-0.00434027,-0.139832,0.0102233,0.015204,930,1681,-0.0247339,-0.0091339
-287,-657,-0.0244751,0.0166016,0.00948614,-0.00196179,-0.00192927,0.00980253,-0.00227818,-0.162547,0.00741205,0.0105954,937,1681,-0.0244739,-0.0165963
-280,-657,-0.0287476,0.0114746,0.00691198,-9.6769e-05,-0.00163803,0.00727592,-0.000460701,-0.218625,0.00501124,0.012071,944,1681,-0.0287349,-0.0114391
-273,-657,-0.0283203,0.022583,0.00477747,0.000751907,-0.00168474,0.00538951,0.000139877,-0.348455,0.0035473,0.00897162,951,1681,-0.0283418,-0.0226437
-266,-657,-0.0302124,0.0344238,0.00292078,0.00149694,-0.00166777,0.00402222,0.00039549,-0.583671,0.00255986,0.013355,958,1681,-0.0301822,-0.0344162
-259,-657,-0.0426025,0.0267334,0.00114359,0.00215674,-0.00159613,0.00332475,-2.44238e-05,-0.939059,0.00222469,0.017574,965,1681,-0.0426139,-0.0267307
-252,-657,-0.03302,-0.00354004,7.67692e-05,0.00218183,-0.00171326,0.00314004,-0.000881445,-1.06085,0.00244082,0.0124157,972,1681,-0.0330119,0.00355653
-245,-657,-0.0281372,0.0109863,6.70502e-05,0.0026465,-0.0011421,0.00307949,-0.000365948,-1.20841,0.00218522,0.013892,979,1681,-0.0281638,-0.0110206
-238,-657,-0.0136108,0.00878906,-3.1091e-05,0.002901,-0.000771985,0.00309183,-0.000221925,-1.32846,0.00213904,0.0181346,986,1681,-0.0136121,-0.00874963
-231,-657,-0.0178223,0.0340576,-0.000179416,0.00284617,-0.000706594,0.00300305,-0.000336299,-1.35231,0.00212303,0.0188624,993,1681,-0.0178042,-0.0340497
-224,-657,-0.0234375,0.0488281,-0.000376773,0.00275871,-0.000821098,0.00296072,-0.000578782,-1.32956,0.00219235,0.0147857,1000,1681,-0.0234082,-0.0488651
-217,-657,-0.0298462,0.0489502,-0.000522927,0.00260836,-0.000851049,0.00282472,-0.000739283,-1.32185,0.00217192,0.00950838,1007,1681,-0.0298185,-0.0489167
-210,-657,-0.0139771,0.038208,-0.000602462,0.00249531,-0.00091148,0.0027436,-0.000850753,-1.30485,0.002169,0.0100096,1014,1681,-0.0139891,-0.0381972
-203,-657,0.00170898,0.0352783,-0.000685227,0.00265645,-0.00123817,0.00306522,-0.001094,-1.25192,0.0024896,0.0127657,1021,1681,0.00168235,-0.0352403
-196,-657,0.0012207,0.0377197,-0.000659382,0.00258927,-0.00150178,0.00317714,-0.00124725,-1.19769,0.00263418,0.013634,1028,1681,0.00124689,-0.0377557
-189,-657,0.00268555,0.0419922,-0.00049265,0.00252819,-0.00163661,0.00324484,-0.0012093,-1.15806,0.00265961,0.00973776,1035,1681,0.00272886,-0.0419444
-182,-657,0.00390625,0.0339355,-0.000207675,0.00257056,-0.00174749,0.00341378,-0.0010509,-1.12122,0.00269533,0.00773939,1042,1681,0.00385645,-0.0339455
-175,-657,0.00439453,0.0324707,8.48292e-05,0.00251661,-0.00188014,0.00353977,-0.000938326,-1.07242,0.00272698,0.00857568,1049,1681,0.00439217,-0.0324237
-168,-657,-0.00878906,0.0379639,0.000768691,0.00227121,-0.00207087,0.00372288,-0.000682974,-0.959404,0.00273812,0.00993428,1056,1681,-0.00875901,-0.0379115
-161,-657,-0.00964355,0.0292969,0.00147292,0.00227974,-0.00278883,0.00469419,-0.000941524,-0.857226,0.00348595,0.0102428,1063,1681,-0.0096189,-0.0293397
-154,-657,-0.0233154,0.0109863,0.0014022,0.00160297,-0.00263918,0.00414368,-0.0011385,-0.804407,0.00320997,0.0103093,1070,1681,-0.0233016,-0.0110214
-147,-657,-0.0306396,-0.0324707,0.00124397,0.000868312,-0.00247194,0.00353521,-0.00142293,-0.747479,0.0029479,0.0149478,1077,1681,-0.0306566,0.0324636
-140,-657,-0.0157471,-0.041626,0.000749647,1.48246e-06,-0.00224715,0.00265364,-0.00190251,-0.70292,0.00264238,0.0251749,1084,1681,-0.0158077,0.0415779
-133,-657,0.0233154,0.156494,-0.000137933,-0.000512565,-0.0014975,0.00118392,-0.00183442,-0.723178,0.00175608,0.0332771,1091,1681,0.0232825,-0.156538
-126,-657,0.086792,0.233887,-0.001195,-0.000898755,-0.000497486,-0.000527807,-0.00156594,-0.930089,0.000919963,0.036817,1098,1681,0.0868466,-0.233895
-119,-657,0.162842,0.181763,-0.00269514,-0.00137956,0.00052087,-0.00119831,-0.0028764,1.23592,0.00166837,0.0434612,1105,1681,0.162894,-0.181742
-112,-657,2.32629,-1.71765,0,0,0,0,0,0,0,-1,1112,1681,2.32625,1.7177
-105,-657,1.68945,-1.34485,-0.00495215,-0.00150225,0.00255967,-0.000140558,-0.00631384,1.08189,0.00416317,0.0485839,1119,1681,1.68947,1.34482
-98,-657,0.928589,-0.985474,-0.00557292,-0.00144089,0.00373901,0.000764928,-0.00777874,1.0378,0.0054587,0.0459417,1126,1681,0.928598,0.98548
-91,-657,0.350586,-0.513428,-0.00588997,-0.00165396,0.00475085,0.00142963,-0.00897355,0.995083,0.00651143,0.0428779,1133,1681,0.350637,0.51345
-84,-657,-0.141479,-0.326904,-0.00571143,-0.00162603,0.00532571,0.00203529,-0.00937275,0.968523,0.00702589,0.0404215,1140,1681,-0.14143,0.326919
-77,-657,-0.46106,-0.314209,-0.00516498,-0.00166021,0.00552389,0.00238259,-0.00920779,0.938996,0.00706788,0.0443329,1147,1681,-0.461073,0.314216
-70,-657,0.129028,-0.173462,-0.00421605,-0.00119163,0.00513191,0.00264623,-0.00805392,0.928677,0.00643534,0.0462549,1154,1681,0.129063,0.173421
-63,-657,-0.398193,0.0722656,-0.00412771,-0.00208633,0.00481975,0.00181962,-0.00803367,0.889743,0.00605417,0.0429749,1161,1681,-0.398195,-0.0722243
-56,-657,-0.806519,0.0510254,0,0,0,0,0,0,0,-1,1168,1681,-0.806559,-0.051024
-49,-657,-0.0195313,1.71558,0,0,0,0,0,0,0,-1,1175,1681,-0.0195878,-1.71552
-42,-657,0.0665283,0.984375,0,0,0,0,0,0,0,-1,1182,1681,0.0665045,-0.984334
-35,-657,0.141113,0.533325,0.0105491,-0.00186742,0.0041236,0.0117938,-0.00311211,0.29315,0.00907947,0.0460606,1189,1681,0.141127,-0.533314
-28,-657,0.227539,0.315796,0.0167935,-0.00214271,0.00324537,0.0173342,-0.00268348,0.165109,0.0125467,0.0449788,1196,1681,0.227547,-0.315833
-21,-657,-0.00439453,-0.0411377,0.0220834,-0.000870768,0.00224986,0.0223018,-0.00108921,0.096788,0.0152439,0.0445957,1203,1681,-0.00436085,0.0411206
-14,-657,-4.97363,1.59961,0,0,0,0,0,0,0,-1,1210,1681,-4.97365,-1.5996
-7,-657,-3.53894,1.07886,0.0319603,0.00518797,0.00075384,0.0319815,0.00516676,0.0281277,0.0198245,0.0442229,1217,1681,-3.53895,-1.07891
0,-657,-2.01904,0.665649,0.0366225,0.00784728,-0.00257255,0.0368507,0.0076191,-0.0884667,0.0224624,0.0434044,1224,1681,-2.01904,-0.665707
7,-657,-0.459473,1.24243,0.0407122,0.00828771,-0.00480559,0.0414095,0.00759047,-0.144083,0.0254562,0.044636,1231,1681,-0.459464,-1.24249
14,-657,0.313477,0.755249,0.0435885,0.00873406,-0.0076424,0.0451906,0.00713198,-0.206638,0.0280536,0.0429983,1238,1681,0.313439,-0.755236
21,-657,0.94043,0.0744629,0.0467174,0.00758006,-0.0110559,0.0496246,0.00467284,-0.257135,0.0316407,0.0426624,1245,1681,0.940457,-0.0744465
28,-657,0.937866,-0.690674,0,0,0,0,0,0,0,-1,1252,1681,0.937805,0.690639
35,-657,1.48804,-1.25256,0.0508076,-0.00101435,-0.0163959,0.0555594,-0.00576614,-0.282087,0.0391036,0.0448302,1259,1681,1.48805,1.25254
42,-657,2.40686,-1.52771,0.051493,-0.00632044,-0.0177329,0.0564987,-0.0113262,-0.275126,0.041954,0.0408052,1266,1681,2.40682,1.52769
49,-657,2.83594,-1.41638,0.0500615,-0.00493976,-0.0198853,0.0564978,-0.011376,-0.313025,0.0419742,0.0410692,1273,1681,2.83592,1.41637
56,-657,0.176514,-1.72754,0.048768,-0.0103075,-0.0195292,0.0546403,-0.0161798,-0.29209,0.0428507,0.0448623,1280,1681,0.176503,1.72749
63,-657,0.00842285,-2.13782,0.0538455,-0.0149105,-0.019175,0.0588315,-0.0198965,-0.254394,0.0472702,0.0483423,1287,1681,0.00847443,2.13787
70,-657,-0.413574,-2.52637,0.0589504,-0.020249,-0.0174843,0.0626386,-0.0239371,-0.207892,0.0516224,0.0466691,1294,1681,-0.413619,2.52641
77,-657,2.1947,-4.16907,0.0645473,-0.0249777,-0.0142814,0.0667703,-0.0272007,-0.15442,0.0558345,0.0460765,1301,1681,2.19465,4.16908
84,-657,2.39319,-5.02954,0.0721254,-0.0309765,-0.00968627,0.0730275,-0.0318786,-0.0928658,0.0621013,0.0467521,1308,1681,2.39325,5.02958
91,-657,2.78113,-5.79187,0.0789586,-0.0374583,-0.00525243,0.0791951,-0.0376948,-0.0449956,0.0688896,0.045318,1315,1681,2.78116,5.79181
98,-657,3.31921,-6.69128,0.0864096,-0.0440381,7.36871e-05,0.0864097,-0.0440381,0.000564878,0.0766269,0.0425542,1322,1681,3.31926,6.69123
105,-657,-2.21497,-2.29846,0,0,0,0,0,0,0,-1,1329,1681,-2.21492,2.29842
112,-657,-1.198,-2.56604,0.092519,-0.0491728,0.0110165,0.0933704,-0.0500242,0.0771319,0.0840403,0.0443477,1336,1681,-1.19805,2.5661
119,-657,-0.169556,-2.84973,0.0925037,-0.0501506,0.0153622,0.0941393,-0.0517862,0.106068,0.0854248,0.0452956,1343,1681,-0.169548,2.84971
126,-657,0.521729,-3.05725,0.0869651,-0.0490506,0.0182585,0.0893734,-0.0514589,0.131145,0.0822859,0.0477335,1350,1681,0.521775,3.05722
133,-657,1.16101,-2.87439,0.0791066,-0.0461255,0.0195525,0.0820883,-0.0491073,0.151333,0.0765395,0.0449728,1357,1681,1.16104,2.87441
140,-657,1.90576,-2.60901,0,0,0,0,0,0,0,-1,1364,1681,1.9058,2.60904
147,-657,2.97766,-2.42578,0,0,0,0,0,0,0,-1,1371,1681,2.97762,2.42573
154,-657,-0.40564,0.108276,0,0,0,0,0,0,0,-1,1378,1681,-0.405666,-0.108295
161,-657,-0.0944824,1.03772,0,0,0,0,0,0,0,-1,1385,1681,-0.0944875,-1.03774
168,-657,-0.0864258,0.765625,0.0264022,-0.0135028,0.0117629,0.0296115,-0.0167121,0.266348,0.0270884,0.0435185,1392,1681,-0.0864864,-0.765616
175,-657,-0.0541992,0.519287,0.0176045,-0.00558661,0.00801109,0.0201027,-0.00808483,0.302288,0.0167599,0.0425275,1399,1681,-0.0542287,-0.519294
182,-657,-0.012085,0.280884,0.0105356,-0.000279746,0.00381737,0.0117472,-0.00149138,0.307343,0.00837301,0.0455638,1406,1681,-0.0121298,-0.28094
189,-657,-0.0993652,0.360352,0.00509845,0.00435971,0.000117247,0.00511661,0.00434155,0.153682,0.00318432,0.0465046,1413,1681,-0.099425,-0.360338
196,-657,-0.206909,0.436157,0,0,0,0,0,0,0,-1,1420,1681,-0.206963,-0.436189
203,-657,-0.335693,0.503662,0.00224267,0.00674589,-0.00258804,0.00792468,0.00106387,-1.1434,0.00496663,0.0453315,1427,1681,-0.335693,-0.503627
210,-657,-0.330933,0.669434,0.00286691,0.00535281,-0.00231954,0.00674143,0.00147829,-1.03136,0.00409153,0.0393958,1434,1681,-0.330956,-0.669465
217,-657,-0.259521,0.451782,0.00372484,0.00475201,-0.00160655,0.00592508,0.00255178,-0.940105,0.00343179,0.0402629,1441,1681,-0.25955,-0.451798
224,-657,-0.121338,-0.438965,0.00424529,0.00507119,-0.000566177,0.00535901,0.00395746,-1.10048,0.00320918,0.0430054,1448,1681,-0.121285,0.438974
231,-657,-0.63501,-0.682373,0,0,0,0,0,0,0,-1,1455,1681,-0.635028,0.682318
238,-657,0.397583,0.522705,0,0,0,0,0,0,0,-1,1462,1681,0.397558,-0.522648
245,-657,-0.187744,0.0733643,0,0,0,0,0,0,0,-1,1469,1681,-0.187773,-0.0733627
252,-657,-0.27832,0.248901,0.00420918,0.00965699,0.0019966,0.0103104,0.0035558,1.25453,0.00604744,0.0423648,1476,1681,-0.278281,-0.248879
259,-657,-0.323608,0.204834,0.00380694,0.00995337,0.00214892,0.0106302,0.00313015,1.26569,0.00630781,0.0440487,1483,1681,-0.323595,-0.204858
266,-657,-0.190796,0.0549316,0.00301824,0.01009,0.002212,0.0107249,0.00238334,1.29129,0.00650276,0.0412057,1490,1681,-0.190768,-0.0549684
273,-657,-0.244385,0.0258789,0.00199174,0.0100983,0.00236419,0.0107374,0.00135263,1.30678,0.00675272,0.0395093,1497,1681,-0.244339,-0.0259298
280,-657,-0.271362,0.00646973,0.00104328,0.00948175,0.00231086,0.0100731,0.000451902,1.32026,0.00656997,0.0324,1504,1681,-0.271342,-0.00643999
287,-657,-0.0631104,0.0229492,0.000350281,0.00851174,0.00194691,0.00895238,-9.03611e-05,1.34822,0.0059986,0.0258403,1511,1681,-0.0631016,-0.0229353
294,-657,-0.0020752,0.0209961,-0.00050461,0.00725946,0.00155421,0.00755902,-0.000804171,1.38039,0.00532768,0.021127,1518,1681,-0.00211071,-0.021033
301,-657,-0.0098877,0.0222168,-0.00101024,0.00625552,0.00130666,0.00648336,-0.00123808,1.39816,0.00478859,0.0142615,1525,1681,-0.00992325,-0.0222105
308,-657,-0.0032959,0.0189209,-0.00120903,0.00524838,0.00123999,0.0054783,-0.00143895,1.38745,0.00421455,0.0110668,1532,1681,-0.00332578,-0.0188729
315,-657,0.00158691,0.0288086,-0.00151143,0.00438498,0.00138552,0.00469432,-0.00182077,1.35113,0.00388153,0.00982282,1539,1681,0.00153386,-0.0288491
322,-657,0.000244141,0.0247803,-0.00184116,0.00386878,0.0013189,0.00415871,-0.00213109,1.35442,0.00369378,0.0118124,1546,1681,0.000251899,-0.0248052
329,-657,-0.012085,-0.0218506,-0.00190777,0.00305209,0.0010446,0.00326311,-0.0021188,1.37146,0.00313057,0.017371,1553,1681,-0.0120514,0.0217971
336,-657,-0.0285645,0.0235596,-0.00165574,0.00189928,0.000774778,0.00206079,-0.00181726,1.36527,0.00224046,0.0152918,1560,1681,-0.0285577,-0.0235561
343,-657,-0.0111084,0.0498047,-0.00134213,0.00152885,0.000780702,0.00172741,-0.00154069,1.32174,0.00188787,0.0127189,1567,1681,-0.0111693,-0.0497595
350,-657,-0.0197754,0.0217285,-0.00134419,0.00150192,0.00052876,0.00159698,-0.00143925,1.39292,0.00175375,0.0149495,1574,1681,-0.0197988,-0.0216796
357,-657,-0.0307617,0.00463867,-0.00135925,0.00166449,0.00030335,0.00169463,-0.00138938,1.47179,0.00178346,0.0132386,1581,1681,-0.0307509,-0.00469066
364,-657,-0.0201416,0.0361328,-0.000977728,0.00160395,0.00016496,0.00161445,-0.000988226,1.50724,0.00151708,0.00954054,1588,1681,-0.0201139,-0.0361496
371,-657,-0.0216064,0.0601807,-0.000187877,0.00174661,3.26679e-05,0.00174716,-0.000188428,1.55392,0.0012324,0.014081,1595,1681,-0.0215755,-0.0601976
378,-657,-0.0458984,0.041748,0.000351654,0.0017442,-0.000282602,0.00179937,0.000296488,-1.37801,0.00111398,0.0146964,1602,1681,-0.0458849,-0.0417935
385,-657,-0.0373535,0.0220947,0.000785894,0.00197332,-0.000816679,0.00238929,0.000369923,-1.0997,0.00148499,0.0117839,1609,1681,-0.0373551,-0.0221386
392,-657,-0.0249023,0.0316162,0.00158173,0.00244474,-0.000991738,0.00309478,0.000931689,-0.990596,0.00183331,0.0112574,1616,1681,-0.0249575,-0.0315886
399,-657,-0.0195313,0.0432129,0.00218053,0.00236115,-0.00123396,0.0035081,0.00103358,-0.821926,0.00208158,0.011561,1623,1681,-0.0195318,-0.043191
406,-657,-0.0112305,0.0418701,0.00254081,0.0022622,-0.00113432,0.00354435,0.00125866,-0.724298,0.00207477,0.0133914,1630,1681,-0.0112688,-0.0419227
413,-657,-0.038208,0.039917,0.00296462,0.00243501,-0.00105511,0.00378764,0.00161198,-0.662451,0.00219485,0.0124359,1637,1681,-0.03819,-0.0398615
420,-657,-0.0366211,0.0518799,0.00332948,0.00306124,-0.000949311,0.0041541,0.00223662,-0.715221,0.00240073,0.0126239,1644,1681,-0.0365678,-0.051878
427,-657,-0.0307617,0.0523682,0.00307905,0.00449274,-0.000385911,0.00459122,0.00298056,-1.32093,0.00268979,0.015533,1651,1681,-0.0307782,-0.052308
434,-657,-0.0766602,0.0407715,0.00280556,0.00668807,-0.000376667,0.00672428,0.00276936,-1.47497,0.00390233,0.0225219,1658,1681,-0.0766487,-0.040779
441,-657,0.117676,0.195923,0.0015636,0.00939544,-0.000254692,0.00940372,0.00155532,-1.53832,0.00582039,0.0372181,1665,1681,0.117709,-0.195917
448,-657,0.339966,0.349487,-0.000601945,0.0128998,-6.83643e-05,0.0129002,-0.000602291,-1.56573,0.00880774,0.0446113,1672,1681,0.339975,-0.349487
455,-657,0.508057,0.416016,0,0,0,0,0,0,0,-1,1679,1681,0.508025,-0.415975
462,-657,-0.440796,-0.113037,-0.00415903,0.0213742,0.000860465,0.0214032,-0.00418799,1.53715,0.0158503,0.0480256,1686,1681,-0.440737,0.112996
469,-657,0.0078125,-0.566772,-0.00695917,0.027304,0.000416874,0.0273091,-0.00696425,1.55863,0.0209176,0.0434935,1693,1681,0.00778154,0.566797
476,-657,-0.870483,-1.08862,0,0,0,0,0,0,0,-1,1700,1681,-0.870505,1.08863
483,-657,0.346924,0.142456,-0.0136527,0.0408148,0.000594651,0.0408213,-0.0136592,1.55988,0.0327315,0.0489817,1707,1681,0.346939,-0.142403
490,-657,-0.225708,-0.434082,-0.0158345,0.0475916,0.00125359,0.0476164,-0.0158592,1.55104,0.0381459,0.0472116,1714,1681,-0.225707,0.434102
497,-657,-1.02722,-1.02441,-0.0173571,0.0532645,-0.000237106,0.0532653,-0.0173579,-1.56744,0.0424948,0.0449631,1721,1681,-1.02722,1.02441
504,-657,0,0,0,0,0,0,0,0,0,-1,1728,1681,0,0
511,-657,0,0,0,0,0,0,0,0,0,-1,1735,1681,0,0
518,-657,0,0,0,0,0,0,0,0,0,-1,1742,1681,0,0
525,-657,0,0,0,0,0,0,0,0,0,-1,1749,1681,0,0
532,-657,0,0,0,0,0,0,0,0,0,-1,1756,1681,0,0
539,-657,0,0,0,0,0,0,0,0,0,-1,1763,1681,0,0
546,-657,0,0,0,0,0,0,0,0,0,-1,1770,1681,0,0
553,-657,0,0,0,0,0,0,0,0,0,-1,1777,1681,0,0
560,-657,0,0,0,0,0,0,0,0,0,-1,1784,1681,0,0
567,-657,0,0,0,0,0,0,0,0,0,-1,1791,1681,0,0
574,-657,0,0,0,0,0,0,0,0,0,-1,1798,1681,0,0
581,-657,0,0,0,0,0,0,0,0,0,-1,1805,1681,0,0
588,-657,0,0,0,0,0,0,0,0,0,-1,1812,1681,0,0
595,-657,0,0,0,0,0,0,0,0,0,-1,1819,1681,0,0
602,-657,0,0,0,0,0,0,0,0,0,-1,1826,1681,0,0
609,-657,0,0,0,0,0,0,0,0,0,-1,1833,1681,0,0
616,-657,0,0,0,0,0,0,0,0,0,-1,1840,1681,0,0
623,-657,0,0,0,0,0,0,0,0,0,-1,1847,1681,0,0
630,-657,0,0,0,0,0,0,0,0,0,-1,1854,1681,0,0
637,-657,0,0,0,0,0,0,0,0,0,-1,1861,1681,0,0
644,-657,0,0,0,0,0,0,0,0,0,-1,1868,1681,0,0
651,-657,0,0,0,0,0,0,0,0,0,-1,1875,1681,0,0
658,-657,0,0,0,0,0,0,0,0,0,-1,1882,1681,0,0
665,-657,0,0,0,0,0,0,0,0,0,-1,1889,1681,0,0
672,-657,0,0,0,0,0,0,0,0,0,-1,1896,1681,0,0
679,-657,0,0,0,0,0,0,0,0,0,-1,1903,1681,0,0
686,-657,0,0,0,0,0,0,0,0,0,-1,1910,1681,0,0
693,-657,0,0,0,0,0,0,0,0,0,-1,1917,1681,0,0
700,-657,0,0,0,0,0,0,0,0,0,-1,1924,1681,0,0
707,-657,0,0,0,0,0,0,0,0,0,-1,1931,1681,0,0
714,-657,0,0,0,0,0,0,0,0,0,-1,1938,1681,0,0
721,-657,0,0,0,0,0,0,0,0,0,-1,1945,1681,0,0
728,-657,0,0,0,0,0,0,0,0,0,-1,1952,1681,0,0
735,-657,0,0,0,0,0,0,0,0,0,-1,1959,1681,0,0
742,-657,0,0,0,0,0,0,0,0,0,-1,1966,1681,0,0
749,-657,0,0,0,0,0,0,0,0,0,-1,1973,1681,0,0
756,-657,0,0,0,0,0,0,0,0,0,-1,1980,1681,0,0
763,-657,0,0,0,0,0,0,0,0,0,-1,1987,1681,0,0
770,-657,0,0,0,0,0,0,0,0,0,-1,1994,1681,0,0
777,-657,0,0,0,0,0,0,0,0,0,-1,2001,1681,0,0
784,-657,0,0,0,0,0,0,0,0,0,-1,2008,1681,0,0
791,-657,0,0,0,0,0,0,0,0,0,-1,2015,1681,0,0
798,-657,0,0,0,0,0,0,0,0,0,-1,2022,1681,0,0
805,-657,0,0,0,0,0,0,0,0,0,-1,2029,1681,0,0
812,-657,0,0,0,0,0,0,0,0,0,-1,2036,1681,0,0
-700,-664,0,0,0,0,0,0,0,0,0,-1,524,1688,0,0
-693,-664,0,0,0,0,0,0,0,0,0,-1,531,1688,0,0
-686,-664,0,0,0,0,0,0,0,0,0,-1,538,1688,0,0
-679,-664,0,0,0,0,0,0,0,0,0,-1,545,1688,0,0
-672,-664,0,0,0,0,0,0,0,0,0,-1,552,1688,0,0
-665,-664,0,0,0,0,0,0,0,0,0,-1,559,1688,0,0
-658,-664,0,0,0,0,0,0,0,0,0,-1,566,1688,0,0
-651,-664,0,0,0,0,0,0,0,0,0,-1,573,1688,0,0
-644,-664,0,0,0,0,0,0,0,0,0,-1,580,1688,0,0
-637,-664,0,0,0,0,0,0,0,0,0,-1,587,1688,0,0
-630,-664,0,0,0,0,0,0,0,0,0,-1,594,1688,0,0
-623,-664,0,0,0,0,0,0,0,0,0,-1,601,1688,0,0
-616,-664,0,0,0,0,0,0,0,0,0,-1,608,1688,0,0
-609,-664,0,0,0,0,0,0,0,0,0,-1,615,1688,0,0
-602,-664,0,0,0,0,0,0,0,0,0,-1,622,1688,0,0
-595,-664,0,0,0,0,0,0,0,0,0,-1,629,1688,0,0
-588,-664,0,0,0,0,0,0,0,0,0,-1,636,1688,0,0
-581,-664,0,0,0,0,0,0,0,0,0,-1,643,1688,0,0
-574,-664,0,0,0,0,0,0,0,0,0,-1,650,1688,0,0
-567,-664,0,0,0,0,0,0,0,0,0,-1,657,1688,0,0
-560,-664,0,0,0,0,0,0,0,0,0,-1,664,1688,0,0
-553,-664,0,0,0,0,0,0,0,0,0,-1,671,1688,0,0
-546,-664,0,0,0,0,0,0,0,0,0,-1,678,1688,0,0
-539,-664,0,0,0,0,0,0,0,0,0,-1,685,1688,0,0
-532,-664,0,0,0,0,0,0,0,0,0,-1,692,1688,0,0
-525,-664,0,0,0,0,0,0,0,0,0,-1,699,1688,0,0
-518,-664,0,0,0,0,0,0,0,0,0,-1,706,1688,0,0
-511,-664,0,0,0,0,0,0,0,0,0,-1,713,1688,0,0
-504,-664,0,0,0,0,0,0,0,0,0,-1,720,1688,0,0
-497,-664,0,0,0,0,0,0,0,0,0,-1,727,1688,0,0
-490,-664,0,0,0,0,0,0,0,0,0,-1,734,1688,0,0
-483,-664,0,0,0,0,0,0,0,0,0,-1,741,1688,0,0
-476,-664,0,0,0,0,0,0,0,0,0,-1,748,1688,0,0
-469,-664,0,0,0,0,0,0,0,0,0,-1,755,1688,0,0
-462,-664,0,0,0,0,0,0,0,0,0,-1,762,1688,0,0
-455,-664,0,0,0,0,0,0,0,0,0,-1,769,1688,0,0
-448,-664,0,0,0,0,0,0,0,0,0,-1,776,1688,0,0
-441,-664,0,0,0,0,0,0,0,0,0,-1,783,1688,0,0
-434,-664,0,0,0,0,0,0,0,0,0,-1,790,1688,0,0
-427,-664,0,0,0,0,0,0,0,0,0,-1,797,1688,0,0
-420,-664,0,0,0,0,0,0,0,0,0,-1,804,1688,0,0
-413,-664,0,0,0,0,0,0,0,0,0,-1,811,1688,0,0
-406,-664,0,0,0,0,0,0,0,0,0,-1,818,1688,0,0
-399,-664,0,0,0,0,0,0,0,0,0,-1,825,1688,0,0
-392,-664,0,0,0,0,0,0,0,0,0,-1,832,1688,0,0
-385,-664,0,0,0,0,0,0,0,0,0,-1,839,1688,0,0
-378,-664,0,0,0,0,0,0,0,0,0,-1,846,1688,0,0
-371,-664,2.65802,0.0473633,0,0,0,0,0,0,0,-1,853,1688,2.65805,-0.0473757
-364,-664,2.50372,-0.205444,0.0437535,-0.014993,-0.0628243,0.0837321,-0.0549716,-0.566724,0.0806524,0.0475648,860,1688,2.50373,0.205481
-357,-664,2.52893,-0.609253,0.0439628,-0.0140731,-0.0503568,0.0730641,-0.0431744,-0.524013,0.0678459,0.0448395,867,1688,2.52892,0.609224
-350,-664,2.73029,-0.875122,0,0,0,0,0,0,0,-1,874,1688,2.73031,0.875136
-343,-664,2.54639,-1.18518,0.0423078,-0.0149109,-0.033371,0.0576543,-0.0302574,-0.431036,0.0515709,0.0489187,881,1688,2.54637,1.18521
-336,-664,2.83246,-1.67371,0.0398804,-0.0142949,-0.0257683,0.0501792,-0.0245936,-0.380221,0.0440045,0.0451734,888,1688,2.83249,1.67368
-329,-664,-1.01245,-0.656982,0,0,0,0,0,0,0,-1,895,1688,-1.01244,0.656942
-322,-664,-0.712341,-0.43335,0.0349463,-0.0100761,-0.0134368,0.0386516,-0.0137814,-0.269067,0.0313868,0.0460899,902,1688,-0.712366,0.433313
-315,-664,-0.277283,-0.142578,0.0304032,-0.00849435,-0.0096014,0.0326441,-0.0107352,-0.229288,0.0260881,0.0448821,909,1688,-0.277257,0.142605
-308,-664,0.145386,-0.0446777,0.0255262,-0.00777562,-0.00547802,0.0264041,-0.00865359,-0.158919,0.0210877,0.0438177,916,1688,0.145394,0.0446756
-301,-664,0.649536,0.355225,0.0208738,-0.00608692,-0.00305135,0.0212149,-0.00642795,-0.111302,0.0167034,0.0444915,923,1688,0.649518,-0.355251
-294,-664,0.108521,0.182983,0.0167364,-0.00363539,-0.00290502,0.0171426,-0.00404155,-0.138912,0.0129869,0.0397189,930,1688,0.108527,-0.183042
-287,-664,-0.0043335,0.0270996,0.0131984,-0.00128268,-0.0024735,0.0136093,-0.00169352,-0.164594,0.00968681,0.0268799,937,1688,-0.0043043,-0.0271132
-280,-664,-0.0219116,0.0197754,0.00995518,0.000878738,-0.00221411,0.0104665,0.000367432,-0.226952,0.00685846,0.0162909,944,1688,-0.0218838,-0.0197642
-273,-664,-0.0317383,0.0279541,0.00712259,0.00187305,-0.00231833,0.00799983,0.000995817,-0.361742,0.00503422,0.0128848,951,1688,-0.0317197,-0.0279191
-266,-664,-0.0211182,0.0395508,0.00470375,0.00275173,-0.00229738,0.00622385,0.00123163,-0.584532,0.00380571,0.0194117,958,1688,-0.021143,-0.0395698
-259,-664,-0.0246582,0.0256348,0.00244963,0.0035307,-0.00225191,0.00530604,0.000674288,-0.903186,0.0033354,0.0188286,965,1688,-0.0246784,-0.0256036
-252,-664,-0.0176392,0.0169678,0.00100906,0.00360494,-0.00248177,0.00510769,-0.00049368,-1.02633,0.00358104,0.0150724,972,1688,-0.017618,-0.016948
-245,-664,-0.0368042,0.0480957,0.000688225,0.0041752,-0.00177675,0.00492101,-5.75839e-05,-1.17337,0.00330003,0.0175875,979,1688,-0.036777,-0.0481227
-238,-664,-0.0268555,0.0394287,0.000349711,0.00439882,-0.00127577,0.00476725,-1.87256e-05,-1.28965,0.00318443,0.0203817,986,1688,-0.02683,-0.0393955
-231,-664,-0.0247803,0.00927734,6.12247e-05,0.00427628,-0.00109444,0.00454351,-0.000206004,-1.33131,0.00309996,0.0175974,993,1688,-0.024801,-0.00926243
-224,-664,-0.0209351,0.0246582,-0.000292808,0.00401082,-0.00108639,0.00426951,-0.0005515,-1.33703,0.00304686,0.0128147,1000,1688,-0.0209105,-0.0246173
-217,-664,-0.0195923,0.0351563,-0.000581231,0.00361138,-0.00100572,0.00384015,-0.000809999,-1.34713,0.00286848,0.0101441,1007,1688,-0.0195822,-0.0351716
-210,-664,-0.00457764,0.0424805,-0.000693936,0.00300821,-0.000899495,0.00321518,-0.000900912,-1.34463,0.0024985,0.0110717,1014,1688,-0.00456455,-0.0424556
-203,-664,-0.0101318,0.0411377,-0.00078942,0.00270089,-0.00102181,0.00297803,-0.00106656,-1.30595,0.00242051,0.0130769,1021,1688,-0.0101265,-0.0411703
-196,-664,-0.0098877,0.0249023,-0.000806969,0.00214818,-0.00109076,0.00250717,-0.00116596,-1.25284,0.00216729,0.0136221,1028,1688,-0.00985487,-0.0248988
-189,-664,0.00561523,0.03479,-0.000678119,0.00163597,-0.00107351,0.00205728,-0.00109942,-1.19681,0.00185028,0.00910736,1035,1688,0.00558163,-0.0348126
-182,-664,0.00268555,0.0389404,-0.000470743,0.00131402,-0.00106053,0.00180767,-0.00096439,-1.13515,0.00162495,0.00838114,1042,1688,0.00269262,-0.0389205
-175,-664,-0.0163574,0.0350342,-0.000245052,0.000958289,-0.00106011,0.00157557,-0.000862331,-1.04351,0.00142746,0.0110981,1049,1688,-0.0163043,-0.0349949
-168,-664,-0.0183105,0.0317383,0.000337602,0.000549233,-0.00112258,0.00157097,-0.00068414,-0.83239,0.00133513,0.0119634,1056,1688,-0.0182703,-0.0316776
-161,-664,-0.010498,0.0100098,0.00093407,0.000497283,-0.0016859,0.00241566,-0.00098431,-0.720986,0.00202013,0.0090599,1063,1688,-0.0105517,-0.00996322
-154,-664,-0.0222168,0.0136719,0.000977729,-0.000164841,-0.00146401,0.00197797,-0.00116508,-0.599375,0.00183476,0.00851859,1070,1688,-0.0222198,-0.0136449
-147,-664,-0.0452881,0.0135498,0.00100661,-0.000905712,-0.00123766,0.00161444,-0.00151354,-0.456508,0.00180625,0.00909354,1077,1688,-0.0452643,-0.0135149
-140,-664,-0.0422363,0.00305176,0.000766564,-0.00166439,-0.00102041,0.0011381,-0.00203593,-0.349186,0.0018568,0.00941893,1084,1688,-0.0422769,-0.00300258
-133,-664,-0.0283203,0.0377197,0.000123748,-0.00214146,-0.000414743,0.000197296,-0.00221501,-0.17551,0.00154664,0.010347,1091,1688,-0.0283246,-0.037707
-126,-664,0.012085,0.0488281,-0.00060976,-0.0024832,0.000355439,-0.000544591,-0.00254837,0.181334,0.00154961,0.0179052,1098,1688,0.0121059,-0.0487981
-119,-664,-0.0557861,0.0594482,-0.00167109,-0.00297221,0.00119197,-0.000963702,-0.0036796,0.535598,0.00220324,0.0331662,1105,1688,-0.055815,-0.0594152
-112,-664,-0.194214,0.179688,-0.00270833,-0.00318093,0.00193948,-0.00099081,-0.00489846,0.724779,0.00299059,0.038692,1112,1688,-0.194158,-0.179662
-105,-664,0.276367,-0.269897,-0.00340252,-0.00311141,0.00290577,-0.000347549,-0.00616638,0.810423,0.00400011,0.045823,1119,1688,0.276392,0.269958
-98,-664,0.376221,-0.402832,-0.00396272,-0.00299002,0.00378697,0.000341703,-0.00729444,0.849262,0.00498077,0.0427046,1126,1688,0.37627,0.402779
-91,-664,0.242432,-0.206299,-0.00431602,-0.00302864,0.00450619,0.000879598,-0.00822426,0.856341,0.00579832,0.0399175,1133,1688,0.242461,0.206255
-84,-664,0.0665283,-0.0657959,-0.00427723,-0.00276767,0.00485549,0.00139135,-0.00843626,0.862505,0.00614072,0.0442431,1140,1688,0.0664703,0.0657968
-77,-664,0.541504,-0.283691,-0.0039514,-0.00248286,0.00484022,0.00167847,-0.00811273,0.860675,0.00604614,0.0430255,1147,1688,0.541553,0.283647
-70,-664,0.0206299,-0.192261,-0.0033495,-0.00168604,0.00436648,0.00192722,-0.00696276,0.879511,0.00540012,0.0425017,1154,1688,0.0205714,0.192312
-63,-664,-0.480347,-0.102173,-0.00352063,-0.00188343,0.00404448,0.00142447,-0.00682852,0.885249,0.005094,0.0431823,1161,1688,-0.480342,0.102169
-56,-664,-0.123413,1.67358,-0.00254784,-0.00161254,0.00443113,0.00237555,-0.00653593,0.837972,0.00532867,0.0405781,1168,1688,-0.123393,-1.67359
-49,-664,-0.190918,1.12354,0.000880486,-0.000136919,0.00379321,0.00419895,-0.00345539,0.718742,0.00442618,0.047258,1175,1688,-0.19097,-1.12349
-42,-664,-0.255859,0.467529,0,0,0,0,0,0,0,-1,1182,1688,-0.255889,-0.467559
-35,-664,0.103516,-0.00244141,0,0,0,0,0,0,0,-1,1189,1688,0.103489,0.00243587
-28,-664,0.0772705,-0.376099,0,0,0,0,0,0,0,-1,1196,1688,0.0773087,0.37609
-21,-664,-0.0697021,-0.442871,0.0180369,0.00328207,0.00128408,0.0181478,0.00317116,0.0861643,0.0111923,0.0451897,1203,1688,-0.0696418,0.442879
-14,-664,-0.126343,-0.469971,0.0232234,0.00541141,0.000804897,0.0232597,0.00537512,0.0450661,0.0140615,0.0442175,1210,1688,-0.126393,0.469998
-7,-664,-3.77124,1.4541,0.0269399,0.00772061,-6.59456e-05,0.0269401,0.00772038,-0.00343117,0.0160192,0.0475819,1217,1688,-3.77123,-1.45407
0,-664,-0.510498,1.48853,0,0,0,0,0,0,0,-1,1224,1688,-0.510547,-1.48853
7,-664,-0.932617,1.55005,0,0,0,0,0,0,0,-1,1231,1688,-0.932676,-1.55004
14,-664,-0.815063,1.15344,0,0,0,0,0,0,0,-1,1238,1688,-0.81507,-1.15342
21,-664,0.39856,0.0554199,0.0411143,0.00730325,-0.0113327,0.0445614,0.0038562,-0.295276,0.0285093,0.0469765,1245,1688,0.398554,-0.0554385
28,-664,0.883789,-0.65271,0.0433041,0.00365624,-0.0141424,0.0478317,-0.000871314,-0.309831,0.0321822,0.0467324,1252,1688,0.883767,0.652661
35,-664,1.45117,-1.15833,0.0450677,-0.000988003,-0.0162226,0.0502082,-0.00612849,-0.306863,0.0356908,0.0466128,1259,1688,1.45117,1.15837
42,-664,2.1687,-1.56091,0.045651,-0.00587185,-0.0173922,0.0509723,-0.0111932,-0.296918,0.0382623,0.0437691,1266,1688,2.1687,1.56089
49,-664,3.10645,-1.97864,0,0,0,0,0,0,0,-1,1273,1688,3.10648,1.97864
56,-664,0.0599365,-1.40161,0.0435885,-0.00907962,-0.0190835,0.0497762,-0.0152673,-0.313546,0.0392751,0.0445271,1280,1688,0.0599171,1.40166
63,-664,0.0203857,-2.09399,0.0475701,-0.0128137,-0.0187153,0.0529002,-0.0181438,-0.277454,0.0426221,0.0477789,1287,1688,0.0204029,2.09404
70,-664,-0.0543213,-3.03784,0.051449,-0.0172534,-0.0171379,0.0554867,-0.0212911,-0.231384,0.0457698,0.045901,1294,1688,-0.0543611,3.03785
77,-664,1.45142,-3.35767,0.0555911,-0.020968,-0.014388,0.0582058,-0.0235827,-0.179765,0.0486105,0.0429841,1301,1688,1.45146,3.35769
84,-664,1.4856,-4.31201,0.0614209,-0.0258878,-0.0103909,0.0626405,-0.0271074,-0.116839,0.0531525,0.0470611,1308,1688,1.48559,4.31203
91,-664,1.77209,-5.06421,0.0666511,-0.0312972,-0.0064394,0.0670727,-0.0317187,-0.0653679,0.0582419,0.0433235,1315,1688,1.77208,5.06424
98,-664,-4.08191,-1.60059,0,0,0,0,0,0,0,-1,1322,1688,-4.08185,1.60054
105,-664,-2.65527,-1.67566,0.0757854,-0.0407935,0.00427606,0.075942,-0.0409501,0.0366139,0.0684882,0.0479302,1329,1688,-2.65521,1.6757
112,-664,-1.24219,-1.6134,0.0770866,-0.0422326,0.00815055,0.0776408,-0.0427868,0.0678885,0.0704929,0.0439926,1336,1688,-1.24217,1.61346
119,-664,-0.0883789,-1.7876,0.0770089,-0.0430931,0.0118133,0.0781598,-0.044244,0.0971203,0.0715684,0.047342,1343,1688,-0.0884203,1.78755
126,-664,-0.0635986,-2.38806,0,0,0,0,0,0,0,-1,1350,1688,-0.0636029,2.38801
133,-664,0.737427,-2.05493,0.066158,-0.0396589,0.0157041,0.0684394,-0.0419403,0.144267,0.064337,0.0468205,1357,1688,0.737453,2.05493
140,-664,1.37939,-1.71057,0.0589758,-0.0345817,0.015719,0.0615462,-0.0371521,0.162087,0.0575607,0.0438768,1364,1688,1.37938,1.71056
147,-664,1.67236,-1.16187,0,0,0,0,0,0,0,-1,1371,1688,1.67234,1.16182
154,-664,-0.316406,1.07886,0,0,0,0,0,0,0,-1,1378,1688,-0.316385,-1.07885
161,-664,-0.235229,0.849854,0.0328587,-0.0181343,0.0116711,0.035403,-0.0206785,0.214641,0.0327486,0.0494484,1385,1688,-0.235256,-0.849812
168,-664,-0.0842285,0.518799,0.0225327,-0.0104357,0.00962694,0.025138,-0.013041,0.264289,0.0224084,0.0440712,1392,1688,-0.0842196,-0.51876
175,-664,0.229492,0.444092,0.0152331,-0.00349657,0.00637738,0.0171984,-0.00546183,0.298927,0.0136553,0.0425498,1399,1688,0.229541,-0.444075
182,-664,0.145752,-0.205444,0,0,0,0,0,0,0,-1,1406,1688,0.1458,0.205493
189,-664,0.0557861,0.0737305,0,0,0,0,0,0,0,-1,1413,1688,0.055737,-0.0737342
196,-664,0.032959,-0.0253906,0,0,0,0,0,0,0,-1,1420,1688,0.0329522,0.0253476
203,-664,-0.250854,0.348267,0.00228451,0.00678799,-0.00275997,0.00809824,0.000974258,-1.12757,0.00510516,0.0415614,1427,1688,-0.25091,-0.348312
210,-664,-0.277344,0.685791,0.00264128,0.00547225,-0.00257226,0.00699277,0.00112076,-1.03693,0.0043368,0.0377666,1434,1688,-0.277371,-0.685798
217,-664,-0.3302,0.742065,0,0,0,0,0,0,0,-1,1441,1688,-0.330179,-0.742033
224,-664,-0.599609,-0.481079,0.00332017,0.00475129,-0.00114559,0.00538643,0.00268503,-1.06456,0.00310986,0.0433836,1448,1688,-0.599606,0.481036
231,-664,-0.331421,-0.103638,0.00324391,0.00593664,-0.000138207,0.00594371,0.00323684,-1.51965,0.00343615,0.0426005,1455,1688,-0.331463,0.103672
238,-664,0.0982666,0.281494,0.00323537,0.00707623,0.000553726,0.00715446,0.00315713,1.43044,0.00414012,0.0374594,1462,1688,0.0982187,-0.281534
245,-664,0.213989,0.226563,0.00312807,0.0074543,0.00109252,0.00771454,0.00286783,1.33695,0.00450257,0.0374212,1469,1688,0.214023,-0.226584
252,-664,-0.0820313,-0.0012207,0.00303123,0.0080789,0.00125989,0.0083759,0.00273424,1.33929,0.00493198,0.0385699,1476,1688,-0.0820627,0.00127854
259,-664,-0.31897,0.167358,0.00274321,0.00816874,0.00150291,0.00855724,0.00235471,1.31784,0.0051043,0.0353531,1483,1688,-0.318986,-0.167312
266,-664,-0.13501,0.0601807,0.00214623,0.00808414,0.001689,0.00853094,0.00169943,1.31218,0.00521397,0.0287193,1490,1688,-0.13504,-0.0601417
273,-664,-0.100098,0.0344238,0.00139882,0.00796704,0.00198067,0.00851809,0.000847776,1.29945,0.00541829,0.0237332,1497,1688,-0.100138,-0.0344038
280,-664,-0.0854492,0.017334,0.000754104,0.00739759,0.00206981,0.00798968,0.000162015,1.29218,0.00527328,0.0192267,1504,1688,-0.0854851,-0.0173185
287,-664,-0.0418701,0.0117188,0.000342603,0.00649276,0.00185222,0.0070075,-0.000172143,1.29973,0.0047301,0.017428,1511,1688,-0.0418104,-0.0116705
294,-664,0.00878906,0.0212402,-0.000212726,0.00534931,0.00155533,0.00575469,-0.000618101,1.31583,0.00405821,0.0126959,1518,1688,0.00883547,-0.0212568
301,-664,0.0098877,0.0303955,-0.000506856,0.00450934,0.00133855,0.00484417,-0.000841692,1.32568,0.00354349,0.00920375,1525,1688,0.00984738,-0.0304046
308,-664,0.013916,0.0235596,-0.000599343,0.0037431,0.00127494,0.00408975,-0.000945993,1.30532,0.00309047,0.00949894,1532,1688,0.0138948,-0.023547
315,-664,0.013916,0.0311279,-0.000837661,0.00310981,0.00139052,0.00355045,-0.0012783,1.26392,0.00288892,0.0104856,1539,1688,0.0139533,-0.0311205
322,-664,-0.00695801,0.0234375,-0.00116033,0.0028527,0.00131155,0.00324332,-0.00155095,1.28133,0.00282487,0.0136883,1546,1688,-0.0069244,-0.0234511
329,-664,-0.0512695,-0.000610352,-0.00127685,0.00232323,0.0010393,0.00260172,-0.00155534,1.30899,0.00242529,0.0156988,1553,1688,-0.0512171,0.000598617
336,-664,-0.0324707,0.00280762,-0.00122514,0.00155972,0.00069807,0.0017249,-0.00139032,1.33844,0.00180203,0.0127943,1560,1688,-0.0324139,-0.00278343
343,-664,-0.0213623,0.0296631,-0.00105798,0.00127012,0.000600714,0.00141598,-0.00120384,1.33259,0.00151421,0.010787,1567,1688,-0.0213303,-0.0296362
350,-664,-0.0197754,0.020874,-0.0011037,0.00140206,0.000319916,0.00144226,-0.0011439,1.4458,0.00149643,0.0121976,1574,1688,-0.0197406,-0.0209116
357,-664,-0.0195313,0.0213623,-0.00119102,0.00168488,0.000101261,0.00168844,-0.00119458,1.53564,0.00167264,0.0110512,1581,1688,-0.0195543,-0.0213404
364,-664,-0.00610352,0.0349121,-0.000815574,0.00174868,1.47082e-05,0.00174877,-0.000815658,1.56506,0.00151289,0.00954596,1588,1688,-0.00613747,-0.0348511
371,-664,-0.0032959,0.0488281,0.000102308,0.00198866,-0.000111993,0.00199529,9.56825e-05,-1.5117,0.00129947,0.0127183,1595,1688,-0.00326799,-0.0488353
378,-664,-0.0283203,0.0495605,0.000741995,0.00199089,-0.000509062,0.00217209,0.000560788,-1.22882,0.00130203,0.0126177,1602,1688,-0.0282813,-0.0496207
385,-664,-0.0218506,0.038208,0.00124915,0.00224239,-0.0012622,0.00310216,0.000389383,-0.972825,0.0019513,0.0127627,1609,1688,-0.0218627,-0.0382268
392,-664,-0.0377197,0.0583496,0.00224285,0.00278157,-0.00157712,0.00411217,0.000912246,-0.869978,0.00249362,0.0150187,1616,1688,-0.0377406,-0.0584002
399,-664,-0.0288086,0.0479736,0.00306685,0.00273606,-0.00195217,0.00486062,0.000942291,-0.743138,0.00297646,0.0125459,1623,1688,-0.0288026,-0.0479301
406,-664,-0.00439453,0.0319824,0.00365613,0.00264848,-0.00194803,0.00516443,0.00114018,-0.658854,0.00313283,0.011046,1630,1688,-0.00443646,-0.0320244
413,-664,0.00415039,0.0411377,0.00430096,0.00282952,-0.00198018,0.00567768,0.0014528,-0.60753,0.00340576,0.00969665,1637,1688,0.00415693,-0.041188
420,-664,0.0101318,0.0438232,0.00485736,0.00355447,-0.00191424,0.00622797,0.00218387,-0.621388,0.00364879,0.0209108,1644,1688,0.0101881,-0.0438829
427,-664,-0.0803223,-0.000976563,0.00469833,0.00512787,-0.00128518,0.0062161,0.0036101,-0.868191,0.00360444,0.0393224,1651,1688,-0.0802911,0.00103748
434,-664,-0.236328,-0.163208,0.00447984,0.00754676,-0.00127795,0.00800946,0.00401714,-1.22341,0.00462427,0.0399764,1658,1688,-0.23635,0.163198
441,-664,0.105103,0.069458,0.0030724,0.0105432,-0.000998686,0.0106744,0.0029412,-1.44017,0.00636649,0.0415235,1665,1688,0.105096,-0.069446
448,-664,-0.098877,-0.588379,0,0,0,0,0,0,0,-1,1672,1688,-0.0988201,0.588406
455,-664,-0.00195313,-0.514771,-0.00135328,0.0188222,0.000473291,0.0188333,-0.00136438,1.54735,0.0130342,0.0493737,1679,1688,-0.00191081,0.514713
462,-664,-0.174561,-0.246216,-0.0037813,0.0240941,0.000793845,0.0241167,-0.00380389,1.54235,0.0174843,0.0491097,1686,1688,-0.17459,0.246194
469,-664,0.637695,-0.747681,0,0,0,0,0,0,0,-1,1693,1688,0.637705,0.747699
476,-664,0.844238,0.197266,-0.0124724,0.0386156,0.00049124,0.0386203,-0.0124771,1.56118,0.0307613,0.04813,1700,1688,0.844229,-0.197265
483,-664,0.327393,-0.377441,-0.0164618,0.0473363,0.000686107,0.0473436,-0.0164691,1.56004,0.0382527,0.0471584,1707,1688,0.32735,0.377438
490,-664,-0.194336,-0.894531,-0.0196049,0.0557862,0.00168946,0.055824,-0.0196427,1.5484,0.0452091,0.0470583,1714,1688,-0.194375,0.894587
497,-664,0,0,0,0,0,0,0,0,0,-1,1721,1688,0,0
504,-664,0,0,0,0,0,0,0,0,0,-1,1728,1688,0,0
511,-664,0,0,0,0,0,0,0,0,0,-1,1735,1688,0,0
518,-664,0,0,0,0,0,0,0,0,0,-1,1742,1688,0,0
525,-664,0,0,0,0,0,0,0,0,0,-1,1749,1688,0,0
532,-664,0,0,0,0,0,0,0,0,0,-1,1756,1688,0,0
539,-664,0,0,0,0,0,0,0,0,0,-1,1763,1688,0,0
546,-664,0,0,0,0,0,0,0,0,0,-1,1770,1688,0,0
553,-664,0,0,0,0,0,0,0,0,0,-1,1777,1688,0,0
560,-664,0,0,0,0,0,0,0,0,0,-1,1784,1688,0,0
567,-664,0,0,0,0,0,0,0,0,0,-1,1791,1688,0,0
574,-664,0,0,0,0,0,0,0,0,0,-1,1798,1688,0,0
581,-664,0,0,0,0,0,0,0,0,0,-1,1805,1688,0,0
588,-664,0,0,0,0,0,0,0,0,0,-1,1812,1688,0,0
595,-664,0,0,0,0,0,0,0,0,0,-1,1819,1688,0,0
602,-664,0,0,0,0,0,0,0,0,0,-1,1826,1688,0,0
609,-664,0,0,0,0,0,0,0,0,0,-1,1833,1688,0,0
616,-664,0,0,0,0,0,0,0,0,0,-1,1840,1688,0,0
623,-664,0,0,0,0,0,0,0,0,0,-1,1847,1688,0,0
630,-664,0,0,0,0,0,0,0,0,0,-1,1854,1688,0,0
637,-664,0,0,0,0,0,0,0,0,0,-1,1861,1688,0,0
644,-664,0,0,0,0,0,0,0,0,0,-1,1868,1688,0,0
651,-664,0,0,0,0,0,0,0,0,0,-1,1875,1688,0,0
658,-664,0,0,0,0,0,0,0,0,0,-1,1882,1688,0,0
665,-664,0,0,0,0,0,0,0,0,0,-1,1889,1688,0,0
672,-664,0,0,0,0,0,0,0,0,0,-1,1896,1688,0,0
679,-664,0,0,0,0,0,0,0,0,0,-1,1903,1688,0,0
686,-664,0,0,0,0,0,0,0,0,0,-1,1910,1688,0,0
693,-664,0,0,0,0,0,0,0,0,0,-1,1917,1688,0,0
700,-664,0,0,0,0,0,0,0,0,0,-1,1924,1688,0,0
707,-664,0,0,0,0,0,0,0,0,0,-1,1931,1688,0,0
714,-664,0,0,0,0,0,0,0,0,0,-1,1938,1688,0,0
721,-664,0,0,0,0,0,0,0,0,0,-1,1945,1688,0,0
728,-664,0,0,0,0,0,0,0,0,0,-1,1952,1688,0,0
735,-664,0,0,0,0,0,0,0,0,0,-1,1959,1688,0,0
742,-664,0,0,0,0,0,0,0,0,0,-1,1966,1688,0,0
749,-664,0,0,0,0,0,0,0,0,0,-1,1973,1688,0,0
756,-664,0,0,0,0,0,0,0,0,0,-1,1980,1688,0,0
763,-664,0,0,0,0,0,0,0,0,0,-1,1987,1688,0,0
770,-664,0,0,0,0,0,0,0,0,0,-1,1994,1688,0,0
777,-664,0,0,0,0,0,0,0,0,0,-1,2001,1688,0,0
784,-664,0,0,0,0,0,0,0,0,0,-1,2008,1688,0,0
791,-664,0,0,0,0,0,0,0,0,0,-1,2015,1688,0,0
798,-664,0,0,0,0,0,0,0,0,0,-1,2022,1688,0,0
805,-664,0,0,0,0,0,0,0,0,0,-1,2029,1688,0,0
812,-664,0,0,0,0,0,0,0,0,0,-1,2036,1688,0,0
-700,-671,0,0,0,0,0,0,0,0,0,-1,524,1695,0,0
-693,-671,0,0,0,0,0,0,0,0,0,-1,531,1695,0,0
-686,-671,0,0,0,0,0,0,0,0,0,-1,538,1695,0,0
-679,-671,0,0,0,0,0,0,0,0,0,-1,545,1695,0,0
-672,-671,0,0,0,0,0,0,0,0,0,-1,552,1695,0,0
-665,-671,0,0,0,0,0,0,0,0,0,-1,559,1695,0,0
-658,-671,0,0,0,0,0,0,0,0,0,-1,566,1695,0,0
-651,-671,0,0,0,0,0,0,0,0,0,-1,573,1695,0,0
-644,-671,0,0,0,0,0,0,0,0,0,-1,580,1695,0,0
-637,-671,0,0,0,0,0,0,0,0,0,-1,587,1695,0,0
-630,-671,0,0,0,0,0,0,0,0,0,-1,594,1695,0,0
-623,-671,0,0,0,0,0,0,0,0,0,-1,601,1695,0,0
-616,-671,0,0,0,0,0,0,0,0,0,-1,608,1695,0,0
-609,-671,0,0,0,0,0,0,0,0,0,-1,615,1695,0,0
-602,-671,0,0,0,0,0,0,0,0,0,-1,622,1695,0,0
-595,-671,0,0,0,0,0,0,0,0,0,-1,629,1695,0,0
-588,-671,0,0,0,0,0,0,0,0,0,-1,636,1695,0,0
-581,-671,0,0,0,0,0,0,0,0,0,-1,643,1695,0,0
-574,-671,0,0,0,0,0,0,0,0,0,-1,650,1695,0,0
-567,-671,0,0,0,0,0,0,0,0,0,-1,657,1695,0,0
-560,-671,0,0,0,0,0,0,0,0,0,-1,664,1695,0,0
-553,-671,0,0,0,0,0,0,0,0,0,-1,671,1695,0,0
-546,-671,0,0,0,0,0,0,0,0,0,-1,678,1695,0,0
-539,-671,0,0,0,0,0,0,0,0,0,-1,685,1695,0,0
-532,-671,0,0,0,0,0,0,0,0,0,-1,692,1695,0,0
-525,-671,0,0,0,0,0,0,0,0,0,-1,699,1695,0,0
-518,-671,0,0,0,0,0,0,0,0,0,-1,706,1695,0,0
-511,-671,0,0,0,0,0,0,0,0,0,-1,713,1695,0,0
-504,-671,0,0,0,0,0,0,0,0,0,-1,720,1695,0,0
-497,-671,0,0,0,0,0,0,0,0,0,-1,727,1695,0,0
-490,-671,0,0,0,0,0,0,0,0,0,-1,734,1695,0,0
-483,-671,0,0,0,0,0,0,0,0,0,-1,741,1695,0,0
-476,-671,0,0,0,0,0,0,0,0,0,-1,748,1695,0,0
-469,-671,0,0,0,0,0,0,0,0,0,-1,755,1695,0,0
-462,-671,0,0,0,0,0,0,0,0,0,-1,762,1695,0,0
-455,-671,0,0,0,0,0,0,0,0,0,-1,769,1695,0,0
-448,-671,0,0,0,0,0,0,0,0,0,-1,776,1695,0,0
-441,-671,0,0,0,0,0,0,0,0,0,-1,783,1695,0,0
-434,-671,0,0,0,0,0,0,0,0,0,-1,790,1695,0,0
-427,-671,0,0,0,0,0,0,0,0,0,-1,797,1695,0,0
-420,-671,0,0,0,0,0,0,0,0,0,-1,804,1695,0,0
-413,-671,0,0,0,0,0,0,0,0,0,-1,811,1695,0,0
-406,-671,0,0,0,0,0,0,0,0,0,-1,818,1695,0,0
-399,-671,0,0,0,0,0,0,0,0,0,-1,825,1695,0,0
-392,-671,0,0,0,0,0,0,0,0,0,-1,832,1695,0,0
-385,-671,0,0,0,0,0,0,0,0,0,-1,839,1695,0,0
-378,-671,0,0,0,0,0,0,0,0,0,-1,846,1695,0,0
-371,-671,0,0,0,0,0,0,0,0,0,-1,853,1695,0,0
-364,-671,2.82361,-0.409424,0.0481764,-0.0171058,-0.0715518,0.0941808,-0.0631101,-0.571404,0.0914006,0.0478796,860,1695,2.82364,0.409413
-357,-671,3.04053,-0.651733,0.0489424,-0.0156233,-0.0564171,0.0816602,-0.0483411,-0.525528,0.0758735,0.0439954,867,1695,3.04056,0.651702
-350,-671,3.0943,-0.647095,0,0,0,0,0,0,0,-1,874,1695,3.09428,0.647071
-343,-671,3.07404,-0.758789,0.048939,-0.0159179,-0.0366282,0.0654312,-0.0324101,-0.42307,0.0575511,0.0460058,881,1695,3.07406,0.758783
-336,-671,3.13745,-0.999878,0.0467394,-0.0150359,-0.0280372,0.0575666,-0.0258631,-0.368531,0.0493138,0.0432478,888,1695,3.13747,0.999827
-329,-671,3.18872,-1.34924,0,0,0,0,0,0,0,-1,895,1695,3.1887,1.34929
-322,-671,-0.700684,-0.175415,0,0,0,0,0,0,0,-1,902,1695,-0.700656,0.175473
-315,-671,0.0368652,0.0423584,0.0370688,-0.00832505,-0.0103084,0.0393001,-0.0105563,-0.213161,0.0303373,0.0483704,909,1695,0.0368629,-0.0423605
-308,-671,1.59033,0.528076,0.0318155,-0.00740446,-0.00597301,0.032705,-0.00829395,-0.147831,0.0250303,0.0465439,916,1695,1.59033,-0.528106
-301,-671,0.827698,0.696411,0.0265772,-0.00540314,-0.00346594,0.0269485,-0.00577446,-0.106726,0.020168,0.0469834,923,1695,0.827671,-0.696417
-294,-671,0.213501,0.795898,0.0216154,-0.00257375,-0.00340886,0.0220866,-0.00304497,-0.137362,0.0158372,0.0474004,930,1695,0.213473,-0.795929
-287,-671,0.149963,0.337646,0.017364,5.60778e-05,-0.00300984,0.0178724,-0.000452396,-0.167357,0.0120686,0.0415645,937,1695,0.149934,-0.337604
-280,-671,0.0497437,-0.0539551,0.0133904,0.00245162,-0.00281389,0.0140718,0.00177022,-0.237582,0.00885032,0.0343657,944,1695,0.0497228,0.0539985
-273,-671,0.0216064,0,0.00976071,0.00356431,-0.00297683,0.0109591,0.00236596,-0.382711,0.006659,0.03062,951,1695,0.0216062,4.73127e-05
-266,-671,-0.0130005,0.0452881,0.00676094,0.00459185,-0.00292459,0.00879561,0.00255718,-0.607841,0.0052243,0.0221709,958,1695,-0.0129988,-0.0452295
-259,-671,-0.036438,0.00939941,0.00409039,0.0054993,-0.00289674,0.00777601,0.00181368,-0.904677,0.00469764,0.0192991,965,1695,-0.0364263,-0.00941072
-252,-671,-0.0184937,0.0090332,0.00236567,0.00560728,-0.00327449,0.00764014,0.000332812,-1.01521,0.00498619,0.0155319,972,1695,-0.0185159,-0.00897415
-245,-671,-0.0217285,0.0372314,0.0018122,0.00631205,-0.00241541,0.00736309,0.000761162,-1.16037,0.0046757,0.0174154,979,1695,-0.0217304,-0.037262
-238,-671,-0.0411987,0.0559082,0.00128071,0.00650695,-0.00183206,0.0070852,0.000702464,-1.26506,0.0045076,0.0181449,986,1695,-0.0411819,-0.0559042
-231,-671,-0.0424805,0.0335693,0.000917964,0.00639056,-0.00160083,0.00682443,0.000484093,-1.30613,0.00439715,0.0143683,993,1695,-0.0425076,-0.0335518
-224,-671,-0.0441895,0.015625,0.000488227,0.00602488,-0.00151712,0.00641333,9.97717e-05,-1.32013,0.00424269,0.0116846,1000,1695,-0.044181,-0.0156097
-217,-671,-0.0220337,-0.00317383,0.000145178,0.00546408,-0.00137673,0.0057993,-0.000190045,-1.33195,0.00393108,0.0113714,1007,1695,-0.0220036,0.00316092
-210,-671,0.00640869,0.0389404,4.88731e-05,0.00451369,-0.0011708,0.00480208,-0.000239518,-1.32929,0.00328414,0.0107036,1014,1695,0.00639431,-0.038925
-203,-671,-0.0327759,0.0275879,-6.77644e-05,0.00394987,-0.00117855,0.00427007,-0.000387966,-1.30551,0.00298445,0.0171898,1021,1695,-0.0328006,-0.0275941
-196,-671,-0.0231934,0.0167236,-0.000191303,0.00313944,-0.00114867,0.00349716,-0.000549023,-1.26889,0.00253435,0.0147037,1028,1695,-0.0232223,-0.016667
-189,-671,0.012085,0.0400391,-0.000162982,0.00230823,-0.00102045,0.00267513,-0.000529887,-1.22564,0.00198378,0.0113409,1035,1695,0.0120487,-0.0400747
-182,-671,0.00317383,0.0361328,-8.56773e-05,0.00172937,-0.00091204,0.00210848,-0.000464783,-1.17686,0.00158348,0.0092991,1042,1695,0.0031693,-0.0360875
-175,-671,-0.0218506,0.0279541,1.60973e-05,0.00116871,-0.000793854,0.00157339,-0.000388582,-1.09937,0.00119962,0.0122021,1049,1695,-0.0218059,-0.0279463
-168,-671,-0.0341797,0.0238037,0.000429025,0.00060982,-0.00073909,0.00126402,-0.000225175,-0.846251,0.000926901,0.0129473,1056,1695,-0.034212,-0.0238301
-161,-671,-0.029541,0.0380859,0.00083146,0.000404116,-0.00109239,0.00173087,-0.000495298,-0.688817,0.00134966,0.0089067,1063,1695,-0.0295139,-0.0380824
-154,-671,-0.0301514,0.019165,0.000819097,-0.000287899,-0.000750366,0.00119802,-0.000666822,-0.467627,0.00109113,0.00806522,1070,1695,-0.030096,-0.019226
-147,-671,-0.0402832,0.0255127,0.000902399,-0.0011276,-0.000407219,0.000981041,-0.00120624,-0.190771,0.00126506,0.00870603,1077,1695,-0.0402857,-0.0255502
-140,-671,-0.0203857,0.0267334,0.000817518,-0.00187937,-0.000157639,0.000826701,-0.00188856,-0.058188,0.00160712,0.00967932,1084,1695,-0.0203451,-0.0267741
-133,-671,-0.0153809,0.0366211,0.000347194,-0.00253589,0.000352036,0.000389557,-0.00257826,0.11976,0.00186232,0.0109375,1091,1695,-0.0154081,-0.0366637
-126,-671,-0.0175781,0.0220947,-0.000171093,-0.00304483,0.000949637,0.000114363,-0.00333029,0.292002,0.00225928,0.0124208,1098,1695,-0.0175717,-0.0220845
-119,-671,0.00427246,0.0133057,-0.00098246,-0.00368995,0.0016215,-0.000223884,-0.00444853,0.437576,0.00289394,0.0234125,1105,1695,0.00425738,-0.013319
-112,-671,-0.0587158,0.0714111,-0.001854,-0.00409772,0.00227223,-0.000441769,-0.00550995,0.55609,0.00353526,0.0290338,1112,1695,-0.0586624,-0.0714588
-105,-671,0.0350342,0.0413818,-0.00250304,-0.00414496,0.00306302,-0.000152872,-0.00649513,0.654464,0.00428004,0.0328881,1119,1695,0.0350038,-0.0413716
-98,-671,0.0438232,-0.0078125,-0.00304788,-0.00407776,0.00368937,0.00016231,-0.00728795,0.716059,0.00491363,0.0301132,1126,1695,0.043871,0.00778794
-91,-671,0.0234375,-0.0179443,-0.00343,-0.00401399,0.00417377,0.000461975,-0.00790597,0.750475,0.00543119,0.0312264,1133,1695,0.023379,0.0179659
-84,-671,0.0509033,-0.0251465,-0.00351338,-0.00353731,0.00434218,0.000816856,-0.00786754,0.78402,0.00553743,0.0399415,1140,1695,0.0509272,0.0251416
-77,-671,0.0784912,-0.0169678,-0.00336097,-0.00296705,0.00417698,0.00101761,-0.00734563,0.808958,0.00526915,0.041217,1147,1695,0.0785051,0.016933
-70,-671,0.0393066,0.0246582,-0.00299025,-0.00190729,0.00367343,0.00126435,-0.0061619,0.858573,0.00458783,0.0400565,1154,1695,0.0392997,-0.0246191
-63,-671,0.0515137,0.0908203,-0.00324665,-0.00157309,0.00335771,0.00105054,-0.00587028,0.907516,0.00430662,0.040655,1161,1695,0.0515735,-0.0907824
-56,-671,-0.3125,0.958252,-0.00262241,-0.000493262,0.00347834,0.00207977,-0.00519544,0.933901,0.00432683,0.0388253,1168,1695,-0.312543,-0.95821
-49,-671,-0.311035,0.830933,3.76923e-05,0.00133941,0.00287801,0.00363924,-0.00226214,0.896602,0.00343795,0.0465611,1175,1695,-0.311063,-0.830923
-42,-671,-0.10083,0.469849,0.00244799,0.0026692,0.00244716,0.00500826,0.000108931,0.807981,0.00330313,0.0489111,1182,1695,-0.100857,-0.469846
-35,-671,0.0516357,0.760864,0,0,0,0,0,0,0,-1,1189,1695,0.0516377,-0.760899
-28,-671,0.0650635,-0.344116,0,0,0,0,0,0,0,-1,1196,1695,0.0650396,0.344158
-21,-671,-0.1073,-0.369751,0.0139936,0.00578335,0.000585786,0.0140352,0.00574177,0.0708693,0.00814776,0.0448544,1203,1695,-0.107357,0.369772
-14,-671,-0.183838,-0.43042,0.0183382,0.00719481,0.000202724,0.0183419,0.00719112,0.0181843,0.0106716,0.0405088,1210,1695,-0.183873,0.43045
-7,-671,0.307983,-0.0894775,0.0215976,0.00885773,-0.000633335,0.021629,0.00882633,-0.0495501,0.0125576,0.0447868,1217,1695,0.307925,0.089451
0,-671,0.0098877,0.45813,0,0,0,0,0,0,0,-1,1224,1695,0.00991713,-0.458157
7,-671,-0.546875,0.850464,0.029265,0.00948873,-0.00563635,0.0307586,0.00799514,-0.259038,0.0184282,0.0434661,1231,1695,-0.546904,-0.850495
14,-671,-0.649902,0.888184,0.0317257,0.00844432,-0.00802762,0.0342253,0.0059447,-0.301862,0.0211161,0.0441527,1238,1695,-0.649904,-0.88817
21,-671,0.262451,0.0823975,0.034642,0.00660475,-0.0109383,0.0384045,0.00284228,-0.331296,0.0247101,0.0477909,1245,1695,0.262453,-0.0823732
28,-671,0.827759,-0.643555,0.0367858,0.00323812,-0.0133794,0.0414682,-0.00144424,-0.336647,0.0281392,0.0485668,1252,1695,0.827717,0.643595
35,-671,1.60303,-1.09619,0.0384521,-0.000849225,-0.0152261,0.0436607,-0.00605782,-0.329605,0.0313223,0.0459684,1259,1695,1.60298,1.09621
42,-671,2.07996,-1.64636,0,0,0,0,0,0,0,-1,1266,1695,2.08001,1.64639
49,-671,-2.30981,0.910889,0.0382357,-0.00447152,-0.0177899,0.0446752,-0.0109111,-0.347304,0.034009,0.043869,1273,1695,-2.3098,-0.910829
56,-671,-0.106934,-1.04224,0.0377198,-0.00776837,-0.01767,0.0437771,-0.0138257,-0.33025,0.0347233,0.0420043,1280,1695,-0.106933,1.04227
63,-671,0.0268555,-1.65417,0.04082,-0.010815,-0.0172783,0.0460682,-0.0160633,-0.294893,0.0372399,0.0462565,1287,1695,0.0268073,1.65415
70,-671,0.501221,-2.11914,0.0437077,-0.0144906,-0.0157969,0.047719,-0.0185019,-0.248674,0.0394536,0.0456692,1294,1695,0.501192,2.11918
77,-671,0.474609,-0.0880127,0,0,0,0,0,0,0,-1,1301,1695,0.47462,0.087956
84,-671,0.406982,-0.0241699,0,0,0,0,0,0,0,-1,1308,1695,0.406979,0.0242042
91,-671,0.369629,0.123291,0,0,0,0,0,0,0,-1,1315,1695,0.369658,-0.12327
98,-671,-3.19739,-0.55835,0,0,0,0,0,0,0,-1,1322,1695,-3.19739,0.558363
105,-671,-1.99487,-0.934692,0.0617831,-0.0341397,0.00274663,0.0618617,-0.0342182,0.0286025,0.0562319,0.0452272,1329,1695,-1.99493,0.93466
112,-671,-0.603394,-0.808838,0.0627255,-0.0354174,0.00602646,0.0630942,-0.0357861,0.061099,0.0578097,0.0434625,1336,1695,-0.603388,0.808803
119,-671,-0.0678711,-0.8125,0.0626293,-0.0360907,0.00899696,0.0634425,-0.036904,0.0901465,0.0586066,0.0467924,1343,1695,-0.067867,0.81252
126,-671,0.171997,-1.74622,0,0,0,0,0,0,0,-1,1350,1695,0.172013,1.74622
133,-671,0.510742,-1.28564,0.0543263,-0.0331118,0.0124625,0.0560679,-0.0348534,0.138846,0.0529676,0.0480284,1357,1695,0.510737,1.28566
140,-671,0.828125,-0.740479,0.0487563,-0.0287145,0.0126029,0.050755,-0.0307131,0.157278,0.0475077,0.045015,1364,1695,0.828172,0.740506
147,-671,1.01172,-0.158691,0,0,0,0,0,0,0,-1,1371,1695,1.01174,0.158725
154,-671,1.16467,0.317749,0,0,0,0,0,0,0,-1,1378,1695,1.16467,-0.317747
161,-671,-0.334839,0.451294,0.0275292,-0.0140595,0.00954555,0.0296154,-0.0161457,0.215176,0.026799,0.0456513,1385,1695,-0.334824,-0.451343
168,-671,-0.325073,0.194824,0.0190759,-0.00727323,0.00778438,0.0212038,-0.00940114,0.266838,0.0181025,0.0436131,1392,1695,-0.325064,-0.194873
175,-671,0.454834,0.0734863,0.0131097,-0.00128159,0.00504124,0.0146999,-0.00287181,0.305563,0.0108842,0.0445638,1399,1695,0.454809,-0.0734953
182,-671,0.371948,0.0969238,0,0,0,0,0,0,0,-1,1406,1695,0.371894,-0.0969369
189,-671,-0.00744629,-0.0629883,0,0,0,0,0,0,0,-1,1413,1695,-0.00749182,0.0629667
196,-671,-0.0240479,-0.0012207,0.00283994,0.00727921,-0.0021138,0.00812469,0.00199446,-1.19031,0.00488918,0.0454417,1420,1695,-0.0239872,0.00120554
203,-671,-0.102417,0.120728,0.00221892,0.00684236,-0.00250237,0.00793738,0.0011239,-1.15831,0.00495959,0.0417571,1427,1695,-0.102386,-0.120738
210,-671,-0.286621,0.344116,0.00237289,0.00544392,-0.00231809,0.00668893,0.00112787,-1.07792,0.00413493,0.0422122,1434,1695,-0.286568,-0.34408
217,-671,-0.0616455,-0.0715332,0.00259784,0.00444776,-0.00179202,0.00553945,0.00150615,-1.02364,0.00330728,0.0432803,1441,1695,-0.061668,0.0715051
224,-671,0.0323486,-0.288574,0.00242666,0.0042173,-0.00112507,0.00475982,0.00188414,-1.12148,0.00276789,0.0377956,1448,1695,0.0323254,0.288623
231,-671,-0.13208,-0.0137939,0.00218629,0.00466901,-0.000338258,0.00471427,0.00214103,-1.43778,0.00272559,0.0350764,1455,1695,-0.13211,0.0138304
238,-671,-0.0755615,0.0644531,0.00213625,0.00539121,0.000229378,0.0054073,0.00212017,1.50079,0.00314604,0.0293784,1462,1695,-0.0755942,-0.0643961
245,-671,-0.050293,0.0516357,0.00197752,0.00557222,0.000658865,0.00568918,0.00186056,1.39511,0.00334952,0.0247008,1469,1695,-0.0502646,-0.0516191
252,-671,-0.0352783,0.0595703,0.00183125,0.00598487,0.000794387,0.00613161,0.0016845,1.38813,0.0036579,0.0232601,1476,1695,-0.0352815,-0.0595365
259,-671,-0.0216064,0.0496826,0.00160621,0.00590496,0.000993195,0.00612334,0.00138784,1.35437,0.00370724,0.0183576,1483,1695,-0.0215562,-0.049734
266,-671,-0.00219727,0.0256348,0.00117962,0.00567656,0.00117306,0.00596416,0.000892009,1.33036,0.00371465,0.0104844,1490,1695,-0.00224034,-0.0256396
273,-671,-0.00427246,0.0273438,0.000651827,0.00551714,0.00145706,0.00592012,0.000248843,1.30097,0.00386647,0.00755221,1497,1695,-0.00431473,-0.0273616
280,-671,-0.0147705,0.0327148,0.000255834,0.00506799,0.00156249,0.00553081,-0.000206986,1.28282,0.0037581,0.00844002,1504,1695,-0.0147512,-0.0327251
287,-671,-0.00866699,0.0238037,8.05145e-05,0.00436605,0.00141043,0.00478859,-0.000342019,1.27973,0.00331229,0.00970923,1511,1695,-0.00862137,-0.0237702
294,-671,-0.0211182,0.0155029,-0.000141162,0.00350151,0.0011199,0.00381826,-0.000457917,1.29515,0.00271107,0.00951335,1518,1695,-0.021139,-0.0155609
301,-671,-0.019043,0.0314941,-0.000196971,0.00289881,0.000882124,0.00313252,-0.000430683,1.3118,0.00224572,0.00916451,1525,1695,-0.0190396,-0.0314985
308,-671,-0.00585938,0.0498047,-0.000170206,0.0024221,0.000786079,0.00264184,-0.000389946,1.29821,0.00190456,0.0101979,1532,1695,-0.00582583,-0.0497484
315,-671,0.0155029,0.055542,-0.000289362,0.00205622,0.000845129,0.00232901,-0.000562144,1.25858,0.00177006,0.0121269,1539,1695,0.0155627,-0.0555532
322,-671,-0.00476074,0.0512695,-0.000432398,0.00205194,0.000736185,0.00225371,-0.000634165,1.30329,0.00175253,0.0140963,1546,1695,-0.00472775,-0.0512781
329,-671,-0.0595703,0.0266113,-0.000476717,0.00180764,0.000462488,0.00189772,-0.000566799,1.37843,0.00149045,0.0125436,1553,1695,-0.0595457,-0.02663
336,-671,-0.0299072,0.00146484,-0.000483992,0.0014578,9.19531e-05,0.00146214,-0.000488336,1.52358,0.00117196,0.00957905,1560,1695,-0.0298706,-0.00146797
343,-671,-0.0148926,-0.0112305,-0.000361352,0.0012012,-7.70061e-05,0.00120499,-0.000365138,-1.52167,0.000948755,0.00971067,1567,1695,-0.0149374,0.0112041
350,-671,-0.0251465,0.015625,-0.000402778,0.00143149,-0.000362056,0.00150037,-0.000471656,-1.3828,0.00118907,0.00914866,1574,1695,-0.0251048,-0.0156689
357,-671,-0.0166016,0.0192871,-0.000524426,0.00181262,-0.000531058,0.00192763,-0.000639441,-1.35751,0.00154305,0.00848303,1581,1695,-0.0165655,-0.0193297
364,-671,-0.0137939,0.0239258,-0.000176855,0.00196746,-0.000517214,0.00208569,-0.000295089,-1.34606,0.00149854,0.0108564,1588,1695,-0.0137441,-0.0239216
371,-671,-0.0283203,0.0462646,0.000838907,0.0022946,-0.000579847,0.00249733,0.000636172,-1.23445,0.00149854,0.0136572,1595,1695,-0.0283103,-0.0462617
378,-671,-0.0136719,0.0408936,0.00156537,0.00230101,-0.00099613,0.00299506,0.000871321,-0.962259,0.00177888,0.0119985,1602,1695,-0.0136394,-0.0409426
385,-671,-0.0388184,0.0562744,0.00213018,0.00254232,-0.0019568,0.00430386,0.000368629,-0.83786,0.0027546,0.0124707,1609,1695,-0.0388647,-0.0563044
392,-671,-0.0554199,0.079834,0.00331513,0.00314087,-0.00241091,0.00564048,0.000815524,-0.767336,0.00352011,0.016405,1616,1695,-0.0554209,-0.0798407
399,-671,-0.0511475,0.0490723,0.00433442,0.00310707,-0.00293427,0.00671849,0.000722991,-0.682314,0.00425851,0.0127991,1623,1695,-0.0510903,-0.0491229
406,-671,-0.0202637,0.0223389,0.00517476,0.00300367,-0.00310229,0.00737594,0.000802482,-0.617098,0.00467283,0.0166337,1630,1695,-0.0202598,-0.02231
413,-671,0.05896,0.0529785,0.00612732,0.00315472,-0.00333106,0.00828863,0.000993419,-0.575556,0.00522618,0.0245872,1637,1695,0.0589904,-0.0529857
420,-671,0.0682373,0.0491943,0.00698806,0.00389089,-0.00338103,0.00915828,0.00172067,-0.570646,0.00562045,0.0392546,1644,1695,0.0682161,-0.0492442
427,-671,0.0371094,0.0666504,0.00698702,0.00550903,-0.00276964,0.00911456,0.00338149,-0.655025,0.00532036,0.0493549,1651,1695,0.037094,-0.0665947
434,-671,-0.291138,-0.334961,0.00689636,0.00808706,-0.00284658,0.0103999,0.00458354,-0.888486,0.00601842,0.0460886,1658,1695,-0.291112,0.334965
441,-671,-0.326172,-0.436401,0.00543471,0.0112889,-0.0024457,0.0121762,0.00454745,-1.22278,0.00710454,0.043336,1665,1695,-0.326224,0.436421
448,-671,-0.389038,-0.499634,0.00277152,0.0158034,-0.00195106,0.0160892,0.00248568,-1.42533,0.0100011,0.0428463,1672,1695,-0.389086,0.499629
455,-671,-0.421997,-0.508423,0.000491046,0.0203413,-0.00049502,0.0203536,0.000478708,-1.54588,0.0134124,0.0434802,1679,1695,-0.422017,0.50846
462,-671,-0.483765,-0.495361,-0.00238464,0.0262241,0.000245787,0.0262263,-0.00238675,1.56221,0.0183316,0.0432805,1686,1695,-0.48373,0.495408
469,-671,-0.292969,-0.448608,-0.00700341,0.0341543,0.000303398,0.0341566,-0.00700564,1.56343,0.02543,0.0467137,1693,1695,-0.293004,0.448558
476,-671,-0.194702,-0.323486,-0.0135689,0.0429638,0.000513809,0.0429685,-0.0135736,1.56171,0.0340833,0.0466592,1700,1695,-0.194758,0.323475
483,-671,0.443237,-0.811035,-0.0188101,0.053518,0.000862349,0.0535283,-0.0188204,1.55888,0.0433431,0.0460401,1707,1695,0.443282,0.811037
490,-671,0,0,0,0,0,0,0,0,0,-1,1714,1695,0,0
497,-671,0,0,0,0,0,0,0,0,0,-1,1721,1695,0,0
504,-671,0,0,0,0,0,0,0,0,0,-1,1728,1695,0,0
511,-671,0,0,0,0,0,0,0,0,0,-1,1735,1695,0,0
518,-671,0,0,0,0,0,0,0,0,0,-1,1742,1695,0,0
525,-671,0,0,0,0,0,0,0,0,0,-1,1749,1695,0,0
532,-671,0,0,0,0,0,0,0,0,0,-1,1756,1695,0,0
539,-671,0,0,0,0,0,0,0,0,0,-1,1763,1695,0,0
546,-671,0,0,0,0,0,0,0,0,0,-1,1770,1695,0,0
553,-671,0,0,0,0,0,0,0,0,0,-1,1777,1695,0,0
560,-671,0,0,0,0,0,0,0,0,0,-1,1784,1695,0,0
567,-671,0,0,0,0,0,0,0,0,0,-1,1791,1695,0,0
574,-671,0,0,0,0,0,0,0,0,0,-1,1798,1695,0,0
581,-671,0,0,0,0,0,0,0,0,0,-1,1805,1695,0,0
588,-671,0,0,0,0,0,0,0,0,0,-1,1812,1695,0,0
595,-671,0,0,0,0,0,0,0,0,0,-1,1819,1695,0,0
602,-671,0,0,0,0,0,0,0,0,0,-1,1826,1695,0,0
609,-671,0,0,0,0,0,0,0,0,0,-1,1833,1695,0,0
616,-671,0,0,0,0,0,0,0,0,0,-1,1840,1695,0,0
623,-671,0,0,0,0,0,0,0,0,0,-1,1847,1695,0,0
630,-671,0,0,0,0,0,0,0,0,0,-1,1854,1695,0,0
637,-671,0,0,0,0,0,0,0,0,0,-1,1861,1695,0,0
644,-671,0,0,0,0,0,0,0,0,0,-1,1868,1695,0,0
651,-671,0,0,0,0,0,0,0,0,0,-1,1875,1695,0,0
658,-671,0,0,0,0,0,0,0,0,0,-1,1882,1695,0,0
665,-671,0,0,0,0,0,0,0,0,0,-1,1889,1695,0,0
672,-671,0,0,0,0,0,0,0,0,0,-1,1896,1695,0,0
679,-671,0,0,0,0,0,0,0,0,0,-1,1903,1695,0,0
686,-671,0,0,0,0,0,0,0,0,0,-1,1910,1695,0,0
693,-671,0,0,0,0,0,0,0,0,0,-1,1917,1695,0,0
700,-671,0,0,0,0,0,0,0,0,0,-1,1924,1695,0,0
707,-671,0,0,0,0,0,0,0,0,0,-1,1931,1695,0,0
714,-671,0,0,0,0,0,0,0,0,0,-1,1938,1695,0,0
721,-671,0,0,0,0,0,0,0,0,0,-1,1945,1695,0,0
728,-671,0,0,0,0,0,0,0,0,0,-1,1952,1695,0,0
735,-671,0,0,0,0,0,0,0,0,0,-1,1959,1695,0,0
742,-671,0,0,0,0,0,0,0,0,0,-1,1966,1695,0,0
749,-671,0,0,0,0,0,0,0,0,0,-1,1973,1695,0,0
756,-671,0,0,0,0,0,0,0,0,0,-1,1980,1695,0,0
763,-671,0,0,0,0,0,0,0,0,0,-1,1987,1695,0,0
770,-671,0,0,0,0,0,0,0,0,0,-1,1994,1695,0,0
777,-671,0,0,0,0,0,0,0,0,0,-1,2001,1695,0,0
784,-671,0,0,0,0,0,0,0,0,0,-1,2008,1695,0,0
791,-671,0,0,0,0,0,0,0,0,0,-1,2015,1695,0,0
798,-671,0,0,0,0,0,0,0,0,0,-1,2022,1695,0,0
805,-671,0,0,0,0,0,0,0,0,0,-1,2029,1695,0,0
812,-671,0,0,0,0,0,0,0,0,0,-1,2036,1695,0,0
-700,-678,0,0,0,0,0,0,0,0,0,-1,524,1702,0,0
-693,-678,0,0,0,0,0,0,0,0,0,-1,531,1702,0,0
-686,-678,0,0,0,0,0,0,0,0,0,-1,538,1702,0,0
-679,-678,0,0,0,0,0,0,0,0,0,-1,545,1702,0,0
-672,-678,0,0,0,0,0,0,0,0,0,-1,552,1702,0,0
-665,-678,0,0,0,0,0,0,0,0,0,-1,559,1702,0,0
-658,-678,0,0,0,0,0,0,0,0,0,-1,566,1702,0,0
-651,-678,0,0,0,0,0,0,0,0,0,-1,573,1702,0,0
-644,-678,0,0,0,0,0,0,0,0,0,-1,580,1702,0,0
-637,-678,0,0,0,0,0,0,0,0,0,-1,587,1702,0,0
-630,-678,0,0,0,0,0,0,0,0,0,-1,594,1702,0,0
-623,-678,0,0,0,0,0,0,0,0,0,-1,601,1702,0,0
-616,-678,0,0,0,0,0,0,0,0,0,-1,608,1702,0,0
-609,-678,0,0,0,0,0,0,0,0,0,-1,615,1702,0,0
-602,-678,0,0,0,0,0,0,0,0,0,-1,622,1702,0,0
-595,-678,0,0,0,0,0,0,0,0,0,-1,629,1702,0,0
-588,-678,0,0,0,0,0,0,0,0,0,-1,636,1702,0,0
-581,-678,0,0,0,0,0,0,0,0,0,-1,643,1702,0,0
-574,-678,0,0,0,0,0,0,0,0,0,-1,650,1702,0,0
-567,-678,0,0,0,0,0,0,0,0,0,-1,657,1702,0,0
-560,-678,0,0,0,0,0,0,0,0,0,-1,664,1702,0,0
-553,-678,0,0,0,0,0,0,0,0,0,-1,671,1702,0,0
-546,-678,0,0,0,0,0,0,0,0,0,-1,678,1702,0,0
-539,-678,0,0,0,0,0,0,0,0,0,-1,685,1702,0,0
-532,-678,0,0,0,0,0,0,0,0,0,-1,692,1702,0,0
-525,-678,0,0,0,0,0,0,0,0,0,-1,699,1702,0,0
-518,-678,0,0,0,0,0,0,0,0,0,-1,706,1702,0,0
-511,-678,0,0,0,0,0,0,0,0,0,-1,713,1702,0,0
-504,-678,0,0,0,0,0,0,0,0,0,-1,720,1702,0,0
-497,-678,0,0,0,0,0,0,0,0,0,-1,727,1702,0,0
-490,-678,0,0,0,0,0,0,0,0,0,-1,734,1702,0,0
-483,-678,0,0,0,0,0,0,0,0,0,-1,741,1702,0,0
-476,-678,0,0,0,0,0,0,0,0,0,-1,748,1702,0,0
-469,-678,0,0,0,0,0,0,0,0,0,-1,755,1702,0,0
-462,-678,0,0,0,0,0,0,0,0,0,-1,762,1702,0,0
-455,-678,0,0,0,0,0,0,0,0,0,-1,769,1702,0,0
-448,-678,0,0,0,0,0,0,0,0,0,-1,776,1702,0,0
-441,-678,0,0,0,0,0,0,0,0,0,-1,783,1702,0,0
-434,-678,0,0,0,0,0,0,0,0,0,-1,790,1702,0,0
-427,-678,0,0,0,0,0,0,0,0,0,-1,797,1702,0,0
-420,-678,0,0,0,0,0,0,0,0,0,-1,804,1702,0,0
-413,-678,0,0,0,0,0,0,0,0,0,-1,811,1702,0,0
-406,-678,0,0,0,0,0,0,0,0,0,-1,818,1702,0,0
-399,-678,0,0,0,0,0,0,0,0,0,-1,825,1702,0,0
-392,-678,0,0,0,0,0,0,0,0,0,-1,832,1702,0,0
-385,-678,0,0,0,0,0,0,0,0,0,-1,839,1702,0,0
-378,-678,0,0,0,0,0,0,0,0,0,-1,846,1702,0,0
-371,-678,0,0,0,0,0,0,0,0,0,-1,853,1702,0,0
-364,-678,0,0,0,0,0,0,0,0,0,-1,860,1702,0,0
-357,-678,0,0,0,0,0,0,0,0,0,-1,867,1702,0,0
-350,-678,3.58374,-0.25708,0,0,0,0,0,0,0,-1,874,1702,3.58371,0.257021
-343,-678,3.50018,-0.354248,0.054559,-0.01588,-0.0390519,0.0719272,-0.0332482,-0.418476,0.0620767,0.047071,881,1702,3.5002,0.354274
-336,-678,3.7594,-0.447754,0.0531921,-0.0147245,-0.0297041,0.0643504,-0.0258828,-0.359337,0.0536509,0.0433723,888,1702,3.75942,0.447796
-329,-678,-0.762756,-0.856445,0,0,0,0,0,0,0,-1,895,1702,-0.762779,0.856469
-322,-678,-0.162842,-0.0958252,0.0491691,-0.0100233,-0.0150939,0.0527958,-0.01365,-0.235805,0.0405209,0.0439625,902,1702,-0.16286,0.095791
-315,-678,0.49762,0.434814,0.0441763,-0.00719483,-0.0107958,0.0463528,-0.00937138,-0.198944,0.0344532,0.0449605,909,1702,0.497598,-0.434831
-308,-678,1.32361,0.969604,0.038718,-0.00604827,-0.00642924,0.0396231,-0.00695333,-0.139853,0.0290123,0.0449843,916,1702,1.32359,-0.969552
-301,-678,0.983459,0.88916,0,0,0,0,0,0,0,-1,923,1702,0.983439,-0.889175
-294,-678,0.323853,1.07397,0.0273141,-0.000554382,-0.00408203,0.0278998,-0.00113999,-0.142488,0.0189912,0.0486044,930,1702,0.323857,-1.07393
-287,-678,0.170288,-0.0743408,0.0223251,0.00226617,-0.00385634,0.0230409,0.00155033,-0.183537,0.0148708,0.0466203,937,1702,0.170295,0.0743819
-280,-678,0.0957642,-0.10144,0.0175387,0.00479297,-0.00386876,0.0186211,0.00371059,-0.272801,0.0113806,0.0455664,944,1702,0.0957689,0.101413
-273,-678,-0.140442,-0.0531006,0.0130161,0.00597929,-0.00417518,0.0149577,0.00403772,-0.435279,0.00893534,0.0415459,951,1702,-0.140414,0.0531061
-266,-678,-0.0821533,0.0332031,0.00931818,0.00709771,-0.00416829,0.0125216,0.00389433,-0.655243,0.00739947,0.0336153,958,1702,-0.082164,-0.0332452
-259,-678,-0.0683594,0.0372314,0.00608464,0.00808962,-0.0042224,0.0114269,0.00274736,-0.901951,0.00688729,0.0193266,965,1702,-0.0683742,-0.0372557
-252,-678,-0.0322266,0.026123,0.00386116,0.00814875,-0.00480027,0.0112622,0.000747726,-0.995409,0.00727171,0.0156245,972,1702,-0.0322347,-0.0261121
-245,-678,-0.00372314,0.0186768,0.00283109,0.008921,-0.00380666,0.0107507,0.00100138,-1.12274,0.00685776,0.0165339,979,1702,-0.00374095,-0.0186639
-238,-678,-0.0267944,0.0330811,0.00190141,0.00901873,-0.00314956,0.0102123,0.000707833,-1.20855,0.00658495,0.0143988,986,1702,-0.02682,-0.0331312
-231,-678,-0.0532837,0.0725098,0.00132741,0.0088756,-0.00287062,0.00984326,0.000359746,-1.24567,0.00644561,0.012228,993,1702,-0.0532535,-0.0725463
-224,-678,-0.0540771,0.0543213,0.000731666,0.00841825,-0.00269829,0.00927088,-0.000120963,-1.26474,0.0062213,0.0116913,1000,1702,-0.0540476,-0.054373
-217,-678,-0.0236206,0.027832,0.000281091,0.00773201,-0.00246473,0.00847353,-0.000460435,-1.27856,0.00580859,0.012586,1007,1702,-0.0236457,-0.0278443
-210,-678,-0.0106201,0.0709229,0.000193755,0.00641535,-0.00209027,0.00705239,-0.000443285,-1.27497,0.0048561,0.012773,1014,1702,-0.0106438,-0.0708903
-203,-678,-0.0160522,0.0438232,8.77903e-05,0.00564458,-0.00193015,0.00624922,-0.000516857,-1.26722,0.00434869,0.0167513,1021,1702,-0.016035,-0.0438017
-196,-678,-0.0161133,0.0246582,-8.23201e-05,0.00461489,-0.00175737,0.00519959,-0.000667022,-1.2496,0.00370878,0.0169072,1028,1702,-0.0160754,-0.0246052
-189,-678,-0.0142822,0.0283203,-7.89556e-05,0.00349981,-0.00149311,0.00404093,-0.000620078,-1.22311,0.00292266,0.00987257,1035,1702,-0.0143304,-0.0283233
-182,-678,-0.0167236,0.0401611,-4.7255e-05,0.00268939,-0.00122896,0.00316026,-0.00051813,-1.2049,0.0022991,0.00945573,1042,1702,-0.0167184,-0.0401474
-175,-678,-0.0174561,0.0275879,1.23766e-05,0.00192849,-0.000939234,0.00231208,-0.00037122,-1.18306,0.00167887,0.0104204,1049,1702,-0.0173957,-0.0275483
-168,-678,-0.0194092,0.0380859,0.000311696,0.00116066,-0.000727565,0.00157851,-0.000106163,-1.04947,0.00108946,0.00999919,1056,1702,-0.0194289,-0.0380763
-161,-678,-0.0192871,0.0527344,0.000520438,0.000731402,-0.000823122,0.00145577,-0.000203933,-0.849125,0.00104515,0.00847412,1063,1702,-0.0192623,-0.0527758
-154,-678,-0.0336914,0.0429688,0.000472037,-3.30249e-05,-0.000317657,0.000625311,-0.000186299,-0.449562,0.000490902,0.00773912,1070,1702,-0.0337293,-0.0429133
-147,-678,-0.0379639,0.0162354,0.000630986,-0.000957649,0.000186028,0.000652478,-0.000979142,0.115026,0.000948289,0.00932883,1077,1702,-0.0380125,-0.0161831
-140,-678,-0.0205078,0.0141602,0.000656239,-0.00173559,0.000535146,0.000770513,-0.00184986,0.210378,0.00155507,0.0105363,1084,1702,-0.0204868,-0.0141158
-133,-678,-0.0124512,0.0316162,0.000332106,-0.00253157,0.00107426,0.000690297,-0.00288976,0.321836,0.00219312,0.0109502,1091,1702,-0.0124711,-0.0316194
-126,-678,-0.0201416,0.0372314,-5.578e-05,-0.00315079,0.00158379,0.000611023,-0.00381759,0.398493,0.00277128,0.00804645,1098,1702,-0.020187,-0.0372079
-119,-678,0.00415039,0.0238037,-0.000697657,-0.0038975,0.00218453,0.000410171,-0.00500533,0.469331,0.00348167,0.0145101,1105,1702,0.0040921,-0.0237566
-112,-678,0.0238037,0.0174561,-0.00144865,-0.0044221,0.00278243,0.000219354,-0.0060901,0.540034,0.00413512,0.0192532,1112,1702,0.0238074,-0.0174353
-105,-678,-0.00183105,0.0258789,-0.00203331,-0.00454053,0.00338891,0.000326426,-0.00690027,0.608246,0.00471276,0.0190758,1119,1702,-0.00178303,-0.0258654
-98,-678,-0.0266113,0.0178223,-0.00252653,-0.00451262,0.00375931,0.000368679,-0.00740784,0.65627,0.00506592,0.0132992,1126,1702,-0.0265992,-0.0178185
-91,-678,-0.0134277,0.0115967,-0.00289549,-0.00435019,0.00399561,0.000438436,-0.00768411,0.695366,0.00527496,0.0141012,1133,1702,-0.0134495,-0.0116471
-84,-678,-0.00537109,0.0316162,-0.00302285,-0.00371565,0.0039648,0.000610656,-0.00734916,0.741824,0.00511515,0.0209185,1140,1702,-0.00542702,-0.0315946
-77,-678,0.0235596,0.0554199,-0.00294063,-0.00298425,0.00362575,0.000663381,-0.00658826,0.78239,0.00462917,0.0258054,1147,1702,0.0235839,-0.0554187
-70,-678,0.0523682,0.0550537,-0.00268574,-0.00184292,0.00303939,0.00080413,-0.00533279,0.854283,0.00385132,0.0278369,1154,1702,0.0523963,-0.0550484
-63,-678,0.173462,0.100342,-0.00292024,-0.00116939,0.00270322,0.000796618,-0.00488625,0.941992,0.00355294,0.0328394,1161,1702,0.173511,-0.100338
-56,-678,-0.102783,0.399048,-0.00248216,0.000600803,0.00261729,0.00209682,-0.00397818,1.05153,0.00356302,0.0345774,1168,1702,-0.102746,-0.398988
-49,-678,-0.179443,0.50061,-0.000394904,0.00264036,0.00206947,0.00368903,-0.00144358,1.10178,0.00305638,0.0403836,1175,1702,-0.179428,-0.500584
-42,-678,-0.0460205,0.424927,0.00146622,0.00435207,0.00167634,0.00512097,0.000697318,1.14075,0.00320691,0.0460115,1182,1702,-0.0460574,-0.424897
-35,-678,-0.0155029,0.52124,0.00412396,0.00603634,0.00120018,0.00661466,0.00354564,1.12176,0.00382228,0.0463032,1189,1702,-0.015498,-0.521213
-28,-678,-0.0412598,-0.254883,0,0,0,0,0,0,0,-1,1196,1702,-0.0413038,0.254936
-21,-678,-0.118408,-0.198242,0.0108685,0.00814975,0.000109872,0.0108729,0.00814532,0.0403251,0.00653208,0.0435994,1203,1702,-0.118357,0.198292
-14,-678,-0.18335,-0.0211182,0.0143728,0.00919091,-0.000168604,0.0143783,0.00918543,-0.0324914,0.00840731,0.0396551,1210,1702,-0.18331,0.021075
-7,-678,-0.241333,0.0133057,0.0170719,0.0104607,-0.000942676,0.0172037,0.0103289,-0.138901,0.00999905,0.04152,1217,1702,-0.241394,-0.0132905
0,-678,-0.0805664,0.162354,0,0,0,0,0,0,0,-1,1224,1702,-0.0806165,-0.162299
7,-678,-0.197388,0.426636,0.0235753,0.0102988,-0.00541372,0.025503,0.00837116,-0.342071,0.0150109,0.0415645,1231,1702,-0.197389,-0.426612
14,-678,-0.49292,0.659912,0.0256988,0.00876746,-0.00750151,0.0285442,0.00592206,-0.362544,0.0173948,0.0435238,1238,1702,-0.492953,-0.659917
21,-678,0.153442,0.106201,0.0283045,0.00672162,-0.0100141,0.0322351,0.00279102,-0.374028,0.0206228,0.0452848,1245,1702,0.153472,-0.106145
28,-678,0.315918,-0.51355,0.0302325,0.00353528,-0.0120628,0.0348755,-0.00110771,-0.367422,0.0236282,0.0461347,1252,1702,0.315867,0.51356
35,-678,-0.580444,0.0338135,0.031725,-9.76275e-05,-0.013639,0.0367706,-0.0051432,-0.354326,0.0263957,0.0428926,1259,1702,-0.580441,-0.033805
42,-678,-1.34961,0.707642,0.0322741,-0.00386035,-0.0144482,0.0373408,-0.00892698,-0.337276,0.0283421,0.042642,1266,1702,-1.34965,-0.707641
49,-678,-1.28906,0.602173,0.0317385,-0.00387537,-0.0156675,0.0376499,-0.00978674,-0.360786,0.0289195,0.0436815,1273,1702,-1.2891,-0.602126
56,-678,-0.316284,-0.904053,0.0315182,-0.00644625,-0.0155762,0.0370908,-0.0120189,-0.343578,0.0295596,0.0417585,1280,1702,-0.316296,0.903994
63,-678,-0.376099,-1.07275,0.0339041,-0.00892857,-0.0151701,0.0387326,-0.0137571,-0.308152,0.0314276,0.0458474,1287,1702,-0.376057,1.0728
70,-678,0.559204,-0.017334,0,0,0,0,0,0,0,-1,1294,1702,0.559163,0.0173075
77,-678,0.435303,-0.0239258,0.0379262,-0.0140742,-0.0118944,0.0405178,-0.0166657,-0.214526,0.0339587,0.0484952,1301,1702,0.435307,0.0238692
84,-678,0.336304,-0.00476074,0.0410151,-0.0171983,-0.00911534,0.0424091,-0.0185923,-0.151747,0.0361028,0.0483236,1308,1702,0.336305,0.00478181
91,-678,0.283813,0.0898438,0.0438163,-0.0207487,-0.00620733,0.0444077,-0.0213401,-0.0949816,0.0387304,0.0473404,1315,1702,0.283813,-0.089859
98,-678,0.220947,0.139282,0,0,0,0,0,0,0,-1,1322,1702,0.220917,-0.139275
105,-678,0.296509,0.0578613,0,0,0,0,0,0,0,-1,1329,1702,0.296486,-0.0578126
112,-678,0.720337,-0.216187,0,0,0,0,0,0,0,-1,1336,1702,0.720346,0.216182
119,-678,-0.0270996,0.10498,0,0,0,0,0,0,0,-1,1343,1702,-0.0270924,-0.105031
126,-678,-0.0714111,0.0111084,0,0,0,0,0,0,0,-1,1350,1702,-0.0713969,-0.0111237
133,-678,0.16748,-0.653809,0.0425693,-0.0272797,0.00996284,0.0439626,-0.0286729,0.138944,0.0422447,0.0472482,1357,1702,0.167447,0.653864
140,-678,0.229004,-0.060791,0.0383412,-0.023658,0.0102807,0.0400014,-0.0253182,0.160113,0.0380286,0.0463859,1364,1702,0.229042,0.0607731
147,-678,0.161011,0.533325,0,0,0,0,0,0,0,-1,1371,1702,0.160968,-0.533348
154,-678,-0.385498,0.422852,0,0,0,0,0,0,0,-1,1378,1702,-0.385507,-0.422885
161,-678,-0.678467,0.391357,0,0,0,0,0,0,0,-1,1385,1702,-0.67841,-0.391325
168,-678,-0.320557,-0.312622,0,0,0,0,0,0,0,-1,1392,1702,-0.320566,0.312609
175,-678,-0.0129395,-0.0731201,0,0,0,0,0,0,0,-1,1399,1702,-0.0129377,0.0730682
182,-678,0.469849,0.262939,0,0,0,0,0,0,0,-1,1406,1702,0.469796,-0.262922
189,-678,-0.0335693,0.168823,0.00408851,0.00605005,-1.53726e-06,0.00605005,0.00408851,-1.57001,0.00356422,0.0382667,1413,1702,-0.0335278,-0.168806
196,-678,-0.0737305,0.0108643,0.0024974,0.00722259,-0.00150801,0.00766284,0.00205715,-1.28675,0.00457954,0.0350577,1420,1702,-0.0737224,-0.0108511
203,-678,-0.0235596,0.0187988,0.00200129,0.00658345,-0.00191348,0.00727741,0.00130733,-1.22288,0.00447987,0.0342497,1427,1702,-0.0235547,-0.0188046
210,-678,-0.0344238,0.0394287,0.00217939,0.00529642,-0.0018896,0.0061873,0.00128851,-1.13023,0.0037695,0.0358466,1434,1702,-0.0344682,-0.0393954
217,-678,-0.0396729,0.0078125,0.00225707,0.00416154,-0.00150062,0.00498655,0.00143206,-1.06812,0.00296464,0.0338948,1441,1702,-0.0396679,-0.00787019
224,-678,-0.0429688,0.00183105,0.00203254,0.00357044,-0.00102369,0.00408182,0.00152117,-1.10752,0.00238197,0.0238964,1448,1702,-0.0430165,-0.00179752
231,-678,-0.0394287,0.0202637,0.00180689,0.00331465,-0.000558969,0.00349927,0.00162227,-1.25179,0.00202209,0.0188027,1455,1702,-0.0394033,-0.0202994
238,-678,-0.03479,0.0432129,0.00176131,0.00347282,-0.00018145,0.00349184,0.00174229,-1.46633,0.00201602,0.0143965,1462,1702,-0.0348068,-0.0432458
245,-678,-0.0200195,0.0384521,0.00164647,0.00335944,0.000156187,0.00337357,0.00163235,1.48061,0.00194807,0.010835,1469,1702,-0.0200719,-0.0384711
252,-678,-0.012085,0.036499,0.00151453,0.0034443,0.000292024,0.00348752,0.00147131,1.42385,0.0020217,0.00919892,1476,1702,-0.0120609,-0.0364644
259,-678,-0.0166016,0.0410156,0.00134686,0.00315831,0.00047193,0.00327389,0.00123128,1.33062,0.00190943,0.00974114,1483,1702,-0.0166572,-0.0410276
266,-678,-0.00708008,0.0319824,0.00104535,0.00278876,0.000661316,0.00301123,0.000822882,1.24629,0.00179713,0.00971471,1490,1702,-0.00704117,-0.0319713
273,-678,0.000732422,0.0355225,0.000650351,0.0026137,0.000928793,0.00298345,0.000280604,1.19193,0.00190234,0.00865746,1497,1702,0.000707917,-0.0354638
280,-678,-0.019165,0.0325928,0.000395618,0.00229498,0.00103182,0.00274764,-5.70359e-05,1.15738,0.00185106,0.00913317,1504,1702,-0.0191718,-0.0325389
287,-678,-0.02771,0.0197754,0.000289865,0.00185508,0.0009525,0.00230524,-0.000160302,1.12929,0.00159295,0.0101394,1511,1702,-0.02777,-0.0197436
294,-678,-0.0229492,0.0133057,0.000189547,0.00133654,0.000715235,0.00167981,-0.000153722,1.12333,0.00117447,0.0106926,1518,1702,-0.0229585,-0.0133338
301,-678,-0.0246582,0.0197754,0.000232106,0.00106008,0.000496884,0.00129284,-6.52799e-07,1.13272,0.000862108,0.0108473,1525,1702,-0.0246296,-0.0197253
308,-678,-0.0153809,0.0343018,0.000271048,0.000915884,0.000384155,0.00109499,9.19399e-05,1.13452,0.00070136,0.0120769,1532,1702,-0.0154233,-0.0343192
315,-678,-0.00170898,0.0510254,0.000122784,0.000861811,0.000381486,0.0010234,-3.88067e-05,1.17013,0.000695564,0.01337,1539,1702,-0.0016609,-0.0510703
322,-678,-0.0198975,0.0234375,2.33259e-05,0.00109509,0.000260942,0.00115524,-3.68293e-05,1.34422,0.000782728,0.0160699,1546,1702,-0.0198432,-0.0234346
329,-678,-0.0316162,0.0290527,-8.57794e-05,0.00118259,4.10182e-06,0.0011826,-8.57926e-05,1.56756,0.000818498,0.013564,1553,1702,-0.0316054,-0.0290937
336,-678,-0.0288086,0.0168457,-0.000167696,0.00122349,-0.000345767,0.00130469,-0.000248894,-1.34014,0.000963534,0.0114464,1560,1702,-0.0287539,-0.0168385
343,-678,-0.0249023,0.0166016,-6.70234e-05,0.000968014,-0.000537826,0.00119688,-0.000295884,-1.16848,0.000912675,0.0113462,1567,1702,-0.0248969,-0.0166133
350,-678,-0.0289307,0.0291748,-0.000167078,0.00128055,-0.00084246,0.00166743,-0.00055396,-1.14029,0.00133515,0.0100174,1574,1702,-0.0289172,-0.0291861
357,-678,-0.0174561,0.0189209,-0.000354724,0.0017941,-0.00099054,0.00218104,-0.000741657,-1.19839,0.0017543,0.00772978,1581,1702,-0.017421,-0.0189458
364,-678,-0.026123,0.0125732,-1.92628e-05,0.00206991,-0.0008981,0.00240291,-0.000352263,-1.21573,0.00173135,0.0106819,1588,1702,-0.0261395,-0.0125287
371,-678,-0.0452881,0.03125,0.00115149,0.00252814,-0.000909903,0.00298074,0.000698887,-1.10922,0.00180001,0.0125725,1595,1702,-0.0452775,-0.0312673
378,-678,-0.0445557,0.0197754,0.00207091,0.00259267,-0.00134388,0.00370076,0.000962824,-0.881269,0.00221705,0.0124641,1602,1702,-0.0446025,-0.0197755
385,-678,-0.0341797,0.0228271,0.00283421,0.0028582,-0.0025589,0.00540514,0.000287275,-0.787743,0.00351158,0.0114456,1609,1702,-0.0342379,-0.0227832
392,-678,0.0286865,0.0643311,0.00439235,0.00354162,-0.00321685,0.00721183,0.000722133,-0.719664,0.00458616,0.0192555,1616,1702,0.0286588,-0.06432
399,-678,-0.0258789,-0.00378418,0.0058134,0.00350666,-0.00397205,0.00879614,0.000523916,-0.644098,0.00569749,0.0304673,1623,1702,-0.0258219,0.00373814
406,-678,-0.243164,-0.10791,0.00706979,0.00331291,-0.00443878,0.0100112,0.000371465,-0.585231,0.00655384,0.0356788,1630,1702,-0.243162,0.10793
413,-678,0.088623,0.0941162,0.00848979,0.00338165,-0.00499187,0.011543,0.000328395,-0.548938,0.00758827,0.0376241,1637,1702,0.0886038,-0.0941393
420,-678,0.128174,0.0424805,0,0,0,0,0,0,0,-1,1644,1702,0.128207,-0.042447
427,-678,-0.109253,-0.322388,0,0,0,0,0,0,0,-1,1651,1702,-0.109214,0.322419
434,-678,-0.248413,-0.419678,0,0,0,0,0,0,0,-1,1658,1702,-0.248442,0.419716
441,-678,-0.387695,-0.516968,0,0,0,0,0,0,0,-1,1665,1702,-0.38767,0.517013
448,-678,-0.787964,-0.362427,0.00647448,0.0163761,-0.00441729,0.0180603,0.00479031,-1.20654,0.0108034,0.0493904,1672,1702,-0.787941,0.362419
455,-678,-0.980835,-0.339233,0.00389872,0.0210122,-0.00264018,0.0214103,0.00350066,-1.42116,0.0132616,0.0428793,1679,1702,-0.980794,0.339254
462,-678,-1.08423,-0.514648,0.000699593,0.0273704,-0.00134826,0.0274384,0.000631609,-1.52042,0.0180854,0.044084,1686,1702,-1.08421,0.514639
469,-678,-1.16663,-0.714111,-0.00479166,0.036271,-0.000739555,0.0362843,-0.00480498,-1.55279,0.02594,0.0450873,1693,1702,-1.16657,0.7141
476,-678,0,0,0,0,0,0,0,0,0,-1,1700,1702,0,0
483,-678,0,0,0,0,0,0,0,0,0,-1,1707,1702,0,0
490,-678,0,0,0,0,0,0,0,0,0,-1,1714,1702,0,0
497,-678,0,0,0,0,0,0,0,0,0,-1,1721,1702,0,0
504,-678,0,0,0,0,0,0,0,0,0,-1,1728,1702,0,0
511,-678,0,0,0,0,0,0,0,0,0,-1,1735,1702,0,0
518,-678,0,0,0,0,0,0,0,0,0,-1,1742,1702,0,0
525,-678,0,0,0,0,0,0,0,0,0,-1,1749,1702,0,0
532,-678,0,0,0,0,0,0,0,0,0,-1,1756,1702,0,0
539,-678,0,0,0,0,0,0,0,0,0,-1,1763,1702,0,0
546,-678,0,0,0,0,0,0,0,0,0,-1,1770,1702,0,0
553,-678,0,0,0,0,0,0,0,0,0,-1,1777,1702,0,0
560,-678,0,0,0,0,0,0,0,0,0,-1,1784,1702,0,0
567,-678,0,0,0,0,0,0,0,0,0,-1,1791,1702,0,0
574,-678,0,0,0,0,0,0,0,0,0,-1,1798,1702,0,0
581,-678,0,0,0,0,0,0,0,0,0,-1,1805,1702,0,0
588,-678,0,0,0,0,0,0,0,0,0,-1,1812,1702,0,0
595,-678,0,0,0,0,0,0,0,0,0,-1,1819,1702,0,0
602,-678,0,0,0,0,0,0,0,0,0,-1,1826,1702,0,0
609,-678,0,0,0,0,0,0,0,0,0,-1,1833,1702,0,0
616,-678,0,0,0,0,0,0,0,0,0,-1,1840,1702,0,0
623,-678,0,0,0,0,0,0,0,0,0,-1,1847,1702,0,0
630,-678,0,0,0,0,0,0,0,0,0,-1,1854,1702,0,0
637,-678,0,0,0,0,0,0,0,0,0,-1,1861,1702,0,0
644,-678,0,0,0,0,0,0,0,0,0,-1,1868,1702,0,0
651,-678,0,0,0,0,0,0,0,0,0,-1,1875,1702,0,0
658,-678,0,0,0,0,0,0,0,0,0,-1,1882,1702,0,0
665,-678,0,0,0,0,0,0,0,0,0,-1,1889,1702,0,0
672,-678,0,0,0,0,0,0,0,0,0,-1,1896,1702,0,0
679,-678,0,0,0,0,0,0,0,0,0,-1,1903,1702,0,0
686,-678,0,0,0,0,0,0,0,0,0,-1,1910,1702,0,0
693,-678,0,0,0,0,0,0,0,0,0,-1,1917,1702,0,0
700,-678,0,0,0,0,0,0,0,0,0,-1,1924,1702,0,0
707,-678,0,0,0,0,0,0,0,0,0,-1,1931,1702,0,0
714,-678,0,0,0,0,0,0,0,0,0,-1,1938,1702,0,0
721,-678,0,0,0,0,0,0,0,0,0,-1,1945,1702,0,0
728,-678,0,0,0,0,0,0,0,0,0,-1,1952,1702,0,0
735,-678,0,0,0,0,0,0,0,0,0,-1,1959,1702,0,0
742,-678,0,0,0,0,0,0,0,0,0,-1,1966,1702,0,0
749,-678,0,0,0,0,0,0,0,0,0,-1,1973,1702,0,0
756,-678,0,0,0,0,0,0,0,0,0,-1,1980,1702,0,0
763,-678,0,0,0,0,0,0,0,0,0,-1,1987,1702,0,0
770,-678,0,0,0,0,0,0,0,0,0,-1,1994,1702,0,0
777,-678,0,0,0,0,0,0,0,0,0,-1,2001,1702,0,0
784,-678,0,0,0,0,0,0,0,0,0,-1,2008,1702,0,0
791,-678,0,0,0,0,0,0,0,0,0,-1,2015,1702,0,0
798,-678,0,0,0,0,0,0,0,0,0,-1,2022,1702,0,0
805,-678,0,0,0,0,0,0,0,0,0,-1,2029,1702,0,0
812,-678,0,0,0,0,0,0,0,0,0,-1,2036,1702,0,0
-700,-685,0,0,0,0,0,0,0,0,0,-1,524,1709,0,0
-693,-685,0,0,0,0,0,0,0,0,0,-1,531,1709,0,0
-686,-685,0,0,0,0,0,0,0,0,0,-1,538,1709,0,0
-679,-685,0,0,0,0,0,0,0,0,0,-1,545,1709,0,0
-672,-685,0,0,0,0,0,0,0,0,0,-1,552,1709,0,0
-665,-685,0,0,0,0,0,0,0,0,0,-1,559,1709,0,0
-658,-685,0,0,0,0,0,0,0,0,0,-1,566,1709,0,0
-651,-685,0,0,0,0,0,0,0,0,0,-1,573,1709,0,0
-644,-685,0,0,0,0,0,0,0,0,0,-1,580,1709,0,0
-637,-685,0,0,0,0,0,0,0,0,0,-1,587,1709,0,0
-630,-685,0,0,0,0,0,0,0,0,0,-1,594,1709,0,0
-623,-685,0,0,0,0,0,0,0,0,0,-1,601,1709,0,0
-616,-685,0,0,0,0,0,0,0,0,0,-1,608,1709,0,0
-609,-685,0,0,0,0,0,0,0,0,0,-1,615,1709,0,0
-602,-685,0,0,0,0,0,0,0,0,0,-1,622,1709,0,0
-595,-685,0,0,0,0,0,0,0,0,0,-1,629,1709,0,0
-588,-685,0,0,0,0,0,0,0,0,0,-1,636,1709,0,0
-581,-685,0,0,0,0,0,0,0,0,0,-1,643,1709,0,0
-574,-685,0,0,0,0,0,0,0,0,0,-1,650,1709,0,0
-567,-685,0,0,0,0,0,0,0,0,0,-1,657,1709,0,0
-560,-685,0,0,0,0,0,0,0,0,0,-1,664,1709,0,0
-553,-685,0,0,0,0,0,0,0,0,0,-1,671,1709,0,0
-546,-685,0,0,0,0,0,0,0,0,0,-1,678,1709,0,0
-539,-685,0,0,0,0,0,0,0,0,0,-1,685,1709,0,0
-532,-685,0,0,0,0,0,0,0,0,0,-1,692,1709,0,0
-525,-685,0,0,0,0,0,0,0,0,0,-1,699,1709,0,0
-518,-685,0,0,0,0,0,0,0,0,0,-1,706,1709,0,0
-511,-685,0,0,0,0,0,0,0,0,0,-1,713,1709,0,0
-504,-685,0,0,0,0,0,0,0,0,0,-1,720,1709,0,0
-497,-685,0,0,0,0,0,0,0,0,0,-1,727,1709,0,0
-490,-685,0,0,0,0,0,0,0,0,0,-1,734,1709,0,0
-483,-685,0,0,0,0,0,0,0,0,0,-1,741,1709,0,0
-476,-685,0,0,0,0,0,0,0,0,0,-1,748,1709,0,0
-469,-685,0,0,0,0,0,0,0,0,0,-1,755,1709,0,0
-462,-685,0,0,0,0,0,0,0,0,0,-1,762,1709,0,0
-455,-685,0,0,0,0,0,0,0,0,0,-1,769,1709,0,0
-448,-685,0,0,0,0,0,0,0,0,0,-1,776,1709,0,0
-441,-685,0,0,0,0,0,0,0,0,0,-1,783,1709,0,0
-434,-685,0,0,0,0,0,0,0,0,0,-1,790,1709,0,0
-427,-685,0,0,0,0,0,0,0,0,0,-1,797,1709,0,0
-420,-685,0,0,0,0,0,0,0,0,0,-1,804,1709,0,0
-413,-685,0,0,0,0,0,0,0,0,0,-1,811,1709,0,0
-406,-685,0,0,0,0,0,0,0,0,0,-1,818,1709,0,0
-399,-685,0,0,0,0,0,0,0,0,0,-1,825,1709,0,0
-392,-685,0,0,0,0,0,0,0,0,0,-1,832,1709,0,0
-385,-685,0,0,0,0,0,0,0,0,0,-1,839,1709,0,0
-378,-685,0,0,0,0,0,0,0,0,0,-1,846,1709,0,0
-371,-685,0,0,0,0,0,0,0,0,0,-1,853,1709,0,0
-364,-685,0,0,0,0,0,0,0,0,0,-1,860,1709,0,0
-357,-685,0,0,0,0,0,0,0,0,0,-1,867,1709,0,0
-350,-685,0,0,0,0,0,0,0,0,0,-1,874,1709,0,0
-343,-685,3.64069,-0.0681152,0.0581322,-0.0143597,-0.0395663,0.075545,-0.0317725,-0.414583,0.0636546,0.0460804,881,1709,3.64069,0.0681453
-336,-685,3.9325,0.0285645,0.0584326,-0.0130157,-0.0301684,0.0694669,-0.0240499,-0.350641,0.0560742,0.0439598,888,1709,3.93247,-0.0285983
-329,-685,4.12476,0.0463867,0,0,0,0,0,0,0,-1,895,1709,4.12475,-0.0463931
-322,-685,0.520935,0.0318604,0.0562913,-0.00833994,-0.0153515,0.0597523,-0.0118009,-0.221744,0.0442956,0.0428846,902,1709,0.520921,-0.0318034
-315,-685,0.896851,0.689087,0.0515977,-0.00482088,-0.0111563,0.0537236,-0.00694683,-0.188303,0.0383417,0.0439707,909,1709,0.896866,-0.689134
-308,-685,1.56757,1.24487,0.0461614,-0.00346513,-0.00698006,0.0471244,-0.0044282,-0.137109,0.0329916,0.0475492,916,1709,1.56755,-1.24493
-301,-685,-4.35278,0.09375,0,0,0,0,0,0,0,-1,923,1709,-4.35279,-0.0937233
-294,-685,0.416504,1.38928,0,0,0,0,0,0,0,-1,930,1709,0.416491,-1.38934
-287,-685,0.23407,0.132935,0.0281089,0.00528788,-0.00506246,0.0291815,0.00421527,-0.208787,0.0182126,0.0471271,937,1709,0.234051,-0.132913
-280,-685,-0.121033,0.0894775,0.0224408,0.00779048,-0.00539524,0.0242133,0.00601803,-0.317413,0.0145569,0.0469125,944,1709,-0.121057,-0.0894393
-273,-685,-0.17157,0.0279541,0.0169077,0.00889662,-0.00600936,0.0201241,0.00568019,-0.491438,0.0119803,0.0463466,951,1709,-0.171549,-0.0278953
-266,-685,-0.130798,0.0244141,0.0124087,0.0100364,-0.00612105,0.0174575,0.00498765,-0.689693,0.0103831,0.0418174,958,1709,-0.130793,-0.024397
-259,-685,-0.086792,0.00842285,0.00852335,0.0110315,-0.00634062,0.0162409,0.00331397,-0.88303,0.00990907,0.0353905,965,1709,-0.086773,-0.00845012
-252,-685,-0.0380249,0.0583496,0.00568431,0.0109873,-0.00719052,0.0159996,0.000672006,-0.962039,0.0104496,0.0305835,972,1709,-0.0380246,-0.0582908
-245,-685,0.0315552,0.0327148,0.00401122,0.0117836,-0.00614499,0.0151681,0.000626689,-1.06736,0.00990981,0.0300395,979,1709,0.0315387,-0.0326788
-238,-685,0.0411377,0.0240479,0.00255924,0.0117415,-0.0054859,0.0143039,-3.20142e-06,-1.13382,0.00953702,0.02323,986,1709,0.0411302,-0.0240963
-231,-685,-0.0355225,0.0852051,0.0016468,0.0115733,-0.00516433,0.0137728,-0.000552633,-1.16817,0.00937149,0.0152528,993,1709,-0.0354952,-0.0852499
-224,-685,-0.0265503,0.0727539,0.000789226,0.0110304,-0.00486873,0.0129756,-0.00115595,-1.1907,0.00906031,0.0135595,1000,1709,-0.0265291,-0.0727931
-217,-685,-0.0302124,0.0426025,0.000165674,0.0102319,-0.00447532,0.0119339,-0.00153624,-1.2074,0.00851431,0.0103018,1007,1709,-0.0302132,-0.0426628
-210,-685,-0.0359497,0.0509033,2.62451e-05,0.00853859,-0.00383563,0.0100119,-0.00144708,-1.20406,0.00720557,0.0135104,1014,1709,-0.0359275,-0.0508799
-203,-685,-0.00805664,0.0563965,-9.88154e-05,0.00758244,-0.00340093,0.0088718,-0.00138817,-1.20842,0.00642742,0.0152265,1021,1709,-0.00805403,-0.0563488
-196,-685,-0.0140381,0.0338135,-0.000303104,0.00635382,-0.00297008,0.00748631,-0.00143559,-1.20652,0.00553185,0.0142241,1028,1709,-0.0140548,-0.0337634
-189,-685,-0.0202637,0.0289307,-0.000299931,0.00495796,-0.0024522,0.0059241,-0.00126607,-1.19548,0.00443211,0.00887898,1035,1709,-0.0202561,-0.0288897
-182,-685,-0.0247803,0.0383301,-0.000266748,0.00392888,-0.00192702,0.00467961,-0.00101748,-1.1993,0.00350843,0.0115238,1042,1709,-0.0247631,-0.0383124
-175,-685,-0.0316162,0.0250244,-0.000206757,0.0029507,-0.0013906,0.00347581,-0.000731869,-1.20973,0.00259578,0.0118926,1049,1709,-0.0315708,-0.024966
-168,-685,-0.0217285,0.0181885,5.80832e-05,0.00198678,-0.000975026,0.0023938,-0.000348933,-1.17534,0.00172399,0.00997208,1056,1709,-0.0217868,-0.0181656
-161,-685,-0.0214844,0.0283203,0.000147526,0.00132405,-0.000892492,0.00180471,-0.000333134,-1.07678,0.00132818,0.0102972,1063,1709,-0.0215083,-0.0282947
-154,-685,-0.0283203,0.052124,7.482e-05,0.000512329,-0.000298953,0.000664015,-7.6866e-05,-1.10125,0.000470397,0.00892639,1070,1709,-0.02827,-0.0520949
-147,-685,-0.0324707,0.0463867,0.000300493,-0.00041062,0.000260044,0.00038544,-0.000495567,0.315736,0.000509973,0.00803248,1077,1709,-0.0325159,-0.0463571
-140,-685,-0.0211182,0.0175781,0.000430593,-0.0011055,0.000584619,0.00062778,-0.00130269,0.325308,0.00113703,0.0100928,1084,1709,-0.0210641,-0.0175846
-133,-685,-0.0224609,0.0321045,0.00031407,-0.00181067,0.000979745,0.000696875,-0.00219347,0.37248,0.00174172,0.00980279,1091,1709,-0.0224847,-0.032097
-126,-685,-0.0266113,0.0391846,0.000154318,-0.00244326,0.00129158,0.000687204,-0.00297615,0.391308,0.00224845,0.00835388,1098,1709,-0.026616,-0.0391622
-119,-685,-0.0130615,0.0292969,-0.000260928,-0.00312591,0.00168718,0.000519862,-0.0039067,0.433429,0.00279392,0.0111838,1105,1709,-0.0130187,-0.0292746
-112,-685,-0.0155029,0.019165,-0.000810845,-0.00363363,0.00212487,0.000328665,-0.00477314,0.492243,0.00329711,0.0105481,1112,1709,-0.0155364,-0.0191958
-105,-685,-0.0402832,0.00537109,-0.00125623,-0.00369043,0.00249714,0.000304621,-0.00525128,0.558641,0.00360669,0.00940504,1119,1709,-0.0402381,-0.00540683
-98,-685,-0.0162354,0.000976563,-0.00164994,-0.00360442,0.00261148,0.000161151,-0.00541552,0.606359,0.00366524,0.0117949,1126,1709,-0.0161848,-0.000932922
-91,-685,-0.0140381,0.00305176,-0.00195039,-0.00332855,0.0026617,0.00010998,-0.00538892,0.658735,0.00362983,0.0144255,1133,1709,-0.0140385,-0.003085
-84,-685,-0.0100098,0.0168457,-0.00206954,-0.00261792,0.00256862,0.00023948,-0.00492694,0.732227,0.00336729,0.01264,1140,1709,-0.0100063,-0.0168618
-77,-685,-0.0119629,0.0510254,-0.00203428,-0.0018478,0.00224836,0.000309248,-0.00419133,0.806121,0.0029028,0.0106233,1147,1709,-0.0119806,-0.0509763
-70,-685,0.00537109,0.0358887,-0.00194052,-0.000802244,0.00183211,0.000547097,-0.00328986,0.935995,0.00239651,0.0127745,1154,1709,0.00540139,-0.0359482
-63,-685,0.0324707,0.0180664,-0.00220664,-4.35949e-05,0.00158423,0.000793077,-0.00304331,1.0849,0.0023385,0.0184236,1161,1709,0.0325266,-0.0180142
-56,-685,-0.0144043,0.012085,-0.00194773,0.00176185,0.00139,0.00222489,-0.00241077,1.24923,0.00267712,0.0245771,1168,1709,-0.0143936,-0.012096
-49,-685,-0.0262451,0.0334473,-0.0004251,0.0035963,0.000975365,0.00382038,-0.000649182,1.34497,0.00278862,0.0271469,1175,1709,-0.0262386,-0.0334831
-42,-685,0.0443115,0.151733,0.00092823,0.00522531,0.000654031,0.00532265,0.000830889,1.42305,0.00330646,0.0295181,1182,1709,0.044294,-0.151788
-35,-685,-0.0362549,0.207031,0.00298815,0.0067943,0.000193017,0.00680407,0.00297839,1.52026,0.00393847,0.0325449,1189,1709,-0.0363084,-0.207045
-28,-685,-0.0594482,0.00158691,0.00582992,0.00788419,-0.000321641,0.00793337,0.00578074,-1.41906,0.0047373,0.0352667,1196,1709,-0.0594019,-0.00159989
-21,-685,-0.0581055,0.00158691,0.0082581,0.00854682,-0.000675372,0.00909309,0.00771184,-0.890688,0.00565812,0.028689,1203,1709,-0.058128,-0.00154452
-14,-685,-0.0670166,0.02771,0.0111012,0.00907689,-0.000916093,0.0114542,0.00872387,-0.367815,0.00690827,0.0217194,1210,1709,-0.0670137,-0.0277017
-7,-685,-0.0994873,0.0748291,0.0133061,0.00983391,-0.00154923,0.0138968,0.00924318,-0.364291,0.00816788,0.0346168,1217,1709,-0.0995148,-0.0747708
0,-685,-0.0418701,0.104858,0.0162941,0.0101447,-0.0038495,0.0181461,0.0082927,-0.448418,0.0104896,0.0394989,1224,1709,-0.0418732,-0.104898
7,-685,-0.110962,0.316528,0.0187828,0.00897116,-0.00534978,0.0211356,0.00661838,-0.414331,0.0124834,0.0380526,1231,1709,-0.110944,-0.316522
14,-685,-0.193237,0.373901,0.0205195,0.00727557,-0.00703261,0.0235572,0.00423793,-0.407731,0.0145001,0.039194,1238,1709,-0.19319,-0.373933
21,-685,0.0653076,0.0849609,0.0227534,0.00542013,-0.00905505,0.0266209,0.00155262,-0.403657,0.017253,0.0372004,1245,1709,0.0653366,-0.0849403
28,-685,-0.130127,-0.0500488,0.0243833,0.00276523,-0.0106565,0.0287531,-0.00160458,-0.389147,0.0197254,0.0403358,1252,1709,-0.130104,0.0500874
35,-685,-0.196045,0.0488281,0.0256104,-0.00021635,-0.0119151,0.0302676,-0.00487357,-0.372607,0.0219838,0.038816,1259,1709,-0.196035,-0.0488874
42,-685,-0.28418,0.147339,0.0260416,-0.00324378,-0.0124528,0.0306208,-0.007823,-0.352377,0.0234604,0.0412703,1266,1709,-0.284216,-0.147333
49,-685,-0.410522,0.17981,0.0256128,-0.00328813,-0.0133173,0.0308135,-0.00848875,-0.372305,0.0238802,0.0459714,1273,1709,-0.410519,-0.179869
56,-685,-0.293945,-0.463379,0.0255124,-0.00517635,-0.0132601,0.0304481,-0.010112,-0.35633,0.0243788,0.0421532,1280,1709,-0.293983,0.463403
63,-685,-0.206543,-0.355957,0.0270353,-0.00706635,-0.0128358,0.0313267,-0.0113577,-0.322643,0.0255269,0.042714,1287,1709,-0.206497,0.35597
70,-685,0.559937,0.410767,0.0282279,-0.00936511,-0.0116151,0.0315271,-0.0126643,-0.276753,0.0262772,0.0408655,1294,1709,0.559888,-0.41073
77,-685,0.412354,0.282104,0.0292405,-0.0108504,-0.0100853,0.0316346,-0.0132445,-0.23307,0.0266262,0.0401102,1301,1709,0.41231,-0.282165
84,-685,0.271729,0.0406494,0.0311825,-0.0131596,-0.00781738,0.0325204,-0.0144974,-0.169492,0.0278025,0.0416821,1308,1709,0.271722,-0.0406027
91,-685,0.203003,0.0936279,0.0329446,-0.0158891,-0.00538113,0.0335305,-0.016475,-0.108459,0.0294251,0.0451447,1315,1709,0.203003,-0.0935857
98,-685,0.158691,0.104736,0.0349866,-0.0189031,-0.00263981,0.0351156,-0.0190321,-0.0488296,0.0317186,0.0430513,1322,1709,0.158669,-0.104752
105,-685,0.120605,0.020752,0.0356919,-0.0217777,0.00107234,0.0357119,-0.0217977,0.0186507,0.0335256,0.0417011,1329,1709,0.120663,-0.0207513
112,-685,0.285522,-0.158936,0.0359824,-0.0227595,0.00317098,0.0361531,-0.0229301,0.0537733,0.0343953,0.040369,1336,1709,0.285509,0.158902
119,-685,0.627319,-0.212036,0.0358157,-0.0232097,0.00492332,0.0362235,-0.0236175,0.0826492,0.0348038,0.0385074,1343,1709,0.627328,0.211997
126,-685,-0.0477295,0.0253906,0.0338612,-0.0231815,0.00640291,0.034571,-0.0238914,0.110417,0.0339405,0.0430034,1350,1709,-0.0477181,-0.0253592
133,-685,-0.0283203,-0.0682373,0.0313945,-0.0216721,0.00724662,0.0323663,-0.0226438,0.133306,0.031925,0.0449799,1357,1709,-0.0283248,0.0681953
140,-685,0.0615234,0.112671,0.0284789,-0.0188462,0.00752387,0.0296463,-0.0200136,0.153928,0.0288504,0.0425397,1364,1709,0.0615585,-0.112675
147,-685,0.0657959,0.314453,0.0250878,-0.0154712,0.00716449,0.0263161,-0.0166996,0.1698,0.0250411,0.0396217,1371,1709,0.0657693,-0.314429
154,-685,-0.256104,0.277954,0.021137,-0.0141855,0.00710333,0.022512,-0.0155604,0.1912,0.0221029,0.0421968,1378,1709,-0.256141,-0.277974
161,-685,-0.38916,0.209351,0.0161309,-0.00835179,0.00606257,0.0175499,-0.0097708,0.229921,0.0159854,0.0419212,1385,1709,-0.389107,-0.209374
168,-685,-0.34729,0.0599365,0.0112543,-0.00334024,0.00482059,0.0127027,-0.00478873,0.291897,0.0104376,0.0380863,1392,1709,-0.347287,-0.0599069
175,-685,-0.0568848,-0.0534668,0.00785579,0.000948489,0.00303132,0.00899741,-0.00019314,0.360183,0.00606368,0.0352613,1399,1709,-0.0569071,0.0534762
182,-685,-0.0386963,0.0366211,0.00552153,0.0032888,0.00135193,0.00615844,0.00265189,0.440273,0.00356697,0.0297805,1406,1709,-0.0386722,-0.0366363
189,-685,-0.0614014,0.0367432,0.00341778,0.0056419,-0.000304268,0.00568277,0.00337691,-1.43726,0.00330032,0.0258914,1413,1709,-0.0613457,-0.0367002
196,-685,-0.0535889,0.0241699,0.00212167,0.00657849,-0.00146828,0.00701872,0.00168143,-1.2795,0.00423153,0.0230656,1420,1709,-0.0536367,-0.0242181
203,-685,-0.0133057,0.0316162,0.00173236,0.00585129,-0.00167731,0.00644791,0.00113574,-1.22905,0.00397449,0.0189505,1427,1709,-0.0133192,-0.0316663
210,-685,-0.0167236,0.057251,0.00184338,0.00473433,-0.00155728,0.0054136,0.00116412,-1.15949,0.0032904,0.0204537,1434,1709,-0.0167458,-0.057273
217,-685,-0.0413818,0.0557861,0.00186226,0.00362846,-0.00118803,0.00422566,0.00126507,-1.10501,0.00250429,0.0200999,1441,1709,-0.0414112,-0.0557687
224,-685,-0.0445557,0.0390625,0.00162616,0.0029486,-0.000837351,0.00335432,0.00122043,-1.1196,0.00196041,0.014357,1448,1709,-0.0445566,-0.0390296
231,-685,-0.0255127,0.041626,0.00137349,0.00259839,-0.000517505,0.00278775,0.00118413,-1.22001,0.00161557,0.0148501,1455,1709,-0.0254549,-0.0416176
238,-685,-0.0302734,0.0307617,0.00136382,0.00244904,-0.000306055,0.00252941,0.00128346,-1.31402,0.00146041,0.0173806,1462,1709,-0.0302338,-0.0307935
245,-685,-0.0445557,0.0212402,0.00133815,0.00230174,-8.42655e-05,0.00230906,0.00133084,-1.48422,0.00133831,0.0170034,1469,1709,-0.0445018,-0.0211972
252,-685,-0.0142822,0.00878906,0.00126257,0.00229375,5.59908e-05,0.00229678,0.00125954,1.51671,0.00132812,0.0120844,1476,1709,-0.0142311,-0.00880713
259,-685,0.00561523,0.0333252,0.00118439,0.00200114,0.000195453,0.00204551,0.00114002,1.3476,0.00118356,0.00904932,1483,1709,0.00561619,-0.0333051
266,-685,-0.00939941,0.0386963,0.0010321,0.00167762,0.00035555,0.00183506,0.000874663,1.15394,0.00105986,0.0101088,1490,1709,-0.00942329,-0.0387236
273,-685,-0.0100098,0.0548096,0.000802489,0.00153954,0.000557562,0.00183936,0.000502668,1.07742,0.00109774,0.0100126,1497,1709,-0.0100584,-0.0548389
280,-685,-0.0181885,0.0458984,0.000679669,0.00129812,0.00061509,0.00167734,0.00030045,1.01831,0.00103275,0.011139,1504,1709,-0.0181655,-0.0458927
287,-685,-0.0196533,0.0291748,0.000632622,0.000916993,0.000563518,0.00135599,0.000193628,0.908977,0.00084686,0.0109451,1511,1709,-0.0196337,-0.0291554
294,-685,-0.0123291,0.0319824,0.000652856,0.00046927,0.000321334,0.000895251,0.000226875,0.646272,0.000537416,0.00991188,1518,1709,-0.0122732,-0.0319409
301,-685,-0.0257568,0.036499,0.000795761,0.00027364,9.05345e-05,0.000811014,0.000258387,0.166908,0.000478401,0.0118381,1525,1709,-0.0257168,-0.0365357
308,-685,-0.0228271,0.0385742,0.000839925,0.00019276,-4.70329e-05,0.000843326,0.00018936,-0.0721699,0.000510931,0.0122376,1532,1709,-0.0228125,-0.0386101
315,-685,-0.00219727,0.0440674,0.000649763,0.000203208,-8.57498e-05,0.000665663,0.000187308,-0.183341,0.000396377,0.0108757,1539,1709,-0.00220745,-0.0441075
322,-685,-0.0325928,0.0305176,0.000540687,0.000436784,-0.000204807,0.000700029,0.000277441,-0.661188,0.000407047,0.0182301,1546,1709,-0.0325691,-0.0304755
329,-685,-0.0336914,0.0301514,0.000381597,0.000567381,-0.000421197,0.000905807,4.31699e-05,-0.893932,0.000590008,0.0176276,1553,1709,-0.0336716,-0.0301388
336,-685,-0.0205078,0.0351563,0.000242435,0.000672154,-0.000759761,0.00124685,-0.000332263,-0.923199,0.000961324,0.0116376,1560,1709,-0.0205247,-0.0351119
343,-685,-0.0219727,0.029541,0.000249039,0.000423383,-0.000946718,0.00128693,-0.000614511,-0.831308,0.00112045,0.010949,1567,1709,-0.0220118,-0.029547
350,-685,-0.0134277,0.0200195,2.25938e-05,0.000814011,-0.00126747,0.0017461,-0.0009095,-0.936706,0.00155837,0.0117013,1574,1709,-0.0133982,-0.0200018
357,-685,-0.0137939,0.0262451,-0.000280207,0.00143285,-0.00141907,0.00223385,-0.00108121,-1.05692,0.00195213,0.00929322,1581,1709,-0.0137686,-0.0261903
364,-685,-0.0164795,0.0195313,1.33623e-05,0.00182351,-0.00125511,0.00246584,-0.00062897,-1.09777,0.00188879,0.0090342,1588,1709,-0.0164536,-0.0195325
371,-685,-0.0115967,0.0264893,0.00136028,0.00237333,-0.00122309,0.00319063,0.000542977,-0.981714,0.00197118,0.0139367,1595,1709,-0.0115729,-0.0264389
378,-685,-0.0250244,0.0375977,0.00252323,0.00247797,-0.00169158,0.00419233,0.000808861,-0.77871,0.00256808,0.0179472,1602,1709,-0.0250403,-0.0375417
385,-685,-0.0634766,0.0428467,0.00357334,0.00274555,-0.00323789,0.00642368,-0.000104795,-0.721829,0.00431781,0.028685,1609,1709,-0.0634816,-0.0428951
392,-685,-0.0449219,-0.167114,0.00560697,0.00347579,-0.00417615,0.00885134,0.000231422,-0.660483,0.00582529,0.0324065,1616,1709,-0.0449465,0.167057
399,-685,0.199097,-0.251465,0.00756087,0.00342477,-0.00524083,0.0111269,-0.000141279,-0.597475,0.00746549,0.0393882,1623,1709,0.199136,0.251483
406,-685,-0.559082,-0.211914,0.0093897,0.00311187,-0.00614872,0.0131544,-0.000652805,-0.549393,0.00899509,0.0454207,1630,1709,-0.55905,0.211909
413,-685,-0.114258,0.267334,0.0114702,0.00307068,-0.0072317,0.0156332,-0.00109229,-0.522327,0.0108047,0.0418273,1637,1709,-0.114213,-0.267307
420,-685,0.612915,0.366699,0.0136199,0.00360102,-0.00800416,0.018053,-0.000832054,-0.505791,0.012322,0.0434335,1644,1709,0.612888,-0.366639
427,-685,0.721558,-0.305054,0.014735,0.00501089,-0.00813187,0.0193475,0.000398399,-0.515961,0.0127676,0.0451016,1651,1709,0.721556,0.305043
434,-685,-0.00610352,-0.407959,0.0155893,0.00741626,-0.00912462,0.0215007,0.00150488,-0.574862,0.0138594,0.0464754,1658,1709,-0.00605657,0.40798
441,-685,-0.668945,-0.546143,0,0,0,0,0,0,0,-1,1665,1709,-0.669006,0.546181
448,-685,-1.11755,-0.218872,0,0,0,0,0,0,0,-1,1672,1709,-1.11751,0.2189
455,-685,-1.72449,-0.0921631,0,0,0,0,0,0,0,-1,1679,1709,-1.7245,0.0921397
462,-685,0,0,0,0,0,0,0,0,0,-1,1686,1709,0,0
469,-685,0,0,0,0,0,0,0,0,0,-1,1693,1709,0,0
476,-685,0,0,0,0,0,0,0,0,0,-1,1700,1709,0,0
483,-685,0,0,0,0,0,0,0,0,0,-1,1707,1709,0,0
490,-685,0,0,0,0,0,0,0,0,0,-1,1714,1709,0,0
497,-685,0,0,0,0,0,0,0,0,0,-1,1721,1709,0,0
504,-685,0,0,0,0,0,0,0,0,0,-1,1728,1709,0,0
511,-685,0,0,0,0,0,0,0,0,0,-1,1735,1709,0,0
518,-685,0,0,0,0,0,0,0,0,0,-1,1742,1709,0,0
525,-685,0,0,0,0,0,0,0,0,0,-1,1749,1709,0,0
532,-685,0,0,0,0,0,0,0,0,0,-1,1756,1709,0,0
539,-685,0,0,0,0,0,0,0,0,0,-1,1763,1709,0,0
546,-685,0,0,0,0,0,0,0,0,0,-1,1770,1709,0,0
553,-685,0,0,0,0,0,0,0,0,0,-1,1777,1709,0,0
560,-685,0,0,0,0,0,0,0,0,0,-1,1784,1709,0,0
567,-685,0,0,0,0,0,0,0,0,0,-1,1791,1709,0,0
574,-685,0,0,0,0,0,0,0,0,0,-1,1798,1709,0,0
581,-685,0,0,0,0,0,0,0,0,0,-1,1805,1709,0,0
588,-685,0,0,0,0,0,0,0,0,0,-1,1812,1709,0,0
595,-685,0,0,0,0,0,0,0,0,0,-1,1819,1709,0,0
602,-685,0,0,0,0,0,0,0,0,0,-1,1826,1709,0,0
609,-685,0,0,0,0,0,0,0,0,0,-1,1833,1709,0,0
616,-685,0,0,0,0,0,0,0,0,0,-1,1840,1709,0,0
623,-685,0,0,0,0,0,0,0,0,0,-1,1847,1709,0,0
630,-685,0,0,0,0,0,0,0,0,0,-1,1854,1709,0,0
637,-685,0,0,0,0,0,0,0,0,0,-1,1861,1709,0,0
644,-685,0,0,0,0,0,0,0,0,0,-1,1868,1709,0,0
651,-685,0,0,0,0,0,0,0,0,0,-1,1875,1709,0,0
658,-685,0,0,0,0,0,0,0,0,0,-1,1882,1709,0,0
665,-685,0,0,0,0,0,0,0,0,0,-1,1889,1709,0,0
672,-685,0,0,0,0,0,0,0,0,0,-1,1896,1709,0,0
679,-685,0,0,0,0,0,0,0,0,0,-1,1903,1709,0,0
686,-685,0,0,0,0,0,0,0,0,0,-1,1910,1709,0,0
693,-685,0,0,0,0,0,0,0,0,0,-1,1917,1709,0,0
700,-685,0,0,0,0,0,0,0,0,0,-1,1924,1709,0,0
707,-685,0,0,0,0,0,0,0,0,0,-1,1931,1709,0,0
714,-685,0,0,0,0,0,0,0,0,0,-1,1938,1709,0,0
721,-685,0,0,0,0,0,0,0,0,0,-1,1945,1709,0,0
728,-685,0,0,0,0,0,0,0,0,0,-1,1952,1709,0,0
735,-685,0,0,0,0,0,0,0,0,0,-1,1959,1709,0,0
742,-685,0,0,0,0,0,0,0,0,0,-1,1966,1709,0,0
749,-685,0,0,0,0,0,0,0,0,0,-1,1973,1709,0,0
756,-685,0,0,0,0,0,0,0,0,0,-1,1980,1709,0,0
763,-685,0,0,0,0,0,0,0,0,0,-1,1987,1709,0,0
770,-685,0,0,0,0,0,0,0,0,0,-1,1994,1709,0,0
777,-685,0,0,0,0,0,0,0,0,0,-1,2001,1709,0,0
784,-685,0,0,0,0,0,0,0,0,0,-1,2008,1709,0,0
791,-685,0,0,0,0,0,0,0,0,0,-1,2015,1709,0,0
798,-685,0,0,0,0,0,0,0,0,0,-1,2022,1709,0,0
805,-685,0,0,0,0,0,0,0,0,0,-1,2029,1709,0,0
812,-685,0,0,0,0,0,0,0,0,0,-1,2036,1709,0,0
-700,-692,0,0,0,0,0,0,0,0,0,-1,524,1716,0,0
-693,-692,0,0,0,0,0,0,0,0,0,-1,531,1716,0,0
-686,-692,0,0,0,0,0,0,0,0,0,-1,538,1716,0,0
-679,-692,0,0,0,0,0,0,0,0,0,-1,545,1716,0,0
-672,-692,0,0,0,0,0,0,0,0,0,-1,552,1716,0,0
-665,-692,0,0,0,0,0,0,0,0,0,-1,559,1716,0,0
-658,-692,0,0,0,0,0,0,0,0,0,-1,566,1716,0,0
-651,-692,0,0,0,0,0,0,0,0,0,-1,573,1716,0,0
-644,-692,0,0,0,0,0,0,0,0,0,-1,580,1716,0,0
-637,-692,0,0,0,0,0,0,0,0,0,-1,587,1716,0,0
-630,-692,0,0,0,0,0,0,0,0,0,-1,594,1716,0,0
-623,-692,0,0,0,0,0,0,0,0,0,-1,601,1716,0,0
-616,-692,0,0,0,0,0,0,0,0,0,-1,608,1716,0,0
-609,-692,0,0,0,0,0,0,0,0,0,-1,615,1716,0,0
-602,-692,0,0,0,0,0,0,0,0,0,-1,622,1716,0,0
-595,-692,0,0,0,0,0,0,0,0,0,-1,629,1716,0,0
-588,-692,0,0,0,0,0,0,0,0,0,-1,636,1716,0,0
-581,-692,0,0,0,0,0,0,0,0,0,-1,643,1716,0,0
-574,-692,0,0,0,0,0,0,0,0,0,-1,650,1716,0,0
-567,-692,0,0,0,0,0,0,0,0,0,-1,657,1716,0,0
-560,-692,0,0,0,0,0,0,0,0,0,-1,664,1716,0,0
-553,-692,0,0,0,0,0,0,0,0,0,-1,671,1716,0,0
-546,-692,0,0,0,0,0,0,0,0,0,-1,678,1716,0,0
-539,-692,0,0,0,0,0,0,0,0,0,-1,685,1716,0,0
-532,-692,0,0,0,0,0,0,0,0,0,-1,692,1716,0,0
-525,-692,0,0,0,0,0,0,0,0,0,-1,699,1716,0,0
-518,-692,0,0,0,0,0,0,0,0,0,-1,706,1716,0,0
-511,-692,0,0,0,0,0,0,0,0,0,-1,713,1716,0,0
-504,-692,0,0,0,0,0,0,0,0,0,-1,720,1716,0,0
-497,-692,0,0,0,0,0,0,0,0,0,-1,727,1716,0,0
-490,-692,0,0,0,0,0,0,0,0,0,-1,734,1716,0,0
-483,-692,0,0,0,0,0,0,0,0,0,-1,741,1716,0,0
-476,-692,0,0,0,0,0,0,0,0,0,-1,748,1716,0,0
-469,-692,0,0,0,0,0,0,0,0,0,-1,755,1716,0,0
-462,-692,0,0,0,0,0,0,0,0,0,-1,762,1716,0,0
-455,-692,0,0,0,0,0,0,0,0,0,-1,769,1716,0,0
-448,-692,0,0,0,0,0,0,0,0,0,-1,776,1716,0,0
-441,-692,0,0,0,0,0,0,0,0,0,-1,783,1716,0,0
-434,-692,0,0,0,0,0,0,0,0,0,-1,790,1716,0,0
-427,-692,0,0,0,0,0,0,0,0,0,-1,797,1716,0,0
-420,-692,0,0,0,0,0,0,0,0,0,-1,804,1716,0,0
-413,-692,0,0,0,0,0,0,0,0,0,-1,811,1716,0,0
-406,-692,0,0,0,0,0,0,0,0,0,-1,818,1716,0,0
-399,-692,0,0,0,0,0,0,0,0,0,-1,825,1716,0,0
-392,-692,0,0,0,0,0,0,0,0,0,-1,832,1716,0,0
-385,-692,0,0,0,0,0,0,0,0,0,-1,839,1716,0,0
-378,-692,0,0,0,0,0,0,0,0,0,-1,846,1716,0,0
-371,-692,0,0,0,0,0,0,0,0,0,-1,853,1716,0,0
-364,-692,0,0,0,0,0,0,0,0,0,-1,860,1716,0,0
-357,-692,0,0,0,0,0,0,0,0,0,-1,867,1716,0,0
-350,-692,0,0,0,0,0,0,0,0,0,-1,874,1716,0,0
-343,-692,0,0,0,0,0,0,0,0,0,-1,881,1716,0,0
-336,-692,0,0,0,0,0,0,0,0,0,-1,888,1716,0,0
-329,-692,4.27307,0.471802,0,0,0,0,0,0,0,-1,895,1716,4.27308,-0.47181
-322,-692,0.824341,0.121338,0,0,0,0,0,0,0,-1,902,1716,0.824366,-0.121371
-315,-692,1.21344,0.838257,0,0,0,0,0,0,0,-1,909,1716,1.21344,-0.838289
-308,-692,-3.54938,0.174683,0.0541364,0.000573123,-0.00784317,0.0552612,-0.000551714,-0.142445,0.0370261,0.0458681,916,1716,-3.54937,-0.17472
-301,-692,-3.56519,0.201416,0.048085,0.00300897,-0.00589944,0.0488444,0.00224966,-0.128006,0.0318395,0.0477031,923,1716,-3.56516,-0.201376
-294,-692,0.594421,-0.314331,0,0,0,0,0,0,0,-1,930,1716,0.594402,0.314296
-287,-692,0.0215454,0.0977783,0.0348718,0.00908988,-0.00673443,0.0365248,0.00743679,-0.240709,0.0222884,0.0485917,937,1716,0.0215354,-0.0978092
-280,-692,-0.286682,0.155518,0.028331,0.0113638,-0.00748704,0.0311624,0.00853247,-0.361539,0.0185951,0.0472546,944,1716,-0.28668,-0.155574
-273,-692,-0.0601196,-0.0279541,0.021775,0.0122082,-0.00846764,0.0267169,0.00726629,-0.528291,0.0159508,0.0460556,951,1716,-0.0601225,0.0279228
-266,-692,-0.104492,-0.0739746,0.0164436,0.0133077,-0.00870753,0.0237232,0.0060281,-0.69632,0.014238,0.044913,958,1716,-0.104513,0.0739259
-259,-692,0.0043335,-0.109863,0,0,0,0,0,0,0,-1,965,1716,0.00430433,0.109885
-252,-692,0.0813599,-0.110962,0.00835459,0.0140104,-0.0102457,0.0218113,0.00055372,-0.920051,0.0143598,0.0429079,972,1716,0.0813459,0.11099
-245,-692,0.133789,-0.140625,0.00592251,0.0148051,-0.00919439,0.0205747,0.000152929,-1.01039,0.0136658,0.0416353,979,1716,0.133765,0.140659
-238,-692,0.0447388,-0.109619,0.00385811,0.0146115,-0.00858471,0.0193643,-0.000894663,-1.06517,0.0132178,0.037234,986,1716,0.044731,0.109559
-231,-692,0.0540161,-0.0316162,0.00251336,0.0144479,-0.00819613,0.0186189,-0.00165765,-1.10005,0.0130004,0.0292558,993,1716,0.0540077,0.0315868
-224,-692,0.00250244,0.0385742,0.00129752,0.0138421,-0.00773602,0.0175291,-0.00238948,-1.12604,0.0125586,0.0159588,1000,1716,0.0024973,-0.0385905
-217,-692,-0.0245972,0.0300293,0.000377527,0.0129632,-0.00710215,0.0161593,-0.00281859,-1.14792,0.0118249,0.0110208,1007,1716,-0.0245946,-0.0300152
-210,-692,-0.0176392,0.0373535,1.75411e-05,0.0109213,-0.00611196,0.0136596,-0.00272077,-1.14959,0.0101358,0.0116889,1014,1716,-0.0176199,-0.0373703
-203,-692,-0.00537109,0.0338135,-0.000376355,0.00975787,-0.00531329,0.0120329,-0.00265136,-1.16624,0.0090363,0.0150526,1021,1716,-0.00536665,-0.0337643
-196,-692,-0.0130615,0.0323486,-0.000770971,0.00832058,-0.00455095,0.0102072,-0.00265756,-1.17781,0.00784219,0.0184007,1028,1716,-0.0130564,-0.0323744
-189,-692,-0.0183105,0.0262451,-0.000865925,0.00661684,-0.00369559,0.00813429,-0.00238338,-1.18118,0.00636778,0.00909145,1035,1716,-0.018361,-0.0262099
-182,-692,-0.0264893,0.0217285,-0.000960767,0.00534565,-0.00284732,0.00644096,-0.00205608,-1.20356,0.00511888,0.0119389,1042,1716,-0.0264766,-0.0217145
-175,-692,-0.0371094,0.0264893,-0.00103939,0.00411701,-0.00196813,0.00478236,-0.00170475,-1.24479,0.00388329,0.0127671,1049,1716,-0.0371446,-0.0265254
-168,-692,-0.036377,0.019043,-0.000851828,0.00293251,-0.00129546,0.00333349,-0.0012528,-1.27062,0.00273722,0.0106946,1056,1716,-0.0363245,-0.0190958
-161,-692,-0.0166016,0.0273438,-0.000867574,0.00200366,-0.00104297,0.00234252,-0.00120644,-1.25665,0.00208369,0.0120282,1063,1716,-0.0165568,-0.0273735
-154,-692,-0.0246582,0.0650635,-0.000956829,0.00112766,-0.000335861,0.00118044,-0.00100961,-1.41493,0.0012657,0.0120666,1070,1716,-0.0246039,-0.0650369
-147,-692,-0.0288086,0.0594482,-0.000633947,0.000198412,0.00029537,0.000292574,-0.000728109,1.26219,0.000606911,0.0107987,1077,1716,-0.0287566,-0.0594141
-140,-692,-0.0197754,0.0430908,-0.000351806,-0.000415575,0.000605203,0.000222351,-0.000989733,0.75908,0.000745081,0.00894975,1084,1716,-0.0197486,-0.0431058
-133,-692,-0.0233154,0.0404053,-0.000283288,-0.000987128,0.000958096,0.000385475,-0.00165589,0.609391,0.00125235,0.00901681,1091,1716,-0.0232646,-0.0403846
-126,-692,-0.0251465,0.03125,-0.000232298,-0.00161985,0.00120116,0.000461048,-0.0023132,0.523509,0.00171658,0.00707956,1098,1716,-0.0251434,-0.0312551
-119,-692,-0.0228271,0.0163574,-0.000437334,-0.00220173,0.00150041,0.000421015,-0.00306008,0.519635,0.0021939,0.0100871,1105,1716,-0.0227738,-0.016359
-112,-692,-0.0269775,0.0177002,-0.000796989,-0.00264775,0.00188977,0.000381802,-0.00382655,0.557719,0.00268735,0.00996122,1112,1716,-0.0269767,-0.0176635
-105,-692,0.00891113,0.0114746,-0.0010958,-0.00262877,0.00219523,0.000462903,-0.00418748,0.617435,0.00295805,0.0152258,1119,1716,0.00889706,-0.0114851
-98,-692,0.00805664,0.0142822,-0.00137392,-0.00244734,0.00222499,0.000378183,-0.00419944,0.66705,0.00293382,0.0161881,1126,1716,0.0080174,-0.0143096
-91,-692,-0.0197754,-0.00830078,-0.00165578,-0.00210116,0.00222462,0.000357265,-0.0041142,0.735512,0.00286931,0.0167046,1133,1716,-0.0197662,0.00824311
-84,-692,-0.0233154,-0.00622559,-0.00182303,-0.00138073,0.00217058,0.000579939,-0.0037837,0.836166,0.00273634,0.0169869,1140,1716,-0.0232555,0.00624169
-77,-692,-0.0251465,0.0463867,-0.00180639,-0.000641155,0.0019334,0.0007955,-0.00324305,0.931743,0.00247027,0.0111786,1147,1716,-0.0251166,-0.0464059
-70,-692,-0.0216064,0.0533447,-0.00176057,0.000274205,0.00160526,0.00115733,-0.00264369,1.06784,0.00224975,0.0119973,1154,1716,-0.0216149,-0.0533405
-63,-692,-0.017334,0.0405273,-0.00202213,0.000974778,0.00140913,0.00153327,-0.00258062,1.19345,0.00240068,0.0121187,1161,1716,-0.0173403,-0.0405494
-56,-692,-0.0169678,0.0213623,-0.00200526,0.00247451,0.00121387,0.00278229,-0.00231304,1.32248,0.00294594,0.0133905,1168,1716,-0.0169776,-0.0213827
-49,-692,0.0032959,0.0314941,-0.00108219,0.00385238,0.000868959,0.00400093,-0.00123074,1.40148,0.0031585,0.0186755,1175,1716,0.00331551,-0.0314757
-42,-692,0.0372314,0.0323486,-0.000253776,0.00513054,0.00057797,0.00519188,-0.000315119,1.46506,0.00357093,0.0217855,1182,1716,0.0372889,-0.0323326
-35,-692,0.0262451,0.0112305,0.00115006,0.00630523,0.000128347,0.00630843,0.00114687,1.54592,0.00388024,0.0240341,1189,1716,0.0262103,-0.0112665
-28,-692,0.0118408,0.013916,0.00314282,0.00700149,-0.000312895,0.0070267,0.00311761,-1.49041,0.00406544,0.0225915,1196,1716,0.0118165,-0.0139555
-21,-692,0.00524902,0.0374756,0.00483041,0.00729544,-0.000614008,0.00743991,0.00468593,-1.3397,0.00434344,0.0155622,1203,1716,0.00529388,-0.0374988
-14,-692,-0.0245361,0.0549316,0.00693089,0.00731432,-0.00081354,0.00795843,0.00628678,-0.901115,0.00484549,0.0110945,1210,1716,-0.0245602,-0.054932
-7,-692,-0.0345459,0.0588379,0.00863982,0.00759874,-0.00145077,0.0096606,0.00657795,-0.613151,0.00569794,0.0131402,1217,1716,-0.0344904,-0.0588095
0,-692,-0.026123,0.0427246,0.0111005,0.00756744,-0.00340694,0.0131716,0.00549627,-0.546227,0.00763926,0.0160275,1224,1716,-0.026086,-0.0427564
7,-692,-0.0494385,0.0595703,0.0131789,0.0064261,-0.00468734,0.0155793,0.00402571,-0.473282,0.00933814,0.0204495,1231,1716,-0.049431,-0.0595825
14,-692,-0.0296631,0.105957,0.014691,0.00493253,-0.00607458,0.0176032,0.00202026,-0.447048,0.0111234,0.0225281,1238,1716,-0.0296693,-0.106004
21,-692,0.0310059,0.0678711,0.01666,0.00351803,-0.00771318,0.0202217,-4.36548e-05,-0.432595,0.0134957,0.0237342,1245,1716,0.0310258,-0.0678545
28,-692,-0.0334473,0.0301514,0.0181455,0.00161212,-0.00900914,0.022106,-0.00234832,-0.414174,0.0155792,0.0238634,1252,1716,-0.0334037,-0.0301915
35,-692,-0.0877686,0.0756836,0.0192811,-0.000525564,-0.0100537,0.0234899,-0.00473435,-0.396465,0.0174534,0.0221045,1259,1716,-0.0877756,-0.0756452
42,-692,-0.0473633,0.128418,0.0197995,-0.00267886,-0.0105024,0.0239428,-0.00682216,-0.375763,0.0186564,0.0210211,1266,1716,-0.0474097,-0.128454
49,-692,-0.0455322,0.0788574,0.019648,-0.00261223,-0.0112086,0.0243138,-0.00727805,-0.394455,0.0191031,0.0250461,1273,1716,-0.0454919,-0.078833
56,-692,-0.124512,0.0627441,0.0196529,-0.00388149,-0.0111339,0.0240854,-0.00831399,-0.378876,0.0194305,0.0280743,1280,1716,-0.124481,-0.0627179
63,-692,-0.0723877,0.0461426,0.0206446,-0.00525502,-0.0107271,0.0245105,-0.00912093,-0.345898,0.0200833,0.0271495,1287,1716,-0.0723721,-0.0461693
70,-692,0.0424805,0.041626,0.0212877,-0.00695224,-0.00965835,0.024275,-0.00993949,-0.29996,0.0203235,0.0239308,1294,1716,0.042518,-0.0416048
77,-692,0.0285645,0.0418701,0.0217163,-0.00791135,-0.00844927,0.0239565,-0.0101515,-0.259171,0.0202228,0.0255134,1301,1716,0.0286111,-0.0418593
84,-692,0.0544434,0.0457764,0.0229119,-0.00955831,-0.00663758,0.0242163,-0.0108628,-0.194053,0.0207363,0.0298329,1308,1716,0.0544058,-0.0457634
91,-692,0.0635986,0.0736084,0.0239902,-0.0115262,-0.00467871,0.0245962,-0.0121322,-0.128807,0.0216083,0.0299236,1315,1716,0.0635841,-0.0736148
98,-692,0.00549316,0.114868,0.0253354,-0.0137235,-0.00255991,0.0255024,-0.0138905,-0.0651682,0.0230705,0.0264076,1322,1716,0.00547754,-0.114821
105,-692,-0.0501709,0.0548096,0.0256369,-0.0160429,0.00020435,0.0256379,-0.0160439,0.0049027,0.0242765,0.031151,1329,1716,-0.0501485,-0.0548486
112,-692,-0.0557861,0.0223389,0.0257612,-0.0167603,0.00163126,0.0258237,-0.0168228,0.0382881,0.0248041,0.0334388,1336,1716,-0.0557286,-0.022348
119,-692,-0.0426025,0.0335693,0.0257461,-0.0170868,0.00270323,0.025916,-0.0172567,0.0627792,0.0250923,0.0266451,1343,1716,-0.0426177,-0.0335795
126,-692,-0.0286865,0.0405273,0.0244537,-0.0172337,0.00356099,0.0247557,-0.0175357,0.0846045,0.0245353,0.0259868,1350,1716,-0.0286916,-0.0405257
133,-692,0.00341797,0.0141602,0.0228486,-0.0161353,0.00392192,0.0232392,-0.0165259,0.0992781,0.0230672,0.0219993,1357,1716,0.00335755,-0.0141033
140,-692,0.00585938,0.0256348,0.0209001,-0.0139956,0.0038897,0.0213284,-0.014424,0.109673,0.0207695,0.0253565,1364,1716,0.00584005,-0.025652
147,-692,-0.0229492,0.0678711,0.0186782,-0.0113966,0.00339782,0.0190573,-0.0117757,0.111113,0.0179662,0.0272984,1371,1716,-0.0229689,-0.0678181
154,-692,-0.0483398,0.0820313,0.0158859,-0.0104352,0.00336034,0.0163081,-0.0108574,0.124997,0.0157889,0.0252915,1378,1716,-0.0483265,-0.0820071
161,-692,0.0234375,0.0437012,0.0121627,-0.00584641,0.00256254,0.0125202,-0.00620394,0.138627,0.0110135,0.0293684,1385,1716,0.0234667,-0.0436773
168,-692,-0.079834,0.0045166,0.0087738,-0.00199249,0.00159365,0.00900474,-0.00222343,0.143912,0.00686538,0.0223933,1392,1716,-0.0798253,-0.00457322
175,-692,-0.0533447,0,0.00640163,0.00122253,0.000377842,0.00642905,0.00119511,0.072444,0.00394842,0.018725,1399,1716,-0.0532971,-1.63245e-05
182,-692,-0.0349121,0.0213623,0.00479936,0.00281187,-0.000594823,0.00496378,0.00264745,-0.269683,0.00286796,0.0122419,1406,1716,-0.0349417,-0.0214003
189,-692,-0.010498,0.0421143,0.00329124,0.00450918,-0.00161094,0.00562241,0.00217801,-0.966107,0.00327343,0.0126773,1413,1716,-0.0104959,-0.0420596
196,-692,-0.00646973,0.0487061,0.00231811,0.00506175,-0.00225649,0.00633069,0.00104917,-1.05852,0.00391785,0.0109722,1420,1716,-0.0064859,-0.0487588
203,-692,-0.0200195,0.0410156,0.00195036,0.00427748,-0.00206338,0.00548276,0.000745086,-1.04213,0.00343386,0.0132911,1427,1716,-0.0200489,-0.0409891
210,-692,-0.0222168,0.0422363,0.00193359,0.00341644,-0.00165268,0.00448638,0.000863642,-0.996251,0.00274864,0.0170491,1434,1716,-0.0222114,-0.0422899
217,-692,-0.0358887,0.0483398,0.0018853,0.00247803,-0.00122222,0.0034393,0.000924019,-0.904343,0.00205531,0.0170548,1441,1716,-0.0358686,-0.0483303
224,-692,-0.0269775,0.0429688,0.00162564,0.0018299,-0.000874596,0.00260831,0.000847231,-0.843522,0.00153641,0.0126693,1448,1716,-0.026923,-0.0430184
231,-692,-0.0209961,0.0438232,0.00134007,0.00146195,-0.000594145,0.00199827,0.000803748,-0.836503,0.00116103,0.0104855,1455,1716,-0.0210203,-0.0438574
238,-692,-0.0515137,0.0229492,0.00129456,0.00124814,-0.00044741,0.00171936,0.000823341,-0.759481,0.000992971,0.0157636,1462,1716,-0.0515334,-0.0229205
245,-692,-0.0841064,0.0241699,0.00127973,0.00107461,-0.00025948,0.00145619,0.000898159,-0.597198,0.000848339,0.0175709,1469,1716,-0.0840794,-0.0242076
252,-692,-0.0147705,0.0196533,0.00118442,0.000997165,-0.000106356,0.00123249,0.000949097,-0.42448,0.000745375,0.0150906,1476,1716,-0.0147701,-0.0196875
259,-692,0.00280762,0.0290527,0.00114147,0.000700322,-2.69875e-05,0.00114312,0.000698677,-0.0608726,0.000665399,0.0083605,1483,1716,0.00276065,-0.0291062
266,-692,-0.0228271,0.0344238,0.00107647,0.000431851,8.12987e-05,0.00108657,0.000421756,0.123541,0.000632541,0.00893393,1490,1716,-0.0228216,-0.0343807
273,-692,-0.0275879,0.0585938,0.000932803,0.000345478,0.000180277,0.000983724,0.000294557,0.275286,0.000582986,0.0115292,1497,1716,-0.0276403,-0.0585476
280,-692,-0.0168457,0.0600586,0.00087402,0.00019655,0.000153797,0.0009073,0.00016327,0.213102,0.000558456,0.0110133,1504,1716,-0.016887,-0.0600441
287,-692,-0.0175781,0.0499268,0.000818173,-0.000110729,9.09283e-05,0.00082699,-0.000119546,0.0966654,0.000595191,0.0105198,1511,1716,-0.0176028,-0.0499768
294,-692,-0.0131836,0.0463867,0.000889901,-0.000434646,-0.000175034,0.00091264,-0.000457385,-0.129192,0.00080541,0.0104372,1518,1716,-0.0132163,-0.0464039
301,-692,-0.0137939,0.0565186,0.00110069,-0.000547196,-0.000418852,0.00120104,-0.000647547,-0.235153,0.00108311,0.0121995,1525,1716,-0.0137579,-0.0564721
308,-692,-0.015625,0.0513916,0.0011469,-0.000576443,-0.000556801,0.00131115,-0.000740688,-0.286845,0.00119979,0.0140911,1532,1716,-0.0156235,-0.0514123
315,-692,-0.0219727,0.0388184,0.00092003,-0.000480417,-0.000620342,0.00115529,-0.000715681,-0.362491,0.0010901,0.0134422,1539,1716,-0.0219516,-0.0388326
322,-692,-0.0717773,0.0101318,0.000832373,-0.000201615,-0.000707944,0.001192,-0.000561244,-0.47002,0.00103384,0.0193471,1546,1716,-0.0717934,-0.0101676
329,-692,-0.0617676,0.0131836,0.000660104,6.09374e-06,-0.000841628,0.00123602,-0.000569825,-0.600105,0.00106599,0.0170212,1553,1716,-0.0617082,-0.0132152
336,-692,-0.0231934,0.0300293,0.000504137,0.000193495,-0.00114224,0.00150157,-0.000803934,-0.717823,0.00135124,0.0106176,1560,1716,-0.0231336,-0.0300311
343,-692,-0.00146484,0.0349121,0.000465791,-3.49193e-05,-0.00127467,0.00151446,-0.00108359,-0.688429,0.00150685,0.0112367,1567,1716,-0.00151556,-0.0349086
350,-692,-0.0098877,0.0194092,0.000166411,0.000429824,-0.00158026,0.00188385,-0.00128762,-0.826975,0.0018418,0.0124172,1574,1716,-0.00988124,-0.0193684
357,-692,-0.0358887,0.0166016,-0.000209797,0.00111819,-0.00173472,0.00231166,-0.00140326,-0.968179,0.00216608,0.0164676,1581,1716,-0.0359408,-0.016586
364,-692,-0.0283203,-0.00646973,6.13072e-05,0.00159229,-0.00150782,0.0025178,-0.000864208,-1.02028,0.00202891,0.0225663,1588,1716,-0.0283218,0.0064538
371,-692,0.0384521,-0.0222168,0.00161425,0.00220214,-0.0014346,0.0033726,0.000443786,-0.886448,0.00211604,0.0291045,1595,1716,0.0384921,0.0222312
378,-692,0.109985,0.0947266,0.00308814,0.00230389,-0.00193652,0.00467184,0.000720195,-0.685504,0.00290441,0.0352288,1602,1716,0.10998,-0.0946819
385,-692,-0.143311,-0.112061,0.00451777,0.00249099,-0.00387356,0.00750831,-0.000499545,-0.657458,0.00518009,0.040006,1609,1716,-0.143302,0.112113
392,-692,-0.25647,-0.474487,0,0,0,0,0,0,0,-1,1616,1716,-0.256437,0.474542
399,-692,0.543823,-0.518311,0.00976221,0.00302049,-0.00663209,0.0138309,-0.00104822,-0.550279,0.00958914,0.0443475,1623,1716,0.54383,0.518344
406,-692,0.52124,-0.582397,0.0123478,0.00254276,-0.00816377,0.0169679,-0.00207744,-0.514998,0.0120642,0.0451006,1630,1716,0.521261,0.582391
413,-692,-0.350342,0.12439,0.0153184,0.00230395,-0.0100725,0.0208028,-0.00318049,-0.498607,0.0150412,0.0443556,1637,1716,-0.350306,-0.124365
420,-692,0.580566,0.119263,0.0185629,0.00253033,-0.0115711,0.0246232,-0.00353002,-0.482465,0.0177098,0.0461111,1644,1716,0.580552,-0.119246
427,-692,1.51477,0.180908,0.0208086,0.00356486,-0.012595,0.02745,-0.00307661,-0.485258,0.019407,0.0497389,1651,1716,1.51477,-0.180902
434,-692,0.132446,-0.501465,0.0226862,0.005555,-0.0146555,0.0310956,-0.00285445,-0.52094,0.0217444,0.0462761,1658,1716,0.132417,0.501507
441,-692,-0.272339,-0.859985,0,0,0,0,0,0,0,-1,1665,1716,-0.272362,0.859958
448,-692,-0.937012,-0.98291,0,0,0,0,0,0,0,-1,1672,1716,-0.93697,0.982925
455,-692,0,0,0,0,0,0,0,0,0,-1,1679,1716,0,0
462,-692,0,0,0,0,0,0,0,0,0,-1,1686,1716,0,0
469,-692,0,0,0,0,0,0,0,0,0,-1,1693,1716,0,0
476,-692,0,0,0,0,0,0,0,0,0,-1,1700,1716,0,0
483,-692,0,0,0,0,0,0,0,0,0,-1,1707,1716,0,0
490,-692,0,0,0,0,0,0,0,0,0,-1,1714,1716,0,0
497,-692,0,0,0,0,0,0,0,0,0,-1,1721,1716,0,0
504,-692,0,0,0,0,0,0,0,0,0,-1,1728,1716,0,0
511,-692,0,0,0,0,0,0,0,0,0,-1,1735,1716,0,0
518,-692,0,0,0,0,0,0,0,0,0,-1,1742,1716,0,0
525,-692,0,0,0,0,0,0,0,0,0,-1,1749,1716,0,0
532,-692,0,0,0,0,0,0,0,0,0,-1,1756,1716,0,0
539,-692,0,0,0,0,0,0,0,0,0,-1,1763,1716,0,0
546,-692,0,0,0,0,0,0,0,0,0,-1,1770,1716,0,0
553,-692,0,0,0,0,0,0,0,0,0,-1,1777,1716,0,0
560,-692,0,0,0,0,0,0,0,0,0,-1,1784,1716,0,0
567,-692,0,0,0,0,0,0,0,0,0,-1,1791,1716,0,0
574,-692,0,0,0,0,0,0,0,0,0,-1,1798,1716,0,0
581,-692,0,0,0,0,0,0,0,0,0,-1,1805,1716,0,0
588,-692,0,0,0,0,0,0,0,0,0,-1,1812,1716,0,0
595,-692,0,0,0,0,0,0,0,0,0,-1,1819,1716,0,0
602,-692,0,0,0,0,0,0,0,0,0,-1,1826,1716,0,0
609,-692,0,0,0,0,0,0,0,0,0,-1,1833,1716,0,0
616,-692,0,0,0,0,0,0,0,0,0,-1,1840,1716,0,0
623,-692,0,0,0,0,0,0,0,0,0,-1,1847,1716,0,0
630,-692,0,0,0,0,0,0,0,0,0,-1,1854,1716,0,0
637,-692,0,0,0,0,0,0,0,0,0,-1,1861,1716,0,0
644,-692,0,0,0,0,0,0,0,0,0,-1,1868,1716,0,0
651,-692,0,0,0,0,0,0,0,0,0,-1,1875,1716,0,0
658,-692,0,0,0,0,0,0,0,0,0,-1,1882,1716,0,0
665,-692,0,0,0,0,0,0,0,0,0,-1,1889,1716,0,0
672,-692,0,0,0,0,0,0,0,0,0,-1,1896,1716,0,0
679,-692,0,0,0,0,0,0,0,0,0,-1,1903,1716,0,0
686,-692,0,0,0,0,0,0,0,0,0,-1,1910,1716,0,0
693,-692,0,0,0,0,0,0,0,0,0,-1,1917,1716,0,0
700,-692,0,0,0,0,0,0,0,0,0,-1,1924,1716,0,0
707,-692,0,0,0,0,0,0,0,0,0,-1,1931,1716,0,0
714,-692,0,0,0,0,0,0,0,0,0,-1,1938,1716,0,0
721,-692,0,0,0,0,0,0,0,0,0,-1,1945,1716,0,0
728,-692,0,0,0,0,0,0,0,0,0,-1,1952,1716,0,0
735,-692,0,0,0,0,0,0,0,0,0,-1,1959,1716,0,0
742,-692,0,0,0,0,0,0,0,0,0,-1,1966,1716,0,0
749,-692,0,0,0,0,0,0,0,0,0,-1,1973,1716,0,0
756,-692,0,0,0,0,0,0,0,0,0,-1,1980,1716,0,0
763,-692,0,0,0,0,0,0,0,0,0,-1,1987,1716,0,0
770,-692,0,0,0,0,0,0,0,0,0,-1,1994,1716,0,0
777,-692,0,0,0,0,0,0,0,0,0,-1,2001,1716,0,0
784,-692,0,0,0,0,0,0,0,0,0,-1,2008,1716,0,0
791,-692,0,0,0,0,0,0,0,0,0,-1,2015,1716,0,0
798,-692,0,0,0,0,0,0,0,0,0,-1,2022,1716,0,0
805,-692,0,0,0,0,0,0,0,0,0,-1,2029,1716,0,0
812,-692,0,0,0,0,0,0,0,0,0,-1,2036,1716,0,0
-700,-699,0,0,0,0,0,0,0,0,0,-1,524,1723,0,0
-693,-699,0,0,0,0,0,0,0,0,0,-1,531,1723,0,0
-686,-699,0,0,0,0,0,0,0,0,0,-1,538,1723,0,0
-679,-699,0,0,0,0,0,0,0,0,0,-1,545,1723,0,0
-672,-699,0,0,0,0,0,0,0,0,0,-1,552,1723,0,0
-665,-699,0,0,0,0,0,0,0,0,0,-1,559,1723,0,0
-658,-699,0,0,0,0,0,0,0,0,0,-1,566,1723,0,0
-651,-699,0,0,0,0,0,0,0,0,0,-1,573,1723,0,0
-644,-699,0,0,0,0,0,0,0,0,0,-1,580,1723,0,0
-637,-699,0,0,0,0,0,0,0,0,0,-1,587,1723,0,0
-630,-699,0,0,0,0,0,0,0,0,0,-1,594,1723,0,0
-623,-699,0,0,0,0,0,0,0,0,0,-1,601,1723,0,0
-616,-699,0,0,0,0,0,0,0,0,0,-1,608,1723,0,0
-609,-699,0,0,0,0,0,0,0,0,0,-1,615,1723,0,0
-602,-699,0,0,0,0,0,0,0,0,0,-1,622,1723,0,0
-595,-699,0,0,0,0,0,0,0,0,0,-1,629,1723,0,0
-588,-699,0,0,0,0,0,0,0,0,0,-1,636,1723,0,0
-581,-699,0,0,0,0,0,0,0,0,0,-1,643,1723,0,0
-574,-699,0,0,0,0,0,0,0,0,0,-1,650,1723,0,0
-567,-699,0,0,0,0,0,0,0,0,0,-1,657,1723,0,0
-560,-699,0,0,0,0,0,0,0,0,0,-1,664,1723,0,0
-553,-699,0,0,0,0,0,0,0,0,0,-1,671,1723,0,0
-546,-699,0,0,0,0,0,0,0,0,0,-1,678,1723,0,0
-539,-699,0,0,0,0,0,0,0,0,0,-1,685,1723,0,0
-532,-699,0,0,0,0,0,0,0,0,0,-1,692,1723,0,0
-525,-699,0,0,0,0,0,0,0,0,0,-1,699,1723,0,0
-518,-699,0,0,0,0,0,0,0,0,0,-1,706,1723,0,0
-511,-699,0,0,0,0,0,0,0,0,0,-1,713,1723,0,0
-504,-699,0,0,0,0,0,0,0,0,0,-1,720,1723,0,0
-497,-699,0,0,0,0,0,0,0,0,0,-1,727,1723,0,0
-490,-699,0,0,0,0,0,0,0,0,0,-1,734,1723,0,0
-483,-699,0,0,0,0,0,0,0,0,0,-1,741,1723,0,0
-476,-699,0,0,0,0,0,0,0,0,0,-1,748,1723,0,0
-469,-699,0,0,0,0,0,0,0,0,0,-1,755,1723,0,0
-462,-699,0,0,0,0,0,0,0,0,0,-1,762,1723,0,0
-455,-699,0,0,0,0,0,0,0,0,0,-1,769,1723,0,0
-448,-699,0,0,0,0,0,0,0,0,0,-1,776,1723,0,0
-441,-699,0,0,0,0,0,0,0,0,0,-1,783,1723,0,0
-434,-699,0,0,0,0,0,0,0,0,0,-1,790,1723,0,0
-427,-699,0,0,0,0,0,0,0,0,0,-1,797,1723,0,0
-420,-699,0,0,0,0,0,0,0,0,0,-1,804,1723,0,0
-413,-699,0,0,0,0,0,0,0,0,0,-1,811,1723,0,0
-406,-699,0,0,0,0,0,0,0,0,0,-1,818,1723,0,0
-399,-699,0,0,0,0,0,0,0,0,0,-1,825,1723,0,0
-392,-699,0,0,0,0,0,0,0,0,0,-1,832,1723,0,0
-385,-699,0,0,0,0,0,0,0,0,0,-1,839,1723,0,0
-378,-699,0,0,0,0,0,0,0,0,0,-1,846,1723,0,0
-371,-699,0,0,0,0,0,0,0,0,0,-1,853,1723,0,0
-364,-699,0,0,0,0,0,0,0,0,0,-1,860,1723,0,0
-357,-699,0,0,0,0,0,0,0,0,0,-1,867,1723,0,0
-350,-699,0,0,0,0,0,0,0,0,0,-1,874,1723,0,0
-343,-699,0,0,0,0,0,0,0,0,0,-1,881,1723,0,0
-336,-699,0,0,0,0,0,0,0,0,0,-1,888,1723,0,0
-329,-699,0,0,0,0,0,0,0,0,0,-1,895,1723,0,0
-322,-699,0,0,0,0,0,0,0,0,0,-1,902,1723,0,0
-315,-699,-2.8891,0.803223,0,0,0,0,0,0,0,-1,909,1723,-2.88908,-0.803281
-308,-699,-2.83948,0.341675,0.0624358,0.00599653,-0.00942838,0.0639691,0.00446314,-0.161224,0.041239,0.0465871,916,1723,-2.83949,-0.341669
-301,-699,-2.74127,0.328857,0.0566319,0.00809485,-0.00780745,0.0578569,0.00686989,-0.155627,0.0364974,0.0471434,923,1723,-2.74127,-0.328891
-294,-699,-1.61169,0.956543,0.0497581,0.0113114,-0.00840875,0.0515168,0.00955279,-0.206173,0.0316446,0.0484912,930,1723,-1.6117,-0.956581
-287,-699,-1.18768,0.40564,0.0425649,0.0134951,-0.00914917,0.0452047,0.0108553,-0.280901,0.0272486,0.0495653,937,1723,-1.18769,-0.405688
-280,-699,-0.570557,0.209473,0.0350515,0.0152922,-0.0103643,0.0394906,0.0108531,-0.404667,0.023558,0.0460657,944,1723,-0.570559,-0.209429
-273,-699,-0.113708,0.0484619,0.0273447,0.0157621,-0.0117053,0.034613,0.00849381,-0.555676,0.0208295,0.0444542,951,1723,-0.113681,-0.048409
-266,-699,-0.13092,0.307495,0.0210612,0.0167965,-0.0120555,0.0311715,0.00668624,-0.697864,0.0189496,0.0433326,958,1723,-0.13091,-0.307497
-259,-699,0.0977783,-0.886719,0,0,0,0,0,0,0,-1,965,1723,0.0977843,0.886763
-252,-699,-0.00805664,-0.231323,0.0112994,0.01717,-0.0139196,0.0284605,8.99844e-06,-0.889313,0.0189706,0.0419322,972,1723,-0.00806049,0.231281
-245,-699,0.195496,-0.283691,0.00785359,0.0179381,-0.0127938,0.0266474,-0.000855718,-0.97311,0.0180569,0.0443702,979,1723,0.195516,0.283636
-238,-699,0.0310059,-0.243408,0.00494639,0.0174893,-0.0121435,0.0248852,-0.00244949,-1.02376,0.017464,0.044462,986,1723,0.0310218,0.243461
-231,-699,0.133728,-0.186646,0.00298019,0.0172928,-0.0115317,0.0237082,-0.00343526,-1.0631,0.0170662,0.0387136,993,1723,0.133751,0.186647
-224,-699,0.0315552,-0.0020752,0.00131309,0.016609,-0.0108021,0.0221965,-0.00427437,-1.09344,0.0164091,0.0354428,1000,1723,0.0315553,0.00208643
-217,-699,-0.00183105,0.02771,5.9022e-05,0.0156224,-0.0098364,0.020383,-0.0047016,-1.12005,0.015397,0.0234089,1007,1723,-0.00185463,-0.0276994
-210,-699,0.0335083,0.0319824,-0.000513616,0.0132344,-0.00842541,0.0172342,-0.0045134,-1.12757,0.0132526,0.0154955,1014,1723,0.0335064,-0.0320051
-203,-699,-0.00354004,0.0313721,-0.00108736,0.0118415,-0.00724758,0.0150887,-0.00433459,-1.14957,0.0117731,0.0187929,1021,1723,-0.0035336,-0.0313782
-196,-699,-0.0224609,0.0290527,-0.00156086,0.0102025,-0.00619402,0.0128624,-0.00422085,-1.16517,0.0102751,0.0164329,1028,1723,-0.0225217,-0.0290923
-189,-699,-0.0175781,0.0396729,-0.0016562,0.00819491,-0.00504237,0.0103182,-0.00377952,-1.17224,0.00842611,0.00915596,1035,1723,-0.0175433,-0.0397235
-182,-699,-0.0234375,0.0203857,-0.00177211,0.00670751,-0.00391323,0.0082374,-0.003302,-1.19811,0.00686239,0.0119923,1042,1723,-0.0234813,-0.0204463
-175,-699,-0.0280762,0.0124512,-0.00187545,0.00528881,-0.00278224,0.00624237,-0.00282902,-1.24061,0.00535953,0.0126159,1049,1723,-0.028085,-0.0124082
-168,-699,-0.0142822,0.00012207,-0.00169196,0.00389832,-0.00192296,0.0044959,-0.00228955,-1.26949,0.00398602,0.0135265,1056,1723,-0.0143262,-0.000125535
-161,-699,-0.0107422,0.00476074,-0.00177699,0.00274022,-0.0015683,0.00323132,-0.00226808,-1.26733,0.00319127,0.0113982,1063,1723,-0.010686,-0.004701
-154,-699,-0.0269775,0.0440674,-0.00185711,0.00181543,-0.000789679,0.00197803,-0.00201971,-1.36773,0.00230814,0.0115923,1070,1723,-0.0269213,-0.0440353
-147,-699,-0.0318604,0.0413818,-0.00143338,0.000903965,-0.000117243,0.000909831,-0.00143925,-1.5208,0.00136768,0.0123464,1077,1723,-0.0319003,-0.0413372
-140,-699,-0.0270996,0.0255127,-0.0010142,0.000376606,0.000158609,0.000394464,-0.00103206,1.45867,0.000850582,0.00870101,1084,1723,-0.0271085,-0.0255723
-133,-699,-0.0227051,0.0432129,-0.00082111,-6.96349e-05,0.000528945,0.000203443,-0.00109419,1.09422,0.000805879,0.00868034,1091,1723,-0.0227319,-0.0431908
-126,-699,-0.0147705,0.0322266,-0.000650694,-0.000652372,0.000778539,0.000127007,-0.00143007,0.784859,0.000998414,0.0102757,1098,1723,-0.0147515,-0.032174
-119,-699,-0.00549316,0.0290527,-0.000749691,-0.00111707,0.00107186,0.000154103,-0.00202087,0.700534,0.00140144,0.0145007,1105,1723,-0.00548901,-0.0290636
-112,-699,-0.03479,0.0379639,-0.000966571,-0.0014608,0.00148766,0.000294356,-0.00272173,0.703094,0.00192014,0.01097,1112,1723,-0.0347722,-0.0379118
-105,-699,-0.0163574,0.0430908,-0.00111491,-0.00134049,0.001828,0.000603776,-0.00305918,0.754585,0.00226766,0.0119189,1119,1723,-0.0163242,-0.043127
-98,-699,-0.00915527,0.0218506,-0.00128413,-0.00105705,0.00190188,0.000734671,-0.00307585,0.815211,0.00233432,0.0135165,1126,1723,-0.00910501,-0.0218375
-91,-699,-0.0185547,-0.00390625,-0.00153742,-0.000662176,0.00196908,0.000917324,-0.00311692,0.894745,0.00244185,0.0165688,1133,1723,-0.0185629,0.0038675
-84,-699,-0.0263672,0.0157471,-0.00169473,3.85381e-05,0.00202668,0.0013761,-0.0030323,0.987439,0.00260438,0.0171339,1140,1723,-0.0263236,-0.0157571
-77,-699,-0.0252686,0.0427246,-0.0016101,0.000708633,0.00191877,0.0017911,-0.00269257,1.05716,0.00260603,0.0134285,1147,1723,-0.0252501,-0.042711
-70,-699,-0.0245361,0.0534668,-0.00153721,0.00143196,0.00171056,0.00221233,-0.00231758,1.14279,0.00261558,0.0155402,1154,1723,-0.0244881,-0.0534125
-63,-699,-0.0222168,0.064209,-0.00168983,0.00207544,0.00153332,0.00262084,-0.00223524,1.22905,0.00280661,0.0131332,1161,1723,-0.0221899,-0.0641811
-56,-699,-0.0336914,0.0345459,-0.00169432,0.00327834,0.00133142,0.00361239,-0.00202836,1.32498,0.00329921,0.00938884,1168,1723,-0.033635,-0.0345868
-49,-699,-0.0349121,0.0402832,-0.0011138,0.00431557,0.00104049,0.00450814,-0.00130637,1.38779,0.00352258,0.017906,1175,1723,-0.0349622,-0.0403355
-42,-699,-0.0108643,0.0355225,-0.00060478,0.00526898,0.000748128,0.00536277,-0.000698569,1.44608,0.00382934,0.019272,1182,1723,-0.0108435,-0.0355379
-35,-699,-0.0130615,0.0306396,0.000300074,0.00607844,0.000293191,0.00609328,0.000285236,1.52023,0.00397052,0.0190812,1189,1723,-0.0130489,-0.0306097
-28,-699,-0.000488281,0.0350342,0.00161948,0.00646972,-0.000120141,0.00647269,0.00161651,-1.54605,0.00388991,0.0134615,1196,1723,-0.00052293,-0.0350518
-21,-699,0.00512695,0.0307617,0.00270344,0.00645925,-0.000373369,0.00649601,0.00266668,-1.47266,0.00377044,0.00905046,1203,1723,0.00514863,-0.0307919
-14,-699,-0.0192871,0.0257568,0.00411112,0.00611387,-0.000480787,0.00622331,0.00400168,-1.34698,0.00364169,0.00909916,1210,1723,-0.0192299,-0.0256975
-7,-699,-0.0338135,0.0333252,0.00527613,0.00609862,-0.00102524,0.00679202,0.00458273,-0.976134,0.00400039,0.00772459,1217,1723,-0.0338392,-0.0333793
0,-699,-0.019165,0.0333252,0.00708392,0.0058761,-0.00258917,0.00913868,0.00382135,-0.670825,0.00529973,0.00935953,1224,1723,-0.0191941,-0.0333846
7,-699,-0.0195313,0.0292969,0.00862579,0.00485743,-0.00359304,0.0107987,0.00268451,-0.543911,0.00649203,0.0144765,1231,1723,-0.0194769,-0.0293526
14,-699,-0.0163574,0.0709229,0.00978457,0.00362494,-0.00466281,0.0122929,0.00111664,-0.493535,0.00784956,0.0155995,1238,1723,-0.0163968,-0.0708816
21,-699,-0.00488281,0.0506592,0.0113424,0.00260512,-0.00590959,0.0143228,-0.000375284,-0.467108,0.00967603,0.0157688,1245,1723,-0.00482661,-0.0506135
28,-699,-0.0314941,0.017334,0.0125438,0.00126929,-0.00689585,0.0158133,-0.00200028,-0.442743,0.0112683,0.0145782,1252,1723,-0.0315076,-0.0172901
35,-699,-0.0401611,0.026001,0.0134722,-0.000184133,-0.00771151,0.0169441,-0.00365603,-0.423039,0.0126915,0.0120756,1259,1723,-0.0401537,-0.025982
42,-699,-0.020874,0.0394287,0.0139992,-0.00166875,-0.00807021,0.0174124,-0.00508198,-0.400126,0.013622,0.0119289,1266,1723,-0.0208551,-0.0394626
49,-699,-0.0189209,0.0419922,0.0141498,-0.00169825,-0.00873999,0.0180231,-0.00557159,-0.417163,0.0142407,0.0140777,1273,1723,-0.0189112,-0.0419565
56,-699,-0.0133057,0.0441895,0.0144039,-0.00252464,-0.00881244,0.0181586,-0.00627933,-0.402774,0.0146544,0.0139846,1280,1723,-0.0132857,-0.044149
63,-699,0.00292969,0.046875,0.0152423,-0.0034712,-0.00857271,0.0185758,-0.0068046,-0.370848,0.0151696,0.0116719,1287,1723,0.00292979,-0.046881
70,-699,-0.00341797,0.0506592,0.0158041,-0.00471308,-0.00772588,0.018388,-0.00729691,-0.322745,0.0152831,0.00995701,1294,1723,-0.00342473,-0.0506808
77,-699,-0.019043,0.0531006,0.0160952,-0.00527156,-0.00691128,0.0181358,-0.00731219,-0.287104,0.0151289,0.00968471,1301,1723,-0.0190889,-0.0530609
84,-699,-0.0251465,0.043335,0.0169593,-0.0063799,-0.0056489,0.0182547,-0.00767523,-0.225411,0.0153804,0.0111007,1308,1723,-0.0251418,-0.0433387
91,-699,-0.0302734,0.0368652,0.017662,-0.0076901,-0.00425339,0.0183565,-0.00838467,-0.16187,0.0157928,0.0110393,1315,1723,-0.030225,-0.0368078
98,-699,-0.0220947,0.0513916,0.0184533,-0.00924526,-0.00269394,0.0187129,-0.00950484,-0.0960598,0.0165781,0.0106346,1322,1723,-0.0220477,-0.0514491
105,-699,-0.0355225,0.0579834,0.0183197,-0.0108631,-0.000578969,0.0183312,-0.0108746,-0.019829,0.0170442,0.0143925,1329,1723,-0.0355563,-0.0579424
112,-699,-0.071167,0.0186768,0.0181483,-0.0112167,0.000415102,0.0181541,-0.0112226,0.0141322,0.0171173,0.0211281,1336,1723,-0.071218,-0.0186323
119,-699,-0.0543213,0.0229492,0.0179391,-0.0113012,0.00109863,0.0179804,-0.0113424,0.0375018,0.0170735,0.0148153,1343,1723,-0.0543158,-0.0229987
126,-699,-0.0111084,0.0288086,0.0168388,-0.0114272,0.00164495,0.0169342,-0.0115226,0.0579346,0.0165283,0.0142252,1350,1723,-0.0111251,-0.0287978
133,-699,-0.00671387,0.0234375,0.0156156,-0.0106047,0.00186056,0.015747,-0.0107361,0.0704877,0.015381,0.0134721,1357,1723,-0.00672682,-0.023398
140,-699,-0.0279541,0.0239258,0.014193,-0.00906006,0.00179206,0.0143303,-0.00919736,0.0764659,0.013691,0.0154597,1364,1723,-0.0278973,-0.0239858
147,-699,-0.0302734,0.0368652,0.0126259,-0.00714182,0.00139192,0.0127235,-0.00723935,0.0699535,0.0116696,0.0135996,1371,1723,-0.030301,-0.0368835
154,-699,-0.0421143,0.0455322,0.0106303,-0.00641567,0.00154448,0.0107691,-0.00655448,0.0896339,0.0101,0.0130101,1378,1723,-0.0420917,-0.0455445
161,-699,-0.013916,0.0234375,0.00801187,-0.00314766,0.00101036,0.00810261,-0.0032384,0.0895671,0.0067455,0.00924941,1385,1723,-0.0138918,-0.0234261
168,-699,-0.0192871,0.0340576,0.00583876,-0.000451353,0.000285983,0.00585174,-0.000464329,0.0453408,0.00406479,0.0100417,1392,1723,-0.0193428,-0.0340497
175,-699,-0.027832,0.0375977,0.00432527,0.00178523,-0.000557849,0.00444239,0.00166811,-0.206936,0.00259118,0.0113152,1399,1723,-0.0278337,-0.0376452
182,-699,-0.0118408,0.0307617,0.00346405,0.00265342,-0.00110665,0.00423728,0.00188019,-0.609856,0.00245155,0.0116438,1406,1723,-0.0118826,-0.0307711
189,-699,0.000732422,0.0368652,0.00253517,0.00368565,-0.0017607,0.00496269,0.00125813,-0.943288,0.002979,0.0146762,1413,1723,0.000764916,-0.0368246
196,-699,-0.00878906,0.0505371,0.00193304,0.00386661,-0.00214766,0.00525506,0.000544593,-0.996891,0.00333669,0.0164484,1420,1723,-0.00881699,-0.0505143
203,-699,-0.0324707,0.0490723,0.00174766,0.00303976,-0.00188202,0.00438352,0.000403887,-0.950734,0.00279746,0.0135457,1427,1723,-0.0324805,-0.0490556
210,-699,-0.027832,0.026123,0.00171273,0.0022254,-0.00148954,0.0034805,0.000457627,-0.870608,0.00218383,0.0132747,1434,1723,-0.0278328,-0.0260643
217,-699,-0.0214844,0.0401611,0.00161322,0.0014009,-0.00107662,0.0025889,0.000425219,-0.736254,0.00160311,0.0140062,1441,1723,-0.0215016,-0.0402046
224,-699,-0.00927734,0.0493164,0.00137027,0.000820524,-0.00076013,0.0019037,0.000287093,-0.611908,0.00118508,0.014689,1448,1723,-0.00922565,-0.0492765
231,-699,0.00158691,0.0452881,0.00109806,0.000493136,-0.000545986,0.00141976,0.000171431,-0.532455,0.000894855,0.0109446,1455,1723,0.00154528,-0.0453268
238,-699,-0.0216064,0.0395508,0.00106438,0.00033231,-0.000456208,0.00128325,0.000113446,-0.447313,0.000820301,0.00939433,1462,1723,-0.0215664,-0.0395891
245,-699,-0.0251465,0.0274658,0.00112927,0.00025092,-0.000279614,0.00121073,0.000169462,-0.283477,0.000757015,0.0106602,1469,1723,-0.0251564,-0.0274905
252,-699,-0.0255127,0.0222168,0.00110458,0.000237546,-9.22232e-05,0.00111428,0.000227845,-0.104804,0.000679755,0.00937818,1476,1723,-0.0255248,-0.0222022
259,-699,-0.0358887,0.0305176,0.00112055,5.17583e-05,-3.17701e-05,0.00112149,5.08148e-05,-0.0296903,0.000731311,0.00965762,1483,1723,-0.0359127,-0.0305592
266,-699,-0.0310059,0.0246582,0.00119525,-0.000108023,5.61654e-05,0.00119766,-0.000110439,0.0429895,0.000837686,0.0120761,1490,1723,-0.0309739,-0.0246863
273,-699,-0.019043,0.0415039,0.00121149,-0.000109696,0.000114598,0.00122135,-0.000119562,0.085884,0.000856875,0.0113159,1497,1723,-0.0190493,-0.0414629
280,-699,-0.012207,0.0515137,0.00128094,-0.000143733,3.33247e-05,0.00128172,-0.000144512,0.023374,0.000906501,0.0108672,1504,1723,-0.0122338,-0.0514787
287,-699,-0.0283203,0.0386963,0.00125916,-0.000381901,-3.07785e-05,0.00125974,-0.000382478,-0.0187464,0.000992204,0.00975038,1511,1723,-0.0283021,-0.0387374
294,-699,-0.0220947,0.0330811,0.00140476,-0.000641026,-0.000325396,0.00145527,-0.000691535,-0.153995,0.00126534,0.0103949,1518,1723,-0.022125,-0.0330572
301,-699,-0.00976563,0.0565186,0.00169196,-0.000750701,-0.00061244,0.00183691,-0.000895655,-0.232405,0.00160854,0.0113456,1525,1723,-0.00979552,-0.0564744
308,-699,-0.00793457,0.0618896,0.0017626,-0.000836622,-0.000804127,0.00199125,-0.00106528,-0.277045,0.00179148,0.0152066,1532,1723,-0.00798598,-0.0618888
315,-699,-0.0189209,0.038208,0.00151254,-0.000756754,-0.000944288,0.00185407,-0.00109828,-0.347043,0.00172306,0.0179041,1539,1723,-0.018911,-0.0382514
322,-699,-0.052002,0.0178223,0.0014364,-0.000547018,-0.00107046,0.00190393,-0.00101455,-0.411785,0.00171086,0.0193261,1546,1723,-0.0519871,-0.0178555
329,-699,-0.067627,-0.000732422,0.00124125,-0.000375714,-0.00120271,0.00188196,-0.00101642,-0.48948,0.00169807,0.014939,1553,1723,-0.0676166,0.000721672
336,-699,-0.022583,0.0235596,0.00105058,-0.000179921,-0.00149953,0.00205617,-0.00118551,-0.590723,0.00189395,0.0119513,1560,1723,-0.0225557,-0.0235341
343,-699,-0.0114746,0.038208,0.000926743,-0.000450831,-0.00161503,0.00199373,-0.00151782,-0.583834,0.0020336,0.015597,1567,1723,-0.0114349,-0.038254
350,-699,-0.0509033,0.0413818,0.000514235,4.59568e-05,-0.00193198,0.00222621,-0.00166602,-0.725097,0.00225493,0.0259744,1574,1723,-0.0509239,-0.0413351
357,-699,-0.0812988,0.00158691,3.85736e-05,0.000749149,-0.0021094,0.00253297,-0.00174525,-0.86883,0.00248395,0.0369613,1581,1723,-0.0812608,-0.00163048
364,-699,-0.0164795,-0.0963135,0.000219685,0.001275,-0.00183354,0.00265529,-0.00116061,-0.925502,0.00225875,0.0404959,1588,1723,-0.016516,0.0962616
371,-699,0.0202637,-0.0489502,0.00188993,0.00191898,-0.00171533,0.00361985,0.000189065,-0.789632,0.00235275,0.0396693,1595,1723,0.020268,0.0489269
378,-699,0.213623,0.202759,0.00368872,0.00197329,-0.00222977,0.00522006,0.000441958,-0.60179,0.00334247,0.0412871,1602,1723,0.213684,-0.202757
385,-699,-0.0234375,0.0744629,0.00553906,0.00198868,-0.00458442,0.00867999,-0.00115225,-0.600677,0.0062065,0.0434501,1609,1723,-0.0234718,-0.074476
392,-699,0.374146,-1.03271,0.00879096,0.00251315,-0.00623447,0.0126321,-0.00132801,-0.552186,0.00889719,0.0467427,1616,1723,0.374193,1.0327
399,-699,0.609863,-0.915161,0.0122665,0.00217456,-0.00820249,0.0168508,-0.00240976,-0.509646,0.0121173,0.0444145,1623,1723,0.609869,0.915115
406,-699,0.562134,-0.873779,0.0158319,0.00140571,-0.0105145,0.0213697,-0.00413204,-0.48476,0.0158049,0.046027,1630,1723,0.562166,0.873813
413,-699,-0.672119,-0.110718,0,0,0,0,0,0,0,-1,1637,1723,-0.67217,0.110695
420,-699,0.432617,0.142822,0.0247153,0.000532729,-0.0160179,0.0326931,-0.00744516,-0.462096,0.0246548,0.0427739,1644,1723,0.432649,-0.142847
427,-699,1.47498,0.188232,0.0286784,0.000874381,-0.0184957,0.0379142,-0.00836142,-0.463125,0.0284755,0.0475198,1651,1723,1.47492,-0.188236
434,-699,2.48938,0.243408,0.0321576,0.00195573,-0.0223761,0.0440516,-0.00993828,-0.488568,0.0331804,0.0480794,1658,1723,2.48941,-0.243368
441,-699,0,0,0,0,0,0,0,0,0,-1,1665,1723,0,0
448,-699,0,0,0,0,0,0,0,0,0,-1,1672,1723,0,0
455,-699,0,0,0,0,0,0,0,0,0,-1,1679,1723,0,0
462,-699,0,0,0,0,0,0,0,0,0,-1,1686,1723,0,0
469,-699,0,0,0,0,0,0,0,0,0,-1,1693,1723,0,0
476,-699,0,0,0,0,0,0,0,0,0,-1,1700,1723,0,0
483,-699,0,0,0,0,0,0,0,0,0,-1,1707,1723,0,0
490,-699,0,0,0,0,0,0,0,0,0,-1,1714,1723,0,0
497,-699,0,0,0,0,0,0,0,0,0,-1,1721,1723,0,0
504,-699,0,0,0,0,0,0,0,0,0,-1,1728,1723,0,0
511,-699,0,0,0,0,0,0,0,0,0,-1,1735,1723,0,0
518,-699,0,0,0,0,0,0,0,0,0,-1,1742,1723,0,0
525,-699,0,0,0,0,0,0,0,0,0,-1,1749,1723,0,0
532,-699,0,0,0,0,0,0,0,0,0,-1,1756,1723,0,0
539,-699,0,0,0,0,0,0,0,0,0,-1,1763,1723,0,0
546,-699,0,0,0,0,0,0,0,0,0,-1,1770,1723,0,0
553,-699,0,0,0,0,0,0,0,0,0,-1,1777,1723,0,0
560,-699,0,0,0,0,0,0,0,0,0,-1,1784,1723,0,0
567,-699,0,0,0,0,0,0,0,0,0,-1,1791,1723,0,0
574,-699,0,0,0,0,0,0,0,0,0,-1,1798,1723,0,0
581,-699,0,0,0,0,0,0,0,0,0,-1,1805,1723,0,0
588,-699,0,0,0,0,0,0,0,0,0,-1,1812,1723,0,0
595,-699,0,0,0,0,0,0,0,0,0,-1,1819,1723,0,0
602,-699,0,0,0,0,0,0,0,0,0,-1,1826,1723,0,0
609,-699,0,0,0,0,0,0,0,0,0,-1,1833,1723,0,0
616,-699,0,0,0,0,0,0,0,0,0,-1,1840,1723,0,0
623,-699,0,0,0,0,0,0,0,0,0,-1,1847,1723,0,0
630,-699,0,0,0,0,0,0,0,0,0,-1,1854,1723,0,0
637,-699,0,0,0,0,0,0,0,0,0,-1,1861,1723,0,0
644,-699,0,0,0,0,0,0,0,0,0,-1,1868,1723,0,0
651,-699,0,0,0,0,0,0,0,0,0,-1,1875,1723,0,0
658,-699,0,0,0,0,0,0,0,0,0,-1,1882,1723,0,0
665,-699,0,0,0,0,0,0,0,0,0,-1,1889,1723,0,0
672,-699,0,0,0,0,0,0,0,0,0,-1,1896,1723,0,0
679,-699,0,0,0,0,0,0,0,0,0,-1,1903,1723,0,0
686,-699,0,0,0,0,0,0,0,0,0,-1,1910,1723,0,0
693,-699,0,0,0,0,0,0,0,0,0,-1,1917,1723,0,0
700,-699,0,0,0,0,0,0,0,0,0,-1,1924,1723,0,0
707,-699,0,0,0,0,0,0,0,0,0,-1,1931,1723,0,0
714,-699,0,0,0,0,0,0,0,0,0,-1,1938,1723,0,0
721,-699,0,0,0,0,0,0,0,0,0,-1,1945,1723,0,0
728,-699,0,0,0,0,0,0,0,0,0,-1,1952,1723,0,0
735,-699,0,0,0,0,0,0,0,0,0,-1,1959,1723,0,0
742,-699,0,0,0,0,0,0,0,0,0,-1,1966,1723,0,0
749,-699,0,0,0,0,0,0,0,0,0,-1,1973,1723,0,0
756,-699,0,0,0,0,0,0,0,0,0,-1,1980,1723,0,0
763,-699,0,0,0,0,0,0,0,0,0,-1,1987,1723,0,0
770,-699,0,0,0,0,0,0,0,0,0,-1,1994,1723,0,0
777,-699,0,0,0,0,0,0,0,0,0,-1,2001,1723,0,0
784,-699,0,0,0,0,0,0,0,0,0,-1,2008,1723,0,0
791,-699,0,0,0,0,0,0,0,0,0,-1,2015,1723,0,0
798,-699,0,0,0,0,0,0,0,0,0,-1,2022,1723,0,0
805,-699,0,0,0,0,0,0,0,0,0,-1,2029,1723,0,0
812,-699,0,0,0,0,0,0,0,0,0,-1,2036,1723,0,0
-700,-706,0,0,0,0,0,0,0,0,0,-1,524,1730,0,0
-693,-706,0,0,0,0,0,0,0,0,0,-1,531,1730,0,0
-686,-706,0,0,0,0,0,0,0,0,0,-1,538,1730,0,0
-679,-706,0,0,0,0,0,0,0,0,0,-1,545,1730,0,0
-672,-706,0,0,0,0,0,0,0,0,0,-1,552,1730,0,0
-665,-706,0,0,0,0,0,0,0,0,0,-1,559,1730,0,0
-658,-706,0,0,0,0,0,0,0,0,0,-1,566,1730,0,0
-651,-706,0,0,0,0,0,0,0,0,0,-1,573,1730,0,0
-644,-706,0,0,0,0,0,0,0,0,0,-1,580,1730,0,0
-637,-706,0,0,0,0,0,0,0,0,0,-1,587,1730,0,0
-630,-706,0,0,0,0,0,0,0,0,0,-1,594,1730,0,0
-623,-706,0,0,0,0,0,0,0,0,0,-1,601,1730,0,0
-616,-706,0,0,0,0,0,0,0,0,0,-1,608,1730,0,0
-609,-706,0,0,0,0,0,0,0,0,0,-1,615,1730,0,0
-602,-706,0,0,0,0,0,0,0,0,0,-1,622,1730,0,0
-595,-706,0,0,0,0,0,0,0,0,0,-1,629,1730,0,0
-588,-706,0,0,0,0,0,0,0,0,0,-1,636,1730,0,0
-581,-706,0,0,0,0,0,0,0,0,0,-1,643,1730,0,0
-574,-706,0,0,0,0,0,0,0,0,0,-1,650,1730,0,0
-567,-706,0,0,0,0,0,0,0,0,0,-1,657,1730,0,0
-560,-706,0,0,0,0,0,0,0,0,0,-1,664,1730,0,0
-553,-706,0,0,0,0,0,0,0,0,0,-1,671,1730,0,0
-546,-706,0,0,0,0,0,0,0,0,0,-1,678,1730,0,0
-539,-706,0,0,0,0,0,0,0,0,0,-1,685,1730,0,0
-532,-706,0,0,0,0,0,0,0,0,0,-1,692,1730,0,0
-525,-706,0,0,0,0,0,0,0,0,0,-1,699,1730,0,0
-518,-706,0,0,0,0,0,0,0,0,0,-1,706,1730,0,0
-511,-706,0,0,0,0,0,0,0,0,0,-1,713,1730,0,0
-504,-706,0,0,0,0,0,0,0,0,0,-1,720,1730,0,0
-497,-706,0,0,0,0,0,0,0,0,0,-1,727,1730,0,0
-490,-706,0,0,0,0,0,0,0,0,0,-1,734,1730,0,0
-483,-706,0,0,0,0,0,0,0,0,0,-1,741,1730,0,0
-476,-706,0,0,0,0,0,0,0,0,0,-1,748,1730,0,0
-469,-706,0,0,0,0,0,0,0,0,0,-1,755,1730,0,0
-462,-706,0,0,0,0,0,0,0,0,0,-1,762,1730,0,0
-455,-706,0,0,0,0,0,0,0,0,0,-1,769,1730,0,0
-448,-706,0,0,0,0,0,0,0,0,0,-1,776,1730,0,0
-441,-706,0,0,0,0,0,0,0,0,0,-1,783,1730,0,0
-434,-706,0,0,0,0,0,0,0,0,0,-1,790,1730,0,0
-427,-706,0,0,0,0,0,0,0,0,0,-1,797,1730,0,0
-420,-706,0,0,0,0,0,0,0,0,0,-1,804,1730,0,0
-413,-706,0,0,0,0,0,0,0,0,0,-1,811,1730,0,0
-406,-706,0,0,0,0,0,0,0,0,0,-1,818,1730,0,0
-399,-706,0,0,0,0,0,0,0,0,0,-1,825,1730,0,0
-392,-706,0,0,0,0,0,0,0,0,0,-1,832,1730,0,0
-385,-706,0,0,0,0,0,0,0,0,0,-1,839,1730,0,0
-378,-706,0,0,0,0,0,0,0,0,0,-1,846,1730,0,0
-371,-706,0,0,0,0,0,0,0,0,0,-1,853,1730,0,0
-364,-706,0,0,0,0,0,0,0,0,0,-1,860,1730,0,0
-357,-706,0,0,0,0,0,0,0,0,0,-1,867,1730,0,0
-350,-706,0,0,0,0,0,0,0,0,0,-1,874,1730,0,0
-343,-706,0,0,0,0,0,0,0,0,0,-1,881,1730,0,0
-336,-706,0,0,0,0,0,0,0,0,0,-1,888,1730,0,0
-329,-706,0,0,0,0,0,0,0,0,0,-1,895,1730,0,0
-322,-706,0,0,0,0,0,0,0,0,0,-1,902,1730,0,0
-315,-706,0,0,0,0,0,0,0,0,0,-1,909,1730,0,0
-308,-706,-2.21198,0.420776,0.0709471,0.0126353,-0.012063,0.0733441,0.0102383,-0.196148,0.0458658,0.0472381,916,1730,-2.212,-0.420776
-301,-706,-2.08789,0.479004,0.065774,0.0140356,-0.0107166,0.0679059,0.0119037,-0.196369,0.0418706,0.0467322,923,1730,-2.08788,-0.479038
-294,-706,-1.60175,0.368896,0.059132,0.0167849,-0.0113087,0.0619628,0.0139542,-0.245276,0.037532,0.0477293,930,1730,-1.60177,-0.368896
-287,-706,-1.15643,0.27124,0.0511037,0.018154,-0.0125212,0.0553219,0.0139358,-0.324942,0.0332249,0.0489985,937,1730,-1.15644,-0.271204
-280,-706,-0.546814,0.12146,0.0424852,0.0191572,-0.0143311,0.049299,0.0123434,-0.443821,0.0296216,0.0477451,944,1730,-0.546822,-0.121428
-273,-706,0.431274,-0.0065918,0.0335588,0.0189833,-0.0161503,0.0439894,0.00855266,-0.573454,0.026932,0.0419904,951,1730,0.4313,0.00662512
-266,-706,0.930237,-1.23706,0.0262049,0.019885,-0.0166681,0.0400099,0.00607996,-0.69172,0.0248953,0.0444152,958,1730,0.930243,1.23711
-259,-706,0.51825,-1.11487,0.0199247,0.0204204,-0.0174224,0.0375966,0.00274841,-0.79251,0.0242004,0.044743,965,1730,0.518262,1.11482
-252,-706,0.57196,-1.00024,0.0145584,0.019813,-0.0187168,0.036086,-0.00171459,-0.855128,0.0246487,0.0433206,972,1730,0.571954,1.00019
-245,-706,0.581238,-0.786499,0.0099465,0.0205222,-0.0174126,0.0334321,-0.00296346,-0.932812,0.0233387,0.0451201,979,1730,0.581255,0.786536
-238,-706,0.213501,-0.529419,0.00603221,0.0197432,-0.0165592,0.0308098,-0.00503446,-0.981656,0.0224074,0.0455758,986,1730,0.213521,0.529382
-231,-706,0.298706,0.0335693,0.00323995,0.0194715,-0.0154933,0.0288459,-0.00613447,-1.02666,0.0215682,0.0421288,993,1730,0.298735,-0.0335952
-224,-706,-0.0671387,-0.0252686,0.000981427,0.0186629,-0.0142329,0.0265773,-0.00693296,-1.06331,0.0204252,0.043692,1000,1730,-0.0671585,0.0253086
-217,-706,-0.173279,0.0419922,-0.000693999,0.0175877,-0.0127496,0.0241346,-0.00724098,-1.0964,0.0189698,0.0377278,1007,1730,-0.173308,-0.0419936
-210,-706,0.078186,-0.0644531,-0.00153615,0.0148393,-0.0107268,0.0201461,-0.00684302,-1.11138,0.0162009,0.0338655,1014,1730,0.0782101,0.0644503
-203,-706,-0.0264282,-0.0498047,-0.00233486,0.0132316,-0.00904279,0.0173794,-0.00648271,-1.14074,0.0142476,0.0276337,1021,1730,-0.0264475,0.049767
-196,-706,-0.0437012,-0.0145264,-0.00291691,0.0114282,-0.00762446,0.0147236,-0.00621231,-1.16283,0.0124158,0.0204933,1028,1730,-0.0436885,0.0145548
-189,-706,-0.0549316,0.0234375,-0.00305251,0.009168,-0.00612756,0.0117112,-0.0055957,-1.17739,0.010198,0.0162829,1035,1730,-0.0549581,-0.0234092
-182,-706,-0.0289307,0.0301514,-0.00318092,0.00751341,-0.00470589,0.00928928,-0.00495679,-1.20995,0.00835079,0.0126465,1042,1730,-0.0289055,-0.0301937
-175,-706,-0.00830078,0.0106201,-0.00328588,0.00593737,-0.00333377,0.00701618,-0.00436469,-1.25783,0.00662992,0.0137491,1049,1730,-0.0083037,-0.0106147
-168,-706,0.0185547,-0.00598145,-0.00299458,0.00439827,-0.00233973,0.00507653,-0.00367284,-1.28864,0.00507307,0.0140409,1056,1730,0.018508,0.00596834
-161,-706,0.00305176,0.00610352,-0.00291281,0.0030952,-0.00201406,0.0037079,-0.0035255,-1.27548,0.00417665,0.0113716,1063,1730,0.00309727,-0.00615046
-154,-706,-0.0125732,0.0339355,-0.00278898,0.00216541,-0.00125264,0.00246411,-0.00308768,-1.33671,0.00321206,0.012862,1070,1730,-0.0125343,-0.0339072
-147,-706,-0.0266113,0.0205078,-0.00206623,0.00131155,-0.000630179,0.00142529,-0.00217997,-1.39223,0.00209665,0.012193,1077,1730,-0.0266423,-0.0204606
-140,-706,-0.0252686,0.0187988,-0.00129279,0.000891262,-0.000470873,0.000988455,-0.00138998,-1.36724,0.0013797,0.0105747,1084,1730,-0.0253212,-0.0188293
-133,-706,-0.00158691,0.0211182,-0.000771437,0.000633153,-0.000141624,0.000647291,-0.000785575,-1.4713,0.000828549,0.00901507,1091,1730,-0.00162677,-0.0210638
-126,-706,-0.00610352,0.0151367,-0.000325003,0.000209682,7.57175e-05,0.000220198,-0.000335519,1.4328,0.000323138,0.0134507,1098,1730,-0.00612507,-0.0151065
-119,-706,-0.00183105,0.0201416,-0.000238711,-5.66047e-05,0.000343422,0.00020763,-0.000502945,0.914984,0.000421895,0.0169144,1105,1730,-0.00177909,-0.0201117
-112,-706,-0.0197754,0.0599365,-0.000266737,-0.000210383,0.000765843,0.000527801,-0.00100492,0.803786,0.000899096,0.0125163,1112,1730,-0.0197963,-0.0599965
-105,-706,-0.0291748,0.0701904,-0.000222779,0.000122974,0.00115127,0.00111427,-0.00121408,0.859922,0.00134468,0.00898694,1119,1730,-0.0292259,-0.0702109
-98,-706,-0.0168457,0.036377,-0.00028904,0.000556805,0.00131963,0.00151962,-0.00125186,0.94047,0.0016026,0.0106808,1126,1730,-0.0168085,-0.0364194
-91,-706,-0.019043,0.0252686,-0.000567191,0.00105829,0.00149311,0.00194553,-0.00145443,1.03464,0.00196978,0.0130171,1133,1730,-0.0190536,-0.0253281
-84,-706,-0.0262451,0.0432129,-0.00073177,0.00175917,0.00168023,0.0026052,-0.0015778,1.10434,0.00243921,0.0133304,1140,1730,-0.0262515,-0.0431612
-77,-706,-0.0290527,0.0314941,-0.000602065,0.00236366,0.00173049,0.00315971,-0.00139812,1.13964,0.00269618,0.0143535,1147,1730,-0.0291097,-0.0314727
-70,-706,-0.0285645,0.0301514,-0.000494662,0.00294578,0.00163543,0.00359911,-0.001148,1.19073,0.00285994,0.0174052,1154,1730,-0.0285055,-0.0301666
-63,-706,-0.038208,0.0415039,-0.000634455,0.00353723,0.00150734,0.00402487,-0.00112209,1.25791,0.00312516,0.012827,1161,1730,-0.0382648,-0.0415208
-56,-706,-0.0406494,0.0333252,-0.000835019,0.00438986,0.00135053,0.0047183,-0.00116346,1.33223,0.00359663,0.0123472,1168,1730,-0.0406426,-0.0333822
-49,-706,-0.0389404,0.0534668,-0.000669606,0.00505118,0.00107028,0.00524486,-0.000863286,1.39177,0.00381702,0.0120759,1175,1730,-0.0389405,-0.0535222
-42,-706,-0.0252686,0.0563965,-0.000619042,0.00567498,0.000774513,0.00576889,-0.000712948,1.45014,0.00410427,0.0154763,1182,1730,-0.02522,-0.0564145
-35,-706,-0.0216064,0.0354004,-0.0003417,0.00612451,0.000316861,0.00614,-0.00035719,1.52195,0.00421744,0.0148624,1189,1730,-0.021577,-0.0354566
-28,-706,-0.00769043,0.0250244,0.000182414,0.00618777,-0.000108247,0.00618972,0.000180464,-1.55278,0.00406766,0.00921044,1196,1730,-0.00772237,-0.0250409
-21,-706,-0.0111084,0.0305176,0.000594006,0.0058765,-0.000385982,0.00590456,0.000565952,-1.49824,0.00376194,0.00926366,1203,1730,-0.0110548,-0.030482
-14,-706,-0.0169678,0.0117188,0.00126915,0.00533845,-0.000515985,0.00540285,0.00120474,-1.44661,0.00327504,0.0094694,1210,1730,-0.0170035,-0.0117738
-7,-706,-0.020874,0.0168457,0.00200557,0.00513705,-0.00101241,0.00543585,0.00170677,-1.28381,0.00320997,0.00864515,1217,1730,-0.0208692,-0.0168346
0,-706,-0.0137939,0.0317383,0.00330951,0.00472155,-0.00223071,0.0063553,0.00167576,-0.938661,0.00380339,0.0123112,1224,1730,-0.0137859,-0.0317165
7,-706,-0.0134277,0.0245361,0.00447768,0.00384336,-0.00301269,0.00718986,0.00113118,-0.732954,0.00446421,0.0139577,1231,1730,-0.0134845,-0.0245343
14,-706,-0.0230713,0.0300293,0.00554849,0.0028268,-0.00378589,0.00821069,0.000164606,-0.612863,0.00541975,0.0139831,1238,1730,-0.0230422,-0.0299724
21,-706,-0.0205078,0.0185547,0.00699161,0.00208368,-0.0046392,0.00978589,-0.000710603,-0.542124,0.00677323,0.0120659,1245,1730,-0.0205564,-0.0185627
28,-706,-0.0247803,0.0115967,0.00817001,0.00116968,-0.00529648,0.0110184,-0.00167869,-0.493417,0.00796434,0.0120885,1252,1730,-0.0247672,-0.011563
35,-706,-0.0186768,0.0255127,0.00910468,0.000212585,-0.005827,0.0119881,-0.00267085,-0.459511,0.00901521,0.0129312,1259,1730,-0.0187277,-0.0254715
42,-706,-0.0216064,0.0427246,0.0098664,-0.000795359,-0.00609153,0.0126303,-0.00355923,-0.425946,0.00982392,0.011725,1266,1730,-0.0216409,-0.0427627
49,-706,-0.0108643,0.0383301,0.0103677,-0.00125049,-0.00655193,0.013315,-0.00419773,-0.42271,0.0105578,0.0136056,1273,1730,-0.0108969,-0.0383264
56,-706,0.00732422,0.0300293,0.010697,-0.00192031,-0.00656895,0.013496,-0.00471937,-0.402805,0.010916,0.0122871,1280,1730,0.00735971,-0.0299956
63,-706,-0.00549316,0.0201416,0.0113274,-0.00275524,-0.00636351,0.0137768,-0.00520468,-0.367438,0.0113254,0.0104051,1287,1730,-0.00551186,-0.0201104
70,-706,-0.0194092,-0.00549316,0.0116178,-0.0036995,-0.00565374,0.0134786,-0.00556029,-0.317958,0.0113046,0.0113521,1294,1730,-0.0194211,0.00550879
77,-706,-0.0305176,0.0078125,0.0115914,-0.00410427,-0.00506018,0.0130813,-0.00559421,-0.286351,0.0110674,0.010389,1301,1730,-0.0304906,-0.00783728
84,-706,-0.0334473,0.0290527,0.0119252,-0.00487433,-0.00417469,0.0129054,-0.00585454,-0.230623,0.0110831,0.00849951,1308,1730,-0.033505,-0.0290143
91,-706,-0.0144043,0.0455322,0.0121231,-0.00573493,-0.0031794,0.0126723,-0.0062841,-0.171039,0.0111497,0.00963498,1315,1730,-0.0143859,-0.0455663
98,-706,-0.00268555,0.0529785,0.0121485,-0.00670752,-0.00204717,0.0123682,-0.00692721,-0.106909,0.0112869,0.0132873,1322,1730,-0.00266235,-0.0530152
105,-706,0.00170898,0.0422363,0.0115837,-0.00762996,-0.000534137,0.0115985,-0.0076448,-0.0277713,0.011188,0.0145163,1329,1730,0.00165659,-0.0422554
112,-706,-0.0404053,0.0391846,0.0111384,-0.00752574,0.000159139,0.0111398,-0.00752709,0.00852565,0.0108444,0.0143355,1336,1730,-0.0404491,-0.0391264
119,-706,-0.0196533,0.0637207,0.0107204,-0.00714957,0.000572806,0.0107388,-0.00716792,0.0320102,0.0104067,0.0119335,1343,1730,-0.0196089,-0.0637637
126,-706,0.0012207,0.0599365,0.00979747,-0.00698146,0.000888664,0.0098444,-0.0070284,0.0527663,0.00978663,0.0117206,1350,1730,0.00127631,-0.0599384
133,-706,-0.00378418,0.0351563,0.00888495,-0.00616964,0.000994994,0.00895042,-0.00623512,0.0657114,0.00881397,0.0104643,1357,1730,-0.00376798,-0.035196
140,-706,0.00012207,0.0262451,0.00794543,-0.00495468,0.000902539,0.00800827,-0.00501752,0.0695123,0.00758623,0.0116996,1364,1730,8.2223e-05,-0.0261907
147,-706,-0.000366211,0.0327148,0.00683198,-0.00356379,0.00064435,0.00687177,-0.00360358,0.0616673,0.00614527,0.0207422,1371,1730,-0.000326921,-0.0326658
154,-706,-0.00109863,0.0393066,0.00565848,-0.00273979,0.000789218,0.005732,-0.00281331,0.0928902,0.00502865,0.0188101,1378,1730,-0.00108661,-0.0393541
161,-706,-0.0227051,0.0300293,0.00422717,-0.000704391,0.000396192,0.0042588,-0.000736017,0.0796573,0.00311367,0.0094006,1385,1730,-0.0227179,-0.0299763
168,-706,-0.0256348,0.0246582,0.00299829,0.000942099,-8.98402e-05,0.00300221,0.000938181,-0.0435818,0.00177349,0.00927342,1392,1730,-0.0256548,-0.0246876
175,-706,-0.0258789,0.0356445,0.00223254,0.00216954,-0.000630787,0.00283261,0.00156947,-0.760452,0.00163859,0.00952795,1399,1730,-0.0258604,-0.0357017
182,-706,-0.0179443,0.0418701,0.00199097,0.00249352,-0.000859048,0.00313729,0.0013472,-0.927679,0.00181732,0.0102786,1406,1730,-0.0180046,-0.0418313
189,-706,-0.0236816,0.0300293,0.00157764,0.00302927,-0.00118977,0.00369714,0.00090977,-1.05929,0.0022244,0.0130498,1413,1730,-0.0236909,-0.0299846
196,-706,-0.0317383,0.0323486,0.00132461,0.00295683,-0.00137746,0.0037418,0.000539648,-1.05283,0.00233552,0.0121926,1420,1730,-0.0317285,-0.0323742
203,-706,-0.0321045,0.0487061,0.0013286,0.00221381,-0.00111024,0.00296642,0.000575995,-0.975072,0.00181632,0.0127253,1427,1730,-0.032109,-0.0487044
210,-706,-0.0316162,0.0296631,0.00137286,0.00151686,-0.000799972,0.00224807,0.000641655,-0.830277,0.00133717,0.0115555,1434,1730,-0.0315642,-0.0296952
217,-706,-0.0296631,0.0413818,0.00134707,0.000848092,-0.000505127,0.00166096,0.0005342,-0.556015,0.000979088,0.0123826,1441,1730,-0.0296967,-0.0413599
224,-706,-0.0145264,0.0568848,0.00119426,0.00038602,-0.000284381,0.00128429,0.000295989,-0.306604,0.000776567,0.0174535,1448,1730,-0.0145289,-0.0569372
231,-706,-0.00598145,0.0412598,0.000970668,0.000195119,-0.000210169,0.00102396,0.000141826,-0.248335,0.00064062,0.0131055,1455,1730,-0.00603421,-0.0412223
238,-706,-0.0107422,0.027832,0.000945174,0.000169372,-0.000229255,0.00100786,0.00010669,-0.266893,0.000639315,0.00828148,1462,1730,-0.0106849,-0.027791
245,-706,-0.0112305,0.0107422,0.00106905,0.000224094,-0.000124575,0.00108704,0.00020611,-0.14337,0.000666694,0.0101819,1469,1730,-0.01123,-0.0106949
252,-706,-0.0307617,0.026001,0.00109622,0.000315229,5.33748e-05,0.00109985,0.000311598,0.0679212,0.000654578,0.00991138,1476,1730,-0.0307821,-0.0260543
259,-706,-0.0335693,0.0421143,0.00113728,0.000226049,7.58373e-05,0.00114355,0.00021978,0.082469,0.000700691,0.0108798,1483,1730,-0.0336006,-0.0421209
266,-706,-0.0217285,0.043335,0.00130133,0.000105777,0.000128705,0.00131503,9.20789e-05,0.106034,0.000847662,0.0116775,1490,1730,-0.021725,-0.0433483
273,-706,-0.00170898,0.0484619,0.00149393,8.59621e-05,0.000121239,0.0015043,7.55985e-05,0.0852729,0.000978639,0.0107305,1497,1730,-0.00174806,-0.0484601
280,-706,-0.0123291,0.0374756,0.00169375,3.88391e-05,6.10443e-06,0.00169377,3.88165e-05,0.0036886,0.00111647,0.00852728,1504,1730,-0.0122888,-0.0374742
287,-706,-0.0366211,0.017334,0.00165134,-0.000265151,-4.09671e-05,0.00165222,-0.000266027,-0.0213631,0.00120002,0.00946841,1511,1730,-0.0366799,-0.0173848
294,-706,-0.0162354,0.0223389,0.00185619,-0.000617287,-0.000361941,0.00190807,-0.000669161,-0.142353,0.00154421,0.0100467,1518,1730,-0.016244,-0.022361
301,-706,-0.0168457,0.0339355,0.0022554,-0.000843068,-0.000673231,0.00239536,-0.000983025,-0.204969,0.00200652,0.00959624,1525,1730,-0.0168713,-0.0339424
308,-706,-0.0236816,0.0389404,0.00240255,-0.00108929,-0.000894078,0.00261816,-0.0013049,-0.236639,0.0023069,0.0113691,1532,1730,-0.0236369,-0.0389169
315,-706,-0.0163574,0.03125,0.00215406,-0.00114835,-0.00109677,0.00248513,-0.00147941,-0.293156,0.00231335,0.0175996,1539,1730,-0.0164019,-0.0311982
322,-706,-0.00976563,0.0350342,0.0020862,-0.00109366,-0.0012593,0.0025245,-0.00153196,-0.334937,0.00236525,0.0180277,1546,1730,-0.00977282,-0.0349992
329,-706,-0.0213623,0.0256348,0.0018829,-0.00103588,-0.00142747,0.00246496,-0.00161793,-0.387171,0.0023741,0.0153967,1553,1730,-0.0213875,-0.025622
336,-706,-0.0269775,0.0385742,0.00166807,-0.000886649,-0.00173047,0.00254157,-0.00176015,-0.467459,0.00249722,0.0202329,1560,1730,-0.0269828,-0.0385547
343,-706,-0.0739746,0.0500488,0.00144472,-0.00120387,-0.00186131,0.00240477,-0.00216392,-0.476201,0.00263896,0.0270995,1567,1730,-0.073988,-0.0500027
350,-706,0.0769043,-0.169434,0.000910774,-0.000692517,-0.00218937,0.00244064,-0.00222239,-0.609902,0.00269319,0.036838,1574,1730,0.0768792,0.169397
357,-706,0.195923,-0.155151,0.000328055,2.33093e-06,-0.00241199,0.00258267,-0.00225229,-0.751688,0.00279364,0.0420834,1581,1730,0.195974,0.155199
364,-706,0.00512695,-0.0897217,0.000372526,0.000562114,-0.00210899,0.00257844,-0.0016438,-0.807857,0.00245754,0.045689,1588,1730,0.00516744,0.0896687
371,-706,-0.20166,-0.0479736,0,0,0,0,0,0,0,-1,1595,1730,-0.20166,0.0479894
378,-706,-0.0118408,0.230835,0.00422292,0.00121823,-0.00244914,0.00559378,-0.000152629,-0.510285,0.00378109,0.0433775,1602,1730,-0.0118409,-0.230811
385,-706,-0.355713,-0.038208,0.00657085,0.00101508,-0.00522095,0.00970693,-0.002121,-0.540913,0.00728199,0.0445805,1609,1730,-0.355766,0.0382232
392,-706,-0.219116,-0.133179,0.0105338,0.00129394,-0.00726771,0.0145257,-0.00269794,-0.502277,0.0106971,0.043365,1616,1730,-0.219147,0.133139
399,-706,0.678589,-1.24512,0,0,0,0,0,0,0,-1,1623,1730,0.678558,1.24516
406,-706,0.306641,-0.908813,0,0,0,0,0,0,0,-1,1630,1730,0.306621,0.908873
413,-706,0.078125,-0.733765,0,0,0,0,0,0,0,-1,1637,1730,0.0780797,0.733818
420,-706,0.423828,0.024292,0,0,0,0,0,0,0,-1,1644,1730,0.423881,-0.0242834
427,-706,0,0,0,0,0,0,0,0,0,-1,1651,1730,0,0
434,-706,0,0,0,0,0,0,0,0,0,-1,1658,1730,0,0
441,-706,0,0,0,0,0,0,0,0,0,-1,1665,1730,0,0
448,-706,0,0,0,0,0,0,0,0,0,-1,1672,1730,0,0
455,-706,0,0,0,0,0,0,0,0,0,-1,1679,1730,0,0
462,-706,0,0,0,0,0,0,0,0,0,-1,1686,1730,0,0
469,-706,0,0,0,0,0,0,0,0,0,-1,1693,1730,0,0
476,-706,0,0,0,0,0,0,0,0,0,-1,1700,1730,0,0
483,-706,0,0,0,0,0,0,0,0,0,-1,1707,1730,0,0
490,-706,0,0,0,0,0,0,0,0,0,-1,1714,1730,0,0
497,-706,0,0,0,0,0,0,0,0,0,-1,1721,1730,0,0
504,-706,0,0,0,0,0,0,0,0,0,-1,1728,1730,0,0
511,-706,0,0,0,0,0,0,0,0,0,-1,1735,1730,0,0
518,-706,0,0,0,0,0,0,0,0,0,-1,1742,1730,0,0
525,-706,0,0,0,0,0,0,0,0,0,-1,1749,1730,0,0
532,-706,0,0,0,0,0,0,0,0,0,-1,1756,1730,0,0
539,-706,0,0,0,0,0,0,0,0,0,-1,1763,1730,0,0
546,-706,0,0,0,0,0,0,0,0,0,-1,1770,1730,0,0
553,-706,0,0,0,0,0,0,0,0,0,-1,1777,1730,0,0
560,-706,0,0,0,0,0,0,0,0,0,-1,1784,1730,0,0
567,-706,0,0,0,0,0,0,0,0,0,-1,1791,1730,0,0
574,-706,0,0,0,0,0,0,0,0,0,-1,1798,1730,0,0
581,-706,0,0,0,0,0,0,0,0,0,-1,1805,1730,0,0
588,-706,0,0,0,0,0,0,0,0,0,-1,1812,1730,0,0
595,-706,0,0,0,0,0,0,0,0,0,-1,1819,1730,0,0
602,-706,0,0,0,0,0,0,0,0,0,-1,1826,1730,0,0
609,-706,0,0,0,0,0,0,0,0,0,-1,1833,1730,0,0
616,-706,0,0,0,0,0,0,0,0,0,-1,1840,1730,0,0
623,-706,0,0,0,0,0,0,0,0,0,-1,1847,1730,0,0
630,-706,0,0,0,0,0,0,0,0,0,-1,1854,1730,0,0
637,-706,0,0,0,0,0,0,0,0,0,-1,1861,1730,0,0
644,-706,0,0,0,0,0,0,0,0,0,-1,1868,1730,0,0
651,-706,0,0,0,0,0,0,0,0,0,-1,1875,1730,0,0
658,-706,0,0,0,0,0,0,0,0,0,-1,1882,1730,0,0
665,-706,0,0,0,0,0,0,0,0,0,-1,1889,1730,0,0
672,-706,0,0,0,0,0,0,0,0,0,-1,1896,1730,0,0
679,-706,0,0,0,0,0,0,0,0,0,-1,1903,1730,0,0
686,-706,0,0,0,0,0,0,0,0,0,-1,1910,1730,0,0
693,-706,0,0,0,0,0,0,0,0,0,-1,1917,1730,0,0
700,-706,0,0,0,0,0,0,0,0,0,-1,1924,1730,0,0
707,-706,0,0,0,0,0,0,0,0,0,-1,1931,1730,0,0
714,-706,0,0,0,0,0,0,0,0,0,-1,1938,1730,0,0
721,-706,0,0,0,0,0,0,0,0,0,-1,1945,1730,0,0
728,-706,0,0,0,0,0,0,0,0,0,-1,1952,1730,0,0
735,-706,0,0,0,0,0,0,0,0,0,-1,1959,1730,0,0
742,-706,0,0,0,0,0,0,0,0,0,-1,1966,1730,0,0
749,-706,0,0,0,0,0,0,0,0,0,-1,1973,1730,0,0
756,-706,0,0,0,0,0,0,0,0,0,-1,1980,1730,0,0
763,-706,0,0,0,0,0,0,0,0,0,-1,1987,1730,0,0
770,-706,0,0,0,0,0,0,0,0,0,-1,1994,1730,0,0
777,-706,0,0,0,0,0,0,0,0,0,-1,2001,1730,0,0
784,-706,0,0,0,0,0,0,0,0,0,-1,2008,1730,0,0
791,-706,0,0,0,0,0,0,0,0,0,-1,2015,1730,0,0
798,-706,0,0,0,0,0,0,0,0,0,-1,2022,1730,0,0
805,-706,0,0,0,0,0,0,0,0,0,-1,2029,1730,0,0
812,-706,0,0,0,0,0,0,0,0,0,-1,2036,1730,0,0
-700,-713,0,0,0,0,0,0,0,0,0,-1,524,1737,0,0
-693,-713,0,0,0,0,0,0,0,0,0,-1,531,1737,0,0
-686,-713,0,0,0,0,0,0,0,0,0,-1,538,1737,0,0
-679,-713,0,0,0,0,0,0,0,0,0,-1,545,1737,0,0
-672,-713,0,0,0,0,0,0,0,0,0,-1,552,1737,0,0
-665,-713,0,0,0,0,0,0,0,0,0,-1,559,1737,0,0
-658,-713,0,0,0,0,0,0,0,0,0,-1,566,1737,0,0
-651,-713,0,0,0,0,0,0,0,0,0,-1,573,1737,0,0
-644,-713,0,0,0,0,0,0,0,0,0,-1,580,1737,0,0
-637,-713,0,0,0,0,0,0,0,0,0,-1,587,1737,0,0
-630,-713,0,0,0,0,0,0,0,0,0,-1,594,1737,0,0
-623,-713,0,0,0,0,0,0,0,0,0,-1,601,1737,0,0
-616,-713,0,0,0,0,0,0,0,0,0,-1,608,1737,0,0
-609,-713,0,0,0,0,0,0,0,0,0,-1,615,1737,0,0
-602,-713,0,0,0,0,0,0,0,0,0,-1,622,1737,0,0
-595,-713,0,0,0,0,0,0,0,0,0,-1,629,1737,0,0
-588,-713,0,0,0,0,0,0,0,0,0,-1,636,1737,0,0
-581,-713,0,0,0,0,0,0,0,0,0,-1,643,1737,0,0
-574,-713,0,0,0,0,0,0,0,0,0,-1,650,1737,0,0
-567,-713,0,0,0,0,0,0,0,0,0,-1,657,1737,0,0
-560,-713,0,0,0,0,0,0,0,0,0,-1,664,1737,0,0
-553,-713,0,0,0,0,0,0,0,0,0,-1,671,1737,0,0
-546,-713,0,0,0,0,0,0,0,0,0,-1,678,1737,0,0
-539,-713,0,0,0,0,0,0,0,0,0,-1,685,1737,0,0
-532,-713,0,0,0,0,0,0,0,0,0,-1,692,1737,0,0
-525,-713,0,0,0,0,0,0,0,0,0,-1,699,1737,0,0
-518,-713,0,0,0,0,0,0,0,0,0,-1,706,1737,0,0
-511,-713,0,0,0,0,0,0,0,0,0,-1,713,1737,0,0
-504,-713,0,0,0,0,0,0,0,0,0,-1,720,1737,0,0
-497,-713,0,0,0,0,0,0,0,0,0,-1,727,1737,0,0
-490,-713,0,0,0,0,0,0,0,0,0,-1,734,1737,0,0
-483,-713,0,0,0,0,0,0,0,0,0,-1,741,1737,0,0
-476,-713,0,0,0,0,0,0,0,0,0,-1,748,1737,0,0
-469,-713,0,0,0,0,0,0,0,0,0,-1,755,1737,0,0
-462,-713,0,0,0,0,0,0,0,0,0,-1,762,1737,0,0
-455,-713,0,0,0,0,0,0,0,0,0,-1,769,1737,0,0
-448,-713,0,0,0,0,0,0,0,0,0,-1,776,1737,0,0
-441,-713,0,0,0,0,0,0,0,0,0,-1,783,1737,0,0
-434,-713,0,0,0,0,0,0,0,0,0,-1,790,1737,0,0
-427,-713,0,0,0,0,0,0,0,0,0,-1,797,1737,0,0
-420,-713,0,0,0,0,0,0,0,0,0,-1,804,1737,0,0
-413,-713,0,0,0,0,0,0,0,0,0,-1,811,1737,0,0
-406,-713,0,0,0,0,0,0,0,0,0,-1,818,1737,0,0
-399,-713,0,0,0,0,0,0,0,0,0,-1,825,1737,0,0
-392,-713,0,0,0,0,0,0,0,0,0,-1,832,1737,0,0
-385,-713,0,0,0,0,0,0,0,0,0,-1,839,1737,0,0
-378,-713,0,0,0,0,0,0,0,0,0,-1,846,1737,0,0
-371,-713,0,0,0,0,0,0,0,0,0,-1,853,1737,0,0
-364,-713,0,0,0,0,0,0,0,0,0,-1,860,1737,0,0
-357,-713,0,0,0,0,0,0,0,0,0,-1,867,1737,0,0
-350,-713,0,0,0,0,0,0,0,0,0,-1,874,1737,0,0
-343,-713,0,0,0,0,0,0,0,0,0,-1,881,1737,0,0
-336,-713,0,0,0,0,0,0,0,0,0,-1,888,1737,0,0
-329,-713,0,0,0,0,0,0,0,0,0,-1,895,1737,0,0
-322,-713,0,0,0,0,0,0,0,0,0,-1,902,1737,0,0
-315,-713,0,0,0,0,0,0,0,0,0,-1,909,1737,0,0
-308,-713,0,0,0,0,0,0,0,0,0,-1,916,1737,0,0
-301,-713,0,0,0,0,0,0,0,0,0,-1,923,1737,0,0
-294,-713,-1.27087,0.332275,0.070073,0.0218815,-0.0154579,0.0746051,0.0173495,-0.285195,0.0450805,0.0479974,930,1737,-1.27087,-0.332305
-287,-713,-0.859192,0.257568,0.0606816,0.0221093,-0.0172401,0.0672639,0.015527,-0.36472,0.0406673,0.0491922,937,1737,-0.859171,-0.25758
-280,-713,-0.46814,0.0351563,0.0505716,0.0220464,-0.0198146,0.0607229,0.0118951,-0.473452,0.0371571,0.0494396,944,1737,-0.468165,-0.0351078
-273,-713,0.0647583,0.158569,0.0403166,0.0209572,-0.0222738,0.0549231,0.00635069,-0.580421,0.0346928,0.0453434,951,1737,0.0647888,-0.158544
-266,-713,0.87616,-1.17297,0,0,0,0,0,0,0,-1,958,1737,0.876169,1.17295
-259,-713,0.822632,-1.12219,0.0243692,0.0220618,-0.0238806,0.0471239,-0.000692939,-0.761262,0.0316495,0.0495631,965,1737,0.822605,1.12222
-252,-713,0.92627,-1.22754,0.0179533,0.02133,-0.0249499,0.0446487,-0.0053653,-0.819181,0.0317059,0.0467402,972,1737,0.926266,1.22748
-245,-713,0.597473,-0.989258,0,0,0,0,0,0,0,-1,979,1737,0.597484,0.989248
-238,-713,0.329529,-0.284546,0.0071689,0.0211427,-0.0222985,0.0375233,-0.00921167,-0.937221,0.0285852,0.0424591,986,1737,0.329506,0.284601
-231,-713,0.455566,-0.432373,0.00343559,0.0208671,-0.0205037,0.0344306,-0.0101279,-0.986368,0.0269712,0.0423455,993,1737,0.455585,0.432347
-224,-713,0.0600586,-0.623291,0.000498685,0.0200301,-0.0185264,0.0312071,-0.0106783,-1.02795,0.0251321,0.0435152,1000,1737,0.0600647,0.623347
-217,-713,-0.116821,-0.264404,-0.0016369,0.0189919,-0.016376,0.0280311,-0.0106761,-1.06644,0.0230842,0.0451653,1007,1737,-0.116796,0.264404
-210,-713,0.551819,-0.359131,-0.00275609,0.0160333,-0.0135916,0.0231611,-0.00988383,-1.0878,0.0195851,0.045072,1014,1737,0.551792,0.35915
-203,-713,0.840271,-0.665161,-0.00376563,0.0142876,-0.0112727,0.0197024,-0.00918039,-1.123,0.0170403,0.0409438,1021,1737,0.840283,0.665187
-196,-713,-0.115967,-0.0938721,-0.00442899,0.0124044,-0.00939256,0.0165996,-0.00862424,-1.15073,0.0148037,0.0396268,1028,1737,-0.11596,0.0938127
-189,-713,-0.0877686,-0.0262451,-0.00459821,0.00994684,-0.00746944,0.0130994,-0.00775076,-1.17142,0.0121691,0.0347361,1035,1737,-0.0877331,0.0262024
-182,-713,-0.0279541,-0.0200195,-0.00473885,0.00834376,-0.0057165,0.0104896,-0.00688472,-1.21169,0.0101028,0.0218369,1042,1737,-0.0279664,0.0200376
-175,-713,0.00720215,0.0338135,-0.0048525,0.00669527,-0.00405623,0.00797764,-0.00613487,-1.26459,0.00817098,0.0199444,1049,1737,0.00719541,-0.0338705
-168,-713,0.0456543,0.0393066,-0.00446006,0.00510749,-0.00290385,0.00591986,-0.00527243,-1.29801,0.00646547,0.0220438,1056,1737,0.0456393,-0.0393123
-161,-713,0.0183105,0.0183105,-0.00420697,0.00374348,-0.00261794,0.00452809,-0.00499158,-1.27961,0.00549836,0.0107542,1063,1737,0.0183104,-0.018299
-154,-713,-0.00769043,-0.0012207,-0.00386587,0.0029009,-0.00190794,0.00340178,-0.00436676,-1.31406,0.00449669,0.0113912,1070,1737,-0.00765505,0.00120252
-147,-713,-0.0306396,0.00305176,-0.00295527,0.00220806,-0.00137327,0.00255058,-0.00329779,-1.32636,0.00338573,0.0188372,1077,1737,-0.0306162,-0.00304442
-140,-713,-0.0175781,0.0270996,-0.00194383,0.00196858,-0.0013554,0.00239226,-0.0023675,-1.26783,0.00274806,0.01734,1084,1737,-0.0175618,-0.0270497
-133,-713,-0.00976563,0.0267334,-0.00121572,0.00192925,-0.0011022,0.00227706,-0.00156353,-1.26512,0.00223009,0.0113381,1091,1737,-0.00982219,-0.0267467
-126,-713,-0.00305176,0.0552979,-0.00061378,0.00166115,-0.000972932,0.00202049,-0.000973119,-1.217,0.00176327,0.0174426,1098,1737,-0.00310395,-0.0553263
-119,-713,-0.00744629,0.0526123,-0.000428562,0.00152945,-0.000776001,0.00179969,-0.000698808,-1.23568,0.00148845,0.0262217,1105,1737,-0.00749683,-0.0525622
-112,-713,-0.00415039,0.0821533,-0.000348857,0.00144952,-0.000369231,0.00152237,-0.000421713,-1.37598,0.00118086,0.0135929,1112,1737,-0.00420826,-0.082156
-105,-713,0.00134277,0.067749,-0.000160693,0.00181469,2.05247e-05,0.0018149,-0.000160906,1.56041,0.00126698,0.0103906,1119,1737,0.00128503,-0.0677709
-98,-713,-0.00671387,0.0371094,-0.000132668,0.00226121,0.000242036,0.00228544,-0.000156895,1.47104,0.00157852,0.00975892,1126,1737,-0.0067655,-0.0371438
-91,-713,-0.0187988,0.0290527,-0.000393549,0.00273592,0.00048957,0.00281072,-0.000468349,1.41918,0.00204786,0.00989062,1133,1737,-0.0188335,-0.0290021
-84,-713,-0.0349121,0.0345459,-0.000465876,0.00326326,0.000817434,0.00343457,-0.000637189,1.36421,0.00252901,0.00844079,1140,1737,-0.0349682,-0.0345296
-77,-713,-0.0252686,0.041748,-0.000146422,0.00354301,0.00105345,0.00382261,-0.000426028,1.31136,0.00270164,0.0115796,1147,1737,-0.0252908,-0.0417225
-70,-713,-0.0150146,0.0339355,0.000103253,0.00386481,0.0010893,0.00415749,-0.000189423,1.30831,0.00283691,0.0138613,1154,1737,-0.0150004,-0.03399
-63,-713,-0.019165,0.0297852,3.64956e-05,0.00428307,0.00105292,0.0045298,-0.000210237,1.34062,0.00309233,0.0119429,1161,1737,-0.0191289,-0.0297376
-56,-713,-0.0228271,0.0394287,-0.000194256,0.00472945,0.00104026,0.00494021,-0.000405018,1.3709,0.00343645,0.0120268,1168,1737,-0.0228553,-0.0394555
-49,-713,-0.0330811,0.0418701,-0.000280456,0.00494848,0.000875433,0.00509115,-0.000423128,1.40924,0.00354358,0.0140427,1175,1737,-0.0330553,-0.0418847
-42,-713,-0.0126953,0.0317383,-0.000483636,0.00518187,0.000658266,0.00525735,-0.000559113,1.45663,0.00370536,0.0164748,1182,1737,-0.0126705,-0.0317352
-35,-713,-0.00402832,0.00756836,-0.000640075,0.00529859,0.000309366,0.00531466,-0.000656148,1.51889,0.00378085,0.0135463,1189,1737,-0.00405454,-0.00762055
-28,-713,0.00769043,0.0230713,-0.000692571,0.00511082,-4.54103e-05,0.00511117,-0.000692927,-1.56297,0.00366035,0.0115912,1196,1737,0.0077143,-0.0230191
-21,-713,-0.0133057,0.0466309,-0.000724605,0.00463858,-0.00028452,0.00465363,-0.000739657,-1.51794,0.00337609,0.00863781,1203,1737,-0.0133085,-0.0466803
-14,-713,-0.0155029,0.0240479,-0.000642366,0.00403287,-0.000384539,0.00406429,-0.000673783,-1.48928,0.0029598,0.00989184,1210,1737,-0.0155457,-0.0239885
-7,-713,-0.00793457,0.0214844,-0.000515811,0.00372586,-0.000805878,0.00387381,-0.00066376,-1.38923,0.00282986,0.00989026,1217,1737,-0.00794284,-0.0215358
0,-713,-0.0101318,0.0463867,0.00024138,0.00323974,-0.00163873,0.00396159,-0.000480471,-1.15588,0.00281492,0.014968,1224,1737,-0.0101871,-0.0463851
7,-713,-0.00915527,0.02771,0.00109495,0.00249209,-0.00219516,0.00409715,-0.000510118,-0.939447,0.00291639,0.016976,1231,1737,-0.00911851,-0.0277345
14,-713,-0.00280762,0.0212402,0.00200186,0.00165157,-0.00270739,0.00453977,-0.00088633,-0.753097,0.00336114,0.012042,1238,1737,-0.00278024,-0.021244
21,-713,-0.0184326,0.0174561,0.00315105,0.001069,-0.00321127,0.00548582,-0.00126577,-0.628654,0.00414408,0.0104484,1245,1737,-0.0184509,-0.0174776
28,-713,-0.0332031,0.0195313,0.00410925,0.000458987,-0.00359752,0.00631813,-0.00174989,-0.550651,0.00490066,0.0113276,1252,1737,-0.0331426,-0.0195402
35,-713,-0.0297852,0.0335693,0.00495922,-0.000124269,-0.00388193,0.0070575,-0.00222255,-0.49554,0.00559499,0.0112596,1259,1737,-0.0298287,-0.0335973
42,-713,-0.0250244,0.0522461,0.00568898,-0.000774559,-0.00398758,0.00758996,-0.00267554,-0.444855,0.00614901,0.0108705,1266,1737,-0.0250187,-0.0522839
49,-713,-0.0111084,0.017334,0.00622615,-0.00164112,-0.00391289,0.00784086,-0.00325583,-0.391377,0.00658645,0.0106783,1273,1737,-0.0110994,-0.0172957
56,-713,-0.0045166,0.0144043,0.00657622,-0.00228363,-0.0037016,0.00791918,-0.00362659,-0.348034,0.00681779,0.0103996,1280,1737,-0.00454211,-0.0144404
63,-713,-0.0318604,0.0262451,0.00696431,-0.00306856,-0.00331896,0.00796286,-0.00406712,-0.292249,0.00706586,0.0110678,1287,1737,-0.0318291,-0.0262991
70,-713,-0.0274658,0.0216064,0.00700676,-0.00388977,-0.00255584,0.00757646,-0.00445947,-0.219316,0.00702619,0.0111417,1294,1737,-0.0274525,-0.0216407
77,-713,-0.0157471,0.013916,0.00675277,-0.00425957,-0.0018905,0.00706828,-0.00457508,-0.165366,0.00677347,0.0115248,1301,1737,-0.0157515,-0.0139182
84,-713,-0.0140381,0.0223389,0.0067857,-0.00483569,-0.00112815,0.00689421,-0.0049442,-0.0958828,0.00686574,0.0120776,1308,1737,-0.01403,-0.0223752
91,-713,-0.0134277,0.0369873,0.00681815,-0.0054422,-0.000336401,0.00682738,-0.00545142,-0.0274107,0.00710399,0.0119919,1315,1737,-0.0134592,-0.0369922
98,-713,-0.0164795,0.0378418,0.00670258,-0.00604196,0.000497222,0.00672195,-0.00606133,0.0389356,0.00738371,0.0113162,1322,1737,-0.0165139,-0.0378083
105,-713,-0.00891113,0.0266113,0.00607962,-0.00645055,0.00143215,0.00624122,-0.00661216,0.112365,0.00742193,0.0125507,1329,1737,-0.00892375,-0.0266428
112,-713,-0.0106201,0.0412598,0.00563223,-0.00604701,0.00174554,0.00588754,-0.00630231,0.14523,0.00703917,0.0125317,1336,1737,-0.0106461,-0.0412435
119,-713,0.00109863,0.0725098,0.00537693,-0.00531691,0.00177968,0.00566533,-0.00560531,0.160654,0.00650713,0.0131459,1343,1737,0.00104896,-0.0725113
126,-713,0.00427246,0.0766602,0.0049818,-0.00474159,0.00168494,0.0052655,-0.00502529,0.16681,0.00594193,0.012321,1350,1737,0.00432395,-0.0767155
133,-713,-0.0228271,0.0563965,0.00462707,-0.00385599,0.00153403,0.00489595,-0.00412487,0.173516,0.00521451,0.0115269,1357,1737,-0.0228581,-0.0564108
140,-713,-0.0102539,0.0463867,0.00415483,-0.00274868,0.00128323,0.00438564,-0.00297949,0.177964,0.00427801,0.0133489,1364,1737,-0.0102947,-0.0464218
147,-713,-0.010376,0.0333252,0.00358852,-0.00160212,0.000959307,0.00376014,-0.00177374,0.177027,0.00326288,0.0135617,1371,1737,-0.0103523,-0.0333326
154,-713,-0.0316162,0.0358887,0.00305814,-0.000418679,0.000678903,0.003186,-0.000546543,0.186159,0.00232767,0.0127261,1378,1737,-0.0316473,-0.0358391
161,-713,-0.0228271,0.0449219,0.00231983,0.000843217,0.000443657,0.00244287,0.000720171,0.270545,0.00144944,0.00923097,1385,1737,-0.0228406,-0.0449481
168,-713,-0.0263672,0.0302734,0.00169119,0.00178047,0.000218309,0.00195865,0.001513,0.886249,0.00118548,0.00937829,1392,1737,-0.0263795,-0.030247
175,-713,-0.0218506,0.0140381,0.00128451,0.00239594,-6.82302e-05,0.00240011,0.00128034,-1.50971,0.00138674,0.0123402,1399,1737,-0.0218822,-0.0140472
182,-713,-0.0290527,0.0354004,0.00125174,0.00244867,-0.000133288,0.00246334,0.00123707,-1.46123,0.00142221,0.0114438,1406,1737,-0.0290502,-0.0354422
189,-713,-0.0394287,0.0249023,0.00109899,0.0026752,-0.000275711,0.00272204,0.00105215,-1.40253,0.001585,0.0108155,1413,1737,-0.0393976,-0.024924
196,-713,-0.0356445,0.0300293,0.00101027,0.00251954,-0.000362866,0.00260225,0.000927558,-1.34669,0.00152291,0.0110939,1420,1737,-0.0356266,-0.0300529
203,-713,-0.0285645,0.0465088,0.00112394,0.0018788,-0.000164907,0.00191325,0.00108949,-1.36483,0.00110816,0.0139656,1427,1737,-0.0285975,-0.046463
210,-713,-0.0284424,0.0388184,0.00128449,0.00125383,1.64278e-05,0.00129163,0.00124669,0.409984,0.000846503,0.0120449,1434,1737,-0.0284995,-0.0388372
217,-713,-0.0255127,0.0344238,0.00135679,0.000668127,0.00016537,0.00139444,0.000630475,0.223867,0.00080631,0.00997301,1441,1737,-0.0254741,-0.0343716
224,-713,-0.0241699,0.036499,0.00134139,0.000214704,0.000259669,0.00139836,0.000157738,0.215958,0.000884359,0.0110105,1448,1737,-0.0242094,-0.0365155
231,-713,-0.0114746,0.0334473,0.00118753,6.83038e-05,0.000191783,0.00121948,3.63532e-05,0.165081,0.000801143,0.0103964,1455,1737,-0.0114383,-0.0334876
238,-713,-0.00793457,0.022583,0.00116182,0.000108755,6.04406e-05,0.00116528,0.000105297,0.0571448,0.000744239,0.00805345,1462,1737,-0.00799249,-0.0225929
245,-713,-0.0119629,0.0214844,0.00128535,0.000214116,8.92193e-05,0.00129273,0.000206736,0.0825287,0.000801842,0.0104099,1469,1737,-0.0119061,-0.0215441
252,-713,-0.0179443,0.0349121,0.00128543,0.000311267,0.000271738,0.0013561,0.000240594,0.25444,0.000835499,0.00996019,1476,1737,-0.0179372,-0.0348915
259,-713,-0.0192871,0.0412598,0.00129769,0.000243309,0.000263721,0.00135997,0.000181026,0.23192,0.000852733,0.0108108,1483,1737,-0.0192616,-0.0412136
266,-713,-0.0114746,0.0537109,0.00148355,0.000103577,0.000283808,0.00153964,4.74881e-05,0.195116,0.00101097,0.0106396,1490,1737,-0.0114947,-0.0536732
273,-713,-0.0111084,0.0551758,0.00173172,1.17194e-06,0.000173649,0.00174898,-1.60805e-05,0.0990276,0.00117138,0.00846225,1497,1737,-0.0110818,-0.05517
280,-713,-0.0216064,0.034668,0.00199168,-0.000129909,5.30185e-05,0.001993,-0.000131233,0.0249693,0.0013745,0.00848785,1504,1737,-0.0216566,-0.0347043
287,-713,-0.0338135,0.0212402,0.00191665,-0.000552134,9.12854e-06,0.00191668,-0.000552168,0.00369752,0.0014962,0.00977849,1511,1737,-0.0338151,-0.0212018
294,-713,-0.0255127,0.0324707,0.00212144,-0.0010045,-0.000374685,0.00216572,-0.00104879,-0.117643,0.00189287,0.0140147,1518,1737,-0.0254892,-0.0324746
301,-713,-0.052124,0.0257568,0.00260517,-0.00134498,-0.000749674,0.00274266,-0.00148247,-0.181384,0.00247528,0.0148795,1525,1737,-0.0520702,-0.0257197
308,-713,-0.0697021,0.00488281,0.00285386,-0.00174508,-0.00100202,0.00306269,-0.00195391,-0.205475,0.00291983,0.0171295,1532,1737,-0.0697144,-0.00484391
315,-713,-0.0288086,0.0172119,0.00263957,-0.0019402,-0.00126832,0.00296736,-0.00226799,-0.252908,0.0030316,0.0231895,1539,1737,-0.0288331,-0.0171859
322,-713,0.0490723,0.0231934,0.00261389,-0.00201302,-0.00148403,0.00304896,-0.00244809,-0.28518,0.00318004,0.0290745,1546,1737,0.0491116,-0.0232023
329,-713,0.0880127,0.0563965,0.00243437,-0.00203519,-0.00169802,0.00300628,-0.0026071,-0.324876,0.00324362,0.0329356,1553,1737,0.0880069,-0.0564335
336,-713,-0.185181,0.0639648,0.00223356,-0.00192163,-0.00199983,0.00303967,-0.00272773,-0.383164,0.00333143,0.0352373,1560,1737,-0.18523,-0.0639501
343,-713,-0.0408936,-0.106201,0,0,0,0,0,0,0,-1,1567,1737,-0.0409154,0.106261
350,-713,0.114258,-0.345703,0.00132363,-0.00174367,-0.00241381,0.0026498,-0.00306984,-0.502389,0.0033052,0.0414006,1574,1737,0.114308,0.345719
357,-713,0.0355225,-0.439453,0.000681774,-0.00108339,-0.00265375,0.00259586,-0.00299747,-0.624862,0.00323209,0.0405716,1581,1737,0.0355134,0.439487
364,-713,-0.192383,-0.0532227,0.0005553,-0.000523238,-0.0022951,0.00237363,-0.00234157,-0.670008,0.00272234,0.0451644,1588,1737,-0.192414,0.0532836
371,-713,-0.2677,0.112793,0.00223541,0.000101759,-0.00207819,0.00350461,-0.00116744,-0.548265,0.00280766,0.0453305,1595,1737,-0.267663,-0.112854
378,-713,-0.207275,0.112183,0.00469506,-1.14627e-05,-0.00252235,0.00579145,-0.00110786,-0.410033,0.00427834,0.041883,1602,1737,-0.207252,-0.112144
385,-713,-0.0860596,0.012085,0.00758108,-0.00051969,-0.00570565,0.0105278,-0.00346645,-0.476732,0.00841549,0.0427087,1609,1737,-0.086068,-0.0121319
392,-713,-0.121826,-0.130493,0.0122571,-0.000639979,-0.00816238,0.0162109,-0.00459376,-0.451082,0.0126203,0.0414972,1616,1737,-0.121822,0.130489
399,-713,-0.284424,-0.217896,0,0,0,0,0,0,0,-1,1623,1737,-0.284373,0.217928
406,-713,-0.13501,-0.474365,0,0,0,0,0,0,0,-1,1630,1737,-0.135042,0.474398
413,-713,0.361572,-0.260376,0,0,0,0,0,0,0,-1,1637,1737,0.361555,0.260426
420,-713,0,0,0,0,0,0,0,0,0,-1,1644,1737,0,0
427,-713,0,0,0,0,0,0,0,0,0,-1,1651,1737,0,0
434,-713,0,0,0,0,0,0,0,0,0,-1,1658,1737,0,0
441,-713,0,0,0,0,0,0,0,0,0,-1,1665,1737,0,0
448,-713,0,0,0,0,0,0,0,0,0,-1,1672,1737,0,0
455,-713,0,0,0,0,0,0,0,0,0,-1,1679,1737,0,0
462,-713,0,0,0,0,0,0,0,0,0,-1,1686,1737,0,0
469,-713,0,0,0,0,0,0,0,0,0,-1,1693,1737,0,0
476,-713,0,0,0,0,0,0,0,0,0,-1,1700,1737,0,0
483,-713,0,0,0,0,0,0,0,0,0,-1,1707,1737,0,0
490,-713,0,0,0,0,0,0,0,0,0,-1,1714,1737,0,0
497,-713,0,0,0,0,0,0,0,0,0,-1,1721,1737,0,0
504,-713,0,0,0,0,0,0,0,0,0,-1,1728,1737,0,0
511,-713,0,0,0,0,0,0,0,0,0,-1,1735,1737,0,0
518,-713,0,0,0,0,0,0,0,0,0,-1,1742,1737,0,0
525,-713,0,0,0,0,0,0,0,0,0,-1,1749,1737,0,0
532,-713,0,0,0,0,0,0,0,0,0,-1,1756,1737,0,0
539,-713,0,0,0,0,0,0,0,0,0,-1,1763,1737,0,0
546,-713,0,0,0,0,0,0,0,0,0,-1,1770,1737,0,0
553,-713,0,0,0,0,0,0,0,0,0,-1,1777,1737,0,0
560,-713,0,0,0,0,0,0,0,0,0,-1,1784,1737,0,0
567,-713,0,0,0,0,0,0,0,0,0,-1,1791,1737,0,0
574,-713,0,0,0,0,0,0,0,0,0,-1,1798,1737,0,0
581,-713,0,0,0,0,0,0,0,0,0,-1,1805,1737,0,0
588,-713,0,0,0,0,0,0,0,0,0,-1,1812,1737,0,0
595,-713,0,0,0,0,0,0,0,0,0,-1,1819,1737,0,0
602,-713,0,0,0,0,0,0,0,0,0,-1,1826,1737,0,0
609,-713,0,0,0,0,0,0,0,0,0,-1,1833,1737,0,0
616,-713,0,0,0,0,0,0,0,0,0,-1,1840,1737,0,0
623,-713,0,0,0,0,0,0,0,0,0,-1,1847,1737,0,0
630,-713,0,0,0,0,0,0,0,0,0,-1,1854,1737,0,0
637,-713,0,0,0,0,0,0,0,0,0,-1,1861,1737,0,0
644,-713,0,0,0,0,0,0,0,0,0,-1,1868,1737,0,0
651,-713,0,0,0,0,0,0,0,0,0,-1,1875,1737,0,0
658,-713,0,0,0,0,0,0,0,0,0,-1,1882,1737,0,0
665,-713,0,0,0,0,0,0,0,0,0,-1,1889,1737,0,0
672,-713,0,0,0,0,0,0,0,0,0,-1,1896,1737,0,0
679,-713,0,0,0,0,0,0,0,0,0,-1,1903,1737,0,0
686,-713,0,0,0,0,0,0,0,0,0,-1,1910,1737,0,0
693,-713,0,0,0,0,0,0,0,0,0,-1,1917,1737,0,0
700,-713,0,0,0,0,0,0,0,0,0,-1,1924,1737,0,0
707,-713,0,0,0,0,0,0,0,0,0,-1,1931,1737,0,0
714,-713,0,0,0,0,0,0,0,0,0,-1,1938,1737,0,0
721,-713,0,0,0,0,0,0,0,0,0,-1,1945,1737,0,0
728,-713,0,0,0,0,0,0,0,0,0,-1,1952,1737,0,0
735,-713,0,0,0,0,0,0,0,0,0,-1,1959,1737,0,0
742,-713,0,0,0,0,0,0,0,0,0,-1,1966,1737,0,0
749,-713,0,0,0,0,0,0,0,0,0,-1,1973,1737,0,0
756,-713,0,0,0,0,0,0,0,0,0,-1,1980,1737,0,0
763,-713,0,0,0,0,0,0,0,0,0,-1,1987,1737,0,0
770,-713,0,0,0,0,0,0,0,0,0,-1,1994,1737,0,0
777,-713,0,0,0,0,0,0,0,0,0,-1,2001,1737,0,0
784,-713,0,0,0,0,0,0,0,0,0,-1,2008,1737,0,0
791,-713,0,0,0,0,0,0,0,0,0,-1,2015,1737,0,0
798,-713,0,0,0,0,0,0,0,0,0,-1,2022,1737,0,0
805,-713,0,0,0,0,0,0,0,0,0,-1,2029,1737,0,0
812,-713,0,0,0,0,0,0,0,0,0,-1,2036,1737,0,0
-700,-720,0,0,0,0,0,0,0,0,0,-1,524,1744,0,0
-693,-720,0,0,0,0,0,0,0,0,0,-1,531,1744,0,0
-686,-720,0,0,0,0,0,0,0,0,0,-1,538,1744,0,0
-679,-720,0,0,0,0,0,0,0,0,0,-1,545,1744,0,0
-672,-720,0,0,0,0,0,0,0,0,0,-1,552,1744,0,0
-665,-720,0,0,0,0,0,0,0,0,0,-1,559,1744,0,0
-658,-720,0,0,0,0,0,0,0,0,0,-1,566,1744,0,0
-651,-720,0,0,0,0,0,0,0,0,0,-1,573,1744,0,0
-644,-720,0,0,0,0,0,0,0,0,0,-1,580,1744,0,0
-637,-720,0,0,0,0,0,0,0,0,0,-1,587,1744,0,0
-630,-720,0,0,0,0,0,0,0,0,0,-1,594,1744,0,0
-623,-720,0,0,0,0,0,0,0,0,0,-1,601,1744,0,0
-616,-720,0,0,0,0,0,0,0,0,0,-1,608,1744,0,0
-609,-720,0,0,0,0,0,0,0,0,0,-1,615,1744,0,0
-602,-720,0,0,0,0,0,0,0,0,0,-1,622,1744,0,0
-595,-720,0,0,0,0,0,0,0,0,0,-1,629,1744,0,0
-588,-720,0,0,0,0,0,0,0,0,0,-1,636,1744,0,0
-581,-720,0,0,0,0,0,0,0,0,0,-1,643,1744,0,0
-574,-720,0,0,0,0,0,0,0,0,0,-1,650,1744,0,0
-567,-720,0,0,0,0,0,0,0,0,0,-1,657,1744,0,0
-560,-720,0,0,0,0,0,0,0,0,0,-1,664,1744,0,0
-553,-720,0,0,0,0,0,0,0,0,0,-1,671,1744,0,0
-546,-720,0,0,0,0,0,0,0,0,0,-1,678,1744,0,0
-539,-720,0,0,0,0,0,0,0,0,0,-1,685,1744,0,0
-532,-720,0,0,0,0,0,0,0,0,0,-1,692,1744,0,0
-525,-720,0,0,0,0,0,0,0,0,0,-1,699,1744,0,0
-518,-720,0,0,0,0,0,0,0,0,0,-1,706,1744,0,0
-511,-720,0,0,0,0,0,0,0,0,0,-1,713,1744,0,0
-504,-720,0,0,0,0,0,0,0,0,0,-1,720,1744,0,0
-497,-720,0,0,0,0,0,0,0,0,0,-1,727,1744,0,0
-490,-720,0,0,0,0,0,0,0,0,0,-1,734,1744,0,0
-483,-720,0,0,0,0,0,0,0,0,0,-1,741,1744,0,0
-476,-720,0,0,0,0,0,0,0,0,0,-1,748,1744,0,0
-469,-720,0,0,0,0,0,0,0,0,0,-1,755,1744,0,0
-462,-720,0,0,0,0,0,0,0,0,0,-1,762,1744,0,0
-455,-720,0,0,0,0,0,0,0,0,0,-1,769,1744,0,0
-448,-720,0,0,0,0,0,0,0,0,0,-1,776,1744,0,0
-441,-720,0,0,0,0,0,0,0,0,0,-1,783,1744,0,0
-434,-720,0,0,0,0,0,0,0,0,0,-1,790,1744,0,0
-427,-720,0,0,0,0,0,0,0,0,0,-1,797,1744,0,0
-420,-720,0,0,0,0,0,0,0,0,0,-1,804,1744,0,0
-413,-720,0,0,0,0,0,0,0,0,0,-1,811,1744,0,0
-406,-720,0,0,0,0,0,0,0,0,0,-1,818,1744,0,0
-399,-720,0,0,0,0,0,0,0,0,0,-1,825,1744,0,0
-392,-720,0,0,0,0,0,0,0,0,0,-1,832,1744,0,0
-385,-720,0,0,0,0,0,0,0,0,0,-1,839,1744,0,0
-378,-720,0,0,0,0,0,0,0,0,0,-1,846,1744,0,0
-371,-720,0,0,0,0,0,0,0,0,0,-1,853,1744,0,0
-364,-720,0,0,0,0,0,0,0,0,0,-1,860,1744,0,0
-357,-720,0,0,0,0,0,0,0,0,0,-1,867,1744,0,0
-350,-720,0,0,0,0,0,0,0,0,0,-1,874,1744,0,0
-343,-720,0,0,0,0,0,0,0,0,0,-1,881,1744,0,0
-336,-720,0,0,0,0,0,0,0,0,0,-1,888,1744,0,0
-329,-720,0,0,0,0,0,0,0,0,0,-1,895,1744,0,0
-322,-720,0,0,0,0,0,0,0,0,0,-1,902,1744,0,0
-315,-720,0,0,0,0,0,0,0,0,0,-1,909,1744,0,0
-308,-720,0,0,0,0,0,0,0,0,0,-1,916,1744,0,0
-301,-720,0,0,0,0,0,0,0,0,0,-1,923,1744,0,0
-294,-720,0,0,0,0,0,0,0,0,0,-1,930,1744,0,0
-287,-720,0,0,0,0,0,0,0,0,0,-1,937,1744,0,0
-280,-720,-0.352173,-0.112793,0,0,0,0,0,0,0,-1,944,1744,-0.352186,0.112835
-273,-720,0.470276,-0.522095,0,0,0,0,0,0,0,-1,951,1744,0.470282,0.522076
-266,-720,-1.55188,-0.759033,0,0,0,0,0,0,0,-1,958,1744,-1.55188,0.759012
-259,-720,0.135254,-0.513672,0,0,0,0,0,0,0,-1,965,1744,0.135272,0.513638
-252,-720,0.269592,-0.459839,0.0211289,0.0208234,-0.0328186,0.0537951,-0.0118428,-0.783071,0.0403939,0.0450173,972,1744,0.269583,0.459837
-245,-720,0.363037,-0.346924,0,0,0,0,0,0,0,-1,979,1744,0.36305,0.346902
-238,-720,0.471436,-0.573242,0,0,0,0,0,0,0,-1,986,1744,0.471432,0.573227
-231,-720,0.606628,-0.875244,0,0,0,0,0,0,0,-1,993,1744,0.606605,0.875295
-224,-720,0.11615,-1.04565,-0.000263896,0.0202854,-0.0234235,0.0355886,-0.0155672,-0.992084,0.0302795,0.0427465,1000,1744,0.116143,1.04571
-217,-720,-0.134888,-0.94751,-0.00285936,0.0194726,-0.0204287,0.0315877,-0.0149745,-1.03551,0.0274472,0.0466899,1007,1744,-0.134893,0.947484
-210,-720,1.06024,-0.597168,-0.00428497,0.0165295,-0.016746,0.0258387,-0.0135942,-1.06343,0.0231296,0.0479137,1014,1744,1.06027,0.597221
-203,-720,1.45081,-0.873413,-0.00554179,0.0147907,-0.0136849,0.0216723,-0.0124234,-1.10486,0.0199251,0.045294,1021,1744,1.45082,0.873373
-196,-720,1.79944,-1.16443,0,0,0,0,0,0,0,-1,1028,1744,1.79938,1.16444
-189,-720,0.421021,0.0356445,-0.00635433,0.0104665,-0.00889676,0.014299,-0.0101868,-1.16405,0.0142031,0.0416302,1035,1744,0.420969,-0.0356469
-182,-720,0.28064,-0.149048,-0.006422,0.00899884,-0.00680196,0.0115703,-0.00899347,-1.20936,0.0119035,0.0365457,1042,1744,0.28061,0.149043
-175,-720,0.0220947,0.00842285,-0.00649437,0.00735747,-0.00483704,0.00887935,-0.00801625,-1.26597,0.00975892,0.038338,1049,1744,0.0221079,-0.00840163
-168,-720,0.178955,0.0161133,-0.00592439,0.00578015,-0.0035127,0.00675343,-0.00689767,-1.3005,0.00788161,0.0326263,1056,1744,0.179007,-0.0161067
-161,-720,0.0828857,-0.0246582,-0.0053668,0.00432961,-0.00328253,0.00533633,-0.00637352,-1.27321,0.00676952,0.0211108,1063,1744,0.0828756,0.0245999
-154,-720,-0.00354004,-0.0107422,-0.00474762,0.00353972,-0.00260094,0.00428838,-0.00549627,-1.29053,0.0056635,0.0162942,1070,1744,-0.00352726,0.0107145
-147,-720,-0.0168457,0.0144043,-0.00362463,0.00295857,-0.00211106,0.00357736,-0.00424343,-1.28566,0.00452079,0.0162085,1077,1744,-0.0168807,-0.0144479
-140,-720,-0.00964355,0.0457764,-0.00244696,0.00282495,-0.00218599,0.00361344,-0.00323545,-1.22462,0.00395621,0.0127479,1084,1744,-0.00966721,-0.0457559
-133,-720,-0.0218506,0.0413818,-0.00161879,0.0029225,-0.00195031,0.00364511,-0.00234139,-1.21597,0.00348352,0.0100351,1091,1744,-0.02186,-0.0414404
-126,-720,-0.0158691,0.0557861,-0.000947917,0.00269627,-0.00186816,0.00348378,-0.00173543,-1.17186,0.00306915,0.0110319,1098,1744,-0.0158787,-0.0557919
-119,-720,-0.0178223,0.078125,-0.000744219,0.00277174,-0.00172855,0.0034792,-0.00145168,-1.18232,0.00292597,0.0143508,1105,1744,-0.0178509,-0.0781823
-112,-720,-0.012085,0.0462646,-0.000679976,0.00298813,-0.00136284,0.00343904,-0.00113089,-1.25127,0.00274834,0.0136568,1112,1744,-0.0120725,-0.0462375
-105,-720,0.00183105,0.0305176,-0.000474762,0.00352901,-0.00103111,0.00377895,-0.000724704,-1.33298,0.0027924,0.0125969,1119,1744,0.00177754,-0.0305651
-98,-720,-0.00732422,0.0218506,-0.000454944,0.00417899,-0.000804872,0.00431481,-0.000590762,-1.40363,0.00309233,0.00992018,1126,1744,-0.00726331,-0.021885
-91,-720,-0.029541,0.0200195,-0.000780775,0.00482238,-0.000537877,0.00487355,-0.000831941,-1.47596,0.00355891,0.00928485,1133,1744,-0.0294892,-0.0200052
-84,-720,-0.0421143,0.0321045,-0.000841973,0.00539273,-9.21777e-05,0.00539409,-0.000843336,-1.55602,0.00390763,0.00969891,1140,1744,-0.0420874,-0.0320842
-77,-720,-0.0240479,0.0535889,-0.000360265,0.00549537,0.00028048,0.00550877,-0.000373669,1.52304,0.00380319,0.0118173,1147,1744,-0.0240105,-0.0536398
-70,-720,-0.0125732,0.0551758,7.30851e-05,0.00562518,0.000415019,0.00565603,4.22338e-05,1.4966,0.00375669,0.0107013,1154,1744,-0.0125912,-0.0551312
-63,-720,-0.0338135,0.0471191,0.000187181,0.00589599,0.000452353,0.00593161,0.00015156,1.49221,0.00390487,0.00989544,1161,1744,-0.03376,-0.0471441
-56,-720,-0.0240479,0.057373,0.000317087,0.00588858,0.000555102,0.00594334,0.000262319,1.47245,0.00387775,0.0111378,1168,1744,-0.0240531,-0.0573787
-49,-720,-0.0354004,0.0291748,0.000512656,0.00559464,0.000528732,0.00564907,0.000458229,1.46822,0.00362297,0.0167756,1175,1744,-0.0354596,-0.0291477
-42,-720,-0.0236816,0.000244141,0.000627021,0.00529049,0.000435811,0.00533087,0.000586643,1.47841,0.0033754,0.0196588,1182,1744,-0.0236658,-0.000280246
-35,-720,-0.00842285,0.0131836,0.000704409,0.00486862,0.000279848,0.00488734,0.000685687,1.50399,0.00305542,0.0173949,1189,1744,-0.00841632,-0.013164
-28,-720,0.00231934,0.0240479,0.00072433,0.00420609,7.60429e-05,0.00420775,0.00072267,1.54897,0.002598,0.0105482,1196,1744,0.00234871,-0.0240505
-21,-720,-0.0159912,0.0357666,0.000697691,0.00337173,-8.82681e-06,0.00337176,0.000697661,-1.5675,0.00205515,0.00878852,1203,1744,-0.0159976,-0.0357748
-14,-720,-0.0231934,0.0266113,0.000642757,0.0023822,2.88741e-07,0.0023822,0.000642757,1.57063,0.00142311,0.0104855,1210,1744,-0.0231716,-0.0266396
-7,-720,-0.0281982,0.0257568,0.000569686,0.00166003,-0.000269735,0.00172311,0.000506607,-1.34107,0.00102259,0.0115131,1217,1744,-0.0282571,-0.0257661
0,-720,-0.0168457,0.0428467,0.000884488,0.00100422,-0.000807868,0.00175444,0.000134272,-0.822383,0.00112754,0.0123129,1224,1744,-0.0168524,-0.042877
7,-720,-0.0109863,0.0301514,0.00123392,0.000292756,-0.00119518,0.00204782,-0.000521146,-0.597852,0.00156807,0.0143991,1231,1744,-0.0109505,-0.030108
14,-720,-0.00488281,0.0235596,0.00165218,-0.000382324,-0.00153675,0.00247786,-0.00120801,-0.493034,0.00216973,0.0133693,1238,1744,-0.00487022,-0.0235344
21,-720,-0.0217285,0.0183105,0.00219787,-0.000751842,-0.00184502,0.00308507,-0.00163904,-0.44822,0.00276973,0.0105783,1245,1744,-0.0216841,-0.0183143
28,-720,-0.0263672,0.0296631,0.00258361,-0.00102533,-0.0020984,0.0035467,-0.00198842,-0.430284,0.00323764,0.0104499,1252,1744,-0.0264184,-0.0296444
35,-720,-0.0203857,0.0390625,0.00296424,-0.0012082,-0.00226354,0.00395632,-0.00220028,-0.413071,0.00360239,0.0107464,1259,1744,-0.020373,-0.0390086
42,-720,-0.0268555,0.0299072,0.0032722,-0.00147112,-0.0022922,0.00419887,-0.00239778,-0.38418,0.00385561,0.0114251,1266,1744,-0.0269103,-0.0298651
49,-720,-0.0230713,0.0157471,0.00342845,-0.0017662,-0.0022192,0.0042474,-0.00258515,-0.353527,0.0039835,0.0109709,1273,1744,-0.0230788,-0.0157402
56,-720,-0.0195313,0.0197754,0.003548,-0.00192822,-0.00207169,0.00424342,-0.00262364,-0.32386,0.00400129,0.00907095,1280,1744,-0.019477,-0.0198327
63,-720,-0.0300293,0.0371094,0.00364907,-0.00212862,-0.00179064,0.00415902,-0.00263857,-0.277443,0.00395718,0.0109124,1287,1744,-0.0299798,-0.0371172
70,-720,-0.0194092,0.0390625,0.00345918,-0.00229094,-0.00127219,0.00372807,-0.00255983,-0.208296,0.00365115,0.0114992,1294,1744,-0.0194078,-0.039117
77,-720,-0.00805664,0.0216064,0.00313367,-0.00218838,-0.000834752,0.00326152,-0.00231623,-0.151987,0.0032357,0.0129971,1301,1744,-0.00802922,-0.021649
84,-720,-0.0113525,0.0124512,0.00299997,-0.00222364,-0.000368145,0.00302579,-0.00224946,-0.0700159,0.00305664,0.0128412,1308,1744,-0.0113792,-0.0124942
91,-720,-0.0197754,0.0275879,0.00288203,-0.00232115,8.62287e-05,0.00288346,-0.00232258,0.0165663,0.00301151,0.0112162,1315,1744,-0.0197145,-0.0275984
98,-720,-0.0281982,0.03479,0.00269024,-0.00250178,0.000560422,0.00275004,-0.00256158,0.106308,0.00306731,0.0101644,1322,1744,-0.0281829,-0.0347367
105,-720,-0.0211182,0.02771,0.0021537,-0.00262962,0.00107675,0.00238491,-0.00286083,0.211514,0.00303278,0.0100718,1329,1744,-0.0211682,-0.0277126
112,-720,-0.0129395,0.0377197,0.00180775,-0.00242827,0.00118013,0.00211434,-0.00273485,0.254172,0.00280731,0.0100244,1336,1744,-0.0129446,-0.0377194
119,-720,0.00012207,0.0476074,0.00163689,-0.0018643,0.00112147,0.0019653,-0.00219271,0.284877,0.00240183,0.0112029,1343,1744,0.000134823,-0.0476329
126,-720,-0.00732422,0.0527344,0.001504,-0.00147056,0.00100961,0.0018143,-0.00178086,0.298187,0.0020757,0.0111673,1350,1744,-0.00727552,-0.052788
133,-720,-0.0275879,0.0462646,0.00147192,-0.000960434,0.000957501,0.00180361,-0.00129212,0.333476,0.00179544,0.0123517,1357,1744,-0.0276483,-0.0462287
140,-720,-0.0118408,0.0683594,0.00133578,-0.000308836,0.000868227,0.0017093,-0.000682357,0.406277,0.00142262,0.0191511,1364,1744,-0.0118343,-0.0683398
147,-720,-0.0274658,0.0534668,0.00116815,0.000362586,0.000758431,0.00162412,-9.33828e-05,0.541301,0.00111518,0.0186615,1371,1744,-0.0274672,-0.0534701
154,-720,-0.036499,0.0339355,0.00106741,0.00104262,0.00069981,0.00175494,0.000355097,0.776545,0.00107139,0.0117348,1378,1744,-0.0364844,-0.0338935
161,-720,-0.0162354,0.0344238,0.000935082,0.00175047,0.00061601,0.00208148,0.000604073,1.07772,0.0012365,0.00907106,1385,1744,-0.0162558,-0.0344422
168,-720,-0.0174561,0.0327148,0.000719601,0.00222588,0.000608739,0.00244113,0.000504348,1.23091,0.00148807,0.00947161,1392,1744,-0.017495,-0.0326609
175,-720,-0.0396729,0.00805664,0.000545101,0.00246524,0.000531298,0.00260244,0.000407896,1.31807,0.00161625,0.0145676,1399,1744,-0.0396119,-0.00806202
182,-720,-0.0196533,0.0356445,0.000601153,0.00239404,0.000560759,0.00255498,0.000440212,1.2913,0.0015772,0.0141216,1406,1744,-0.0197141,-0.0356132
189,-720,-0.027832,0.0480957,0.000672974,0.00233517,0.000493734,0.00247077,0.000537379,1.30277,0.00150048,0.011764,1413,1744,-0.0278156,-0.0480859
196,-720,-0.0357666,0.0284424,0.000810131,0.00198398,0.000448666,0.00213582,0.000658285,1.24446,0.001263,0.0119029,1420,1744,-0.0357431,-0.0283936
203,-720,-0.0535889,0.0305176,0.00104297,0.00138932,0.000529999,0.00177372,0.000658572,0.943302,0.0010353,0.0132275,1427,1744,-0.0535584,-0.0305327
210,-720,-0.0487061,0.0491943,0.00131791,0.00076852,0.000557867,0.00166505,0.000421386,0.556622,0.000999627,0.0121715,1434,1744,-0.0487018,-0.0492082
217,-720,-0.0548096,0.0390625,0.00148353,0.000278668,0.000540032,0.00169015,7.20517e-05,0.365418,0.00110353,0.0113688,1441,1744,-0.0548138,-0.0390498
224,-720,-0.0219727,0.0321045,0.00159253,-0.000224607,0.000535326,0.00173851,-0.000370586,0.26622,0.00130026,0.00843653,1448,1744,-0.0219703,-0.0321321
231,-720,-0.0115967,0.0205078,0.00151419,-0.000361934,0.000384869,0.00159007,-0.000437817,0.194669,0.00123219,0.00885582,1455,1744,-0.0116304,-0.0205581
238,-720,-0.0128174,0.0175781,0.00150648,-0.000252766,0.000222846,0.00153427,-0.000280555,0.124061,0.00112806,0.00832396,1462,1744,-0.0127649,-0.0175594
245,-720,-0.0177002,0.0341797,0.00165312,-0.000116373,0.000249253,0.00168756,-0.000150813,0.137303,0.00117853,0.0105396,1469,1744,-0.0176459,-0.0341342
252,-720,-0.0183105,0.0369873,0.00164734,4.79462e-06,0.000496419,0.00178571,-0.000133579,0.271843,0.00123741,0.00986435,1476,1744,-0.0183099,-0.0369882
259,-720,-0.0164795,0.0253906,0.00165457,-1.82679e-05,0.000498963,0.00179209,-0.00015579,0.268938,0.0012499,0.00919531,1483,1744,-0.0164435,-0.025391
266,-720,-0.0253906,0.0285645,0.00187928,-0.000152935,0.000537866,0.00201285,-0.000286512,0.243422,0.00144689,0.00784428,1490,1744,-0.0253528,-0.0285837
273,-720,-0.0352783,0.045166,0.00221168,-0.000290499,0.000387379,0.00227028,-0.000349099,0.150135,0.0016423,0.0100243,1497,1744,-0.0352346,-0.0452153
280,-720,-0.0418701,0.0367432,0.00256229,-0.000482891,0.000267258,0.00258557,-0.000506169,0.0868792,0.00191487,0.010506,1504,1744,-0.0418606,-0.0366827
287,-720,-0.055542,0.0198975,0.00248208,-0.0009941,0.000210913,0.00249483,-0.00100685,0.0603784,0.00208165,0.0175245,1511,1744,-0.0555155,-0.0199115
294,-720,0.00732422,0.0527344,0.00266425,-0.00153157,-0.000250903,0.00267921,-0.00154652,-0.0595155,0.00246876,0.0242875,1518,1744,0.00730741,-0.0526875
301,-720,-0.050293,-0.00354004,0.00321196,-0.00198623,-0.000704191,0.00330566,-0.00207993,-0.132293,0.0031361,0.0282334,1525,1744,-0.0502469,0.00352041
308,-720,-0.119385,-0.0690918,0.00357991,-0.00257657,-0.000980612,0.00373233,-0.00272899,-0.154199,0.00374541,0.0312679,1532,1744,-0.119433,0.0690582
315,-720,0.0430908,-0.0314941,0.00341615,-0.00292611,-0.00131767,0.00367901,-0.00318898,-0.196907,0.0039686,0.0367288,1539,1744,0.0431008,0.0315467
322,-720,0.134033,-0.0112305,0.00342329,-0.00316703,-0.00159536,0.00378918,-0.00353291,-0.225445,0.00422827,0.0416448,1546,1744,0.134067,0.0112548
329,-720,0.294434,-0.0864258,0.00324941,-0.00332334,-0.00186756,0.00374299,-0.00381692,-0.258382,0.00436478,0.042206,1553,1744,0.294473,0.0863723
336,-720,-1.05249,0.315552,0,0,0,0,0,0,0,-1,1560,1744,-1.05247,-0.315528
343,-720,-0.381104,-0.0339355,0.00258305,-0.00363354,-0.00225192,0.00331307,-0.00436356,-0.313485,0.00444591,0.0420579,1567,1744,-0.381051,0.0339471
350,-720,0.136353,-0.318604,0.00187585,-0.00315608,-0.00248155,0.00289374,-0.00417397,-0.389256,0.0041028,0.0422988,1574,1744,0.136315,0.318622
357,-720,0.297363,-0.432983,0.00115645,-0.00261004,-0.00272656,0.00258692,-0.00404051,-0.483169,0.0038569,0.0435064,1581,1744,0.297324,0.43294
364,-720,-0.295898,-0.0447998,0.000811429,-0.00210319,-0.00229552,0.00207316,-0.00336492,-0.502573,0.00316907,0.0455296,1588,1744,-0.295923,0.0448368
371,-720,-0.313477,0.0712891,0.00233946,-0.00155537,-0.00199982,0.00318341,-0.00239932,-0.399336,0.00323377,0.0459922,1595,1744,-0.31353,-0.0713263
378,-720,0.0345459,0.194092,0.00509928,-0.00181235,-0.00234994,0.00582256,-0.00253564,-0.298587,0.00494843,0.0431911,1602,1744,0.0345087,-0.194093
385,-720,0.241943,0.0566406,0.00853817,-0.00271085,-0.00589302,0.01106,-0.00523268,-0.404354,0.00960504,0.040332,1609,1744,0.242002,-0.0566342
392,-720,0.118896,0.00378418,0.013857,-0.00344803,-0.00873664,0.0175006,-0.00709166,-0.395119,0.0146161,0.0401254,1616,1744,0.118903,-0.0038104
399,-720,-0.098999,0.176514,0,0,0,0,0,0,0,-1,1623,1744,-0.0990144,-0.176473
406,-720,0,0,0,0,0,0,0,0,0,-1,1630,1744,0,0
413,-720,0,0,0,0,0,0,0,0,0,-1,1637,1744,0,0
420,-720,0,0,0,0,0,0,0,0,0,-1,1644,1744,0,0
427,-720,0,0,0,0,0,0,0,0,0,-1,1651,1744,0,0
434,-720,0,0,0,0,0,0,0,0,0,-1,1658,1744,0,0
441,-720,0,0,0,0,0,0,0,0,0,-1,1665,1744,0,0
448,-720,0,0,0,0,0,0,0,0,0,-1,1672,1744,0,0
455,-720,0,0,0,0,0,0,0,0,0,-1,1679,1744,0,0
462,-720,0,0,0,0,0,0,0,0,0,-1,1686,1744,0,0
469,-720,0,0,0,0,0,0,0,0,0,-1,1693,1744,0,0
476,-720,0,0,0,0,0,0,0,0,0,-1,1700,1744,0,0
483,-720,0,0,0,0,0,0,0,0,0,-1,1707,1744,0,0
490,-720,0,0,0,0,0,0,0,0,0,-1,1714,1744,0,0
497,-720,0,0,0,0,0,0,0,0,0,-1,1721,1744,0,0
504,-720,0,0,0,0,0,0,0,0,0,-1,1728,1744,0,0
511,-720,0,0,0,0,0,0,0,0,0,-1,1735,1744,0,0
518,-720,0,0,0,0,0,0,0,0,0,-1,1742,1744,0,0
525,-720,0,0,0,0,0,0,0,0,0,-1,1749,1744,0,0
532,-720,0,0,0,0,0,0,0,0,0,-1,1756,1744,0,0
539,-720,0,0,0,0,0,0,0,0,0,-1,1763,1744,0,0
546,-720,0,0,0,0,0,0,0,0,0,-1,1770,1744,0,0
553,-720,0,0,0,0,0,0,0,0,0,-1,1777,1744,0,0
560,-720,0,0,0,0,0,0,0,0,0,-1,1784,1744,0,0
567,-720,0,0,0,0,0,0,0,0,0,-1,1791,1744,0,0
574,-720,0,0,0,0,0,0,0,0,0,-1,1798,1744,0,0
581,-720,0,0,0,0,0,0,0,0,0,-1,1805,1744,0,0
588,-720,0,0,0,0,0,0,0,0,0,-1,1812,1744,0,0
595,-720,0,0,0,0,0,0,0,0,0,-1,1819,1744,0,0
602,-720,0,0,0,0,0,0,0,0,0,-1,1826,1744,0,0
609,-720,0,0,0,0,0,0,0,0,0,-1,1833,1744,0,0
616,-720,0,0,0,0,0,0,0,0,0,-1,1840,1744,0,0
623,-720,0,0,0,0,0,0,0,0,0,-1,1847,1744,0,0
630,-720,0,0,0,0,0,0,0,0,0,-1,1854,1744,0,0
637,-720,0,0,0,0,0,0,0,0,0,-1,1861,1744,0,0
644,-720,0,0,0,0,0,0,0,0,0,-1,1868,1744,0,0
651,-720,0,0,0,0,0,0,0,0,0,-1,1875,1744,0,0
658,-720,0,0,0,0,0,0,0,0,0,-1,1882,1744,0,0
665,-720,0,0,0,0,0,0,0,0,0,-1,1889,1744,0,0
672,-720,0,0,0,0,0,0,0,0,0,-1,1896,1744,0,0
679,-720,0,0,0,0,0,0,0,0,0,-1,1903,1744,0,0
686,-720,0,0,0,0,0,0,0,0,0,-1,1910,1744,0,0
693,-720,0,0,0,0,0,0,0,0,0,-1,1917,1744,0,0
700,-720,0,0,0,0,0,0,0,0,0,-1,1924,1744,0,0
707,-720,0,0,0,0,0,0,0,0,0,-1,1931,1744,0,0
714,-720,0,0,0,0,0,0,0,0,0,-1,1938,1744,0,0
721,-720,0,0,0,0,0,0,0,0,0,-1,1945,1744,0,0
728,-720,0,0,0,0,0,0,0,0,0,-1,1952,1744,0,0
735,-720,0,0,0,0,0,0,0,0,0,-1,1959,1744,0,0
742,-720,0,0,0,0,0,0,0,0,0,-1,1966,1744,0,0
749,-720,0,0,0,0,0,0,0,0,0,-1,1973,1744,0,0
756,-720,0,0,0,0,0,0,0,0,0,-1,1980,1744,0,0
763,-720,0,0,0,0,0,0,0,0,0,-1,1987,1744,0,0
770,-720,0,0,0,0,0,0,0,0,0,-1,1994,1744,0,0
777,-720,0,0,0,0,0,0,0,0,0,-1,2001,1744,0,0
784,-720,0,0,0,0,0,0,0,0,0,-1,2008,1744,0,0
791,-720,0,0,0,0,0,0,0,0,0,-1,2015,1744,0,0
798,-720,0,0,0,0,0,0,0,0,0,-1,2022,1744,0,0
805,-720,0,0,0,0,0,0,0,0,0,-1,2029,1744,0,0
812,-720,0,0,0,0,0,0,0,0,0,-1,2036,1744,0,0
-700,-727,0,0,0,0,0,0,0,0,0,-1,524,1751,0,0
-693,-727,0,0,0,0,0,0,0,0,0,-1,531,1751,0,0
-686,-727,0,0,0,0,0,0,0,0,0,-1,538,1751,0,0
-679,-727,0,0,0,0,0,0,0,0,0,-1,545,1751,0,0
-672,-727,0,0,0,0,0,0,0,0,0,-1,552,1751,0,0
-665,-727,0,0,0,0,0,0,0,0,0,-1,559,1751,0,0
-658,-727,0,0,0,0,0,0,0,0,0,-1,566,1751,0,0
-651,-727,0,0,0,0,0,0,0,0,0,-1,573,1751,0,0
-644,-727,0,0,0,0,0,0,0,0,0,-1,580,1751,0,0
-637,-727,0,0,0,0,0,0,0,0,0,-1,587,1751,0,0
-630,-727,0,0,0,0,0,0,0,0,0,-1,594,1751,0,0
-623,-727,0,0,0,0,0,0,0,0,0,-1,601,1751,0,0
-616,-727,0,0,0,0,0,0,0,0,0,-1,608,1751,0,0
-609,-727,0,0,0,0,0,0,0,0,0,-1,615,1751,0,0
-602,-727,0,0,0,0,0,0,0,0,0,-1,622,1751,0,0
-595,-727,0,0,0,0,0,0,0,0,0,-1,629,1751,0,0
-588,-727,0,0,0,0,0,0,0,0,0,-1,636,1751,0,0
-581,-727,0,0,0,0,0,0,0,0,0,-1,643,1751,0,0
-574,-727,0,0,0,0,0,0,0,0,0,-1,650,1751,0,0
-567,-727,0,0,0,0,0,0,0,0,0,-1,657,1751,0,0
-560,-727,0,0,0,0,0,0,0,0,0,-1,664,1751,0,0
-553,-727,0,0,0,0,0,0,0,0,0,-1,671,1751,0,0
-546,-727,0,0,0,0,0,0,0,0,0,-1,678,1751,0,0
-539,-727,0,0,0,0,0,0,0,0,0,-1,685,1751,0,0
-532,-727,0,0,0,0,0,0,0,0,0,-1,692,1751,0,0
-525,-727,0,0,0,0,0,0,0,0,0,-1,699,1751,0,0
-518,-727,0,0,0,0,0,0,0,0,0,-1,706,1751,0,0
-511,-727,0,0,0,0,0,0,0,0,0,-1,713,1751,0,0
-504,-727,0,0,0,0,0,0,0,0,0,-1,720,1751,0,0
-497,-727,0,0,0,0,0,0,0,0,0,-1,727,1751,0,0
-490,-727,0,0,0,0,0,0,0,0,0,-1,734,1751,0,0
-483,-727,0,0,0,0,0,0,0,0,0,-1,741,1751,0,0
-476,-727,0,0,0,0,0,0,0,0,0,-1,748,1751,0,0
-469,-727,0,0,0,0,0,0,0,0,0,-1,755,1751,0,0
-462,-727,0,0,0,0,0,0,0,0,0,-1,762,1751,0,0
-455,-727,0,0,0,0,0,0,0,0,0,-1,769,1751,0,0
-448,-727,0,0,0,0,0,0,0,0,0,-1,776,1751,0,0
-441,-727,0,0,0,0,0,0,0,0,0,-1,783,1751,0,0
-434,-727,0,0,0,0,0,0,0,0,0,-1,790,1751,0,0
-427,-727,0,0,0,0,0,0,0,0,0,-1,797,1751,0,0
-420,-727,0,0,0,0,0,0,0,0,0,-1,804,1751,0,0
-413,-727,0,0,0,0,0,0,0,0,0,-1,811,1751,0,0
-406,-727,0,0,0,0,0,0,0,0,0,-1,818,1751,0,0
-399,-727,0,0,0,0,0,0,0,0,0,-1,825,1751,0,0
-392,-727,0,0,0,0,0,0,0,0,0,-1,832,1751,0,0
-385,-727,0,0,0,0,0,0,0,0,0,-1,839,1751,0,0
-378,-727,0,0,0,0,0,0,0,0,0,-1,846,1751,0,0
-371,-727,0,0,0,0,0,0,0,0,0,-1,853,1751,0,0
-364,-727,0,0,0,0,0,0,0,0,0,-1,860,1751,0,0
-357,-727,0,0,0,0,0,0,0,0,0,-1,867,1751,0,0
-350,-727,0,0,0,0,0,0,0,0,0,-1,874,1751,0,0
-343,-727,0,0,0,0,0,0,0,0,0,-1,881,1751,0,0
-336,-727,0,0,0,0,0,0,0,0,0,-1,888,1751,0,0
-329,-727,0,0,0,0,0,0,0,0,0,-1,895,1751,0,0
-322,-727,0,0,0,0,0,0,0,0,0,-1,902,1751,0,0
-315,-727,0,0,0,0,0,0,0,0,0,-1,909,1751,0,0
-308,-727,0,0,0,0,0,0,0,0,0,-1,916,1751,0,0
-301,-727,0,0,0,0,0,0,0,0,0,-1,923,1751,0,0
-294,-727,0,0,0,0,0,0,0,0,0,-1,930,1751,0,0
-287,-727,0,0,0,0,0,0,0,0,0,-1,937,1751,0,0
-280,-727,0,0,0,0,0,0,0,0,0,-1,944,1751,0,0
-273,-727,0,0,0,0,0,0,0,0,0,-1,951,1751,0,0
-266,-727,-1.12201,-0.606445,0,0,0,0,0,0,0,-1,958,1751,-1.12202,0.60641
-259,-727,-0.0910645,-0.304199,0,0,0,0,0,0,0,-1,965,1751,-0.0910522,0.304235
-252,-727,0.177429,-0.279419,0,0,0,0,0,0,0,-1,972,1751,0.17742,0.279421
-245,-727,0.544312,-0.44397,0,0,0,0,0,0,0,-1,979,1751,0.544328,0.444029
-238,-727,0.944092,-0.650391,0.00846778,0.0186122,-0.0367531,0.0506414,-0.0235615,-0.853969,0.0437817,0.0448541,986,1751,0.944115,0.650442
-231,-727,0.721741,-0.822388,0.00275281,0.0190848,-0.0326379,0.0445628,-0.0227251,-0.907982,0.0395248,0.0466854,993,1751,0.721751,0.822416
-224,-727,0.0397339,-1.46875,0,0,0,0,0,0,0,-1,1000,1751,0.0397332,1.46879
-217,-727,1.2486,-0.678345,0,0,0,0,0,0,0,-1,1007,1751,1.24857,0.678324
-210,-727,1.60876,-0.845459,0,0,0,0,0,0,0,-1,1014,1751,1.60877,0.845471
-203,-727,1.96899,-1.01257,0,0,0,0,0,0,0,-1,1021,1751,1.96898,1.01262
-196,-727,-0.599854,-0.522827,0,0,0,0,0,0,0,-1,1028,1751,-0.599852,0.522827
-189,-727,0.731812,-0.327637,0,0,0,0,0,0,0,-1,1035,1751,0.731824,0.327605
-182,-727,0.476074,-0.211426,0,0,0,0,0,0,0,-1,1042,1751,0.476088,0.211373
-175,-727,0.0321045,-0.0137939,0,0,0,0,0,0,0,-1,1049,1751,0.0320986,0.0137945
-168,-727,0.271484,-0.0169678,-0.00823344,0.00600892,-0.00395505,0.00703352,-0.00925804,-1.31731,0.00943512,0.0417715,1056,1751,0.271505,0.0169287
-161,-727,0.100586,-0.0765381,-0.00738796,0.00454439,-0.00380798,0.00565606,-0.00849964,-1.28676,0.00822758,0.0403215,1063,1751,0.100529,0.0765126
-154,-727,-0.188843,-0.0791016,-0.00648985,0.00380268,-0.00317153,0.00470146,-0.00738864,-1.29465,0.00703746,0.0345283,1070,1751,-0.18879,0.0791166
-147,-727,-0.0782471,0.133057,-0.00519004,0.00331618,-0.00271377,0.00410821,-0.00598208,-1.28683,0.00585902,0.0285959,1077,1751,-0.0782115,-0.133112
-140,-727,-0.010498,0.0548096,-0.00384225,0.00326381,-0.00283967,0.00425916,-0.0048376,-1.23366,0.00525556,0.0179112,1084,1751,-0.0104778,-0.0547485
-133,-727,-0.0275879,0.02771,-0.00286223,0.00400025,-0.00266587,0.00491415,-0.00377613,-1.24054,0.00503166,0.0113282,1091,1751,-0.0275987,-0.0277171
-126,-727,-0.0340576,0.0338135,-0.00195904,0.00431866,-0.00277244,0.00536775,-0.00300812,-1.20905,0.00489936,0.00890512,1098,1751,-0.0340384,-0.0338568
-119,-727,-0.0211182,0.0477295,-0.00155905,0.00512338,-0.0028241,0.00615701,-0.00259268,-1.21994,0.00518947,0.00913949,1105,1751,-0.0210951,-0.0477196
-112,-727,-0.0214844,0.0300293,-0.00136058,0.00620129,-0.00254954,0.00698058,-0.00213986,-1.27416,0.00550737,0.0118797,1112,1751,-0.0214537,-0.0299979
-105,-727,-0.0314941,0.019043,-0.00096681,0.00743866,-0.00229463,0.00802427,-0.00155243,-1.32092,0.00593506,0.0124624,1119,1751,-0.0315376,-0.0190763
-98,-727,-0.0235596,0.010498,-0.000810404,0.00871253,-0.00209535,0.00915318,-0.00125106,-1.36352,0.00655903,0.0100851,1126,1751,-0.0235035,-0.0105404
-91,-727,-0.0281982,0.0192871,-0.00107347,0.00978988,-0.0017963,0.0100792,-0.00136279,-1.4111,0.00721675,0.00979979,1133,1751,-0.0282157,-0.0192924
-84,-727,-0.0296631,0.0227051,-0.000980243,0.0105824,-0.00120059,0.0107058,-0.00110359,-1.46842,0.00753203,0.0106231,1140,1751,-0.0296514,-0.0227496
-77,-727,-0.0185547,0.0302734,-0.000286201,0.0105749,-0.000653428,0.0106141,-0.000325372,-1.51092,0.00718696,0.011639,1147,1751,-0.0185077,-0.030284
-70,-727,-0.019043,0.0383301,0.000275566,0.0102591,-0.000281144,0.010267,0.000267654,-1.54267,0.00675724,0.0122642,1154,1751,-0.0190186,-0.0383618
-63,-727,-0.0373535,0.0523682,0.000417587,0.010059,3.53233e-06,0.010059,0.000417586,1.57043,0.00657123,0.00985678,1161,1751,-0.0372957,-0.0524126
-56,-727,-0.0423584,0.0490723,0.000544977,0.00920864,0.000483217,0.00923551,0.000518108,1.51525,0.00599178,0.00961004,1168,1751,-0.0423232,-0.0490311
-49,-727,-0.0241699,0.0239258,0.000730099,0.00795207,0.000779995,0.00803535,0.000646817,1.46443,0.00515484,0.0122881,1175,1751,-0.024229,-0.0238843
-42,-727,-0.0119629,0.0280762,0.000884481,0.00668968,0.000983749,0.00685185,0.000722305,1.40741,0.00434718,0.0158106,1182,1751,-0.0119137,-0.0280893
-35,-727,-0.0461426,0.0266113,0.000929428,0.00531242,0.0011728,0.0056065,0.000635342,1.32511,0.00354492,0.0144216,1189,1751,-0.046142,-0.0265829
-28,-727,-0.0189209,0.0162354,0.000840419,0.00361195,0.00127516,0.00410937,0.000343001,1.19887,0.0026327,0.00864512,1196,1751,-0.0188648,-0.0162247
-21,-727,-0.0106201,0.0133057,0.000726647,0.00209407,0.0014616,0.00302396,-0.000203249,1.00417,0.00208703,0.00869262,1203,1751,-0.0106092,-0.0133338
-14,-727,-0.0178223,0.00646973,0.000582444,0.0005154,0.00154616,0.00209545,-0.000997606,0.774559,0.00182289,0.0102022,1210,1751,-0.0177664,-0.00643811
-7,-727,-0.0366211,-0.00671387,0.000472335,-0.000756438,0.00128209,0.00127965,-0.00156375,0.56196,0.00164436,0.0136804,1217,1751,-0.0366218,0.00676324
0,-727,-0.0236816,0.0158691,0.000427714,-0.00166925,0.000936776,0.000785242,-0.00202678,0.364595,0.00167544,0.0135642,1224,1751,-0.0236371,-0.0158419
7,-727,-0.0108643,0.0301514,0.000459636,-0.00241317,0.000625397,0.000589877,-0.00254341,0.20532,0.00192263,0.0141875,1231,1751,-0.0109221,-0.0301729
14,-727,-0.00744629,0.0332031,0.000516006,-0.00300283,0.00033883,0.000548335,-0.00303516,0.0951257,0.00222882,0.0145822,1238,1751,-0.00748645,-0.0331491
21,-727,-0.0175781,0.0361328,0.000571119,-0.00323084,0.000110228,0.000574312,-0.00323404,0.02896,0.00237076,0.0121114,1245,1751,-0.0175648,-0.0361719
28,-727,-0.0113525,0.0349121,0.000526449,-0.00329896,-7.8754e-05,0.00052807,-0.00330058,-0.0205754,0.00239589,0.0101659,1252,1751,-0.0113945,-0.0349319
35,-727,0.0169678,0.0374756,0.000494755,-0.00323666,-0.000177025,0.000503134,-0.00324504,-0.0473003,0.0023491,0.0108253,1259,1751,0.0169914,-0.0375361
42,-727,-0.00366211,0.0247803,0.000463559,-0.00334242,-0.000220509,0.000476292,-0.00335516,-0.0576802,0.00241127,0.0117996,1266,1751,-0.00362548,-0.0247592
49,-727,-0.0299072,0.0155029,0.000409402,-0.0033407,-0.00024443,0.000425267,-0.00335656,-0.064814,0.0023921,0.0104674,1273,1751,-0.0298481,-0.0155293
56,-727,-0.0323486,0.0257568,0.000314056,-0.00321792,-0.000189011,0.000324142,-0.003228,-0.0533112,0.00226779,0.00845371,1280,1751,-0.0323243,-0.0257571
63,-727,-0.0228271,0.0321045,0.000274585,-0.00309611,-5.06502e-05,0.000275346,-0.00309687,-0.0150221,0.00216221,0.0101345,1287,1751,-0.0228234,-0.0321076
70,-727,-0.0130615,0.0281982,0.00012053,-0.00280879,0.000166834,0.000130001,-0.00281826,0.0567089,0.00192364,0.0117611,1294,1751,-0.0130917,-0.0281767
77,-727,-0.00427246,0.0170898,-1.05785e-05,-0.002431,0.000328628,3.32469e-05,-0.00247482,0.132576,0.00166108,0.0138592,1301,1751,-0.00428328,-0.0170352
84,-727,-0.0123291,0.00842285,1.81735e-05,-0.00206962,0.000488636,0.000126877,-0.00217832,0.218898,0.0014963,0.0135945,1308,1751,-0.0123328,-0.00845037
91,-727,-0.0233154,0.00598145,0.000119452,-0.00174967,0.000662053,0.000330194,-0.00196041,0.308174,0.00142977,0.0133457,1315,1751,-0.0233462,-0.00600654
98,-727,-0.0112305,0.0354004,0.00017271,-0.00152584,0.000803028,0.000492248,-0.00184537,0.378709,0.001423,0.0122251,1322,1751,-0.0112597,-0.0353573
105,-727,-0.00878906,0.0377197,0.000112889,-0.00133749,0.000876139,0.00052503,-0.00174963,0.439693,0.00137525,0.011805,1329,1751,-0.00883592,-0.0377757
112,-727,-0.00927734,0.0400391,8.22088e-05,-0.00121045,0.00078742,0.000454591,-0.00158283,0.441745,0.00123496,0.0102992,1336,1751,-0.00923274,-0.0400515
119,-727,-0.00622559,0.0457764,0.000118606,-0.000576272,0.000665136,0.00052158,-0.000979246,0.544711,0.000879829,0.00905562,1343,1751,-0.00618899,-0.0458174
126,-727,-0.0183105,0.0384521,0.000218531,-0.000107829,0.000602459,0.000679518,-0.000568816,0.653143,0.00072167,0.0106804,1350,1751,-0.0182862,-0.0385068
133,-727,-0.0157471,0.0567627,0.000331098,0.000331903,0.000678865,0.00101037,-0.000347365,0.785695,0.000814444,0.0142819,1357,1751,-0.015735,-0.0567598
140,-727,0.0153809,0.072998,0.000363834,0.000782926,0.000729148,0.00133204,-0.000185282,0.92532,0.000955793,0.0204693,1364,1751,0.0153485,-0.0730359
147,-727,-0.0115967,0.050293,0.000424768,0.00128129,0.000816328,0.00177488,-6.88161e-05,1.02697,0.00120684,0.0173279,1371,1751,-0.011636,-0.0503307
154,-727,-0.019165,0.0432129,0.000506794,0.00174611,0.000926609,0.00224117,1.17428e-05,1.08012,0.00149021,0.0103784,1378,1751,-0.0192175,-0.0432167
161,-727,-0.00891113,0.0332031,0.000692626,0.00208846,0.00101197,0.00261984,0.000161243,1.08727,0.00169537,0.00881253,1385,1751,-0.00894479,-0.0332195
168,-727,-0.0321045,0.0343018,0.000634563,0.0022822,0.00121017,0.00292234,-5.58584e-06,1.08424,0.00195009,0.0111783,1392,1751,-0.0321347,-0.0342746
175,-727,-0.0313721,0.0356445,0.000512205,0.00226824,0.00133993,0.0029922,-0.000211755,1.07543,0.002069,0.0155849,1399,1751,-0.0313545,-0.0356938
182,-727,-0.00537109,0.0395508,0.000616981,0.00213277,0.00144932,0.0030104,-0.000260647,1.02631,0.00209921,0.0169943,1406,1751,-0.0054105,-0.0395092
189,-727,-0.0332031,0.046875,0.000813094,0.0019245,0.00144696,0.0029188,-0.000181208,0.968737,0.00200899,0.0107611,1413,1751,-0.0331574,-0.0469117
196,-727,-0.0378418,0.0385742,0.00106971,0.00149219,0.00143696,0.00273336,-0.000171453,0.858378,0.00188199,0.0122592,1420,1751,-0.0378707,-0.0385706
203,-727,-0.0441895,0.0350342,0.00136065,0.000954641,0.00142663,0.00259864,-0.000283358,0.714725,0.00183419,0.014855,1427,1751,-0.0442187,-0.0350407
210,-727,-0.0400391,0.0479736,0.00169971,0.00035864,0.00132471,0.00251392,-0.000455568,0.551109,0.00184663,0.0143931,1434,1751,-0.0400125,-0.0479437
217,-727,-0.0357666,0.0455322,0.00191224,-9.79812e-06,0.00116964,0.00246503,-0.000562587,0.4415,0.00185947,0.0103277,1441,1751,-0.0358037,-0.0455755
224,-727,-0.0125732,0.0318604,0.00209429,-0.000514296,0.00105308,0.00246635,-0.000886355,0.339617,0.00200605,0.011159,1448,1751,-0.0126126,-0.0318741
231,-727,-0.0164795,0.0112305,0.00202667,-0.000633878,0.000748334,0.00222271,-0.000829918,0.256211,0.00182256,0.00901254,1455,1751,-0.0165022,-0.0112743
238,-727,-0.00537109,0.0119629,0.0020003,-0.000468903,0.000490654,0.00209423,-0.000562828,0.189139,0.00161675,0.00955078,1462,1751,-0.00532322,-0.0119921
245,-727,-0.00463867,0.0307617,0.00214697,-0.000297701,0.000483986,0.0022393,-0.000390031,0.188506,0.00163843,0.00940776,1469,1751,-0.00468481,-0.0307336
252,-727,-0.00769043,0.0308838,0.00210962,-0.000167138,0.000756755,0.00233821,-0.00039572,0.293342,0.00170608,0.00960444,1476,1751,-0.00769069,-0.0308347
259,-727,-0.00976563,0.0246582,0.00210073,-0.000197947,0.000719752,0.0023075,-0.000404714,0.279742,0.00168947,0.0113965,1483,1751,-0.00980743,-0.0246432
266,-727,-0.0106201,0.0574951,0.00235833,-0.000376087,0.00073867,0.00254512,-0.00056287,0.247673,0.00191219,0.0141335,1490,1751,-0.0106211,-0.0574927
273,-727,-0.0144043,0.0772705,0.00277268,-0.000593047,0.000520806,0.00285142,-0.000671793,0.150064,0.00215999,0.0216792,1497,1751,-0.0143849,-0.0772595
280,-727,-0.102539,0.0249023,0.0032072,-0.000889824,0.000398747,0.00324565,-0.000928271,0.0961239,0.00253059,0.0321819,1504,1751,-0.102563,-0.0248925
287,-727,-0.227783,-0.0703125,0.00310872,-0.00151281,0.000351586,0.00313531,-0.00153941,0.0754966,0.00275088,0.0357988,1511,1751,-0.227801,0.0703402
294,-727,-0.180542,-0.422485,0.00324739,-0.00218632,-0.000153377,0.00325171,-0.00219064,-0.0281971,0.00316199,0.0373522,1518,1751,-0.180514,0.422456
301,-727,0.131592,0.0822754,0.00385651,-0.00281145,-0.000653067,0.00391987,-0.00287481,-0.0967165,0.00393834,0.0400082,1525,1751,0.131532,-0.0822632
308,-727,-0.0744629,-0.0351563,0.0043816,-0.00363797,-0.000903913,0.00448222,-0.00373859,-0.11086,0.00475275,0.0427693,1532,1751,-0.0744478,0.0352141
315,-727,0.20459,0.129517,0.00429507,-0.00418625,-0.0012805,0.00448418,-0.00437536,-0.146626,0.00511519,0.0400657,1539,1751,0.204587,-0.129569
322,-727,0.296997,0.124878,0.00434352,-0.00464849,-0.00158862,0.00461593,-0.0049209,-0.169823,0.00550703,0.039997,1546,1751,0.296945,-0.124868
329,-727,0.270508,-0.0982666,0.00418768,-0.00499907,-0.00191067,0.00456922,-0.00538061,-0.197095,0.0057509,0.0400428,1553,1751,0.27052,0.0982467
336,-727,0.276001,-0.127075,0.0039439,-0.00506135,-0.00211144,0.00441438,-0.00553183,-0.219244,0.00575451,0.0422991,1560,1751,0.276052,0.127065
343,-727,-0.142456,-0.237549,0.00334385,-0.00541359,-0.00217602,0.00385473,-0.00592447,-0.230604,0.00568802,0.0427831,1567,1751,-0.1424,0.237555
350,-727,0.0932617,-0.217651,0.00256326,-0.00499077,-0.00228598,0.00320117,-0.00562868,-0.27213,0.00516173,0.0455775,1574,1751,0.0932356,0.217676
357,-727,0.360352,-0.261475,0.00179092,-0.00464228,-0.00250587,0.0026518,-0.00550317,-0.330916,0.00480325,0.0444797,1581,1751,0.36038,0.261525
364,-727,0.227173,-0.353394,0.00117501,-0.0042828,-0.00197933,0.00181726,-0.00492505,-0.313758,0.00402816,0.0425602,1588,1751,0.227232,0.353414
371,-727,-0.0200195,-0.347778,0.00239405,-0.00385603,-0.00158411,0.00277262,-0.0042346,-0.234579,0.00407487,0.0418832,1595,1751,-0.0200456,0.34776
378,-727,-0.0767822,0.0687256,0.00538775,-0.00431254,-0.00178461,0.00570566,-0.00463045,-0.176287,0.0059783,0.0426078,1602,1751,-0.076779,-0.0687284
385,-727,0.0622559,-0.00952148,0.00939177,-0.00566746,-0.00554749,0.0112147,-0.00749037,-0.317486,0.0108705,0.0404643,1609,1751,0.062201,0.00954206
392,-727,0,0,0,0,0,0,0,0,0,-1,1616,1751,0,0
399,-727,0,0,0,0,0,0,0,0,0,-1,1623,1751,0,0
406,-727,0,0,0,0,0,0,0,0,0,-1,1630,1751,0,0
413,-727,0,0,0,0,0,0,0,0,0,-1,1637,1751,0,0
420,-727,0,0,0,0,0,0,0,0,0,-1,1644,1751,0,0
427,-727,0,0,0,0,0,0,0,0,0,-1,1651,1751,0,0
434,-727,0,0,0,0,0,0,0,0,0,-1,1658,1751,0,0
441,-727,0,0,0,0,0,0,0,0,0,-1,1665,1751,0,0
448,-727,0,0,0,0,0,0,0,0,0,-1,1672,1751,0,0
455,-727,0,0,0,0,0,0,0,0,0,-1,1679,1751,0,0
462,-727,0,0,0,0,0,0,0,0,0,-1,1686,1751,0,0
469,-727,0,0,0,0,0,0,0,0,0,-1,1693,1751,0,0
476,-727,0,0,0,0,0,0,0,0,0,-1,1700,1751,0,0
483,-727,0,0,0,0,0,0,0,0,0,-1,1707,1751,0,0
490,-727,0,0,0,0,0,0,0,0,0,-1,1714,1751,0,0
497,-727,0,0,0,0,0,0,0,0,0,-1,1721,1751,0,0
504,-727,0,0,0,0,0,0,0,0,0,-1,1728,1751,0,0
511,-727,0,0,0,0,0,0,0,0,0,-1,1735,1751,0,0
518,-727,0,0,0,0,0,0,0,0,0,-1,1742,1751,0,0
525,-727,0,0,0,0,0,0,0,0,0,-1,1749,1751,0,0
532,-727,0,0,0,0,0,0,0,0,0,-1,1756,1751,0,0
539,-727,0,0,0,0,0,0,0,0,0,-1,1763,1751,0,0
546,-727,0,0,0,0,0,0,0,0,0,-1,1770,1751,0,0
553,-727,0,0,0,0,0,0,0,0,0,-1,1777,1751,0,0
560,-727,0,0,0,0,0,0,0,0,0,-1,1784,1751,0,0
567,-727,0,0,0,0,0,0,0,0,0,-1,1791,1751,0,0
574,-727,0,0,0,0,0,0,0,0,0,-1,1798,1751,0,0
581,-727,0,0,0,0,0,0,0,0,0,-1,1805,1751,0,0
588,-727,0,0,0,0,0,0,0,0,0,-1,1812,1751,0,0
595,-727,0,0,0,0,0,0,0,0,0,-1,1819,1751,0,0
602,-727,0,0,0,0,0,0,0,0,0,-1,1826,1751,0,0
609,-727,0,0,0,0,0,0,0,0,0,-1,1833,1751,0,0
616,-727,0,0,0,0,0,0,0,0,0,-1,1840,1751,0,0
623,-727,0,0,0,0,0,0,0,0,0,-1,1847,1751,0,0
630,-727,0,0,0,0,0,0,0,0,0,-1,1854,1751,0,0
637,-727,0,0,0,0,0,0,0,0,0,-1,1861,1751,0,0
644,-727,0,0,0,0,0,0,0,0,0,-1,1868,1751,0,0
651,-727,0,0,0,0,0,0,0,0,0,-1,1875,1751,0,0
658,-727,0,0,0,0,0,0,0,0,0,-1,1882,1751,0,0
665,-727,0,0,0,0,0,0,0,0,0,-1,1889,1751,0,0
672,-727,0,0,0,0,0,0,0,0,0,-1,1896,1751,0,0
679,-727,0,0,0,0,0,0,0,0,0,-1,1903,1751,0,0
686,-727,0,0,0,0,0,0,0,0,0,-1,1910,1751,0,0
693,-727,0,0,0,0,0,0,0,0,0,-1,1917,1751,0,0
700,-727,0,0,0,0,0,0,0,0,0,-1,1924,1751,0,0
707,-727,0,0,0,0,0,0,0,0,0,-1,1931,1751,0,0
714,-727,0,0,0,0,0,0,0,0,0,-1,1938,1751,0,0
721,-727,0,0,0,0,0,0,0,0,0,-1,1945,1751,0,0
728,-727,0,0,0,0,0,0,0,0,0,-1,1952,1751,0,0
735,-727,0,0,0,0,0,0,0,0,0,-1,1959,1751,0,0
742,-727,0,0,0,0,0,0,0,0,0,-1,1966,1751,0,0
749,-727,0,0,0,0,0,0,0,0,0,-1,1973,1751,0,0
756,-727,0,0,0,0,0,0,0,0,0,-1,1980,1751,0,0
763,-727,0,0,0,0,0,0,0,0,0,-1,1987,1751,0,0
770,-727,0,0,0,0,0,0,0,0,0,-1,1994,1751,0,0
777,-727,0,0,0,0,0,0,0,0,0,-1,2001,1751,0,0
784,-727,0,0,0,0,0,0,0,0,0,-1,2008,1751,0,0
791,-727,0,0,0,0,0,0,0,0,0,-1,2015,1751,0,0
798,-727,0,0,0,0,0,0,0,0,0,-1,2022,1751,0,0
805,-727,0,0,0,0,0,0,0,0,0,-1,2029,1751,0,0
812,-727,0,0,0,0,0,0,0,0,0,-1,2036,1751,0,0
-700,-734,0,0,0,0,0,0,0,0,0,-1,524,1758,0,0
-693,-734,0,0,0,0,0,0,0,0,0,-1,531,1758,0,0
-686,-734,0,0,0,0,0,0,0,0,0,-1,538,1758,0,0
-679,-734,0,0,0,0,0,0,0,0,0,-1,545,1758,0,0
-672,-734,0,0,0,0,0,0,0,0,0,-1,552,1758,0,0
-665,-734,0,0,0,0,0,0,0,0,0,-1,559,1758,0,0
-658,-734,0,0,0,0,0,0,0,0,0,-1,566,1758,0,0
-651,-734,0,0,0,0,0,0,0,0,0,-1,573,1758,0,0
-644,-734,0,0,0,0,0,0,0,0,0,-1,580,1758,0,0
-637,-734,0,0,0,0,0,0,0,0,0,-1,587,1758,0,0
-630,-734,0,0,0,0,0,0,0,0,0,-1,594,1758,0,0
-623,-734,0,0,0,0,0,0,0,0,0,-1,601,1758,0,0
-616,-734,0,0,0,0,0,0,0,0,0,-1,608,1758,0,0
-609,-734,0,0,0,0,0,0,0,0,0,-1,615,1758,0,0
-602,-734,0,0,0,0,0,0,0,0,0,-1,622,1758,0,0
-595,-734,0,0,0,0,0,0,0,0,0,-1,629,1758,0,0
-588,-734,0,0,0,0,0,0,0,0,0,-1,636,1758,0,0
-581,-734,0,0,0,0,0,0,0,0,0,-1,643,1758,0,0
-574,-734,0,0,0,0,0,0,0,0,0,-1,650,1758,0,0
-567,-734,0,0,0,0,0,0,0,0,0,-1,657,1758,0,0
-560,-734,0,0,0,0,0,0,0,0,0,-1,664,1758,0,0
-553,-734,0,0,0,0,0,0,0,0,0,-1,671,1758,0,0
-546,-734,0,0,0,0,0,0,0,0,0,-1,678,1758,0,0
-539,-734,0,0,0,0,0,0,0,0,0,-1,685,1758,0,0
-532,-734,0,0,0,0,0,0,0,0,0,-1,692,1758,0,0
-525,-734,0,0,0,0,0,0,0,0,0,-1,699,1758,0,0
-518,-734,0,0,0,0,0,0,0,0,0,-1,706,1758,0,0
-511,-734,0,0,0,0,0,0,0,0,0,-1,713,1758,0,0
-504,-734,0,0,0,0,0,0,0,0,0,-1,720,1758,0,0
-497,-734,0,0,0,0,0,0,0,0,0,-1,727,1758,0,0
-490,-734,0,0,0,0,0,0,0,0,0,-1,734,1758,0,0
-483,-734,0,0,0,0,0,0,0,0,0,-1,741,1758,0,0
-476,-734,0,0,0,0,0,0,0,0,0,-1,748,1758,0,0
-469,-734,0,0,0,0,0,0,0,0,0,-1,755,1758,0,0
-462,-734,0,0,0,0,0,0,0,0,0,-1,762,1758,0,0
-455,-734,0,0,0,0,0,0,0,0,0,-1,769,1758,0,0
-448,-734,0,0,0,0,0,0,0,0,0,-1,776,1758,0,0
-441,-734,0,0,0,0,0,0,0,0,0,-1,783,1758,0,0
-434,-734,0,0,0,0,0,0,0,0,0,-1,790,1758,0,0
-427,-734,0,0,0,0,0,0,0,0,0,-1,797,1758,0,0
-420,-734,0,0,0,0,0,0,0,0,0,-1,804,1758,0,0
-413,-734,0,0,0,0,0,0,0,0,0,-1,811,1758,0,0
-406,-734,0,0,0,0,0,0,0,0,0,-1,818,1758,0,0
-399,-734,0,0,0,0,0,0,0,0,0,-1,825,1758,0,0
-392,-734,0,0,0,0,0,0,0,0,0,-1,832,1758,0,0
-385,-734,0,0,0,0,0,0,0,0,0,-1,839,1758,0,0
-378,-734,0,0,0,0,0,0,0,0,0,-1,846,1758,0,0
-371,-734,0,0,0,0,0,0,0,0,0,-1,853,1758,0,0
-364,-734,0,0,0,0,0,0,0,0,0,-1,860,1758,0,0
-357,-734,0,0,0,0,0,0,0,0,0,-1,867,1758,0,0
-350,-734,0,0,0,0,0,0,0,0,0,-1,874,1758,0,0
-343,-734,0,0,0,0,0,0,0,0,0,-1,881,1758,0,0
-336,-734,0,0,0,0,0,0,0,0,0,-1,888,1758,0,0
-329,-734,0,0,0,0,0,0,0,0,0,-1,895,1758,0,0
-322,-734,0,0,0,0,0,0,0,0,0,-1,902,1758,0,0
-315,-734,0,0,0,0,0,0,0,0,0,-1,909,1758,0,0
-308,-734,0,0,0,0,0,0,0,0,0,-1,916,1758,0,0
-301,-734,0,0,0,0,0,0,0,0,0,-1,923,1758,0,0
-294,-734,0,0,0,0,0,0,0,0,0,-1,930,1758,0,0
-287,-734,0,0,0,0,0,0,0,0,0,-1,937,1758,0,0
-280,-734,0,0,0,0,0,0,0,0,0,-1,944,1758,0,0
-273,-734,0,0,0,0,0,0,0,0,0,-1,951,1758,0,0
-266,-734,0,0,0,0,0,0,0,0,0,-1,958,1758,0,0
-259,-734,0,0,0,0,0,0,0,0,0,-1,965,1758,0,0
-252,-734,0.0791016,0.16748,0,0,0,0,0,0,0,-1,972,1758,0.079119,-0.167495
-245,-734,2.21313,-0.572021,0,0,0,0,0,0,0,-1,979,1758,2.21312,0.572008
-238,-734,1.95575,-0.684204,0.00830427,0.0135903,-0.0450352,0.05606,-0.0341654,-0.814708,0.0526004,0.0433726,986,1758,1.95576,0.684189
-231,-734,1.62268,-0.730713,0.00162584,0.0150061,-0.0393082,0.0481894,-0.0315574,-0.869689,0.0463744,0.0472635,993,1758,1.6227,0.730743
-224,-734,1.67767,-1.29822,-0.00325152,0.0156734,-0.0338904,0.0413976,-0.0289757,-0.921535,0.0408405,0.0465763,1000,1758,1.67769,1.29825
-217,-734,1.6405,-1.67603,0,0,0,0,0,0,0,-1,1007,1758,1.64053,1.67603
-210,-734,2.12811,-1.06653,0,0,0,0,0,0,0,-1,1014,1758,2.12809,1.06652
-203,-734,0.747314,-1.03247,0,0,0,0,0,0,0,-1,1021,1758,0.747287,1.03244
-196,-734,0.823242,-0.935913,0,0,0,0,0,0,0,-1,1028,1758,0.823211,0.935901
-189,-734,1.03564,-0.403198,0,0,0,0,0,0,0,-1,1035,1758,1.03565,0.403138
-182,-734,0.692627,-0.269775,-0.0114747,0.00843566,-0.00829758,0.0114402,-0.0144793,-1.22338,0.0149989,0.0464699,1042,1758,0.692588,0.269809
-175,-734,0.350708,-0.134399,-0.0115062,0.00714043,-0.00586357,0.008831,-0.0131967,-1.29009,0.0128007,0.0441432,1049,1758,0.350657,0.13434
-168,-734,0.197144,-0.0424805,-0.0106616,0.00597498,-0.00431246,0.00702639,-0.011713,-1.33165,0.0109314,0.0419491,1056,1758,0.197161,0.0424888
-161,-734,-0.153687,-0.239624,-0.00933603,0.00469757,-0.00436262,0.00594322,-0.0105817,-1.29267,0.00966512,0.0398823,1063,1758,-0.153719,0.239682
-154,-734,-0.542236,-0.363037,0,0,0,0,0,0,0,-1,1070,1758,-0.542188,0.363094
-147,-734,-0.364502,0.0679932,-0.00639472,0.00386196,-0.0035361,0.00496289,-0.00749565,-1.26897,0.00724232,0.0408218,1077,1758,-0.364539,-0.0680343
-140,-734,-0.00415039,0.0946045,-0.00465518,0.003981,-0.00390688,0.00548611,-0.00616029,-1.20307,0.0067278,0.0367911,1084,1758,-0.00421097,-0.0946306
-133,-734,-0.0224609,0.0506592,-0.0033052,0.00579551,-0.00412064,0.007384,-0.00489368,-1.20286,0.00713696,0.0286088,1091,1758,-0.0224126,-0.0506695
-126,-734,-0.0943604,0.0456543,-0.00215692,0.00708975,-0.00453903,0.00894546,-0.00401263,-1.1827,0.00765992,0.0261881,1098,1758,-0.0943772,-0.0456899
-119,-734,-0.13623,0.074585,-0.00161579,0.00884923,-0.00482095,0.0107315,-0.00349811,-1.19855,0.00856201,0.0290924,1105,1758,-0.136246,-0.0746293
-112,-734,0.0527344,-0.00720215,-0.00132134,0.0108779,-0.0047238,0.0124932,-0.00293662,-1.24132,0.00946084,0.0236264,1112,1758,0.0527159,0.00726054
-105,-734,0.0114746,0.0133057,-0.00083583,0.0129496,-0.00459749,0.0143422,-0.00222843,-1.27668,0.0103843,0.0167929,1119,1758,0.0114406,-0.0133554
-98,-734,-0.0412598,0.0319824,-0.000664108,0.0149709,-0.00445615,0.0161517,-0.00184497,-1.31175,0.0114325,0.0126528,1126,1758,-0.0412614,-0.0319663
-91,-734,-0.0413818,0.0460205,-0.000974599,0.0166171,-0.00414382,0.0175443,-0.00190183,-1.35066,0.012379,0.0126899,1133,1758,-0.0414269,-0.046052
-84,-734,-0.0135498,0.0432129,-0.000878237,0.0177523,-0.00339932,0.0183532,-0.0014791,-1.39584,0.0127571,0.0108121,1140,1758,-0.01359,-0.0432398
-77,-734,-0.015625,0.0290527,-0.000123819,0.0176935,-0.00261144,0.0180684,-0.000498683,-1.42822,0.0122152,0.0108087,1147,1758,-0.0155675,-0.029033
-70,-734,-0.0328369,0.0316162,0.00046052,0.0169147,-0.00189914,0.0171311,0.000244167,-1.45736,0.0113402,0.0104596,1154,1758,-0.0328194,-0.031648
-63,-734,-0.0256348,0.0444336,0.000589402,0.0161624,-0.00124609,0.0162615,0.000490326,-1.49145,0.0106813,0.0106145,1161,1758,-0.0256849,-0.0444604
-56,-734,-0.0275879,0.0394287,0.000721721,0.0144358,-0.000314935,0.0144431,0.000714493,-1.54785,0.0093996,0.0104206,1168,1758,-0.0276362,-0.0394423
-49,-734,-0.00793457,0.0310059,0.00095261,0.0120544,0.000392498,0.0120683,0.000938752,1.5355,0.00775159,0.0111298,1175,1758,-0.00793596,-0.0310362
-42,-734,-0.0217285,0.0291748,0.00126763,0.00964904,0.000953985,0.00975626,0.00116042,1.45888,0.00615394,0.012813,1182,1758,-0.0217648,-0.0291197
-35,-734,-0.0378418,0.0332031,0.00140538,0.00707433,0.00162458,0.00750689,0.000972821,1.31057,0.0047139,0.0133994,1189,1758,-0.0378992,-0.0331674
-28,-734,-0.0126953,0.0187988,0.00141534,0.00394306,0.00216437,0.00518555,0.000172841,1.04966,0.00340089,0.00902757,1196,1758,-0.012675,-0.0187644
-21,-734,0.0292969,0.0135498,0.00160873,0.00149296,0.00265373,0.00420521,-0.00110352,0.774493,0.00323467,0.0122215,1203,1758,0.0293335,-0.013528
-14,-734,-0.00158691,0.0311279,0.00189015,-0.000770347,0.00293885,0.0037858,-0.00266599,0.572874,0.0037436,0.0135247,1210,1758,-0.00162506,-0.0311469
-7,-734,-0.0201416,0.00524902,0.00202445,-0.00262633,0.00279275,0.00333319,-0.00393507,0.43823,0.00420112,0.0160482,1217,1758,-0.0200842,-0.0052204
0,-734,-0.0142822,0.0214844,0.00213276,-0.00387996,0.00263308,0.00312281,-0.00487001,0.359652,0.00465127,0.0158319,1224,1758,-0.0142272,-0.0214339
7,-734,-0.00695801,0.0465088,0.00230398,-0.00474173,0.00245654,0.0030759,-0.00551365,0.304461,0.00502531,0.0130908,1231,1758,-0.00696132,-0.0465057
14,-734,-0.00500488,0.0450439,0.00244603,-0.00544588,0.00227022,0.00305249,-0.00605234,0.261041,0.00535094,0.0142962,1238,1758,-0.00502847,-0.0450689
21,-734,-0.0185547,0.0493164,0.00249157,-0.00580674,0.00205887,0.00297431,-0.00628948,0.230308,0.00546142,0.0119556,1245,1758,-0.0185114,-0.0493496
28,-734,-0.0174561,0.0423584,0.00235814,-0.00588153,0.00188457,0.00276872,-0.00629211,0.214511,0.00536149,0.01008,1252,1758,-0.0174949,-0.0423913
35,-734,0.0020752,0.0517578,0.00216345,-0.00581478,0.0017672,0.00253737,-0.00618869,0.208511,0.00518292,0.0123816,1259,1758,0.00212981,-0.0517773
42,-734,0.00109863,0.0424805,0.00178869,-0.00603821,0.00156113,0.00208858,-0.0063381,0.189785,0.00506716,0.0113494,1266,1758,0.00110807,-0.0425353
49,-734,-0.0233154,0.032959,0.00132338,-0.00614554,0.00129205,0.00154058,-0.00636274,0.166545,0.00483782,0.00978808,1273,1758,-0.0233532,-0.0329872
56,-734,-0.0321045,0.0270996,0.00084929,-0.00603657,0.00108608,0.00101653,-0.00620381,0.152786,0.00451304,0.00869641,1280,1758,-0.0321232,-0.0271457
63,-734,-0.0197754,0.0319824,0.000334874,-0.00583551,0.000891139,0.000460995,-0.00596164,0.140595,0.00413666,0.011015,1287,1758,-0.0197337,-0.0320277
70,-734,-0.0383301,0.0476074,-0.000230578,-0.00531262,0.000687489,-0.000139218,-0.00540398,0.132115,0.00355715,0.0118074,1294,1758,-0.0383759,-0.0475829
77,-734,-0.0222168,0.060791,-0.000644346,-0.0047845,0.000485861,-0.000588093,-0.00484075,0.115267,0.0030501,0.0163195,1301,1758,-0.0222681,-0.0608057
84,-734,-0.0267334,0.0427246,-0.000963551,-0.00411325,0.000296565,-0.00093587,-0.00414093,0.0930668,0.00250757,0.0151523,1308,1758,-0.0267908,-0.0427519
91,-734,-0.0168457,0.0303955,-0.00116585,-0.00341728,0.000174458,-0.00115241,-0.00343072,0.0768761,0.00201597,0.0154048,1315,1758,-0.0168802,-0.0304511
98,-734,0.0235596,0.0500488,-0.00111466,-0.00272381,9.79655e-05,-0.00110872,-0.00272976,0.0605818,0.00158525,0.0128707,1322,1758,0.0235115,-0.0500024
105,-734,0.015625,0.0445557,-0.0010704,-0.0021925,-3.05463e-05,-0.00106957,-0.00219334,-0.0271954,0.00126645,0.0141529,1329,1758,0.0156136,-0.0445771
112,-734,-0.00500488,0.0313721,-0.000946533,-0.00199371,-0.000174716,-0.000918152,-0.00202209,-0.161035,0.0011691,0.0118769,1336,1758,-0.00495533,-0.0313505
119,-734,-0.020752,0.0274658,-0.000745675,-0.00101745,-0.000246406,-0.000600171,-0.00116295,-0.533409,0.000671547,0.0126768,1343,1758,-0.0207825,-0.0275264
126,-734,-0.0126953,0.0401611,-0.00043233,-0.000194145,-9.85127e-05,-0.000158681,-0.000467794,-1.22524,0.000274696,0.0160622,1350,1758,-0.0126906,-0.0402061
133,-734,-0.0177002,0.0336914,-8.26679e-05,0.000281855,0.000225074,0.00038921,-0.000190023,1.12574,0.000340948,0.0138132,1357,1758,-0.0176487,-0.0336312
140,-734,-0.00109863,0.0280762,0.000180867,0.000697747,0.000518495,0.00101864,-0.000140027,1.0166,0.000730258,0.0181068,1364,1758,-0.00107661,-0.0280501
147,-734,-0.00280762,0.0222168,0.000561436,0.00126864,0.00087511,0.00185889,-2.88108e-05,0.977402,0.00124897,0.0128556,1371,1758,-0.00278177,-0.0221971
154,-734,-0.0100098,0.0467529,0.000890646,0.0018251,0.00119472,0.00264071,7.50393e-05,0.971793,0.001736,0.00871936,1378,1758,-0.0100195,-0.0467286
161,-734,-0.0108643,0.0385742,0.00122217,0.00206347,0.00147586,0.00317746,0.000108183,0.924226,0.00208318,0.00825567,1385,1758,-0.010808,-0.0385831
168,-734,-0.0498047,0.0415039,0.00128713,0.00215409,0.00190727,0.00367652,-0.000235301,0.897139,0.00253309,0.0130942,1392,1758,-0.0497531,-0.0415106
175,-734,-0.0322266,0.0478516,0.00122312,0.00207199,0.00219106,0.00387935,-0.000584239,0.881069,0.00280136,0.0153709,1399,1758,-0.032172,-0.0478519
182,-734,-0.0229492,0.0380859,0.00136568,0.00198365,0.00233862,0.00403361,-0.000684282,0.851079,0.0029438,0.01362,1406,1758,-0.0229784,-0.0381243
189,-734,-0.032959,0.0275879,0.00164319,0.00176033,0.00235065,0.00405314,-0.000649618,0.797854,0.00294263,0.0104163,1413,1758,-0.0329951,-0.0276225
196,-734,-0.0283203,0.0299072,0.00199073,0.00133472,0.00233143,0.00401711,-0.000691664,0.715512,0.00293592,0.0107208,1420,1758,-0.0282693,-0.0299212
203,-734,-0.012085,0.0395508,0.00232881,0.000834277,0.00222353,0.00392729,-0.000764199,0.623291,0.00290661,0.0106093,1427,1758,-0.0120493,-0.039576
210,-734,-0.00488281,0.0429688,0.00270662,0.000287968,0.00200047,0.00383488,-0.0008403,0.51353,0.00287788,0.0117673,1434,1758,-0.00482671,-0.0430025
217,-734,-0.0181885,0.0419922,0.00293238,-6.38157e-06,0.0017147,0.00372115,-0.000795156,0.431146,0.00278393,0.00962888,1441,1758,-0.0181826,-0.0420305
224,-734,-0.0373535,0.0216064,0.00313681,-0.000549689,0.00150039,0.00367027,-0.00108314,0.341606,0.00287669,0.010619,1448,1758,-0.0373417,-0.0216315
231,-734,-0.0325928,0.0169678,0.00304817,-0.000710095,0.0010578,0.00332544,-0.000987366,0.256354,0.00260912,0.0117686,1455,1758,-0.0326252,-0.0169787
238,-734,-0.00964355,0.0240479,0.0029803,-0.000525814,0.000693279,0.00311241,-0.000657921,0.188297,0.00232548,0.0146807,1462,1758,-0.00961628,-0.0240124
245,-734,-0.0197754,0.00720215,0.00306161,-0.000381953,0.000639697,0.0031766,-0.000496947,0.177863,0.00230134,0.0197774,1469,1758,-0.0197203,-0.00719277
252,-734,0.0157471,0.00537109,0.0029102,-0.000286174,0.000953889,0.00317322,-0.000549198,0.269053,0.00232032,0.0241071,1476,1758,0.015699,-0.00538716
259,-734,0.134033,0.118774,0.00279666,-0.000396097,0.000910911,0.00303827,-0.000637702,0.259265,0.00226816,0.0308265,1483,1758,0.134043,-0.118721
266,-734,0.0426025,0.13208,0.00302453,-0.000667854,0.000910813,0.00323698,-0.000880304,0.229156,0.00250355,0.0389684,1490,1758,0.0426163,-0.132019
273,-734,0.050293,0.153076,0.00344844,-0.000986802,0.000618193,0.00353299,-0.00107136,0.135931,0.00278208,0.0443883,1497,1758,0.0502764,-0.153127
280,-734,-0.0539551,0.0355225,0.00390106,-0.00141048,0.000500774,0.00394787,-0.00145728,0.0931862,0.0032292,0.0473612,1504,1758,-0.0539832,-0.0355388
287,-734,-0.43457,-0.247314,0.00373351,-0.00215743,0.000472522,0.00377117,-0.00219509,0.079534,0.00348446,0.0476027,1511,1758,-0.434579,0.247297
294,-734,-0.224731,-0.595581,0.00376566,-0.00299995,-4.85493e-05,0.00376601,-0.0030003,-0.00717539,0.00391486,0.0445029,1518,1758,-0.224737,0.595538
301,-734,0.076416,0.211548,0.00440122,-0.00383024,-0.000571676,0.00444074,-0.00386975,-0.0690086,0.00480184,0.0456368,1525,1758,0.0763892,-0.211541
308,-734,0.244629,0.459717,0.0051251,-0.00492137,-0.000744154,0.00517992,-0.00497619,-0.0735363,0.00586403,0.0433817,1532,1758,0.244604,-0.459678
315,-734,0.404175,0.242065,0.00518364,-0.00571806,-0.00111623,0.00529676,-0.00583117,-0.100994,0.00642718,0.0418852,1539,1758,0.404165,-0.242049
322,-734,0.408081,0.199219,0.00532443,-0.00645936,-0.00141224,0.00549131,-0.00662625,-0.117627,0.0070063,0.0391033,1546,1758,0.408131,-0.199162
329,-734,0.351318,0.217285,0.00521215,-0.00707122,-0.00176779,0.0054615,-0.00732058,-0.14013,0.00740571,0.0380579,1553,1758,0.351343,-0.21729
336,-734,0.251831,0.202637,0.00494422,-0.0072601,-0.00182667,0.00521175,-0.00752764,-0.145429,0.00739549,0.0420238,1560,1758,0.251804,-0.202625
343,-734,0.0859375,0.103394,0.00418754,-0.00760118,-0.00180392,0.0044574,-0.00787104,-0.148495,0.00720821,0.046014,1567,1758,0.0858774,-0.103345
350,-734,-0.03125,-0.435425,0.0034039,-0.00725135,-0.00169219,0.00366619,-0.00751363,-0.153773,0.00658085,0.0449412,1574,1758,-0.0313059,0.435457
357,-734,0.362427,-0.0817871,0.00263882,-0.00720328,-0.00181867,0.00296413,-0.00752859,-0.177001,0.00624612,0.0439499,1581,1758,0.362464,0.0818057
364,-734,0.262817,-0.165405,0.00170518,-0.00715027,-0.00116582,0.00185609,-0.00730117,-0.128728,0.00558982,0.0411746,1588,1758,0.262853,0.16546
371,-734,0.0948486,-0.0836182,0.00242781,-0.00689827,-0.000647061,0.00247249,-0.00694295,-0.0689416,0.00563655,0.0388994,1595,1758,0.0948531,0.0836111
378,-734,0,0,0,0,0,0,0,0,0,-1,1602,1758,0,0
385,-734,0,0,0,0,0,0,0,0,0,-1,1609,1758,0,0
392,-734,0,0,0,0,0,0,0,0,0,-1,1616,1758,0,0
399,-734,0,0,0,0,0,0,0,0,0,-1,1623,1758,0,0
406,-734,0,0,0,0,0,0,0,0,0,-1,1630,1758,0,0
413,-734,0,0,0,0,0,0,0,0,0,-1,1637,1758,0,0
420,-734,0,0,0,0,0,0,0,0,0,-1,1644,1758,0,0
427,-734,0,0,0,0,0,0,0,0,0,-1,1651,1758,0,0
434,-734,0,0,0,0,0,0,0,0,0,-1,1658,1758,0,0
441,-734,0,0,0,0,0,0,0,0,0,-1,1665,1758,0,0
448,-734,0,0,0,0,0,0,0,0,0,-1,1672,1758,0,0
455,-734,0,0,0,0,0,0,0,0,0,-1,1679,1758,0,0
462,-734,0,0,0,0,0,0,0,0,0,-1,1686,1758,0,0
469,-734,0,0,0,0,0,0,0,0,0,-1,1693,1758,0,0
476,-734,0,0,0,0,0,0,0,0,0,-1,1700,1758,0,0
483,-734,0,0,0,0,0,0,0,0,0,-1,1707,1758,0,0
490,-734,0,0,0,0,0,0,0,0,0,-1,1714,1758,0,0
497,-734,0,0,0,0,0,0,0,0,0,-1,1721,1758,0,0
504,-734,0,0,0,0,0,0,0,0,0,-1,1728,1758,0,0
511,-734,0,0,0,0,0,0,0,0,0,-1,1735,1758,0,0
518,-734,0,0,0,0,0,0,0,0,0,-1,1742,1758,0,0
525,-734,0,0,0,0,0,0,0,0,0,-1,1749,1758,0,0
532,-734,0,0,0,0,0,0,0,0,0,-1,1756,1758,0,0
539,-734,0,0,0,0,0,0,0,0,0,-1,1763,1758,0,0
546,-734,0,0,0,0,0,0,0,0,0,-1,1770,1758,0,0
553,-734,0,0,0,0,0,0,0,0,0,-1,1777,1758,0,0
560,-734,0,0,0,0,0,0,0,0,0,-1,1784,1758,0,0
567,-734,0,0,0,0,0,0,0,0,0,-1,1791,1758,0,0
574,-734,0,0,0,0,0,0,0,0,0,-1,1798,1758,0,0
581,-734,0,0,0,0,0,0,0,0,0,-1,1805,1758,0,0
588,-734,0,0,0,0,0,0,0,0,0,-1,1812,1758,0,0
595,-734,0,0,0,0,0,0,0,0,0,-1,1819,1758,0,0
602,-734,0,0,0,0,0,0,0,0,0,-1,1826,1758,0,0
609,-734,0,0,0,0,0,0,0,0,0,-1,1833,1758,0,0
616,-734,0,0,0,0,0,0,0,0,0,-1,1840,1758,0,0
623,-734,0,0,0,0,0,0,0,0,0,-1,1847,1758,0,0
630,-734,0,0,0,0,0,0,0,0,0,-1,1854,1758,0,0
637,-734,0,0,0,0,0,0,0,0,0,-1,1861,1758,0,0
644,-734,0,0,0,0,0,0,0,0,0,-1,1868,1758,0,0
651,-734,0,0,0,0,0,0,0,0,0,-1,1875,1758,0,0
658,-734,0,0,0,0,0,0,0,0,0,-1,1882,1758,0,0
665,-734,0,0,0,0,0,0,0,0,0,-1,1889,1758,0,0
672,-734,0,0,0,0,0,0,0,0,0,-1,1896,1758,0,0
679,-734,0,0,0,0,0,0,0,0,0,-1,1903,1758,0,0
686,-734,0,0,0,0,0,0,0,0,0,-1,1910,1758,0,0
693,-734,0,0,0,0,0,0,0,0,0,-1,1917,1758,0,0
700,-734,0,0,0,0,0,0,0,0,0,-1,1924,1758,0,0
707,-734,0,0,0,0,0,0,0,0,0,-1,1931,1758,0,0
714,-734,0,0,0,0,0,0,0,0,0,-1,1938,1758,0,0
721,-734,0,0,0,0,0,0,0,0,0,-1,1945,1758,0,0
728,-734,0,0,0,0,0,0,0,0,0,-1,1952,1758,0,0
735,-734,0,0,0,0,0,0,0,0,0,-1,1959,1758,0,0
742,-734,0,0,0,0,0,0,0,0,0,-1,1966,1758,0,0
749,-734,0,0,0,0,0,0,0,0,0,-1,1973,1758,0,0
756,-734,0,0,0,0,0,0,0,0,0,-1,1980,1758,0,0
763,-734,0,0,0,0,0,0,0,0,0,-1,1987,1758,0,0
770,-734,0,0,0,0,0,0,0,0,0,-1,1994,1758,0,0
777,-734,0,0,0,0,0,0,0,0,0,-1,2001,1758,0,0
784,-734,0,0,0,0,0,0,0,0,0,-1,2008,1758,0,0
791,-734,0,0,0,0,0,0,0,0,0,-1,2015,1758,0,0
798,-734,0,0,0,0,0,0,0,0,0,-1,2022,1758,0,0
805,-734,0,0,0,0,0,0,0,0,0,-1,2029,1758,0,0
812,-734,0,0,0,0,0,0,0,0,0,-1,2036,1758,0,0
-700,-741,0,0,0,0,0,0,0,0,0,-1,524,1765,0,0
-693,-741,0,0,0,0,0,0,0,0,0,-1,531,1765,0,0
-686,-741,0,0,0,0,0,0,0,0,0,-1,538,1765,0,0
-679,-741,0,0,0,0,0,0,0,0,0,-1,545,1765,0,0
-672,-741,0,0,0,0,0,0,0,0,0,-1,552,1765,0,0
-665,-741,0,0,0,0,0,0,0,0,0,-1,559,1765,0,0
-658,-741,0,0,0,0,0,0,0,0,0,-1,566,1765,0,0
-651,-741,0,0,0,0,0,0,0,0,0,-1,573,1765,0,0
-644,-741,0,0,0,0,0,0,0,0,0,-1,580,1765,0,0
-637,-741,0,0,0,0,0,0,0,0,0,-1,587,1765,0,0
-630,-741,0,0,0,0,0,0,0,0,0,-1,594,1765,0,0
-623,-741,0,0,0,0,0,0,0,0,0,-1,601,1765,0,0
-616,-741,0,0,0,0,0,0,0,0,0,-1,608,1765,0,0
-609,-741,0,0,0,0,0,0,0,0,0,-1,615,1765,0,0
-602,-741,0,0,0,0,0,0,0,0,0,-1,622,1765,0,0
-595,-741,0,0,0,0,0,0,0,0,0,-1,629,1765,0,0
-588,-741,0,0,0,0,0,0,0,0,0,-1,636,1765,0,0
-581,-741,0,0,0,0,0,0,0,0,0,-1,643,1765,0,0
-574,-741,0,0,0,0,0,0,0,0,0,-1,650,1765,0,0
-567,-741,0,0,0,0,0,0,0,0,0,-1,657,1765,0,0
-560,-741,0,0,0,0,0,0,0,0,0,-1,664,1765,0,0
-553,-741,0,0,0,0,0,0,0,0,0,-1,671,1765,0,0
-546,-741,0,0,0,0,0,0,0,0,0,-1,678,1765,0,0
-539,-741,0,0,0,0,0,0,0,0,0,-1,685,1765,0,0
-532,-741,0,0,0,0,0,0,0,0,0,-1,692,1765,0,0
-525,-741,0,0,0,0,0,0,0,0,0,-1,699,1765,0,0
-518,-741,0,0,0,0,0,0,0,0,0,-1,706,1765,0,0
-511,-741,0,0,0,0,0,0,0,0,0,-1,713,1765,0,0
-504,-741,0,0,0,0,0,0,0,0,0,-1,720,1765,0,0
-497,-741,0,0,0,0,0,0,0,0,0,-1,727,1765,0,0
-490,-741,0,0,0,0,0,0,0,0,0,-1,734,1765,0,0
-483,-741,0,0,0,0,0,0,0,0,0,-1,741,1765,0,0
-476,-741,0,0,0,0,0,0,0,0,0,-1,748,1765,0,0
-469,-741,0,0,0,0,0,0,0,0,0,-1,755,1765,0,0
-462,-741,0,0,0,0,0,0,0,0,0,-1,762,1765,0,0
-455,-741,0,0,0,0,0,0,0,0,0,-1,769,1765,0,0
-448,-741,0,0,0,0,0,0,0,0,0,-1,776,1765,0,0
-441,-741,0,0,0,0,0,0,0,0,0,-1,783,1765,0,0
-434,-741,0,0,0,0,0,0,0,0,0,-1,790,1765,0,0
-427,-741,0,0,0,0,0,0,0,0,0,-1,797,1765,0,0
-420,-741,0,0,0,0,0,0,0,0,0,-1,804,1765,0,0
-413,-741,0,0,0,0,0,0,0,0,0,-1,811,1765,0,0
-406,-741,0,0,0,0,0,0,0,0,0,-1,818,1765,0,0
-399,-741,0,0,0,0,0,0,0,0,0,-1,825,1765,0,0
-392,-741,0,0,0,0,0,0,0,0,0,-1,832,1765,0,0
-385,-741,0,0,0,0,0,0,0,0,0,-1,839,1765,0,0
-378,-741,0,0,0,0,0,0,0,0,0,-1,846,1765,0,0
-371,-741,0,0,0,0,0,0,0,0,0,-1,853,1765,0,0
-364,-741,0,0,0,0,0,0,0,0,0,-1,860,1765,0,0
-357,-741,0,0,0,0,0,0,0,0,0,-1,867,1765,0,0
-350,-741,0,0,0,0,0,0,0,0,0,-1,874,1765,0,0
-343,-741,0,0,0,0,0,0,0,0,0,-1,881,1765,0,0
-336,-741,0,0,0,0,0,0,0,0,0,-1,888,1765,0,0
-329,-741,0,0,0,0,0,0,0,0,0,-1,895,1765,0,0
-322,-741,0,0,0,0,0,0,0,0,0,-1,902,1765,0,0
-315,-741,0,0,0,0,0,0,0,0,0,-1,909,1765,0,0
-308,-741,0,0,0,0,0,0,0,0,0,-1,916,1765,0,0
-301,-741,0,0,0,0,0,0,0,0,0,-1,923,1765,0,0
-294,-741,0,0,0,0,0,0,0,0,0,-1,930,1765,0,0
-287,-741,0,0,0,0,0,0,0,0,0,-1,937,1765,0,0
-280,-741,0,0,0,0,0,0,0,0,0,-1,944,1765,0,0
-273,-741,0,0,0,0,0,0,0,0,0,-1,951,1765,0,0
-266,-741,0,0,0,0,0,0,0,0,0,-1,958,1765,0,0
-259,-741,0,0,0,0,0,0,0,0,0,-1,965,1765,0,0
-252,-741,0,0,0,0,0,0,0,0,0,-1,972,1765,0,0
-245,-741,0,0,0,0,0,0,0,0,0,-1,979,1765,0,0
-238,-741,2.8941,-0.94458,0,0,0,0,0,0,0,-1,986,1765,2.89413,0.944636
-231,-741,2.58099,-0.857056,-0.000124248,0.00850463,-0.0461492,0.0505407,-0.0421603,-0.832007,0.0535938,0.0423737,993,1765,2.58096,0.857116
-224,-741,2.86768,-0.909058,-0.00554752,0.0102931,-0.0390898,0.0422569,-0.0375113,-0.885354,0.0460813,0.0415216,1000,1765,2.8677,0.909077
-217,-741,1.15027,-1.4325,0,0,0,0,0,0,0,-1,1007,1765,1.15028,1.43252
-210,-741,1.10962,-1.25623,-0.011722,0.0101471,-0.0246582,0.0261865,-0.0277614,-0.994093,0.0311512,0.0453906,1014,1765,1.10963,1.25625
-203,-741,1.12042,-1.08972,-0.0135645,0.0094366,-0.0189323,0.0200877,-0.0242156,-1.05834,0.0256155,0.0466587,1021,1765,1.12045,1.08977
-196,-741,1.43604,-1.01184,0,0,0,0,0,0,0,-1,1028,1765,1.43607,1.01179
-189,-741,1.16248,-0.816162,0,0,0,0,0,0,0,-1,1035,1765,1.16252,0.816147
-182,-741,0.92041,-0.594238,-0.0145469,0.00703567,-0.00850152,0.00998221,-0.0174934,-1.23716,0.0160594,0.045145,1042,1765,0.920356,0.594276
-175,-741,0.644897,-0.367554,-0.0144531,0.0061676,-0.00602649,0.0077997,-0.0160852,-1.30632,0.0140638,0.0434871,1049,1765,0.644928,0.36758
-168,-741,0.387695,-0.265015,-0.0133862,0.00550452,-0.00454781,0.00654236,-0.014424,-1.34643,0.0123868,0.0419619,1056,1765,0.387695,0.265068
-161,-741,0.15686,-0.13855,-0.0115248,0.00457093,-0.00487316,0.00593135,-0.0128852,-1.29856,0.0111083,0.0410147,1063,1765,0.156838,0.138517
-154,-741,-0.387817,0.057373,-0.00967744,0.00431844,-0.00462347,0.00570785,-0.0110668,-1.27887,0.00984824,0.0404126,1070,1765,-0.387758,-0.0574314
-147,-741,-0.937378,0.237793,-0.00787352,0.00431901,-0.00443257,0.00576013,-0.00931464,-1.25646,0.0087837,0.0424972,1077,1765,-0.937427,-0.23784
-140,-741,0.0726318,0.131226,-0.00587929,0.00464155,-0.00501711,0.00665048,-0.00788822,-1.18993,0.00840405,0.0439234,1084,1765,0.0726674,-0.131271
-133,-741,0.234375,0.0395508,-0.00426167,0.00751517,-0.00552681,0.00970259,-0.00644909,-1.19393,0.00938802,0.0414484,1091,1765,0.234416,-0.0395936
-126,-741,-0.126831,0.0482178,-0.00305566,0.00993186,-0.00615665,0.0123865,-0.00551026,-1.19142,0.0105838,0.0397457,1098,1765,-0.126798,-0.0482208
-119,-741,-0.263794,0.155518,-0.00245505,0.0128169,-0.00639838,0.0151432,-0.00478138,-1.22207,0.0120108,0.0425801,1105,1765,-0.263798,-0.155523
-112,-741,0.344971,-0.261841,-0.00216403,0.015923,-0.00631976,0.0179124,-0.0041534,-1.26583,0.0135401,0.0372679,1112,1765,0.344939,0.261792
-105,-741,0.112671,-0.134277,-0.00167085,0.0189397,-0.00616994,0.0206455,-0.00337669,-1.30106,0.0150163,0.0302008,1119,1765,0.112633,0.134218
-98,-741,-0.0766602,0.0290527,-0.00152344,0.0218437,-0.00595478,0.0232736,-0.00295342,-1.33512,0.0165881,0.027044,1126,1765,-0.0766627,-0.0290492
-91,-741,-0.203491,0.0788574,-0.00187848,0.0241976,-0.00553384,0.0253234,-0.00300426,-1.3701,0.0179676,0.0290704,1133,1765,-0.203551,-0.0788977
-84,-741,-0.078125,0.0759277,-0.00172806,0.0258727,-0.00457266,0.0266105,-0.00246589,-1.41082,0.0186168,0.029708,1140,1765,-0.0780963,-0.0759216
-77,-741,-0.0407715,0.0469971,-0.00082535,0.0259423,-0.00353278,0.0264007,-0.00128375,-1.44176,0.0180436,0.0279162,1147,1765,-0.0407792,-0.0469792
-70,-741,-0.0715332,0.0339355,-0.000108299,0.0248157,-0.00251362,0.0250666,-0.000359276,-1.47128,0.0168321,0.0275325,1154,1765,-0.0715403,-0.0339924
-63,-741,-0.0249023,0.0290527,0.000126449,0.0236048,-0.0015464,0.0237062,2.5034e-05,-1.50531,0.0157958,0.0248987,1161,1765,-0.0249398,-0.0289953
-56,-741,-0.013916,0.019043,0.000421259,0.0209538,-0.000210312,0.020956,0.000419105,-1.56055,0.0138331,0.0217436,1168,1765,-0.013935,-0.0190128
-49,-741,-0.0134277,0.0205078,0.000872832,0.0172425,0.000834435,0.0172849,0.000830407,1.52,0.0112567,0.0158475,1175,1765,-0.0134207,-0.0205128
-42,-741,-0.0202637,0.0360107,0.00154506,0.0134645,0.00166966,0.013694,0.00131559,1.43422,0.0087239,0.0122767,1182,1765,-0.0203032,-0.0360047
-35,-741,-0.0211182,0.0440674,0.00198041,0.00946825,0.00271602,0.0103497,0.00109899,1.257,0.00656418,0.00816731,1189,1765,-0.0210631,-0.0440985
-28,-741,-0.00866699,0.0316162,0.00221273,0.00470872,0.0036246,0.00729416,-0.000372716,0.951198,0.00499165,0.0108561,1196,1765,-0.00870911,-0.0315852
-21,-741,0.0198975,0.0469971,0.00274944,0.00105419,0.00444665,0.00642853,-0.0026249,0.691218,0.00537858,0.0151445,1203,1765,0.0199488,-0.0469983
-14,-741,-0.0106201,0.0599365,0.00329374,-0.00207375,0.00503403,0.00631473,-0.00509474,0.540503,0.0065998,0.0160498,1210,1765,-0.0106231,-0.0599834
-7,-741,-0.0318604,0.0402832,0.00355225,-0.00455152,0.00505427,0.00597828,-0.00697755,0.447517,0.00748747,0.0140863,1217,1765,-0.0318057,-0.0402995
0,-741,-0.00793457,0.0388184,0.00373219,-0.0061376,0.00508956,0.0058865,-0.00829191,0.400413,0.00822508,0.014144,1224,1765,-0.00791659,-0.0387775
7,-741,-0.0045166,0.0380859,0.00393657,-0.00710794,0.00508582,0.0059217,-0.00909307,0.37214,0.008733,0.0160813,1231,1765,-0.00457717,-0.0380369
14,-741,-0.00488281,0.0585938,0.00403474,-0.00797293,0.00500419,0.00584678,-0.00978497,0.347418,0.00911997,0.0152137,1238,1765,-0.00486778,-0.0586306
21,-741,-0.0100098,0.0494385,0.00394391,-0.00853263,0.004752,0.00554767,-0.0101364,0.325489,0.00918348,0.0114841,1245,1765,-0.0100492,-0.0494059
28,-741,-0.0330811,0.0543213,0.00362764,-0.00877411,0.00447598,0.00507433,-0.0102208,0.312614,0.00899574,0.0113764,1252,1765,-0.0330469,-0.0542867
35,-741,-0.0218506,0.0432129,0.00324494,-0.00883827,0.00423187,0.00457963,-0.010173,0.305515,0.00871908,0.0128613,1259,1765,-0.0218714,-0.043218
42,-741,-0.0102539,0.0311279,0.00257217,-0.00941848,0.00368915,0.00361628,-0.0104626,0.27581,0.00844273,0.0139641,1266,1765,-0.0103132,-0.0311223
49,-741,-0.0196533,0.0423584,0.0017945,-0.00997756,0.0029381,0.00248706,-0.0106701,0.231489,0.00807118,0.00987106,1273,1765,-0.0196012,-0.0423896
56,-741,-0.0318604,0.036499,0.00103881,-0.010186,0.00228454,0.00148596,-0.0106332,0.193285,0.00763248,0.00966681,1280,1765,-0.0318001,-0.0365083
63,-741,-0.034668,0.0245361,9.22776e-05,-0.0101177,0.00156099,0.000325602,-0.0103511,0.148374,0.00701177,0.0133253,1287,1765,-0.0347038,-0.0245739
70,-741,-0.043335,0.0494385,-0.000849188,-0.0094429,0.000799382,-0.000775462,-0.00951662,0.0919681,0.00610237,0.0156503,1294,1765,-0.043346,-0.0494883
77,-741,-0.0480957,0.0892334,-0.00147761,-0.00884664,0.000109021,-0.001476,-0.00884825,0.0147901,0.00547358,0.0137531,1301,1765,-0.0480683,-0.0892461
84,-741,-0.0422363,0.076416,-0.00207425,-0.0079158,-0.000491018,-0.00203327,-0.00795678,-0.0832775,0.00477337,0.0152389,1308,1765,-0.0422007,-0.0763555
91,-741,-0.0446777,0.0771484,-0.00254188,-0.00682331,-0.000977797,-0.00232914,-0.00703605,-0.214232,0.00413886,0.0122082,1315,1765,-0.0446416,-0.0772095
98,-741,-0.0288086,0.0705566,-0.00257533,-0.00550056,-0.00115455,-0.00217456,-0.00590133,-0.334114,0.0034462,0.00995198,1322,1765,-0.0287966,-0.0705616
105,-741,-0.00537109,0.0439453,-0.00254529,-0.00444128,-0.00133395,-0.00185679,-0.00512978,-0.476472,0.00299906,0.0102302,1329,1765,-0.00536689,-0.0439278
112,-741,-0.00585938,0.0335693,-0.00233552,-0.00394197,-0.00141803,-0.00150903,-0.00476846,-0.527709,0.00281422,0.0100477,1336,1765,-0.00589068,-0.0336279
119,-741,-0.0203857,0.0338135,-0.00200975,-0.00239442,-0.00136876,-0.000819881,-0.00358429,-0.715596,0.00216853,0.0124777,1343,1765,-0.0204032,-0.0337565
126,-741,-0.0106201,0.0307617,-0.00142296,-0.00108326,-0.000911462,-0.000325958,-0.00218026,-0.877517,0.00135796,0.0172654,1350,1765,-0.0106554,-0.0307723
133,-741,-0.00427246,0.027832,-0.000722288,-0.000549626,-0.000256483,-0.000365334,-0.00090658,-0.94774,0.000526688,0.0141177,1357,1765,-0.00426297,-0.0277781
140,-741,-0.0185547,0.0183105,-0.000148319,-0.000175277,0.000236957,7.55422e-05,-0.000399138,0.756987,0.00029452,0.0113759,1364,1765,-0.018595,-0.018369
147,-741,-0.00146484,0.0294189,0.000588142,0.000489514,0.000823974,0.00136428,-0.000286621,0.755509,0.00101859,0.00987722,1371,1765,-0.00142389,-0.0294303
154,-741,-0.00146484,0.0473633,0.00118719,0.00114269,0.00138038,0.0025455,-0.000215617,0.777338,0.00177325,0.00793664,1378,1765,-0.00152475,-0.0473529
161,-741,-0.010498,0.0395508,0.00171219,0.00122663,0.00184767,0.00333296,-0.000394137,0.720074,0.00236433,0.00908671,1385,1765,-0.0104982,-0.0395412
168,-741,-0.0411377,0.0388184,0.00199071,0.00116948,0.00251662,0.00412999,-0.000969796,0.70453,0.00312713,0.0136127,1392,1765,-0.0411091,-0.0388504
175,-741,-0.0378418,0.0506592,0.00201869,0.00102085,0.0029587,0.00452024,-0.0014807,0.701871,0.00360975,0.014586,1399,1765,-0.0378416,-0.0507141
182,-741,-0.00500488,0.0355225,0.00213517,0.00107654,0.00315287,0.00480285,-0.00159114,0.702232,0.00384367,0.0117206,1406,1765,-0.005025,-0.0355149
189,-741,-0.00939941,0.0233154,0.00244833,0.000983912,0.00316287,0.00496263,-0.0015304,0.671651,0.00391945,0.0146454,1413,1765,-0.0093583,-0.0232714
196,-741,-0.0438232,0.0183105,0.00287433,0.000679109,0.00313435,0.00509769,-0.00154426,0.616977,0.0040135,0.0156775,1420,1765,-0.0437902,-0.018365
203,-741,-0.045166,0.0343018,0.00325205,0.000300216,0.00297343,0.00509571,-0.00154345,0.555029,0.00401184,0.0135932,1427,1765,-0.0451432,-0.0343132
210,-741,-0.0253906,0.0456543,0.00366877,-9.38622e-05,0.00265219,0.00503914,-0.00146423,0.476913,0.00393928,0.0164166,1434,1765,-0.0254303,-0.0456315
217,-741,0.020752,0.0421143,0.00392242,-0.000223781,0.00223896,0.00490066,-0.00120202,0.411922,0.00373286,0.0170487,1441,1765,0.0207934,-0.0421285
224,-741,-0.0235596,0.00268555,0.00417477,-0.000737106,0.00193293,0.00484419,-0.00140653,0.333396,0.00378641,0.0231651,1448,1765,-0.023533,-0.00273467
231,-741,-0.0758057,-0.0141602,0.00407749,-0.00090022,0.00130773,0.00440014,-0.00122287,0.241894,0.00341483,0.0293113,1455,1765,-0.0758005,0.0141585
238,-741,0.000244141,-0.0098877,0.00398829,-0.000570463,0.000840497,0.00413832,-0.000720488,0.176635,0.00302775,0.0331466,1462,1765,0.000198367,0.00994552
245,-741,-0.0478516,-0.0335693,0.00402602,-0.000517615,0.000760878,0.00415006,-0.000641646,0.161589,0.00300352,0.0380724,1469,1765,-0.0478854,0.0335181
252,-741,0.000488281,-0.0313721,0.00375885,-0.000487764,0.00110711,0.00403015,-0.000759061,0.240314,0.00297227,0.0413617,1476,1765,0.000479286,0.031421
259,-741,0.258423,0.24585,0.00352036,-0.000669031,0.00103697,0.00376298,-0.000911655,0.229839,0.00286137,0.0429605,1483,1765,0.258408,-0.24581
266,-741,0.09375,0.209839,0,0,0,0,0,0,0,-1,1490,1765,0.093737,-0.209895
273,-741,0.098999,0.198608,0,0,0,0,0,0,0,-1,1497,1765,0.0989791,-0.198657
280,-741,-0.0946045,-0.255493,0.00449611,-0.00209774,0.000541292,0.00454025,-0.00214188,0.0813645,0.00393989,0.0449561,1504,1765,-0.0945713,0.255506
287,-741,-0.194824,-0.210815,0.00424387,-0.0029863,0.00054744,0.00428509,-0.00302751,0.0751452,0.00424269,0.0467094,1511,1765,-0.194844,0.210768
294,-741,-0.123169,-0.242432,0.00411256,-0.00401654,4.58014e-05,0.00411281,-0.0040168,0.00563402,0.00469374,0.0454723,1518,1765,-0.123112,0.24239
301,-741,-0.0686035,0.265259,0.00472785,-0.00507502,-0.000480336,0.00475133,-0.0050985,-0.0488436,0.00568798,0.0458477,1525,1765,-0.0685681,-0.265219
308,-741,-0.0474854,0.715454,0,0,0,0,0,0,0,-1,1532,1765,-0.0475086,-0.715429
315,-741,0.437256,0.107788,0,0,0,0,0,0,0,-1,1539,1765,0.437258,-0.107818
322,-741,0.51709,0.228638,0,0,0,0,0,0,0,-1,1546,1765,0.517148,-0.228606
329,-741,0.280762,0.197388,0.00626385,-0.00954333,-0.00138755,0.00638473,-0.00966421,-0.0868939,0.00933012,0.0414018,1553,1765,0.280727,-0.197404
336,-741,0.196289,0.191528,0.00596997,-0.00985853,-0.0012074,0.00606154,-0.0099501,-0.0756964,0.00933475,0.0425943,1560,1765,0.196245,-0.191497
343,-741,0.0474854,0.098999,0.00508102,-0.0101444,-0.00102848,0.00515018,-0.0102136,-0.0671432,0.00902942,0.0425546,1567,1765,0.0474273,-0.0990509
350,-741,-0.041748,-0.185791,0.00442661,-0.00984223,-0.000534365,0.00444659,-0.00986221,-0.03738,0.00845612,0.0399208,1574,1765,-0.0417805,0.185772
357,-741,0.122925,0.112183,0.00378258,-0.0101625,-0.000458669,0.00379765,-0.0101775,-0.0328439,0.00834412,0.0385453,1581,1765,0.122922,-0.112154
364,-741,0,0,0,0,0,0,0,0,0,-1,1588,1765,0,0
371,-741,0,0,0,0,0,0,0,0,0,-1,1595,1765,0,0
378,-741,0,0,0,0,0,0,0,0,0,-1,1602,1765,0,0
385,-741,0,0,0,0,0,0,0,0,0,-1,1609,1765,0,0
392,-741,0,0,0,0,0,0,0,0,0,-1,1616,1765,0,0
399,-741,0,0,0,0,0,0,0,0,0,-1,1623,1765,0,0
406,-741,0,0,0,0,0,0,0,0,0,-1,1630,1765,0,0
413,-741,0,0,0,0,0,0,0,0,0,-1,1637,1765,0,0
420,-741,0,0,0,0,0,0,0,0,0,-1,1644,1765,0,0
427,-741,0,0,0,0,0,0,0,0,0,-1,1651,1765,0,0
434,-741,0,0,0,0,0,0,0,0,0,-1,1658,1765,0,0
441,-741,0,0,0,0,0,0,0,0,0,-1,1665,1765,0,0
448,-741,0,0,0,0,0,0,0,0,0,-1,1672,1765,0,0
455,-741,0,0,0,0,0,0,0,0,0,-1,1679,1765,0,0
462,-741,0,0,0,0,0,0,0,0,0,-1,1686,1765,0,0
469,-741,0,0,0,0,0,0,0,0,0,-1,1693,1765,0,0
476,-741,0,0,0,0,0,0,0,0,0,-1,1700,1765,0,0
483,-741,0,0,0,0,0,0,0,0,0,-1,1707,1765,0,0
490,-741,0,0,0,0,0,0,0,0,0,-1,1714,1765,0,0
497,-741,0,0,0,0,0,0,0,0,0,-1,1721,1765,0,0
504,-741,0,0,0,0,0,0,0,0,0,-1,1728,1765,0,0
511,-741,0,0,0,0,0,0,0,0,0,-1,1735,1765,0,0
518,-741,0,0,0,0,0,0,0,0,0,-1,1742,1765,0,0
525,-741,0,0,0,0,0,0,0,0,0,-1,1749,1765,0,0
532,-741,0,0,0,0,0,0,0,0,0,-1,1756,1765,0,0
539,-741,0,0,0,0,0,0,0,0,0,-1,1763,1765,0,0
546,-741,0,0,0,0,0,0,0,0,0,-1,1770,1765,0,0
553,-741,0,0,0,0,0,0,0,0,0,-1,1777,1765,0,0
560,-741,0,0,0,0,0,0,0,0,0,-1,1784,1765,0,0
567,-741,0,0,0,0,0,0,0,0,0,-1,1791,1765,0,0
574,-741,0,0,0,0,0,0,0,0,0,-1,1798,1765,0,0
581,-741,0,0,0,0,0,0,0,0,0,-1,1805,1765,0,0
588,-741,0,0,0,0,0,0,0,0,0,-1,1812,1765,0,0
595,-741,0,0,0,0,0,0,0,0,0,-1,1819,1765,0,0
602,-741,0,0,0,0,0,0,0,0,0,-1,1826,1765,0,0
609,-741,0,0,0,0,0,0,0,0,0,-1,1833,1765,0,0
616,-741,0,0,0,0,0,0,0,0,0,-1,1840,1765,0,0
623,-741,0,0,0,0,0,0,0,0,0,-1,1847,1765,0,0
630,-741,0,0,0,0,0,0,0,0,0,-1,1854,1765,0,0
637,-741,0,0,0,0,0,0,0,0,0,-1,1861,1765,0,0
644,-741,0,0,0,0,0,0,0,0,0,-1,1868,1765,0,0
651,-741,0,0,0,0,0,0,0,0,0,-1,1875,1765,0,0
658,-741,0,0,0,0,0,0,0,0,0,-1,1882,1765,0,0
665,-741,0,0,0,0,0,0,0,0,0,-1,1889,1765,0,0
672,-741,0,0,0,0,0,0,0,0,0,-1,1896,1765,0,0
679,-741,0,0,0,0,0,0,0,0,0,-1,1903,1765,0,0
686,-741,0,0,0,0,0,0,0,0,0,-1,1910,1765,0,0
693,-741,0,0,0,0,0,0,0,0,0,-1,1917,1765,0,0
700,-741,0,0,0,0,0,0,0,0,0,-1,1924,1765,0,0
707,-741,0,0,0,0,0,0,0,0,0,-1,1931,1765,0,0
714,-741,0,0,0,0,0,0,0,0,0,-1,1938,1765,0,0
721,-741,0,0,0,0,0,0,0,0,0,-1,1945,1765,0,0
728,-741,0,0,0,0,0,0,0,0,0,-1,1952,1765,0,0
735,-741,0,0,0,0,0,0,0,0,0,-1,1959,1765,0,0
742,-741,0,0,0,0,0,0,0,0,0,-1,1966,1765,0,0
749,-741,0,0,0,0,0,0,0,0,0,-1,1973,1765,0,0
756,-741,0,0,0,0,0,0,0,0,0,-1,1980,1765,0,0
763,-741,0,0,0,0,0,0,0,0,0,-1,1987,1765,0,0
770,-741,0,0,0,0,0,0,0,0,0,-1,1994,1765,0,0
777,-741,0,0,0,0,0,0,0,0,0,-1,2001,1765,0,0
784,-741,0,0,0,0,0,0,0,0,0,-1,2008,1765,0,0
791,-741,0,0,0,0,0,0,0,0,0,-1,2015,1765,0,0
798,-741,0,0,0,0,0,0,0,0,0,-1,2022,1765,0,0
805,-741,0,0,0,0,0,0,0,0,0,-1,2029,1765,0,0
812,-741,0,0,0,0,0,0,0,0,0,-1,2036,1765,0,0
-700,-748,0,0,0,0,0,0,0,0,0,-1,524,1772,0,0
-693,-748,0,0,0,0,0,0,0,0,0,-1,531,1772,0,0
-686,-748,0,0,0,0,0,0,0,0,0,-1,538,1772,0,0
-679,-748,0,0,0,0,0,0,0,0,0,-1,545,1772,0,0
-672,-748,0,0,0,0,0,0,0,0,0,-1,552,1772,0,0
-665,-748,0,0,0,0,0,0,0,0,0,-1,559,1772,0,0
-658,-748,0,0,0,0,0,0,0,0,0,-1,566,1772,0,0
-651,-748,0,0,0,0,0,0,0,0,0,-1,573,1772,0,0
-644,-748,0,0,0,0,0,0,0,0,0,-1,580,1772,0,0
-637,-748,0,0,0,0,0,0,0,0,0,-1,587,1772,0,0
-630,-748,0,0,0,0,0,0,0,0,0,-1,594,1772,0,0
-623,-748,0,0,0,0,0,0,0,0,0,-1,601,1772,0,0
-616,-748,0,0,0,0,0,0,0,0,0,-1,608,1772,0,0
-609,-748,0,0,0,0,0,0,0,0,0,-1,615,1772,0,0
-602,-748,0,0,0,0,0,0,0,0,0,-1,622,1772,0,0
-595,-748,0,0,0,0,0,0,0,0,0,-1,629,1772,0,0
-588,-748,0,0,0,0,0,0,0,0,0,-1,636,1772,0,0
-581,-748,0,0,0,0,0,0,0,0,0,-1,643,1772,0,0
-574,-748,0,0,0,0,0,0,0,0,0,-1,650,1772,0,0
-567,-748,0,0,0,0,0,0,0,0,0,-1,657,1772,0,0
-560,-748,0,0,0,0,0,0,0,0,0,-1,664,1772,0,0
-553,-748,0,0,0,0,0,0,0,0,0,-1,671,1772,0,0
-546,-748,0,0,0,0,0,0,0,0,0,-1,678,1772,0,0
-539,-748,0,0,0,0,0,0,0,0,0,-1,685,1772,0,0
-532,-748,0,0,0,0,0,0,0,0,0,-1,692,1772,0,0
-525,-748,0,0,0,0,0,0,0,0,0,-1,699,1772,0,0
-518,-748,0,0,0,0,0,0,0,0,0,-1,706,1772,0,0
-511,-748,0,0,0,0,0,0,0,0,0,-1,713,1772,0,0
-504,-748,0,0,0,0,0,0,0,0,0,-1,720,1772,0,0
-497,-748,0,0,0,0,0,0,0,0,0,-1,727,1772,0,0
-490,-748,0,0,0,0,0,0,0,0,0,-1,734,1772,0,0
-483,-748,0,0,0,0,0,0,0,0,0,-1,741,1772,0,0
-476,-748,0,0,0,0,0,0,0,0,0,-1,748,1772,0,0
-469,-748,0,0,0,0,0,0,0,0,0,-1,755,1772,0,0
-462,-748,0,0,0,0,0,0,0,0,0,-1,762,1772,0,0
-455,-748,0,0,0,0,0,0,0,0,0,-1,769,1772,0,0
-448,-748,0,0,0,0,0,0,0,0,0,-1,776,1772,0,0
-441,-748,0,0,0,0,0,0,0,0,0,-1,783,1772,0,0
-434,-748,0,0,0,0,0,0,0,0,0,-1,790,1772,0,0
-427,-748,0,0,0,0,0,0,0,0,0,-1,797,1772,0,0
-420,-748,0,0,0,0,0,0,0,0,0,-1,804,1772,0,0
-413,-748,0,0,0,0,0,0,0,0,0,-1,811,1772,0,0
-406,-748,0,0,0,0,0,0,0,0,0,-1,818,1772,0,0
-399,-748,0,0,0,0,0,0,0,0,0,-1,825,1772,0,0
-392,-748,0,0,0,0,0,0,0,0,0,-1,832,1772,0,0
-385,-748,0,0,0,0,0,0,0,0,0,-1,839,1772,0,0
-378,-748,0,0,0,0,0,0,0,0,0,-1,846,1772,0,0
-371,-748,0,0,0,0,0,0,0,0,0,-1,853,1772,0,0
-364,-748,0,0,0,0,0,0,0,0,0,-1,860,1772,0,0
-357,-748,0,0,0,0,0,0,0,0,0,-1,867,1772,0,0
-350,-748,0,0,0,0,0,0,0,0,0,-1,874,1772,0,0
-343,-748,0,0,0,0,0,0,0,0,0,-1,881,1772,0,0
-336,-748,0,0,0,0,0,0,0,0,0,-1,888,1772,0,0
-329,-748,0,0,0,0,0,0,0,0,0,-1,895,1772,0,0
-322,-748,0,0,0,0,0,0,0,0,0,-1,902,1772,0,0
-315,-748,0,0,0,0,0,0,0,0,0,-1,909,1772,0,0
-308,-748,0,0,0,0,0,0,0,0,0,-1,916,1772,0,0
-301,-748,0,0,0,0,0,0,0,0,0,-1,923,1772,0,0
-294,-748,0,0,0,0,0,0,0,0,0,-1,930,1772,0,0
-287,-748,0,0,0,0,0,0,0,0,0,-1,937,1772,0,0
-280,-748,0,0,0,0,0,0,0,0,0,-1,944,1772,0,0
-273,-748,0,0,0,0,0,0,0,0,0,-1,951,1772,0,0
-266,-748,0,0,0,0,0,0,0,0,0,-1,958,1772,0,0
-259,-748,0,0,0,0,0,0,0,0,0,-1,965,1772,0,0
-252,-748,0,0,0,0,0,0,0,0,0,-1,972,1772,0,0
-245,-748,0,0,0,0,0,0,0,0,0,-1,979,1772,0,0
-238,-748,0,0,0,0,0,0,0,0,0,-1,986,1772,0,0
-231,-748,0,0,0,0,0,0,0,0,0,-1,993,1772,0,0
-224,-748,0,0,0,0,0,0,0,0,0,-1,1000,1772,0,0
-217,-748,1.85815,-1.75073,0,0,0,0,0,0,0,-1,1007,1772,1.85812,1.75076
-210,-748,1.64447,-1.41956,-0.0151913,0.00453211,-0.0257246,0.0222205,-0.0328797,-0.968437,0.0320099,0.0460404,1014,1772,1.64448,1.4196
-203,-748,1.5517,-1.16394,-0.0171276,0.00461116,-0.0190681,0.0156903,-0.0282067,-1.04444,0.0256851,0.0469556,1021,1772,1.55167,1.16397
-196,-748,1.44617,-1.15747,-0.0180024,0.00479032,-0.014345,0.0117149,-0.0249269,-1.12107,0.0216087,0.0443232,1028,1772,1.44619,1.15748
-189,-748,1.18628,-1.04114,-0.0182373,0.00410983,-0.010965,0.00859129,-0.0227188,-1.18281,0.0186802,0.0472221,1035,1772,1.18633,1.04117
-182,-748,0.868652,-0.837524,-0.0180082,0.00473047,-0.00817405,0.00736389,-0.0206416,-1.25913,0.0167638,0.0483943,1042,1772,0.868624,0.837481
-175,-748,0.887573,-0.6698,0,0,0,0,0,0,0,-1,1049,1772,0.887543,0.669841
-168,-748,0.670044,-0.478516,0,0,0,0,0,0,0,-1,1056,1772,0.670068,0.478519
-161,-748,0.454102,-0.175537,0,0,0,0,0,0,0,-1,1063,1772,0.454131,0.175573
-154,-748,-0.390991,0.372925,-0.011569,0.00424632,-0.00535644,0.00588972,-0.0132124,-1.27311,0.0112955,0.0408929,1070,1772,-0.391034,-0.37288
-147,-748,-0.158325,0.337891,-0.00957003,0.0045827,-0.00534352,0.00637359,-0.0113609,-1.24741,0.0103731,0.0404272,1077,1772,-0.158317,-0.337831
-140,-748,0.232178,0.204468,-0.00728991,0.00514994,-0.00620701,0.00771719,-0.00985716,-1.17862,0.0101716,0.0438149,1084,1772,0.232192,-0.204488
-133,-748,0.203125,-0.141724,-0.00534899,0.00943008,-0.0071233,0.0123044,-0.00822331,-1.18727,0.0119295,0.0399029,1091,1772,0.203156,0.141714
-126,-748,-0.0270996,-0.315186,-0.00395867,0.0131331,-0.00806096,0.016335,-0.0071606,-1.19269,0.0139056,0.0377198,1098,1772,-0.0271218,0.31519
-119,-748,-0.292725,0.209473,0,0,0,0,0,0,0,-1,1105,1772,-0.292668,-0.209422
-112,-748,0.675781,-0.515259,0,0,0,0,0,0,0,-1,1112,1772,0.675725,0.515212
-105,-748,0.236328,-0.420532,0,0,0,0,0,0,0,-1,1119,1772,0.236271,0.420488
-98,-748,-0.535278,0.117432,0,0,0,0,0,0,0,-1,1126,1772,-0.53523,-0.117403
-91,-748,-0.507446,0.147217,0,0,0,0,0,0,0,-1,1133,1772,-0.50742,-0.147245
-84,-748,-0.479614,0.177124,0,0,0,0,0,0,0,-1,1140,1772,-0.479609,-0.177087
-77,-748,-0.213867,0.00561523,-0.00116618,0.0358535,-0.00535562,0.0366127,-0.0019254,-1.42997,0.0250749,0.0442627,1147,1772,-0.213911,-0.00566658
-70,-748,-0.357178,-0.126099,-0.000382384,0.0344397,-0.00391966,0.0348755,-0.000818135,-1.46008,0.0235278,0.0430369,1154,1772,-0.357164,0.126093
-63,-748,-0.356567,-0.104004,-9.57419e-05,0.0327823,-0.00249786,0.0329709,-0.000284433,-1.4954,0.022076,0.0424828,1161,1772,-0.356606,0.104047
-56,-748,-0.118652,0.00817871,0.000294011,0.0290774,-0.000590505,0.0290895,0.000281902,-1.55029,0.0192997,0.0413234,1168,1772,-0.118657,-0.00816404
-49,-748,-0.0450439,0.0206299,0.000888334,0.0237674,0.000981919,0.0238095,0.00084627,1.52798,0.0155985,0.0327039,1175,1772,-0.0450542,-0.0206723
-42,-748,0.00354004,0.0351563,0.00186492,0.0183093,0.00227713,0.0186188,0.00155542,1.43571,0.0119279,0.0220762,1182,1772,0.00349627,-0.0351141
-35,-748,-0.0133057,0.0533447,0.00260061,0.0125455,0.00390759,0.0138972,0.00124894,1.23777,0.0088778,0.0136186,1189,1772,-0.0132553,-0.0533099
-28,-748,-0.0378418,0.0499268,0.00293348,0.00567178,0.00544136,0.0099136,-0.00130834,0.908649,0.00708556,0.0104086,1196,1772,-0.0378346,-0.0498907
-21,-748,-0.0294189,0.0714111,0.00363589,0.00055976,0.00685506,0.00912331,-0.00492767,0.675041,0.00823201,0.0155384,1203,1772,-0.0294113,-0.0714274
-14,-748,-0.0333252,0.0568848,0.00440699,-0.00365151,0.00784823,0.00919985,-0.00844437,0.548245,0.01019,0.0151895,1210,1772,-0.0332855,-0.0568664
-7,-748,-0.0449219,0.0323486,0.00472475,-0.0069078,0.00805,0.00883982,-0.0110229,0.472558,0.0114908,0.0138737,1217,1772,-0.0448809,-0.0323115
0,-748,-0.027832,0.0288086,0.00489589,-0.00882549,0.00834231,0.00883628,-0.0127659,0.441274,0.0125406,0.0143004,1224,1772,-0.0278059,-0.0287907
7,-748,-0.0183105,0.0301514,0.00508105,-0.00995613,0.00852349,0.00892816,-0.0138032,0.423979,0.0132242,0.0136973,1231,1772,-0.0182915,-0.0302058
14,-748,-0.0161133,0.0460205,0.00511487,-0.010989,0.00855084,0.00880818,-0.0146823,0.40772,0.0137028,0.0140894,1238,1772,-0.0160885,-0.0460256
21,-748,-0.00952148,0.0369873,0.00490951,-0.0117736,0.00820494,0.00826849,-0.0151326,0.38857,0.013703,0.0106831,1245,1772,-0.00954457,-0.0369328
28,-748,-0.0352783,0.0413818,0.00444217,-0.0122289,0.00774478,0.00748481,-0.0152715,0.374339,0.0133923,0.0107054,1252,1772,-0.035334,-0.0414252
35,-748,-0.015625,0.0333252,0.00391761,-0.0124678,0.00731326,0.0067069,-0.0152571,0.364371,0.0129972,0.010876,1259,1772,-0.0156762,-0.0333165
42,-748,-0.00915527,0.0223389,0.00301279,-0.0134629,0.00632667,0.00516189,-0.015612,0.327461,0.0124894,0.0124298,1266,1772,-0.00918493,-0.0223377
49,-748,-0.0150146,0.0227051,0.00199964,-0.0145292,0.0050238,0.00340679,-0.0159364,0.273097,0.0119232,0.0103073,1273,1772,-0.0150108,-0.0227348
56,-748,-0.0311279,0.0268555,0.0010339,-0.0151543,0.00382869,0.00189375,-0.0160142,0.220916,0.0113601,0.0101769,1280,1772,-0.0311052,-0.026906
63,-748,-0.0374756,0.0175781,-0.000241975,-0.0153267,0.00248915,0.000158151,-0.0157268,0.159384,0.0105376,0.0118104,1287,1772,-0.0375022,-0.0175992
70,-748,-0.0408936,0.0266113,-0.00152532,-0.0145547,0.00113222,-0.00142766,-0.0146524,0.0860382,0.00932884,0.0130181,1294,1772,-0.0409109,-0.0265596
77,-748,-0.0469971,0.0479736,-0.00231403,-0.0139526,-0.000132399,-0.00231253,-0.0139541,-0.0113739,0.00863574,0.0119365,1301,1772,-0.0470239,-0.0479578
84,-748,-0.045166,0.0767822,-0.00315778,-0.0128046,-0.00125141,-0.00299809,-0.0129642,-0.126925,0.00783701,0.0129158,1308,1772,-0.0451587,-0.0767604
91,-748,-0.0609131,0.0783691,-0.00393265,-0.0112028,-0.00202589,-0.00340624,-0.0117292,-0.254223,0.00696734,0.0106493,1315,1772,-0.0609414,-0.0783555
98,-748,-0.0618896,0.050415,-0.00403034,-0.00912441,-0.00225756,-0.00317385,-0.0099809,-0.36261,0.00588836,0.0105565,1322,1772,-0.0618477,-0.0504402
105,-748,-0.0411377,0.0307617,-0.00399778,-0.00751053,-0.00253553,-0.00266972,-0.0088386,-0.482492,0.00523457,0.0122402,1329,1772,-0.0410823,-0.0308027
112,-748,-0.00622559,0.0422363,-0.00363899,-0.00660036,-0.00253375,-0.002185,-0.00805435,-0.520969,0.00480962,0.0150872,1336,1772,-0.00626056,-0.042269
119,-748,-0.0134277,0.0523682,-0.00312959,-0.00439354,-0.00236998,-0.00130877,-0.00621436,-0.6551,0.00378288,0.0128107,1343,1772,-0.0134575,-0.0523677
126,-748,-0.00500488,0.0471191,-0.00226414,-0.00247834,-0.00161015,-0.000757531,-0.00398495,-0.752189,0.00244358,0.0132131,1350,1772,-0.0049731,-0.0470966
133,-748,-0.0163574,0.0444336,-0.0011964,-0.00174571,-0.00061151,-0.000800697,-0.00214141,-0.574328,0.00124938,0.00842639,1357,1772,-0.0163916,-0.0444799
140,-748,-0.0268555,0.045166,-0.000265019,-0.00139775,4.6733e-05,-0.000263094,-0.00139968,0.0411636,0.000858957,0.0116367,1364,1772,-0.0268828,-0.0451433
147,-748,0.0269775,0.0426025,0.000875822,-0.000614904,0.000826115,0.00124313,-0.00098221,0.41837,0.00128774,0.0128112,1371,1772,0.026995,-0.0426126
154,-748,0.0218506,0.036499,0.00175228,0.000178963,0.00156145,0.00271404,-0.000782799,0.552058,0.00211905,0.0108924,1378,1772,0.0218781,-0.0364865
161,-748,0.00378418,0.0235596,0.00246216,0.000167665,0.00221137,0.00380616,-0.00117634,0.546113,0.00300725,0.0115387,1385,1772,0.00380503,-0.0236125
168,-748,0.0148926,0.0262451,0.00293385,3.01025e-05,0.00311769,0.00492115,-0.0019572,0.567486,0.00409227,0.0156946,1392,1772,0.0149163,-0.0262379
175,-748,0.0106201,0.0592041,0.00307634,-0.00013278,0.00371288,0.00551655,-0.00257298,0.581438,0.00477245,0.0167908,1399,1772,0.0106091,-0.0592093
182,-748,0.026123,0.0466309,0.00321523,0.00010647,0.00397292,0.00592702,-0.00260532,0.598931,0.00504905,0.021214,1406,1772,0.0260927,-0.0466427
189,-748,0.0197754,0.048584,0.0035796,0.000190889,0.00399464,0.00622437,-0.00245388,0.58482,0.00516562,0.0270871,1413,1772,0.0197277,-0.0486151
196,-748,-0.0632324,0.0567627,0.00410235,7.03383e-06,0.00396931,0.00652105,-0.00241166,0.547266,0.00533611,0.0305105,1420,1772,-0.0632144,-0.056807
203,-748,-0.0532227,0.0482178,0.00453382,-0.000261168,0.00376379,0.00659885,-0.0023262,0.501811,0.00534607,0.0306583,1427,1772,-0.0532473,-0.0482261
210,-748,0.197998,0.0739746,0.00498139,-0.000456201,0.00336425,0.00658811,-0.00206291,0.445554,0.00521747,0.0314977,1434,1772,0.197978,-0.0739261
217,-748,0.289063,0.071167,0.00523867,-0.000382855,0.00285375,0.00643344,-0.00157762,0.396493,0.00490023,0.0314732,1441,1772,0.289081,-0.0711692
224,-748,-0.0671387,0.232178,0.00550883,-0.000866643,0.00243264,0.00633101,-0.00168882,0.325924,0.00488197,0.0361291,1448,1772,-0.0671037,-0.232233
231,-748,-0.400757,0.129639,0.00538222,-0.00104751,0.00158757,0.00575285,-0.00141814,0.229347,0.00438506,0.0380686,1455,1772,-0.400758,-0.129662
238,-748,-0.264282,-0.159424,0.00524695,-0.000607825,0.000991352,0.00541025,-0.000771129,0.163263,0.00388944,0.0392113,1462,1772,-0.264322,0.159379
245,-748,0.143066,0.0861816,0.00516851,-0.000664994,0.0008564,0.00529164,-0.000788121,0.142794,0.00381768,0.0421309,1469,1772,0.143064,-0.0861956
252,-748,-0.024292,-0.0612793,0,0,0,0,0,0,0,-1,1476,1772,-0.0243214,0.0612369
259,-748,0.204834,0.321289,0.00427838,-0.00104095,0.00110205,0.00449766,-0.00126023,0.196411,0.00349509,0.0457748,1483,1772,0.204827,-0.321249
266,-748,0.232422,0.378174,0.00430737,-0.00161398,0.00103683,0.00448367,-0.00179028,0.168427,0.00373187,0.0455916,1490,1772,0.23241,-0.378137
273,-748,0.274414,0.42334,0.00455154,-0.00222407,0.000536564,0.00459376,-0.0022663,0.0785382,0.00403593,0.0464863,1497,1772,0.274434,-0.423308
280,-748,0.300537,0.439941,0,0,0,0,0,0,0,-1,1504,1772,0.300533,-0.439917
287,-748,-0.661743,0.149902,0,0,0,0,0,0,0,-1,1511,1772,-0.661688,-0.149859
294,-748,-0.217285,-0.12915,0.00415062,-0.00526338,6.5935e-05,0.00415108,-0.00526384,0.00700347,0.00544835,0.0448147,1518,1772,-0.217324,0.129165
301,-748,-0.171753,0.126831,0.00467665,-0.00655908,-0.000443916,0.00469417,-0.00657659,-0.0394274,0.00653736,0.0433107,1525,1772,-0.171727,-0.126799
308,-748,-0.206909,0.403198,0.00592891,-0.0081933,-0.000265216,0.00593389,-0.00819828,-0.0187712,0.00819405,0.0415044,1532,1772,-0.206945,-0.403141
315,-748,0.17334,0.299683,0.00656977,-0.00961051,-0.000418295,0.00658057,-0.00962131,-0.0258292,0.00940892,0.0451277,1539,1772,0.17331,-0.299655
322,-748,0.0533447,0.0328369,0,0,0,0,0,0,0,-1,1546,1772,0.0533161,-0.0328779
329,-748,0.192505,0.0477295,0.00724462,-0.0123452,-0.000714724,0.00727067,-0.0123713,-0.0364199,0.011467,0.0484915,1553,1772,0.192466,-0.0477362
336,-748,0.325684,0.0797119,0.00688951,-0.0127535,-0.000158356,0.00689078,-0.0127548,-0.008061,0.0115096,0.0432128,1560,1772,0.325642,-0.0797292
343,-748,0,0,0,0,0,0,0,0,0,-1,1567,1772,0,0
350,-748,0,0,0,0,0,0,0,0,0,-1,1574,1772,0,0
357,-748,0,0,0,0,0,0,0,0,0,-1,1581,1772,0,0
364,-748,0,0,0,0,0,0,0,0,0,-1,1588,1772,0,0
371,-748,0,0,0,0,0,0,0,0,0,-1,1595,1772,0,0
378,-748,0,0,0,0,0,0,0,0,0,-1,1602,1772,0,0
385,-748,0,0,0,0,0,0,0,0,0,-1,1609,1772,0,0
392,-748,0,0,0,0,0,0,0,0,0,-1,1616,1772,0,0
399,-748,0,0,0,0,0,0,0,0,0,-1,1623,1772,0,0
406,-748,0,0,0,0,0,0,0,0,0,-1,1630,1772,0,0
413,-748,0,0,0,0,0,0,0,0,0,-1,1637,1772,0,0
420,-748,0,0,0,0,0,0,0,0,0,-1,1644,1772,0,0
427,-748,0,0,0,0,0,0,0,0,0,-1,1651,1772,0,0
434,-748,0,0,0,0,0,0,0,0,0,-1,1658,1772,0,0
441,-748,0,0,0,0,0,0,0,0,0,-1,1665,1772,0,0
448,-748,0,0,0,0,0,0,0,0,0,-1,1672,1772,0,0
455,-748,0,0,0,0,0,0,0,0,0,-1,1679,1772,0,0
462,-748,0,0,0,0,0,0,0,0,0,-1,1686,1772,0,0
469,-748,0,0,0,0,0,0,0,0,0,-1,1693,1772,0,0
476,-748,0,0,0,0,0,0,0,0,0,-1,1700,1772,0,0
483,-748,0,0,0,0,0,0,0,0,0,-1,1707,1772,0,0
490,-748,0,0,0,0,0,0,0,0,0,-1,1714,1772,0,0
497,-748,0,0,0,0,0,0,0,0,0,-1,1721,1772,0,0
504,-748,0,0,0,0,0,0,0,0,0,-1,1728,1772,0,0
511,-748,0,0,0,0,0,0,0,0,0,-1,1735,1772,0,0
518,-748,0,0,0,0,0,0,0,0,0,-1,1742,1772,0,0
525,-748,0,0,0,0,0,0,0,0,0,-1,1749,1772,0,0
532,-748,0,0,0,0,0,0,0,0,0,-1,1756,1772,0,0
539,-748,0,0,0,0,0,0,0,0,0,-1,1763,1772,0,0
546,-748,0,0,0,0,0,0,0,0,0,-1,1770,1772,0,0
553,-748,0,0,0,0,0,0,0,0,0,-1,1777,1772,0,0
560,-748,0,0,0,0,0,0,0,0,0,-1,1784,1772,0,0
567,-748,0,0,0,0,0,0,0,0,0,-1,1791,1772,0,0
574,-748,0,0,0,0,0,0,0,0,0,-1,1798,1772,0,0
581,-748,0,0,0,0,0,0,0,0,0,-1,1805,1772,0,0
588,-748,0,0,0,0,0,0,0,0,0,-1,1812,1772,0,0
595,-748,0,0,0,0,0,0,0,0,0,-1,1819,1772,0,0
602,-748,0,0,0,0,0,0,0,0,0,-1,1826,1772,0,0
609,-748,0,0,0,0,0,0,0,0,0,-1,1833,1772,0,0
616,-748,0,0,0,0,0,0,0,0,0,-1,1840,1772,0,0
623,-748,0,0,0,0,0,0,0,0,0,-1,1847,1772,0,0
630,-748,0,0,0,0,0,0,0,0,0,-1,1854,1772,0,0
637,-748,0,0,0,0,0,0,0,0,0,-1,1861,1772,0,0
644,-748,0,0,0,0,0,0,0,0,0,-1,1868,1772,0,0
651,-748,0,0,0,0,0,0,0,0,0,-1,1875,1772,0,0
658,-748,0,0,0,0,0,0,0,0,0,-1,1882,1772,0,0
665,-748,0,0,0,0,0,0,0,0,0,-1,1889,1772,0,0
672,-748,0,0,0,0,0,0,0,0,0,-1,1896,1772,0,0
679,-748,0,0,0,0,0,0,0,0,0,-1,1903,1772,0,0
686,-748,0,0,0,0,0,0,0,0,0,-1,1910,1772,0,0
693,-748,0,0,0,0,0,0,0,0,0,-1,1917,1772,0,0
700,-748,0,0,0,0,0,0,0,0,0,-1,1924,1772,0,0
707,-748,0,0,0,0,0,0,0,0,0,-1,1931,1772,0,0
714,-748,0,0,0,0,0,0,0,0,0,-1,1938,1772,0,0
721,-748,0,0,0,0,0,0,0,0,0,-1,1945,1772,0,0
728,-748,0,0,0,0,0,0,0,0,0,-1,1952,1772,0,0
735,-748,0,0,0,0,0,0,0,0,0,-1,1959,1772,0,0
742,-748,0,0,0,0,0,0,0,0,0,-1,1966,1772,0,0
749,-748,0,0,0,0,0,0,0,0,0,-1,1973,1772,0,0
756,-748,0,0,0,0,0,0,0,0,0,-1,1980,1772,0,0
763,-748,0,0,0,0,0,0,0,0,0,-1,1987,1772,0,0
770,-748,0,0,0,0,0,0,0,0,0,-1,1994,1772,0,0
777,-748,0,0,0,0,0,0,0,0,0,-1,2001,1772,0,0
784,-748,0,0,0,0,0,0,0,0,0,-1,2008,1772,0,0
791,-748,0,0,0,0,0,0,0,0,0,-1,2015,1772,0,0
798,-748,0,0,0,0,0,0,0,0,0,-1,2022,1772,0,0
805,-748,0,0,0,0,0,0,0,0,0,-1,2029,1772,0,0
812,-748,0,0,0,0,0,0,0,0,0,-1,2036,1772,0,0
-700,-755,0,0,0,0,0,0,0,0,0,-1,524,1779,0,0
-693,-755,0,0,0,0,0,0,0,0,0,-1,531,1779,0,0
-686,-755,0,0,0,0,0,0,0,0,0,-1,538,1779,0,0
-679,-755,0,0,0,0,0,0,0,0,0,-1,545,1779,0,0
-672,-755,0,0,0,0,0,0,0,0,0,-1,552,1779,0,0
-665,-755,0,0,0,0,0,0,0,0,0,-1,559,1779,0,0
-658,-755,0,0,0,0,0,0,0,0,0,-1,566,1779,0,0
-651,-755,0,0,0,0,0,0,0,0,0,-1,573,1779,0,0
-644,-755,0,0,0,0,0,0,0,0,0,-1,580,1779,0,0
-637,-755,0,0,0,0,0,0,0,0,0,-1,587,1779,0,0
-630,-755,0,0,0,0,0,0,0,0,0,-1,594,1779,0,0
-623,-755,0,0,0,0,0,0,0,0,0,-1,601,1779,0,0
-616,-755,0,0,0,0,0,0,0,0,0,-1,608,1779,0,0
-609,-755,0,0,0,0,0,0,0,0,0,-1,615,1779,0,0
-602,-755,0,0,0,0,0,0,0,0,0,-1,622,1779,0,0
-595,-755,0,0,0,0,0,0,0,0,0,-1,629,1779,0,0
-588,-755,0,0,0,0,0,0,0,0,0,-1,636,1779,0,0
-581,-755,0,0,0,0,0,0,0,0,0,-1,643,1779,0,0
-574,-755,0,0,0,0,0,0,0,0,0,-1,650,1779,0,0
-567,-755,0,0,0,0,0,0,0,0,0,-1,657,1779,0,0
-560,-755,0,0,0,0,0,0,0,0,0,-1,664,1779,0,0
-553,-755,0,0,0,0,0,0,0,0,0,-1,671,1779,0,0
-546,-755,0,0,0,0,0,0,0,0,0,-1,678,1779,0,0
-539,-755,0,0,0,0,0,0,0,0,0,-1,685,1779,0,0
-532,-755,0,0,0,0,0,0,0,0,0,-1,692,1779,0,0
-525,-755,0,0,0,0,0,0,0,0,0,-1,699,1779,0,0
-518,-755,0,0,0,0,0,0,0,0,0,-1,706,1779,0,0
-511,-755,0,0,0,0,0,0,0,0,0,-1,713,1779,0,0
-504,-755,0,0,0,0,0,0,0,0,0,-1,720,1779,0,0
-497,-755,0,0,0,0,0,0,0,0,0,-1,727,1779,0,0
-490,-755,0,0,0,0,0,0,0,0,0,-1,734,1779,0,0
-483,-755,0,0,0,0,0,0,0,0,0,-1,741,1779,0,0
-476,-755,0,0,0,0,0,0,0,0,0,-1,748,1779,0,0
-469,-755,0,0,0,0,0,0,0,0,0,-1,755,1779,0,0
-462,-755,0,0,0,0,0,0,0,0,0,-1,762,1779,0,0
-455,-755,0,0,0,0,0,0,0,0,0,-1,769,1779,0,0
-448,-755,0,0,0,0,0,0,0,0,0,-1,776,1779,0,0
-441,-755,0,0,0,0,0,0,0,0,0,-1,783,1779,0,0
-434,-755,0,0,0,0,0,0,0,0,0,-1,790,1779,0,0
-427,-755,0,0,0,0,0,0,0,0,0,-1,797,1779,0,0
-420,-755,0,0,0,0,0,0,0,0,0,-1,804,1779,0,0
-413,-755,0,0,0,0,0,0,0,0,0,-1,811,1779,0,0
-406,-755,0,0,0,0,0,0,0,0,0,-1,818,1779,0,0
-399,-755,0,0,0,0,0,0,0,0,0,-1,825,1779,0,0
-392,-755,0,0,0,0,0,0,0,0,0,-1,832,1779,0,0
-385,-755,0,0,0,0,0,0,0,0,0,-1,839,1779,0,0
-378,-755,0,0,0,0,0,0,0,0,0,-1,846,1779,0,0
-371,-755,0,0,0,0,0,0,0,0,0,-1,853,1779,0,0
-364,-755,0,0,0,0,0,0,0,0,0,-1,860,1779,0,0
-357,-755,0,0,0,0,0,0,0,0,0,-1,867,1779,0,0
-350,-755,0,0,0,0,0,0,0,0,0,-1,874,1779,0,0
-343,-755,0,0,0,0,0,0,0,0,0,-1,881,1779,0,0
-336,-755,0,0,0,0,0,0,0,0,0,-1,888,1779,0,0
-329,-755,0,0,0,0,0,0,0,0,0,-1,895,1779,0,0
-322,-755,0,0,0,0,0,0,0,0,0,-1,902,1779,0,0
-315,-755,0,0,0,0,0,0,0,0,0,-1,909,1779,0,0
-308,-755,0,0,0,0,0,0,0,0,0,-1,916,1779,0,0
-301,-755,0,0,0,0,0,0,0,0,0,-1,923,1779,0,0
-294,-755,0,0,0,0,0,0,0,0,0,-1,930,1779,0,0
-287,-755,0,0,0,0,0,0,0,0,0,-1,937,1779,0,0
-280,-755,0,0,0,0,0,0,0,0,0,-1,944,1779,0,0
-273,-755,0,0,0,0,0,0,0,0,0,-1,951,1779,0,0
-266,-755,0,0,0,0,0,0,0,0,0,-1,958,1779,0,0
-259,-755,0,0,0,0,0,0,0,0,0,-1,965,1779,0,0
-252,-755,0,0,0,0,0,0,0,0,0,-1,972,1779,0,0
-245,-755,0,0,0,0,0,0,0,0,0,-1,979,1779,0,0
-238,-755,0,0,0,0,0,0,0,0,0,-1,986,1779,0,0
-231,-755,0,0,0,0,0,0,0,0,0,-1,993,1779,0,0
-224,-755,0,0,0,0,0,0,0,0,0,-1,1000,1779,0,0
-217,-755,0,0,0,0,0,0,0,0,0,-1,1007,1779,0,0
-210,-755,0,0,0,0,0,0,0,0,0,-1,1014,1779,0,0
-203,-755,1.54694,-1.1936,-0.0212225,-0.0025216,-0.017318,0.00780901,-0.0315531,-1.03294,0.0240645,0.0456169,1021,1779,1.54696,1.19358
-196,-755,1.43823,-1.2981,-0.0220989,-0.00119468,-0.0122842,0.00448233,-0.0277759,-1.13789,0.020178,0.0456323,1028,1779,1.43828,1.29812
-189,-755,1.28821,-0.745239,-0.0223192,-0.000519339,-0.00942339,0.00298936,-0.0258279,-1.21436,0.0182967,0.0477598,1035,1779,1.28823,0.745291
-182,-755,0.704834,-0.576416,-0.021854,0.0013621,-0.00712128,0.0033724,-0.0238643,-1.29566,0.0171446,0.0477743,1042,1779,0.704894,0.576393
-175,-755,0.111694,-0.55481,-0.021178,0.00203981,-0.00535861,0.00321688,-0.0223551,-1.35457,0.0160833,0.0435369,1049,1779,0.111703,0.554827
-168,-755,0.204346,0.136475,0,0,0,0,0,0,0,-1,1056,1779,0.204288,-0.1365
-161,-755,0.0450439,0.321167,-0.016635,0.00325242,-0.00564416,0.00474261,-0.0181252,-1.31266,0.013936,0.0435232,1063,1779,0.0449992,-0.321133
-154,-755,0.0958252,0.324951,-0.0137432,0.00384019,-0.00600424,0.00569485,-0.0155979,-1.2712,0.0127288,0.0413104,1070,1779,0.0958409,-0.325012
-147,-755,0.259033,0.214478,-0.0115433,0.00453855,-0.0061829,0.00664084,-0.0136456,-1.24304,0.0119429,0.0435234,1077,1779,0.259021,-0.214509
-140,-755,0.0510254,0.154297,-0.00889446,0.00538543,-0.00740703,0.00853349,-0.0120425,-1.16892,0.011937,0.0474536,1084,1779,0.0510598,-0.15435
-133,-755,-0.173828,-0.196777,0,0,0,0,0,0,0,-1,1091,1779,-0.173783,0.19673
-126,-755,-0.209961,-0.609131,0,0,0,0,0,0,0,-1,1098,1779,-0.209965,0.609149
-119,-755,1.15247,-0.365967,0,0,0,0,0,0,0,-1,1105,1779,1.15247,0.366011
-112,-755,0.550659,-0.88855,0,0,0,0,0,0,0,-1,1112,1779,0.550668,0.888507
-105,-755,0.481079,-0.571045,0,0,0,0,0,0,0,-1,1119,1779,0.481106,0.571072
-98,-755,0.404297,-0.225098,0,0,0,0,0,0,0,-1,1126,1779,0.404296,0.225047
-91,-755,-0.79187,0.218628,0,0,0,0,0,0,0,-1,1133,1779,-0.791918,-0.218622
-84,-755,-0.299927,-0.369019,0,0,0,0,0,0,0,-1,1140,1779,-0.299922,0.368985
-77,-755,-0.403564,-0.380493,-0.00158055,0.0481154,-0.00754806,0.0492366,-0.00270169,-1.42334,0.033761,0.0419073,1147,1779,-0.403522,0.380491
-70,-755,-0.557495,-0.373535,-0.000804652,0.0464355,-0.00558384,0.0470866,-0.00145569,-1.45473,0.0318874,0.0412497,1154,1779,-0.557493,0.373475
-63,-755,-0.457397,-0.39856,-0.000502029,0.0442529,-0.00357499,0.0445367,-0.000785796,-1.49159,0.0299565,0.0449556,1161,1779,-0.457452,0.398589
-56,-755,-0.243774,-0.416992,-6.19859e-06,0.0392136,-0.000957037,0.0392369,-2.95378e-05,-1.54641,0.0261678,0.0447254,1168,1779,-0.243765,0.417044
-49,-755,-0.0229492,-0.0740967,0.000780353,0.0318703,0.00126836,0.031922,0.000728694,1.53009,0.0210426,0.0398605,1175,1779,-0.0229692,0.0741546
-42,-755,0.0294189,-0.0628662,0.00218343,0.0242802,0.00313113,0.0247153,0.00174831,1.43272,0.0159261,0.0370309,1182,1779,0.0294506,0.0628899
-35,-755,0.00500488,0.00317383,0.00336537,0.0163023,0.00550359,0.0183268,0.00134087,1.21831,0.0117963,0.0329116,1189,1779,0.00501073,-0.00319376
-28,-755,-0.000854492,0.105225,0.00395571,0.00674392,0.00781372,0.0132869,-0.0025873,0.873678,0.00983449,0.0259242,1196,1779,-0.000908454,-0.105204
-21,-755,0.0411377,0.0893555,0.00504722,-0.000213369,0.00990124,0.0126616,-0.00782773,0.65557,0.0119387,0.0309305,1203,1779,0.0411321,-0.0893233
-14,-755,0.0328369,0.0180664,0.00623047,-0.00571021,0.0113654,0.0130983,-0.012578,0.543554,0.0148252,0.0300496,1210,1779,0.0328103,-0.0181155
-7,-755,-0.0457764,-0.0184326,0.00672816,-0.00982829,0.0117584,0.0128301,-0.0159302,0.478686,0.0166369,0.0212179,1217,1779,-0.0457806,0.0183723
0,-755,-0.0426025,0.00952148,0.00698839,-0.0120632,0.0122816,0.0130054,-0.0180802,0.455552,0.0180269,0.0132617,1224,1779,-0.0425758,-0.00948131
7,-755,-0.0300293,0.0269775,0.00721953,-0.0133417,0.0126484,0.0132384,-0.0193606,0.444149,0.0189313,0.011334,1231,1779,-0.0299952,-0.0270187
14,-755,-0.0332031,0.0229492,0.00721343,-0.014598,0.0127677,0.013099,-0.0204836,0.431945,0.0195446,0.0105191,1238,1779,-0.033209,-0.0229508
21,-755,-0.0291748,0.0255127,0.00686944,-0.0156578,0.0123145,0.0122946,-0.021083,0.414969,0.0194919,0.0150773,1245,1779,-0.0291451,-0.0255497
28,-755,-0.010376,0.043457,0.00614305,-0.0164662,0.0115515,0.0110011,-0.0213242,0.398099,0.0189776,0.017474,1252,1779,-0.0103766,-0.0434081
35,-755,-0.0213623,0.0692139,0.00537954,-0.0170262,0.010866,0.00978351,-0.0214301,0.385067,0.0184346,0.0161152,1259,1779,-0.0214215,-0.0692737
42,-755,-0.0148926,0.043457,0.00405803,-0.0186571,0.00930468,0.00738282,-0.0219818,0.343185,0.0176383,0.0128427,1266,1779,-0.014883,-0.0434929
49,-755,-0.00549316,0.0234375,0.00261094,-0.0204936,0.00731575,0.00473256,-0.0226152,0.282264,0.016877,0.00925735,1273,1779,-0.00549712,-0.0234723
56,-755,-0.0200195,0.03125,0.00123923,-0.0217669,0.00544769,0.002464,-0.0229917,0.221147,0.0162116,0.00877085,1280,1779,-0.0200601,-0.0312074
63,-755,-0.017334,0.0313721,-0.000612898,-0.0223133,0.00335999,-0.000104559,-0.0228216,0.150153,0.0151797,0.00929409,1287,1779,-0.0172897,-0.0314225
70,-755,-0.0250244,0.017334,-0.00245464,-0.0214423,0.00132496,-0.00236263,-0.0215343,0.069332,0.0136371,0.0111947,1294,1779,-0.0249664,-0.0173636
77,-755,-0.0297852,0.0316162,-0.00358419,-0.0208678,-0.000585735,-0.00356437,-0.0208877,-0.0338378,0.0129022,0.00978876,1301,1779,-0.0298386,-0.0316423
84,-755,-0.0117188,0.0524902,-0.00486875,-0.0194794,-0.00228878,-0.0045186,-0.0198296,-0.151808,0.0120005,0.00982689,1308,1779,-0.0116625,-0.0525027
91,-755,-0.0288086,0.0445557,-0.00610386,-0.0172618,-0.00342221,-0.00513788,-0.0182278,-0.275111,0.0108525,0.0099434,1315,1779,-0.028863,-0.0444969
98,-755,-0.0405273,0.0239258,-0.00633728,-0.0141752,-0.00366862,-0.00488808,-0.0156244,-0.37621,0.00922895,0.0119003,1322,1779,-0.0405449,-0.0238995
105,-755,-0.0286865,0.0222168,-0.00632142,-0.0117412,-0.00398044,-0.00421599,-0.0138467,-0.486534,0.0081956,0.0165943,1329,1779,-0.0286587,-0.0221756
112,-755,-0.0281982,0.0211182,-0.00578392,-0.0102075,-0.00385202,-0.00355385,-0.0124376,-0.524787,0.00739734,0.0220019,1336,1779,-0.0282297,-0.0211486
119,-755,-0.0184326,0.0244141,-0.00506824,-0.00712955,-0.00355298,-0.00239945,-0.00979834,-0.644231,0.00589743,0.0208401,1343,1779,-0.0184309,-0.0244601
126,-755,0.00292969,0.0452881,-0.00383291,-0.00448586,-0.00243249,-0.00170508,-0.00661368,-0.71869,0.00396492,0.0211429,1350,1779,0.00292521,-0.0452839
133,-755,0.00488281,0.0411377,-0.00223837,-0.00340803,-0.000969644,-0.00169084,-0.00395556,-0.514034,0.00229174,0.0212589,1357,1779,0.00487536,-0.0411704
140,-755,-0.0123291,0.0563965,-0.000789554,-0.0030857,-0.000127963,-0.000782444,-0.00309281,-0.0555006,0.00185685,0.0270843,1364,1779,-0.0123121,-0.0563413
147,-755,0.0904541,0.0626221,0.000939025,-0.00213733,0.000863298,0.00116473,-0.00236303,0.255719,0.00207555,0.0296736,1371,1779,0.0904246,-0.0626599
154,-755,0.0606689,0.0102539,0.00223582,-0.00116312,0.00179293,0.00300673,-0.00193404,0.406077,0.00287488,0.0320656,1378,1779,0.0606558,-0.0102876
161,-755,-0.133911,-0.0762939,0.0032244,-0.00135896,0.00263741,0.00442668,-0.00256124,0.427712,0.00408211,0.0316375,1385,1779,-0.13388,0.0763428
168,-755,-0.106323,-0.139893,0.00401937,-0.00166305,0.00378868,0.00591383,-0.00355751,0.463673,0.0055244,0.0295549,1392,1779,-0.106349,0.139849
175,-755,0.0412598,0.0841064,0.00437883,-0.00188444,0.00451991,0.00674598,-0.0042516,0.482442,0.00640367,0.0366681,1399,1779,0.041261,-0.0841521
182,-755,0.0488281,0.043335,0.00455798,-0.00141186,0.00483515,0.00725534,-0.00410923,0.508863,0.00664462,0.0397961,1406,1779,0.0488271,-0.0433179
189,-755,0.0560303,0.109375,0.00497848,-0.00108475,0.00484777,0.00766452,-0.0037708,0.505968,0.00672855,0.0397245,1413,1779,0.0559818,-0.109411
196,-755,-0.172974,0.161987,0.00562075,-0.00109022,0.00480039,0.00812215,-0.00359162,0.48037,0.00692951,0.0387731,1420,1779,-0.172932,-0.16203
203,-755,-0.0620117,0.0994873,0.0061216,-0.00118861,0.00452101,0.00828022,-0.00334723,0.445456,0.00691156,0.0386062,1427,1779,-0.0620616,-0.0994458
210,-755,0.294922,0.137939,0.00658389,-0.00109435,0.00403462,0.00831406,-0.00282452,0.405111,0.00668613,0.0427358,1434,1779,0.294982,-0.137957
217,-755,0.557251,0.132324,0.00682382,-0.000710898,0.00342997,0.00815133,-0.0020384,0.369277,0.00622593,0.0437762,1441,1779,0.557281,-0.132349
224,-755,-1.0481,0.259399,0.0070939,-0.00103817,0.00289968,0.00802194,-0.00196621,0.309747,0.00610975,0.0422045,1448,1779,-1.04814,-0.259384
231,-755,-0.575073,0.284302,0.0069113,-0.00118214,0.00180412,0.00729524,-0.00156608,0.209687,0.0054609,0.0380394,1455,1779,-0.575115,-0.284359
238,-755,-0.270386,-0.00842285,0.00669864,-0.000578148,0.00107281,0.00685351,-0.000733015,0.143367,0.00483191,0.0374664,1462,1779,-0.270378,0.00844809
245,-755,0.483154,0.356445,0,0,0,0,0,0,0,-1,1469,1779,0.483116,-0.356446
252,-755,0.242798,0.312622,0.00570523,-0.00103449,0.00121636,0.00591803,-0.00124729,0.173199,0.00442017,0.0434783,1476,1779,0.2428,-0.312618
259,-755,0.217285,0.317017,0.00501244,-0.00151649,0.00106618,0.00518214,-0.00168619,0.157839,0.00413311,0.0449615,1483,1779,0.217314,-0.316973
266,-755,0.11731,0.279419,0.00482905,-0.00230818,0.000914315,0.00494432,-0.00242345,0.125407,0.00433599,0.0434289,1490,1779,0.117348,-0.279364
273,-755,-0.161865,0.115234,0.00478931,-0.00313132,0.000258859,0.00479776,-0.00313977,0.0326351,0.00461594,0.0430836,1497,1779,-0.161891,-0.115278
280,-755,-0.154541,0.156128,0.00487799,-0.00415989,0.000182815,0.00488169,-0.00416359,0.0202167,0.00522777,0.0429433,1504,1779,-0.154525,-0.156168
287,-755,-0.0706787,0.315063,0,0,0,0,0,0,0,-1,1511,1779,-0.0707123,-0.315034
294,-755,-0.151611,0.116821,0.00366758,-0.00675728,-0.000108279,0.0036687,-0.00675841,-0.0103852,0.00610755,0.043159,1518,1779,-0.151645,-0.116843
301,-755,-0.10791,-0.00524902,0.0040059,-0.00828224,-0.000590813,0.00403424,-0.00831058,-0.0479326,0.00726843,0.0430786,1525,1779,-0.107947,0.00528313
308,-755,-0.0471191,0.360352,0.0055846,-0.0101266,-0.000133123,0.00558573,-0.0101277,-0.00847232,0.00919763,0.0393618,1532,1779,-0.0471308,-0.360319
315,-755,0.178955,0.589355,0.00669848,-0.0118706,-3.51135e-05,0.00669855,-0.0118707,-0.00189096,0.0108587,0.0414657,1539,1779,0.178947,-0.589329
322,-755,0,0,0,0,0,0,0,0,0,-1,1546,1779,0,0
329,-755,0,0,0,0,0,0,0,0,0,-1,1553,1779,0,0
336,-755,0,0,0,0,0,0,0,0,0,-1,1560,1779,0,0
343,-755,0,0,0,0,0,0,0,0,0,-1,1567,1779,0,0
350,-755,0,0,0,0,0,0,0,0,0,-1,1574,1779,0,0
357,-755,0,0,0,0,0,0,0,0,0,-1,1581,1779,0,0
364,-755,0,0,0,0,0,0,0,0,0,-1,1588,1779,0,0
371,-755,0,0,0,0,0,0,0,0,0,-1,1595,1779,0,0
378,-755,0,0,0,0,0,0,0,0,0,-1,1602,1779,0,0
385,-755,0,0,0,0,0,0,0,0,0,-1,1609,1779,0,0
392,-755,0,0,0,0,0,0,0,0,0,-1,1616,1779,0,0
399,-755,0,0,0,0,0,0,0,0,0,-1,1623,1779,0,0
406,-755,0,0,0,0,0,0,0,0,0,-1,1630,1779,0,0
413,-755,0,0,0,0,0,0,0,0,0,-1,1637,1779,0,0
420,-755,0,0,0,0,0,0,0,0,0,-1,1644,1779,0,0
427,-755,0,0,0,0,0,0,0,0,0,-1,1651,1779,0,0
434,-755,0,0,0,0,0,0,0,0,0,-1,1658,1779,0,0
441,-755,0,0,0,0,0,0,0,0,0,-1,1665,1779,0,0
448,-755,0,0,0,0,0,0,0,0,0,-1,1672,1779,0,0
455,-755,0,0,0,0,0,0,0,0,0,-1,1679,1779,0,0
462,-755,0,0,0,0,0,0,0,0,0,-1,1686,1779,0,0
469,-755,0,0,0,0,0,0,0,0,0,-1,1693,1779,0,0
476,-755,0,0,0,0,0,0,0,0,0,-1,1700,1779,0,0
483,-755,0,0,0,0,0,0,0,0,0,-1,1707,1779,0,0
490,-755,0,0,0,0,0,0,0,0,0,-1,1714,1779,0,0
497,-755,0,0,0,0,0,0,0,0,0,-1,1721,1779,0,0
504,-755,0,0,0,0,0,0,0,0,0,-1,1728,1779,0,0
511,-755,0,0,0,0,0,0,0,0,0,-1,1735,1779,0,0
518,-755,0,0,0,0,0,0,0,0,0,-1,1742,1779,0,0
525,-755,0,0,0,0,0,0,0,0,0,-1,1749,1779,0,0
532,-755,0,0,0,0,0,0,0,0,0,-1,1756,1779,0,0
539,-755,0,0,0,0,0,0,0,0,0,-1,1763,1779,0,0
546,-755,0,0,0,0,0,0,0,0,0,-1,1770,1779,0,0
553,-755,0,0,0,0,0,0,0,0,0,-1,1777,1779,0,0
560,-755,0,0,0,0,0,0,0,0,0,-1,1784,1779,0,0
567,-755,0,0,0,0,0,0,0,0,0,-1,1791,1779,0,0
574,-755,0,0,0,0,0,0,0,0,0,-1,1798,1779,0,0
581,-755,0,0,0,0,0,0,0,0,0,-1,1805,1779,0,0
588,-755,0,0,0,0,0,0,0,0,0,-1,1812,1779,0,0
595,-755,0,0,0,0,0,0,0,0,0,-1,1819,1779,0,0
602,-755,0,0,0,0,0,0,0,0,0,-1,1826,1779,0,0
609,-755,0,0,0,0,0,0,0,0,0,-1,1833,1779,0,0
616,-755,0,0,0,0,0,0,0,0,0,-1,1840,1779,0,0
623,-755,0,0,0,0,0,0,0,0,0,-1,1847,1779,0,0
630,-755,0,0,0,0,0,0,0,0,0,-1,1854,1779,0,0
637,-755,0,0,0,0,0,0,0,0,0,-1,1861,1779,0,0
644,-755,0,0,0,0,0,0,0,0,0,-1,1868,1779,0,0
651,-755,0,0,0,0,0,0,0,0,0,-1,1875,1779,0,0
658,-755,0,0,0,0,0,0,0,0,0,-1,1882,1779,0,0
665,-755,0,0,0,0,0,0,0,0,0,-1,1889,1779,0,0
672,-755,0,0,0,0,0,0,0,0,0,-1,1896,1779,0,0
679,-755,0,0,0,0,0,0,0,0,0,-1,1903,1779,0,0
686,-755,0,0,0,0,0,0,0,0,0,-1,1910,1779,0,0
693,-755,0,0,0,0,0,0,0,0,0,-1,1917,1779,0,0
700,-755,0,0,0,0,0,0,0,0,0,-1,1924,1779,0,0
707,-755,0,0,0,0,0,0,0,0,0,-1,1931,1779,0,0
714,-755,0,0,0,0,0,0,0,0,0,-1,1938,1779,0,0
721,-755,0,0,0,0,0,0,0,0,0,-1,1945,1779,0,0
728,-755,0,0,0,0,0,0,0,0,0,-1,1952,1779,0,0
735,-755,0,0,0,0,0,0,0,0,0,-1,1959,1779,0,0
742,-755,0,0,0,0,0,0,0,0,0,-1,1966,1779,0,0
749,-755,0,0,0,0,0,0,0,0,0,-1,1973,1779,0,0
756,-755,0,0,0,0,0,0,0,0,0,-1,1980,1779,0,0
763,-755,0,0,0,0,0,0,0,0,0,-1,1987,1779,0,0
770,-755,0,0,0,0,0,0,0,0,0,-1,1994,1779,0,0
777,-755,0,0,0,0,0,0,0,0,0,-1,2001,1779,0,0
784,-755,0,0,0,0,0,0,0,0,0,-1,2008,1779,0,0
791,-755,0,0,0,0,0,0,0,0,0,-1,2015,1779,0,0
798,-755,0,0,0,0,0,0,0,0,0,-1,2022,1779,0,0
805,-755,0,0,0,0,0,0,0,0,0,-1,2029,1779,0,0
812,-755,0,0,0,0,0,0,0,0,0,-1,2036,1779,0,0
-700,-762,0,0,0,0,0,0,0,0,0,-1,524,1786,0,0
-693,-762,0,0,0,0,0,0,0,0,0,-1,531,1786,0,0
-686,-762,0,0,0,0,0,0,0,0,0,-1,538,1786,0,0
-679,-762,0,0,0,0,0,0,0,0,0,-1,545,1786,0,0
-672,-762,0,0,0,0,0,0,0,0,0,-1,552,1786,0,0
-665,-762,0,0,0,0,0,0,0,0,0,-1,559,1786,0,0
-658,-762,0,0,0,0,0,0,0,0,0,-1,566,1786,0,0
-651,-762,0,0,0,0,0,0,0,0,0,-1,573,1786,0,0
-644,-762,0,0,0,0,0,0,0,0,0,-1,580,1786,0,0
-637,-762,0,0,0,0,0,0,0,0,0,-1,587,1786,0,0
-630,-762,0,0,0,0,0,0,0,0,0,-1,594,1786,0,0
-623,-762,0,0,0,0,0,0,0,0,0,-1,601,1786,0,0
-616,-762,0,0,0,0,0,0,0,0,0,-1,608,1786,0,0
-609,-762,0,0,0,0,0,0,0,0,0,-1,615,1786,0,0
-602,-762,0,0,0,0,0,0,0,0,0,-1,622,1786,0,0
-595,-762,0,0,0,0,0,0,0,0,0,-1,629,1786,0,0
-588,-762,0,0,0,0,0,0,0,0,0,-1,636,1786,0,0
-581,-762,0,0,0,0,0,0,0,0,0,-1,643,1786,0,0
-574,-762,0,0,0,0,0,0,0,0,0,-1,650,1786,0,0
-567,-762,0,0,0,0,0,0,0,0,0,-1,657,1786,0,0
-560,-762,0,0,0,0,0,0,0,0,0,-1,664,1786,0,0
-553,-762,0,0,0,0,0,0,0,0,0,-1,671,1786,0,0
-546,-762,0,0,0,0,0,0,0,0,0,-1,678,1786,0,0
-539,-762,0,0,0,0,0,0,0,0,0,-1,685,1786,0,0
-532,-762,0,0,0,0,0,0,0,0,0,-1,692,1786,0,0
-525,-762,0,0,0,0,0,0,0,0,0,-1,699,1786,0,0
-518,-762,0,0,0,0,0,0,0,0,0,-1,706,1786,0,0
-511,-762,0,0,0,0,0,0,0,0,0,-1,713,1786,0,0
-504,-762,0,0,0,0,0,0,0,0,0,-1,720,1786,0,0
-497,-762,0,0,0,0,0,0,0,0,0,-1,727,1786,0,0
-490,-762,0,0,0,0,0,0,0,0,0,-1,734,1786,0,0
-483,-762,0,0,0,0,0,0,0,0,0,-1,741,1786,0,0
-476,-762,0,0,0,0,0,0,0,0,0,-1,748,1786,0,0
-469,-762,0,0,0,0,0,0,0,0,0,-1,755,1786,0,0
-462,-762,0,0,0,0,0,0,0,0,0,-1,762,1786,0,0
-455,-762,0,0,0,0,0,0,0,0,0,-1,769,1786,0,0
-448,-762,0,0,0,0,0,0,0,0,0,-1,776,1786,0,0
-441,-762,0,0,0,0,0,0,0,0,0,-1,783,1786,0,0
-434,-762,0,0,0,0,0,0,0,0,0,-1,790,1786,0,0
-427,-762,0,0,0,0,0,0,0,0,0,-1,797,1786,0,0
-420,-762,0,0,0,0,0,0,0,0,0,-1,804,1786,0,0
-413,-762,0,0,0,0,0,0,0,0,0,-1,811,1786,0,0
-406,-762,0,0,0,0,0,0,0,0,0,-1,818,1786,0,0
-399,-762,0,0,0,0,0,0,0,0,0,-1,825,1786,0,0
-392,-762,0,0,0,0,0,0,0,0,0,-1,832,1786,0,0
-385,-762,0,0,0,0,0,0,0,0,0,-1,839,1786,0,0
-378,-762,0,0,0,0,0,0,0,0,0,-1,846,1786,0,0
-371,-762,0,0,0,0,0,0,0,0,0,-1,853,1786,0,0
-364,-762,0,0,0,0,0,0,0,0,0,-1,860,1786,0,0
-357,-762,0,0,0,0,0,0,0,0,0,-1,867,1786,0,0
-350,-762,0,0,0,0,0,0,0,0,0,-1,874,1786,0,0
-343,-762,0,0,0,0,0,0,0,0,0,-1,881,1786,0,0
-336,-762,0,0,0,0,0,0,0,0,0,-1,888,1786,0,0
-329,-762,0,0,0,0,0,0,0,0,0,-1,895,1786,0,0
-322,-762,0,0,0,0,0,0,0,0,0,-1,902,1786,0,0
-315,-762,0,0,0,0,0,0,0,0,0,-1,909,1786,0,0
-308,-762,0,0,0,0,0,0,0,0,0,-1,916,1786,0,0
-301,-762,0,0,0,0,0,0,0,0,0,-1,923,1786,0,0
-294,-762,0,0,0,0,0,0,0,0,0,-1,930,1786,0,0
-287,-762,0,0,0,0,0,0,0,0,0,-1,937,1786,0,0
-280,-762,0,0,0,0,0,0,0,0,0,-1,944,1786,0,0
-273,-762,0,0,0,0,0,0,0,0,0,-1,951,1786,0,0
-266,-762,0,0,0,0,0,0,0,0,0,-1,958,1786,0,0
-259,-762,0,0,0,0,0,0,0,0,0,-1,965,1786,0,0
-252,-762,0,0,0,0,0,0,0,0,0,-1,972,1786,0,0
-245,-762,0,0,0,0,0,0,0,0,0,-1,979,1786,0,0
-238,-762,0,0,0,0,0,0,0,0,0,-1,986,1786,0,0
-231,-762,0,0,0,0,0,0,0,0,0,-1,993,1786,0,0
-224,-762,0,0,0,0,0,0,0,0,0,-1,1000,1786,0,0
-217,-762,0,0,0,0,0,0,0,0,0,-1,1007,1786,0,0
-210,-762,0,0,0,0,0,0,0,0,0,-1,1014,1786,0,0
-203,-762,0,0,0,0,0,0,0,0,0,-1,1021,1786,0,0
-196,-762,0,0,0,0,0,0,0,0,0,-1,1028,1786,0,0
-189,-762,0,0,0,0,0,0,0,0,0,-1,1035,1786,0,0
-182,-762,0.409546,-0.352295,-0.0259957,-0.00306393,-0.00513637,-0.00196603,-0.0270936,-1.36021,0.017444,0.0490465,1042,1786,0.409525,0.352246
-175,-762,0.0661621,-0.40979,-0.0248105,-0.00121021,-0.0044081,-0.000413738,-0.025607,-1.39204,0.0169351,0.0473659,1049,1786,0.0661992,0.409803
-168,-762,0.0270996,0.636841,0,0,0,0,0,0,0,-1,1056,1786,0.0270508,-0.636827
-161,-762,0.105225,0.463623,-0.0197066,0.00184872,-0.00577252,0.00329726,-0.0211552,-1.32494,0.0153212,0.0473676,1063,1786,0.105224,-0.463623
-154,-762,0.224365,0.311646,-0.0163422,0.00291339,-0.00644671,0.00487243,-0.0183012,-1.27578,0.0141082,0.0426534,1070,1786,0.224309,-0.311687
-147,-762,0.393921,0.278687,-0.0138788,0.00397997,-0.00683195,0.00629377,-0.0161926,-1.24425,0.0133953,0.0455564,1077,1786,0.393938,-0.278696
-140,-762,0.194946,0.238037,-0.0107041,0.00516181,-0.00852497,0.00887389,-0.0144162,-1.16012,0.0135729,0.0496712,1084,1786,0.194957,-0.238079
-133,-762,-0.043457,0.336182,-0.0077932,0.0133315,-0.0106685,0.0177818,-0.0122435,-1.1756,0.0174331,0.049055,1091,1786,-0.043495,-0.336199
-126,-762,0.390747,-1.04529,0,0,0,0,0,0,0,-1,1098,1786,0.390736,1.04525
-119,-762,0.201782,-0.657471,0,0,0,0,0,0,0,-1,1105,1786,0.201725,0.657461
-112,-762,0.196533,-0.493286,0,0,0,0,0,0,0,-1,1112,1786,0.196526,0.493234
-105,-762,0.497803,-0.481445,0,0,0,0,0,0,0,-1,1119,1786,0.49782,0.481434
-98,-762,0.316284,-0.131592,-0.00336948,0.0504694,-0.0138262,0.0538124,-0.00671255,-1.33356,0.038309,0.0407376,1126,1786,0.316286,0.131541
-91,-762,-0.637085,-0.215332,-0.00361403,0.0564814,-0.0134171,0.0593409,-0.00647351,-1.36082,0.0418855,0.0456538,1133,1786,-0.637076,0.2153
-84,-762,-0.458252,-0.0653076,0,0,0,0,0,0,0,-1,1140,1786,-0.458215,0.0653584
-77,-762,-0.167969,-0.196411,-0.00211854,0.0630699,-0.0100063,0.0645713,-0.00361992,-1.42186,0.0443035,0.0389334,1147,1786,-0.16798,0.196442
-70,-762,-0.0932617,-0.425293,-0.00146645,0.0611197,-0.00736423,0.0619746,-0.00232129,-1.45523,0.0421115,0.0379683,1154,1786,-0.0932432,0.425326
-63,-762,-0.214844,-0.735596,0,0,0,0,0,0,0,-1,1161,1786,-0.214812,0.735654
-56,-762,-0.0113525,-1.06653,-0.000586339,0.0514971,-0.00112102,0.0515212,-0.000610456,-1.54929,0.0345528,0.04353,1168,1786,-0.0113261,1.06652
-49,-762,0.210815,-0.63501,0.000484336,0.0416109,0.00185145,0.0416941,0.000401156,1.5259,0.0276633,0.0451361,1175,1786,0.210853,0.635006
-42,-762,0.0981445,-0.600952,0.00248853,0.0313919,0.00435165,0.0320328,0.00184757,1.42456,0.0207668,0.0437265,1182,1786,0.098149,0.600942
-35,-762,0.0599365,-0.140625,0.00430081,0.0207406,0.0076113,0.0237233,0.00131808,1.19731,0.015395,0.0472495,1189,1786,0.0599787,0.140654
-28,-762,0.124634,0.346924,0,0,0,0,0,0,0,-1,1196,1786,0.124631,-0.346908
-21,-762,0.232788,0.311279,0.00679375,-0.00135448,0.0138849,0.0171899,-0.0117506,0.642693,0.0168069,0.0408584,1203,1786,0.23273,-0.311277
-14,-762,0.119751,-0.0383301,0.00850498,-0.00833934,0.0159263,0.0180989,-0.0179333,0.54218,0.0208033,0.0487786,1210,1786,0.119712,0.0382928
-7,-762,0.0424805,-0.0358887,0,0,0,0,0,0,0,-1,1217,1786,0.0424375,0.035845
0,-762,0.0267334,-0.00732422,0.00953618,-0.01577,0.0174483,0.0184363,-0.0246702,0.471686,0.0249742,0.0336877,1224,1786,0.02675,0.00736368
7,-762,-0.0251465,0.0311279,0.0097721,-0.0170837,0.0181065,0.0188865,-0.0261981,0.466345,0.0261435,0.0189379,1231,1786,-0.0251297,-0.0310774
14,-762,0.209595,0.245117,0,0,0,0,0,0,0,-1,1238,1786,0.209553,-0.24515
21,-762,-0.0217285,0.0802002,0.0091294,-0.0199079,0.0178222,0.0175982,-0.0283767,0.443597,0.0267857,0.0424942,1245,1786,-0.0216742,-0.080203
28,-762,0.0227051,0.22876,0.00809055,-0.021162,0.0167002,0.0156639,-0.0287353,0.425753,0.0260016,0.0396652,1252,1786,0.0227272,-0.228753
35,-762,-0.0633545,0.235474,0.00704565,-0.0222032,0.0156868,0.0138676,-0.0290252,0.410216,0.0252744,0.0389264,1259,1786,-0.063378,-0.235422
42,-762,0.00244141,0.0499268,0.00523133,-0.0247174,0.0133638,0.0103274,-0.0298135,0.364313,0.0240684,0.0381772,1266,1786,0.00246548,-0.0499305
49,-762,0.0113525,0.024292,0.00328233,-0.0276348,0.0104837,0.00650197,-0.0308544,0.297966,0.0230447,0.0313404,1273,1786,0.0113758,-0.0242475
56,-762,-0.000488281,0.0303955,0.0014353,-0.0298616,0.00771168,0.00323231,-0.0316586,0.228939,0.0222615,0.0214059,1280,1786,-0.000468584,-0.0304025
63,-762,0.00012207,0.0313721,-0.0011291,-0.0309619,0.00461695,-0.000430916,-0.03166,0.150085,0.0209645,0.0194985,1287,1786,0.000163321,-0.0314267
70,-762,0.00805664,0.0280762,-0.00365201,-0.0300257,0.00168994,-0.00354416,-0.0301335,0.0637295,0.019018,0.0191959,1294,1786,0.00811664,-0.0281221
77,-762,0.0383301,0.0408936,-0.00518559,-0.0296004,-0.00109945,-0.00513618,-0.0296498,-0.0449109,0.0182964,0.025831,1301,1786,0.0383177,-0.0409499
84,-762,0.0723877,-0.00231934,-0.00705635,-0.0280089,-0.00361623,-0.00644979,-0.0286155,-0.166188,0.0173318,0.0302183,1308,1786,0.0723653,0.00226136
91,-762,-0.0390625,-0.0500488,-0.00892956,-0.0250271,-0.00523751,-0.00737551,-0.0265812,-0.288441,0.0158452,0.0377536,1315,1786,-0.0390344,0.0499899
98,-762,-0.0535889,0.015625,-0.00937448,-0.0206131,-0.00549137,-0.00713684,-0.0228508,-0.386942,0.0134991,0.0409192,1322,1786,-0.0535531,-0.0156832
105,-762,-0.0354004,0.0493164,-0.00938721,-0.0171452,-0.00585085,-0.00624631,-0.0202861,-0.492674,0.0119969,0.0401399,1329,1786,-0.0353842,-0.0493542
112,-762,-0.0474854,0.0545654,-0.00861442,-0.0147711,-0.00554217,-0.00535307,-0.0180325,-0.531892,0.0106936,0.0435339,1336,1786,-0.0474296,-0.0545757
119,-762,-0.0263672,0.0495605,-0.00767189,-0.0106789,-0.00509112,-0.0038669,-0.0144839,-0.641821,0.00865968,0.0445186,1343,1786,-0.0263875,-0.0496198
126,-762,0.0853271,0.114624,-0.00601625,-0.00718504,-0.00355504,-0.0029979,-0.0102034,-0.703934,0.00605559,0.0442308,1350,1786,0.0853525,-0.114588
133,-762,0.157837,0.0263672,-0.00377889,-0.00575879,-0.00157773,-0.00290625,-0.00663143,-0.505219,0.00383838,0.0451139,1357,1786,0.157891,-0.0263169
140,-762,0.385254,0.103394,-0.00163929,-0.00549943,-0.000547981,-0.001563,-0.00557571,-0.138319,0.00332109,0.0437483,1364,1786,0.385307,-0.103444
147,-762,0.469238,0.0662842,0.00084297,-0.00438536,0.000661035,0.000925252,-0.00446764,0.123837,0.00332997,0.0418681,1371,1786,0.469231,-0.0662252
154,-762,0.647461,-0.0615234,0,0,0,0,0,0,0,-1,1378,1786,0.647428,0.0615649
161,-762,-0.286865,-0.183105,0,0,0,0,0,0,0,-1,1385,1786,-0.286898,0.183052
168,-762,-0.0709229,-1.11194,0.00530014,-0.00434399,0.00427444,0.00692192,-0.00596577,0.362635,0.00744754,0.042348,1392,1786,-0.0709142,1.11188
175,-762,-0.235962,-0.848022,0.00597195,-0.00465711,0.00514415,0.0080538,-0.00673896,0.384554,0.00855185,0.0440477,1399,1786,-0.236009,0.848011
182,-762,-0.214722,-0.349731,0.00620069,-0.00386973,0.00551937,0.00863654,-0.00630558,0.415619,0.00866176,0.046352,1406,1786,-0.214744,0.349705
189,-762,-0.167725,0.0150146,0.00667741,-0.00318691,0.00551876,0.0091468,-0.0056563,0.420734,0.00862541,0.043239,1413,1786,-0.167713,-0.0150597
196,-762,-0.108398,0.0910645,0.00745332,-0.0029078,0.00543879,0.009784,-0.00523847,0.404855,0.00880458,0.042015,1420,1786,-0.108366,-0.0910197
203,-762,-0.0742188,0.123901,0.00802347,-0.00270723,0.00508316,0.010049,-0.00473279,0.379198,0.00871632,0.0415456,1427,1786,-0.0742055,-0.123847
210,-762,0.268311,0.202515,0,0,0,0,0,0,0,-1,1434,1786,0.268327,-0.202571
217,-762,-0.600708,0.293579,0.00867022,-0.00129951,0.00387563,0.00999958,-0.00262886,0.330429,0.00769386,0.0459773,1441,1786,-0.600693,-0.293525
224,-762,-0.462769,0.219482,0.00891536,-0.00128385,0.00325603,0.00986618,-0.00223468,0.284119,0.00743514,0.0451302,1448,1786,-0.462806,-0.219448
231,-762,-0.299927,0.141724,0.00864005,-0.00129896,0.00189527,0.00898919,-0.0016481,0.182176,0.006611,0.0404543,1455,1786,-0.299925,-0.141684
238,-762,-0.129517,0.0512695,0.0083087,-0.000445271,0.00103641,0.00842973,-0.000566301,0.116252,0.00581778,0.0400863,1462,1786,-0.129567,-0.0513197
245,-762,0.281128,0.252808,0.0078223,-0.000853857,0.000818606,0.00789886,-0.000930418,0.0932546,0.00560186,0.0394991,1469,1786,0.28113,-0.252827
252,-762,0.36792,0.412354,0.00671023,-0.00134324,0.00110295,0.00685855,-0.00149156,0.133675,0.00514218,0.0416692,1476,1786,0.367959,-0.412381
259,-762,0.312256,0.351807,0.00564335,-0.00211821,0.000900622,0.00574648,-0.00222135,0.114018,0.00474793,0.0429886,1483,1786,0.312253,-0.351847
266,-762,0.233154,0.293091,0.0051459,-0.00319159,0.000597212,0.00518846,-0.00323415,0.0711457,0.00490624,0.0417059,1490,1786,0.23316,-0.293144
273,-762,0.122314,0.275269,0,0,0,0,0,0,0,-1,1497,1786,0.122266,-0.275292
280,-762,0.287231,0.197266,0,0,0,0,0,0,0,-1,1504,1786,0.287215,-0.197323
287,-762,0.485107,0.410767,0,0,0,0,0,0,0,-1,1511,1786,0.485168,-0.410712
294,-762,0.244995,0.258545,0.0023521,-0.00862431,-0.000623504,0.00238741,-0.00865961,-0.0565615,0.00671193,0.041243,1518,1786,0.245015,-0.258564
301,-762,0.0177002,0.259155,0.00239431,-0.0103342,-0.00110206,0.00248903,-0.0104289,-0.0857321,0.00791384,0.043414,1525,1786,0.0176585,-0.259147
308,-762,0,0,0,0,0,0,0,0,0,-1,1532,1786,0,0
315,-762,0,0,0,0,0,0,0,0,0,-1,1539,1786,0,0
322,-762,0,0,0,0,0,0,0,0,0,-1,1546,1786,0,0
329,-762,0,0,0,0,0,0,0,0,0,-1,1553,1786,0,0
336,-762,0,0,0,0,0,0,0,0,0,-1,1560,1786,0,0
343,-762,0,0,0,0,0,0,0,0,0,-1,1567,1786,0,0
350,-762,0,0,0,0,0,0,0,0,0,-1,1574,1786,0,0
357,-762,0,0,0,0,0,0,0,0,0,-1,1581,1786,0,0
364,-762,0,0,0,0,0,0,0,0,0,-1,1588,1786,0,0
371,-762,0,0,0,0,0,0,0,0,0,-1,1595,1786,0,0
378,-762,0,0,0,0,0,0,0,0,0,-1,1602,1786,0,0
385,-762,0,0,0,0,0,0,0,0,0,-1,1609,1786,0,0
392,-762,0,0,0,0,0,0,0,0,0,-1,1616,1786,0,0
399,-762,0,0,0,0,0,0,0,0,0,-1,1623,1786,0,0
406,-762,0,0,0,0,0,0,0,0,0,-1,1630,1786,0,0
413,-762,0,0,0,0,0,0,0,0,0,-1,1637,1786,0,0
420,-762,0,0,0,0,0,0,0,0,0,-1,1644,1786,0,0
427,-762,0,0,0,0,0,0,0,0,0,-1,1651,1786,0,0
434,-762,0,0,0,0,0,0,0,0,0,-1,1658,1786,0,0
441,-762,0,0,0,0,0,0,0,0,0,-1,1665,1786,0,0
448,-762,0,0,0,0,0,0,0,0,0,-1,1672,1786,0,0
455,-762,0,0,0,0,0,0,0,0,0,-1,1679,1786,0,0
462,-762,0,0,0,0,0,0,0,0,0,-1,1686,1786,0,0
469,-762,0,0,0,0,0,0,0,0,0,-1,1693,1786,0,0
476,-762,0,0,0,0,0,0,0,0,0,-1,1700,1786,0,0
483,-762,0,0,0,0,0,0,0,0,0,-1,1707,1786,0,0
490,-762,0,0,0,0,0,0,0,0,0,-1,1714,1786,0,0
497,-762,0,0,0,0,0,0,0,0,0,-1,1721,1786,0,0
504,-762,0,0,0,0,0,0,0,0,0,-1,1728,1786,0,0
511,-762,0,0,0,0,0,0,0,0,0,-1,1735,1786,0,0
518,-762,0,0,0,0,0,0,0,0,0,-1,1742,1786,0,0
525,-762,0,0,0,0,0,0,0,0,0,-1,1749,1786,0,0
532,-762,0,0,0,0,0,0,0,0,0,-1,1756,1786,0,0
539,-762,0,0,0,0,0,0,0,0,0,-1,1763,1786,0,0
546,-762,0,0,0,0,0,0,0,0,0,-1,1770,1786,0,0
553,-762,0,0,0,0,0,0,0,0,0,-1,1777,1786,0,0
560,-762,0,0,0,0,0,0,0,0,0,-1,1784,1786,0,0
567,-762,0,0,0,0,0,0,0,0,0,-1,1791,1786,0,0
574,-762,0,0,0,0,0,0,0,0,0,-1,1798,1786,0,0
581,-762,0,0,0,0,0,0,0,0,0,-1,1805,1786,0,0
588,-762,0,0,0,0,0,0,0,0,0,-1,1812,1786,0,0
595,-762,0,0,0,0,0,0,0,0,0,-1,1819,1786,0,0
602,-762,0,0,0,0,0,0,0,0,0,-1,1826,1786,0,0
609,-762,0,0,0,0,0,0,0,0,0,-1,1833,1786,0,0
616,-762,0,0,0,0,0,0,0,0,0,-1,1840,1786,0,0
623,-762,0,0,0,0,0,0,0,0,0,-1,1847,1786,0,0
630,-762,0,0,0,0,0,0,0,0,0,-1,1854,1786,0,0
637,-762,0,0,0,0,0,0,0,0,0,-1,1861,1786,0,0
644,-762,0,0,0,0,0,0,0,0,0,-1,1868,1786,0,0
651,-762,0,0,0,0,0,0,0,0,0,-1,1875,1786,0,0
658,-762,0,0,0,0,0,0,0,0,0,-1,1882,1786,0,0
665,-762,0,0,0,0,0,0,0,0,0,-1,1889,1786,0,0
672,-762,0,0,0,0,0,0,0,0,0,-1,1896,1786,0,0
679,-762,0,0,0,0,0,0,0,0,0,-1,1903,1786,0,0
686,-762,0,0,0,0,0,0,0,0,0,-1,1910,1786,0,0
693,-762,0,0,0,0,0,0,0,0,0,-1,1917,1786,0,0
700,-762,0,0,0,0,0,0,0,0,0,-1,1924,1786,0,0
707,-762,0,0,0,0,0,0,0,0,0,-1,1931,1786,0,0
714,-762,0,0,0,0,0,0,0,0,0,-1,1938,1786,0,0
721,-762,0,0,0,0,0,0,0,0,0,-1,1945,1786,0,0
728,-762,0,0,0,0,0,0,0,0,0,-1,1952,1786,0,0
735,-762,0,0,0,0,0,0,0,0,0,-1,1959,1786,0,0
742,-762,0,0,0,0,0,0,0,0,0,-1,1966,1786,0,0
749,-762,0,0,0,0,0,0,0,0,0,-1,1973,1786,0,0
756,-762,0,0,0,0,0,0,0,0,0,-1,1980,1786,0,0
763,-762,0,0,0,0,0,0,0,0,0,-1,1987,1786,0,0
770,-762,0,0,0,0,0,0,0,0,0,-1,1994,1786,0,0
777,-762,0,0,0,0,0,0,0,0,0,-1,2001,1786,0,0
784,-762,0,0,0,0,0,0,0,0,0,-1,2008,1786,0,0
791,-762,0,0,0,0,0,0,0,0,0,-1,2015,1786,0,0
798,-762,0,0,0,0,0,0,0,0,0,-1,2022,1786,0,0
805,-762,0,0,0,0,0,0,0,0,0,-1,2029,1786,0,0
812,-762,0,0,0,0,0,0,0,0,0,-1,2036,1786,0,0
-700,-769,0,0,0,0,0,0,0,0,0,-1,524,1793,0,0
-693,-769,0,0,0,0,0,0,0,0,0,-1,531,1793,0,0
-686,-769,0,0,0,0,0,0,0,0,0,-1,538,1793,0,0
-679,-769,0,0,0,0,0,0,0,0,0,-1,545,1793,0,0
-672,-769,0,0,0,0,0,0,0,0,0,-1,552,1793,0,0
-665,-769,0,0,0,0,0,0,0,0,0,-1,559,1793,0,0
-658,-769,0,0,0,0,0,0,0,0,0,-1,566,1793,0,0
-651,-769,0,0,0,0,0,0,0,0,0,-1,573,1793,0,0
-644,-769,0,0,0,0,0,0,0,0,0,-1,580,1793,0,0
-637,-769,0,0,0,0,0,0,0,0,0,-1,587,1793,0,0
-630,-769,0,0,0,0,0,0,0,0,0,-1,594,1793,0,0
-623,-769,0,0,0,0,0,0,0,0,0,-1,601,1793,0,0
-616,-769,0,0,0,0,0,0,0,0,0,-1,608,1793,0,0
-609,-769,0,0,0,0,0,0,0,0,0,-1,615,1793,0,0
-602,-769,0,0,0,0,0,0,0,0,0,-1,622,1793,0,0
-595,-769,0,0,0,0,0,0,0,0,0,-1,629,1793,0,0
-588,-769,0,0,0,0,0,0,0,0,0,-1,636,1793,0,0
-581,-769,0,0,0,0,0,0,0,0,0,-1,643,1793,0,0
-574,-769,0,0,0,0,0,0,0,0,0,-1,650,1793,0,0
-567,-769,0,0,0,0,0,0,0,0,0,-1,657,1793,0,0
-560,-769,0,0,0,0,0,0,0,0,0,-1,664,1793,0,0
-553,-769,0,0,0,0,0,0,0,0,0,-1,671,1793,0,0
-546,-769,0,0,0,0,0,0,0,0,0,-1,678,1793,0,0
-539,-769,0,0,0,0,0,0,0,0,0,-1,685,1793,0,0
-532,-769,0,0,0,0,0,0,0,0,0,-1,692,1793,0,0
-525,-769,0,0,0,0,0,0,0,0,0,-1,699,1793,0,0
-518,-769,0,0,0,0,0,0,0,0,0,-1,706,1793,0,0
-511,-769,0,0,0,0,0,0,0,0,0,-1,713,1793,0,0
-504,-769,0,0,0,0,0,0,0,0,0,-1,720,1793,0,0
-497,-769,0,0,0,0,0,0,0,0,0,-1,727,1793,0,0
-490,-769,0,0,0,0,0,0,0,0,0,-1,734,1793,0,0
-483,-769,0,0,0,0,0,0,0,0,0,-1,741,1793,0,0
-476,-769,0,0,0,0,0,0,0,0,0,-1,748,1793,0,0
-469,-769,0,0,0,0,0,0,0,0,0,-1,755,1793,0,0
-462,-769,0,0,0,0,0,0,0,0,0,-1,762,1793,0,0
-455,-769,0,0,0,0,0,0,0,0,0,-1,769,1793,0,0
-448,-769,0,0,0,0,0,0,0,0,0,-1,776,1793,0,0
-441,-769,0,0,0,0,0,0,0,0,0,-1,783,1793,0,0
-434,-769,0,0,0,0,0,0,0,0,0,-1,790,1793,0,0
-427,-769,0,0,0,0,0,0,0,0,0,-1,797,1793,0,0
-420,-769,0,0,0,0,0,0,0,0,0,-1,804,1793,0,0
-413,-769,0,0,0,0,0,0,0,0,0,-1,811,1793,0,0
-406,-769,0,0,0,0,0,0,0,0,0,-1,818,1793,0,0
-399,-769,0,0,0,0,0,0,0,0,0,-1,825,1793,0,0
-392,-769,0,0,0,0,0,0,0,0,0,-1,832,1793,0,0
-385,-769,0,0,0,0,0,0,0,0,0,-1,839,1793,0,0
-378,-769,0,0,0,0,0,0,0,0,0,-1,846,1793,0,0
-371,-769,0,0,0,0,0,0,0,0,0,-1,853,1793,0,0
-364,-769,0,0,0,0,0,0,0,0,0,-1,860,1793,0,0
-357,-769,0,0,0,0,0,0,0,0,0,-1,867,1793,0,0
-350,-769,0,0,0,0,0,0,0,0,0,-1,874,1793,0,0
-343,-769,0,0,0,0,0,0,0,0,0,-1,881,1793,0,0
-336,-769,0,0,0,0,0,0,0,0,0,-1,888,1793,0,0
-329,-769,0,0,0,0,0,0,0,0,0,-1,895,1793,0,0
-322,-769,0,0,0,0,0,0,0,0,0,-1,902,1793,0,0
-315,-769,0,0,0,0,0,0,0,0,0,-1,909,1793,0,0
-308,-769,0,0,0,0,0,0,0,0,0,-1,916,1793,0,0
-301,-769,0,0,0,0,0,0,0,0,0,-1,923,1793,0,0
-294,-769,0,0,0,0,0,0,0,0,0,-1,930,1793,0,0
-287,-769,0,0,0,0,0,0,0,0,0,-1,937,1793,0,0
-280,-769,0,0,0,0,0,0,0,0,0,-1,944,1793,0,0
-273,-769,0,0,0,0,0,0,0,0,0,-1,951,1793,0,0
-266,-769,0,0,0,0,0,0,0,0,0,-1,958,1793,0,0
-259,-769,0,0,0,0,0,0,0,0,0,-1,965,1793,0,0
-252,-769,0,0,0,0,0,0,0,0,0,-1,972,1793,0,0
-245,-769,0,0,0,0,0,0,0,0,0,-1,979,1793,0,0
-238,-769,0,0,0,0,0,0,0,0,0,-1,986,1793,0,0
-231,-769,0,0,0,0,0,0,0,0,0,-1,993,1793,0,0
-224,-769,0,0,0,0,0,0,0,0,0,-1,1000,1793,0,0
-217,-769,0,0,0,0,0,0,0,0,0,-1,1007,1793,0,0
-210,-769,0,0,0,0,0,0,0,0,0,-1,1014,1793,0,0
-203,-769,0,0,0,0,0,0,0,0,0,-1,1021,1793,0,0
-196,-769,0,0,0,0,0,0,0,0,0,-1,1028,1793,0,0
-189,-769,0,0,0,0,0,0,0,0,0,-1,1035,1793,0,0
-182,-769,0,0,0,0,0,0,0,0,0,-1,1042,1793,0,0
-175,-769,0,0,0,0,0,0,0,0,0,-1,1049,1793,0,0
-168,-769,0,0,0,0,0,0,0,0,0,-1,1056,1793,0,0
-161,-769,0.0888672,0.143066,0,0,0,0,0,0,0,-1,1063,1793,0.0888891,-0.143101
-154,-769,0.0897217,0.216675,0,0,0,0,0,0,0,-1,1070,1793,0.0896697,-0.216726
-147,-769,0.243286,0.214478,-0.0167119,0.00259911,-0.00713424,0.00494886,-0.0190616,-1.25262,0.0146389,0.0444539,1077,1793,0.243247,-0.21452
-140,-769,0.338257,0.198486,-0.0127223,0.00420717,-0.0094419,0.00842318,-0.0169383,-1.15084,0.014915,0.0445103,1084,1793,0.338238,-0.198448
-133,-769,0.654175,-0.854614,-0.00907431,0.0148227,-0.0124461,0.0201273,-0.014379,-1.1679,0.0200142,0.0476508,1091,1793,0.654161,0.854644
-126,-769,0.322998,-1.00891,0,0,0,0,0,0,0,-1,1098,1793,0.322986,1.00891
-119,-769,0.116821,-0.590576,-0.00540799,0.034352,-0.015131,0.0394552,-0.0105112,-1.24551,0.0304187,0.042681,1105,1793,0.116798,0.590522
-112,-769,0.0432129,-0.347656,-0.00471252,0.0447299,-0.0160906,0.0495052,-0.00948784,-1.2823,0.0365786,0.038365,1112,1793,0.0432127,0.347604
-105,-769,0.177979,-0.257935,-0.00414488,0.054347,-0.0167745,0.0588161,-0.00861405,-1.31042,0.042375,0.038013,1119,1793,0.177936,0.257979
-98,-769,0.179199,-0.152222,-0.00396013,0.0637981,-0.0169991,0.0678237,-0.00798569,-1.33827,0.0480992,0.039529,1126,1793,0.179226,0.152273
-91,-769,-0.160645,-0.267944,-0.00417435,0.0719148,-0.0166661,0.0754051,-0.00766469,-1.36435,0.05301,0.041783,1133,1793,-0.160662,0.267961
-84,-769,0.112915,0.200073,0,0,0,0,0,0,0,-1,1140,1793,0.112924,-0.200103
-77,-769,0.154053,0.0539551,-0.00289656,0.0813185,-0.0125569,0.083151,-0.00472898,-1.42589,0.0570756,0.0416953,1147,1793,0.154039,-0.0539036
-70,-769,0.358032,-0.286011,-0.00253542,0.0790285,-0.00902741,0.0800157,-0.00352261,-1.46187,0.0545559,0.041909,1154,1793,0.357996,0.286039
-63,-769,0.503906,-0.783325,-0.00243847,0.0752226,-0.00526298,0.0755776,-0.00279351,-1.50344,0.0513416,0.0450931,1161,1793,0.503848,0.78338
-56,-769,0.405029,-1.32947,-0.00161356,0.0661117,-0.000792962,0.066121,-0.00162284,-1.55909,0.0446315,0.0446374,1168,1793,0.404989,1.32942
-49,-769,0.27063,-1.31946,-9.28739e-05,0.0530751,0.00294627,0.0532378,-0.000255642,1.51561,0.0355774,0.0469724,1175,1793,0.270584,1.31945
-42,-769,0.106079,-1.17725,0.00276143,0.0397237,0.00606819,0.0406944,0.0017907,1.41217,0.0265528,0.0445537,1182,1793,0.106112,1.1773
-35,-769,-0.00952148,-0.163452,0.00542427,0.0259835,0.0103124,0.0302646,0.00114313,1.1773,0.0198064,0.0452465,1189,1793,-0.00946861,0.163435
-28,-769,-0.0336914,0.635986,0.00663424,0.00921312,0.0149063,0.0228856,-0.00703825,0.828542,0.0180661,0.047163,1196,1793,-0.0336443,-0.636009
-21,-769,0.197754,0.964478,0.00884206,-0.00282319,0.0189262,0.022814,-0.0167951,0.635927,0.0229562,0.0448048,1203,1793,0.197741,-0.964518
-14,-769,0.195435,-0.118408,0,0,0,0,0,0,0,-1,1210,1793,0.195471,0.118453
-7,-769,-2.54932,-1.43298,0,0,0,0,0,0,0,-1,1217,1793,-2.54931,1.43296
0,-769,0.101807,-0.0189209,0,0,0,0,0,0,0,-1,1224,1793,0.101803,0.0189215
7,-769,-0.755981,0.032959,0,0,0,0,0,0,0,-1,1231,1793,-0.756038,-0.0329067
14,-769,-0.373535,0.220093,0.0123291,-0.0225354,0.0256596,0.0259179,-0.0361241,0.487027,0.0359811,0.044925,1238,1793,-0.373562,-0.220099
21,-769,-0.0335693,0.469116,0.0114978,-0.0243066,0.0249805,0.0243285,-0.0371373,0.474493,0.0357432,0.0461805,1245,1793,-0.0335335,-0.46914
28,-769,-0.00671387,0.601196,0.0100609,-0.0261935,0.0233406,0.0214866,-0.0376192,0.455231,0.0345459,0.0432458,1252,1793,-0.00672692,-0.601194
35,-769,-0.0281982,0.758423,0.00868848,-0.0279514,0.0218641,0.0188932,-0.0381562,0.436684,0.0335575,0.0431652,1259,1793,-0.028204,-0.758427
42,-769,-0.111572,0.698608,0.00632992,-0.031667,0.0185271,0.0138681,-0.0392053,0.386419,0.0317846,0.0417921,1266,1793,-0.111592,-0.698615
49,-769,0.0101318,0.457275,0.00384636,-0.0360335,0.0144907,0.00855559,-0.0407427,0.314216,0.0304174,0.0427879,1273,1793,0.0101058,-0.457228
56,-769,0.0714111,0.0839844,0.00148694,-0.0395956,0.0105005,0.00401521,-0.0421238,0.236279,0.0295122,0.0444769,1280,1793,0.0714449,-0.0839595
63,-769,-0.0111084,0.0405273,-0.00188486,-0.0414811,0.00608028,-0.000972228,-0.0423937,0.148985,0.027944,0.0433186,1287,1793,-0.0111546,-0.0405112
70,-769,0.356812,0.146973,-0.00516818,-0.0405754,0.00201386,-0.00505401,-0.0406896,0.0566336,0.0256085,0.0423982,1294,1793,0.356786,-0.146923
77,-769,0.623047,0.465332,0,0,0,0,0,0,0,-1,1301,1793,0.623046,-0.465391
84,-769,0.0673828,-0.00537109,0,0,0,0,0,0,0,-1,1308,1793,0.0673565,0.00533156
91,-769,-0.0515137,-0.160645,0,0,0,0,0,0,0,-1,1315,1793,-0.051471,0.160646
98,-769,-0.0645752,0.012085,0,0,0,0,0,0,0,-1,1322,1793,-0.0645312,-0.0120355
105,-769,-0.458984,0.243652,0,0,0,0,0,0,0,-1,1329,1793,-0.458939,-0.243609
112,-769,-0.0509033,0.079834,0,0,0,0,0,0,0,-1,1336,1793,-0.050893,-0.0797853
119,-769,0.267456,0.0987549,-0.0109494,-0.0152621,-0.00711615,-0.00567006,-0.0205415,-0.638283,0.0122498,0.0468871,1343,1793,0.267424,-0.0987079
126,-769,0.244751,0.185303,-0.00886937,-0.0107609,-0.00510716,-0.00462116,-0.0150092,-0.693842,0.00887619,0.0478453,1350,1793,0.24481,-0.18527
133,-769,0.324463,0.00256348,0,0,0,0,0,0,0,-1,1357,1793,0.324478,-0.00257214
140,-769,0.643433,0.146362,0,0,0,0,0,0,0,-1,1364,1793,0.643426,-0.146312
147,-769,0.656982,0.107666,0,0,0,0,0,0,0,-1,1371,1793,0.656961,-0.107626
154,-769,-0.4375,-2.95215,0,0,0,0,0,0,0,-1,1378,1793,-0.437456,2.95219
161,-769,-0.384521,-2.41077,0.00490001,-0.00718251,0.00276032,0.00550076,-0.00778325,0.214293,0.00770717,0.0440025,1385,1793,-0.384545,2.41074
168,-769,-0.360962,-1.76782,0.00674518,-0.0081827,0.00441632,0.00795386,-0.00939138,0.267142,0.0100257,0.0449555,1392,1793,-0.360928,1.76777
175,-769,-0.287842,-1.151,0.00783091,-0.00862494,0.00541746,0.00945426,-0.0102483,0.291137,0.0113784,0.0467665,1399,1793,-0.287839,1.15102
182,-769,-0.213989,-0.546265,0.00812355,-0.00744348,0.00585147,0.0100777,-0.00939766,0.322319,0.0112464,0.0452451,1406,1793,-0.213967,0.54624
189,-769,-0.185303,-0.234741,0.0086602,-0.00629006,0.00582611,0.0106625,-0.00829234,0.331026,0.010972,0.0407014,1413,1793,-0.185331,0.234774
196,-769,0.000976563,-0.203003,0.00958321,-0.00561879,0.00569589,0.0114805,-0.00751612,0.321546,0.0110471,0.041307,1420,1793,0.00103404,0.20297
203,-769,-0.0244141,0.12561,0.0102212,-0.00497274,0.00526535,0.0118675,-0.00661903,0.303035,0.0108156,0.0445543,1427,1793,-0.024448,-0.125592
210,-769,-0.0795898,0.445679,0,0,0,0,0,0,0,-1,1434,1793,-0.079647,-0.44568
217,-769,-0.131348,0.386353,0,0,0,0,0,0,0,-1,1441,1793,-0.131375,-0.386348
224,-769,0.0108643,0.0808105,0,0,0,0,0,0,0,-1,1448,1793,0.0108053,-0.0808297
231,-769,-0.076416,0.0809326,0,0,0,0,0,0,0,-1,1455,1793,-0.0763563,-0.0808759
238,-769,0.0406494,0.0496826,0.0100194,-0.000173875,0.000830362,0.0100866,-0.000241075,0.0807523,0.00680618,0.0424992,1462,1793,0.0406088,-0.0496764
245,-769,0.313965,0.338623,0.00922869,-0.000830699,0.000632962,0.00926836,-0.00087037,0.0625935,0.00648852,0.0443334,1469,1793,0.313935,-0.338666
252,-769,0.235229,0.595947,0,0,0,0,0,0,0,-1,1476,1793,0.235214,-0.595893
259,-769,0.338745,0.308838,0.00603694,-0.00286205,0.000598797,0.00607705,-0.00290216,0.0668864,0.00529107,0.0425643,1483,1793,0.338728,-0.30887
266,-769,0.245605,0.30896,0.00509185,-0.00429171,4.45413e-05,0.00509206,-0.00429192,0.00474659,0.00542441,0.0422749,1490,1793,0.245619,-0.308948
273,-769,0.22583,0.381226,0,0,0,0,0,0,0,-1,1497,1793,0.225823,-0.381197
280,-769,0.383057,0.395752,0,0,0,0,0,0,0,-1,1504,1793,0.383024,-0.395769
287,-769,0,0,0,0,0,0,0,0,0,-1,1511,1793,0,0
294,-769,0,0,0,0,0,0,0,0,0,-1,1518,1793,0,0
301,-769,0,0,0,0,0,0,0,0,0,-1,1525,1793,0,0
308,-769,0,0,0,0,0,0,0,0,0,-1,1532,1793,0,0
315,-769,0,0,0,0,0,0,0,0,0,-1,1539,1793,0,0
322,-769,0,0,0,0,0,0,0,0,0,-1,1546,1793,0,0
329,-769,0,0,0,0,0,0,0,0,0,-1,1553,1793,0,0
336,-769,0,0,0,0,0,0,0,0,0,-1,1560,1793,0,0
343,-769,0,0,0,0,0,0,0,0,0,-1,1567,1793,0,0
350,-769,0,0,0,0,0,0,0,0,0,-1,1574,1793,0,0
357,-769,0,0,0,0,0,0,0,0,0,-1,1581,1793,0,0
364,-769,0,0,0,0,0,0,0,0,0,-1,1588,1793,0,0
371,-769,0,0,0,0,0,0,0,0,0,-1,1595,1793,0,0
378,-769,0,0,0,0,0,0,0,0,0,-1,1602,1793,0,0
385,-769,0,0,0,0,0,0,0,0,0,-1,1609,1793,0,0
392,-769,0,0,0,0,0,0,0,0,0,-1,1616,1793,0,0
399,-769,0,0,0,0,0,0,0,0,0,-1,1623,1793,0,0
406,-769,0,0,0,0,0,0,0,0,0,-1,1630,1793,0,0
413,-769,0,0,0,0,0,0,0,0,0,-1,1637,1793,0,0
420,-769,0,0,0,0,0,0,0,0,0,-1,1644,1793,0,0
427,-769,0,0,0,0,0,0,0,0,0,-1,1651,1793,0,0
434,-769,0,0,0,0,0,0,0,0,0,-1,1658,1793,0,0
441,-769,0,0,0,0,0,0,0,0,0,-1,1665,1793,0,0
448,-769,0,0,0,0,0,0,0,0,0,-1,1672,1793,0,0
455,-769,0,0,0,0,0,0,0,0,0,-1,1679,1793,0,0
462,-769,0,0,0,0,0,0,0,0,0,-1,1686,1793,0,0
469,-769,0,0,0,0,0,0,0,0,0,-1,1693,1793,0,0
476,-769,0,0,0,0,0,0,0,0,0,-1,1700,1793,0,0
483,-769,0,0,0,0,0,0,0,0,0,-1,1707,1793,0,0
490,-769,0,0,0,0,0,0,0,0,0,-1,1714,1793,0,0
497,-769,0,0,0,0,0,0,0,0,0,-1,1721,1793,0,0
504,-769,0,0,0,0,0,0,0,0,0,-1,1728,1793,0,0
511,-769,0,0,0,0,0,0,0,0,0,-1,1735,1793,0,0
518,-769,0,0,0,0,0,0,0,0,0,-1,1742,1793,0,0
525,-769,0,0,0,0,0,0,0,0,0,-1,1749,1793,0,0
532,-769,0,0,0,0,0,0,0,0,0,-1,1756,1793,0,0
539,-769,0,0,0,0,0,0,0,0,0,-1,1763,1793,0,0
546,-769,0,0,0,0,0,0,0,0,0,-1,1770,1793,0,0
553,-769,0,0,0,0,0,0,0,0,0,-1,1777,1793,0,0
560,-769,0,0,0,0,0,0,0,0,0,-1,1784,1793,0,0
567,-769,0,0,0,0,0,0,0,0,0,-1,1791,1793,0,0
574,-769,0,0,0,0,0,0,0,0,0,-1,1798,1793,0,0
581,-769,0,0,0,0,0,0,0,0,0,-1,1805,1793,0,0
588,-769,0,0,0,0,0,0,0,0,0,-1,1812,1793,0,0
595,-769,0,0,0,0,0,0,0,0,0,-1,1819,1793,0,0
602,-769,0,0,0,0,0,0,0,0,0,-1,1826,1793,0,0
609,-769,0,0,0,0,0,0,0,0,0,-1,1833,1793,0,0
616,-769,0,0,0,0,0,0,0,0,0,-1,1840,1793,0,0
623,-769,0,0,0,0,0,0,0,0,0,-1,1847,1793,0,0
630,-769,0,0,0,0,0,0,0,0,0,-1,1854,1793,0,0
637,-769,0,0,0,0,0,0,0,0,0,-1,1861,1793,0,0
644,-769,0,0,0,0,0,0,0,0,0,-1,1868,1793,0,0
651,-769,0,0,0,0,0,0,0,0,0,-1,1875,1793,0,0
658,-769,0,0,0,0,0,0,0,0,0,-1,1882,1793,0,0
665,-769,0,0,0,0,0,0,0,0,0,-1,1889,1793,0,0
672,-769,0,0,0,0,0,0,0,0,0,-1,1896,1793,0,0
679,-769,0,0,0,0,0,0,0,0,0,-1,1903,1793,0,0
686,-769,0,0,0,0,0,0,0,0,0,-1,1910,1793,0,0
693,-769,0,0,0,0,0,0,0,0,0,-1,1917,1793,0,0
700,-769,0,0,0,0,0,0,0,0,0,-1,1924,1793,0,0
707,-769,0,0,0,0,0,0,0,0,0,-1,1931,1793,0,0
714,-769,0,0,0,0,0,0,0,0,0,-1,1938,1793,0,0
721,-769,0,0,0,0,0,0,0,0,0,-1,1945,1793,0,0
728,-769,0,0,0,0,0,0,0,0,0,-1,1952,1793,0,0
735,-769,0,0,0,0,0,0,0,0,0,-1,1959,1793,0,0
742,-769,0,0,0,0,0,0,0,0,0,-1,1966,1793,0,0
749,-769,0,0,0,0,0,0,0,0,0,-1,1973,1793,0,0
756,-769,0,0,0,0,0,0,0,0,0,-1,1980,1793,0,0
763,-769,0,0,0,0,0,0,0,0,0,-1,1987,1793,0,0
770,-769,0,0,0,0,0,0,0,0,0,-1,1994,1793,0,0
777,-769,0,0,0,0,0,0,0,0,0,-1,2001,1793,0,0
784,-769,0,0,0,0,0,0,0,0,0,-1,2008,1793,0,0
791,-769,0,0,0,0,0,0,0,0,0,-1,2015,1793,0,0
798,-769,0,0,0,0,0,0,0,0,0,-1,2022,1793,0,0
805,-769,0,0,0,0,0,0,0,0,0,-1,2029,1793,0,0
812,-769,0,0,0,0,0,0,0,0,0,-1,2036,1793,0,0
-700,-776,0,0,0,0,0,0,0,0,0,-1,524,1800,0,0
-693,-776,0,0,0,0,0,0,0,0,0,-1,531,1800,0,0
-686,-776,0,0,0,0,0,0,0,0,0,-1,538,1800,0,0
-679,-776,0,0,0,0,0,0,0,0,0,-1,545,1800,0,0
-672,-776,0,0,0,0,0,0,0,0,0,-1,552,1800,0,0
-665,-776,0,0,0,0,0,0,0,0,0,-1,559,1800,0,0
-658,-776,0,0,0,0,0,0,0,0,0,-1,566,1800,0,0
-651,-776,0,0,0,0,0,0,0,0,0,-1,573,1800,0,0
-644,-776,0,0,0,0,0,0,0,0,0,-1,580,1800,0,0
-637,-776,0,0,0,0,0,0,0,0,0,-1,587,1800,0,0
-630,-776,0,0,0,0,0,0,0,0,0,-1,594,1800,0,0
-623,-776,0,0,0,0,0,0,0,0,0,-1,601,1800,0,0
-616,-776,0,0,0,0,0,0,0,0,0,-1,608,1800,0,0
-609,-776,0,0,0,0,0,0,0,0,0,-1,615,1800,0,0
-602,-776,0,0,0,0,0,0,0,0,0,-1,622,1800,0,0
-595,-776,0,0,0,0,0,0,0,0,0,-1,629,1800,0,0
-588,-776,0,0,0,0,0,0,0,0,0,-1,636,1800,0,0
-581,-776,0,0,0,0,0,0,0,0,0,-1,643,1800,0,0
-574,-776,0,0,0,0,0,0,0,0,0,-1,650,1800,0,0
-567,-776,0,0,0,0,0,0,0,0,0,-1,657,1800,0,0
-560,-776,0,0,0,0,0,0,0,0,0,-1,664,1800,0,0
-553,-776,0,0,0,0,0,0,0,0,0,-1,671,1800,0,0
-546,-776,0,0,0,0,0,0,0,0,0,-1,678,1800,0,0
-539,-776,0,0,0,0,0,0,0,0,0,-1,685,1800,0,0
-532,-776,0,0,0,0,0,0,0,0,0,-1,692,1800,0,0
-525,-776,0,0,0,0,0,0,0,0,0,-1,699,1800,0,0
-518,-776,0,0,0,0,0,0,0,0,0,-1,706,1800,0,0
-511,-776,0,0,0,0,0,0,0,0,0,-1,713,1800,0,0
-504,-776,0,0,0,0,0,0,0,0,0,-1,720,1800,0,0
-497,-776,0,0,0,0,0,0,0,0,0,-1,727,1800,0,0
-490,-776,0,0,0,0,0,0,0,0,0,-1,734,1800,0,0
-483,-776,0,0,0,0,0,0,0,0,0,-1,741,1800,0,0
-476,-776,0,0,0,0,0,0,0,0,0,-1,748,1800,0,0
-469,-776,0,0,0,0,0,0,0,0,0,-1,755,1800,0,0
-462,-776,0,0,0,0,0,0,0,0,0,-1,762,1800,0,0
-455,-776,0,0,0,0,0,0,0,0,0,-1,769,1800,0,0
-448,-776,0,0,0,0,0,0,0,0,0,-1,776,1800,0,0
-441,-776,0,0,0,0,0,0,0,0,0,-1,783,1800,0,0
-434,-776,0,0,0,0,0,0,0,0,0,-1,790,1800,0,0
-427,-776,0,0,0,0,0,0,0,0,0,-1,797,1800,0,0
-420,-776,0,0,0,0,0,0,0,0,0,-1,804,1800,0,0
-413,-776,0,0,0,0,0,0,0,0,0,-1,811,1800,0,0
-406,-776,0,0,0,0,0,0,0,0,0,-1,818,1800,0,0
-399,-776,0,0,0,0,0,0,0,0,0,-1,825,1800,0,0
-392,-776,0,0,0,0,0,0,0,0,0,-1,832,1800,0,0
-385,-776,0,0,0,0,0,0,0,0,0,-1,839,1800,0,0
-378,-776,0,0,0,0,0,0,0,0,0,-1,846,1800,0,0
-371,-776,0,0,0,0,0,0,0,0,0,-1,853,1800,0,0
-364,-776,0,0,0,0,0,0,0,0,0,-1,860,1800,0,0
-357,-776,0,0,0,0,0,0,0,0,0,-1,867,1800,0,0
-350,-776,0,0,0,0,0,0,0,0,0,-1,874,1800,0,0
-343,-776,0,0,0,0,0,0,0,0,0,-1,881,1800,0,0
-336,-776,0,0,0,0,0,0,0,0,0,-1,888,1800,0,0
-329,-776,0,0,0,0,0,0,0,0,0,-1,895,1800,0,0
-322,-776,0,0,0,0,0,0,0,0,0,-1,902,1800,0,0
-315,-776,0,0,0,0,0,0,0,0,0,-1,909,1800,0,0
-308,-776,0,0,0,0,0,0,0,0,0,-1,916,1800,0,0
-301,-776,0,0,0,0,0,0,0,0,0,-1,923,1800,0,0
-294,-776,0,0,0,0,0,0,0,0,0,-1,930,1800,0,0
-287,-776,0,0,0,0,0,0,0,0,0,-1,937,1800,0,0
-280,-776,0,0,0,0,0,0,0,0,0,-1,944,1800,0,0
-273,-776,0,0,0,0,0,0,0,0,0,-1,951,1800,0,0
-266,-776,0,0,0,0,0,0,0,0,0,-1,958,1800,0,0
-259,-776,0,0,0,0,0,0,0,0,0,-1,965,1800,0,0
-252,-776,0,0,0,0,0,0,0,0,0,-1,972,1800,0,0
-245,-776,0,0,0,0,0,0,0,0,0,-1,979,1800,0,0
-238,-776,0,0,0,0,0,0,0,0,0,-1,986,1800,0,0
-231,-776,0,0,0,0,0,0,0,0,0,-1,993,1800,0,0
-224,-776,0,0,0,0,0,0,0,0,0,-1,1000,1800,0,0
-217,-776,0,0,0,0,0,0,0,0,0,-1,1007,1800,0,0
-210,-776,0,0,0,0,0,0,0,0,0,-1,1014,1800,0,0
-203,-776,0,0,0,0,0,0,0,0,0,-1,1021,1800,0,0
-196,-776,0,0,0,0,0,0,0,0,0,-1,1028,1800,0,0
-189,-776,0,0,0,0,0,0,0,0,0,-1,1035,1800,0,0
-182,-776,0,0,0,0,0,0,0,0,0,-1,1042,1800,0,0
-175,-776,0,0,0,0,0,0,0,0,0,-1,1049,1800,0,0
-168,-776,0,0,0,0,0,0,0,0,0,-1,1056,1800,0,0
-161,-776,0,0,0,0,0,0,0,0,0,-1,1063,1800,0,0
-154,-776,0,0,0,0,0,0,0,0,0,-1,1070,1800,0,0
-147,-776,0,0,0,0,0,0,0,0,0,-1,1077,1800,0,0
-140,-776,0.408936,0.0847168,-0.0151555,0.00213222,-0.00988418,0.00661899,-0.0196422,-1.14468,0.0157712,0.0462646,1084,1800,0.408989,-0.0847475
-133,-776,-0.189331,-0.312988,-0.0104165,0.015407,-0.0139388,0.0214953,-0.0165048,-1.15898,0.0220024,0.0460179,1091,1800,-0.18934,0.312996
-126,-776,0.255249,-0.972534,0,0,0,0,0,0,0,-1,1098,1800,0.255237,0.972574
-119,-776,0.211792,-0.427612,-0.00597876,0.0408941,-0.0169877,0.0464033,-0.0114879,-1.25719,0.0353918,0.042966,1105,1800,0.211821,0.427652
-112,-776,-0.0321045,0.0158691,-0.00507635,0.0544006,-0.0185017,0.0596863,-0.010362,-1.29252,0.0436567,0.0425357,1112,1800,-0.0320498,-0.0158562
-105,-776,-0.0422363,-0.254517,-0.00457706,0.0672182,-0.0196909,0.0722641,-0.00962295,-1.31994,0.0516832,0.0399874,1119,1800,-0.0422446,0.254506
-98,-776,0.152222,-0.22998,-0.00447654,0.0799021,-0.0202446,0.0845079,-0.00908231,-1.3471,0.0595971,0.0386139,1126,1800,0.152182,0.230028
-91,-776,0.170776,-0.337158,-0.00473781,0.0909244,-0.0200097,0.0949412,-0.00875459,-1.37269,0.066405,0.0404848,1133,1800,0.170776,0.337115
-84,-776,0.291626,-0.0321045,-0.00448587,0.0997015,-0.0179316,0.102701,-0.00748568,-1.40504,0.0710942,0.0443976,1140,1800,0.29166,0.0321011
-77,-776,0.251587,0.0734863,-0.00415699,0.103878,-0.0148432,0.10588,-0.00615924,-1.43671,0.0727268,0.0416912,1147,1800,0.251529,-0.0734665
-70,-776,0.960449,-2.23694,-0.00432879,0.101014,-0.0101139,0.101977,-0.00529103,-1.47594,0.0698149,0.0479371,1154,1800,0.960404,2.23689
-63,-776,0.557983,-2.03406,-0.00454575,0.0956986,-0.00500494,0.0959478,-0.00479501,-1.52103,0.065622,0.0436152,1161,1800,0.557966,2.03402
-56,-776,0.314087,-1.73926,-0.00336522,0.0832594,0.000553127,0.083263,-0.00336875,1.56441,0.0566649,0.0448961,1168,1800,0.314132,1.73926
-49,-776,0.178833,-1.271,-0.00109805,0.0663446,0.00492059,0.0667017,-0.00145517,1.49835,0.0449607,0.0485322,1175,1800,0.178781,1.27105
-42,-776,0.0332031,-0.758423,0.00296396,0.0494117,0.0084879,0.0509142,0.00146148,1.3956,0.0334663,0.0482086,1182,1800,0.0332533,0.758391
-35,-776,-0.106201,0.0942383,0.00673141,0.0322846,0.0137263,0.0382604,0.000755578,1.16019,0.0252589,0.0481933,1189,1800,-0.106206,-0.0942906
-28,-776,-0.109375,1.00049,0.00815136,0.0110157,0.0198672,0.0295023,-0.0103352,0.821379,0.0238711,0.0484816,1196,1800,-0.109346,-1.0005
-21,-776,0.127686,1.36096,0.0110904,-0.0044442,0.0251684,0.0296628,-0.0230166,0.635728,0.0304951,0.0455409,1203,1800,0.127743,-1.36101
-14,-776,-2.5769,-1.59351,0,0,0,0,0,0,0,-1,1210,1800,-2.57693,1.59352
-7,-776,-2.3999,-1.04028,0.015276,-0.0217984,0.0301027,0.0320913,-0.0386138,0.509421,0.0408795,0.0494111,1217,1800,-2.39991,1.0403
0,-776,-2.38269,-0.786255,0.0154912,-0.0238973,0.0320281,0.0333957,-0.0418018,0.509744,0.0435056,0.046618,1224,1800,-2.38272,0.786271
7,-776,-1.11584,0.179443,0,0,0,0,0,0,0,-1,1231,1800,-1.11581,-0.179436
14,-776,-0.884033,0.423462,0.014852,-0.0262466,0.0348104,0.034726,-0.0461205,0.518762,0.046831,0.0478141,1238,1800,-0.884028,-0.423403
21,-776,-0.623901,0.654663,0.0136359,-0.0284799,0.0340348,0.0326006,-0.0474446,0.508364,0.0464782,0.0436495,1245,1800,-0.623962,-0.654707
28,-776,-0.307129,0.996704,0.0117203,-0.0312508,0.0316315,0.0284732,-0.0480037,0.487068,0.0446313,0.0409989,1252,1800,-0.307188,-0.996647
35,-776,0.0950928,1.30981,0.00999638,-0.0340216,0.0295003,0.0247931,-0.0488183,0.464911,0.0432475,0.0415896,1259,1800,0.0951424,-1.30988
42,-776,-0.0256348,1.24011,0.00710455,-0.0392952,0.0248553,0.0179049,-0.0500956,0.409916,0.0407001,0.0415002,1266,1800,-0.0256041,-1.24009
49,-776,0.0118408,0.765747,0,0,0,0,0,0,0,-1,1273,1800,0.0118964,-0.765723
56,-776,0.09375,0.103149,0,0,0,0,0,0,0,-1,1280,1800,0.0937763,-0.103202
63,-776,0.246948,-0.144775,-0.00291627,-0.0537338,0.00769784,-0.0017758,-0.0548743,0.147085,0.0360055,0.0449495,1287,1800,0.246907,0.144742
70,-776,-0.526733,0.282837,-0.00698071,-0.0530204,0.00221412,-0.00687447,-0.0531266,0.0479441,0.0333632,0.0496783,1294,1800,-0.526682,-0.282824
77,-776,0.589478,0.577271,0,0,0,0,0,0,0,-1,1301,1800,0.589425,-0.577327
84,-776,0.0574951,-0.0634766,0,0,0,0,0,0,0,-1,1308,1800,0.0574783,0.0634288
91,-776,-0.464722,-0.748169,-0.0164106,-0.0467569,-0.0110015,-0.0128419,-0.0503256,-0.313676,0.0301942,0.0471776,1315,1800,-0.464753,0.748176
98,-776,-1.01147,-1.32764,-0.0175092,-0.0385534,-0.0111253,-0.0127183,-0.0433443,-0.406629,0.0257269,0.0483373,1322,1800,-1.01143,1.32763
105,-776,-0.443726,0.0913086,0,0,0,0,0,0,0,-1,1329,1800,-0.443776,-0.0913371
112,-776,0.0419922,0.308838,0,0,0,0,0,0,0,-1,1336,1800,0.0419417,-0.308827
119,-776,0.421875,-0.276123,-0.0148363,-0.0209217,-0.00970586,-0.00770742,-0.0280506,-0.633505,0.0167338,0.0437314,1343,1800,0.421909,0.276109
126,-776,0.385376,0.149292,-0.0123899,-0.015247,-0.00718503,-0.00649278,-0.0211441,-0.687265,0.0125068,0.0477367,1350,1800,0.385435,-0.149306
133,-776,0.43042,0.262085,0,0,0,0,0,0,0,-1,1357,1800,0.430416,-0.262096
140,-776,-1.68103,0.255371,0,0,0,0,0,0,0,-1,1364,1800,-1.68107,-0.255408
147,-776,-0.507324,0.100098,0,0,0,0,0,0,0,-1,1371,1800,-0.507287,-0.100088
154,-776,-0.341064,-3.15674,0,0,0,0,0,0,0,-1,1378,1800,-0.341006,3.1567
161,-776,-0.286011,-1.57434,0.00573968,-0.0117102,0.00215213,0.00600118,-0.0119717,0.120918,0.0105658,0.0444094,1385,1800,-0.286002,1.57435
168,-776,-0.314819,-1.7749,0.00832673,-0.0133105,0.00401681,0.00904836,-0.0140321,0.177756,0.0134287,0.0450963,1392,1800,-0.314801,1.77492
175,-776,-0.22998,-1.12891,0.0099228,-0.0139236,0.00512194,0.0109764,-0.0149772,0.202871,0.0150436,0.0451836,1399,1800,-0.230027,1.12886
182,-776,0.0819092,0.49939,0.0102953,-0.0122895,0.00559525,0.0116054,-0.0135997,0.230016,0.0145674,0.0425927,1406,1800,0.0818836,-0.499336
189,-776,0.00561523,0.132446,0.0108925,-0.0105685,0.00551587,0.0122271,-0.0119032,0.237407,0.0139321,0.0402027,1413,1800,0.00555958,-0.132492
196,-776,0.178223,-0.145508,0.0119679,-0.00941524,0.00530295,0.0132108,-0.0106581,0.230219,0.013807,0.0416498,1420,1800,0.178255,0.145522
203,-776,0.134644,0.164063,0.0126631,-0.00817413,0.00480222,0.0137166,-0.00922761,0.215952,0.0133311,0.0441598,1427,1800,0.134629,-0.16401
210,-776,0.0784912,0.446167,0,0,0,0,0,0,0,-1,1434,1800,0.078519,-0.446155
217,-776,0.163208,-0.0128174,0,0,0,0,0,0,0,-1,1441,1800,0.163237,0.012846
224,-776,0.17981,0.0578613,0.0130836,-0.00226832,0.00313991,0.0137009,-0.00288569,0.194145,0.0102324,0.0472767,1448,1800,0.179761,-0.0579116
231,-776,0.154297,0.0878906,0.0124641,-0.001523,0.0013341,0.0125902,-0.00164911,0.094248,0.00899372,0.0482375,1455,1800,0.154337,-0.0878327
238,-776,0.0933838,0.0725098,0.0117151,0.00028119,0.000354372,0.0117261,0.000270217,0.0309535,0.0077289,0.0451767,1462,1800,0.0934221,-0.0724527
245,-776,0.460938,0.414429,0,0,0,0,0,0,0,-1,1469,1800,0.460909,-0.41442
252,-776,0.148682,-0.114258,0,0,0,0,0,0,0,-1,1476,1800,0.148711,0.11423
259,-776,0.37085,0.110474,0,0,0,0,0,0,0,-1,1483,1800,0.370817,-0.110413
266,-776,0,0,0,0,0,0,0,0,0,-1,1490,1800,0,0
273,-776,0,0,0,0,0,0,0,0,0,-1,1497,1800,0,0
280,-776,0,0,0,0,0,0,0,0,0,-1,1504,1800,0,0
287,-776,0,0,0,0,0,0,0,0,0,-1,1511,1800,0,0
294,-776,0,0,0,0,0,0,0,0,0,-1,1518,1800,0,0
301,-776,0,0,0,0,0,0,0,0,0,-1,1525,1800,0,0
308,-776,0,0,0,0,0,0,0,0,0,-1,1532,1800,0,0
315,-776,0,0,0,0,0,0,0,0,0,-1,1539,1800,0,0
322,-776,0,0,0,0,0,0,0,0,0,-1,1546,1800,0,0
329,-776,0,0,0,0,0,0,0,0,0,-1,1553,1800,0,0
336,-776,0,0,0,0,0,0,0,0,0,-1,1560,1800,0,0
343,-776,0,0,0,0,0,0,0,0,0,-1,1567,1800,0,0
350,-776,0,0,0,0,0,0,0,0,0,-1,1574,1800,0,0
357,-776,0,0,0,0,0,0,0,0,0,-1,1581,1800,0,0
364,-776,0,0,0,0,0,0,0,0,0,-1,1588,1800,0,0
371,-776,0,0,0,0,0,0,0,0,0,-1,1595,1800,0,0
378,-776,0,0,0,0,0,0,0,0,0,-1,1602,1800,0,0
385,-776,0,0,0,0,0,0,0,0,0,-1,1609,1800,0,0
392,-776,0,0,0,0,0,0,0,0,0,-1,1616,1800,0,0
399,-776,0,0,0,0,0,0,0,0,0,-1,1623,1800,0,0
406,-776,0,0,0,0,0,0,0,0,0,-1,1630,1800,0,0
413,-776,0,0,0,0,0,0,0,0,0,-1,1637,1800,0,0
420,-776,0,0,0,0,0,0,0,0,0,-1,1644,1800,0,0
427,-776,0,0,0,0,0,0,0,0,0,-1,1651,1800,0,0
434,-776,0,0,0,0,0,0,0,0,0,-1,1658,1800,0,0
441,-776,0,0,0,0,0,0,0,0,0,-1,1665,1800,0,0
448,-776,0,0,0,0,0,0,0,0,0,-1,1672,1800,0,0
455,-776,0,0,0,0,0,0,0,0,0,-1,1679,1800,0,0
462,-776,0,0,0,0,0,0,0,0,0,-1,1686,1800,0,0
469,-776,0,0,0,0,0,0,0,0,0,-1,1693,1800,0,0
476,-776,0,0,0,0,0,0,0,0,0,-1,1700,1800,0,0
483,-776,0,0,0,0,0,0,0,0,0,-1,1707,1800,0,0
490,-776,0,0,0,0,0,0,0,0,0,-1,1714,1800,0,0
497,-776,0,0,0,0,0,0,0,0,0,-1,1721,1800,0,0
504,-776,0,0,0,0,0,0,0,0,0,-1,1728,1800,0,0
511,-776,0,0,0,0,0,0,0,0,0,-1,1735,1800,0,0
518,-776,0,0,0,0,0,0,0,0,0,-1,1742,1800,0,0
525,-776,0,0,0,0,0,0,0,0,0,-1,1749,1800,0,0
532,-776,0,0,0,0,0,0,0,0,0,-1,1756,1800,0,0
539,-776,0,0,0,0,0,0,0,0,0,-1,1763,1800,0,0
546,-776,0,0,0,0,0,0,0,0,0,-1,1770,1800,0,0
553,-776,0,0,0,0,0,0,0,0,0,-1,1777,1800,0,0
560,-776,0,0,0,0,0,0,0,0,0,-1,1784,1800,0,0
567,-776,0,0,0,0,0,0,0,0,0,-1,1791,1800,0,0
574,-776,0,0,0,0,0,0,0,0,0,-1,1798,1800,0,0
581,-776,0,0,0,0,0,0,0,0,0,-1,1805,1800,0,0
588,-776,0,0,0,0,0,0,0,0,0,-1,1812,1800,0,0
595,-776,0,0,0,0,0,0,0,0,0,-1,1819,1800,0,0
602,-776,0,0,0,0,0,0,0,0,0,-1,1826,1800,0,0
609,-776,0,0,0,0,0,0,0,0,0,-1,1833,1800,0,0
616,-776,0,0,0,0,0,0,0,0,0,-1,1840,1800,0,0
623,-776,0,0,0,0,0,0,0,0,0,-1,1847,1800,0,0
630,-776,0,0,0,0,0,0,0,0,0,-1,1854,1800,0,0
637,-776,0,0,0,0,0,0,0,0,0,-1,1861,1800,0,0
644,-776,0,0,0,0,0,0,0,0,0,-1,1868,1800,0,0
651,-776,0,0,0,0,0,0,0,0,0,-1,1875,1800,0,0
658,-776,0,0,0,0,0,0,0,0,0,-1,1882,1800,0,0
665,-776,0,0,0,0,0,0,0,0,0,-1,1889,1800,0,0
672,-776,0,0,0,0,0,0,0,0,0,-1,1896,1800,0,0
679,-776,0,0,0,0,0,0,0,0,0,-1,1903,1800,0,0
686,-776,0,0,0,0,0,0,0,0,0,-1,1910,1800,0,0
693,-776,0,0,0,0,0,0,0,0,0,-1,1917,1800,0,0
700,-776,0,0,0,0,0,0,0,0,0,-1,1924,1800,0,0
707,-776,0,0,0,0,0,0,0,0,0,-1,1931,1800,0,0
714,-776,0,0,0,0,0,0,0,0,0,-1,1938,1800,0,0
721,-776,0,0,0,0,0,0,0,0,0,-1,1945,1800,0,0
728,-776,0,0,0,0,0,0,0,0,0,-1,1952,1800,0,0
735,-776,0,0,0,0,0,0,0,0,0,-1,1959,1800,0,0
742,-776,0,0,0,0,0,0,0,0,0,-1,1966,1800,0,0
749,-776,0,0,0,0,0,0,0,0,0,-1,1973,1800,0,0
756,-776,0,0,0,0,0,0,0,0,0,-1,1980,1800,0,0
763,-776,0,0,0,0,0,0,0,0,0,-1,1987,1800,0,0
770,-776,0,0,0,0,0,0,0,0,0,-1,1994,1800,0,0
777,-776,0,0,0,0,0,0,0,0,0,-1,2001,1800,0,0
784,-776,0,0,0,0,0,0,0,0,0,-1,2008,1800,0,0
791,-776,0,0,0,0,0,0,0,0,0,-1,2015,1800,0,0
798,-776,0,0,0,0,0,0,0,0,0,-1,2022,1800,0,0
805,-776,0,0,0,0,0,0,0,0,0,-1,2029,1800,0,0
812,-776,0,0,0,0,0,0,0,0,0,-1,2036,1800,0,0
-700,-783,0,0,0,0,0,0,0,0,0,-1,524,1807,0,0
-693,-783,0,0,0,0,0,0,0,0,0,-1,531,1807,0,0
-686,-783,0,0,0,0,0,0,0,0,0,-1,538,1807,0,0
-679,-783,0,0,0,0,0,0,0,0,0,-1,545,1807,0,0
-672,-783,0,0,0,0,0,0,0,0,0,-1,552,1807,0,0
-665,-783,0,0,0,0,0,0,0,0,0,-1,559,1807,0,0
-658,-783,0,0,0,0,0,0,0,0,0,-1,566,1807,0,0
-651,-783,0,0,0,0,0,0,0,0,0,-1,573,1807,0,0
-644,-783,0,0,0,0,0,0,0,0,0,-1,580,1807,0,0
-637,-783,0,0,0,0,0,0,0,0,0,-1,587,1807,0,0
-630,-783,0,0,0,0,0,0,0,0,0,-1,594,1807,0,0
-623,-783,0,0,0,0,0,0,0,0,0,-1,601,1807,0,0
-616,-783,0,0,0,0,0,0,0,0,0,-1,608,1807,0,0
-609,-783,0,0,0,0,0,0,0,0,0,-1,615,1807,0,0
-602,-783,0,0,0,0,0,0,0,0,0,-1,622,1807,0,0
-595,-783,0,0,0,0,0,0,0,0,0,-1,629,1807,0,0
-588,-783,0,0,0,0,0,0,0,0,0,-1,636,1807,0,0
-581,-783,0,0,0,0,0,0,0,0,0,-1,643,1807,0,0
-574,-783,0,0,0,0,0,0,0,0,0,-1,650,1807,0,0
-567,-783,0,0,0,0,0,0,0,0,0,-1,657,1807,0,0
-560,-783,0,0,0,0,0,0,0,0,0,-1,664,1807,0,0
-553,-783,0,0,0,0,0,0,0,0,0,-1,671,1807,0,0
-546,-783,0,0,0,0,0,0,0,0,0,-1,678,1807,0,0
-539,-783,0,0,0,0,0,0,0,0,0,-1,685,1807,0,0
-532,-783,0,0,0,0,0,0,0,0,0,-1,692,1807,0,0
-525,-783,0,0,0,0,0,0,0,0,0,-1,699,1807,0,0
-518,-783,0,0,0,0,0,0,0,0,0,-1,706,1807,0,0
-511,-783,0,0,0,0,0,0,0,0,0,-1,713,1807,0,0
-504,-783,0,0,0,0,0,0,0,0,0,-1,720,1807,0,0
-497,-783,0,0,0,0,0,0,0,0,0,-1,727,1807,0,0
-490,-783,0,0,0,0,0,0,0,0,0,-1,734,1807,0,0
-483,-783,0,0,0,0,0,0,0,0,0,-1,741,1807,0,0
-476,-783,0,0,0,0,0,0,0,0,0,-1,748,1807,0,0
-469,-783,0,0,0,0,0,0,0,0,0,-1,755,1807,0,0
-462,-783,0,0,0,0,0,0,0,0,0,-1,762,1807,0,0
-455,-783,0,0,0,0,0,0,0,0,0,-1,769,1807,0,0
-448,-783,0,0,0,0,0,0,0,0,0,-1,776,1807,0,0
-441,-783,0,0,0,0,0,0,0,0,0,-1,783,1807,0,0
-434,-783,0,0,0,0,0,0,0,0,0,-1,790,1807,0,0
-427,-783,0,0,0,0,0,0,0,0,0,-1,797,1807,0,0
-420,-783,0,0,0,0,0,0,0,0,0,-1,804,1807,0,0
-413,-783,0,0,0,0,0,0,0,0,0,-1,811,1807,0,0
-406,-783,0,0,0,0,0,0,0,0,0,-1,818,1807,0,0
-399,-783,0,0,0,0,0,0,0,0,0,-1,825,1807,0,0
-392,-783,0,0,0,0,0,0,0,0,0,-1,832,1807,0,0
-385,-783,0,0,0,0,0,0,0,0,0,-1,839,1807,0,0
-378,-783,0,0,0,0,0,0,0,0,0,-1,846,1807,0,0
-371,-783,0,0,0,0,0,0,0,0,0,-1,853,1807,0,0
-364,-783,0,0,0,0,0,0,0,0,0,-1,860,1807,0,0
-357,-783,0,0,0,0,0,0,0,0,0,-1,867,1807,0,0
-350,-783,0,0,0,0,0,0,0,0,0,-1,874,1807,0,0
-343,-783,0,0,0,0,0,0,0,0,0,-1,881,1807,0,0
-336,-783,0,0,0,0,0,0,0,0,0,-1,888,1807,0,0
-329,-783,0,0,0,0,0,0,0,0,0,-1,895,1807,0,0
-322,-783,0,0,0,0,0,0,0,0,0,-1,902,1807,0,0
-315,-783,0,0,0,0,0,0,0,0,0,-1,909,1807,0,0
-308,-783,0,0,0,0,0,0,0,0,0,-1,916,1807,0,0
-301,-783,0,0,0,0,0,0,0,0,0,-1,923,1807,0,0
-294,-783,0,0,0,0,0,0,0,0,0,-1,930,1807,0,0
-287,-783,0,0,0,0,0,0,0,0,0,-1,937,1807,0,0
-280,-783,0,0,0,0,0,0,0,0,0,-1,944,1807,0,0
-273,-783,0,0,0,0,0,0,0,0,0,-1,951,1807,0,0
-266,-783,0,0,0,0,0,0,0,0,0,-1,958,1807,0,0
-259,-783,0,0,0,0,0,0,0,0,0,-1,965,1807,0,0
-252,-783,0,0,0,0,0,0,0,0,0,-1,972,1807,0,0
-245,-783,0,0,0,0,0,0,0,0,0,-1,979,1807,0,0
-238,-783,0,0,0,0,0,0,0,0,0,-1,986,1807,0,0
-231,-783,0,0,0,0,0,0,0,0,0,-1,993,1807,0,0
-224,-783,0,0,0,0,0,0,0,0,0,-1,1000,1807,0,0
-217,-783,0,0,0,0,0,0,0,0,0,-1,1007,1807,0,0
-210,-783,0,0,0,0,0,0,0,0,0,-1,1014,1807,0,0
-203,-783,0,0,0,0,0,0,0,0,0,-1,1021,1807,0,0
-196,-783,0,0,0,0,0,0,0,0,0,-1,1028,1807,0,0
-189,-783,0,0,0,0,0,0,0,0,0,-1,1035,1807,0,0
-182,-783,0,0,0,0,0,0,0,0,0,-1,1042,1807,0,0
-175,-783,0,0,0,0,0,0,0,0,0,-1,1049,1807,0,0
-168,-783,0,0,0,0,0,0,0,0,0,-1,1056,1807,0,0
-161,-783,0,0,0,0,0,0,0,0,0,-1,1063,1807,0,0
-154,-783,0,0,0,0,0,0,0,0,0,-1,1070,1807,0,0
-147,-783,0,0,0,0,0,0,0,0,0,-1,1077,1807,0,0
-140,-783,0,0,0,0,0,0,0,0,0,-1,1084,1807,0,0
-133,-783,0,0,0,0,0,0,0,0,0,-1,1091,1807,0,0
-126,-783,0,0,0,0,0,0,0,0,0,-1,1098,1807,0,0
-119,-783,0,0,0,0,0,0,0,0,0,-1,1105,1807,0,0
-112,-783,-0.134277,-0.0377197,-0.00506263,0.0650964,-0.0201693,0.0704814,-0.0104476,-1.30989,0.0508293,0.0464776,1112,1807,-0.134301,0.0377658
-105,-783,-0.0458984,-0.295776,-0.00472228,0.0825972,-0.0221553,0.087897,-0.010022,-1.336,0.0622083,0.042346,1119,1807,-0.0458516,0.29575
-98,-783,0.146484,-0.24585,-0.00485856,0.0999568,-0.0232254,0.104873,-0.00977437,-1.36222,0.0733905,0.0400542,1126,1807,0.146472,0.245832
-91,-783,0.608032,-0.612061,-0.00539415,0.115141,-0.0230854,0.119412,-0.00966429,-1.38789,0.0830169,0.0415995,1133,1807,0.608091,0.612046
-84,-783,1.54797,-2.69336,-0.00570446,0.126854,-0.0204059,0.129924,-0.0087746,-1.42146,0.0896843,0.0442002,1140,1807,1.54799,2.6934
-77,-783,0.78418,-2.81201,-0.0064148,0.132456,-0.016165,0.134313,-0.00827163,-1.45643,0.0924225,0.045031,1147,1807,0.784237,2.81199
-70,-783,0.264771,-2.91113,-0.00747577,0.128429,-0.00977176,0.129128,-0.00817477,-1.49938,0.0889357,0.046317,1154,1807,0.264763,2.91117
-63,-783,0.0635986,-2.50989,0,0,0,0,0,0,0,-1,1161,1807,0.0636139,2.50993
-56,-783,0.189575,-1.77014,0,0,0,0,0,0,0,-1,1168,1807,0.189546,1.77018
-49,-783,0.205444,-1.22327,0,0,0,0,0,0,0,-1,1175,1807,0.205462,1.22332
-42,-783,-0.0698242,-0.151855,0,0,0,0,0,0,0,-1,1182,1807,-0.0698764,0.151799
-35,-783,-0.172119,0.261841,0,0,0,0,0,0,0,-1,1189,1807,-0.172059,-0.261812
-28,-783,-0.256958,1.34607,0,0,0,0,0,0,0,-1,1196,1807,-0.256907,-1.34613
-21,-783,0.130127,1.828,0,0,0,0,0,0,0,-1,1203,1807,0.130079,-1.82795
-14,-783,-2.42773,-1.1947,0,0,0,0,0,0,0,-1,1210,1807,-2.42777,1.19466
-7,-783,-2.26465,-0.65564,0.0184495,-0.0262769,0.0389379,0.0409892,-0.0488167,0.524733,0.0519151,0.0437569,1217,1807,-2.26468,0.65568
0,-783,-2.07813,-0.138306,0.0183223,-0.0276522,0.041673,0.0429276,-0.0522575,0.533359,0.0550431,0.0441943,1224,1807,-2.07817,0.138261
7,-783,-1.59204,0.138916,0.0177502,-0.0277677,0.0443372,0.0448285,-0.054846,0.548277,0.0576439,0.0442937,1231,1807,-1.59205,-0.138894
14,-783,-1.17908,0.589966,0.0167273,-0.0291107,0.0461012,0.0452923,-0.0576757,0.554718,0.0595918,0.0491001,1238,1807,-1.17902,-0.589941
21,-783,-1.06714,0.643311,0.0150083,-0.0318997,0.0452496,0.0425211,-0.0594125,0.546298,0.0591201,0.049139,1245,1807,-1.06712,-0.643289
28,-783,-1.07227,1.3175,0.0125586,-0.0358928,0.0417019,0.0365608,-0.059895,0.52226,0.0562294,0.0444397,1252,1807,-1.07225,-1.31753
35,-783,0.18457,1.85803,0.010504,-0.0400368,0.0386503,0.0314119,-0.0609447,0.495869,0.0542232,0.0478366,1259,1807,0.184523,-1.85802
42,-783,0.327148,1.80176,0,0,0,0,0,0,0,-1,1266,1807,0.327091,-1.80177
49,-783,-0.898926,1.82751,0,0,0,0,0,0,0,-1,1273,1807,-0.89897,-1.82751
56,-783,-0.683228,1.64905,0,0,0,0,0,0,0,-1,1280,1807,-0.683221,-1.64903
63,-783,-0.397827,1.41431,-0.00426223,-0.0673967,0.00940967,-0.00288964,-0.0687693,0.144849,0.044914,0.0460083,1287,1807,-0.39778,-1.41425
70,-783,-0.134644,1.26953,-0.00904277,-0.067157,0.00218263,-0.0089609,-0.0672389,0.0374871,0.0421576,0.0462806,1294,1807,-0.13459,-1.26951
77,-783,-0.467163,1.14392,0,0,0,0,0,0,0,-1,1301,1807,-0.467102,-1.14397
84,-783,0.0598145,-0.0928955,0,0,0,0,0,0,0,-1,1308,1807,0.0597661,0.0929079
91,-783,-0.332031,-0.0305176,-0.0207766,-0.0606361,-0.0152215,-0.0156286,-0.065784,-0.326125,0.0396859,0.0447447,1315,1807,-0.331992,0.030485
98,-783,-1.15808,-0.428833,-0.0223082,-0.0499529,-0.0151605,-0.0156147,-0.0566464,-0.415768,0.0337844,0.0470188,1322,1807,-1.15804,0.428795
105,-783,-0.429443,-0.0841064,0,0,0,0,0,0,0,-1,1329,1807,-0.429403,0.0841317
112,-783,1.04358,-0.970459,-0.0206384,-0.0357283,-0.0140961,-0.0121951,-0.0441716,-0.539674,0.0263411,0.0467614,1336,1807,1.04358,0.970412
119,-783,0.580444,-0.810303,-0.019198,-0.0277075,-0.0129675,-0.00980505,-0.0371004,-0.626878,0.0221992,0.0438635,1343,1807,0.580467,0.810246
126,-783,0.462891,0.147217,0,0,0,0,0,0,0,-1,1350,1807,0.462951,-0.147178
133,-783,-0.614868,0.00378418,0,0,0,0,0,0,0,-1,1357,1807,-0.614836,-0.00382951
140,-783,-0.0100098,0.758911,0,0,0,0,0,0,0,-1,1364,1807,-0.0100409,-0.758871
147,-783,-0.355347,-1.06714,0,0,0,0,0,0,0,-1,1371,1807,-0.355397,1.06716
154,-783,-0.297119,-1.03491,0.00338366,-0.0146986,-0.000906701,0.00342901,-0.014744,-0.049976,0.0111495,0.0478777,1378,1807,-0.297085,1.03489
161,-783,-0.246338,-1.07288,0.00655991,-0.0174285,0.000826191,0.00658833,-0.0174569,0.0343869,0.0143475,0.042769,1385,1807,-0.24635,1.07285
168,-783,-0.216431,-1.08167,0.0100181,-0.0198365,0.00281599,0.0102814,-0.0200998,0.0932283,0.0178433,0.0441785,1392,1807,-0.216443,1.08161
175,-783,-0.160278,-0.875732,0.0121967,-0.0206455,0.00396953,0.0126696,-0.0211184,0.118592,0.0197098,0.0418176,1399,1807,-0.160316,0.875718
182,-783,0.00366211,-0.295288,0.0126584,-0.0185304,0.00443089,0.0132757,-0.0191477,0.138419,0.0188217,0.0437501,1406,1807,0.00361685,0.295329
189,-783,0.0697021,0.418823,0.0133045,-0.0161768,0.00423614,0.0139011,-0.0167734,0.139918,0.0177358,0.0418257,1413,1807,0.0696877,-0.418883
196,-783,0.147095,-0.0174561,0.0145228,-0.0144845,0.0038793,0.0150327,-0.0149944,0.130676,0.0173361,0.0408603,1420,1807,0.147118,0.017452
203,-783,0.446899,-0.188354,0.0152525,-0.0125061,0.00330676,0.0156409,-0.0128946,0.116946,0.0165004,0.0420262,1427,1807,0.446933,0.18834
210,-783,0.564209,-0.182495,0,0,0,0,0,0,0,-1,1434,1807,0.564166,0.182553
217,-783,-0.0284424,-0.0550537,0,0,0,0,0,0,0,-1,1441,1807,-0.0284179,0.0550963
224,-783,0.0454102,0.064209,0.0152048,-0.00322109,0.00216964,0.0154568,-0.00347312,0.115643,0.0116363,0.0448975,1448,1807,0.045401,-0.0642196
231,-783,0.202759,0.162231,0.0142659,-0.00170154,0.000262556,0.0142702,-0.00170586,0.0164373,0.0101301,0.0432538,1455,1807,0.202699,-0.162245
238,-783,0,0,0,0,0,0,0,0,0,-1,1462,1807,0,0
245,-783,0,0,0,0,0,0,0,0,0,-1,1469,1807,0,0
252,-783,0,0,0,0,0,0,0,0,0,-1,1476,1807,0,0
259,-783,0,0,0,0,0,0,0,0,0,-1,1483,1807,0,0
266,-783,0,0,0,0,0,0,0,0,0,-1,1490,1807,0,0
273,-783,0,0,0,0,0,0,0,0,0,-1,1497,1807,0,0
280,-783,0,0,0,0,0,0,0,0,0,-1,1504,1807,0,0
287,-783,0,0,0,0,0,0,0,0,0,-1,1511,1807,0,0
294,-783,0,0,0,0,0,0,0,0,0,-1,1518,1807,0,0
301,-783,0,0,0,0,0,0,0,0,0,-1,1525,1807,0,0
308,-783,0,0,0,0,0,0,0,0,0,-1,1532,1807,0,0
315,-783,0,0,0,0,0,0,0,0,0,-1,1539,1807,0,0
322,-783,0,0,0,0,0,0,0,0,0,-1,1546,1807,0,0
329,-783,0,0,0,0,0,0,0,0,0,-1,1553,1807,0,0
336,-783,0,0,0,0,0,0,0,0,0,-1,1560,1807,0,0
343,-783,0,0,0,0,0,0,0,0,0,-1,1567,1807,0,0
350,-783,0,0,0,0,0,0,0,0,0,-1,1574,1807,0,0
357,-783,0,0,0,0,0,0,0,0,0,-1,1581,1807,0,0
364,-783,0,0,0,0,0,0,0,0,0,-1,1588,1807,0,0
371,-783,0,0,0,0,0,0,0,0,0,-1,1595,1807,0,0
378,-783,0,0,0,0,0,0,0,0,0,-1,1602,1807,0,0
385,-783,0,0,0,0,0,0,0,0,0,-1,1609,1807,0,0
392,-783,0,0,0,0,0,0,0,0,0,-1,1616,1807,0,0
399,-783,0,0,0,0,0,0,0,0,0,-1,1623,1807,0,0
406,-783,0,0,0,0,0,0,0,0,0,-1,1630,1807,0,0
413,-783,0,0,0,0,0,0,0,0,0,-1,1637,1807,0,0
420,-783,0,0,0,0,0,0,0,0,0,-1,1644,1807,0,0
427,-783,0,0,0,0,0,0,0,0,0,-1,1651,1807,0,0
434,-783,0,0,0,0,0,0,0,0,0,-1,1658,1807,0,0
441,-783,0,0,0,0,0,0,0,0,0,-1,1665,1807,0,0
448,-783,0,0,0,0,0,0,0,0,0,-1,1672,1807,0,0
455,-783,0,0,0,0,0,0,0,0,0,-1,1679,1807,0,0
462,-783,0,0,0,0,0,0,0,0,0,-1,1686,1807,0,0
469,-783,0,0,0,0,0,0,0,0,0,-1,1693,1807,0,0
476,-783,0,0,0,0,0,0,0,0,0,-1,1700,1807,0,0
483,-783,0,0,0,0,0,0,0,0,0,-1,1707,1807,0,0
490,-783,0,0,0,0,0,0,0,0,0,-1,1714,1807,0,0
497,-783,0,0,0,0,0,0,0,0,0,-1,1721,1807,0,0
504,-783,0,0,0,0,0,0,0,0,0,-1,1728,1807,0,0
511,-783,0,0,0,0,0,0,0,0,0,-1,1735,1807,0,0
518,-783,0,0,0,0,0,0,0,0,0,-1,1742,1807,0,0
525,-783,0,0,0,0,0,0,0,0,0,-1,1749,1807,0,0
532,-783,0,0,0,0,0,0,0,0,0,-1,1756,1807,0,0
539,-783,0,0,0,0,0,0,0,0,0,-1,1763,1807,0,0
546,-783,0,0,0,0,0,0,0,0,0,-1,1770,1807,0,0
553,-783,0,0,0,0,0,0,0,0,0,-1,1777,1807,0,0
560,-783,0,0,0,0,0,0,0,0,0,-1,1784,1807,0,0
567,-783,0,0,0,0,0,0,0,0,0,-1,1791,1807,0,0
574,-783,0,0,0,0,0,0,0,0,0,-1,1798,1807,0,0
581,-783,0,0,0,0,0,0,0,0,0,-1,1805,1807,0,0
588,-783,0,0,0,0,0,0,0,0,0,-1,1812,1807,0,0
595,-783,0,0,0,0,0,0,0,0,0,-1,1819,1807,0,0
602,-783,0,0,0,0,0,0,0,0,0,-1,1826,1807,0,0
609,-783,0,0,0,0,0,0,0,0,0,-1,1833,1807,0,0
616,-783,0,0,0,0,0,0,0,0,0,-1,1840,1807,0,0
623,-783,0,0,0,0,0,0,0,0,0,-1,1847,1807,0,0
630,-783,0,0,0,0,0,0,0,0,0,-1,1854,1807,0,0
637,-783,0,0,0,0,0,0,0,0,0,-1,1861,1807,0,0
644,-783,0,0,0,0,0,0,0,0,0,-1,1868,1807,0,0
651,-783,0,0,0,0,0,0,0,0,0,-1,1875,1807,0,0
658,-783,0,0,0,0,0,0,0,0,0,-1,1882,1807,0,0
665,-783,0,0,0,0,0,0,0,0,0,-1,1889,1807,0,0
672,-783,0,0,0,0,0,0,0,0,0,-1,1896,1807,0,0
679,-783,0,0,0,0,0,0,0,0,0,-1,1903,1807,0,0
686,-783,0,0,0,0,0,0,0,0,0,-1,1910,1807,0,0
693,-783,0,0,0,0,0,0,0,0,0,-1,1917,1807,0,0
700,-783,0,0,0,0,0,0,0,0,0,-1,1924,1807,0,0
707,-783,0,0,0,0,0,0,0,0,0,-1,1931,1807,0,0
714,-783,0,0,0,0,0,0,0,0,0,-1,1938,1807,0,0
721,-783,0,0,0,0,0,0,0,0,0,-1,1945,1807,0,0
728,-783,0,0,0,0,0,0,0,0,0,-1,1952,1807,0,0
735,-783,0,0,0,0,0,0,0,0,0,-1,1959,1807,0,0
742,-783,0,0,0,0,0,0,0,0,0,-1,1966,1807,0,0
749,-783,0,0,0,0,0,0,0,0,0,-1,1973,1807,0,0
756,-783,0,0,0,0,0,0,0,0,0,-1,1980,1807,0,0
763,-783,0,0,0,0,0,0,0,0,0,-1,1987,1807,0,0
770,-783,0,0,0,0,0,0,0,0,0,-1,1994,1807,0,0
777,-783,0,0,0,0,0,0,0,0,0,-1,2001,1807,0,0
784,-783,0,0,0,0,0,0,0,0,0,-1,2008,1807,0,0
791,-783,0,0,0,0,0,0,0,0,0,-1,2015,1807,0,0
798,-783,0,0,0,0,0,0,0,0,0,-1,2022,1807,0,0
805,-783,0,0,0,0,0,0,0,0,0,-1,2029,1807,0,0
812,-783,0,0,0,0,0,0,0,0,0,-1,2036,1807,0,0
-700,-790,0,0,0,0,0,0,0,0,0,-1,524,1814,0,0
-693,-790,0,0,0,0,0,0,0,0,0,-1,531,1814,0,0
-686,-790,0,0,0,0,0,0,0,0,0,-1,538,1814,0,0
-679,-790,0,0,0,0,0,0,0,0,0,-1,545,1814,0,0
-672,-790,0,0,0,0,0,0,0,0,0,-1,552,1814,0,0
-665,-790,0,0,0,0,0,0,0,0,0,-1,559,1814,0,0
-658,-790,0,0,0,0,0,0,0,0,0,-1,566,1814,0,0
-651,-790,0,0,0,0,0,0,0,0,0,-1,573,1814,0,0
-644,-790,0,0,0,0,0,0,0,0,0,-1,580,1814,0,0
-637,-790,0,0,0,0,0,0,0,0,0,-1,587,1814,0,0
-630,-790,0,0,0,0,0,0,0,0,0,-1,594,1814,0,0
-623,-790,0,0,0,0,0,0,0,0,0,-1,601,1814,0,0
-616,-790,0,0,0,0,0,0,0,0,0,-1,608,1814,0,0
-609,-790,0,0,0,0,0,0,0,0,0,-1,615,1814,0,0
-602,-790,0,0,0,0,0,0,0,0,0,-1,622,1814,0,0
-595,-790,0,0,0,0,0,0,0,0,0,-1,629,1814,0,0
-588,-790,0,0,0,0,0,0,0,0,0,-1,636,1814,0,0
-581,-790,0,0,0,0,0,0,0,0,0,-1,643,1814,0,0
-574,-790,0,0,0,0,0,0,0,0,0,-1,650,1814,0,0
-567,-790,0,0,0,0,0,0,0,0,0,-1,657,1814,0,0
-560,-790,0,0,0,0,0,0,0,0,0,-1,664,1814,0,0
-553,-790,0,0,0,0,0,0,0,0,0,-1,671,1814,0,0
-546,-790,0,0,0,0,0,0,0,0,0,-1,678,1814,0,0
-539,-790,0,0,0,0,0,0,0,0,0,-1,685,1814,0,0
-532,-790,0,0,0,0,0,0,0,0,0,-1,692,1814,0,0
-525,-790,0,0,0,0,0,0,0,0,0,-1,699,1814,0,0
-518,-790,0,0,0,0,0,0,0,0,0,-1,706,1814,0,0
-511,-790,0,0,0,0,0,0,0,0,0,-1,713,1814,0,0
-504,-790,0,0,0,0,0,0,0,0,0,-1,720,1814,0,0
-497,-790,0,0,0,0,0,0,0,0,0,-1,727,1814,0,0
-490,-790,0,0,0,0,0,0,0,0,0,-1,734,1814,0,0
-483,-790,0,0,0,0,0,0,0,0,0,-1,741,1814,0,0
-476,-790,0,0,0,0,0,0,0,0,0,-1,748,1814,0,0
-469,-790,0,0,0,0,0,0,0,0,0,-1,755,1814,0,0
-462,-790,0,0,0,0,0,0,0,0,0,-1,762,1814,0,0
-455,-790,0,0,0,0,0,0,0,0,0,-1,769,1814,0,0
-448,-790,0,0,0,0,0,0,0,0,0,-1,776,1814,0,0
-441,-790,0,0,0,0,0,0,0,0,0,-1,783,1814,0,0
-434,-790,0,0,0,0,0,0,0,0,0,-1,790,1814,0,0
-427,-790,0,0,0,0,0,0,0,0,0,-1,797,1814,0,0
-420,-790,0,0,0,0,0,0,0,0,0,-1,804,1814,0,0
-413,-790,0,0,0,0,0,0,0,0,0,-1,811,1814,0,0
-406,-790,0,0,0,0,0,0,0,0,0,-1,818,1814,0,0
-399,-790,0,0,0,0,0,0,0,0,0,-1,825,1814,0,0
-392,-790,0,0,0,0,0,0,0,0,0,-1,832,1814,0,0
-385,-790,0,0,0,0,0,0,0,0,0,-1,839,1814,0,0
-378,-790,0,0,0,0,0,0,0,0,0,-1,846,1814,0,0
-371,-790,0,0,0,0,0,0,0,0,0,-1,853,1814,0,0
-364,-790,0,0,0,0,0,0,0,0,0,-1,860,1814,0,0
-357,-790,0,0,0,0,0,0,0,0,0,-1,867,1814,0,0
-350,-790,0,0,0,0,0,0,0,0,0,-1,874,1814,0,0
-343,-790,0,0,0,0,0,0,0,0,0,-1,881,1814,0,0
-336,-790,0,0,0,0,0,0,0,0,0,-1,888,1814,0,0
-329,-790,0,0,0,0,0,0,0,0,0,-1,895,1814,0,0
-322,-790,0,0,0,0,0,0,0,0,0,-1,902,1814,0,0
-315,-790,0,0,0,0,0,0,0,0,0,-1,909,1814,0,0
-308,-790,0,0,0,0,0,0,0,0,0,-1,916,1814,0,0
-301,-790,0,0,0,0,0,0,0,0,0,-1,923,1814,0,0
-294,-790,0,0,0,0,0,0,0,0,0,-1,930,1814,0,0
-287,-790,0,0,0,0,0,0,0,0,0,-1,937,1814,0,0
-280,-790,0,0,0,0,0,0,0,0,0,-1,944,1814,0,0
-273,-790,0,0,0,0,0,0,0,0,0,-1,951,1814,0,0
-266,-790,0,0,0,0,0,0,0,0,0,-1,958,1814,0,0
-259,-790,0,0,0,0,0,0,0,0,0,-1,965,1814,0,0
-252,-790,0,0,0,0,0,0,0,0,0,-1,972,1814,0,0
-245,-790,0,0,0,0,0,0,0,0,0,-1,979,1814,0,0
-238,-790,0,0,0,0,0,0,0,0,0,-1,986,1814,0,0
-231,-790,0,0,0,0,0,0,0,0,0,-1,993,1814,0,0
-224,-790,0,0,0,0,0,0,0,0,0,-1,1000,1814,0,0
-217,-790,0,0,0,0,0,0,0,0,0,-1,1007,1814,0,0
-210,-790,0,0,0,0,0,0,0,0,0,-1,1014,1814,0,0
-203,-790,0,0,0,0,0,0,0,0,0,-1,1021,1814,0,0
-196,-790,0,0,0,0,0,0,0,0,0,-1,1028,1814,0,0
-189,-790,0,0,0,0,0,0,0,0,0,-1,1035,1814,0,0
-182,-790,0,0,0,0,0,0,0,0,0,-1,1042,1814,0,0
-175,-790,0,0,0,0,0,0,0,0,0,-1,1049,1814,0,0
-168,-790,0,0,0,0,0,0,0,0,0,-1,1056,1814,0,0
-161,-790,0,0,0,0,0,0,0,0,0,-1,1063,1814,0,0
-154,-790,0,0,0,0,0,0,0,0,0,-1,1070,1814,0,0
-147,-790,0,0,0,0,0,0,0,0,0,-1,1077,1814,0,0
-140,-790,0,0,0,0,0,0,0,0,0,-1,1084,1814,0,0
-133,-790,0,0,0,0,0,0,0,0,0,-1,1091,1814,0,0
-126,-790,0,0,0,0,0,0,0,0,0,-1,1098,1814,0,0
-119,-790,0,0,0,0,0,0,0,0,0,-1,1105,1814,0,0
-112,-790,0,0,0,0,0,0,0,0,0,-1,1112,1814,0,0
-105,-790,0,0,0,0,0,0,0,0,0,-1,1119,1814,0,0
-98,-790,0,0,0,0,0,0,0,0,0,-1,1126,1814,0,0
-91,-790,0,0,0,0,0,0,0,0,0,-1,1133,1814,0,0
-84,-790,0,0,0,0,0,0,0,0,0,-1,1140,1814,0,0
-77,-790,0.663086,-4.15759,-0.0108099,0.170351,-0.0148106,0.171554,-0.0120128,-1.48976,0.118577,0.0459145,1147,1814,0.663116,4.15761
-70,-790,-0.2771,-3.94373,-0.0132726,0.163653,-0.0060454,0.163859,-0.0134789,-1.53668,0.113998,0.0458981,1154,1814,-0.277084,3.94378
-63,-790,-0.403442,-1.4895,0,0,0,0,0,0,0,-1,1161,1814,-0.403406,1.48948
-56,-790,-0.236816,-1.61792,0,0,0,0,0,0,0,-1,1168,1814,-0.236831,1.61796
-49,-790,-0.0640869,-1.71301,0,0,0,0,0,0,0,-1,1175,1814,-0.064058,1.71305
-42,-790,-0.157959,0.534912,0,0,0,0,0,0,0,-1,1182,1814,-0.157913,-0.53496
-35,-790,-0.10791,0.260132,0,0,0,0,0,0,0,-1,1189,1814,-0.107944,-0.260159
-28,-790,-0.0162354,1.10962,0,0,0,0,0,0,0,-1,1196,1814,-0.0162907,-1.10957
-21,-790,0.228027,1.79773,0,0,0,0,0,0,0,-1,1203,1814,0.22808,-1.79777
-14,-790,-2.46814,-0.530762,0,0,0,0,0,0,0,-1,1210,1814,-2.46818,0.530766
-7,-790,-2.20557,-0.282593,0.0210657,-0.0304342,0.0492223,0.0508666,-0.0602351,0.544406,0.0642206,0.0458173,1217,1814,-2.20554,0.282541
0,-790,-1.84802,0.150146,0.0202512,-0.0304962,0.0530331,0.0536681,-0.0639131,0.562269,0.0679714,0.0455483,1224,1814,-1.84805,-0.150199
7,-790,-1.27185,0.347778,0.0188147,-0.029478,0.0569921,0.0565646,-0.0672279,0.585022,0.07156,0.0431636,1231,1814,-1.27184,-0.347749
14,-790,-1.45715,0.820801,0,0,0,0,0,0,0,-1,1238,1814,-1.45721,-0.820843
21,-790,-1.50195,0.625,0.0147155,-0.0337949,0.0589738,0.0542272,-0.0733066,0.590299,0.0739058,0.0467821,1245,1814,-1.50199,-0.625047
28,-790,-1.99854,1.42053,0.0117605,-0.0394749,0.0536893,0.0456307,-0.0733451,0.562799,0.0693091,0.0447922,1252,1814,-1.99855,-1.42056
35,-790,-2.28638,1.65588,0.00949133,-0.0454164,0.0493572,0.0385162,-0.0744413,0.531592,0.0663063,0.0465425,1259,1814,-2.28641,-1.6559
42,-790,-2.23877,2.04236,0,0,0,0,0,0,0,-1,1266,1814,-2.23876,-2.04235
49,-790,-2.21545,2.1427,0,0,0,0,0,0,0,-1,1273,1814,-2.2155,-2.14264
56,-790,-0.774658,3.0238,0,0,0,0,0,0,0,-1,1280,1814,-0.774612,-3.02375
63,-790,-0.530884,2.62671,-0.00597444,-0.0819252,0.0111994,-0.00435745,-0.0835422,0.143391,0.0543006,0.042942,1287,1814,-0.530922,-2.62669
70,-790,-0.0620117,2.43677,-0.0112747,-0.0826442,0.00181925,-0.0112284,-0.0826906,0.0254685,0.0517916,0.0437559,1294,1814,-0.0620123,-2.43671
77,-790,-0.236328,2.03418,-0.0141716,-0.0854497,-0.00768737,-0.0133519,-0.0862694,-0.106223,0.0536193,0.0439299,1301,1814,-0.236275,-2.03422
84,-790,-0.320068,1.51074,0,0,0,0,0,0,0,-1,1308,1814,-0.320074,-1.51074
91,-790,-0.419189,1.06311,-0.0252074,-0.0763428,-0.0205362,-0.0179812,-0.083569,-0.338347,0.0507912,0.0434154,1315,1814,-0.41914,-1.0631
98,-790,-0.487915,0.827026,-0.0272238,-0.0628467,-0.020176,-0.0181221,-0.0719484,-0.423781,0.0432108,0.0459418,1322,1814,-0.487873,-0.827021
105,-790,-0.625244,0.5625,0,0,0,0,0,0,0,-1,1329,1814,-0.625222,-0.562483
112,-790,1.45752,-1.40991,-0.0252091,-0.0453442,-0.0184684,-0.0142425,-0.0563108,-0.535852,0.0338083,0.049421,1336,1814,1.45752,1.4099
119,-790,0.702881,-1.31433,-0.0238222,-0.035727,-0.0170223,-0.0117416,-0.0478076,-0.617203,0.028768,0.0475112,1343,1814,0.702898,1.31435
126,-790,0.204102,-1.1123,0,0,0,0,0,0,0,-1,1350,1814,0.204161,1.11228
133,-790,-0.130005,0.816162,0,0,0,0,0,0,0,-1,1357,1814,-0.129996,-0.816212
140,-790,-0.306641,0.689697,-0.009334,-0.0223862,-0.00719096,-0.00614929,-0.0255709,-0.416915,0.015412,0.0472144,1364,1814,-0.306582,-0.689718
147,-790,-0.365967,0.372681,-0.00225182,-0.0210008,-0.00538478,-0.000815352,-0.0224373,-0.260694,0.014694,0.0467506,1371,1814,-0.365912,-0.37266
154,-790,-0.213013,-0.49353,0.00334831,-0.0203913,-0.00335732,0.00381397,-0.020857,-0.137823,0.0153349,0.043672,1378,1814,-0.212991,0.493538
161,-790,-0.212769,-0.581299,0.00737918,-0.0244631,-0.00150605,0.00745025,-0.0245342,-0.047157,0.0193244,0.0423062,1385,1814,-0.212755,0.581329
168,-790,-0.0944824,-0.748291,0.0117966,-0.0278917,0.000458851,0.0118019,-0.027897,0.0115593,0.0235397,0.0468344,1392,1814,-0.0945434,0.748344
175,-790,-0.0797119,-0.714844,0.0145776,-0.0288655,0.00155655,0.0146333,-0.0289212,0.0357684,0.0255932,0.0466164,1399,1814,-0.0796846,0.714801
182,-790,0.266235,0.644409,0.0151237,-0.0262814,0.0018966,0.0152103,-0.0263681,0.0456785,0.0242918,0.0455934,1406,1814,0.266253,-0.644432
189,-790,0.0992432,0.223999,0.0157882,-0.0232748,0.00147482,0.0158438,-0.0233304,0.0376833,0.0227545,0.0449576,1413,1814,0.0992135,-0.224003
196,-790,0.0231934,-0.0372314,0.0171067,-0.0210262,0.000865854,0.0171263,-0.0210459,0.0226906,0.0220774,0.0410296,1420,1814,0.0231502,0.0372709
203,-790,0,0,0,0,0,0,0,0,0,-1,1427,1814,0,0
210,-790,0,0,0,0,0,0,0,0,0,-1,1434,1814,0,0
217,-790,0,0,0,0,0,0,0,0,0,-1,1441,1814,0,0
224,-790,0,0,0,0,0,0,0,0,0,-1,1448,1814,0,0
231,-790,0,0,0,0,0,0,0,0,0,-1,1455,1814,0,0
238,-790,0,0,0,0,0,0,0,0,0,-1,1462,1814,0,0
245,-790,0,0,0,0,0,0,0,0,0,-1,1469,1814,0,0
252,-790,0,0,0,0,0,0,0,0,0,-1,1476,1814,0,0
259,-790,0,0,0,0,0,0,0,0,0,-1,1483,1814,0,0
266,-790,0,0,0,0,0,0,0,0,0,-1,1490,1814,0,0
273,-790,0,0,0,0,0,0,0,0,0,-1,1497,1814,0,0
280,-790,0,0,0,0,0,0,0,0,0,-1,1504,1814,0,0
287,-790,0,0,0,0,0,0,0,0,0,-1,1511,1814,0,0
294,-790,0,0,0,0,0,0,0,0,0,-1,1518,1814,0,0
301,-790,0,0,0,0,0,0,0,0,0,-1,1525,1814,0,0
308,-790,0,0,0,0,0,0,0,0,0,-1,1532,1814,0,0
315,-790,0,0,0,0,0,0,0,0,0,-1,1539,1814,0,0
322,-790,0,0,0,0,0,0,0,0,0,-1,1546,1814,0,0
329,-790,0,0,0,0,0,0,0,0,0,-1,1553,1814,0,0
336,-790,0,0,0,0,0,0,0,0,0,-1,1560,1814,0,0
343,-790,0,0,0,0,0,0,0,0,0,-1,1567,1814,0,0
350,-790,0,0,0,0,0,0,0,0,0,-1,1574,1814,0,0
357,-790,0,0,0,0,0,0,0,0,0,-1,1581,1814,0,0
364,-790,0,0,0,0,0,0,0,0,0,-1,1588,1814,0,0
371,-790,0,0,0,0,0,0,0,0,0,-1,1595,1814,0,0
378,-790,0,0,0,0,0,0,0,0,0,-1,1602,1814,0,0
385,-790,0,0,0,0,0,0,0,0,0,-1,1609,1814,0,0
392,-790,0,0,0,0,0,0,0,0,0,-1,1616,1814,0,0
399,-790,0,0,0,0,0,0,0,0,0,-1,1623,1814,0,0
406,-790,0,0,0,0,0,0,0,0,0,-1,1630,1814,0,0
413,-790,0,0,0,0,0,0,0,0,0,-1,1637,1814,0,0
420,-790,0,0,0,0,0,0,0,0,0,-1,1644,1814,0,0
427,-790,0,0,0,0,0,0,0,0,0,-1,1651,1814,0,0
434,-790,0,0,0,0,0,0,0,0,0,-1,1658,1814,0,0
441,-790,0,0,0,0,0,0,0,0,0,-1,1665,1814,0,0
448,-790,0,0,0,0,0,0,0,0,0,-1,1672,1814,0,0
455,-790,0,0,0,0,0,0,0,0,0,-1,1679,1814,0,0
462,-790,0,0,0,0,0,0,0,0,0,-1,1686,1814,0,0
469,-790,0,0,0,0,0,0,0,0,0,-1,1693,1814,0,0
476,-790,0,0,0,0,0,0,0,0,0,-1,1700,1814,0,0
483,-790,0,0,0,0,0,0,0,0,0,-1,1707,1814,0,0
490,-790,0,0,0,0,0,0,0,0,0,-1,1714,1814,0,0
497,-790,0,0,0,0,0,0,0,0,0,-1,1721,1814,0,0
504,-790,0,0,0,0,0,0,0,0,0,-1,1728,1814,0,0
511,-790,0,0,0,0,0,0,0,0,0,-1,1735,1814,0,0
518,-790,0,0,0,0,0,0,0,0,0,-1,1742,1814,0,0
525,-790,0,0,0,0,0,0,0,0,0,-1,1749,1814,0,0
532,-790,0,0,0,0,0,0,0,0,0,-1,1756,1814,0,0
539,-790,0,0,0,0,0,0,0,0,0,-1,1763,1814,0,0
546,-790,0,0,0,0,0,0,0,0,0,-1,1770,1814,0,0
553,-790,0,0,0,0,0,0,0,0,0,-1,1777,1814,0,0
560,-790,0,0,0,0,0,0,0,0,0,-1,1784,1814,0,0
567,-790,0,0,0,0,0,0,0,0,0,-1,1791,1814,0,0
574,-790,0,0,0,0,0,0,0,0,0,-1,1798,1814,0,0
581,-790,0,0,0,0,0,0,0,0,0,-1,1805,1814,0,0
588,-790,0,0,0,0,0,0,0,0,0,-1,1812,1814,0,0
595,-790,0,0,0,0,0,0,0,0,0,-1,1819,1814,0,0
602,-790,0,0,0,0,0,0,0,0,0,-1,1826,1814,0,0
609,-790,0,0,0,0,0,0,0,0,0,-1,1833,1814,0,0
616,-790,0,0,0,0,0,0,0,0,0,-1,1840,1814,0,0
623,-790,0,0,0,0,0,0,0,0,0,-1,1847,1814,0,0
630,-790,0,0,0,0,0,0,0,0,0,-1,1854,1814,0,0
637,-790,0,0,0,0,0,0,0,0,0,-1,1861,1814,0,0
644,-790,0,0,0,0,0,0,0,0,0,-1,1868,1814,0,0
651,-790,0,0,0,0,0,0,0,0,0,-1,1875,1814,0,0
658,-790,0,0,0,0,0,0,0,0,0,-1,1882,1814,0,0
665,-790,0,0,0,0,0,0,0,0,0,-1,1889,1814,0,0
672,-790,0,0,0,0,0,0,0,0,0,-1,1896,1814,0,0
679,-790,0,0,0,0,0,0,0,0,0,-1,1903,1814,0,0
686,-790,0,0,0,0,0,0,0,0,0,-1,1910,1814,0,0
693,-790,0,0,0,0,0,0,0,0,0,-1,1917,1814,0,0
700,-790,0,0,0,0,0,0,0,0,0,-1,1924,1814,0,0
707,-790,0,0,0,0,0,0,0,0,0,-1,1931,1814,0,0
714,-790,0,0,0,0,0,0,0,0,0,-1,1938,1814,0,0
721,-790,0,0,0,0,0,0,0,0,0,-1,1945,1814,0,0
728,-790,0,0,0,0,0,0,0,0,0,-1,1952,1814,0,0
735,-790,0,0,0,0,0,0,0,0,0,-1,1959,1814,0,0
742,-790,0,0,0,0,0,0,0,0,0,-1,1966,1814,0,0
749,-790,0,0,0,0,0,0,0,0,0,-1,1973,1814,0,0
756,-790,0,0,0,0,0,0,0,0,0,-1,1980,1814,0,0
763,-790,0,0,0,0,0,0,0,0,0,-1,1987,1814,0,0
770,-790,0,0,0,0,0,0,0,0,0,-1,1994,1814,0,0
777,-790,0,0,0,0,0,0,0,0,0,-1,2001,1814,0,0
784,-790,0,0,0,0,0,0,0,0,0,-1,2008,1814,0,0
791,-790,0,0,0,0,0,0,0,0,0,-1,2015,1814,0,0
798,-790,0,0,0,0,0,0,0,0,0,-1,2022,1814,0,0
805,-790,0,0,0,0,0,0,0,0,0,-1,2029,1814,0,0
812,-790,0,0,0,0,0,0,0,0,0,-1,2036,1814,0,0
-700,-797,0,0,0,0,0,0,0,0,0,-1,524,1821,0,0
-693,-797,0,0,0,0,0,0,0,0,0,-1,531,1821,0,0
-686,-797,0,0,0,0,0,0,0,0,0,-1,538,1821,0,0
-679,-797,0,0,0,0,0,0,0,0,0,-1,545,1821,0,0
-672,-797,0,0,0,0,0,0,0,0,0,-1,552,1821,0,0
-665,-797,0,0,0,0,0,0,0,0,0,-1,559,1821,0,0
-658,-797,0,0,0,0,0,0,0,0,0,-1,566,1821,0,0
-651,-797,0,0,0,0,0,0,0,0,0,-1,573,1821,0,0
-644,-797,0,0,0,0,0,0,0,0,0,-1,580,1821,0,0
-637,-797,0,0,0,0,0,0,0,0,0,-1,587,1821,0,0
-630,-797,0,0,0,0,0,0,0,0,0,-1,594,1821,0,0
-623,-797,0,0,0,0,0,0,0,0,0,-1,601,1821,0,0
-616,-797,0,0,0,0,0,0,0,0,0,-1,608,1821,0,0
-609,-797,0,0,0,0,0,0,0,0,0,-1,615,1821,0,0
-602,-797,0,0,0,0,0,0,0,0,0,-1,622,1821,0,0
-595,-797,0,0,0,0,0,0,0,0,0,-1,629,1821,0,0
-588,-797,0,0,0,0,0,0,0,0,0,-1,636,1821,0,0
-581,-797,0,0,0,0,0,0,0,0,0,-1,643,1821,0,0
-574,-797,0,0,0,0,0,0,0,0,0,-1,650,1821,0,0
-567,-797,0,0,0,0,0,0,0,0,0,-1,657,1821,0,0
-560,-797,0,0,0,0,0,0,0,0,0,-1,664,1821,0,0
-553,-797,0,0,0,0,0,0,0,0,0,-1,671,1821,0,0
-546,-797,0,0,0,0,0,0,0,0,0,-1,678,1821,0,0
-539,-797,0,0,0,0,0,0,0,0,0,-1,685,1821,0,0
-532,-797,0,0,0,0,0,0,0,0,0,-1,692,1821,0,0
-525,-797,0,0,0,0,0,0,0,0,0,-1,699,1821,0,0
-518,-797,0,0,0,0,0,0,0,0,0,-1,706,1821,0,0
-511,-797,0,0,0,0,0,0,0,0,0,-1,713,1821,0,0
-504,-797,0,0,0,0,0,0,0,0,0,-1,720,1821,0,0
-497,-797,0,0,0,0,0,0,0,0,0,-1,727,1821,0,0
-490,-797,0,0,0,0,0,0,0,0,0,-1,734,1821,0,0
-483,-797,0,0,0,0,0,0,0,0,0,-1,741,1821,0,0
-476,-797,0,0,0,0,0,0,0,0,0,-1,748,1821,0,0
-469,-797,0,0,0,0,0,0,0,0,0,-1,755,1821,0,0
-462,-797,0,0,0,0,0,0,0,0,0,-1,762,1821,0,0
-455,-797,0,0,0,0,0,0,0,0,0,-1,769,1821,0,0
-448,-797,0,0,0,0,0,0,0,0,0,-1,776,1821,0,0
-441,-797,0,0,0,0,0,0,0,0,0,-1,783,1821,0,0
-434,-797,0,0,0,0,0,0,0,0,0,-1,790,1821,0,0
-427,-797,0,0,0,0,0,0,0,0,0,-1,797,1821,0,0
-420,-797,0,0,0,0,0,0,0,0,0,-1,804,1821,0,0
-413,-797,0,0,0,0,0,0,0,0,0,-1,811,1821,0,0
-406,-797,0,0,0,0,0,0,0,0,0,-1,818,1821,0,0
-399,-797,0,0,0,0,0,0,0,0,0,-1,825,1821,0,0
-392,-797,0,0,0,0,0,0,0,0,0,-1,832,1821,0,0
-385,-797,0,0,0,0,0,0,0,0,0,-1,839,1821,0,0
-378,-797,0,0,0,0,0,0,0,0,0,-1,846,1821,0,0
-371,-797,0,0,0,0,0,0,0,0,0,-1,853,1821,0,0
-364,-797,0,0,0,0,0,0,0,0,0,-1,860,1821,0,0
-357,-797,0,0,0,0,0,0,0,0,0,-1,867,1821,0,0
-350,-797,0,0,0,0,0,0,0,0,0,-1,874,1821,0,0
-343,-797,0,0,0,0,0,0,0,0,0,-1,881,1821,0,0
-336,-797,0,0,0,0,0,0,0,0,0,-1,888,1821,0,0
-329,-797,0,0,0,0,0,0,0,0,0,-1,895,1821,0,0
-322,-797,0,0,0,0,0,0,0,0,0,-1,902,1821,0,0
-315,-797,0,0,0,0,0,0,0,0,0,-1,909,1821,0,0
-308,-797,0,0,0,0,0,0,0,0,0,-1,916,1821,0,0
-301,-797,0,0,0,0,0,0,0,0,0,-1,923,1821,0,0
-294,-797,0,0,0,0,0,0,0,0,0,-1,930,1821,0,0
-287,-797,0,0,0,0,0,0,0,0,0,-1,937,1821,0,0
-280,-797,0,0,0,0,0,0,0,0,0,-1,944,1821,0,0
-273,-797,0,0,0,0,0,0,0,0,0,-1,951,1821,0,0
-266,-797,0,0,0,0,0,0,0,0,0,-1,958,1821,0,0
-259,-797,0,0,0,0,0,0,0,0,0,-1,965,1821,0,0
-252,-797,0,0,0,0,0,0,0,0,0,-1,972,1821,0,0
-245,-797,0,0,0,0,0,0,0,0,0,-1,979,1821,0,0
-238,-797,0,0,0,0,0,0,0,0,0,-1,986,1821,0,0
-231,-797,0,0,0,0,0,0,0,0,0,-1,993,1821,0,0
-224,-797,0,0,0,0,0,0,0,0,0,-1,1000,1821,0,0
-217,-797,0,0,0,0,0,0,0,0,0,-1,1007,1821,0,0
-210,-797,0,0,0,0,0,0,0,0,0,-1,1014,1821,0,0
-203,-797,0,0,0,0,0,0,0,0,0,-1,1021,1821,0,0
-196,-797,0,0,0,0,0,0,0,0,0,-1,1028,1821,0,0
-189,-797,0,0,0,0,0,0,0,0,0,-1,1035,1821,0,0
-182,-797,0,0,0,0,0,0,0,0,0,-1,1042,1821,0,0
-175,-797,0,0,0,0,0,0,0,0,0,-1,1049,1821,0,0
-168,-797,0,0,0,0,0,0,0,0,0,-1,1056,1821,0,0
-161,-797,0,0,0,0,0,0,0,0,0,-1,1063,1821,0,0
-154,-797,0,0,0,0,0,0,0,0,0,-1,1070,1821,0,0
-147,-797,0,0,0,0,0,0,0,0,0,-1,1077,1821,0,0
-140,-797,0,0,0,0,0,0,0,0,0,-1,1084,1821,0,0
-133,-797,0,0,0,0,0,0,0,0,0,-1,1091,1821,0,0
-126,-797,0,0,0,0,0,0,0,0,0,-1,1098,1821,0,0
-119,-797,0,0,0,0,0,0,0,0,0,-1,1105,1821,0,0
-112,-797,0,0,0,0,0,0,0,0,0,-1,1112,1821,0,0
-105,-797,0,0,0,0,0,0,0,0,0,-1,1119,1821,0,0
-98,-797,0,0,0,0,0,0,0,0,0,-1,1126,1821,0,0
-91,-797,0,0,0,0,0,0,0,0,0,-1,1133,1821,0,0
-84,-797,0,0,0,0,0,0,0,0,0,-1,1140,1821,0,0
-77,-797,0,0,0,0,0,0,0,0,0,-1,1147,1821,0,0
-70,-797,0,0,0,0,0,0,0,0,0,-1,1154,1821,0,0
-63,-797,0,0,0,0,0,0,0,0,0,-1,1161,1821,0,0
-56,-797,0,0,0,0,0,0,0,0,0,-1,1168,1821,0,0
-49,-797,0,0,0,0,0,0,0,0,0,-1,1175,1821,0,0
-42,-797,-0.21521,1.03857,0,0,0,0,0,0,0,-1,1182,1821,-0.2152,-1.03855
-35,-797,-0.106934,1.42249,0,0,0,0,0,0,0,-1,1189,1821,-0.106981,-1.42251
-28,-797,-0.124512,1.50452,0,0,0,0,0,0,0,-1,1196,1821,-0.124539,-1.50452
-21,-797,0.285522,1.97449,0,0,0,0,0,0,0,-1,1203,1821,0.285532,-1.97447
-14,-797,-2.73169,-0.404907,0,0,0,0,0,0,0,-1,1210,1821,-2.73174,0.404965
-7,-797,-2.18494,-0.591431,0,0,0,0,0,0,0,-1,1217,1821,-2.18489,0.591472
0,-797,-1.62793,0.394775,0,0,0,0,0,0,0,-1,1224,1821,-1.62797,-0.394742
7,-797,-1.95276,-0.00695801,0,0,0,0,0,0,0,-1,1231,1821,-1.95271,0.00694318
14,-797,-2.05078,0.332764,0,0,0,0,0,0,0,-1,1238,1821,-2.05078,-0.332739
21,-797,-1.98889,0.728638,0.0111825,-0.0325724,0.0756504,0.0680553,-0.0894452,0.644642,0.0912121,0.0464078,1245,1821,-1.98885,-0.728586
28,-797,-2.89758,1.58276,0.00796678,-0.040638,0.0676724,0.0555682,-0.0882394,0.613011,0.0837385,0.0461644,1252,1821,-2.89758,-1.58279
35,-797,-3.12671,1.82764,0,0,0,0,0,0,0,-1,1259,1821,-3.12673,-1.82761
42,-797,-3.26685,2.11169,0,0,0,0,0,0,0,-1,1266,1821,-3.26682,-2.1117
49,-797,-3.36304,2.0127,-6.26861e-05,-0.0747068,0.0392193,0.0167548,-0.0915243,0.40509,0.0673,0.0481726,1273,1821,-3.36302,-2.01268
56,-797,-3.36108,2.24365,0,0,0,0,0,0,0,-1,1280,1821,-3.36107,-2.24371
63,-797,0.252808,3.85449,0,0,0,0,0,0,0,-1,1287,1821,0.252754,-3.85443
70,-797,0.333252,3.3186,-0.0135824,-0.0986029,0.00094535,-0.0135719,-0.0986134,0.0111172,0.0617177,0.0440139,1294,1821,0.333295,-3.3186
77,-797,0.429077,2.9873,-0.0163054,-0.103445,-0.0114214,-0.0148333,-0.104917,-0.128186,0.0655622,0.0414994,1301,1821,0.429084,-2.98729
84,-797,-0.218994,2.2063,0,0,0,0,0,0,0,-1,1308,1821,-0.219053,-2.20635
91,-797,-0.472412,2.01099,0,0,0,0,0,0,0,-1,1315,1821,-0.472358,-2.011
98,-797,-0.725708,1.81567,0,0,0,0,0,0,0,-1,1322,1821,-0.725663,-1.81566
105,-797,3.19788,-1.64111,0,0,0,0,0,0,0,-1,1329,1821,3.19794,1.64107
112,-797,1.98047,-1.88123,0,0,0,0,0,0,0,-1,1336,1821,1.98049,1.88122
119,-797,0.835449,-1.84253,0,0,0,0,0,0,0,-1,1343,1821,0.835419,1.84249
126,-797,-0.945557,1.22607,0,0,0,0,0,0,0,-1,1350,1821,-0.945615,-1.22602
133,-797,-0.354492,0.666504,0,0,0,0,0,0,0,-1,1357,1821,-0.35444,-0.666541
140,-797,-0.571899,0.58728,-0.0122751,-0.0281488,-0.0111484,-0.00652691,-0.0338969,-0.476054,0.0207671,0.0430934,1364,1821,-0.57184,-0.587257
147,-797,-0.498169,0.387939,-0.00369614,-0.027074,-0.00940259,-0.000383743,-0.0303864,-0.33871,0.0201309,0.0434828,1371,1821,-0.498228,-0.387958
154,-797,-0.321655,-0.00939941,0.00325564,-0.027432,-0.00723855,0.00487735,-0.0290537,-0.220399,0.0211829,0.0405189,1378,1821,-0.321631,0.00944378
161,-797,-0.254517,-0.415649,0.00823152,-0.0332502,-0.00546522,0.00893948,-0.0339582,-0.128822,0.0261334,0.040375,1385,1821,-0.254464,0.415617
168,-797,0,0,0,0,0,0,0,0,0,-1,1392,1821,0,0
175,-797,0,0,0,0,0,0,0,0,0,-1,1399,1821,0,0
182,-797,0,0,0,0,0,0,0,0,0,-1,1406,1821,0,0
189,-797,0,0,0,0,0,0,0,0,0,-1,1413,1821,0,0
196,-797,0,0,0,0,0,0,0,0,0,-1,1420,1821,0,0
203,-797,0,0,0,0,0,0,0,0,0,-1,1427,1821,0,0
210,-797,0,0,0,0,0,0,0,0,0,-1,1434,1821,0,0
217,-797,0,0,0,0,0,0,0,0,0,-1,1441,1821,0,0
224,-797,0,0,0,0,0,0,0,0,0,-1,1448,1821,0,0
231,-797,0,0,0,0,0,0,0,0,0,-1,1455,1821,0,0
238,-797,0,0,0,0,0,0,0,0,0,-1,1462,1821,0,0
245,-797,0,0,0,0,0,0,0,0,0,-1,1469,1821,0,0
252,-797,0,0,0,0,0,0,0,0,0,-1,1476,1821,0,0
259,-797,0,0,0,0,0,0,0,0,0,-1,1483,1821,0,0
266,-797,0,0,0,0,0,0,0,0,0,-1,1490,1821,0,0
273,-797,0,0,0,0,0,0,0,0,0,-1,1497,1821,0,0
280,-797,0,0,0,0,0,0,0,0,0,-1,1504,1821,0,0
287,-797,0,0,0,0,0,0,0,0,0,-1,1511,1821,0,0
294,-797,0,0,0,0,0,0,0,0,0,-1,1518,1821,0,0
301,-797,0,0,0,0,0,0,0,0,0,-1,1525,1821,0,0
308,-797,0,0,0,0,0,0,0,0,0,-1,1532,1821,0,0
315,-797,0,0,0,0,0,0,0,0,0,-1,1539,1821,0,0
322,-797,0,0,0,0,0,0,0,0,0,-1,1546,1821,0,0
329,-797,0,0,0,0,0,0,0,0,0,-1,1553,1821,0,0
336,-797,0,0,0,0,0,0,0,0,0,-1,1560,1821,0,0
343,-797,0,0,0,0,0,0,0,0,0,-1,1567,1821,0,0
350,-797,0,0,0,0,0,0,0,0,0,-1,1574,1821,0,0
357,-797,0,0,0,0,0,0,0,0,0,-1,1581,1821,0,0
364,-797,0,0,0,0,0,0,0,0,0,-1,1588,1821,0,0
371,-797,0,0,0,0,0,0,0,0,0,-1,1595,1821,0,0
378,-797,0,0,0,0,0,0,0,0,0,-1,1602,1821,0,0
385,-797,0,0,0,0,0,0,0,0,0,-1,1609,1821,0,0
392,-797,0,0,0,0,0,0,0,0,0,-1,1616,1821,0,0
399,-797,0,0,0,0,0,0,0,0,0,-1,1623,1821,0,0
406,-797,0,0,0,0,0,0,0,0,0,-1,1630,1821,0,0
413,-797,0,0,0,0,0,0,0,0,0,-1,1637,1821,0,0
420,-797,0,0,0,0,0,0,0,0,0,-1,1644,1821,0,0
427,-797,0,0,0,0,0,0,0,0,0,-1,1651,1821,0,0
434,-797,0,0,0,0,0,0,0,0,0,-1,1658,1821,0,0
441,-797,0,0,0,0,0,0,0,0,0,-1,1665,1821,0,0
448,-797,0,0,0,0,0,0,0,0,0,-1,1672,1821,0,0
455,-797,0,0,0,0,0,0,0,0,0,-1,1679,1821,0,0
462,-797,0,0,0,0,0,0,0,0,0,-1,1686,1821,0,0
469,-797,0,0,0,0,0,0,0,0,0,-1,1693,1821,0,0
476,-797,0,0,0,0,0,0,0,0,0,-1,1700,1821,0,0
483,-797,0,0,0,0,0,0,0,0,0,-1,1707,1821,0,0
490,-797,0,0,0,0,0,0,0,0,0,-1,1714,1821,0,0
497,-797,0,0,0,0,0,0,0,0,0,-1,1721,1821,0,0
504,-797,0,0,0,0,0,0,0,0,0,-1,1728,1821,0,0
511,-797,0,0,0,0,0,0,0,0,0,-1,1735,1821,0,0
518,-797,0,0,0,0,0,0,0,0,0,-1,1742,1821,0,0
525,-797,0,0,0,0,0,0,0,0,0,-1,1749,1821,0,0
532,-797,0,0,0,0,0,0,0,0,0,-1,1756,1821,0,0
539,-797,0,0,0,0,0,0,0,0,0,-1,1763,1821,0,0
546,-797,0,0,0,0,0,0,0,0,0,-1,1770,1821,0,0
553,-797,0,0,0,0,0,0,0,0,0,-1,1777,1821,0,0
560,-797,0,0,0,0,0,0,0,0,0,-1,1784,1821,0,0
567,-797,0,0,0,0,0,0,0,0,0,-1,1791,1821,0,0
574,-797,0,0,0,0,0,0,0,0,0,-1,1798,1821,0,0
581,-797,0,0,0,0,0,0,0,0,0,-1,1805,1821,0,0
588,-797,0,0,0,0,0,0,0,0,0,-1,1812,1821,0,0
595,-797,0,0,0,0,0,0,0,0,0,-1,1819,1821,0,0
602,-797,0,0,0,0,0,0,0,0,0,-1,1826,1821,0,0
609,-797,0,0,0,0,0,0,0,0,0,-1,1833,1821,0,0
616,-797,0,0,0,0,0,0,0,0,0,-1,1840,1821,0,0
623,-797,0,0,0,0,0,0,0,0,0,-1,1847,1821,0,0
630,-797,0,0,0,0,0,0,0,0,0,-1,1854,1821,0,0
637,-797,0,0,0,0,0,0,0,0,0,-1,1861,1821,0,0
644,-797,0,0,0,0,0,0,0,0,0,-1,1868,1821,0,0
651,-797,0,0,0,0,0,0,0,0,0,-1,1875,1821,0,0
658,-797,0,0,0,0,0,0,0,0,0,-1,1882,1821,0,0
665,-797,0,0,0,0,0,0,0,0,0,-1,1889,1821,0,0
672,-797,0,0,0,0,0,0,0,0,0,-1,1896,1821,0,0
679,-797,0,0,0,0,0,0,0,0,0,-1,1903,1821,0,0
686,-797,0,0,0,0,0,0,0,0,0,-1,1910,1821,0,0
693,-797,0,0,0,0,0,0,0,0,0,-1,1917,1821,0,0
700,-797,0,0,0,0,0,0,0,0,0,-1,1924,1821,0,0
707,-797,0,0,0,0,0,0,0,0,0,-1,1931,1821,0,0
714,-797,0,0,0,0,0,0,0,0,0,-1,1938,1821,0,0
721,-797,0,0,0,0,0,0,0,0,0,-1,1945,1821,0,0
728,-797,0,0,0,0,0,0,0,0,0,-1,1952,1821,0,0
735,-797,0,0,0,0,0,0,0,0,0,-1,1959,1821,0,0
742,-797,0,0,0,0,0,0,0,0,0,-1,1966,1821,0,0
749,-797,0,0,0,0,0,0,0,0,0,-1,1973,1821,0,0
756,-797,0,0,0,0,0,0,0,0,0,-1,1980,1821,0,0
763,-797,0,0,0,0,0,0,0,0,0,-1,1987,1821,0,0
770,-797,0,0,0,0,0,0,0,0,0,-1,1994,1821,0,0
777,-797,0,0,0,0,0,0,0,0,0,-1,2001,1821,0,0
784,-797,0,0,0,0,0,0,0,0,0,-1,2008,1821,0,0
791,-797,0,0,0,0,0,0,0,0,0,-1,2015,1821,0,0
798,-797,0,0,0,0,0,0,0,0,0,-1,2022,1821,0,0
805,-797,0,0,0,0,0,0,0,0,0,-1,2029,1821,0,0
812,-797,0,0,0,0,0,0,0,0,0,-1,2036,1821,0,0
-700,-804,0,0,0,0,0,0,0,0,0,-1,524,1828,0,0
-693,-804,0,0,0,0,0,0,0,0,0,-1,531,1828,0,0
-686,-804,0,0,0,0,0,0,0,0,0,-1,538,1828,0,0
-679,-804,0,0,0,0,0,0,0,0,0,-1,545,1828,0,0
-672,-804,0,0,0,0,0,0,0,0,0,-1,552,1828,0,0
-665,-804,0,0,0,0,0,0,0,0,0,-1,559,1828,0,0
-658,-804,0,0,0,0,0,0,0,0,0,-1,566,1828,0,0
-651,-804,0,0,0,0,0,0,0,0,0,-1,573,1828,0,0
-644,-804,0,0,0,0,0,0,0,0,0,-1,580,1828,0,0
-637,-804,0,0,0,0,0,0,0,0,0,-1,587,1828,0,0
-630,-804,0,0,0,0,0,0,0,0,0,-1,594,1828,0,0
-623,-804,0,0,0,0,0,0,0,0,0,-1,601,1828,0,0
-616,-804,0,0,0,0,0,0,0,0,0,-1,608,1828,0,0
-609,-804,0,0,0,0,0,0,0,0,0,-1,615,1828,0,0
-602,-804,0,0,0,0,0,0,0,0,0,-1,622,1828,0,0
-595,-804,0,0,0,0,0,0,0,0,0,-1,629,1828,0,0
-588,-804,0,0,0,0,0,0,0,0,0,-1,636,1828,0,0
-581,-804,0,0,0,0,0,0,0,0,0,-1,643,1828,0,0
-574,-804,0,0,0,0,0,0,0,0,0,-1,650,1828,0,0
-567,-804,0,0,0,0,0,0,0,0,0,-1,657,1828,0,0
-560,-804,0,0,0,0,0,0,0,0,0,-1,664,1828,0,0
-553,-804,0,0,0,0,0,0,0,0,0,-1,671,1828,0,0
-546,-804,0,0,0,0,0,0,0,0,0,-1,678,1828,0,0
-539,-804,0,0,0,0,0,0,0,0,0,-1,685,1828,0,0
-532,-804,0,0,0,0,0,0,0,0,0,-1,692,1828,0,0
-525,-804,0,0,0,0,0,0,0,0,0,-1,699,1828,0,0
-518,-804,0,0,0,0,0,0,0,0,0,-1,706,1828,0,0
-511,-804,0,0,0,0,0,0,0,0,0,-1,713,1828,0,0
-504,-804,0,0,0,0,0,0,0,0,0,-1,720,1828,0,0
-497,-804,0,0,0,0,0,0,0,0,0,-1,727,1828,0,0
-490,-804,0,0,0,0,0,0,0,0,0,-1,734,1828,0,0
-483,-804,0,0,0,0,0,0,0,0,0,-1,741,1828,0,0
-476,-804,0,0,0,0,0,0,0,0,0,-1,748,1828,0,0
-469,-804,0,0,0,0,0,0,0,0,0,-1,755,1828,0,0
-462,-804,0,0,0,0,0,0,0,0,0,-1,762,1828,0,0
-455,-804,0,0,0,0,0,0,0,0,0,-1,769,1828,0,0
-448,-804,0,0,0,0,0,0,0,0,0,-1,776,1828,0,0
-441,-804,0,0,0,0,0,0,0,0,0,-1,783,1828,0,0
-434,-804,0,0,0,0,0,0,0,0,0,-1,790,1828,0,0
-427,-804,0,0,0,0,0,0,0,0,0,-1,797,1828,0,0
-420,-804,0,0,0,0,0,0,0,0,0,-1,804,1828,0,0
-413,-804,0,0,0,0,0,0,0,0,0,-1,811,1828,0,0
-406,-804,0,0,0,0,0,0,0,0,0,-1,818,1828,0,0
-399,-804,0,0,0,0,0,0,0,0,0,-1,825,1828,0,0
-392,-804,0,0,0,0,0,0,0,0,0,-1,832,1828,0,0
-385,-804,0,0,0,0,0,0,0,0,0,-1,839,1828,0,0
-378,-804,0,0,0,0,0,0,0,0,0,-1,846,1828,0,0
-371,-804,0,0,0,0,0,0,0,0,0,-1,853,1828,0,0
-364,-804,0,0,0,0,0,0,0,0,0,-1,860,1828,0,0
-357,-804,0,0,0,0,0,0,0,0,0,-1,867,1828,0,0
-350,-804,0,0,0,0,0,0,0,0,0,-1,874,1828,0,0
-343,-804,0,0,0,0,0,0,0,0,0,-1,881,1828,0,0
-336,-804,0,0,0,0,0,0,0,0,0,-1,888,1828,0,0
-329,-804,0,0,0,0,0,0,0,0,0,-1,895,1828,0,0
-322,-804,0,0,0,0,0,0,0,0,0,-1,902,1828,0,0
-315,-804,0,0,0,0,0,0,0,0,0,-1,909,1828,0,0
-308,-804,0,0,0,0,0,0,0,0,0,-1,916,1828,0,0
-301,-804,0,0,0,0,0,0,0,0,0,-1,923,1828,0,0
-294,-804,0,0,0,0,0,0,0,0,0,-1,930,1828,0,0
-287,-804,0,0,0,0,0,0,0,0,0,-1,937,1828,0,0
-280,-804,0,0,0,0,0,0,0,0,0,-1,944,1828,0,0
-273,-804,0,0,0,0,0,0,0,0,0,-1,951,1828,0,0
-266,-804,0,0,0,0,0,0,0,0,0,-1,958,1828,0,0
-259,-804,0,0,0,0,0,0,0,0,0,-1,965,1828,0,0
-252,-804,0,0,0,0,0,0,0,0,0,-1,972,1828,0,0
-245,-804,0,0,0,0,0,0,0,0,0,-1,979,1828,0,0
-238,-804,0,0,0,0,0,0,0,0,0,-1,986,1828,0,0
-231,-804,0,0,0,0,0,0,0,0,0,-1,993,1828,0,0
-224,-804,0,0,0,0,0,0,0,0,0,-1,1000,1828,0,0
-217,-804,0,0,0,0,0,0,0,0,0,-1,1007,1828,0,0
-210,-804,0,0,0,0,0,0,0,0,0,-1,1014,1828,0,0
-203,-804,0,0,0,0,0,0,0,0,0,-1,1021,1828,0,0
-196,-804,0,0,0,0,0,0,0,0,0,-1,1028,1828,0,0
-189,-804,0,0,0,0,0,0,0,0,0,-1,1035,1828,0,0
-182,-804,0,0,0,0,0,0,0,0,0,-1,1042,1828,0,0
-175,-804,0,0,0,0,0,0,0,0,0,-1,1049,1828,0,0
-168,-804,0,0,0,0,0,0,0,0,0,-1,1056,1828,0,0
-161,-804,0,0,0,0,0,0,0,0,0,-1,1063,1828,0,0
-154,-804,0,0,0,0,0,0,0,0,0,-1,1070,1828,0,0
-147,-804,0,0,0,0,0,0,0,0,0,-1,1077,1828,0,0
-140,-804,0,0,0,0,0,0,0,0,0,-1,1084,1828,0,0
-133,-804,0,0,0,0,0,0,0,0,0,-1,1091,1828,0,0
-126,-804,0,0,0,0,0,0,0,0,0,-1,1098,1828,0,0
-119,-804,0,0,0,0,0,0,0,0,0,-1,1105,1828,0,0
-112,-804,0,0,0,0,0,0,0,0,0,-1,1112,1828,0,0
-105,-804,0,0,0,0,0,0,0,0,0,-1,1119,1828,0,0
-98,-804,0,0,0,0,0,0,0,0,0,-1,1126,1828,0,0
-91,-804,0,0,0,0,0,0,0,0,0,-1,1133,1828,0,0
-84,-804,0,0,0,0,0,0,0,0,0,-1,1140,1828,0,0
-77,-804,0,0,0,0,0,0,0,0,0,-1,1147,1828,0,0
-70,-804,0,0,0,0,0,0,0,0,0,-1,1154,1828,0,0
-63,-804,0,0,0,0,0,0,0,0,0,-1,1161,1828,0,0
-56,-804,0,0,0,0,0,0,0,0,0,-1,1168,1828,0,0
-49,-804,0,0,0,0,0,0,0,0,0,-1,1175,1828,0,0
-42,-804,0,0,0,0,0,0,0,0,0,-1,1182,1828,0,0
-35,-804,0,0,0,0,0,0,0,0,0,-1,1189,1828,0,0
-28,-804,0,0,0,0,0,0,0,0,0,-1,1196,1828,0,0
-21,-804,0,0,0,0,0,0,0,0,0,-1,1203,1828,0,0
-14,-804,0,0,0,0,0,0,0,0,0,-1,1210,1828,0,0
-7,-804,0,0,0,0,0,0,0,0,0,-1,1217,1828,0,0
0,-804,0,0,0,0,0,0,0,0,0,-1,1224,1828,0,0
7,-804,0,0,0,0,0,0,0,0,0,-1,1231,1828,0,0
14,-804,0,0,0,0,0,0,0,0,0,-1,1238,1828,0,0
21,-804,0,0,0,0,0,0,0,0,0,-1,1245,1828,0,0
28,-804,0,0,0,0,0,0,0,0,0,-1,1252,1828,0,0
35,-804,-4.82849,1.68872,0,0,0,0,0,0,0,-1,1259,1828,-4.8285,-1.68871
42,-804,-4.52747,1.69653,0,0,0,0,0,0,0,-1,1266,1828,-4.52753,-1.69654
49,-804,-4.53015,1.95544,0,0,0,0,0,0,0,-1,1273,1828,-4.53021,-1.95543
56,-804,-4.52527,2.19287,0,0,0,0,0,0,0,-1,1280,1828,-4.5253,-2.19288
63,-804,1.18445,3.78882,0,0,0,0,0,0,0,-1,1287,1828,1.18447,-3.78878
70,-804,1.3446,4.16785,0,0,0,0,0,0,0,-1,1294,1828,1.34455,-4.16785
77,-804,0.895508,3.89063,-0.0176856,-0.12112,-0.0169744,-0.0149712,-0.123834,-0.158569,0.078046,0.0474787,1301,1828,0.895453,-3.89066
84,-804,0.72876,3.61255,0,0,0,0,0,0,0,-1,1308,1828,0.728768,-3.61255
91,-804,0,0,0,0,0,0,0,0,0,-1,1315,1828,0,0
98,-804,0,0,0,0,0,0,0,0,0,-1,1322,1828,0,0
105,-804,0,0,0,0,0,0,0,0,0,-1,1329,1828,0,0
112,-804,0,0,0,0,0,0,0,0,0,-1,1336,1828,0,0
119,-804,0,0,0,0,0,0,0,0,0,-1,1343,1828,0,0
126,-804,0,0,0,0,0,0,0,0,0,-1,1350,1828,0,0
133,-804,0,0,0,0,0,0,0,0,0,-1,1357,1828,0,0
140,-804,0,0,0,0,0,0,0,0,0,-1,1364,1828,0,0
147,-804,0,0,0,0,0,0,0,0,0,-1,1371,1828,0,0
154,-804,0,0,0,0,0,0,0,0,0,-1,1378,1828,0,0
161,-804,0,0,0,0,0,0,0,0,0,-1,1385,1828,0,0
168,-804,0,0,0,0,0,0,0,0,0,-1,1392,1828,0,0
175,-804,0,0,0,0,0,0,0,0,0,-1,1399,1828,0,0
182,-804,0,0,0,0,0,0,0,0,0,-1,1406,1828,0,0
189,-804,0,0,0,0,0,0,0,0,0,-1,1413,1828,0,0
196,-804,0,0,0,0,0,0,0,0,0,-1,1420,1828,0,0
203,-804,0,0,0,0,0,0,0,0,0,-1,1427,1828,0,0
210,-804,0,0,0,0,0,0,0,0,0,-1,1434,1828,0,0
217,-804,0,0,0,0,0,0,0,0,0,-1,1441,1828,0,0
224,-804,0,0,0,0,0,0,0,0,0,-1,1448,1828,0,0
231,-804,0,0,0,0,0,0,0,0,0,-1,1455,1828,0,0
238,-804,0,0,0,0,0,0,0,0,0,-1,1462,1828,0,0
245,-804,0,0,0,0,0,0,0,0,0,-1,1469,1828,0,0
252,-804,0,0,0,0,0,0,0,0,0,-1,1476,1828,0,0
259,-804,0,0,0,0,0,0,0,0,0,-1,1483,1828,0,0
266,-804,0,0,0,0,0,0,0,0,0,-1,1490,1828,0,0
273,-804,0,0,0,0,0,0,0,0,0,-1,1497,1828,0,0
280,-804,0,0,0,0,0,0,0,0,0,-1,1504,1828,0,0
287,-804,0,0,0,0,0,0,0,0,0,-1,1511,1828,0,0
294,-804,0,0,0,0,0,0,0,0,0,-1,1518,1828,0,0
301,-804,0,0,0,0,0,0,0,0,0,-1,1525,1828,0,0
308,-804,0,0,0,0,0,0,0,0,0,-1,1532,1828,0,0
315,-804,0,0,0,0,0,0,0,0,0,-1,1539,1828,0,0
322,-804,0,0,0,0,0,0,0,0,0,-1,1546,1828,0,0
329,-804,0,0,0,0,0,0,0,0,0,-1,1553,1828,0,0
336,-804,0,0,0,0,0,0,0,0,0,-1,1560,1828,0,0
343,-804,0,0,0,0,0,0,0,0,0,-1,1567,1828,0,0
350,-804,0,0,0,0,0,0,0,0,0,-1,1574,1828,0,0
357,-804,0,0,0,0,0,0,0,0,0,-1,1581,1828,0,0
364,-804,0,0,0,0,0,0,0,0,0,-1,1588,1828,0,0
371,-804,0,0,0,0,0,0,0,0,0,-1,1595,1828,0,0
378,-804,0,0,0,0,0,0,0,0,0,-1,1602,1828,0,0
385,-804,0,0,0,0,0,0,0,0,0,-1,1609,1828,0,0
392,-804,0,0,0,0,0,0,0,0,0,-1,1616,1828,0,0
399,-804,0,0,0,0,0,0,0,0,0,-1,1623,1828,0,0
406,-804,0,0,0,0,0,0,0,0,0,-1,1630,1828,0,0
413,-804,0,0,0,0,0,0,0,0,0,-1,1637,1828,0,0
420,-804,0,0,0,0,0,0,0,0,0,-1,1644,1828,0,0
427,-804,0,0,0,0,0,0,0,0,0,-1,1651,1828,0,0
434,-804,0,0,0,0,0,0,0,0,0,-1,1658,1828,0,0
441,-804,0,0,0,0,0,0,0,0,0,-1,1665,1828,0,0
448,-804,0,0,0,0,0,0,0,0,0,-1,1672,1828,0,0
455,-804,0,0,0,0,0,0,0,0,0,-1,1679,1828,0,0
462,-804,0,0,0,0,0,0,0,0,0,-1,1686,1828,0,0
469,-804,0,0,0,0,0,0,0,0,0,-1,1693,1828,0,0
476,-804,0,0,0,0,0,0,0,0,0,-1,1700,1828,0,0
483,-804,0,0,0,0,0,0,0,0,0,-1,1707,1828,0,0
490,-804,0,0,0,0,0,0,0,0,0,-1,1714,1828,0,0
497,-804,0,0,0,0,0,0,0,0,0,-1,1721,1828,0,0
504,-804,0,0,0,0,0,0,0,0,0,-1,1728,1828,0,0
511,-804,0,0,0,0,0,0,0,0,0,-1,1735,1828,0,0
518,-804,0,0,0,0,0,0,0,0,0,-1,1742,1828,0,0
525,-804,0,0,0,0,0,0,0,0,0,-1,1749,1828,0,0
532,-804,0,0,0,0,0,0,0,0,0,-1,1756,1828,0,0
539,-804,0,0,0,0,0,0,0,0,0,-1,1763,1828,0,0
546,-804,0,0,0,0,0,0,0,0,0,-1,1770,1828,0,0
553,-804,0,0,0,0,0,0,0,0,0,-1,1777,1828,0,0
560,-804,0,0,0,0,0,0,0,0,0,-1,1784,1828,0,0
567,-804,0,0,0,0,0,0,0,0,0,-1,1791,1828,0,0
574,-804,0,0,0,0,0,0,0,0,0,-1,1798,1828,0,0
581,-804,0,0,0,0,0,0,0,0,0,-1,1805,1828,0,0
588,-804,0,0,0,0,0,0,0,0,0,-1,1812,1828,0,0
595,-804,0,0,0,0,0,0,0,0,0,-1,1819,1828,0,0
602,-804,0,0,0,0,0,0,0,0,0,-1,1826,1828,0,0
609,-804,0,0,0,0,0,0,0,0,0,-1,1833,1828,0,0
616,-804,0,0,0,0,0,0,0,0,0,-1,1840,1828,0,0
623,-804,0,0,0,0,0,0,0,0,0,-1,1847,1828,0,0
630,-804,0,0,0,0,0,0,0,0,0,-1,1854,1828,0,0
637,-804,0,0,0,0,0,0,0,0,0,-1,1861,1828,0,0
644,-804,0,0,0,0,0,0,0,0,0,-1,1868,1828,0,0
651,-804,0,0,0,0,0,0,0,0,0,-1,1875,1828,0,0
658,-804,0,0,0,0,0,0,0,0,0,-1,1882,1828,0,0
665,-804,0,0,0,0,0,0,0,0,0,-1,1889,1828,0,0
672,-804,0,0,0,0,0,0,0,0,0,-1,1896,1828,0,0
679,-804,0,0,0,0,0,0,0,0,0,-1,1903,1828,0,0
686,-804,0,0,0,0,0,0,0,0,0,-1,1910,1828,0,0
693,-804,0,0,0,0,0,0,0,0,0,-1,1917,1828,0,0
700,-804,0,0,0,0,0,0,0,0,0,-1,1924,1828,0,0
707,-804,0,0,0,0,0,0,0,0,0,-1,1931,1828,0,0
714,-804,0,0,0,0,0,0,0,0,0,-1,1938,1828,0,0
721,-804,0,0,0,0,0,0,0,0,0,-1,1945,1828,0,0
728,-804,0,0,0,0,0,0,0,0,0,-1,1952,1828,0,0
735,-804,0,0,0,0,0,0,0,0,0,-1,1959,1828,0,0
742,-804,0,0,0,0,0,0,0,0,0,-1,1966,1828,0,0
749,-804,0,0,0,0,0,0,0,0,0,-1,1973,1828,0,0
756,-804,0,0,0,0,0,0,0,0,0,-1,1980,1828,0,0
763,-804,0,0,0,0,0,0,0,0,0,-1,1987,1828,0,0
770,-804,0,0,0,0,0,0,0,0,0,-1,1994,1828,0,0
777,-804,0,0,0,0,0,0,0,0,0,-1,2001,1828,0,0
784,-804,0,0,0,0,0,0,0,0,0,-1,2008,1828,0,0
791,-804,0,0,0,0,0,0,0,0,0,-1,2015,1828,0,0
798,-804,0,0,0,0,0,0,0,0,0,-1,2022,1828,0,0
805,-804,0,0,0,0,0,0,0,0,0,-1,2029,1828,0,0
812,-804,0,0,0,0,0,0,0,0,0,-1,2036,1828,0,0

