 "x_c",  "y_c",  "u_c",  "v_c",  "exx",  "eyy",  "exy",  "e1",  "e2",  "gamma",  "e_vonmises",  "sigma",  "x",  "y",  "u",  "v"
-700,715,0,0,0,0,0,0,0,0,0,-1,524,309,0,0
-693,715,0,0,0,0,0,0,0,0,0,-1,531,309,0,0
-686,715,0,0,0,0,0,0,0,0,0,-1,538,309,0,0
-679,715,0,0,0,0,0,0,0,0,0,-1,545,309,0,0
-672,715,0,0,0,0,0,0,0,0,0,-1,552,309,0,0
-665,715,0,0,0,0,0,0,0,0,0,-1,559,309,0,0
-658,715,0,0,0,0,0,0,0,0,0,-1,566,309,0,0
-651,715,0,0,0,0,0,0,0,0,0,-1,573,309,0,0
-644,715,0,0,0,0,0,0,0,0,0,-1,580,309,0,0
-637,715,0,0,0,0,0,0,0,0,0,-1,587,309,0,0
-630,715,0,0,0,0,0,0,0,0,0,-1,594,309,0,0
-623,715,0,0,0,0,0,0,0,0,0,-1,601,309,0,0
-616,715,0,0,0,0,0,0,0,0,0,-1,608,309,0,0
-609,715,0,0,0,0,0,0,0,0,0,-1,615,309,0,0
-602,715,0,0,0,0,0,0,0,0,0,-1,622,309,0,0
-595,715,0,0,0,0,0,0,0,0,0,-1,629,309,0,0
-588,715,0,0,0,0,0,0,0,0,0,-1,636,309,0,0
-581,715,0,0,0,0,0,0,0,0,0,-1,643,309,0,0
-574,715,0,0,0,0,0,0,0,0,0,-1,650,309,0,0
-567,715,0,0,0,0,0,0,0,0,0,-1,657,309,0,0
-560,715,0,0,0,0,0,0,0,0,0,-1,664,309,0,0
-553,715,0,0,0,0,0,0,0,0,0,-1,671,309,0,0
-546,715,0,0,0,0,0,0,0,0,0,-1,678,309,0,0
-539,715,0,0,0,0,0,0,0,0,0,-1,685,309,0,0
-532,715,0,0,0,0,0,0,0,0,0,-1,692,309,0,0
-525,715,0,0,0,0,0,0,0,0,0,-1,699,309,0,0
-518,715,0,0,0,0,0,0,0,0,0,-1,706,309,0,0
-511,715,0,0,0,0,0,0,0,0,0,-1,713,309,0,0
-504,715,0,0,0,0,0,0,0,0,0,-1,720,309,0,0
-497,715,0,0,0,0,0,0,0,0,0,-1,727,309,0,0
-490,715,0,0,0,0,0,0,0,0,0,-1,734,309,0,0
-483,715,0,0,0,0,0,0,0,0,0,-1,741,309,0,0
-476,715,0,0,0,0,0,0,0,0,0,-1,748,309,0,0
-469,715,0,0,0,0,0,0,0,0,0,-1,755,309,0,0
-462,715,0,0,0,0,0,0,0,0,0,-1,762,309,0,0
-455,715,0,0,0,0,0,0,0,0,0,-1,769,309,0,0
-448,715,0,0,0,0,0,0,0,0,0,-1,776,309,0,0
-441,715,0,0,0,0,0,0,0,0,0,-1,783,309,0,0
-434,715,0,0,0,0,0,0,0,0,0,-1,790,309,0,0
-427,715,0,0,0,0,0,0,0,0,0,-1,797,309,0,0
-420,715,0,0,0,0,0,0,0,0,0,-1,804,309,0,0
-413,715,0,0,0,0,0,0,0,0,0,-1,811,309,0,0
-406,715,0,0,0,0,0,0,0,0,0,-1,818,309,0,0
-399,715,0,0,0,0,0,0,0,0,0,-1,825,309,0,0
-392,715,0,0,0,0,0,0,0,0,0,-1,832,309,0,0
-385,715,0,0,0,0,0,0,0,0,0,-1,839,309,0,0
-378,715,0,0,0,0,0,0,0,0,0,-1,846,309,0,0
-371,715,0,0,0,0,0,0,0,0,0,-1,853,309,0,0
-364,715,0,0,0,0,0,0,0,0,0,-1,860,309,0,0
-357,715,0,0,0,0,0,0,0,0,0,-1,867,309,0,0
-350,715,0,0,0,0,0,0,0,0,0,-1,874,309,0,0
-343,715,0,0,0,0,0,0,0,0,0,-1,881,309,0,0
-336,715,0,0,0,0,0,0,0,0,0,-1,888,309,0,0
-329,715,0,0,0,0,0,0,0,0,0,-1,895,309,0,0
-322,715,0,0,0,0,0,0,0,0,0,-1,902,309,0,0
-315,715,0,0,0,0,0,0,0,0,0,-1,909,309,0,0
-308,715,0,0,0,0,0,0,0,0,0,-1,916,309,0,0
-301,715,0,0,0,0,0,0,0,0,0,-1,923,309,0,0
-294,715,0,0,0,0,0,0,0,0,0,-1,930,309,0,0
-287,715,0,0,0,0,0,0,0,0,0,-1,937,309,0,0
-280,715,0,0,0,0,0,0,0,0,0,-1,944,309,0,0
-273,715,0,0,0,0,0,0,0,0,0,-1,951,309,0,0
-266,715,0,0,0,0,0,0,0,0,0,-1,958,309,0,0
-259,715,0,0,0,0,0,0,0,0,0,-1,965,309,0,0
-252,715,0,0,0,0,0,0,0,0,0,-1,972,309,0,0
-245,715,0,0,0,0,0,0,0,0,0,-1,979,309,0,0
-238,715,0,0,0,0,0,0,0,0,0,-1,986,309,0,0
-231,715,0,0,0,0,0,0,0,0,0,-1,993,309,0,0
-224,715,0,0,0,0,0,0,0,0,0,-1,1000,309,0,0
-217,715,0,0,0,0,0,0,0,0,0,-1,1007,309,0,0
-210,715,0,0,0,0,0,0,0,0,0,-1,1014,309,0,0
-203,715,0,0,0,0,0,0,0,0,0,-1,1021,309,0,0
-196,715,0,0,0,0,0,0,0,0,0,-1,1028,309,0,0
-189,715,0,0,0,0,0,0,0,0,0,-1,1035,309,0,0
-182,715,0,0,0,0,0,0,0,0,0,-1,1042,309,0,0
-175,715,0,0,0,0,0,0,0,0,0,-1,1049,309,0,0
-168,715,0,0,0,0,0,0,0,0,0,-1,1056,309,0,0
-161,715,0,0,0,0,0,0,0,0,0,-1,1063,309,0,0
-154,715,0,0,0,0,0,0,0,0,0,-1,1070,309,0,0
-147,715,0,0,0,0,0,0,0,0,0,-1,1077,309,0,0
-140,715,0,0,0,0,0,0,0,0,0,-1,1084,309,0,0
-133,715,0,0,0,0,0,0,0,0,0,-1,1091,309,0,0
-126,715,0,0,0,0,0,0,0,0,0,-1,1098,309,0,0
-119,715,0,0,0,0,0,0,0,0,0,-1,1105,309,0,0
-112,715,0,0,0,0,0,0,0,0,0,-1,1112,309,0,0
-105,715,0,0,0,0,0,0,0,0,0,-1,1119,309,0,0
-98,715,0,0,0,0,0,0,0,0,0,-1,1126,309,0,0
-91,715,0,0,0,0,0,0,0,0,0,-1,1133,309,0,0
-84,715,0,0,0,0,0,0,0,0,0,-1,1140,309,0,0
-77,715,0,0,0,0,0,0,0,0,0,-1,1147,309,0,0
-70,715,0,0,0,0,0,0,0,0,0,-1,1154,309,0,0
-63,715,0,0,0,0,0,0,0,0,0,-1,1161,309,0,0
-56,715,0,0,0,0,0,0,0,0,0,-1,1168,309,0,0
-49,715,0,0,0,0,0,0,0,0,0,-1,1175,309,0,0
-42,715,0,0,0,0,0,0,0,0,0,-1,1182,309,0,0
-35,715,0,0,0,0,0,0,0,0,0,-1,1189,309,0,0
-28,715,0,0,0,0,0,0,0,0,0,-1,1196,309,0,0
-21,715,0,0,0,0,0,0,0,0,0,-1,1203,309,0,0
-14,715,0,0,0,0,0,0,0,0,0,-1,1210,309,0,0
-7,715,0,0,0,0,0,0,0,0,0,-1,1217,309,0,0
0,715,0,0,0,0,0,0,0,0,0,-1,1224,309,0,0
7,715,0,0,0,0,0,0,0,0,0,-1,1231,309,0,0
14,715,0,0,0,0,0,0,0,0,0,-1,1238,309,0,0
21,715,0,0,0,0,0,0,0,0,0,-1,1245,309,0,0
28,715,0,0,0,0,0,0,0,0,0,-1,1252,309,0,0
35,715,0,0,0,0,0,0,0,0,0,-1,1259,309,0,0
42,715,0,0,0,0,0,0,0,0,0,-1,1266,309,0,0
49,715,0,0,0,0,0,0,0,0,0,-1,1273,309,0,0
56,715,0,0,0,0,0,0,0,0,0,-1,1280,309,0,0
63,715,6.58105,-34.7819,0.00699302,0.0920337,0.00377494,0.0922009,0.00682578,1.52652,0.0593231,0.0451536,1287,309,6.58107,34.7819
70,715,6.802,-34.9954,0,0,0,0,0,0,0,-1,1294,309,6.80203,34.9954
77,715,0,0,0,0,0,0,0,0,0,-1,1301,309,0,0
84,715,0,0,0,0,0,0,0,0,0,-1,1308,309,0,0
91,715,0,0,0,0,0,0,0,0,0,-1,1315,309,0,0
98,715,0,0,0,0,0,0,0,0,0,-1,1322,309,0,0
105,715,0,0,0,0,0,0,0,0,0,-1,1329,309,0,0
112,715,0,0,0,0,0,0,0,0,0,-1,1336,309,0,0
119,715,0,0,0,0,0,0,0,0,0,-1,1343,309,0,0
126,715,0,0,0,0,0,0,0,0,0,-1,1350,309,0,0
133,715,0,0,0,0,0,0,0,0,0,-1,1357,309,0,0
140,715,0,0,0,0,0,0,0,0,0,-1,1364,309,0,0
147,715,0,0,0,0,0,0,0,0,0,-1,1371,309,0,0
154,715,0,0,0,0,0,0,0,0,0,-1,1378,309,0,0
161,715,0,0,0,0,0,0,0,0,0,-1,1385,309,0,0
168,715,0,0,0,0,0,0,0,0,0,-1,1392,309,0,0
175,715,0,0,0,0,0,0,0,0,0,-1,1399,309,0,0
182,715,0,0,0,0,0,0,0,0,0,-1,1406,309,0,0
189,715,0,0,0,0,0,0,0,0,0,-1,1413,309,0,0
196,715,0,0,0,0,0,0,0,0,0,-1,1420,309,0,0
203,715,0,0,0,0,0,0,0,0,0,-1,1427,309,0,0
210,715,0,0,0,0,0,0,0,0,0,-1,1434,309,0,0
217,715,0,0,0,0,0,0,0,0,0,-1,1441,309,0,0
224,715,0,0,0,0,0,0,0,0,0,-1,1448,309,0,0
231,715,0,0,0,0,0,0,0,0,0,-1,1455,309,0,0
238,715,0,0,0,0,0,0,0,0,0,-1,1462,309,0,0
245,715,0,0,0,0,0,0,0,0,0,-1,1469,309,0,0
252,715,0,0,0,0,0,0,0,0,0,-1,1476,309,0,0
259,715,0,0,0,0,0,0,0,0,0,-1,1483,309,0,0
266,715,0,0,0,0,0,0,0,0,0,-1,1490,309,0,0
273,715,0,0,0,0,0,0,0,0,0,-1,1497,309,0,0
280,715,0,0,0,0,0,0,0,0,0,-1,1504,309,0,0
287,715,0,0,0,0,0,0,0,0,0,-1,1511,309,0,0
294,715,0,0,0,0,0,0,0,0,0,-1,1518,309,0,0
301,715,0,0,0,0,0,0,0,0,0,-1,1525,309,0,0
308,715,0,0,0,0,0,0,0,0,0,-1,1532,309,0,0
315,715,0,0,0,0,0,0,0,0,0,-1,1539,309,0,0
322,715,0,0,0,0,0,0,0,0,0,-1,1546,309,0,0
329,715,0,0,0,0,0,0,0,0,0,-1,1553,309,0,0
336,715,0,0,0,0,0,0,0,0,0,-1,1560,309,0,0
343,715,0,0,0,0,0,0,0,0,0,-1,1567,309,0,0
350,715,0,0,0,0,0,0,0,0,0,-1,1574,309,0,0
357,715,0,0,0,0,0,0,0,0,0,-1,1581,309,0,0
364,715,0,0,0,0,0,0,0,0,0,-1,1588,309,0,0
371,715,0,0,0,0,0,0,0,0,0,-1,1595,309,0,0
378,715,0,0,0,0,0,0,0,0,0,-1,1602,309,0,0
385,715,0,0,0,0,0,0,0,0,0,-1,1609,309,0,0
392,715,0,0,0,0,0,0,0,0,0,-1,1616,309,0,0
399,715,0,0,0,0,0,0,0,0,0,-1,1623,309,0,0
406,715,0,0,0,0,0,0,0,0,0,-1,1630,309,0,0
413,715,0,0,0,0,0,0,0,0,0,-1,1637,309,0,0
420,715,0,0,0,0,0,0,0,0,0,-1,1644,309,0,0
427,715,0,0,0,0,0,0,0,0,0,-1,1651,309,0,0
434,715,0,0,0,0,0,0,0,0,0,-1,1658,309,0,0
441,715,0,0,0,0,0,0,0,0,0,-1,1665,309,0,0
448,715,0,0,0,0,0,0,0,0,0,-1,1672,309,0,0
455,715,0,0,0,0,0,0,0,0,0,-1,1679,309,0,0
462,715,0,0,0,0,0,0,0,0,0,-1,1686,309,0,0
469,715,0,0,0,0,0,0,0,0,0,-1,1693,309,0,0
476,715,0,0,0,0,0,0,0,0,0,-1,1700,309,0,0
483,715,0,0,0,0,0,0,0,0,0,-1,1707,309,0,0
490,715,0,0,0,0,0,0,0,0,0,-1,1714,309,0,0
497,715,0,0,0,0,0,0,0,0,0,-1,1721,309,0,0
504,715,0,0,0,0,0,0,0,0,0,-1,1728,309,0,0
511,715,0,0,0,0,0,0,0,0,0,-1,1735,309,0,0
518,715,0,0,0,0,0,0,0,0,0,-1,1742,309,0,0
525,715,0,0,0,0,0,0,0,0,0,-1,1749,309,0,0
532,715,0,0,0,0,0,0,0,0,0,-1,1756,309,0,0
539,715,0,0,0,0,0,0,0,0,0,-1,1763,309,0,0
546,715,0,0,0,0,0,0,0,0,0,-1,1770,309,0,0
553,715,0,0,0,0,0,0,0,0,0,-1,1777,309,0,0
560,715,0,0,0,0,0,0,0,0,0,-1,1784,309,0,0
567,715,0,0,0,0,0,0,0,0,0,-1,1791,309,0,0
574,715,0,0,0,0,0,0,0,0,0,-1,1798,309,0,0
581,715,0,0,0,0,0,0,0,0,0,-1,1805,309,0,0
588,715,0,0,0,0,0,0,0,0,0,-1,1812,309,0,0
595,715,0,0,0,0,0,0,0,0,0,-1,1819,309,0,0
602,715,0,0,0,0,0,0,0,0,0,-1,1826,309,0,0
609,715,0,0,0,0,0,0,0,0,0,-1,1833,309,0,0
616,715,0,0,0,0,0,0,0,0,0,-1,1840,309,0,0
623,715,0,0,0,0,0,0,0,0,0,-1,1847,309,0,0
630,715,0,0,0,0,0,0,0,0,0,-1,1854,309,0,0
637,715,0,0,0,0,0,0,0,0,0,-1,1861,309,0,0
644,715,0,0,0,0,0,0,0,0,0,-1,1868,309,0,0
651,715,0,0,0,0,0,0,0,0,0,-1,1875,309,0,0
658,715,0,0,0,0,0,0,0,0,0,-1,1882,309,0,0
665,715,0,0,0,0,0,0,0,0,0,-1,1889,309,0,0
672,715,0,0,0,0,0,0,0,0,0,-1,1896,309,0,0
679,715,0,0,0,0,0,0,0,0,0,-1,1903,309,0,0
686,715,0,0,0,0,0,0,0,0,0,-1,1910,309,0,0
693,715,0,0,0,0,0,0,0,0,0,-1,1917,309,0,0
700,715,0,0,0,0,0,0,0,0,0,-1,1924,309,0,0
707,715,0,0,0,0,0,0,0,0,0,-1,1931,309,0,0
714,715,0,0,0,0,0,0,0,0,0,-1,1938,309,0,0
721,715,0,0,0,0,0,0,0,0,0,-1,1945,309,0,0
728,715,0,0,0,0,0,0,0,0,0,-1,1952,309,0,0
735,715,0,0,0,0,0,0,0,0,0,-1,1959,309,0,0
742,715,0,0,0,0,0,0,0,0,0,-1,1966,309,0,0
749,715,0,0,0,0,0,0,0,0,0,-1,1973,309,0,0
756,715,0,0,0,0,0,0,0,0,0,-1,1980,309,0,0
763,715,0,0,0,0,0,0,0,0,0,-1,1987,309,0,0
770,715,0,0,0,0,0,0,0,0,0,-1,1994,309,0,0
777,715,0,0,0,0,0,0,0,0,0,-1,2001,309,0,0
784,715,0,0,0,0,0,0,0,0,0,-1,2008,309,0,0
791,715,0,0,0,0,0,0,0,0,0,-1,2015,309,0,0
798,715,0,0,0,0,0,0,0,0,0,-1,2022,309,0,0
805,715,0,0,0,0,0,0,0,0,0,-1,2029,309,0,0
812,715,0,0,0,0,0,0,0,0,0,-1,2036,309,0,0
-700,708,0,0,0,0,0,0,0,0,0,-1,524,316,0,0
-693,708,0,0,0,0,0,0,0,0,0,-1,531,316,0,0
-686,708,0,0,0,0,0,0,0,0,0,-1,538,316,0,0
-679,708,0,0,0,0,0,0,0,0,0,-1,545,316,0,0
-672,708,0,0,0,0,0,0,0,0,0,-1,552,316,0,0
-665,708,0,0,0,0,0,0,0,0,0,-1,559,316,0,0
-658,708,0,0,0,0,0,0,0,0,0,-1,566,316,0,0
-651,708,0,0,0,0,0,0,0,0,0,-1,573,316,0,0
-644,708,0,0,0,0,0,0,0,0,0,-1,580,316,0,0
-637,708,0,0,0,0,0,0,0,0,0,-1,587,316,0,0
-630,708,0,0,0,0,0,0,0,0,0,-1,594,316,0,0
-623,708,0,0,0,0,0,0,0,0,0,-1,601,316,0,0
-616,708,0,0,0,0,0,0,0,0,0,-1,608,316,0,0
-609,708,0,0,0,0,0,0,0,0,0,-1,615,316,0,0
-602,708,0,0,0,0,0,0,0,0,0,-1,622,316,0,0
-595,708,0,0,0,0,0,0,0,0,0,-1,629,316,0,0
-588,708,0,0,0,0,0,0,0,0,0,-1,636,316,0,0
-581,708,0,0,0,0,0,0,0,0,0,-1,643,316,0,0
-574,708,0,0,0,0,0,0,0,0,0,-1,650,316,0,0
-567,708,0,0,0,0,0,0,0,0,0,-1,657,316,0,0
-560,708,0,0,0,0,0,0,0,0,0,-1,664,316,0,0
-553,708,0,0,0,0,0,0,0,0,0,-1,671,316,0,0
-546,708,0,0,0,0,0,0,0,0,0,-1,678,316,0,0
-539,708,0,0,0,0,0,0,0,0,0,-1,685,316,0,0
-532,708,0,0,0,0,0,0,0,0,0,-1,692,316,0,0
-525,708,0,0,0,0,0,0,0,0,0,-1,699,316,0,0
-518,708,0,0,0,0,0,0,0,0,0,-1,706,316,0,0
-511,708,0,0,0,0,0,0,0,0,0,-1,713,316,0,0
-504,708,0,0,0,0,0,0,0,0,0,-1,720,316,0,0
-497,708,0,0,0,0,0,0,0,0,0,-1,727,316,0,0
-490,708,0,0,0,0,0,0,0,0,0,-1,734,316,0,0
-483,708,0,0,0,0,0,0,0,0,0,-1,741,316,0,0
-476,708,0,0,0,0,0,0,0,0,0,-1,748,316,0,0
-469,708,0,0,0,0,0,0,0,0,0,-1,755,316,0,0
-462,708,0,0,0,0,0,0,0,0,0,-1,762,316,0,0
-455,708,0,0,0,0,0,0,0,0,0,-1,769,316,0,0
-448,708,0,0,0,0,0,0,0,0,0,-1,776,316,0,0
-441,708,0,0,0,0,0,0,0,0,0,-1,783,316,0,0
-434,708,0,0,0,0,0,0,0,0,0,-1,790,316,0,0
-427,708,0,0,0,0,0,0,0,0,0,-1,797,316,0,0
-420,708,0,0,0,0,0,0,0,0,0,-1,804,316,0,0
-413,708,0,0,0,0,0,0,0,0,0,-1,811,316,0,0
-406,708,0,0,0,0,0,0,0,0,0,-1,818,316,0,0
-399,708,0,0,0,0,0,0,0,0,0,-1,825,316,0,0
-392,708,0,0,0,0,0,0,0,0,0,-1,832,316,0,0
-385,708,0,0,0,0,0,0,0,0,0,-1,839,316,0,0
-378,708,0,0,0,0,0,0,0,0,0,-1,846,316,0,0
-371,708,0,0,0,0,0,0,0,0,0,-1,853,316,0,0
-364,708,0,0,0,0,0,0,0,0,0,-1,860,316,0,0
-357,708,0,0,0,0,0,0,0,0,0,-1,867,316,0,0
-350,708,0,0,0,0,0,0,0,0,0,-1,874,316,0,0
-343,708,0,0,0,0,0,0,0,0,0,-1,881,316,0,0
-336,708,0,0,0,0,0,0,0,0,0,-1,888,316,0,0
-329,708,0,0,0,0,0,0,0,0,0,-1,895,316,0,0
-322,708,0,0,0,0,0,0,0,0,0,-1,902,316,0,0
-315,708,0,0,0,0,0,0,0,0,0,-1,909,316,0,0
-308,708,0,0,0,0,0,0,0,0,0,-1,916,316,0,0
-301,708,0,0,0,0,0,0,0,0,0,-1,923,316,0,0
-294,708,0,0,0,0,0,0,0,0,0,-1,930,316,0,0
-287,708,0,0,0,0,0,0,0,0,0,-1,937,316,0,0
-280,708,0,0,0,0,0,0,0,0,0,-1,944,316,0,0
-273,708,0,0,0,0,0,0,0,0,0,-1,951,316,0,0
-266,708,0,0,0,0,0,0,0,0,0,-1,958,316,0,0
-259,708,0,0,0,0,0,0,0,0,0,-1,965,316,0,0
-252,708,0,0,0,0,0,0,0,0,0,-1,972,316,0,0
-245,708,0,0,0,0,0,0,0,0,0,-1,979,316,0,0
-238,708,0,0,0,0,0,0,0,0,0,-1,986,316,0,0
-231,708,0,0,0,0,0,0,0,0,0,-1,993,316,0,0
-224,708,0,0,0,0,0,0,0,0,0,-1,1000,316,0,0
-217,708,0,0,0,0,0,0,0,0,0,-1,1007,316,0,0
-210,708,0,0,0,0,0,0,0,0,0,-1,1014,316,0,0
-203,708,0,0,0,0,0,0,0,0,0,-1,1021,316,0,0
-196,708,0,0,0,0,0,0,0,0,0,-1,1028,316,0,0
-189,708,0,0,0,0,0,0,0,0,0,-1,1035,316,0,0
-182,708,0,0,0,0,0,0,0,0,0,-1,1042,316,0,0
-175,708,0,0,0,0,0,0,0,0,0,-1,1049,316,0,0
-168,708,0,0,0,0,0,0,0,0,0,-1,1056,316,0,0
-161,708,0,0,0,0,0,0,0,0,0,-1,1063,316,0,0
-154,708,0,0,0,0,0,0,0,0,0,-1,1070,316,0,0
-147,708,0,0,0,0,0,0,0,0,0,-1,1077,316,0,0
-140,708,0,0,0,0,0,0,0,0,0,-1,1084,316,0,0
-133,708,0,0,0,0,0,0,0,0,0,-1,1091,316,0,0
-126,708,0,0,0,0,0,0,0,0,0,-1,1098,316,0,0
-119,708,0,0,0,0,0,0,0,0,0,-1,1105,316,0,0
-112,708,0,0,0,0,0,0,0,0,0,-1,1112,316,0,0
-105,708,0,0,0,0,0,0,0,0,0,-1,1119,316,0,0
-98,708,0,0,0,0,0,0,0,0,0,-1,1126,316,0,0
-91,708,0,0,0,0,0,0,0,0,0,-1,1133,316,0,0
-84,708,0,0,0,0,0,0,0,0,0,-1,1140,316,0,0
-77,708,0,0,0,0,0,0,0,0,0,-1,1147,316,0,0
-70,708,0,0,0,0,0,0,0,0,0,-1,1154,316,0,0
-63,708,0,0,0,0,0,0,0,0,0,-1,1161,316,0,0
-56,708,0,0,0,0,0,0,0,0,0,-1,1168,316,0,0
-49,708,0,0,0,0,0,0,0,0,0,-1,1175,316,0,0
-42,708,0,0,0,0,0,0,0,0,0,-1,1182,316,0,0
-35,708,-2.71204,-6.31558,0,0,0,0,0,0,0,-1,1189,316,-2.712,6.3156
-28,708,-2.92371,-5.53253,0,0,0,0,0,0,0,-1,1196,316,-2.92375,5.53254
-21,708,-0.417969,-24.5911,0,0,0,0,0,0,0,-1,1203,316,-0.418022,24.5911
-14,708,4.25549,-31.4833,0,0,0,0,0,0,0,-1,1210,316,4.25544,31.4833
-7,708,7.18506,-37.5637,0,0,0,0,0,0,0,-1,1217,316,7.18508,37.5637
0,708,11.1522,-34.6584,0,0,0,0,0,0,0,-1,1224,316,11.1522,34.6584
7,708,10.1956,-34.7087,0.00568298,0.0453159,0.0424995,0.0723918,-0.021393,1.00355,0.0567525,0.0476483,1231,316,10.1956,34.7088
14,708,9.2207,-34.8114,0,0,0,0,0,0,0,-1,1238,316,9.22067,34.8114
21,708,8.19226,-34.7636,-0.0184977,0.068431,0.0478968,0.0896448,-0.0397114,1.15386,0.0765161,0.0468444,1245,316,8.19222,34.7636
28,708,7.771,-34.5474,-0.0227049,0.0765618,0.0445881,0.0936485,-0.0397916,1.20485,0.0791057,0.0455649,1252,316,7.77097,34.5474
35,708,7.78369,-34.1164,-0.023683,0.0829007,0.0396197,0.0960148,-0.0367971,1.25115,0.0791789,0.047318,1259,316,7.78373,34.1164
42,708,8.1554,-33.7586,-0.0222712,0.0889476,0.0323842,0.0976899,-0.0310135,1.30713,0.0775596,0.0474722,1266,316,8.15538,33.7586
49,708,5.64172,-34.5669,-0.0193645,0.0953042,0.0237478,0.100028,-0.024088,1.37445,0.0759978,0.0428476,1273,316,5.64166,34.5669
56,708,5.77637,-34.9502,-0.0135388,0.098762,0.0122973,0.100093,-0.0148696,1.46299,0.0721973,0.0437795,1280,316,5.77637,34.9502
63,708,5.92175,-35.1564,0.00437538,0.0942843,-0.000263057,0.0942851,0.00437462,-1.56787,0.0614505,0.043982,1287,316,5.92176,35.1564
70,708,5.18835,-35.9959,0,0,0,0,0,0,0,-1,1294,316,5.18841,35.9959
77,708,5.18506,-36.4207,0.0365017,0.0863971,-0.0158318,0.0909966,0.0319023,-1.28806,0.053313,0.0464022,1301,316,5.18505,36.4207
84,708,5.50977,-37.1706,0,0,0,0,0,0,0,-1,1308,316,5.50982,37.1706
91,708,5.62549,-37.734,0,0,0,0,0,0,0,-1,1315,316,5.62545,37.734
98,708,5.75635,-38.3643,0,0,0,0,0,0,0,-1,1322,316,5.75635,38.3644
105,708,5.93762,-38.9164,0.136169,0.0593994,-0.00974422,0.137387,0.0581819,-0.124302,0.0796291,0.0488902,1329,316,5.93757,38.9164
112,708,6.1167,-39.4125,0.165079,0.0520695,0.0028127,0.165149,0.0519996,0.0248686,0.0975031,0.0456224,1336,316,6.11673,39.4125
119,708,6.1499,-40.3545,0,0,0,0,0,0,0,-1,1343,316,6.14991,40.3545
126,708,6.35059,-41.3557,0,0,0,0,0,0,0,-1,1350,316,6.35063,41.3557
133,708,6.54431,-42.3206,0,0,0,0,0,0,0,-1,1357,316,6.54431,42.3206
140,708,3.34326,-29.6664,0,0,0,0,0,0,0,-1,1364,316,3.34327,29.6664
147,708,3.2384,-30.1555,0,0,0,0,0,0,0,-1,1371,316,3.23836,30.1555
154,708,0,0,0,0,0,0,0,0,0,-1,1378,316,0,0
161,708,0,0,0,0,0,0,0,0,0,-1,1385,316,0,0
168,708,0,0,0,0,0,0,0,0,0,-1,1392,316,0,0
175,708,0,0,0,0,0,0,0,0,0,-1,1399,316,0,0
182,708,0,0,0,0,0,0,0,0,0,-1,1406,316,0,0
189,708,0,0,0,0,0,0,0,0,0,-1,1413,316,0,0
196,708,0,0,0,0,0,0,0,0,0,-1,1420,316,0,0
203,708,0,0,0,0,0,0,0,0,0,-1,1427,316,0,0
210,708,0,0,0,0,0,0,0,0,0,-1,1434,316,0,0
217,708,0,0,0,0,0,0,0,0,0,-1,1441,316,0,0
224,708,0,0,0,0,0,0,0,0,0,-1,1448,316,0,0
231,708,0,0,0,0,0,0,0,0,0,-1,1455,316,0,0
238,708,0,0,0,0,0,0,0,0,0,-1,1462,316,0,0
245,708,0,0,0,0,0,0,0,0,0,-1,1469,316,0,0
252,708,0,0,0,0,0,0,0,0,0,-1,1476,316,0,0
259,708,0,0,0,0,0,0,0,0,0,-1,1483,316,0,0
266,708,0,0,0,0,0,0,0,0,0,-1,1490,316,0,0
273,708,0,0,0,0,0,0,0,0,0,-1,1497,316,0,0
280,708,0,0,0,0,0,0,0,0,0,-1,1504,316,0,0
287,708,0,0,0,0,0,0,0,0,0,-1,1511,316,0,0
294,708,0,0,0,0,0,0,0,0,0,-1,1518,316,0,0
301,708,0,0,0,0,0,0,0,0,0,-1,1525,316,0,0
308,708,0,0,0,0,0,0,0,0,0,-1,1532,316,0,0
315,708,0,0,0,0,0,0,0,0,0,-1,1539,316,0,0
322,708,0,0,0,0,0,0,0,0,0,-1,1546,316,0,0
329,708,0,0,0,0,0,0,0,0,0,-1,1553,316,0,0
336,708,0,0,0,0,0,0,0,0,0,-1,1560,316,0,0
343,708,0,0,0,0,0,0,0,0,0,-1,1567,316,0,0
350,708,0,0,0,0,0,0,0,0,0,-1,1574,316,0,0
357,708,0,0,0,0,0,0,0,0,0,-1,1581,316,0,0
364,708,0,0,0,0,0,0,0,0,0,-1,1588,316,0,0
371,708,0,0,0,0,0,0,0,0,0,-1,1595,316,0,0
378,708,0,0,0,0,0,0,0,0,0,-1,1602,316,0,0
385,708,0,0,0,0,0,0,0,0,0,-1,1609,316,0,0
392,708,0,0,0,0,0,0,0,0,0,-1,1616,316,0,0
399,708,0,0,0,0,0,0,0,0,0,-1,1623,316,0,0
406,708,0,0,0,0,0,0,0,0,0,-1,1630,316,0,0
413,708,0,0,0,0,0,0,0,0,0,-1,1637,316,0,0
420,708,0,0,0,0,0,0,0,0,0,-1,1644,316,0,0
427,708,0,0,0,0,0,0,0,0,0,-1,1651,316,0,0
434,708,0,0,0,0,0,0,0,0,0,-1,1658,316,0,0
441,708,0,0,0,0,0,0,0,0,0,-1,1665,316,0,0
448,708,0,0,0,0,0,0,0,0,0,-1,1672,316,0,0
455,708,0,0,0,0,0,0,0,0,0,-1,1679,316,0,0
462,708,0,0,0,0,0,0,0,0,0,-1,1686,316,0,0
469,708,0,0,0,0,0,0,0,0,0,-1,1693,316,0,0
476,708,0,0,0,0,0,0,0,0,0,-1,1700,316,0,0
483,708,0,0,0,0,0,0,0,0,0,-1,1707,316,0,0
490,708,0,0,0,0,0,0,0,0,0,-1,1714,316,0,0
497,708,0,0,0,0,0,0,0,0,0,-1,1721,316,0,0
504,708,0,0,0,0,0,0,0,0,0,-1,1728,316,0,0
511,708,0,0,0,0,0,0,0,0,0,-1,1735,316,0,0
518,708,0,0,0,0,0,0,0,0,0,-1,1742,316,0,0
525,708,0,0,0,0,0,0,0,0,0,-1,1749,316,0,0
532,708,0,0,0,0,0,0,0,0,0,-1,1756,316,0,0
539,708,0,0,0,0,0,0,0,0,0,-1,1763,316,0,0
546,708,0,0,0,0,0,0,0,0,0,-1,1770,316,0,0
553,708,0,0,0,0,0,0,0,0,0,-1,1777,316,0,0
560,708,0,0,0,0,0,0,0,0,0,-1,1784,316,0,0
567,708,0,0,0,0,0,0,0,0,0,-1,1791,316,0,0
574,708,0,0,0,0,0,0,0,0,0,-1,1798,316,0,0
581,708,0,0,0,0,0,0,0,0,0,-1,1805,316,0,0
588,708,0,0,0,0,0,0,0,0,0,-1,1812,316,0,0
595,708,0,0,0,0,0,0,0,0,0,-1,1819,316,0,0
602,708,0,0,0,0,0,0,0,0,0,-1,1826,316,0,0
609,708,0,0,0,0,0,0,0,0,0,-1,1833,316,0,0
616,708,0,0,0,0,0,0,0,0,0,-1,1840,316,0,0
623,708,0,0,0,0,0,0,0,0,0,-1,1847,316,0,0
630,708,0,0,0,0,0,0,0,0,0,-1,1854,316,0,0
637,708,0,0,0,0,0,0,0,0,0,-1,1861,316,0,0
644,708,0,0,0,0,0,0,0,0,0,-1,1868,316,0,0
651,708,0,0,0,0,0,0,0,0,0,-1,1875,316,0,0
658,708,0,0,0,0,0,0,0,0,0,-1,1882,316,0,0
665,708,0,0,0,0,0,0,0,0,0,-1,1889,316,0,0
672,708,0,0,0,0,0,0,0,0,0,-1,1896,316,0,0
679,708,0,0,0,0,0,0,0,0,0,-1,1903,316,0,0
686,708,0,0,0,0,0,0,0,0,0,-1,1910,316,0,0
693,708,0,0,0,0,0,0,0,0,0,-1,1917,316,0,0
700,708,0,0,0,0,0,0,0,0,0,-1,1924,316,0,0
707,708,0,0,0,0,0,0,0,0,0,-1,1931,316,0,0
714,708,0,0,0,0,0,0,0,0,0,-1,1938,316,0,0
721,708,0,0,0,0,0,0,0,0,0,-1,1945,316,0,0
728,708,0,0,0,0,0,0,0,0,0,-1,1952,316,0,0
735,708,0,0,0,0,0,0,0,0,0,-1,1959,316,0,0
742,708,0,0,0,0,0,0,0,0,0,-1,1966,316,0,0
749,708,0,0,0,0,0,0,0,0,0,-1,1973,316,0,0
756,708,0,0,0,0,0,0,0,0,0,-1,1980,316,0,0
763,708,0,0,0,0,0,0,0,0,0,-1,1987,316,0,0
770,708,0,0,0,0,0,0,0,0,0,-1,1994,316,0,0
777,708,0,0,0,0,0,0,0,0,0,-1,2001,316,0,0
784,708,0,0,0,0,0,0,0,0,0,-1,2008,316,0,0
791,708,0,0,0,0,0,0,0,0,0,-1,2015,316,0,0
798,708,0,0,0,0,0,0,0,0,0,-1,2022,316,0,0
805,708,0,0,0,0,0,0,0,0,0,-1,2029,316,0,0
812,708,0,0,0,0,0,0,0,0,0,-1,2036,316,0,0
-700,701,0,0,0,0,0,0,0,0,0,-1,524,323,0,0
-693,701,0,0,0,0,0,0,0,0,0,-1,531,323,0,0
-686,701,0,0,0,0,0,0,0,0,0,-1,538,323,0,0
-679,701,0,0,0,0,0,0,0,0,0,-1,545,323,0,0
-672,701,0,0,0,0,0,0,0,0,0,-1,552,323,0,0
-665,701,0,0,0,0,0,0,0,0,0,-1,559,323,0,0
-658,701,0,0,0,0,0,0,0,0,0,-1,566,323,0,0
-651,701,0,0,0,0,0,0,0,0,0,-1,573,323,0,0
-644,701,0,0,0,0,0,0,0,0,0,-1,580,323,0,0
-637,701,0,0,0,0,0,0,0,0,0,-1,587,323,0,0
-630,701,0,0,0,0,0,0,0,0,0,-1,594,323,0,0
-623,701,0,0,0,0,0,0,0,0,0,-1,601,323,0,0
-616,701,0,0,0,0,0,0,0,0,0,-1,608,323,0,0
-609,701,0,0,0,0,0,0,0,0,0,-1,615,323,0,0
-602,701,0,0,0,0,0,0,0,0,0,-1,622,323,0,0
-595,701,0,0,0,0,0,0,0,0,0,-1,629,323,0,0
-588,701,0,0,0,0,0,0,0,0,0,-1,636,323,0,0
-581,701,0,0,0,0,0,0,0,0,0,-1,643,323,0,0
-574,701,0,0,0,0,0,0,0,0,0,-1,650,323,0,0
-567,701,0,0,0,0,0,0,0,0,0,-1,657,323,0,0
-560,701,0,0,0,0,0,0,0,0,0,-1,664,323,0,0
-553,701,0,0,0,0,0,0,0,0,0,-1,671,323,0,0
-546,701,0,0,0,0,0,0,0,0,0,-1,678,323,0,0
-539,701,0,0,0,0,0,0,0,0,0,-1,685,323,0,0
-532,701,0,0,0,0,0,0,0,0,0,-1,692,323,0,0
-525,701,0,0,0,0,0,0,0,0,0,-1,699,323,0,0
-518,701,0,0,0,0,0,0,0,0,0,-1,706,323,0,0
-511,701,0,0,0,0,0,0,0,0,0,-1,713,323,0,0
-504,701,0,0,0,0,0,0,0,0,0,-1,720,323,0,0
-497,701,0,0,0,0,0,0,0,0,0,-1,727,323,0,0
-490,701,0,0,0,0,0,0,0,0,0,-1,734,323,0,0
-483,701,0,0,0,0,0,0,0,0,0,-1,741,323,0,0
-476,701,0,0,0,0,0,0,0,0,0,-1,748,323,0,0
-469,701,0,0,0,0,0,0,0,0,0,-1,755,323,0,0
-462,701,0,0,0,0,0,0,0,0,0,-1,762,323,0,0
-455,701,0,0,0,0,0,0,0,0,0,-1,769,323,0,0
-448,701,0,0,0,0,0,0,0,0,0,-1,776,323,0,0
-441,701,0,0,0,0,0,0,0,0,0,-1,783,323,0,0
-434,701,0,0,0,0,0,0,0,0,0,-1,790,323,0,0
-427,701,0,0,0,0,0,0,0,0,0,-1,797,323,0,0
-420,701,0,0,0,0,0,0,0,0,0,-1,804,323,0,0
-413,701,0,0,0,0,0,0,0,0,0,-1,811,323,0,0
-406,701,0,0,0,0,0,0,0,0,0,-1,818,323,0,0
-399,701,0,0,0,0,0,0,0,0,0,-1,825,323,0,0
-392,701,0,0,0,0,0,0,0,0,0,-1,832,323,0,0
-385,701,0,0,0,0,0,0,0,0,0,-1,839,323,0,0
-378,701,0,0,0,0,0,0,0,0,0,-1,846,323,0,0
-371,701,0,0,0,0,0,0,0,0,0,-1,853,323,0,0
-364,701,0,0,0,0,0,0,0,0,0,-1,860,323,0,0
-357,701,0,0,0,0,0,0,0,0,0,-1,867,323,0,0
-350,701,0,0,0,0,0,0,0,0,0,-1,874,323,0,0
-343,701,0,0,0,0,0,0,0,0,0,-1,881,323,0,0
-336,701,0,0,0,0,0,0,0,0,0,-1,888,323,0,0
-329,701,0,0,0,0,0,0,0,0,0,-1,895,323,0,0
-322,701,0,0,0,0,0,0,0,0,0,-1,902,323,0,0
-315,701,0,0,0,0,0,0,0,0,0,-1,909,323,0,0
-308,701,0,0,0,0,0,0,0,0,0,-1,916,323,0,0
-301,701,0,0,0,0,0,0,0,0,0,-1,923,323,0,0
-294,701,0,0,0,0,0,0,0,0,0,-1,930,323,0,0
-287,701,0,0,0,0,0,0,0,0,0,-1,937,323,0,0
-280,701,0,0,0,0,0,0,0,0,0,-1,944,323,0,0
-273,701,0,0,0,0,0,0,0,0,0,-1,951,323,0,0
-266,701,0,0,0,0,0,0,0,0,0,-1,958,323,0,0
-259,701,0,0,0,0,0,0,0,0,0,-1,965,323,0,0
-252,701,0,0,0,0,0,0,0,0,0,-1,972,323,0,0
-245,701,0,0,0,0,0,0,0,0,0,-1,979,323,0,0
-238,701,0,0,0,0,0,0,0,0,0,-1,986,323,0,0
-231,701,0,0,0,0,0,0,0,0,0,-1,993,323,0,0
-224,701,0,0,0,0,0,0,0,0,0,-1,1000,323,0,0
-217,701,0,0,0,0,0,0,0,0,0,-1,1007,323,0,0
-210,701,0,0,0,0,0,0,0,0,0,-1,1014,323,0,0
-203,701,0,0,0,0,0,0,0,0,0,-1,1021,323,0,0
-196,701,0,0,0,0,0,0,0,0,0,-1,1028,323,0,0
-189,701,0,0,0,0,0,0,0,0,0,-1,1035,323,0,0
-182,701,0,0,0,0,0,0,0,0,0,-1,1042,323,0,0
-175,701,0,0,0,0,0,0,0,0,0,-1,1049,323,0,0
-168,701,0,0,0,0,0,0,0,0,0,-1,1056,323,0,0
-161,701,0,0,0,0,0,0,0,0,0,-1,1063,323,0,0
-154,701,0,0,0,0,0,0,0,0,0,-1,1070,323,0,0
-147,701,0,0,0,0,0,0,0,0,0,-1,1077,323,0,0
-140,701,0,0,0,0,0,0,0,0,0,-1,1084,323,0,0
-133,701,0,0,0,0,0,0,0,0,0,-1,1091,323,0,0
-126,701,0,0,0,0,0,0,0,0,0,-1,1098,323,0,0
-119,701,0,0,0,0,0,0,0,0,0,-1,1105,323,0,0
-112,701,0,0,0,0,0,0,0,0,0,-1,1112,323,0,0
-105,701,0,0,0,0,0,0,0,0,0,-1,1119,323,0,0
-98,701,0,0,0,0,0,0,0,0,0,-1,1126,323,0,0
-91,701,0,0,0,0,0,0,0,0,0,-1,1133,323,0,0
-84,701,0,0,0,0,0,0,0,0,0,-1,1140,323,0,0
-77,701,0,0,0,0,0,0,0,0,0,-1,1147,323,0,0
-70,701,-12.7566,-30.413,0,0,0,0,0,0,0,-1,1154,323,-12.7566,30.413
-63,701,-18.3169,-21.2322,0,0,0,0,0,0,0,-1,1161,323,-18.3169,21.2322
-56,701,-0.420166,-0.101776,0,0,0,0,0,0,0,-1,1168,323,-0.420119,0.101777
-49,701,-1.09021,-0.155762,0,0,0,0,0,0,0,-1,1175,323,-1.09024,0.155768
-42,701,-0.210327,-0.299133,0,0,0,0,0,0,0,-1,1182,323,-0.210379,0.29914
-35,701,-2.9635,-7.98676,0,0,0,0,0,0,0,-1,1189,323,-2.9635,7.98676
-28,701,-6.64417,-5.4917,0,0,0,0,0,0,0,-1,1196,323,-6.64411,5.4917
-21,701,5.22729,-32.2801,0,0,0,0,0,0,0,-1,1203,323,5.22728,32.2801
-14,701,6.23523,-36.6221,0,0,0,0,0,0,0,-1,1210,323,6.23522,36.6221
-7,701,7.05676,-37.2311,0,0,0,0,0,0,0,-1,1217,323,7.05679,37.2311
0,701,7.87842,-37.84,0,0,0,0,0,0,0,-1,1224,323,7.87837,37.84
7,701,9.20508,-35.1596,0,0,0,0,0,0,0,-1,1231,323,9.20503,35.1596
14,701,6.77454,-34.3559,0,0,0,0,0,0,0,-1,1238,323,6.77453,34.3559
21,701,7.40381,-34.7852,-0.0122625,0.0661395,0.0348356,0.0793812,-0.0255042,1.20754,0.0631625,0.0478183,1245,323,7.40377,34.7852
28,701,6.94238,-34.6256,-0.0164706,0.0730309,0.0324359,0.0835496,-0.0269894,1.2572,0.0665463,0.0462362,1252,323,6.94243,34.6257
35,701,6.68652,-34.4988,-0.0180255,0.0784802,0.0288896,0.0864674,-0.0260127,1.30106,0.0679952,0.0457841,1259,323,6.68649,34.4988
42,701,4.83508,-34.909,-0.0180735,0.0840147,0.023642,0.089224,-0.0232828,1.35392,0.068574,0.0461372,1266,323,4.83505,34.909
49,701,5.3374,-35.0033,-0.0169862,0.0901232,0.017278,0.0928414,-0.0197044,1.41476,0.0694011,0.0460264,1273,323,5.33745,35.0033
56,701,5.36487,-35.4668,-0.0131775,0.0937047,0.00856828,0.0943873,-0.01386,1.49131,0.0680172,0.0453299,1280,323,5.36481,35.4668
63,701,5.21545,-35.9654,0,0,0,0,0,0,0,-1,1287,323,5.2154,35.9654
70,701,5.41577,-36.4976,0.0160216,0.0838502,-0.00462994,0.0841648,0.015707,-1.50296,0.0516761,0.0462028,1294,323,5.41579,36.4975
77,701,5.57361,-37.0306,0.0289671,0.0835923,-0.0126857,0.0863945,0.0261648,-1.35339,0.051156,0.0482998,1301,323,5.57359,37.0306
84,701,5.75537,-37.577,0,0,0,0,0,0,0,-1,1308,323,5.75537,37.577
91,701,5.94897,-38.3247,0,0,0,0,0,0,0,-1,1315,323,5.94901,38.3247
98,701,6.04822,-38.9155,0,0,0,0,0,0,0,-1,1322,323,6.04816,38.9155
105,701,6.31458,-39.3985,0.109986,0.0596521,-0.000423214,0.109989,0.0596486,-0.00840738,0.0635781,0.0488052,1329,323,6.31452,39.3985
112,701,6.51379,-39.8601,0.132478,0.0532662,0.0108813,0.133945,0.0517987,0.134062,0.0779922,0.0479322,1336,323,6.51383,39.8601
119,701,6.53394,-41.3892,0,0,0,0,0,0,0,-1,1343,323,6.53398,41.3892
126,701,6.93982,-42.8595,0.18135,0.0418306,0.0475605,0.196021,0.0271604,0.299194,0.122634,0.0476917,1350,323,6.93982,42.8595
133,701,7.07947,-44.1322,0.206164,0.0401698,0.072282,0.233227,0.013107,0.35825,0.151305,0.0495039,1357,323,7.07945,44.1322
140,701,7.1908,-45.2809,0,0,0,0,0,0,0,-1,1364,323,7.19076,45.2809
147,701,3.36877,-31.2296,0,0,0,0,0,0,0,-1,1371,323,3.36877,31.2296
154,701,3.06628,-31.4759,0,0,0,0,0,0,0,-1,1378,323,3.06631,31.4759
161,701,2.62903,-31.4281,0,0,0,0,0,0,0,-1,1385,323,2.62906,31.4281
168,701,30.7272,1.76184,0,0,0,0,0,0,0,-1,1392,323,30.7272,-1.76184
175,701,31.5035,2.25711,0,0,0,0,0,0,0,-1,1399,323,31.5036,-2.25712
182,701,8.80652,5.42807,0,0,0,0,0,0,0,-1,1406,323,8.8065,-5.42808
189,701,8.58081,4.24493,0,0,0,0,0,0,0,-1,1413,323,8.58082,-4.24494
196,701,0,0,0,0,0,0,0,0,0,-1,1420,323,0,0
203,701,0,0,0,0,0,0,0,0,0,-1,1427,323,0,0
210,701,0,0,0,0,0,0,0,0,0,-1,1434,323,0,0
217,701,0,0,0,0,0,0,0,0,0,-1,1441,323,0,0
224,701,0,0,0,0,0,0,0,0,0,-1,1448,323,0,0
231,701,0,0,0,0,0,0,0,0,0,-1,1455,323,0,0
238,701,0,0,0,0,0,0,0,0,0,-1,1462,323,0,0
245,701,0,0,0,0,0,0,0,0,0,-1,1469,323,0,0
252,701,0,0,0,0,0,0,0,0,0,-1,1476,323,0,0
259,701,0,0,0,0,0,0,0,0,0,-1,1483,323,0,0
266,701,0,0,0,0,0,0,0,0,0,-1,1490,323,0,0
273,701,0,0,0,0,0,0,0,0,0,-1,1497,323,0,0
280,701,0,0,0,0,0,0,0,0,0,-1,1504,323,0,0
287,701,0,0,0,0,0,0,0,0,0,-1,1511,323,0,0
294,701,0,0,0,0,0,0,0,0,0,-1,1518,323,0,0
301,701,0,0,0,0,0,0,0,0,0,-1,1525,323,0,0
308,701,0,0,0,0,0,0,0,0,0,-1,1532,323,0,0
315,701,0,0,0,0,0,0,0,0,0,-1,1539,323,0,0
322,701,0,0,0,0,0,0,0,0,0,-1,1546,323,0,0
329,701,0,0,0,0,0,0,0,0,0,-1,1553,323,0,0
336,701,0,0,0,0,0,0,0,0,0,-1,1560,323,0,0
343,701,0,0,0,0,0,0,0,0,0,-1,1567,323,0,0
350,701,0,0,0,0,0,0,0,0,0,-1,1574,323,0,0
357,701,0,0,0,0,0,0,0,0,0,-1,1581,323,0,0
364,701,0,0,0,0,0,0,0,0,0,-1,1588,323,0,0
371,701,0,0,0,0,0,0,0,0,0,-1,1595,323,0,0
378,701,0,0,0,0,0,0,0,0,0,-1,1602,323,0,0
385,701,0,0,0,0,0,0,0,0,0,-1,1609,323,0,0
392,701,0,0,0,0,0,0,0,0,0,-1,1616,323,0,0
399,701,0,0,0,0,0,0,0,0,0,-1,1623,323,0,0
406,701,0,0,0,0,0,0,0,0,0,-1,1630,323,0,0
413,701,0,0,0,0,0,0,0,0,0,-1,1637,323,0,0
420,701,0,0,0,0,0,0,0,0,0,-1,1644,323,0,0
427,701,0,0,0,0,0,0,0,0,0,-1,1651,323,0,0
434,701,0,0,0,0,0,0,0,0,0,-1,1658,323,0,0
441,701,0,0,0,0,0,0,0,0,0,-1,1665,323,0,0
448,701,0,0,0,0,0,0,0,0,0,-1,1672,323,0,0
455,701,0,0,0,0,0,0,0,0,0,-1,1679,323,0,0
462,701,0,0,0,0,0,0,0,0,0,-1,1686,323,0,0
469,701,0,0,0,0,0,0,0,0,0,-1,1693,323,0,0
476,701,0,0,0,0,0,0,0,0,0,-1,1700,323,0,0
483,701,0,0,0,0,0,0,0,0,0,-1,1707,323,0,0
490,701,0,0,0,0,0,0,0,0,0,-1,1714,323,0,0
497,701,0,0,0,0,0,0,0,0,0,-1,1721,323,0,0
504,701,0,0,0,0,0,0,0,0,0,-1,1728,323,0,0
511,701,0,0,0,0,0,0,0,0,0,-1,1735,323,0,0
518,701,0,0,0,0,0,0,0,0,0,-1,1742,323,0,0
525,701,0,0,0,0,0,0,0,0,0,-1,1749,323,0,0
532,701,0,0,0,0,0,0,0,0,0,-1,1756,323,0,0
539,701,0,0,0,0,0,0,0,0,0,-1,1763,323,0,0
546,701,0,0,0,0,0,0,0,0,0,-1,1770,323,0,0
553,701,0,0,0,0,0,0,0,0,0,-1,1777,323,0,0
560,701,0,0,0,0,0,0,0,0,0,-1,1784,323,0,0
567,701,0,0,0,0,0,0,0,0,0,-1,1791,323,0,0
574,701,0,0,0,0,0,0,0,0,0,-1,1798,323,0,0
581,701,0,0,0,0,0,0,0,0,0,-1,1805,323,0,0
588,701,0,0,0,0,0,0,0,0,0,-1,1812,323,0,0
595,701,0,0,0,0,0,0,0,0,0,-1,1819,323,0,0
602,701,0,0,0,0,0,0,0,0,0,-1,1826,323,0,0
609,701,0,0,0,0,0,0,0,0,0,-1,1833,323,0,0
616,701,0,0,0,0,0,0,0,0,0,-1,1840,323,0,0
623,701,0,0,0,0,0,0,0,0,0,-1,1847,323,0,0
630,701,0,0,0,0,0,0,0,0,0,-1,1854,323,0,0
637,701,0,0,0,0,0,0,0,0,0,-1,1861,323,0,0
644,701,0,0,0,0,0,0,0,0,0,-1,1868,323,0,0
651,701,0,0,0,0,0,0,0,0,0,-1,1875,323,0,0
658,701,0,0,0,0,0,0,0,0,0,-1,1882,323,0,0
665,701,0,0,0,0,0,0,0,0,0,-1,1889,323,0,0
672,701,0,0,0,0,0,0,0,0,0,-1,1896,323,0,0
679,701,0,0,0,0,0,0,0,0,0,-1,1903,323,0,0
686,701,0,0,0,0,0,0,0,0,0,-1,1910,323,0,0
693,701,0,0,0,0,0,0,0,0,0,-1,1917,323,0,0
700,701,0,0,0,0,0,0,0,0,0,-1,1924,323,0,0
707,701,0,0,0,0,0,0,0,0,0,-1,1931,323,0,0
714,701,0,0,0,0,0,0,0,0,0,-1,1938,323,0,0
721,701,0,0,0,0,0,0,0,0,0,-1,1945,323,0,0
728,701,0,0,0,0,0,0,0,0,0,-1,1952,323,0,0
735,701,0,0,0,0,0,0,0,0,0,-1,1959,323,0,0
742,701,0,0,0,0,0,0,0,0,0,-1,1966,323,0,0
749,701,0,0,0,0,0,0,0,0,0,-1,1973,323,0,0
756,701,0,0,0,0,0,0,0,0,0,-1,1980,323,0,0
763,701,0,0,0,0,0,0,0,0,0,-1,1987,323,0,0
770,701,0,0,0,0,0,0,0,0,0,-1,1994,323,0,0
777,701,0,0,0,0,0,0,0,0,0,-1,2001,323,0,0
784,701,0,0,0,0,0,0,0,0,0,-1,2008,323,0,0
791,701,0,0,0,0,0,0,0,0,0,-1,2015,323,0,0
798,701,0,0,0,0,0,0,0,0,0,-1,2022,323,0,0
805,701,0,0,0,0,0,0,0,0,0,-1,2029,323,0,0
812,701,0,0,0,0,0,0,0,0,0,-1,2036,323,0,0
-700,694,0,0,0,0,0,0,0,0,0,-1,524,330,0,0
-693,694,0,0,0,0,0,0,0,0,0,-1,531,330,0,0
-686,694,0,0,0,0,0,0,0,0,0,-1,538,330,0,0
-679,694,0,0,0,0,0,0,0,0,0,-1,545,330,0,0
-672,694,0,0,0,0,0,0,0,0,0,-1,552,330,0,0
-665,694,0,0,0,0,0,0,0,0,0,-1,559,330,0,0
-658,694,0,0,0,0,0,0,0,0,0,-1,566,330,0,0
-651,694,0,0,0,0,0,0,0,0,0,-1,573,330,0,0
-644,694,0,0,0,0,0,0,0,0,0,-1,580,330,0,0
-637,694,0,0,0,0,0,0,0,0,0,-1,587,330,0,0
-630,694,0,0,0,0,0,0,0,0,0,-1,594,330,0,0
-623,694,0,0,0,0,0,0,0,0,0,-1,601,330,0,0
-616,694,0,0,0,0,0,0,0,0,0,-1,608,330,0,0
-609,694,0,0,0,0,0,0,0,0,0,-1,615,330,0,0
-602,694,0,0,0,0,0,0,0,0,0,-1,622,330,0,0
-595,694,0,0,0,0,0,0,0,0,0,-1,629,330,0,0
-588,694,0,0,0,0,0,0,0,0,0,-1,636,330,0,0
-581,694,0,0,0,0,0,0,0,0,0,-1,643,330,0,0
-574,694,0,0,0,0,0,0,0,0,0,-1,650,330,0,0
-567,694,0,0,0,0,0,0,0,0,0,-1,657,330,0,0
-560,694,0,0,0,0,0,0,0,0,0,-1,664,330,0,0
-553,694,0,0,0,0,0,0,0,0,0,-1,671,330,0,0
-546,694,0,0,0,0,0,0,0,0,0,-1,678,330,0,0
-539,694,0,0,0,0,0,0,0,0,0,-1,685,330,0,0
-532,694,0,0,0,0,0,0,0,0,0,-1,692,330,0,0
-525,694,0,0,0,0,0,0,0,0,0,-1,699,330,0,0
-518,694,0,0,0,0,0,0,0,0,0,-1,706,330,0,0
-511,694,0,0,0,0,0,0,0,0,0,-1,713,330,0,0
-504,694,0,0,0,0,0,0,0,0,0,-1,720,330,0,0
-497,694,0,0,0,0,0,0,0,0,0,-1,727,330,0,0
-490,694,0,0,0,0,0,0,0,0,0,-1,734,330,0,0
-483,694,0,0,0,0,0,0,0,0,0,-1,741,330,0,0
-476,694,0,0,0,0,0,0,0,0,0,-1,748,330,0,0
-469,694,0,0,0,0,0,0,0,0,0,-1,755,330,0,0
-462,694,0,0,0,0,0,0,0,0,0,-1,762,330,0,0
-455,694,0,0,0,0,0,0,0,0,0,-1,769,330,0,0
-448,694,0,0,0,0,0,0,0,0,0,-1,776,330,0,0
-441,694,0,0,0,0,0,0,0,0,0,-1,783,330,0,0
-434,694,0,0,0,0,0,0,0,0,0,-1,790,330,0,0
-427,694,0,0,0,0,0,0,0,0,0,-1,797,330,0,0
-420,694,0,0,0,0,0,0,0,0,0,-1,804,330,0,0
-413,694,0,0,0,0,0,0,0,0,0,-1,811,330,0,0
-406,694,0,0,0,0,0,0,0,0,0,-1,818,330,0,0
-399,694,0,0,0,0,0,0,0,0,0,-1,825,330,0,0
-392,694,0,0,0,0,0,0,0,0,0,-1,832,330,0,0
-385,694,0,0,0,0,0,0,0,0,0,-1,839,330,0,0
-378,694,0,0,0,0,0,0,0,0,0,-1,846,330,0,0
-371,694,0,0,0,0,0,0,0,0,0,-1,853,330,0,0
-364,694,0,0,0,0,0,0,0,0,0,-1,860,330,0,0
-357,694,0,0,0,0,0,0,0,0,0,-1,867,330,0,0
-350,694,0,0,0,0,0,0,0,0,0,-1,874,330,0,0
-343,694,0,0,0,0,0,0,0,0,0,-1,881,330,0,0
-336,694,0,0,0,0,0,0,0,0,0,-1,888,330,0,0
-329,694,0,0,0,0,0,0,0,0,0,-1,895,330,0,0
-322,694,0,0,0,0,0,0,0,0,0,-1,902,330,0,0
-315,694,0,0,0,0,0,0,0,0,0,-1,909,330,0,0
-308,694,0,0,0,0,0,0,0,0,0,-1,916,330,0,0
-301,694,0,0,0,0,0,0,0,0,0,-1,923,330,0,0
-294,694,0,0,0,0,0,0,0,0,0,-1,930,330,0,0
-287,694,0,0,0,0,0,0,0,0,0,-1,937,330,0,0
-280,694,0,0,0,0,0,0,0,0,0,-1,944,330,0,0
-273,694,0,0,0,0,0,0,0,0,0,-1,951,330,0,0
-266,694,0,0,0,0,0,0,0,0,0,-1,958,330,0,0
-259,694,0,0,0,0,0,0,0,0,0,-1,965,330,0,0
-252,694,0,0,0,0,0,0,0,0,0,-1,972,330,0,0
-245,694,0,0,0,0,0,0,0,0,0,-1,979,330,0,0
-238,694,0,0,0,0,0,0,0,0,0,-1,986,330,0,0
-231,694,0,0,0,0,0,0,0,0,0,-1,993,330,0,0
-224,694,0,0,0,0,0,0,0,0,0,-1,1000,330,0,0
-217,694,0,0,0,0,0,0,0,0,0,-1,1007,330,0,0
-210,694,0,0,0,0,0,0,0,0,0,-1,1014,330,0,0
-203,694,0,0,0,0,0,0,0,0,0,-1,1021,330,0,0
-196,694,0,0,0,0,0,0,0,0,0,-1,1028,330,0,0
-189,694,0,0,0,0,0,0,0,0,0,-1,1035,330,0,0
-182,694,0,0,0,0,0,0,0,0,0,-1,1042,330,0,0
-175,694,0,0,0,0,0,0,0,0,0,-1,1049,330,0,0
-168,694,0,0,0,0,0,0,0,0,0,-1,1056,330,0,0
-161,694,0,0,0,0,0,0,0,0,0,-1,1063,330,0,0
-154,694,0,0,0,0,0,0,0,0,0,-1,1070,330,0,0
-147,694,0,0,0,0,0,0,0,0,0,-1,1077,330,0,0
-140,694,0,0,0,0,0,0,0,0,0,-1,1084,330,0,0
-133,694,0,0,0,0,0,0,0,0,0,-1,1091,330,0,0
-126,694,0,0,0,0,0,0,0,0,0,-1,1098,330,0,0
-119,694,0,0,0,0,0,0,0,0,0,-1,1105,330,0,0
-112,694,0,0,0,0,0,0,0,0,0,-1,1112,330,0,0
-105,694,2.5188,-19.3963,0,0,0,0,0,0,0,-1,1119,330,2.51882,19.3963
-98,694,1.34875,-10.1051,0,0,0,0,0,0,0,-1,1126,330,1.34874,10.1051
-91,694,7.12927,-43.3935,0,0,0,0,0,0,0,-1,1133,330,7.12929,43.3935
-84,694,0.937744,-38.53,0,0,0,0,0,0,0,-1,1140,330,0.937727,38.53
-77,694,-5.51379,-31.2714,0,0,0,0,0,0,0,-1,1147,330,-5.51383,31.2714
-70,694,-11.9945,-25.5143,0,0,0,0,0,0,0,-1,1154,330,-11.9945,25.5143
-63,694,-18.4752,-19.7572,0,0,0,0,0,0,0,-1,1161,330,-18.4752,19.7572
-56,694,-6.50623,-0.649139,0,0,0,0,0,0,0,-1,1168,330,-6.5062,0.649126
-49,694,-1.11426,0.0341797,0,0,0,0,0,0,0,-1,1175,330,-1.11424,-0.0341846
-42,694,-0.346313,-0.709595,0,0,0,0,0,0,0,-1,1182,330,-0.346298,0.709581
-35,694,-0.459106,-1.24713,0,0,0,0,0,0,0,-1,1189,330,-0.459142,1.24714
-28,694,-6.48413,-3.95972,0,0,0,0,0,0,0,-1,1196,330,-6.48414,3.9597
-21,694,5.24939,-32.4167,0,0,0,0,0,0,0,-1,1203,330,5.24945,32.4167
-14,694,5.77356,-35.9352,0,0,0,0,0,0,0,-1,1210,330,5.77353,35.9352
-7,694,6.68774,-36.6973,0.0369011,0.0255127,0.0112173,0.0437867,0.0186271,0.550534,0.0253739,0.0450389,1217,330,6.68779,36.6973
0,694,7.5415,-37.2365,0.02109,0.0362249,0.0170287,0.047292,0.010023,0.994489,0.0287749,0.047409,1224,330,7.54151,37.2365
7,694,8.53748,-37.7909,0,0,0,0,0,0,0,-1,1231,330,8.53744,37.7909
14,694,6.42334,-35.106,-0.00142037,0.054154,0.0241117,0.0631568,-0.0104232,1.21345,0.0459745,0.0444502,1238,330,6.42329,35.1061
21,694,6.5011,-35.1091,-0.00861785,0.0613096,0.0250508,0.0693576,-0.0166658,1.25995,0.0526798,0.04675,1245,330,6.5011,35.1091
28,694,6.23035,-34.959,-0.0123835,0.0670131,0.0233522,0.0733722,-0.0187425,1.30493,0.0562136,0.0483207,1252,330,6.23029,34.959
35,694,4.36108,-34.5449,0,0,0,0,0,0,0,-1,1259,330,4.3611,34.5449
42,694,4.89758,-34.8994,-0.0148633,0.0764727,0.0171574,0.0795894,-0.0179799,1.3911,0.0599583,0.0470758,1266,330,4.89761,34.8995
49,694,5.13477,-35.3849,-0.0148458,0.0819996,0.0125555,0.0836009,-0.016447,1.44395,0.0619483,0.0470241,1273,330,5.13478,35.385
56,694,5.19055,-35.8775,-0.0124777,0.0853806,0.00611379,0.0857611,-0.0128582,1.50864,0.0619068,0.0468847,1280,330,5.19058,35.8775
63,694,5.37451,-36.4547,0,0,0,0,0,0,0,-1,1287,330,5.37448,36.4547
70,694,5.6449,-37.0464,0.011042,0.0776231,-0.00379538,0.0778388,0.0108264,-1.51404,0.0486866,0.0434472,1294,330,5.64494,37.0464
77,694,5.85706,-37.6042,0.0218103,0.0772831,-0.00963557,0.0789091,0.0201843,-1.40362,0.0473349,0.0473937,1301,330,5.85706,37.6042
84,694,6.05457,-38.1649,0,0,0,0,0,0,0,-1,1308,330,6.05455,38.1649
91,694,5.18005,-34.0519,0.0528527,0.0681798,-0.00525118,0.0698063,0.0512262,-1.27043,0.041746,0.0483208,1315,330,5.18008,34.0519
98,694,4.87549,-34.3684,0.0692125,0.0613579,-0.00255524,0.0699706,0.0605998,-0.288409,0.0438585,0.045764,1322,330,4.87548,34.3684
105,694,6.69824,-39.8859,0,0,0,0,0,0,0,-1,1329,330,6.69827,39.8859
112,694,4.05579,-35.6586,0.103417,0.0511578,0.0143071,0.107078,0.0474973,0.250477,0.0619524,0.0420803,1336,330,4.05575,35.6586
119,694,7.19934,-42.9158,0.121777,0.0456679,0.0266173,0.130162,0.037283,0.305178,0.0774005,0.0437619,1343,330,7.19934,42.9158
126,694,7.4353,-44.0822,0.138953,0.0412398,0.042818,0.15506,0.0251321,0.359813,0.0960979,0.0458503,1350,330,7.43524,44.0822
133,694,7.70239,-45.2705,0.156152,0.0394388,0.0610696,0.182264,0.0133266,0.404055,0.11732,0.045334,1357,330,7.70245,45.2705
140,694,4.80127,-34.3572,0.171204,0.0416389,0.0785638,0.20825,0.00459294,0.440622,0.137328,0.049198,1364,330,4.80121,34.3573
147,694,4.41223,-34.072,0,0,0,0,0,0,0,-1,1371,330,4.41229,34.072
154,694,2.94763,-32.0768,0,0,0,0,0,0,0,-1,1378,330,2.94761,32.0767
161,694,2.71069,-31.7711,0,0,0,0,0,0,0,-1,1385,330,2.71067,31.7711
168,694,30.451,0.196686,0,0,0,0,0,0,0,-1,1392,330,30.4511,-0.196674
175,694,31.0701,0.869873,0,0,0,0,0,0,0,-1,1399,330,31.07,-0.869874
182,694,8.29028,5.75238,0,0,0,0,0,0,0,-1,1406,330,8.29034,-5.75237
189,694,7.9801,4.46118,0,0,0,0,0,0,0,-1,1413,330,7.9801,-4.46118
196,694,7.39331,3.32632,0,0,0,0,0,0,0,-1,1420,330,7.39329,-3.32633
203,694,7.04492,2.20529,0,0,0,0,0,0,0,-1,1427,330,7.04496,-2.20529
210,694,6.44714,0.646912,0,0,0,0,0,0,0,-1,1434,330,6.44717,-0.646903
217,694,7.12061,-0.644958,0,0,0,0,0,0,0,-1,1441,330,7.12059,0.644961
224,694,6.74011,-1.70544,0,0,0,0,0,0,0,-1,1448,330,6.74013,1.70546
231,694,0,0,0,0,0,0,0,0,0,-1,1455,330,0,0
238,694,0,0,0,0,0,0,0,0,0,-1,1462,330,0,0
245,694,0,0,0,0,0,0,0,0,0,-1,1469,330,0,0
252,694,0,0,0,0,0,0,0,0,0,-1,1476,330,0,0
259,694,0,0,0,0,0,0,0,0,0,-1,1483,330,0,0
266,694,0,0,0,0,0,0,0,0,0,-1,1490,330,0,0
273,694,0,0,0,0,0,0,0,0,0,-1,1497,330,0,0
280,694,0,0,0,0,0,0,0,0,0,-1,1504,330,0,0
287,694,0,0,0,0,0,0,0,0,0,-1,1511,330,0,0
294,694,0,0,0,0,0,0,0,0,0,-1,1518,330,0,0
301,694,0,0,0,0,0,0,0,0,0,-1,1525,330,0,0
308,694,0,0,0,0,0,0,0,0,0,-1,1532,330,0,0
315,694,0,0,0,0,0,0,0,0,0,-1,1539,330,0,0
322,694,0,0,0,0,0,0,0,0,0,-1,1546,330,0,0
329,694,0,0,0,0,0,0,0,0,0,-1,1553,330,0,0
336,694,0,0,0,0,0,0,0,0,0,-1,1560,330,0,0
343,694,0,0,0,0,0,0,0,0,0,-1,1567,330,0,0
350,694,0,0,0,0,0,0,0,0,0,-1,1574,330,0,0
357,694,0,0,0,0,0,0,0,0,0,-1,1581,330,0,0
364,694,0,0,0,0,0,0,0,0,0,-1,1588,330,0,0
371,694,0,0,0,0,0,0,0,0,0,-1,1595,330,0,0
378,694,0,0,0,0,0,0,0,0,0,-1,1602,330,0,0
385,694,0,0,0,0,0,0,0,0,0,-1,1609,330,0,0
392,694,0,0,0,0,0,0,0,0,0,-1,1616,330,0,0
399,694,0,0,0,0,0,0,0,0,0,-1,1623,330,0,0
406,694,0,0,0,0,0,0,0,0,0,-1,1630,330,0,0
413,694,0,0,0,0,0,0,0,0,0,-1,1637,330,0,0
420,694,0,0,0,0,0,0,0,0,0,-1,1644,330,0,0
427,694,0,0,0,0,0,0,0,0,0,-1,1651,330,0,0
434,694,0,0,0,0,0,0,0,0,0,-1,1658,330,0,0
441,694,0,0,0,0,0,0,0,0,0,-1,1665,330,0,0
448,694,0,0,0,0,0,0,0,0,0,-1,1672,330,0,0
455,694,0,0,0,0,0,0,0,0,0,-1,1679,330,0,0
462,694,0,0,0,0,0,0,0,0,0,-1,1686,330,0,0
469,694,0,0,0,0,0,0,0,0,0,-1,1693,330,0,0
476,694,0,0,0,0,0,0,0,0,0,-1,1700,330,0,0
483,694,0,0,0,0,0,0,0,0,0,-1,1707,330,0,0
490,694,0,0,0,0,0,0,0,0,0,-1,1714,330,0,0
497,694,0,0,0,0,0,0,0,0,0,-1,1721,330,0,0
504,694,0,0,0,0,0,0,0,0,0,-1,1728,330,0,0
511,694,0,0,0,0,0,0,0,0,0,-1,1735,330,0,0
518,694,0,0,0,0,0,0,0,0,0,-1,1742,330,0,0
525,694,0,0,0,0,0,0,0,0,0,-1,1749,330,0,0
532,694,0,0,0,0,0,0,0,0,0,-1,1756,330,0,0
539,694,0,0,0,0,0,0,0,0,0,-1,1763,330,0,0
546,694,0,0,0,0,0,0,0,0,0,-1,1770,330,0,0
553,694,0,0,0,0,0,0,0,0,0,-1,1777,330,0,0
560,694,0,0,0,0,0,0,0,0,0,-1,1784,330,0,0
567,694,0,0,0,0,0,0,0,0,0,-1,1791,330,0,0
574,694,0,0,0,0,0,0,0,0,0,-1,1798,330,0,0
581,694,0,0,0,0,0,0,0,0,0,-1,1805,330,0,0
588,694,0,0,0,0,0,0,0,0,0,-1,1812,330,0,0
595,694,0,0,0,0,0,0,0,0,0,-1,1819,330,0,0
602,694,0,0,0,0,0,0,0,0,0,-1,1826,330,0,0
609,694,0,0,0,0,0,0,0,0,0,-1,1833,330,0,0
616,694,0,0,0,0,0,0,0,0,0,-1,1840,330,0,0
623,694,0,0,0,0,0,0,0,0,0,-1,1847,330,0,0
630,694,0,0,0,0,0,0,0,0,0,-1,1854,330,0,0
637,694,0,0,0,0,0,0,0,0,0,-1,1861,330,0,0
644,694,0,0,0,0,0,0,0,0,0,-1,1868,330,0,0
651,694,0,0,0,0,0,0,0,0,0,-1,1875,330,0,0
658,694,0,0,0,0,0,0,0,0,0,-1,1882,330,0,0
665,694,0,0,0,0,0,0,0,0,0,-1,1889,330,0,0
672,694,0,0,0,0,0,0,0,0,0,-1,1896,330,0,0
679,694,0,0,0,0,0,0,0,0,0,-1,1903,330,0,0
686,694,0,0,0,0,0,0,0,0,0,-1,1910,330,0,0
693,694,0,0,0,0,0,0,0,0,0,-1,1917,330,0,0
700,694,0,0,0,0,0,0,0,0,0,-1,1924,330,0,0
707,694,0,0,0,0,0,0,0,0,0,-1,1931,330,0,0
714,694,0,0,0,0,0,0,0,0,0,-1,1938,330,0,0
721,694,0,0,0,0,0,0,0,0,0,-1,1945,330,0,0
728,694,0,0,0,0,0,0,0,0,0,-1,1952,330,0,0
735,694,0,0,0,0,0,0,0,0,0,-1,1959,330,0,0
742,694,0,0,0,0,0,0,0,0,0,-1,1966,330,0,0
749,694,0,0,0,0,0,0,0,0,0,-1,1973,330,0,0
756,694,0,0,0,0,0,0,0,0,0,-1,1980,330,0,0
763,694,0,0,0,0,0,0,0,0,0,-1,1987,330,0,0
770,694,0,0,0,0,0,0,0,0,0,-1,1994,330,0,0
777,694,0,0,0,0,0,0,0,0,0,-1,2001,330,0,0
784,694,0,0,0,0,0,0,0,0,0,-1,2008,330,0,0
791,694,0,0,0,0,0,0,0,0,0,-1,2015,330,0,0
798,694,0,0,0,0,0,0,0,0,0,-1,2022,330,0,0
805,694,0,0,0,0,0,0,0,0,0,-1,2029,330,0,0
812,694,0,0,0,0,0,0,0,0,0,-1,2036,330,0,0
-700,687,0,0,0,0,0,0,0,0,0,-1,524,337,0,0
-693,687,0,0,0,0,0,0,0,0,0,-1,531,337,0,0
-686,687,0,0,0,0,0,0,0,0,0,-1,538,337,0,0
-679,687,0,0,0,0,0,0,0,0,0,-1,545,337,0,0
-672,687,0,0,0,0,0,0,0,0,0,-1,552,337,0,0
-665,687,0,0,0,0,0,0,0,0,0,-1,559,337,0,0
-658,687,0,0,0,0,0,0,0,0,0,-1,566,337,0,0
-651,687,0,0,0,0,0,0,0,0,0,-1,573,337,0,0
-644,687,0,0,0,0,0,0,0,0,0,-1,580,337,0,0
-637,687,0,0,0,0,0,0,0,0,0,-1,587,337,0,0
-630,687,0,0,0,0,0,0,0,0,0,-1,594,337,0,0
-623,687,0,0,0,0,0,0,0,0,0,-1,601,337,0,0
-616,687,0,0,0,0,0,0,0,0,0,-1,608,337,0,0
-609,687,0,0,0,0,0,0,0,0,0,-1,615,337,0,0
-602,687,0,0,0,0,0,0,0,0,0,-1,622,337,0,0
-595,687,0,0,0,0,0,0,0,0,0,-1,629,337,0,0
-588,687,0,0,0,0,0,0,0,0,0,-1,636,337,0,0
-581,687,0,0,0,0,0,0,0,0,0,-1,643,337,0,0
-574,687,0,0,0,0,0,0,0,0,0,-1,650,337,0,0
-567,687,0,0,0,0,0,0,0,0,0,-1,657,337,0,0
-560,687,0,0,0,0,0,0,0,0,0,-1,664,337,0,0
-553,687,0,0,0,0,0,0,0,0,0,-1,671,337,0,0
-546,687,0,0,0,0,0,0,0,0,0,-1,678,337,0,0
-539,687,0,0,0,0,0,0,0,0,0,-1,685,337,0,0
-532,687,0,0,0,0,0,0,0,0,0,-1,692,337,0,0
-525,687,0,0,0,0,0,0,0,0,0,-1,699,337,0,0
-518,687,0,0,0,0,0,0,0,0,0,-1,706,337,0,0
-511,687,0,0,0,0,0,0,0,0,0,-1,713,337,0,0
-504,687,0,0,0,0,0,0,0,0,0,-1,720,337,0,0
-497,687,0,0,0,0,0,0,0,0,0,-1,727,337,0,0
-490,687,0,0,0,0,0,0,0,0,0,-1,734,337,0,0
-483,687,0,0,0,0,0,0,0,0,0,-1,741,337,0,0
-476,687,0,0,0,0,0,0,0,0,0,-1,748,337,0,0
-469,687,0,0,0,0,0,0,0,0,0,-1,755,337,0,0
-462,687,0,0,0,0,0,0,0,0,0,-1,762,337,0,0
-455,687,0,0,0,0,0,0,0,0,0,-1,769,337,0,0
-448,687,0,0,0,0,0,0,0,0,0,-1,776,337,0,0
-441,687,0,0,0,0,0,0,0,0,0,-1,783,337,0,0
-434,687,0,0,0,0,0,0,0,0,0,-1,790,337,0,0
-427,687,0,0,0,0,0,0,0,0,0,-1,797,337,0,0
-420,687,0,0,0,0,0,0,0,0,0,-1,804,337,0,0
-413,687,0,0,0,0,0,0,0,0,0,-1,811,337,0,0
-406,687,0,0,0,0,0,0,0,0,0,-1,818,337,0,0
-399,687,0,0,0,0,0,0,0,0,0,-1,825,337,0,0
-392,687,0,0,0,0,0,0,0,0,0,-1,832,337,0,0
-385,687,0,0,0,0,0,0,0,0,0,-1,839,337,0,0
-378,687,0,0,0,0,0,0,0,0,0,-1,846,337,0,0
-371,687,0,0,0,0,0,0,0,0,0,-1,853,337,0,0
-364,687,0,0,0,0,0,0,0,0,0,-1,860,337,0,0
-357,687,0,0,0,0,0,0,0,0,0,-1,867,337,0,0
-350,687,0,0,0,0,0,0,0,0,0,-1,874,337,0,0
-343,687,0,0,0,0,0,0,0,0,0,-1,881,337,0,0
-336,687,0,0,0,0,0,0,0,0,0,-1,888,337,0,0
-329,687,0,0,0,0,0,0,0,0,0,-1,895,337,0,0
-322,687,0,0,0,0,0,0,0,0,0,-1,902,337,0,0
-315,687,0,0,0,0,0,0,0,0,0,-1,909,337,0,0
-308,687,0,0,0,0,0,0,0,0,0,-1,916,337,0,0
-301,687,0,0,0,0,0,0,0,0,0,-1,923,337,0,0
-294,687,0,0,0,0,0,0,0,0,0,-1,930,337,0,0
-287,687,0,0,0,0,0,0,0,0,0,-1,937,337,0,0
-280,687,0,0,0,0,0,0,0,0,0,-1,944,337,0,0
-273,687,0,0,0,0,0,0,0,0,0,-1,951,337,0,0
-266,687,0,0,0,0,0,0,0,0,0,-1,958,337,0,0
-259,687,0,0,0,0,0,0,0,0,0,-1,965,337,0,0
-252,687,0,0,0,0,0,0,0,0,0,-1,972,337,0,0
-245,687,0,0,0,0,0,0,0,0,0,-1,979,337,0,0
-238,687,0,0,0,0,0,0,0,0,0,-1,986,337,0,0
-231,687,0,0,0,0,0,0,0,0,0,-1,993,337,0,0
-224,687,0,0,0,0,0,0,0,0,0,-1,1000,337,0,0
-217,687,0,0,0,0,0,0,0,0,0,-1,1007,337,0,0
-210,687,0,0,0,0,0,0,0,0,0,-1,1014,337,0,0
-203,687,0,0,0,0,0,0,0,0,0,-1,1021,337,0,0
-196,687,0,0,0,0,0,0,0,0,0,-1,1028,337,0,0
-189,687,0,0,0,0,0,0,0,0,0,-1,1035,337,0,0
-182,687,0,0,0,0,0,0,0,0,0,-1,1042,337,0,0
-175,687,0,0,0,0,0,0,0,0,0,-1,1049,337,0,0
-168,687,0,0,0,0,0,0,0,0,0,-1,1056,337,0,0
-161,687,0,0,0,0,0,0,0,0,0,-1,1063,337,0,0
-154,687,0,0,0,0,0,0,0,0,0,-1,1070,337,0,0
-147,687,0,0,0,0,0,0,0,0,0,-1,1077,337,0,0
-140,687,0,0,0,0,0,0,0,0,0,-1,1084,337,0,0
-133,687,6.84326,-32.093,0,0,0,0,0,0,0,-1,1091,337,6.84323,32.093
-126,687,5.5741,-31.6367,0,0,0,0,0,0,0,-1,1098,337,5.57406,31.6367
-119,687,4.27832,-31.2111,-0.186193,0.0136011,0.0357756,0.019814,-0.192406,1.39885,0.13536,0.0428535,1105,337,4.27837,31.2111
-112,687,2.78003,-30.5394,0,0,0,0,0,0,0,-1,1112,337,2.77999,30.5394
-105,687,1.3208,-29.8313,0,0,0,0,0,0,0,-1,1119,337,1.3208,29.8313
-98,687,13.5825,-44.6227,0,0,0,0,0,0,0,-1,1126,337,13.5825,44.6227
-91,687,7.80652,-40.6695,0,0,0,0,0,0,0,-1,1133,337,7.80654,40.6695
-84,687,1.58215,-34.1306,0,0,0,0,0,0,0,-1,1140,337,1.58212,34.1306
-77,687,-4.80347,-26.8918,0,0,0,0,0,0,0,-1,1147,337,-4.80345,26.8918
-70,687,-11.2395,-20.8942,0,0,0,0,0,0,0,-1,1154,337,-11.2395,20.8942
-63,687,-17.6757,-14.8966,0,0,0,0,0,0,0,-1,1161,337,-17.6756,14.8966
-56,687,-18.104,7.81931,0,0,0,0,0,0,0,-1,1168,337,-18.104,-7.81931
-49,687,-15.6449,-9.94391,0,0,0,0,0,0,0,-1,1175,337,-15.6449,9.94392
-42,687,-4.2019,-0.405609,0,0,0,0,0,0,0,-1,1182,337,-4.20192,0.405614
-35,687,-4.42273,-0.688171,0,0,0,0,0,0,0,-1,1189,337,-4.42276,0.688178
-28,687,-1.14038,-1.39072,0,0,0,0,0,0,0,-1,1196,337,-1.14035,1.3907
-21,687,4.58118,-35.0225,0,0,0,0,0,0,0,-1,1203,337,4.58121,35.0225
-14,687,5.59265,-35.7184,0.0395582,0.0182107,0.00184397,0.0397163,0.0180526,0.0855345,0.0229618,0.0470474,1210,337,5.59261,35.7184
-7,687,6.57275,-36.427,0.0273754,0.0275778,0.00774876,0.035226,0.0197272,0.791928,0.0203865,0.0435433,1217,337,6.5727,36.427
0,687,7.5238,-37.0419,0.0160131,0.0355499,0.011638,0.0409757,0.0105873,1.13454,0.0245608,0.0494901,1224,337,7.52382,37.0419
7,687,8.56348,-37.672,0,0,0,0,0,0,0,-1,1231,337,8.56352,37.672
14,687,6.10962,-35.8069,-0.000848215,0.0492795,0.0169206,0.0544564,-0.00602513,1.27389,0.0384703,0.0452571,1238,337,6.10958,35.8069
21,687,5.95508,-35.8208,-0.00648658,0.0549663,0.0176988,0.0596992,-0.0112194,1.3095,0.0440185,0.0474763,1245,337,5.9551,35.8208
28,687,5.73755,-35.6447,-0.00962202,0.0596069,0.016547,0.0633586,-0.0133737,1.34783,0.047331,0.0483223,1252,337,5.7376,35.6447
35,687,4.97998,-34.987,-0.0111395,0.0634098,0.0148695,0.0662662,-0.0139959,1.38101,0.0495067,0.0464924,1259,337,4.97994,34.987
42,687,4.8855,-35.286,-0.0122952,0.0675398,0.0123146,0.0693961,-0.0141516,1.42118,0.0516318,0.0477206,1266,337,4.8855,35.286
49,687,4.97986,-35.8659,-0.0128548,0.0723113,0.00907068,0.0732666,-0.0138102,1.46586,0.0540393,0.0464657,1273,337,4.97985,35.866
56,687,5.11572,-36.1694,-0.0114863,0.0753205,0.00445667,0.0755487,-0.0117145,1.51964,0.0546904,0.0461245,1280,337,5.11568,36.1694
63,687,5.16101,-36.4703,0,0,0,0,0,0,0,-1,1287,337,5.16098,36.4703
70,687,5.07483,-35.3351,0,0,0,0,0,0,0,-1,1294,337,5.07482,35.3352
77,687,6.10217,-38.1878,0,0,0,0,0,0,0,-1,1301,337,6.10215,38.1878
84,687,4.87,-34.9984,0,0,0,0,0,0,0,-1,1308,337,4.86997,34.9984
91,687,5.35181,-35.5628,0.0399996,0.0609969,-0.00188063,0.061164,0.0398325,-1.48217,0.0358475,0.047207,1315,337,5.35181,35.5628
98,687,4.56177,-35.6331,0.0525698,0.0555331,0.00104888,0.0558668,0.0522361,1.26278,0.0360952,0.0499724,1322,337,4.56182,35.6331
105,687,4.28784,-35.9818,0,0,0,0,0,0,0,-1,1329,337,4.28786,35.9818
112,687,3.83911,-36.3266,0.0783706,0.0471173,0.0150909,0.0844678,0.0410201,0.383979,0.0487742,0.0439851,1336,337,3.83917,36.3266
119,687,2.91565,-36.6568,0.0915823,0.0425453,0.024673,0.101848,0.03228,0.394269,0.060101,0.0409207,1343,337,2.91569,36.6568
126,687,7.91504,-45.2318,0,0,0,0,0,0,0,-1,1350,337,7.91506,45.2318
133,687,5.11865,-34.9813,0.11528,0.0371816,0.0498029,0.139517,0.0129443,0.452922,0.0890107,0.0463081,1357,337,5.11862,34.9813
140,687,4.64783,-34.7184,0.124568,0.0383437,0.0615553,0.156607,0.00630467,0.479906,0.102368,0.0499909,1364,337,4.64782,34.7184
147,687,4.26709,-34.4255,0,0,0,0,0,0,0,-1,1371,337,4.26708,34.4255
154,687,5.39526,-32.6595,0,0,0,0,0,0,0,-1,1378,337,5.39527,32.6595
161,687,29.3895,-1.90628,0,0,0,0,0,0,0,-1,1385,337,29.3895,1.90628
168,687,29.8564,-1.19434,0,0,0,0,0,0,0,-1,1392,337,29.8564,1.19434
175,687,30.3419,-0.453583,0,0,0,0,0,0,0,-1,1399,337,30.3419,0.45357
182,687,6.67249,0.289917,0,0,0,0,0,0,0,-1,1406,337,6.67247,-0.289916
189,687,7.76062,4.53635,0,0,0,0,0,0,0,-1,1413,337,7.76064,-4.53636
196,687,6.99048,3.2966,0,0,0,0,0,0,0,-1,1420,337,6.99046,-3.2966
203,687,6.36499,2.1445,0,0,0,0,0,0,0,-1,1427,337,6.36499,-2.14451
210,687,6.68066,0.674652,0,0,0,0,0,0,0,-1,1434,337,6.68062,-0.674655
217,687,5.99683,-0.630493,0,0,0,0,0,0,0,-1,1441,337,5.99684,0.630497
224,687,5.52917,0.524902,0,0,0,0,0,0,0,-1,1448,337,5.5292,-0.524915
231,687,5.85583,-1.73651,0,0,0,0,0,0,0,-1,1455,337,5.85577,1.73651
238,687,5.96582,-2.96774,0,0,0,0,0,0,0,-1,1462,337,5.96577,2.96773
245,687,1.28259,2.32211,0,0,0,0,0,0,0,-1,1469,337,1.28258,-2.32211
252,687,1.97278,3.88422,0,0,0,0,0,0,0,-1,1476,337,1.97281,-3.88421
259,687,0,0,0,0,0,0,0,0,0,-1,1483,337,0,0
266,687,0,0,0,0,0,0,0,0,0,-1,1490,337,0,0
273,687,0,0,0,0,0,0,0,0,0,-1,1497,337,0,0
280,687,0,0,0,0,0,0,0,0,0,-1,1504,337,0,0
287,687,0,0,0,0,0,0,0,0,0,-1,1511,337,0,0
294,687,0,0,0,0,0,0,0,0,0,-1,1518,337,0,0
301,687,0,0,0,0,0,0,0,0,0,-1,1525,337,0,0
308,687,0,0,0,0,0,0,0,0,0,-1,1532,337,0,0
315,687,0,0,0,0,0,0,0,0,0,-1,1539,337,0,0
322,687,0,0,0,0,0,0,0,0,0,-1,1546,337,0,0
329,687,0,0,0,0,0,0,0,0,0,-1,1553,337,0,0
336,687,0,0,0,0,0,0,0,0,0,-1,1560,337,0,0
343,687,0,0,0,0,0,0,0,0,0,-1,1567,337,0,0
350,687,0,0,0,0,0,0,0,0,0,-1,1574,337,0,0
357,687,0,0,0,0,0,0,0,0,0,-1,1581,337,0,0
364,687,0,0,0,0,0,0,0,0,0,-1,1588,337,0,0
371,687,0,0,0,0,0,0,0,0,0,-1,1595,337,0,0
378,687,0,0,0,0,0,0,0,0,0,-1,1602,337,0,0
385,687,0,0,0,0,0,0,0,0,0,-1,1609,337,0,0
392,687,0,0,0,0,0,0,0,0,0,-1,1616,337,0,0
399,687,0,0,0,0,0,0,0,0,0,-1,1623,337,0,0
406,687,0,0,0,0,0,0,0,0,0,-1,1630,337,0,0
413,687,0,0,0,0,0,0,0,0,0,-1,1637,337,0,0
420,687,0,0,0,0,0,0,0,0,0,-1,1644,337,0,0
427,687,0,0,0,0,0,0,0,0,0,-1,1651,337,0,0
434,687,0,0,0,0,0,0,0,0,0,-1,1658,337,0,0
441,687,0,0,0,0,0,0,0,0,0,-1,1665,337,0,0
448,687,0,0,0,0,0,0,0,0,0,-1,1672,337,0,0
455,687,0,0,0,0,0,0,0,0,0,-1,1679,337,0,0
462,687,0,0,0,0,0,0,0,0,0,-1,1686,337,0,0
469,687,0,0,0,0,0,0,0,0,0,-1,1693,337,0,0
476,687,0,0,0,0,0,0,0,0,0,-1,1700,337,0,0
483,687,0,0,0,0,0,0,0,0,0,-1,1707,337,0,0
490,687,0,0,0,0,0,0,0,0,0,-1,1714,337,0,0
497,687,0,0,0,0,0,0,0,0,0,-1,1721,337,0,0
504,687,0,0,0,0,0,0,0,0,0,-1,1728,337,0,0
511,687,0,0,0,0,0,0,0,0,0,-1,1735,337,0,0
518,687,0,0,0,0,0,0,0,0,0,-1,1742,337,0,0
525,687,0,0,0,0,0,0,0,0,0,-1,1749,337,0,0
532,687,0,0,0,0,0,0,0,0,0,-1,1756,337,0,0
539,687,0,0,0,0,0,0,0,0,0,-1,1763,337,0,0
546,687,0,0,0,0,0,0,0,0,0,-1,1770,337,0,0
553,687,0,0,0,0,0,0,0,0,0,-1,1777,337,0,0
560,687,0,0,0,0,0,0,0,0,0,-1,1784,337,0,0
567,687,0,0,0,0,0,0,0,0,0,-1,1791,337,0,0
574,687,0,0,0,0,0,0,0,0,0,-1,1798,337,0,0
581,687,0,0,0,0,0,0,0,0,0,-1,1805,337,0,0
588,687,0,0,0,0,0,0,0,0,0,-1,1812,337,0,0
595,687,0,0,0,0,0,0,0,0,0,-1,1819,337,0,0
602,687,0,0,0,0,0,0,0,0,0,-1,1826,337,0,0
609,687,0,0,0,0,0,0,0,0,0,-1,1833,337,0,0
616,687,0,0,0,0,0,0,0,0,0,-1,1840,337,0,0
623,687,0,0,0,0,0,0,0,0,0,-1,1847,337,0,0
630,687,0,0,0,0,0,0,0,0,0,-1,1854,337,0,0
637,687,0,0,0,0,0,0,0,0,0,-1,1861,337,0,0
644,687,0,0,0,0,0,0,0,0,0,-1,1868,337,0,0
651,687,0,0,0,0,0,0,0,0,0,-1,1875,337,0,0
658,687,0,0,0,0,0,0,0,0,0,-1,1882,337,0,0
665,687,0,0,0,0,0,0,0,0,0,-1,1889,337,0,0
672,687,0,0,0,0,0,0,0,0,0,-1,1896,337,0,0
679,687,0,0,0,0,0,0,0,0,0,-1,1903,337,0,0
686,687,0,0,0,0,0,0,0,0,0,-1,1910,337,0,0
693,687,0,0,0,0,0,0,0,0,0,-1,1917,337,0,0
700,687,0,0,0,0,0,0,0,0,0,-1,1924,337,0,0
707,687,0,0,0,0,0,0,0,0,0,-1,1931,337,0,0
714,687,0,0,0,0,0,0,0,0,0,-1,1938,337,0,0
721,687,0,0,0,0,0,0,0,0,0,-1,1945,337,0,0
728,687,0,0,0,0,0,0,0,0,0,-1,1952,337,0,0
735,687,0,0,0,0,0,0,0,0,0,-1,1959,337,0,0
742,687,0,0,0,0,0,0,0,0,0,-1,1966,337,0,0
749,687,0,0,0,0,0,0,0,0,0,-1,1973,337,0,0
756,687,0,0,0,0,0,0,0,0,0,-1,1980,337,0,0
763,687,0,0,0,0,0,0,0,0,0,-1,1987,337,0,0
770,687,0,0,0,0,0,0,0,0,0,-1,1994,337,0,0
777,687,0,0,0,0,0,0,0,0,0,-1,2001,337,0,0
784,687,0,0,0,0,0,0,0,0,0,-1,2008,337,0,0
791,687,0,0,0,0,0,0,0,0,0,-1,2015,337,0,0
798,687,0,0,0,0,0,0,0,0,0,-1,2022,337,0,0
805,687,0,0,0,0,0,0,0,0,0,-1,2029,337,0,0
812,687,0,0,0,0,0,0,0,0,0,-1,2036,337,0,0
-700,680,0,0,0,0,0,0,0,0,0,-1,524,344,0,0
-693,680,0,0,0,0,0,0,0,0,0,-1,531,344,0,0
-686,680,0,0,0,0,0,0,0,0,0,-1,538,344,0,0
-679,680,0,0,0,0,0,0,0,0,0,-1,545,344,0,0
-672,680,0,0,0,0,0,0,0,0,0,-1,552,344,0,0
-665,680,0,0,0,0,0,0,0,0,0,-1,559,344,0,0
-658,680,0,0,0,0,0,0,0,0,0,-1,566,344,0,0
-651,680,0,0,0,0,0,0,0,0,0,-1,573,344,0,0
-644,680,0,0,0,0,0,0,0,0,0,-1,580,344,0,0
-637,680,0,0,0,0,0,0,0,0,0,-1,587,344,0,0
-630,680,0,0,0,0,0,0,0,0,0,-1,594,344,0,0
-623,680,0,0,0,0,0,0,0,0,0,-1,601,344,0,0
-616,680,0,0,0,0,0,0,0,0,0,-1,608,344,0,0
-609,680,0,0,0,0,0,0,0,0,0,-1,615,344,0,0
-602,680,0,0,0,0,0,0,0,0,0,-1,622,344,0,0
-595,680,0,0,0,0,0,0,0,0,0,-1,629,344,0,0
-588,680,0,0,0,0,0,0,0,0,0,-1,636,344,0,0
-581,680,0,0,0,0,0,0,0,0,0,-1,643,344,0,0
-574,680,0,0,0,0,0,0,0,0,0,-1,650,344,0,0
-567,680,0,0,0,0,0,0,0,0,0,-1,657,344,0,0
-560,680,0,0,0,0,0,0,0,0,0,-1,664,344,0,0
-553,680,0,0,0,0,0,0,0,0,0,-1,671,344,0,0
-546,680,0,0,0,0,0,0,0,0,0,-1,678,344,0,0
-539,680,0,0,0,0,0,0,0,0,0,-1,685,344,0,0
-532,680,0,0,0,0,0,0,0,0,0,-1,692,344,0,0
-525,680,0,0,0,0,0,0,0,0,0,-1,699,344,0,0
-518,680,0,0,0,0,0,0,0,0,0,-1,706,344,0,0
-511,680,0,0,0,0,0,0,0,0,0,-1,713,344,0,0
-504,680,0,0,0,0,0,0,0,0,0,-1,720,344,0,0
-497,680,0,0,0,0,0,0,0,0,0,-1,727,344,0,0
-490,680,0,0,0,0,0,0,0,0,0,-1,734,344,0,0
-483,680,0,0,0,0,0,0,0,0,0,-1,741,344,0,0
-476,680,0,0,0,0,0,0,0,0,0,-1,748,344,0,0
-469,680,0,0,0,0,0,0,0,0,0,-1,755,344,0,0
-462,680,0,0,0,0,0,0,0,0,0,-1,762,344,0,0
-455,680,0,0,0,0,0,0,0,0,0,-1,769,344,0,0
-448,680,0,0,0,0,0,0,0,0,0,-1,776,344,0,0
-441,680,0,0,0,0,0,0,0,0,0,-1,783,344,0,0
-434,680,0,0,0,0,0,0,0,0,0,-1,790,344,0,0
-427,680,0,0,0,0,0,0,0,0,0,-1,797,344,0,0
-420,680,0,0,0,0,0,0,0,0,0,-1,804,344,0,0
-413,680,0,0,0,0,0,0,0,0,0,-1,811,344,0,0
-406,680,0,0,0,0,0,0,0,0,0,-1,818,344,0,0
-399,680,0,0,0,0,0,0,0,0,0,-1,825,344,0,0
-392,680,0,0,0,0,0,0,0,0,0,-1,832,344,0,0
-385,680,0,0,0,0,0,0,0,0,0,-1,839,344,0,0
-378,680,0,0,0,0,0,0,0,0,0,-1,846,344,0,0
-371,680,0,0,0,0,0,0,0,0,0,-1,853,344,0,0
-364,680,0,0,0,0,0,0,0,0,0,-1,860,344,0,0
-357,680,0,0,0,0,0,0,0,0,0,-1,867,344,0,0
-350,680,0,0,0,0,0,0,0,0,0,-1,874,344,0,0
-343,680,0,0,0,0,0,0,0,0,0,-1,881,344,0,0
-336,680,0,0,0,0,0,0,0,0,0,-1,888,344,0,0
-329,680,0,0,0,0,0,0,0,0,0,-1,895,344,0,0
-322,680,0,0,0,0,0,0,0,0,0,-1,902,344,0,0
-315,680,0,0,0,0,0,0,0,0,0,-1,909,344,0,0
-308,680,0,0,0,0,0,0,0,0,0,-1,916,344,0,0
-301,680,0,0,0,0,0,0,0,0,0,-1,923,344,0,0
-294,680,0,0,0,0,0,0,0,0,0,-1,930,344,0,0
-287,680,0,0,0,0,0,0,0,0,0,-1,937,344,0,0
-280,680,0,0,0,0,0,0,0,0,0,-1,944,344,0,0
-273,680,0,0,0,0,0,0,0,0,0,-1,951,344,0,0
-266,680,0,0,0,0,0,0,0,0,0,-1,958,344,0,0
-259,680,0,0,0,0,0,0,0,0,0,-1,965,344,0,0
-252,680,0,0,0,0,0,0,0,0,0,-1,972,344,0,0
-245,680,0,0,0,0,0,0,0,0,0,-1,979,344,0,0
-238,680,0,0,0,0,0,0,0,0,0,-1,986,344,0,0
-231,680,0,0,0,0,0,0,0,0,0,-1,993,344,0,0
-224,680,0,0,0,0,0,0,0,0,0,-1,1000,344,0,0
-217,680,0,0,0,0,0,0,0,0,0,-1,1007,344,0,0
-210,680,0,0,0,0,0,0,0,0,0,-1,1014,344,0,0
-203,680,0,0,0,0,0,0,0,0,0,-1,1021,344,0,0
-196,680,0,0,0,0,0,0,0,0,0,-1,1028,344,0,0
-189,680,0,0,0,0,0,0,0,0,0,-1,1035,344,0,0
-182,680,0,0,0,0,0,0,0,0,0,-1,1042,344,0,0
-175,680,0,0,0,0,0,0,0,0,0,-1,1049,344,0,0
-168,680,0,0,0,0,0,0,0,0,0,-1,1056,344,0,0
-161,680,0,0,0,0,0,0,0,0,0,-1,1063,344,0,0
-154,680,2.25244,-29.1442,0,0,0,0,0,0,0,-1,1070,344,2.25241,29.1442
-147,680,9.29614,-33.0369,0,0,0,0,0,0,0,-1,1077,344,9.29612,33.0369
-140,680,8.07202,-32.6062,0,0,0,0,0,0,0,-1,1084,344,8.07199,32.6062
-133,680,6.85718,-32.1518,0,0,0,0,0,0,0,-1,1091,344,6.85716,32.1518
-126,680,5.60144,-31.697,-0.14714,0.0137415,0.0257579,0.0177649,-0.151163,1.41585,0.107189,0.0404588,1098,344,5.60138,31.697
-119,680,4.28528,-31.3249,-0.147689,0.0151352,0.0262387,0.0192591,-0.151813,1.4149,0.108201,0.0407238,1105,344,4.28524,31.3249
-112,680,2.8811,-30.7639,0,0,0,0,0,0,0,-1,1112,344,2.88115,30.7639
-105,680,8.12,-27.7806,0,0,0,0,0,0,0,-1,1119,344,8.12,27.7806
-98,680,14.1224,-39.1392,0,0,0,0,0,0,0,-1,1126,344,14.1225,39.1392
-91,680,8.3208,-33.7806,0,0,0,0,0,0,0,-1,1133,344,8.32075,33.7806
-84,680,2.17664,-29.6833,0,0,0,0,0,0,0,-1,1140,344,2.17662,29.6832
-77,680,-4.11353,-22.9374,0,0,0,0,0,0,0,-1,1147,344,-4.11355,22.9374
-70,680,-10.4928,-16.4665,0,0,0,0,0,0,0,-1,1154,344,-10.4928,16.4665
-63,680,-16.7028,-2.79965,0,0,0,0,0,0,0,-1,1161,344,-16.7028,2.79964
-56,680,-6.96912,-8.83356,0,0,0,0,0,0,0,-1,1168,344,-6.96907,8.83354
-49,680,-6.7677,-2.24063,0,0,0,0,0,0,0,-1,1175,344,-6.76772,2.24063
-42,680,-1.02368,0.618805,0,0,0,0,0,0,0,-1,1182,344,-1.0237,-0.618797
-35,680,-0.947876,-0.942719,0,0,0,0,0,0,0,-1,1189,344,-0.947842,0.942731
-28,680,-1.46118,-1.10574,0,0,0,0,0,0,0,-1,1196,344,-1.4612,1.10575
-21,680,5.17993,-35.6737,0,0,0,0,0,0,0,-1,1203,344,5.17989,35.6737
-14,680,5.30811,-35.6921,0,0,0,0,0,0,0,-1,1210,344,5.30814,35.6921
-7,680,5.4364,-35.7105,0,0,0,0,0,0,0,-1,1217,344,5.4364,35.7105
0,680,7.46936,-36.8255,0,0,0,0,0,0,0,-1,1224,344,7.46933,36.8255
7,680,6.0509,-35.9431,0,0,0,0,0,0,0,-1,1231,344,6.05092,35.9431
14,680,5.77734,-36.1296,0,0,0,0,0,0,0,-1,1238,344,5.7773,36.1296
21,680,5.68799,-36.182,0,0,0,0,0,0,0,-1,1245,344,5.68797,36.182
28,680,5.27991,-36.4144,0,0,0,0,0,0,0,-1,1252,344,5.27994,36.4144
35,680,5.62927,-36.4472,-0.00892384,0.0546098,0.0103937,0.056267,-0.010581,1.41269,0.0414905,0.0480771,1259,344,5.6293,36.4472
42,680,5.37781,-36.3866,-0.0101438,0.0580042,0.00871066,0.0590999,-0.0112396,1.44566,0.0436317,0.04695,1266,344,5.37782,36.3866
49,680,4.90906,-36.4754,-0.0109559,0.0619576,0.00649419,0.0625315,-0.0115298,1.48265,0.046015,0.0404233,1273,344,4.909,36.4754
56,680,4.80737,-36.4337,-0.0102499,0.0645012,0.00330413,0.064647,-0.0103957,1.52671,0.0469484,0.0395512,1280,344,4.80731,36.4337
63,680,5.00024,-36.1167,-0.00350984,0.0636109,-0.00148129,0.0636436,-0.00354251,-1.54874,0.0436578,0.0413473,1287,344,5.00024,36.1167
70,680,4.9325,-35.9677,0.00342966,0.0601927,-0.00182999,0.0602517,0.00337072,-1.5386,0.0390927,0.0402178,1294,344,4.93255,35.9677
77,680,4.74365,-35.8571,0,0,0,0,0,0,0,-1,1301,344,4.74366,35.8571
84,680,4.86072,-35.6743,0.0180921,0.056604,-0.00494227,0.0572282,0.017468,-1.44518,0.033866,0.0490752,1308,344,4.8607,35.6743
91,680,4.80176,-36.1473,0.0290048,0.0529808,0.000272485,0.0529839,0.0290017,1.55943,0.030636,0.0467869,1315,344,4.80176,36.1473
98,680,4.3988,-36.6862,0.0384118,0.0487026,0.00305227,0.0495398,0.0375746,1.30309,0.0298485,0.049586,1322,344,4.39884,36.6861
105,680,4.59705,-36.0344,0,0,0,0,0,0,0,-1,1329,344,4.59703,36.0344
112,680,3.64465,-36.5764,0.0573976,0.0419828,0.0142992,0.0659344,0.0334461,0.538215,0.0380686,0.0457041,1336,344,3.6447,36.5764
119,680,2.55176,-36.8951,0.0666809,0.0383203,0.0214832,0.0782418,0.0267594,0.493689,0.0459185,0.0421245,1343,344,2.55174,36.8951
126,680,4.95972,-35.7736,0.075021,0.0353838,0.0300635,0.0912106,0.0191942,0.493982,0.055526,0.0446659,1350,344,4.95974,35.7736
133,680,4.745,-35.4401,0.0825283,0.0338935,0.0393524,0.10447,0.0119514,0.508645,0.0660247,0.0427216,1357,344,4.74501,35.4401
140,680,4.40149,-35.1478,0.0880211,0.0343987,0.0470993,0.115406,0.00701408,0.526648,0.0747089,0.0487091,1364,344,4.40153,35.1478
147,680,3.32349,-34.7148,0,0,0,0,0,0,0,-1,1371,344,3.32352,34.7147
154,680,3.88953,-34.6616,0,0,0,0,0,0,0,-1,1378,344,3.88957,34.6615
161,680,4.41431,-32.7739,0,0,0,0,0,0,0,-1,1385,344,4.41429,32.7739
168,680,29.4142,-2.51651,0,0,0,0,0,0,0,-1,1392,344,29.4142,2.51652
175,680,6.66541,0.942078,0,0,0,0,0,0,0,-1,1399,344,6.66538,-0.942088
182,680,6.52917,0.532379,0,0,0,0,0,0,0,-1,1406,344,6.52922,-0.532385
189,680,7.55884,4.77695,0,0,0,0,0,0,0,-1,1413,344,7.55886,-4.77694
196,680,6.55627,3.35254,0,0,0,0,0,0,0,-1,1420,344,6.55622,-3.35255
203,680,5.7334,1.90753,0,0,0,0,0,0,0,-1,1427,344,5.73341,-1.90754
210,680,5.27515,0.493622,0,0,0,0,0,0,0,-1,1434,344,5.27514,-0.493632
217,680,6.56384,-0.374176,0,0,0,0,0,0,0,-1,1441,344,6.56379,0.374176
224,680,3.9491,-0.640228,0,0,0,0,0,0,0,-1,1448,344,3.94908,0.64024
231,680,4.24866,-1.96881,0,0,0,0,0,0,0,-1,1455,344,4.2486,1.96882
238,680,4.29333,-3.23984,0,0,0,0,0,0,0,-1,1462,344,4.29332,3.23984
245,680,2.44397,0.985382,0,0,0,0,0,0,0,-1,1469,344,2.44402,-0.985394
252,680,3.07349,2.18951,0,0,0,0,0,0,0,-1,1476,344,3.0735,-2.18952
259,680,2.82971,1.30682,0,0,0,0,0,0,0,-1,1483,344,2.82972,-1.30684
266,680,2.67554,1.44067,0,0,0,0,0,0,0,-1,1490,344,2.67551,-1.44066
273,680,2.46411,1.54666,0,0,0,0,0,0,0,-1,1497,344,2.46407,-1.54666
280,680,0,0,0,0,0,0,0,0,0,-1,1504,344,0,0
287,680,0,0,0,0,0,0,0,0,0,-1,1511,344,0,0
294,680,0,0,0,0,0,0,0,0,0,-1,1518,344,0,0
301,680,0,0,0,0,0,0,0,0,0,-1,1525,344,0,0
308,680,0,0,0,0,0,0,0,0,0,-1,1532,344,0,0
315,680,0,0,0,0,0,0,0,0,0,-1,1539,344,0,0
322,680,0,0,0,0,0,0,0,0,0,-1,1546,344,0,0
329,680,0,0,0,0,0,0,0,0,0,-1,1553,344,0,0
336,680,0,0,0,0,0,0,0,0,0,-1,1560,344,0,0
343,680,0,0,0,0,0,0,0,0,0,-1,1567,344,0,0
350,680,0,0,0,0,0,0,0,0,0,-1,1574,344,0,0
357,680,0,0,0,0,0,0,0,0,0,-1,1581,344,0,0
364,680,0,0,0,0,0,0,0,0,0,-1,1588,344,0,0
371,680,0,0,0,0,0,0,0,0,0,-1,1595,344,0,0
378,680,0,0,0,0,0,0,0,0,0,-1,1602,344,0,0
385,680,0,0,0,0,0,0,0,0,0,-1,1609,344,0,0
392,680,0,0,0,0,0,0,0,0,0,-1,1616,344,0,0
399,680,0,0,0,0,0,0,0,0,0,-1,1623,344,0,0
406,680,0,0,0,0,0,0,0,0,0,-1,1630,344,0,0
413,680,0,0,0,0,0,0,0,0,0,-1,1637,344,0,0
420,680,0,0,0,0,0,0,0,0,0,-1,1644,344,0,0
427,680,0,0,0,0,0,0,0,0,0,-1,1651,344,0,0
434,680,0,0,0,0,0,0,0,0,0,-1,1658,344,0,0
441,680,0,0,0,0,0,0,0,0,0,-1,1665,344,0,0
448,680,0,0,0,0,0,0,0,0,0,-1,1672,344,0,0
455,680,0,0,0,0,0,0,0,0,0,-1,1679,344,0,0
462,680,0,0,0,0,0,0,0,0,0,-1,1686,344,0,0
469,680,0,0,0,0,0,0,0,0,0,-1,1693,344,0,0
476,680,0,0,0,0,0,0,0,0,0,-1,1700,344,0,0
483,680,0,0,0,0,0,0,0,0,0,-1,1707,344,0,0
490,680,0,0,0,0,0,0,0,0,0,-1,1714,344,0,0
497,680,0,0,0,0,0,0,0,0,0,-1,1721,344,0,0
504,680,0,0,0,0,0,0,0,0,0,-1,1728,344,0,0
511,680,0,0,0,0,0,0,0,0,0,-1,1735,344,0,0
518,680,0,0,0,0,0,0,0,0,0,-1,1742,344,0,0
525,680,0,0,0,0,0,0,0,0,0,-1,1749,344,0,0
532,680,0,0,0,0,0,0,0,0,0,-1,1756,344,0,0
539,680,0,0,0,0,0,0,0,0,0,-1,1763,344,0,0
546,680,0,0,0,0,0,0,0,0,0,-1,1770,344,0,0
553,680,0,0,0,0,0,0,0,0,0,-1,1777,344,0,0
560,680,0,0,0,0,0,0,0,0,0,-1,1784,344,0,0
567,680,0,0,0,0,0,0,0,0,0,-1,1791,344,0,0
574,680,0,0,0,0,0,0,0,0,0,-1,1798,344,0,0
581,680,0,0,0,0,0,0,0,0,0,-1,1805,344,0,0
588,680,0,0,0,0,0,0,0,0,0,-1,1812,344,0,0
595,680,0,0,0,0,0,0,0,0,0,-1,1819,344,0,0
602,680,0,0,0,0,0,0,0,0,0,-1,1826,344,0,0
609,680,0,0,0,0,0,0,0,0,0,-1,1833,344,0,0
616,680,0,0,0,0,0,0,0,0,0,-1,1840,344,0,0
623,680,0,0,0,0,0,0,0,0,0,-1,1847,344,0,0
630,680,0,0,0,0,0,0,0,0,0,-1,1854,344,0,0
637,680,0,0,0,0,0,0,0,0,0,-1,1861,344,0,0
644,680,0,0,0,0,0,0,0,0,0,-1,1868,344,0,0
651,680,0,0,0,0,0,0,0,0,0,-1,1875,344,0,0
658,680,0,0,0,0,0,0,0,0,0,-1,1882,344,0,0
665,680,0,0,0,0,0,0,0,0,0,-1,1889,344,0,0
672,680,0,0,0,0,0,0,0,0,0,-1,1896,344,0,0
679,680,0,0,0,0,0,0,0,0,0,-1,1903,344,0,0
686,680,0,0,0,0,0,0,0,0,0,-1,1910,344,0,0
693,680,0,0,0,0,0,0,0,0,0,-1,1917,344,0,0
700,680,0,0,0,0,0,0,0,0,0,-1,1924,344,0,0
707,680,0,0,0,0,0,0,0,0,0,-1,1931,344,0,0
714,680,0,0,0,0,0,0,0,0,0,-1,1938,344,0,0
721,680,0,0,0,0,0,0,0,0,0,-1,1945,344,0,0
728,680,0,0,0,0,0,0,0,0,0,-1,1952,344,0,0
735,680,0,0,0,0,0,0,0,0,0,-1,1959,344,0,0
742,680,0,0,0,0,0,0,0,0,0,-1,1966,344,0,0
749,680,0,0,0,0,0,0,0,0,0,-1,1973,344,0,0
756,680,0,0,0,0,0,0,0,0,0,-1,1980,344,0,0
763,680,0,0,0,0,0,0,0,0,0,-1,1987,344,0,0
770,680,0,0,0,0,0,0,0,0,0,-1,1994,344,0,0
777,680,0,0,0,0,0,0,0,0,0,-1,2001,344,0,0
784,680,0,0,0,0,0,0,0,0,0,-1,2008,344,0,0
791,680,0,0,0,0,0,0,0,0,0,-1,2015,344,0,0
798,680,0,0,0,0,0,0,0,0,0,-1,2022,344,0,0
805,680,0,0,0,0,0,0,0,0,0,-1,2029,344,0,0
812,680,0,0,0,0,0,0,0,0,0,-1,2036,344,0,0
-700,673,0,0,0,0,0,0,0,0,0,-1,524,351,0,0
-693,673,0,0,0,0,0,0,0,0,0,-1,531,351,0,0
-686,673,0,0,0,0,0,0,0,0,0,-1,538,351,0,0
-679,673,0,0,0,0,0,0,0,0,0,-1,545,351,0,0
-672,673,0,0,0,0,0,0,0,0,0,-1,552,351,0,0
-665,673,0,0,0,0,0,0,0,0,0,-1,559,351,0,0
-658,673,0,0,0,0,0,0,0,0,0,-1,566,351,0,0
-651,673,0,0,0,0,0,0,0,0,0,-1,573,351,0,0
-644,673,0,0,0,0,0,0,0,0,0,-1,580,351,0,0
-637,673,0,0,0,0,0,0,0,0,0,-1,587,351,0,0
-630,673,0,0,0,0,0,0,0,0,0,-1,594,351,0,0
-623,673,0,0,0,0,0,0,0,0,0,-1,601,351,0,0
-616,673,0,0,0,0,0,0,0,0,0,-1,608,351,0,0
-609,673,0,0,0,0,0,0,0,0,0,-1,615,351,0,0
-602,673,0,0,0,0,0,0,0,0,0,-1,622,351,0,0
-595,673,0,0,0,0,0,0,0,0,0,-1,629,351,0,0
-588,673,0,0,0,0,0,0,0,0,0,-1,636,351,0,0
-581,673,0,0,0,0,0,0,0,0,0,-1,643,351,0,0
-574,673,0,0,0,0,0,0,0,0,0,-1,650,351,0,0
-567,673,0,0,0,0,0,0,0,0,0,-1,657,351,0,0
-560,673,0,0,0,0,0,0,0,0,0,-1,664,351,0,0
-553,673,0,0,0,0,0,0,0,0,0,-1,671,351,0,0
-546,673,0,0,0,0,0,0,0,0,0,-1,678,351,0,0
-539,673,0,0,0,0,0,0,0,0,0,-1,685,351,0,0
-532,673,0,0,0,0,0,0,0,0,0,-1,692,351,0,0
-525,673,0,0,0,0,0,0,0,0,0,-1,699,351,0,0
-518,673,0,0,0,0,0,0,0,0,0,-1,706,351,0,0
-511,673,0,0,0,0,0,0,0,0,0,-1,713,351,0,0
-504,673,0,0,0,0,0,0,0,0,0,-1,720,351,0,0
-497,673,0,0,0,0,0,0,0,0,0,-1,727,351,0,0
-490,673,0,0,0,0,0,0,0,0,0,-1,734,351,0,0
-483,673,0,0,0,0,0,0,0,0,0,-1,741,351,0,0
-476,673,0,0,0,0,0,0,0,0,0,-1,748,351,0,0
-469,673,0,0,0,0,0,0,0,0,0,-1,755,351,0,0
-462,673,0,0,0,0,0,0,0,0,0,-1,762,351,0,0
-455,673,0,0,0,0,0,0,0,0,0,-1,769,351,0,0
-448,673,0,0,0,0,0,0,0,0,0,-1,776,351,0,0
-441,673,0,0,0,0,0,0,0,0,0,-1,783,351,0,0
-434,673,0,0,0,0,0,0,0,0,0,-1,790,351,0,0
-427,673,0,0,0,0,0,0,0,0,0,-1,797,351,0,0
-420,673,0,0,0,0,0,0,0,0,0,-1,804,351,0,0
-413,673,0,0,0,0,0,0,0,0,0,-1,811,351,0,0
-406,673,0,0,0,0,0,0,0,0,0,-1,818,351,0,0
-399,673,0,0,0,0,0,0,0,0,0,-1,825,351,0,0
-392,673,0,0,0,0,0,0,0,0,0,-1,832,351,0,0
-385,673,0,0,0,0,0,0,0,0,0,-1,839,351,0,0
-378,673,0,0,0,0,0,0,0,0,0,-1,846,351,0,0
-371,673,0,0,0,0,0,0,0,0,0,-1,853,351,0,0
-364,673,0,0,0,0,0,0,0,0,0,-1,860,351,0,0
-357,673,0,0,0,0,0,0,0,0,0,-1,867,351,0,0
-350,673,0,0,0,0,0,0,0,0,0,-1,874,351,0,0
-343,673,0,0,0,0,0,0,0,0,0,-1,881,351,0,0
-336,673,0,0,0,0,0,0,0,0,0,-1,888,351,0,0
-329,673,0,0,0,0,0,0,0,0,0,-1,895,351,0,0
-322,673,0,0,0,0,0,0,0,0,0,-1,902,351,0,0
-315,673,0,0,0,0,0,0,0,0,0,-1,909,351,0,0
-308,673,0,0,0,0,0,0,0,0,0,-1,916,351,0,0
-301,673,0,0,0,0,0,0,0,0,0,-1,923,351,0,0
-294,673,0,0,0,0,0,0,0,0,0,-1,930,351,0,0
-287,673,0,0,0,0,0,0,0,0,0,-1,937,351,0,0
-280,673,0,0,0,0,0,0,0,0,0,-1,944,351,0,0
-273,673,0,0,0,0,0,0,0,0,0,-1,951,351,0,0
-266,673,0,0,0,0,0,0,0,0,0,-1,958,351,0,0
-259,673,0,0,0,0,0,0,0,0,0,-1,965,351,0,0
-252,673,0,0,0,0,0,0,0,0,0,-1,972,351,0,0
-245,673,0,0,0,0,0,0,0,0,0,-1,979,351,0,0
-238,673,0,0,0,0,0,0,0,0,0,-1,986,351,0,0
-231,673,0,0,0,0,0,0,0,0,0,-1,993,351,0,0
-224,673,0,0,0,0,0,0,0,0,0,-1,1000,351,0,0
-217,673,0,0,0,0,0,0,0,0,0,-1,1007,351,0,0
-210,673,0,0,0,0,0,0,0,0,0,-1,1014,351,0,0
-203,673,0,0,0,0,0,0,0,0,0,-1,1021,351,0,0
-196,673,0,0,0,0,0,0,0,0,0,-1,1028,351,0,0
-189,673,0,0,0,0,0,0,0,0,0,-1,1035,351,0,0
-182,673,0,0,0,0,0,0,0,0,0,-1,1042,351,0,0
-175,673,9.33264,-32.7477,0,0,0,0,0,0,0,-1,1049,351,9.3327,32.7477
-168,673,9.9248,-33.8084,0,0,0,0,0,0,0,-1,1056,351,9.92476,33.8084
-161,673,3.99109,-32.6987,0,0,0,0,0,0,0,-1,1063,351,3.9911,32.6987
-154,673,6.04431,-32.6277,0,0,0,0,0,0,0,-1,1070,351,6.04435,32.6278
-147,673,5.61096,-30.1121,0,0,0,0,0,0,0,-1,1077,351,5.61101,30.1121
-140,673,8.06702,-32.7234,0,0,0,0,0,0,0,-1,1084,351,8.06698,32.7234
-133,673,6.7699,-31.9966,0,0,0,0,0,0,0,-1,1091,351,6.76984,31.9966
-126,673,5.62671,-31.7184,0,0,0,0,0,0,0,-1,1098,351,5.62665,31.7184
-119,673,4.35425,-31.4535,0,0,0,0,0,0,0,-1,1105,351,4.35425,31.4535
-112,673,6.6344,-29.6632,0,0,0,0,0,0,0,-1,1112,351,6.63446,29.6632
-105,673,6.17139,-28.5951,0,0,0,0,0,0,0,-1,1119,351,6.17133,28.5951
-98,673,14.6038,-34.1646,0,0,0,0,0,0,0,-1,1126,351,14.6038,34.1646
-91,673,8.87854,-29.3053,0,0,0,0,0,0,0,-1,1133,351,8.87848,29.3053
-84,673,2.99731,-24.8913,0,0,0,0,0,0,0,-1,1140,351,2.99728,24.8913
-77,673,-3.34326,-18.5472,0,0,0,0,0,0,0,-1,1147,351,-3.34325,18.5473
-70,673,-9.75171,-12.1088,0,0,0,0,0,0,0,-1,1154,351,-9.75165,12.1088
-63,673,-16.1678,-5.84409,0,0,0,0,0,0,0,-1,1161,351,-16.1678,5.84407
-56,673,-18.0282,2.79053,0,0,0,0,0,0,0,-1,1168,351,-18.0283,-2.79052
-49,673,-0.926758,-0.115448,0,0,0,0,0,0,0,-1,1175,351,-0.926732,0.115444
-42,673,-1.15015,0.289917,0,0,0,0,0,0,0,-1,1182,351,-1.15017,-0.289932
-35,673,-0.919556,-1.00711,0,0,0,0,0,0,0,-1,1189,351,-0.919514,1.00711
-28,673,3.19104,-25.0986,0,0,0,0,0,0,0,-1,1196,351,3.19099,25.0986
-21,673,5.30713,-35.8575,0,0,0,0,0,0,0,-1,1203,351,5.30714,35.8575
-14,673,5.30859,-36,0.0180666,0.0191098,0.000419463,0.0192575,0.0179189,1.23214,0.0124162,0.0434954,1210,351,5.30856,36
-7,673,5.31873,-36.0865,0.0124607,0.0245186,0.00306261,0.0252519,0.0117274,1.33579,0.0145915,0.0416697,1217,351,5.31878,36.0865
0,673,5.34399,-36.3083,0.00711046,0.028973,0.00479348,0.0299778,0.00610564,1.36417,0.0182928,0.0471871,1224,351,5.34399,36.3083
7,673,5.17981,-36.4205,0,0,0,0,0,0,0,-1,1231,351,5.17982,36.4205
14,673,5.41663,-36.3912,-0.00130198,0.036837,0.00762256,0.038304,-0.00276902,1.38066,0.0265073,0.0433503,1238,351,5.41663,36.3912
21,673,5.18127,-36.5913,-0.00436426,0.0403013,0.00818178,0.0417529,-0.00581582,1.39521,0.0299626,0.0315826,1245,351,5.18128,36.5913
28,673,5.15344,-36.6857,-0.00618573,0.0432351,0.00777605,0.0444298,-0.00738037,1.41836,0.0323617,0.0226931,1252,351,5.15343,36.6857
35,673,5.1626,-36.6589,-0.00713532,0.0457097,0.00711219,0.0466502,-0.00807578,1.43933,0.0341122,0.0327348,1259,351,5.16265,36.6589
42,673,4.99768,-36.7063,-0.00825407,0.0484117,0.00606384,0.0490534,-0.0088957,1.46538,0.0360354,0.0336573,1266,351,4.99765,36.7063
49,673,4.9043,-36.7903,-0.00910777,0.0515619,0.00460726,0.0519098,-0.00945565,1.49543,0.038151,0.0193962,1273,351,4.90434,36.7902
56,673,4.85632,-36.7586,-0.00880949,0.0536065,0.00248709,0.0537054,-0.00890844,1.53103,0.0391127,0.0163009,1280,351,4.85638,36.7586
63,673,4.87549,-36.604,-0.00404657,0.0531192,-0.000927337,0.0531342,-0.00406161,-1.55458,0.0368514,0.0198011,1287,351,4.87546,36.604
70,673,4.79724,-36.5253,0.0010143,0.0505894,-0.00100583,0.0506098,0.000993904,-1.55052,0.0334135,0.0302126,1294,351,4.79727,36.5253
77,673,4.73035,-36.2635,0.00610472,0.0502016,-0.00279407,0.050378,0.00592839,-1.50777,0.0317939,0.0399322,1301,351,4.73031,36.2635
84,673,4.85205,-36.2716,0.0119679,0.0476337,-0.00272929,0.0478414,0.0117603,-1.49486,0.0287864,0.0458521,1308,351,4.85202,36.2716
91,673,4.70874,-36.4408,0,0,0,0,0,0,0,-1,1315,351,4.70868,36.4408
98,673,4.47021,-36.8186,0,0,0,0,0,0,0,-1,1322,351,4.47019,36.8186
105,673,4.52307,-36.4452,0,0,0,0,0,0,0,-1,1329,351,4.5231,36.4451
112,673,4.42517,-36.3097,0,0,0,0,0,0,0,-1,1336,351,4.42523,36.3097
119,673,4.27014,-35.9355,0,0,0,0,0,0,0,-1,1343,351,4.27019,35.9356
126,673,4.19824,-35.8312,0.05232,0.0311877,0.023808,0.0678012,0.0157065,0.576552,0.0409812,0.0461958,1350,351,4.19827,35.8312
133,673,4.20435,-35.714,0.0569641,0.0299588,0.0301364,0.0764845,0.0104384,0.574782,0.0478909,0.0435028,1357,351,4.20433,35.714
140,673,4.11414,-35.6367,0.0600238,0.0300706,0.0351173,0.0832247,0.00686973,0.583839,0.0533409,0.0433403,1364,351,4.11409,35.6367
147,673,3.70032,-35.3091,0.0628111,0.0302854,0.03972,0.0894686,0.00362786,0.591091,0.058474,0.0432571,1371,351,3.70027,35.3091
154,673,3.98718,-35.1163,0.0643201,0.0309792,0.0434396,0.0941782,0.00112111,0.602183,0.0624151,0.0434546,1378,351,3.98722,35.1163
161,673,4.09753,-34.9691,0,0,0,0,0,0,0,-1,1385,351,4.09758,34.9691
168,673,6.87061,1.83954,0,0,0,0,0,0,0,-1,1392,351,6.87063,-1.83953
175,673,6.6228,1.1459,0,0,0,0,0,0,0,-1,1399,351,6.62276,-1.14591
182,673,6.37244,0.796112,0,0,0,0,0,0,0,-1,1406,351,6.3724,-0.796102
189,673,6.12097,0.265472,0,0,0,0,0,0,0,-1,1413,351,6.121,-0.265482
196,673,6.02173,3.12717,0,0,0,0,0,0,0,-1,1420,351,6.02176,-3.12717
203,673,5.04456,1.6351,0,0,0,0,0,0,0,-1,1427,351,5.04455,-1.63509
210,673,4.79224,0.447479,0,0,0,0,0,0,0,-1,1434,351,4.79229,-0.447469
217,673,2.01648,0.972687,0,0,0,0,0,0,0,-1,1441,351,2.01644,-0.972691
224,673,2.3689,-1.80539,0,0,0,0,0,0,0,-1,1448,351,2.36896,1.80539
231,673,2.65857,-2.18497,0,0,0,0,0,0,0,-1,1455,351,2.65852,2.18496
238,673,3.77844,-2.06088,0,0,0,0,0,0,0,-1,1462,351,3.77839,2.06088
245,673,3.5376,-0.190399,0,0,0,0,0,0,0,-1,1469,351,3.53759,0.1904
252,673,3.80518,0.55603,0,0,0,0,0,0,0,-1,1476,351,3.80519,-0.556022
259,673,3.88562,1.29617,0,0,0,0,0,0,0,-1,1483,351,3.88562,-1.29618
266,673,4.22424,2.04834,0,0,0,0,0,0,0,-1,1490,351,4.22429,-2.04834
273,673,6.07886,0.385895,0,0,0,0,0,0,0,-1,1497,351,6.0789,-0.385906
280,673,6.97534,-0.0820007,0,0,0,0,0,0,0,-1,1504,351,6.97536,0.0820122
287,673,7.66968,-0.348541,0,0,0,0,0,0,0,-1,1511,351,7.66969,0.348534
294,673,8.20996,0.28537,0,0,0,0,0,0,0,-1,1518,351,8.20993,-0.28536
301,673,0,0,0,0,0,0,0,0,0,-1,1525,351,0,0
308,673,0,0,0,0,0,0,0,0,0,-1,1532,351,0,0
315,673,0,0,0,0,0,0,0,0,0,-1,1539,351,0,0
322,673,0,0,0,0,0,0,0,0,0,-1,1546,351,0,0
329,673,0,0,0,0,0,0,0,0,0,-1,1553,351,0,0
336,673,0,0,0,0,0,0,0,0,0,-1,1560,351,0,0
343,673,0,0,0,0,0,0,0,0,0,-1,1567,351,0,0
350,673,0,0,0,0,0,0,0,0,0,-1,1574,351,0,0
357,673,0,0,0,0,0,0,0,0,0,-1,1581,351,0,0
364,673,0,0,0,0,0,0,0,0,0,-1,1588,351,0,0
371,673,0,0,0,0,0,0,0,0,0,-1,1595,351,0,0
378,673,0,0,0,0,0,0,0,0,0,-1,1602,351,0,0
385,673,0,0,0,0,0,0,0,0,0,-1,1609,351,0,0
392,673,0,0,0,0,0,0,0,0,0,-1,1616,351,0,0
399,673,0,0,0,0,0,0,0,0,0,-1,1623,351,0,0
406,673,0,0,0,0,0,0,0,0,0,-1,1630,351,0,0
413,673,0,0,0,0,0,0,0,0,0,-1,1637,351,0,0
420,673,0,0,0,0,0,0,0,0,0,-1,1644,351,0,0
427,673,0,0,0,0,0,0,0,0,0,-1,1651,351,0,0
434,673,0,0,0,0,0,0,0,0,0,-1,1658,351,0,0
441,673,0,0,0,0,0,0,0,0,0,-1,1665,351,0,0
448,673,0,0,0,0,0,0,0,0,0,-1,1672,351,0,0
455,673,0,0,0,0,0,0,0,0,0,-1,1679,351,0,0
462,673,0,0,0,0,0,0,0,0,0,-1,1686,351,0,0
469,673,0,0,0,0,0,0,0,0,0,-1,1693,351,0,0
476,673,0,0,0,0,0,0,0,0,0,-1,1700,351,0,0
483,673,0,0,0,0,0,0,0,0,0,-1,1707,351,0,0
490,673,0,0,0,0,0,0,0,0,0,-1,1714,351,0,0
497,673,0,0,0,0,0,0,0,0,0,-1,1721,351,0,0
504,673,0,0,0,0,0,0,0,0,0,-1,1728,351,0,0
511,673,0,0,0,0,0,0,0,0,0,-1,1735,351,0,0
518,673,0,0,0,0,0,0,0,0,0,-1,1742,351,0,0
525,673,0,0,0,0,0,0,0,0,0,-1,1749,351,0,0
532,673,0,0,0,0,0,0,0,0,0,-1,1756,351,0,0
539,673,0,0,0,0,0,0,0,0,0,-1,1763,351,0,0
546,673,0,0,0,0,0,0,0,0,0,-1,1770,351,0,0
553,673,0,0,0,0,0,0,0,0,0,-1,1777,351,0,0
560,673,0,0,0,0,0,0,0,0,0,-1,1784,351,0,0
567,673,0,0,0,0,0,0,0,0,0,-1,1791,351,0,0
574,673,0,0,0,0,0,0,0,0,0,-1,1798,351,0,0
581,673,0,0,0,0,0,0,0,0,0,-1,1805,351,0,0
588,673,0,0,0,0,0,0,0,0,0,-1,1812,351,0,0
595,673,0,0,0,0,0,0,0,0,0,-1,1819,351,0,0
602,673,0,0,0,0,0,0,0,0,0,-1,1826,351,0,0
609,673,0,0,0,0,0,0,0,0,0,-1,1833,351,0,0
616,673,0,0,0,0,0,0,0,0,0,-1,1840,351,0,0
623,673,0,0,0,0,0,0,0,0,0,-1,1847,351,0,0
630,673,0,0,0,0,0,0,0,0,0,-1,1854,351,0,0
637,673,0,0,0,0,0,0,0,0,0,-1,1861,351,0,0
644,673,0,0,0,0,0,0,0,0,0,-1,1868,351,0,0
651,673,0,0,0,0,0,0,0,0,0,-1,1875,351,0,0
658,673,0,0,0,0,0,0,0,0,0,-1,1882,351,0,0
665,673,0,0,0,0,0,0,0,0,0,-1,1889,351,0,0
672,673,0,0,0,0,0,0,0,0,0,-1,1896,351,0,0
679,673,0,0,0,0,0,0,0,0,0,-1,1903,351,0,0
686,673,0,0,0,0,0,0,0,0,0,-1,1910,351,0,0
693,673,0,0,0,0,0,0,0,0,0,-1,1917,351,0,0
700,673,0,0,0,0,0,0,0,0,0,-1,1924,351,0,0
707,673,0,0,0,0,0,0,0,0,0,-1,1931,351,0,0
714,673,0,0,0,0,0,0,0,0,0,-1,1938,351,0,0
721,673,0,0,0,0,0,0,0,0,0,-1,1945,351,0,0
728,673,0,0,0,0,0,0,0,0,0,-1,1952,351,0,0
735,673,0,0,0,0,0,0,0,0,0,-1,1959,351,0,0
742,673,0,0,0,0,0,0,0,0,0,-1,1966,351,0,0
749,673,0,0,0,0,0,0,0,0,0,-1,1973,351,0,0
756,673,0,0,0,0,0,0,0,0,0,-1,1980,351,0,0
763,673,0,0,0,0,0,0,0,0,0,-1,1987,351,0,0
770,673,0,0,0,0,0,0,0,0,0,-1,1994,351,0,0
777,673,0,0,0,0,0,0,0,0,0,-1,2001,351,0,0
784,673,0,0,0,0,0,0,0,0,0,-1,2008,351,0,0
791,673,0,0,0,0,0,0,0,0,0,-1,2015,351,0,0
798,673,0,0,0,0,0,0,0,0,0,-1,2022,351,0,0
805,673,0,0,0,0,0,0,0,0,0,-1,2029,351,0,0
812,673,0,0,0,0,0,0,0,0,0,-1,2036,351,0,0
-700,666,0,0,0,0,0,0,0,0,0,-1,524,358,0,0
-693,666,0,0,0,0,0,0,0,0,0,-1,531,358,0,0
-686,666,0,0,0,0,0,0,0,0,0,-1,538,358,0,0
-679,666,0,0,0,0,0,0,0,0,0,-1,545,358,0,0
-672,666,0,0,0,0,0,0,0,0,0,-1,552,358,0,0
-665,666,0,0,0,0,0,0,0,0,0,-1,559,358,0,0
-658,666,0,0,0,0,0,0,0,0,0,-1,566,358,0,0
-651,666,0,0,0,0,0,0,0,0,0,-1,573,358,0,0
-644,666,0,0,0,0,0,0,0,0,0,-1,580,358,0,0
-637,666,0,0,0,0,0,0,0,0,0,-1,587,358,0,0
-630,666,0,0,0,0,0,0,0,0,0,-1,594,358,0,0
-623,666,0,0,0,0,0,0,0,0,0,-1,601,358,0,0
-616,666,0,0,0,0,0,0,0,0,0,-1,608,358,0,0
-609,666,0,0,0,0,0,0,0,0,0,-1,615,358,0,0
-602,666,0,0,0,0,0,0,0,0,0,-1,622,358,0,0
-595,666,0,0,0,0,0,0,0,0,0,-1,629,358,0,0
-588,666,0,0,0,0,0,0,0,0,0,-1,636,358,0,0
-581,666,0,0,0,0,0,0,0,0,0,-1,643,358,0,0
-574,666,0,0,0,0,0,0,0,0,0,-1,650,358,0,0
-567,666,0,0,0,0,0,0,0,0,0,-1,657,358,0,0
-560,666,0,0,0,0,0,0,0,0,0,-1,664,358,0,0
-553,666,0,0,0,0,0,0,0,0,0,-1,671,358,0,0
-546,666,0,0,0,0,0,0,0,0,0,-1,678,358,0,0
-539,666,0,0,0,0,0,0,0,0,0,-1,685,358,0,0
-532,666,0,0,0,0,0,0,0,0,0,-1,692,358,0,0
-525,666,0,0,0,0,0,0,0,0,0,-1,699,358,0,0
-518,666,0,0,0,0,0,0,0,0,0,-1,706,358,0,0
-511,666,0,0,0,0,0,0,0,0,0,-1,713,358,0,0
-504,666,0,0,0,0,0,0,0,0,0,-1,720,358,0,0
-497,666,0,0,0,0,0,0,0,0,0,-1,727,358,0,0
-490,666,0,0,0,0,0,0,0,0,0,-1,734,358,0,0
-483,666,0,0,0,0,0,0,0,0,0,-1,741,358,0,0
-476,666,0,0,0,0,0,0,0,0,0,-1,748,358,0,0
-469,666,0,0,0,0,0,0,0,0,0,-1,755,358,0,0
-462,666,0,0,0,0,0,0,0,0,0,-1,762,358,0,0
-455,666,0,0,0,0,0,0,0,0,0,-1,769,358,0,0
-448,666,0,0,0,0,0,0,0,0,0,-1,776,358,0,0
-441,666,0,0,0,0,0,0,0,0,0,-1,783,358,0,0
-434,666,0,0,0,0,0,0,0,0,0,-1,790,358,0,0
-427,666,0,0,0,0,0,0,0,0,0,-1,797,358,0,0
-420,666,0,0,0,0,0,0,0,0,0,-1,804,358,0,0
-413,666,0,0,0,0,0,0,0,0,0,-1,811,358,0,0
-406,666,0,0,0,0,0,0,0,0,0,-1,818,358,0,0
-399,666,0,0,0,0,0,0,0,0,0,-1,825,358,0,0
-392,666,0,0,0,0,0,0,0,0,0,-1,832,358,0,0
-385,666,0,0,0,0,0,0,0,0,0,-1,839,358,0,0
-378,666,0,0,0,0,0,0,0,0,0,-1,846,358,0,0
-371,666,0,0,0,0,0,0,0,0,0,-1,853,358,0,0
-364,666,0,0,0,0,0,0,0,0,0,-1,860,358,0,0
-357,666,0,0,0,0,0,0,0,0,0,-1,867,358,0,0
-350,666,0,0,0,0,0,0,0,0,0,-1,874,358,0,0
-343,666,0,0,0,0,0,0,0,0,0,-1,881,358,0,0
-336,666,0,0,0,0,0,0,0,0,0,-1,888,358,0,0
-329,666,0,0,0,0,0,0,0,0,0,-1,895,358,0,0
-322,666,0,0,0,0,0,0,0,0,0,-1,902,358,0,0
-315,666,0,0,0,0,0,0,0,0,0,-1,909,358,0,0
-308,666,0,0,0,0,0,0,0,0,0,-1,916,358,0,0
-301,666,0,0,0,0,0,0,0,0,0,-1,923,358,0,0
-294,666,0,0,0,0,0,0,0,0,0,-1,930,358,0,0
-287,666,0,0,0,0,0,0,0,0,0,-1,937,358,0,0
-280,666,0,0,0,0,0,0,0,0,0,-1,944,358,0,0
-273,666,0,0,0,0,0,0,0,0,0,-1,951,358,0,0
-266,666,0,0,0,0,0,0,0,0,0,-1,958,358,0,0
-259,666,0,0,0,0,0,0,0,0,0,-1,965,358,0,0
-252,666,0,0,0,0,0,0,0,0,0,-1,972,358,0,0
-245,666,0,0,0,0,0,0,0,0,0,-1,979,358,0,0
-238,666,0,0,0,0,0,0,0,0,0,-1,986,358,0,0
-231,666,0,0,0,0,0,0,0,0,0,-1,993,358,0,0
-224,666,0,0,0,0,0,0,0,0,0,-1,1000,358,0,0
-217,666,0,0,0,0,0,0,0,0,0,-1,1007,358,0,0
-210,666,0,0,0,0,0,0,0,0,0,-1,1014,358,0,0
-203,666,0,0,0,0,0,0,0,0,0,-1,1021,358,0,0
-196,666,1.6853,-29.5602,0,0,0,0,0,0,0,-1,1028,358,1.68528,29.5602
-189,666,7.53992,-30.0075,0,0,0,0,0,0,0,-1,1035,358,7.53989,30.0075
-182,666,7.86316,-30.8814,0,0,0,0,0,0,0,-1,1042,358,7.8632,30.8814
-175,666,8.39709,-31.924,0,0,0,0,0,0,0,-1,1049,358,8.39714,31.924
-168,666,8.87695,-32.9923,0,0,0,0,0,0,0,-1,1056,358,8.87698,32.9923
-161,666,9.31543,-34.045,0,0,0,0,0,0,0,-1,1063,358,9.31549,34.045
-154,666,6.04309,-31.9114,0,0,0,0,0,0,0,-1,1070,358,6.04308,31.9114
-147,666,5.96008,-32.2537,0,0,0,0,0,0,0,-1,1077,358,5.96009,32.2537
-140,666,8.11902,-31.8993,0,0,0,0,0,0,0,-1,1084,358,8.11903,31.8993
-133,666,6.89063,-31.8772,0,0,0,0,0,0,0,-1,1091,358,6.89067,31.8772
-126,666,5.61548,-31.9033,0,0,0,0,0,0,0,-1,1098,358,5.61542,31.9033
-119,666,4.47754,-31.9374,0,0,0,0,0,0,0,-1,1105,358,4.47753,31.9374
-112,666,6.13318,-30.696,0,0,0,0,0,0,0,-1,1112,358,6.13319,30.696
-105,666,6.30908,-29.0855,0,0,0,0,0,0,0,-1,1119,358,6.30905,29.0855
-98,666,3.5968,-23.5447,0,0,0,0,0,0,0,-1,1126,358,3.59686,23.5447
-91,666,9.5127,-25.1347,0,0,0,0,0,0,0,-1,1133,358,9.51269,25.1347
-84,666,4.03943,-19.3453,0,0,0,0,0,0,0,-1,1140,358,4.03941,19.3453
-77,666,-2.59216,-14.5352,0,0,0,0,0,0,0,-1,1147,358,-2.59213,14.5352
-70,666,-9.01953,-7.94489,0,0,0,0,0,0,0,-1,1154,358,-9.01947,7.94489
-63,666,-11.7778,-0.975189,0,0,0,0,0,0,0,-1,1161,358,-11.7778,0.97519
-56,666,0.424683,-2.04132,0,0,0,0,0,0,0,-1,1168,358,0.424665,2.04132
-49,666,0.754395,-2.23169,0,0,0,0,0,0,0,-1,1175,358,0.754383,2.23169
-42,666,1.34473,-3.53897,0,0,0,0,0,0,0,-1,1182,358,1.34476,3.53896
-35,666,5.25684,-36.1966,0,0,0,0,0,0,0,-1,1189,358,5.25682,36.1966
-28,666,5.41663,-36.1866,0,0,0,0,0,0,0,-1,1196,358,5.41664,36.1867
-21,666,5.4187,-36.1674,0.0139274,0.013501,-0.00154403,0.0152729,0.0121555,-0.716799,0.00931826,0.0339431,1203,358,5.41866,36.1674
-14,666,5.29553,-36.2953,0.0109474,0.0170752,-2.86814e-06,0.0170752,0.0109474,-1.57033,0.00998843,0.0294428,1210,358,5.29552,36.2952
-7,666,5.27026,-36.4451,0.00743462,0.0210774,0.00169506,0.0212849,0.00722717,1.44902,0.012498,0.0190157,1217,358,5.27027,36.4451
0,666,5.27258,-36.5978,0.00400695,0.0243631,0.00283109,0.0247495,0.00362054,1.43515,0.015435,0.0129303,1224,358,5.27253,36.5978
7,666,5.16467,-36.6487,0.00115982,0.0274333,0.00377237,0.0279642,0.000628906,1.43098,0.0184367,0.018145,1231,358,5.16472,36.6487
14,666,5.13379,-36.6725,-0.00152828,0.0302095,0.00483421,0.0309295,-0.00224828,1.42294,0.0214085,0.0181598,1238,358,5.13381,36.6725
21,666,5.07886,-36.8309,-0.00364261,0.0328481,0.00530621,0.033604,-0.00439854,1.42929,0.0240036,0.0146854,1245,358,5.07889,36.8309
28,666,5.03149,-36.9427,-0.00491429,0.0351113,0.00512156,0.0357562,-0.00555924,1.44553,0.0258903,0.0158984,1252,358,5.0315,36.9427
35,666,5.02148,-36.9336,-0.00557906,0.03704,0.00474988,0.037563,-0.00610201,1.46114,0.0273042,0.0137968,1259,358,5.02151,36.9336
42,666,4.95776,-36.9762,-0.00651091,0.0391112,0.004147,0.0394851,-0.00688481,1.48088,0.0288931,0.0137386,1266,358,4.95773,36.9762
49,666,4.89954,-37.0134,-0.00728101,0.0415187,0.00323615,0.0417324,-0.00749468,1.50487,0.030627,0.0119293,1273,358,4.89956,37.0134
56,666,4.87866,-37.0246,-0.00720762,0.0430798,0.00189014,0.0431508,-0.00727856,1.53328,0.0314752,0.0137548,1280,358,4.87867,37.0246
63,666,4.82178,-37.0875,-0.00399167,0.0428513,-0.000438125,0.0428554,-0.00399577,-1.56144,0.029991,0.0163984,1287,358,4.82176,37.0875
70,666,4.7876,-37.0474,-0.000461386,0.0410562,-0.000375263,0.0410596,-0.000464777,-1.56176,0.0275293,0.0156818,1294,358,4.78764,37.0474
77,666,4.74695,-36.9225,0.00319759,0.0407307,-0.00144892,0.0407865,0.00314174,-1.53227,0.0262066,0.0201589,1301,358,4.74694,36.9225
84,666,4.7395,-36.9527,0.00737844,0.0387643,-0.00119684,0.0388099,0.00733287,-1.53274,0.0238084,0.0284232,1308,358,4.73952,36.9527
91,666,4.67993,-36.9908,0.0130933,0.036495,0.00205671,0.0366744,0.0129139,1.4838,0.0214804,0.0264237,1315,358,4.67997,36.9908
98,666,4.53357,-36.9159,0.017851,0.0341061,0.00402695,0.0350491,0.0169081,1.34079,0.0202398,0.0218738,1322,358,4.53353,36.9159
105,666,4.42334,-36.7708,0.0226796,0.0322165,0.00705417,0.0359627,0.0189334,1.08261,0.0207728,0.0240301,1329,358,4.42334,36.7708
112,666,4.38074,-36.6544,0,0,0,0,0,0,0,-1,1336,358,4.38073,36.6545
119,666,4.41846,-36.5134,0,0,0,0,0,0,0,-1,1343,358,4.41847,36.5134
126,666,4.27197,-36.2124,0.034993,0.026566,0.0181721,0.0494337,0.0121253,0.671478,0.0297495,0.0321858,1350,358,4.27196,36.2124
133,666,4.26294,-36.0947,0.0377117,0.0256113,0.0223309,0.0547975,0.00852554,0.653107,0.0340475,0.0280107,1357,358,4.26295,36.0947
140,666,4.20862,-36.0797,0.0392738,0.025517,0.0254442,0.058753,0.00603788,0.653387,0.0373192,0.0264247,1364,358,4.20863,36.0797
147,666,4.08801,-35.9159,0.0406063,0.0254191,0.0281466,0.0621657,0.00385973,0.653641,0.040219,0.0251072,1371,358,4.08807,35.9159
154,666,4.0957,-35.5612,0.0409089,0.0254932,0.0301421,0.0643131,0.00208901,0.660222,0.0421963,0.022281,1378,358,4.0957,35.5612
161,666,4.14563,-35.355,0.0399135,0.0265674,0.0316927,0.0656281,0.000852913,0.681636,0.0434705,0.0291469,1385,358,4.14562,35.355
168,666,4.13159,-35.1356,0,0,0,0,0,0,0,-1,1392,358,4.13154,35.1356
175,666,4.18652,-35.29,0,0,0,0,0,0,0,-1,1399,358,4.18652,35.29
182,666,2.60876,-5.17068,0,0,0,0,0,0,0,-1,1406,358,2.6088,5.17068
189,666,2.46973,-5.49979,0,0,0,0,0,0,0,-1,1413,358,2.46975,5.49979
196,666,2.32458,-5.23651,0,0,0,0,0,0,0,-1,1420,358,2.32461,5.23653
203,666,2.28064,-3.88004,0,0,0,0,0,0,0,-1,1427,358,2.28059,3.88003
210,666,3.02576,-5.83548,0,0,0,0,0,0,0,-1,1434,358,3.02581,5.83547
217,666,2.30444,-5.36011,0,0,0,0,0,0,0,-1,1441,358,2.30447,5.3601
224,666,1.82324,-6.03101,0,0,0,0,0,0,0,-1,1448,358,1.82322,6.031
231,666,2.29797,-10.1093,0,0,0,0,0,0,0,-1,1455,358,2.29801,10.1093
238,666,2.52429,-6.10568,0,0,0,0,0,0,0,-1,1462,358,2.52423,6.10567
245,666,4.53345,-1.38205,0,0,0,0,0,0,0,-1,1469,358,4.53349,1.38204
252,666,4.77405,-0.246979,0,0,0,0,0,0,0,-1,1476,358,4.77405,0.246993
259,666,4.83655,1.14087,0,0,0,0,0,0,0,-1,1483,358,4.83652,-1.14087
266,666,6.14148,0.749512,0,0,0,0,0,0,0,-1,1490,358,6.14144,-0.749519
273,666,2.61304,-1.53772,0,0,0,0,0,0,0,-1,1497,358,2.613,1.53773
280,666,-8.74878,-17.2596,0,0,0,0,0,0,0,-1,1504,358,-8.74875,17.2596
287,666,-7.06934,-20.3464,0,0,0,0,0,0,0,-1,1511,358,-7.06933,20.3464
294,666,-7.85376,-22.0297,0,0,0,0,0,0,0,-1,1518,358,-7.85378,22.0297
301,666,-6.78711,-23.9803,0,0,0,0,0,0,0,-1,1525,358,-6.78706,23.9803
308,666,1.08496,-1.87576,0,0,0,0,0,0,0,-1,1532,358,1.08491,1.87575
315,666,1.76294,-0.284027,0,0,0,0,0,0,0,-1,1539,358,1.76291,0.284016
322,666,0,0,0,0,0,0,0,0,0,-1,1546,358,0,0
329,666,0,0,0,0,0,0,0,0,0,-1,1553,358,0,0
336,666,0,0,0,0,0,0,0,0,0,-1,1560,358,0,0
343,666,0,0,0,0,0,0,0,0,0,-1,1567,358,0,0
350,666,0,0,0,0,0,0,0,0,0,-1,1574,358,0,0
357,666,0,0,0,0,0,0,0,0,0,-1,1581,358,0,0
364,666,0,0,0,0,0,0,0,0,0,-1,1588,358,0,0
371,666,0,0,0,0,0,0,0,0,0,-1,1595,358,0,0
378,666,0,0,0,0,0,0,0,0,0,-1,1602,358,0,0
385,666,0,0,0,0,0,0,0,0,0,-1,1609,358,0,0
392,666,0,0,0,0,0,0,0,0,0,-1,1616,358,0,0
399,666,0,0,0,0,0,0,0,0,0,-1,1623,358,0,0
406,666,0,0,0,0,0,0,0,0,0,-1,1630,358,0,0
413,666,0,0,0,0,0,0,0,0,0,-1,1637,358,0,0
420,666,0,0,0,0,0,0,0,0,0,-1,1644,358,0,0
427,666,0,0,0,0,0,0,0,0,0,-1,1651,358,0,0
434,666,0,0,0,0,0,0,0,0,0,-1,1658,358,0,0
441,666,0,0,0,0,0,0,0,0,0,-1,1665,358,0,0
448,666,0,0,0,0,0,0,0,0,0,-1,1672,358,0,0
455,666,0,0,0,0,0,0,0,0,0,-1,1679,358,0,0
462,666,0,0,0,0,0,0,0,0,0,-1,1686,358,0,0
469,666,0,0,0,0,0,0,0,0,0,-1,1693,358,0,0
476,666,0,0,0,0,0,0,0,0,0,-1,1700,358,0,0
483,666,0,0,0,0,0,0,0,0,0,-1,1707,358,0,0
490,666,0,0,0,0,0,0,0,0,0,-1,1714,358,0,0
497,666,0,0,0,0,0,0,0,0,0,-1,1721,358,0,0
504,666,0,0,0,0,0,0,0,0,0,-1,1728,358,0,0
511,666,0,0,0,0,0,0,0,0,0,-1,1735,358,0,0
518,666,0,0,0,0,0,0,0,0,0,-1,1742,358,0,0
525,666,0,0,0,0,0,0,0,0,0,-1,1749,358,0,0
532,666,0,0,0,0,0,0,0,0,0,-1,1756,358,0,0
539,666,0,0,0,0,0,0,0,0,0,-1,1763,358,0,0
546,666,0,0,0,0,0,0,0,0,0,-1,1770,358,0,0
553,666,0,0,0,0,0,0,0,0,0,-1,1777,358,0,0
560,666,0,0,0,0,0,0,0,0,0,-1,1784,358,0,0
567,666,0,0,0,0,0,0,0,0,0,-1,1791,358,0,0
574,666,0,0,0,0,0,0,0,0,0,-1,1798,358,0,0
581,666,0,0,0,0,0,0,0,0,0,-1,1805,358,0,0
588,666,0,0,0,0,0,0,0,0,0,-1,1812,358,0,0
595,666,0,0,0,0,0,0,0,0,0,-1,1819,358,0,0
602,666,0,0,0,0,0,0,0,0,0,-1,1826,358,0,0
609,666,0,0,0,0,0,0,0,0,0,-1,1833,358,0,0
616,666,0,0,0,0,0,0,0,0,0,-1,1840,358,0,0
623,666,0,0,0,0,0,0,0,0,0,-1,1847,358,0,0
630,666,0,0,0,0,0,0,0,0,0,-1,1854,358,0,0
637,666,0,0,0,0,0,0,0,0,0,-1,1861,358,0,0
644,666,0,0,0,0,0,0,0,0,0,-1,1868,358,0,0
651,666,0,0,0,0,0,0,0,0,0,-1,1875,358,0,0
658,666,0,0,0,0,0,0,0,0,0,-1,1882,358,0,0
665,666,0,0,0,0,0,0,0,0,0,-1,1889,358,0,0
672,666,0,0,0,0,0,0,0,0,0,-1,1896,358,0,0
679,666,0,0,0,0,0,0,0,0,0,-1,1903,358,0,0
686,666,0,0,0,0,0,0,0,0,0,-1,1910,358,0,0
693,666,0,0,0,0,0,0,0,0,0,-1,1917,358,0,0
700,666,0,0,0,0,0,0,0,0,0,-1,1924,358,0,0
707,666,0,0,0,0,0,0,0,0,0,-1,1931,358,0,0
714,666,0,0,0,0,0,0,0,0,0,-1,1938,358,0,0
721,666,0,0,0,0,0,0,0,0,0,-1,1945,358,0,0
728,666,0,0,0,0,0,0,0,0,0,-1,1952,358,0,0
735,666,0,0,0,0,0,0,0,0,0,-1,1959,358,0,0
742,666,0,0,0,0,0,0,0,0,0,-1,1966,358,0,0
749,666,0,0,0,0,0,0,0,0,0,-1,1973,358,0,0
756,666,0,0,0,0,0,0,0,0,0,-1,1980,358,0,0
763,666,0,0,0,0,0,0,0,0,0,-1,1987,358,0,0
770,666,0,0,0,0,0,0,0,0,0,-1,1994,358,0,0
777,666,0,0,0,0,0,0,0,0,0,-1,2001,358,0,0
784,666,0,0,0,0,0,0,0,0,0,-1,2008,358,0,0
791,666,0,0,0,0,0,0,0,0,0,-1,2015,358,0,0
798,666,0,0,0,0,0,0,0,0,0,-1,2022,358,0,0
805,666,0,0,0,0,0,0,0,0,0,-1,2029,358,0,0
812,666,0,0,0,0,0,0,0,0,0,-1,2036,358,0,0
-700,659,0,0,0,0,0,0,0,0,0,-1,524,365,0,0
-693,659,0,0,0,0,0,0,0,0,0,-1,531,365,0,0
-686,659,0,0,0,0,0,0,0,0,0,-1,538,365,0,0
-679,659,0,0,0,0,0,0,0,0,0,-1,545,365,0,0
-672,659,0,0,0,0,0,0,0,0,0,-1,552,365,0,0
-665,659,0,0,0,0,0,0,0,0,0,-1,559,365,0,0
-658,659,0,0,0,0,0,0,0,0,0,-1,566,365,0,0
-651,659,0,0,0,0,0,0,0,0,0,-1,573,365,0,0
-644,659,0,0,0,0,0,0,0,0,0,-1,580,365,0,0
-637,659,0,0,0,0,0,0,0,0,0,-1,587,365,0,0
-630,659,0,0,0,0,0,0,0,0,0,-1,594,365,0,0
-623,659,0,0,0,0,0,0,0,0,0,-1,601,365,0,0
-616,659,0,0,0,0,0,0,0,0,0,-1,608,365,0,0
-609,659,0,0,0,0,0,0,0,0,0,-1,615,365,0,0
-602,659,0,0,0,0,0,0,0,0,0,-1,622,365,0,0
-595,659,0,0,0,0,0,0,0,0,0,-1,629,365,0,0
-588,659,0,0,0,0,0,0,0,0,0,-1,636,365,0,0
-581,659,0,0,0,0,0,0,0,0,0,-1,643,365,0,0
-574,659,0,0,0,0,0,0,0,0,0,-1,650,365,0,0
-567,659,0,0,0,0,0,0,0,0,0,-1,657,365,0,0
-560,659,0,0,0,0,0,0,0,0,0,-1,664,365,0,0
-553,659,0,0,0,0,0,0,0,0,0,-1,671,365,0,0
-546,659,0,0,0,0,0,0,0,0,0,-1,678,365,0,0
-539,659,0,0,0,0,0,0,0,0,0,-1,685,365,0,0
-532,659,0,0,0,0,0,0,0,0,0,-1,692,365,0,0
-525,659,0,0,0,0,0,0,0,0,0,-1,699,365,0,0
-518,659,0,0,0,0,0,0,0,0,0,-1,706,365,0,0
-511,659,0,0,0,0,0,0,0,0,0,-1,713,365,0,0
-504,659,0,0,0,0,0,0,0,0,0,-1,720,365,0,0
-497,659,0,0,0,0,0,0,0,0,0,-1,727,365,0,0
-490,659,0,0,0,0,0,0,0,0,0,-1,734,365,0,0
-483,659,0,0,0,0,0,0,0,0,0,-1,741,365,0,0
-476,659,0,0,0,0,0,0,0,0,0,-1,748,365,0,0
-469,659,0,0,0,0,0,0,0,0,0,-1,755,365,0,0
-462,659,0,0,0,0,0,0,0,0,0,-1,762,365,0,0
-455,659,0,0,0,0,0,0,0,0,0,-1,769,365,0,0
-448,659,0,0,0,0,0,0,0,0,0,-1,776,365,0,0
-441,659,0,0,0,0,0,0,0,0,0,-1,783,365,0,0
-434,659,0,0,0,0,0,0,0,0,0,-1,790,365,0,0
-427,659,0,0,0,0,0,0,0,0,0,-1,797,365,0,0
-420,659,0,0,0,0,0,0,0,0,0,-1,804,365,0,0
-413,659,0,0,0,0,0,0,0,0,0,-1,811,365,0,0
-406,659,0,0,0,0,0,0,0,0,0,-1,818,365,0,0
-399,659,0,0,0,0,0,0,0,0,0,-1,825,365,0,0
-392,659,0,0,0,0,0,0,0,0,0,-1,832,365,0,0
-385,659,0,0,0,0,0,0,0,0,0,-1,839,365,0,0
-378,659,0,0,0,0,0,0,0,0,0,-1,846,365,0,0
-371,659,0,0,0,0,0,0,0,0,0,-1,853,365,0,0
-364,659,0,0,0,0,0,0,0,0,0,-1,860,365,0,0
-357,659,0,0,0,0,0,0,0,0,0,-1,867,365,0,0
-350,659,0,0,0,0,0,0,0,0,0,-1,874,365,0,0
-343,659,0,0,0,0,0,0,0,0,0,-1,881,365,0,0
-336,659,0,0,0,0,0,0,0,0,0,-1,888,365,0,0
-329,659,0,0,0,0,0,0,0,0,0,-1,895,365,0,0
-322,659,0,0,0,0,0,0,0,0,0,-1,902,365,0,0
-315,659,0,0,0,0,0,0,0,0,0,-1,909,365,0,0
-308,659,0,0,0,0,0,0,0,0,0,-1,916,365,0,0
-301,659,0,0,0,0,0,0,0,0,0,-1,923,365,0,0
-294,659,0,0,0,0,0,0,0,0,0,-1,930,365,0,0
-287,659,0,0,0,0,0,0,0,0,0,-1,937,365,0,0
-280,659,0,0,0,0,0,0,0,0,0,-1,944,365,0,0
-273,659,0,0,0,0,0,0,0,0,0,-1,951,365,0,0
-266,659,0,0,0,0,0,0,0,0,0,-1,958,365,0,0
-259,659,0,0,0,0,0,0,0,0,0,-1,965,365,0,0
-252,659,0,0,0,0,0,0,0,0,0,-1,972,365,0,0
-245,659,0,0,0,0,0,0,0,0,0,-1,979,365,0,0
-238,659,0,0,0,0,0,0,0,0,0,-1,986,365,0,0
-231,659,0,0,0,0,0,0,0,0,0,-1,993,365,0,0
-224,659,0,0,0,0,0,0,0,0,0,-1,1000,365,0,0
-217,659,1.58905,-25.7653,0,0,0,0,0,0,0,-1,1007,365,1.58908,25.7652
-210,659,2.79059,-24.7357,0,0,0,0,0,0,0,-1,1014,365,2.79058,24.7357
-203,659,3.23743,-23.8325,0,0,0,0,0,0,0,-1,1021,365,3.2374,23.8325
-196,659,3.57898,-22.8702,0,0,0,0,0,0,0,-1,1028,365,3.57896,22.8702
-189,659,6.2627,-28.6762,0,0,0,0,0,0,0,-1,1035,365,6.26268,28.6762
-182,659,6.8916,-29.8975,0,0,0,0,0,0,0,-1,1042,365,6.89156,29.8975
-175,659,7.41772,-31.1898,0,0,0,0,0,0,0,-1,1049,365,7.41767,31.1898
-168,659,7.81958,-32.1324,0,0,0,0,0,0,0,-1,1056,365,7.81961,32.1323
-161,659,8.29919,-33.194,0,0,0,0,0,0,0,-1,1063,365,8.29923,33.194
-154,659,6.66614,-31.6429,0,0,0,0,0,0,0,-1,1070,365,6.66619,31.6429
-147,659,6.13574,-31.2281,0,0,0,0,0,0,0,-1,1077,365,6.13573,31.2281
-140,659,6.4021,-31.6709,0,0,0,0,0,0,0,-1,1084,365,6.40213,31.6709
-133,659,6.6217,-31.9478,0,0,0,0,0,0,0,-1,1091,365,6.62171,31.9478
-126,659,5.61829,-32.0329,0,0,0,0,0,0,0,-1,1098,365,5.61824,32.0329
-119,659,5.90125,-32.9668,0,0,0,0,0,0,0,-1,1105,365,5.90127,32.9668
-112,659,6.08789,-33.0562,0,0,0,0,0,0,0,-1,1112,365,6.08791,33.0562
-105,659,5.38696,-30.5854,0,0,0,0,0,0,0,-1,1119,365,5.387,30.5854
-98,659,4.68042,-26.2438,0,0,0,0,0,0,0,-1,1126,365,4.68041,26.2438
-91,659,4.20776,-20.8654,0,0,0,0,0,0,0,-1,1133,365,4.20777,20.8654
-84,659,2.8584,-17.8303,0,0,0,0,0,0,0,-1,1140,365,2.85836,17.8303
-77,659,2.80139,-15.3457,0,0,0,0,0,0,0,-1,1147,365,2.80139,15.3457
-70,659,2.9353,-12.7028,0,0,0,0,0,0,0,-1,1154,365,2.93533,12.7028
-63,659,2.11267,-9.7796,0,0,0,0,0,0,0,-1,1161,365,2.11266,9.7796
-56,659,2.11182,-9.91541,0,0,0,0,0,0,0,-1,1168,365,2.11178,9.91541
-49,659,5.50732,-35.781,0,0,0,0,0,0,0,-1,1175,365,5.50734,35.781
-42,659,5.13611,-36.1137,0,0,0,0,0,0,0,-1,1182,365,5.13608,36.1137
-35,659,5.32458,-36.0826,0.00925725,0.00793387,-0.00340536,0.0120646,0.00512651,-0.68944,0.00699164,0.042622,1189,365,5.32455,36.0826
-28,659,5.3324,-36.1757,0.00866295,0.00984981,-0.00237147,0.011701,0.00681178,-0.907998,0.00678589,0.0160937,1196,365,5.33239,36.1757
-21,659,5.28552,-36.3336,0.00765349,0.0117628,-0.00121382,0.0120946,0.00732173,-1.30399,0.00703429,0.0123137,1203,365,5.28547,36.3336
-14,659,5.2251,-36.5071,0.00603164,0.0144038,-0.000227107,0.01441,0.00602548,-1.5437,0.00835667,0.0106056,1210,365,5.22513,36.5071
-7,659,5.18896,-36.6154,0.00400503,0.0171824,0.000837462,0.0172354,0.00395202,1.50758,0.0104256,0.0100906,1217,365,5.18894,36.6155
0,659,5.16895,-36.7205,0.00195762,0.0194516,0.00157528,0.0195923,0.00181691,1.4817,0.0125,0.00843342,1224,365,5.16889,36.7205
7,659,5.13965,-36.8069,0.000241106,0.0215975,0.00219484,0.0218207,1.78702e-05,1.46944,0.0145412,0.00831448,1231,365,5.13967,36.8068
14,659,5.08875,-36.8693,-0.00150122,0.0235554,0.00294506,0.0238969,-0.00184272,1.45536,0.0165797,0.0108889,1238,365,5.08879,36.8693
21,659,5.05505,-36.9491,-0.00290729,0.0254665,0.00333438,0.0258531,-0.00329386,1.45538,0.0184317,0.0112815,1245,365,5.05499,36.9491
28,659,5.00757,-37.0322,-0.00375466,0.0271406,0.0032846,0.0274859,-0.0041,1.46604,0.0198324,0.0104895,1252,365,5.00762,37.0322
35,659,4.96338,-37.0811,-0.00419826,0.0286074,0.00309525,0.0288969,-0.00448775,1.47754,0.0209216,0.0107061,1259,365,4.96335,37.0811
42,659,4.93433,-37.1145,-0.00493435,0.0301676,0.00277658,0.0303859,-0.00515262,1.49235,0.0221753,0.0113162,1266,365,4.93427,37.1145
49,659,4.8927,-37.142,-0.00557791,0.0319911,0.00222535,0.0321225,-0.00570926,1.51184,0.0235499,0.0115692,1273,365,4.89272,37.142
56,659,4.8324,-37.1556,-0.00561998,0.0331877,0.00138803,0.0332373,-0.00566956,1.53509,0.0242698,0.0152793,1280,365,4.83241,37.1556
63,659,4.81226,-37.1913,-0.00353229,0.0331548,-0.00015598,0.0331554,-0.00353295,-1.56654,0.0233704,0.0167484,1287,365,4.81225,37.1913
70,659,4.77856,-37.186,-0.00116432,0.0319569,-4.87099e-05,0.031957,-0.00116439,-1.56933,0.0217032,0.0164464,1294,365,4.77859,37.186
77,659,4.70813,-37.1503,0.00137261,0.0317333,-0.000652397,0.0317473,0.00135859,-1.54932,0.0207269,0.0160132,1301,365,4.70815,37.1503
84,659,4.68982,-37.1314,0.00424467,0.0303088,-0.000350757,0.0303135,0.00423995,-1.55734,0.0189544,0.0122376,1308,365,4.68979,37.1314
91,659,4.64111,-37.0912,0.00814225,0.0286276,0.00202354,0.0288256,0.00794428,1.47327,0.0171921,0.0114034,1315,365,4.64112,37.0912
98,659,4.60083,-37.0057,0.011328,0.0269297,0.00353758,0.0276943,0.0105634,1.35792,0.0161385,0.00845136,1322,365,4.60088,37.0057
105,659,4.57202,-36.8833,0.0145747,0.0255796,0.00574399,0.0280315,0.0121229,1.16736,0.0162331,0.00992268,1329,365,4.572,36.8833
112,659,4.54504,-36.7682,0.0175472,0.0242548,0.0081653,0.0297283,0.0120738,0.980264,0.0172641,0.0144449,1336,365,4.54504,36.7682
119,659,4.5011,-36.6453,0.0202108,0.0227972,0.0106322,0.0322146,0.0107935,0.845916,0.0189335,0.016015,1343,365,4.50108,36.6453
126,659,4.4425,-36.5063,0.022402,0.0216303,0.0132851,0.0353068,0.00872549,0.770881,0.0212356,0.0146966,1350,365,4.4425,36.5063
133,659,4.38904,-36.3687,0.0238883,0.0209567,0.0159239,0.0384137,0.00643129,0.739501,0.0237573,0.0134474,1357,365,4.389,36.3687
140,659,4.35144,-36.2634,0.0245814,0.0208211,0.0178223,0.0406225,0.00478004,0.732846,0.0256373,0.0106284,1364,365,4.35141,36.2634
147,659,4.31641,-36.1093,0.0250724,0.0206926,0.0193332,0.0423393,0.00342571,0.729003,0.0271564,0.0100613,1371,365,4.31637,36.1093
154,659,4.25928,-35.9025,0.0247884,0.0206049,0.0203131,0.0431172,0.00227614,0.734092,0.0280169,0.0109435,1378,365,4.25926,35.9025
161,659,4.23096,-35.6948,0.0233567,0.0213651,0.0208062,0.0431909,0.00153089,0.761486,0.0282974,0.0119184,1385,365,4.23093,35.6948
168,659,4.21484,-35.484,0.0196075,0.0225483,0.0217709,0.0428984,-0.000742633,0.819117,0.0288497,0.0192085,1392,365,4.21488,35.484
175,659,4.19604,-35.2827,0.0157302,0.0245654,0.018916,0.0395728,0.000722818,0.900111,0.0261443,0.0419424,1399,365,4.19599,35.2826
182,659,4.05164,-35.1485,0,0,0,0,0,0,0,-1,1406,365,4.05166,35.1485
189,659,4.08142,-34.761,0,0,0,0,0,0,0,-1,1413,365,4.08146,34.761
196,659,2.41248,-13.4371,0,0,0,0,0,0,0,-1,1420,365,2.41243,13.4371
203,659,2.38623,-12.2163,0,0,0,0,0,0,0,-1,1427,365,2.38617,12.2163
210,659,2.20789,-13.9792,0,0,0,0,0,0,0,-1,1434,365,2.20794,13.9792
217,659,2.24121,-13.487,0,0,0,0,0,0,0,-1,1441,365,2.24116,13.487
224,659,2.3479,-15.2926,0,0,0,0,0,0,0,-1,1448,365,2.34793,15.2926
231,659,2.47974,-17.8629,0,0,0,0,0,0,0,-1,1455,365,2.47976,17.8628
238,659,3.57886,-21.1258,0,0,0,0,0,0,0,-1,1462,365,3.57889,21.1258
245,659,3.29883,-25.0283,0,0,0,0,0,0,0,-1,1469,365,3.29889,25.0283
252,659,2.81909,-24.1604,0,0,0,0,0,0,0,-1,1476,365,2.81905,24.1604
259,659,2.33069,-3.36703,0,0,0,0,0,0,0,-1,1483,365,2.33073,3.36702
266,659,1.72681,-17.183,0,0,0,0,0,0,0,-1,1490,365,1.72683,17.183
273,659,3.10059,-30.8006,0,0,0,0,0,0,0,-1,1497,365,3.10057,30.8006
280,659,-6.6676,-18.5519,0,0,0,0,0,0,0,-1,1504,365,-6.66758,18.5519
287,659,-5.23486,-17.6936,0,0,0,0,0,0,0,-1,1511,365,-5.23491,17.6936
294,659,-5.25952,-20.9666,0,0,0,0,0,0,0,-1,1518,365,-5.25957,20.9666
301,659,-5.29114,-21.9673,0,0,0,0,0,0,0,-1,1525,365,-5.29112,21.9673
308,659,-5.40784,-23.3611,0,0,0,0,0,0,0,-1,1532,365,-5.40784,23.3611
315,659,-5.05042,-23.7235,0,0,0,0,0,0,0,-1,1539,365,-5.05045,23.7235
322,659,0.382813,-2.2424,0,0,0,0,0,0,0,-1,1546,365,0.382801,2.2424
329,659,0.604004,-1.75998,0,0,0,0,0,0,0,-1,1553,365,0.603966,1.75998
336,659,4.55933,-25.2647,0,0,0,0,0,0,0,-1,1560,365,4.55935,25.2647
343,659,0,0,0,0,0,0,0,0,0,-1,1567,365,0,0
350,659,0,0,0,0,0,0,0,0,0,-1,1574,365,0,0
357,659,0,0,0,0,0,0,0,0,0,-1,1581,365,0,0
364,659,0,0,0,0,0,0,0,0,0,-1,1588,365,0,0
371,659,0,0,0,0,0,0,0,0,0,-1,1595,365,0,0
378,659,0,0,0,0,0,0,0,0,0,-1,1602,365,0,0
385,659,0,0,0,0,0,0,0,0,0,-1,1609,365,0,0
392,659,0,0,0,0,0,0,0,0,0,-1,1616,365,0,0
399,659,0,0,0,0,0,0,0,0,0,-1,1623,365,0,0
406,659,0,0,0,0,0,0,0,0,0,-1,1630,365,0,0
413,659,0,0,0,0,0,0,0,0,0,-1,1637,365,0,0
420,659,0,0,0,0,0,0,0,0,0,-1,1644,365,0,0
427,659,0,0,0,0,0,0,0,0,0,-1,1651,365,0,0
434,659,0,0,0,0,0,0,0,0,0,-1,1658,365,0,0
441,659,0,0,0,0,0,0,0,0,0,-1,1665,365,0,0
448,659,0,0,0,0,0,0,0,0,0,-1,1672,365,0,0
455,659,0,0,0,0,0,0,0,0,0,-1,1679,365,0,0
462,659,0,0,0,0,0,0,0,0,0,-1,1686,365,0,0
469,659,0,0,0,0,0,0,0,0,0,-1,1693,365,0,0
476,659,0,0,0,0,0,0,0,0,0,-1,1700,365,0,0
483,659,0,0,0,0,0,0,0,0,0,-1,1707,365,0,0
490,659,0,0,0,0,0,0,0,0,0,-1,1714,365,0,0
497,659,0,0,0,0,0,0,0,0,0,-1,1721,365,0,0
504,659,0,0,0,0,0,0,0,0,0,-1,1728,365,0,0
511,659,0,0,0,0,0,0,0,0,0,-1,1735,365,0,0
518,659,0,0,0,0,0,0,0,0,0,-1,1742,365,0,0
525,659,0,0,0,0,0,0,0,0,0,-1,1749,365,0,0
532,659,0,0,0,0,0,0,0,0,0,-1,1756,365,0,0
539,659,0,0,0,0,0,0,0,0,0,-1,1763,365,0,0
546,659,0,0,0,0,0,0,0,0,0,-1,1770,365,0,0
553,659,0,0,0,0,0,0,0,0,0,-1,1777,365,0,0
560,659,0,0,0,0,0,0,0,0,0,-1,1784,365,0,0
567,659,0,0,0,0,0,0,0,0,0,-1,1791,365,0,0
574,659,0,0,0,0,0,0,0,0,0,-1,1798,365,0,0
581,659,0,0,0,0,0,0,0,0,0,-1,1805,365,0,0
588,659,0,0,0,0,0,0,0,0,0,-1,1812,365,0,0
595,659,0,0,0,0,0,0,0,0,0,-1,1819,365,0,0
602,659,0,0,0,0,0,0,0,0,0,-1,1826,365,0,0
609,659,0,0,0,0,0,0,0,0,0,-1,1833,365,0,0
616,659,0,0,0,0,0,0,0,0,0,-1,1840,365,0,0
623,659,0,0,0,0,0,0,0,0,0,-1,1847,365,0,0
630,659,0,0,0,0,0,0,0,0,0,-1,1854,365,0,0
637,659,0,0,0,0,0,0,0,0,0,-1,1861,365,0,0
644,659,0,0,0,0,0,0,0,0,0,-1,1868,365,0,0
651,659,0,0,0,0,0,0,0,0,0,-1,1875,365,0,0
658,659,0,0,0,0,0,0,0,0,0,-1,1882,365,0,0
665,659,0,0,0,0,0,0,0,0,0,-1,1889,365,0,0
672,659,0,0,0,0,0,0,0,0,0,-1,1896,365,0,0
679,659,0,0,0,0,0,0,0,0,0,-1,1903,365,0,0
686,659,0,0,0,0,0,0,0,0,0,-1,1910,365,0,0
693,659,0,0,0,0,0,0,0,0,0,-1,1917,365,0,0
700,659,0,0,0,0,0,0,0,0,0,-1,1924,365,0,0
707,659,0,0,0,0,0,0,0,0,0,-1,1931,365,0,0
714,659,0,0,0,0,0,0,0,0,0,-1,1938,365,0,0
721,659,0,0,0,0,0,0,0,0,0,-1,1945,365,0,0
728,659,0,0,0,0,0,0,0,0,0,-1,1952,365,0,0
735,659,0,0,0,0,0,0,0,0,0,-1,1959,365,0,0
742,659,0,0,0,0,0,0,0,0,0,-1,1966,365,0,0
749,659,0,0,0,0,0,0,0,0,0,-1,1973,365,0,0
756,659,0,0,0,0,0,0,0,0,0,-1,1980,365,0,0
763,659,0,0,0,0,0,0,0,0,0,-1,1987,365,0,0
770,659,0,0,0,0,0,0,0,0,0,-1,1994,365,0,0
777,659,0,0,0,0,0,0,0,0,0,-1,2001,365,0,0
784,659,0,0,0,0,0,0,0,0,0,-1,2008,365,0,0
791,659,0,0,0,0,0,0,0,0,0,-1,2015,365,0,0
798,659,0,0,0,0,0,0,0,0,0,-1,2022,365,0,0
805,659,0,0,0,0,0,0,0,0,0,-1,2029,365,0,0
812,659,0,0,0,0,0,0,0,0,0,-1,2036,365,0,0
-700,652,0,0,0,0,0,0,0,0,0,-1,524,372,0,0
-693,652,0,0,0,0,0,0,0,0,0,-1,531,372,0,0
-686,652,0,0,0,0,0,0,0,0,0,-1,538,372,0,0
-679,652,0,0,0,0,0,0,0,0,0,-1,545,372,0,0
-672,652,0,0,0,0,0,0,0,0,0,-1,552,372,0,0
-665,652,0,0,0,0,0,0,0,0,0,-1,559,372,0,0
-658,652,0,0,0,0,0,0,0,0,0,-1,566,372,0,0
-651,652,0,0,0,0,0,0,0,0,0,-1,573,372,0,0
-644,652,0,0,0,0,0,0,0,0,0,-1,580,372,0,0
-637,652,0,0,0,0,0,0,0,0,0,-1,587,372,0,0
-630,652,0,0,0,0,0,0,0,0,0,-1,594,372,0,0
-623,652,0,0,0,0,0,0,0,0,0,-1,601,372,0,0
-616,652,0,0,0,0,0,0,0,0,0,-1,608,372,0,0
-609,652,0,0,0,0,0,0,0,0,0,-1,615,372,0,0
-602,652,0,0,0,0,0,0,0,0,0,-1,622,372,0,0
-595,652,0,0,0,0,0,0,0,0,0,-1,629,372,0,0
-588,652,0,0,0,0,0,0,0,0,0,-1,636,372,0,0
-581,652,0,0,0,0,0,0,0,0,0,-1,643,372,0,0
-574,652,0,0,0,0,0,0,0,0,0,-1,650,372,0,0
-567,652,0,0,0,0,0,0,0,0,0,-1,657,372,0,0
-560,652,0,0,0,0,0,0,0,0,0,-1,664,372,0,0
-553,652,0,0,0,0,0,0,0,0,0,-1,671,372,0,0
-546,652,0,0,0,0,0,0,0,0,0,-1,678,372,0,0
-539,652,0,0,0,0,0,0,0,0,0,-1,685,372,0,0
-532,652,0,0,0,0,0,0,0,0,0,-1,692,372,0,0
-525,652,0,0,0,0,0,0,0,0,0,-1,699,372,0,0
-518,652,0,0,0,0,0,0,0,0,0,-1,706,372,0,0
-511,652,0,0,0,0,0,0,0,0,0,-1,713,372,0,0
-504,652,0,0,0,0,0,0,0,0,0,-1,720,372,0,0
-497,652,0,0,0,0,0,0,0,0,0,-1,727,372,0,0
-490,652,0,0,0,0,0,0,0,0,0,-1,734,372,0,0
-483,652,0,0,0,0,0,0,0,0,0,-1,741,372,0,0
-476,652,0,0,0,0,0,0,0,0,0,-1,748,372,0,0
-469,652,0,0,0,0,0,0,0,0,0,-1,755,372,0,0
-462,652,0,0,0,0,0,0,0,0,0,-1,762,372,0,0
-455,652,0,0,0,0,0,0,0,0,0,-1,769,372,0,0
-448,652,0,0,0,0,0,0,0,0,0,-1,776,372,0,0
-441,652,0,0,0,0,0,0,0,0,0,-1,783,372,0,0
-434,652,0,0,0,0,0,0,0,0,0,-1,790,372,0,0
-427,652,0,0,0,0,0,0,0,0,0,-1,797,372,0,0
-420,652,0,0,0,0,0,0,0,0,0,-1,804,372,0,0
-413,652,0,0,0,0,0,0,0,0,0,-1,811,372,0,0
-406,652,0,0,0,0,0,0,0,0,0,-1,818,372,0,0
-399,652,0,0,0,0,0,0,0,0,0,-1,825,372,0,0
-392,652,0,0,0,0,0,0,0,0,0,-1,832,372,0,0
-385,652,0,0,0,0,0,0,0,0,0,-1,839,372,0,0
-378,652,0,0,0,0,0,0,0,0,0,-1,846,372,0,0
-371,652,0,0,0,0,0,0,0,0,0,-1,853,372,0,0
-364,652,0,0,0,0,0,0,0,0,0,-1,860,372,0,0
-357,652,0,0,0,0,0,0,0,0,0,-1,867,372,0,0
-350,652,0,0,0,0,0,0,0,0,0,-1,874,372,0,0
-343,652,0,0,0,0,0,0,0,0,0,-1,881,372,0,0
-336,652,0,0,0,0,0,0,0,0,0,-1,888,372,0,0
-329,652,0,0,0,0,0,0,0,0,0,-1,895,372,0,0
-322,652,0,0,0,0,0,0,0,0,0,-1,902,372,0,0
-315,652,0,0,0,0,0,0,0,0,0,-1,909,372,0,0
-308,652,0,0,0,0,0,0,0,0,0,-1,916,372,0,0
-301,652,0,0,0,0,0,0,0,0,0,-1,923,372,0,0
-294,652,0,0,0,0,0,0,0,0,0,-1,930,372,0,0
-287,652,0,0,0,0,0,0,0,0,0,-1,937,372,0,0
-280,652,0,0,0,0,0,0,0,0,0,-1,944,372,0,0
-273,652,0,0,0,0,0,0,0,0,0,-1,951,372,0,0
-266,652,0,0,0,0,0,0,0,0,0,-1,958,372,0,0
-259,652,0,0,0,0,0,0,0,0,0,-1,965,372,0,0
-252,652,0,0,0,0,0,0,0,0,0,-1,972,372,0,0
-245,652,0,0,0,0,0,0,0,0,0,-1,979,372,0,0
-238,652,0,0,0,0,0,0,0,0,0,-1,986,372,0,0
-231,652,8.68457,-21.315,0,0,0,0,0,0,0,-1,993,372,8.68455,21.315
-224,652,9.47449,-18.002,0,0,0,0,0,0,0,-1,1000,372,9.47449,18.002
-217,652,1.80139,-26.709,0,0,0,0,0,0,0,-1,1007,372,1.80137,26.709
-210,652,3.44165,-26.3203,0,0,0,0,0,0,0,-1,1014,372,3.44164,26.3203
-203,652,3.83191,-25.1863,0.0867084,0.166973,0.0448718,0.187041,0.0666403,1.15025,0.109465,0.0475318,1021,372,3.8319,25.1863
-196,652,4.22888,-24.0688,0.0777875,0.146305,0.0382842,0.16342,0.0606717,1.15038,0.0953876,0.0436744,1028,372,4.22886,24.0688
-189,652,4.62781,-22.9499,0,0,0,0,0,0,0,-1,1035,372,4.62776,22.9499
-182,652,5.51892,-29.209,0,0,0,0,0,0,0,-1,1042,372,5.51888,29.209
-175,652,6.15466,-30.4038,0,0,0,0,0,0,0,-1,1049,372,6.15472,30.4038
-168,652,6.72522,-31.238,0,0,0,0,0,0,0,-1,1056,372,6.72525,31.238
-161,652,5.1322,-31.1736,0,0,0,0,0,0,0,-1,1063,372,5.13221,31.1736
-154,652,6.23767,-31.5312,0,0,0,0,0,0,0,-1,1070,372,6.23766,31.5312
-147,652,6.22974,-32.0152,0,0,0,0,0,0,0,-1,1077,372,6.22977,32.0152
-140,652,5.52295,-31.8227,0,0,0,0,0,0,0,-1,1084,372,5.5229,31.8227
-133,652,5.74048,-31.8513,0,0,0,0,0,0,0,-1,1091,372,5.74046,31.8513
-126,652,5.65588,-32.2192,-0.0317821,0.0135653,0.000919346,0.0135839,-0.0318007,1.55053,0.0268972,0.0456298,1098,372,5.65584,32.2192
-119,652,5.64954,-32.8842,-0.0320203,0.0139016,0.00127082,0.0139367,-0.0320555,1.54315,0.0272318,0.0413382,1105,372,5.64957,32.8842
-112,652,5.70471,-33.1507,-0.0315204,0.0139905,0.00152829,0.0140418,-0.0315717,1.53727,0.0269755,0.0426327,1112,372,5.70469,33.1507
-105,652,5.58167,-33.2686,0,0,0,0,0,0,0,-1,1119,372,5.58169,33.2686
-98,652,5.64429,-33.1677,0,0,0,0,0,0,0,-1,1126,372,5.64423,33.1677
-91,652,5.66296,-32.9003,0,0,0,0,0,0,0,-1,1133,372,5.66297,32.9003
-84,652,5.49304,-34.3729,0,0,0,0,0,0,0,-1,1140,372,5.49302,34.3729
-77,652,5.41687,-34.6543,0,0,0,0,0,0,0,-1,1147,372,5.41684,34.6543
-70,652,5.39722,-34.9703,0,0,0,0,0,0,0,-1,1154,372,5.39719,34.9703
-63,652,5.38416,-35.2234,0,0,0,0,0,0,0,-1,1161,372,5.38413,35.2234
-56,652,5.43164,-35.6007,0,0,0,0,0,0,0,-1,1168,372,5.4316,35.6007
-49,652,5.41821,-35.8041,0.0024621,0.00528614,-0.00224791,0.00652872,0.00121953,-1.06583,0.00400829,0.0361297,1175,372,5.41826,35.8041
-42,652,5.24658,-35.8357,0.00386562,0.00515173,-0.00266274,0.00724797,0.00176939,-0.90388,0.00436345,0.0123764,1182,372,5.24654,35.8357
-35,652,5.22656,-36.0117,0.00447016,0.00667179,-0.00252052,0.0083214,0.00282055,-0.991285,0.00488673,0.0106384,1189,372,5.22651,36.0117
-28,652,5.19019,-36.184,0.00465976,0.0079848,-0.00201721,0.0089363,0.00370826,-1.13005,0.00518419,0.0083369,1196,372,5.1902,36.184
-21,652,5.13184,-36.3638,0.00449857,0.00929557,-0.00139075,0.00966961,0.00412453,-1.30806,0.0056028,0.00803673,1203,372,5.1318,36.3638
-14,652,5.11072,-36.5054,0.00377155,0.0110898,-0.000862693,0.0111901,0.00367123,-1.45503,0.00658668,0.0104208,1210,372,5.11077,36.5054
-7,652,5.09412,-36.6491,0.00282475,0.0127103,-0.00034478,0.0127223,0.00281274,-1.53598,0.00771675,0.0131027,1217,372,5.09411,36.6491
0,652,5.07483,-36.7662,0.00179108,0.0141448,0.00012291,0.014146,0.00178986,1.56085,0.00889427,0.0125123,1224,372,5.07488,36.7662
7,652,5.05884,-36.8253,0.000799673,0.0155273,0.000504793,0.0155446,0.000782391,1.53657,0.0101124,0.0130138,1231,372,5.05889,36.8253
14,652,5.01672,-36.9125,-0.00031559,0.0167912,0.000999504,0.0168494,-0.00037379,1.51263,0.0113596,0.0110649,1238,372,5.01669,36.9125
21,652,4.97327,-37.0197,-0.00127225,0.0180728,0.00129648,0.0181593,-0.00135875,1.50417,0.0125836,0.0100477,1245,372,4.97331,37.0197
28,652,4.95117,-37.1082,-0.00190425,0.0192248,0.00136189,0.0193122,-0.00199167,1.50669,0.0135874,0.00904354,1252,372,4.95112,37.1081
35,652,4.90991,-37.1542,-0.00225383,0.0202756,0.00130677,0.0203511,-0.00232937,1.51305,0.0144068,0.0096598,1259,372,4.90987,37.1542
42,652,4.88123,-37.1725,-0.00289621,0.0214004,0.00120358,0.0214599,-0.00295569,1.52142,0.0153867,0.0109928,1266,372,4.88117,37.1725
49,652,4.89429,-37.1983,-0.00349012,0.0227398,0.000967661,0.0227755,-0.00352577,1.53397,0.0164851,0.0131925,1273,372,4.89434,37.1983
56,652,4.84009,-37.2053,-0.00369265,0.023644,0.000594304,0.0236569,-0.00370556,1.54907,0.0171405,0.0155229,1280,372,4.84015,37.2053
63,652,4.80408,-37.2137,-0.00254588,0.0237338,-0.000201966,0.0237353,-0.00254743,-1.56311,0.0167374,0.0194193,1287,372,4.80409,37.2137
70,652,4.78772,-37.1913,-0.00111362,0.0229992,8.37547e-05,0.0229995,-0.00111391,1.56732,0.0157175,0.0163662,1294,372,4.78772,37.1913
77,652,4.72058,-37.1796,0.000469546,0.0228902,-3.97722e-05,0.0228902,0.000469474,-1.56902,0.0151061,0.0154425,1301,372,4.72056,37.1796
84,652,4.73352,-37.1718,0.00228077,0.0219574,0.000379616,0.0219647,0.00227345,1.55151,0.0139472,0.0133936,1308,372,4.73351,37.1718
91,652,4.69641,-37.1646,0.00476219,0.0208336,0.00212983,0.021111,0.00448473,1.44125,0.0128428,0.017169,1315,372,4.69638,37.1646
98,652,4.68481,-37.0623,0.00668585,0.0198171,0.00334261,0.020619,0.00588395,1.33534,0.0122645,0.0144803,1322,372,4.68484,37.0623
105,652,4.66235,-36.9349,0.00872585,0.018904,0.00485732,0.02085,0.00677985,1.18974,0.0122806,0.0116917,1329,372,4.6624,36.9349
112,652,4.63513,-36.8298,0.0106736,0.0180393,0.00647469,0.0218052,0.00690759,1.04398,0.0128679,0.00929982,1336,372,4.63517,36.8298
119,652,4.60547,-36.7129,0.0124164,0.0170661,0.0080641,0.0231338,0.00634871,0.925741,0.0138019,0.00988451,1343,372,4.60545,36.7129
126,652,4.55591,-36.584,0.01381,0.0163056,0.00970851,0.0248462,0.00526943,0.849313,0.0151169,0.0132994,1350,372,4.55591,36.584
133,652,4.50427,-36.4439,0.0146422,0.0159112,0.0112306,0.0265253,0.00402817,0.813616,0.0165055,0.0129424,1357,372,4.50431,36.4439
140,652,4.48291,-36.313,0.01492,0.015842,0.0123348,0.0277244,0.00303753,0.804076,0.0175582,0.00961306,1364,372,4.48291,36.313
147,652,4.46191,-36.1516,0.015006,0.0158285,0.0131084,0.0285321,0.0023024,0.801078,0.0183023,0.010488,1371,372,4.4619,36.1516
154,652,4.43921,-35.9612,0.0145166,0.0158162,0.0135053,0.0286874,0.00164541,0.809438,0.0186007,0.0103466,1378,372,4.43924,35.9611
161,652,4.40369,-35.7563,0.0131453,0.01649,0.0134287,0.0283501,0.00128523,0.847348,0.0184865,0.0112059,1385,372,4.40365,35.7563
168,652,4.36987,-35.5439,0.0103535,0.0172601,0.013575,0.0278142,-0.000200573,0.909948,0.01861,0.0127257,1392,372,4.36982,35.5438
175,652,4.33167,-35.3219,0.00757586,0.0184249,0.0116478,0.0258493,0.000151412,1.00332,0.0171826,0.0125408,1399,372,4.33167,35.3219
182,652,4.29761,-35.1208,0.00535796,0.0170524,0.0115474,0.0241486,-0.00173823,1.01976,0.0167087,0.0179872,1406,372,4.29763,35.1208
189,652,4.29468,-34.8622,0.00278765,0.0168417,0.009957,0.0220016,-0.00237224,1.09268,0.015519,0.0298778,1413,372,4.29466,34.8622
196,652,4.23401,-34.6164,0,0,0,0,0,0,0,-1,1420,372,4.23395,34.6164
203,652,4.19934,-34.3152,0,0,0,0,0,0,0,-1,1427,372,4.19933,34.3152
210,652,4.25659,-33.933,0,0,0,0,0,0,0,-1,1434,372,4.25654,33.9329
217,652,4.14575,-33.7537,0,0,0,0,0,0,0,-1,1441,372,4.14575,33.7537
224,652,3.63794,-31.2791,0,0,0,0,0,0,0,-1,1448,372,3.63799,31.2791
231,652,3.83936,-30.4812,0,0,0,0,0,0,0,-1,1455,372,3.8393,30.4812
238,652,4.07629,-32.6291,0,0,0,0,0,0,0,-1,1462,372,4.0763,32.6291
245,652,3.94873,-32.3893,0,0,0,0,0,0,0,-1,1469,372,3.94876,32.3893
252,652,4.12268,-31.9256,0,0,0,0,0,0,0,-1,1476,372,4.12272,31.9256
259,652,3.44922,-31.2655,0,0,0,0,0,0,0,-1,1483,372,3.44921,31.2655
266,652,3.42993,-31.0297,0,0,0,0,0,0,0,-1,1490,372,3.42988,31.0297
273,652,3.57959,-30.8463,0,0,0,0,0,0,0,-1,1497,372,3.57964,30.8463
280,652,3.7002,-30.5642,0,0,0,0,0,0,0,-1,1504,372,3.70015,30.5642
287,652,-4.71191,-19.5709,0,0,0,0,0,0,0,-1,1511,372,-4.71192,19.5709
294,652,-3.4198,-19.4977,0,0,0,0,0,0,0,-1,1518,372,-3.41981,19.4977
301,652,-2.55664,-20.599,0,0,0,0,0,0,0,-1,1525,372,-2.55659,20.599
308,652,-1.77222,-21.6098,0,0,0,0,0,0,0,-1,1532,372,-1.77219,21.6098
315,652,-1.26086,-21.9686,0,0,0,0,0,0,0,-1,1539,372,-1.26084,21.9686
322,652,-0.665649,-22.1747,0,0,0,0,0,0,0,-1,1546,372,-0.665604,22.1748
329,652,3.6593,-22.1693,0,0,0,0,0,0,0,-1,1553,372,3.65935,22.1693
336,652,3.52173,-24.2133,0,0,0,0,0,0,0,-1,1560,372,3.52174,24.2133
343,652,4.85767,-24.4762,0,0,0,0,0,0,0,-1,1567,372,4.85772,24.4762
350,652,5.28394,-25.6715,0,0,0,0,0,0,0,-1,1574,372,5.28393,25.6715
357,652,0,0,0,0,0,0,0,0,0,-1,1581,372,0,0
364,652,0,0,0,0,0,0,0,0,0,-1,1588,372,0,0
371,652,0,0,0,0,0,0,0,0,0,-1,1595,372,0,0
378,652,0,0,0,0,0,0,0,0,0,-1,1602,372,0,0
385,652,0,0,0,0,0,0,0,0,0,-1,1609,372,0,0
392,652,0,0,0,0,0,0,0,0,0,-1,1616,372,0,0
399,652,0,0,0,0,0,0,0,0,0,-1,1623,372,0,0
406,652,0,0,0,0,0,0,0,0,0,-1,1630,372,0,0
413,652,0,0,0,0,0,0,0,0,0,-1,1637,372,0,0
420,652,0,0,0,0,0,0,0,0,0,-1,1644,372,0,0
427,652,0,0,0,0,0,0,0,0,0,-1,1651,372,0,0
434,652,0,0,0,0,0,0,0,0,0,-1,1658,372,0,0
441,652,0,0,0,0,0,0,0,0,0,-1,1665,372,0,0
448,652,0,0,0,0,0,0,0,0,0,-1,1672,372,0,0
455,652,0,0,0,0,0,0,0,0,0,-1,1679,372,0,0
462,652,0,0,0,0,0,0,0,0,0,-1,1686,372,0,0
469,652,0,0,0,0,0,0,0,0,0,-1,1693,372,0,0
476,652,0,0,0,0,0,0,0,0,0,-1,1700,372,0,0
483,652,0,0,0,0,0,0,0,0,0,-1,1707,372,0,0
490,652,0,0,0,0,0,0,0,0,0,-1,1714,372,0,0
497,652,0,0,0,0,0,0,0,0,0,-1,1721,372,0,0
504,652,0,0,0,0,0,0,0,0,0,-1,1728,372,0,0
511,652,0,0,0,0,0,0,0,0,0,-1,1735,372,0,0
518,652,0,0,0,0,0,0,0,0,0,-1,1742,372,0,0
525,652,0,0,0,0,0,0,0,0,0,-1,1749,372,0,0
532,652,0,0,0,0,0,0,0,0,0,-1,1756,372,0,0
539,652,0,0,0,0,0,0,0,0,0,-1,1763,372,0,0
546,652,0,0,0,0,0,0,0,0,0,-1,1770,372,0,0
553,652,0,0,0,0,0,0,0,0,0,-1,1777,372,0,0
560,652,0,0,0,0,0,0,0,0,0,-1,1784,372,0,0
567,652,0,0,0,0,0,0,0,0,0,-1,1791,372,0,0
574,652,0,0,0,0,0,0,0,0,0,-1,1798,372,0,0
581,652,0,0,0,0,0,0,0,0,0,-1,1805,372,0,0
588,652,0,0,0,0,0,0,0,0,0,-1,1812,372,0,0
595,652,0,0,0,0,0,0,0,0,0,-1,1819,372,0,0
602,652,0,0,0,0,0,0,0,0,0,-1,1826,372,0,0
609,652,0,0,0,0,0,0,0,0,0,-1,1833,372,0,0
616,652,0,0,0,0,0,0,0,0,0,-1,1840,372,0,0
623,652,0,0,0,0,0,0,0,0,0,-1,1847,372,0,0
630,652,0,0,0,0,0,0,0,0,0,-1,1854,372,0,0
637,652,0,0,0,0,0,0,0,0,0,-1,1861,372,0,0
644,652,0,0,0,0,0,0,0,0,0,-1,1868,372,0,0
651,652,0,0,0,0,0,0,0,0,0,-1,1875,372,0,0
658,652,0,0,0,0,0,0,0,0,0,-1,1882,372,0,0
665,652,0,0,0,0,0,0,0,0,0,-1,1889,372,0,0
672,652,0,0,0,0,0,0,0,0,0,-1,1896,372,0,0
679,652,0,0,0,0,0,0,0,0,0,-1,1903,372,0,0
686,652,0,0,0,0,0,0,0,0,0,-1,1910,372,0,0
693,652,0,0,0,0,0,0,0,0,0,-1,1917,372,0,0
700,652,0,0,0,0,0,0,0,0,0,-1,1924,372,0,0
707,652,0,0,0,0,0,0,0,0,0,-1,1931,372,0,0
714,652,0,0,0,0,0,0,0,0,0,-1,1938,372,0,0
721,652,0,0,0,0,0,0,0,0,0,-1,1945,372,0,0
728,652,0,0,0,0,0,0,0,0,0,-1,1952,372,0,0
735,652,0,0,0,0,0,0,0,0,0,-1,1959,372,0,0
742,652,0,0,0,0,0,0,0,0,0,-1,1966,372,0,0
749,652,0,0,0,0,0,0,0,0,0,-1,1973,372,0,0
756,652,0,0,0,0,0,0,0,0,0,-1,1980,372,0,0
763,652,0,0,0,0,0,0,0,0,0,-1,1987,372,0,0
770,652,0,0,0,0,0,0,0,0,0,-1,1994,372,0,0
777,652,0,0,0,0,0,0,0,0,0,-1,2001,372,0,0
784,652,0,0,0,0,0,0,0,0,0,-1,2008,372,0,0
791,652,0,0,0,0,0,0,0,0,0,-1,2015,372,0,0
798,652,0,0,0,0,0,0,0,0,0,-1,2022,372,0,0
805,652,0,0,0,0,0,0,0,0,0,-1,2029,372,0,0
812,652,0,0,0,0,0,0,0,0,0,-1,2036,372,0,0
-700,645,0,0,0,0,0,0,0,0,0,-1,524,379,0,0
-693,645,0,0,0,0,0,0,0,0,0,-1,531,379,0,0
-686,645,0,0,0,0,0,0,0,0,0,-1,538,379,0,0
-679,645,0,0,0,0,0,0,0,0,0,-1,545,379,0,0
-672,645,0,0,0,0,0,0,0,0,0,-1,552,379,0,0
-665,645,0,0,0,0,0,0,0,0,0,-1,559,379,0,0
-658,645,0,0,0,0,0,0,0,0,0,-1,566,379,0,0
-651,645,0,0,0,0,0,0,0,0,0,-1,573,379,0,0
-644,645,0,0,0,0,0,0,0,0,0,-1,580,379,0,0
-637,645,0,0,0,0,0,0,0,0,0,-1,587,379,0,0
-630,645,0,0,0,0,0,0,0,0,0,-1,594,379,0,0
-623,645,0,0,0,0,0,0,0,0,0,-1,601,379,0,0
-616,645,0,0,0,0,0,0,0,0,0,-1,608,379,0,0
-609,645,0,0,0,0,0,0,0,0,0,-1,615,379,0,0
-602,645,0,0,0,0,0,0,0,0,0,-1,622,379,0,0
-595,645,0,0,0,0,0,0,0,0,0,-1,629,379,0,0
-588,645,0,0,0,0,0,0,0,0,0,-1,636,379,0,0
-581,645,0,0,0,0,0,0,0,0,0,-1,643,379,0,0
-574,645,0,0,0,0,0,0,0,0,0,-1,650,379,0,0
-567,645,0,0,0,0,0,0,0,0,0,-1,657,379,0,0
-560,645,0,0,0,0,0,0,0,0,0,-1,664,379,0,0
-553,645,0,0,0,0,0,0,0,0,0,-1,671,379,0,0
-546,645,0,0,0,0,0,0,0,0,0,-1,678,379,0,0
-539,645,0,0,0,0,0,0,0,0,0,-1,685,379,0,0
-532,645,0,0,0,0,0,0,0,0,0,-1,692,379,0,0
-525,645,0,0,0,0,0,0,0,0,0,-1,699,379,0,0
-518,645,0,0,0,0,0,0,0,0,0,-1,706,379,0,0
-511,645,0,0,0,0,0,0,0,0,0,-1,713,379,0,0
-504,645,0,0,0,0,0,0,0,0,0,-1,720,379,0,0
-497,645,0,0,0,0,0,0,0,0,0,-1,727,379,0,0
-490,645,0,0,0,0,0,0,0,0,0,-1,734,379,0,0
-483,645,0,0,0,0,0,0,0,0,0,-1,741,379,0,0
-476,645,0,0,0,0,0,0,0,0,0,-1,748,379,0,0
-469,645,0,0,0,0,0,0,0,0,0,-1,755,379,0,0
-462,645,0,0,0,0,0,0,0,0,0,-1,762,379,0,0
-455,645,0,0,0,0,0,0,0,0,0,-1,769,379,0,0
-448,645,0,0,0,0,0,0,0,0,0,-1,776,379,0,0
-441,645,0,0,0,0,0,0,0,0,0,-1,783,379,0,0
-434,645,0,0,0,0,0,0,0,0,0,-1,790,379,0,0
-427,645,0,0,0,0,0,0,0,0,0,-1,797,379,0,0
-420,645,0,0,0,0,0,0,0,0,0,-1,804,379,0,0
-413,645,0,0,0,0,0,0,0,0,0,-1,811,379,0,0
-406,645,0,0,0,0,0,0,0,0,0,-1,818,379,0,0
-399,645,0,0,0,0,0,0,0,0,0,-1,825,379,0,0
-392,645,0,0,0,0,0,0,0,0,0,-1,832,379,0,0
-385,645,0,0,0,0,0,0,0,0,0,-1,839,379,0,0
-378,645,0,0,0,0,0,0,0,0,0,-1,846,379,0,0
-371,645,0,0,0,0,0,0,0,0,0,-1,853,379,0,0
-364,645,0,0,0,0,0,0,0,0,0,-1,860,379,0,0
-357,645,0,0,0,0,0,0,0,0,0,-1,867,379,0,0
-350,645,0,0,0,0,0,0,0,0,0,-1,874,379,0,0
-343,645,0,0,0,0,0,0,0,0,0,-1,881,379,0,0
-336,645,0,0,0,0,0,0,0,0,0,-1,888,379,0,0
-329,645,0,0,0,0,0,0,0,0,0,-1,895,379,0,0
-322,645,0,0,0,0,0,0,0,0,0,-1,902,379,0,0
-315,645,0,0,0,0,0,0,0,0,0,-1,909,379,0,0
-308,645,0,0,0,0,0,0,0,0,0,-1,916,379,0,0
-301,645,0,0,0,0,0,0,0,0,0,-1,923,379,0,0
-294,645,0,0,0,0,0,0,0,0,0,-1,930,379,0,0
-287,645,0,0,0,0,0,0,0,0,0,-1,937,379,0,0
-280,645,0,0,0,0,0,0,0,0,0,-1,944,379,0,0
-273,645,0,0,0,0,0,0,0,0,0,-1,951,379,0,0
-266,645,0,0,0,0,0,0,0,0,0,-1,958,379,0,0
-259,645,0,0,0,0,0,0,0,0,0,-1,965,379,0,0
-252,645,2.95691,-26.9133,0,0,0,0,0,0,0,-1,972,379,2.9569,26.9133
-245,645,2.73169,-27.0215,0,0,0,0,0,0,0,-1,979,379,2.73172,27.0215
-238,645,2.6665,-26.9464,0,0,0,0,0,0,0,-1,986,379,2.66649,26.9464
-231,645,1.89801,-26.437,0,0,0,0,0,0,0,-1,993,379,1.89804,26.437
-224,645,9.92029,-21.3227,0,0,0,0,0,0,0,-1,1000,379,9.92026,21.3227
-217,645,2.40106,-28.1809,0,0,0,0,0,0,0,-1,1007,379,2.40109,28.1809
-210,645,3.27985,-27.2812,0,0,0,0,0,0,0,-1,1014,379,3.27983,27.2812
-203,645,4.20886,-26.3378,0.0648526,0.13182,0.0303773,0.143546,0.0531264,1.2024,0.0838036,0.0441159,1021,379,4.20887,26.3378
-196,645,4.90356,-25.1688,0.0572392,0.114716,0.0253877,0.124324,0.0476314,1.20901,0.072429,0.042342,1028,379,4.90354,25.1688
-189,645,5.26013,-23.6178,0,0,0,0,0,0,0,-1,1035,379,5.26013,23.6178
-182,645,4.68933,-28.5781,0,0,0,0,0,0,0,-1,1042,379,4.68934,28.5781
-175,645,5.28345,-29.6117,0,0,0,0,0,0,0,-1,1049,379,5.28341,29.6117
-168,645,5.72791,-30.9854,0,0,0,0,0,0,0,-1,1056,379,5.72787,30.9854
-161,645,5.22327,-31.0632,0.00591259,0.035432,0.003409,0.0358205,0.00552402,1.4573,0.0222686,0.0454911,1063,379,5.22322,31.0632
-154,645,5.80249,-31.4132,-0.00176403,0.0264297,0.00134647,0.0264939,-0.00182819,1.52318,0.0183025,0.0429214,1070,379,5.80254,31.4132
-147,645,5.75818,-31.7698,-0.00999253,0.0171978,-0.00138562,0.0172682,-0.010063,-1.52001,0.0159614,0.0436913,1077,379,5.75824,31.7698
-140,645,5.42822,-31.8376,-0.0158467,0.011285,-0.00218655,0.0114601,-0.0160218,-1.49089,0.0159394,0.0483555,1084,379,5.42821,31.8376
-133,645,5.2179,-32.1857,0,0,0,0,0,0,0,-1,1091,379,5.21791,32.1857
-126,645,5.46643,-32.4554,-0.0184162,0.0116144,-0.00110568,0.0116551,-0.0184569,-1.53404,0.0175323,0.0395117,1098,379,5.46647,32.4554
-119,645,5.42908,-32.9079,-0.0185731,0.0117805,-0.000774999,0.0118003,-0.0185929,-1.54529,0.017693,0.022575,1105,379,5.42913,32.9079
-112,645,5.39673,-33.2881,-0.0182821,0.011813,-0.000503204,0.0118214,-0.0182905,-1.55408,0.0175183,0.0147769,1112,379,5.39669,33.2881
-105,645,5.36304,-33.5238,-0.0180098,0.0115127,-9.59016e-05,0.011513,-0.0180101,-1.56755,0.0171822,0.0245413,1119,379,5.36309,33.5238
-98,645,5.29749,-33.6893,-0.0168646,0.0104616,0.000116944,0.0104621,-0.0168651,1.56652,0.0159211,0.0399289,1126,379,5.29746,33.6893
-91,645,5.25659,-34.26,0,0,0,0,0,0,0,-1,1133,379,5.25659,34.2601
-84,645,5.28381,-34.4905,-0.0125321,0.00776473,0.000282367,0.00776866,-0.012536,1.55689,0.0118301,0.0478269,1140,379,5.2838,34.4905
-77,645,5.25977,-34.8057,-0.0105341,0.00633334,0.000388216,0.00634227,-0.0105431,1.5478,0.0098488,0.0326564,1147,379,5.25974,34.8057
-70,645,5.16895,-35.0277,-0.0079873,0.00504977,0.000602441,0.00507755,-0.00801508,1.52472,0.00762219,0.0141372,1154,379,5.16893,35.0277
-63,645,5.15417,-35.2402,-0.00349819,0.00491955,-0.000226515,0.00492564,-0.00350428,-1.54391,0.00489003,0.0114856,1161,379,5.15416,35.2402
-56,645,5.13452,-35.4338,-0.00166991,0.00448184,-0.00078309,0.00457996,-0.00176803,-1.44615,0.00378297,0.0125933,1168,379,5.13448,35.4338
-49,645,5.12012,-35.6408,0.000244468,0.00418432,-0.00128087,0.00456412,-0.000135334,-1.28254,0.00308885,0.0108308,1175,379,5.12016,35.6408
-42,645,5.0791,-35.8318,0.00118017,0.00401026,-0.00148765,0.00464837,0.000542059,-1.16559,0.00293496,0.0104304,1182,379,5.07906,35.8318
-35,645,5.05298,-36.0406,0.00166728,0.00490065,-0.00134089,0.00538436,0.00118358,-1.22459,0.0032673,0.0109922,1189,379,5.05301,36.0405
-28,645,5.01489,-36.2417,0.00205269,0.00562484,-0.00110533,0.0059392,0.00173833,-1.29371,0.00352588,0.0086714,1196,379,5.01486,36.2417
-21,645,4.97583,-36.3889,0.00223884,0.00633563,-0.000789904,0.00648265,0.00209181,-1.38677,0.00382041,0.00973828,1203,379,4.97582,36.3889
-14,645,4.97437,-36.5377,0.00213592,0.00728746,-0.000505929,0.00733668,0.0020867,-1.47382,0.0043651,0.0106165,1210,379,4.97436,36.5377
-7,645,4.99548,-36.6919,0.00190061,0.00806853,-0.000275946,0.00808085,0.00188829,-1.52618,0.00488111,0.0142031,1217,379,4.99554,36.6919
0,645,4.98413,-36.7939,0.00152418,0.0088044,-4.75883e-05,0.00880471,0.00152387,-1.56426,0.00543355,0.024942,1224,379,4.98412,36.7939
7,645,4.9436,-36.8836,0.00111164,0.00956226,0.000150627,0.00956494,0.00110895,1.55298,0.006041,0.0180174,1231,379,4.94364,36.8836
14,645,4.91138,-36.9543,0.000533054,0.0102924,0.000453774,0.0103134,0.000512002,1.52443,0.00671147,0.0161005,1238,379,4.9114,36.9543
21,645,4.87952,-37.0444,-7.37673e-05,0.0111418,0.000704606,0.0111859,-0.00011786,1.5083,0.00749686,0.0101203,1245,379,4.87951,37.0444
28,645,4.87219,-37.131,-0.000551733,0.0120099,0.000827933,0.0120642,-0.000606067,1.50526,0.00825225,0.0085522,1252,379,4.87224,37.131
35,645,4.85486,-37.1862,-0.000921152,0.012933,0.000862728,0.0129865,-0.000974669,1.50884,0.00900019,0.00851004,1259,379,4.8549,37.1863
42,645,4.85571,-37.2227,-0.00159921,0.0139744,0.000873564,0.0140232,-0.00164806,1.51494,0.00994378,0.00875618,1266,379,4.85577,37.2227
49,645,4.8894,-37.2423,-0.00225652,0.0151461,0.000811507,0.0151838,-0.00229428,1.5243,0.0109676,0.011847,1273,379,4.88939,37.2423
56,645,4.86121,-37.2442,-0.0026712,0.016011,0.000667226,0.0160348,-0.002695,1.53514,0.0116922,0.0121362,1280,379,4.86125,37.2442
63,645,4.82312,-37.2611,-0.00225405,0.016462,0.000174824,0.0164636,-0.00225569,1.56146,0.0117997,0.0118911,1287,379,4.82312,37.2611
70,645,4.7887,-37.236,-0.00155365,0.0161996,0.000397753,0.0162085,-0.00156256,1.54841,0.0113624,0.0162077,1294,379,4.78874,37.236
77,645,4.76208,-37.2301,-0.000687826,0.0162089,0.000495262,0.0162234,-0.000702331,1.54152,0.0110571,0.0192549,1301,379,4.76214,37.2301
84,645,4.78687,-37.18,0.00036987,0.0156043,0.000900533,0.0156574,0.000316823,1.51196,0.0103343,0.0138186,1308,379,4.78681,37.18
91,645,4.7489,-37.138,0.0017875,0.0148336,0.00204542,0.0151467,0.00147433,1.41887,0.00964401,0.0162263,1315,379,4.7489,37.138
98,645,4.74011,-37.0506,0.00288234,0.0140668,0.00290352,0.0147756,0.0021735,1.33135,0.00921178,0.0146422,1322,379,4.74014,37.0506
105,645,4.73682,-36.9451,0.00422117,0.0133165,0.00389443,0.0147561,0.00278152,1.21671,0.00905381,0.0103461,1329,379,4.73682,36.9451
112,645,4.72461,-36.8542,0.00550857,0.0126058,0.0048969,0.0151047,0.00300969,1.09894,0.0092316,0.00808255,1336,379,4.7246,36.8542
119,645,4.70801,-36.745,0.00666842,0.0117822,0.00588954,0.0156459,0.00280469,0.990191,0.00963279,0.00826047,1343,379,4.70795,36.745
126,645,4.67383,-36.5996,0.00757291,0.0111162,0.00685058,0.0164205,0.0022686,0.911932,0.0102746,0.0120153,1350,379,4.67379,36.5997
133,645,4.66235,-36.4642,0.00809291,0.0107144,0.00774159,0.0172554,0.00155188,0.869258,0.0110228,0.0126323,1357,379,4.66238,36.4642
140,645,4.64954,-36.3466,0.00825721,0.0105346,0.00842597,0.0178985,0.000893323,0.852561,0.011646,0.0119249,1364,379,4.64951,36.3466
147,645,4.60522,-36.1854,0.00828575,0.0105047,0.00885869,0.0183231,0.000467324,0.847694,0.0120627,0.0140277,1371,379,4.60519,36.1854
154,645,4.61023,-36.0064,0.00794225,0.010543,0.00902849,0.0183643,0.000120956,0.856921,0.0122027,0.0132495,1378,379,4.6102,36.0064
161,645,4.59961,-35.8082,0.00704221,0.0111277,0.00881229,0.0181309,3.89824e-05,0.899288,0.0120743,0.0156297,1385,379,4.59967,35.8082
168,645,4.54529,-35.5918,0.00533092,0.0115518,0.00880066,0.0177755,-0.000892802,0.955262,0.0121589,0.0178315,1392,379,4.5453,35.5918
175,645,4.52283,-35.3732,0.00358084,0.012427,0.00759128,0.0167898,-0.000781938,1.04918,0.0114627,0.0139211,1399,379,4.52287,35.3732
182,645,4.51538,-35.1496,0.00215707,0.011967,0.00716719,0.0157469,-0.00162285,1.08548,0.0110786,0.00989724,1406,379,4.5154,35.1496
189,645,4.51941,-34.8943,0.000775453,0.0120396,0.00592625,0.0145831,-0.0017681,1.16537,0.0103619,0.0115173,1413,379,4.51939,34.8943
196,645,4.46472,-34.6486,-0.0017069,0.0108002,0.00300992,0.0114868,-0.00239356,1.3465,0.00856793,0.0116299,1420,379,4.46467,34.6486
203,645,4.3938,-34.3681,-0.00200116,0.0101301,0.00357796,0.0111067,-0.00297781,1.30433,0.00857128,0.0117603,1427,379,4.39377,34.3681
210,645,4.41809,-33.9966,-0.00289975,0.0102175,0.00362182,0.0111511,-0.00383333,1.31852,0.00898857,0.0209371,1434,379,4.41804,33.9966
217,645,4.41357,-33.7869,-0.00309734,0.0108425,0.00335229,0.0116067,-0.0038616,1.34664,0.00929632,0.0409056,1441,379,4.41361,33.7869
224,645,4.25073,-33.6981,0,0,0,0,0,0,0,-1,1448,379,4.25074,33.6981
231,645,4.27026,-33.1457,0,0,0,0,0,0,0,-1,1455,379,4.27025,33.1457
238,645,4.22827,-32.8147,-0.00265089,0.0160514,0.00366334,0.0167433,-0.00334285,1.38411,0.0124273,0.0307056,1462,379,4.22825,32.8147
245,645,4.21887,-32.4855,-0.0025937,0.0180298,0.00387384,0.0187335,-0.00329734,1.39112,0.0137208,0.0176304,1469,379,4.21889,32.4855
252,645,4.25562,-31.9702,-0.00212411,0.0199652,0.00422945,0.0207473,-0.00290623,1.38794,0.0148951,0.0309859,1476,379,4.25558,31.9702
259,645,4.02686,-31.5027,-0.00132533,0.0219946,0.00485302,0.0229642,-0.00229496,1.37359,0.016129,0.0488983,1483,379,4.02688,31.5027
266,645,3.91272,-31.2678,-0.00061744,0.023769,0.00573671,0.0250511,-0.00189954,1.35092,0.0173686,0.0346689,1490,379,3.91276,31.2678
273,645,3.99304,-30.9821,0.00018159,0.0244858,0.00673626,0.026228,-0.00156058,1.31772,0.018028,0.0244628,1497,379,3.99304,30.9822
280,645,4.09998,-30.6273,0,0,0,0,0,0,0,-1,1504,379,4.10003,30.6273
287,645,4.36108,-29.8645,0,0,0,0,0,0,0,-1,1511,379,4.36111,29.8645
294,645,3.78857,-29.2301,0,0,0,0,0,0,0,-1,1518,379,3.78853,29.2301
301,645,0.102173,-19.2112,0,0,0,0,0,0,0,-1,1525,379,0.102211,19.2112
308,645,0.388428,-19.7402,0,0,0,0,0,0,0,-1,1532,379,0.388487,19.7402
315,645,2.61792,-20.2319,0,0,0,0,0,0,0,-1,1539,379,2.61791,20.2319
322,645,3.82935,-29.5213,0,0,0,0,0,0,0,-1,1546,379,3.82929,29.5213
329,645,3.61487,-26.396,0,0,0,0,0,0,0,-1,1553,379,3.61483,26.396
336,645,4.32666,-28.5038,0,0,0,0,0,0,0,-1,1560,379,4.32665,28.5038
343,645,4.77185,-23.7191,0,0,0,0,0,0,0,-1,1567,379,4.77184,23.7191
350,645,4.76404,-22.1987,0,0,0,0,0,0,0,-1,1574,379,4.76399,22.1987
357,645,4.61316,-21.967,0,0,0,0,0,0,0,-1,1581,379,4.61316,21.967
364,645,-0.0794678,-3.22021,0,0,0,0,0,0,0,-1,1588,379,-0.0794987,3.22021
371,645,0,0,0,0,0,0,0,0,0,-1,1595,379,0,0
378,645,0,0,0,0,0,0,0,0,0,-1,1602,379,0,0
385,645,0,0,0,0,0,0,0,0,0,-1,1609,379,0,0
392,645,0,0,0,0,0,0,0,0,0,-1,1616,379,0,0
399,645,0,0,0,0,0,0,0,0,0,-1,1623,379,0,0
406,645,0,0,0,0,0,0,0,0,0,-1,1630,379,0,0
413,645,0,0,0,0,0,0,0,0,0,-1,1637,379,0,0
420,645,0,0,0,0,0,0,0,0,0,-1,1644,379,0,0
427,645,0,0,0,0,0,0,0,0,0,-1,1651,379,0,0
434,645,0,0,0,0,0,0,0,0,0,-1,1658,379,0,0
441,645,0,0,0,0,0,0,0,0,0,-1,1665,379,0,0
448,645,0,0,0,0,0,0,0,0,0,-1,1672,379,0,0
455,645,0,0,0,0,0,0,0,0,0,-1,1679,379,0,0
462,645,0,0,0,0,0,0,0,0,0,-1,1686,379,0,0
469,645,0,0,0,0,0,0,0,0,0,-1,1693,379,0,0
476,645,0,0,0,0,0,0,0,0,0,-1,1700,379,0,0
483,645,0,0,0,0,0,0,0,0,0,-1,1707,379,0,0
490,645,0,0,0,0,0,0,0,0,0,-1,1714,379,0,0
497,645,0,0,0,0,0,0,0,0,0,-1,1721,379,0,0
504,645,0,0,0,0,0,0,0,0,0,-1,1728,379,0,0
511,645,0,0,0,0,0,0,0,0,0,-1,1735,379,0,0
518,645,0,0,0,0,0,0,0,0,0,-1,1742,379,0,0
525,645,0,0,0,0,0,0,0,0,0,-1,1749,379,0,0
532,645,0,0,0,0,0,0,0,0,0,-1,1756,379,0,0
539,645,0,0,0,0,0,0,0,0,0,-1,1763,379,0,0
546,645,0,0,0,0,0,0,0,0,0,-1,1770,379,0,0
553,645,0,0,0,0,0,0,0,0,0,-1,1777,379,0,0
560,645,0,0,0,0,0,0,0,0,0,-1,1784,379,0,0
567,645,0,0,0,0,0,0,0,0,0,-1,1791,379,0,0
574,645,0,0,0,0,0,0,0,0,0,-1,1798,379,0,0
581,645,0,0,0,0,0,0,0,0,0,-1,1805,379,0,0
588,645,0,0,0,0,0,0,0,0,0,-1,1812,379,0,0
595,645,0,0,0,0,0,0,0,0,0,-1,1819,379,0,0
602,645,0,0,0,0,0,0,0,0,0,-1,1826,379,0,0
609,645,0,0,0,0,0,0,0,0,0,-1,1833,379,0,0
616,645,0,0,0,0,0,0,0,0,0,-1,1840,379,0,0
623,645,0,0,0,0,0,0,0,0,0,-1,1847,379,0,0
630,645,0,0,0,0,0,0,0,0,0,-1,1854,379,0,0
637,645,0,0,0,0,0,0,0,0,0,-1,1861,379,0,0
644,645,0,0,0,0,0,0,0,0,0,-1,1868,379,0,0
651,645,0,0,0,0,0,0,0,0,0,-1,1875,379,0,0
658,645,0,0,0,0,0,0,0,0,0,-1,1882,379,0,0
665,645,0,0,0,0,0,0,0,0,0,-1,1889,379,0,0
672,645,0,0,0,0,0,0,0,0,0,-1,1896,379,0,0
679,645,0,0,0,0,0,0,0,0,0,-1,1903,379,0,0
686,645,0,0,0,0,0,0,0,0,0,-1,1910,379,0,0
693,645,0,0,0,0,0,0,0,0,0,-1,1917,379,0,0
700,645,0,0,0,0,0,0,0,0,0,-1,1924,379,0,0
707,645,0,0,0,0,0,0,0,0,0,-1,1931,379,0,0
714,645,0,0,0,0,0,0,0,0,0,-1,1938,379,0,0
721,645,0,0,0,0,0,0,0,0,0,-1,1945,379,0,0
728,645,0,0,0,0,0,0,0,0,0,-1,1952,379,0,0
735,645,0,0,0,0,0,0,0,0,0,-1,1959,379,0,0
742,645,0,0,0,0,0,0,0,0,0,-1,1966,379,0,0
749,645,0,0,0,0,0,0,0,0,0,-1,1973,379,0,0
756,645,0,0,0,0,0,0,0,0,0,-1,1980,379,0,0
763,645,0,0,0,0,0,0,0,0,0,-1,1987,379,0,0
770,645,0,0,0,0,0,0,0,0,0,-1,1994,379,0,0
777,645,0,0,0,0,0,0,0,0,0,-1,2001,379,0,0
784,645,0,0,0,0,0,0,0,0,0,-1,2008,379,0,0
791,645,0,0,0,0,0,0,0,0,0,-1,2015,379,0,0
798,645,0,0,0,0,0,0,0,0,0,-1,2022,379,0,0
805,645,0,0,0,0,0,0,0,0,0,-1,2029,379,0,0
812,645,0,0,0,0,0,0,0,0,0,-1,2036,379,0,0
-700,638,0,0,0,0,0,0,0,0,0,-1,524,386,0,0
-693,638,0,0,0,0,0,0,0,0,0,-1,531,386,0,0
-686,638,0,0,0,0,0,0,0,0,0,-1,538,386,0,0
-679,638,0,0,0,0,0,0,0,0,0,-1,545,386,0,0
-672,638,0,0,0,0,0,0,0,0,0,-1,552,386,0,0
-665,638,0,0,0,0,0,0,0,0,0,-1,559,386,0,0
-658,638,0,0,0,0,0,0,0,0,0,-1,566,386,0,0
-651,638,0,0,0,0,0,0,0,0,0,-1,573,386,0,0
-644,638,0,0,0,0,0,0,0,0,0,-1,580,386,0,0
-637,638,0,0,0,0,0,0,0,0,0,-1,587,386,0,0
-630,638,0,0,0,0,0,0,0,0,0,-1,594,386,0,0
-623,638,0,0,0,0,0,0,0,0,0,-1,601,386,0,0
-616,638,0,0,0,0,0,0,0,0,0,-1,608,386,0,0
-609,638,0,0,0,0,0,0,0,0,0,-1,615,386,0,0
-602,638,0,0,0,0,0,0,0,0,0,-1,622,386,0,0
-595,638,0,0,0,0,0,0,0,0,0,-1,629,386,0,0
-588,638,0,0,0,0,0,0,0,0,0,-1,636,386,0,0
-581,638,0,0,0,0,0,0,0,0,0,-1,643,386,0,0
-574,638,0,0,0,0,0,0,0,0,0,-1,650,386,0,0
-567,638,0,0,0,0,0,0,0,0,0,-1,657,386,0,0
-560,638,0,0,0,0,0,0,0,0,0,-1,664,386,0,0
-553,638,0,0,0,0,0,0,0,0,0,-1,671,386,0,0
-546,638,0,0,0,0,0,0,0,0,0,-1,678,386,0,0
-539,638,0,0,0,0,0,0,0,0,0,-1,685,386,0,0
-532,638,0,0,0,0,0,0,0,0,0,-1,692,386,0,0
-525,638,0,0,0,0,0,0,0,0,0,-1,699,386,0,0
-518,638,0,0,0,0,0,0,0,0,0,-1,706,386,0,0
-511,638,0,0,0,0,0,0,0,0,0,-1,713,386,0,0
-504,638,0,0,0,0,0,0,0,0,0,-1,720,386,0,0
-497,638,0,0,0,0,0,0,0,0,0,-1,727,386,0,0
-490,638,0,0,0,0,0,0,0,0,0,-1,734,386,0,0
-483,638,0,0,0,0,0,0,0,0,0,-1,741,386,0,0
-476,638,0,0,0,0,0,0,0,0,0,-1,748,386,0,0
-469,638,0,0,0,0,0,0,0,0,0,-1,755,386,0,0
-462,638,0,0,0,0,0,0,0,0,0,-1,762,386,0,0
-455,638,0,0,0,0,0,0,0,0,0,-1,769,386,0,0
-448,638,0,0,0,0,0,0,0,0,0,-1,776,386,0,0
-441,638,0,0,0,0,0,0,0,0,0,-1,783,386,0,0
-434,638,0,0,0,0,0,0,0,0,0,-1,790,386,0,0
-427,638,0,0,0,0,0,0,0,0,0,-1,797,386,0,0
-420,638,0,0,0,0,0,0,0,0,0,-1,804,386,0,0
-413,638,0,0,0,0,0,0,0,0,0,-1,811,386,0,0
-406,638,0,0,0,0,0,0,0,0,0,-1,818,386,0,0
-399,638,0,0,0,0,0,0,0,0,0,-1,825,386,0,0
-392,638,0,0,0,0,0,0,0,0,0,-1,832,386,0,0
-385,638,0,0,0,0,0,0,0,0,0,-1,839,386,0,0
-378,638,0,0,0,0,0,0,0,0,0,-1,846,386,0,0
-371,638,0,0,0,0,0,0,0,0,0,-1,853,386,0,0
-364,638,0,0,0,0,0,0,0,0,0,-1,860,386,0,0
-357,638,0,0,0,0,0,0,0,0,0,-1,867,386,0,0
-350,638,0,0,0,0,0,0,0,0,0,-1,874,386,0,0
-343,638,0,0,0,0,0,0,0,0,0,-1,881,386,0,0
-336,638,0,0,0,0,0,0,0,0,0,-1,888,386,0,0
-329,638,0,0,0,0,0,0,0,0,0,-1,895,386,0,0
-322,638,0,0,0,0,0,0,0,0,0,-1,902,386,0,0
-315,638,0,0,0,0,0,0,0,0,0,-1,909,386,0,0
-308,638,0,0,0,0,0,0,0,0,0,-1,916,386,0,0
-301,638,0,0,0,0,0,0,0,0,0,-1,923,386,0,0
-294,638,0,0,0,0,0,0,0,0,0,-1,930,386,0,0
-287,638,0,0,0,0,0,0,0,0,0,-1,937,386,0,0
-280,638,0,0,0,0,0,0,0,0,0,-1,944,386,0,0
-273,638,0,0,0,0,0,0,0,0,0,-1,951,386,0,0
-266,638,11.033,-30.7778,0,0,0,0,0,0,0,-1,958,386,11.033,30.7778
-259,638,10.9623,-30.0927,0,0,0,0,0,0,0,-1,965,386,10.9623,30.0927
-252,638,10.8915,-29.4076,0,0,0,0,0,0,0,-1,972,386,10.8916,29.4076
-245,638,3.35309,-26.4681,0,0,0,0,0,0,0,-1,979,386,3.35311,26.4681
-238,638,2.93518,-26.3649,0,0,0,0,0,0,0,-1,986,386,2.93516,26.3649
-231,638,2.36829,-26.0088,0,0,0,0,0,0,0,-1,993,386,2.3683,26.0088
-224,638,1.80823,-25.8195,0,0,0,0,0,0,0,-1,1000,386,1.8082,25.8196
-217,638,3.34961,-27.6036,0,0,0,0,0,0,0,-1,1007,386,3.3496,27.6036
-210,638,3.00073,-28.7896,0,0,0,0,0,0,0,-1,1014,386,3.00073,28.7896
-203,638,4.32593,-27.5803,0,0,0,0,0,0,0,-1,1021,386,4.32594,27.5803
-196,638,5.43237,-26.3858,0,0,0,0,0,0,0,-1,1028,386,5.43235,26.3858
-189,638,4.22412,-24.8445,0,0,0,0,0,0,0,-1,1035,386,4.22413,24.8445
-182,638,4.84229,-28.485,0,0,0,0,0,0,0,-1,1042,386,4.8423,28.485
-175,638,5.69897,-30.1052,0,0,0,0,0,0,0,-1,1049,386,5.69896,30.1052
-168,638,5.29407,-30.735,0.0111594,0.0359337,0.0024218,0.0361683,0.0109249,1.47426,0.0214203,0.0418701,1056,386,5.29402,30.735
-161,638,5.37708,-31.0836,0.00550487,0.0272484,0.000577829,0.0272638,0.00548952,1.54425,0.0166504,0.0388782,1063,386,5.37702,31.0836
-154,638,5.36975,-31.3477,0.000610636,0.0206984,-0.000690044,0.020722,0.00058696,-1.5365,0.0136233,0.0333695,1070,386,5.36976,31.3477
-147,638,5.31006,-31.6079,-0.00475725,0.0141218,-0.00246193,0.0144376,-0.00507302,-1.44323,0.011689,0.0278241,1077,386,5.31001,31.6079
-140,638,5.26196,-31.9277,-0.00855095,0.00973113,-0.00290624,0.010182,-0.00900183,-1.41688,0.0110828,0.0257499,1084,386,5.26198,31.9277
-133,638,5.21204,-32.3995,-0.00957627,0.00956444,-0.00238556,0.00985728,-0.00986911,-1.44865,0.011389,0.0231646,1091,386,5.21202,32.3995
-126,638,5.18372,-32.7292,-0.0102099,0.0095403,-0.00197912,0.00973667,-0.0104063,-1.4719,0.0116317,0.0188894,1098,386,5.1837,32.7292
-119,638,5.13416,-33.0838,-0.0102486,0.00959158,-0.00168001,0.00973284,-0.0103899,-1.48692,0.0116199,0.0172552,1105,386,5.13415,33.0838
-112,638,5.13721,-33.4098,-0.0100566,0.00958915,-0.00141496,0.00969053,-0.010158,-1.49926,0.0114606,0.0150613,1112,386,5.13721,33.4098
-105,638,5.10413,-33.7046,-0.010007,0.00930606,-0.00103731,0.00936162,-0.0100625,-1.51729,0.011217,0.0163133,1119,386,5.10407,33.7046
-98,638,5.06799,-33.9785,-0.00937,0.00845727,-0.000839434,0.00849671,-0.00940944,-1.52385,0.0103426,0.0167544,1126,386,5.06796,33.9785
-91,638,5.02332,-34.2652,-0.00818992,0.00763253,-0.000710809,0.0076644,-0.00822179,-1.52599,0.00917378,0.0135833,1133,386,5.02327,34.2652
-84,638,5.00012,-34.5341,-0.00679951,0.00625029,-0.000482322,0.0062681,-0.00681731,-1.5339,0.00755708,0.0150039,1140,386,5.00017,34.5341
-77,638,4.9646,-34.7879,-0.0057625,0.0050792,-0.000258212,0.00508535,-0.00576865,-1.547,0.0062707,0.0122762,1147,386,4.96459,34.7879
-70,638,4.94836,-35.0338,-0.00450486,0.0039488,5.79827e-05,0.0039492,-0.00450526,1.56394,0.0048847,0.0116133,1154,386,4.94841,35.0338
-63,638,4.93213,-35.2689,-0.00239088,0.00362409,-0.000200981,0.0036308,-0.00239759,-1.53743,0.00350468,0.0116457,1161,386,4.93208,35.2689
-56,638,4.92871,-35.468,-0.00172177,0.00330746,-0.000359259,0.00333299,-0.00174731,-1.49984,0.00298036,0.0147909,1168,386,4.92867,35.468
-49,638,4.90967,-35.6676,-0.000883319,0.00305525,-0.000476963,0.00311219,-0.000940257,-1.45198,0.00244913,0.0129226,1175,386,4.90973,35.6676
-42,638,4.90027,-35.8609,-0.000341252,0.0027849,-0.000467831,0.00285341,-0.000409762,-1.42539,0.00205254,0.0114498,1182,386,4.90022,35.8609
-35,638,4.88391,-36.0638,-1.04998e-05,0.00303927,-0.000297121,0.00306795,-3.91769e-05,-1.47458,0.00205848,0.0108331,1189,386,4.88389,36.0638
-28,638,4.87402,-36.2514,0.000316292,0.00319868,-0.000139038,0.00320537,0.000309601,-1.52271,0.00204156,0.0104664,1196,386,4.87407,36.2514
-21,638,4.83374,-36.3942,0.000584669,0.00324282,6.60103e-05,0.00324446,0.000583031,1.54598,0.0019972,0.0113046,1203,386,4.83377,36.3942
-14,638,4.81982,-36.5543,0.00075997,0.00341293,0.000272905,0.00344071,0.000732188,1.46934,0.00209288,0.0118867,1210,386,4.81984,36.5543
-7,638,4.85706,-36.7207,0.000977941,0.00354719,0.000380404,0.00360233,0.000922802,1.42685,0.00216067,0.0180498,1217,386,4.85702,36.7207
0,638,4.87805,-36.6937,0.0010605,0.00371168,0.000474042,0.00379389,0.000978287,1.39908,0.00227441,0.0316455,1224,386,4.87809,36.6937
7,638,4.81921,-36.8383,0.000994192,0.00397152,0.000584066,0.004082,0.000883715,1.38385,0.00247981,0.0250053,1231,386,4.81924,36.8383
14,638,4.80017,-36.9958,0.000766368,0.00431369,0.000768303,0.00447294,0.000607113,1.36641,0.0028016,0.0128574,1238,386,4.80019,36.9958
21,638,4.80725,-37.0765,0.000420841,0.00488028,0.000963957,0.00507973,0.000221391,1.36677,0.00331515,0.0101274,1245,386,4.80729,37.0765
28,638,4.80933,-37.1398,6.77122e-05,0.00561054,0.00108577,0.00581564,-0.000137388,1.3841,0.00392369,0.00834421,1252,386,4.80934,37.1398
35,638,4.81201,-37.1837,-0.000310359,0.0065771,0.00113417,0.00675906,-0.000492316,1.41172,0.00467878,0.0100783,1259,386,4.81198,37.1837
42,638,4.83716,-37.2288,-0.000980203,0.00764807,0.00116056,0.00780145,-0.00113358,1.4394,0.00561708,0.00984172,1266,386,4.8372,37.2288
49,638,4.86194,-37.2539,-0.00161163,0.00877324,0.00112634,0.008894,-0.00173239,1.46399,0.00658322,0.0087221,1273,386,4.86189,37.2539
56,638,4.84558,-37.2601,-0.00212661,0.00974813,0.000949392,0.00982355,-0.00220204,1.49152,0.00739318,0.0114957,1280,386,4.84563,37.2601
63,638,4.82837,-37.2678,-0.00276684,0.0105808,0.000613518,0.0106089,-0.00279498,1.52496,0.0081653,0.0135326,1287,386,4.82842,37.2678
70,638,4.79736,-37.2694,-0.00313054,0.0109495,0.000497782,0.0109671,-0.00314811,1.5355,0.00855606,0.018663,1294,386,4.7974,37.2694
77,638,4.78992,-37.2319,-0.00321703,0.0113046,0.000518054,0.0113231,-0.00323548,1.53518,0.00882713,0.0187772,1301,386,4.78987,37.2319
84,638,4.83411,-37.1754,-0.00337137,0.0113418,0.00051299,0.0113597,-0.00338923,1.53599,0.00892013,0.0135857,1308,386,4.83405,37.1754
91,638,4.83667,-37.1083,-0.00368209,0.0110959,0.000556297,0.0111168,-0.003703,1.53322,0.00890596,0.0159278,1315,386,4.83671,37.1083
98,638,4.81738,-37.0236,-0.00338266,0.0106689,0.000791631,0.0107133,-0.00342712,1.5147,0.0085176,0.0133629,1322,386,4.81737,37.0236
105,638,4.8114,-36.9512,-0.00244824,0.010212,0.0010588,0.0103,-0.00253617,1.48793,0.00784982,0.00914063,1329,386,4.81145,36.9512
112,638,4.8114,-36.8778,-0.00162746,0.00975096,0.00128568,0.00989443,-0.00177093,1.45967,0.00725896,0.00918506,1336,386,4.81142,36.8778
119,638,4.81104,-36.7708,-0.000729153,0.00912037,0.00157305,0.0093655,-0.000974282,1.41621,0.00659247,0.0117128,1343,386,4.81098,36.7708
126,638,4.80981,-36.617,0.000197568,0.00853695,0.00184075,0.00892519,-0.000190668,1.36293,0.00601469,0.0162498,1350,386,4.80986,36.617
133,638,4.80103,-36.4776,0.00102256,0.0080587,0.00214624,0.0086617,0.000419565,1.2969,0.00563981,0.0168032,1357,386,4.80099,36.4776
140,638,4.79041,-36.3704,0.00160254,0.00761323,0.00242463,0.00846935,0.000746414,1.23137,0.00541461,0.0168783,1364,386,4.79046,36.3704
147,638,4.78064,-36.2159,0.00196067,0.0073619,0.00254698,0.00837349,0.000949085,1.19273,0.0052944,0.0173202,1371,386,4.78068,36.2159
154,638,4.79187,-36.0493,0.00185932,0.00720289,0.00256301,0.00823347,0.000828747,1.18849,0.00523464,0.0160368,1378,386,4.79186,36.0493
161,638,4.78589,-35.8417,0.0013322,0.00736083,0.00249857,0.00826173,0.000431292,1.22474,0.00536983,0.0191897,1385,386,4.78591,35.8417
168,638,4.76282,-35.611,0.000672181,0.00739908,0.002425,0.00818212,-0.000110863,1.25846,0.00549208,0.0241043,1392,386,4.76287,35.611
175,638,4.73975,-35.4088,-0.000560491,0.00769721,0.00217304,0.00823414,-0.00109742,1.32856,0.00588942,0.0185843,1399,386,4.73975,35.4088
182,638,4.73157,-35.1744,-0.00199353,0.00772919,0.00201714,0.00813106,-0.00239541,1.37414,0.00637109,0.0123286,1406,386,4.73151,35.1744
189,638,4.74158,-34.9174,-0.00255603,0.00783673,0.00190624,0.00817534,-0.00289464,1.395,0.00662922,0.0122174,1413,386,4.74152,34.9174
196,638,4.70276,-34.6577,-0.00258307,0.00748297,0.00200262,0.00786675,-0.00296686,1.38145,0.00646452,0.0154116,1420,386,4.70277,34.6577
203,638,4.62939,-34.419,-0.00213097,0.00738359,0.00252411,0.00801174,-0.00275912,1.32689,0.00646034,0.0205163,1427,386,4.62944,34.419
210,638,4.62561,-34.1389,-0.00188848,0.00773835,0.00265023,0.00841973,-0.00256986,1.31915,0.00663772,0.0164796,1434,386,4.62564,34.1388
217,638,4.63074,-33.8322,-0.00209014,0.00842483,0.00254142,0.00900687,-0.00267217,1.34566,0.00706578,0.0119664,1441,386,4.63078,33.8322
224,638,4.60266,-33.5078,-0.00205256,0.00959232,0.00248491,0.0101004,-0.00256064,1.36911,0.00772985,0.0105406,1448,386,4.6027,33.5077
231,638,4.55737,-33.1801,-0.00204131,0.0108038,0.00260746,0.0113129,-0.00255042,1.37797,0.00852027,0.0114228,1455,386,4.55743,33.1801
238,638,4.52527,-32.8783,-0.00191565,0.0124258,0.00305248,0.0130484,-0.00253831,1.36957,0.00965691,0.0121367,1462,386,4.52526,32.8783
245,638,4.5127,-32.552,-0.00190427,0.01391,0.00329956,0.0145709,-0.00256509,1.37314,0.0106722,0.0145684,1469,386,4.51272,32.552
252,638,4.48889,-32.206,-0.00158658,0.015396,0.00365696,0.01615,-0.00234058,1.36746,0.0116257,0.0200277,1476,386,4.48885,32.206
259,638,4.44214,-31.8713,-0.00102297,0.0169778,0.0042439,0.0179281,-0.00197335,1.35049,0.0126612,0.0199294,1483,386,4.44214,31.8713
266,638,4.36682,-31.4829,-0.000574484,0.0183405,0.00502094,0.0195907,-0.00182465,1.32677,0.0137092,0.0131327,1490,386,4.36679,31.4829
273,638,4.36157,-31.1371,-7.42748e-05,0.018795,0.00584741,0.0204601,-0.0017394,1.29338,0.0142553,0.0115583,1497,386,4.36157,31.1371
280,638,4.3905,-30.7136,0.000908954,0.0186179,0.00707731,0.0210987,-0.00157192,1.23364,0.014618,0.0209692,1504,386,4.39051,30.7136
287,638,4.54919,-30.0642,0.00225261,0.0172064,0.00854402,0.0210831,-0.0016241,1.14484,0.0146269,0.0383683,1511,386,4.5492,30.0642
294,638,4.60803,-29.5526,0,0,0,0,0,0,0,-1,1518,386,4.60805,29.5526
301,638,4.13403,-29.2666,0,0,0,0,0,0,0,-1,1525,386,4.13404,29.2666
308,638,4.55603,-28.6229,0,0,0,0,0,0,0,-1,1532,386,4.55602,28.6229
315,638,4.76575,-29.4007,0,0,0,0,0,0,0,-1,1539,386,4.7658,29.4007
322,638,4.34888,-29.0851,0,0,0,0,0,0,0,-1,1546,386,4.34882,29.0851
329,638,4.6377,-28.6335,0,0,0,0,0,0,0,-1,1553,386,4.63769,28.6335
336,638,4.60083,-28.1082,0,0,0,0,0,0,0,-1,1560,386,4.60085,28.1082
343,638,4.1908,-28.0948,0,0,0,0,0,0,0,-1,1567,386,4.19082,28.0949
350,638,5.91162,-19.0222,0,0,0,0,0,0,0,-1,1574,386,5.91165,19.0222
357,638,0.387329,-3.01077,0,0,0,0,0,0,0,-1,1581,386,0.387332,3.01077
364,638,3.78149,-6.45215,0,0,0,0,0,0,0,-1,1588,386,3.78155,6.45216
371,638,4.18604,-6.71164,0,0,0,0,0,0,0,-1,1595,386,4.18598,6.71164
378,638,4.59045,-6.97113,0,0,0,0,0,0,0,-1,1602,386,4.5904,6.97112
385,638,0,0,0,0,0,0,0,0,0,-1,1609,386,0,0
392,638,0,0,0,0,0,0,0,0,0,-1,1616,386,0,0
399,638,0,0,0,0,0,0,0,0,0,-1,1623,386,0,0
406,638,0,0,0,0,0,0,0,0,0,-1,1630,386,0,0
413,638,0,0,0,0,0,0,0,0,0,-1,1637,386,0,0
420,638,0,0,0,0,0,0,0,0,0,-1,1644,386,0,0
427,638,0,0,0,0,0,0,0,0,0,-1,1651,386,0,0
434,638,0,0,0,0,0,0,0,0,0,-1,1658,386,0,0
441,638,0,0,0,0,0,0,0,0,0,-1,1665,386,0,0
448,638,0,0,0,0,0,0,0,0,0,-1,1672,386,0,0
455,638,0,0,0,0,0,0,0,0,0,-1,1679,386,0,0
462,638,0,0,0,0,0,0,0,0,0,-1,1686,386,0,0
469,638,0,0,0,0,0,0,0,0,0,-1,1693,386,0,0
476,638,0,0,0,0,0,0,0,0,0,-1,1700,386,0,0
483,638,0,0,0,0,0,0,0,0,0,-1,1707,386,0,0
490,638,0,0,0,0,0,0,0,0,0,-1,1714,386,0,0
497,638,0,0,0,0,0,0,0,0,0,-1,1721,386,0,0
504,638,0,0,0,0,0,0,0,0,0,-1,1728,386,0,0
511,638,0,0,0,0,0,0,0,0,0,-1,1735,386,0,0
518,638,0,0,0,0,0,0,0,0,0,-1,1742,386,0,0
525,638,0,0,0,0,0,0,0,0,0,-1,1749,386,0,0
532,638,0,0,0,0,0,0,0,0,0,-1,1756,386,0,0
539,638,0,0,0,0,0,0,0,0,0,-1,1763,386,0,0
546,638,0,0,0,0,0,0,0,0,0,-1,1770,386,0,0
553,638,0,0,0,0,0,0,0,0,0,-1,1777,386,0,0
560,638,0,0,0,0,0,0,0,0,0,-1,1784,386,0,0
567,638,0,0,0,0,0,0,0,0,0,-1,1791,386,0,0
574,638,0,0,0,0,0,0,0,0,0,-1,1798,386,0,0
581,638,0,0,0,0,0,0,0,0,0,-1,1805,386,0,0
588,638,0,0,0,0,0,0,0,0,0,-1,1812,386,0,0
595,638,0,0,0,0,0,0,0,0,0,-1,1819,386,0,0
602,638,0,0,0,0,0,0,0,0,0,-1,1826,386,0,0
609,638,0,0,0,0,0,0,0,0,0,-1,1833,386,0,0
616,638,0,0,0,0,0,0,0,0,0,-1,1840,386,0,0
623,638,0,0,0,0,0,0,0,0,0,-1,1847,386,0,0
630,638,0,0,0,0,0,0,0,0,0,-1,1854,386,0,0
637,638,0,0,0,0,0,0,0,0,0,-1,1861,386,0,0
644,638,0,0,0,0,0,0,0,0,0,-1,1868,386,0,0
651,638,0,0,0,0,0,0,0,0,0,-1,1875,386,0,0
658,638,0,0,0,0,0,0,0,0,0,-1,1882,386,0,0
665,638,0,0,0,0,0,0,0,0,0,-1,1889,386,0,0
672,638,0,0,0,0,0,0,0,0,0,-1,1896,386,0,0
679,638,0,0,0,0,0,0,0,0,0,-1,1903,386,0,0
686,638,0,0,0,0,0,0,0,0,0,-1,1910,386,0,0
693,638,0,0,0,0,0,0,0,0,0,-1,1917,386,0,0
700,638,0,0,0,0,0,0,0,0,0,-1,1924,386,0,0
707,638,0,0,0,0,0,0,0,0,0,-1,1931,386,0,0
714,638,0,0,0,0,0,0,0,0,0,-1,1938,386,0,0
721,638,0,0,0,0,0,0,0,0,0,-1,1945,386,0,0
728,638,0,0,0,0,0,0,0,0,0,-1,1952,386,0,0
735,638,0,0,0,0,0,0,0,0,0,-1,1959,386,0,0
742,638,0,0,0,0,0,0,0,0,0,-1,1966,386,0,0
749,638,0,0,0,0,0,0,0,0,0,-1,1973,386,0,0
756,638,0,0,0,0,0,0,0,0,0,-1,1980,386,0,0
763,638,0,0,0,0,0,0,0,0,0,-1,1987,386,0,0
770,638,0,0,0,0,0,0,0,0,0,-1,1994,386,0,0
777,638,0,0,0,0,0,0,0,0,0,-1,2001,386,0,0
784,638,0,0,0,0,0,0,0,0,0,-1,2008,386,0,0
791,638,0,0,0,0,0,0,0,0,0,-1,2015,386,0,0
798,638,0,0,0,0,0,0,0,0,0,-1,2022,386,0,0
805,638,0,0,0,0,0,0,0,0,0,-1,2029,386,0,0
812,638,0,0,0,0,0,0,0,0,0,-1,2036,386,0,0
-700,631,0,0,0,0,0,0,0,0,0,-1,524,393,0,0
-693,631,0,0,0,0,0,0,0,0,0,-1,531,393,0,0
-686,631,0,0,0,0,0,0,0,0,0,-1,538,393,0,0
-679,631,0,0,0,0,0,0,0,0,0,-1,545,393,0,0
-672,631,0,0,0,0,0,0,0,0,0,-1,552,393,0,0
-665,631,0,0,0,0,0,0,0,0,0,-1,559,393,0,0
-658,631,0,0,0,0,0,0,0,0,0,-1,566,393,0,0
-651,631,0,0,0,0,0,0,0,0,0,-1,573,393,0,0
-644,631,0,0,0,0,0,0,0,0,0,-1,580,393,0,0
-637,631,0,0,0,0,0,0,0,0,0,-1,587,393,0,0
-630,631,0,0,0,0,0,0,0,0,0,-1,594,393,0,0
-623,631,0,0,0,0,0,0,0,0,0,-1,601,393,0,0
-616,631,0,0,0,0,0,0,0,0,0,-1,608,393,0,0
-609,631,0,0,0,0,0,0,0,0,0,-1,615,393,0,0
-602,631,0,0,0,0,0,0,0,0,0,-1,622,393,0,0
-595,631,0,0,0,0,0,0,0,0,0,-1,629,393,0,0
-588,631,0,0,0,0,0,0,0,0,0,-1,636,393,0,0
-581,631,0,0,0,0,0,0,0,0,0,-1,643,393,0,0
-574,631,0,0,0,0,0,0,0,0,0,-1,650,393,0,0
-567,631,0,0,0,0,0,0,0,0,0,-1,657,393,0,0
-560,631,0,0,0,0,0,0,0,0,0,-1,664,393,0,0
-553,631,0,0,0,0,0,0,0,0,0,-1,671,393,0,0
-546,631,0,0,0,0,0,0,0,0,0,-1,678,393,0,0
-539,631,0,0,0,0,0,0,0,0,0,-1,685,393,0,0
-532,631,0,0,0,0,0,0,0,0,0,-1,692,393,0,0
-525,631,0,0,0,0,0,0,0,0,0,-1,699,393,0,0
-518,631,0,0,0,0,0,0,0,0,0,-1,706,393,0,0
-511,631,0,0,0,0,0,0,0,0,0,-1,713,393,0,0
-504,631,0,0,0,0,0,0,0,0,0,-1,720,393,0,0
-497,631,0,0,0,0,0,0,0,0,0,-1,727,393,0,0
-490,631,0,0,0,0,0,0,0,0,0,-1,734,393,0,0
-483,631,0,0,0,0,0,0,0,0,0,-1,741,393,0,0
-476,631,0,0,0,0,0,0,0,0,0,-1,748,393,0,0
-469,631,0,0,0,0,0,0,0,0,0,-1,755,393,0,0
-462,631,0,0,0,0,0,0,0,0,0,-1,762,393,0,0
-455,631,0,0,0,0,0,0,0,0,0,-1,769,393,0,0
-448,631,0,0,0,0,0,0,0,0,0,-1,776,393,0,0
-441,631,0,0,0,0,0,0,0,0,0,-1,783,393,0,0
-434,631,0,0,0,0,0,0,0,0,0,-1,790,393,0,0
-427,631,0,0,0,0,0,0,0,0,0,-1,797,393,0,0
-420,631,0,0,0,0,0,0,0,0,0,-1,804,393,0,0
-413,631,0,0,0,0,0,0,0,0,0,-1,811,393,0,0
-406,631,0,0,0,0,0,0,0,0,0,-1,818,393,0,0
-399,631,0,0,0,0,0,0,0,0,0,-1,825,393,0,0
-392,631,0,0,0,0,0,0,0,0,0,-1,832,393,0,0
-385,631,0,0,0,0,0,0,0,0,0,-1,839,393,0,0
-378,631,0,0,0,0,0,0,0,0,0,-1,846,393,0,0
-371,631,0,0,0,0,0,0,0,0,0,-1,853,393,0,0
-364,631,0,0,0,0,0,0,0,0,0,-1,860,393,0,0
-357,631,0,0,0,0,0,0,0,0,0,-1,867,393,0,0
-350,631,0,0,0,0,0,0,0,0,0,-1,874,393,0,0
-343,631,0,0,0,0,0,0,0,0,0,-1,881,393,0,0
-336,631,0,0,0,0,0,0,0,0,0,-1,888,393,0,0
-329,631,0,0,0,0,0,0,0,0,0,-1,895,393,0,0
-322,631,0,0,0,0,0,0,0,0,0,-1,902,393,0,0
-315,631,0,0,0,0,0,0,0,0,0,-1,909,393,0,0
-308,631,0,0,0,0,0,0,0,0,0,-1,916,393,0,0
-301,631,0,0,0,0,0,0,0,0,0,-1,923,393,0,0
-294,631,0,0,0,0,0,0,0,0,0,-1,930,393,0,0
-287,631,0,0,0,0,0,0,0,0,0,-1,937,393,0,0
-280,631,8.60339,-27.6646,0,0,0,0,0,0,0,-1,944,393,8.6034,27.6645
-273,631,8.9472,-28.1023,0.0662884,-0.133038,0.0902176,0.101057,-0.167807,0.367847,0.156815,0.0455811,951,393,8.94721,28.1023
-266,631,9.4726,-28.8027,0.0602456,-0.120732,0.0868101,0.095153,-0.15564,0.382326,0.146192,0.0450453,958,393,9.47259,28.8027
-259,631,9.76935,-29.4612,0.0543888,-0.107264,0.0807674,0.0878264,-0.140702,0.392516,0.133113,0.0476995,965,393,9.76935,29.4613
-252,631,10.028,-29.6031,0,0,0,0,0,0,0,-1,972,393,10.028,29.6031
-245,631,4.06909,-25.853,0,0,0,0,0,0,0,-1,979,393,4.06911,25.853
-238,631,3.05438,-25.4099,0,0,0,0,0,0,0,-1,986,393,3.0544,25.4099
-231,631,2.14966,-25.2306,0,0,0,0,0,0,0,-1,993,393,2.14968,25.2306
-224,631,6.83575,-19.7909,0,0,0,0,0,0,0,-1,1000,393,6.83575,19.7909
-217,631,5.05188,-18.3867,0,0,0,0,0,0,0,-1,1007,393,5.0519,18.3866
-210,631,3.37842,-26.3769,0,0,0,0,0,0,0,-1,1014,393,3.37839,26.3769
-203,631,5.05298,-26.4169,0,0,0,0,0,0,0,-1,1021,393,5.05302,26.4169
-196,631,4.82495,-28.275,0,0,0,0,0,0,0,-1,1028,393,4.82494,28.275
-189,631,4.88843,-28.5527,0,0,0,0,0,0,0,-1,1035,393,4.88842,28.5527
-182,631,5.14978,-28.9359,0,0,0,0,0,0,0,-1,1042,393,5.14975,28.936
-175,631,5.26172,-30.1574,0.0127436,0.0349706,0.00151534,0.0350734,0.0126408,1.50304,0.020511,0.0413474,1049,393,5.26171,30.1574
-168,631,5.0304,-30.6638,0.00819319,0.0269778,-7.5649e-05,0.0269782,0.00819289,-1.56677,0.015971,0.0220524,1056,393,5.03039,30.6639
-161,631,5.00574,-31.0525,0.00483645,0.0207428,-0.00117863,0.0208297,0.00474959,-1.49723,0.0126051,0.0114229,1063,393,5.00575,31.0525
-154,631,4.99536,-31.4287,0.00197991,0.0160547,-0.00189743,0.016306,0.0017286,-1.43912,0.0103427,0.0115196,1070,393,4.99534,31.4287
-147,631,4.97327,-31.7703,-0.00127691,0.0113886,-0.00300337,0.0120647,-0.00195301,-1.34937,0.00876694,0.0116856,1077,393,4.97324,31.7703
-140,631,4.94604,-32.1262,-0.00349675,0.00810595,-0.00322716,0.00894315,-0.00433394,-1.31697,0.00781798,0.00996946,1084,393,4.94599,32.1262
-133,631,4.90283,-32.4772,-0.00400638,0.00770732,-0.00279915,0.00834184,-0.0046409,-1.34788,0.00759643,0.00872564,1091,393,4.90287,32.4772
-126,631,4.87427,-32.7948,-0.00433563,0.00749429,-0.00245904,0.00798508,-0.00482641,-1.3738,0.00747128,0.0131651,1098,393,4.87429,32.7948
-119,631,4.83826,-33.1016,-0.00426358,0.00744394,-0.00219026,0.00784028,-0.00465992,-1.39178,0.00729444,0.0160433,1105,393,4.8382,33.1016
-112,631,4.83582,-33.4221,-0.00412442,0.00739657,-0.00193334,0.00771235,-0.0044402,-1.40889,0.00710055,0.0146851,1112,393,4.83584,33.4221
-105,631,4.86609,-33.7161,-0.004184,0.00712494,-0.001595,0.0073456,-0.00440466,-1.43333,0.00685447,0.0193803,1119,393,4.86608,33.7161
-98,631,4.82178,-33.9939,-0.00389484,0.00642681,-0.00139067,0.00661089,-0.00407893,-1.43919,0.00622921,0.0172445,1126,393,4.82173,33.9939
-91,631,4.78101,-34.2568,-0.00327209,0.00573216,-0.00120494,0.00589062,-0.00343055,-1.44004,0.0054437,0.0185365,1133,393,4.78095,34.2568
-84,631,4.75977,-34.5222,-0.00258684,0.00464341,-0.000899248,0.00475357,-0.002697,-1.4489,0.00435587,0.0170606,1140,393,4.75974,34.5222
-77,631,4.73621,-34.7939,-0.00217652,0.00371253,-0.000606141,0.00377427,-0.00223826,-1.46929,0.00350889,0.0115783,1147,393,4.73626,34.7939
-70,631,4.74194,-35.0286,-0.00168504,0.00279998,-0.000264178,0.00281548,-0.00170054,-1.51216,0.00263368,0.012475,1154,393,4.74192,35.0286
-63,631,4.73877,-35.2724,-0.00122722,0.00239541,-9.12283e-05,0.0023977,-0.00122951,-1.54563,0.00213007,0.013196,1161,393,4.73878,35.2724
-56,631,4.71106,-35.5092,-0.00102624,0.00203481,-6.36205e-06,0.00203482,-0.00102625,-1.56872,0.001799,0.0141495,1168,393,4.71101,35.5091
-49,631,4.70007,-35.7057,-0.000698841,0.00164148,0.000127231,0.00164837,-0.000705738,1.51664,0.00139499,0.0111058,1175,393,4.70004,35.7056
-42,631,4.71106,-35.8974,-0.000351479,0.00117201,0.000341464,0.00124504,-0.000424511,1.36009,0.00100197,0.00919783,1182,393,4.71104,35.8974
-35,631,4.73096,-36.0749,-7.43457e-05,0.000866586,0.000589888,0.00115064,-0.000358404,1.12202,0.000910392,0.0102762,1189,393,4.73094,36.0749
-28,631,4.72717,-36.2296,0.000198541,0.000505378,0.000777362,0.00114432,-0.000440397,0.882825,0.000944543,0.0130422,1196,393,4.72712,36.2296
-21,631,4.6875,-36.3846,0.000439407,-0.000131602,0.000999358,0.00119324,-0.000885438,0.64626,0.0012045,0.0115722,1203,393,4.68753,36.3846
-14,631,4.67505,-36.5345,0.000832633,-0.000755747,0.0012014,0.00147861,-0.00140173,0.493344,0.00166316,0.0138896,1210,393,4.67501,36.5345
-7,631,4.71375,-36.7108,0.00147399,-0.00121989,0.00117096,0.00191182,-0.00165771,0.35781,0.00206261,0.0214891,1217,393,4.7138,36.7108
0,631,4.71924,-36.8091,0.0018264,-0.00148773,0.00115561,0.00218956,-0.00185089,0.304484,0.00233548,0.0238705,1224,393,4.71921,36.8091
7,631,4.69812,-36.9046,0.00182971,-0.00161755,0.00122149,0.00221864,-0.00200648,0.308262,0.0024404,0.0180994,1231,393,4.69817,36.9046
14,631,4.71802,-37.0194,0.00169943,-0.00153345,0.00130285,0.00215911,-0.00199314,0.339194,0.00239794,0.0100582,1238,393,4.71799,37.0195
21,631,4.75513,-37.0989,0.0014381,-0.0011151,0.00139719,0.00205408,-0.00173107,0.415234,0.00218801,0.0123712,1245,393,4.75518,37.0989
28,631,4.76465,-37.14,0.00108457,-0.000394306,0.00144684,0.00196997,-0.00127971,0.549166,0.00189026,0.0139202,1252,393,4.76469,37.1401
35,631,4.77332,-37.1786,0.000590998,0.000702346,0.0014518,0.00209954,-0.000806194,0.804563,0.00173213,0.0131934,1259,393,4.77334,37.1786
42,631,4.8158,-37.2306,-0.000142363,0.00203419,0.00136462,0.00269135,-0.000799516,1.122,0.0021118,0.0128136,1266,393,4.81576,37.2306
49,631,4.82141,-37.265,-0.000882835,0.00344514,0.00125015,0.0037803,-0.00121799,1.30886,0.0030095,0.0118483,1273,393,4.82143,37.265
56,631,4.823,-37.2955,-0.0015825,0.00485245,0.000911736,0.00497914,-0.00170919,1.43273,0.00401239,0.0133705,1280,393,4.82301,37.2955
63,631,4.82434,-37.302,-0.00237665,0.00616019,0.000382531,0.0061773,-0.00239376,1.52611,0.00510669,0.0151223,1287,393,4.82433,37.302
70,631,4.83215,-37.2731,-0.00290505,0.00714224,-6.52507e-05,0.00714267,-0.00290548,-1.5643,0.00597076,0.01556,1294,393,4.83214,37.2731
77,631,4.84387,-37.2388,-0.00322745,0.00806301,-0.000368658,0.00807504,-0.00323947,-1.53819,0.00672836,0.0156003,1301,393,4.84387,37.2388
84,631,4.86169,-37.1964,-0.00347654,0.00875287,-0.00077556,0.00880186,-0.00352552,-1.50772,0.00733131,0.0135423,1308,393,4.86169,37.1965
91,631,4.88782,-37.132,-0.00392321,0.00903553,-0.0011258,0.00913261,-0.00402029,-1.48478,0.00778269,0.0173044,1315,393,4.88783,37.132
98,631,4.91162,-37.0555,-0.00290864,0.00891285,-0.00112462,0.00901888,-0.00301468,-1.47679,0.00723011,0.0136843,1322,393,4.91159,37.0555
105,631,4.89807,-36.9759,-0.000109143,0.00857083,-0.00107973,0.00870313,-0.000241438,-1.44888,0.00588422,0.0105595,1329,393,4.89802,36.9759
112,631,4.90674,-36.8894,0.00190542,0.00820188,-0.00105335,0.00837342,0.00173388,-1.40936,0.00510347,0.0115297,1336,393,4.90676,36.8894
119,631,4.90588,-36.7964,0.00411939,0.00758587,-0.000803483,0.00776305,0.00394221,-1.35375,0.00448218,0.0125757,1343,393,4.90591,36.7964
126,631,4.92078,-36.6414,0.0064289,0.0069356,-0.000486409,0.00723069,0.00613382,-1.0255,0.00449962,0.0177381,1350,393,4.92073,36.6414
133,631,4.93872,-36.4978,0.00865602,0.00628452,-5.55311e-05,0.00865732,0.00628322,-0.0233989,0.00516536,0.0194539,1357,393,4.93867,36.4978
140,631,4.9397,-36.3932,0.0104489,0.00554706,0.000398976,0.0104812,0.0055148,0.0806851,0.00605407,0.020108,1364,393,4.93975,36.3932
147,631,4.92883,-36.201,0.0116476,0.00492127,0.000746783,0.0117295,0.00483935,0.109252,0.00680643,0.0214269,1371,393,4.92884,36.2009
154,631,4.94958,-35.9789,0.0117718,0.00446201,0.00092489,0.011887,0.0043468,0.123926,0.00694501,0.0216587,1378,393,4.94963,35.9789
161,631,4.97473,-35.7856,0.0109559,0.00421438,0.00105864,0.0111183,0.00405205,0.152155,0.00649729,0.0244258,1385,393,4.97475,35.7856
168,631,4.98083,-35.5786,0.00932064,0.0040158,0.00111423,0.00954517,0.00379127,0.198848,0.0055496,0.0277192,1392,393,4.98085,35.5786
175,631,4.96851,-35.4102,0.00667362,0.0041244,0.00104454,0.00704695,0.00375108,0.343259,0.00407138,0.0197643,1399,393,4.96855,35.4103
182,631,4.94788,-35.1908,0.00374895,0.00416112,0.000933258,0.00491078,0.00299929,0.894066,0.00285833,0.0107005,1406,393,4.94791,35.1908
189,631,4.94519,-34.9239,0.00153255,0.00433318,0.000977258,0.00464047,0.00122526,1.26614,0.00277685,0.0109592,1413,393,4.94521,34.9239
196,631,4.92407,-34.6679,4.12072e-05,0.00451386,0.00114695,0.00479083,-0.00023576,1.33385,0.0032753,0.0121893,1420,393,4.92411,34.6679
203,631,4.92322,-34.4243,-0.00077953,0.00488563,0.00150873,0.00526237,-0.00115628,1.32609,0.00395049,0.0142021,1427,393,4.92325,34.4244
210,631,4.90259,-34.1717,-0.000849249,0.00547284,0.00169984,0.00590089,-0.00127731,1.3241,0.00442163,0.0156171,1434,393,4.90257,34.1717
217,631,4.88794,-33.9011,-0.00108529,0.00620641,0.00174011,0.00660039,-0.00147927,1.34814,0.00496732,0.0158866,1441,393,4.88791,33.9011
224,631,4.87561,-33.5629,-0.00115117,0.00713968,0.00180313,0.00751485,-0.00152635,1.36565,0.0055886,0.0124929,1448,393,4.87563,33.5629
231,631,4.84021,-33.23,-0.00120726,0.00806922,0.00199911,0.0084817,-0.00161973,1.36732,0.00626457,0.0107434,1455,393,4.84023,33.23
238,631,4.82654,-32.9086,-0.00116255,0.00930099,0.00241233,0.00983037,-0.00169192,1.35478,0.00718427,0.017345,1462,393,4.82651,32.9086
245,631,4.8302,-32.5903,-0.00118862,0.010431,0.00266354,0.0110124,-0.00177008,1.35586,0.00799722,0.0193861,1469,393,4.83015,32.5903
252,631,4.80847,-32.2688,-0.000999022,0.0115895,0.00299252,0.0122647,-0.00167418,1.34889,0.00878784,0.0185594,1476,393,4.80852,32.2688
259,631,4.75378,-31.9045,-0.000639435,0.012826,0.00350761,0.0136849,-0.00149835,1.33065,0.00966151,0.0129666,1483,393,4.75376,31.9045
266,631,4.76099,-31.5403,-0.000386073,0.0138789,0.00415573,0.0150012,-0.00150843,1.30701,0.0105397,0.0118329,1490,393,4.76096,31.5403
273,631,4.74023,-31.1627,-9.88262e-05,0.0142036,0.00481918,0.0156759,-0.00157109,1.2743,0.0110117,0.0146539,1497,393,4.74027,31.1627
280,631,4.69275,-30.7746,0.00057832,0.0140546,0.00579815,0.0162058,-0.00157292,1.21552,0.0113645,0.0130192,1504,393,4.69277,30.7746
287,631,4.66821,-30.364,0.0015367,0.0130916,0.00697657,0.0163724,-0.00174407,1.13123,0.0115403,0.0140467,1511,393,4.6682,30.364
294,631,4.60925,-29.8989,0.00229086,0.012219,0.00811157,0.0167649,-0.00225506,1.05999,0.0119991,0.0179244,1518,393,4.60926,29.8989
301,631,4.54761,-29.4129,0.00304793,0.0106921,0.00919142,0.0168244,-0.00308442,0.982437,0.0123732,0.0261721,1525,393,4.54765,29.4129
308,631,4.7572,-28.8759,0.0040533,0.00835069,0.0102809,0.0167051,-0.00430109,0.888414,0.0128133,0.037373,1532,393,4.75723,28.8759
315,631,4.96411,-28.5639,0.00517739,0.00528209,0.0116244,0.0168543,-0.00639481,0.78765,0.0138683,0.0452031,1539,393,4.96417,28.5639
322,631,4.65869,-28.6477,0.00610186,0.00195845,0.0130046,0.0171987,-0.00913841,0.706409,0.0154413,0.0497155,1546,393,4.65868,28.6477
329,631,4.72217,-28.1146,0.00688362,-0.00164125,0.014107,0.0173581,-0.0121157,0.638684,0.0171062,0.0480041,1553,393,4.72217,28.1146
336,631,4.85791,-27.6824,0.00748139,-0.00519817,0.0146401,0.0170954,-0.0148122,0.581066,0.0184376,0.0446255,1560,393,4.85787,27.6824
343,631,4.54822,-27.3361,0,0,0,0,0,0,0,-1,1567,393,4.54827,27.3361
350,631,2.1344,-9.23401,0,0,0,0,0,0,0,-1,1574,393,2.13439,9.23401
357,631,2.6449,-9.60303,0,0,0,0,0,0,0,-1,1581,393,2.64491,9.60304
364,631,3.39136,-5.7594,0,0,0,0,0,0,0,-1,1588,393,3.39137,5.75939
371,631,3.72839,-6.0574,0,0,0,0,0,0,0,-1,1595,393,3.72845,6.05742
378,631,4.06555,-6.35544,0,0,0,0,0,0,0,-1,1602,393,4.06553,6.35544
385,631,3.90442,-3.58298,0,0,0,0,0,0,0,-1,1609,393,3.90437,3.58299
392,631,0.352295,-2.21301,0,0,0,0,0,0,0,-1,1616,393,0.352345,2.213
399,631,0,0,0,0,0,0,0,0,0,-1,1623,393,0,0
406,631,0,0,0,0,0,0,0,0,0,-1,1630,393,0,0
413,631,0,0,0,0,0,0,0,0,0,-1,1637,393,0,0
420,631,0,0,0,0,0,0,0,0,0,-1,1644,393,0,0
427,631,0,0,0,0,0,0,0,0,0,-1,1651,393,0,0
434,631,0,0,0,0,0,0,0,0,0,-1,1658,393,0,0
441,631,0,0,0,0,0,0,0,0,0,-1,1665,393,0,0
448,631,0,0,0,0,0,0,0,0,0,-1,1672,393,0,0
455,631,0,0,0,0,0,0,0,0,0,-1,1679,393,0,0
462,631,0,0,0,0,0,0,0,0,0,-1,1686,393,0,0
469,631,0,0,0,0,0,0,0,0,0,-1,1693,393,0,0
476,631,0,0,0,0,0,0,0,0,0,-1,1700,393,0,0
483,631,0,0,0,0,0,0,0,0,0,-1,1707,393,0,0
490,631,0,0,0,0,0,0,0,0,0,-1,1714,393,0,0
497,631,0,0,0,0,0,0,0,0,0,-1,1721,393,0,0
504,631,0,0,0,0,0,0,0,0,0,-1,1728,393,0,0
511,631,0,0,0,0,0,0,0,0,0,-1,1735,393,0,0
518,631,0,0,0,0,0,0,0,0,0,-1,1742,393,0,0
525,631,0,0,0,0,0,0,0,0,0,-1,1749,393,0,0
532,631,0,0,0,0,0,0,0,0,0,-1,1756,393,0,0
539,631,0,0,0,0,0,0,0,0,0,-1,1763,393,0,0
546,631,0,0,0,0,0,0,0,0,0,-1,1770,393,0,0
553,631,0,0,0,0,0,0,0,0,0,-1,1777,393,0,0
560,631,0,0,0,0,0,0,0,0,0,-1,1784,393,0,0
567,631,0,0,0,0,0,0,0,0,0,-1,1791,393,0,0
574,631,0,0,0,0,0,0,0,0,0,-1,1798,393,0,0
581,631,0,0,0,0,0,0,0,0,0,-1,1805,393,0,0
588,631,0,0,0,0,0,0,0,0,0,-1,1812,393,0,0
595,631,0,0,0,0,0,0,0,0,0,-1,1819,393,0,0
602,631,0,0,0,0,0,0,0,0,0,-1,1826,393,0,0
609,631,0,0,0,0,0,0,0,0,0,-1,1833,393,0,0
616,631,0,0,0,0,0,0,0,0,0,-1,1840,393,0,0
623,631,0,0,0,0,0,0,0,0,0,-1,1847,393,0,0
630,631,0,0,0,0,0,0,0,0,0,-1,1854,393,0,0
637,631,0,0,0,0,0,0,0,0,0,-1,1861,393,0,0
644,631,0,0,0,0,0,0,0,0,0,-1,1868,393,0,0
651,631,0,0,0,0,0,0,0,0,0,-1,1875,393,0,0
658,631,0,0,0,0,0,0,0,0,0,-1,1882,393,0,0
665,631,0,0,0,0,0,0,0,0,0,-1,1889,393,0,0
672,631,0,0,0,0,0,0,0,0,0,-1,1896,393,0,0
679,631,0,0,0,0,0,0,0,0,0,-1,1903,393,0,0
686,631,0,0,0,0,0,0,0,0,0,-1,1910,393,0,0
693,631,0,0,0,0,0,0,0,0,0,-1,1917,393,0,0
700,631,0,0,0,0,0,0,0,0,0,-1,1924,393,0,0
707,631,0,0,0,0,0,0,0,0,0,-1,1931,393,0,0
714,631,0,0,0,0,0,0,0,0,0,-1,1938,393,0,0
721,631,0,0,0,0,0,0,0,0,0,-1,1945,393,0,0
728,631,0,0,0,0,0,0,0,0,0,-1,1952,393,0,0
735,631,0,0,0,0,0,0,0,0,0,-1,1959,393,0,0
742,631,0,0,0,0,0,0,0,0,0,-1,1966,393,0,0
749,631,0,0,0,0,0,0,0,0,0,-1,1973,393,0,0
756,631,0,0,0,0,0,0,0,0,0,-1,1980,393,0,0
763,631,0,0,0,0,0,0,0,0,0,-1,1987,393,0,0
770,631,0,0,0,0,0,0,0,0,0,-1,1994,393,0,0
777,631,0,0,0,0,0,0,0,0,0,-1,2001,393,0,0
784,631,0,0,0,0,0,0,0,0,0,-1,2008,393,0,0
791,631,0,0,0,0,0,0,0,0,0,-1,2015,393,0,0
798,631,0,0,0,0,0,0,0,0,0,-1,2022,393,0,0
805,631,0,0,0,0,0,0,0,0,0,-1,2029,393,0,0
812,631,0,0,0,0,0,0,0,0,0,-1,2036,393,0,0
-700,624,0,0,0,0,0,0,0,0,0,-1,524,400,0,0
-693,624,0,0,0,0,0,0,0,0,0,-1,531,400,0,0
-686,624,0,0,0,0,0,0,0,0,0,-1,538,400,0,0
-679,624,0,0,0,0,0,0,0,0,0,-1,545,400,0,0
-672,624,0,0,0,0,0,0,0,0,0,-1,552,400,0,0
-665,624,0,0,0,0,0,0,0,0,0,-1,559,400,0,0
-658,624,0,0,0,0,0,0,0,0,0,-1,566,400,0,0
-651,624,0,0,0,0,0,0,0,0,0,-1,573,400,0,0
-644,624,0,0,0,0,0,0,0,0,0,-1,580,400,0,0
-637,624,0,0,0,0,0,0,0,0,0,-1,587,400,0,0
-630,624,0,0,0,0,0,0,0,0,0,-1,594,400,0,0
-623,624,0,0,0,0,0,0,0,0,0,-1,601,400,0,0
-616,624,0,0,0,0,0,0,0,0,0,-1,608,400,0,0
-609,624,0,0,0,0,0,0,0,0,0,-1,615,400,0,0
-602,624,0,0,0,0,0,0,0,0,0,-1,622,400,0,0
-595,624,0,0,0,0,0,0,0,0,0,-1,629,400,0,0
-588,624,0,0,0,0,0,0,0,0,0,-1,636,400,0,0
-581,624,0,0,0,0,0,0,0,0,0,-1,643,400,0,0
-574,624,0,0,0,0,0,0,0,0,0,-1,650,400,0,0
-567,624,0,0,0,0,0,0,0,0,0,-1,657,400,0,0
-560,624,0,0,0,0,0,0,0,0,0,-1,664,400,0,0
-553,624,0,0,0,0,0,0,0,0,0,-1,671,400,0,0
-546,624,0,0,0,0,0,0,0,0,0,-1,678,400,0,0
-539,624,0,0,0,0,0,0,0,0,0,-1,685,400,0,0
-532,624,0,0,0,0,0,0,0,0,0,-1,692,400,0,0
-525,624,0,0,0,0,0,0,0,0,0,-1,699,400,0,0
-518,624,0,0,0,0,0,0,0,0,0,-1,706,400,0,0
-511,624,0,0,0,0,0,0,0,0,0,-1,713,400,0,0
-504,624,0,0,0,0,0,0,0,0,0,-1,720,400,0,0
-497,624,0,0,0,0,0,0,0,0,0,-1,727,400,0,0
-490,624,0,0,0,0,0,0,0,0,0,-1,734,400,0,0
-483,624,0,0,0,0,0,0,0,0,0,-1,741,400,0,0
-476,624,0,0,0,0,0,0,0,0,0,-1,748,400,0,0
-469,624,0,0,0,0,0,0,0,0,0,-1,755,400,0,0
-462,624,0,0,0,0,0,0,0,0,0,-1,762,400,0,0
-455,624,0,0,0,0,0,0,0,0,0,-1,769,400,0,0
-448,624,0,0,0,0,0,0,0,0,0,-1,776,400,0,0
-441,624,0,0,0,0,0,0,0,0,0,-1,783,400,0,0
-434,624,0,0,0,0,0,0,0,0,0,-1,790,400,0,0
-427,624,0,0,0,0,0,0,0,0,0,-1,797,400,0,0
-420,624,0,0,0,0,0,0,0,0,0,-1,804,400,0,0
-413,624,0,0,0,0,0,0,0,0,0,-1,811,400,0,0
-406,624,0,0,0,0,0,0,0,0,0,-1,818,400,0,0
-399,624,0,0,0,0,0,0,0,0,0,-1,825,400,0,0
-392,624,0,0,0,0,0,0,0,0,0,-1,832,400,0,0
-385,624,0,0,0,0,0,0,0,0,0,-1,839,400,0,0
-378,624,0,0,0,0,0,0,0,0,0,-1,846,400,0,0
-371,624,0,0,0,0,0,0,0,0,0,-1,853,400,0,0
-364,624,0,0,0,0,0,0,0,0,0,-1,860,400,0,0
-357,624,0,0,0,0,0,0,0,0,0,-1,867,400,0,0
-350,624,0,0,0,0,0,0,0,0,0,-1,874,400,0,0
-343,624,0,0,0,0,0,0,0,0,0,-1,881,400,0,0
-336,624,0,0,0,0,0,0,0,0,0,-1,888,400,0,0
-329,624,0,0,0,0,0,0,0,0,0,-1,895,400,0,0
-322,624,0,0,0,0,0,0,0,0,0,-1,902,400,0,0
-315,624,0,0,0,0,0,0,0,0,0,-1,909,400,0,0
-308,624,0,0,0,0,0,0,0,0,0,-1,916,400,0,0
-301,624,0,0,0,0,0,0,0,0,0,-1,923,400,0,0
-294,624,-3.88867,-16.7909,0,0,0,0,0,0,0,-1,930,400,-3.88868,16.7909
-287,624,-1.1264,-16.1147,0,0,0,0,0,0,0,-1,937,400,-1.12642,16.1147
-280,624,6.62939,-26.5046,0,0,0,0,0,0,0,-1,944,400,6.62939,26.5046
-273,624,7.30109,-27.0413,0.0535971,-0.109975,0.0727426,0.0812663,-0.137644,0.363471,0.127777,0.0458016,951,400,7.30109,27.0413
-266,624,7.83124,-27.8354,0.0487074,-0.0997215,0.069819,0.0763873,-0.127401,0.377446,0.11888,0.0434777,958,400,7.83121,27.8354
-259,624,8.02167,-28.5853,0.043493,-0.0879736,0.0646217,0.069938,-0.114419,0.388436,0.107466,0.046407,965,400,8.02164,28.5853
-252,624,8.22632,-29.2663,0,0,0,0,0,0,0,-1,972,400,8.2263,29.2663
-245,624,4.72278,-25.3516,0,0,0,0,0,0,0,-1,979,400,4.72279,25.3516
-238,624,4.08038,-25.0565,0,0,0,0,0,0,0,-1,986,400,4.0804,25.0565
-231,624,4.95148,-20.7456,0,0,0,0,0,0,0,-1,993,400,4.95146,20.7456
-224,624,4.4541,-26.6944,0,0,0,0,0,0,0,-1,1000,400,4.45411,26.6944
-217,624,5.27545,-27.5275,0,0,0,0,0,0,0,-1,1007,400,5.27547,27.5275
-210,624,5.14655,-28.1091,0,0,0,0,0,0,0,-1,1014,400,5.14656,28.1091
-203,624,4.8429,-28.588,0,0,0,0,0,0,0,-1,1021,400,4.84294,28.588
-196,624,4.66602,-28.6904,0.0163437,0.0456604,0.00305935,0.0459763,0.0160278,1.46792,0.0269469,0.0456752,1028,400,4.66596,28.6904
-189,624,4.64526,-29.0931,0.0134532,0.0387203,0.00177509,0.0388444,0.0133291,1.501,0.0227917,0.042099,1035,400,4.64528,29.0931
-182,624,4.79224,-29.5293,0.0108103,0.0317479,0.000634844,0.0317672,0.0107911,1.54051,0.0186523,0.0355714,1042,400,4.79227,29.5293
-175,624,4.82288,-30.263,0.0082218,0.0253976,-0.000439072,0.0254088,0.00821058,-1.54526,0.0149726,0.0248844,1049,400,4.82285,30.263
-168,624,4.71082,-30.6924,0.00593342,0.0198001,-0.0013179,0.0199243,0.00580928,-1.47688,0.0118318,0.0145426,1056,400,4.71086,30.6924
-161,624,4.68018,-31.0912,0.00412234,0.0153277,-0.00187418,0.0156329,0.00381718,-1.40939,0.00941122,0.0107693,1063,400,4.68016,31.0912
-154,624,4.67114,-31.4409,0.00260308,0.011935,-0.0022026,0.0124287,0.00210933,-1.35027,0.00767989,0.0101014,1070,400,4.6712,31.4409
-147,624,4.66101,-31.8047,0.000762616,0.00859419,-0.00280764,0.00949672,-0.000139918,-1.25977,0.0063783,0.010913,1077,400,4.66105,31.8047
-140,624,4.6344,-32.1543,-0.00039939,0.0061269,-0.00284956,0.00719597,-0.00146846,-1.21188,0.00535435,0.00982102,1084,400,4.63435,32.1543
-133,624,4.60266,-32.4951,-0.000582499,0.00558779,-0.00247274,0.00645645,-0.00145116,-1.23297,0.00486077,0.0114351,1091,400,4.60268,32.4951
-126,624,4.57532,-32.7915,-0.0007461,0.00524982,-0.00216799,0.00595158,-0.00144786,-1.25775,0.00452817,0.0134326,1098,400,4.57532,32.7915
-119,624,4.5459,-33.0867,-0.000672841,0.00511288,-0.00190844,0.00568568,-0.00124564,-1.27921,0.00426671,0.0145044,1105,400,4.5459,33.0867
-112,624,4.5321,-33.4021,-0.00063643,0.00500553,-0.00165528,0.00545531,-0.00108621,-1.30548,0.00404782,0.0169626,1112,400,4.53212,33.4021
-105,624,4.57251,-33.7078,-0.000785451,0.00472865,-0.00136918,0.00504991,-0.00110671,-1.34033,0.00378976,0.0141215,1119,400,4.57255,33.7078
-98,624,4.51721,-33.9896,-0.000738572,0.00414971,-0.00117497,0.00441747,-0.00100633,-1.34674,0.00333147,0.0139333,1126,400,4.51722,33.9896
-91,624,4.51599,-34.2686,-0.000491519,0.00358839,-0.000988607,0.00381532,-0.000718448,-1.34516,0.00281377,0.0192628,1133,400,4.51602,34.2687
-84,624,4.5498,-34.5526,-0.000202966,0.00282348,-0.000710387,0.00298193,-0.000361417,-1.35134,0.00211873,0.017714,1140,400,4.54978,34.5525
-77,624,4.52478,-34.8145,-3.55083e-05,0.00216896,-0.000468835,0.00226453,-0.000131075,-1.36971,0.00155522,0.0128978,1147,400,4.52481,34.8144
-70,624,4.51563,-35.0176,0.000153377,0.00156529,-0.000230286,0.0016019,0.000116766,-1.41314,0.00103122,0.0140248,1154,400,4.51568,35.0176
-63,624,4.52698,-35.2603,0.000425948,0.0011519,4.03573e-05,0.00115414,0.000423712,1.51543,0.000674139,0.0165756,1161,400,4.52699,35.2603
-56,624,4.50317,-35.5146,0.000725236,0.000676746,0.000230973,0.000933233,0.000468749,0.733105,0.000538804,0.0138151,1168,400,4.50317,35.5147
-49,624,4.51831,-35.7388,0.00103461,2.2854e-05,0.000508652,0.00124612,-0.000188651,0.394066,0.000900241,0.0104849,1175,400,4.51832,35.7388
-42,624,4.5376,-35.9215,0.00140341,-0.000785129,0.000978332,0.00177698,-0.0011587,0.364759,0.0017074,0.0103226,1182,400,4.53756,35.9215
-35,624,4.5564,-36.0787,0.00172459,-0.00168113,0.00136105,0.00220168,-0.00215823,0.337149,0.00251723,0.0151265,1189,400,4.55642,36.0787
-28,624,4.53394,-36.2511,0.00195556,-0.0023913,0.00178801,0.00259652,-0.00303226,0.344205,0.00325302,0.0196265,1196,400,4.53397,36.2511
-21,624,4.52795,-36.4011,0.00211275,-0.0035451,0.00228102,0.00291781,-0.00435017,0.339291,0.00422324,0.0144858,1203,400,4.528,36.4011
-14,624,4.55896,-36.5459,0.00270814,-0.00456163,0.00272169,0.00361418,-0.00546766,0.321356,0.00527968,0.0151905,1210,400,4.55898,36.5459
-7,624,4.58069,-36.6637,0.00369751,-0.00526377,0.00268642,0.00444114,-0.0060074,0.270049,0.00605502,0.0188997,1217,400,4.58072,36.6637
0,624,4.6123,-36.7977,0.00395844,-0.00549582,0.00276092,0.00470565,-0.00624303,0.264307,0.00634196,0.0199326,1224,400,4.61226,36.7977
7,624,4.58899,-36.9154,0.0036875,-0.00559238,0.00294982,0.00454578,-0.00645067,0.283145,0.00638048,0.0146343,1231,400,4.58896,36.9154
14,624,4.65137,-37.0355,0.00330774,-0.00535344,0.00302072,0.00425719,-0.00630288,0.304534,0.00613487,0.0120309,1238,400,4.65141,37.0354
21,624,4.68274,-37.0858,0.00278104,-0.00477559,0.00306104,0.00386541,-0.00585996,0.340453,0.00565417,0.0137029,1245,400,4.68275,37.0858
28,624,4.69336,-37.1552,0.002092,-0.00385762,0.00303597,0.00336768,-0.0051333,0.397787,0.0049432,0.0125943,1252,400,4.69339,37.1551
35,624,4.6991,-37.1974,0.00119859,-0.00252936,0.00292473,0.00280282,-0.00413359,0.501695,0.00402923,0.0150231,1259,400,4.69911,37.1974
42,624,4.73193,-37.2502,2.74316e-05,-0.000828301,0.00257274,0.00220764,-0.00300851,0.702998,0.00302335,0.0174853,1266,400,4.73196,37.2501
49,624,4.76099,-37.2493,-0.0011081,0.000926372,0.00219934,0.00233233,-0.00251405,1.00201,0.00279871,0.0190645,1273,400,4.76094,37.2493
56,624,4.80444,-37.2954,-0.00217355,0.00272682,0.00150847,0.00315394,-0.00260067,1.29487,0.00332754,0.01902,1280,400,4.80442,37.2954
63,624,4.86011,-37.298,-0.00322596,0.00441766,0.000542804,0.00445602,-0.00326432,1.50025,0.004475,0.0153213,1287,400,4.86016,37.298
70,624,4.86487,-37.2878,-0.00411398,0.00576662,-0.000354407,0.00577932,-0.00412667,-1.53499,0.0057457,0.0132109,1294,400,4.86491,37.2878
77,624,4.88269,-37.2452,-0.0048766,0.0071007,-0.00120583,0.00722089,-0.00499679,-1.47145,0.00709273,0.0143893,1301,400,4.88267,37.2453
84,624,4.90942,-37.2073,-0.00544339,0.00818126,-0.00208415,0.00849294,-0.00575507,-1.42235,0.00827656,0.013334,1308,400,4.90942,37.2073
91,624,4.94617,-37.143,-0.0063017,0.00880479,-0.00287592,0.00933378,-0.00683068,-1.38889,0.00936978,0.0135126,1315,400,4.94614,37.143
98,624,4.97412,-37.068,-0.00510283,0.0088983,-0.00310202,0.00955479,-0.00575931,-1.36224,0.00893166,0.0130423,1322,400,4.97412,37.068
105,624,4.99915,-37.0067,-0.0012655,0.00856483,-0.0033131,0.00957718,-0.00227785,-1.27425,0.00726411,0.0149267,1329,400,4.99916,37.0067
112,624,5.02295,-36.9249,0.00143396,0.00819739,-0.00348647,0.00967278,-4.14345e-05,-1.17047,0.00646238,0.0151515,1336,400,5.02298,36.9249
119,624,5.01892,-36.8249,0.0045218,0.00748326,-0.00325045,0.00957437,0.0024307,-0.999126,0.00574667,0.0151497,1343,400,5.01895,36.8248
126,624,5.02368,-36.6707,0.00792604,0.00669521,-0.00285474,0.010231,0.0043903,-0.679235,0.00592659,0.019082,1350,400,5.02367,36.6707
133,624,5.08142,-36.4984,0.0114665,0.00581392,-0.00226113,0.0122597,0.00502073,-0.337383,0.00711663,0.0197867,1357,400,5.08148,36.4984
140,624,5.09546,-36.3776,0.014729,0.00475059,-0.00154081,0.0149615,0.00451808,-0.149768,0.00886094,0.0191289,1364,400,5.0955,36.3776
147,624,5.07764,-36.1856,0.0174817,0.00366637,-0.00084652,0.0175333,0.0036147,-0.0609701,0.0106897,0.0230487,1371,400,5.07767,36.1856
154,624,5.12476,-35.9955,0.018978,0.002817,-0.000389412,0.0189874,0.00280763,-0.0240772,0.0118339,0.0270632,1378,400,5.12475,35.9954
161,624,5.16614,-35.8131,0.0192889,0.00214858,2.9789e-05,0.0192889,0.00214852,0.00173794,0.0122063,0.0260427,1385,400,5.16614,35.8131
168,624,5.2074,-35.6021,0.0184087,0.00164009,0.000324764,0.018415,0.0016338,0.0193578,0.0117699,0.0236004,1392,400,5.20735,35.602
175,624,5.20374,-35.4166,0.0160912,0.00159911,0.000383232,0.0161013,0.00158899,0.0264197,0.0102457,0.0166552,1399,400,5.20379,35.4166
182,624,5.18079,-35.1997,0.0131254,0.00139271,0.000326143,0.0131344,0.00138365,0.0277693,0.00833345,0.0100627,1406,400,5.18073,35.1997
189,624,5.17065,-34.9437,0.0102187,0.00158401,0.000333322,0.0102316,0.00157116,0.0385261,0.00636234,0.00975994,1413,400,5.17066,34.9437
196,624,5.15503,-34.6842,0.00760634,0.00192324,0.000474205,0.00764564,0.00188395,0.0826794,0.00459957,0.0112574,1420,400,5.15507,34.6842
203,624,5.17529,-34.4272,0.003727,0.00257967,0.000594436,0.00397944,0.00232724,0.401589,0.00230852,0.0148029,1427,400,5.17526,34.4272
210,624,5.18616,-34.1686,0.000169365,0.00342813,0.000777123,0.00360396,-6.46908e-06,1.34828,0.0024048,0.0178279,1434,400,5.18619,34.1686
217,624,5.16528,-33.8827,-0.00014579,0.00425493,0.000969155,0.00445891,-0.000349769,1.36335,0.00309579,0.0200824,1441,400,5.16533,33.8827
224,624,5.16541,-33.5797,-0.000327202,0.00506108,0.00115701,0.00529902,-0.000565137,1.36798,0.00373534,0.0160581,1448,400,5.16543,33.5798
231,624,5.15491,-33.2705,-0.000460394,0.00583704,0.00143484,0.00614855,-0.000771908,1.35701,0.00437908,0.0116422,1455,400,5.15487,33.2705
238,624,5.12903,-32.9508,-0.00049263,0.0068119,0.00182236,0.00724131,-0.000922037,1.33939,0.00516241,0.0178468,1462,400,5.12905,32.9508
245,624,5.12439,-32.6367,-0.0005488,0.0077252,0.00207178,0.00821498,-0.00103858,1.33866,0.00585364,0.0191414,1469,400,5.12437,32.6367
252,624,5.11023,-32.2827,-0.00046273,0.00867074,0.00236687,0.00924765,-0.00103965,1.33171,0.00653926,0.0138186,1476,400,5.11018,32.2827
259,624,5.0863,-31.933,-0.000269294,0.00966646,0.00280454,0.0104034,-0.00100626,1.31383,0.00729421,0.00926632,1483,400,5.08634,31.933
266,624,5.10559,-31.5461,-0.000151397,0.0105156,0.00333451,0.0114722,-0.00110798,1.29142,0.00804295,0.0132429,1490,400,5.10559,31.5461
273,624,5.08032,-31.1861,-3.74104e-06,0.0108155,0.00386862,0.0120564,-0.0012447,1.26039,0.00848301,0.0170683,1497,400,5.0803,31.1861
280,624,5.01855,-30.8474,0.000456424,0.0107381,0.0046468,0.012527,-0.00133246,1.20331,0.00882905,0.0157188,1504,400,5.01852,30.8474
287,624,5.00037,-30.4724,0.00113604,0.0101296,0.00559446,0.0128105,-0.00154485,1.12392,0.00909911,0.0117757,1511,400,5.00037,30.4724
294,624,4.96411,-30.0533,0.00162231,0.00957378,0.00649233,0.013211,-0.00201489,1.06013,0.00955007,0.0102369,1518,400,4.96411,30.0533
301,624,4.94409,-29.6037,0.00210141,0.00853451,0.00733571,0.0133279,-0.00269196,0.992014,0.00990526,0.0112653,1525,400,4.94407,29.6037
308,624,4.93872,-29.1575,0.00276732,0.00697425,0.00820158,0.0133378,-0.00359624,0.910928,0.010302,0.0154377,1532,400,4.9387,29.1575
315,624,4.92004,-28.7284,0.0035013,0.00500212,0.0092298,0.013512,-0.00500855,0.82596,0.0110621,0.0203554,1539,400,4.91999,28.7284
322,624,4.92761,-28.3261,0.00407563,0.00289273,0.0102515,0.0137528,-0.0067844,0.756583,0.0120825,0.033472,1546,400,4.92766,28.3261
329,624,4.95349,-27.8086,0.0045281,0.00065759,0.0110732,0.0138338,-0.00864816,0.698887,0.0130946,0.0481478,1553,400,4.95353,27.8086
336,624,5.07715,-27.3124,0.00479888,-0.00145497,0.0115035,0.0135928,-0.0102489,0.652692,0.0138101,0.0429647,1560,400,5.07719,27.3124
343,624,5.18176,-26.8724,0,0,0,0,0,0,0,-1,1567,400,5.18175,26.8724
350,624,1.99194,-7.29742,0,0,0,0,0,0,0,-1,1574,400,1.99198,7.29741
357,624,2.64075,-3.13092,0,0,0,0,0,0,0,-1,1581,400,2.64076,3.13091
364,624,3.16565,-4.9458,0,0,0,0,0,0,0,-1,1588,400,3.16564,4.94579
371,624,3.37561,-5.23529,0,0,0,0,0,0,0,-1,1595,400,3.37563,5.23529
378,624,1.50439,-5.22165,0,0,0,0,0,0,0,-1,1602,400,1.50438,5.22164
385,624,1.2301,-10.5866,0,0,0,0,0,0,0,-1,1609,400,1.2301,10.5866
392,624,4.26819,-5.14236,0,0,0,0,0,0,0,-1,1616,400,4.26818,5.14236
399,624,2.22168,-9.19293,0,0,0,0,0,0,0,-1,1623,400,2.22173,9.19294
406,624,2.68213,-9.91171,0,0,0,0,0,0,0,-1,1630,400,2.68213,9.91171
413,624,0,0,0,0,0,0,0,0,0,-1,1637,400,0,0
420,624,0,0,0,0,0,0,0,0,0,-1,1644,400,0,0
427,624,0,0,0,0,0,0,0,0,0,-1,1651,400,0,0
434,624,0,0,0,0,0,0,0,0,0,-1,1658,400,0,0
441,624,0,0,0,0,0,0,0,0,0,-1,1665,400,0,0
448,624,0,0,0,0,0,0,0,0,0,-1,1672,400,0,0
455,624,0,0,0,0,0,0,0,0,0,-1,1679,400,0,0
462,624,0,0,0,0,0,0,0,0,0,-1,1686,400,0,0
469,624,0,0,0,0,0,0,0,0,0,-1,1693,400,0,0
476,624,0,0,0,0,0,0,0,0,0,-1,1700,400,0,0
483,624,0,0,0,0,0,0,0,0,0,-1,1707,400,0,0
490,624,0,0,0,0,0,0,0,0,0,-1,1714,400,0,0
497,624,0,0,0,0,0,0,0,0,0,-1,1721,400,0,0
504,624,0,0,0,0,0,0,0,0,0,-1,1728,400,0,0
511,624,0,0,0,0,0,0,0,0,0,-1,1735,400,0,0
518,624,0,0,0,0,0,0,0,0,0,-1,1742,400,0,0
525,624,0,0,0,0,0,0,0,0,0,-1,1749,400,0,0
532,624,0,0,0,0,0,0,0,0,0,-1,1756,400,0,0
539,624,0,0,0,0,0,0,0,0,0,-1,1763,400,0,0
546,624,0,0,0,0,0,0,0,0,0,-1,1770,400,0,0
553,624,0,0,0,0,0,0,0,0,0,-1,1777,400,0,0
560,624,0,0,0,0,0,0,0,0,0,-1,1784,400,0,0
567,624,0,0,0,0,0,0,0,0,0,-1,1791,400,0,0
574,624,0,0,0,0,0,0,0,0,0,-1,1798,400,0,0
581,624,0,0,0,0,0,0,0,0,0,-1,1805,400,0,0
588,624,0,0,0,0,0,0,0,0,0,-1,1812,400,0,0
595,624,0,0,0,0,0,0,0,0,0,-1,1819,400,0,0
602,624,0,0,0,0,0,0,0,0,0,-1,1826,400,0,0
609,624,0,0,0,0,0,0,0,0,0,-1,1833,400,0,0
616,624,0,0,0,0,0,0,0,0,0,-1,1840,400,0,0
623,624,0,0,0,0,0,0,0,0,0,-1,1847,400,0,0
630,624,0,0,0,0,0,0,0,0,0,-1,1854,400,0,0
637,624,0,0,0,0,0,0,0,0,0,-1,1861,400,0,0
644,624,0,0,0,0,0,0,0,0,0,-1,1868,400,0,0
651,624,0,0,0,0,0,0,0,0,0,-1,1875,400,0,0
658,624,0,0,0,0,0,0,0,0,0,-1,1882,400,0,0
665,624,0,0,0,0,0,0,0,0,0,-1,1889,400,0,0
672,624,0,0,0,0,0,0,0,0,0,-1,1896,400,0,0
679,624,0,0,0,0,0,0,0,0,0,-1,1903,400,0,0
686,624,0,0,0,0,0,0,0,0,0,-1,1910,400,0,0
693,624,0,0,0,0,0,0,0,0,0,-1,1917,400,0,0
700,624,0,0,0,0,0,0,0,0,0,-1,1924,400,0,0
707,624,0,0,0,0,0,0,0,0,0,-1,1931,400,0,0
714,624,0,0,0,0,0,0,0,0,0,-1,1938,400,0,0
721,624,0,0,0,0,0,0,0,0,0,-1,1945,400,0,0
728,624,0,0,0,0,0,0,0,0,0,-1,1952,400,0,0
735,624,0,0,0,0,0,0,0,0,0,-1,1959,400,0,0
742,624,0,0,0,0,0,0,0,0,0,-1,1966,400,0,0
749,624,0,0,0,0,0,0,0,0,0,-1,1973,400,0,0
756,624,0,0,0,0,0,0,0,0,0,-1,1980,400,0,0
763,624,0,0,0,0,0,0,0,0,0,-1,1987,400,0,0
770,624,0,0,0,0,0,0,0,0,0,-1,1994,400,0,0
777,624,0,0,0,0,0,0,0,0,0,-1,2001,400,0,0
784,624,0,0,0,0,0,0,0,0,0,-1,2008,400,0,0
791,624,0,0,0,0,0,0,0,0,0,-1,2015,400,0,0
798,624,0,0,0,0,0,0,0,0,0,-1,2022,400,0,0
805,624,0,0,0,0,0,0,0,0,0,-1,2029,400,0,0
812,624,0,0,0,0,0,0,0,0,0,-1,2036,400,0,0
-700,617,0,0,0,0,0,0,0,0,0,-1,524,407,0,0
-693,617,0,0,0,0,0,0,0,0,0,-1,531,407,0,0
-686,617,0,0,0,0,0,0,0,0,0,-1,538,407,0,0
-679,617,0,0,0,0,0,0,0,0,0,-1,545,407,0,0
-672,617,0,0,0,0,0,0,0,0,0,-1,552,407,0,0
-665,617,0,0,0,0,0,0,0,0,0,-1,559,407,0,0
-658,617,0,0,0,0,0,0,0,0,0,-1,566,407,0,0
-651,617,0,0,0,0,0,0,0,0,0,-1,573,407,0,0
-644,617,0,0,0,0,0,0,0,0,0,-1,580,407,0,0
-637,617,0,0,0,0,0,0,0,0,0,-1,587,407,0,0
-630,617,0,0,0,0,0,0,0,0,0,-1,594,407,0,0
-623,617,0,0,0,0,0,0,0,0,0,-1,601,407,0,0
-616,617,0,0,0,0,0,0,0,0,0,-1,608,407,0,0
-609,617,0,0,0,0,0,0,0,0,0,-1,615,407,0,0
-602,617,0,0,0,0,0,0,0,0,0,-1,622,407,0,0
-595,617,0,0,0,0,0,0,0,0,0,-1,629,407,0,0
-588,617,0,0,0,0,0,0,0,0,0,-1,636,407,0,0
-581,617,0,0,0,0,0,0,0,0,0,-1,643,407,0,0
-574,617,0,0,0,0,0,0,0,0,0,-1,650,407,0,0
-567,617,0,0,0,0,0,0,0,0,0,-1,657,407,0,0
-560,617,0,0,0,0,0,0,0,0,0,-1,664,407,0,0
-553,617,0,0,0,0,0,0,0,0,0,-1,671,407,0,0
-546,617,0,0,0,0,0,0,0,0,0,-1,678,407,0,0
-539,617,0,0,0,0,0,0,0,0,0,-1,685,407,0,0
-532,617,0,0,0,0,0,0,0,0,0,-1,692,407,0,0
-525,617,0,0,0,0,0,0,0,0,0,-1,699,407,0,0
-518,617,0,0,0,0,0,0,0,0,0,-1,706,407,0,0
-511,617,0,0,0,0,0,0,0,0,0,-1,713,407,0,0
-504,617,0,0,0,0,0,0,0,0,0,-1,720,407,0,0
-497,617,0,0,0,0,0,0,0,0,0,-1,727,407,0,0
-490,617,0,0,0,0,0,0,0,0,0,-1,734,407,0,0
-483,617,0,0,0,0,0,0,0,0,0,-1,741,407,0,0
-476,617,0,0,0,0,0,0,0,0,0,-1,748,407,0,0
-469,617,0,0,0,0,0,0,0,0,0,-1,755,407,0,0
-462,617,0,0,0,0,0,0,0,0,0,-1,762,407,0,0
-455,617,0,0,0,0,0,0,0,0,0,-1,769,407,0,0
-448,617,0,0,0,0,0,0,0,0,0,-1,776,407,0,0
-441,617,0,0,0,0,0,0,0,0,0,-1,783,407,0,0
-434,617,0,0,0,0,0,0,0,0,0,-1,790,407,0,0
-427,617,0,0,0,0,0,0,0,0,0,-1,797,407,0,0
-420,617,0,0,0,0,0,0,0,0,0,-1,804,407,0,0
-413,617,0,0,0,0,0,0,0,0,0,-1,811,407,0,0
-406,617,0,0,0,0,0,0,0,0,0,-1,818,407,0,0
-399,617,0,0,0,0,0,0,0,0,0,-1,825,407,0,0
-392,617,0,0,0,0,0,0,0,0,0,-1,832,407,0,0
-385,617,0,0,0,0,0,0,0,0,0,-1,839,407,0,0
-378,617,0,0,0,0,0,0,0,0,0,-1,846,407,0,0
-371,617,0,0,0,0,0,0,0,0,0,-1,853,407,0,0
-364,617,0,0,0,0,0,0,0,0,0,-1,860,407,0,0
-357,617,0,0,0,0,0,0,0,0,0,-1,867,407,0,0
-350,617,0,0,0,0,0,0,0,0,0,-1,874,407,0,0
-343,617,0,0,0,0,0,0,0,0,0,-1,881,407,0,0
-336,617,0,0,0,0,0,0,0,0,0,-1,888,407,0,0
-329,617,0,0,0,0,0,0,0,0,0,-1,895,407,0,0
-322,617,0,0,0,0,0,0,0,0,0,-1,902,407,0,0
-315,617,0,0,0,0,0,0,0,0,0,-1,909,407,0,0
-308,617,0,0,0,0,0,0,0,0,0,-1,916,407,0,0
-301,617,6.8504,-26.4473,0,0,0,0,0,0,0,-1,923,407,6.85041,26.4473
-294,617,8.41962,-26.4389,0,0,0,0,0,0,0,-1,930,407,8.41964,26.4389
-287,617,4.55206,-24.8128,0,0,0,0,0,0,0,-1,937,407,4.55207,24.8128
-280,617,5.17279,-25.0622,0,0,0,0,0,0,0,-1,944,407,5.17279,25.0622
-273,617,5.97894,-25.6442,0.0420865,-0.0873243,0.0567726,0.063462,-0.1087,0.360094,0.100535,0.0444681,951,407,5.97892,25.6442
-266,617,6.0816,-27.0438,0.0380925,-0.0789252,0.0539855,0.0591935,-0.100026,0.372605,0.0929277,0.0432511,958,407,6.08162,27.0438
-259,617,6.35059,-27.4279,0.0337433,-0.0688397,0.0496218,0.0538181,-0.0889144,0.384427,0.0832329,0.046961,965,407,6.35059,27.4279
-252,617,5.79944,-26.9059,0,0,0,0,0,0,0,-1,972,407,5.79944,26.9059
-245,617,5.4162,-26.8647,0,0,0,0,0,0,0,-1,979,407,5.41617,26.8646
-238,617,4.13452,-26.7187,0,0,0,0,0,0,0,-1,986,407,4.13455,26.7187
-231,617,4.50287,-26.3157,0,0,0,0,0,0,0,-1,993,407,4.50289,26.3157
-224,617,4.53223,-26.9954,0,0,0,0,0,0,0,-1,1000,407,4.53226,26.9954
-217,617,4.71674,-27.6437,0.015114,0.0247731,0.0116914,0.0325932,0.00729389,0.981267,0.0197516,0.0447907,1007,407,4.71671,27.6437
-210,617,4.65289,-28.2506,0.0127978,0.0319551,0.00568507,0.0335152,0.0112378,1.30298,0.0196968,0.0314894,1014,407,4.65292,28.2506
-203,617,4.51782,-28.7286,0.0110557,0.0368841,0.000529501,0.036895,0.0110449,1.55031,0.0218655,0.0225352,1021,407,4.51781,28.7286
-196,617,4.4917,-29.1141,0.00950716,0.0319535,0.000164089,0.0319547,0.00950596,1.56349,0.0189468,0.0170586,1028,407,4.4917,29.1141
-189,617,4.41809,-29.5229,0.00782308,0.0272116,-0.000400253,0.0272199,0.00781482,-1.55016,0.0161833,0.0152363,1035,407,4.41804,29.5229
-182,617,4.43042,-29.9162,0.00630515,0.0223625,-0.00086362,0.0224088,0.00625883,-1.51722,0.0133512,0.0180497,1042,407,4.43036,29.9162
-175,617,4.41626,-30.2895,0.00483207,0.0178538,-0.00126359,0.0179752,0.00471058,-1.47495,0.0107626,0.0176182,1049,407,4.41629,30.2895
-168,617,4.37708,-30.7233,0.00353539,0.0138794,-0.00161241,0.0141249,0.00328988,-1.41969,0.00853406,0.0119749,1056,407,4.37711,30.7233
-161,617,4.34631,-31.1303,0.00252922,0.0106293,-0.00179035,0.0110074,0.00215115,-1.36268,0.00673669,0.0110633,1063,407,4.34625,31.1303
-154,617,4.32947,-31.4721,0.00167115,0.00813468,-0.00184485,0.00862417,0.00118165,-1.31144,0.00539884,0.0115231,1070,407,4.32946,31.4721
-147,617,4.32776,-31.8169,0.000580782,0.00572708,-0.00207093,0.00645694,-0.000149074,-1.23196,0.00435517,0.0157298,1077,407,4.32772,31.8169
-140,617,4.33337,-32.1839,-4.6558e-05,0.00389208,-0.00196407,0.00470409,-0.000858566,-1.17876,0.00345796,0.0125038,1084,407,4.33333,32.1839
-133,617,4.30066,-32.4906,-9.4662e-05,0.00328661,-0.00163592,0.00394853,-0.000756577,-1.18632,0.00291743,0.0146327,1091,407,4.30067,32.4906
-126,617,4.27087,-32.7765,-0.000151747,0.00289283,-0.00137816,0.00342399,-0.000682914,-1.20292,0.00254108,0.0137261,1098,407,4.27091,32.7765
-119,617,4.25659,-33.1049,-2.4414e-05,0.00270837,-0.00115651,0.0031321,-0.000448144,-1.2196,0.00225236,0.0132615,1105,407,4.25659,33.105
-112,617,4.25635,-33.4112,8.67763e-05,0.00256514,-0.000951862,0.00288852,-0.000236608,-1.24329,0.0020092,0.0152477,1112,407,4.2564,33.4112
-105,617,4.26868,-33.6985,0.000120487,0.00231502,-0.000763568,0.00255455,-0.000119045,-1.26682,0.00174407,0.0166507,1119,407,4.26871,33.6985
-98,617,4.23511,-33.9942,0.000286484,0.00186421,-0.000619453,0.00207835,7.23373e-05,-1.23796,0.0013621,0.0130712,1126,407,4.23516,33.9942
-91,617,4.25403,-34.2672,0.000562608,0.00144773,-0.000493881,0.00166832,0.00034201,-1.15072,0.00101756,0.0175633,1133,407,4.25408,34.2672
-84,617,4.31018,-34.5627,0.000858613,0.0010155,-0.00028974,0.00123722,0.000636884,-0.917595,0.000714416,0.0167164,1140,407,4.31019,34.5626
-77,617,4.28748,-34.8056,0.00116039,0.000597932,-0.000114903,0.00118296,0.000575364,-0.193937,0.000683068,0.0134284,1147,407,4.28749,34.8056
-70,617,4.29846,-35.0297,0.00157014,0.000272927,-3.26796e-05,0.00157097,0.000272104,-0.0251708,0.000969424,0.015104,1154,407,4.29846,35.0297
-63,617,4.32324,-35.2739,0.00203102,-8.90636e-05,0.000282067,0.0020679,-0.000125949,0.130032,0.00142245,0.018554,1161,407,4.32327,35.2739
-56,617,4.302,-35.507,0.00247347,-0.000581539,0.000545582,0.00256798,-0.000676049,0.171525,0.00197626,0.0143647,1168,407,4.30198,35.507
-49,617,4.31299,-35.7313,0.00281045,-0.00143956,0.000954285,0.00301489,-0.001644,0.211042,0.00272835,0.0111392,1175,407,4.31302,35.7313
-42,617,4.3501,-35.9348,0.0032361,-0.00259815,0.00173082,0.00371093,-0.00307298,0.267751,0.00392246,0.0131161,1182,407,4.35012,35.9348
-35,617,4.38342,-36.091,0.00360412,-0.00406974,0.00227262,0.00422666,-0.00469227,0.26737,0.00515168,0.0177352,1189,407,4.38337,36.091
-28,617,4.35278,-36.2527,0.00386758,-0.00488119,0.00321097,0.00491957,-0.00593319,0.316604,0.00627495,0.0200919,1196,407,4.35275,36.2527
-21,617,4.39978,-36.4064,0.00399233,-0.00640041,0.00421174,0.00548483,-0.00789291,0.34056,0.00776524,0.014815,1203,407,4.39975,36.4064
-14,617,4.42542,-36.55,0.00485392,-0.00755159,0.00509201,0.0066763,-0.00937397,0.343686,0.00931016,0.0152095,1210,407,4.42537,36.55
-7,617,4.42017,-36.6493,0.00624531,-0.00833046,0.00510484,0.00785533,-0.00994047,0.305516,0.0102979,0.0177811,1217,407,4.42022,36.6493
0,617,4.47778,-36.7497,0.00612081,-0.00829657,0.00531986,0.00787125,-0.010047,0.317881,0.0103705,0.0170937,1224,407,4.4778,36.7497
7,617,4.5293,-36.9235,0.00538711,-0.00814023,0.00564288,0.00743192,-0.010185,0.347652,0.0102125,0.0126808,1231,407,4.52936,36.9235
14,617,4.56836,-37.0108,0.00462702,-0.00755112,0.00567152,0.00685918,-0.00978329,0.374955,0.00965785,0.0138101,1238,407,4.56831,37.0108
21,617,4.60083,-37.0678,0.0036755,-0.00669444,0.00562893,0.00614355,-0.00916249,0.413215,0.00889406,0.012468,1245,407,4.6008,37.0678
28,617,4.64111,-37.1715,0.00255311,-0.00554906,0.00544518,0.00528887,-0.00828482,0.465581,0.00790015,0.0114593,1252,407,4.64113,37.1715
35,617,4.62195,-37.2465,0.00110212,-0.00388362,0.00504554,0.00423703,-0.00701853,0.555951,0.00656421,0.01378,1259,407,4.62195,37.2465
42,617,4.68091,-37.2383,-0.000659994,-0.00174169,0.00426756,0.00310085,-0.00550254,0.722367,0.00503127,0.0201048,1266,407,4.68093,37.2383
49,617,4.7522,-37.2311,-0.00236692,0.000501412,0.00343085,0.00278579,-0.00465129,0.98337,0.0043386,0.0201625,1273,407,4.75217,37.2311
56,617,4.82654,-37.2543,-0.00393052,0.00279756,0.00219321,0.00344936,-0.00458232,1.28192,0.00465244,0.0148047,1280,407,4.82654,37.2543
63,617,4.84692,-37.2757,-0.00543403,0.00495224,0.000598536,0.00498661,-0.00546841,1.51342,0.00603835,0.0110265,1287,407,4.84693,37.2757
70,617,4.8562,-37.2698,-0.0067203,0.00680304,-0.000928529,0.0068665,-0.00678376,-1.50256,0.00788103,0.0150961,1294,407,4.8562,37.2698
77,617,4.9126,-37.2286,-0.00786825,0.008663,-0.00250481,0.0090342,-0.00823944,-1.42367,0.00997646,0.0139776,1301,407,4.91259,37.2286
84,617,4.95886,-37.2007,-0.00872518,0.0102204,-0.00397938,0.0110223,-0.00952707,-1.37195,0.0118747,0.0115378,1308,407,4.9589,37.2007
91,617,4.98621,-37.1461,-0.00988524,0.0111885,-0.00528455,0.0124394,-0.0111362,-1.33836,0.0136183,0.0105244,1315,407,4.98615,37.1461
98,617,5.0542,-37.0661,-0.00820224,0.0114276,-0.00574784,0.0129868,-0.00976143,-1.30591,0.0131776,0.0116989,1322,407,5.05417,37.0661
105,617,5.11621,-36.9813,-0.00282082,0.0110386,-0.0062033,0.0134095,-0.00519175,-1.20572,0.0110833,0.0139775,1329,407,5.11624,36.9813
112,617,5.14819,-36.916,0.000986079,0.0105825,-0.00652937,0.0138871,-0.00231852,-1.10227,0.0101198,0.0173892,1336,407,5.14823,36.916
119,617,5.12134,-36.8184,0.00546743,0.00963156,-0.00620769,0.014097,0.00100194,-0.947203,0.00908249,0.0203099,1343,407,5.1213,36.8184
126,617,5.125,-36.6876,0.0105985,0.00855962,-0.00562038,0.0152912,0.003867,-0.69568,0.00918072,0.0230513,1350,407,5.12496,36.6876
133,617,5.18384,-36.5044,0.0160793,0.00731485,-0.00468956,0.0181155,0.00527867,-0.409632,0.0107581,0.0200434,1357,407,5.18388,36.5044
140,617,5.25647,-36.3624,0.0214659,0.00572943,-0.00352452,0.0222193,0.0049761,-0.21057,0.0134642,0.0162937,1364,407,5.25649,36.3624
147,617,5.26416,-36.1795,0.0263276,0.00406678,-0.00237941,0.0265791,0.00381529,-0.105303,0.0165945,0.0192776,1371,407,5.26411,36.1795
154,617,5.28931,-36.0153,0.0296996,0.00268175,-0.0015395,0.0297871,0.00259431,-0.056736,0.0190522,0.0233227,1378,407,5.28926,36.0153
161,617,5.35095,-35.8383,0.0315285,0.00151094,-0.00077323,0.0315484,0.00149103,-0.0257365,0.0205533,0.0251662,1385,407,5.351,35.8383
168,617,5.40649,-35.6521,0.0317589,0.000585233,-0.00015717,0.0317597,0.000584439,-0.00504158,0.020981,0.022627,1392,407,5.40649,35.6521
175,617,5.39685,-35.4451,0.0297835,0.000219311,6.29926e-05,0.0297837,0.000219177,0.00213069,0.0197831,0.0179025,1399,407,5.39685,35.4451
182,617,5.41077,-35.2195,0.0267419,-0.000541407,4.86051e-05,0.026742,-0.000541494,0.00178148,0.0180112,0.0115979,1406,407,5.41081,35.2195
189,617,5.40735,-34.9517,0.0229446,-0.000561725,-8.2164e-05,0.0229449,-0.000562012,-0.00349535,0.0154873,0.0110379,1413,407,5.40738,34.9517
196,617,5.39819,-34.7016,0.0189461,-0.000351503,-5.50915e-05,0.0189463,-0.000351661,-0.0028548,0.0127497,0.014579,1420,407,5.39821,34.7016
203,617,5.41785,-34.4574,0.0104763,0.000432444,-0.000249865,0.0104825,0.000426232,-0.0248569,0.00685067,0.0159379,1427,407,5.41783,34.4574
210,617,5.45654,-34.1667,0.00116024,0.00157639,-0.000121149,0.00160909,0.00112754,-1.30717,0.000953637,0.0155719,1434,407,5.45654,34.1666
217,617,5.45654,-33.8657,0.000740736,0.00253465,0.000223091,0.00256198,0.000713408,1.44891,0.00152679,0.0203143,1441,407,5.45659,33.8657
224,617,5.46912,-33.5852,0.000443986,0.00327794,0.000535628,0.0033758,0.000346129,1.39009,0.00214449,0.0195001,1448,407,5.46906,33.5852
231,617,5.48486,-33.3053,0.000236607,0.00396268,0.000899241,0.00416835,3.0939e-05,1.34595,0.00276865,0.014372,1455,407,5.48492,33.3053
238,617,5.46973,-33.0002,0.00014844,0.00474649,0.00126943,0.00507368,-0.000178745,1.31855,0.00344358,0.015539,1462,407,5.46972,33.0002
245,617,5.46277,-32.6796,8.02889e-05,0.00548786,0.00151236,0.00588209,-0.000313939,1.3158,0.00403012,0.0136375,1469,407,5.46282,32.6796
252,617,5.44653,-32.3123,8.91421e-05,0.00624844,0.00177267,0.00672218,-0.000384602,1.30965,0.004615,0.0144696,1476,407,5.44655,32.3123
259,617,5.41479,-31.9362,0.000148547,0.00702441,0.00213049,0.00763102,-0.000458069,1.29341,0.00524671,0.0118095,1483,407,5.41476,31.9362
266,617,5.39661,-31.5609,0.000171538,0.00769463,0.00254779,0.00847627,-0.000610095,1.27312,0.0058648,0.0140769,1490,407,5.39665,31.5609
273,617,5.40002,-31.1967,0.000228497,0.00800485,0.00297231,0.00901081,-0.000777462,1.24445,0.00628242,0.0151433,1497,407,5.40003,31.1967
280,617,5.37488,-30.8601,0.000528023,0.00800896,0.0035773,0.00944421,-0.000907236,1.18924,0.00661931,0.0137826,1504,407,5.37484,30.8602
287,617,5.35486,-30.4623,0.000990764,0.00772189,0.00432793,0.00983884,-0.00112619,1.11588,0.00696504,0.0123828,1511,407,5.3549,30.4623
294,617,5.34021,-30.0593,0.00128783,0.00744476,0.00504221,0.010274,-0.0015414,1.05946,0.00741671,0.0102115,1518,407,5.34025,30.0593
301,617,5.30981,-29.6627,0.00157244,0.00681125,0.00571014,0.0104741,-0.00209043,1.00044,0.00777381,0.00828663,1525,407,5.30984,29.6627
308,617,5.27271,-29.2397,0.00200198,0.00584866,0.00640862,0.0106163,-0.00276569,0.93118,0.00815726,0.00863895,1532,407,5.27273,29.2397
315,617,5.24023,-28.8162,0.00246566,0.00467132,0.00720627,0.0108587,-0.00372168,0.861328,0.00874767,0.0098091,1539,407,5.24021,28.8162
322,617,5.20911,-28.3962,0.00279135,0.00342087,0.00797426,0.0110866,-0.00487436,0.805124,0.00944485,0.0137032,1546,407,5.2091,28.3962
329,617,5.20349,-27.9478,0.0030054,0.00211432,0.00859495,0.0111663,-0.00604663,0.759503,0.0100834,0.0160225,1553,407,5.20348,27.9479
336,617,5.26331,-27.3754,0.00304816,0.000936241,0.00893802,0.0109924,-0.00700797,0.726599,0.010477,0.0289344,1560,407,5.26327,27.3754
343,617,5.31995,-26.8601,0,0,0,0,0,0,0,-1,1567,407,5.31993,26.8601
350,617,5.10022,-26.5681,0,0,0,0,0,0,0,-1,1574,407,5.10026,26.5681
357,617,2.1748,-7.16504,0,0,0,0,0,0,0,-1,1581,407,2.1748,7.16505
364,617,2.30127,-7.60257,0,0,0,0,0,0,0,-1,1588,407,2.30125,7.60258
371,617,2.60266,-6.20667,0,0,0,0,0,0,0,-1,1595,407,2.60261,6.20668
378,617,1.56921,-10.3601,0,0,0,0,0,0,0,-1,1602,407,1.56918,10.3601
385,617,1.74146,-10.3561,0,0,0,0,0,0,0,-1,1609,407,1.7414,10.3561
392,617,1.96936,-5.10449,0,0,0,0,0,0,0,-1,1616,407,1.96931,5.10451
399,617,2.48889,-5.81256,0,0,0,0,0,0,0,-1,1623,407,2.48888,5.81255
406,617,3.01465,-6.51642,0,0,0,0,0,0,0,-1,1630,407,3.01461,6.51643
413,617,3.6427,-7.2074,0,0,0,0,0,0,0,-1,1637,407,3.64274,7.20739
420,617,3.42737,-4.47391,0,0,0,0,0,0,0,-1,1644,407,3.42737,4.47391
427,617,0,0,0,0,0,0,0,0,0,-1,1651,407,0,0
434,617,0,0,0,0,0,0,0,0,0,-1,1658,407,0,0
441,617,0,0,0,0,0,0,0,0,0,-1,1665,407,0,0
448,617,0,0,0,0,0,0,0,0,0,-1,1672,407,0,0
455,617,0,0,0,0,0,0,0,0,0,-1,1679,407,0,0
462,617,0,0,0,0,0,0,0,0,0,-1,1686,407,0,0
469,617,0,0,0,0,0,0,0,0,0,-1,1693,407,0,0
476,617,0,0,0,0,0,0,0,0,0,-1,1700,407,0,0
483,617,0,0,0,0,0,0,0,0,0,-1,1707,407,0,0
490,617,0,0,0,0,0,0,0,0,0,-1,1714,407,0,0
497,617,0,0,0,0,0,0,0,0,0,-1,1721,407,0,0
504,617,0,0,0,0,0,0,0,0,0,-1,1728,407,0,0
511,617,0,0,0,0,0,0,0,0,0,-1,1735,407,0,0
518,617,0,0,0,0,0,0,0,0,0,-1,1742,407,0,0
525,617,0,0,0,0,0,0,0,0,0,-1,1749,407,0,0
532,617,0,0,0,0,0,0,0,0,0,-1,1756,407,0,0
539,617,0,0,0,0,0,0,0,0,0,-1,1763,407,0,0
546,617,0,0,0,0,0,0,0,0,0,-1,1770,407,0,0
553,617,0,0,0,0,0,0,0,0,0,-1,1777,407,0,0
560,617,0,0,0,0,0,0,0,0,0,-1,1784,407,0,0
567,617,0,0,0,0,0,0,0,0,0,-1,1791,407,0,0
574,617,0,0,0,0,0,0,0,0,0,-1,1798,407,0,0
581,617,0,0,0,0,0,0,0,0,0,-1,1805,407,0,0
588,617,0,0,0,0,0,0,0,0,0,-1,1812,407,0,0
595,617,0,0,0,0,0,0,0,0,0,-1,1819,407,0,0
602,617,0,0,0,0,0,0,0,0,0,-1,1826,407,0,0
609,617,0,0,0,0,0,0,0,0,0,-1,1833,407,0,0
616,617,0,0,0,0,0,0,0,0,0,-1,1840,407,0,0
623,617,0,0,0,0,0,0,0,0,0,-1,1847,407,0,0
630,617,0,0,0,0,0,0,0,0,0,-1,1854,407,0,0
637,617,0,0,0,0,0,0,0,0,0,-1,1861,407,0,0
644,617,0,0,0,0,0,0,0,0,0,-1,1868,407,0,0
651,617,0,0,0,0,0,0,0,0,0,-1,1875,407,0,0
658,617,0,0,0,0,0,0,0,0,0,-1,1882,407,0,0
665,617,0,0,0,0,0,0,0,0,0,-1,1889,407,0,0
672,617,0,0,0,0,0,0,0,0,0,-1,1896,407,0,0
679,617,0,0,0,0,0,0,0,0,0,-1,1903,407,0,0
686,617,0,0,0,0,0,0,0,0,0,-1,1910,407,0,0
693,617,0,0,0,0,0,0,0,0,0,-1,1917,407,0,0
700,617,0,0,0,0,0,0,0,0,0,-1,1924,407,0,0
707,617,0,0,0,0,0,0,0,0,0,-1,1931,407,0,0
714,617,0,0,0,0,0,0,0,0,0,-1,1938,407,0,0
721,617,0,0,0,0,0,0,0,0,0,-1,1945,407,0,0
728,617,0,0,0,0,0,0,0,0,0,-1,1952,407,0,0
735,617,0,0,0,0,0,0,0,0,0,-1,1959,407,0,0
742,617,0,0,0,0,0,0,0,0,0,-1,1966,407,0,0
749,617,0,0,0,0,0,0,0,0,0,-1,1973,407,0,0
756,617,0,0,0,0,0,0,0,0,0,-1,1980,407,0,0
763,617,0,0,0,0,0,0,0,0,0,-1,1987,407,0,0
770,617,0,0,0,0,0,0,0,0,0,-1,1994,407,0,0
777,617,0,0,0,0,0,0,0,0,0,-1,2001,407,0,0
784,617,0,0,0,0,0,0,0,0,0,-1,2008,407,0,0
791,617,0,0,0,0,0,0,0,0,0,-1,2015,407,0,0
798,617,0,0,0,0,0,0,0,0,0,-1,2022,407,0,0
805,617,0,0,0,0,0,0,0,0,0,-1,2029,407,0,0
812,617,0,0,0,0,0,0,0,0,0,-1,2036,407,0,0
-700,610,0,0,0,0,0,0,0,0,0,-1,524,414,0,0
-693,610,0,0,0,0,0,0,0,0,0,-1,531,414,0,0
-686,610,0,0,0,0,0,0,0,0,0,-1,538,414,0,0
-679,610,0,0,0,0,0,0,0,0,0,-1,545,414,0,0
-672,610,0,0,0,0,0,0,0,0,0,-1,552,414,0,0
-665,610,0,0,0,0,0,0,0,0,0,-1,559,414,0,0
-658,610,0,0,0,0,0,0,0,0,0,-1,566,414,0,0
-651,610,0,0,0,0,0,0,0,0,0,-1,573,414,0,0
-644,610,0,0,0,0,0,0,0,0,0,-1,580,414,0,0
-637,610,0,0,0,0,0,0,0,0,0,-1,587,414,0,0
-630,610,0,0,0,0,0,0,0,0,0,-1,594,414,0,0
-623,610,0,0,0,0,0,0,0,0,0,-1,601,414,0,0
-616,610,0,0,0,0,0,0,0,0,0,-1,608,414,0,0
-609,610,0,0,0,0,0,0,0,0,0,-1,615,414,0,0
-602,610,0,0,0,0,0,0,0,0,0,-1,622,414,0,0
-595,610,0,0,0,0,0,0,0,0,0,-1,629,414,0,0
-588,610,0,0,0,0,0,0,0,0,0,-1,636,414,0,0
-581,610,0,0,0,0,0,0,0,0,0,-1,643,414,0,0
-574,610,0,0,0,0,0,0,0,0,0,-1,650,414,0,0
-567,610,0,0,0,0,0,0,0,0,0,-1,657,414,0,0
-560,610,0,0,0,0,0,0,0,0,0,-1,664,414,0,0
-553,610,0,0,0,0,0,0,0,0,0,-1,671,414,0,0
-546,610,0,0,0,0,0,0,0,0,0,-1,678,414,0,0
-539,610,0,0,0,0,0,0,0,0,0,-1,685,414,0,0
-532,610,0,0,0,0,0,0,0,0,0,-1,692,414,0,0
-525,610,0,0,0,0,0,0,0,0,0,-1,699,414,0,0
-518,610,0,0,0,0,0,0,0,0,0,-1,706,414,0,0
-511,610,0,0,0,0,0,0,0,0,0,-1,713,414,0,0
-504,610,0,0,0,0,0,0,0,0,0,-1,720,414,0,0
-497,610,0,0,0,0,0,0,0,0,0,-1,727,414,0,0
-490,610,0,0,0,0,0,0,0,0,0,-1,734,414,0,0
-483,610,0,0,0,0,0,0,0,0,0,-1,741,414,0,0
-476,610,0,0,0,0,0,0,0,0,0,-1,748,414,0,0
-469,610,0,0,0,0,0,0,0,0,0,-1,755,414,0,0
-462,610,0,0,0,0,0,0,0,0,0,-1,762,414,0,0
-455,610,0,0,0,0,0,0,0,0,0,-1,769,414,0,0
-448,610,0,0,0,0,0,0,0,0,0,-1,776,414,0,0
-441,610,0,0,0,0,0,0,0,0,0,-1,783,414,0,0
-434,610,0,0,0,0,0,0,0,0,0,-1,790,414,0,0
-427,610,0,0,0,0,0,0,0,0,0,-1,797,414,0,0
-420,610,0,0,0,0,0,0,0,0,0,-1,804,414,0,0
-413,610,0,0,0,0,0,0,0,0,0,-1,811,414,0,0
-406,610,0,0,0,0,0,0,0,0,0,-1,818,414,0,0
-399,610,0,0,0,0,0,0,0,0,0,-1,825,414,0,0
-392,610,0,0,0,0,0,0,0,0,0,-1,832,414,0,0
-385,610,0,0,0,0,0,0,0,0,0,-1,839,414,0,0
-378,610,0,0,0,0,0,0,0,0,0,-1,846,414,0,0
-371,610,0,0,0,0,0,0,0,0,0,-1,853,414,0,0
-364,610,0,0,0,0,0,0,0,0,0,-1,860,414,0,0
-357,610,0,0,0,0,0,0,0,0,0,-1,867,414,0,0
-350,610,0,0,0,0,0,0,0,0,0,-1,874,414,0,0
-343,610,0,0,0,0,0,0,0,0,0,-1,881,414,0,0
-336,610,0,0,0,0,0,0,0,0,0,-1,888,414,0,0
-329,610,0,0,0,0,0,0,0,0,0,-1,895,414,0,0
-322,610,0,0,0,0,0,0,0,0,0,-1,902,414,0,0
-315,610,8.08594,-20.6403,0,0,0,0,0,0,0,-1,909,414,8.08595,20.6403
-308,610,3.97559,-24.1635,0,0,0,0,0,0,0,-1,916,414,3.97556,24.1635
-301,610,4.95953,-24.3575,0,0,0,0,0,0,0,-1,923,414,4.95952,24.3575
-294,610,6.20813,-24.3114,0,0,0,0,0,0,0,-1,930,414,6.20815,24.3114
-287,610,2.427,-24.4821,0,0,0,0,0,0,0,-1,937,414,2.42702,24.4821
-280,610,3.89569,-23.4206,0,0,0,0,0,0,0,-1,944,414,3.89572,23.4206
-273,610,4.6828,-24.2032,0,0,0,0,0,0,0,-1,951,414,4.68281,24.2032
-266,610,4.64044,-25.9664,0,0,0,0,0,0,0,-1,958,414,4.64043,25.9664
-259,610,4.66132,-26.1985,0.0252036,-0.0512884,0.0363052,0.0396911,-0.0657759,0.379686,0.0615091,0.0451656,965,414,4.66134,26.1985
-252,610,4.62555,-26.3937,0,0,0,0,0,0,0,-1,972,414,4.62554,26.3937
-245,610,4.59448,-26.5077,0,0,0,0,0,0,0,-1,979,414,4.5945,26.5077
-238,610,4.96503,-26.8085,0,0,0,0,0,0,0,-1,986,414,4.96502,26.8085
-231,610,4.1662,-26.6422,0.0142465,-0.00173307,0.0157859,0.0239494,-0.011436,0.551128,0.0208513,0.0392121,993,414,4.16621,26.6422
-224,610,4.19946,-27.2527,0.0118242,0.00734888,0.011156,0.0209647,-0.00179164,0.686422,0.0146104,0.0274445,1000,414,4.19945,27.2527
-217,610,4.23059,-27.8307,0.00893282,0.0169528,0.00657858,0.0206472,0.00523841,1.05911,0.0123934,0.0177733,1007,414,4.23062,27.8307
-210,610,4.18762,-28.3372,0.00722086,0.021874,0.00227086,0.0222178,0.00687701,1.42052,0.0131341,0.0124205,1014,414,4.18764,28.3372
-203,610,4.16589,-28.7511,0.00606119,0.0252458,-0.00130638,0.0253344,0.00597264,-1.50312,0.0152926,0.0148608,1021,414,4.1659,28.7511
-196,610,4.14441,-29.1548,0.00531371,0.0219045,-0.00124591,0.0219975,0.00522067,-1.49626,0.0132716,0.014128,1028,414,4.14435,29.1548
-189,610,4.10046,-29.5853,0.00446466,0.018639,-0.00137588,0.0187713,0.00433234,-1.47492,0.0113491,0.0112792,1035,414,4.10046,29.5853
-182,610,4.07849,-29.9804,0.00371816,0.0152185,-0.00144651,0.0153977,0.00353901,-1.44757,0.00931236,0.0127828,1042,414,4.07854,29.9804
-175,610,4.04944,-30.3474,0.00297663,0.0119625,-0.00145935,0.0121936,0.00274557,-1.41377,0.00738599,0.0145141,1049,414,4.04945,30.3474
-168,610,4.01147,-30.7201,0.00229749,0.00905127,-0.00150209,0.00937027,0.00197848,-1.36153,0.00570292,0.0126312,1056,414,4.01142,30.7201
-161,610,4.01233,-31.1425,0.00176489,0.00660336,-0.00146601,0.00701289,0.00135536,-1.29839,0.00429535,0.011302,1063,414,4.01235,31.1425
-154,610,3.99683,-31.5021,0.00128288,0.00470842,-0.0013718,0.00519005,0.000801249,-1.23314,0.00322629,0.0138625,1070,414,3.99688,31.5021
-147,610,3.98572,-31.8047,0.00064088,0.00293304,-0.00137836,0.00357954,-5.62856e-06,-1.13222,0.00238824,0.0158932,1077,414,3.98567,31.8047
-140,610,3.99695,-32.1534,0.000308387,0.00156921,-0.00120606,0.00229968,-0.000422085,-1.02622,0.00169146,0.0122023,1084,414,3.99693,32.1534
-133,610,3.97632,-32.4786,0.00028155,0.000967363,-0.000925499,0.00161144,-0.000362525,-0.962812,0.00121332,0.0134875,1091,414,3.97627,32.4786
-126,610,3.95776,-32.7805,0.000244868,0.000574047,-0.000711218,0.00113947,-0.000320557,-0.899106,0.000886045,0.0125126,1098,414,3.9578,32.7805
-119,610,3.98083,-33.1067,0.000356778,0.000377116,-0.0005283,0.000895345,-0.000161451,-0.795021,0.000657356,0.0102763,1105,414,3.98089,33.1066
-112,610,4.02087,-33.4286,0.000482256,0.000220261,-0.000379325,0.000752566,-5.00494e-05,-0.619138,0.000519198,0.0176559,1112,414,4.02088,33.4286
-105,610,4.02258,-33.7252,0.000632258,3.25312e-05,-0.000256062,0.000726712,-6.19222e-05,-0.353385,0.000506379,0.0170669,1119,414,4.0226,33.7252
-98,610,3.96936,-33.9887,0.000881823,-0.000285287,-0.000135153,0.000897269,-0.000300734,-0.113795,0.000719683,0.0123949,1126,414,3.96937,33.9887
-91,610,3.98572,-34.2523,0.00120519,-0.00058573,-4.4168e-05,0.00120628,-0.000586819,-0.0246422,0.00105564,0.0137693,1133,414,3.98574,34.2523
-84,610,4.02881,-34.5313,0.00154175,-0.000756449,0.000128821,0.00154895,-0.000763648,0.0558199,0.0013606,0.0148871,1140,414,4.02884,34.5313
-77,610,4.02466,-34.8262,0.00210214,-0.00104007,0.000327182,0.00213585,-0.00107378,0.102657,0.00188659,0.0124324,1147,414,4.02465,34.8262
-70,610,4.05615,-35.0828,0.00289029,-0.00109431,0.000270107,0.00290852,-0.00111254,0.067377,0.0023975,0.0143192,1154,414,4.05611,35.0828
-63,610,4.08655,-35.3043,0.00355648,-0.0013137,0.00063462,0.00363782,-0.00139504,0.127472,0.00300035,0.0141815,1161,414,4.08651,35.3043
-56,610,4.10669,-35.4935,0.00418045,-0.00167902,0.000928761,0.00432414,-0.00182271,0.153495,0.00364552,0.0126674,1168,414,4.10663,35.4935
-49,610,4.11316,-35.6962,0.00456202,-0.00267246,0.0014672,0.00484825,-0.0029587,0.192668,0.00455114,0.0127531,1175,414,4.11311,35.6962
-42,610,4.14185,-35.889,0.00571446,-0.00434346,0.00287509,0.0064783,-0.00510731,0.259678,0.00670455,0.0170693,1182,414,4.14189,35.889
-35,610,4.17517,-36.0667,0.0068439,-0.0061409,0.00399326,0.00797366,-0.00727067,0.275712,0.00880444,0.016914,1189,414,4.17519,36.0667
-28,610,4.19629,-36.2421,0.00765522,-0.00658679,0.00597862,0.0098322,-0.00876378,0.349205,0.0107423,0.0140186,1196,414,4.19629,36.2421
-21,610,4.24976,-36.3893,0.0081674,-0.00795396,0.00781415,0.0113333,-0.0111198,0.384935,0.0129635,0.0119164,1203,414,4.24981,36.3893
-14,610,4.28687,-36.5208,0.00965484,-0.0087194,0.00929265,0.0135351,-0.0125997,0.395554,0.0150921,0.0122881,1210,414,4.28686,36.5208
-7,610,4.32837,-36.6249,0.0115135,-0.00936878,0.00945543,0.0151586,-0.0130139,0.367949,0.0162811,0.0147979,1217,414,4.32834,36.6249
0,610,4.36499,-36.7546,0.0110957,-0.00907839,0.00978904,0.0150647,-0.0130474,0.385203,0.0162445,0.0123554,1224,414,4.36505,36.7546
7,610,4.40356,-36.8858,0.00998782,-0.00863585,0.0100541,0.0143798,-0.0130278,0.411854,0.0158302,0.0132848,1231,414,4.40357,36.8858
14,610,4.50842,-36.9355,0.00876475,-0.00775901,0.00987685,0.0133796,-0.0123739,0.437099,0.0148726,0.0161794,1238,414,4.50837,36.9355
21,610,4.57214,-36.9962,0.00753352,-0.00659421,0.00934658,0.0121853,-0.011246,0.461806,0.0135317,0.0146697,1245,414,4.57216,36.9962
28,610,4.54761,-37.0968,0.00610689,-0.00525205,0.00863555,0.0107632,-0.00990839,0.494519,0.0119382,0.0155665,1252,414,4.54766,37.0968
35,610,4.66406,-37.1537,0.00403797,-0.00324948,0.00762416,0.00884437,-0.00805588,0.562485,0.0097609,0.0188366,1259,414,4.66409,37.1537
42,610,4.71765,-37.1555,0.00158428,-0.000693207,0.00608676,0.0066379,-0.00574683,0.692924,0.0071565,0.017212,1266,414,4.71762,37.1555
49,610,4.75964,-37.2214,-0.000756685,0.00201647,0.00449442,0.00533334,-0.00407355,0.935022,0.00544728,0.0161941,1273,414,4.75968,37.2214
56,610,4.82434,-37.2231,-0.00288701,0.00478926,0.0024657,0.00551303,-0.00361078,1.28528,0.00530566,0.01541,1280,414,4.82437,37.2231
63,610,4.78564,-37.1755,-0.00498855,0.00742226,3.99465e-05,0.00742239,-0.00498868,1.56758,0.00721131,0.0222238,1287,414,4.78562,37.1755
70,610,4.80469,-37.118,-0.0067971,0.00970965,-0.00231902,0.0100293,-0.00711671,-1.43384,0.00994672,0.0298824,1294,414,4.80467,37.1179
77,610,4.90332,-37.0946,-0.00845611,0.0120183,-0.00470422,0.0130474,-0.00948523,-1.35542,0.0130633,0.0348723,1301,414,4.90332,37.0946
84,610,4.97986,-37.1056,-0.00983009,0.0139457,-0.00677649,0.0157414,-0.0116259,-1.31175,0.01586,0.0353759,1308,414,4.97985,37.1056
91,610,5.05652,-37.1069,-0.0114791,0.0150909,-0.00855935,0.0176095,-0.0139977,-1.28462,0.0182881,0.0287695,1315,414,5.05652,37.1069
98,610,5.20605,-37.0686,-0.00952144,0.0154255,-0.00918249,0.0184409,-0.0125369,-1.2535,0.017993,0.0257204,1322,414,5.20612,37.0686
105,610,5.24622,-36.9668,-0.0027746,0.0149723,-0.0097961,0.0193163,-0.00711862,-1.15341,0.0157945,0.0203612,1329,414,5.24626,36.9668
112,610,5.2627,-36.8592,0.00189406,0.0144203,-0.0102264,0.0201491,-0.00383474,-1.06016,0.0148767,0.0141348,1336,414,5.26268,36.8592
119,610,5.22668,-36.7873,0.00767057,0.0132666,-0.00982078,0.0206802,0.000256984,-0.924175,0.0137019,0.0200782,1343,414,5.22668,36.7873
126,610,5.27185,-36.6764,0.0144142,0.0118869,-0.0089016,0.0221414,0.00415973,-0.71489,0.0135883,0.0283499,1350,414,5.27187,36.6764
133,610,5.37866,-36.5005,0.0219571,0.01037,-0.00760132,0.025721,0.00660608,-0.459773,0.0154243,0.0217504,1357,414,5.37861,36.5005
140,610,5.4574,-36.347,0.0299801,0.00834612,-0.00601273,0.0315389,0.00678732,-0.253665,0.0191683,0.0163327,1364,414,5.45742,36.347
147,610,5.41785,-36.1554,0.0375583,0.00623317,-0.00442926,0.0381726,0.00561893,-0.137798,0.0237976,0.0167983,1371,414,5.4178,36.1553
154,610,5.42407,-35.9608,0.0433187,0.0044,-0.00322501,0.0435841,0.00413457,-0.0821188,0.0277806,0.0224278,1378,414,5.42411,35.9608
161,610,5.49121,-35.7903,0.0470926,0.0027432,-0.00210405,0.0471922,0.0026436,-0.0473008,0.0306184,0.0273739,1385,414,5.49122,35.7902
168,610,5.56311,-35.6098,0.0488243,0.0013385,-0.00110944,0.0488502,0.00131259,-0.0233466,0.0321382,0.0265919,1392,414,5.56314,35.6098
175,610,5.59192,-35.4157,0.0478305,0.000355769,-0.000470162,0.0478352,0.000351114,-0.00990211,0.0317737,0.0211835,1399,414,5.59189,35.4157
182,610,5.62891,-35.1943,0.045449,-0.00145882,-0.000164257,0.0454496,-0.00145939,-0.00350164,0.0307977,0.0151774,1406,414,5.62894,35.1943
189,610,5.64941,-34.9275,0.040806,-0.00197728,-0.00040903,0.0408099,-0.00198119,-0.00955936,0.0278904,0.0141143,1413,414,5.64945,34.9275
196,610,5.67212,-34.7027,0.0355392,-0.00216037,-0.00035961,0.0355426,-0.0021638,-0.00953767,0.0244483,0.0138904,1420,414,5.67216,34.7027
203,610,5.69861,-34.4563,0.020455,-0.00150143,-0.000986625,0.0204992,-0.00154567,-0.0448152,0.0142094,0.0150907,1427,414,5.69865,34.4563
210,610,5.71289,-34.1903,0.00210342,-4.9805e-05,-0.000992174,0.00249088,-0.000437263,-0.372303,0.0018239,0.011706,1434,414,5.71289,34.1903
217,610,5.7749,-33.876,0.00155447,0.0010722,-0.000497796,0.00186646,0.00076021,-0.559848,0.00108376,0.0169954,1441,414,5.77496,33.876
224,610,5.78796,-33.5821,0.00114382,0.00181478,-6.14826e-05,0.00182037,0.00113823,-1.48017,0.00106193,0.0196212,1448,414,5.78791,33.5821
231,610,5.77002,-33.3003,0.000868077,0.00246423,0.000392916,0.00255571,0.000776598,1.34205,0.00151291,0.0153308,1455,414,5.77008,33.3003
238,610,5.76758,-32.9876,0.000747171,0.00311219,0.000754766,0.00333253,0.000526826,1.28675,0.00206856,0.0115122,1462,414,5.76761,32.9876
245,610,5.78687,-32.643,0.000685755,0.00371287,0.000987639,0.0040066,0.000392026,1.28172,0.00255046,0.0130808,1469,414,5.78689,32.643
252,610,5.77673,-32.2958,0.000661692,0.00426673,0.00121224,0.00463645,0.000291977,1.27477,0.00299838,0.0146962,1476,414,5.77673,32.2958
259,610,5.75146,-31.9306,0.00063442,0.00480386,0.00148386,0.00527802,0.000160255,1.2615,0.0034665,0.0122402,1483,414,5.75141,31.9306
266,610,5.74133,-31.5621,0.000603682,0.00528391,0.00178537,0.00588721,3.84403e-07,1.24493,0.00392468,0.0126642,1490,414,5.74128,31.5621
273,610,5.74792,-31.2067,0.000607311,0.00559411,0.00211077,0.00636757,-0.000166151,1.21955,0.0043015,0.0100466,1497,414,5.74787,31.2067
280,610,5.7301,-30.8395,0.000788048,0.00563341,0.00256259,0.00673724,-0.000315776,1.16407,0.00460036,0.0089633,1504,414,5.73007,30.8395
287,610,5.69751,-30.438,0.0010733,0.00558979,0.00314171,0.00720066,-0.000537568,1.09701,0.00498929,0.0115974,1511,414,5.69747,30.438
294,610,5.70984,-30.046,0.00122248,0.00551562,0.0037151,0.00765971,-0.0009216,1.04736,0.00543976,0.0107398,1518,414,5.70981,30.0459
301,610,5.72217,-29.6861,0.00135335,0.00518521,0.00425841,0.00793884,-0.00140028,0.996791,0.00581579,0.0102873,1525,414,5.72213,29.6861
308,610,5.69592,-29.2651,0.00159796,0.00464844,0.00483818,0.00819611,-0.00194971,0.938092,0.00621673,0.0118994,1532,414,5.6959,29.2651
315,610,5.64294,-28.8553,0.00185047,0.00402652,0.00547538,0.00852093,-0.00264394,0.883477,0.00673714,0.0130658,1539,414,5.64294,28.8553
322,610,5.60706,-28.4242,0.00197668,0.00337456,0.00607665,0.00879234,-0.0034411,0.842657,0.00728474,0.0131814,1546,414,5.60703,28.4242
329,610,5.58069,-27.9878,0.00200293,0.00270063,0.00657068,0.00893172,-0.00422816,0.811919,0.00775794,0.0116396,1553,414,5.58069,27.9878
336,610,5.60144,-27.5206,0.00188242,0.00213567,0.00686261,0.00887282,-0.00485473,0.794623,0.00803798,0.0103376,1560,414,5.6015,27.5206
343,610,5.55688,-27.0498,0.00169529,0.00180965,0.00709807,0.00885077,-0.00534584,0.789426,0.00827926,0.0187124,1567,414,5.55692,27.0498
350,610,5.47168,-26.665,0.00154186,0.00221246,0.00751407,0.00939871,-0.00564439,0.807695,0.00877483,0.0425176,1574,414,5.47173,26.665
357,610,5.60974,-25.9427,0,0,0,0,0,0,0,-1,1581,414,5.6097,25.9428
364,610,5.89734,-25.5007,0,0,0,0,0,0,0,-1,1588,414,5.89737,25.5007
371,610,3.54138,-13.3788,0,0,0,0,0,0,0,-1,1595,414,3.54137,13.3788
378,610,3.5752,-12.1958,0,0,0,0,0,0,0,-1,1602,414,3.57517,12.1958
385,610,2.57104,-10.3878,0,0,0,0,0,0,0,-1,1609,414,2.57109,10.3878
392,610,1.99744,-1.83582,0,0,0,0,0,0,0,-1,1616,414,1.99741,1.8358
399,610,2.77136,-2.60333,0,0,0,0,0,0,0,-1,1623,414,2.77133,2.60332
406,610,3.54529,-3.37085,0,0,0,0,0,0,0,-1,1630,414,3.54525,3.37084
413,610,3.01929,-3.20306,0,0,0,0,0,0,0,-1,1637,414,3.01929,3.20306
420,610,4.78149,-3.64041,0,0,0,0,0,0,0,-1,1644,414,4.78152,3.64042
427,610,1.70154,-19.6262,0,0,0,0,0,0,0,-1,1651,414,1.70159,19.6262
434,610,4.02295,-19.389,0,0,0,0,0,0,0,-1,1658,414,4.0229,19.389
441,610,0,0,0,0,0,0,0,0,0,-1,1665,414,0,0
448,610,0,0,0,0,0,0,0,0,0,-1,1672,414,0,0
455,610,0,0,0,0,0,0,0,0,0,-1,1679,414,0,0
462,610,0,0,0,0,0,0,0,0,0,-1,1686,414,0,0
469,610,0,0,0,0,0,0,0,0,0,-1,1693,414,0,0
476,610,0,0,0,0,0,0,0,0,0,-1,1700,414,0,0
483,610,0,0,0,0,0,0,0,0,0,-1,1707,414,0,0
490,610,0,0,0,0,0,0,0,0,0,-1,1714,414,0,0
497,610,0,0,0,0,0,0,0,0,0,-1,1721,414,0,0
504,610,0,0,0,0,0,0,0,0,0,-1,1728,414,0,0
511,610,0,0,0,0,0,0,0,0,0,-1,1735,414,0,0
518,610,0,0,0,0,0,0,0,0,0,-1,1742,414,0,0
525,610,0,0,0,0,0,0,0,0,0,-1,1749,414,0,0
532,610,0,0,0,0,0,0,0,0,0,-1,1756,414,0,0
539,610,0,0,0,0,0,0,0,0,0,-1,1763,414,0,0
546,610,0,0,0,0,0,0,0,0,0,-1,1770,414,0,0
553,610,0,0,0,0,0,0,0,0,0,-1,1777,414,0,0
560,610,0,0,0,0,0,0,0,0,0,-1,1784,414,0,0
567,610,0,0,0,0,0,0,0,0,0,-1,1791,414,0,0
574,610,0,0,0,0,0,0,0,0,0,-1,1798,414,0,0
581,610,0,0,0,0,0,0,0,0,0,-1,1805,414,0,0
588,610,0,0,0,0,0,0,0,0,0,-1,1812,414,0,0
595,610,0,0,0,0,0,0,0,0,0,-1,1819,414,0,0
602,610,0,0,0,0,0,0,0,0,0,-1,1826,414,0,0
609,610,0,0,0,0,0,0,0,0,0,-1,1833,414,0,0
616,610,0,0,0,0,0,0,0,0,0,-1,1840,414,0,0
623,610,0,0,0,0,0,0,0,0,0,-1,1847,414,0,0
630,610,0,0,0,0,0,0,0,0,0,-1,1854,414,0,0
637,610,0,0,0,0,0,0,0,0,0,-1,1861,414,0,0
644,610,0,0,0,0,0,0,0,0,0,-1,1868,414,0,0
651,610,0,0,0,0,0,0,0,0,0,-1,1875,414,0,0
658,610,0,0,0,0,0,0,0,0,0,-1,1882,414,0,0
665,610,0,0,0,0,0,0,0,0,0,-1,1889,414,0,0
672,610,0,0,0,0,0,0,0,0,0,-1,1896,414,0,0
679,610,0,0,0,0,0,0,0,0,0,-1,1903,414,0,0
686,610,0,0,0,0,0,0,0,0,0,-1,1910,414,0,0
693,610,0,0,0,0,0,0,0,0,0,-1,1917,414,0,0
700,610,0,0,0,0,0,0,0,0,0,-1,1924,414,0,0
707,610,0,0,0,0,0,0,0,0,0,-1,1931,414,0,0
714,610,0,0,0,0,0,0,0,0,0,-1,1938,414,0,0
721,610,0,0,0,0,0,0,0,0,0,-1,1945,414,0,0
728,610,0,0,0,0,0,0,0,0,0,-1,1952,414,0,0
735,610,0,0,0,0,0,0,0,0,0,-1,1959,414,0,0
742,610,0,0,0,0,0,0,0,0,0,-1,1966,414,0,0
749,610,0,0,0,0,0,0,0,0,0,-1,1973,414,0,0
756,610,0,0,0,0,0,0,0,0,0,-1,1980,414,0,0
763,610,0,0,0,0,0,0,0,0,0,-1,1987,414,0,0
770,610,0,0,0,0,0,0,0,0,0,-1,1994,414,0,0
777,610,0,0,0,0,0,0,0,0,0,-1,2001,414,0,0
784,610,0,0,0,0,0,0,0,0,0,-1,2008,414,0,0
791,610,0,0,0,0,0,0,0,0,0,-1,2015,414,0,0
798,610,0,0,0,0,0,0,0,0,0,-1,2022,414,0,0
805,610,0,0,0,0,0,0,0,0,0,-1,2029,414,0,0
812,610,0,0,0,0,0,0,0,0,0,-1,2036,414,0,0
-700,603,0,0,0,0,0,0,0,0,0,-1,524,421,0,0
-693,603,0,0,0,0,0,0,0,0,0,-1,531,421,0,0
-686,603,0,0,0,0,0,0,0,0,0,-1,538,421,0,0
-679,603,0,0,0,0,0,0,0,0,0,-1,545,421,0,0
-672,603,0,0,0,0,0,0,0,0,0,-1,552,421,0,0
-665,603,0,0,0,0,0,0,0,0,0,-1,559,421,0,0
-658,603,0,0,0,0,0,0,0,0,0,-1,566,421,0,0
-651,603,0,0,0,0,0,0,0,0,0,-1,573,421,0,0
-644,603,0,0,0,0,0,0,0,0,0,-1,580,421,0,0
-637,603,0,0,0,0,0,0,0,0,0,-1,587,421,0,0
-630,603,0,0,0,0,0,0,0,0,0,-1,594,421,0,0
-623,603,0,0,0,0,0,0,0,0,0,-1,601,421,0,0
-616,603,0,0,0,0,0,0,0,0,0,-1,608,421,0,0
-609,603,0,0,0,0,0,0,0,0,0,-1,615,421,0,0
-602,603,0,0,0,0,0,0,0,0,0,-1,622,421,0,0
-595,603,0,0,0,0,0,0,0,0,0,-1,629,421,0,0
-588,603,0,0,0,0,0,0,0,0,0,-1,636,421,0,0
-581,603,0,0,0,0,0,0,0,0,0,-1,643,421,0,0
-574,603,0,0,0,0,0,0,0,0,0,-1,650,421,0,0
-567,603,0,0,0,0,0,0,0,0,0,-1,657,421,0,0
-560,603,0,0,0,0,0,0,0,0,0,-1,664,421,0,0
-553,603,0,0,0,0,0,0,0,0,0,-1,671,421,0,0
-546,603,0,0,0,0,0,0,0,0,0,-1,678,421,0,0
-539,603,0,0,0,0,0,0,0,0,0,-1,685,421,0,0
-532,603,0,0,0,0,0,0,0,0,0,-1,692,421,0,0
-525,603,0,0,0,0,0,0,0,0,0,-1,699,421,0,0
-518,603,0,0,0,0,0,0,0,0,0,-1,706,421,0,0
-511,603,0,0,0,0,0,0,0,0,0,-1,713,421,0,0
-504,603,0,0,0,0,0,0,0,0,0,-1,720,421,0,0
-497,603,0,0,0,0,0,0,0,0,0,-1,727,421,0,0
-490,603,0,0,0,0,0,0,0,0,0,-1,734,421,0,0
-483,603,0,0,0,0,0,0,0,0,0,-1,741,421,0,0
-476,603,0,0,0,0,0,0,0,0,0,-1,748,421,0,0
-469,603,0,0,0,0,0,0,0,0,0,-1,755,421,0,0
-462,603,0,0,0,0,0,0,0,0,0,-1,762,421,0,0
-455,603,0,0,0,0,0,0,0,0,0,-1,769,421,0,0
-448,603,0,0,0,0,0,0,0,0,0,-1,776,421,0,0
-441,603,0,0,0,0,0,0,0,0,0,-1,783,421,0,0
-434,603,0,0,0,0,0,0,0,0,0,-1,790,421,0,0
-427,603,0,0,0,0,0,0,0,0,0,-1,797,421,0,0
-420,603,0,0,0,0,0,0,0,0,0,-1,804,421,0,0
-413,603,0,0,0,0,0,0,0,0,0,-1,811,421,0,0
-406,603,0,0,0,0,0,0,0,0,0,-1,818,421,0,0
-399,603,0,0,0,0,0,0,0,0,0,-1,825,421,0,0
-392,603,0,0,0,0,0,0,0,0,0,-1,832,421,0,0
-385,603,0,0,0,0,0,0,0,0,0,-1,839,421,0,0
-378,603,0,0,0,0,0,0,0,0,0,-1,846,421,0,0
-371,603,0,0,0,0,0,0,0,0,0,-1,853,421,0,0
-364,603,0,0,0,0,0,0,0,0,0,-1,860,421,0,0
-357,603,0,0,0,0,0,0,0,0,0,-1,867,421,0,0
-350,603,0,0,0,0,0,0,0,0,0,-1,874,421,0,0
-343,603,0,0,0,0,0,0,0,0,0,-1,881,421,0,0
-336,603,0,0,0,0,0,0,0,0,0,-1,888,421,0,0
-329,603,4.09686,-17.9702,0,0,0,0,0,0,0,-1,895,421,4.09687,17.9702
-322,603,5.98431,-20.9071,0,0,0,0,0,0,0,-1,902,421,5.98431,20.9071
-315,603,5.99744,-20.4501,0,0,0,0,0,0,0,-1,909,421,5.99745,20.4501
-308,603,5.92249,-20.778,0,0,0,0,0,0,0,-1,916,421,5.92248,20.778
-301,603,2.87506,-22.5246,0,0,0,0,0,0,0,-1,923,421,2.87504,22.5246
-294,603,3.17743,-23.8659,0,0,0,0,0,0,0,-1,930,421,3.17742,23.8659
-287,603,3.67932,-24.1376,0,0,0,0,0,0,0,-1,937,421,3.67935,24.1376
-280,603,3.81903,-24.4882,0,0,0,0,0,0,0,-1,944,421,3.81903,24.4882
-273,603,3.70679,-25.1201,0,0,0,0,0,0,0,-1,951,421,3.70682,25.1201
-266,603,3.72369,-24.6714,0,0,0,0,0,0,0,-1,958,421,3.72367,24.6714
-259,603,3.10516,-24.9207,0,0,0,0,0,0,0,-1,965,421,3.10518,24.9207
-252,603,3.85706,-25.7671,0,0,0,0,0,0,0,-1,972,421,3.85704,25.7671
-245,603,3.95313,-26.1011,0.0131929,-0.0173651,0.0175952,0.021217,-0.0253893,0.427869,0.0269441,0.0331015,979,421,3.95312,26.1011
-238,603,3.92297,-26.491,0.0108181,-0.00895498,0.0136143,0.017757,-0.0158938,0.471355,0.0194382,0.0219323,986,421,3.92295,26.491
-231,603,3.85297,-26.9971,0.00888936,-0.00132848,0.00994489,0.0149609,-0.00739998,0.548115,0.0131537,0.0135567,993,421,3.85295,26.9971
-224,603,3.83228,-27.4838,0.00712024,0.00489606,0.00665137,0.0127518,-0.000735552,0.702566,0.00875672,0.0131099,1000,421,3.83227,27.4838
-217,603,3.80597,-27.9122,0.00501143,0.0115584,0.00335052,0.0129692,0.00360073,1.17228,0.00773062,0.012243,1007,421,3.806,27.9122
-210,603,3.79199,-28.3345,0.00381325,0.014661,0.000436718,0.0146785,0.0037957,1.53062,0.00879775,0.01118,1014,421,3.79202,28.3345
-203,603,3.78174,-28.7811,0.00317037,0.0167283,-0.00189297,0.0169876,0.00291103,-1.43464,0.0104903,0.0173697,1021,421,3.78171,28.7811
-196,603,3.7937,-29.2272,0.00301363,0.0142976,-0.00158194,0.0145152,0.00279605,-1.43411,0.0088925,0.0194044,1028,421,3.79367,29.2272
-189,603,3.77063,-29.5985,0.00281011,0.0118832,-0.0014417,0.0121068,0.00258654,-1.41695,0.00736205,0.0163439,1035,421,3.77063,29.5985
-182,603,3.7262,-29.9775,0.00266644,0.00936806,-0.00128546,0.00960616,0.00242833,-1.38764,0.00576766,0.0115397,1042,421,3.72617,29.9775
-175,603,3.70374,-30.3389,0.00249252,0.00693363,-0.00107085,0.00717835,0.00224779,-1.34612,0.0042398,0.0117354,1049,421,3.70372,30.3389
-168,603,3.66638,-30.7028,0.00231462,0.00472406,-0.000932905,0.00504304,0.00199564,-1.24134,0.00293263,0.0148367,1056,421,3.66643,30.7028
-161,603,3.65332,-31.1058,0.00214668,0.00282617,-0.000778636,0.00333596,0.0016369,-0.991114,0.00192613,0.0144228,1063,421,3.65332,31.1058
-154,603,3.64136,-31.4831,0.00193313,0.00136651,-0.00061856,0.00233017,0.000969465,-0.570647,0.00135163,0.0129568,1070,421,3.64137,31.4831
-147,603,3.6377,-31.8022,0.00157563,6.35289e-05,-0.000523434,0.00173914,-9.99832e-05,-0.302779,0.00119415,0.0140702,1077,421,3.63766,31.8022
-140,603,3.66748,-32.1336,0.00136779,-0.000918067,-0.000365649,0.00142486,-0.000975132,-0.154816,0.00139372,0.0118431,1084,421,3.66748,32.1336
-133,603,3.64063,-32.4616,0.00124925,-0.00144718,-0.000157885,0.00125846,-0.0014564,-0.0582879,0.00156881,0.012138,1091,421,3.64062,32.4616
-126,603,3.6499,-32.7683,0.00112709,-0.00179378,-6.51079e-06,0.00112711,-0.00179379,-0.00222904,0.00170096,0.0111315,1098,421,3.6499,32.7683
-119,603,3.69141,-33.0887,0.00111296,-0.00196961,0.000118076,0.00111748,-0.00197413,0.0382296,0.00180764,0.0110911,1105,421,3.69146,33.0887
-112,603,3.71912,-33.4221,0.00104365,-0.00210999,0.000140842,0.00104993,-0.00211626,0.0445418,0.00186224,0.0155824,1112,421,3.71913,33.4221
-105,603,3.69897,-33.7206,0.00109049,-0.00215616,0.000203699,0.00110322,-0.00216889,0.062415,0.00192226,0.014804,1119,421,3.69893,33.7206
-98,603,3.6759,-33.9601,0.00139262,-0.00234694,0.000315805,0.0014191,-0.00237343,0.0836602,0.00221261,0.0131087,1126,421,3.67587,33.9601
-91,603,3.69458,-34.2247,0.00176155,-0.00254359,0.000383458,0.00179544,-0.00257747,0.0881453,0.00253813,0.010374,1133,421,3.69459,34.2247
-84,603,3.74744,-34.5298,0.00213131,-0.00249879,0.000564465,0.00219913,-0.00256661,0.119579,0.00275423,0.0115994,1140,421,3.7474,34.5298
-77,603,3.78711,-34.8508,0.0029266,-0.00274569,0.000852492,0.00305196,-0.00287104,0.145995,0.00342017,0.0181451,1147,421,3.78707,34.8508
-70,603,3.75195,-35.1042,0,0,0,0,0,0,0,-1,1154,421,3.75194,35.1041
-63,603,3.81506,-35.2626,0,0,0,0,0,0,0,-1,1161,421,3.81503,35.2626
-56,603,3.89172,-35.4727,0,0,0,0,0,0,0,-1,1168,421,3.89178,35.4727
-49,603,3.9198,-35.6752,0,0,0,0,0,0,0,-1,1175,421,3.91984,35.6752
-42,603,3.9397,-35.8239,0,0,0,0,0,0,0,-1,1182,421,3.93974,35.8239
-35,603,3.90845,-35.9811,0.0116542,-0.00840886,0.0063889,0.0135159,-0.0102706,0.283549,0.0137757,0.0420279,1189,421,3.90843,35.9811
-28,603,3.96228,-36.1055,0.0130137,-0.00769127,0.0097384,0.0168742,-0.0115518,0.377422,0.0165074,0.0278341,1196,421,3.96233,36.1055
-21,603,4.02332,-36.2813,0.0137679,-0.00800986,0.0123812,0.0193673,-0.0136092,0.424721,0.0191355,0.0232731,1203,421,4.02328,36.2814
-14,603,4.11755,-36.4309,0.0155723,-0.00775795,0.01434,0.0223926,-0.0145783,0.44395,0.0215035,0.0208802,1210,421,4.11758,36.4309
-7,603,4.16809,-36.5412,0.0175018,-0.0080908,0.0146502,0.0241574,-0.0147464,0.426421,0.0226791,0.024611,1217,421,4.16806,36.5412
0,603,4.151,-36.6527,0.0166521,-0.00756723,0.0150455,0.0238559,-0.0147711,0.446547,0.022506,0.0313877,1224,421,4.15096,36.6527
7,603,4.20715,-36.6079,0.0151581,-0.00690769,0.0150387,0.0227769,-0.0145265,0.468926,0.021712,0.0398822,1231,421,4.20713,36.6079
14,603,4.47156,-36.5123,0.0139608,-0.00588048,0.0145608,0.0216593,-0.013579,0.486357,0.0205224,0.0372336,1238,421,4.47151,36.5123
21,603,4.51807,-36.6054,0.0127568,-0.00434482,0.0131899,0.0199251,-0.0115131,0.497813,0.0183661,0.02865,1245,421,4.51808,36.6054
28,603,4.53955,-36.6075,0.0109584,-0.00283449,0.0117984,0.0177281,-0.00960417,0.520917,0.016011,0.0341293,1252,421,4.53956,36.6075
35,603,4.53833,-36.589,0.00834853,-0.000511055,0.00996147,0.0148208,-0.00698328,0.576182,0.0128568,0.0428333,1259,421,4.5383,36.589
42,603,4.64099,-36.874,0.00528844,0.00241933,0.00751036,0.0115,-0.00379226,0.69103,0.00919524,0.0393953,1266,421,4.64097,36.874
49,603,4.78674,-37.0874,0.00233236,0.0056002,0.00493167,0.00916157,-0.00122902,0.945363,0.0065559,0.0198482,1273,421,4.78671,37.0874
56,603,4.66711,-37.0086,-0.000397604,0.00885479,0.00190253,0.00923073,-0.00077354,1.37571,0.0064272,0.0397618,1280,421,4.66715,37.0086
63,603,4.66821,-37.0197,0,0,0,0,0,0,0,-1,1287,421,4.66821,37.0197
70,603,4.68762,-36.9269,0,0,0,0,0,0,0,-1,1294,421,4.68766,36.9269
77,603,4.89441,-36.9539,0,0,0,0,0,0,0,-1,1301,421,4.89445,36.9539
84,603,4.99731,-37.0233,0,0,0,0,0,0,0,-1,1308,421,4.99733,37.0233
91,603,5.12097,-37.0315,0,0,0,0,0,0,0,-1,1315,421,5.12101,37.0315
98,603,5.3772,-37.0883,0,0,0,0,0,0,0,-1,1322,421,5.37718,37.0884
105,603,5.62183,-36.8312,-0.00239794,0.0203421,-0.0141277,0.0271068,-0.00916264,-1.12423,0.0217777,0.0473254,1329,421,5.62179,36.8312
112,603,5.56396,-36.6482,0.00308009,0.0197029,-0.0144926,0.0280982,-0.00531525,-1.04575,0.0207323,0.0397868,1336,421,5.56393,36.6482
119,603,5.58459,-36.5023,0.0100105,0.0183449,-0.0138665,0.0286568,-0.000301423,-0.931367,0.0192058,0.0412407,1343,421,5.58456,36.5023
126,603,5.46521,-36.4926,0,0,0,0,0,0,0,-1,1350,421,5.46517,36.4926
133,603,5.58618,-36.179,0.0291183,0.0148375,-0.0105062,0.0346809,0.00927488,-0.486935,0.0207324,0.0426692,1357,421,5.58624,36.179
140,603,5.771,-36.0544,0.0407159,0.0124341,-0.00840232,0.0430238,0.0101262,-0.268067,0.0259737,0.031209,1364,421,5.77105,36.0544
147,603,5.63599,-35.9463,0.0519035,0.00993405,-0.00634062,0.0528405,0.00899705,-0.146716,0.0326439,0.024235,1371,421,5.63594,35.9463
154,603,5.60205,-35.8716,0.060993,0.0076393,-0.00473949,0.0614107,0.00722155,-0.0879143,0.0387582,0.0309894,1378,421,5.60211,35.8716
161,603,5.69836,-35.7084,0.0675036,0.0054353,-0.00325985,0.0676743,0.00526456,-0.0523286,0.0434677,0.0316611,1385,421,5.6984,35.7084
168,603,5.78491,-35.5314,0.0714071,0.00346787,-0.00186668,0.0714584,0.00341662,-0.027448,0.0465419,0.032549,1392,421,5.78491,35.5314
175,603,6.01123,-35.3678,0.0718754,0.00177735,-0.000761891,0.0718837,0.00176907,-0.0108672,0.0473438,0.0369332,1399,421,6.01117,35.3678
182,603,6.0863,-35.146,0.0708806,-0.00139973,-1.96919e-05,0.0708806,-0.00139973,-0.000272437,0.0477272,0.0428523,1406,421,6.08633,35.146
189,603,6.04224,-34.8538,0.0655505,-0.00274331,-0.000398075,0.0655529,-0.00274563,-0.00582859,0.0446453,0.0377593,1413,421,6.04229,34.8538
196,603,5.95837,-34.5854,0.0593533,-0.00364758,-0.000336815,0.0593551,-0.00364938,-0.00534599,0.0408409,0.0286877,1420,421,5.95843,34.5854
203,603,5.9845,-34.3953,0.0350493,-0.00331413,-0.0015752,0.0351139,-0.0033787,-0.0409679,0.0246129,0.0170544,1427,421,5.98451,34.3953
210,603,6.00427,-34.2061,0.00296339,-0.00142746,-0.00182832,0.003625,-0.00208907,-0.347208,0.00333851,0.0134155,1434,421,6.00422,34.2061
217,603,6.01904,-33.8918,0.00227368,-9.90736e-05,-0.00118877,0.00276679,-0.000592183,-0.393204,0.00207034,0.0132686,1441,421,6.0191,33.8918
224,603,6.06531,-33.5715,0.00175198,0.00069819,-0.000633772,0.00204927,0.000400897,-0.438611,0.00125409,0.0166305,1448,421,6.0653,33.5715
231,603,6.05566,-33.2718,0.00141616,0.00136168,-8.38546e-05,0.00147709,0.00130075,-0.628342,0.000931527,0.0147504,1455,421,6.05561,33.2718
238,603,6.0708,-32.9502,0.00129195,0.00192277,0.000283187,0.00203125,0.00118348,1.20499,0.00117807,0.0108737,1462,421,6.07077,32.9501
245,603,6.09851,-32.6145,0.00125885,0.00239853,0.000504983,0.00259009,0.00106729,1.20823,0.00150308,0.0122737,1469,421,6.09851,32.6145
252,603,6.11353,-32.2694,0.00123236,0.00273612,0.000696412,0.00300909,0.000959394,1.19724,0.00177491,0.0108986,1476,421,6.11356,32.2694
259,603,6.11267,-31.9401,0.00115523,0.00301998,0.000884438,0.00337274,0.000802477,1.19129,0.00203446,0.0105719,1483,421,6.11264,31.9401
266,603,6.09583,-31.5828,0.00110441,0.00329211,0.00107655,0.00373301,0.000663512,1.18208,0.00229964,0.0120948,1490,421,6.0958,31.5828
273,603,6.0979,-31.2134,0.00108614,0.00356894,0.00131282,0.00413435,0.000520733,1.16412,0.0026001,0.0101964,1497,421,6.0979,31.2134
280,603,6.10669,-30.8285,0.00117762,0.00356499,0.00161279,0.00437779,0.000364822,1.10398,0.00280484,0.0108572,1504,421,6.10667,30.8285
287,603,6.10168,-30.4361,0.00131766,0.00367723,0.00202827,0.00484388,0.000151009,1.04882,0.00318011,0.0106175,1511,421,6.10172,30.4361
294,603,6.08228,-30.0544,0.00136109,0.00373361,0.00247645,0.00529326,-0.00019856,1.00876,0.00359685,0.00998877,1518,421,6.08228,30.0544
301,603,6.08105,-29.6615,0.0013865,0.00361292,0.00291839,0.00562321,-0.000623785,0.967603,0.00397309,0.0117975,1525,421,6.08108,29.6615
308,603,6.07275,-29.2635,0.00150682,0.00335969,0.00340283,0.00595994,-0.00109344,0.918304,0.00438347,0.0162297,1532,421,6.07275,29.2635
315,603,6.02942,-28.8584,0.00161944,0.00310316,0.00392083,0.0063517,-0.0016291,0.878898,0.00486921,0.0159722,1539,421,6.02936,28.8584
322,603,6.00867,-28.4259,0.00162085,0.00284013,0.00441559,0.00668796,-0.00222699,0.853997,0.00535754,0.0156367,1546,421,6.00866,28.4259
329,603,5.9834,-27.9806,0.00154015,0.00256764,0.00484548,0.00692654,-0.00281875,0.838214,0.00579066,0.0112237,1553,421,5.98334,27.9806
336,603,5.97766,-27.555,0.00133935,0.00237551,0.0051362,0.0070197,-0.00330484,0.835662,0.00608813,0.00993848,1560,421,5.97761,27.555
343,603,5.95959,-27.1018,0.00108829,0.00242599,0.00539457,0.00719301,-0.00367874,0.847076,0.00638519,0.0122118,1567,421,5.95964,27.1018
350,603,5.93396,-26.6396,0.000860884,0.00305353,0.00579765,0.00785761,-0.00394319,0.878844,0.00693701,0.0203098,1574,421,5.93402,26.6396
357,603,5.94861,-26.1127,0.00055461,0.00366196,0.00623059,0.00852967,-0.0043131,0.907587,0.00754682,0.0306415,1581,421,5.94861,26.1127
364,603,5.97119,-25.582,7.19441e-05,0.00439959,0.00648483,0.00907207,-0.00460054,0.946427,0.00803337,0.0491821,1588,421,5.97124,25.582
371,603,5.89172,-25.0385,0,0,0,0,0,0,0,-1,1595,421,5.89178,25.0385
378,603,5.73755,-24.8096,0,0,0,0,0,0,0,-1,1602,421,5.73753,24.8096
385,603,5.5127,-24.2496,0,0,0,0,0,0,0,-1,1609,421,5.51275,24.2496
392,603,4.90527,-19.605,0,0,0,0,0,0,0,-1,1616,421,4.90526,19.605
399,603,2.94299,0.638214,0,0,0,0,0,0,0,-1,1623,421,2.94293,-0.638215
406,603,3.01917,-2.37219,0,0,0,0,0,0,0,-1,1630,421,3.01915,2.37219
413,603,2.38928,-2.41275,0,0,0,0,0,0,0,-1,1637,421,2.38926,2.41274
420,603,-0.228882,-19.7886,0,0,0,0,0,0,0,-1,1644,421,-0.228908,19.7886
427,603,2.09583,-19.588,0,0,0,0,0,0,0,-1,1651,421,2.09584,19.588
434,603,4.43604,-19.4135,0,0,0,0,0,0,0,-1,1658,421,4.436,19.4135
441,603,6.76819,-19.3591,0,0,0,0,0,0,0,-1,1665,421,6.76819,19.3591
448,603,1.14355,-4.59842,0,0,0,0,0,0,0,-1,1672,421,1.14355,4.59841
455,603,0,0,0,0,0,0,0,0,0,-1,1679,421,0,0
462,603,0,0,0,0,0,0,0,0,0,-1,1686,421,0,0
469,603,0,0,0,0,0,0,0,0,0,-1,1693,421,0,0
476,603,0,0,0,0,0,0,0,0,0,-1,1700,421,0,0
483,603,0,0,0,0,0,0,0,0,0,-1,1707,421,0,0
490,603,0,0,0,0,0,0,0,0,0,-1,1714,421,0,0
497,603,0,0,0,0,0,0,0,0,0,-1,1721,421,0,0
504,603,0,0,0,0,0,0,0,0,0,-1,1728,421,0,0
511,603,0,0,0,0,0,0,0,0,0,-1,1735,421,0,0
518,603,0,0,0,0,0,0,0,0,0,-1,1742,421,0,0
525,603,0,0,0,0,0,0,0,0,0,-1,1749,421,0,0
532,603,0,0,0,0,0,0,0,0,0,-1,1756,421,0,0
539,603,0,0,0,0,0,0,0,0,0,-1,1763,421,0,0
546,603,0,0,0,0,0,0,0,0,0,-1,1770,421,0,0
553,603,0,0,0,0,0,0,0,0,0,-1,1777,421,0,0
560,603,0,0,0,0,0,0,0,0,0,-1,1784,421,0,0
567,603,0,0,0,0,0,0,0,0,0,-1,1791,421,0,0
574,603,0,0,0,0,0,0,0,0,0,-1,1798,421,0,0
581,603,0,0,0,0,0,0,0,0,0,-1,1805,421,0,0
588,603,0,0,0,0,0,0,0,0,0,-1,1812,421,0,0
595,603,0,0,0,0,0,0,0,0,0,-1,1819,421,0,0
602,603,0,0,0,0,0,0,0,0,0,-1,1826,421,0,0
609,603,0,0,0,0,0,0,0,0,0,-1,1833,421,0,0
616,603,0,0,0,0,0,0,0,0,0,-1,1840,421,0,0
623,603,0,0,0,0,0,0,0,0,0,-1,1847,421,0,0
630,603,0,0,0,0,0,0,0,0,0,-1,1854,421,0,0
637,603,0,0,0,0,0,0,0,0,0,-1,1861,421,0,0
644,603,0,0,0,0,0,0,0,0,0,-1,1868,421,0,0
651,603,0,0,0,0,0,0,0,0,0,-1,1875,421,0,0
658,603,0,0,0,0,0,0,0,0,0,-1,1882,421,0,0
665,603,0,0,0,0,0,0,0,0,0,-1,1889,421,0,0
672,603,0,0,0,0,0,0,0,0,0,-1,1896,421,0,0
679,603,0,0,0,0,0,0,0,0,0,-1,1903,421,0,0
686,603,0,0,0,0,0,0,0,0,0,-1,1910,421,0,0
693,603,0,0,0,0,0,0,0,0,0,-1,1917,421,0,0
700,603,0,0,0,0,0,0,0,0,0,-1,1924,421,0,0
707,603,0,0,0,0,0,0,0,0,0,-1,1931,421,0,0
714,603,0,0,0,0,0,0,0,0,0,-1,1938,421,0,0
721,603,0,0,0,0,0,0,0,0,0,-1,1945,421,0,0
728,603,0,0,0,0,0,0,0,0,0,-1,1952,421,0,0
735,603,0,0,0,0,0,0,0,0,0,-1,1959,421,0,0
742,603,0,0,0,0,0,0,0,0,0,-1,1966,421,0,0
749,603,0,0,0,0,0,0,0,0,0,-1,1973,421,0,0
756,603,0,0,0,0,0,0,0,0,0,-1,1980,421,0,0
763,603,0,0,0,0,0,0,0,0,0,-1,1987,421,0,0
770,603,0,0,0,0,0,0,0,0,0,-1,1994,421,0,0
777,603,0,0,0,0,0,0,0,0,0,-1,2001,421,0,0
784,603,0,0,0,0,0,0,0,0,0,-1,2008,421,0,0
791,603,0,0,0,0,0,0,0,0,0,-1,2015,421,0,0
798,603,0,0,0,0,0,0,0,0,0,-1,2022,421,0,0
805,603,0,0,0,0,0,0,0,0,0,-1,2029,421,0,0
812,603,0,0,0,0,0,0,0,0,0,-1,2036,421,0,0
-700,596,0,0,0,0,0,0,0,0,0,-1,524,428,0,0
-693,596,0,0,0,0,0,0,0,0,0,-1,531,428,0,0
-686,596,0,0,0,0,0,0,0,0,0,-1,538,428,0,0
-679,596,0,0,0,0,0,0,0,0,0,-1,545,428,0,0
-672,596,0,0,0,0,0,0,0,0,0,-1,552,428,0,0
-665,596,0,0,0,0,0,0,0,0,0,-1,559,428,0,0
-658,596,0,0,0,0,0,0,0,0,0,-1,566,428,0,0
-651,596,0,0,0,0,0,0,0,0,0,-1,573,428,0,0
-644,596,0,0,0,0,0,0,0,0,0,-1,580,428,0,0
-637,596,0,0,0,0,0,0,0,0,0,-1,587,428,0,0
-630,596,0,0,0,0,0,0,0,0,0,-1,594,428,0,0
-623,596,0,0,0,0,0,0,0,0,0,-1,601,428,0,0
-616,596,0,0,0,0,0,0,0,0,0,-1,608,428,0,0
-609,596,0,0,0,0,0,0,0,0,0,-1,615,428,0,0
-602,596,0,0,0,0,0,0,0,0,0,-1,622,428,0,0
-595,596,0,0,0,0,0,0,0,0,0,-1,629,428,0,0
-588,596,0,0,0,0,0,0,0,0,0,-1,636,428,0,0
-581,596,0,0,0,0,0,0,0,0,0,-1,643,428,0,0
-574,596,0,0,0,0,0,0,0,0,0,-1,650,428,0,0
-567,596,0,0,0,0,0,0,0,0,0,-1,657,428,0,0
-560,596,0,0,0,0,0,0,0,0,0,-1,664,428,0,0
-553,596,0,0,0,0,0,0,0,0,0,-1,671,428,0,0
-546,596,0,0,0,0,0,0,0,0,0,-1,678,428,0,0
-539,596,0,0,0,0,0,0,0,0,0,-1,685,428,0,0
-532,596,0,0,0,0,0,0,0,0,0,-1,692,428,0,0
-525,596,0,0,0,0,0,0,0,0,0,-1,699,428,0,0
-518,596,0,0,0,0,0,0,0,0,0,-1,706,428,0,0
-511,596,0,0,0,0,0,0,0,0,0,-1,713,428,0,0
-504,596,0,0,0,0,0,0,0,0,0,-1,720,428,0,0
-497,596,0,0,0,0,0,0,0,0,0,-1,727,428,0,0
-490,596,0,0,0,0,0,0,0,0,0,-1,734,428,0,0
-483,596,0,0,0,0,0,0,0,0,0,-1,741,428,0,0
-476,596,0,0,0,0,0,0,0,0,0,-1,748,428,0,0
-469,596,0,0,0,0,0,0,0,0,0,-1,755,428,0,0
-462,596,0,0,0,0,0,0,0,0,0,-1,762,428,0,0
-455,596,0,0,0,0,0,0,0,0,0,-1,769,428,0,0
-448,596,0,0,0,0,0,0,0,0,0,-1,776,428,0,0
-441,596,0,0,0,0,0,0,0,0,0,-1,783,428,0,0
-434,596,0,0,0,0,0,0,0,0,0,-1,790,428,0,0
-427,596,0,0,0,0,0,0,0,0,0,-1,797,428,0,0
-420,596,0,0,0,0,0,0,0,0,0,-1,804,428,0,0
-413,596,0,0,0,0,0,0,0,0,0,-1,811,428,0,0
-406,596,0,0,0,0,0,0,0,0,0,-1,818,428,0,0
-399,596,0,0,0,0,0,0,0,0,0,-1,825,428,0,0
-392,596,0,0,0,0,0,0,0,0,0,-1,832,428,0,0
-385,596,0,0,0,0,0,0,0,0,0,-1,839,428,0,0
-378,596,0,0,0,0,0,0,0,0,0,-1,846,428,0,0
-371,596,0,0,0,0,0,0,0,0,0,-1,853,428,0,0
-364,596,0,0,0,0,0,0,0,0,0,-1,860,428,0,0
-357,596,0,0,0,0,0,0,0,0,0,-1,867,428,0,0
-350,596,0,0,0,0,0,0,0,0,0,-1,874,428,0,0
-343,596,0,0,0,0,0,0,0,0,0,-1,881,428,0,0
-336,596,-0.98291,-20.0836,0,0,0,0,0,0,0,-1,888,428,-0.982933,20.0836
-329,596,4.43048,-20.1666,0,0,0,0,0,0,0,-1,895,428,4.43045,20.1666
-322,596,4.29657,-19.996,0,0,0,0,0,0,0,-1,902,428,4.29655,19.996
-315,596,4.20044,-19.8317,0,0,0,0,0,0,0,-1,909,428,4.20045,19.8317
-308,596,0.254761,-20.841,0,0,0,0,0,0,0,-1,916,428,0.254731,20.841
-301,596,3.96875,-21.405,0,0,0,0,0,0,0,-1,923,428,3.96874,21.405
-294,596,2.44946,-23.3419,0,0,0,0,0,0,0,-1,930,428,2.44946,23.3419
-287,596,3.85303,-23.1164,0,0,0,0,0,0,0,-1,937,428,3.85303,23.1164
-280,596,3.69055,-23.8654,0,0,0,0,0,0,0,-1,944,428,3.69054,23.8654
-273,596,3.44604,-24.7432,0.0157204,-0.0313788,0.0187748,0.0222885,-0.0379469,0.33653,0.0351664,0.0437954,951,428,3.44604,24.7432
-266,596,3.42542,-24.702,0.0139639,-0.0281292,0.0174737,0.0202722,-0.0344375,0.346455,0.0319376,0.0427249,958,428,3.42544,24.702
-259,596,3.45331,-25.0808,0,0,0,0,0,0,0,-1,965,428,3.45333,25.0808
-252,596,3.46149,-25.6558,0.0103046,-0.0179742,0.0137587,0.015894,-0.0235636,0.385876,0.0229238,0.0184778,972,428,3.46151,25.6558
-245,596,3.48663,-26.1742,0.00834762,-0.0119371,0.0108975,0.0130922,-0.0166817,0.410636,0.0172316,0.0139965,979,428,3.48661,26.1742
-238,596,3.49597,-26.6325,0.00652197,-0.00661548,0.00817766,0.0104424,-0.0105359,0.447038,0.0121119,0.0123568,986,428,3.49597,26.6325
-231,596,3.43646,-27.1106,0.00504947,-0.00181831,0.00564989,0.00822715,-0.00499599,0.512338,0.00770998,0.0122732,993,428,3.43648,27.1106
-224,596,3.39789,-27.5544,0.00378453,0.00205958,0.00341278,0.00644213,-0.000598023,0.66163,0.00450734,0.0123587,1000,428,3.39786,27.5544
-217,596,3.38019,-27.959,0.00239303,0.00630966,0.00119692,0.00664648,0.00205622,1.29649,0.00392921,0.0132668,1007,428,3.3802,27.959
-210,596,3.39313,-28.3671,0.00173196,0.00796036,-0.000657935,0.0080291,0.00166322,-1.46669,0.00489347,0.0126354,1014,428,3.39316,28.3671
-203,596,3.3949,-28.7939,0.00151755,0.00902709,-0.00205399,0.00955218,0.000992463,-1.32051,0.00606443,0.0169974,1021,428,3.39487,28.7939
-196,596,3.38464,-29.2076,0.0017605,0.00722334,-0.00155255,0.00763375,0.00135009,-1.31236,0.00470416,0.0171946,1028,428,3.3847,29.2076
-189,596,3.33801,-29.584,0.00201221,0.00544646,-0.00120587,0.00582758,0.00163109,-1.26468,0.00347153,0.0138858,1035,428,3.33807,29.5839
-182,596,3.3302,-29.9547,0.00228822,0.00367914,-0.000896344,0.00411818,0.00184918,-1.11533,0.00238175,0.0122003,1042,428,3.33016,29.9547
-175,596,3.34863,-30.3277,0.00249554,0.00197126,-0.00052295,0.00281837,0.00164843,-0.553067,0.00163499,0.01432,1049,428,3.34864,30.3277
-168,596,3.33716,-30.7033,0.00266521,0.00041929,-0.000259241,0.00269474,0.000389755,-0.11344,0.0016817,0.0168332,1056,428,3.3371,30.7033
-161,596,3.32349,-31.0866,0.00272795,-0.000938852,-3.73963e-05,0.00272834,-0.000939234,-0.0101972,0.00219985,0.0154204,1063,428,3.32344,31.0866
-154,596,3.29443,-31.4449,0.00267887,-0.00195096,0.000147948,0.0026836,-0.00195568,0.0319119,0.00268946,0.0124836,1070,428,3.29438,31.4448
-147,596,3.33423,-31.7697,0.0024948,-0.00277764,0.000275406,0.00250915,-0.00279199,0.0520463,0.00306206,0.0127435,1077,428,3.33419,31.7697
-140,596,3.35693,-32.108,0.00230536,-0.00343177,0.000383879,0.00233093,-0.00345734,0.0665161,0.00336289,0.0141833,1084,428,3.35697,32.108
-133,596,3.32715,-32.4609,0.00205067,-0.00385753,0.000504641,0.00209347,-0.00390033,0.0845968,0.00351254,0.0142899,1091,428,3.32712,32.4609
-126,596,3.34949,-32.7628,0.0018145,-0.00412246,0.000575871,0.00186984,-0.0041778,0.0958077,0.00357535,0.0109769,1098,428,3.34952,32.7627
-119,596,3.38464,-33.0876,0.00166004,-0.0042432,0.000613854,0.00172319,-0.00430636,0.102524,0.00358607,0.0136723,1105,428,3.38466,33.0876
-112,596,3.35474,-33.4017,0.00140506,-0.00432817,0.00047937,0.00144487,-0.00436797,0.082846,0.00349463,0.0152732,1112,428,3.35478,33.4017
-105,596,3.35486,-33.7112,0.00134457,-0.00419495,0.000453574,0.00138147,-0.00423185,0.0811592,0.00337725,0.0157537,1119,428,3.35482,33.7112
-98,596,3.41406,-33.9487,0.00170775,-0.00421263,0.000521954,0.00175342,-0.00425829,0.0872653,0.00356988,0.0140436,1126,428,3.41408,33.9487
-91,596,3.43274,-34.3236,0.00215746,-0.00431142,0.000560488,0.00220566,-0.00435962,0.0857919,0.00385787,0.0342456,1133,428,3.43276,34.3236
-84,596,3.62085,-34.9331,0,0,0,0,0,0,0,-1,1140,428,3.6209,34.9331
-77,596,3.57959,-34.9011,0,0,0,0,0,0,0,-1,1147,428,3.57955,34.9011
-70,596,3.50696,-32.137,0,0,0,0,0,0,0,-1,1154,428,3.50696,32.137
-63,596,1.95569,-12.2758,0,0,0,0,0,0,0,-1,1161,428,1.95563,12.2759
-56,596,1.60107,-10.5827,0,0,0,0,0,0,0,-1,1168,428,1.60108,10.5827
-49,596,1.59473,-10.0393,0,0,0,0,0,0,0,-1,1175,428,1.59472,10.0393
-42,596,1.99585,-6.6246,0,0,0,0,0,0,0,-1,1182,428,1.99586,6.62459
-35,596,3.47058,-35.7322,0,0,0,0,0,0,0,-1,1189,428,3.47055,35.7322
-28,596,3.75403,-35.9196,0,0,0,0,0,0,0,-1,1196,428,3.75405,35.9196
-21,596,3.78442,-36.1149,0,0,0,0,0,0,0,-1,1203,428,3.78437,36.1149
-14,596,3.30151,-36.2537,0,0,0,0,0,0,0,-1,1210,428,3.30145,36.2537
-7,596,3.98254,-36.3976,0,0,0,0,0,0,0,-1,1217,428,3.98255,36.3976
0,596,3.90295,-36.4865,0,0,0,0,0,0,0,-1,1224,428,3.90294,36.4864
7,596,3.51282,-36.4612,0,0,0,0,0,0,0,-1,1231,428,3.51284,36.4612
14,596,4.46082,-35.9761,0,0,0,0,0,0,0,-1,1238,428,4.46084,35.9761
21,596,4.51331,-35.9972,0,0,0,0,0,0,0,-1,1245,428,4.51326,35.9972
28,596,3.91064,-35.8768,0.0154328,3.03389e-05,0.0160842,0.0255644,-0.0101013,0.562123,0.0212269,0.0492634,1252,428,3.91063,35.8768
35,596,3.84863,-36.1402,0.0120514,0.00273118,0.0133855,0.0215648,-0.00678219,0.617886,0.0170919,0.0467386,1259,428,3.84859,36.1402
42,596,4.53613,-36.7886,0.00816658,0.0061224,0.00992171,0.0171187,-0.00282973,0.734072,0.0124633,0.0474575,1266,428,4.53617,36.7886
49,596,4.96899,-37.1489,0.00440495,0.00985099,0.00623313,0.0139299,0.000326006,0.991336,0.00917988,0.0470886,1273,428,4.96899,37.1489
56,596,4.41772,-36.7563,0.000954638,0.013661,0.00205358,0.0139847,0.000630986,1.41448,0.00912008,0.0422425,1280,428,4.4177,36.7563
63,596,3.96069,-36.5705,-0.00252216,0.0173243,-0.00251812,0.0176388,-0.00283668,-1.44654,0.0128099,0.0402012,1287,428,3.96067,36.5705
70,596,3.5415,-36.447,-0.00570761,0.020315,-0.00694958,0.0220546,-0.00744727,-1.32551,0.0177152,0.0414507,1294,428,3.54154,36.447
77,596,2.95959,-36.3868,-0.0087839,0.0232848,-0.0111907,0.0268038,-0.0123029,-1.26613,0.0230899,0.0444176,1301,428,2.95962,36.3868
84,596,2.51624,-36.1219,-0.0116607,0.0257247,-0.014612,0.0307581,-0.0166941,-1.23906,0.0277947,0.0461304,1308,428,2.51619,36.1219
91,596,2.05432,-35.8517,-0.0149315,0.0270753,-0.0173525,0.0333162,-0.0211724,-1.22555,0.0317183,0.0461167,1315,428,2.05436,35.8517
98,596,1.98413,-36.1188,0,0,0,0,0,0,0,-1,1322,428,1.98419,36.1188
105,596,5.95618,-36.7496,0,0,0,0,0,0,0,-1,1329,428,5.95613,36.7496
112,596,1.47009,-35.8203,0,0,0,0,0,0,0,-1,1336,428,1.47009,35.8203
119,596,6.00732,-36.0206,0,0,0,0,0,0,0,-1,1343,428,6.00729,36.0206
126,596,1.31384,-35.9825,0,0,0,0,0,0,0,-1,1350,428,1.31384,35.9825
133,596,0.686646,-35.6293,0,0,0,0,0,0,0,-1,1357,428,0.686665,35.6293
140,596,-0.0236816,-35.1272,0,0,0,0,0,0,0,-1,1364,428,-0.0236447,35.1272
147,596,-0.0648193,-35.0759,0,0,0,0,0,0,0,-1,1371,428,-0.0648655,35.0759
154,596,5.68982,-35.5603,0,0,0,0,0,0,0,-1,1378,428,5.68982,35.5603
161,596,5.92358,-35.1714,0,0,0,0,0,0,0,-1,1385,428,5.9236,35.1714
168,596,6.08203,-35.2134,0,0,0,0,0,0,0,-1,1392,428,6.082,35.2135
175,596,6.35449,-35.0597,0,0,0,0,0,0,0,-1,1399,428,6.35443,35.0597
182,596,6.45752,-35.0216,0,0,0,0,0,0,0,-1,1406,428,6.45752,35.0216
189,596,6.36743,-34.7973,0,0,0,0,0,0,0,-1,1413,428,6.36747,34.7973
196,596,6.30005,-34.326,0,0,0,0,0,0,0,-1,1420,428,6.30009,34.326
203,596,6.24841,-34.3256,0,0,0,0,0,0,0,-1,1427,428,6.24845,34.3256
210,596,6.2804,-34.2278,0,0,0,0,0,0,0,-1,1434,428,6.28045,34.2279
217,596,6.27087,-33.8763,0,0,0,0,0,0,0,-1,1441,428,6.2709,33.8762
224,596,6.47974,-33.7903,0.00224565,-3.93843e-05,-0.00118134,0.00274658,-0.00054031,-0.401051,0.0020352,0.0499701,1448,428,6.47977,33.7903
231,596,6.37317,-33.2444,0.00186242,0.000676037,-0.000530581,0.00206508,0.000473369,-0.364872,0.0012492,0.019953,1455,428,6.37316,33.2443
238,596,6.39868,-32.9358,0.00176973,0.00119275,-0.000140163,0.00180198,0.0011605,-0.226133,0.00105466,0.0154941,1462,428,6.39871,32.9358
245,596,6.43848,-32.6053,0.00178823,0.00154206,7.12903e-05,0.00180738,0.00152291,0.262495,0.00112218,0.0135435,1469,428,6.43846,32.6054
252,596,6.47375,-32.2693,0.00180338,0.0016162,0.000234272,0.00196207,0.00145752,0.595361,0.00117649,0.0108725,1476,428,6.47375,32.2693
259,596,6.47937,-31.9375,0.00172372,0.00161,0.000340264,0.00201184,0.00132188,0.702612,0.00118048,0.00946435,1483,428,6.47942,31.9375
266,596,6.45422,-31.5898,0.0016889,0.00164523,0.000426698,0.00209432,0.00123981,0.759836,0.00121596,0.0109083,1490,428,6.45426,31.5897
273,596,6.46594,-31.2213,0.00167848,0.00184863,0.000582857,0.00235259,0.00117452,0.857866,0.00135827,0.0116271,1497,428,6.46599,31.2214
280,596,6.49597,-30.8459,0.00171305,0.00174142,0.000746483,0.00247385,0.000980618,0.794899,0.00143846,0.0122397,1504,428,6.49595,30.846
287,596,6.48865,-30.4565,0.00173577,0.00192711,0.00101316,0.00284911,0.000813771,0.83247,0.00169458,0.011611,1511,428,6.48865,30.4565
294,596,6.45203,-30.0595,0.00167692,0.00208005,0.00135209,0.00324551,0.000511458,0.859393,0.00201494,0.00951285,1518,428,6.452,30.0595
301,596,6.45313,-29.6687,0.00160061,0.00211953,0.00171313,0.00359274,0.000127406,0.860553,0.00235384,0.0104783,1525,428,6.45313,29.6687
308,596,6.46643,-29.2646,0.00160884,0.00205347,0.00211474,0.00395755,-0.000295233,0.83777,0.00274208,0.0153353,1532,428,6.46647,29.2646
315,596,6.42725,-28.8477,0.0015971,0.00204754,0.00253349,0.0043658,-0.000721159,0.829731,0.00317831,0.0155991,1539,428,6.4273,28.8477
322,596,6.41431,-28.3994,0.00149228,0.00205214,0.00294646,0.00473194,-0.00118751,0.832759,0.00361606,0.0130324,1546,428,6.41435,28.3994
329,596,6.39026,-27.9781,0.00133121,0.00205045,0.00332882,0.00503902,-0.00165736,0.839206,0.00402713,0.00990808,1553,428,6.39024,27.9782
336,596,6.35486,-27.5772,0.00108926,0.00209408,0.00361919,0.00524556,-0.00206222,0.854367,0.00435054,0.00951681,1560,428,6.35483,27.5772
343,596,6.37354,-27.1389,0.000821892,0.00234539,0.00388664,0.00554422,-0.00237694,0.882167,0.00469357,0.0118353,1567,428,6.37351,27.1389
350,596,6.37903,-26.6603,0.000590492,0.00305076,0.0042713,0.00626554,-0.00262428,0.925604,0.0052741,0.0119125,1574,428,6.379,26.6603
357,596,6.34436,-26.1841,0.000313281,0.00374569,0.00468381,0.00701781,-0.00295884,0.961008,0.00591679,0.00974242,1581,428,6.34439,26.1842
364,596,6.31848,-25.696,-6.47416e-05,0.00451262,0.00496052,0.00768698,-0.0032391,1.00154,0.00648007,0.0145145,1588,428,6.31845,25.696
371,596,6.3075,-25.2295,-0.000390629,0.00567282,0.00521384,0.0086723,-0.00339011,1.04874,0.00718337,0.0213573,1595,428,6.30745,25.2295
378,596,6.22424,-24.8357,-0.000968178,0.00764635,0.00588817,0.0106345,-0.00395633,1.10118,0.00871318,0.0295602,1602,428,6.22421,24.8357
385,596,6.10229,-24.3158,-0.00213592,0.0112254,0.00632343,0.0137435,-0.00465401,1.19183,0.0110455,0.046524,1609,428,6.10228,24.3158
392,596,6.20044,-23.3607,0,0,0,0,0,0,0,-1,1616,428,6.20045,23.3607
399,596,6.16748,-22.7083,0,0,0,0,0,0,0,-1,1623,428,6.16752,22.7084
406,596,3.60034,-10.1525,0,0,0,0,0,0,0,-1,1630,428,3.60028,10.1525
413,596,3.39124,-2.63528,0,0,0,0,0,0,0,-1,1637,428,3.39122,2.6353
420,596,2.6344,-3.06308,0,0,0,0,0,0,0,-1,1644,428,2.63439,3.06308
427,596,3.77856,-20.1826,0,0,0,0,0,0,0,-1,1651,428,3.77859,20.1826
434,596,4.93384,-19.4499,0,0,0,0,0,0,0,-1,1658,428,4.93385,19.4499
441,596,6.08911,-18.7172,0,0,0,0,0,0,0,-1,1665,428,6.08912,18.7172
448,596,1.0769,0.0083313,0,0,0,0,0,0,0,-1,1672,428,1.07684,-0.00832231
455,596,2.00769,-1.43329,0,0,0,0,0,0,0,-1,1679,428,2.00765,1.4333
462,596,0,0,0,0,0,0,0,0,0,-1,1686,428,0,0
469,596,0,0,0,0,0,0,0,0,0,-1,1693,428,0,0
476,596,0,0,0,0,0,0,0,0,0,-1,1700,428,0,0
483,596,0,0,0,0,0,0,0,0,0,-1,1707,428,0,0
490,596,0,0,0,0,0,0,0,0,0,-1,1714,428,0,0
497,596,0,0,0,0,0,0,0,0,0,-1,1721,428,0,0
504,596,0,0,0,0,0,0,0,0,0,-1,1728,428,0,0
511,596,0,0,0,0,0,0,0,0,0,-1,1735,428,0,0
518,596,0,0,0,0,0,0,0,0,0,-1,1742,428,0,0
525,596,0,0,0,0,0,0,0,0,0,-1,1749,428,0,0
532,596,0,0,0,0,0,0,0,0,0,-1,1756,428,0,0
539,596,0,0,0,0,0,0,0,0,0,-1,1763,428,0,0
546,596,0,0,0,0,0,0,0,0,0,-1,1770,428,0,0
553,596,0,0,0,0,0,0,0,0,0,-1,1777,428,0,0
560,596,0,0,0,0,0,0,0,0,0,-1,1784,428,0,0
567,596,0,0,0,0,0,0,0,0,0,-1,1791,428,0,0
574,596,0,0,0,0,0,0,0,0,0,-1,1798,428,0,0
581,596,0,0,0,0,0,0,0,0,0,-1,1805,428,0,0
588,596,0,0,0,0,0,0,0,0,0,-1,1812,428,0,0
595,596,0,0,0,0,0,0,0,0,0,-1,1819,428,0,0
602,596,0,0,0,0,0,0,0,0,0,-1,1826,428,0,0
609,596,0,0,0,0,0,0,0,0,0,-1,1833,428,0,0
616,596,0,0,0,0,0,0,0,0,0,-1,1840,428,0,0
623,596,0,0,0,0,0,0,0,0,0,-1,1847,428,0,0
630,596,0,0,0,0,0,0,0,0,0,-1,1854,428,0,0
637,596,0,0,0,0,0,0,0,0,0,-1,1861,428,0,0
644,596,0,0,0,0,0,0,0,0,0,-1,1868,428,0,0
651,596,0,0,0,0,0,0,0,0,0,-1,1875,428,0,0
658,596,0,0,0,0,0,0,0,0,0,-1,1882,428,0,0
665,596,0,0,0,0,0,0,0,0,0,-1,1889,428,0,0
672,596,0,0,0,0,0,0,0,0,0,-1,1896,428,0,0
679,596,0,0,0,0,0,0,0,0,0,-1,1903,428,0,0
686,596,0,0,0,0,0,0,0,0,0,-1,1910,428,0,0
693,596,0,0,0,0,0,0,0,0,0,-1,1917,428,0,0
700,596,0,0,0,0,0,0,0,0,0,-1,1924,428,0,0
707,596,0,0,0,0,0,0,0,0,0,-1,1931,428,0,0
714,596,0,0,0,0,0,0,0,0,0,-1,1938,428,0,0
721,596,0,0,0,0,0,0,0,0,0,-1,1945,428,0,0
728,596,0,0,0,0,0,0,0,0,0,-1,1952,428,0,0
735,596,0,0,0,0,0,0,0,0,0,-1,1959,428,0,0
742,596,0,0,0,0,0,0,0,0,0,-1,1966,428,0,0
749,596,0,0,0,0,0,0,0,0,0,-1,1973,428,0,0
756,596,0,0,0,0,0,0,0,0,0,-1,1980,428,0,0
763,596,0,0,0,0,0,0,0,0,0,-1,1987,428,0,0
770,596,0,0,0,0,0,0,0,0,0,-1,1994,428,0,0
777,596,0,0,0,0,0,0,0,0,0,-1,2001,428,0,0
784,596,0,0,0,0,0,0,0,0,0,-1,2008,428,0,0
791,596,0,0,0,0,0,0,0,0,0,-1,2015,428,0,0
798,596,0,0,0,0,0,0,0,0,0,-1,2022,428,0,0
805,596,0,0,0,0,0,0,0,0,0,-1,2029,428,0,0
812,596,0,0,0,0,0,0,0,0,0,-1,2036,428,0,0
-700,589,0,0,0,0,0,0,0,0,0,-1,524,435,0,0
-693,589,0,0,0,0,0,0,0,0,0,-1,531,435,0,0
-686,589,0,0,0,0,0,0,0,0,0,-1,538,435,0,0
-679,589,0,0,0,0,0,0,0,0,0,-1,545,435,0,0
-672,589,0,0,0,0,0,0,0,0,0,-1,552,435,0,0
-665,589,0,0,0,0,0,0,0,0,0,-1,559,435,0,0
-658,589,0,0,0,0,0,0,0,0,0,-1,566,435,0,0
-651,589,0,0,0,0,0,0,0,0,0,-1,573,435,0,0
-644,589,0,0,0,0,0,0,0,0,0,-1,580,435,0,0
-637,589,0,0,0,0,0,0,0,0,0,-1,587,435,0,0
-630,589,0,0,0,0,0,0,0,0,0,-1,594,435,0,0
-623,589,0,0,0,0,0,0,0,0,0,-1,601,435,0,0
-616,589,0,0,0,0,0,0,0,0,0,-1,608,435,0,0
-609,589,0,0,0,0,0,0,0,0,0,-1,615,435,0,0
-602,589,0,0,0,0,0,0,0,0,0,-1,622,435,0,0
-595,589,0,0,0,0,0,0,0,0,0,-1,629,435,0,0
-588,589,0,0,0,0,0,0,0,0,0,-1,636,435,0,0
-581,589,0,0,0,0,0,0,0,0,0,-1,643,435,0,0
-574,589,0,0,0,0,0,0,0,0,0,-1,650,435,0,0
-567,589,0,0,0,0,0,0,0,0,0,-1,657,435,0,0
-560,589,0,0,0,0,0,0,0,0,0,-1,664,435,0,0
-553,589,0,0,0,0,0,0,0,0,0,-1,671,435,0,0
-546,589,0,0,0,0,0,0,0,0,0,-1,678,435,0,0
-539,589,0,0,0,0,0,0,0,0,0,-1,685,435,0,0
-532,589,0,0,0,0,0,0,0,0,0,-1,692,435,0,0
-525,589,0,0,0,0,0,0,0,0,0,-1,699,435,0,0
-518,589,0,0,0,0,0,0,0,0,0,-1,706,435,0,0
-511,589,0,0,0,0,0,0,0,0,0,-1,713,435,0,0
-504,589,0,0,0,0,0,0,0,0,0,-1,720,435,0,0
-497,589,0,0,0,0,0,0,0,0,0,-1,727,435,0,0
-490,589,0,0,0,0,0,0,0,0,0,-1,734,435,0,0
-483,589,0,0,0,0,0,0,0,0,0,-1,741,435,0,0
-476,589,0,0,0,0,0,0,0,0,0,-1,748,435,0,0
-469,589,0,0,0,0,0,0,0,0,0,-1,755,435,0,0
-462,589,0,0,0,0,0,0,0,0,0,-1,762,435,0,0
-455,589,0,0,0,0,0,0,0,0,0,-1,769,435,0,0
-448,589,0,0,0,0,0,0,0,0,0,-1,776,435,0,0
-441,589,0,0,0,0,0,0,0,0,0,-1,783,435,0,0
-434,589,0,0,0,0,0,0,0,0,0,-1,790,435,0,0
-427,589,0,0,0,0,0,0,0,0,0,-1,797,435,0,0
-420,589,0,0,0,0,0,0,0,0,0,-1,804,435,0,0
-413,589,0,0,0,0,0,0,0,0,0,-1,811,435,0,0
-406,589,0,0,0,0,0,0,0,0,0,-1,818,435,0,0
-399,589,0,0,0,0,0,0,0,0,0,-1,825,435,0,0
-392,589,0,0,0,0,0,0,0,0,0,-1,832,435,0,0
-385,589,0,0,0,0,0,0,0,0,0,-1,839,435,0,0
-378,589,0,0,0,0,0,0,0,0,0,-1,846,435,0,0
-371,589,0,0,0,0,0,0,0,0,0,-1,853,435,0,0
-364,589,0,0,0,0,0,0,0,0,0,-1,860,435,0,0
-357,589,0,0,0,0,0,0,0,0,0,-1,867,435,0,0
-350,589,-0.799927,-20.664,0,0,0,0,0,0,0,-1,874,435,-0.799952,20.664
-343,589,-0.370911,-19.1543,0,0,0,0,0,0,0,-1,881,435,-0.370922,19.1543
-336,589,-0.836914,-18.9103,0,0,0,0,0,0,0,-1,888,435,-0.836925,18.9103
-329,589,2.58252,-16.902,0,0,0,0,0,0,0,-1,895,435,2.58251,16.902
-322,589,1.5899,-21.1559,0,0,0,0,0,0,0,-1,902,435,1.58993,21.156
-315,589,2.42456,-20.3127,0,0,0,0,0,0,0,-1,909,435,2.42453,20.3127
-308,589,2.91052,-21.0734,0,0,0,0,0,0,0,-1,916,435,2.91055,21.0734
-301,589,3.26019,-21.3953,0,0,0,0,0,0,0,-1,923,435,3.26018,21.3953
-294,589,2.86548,-22.3669,0,0,0,0,0,0,0,-1,930,435,2.86548,22.3669
-287,589,3.1615,-23.028,0.0107529,-0.0198605,0.0110376,0.0143174,-0.0234251,0.312373,0.0220011,0.0455049,937,435,3.16152,23.028
-280,589,3.2395,-23.74,0.0106105,-0.0197373,0.0111179,0.0142477,-0.0233745,0.316169,0.0219332,0.0356995,944,435,3.23952,23.74
-273,589,3.18695,-24.2916,0.0100376,-0.0188369,0.01054,0.0134757,-0.0222749,0.315308,0.020848,0.0204749,951,435,3.18696,24.2916
-266,589,3.14648,-24.7612,0.00892386,-0.0170994,0.00986086,0.0122383,-0.0204138,0.324253,0.0190476,0.0178526,958,435,3.14649,24.7612
-259,589,3.10419,-25.2383,0.00790329,-0.014232,0.00916089,0.0112028,-0.0175315,0.345708,0.0167233,0.015287,965,435,3.10417,25.2383
-252,589,3.09192,-25.7704,0.0064802,-0.010989,0.00797414,0.0095727,-0.0140815,0.369959,0.0137392,0.0101318,972,435,3.0919,25.7704
-245,589,3.08911,-26.2364,0.00493994,-0.00757737,0.0061855,0.00748079,-0.0101182,0.38976,0.0101987,0.0105757,979,435,3.08914,26.2364
-238,589,3.07184,-26.6767,0.00364276,-0.0045597,0.00452872,0.00565131,-0.00656825,0.417447,0.00706158,0.014603,986,435,3.07181,26.6767
-231,589,3.03247,-27.1129,0.00260489,-0.00185795,0.0029565,0.00407754,-0.0033306,0.462131,0.00428434,0.0146712,993,435,3.03246,27.1129
-224,589,2.9906,-27.5497,0.00178881,0.000249519,0.00159463,0.00278982,-0.000751485,0.560563,0.00215451,0.0136208,1000,435,2.99062,27.5497
-217,589,2.97632,-27.9673,0.0010548,0.00260059,0.000320312,0.00266433,0.000991059,1.37435,0.00155497,0.0144914,1007,435,2.97634,27.9673
-210,589,2.97272,-28.3766,0.000872225,0.00310064,-0.00066444,0.00328371,0.000689151,-1.30194,0.00199941,0.0149725,1014,435,2.97273,28.3767
-203,589,2.97437,-28.7683,0.00104274,0.00332075,-0.00132601,0.00392979,0.000433708,-1.14024,0.00248792,0.0122496,1021,435,2.97435,28.7683
-196,589,2.94666,-29.1684,0.00163647,0.00188896,-0.000751686,0.00252493,0.0010005,-0.868597,0.00146819,0.0144663,1028,435,2.94671,29.1684
-189,589,2.90808,-29.5988,0.00229077,0.00046937,-0.000317778,0.00234462,0.000415519,-0.167864,0.00144464,0.0177144,1035,435,2.90807,29.5988
-182,589,2.9342,-29.9466,0.00288317,-0.000836576,1.8349e-05,0.00288326,-0.000836666,0.00493271,0.00225345,0.0137166,1042,435,2.93423,29.9466
-175,589,2.96875,-30.3163,0.00334794,-0.00208211,0.000404594,0.00337792,-0.00211209,0.073966,0.00319762,0.016801,1049,435,2.9687,30.3163
-168,589,2.97888,-30.7204,0.00377568,-0.00324216,0.000668895,0.00383887,-0.00330534,0.0941836,0.00412854,0.0135598,1056,435,2.9789,30.7204
-161,589,2.97559,-31.0856,0.00397277,-0.00425539,0.000857698,0.00406123,-0.00434384,0.102767,0.00485358,0.0119165,1063,435,2.97564,31.0856
-154,589,2.96704,-31.4236,0.0039769,-0.00498394,0.000996361,0.00408634,-0.00509339,0.10941,0.00531054,0.011872,1070,435,2.96702,31.4236
-147,589,2.98645,-31.7571,0.00384874,-0.00557207,0.00103138,0.00396033,-0.00568366,0.107778,0.00559752,0.0128392,1077,435,2.98645,31.7571
-140,589,3.01697,-32.0757,0.003551,-0.00605464,0.00101175,0.00365641,-0.00616005,0.103811,0.00572865,0.0146265,1084,435,3.01692,32.0757
-133,589,3.00281,-32.4259,0.00308057,-0.0063621,0.00102857,0.00319131,-0.00647285,0.107252,0.00568581,0.0136216,1091,435,3.00279,32.4259
-126,589,3.03809,-32.7668,0.00262929,-0.00651544,0.00101859,0.00274137,-0.00662752,0.109596,0.00556208,0.0111363,1098,435,3.03812,32.7668
-119,589,3.04663,-33.0725,0.00220081,-0.00652451,0.000979976,0.00230952,-0.00663322,0.11048,0.00536047,0.0176257,1105,435,3.04662,33.0725
-112,589,3.01917,-33.3702,0.00154091,-0.00645754,0.000681803,0.00159861,-0.00651525,0.0844301,0.00496294,0.0185652,1112,435,3.01912,33.3702
-105,589,3.01672,-33.7241,0.000953488,-0.00595397,0.000671474,0.00101816,-0.00601864,0.0960121,0.00439134,0.0234549,1119,435,3.01676,33.7241
-98,589,3.1427,-34.0305,0,0,0,0,0,0,0,-1,1126,435,3.1427,34.0305
-91,589,3.24524,-34.6376,0,0,0,0,0,0,0,-1,1133,435,3.2452,34.6376
-84,589,2.76538,-22.6013,0,0,0,0,0,0,0,-1,1140,435,2.76539,22.6014
-77,589,2.18152,-14.8023,0,0,0,0,0,0,0,-1,1147,435,2.18155,14.8023
-70,589,1.48267,-9.90961,0,0,0,0,0,0,0,-1,1154,435,1.48264,9.9096
-63,589,0.880127,-5.50586,0,0,0,0,0,0,0,-1,1161,435,0.880186,5.50587
-56,589,-2.78052,-7.28082,0,0,0,0,0,0,0,-1,1168,435,-2.78053,7.28082
-49,589,-0.525757,-2.76703,0,0,0,0,0,0,0,-1,1175,435,-0.525771,2.76702
-42,589,-2.7738,-2.87921,0,0,0,0,0,0,0,-1,1182,435,-2.77383,2.87922
-35,589,-2.55225,-3.27551,0,0,0,0,0,0,0,-1,1189,435,-2.55223,3.27552
-28,589,-0.0632324,-3.42938,0,0,0,0,0,0,0,-1,1196,435,-0.063241,3.42938
-21,589,2.66016,-33.937,0,0,0,0,0,0,0,-1,1203,435,2.66012,33.937
-14,589,2.56042,-36.1098,0,0,0,0,0,0,0,-1,1210,435,2.56046,36.1098
-7,589,2.70032,-34.9034,0,0,0,0,0,0,0,-1,1217,435,2.70036,34.9034
0,589,2.60596,-36.934,0,0,0,0,0,0,0,-1,1224,435,2.6059,36.934
7,589,2.85242,-36.5323,0,0,0,0,0,0,0,-1,1231,435,2.85237,36.5323
14,589,3.03479,-36.1596,0,0,0,0,0,0,0,-1,1238,435,3.03483,36.1596
21,589,3.32605,-35.7119,0,0,0,0,0,0,0,-1,1245,435,3.32606,35.7119
28,589,3.32751,-35.3778,0.0212498,0.00428083,0.0211562,0.0355594,-0.0100288,0.594697,0.027662,0.048174,1252,435,3.32747,35.3778
35,589,3.2135,-35.8649,0.0170416,0.00743066,0.0173819,0.03027,-0.00579779,0.650535,0.0223645,0.0476078,1259,435,3.21347,35.8649
42,589,4.36914,-36.9735,0.0123192,0.0113208,0.0126562,0.0244861,-0.000846064,0.765686,0.0166133,0.049921,1266,435,4.36917,36.9735
49,589,4.86377,-37.1942,0.00775578,0.0155955,0.00756094,0.0201923,0.00315899,1.02454,0.0125418,0.0448466,1273,435,4.86383,37.1942
56,589,4.35303,-36.7501,0.00358767,0.019921,0.00194657,0.0201498,0.00335888,1.4538,0.0124654,0.0432856,1280,435,4.35308,36.7501
63,589,3.7854,-36.6812,-0.000612714,0.0240887,-0.00400148,0.0247208,-0.00124476,-1.41414,0.0169107,0.0412683,1287,435,3.78541,36.6812
70,589,3.48474,-36.7596,-0.00456987,0.0273707,-0.0097771,0.0301258,-0.00732502,-1.29612,0.0229191,0.0407853,1294,435,3.48476,36.7595
77,589,3.29224,-36.7775,-0.00845381,0.030618,-0.0152023,0.0358361,-0.0136719,-1.24015,0.0295228,0.0404422,1301,435,3.2922,36.7775
84,589,3.01575,-36.7106,-0.0122466,0.0332866,-0.0195023,0.0404976,-0.0194576,-1.21663,0.0353185,0.0416572,1308,435,3.01577,36.7106
91,589,2.84937,-36.5517,-0.0164357,0.0346943,-0.022849,0.043417,-0.0251583,-1.20612,0.0400571,0.0447567,1315,435,2.84943,36.5517
98,589,2.67212,-36.4067,-0.0141959,0.0352425,-0.0237639,0.0448127,-0.0237661,-1.18795,0.0402107,0.0465982,1322,435,2.67214,36.4067
105,589,2.49976,-36.265,-0.00275581,0.0346348,-0.0245587,0.0468044,-0.0149254,-1.11073,0.0371902,0.0481749,1329,435,2.49973,36.265
112,589,2.3114,-36.7512,0.0045948,0.0340255,-0.0248862,0.0482215,-0.00960121,-1.0524,0.0357801,0.0416063,1336,435,2.31143,36.7512
119,589,2.12109,-36.9648,0,0,0,0,0,0,0,-1,1343,435,2.12109,36.9648
126,589,1.62659,-36.517,0.0283086,0.0300594,-0.0207721,0.0499745,0.0083935,-0.806458,0.0309009,0.0461631,1350,435,1.62658,36.517
133,589,1.02283,-36.1655,0.046666,0.0279851,-0.0177834,0.0574127,0.0172385,-0.543582,0.0340175,0.0467501,1357,435,1.02286,36.1655
140,589,0.270752,-35.7926,0.0683371,0.0248854,-0.0143685,0.0726586,0.0205638,-0.292158,0.0432461,0.0472308,1364,435,0.270761,35.7926
147,589,-0.289673,-35.8461,0.0898875,0.0216724,-0.0111907,0.0916764,0.0198835,-0.158517,0.0556859,0.0467142,1371,435,-0.289705,35.8461
154,589,5.89856,-34.8948,0.108618,0.0184061,-0.00874977,0.109459,0.0175653,-0.0958013,0.0678794,0.0475876,1378,435,5.89857,34.8948
161,589,6.19861,-34.7,0,0,0,0,0,0,0,-1,1385,435,6.19856,34.7
168,589,6.44202,-34.4625,0,0,0,0,0,0,0,-1,1392,435,6.44207,34.4625
175,589,8.66992,-7.65527,0,0,0,0,0,0,0,-1,1399,435,8.66994,7.65528
182,589,3.8136,-2.45389,0,0,0,0,0,0,0,-1,1406,435,3.81363,2.4539
189,589,3.69983,-3.68149,0,0,0,0,0,0,0,-1,1413,435,3.69987,3.68147
196,589,3.31055,-5.31677,0,0,0,0,0,0,0,-1,1420,435,3.31059,5.31678
203,589,2.72559,-8.84338,0,0,0,0,0,0,0,-1,1427,435,2.72558,8.84338
210,589,3.62378,-14.4032,0,0,0,0,0,0,0,-1,1434,435,3.62378,14.4032
217,589,4.65601,-22.3745,0,0,0,0,0,0,0,-1,1441,435,4.65607,22.3745
224,589,6.79028,-33.9412,0,0,0,0,0,0,0,-1,1448,435,6.79028,33.9412
231,589,6.68823,-33.2383,0,0,0,0,0,0,0,-1,1455,435,6.68825,33.2383
238,589,6.72302,-32.9345,0,0,0,0,0,0,0,-1,1462,435,6.72307,32.9345
245,589,6.7771,-32.5796,0,0,0,0,0,0,0,-1,1469,435,6.77713,32.5796
252,589,6.80334,-32.2258,0.00232991,0.00147396,-0.000244078,0.00239462,0.00140926,-0.259152,0.00138974,0.0152385,1476,435,6.8034,32.2258
259,589,6.81824,-31.9348,0.00231967,0.000918759,-0.000227909,0.00235581,0.000882614,-0.157285,0.0013743,0.0097598,1483,435,6.81824,31.9348
266,589,6.82385,-31.5745,0.0023552,0.000519834,-0.000234955,0.0023848,0.000490234,-0.125323,0.00145427,0.00982251,1490,435,6.82386,31.5745
273,589,6.84875,-31.2325,0.00239094,0.000489874,-0.000128982,0.00239965,0.000481162,-0.0674352,0.00146594,0.0116818,1497,435,6.84881,31.2325
280,589,6.86816,-30.857,0.00239781,0.000121203,-7.07601e-05,0.0024,0.000119006,-0.0310415,0.00156185,0.0129182,1504,435,6.86817,30.857
287,589,6.86768,-30.4654,0.0023272,0.000252017,8.0442e-05,0.00233031,0.000248904,0.0386865,0.00147758,0.0118528,1511,435,6.86766,30.4654
294,589,6.85425,-30.0583,0.00218552,0.000414498,0.000338202,0.00224791,0.000352111,0.182416,0.00139612,0.0101852,1518,435,6.85425,30.0583
301,589,6.84705,-29.667,0.00202209,0.000543269,0.000637732,0.00225911,0.000306242,0.35585,0.00141509,0.0101032,1525,435,6.84702,29.667
308,589,6.85352,-29.2556,0.00190191,0.000566761,0.000953743,0.0023985,7.01693e-05,0.480052,0.00157613,0.00982886,1532,435,6.85349,29.2556
315,589,6.85132,-28.836,0.00175011,0.000722566,0.00126345,0.00260025,-0.000127577,0.592288,0.00177755,0.010348,1539,435,6.85127,28.836
322,589,6.85327,-28.4106,0.00153768,0.000919606,0.00159627,0.00285455,-0.000397272,0.689782,0.00204834,0.0113073,1546,435,6.85333,28.4106
329,589,6.83435,-27.993,0.00129845,0.00112935,0.00193837,0.00315412,-0.000726317,0.763602,0.00238205,0.0100824,1553,435,6.8344,27.993
336,589,6.81738,-27.5811,0.00101147,0.00136239,0.00224045,0.00343424,-0.00106038,0.824476,0.00271293,0.00957859,1560,435,6.81739,27.5812
343,589,6.81873,-27.1732,0.000721287,0.00176587,0.00253146,0.00382836,-0.00134121,0.88713,0.00309765,0.0110918,1567,435,6.81868,27.1732
350,589,6.79578,-26.6919,0.000489053,0.00253962,0.00293264,0.00462104,-0.00159236,0.953562,0.00372666,0.0164436,1574,435,6.79583,26.6919
357,589,6.78125,-26.1853,0.000239938,0.00334007,0.00337469,0.00550366,-0.00192365,1.00069,0.00445111,0.0136348,1581,435,6.78126,26.1853
364,589,6.771,-25.7222,-4.60707e-05,0.00417084,0.00373171,0.00634855,-0.00222378,1.04255,0.00513667,0.0112796,1588,435,6.77102,25.7222
371,589,6.73718,-25.257,-0.000297256,0.00526886,0.00406974,0.00741613,-0.00244453,1.0853,0.00592935,0.0112191,1595,435,6.73715,25.257
378,589,6.71521,-24.7632,-0.000765854,0.00685623,0.00469516,0.00909238,-0.00300201,1.12631,0.00727183,0.0121117,1602,435,6.7152,24.7632
385,589,6.69641,-24.2474,-0.00160172,0.00968093,0.00515117,0.0116789,-0.0035997,1.20079,0.00922305,0.0159988,1609,435,6.69637,24.2474
392,589,6.65552,-23.6187,-0.00235657,0.012152,0.00564883,0.014092,-0.00429651,1.23999,0.0111074,0.0207075,1616,435,6.65548,23.6187
399,589,6.66907,-23.0168,-0.00249505,0.0147841,0.00685371,0.0171725,-0.00488343,1.23548,0.0133766,0.0347778,1623,435,6.66905,23.0168
406,589,6.72449,-22.5526,0,0,0,0,0,0,0,-1,1630,435,6.72446,22.5526
413,589,5.61377,-19.0606,0,0,0,0,0,0,0,-1,1637,435,5.61372,19.0606
420,589,2.79724,-5.79956,0,0,0,0,0,0,0,-1,1644,435,2.7973,5.79955
427,589,6.27783,-21.0865,0,0,0,0,0,0,0,-1,1651,435,6.27781,21.0865
434,589,5.69861,-19.5508,0,0,0,0,0,0,0,-1,1658,435,5.69858,19.5508
441,589,6.29358,-18.8969,0,0,0,0,0,0,0,-1,1665,435,6.29358,18.8969
448,589,0.453735,-3.2868,0,0,0,0,0,0,0,-1,1672,435,0.453701,3.28681
455,589,0.664307,-3.46848,0,0,0,0,0,0,0,-1,1679,435,0.66425,3.46846
462,589,3.46716,-4.41891,0,0,0,0,0,0,0,-1,1686,435,3.4672,4.41891
469,589,0.0238037,-3.81497,0,0,0,0,0,0,0,-1,1693,435,0.0237965,3.81498
476,589,0,0,0,0,0,0,0,0,0,-1,1700,435,0,0
483,589,0,0,0,0,0,0,0,0,0,-1,1707,435,0,0
490,589,0,0,0,0,0,0,0,0,0,-1,1714,435,0,0
497,589,0,0,0,0,0,0,0,0,0,-1,1721,435,0,0
504,589,0,0,0,0,0,0,0,0,0,-1,1728,435,0,0
511,589,0,0,0,0,0,0,0,0,0,-1,1735,435,0,0
518,589,0,0,0,0,0,0,0,0,0,-1,1742,435,0,0
525,589,0,0,0,0,0,0,0,0,0,-1,1749,435,0,0
532,589,0,0,0,0,0,0,0,0,0,-1,1756,435,0,0
539,589,0,0,0,0,0,0,0,0,0,-1,1763,435,0,0
546,589,0,0,0,0,0,0,0,0,0,-1,1770,435,0,0
553,589,0,0,0,0,0,0,0,0,0,-1,1777,435,0,0
560,589,0,0,0,0,0,0,0,0,0,-1,1784,435,0,0
567,589,0,0,0,0,0,0,0,0,0,-1,1791,435,0,0
574,589,0,0,0,0,0,0,0,0,0,-1,1798,435,0,0
581,589,0,0,0,0,0,0,0,0,0,-1,1805,435,0,0
588,589,0,0,0,0,0,0,0,0,0,-1,1812,435,0,0
595,589,0,0,0,0,0,0,0,0,0,-1,1819,435,0,0
602,589,0,0,0,0,0,0,0,0,0,-1,1826,435,0,0
609,589,0,0,0,0,0,0,0,0,0,-1,1833,435,0,0
616,589,0,0,0,0,0,0,0,0,0,-1,1840,435,0,0
623,589,0,0,0,0,0,0,0,0,0,-1,1847,435,0,0
630,589,0,0,0,0,0,0,0,0,0,-1,1854,435,0,0
637,589,0,0,0,0,0,0,0,0,0,-1,1861,435,0,0
644,589,0,0,0,0,0,0,0,0,0,-1,1868,435,0,0
651,589,0,0,0,0,0,0,0,0,0,-1,1875,435,0,0
658,589,0,0,0,0,0,0,0,0,0,-1,1882,435,0,0
665,589,0,0,0,0,0,0,0,0,0,-1,1889,435,0,0
672,589,0,0,0,0,0,0,0,0,0,-1,1896,435,0,0
679,589,0,0,0,0,0,0,0,0,0,-1,1903,435,0,0
686,589,0,0,0,0,0,0,0,0,0,-1,1910,435,0,0
693,589,0,0,0,0,0,0,0,0,0,-1,1917,435,0,0
700,589,0,0,0,0,0,0,0,0,0,-1,1924,435,0,0
707,589,0,0,0,0,0,0,0,0,0,-1,1931,435,0,0
714,589,0,0,0,0,0,0,0,0,0,-1,1938,435,0,0
721,589,0,0,0,0,0,0,0,0,0,-1,1945,435,0,0
728,589,0,0,0,0,0,0,0,0,0,-1,1952,435,0,0
735,589,0,0,0,0,0,0,0,0,0,-1,1959,435,0,0
742,589,0,0,0,0,0,0,0,0,0,-1,1966,435,0,0
749,589,0,0,0,0,0,0,0,0,0,-1,1973,435,0,0
756,589,0,0,0,0,0,0,0,0,0,-1,1980,435,0,0
763,589,0,0,0,0,0,0,0,0,0,-1,1987,435,0,0
770,589,0,0,0,0,0,0,0,0,0,-1,1994,435,0,0
777,589,0,0,0,0,0,0,0,0,0,-1,2001,435,0,0
784,589,0,0,0,0,0,0,0,0,0,-1,2008,435,0,0
791,589,0,0,0,0,0,0,0,0,0,-1,2015,435,0,0
798,589,0,0,0,0,0,0,0,0,0,-1,2022,435,0,0
805,589,0,0,0,0,0,0,0,0,0,-1,2029,435,0,0
812,589,0,0,0,0,0,0,0,0,0,-1,2036,435,0,0
-700,582,0,0,0,0,0,0,0,0,0,-1,524,442,0,0
-693,582,0,0,0,0,0,0,0,0,0,-1,531,442,0,0
-686,582,0,0,0,0,0,0,0,0,0,-1,538,442,0,0
-679,582,0,0,0,0,0,0,0,0,0,-1,545,442,0,0
-672,582,0,0,0,0,0,0,0,0,0,-1,552,442,0,0
-665,582,0,0,0,0,0,0,0,0,0,-1,559,442,0,0
-658,582,0,0,0,0,0,0,0,0,0,-1,566,442,0,0
-651,582,0,0,0,0,0,0,0,0,0,-1,573,442,0,0
-644,582,0,0,0,0,0,0,0,0,0,-1,580,442,0,0
-637,582,0,0,0,0,0,0,0,0,0,-1,587,442,0,0
-630,582,0,0,0,0,0,0,0,0,0,-1,594,442,0,0
-623,582,0,0,0,0,0,0,0,0,0,-1,601,442,0,0
-616,582,0,0,0,0,0,0,0,0,0,-1,608,442,0,0
-609,582,0,0,0,0,0,0,0,0,0,-1,615,442,0,0
-602,582,0,0,0,0,0,0,0,0,0,-1,622,442,0,0
-595,582,0,0,0,0,0,0,0,0,0,-1,629,442,0,0
-588,582,0,0,0,0,0,0,0,0,0,-1,636,442,0,0
-581,582,0,0,0,0,0,0,0,0,0,-1,643,442,0,0
-574,582,0,0,0,0,0,0,0,0,0,-1,650,442,0,0
-567,582,0,0,0,0,0,0,0,0,0,-1,657,442,0,0
-560,582,0,0,0,0,0,0,0,0,0,-1,664,442,0,0
-553,582,0,0,0,0,0,0,0,0,0,-1,671,442,0,0
-546,582,0,0,0,0,0,0,0,0,0,-1,678,442,0,0
-539,582,0,0,0,0,0,0,0,0,0,-1,685,442,0,0
-532,582,0,0,0,0,0,0,0,0,0,-1,692,442,0,0
-525,582,0,0,0,0,0,0,0,0,0,-1,699,442,0,0
-518,582,0,0,0,0,0,0,0,0,0,-1,706,442,0,0
-511,582,0,0,0,0,0,0,0,0,0,-1,713,442,0,0
-504,582,0,0,0,0,0,0,0,0,0,-1,720,442,0,0
-497,582,0,0,0,0,0,0,0,0,0,-1,727,442,0,0
-490,582,0,0,0,0,0,0,0,0,0,-1,734,442,0,0
-483,582,0,0,0,0,0,0,0,0,0,-1,741,442,0,0
-476,582,0,0,0,0,0,0,0,0,0,-1,748,442,0,0
-469,582,0,0,0,0,0,0,0,0,0,-1,755,442,0,0
-462,582,0,0,0,0,0,0,0,0,0,-1,762,442,0,0
-455,582,0,0,0,0,0,0,0,0,0,-1,769,442,0,0
-448,582,0,0,0,0,0,0,0,0,0,-1,776,442,0,0
-441,582,0,0,0,0,0,0,0,0,0,-1,783,442,0,0
-434,582,0,0,0,0,0,0,0,0,0,-1,790,442,0,0
-427,582,0,0,0,0,0,0,0,0,0,-1,797,442,0,0
-420,582,0,0,0,0,0,0,0,0,0,-1,804,442,0,0
-413,582,0,0,0,0,0,0,0,0,0,-1,811,442,0,0
-406,582,0,0,0,0,0,0,0,0,0,-1,818,442,0,0
-399,582,0,0,0,0,0,0,0,0,0,-1,825,442,0,0
-392,582,0,0,0,0,0,0,0,0,0,-1,832,442,0,0
-385,582,0,0,0,0,0,0,0,0,0,-1,839,442,0,0
-378,582,0,0,0,0,0,0,0,0,0,-1,846,442,0,0
-371,582,0,0,0,0,0,0,0,0,0,-1,853,442,0,0
-364,582,0,0,0,0,0,0,0,0,0,-1,860,442,0,0
-357,582,-1.4903,-21.5295,0,0,0,0,0,0,0,-1,867,442,-1.49031,21.5295
-350,582,-0.880859,-19.7966,0,0,0,0,0,0,0,-1,874,442,-0.880885,19.7966
-343,582,-0.208557,-18.0078,0,0,0,0,0,0,0,-1,881,442,-0.208576,18.0078
-336,582,-0.167114,-18.7637,0,0,0,0,0,0,0,-1,888,442,-0.167108,18.7637
-329,582,2.34509,-19.5596,0,0,0,0,0,0,0,-1,895,442,2.34508,19.5596
-322,582,1.7998,-20.2629,0,0,0,0,0,0,0,-1,902,442,1.79982,20.2629
-315,582,2.81793,-21.1357,0,0,0,0,0,0,0,-1,909,442,2.81791,21.1357
-308,582,2.59369,-21.6972,0,0,0,0,0,0,0,-1,916,442,2.59366,21.6972
-301,582,2.33594,-22.0012,0,0,0,0,0,0,0,-1,923,442,2.33594,22.0012
-294,582,2.44763,-22.5252,0.00523905,-0.00740254,0.00407162,0.00643693,-0.00860042,0.28613,0.00871172,0.0414088,930,442,2.44763,22.5252
-287,582,2.65509,-23.0567,0.00593911,-0.00928504,0.0047294,0.00728867,-0.0106346,0.277968,0.0104079,0.0375496,937,442,2.6551,23.0567
-280,582,2.7876,-23.7237,0.0061432,-0.0099079,0.00507482,0.00761308,-0.0113778,0.281927,0.011036,0.0187417,944,442,2.78763,23.7237
-273,582,2.76746,-24.2747,0.00600393,-0.00992898,0.00486004,0.00736938,-0.0112944,0.273893,0.0108547,0.0110016,951,442,2.76743,24.2747
-266,582,2.73035,-24.7911,0.00543291,-0.00942516,0.00468923,0.00678906,-0.0107813,0.281524,0.0102312,0.0104762,958,442,2.73035,24.7912
-259,582,2.6991,-25.2915,0.00498913,-0.0079147,0.00461124,0.00646758,-0.00939315,0.310265,0.00920898,0.00820733,965,442,2.69912,25.2915
-252,582,2.67578,-25.7716,0.00414255,-0.00610737,0.00419245,0.00563891,-0.00760373,0.342824,0.00767364,0.00767887,972,442,2.67576,25.7716
-245,582,2.67365,-26.2072,0.00318652,-0.00423866,0.0032652,0.0044181,-0.00547024,0.360685,0.0057198,0.0117773,979,442,2.67365,26.2073
-238,582,2.64349,-26.6203,0.00245902,-0.00275057,0.00244596,0.00342742,-0.00371896,0.37698,0.00412711,0.0164122,986,442,2.64346,26.6203
-231,582,2.61902,-27.0521,0.00191283,-0.00145047,0.00164503,0.00258364,-0.00212128,0.387194,0.00272076,0.0132661,993,442,2.61904,27.0521
-224,582,2.60779,-27.5052,0.00155626,-0.000577572,0.00100072,0.00195213,-0.000973447,0.376698,0.0017203,0.0108932,1000,442,2.60781,27.5052
-217,582,2.56537,-27.9513,0.00146964,0.00035504,0.000552666,0.00169721,0.000127469,0.390611,0.00109147,0.0128357,1007,442,2.56538,27.9513
-210,582,2.55811,-28.3517,0.00186259,-8.23581e-05,0.000250081,0.00189423,-0.000113999,0.125853,0.00130248,0.0135027,1014,442,2.55811,28.3517
-203,582,2.57568,-28.7633,0.00243065,-0.000674419,0.000168596,0.00243977,-0.000683547,0.0540852,0.00189589,0.0110759,1021,442,2.57569,28.7633
-196,582,2.57788,-29.1863,0.00325417,-0.00207047,0.00075321,0.00335867,-0.00217497,0.137855,0.00321912,0.0157402,1028,442,2.57792,29.1863
-189,582,2.53088,-29.5905,0.00415272,-0.00348838,0.00119653,0.00433571,-0.00367136,0.151753,0.00462818,0.0223028,1035,442,2.53093,29.5905
-182,582,2.55298,-29.9836,0.00488931,-0.00466485,0.00145344,0.00510552,-0.00488106,0.147677,0.00576624,0.0174947,1042,442,2.55296,29.9836
-175,582,2.57153,-30.3332,0.00543399,-0.00571801,0.00174334,0.00570017,-0.00598419,0.151511,0.00674663,0.0144681,1049,442,2.57152,30.3332
-168,582,2.57825,-30.7032,0.00595164,-0.0067439,0.00190816,0.00623223,-0.00702449,0.146005,0.00765833,0.0113734,1056,442,2.57825,30.7032
-161,582,2.59338,-31.0541,0.00612638,-0.00759793,0.00197941,0.00640616,-0.00787771,0.140415,0.00826137,0.0121711,1063,442,2.59341,31.0541
-154,582,2.60034,-31.4096,0.00602205,-0.00815724,0.00199009,0.00629607,-0.00843126,0.136831,0.00853257,0.0122584,1070,442,2.60038,31.4096
-147,582,2.61914,-31.756,0.0057382,-0.00854407,0.00183437,0.00597004,-0.00877591,0.125719,0.00856479,0.0128293,1077,442,2.61914,31.756
-140,582,2.62366,-32.0738,0.00512792,-0.00883376,0.00162306,0.00531412,-0.00901996,0.114221,0.00836747,0.0137164,1084,442,2.62365,32.0738
-133,582,2.66089,-32.3972,0.00424254,-0.00892103,0.00148791,0.00440863,-0.00908711,0.111164,0.0079463,0.0156324,1091,442,2.66086,32.3972
-126,582,2.68225,-32.6748,0.00337942,-0.00887075,0.00135321,0.00352712,-0.00901846,0.108718,0.0074709,0.0150296,1098,442,2.68229,32.6748
-119,582,2.66003,-32.8499,0.00247827,-0.00867595,0.00118982,0.00260377,-0.00880146,0.105095,0.00690128,0.0203441,1105,442,2.66004,32.85
-112,582,2.59631,-33.2006,0.00113318,-0.00834405,0.000642649,0.00117656,-0.00838743,0.0673986,0.00602224,0.0297181,1112,442,2.59626,33.2006
-105,582,2.53674,-33.578,0,0,0,0,0,0,0,-1,1119,442,2.53678,33.578
-98,582,2.61938,-32.8673,0,0,0,0,0,0,0,-1,1126,442,2.61944,32.8673
-91,582,2.16492,-24.1119,0,0,0,0,0,0,0,-1,1133,442,2.16496,24.1119
-84,582,2.10278,-16.7533,0,0,0,0,0,0,0,-1,1140,442,2.10279,16.7533
-77,582,2.30212,-11.4907,0,0,0,0,0,0,0,-1,1147,442,2.30207,11.4907
-70,582,1.49255,-6.36548,0,0,0,0,0,0,0,-1,1154,442,1.49251,6.36549
-63,582,-4.62915,-4.0347,0,0,0,0,0,0,0,-1,1161,442,-4.6292,4.03471
-56,582,-5.81714,-5.24149,0,0,0,0,0,0,0,-1,1168,442,-5.81718,5.24149
-49,582,-3.88672,-10.1064,0,0,0,0,0,0,0,-1,1175,442,-3.88678,10.1064
-42,582,-0.948975,1.13968,0,0,0,0,0,0,0,-1,1182,442,-0.949003,-1.13969
-35,582,-2.58435,-3.86911,0,0,0,0,0,0,0,-1,1189,442,-2.58437,3.86912
-28,582,-0.825317,-3.45941,0,0,0,0,0,0,0,-1,1196,442,-0.825377,3.45942
-21,582,1.91919,-33.6808,0,0,0,0,0,0,0,-1,1203,442,1.91918,33.6808
-14,582,2.02148,-33.8306,0,0,0,0,0,0,0,-1,1210,442,2.02144,33.8306
-7,582,2.14368,-33.9694,0,0,0,0,0,0,0,-1,1217,442,2.1437,33.9694
0,582,6.36243,-41.4839,0,0,0,0,0,0,0,-1,1224,442,6.36242,41.4839
7,582,2.27637,-36.5004,0,0,0,0,0,0,0,-1,1231,442,2.27637,36.5004
14,582,2.43494,-36.0165,0,0,0,0,0,0,0,-1,1238,442,2.43488,36.0165
21,582,4.86865,-42.3064,0,0,0,0,0,0,0,-1,1245,442,4.86862,42.3064
28,582,2.77222,-34.8579,0,0,0,0,0,0,0,-1,1252,442,2.77222,34.8579
35,582,4.22778,-35.2838,0,0,0,0,0,0,0,-1,1259,442,4.22781,35.2838
42,582,4.34485,-36.8036,0.018133,0.0180476,0.0155234,0.0336138,0.00256694,0.784023,0.0216044,0.0489276,1266,442,4.34487,36.8036
49,582,4.78943,-37.3145,0.0129193,0.0228827,0.00869686,0.0279236,0.00787843,1.04549,0.016624,0.0435663,1273,442,4.78942,37.3145
56,582,4.04492,-36.859,0.00816283,0.0276753,0.0013396,0.0277668,0.00807129,1.50257,0.0164928,0.0454683,1280,442,4.0449,36.8591
63,582,3.53333,-36.8861,0.00332703,0.0322914,-0.00621561,0.0335689,0.00204953,-1.36809,0.0217283,0.0432983,1287,442,3.53328,36.8861
70,582,3.33728,-36.981,-0.00142425,0.0357497,-0.013552,0.0401656,-0.00584013,-1.2558,0.028921,0.0424432,1294,442,3.33724,36.981
77,582,3.3717,-36.8817,-0.00618881,0.0391619,-0.020319,0.0469338,-0.0139607,-1.20547,0.0368354,0.0421581,1301,442,3.37166,36.8817
84,582,3.7074,-36.9951,0,0,0,0,0,0,0,-1,1308,442,3.70734,36.9951
91,582,3.43567,-36.583,-0.0163441,0.0432992,-0.0296419,0.0555248,-0.0285697,-1.17961,0.0493764,0.0469662,1315,442,3.43567,36.583
98,582,3.13428,-36.5344,-0.0145729,0.0439442,-0.0306952,0.0570916,-0.0277203,-1.16612,0.0499353,0.044696,1322,442,3.1343,36.5344
105,582,3.24646,-36.5305,-0.00208777,0.0433747,-0.0315039,0.059492,-0.0182051,-1.09792,0.0469221,0.0424722,1329,442,3.2465,36.5304
112,582,3.01648,-37.107,0.00571487,0.0428467,-0.0316738,0.0609949,-0.0124333,-1.05049,0.045379,0.0416535,1336,442,3.01647,37.107
119,582,2.45447,-37.2,0.0168894,0.0413131,-0.0302699,0.0617416,-0.00353914,-0.977129,0.0423901,0.0436882,1343,442,2.45442,37.2
126,582,1.81018,-37.0039,0.0332615,0.0385439,-0.0261449,0.0621807,0.00962469,-0.835738,0.0386471,0.044523,1350,442,1.81013,37.0039
133,582,1.16809,-36.7112,0.0566351,0.0363348,-0.0223091,0.0709945,0.0219754,-0.571905,0.0419683,0.0479175,1357,442,1.16804,36.7112
140,582,0.369873,-36.3085,0.0850725,0.0329616,-0.018094,0.0907389,0.0272952,-0.303493,0.053756,0.0460229,1364,442,0.369928,36.3085
147,582,-0.545166,-35.8076,0.113957,0.0293788,-0.0142602,0.116297,0.0270391,-0.162617,0.0702741,0.048154,1371,442,-0.545213,35.8076
154,582,6.22632,-34.6269,0.139387,0.0255613,-0.0114047,0.140518,0.0244299,-0.0988849,0.0866906,0.0498051,1378,442,6.22637,34.6269
161,582,6.5332,-34.3286,0,0,0,0,0,0,0,-1,1385,442,6.53319,34.3286
168,582,7.16553,-31.7727,0,0,0,0,0,0,0,-1,1392,442,7.1655,31.7727
175,582,6.50549,-2.00424,0,0,0,0,0,0,0,-1,1399,442,6.50546,2.00425
182,582,5.18958,-2.18652,0,0,0,0,0,0,0,-1,1406,442,5.1896,2.18652
189,582,6.19751,-0.880951,0,0,0,0,0,0,0,-1,1413,442,6.19754,0.88096
196,582,4.87354,-2.22327,0,0,0,0,0,0,0,-1,1420,442,4.87348,2.22325
203,582,3.11401,-4.48257,0,0,0,0,0,0,0,-1,1427,442,3.11404,4.48259
210,582,2.93115,-11.0731,0,0,0,0,0,0,0,-1,1434,442,2.93113,11.0731
217,582,4.94092,-16.5476,0,0,0,0,0,0,0,-1,1441,442,4.94087,16.5476
224,582,5.21008,-20.9908,0,0,0,0,0,0,0,-1,1448,442,5.21006,20.9908
231,582,5.70032,-25.622,0,0,0,0,0,0,0,-1,1455,442,5.70026,25.6221
238,582,6.44189,-30.7028,0,0,0,0,0,0,0,-1,1462,442,6.44195,30.7028
245,582,7.33374,-32.7549,0,0,0,0,0,0,0,-1,1469,442,7.33377,32.7549
252,582,7.224,-32.3415,0.00316073,0.00217193,-0.00030209,0.00324571,0.00208694,-0.274244,0.00189928,0.0352514,1476,442,7.22399,32.3415
259,582,7.14807,-31.9814,0.00328909,0.000841859,-0.000417516,0.00335837,0.000772589,-0.164413,0.00203097,0.0244283,1483,442,7.14813,31.9814
266,582,7.16614,-31.6223,0.00340219,-0.000132864,-0.000578992,0.00349461,-0.000225279,-0.158278,0.00240835,0.0178194,1490,442,7.16617,31.6223
273,582,7.2157,-31.2414,0.00345809,-0.000496998,-0.000578137,0.00354087,-0.000579775,-0.142212,0.00257568,0.0149866,1497,442,7.21575,31.2414
280,582,7.23511,-30.8701,0.00339009,-0.00125837,-0.000691784,0.00349086,-0.00135914,-0.144645,0.0028889,0.0128693,1504,442,7.23506,30.8701
287,582,7.26917,-30.4552,0.00318018,-0.00129467,-0.000708651,0.00328972,-0.00140421,-0.153365,0.00278197,0.0113383,1511,442,7.26919,30.4552
294,582,7.26807,-30.0443,0.00290889,-0.00118185,-0.000570223,0.00298689,-0.00125985,-0.135942,0.00251853,0.00923815,1518,442,7.26805,30.0442
301,582,7.26099,-29.6446,0.00262446,-0.00102582,-0.000354669,0.0026586,-0.00105996,-0.0959662,0.00221206,0.00979118,1525,442,7.26097,29.6445
308,582,7.26868,-29.2452,0.00236556,-0.000993271,-0.000139252,0.00237133,-0.000999034,-0.0413638,0.00199892,0.012104,1532,442,7.26868,29.2452
315,582,7.27026,-28.8351,0.00202623,-0.000767353,4.36459e-05,0.00202691,-0.000768035,0.0156185,0.00166733,0.0133908,1539,442,7.27025,28.8352
322,582,7.28052,-28.406,0.00166737,-0.000450266,0.00030522,0.00171048,-0.000493381,0.140328,0.00133551,0.0107582,1546,442,7.2805,28.406
329,582,7.26807,-27.9859,0.00132969,-8.08522e-05,0.000619541,0.00156316,-0.000314324,0.360389,0.00116115,0.0102061,1553,442,7.26809,27.9859
336,582,7.25269,-27.5638,0.000993116,0.000300962,0.000932273,0.00164147,-0.000347397,0.607672,0.00122662,0.010195,1560,442,7.25269,27.5638
343,582,7.25269,-27.1294,0.000677395,0.000808736,0.00124418,0.00198898,-0.000502849,0.811765,0.00152156,0.0131061,1567,442,7.2527,27.1294
350,582,7.23206,-26.6857,0.000438804,0.00158607,0.00165323,0.00276235,-0.000737483,0.952388,0.00213038,0.0168684,1574,442,7.23212,26.6857
357,582,7.23083,-26.1818,0.000208064,0.00241883,0.00211592,0.0037007,-0.00107381,1.02611,0.00289229,0.0139298,1581,442,7.23082,26.1818
364,582,7.21655,-25.7182,6.90757e-07,0.00323439,0.00254509,0.00463278,-0.0013977,1.06838,0.00364488,0.0107325,1588,442,7.2165,25.7182
371,582,7.18872,-25.263,-0.000162379,0.00421152,0.00296534,0.00570913,-0.00165999,1.10313,0.00446353,0.0146305,1595,442,7.18876,25.263
378,582,7.16125,-24.7805,-0.000499956,0.00548022,0.003574,0.00714997,-0.00216971,1.13374,0.00563099,0.0155717,1602,442,7.1612,24.7805
385,582,7.14392,-24.2881,-0.00107167,0.00771321,0.00405825,0.00930098,-0.00265944,1.19786,0.00725155,0.011124,1609,442,7.14388,24.288
392,582,7.10095,-23.7916,-0.00152284,0.00951345,0.00457638,0.0111642,-0.0031736,1.22461,0.0086959,0.00973819,1616,442,7.10101,23.7916
399,582,7.06433,-23.326,-0.00156951,0.0114941,0.0055727,0.0135483,-0.00362371,1.21763,0.0104517,0.0186138,1623,442,7.06435,23.3261
406,582,7.07666,-22.6913,-0.00183462,0.013804,0.00662548,0.0162335,-0.00426416,1.21933,0.0124888,0.0341005,1630,442,7.07663,22.6912
413,582,7.09497,-22.0237,0,0,0,0,0,0,0,-1,1637,442,7.09492,22.0237
420,582,6.90625,-21.7137,0,0,0,0,0,0,0,-1,1644,442,6.90629,21.7137
427,582,6.83765,-21.1313,-0.00338038,0.0200255,0.00971351,0.0235314,-0.00688636,1.22441,0.0184173,0.0461844,1651,442,6.83761,21.1313
434,582,6.63281,-20.1556,-0.00355468,0.0224152,0.0111404,0.0265392,-0.0076787,1.21625,0.0207319,0.0477688,1658,442,6.63284,20.1556
441,582,6.5614,-19.617,0,0,0,0,0,0,0,-1,1665,442,6.56138,19.617
448,582,7.57971,-18.6486,0,0,0,0,0,0,0,-1,1672,442,7.57966,18.6486
455,582,5.93567,-16.3171,0,0,0,0,0,0,0,-1,1679,442,5.93569,16.3171
462,582,6.7699,-17.5673,0,0,0,0,0,0,0,-1,1686,442,6.76989,17.5673
469,582,5.90674,-15.9182,0,0,0,0,0,0,0,-1,1693,442,5.90676,15.9182
476,582,1.93579,-8.53891,0,0,0,0,0,0,0,-1,1700,442,1.93579,8.53892
483,582,0,0,0,0,0,0,0,0,0,-1,1707,442,0,0
490,582,0,0,0,0,0,0,0,0,0,-1,1714,442,0,0
497,582,0,0,0,0,0,0,0,0,0,-1,1721,442,0,0
504,582,0,0,0,0,0,0,0,0,0,-1,1728,442,0,0
511,582,0,0,0,0,0,0,0,0,0,-1,1735,442,0,0
518,582,0,0,0,0,0,0,0,0,0,-1,1742,442,0,0
525,582,0,0,0,0,0,0,0,0,0,-1,1749,442,0,0
532,582,0,0,0,0,0,0,0,0,0,-1,1756,442,0,0
539,582,0,0,0,0,0,0,0,0,0,-1,1763,442,0,0
546,582,0,0,0,0,0,0,0,0,0,-1,1770,442,0,0
553,582,0,0,0,0,0,0,0,0,0,-1,1777,442,0,0
560,582,0,0,0,0,0,0,0,0,0,-1,1784,442,0,0
567,582,0,0,0,0,0,0,0,0,0,-1,1791,442,0,0
574,582,0,0,0,0,0,0,0,0,0,-1,1798,442,0,0
581,582,0,0,0,0,0,0,0,0,0,-1,1805,442,0,0
588,582,0,0,0,0,0,0,0,0,0,-1,1812,442,0,0
595,582,0,0,0,0,0,0,0,0,0,-1,1819,442,0,0
602,582,0,0,0,0,0,0,0,0,0,-1,1826,442,0,0
609,582,0,0,0,0,0,0,0,0,0,-1,1833,442,0,0
616,582,0,0,0,0,0,0,0,0,0,-1,1840,442,0,0
623,582,0,0,0,0,0,0,0,0,0,-1,1847,442,0,0
630,582,0,0,0,0,0,0,0,0,0,-1,1854,442,0,0
637,582,0,0,0,0,0,0,0,0,0,-1,1861,442,0,0
644,582,0,0,0,0,0,0,0,0,0,-1,1868,442,0,0
651,582,0,0,0,0,0,0,0,0,0,-1,1875,442,0,0
658,582,0,0,0,0,0,0,0,0,0,-1,1882,442,0,0
665,582,0,0,0,0,0,0,0,0,0,-1,1889,442,0,0
672,582,0,0,0,0,0,0,0,0,0,-1,1896,442,0,0
679,582,0,0,0,0,0,0,0,0,0,-1,1903,442,0,0
686,582,0,0,0,0,0,0,0,0,0,-1,1910,442,0,0
693,582,0,0,0,0,0,0,0,0,0,-1,1917,442,0,0
700,582,0,0,0,0,0,0,0,0,0,-1,1924,442,0,0
707,582,0,0,0,0,0,0,0,0,0,-1,1931,442,0,0
714,582,0,0,0,0,0,0,0,0,0,-1,1938,442,0,0
721,582,0,0,0,0,0,0,0,0,0,-1,1945,442,0,0
728,582,0,0,0,0,0,0,0,0,0,-1,1952,442,0,0
735,582,0,0,0,0,0,0,0,0,0,-1,1959,442,0,0
742,582,0,0,0,0,0,0,0,0,0,-1,1966,442,0,0
749,582,0,0,0,0,0,0,0,0,0,-1,1973,442,0,0
756,582,0,0,0,0,0,0,0,0,0,-1,1980,442,0,0
763,582,0,0,0,0,0,0,0,0,0,-1,1987,442,0,0
770,582,0,0,0,0,0,0,0,0,0,-1,1994,442,0,0
777,582,0,0,0,0,0,0,0,0,0,-1,2001,442,0,0
784,582,0,0,0,0,0,0,0,0,0,-1,2008,442,0,0
791,582,0,0,0,0,0,0,0,0,0,-1,2015,442,0,0
798,582,0,0,0,0,0,0,0,0,0,-1,2022,442,0,0
805,582,0,0,0,0,0,0,0,0,0,-1,2029,442,0,0
812,582,0,0,0,0,0,0,0,0,0,-1,2036,442,0,0
-700,575,0,0,0,0,0,0,0,0,0,-1,524,449,0,0
-693,575,0,0,0,0,0,0,0,0,0,-1,531,449,0,0
-686,575,0,0,0,0,0,0,0,0,0,-1,538,449,0,0
-679,575,0,0,0,0,0,0,0,0,0,-1,545,449,0,0
-672,575,0,0,0,0,0,0,0,0,0,-1,552,449,0,0
-665,575,0,0,0,0,0,0,0,0,0,-1,559,449,0,0
-658,575,0,0,0,0,0,0,0,0,0,-1,566,449,0,0
-651,575,0,0,0,0,0,0,0,0,0,-1,573,449,0,0
-644,575,0,0,0,0,0,0,0,0,0,-1,580,449,0,0
-637,575,0,0,0,0,0,0,0,0,0,-1,587,449,0,0
-630,575,0,0,0,0,0,0,0,0,0,-1,594,449,0,0
-623,575,0,0,0,0,0,0,0,0,0,-1,601,449,0,0
-616,575,0,0,0,0,0,0,0,0,0,-1,608,449,0,0
-609,575,0,0,0,0,0,0,0,0,0,-1,615,449,0,0
-602,575,0,0,0,0,0,0,0,0,0,-1,622,449,0,0
-595,575,0,0,0,0,0,0,0,0,0,-1,629,449,0,0
-588,575,0,0,0,0,0,0,0,0,0,-1,636,449,0,0
-581,575,0,0,0,0,0,0,0,0,0,-1,643,449,0,0
-574,575,0,0,0,0,0,0,0,0,0,-1,650,449,0,0
-567,575,0,0,0,0,0,0,0,0,0,-1,657,449,0,0
-560,575,0,0,0,0,0,0,0,0,0,-1,664,449,0,0
-553,575,0,0,0,0,0,0,0,0,0,-1,671,449,0,0
-546,575,0,0,0,0,0,0,0,0,0,-1,678,449,0,0
-539,575,0,0,0,0,0,0,0,0,0,-1,685,449,0,0
-532,575,0,0,0,0,0,0,0,0,0,-1,692,449,0,0
-525,575,0,0,0,0,0,0,0,0,0,-1,699,449,0,0
-518,575,0,0,0,0,0,0,0,0,0,-1,706,449,0,0
-511,575,0,0,0,0,0,0,0,0,0,-1,713,449,0,0
-504,575,0,0,0,0,0,0,0,0,0,-1,720,449,0,0
-497,575,0,0,0,0,0,0,0,0,0,-1,727,449,0,0
-490,575,0,0,0,0,0,0,0,0,0,-1,734,449,0,0
-483,575,0,0,0,0,0,0,0,0,0,-1,741,449,0,0
-476,575,0,0,0,0,0,0,0,0,0,-1,748,449,0,0
-469,575,0,0,0,0,0,0,0,0,0,-1,755,449,0,0
-462,575,0,0,0,0,0,0,0,0,0,-1,762,449,0,0
-455,575,0,0,0,0,0,0,0,0,0,-1,769,449,0,0
-448,575,0,0,0,0,0,0,0,0,0,-1,776,449,0,0
-441,575,0,0,0,0,0,0,0,0,0,-1,783,449,0,0
-434,575,0,0,0,0,0,0,0,0,0,-1,790,449,0,0
-427,575,0,0,0,0,0,0,0,0,0,-1,797,449,0,0
-420,575,0,0,0,0,0,0,0,0,0,-1,804,449,0,0
-413,575,0,0,0,0,0,0,0,0,0,-1,811,449,0,0
-406,575,0,0,0,0,0,0,0,0,0,-1,818,449,0,0
-399,575,0,0,0,0,0,0,0,0,0,-1,825,449,0,0
-392,575,0,0,0,0,0,0,0,0,0,-1,832,449,0,0
-385,575,0,0,0,0,0,0,0,0,0,-1,839,449,0,0
-378,575,0,0,0,0,0,0,0,0,0,-1,846,449,0,0
-371,575,0.56897,-3.52304,0,0,0,0,0,0,0,-1,853,449,0.568955,3.52306
-364,575,1.49805,-4.67191,0,0,0,0,0,0,0,-1,860,449,1.49803,4.6719
-357,575,3.15521,-8.29892,0,0,0,0,0,0,0,-1,867,449,3.15521,8.29891
-350,575,-0.825928,-18.5347,0,0,0,0,0,0,0,-1,874,449,-0.825948,18.5347
-343,575,0.465393,-16.3569,0,0,0,0,0,0,0,-1,881,449,0.465397,16.3569
-336,575,3.1994,-17.5725,0,0,0,0,0,0,0,-1,888,449,3.19941,17.5725
-329,575,3.33386,-20.3293,0,0,0,0,0,0,0,-1,895,449,3.33384,20.3293
-322,575,3.05518,-19.7508,0,0,0,0,0,0,0,-1,902,449,3.05516,19.7508
-315,575,2.73804,-20.9583,-0.00442192,0.0126555,-0.00255451,0.0130294,-0.00479585,-1.42545,0.0106511,0.0459974,909,449,2.73806,20.9583
-308,575,2.13934,-21.8907,-0.00188774,0.00692849,-0.00159408,0.00720786,-0.00216711,-1.3973,0.00566745,0.0441499,916,449,2.13934,21.8907
-301,575,2.44336,-22.3313,-7.86327e-06,0.00342662,-0.00159388,0.00405232,-0.000633562,-1.19672,0.00293561,0.0318068,923,449,2.44338,22.3313
-294,575,2.38562,-22.8047,0.00126786,0.00065009,-0.00100582,0.00201116,-9.32108e-05,-0.636421,0.0013729,0.0222156,930,449,2.38559,22.8047
-287,575,2.35675,-23.3074,0.00203316,-0.00139017,-0.000291168,0.00205775,-0.00141475,-0.0842476,0.00201627,0.0180052,937,449,2.35674,23.3074
-280,575,2.35553,-23.8054,0.00244245,-0.00247559,0.000240452,0.00245418,-0.00248731,0.0487369,0.00285299,0.0145029,944,449,2.35552,23.8054
-273,575,2.35229,-24.3135,0.0026066,-0.00313061,0.000332766,0.00262584,-0.00314984,0.0577432,0.00333916,0.0115201,951,449,2.35231,24.3135
-266,575,2.3468,-24.8051,0.00246909,-0.00354441,0.000601322,0.00252863,-0.00360395,0.0986933,0.00355874,0.012951,958,449,2.34678,24.8051
-259,575,2.28998,-25.2838,0.00249987,-0.00310929,0.00103838,0.00268592,-0.00329535,0.177298,0.00345926,0.0119307,965,449,2.28997,25.2838
-252,575,2.22943,-25.7497,0.0021613,-0.00249754,0.00127172,0.00248583,-0.00282208,0.249859,0.00306657,0.0104839,972,449,2.22941,25.7497
-245,575,2.20526,-26.1809,0.00174805,-0.00191152,0.00108859,0.00204738,-0.00221085,0.268341,0.00245909,0.0142416,979,449,2.20526,26.1809
-238,575,2.19629,-26.5988,0.00155946,-0.00170437,0.000977155,0.00182964,-0.00197455,0.26976,0.00219688,0.0148926,986,449,2.1963,26.5988
-231,575,2.20068,-27.0367,0.00149198,-0.00161093,0.000835445,0.00170262,-0.00182157,0.246982,0.00203508,0.0129487,993,449,2.20071,27.0367
-224,575,2.20319,-27.4822,0.00158177,-0.00183862,0.000807609,0.00176287,-0.00201972,0.220594,0.00218556,0.0127727,1000,449,2.20317,27.4822
-217,575,2.18054,-27.9076,0.00213359,-0.00215998,0.0010915,0.00239514,-0.00242153,0.235185,0.00278092,0.0110591,1007,449,2.18057,27.9076
-210,575,2.17206,-28.3443,0.00312083,-0.00344973,0.00133499,0.00338171,-0.00371061,0.192987,0.00409622,0.00934752,1014,449,2.17204,28.3443
-203,575,2.18372,-28.7649,0.00411423,-0.00475683,0.00171599,0.0044346,-0.00507719,0.18457,0.00549581,0.0120428,1021,449,2.1837,28.7649
-196,575,2.17188,-29.1682,0.00525697,-0.00621488,0.00233768,0.00571504,-0.00667295,0.193499,0.00715933,0.0155238,1028,449,2.17192,29.1682
-189,575,2.16504,-29.5574,0.00647478,-0.00772155,0.00282578,0.00701657,-0.00826334,0.189434,0.00883165,0.0170847,1035,449,2.16503,29.5574
-182,575,2.16272,-29.9493,0.00740971,-0.00884277,0.00302668,0.00795506,-0.00938812,0.17827,0.0100245,0.0160289,1042,449,2.16273,29.9493
-175,575,2.19055,-30.3126,0.00807132,-0.00974679,0.00323764,0.00864138,-0.0103168,0.174285,0.0109598,0.0127199,1049,449,2.19061,30.3126
-168,575,2.18176,-30.6642,0.00872765,-0.0106629,0.00330684,0.00927609,-0.0112113,0.164352,0.011846,0.0108101,1056,449,2.18175,30.6642
-161,575,2.20068,-31.0188,0.0088946,-0.011337,0.00324158,0.00940128,-0.0118437,0.155054,0.0122928,0.0156056,1063,449,2.20069,31.0188
-154,575,2.23022,-31.3592,0.00864441,-0.0116742,0.00309849,0.00910641,-0.0121362,0.148014,0.0123059,0.0196627,1070,449,2.2302,31.3592
-147,575,2.25818,-31.6624,0.00813497,-0.0117426,0.00267428,0.00848848,-0.0120961,0.131425,0.0119452,0.0180155,1077,449,2.25813,31.6624
-140,575,2.2373,-31.9297,0.00704078,-0.0117734,0.00219004,0.00729234,-0.012025,0.114366,0.0112639,0.0230669,1084,449,2.23727,31.9297
-133,575,2.30298,-32.1882,0.00550145,-0.0115535,0.0018258,0.00569472,-0.0117468,0.105462,0.0102699,0.0322645,1091,449,2.30302,32.1882
-126,575,2.28552,-32.1086,0.0039662,-0.0112458,0.00150191,0.00411307,-0.0113927,0.0974782,0.00927528,0.0360965,1098,449,2.28547,32.1087
-119,575,2.16199,-32.4078,0,0,0,0,0,0,0,-1,1105,449,2.16199,32.4078
-112,575,1.96045,-32.8485,0,0,0,0,0,0,0,-1,1112,449,1.96039,32.8485
-105,575,1.75879,-33.2891,0,0,0,0,0,0,0,-1,1119,449,1.75879,33.2891
-98,575,1.521,-25.6961,0,0,0,0,0,0,0,-1,1126,449,1.52105,25.6961
-91,575,1.60803,-16.4247,0,0,0,0,0,0,0,-1,1133,449,1.60802,16.4247
-84,575,1.16553,-11.9056,0,0,0,0,0,0,0,-1,1140,449,1.16558,11.9056
-77,575,0.205078,-11.2584,0,0,0,0,0,0,0,-1,1147,449,0.205117,11.2584
-70,575,-4.2467,-1.78738,0,0,0,0,0,0,0,-1,1154,449,-4.24674,1.78739
-63,575,-4.52209,-3.48798,0,0,0,0,0,0,0,-1,1161,449,-4.5221,3.48796
-56,575,-5.5968,-5.4928,0,0,0,0,0,0,0,-1,1168,449,-5.59683,5.49281
-49,575,-5.96863,-7.17612,0,0,0,0,0,0,0,-1,1175,449,-5.96868,7.1761
-42,575,-0.830322,0.773499,0,0,0,0,0,0,0,-1,1182,449,-0.83038,-0.77351
-35,575,-0.62085,0.205139,0,0,0,0,0,0,0,-1,1189,449,-0.620855,-0.205126
-28,575,0.49292,-3.87988,0,0,0,0,0,0,0,-1,1196,449,0.492941,3.87989
-21,575,1.34216,-33.2103,0,0,0,0,0,0,0,-1,1203,449,1.34215,33.2103
-14,575,1.41846,-33.3388,0,0,0,0,0,0,0,-1,1210,449,1.4184,33.3388
-7,575,7.79236,-42.9088,0,0,0,0,0,0,0,-1,1217,449,7.79237,42.9088
0,575,5.27466,-44.1896,0,0,0,0,0,0,0,-1,1224,449,5.27463,44.1896
7,575,5.28638,-43.4006,0.0473832,0.0076461,0.0438815,0.0756846,-0.0206553,0.572817,0.0585684,0.0466949,1231,449,5.28642,43.4006
14,575,5.34753,-42.5644,0,0,0,0,0,0,0,-1,1238,449,5.34759,42.5644
21,575,5.25281,-41.8855,0.0418589,0.0128846,0.038086,0.06812,-0.0133765,0.603659,0.0504666,0.0437045,1245,449,5.25277,41.8855
28,575,5.14856,-40.997,0.0375074,0.0165589,0.0329959,0.0616516,-0.00758532,0.631708,0.0438488,0.0441714,1252,449,5.14855,40.997
35,575,5.49292,-40.0329,0.0319431,0.0212051,0.0262944,0.053411,-0.000262849,0.684689,0.0356953,0.0433865,1259,449,5.49294,40.0329
42,575,4.29614,-36.5641,0,0,0,0,0,0,0,-1,1266,449,4.29619,36.5641
49,575,4.67639,-37.6926,0.0206059,0.0318207,0.00923634,0.0370185,0.0154081,1.05821,0.0214724,0.0440715,1273,449,4.67639,37.6926
56,575,3.6283,-37.1013,0.0155725,0.0370095,-0.000183364,0.0370111,0.0155709,-1.56224,0.0214577,0.0443828,1280,449,3.62824,37.1012
63,575,3.48059,-37.214,0.0103386,0.0420023,-0.00956764,0.0446687,0.00767217,-1.299,0.0275798,0.043721,1287,449,3.48053,37.214
70,575,3.17236,-37.1194,0.00487594,0.0455047,-0.018669,0.0527803,-0.00239965,-1.19919,0.0360134,0.0445199,1294,449,3.1724,37.1194
77,575,3.00952,-36.8996,-0.000768479,0.0489524,-0.0269327,0.0607446,-0.0125606,-1.1581,0.0452679,0.0454684,1301,449,3.00955,36.8996
84,575,2.90833,-36.9316,0,0,0,0,0,0,0,-1,1308,449,2.90838,36.9316
91,575,3.98425,-36.819,-0.0134074,0.052833,-0.0381421,0.0702278,-0.0308022,-1.14292,0.0597918,0.0466313,1315,449,3.98422,36.819
98,575,3.7345,-36.917,-0.0127448,0.0535546,-0.0393232,0.0718365,-0.0310267,-1.13561,0.0609262,0.0456301,1322,449,3.73447,36.917
105,575,3.66113,-36.9948,-0.00011972,0.0530697,-0.0400431,0.074545,-0.021595,-1.07853,0.0582451,0.0425031,1329,449,3.66111,36.9948
112,575,3.51147,-37.2843,0.00739826,0.0526735,-0.0399044,0.0759142,-0.0158425,-1.04341,0.0566338,0.0450428,1336,449,3.51146,37.2843
119,575,3.14575,-37.5096,0.0189934,0.0512217,-0.0380787,0.0764554,-0.00624037,-0.985562,0.0531726,0.0445469,1343,449,3.14576,37.5096
126,575,2.48145,-37.431,0.0376649,0.0480345,-0.0325054,0.075766,0.00993339,-0.864485,0.0475467,0.0463867,1350,449,2.48149,37.431
133,575,1.77222,-36.9861,0.0666378,0.0457204,-0.0276336,0.0857257,0.0266325,-0.60449,0.0506627,0.0473995,1357,449,1.77227,36.9861
140,575,0.961426,-36.5266,0.103062,0.0420892,-0.0225089,0.110471,0.03468,-0.317993,0.0652362,0.046846,1364,449,0.961469,36.5265
147,575,0.118164,-36.1235,0.141338,0.0379889,-0.0178916,0.144348,0.0349792,-0.166658,0.0869501,0.0489599,1371,449,0.118149,36.1235
154,575,-0.672119,-35.7405,0,0,0,0,0,0,0,-1,1378,449,-0.672075,35.7405
161,575,8.12451,-30.6601,0,0,0,0,0,0,0,-1,1385,449,8.12449,30.6601
168,575,7.5509,-35.3165,0,0,0,0,0,0,0,-1,1392,449,7.5509,35.3165
175,575,4.32617,1.93634,0,0,0,0,0,0,0,-1,1399,449,4.32612,-1.93634
182,575,6.3147,-2.88345,0,0,0,0,0,0,0,-1,1406,449,6.31466,2.88346
189,575,6.10449,-1.30817,0,0,0,0,0,0,0,-1,1413,449,6.10455,1.30817
196,575,5.79895,0.818359,0,0,0,0,0,0,0,-1,1420,449,5.79895,-0.81837
203,575,3.29724,-1.46378,0,0,0,0,0,0,0,-1,1427,449,3.29722,1.46377
210,575,2.32739,-7.74503,0,0,0,0,0,0,0,-1,1434,449,2.32741,7.74502
217,575,3.33618,-11.5521,0,0,0,0,0,0,0,-1,1441,449,3.3362,11.5521
224,575,5.51709,-16.3903,0,0,0,0,0,0,0,-1,1448,449,5.51713,16.3903
231,575,5.48572,-20.4595,0,0,0,0,0,0,0,-1,1455,449,5.48571,20.4595
238,575,5.33484,-22.3575,0,0,0,0,0,0,0,-1,1462,449,5.33478,22.3575
245,575,5.59741,-23.513,0,0,0,0,0,0,0,-1,1469,449,5.5974,23.513
252,575,7.63953,-32.6282,0,0,0,0,0,0,0,-1,1476,449,7.63956,32.6282
259,575,7.51685,-32.1741,0,0,0,0,0,0,0,-1,1483,449,7.5168,32.1741
266,575,7.53198,-31.7802,0,0,0,0,0,0,0,-1,1490,449,7.53198,31.7802
273,575,7.56653,-31.2997,0,0,0,0,0,0,0,-1,1497,449,7.56656,31.2997
280,575,7.59448,-30.876,0,0,0,0,0,0,0,-1,1504,449,7.59452,30.876
287,575,7.5957,-30.5013,0.00443289,-0.00306843,-0.00130261,0.00465265,-0.00328819,-0.167134,0.00460715,0.028515,1511,449,7.59572,30.5013
294,575,7.66895,-30.0736,0.00401567,-0.0030475,-0.00129467,0.0042455,-0.00327733,-0.175691,0.00435528,0.0121269,1518,449,7.66889,30.0736
301,575,7.68689,-29.6542,0.00357707,-0.00288717,-0.00117113,0.0037827,-0.0030928,-0.173814,0.00397623,0.00982033,1525,449,7.68689,29.6542
308,575,7.7052,-29.2542,0.00311981,-0.00289158,-0.00108339,0.00330911,-0.00308087,-0.172975,0.00369004,0.0108182,1532,449,7.70523,29.2541
315,575,7.68762,-28.8339,0.00253421,-0.00259606,-0.00104392,0.0027385,-0.00280034,-0.193248,0.00319792,0.0113316,1539,449,7.68757,28.8339
322,575,7.70386,-28.4136,0.00198151,-0.00211553,-0.000858977,0.00215431,-0.00228833,-0.198523,0.00256535,0.0101656,1546,449,7.70391,28.4136
329,575,7.70703,-27.9959,0.00149574,-0.00152171,-0.0005822,0.00160418,-0.00163014,-0.184141,0.00186736,0.0105117,1553,449,7.70707,27.9959
336,575,7.68079,-27.584,0.00105602,-0.000925566,-0.000278955,0.00109454,-0.000964087,-0.137221,0.00118934,0.0119438,1560,449,7.68079,27.584
343,575,7.7002,-27.1208,0.000648415,-0.000274661,1.90289e-05,0.000648807,-0.000275053,0.0206029,0.000547747,0.0124194,1567,449,7.70025,27.1208
350,575,7.69141,-26.6607,0.000363847,0.000552273,0.000427132,0.000895459,2.06613e-05,0.893945,0.000590206,0.0119986,1574,449,7.69142,26.6607
357,575,7.67102,-26.1891,0.000113855,0.0014397,0.00089312,0.00188904,-0.000335486,1.10466,0.0013848,0.0113027,1581,449,7.67106,26.1891
364,575,7.65759,-25.7227,-5.18577e-05,0.00224409,0.00137038,0.00288379,-0.000691557,1.13405,0.00218975,0.0107021,1588,449,7.65762,25.7227
371,575,7.63538,-25.2461,-0.000166029,0.00309309,0.00184069,0.0039219,-0.000994842,1.14771,0.00300168,0.019039,1595,449,7.63539,25.2461
378,575,7.63013,-24.7878,-0.000403103,0.00406277,0.00241337,0.00511774,-0.00145808,1.15869,0.00398772,0.0183348,1602,449,7.63011,24.7878
385,575,7.60632,-24.2969,-0.000755544,0.00578364,0.00291316,0.00689318,-0.00186508,1.20689,0.00532711,0.0113303,1609,449,7.60638,24.2969
392,575,7.56702,-23.8316,-0.000978385,0.00707525,0.00342995,0.00833802,-0.00224116,1.21803,0.00643712,0.00912609,1616,449,7.56697,23.8316
399,575,7.52795,-23.3875,-0.000940946,0.00859994,0.00427929,0.010238,-0.00257905,1.20521,0.00782797,0.0097464,1623,449,7.528,23.3875
406,575,7.50281,-22.8381,-0.00109165,0.0103426,0.00512703,0.0123048,-0.00305384,1.20528,0.0093882,0.0110803,1630,449,7.50275,22.8381
413,575,7.48914,-22.2885,-0.00148549,0.0119756,0.0058548,0.0141657,-0.00367565,1.21283,0.010878,0.0143111,1637,449,7.48913,22.2885
420,575,7.45007,-21.752,-0.00192652,0.0133903,0.00658964,0.015835,-0.00437132,1.21553,0.012276,0.0144068,1644,449,7.45005,21.752
427,575,7.38672,-21.1866,-0.00211966,0.0146483,0.00754863,0.0175459,-0.00501721,1.20429,0.0136798,0.0166557,1651,449,7.38671,21.1867
434,575,7.29663,-20.7476,-0.00221465,0.0161324,0.00859132,0.0195273,-0.00560951,1.19448,0.0152362,0.0278551,1658,449,7.29662,20.7476
441,575,7.27039,-20.3463,0,0,0,0,0,0,0,-1,1665,449,7.27043,20.3463
448,575,7.84534,-19.4551,0,0,0,0,0,0,0,-1,1672,449,7.84528,19.4551
455,575,7.89478,-17.8444,0,0,0,0,0,0,0,-1,1679,449,7.89477,17.8443
462,575,6.39746,-17.8187,0,0,0,0,0,0,0,-1,1686,449,6.39743,17.8187
469,575,6.73181,-18.0193,0,0,0,0,0,0,0,-1,1693,449,6.73179,18.0193
476,575,7.14331,-16.8213,0,0,0,0,0,0,0,-1,1700,449,7.14328,16.8213
483,575,6.16272,-18.33,0,0,0,0,0,0,0,-1,1707,449,6.16276,18.33
490,575,5.97229,-17.9191,0,0,0,0,0,0,0,-1,1714,449,5.97233,17.9191
497,575,0,0,0,0,0,0,0,0,0,-1,1721,449,0,0
504,575,0,0,0,0,0,0,0,0,0,-1,1728,449,0,0
511,575,0,0,0,0,0,0,0,0,0,-1,1735,449,0,0
518,575,0,0,0,0,0,0,0,0,0,-1,1742,449,0,0
525,575,0,0,0,0,0,0,0,0,0,-1,1749,449,0,0
532,575,0,0,0,0,0,0,0,0,0,-1,1756,449,0,0
539,575,0,0,0,0,0,0,0,0,0,-1,1763,449,0,0
546,575,0,0,0,0,0,0,0,0,0,-1,1770,449,0,0
553,575,0,0,0,0,0,0,0,0,0,-1,1777,449,0,0
560,575,0,0,0,0,0,0,0,0,0,-1,1784,449,0,0
567,575,0,0,0,0,0,0,0,0,0,-1,1791,449,0,0
574,575,0,0,0,0,0,0,0,0,0,-1,1798,449,0,0
581,575,0,0,0,0,0,0,0,0,0,-1,1805,449,0,0
588,575,0,0,0,0,0,0,0,0,0,-1,1812,449,0,0
595,575,0,0,0,0,0,0,0,0,0,-1,1819,449,0,0
602,575,0,0,0,0,0,0,0,0,0,-1,1826,449,0,0
609,575,0,0,0,0,0,0,0,0,0,-1,1833,449,0,0
616,575,0,0,0,0,0,0,0,0,0,-1,1840,449,0,0
623,575,0,0,0,0,0,0,0,0,0,-1,1847,449,0,0
630,575,0,0,0,0,0,0,0,0,0,-1,1854,449,0,0
637,575,0,0,0,0,0,0,0,0,0,-1,1861,449,0,0
644,575,0,0,0,0,0,0,0,0,0,-1,1868,449,0,0
651,575,0,0,0,0,0,0,0,0,0,-1,1875,449,0,0
658,575,0,0,0,0,0,0,0,0,0,-1,1882,449,0,0
665,575,0,0,0,0,0,0,0,0,0,-1,1889,449,0,0
672,575,0,0,0,0,0,0,0,0,0,-1,1896,449,0,0
679,575,0,0,0,0,0,0,0,0,0,-1,1903,449,0,0
686,575,0,0,0,0,0,0,0,0,0,-1,1910,449,0,0
693,575,0,0,0,0,0,0,0,0,0,-1,1917,449,0,0
700,575,0,0,0,0,0,0,0,0,0,-1,1924,449,0,0
707,575,0,0,0,0,0,0,0,0,0,-1,1931,449,0,0
714,575,0,0,0,0,0,0,0,0,0,-1,1938,449,0,0
721,575,0,0,0,0,0,0,0,0,0,-1,1945,449,0,0
728,575,0,0,0,0,0,0,0,0,0,-1,1952,449,0,0
735,575,0,0,0,0,0,0,0,0,0,-1,1959,449,0,0
742,575,0,0,0,0,0,0,0,0,0,-1,1966,449,0,0
749,575,0,0,0,0,0,0,0,0,0,-1,1973,449,0,0
756,575,0,0,0,0,0,0,0,0,0,-1,1980,449,0,0
763,575,0,0,0,0,0,0,0,0,0,-1,1987,449,0,0
770,575,0,0,0,0,0,0,0,0,0,-1,1994,449,0,0
777,575,0,0,0,0,0,0,0,0,0,-1,2001,449,0,0
784,575,0,0,0,0,0,0,0,0,0,-1,2008,449,0,0
791,575,0,0,0,0,0,0,0,0,0,-1,2015,449,0,0
798,575,0,0,0,0,0,0,0,0,0,-1,2022,449,0,0
805,575,0,0,0,0,0,0,0,0,0,-1,2029,449,0,0
812,575,0,0,0,0,0,0,0,0,0,-1,2036,449,0,0
-700,568,0,0,0,0,0,0,0,0,0,-1,524,456,0,0
-693,568,0,0,0,0,0,0,0,0,0,-1,531,456,0,0
-686,568,0,0,0,0,0,0,0,0,0,-1,538,456,0,0
-679,568,0,0,0,0,0,0,0,0,0,-1,545,456,0,0
-672,568,0,0,0,0,0,0,0,0,0,-1,552,456,0,0
-665,568,0,0,0,0,0,0,0,0,0,-1,559,456,0,0
-658,568,0,0,0,0,0,0,0,0,0,-1,566,456,0,0
-651,568,0,0,0,0,0,0,0,0,0,-1,573,456,0,0
-644,568,0,0,0,0,0,0,0,0,0,-1,580,456,0,0
-637,568,0,0,0,0,0,0,0,0,0,-1,587,456,0,0
-630,568,0,0,0,0,0,0,0,0,0,-1,594,456,0,0
-623,568,0,0,0,0,0,0,0,0,0,-1,601,456,0,0
-616,568,0,0,0,0,0,0,0,0,0,-1,608,456,0,0
-609,568,0,0,0,0,0,0,0,0,0,-1,615,456,0,0
-602,568,0,0,0,0,0,0,0,0,0,-1,622,456,0,0
-595,568,0,0,0,0,0,0,0,0,0,-1,629,456,0,0
-588,568,0,0,0,0,0,0,0,0,0,-1,636,456,0,0
-581,568,0,0,0,0,0,0,0,0,0,-1,643,456,0,0
-574,568,0,0,0,0,0,0,0,0,0,-1,650,456,0,0
-567,568,0,0,0,0,0,0,0,0,0,-1,657,456,0,0
-560,568,0,0,0,0,0,0,0,0,0,-1,664,456,0,0
-553,568,0,0,0,0,0,0,0,0,0,-1,671,456,0,0
-546,568,0,0,0,0,0,0,0,0,0,-1,678,456,0,0
-539,568,0,0,0,0,0,0,0,0,0,-1,685,456,0,0
-532,568,0,0,0,0,0,0,0,0,0,-1,692,456,0,0
-525,568,0,0,0,0,0,0,0,0,0,-1,699,456,0,0
-518,568,0,0,0,0,0,0,0,0,0,-1,706,456,0,0
-511,568,0,0,0,0,0,0,0,0,0,-1,713,456,0,0
-504,568,0,0,0,0,0,0,0,0,0,-1,720,456,0,0
-497,568,0,0,0,0,0,0,0,0,0,-1,727,456,0,0
-490,568,0,0,0,0,0,0,0,0,0,-1,734,456,0,0
-483,568,0,0,0,0,0,0,0,0,0,-1,741,456,0,0
-476,568,0,0,0,0,0,0,0,0,0,-1,748,456,0,0
-469,568,0,0,0,0,0,0,0,0,0,-1,755,456,0,0
-462,568,0,0,0,0,0,0,0,0,0,-1,762,456,0,0
-455,568,0,0,0,0,0,0,0,0,0,-1,769,456,0,0
-448,568,0,0,0,0,0,0,0,0,0,-1,776,456,0,0
-441,568,0,0,0,0,0,0,0,0,0,-1,783,456,0,0
-434,568,0,0,0,0,0,0,0,0,0,-1,790,456,0,0
-427,568,0,0,0,0,0,0,0,0,0,-1,797,456,0,0
-420,568,0,0,0,0,0,0,0,0,0,-1,804,456,0,0
-413,568,0,0,0,0,0,0,0,0,0,-1,811,456,0,0
-406,568,0,0,0,0,0,0,0,0,0,-1,818,456,0,0
-399,568,0,0,0,0,0,0,0,0,0,-1,825,456,0,0
-392,568,0,0,0,0,0,0,0,0,0,-1,832,456,0,0
-385,568,0,0,0,0,0,0,0,0,0,-1,839,456,0,0
-378,568,0.321777,-7.29929,0,0,0,0,0,0,0,-1,846,456,0.321806,7.29927
-371,568,1.09595,-7.46707,0,0,0,0,0,0,0,-1,853,456,1.09597,7.46707
-364,568,1.87787,-7.61115,0,0,0,0,0,0,0,-1,860,456,1.87784,7.61116
-357,568,2.14166,-7.67645,0,0,0,0,0,0,0,-1,867,456,2.14167,7.67646
-350,568,2.7467,-11.2507,0,0,0,0,0,0,0,-1,874,456,2.7467,11.2507
-343,568,2.16516,-11.3762,0,0,0,0,0,0,0,-1,881,456,2.16514,11.3762
-336,568,2.27197,-19.8919,0,0,0,0,0,0,0,-1,888,456,2.27198,19.8919
-329,568,2.52161,-20.1972,-0.0094424,0.023651,-0.00168802,0.0237369,-0.00952828,-1.51996,0.019781,0.0470297,895,456,2.5216,20.1972
-322,568,2.43665,-20.0962,-0.00696841,0.0177754,-0.00292117,0.0181156,-0.0073086,-1.45486,0.0151143,0.0426723,902,456,2.43664,20.0961
-315,568,2.31952,-20.725,-0.00483478,0.0138894,-0.0035257,0.0145313,-0.00547666,-1.39071,0.0119394,0.0389927,909,456,2.31951,20.725
-308,568,1.96356,-21.7289,-0.00312752,0.0100121,-0.00334872,0.0108163,-0.00393174,-1.3351,0.00881863,0.0311231,916,456,1.96353,21.729
-301,568,2.01245,-22.3851,-0.00172154,0.00714309,-0.00345807,0.00833249,-0.00291094,-1.23952,0.00673826,0.0179733,923,456,2.01248,22.3851
-294,568,1.96448,-22.8606,-0.00067466,0.00475121,-0.00302447,0.00610121,-0.00202466,-1.15097,0.0048843,0.0120792,930,456,1.9645,22.8606
-287,568,1.91864,-23.3591,2.31819e-05,0.00287012,-0.00244212,0.00427335,-0.00138005,-1.04927,0.00340349,0.0102012,937,456,1.91863,23.3591
-280,568,1.90436,-23.8492,0.000482518,0.001644,-0.00192832,0.00307713,-0.000950609,-0.931661,0.00243105,0.0107781,944,456,1.90435,23.8492
-273,568,1.90308,-24.3443,0.0007864,0.000688064,-0.001719,0.00245694,-0.000982473,-0.771101,0.00204566,0.0123229,951,456,1.90308,24.3443
-266,568,1.87939,-24.8163,0.000920268,-0.00026569,-0.00124438,0.00170573,-0.00105115,-0.563052,0.00160657,0.0120418,958,456,1.87941,24.8163
-259,568,1.83386,-25.2752,0.00125315,-0.000581073,-0.000575738,0.00141889,-0.000746813,-0.280295,0.00127028,0.0125907,965,456,1.83389,25.2752
-252,568,1.79272,-25.7358,0.00126187,-0.000870939,2.03965e-05,0.00126206,-0.000871134,0.00956208,0.00123847,0.0122792,972,456,1.79271,25.7358
-245,568,1.77252,-26.155,0.00124671,-0.0012643,0.000312215,0.00128494,-0.00130254,0.121867,0.00149389,0.0149566,979,456,1.77252,26.155
-238,568,1.78046,-26.5918,0.00145517,-0.00204304,0.000637465,0.00156771,-0.00215558,0.174746,0.00215856,0.0143541,986,456,1.78044,26.5918
-231,568,1.77124,-27.017,0.00173689,-0.00289733,0.000916942,0.00191172,-0.00307217,0.188408,0.00290333,0.0124936,993,456,1.77123,27.017
-224,568,1.76288,-27.4471,0.00211787,-0.00398649,0.00128807,0.00237853,-0.00424715,0.19967,0.00387572,0.013363,1000,456,1.76289,27.447
-217,568,1.75488,-27.8983,0.00314226,-0.00522428,0.00206992,0.00362635,-0.00570838,0.229743,0.00543391,0.0119449,1007,456,1.75489,27.8983
-210,568,1.75275,-28.3305,0.00465421,-0.00714263,0.00264784,0.00522127,-0.00770969,0.210972,0.00751163,0.0119729,1014,456,1.75277,28.3305
-203,568,1.763,-28.7289,0.00604788,-0.00895285,0.00331673,0.0067485,-0.00965346,0.208178,0.00951906,0.0107979,1021,456,1.76298,28.7288
-196,568,1.78723,-29.1125,0.00760769,-0.0105122,0.00400334,0.00845276,-0.0113572,0.208038,0.0114782,0.0144957,1028,456,1.78727,29.1125
-189,568,1.77148,-29.4951,0.0092867,-0.0121443,0.00456575,0.0102189,-0.0130765,0.201396,0.0134833,0.0151092,1035,456,1.77154,29.4951
-182,568,1.797,-29.9093,0.0105539,-0.0132362,0.0047307,0.0114601,-0.0141424,0.189262,0.0148086,0.015466,1042,456,1.79697,29.9093
-175,568,1.82336,-30.2769,0.0114547,-0.0140099,0.0048739,0.0123557,-0.0149108,0.182795,0.0157654,0.0156892,1049,456,1.82338,30.2769
-168,568,1.82996,-30.5322,0.0124021,-0.0148275,0.00484366,0.013238,-0.0156634,0.1709,0.0167059,0.0223038,1056,456,1.82993,30.5322
-161,568,1.83606,-30.8362,0.0126652,-0.0152944,0.00461096,0.013406,-0.0160352,0.159297,0.0170205,0.0369225,1063,456,1.83611,30.8362
-154,568,2.01611,-31.4414,0.0122908,-0.0153642,0.004285,0.0129395,-0.016013,0.150252,0.0167471,0.0436031,1070,456,2.01605,31.4414
-147,568,2.03894,-31.6474,0.0115203,-0.0149999,0.0034836,0.0119702,-0.0154498,0.128454,0.0158734,0.045957,1077,456,2.03897,31.6474
-140,568,2.13245,-31.7838,0.00973579,-0.0148033,0.00263673,0.0100159,-0.0150834,0.105841,0.0145892,0.0444002,1084,456,2.13247,31.7839
-133,568,2.24915,-32.1982,0.00721035,-0.0143134,0.00195474,0.00738643,-0.0144895,0.0898387,0.0128501,0.0472363,1091,456,2.24911,32.1982
-126,568,2.27283,-32.5147,0.00459452,-0.0138345,0.00137627,0.00469673,-0.0139367,0.0741313,0.0111902,0.046258,1098,456,2.27284,32.5147
-119,568,2.17578,-32.7518,0,0,0,0,0,0,0,-1,1105,456,2.17577,32.7518
-112,568,1.36707,-32.3814,0,0,0,0,0,0,0,-1,1112,456,1.36707,32.3814
-105,568,2.02454,-25.038,0,0,0,0,0,0,0,-1,1119,456,2.02459,25.038
-98,568,1.58618,-14.7874,0,0,0,0,0,0,0,-1,1126,456,1.58617,14.7874
-91,568,1.11621,-11.1853,0,0,0,0,0,0,0,-1,1133,456,1.11626,11.1853
-84,568,0.461792,-9.7959,0,0,0,0,0,0,0,-1,1140,456,0.461793,9.7959
-77,568,-1.13806,-8.57822,0,0,0,0,0,0,0,-1,1147,456,-1.13807,8.57821
-70,568,-4.09766,-1.42911,0,0,0,0,0,0,0,-1,1154,456,-4.09767,1.4291
-63,568,-5.92273,-3.70752,0,0,0,0,0,0,0,-1,1161,456,-5.92272,3.70751
-56,568,-5.24158,-6.01385,0,0,0,0,0,0,0,-1,1168,456,-5.24161,6.01386
-49,568,-5.24365,-8.33557,0,0,0,0,0,0,0,-1,1175,456,-5.24371,8.33557
-42,568,-0.664795,0.521973,0,0,0,0,0,0,0,-1,1182,456,-0.664829,-0.521984
-35,568,-0.153076,-1.67731,0,0,0,0,0,0,0,-1,1189,456,-0.153068,1.67731
-28,568,1.25439,-4.48798,0,0,0,0,0,0,0,-1,1196,456,1.2544,4.48797
-21,568,0.625122,-33.0291,0,0,0,0,0,0,0,-1,1203,456,0.625172,33.0292
-14,568,0.791016,-33.0554,0,0,0,0,0,0,0,-1,1210,456,0.790958,33.0554
-7,568,5.06921,-44.542,0,0,0,0,0,0,0,-1,1217,456,5.06925,44.542
0,568,5.32385,-43.8151,0,0,0,0,0,0,0,-1,1224,456,5.32387,43.8151
7,568,5.53076,-43.0462,0,0,0,0,0,0,0,-1,1231,456,5.53075,43.0462
14,568,4.58716,-43.7006,0,0,0,0,0,0,0,-1,1238,456,4.58713,43.7006
21,568,5.00793,-42.3085,0.0531215,0.0195949,0.0456616,0.0849996,-0.0122833,0.609476,0.0611733,0.0448131,1245,456,5.0079,42.3085
28,568,5.28528,-41.2698,0.0483643,0.024804,0.0390039,0.0773282,-0.00415991,0.638741,0.0529933,0.0432984,1252,456,5.28532,41.2698
35,568,5.36975,-40.2199,0.0426868,0.030594,0.0302815,0.0675196,0.00576113,0.686857,0.0432209,0.0406831,1259,456,5.36972,40.2199
42,568,5.70337,-38.8229,0,0,0,0,0,0,0,-1,1266,456,5.7034,38.8229
49,568,4.79187,-37.9773,0.0318862,0.0425629,0.00851491,0.0472745,0.0271746,1.0654,0.0273957,0.0449116,1273,456,4.79183,37.9773
56,568,3.56409,-37.499,0.0271204,0.0480273,-0.00328605,0.0485316,0.026616,-1.41851,0.0280635,0.0452491,1280,456,3.56403,37.499
63,568,3.53979,-37.776,0.0219274,0.0532886,-0.0147097,0.0591082,0.0161079,-1.19407,0.0352838,0.0466509,1287,456,3.53974,37.776
70,568,3.0022,-37.278,0.016011,0.0566778,-0.0257579,0.0691608,0.00352798,-1.11952,0.0449774,0.0475505,1294,456,3.00222,37.2779
77,568,2.73792,-37.1286,0,0,0,0,0,0,0,-1,1301,456,2.73795,37.1286
84,568,5.20093,-37.1492,0.00216924,0.0624971,-0.0435352,0.0852971,-0.0206308,-1.08836,0.064845,0.0457817,1308,456,5.20095,37.1492
91,568,4.89331,-37.2391,-0.00562244,0.063132,-0.048989,0.0886022,-0.0310926,-1.09134,0.0717154,0.0414784,1315,456,4.89327,37.2391
98,568,4.60486,-37.3745,-0.00695573,0.0638602,-0.0502761,0.0899454,-0.0330409,-1.09219,0.0734961,0.0446432,1322,456,4.60492,37.3745
105,568,4.36511,-37.4299,0.0042681,0.0634973,-0.050734,0.0926276,-0.0248622,-1.04958,0.0714949,0.0468742,1329,456,4.36517,37.4299
112,568,4.15527,-37.5225,0.0102256,0.0632812,-0.0500629,0.0934104,-0.0199037,-1.02903,0.0698598,0.0487326,1336,456,4.15531,37.5224
119,568,3.69287,-37.7995,0.0207415,0.0620026,-0.0477204,0.0933611,-0.0106169,-0.989426,0.0660647,0.0448106,1343,456,3.69288,37.7995
126,568,3.31445,-37.9525,0.0405596,0.0582329,-0.0401766,0.0905331,0.00825934,-0.893647,0.0577993,0.0488731,1350,456,3.31447,37.9525
133,568,2.97095,-38.0658,0,0,0,0,0,0,0,-1,1357,456,2.97094,38.0658
140,568,1.61389,-37.0061,0,0,0,0,0,0,0,-1,1364,456,1.61395,37.0061
147,568,0.774048,-36.4785,0,0,0,0,0,0,0,-1,1371,456,0.774097,36.4785
154,568,7.85583,-30.0557,0,0,0,0,0,0,0,-1,1378,456,7.85579,30.0557
161,568,8.42847,-30.5151,0,0,0,0,0,0,0,-1,1385,456,8.42841,30.5151
168,568,11.2393,-28.6589,0,0,0,0,0,0,0,-1,1392,456,11.2393,28.6589
175,568,10.5151,0.747498,0,0,0,0,0,0,0,-1,1399,456,10.5152,-0.747501
182,568,6.35095,-3.63361,0,0,0,0,0,0,0,-1,1406,456,6.35093,3.63359
189,568,6.17493,-1.70911,0,0,0,0,0,0,0,-1,1413,456,6.17497,1.70911
196,568,6.04724,0.200836,0,0,0,0,0,0,0,-1,1420,456,6.04724,-0.200835
203,568,5.9281,2.08649,0,0,0,0,0,0,0,-1,1427,456,5.92812,-2.08648
210,568,1.46216,-2.50446,0,0,0,0,0,0,0,-1,1434,456,1.46219,2.50446
217,568,2.62366,-7.86703,0,0,0,0,0,0,0,-1,1441,456,2.62365,7.86704
224,568,3.43494,-12.1555,0,0,0,0,0,0,0,-1,1448,456,3.43492,12.1555
231,568,4.38245,-9.3205,0,0,0,0,0,0,0,-1,1455,456,4.38244,9.32048
238,568,5.88879,-20.7448,0,0,0,0,0,0,0,-1,1462,456,5.88876,20.7449
245,568,3.34387,-10.6774,0,0,0,0,0,0,0,-1,1469,456,3.34389,10.6774
252,568,3.56946,-9.28928,0,0,0,0,0,0,0,-1,1476,456,3.56948,9.28928
259,568,3.38843,-8.73068,0,0,0,0,0,0,0,-1,1483,456,3.38842,8.73068
266,568,3.104,-9.16876,0,0,0,0,0,0,0,-1,1490,456,3.10397,9.16876
273,568,3.77869,-13.1147,0,0,0,0,0,0,0,-1,1497,456,3.77869,13.1147
280,568,4.40002,-14.9322,0,0,0,0,0,0,0,-1,1504,456,4.4,14.9322
287,568,8.00513,-30.6797,0,0,0,0,0,0,0,-1,1511,456,8.00513,30.6797
294,568,8.06531,-29.9601,0.00538899,-0.00520721,-0.00172223,0.00566188,-0.0054801,-0.157145,0.00643311,0.0416743,1518,456,8.06527,29.9601
301,568,8.05579,-29.5894,0.00478691,-0.00498598,-0.00170381,0.00507544,-0.00527451,-0.16775,0.00597591,0.0209306,1525,456,8.05577,29.5894
308,568,8.10999,-29.2037,0.00409059,-0.00504759,-0.00179172,0.00442933,-0.00538633,-0.186856,0.00567605,0.0141118,1532,456,8.11002,29.2037
315,568,8.10278,-28.8307,0.00318899,-0.00472163,-0.00196554,0.00365045,-0.00518309,-0.230597,0.00512557,0.00899343,1539,456,8.10274,28.8307
322,568,8.10522,-28.4023,0.00240452,-0.0041291,-0.00190068,0.00291722,-0.00464179,-0.26347,0.00440189,0.010148,1546,456,8.10523,28.4023
329,568,8.13782,-27.9687,0.00174753,-0.00336241,-0.00169797,0.00226029,-0.00387517,-0.293277,0.00358297,0.0108489,1553,456,8.13783,27.9687
336,568,8.13794,-27.5392,0.00118273,-0.0026069,-0.00143857,0.00166695,-0.00309112,-0.324685,0.00278779,0.0112915,1560,456,8.13792,27.5392
343,568,8.15796,-27.0957,0.000666928,-0.00187085,-0.00118535,0.00113445,-0.00233837,-0.375685,0.0020448,0.010883,1567,456,8.15791,27.0957
350,568,8.14819,-26.6526,0.000321708,-0.001023,-0.000798481,0.000693208,-0.0013945,-0.435471,0.0012278,0.010107,1574,456,8.14818,26.6526
357,568,8.12256,-26.1738,3.68886e-05,-7.26866e-05,-0.000332372,0.000318959,-0.000354757,-0.703714,0.000389153,0.00968615,1581,456,8.1226,26.1738
364,568,8.13159,-25.7242,-0.000117259,0.000752352,0.000188805,0.000791575,-0.000156482,1.36597,0.000586873,0.0117198,1588,456,8.13157,25.7242
371,568,8.11646,-25.2438,-0.000173278,0.00155645,0.000717813,0.00181553,-0.000432356,1.22442,0.00137728,0.0214575,1595,456,8.11644,25.2438
378,568,8.11426,-24.78,-0.000295708,0.00241862,0.00129055,0.00293426,-0.000811353,1.19067,0.00227537,0.0196215,1602,456,8.11425,24.78
385,568,8.07581,-24.3126,-0.000491462,0.00385368,0.00181743,0.00451362,-0.0011514,1.22248,0.00345739,0.00951587,1609,456,8.07582,24.3126
392,568,8.02551,-23.8483,-0.000587481,0.00491054,0.00234499,0.00577484,-0.00145178,1.21767,0.00441413,0.0105451,1616,456,8.02553,23.8483
399,568,7.97693,-23.4188,-0.000511422,0.00612335,0.00309407,0.0073423,-0.00173037,1.19551,0.00556211,0.0172267,1623,456,7.97691,23.4188
406,568,7.9884,-22.8775,-0.000601347,0.00749814,0.00381424,0.00901157,-0.00211477,1.19307,0.00682277,0.0151933,1630,456,7.98838,22.8775
413,568,7.98059,-22.3094,-0.000886171,0.00878617,0.00445165,0.0105231,-0.00262311,1.19879,0.00803381,0.011997,1637,456,7.98065,22.3095
420,568,7.96533,-21.7789,-0.00120129,0.00981811,0.0050824,0.0118043,-0.00318742,1.19826,0.00911958,0.0104867,1644,456,7.96531,21.7789
427,568,7.92603,-21.2312,-0.00134601,0.0106831,0.00586114,0.0130666,-0.00372954,1.18456,0.0101845,0.0125084,1651,456,7.92602,21.2312
434,568,7.93738,-20.7079,-0.00141241,0.0116437,0.00667873,0.0144548,-0.00422357,1.17239,0.0113104,0.0193229,1658,456,7.93743,20.7079
441,568,7.90637,-20.2708,-0.00152012,0.0122628,0.00753443,0.0155821,-0.00483943,1.15583,0.0123222,0.0290144,1665,456,7.90639,20.2708
448,568,8.1095,-19.5488,-0.00188501,0.0123929,0.00825927,0.0161709,-0.00566302,1.14178,0.0130834,0.040618,1672,456,8.10954,19.5488
455,568,8.15173,-18.8297,0,0,0,0,0,0,0,-1,1679,456,8.15175,18.8297
462,568,7.43054,-18.6996,0,0,0,0,0,0,0,-1,1686,456,7.43056,18.6996
469,568,7.44873,-18.0523,0,0,0,0,0,0,0,-1,1693,456,7.44872,18.0523
476,568,7.34546,-17.6231,0,0,0,0,0,0,0,-1,1700,456,7.34544,17.6231
483,568,7.71936,-16.0368,0,0,0,0,0,0,0,-1,1707,456,7.71931,16.0368
490,568,7.57776,-15.8477,0,0,0,0,0,0,0,-1,1714,456,7.57774,15.8478
497,568,7.37231,-14.514,0,0,0,0,0,0,0,-1,1721,456,7.3723,14.514
504,568,0,0,0,0,0,0,0,0,0,-1,1728,456,0,0
511,568,0,0,0,0,0,0,0,0,0,-1,1735,456,0,0
518,568,0,0,0,0,0,0,0,0,0,-1,1742,456,0,0
525,568,0,0,0,0,0,0,0,0,0,-1,1749,456,0,0
532,568,0,0,0,0,0,0,0,0,0,-1,1756,456,0,0
539,568,0,0,0,0,0,0,0,0,0,-1,1763,456,0,0
546,568,0,0,0,0,0,0,0,0,0,-1,1770,456,0,0
553,568,0,0,0,0,0,0,0,0,0,-1,1777,456,0,0
560,568,0,0,0,0,0,0,0,0,0,-1,1784,456,0,0
567,568,0,0,0,0,0,0,0,0,0,-1,1791,456,0,0
574,568,0,0,0,0,0,0,0,0,0,-1,1798,456,0,0
581,568,0,0,0,0,0,0,0,0,0,-1,1805,456,0,0
588,568,0,0,0,0,0,0,0,0,0,-1,1812,456,0,0
595,568,0,0,0,0,0,0,0,0,0,-1,1819,456,0,0
602,568,0,0,0,0,0,0,0,0,0,-1,1826,456,0,0
609,568,0,0,0,0,0,0,0,0,0,-1,1833,456,0,0
616,568,0,0,0,0,0,0,0,0,0,-1,1840,456,0,0
623,568,0,0,0,0,0,0,0,0,0,-1,1847,456,0,0
630,568,0,0,0,0,0,0,0,0,0,-1,1854,456,0,0
637,568,0,0,0,0,0,0,0,0,0,-1,1861,456,0,0
644,568,0,0,0,0,0,0,0,0,0,-1,1868,456,0,0
651,568,0,0,0,0,0,0,0,0,0,-1,1875,456,0,0
658,568,0,0,0,0,0,0,0,0,0,-1,1882,456,0,0
665,568,0,0,0,0,0,0,0,0,0,-1,1889,456,0,0
672,568,0,0,0,0,0,0,0,0,0,-1,1896,456,0,0
679,568,0,0,0,0,0,0,0,0,0,-1,1903,456,0,0
686,568,0,0,0,0,0,0,0,0,0,-1,1910,456,0,0
693,568,0,0,0,0,0,0,0,0,0,-1,1917,456,0,0
700,568,0,0,0,0,0,0,0,0,0,-1,1924,456,0,0
707,568,0,0,0,0,0,0,0,0,0,-1,1931,456,0,0
714,568,0,0,0,0,0,0,0,0,0,-1,1938,456,0,0
721,568,0,0,0,0,0,0,0,0,0,-1,1945,456,0,0
728,568,0,0,0,0,0,0,0,0,0,-1,1952,456,0,0
735,568,0,0,0,0,0,0,0,0,0,-1,1959,456,0,0
742,568,0,0,0,0,0,0,0,0,0,-1,1966,456,0,0
749,568,0,0,0,0,0,0,0,0,0,-1,1973,456,0,0
756,568,0,0,0,0,0,0,0,0,0,-1,1980,456,0,0
763,568,0,0,0,0,0,0,0,0,0,-1,1987,456,0,0
770,568,0,0,0,0,0,0,0,0,0,-1,1994,456,0,0
777,568,0,0,0,0,0,0,0,0,0,-1,2001,456,0,0
784,568,0,0,0,0,0,0,0,0,0,-1,2008,456,0,0
791,568,0,0,0,0,0,0,0,0,0,-1,2015,456,0,0
798,568,0,0,0,0,0,0,0,0,0,-1,2022,456,0,0
805,568,0,0,0,0,0,0,0,0,0,-1,2029,456,0,0
812,568,0,0,0,0,0,0,0,0,0,-1,2036,456,0,0
-700,561,0,0,0,0,0,0,0,0,0,-1,524,463,0,0
-693,561,0,0,0,0,0,0,0,0,0,-1,531,463,0,0
-686,561,0,0,0,0,0,0,0,0,0,-1,538,463,0,0
-679,561,0,0,0,0,0,0,0,0,0,-1,545,463,0,0
-672,561,0,0,0,0,0,0,0,0,0,-1,552,463,0,0
-665,561,0,0,0,0,0,0,0,0,0,-1,559,463,0,0
-658,561,0,0,0,0,0,0,0,0,0,-1,566,463,0,0
-651,561,0,0,0,0,0,0,0,0,0,-1,573,463,0,0
-644,561,0,0,0,0,0,0,0,0,0,-1,580,463,0,0
-637,561,0,0,0,0,0,0,0,0,0,-1,587,463,0,0
-630,561,0,0,0,0,0,0,0,0,0,-1,594,463,0,0
-623,561,0,0,0,0,0,0,0,0,0,-1,601,463,0,0
-616,561,0,0,0,0,0,0,0,0,0,-1,608,463,0,0
-609,561,0,0,0,0,0,0,0,0,0,-1,615,463,0,0
-602,561,0,0,0,0,0,0,0,0,0,-1,622,463,0,0
-595,561,0,0,0,0,0,0,0,0,0,-1,629,463,0,0
-588,561,0,0,0,0,0,0,0,0,0,-1,636,463,0,0
-581,561,0,0,0,0,0,0,0,0,0,-1,643,463,0,0
-574,561,0,0,0,0,0,0,0,0,0,-1,650,463,0,0
-567,561,0,0,0,0,0,0,0,0,0,-1,657,463,0,0
-560,561,0,0,0,0,0,0,0,0,0,-1,664,463,0,0
-553,561,0,0,0,0,0,0,0,0,0,-1,671,463,0,0
-546,561,0,0,0,0,0,0,0,0,0,-1,678,463,0,0
-539,561,0,0,0,0,0,0,0,0,0,-1,685,463,0,0
-532,561,0,0,0,0,0,0,0,0,0,-1,692,463,0,0
-525,561,0,0,0,0,0,0,0,0,0,-1,699,463,0,0
-518,561,0,0,0,0,0,0,0,0,0,-1,706,463,0,0
-511,561,0,0,0,0,0,0,0,0,0,-1,713,463,0,0
-504,561,0,0,0,0,0,0,0,0,0,-1,720,463,0,0
-497,561,0,0,0,0,0,0,0,0,0,-1,727,463,0,0
-490,561,0,0,0,0,0,0,0,0,0,-1,734,463,0,0
-483,561,0,0,0,0,0,0,0,0,0,-1,741,463,0,0
-476,561,0,0,0,0,0,0,0,0,0,-1,748,463,0,0
-469,561,0,0,0,0,0,0,0,0,0,-1,755,463,0,0
-462,561,0,0,0,0,0,0,0,0,0,-1,762,463,0,0
-455,561,0,0,0,0,0,0,0,0,0,-1,769,463,0,0
-448,561,0,0,0,0,0,0,0,0,0,-1,776,463,0,0
-441,561,0,0,0,0,0,0,0,0,0,-1,783,463,0,0
-434,561,0,0,0,0,0,0,0,0,0,-1,790,463,0,0
-427,561,0,0,0,0,0,0,0,0,0,-1,797,463,0,0
-420,561,0,0,0,0,0,0,0,0,0,-1,804,463,0,0
-413,561,0,0,0,0,0,0,0,0,0,-1,811,463,0,0
-406,561,0,0,0,0,0,0,0,0,0,-1,818,463,0,0
-399,561,0,0,0,0,0,0,0,0,0,-1,825,463,0,0
-392,561,4.92407,-2.54578,0,0,0,0,0,0,0,-1,832,463,4.92408,2.54576
-385,561,5.55634,-1.02338,0,0,0,0,0,0,0,-1,839,463,5.55634,1.02338
-378,561,0.160522,-4.51785,0,0,0,0,0,0,0,-1,846,463,0.160542,4.51785
-371,561,1.06299,-7.56818,0,0,0,0,0,0,0,-1,853,463,1.06297,7.56817
-364,561,1.45264,-7.57684,0,0,0,0,0,0,0,-1,860,463,1.45264,7.57684
-357,561,0.948242,-12.2803,0,0,0,0,0,0,0,-1,867,463,0.948262,12.2803
-350,561,1.33124,-11.9406,0,0,0,0,0,0,0,-1,874,463,1.33127,11.9406
-343,561,1.13214,-14.1837,0,0,0,0,0,0,0,-1,881,463,1.13217,14.1837
-336,561,1.73517,-19.656,0,0,0,0,0,0,0,-1,888,463,1.73515,19.656
-329,561,1.61084,-20.3667,-0.0073035,0.0197805,-0.00200415,0.019928,-0.007451,-1.49733,0.0163453,0.0443475,895,463,1.61084,20.3667
-322,561,1.56165,-20.7115,-0.00563961,0.0158158,-0.00274189,0.0161606,-0.00598446,-1.44568,0.0132278,0.0369056,902,463,1.56165,20.7115
-315,561,1.60797,-21.0993,-0.00417525,0.0129816,-0.00325452,0.0135782,-0.00477186,-1.38949,0.0109936,0.024666,909,463,1.60798,21.0993
-308,561,1.60468,-21.7401,-0.00301714,0.0103862,-0.00339873,0.0111988,-0.0038297,-1.33612,0.00901769,0.0201923,916,463,1.6047,21.7401
-301,561,1.55481,-22.3909,-0.00197474,0.00807651,-0.0035294,0.00919203,-0.00309026,-1.26467,0.0073771,0.0144541,923,463,1.5548,22.3909
-294,561,1.49481,-22.9023,-0.0011357,0.00610266,-0.00321562,0.00732483,-0.00235787,-1.20759,0.00583033,0.0115696,930,463,1.49479,22.9023
-287,561,1.45477,-23.3783,-0.00053502,0.00446967,-0.002771,0.00570098,-0.00176633,-1.15265,0.00450633,0.00921729,937,463,1.45478,23.3783
-280,561,1.42889,-23.8505,-0.000109345,0.00326173,-0.00233588,0.00445671,-0.00130433,-1.09793,0.00348817,0.0114403,944,463,1.42888,23.8505
-273,561,1.40192,-24.324,0.000219441,0.00219585,-0.00208266,0.00351286,-0.00109757,-1.00691,0.00278093,0.0147376,951,463,1.40191,24.324
-266,561,1.40228,-24.7979,0.000493203,0.00094636,-0.0015251,0.00226162,-0.000822053,-0.859142,0.00184389,0.0101357,958,463,1.40226,24.7979
-259,561,1.37213,-25.2572,0.000988353,0.000101076,-0.000804022,0.00146301,-0.000373581,-0.533296,0.00112082,0.0105575,965,463,1.37214,25.2572
-252,561,1.36926,-25.7109,0.00120432,-0.000878651,-4.3308e-05,0.00120522,-0.000879551,-0.0207795,0.00120853,0.0141162,972,463,1.36926,25.7109
-245,561,1.35571,-26.1517,0.00145833,-0.00195812,0.000518276,0.00153522,-0.00203501,0.147287,0.002068,0.0171659,979,463,1.35571,26.1517
-238,561,1.36273,-26.5983,0.00196169,-0.0034272,0.00107873,0.00216961,-0.00363512,0.190406,0.00338678,0.0143356,986,463,1.36276,26.5983
-231,561,1.32434,-27.0369,0.00251227,-0.0049576,0.00159736,0.00283951,-0.00528485,0.20207,0.0047609,0.0117072,993,463,1.32432,27.0369
-224,561,1.29211,-27.4728,0.00310029,-0.00669989,0.00221649,0.00357828,-0.00717787,0.212398,0.00632492,0.0111684,1000,463,1.29214,27.4728
-217,561,1.3241,-27.895,0.00452808,-0.00853627,0.00334571,0.00533506,-0.00934325,0.236676,0.0085792,0.0121577,1007,463,1.32409,27.895
-210,561,1.33832,-28.3027,0.00656807,-0.0109386,0.00411705,0.00748795,-0.0118584,0.21982,0.0112643,0.013699,1014,463,1.33832,28.3027
-203,561,1.34296,-28.7068,0.0083972,-0.0131512,0.00496638,0.00948674,-0.0142408,0.215961,0.0137904,0.0147863,1021,463,1.34293,28.7068
-196,561,1.32544,-29.0663,0.0105234,-0.0149356,0.00576816,0.0117693,-0.0161815,0.212728,0.0162043,0.0159709,1028,463,1.32546,29.0663
-189,561,1.35571,-29.4184,0.0128456,-0.0168519,0.00648562,0.0142002,-0.0182065,0.205902,0.0187576,0.0197711,1035,463,1.35569,29.4184
-182,561,1.42419,-29.7939,0.0146056,-0.0180467,0.006684,0.0159209,-0.019362,0.194293,0.0204028,0.0233428,1042,463,1.42416,29.7938
-175,561,1.34131,-30.1385,0.015885,-0.0187846,0.0068099,0.0171747,-0.0200742,0.187162,0.0215274,0.0360209,1049,463,1.34136,30.1385
-168,561,1.34741,-30.4925,0.0173033,-0.0196009,0.0067155,0.0184873,-0.0207849,0.174521,0.0226868,0.0480997,1056,463,1.34741,30.4925
-161,561,1.50159,-30.7546,0.017761,-0.0199002,0.00631859,0.0187929,-0.0209321,0.161871,0.0229463,0.0492522,1063,463,1.50162,30.7546
-154,561,1.59619,-31.1391,0.0172739,-0.0196767,0.00582298,0.0181699,-0.0205726,0.15266,0.0223823,0.0486372,1070,463,1.59621,31.1391
-147,561,1.81274,-31.6909,0,0,0,0,0,0,0,-1,1077,463,1.8127,31.6909
-140,561,2.06165,-31.5917,0,0,0,0,0,0,0,-1,1084,463,2.06169,31.5917
-133,561,2.31506,-32.2187,0.0095405,-0.0173113,0.00201468,0.00969082,-0.0174616,0.074474,0.015889,0.0472591,1091,463,2.31505,32.2187
-126,561,2.03101,-32.405,0.00533589,-0.016502,0.000968074,0.00537872,-0.0165449,0.0442143,0.0131935,0.0457587,1098,463,2.031,32.405
-119,561,1.40186,-32.0946,0,0,0,0,0,0,0,-1,1105,463,1.40192,32.0946
-112,561,1.24365,-29.1982,0,0,0,0,0,0,0,-1,1112,463,1.2437,29.1981
-105,561,0.530518,-13.5379,0,0,0,0,0,0,0,-1,1119,463,0.530477,13.5379
-98,561,1.5387,-7.54352,0,0,0,0,0,0,0,-1,1126,463,1.53871,7.54351
-91,561,1.29553,-6.57968,0,0,0,0,0,0,0,-1,1133,463,1.29549,6.5797
-84,561,1.23364,-5.84555,0,0,0,0,0,0,0,-1,1140,463,1.23363,5.84556
-77,561,-2.36023,1.00204,0,0,0,0,0,0,0,-1,1147,463,-2.3602,-1.00205
-70,561,-3.90015,-1.41541,0,0,0,0,0,0,0,-1,1154,463,-3.90009,1.4154
-63,561,-6.95691,-4.02756,0,0,0,0,0,0,0,-1,1161,463,-6.95696,4.02756
-56,561,-5.37988,-6.66855,0,0,0,0,0,0,0,-1,1168,463,-5.37988,6.66854
-49,561,-5.7439,-9.11029,0,0,0,0,0,0,0,-1,1175,463,-5.74387,9.1103
-42,561,-1.72644,-5.63065,0,0,0,0,0,0,0,-1,1182,463,-1.72648,5.63064
-35,561,-1.65674,-4.87994,0,0,0,0,0,0,0,-1,1189,463,-1.6567,4.87993
-28,561,-1.91418,-3.86896,0,0,0,0,0,0,0,-1,1196,463,-1.91414,3.86895
-21,561,-0.0712891,-32.9036,0,0,0,0,0,0,0,-1,1203,463,-0.0713127,32.9036
-14,561,0.133179,-32.9074,0,0,0,0,0,0,0,-1,1210,463,0.133234,32.9074
-7,561,0.408813,-33.2238,0,0,0,0,0,0,0,-1,1217,463,0.408871,33.2238
0,561,5.35864,-43.5294,0,0,0,0,0,0,0,-1,1224,463,5.35864,43.5294
7,561,3.56909,-45.2116,0.0752901,0.0157795,0.0600873,0.112586,-0.0215164,0.555498,0.0831625,0.044824,1231,463,3.56915,45.2116
14,561,4.31995,-43.7777,0.0706091,0.0202636,0.059019,0.109599,-0.0187268,0.58382,0.0800422,0.0405214,1238,463,4.31998,43.7777
21,561,4.8689,-42.4194,0.0663587,0.0277146,0.0527657,0.103229,-0.00915556,0.609888,0.0720652,0.0419618,1245,463,4.86893,42.4194
28,561,5.18689,-41.3188,0.0618875,0.0350046,0.0438817,0.0943402,0.00255183,0.63678,0.0620603,0.0448166,1252,463,5.18687,41.3188
35,561,5.67883,-40.4663,0.056899,0.042046,0.0326025,0.0829102,0.0160349,0.673414,0.0507795,0.0394102,1259,463,5.67886,40.4663
42,561,6.31152,-39.4876,0,0,0,0,0,0,0,-1,1266,463,6.31154,39.4876
49,561,4.86646,-38.1448,0,0,0,0,0,0,0,-1,1273,463,4.86648,38.1448
56,561,3.20398,-38.043,0.0448946,0.0605977,-0.00909386,0.0647606,0.0407318,-1.14151,0.0378018,0.0444462,1280,463,3.20397,38.043
63,561,3.53003,-38.2903,0.0404585,0.0659127,-0.0227218,0.079229,0.0271422,-1.04069,0.0464924,0.0467184,1287,463,3.53002,38.2903
70,561,3.04126,-37.4528,0.0346346,0.0689558,-0.0358412,0.0915328,0.0120576,-1.00867,0.0574262,0.0468003,1294,463,3.04125,37.4528
77,561,5.974,-37.806,0.0279627,0.0719225,-0.0475121,0.102293,-0.00240736,-1.00205,0.0690115,0.0441813,1301,463,5.97401,37.806
84,561,6.0022,-37.5112,0.0193575,0.073787,-0.0569856,0.109723,-0.0165783,-1.00817,0.0792548,0.046354,1308,463,6.00217,37.5112
91,561,5.68799,-37.5676,0.0104857,0.0734737,-0.0631959,0.112588,-0.028629,-1.01656,0.0862015,0.0441906,1315,463,5.68799,37.5676
98,561,5.35388,-37.6801,0,0,0,0,0,0,0,-1,1322,463,5.35387,37.6801
105,561,5.16504,-37.6955,0,0,0,0,0,0,0,-1,1329,463,5.16506,37.6955
112,561,4.89136,-37.7869,0,0,0,0,0,0,0,-1,1336,463,4.89136,37.7869
119,561,4.32886,-38.4016,0.0220726,0.072763,-0.0600584,0.112605,-0.0177696,-0.985066,0.0816405,0.0434429,1343,463,4.32891,38.4015
126,561,4.15552,-38.7176,0.0401283,0.0681038,-0.0497348,0.10578,0.00245168,-0.92248,0.0697175,0.0445566,1350,463,4.15546,38.7176
133,561,3.82275,-38.9319,0,0,0,0,0,0,0,-1,1357,463,3.82275,38.9319
140,561,7.61194,-29.9378,0.133288,0.0619191,-0.0354527,0.147906,0.0473018,-0.391069,0.0872222,0.0493944,1364,463,7.61189,29.9378
147,561,8.30542,-30.9806,0,0,0,0,0,0,0,-1,1371,463,8.30538,30.9806
154,561,8.98169,-31.9977,0,0,0,0,0,0,0,-1,1378,463,8.9817,31.9977
161,561,9.41711,-30.3617,0,0,0,0,0,0,0,-1,1385,463,9.41717,30.3617
168,561,10.4425,-30.6379,0,0,0,0,0,0,0,-1,1392,463,10.4425,30.6379
175,561,10.4185,0.276398,0,0,0,0,0,0,0,-1,1399,463,10.4185,-0.276394
182,561,6.45703,-4.02127,0,0,0,0,0,0,0,-1,1406,463,6.45704,4.02127
189,561,6.50854,-2.08685,0,0,0,0,0,0,0,-1,1413,463,6.50851,2.08686
196,561,6.44775,-0.27182,0,0,0,0,0,0,0,-1,1420,463,6.44773,0.271814
203,561,6.18591,1.1301,0,0,0,0,0,0,0,-1,1427,463,6.18592,-1.13009
210,561,5.68713,2.68427,0,0,0,0,0,0,0,-1,1434,463,5.6871,-2.68425
217,561,3.61743,-7.33582,0,0,0,0,0,0,0,-1,1441,463,3.61738,7.33581
224,561,4.27466,-8.59171,0,0,0,0,0,0,0,-1,1448,463,4.27466,8.59171
231,561,4.93188,-9.8476,0,0,0,0,0,0,0,-1,1455,463,4.93193,9.84761
238,561,2.18018,-5.18359,0,0,0,0,0,0,0,-1,1462,463,2.18023,5.18359
245,561,3.07568,-3.50238,0,0,0,0,0,0,0,-1,1469,463,3.0757,3.50238
252,561,3.47412,-3.71109,0,0,0,0,0,0,0,-1,1476,463,3.47413,3.71109
259,561,3.42212,-3.2334,0,0,0,0,0,0,0,-1,1483,463,3.42214,3.2334
266,561,4.44373,-5.90027,0,0,0,0,0,0,0,-1,1490,463,4.44372,5.90026
273,561,2.59485,-3.65268,0,0,0,0,0,0,0,-1,1497,463,2.5948,3.65268
280,561,3.10767,-6.38235,0,0,0,0,0,0,0,-1,1504,463,3.10766,6.38235
287,561,4.91809,-14.429,0,0,0,0,0,0,0,-1,1511,463,4.9181,14.429
294,561,8.39441,-29.7419,0,0,0,0,0,0,0,-1,1518,463,8.39443,29.7419
301,561,8.35083,-29.3496,0.00605253,-0.00730108,-0.0022558,0.0064233,-0.00767185,-0.162908,0.00814848,0.0471528,1525,463,8.35078,29.3496
308,561,8.48181,-29.0574,0.00503777,-0.00731955,-0.0025196,0.00553176,-0.00781354,-0.193602,0.00774237,0.0322868,1532,463,8.48183,29.0574
315,561,8.55261,-28.784,0.00372871,-0.0069196,-0.0029218,0.00447773,-0.00766862,-0.250954,0.0070929,0.0198079,1539,463,8.55256,28.784
322,561,8.54565,-28.413,0.00269167,-0.00621016,-0.00295507,0.00358332,-0.00710182,-0.293051,0.00627957,0.0194574,1546,463,8.5457,28.413
329,561,8.56018,-27.946,0.00187523,-0.0052913,-0.00280322,0.00284145,-0.00625753,-0.33193,0.00537529,0.0144106,1553,463,8.5602,27.946
336,561,8.58337,-27.5009,0.00119994,-0.00442088,-0.00257735,0.00220282,-0.00542376,-0.371084,0.00453221,0.0108234,1560,463,8.58335,27.5009
343,561,8.58594,-27.0793,0.000585946,-0.00363555,-0.00236581,0.00164574,-0.00469535,-0.421157,0.00379954,0.00970148,1567,463,8.5859,27.0793
350,561,8.57996,-26.6236,0.000189935,-0.00279668,-0.00200139,0.00119373,-0.00380048,-0.464887,0.00301149,0.00967683,1574,463,8.57993,26.6236
357,561,8.57373,-26.142,-0.000123194,-0.00179851,-0.00154166,0.000793679,-0.00271539,-0.536537,0.00212482,0.0102015,1581,463,8.57374,26.142
364,561,8.573,-25.7217,-0.000258816,-0.000943922,-0.000985763,0.000442217,-0.00164496,-0.618175,0.00126997,0.00944344,1588,463,8.57296,25.7217
371,561,8.54578,-25.2694,-0.000246444,-0.000123365,-0.000402832,0.000222601,-0.00059241,-0.861196,0.000486425,0.0160613,1595,463,8.54578,25.2694
378,561,8.54578,-24.7876,-0.000249604,0.000744579,0.000186544,0.000778429,-0.000283454,1.39129,0.000634891,0.011924,1602,463,8.54575,24.7876
385,561,8.53076,-24.2891,-0.000302791,0.00202255,0.0007602,0.00224902,-0.000529259,1.28126,0.0017034,0.0101994,1609,463,8.53077,24.2891
392,561,8.51208,-23.7931,-0.000301889,0.00299496,0.00131657,0.0034562,-0.000763124,1.23383,0.00259616,0.0136834,1616,463,8.51203,23.7931
399,561,8.5094,-23.3352,-0.000186794,0.00400758,0.00200626,0.00481268,-0.000991893,1.18918,0.00358511,0.0197816,1623,463,8.50938,23.3352
406,561,8.48535,-22.8224,-0.000215945,0.00515552,0.00265303,0.00624493,-0.00130536,1.18116,0.00465976,0.0177445,1630,463,8.48531,22.8224
413,561,8.48511,-22.2699,-0.000399807,0.00625159,0.00325023,0.00757608,-0.0017243,1.18384,0.00571289,0.0158805,1637,463,8.4851,22.2699
420,561,8.45618,-21.7849,-0.000610687,0.00708061,0.00382989,0.0086624,-0.00219247,1.17912,0.00662776,0.0126835,1644,463,8.45614,21.7849
427,561,8.43445,-21.2415,-0.000725547,0.00774173,0.00449159,0.00968045,-0.00266427,1.16332,0.00750113,0.0101457,1651,463,8.43448,21.2415
434,561,8.42285,-20.7142,-0.000777133,0.00840657,0.00516208,0.0107236,-0.00309413,1.1489,0.0083732,0.0128587,1658,463,8.4228,20.7142
441,561,8.40271,-20.2217,-0.000873914,0.00876729,0.00587179,0.0115438,-0.00365042,1.1291,0.00915847,0.0167597,1665,463,8.40269,20.2217
448,561,8.4021,-19.6588,-0.00117788,0.00887484,0.00651173,0.0120745,-0.00437751,1.11408,0.00983896,0.0221513,1672,463,8.40214,19.6588
455,561,8.47156,-19.0082,-0.0014573,0.00848678,0.00709917,0.0121819,-0.00515241,1.09088,0.0102786,0.0405909,1679,463,8.47151,19.0082
462,561,8.33118,-18.5127,-0.00180084,0.00782585,0.00770699,0.0120991,-0.00607408,1.06453,0.0106828,0.0401895,1686,463,8.33113,18.5127
469,561,8.1554,-18.1041,-0.00255909,0.00655031,0.00822608,0.0113985,-0.00740725,1.03823,0.0109387,0.0264536,1693,463,8.15534,18.1041
476,561,8.07434,-17.4411,-0.00407305,0.00442632,0.00862638,0.00979299,-0.00943972,1.01427,0.0111046,0.0437914,1700,463,8.07431,17.4411
483,561,7.98975,-16.7322,0,0,0,0,0,0,0,-1,1707,463,7.98973,16.7322
490,561,9.38513,-13.8611,0,0,0,0,0,0,0,-1,1714,463,9.38514,13.8611
497,561,9.07434,-12.3982,0,0,0,0,0,0,0,-1,1721,463,9.07437,12.3982
504,561,10.0769,-0.811401,0,0,0,0,0,0,0,-1,1728,463,10.0769,0.8114
511,561,0,0,0,0,0,0,0,0,0,-1,1735,463,0,0
518,561,0,0,0,0,0,0,0,0,0,-1,1742,463,0,0
525,561,0,0,0,0,0,0,0,0,0,-1,1749,463,0,0
532,561,0,0,0,0,0,0,0,0,0,-1,1756,463,0,0
539,561,0,0,0,0,0,0,0,0,0,-1,1763,463,0,0
546,561,0,0,0,0,0,0,0,0,0,-1,1770,463,0,0
553,561,0,0,0,0,0,0,0,0,0,-1,1777,463,0,0
560,561,0,0,0,0,0,0,0,0,0,-1,1784,463,0,0
567,561,0,0,0,0,0,0,0,0,0,-1,1791,463,0,0
574,561,0,0,0,0,0,0,0,0,0,-1,1798,463,0,0
581,561,0,0,0,0,0,0,0,0,0,-1,1805,463,0,0
588,561,0,0,0,0,0,0,0,0,0,-1,1812,463,0,0
595,561,0,0,0,0,0,0,0,0,0,-1,1819,463,0,0
602,561,0,0,0,0,0,0,0,0,0,-1,1826,463,0,0
609,561,0,0,0,0,0,0,0,0,0,-1,1833,463,0,0
616,561,0,0,0,0,0,0,0,0,0,-1,1840,463,0,0
623,561,0,0,0,0,0,0,0,0,0,-1,1847,463,0,0
630,561,0,0,0,0,0,0,0,0,0,-1,1854,463,0,0
637,561,0,0,0,0,0,0,0,0,0,-1,1861,463,0,0
644,561,0,0,0,0,0,0,0,0,0,-1,1868,463,0,0
651,561,0,0,0,0,0,0,0,0,0,-1,1875,463,0,0
658,561,0,0,0,0,0,0,0,0,0,-1,1882,463,0,0
665,561,0,0,0,0,0,0,0,0,0,-1,1889,463,0,0
672,561,0,0,0,0,0,0,0,0,0,-1,1896,463,0,0
679,561,0,0,0,0,0,0,0,0,0,-1,1903,463,0,0
686,561,0,0,0,0,0,0,0,0,0,-1,1910,463,0,0
693,561,0,0,0,0,0,0,0,0,0,-1,1917,463,0,0
700,561,0,0,0,0,0,0,0,0,0,-1,1924,463,0,0
707,561,0,0,0,0,0,0,0,0,0,-1,1931,463,0,0
714,561,0,0,0,0,0,0,0,0,0,-1,1938,463,0,0
721,561,0,0,0,0,0,0,0,0,0,-1,1945,463,0,0
728,561,0,0,0,0,0,0,0,0,0,-1,1952,463,0,0
735,561,0,0,0,0,0,0,0,0,0,-1,1959,463,0,0
742,561,0,0,0,0,0,0,0,0,0,-1,1966,463,0,0
749,561,0,0,0,0,0,0,0,0,0,-1,1973,463,0,0
756,561,0,0,0,0,0,0,0,0,0,-1,1980,463,0,0
763,561,0,0,0,0,0,0,0,0,0,-1,1987,463,0,0
770,561,0,0,0,0,0,0,0,0,0,-1,1994,463,0,0
777,561,0,0,0,0,0,0,0,0,0,-1,2001,463,0,0
784,561,0,0,0,0,0,0,0,0,0,-1,2008,463,0,0
791,561,0,0,0,0,0,0,0,0,0,-1,2015,463,0,0
798,561,0,0,0,0,0,0,0,0,0,-1,2022,463,0,0
805,561,0,0,0,0,0,0,0,0,0,-1,2029,463,0,0
812,561,0,0,0,0,0,0,0,0,0,-1,2036,463,0,0
-700,554,0,0,0,0,0,0,0,0,0,-1,524,470,0,0
-693,554,0,0,0,0,0,0,0,0,0,-1,531,470,0,0
-686,554,0,0,0,0,0,0,0,0,0,-1,538,470,0,0
-679,554,0,0,0,0,0,0,0,0,0,-1,545,470,0,0
-672,554,0,0,0,0,0,0,0,0,0,-1,552,470,0,0
-665,554,0,0,0,0,0,0,0,0,0,-1,559,470,0,0
-658,554,0,0,0,0,0,0,0,0,0,-1,566,470,0,0
-651,554,0,0,0,0,0,0,0,0,0,-1,573,470,0,0
-644,554,0,0,0,0,0,0,0,0,0,-1,580,470,0,0
-637,554,0,0,0,0,0,0,0,0,0,-1,587,470,0,0
-630,554,0,0,0,0,0,0,0,0,0,-1,594,470,0,0
-623,554,0,0,0,0,0,0,0,0,0,-1,601,470,0,0
-616,554,0,0,0,0,0,0,0,0,0,-1,608,470,0,0
-609,554,0,0,0,0,0,0,0,0,0,-1,615,470,0,0
-602,554,0,0,0,0,0,0,0,0,0,-1,622,470,0,0
-595,554,0,0,0,0,0,0,0,0,0,-1,629,470,0,0
-588,554,0,0,0,0,0,0,0,0,0,-1,636,470,0,0
-581,554,0,0,0,0,0,0,0,0,0,-1,643,470,0,0
-574,554,0,0,0,0,0,0,0,0,0,-1,650,470,0,0
-567,554,0,0,0,0,0,0,0,0,0,-1,657,470,0,0
-560,554,0,0,0,0,0,0,0,0,0,-1,664,470,0,0
-553,554,0,0,0,0,0,0,0,0,0,-1,671,470,0,0
-546,554,0,0,0,0,0,0,0,0,0,-1,678,470,0,0
-539,554,0,0,0,0,0,0,0,0,0,-1,685,470,0,0
-532,554,0,0,0,0,0,0,0,0,0,-1,692,470,0,0
-525,554,0,0,0,0,0,0,0,0,0,-1,699,470,0,0
-518,554,0,0,0,0,0,0,0,0,0,-1,706,470,0,0
-511,554,0,0,0,0,0,0,0,0,0,-1,713,470,0,0
-504,554,0,0,0,0,0,0,0,0,0,-1,720,470,0,0
-497,554,0,0,0,0,0,0,0,0,0,-1,727,470,0,0
-490,554,0,0,0,0,0,0,0,0,0,-1,734,470,0,0
-483,554,0,0,0,0,0,0,0,0,0,-1,741,470,0,0
-476,554,0,0,0,0,0,0,0,0,0,-1,748,470,0,0
-469,554,0,0,0,0,0,0,0,0,0,-1,755,470,0,0
-462,554,0,0,0,0,0,0,0,0,0,-1,762,470,0,0
-455,554,0,0,0,0,0,0,0,0,0,-1,769,470,0,0
-448,554,0,0,0,0,0,0,0,0,0,-1,776,470,0,0
-441,554,0,0,0,0,0,0,0,0,0,-1,783,470,0,0
-434,554,0,0,0,0,0,0,0,0,0,-1,790,470,0,0
-427,554,0,0,0,0,0,0,0,0,0,-1,797,470,0,0
-420,554,0,0,0,0,0,0,0,0,0,-1,804,470,0,0
-413,554,0,0,0,0,0,0,0,0,0,-1,811,470,0,0
-406,554,0,0,0,0,0,0,0,0,0,-1,818,470,0,0
-399,554,-1.32275,-3.95142,0,0,0,0,0,0,0,-1,825,470,-1.32275,3.95141
-392,554,-1.35632,-3.7406,0,0,0,0,0,0,0,-1,832,470,-1.35632,3.7406
-385,554,-0.849243,-4.14447,0,0,0,0,0,0,0,-1,839,470,-0.849262,4.14446
-378,554,-0.982666,-4.55084,0,0,0,0,0,0,0,-1,846,470,-0.982671,4.55084
-371,554,-1.74542,-4.63467,0,0,0,0,0,0,0,-1,853,470,-1.74541,4.63468
-364,554,1.04883,-7.68756,0,0,0,0,0,0,0,-1,860,470,1.0488,7.68757
-357,554,1.06714,-11.5403,0,0,0,0,0,0,0,-1,867,470,1.06715,11.5403
-350,554,1.17157,-18.1341,0,0,0,0,0,0,0,-1,874,470,1.17156,18.1341
-343,554,1.3454,-19.3574,0,0,0,0,0,0,0,-1,881,470,1.3454,19.3574
-336,554,1.24084,-19.744,-0.00681609,0.0199217,-0.0019464,0.0200626,-0.00695703,-1.49851,0.0161999,0.0443266,888,470,1.24082,19.744
-329,554,1.12567,-20.3094,-0.00558803,0.0163074,-0.00209728,0.0165064,-0.00578711,-1.47616,0.0133579,0.021039,895,470,1.12568,20.3094
-322,554,1.06067,-20.8489,-0.00430834,0.0129991,-0.00242368,0.0133321,-0.00464134,-1.43426,0.0107738,0.0133886,902,470,1.06068,20.8489
-315,554,1.06818,-21.3585,-0.00317315,0.010618,-0.00261775,0.0110982,-0.00365332,-1.38939,0.00887096,0.013247,909,470,1.06818,21.3585
-308,554,1.0462,-21.8673,-0.00228964,0.00870514,-0.00276147,0.00935974,-0.00294425,-1.33804,0.00741862,0.0142302,916,470,1.04619,21.8673
-301,554,1.05072,-22.3875,-0.00149686,0.00673474,-0.00279613,0.00759469,-0.00235682,-1.27243,0.00600493,0.014527,923,470,1.05075,22.3875
-294,554,1.01794,-22.8809,-0.000812328,0.0050627,-0.00249382,0.00597852,-0.00172814,-1.21885,0.00466956,0.0123414,930,470,1.01793,22.8809
-287,554,0.974976,-23.3611,-0.000293914,0.00365244,-0.00210026,0.00456102,-0.00120249,-1.1625,0.00351084,0.0113472,937,470,0.974978,23.3611
-280,554,0.954468,-23.8487,6.49013e-05,0.00252285,-0.00169448,0.00338711,-0.000799357,-1.09915,0.00256636,0.0104628,944,470,0.954466,23.8487
-273,554,0.932007,-24.33,0.000353912,0.00148335,-0.00136774,0.00239837,-0.000561109,-0.98118,0.00181509,0.0134588,951,470,0.931987,24.33
-266,554,0.917175,-24.7917,0.000681006,0.000214427,-0.000764038,0.00124658,-0.000351144,-0.637225,0.000969533,0.0119596,958,470,0.917146,24.7917
-259,554,0.89325,-25.196,0.00124074,-0.000880556,-9.11359e-05,0.00124465,-0.000884465,-0.0428571,0.00123509,0.0122352,965,470,0.893255,25.196
-252,554,0.876831,-25.6485,0.00155685,-0.00226167,0.000699296,0.00168089,-0.00238571,0.175545,0.00235958,0.0138401,972,470,0.876813,25.6485
-245,554,0.871521,-26.1142,0.00198919,-0.00369979,0.00139091,0.00231105,-0.00402165,0.227398,0.00370038,0.0154779,979,470,0.8715,26.1142
-238,554,0.89917,-26.5889,0.00271605,-0.00554583,0.00204196,0.00319318,-0.00602296,0.229542,0.0054039,0.0118715,986,470,0.899146,26.5889
-231,554,0.889099,-27.047,0.00350225,-0.00749071,0.00267122,0.00411696,-0.00810543,0.226187,0.00718075,0.010284,993,470,0.889108,27.047
-224,554,0.882935,-27.4637,0.00430269,-0.0097098,0.00342565,0.00509533,-0.0105024,0.227381,0.00918397,0.0105426,1000,470,0.882925,27.4637
-217,554,0.903076,-27.863,0.00621117,-0.0120591,0.00483891,0.00741363,-0.0132615,0.243564,0.0120949,0.0113273,1007,470,0.903094,27.863
-210,554,0.937256,-28.2625,0.0089413,-0.0150118,0.00577978,0.010263,-0.0163335,0.224812,0.0154882,0.0157415,1014,470,0.937274,28.2625
-203,554,0.900452,-28.6225,0.011383,-0.0176068,0.00671415,0.0128625,-0.0190863,0.216892,0.0185619,0.0259315,1021,470,0.900455,28.6225
-196,554,0.792725,-28.8738,0.0143521,-0.0198246,0.00769315,0.0160039,-0.0214765,0.21151,0.0217161,0.0322904,1028,470,0.792737,28.8738
-189,554,1.00635,-29.1035,0.0176277,-0.0223006,0.00867549,0.0194312,-0.0241041,0.204967,0.0251834,0.0404514,1035,470,1.0064,29.1035
-182,554,0.993896,-29.6367,0,0,0,0,0,0,0,-1,1042,470,0.993898,29.6367
-175,554,0.827637,-29.9772,0,0,0,0,0,0,0,-1,1049,470,0.827678,29.9772
-168,554,0.55603,-30.3428,0.0240577,-0.0258107,0.00914155,0.0256806,-0.0274337,0.175705,0.0306711,0.0491927,1056,470,0.556063,30.3428
-161,554,1.41333,-30.28,0.024898,-0.0259829,0.00857892,0.0263055,-0.0273905,0.16262,0.0310035,0.0464667,1063,470,1.41335,30.28
-154,554,1.30127,-30.8218,0,0,0,0,0,0,0,-1,1070,470,1.30121,30.8218
-147,554,1.72546,-31.2171,0,0,0,0,0,0,0,-1,1077,470,1.72546,31.2171
-140,554,3.14563,-26.981,0,0,0,0,0,0,0,-1,1084,470,3.14569,26.981
-133,554,2.422,-32.2281,0,0,0,0,0,0,0,-1,1091,470,2.42197,32.2281
-126,554,1.76379,-32.0261,0,0,0,0,0,0,0,-1,1098,470,1.76376,32.0261
-119,554,1.50964,-29.6382,0,0,0,0,0,0,0,-1,1105,470,1.5096,29.6383
-112,554,1.03162,-24.5784,0,0,0,0,0,0,0,-1,1112,470,1.03156,24.5784
-105,554,0.608765,-21.0475,0,0,0,0,0,0,0,-1,1119,470,0.608728,21.0475
-98,554,1.51929,-7.3624,0,0,0,0,0,0,0,-1,1126,470,1.51928,7.36241
-91,554,1.41089,-6.5864,0,0,0,0,0,0,0,-1,1133,470,1.41093,6.58638
-84,554,1.62305,-5.87186,0,0,0,0,0,0,0,-1,1140,470,1.62299,5.87186
-77,554,-2.56958,1.33258,0,0,0,0,0,0,0,-1,1147,470,-2.56959,-1.33257
-70,554,-3.68164,-1.18332,0,0,0,0,0,0,0,-1,1154,470,-3.68158,1.18331
-63,554,-4.86853,-3.88708,0,0,0,0,0,0,0,-1,1161,470,-4.86853,3.88708
-56,554,-5.69958,-6.45422,0,0,0,0,0,0,0,-1,1168,470,-5.69955,6.45422
-49,554,-6.23645,-8.8569,0,0,0,0,0,0,0,-1,1175,470,-6.23643,8.85689
-42,554,-6.62524,-11.5382,0,0,0,0,0,0,0,-1,1182,470,-6.62522,11.5382
-35,554,-2.40173,-4.59482,0,0,0,0,0,0,0,-1,1189,470,-2.40169,4.59481
-28,554,-0.760132,-1.65555,0,0,0,0,0,0,0,-1,1196,470,-0.760095,1.65556
-21,554,-6.11462,-31.9121,0,0,0,0,0,0,0,-1,1203,470,-6.11458,31.9122
-14,554,-0.55835,-32.7154,0,0,0,0,0,0,0,-1,1210,470,-0.558299,32.7154
-7,554,0.0767822,-33.0583,0,0,0,0,0,0,0,-1,1217,470,0.076815,33.0583
0,554,3.71729,-46.879,0,0,0,0,0,0,0,-1,1224,470,3.71733,46.8791
7,554,4.17175,-44.871,0.0930632,0.0176432,0.0674308,0.132612,-0.0219058,0.530443,0.0965421,0.0470257,1231,470,4.1718,44.871
14,554,4.75671,-43.9092,0.086289,0.0262693,0.0663787,0.129126,-0.0165681,0.573098,0.0921051,0.0449036,1238,470,4.75674,43.9092
21,554,5.14807,-42.6373,0.0827267,0.0377292,0.0574597,0.121935,-0.00147953,0.598795,0.0817879,0.0451476,1245,470,5.14802,42.6372
28,554,5.18713,-41.863,0.0800985,0.0471635,0.0452227,0.111759,0.0155033,0.610789,0.0699134,0.0424749,1252,470,5.18713,41.863
35,554,5.59717,-41.0294,0.0770591,0.0549335,0.0308528,0.0987725,0.0332201,0.613255,0.0580358,0.0382541,1259,470,5.59711,41.0294
42,554,2.92407,-37.813,0,0,0,0,0,0,0,-1,1266,470,2.92403,37.813
49,554,3.17798,-38.0329,0,0,0,0,0,0,0,-1,1273,470,3.17795,38.0329
56,554,3.34888,-38.2464,0.0726512,0.0731378,-0.019541,0.092437,0.053352,-0.791624,0.05358,0.0454138,1280,470,3.34889,38.2464
63,554,3.58252,-38.6702,0.0700964,0.0781812,-0.0354439,0.109812,0.0384651,-0.842178,0.0643407,0.0448361,1287,470,3.58248,38.6702
70,554,7.35486,-37.9615,0.0654201,0.0805786,-0.0506676,0.124231,0.021768,-0.859642,0.0766024,0.0461246,1294,470,7.35483,37.9615
77,554,7.08557,-37.849,0.0595256,0.0828682,-0.0642186,0.136467,0.00592624,-0.875289,0.0890687,0.0454447,1301,470,7.0856,37.849
84,554,6.79407,-37.8381,0.0506971,0.0834369,-0.0756891,0.144506,-0.0103721,-0.891897,0.0999743,0.0482424,1308,470,6.79403,37.8381
91,554,6.46729,-37.9026,0,0,0,0,0,0,0,-1,1315,470,6.46727,37.9026
98,554,4.21594,-40.7132,0,0,0,0,0,0,0,-1,1322,470,4.21591,40.7132
105,554,5.31543,-38.6963,0,0,0,0,0,0,0,-1,1329,470,5.31548,38.6963
112,554,5.32581,-38.8919,0,0,0,0,0,0,0,-1,1336,470,5.32576,38.8919
119,554,5.33154,-39.0636,0,0,0,0,0,0,0,-1,1343,470,5.33151,39.0636
126,554,5.3219,-39.2786,0,0,0,0,0,0,0,-1,1350,470,5.32191,39.2785
133,554,6.64502,-28.5315,0,0,0,0,0,0,0,-1,1357,470,6.64507,28.5315
140,554,7.38538,-29.6203,0,0,0,0,0,0,0,-1,1364,470,7.38532,29.6203
147,554,8.12561,-30.7091,0,0,0,0,0,0,0,-1,1371,470,8.12557,30.7091
154,554,9.43494,-30.4296,0,0,0,0,0,0,0,-1,1378,470,9.43493,30.4296
161,554,10.1082,-30.5726,0,0,0,0,0,0,0,-1,1385,470,10.1081,30.5726
168,554,10.8447,-30.7538,0,0,0,0,0,0,0,-1,1392,470,10.8448,30.7537
175,554,10.663,0.286957,0,0,0,0,0,0,0,-1,1399,470,10.663,-0.286966
182,554,6.71106,-4.50217,0,0,0,0,0,0,0,-1,1406,470,6.71107,4.50215
189,554,6.90479,-2.50348,0,0,0,0,0,0,0,-1,1413,470,6.90477,2.50348
196,554,6.96216,-0.740906,0,0,0,0,0,0,0,-1,1420,470,6.96214,0.740912
203,554,6.43518,0.414154,0,0,0,0,0,0,0,-1,1427,470,6.43523,-0.414141
210,554,6.21167,1.96707,0,0,0,0,0,0,0,-1,1434,470,6.21165,-1.96706
217,554,5.64551,3.4989,0,0,0,0,0,0,0,-1,1441,470,5.64555,-3.49891
224,554,4.85144,-8.85172,0,0,0,0,0,0,0,-1,1448,470,4.85146,8.85173
231,554,3.25073,-5.29642,0,0,0,0,0,0,0,-1,1455,470,3.25078,5.29642
238,554,4.28625,-3.25253,0,0,0,0,0,0,0,-1,1462,470,4.28622,3.25252
245,554,4.0752,-2.90033,0,0,0,0,0,0,0,-1,1469,470,4.07515,2.90032
252,554,3.52112,-0.934998,0,0,0,0,0,0,0,-1,1476,470,3.52113,0.934996
259,554,3.96448,-2.16425,0,0,0,0,0,0,0,-1,1483,470,3.96446,2.16424
266,554,3.0592,-2.71716,0,0,0,0,0,0,0,-1,1490,470,3.05923,2.71718
273,554,2.58521,-3.06876,0,0,0,0,0,0,0,-1,1497,470,2.58524,3.06874
280,554,2.83301,-0.991699,0,0,0,0,0,0,0,-1,1504,470,2.83303,0.991704
287,554,3.54126,-4.12277,0,0,0,0,0,0,0,-1,1511,470,3.54123,4.12277
294,554,3.62036,-8.50146,0,0,0,0,0,0,0,-1,1518,470,3.62031,8.50145
301,554,8.6012,-28.8787,0,0,0,0,0,0,0,-1,1525,470,8.60124,28.8786
308,554,8.85913,-28.9244,0,0,0,0,0,0,0,-1,1532,470,8.85908,28.9244
315,554,9.0199,-28.7449,0,0,0,0,0,0,0,-1,1539,470,9.01985,28.7449
322,554,8.92004,-28.1024,0,0,0,0,0,0,0,-1,1546,470,8.92005,28.1024
329,554,9.00403,-27.7166,0.00152616,-0.00753715,-0.00424735,0.00320546,-0.00921645,-0.376513,0.00744643,0.0427115,1553,470,9.004,27.7166
336,554,8.9873,-27.4617,0.000797571,-0.0064691,-0.00398649,0.00255805,-0.00822958,-0.415856,0.00650884,0.0262165,1560,470,8.98731,27.4617
343,554,8.99695,-27.0634,0.000144548,-0.00556044,-0.00375374,0.00200664,-0.00742253,-0.460492,0.00573546,0.0150763,1567,470,8.99691,27.0634
350,554,9.0343,-26.59,-0.000238398,-0.00468026,-0.00335336,0.0015628,-0.00648147,-0.492911,0.00492526,0.0102929,1574,470,9.03434,26.59
357,554,9.047,-26.1381,-0.000511664,-0.0035923,-0.00284803,0.0011859,-0.00528986,-0.537508,0.00398119,0.011061,1581,470,9.04702,26.1381
364,554,9.03149,-25.7087,-0.000575058,-0.00266532,-0.00221989,0.000833421,-0.0040738,-0.565389,0.0030321,0.00917534,1588,470,9.03154,25.7087
371,554,9.0238,-25.2523,-0.00045151,-0.00178269,-0.00155419,0.000573614,-0.00280781,-0.583086,0.00208949,0.00842663,1595,470,9.0238,25.2523
378,554,9.0177,-24.7695,-0.000308145,-0.000827636,-0.000901501,0.000370285,-0.00150607,-0.645134,0.00114756,0.00980333,1602,470,9.01768,24.7695
385,554,9.01282,-24.2828,-0.000210084,0.000374376,-0.000236933,0.000458358,-0.000294066,-1.23016,0.000437851,0.00952759,1609,470,9.0128,24.2828
392,554,9.01538,-23.7702,-0.000118754,0.00134429,0.000372627,0.00143373,-0.000208192,1.33523,0.00103224,0.0121104,1616,470,9.01542,23.7702
399,554,9.01318,-23.2691,3.20218e-05,0.00225076,0.00103794,0.00266061,-0.000377827,1.19472,0.00191217,0.0172553,1623,470,9.01323,23.2691
406,554,8.98669,-22.7672,5.75813e-05,0.00327177,0.00164556,0.00396481,-0.00063546,1.17218,0.0028785,0.0158194,1630,470,8.98671,22.7671
413,554,8.95654,-22.269,-3.09766e-05,0.00428234,0.00223457,0.00523124,-0.000979873,1.16923,0.00385584,0.0139367,1637,470,8.95659,22.269
420,554,8.95215,-21.7622,-0.00015269,0.00502574,0.00279228,0.00624452,-0.00137148,1.15924,0.00468754,0.0147763,1644,470,8.95214,21.7622
427,554,8.93347,-21.2429,-0.000254429,0.00559323,0.00336403,0.00712647,-0.00178767,1.14315,0.00544558,0.0110002,1651,470,8.93342,21.2429
434,554,8.90259,-20.7487,-0.00030638,0.0060901,0.00391992,0.00795097,-0.00216724,1.12758,0.00615166,0.00976684,1658,470,8.9026,20.7487
441,554,8.89819,-20.2197,-0.000398157,0.00631461,0.00451454,0.00858374,-0.00266728,1.10505,0.00678856,0.0116078,1665,470,8.89824,20.2197
448,554,8.87903,-19.6418,-0.000654703,0.00642228,0.00507277,0.00906876,-0.00330119,1.08994,0.00739603,0.0169604,1672,470,8.87908,19.6418
455,554,8.83984,-19.1041,-0.00086284,0.0061549,0.0055872,0.00924368,-0.00395162,1.06578,0.00781987,0.0179945,1679,470,8.8398,19.1041
462,554,8.76428,-18.5842,-0.00114159,0.00561711,0.00611072,0.00922067,-0.00474514,1.03798,0.00820001,0.0201442,1686,470,8.76431,18.5842
469,554,8.68896,-18.0598,-0.00184932,0.00453893,0.00653862,0.00862189,-0.00593228,1.0126,0.00845054,0.0241918,1693,470,8.68891,18.0598
476,554,8.68298,-17.2887,-0.00328946,0.00274392,0.0068538,0.00721555,-0.00776109,0.992714,0.00864868,0.0431146,1700,470,8.68297,17.2887
483,554,8.67383,-16.5169,0,0,0,0,0,0,0,-1,1707,470,8.67383,16.5169
490,554,11.1191,-11.7417,0,0,0,0,0,0,0,-1,1714,470,11.1192,11.7417
497,554,10.9613,1.60983,0,0,0,0,0,0,0,-1,1721,470,10.9613,-1.60982
504,554,2.13257,-3.81628,0,0,0,0,0,0,0,-1,1728,470,2.1326,3.8163
511,554,1.31396,-4.02713,0,0,0,0,0,0,0,-1,1735,470,1.31398,4.02712
518,554,5.04236,-5.9472,0,0,0,0,0,0,0,-1,1742,470,5.04231,5.94721
525,554,0,0,0,0,0,0,0,0,0,-1,1749,470,0,0
532,554,0,0,0,0,0,0,0,0,0,-1,1756,470,0,0
539,554,0,0,0,0,0,0,0,0,0,-1,1763,470,0,0
546,554,0,0,0,0,0,0,0,0,0,-1,1770,470,0,0
553,554,0,0,0,0,0,0,0,0,0,-1,1777,470,0,0
560,554,0,0,0,0,0,0,0,0,0,-1,1784,470,0,0
567,554,0,0,0,0,0,0,0,0,0,-1,1791,470,0,0
574,554,0,0,0,0,0,0,0,0,0,-1,1798,470,0,0
581,554,0,0,0,0,0,0,0,0,0,-1,1805,470,0,0
588,554,0,0,0,0,0,0,0,0,0,-1,1812,470,0,0
595,554,0,0,0,0,0,0,0,0,0,-1,1819,470,0,0
602,554,0,0,0,0,0,0,0,0,0,-1,1826,470,0,0
609,554,0,0,0,0,0,0,0,0,0,-1,1833,470,0,0
616,554,0,0,0,0,0,0,0,0,0,-1,1840,470,0,0
623,554,0,0,0,0,0,0,0,0,0,-1,1847,470,0,0
630,554,0,0,0,0,0,0,0,0,0,-1,1854,470,0,0
637,554,0,0,0,0,0,0,0,0,0,-1,1861,470,0,0
644,554,0,0,0,0,0,0,0,0,0,-1,1868,470,0,0
651,554,0,0,0,0,0,0,0,0,0,-1,1875,470,0,0
658,554,0,0,0,0,0,0,0,0,0,-1,1882,470,0,0
665,554,0,0,0,0,0,0,0,0,0,-1,1889,470,0,0
672,554,0,0,0,0,0,0,0,0,0,-1,1896,470,0,0
679,554,0,0,0,0,0,0,0,0,0,-1,1903,470,0,0
686,554,0,0,0,0,0,0,0,0,0,-1,1910,470,0,0
693,554,0,0,0,0,0,0,0,0,0,-1,1917,470,0,0
700,554,0,0,0,0,0,0,0,0,0,-1,1924,470,0,0
707,554,0,0,0,0,0,0,0,0,0,-1,1931,470,0,0
714,554,0,0,0,0,0,0,0,0,0,-1,1938,470,0,0
721,554,0,0,0,0,0,0,0,0,0,-1,1945,470,0,0
728,554,0,0,0,0,0,0,0,0,0,-1,1952,470,0,0
735,554,0,0,0,0,0,0,0,0,0,-1,1959,470,0,0
742,554,0,0,0,0,0,0,0,0,0,-1,1966,470,0,0
749,554,0,0,0,0,0,0,0,0,0,-1,1973,470,0,0
756,554,0,0,0,0,0,0,0,0,0,-1,1980,470,0,0
763,554,0,0,0,0,0,0,0,0,0,-1,1987,470,0,0
770,554,0,0,0,0,0,0,0,0,0,-1,1994,470,0,0
777,554,0,0,0,0,0,0,0,0,0,-1,2001,470,0,0
784,554,0,0,0,0,0,0,0,0,0,-1,2008,470,0,0
791,554,0,0,0,0,0,0,0,0,0,-1,2015,470,0,0
798,554,0,0,0,0,0,0,0,0,0,-1,2022,470,0,0
805,554,0,0,0,0,0,0,0,0,0,-1,2029,470,0,0
812,554,0,0,0,0,0,0,0,0,0,-1,2036,470,0,0
-700,547,0,0,0,0,0,0,0,0,0,-1,524,477,0,0
-693,547,0,0,0,0,0,0,0,0,0,-1,531,477,0,0
-686,547,0,0,0,0,0,0,0,0,0,-1,538,477,0,0
-679,547,0,0,0,0,0,0,0,0,0,-1,545,477,0,0
-672,547,0,0,0,0,0,0,0,0,0,-1,552,477,0,0
-665,547,0,0,0,0,0,0,0,0,0,-1,559,477,0,0
-658,547,0,0,0,0,0,0,0,0,0,-1,566,477,0,0
-651,547,0,0,0,0,0,0,0,0,0,-1,573,477,0,0
-644,547,0,0,0,0,0,0,0,0,0,-1,580,477,0,0
-637,547,0,0,0,0,0,0,0,0,0,-1,587,477,0,0
-630,547,0,0,0,0,0,0,0,0,0,-1,594,477,0,0
-623,547,0,0,0,0,0,0,0,0,0,-1,601,477,0,0
-616,547,0,0,0,0,0,0,0,0,0,-1,608,477,0,0
-609,547,0,0,0,0,0,0,0,0,0,-1,615,477,0,0
-602,547,0,0,0,0,0,0,0,0,0,-1,622,477,0,0
-595,547,0,0,0,0,0,0,0,0,0,-1,629,477,0,0
-588,547,0,0,0,0,0,0,0,0,0,-1,636,477,0,0
-581,547,0,0,0,0,0,0,0,0,0,-1,643,477,0,0
-574,547,0,0,0,0,0,0,0,0,0,-1,650,477,0,0
-567,547,0,0,0,0,0,0,0,0,0,-1,657,477,0,0
-560,547,0,0,0,0,0,0,0,0,0,-1,664,477,0,0
-553,547,0,0,0,0,0,0,0,0,0,-1,671,477,0,0
-546,547,0,0,0,0,0,0,0,0,0,-1,678,477,0,0
-539,547,0,0,0,0,0,0,0,0,0,-1,685,477,0,0
-532,547,0,0,0,0,0,0,0,0,0,-1,692,477,0,0
-525,547,0,0,0,0,0,0,0,0,0,-1,699,477,0,0
-518,547,0,0,0,0,0,0,0,0,0,-1,706,477,0,0
-511,547,0,0,0,0,0,0,0,0,0,-1,713,477,0,0
-504,547,0,0,0,0,0,0,0,0,0,-1,720,477,0,0
-497,547,0,0,0,0,0,0,0,0,0,-1,727,477,0,0
-490,547,0,0,0,0,0,0,0,0,0,-1,734,477,0,0
-483,547,0,0,0,0,0,0,0,0,0,-1,741,477,0,0
-476,547,0,0,0,0,0,0,0,0,0,-1,748,477,0,0
-469,547,0,0,0,0,0,0,0,0,0,-1,755,477,0,0
-462,547,0,0,0,0,0,0,0,0,0,-1,762,477,0,0
-455,547,0,0,0,0,0,0,0,0,0,-1,769,477,0,0
-448,547,0,0,0,0,0,0,0,0,0,-1,776,477,0,0
-441,547,0,0,0,0,0,0,0,0,0,-1,783,477,0,0
-434,547,0,0,0,0,0,0,0,0,0,-1,790,477,0,0
-427,547,0,0,0,0,0,0,0,0,0,-1,797,477,0,0
-420,547,0,0,0,0,0,0,0,0,0,-1,804,477,0,0
-413,547,0,0,0,0,0,0,0,0,0,-1,811,477,0,0
-406,547,0.144592,-11.0292,0,0,0,0,0,0,0,-1,818,477,0.144583,11.0292
-399,547,0.775513,-10.0294,0,0,0,0,0,0,0,-1,825,477,0.775482,10.0295
-392,547,-1.52271,-4.41675,0,0,0,0,0,0,0,-1,832,477,-1.52273,4.41674
-385,547,-1.73743,-4.6431,0,0,0,0,0,0,0,-1,839,477,-1.73743,4.64308
-378,547,-2.41339,-4.60071,0,0,0,0,0,0,0,-1,846,477,-2.41337,4.60071
-371,547,1.64569,-11.1445,0,0,0,0,0,0,0,-1,853,477,1.64569,11.1445
-364,547,0.271729,-4.58582,0,0,0,0,0,0,0,-1,860,477,0.271753,4.5858
-357,547,1.01337,-17.8671,0,0,0,0,0,0,0,-1,867,477,1.01337,17.8671
-350,547,0.749451,-18.3132,-0.00734774,0.0233237,-0.00271902,0.0235629,-0.00758691,-1.48306,0.0187562,0.0494313,874,477,0.749461,18.3132
-343,547,0.669495,-19.0461,-0.00624208,0.0194505,-0.00243458,0.0196792,-0.00647075,-1.47715,0.0157265,0.0463778,881,477,0.669491,19.0461
-336,547,0.692505,-19.7538,-0.00513083,0.0162645,-0.00228088,0.0165049,-0.00537128,-1.46576,0.0131642,0.0199569,888,477,0.692489,19.7538
-329,547,0.631165,-20.319,-0.00419973,0.0131029,-0.00207575,0.0133485,-0.00444526,-1.45306,0.0106933,0.0111027,895,477,0.631135,20.319
-322,547,0.603394,-20.8488,-0.00316902,0.0103161,-0.00212628,0.0106434,-0.00349634,-1.41806,0.00850408,0.0108185,902,477,0.603397,20.8488
-315,547,0.575745,-21.3958,-0.00224598,0.00832511,-0.00209168,0.00872394,-0.00264481,-1.38238,0.00686943,0.00994418,909,477,0.575772,21.3958
-308,547,0.556946,-21.8839,-0.00154304,0.00674447,-0.00205039,0.007224,-0.00202258,-1.34105,0.00561301,0.011464,916,477,0.556934,21.8839
-301,547,0.553284,-22.3721,-0.000933642,0.00501726,-0.001944,0.00559603,-0.00151241,-1.28143,0.0043239,0.0114715,923,477,0.553262,22.3721
-294,547,0.529114,-22.8536,-0.000368553,0.00356,-0.0015973,0.00412747,-0.000936022,-1.22944,0.00311095,0.00956925,930,477,0.529136,22.8536
-287,547,0.499207,-23.3335,8.41607e-05,0.0022985,-0.00118976,0.00281656,-0.000433893,-1.16013,0.00203779,0.0108933,937,477,0.499203,23.3335
-280,547,0.485901,-23.8148,0.000382136,0.00124798,-0.000771671,0.00169988,-6.97568e-05,-1.04103,0.0011572,0.0129728,944,477,0.485889,23.8148
-273,547,0.473206,-24.3015,0.000623836,0.000263562,-0.000344877,0.000832787,5.46104e-05,-0.544725,0.000537913,0.0123434,951,477,0.473202,24.3015
-266,547,0.444092,-24.766,0.000995061,-0.000940215,0.000312252,0.00104419,-0.000989349,0.156073,0.00117421,0.0121252,958,477,0.444063,24.766
-259,547,0.423462,-25.182,0.00161652,-0.00217458,0.00091082,0.00182399,-0.00238205,0.223965,0.00243547,0.0114955,965,477,0.42345,25.182
-252,547,0.436707,-25.6427,0.00201612,-0.00384315,0.00167754,0.00246241,-0.00428945,0.260019,0.00394547,0.0110008,972,477,0.436736,25.6427
-245,547,0.441284,-26.1151,0.00261241,-0.00552986,0.00244866,0.00329207,-0.00620952,0.27075,0.00557128,0.0111651,979,477,0.441257,26.1151
-238,547,0.460388,-26.5783,0.00357644,-0.00765224,0.0031326,0.00439125,-0.00846705,0.254469,0.00754704,0.00835534,986,477,0.460415,26.5783
-231,547,0.446045,-27.0255,0.00463432,-0.00995585,0.00383506,0.00558096,-0.0109025,0.242,0.00968062,0.00859511,993,477,0.446027,27.0255
-224,547,0.449829,-27.415,0.00569827,-0.0126791,0.0047254,0.00684212,-0.013823,0.237496,0.0121558,0.0122386,1000,477,0.449825,27.415
-217,547,0.488953,-27.7997,0.00821005,-0.0156502,0.00646952,0.00985131,-0.0172915,0.24845,0.0158659,0.0196816,1007,477,0.48898,27.7996
-210,547,0.536438,-28.0613,0.0118421,-0.0193754,0.00765885,0.0136199,-0.0211532,0.228081,0.0202327,0.0333476,1014,477,0.536413,28.0613
-203,547,0.508118,-28.0448,0.0151465,-0.0227016,0.00884722,0.0171125,-0.0246676,0.21866,0.0242529,0.0472698,1021,477,0.508125,28.0448
-196,547,0.19043,-28.5601,0,0,0,0,0,0,0,-1,1028,477,0.190424,28.5601
-189,547,0.647217,-28.7283,0,0,0,0,0,0,0,-1,1035,477,0.647235,28.7283
-182,547,-0.0454102,-23.1846,0,0,0,0,0,0,0,-1,1042,477,-0.0454543,23.1846
-175,547,-0.350098,-12.3584,0,0,0,0,0,0,0,-1,1049,477,-0.350098,12.3584
-168,547,-0.00317383,-30.214,0,0,0,0,0,0,0,-1,1056,477,-0.00312615,30.214
-161,547,1.33276,-29.5373,0,0,0,0,0,0,0,-1,1063,477,1.33273,29.5373
-154,547,1.40674,-30.6192,0,0,0,0,0,0,0,-1,1070,477,1.40675,30.6192
-147,547,3.69434,-26.413,0,0,0,0,0,0,0,-1,1077,477,3.69437,26.413
-140,547,1.55676,-22.5229,0,0,0,0,0,0,0,-1,1084,477,1.5568,22.5229
-133,547,2.31665,-17.9421,0,0,0,0,0,0,0,-1,1091,477,2.31667,17.9421
-126,547,1.7063,-26.5276,0,0,0,0,0,0,0,-1,1098,477,1.70634,26.5276
-119,547,0.967651,-24.9351,0,0,0,0,0,0,0,-1,1105,477,0.967657,24.9351
-112,547,1.15674,-22.2276,0,0,0,0,0,0,0,-1,1112,477,1.15677,22.2276
-105,547,0.966797,-20.5777,0,0,0,0,0,0,0,-1,1119,477,0.966804,20.5777
-98,547,0.70166,-18.9755,0,0,0,0,0,0,0,-1,1126,477,0.701713,18.9755
-91,547,1.37805,-7.12024,0,0,0,0,0,0,0,-1,1133,477,1.37804,7.12025
-84,547,1.94202,-6.66241,0,0,0,0,0,0,0,-1,1140,477,1.94201,6.66241
-77,547,-2.28357,1.8588,0,0,0,0,0,0,0,-1,1147,477,-2.28356,-1.85879
-70,547,-3.70178,-0.874908,0,0,0,0,0,0,0,-1,1154,477,-3.70182,0.874918
-63,547,-5.12012,-3.60861,0,0,0,0,0,0,0,-1,1161,477,-5.12009,3.60862
-56,547,-6.01917,-6.2399,0,0,0,0,0,0,0,-1,1168,477,-6.01921,6.23991
-49,547,-6.729,-8.60349,0,0,0,0,0,0,0,-1,1175,477,-6.72899,8.60348
-42,547,-2.41736,-5.53012,0,0,0,0,0,0,0,-1,1182,477,-2.41734,5.53011
-35,547,-2.96838,-4.45734,0,0,0,0,0,0,0,-1,1189,477,-2.96839,4.45734
-28,547,-0.869141,-1.29901,0,0,0,0,0,0,0,-1,1196,477,-0.869135,1.29901
-21,547,-7.68262,-30.8089,0,0,0,0,0,0,0,-1,1203,477,-7.68256,30.8089
-14,547,-0.369873,-32.6582,0,0,0,0,0,0,0,-1,1210,477,-0.369835,32.6582
-7,547,-0.265503,-32.8521,0,0,0,0,0,0,0,-1,1217,477,-0.265543,32.8521
0,547,-0.160889,-33.0137,0,0,0,0,0,0,0,-1,1224,477,-0.160899,33.0137
7,547,4.97021,-44.3665,0,0,0,0,0,0,0,-1,1231,477,4.97026,44.3665
14,547,0,0,0,0,0,0,0,0,0,-1,1238,477,0,0
21,547,0,0,0,0,0,0,0,0,0,-1,1245,477,0,0
28,547,0,0,0,0,0,0,0,0,0,-1,1252,477,0,0
35,547,0,0,0,0,0,0,0,0,0,-1,1259,477,0,0
42,547,0,0,0,0,0,0,0,0,0,-1,1266,477,0,0
49,547,0,0,0,0,0,0,0,0,0,-1,1273,477,0,0
56,547,0,0,0,0,0,0,0,0,0,-1,1280,477,0,0
63,547,0,0,0,0,0,0,0,0,0,-1,1287,477,0,0
70,547,0,0,0,0,0,0,0,0,0,-1,1294,477,0,0
77,547,0,0,0,0,0,0,0,0,0,-1,1301,477,0,0
84,547,0,0,0,0,0,0,0,0,0,-1,1308,477,0,0
91,547,0,0,0,0,0,0,0,0,0,-1,1315,477,0,0
98,547,0,0,0,0,0,0,0,0,0,-1,1322,477,0,0
105,547,3.91467,-42.3568,0,0,0,0,0,0,0,-1,1329,477,3.91471,42.3567
112,547,6.25232,-39.3574,0,0,0,0,0,0,0,-1,1336,477,6.25238,39.3574
119,547,6.28149,-39.6014,0,0,0,0,0,0,0,-1,1343,477,6.2815,39.6014
126,547,5.63892,-27.3142,0,0,0,0,0,0,0,-1,1350,477,5.63896,27.3142
133,547,6.35803,-28.3137,0,0,0,0,0,0,0,-1,1357,477,6.35804,28.3137
140,547,7.08582,-29.3252,0,0,0,0,0,0,0,-1,1364,477,7.08587,29.3252
147,547,7.78662,-30.3904,0,0,0,0,0,0,0,-1,1371,477,7.78667,30.3903
154,547,10.1906,-30.7652,0,0,0,0,0,0,0,-1,1378,477,10.1906,30.7652
161,547,10.8639,-30.8779,0,0,0,0,0,0,0,-1,1385,477,10.8639,30.8779
168,547,13.4181,-26.3557,0,0,0,0,0,0,0,-1,1392,477,13.4181,26.3557
175,547,3.35034,-0.26532,0,0,0,0,0,0,0,-1,1399,477,3.3503,0.265306
182,547,4.26038,3.72672,0,0,0,0,0,0,0,-1,1406,477,4.26039,-3.7267
189,547,3.40454,1.28671,0,0,0,0,0,0,0,-1,1413,477,3.40457,-1.28673
196,547,3.53931,1.87793,0,0,0,0,0,0,0,-1,1420,477,3.53928,-1.87794
203,547,6.49414,-0.425842,0,0,0,0,0,0,0,-1,1427,477,6.4941,0.425844
210,547,4.82092,0.53595,0,0,0,0,0,0,0,-1,1434,477,4.82096,-0.535942
217,547,4.68579,0.480072,0,0,0,0,0,0,0,-1,1441,477,4.68577,-0.480069
224,547,4.55615,0.739807,0,0,0,0,0,0,0,-1,1448,477,4.55613,-0.73981
231,547,5.90869,-3.57721,0,0,0,0,0,0,0,-1,1455,477,5.90871,3.57722
238,547,5.50049,-3.15356,0,0,0,0,0,0,0,-1,1462,477,5.50045,3.15356
245,547,5.13708,-2.65213,0,0,0,0,0,0,0,-1,1469,477,5.13708,2.65212
252,547,3.73511,-0.645233,0,0,0,0,0,0,0,-1,1476,477,3.73515,0.645237
259,547,5.86816,-3.20816,0,0,0,0,0,0,0,-1,1483,477,5.86815,3.20816
266,547,5.40222,-2.45731,0,0,0,0,0,0,0,-1,1490,477,5.40221,2.45732
273,547,3.05737,0.495789,0,0,0,0,0,0,0,-1,1497,477,3.05742,-0.49578
280,547,2.0885,1.47797,0,0,0,0,0,0,0,-1,1504,477,2.08848,-1.47795
287,547,2.31177,-2.21716,0,0,0,0,0,0,0,-1,1511,477,2.31174,2.21717
294,547,2.4823,-3.03659,0,0,0,0,0,0,0,-1,1518,477,2.48229,3.0366
301,547,4.72119,-3.93454,0,0,0,0,0,0,0,-1,1525,477,4.72119,3.93453
308,547,4.07471,-5.42175,0,0,0,0,0,0,0,-1,1532,477,4.07468,5.42174
315,547,3.58496,-6.62112,0,0,0,0,0,0,0,-1,1539,477,3.58497,6.62113
322,547,5.73926,-14.1878,0,0,0,0,0,0,0,-1,1546,477,5.73926,14.1878
329,547,9.33008,-27.6941,0,0,0,0,0,0,0,-1,1553,477,9.33002,27.6941
336,547,9.4165,-27.6553,0,0,0,0,0,0,0,-1,1560,477,9.41651,27.6553
343,547,9.63892,-27.1763,-0.000615378,-0.00766736,-0.00531323,0.00223538,-0.0105181,-0.492451,0.00786384,0.0494593,1567,477,9.63892,27.1763
350,547,9.5271,-26.6222,-0.00096763,-0.00669313,-0.0048579,0.00180829,-0.00946904,-0.519142,0.00699382,0.0290195,1574,477,9.52715,26.6222
357,547,9.505,-26.1523,-0.00116178,-0.00546826,-0.00428136,0.00147732,-0.00810735,-0.552402,0.0059587,0.0154253,1581,477,9.50501,26.1522
364,547,9.48621,-25.6852,-0.00111682,-0.00442289,-0.00356078,0.00115592,-0.00669563,-0.568085,0.00489477,0.010581,1588,477,9.48618,25.6853
371,547,9.50525,-25.2102,-0.000845063,-0.00341745,-0.00278861,0.000939674,-0.00520219,-0.56932,0.00382007,0.00902128,1595,477,9.50522,25.2102
378,547,9.5105,-24.7499,-0.000523899,-0.00232009,-0.00203998,0.000806929,-0.00365092,-0.578041,0.00274278,0.0100988,1602,477,9.51051,24.7499
385,547,9.49561,-24.2711,-0.000226191,-0.00111636,-0.00122787,0.000634772,-0.00197732,-0.611521,0.00157309,0.010698,1609,477,9.49555,24.271
392,547,9.49121,-23.7697,-1.00459e-05,-7.69917e-05,-0.000524393,0.000481941,-0.000568979,-0.753525,0.000607442,0.0104085,1616,477,9.49116,23.7697
399,547,9.4812,-23.2721,0.000198995,0.000803427,0.000156478,0.000841534,0.000160888,1.33192,0.000515826,0.0127546,1623,477,9.48123,23.2721
406,547,9.47705,-22.7716,0.000301147,0.00178385,0.000771019,0.00211211,-2.71144e-05,1.16829,0.0014172,0.0128806,1630,477,9.47704,22.7716
413,547,9.46252,-22.2554,0.000318813,0.0027879,0.00138791,0.00341088,-0.000304166,1.14889,0.00238179,0.0123007,1637,477,9.46247,22.2554
420,547,9.45667,-21.7718,0.000283756,0.00352989,0.00196137,0.00445267,-0.00063902,1.13105,0.00320277,0.0143944,1644,477,9.45672,21.7718
427,547,9.44482,-21.2517,0.000177861,0.00406975,0.00247167,0.00526957,-0.00102196,1.11887,0.00389861,0.0138387,1651,477,9.44484,21.2518
434,547,9.40295,-20.7502,9.9153e-05,0.00447623,0.00294593,0.00595759,-0.00138221,1.10487,0.00450373,0.00948865,1658,477,9.40291,20.7502
441,547,9.37317,-20.2493,-1.16371e-05,0.0046375,0.0034549,0.00647706,-0.0018512,1.08153,0.00504951,0.0104304,1665,477,9.37318,20.2493
448,547,9.34521,-19.6986,-0.000252003,0.00475085,0.00394464,0.00692033,-0.00242148,1.06797,0.00559809,0.0114309,1672,477,9.34524,19.6986
455,547,9.3302,-19.1582,-0.000440636,0.0045699,0.00439138,0.00712039,-0.00299112,1.04462,0.00599795,0.0116699,1679,477,9.33022,19.1582
462,547,9.29199,-18.6152,-0.000701669,0.00412575,0.0048403,0.00712078,-0.0036967,1.01669,0.00634891,0.0117511,1686,477,9.29205,18.6152
469,547,9.22498,-18.0375,-0.00138398,0.00319181,0.00519262,0.00657822,-0.00477039,0.992905,0.00657978,0.0193174,1693,477,9.22501,18.0375
476,547,9.21497,-17.3542,-0.00276624,0.00164924,0.0054327,0.00530566,-0.00642266,0.978395,0.00678158,0.0356218,1700,477,9.21501,17.3542
483,547,9.24744,-16.6472,0,0,0,0,0,0,0,-1,1707,477,9.2474,16.6473
490,547,3.65271,-3.71707,0,0,0,0,0,0,0,-1,1714,477,3.65277,3.71708
497,547,2.55481,-3.81421,0,0,0,0,0,0,0,-1,1721,477,2.55476,3.8142
504,547,4.01953,-2.22714,0,0,0,0,0,0,0,-1,1728,477,4.0195,2.22713
511,547,5.2146,-6.9552,0,0,0,0,0,0,0,-1,1735,477,5.21464,6.95521
518,547,5.24243,-6.56122,0,0,0,0,0,0,0,-1,1742,477,5.24241,6.56121
525,547,5.89368,-5.49866,0,0,0,0,0,0,0,-1,1749,477,5.89372,5.49866
532,547,0,0,0,0,0,0,0,0,0,-1,1756,477,0,0
539,547,0,0,0,0,0,0,0,0,0,-1,1763,477,0,0
546,547,0,0,0,0,0,0,0,0,0,-1,1770,477,0,0
553,547,0,0,0,0,0,0,0,0,0,-1,1777,477,0,0
560,547,0,0,0,0,0,0,0,0,0,-1,1784,477,0,0
567,547,0,0,0,0,0,0,0,0,0,-1,1791,477,0,0
574,547,0,0,0,0,0,0,0,0,0,-1,1798,477,0,0
581,547,0,0,0,0,0,0,0,0,0,-1,1805,477,0,0
588,547,0,0,0,0,0,0,0,0,0,-1,1812,477,0,0
595,547,0,0,0,0,0,0,0,0,0,-1,1819,477,0,0
602,547,0,0,0,0,0,0,0,0,0,-1,1826,477,0,0
609,547,0,0,0,0,0,0,0,0,0,-1,1833,477,0,0
616,547,0,0,0,0,0,0,0,0,0,-1,1840,477,0,0
623,547,0,0,0,0,0,0,0,0,0,-1,1847,477,0,0
630,547,0,0,0,0,0,0,0,0,0,-1,1854,477,0,0
637,547,0,0,0,0,0,0,0,0,0,-1,1861,477,0,0
644,547,0,0,0,0,0,0,0,0,0,-1,1868,477,0,0
651,547,0,0,0,0,0,0,0,0,0,-1,1875,477,0,0
658,547,0,0,0,0,0,0,0,0,0,-1,1882,477,0,0
665,547,0,0,0,0,0,0,0,0,0,-1,1889,477,0,0
672,547,0,0,0,0,0,0,0,0,0,-1,1896,477,0,0
679,547,0,0,0,0,0,0,0,0,0,-1,1903,477,0,0
686,547,0,0,0,0,0,0,0,0,0,-1,1910,477,0,0
693,547,0,0,0,0,0,0,0,0,0,-1,1917,477,0,0
700,547,0,0,0,0,0,0,0,0,0,-1,1924,477,0,0
707,547,0,0,0,0,0,0,0,0,0,-1,1931,477,0,0
714,547,0,0,0,0,0,0,0,0,0,-1,1938,477,0,0
721,547,0,0,0,0,0,0,0,0,0,-1,1945,477,0,0
728,547,0,0,0,0,0,0,0,0,0,-1,1952,477,0,0
735,547,0,0,0,0,0,0,0,0,0,-1,1959,477,0,0
742,547,0,0,0,0,0,0,0,0,0,-1,1966,477,0,0
749,547,0,0,0,0,0,0,0,0,0,-1,1973,477,0,0
756,547,0,0,0,0,0,0,0,0,0,-1,1980,477,0,0
763,547,0,0,0,0,0,0,0,0,0,-1,1987,477,0,0
770,547,0,0,0,0,0,0,0,0,0,-1,1994,477,0,0
777,547,0,0,0,0,0,0,0,0,0,-1,2001,477,0,0
784,547,0,0,0,0,0,0,0,0,0,-1,2008,477,0,0
791,547,0,0,0,0,0,0,0,0,0,-1,2015,477,0,0
798,547,0,0,0,0,0,0,0,0,0,-1,2022,477,0,0
805,547,0,0,0,0,0,0,0,0,0,-1,2029,477,0,0
812,547,0,0,0,0,0,0,0,0,0,-1,2036,477,0,0
-700,540,0,0,0,0,0,0,0,0,0,-1,524,484,0,0
-693,540,0,0,0,0,0,0,0,0,0,-1,531,484,0,0
-686,540,0,0,0,0,0,0,0,0,0,-1,538,484,0,0
-679,540,0,0,0,0,0,0,0,0,0,-1,545,484,0,0
-672,540,0,0,0,0,0,0,0,0,0,-1,552,484,0,0
-665,540,0,0,0,0,0,0,0,0,0,-1,559,484,0,0
-658,540,0,0,0,0,0,0,0,0,0,-1,566,484,0,0
-651,540,0,0,0,0,0,0,0,0,0,-1,573,484,0,0
-644,540,0,0,0,0,0,0,0,0,0,-1,580,484,0,0
-637,540,0,0,0,0,0,0,0,0,0,-1,587,484,0,0
-630,540,0,0,0,0,0,0,0,0,0,-1,594,484,0,0
-623,540,0,0,0,0,0,0,0,0,0,-1,601,484,0,0
-616,540,0,0,0,0,0,0,0,0,0,-1,608,484,0,0
-609,540,0,0,0,0,0,0,0,0,0,-1,615,484,0,0
-602,540,0,0,0,0,0,0,0,0,0,-1,622,484,0,0
-595,540,0,0,0,0,0,0,0,0,0,-1,629,484,0,0
-588,540,0,0,0,0,0,0,0,0,0,-1,636,484,0,0
-581,540,0,0,0,0,0,0,0,0,0,-1,643,484,0,0
-574,540,0,0,0,0,0,0,0,0,0,-1,650,484,0,0
-567,540,0,0,0,0,0,0,0,0,0,-1,657,484,0,0
-560,540,0,0,0,0,0,0,0,0,0,-1,664,484,0,0
-553,540,0,0,0,0,0,0,0,0,0,-1,671,484,0,0
-546,540,0,0,0,0,0,0,0,0,0,-1,678,484,0,0
-539,540,0,0,0,0,0,0,0,0,0,-1,685,484,0,0
-532,540,0,0,0,0,0,0,0,0,0,-1,692,484,0,0
-525,540,0,0,0,0,0,0,0,0,0,-1,699,484,0,0
-518,540,0,0,0,0,0,0,0,0,0,-1,706,484,0,0
-511,540,0,0,0,0,0,0,0,0,0,-1,713,484,0,0
-504,540,0,0,0,0,0,0,0,0,0,-1,720,484,0,0
-497,540,0,0,0,0,0,0,0,0,0,-1,727,484,0,0
-490,540,0,0,0,0,0,0,0,0,0,-1,734,484,0,0
-483,540,0,0,0,0,0,0,0,0,0,-1,741,484,0,0
-476,540,0,0,0,0,0,0,0,0,0,-1,748,484,0,0
-469,540,0,0,0,0,0,0,0,0,0,-1,755,484,0,0
-462,540,0,0,0,0,0,0,0,0,0,-1,762,484,0,0
-455,540,0,0,0,0,0,0,0,0,0,-1,769,484,0,0
-448,540,0,0,0,0,0,0,0,0,0,-1,776,484,0,0
-441,540,0,0,0,0,0,0,0,0,0,-1,783,484,0,0
-434,540,0,0,0,0,0,0,0,0,0,-1,790,484,0,0
-427,540,0,0,0,0,0,0,0,0,0,-1,797,484,0,0
-420,540,0.227051,-10.0402,0,0,0,0,0,0,0,-1,804,484,0.227063,10.0402
-413,540,-0.0393677,-10.3862,0,0,0,0,0,0,0,-1,811,484,-0.0393683,10.3862
-406,540,-0.518372,-11.5288,0,0,0,0,0,0,0,-1,818,484,-0.518402,11.5288
-399,540,0.0863037,-11.3801,0,0,0,0,0,0,0,-1,825,484,0.0863201,11.3801
-392,540,-0.517395,-10.6735,0,0,0,0,0,0,0,-1,832,484,-0.517377,10.6735
-385,540,-2.29407,-5.03418,0,0,0,0,0,0,0,-1,839,484,-2.29408,5.03418
-378,540,1.06445,-10.5824,0,0,0,0,0,0,0,-1,846,484,1.06446,10.5824
-371,540,1.14825,-10.7452,0,0,0,0,0,0,0,-1,853,484,1.14827,10.7452
-364,540,0.531067,-17.0553,0,0,0,0,0,0,0,-1,860,484,0.531086,17.0553
-357,540,0.394775,-17.846,-0.00626897,0.0236988,-0.00418036,0.0242711,-0.00684119,-1.43476,0.0188789,0.0485806,867,484,0.394789,17.846
-350,540,0.250671,-18.3923,-0.00539069,0.0192798,-0.00329145,0.0197114,-0.00582227,-1.44042,0.0154518,0.0354974,874,484,0.250669,18.3923
-343,540,0.17981,-19.1902,-0.00454101,0.0158581,-0.00276854,0.0162271,-0.00491007,-1.43827,0.0127733,0.0196017,881,484,0.179819,19.1902
-336,540,0.135376,-19.8568,-0.00369945,0.0130639,-0.00238443,0.0133965,-0.00403202,-1.43222,0.0105354,0.0133783,888,484,0.135355,19.8568
-329,540,0.119995,-20.3434,-0.00298324,0.0102567,-0.0019708,0.0105439,-0.00327037,-1.42612,0.00833602,0.0106817,895,484,0.120011,20.3435
-322,540,0.0882568,-20.8418,-0.00215026,0.00791757,-0.00185315,0.00824784,-0.00248053,-1.39443,0.0064855,0.0146678,902,484,0.0882649,20.8418
-315,540,0.0709229,-21.3739,-0.00139623,0.00624553,-0.00167624,0.00659705,-0.00174774,-1.36409,0.0050818,0.0130142,909,484,0.0709253,21.3739
-308,540,0.0861206,-21.8679,-0.000828997,0.00493165,-0.0015007,0.00529915,-0.0011965,-1.33064,0.00399183,0.0121882,916,484,0.0861088,21.8679
-301,540,0.0402222,-22.3429,-0.000371526,0.0034132,-0.00126812,0.00379881,-0.000757138,-1.2756,0.00281902,0.0124722,923,484,0.0402486,22.3429
-294,540,0.0338135,-22.8255,8.6515e-05,0.00214582,-0.000867325,0.00246244,-0.0002301,-1.22078,0.00172345,0.0110698,930,484,0.0338387,22.8255
-287,540,0.0467529,-23.3158,0.00047967,0.00101287,-0.000421306,0.00124484,0.000247697,-1.06749,0.000760888,0.00843124,937,484,0.0467467,23.3158
-280,540,0.0291748,-23.8057,0.000719891,2.85568e-05,4.71702e-05,0.000723095,2.53532e-05,0.0678118,0.000473838,0.010142,944,484,0.0291488,23.8057
-273,540,0.0153198,-24.274,0.000910045,-0.00092019,0.000620315,0.00110047,-0.00111062,0.297853,0.00127658,0.0123234,951,484,0.0153339,24.274
-266,540,0.00274658,-24.7493,0.00132351,-0.00207364,0.00139559,0.0018233,-0.00257343,0.343894,0.00255074,0.0130352,958,484,0.00275086,24.7493
-259,540,-0.0136108,-25.2143,0.00202897,-0.00345385,0.00198141,0.00267007,-0.00409494,0.312923,0.00393455,0.0121785,965,484,-0.0136086,25.2143
-252,540,-0.00189209,-25.6427,0.00252704,-0.00544368,0.00277232,0.00339645,-0.00631309,0.303892,0.00568949,0.0121198,972,484,-0.00191724,25.6427
-245,540,0.0105591,-26.0951,0.00332003,-0.00744256,0.00367262,0.00445384,-0.00857637,0.299435,0.00764747,0.0117802,979,484,0.0105592,26.0951
-238,540,0.00384521,-26.5326,0.00457734,-0.0099264,0.00443441,0.00582568,-0.0111747,0.274411,0.00997583,0.00952966,986,484,0.00383108,26.5326
-231,540,0.003479,-26.9549,0.0060053,-0.0127161,0.00525666,0.0073803,-0.0140911,0.25584,0.0125967,0.0153337,993,484,0.0035038,26.9549
-224,540,-6.10352e-05,-27.3372,0.00745479,-0.0161428,0.00635213,0.00905604,-0.0177441,0.246935,0.0157417,0.0279684,1000,484,-6.40726e-05,27.3372
-217,540,0.017334,-27.5329,0.0107715,-0.0197685,0.00844632,0.0129518,-0.0219488,0.252622,0.0203718,0.0404955,1007,484,0.017309,27.5329
-210,540,0.443726,-27.8049,0.015597,-0.0245511,0.00990356,0.017907,-0.0268611,0.229157,0.0260187,0.047813,1014,484,0.443721,27.8049
-203,540,0.369568,-28.1293,0,0,0,0,0,0,0,-1,1021,484,0.369574,28.1293
-196,540,-0.143799,-26.0272,0,0,0,0,0,0,0,-1,1028,484,-0.143848,26.0272
-189,540,-0.726807,-22.826,0,0,0,0,0,0,0,-1,1035,484,-0.72684,22.8259
-182,540,0.109375,-15.2948,0,0,0,0,0,0,0,-1,1042,484,0.109331,15.2948
-175,540,1.73413,-10.728,0,0,0,0,0,0,0,-1,1049,484,1.73414,10.728
-168,540,1.18164,-7.65347,0,0,0,0,0,0,0,-1,1056,484,1.18163,7.65347
-161,540,-0.405884,-9.86481,0,0,0,0,0,0,0,-1,1063,484,-0.405886,9.8648
-154,540,1.96863,-22.0727,0,0,0,0,0,0,0,-1,1070,484,1.96859,22.0727
-147,540,1.32764,-21.9952,0,0,0,0,0,0,0,-1,1077,484,1.32762,21.9952
-140,540,1.40735,-15.6289,0,0,0,0,0,0,0,-1,1084,484,1.4073,15.6289
-133,540,2.28345,-17.6413,0,0,0,0,0,0,0,-1,1091,484,2.2835,17.6413
-126,540,1.25293,-23.9108,0,0,0,0,0,0,0,-1,1098,484,1.25288,23.9108
-119,540,1.55969,-23.0125,0,0,0,0,0,0,0,-1,1105,484,1.55968,23.0125
-112,540,1.4801,-21.6515,0,0,0,0,0,0,0,-1,1112,484,1.4801,21.6515
-105,540,1.30078,-19.8938,0,0,0,0,0,0,0,-1,1119,484,1.30077,19.8938
-98,540,1.08105,-18.1304,0,0,0,0,0,0,0,-1,1126,484,1.08101,18.1304
-91,540,1.56519,-7.48666,0,0,0,0,0,0,0,-1,1133,484,1.56514,7.48667
-84,540,-0.945923,4.43073,0,0,0,0,0,0,0,-1,1140,484,-0.945891,-4.43074
-77,540,-2.28894,2.14368,0,0,0,0,0,0,0,-1,1147,484,-2.28894,-2.14368
-70,540,-3.75244,-0.452576,0,0,0,0,0,0,0,-1,1154,484,-3.75244,0.452576
-63,540,-5.26257,-3.04767,0,0,0,0,0,0,0,-1,1161,484,-5.26262,3.04766
-56,540,-5.19055,-6.12595,0,0,0,0,0,0,0,-1,1168,484,-5.19057,6.12595
-49,540,-5.63867,-8.52298,0,0,0,0,0,0,0,-1,1175,484,-5.63871,8.52298
-42,540,0,0,0,0,0,0,0,0,0,-1,1182,484,0,0
-35,540,0,0,0,0,0,0,0,0,0,-1,1189,484,0,0
-28,540,0,0,0,0,0,0,0,0,0,-1,1196,484,0,0
-21,540,0,0,0,0,0,0,0,0,0,-1,1203,484,0,0
-14,540,0,0,0,0,0,0,0,0,0,-1,1210,484,0,0
-7,540,0,0,0,0,0,0,0,0,0,-1,1217,484,0,0
0,540,0,0,0,0,0,0,0,0,0,-1,1224,484,0,0
7,540,0,0,0,0,0,0,0,0,0,-1,1231,484,0,0
14,540,0,0,0,0,0,0,0,0,0,-1,1238,484,0,0
21,540,0,0,0,0,0,0,0,0,0,-1,1245,484,0,0
28,540,0,0,0,0,0,0,0,0,0,-1,1252,484,0,0
35,540,0,0,0,0,0,0,0,0,0,-1,1259,484,0,0
42,540,0,0,0,0,0,0,0,0,0,-1,1266,484,0,0
49,540,0,0,0,0,0,0,0,0,0,-1,1273,484,0,0
56,540,0,0,0,0,0,0,0,0,0,-1,1280,484,0,0
63,540,0,0,0,0,0,0,0,0,0,-1,1287,484,0,0
70,540,0,0,0,0,0,0,0,0,0,-1,1294,484,0,0
77,540,0,0,0,0,0,0,0,0,0,-1,1301,484,0,0
84,540,0,0,0,0,0,0,0,0,0,-1,1308,484,0,0
91,540,0,0,0,0,0,0,0,0,0,-1,1315,484,0,0
98,540,0,0,0,0,0,0,0,0,0,-1,1322,484,0,0
105,540,0,0,0,0,0,0,0,0,0,-1,1329,484,0,0
112,540,0,0,0,0,0,0,0,0,0,-1,1336,484,0,0
119,540,0,0,0,0,0,0,0,0,0,-1,1343,484,0,0
126,540,0,0,0,0,0,0,0,0,0,-1,1350,484,0,0
133,540,0,0,0,0,0,0,0,0,0,-1,1357,484,0,0
140,540,0,0,0,0,0,0,0,0,0,-1,1364,484,0,0
147,540,0,0,0,0,0,0,0,0,0,-1,1371,484,0,0
154,540,0,0,0,0,0,0,0,0,0,-1,1378,484,0,0
161,540,0,0,0,0,0,0,0,0,0,-1,1385,484,0,0
168,540,3.05078,-0.0010376,0,0,0,0,0,0,0,-1,1392,484,3.05084,0.00102554
175,540,3.37708,0.617035,0,0,0,0,0,0,0,-1,1399,484,3.37707,-0.617046
182,540,3.32678,1.23267,0,0,0,0,0,0,0,-1,1406,484,3.32678,-1.23266
189,540,3.5813,2.15619,0,0,0,0,0,0,0,-1,1413,484,3.58129,-2.1562
196,540,1.84448,-0.801483,0,0,0,0,0,0,0,-1,1420,484,1.84446,0.80148
203,540,4.14648,0.702087,0,0,0,0,0,0,0,-1,1427,484,4.14645,-0.702089
210,540,4.50671,-0.56076,0,0,0,0,0,0,0,-1,1434,484,4.50667,0.560771
217,540,5.00452,-0.278717,0,0,0,0,0,0,0,-1,1441,484,5.00452,0.278709
224,540,6.44458,-2.83527,0,0,0,0,0,0,0,-1,1448,484,6.44457,2.83525
231,540,6.9231,-3.10504,0,0,0,0,0,0,0,-1,1455,484,6.92307,3.10505
238,540,6.4823,-2.58365,0,0,0,0,0,0,0,-1,1462,484,6.48225,2.58363
245,540,6.02087,-1.97916,0,0,0,0,0,0,0,-1,1469,484,6.02088,1.97915
252,540,6.50647,-3.56006,0,0,0,0,0,0,0,-1,1476,484,6.50649,3.56006
259,540,6.01941,-2.798,0,0,0,0,0,0,0,-1,1483,484,6.01941,2.79801
266,540,5.5332,-2.02853,0,0,0,0,0,0,0,-1,1490,484,5.53323,2.02855
273,540,5.06787,-1.28137,0,0,0,0,0,0,0,-1,1497,484,5.06786,1.28136
280,540,1.62903,-2.14609,0,0,0,0,0,0,0,-1,1504,484,1.62906,2.1461
287,540,1.97156,-2.45053,0,0,0,0,0,0,0,-1,1511,484,1.97159,2.45053
294,540,2.44165,-2.6185,0,0,0,0,0,0,0,-1,1518,484,2.44167,2.6185
301,540,4.36169,-2.54272,0,0,0,0,0,0,0,-1,1525,484,4.36165,2.54272
308,540,4.2019,-4.30469,0,0,0,0,0,0,0,-1,1532,484,4.20193,4.3047
315,540,4.45923,-5.32101,0,0,0,0,0,0,0,-1,1539,484,4.45923,5.32103
322,540,4.71655,-6.33737,0,0,0,0,0,0,0,-1,1546,484,4.71653,6.33736
329,540,5.8949,-12.9383,0,0,0,0,0,0,0,-1,1553,484,5.89492,12.9383
336,540,7.16467,-17.7826,0,0,0,0,0,0,0,-1,1560,484,7.16469,17.7826
343,540,10.3373,-27.4263,0,0,0,0,0,0,0,-1,1567,484,10.3373,27.4263
350,540,9.96521,-26.7171,0,0,0,0,0,0,0,-1,1574,484,9.96525,26.7171
357,540,10.0704,-25.8903,-0.00249588,-0.00772544,-0.00616039,0.00158169,-0.011803,-0.584696,0.00844542,0.0385976,1581,484,10.0705,25.8903
364,540,9.92737,-25.587,-0.00218835,-0.00643937,-0.00523098,0.00133246,-0.00996018,-0.592422,0.00712592,0.0214999,1588,484,9.92735,25.587
371,540,9.94702,-25.169,-0.00161892,-0.00516337,-0.00424015,0.00120447,-0.00798675,-0.587451,0.00576806,0.0145244,1595,484,9.947,25.169
378,540,9.98059,-24.7126,-0.00099529,-0.00377019,-0.00328014,0.00117877,-0.00594424,-0.585317,0.0044086,0.0124828,1602,484,9.98054,24.7127
385,540,9.96936,-24.2444,-0.000412204,-0.00244907,-0.00222803,0.00101913,-0.0038804,-0.571027,0.0029852,0.013079,1609,484,9.96931,24.2444
392,540,9.94849,-23.7582,-1.67107e-05,-0.00124841,-0.00137343,0.000872627,-0.00213775,-0.574636,0.00178847,0.0114737,1616,484,9.94854,23.7582
399,540,9.93518,-23.2867,0.000281505,-0.000307925,-0.000629543,0.000681902,-0.000708323,-0.56648,0.000802695,0.015937,1623,484,9.93524,23.2867
406,540,9.94116,-22.7903,0.000483163,0.000693519,2.73482e-05,0.000697016,0.000479666,1.4436,0.000411812,0.0168151,1630,484,9.94115,22.7903
413,540,9.9519,-22.2446,0.000622368,0.00173333,0.000692604,0.00206569,0.000290009,1.12338,0.00129136,0.0137181,1637,484,9.9519,22.2446
420,540,9.95422,-21.7509,0.000680953,0.00250706,0.00129822,0.00318115,6.86094e-06,1.09187,0.00211849,0.0123497,1644,484,9.95423,21.7509
427,540,9.93079,-21.238,0.000575469,0.00303716,0.00176273,0.00395624,-0.000343613,1.09018,0.00275917,0.0125983,1651,484,9.93074,21.238
434,540,9.92456,-20.7218,0.000469574,0.00337507,0.00217285,0.00453608,-0.00069144,1.08007,0.00327893,0.0150147,1658,484,9.92453,20.7218
441,540,9.92358,-20.2047,0.000350638,0.00349657,0.00260982,0.0049708,-0.00112359,1.0566,0.003745,0.01967,1665,484,9.92353,20.2047
448,540,9.87231,-19.6936,0.000147571,0.00360399,0.00304514,0.00537715,-0.00162559,1.0435,0.00423201,0.012165,1672,484,9.87228,19.6936
455,540,9.84705,-19.1483,-1.53457e-05,0.0034816,0.00343578,0.00558822,-0.00212196,1.02077,0.00459898,0.0106513,1679,484,9.84702,19.1483
462,540,9.80176,-18.598,-0.000252691,0.00311627,0.0038232,0.00560963,-0.00274604,0.992901,0.00491768,0.0108325,1686,484,9.80177,18.598
469,540,9.76099,-18.044,-0.000889919,0.00231101,0.00411822,0.00512882,-0.00370773,0.970732,0.00512373,0.0138083,1693,484,9.76093,18.044
476,540,9.74158,-17.4976,-0.00218237,0.000985342,0.00429993,0.00398385,-0.00518088,0.961859,0.00530628,0.0190136,1700,484,9.74159,17.4976
483,540,9.79004,-16.9216,-0.00351731,-0.000530235,0.00441039,0.00263264,-0.00668018,0.948658,0.00554345,0.0340978,1707,484,9.79003,16.9216
490,540,9.95874,-16.2713,0,0,0,0,0,0,0,-1,1714,484,9.95878,16.2713
497,540,9.70605,-15.4259,0,0,0,0,0,0,0,-1,1721,484,9.70602,15.4259
504,540,5.96704,-6.98599,0,0,0,0,0,0,0,-1,1728,484,5.96708,6.98598
511,540,5.82471,-6.83521,0,0,0,0,0,0,0,-1,1735,484,5.82465,6.83522
518,540,9.98181,-12.4608,0,0,0,0,0,0,0,-1,1742,484,9.98187,12.4608
525,540,11.2628,-13.8818,0,0,0,0,0,0,0,-1,1749,484,11.2629,13.8818
532,540,2.84265,-1.07925,0,0,0,0,0,0,0,-1,1756,484,2.84269,1.07927
539,540,0,0,0,0,0,0,0,0,0,-1,1763,484,0,0
546,540,0,0,0,0,0,0,0,0,0,-1,1770,484,0,0
553,540,0,0,0,0,0,0,0,0,0,-1,1777,484,0,0
560,540,0,0,0,0,0,0,0,0,0,-1,1784,484,0,0
567,540,0,0,0,0,0,0,0,0,0,-1,1791,484,0,0
574,540,0,0,0,0,0,0,0,0,0,-1,1798,484,0,0
581,540,0,0,0,0,0,0,0,0,0,-1,1805,484,0,0
588,540,0,0,0,0,0,0,0,0,0,-1,1812,484,0,0
595,540,0,0,0,0,0,0,0,0,0,-1,1819,484,0,0
602,540,0,0,0,0,0,0,0,0,0,-1,1826,484,0,0
609,540,0,0,0,0,0,0,0,0,0,-1,1833,484,0,0
616,540,0,0,0,0,0,0,0,0,0,-1,1840,484,0,0
623,540,0,0,0,0,0,0,0,0,0,-1,1847,484,0,0
630,540,0,0,0,0,0,0,0,0,0,-1,1854,484,0,0
637,540,0,0,0,0,0,0,0,0,0,-1,1861,484,0,0
644,540,0,0,0,0,0,0,0,0,0,-1,1868,484,0,0
651,540,0,0,0,0,0,0,0,0,0,-1,1875,484,0,0
658,540,0,0,0,0,0,0,0,0,0,-1,1882,484,0,0
665,540,0,0,0,0,0,0,0,0,0,-1,1889,484,0,0
672,540,0,0,0,0,0,0,0,0,0,-1,1896,484,0,0
679,540,0,0,0,0,0,0,0,0,0,-1,1903,484,0,0
686,540,0,0,0,0,0,0,0,0,0,-1,1910,484,0,0
693,540,0,0,0,0,0,0,0,0,0,-1,1917,484,0,0
700,540,0,0,0,0,0,0,0,0,0,-1,1924,484,0,0
707,540,0,0,0,0,0,0,0,0,0,-1,1931,484,0,0
714,540,0,0,0,0,0,0,0,0,0,-1,1938,484,0,0
721,540,0,0,0,0,0,0,0,0,0,-1,1945,484,0,0
728,540,0,0,0,0,0,0,0,0,0,-1,1952,484,0,0
735,540,0,0,0,0,0,0,0,0,0,-1,1959,484,0,0
742,540,0,0,0,0,0,0,0,0,0,-1,1966,484,0,0
749,540,0,0,0,0,0,0,0,0,0,-1,1973,484,0,0
756,540,0,0,0,0,0,0,0,0,0,-1,1980,484,0,0
763,540,0,0,0,0,0,0,0,0,0,-1,1987,484,0,0
770,540,0,0,0,0,0,0,0,0,0,-1,1994,484,0,0
777,540,0,0,0,0,0,0,0,0,0,-1,2001,484,0,0
784,540,0,0,0,0,0,0,0,0,0,-1,2008,484,0,0
791,540,0,0,0,0,0,0,0,0,0,-1,2015,484,0,0
798,540,0,0,0,0,0,0,0,0,0,-1,2022,484,0,0
805,540,0,0,0,0,0,0,0,0,0,-1,2029,484,0,0
812,540,0,0,0,0,0,0,0,0,0,-1,2036,484,0,0
-700,533,0,0,0,0,0,0,0,0,0,-1,524,491,0,0
-693,533,0,0,0,0,0,0,0,0,0,-1,531,491,0,0
-686,533,0,0,0,0,0,0,0,0,0,-1,538,491,0,0
-679,533,0,0,0,0,0,0,0,0,0,-1,545,491,0,0
-672,533,0,0,0,0,0,0,0,0,0,-1,552,491,0,0
-665,533,0,0,0,0,0,0,0,0,0,-1,559,491,0,0
-658,533,0,0,0,0,0,0,0,0,0,-1,566,491,0,0
-651,533,0,0,0,0,0,0,0,0,0,-1,573,491,0,0
-644,533,0,0,0,0,0,0,0,0,0,-1,580,491,0,0
-637,533,0,0,0,0,0,0,0,0,0,-1,587,491,0,0
-630,533,0,0,0,0,0,0,0,0,0,-1,594,491,0,0
-623,533,0,0,0,0,0,0,0,0,0,-1,601,491,0,0
-616,533,0,0,0,0,0,0,0,0,0,-1,608,491,0,0
-609,533,0,0,0,0,0,0,0,0,0,-1,615,491,0,0
-602,533,0,0,0,0,0,0,0,0,0,-1,622,491,0,0
-595,533,0,0,0,0,0,0,0,0,0,-1,629,491,0,0
-588,533,0,0,0,0,0,0,0,0,0,-1,636,491,0,0
-581,533,0,0,0,0,0,0,0,0,0,-1,643,491,0,0
-574,533,0,0,0,0,0,0,0,0,0,-1,650,491,0,0
-567,533,0,0,0,0,0,0,0,0,0,-1,657,491,0,0
-560,533,0,0,0,0,0,0,0,0,0,-1,664,491,0,0
-553,533,0,0,0,0,0,0,0,0,0,-1,671,491,0,0
-546,533,0,0,0,0,0,0,0,0,0,-1,678,491,0,0
-539,533,0,0,0,0,0,0,0,0,0,-1,685,491,0,0
-532,533,0,0,0,0,0,0,0,0,0,-1,692,491,0,0
-525,533,0,0,0,0,0,0,0,0,0,-1,699,491,0,0
-518,533,0,0,0,0,0,0,0,0,0,-1,706,491,0,0
-511,533,0,0,0,0,0,0,0,0,0,-1,713,491,0,0
-504,533,0,0,0,0,0,0,0,0,0,-1,720,491,0,0
-497,533,0,0,0,0,0,0,0,0,0,-1,727,491,0,0
-490,533,0,0,0,0,0,0,0,0,0,-1,734,491,0,0
-483,533,0,0,0,0,0,0,0,0,0,-1,741,491,0,0
-476,533,0,0,0,0,0,0,0,0,0,-1,748,491,0,0
-469,533,0,0,0,0,0,0,0,0,0,-1,755,491,0,0
-462,533,0,0,0,0,0,0,0,0,0,-1,762,491,0,0
-455,533,0,0,0,0,0,0,0,0,0,-1,769,491,0,0
-448,533,0,0,0,0,0,0,0,0,0,-1,776,491,0,0
-441,533,0,0,0,0,0,0,0,0,0,-1,783,491,0,0
-434,533,0,0,0,0,0,0,0,0,0,-1,790,491,0,0
-427,533,0.559814,-4.40222,0,0,0,0,0,0,0,-1,797,491,0.559816,4.40222
-420,533,-1.11127,-10.9054,0,0,0,0,0,0,0,-1,804,491,-1.11124,10.9054
-413,533,-0.704773,-11.0942,0,0,0,0,0,0,0,-1,811,491,-0.704742,11.0942
-406,533,-0.670898,-12.0899,0,0,0,0,0,0,0,-1,818,491,-0.670908,12.0899
-399,533,-0.455017,-12.4423,0,0,0,0,0,0,0,-1,825,491,-0.455032,12.4423
-392,533,-1.89661,-10.3905,0,0,0,0,0,0,0,-1,832,491,-1.89661,10.3905
-385,533,-1.69116,-6.64645,0,0,0,0,0,0,0,-1,839,491,-1.69115,6.64645
-378,533,1.11609,-15.5857,0,0,0,0,0,0,0,-1,846,491,1.11607,15.5857
-371,533,0.333557,-16.6751,0,0,0,0,0,0,0,-1,853,491,0.333571,16.6751
-364,533,-0.291626,-17.692,-0.00524032,0.0239365,-0.00508177,0.0247963,-0.00610008,-1.4032,0.0188953,0.041653,860,491,-0.291632,17.692
-357,533,-0.254456,-18.1122,-0.00458142,0.0193897,-0.00424934,0.0201207,-0.0053124,-1.40044,0.0154913,0.0250847,867,491,-0.254481,18.1122
-350,533,-0.242004,-18.7269,-0.00389348,0.0156316,-0.00335851,0.0161931,-0.00445503,-1.40513,0.0125469,0.015065,874,491,-0.242023,18.7269
-343,533,-0.299927,-19.3132,-0.00321036,0.0126121,-0.00274303,0.0130741,-0.00367241,-1.40392,0.0101638,0.0129058,881,491,-0.299953,19.3132
-336,533,-0.344666,-19.8492,-0.00256678,0.0101598,-0.00224393,0.0105439,-0.00295084,-1.40129,0.00819197,0.0155665,888,491,-0.344664,19.8492
-329,533,-0.35437,-20.3394,-0.00199625,0.00768847,-0.00173103,0.00798858,-0.00229635,-1.39914,0.00623378,0.0138813,895,491,-0.354352,20.3393
-322,533,-0.398804,-20.8294,-0.00130613,0.00568355,-0.00149042,0.00598809,-0.00161066,-1.36924,0.00462343,0.0124186,902,491,-0.398808,20.8294
-315,533,-0.42511,-21.3524,-0.000672502,0.00427213,-0.0012009,0.00454836,-0.000948732,-1.34471,0.00339299,0.0132945,909,491,-0.42508,21.3523
-308,533,-0.422913,-21.8445,-0.000189202,0.00316191,-0.000923374,0.00339949,-0.000426787,-1.31896,0.00242116,0.0121773,916,491,-0.422917,21.8446
-301,533,-0.469421,-22.3158,0.00016981,0.00182385,-0.000580114,0.00200702,-1.33648e-05,-1.26495,0.00134249,0.0134015,923,491,-0.469432,22.3158
-294,533,-0.458496,-22.7953,0.000560864,0.000721325,-0.000140129,0.000802566,0.000479623,-1.04539,0.000466296,0.0119994,930,491,-0.458517,22.7953
-287,533,-0.425232,-23.2921,0.000928054,-0.000302477,0.000327629,0.00100985,-0.000384271,0.244654,0.000831468,0.00976539,937,491,-0.425214,23.2921
-280,533,-0.439514,-23.7946,0.00114289,-0.00124084,0.000831288,0.00140415,-0.0015021,0.304513,0.00167824,0.00903367,944,491,-0.439524,23.7946
-273,533,-0.471069,-24.258,0.00130462,-0.00217033,0.00152338,0.00187788,-0.00274359,0.359919,0.00268377,0.0120829,951,491,-0.471053,24.258
-266,533,-0.468689,-24.7224,0.00176567,-0.00327652,0.00239761,0.00272372,-0.00423457,0.380149,0.00404882,0.011632,958,491,-0.468694,24.7224
-259,533,-0.4599,-25.1884,0.00256989,-0.00481152,0.00294595,0.00360147,-0.0058431,0.336824,0.00550378,0.0120239,965,491,-0.459889,25.1884
-252,533,-0.438599,-25.6134,0.00316868,-0.00718004,0.00373372,0.00437512,-0.00838649,0.312531,0.00748827,0.0153147,972,491,-0.438629,25.6134
-245,533,-0.498291,-26.0441,0.00416472,-0.00961462,0.00477657,0.00565856,-0.0111085,0.303106,0.00984942,0.0248912,979,491,-0.498296,26.0441
-238,533,-0.412109,-26.4371,0.00576774,-0.0126166,0.00563205,0.00735593,-0.0142048,0.274853,0.0126557,0.0331865,986,491,-0.412109,26.4371
-231,533,-0.25415,-26.7899,0,0,0,0,0,0,0,-1,993,491,-0.254133,26.7899
-224,533,-0.414307,-27.3405,0,0,0,0,0,0,0,-1,1000,491,-0.414295,27.3405
-217,533,-0.327698,-27.4627,0,0,0,0,0,0,0,-1,1007,491,-0.327668,27.4627
-210,533,0.546753,-27.7523,0,0,0,0,0,0,0,-1,1014,491,0.546764,27.7523
-203,533,-0.584229,-27.4276,0,0,0,0,0,0,0,-1,1021,491,-0.584252,27.4276
-196,533,0.688354,-19.5743,0,0,0,0,0,0,0,-1,1028,491,0.688406,19.5743
-189,533,-0.169189,-15.0303,0,0,0,0,0,0,0,-1,1035,491,-0.169241,15.0303
-182,533,1.26123,-11.4969,0,0,0,0,0,0,0,-1,1042,491,1.26128,11.4969
-175,533,0.937744,-7.36966,0,0,0,0,0,0,0,-1,1049,491,0.937769,7.36965
-168,533,2.64807,-2.7543,0,0,0,0,0,0,0,-1,1056,491,2.64812,2.7543
-161,533,1.91833,-1.76553,0,0,0,0,0,0,0,-1,1063,491,1.91836,1.76554
-154,533,0.376709,-11.0633,0,0,0,0,0,0,0,-1,1070,491,0.376715,11.0632
-147,533,0.383789,-12.1586,0,0,0,0,0,0,0,-1,1077,491,0.383829,12.1586
-140,533,1.14001,-15.4608,0,0,0,0,0,0,0,-1,1084,491,1.14005,15.4608
-133,533,0.189941,-16.0795,0,0,0,0,0,0,0,-1,1091,491,0.18994,16.0795
-126,533,2.89612,-2.59003,0,0,0,0,0,0,0,-1,1098,491,2.89608,2.59003
-119,533,1.78284,-22.5394,0,0,0,0,0,0,0,-1,1105,491,1.78279,22.5394
-112,533,1.83862,-21.2401,0,0,0,0,0,0,0,-1,1112,491,1.83859,21.24
-105,533,1.67554,-19.4018,0,0,0,0,0,0,0,-1,1119,491,1.6755,19.4018
-98,533,-1.39392,-5.16367,0,0,0,0,0,0,0,-1,1126,491,-1.39394,5.16367
-91,533,0.367432,4.49753,0,0,0,0,0,0,0,-1,1133,491,0.367468,-4.49754
-84,533,-0.88623,3.03604,0,0,0,0,0,0,0,-1,1140,491,-0.886288,-3.03605
-77,533,0,0,0,0,0,0,0,0,0,-1,1147,491,0,0
-70,533,0,0,0,0,0,0,0,0,0,-1,1154,491,0,0
-63,533,0,0,0,0,0,0,0,0,0,-1,1161,491,0,0
-56,533,0,0,0,0,0,0,0,0,0,-1,1168,491,0,0
-49,533,0,0,0,0,0,0,0,0,0,-1,1175,491,0,0
-42,533,0,0,0,0,0,0,0,0,0,-1,1182,491,0,0
-35,533,0,0,0,0,0,0,0,0,0,-1,1189,491,0,0
-28,533,0,0,0,0,0,0,0,0,0,-1,1196,491,0,0
-21,533,0,0,0,0,0,0,0,0,0,-1,1203,491,0,0
-14,533,0,0,0,0,0,0,0,0,0,-1,1210,491,0,0
-7,533,0,0,0,0,0,0,0,0,0,-1,1217,491,0,0
0,533,0,0,0,0,0,0,0,0,0,-1,1224,491,0,0
7,533,0,0,0,0,0,0,0,0,0,-1,1231,491,0,0
14,533,0,0,0,0,0,0,0,0,0,-1,1238,491,0,0
21,533,0,0,0,0,0,0,0,0,0,-1,1245,491,0,0
28,533,0,0,0,0,0,0,0,0,0,-1,1252,491,0,0
35,533,0,0,0,0,0,0,0,0,0,-1,1259,491,0,0
42,533,0,0,0,0,0,0,0,0,0,-1,1266,491,0,0
49,533,0,0,0,0,0,0,0,0,0,-1,1273,491,0,0
56,533,0,0,0,0,0,0,0,0,0,-1,1280,491,0,0
63,533,0,0,0,0,0,0,0,0,0,-1,1287,491,0,0
70,533,0,0,0,0,0,0,0,0,0,-1,1294,491,0,0
77,533,0,0,0,0,0,0,0,0,0,-1,1301,491,0,0
84,533,0,0,0,0,0,0,0,0,0,-1,1308,491,0,0
91,533,0,0,0,0,0,0,0,0,0,-1,1315,491,0,0
98,533,0,0,0,0,0,0,0,0,0,-1,1322,491,0,0
105,533,0,0,0,0,0,0,0,0,0,-1,1329,491,0,0
112,533,0,0,0,0,0,0,0,0,0,-1,1336,491,0,0
119,533,0,0,0,0,0,0,0,0,0,-1,1343,491,0,0
126,533,0,0,0,0,0,0,0,0,0,-1,1350,491,0,0
133,533,0,0,0,0,0,0,0,0,0,-1,1357,491,0,0
140,533,0,0,0,0,0,0,0,0,0,-1,1364,491,0,0
147,533,0,0,0,0,0,0,0,0,0,-1,1371,491,0,0
154,533,0,0,0,0,0,0,0,0,0,-1,1378,491,0,0
161,533,0,0,0,0,0,0,0,0,0,-1,1385,491,0,0
168,533,0,0,0,0,0,0,0,0,0,-1,1392,491,0,0
175,533,0,0,0,0,0,0,0,0,0,-1,1399,491,0,0
182,533,0,0,0,0,0,0,0,0,0,-1,1406,491,0,0
189,533,0,0,0,0,0,0,0,0,0,-1,1413,491,0,0
196,533,0,0,0,0,0,0,0,0,0,-1,1420,491,0,0
203,533,3.7887,1.16193,0,0,0,0,0,0,0,-1,1427,491,3.78872,-1.16193
210,533,5.09558,-0.216034,0,0,0,0,0,0,0,-1,1434,491,5.09559,0.216028
217,533,6.91614,-2.46814,0,0,0,0,0,0,0,-1,1441,491,6.91618,2.46814
224,533,7.23621,-2.1857,0,0,0,0,0,0,0,-1,1448,491,7.23621,2.1857
231,533,7.23474,-1.92282,0,0,0,0,0,0,0,-1,1455,491,7.2347,1.92282
238,533,7.23535,-1.67258,0,0,0,0,0,0,0,-1,1462,491,7.23539,1.67258
245,533,6.86682,-1.2301,0,0,0,0,0,0,0,-1,1469,491,6.86686,1.23011
252,533,6.63354,-3.07825,0,0,0,0,0,0,0,-1,1476,491,6.6335,3.07824
259,533,6.16431,-2.35037,0,0,0,0,0,0,0,-1,1483,491,6.1643,2.35037
266,533,5.68884,-1.6214,0,0,0,0,0,0,0,-1,1490,491,5.68885,1.6214
273,533,5.21399,-0.864227,0,0,0,0,0,0,0,-1,1497,491,5.21403,0.864227
280,533,1.41089,-1.97946,0,0,0,0,0,0,0,-1,1504,491,1.41087,1.97946
287,533,1.6814,-2.44443,0,0,0,0,0,0,0,-1,1511,491,1.6814,2.44444
294,533,2.2384,-2.57626,0,0,0,0,0,0,0,-1,1518,491,2.23839,2.57625
301,533,3.39941,-4.0817,0,0,0,0,0,0,0,-1,1525,491,3.3994,4.08171
308,533,4.13733,-4.14752,0,0,0,0,0,0,0,-1,1532,491,4.13727,4.14752
315,533,4.80762,-5.29349,0,0,0,0,0,0,0,-1,1539,491,4.80762,5.29347
322,533,5.47803,-6.43942,0,0,0,0,0,0,0,-1,1546,491,5.47798,6.43943
329,533,3.88477,-3.86301,0,0,0,0,0,0,0,-1,1553,491,3.88475,3.86299
336,533,6.70923,-13.2003,0,0,0,0,0,0,0,-1,1560,491,6.70926,13.2004
343,533,7.06677,-17.1133,0,0,0,0,0,0,0,-1,1567,491,7.06673,17.1133
350,533,10.0876,-23.7254,0,0,0,0,0,0,0,-1,1574,491,10.0877,23.7254
357,533,10.5959,-25.6393,0,0,0,0,0,0,0,-1,1581,491,10.5959,25.6393
364,533,10.6219,-25.2695,-0.00360125,-0.00825062,-0.00702787,0.00147643,-0.0133283,-0.625672,0.00941634,0.0418106,1588,491,10.6219,25.2695
371,533,10.4037,-25.038,-0.00261325,-0.00655782,-0.00572202,0.00146685,-0.0106379,-0.619433,0.00762806,0.0373255,1595,491,10.4036,25.0379
378,533,10.4091,-24.6627,-0.001609,-0.004765,-0.00446595,0.00154954,-0.00792354,-0.615575,0.00586748,0.0270875,1602,491,10.4091,24.6627
385,533,10.4657,-24.1957,-0.000678952,-0.00331503,-0.00310697,0.00137799,-0.00537197,-0.584793,0.00411822,0.0206162,1609,491,10.4657,24.1957
392,533,10.4515,-23.7433,-8.38522e-05,-0.00196401,-0.00208833,0.00126624,-0.0033141,-0.573905,0.00273115,0.0126651,1616,491,10.4515,23.7433
399,533,10.459,-23.2834,0.000304132,-0.00100451,-0.00129353,0.00109941,-0.00179979,-0.551243,0.00169006,0.0124215,1623,491,10.459,23.2834
406,533,10.4624,-22.7827,0.000610566,-2.68477e-05,-0.000605353,0.000975984,-0.000392265,-0.543094,0.000813569,0.0148997,1630,491,10.4624,22.7826
413,533,10.452,-22.2353,0.000878933,0.00101195,9.81323e-05,0.00106399,0.000826894,1.08321,0.000644986,0.0132638,1637,491,10.452,22.2353
420,533,10.4381,-21.7333,0.00103459,0.00179446,0.000733034,0.00224017,0.000588878,1.02449,0.00134097,0.0123944,1644,491,10.4382,21.7332
427,533,10.4541,-21.2009,0.000932089,0.00230156,0.00115594,0.00296035,0.000273303,1.05279,0.00188907,0.0133198,1651,491,10.4541,21.2008
434,533,10.4275,-20.7009,0.000802458,0.00258947,0.00151341,0.00345345,-6.15212e-05,1.05206,0.00232308,0.0133466,1658,491,10.4275,20.7009
441,533,10.4108,-20.1837,0.000683921,0.002697,0.00189353,0.00383489,-0.000453971,1.02969,0.00272057,0.0152509,1665,491,10.4107,20.1837
448,533,10.3901,-19.6845,0.000517578,0.00278957,0.00228522,0.00420558,-0.000898432,1.01606,0.00314625,0.0159254,1672,491,10.3901,19.6845
455,533,10.35,-19.1417,0.000368013,0.00272232,0.00263193,0.00442835,-0.00133802,0.995684,0.00348494,0.0154942,1679,491,10.35,19.1417
462,533,10.3043,-18.5467,0.000141665,0.00242517,0.00296826,0.0044637,-0.00189686,0.969002,0.00377063,0.0152109,1686,491,10.3043,18.5467
469,533,10.2968,-18.032,-0.000447211,0.00174434,0.00322716,0.00405669,-0.00275956,0.949065,0.00395904,0.00993005,1693,491,10.2967,18.032
476,533,10.3069,-17.4929,-0.00163858,0.000618238,0.0033786,0.00305189,-0.00407223,0.946567,0.00412715,0.0114785,1700,491,10.3069,17.4929
483,533,10.3341,-16.8926,-0.00285964,-0.000639592,0.00346658,0.00189035,-0.00538957,0.940343,0.00436191,0.0189749,1707,491,10.3341,16.8926
490,533,10.4309,-16.443,-0.00454947,-0.00269269,0.0035315,3.04126e-05,-0.00727257,0.913934,0.00485855,0.0438321,1714,491,10.4309,16.443
497,533,10.218,-15.7213,-0.00701485,-0.00507739,0.00335823,-0.00255096,-0.00954128,0.925818,0.00570395,0.0478076,1721,491,10.218,15.7213
504,533,9.98096,-15.037,0,0,0,0,0,0,0,-1,1728,491,9.98091,15.037
511,533,10.5428,-14.8465,0,0,0,0,0,0,0,-1,1735,491,10.5429,14.8465
518,533,10.3921,-14.7359,0,0,0,0,0,0,0,-1,1742,491,10.3921,14.7359
525,533,10.105,-14.3085,0,0,0,0,0,0,0,-1,1749,491,10.1049,14.3085
532,533,11.3622,-12.9383,0,0,0,0,0,0,0,-1,1756,491,11.3622,12.9383
539,533,3.61609,1.62427,0,0,0,0,0,0,0,-1,1763,491,3.61606,-1.62426
546,533,3.59607,1.65799,0,0,0,0,0,0,0,-1,1770,491,3.59605,-1.658
553,533,0,0,0,0,0,0,0,0,0,-1,1777,491,0,0
560,533,0,0,0,0,0,0,0,0,0,-1,1784,491,0,0
567,533,0,0,0,0,0,0,0,0,0,-1,1791,491,0,0
574,533,0,0,0,0,0,0,0,0,0,-1,1798,491,0,0
581,533,0,0,0,0,0,0,0,0,0,-1,1805,491,0,0
588,533,0,0,0,0,0,0,0,0,0,-1,1812,491,0,0
595,533,0,0,0,0,0,0,0,0,0,-1,1819,491,0,0
602,533,0,0,0,0,0,0,0,0,0,-1,1826,491,0,0
609,533,0,0,0,0,0,0,0,0,0,-1,1833,491,0,0
616,533,0,0,0,0,0,0,0,0,0,-1,1840,491,0,0
623,533,0,0,0,0,0,0,0,0,0,-1,1847,491,0,0
630,533,0,0,0,0,0,0,0,0,0,-1,1854,491,0,0
637,533,0,0,0,0,0,0,0,0,0,-1,1861,491,0,0
644,533,0,0,0,0,0,0,0,0,0,-1,1868,491,0,0
651,533,0,0,0,0,0,0,0,0,0,-1,1875,491,0,0
658,533,0,0,0,0,0,0,0,0,0,-1,1882,491,0,0
665,533,0,0,0,0,0,0,0,0,0,-1,1889,491,0,0
672,533,0,0,0,0,0,0,0,0,0,-1,1896,491,0,0
679,533,0,0,0,0,0,0,0,0,0,-1,1903,491,0,0
686,533,0,0,0,0,0,0,0,0,0,-1,1910,491,0,0
693,533,0,0,0,0,0,0,0,0,0,-1,1917,491,0,0
700,533,0,0,0,0,0,0,0,0,0,-1,1924,491,0,0
707,533,0,0,0,0,0,0,0,0,0,-1,1931,491,0,0
714,533,0,0,0,0,0,0,0,0,0,-1,1938,491,0,0
721,533,0,0,0,0,0,0,0,0,0,-1,1945,491,0,0
728,533,0,0,0,0,0,0,0,0,0,-1,1952,491,0,0
735,533,0,0,0,0,0,0,0,0,0,-1,1959,491,0,0
742,533,0,0,0,0,0,0,0,0,0,-1,1966,491,0,0
749,533,0,0,0,0,0,0,0,0,0,-1,1973,491,0,0
756,533,0,0,0,0,0,0,0,0,0,-1,1980,491,0,0
763,533,0,0,0,0,0,0,0,0,0,-1,1987,491,0,0
770,533,0,0,0,0,0,0,0,0,0,-1,1994,491,0,0
777,533,0,0,0,0,0,0,0,0,0,-1,2001,491,0,0
784,533,0,0,0,0,0,0,0,0,0,-1,2008,491,0,0
791,533,0,0,0,0,0,0,0,0,0,-1,2015,491,0,0
798,533,0,0,0,0,0,0,0,0,0,-1,2022,491,0,0
805,533,0,0,0,0,0,0,0,0,0,-1,2029,491,0,0
812,533,0,0,0,0,0,0,0,0,0,-1,2036,491,0,0
-700,526,0,0,0,0,0,0,0,0,0,-1,524,498,0,0
-693,526,0,0,0,0,0,0,0,0,0,-1,531,498,0,0
-686,526,0,0,0,0,0,0,0,0,0,-1,538,498,0,0
-679,526,0,0,0,0,0,0,0,0,0,-1,545,498,0,0
-672,526,0,0,0,0,0,0,0,0,0,-1,552,498,0,0
-665,526,0,0,0,0,0,0,0,0,0,-1,559,498,0,0
-658,526,0,0,0,0,0,0,0,0,0,-1,566,498,0,0
-651,526,0,0,0,0,0,0,0,0,0,-1,573,498,0,0
-644,526,0,0,0,0,0,0,0,0,0,-1,580,498,0,0
-637,526,0,0,0,0,0,0,0,0,0,-1,587,498,0,0
-630,526,0,0,0,0,0,0,0,0,0,-1,594,498,0,0
-623,526,0,0,0,0,0,0,0,0,0,-1,601,498,0,0
-616,526,0,0,0,0,0,0,0,0,0,-1,608,498,0,0
-609,526,0,0,0,0,0,0,0,0,0,-1,615,498,0,0
-602,526,0,0,0,0,0,0,0,0,0,-1,622,498,0,0
-595,526,0,0,0,0,0,0,0,0,0,-1,629,498,0,0
-588,526,0,0,0,0,0,0,0,0,0,-1,636,498,0,0
-581,526,0,0,0,0,0,0,0,0,0,-1,643,498,0,0
-574,526,0,0,0,0,0,0,0,0,0,-1,650,498,0,0
-567,526,0,0,0,0,0,0,0,0,0,-1,657,498,0,0
-560,526,0,0,0,0,0,0,0,0,0,-1,664,498,0,0
-553,526,0,0,0,0,0,0,0,0,0,-1,671,498,0,0
-546,526,0,0,0,0,0,0,0,0,0,-1,678,498,0,0
-539,526,0,0,0,0,0,0,0,0,0,-1,685,498,0,0
-532,526,0,0,0,0,0,0,0,0,0,-1,692,498,0,0
-525,526,0,0,0,0,0,0,0,0,0,-1,699,498,0,0
-518,526,0,0,0,0,0,0,0,0,0,-1,706,498,0,0
-511,526,0,0,0,0,0,0,0,0,0,-1,713,498,0,0
-504,526,0,0,0,0,0,0,0,0,0,-1,720,498,0,0
-497,526,0,0,0,0,0,0,0,0,0,-1,727,498,0,0
-490,526,0,0,0,0,0,0,0,0,0,-1,734,498,0,0
-483,526,0,0,0,0,0,0,0,0,0,-1,741,498,0,0
-476,526,0,0,0,0,0,0,0,0,0,-1,748,498,0,0
-469,526,0,0,0,0,0,0,0,0,0,-1,755,498,0,0
-462,526,0,0,0,0,0,0,0,0,0,-1,762,498,0,0
-455,526,0,0,0,0,0,0,0,0,0,-1,769,498,0,0
-448,526,0,0,0,0,0,0,0,0,0,-1,776,498,0,0
-441,526,0,0,0,0,0,0,0,0,0,-1,783,498,0,0
-434,526,-0.153564,-5.96649,0,0,0,0,0,0,0,-1,790,498,-0.153589,5.9665
-427,526,1.23206,-4.59808,0,0,0,0,0,0,0,-1,797,498,1.23208,4.59809
-420,526,-1.76373,-11.6241,0,0,0,0,0,0,0,-1,804,498,-1.76373,11.6241
-413,526,-1.38965,-11.7916,0,0,0,0,0,0,0,-1,811,498,-1.38963,11.7916
-406,526,-1.35187,-12.5182,0,0,0,0,0,0,0,-1,818,498,-1.35185,12.5181
-399,526,-1.32715,-13.2116,0,0,0,0,0,0,0,-1,825,498,-1.32713,13.2116
-392,526,-2.27356,-11.5593,0,0,0,0,0,0,0,-1,832,498,-2.27357,11.5593
-385,526,-0.889099,-14.7554,0,0,0,0,0,0,0,-1,839,498,-0.889099,14.7553
-378,526,-0.0881958,-15.7816,-0.00507837,0.0281345,-0.00723905,0.0296438,-0.0065876,-1.36526,0.0222853,0.0452399,846,498,-0.0881963,15.7815
-371,526,-0.42926,-16.7465,-0.00440148,0.0235595,-0.00577923,0.0247069,-0.0055489,-1.3748,0.0185989,0.0344032,853,498,-0.429256,16.7465
-364,526,-0.80072,-17.5977,-0.0038763,0.019227,-0.00475047,0.0201657,-0.00481495,-1.37572,0.0153034,0.01838,860,498,-0.800706,17.5976
-357,526,-0.757019,-18.1962,-0.00330961,0.0154603,-0.00392797,0.0162492,-0.00409846,-1.3726,0.0124263,0.0125901,867,498,-0.757033,18.1962
-350,526,-0.753906,-18.7324,-0.00271348,0.0122895,-0.00311353,0.0129099,-0.00333396,-1.37409,0.00990674,0.0123062,874,498,-0.753932,18.7324
-343,526,-0.800598,-19.2919,-0.00214873,0.00963107,-0.00246931,0.0101278,-0.00264542,-1.3723,0.00778493,0.0160146,881,498,-0.800616,19.2919
-336,526,-0.833801,-19.7946,-0.00162202,0.00746635,-0.00193879,0.00786266,-0.00201834,-1.36916,0.00602825,0.015085,888,498,-0.83379,19.7945
-329,526,-0.842834,-20.2936,-0.00113104,0.00530312,-0.00141049,0.00559874,-0.00142667,-1.3642,0.00428791,0.0149622,895,498,-0.84284,20.2936
-322,526,-0.863708,-20.8018,-0.000540226,0.00357609,-0.00111185,0.00385721,-0.000821346,-1.32315,0.0028845,0.0105905,902,498,-0.863694,20.8018
-315,526,-0.891846,-21.3256,9.74351e-06,0.0023847,-0.000777326,0.00261649,-0.000222053,-1.28099,0.00182286,0.00935857,909,498,-0.891849,21.3256
-308,526,-0.908569,-21.8373,0.000453462,0.00143747,-0.000456964,0.00161695,0.000273988,-1.19655,0.000999236,0.00877951,916,498,-0.908576,21.8373
-301,526,-0.945984,-22.3158,0.000768768,0.000282802,-5.16093e-05,0.000774188,0.000277382,-0.104644,0.000452923,0.0106457,923,498,-0.945989,22.3158
-294,526,-0.930054,-22.7853,0.00114396,-0.000636284,0.000378734,0.00122119,-0.000713506,0.20114,0.00112974,0.00978024,930,498,-0.930053,22.7854
-287,526,-0.926147,-23.2622,0.00153382,-0.00151689,0.000828526,0.00174431,-0.00172739,0.248792,0.00200439,0.0098889,937,498,-0.926175,23.2622
-280,526,-0.958069,-23.7442,0.00177379,-0.00238009,0.00134962,0.00217377,-0.00278007,0.288121,0.00286723,0.0123126,944,498,-0.958048,23.7442
-273,526,-0.959473,-24.233,0.00196602,-0.00325224,0.00213734,0.00272968,-0.00401591,0.343162,0.0039181,0.010274,951,498,-0.959498,24.233
-266,526,-0.958557,-24.7028,0.00252425,-0.00427054,0.00311879,0.0037387,-0.00548499,0.371334,0.00535702,0.0112334,958,498,-0.958545,24.7027
-259,526,-0.907532,-25.1209,0.0034874,-0.00594052,0.00365003,0.00473533,-0.00718846,0.329437,0.00693259,0.0259959,965,498,-0.907531,25.1209
-252,526,-1.02466,-25.3569,0.00420462,-0.00875596,0.00447643,0.0056004,-0.0101518,0.302254,0.00922018,0.0433673,972,498,-1.02463,25.357
-245,526,-0.968811,-26.0171,0,0,0,0,0,0,0,-1,979,498,-0.968806,26.0171
-238,526,-0.881775,-26.428,0,0,0,0,0,0,0,-1,986,498,-0.88178,26.428
-231,526,-0.547424,-25.8486,0,0,0,0,0,0,0,-1,993,498,-0.547419,25.8486
-224,526,-0.292603,-23.2656,0,0,0,0,0,0,0,-1,1000,498,-0.292617,23.2656
-217,526,-0.541504,-25.9099,0,0,0,0,0,0,0,-1,1007,498,-0.541484,25.9099
-210,526,-0.717834,-26.676,0,0,0,0,0,0,0,-1,1014,498,-0.717808,26.676
-203,526,-0.659302,-18.8818,0,0,0,0,0,0,0,-1,1021,498,-0.659273,18.8818
-196,526,-0.328247,-12.179,0,0,0,0,0,0,0,-1,1028,498,-0.328238,12.179
-189,526,0.401245,-5.96826,0,0,0,0,0,0,0,-1,1035,498,0.401197,5.96826
-182,526,1.7323,-2.99405,0,0,0,0,0,0,0,-1,1042,498,1.73226,2.99404
-175,526,2.27637,-2.07983,0,0,0,0,0,0,0,-1,1049,498,2.27639,2.07984
-168,526,2.12036,-1.66049,0,0,0,0,0,0,0,-1,1056,498,2.12035,1.66048
-161,526,2.09082,-1.20572,0,0,0,0,0,0,0,-1,1063,498,2.09086,1.2057
-154,526,-1.3446,-5.37799,0,0,0,0,0,0,0,-1,1070,498,-1.34457,5.37799
-147,526,-0.472656,-6.64996,0,0,0,0,0,0,0,-1,1077,498,-0.472659,6.64997
-140,526,0.422852,-8.03339,0,0,0,0,0,0,0,-1,1084,498,0.422844,8.0334
-133,526,1.09583,-9.2215,0,0,0,0,0,0,0,-1,1091,498,1.09581,9.2215
-126,526,3.42529,-2.36053,0,0,0,0,0,0,0,-1,1098,498,3.42523,2.36052
-119,526,2.7771,-0.764099,0,0,0,0,0,0,0,-1,1105,498,2.7771,0.764107
-112,526,2.57715,-1.1893,0,0,0,0,0,0,0,-1,1112,498,2.57718,1.1893
-105,526,0,0,0,0,0,0,0,0,0,-1,1119,498,0,0
-98,526,0,0,0,0,0,0,0,0,0,-1,1126,498,0,0
-91,526,0,0,0,0,0,0,0,0,0,-1,1133,498,0,0
-84,526,0,0,0,0,0,0,0,0,0,-1,1140,498,0,0
-77,526,0,0,0,0,0,0,0,0,0,-1,1147,498,0,0
-70,526,0,0,0,0,0,0,0,0,0,-1,1154,498,0,0
-63,526,0,0,0,0,0,0,0,0,0,-1,1161,498,0,0
-56,526,0,0,0,0,0,0,0,0,0,-1,1168,498,0,0
-49,526,0,0,0,0,0,0,0,0,0,-1,1175,498,0,0
-42,526,0,0,0,0,0,0,0,0,0,-1,1182,498,0,0
-35,526,0,0,0,0,0,0,0,0,0,-1,1189,498,0,0
-28,526,0,0,0,0,0,0,0,0,0,-1,1196,498,0,0
-21,526,0,0,0,0,0,0,0,0,0,-1,1203,498,0,0
-14,526,0,0,0,0,0,0,0,0,0,-1,1210,498,0,0
-7,526,0,0,0,0,0,0,0,0,0,-1,1217,498,0,0
0,526,0,0,0,0,0,0,0,0,0,-1,1224,498,0,0
7,526,0,0,0,0,0,0,0,0,0,-1,1231,498,0,0
14,526,0,0,0,0,0,0,0,0,0,-1,1238,498,0,0
21,526,0,0,0,0,0,0,0,0,0,-1,1245,498,0,0
28,526,0,0,0,0,0,0,0,0,0,-1,1252,498,0,0
35,526,0,0,0,0,0,0,0,0,0,-1,1259,498,0,0
42,526,0,0,0,0,0,0,0,0,0,-1,1266,498,0,0
49,526,0,0,0,0,0,0,0,0,0,-1,1273,498,0,0
56,526,0,0,0,0,0,0,0,0,0,-1,1280,498,0,0
63,526,0,0,0,0,0,0,0,0,0,-1,1287,498,0,0
70,526,0,0,0,0,0,0,0,0,0,-1,1294,498,0,0
77,526,0,0,0,0,0,0,0,0,0,-1,1301,498,0,0
84,526,0,0,0,0,0,0,0,0,0,-1,1308,498,0,0
91,526,0,0,0,0,0,0,0,0,0,-1,1315,498,0,0
98,526,0,0,0,0,0,0,0,0,0,-1,1322,498,0,0
105,526,0,0,0,0,0,0,0,0,0,-1,1329,498,0,0
112,526,0,0,0,0,0,0,0,0,0,-1,1336,498,0,0
119,526,0,0,0,0,0,0,0,0,0,-1,1343,498,0,0
126,526,0,0,0,0,0,0,0,0,0,-1,1350,498,0,0
133,526,0,0,0,0,0,0,0,0,0,-1,1357,498,0,0
140,526,0,0,0,0,0,0,0,0,0,-1,1364,498,0,0
147,526,0,0,0,0,0,0,0,0,0,-1,1371,498,0,0
154,526,0,0,0,0,0,0,0,0,0,-1,1378,498,0,0
161,526,0,0,0,0,0,0,0,0,0,-1,1385,498,0,0
168,526,0,0,0,0,0,0,0,0,0,-1,1392,498,0,0
175,526,0,0,0,0,0,0,0,0,0,-1,1399,498,0,0
182,526,0,0,0,0,0,0,0,0,0,-1,1406,498,0,0
189,526,0,0,0,0,0,0,0,0,0,-1,1413,498,0,0
196,526,0,0,0,0,0,0,0,0,0,-1,1420,498,0,0
203,526,0,0,0,0,0,0,0,0,0,-1,1427,498,0,0
210,526,0,0,0,0,0,0,0,0,0,-1,1434,498,0,0
217,526,0,0,0,0,0,0,0,0,0,-1,1441,498,0,0
224,526,0,0,0,0,0,0,0,0,0,-1,1448,498,0,0
231,526,7.93237,-1.30618,0,0,0,0,0,0,0,-1,1455,498,7.93238,1.30618
238,526,7.97717,-1.08197,0,0,0,0,0,0,0,-1,1462,498,7.97723,1.08196
245,526,7.2793,-0.792938,0,0,0,0,0,0,0,-1,1469,498,7.27931,0.792926
252,526,6.73523,-2.23608,0,0,0,0,0,0,0,-1,1476,498,6.73525,2.23608
259,526,6.22949,-1.84967,0,0,0,0,0,0,0,-1,1483,498,6.22953,1.84968
266,526,5.72375,-1.46329,0,0,0,0,0,0,0,-1,1490,498,5.72381,1.46328
273,526,4.33984,0.49173,0,0,0,0,0,0,0,-1,1497,498,4.33979,-0.491727
280,526,1.4585,-1.59897,0,0,0,0,0,0,0,-1,1504,498,1.45846,1.59895
287,526,1.46411,-2.40134,0,0,0,0,0,0,0,-1,1511,498,1.46406,2.40133
294,526,5.57471,-4.59085,0,0,0,0,0,0,0,-1,1518,498,5.57466,4.59084
301,526,4.42786,-3.99677,0,0,0,0,0,0,0,-1,1525,498,4.42788,3.99676
308,526,5.79529,-4.19366,0,0,0,0,0,0,0,-1,1532,498,5.79528,4.19368
315,526,5.09851,-5.20068,0,0,0,0,0,0,0,-1,1539,498,5.09851,5.20068
322,526,5.50708,-4.72348,0,0,0,0,0,0,0,-1,1546,498,5.50713,4.72347
329,526,3.88672,-4.345,0,0,0,0,0,0,0,-1,1553,498,3.88674,4.34501
336,526,4.97876,-2.23828,0,0,0,0,0,0,0,-1,1560,498,4.97877,2.23828
343,526,3.31665,-2.69696,0,0,0,0,0,0,0,-1,1567,498,3.31667,2.69696
350,526,6.06287,-6.12015,0,0,0,0,0,0,0,-1,1574,498,6.06286,6.12014
357,526,11.6423,-25.7601,0,0,0,0,0,0,0,-1,1581,498,11.6423,25.7601
364,526,11.1547,-25.2842,0,0,0,0,0,0,0,-1,1588,498,11.1546,25.2842
371,526,10.9464,-25.1722,0,0,0,0,0,0,0,-1,1595,498,10.9464,25.1722
378,526,10.8429,-24.8679,0,0,0,0,0,0,0,-1,1602,498,10.8429,24.8679
385,526,10.9589,-24.2651,0,0,0,0,0,0,0,-1,1609,498,10.9588,24.2651
392,526,11.0624,-23.7646,-0.000365,-0.00181407,-0.00243458,0.00145057,-0.00362964,-0.64077,0.00302166,0.0397396,1616,498,11.0623,23.7646
399,526,10.963,-23.2704,0.000172142,-0.000861129,-0.00158121,0.00131897,-0.00200796,-0.627498,0.00193449,0.0221744,1623,498,10.9631,23.2705
406,526,10.9865,-22.743,0.000644626,2.29123e-05,-0.000885282,0.00127204,-0.000604504,-0.616554,0.00110604,0.0128702,1630,498,10.9864,22.743
413,526,10.9507,-22.2352,0.00109379,0.000957763,-0.000190553,0.00122811,0.000823451,-0.613977,0.000722659,0.0126727,1637,498,10.9507,22.2352
420,526,10.9291,-21.7361,0.00136475,0.00162481,0.00040597,0.00192107,0.0010685,0.940381,0.00111146,0.0130501,1644,498,10.9291,21.7361
427,526,10.9449,-21.2125,0.00128004,0.00197979,0.00071922,0.00242972,0.000830109,1.01178,0.00142606,0.0138643,1651,498,10.945,21.2126
434,526,10.9241,-20.6696,0.00113206,0.00211708,0.000971746,0.002714,0.00053514,1.01995,0.00165996,0.0123558,1658,498,10.9241,20.6696
441,526,10.8848,-20.1477,0.00101696,0.00213256,0.00125685,0.00294983,0.00019969,0.994244,0.00190348,0.0110338,1665,498,10.8847,20.1477
448,526,10.8799,-19.649,0.000887427,0.00212773,0.00157766,0.00320275,-0.000187588,0.972664,0.00220036,0.0105348,1672,498,10.8799,19.6491
455,526,10.8552,-19.1407,0.000738978,0.00205017,0.0018658,0.0033722,-0.000583054,0.954348,0.00246557,0.0137504,1679,498,10.8552,19.1407
462,526,10.8511,-18.5651,0.000520464,0.00180973,0.00215767,0.00341701,-0.00108681,0.930559,0.00271381,0.0106001,1686,498,10.8511,18.5651
469,526,10.8457,-18.0559,-9.1255e-06,0.00125365,0.00239726,0.00310127,-0.00185675,0.914164,0.00289242,0.00765257,1693,498,10.8457,18.0559
476,526,10.8269,-17.5106,-0.00107613,0.000330675,0.00254219,0.00226498,-0.00301043,0.920367,0.00305588,0.00957822,1700,498,10.8268,17.5106
483,526,10.8278,-16.8906,-0.00218597,-0.00067852,0.00264036,0.00131359,-0.00417807,0.924432,0.00331126,0.0133659,1707,498,10.8278,16.8906
490,526,10.8818,-16.2573,-0.0036982,-0.00218487,0.00268504,-0.000151918,-0.00573116,0.92274,0.00377115,0.0251466,1714,498,10.8818,16.2573
497,526,10.7859,-15.8795,-0.00580174,-0.0040924,0.00252051,-0.0022856,-0.00760854,0.948858,0.00450796,0.0304117,1721,498,10.7858,15.8795
504,526,10.7712,-15.3157,-0.00868109,-0.00670734,0.00205051,-0.00541859,-0.00996985,1.00968,0.00576335,0.0336438,1728,498,10.7713,15.3157
511,526,10.879,-14.8304,-0.0121505,-0.0100128,0.00139527,-0.00932406,-0.0128393,1.11225,0.00766148,0.0425258,1735,498,10.8791,14.8304
518,526,10.6973,-14.457,-0.0164098,-0.01406,0.000487473,-0.0139629,-0.0165069,1.37415,0.0102623,0.0408261,1742,498,10.6972,14.457
525,526,10.4431,-13.9547,-0.0220595,-0.018923,-0.000886947,-0.0186895,-0.0222929,-1.31344,0.0138183,0.0457396,1749,498,10.4432,13.9547
532,526,10.1864,-13.3441,0,0,0,0,0,0,0,-1,1756,498,10.1863,13.3441
539,526,3.29407,0.932312,0,0,0,0,0,0,0,-1,1763,498,3.2941,-0.93232
546,526,3.36731,1.07721,0,0,0,0,0,0,0,-1,1770,498,3.36735,-1.07719
553,526,3.40796,1.37137,0,0,0,0,0,0,0,-1,1777,498,3.40792,-1.37138
560,526,0,0,0,0,0,0,0,0,0,-1,1784,498,0,0
567,526,0,0,0,0,0,0,0,0,0,-1,1791,498,0,0
574,526,0,0,0,0,0,0,0,0,0,-1,1798,498,0,0
581,526,0,0,0,0,0,0,0,0,0,-1,1805,498,0,0
588,526,0,0,0,0,0,0,0,0,0,-1,1812,498,0,0
595,526,0,0,0,0,0,0,0,0,0,-1,1819,498,0,0
602,526,0,0,0,0,0,0,0,0,0,-1,1826,498,0,0
609,526,0,0,0,0,0,0,0,0,0,-1,1833,498,0,0
616,526,0,0,0,0,0,0,0,0,0,-1,1840,498,0,0
623,526,0,0,0,0,0,0,0,0,0,-1,1847,498,0,0
630,526,0,0,0,0,0,0,0,0,0,-1,1854,498,0,0
637,526,0,0,0,0,0,0,0,0,0,-1,1861,498,0,0
644,526,0,0,0,0,0,0,0,0,0,-1,1868,498,0,0
651,526,0,0,0,0,0,0,0,0,0,-1,1875,498,0,0
658,526,0,0,0,0,0,0,0,0,0,-1,1882,498,0,0
665,526,0,0,0,0,0,0,0,0,0,-1,1889,498,0,0
672,526,0,0,0,0,0,0,0,0,0,-1,1896,498,0,0
679,526,0,0,0,0,0,0,0,0,0,-1,1903,498,0,0
686,526,0,0,0,0,0,0,0,0,0,-1,1910,498,0,0
693,526,0,0,0,0,0,0,0,0,0,-1,1917,498,0,0
700,526,0,0,0,0,0,0,0,0,0,-1,1924,498,0,0
707,526,0,0,0,0,0,0,0,0,0,-1,1931,498,0,0
714,526,0,0,0,0,0,0,0,0,0,-1,1938,498,0,0
721,526,0,0,0,0,0,0,0,0,0,-1,1945,498,0,0
728,526,0,0,0,0,0,0,0,0,0,-1,1952,498,0,0
735,526,0,0,0,0,0,0,0,0,0,-1,1959,498,0,0
742,526,0,0,0,0,0,0,0,0,0,-1,1966,498,0,0
749,526,0,0,0,0,0,0,0,0,0,-1,1973,498,0,0
756,526,0,0,0,0,0,0,0,0,0,-1,1980,498,0,0
763,526,0,0,0,0,0,0,0,0,0,-1,1987,498,0,0
770,526,0,0,0,0,0,0,0,0,0,-1,1994,498,0,0
777,526,0,0,0,0,0,0,0,0,0,-1,2001,498,0,0
784,526,0,0,0,0,0,0,0,0,0,-1,2008,498,0,0
791,526,0,0,0,0,0,0,0,0,0,-1,2015,498,0,0
798,526,0,0,0,0,0,0,0,0,0,-1,2022,498,0,0
805,526,0,0,0,0,0,0,0,0,0,-1,2029,498,0,0
812,526,0,0,0,0,0,0,0,0,0,-1,2036,498,0,0
-700,519,0,0,0,0,0,0,0,0,0,-1,524,505,0,0
-693,519,0,0,0,0,0,0,0,0,0,-1,531,505,0,0
-686,519,0,0,0,0,0,0,0,0,0,-1,538,505,0,0
-679,519,0,0,0,0,0,0,0,0,0,-1,545,505,0,0
-672,519,0,0,0,0,0,0,0,0,0,-1,552,505,0,0
-665,519,0,0,0,0,0,0,0,0,0,-1,559,505,0,0
-658,519,0,0,0,0,0,0,0,0,0,-1,566,505,0,0
-651,519,0,0,0,0,0,0,0,0,0,-1,573,505,0,0
-644,519,0,0,0,0,0,0,0,0,0,-1,580,505,0,0
-637,519,0,0,0,0,0,0,0,0,0,-1,587,505,0,0
-630,519,0,0,0,0,0,0,0,0,0,-1,594,505,0,0
-623,519,0,0,0,0,0,0,0,0,0,-1,601,505,0,0
-616,519,0,0,0,0,0,0,0,0,0,-1,608,505,0,0
-609,519,0,0,0,0,0,0,0,0,0,-1,615,505,0,0
-602,519,0,0,0,0,0,0,0,0,0,-1,622,505,0,0
-595,519,0,0,0,0,0,0,0,0,0,-1,629,505,0,0
-588,519,0,0,0,0,0,0,0,0,0,-1,636,505,0,0
-581,519,0,0,0,0,0,0,0,0,0,-1,643,505,0,0
-574,519,0,0,0,0,0,0,0,0,0,-1,650,505,0,0
-567,519,0,0,0,0,0,0,0,0,0,-1,657,505,0,0
-560,519,0,0,0,0,0,0,0,0,0,-1,664,505,0,0
-553,519,0,0,0,0,0,0,0,0,0,-1,671,505,0,0
-546,519,0,0,0,0,0,0,0,0,0,-1,678,505,0,0
-539,519,0,0,0,0,0,0,0,0,0,-1,685,505,0,0
-532,519,0,0,0,0,0,0,0,0,0,-1,692,505,0,0
-525,519,0,0,0,0,0,0,0,0,0,-1,699,505,0,0
-518,519,0,0,0,0,0,0,0,0,0,-1,706,505,0,0
-511,519,0,0,0,0,0,0,0,0,0,-1,713,505,0,0
-504,519,0,0,0,0,0,0,0,0,0,-1,720,505,0,0
-497,519,0,0,0,0,0,0,0,0,0,-1,727,505,0,0
-490,519,0,0,0,0,0,0,0,0,0,-1,734,505,0,0
-483,519,0,0,0,0,0,0,0,0,0,-1,741,505,0,0
-476,519,0,0,0,0,0,0,0,0,0,-1,748,505,0,0
-469,519,0,0,0,0,0,0,0,0,0,-1,755,505,0,0
-462,519,0,0,0,0,0,0,0,0,0,-1,762,505,0,0
-455,519,0,0,0,0,0,0,0,0,0,-1,769,505,0,0
-448,519,0,0,0,0,0,0,0,0,0,-1,776,505,0,0
-441,519,1.34839,-5.29346,0,0,0,0,0,0,0,-1,783,505,1.3484,5.29347
-434,519,0.949585,-5.77313,0,0,0,0,0,0,0,-1,790,505,0.949598,5.77315
-427,519,-0.0523682,-9.31567,0,0,0,0,0,0,0,-1,797,505,-0.0523854,9.31568
-420,519,-2.38867,-12.1938,0,0,0,0,0,0,0,-1,804,505,-2.38867,12.1938
-413,519,-2.2298,-12.4998,0,0,0,0,0,0,0,-1,811,505,-2.22979,12.4998
-406,519,-1.44373,-12.3475,0,0,0,0,0,0,0,-1,818,505,-1.44376,12.3475
-399,519,-1.41022,-14.1157,0,0,0,0,0,0,0,-1,825,505,-1.41019,14.1157
-392,519,-1.37146,-14.8097,0,0,0,0,0,0,0,-1,832,505,-1.37149,14.8097
-385,519,-1.28674,-15.3217,-0.00436289,0.0267683,-0.0074418,0.0284558,-0.00605035,-1.34781,0.021276,0.0459242,839,505,-1.28674,15.3217
-378,519,-1.21948,-16.1995,-0.00378778,0.0223333,-0.00620613,0.0237328,-0.00518731,-1.349,0.0178047,0.0328658,846,505,-1.21945,16.1995
-371,519,-1.23004,-16.9127,-0.00320118,0.0185723,-0.00510374,0.0197093,-0.00433814,-1.35161,0.0147991,0.0179151,853,505,-1.23005,16.9126
-364,519,-1.26495,-17.6068,-0.00264143,0.0150781,-0.00415407,0.0160036,-0.00356695,-1.35158,0.0120355,0.0106005,860,505,-1.26496,17.6068
-357,519,-1.25226,-18.1824,-0.00210819,0.0120235,-0.00334803,0.0127766,-0.00286126,-1.34955,0.00961446,0.0102454,867,505,-1.25227,18.1824
-350,519,-1.27087,-18.7265,-0.00157079,0.00939446,-0.00261024,0.00998411,-0.00216044,-1.34863,0.00748094,0.0123527,874,505,-1.27087,18.7265
-343,519,-1.32343,-19.2528,-0.0010453,0.00710397,-0.00198898,0.00756351,-0.00150484,-1.34374,0.00561161,0.0151162,881,505,-1.3234,19.2528
-336,519,-1.37396,-19.7591,-0.000569923,0.00520482,-0.00146786,0.00555652,-0.000921616,-1.33563,0.00404668,0.0153509,888,505,-1.37395,19.7591
-329,519,-1.36273,-20.2618,-0.000116838,0.00333267,-0.000987215,0.00359521,-0.000379386,-1.31086,0.00253276,0.0131277,895,505,-1.36271,20.2618
-322,519,-1.35596,-20.791,0.000382529,0.0018503,-0.000695403,0.00212744,0.000105388,-1.19156,0.0013845,0.0111225,902,505,-1.35593,20.791
-315,519,-1.37366,-21.3173,0.000834688,0.000813417,-0.000400974,0.00122517,0.000422938,-0.772139,0.000718561,0.00946289,909,505,-1.37366,21.3173
-308,519,-1.40155,-21.8399,0.00121368,-5.93393e-05,-0.000130034,0.00122682,-7.24861e-05,-0.10076,0.000843083,0.008114,916,505,-1.40157,21.8399
-301,519,-1.41876,-22.3342,0.00144873,-0.00109776,0.0002546,0.00147393,-0.00112297,0.0986793,0.00150388,0.0129504,923,505,-1.41876,22.3342
-294,519,-1.40533,-22.7703,0.00173445,-0.00189901,0.000598563,0.00183052,-0.00199507,0.159136,0.00220939,0.0148547,930,505,-1.40534,22.7702
-287,519,-1.43848,-23.2535,0.00205352,-0.00268307,0.000971383,0.00224499,-0.00287454,0.194618,0.0029632,0.0104778,937,505,-1.4385,23.2535
-280,519,-1.47479,-23.7373,0.00225501,-0.00352052,0.00147971,0.00261205,-0.00387755,0.236761,0.00377044,0.0175197,944,505,-1.4748,23.7373
-273,519,-1.43494,-24.2322,0.00241149,-0.00436958,0.00236291,0.00315364,-0.00511172,0.304326,0.00481644,0.0319521,951,505,-1.43492,24.2322
-266,519,-1.46027,-24.7102,0.00301798,-0.0052946,0.00349915,0.00429481,-0.00657144,0.349884,0.00631936,0.0482429,958,505,-1.46027,24.7102
-259,519,-1.30365,-25.1784,0,0,0,0,0,0,0,-1,965,505,-1.30367,25.1784
-252,519,-1.65869,-25.0952,0,0,0,0,0,0,0,-1,972,505,-1.65867,25.0952
-245,519,-1.23254,-23.2696,0,0,0,0,0,0,0,-1,979,505,-1.23256,23.2696
-238,519,-1.06903,-23.1753,0,0,0,0,0,0,0,-1,986,505,-1.06904,23.1753
-231,519,0.337585,-11.2798,0,0,0,0,0,0,0,-1,993,505,0.337568,11.2798
-224,519,-0.0494995,-7.97394,0,0,0,0,0,0,0,-1,1000,505,-0.0495123,7.97392
-217,519,-0.283691,-23.8409,0,0,0,0,0,0,0,-1,1007,505,-0.283683,23.8409
-210,519,-2.14398,-4.74774,0,0,0,0,0,0,0,-1,1014,505,-2.14397,4.74775
-203,519,-0.513611,-5.39017,0,0,0,0,0,0,0,-1,1021,505,-0.513585,5.39017
-196,519,-0.374023,-5.41635,0,0,0,0,0,0,0,-1,1028,505,-0.374047,5.41635
-189,519,-0.234497,-5.44254,0,0,0,0,0,0,0,-1,1035,505,-0.234508,5.44253
-182,519,2.76697,-1.19659,0,0,0,0,0,0,0,-1,1042,505,2.76696,1.19661
-175,519,2.31323,-0.960938,0,0,0,0,0,0,0,-1,1049,505,2.31319,0.960941
-168,519,2.01074,-0.721405,0,0,0,0,0,0,0,-1,1056,505,2.01072,0.721407
-161,519,2.32056,-0.522339,0,0,0,0,0,0,0,-1,1063,505,2.32057,0.522328
-154,519,2.55566,0.116669,0,0,0,0,0,0,0,-1,1070,505,2.55563,-0.116661
-147,519,-0.55127,-6.14001,0,0,0,0,0,0,0,-1,1077,505,-0.551252,6.14001
-140,519,0.240601,-7.53503,0,0,0,0,0,0,0,-1,1084,505,0.240653,7.53501
-133,519,2.70911,-4.4516,0,0,0,0,0,0,0,-1,1091,505,2.70915,4.45161
-126,519,0,0,0,0,0,0,0,0,0,-1,1098,505,0,0
-119,519,0,0,0,0,0,0,0,0,0,-1,1105,505,0,0
-112,519,0,0,0,0,0,0,0,0,0,-1,1112,505,0,0
-105,519,0,0,0,0,0,0,0,0,0,-1,1119,505,0,0
-98,519,0,0,0,0,0,0,0,0,0,-1,1126,505,0,0
-91,519,0,0,0,0,0,0,0,0,0,-1,1133,505,0,0
-84,519,0,0,0,0,0,0,0,0,0,-1,1140,505,0,0
-77,519,0,0,0,0,0,0,0,0,0,-1,1147,505,0,0
-70,519,0,0,0,0,0,0,0,0,0,-1,1154,505,0,0
-63,519,0,0,0,0,0,0,0,0,0,-1,1161,505,0,0
-56,519,0,0,0,0,0,0,0,0,0,-1,1168,505,0,0
-49,519,0,0,0,0,0,0,0,0,0,-1,1175,505,0,0
-42,519,0,0,0,0,0,0,0,0,0,-1,1182,505,0,0
-35,519,0,0,0,0,0,0,0,0,0,-1,1189,505,0,0
-28,519,0,0,0,0,0,0,0,0,0,-1,1196,505,0,0
-21,519,0,0,0,0,0,0,0,0,0,-1,1203,505,0,0
-14,519,0,0,0,0,0,0,0,0,0,-1,1210,505,0,0
-7,519,0,0,0,0,0,0,0,0,0,-1,1217,505,0,0
0,519,0,0,0,0,0,0,0,0,0,-1,1224,505,0,0
7,519,0,0,0,0,0,0,0,0,0,-1,1231,505,0,0
14,519,0,0,0,0,0,0,0,0,0,-1,1238,505,0,0
21,519,0,0,0,0,0,0,0,0,0,-1,1245,505,0,0
28,519,0,0,0,0,0,0,0,0,0,-1,1252,505,0,0
35,519,0,0,0,0,0,0,0,0,0,-1,1259,505,0,0
42,519,0,0,0,0,0,0,0,0,0,-1,1266,505,0,0
49,519,0,0,0,0,0,0,0,0,0,-1,1273,505,0,0
56,519,0,0,0,0,0,0,0,0,0,-1,1280,505,0,0
63,519,0,0,0,0,0,0,0,0,0,-1,1287,505,0,0
70,519,0,0,0,0,0,0,0,0,0,-1,1294,505,0,0
77,519,0,0,0,0,0,0,0,0,0,-1,1301,505,0,0
84,519,0,0,0,0,0,0,0,0,0,-1,1308,505,0,0
91,519,0,0,0,0,0,0,0,0,0,-1,1315,505,0,0
98,519,0,0,0,0,0,0,0,0,0,-1,1322,505,0,0
105,519,0,0,0,0,0,0,0,0,0,-1,1329,505,0,0
112,519,0,0,0,0,0,0,0,0,0,-1,1336,505,0,0
119,519,0,0,0,0,0,0,0,0,0,-1,1343,505,0,0
126,519,0,0,0,0,0,0,0,0,0,-1,1350,505,0,0
133,519,0,0,0,0,0,0,0,0,0,-1,1357,505,0,0
140,519,0,0,0,0,0,0,0,0,0,-1,1364,505,0,0
147,519,0,0,0,0,0,0,0,0,0,-1,1371,505,0,0
154,519,0,0,0,0,0,0,0,0,0,-1,1378,505,0,0
161,519,0,0,0,0,0,0,0,0,0,-1,1385,505,0,0
168,519,0,0,0,0,0,0,0,0,0,-1,1392,505,0,0
175,519,0,0,0,0,0,0,0,0,0,-1,1399,505,0,0
182,519,0,0,0,0,0,0,0,0,0,-1,1406,505,0,0
189,519,0,0,0,0,0,0,0,0,0,-1,1413,505,0,0
196,519,0,0,0,0,0,0,0,0,0,-1,1420,505,0,0
203,519,0,0,0,0,0,0,0,0,0,-1,1427,505,0,0
210,519,0,0,0,0,0,0,0,0,0,-1,1434,505,0,0
217,519,0,0,0,0,0,0,0,0,0,-1,1441,505,0,0
224,519,0,0,0,0,0,0,0,0,0,-1,1448,505,0,0
231,519,0,0,0,0,0,0,0,0,0,-1,1455,505,0,0
238,519,0,0,0,0,0,0,0,0,0,-1,1462,505,0,0
245,519,0,0,0,0,0,0,0,0,0,-1,1469,505,0,0
252,519,5.26208,0.0938416,0,0,0,0,0,0,0,-1,1476,505,5.26207,-0.0938493
259,519,6.14246,-1.36441,0,0,0,0,0,0,0,-1,1483,505,6.14241,1.36441
266,519,5.31909,-0.400787,0,0,0,0,0,0,0,-1,1490,505,5.31912,0.400773
273,519,4.02393,0.325531,0,0,0,0,0,0,0,-1,1497,505,4.0239,-0.325522
280,519,4.68848,0.53006,0,0,0,0,0,0,0,-1,1504,505,4.68842,-0.530073
287,519,7.9519,-3.80801,0,0,0,0,0,0,0,-1,1511,505,7.95193,3.808
294,519,6.92273,-3.38889,0,0,0,0,0,0,0,-1,1518,505,6.92268,3.38888
301,519,5.35669,-2.92661,0,0,0,0,0,0,0,-1,1525,505,5.35675,2.9266
308,519,7.37549,-5.64529,0,0,0,0,0,0,0,-1,1532,505,7.3755,5.64529
315,519,6.30029,-4.53754,0,0,0,0,0,0,0,-1,1539,505,6.30024,4.53753
322,519,5.84302,-5.45117,0,0,0,0,0,0,0,-1,1546,505,5.84303,5.45116
329,519,4.92407,0.62384,0,0,0,0,0,0,0,-1,1553,505,4.92403,-0.623832
336,519,3.10095,-0.329285,0,0,0,0,0,0,0,-1,1560,505,3.1009,0.329283
343,519,2.49146,-2.31119,0,0,0,0,0,0,0,-1,1567,505,2.49145,2.31119
350,519,3.47729,-2.22516,0,0,0,0,0,0,0,-1,1574,505,3.47726,2.22515
357,519,9.01709,-24.3693,0,0,0,0,0,0,0,-1,1581,505,9.01713,24.3693
364,519,11.4207,-25.3149,0,0,0,0,0,0,0,-1,1588,505,11.4206,25.3149
371,519,8.9231,-23.3576,0,0,0,0,0,0,0,-1,1595,505,8.92307,23.3576
378,519,6.36597,-10.0967,0,0,0,0,0,0,0,-1,1602,505,6.36597,10.0967
385,519,6.24756,-9.72186,0,0,0,0,0,0,0,-1,1609,505,6.24752,9.72183
392,519,11.4476,-23.9924,0,0,0,0,0,0,0,-1,1616,505,11.4476,23.9924
399,519,11.4089,-23.2869,0,0,0,0,0,0,0,-1,1623,505,11.4089,23.2869
406,519,11.444,-22.7482,0.000635164,0.000553502,-0.00124834,0.00184334,-0.000654677,-0.76905,0.00149567,0.0363128,1630,505,11.444,22.7482
413,519,11.4868,-22.2343,0.00130557,0.0013793,-0.000476542,0.0018204,0.000864468,-0.824003,0.00105145,0.016281,1637,505,11.4868,22.2343
420,519,11.4586,-21.7119,0.00170059,0.00192372,0.000167189,0.00201315,0.00161116,1.07963,0.0012302,0.0156831,1644,505,11.4587,21.7118
427,519,11.4662,-21.2241,0.0016243,0.00210937,0.000443589,0.0023724,0.00136128,1.03557,0.00137467,0.0138823,1651,505,11.4662,21.2241
434,519,11.4414,-20.6835,0.00142912,0.0020871,0.000648754,0.00248551,0.0010307,1.02006,0.00144196,0.0120646,1658,505,11.4414,20.6835
441,519,11.411,-20.1306,0.00129769,0.00200617,0.000873154,0.00259421,0.000709653,0.978106,0.00154812,0.0119764,1665,505,11.411,20.1306
448,519,11.3966,-19.6157,0.0011946,0.00187525,0.00113901,0.00272369,0.000346157,0.930572,0.00171211,0.00982675,1672,505,11.3966,19.6156
455,519,11.3789,-19.1208,0.00103063,0.001751,0.00136528,0.00280281,-2.1181e-05,0.914369,0.00187564,0.0110919,1679,505,11.3789,19.1208
462,519,11.3872,-18.5805,0.000806858,0.00153188,0.00159431,0.00280438,-0.000465635,0.897187,0.00204257,0.0101057,1686,505,11.3872,18.5805
469,519,11.3906,-18.0375,0.000343783,0.00107358,0.00179995,0.00254524,-0.00112788,0.885406,0.00217267,0.0100512,1693,505,11.3906,18.0375
476,519,11.3641,-17.4723,-0.000584452,0.000322643,0.00192442,0.00184624,-0.00210805,0.901127,0.00228467,0.0124821,1700,505,11.3641,17.4723
483,519,11.3439,-16.8976,-0.00156996,-0.000492272,0.00198428,0.00102503,-0.00308726,0.917979,0.00247174,0.0149553,1707,505,11.3438,16.8976
490,519,11.326,-16.3203,-0.00290449,-0.00165069,0.001971,-0.000209296,-0.00434588,0.939371,0.00283007,0.0131084,1714,505,11.326,16.3203
497,519,11.3191,-15.8154,-0.00469865,-0.00314955,0.00182599,-0.00194063,-0.00590757,0.985987,0.00347697,0.016719,1721,505,11.3191,15.8154
504,519,11.2842,-15.2347,-0.00708362,-0.00515037,0.00144811,-0.00437591,-0.00785808,1.07969,0.00454664,0.016817,1728,505,11.2842,15.2347
511,519,11.2643,-14.6412,-0.00999644,-0.0076493,0.000867121,-0.0073637,-0.010282,1.25263,0.00611848,0.0213729,1735,505,11.2643,14.6412
518,519,11.1283,-14.1514,-0.0135235,-0.0106477,3.5051e-05,-0.0106473,-0.0135239,1.55861,0.00822647,0.0392859,1742,505,11.1283,14.1515
525,519,10.8167,-13.6533,-0.0180213,-0.0141704,-0.00119714,-0.0138286,-0.0183631,-1.29267,0.0110453,0.0490989,1749,505,10.8167,13.6533
532,519,10.5951,-12.8517,0,0,0,0,0,0,0,-1,1756,505,10.5951,12.8518
539,519,3.30005,0.0229797,0,0,0,0,0,0,0,-1,1763,505,3.30008,-0.0229869
546,519,4.62024,-2.89774,0,0,0,0,0,0,0,-1,1770,505,4.62023,2.89775
553,519,4.14136,0.0667419,0,0,0,0,0,0,0,-1,1777,505,4.14141,-0.0667503
560,519,3.77856,0.279724,0,0,0,0,0,0,0,-1,1784,505,3.77861,-0.279731
567,519,0,0,0,0,0,0,0,0,0,-1,1791,505,0,0
574,519,0,0,0,0,0,0,0,0,0,-1,1798,505,0,0
581,519,0,0,0,0,0,0,0,0,0,-1,1805,505,0,0
588,519,0,0,0,0,0,0,0,0,0,-1,1812,505,0,0
595,519,0,0,0,0,0,0,0,0,0,-1,1819,505,0,0
602,519,0,0,0,0,0,0,0,0,0,-1,1826,505,0,0
609,519,0,0,0,0,0,0,0,0,0,-1,1833,505,0,0
616,519,0,0,0,0,0,0,0,0,0,-1,1840,505,0,0
623,519,0,0,0,0,0,0,0,0,0,-1,1847,505,0,0
630,519,0,0,0,0,0,0,0,0,0,-1,1854,505,0,0
637,519,0,0,0,0,0,0,0,0,0,-1,1861,505,0,0
644,519,0,0,0,0,0,0,0,0,0,-1,1868,505,0,0
651,519,0,0,0,0,0,0,0,0,0,-1,1875,505,0,0
658,519,0,0,0,0,0,0,0,0,0,-1,1882,505,0,0
665,519,0,0,0,0,0,0,0,0,0,-1,1889,505,0,0
672,519,0,0,0,0,0,0,0,0,0,-1,1896,505,0,0
679,519,0,0,0,0,0,0,0,0,0,-1,1903,505,0,0
686,519,0,0,0,0,0,0,0,0,0,-1,1910,505,0,0
693,519,0,0,0,0,0,0,0,0,0,-1,1917,505,0,0
700,519,0,0,0,0,0,0,0,0,0,-1,1924,505,0,0
707,519,0,0,0,0,0,0,0,0,0,-1,1931,505,0,0
714,519,0,0,0,0,0,0,0,0,0,-1,1938,505,0,0
721,519,0,0,0,0,0,0,0,0,0,-1,1945,505,0,0
728,519,0,0,0,0,0,0,0,0,0,-1,1952,505,0,0
735,519,0,0,0,0,0,0,0,0,0,-1,1959,505,0,0
742,519,0,0,0,0,0,0,0,0,0,-1,1966,505,0,0
749,519,0,0,0,0,0,0,0,0,0,-1,1973,505,0,0
756,519,0,0,0,0,0,0,0,0,0,-1,1980,505,0,0
763,519,0,0,0,0,0,0,0,0,0,-1,1987,505,0,0
770,519,0,0,0,0,0,0,0,0,0,-1,1994,505,0,0
777,519,0,0,0,0,0,0,0,0,0,-1,2001,505,0,0
784,519,0,0,0,0,0,0,0,0,0,-1,2008,505,0,0
791,519,0,0,0,0,0,0,0,0,0,-1,2015,505,0,0
798,519,0,0,0,0,0,0,0,0,0,-1,2022,505,0,0
805,519,0,0,0,0,0,0,0,0,0,-1,2029,505,0,0
812,519,0,0,0,0,0,0,0,0,0,-1,2036,505,0,0
-700,512,0,0,0,0,0,0,0,0,0,-1,524,512,0,0
-693,512,0,0,0,0,0,0,0,0,0,-1,531,512,0,0
-686,512,0,0,0,0,0,0,0,0,0,-1,538,512,0,0
-679,512,0,0,0,0,0,0,0,0,0,-1,545,512,0,0
-672,512,0,0,0,0,0,0,0,0,0,-1,552,512,0,0
-665,512,0,0,0,0,0,0,0,0,0,-1,559,512,0,0
-658,512,0,0,0,0,0,0,0,0,0,-1,566,512,0,0
-651,512,0,0,0,0,0,0,0,0,0,-1,573,512,0,0
-644,512,0,0,0,0,0,0,0,0,0,-1,580,512,0,0
-637,512,0,0,0,0,0,0,0,0,0,-1,587,512,0,0
-630,512,0,0,0,0,0,0,0,0,0,-1,594,512,0,0
-623,512,0,0,0,0,0,0,0,0,0,-1,601,512,0,0
-616,512,0,0,0,0,0,0,0,0,0,-1,608,512,0,0
-609,512,0,0,0,0,0,0,0,0,0,-1,615,512,0,0
-602,512,0,0,0,0,0,0,0,0,0,-1,622,512,0,0
-595,512,0,0,0,0,0,0,0,0,0,-1,629,512,0,0
-588,512,0,0,0,0,0,0,0,0,0,-1,636,512,0,0
-581,512,0,0,0,0,0,0,0,0,0,-1,643,512,0,0
-574,512,0,0,0,0,0,0,0,0,0,-1,650,512,0,0
-567,512,0,0,0,0,0,0,0,0,0,-1,657,512,0,0
-560,512,0,0,0,0,0,0,0,0,0,-1,664,512,0,0
-553,512,0,0,0,0,0,0,0,0,0,-1,671,512,0,0
-546,512,0,0,0,0,0,0,0,0,0,-1,678,512,0,0
-539,512,0,0,0,0,0,0,0,0,0,-1,685,512,0,0
-532,512,0,0,0,0,0,0,0,0,0,-1,692,512,0,0
-525,512,0,0,0,0,0,0,0,0,0,-1,699,512,0,0
-518,512,0,0,0,0,0,0,0,0,0,-1,706,512,0,0
-511,512,0,0,0,0,0,0,0,0,0,-1,713,512,0,0
-504,512,0,0,0,0,0,0,0,0,0,-1,720,512,0,0
-497,512,0,0,0,0,0,0,0,0,0,-1,727,512,0,0
-490,512,0,0,0,0,0,0,0,0,0,-1,734,512,0,0
-483,512,0,0,0,0,0,0,0,0,0,-1,741,512,0,0
-476,512,0,0,0,0,0,0,0,0,0,-1,748,512,0,0
-469,512,0,0,0,0,0,0,0,0,0,-1,755,512,0,0
-462,512,0,0,0,0,0,0,0,0,0,-1,762,512,0,0
-455,512,0,0,0,0,0,0,0,0,0,-1,769,512,0,0
-448,512,1.96283,-4.15674,0,0,0,0,0,0,0,-1,776,512,1.96285,4.15677
-441,512,1.78198,-4.88824,0,0,0,0,0,0,0,-1,783,512,1.78201,4.88826
-434,512,0.0726929,-9.85822,0,0,0,0,0,0,0,-1,790,512,0.0727008,9.85819
-427,512,-0.384583,-9.94824,0,0,0,0,0,0,0,-1,797,512,-0.384552,9.94823
-420,512,-2.93219,-12.4855,0,0,0,0,0,0,0,-1,804,512,-2.93219,12.4855
-413,512,-2.22711,-11.4485,0,0,0,0,0,0,0,-1,811,512,-2.22712,11.4485
-406,512,-2.31512,-12.948,0,0,0,0,0,0,0,-1,818,512,-2.31514,12.948
-399,512,-1.74695,-14.8201,0,0,0,0,0,0,0,-1,825,512,-1.74694,14.8201
-392,512,-1.6723,-15.3654,-0.00379598,0.0242407,-0.00687442,0.0258355,-0.00539082,-1.34283,0.0192736,0.0398983,832,512,-1.67231,15.3653
-385,512,-1.67975,-15.8991,-0.00327701,0.0205937,-0.00602463,0.022028,-0.00471136,-1.33707,0.0164818,0.0194629,839,512,-1.67972,15.8991
-378,512,-1.72375,-16.448,-0.00268199,0.0172398,-0.00526947,0.0185478,-0.00398994,-1.3275,0.0138875,0.0150718,846,512,-1.72378,16.448
-371,512,-1.73694,-17.0503,-0.0021411,0.0140936,-0.00449497,0.0152551,-0.00330254,-1.31794,0.011431,0.0121416,853,512,-1.73694,17.0503
-364,512,-1.7627,-17.6664,-0.00163267,0.0111835,-0.00370661,0.0121783,-0.00262745,-1.30859,0.00912168,0.00973473,860,512,-1.76271,17.6664
-357,512,-1.77991,-18.1898,-0.00112695,0.00864943,-0.00298927,0.009491,-0.00196852,-1.29637,0.00707538,0.0106615,867,512,-1.77988,18.1898
-350,512,-1.79877,-18.7211,-0.000613163,0.0064505,-0.00235001,0.00716088,-0.00132354,-1.27724,0.00527079,0.0112239,874,512,-1.79874,18.7211
-343,512,-1.85107,-19.2491,-0.000121105,0.00448985,-0.00177552,0.0050943,-0.000725556,-1.24267,0.00366209,0.0124572,881,512,-1.85106,19.2491
-336,512,-1.89813,-19.7632,0.00031423,0.00285569,-0.00125574,0.00337147,-0.000201554,-1.18106,0.00231776,0.0134004,888,512,-1.89811,19.7632
-329,512,-1.86841,-20.2739,0.000746539,0.00133297,-0.000792424,0.00188469,0.000194824,-0.9626,0.00119682,0.0148098,895,512,-1.86839,20.2739
-322,512,-1.86835,-20.7911,0.0011705,0.000194352,-0.00044863,0.00134536,1.94897e-05,-0.371657,0.000890483,0.0125816,902,512,-1.86833,20.7911
-315,512,-1.8847,-21.311,0.00153699,-0.000575624,-0.000130476,0.00154502,-0.000583651,-0.061449,0.00127008,0.0108643,909,512,-1.88469,21.311
-308,512,-1.9165,-21.8081,0.00187098,-0.00126489,0.000158342,0.00187895,-0.00127286,0.0503232,0.00183088,0.0105785,916,512,-1.91649,21.8081
-301,512,-1.92706,-22.2862,0.00204013,-0.00205874,0.000592373,0.00212402,-0.00214263,0.140687,0.00246336,0.0148621,923,512,-1.92705,22.2862
-294,512,-1.90784,-22.7476,0.00220925,-0.00263656,0.000915345,0.00237639,-0.0028037,0.180606,0.00299412,0.0150627,930,512,-1.90787,22.7476
-287,512,-1.98724,-23.1781,0.00244832,-0.00325811,0.00123342,0.0027035,-0.00351329,0.204014,0.00359941,0.0240934,937,512,-1.98726,23.1781
-280,512,-1.90125,-23.7243,0.00261221,-0.00407521,0.00176023,0.00304723,-0.00451023,0.242284,0.00439047,0.043456,944,512,-1.90123,23.7243
-273,512,-1.57855,-24.324,0,0,0,0,0,0,0,-1,951,512,-1.57855,24.324
-266,512,-1.88379,-24.7896,0,0,0,0,0,0,0,-1,958,512,-1.88378,24.7895
-259,512,-0.525452,-14.0815,0,0,0,0,0,0,0,-1,965,512,-0.525475,14.0815
-252,512,1.45941,-3.43475,0,0,0,0,0,0,0,-1,972,512,1.45938,3.43475
-245,512,-1.6731,-22.8959,0,0,0,0,0,0,0,-1,979,512,-1.67312,22.8959
-238,512,0.227051,-8.92969,0,0,0,0,0,0,0,-1,986,512,0.227073,8.92968
-231,512,-2.54437,-10.169,0,0,0,0,0,0,0,-1,993,512,-2.54439,10.169
-224,512,-4.84601,-7.52783,0,0,0,0,0,0,0,-1,1000,512,-4.84602,7.52786
-217,512,-7.37274,-3.89563,0,0,0,0,0,0,0,-1,1007,512,-7.37274,3.89561
-210,512,-3.76642,-1.94702,0,0,0,0,0,0,0,-1,1014,512,-3.76641,1.94702
-203,512,-2.48328,-5.19061,0,0,0,0,0,0,0,-1,1021,512,-2.48328,5.19059
-196,512,-1.14929,-4.63202,0,0,0,0,0,0,0,-1,1028,512,-1.14934,4.632
-189,512,0.197998,4.55505,0,0,0,0,0,0,0,-1,1035,512,0.197996,-4.55506
-182,512,2.73938,0.0778503,0,0,0,0,0,0,0,-1,1042,512,2.73944,-0.077852
-175,512,2.29565,0.209808,0,0,0,0,0,0,0,-1,1049,512,2.29565,-0.209813
-168,512,2.09399,-0.302856,0,0,0,0,0,0,0,-1,1056,512,2.09403,0.302826
-161,512,2.76636,0.0921021,0,0,0,0,0,0,0,-1,1063,512,2.76633,-0.0921104
-154,512,3.41382,0.466187,0,0,0,0,0,0,0,-1,1070,512,3.41382,-0.466178
-147,512,0,0,0,0,0,0,0,0,0,-1,1077,512,0,0
-140,512,0,0,0,0,0,0,0,0,0,-1,1084,512,0,0
-133,512,0,0,0,0,0,0,0,0,0,-1,1091,512,0,0
-126,512,0,0,0,0,0,0,0,0,0,-1,1098,512,0,0
-119,512,0,0,0,0,0,0,0,0,0,-1,1105,512,0,0
-112,512,0,0,0,0,0,0,0,0,0,-1,1112,512,0,0
-105,512,0,0,0,0,0,0,0,0,0,-1,1119,512,0,0
-98,512,0,0,0,0,0,0,0,0,0,-1,1126,512,0,0
-91,512,0,0,0,0,0,0,0,0,0,-1,1133,512,0,0
-84,512,0,0,0,0,0,0,0,0,0,-1,1140,512,0,0
-77,512,0,0,0,0,0,0,0,0,0,-1,1147,512,0,0
-70,512,0,0,0,0,0,0,0,0,0,-1,1154,512,0,0
-63,512,0,0,0,0,0,0,0,0,0,-1,1161,512,0,0
-56,512,0,0,0,0,0,0,0,0,0,-1,1168,512,0,0
-49,512,0,0,0,0,0,0,0,0,0,-1,1175,512,0,0
-42,512,0,0,0,0,0,0,0,0,0,-1,1182,512,0,0
-35,512,0,0,0,0,0,0,0,0,0,-1,1189,512,0,0
-28,512,0,0,0,0,0,0,0,0,0,-1,1196,512,0,0
-21,512,0,0,0,0,0,0,0,0,0,-1,1203,512,0,0
-14,512,0,0,0,0,0,0,0,0,0,-1,1210,512,0,0
-7,512,0,0,0,0,0,0,0,0,0,-1,1217,512,0,0
0,512,0,0,0,0,0,0,0,0,0,-1,1224,512,0,0
7,512,0,0,0,0,0,0,0,0,0,-1,1231,512,0,0
14,512,0,0,0,0,0,0,0,0,0,-1,1238,512,0,0
21,512,0,0,0,0,0,0,0,0,0,-1,1245,512,0,0
28,512,0,0,0,0,0,0,0,0,0,-1,1252,512,0,0
35,512,0,0,0,0,0,0,0,0,0,-1,1259,512,0,0
42,512,0,0,0,0,0,0,0,0,0,-1,1266,512,0,0
49,512,0,0,0,0,0,0,0,0,0,-1,1273,512,0,0
56,512,0,0,0,0,0,0,0,0,0,-1,1280,512,0,0
63,512,0,0,0,0,0,0,0,0,0,-1,1287,512,0,0
70,512,0,0,0,0,0,0,0,0,0,-1,1294,512,0,0
77,512,0,0,0,0,0,0,0,0,0,-1,1301,512,0,0
84,512,0,0,0,0,0,0,0,0,0,-1,1308,512,0,0
91,512,0,0,0,0,0,0,0,0,0,-1,1315,512,0,0
98,512,0,0,0,0,0,0,0,0,0,-1,1322,512,0,0
105,512,0,0,0,0,0,0,0,0,0,-1,1329,512,0,0
112,512,0,0,0,0,0,0,0,0,0,-1,1336,512,0,0
119,512,0,0,0,0,0,0,0,0,0,-1,1343,512,0,0
126,512,0,0,0,0,0,0,0,0,0,-1,1350,512,0,0
133,512,0,0,0,0,0,0,0,0,0,-1,1357,512,0,0
140,512,0,0,0,0,0,0,0,0,0,-1,1364,512,0,0
147,512,0,0,0,0,0,0,0,0,0,-1,1371,512,0,0
154,512,0,0,0,0,0,0,0,0,0,-1,1378,512,0,0
161,512,0,0,0,0,0,0,0,0,0,-1,1385,512,0,0
168,512,0,0,0,0,0,0,0,0,0,-1,1392,512,0,0
175,512,0,0,0,0,0,0,0,0,0,-1,1399,512,0,0
182,512,0,0,0,0,0,0,0,0,0,-1,1406,512,0,0
189,512,0,0,0,0,0,0,0,0,0,-1,1413,512,0,0
196,512,0,0,0,0,0,0,0,0,0,-1,1420,512,0,0
203,512,0,0,0,0,0,0,0,0,0,-1,1427,512,0,0
210,512,0,0,0,0,0,0,0,0,0,-1,1434,512,0,0
217,512,0,0,0,0,0,0,0,0,0,-1,1441,512,0,0
224,512,0,0,0,0,0,0,0,0,0,-1,1448,512,0,0
231,512,0,0,0,0,0,0,0,0,0,-1,1455,512,0,0
238,512,0,0,0,0,0,0,0,0,0,-1,1462,512,0,0
245,512,0,0,0,0,0,0,0,0,0,-1,1469,512,0,0
252,512,0,0,0,0,0,0,0,0,0,-1,1476,512,0,0
259,512,0,0,0,0,0,0,0,0,0,-1,1483,512,0,0
266,512,0,0,0,0,0,0,0,0,0,-1,1490,512,0,0
273,512,4.00745,0.618622,0,0,0,0,0,0,0,-1,1497,512,4.00747,-0.618611
280,512,4.49609,0.649841,0,0,0,0,0,0,0,-1,1504,512,4.49612,-0.649834
287,512,4.77234,0.458069,0,0,0,0,0,0,0,-1,1511,512,4.77233,-0.458083
294,512,8.54956,-2.36273,0,0,0,0,0,0,0,-1,1518,512,8.54952,2.36274
301,512,6.302,-1.69092,0,0,0,0,0,0,0,-1,1525,512,6.30196,1.69093
308,512,8.2439,-6.22754,0,0,0,0,0,0,0,-1,1532,512,8.24394,6.22757
315,512,7.53687,-6.04211,0,0,0,0,0,0,0,-1,1539,512,7.53691,6.04211
322,512,6.82983,-5.85663,0,0,0,0,0,0,0,-1,1546,512,6.82988,5.85666
329,512,4.38147,-0.329651,0,0,0,0,0,0,0,-1,1553,512,4.38144,0.329662
336,512,4.41467,-0.741455,0,0,0,0,0,0,0,-1,1560,512,4.41467,0.741442
343,512,4.44727,-1.21667,0,0,0,0,0,0,0,-1,1567,512,4.44732,1.21666
350,512,4.55469,-1.65082,0,0,0,0,0,0,0,-1,1574,512,4.5547,1.65083
357,512,5.79993,-2.67456,0,0,0,0,0,0,0,-1,1581,512,5.79991,2.67454
364,512,8.56641,-24.3753,0,0,0,0,0,0,0,-1,1588,512,8.56646,24.3753
371,512,5.28467,-7.69269,0,0,0,0,0,0,0,-1,1595,512,5.28464,7.69269
378,512,6.29407,-9.88055,0,0,0,0,0,0,0,-1,1602,512,6.29412,9.88057
385,512,6.45569,-9.32233,0,0,0,0,0,0,0,-1,1609,512,6.45565,9.3223
392,512,6.35522,-8.98425,0,0,0,0,0,0,0,-1,1616,512,6.35526,8.98422
399,512,7.5304,-12.1449,0,0,0,0,0,0,0,-1,1623,512,7.53042,12.1449
406,512,11.9833,-22.8373,0,0,0,0,0,0,0,-1,1630,512,11.9832,22.8373
413,512,12.0477,-22.2705,0,0,0,0,0,0,0,-1,1637,512,12.0478,22.2705
420,512,12.0219,-21.7615,0.00243481,0.00238758,0.000189353,0.00260202,0.00222038,0.723366,0.00162249,0.0261383,1644,512,12.0218,21.7616
427,512,12.009,-21.2078,0.00223694,0.00243362,0.00036414,0.00271247,0.0019581,0.91728,0.00161663,0.0147049,1651,512,12.009,21.2078
434,512,11.9847,-20.6859,0.00187449,0.00227224,0.00045966,0.00257421,0.00157253,0.989569,0.00149835,0.0111019,1658,512,11.9847,20.6859
441,512,11.9517,-20.1379,0.00162264,0.00210776,0.000567181,0.00248207,0.00124833,0.98746,0.00143303,0.0136489,1665,512,11.9517,20.1379
448,512,11.9299,-19.6118,0.00146748,0.00185167,0.000740038,0.00242414,0.000895013,0.912381,0.00141545,0.00971952,1672,512,11.93,19.6118
455,512,11.9194,-19.0881,0.00123236,0.00167066,0.00088266,0.00236097,0.000542052,0.907081,0.00142801,0.00890603,1679,512,11.9194,19.0881
462,512,11.9312,-18.5554,0.000972382,0.00145699,0.00103906,0.00228163,0.00014775,0.89995,0.0014743,0.00923336,1686,512,11.9311,18.5554
469,512,11.9117,-17.9908,0.000574249,0.00108399,0.00121594,0.00207148,-0.00041324,0.888707,0.00153736,0.0110107,1693,512,11.9117,17.9909
476,512,11.8866,-17.4477,-0.000190891,0.000483283,0.00133739,0.00152542,-0.00123302,0.908851,0.00159557,0.0141476,1700,512,11.8866,17.4477
483,512,11.8706,-16.8925,-0.0010343,-0.000181978,0.00138811,0.000843919,-0.00206019,0.934334,0.00172501,0.0131499,1707,512,11.8706,16.8925
490,512,11.8627,-16.3281,-0.00217813,-0.00109823,0.001361,-0.000173986,-0.00310237,0.974242,0.00201276,0.0104845,1714,512,11.8627,16.3282
497,512,11.8611,-15.7612,-0.00367194,-0.00226647,0.00125478,-0.00153104,-0.00440737,1.04066,0.00258381,0.0113823,1721,512,11.8611,15.7612
504,512,11.8341,-15.1739,-0.00559297,-0.00378037,0.00099389,-0.0033416,-0.00603174,1.15507,0.00348919,0.0120732,1728,512,11.8342,15.1739
511,512,11.7723,-14.5679,-0.00799475,-0.0056345,0.000528877,-0.00552141,-0.00810784,1.36014,0.0047822,0.0137972,1735,512,11.7724,14.5679
518,512,11.7737,-13.9852,-0.0108627,-0.00779081,-0.000166158,-0.00778185,-0.0108717,-1.51692,0.00646869,0.0182066,1742,512,11.7737,13.9852
525,512,11.5447,-13.575,-0.0143831,-0.0102692,-0.00115994,-0.0099647,-0.0146876,-1.31406,0.00865803,0.0433403,1749,512,11.5447,13.575
532,512,11.4579,-13.0031,0,0,0,0,0,0,0,-1,1756,512,11.4579,13.0031
539,512,7.05908,-7.00647,0,0,0,0,0,0,0,-1,1763,512,7.05909,7.00647
546,512,2.77551,-0.66449,0,0,0,0,0,0,0,-1,1770,512,2.77548,0.664503
553,512,3.927,-0.448853,0,0,0,0,0,0,0,-1,1777,512,3.92704,0.448843
560,512,3.55762,-0.201233,0,0,0,0,0,0,0,-1,1784,512,3.55768,0.201259
567,512,3.09045,0.191193,0,0,0,0,0,0,0,-1,1791,512,3.09045,-0.191203
574,512,0,0,0,0,0,0,0,0,0,-1,1798,512,0,0
581,512,0,0,0,0,0,0,0,0,0,-1,1805,512,0,0
588,512,0,0,0,0,0,0,0,0,0,-1,1812,512,0,0
595,512,0,0,0,0,0,0,0,0,0,-1,1819,512,0,0
602,512,0,0,0,0,0,0,0,0,0,-1,1826,512,0,0
609,512,0,0,0,0,0,0,0,0,0,-1,1833,512,0,0
616,512,0,0,0,0,0,0,0,0,0,-1,1840,512,0,0
623,512,0,0,0,0,0,0,0,0,0,-1,1847,512,0,0
630,512,0,0,0,0,0,0,0,0,0,-1,1854,512,0,0
637,512,0,0,0,0,0,0,0,0,0,-1,1861,512,0,0
644,512,0,0,0,0,0,0,0,0,0,-1,1868,512,0,0
651,512,0,0,0,0,0,0,0,0,0,-1,1875,512,0,0
658,512,0,0,0,0,0,0,0,0,0,-1,1882,512,0,0
665,512,0,0,0,0,0,0,0,0,0,-1,1889,512,0,0
672,512,0,0,0,0,0,0,0,0,0,-1,1896,512,0,0
679,512,0,0,0,0,0,0,0,0,0,-1,1903,512,0,0
686,512,0,0,0,0,0,0,0,0,0,-1,1910,512,0,0
693,512,0,0,0,0,0,0,0,0,0,-1,1917,512,0,0
700,512,0,0,0,0,0,0,0,0,0,-1,1924,512,0,0
707,512,0,0,0,0,0,0,0,0,0,-1,1931,512,0,0
714,512,0,0,0,0,0,0,0,0,0,-1,1938,512,0,0
721,512,0,0,0,0,0,0,0,0,0,-1,1945,512,0,0
728,512,0,0,0,0,0,0,0,0,0,-1,1952,512,0,0
735,512,0,0,0,0,0,0,0,0,0,-1,1959,512,0,0
742,512,0,0,0,0,0,0,0,0,0,-1,1966,512,0,0
749,512,0,0,0,0,0,0,0,0,0,-1,1973,512,0,0
756,512,0,0,0,0,0,0,0,0,0,-1,1980,512,0,0
763,512,0,0,0,0,0,0,0,0,0,-1,1987,512,0,0
770,512,0,0,0,0,0,0,0,0,0,-1,1994,512,0,0
777,512,0,0,0,0,0,0,0,0,0,-1,2001,512,0,0
784,512,0,0,0,0,0,0,0,0,0,-1,2008,512,0,0
791,512,0,0,0,0,0,0,0,0,0,-1,2015,512,0,0
798,512,0,0,0,0,0,0,0,0,0,-1,2022,512,0,0
805,512,0,0,0,0,0,0,0,0,0,-1,2029,512,0,0
812,512,0,0,0,0,0,0,0,0,0,-1,2036,512,0,0
-700,505,0,0,0,0,0,0,0,0,0,-1,524,519,0,0
-693,505,0,0,0,0,0,0,0,0,0,-1,531,519,0,0
-686,505,0,0,0,0,0,0,0,0,0,-1,538,519,0,0
-679,505,0,0,0,0,0,0,0,0,0,-1,545,519,0,0
-672,505,0,0,0,0,0,0,0,0,0,-1,552,519,0,0
-665,505,0,0,0,0,0,0,0,0,0,-1,559,519,0,0
-658,505,0,0,0,0,0,0,0,0,0,-1,566,519,0,0
-651,505,0,0,0,0,0,0,0,0,0,-1,573,519,0,0
-644,505,0,0,0,0,0,0,0,0,0,-1,580,519,0,0
-637,505,0,0,0,0,0,0,0,0,0,-1,587,519,0,0
-630,505,0,0,0,0,0,0,0,0,0,-1,594,519,0,0
-623,505,0,0,0,0,0,0,0,0,0,-1,601,519,0,0
-616,505,0,0,0,0,0,0,0,0,0,-1,608,519,0,0
-609,505,0,0,0,0,0,0,0,0,0,-1,615,519,0,0
-602,505,0,0,0,0,0,0,0,0,0,-1,622,519,0,0
-595,505,0,0,0,0,0,0,0,0,0,-1,629,519,0,0
-588,505,0,0,0,0,0,0,0,0,0,-1,636,519,0,0
-581,505,0,0,0,0,0,0,0,0,0,-1,643,519,0,0
-574,505,0,0,0,0,0,0,0,0,0,-1,650,519,0,0
-567,505,0,0,0,0,0,0,0,0,0,-1,657,519,0,0
-560,505,0,0,0,0,0,0,0,0,0,-1,664,519,0,0
-553,505,0,0,0,0,0,0,0,0,0,-1,671,519,0,0
-546,505,0,0,0,0,0,0,0,0,0,-1,678,519,0,0
-539,505,0,0,0,0,0,0,0,0,0,-1,685,519,0,0
-532,505,0,0,0,0,0,0,0,0,0,-1,692,519,0,0
-525,505,0,0,0,0,0,0,0,0,0,-1,699,519,0,0
-518,505,0,0,0,0,0,0,0,0,0,-1,706,519,0,0
-511,505,0,0,0,0,0,0,0,0,0,-1,713,519,0,0
-504,505,0,0,0,0,0,0,0,0,0,-1,720,519,0,0
-497,505,0,0,0,0,0,0,0,0,0,-1,727,519,0,0
-490,505,0,0,0,0,0,0,0,0,0,-1,734,519,0,0
-483,505,0,0,0,0,0,0,0,0,0,-1,741,519,0,0
-476,505,0,0,0,0,0,0,0,0,0,-1,748,519,0,0
-469,505,0,0,0,0,0,0,0,0,0,-1,755,519,0,0
-462,505,0,0,0,0,0,0,0,0,0,-1,762,519,0,0
-455,505,2.72137,-3.26379,0,0,0,0,0,0,0,-1,769,519,2.72135,3.26377
-448,505,2.51111,-3.94989,0,0,0,0,0,0,0,-1,776,519,2.51112,3.94986
-441,505,2.80212,-6.8902,0,0,0,0,0,0,0,-1,783,519,2.80209,6.89019
-434,505,-0.155212,-10.6374,0,0,0,0,0,0,0,-1,790,519,-0.155194,10.6374
-427,505,-0.474426,-10.4702,0,0,0,0,0,0,0,-1,797,519,-0.474433,10.4702
-420,505,-0.922546,-10.1928,0,0,0,0,0,0,0,-1,804,519,-0.92257,10.1928
-413,505,-3.33948,-13.6183,0,0,0,0,0,0,0,-1,811,519,-3.33949,13.6184
-406,505,-3.12128,-13.1361,0,0,0,0,0,0,0,-1,818,519,-3.12125,13.1361
-399,505,-2.18835,-14.6474,0,0,0,0,0,0,0,-1,825,519,-2.18838,14.6474
-392,505,-2.18713,-15.3237,-0.0029223,0.0184675,-0.005526,0.0198107,-0.00426557,-1.33234,0.0148349,0.0227773,832,519,-2.18714,15.3237
-385,505,-2.23169,-15.9428,-0.00235737,0.0155977,-0.00482549,0.0168124,-0.00357206,-1.3242,0.0125693,0.0101109,839,519,-2.23169,15.9428
-378,505,-2.26941,-16.5068,-0.00173324,0.0129802,-0.00425608,0.0141227,-0.00287567,-1.30856,0.0105057,0.0108425,846,519,-2.26941,16.5068
-371,505,-2.26483,-17.1098,-0.00122476,0.0103676,-0.00364471,0.0114183,-0.00227545,-1.29013,0.00847312,0.0133218,853,519,-2.26482,17.1098
-364,505,-2.29858,-17.6732,-0.000781424,0.00789243,-0.00297293,0.00881357,-0.00170257,-1.27033,0.00651778,0.0144761,860,519,-2.29861,17.6732
-357,505,-2.30988,-18.1823,-0.000309916,0.00575721,-0.00234464,0.00655768,-0.00111039,-1.2418,0.00478506,0.0117276,867,519,-2.30985,18.1823
-350,505,-2.32977,-18.7025,0.00018929,0.00391448,-0.00180086,0.0046427,-0.000538934,-1.18652,0.00328953,0.0112924,874,519,-2.32975,18.7025
-343,505,-2.36121,-19.2391,0.000651147,0.00224302,-0.00129203,0.0029646,-7.0431e-05,-1.06146,0.00200029,0.009516,881,519,-2.36123,19.2391
-336,505,-2.39569,-19.751,0.00106199,0.000839998,-0.000808407,0.00176699,0.000135005,-0.717172,0.00113567,0.0113085,888,519,-2.39567,19.751
-329,505,-2.36823,-20.2479,0.0015092,-0.000327306,-0.000411469,0.00159717,-0.000415282,-0.210637,0.00122687,0.0165315,895,519,-2.36822,20.2479
-322,505,-2.37616,-20.7709,0.00190422,-0.00110073,-6.06096e-05,0.00190544,-0.00110195,-0.020159,0.00175685,0.0198635,902,519,-2.37614,20.7709
-315,505,-2.39484,-21.2969,0.0022345,-0.00158709,0.000234088,0.00224879,-0.00160138,0.0609503,0.00223335,0.0146392,909,519,-2.39483,21.2969
-308,505,-2.4198,-21.7685,0.00258444,-0.0020766,0.000504311,0.00263838,-0.00213054,0.106554,0.00275854,0.0116752,916,519,-2.41979,21.7685
-301,505,-2.42218,-22.2565,0.0027654,-0.0025637,0.000985125,0.00294168,-0.00273998,0.177065,0.003281,0.0170942,923,519,-2.42218,22.2565
-294,505,-2.41327,-22.7273,0,0,0,0,0,0,0,-1,930,519,-2.41326,22.7273
-287,505,-2.47296,-23.2785,0,0,0,0,0,0,0,-1,937,519,-2.47295,23.2785
-280,505,-2.32355,-23.9707,0,0,0,0,0,0,0,-1,944,519,-2.32354,23.9707
-273,505,-0.0680542,-9.44867,0,0,0,0,0,0,0,-1,951,519,-0.0680462,9.44866
-266,505,-0.036377,-9.07922,0,0,0,0,0,0,0,-1,958,519,-0.0364055,9.0792
-259,505,0.10321,-6.69824,0,0,0,0,0,0,0,-1,965,519,0.103235,6.69826
-252,505,6.82312,-15.6972,0,0,0,0,0,0,0,-1,972,519,6.82314,15.6972
-245,505,4.26727,-12.9861,0,0,0,0,0,0,0,-1,979,519,4.2673,12.9861
-238,505,1.67432,-11.2307,0,0,0,0,0,0,0,-1,986,519,1.67429,11.2307
-231,505,-0.958435,-8.3075,0,0,0,0,0,0,0,-1,993,519,-0.958421,8.30751
-224,505,-3.69653,-5.12732,0,0,0,0,0,0,0,-1,1000,519,-3.69653,5.12733
-217,505,-6.34302,-1.65533,0,0,0,0,0,0,0,-1,1007,519,-6.34299,1.65535
-210,505,-3.06128,-0.396301,0,0,0,0,0,0,0,-1,1014,519,-3.06129,0.396294
-203,505,-4.26465,2.03607,0,0,0,0,0,0,0,-1,1021,519,-4.26462,-2.03606
-196,505,-5.47595,4.27295,0,0,0,0,0,0,0,-1,1028,519,-5.47597,-4.27292
-189,505,1.51526,5.56207,0,0,0,0,0,0,0,-1,1035,519,1.51523,-5.56209
-182,505,2.97815,7.5097,0,0,0,0,0,0,0,-1,1042,519,2.97812,-7.5097
-175,505,-2.38416,-2.17548,0,0,0,0,0,0,0,-1,1049,519,-2.38411,2.1755
-168,505,0,0,0,0,0,0,0,0,0,-1,1056,519,0,0
-161,505,0,0,0,0,0,0,0,0,0,-1,1063,519,0,0
-154,505,0,0,0,0,0,0,0,0,0,-1,1070,519,0,0
-147,505,0,0,0,0,0,0,0,0,0,-1,1077,519,0,0
-140,505,0,0,0,0,0,0,0,0,0,-1,1084,519,0,0
-133,505,0,0,0,0,0,0,0,0,0,-1,1091,519,0,0
-126,505,0,0,0,0,0,0,0,0,0,-1,1098,519,0,0
-119,505,0,0,0,0,0,0,0,0,0,-1,1105,519,0,0
-112,505,0,0,0,0,0,0,0,0,0,-1,1112,519,0,0
-105,505,0,0,0,0,0,0,0,0,0,-1,1119,519,0,0
-98,505,0,0,0,0,0,0,0,0,0,-1,1126,519,0,0
-91,505,0,0,0,0,0,0,0,0,0,-1,1133,519,0,0
-84,505,0,0,0,0,0,0,0,0,0,-1,1140,519,0,0
-77,505,0,0,0,0,0,0,0,0,0,-1,1147,519,0,0
-70,505,0,0,0,0,0,0,0,0,0,-1,1154,519,0,0
-63,505,0,0,0,0,0,0,0,0,0,-1,1161,519,0,0
-56,505,0,0,0,0,0,0,0,0,0,-1,1168,519,0,0
-49,505,0,0,0,0,0,0,0,0,0,-1,1175,519,0,0
-42,505,0,0,0,0,0,0,0,0,0,-1,1182,519,0,0
-35,505,0,0,0,0,0,0,0,0,0,-1,1189,519,0,0
-28,505,0,0,0,0,0,0,0,0,0,-1,1196,519,0,0
-21,505,0,0,0,0,0,0,0,0,0,-1,1203,519,0,0
-14,505,0,0,0,0,0,0,0,0,0,-1,1210,519,0,0
-7,505,0,0,0,0,0,0,0,0,0,-1,1217,519,0,0
0,505,0,0,0,0,0,0,0,0,0,-1,1224,519,0,0
7,505,0,0,0,0,0,0,0,0,0,-1,1231,519,0,0
14,505,0,0,0,0,0,0,0,0,0,-1,1238,519,0,0
21,505,0,0,0,0,0,0,0,0,0,-1,1245,519,0,0
28,505,0,0,0,0,0,0,0,0,0,-1,1252,519,0,0
35,505,0,0,0,0,0,0,0,0,0,-1,1259,519,0,0
42,505,0,0,0,0,0,0,0,0,0,-1,1266,519,0,0
49,505,0,0,0,0,0,0,0,0,0,-1,1273,519,0,0
56,505,0,0,0,0,0,0,0,0,0,-1,1280,519,0,0
63,505,0,0,0,0,0,0,0,0,0,-1,1287,519,0,0
70,505,0,0,0,0,0,0,0,0,0,-1,1294,519,0,0
77,505,0,0,0,0,0,0,0,0,0,-1,1301,519,0,0
84,505,0,0,0,0,0,0,0,0,0,-1,1308,519,0,0
91,505,0,0,0,0,0,0,0,0,0,-1,1315,519,0,0
98,505,0,0,0,0,0,0,0,0,0,-1,1322,519,0,0
105,505,0,0,0,0,0,0,0,0,0,-1,1329,519,0,0
112,505,0,0,0,0,0,0,0,0,0,-1,1336,519,0,0
119,505,0,0,0,0,0,0,0,0,0,-1,1343,519,0,0
126,505,0,0,0,0,0,0,0,0,0,-1,1350,519,0,0
133,505,0,0,0,0,0,0,0,0,0,-1,1357,519,0,0
140,505,0,0,0,0,0,0,0,0,0,-1,1364,519,0,0
147,505,0,0,0,0,0,0,0,0,0,-1,1371,519,0,0
154,505,0,0,0,0,0,0,0,0,0,-1,1378,519,0,0
161,505,0,0,0,0,0,0,0,0,0,-1,1385,519,0,0
168,505,0,0,0,0,0,0,0,0,0,-1,1392,519,0,0
175,505,0,0,0,0,0,0,0,0,0,-1,1399,519,0,0
182,505,0,0,0,0,0,0,0,0,0,-1,1406,519,0,0
189,505,0,0,0,0,0,0,0,0,0,-1,1413,519,0,0
196,505,0,0,0,0,0,0,0,0,0,-1,1420,519,0,0
203,505,0,0,0,0,0,0,0,0,0,-1,1427,519,0,0
210,505,0,0,0,0,0,0,0,0,0,-1,1434,519,0,0
217,505,0,0,0,0,0,0,0,0,0,-1,1441,519,0,0
224,505,0,0,0,0,0,0,0,0,0,-1,1448,519,0,0
231,505,0,0,0,0,0,0,0,0,0,-1,1455,519,0,0
238,505,0,0,0,0,0,0,0,0,0,-1,1462,519,0,0
245,505,0,0,0,0,0,0,0,0,0,-1,1469,519,0,0
252,505,0,0,0,0,0,0,0,0,0,-1,1476,519,0,0
259,505,0,0,0,0,0,0,0,0,0,-1,1483,519,0,0
266,505,0,0,0,0,0,0,0,0,0,-1,1490,519,0,0
273,505,0,0,0,0,0,0,0,0,0,-1,1497,519,0,0
280,505,0,0,0,0,0,0,0,0,0,-1,1504,519,0,0
287,505,4.39478,0.499512,0,0,0,0,0,0,0,-1,1511,519,4.39476,-0.499506
294,505,4.88867,0.0822754,0,0,0,0,0,0,0,-1,1518,519,4.88871,-0.0822748
301,505,4.82153,-0.0704346,0,0,0,0,0,0,0,-1,1525,519,4.82156,0.0704312
308,505,4.67761,-0.29187,0,0,0,0,0,0,0,-1,1532,519,4.67762,0.291845
315,505,8.44055,-6.54352,0,0,0,0,0,0,0,-1,1539,519,8.44059,6.54349
322,505,4.78955,-0.594116,0,0,0,0,0,0,0,-1,1546,519,4.78957,0.594096
329,505,5.16321,0.434631,0,0,0,0,0,0,0,-1,1553,519,5.16316,-0.434614
336,505,4.94495,-0.920471,0,0,0,0,0,0,0,-1,1560,519,4.945,0.920495
343,505,5.01855,-1.4823,0,0,0,0,0,0,0,-1,1567,519,5.01851,1.48227
350,505,5.33154,-1.77838,0,0,0,0,0,0,0,-1,1574,519,5.33152,1.77838
357,505,5.56567,-1.9425,0,0,0,0,0,0,0,-1,1581,519,5.56562,1.94248
364,505,5.85205,-2.6579,0,0,0,0,0,0,0,-1,1588,519,5.85211,2.65788
371,505,5.88477,-7.00922,0,0,0,0,0,0,0,-1,1595,519,5.88473,7.00924
378,505,5.44104,-7.10162,0,0,0,0,0,0,0,-1,1602,519,5.44099,7.10162
385,505,6.64661,-8.65015,0,0,0,0,0,0,0,-1,1609,519,6.64662,8.65014
392,505,6.34558,-8.3429,0,0,0,0,0,0,0,-1,1616,519,6.34554,8.34288
399,505,7.45898,-9.70386,0,0,0,0,0,0,0,-1,1623,519,7.45899,9.70388
406,505,7.08679,-9.4928,0,0,0,0,0,0,0,-1,1630,519,7.08678,9.49278
413,505,8.4032,-14.0308,0,0,0,0,0,0,0,-1,1637,519,8.4032,14.0308
420,505,12.512,-21.9387,0,0,0,0,0,0,0,-1,1644,519,12.512,21.9386
427,505,12.5361,-21.3082,0.00271138,0.00295158,0.000504316,0.0033499,0.00231306,0.902295,0.0019803,0.0306809,1651,519,12.5362,21.3083
434,505,12.4963,-20.6921,0.00219674,0.00260221,0.000442687,0.00288638,0.00191257,1.00013,0.00169558,0.0125432,1658,519,12.4963,20.6921
441,505,12.5077,-20.1062,0.00187214,0.00231912,0.000394655,0.00254917,0.00164209,1.04303,0.00149202,0.0111344,1665,519,12.5077,20.1062
448,505,12.4818,-19.5765,0.00170887,0.00193107,0.000466464,0.00229948,0.00134046,0.902307,0.00133368,0.0110715,1672,519,12.4819,19.5765
455,505,12.4711,-19.0539,0.00144726,0.00168927,0.000525595,0.00210761,0.00102892,0.898538,0.00121694,0.0108207,1679,519,12.4711,19.0539
462,505,12.4663,-18.5314,0.00119623,0.00148851,0.000609721,0.00196936,0.000715384,0.903021,0.0011511,0.0101588,1686,519,12.4663,18.5315
469,505,12.4609,-17.9647,0.000901628,0.00121102,0.000765867,0.00183766,0.000274988,0.88505,0.00114451,0.011204,1693,519,12.4609,17.9646
476,505,12.4232,-17.4237,0.000324743,0.000758362,0.000897708,0.00146507,-0.000381965,0.903886,0.00112585,0.0120132,1700,519,12.4232,17.4237
483,505,12.4045,-16.8915,-0.000379854,0.000222176,0.000955861,0.000923299,-0.00108098,0.93794,0.00115836,0.0126204,1707,519,12.4045,16.8915
490,505,12.3932,-16.3275,-0.00135849,-0.000487544,0.000934567,0.000108026,-0.00195406,1.00342,0.00134017,0.0111997,1714,519,12.3932,16.3275
497,505,12.4021,-15.7551,-0.00261243,-0.00139304,0.00086752,-0.000942396,-0.00306308,1.0917,0.00181156,0.0110595,1721,519,12.4022,15.7551
504,505,12.3832,-15.1776,-0.00417608,-0.00255155,0.000686864,-0.00230007,-0.00442756,1.21982,0.0025569,0.0124145,1728,519,12.3832,15.1776
511,505,12.3257,-14.5856,-0.00613535,-0.00392048,0.000328941,-0.00387266,-0.00618317,1.42643,0.00360763,0.0140379,1735,519,12.3257,14.5855
518,505,12.348,-14.0187,-0.00843852,-0.00546907,-0.000257064,-0.00544698,-0.00846061,-1.48508,0.00495162,0.019974,1742,519,12.3481,14.0187
525,505,12.1882,-13.4511,-0.0111241,-0.00729708,-0.00110529,-0.00700079,-0.0114203,-1.30889,0.00664944,0.0323857,1749,519,12.1883,13.4511
532,505,12.1156,-12.6714,0,0,0,0,0,0,0,-1,1756,519,12.1156,12.6714
539,505,7.90369,-7.11932,0,0,0,0,0,0,0,-1,1763,519,7.90373,7.11932
546,505,7.94946,-6.64539,0,0,0,0,0,0,0,-1,1770,519,7.94947,6.64539
553,505,2.82837,0.162659,0,0,0,0,0,0,0,-1,1777,519,2.82841,-0.162672
560,505,3.66223,-0.479797,0,0,0,0,0,0,0,-1,1784,519,3.66219,0.47982
567,505,4.65271,-0.950256,0,0,0,0,0,0,0,-1,1791,519,4.65274,0.95028
574,505,5.54443,-1.19977,0,0,0,0,0,0,0,-1,1798,519,5.54443,1.19974
581,505,0,0,0,0,0,0,0,0,0,-1,1805,519,0,0
588,505,0,0,0,0,0,0,0,0,0,-1,1812,519,0,0
595,505,0,0,0,0,0,0,0,0,0,-1,1819,519,0,0
602,505,0,0,0,0,0,0,0,0,0,-1,1826,519,0,0
609,505,0,0,0,0,0,0,0,0,0,-1,1833,519,0,0
616,505,0,0,0,0,0,0,0,0,0,-1,1840,519,0,0
623,505,0,0,0,0,0,0,0,0,0,-1,1847,519,0,0
630,505,0,0,0,0,0,0,0,0,0,-1,1854,519,0,0
637,505,0,0,0,0,0,0,0,0,0,-1,1861,519,0,0
644,505,0,0,0,0,0,0,0,0,0,-1,1868,519,0,0
651,505,0,0,0,0,0,0,0,0,0,-1,1875,519,0,0
658,505,0,0,0,0,0,0,0,0,0,-1,1882,519,0,0
665,505,0,0,0,0,0,0,0,0,0,-1,1889,519,0,0
672,505,0,0,0,0,0,0,0,0,0,-1,1896,519,0,0
679,505,0,0,0,0,0,0,0,0,0,-1,1903,519,0,0
686,505,0,0,0,0,0,0,0,0,0,-1,1910,519,0,0
693,505,0,0,0,0,0,0,0,0,0,-1,1917,519,0,0
700,505,0,0,0,0,0,0,0,0,0,-1,1924,519,0,0
707,505,0,0,0,0,0,0,0,0,0,-1,1931,519,0,0
714,505,0,0,0,0,0,0,0,0,0,-1,1938,519,0,0
721,505,0,0,0,0,0,0,0,0,0,-1,1945,519,0,0
728,505,0,0,0,0,0,0,0,0,0,-1,1952,519,0,0
735,505,0,0,0,0,0,0,0,0,0,-1,1959,519,0,0
742,505,0,0,0,0,0,0,0,0,0,-1,1966,519,0,0
749,505,0,0,0,0,0,0,0,0,0,-1,1973,519,0,0
756,505,0,0,0,0,0,0,0,0,0,-1,1980,519,0,0
763,505,0,0,0,0,0,0,0,0,0,-1,1987,519,0,0
770,505,0,0,0,0,0,0,0,0,0,-1,1994,519,0,0
777,505,0,0,0,0,0,0,0,0,0,-1,2001,519,0,0
784,505,0,0,0,0,0,0,0,0,0,-1,2008,519,0,0
791,505,0,0,0,0,0,0,0,0,0,-1,2015,519,0,0
798,505,0,0,0,0,0,0,0,0,0,-1,2022,519,0,0
805,505,0,0,0,0,0,0,0,0,0,-1,2029,519,0,0
812,505,0,0,0,0,0,0,0,0,0,-1,2036,519,0,0
-700,498,0,0,0,0,0,0,0,0,0,-1,524,526,0,0
-693,498,0,0,0,0,0,0,0,0,0,-1,531,526,0,0
-686,498,0,0,0,0,0,0,0,0,0,-1,538,526,0,0
-679,498,0,0,0,0,0,0,0,0,0,-1,545,526,0,0
-672,498,0,0,0,0,0,0,0,0,0,-1,552,526,0,0
-665,498,0,0,0,0,0,0,0,0,0,-1,559,526,0,0
-658,498,0,0,0,0,0,0,0,0,0,-1,566,526,0,0
-651,498,0,0,0,0,0,0,0,0,0,-1,573,526,0,0
-644,498,0,0,0,0,0,0,0,0,0,-1,580,526,0,0
-637,498,0,0,0,0,0,0,0,0,0,-1,587,526,0,0
-630,498,0,0,0,0,0,0,0,0,0,-1,594,526,0,0
-623,498,0,0,0,0,0,0,0,0,0,-1,601,526,0,0
-616,498,0,0,0,0,0,0,0,0,0,-1,608,526,0,0
-609,498,0,0,0,0,0,0,0,0,0,-1,615,526,0,0
-602,498,0,0,0,0,0,0,0,0,0,-1,622,526,0,0
-595,498,0,0,0,0,0,0,0,0,0,-1,629,526,0,0
-588,498,0,0,0,0,0,0,0,0,0,-1,636,526,0,0
-581,498,0,0,0,0,0,0,0,0,0,-1,643,526,0,0
-574,498,0,0,0,0,0,0,0,0,0,-1,650,526,0,0
-567,498,0,0,0,0,0,0,0,0,0,-1,657,526,0,0
-560,498,0,0,0,0,0,0,0,0,0,-1,664,526,0,0
-553,498,0,0,0,0,0,0,0,0,0,-1,671,526,0,0
-546,498,0,0,0,0,0,0,0,0,0,-1,678,526,0,0
-539,498,0,0,0,0,0,0,0,0,0,-1,685,526,0,0
-532,498,0,0,0,0,0,0,0,0,0,-1,692,526,0,0
-525,498,0,0,0,0,0,0,0,0,0,-1,699,526,0,0
-518,498,0,0,0,0,0,0,0,0,0,-1,706,526,0,0
-511,498,0,0,0,0,0,0,0,0,0,-1,713,526,0,0
-504,498,0,0,0,0,0,0,0,0,0,-1,720,526,0,0
-497,498,0,0,0,0,0,0,0,0,0,-1,727,526,0,0
-490,498,0,0,0,0,0,0,0,0,0,-1,734,526,0,0
-483,498,0,0,0,0,0,0,0,0,0,-1,741,526,0,0
-476,498,0,0,0,0,0,0,0,0,0,-1,748,526,0,0
-469,498,0,0,0,0,0,0,0,0,0,-1,755,526,0,0
-462,498,6.81024,1.15515,0,0,0,0,0,0,0,-1,762,526,6.81026,-1.15514
-455,498,3.25757,-3.0592,0,0,0,0,0,0,0,-1,769,526,3.25754,3.05921
-448,498,3.05939,-3.74298,0,0,0,0,0,0,0,-1,776,526,3.05939,3.74296
-441,498,2.77191,-6.08209,0,0,0,0,0,0,0,-1,783,526,2.77189,6.08207
-434,498,2.10681,-6.95929,0,0,0,0,0,0,0,-1,790,526,2.10682,6.9593
-427,498,-0.368042,-10.7726,0,0,0,0,0,0,0,-1,797,526,-0.36807,10.7726
-420,498,-1.05035,-10.5142,0,0,0,0,0,0,0,-1,804,526,-1.05034,10.5142
-413,498,-2.95044,-12.6651,0,0,0,0,0,0,0,-1,811,526,-2.95045,12.6651
-406,498,-2.70148,-14.1447,0,0,0,0,0,0,0,-1,818,526,-2.70148,14.1446
-399,498,-2.71191,-14.7731,-0.00274801,0.0160051,-0.0047824,0.0171542,-0.00389719,-1.33497,0.0129325,0.0256004,825,526,-2.71189,14.773
-392,498,-2.742,-15.381,-0.00217608,0.01373,-0.00429198,0.0148142,-0.0032603,-1.32336,0.0111233,0.0127792,832,526,-2.74203,15.381
-385,498,-2.75867,-15.9396,-0.00156925,0.0114603,-0.00373559,0.0124553,-0.00256427,-1.31048,0.00927718,0.00940856,839,526,-2.75867,15.9396
-378,498,-2.76917,-16.4968,-0.000907705,0.00939143,-0.00328269,0.0103488,-0.00186503,-1.28704,0.00759754,0.0101176,846,526,-2.76917,16.4968
-371,498,-2.76733,-17.0739,-0.000397536,0.00724356,-0.00277253,0.00814355,-0.00129753,-1.25692,0.00590922,0.0150922,853,526,-2.76734,17.0739
-364,498,-2.81549,-17.6288,2.743e-05,0.00515843,-0.00218186,0.00596076,-0.0007749,-1.21842,0.00425572,0.0155793,860,526,-2.81547,17.6288
-357,498,-2.84149,-18.1499,0.000502002,0.00336499,-0.00163425,0.00410604,-0.00023905,-1.14508,0.00282042,0.0109838,867,526,-2.8415,18.1499
-350,498,-2.85791,-18.6859,0.00101326,0.00182202,-0.00118136,0.0026663,0.00016899,-0.950298,0.00172396,0.0114598,874,526,-2.85791,18.6859
-343,498,-2.87469,-19.2218,0.00146467,0.000397057,-0.000744046,0.00184659,1.51384e-05,-0.474231,0.00122605,0.012206,881,526,-2.87469,19.2218
-336,498,-2.90149,-19.7324,0.00186376,-0.00083275,-0.000316913,0.00190051,-0.000869495,-0.115431,0.00163577,0.0150816,888,526,-2.90151,19.7324
-329,498,-2.8678,-20.2197,0.00233339,-0.00169631,-2.51698e-05,0.00233355,-0.00169647,-0.00624574,0.0023364,0.0215105,895,526,-2.86781,20.2197
-322,498,-2.86877,-20.7605,0.00270041,-0.00216945,0.000287361,0.00271731,-0.00218635,0.0587364,0.00283666,0.0236232,902,526,-2.8688,20.7605
-315,498,-2.91284,-21.267,0.00297918,-0.00247664,0.00050403,0.00302535,-0.00252281,0.0913536,0.00320761,0.0176595,909,526,-2.91284,21.267
-308,498,-2.90704,-21.7419,0.00333432,-0.00288872,0.000688311,0.00340954,-0.00296394,0.108854,0.00368273,0.0199349,916,526,-2.90706,21.7419
-301,498,-2.82324,-22.2709,0.00353121,-0.00316801,0.00117092,0.00372997,-0.00336677,0.168145,0.00409909,0.0403557,923,526,-2.82324,22.271
-294,498,-2.76263,-22.813,0,0,0,0,0,0,0,-1,930,526,-2.76263,22.813
-287,498,-0.91394,-13.4327,0,0,0,0,0,0,0,-1,937,526,-0.913935,13.4327
-280,498,-0.341614,-8.66608,0,0,0,0,0,0,0,-1,944,526,-0.341589,8.66606
-273,498,-0.988892,-8.62921,0,0,0,0,0,0,0,-1,951,526,-0.988906,8.62922
-266,498,0.362488,-6.33545,0,0,0,0,0,0,0,-1,958,526,0.362478,6.33547
-259,498,10.9454,-17.3615,0,0,0,0,0,0,0,-1,965,526,10.9454,17.3614
-252,498,8.56586,-14.6886,0,0,0,0,0,0,0,-1,972,526,8.56584,14.6886
-245,498,5.97382,-11.928,0,0,0,0,0,0,0,-1,979,526,5.97381,11.928
-238,498,2.24841,-13.8145,0,0,0,0,0,0,0,-1,986,526,2.24838,13.8145
-231,498,0.665894,-10.4898,0,0,0,0,0,0,0,-1,993,526,0.665863,10.4898
-224,498,-2.11243,-4.76312,0,0,0,0,0,0,0,-1,1000,526,-2.11245,4.76314
-217,498,-3.82239,-1.42841,0,0,0,0,0,0,0,-1,1007,526,-3.82241,1.42843
-210,498,-1.80591,-0.358215,0,0,0,0,0,0,0,-1,1014,526,-1.8059,0.3582
-203,498,-3.17316,1.06641,0,0,0,0,0,0,0,-1,1021,526,-3.17313,-1.0664
-196,498,-0.103271,5.40527,0,0,0,0,0,0,0,-1,1028,526,-0.103285,-5.40528
-189,498,3.00256,6.47137,0,0,0,0,0,0,0,-1,1035,526,3.00256,-6.47139
-182,498,0,0,0,0,0,0,0,0,0,-1,1042,526,0,0
-175,498,0,0,0,0,0,0,0,0,0,-1,1049,526,0,0
-168,498,0,0,0,0,0,0,0,0,0,-1,1056,526,0,0
-161,498,0,0,0,0,0,0,0,0,0,-1,1063,526,0,0
-154,498,0,0,0,0,0,0,0,0,0,-1,1070,526,0,0
-147,498,0,0,0,0,0,0,0,0,0,-1,1077,526,0,0
-140,498,0,0,0,0,0,0,0,0,0,-1,1084,526,0,0
-133,498,0,0,0,0,0,0,0,0,0,-1,1091,526,0,0
-126,498,0,0,0,0,0,0,0,0,0,-1,1098,526,0,0
-119,498,0,0,0,0,0,0,0,0,0,-1,1105,526,0,0
-112,498,0,0,0,0,0,0,0,0,0,-1,1112,526,0,0
-105,498,0,0,0,0,0,0,0,0,0,-1,1119,526,0,0
-98,498,0,0,0,0,0,0,0,0,0,-1,1126,526,0,0
-91,498,0,0,0,0,0,0,0,0,0,-1,1133,526,0,0
-84,498,0,0,0,0,0,0,0,0,0,-1,1140,526,0,0
-77,498,0,0,0,0,0,0,0,0,0,-1,1147,526,0,0
-70,498,0,0,0,0,0,0,0,0,0,-1,1154,526,0,0
-63,498,0,0,0,0,0,0,0,0,0,-1,1161,526,0,0
-56,498,0,0,0,0,0,0,0,0,0,-1,1168,526,0,0
-49,498,0,0,0,0,0,0,0,0,0,-1,1175,526,0,0
-42,498,0,0,0,0,0,0,0,0,0,-1,1182,526,0,0
-35,498,0,0,0,0,0,0,0,0,0,-1,1189,526,0,0
-28,498,0,0,0,0,0,0,0,0,0,-1,1196,526,0,0
-21,498,0,0,0,0,0,0,0,0,0,-1,1203,526,0,0
-14,498,0,0,0,0,0,0,0,0,0,-1,1210,526,0,0
-7,498,0,0,0,0,0,0,0,0,0,-1,1217,526,0,0
0,498,0,0,0,0,0,0,0,0,0,-1,1224,526,0,0
7,498,0,0,0,0,0,0,0,0,0,-1,1231,526,0,0
14,498,0,0,0,0,0,0,0,0,0,-1,1238,526,0,0
21,498,0,0,0,0,0,0,0,0,0,-1,1245,526,0,0
28,498,0,0,0,0,0,0,0,0,0,-1,1252,526,0,0
35,498,0,0,0,0,0,0,0,0,0,-1,1259,526,0,0
42,498,0,0,0,0,0,0,0,0,0,-1,1266,526,0,0
49,498,0,0,0,0,0,0,0,0,0,-1,1273,526,0,0
56,498,0,0,0,0,0,0,0,0,0,-1,1280,526,0,0
63,498,0,0,0,0,0,0,0,0,0,-1,1287,526,0,0
70,498,0,0,0,0,0,0,0,0,0,-1,1294,526,0,0
77,498,0,0,0,0,0,0,0,0,0,-1,1301,526,0,0
84,498,0,0,0,0,0,0,0,0,0,-1,1308,526,0,0
91,498,0,0,0,0,0,0,0,0,0,-1,1315,526,0,0
98,498,0,0,0,0,0,0,0,0,0,-1,1322,526,0,0
105,498,0,0,0,0,0,0,0,0,0,-1,1329,526,0,0
112,498,0,0,0,0,0,0,0,0,0,-1,1336,526,0,0
119,498,0,0,0,0,0,0,0,0,0,-1,1343,526,0,0
126,498,0,0,0,0,0,0,0,0,0,-1,1350,526,0,0
133,498,0,0,0,0,0,0,0,0,0,-1,1357,526,0,0
140,498,0,0,0,0,0,0,0,0,0,-1,1364,526,0,0
147,498,0,0,0,0,0,0,0,0,0,-1,1371,526,0,0
154,498,0,0,0,0,0,0,0,0,0,-1,1378,526,0,0
161,498,0,0,0,0,0,0,0,0,0,-1,1385,526,0,0
168,498,0,0,0,0,0,0,0,0,0,-1,1392,526,0,0
175,498,0,0,0,0,0,0,0,0,0,-1,1399,526,0,0
182,498,0,0,0,0,0,0,0,0,0,-1,1406,526,0,0
189,498,0,0,0,0,0,0,0,0,0,-1,1413,526,0,0
196,498,0,0,0,0,0,0,0,0,0,-1,1420,526,0,0
203,498,0,0,0,0,0,0,0,0,0,-1,1427,526,0,0
210,498,0,0,0,0,0,0,0,0,0,-1,1434,526,0,0
217,498,0,0,0,0,0,0,0,0,0,-1,1441,526,0,0
224,498,0,0,0,0,0,0,0,0,0,-1,1448,526,0,0
231,498,0,0,0,0,0,0,0,0,0,-1,1455,526,0,0
238,498,0,0,0,0,0,0,0,0,0,-1,1462,526,0,0
245,498,0,0,0,0,0,0,0,0,0,-1,1469,526,0,0
252,498,0,0,0,0,0,0,0,0,0,-1,1476,526,0,0
259,498,0,0,0,0,0,0,0,0,0,-1,1483,526,0,0
266,498,0,0,0,0,0,0,0,0,0,-1,1490,526,0,0
273,498,0,0,0,0,0,0,0,0,0,-1,1497,526,0,0
280,498,0,0,0,0,0,0,0,0,0,-1,1504,526,0,0
287,498,0,0,0,0,0,0,0,0,0,-1,1511,526,0,0
294,498,0,0,0,0,0,0,0,0,0,-1,1518,526,0,0
301,498,0,0,0,0,0,0,0,0,0,-1,1525,526,0,0
308,498,4.77942,-0.293884,0,0,0,0,0,0,0,-1,1532,526,4.77939,0.293899
315,498,4.56091,-0.564148,0,0,0,0,0,0,0,-1,1539,526,4.56097,0.564142
322,498,4.52344,-0.447266,0,0,0,0,0,0,0,-1,1546,526,4.52341,0.447295
329,498,4.63232,-0.156982,0,0,0,0,0,0,0,-1,1553,526,4.63238,0.156991
336,498,5.22644,0.0925903,0,0,0,0,0,0,0,-1,1560,526,5.22648,-0.0926188
343,498,6.22607,-1.67615,0,0,0,0,0,0,0,-1,1567,526,6.22605,1.67617
350,498,6.19373,-1.59906,0,0,0,0,0,0,0,-1,1574,526,6.19367,1.59906
357,498,6.21472,-1.58929,0,0,0,0,0,0,0,-1,1581,526,6.21476,1.58927
364,498,5.73547,-1.2019,0,0,0,0,0,0,0,-1,1588,526,5.73547,1.20192
371,498,3.27087,-4.55334,0,0,0,0,0,0,0,-1,1595,526,3.27089,4.55332
378,498,8.42944,-4.70624,0,0,0,0,0,0,0,-1,1602,526,8.42942,4.70624
385,498,4.7793,-5.15314,0,0,0,0,0,0,0,-1,1609,526,4.77935,5.15311
392,498,9.12439,-8.57953,0,0,0,0,0,0,0,-1,1616,526,9.12443,8.57955
399,498,7.98938,-9.46021,0,0,0,0,0,0,0,-1,1623,526,7.98936,9.4602
406,498,7.58081,-9.26819,0,0,0,0,0,0,0,-1,1630,526,7.58085,9.26817
413,498,7.17236,-9.07611,0,0,0,0,0,0,0,-1,1637,526,7.17234,9.07614
420,498,11.4314,-16.1147,0,0,0,0,0,0,0,-1,1644,526,11.4313,16.1147
427,498,12.9386,-21.3647,0,0,0,0,0,0,0,-1,1651,526,12.9386,21.3648
434,498,12.9282,-20.6926,0.00256044,0.00315491,0.000647969,0.00357057,0.00214479,1.00044,0.00207535,0.0383991,1658,526,12.9282,20.6926
441,498,13.035,-20.1162,0.00211948,0.00269051,0.00039753,0.00289444,0.00191556,1.09683,0.00170002,0.0136809,1665,526,13.035,20.1162
448,498,13.0416,-19.5609,0.00191719,0.00212533,0.000334088,0.00237118,0.00167134,0.936389,0.00140678,0.0106978,1672,526,13.0416,19.5609
455,498,13.0117,-19.038,0.00159973,0.0017921,0.000280425,0.00199238,0.00139945,0.950612,0.0011813,0.0139009,1679,526,13.0118,19.0379
462,498,13.0227,-18.5234,0.00133555,0.00158264,0.000270617,0.00175658,0.00116161,0.999529,0.0010316,0.0154688,1686,526,13.0228,18.5234
469,498,13.0186,-17.9794,0.00113325,0.00137512,0.000389452,0.00166198,0.000846388,0.935939,0.0009596,0.013327,1693,526,13.0186,17.9795
476,498,12.9906,-17.426,0.000745153,0.00104899,0.000525912,0.00144448,0.000349656,0.926003,0.000870178,0.0103942,1700,526,12.9906,17.426
483,498,12.9598,-16.8807,0.000163933,0.000612893,0.000594669,0.00102404,-0.000247215,0.965873,0.000778298,0.00856878,1707,526,12.9598,16.8807
490,498,12.936,-16.3188,-0.000665157,7.70729e-05,0.000589851,0.000402844,-0.000990928,1.06619,0.000828227,0.00981296,1714,526,12.936,16.3189
497,498,12.9391,-15.7381,-0.00169787,-0.000607361,0.000573099,-0.000361575,-0.00194366,1.16565,0.00119364,0.0112204,1721,526,12.9391,15.7381
504,498,12.9231,-15.1708,-0.00294372,-0.00147879,0.000473229,-0.00133922,-0.00308329,1.28399,0.00178525,0.0139061,1728,526,12.9231,15.1708
511,498,12.8765,-14.5858,-0.00451214,-0.00246918,0.000226007,-0.00244447,-0.00453685,1.46192,0.00262198,0.0150074,1735,526,12.8765,14.5857
518,498,12.8994,-14.006,-0.00633045,-0.00356141,-0.000221985,-0.00354372,-0.00634814,-1.49131,0.00367337,0.015801,1742,526,12.8994,14.0061
525,498,12.7915,-13.4517,-0.00835277,-0.00490227,-0.000875547,-0.00469282,-0.00856222,-1.33599,0.00495101,0.0245543,1749,526,12.7915,13.4517
532,498,12.5948,-12.8813,-0.0105543,-0.00621887,-0.00167508,-0.00564708,-0.0111261,-1.24185,0.00642392,0.0423335,1756,526,12.5948,12.8813
539,498,12.618,-12.3185,0,0,0,0,0,0,0,-1,1763,526,12.618,12.3185
546,498,10.2014,-8.47589,0,0,0,0,0,0,0,-1,1770,526,10.2014,8.47589
553,498,5.93958,-1.71448,0,0,0,0,0,0,0,-1,1777,526,5.93956,1.71447
560,498,3.69385,-0.615112,0,0,0,0,0,0,0,-1,1784,526,3.69381,0.615118
567,498,5.12695,-0.581604,0,0,0,0,0,0,0,-1,1791,526,5.12699,0.58159
574,498,3.88,0.0286255,0,0,0,0,0,0,0,-1,1798,526,3.87999,-0.0286535
581,498,10.8722,2.58551,0,0,0,0,0,0,0,-1,1805,526,10.8723,-2.58551
588,498,0,0,0,0,0,0,0,0,0,-1,1812,526,0,0
595,498,0,0,0,0,0,0,0,0,0,-1,1819,526,0,0
602,498,0,0,0,0,0,0,0,0,0,-1,1826,526,0,0
609,498,0,0,0,0,0,0,0,0,0,-1,1833,526,0,0
616,498,0,0,0,0,0,0,0,0,0,-1,1840,526,0,0
623,498,0,0,0,0,0,0,0,0,0,-1,1847,526,0,0
630,498,0,0,0,0,0,0,0,0,0,-1,1854,526,0,0
637,498,0,0,0,0,0,0,0,0,0,-1,1861,526,0,0
644,498,0,0,0,0,0,0,0,0,0,-1,1868,526,0,0
651,498,0,0,0,0,0,0,0,0,0,-1,1875,526,0,0
658,498,0,0,0,0,0,0,0,0,0,-1,1882,526,0,0
665,498,0,0,0,0,0,0,0,0,0,-1,1889,526,0,0
672,498,0,0,0,0,0,0,0,0,0,-1,1896,526,0,0
679,498,0,0,0,0,0,0,0,0,0,-1,1903,526,0,0
686,498,0,0,0,0,0,0,0,0,0,-1,1910,526,0,0
693,498,0,0,0,0,0,0,0,0,0,-1,1917,526,0,0
700,498,0,0,0,0,0,0,0,0,0,-1,1924,526,0,0
707,498,0,0,0,0,0,0,0,0,0,-1,1931,526,0,0
714,498,0,0,0,0,0,0,0,0,0,-1,1938,526,0,0
721,498,0,0,0,0,0,0,0,0,0,-1,1945,526,0,0
728,498,0,0,0,0,0,0,0,0,0,-1,1952,526,0,0
735,498,0,0,0,0,0,0,0,0,0,-1,1959,526,0,0
742,498,0,0,0,0,0,0,0,0,0,-1,1966,526,0,0
749,498,0,0,0,0,0,0,0,0,0,-1,1973,526,0,0
756,498,0,0,0,0,0,0,0,0,0,-1,1980,526,0,0
763,498,0,0,0,0,0,0,0,0,0,-1,1987,526,0,0
770,498,0,0,0,0,0,0,0,0,0,-1,1994,526,0,0
777,498,0,0,0,0,0,0,0,0,0,-1,2001,526,0,0
784,498,0,0,0,0,0,0,0,0,0,-1,2008,526,0,0
791,498,0,0,0,0,0,0,0,0,0,-1,2015,526,0,0
798,498,0,0,0,0,0,0,0,0,0,-1,2022,526,0,0
805,498,0,0,0,0,0,0,0,0,0,-1,2029,526,0,0
812,498,0,0,0,0,0,0,0,0,0,-1,2036,526,0,0
-700,491,0,0,0,0,0,0,0,0,0,-1,524,533,0,0
-693,491,0,0,0,0,0,0,0,0,0,-1,531,533,0,0
-686,491,0,0,0,0,0,0,0,0,0,-1,538,533,0,0
-679,491,0,0,0,0,0,0,0,0,0,-1,545,533,0,0
-672,491,0,0,0,0,0,0,0,0,0,-1,552,533,0,0
-665,491,0,0,0,0,0,0,0,0,0,-1,559,533,0,0
-658,491,0,0,0,0,0,0,0,0,0,-1,566,533,0,0
-651,491,0,0,0,0,0,0,0,0,0,-1,573,533,0,0
-644,491,0,0,0,0,0,0,0,0,0,-1,580,533,0,0
-637,491,0,0,0,0,0,0,0,0,0,-1,587,533,0,0
-630,491,0,0,0,0,0,0,0,0,0,-1,594,533,0,0
-623,491,0,0,0,0,0,0,0,0,0,-1,601,533,0,0
-616,491,0,0,0,0,0,0,0,0,0,-1,608,533,0,0
-609,491,0,0,0,0,0,0,0,0,0,-1,615,533,0,0
-602,491,0,0,0,0,0,0,0,0,0,-1,622,533,0,0
-595,491,0,0,0,0,0,0,0,0,0,-1,629,533,0,0
-588,491,0,0,0,0,0,0,0,0,0,-1,636,533,0,0
-581,491,0,0,0,0,0,0,0,0,0,-1,643,533,0,0
-574,491,0,0,0,0,0,0,0,0,0,-1,650,533,0,0
-567,491,0,0,0,0,0,0,0,0,0,-1,657,533,0,0
-560,491,0,0,0,0,0,0,0,0,0,-1,664,533,0,0
-553,491,0,0,0,0,0,0,0,0,0,-1,671,533,0,0
-546,491,0,0,0,0,0,0,0,0,0,-1,678,533,0,0
-539,491,0,0,0,0,0,0,0,0,0,-1,685,533,0,0
-532,491,0,0,0,0,0,0,0,0,0,-1,692,533,0,0
-525,491,0,0,0,0,0,0,0,0,0,-1,699,533,0,0
-518,491,0,0,0,0,0,0,0,0,0,-1,706,533,0,0
-511,491,0,0,0,0,0,0,0,0,0,-1,713,533,0,0
-504,491,0,0,0,0,0,0,0,0,0,-1,720,533,0,0
-497,491,0,0,0,0,0,0,0,0,0,-1,727,533,0,0
-490,491,0,0,0,0,0,0,0,0,0,-1,734,533,0,0
-483,491,0,0,0,0,0,0,0,0,0,-1,741,533,0,0
-476,491,0,0,0,0,0,0,0,0,0,-1,748,533,0,0
-469,491,-5.85913,4.55011,0,0,0,0,0,0,0,-1,755,533,-5.8591,-4.55009
-462,491,-9.93713,4.90381,0,0,0,0,0,0,0,-1,762,533,-9.93716,-4.9038
-455,491,1.9494,-0.27887,0,0,0,0,0,0,0,-1,769,533,1.94941,0.27885
-448,491,2.68909,-1.8999,0,0,0,0,0,0,0,-1,776,533,2.6891,1.89988
-441,491,3.46069,-3.51855,0,0,0,0,0,0,0,-1,783,533,3.46071,3.51854
-434,491,2.67145,-7.44061,0,0,0,0,0,0,0,-1,790,533,2.67146,7.44061
-427,491,2.27136,-8.34546,0,0,0,0,0,0,0,-1,797,533,2.27136,8.34546
-420,491,-1.52142,-8.1123,0,0,0,0,0,0,0,-1,804,533,-1.52142,8.11228
-413,491,-3.28125,-13.5072,0,0,0,0,0,0,0,-1,811,533,-3.28126,13.5072
-406,491,-3.22888,-14.2558,-0.00277718,0.0136319,-0.00391007,0.014516,-0.00366127,-1.34843,0.0111009,0.0261089,818,533,-3.22885,14.2558
-399,491,-3.23395,-14.8681,-0.0021434,0.0117613,-0.00358687,0.0126321,-0.00301414,-1.33264,0.00958537,0.0120658,825,533,-3.23393,14.8681
-392,491,-3.2818,-15.4227,-0.0015438,0.00990244,-0.00318436,0.0107287,-0.00237005,-1.31692,0.00805949,0.0101842,832,533,-3.28177,15.4227
-385,491,-3.30017,-15.9537,-0.000895125,0.00807903,-0.00274477,0.00885196,-0.00166805,-1.2963,0.00652874,0.0090754,839,533,-3.30019,15.9537
-378,491,-3.31305,-16.496,-0.000199044,0.00641299,-0.0023849,0.00718342,-0.000969483,-1.25833,0.00514266,0.0131199,846,533,-3.31305,16.496
-371,491,-3.30499,-17.0461,0.000335516,0.00462682,-0.00196327,0.00538948,-0.000427138,-1.20028,0.00374349,0.0143265,853,533,-3.30499,17.0461
-364,491,-3.33441,-17.593,0.000776141,0.00286176,-0.00145664,0.00361039,2.75102e-05,-1.09606,0.00239781,0.0134163,860,533,-3.33438,17.593
-357,491,-3.3717,-18.123,0.00128523,0.00134324,-0.00100047,0.00231513,0.000313348,-0.799889,0.0014503,0.0115285,867,533,-3.3717,18.1231
-350,491,-3.38855,-18.6586,0.00183989,3.57681e-05,-0.000654759,0.00205247,-0.000176811,-0.313931,0.0014309,0.0145036,874,533,-3.38853,18.6587
-343,491,-3.37622,-19.1851,0.00231957,-0.00118099,-0.000314188,0.00234754,-0.00120896,-0.0888079,0.00208813,0.0253129,881,533,-3.37625,19.185
-336,491,-3.40222,-19.7079,0.00275479,-0.00227026,2.13156e-05,0.00275488,-0.00227035,0.00424176,0.00290581,0.0261357,888,533,-3.40224,19.7079
-329,491,-3.4057,-20.1999,0.00329949,-0.00283908,0.000160817,0.0033037,-0.00284329,0.0261739,0.00355228,0.0252928,895,533,-3.40573,20.1999
-322,491,-3.39868,-20.7162,0.00369087,-0.00299686,0.00038818,0.00371332,-0.00301932,0.057785,0.00389397,0.0227258,902,533,-3.39866,20.7162
-315,491,-3.45465,-21.1774,0.00394917,-0.00317412,0.000491715,0.00398296,-0.0032079,0.0685956,0.00415967,0.0204762,909,533,-3.45463,21.1774
-308,491,-3.37769,-21.7978,0,0,0,0,0,0,0,-1,916,533,-3.37768,21.7978
-301,491,-3.31488,-22.6328,0,0,0,0,0,0,0,-1,923,533,-3.3149,22.6328
-294,491,-0.777283,-8.60913,0,0,0,0,0,0,0,-1,930,533,-0.777288,8.6091
-287,491,-0.26123,-8.69055,0,0,0,0,0,0,0,-1,937,533,-0.261204,8.69053
-280,491,0.2948,-5.99219,0,0,0,0,0,0,0,-1,944,533,0.294811,5.99221
-273,491,0.369995,-5.33691,0,0,0,0,0,0,0,-1,951,533,0.369985,5.33693
-266,491,1.1167,-5.0321,0,0,0,0,0,0,0,-1,958,533,1.11668,5.0321
-259,491,12.0862,-16.9615,0,0,0,0,0,0,0,-1,965,533,12.0862,16.9615
-252,491,9.72443,-13.8417,0,0,0,0,0,0,0,-1,972,533,9.72444,13.8418
-245,491,5.27258,-14.3619,0,0,0,0,0,0,0,-1,979,533,5.27255,14.3619
-238,491,3.65381,-11.1472,0,0,0,0,0,0,0,-1,986,533,3.6538,11.1472
-231,491,2.17719,-7.86835,0,0,0,0,0,0,0,-1,993,533,2.17719,7.86832
-224,491,0.554626,-4.61725,0,0,0,0,0,0,0,-1,1000,533,0.554608,4.61727
-217,491,-2.92743,-1.0766,0,0,0,0,0,0,0,-1,1007,533,-2.92743,1.07659
-210,491,-0.92395,0.374512,0,0,0,0,0,0,0,-1,1014,533,-0.923959,-0.374531
-203,491,0.417419,4.77161,0,0,0,0,0,0,0,-1,1021,533,0.417446,-4.77162
-196,491,0,0,0,0,0,0,0,0,0,-1,1028,533,0,0
-189,491,0,0,0,0,0,0,0,0,0,-1,1035,533,0,0
-182,491,0,0,0,0,0,0,0,0,0,-1,1042,533,0,0
-175,491,0,0,0,0,0,0,0,0,0,-1,1049,533,0,0
-168,491,0,0,0,0,0,0,0,0,0,-1,1056,533,0,0
-161,491,0,0,0,0,0,0,0,0,0,-1,1063,533,0,0
-154,491,0,0,0,0,0,0,0,0,0,-1,1070,533,0,0
-147,491,0,0,0,0,0,0,0,0,0,-1,1077,533,0,0
-140,491,0,0,0,0,0,0,0,0,0,-1,1084,533,0,0
-133,491,0,0,0,0,0,0,0,0,0,-1,1091,533,0,0
-126,491,0,0,0,0,0,0,0,0,0,-1,1098,533,0,0
-119,491,0,0,0,0,0,0,0,0,0,-1,1105,533,0,0
-112,491,0,0,0,0,0,0,0,0,0,-1,1112,533,0,0
-105,491,0,0,0,0,0,0,0,0,0,-1,1119,533,0,0
-98,491,0,0,0,0,0,0,0,0,0,-1,1126,533,0,0
-91,491,0,0,0,0,0,0,0,0,0,-1,1133,533,0,0
-84,491,0,0,0,0,0,0,0,0,0,-1,1140,533,0,0
-77,491,0,0,0,0,0,0,0,0,0,-1,1147,533,0,0
-70,491,0,0,0,0,0,0,0,0,0,-1,1154,533,0,0
-63,491,0,0,0,0,0,0,0,0,0,-1,1161,533,0,0
-56,491,0,0,0,0,0,0,0,0,0,-1,1168,533,0,0
-49,491,0,0,0,0,0,0,0,0,0,-1,1175,533,0,0
-42,491,0,0,0,0,0,0,0,0,0,-1,1182,533,0,0
-35,491,0,0,0,0,0,0,0,0,0,-1,1189,533,0,0
-28,491,0,0,0,0,0,0,0,0,0,-1,1196,533,0,0
-21,491,0,0,0,0,0,0,0,0,0,-1,1203,533,0,0
-14,491,0,0,0,0,0,0,0,0,0,-1,1210,533,0,0
-7,491,0,0,0,0,0,0,0,0,0,-1,1217,533,0,0
0,491,0,0,0,0,0,0,0,0,0,-1,1224,533,0,0
7,491,0,0,0,0,0,0,0,0,0,-1,1231,533,0,0
14,491,0,0,0,0,0,0,0,0,0,-1,1238,533,0,0
21,491,0,0,0,0,0,0,0,0,0,-1,1245,533,0,0
28,491,0,0,0,0,0,0,0,0,0,-1,1252,533,0,0
35,491,0,0,0,0,0,0,0,0,0,-1,1259,533,0,0
42,491,0,0,0,0,0,0,0,0,0,-1,1266,533,0,0
49,491,0,0,0,0,0,0,0,0,0,-1,1273,533,0,0
56,491,0,0,0,0,0,0,0,0,0,-1,1280,533,0,0
63,491,0,0,0,0,0,0,0,0,0,-1,1287,533,0,0
70,491,0,0,0,0,0,0,0,0,0,-1,1294,533,0,0
77,491,0,0,0,0,0,0,0,0,0,-1,1301,533,0,0
84,491,0,0,0,0,0,0,0,0,0,-1,1308,533,0,0
91,491,0,0,0,0,0,0,0,0,0,-1,1315,533,0,0
98,491,0,0,0,0,0,0,0,0,0,-1,1322,533,0,0
105,491,0,0,0,0,0,0,0,0,0,-1,1329,533,0,0
112,491,0,0,0,0,0,0,0,0,0,-1,1336,533,0,0
119,491,0,0,0,0,0,0,0,0,0,-1,1343,533,0,0
126,491,0,0,0,0,0,0,0,0,0,-1,1350,533,0,0
133,491,0,0,0,0,0,0,0,0,0,-1,1357,533,0,0
140,491,0,0,0,0,0,0,0,0,0,-1,1364,533,0,0
147,491,0,0,0,0,0,0,0,0,0,-1,1371,533,0,0
154,491,0,0,0,0,0,0,0,0,0,-1,1378,533,0,0
161,491,0,0,0,0,0,0,0,0,0,-1,1385,533,0,0
168,491,0,0,0,0,0,0,0,0,0,-1,1392,533,0,0
175,491,0,0,0,0,0,0,0,0,0,-1,1399,533,0,0
182,491,0,0,0,0,0,0,0,0,0,-1,1406,533,0,0
189,491,0,0,0,0,0,0,0,0,0,-1,1413,533,0,0
196,491,0,0,0,0,0,0,0,0,0,-1,1420,533,0,0
203,491,0,0,0,0,0,0,0,0,0,-1,1427,533,0,0
210,491,0,0,0,0,0,0,0,0,0,-1,1434,533,0,0
217,491,0,0,0,0,0,0,0,0,0,-1,1441,533,0,0
224,491,0,0,0,0,0,0,0,0,0,-1,1448,533,0,0
231,491,0,0,0,0,0,0,0,0,0,-1,1455,533,0,0
238,491,0,0,0,0,0,0,0,0,0,-1,1462,533,0,0
245,491,0,0,0,0,0,0,0,0,0,-1,1469,533,0,0
252,491,0,0,0,0,0,0,0,0,0,-1,1476,533,0,0
259,491,0,0,0,0,0,0,0,0,0,-1,1483,533,0,0
266,491,0,0,0,0,0,0,0,0,0,-1,1490,533,0,0
273,491,0,0,0,0,0,0,0,0,0,-1,1497,533,0,0
280,491,0,0,0,0,0,0,0,0,0,-1,1504,533,0,0
287,491,0,0,0,0,0,0,0,0,0,-1,1511,533,0,0
294,491,0,0,0,0,0,0,0,0,0,-1,1518,533,0,0
301,491,0,0,0,0,0,0,0,0,0,-1,1525,533,0,0
308,491,0,0,0,0,0,0,0,0,0,-1,1532,533,0,0
315,491,0,0,0,0,0,0,0,0,0,-1,1539,533,0,0
322,491,4.26331,-0.734314,0,0,0,0,0,0,0,-1,1546,533,4.26326,0.734324
329,491,4.25354,-0.783752,0,0,0,0,0,0,0,-1,1553,533,4.25359,0.783734
336,491,4.81604,-0.722107,0,0,0,0,0,0,0,-1,1560,533,4.81605,0.722115
343,491,6.14478,-1.44281,0,0,0,0,0,0,0,-1,1567,533,6.14474,1.44281
350,491,6.36353,-1.30792,0,0,0,0,0,0,0,-1,1574,533,6.36352,1.3079
357,491,6.69482,-1.06018,0,0,0,0,0,0,0,-1,1581,533,6.69489,1.06018
364,491,8.01086,-1.69604,0,0,0,0,0,0,0,-1,1588,533,8.01087,1.69607
371,491,8.2135,-0.539307,0,0,0,0,0,0,0,-1,1595,533,8.21348,0.53929
378,491,13.3589,2.17267,0,0,0,0,0,0,0,-1,1602,533,13.3589,-2.17264
385,491,8.08228,-4.95471,0,0,0,0,0,0,0,-1,1609,533,8.08227,4.95474
392,491,2.88721,-4.30988,0,0,0,0,0,0,0,-1,1616,533,2.88716,4.30986
399,491,8.95862,-8.55518,0,0,0,0,0,0,0,-1,1623,533,8.95864,8.55516
406,491,8.16541,-9.00806,0,0,0,0,0,0,0,-1,1630,533,8.16535,9.00807
413,491,5.31848,-3.7124,0,0,0,0,0,0,0,-1,1637,533,5.31849,3.7124
420,491,4.86389,-3.95892,0,0,0,0,0,0,0,-1,1644,533,4.86387,3.95893
427,491,11.5096,-15.2742,0,0,0,0,0,0,0,-1,1651,533,11.5096,15.2742
434,491,13.4246,-20.7069,0,0,0,0,0,0,0,-1,1658,533,13.4246,20.7069
441,491,13.5886,-20.1605,0,0,0,0,0,0,0,-1,1665,533,13.5886,20.1605
448,491,13.564,-19.5897,0.00203307,0.00251347,0.00027122,0.00263557,0.00191098,1.14781,0.00157219,0.0329461,1672,533,13.564,19.5897
455,491,13.5305,-19.0264,0.00166081,0.00207136,0.000112932,0.00210037,0.00163179,1.31932,0.00127313,0.0167971,1679,533,13.5306,19.0264
462,491,13.5599,-18.4874,0.00142108,0.00183304,4.06214e-05,0.001837,0.00141711,1.47344,0.00111147,0.0153921,1686,533,13.5599,18.4874
469,491,13.5625,-17.9595,0.00133806,0.00165884,0.000136351,0.00170897,0.00128793,1.21852,0.00102812,0.0140662,1693,533,13.5625,17.9595
476,491,13.5448,-17.4134,0.00115902,0.00141537,0.00028868,0.00160305,0.000971337,0.994331,0.00093242,0.0101917,1700,533,13.5448,17.4134
483,491,13.512,-16.8538,0.000708266,0.00102638,0.000383144,0.00128217,0.000452476,0.982141,0.000750865,0.0119415,1707,533,13.512,16.8538
490,491,13.4944,-16.3151,2.1773e-05,0.000609667,0.000401747,0.000813521,-0.00018208,1.10123,0.000612135,0.0103505,1714,533,13.4943,16.3151
497,491,13.4916,-15.748,-0.000815382,7.83959e-05,0.00042863,0.000250727,-0.000987713,1.18852,0.000756039,0.0115673,1721,533,13.4916,15.7481
504,491,13.4824,-15.1493,-0.00179169,-0.00058595,0.000392154,-0.000469628,-0.00190801,1.28244,0.00114795,0.0137305,1728,533,13.4824,15.1493
511,491,13.4431,-14.5684,-0.00303549,-0.00130142,0.000233081,-0.00127064,-0.00306627,1.43949,0.00177894,0.0131108,1735,533,13.4431,14.5684
518,491,13.4073,-14.0204,-0.00447139,-0.00206257,-0.000103176,-0.00205816,-0.0044758,-1.52807,0.00258688,0.0103239,1742,533,13.4073,14.0204
525,491,13.4021,-13.4429,-0.00598845,-0.0030285,-0.000597446,-0.00291246,-0.00610449,-1.37896,0.00352566,0.0100045,1749,533,13.4021,13.4429
532,491,13.3981,-12.8709,-0.00757786,-0.00387943,-0.00116792,-0.00354149,-0.0079158,-1.28914,0.00457861,0.0214451,1756,533,13.3981,12.8709
539,491,13.2637,-12.3835,-0.00920231,-0.00469015,-0.00186671,-0.004018,-0.00987445,-1.22518,0.00573386,0.0395658,1763,533,13.2636,12.3835
546,491,13.0106,-11.671,0,0,0,0,0,0,0,-1,1770,533,13.0107,11.671
553,491,10.5021,-7.77869,0,0,0,0,0,0,0,-1,1777,533,10.502,7.77871
560,491,6.28455,-1.43585,0,0,0,0,0,0,0,-1,1784,533,6.28458,1.43586
567,491,5.67651,-1.3562,0,0,0,0,0,0,0,-1,1791,533,5.67649,1.3562
574,491,8.0719,1.58325,0,0,0,0,0,0,0,-1,1798,533,8.07195,-1.58326
581,491,9.44812,1.60931,0,0,0,0,0,0,0,-1,1805,533,9.44808,-1.60933
588,491,11.0497,1.54962,0,0,0,0,0,0,0,-1,1812,533,11.0496,-1.54963
595,491,0,0,0,0,0,0,0,0,0,-1,1819,533,0,0
602,491,0,0,0,0,0,0,0,0,0,-1,1826,533,0,0
609,491,0,0,0,0,0,0,0,0,0,-1,1833,533,0,0
616,491,0,0,0,0,0,0,0,0,0,-1,1840,533,0,0
623,491,0,0,0,0,0,0,0,0,0,-1,1847,533,0,0
630,491,0,0,0,0,0,0,0,0,0,-1,1854,533,0,0
637,491,0,0,0,0,0,0,0,0,0,-1,1861,533,0,0
644,491,0,0,0,0,0,0,0,0,0,-1,1868,533,0,0
651,491,0,0,0,0,0,0,0,0,0,-1,1875,533,0,0
658,491,0,0,0,0,0,0,0,0,0,-1,1882,533,0,0
665,491,0,0,0,0,0,0,0,0,0,-1,1889,533,0,0
672,491,0,0,0,0,0,0,0,0,0,-1,1896,533,0,0
679,491,0,0,0,0,0,0,0,0,0,-1,1903,533,0,0
686,491,0,0,0,0,0,0,0,0,0,-1,1910,533,0,0
693,491,0,0,0,0,0,0,0,0,0,-1,1917,533,0,0
700,491,0,0,0,0,0,0,0,0,0,-1,1924,533,0,0
707,491,0,0,0,0,0,0,0,0,0,-1,1931,533,0,0
714,491,0,0,0,0,0,0,0,0,0,-1,1938,533,0,0
721,491,0,0,0,0,0,0,0,0,0,-1,1945,533,0,0
728,491,0,0,0,0,0,0,0,0,0,-1,1952,533,0,0
735,491,0,0,0,0,0,0,0,0,0,-1,1959,533,0,0
742,491,0,0,0,0,0,0,0,0,0,-1,1966,533,0,0
749,491,0,0,0,0,0,0,0,0,0,-1,1973,533,0,0
756,491,0,0,0,0,0,0,0,0,0,-1,1980,533,0,0
763,491,0,0,0,0,0,0,0,0,0,-1,1987,533,0,0
770,491,0,0,0,0,0,0,0,0,0,-1,1994,533,0,0
777,491,0,0,0,0,0,0,0,0,0,-1,2001,533,0,0
784,491,0,0,0,0,0,0,0,0,0,-1,2008,533,0,0
791,491,0,0,0,0,0,0,0,0,0,-1,2015,533,0,0
798,491,0,0,0,0,0,0,0,0,0,-1,2022,533,0,0
805,491,0,0,0,0,0,0,0,0,0,-1,2029,533,0,0
812,491,0,0,0,0,0,0,0,0,0,-1,2036,533,0,0
-700,484,0,0,0,0,0,0,0,0,0,-1,524,540,0,0
-693,484,0,0,0,0,0,0,0,0,0,-1,531,540,0,0
-686,484,0,0,0,0,0,0,0,0,0,-1,538,540,0,0
-679,484,0,0,0,0,0,0,0,0,0,-1,545,540,0,0
-672,484,0,0,0,0,0,0,0,0,0,-1,552,540,0,0
-665,484,0,0,0,0,0,0,0,0,0,-1,559,540,0,0
-658,484,0,0,0,0,0,0,0,0,0,-1,566,540,0,0
-651,484,0,0,0,0,0,0,0,0,0,-1,573,540,0,0
-644,484,0,0,0,0,0,0,0,0,0,-1,580,540,0,0
-637,484,0,0,0,0,0,0,0,0,0,-1,587,540,0,0
-630,484,0,0,0,0,0,0,0,0,0,-1,594,540,0,0
-623,484,0,0,0,0,0,0,0,0,0,-1,601,540,0,0
-616,484,0,0,0,0,0,0,0,0,0,-1,608,540,0,0
-609,484,0,0,0,0,0,0,0,0,0,-1,615,540,0,0
-602,484,0,0,0,0,0,0,0,0,0,-1,622,540,0,0
-595,484,0,0,0,0,0,0,0,0,0,-1,629,540,0,0
-588,484,0,0,0,0,0,0,0,0,0,-1,636,540,0,0
-581,484,0,0,0,0,0,0,0,0,0,-1,643,540,0,0
-574,484,0,0,0,0,0,0,0,0,0,-1,650,540,0,0
-567,484,0,0,0,0,0,0,0,0,0,-1,657,540,0,0
-560,484,0,0,0,0,0,0,0,0,0,-1,664,540,0,0
-553,484,0,0,0,0,0,0,0,0,0,-1,671,540,0,0
-546,484,0,0,0,0,0,0,0,0,0,-1,678,540,0,0
-539,484,0,0,0,0,0,0,0,0,0,-1,685,540,0,0
-532,484,0,0,0,0,0,0,0,0,0,-1,692,540,0,0
-525,484,0,0,0,0,0,0,0,0,0,-1,699,540,0,0
-518,484,0,0,0,0,0,0,0,0,0,-1,706,540,0,0
-511,484,0,0,0,0,0,0,0,0,0,-1,713,540,0,0
-504,484,0,0,0,0,0,0,0,0,0,-1,720,540,0,0
-497,484,0,0,0,0,0,0,0,0,0,-1,727,540,0,0
-490,484,0,0,0,0,0,0,0,0,0,-1,734,540,0,0
-483,484,0,0,0,0,0,0,0,0,0,-1,741,540,0,0
-476,484,-8.46552,1.44702,0,0,0,0,0,0,0,-1,748,540,-8.46554,-1.44702
-469,484,-7.82343,1.70355,0,0,0,0,0,0,0,-1,755,540,-7.82345,-1.70355
-462,484,-8.36987,3.08612,0,0,0,0,0,0,0,-1,762,540,-8.36988,-3.0861
-455,484,-6.77197,2.07092,0,0,0,0,0,0,0,-1,769,540,-6.77197,-2.07094
-448,484,3.54895,-1.40106,0,0,0,0,0,0,0,-1,776,540,3.54897,1.40106
-441,484,4.28906,-3.05884,0,0,0,0,0,0,0,-1,783,540,4.28905,3.05883
-434,484,-2.17548,-5.07245,0,0,0,0,0,0,0,-1,790,540,-2.17546,5.07243
-427,484,-3.61749,-11.9354,0,0,0,0,0,0,0,-1,797,540,-3.6175,11.9354
-420,484,-3.65277,-12.8251,0,0,0,0,0,0,0,-1,804,540,-3.65278,12.8251
-413,484,-3.64246,-13.5698,-0.00302433,0.011608,-0.00312962,0.0122493,-0.0036656,-1.36869,0.00962364,0.029969,811,540,-3.64243,13.5698
-406,484,-3.70398,-14.2714,-0.00216073,0.0100225,-0.00298366,0.0107139,-0.00285218,-1.34307,0.00825917,0.016205,818,540,-3.70399,14.2714
-399,484,-3.79114,-14.8652,-0.00152168,0.00843892,-0.00268341,0.00911584,-0.00219859,-1.32369,0.00692738,0.0172408,825,540,-3.79116,14.8653
-392,484,-3.81866,-15.3865,-0.000907313,0.0068391,-0.0023218,0.00748169,-0.00154991,-1.30079,0.00557669,0.0180235,832,540,-3.81864,15.3865
-385,484,-3.8327,-15.9349,-0.000235813,0.00530384,-0.00195065,0.00592178,-0.000853757,-1.26401,0.00426104,0.0131518,839,540,-3.83272,15.935
-378,484,-3.85516,-16.4958,0.000473458,0.00390643,-0.0016379,0.0045625,-0.000182613,-1.18981,0.00310433,0.0148084,846,540,-3.85514,16.4958
-371,484,-3.84808,-17.0346,0.00103071,0.00239369,-0.00126765,0.00315142,0.000272974,-1.03203,0.00201613,0.0163587,853,540,-3.84808,17.0346
-364,484,-3.86945,-17.5452,0.00149644,0.000903272,-0.000826809,0.00207825,0.000321463,-0.613191,0.00129175,0.0114947,860,540,-3.86947,17.5452
-357,484,-3.90222,-18.0874,0.00204467,-0.000367791,-0.000451023,0.00212623,-0.000449355,-0.178908,0.0015886,0.0114248,867,540,-3.90224,18.0874
-350,484,-3.91504,-18.6226,0.00264347,-0.00144845,-0.000204144,0.00265363,-0.00145861,-0.049725,0.00240739,0.0143247,874,540,-3.91506,18.6226
-343,484,-3.87842,-19.1593,0.00315566,-0.00243431,4.48652e-05,0.00315602,-0.00243467,0.00802532,0.00323673,0.0232338,881,540,-3.87841,19.1593
-336,484,-3.89471,-19.6742,0.00363675,-0.00334681,0.000291014,0.00364885,-0.00335892,0.0415752,0.00404709,0.0269791,888,540,-3.89474,19.6742
-329,484,-3.9447,-20.1544,0.00427614,-0.00356631,0.000258851,0.00428468,-0.00357484,0.0329586,0.00454386,0.0381277,895,540,-3.94472,20.1544
-322,484,-3.88892,-20.7487,0,0,0,0,0,0,0,-1,902,540,-3.88889,20.7487
-315,484,-3.80627,-21.2006,0,0,0,0,0,0,0,-1,909,540,-3.80629,21.2006
-308,484,-1.32623,-8.9317,0,0,0,0,0,0,0,-1,916,540,-1.32626,8.93173
-301,484,-1.33453,-6.52667,0,0,0,0,0,0,0,-1,923,540,-1.33454,6.5267
-294,484,-1.61224,-8.17059,0,0,0,0,0,0,0,-1,930,540,-1.61227,8.17058
-287,484,-0.715759,-5.62103,0,0,0,0,0,0,0,-1,937,540,-0.715772,5.62105
-280,484,2.66742,-1.6795,0,0,0,0,0,0,0,-1,944,540,2.6674,1.67949
-273,484,2.53125,-2.22296,0,0,0,0,0,0,0,-1,951,540,2.53128,2.22295
-266,484,2.6778,-2.72058,0,0,0,0,0,0,0,-1,958,540,2.6778,2.72061
-259,484,2.41718,-2.59894,0,0,0,0,0,0,0,-1,965,540,2.41717,2.59892
-252,484,10.6069,-11.696,0,0,0,0,0,0,0,-1,972,540,10.6069,11.696
-245,484,6.34106,-11.6107,0,0,0,0,0,0,0,-1,979,540,6.34104,11.6107
-238,484,4.89319,-8.54059,0,0,0,0,0,0,0,-1,986,540,4.89321,8.5406
-231,484,3.47675,-5.22064,0,0,0,0,0,0,0,-1,993,540,3.47676,5.22067
-224,484,1.71344,-2.03473,0,0,0,0,0,0,0,-1,1000,540,1.71342,2.03472
-217,484,-0.745056,1.17358,0,0,0,0,0,0,0,-1,1007,540,-0.745043,-1.17359
-210,484,0,0,0,0,0,0,0,0,0,-1,1014,540,0,0
-203,484,0,0,0,0,0,0,0,0,0,-1,1021,540,0,0
-196,484,0,0,0,0,0,0,0,0,0,-1,1028,540,0,0
-189,484,0,0,0,0,0,0,0,0,0,-1,1035,540,0,0
-182,484,0,0,0,0,0,0,0,0,0,-1,1042,540,0,0
-175,484,0,0,0,0,0,0,0,0,0,-1,1049,540,0,0
-168,484,0,0,0,0,0,0,0,0,0,-1,1056,540,0,0
-161,484,0,0,0,0,0,0,0,0,0,-1,1063,540,0,0
-154,484,0,0,0,0,0,0,0,0,0,-1,1070,540,0,0
-147,484,0,0,0,0,0,0,0,0,0,-1,1077,540,0,0
-140,484,0,0,0,0,0,0,0,0,0,-1,1084,540,0,0
-133,484,0,0,0,0,0,0,0,0,0,-1,1091,540,0,0
-126,484,0,0,0,0,0,0,0,0,0,-1,1098,540,0,0
-119,484,0,0,0,0,0,0,0,0,0,-1,1105,540,0,0
-112,484,0,0,0,0,0,0,0,0,0,-1,1112,540,0,0
-105,484,0,0,0,0,0,0,0,0,0,-1,1119,540,0,0
-98,484,0,0,0,0,0,0,0,0,0,-1,1126,540,0,0
-91,484,0,0,0,0,0,0,0,0,0,-1,1133,540,0,0
-84,484,0,0,0,0,0,0,0,0,0,-1,1140,540,0,0
-77,484,0,0,0,0,0,0,0,0,0,-1,1147,540,0,0
-70,484,0,0,0,0,0,0,0,0,0,-1,1154,540,0,0
-63,484,0,0,0,0,0,0,0,0,0,-1,1161,540,0,0
-56,484,0,0,0,0,0,0,0,0,0,-1,1168,540,0,0
-49,484,0,0,0,0,0,0,0,0,0,-1,1175,540,0,0
-42,484,0,0,0,0,0,0,0,0,0,-1,1182,540,0,0
-35,484,0,0,0,0,0,0,0,0,0,-1,1189,540,0,0
-28,484,0,0,0,0,0,0,0,0,0,-1,1196,540,0,0
-21,484,0,0,0,0,0,0,0,0,0,-1,1203,540,0,0
-14,484,0,0,0,0,0,0,0,0,0,-1,1210,540,0,0
-7,484,0,0,0,0,0,0,0,0,0,-1,1217,540,0,0
0,484,0,0,0,0,0,0,0,0,0,-1,1224,540,0,0
7,484,0,0,0,0,0,0,0,0,0,-1,1231,540,0,0
14,484,0,0,0,0,0,0,0,0,0,-1,1238,540,0,0
21,484,0,0,0,0,0,0,0,0,0,-1,1245,540,0,0
28,484,0,0,0,0,0,0,0,0,0,-1,1252,540,0,0
35,484,0,0,0,0,0,0,0,0,0,-1,1259,540,0,0
42,484,0,0,0,0,0,0,0,0,0,-1,1266,540,0,0
49,484,0,0,0,0,0,0,0,0,0,-1,1273,540,0,0
56,484,0,0,0,0,0,0,0,0,0,-1,1280,540,0,0
63,484,0,0,0,0,0,0,0,0,0,-1,1287,540,0,0
70,484,0,0,0,0,0,0,0,0,0,-1,1294,540,0,0
77,484,0,0,0,0,0,0,0,0,0,-1,1301,540,0,0
84,484,0,0,0,0,0,0,0,0,0,-1,1308,540,0,0
91,484,0,0,0,0,0,0,0,0,0,-1,1315,540,0,0
98,484,0,0,0,0,0,0,0,0,0,-1,1322,540,0,0
105,484,0,0,0,0,0,0,0,0,0,-1,1329,540,0,0
112,484,0,0,0,0,0,0,0,0,0,-1,1336,540,0,0
119,484,0,0,0,0,0,0,0,0,0,-1,1343,540,0,0
126,484,0,0,0,0,0,0,0,0,0,-1,1350,540,0,0
133,484,0,0,0,0,0,0,0,0,0,-1,1357,540,0,0
140,484,0,0,0,0,0,0,0,0,0,-1,1364,540,0,0
147,484,0,0,0,0,0,0,0,0,0,-1,1371,540,0,0
154,484,0,0,0,0,0,0,0,0,0,-1,1378,540,0,0
161,484,0,0,0,0,0,0,0,0,0,-1,1385,540,0,0
168,484,0,0,0,0,0,0,0,0,0,-1,1392,540,0,0
175,484,0,0,0,0,0,0,0,0,0,-1,1399,540,0,0
182,484,0,0,0,0,0,0,0,0,0,-1,1406,540,0,0
189,484,0,0,0,0,0,0,0,0,0,-1,1413,540,0,0
196,484,0,0,0,0,0,0,0,0,0,-1,1420,540,0,0
203,484,0,0,0,0,0,0,0,0,0,-1,1427,540,0,0
210,484,0,0,0,0,0,0,0,0,0,-1,1434,540,0,0
217,484,0,0,0,0,0,0,0,0,0,-1,1441,540,0,0
224,484,0,0,0,0,0,0,0,0,0,-1,1448,540,0,0
231,484,0,0,0,0,0,0,0,0,0,-1,1455,540,0,0
238,484,0,0,0,0,0,0,0,0,0,-1,1462,540,0,0
245,484,0,0,0,0,0,0,0,0,0,-1,1469,540,0,0
252,484,0,0,0,0,0,0,0,0,0,-1,1476,540,0,0
259,484,0,0,0,0,0,0,0,0,0,-1,1483,540,0,0
266,484,0,0,0,0,0,0,0,0,0,-1,1490,540,0,0
273,484,0,0,0,0,0,0,0,0,0,-1,1497,540,0,0
280,484,0,0,0,0,0,0,0,0,0,-1,1504,540,0,0
287,484,0,0,0,0,0,0,0,0,0,-1,1511,540,0,0
294,484,0,0,0,0,0,0,0,0,0,-1,1518,540,0,0
301,484,0,0,0,0,0,0,0,0,0,-1,1525,540,0,0
308,484,0,0,0,0,0,0,0,0,0,-1,1532,540,0,0
315,484,0,0,0,0,0,0,0,0,0,-1,1539,540,0,0
322,484,0,0,0,0,0,0,0,0,0,-1,1546,540,0,0
329,484,0,0,0,0,0,0,0,0,0,-1,1553,540,0,0
336,484,4.38708,-1.64136,0,0,0,0,0,0,0,-1,1560,540,4.38704,1.64138
343,484,7.57996,-1.05457,0,0,0,0,0,0,0,-1,1567,540,7.57995,1.05454
350,484,8.10425,-1.18878,0,0,0,0,0,0,0,-1,1574,540,8.1043,1.18877
357,484,7.74902,-3.80286,0,0,0,0,0,0,0,-1,1581,540,7.74901,3.80287
364,484,6.31262,-3.87213,0,0,0,0,0,0,0,-1,1588,540,6.31263,3.87215
371,484,7.21008,0.973511,0,0,0,0,0,0,0,-1,1595,540,7.21014,-0.973541
378,484,11.0563,1.5014,0,0,0,0,0,0,0,-1,1602,540,11.0563,-1.5014
385,484,14.3469,2.5545,0,0,0,0,0,0,0,-1,1609,540,14.3469,-2.55453
392,484,7.39453,-4.95026,0,0,0,0,0,0,0,-1,1616,540,7.39448,4.95023
399,484,7.14417,-2.5639,0,0,0,0,0,0,0,-1,1623,540,7.14417,2.56391
406,484,7.88953,-2.47321,0,0,0,0,0,0,0,-1,1630,540,7.88954,2.47323
413,484,4.4895,-1.08673,0,0,0,0,0,0,0,-1,1637,540,4.48952,1.08674
420,484,4.50012,-2.11255,0,0,0,0,0,0,0,-1,1644,540,4.50012,2.11256
427,484,5.28601,-3.54053,0,0,0,0,0,0,0,-1,1651,540,5.28599,3.54051
434,484,11.1488,-13.5359,0,0,0,0,0,0,0,-1,1658,540,11.1489,13.5359
441,484,13.205,-18.1697,0,0,0,0,0,0,0,-1,1665,540,13.205,18.1697
448,484,14.0558,-19.6766,0,0,0,0,0,0,0,-1,1672,540,14.0558,19.6767
455,484,14.0938,-19.0836,0,0,0,0,0,0,0,-1,1679,540,14.0938,19.0836
462,484,14.1212,-18.4623,0.00147551,0.00214007,-0.000195095,0.00219311,0.00142247,-1.30534,0.0012847,0.0238649,1686,540,14.1212,18.4623
469,484,14.1235,-17.9272,0.00150677,0.00202093,-8.63169e-05,0.00203503,0.00149267,-1.40883,0.00121688,0.0165803,1693,540,14.1235,17.9272
476,484,14.0999,-17.3715,0.00152643,0.00184684,0.000112403,0.00188234,0.00149093,1.26489,0.00114691,0.0152109,1700,540,14.0999,17.3715
483,484,14.0835,-16.8364,0.001191,0.00147144,0.000261924,0.00162832,0.00103413,1.03116,0.000951477,0.0121291,1707,540,14.0835,16.8364
490,484,14.0715,-16.3061,0.000623913,0.00113977,0.00032087,0.00129353,0.000470157,1.12394,0.000756042,0.0123789,1714,540,14.0715,16.3061
497,484,14.0508,-15.73,-5.60991e-05,0.000705803,0.000391297,0.000870963,-0.000221259,1.1714,0.000666747,0.0142293,1721,540,14.0508,15.73
504,484,14.0365,-15.1524,-0.00082051,0.000173992,0.000404044,0.000317452,-0.00096397,1.22962,0.000770578,0.0174959,1728,540,14.0365,15.1524
511,484,14.0278,-14.5878,-0.00180064,-0.000363263,0.000316128,-0.000296809,-0.0018671,1.3636,0.00115854,0.0201418,1735,540,14.0278,14.5878
518,484,13.9935,-14.0344,-0.00292663,-0.000907214,7.23698e-05,-0.000904623,-0.00292922,1.53502,0.0017319,0.0163689,1742,540,13.9935,14.0344
525,484,13.9677,-13.4416,-0.0040543,-0.00162049,-0.000299397,-0.0015842,-0.00409059,-1.45018,0.00238162,0.0133623,1749,540,13.9677,13.4416
532,484,13.9674,-12.8198,-0.00520043,-0.00217624,-0.000717154,-0.00201479,-0.00536188,-1.34937,0.00312737,0.0153123,1756,540,13.9674,12.8197
539,484,13.9238,-12.2391,-0.00633,-0.00270998,-0.00123222,-0.00233035,-0.00670962,-1.27194,0.00393355,0.036893,1763,540,13.9239,12.239
546,484,13.9075,-11.5787,0,0,0,0,0,0,0,-1,1770,540,13.9075,11.5786
553,484,12.4246,-8.96423,0,0,0,0,0,0,0,-1,1777,540,12.4246,8.96422
560,484,10.0549,-5.47931,0,0,0,0,0,0,0,-1,1784,540,10.055,5.47928
567,484,7.78223,-1.38312,0,0,0,0,0,0,0,-1,1791,540,7.78224,1.38311
574,484,5.74463,1.50922,0,0,0,0,0,0,0,-1,1798,540,5.74463,-1.50924
581,484,10.34,2.9491,0,0,0,0,0,0,0,-1,1805,540,10.34,-2.94912
588,484,10.6669,2.88568,0,0,0,0,0,0,0,-1,1812,540,10.6669,-2.88567
595,484,10.7233,1.04767,0,0,0,0,0,0,0,-1,1819,540,10.7233,-1.04766
602,484,0,0,0,0,0,0,0,0,0,-1,1826,540,0,0
609,484,0,0,0,0,0,0,0,0,0,-1,1833,540,0,0
616,484,0,0,0,0,0,0,0,0,0,-1,1840,540,0,0
623,484,0,0,0,0,0,0,0,0,0,-1,1847,540,0,0
630,484,0,0,0,0,0,0,0,0,0,-1,1854,540,0,0
637,484,0,0,0,0,0,0,0,0,0,-1,1861,540,0,0
644,484,0,0,0,0,0,0,0,0,0,-1,1868,540,0,0
651,484,0,0,0,0,0,0,0,0,0,-1,1875,540,0,0
658,484,0,0,0,0,0,0,0,0,0,-1,1882,540,0,0
665,484,0,0,0,0,0,0,0,0,0,-1,1889,540,0,0
672,484,0,0,0,0,0,0,0,0,0,-1,1896,540,0,0
679,484,0,0,0,0,0,0,0,0,0,-1,1903,540,0,0
686,484,0,0,0,0,0,0,0,0,0,-1,1910,540,0,0
693,484,0,0,0,0,0,0,0,0,0,-1,1917,540,0,0
700,484,0,0,0,0,0,0,0,0,0,-1,1924,540,0,0
707,484,0,0,0,0,0,0,0,0,0,-1,1931,540,0,0
714,484,0,0,0,0,0,0,0,0,0,-1,1938,540,0,0
721,484,0,0,0,0,0,0,0,0,0,-1,1945,540,0,0
728,484,0,0,0,0,0,0,0,0,0,-1,1952,540,0,0
735,484,0,0,0,0,0,0,0,0,0,-1,1959,540,0,0
742,484,0,0,0,0,0,0,0,0,0,-1,1966,540,0,0
749,484,0,0,0,0,0,0,0,0,0,-1,1973,540,0,0
756,484,0,0,0,0,0,0,0,0,0,-1,1980,540,0,0
763,484,0,0,0,0,0,0,0,0,0,-1,1987,540,0,0
770,484,0,0,0,0,0,0,0,0,0,-1,1994,540,0,0
777,484,0,0,0,0,0,0,0,0,0,-1,2001,540,0,0
784,484,0,0,0,0,0,0,0,0,0,-1,2008,540,0,0
791,484,0,0,0,0,0,0,0,0,0,-1,2015,540,0,0
798,484,0,0,0,0,0,0,0,0,0,-1,2022,540,0,0
805,484,0,0,0,0,0,0,0,0,0,-1,2029,540,0,0
812,484,0,0,0,0,0,0,0,0,0,-1,2036,540,0,0
-700,477,0,0,0,0,0,0,0,0,0,-1,524,547,0,0
-693,477,0,0,0,0,0,0,0,0,0,-1,531,547,0,0
-686,477,0,0,0,0,0,0,0,0,0,-1,538,547,0,0
-679,477,0,0,0,0,0,0,0,0,0,-1,545,547,0,0
-672,477,0,0,0,0,0,0,0,0,0,-1,552,547,0,0
-665,477,0,0,0,0,0,0,0,0,0,-1,559,547,0,0
-658,477,0,0,0,0,0,0,0,0,0,-1,566,547,0,0
-651,477,0,0,0,0,0,0,0,0,0,-1,573,547,0,0
-644,477,0,0,0,0,0,0,0,0,0,-1,580,547,0,0
-637,477,0,0,0,0,0,0,0,0,0,-1,587,547,0,0
-630,477,0,0,0,0,0,0,0,0,0,-1,594,547,0,0
-623,477,0,0,0,0,0,0,0,0,0,-1,601,547,0,0
-616,477,0,0,0,0,0,0,0,0,0,-1,608,547,0,0
-609,477,0,0,0,0,0,0,0,0,0,-1,615,547,0,0
-602,477,0,0,0,0,0,0,0,0,0,-1,622,547,0,0
-595,477,0,0,0,0,0,0,0,0,0,-1,629,547,0,0
-588,477,0,0,0,0,0,0,0,0,0,-1,636,547,0,0
-581,477,0,0,0,0,0,0,0,0,0,-1,643,547,0,0
-574,477,0,0,0,0,0,0,0,0,0,-1,650,547,0,0
-567,477,0,0,0,0,0,0,0,0,0,-1,657,547,0,0
-560,477,0,0,0,0,0,0,0,0,0,-1,664,547,0,0
-553,477,0,0,0,0,0,0,0,0,0,-1,671,547,0,0
-546,477,0,0,0,0,0,0,0,0,0,-1,678,547,0,0
-539,477,0,0,0,0,0,0,0,0,0,-1,685,547,0,0
-532,477,0,0,0,0,0,0,0,0,0,-1,692,547,0,0
-525,477,0,0,0,0,0,0,0,0,0,-1,699,547,0,0
-518,477,0,0,0,0,0,0,0,0,0,-1,706,547,0,0
-511,477,0,0,0,0,0,0,0,0,0,-1,713,547,0,0
-504,477,0,0,0,0,0,0,0,0,0,-1,720,547,0,0
-497,477,0,0,0,0,0,0,0,0,0,-1,727,547,0,0
-490,477,0,0,0,0,0,0,0,0,0,-1,734,547,0,0
-483,477,-7.73151,-0.224182,0,0,0,0,0,0,0,-1,741,547,-7.73152,0.224176
-476,477,-6.25806,-0.310547,0,0,0,0,0,0,0,-1,748,547,-6.25804,0.310549
-469,477,-7.26617,0.525085,0,0,0,0,0,0,0,-1,755,547,-7.2662,-0.525111
-462,477,-6.65143,1.06042,0,0,0,0,0,0,0,-1,762,547,-6.65143,-1.06043
-455,477,-5.31757,0.429016,0,0,0,0,0,0,0,-1,769,547,-5.31756,-0.42902
-448,477,-4.0697,0.273376,0,0,0,0,0,0,0,-1,776,547,-4.06971,-0.273363
-441,477,-2.47504,-4.76971,0,0,0,0,0,0,0,-1,783,547,-2.47505,4.76973
-434,477,-3.92767,-12.0711,0,0,0,0,0,0,0,-1,790,547,-3.92769,12.0711
-427,477,-4.17163,-12.3342,-0.00390011,0.0120878,-0.002508,0.012472,-0.0042843,-1.41879,0.0100519,0.0430552,797,547,-4.17164,12.3342
-420,477,-4.24695,-12.7836,-0.00311289,0.0103531,-0.00246991,0.0107918,-0.00355162,-1.395,0.00862569,0.0345796,804,547,-4.24696,12.7836
-413,477,-4.23645,-13.5981,-0.00238572,0.00869813,-0.00234182,0.00917261,-0.00286019,-1.37089,0.0072588,0.0198374,811,547,-4.23644,13.5981
-406,477,-4.30841,-14.2571,-0.00163811,0.00732642,-0.00219563,0.0078353,-0.00214699,-1.34305,0.00606717,0.0113202,818,547,-4.30844,14.2571
-399,477,-4.34009,-14.8212,-0.00101826,0.00596772,-0.00193373,0.00646726,-0.0015178,-1.31799,0.00489649,0.0196228,825,547,-4.3401,14.8212
-392,477,-4.3642,-15.3668,-0.000392238,0.00457343,-0.00163125,0.00506136,-0.000880169,-1.28015,0.00370266,0.0178494,832,547,-4.3642,15.3667
-385,477,-4.35687,-15.9047,0.000299858,0.00326244,-0.0013325,0.00377357,-0.00021128,-1.20451,0.00258902,0.0150046,839,547,-4.35685,15.9046
-378,477,-4.3916,-16.4702,0.00102418,0.00205871,-0.0010611,0.00272191,0.000360979,-1.01219,0.00170705,0.0134848,846,547,-4.39161,16.4702
-371,477,-4.42511,-16.9895,0.00163247,0.000759445,-0.000734101,0.00205003,0.00034188,-0.517171,0.00126818,0.0138817,853,547,-4.42508,16.9895
-364,477,-4.42297,-17.4865,0.00217768,-0.000510984,-0.000354215,0.00222357,-0.000556867,-0.128816,0.0016987,0.0138392,860,547,-4.42296,17.4865
-357,477,-4.42194,-18.0283,0.00282765,-0.00161223,-4.66096e-05,0.00282814,-0.00161272,-0.0104964,0.00259574,0.0107784,867,547,-4.42195,18.0283
-350,477,-4.43945,-18.5687,0.00354146,-0.00256427,0.000126737,0.00354409,-0.0025669,0.0207451,0.00354318,0.0101264,874,547,-4.43946,18.5687
-343,477,-4.39636,-19.1216,0.00417428,-0.00343007,0.000323198,0.00418799,-0.00344378,0.0423998,0.00441318,0.018366,881,547,-4.39637,19.1217
-336,477,-4.33569,-19.6688,0.00480892,-0.00427763,0.000526992,0.00483938,-0.00430809,0.057739,0.00528426,0.0399561,888,547,-4.33566,19.6688
-329,477,-4.21521,-20.1965,0,0,0,0,0,0,0,-1,895,547,-4.21519,20.1965
-322,477,-2.04822,-12.0026,0,0,0,0,0,0,0,-1,902,547,-2.04819,12.0026
-315,477,-1.67358,-9.15253,0,0,0,0,0,0,0,-1,909,547,-1.67356,9.15253
-308,477,-1.30127,-6.55188,0,0,0,0,0,0,0,-1,916,547,-1.30128,6.55185
-301,477,-1.21185,-6.28351,0,0,0,0,0,0,0,-1,923,547,-1.21184,6.28352
-294,477,-0.352905,3.27142,0,0,0,0,0,0,0,-1,930,547,-0.35292,-3.27144
-287,477,3.54364,2.15399,0,0,0,0,0,0,0,-1,937,547,3.54362,-2.15396
-280,477,1.97308,-0.954163,0,0,0,0,0,0,0,-1,944,547,1.9731,0.954178
-273,477,2.11621,-3.76709,0,0,0,0,0,0,0,-1,951,547,2.11619,3.76706
-266,477,2.04669,-3.42389,0,0,0,0,0,0,0,-1,958,547,2.04671,3.42391
-259,477,-1.33478,-3.41205,0,0,0,0,0,0,0,-1,965,547,-1.3348,3.41206
-252,477,0.597168,-5.32922,0,0,0,0,0,0,0,-1,972,547,0.597144,5.32924
-245,477,8.2309,-8.48492,0,0,0,0,0,0,0,-1,979,547,8.23091,8.48494
-238,477,6.60938,-5.64063,0,0,0,0,0,0,0,-1,986,547,6.60938,5.64063
-231,477,4.71716,-2.52484,0,0,0,0,0,0,0,-1,993,547,4.71716,2.52483
-224,477,0,0,0,0,0,0,0,0,0,-1,1000,547,0,0
-217,477,0,0,0,0,0,0,0,0,0,-1,1007,547,0,0
-210,477,0,0,0,0,0,0,0,0,0,-1,1014,547,0,0
-203,477,0,0,0,0,0,0,0,0,0,-1,1021,547,0,0
-196,477,0,0,0,0,0,0,0,0,0,-1,1028,547,0,0
-189,477,0,0,0,0,0,0,0,0,0,-1,1035,547,0,0
-182,477,0,0,0,0,0,0,0,0,0,-1,1042,547,0,0
-175,477,0,0,0,0,0,0,0,0,0,-1,1049,547,0,0
-168,477,0,0,0,0,0,0,0,0,0,-1,1056,547,0,0
-161,477,0,0,0,0,0,0,0,0,0,-1,1063,547,0,0
-154,477,0,0,0,0,0,0,0,0,0,-1,1070,547,0,0
-147,477,0,0,0,0,0,0,0,0,0,-1,1077,547,0,0
-140,477,0,0,0,0,0,0,0,0,0,-1,1084,547,0,0
-133,477,0,0,0,0,0,0,0,0,0,-1,1091,547,0,0
-126,477,0,0,0,0,0,0,0,0,0,-1,1098,547,0,0
-119,477,0,0,0,0,0,0,0,0,0,-1,1105,547,0,0
-112,477,0,0,0,0,0,0,0,0,0,-1,1112,547,0,0
-105,477,0,0,0,0,0,0,0,0,0,-1,1119,547,0,0
-98,477,0,0,0,0,0,0,0,0,0,-1,1126,547,0,0
-91,477,0,0,0,0,0,0,0,0,0,-1,1133,547,0,0
-84,477,0,0,0,0,0,0,0,0,0,-1,1140,547,0,0
-77,477,0,0,0,0,0,0,0,0,0,-1,1147,547,0,0
-70,477,0,0,0,0,0,0,0,0,0,-1,1154,547,0,0
-63,477,0,0,0,0,0,0,0,0,0,-1,1161,547,0,0
-56,477,0,0,0,0,0,0,0,0,0,-1,1168,547,0,0
-49,477,0,0,0,0,0,0,0,0,0,-1,1175,547,0,0
-42,477,0,0,0,0,0,0,0,0,0,-1,1182,547,0,0
-35,477,0,0,0,0,0,0,0,0,0,-1,1189,547,0,0
-28,477,0,0,0,0,0,0,0,0,0,-1,1196,547,0,0
-21,477,0,0,0,0,0,0,0,0,0,-1,1203,547,0,0
-14,477,0,0,0,0,0,0,0,0,0,-1,1210,547,0,0
-7,477,0,0,0,0,0,0,0,0,0,-1,1217,547,0,0
0,477,0,0,0,0,0,0,0,0,0,-1,1224,547,0,0
7,477,0,0,0,0,0,0,0,0,0,-1,1231,547,0,0
14,477,0,0,0,0,0,0,0,0,0,-1,1238,547,0,0
21,477,0,0,0,0,0,0,0,0,0,-1,1245,547,0,0
28,477,0,0,0,0,0,0,0,0,0,-1,1252,547,0,0
35,477,0,0,0,0,0,0,0,0,0,-1,1259,547,0,0
42,477,0,0,0,0,0,0,0,0,0,-1,1266,547,0,0
49,477,0,0,0,0,0,0,0,0,0,-1,1273,547,0,0
56,477,0,0,0,0,0,0,0,0,0,-1,1280,547,0,0
63,477,0,0,0,0,0,0,0,0,0,-1,1287,547,0,0
70,477,0,0,0,0,0,0,0,0,0,-1,1294,547,0,0
77,477,0,0,0,0,0,0,0,0,0,-1,1301,547,0,0
84,477,0,0,0,0,0,0,0,0,0,-1,1308,547,0,0
91,477,0,0,0,0,0,0,0,0,0,-1,1315,547,0,0
98,477,0,0,0,0,0,0,0,0,0,-1,1322,547,0,0
105,477,0,0,0,0,0,0,0,0,0,-1,1329,547,0,0
112,477,0,0,0,0,0,0,0,0,0,-1,1336,547,0,0
119,477,0,0,0,0,0,0,0,0,0,-1,1343,547,0,0
126,477,0,0,0,0,0,0,0,0,0,-1,1350,547,0,0
133,477,0,0,0,0,0,0,0,0,0,-1,1357,547,0,0
140,477,0,0,0,0,0,0,0,0,0,-1,1364,547,0,0
147,477,0,0,0,0,0,0,0,0,0,-1,1371,547,0,0
154,477,0,0,0,0,0,0,0,0,0,-1,1378,547,0,0
161,477,0,0,0,0,0,0,0,0,0,-1,1385,547,0,0
168,477,0,0,0,0,0,0,0,0,0,-1,1392,547,0,0
175,477,0,0,0,0,0,0,0,0,0,-1,1399,547,0,0
182,477,0,0,0,0,0,0,0,0,0,-1,1406,547,0,0
189,477,0,0,0,0,0,0,0,0,0,-1,1413,547,0,0
196,477,0,0,0,0,0,0,0,0,0,-1,1420,547,0,0
203,477,0,0,0,0,0,0,0,0,0,-1,1427,547,0,0
210,477,0,0,0,0,0,0,0,0,0,-1,1434,547,0,0
217,477,0,0,0,0,0,0,0,0,0,-1,1441,547,0,0
224,477,0,0,0,0,0,0,0,0,0,-1,1448,547,0,0
231,477,0,0,0,0,0,0,0,0,0,-1,1455,547,0,0
238,477,0,0,0,0,0,0,0,0,0,-1,1462,547,0,0
245,477,0,0,0,0,0,0,0,0,0,-1,1469,547,0,0
252,477,0,0,0,0,0,0,0,0,0,-1,1476,547,0,0
259,477,0,0,0,0,0,0,0,0,0,-1,1483,547,0,0
266,477,0,0,0,0,0,0,0,0,0,-1,1490,547,0,0
273,477,0,0,0,0,0,0,0,0,0,-1,1497,547,0,0
280,477,0,0,0,0,0,0,0,0,0,-1,1504,547,0,0
287,477,0,0,0,0,0,0,0,0,0,-1,1511,547,0,0
294,477,0,0,0,0,0,0,0,0,0,-1,1518,547,0,0
301,477,0,0,0,0,0,0,0,0,0,-1,1525,547,0,0
308,477,0,0,0,0,0,0,0,0,0,-1,1532,547,0,0
315,477,0,0,0,0,0,0,0,0,0,-1,1539,547,0,0
322,477,0,0,0,0,0,0,0,0,0,-1,1546,547,0,0
329,477,0,0,0,0,0,0,0,0,0,-1,1553,547,0,0
336,477,0,0,0,0,0,0,0,0,0,-1,1560,547,0,0
343,477,0,0,0,0,0,0,0,0,0,-1,1567,547,0,0
350,477,1.7699,-3.32275,0,0,0,0,0,0,0,-1,1574,547,1.7699,3.32272
357,477,3.073,-4.83313,0,0,0,0,0,0,0,-1,1581,547,3.07303,4.83316
364,477,4.30127,-4.22864,0,0,0,0,0,0,0,-1,1588,547,4.30125,4.22865
371,477,4.57703,0.283264,0,0,0,0,0,0,0,-1,1595,547,4.57706,-0.283262
378,477,8.57947,1.05969,0,0,0,0,0,0,0,-1,1602,547,8.5795,-1.05972
385,477,12.3726,2.02356,0,0,0,0,0,0,0,-1,1609,547,12.3725,-2.02355
392,477,16.4678,2.76843,0,0,0,0,0,0,0,-1,1616,547,16.4678,-2.76845
399,477,8.00037,-2.29523,0,0,0,0,0,0,0,-1,1623,547,8.00031,2.2952
406,477,4.82495,2.7475,0,0,0,0,0,0,0,-1,1630,547,4.825,-2.74752
413,477,4.88171,-0.336426,0,0,0,0,0,0,0,-1,1637,547,4.88169,0.336398
420,477,3.34875,0.102722,0,0,0,0,0,0,0,-1,1644,547,3.34871,-0.1027
427,477,1.66772,-0.373108,0,0,0,0,0,0,0,-1,1651,547,1.66768,0.373104
434,477,3.76978,-2.30798,0,0,0,0,0,0,0,-1,1658,547,3.76974,2.30801
441,477,4.05444,-2.80402,0,0,0,0,0,0,0,-1,1665,547,4.05444,2.804
448,477,10.4247,-11.7421,0,0,0,0,0,0,0,-1,1672,547,10.4247,11.7421
455,477,13.3054,-16.8109,0,0,0,0,0,0,0,-1,1679,547,13.3054,16.8109
462,477,14.6555,-18.5795,0,0,0,0,0,0,0,-1,1686,547,14.6555,18.5795
469,477,14.72,-17.8871,0.00152999,0.00243635,-0.000145444,0.00245912,0.00150722,-1.41552,0.00143179,0.0422243,1693,547,14.7199,17.8871
476,477,14.6549,-17.3785,0.00179202,0.00231883,7.05693e-05,0.00232812,0.00178273,1.43991,0.00140599,0.0206539,1700,547,14.6549,17.3785
483,477,14.6589,-16.8301,0.00161754,0.00193184,0.000264777,0.00208259,0.00146679,1.05322,0.00123539,0.011901,1707,547,14.659,16.8302
490,477,14.6263,-16.2725,0.00119176,0.00165869,0.000340576,0.00183814,0.00101231,1.08586,0.00106307,0.0121934,1714,547,14.6264,16.2724
497,477,14.5957,-15.6742,0.000665256,0.00127584,0.000427279,0.00149568,0.000445409,1.09559,0.000886759,0.0141241,1721,547,14.5957,15.6742
504,477,14.5874,-15.1287,8.1789e-05,0.000812654,0.000456881,0.00103227,-0.000137826,1.12272,0.000738422,0.0190651,1728,547,14.5873,15.1287
511,477,14.6018,-14.5922,-0.000682756,0.000370776,0.000408062,0.000510341,-0.000822321,1.24125,0.000776409,0.0233689,1735,547,14.6018,14.5922
518,477,14.5652,-14.0433,-0.00157255,-4.70334e-05,0.000229694,-1.31992e-05,-0.00160638,1.42455,0.00106655,0.0199208,1742,547,14.5652,14.0433
525,477,14.5365,-13.4117,-0.00243066,-0.000599752,-4.7914e-05,-0.000598499,-0.00243191,-1.54465,0.00146316,0.0164963,1749,547,14.5365,13.4117
532,477,14.4913,-12.778,-0.00329573,-0.000990272,-0.000350076,-0.000938286,-0.00334772,-1.42338,0.00199404,0.0188386,1756,547,14.4913,12.778
539,477,14.4811,-12.1645,-0.00413443,-0.00135488,-0.00071771,-0.0011805,-0.00430881,-1.33245,0.00257102,0.0168357,1763,547,14.4811,12.1645
546,477,14.4012,-11.6439,-0.00488787,-0.00155243,-0.001106,-0.00121902,-0.00522128,-1.278,0.00315404,0.0374012,1770,547,14.4012,11.6439
553,477,14.4602,-10.9648,0,0,0,0,0,0,0,-1,1777,547,14.4602,10.9648
560,477,14.2111,-9.5968,0,0,0,0,0,0,0,-1,1784,547,14.211,9.59678
567,477,13.9529,-8.70972,0,0,0,0,0,0,0,-1,1791,547,13.9529,8.7097
574,477,6.82593,-0.916992,0,0,0,0,0,0,0,-1,1798,547,6.82598,0.916977
581,477,9.29321,-0.557007,0,0,0,0,0,0,0,-1,1805,547,9.29324,0.55703
588,477,9.75195,0.422729,0,0,0,0,0,0,0,-1,1812,547,9.75198,-0.42273
595,477,9.89172,1.21326,0,0,0,0,0,0,0,-1,1819,547,9.89174,-1.21328
602,477,6.5271,-0.964417,0,0,0,0,0,0,0,-1,1826,547,6.52706,0.964427
609,477,0,0,0,0,0,0,0,0,0,-1,1833,547,0,0
616,477,0,0,0,0,0,0,0,0,0,-1,1840,547,0,0
623,477,0,0,0,0,0,0,0,0,0,-1,1847,547,0,0
630,477,0,0,0,0,0,0,0,0,0,-1,1854,547,0,0
637,477,0,0,0,0,0,0,0,0,0,-1,1861,547,0,0
644,477,0,0,0,0,0,0,0,0,0,-1,1868,547,0,0
651,477,0,0,0,0,0,0,0,0,0,-1,1875,547,0,0
658,477,0,0,0,0,0,0,0,0,0,-1,1882,547,0,0
665,477,0,0,0,0,0,0,0,0,0,-1,1889,547,0,0
672,477,0,0,0,0,0,0,0,0,0,-1,1896,547,0,0
679,477,0,0,0,0,0,0,0,0,0,-1,1903,547,0,0
686,477,0,0,0,0,0,0,0,0,0,-1,1910,547,0,0
693,477,0,0,0,0,0,0,0,0,0,-1,1917,547,0,0
700,477,0,0,0,0,0,0,0,0,0,-1,1924,547,0,0
707,477,0,0,0,0,0,0,0,0,0,-1,1931,547,0,0
714,477,0,0,0,0,0,0,0,0,0,-1,1938,547,0,0
721,477,0,0,0,0,0,0,0,0,0,-1,1945,547,0,0
728,477,0,0,0,0,0,0,0,0,0,-1,1952,547,0,0
735,477,0,0,0,0,0,0,0,0,0,-1,1959,547,0,0
742,477,0,0,0,0,0,0,0,0,0,-1,1966,547,0,0
749,477,0,0,0,0,0,0,0,0,0,-1,1973,547,0,0
756,477,0,0,0,0,0,0,0,0,0,-1,1980,547,0,0
763,477,0,0,0,0,0,0,0,0,0,-1,1987,547,0,0
770,477,0,0,0,0,0,0,0,0,0,-1,1994,547,0,0
777,477,0,0,0,0,0,0,0,0,0,-1,2001,547,0,0
784,477,0,0,0,0,0,0,0,0,0,-1,2008,547,0,0
791,477,0,0,0,0,0,0,0,0,0,-1,2015,547,0,0
798,477,0,0,0,0,0,0,0,0,0,-1,2022,547,0,0
805,477,0,0,0,0,0,0,0,0,0,-1,2029,547,0,0
812,477,0,0,0,0,0,0,0,0,0,-1,2036,547,0,0
-700,470,0,0,0,0,0,0,0,0,0,-1,524,554,0,0
-693,470,0,0,0,0,0,0,0,0,0,-1,531,554,0,0
-686,470,0,0,0,0,0,0,0,0,0,-1,538,554,0,0
-679,470,0,0,0,0,0,0,0,0,0,-1,545,554,0,0
-672,470,0,0,0,0,0,0,0,0,0,-1,552,554,0,0
-665,470,0,0,0,0,0,0,0,0,0,-1,559,554,0,0
-658,470,0,0,0,0,0,0,0,0,0,-1,566,554,0,0
-651,470,0,0,0,0,0,0,0,0,0,-1,573,554,0,0
-644,470,0,0,0,0,0,0,0,0,0,-1,580,554,0,0
-637,470,0,0,0,0,0,0,0,0,0,-1,587,554,0,0
-630,470,0,0,0,0,0,0,0,0,0,-1,594,554,0,0
-623,470,0,0,0,0,0,0,0,0,0,-1,601,554,0,0
-616,470,0,0,0,0,0,0,0,0,0,-1,608,554,0,0
-609,470,0,0,0,0,0,0,0,0,0,-1,615,554,0,0
-602,470,0,0,0,0,0,0,0,0,0,-1,622,554,0,0
-595,470,0,0,0,0,0,0,0,0,0,-1,629,554,0,0
-588,470,0,0,0,0,0,0,0,0,0,-1,636,554,0,0
-581,470,0,0,0,0,0,0,0,0,0,-1,643,554,0,0
-574,470,0,0,0,0,0,0,0,0,0,-1,650,554,0,0
-567,470,0,0,0,0,0,0,0,0,0,-1,657,554,0,0
-560,470,0,0,0,0,0,0,0,0,0,-1,664,554,0,0
-553,470,0,0,0,0,0,0,0,0,0,-1,671,554,0,0
-546,470,0,0,0,0,0,0,0,0,0,-1,678,554,0,0
-539,470,0,0,0,0,0,0,0,0,0,-1,685,554,0,0
-532,470,0,0,0,0,0,0,0,0,0,-1,692,554,0,0
-525,470,0,0,0,0,0,0,0,0,0,-1,699,554,0,0
-518,470,0,0,0,0,0,0,0,0,0,-1,706,554,0,0
-511,470,0,0,0,0,0,0,0,0,0,-1,713,554,0,0
-504,470,0,0,0,0,0,0,0,0,0,-1,720,554,0,0
-497,470,0,0,0,0,0,0,0,0,0,-1,727,554,0,0
-490,470,-9.13263,-1.03125,0,0,0,0,0,0,0,-1,734,554,-9.1326,1.03127
-483,470,-7.68677,-1.03955,0,0,0,0,0,0,0,-1,741,554,-7.68678,1.03958
-476,470,-6.17969,-1.03394,0,0,0,0,0,0,0,-1,748,554,-6.17971,1.03395
-469,470,-6.23016,-0.651855,0,0,0,0,0,0,0,-1,755,554,-6.23014,0.651829
-462,470,-4.87915,-1.03705,0,0,0,0,0,0,0,-1,762,554,-4.87914,1.03702
-455,470,-4.14777,-1.37079,0,0,0,0,0,0,0,-1,769,554,-4.14779,1.37078
-448,470,-2.9314,-5.74518,0,0,0,0,0,0,0,-1,776,554,-2.93137,5.74518
-441,470,-4.461,-11.3278,0,0,0,0,0,0,0,-1,783,554,-4.461,11.3278
-434,470,-4.53839,-12.013,-0.00378631,0.0105578,-0.0022027,0.0108884,-0.00411694,-1.42181,0.00895254,0.0479893,790,554,-4.5384,12.013
-427,470,-4.82996,-12.4623,-0.00296319,0.00912723,-0.00207238,0.00947259,-0.00330854,-1.40567,0.0076599,0.0216904,797,554,-4.82996,12.4623
-420,470,-4.78882,-13.0643,-0.00220878,0.00764975,-0.00195027,0.00802154,-0.00258057,-1.38242,0.00638417,0.0154113,804,554,-4.78883,13.0643
-413,470,-4.81952,-13.6772,-0.00156679,0.00621471,-0.00171867,0.0065774,-0.00192948,-1.36282,0.00515002,0.0141601,811,554,-4.81951,13.6772
-406,470,-4.86017,-14.2224,-0.000888901,0.00504619,-0.00154127,0.00542257,-0.00126528,-1.33128,0.00410237,0.0114199,818,554,-4.86014,14.2224
-399,470,-4.87317,-14.7833,-0.000266314,0.00391118,-0.0013014,0.00428343,-0.000638561,-1.2922,0.00309054,0.0152338,825,554,-4.87318,14.7833
-392,470,-4.88544,-15.3369,0.00036985,0.00272952,-0.00103738,0.00312072,-2.13541e-05,-1.21018,0.00208764,0.0149417,832,554,-4.88543,15.3368
-385,470,-4.90436,-15.8762,0.0010534,0.00165371,-0.000793454,0.00220189,0.000505227,-0.966224,0.00133185,0.0114412,839,554,-4.90439,15.8761
-378,470,-4.92401,-16.4335,0.00173141,0.000662613,-0.00055081,0.00196446,0.000429566,-0.40026,0.00119252,0.015618,846,554,-4.92403,16.4335
-371,470,-4.96143,-16.9547,0.00231508,-0.000377648,-0.000268747,0.00234164,-0.000404208,-0.09851,0.00171181,0.0144077,853,554,-4.9614,16.9546
-364,470,-4.96362,-17.4554,0.0028572,-0.00136596,2.39309e-05,0.00285734,-0.0013661,0.00566634,0.00248855,0.0152794,860,554,-4.96363,17.4554
-357,470,-4.97961,-17.9865,0.00350381,-0.00226345,0.000223183,0.00351243,-0.00227208,0.0386213,0.00336518,0.0137641,867,554,-4.97961,17.9865
-350,470,-4.96637,-18.5455,0.00421097,-0.00309602,0.00028081,0.00422174,-0.00310679,0.038355,0.00424742,0.0106608,874,554,-4.96634,18.5455
-343,470,-4.87341,-19.0581,0.00484722,-0.00388806,0.000386917,0.00486433,-0.00390516,0.0441783,0.00507315,0.0398296,881,554,-4.87343,19.0581
-336,470,-4.7088,-19.6811,0,0,0,0,0,0,0,-1,888,554,-4.70878,19.6811
-329,470,-2.78516,-12.3594,0,0,0,0,0,0,0,-1,895,554,-2.78517,12.3594
-322,470,-2.30829,-11.4527,0,0,0,0,0,0,0,-1,902,554,-2.30827,11.4527
-315,470,-1.04797,-8.29529,0,0,0,0,0,0,0,-1,909,554,-1.04797,8.29526
-308,470,-1.39368,-6.68152,0,0,0,0,0,0,0,-1,916,554,-1.39369,6.68149
-301,470,-0.0340576,3.34888,0,0,0,0,0,0,0,-1,923,554,-0.0340496,-3.3489
-294,470,-1.18378,3.22266,0,0,0,0,0,0,0,-1,930,554,-1.18376,-3.22268
-287,470,-2.15454,3.2204,0,0,0,0,0,0,0,-1,937,554,-2.15452,-3.22037
-280,470,-3.00537,3.099,0,0,0,0,0,0,0,-1,944,554,-3.00536,-3.09898
-273,470,-12.3932,3.65009,0,0,0,0,0,0,0,-1,951,554,-12.3932,-3.65011
-266,470,-11.5706,1.16028,0,0,0,0,0,0,0,-1,958,554,-11.5706,-1.16031
-259,470,-7.50415,-2.77167,0,0,0,0,0,0,0,-1,965,554,-7.50413,2.7717
-252,470,-0.371155,-5.87823,0,0,0,0,0,0,0,-1,972,554,-0.37114,5.87821
-245,470,1.33221,-6.81122,0,0,0,0,0,0,0,-1,979,554,1.33223,6.8112
-238,470,0,0,0,0,0,0,0,0,0,-1,986,554,0,0
-231,470,0,0,0,0,0,0,0,0,0,-1,993,554,0,0
-224,470,0,0,0,0,0,0,0,0,0,-1,1000,554,0,0
-217,470,0,0,0,0,0,0,0,0,0,-1,1007,554,0,0
-210,470,0,0,0,0,0,0,0,0,0,-1,1014,554,0,0
-203,470,0,0,0,0,0,0,0,0,0,-1,1021,554,0,0
-196,470,0,0,0,0,0,0,0,0,0,-1,1028,554,0,0
-189,470,0,0,0,0,0,0,0,0,0,-1,1035,554,0,0
-182,470,0,0,0,0,0,0,0,0,0,-1,1042,554,0,0
-175,470,0,0,0,0,0,0,0,0,0,-1,1049,554,0,0
-168,470,0,0,0,0,0,0,0,0,0,-1,1056,554,0,0
-161,470,0,0,0,0,0,0,0,0,0,-1,1063,554,0,0
-154,470,0,0,0,0,0,0,0,0,0,-1,1070,554,0,0
-147,470,0,0,0,0,0,0,0,0,0,-1,1077,554,0,0
-140,470,0,0,0,0,0,0,0,0,0,-1,1084,554,0,0
-133,470,0,0,0,0,0,0,0,0,0,-1,1091,554,0,0
-126,470,0,0,0,0,0,0,0,0,0,-1,1098,554,0,0
-119,470,0,0,0,0,0,0,0,0,0,-1,1105,554,0,0
-112,470,0,0,0,0,0,0,0,0,0,-1,1112,554,0,0
-105,470,0,0,0,0,0,0,0,0,0,-1,1119,554,0,0
-98,470,0,0,0,0,0,0,0,0,0,-1,1126,554,0,0
-91,470,0,0,0,0,0,0,0,0,0,-1,1133,554,0,0
-84,470,0,0,0,0,0,0,0,0,0,-1,1140,554,0,0
-77,470,0,0,0,0,0,0,0,0,0,-1,1147,554,0,0
-70,470,0,0,0,0,0,0,0,0,0,-1,1154,554,0,0
-63,470,0,0,0,0,0,0,0,0,0,-1,1161,554,0,0
-56,470,0,0,0,0,0,0,0,0,0,-1,1168,554,0,0
-49,470,0,0,0,0,0,0,0,0,0,-1,1175,554,0,0
-42,470,0,0,0,0,0,0,0,0,0,-1,1182,554,0,0
-35,470,0,0,0,0,0,0,0,0,0,-1,1189,554,0,0
-28,470,0,0,0,0,0,0,0,0,0,-1,1196,554,0,0
-21,470,0,0,0,0,0,0,0,0,0,-1,1203,554,0,0
-14,470,0,0,0,0,0,0,0,0,0,-1,1210,554,0,0
-7,470,0,0,0,0,0,0,0,0,0,-1,1217,554,0,0
0,470,0,0,0,0,0,0,0,0,0,-1,1224,554,0,0
7,470,0,0,0,0,0,0,0,0,0,-1,1231,554,0,0
14,470,0,0,0,0,0,0,0,0,0,-1,1238,554,0,0
21,470,0,0,0,0,0,0,0,0,0,-1,1245,554,0,0
28,470,0,0,0,0,0,0,0,0,0,-1,1252,554,0,0
35,470,0,0,0,0,0,0,0,0,0,-1,1259,554,0,0
42,470,0,0,0,0,0,0,0,0,0,-1,1266,554,0,0
49,470,0,0,0,0,0,0,0,0,0,-1,1273,554,0,0
56,470,0,0,0,0,0,0,0,0,0,-1,1280,554,0,0
63,470,0,0,0,0,0,0,0,0,0,-1,1287,554,0,0
70,470,0,0,0,0,0,0,0,0,0,-1,1294,554,0,0
77,470,0,0,0,0,0,0,0,0,0,-1,1301,554,0,0
84,470,0,0,0,0,0,0,0,0,0,-1,1308,554,0,0
91,470,0,0,0,0,0,0,0,0,0,-1,1315,554,0,0
98,470,0,0,0,0,0,0,0,0,0,-1,1322,554,0,0
105,470,0,0,0,0,0,0,0,0,0,-1,1329,554,0,0
112,470,0,0,0,0,0,0,0,0,0,-1,1336,554,0,0
119,470,0,0,0,0,0,0,0,0,0,-1,1343,554,0,0
126,470,0,0,0,0,0,0,0,0,0,-1,1350,554,0,0
133,470,0,0,0,0,0,0,0,0,0,-1,1357,554,0,0
140,470,0,0,0,0,0,0,0,0,0,-1,1364,554,0,0
147,470,0,0,0,0,0,0,0,0,0,-1,1371,554,0,0
154,470,0,0,0,0,0,0,0,0,0,-1,1378,554,0,0
161,470,0,0,0,0,0,0,0,0,0,-1,1385,554,0,0
168,470,0,0,0,0,0,0,0,0,0,-1,1392,554,0,0
175,470,0,0,0,0,0,0,0,0,0,-1,1399,554,0,0
182,470,0,0,0,0,0,0,0,0,0,-1,1406,554,0,0
189,470,0,0,0,0,0,0,0,0,0,-1,1413,554,0,0
196,470,0,0,0,0,0,0,0,0,0,-1,1420,554,0,0
203,470,0,0,0,0,0,0,0,0,0,-1,1427,554,0,0
210,470,0,0,0,0,0,0,0,0,0,-1,1434,554,0,0
217,470,0,0,0,0,0,0,0,0,0,-1,1441,554,0,0
224,470,0,0,0,0,0,0,0,0,0,-1,1448,554,0,0
231,470,0,0,0,0,0,0,0,0,0,-1,1455,554,0,0
238,470,0,0,0,0,0,0,0,0,0,-1,1462,554,0,0
245,470,0,0,0,0,0,0,0,0,0,-1,1469,554,0,0
252,470,0,0,0,0,0,0,0,0,0,-1,1476,554,0,0
259,470,0,0,0,0,0,0,0,0,0,-1,1483,554,0,0
266,470,0,0,0,0,0,0,0,0,0,-1,1490,554,0,0
273,470,0,0,0,0,0,0,0,0,0,-1,1497,554,0,0
280,470,0,0,0,0,0,0,0,0,0,-1,1504,554,0,0
287,470,0,0,0,0,0,0,0,0,0,-1,1511,554,0,0
294,470,0,0,0,0,0,0,0,0,0,-1,1518,554,0,0
301,470,0,0,0,0,0,0,0,0,0,-1,1525,554,0,0
308,470,0,0,0,0,0,0,0,0,0,-1,1532,554,0,0
315,470,0,0,0,0,0,0,0,0,0,-1,1539,554,0,0
322,470,0,0,0,0,0,0,0,0,0,-1,1546,554,0,0
329,470,0,0,0,0,0,0,0,0,0,-1,1553,554,0,0
336,470,0,0,0,0,0,0,0,0,0,-1,1560,554,0,0
343,470,0,0,0,0,0,0,0,0,0,-1,1567,554,0,0
350,470,0,0,0,0,0,0,0,0,0,-1,1574,554,0,0
357,470,0,0,0,0,0,0,0,0,0,-1,1581,554,0,0
364,470,1.33423,0.293335,0,0,0,0,0,0,0,-1,1588,554,1.33422,-0.293348
371,470,2.22498,-0.0305176,0,0,0,0,0,0,0,-1,1595,554,2.22494,0.0305046
378,470,6.27051,0.710083,0,0,0,0,0,0,0,-1,1602,554,6.27054,-0.710093
385,470,10.3657,1.47296,0,0,0,0,0,0,0,-1,1609,554,10.3657,-1.47299
392,470,15.3881,3.01935,0,0,0,0,0,0,0,-1,1616,554,15.388,-3.01937
399,470,18.4479,2.93793,0,0,0,0,0,0,0,-1,1623,554,18.4479,-2.93792
406,470,15.1896,1.36676,0,0,0,0,0,0,0,-1,1630,554,15.1896,-1.36679
413,470,6.55383,1.99207,0,0,0,0,0,0,0,-1,1637,554,6.5538,-1.99208
420,470,4.47095,0.845703,0,0,0,0,0,0,0,-1,1644,554,4.47098,-0.845718
427,470,3.51038,1.19684,0,0,0,0,0,0,0,-1,1651,554,3.51039,-1.19684
434,470,3.31775,-1.37427,0,0,0,0,0,0,0,-1,1658,554,3.31781,1.37426
441,470,2.55457,-2.05902,0,0,0,0,0,0,0,-1,1665,554,2.55461,2.05904
448,470,3.27258,-2.64032,0,0,0,0,0,0,0,-1,1672,554,3.27257,2.64029
455,470,10.3658,-9.82233,0,0,0,0,0,0,0,-1,1679,554,10.3659,9.82233
462,470,11.0651,-11.9958,0,0,0,0,0,0,0,-1,1686,554,11.0651,11.9958
469,470,15.0936,-18.0963,0,0,0,0,0,0,0,-1,1693,554,15.0936,18.0963
476,470,15.1782,-17.4175,0,0,0,0,0,0,0,-1,1700,554,15.1783,17.4176
483,470,15.2142,-16.7997,0.00198962,0.00200981,0.000399381,0.00239923,0.00160021,0.798033,0.0014107,0.0164294,1707,554,15.2143,16.7998
490,470,15.1715,-16.2376,0.00172765,0.00188732,0.000514217,0.00232786,0.00128711,0.862409,0.0013465,0.0114715,1714,554,15.1715,16.2376
497,470,15.1608,-15.6667,0.00133633,0.0016295,0.000619666,0.00211968,0.000846146,0.901541,0.00123206,0.0128142,1721,554,15.1608,15.6668
504,470,15.1628,-15.1064,0.000900065,0.00131526,0.000646247,0.00178643,0.000428889,0.940809,0.00107685,0.0187726,1728,554,15.1628,15.1064
511,470,15.1635,-14.5248,0.000323609,0.00103719,0.000602856,0.00138093,-2.01246e-05,1.0526,0.000927399,0.0248648,1735,554,15.1635,14.5249
518,470,15.1385,-13.9759,-0.000363894,0.000801774,0.000452524,0.000956824,-0.000518944,1.2407,0.000864447,0.0243235,1742,554,15.1385,13.9759
525,470,15.1127,-13.3896,-0.00101532,0.000457838,0.00022108,0.000490301,-0.00104779,1.425,0.000907251,0.0154747,1749,554,15.1126,13.3897
532,470,15.0674,-12.7625,-0.00167956,0.00024511,-3.2646e-05,0.000245664,-0.00168011,-1.55384,0.0012103,0.0136274,1756,554,15.0674,12.7624
539,470,15.0288,-12.1805,-0.00232332,4.1267e-05,-0.000332754,8.7201e-05,-0.00236926,-1.43362,0.00160936,0.0162563,1763,554,15.0288,12.1805
546,470,15.0182,-11.6053,-0.00289749,-3.16084e-05,-0.000643012,0.00010605,-0.00303515,-1.3599,0.0020597,0.0148031,1770,554,15.0181,11.6053
553,470,15.0469,-11.0021,-0.00339518,7.58075e-05,-0.000905703,0.000297924,-0.0036173,-1.3303,0.00251672,0.0221446,1777,554,15.0469,11.002
560,470,15.101,-10.1636,0,0,0,0,0,0,0,-1,1784,554,15.101,10.1636
567,470,14.9786,-9.57068,0,0,0,0,0,0,0,-1,1791,554,14.9786,9.57067
574,470,14.2793,-8.07147,0,0,0,0,0,0,0,-1,1798,554,14.2793,8.07147
581,470,8.24646,-4.06317,0,0,0,0,0,0,0,-1,1805,554,8.24648,4.06318
588,470,11.1803,1.74927,0,0,0,0,0,0,0,-1,1812,554,11.1803,-1.74926
595,470,4.72192,3.44116,0,0,0,0,0,0,0,-1,1819,554,4.72191,-3.44116
602,470,14.4307,2.76141,0,0,0,0,0,0,0,-1,1826,554,14.4306,-2.76139
609,470,20.9181,4.41058,0,0,0,0,0,0,0,-1,1833,554,20.9181,-4.4106
616,470,0,0,0,0,0,0,0,0,0,-1,1840,554,0,0
623,470,0,0,0,0,0,0,0,0,0,-1,1847,554,0,0
630,470,0,0,0,0,0,0,0,0,0,-1,1854,554,0,0
637,470,0,0,0,0,0,0,0,0,0,-1,1861,554,0,0
644,470,0,0,0,0,0,0,0,0,0,-1,1868,554,0,0
651,470,0,0,0,0,0,0,0,0,0,-1,1875,554,0,0
658,470,0,0,0,0,0,0,0,0,0,-1,1882,554,0,0
665,470,0,0,0,0,0,0,0,0,0,-1,1889,554,0,0
672,470,0,0,0,0,0,0,0,0,0,-1,1896,554,0,0
679,470,0,0,0,0,0,0,0,0,0,-1,1903,554,0,0
686,470,0,0,0,0,0,0,0,0,0,-1,1910,554,0,0
693,470,0,0,0,0,0,0,0,0,0,-1,1917,554,0,0
700,470,0,0,0,0,0,0,0,0,0,-1,1924,554,0,0
707,470,0,0,0,0,0,0,0,0,0,-1,1931,554,0,0
714,470,0,0,0,0,0,0,0,0,0,-1,1938,554,0,0
721,470,0,0,0,0,0,0,0,0,0,-1,1945,554,0,0
728,470,0,0,0,0,0,0,0,0,0,-1,1952,554,0,0
735,470,0,0,0,0,0,0,0,0,0,-1,1959,554,0,0
742,470,0,0,0,0,0,0,0,0,0,-1,1966,554,0,0
749,470,0,0,0,0,0,0,0,0,0,-1,1973,554,0,0
756,470,0,0,0,0,0,0,0,0,0,-1,1980,554,0,0
763,470,0,0,0,0,0,0,0,0,0,-1,1987,554,0,0
770,470,0,0,0,0,0,0,0,0,0,-1,1994,554,0,0
777,470,0,0,0,0,0,0,0,0,0,-1,2001,554,0,0
784,470,0,0,0,0,0,0,0,0,0,-1,2008,554,0,0
791,470,0,0,0,0,0,0,0,0,0,-1,2015,554,0,0
798,470,0,0,0,0,0,0,0,0,0,-1,2022,554,0,0
805,470,0,0,0,0,0,0,0,0,0,-1,2029,554,0,0
812,470,0,0,0,0,0,0,0,0,0,-1,2036,554,0,0
-700,463,0,0,0,0,0,0,0,0,0,-1,524,561,0,0
-693,463,0,0,0,0,0,0,0,0,0,-1,531,561,0,0
-686,463,0,0,0,0,0,0,0,0,0,-1,538,561,0,0
-679,463,0,0,0,0,0,0,0,0,0,-1,545,561,0,0
-672,463,0,0,0,0,0,0,0,0,0,-1,552,561,0,0
-665,463,0,0,0,0,0,0,0,0,0,-1,559,561,0,0
-658,463,0,0,0,0,0,0,0,0,0,-1,566,561,0,0
-651,463,0,0,0,0,0,0,0,0,0,-1,573,561,0,0
-644,463,0,0,0,0,0,0,0,0,0,-1,580,561,0,0
-637,463,0,0,0,0,0,0,0,0,0,-1,587,561,0,0
-630,463,0,0,0,0,0,0,0,0,0,-1,594,561,0,0
-623,463,0,0,0,0,0,0,0,0,0,-1,601,561,0,0
-616,463,0,0,0,0,0,0,0,0,0,-1,608,561,0,0
-609,463,0,0,0,0,0,0,0,0,0,-1,615,561,0,0
-602,463,0,0,0,0,0,0,0,0,0,-1,622,561,0,0
-595,463,0,0,0,0,0,0,0,0,0,-1,629,561,0,0
-588,463,0,0,0,0,0,0,0,0,0,-1,636,561,0,0
-581,463,0,0,0,0,0,0,0,0,0,-1,643,561,0,0
-574,463,0,0,0,0,0,0,0,0,0,-1,650,561,0,0
-567,463,0,0,0,0,0,0,0,0,0,-1,657,561,0,0
-560,463,0,0,0,0,0,0,0,0,0,-1,664,561,0,0
-553,463,0,0,0,0,0,0,0,0,0,-1,671,561,0,0
-546,463,0,0,0,0,0,0,0,0,0,-1,678,561,0,0
-539,463,0,0,0,0,0,0,0,0,0,-1,685,561,0,0
-532,463,0,0,0,0,0,0,0,0,0,-1,692,561,0,0
-525,463,0,0,0,0,0,0,0,0,0,-1,699,561,0,0
-518,463,0,0,0,0,0,0,0,0,0,-1,706,561,0,0
-511,463,0,0,0,0,0,0,0,0,0,-1,713,561,0,0
-504,463,0,0,0,0,0,0,0,0,0,-1,720,561,0,0
-497,463,-9.81451,-1.67126,0,0,0,0,0,0,0,-1,727,561,-9.81452,1.67127
-490,463,-8.57043,-1.58942,0,0,0,0,0,0,0,-1,734,561,-8.57045,1.58944
-483,463,-7.29224,-1.7226,0,0,0,0,0,0,0,-1,741,561,-7.29226,1.72261
-476,463,-5.77704,-1.7312,0,0,0,0,0,0,0,-1,748,561,-5.77703,1.73121
-469,463,-5.14545,-2.138,0,0,0,0,0,0,0,-1,755,561,-5.14546,2.13799
-462,463,-3.13672,-3.07977,0,0,0,0,0,0,0,-1,762,561,-3.13672,3.07974
-455,463,-2.91406,-5.61798,0,0,0,0,0,0,0,-1,769,561,-2.91406,5.61801
-448,463,-4.00177,-8.54681,0,0,0,0,0,0,0,-1,776,561,-4.00175,8.54683
-441,463,-5.40393,-11.1531,0,0,0,0,0,0,0,-1,783,561,-5.40393,11.1531
-434,463,-5.31927,-11.914,-0.00267957,0.008257,-0.00193791,0.00859023,-0.00301281,-1.40051,0.00695221,0.0272437,790,561,-5.31929,11.914
-427,463,-5.34576,-12.5021,-0.00214974,0.0068618,-0.00168007,0.00716483,-0.00245278,-1.39234,0.0057706,0.00983698,797,561,-5.34574,12.5021
-420,463,-5.33502,-13.073,-0.00157269,0.00553814,-0.00148597,0.00583618,-0.00187073,-1.37286,0.00464177,0.00987824,804,561,-5.33499,13.073
-413,463,-5.36194,-13.636,-0.00107709,0.00421449,-0.00117894,0.00446527,-0.00132786,-1.36121,0.00350435,0.00972088,811,561,-5.36193,13.6361
-406,463,-5.40302,-14.1891,-0.00049046,0.00318616,-0.000978633,0.00343042,-0.000734722,-1.3262,0.00256715,0.00938418,818,561,-5.40302,14.1891
-399,463,-5.42987,-14.7499,0.00012265,0.00222342,-0.000765205,0.00247259,-0.000126522,-1.256,0.00169214,0.0108422,825,561,-5.42986,14.7499
-392,463,-5.44934,-15.2982,0.000787358,0.00124199,-0.000550813,0.00161055,0.000418799,-0.981099,0.000964889,0.0108393,832,561,-5.44932,15.2982
-385,463,-5.45978,-15.869,0.00151588,0.000415152,-0.000378112,0.00163325,0.000297782,-0.300981,0.0010044,0.011628,839,561,-5.45978,15.869
-378,463,-5.47266,-16.4261,0.00223542,-0.000329816,-0.000183526,0.00224848,-0.000342879,-0.0710611,0.00162538,0.012683,846,561,-5.47266,16.4261
-371,463,-5.48798,-16.9589,0.00293673,-0.00103059,2.33378e-05,0.00293687,-0.00103073,0.00588224,0.00237718,0.0125102,853,561,-5.48796,16.9589
-364,463,-5.49512,-17.4482,0.00367081,-0.00161806,0.000184866,0.00367726,-0.00162452,0.034897,0.00313653,0.0146263,860,561,-5.49513,17.4482
-357,463,-5.54205,-17.9567,0.0045237,-0.00218674,0.000232737,0.00453176,-0.0021948,0.0346273,0.00396094,0.0203355,867,561,-5.54204,17.9567
-350,463,-5.43921,-18.5392,0.00543949,-0.00273154,0.000133466,0.00544167,-0.00273372,0.0163282,0.0048056,0.0390312,874,561,-5.4392,18.5392
-343,463,-5.21759,-18.9431,0,0,0,0,0,0,0,-1,881,561,-5.21762,18.9431
-336,463,-2.94928,-12.2127,0,0,0,0,0,0,0,-1,888,561,-2.94925,12.2127
-329,463,-2.64307,-12.7037,0,0,0,0,0,0,0,-1,895,561,-2.64307,12.7038
-322,463,-1.82898,-9.11957,0,0,0,0,0,0,0,-1,902,561,-1.829,9.11957
-315,463,-0.944763,-5.96234,0,0,0,0,0,0,0,-1,909,561,-0.94479,5.96237
-308,463,-1.1535,-3.17889,0,0,0,0,0,0,0,-1,916,561,-1.15352,3.17889
-301,463,-1.50366,-3.15338,0,0,0,0,0,0,0,-1,923,561,-1.50364,3.15341
-294,463,-2.35889,-3.93463,0,0,0,0,0,0,0,-1,930,561,-2.35886,3.93465
-287,463,-2.80322,2.73999,0,0,0,0,0,0,0,-1,937,561,-2.80322,-2.74
-280,463,-12.864,5.25146,0,0,0,0,0,0,0,-1,944,561,-12.864,-5.25149
-273,463,-12.4598,3.39178,0,0,0,0,0,0,0,-1,951,561,-12.4598,-3.3918
-266,463,-8.78101,-3.7356,0,0,0,0,0,0,0,-1,958,561,-8.78098,3.73562
-259,463,-6.23285,-5.68842,0,0,0,0,0,0,0,-1,965,561,-6.23288,5.68843
-252,463,0,0,0,0,0,0,0,0,0,-1,972,561,0,0
-245,463,0,0,0,0,0,0,0,0,0,-1,979,561,0,0
-238,463,0,0,0,0,0,0,0,0,0,-1,986,561,0,0
-231,463,0,0,0,0,0,0,0,0,0,-1,993,561,0,0
-224,463,0,0,0,0,0,0,0,0,0,-1,1000,561,0,0
-217,463,0,0,0,0,0,0,0,0,0,-1,1007,561,0,0
-210,463,0,0,0,0,0,0,0,0,0,-1,1014,561,0,0
-203,463,0,0,0,0,0,0,0,0,0,-1,1021,561,0,0
-196,463,0,0,0,0,0,0,0,0,0,-1,1028,561,0,0
-189,463,0,0,0,0,0,0,0,0,0,-1,1035,561,0,0
-182,463,0,0,0,0,0,0,0,0,0,-1,1042,561,0,0
-175,463,0,0,0,0,0,0,0,0,0,-1,1049,561,0,0
-168,463,0,0,0,0,0,0,0,0,0,-1,1056,561,0,0
-161,463,0,0,0,0,0,0,0,0,0,-1,1063,561,0,0
-154,463,0,0,0,0,0,0,0,0,0,-1,1070,561,0,0
-147,463,0,0,0,0,0,0,0,0,0,-1,1077,561,0,0
-140,463,0,0,0,0,0,0,0,0,0,-1,1084,561,0,0
-133,463,0,0,0,0,0,0,0,0,0,-1,1091,561,0,0
-126,463,0,0,0,0,0,0,0,0,0,-1,1098,561,0,0
-119,463,0,0,0,0,0,0,0,0,0,-1,1105,561,0,0
-112,463,0,0,0,0,0,0,0,0,0,-1,1112,561,0,0
-105,463,0,0,0,0,0,0,0,0,0,-1,1119,561,0,0
-98,463,0,0,0,0,0,0,0,0,0,-1,1126,561,0,0
-91,463,0,0,0,0,0,0,0,0,0,-1,1133,561,0,0
-84,463,0,0,0,0,0,0,0,0,0,-1,1140,561,0,0
-77,463,0,0,0,0,0,0,0,0,0,-1,1147,561,0,0
-70,463,0,0,0,0,0,0,0,0,0,-1,1154,561,0,0
-63,463,0,0,0,0,0,0,0,0,0,-1,1161,561,0,0
-56,463,0,0,0,0,0,0,0,0,0,-1,1168,561,0,0
-49,463,0,0,0,0,0,0,0,0,0,-1,1175,561,0,0
-42,463,0,0,0,0,0,0,0,0,0,-1,1182,561,0,0
-35,463,0,0,0,0,0,0,0,0,0,-1,1189,561,0,0
-28,463,0,0,0,0,0,0,0,0,0,-1,1196,561,0,0
-21,463,0,0,0,0,0,0,0,0,0,-1,1203,561,0,0
-14,463,0,0,0,0,0,0,0,0,0,-1,1210,561,0,0
-7,463,0,0,0,0,0,0,0,0,0,-1,1217,561,0,0
0,463,0,0,0,0,0,0,0,0,0,-1,1224,561,0,0
7,463,0,0,0,0,0,0,0,0,0,-1,1231,561,0,0
14,463,0,0,0,0,0,0,0,0,0,-1,1238,561,0,0
21,463,0,0,0,0,0,0,0,0,0,-1,1245,561,0,0
28,463,0,0,0,0,0,0,0,0,0,-1,1252,561,0,0
35,463,0,0,0,0,0,0,0,0,0,-1,1259,561,0,0
42,463,0,0,0,0,0,0,0,0,0,-1,1266,561,0,0
49,463,0,0,0,0,0,0,0,0,0,-1,1273,561,0,0
56,463,0,0,0,0,0,0,0,0,0,-1,1280,561,0,0
63,463,0,0,0,0,0,0,0,0,0,-1,1287,561,0,0
70,463,0,0,0,0,0,0,0,0,0,-1,1294,561,0,0
77,463,0,0,0,0,0,0,0,0,0,-1,1301,561,0,0
84,463,0,0,0,0,0,0,0,0,0,-1,1308,561,0,0
91,463,0,0,0,0,0,0,0,0,0,-1,1315,561,0,0
98,463,0,0,0,0,0,0,0,0,0,-1,1322,561,0,0
105,463,0,0,0,0,0,0,0,0,0,-1,1329,561,0,0
112,463,0,0,0,0,0,0,0,0,0,-1,1336,561,0,0
119,463,0,0,0,0,0,0,0,0,0,-1,1343,561,0,0
126,463,0,0,0,0,0,0,0,0,0,-1,1350,561,0,0
133,463,0,0,0,0,0,0,0,0,0,-1,1357,561,0,0
140,463,0,0,0,0,0,0,0,0,0,-1,1364,561,0,0
147,463,0,0,0,0,0,0,0,0,0,-1,1371,561,0,0
154,463,0,0,0,0,0,0,0,0,0,-1,1378,561,0,0
161,463,0,0,0,0,0,0,0,0,0,-1,1385,561,0,0
168,463,0,0,0,0,0,0,0,0,0,-1,1392,561,0,0
175,463,0,0,0,0,0,0,0,0,0,-1,1399,561,0,0
182,463,0,0,0,0,0,0,0,0,0,-1,1406,561,0,0
189,463,0,0,0,0,0,0,0,0,0,-1,1413,561,0,0
196,463,0,0,0,0,0,0,0,0,0,-1,1420,561,0,0
203,463,0,0,0,0,0,0,0,0,0,-1,1427,561,0,0
210,463,0,0,0,0,0,0,0,0,0,-1,1434,561,0,0
217,463,0,0,0,0,0,0,0,0,0,-1,1441,561,0,0
224,463,0,0,0,0,0,0,0,0,0,-1,1448,561,0,0
231,463,0,0,0,0,0,0,0,0,0,-1,1455,561,0,0
238,463,0,0,0,0,0,0,0,0,0,-1,1462,561,0,0
245,463,0,0,0,0,0,0,0,0,0,-1,1469,561,0,0
252,463,0,0,0,0,0,0,0,0,0,-1,1476,561,0,0
259,463,0,0,0,0,0,0,0,0,0,-1,1483,561,0,0
266,463,0,0,0,0,0,0,0,0,0,-1,1490,561,0,0
273,463,0,0,0,0,0,0,0,0,0,-1,1497,561,0,0
280,463,0,0,0,0,0,0,0,0,0,-1,1504,561,0,0
287,463,0,0,0,0,0,0,0,0,0,-1,1511,561,0,0
294,463,0,0,0,0,0,0,0,0,0,-1,1518,561,0,0
301,463,0,0,0,0,0,0,0,0,0,-1,1525,561,0,0
308,463,0,0,0,0,0,0,0,0,0,-1,1532,561,0,0
315,463,0,0,0,0,0,0,0,0,0,-1,1539,561,0,0
322,463,0,0,0,0,0,0,0,0,0,-1,1546,561,0,0
329,463,0,0,0,0,0,0,0,0,0,-1,1553,561,0,0
336,463,0,0,0,0,0,0,0,0,0,-1,1560,561,0,0
343,463,0,0,0,0,0,0,0,0,0,-1,1567,561,0,0
350,463,0,0,0,0,0,0,0,0,0,-1,1574,561,0,0
357,463,0,0,0,0,0,0,0,0,0,-1,1581,561,0,0
364,463,0,0,0,0,0,0,0,0,0,-1,1588,561,0,0
371,463,1.75842,0.152588,0,0,0,0,0,0,0,-1,1595,561,1.75844,-0.152558
378,463,4.58813,-0.0444336,0,0,0,0,0,0,0,-1,1602,561,4.58809,0.0444505
385,463,8.88574,1.65057,0,0,0,0,0,0,0,-1,1609,561,8.88575,-1.65055
392,463,14.0912,2.50513,0,0,0,0,0,0,0,-1,1616,561,14.0912,-2.5051
399,463,21.4769,2.7002,0,0,0,0,0,0,0,-1,1623,561,21.477,-2.70017
406,463,26.2987,4.32318,0,0,0,0,0,0,0,-1,1630,561,26.2987,-4.3232
413,463,26.5011,2.65222,0,0,0,0,0,0,0,-1,1637,561,26.5011,-2.65224
420,463,8.849,2.26611,0,0,0,0,0,0,0,-1,1644,561,8.84899,-2.26613
427,463,5.12207,1.69183,0,0,0,0,0,0,0,-1,1651,561,5.12206,-1.69184
434,463,4.59814,1.81995,0,0,0,0,0,0,0,-1,1658,561,4.59812,-1.81994
441,463,1.76392,-5.99225,0,0,0,0,0,0,0,-1,1665,561,1.7639,5.99225
448,463,2.49939,-4.30536,0,0,0,0,0,0,0,-1,1672,561,2.49941,4.30536
455,463,4.40295,-3.02557,0,0,0,0,0,0,0,-1,1679,561,4.40299,3.02558
462,463,5.38293,-4.06445,0,0,0,0,0,0,0,-1,1686,561,5.38289,4.06444
469,463,5.94373,-4.50647,0,0,0,0,0,0,0,-1,1693,561,5.94368,4.50646
476,463,15.2559,-17.3189,0,0,0,0,0,0,0,-1,1700,561,15.2558,17.3189
483,463,15.7705,-16.8308,0,0,0,0,0,0,0,-1,1707,561,15.7706,16.8308
490,463,15.7723,-16.2307,0.00200812,0.00206242,0.000835728,0.00287144,0.0011991,0.801634,0.00166531,0.0233969,1714,561,15.7723,16.2306
497,463,15.736,-15.6483,0.00178529,0.00189283,0.00094098,0.00278157,0.000896542,0.813938,0.00163939,0.0132575,1721,561,15.736,15.6483
504,463,15.7169,-15.0665,0.00149574,0.00167007,0.000934419,0.00252138,0.000644426,0.831905,0.00151258,0.0158703,1728,561,15.7169,15.0665
511,463,15.7091,-14.466,0.00110739,0.00145464,0.000874746,0.00217283,0.000389204,0.88337,0.00133782,0.0213009,1735,561,15.7092,14.466
518,463,15.6952,-13.901,0.000616636,0.00129096,0.000751158,0.00177716,0.000130441,0.99635,0.00114377,0.0227418,1742,561,15.6951,13.901
525,463,15.6896,-13.3576,0.000144084,0.00106331,0.000564293,0.00133148,-0.000124087,1.12716,0.000931774,0.0187286,1749,561,15.6896,13.3576
532,463,15.6833,-12.7878,-0.000355358,0.000914037,0.000346798,0.0010026,-0.000443924,1.32076,0.000855663,0.0162856,1756,561,15.6833,12.7878
539,463,15.6235,-12.1896,-0.000852609,0.000758016,9.53312e-05,0.000763639,-0.000858232,1.51188,0.000936919,0.0167155,1763,561,15.6235,12.1897
546,463,15.611,-11.62,-0.00129946,0.0007064,-0.000158005,0.00071877,-0.00131183,-1.49267,0.00118892,0.0132624,1770,561,15.6109,11.62
553,463,15.6005,-10.9896,-0.00169852,0.000727366,-0.000385528,0.000787162,-0.00175832,-1.41692,0.00150486,0.0110414,1777,561,15.6005,10.9895
560,463,15.6066,-10.27,-0.00196726,0.000733921,-0.000571804,0.000849978,-0.00208332,-1.37055,0.00174272,0.0201466,1784,561,15.6066,10.27
567,463,15.4707,-9.70563,-0.002061,0.000752754,-0.000723226,0.000927762,-0.00223601,-1.33338,0.00187794,0.0280664,1791,561,15.4707,9.70566
574,463,15.5537,-9.13947,0,0,0,0,0,0,0,-1,1798,561,15.5537,9.13946
581,463,9.4939,-3.88245,0,0,0,0,0,0,0,-1,1805,561,9.49392,3.88245
588,463,1.97424,2.16016,0,0,0,0,0,0,0,-1,1812,561,1.97422,-2.16013
595,463,9.98657,2.99854,0,0,0,0,0,0,0,-1,1819,561,9.98662,-2.99856
602,463,17.2202,4.91302,0,0,0,0,0,0,0,-1,1826,561,17.2202,-4.91305
609,463,17.96,4.03131,0,0,0,0,0,0,0,-1,1833,561,17.96,-4.03132
616,463,20.8352,3.15131,0,0,0,0,0,0,0,-1,1840,561,20.8352,-3.1513
623,463,0,0,0,0,0,0,0,0,0,-1,1847,561,0,0
630,463,0,0,0,0,0,0,0,0,0,-1,1854,561,0,0
637,463,0,0,0,0,0,0,0,0,0,-1,1861,561,0,0
644,463,0,0,0,0,0,0,0,0,0,-1,1868,561,0,0
651,463,0,0,0,0,0,0,0,0,0,-1,1875,561,0,0
658,463,0,0,0,0,0,0,0,0,0,-1,1882,561,0,0
665,463,0,0,0,0,0,0,0,0,0,-1,1889,561,0,0
672,463,0,0,0,0,0,0,0,0,0,-1,1896,561,0,0
679,463,0,0,0,0,0,0,0,0,0,-1,1903,561,0,0
686,463,0,0,0,0,0,0,0,0,0,-1,1910,561,0,0
693,463,0,0,0,0,0,0,0,0,0,-1,1917,561,0,0
700,463,0,0,0,0,0,0,0,0,0,-1,1924,561,0,0
707,463,0,0,0,0,0,0,0,0,0,-1,1931,561,0,0
714,463,0,0,0,0,0,0,0,0,0,-1,1938,561,0,0
721,463,0,0,0,0,0,0,0,0,0,-1,1945,561,0,0
728,463,0,0,0,0,0,0,0,0,0,-1,1952,561,0,0
735,463,0,0,0,0,0,0,0,0,0,-1,1959,561,0,0
742,463,0,0,0,0,0,0,0,0,0,-1,1966,561,0,0
749,463,0,0,0,0,0,0,0,0,0,-1,1973,561,0,0
756,463,0,0,0,0,0,0,0,0,0,-1,1980,561,0,0
763,463,0,0,0,0,0,0,0,0,0,-1,1987,561,0,0
770,463,0,0,0,0,0,0,0,0,0,-1,1994,561,0,0
777,463,0,0,0,0,0,0,0,0,0,-1,2001,561,0,0
784,463,0,0,0,0,0,0,0,0,0,-1,2008,561,0,0
791,463,0,0,0,0,0,0,0,0,0,-1,2015,561,0,0
798,463,0,0,0,0,0,0,0,0,0,-1,2022,561,0,0
805,463,0,0,0,0,0,0,0,0,0,-1,2029,561,0,0
812,463,0,0,0,0,0,0,0,0,0,-1,2036,561,0,0
-700,456,0,0,0,0,0,0,0,0,0,-1,524,568,0,0
-693,456,0,0,0,0,0,0,0,0,0,-1,531,568,0,0
-686,456,0,0,0,0,0,0,0,0,0,-1,538,568,0,0
-679,456,0,0,0,0,0,0,0,0,0,-1,545,568,0,0
-672,456,0,0,0,0,0,0,0,0,0,-1,552,568,0,0
-665,456,0,0,0,0,0,0,0,0,0,-1,559,568,0,0
-658,456,0,0,0,0,0,0,0,0,0,-1,566,568,0,0
-651,456,0,0,0,0,0,0,0,0,0,-1,573,568,0,0
-644,456,0,0,0,0,0,0,0,0,0,-1,580,568,0,0
-637,456,0,0,0,0,0,0,0,0,0,-1,587,568,0,0
-630,456,0,0,0,0,0,0,0,0,0,-1,594,568,0,0
-623,456,0,0,0,0,0,0,0,0,0,-1,601,568,0,0
-616,456,0,0,0,0,0,0,0,0,0,-1,608,568,0,0
-609,456,0,0,0,0,0,0,0,0,0,-1,615,568,0,0
-602,456,0,0,0,0,0,0,0,0,0,-1,622,568,0,0
-595,456,0,0,0,0,0,0,0,0,0,-1,629,568,0,0
-588,456,0,0,0,0,0,0,0,0,0,-1,636,568,0,0
-581,456,0,0,0,0,0,0,0,0,0,-1,643,568,0,0
-574,456,0,0,0,0,0,0,0,0,0,-1,650,568,0,0
-567,456,0,0,0,0,0,0,0,0,0,-1,657,568,0,0
-560,456,0,0,0,0,0,0,0,0,0,-1,664,568,0,0
-553,456,0,0,0,0,0,0,0,0,0,-1,671,568,0,0
-546,456,0,0,0,0,0,0,0,0,0,-1,678,568,0,0
-539,456,0,0,0,0,0,0,0,0,0,-1,685,568,0,0
-532,456,0,0,0,0,0,0,0,0,0,-1,692,568,0,0
-525,456,0,0,0,0,0,0,0,0,0,-1,699,568,0,0
-518,456,0,0,0,0,0,0,0,0,0,-1,706,568,0,0
-511,456,0,0,0,0,0,0,0,0,0,-1,713,568,0,0
-504,456,-10.3994,-2.34839,0,0,0,0,0,0,0,-1,720,568,-10.3994,2.3484
-497,456,-9.21375,-2.38068,0,0,0,0,0,0,0,-1,727,568,-9.21372,2.38069
-490,456,-8.09058,-2.31824,0,0,0,0,0,0,0,-1,734,568,-8.09057,2.31821
-483,456,-6.66119,-2.24329,0,0,0,0,0,0,0,-1,741,568,-6.66121,2.24331
-476,456,-5.1499,-2.21185,0,0,0,0,0,0,0,-1,748,568,-5.14992,2.21184
-469,456,-2.81238,-3.51501,0,0,0,0,0,0,0,-1,755,568,-2.81237,3.51501
-462,456,-4.2431,-5.27478,0,0,0,0,0,0,0,-1,762,568,-4.24312,5.27476
-455,456,-5.98364,-8.72119,0,0,0,0,0,0,0,-1,769,568,-5.98364,8.72122
-448,456,-5.58807,-10.2627,0,0,0,0,0,0,0,-1,776,568,-5.5881,10.2627
-441,456,-5.77557,-11.2421,-0.00189056,0.00813652,-0.00246422,0.00870939,-0.00246343,-1.34238,0.00677829,0.0316212,783,568,-5.77557,11.2421
-434,456,-5.88416,-11.9099,-0.00163182,0.00660407,-0.00193483,0.00703596,-0.00206372,-1.35118,0.00550894,0.0163206,790,568,-5.88413,11.9099
-427,456,-5.89362,-12.4907,-0.00128913,0.005298,-0.00154635,0.00564295,-0.00163408,-1.35132,0.00440878,0.00857088,797,568,-5.89364,12.4907
-420,456,-5.89819,-13.0534,-0.000851284,0.00409724,-0.0012576,0.0043985,-0.00115255,-1.33567,0.00338262,0.00915792,804,568,-5.89822,13.0534
-413,456,-5.91895,-13.6088,-0.000477839,0.00284954,-0.00086479,0.00306088,-0.000689176,-1.33111,0.00230492,0.00887111,811,568,-5.91896,13.6088
-406,456,-5.97052,-14.1645,1.92681e-05,0.00190331,-0.000611214,0.00208423,-0.000161647,-1.28302,0.00144638,0.00865173,818,568,-5.97052,14.1645
-399,456,-6.00208,-14.72,0.000603849,0.00104272,-0.000387342,0.00126847,0.000378104,-1.04312,0.000751993,0.0106026,825,568,-6.00209,14.72
-392,456,-5.99274,-15.2682,0.00127454,0.000189782,-0.000185925,0.00130552,0.000158799,-0.165121,0.00082254,0.010462,832,568,-5.99271,15.2683
-385,456,-6.00549,-15.8283,0.00202035,-0.00047528,-4.15535e-05,0.00202104,-0.000475972,-0.0166444,0.00153088,0.00985234,839,568,-6.00549,15.8283
-378,456,-6.02881,-16.4001,0.00274642,-0.00107409,0.000154119,0.00275262,-0.0010803,0.0402528,0.00228207,0.0112262,846,568,-6.02879,16.4001
-371,456,-6.03455,-16.9194,0.0035385,-0.00151515,0.000331814,0.00356019,-0.00153685,0.0652848,0.00301907,0.0120909,853,568,-6.03457,16.9194
-364,456,-6.02271,-17.4086,0.00445413,-0.0017524,0.000393292,0.00447895,-0.00177723,0.0630313,0.00372258,0.0235092,860,568,-6.02268,17.4086
-357,456,-5.99188,-18.0203,0,0,0,0,0,0,0,-1,867,568,-5.99186,18.0203
-350,456,-5.83905,-18.7429,0,0,0,0,0,0,0,-1,874,568,-5.83908,18.7429
-343,456,-3.39081,-12.0217,0,0,0,0,0,0,0,-1,881,568,-3.39078,12.0217
-336,456,-3.04517,-12.4623,0,0,0,0,0,0,0,-1,888,568,-3.04519,12.4624
-329,456,-1.06183,-10.7184,0,0,0,0,0,0,0,-1,895,568,-1.06184,10.7184
-322,456,-0.662537,-7.66632,0,0,0,0,0,0,0,-1,902,568,-0.662564,7.66633
-315,456,-0.675476,-3.38397,0,0,0,0,0,0,0,-1,909,568,-0.675473,3.38399
-308,456,-1.1618,-3.15314,0,0,0,0,0,0,0,-1,916,568,-1.16178,3.15314
-301,456,-1.83551,-3.26447,0,0,0,0,0,0,0,-1,923,568,-1.8355,3.26449
-294,456,-2.93414,-3.35449,0,0,0,0,0,0,0,-1,930,568,-2.93413,3.35451
-287,456,-3.7569,-3.53101,0,0,0,0,0,0,0,-1,937,568,-3.75692,3.53101
-280,456,-13.072,4.52856,0,0,0,0,0,0,0,-1,944,568,-13.072,-4.52855
-273,456,-8.26538,-6.66748,0,0,0,0,0,0,0,-1,951,568,-8.26536,6.66745
-266,456,-5.71527,-9.36884,0,0,0,0,0,0,0,-1,958,568,-5.71529,9.36885
-259,456,0,0,0,0,0,0,0,0,0,-1,965,568,0,0
-252,456,0,0,0,0,0,0,0,0,0,-1,972,568,0,0
-245,456,0,0,0,0,0,0,0,0,0,-1,979,568,0,0
-238,456,0,0,0,0,0,0,0,0,0,-1,986,568,0,0
-231,456,0,0,0,0,0,0,0,0,0,-1,993,568,0,0
-224,456,0,0,0,0,0,0,0,0,0,-1,1000,568,0,0
-217,456,0,0,0,0,0,0,0,0,0,-1,1007,568,0,0
-210,456,0,0,0,0,0,0,0,0,0,-1,1014,568,0,0
-203,456,0,0,0,0,0,0,0,0,0,-1,1021,568,0,0
-196,456,0,0,0,0,0,0,0,0,0,-1,1028,568,0,0
-189,456,0,0,0,0,0,0,0,0,0,-1,1035,568,0,0
-182,456,0,0,0,0,0,0,0,0,0,-1,1042,568,0,0
-175,456,0,0,0,0,0,0,0,0,0,-1,1049,568,0,0
-168,456,0,0,0,0,0,0,0,0,0,-1,1056,568,0,0
-161,456,0,0,0,0,0,0,0,0,0,-1,1063,568,0,0
-154,456,0,0,0,0,0,0,0,0,0,-1,1070,568,0,0
-147,456,0,0,0,0,0,0,0,0,0,-1,1077,568,0,0
-140,456,0,0,0,0,0,0,0,0,0,-1,1084,568,0,0
-133,456,0,0,0,0,0,0,0,0,0,-1,1091,568,0,0
-126,456,0,0,0,0,0,0,0,0,0,-1,1098,568,0,0
-119,456,0,0,0,0,0,0,0,0,0,-1,1105,568,0,0
-112,456,0,0,0,0,0,0,0,0,0,-1,1112,568,0,0
-105,456,0,0,0,0,0,0,0,0,0,-1,1119,568,0,0
-98,456,0,0,0,0,0,0,0,0,0,-1,1126,568,0,0
-91,456,0,0,0,0,0,0,0,0,0,-1,1133,568,0,0
-84,456,0,0,0,0,0,0,0,0,0,-1,1140,568,0,0
-77,456,0,0,0,0,0,0,0,0,0,-1,1147,568,0,0
-70,456,0,0,0,0,0,0,0,0,0,-1,1154,568,0,0
-63,456,0,0,0,0,0,0,0,0,0,-1,1161,568,0,0
-56,456,0,0,0,0,0,0,0,0,0,-1,1168,568,0,0
-49,456,0,0,0,0,0,0,0,0,0,-1,1175,568,0,0
-42,456,0,0,0,0,0,0,0,0,0,-1,1182,568,0,0
-35,456,0,0,0,0,0,0,0,0,0,-1,1189,568,0,0
-28,456,0,0,0,0,0,0,0,0,0,-1,1196,568,0,0
-21,456,0,0,0,0,0,0,0,0,0,-1,1203,568,0,0
-14,456,0,0,0,0,0,0,0,0,0,-1,1210,568,0,0
-7,456,0,0,0,0,0,0,0,0,0,-1,1217,568,0,0
0,456,0,0,0,0,0,0,0,0,0,-1,1224,568,0,0
7,456,0,0,0,0,0,0,0,0,0,-1,1231,568,0,0
14,456,0,0,0,0,0,0,0,0,0,-1,1238,568,0,0
21,456,0,0,0,0,0,0,0,0,0,-1,1245,568,0,0
28,456,0,0,0,0,0,0,0,0,0,-1,1252,568,0,0
35,456,0,0,0,0,0,0,0,0,0,-1,1259,568,0,0
42,456,0,0,0,0,0,0,0,0,0,-1,1266,568,0,0
49,456,0,0,0,0,0,0,0,0,0,-1,1273,568,0,0
56,456,0,0,0,0,0,0,0,0,0,-1,1280,568,0,0
63,456,0,0,0,0,0,0,0,0,0,-1,1287,568,0,0
70,456,0,0,0,0,0,0,0,0,0,-1,1294,568,0,0
77,456,0,0,0,0,0,0,0,0,0,-1,1301,568,0,0
84,456,0,0,0,0,0,0,0,0,0,-1,1308,568,0,0
91,456,0,0,0,0,0,0,0,0,0,-1,1315,568,0,0
98,456,0,0,0,0,0,0,0,0,0,-1,1322,568,0,0
105,456,0,0,0,0,0,0,0,0,0,-1,1329,568,0,0
112,456,0,0,0,0,0,0,0,0,0,-1,1336,568,0,0
119,456,0,0,0,0,0,0,0,0,0,-1,1343,568,0,0
126,456,0,0,0,0,0,0,0,0,0,-1,1350,568,0,0
133,456,0,0,0,0,0,0,0,0,0,-1,1357,568,0,0
140,456,0,0,0,0,0,0,0,0,0,-1,1364,568,0,0
147,456,0,0,0,0,0,0,0,0,0,-1,1371,568,0,0
154,456,0,0,0,0,0,0,0,0,0,-1,1378,568,0,0
161,456,0,0,0,0,0,0,0,0,0,-1,1385,568,0,0
168,456,0,0,0,0,0,0,0,0,0,-1,1392,568,0,0
175,456,0,0,0,0,0,0,0,0,0,-1,1399,568,0,0
182,456,0,0,0,0,0,0,0,0,0,-1,1406,568,0,0
189,456,0,0,0,0,0,0,0,0,0,-1,1413,568,0,0
196,456,0,0,0,0,0,0,0,0,0,-1,1420,568,0,0
203,456,0,0,0,0,0,0,0,0,0,-1,1427,568,0,0
210,456,0,0,0,0,0,0,0,0,0,-1,1434,568,0,0
217,456,0,0,0,0,0,0,0,0,0,-1,1441,568,0,0
224,456,0,0,0,0,0,0,0,0,0,-1,1448,568,0,0
231,456,0,0,0,0,0,0,0,0,0,-1,1455,568,0,0
238,456,0,0,0,0,0,0,0,0,0,-1,1462,568,0,0
245,456,0,0,0,0,0,0,0,0,0,-1,1469,568,0,0
252,456,0,0,0,0,0,0,0,0,0,-1,1476,568,0,0
259,456,0,0,0,0,0,0,0,0,0,-1,1483,568,0,0
266,456,0,0,0,0,0,0,0,0,0,-1,1490,568,0,0
273,456,0,0,0,0,0,0,0,0,0,-1,1497,568,0,0
280,456,0,0,0,0,0,0,0,0,0,-1,1504,568,0,0
287,456,0,0,0,0,0,0,0,0,0,-1,1511,568,0,0
294,456,0,0,0,0,0,0,0,0,0,-1,1518,568,0,0
301,456,0,0,0,0,0,0,0,0,0,-1,1525,568,0,0
308,456,0,0,0,0,0,0,0,0,0,-1,1532,568,0,0
315,456,0,0,0,0,0,0,0,0,0,-1,1539,568,0,0
322,456,0,0,0,0,0,0,0,0,0,-1,1546,568,0,0
329,456,0,0,0,0,0,0,0,0,0,-1,1553,568,0,0
336,456,0,0,0,0,0,0,0,0,0,-1,1560,568,0,0
343,456,0,0,0,0,0,0,0,0,0,-1,1567,568,0,0
350,456,0,0,0,0,0,0,0,0,0,-1,1574,568,0,0
357,456,0,0,0,0,0,0,0,0,0,-1,1581,568,0,0
364,456,0,0,0,0,0,0,0,0,0,-1,1588,568,0,0
371,456,0,0,0,0,0,0,0,0,0,-1,1595,568,0,0
378,456,0,0,0,0,0,0,0,0,0,-1,1602,568,0,0
385,456,5.66284,0.660645,0,0,0,0,0,0,0,-1,1609,568,5.66285,-0.660615
392,456,17.5027,4.32971,0,0,0,0,0,0,0,-1,1616,568,17.5026,-4.32971
399,456,24.1917,5.99652,0,0,0,0,0,0,0,-1,1623,568,24.1916,-5.99651
406,456,24.446,4.53003,0,0,0,0,0,0,0,-1,1630,568,24.446,-4.53005
413,456,24.9418,2.90521,0,0,0,0,0,0,0,-1,1637,568,24.9418,-2.90524
420,456,25.3048,1.04712,0,0,0,0,0,0,0,-1,1644,568,25.3048,-1.04713
427,456,6.21375,2.02905,0,0,0,0,0,0,0,-1,1651,568,6.21372,-2.02904
434,456,3.0719,-4.86285,0,0,0,0,0,0,0,-1,1658,568,3.07184,4.86287
441,456,2.90344,-4.70459,0,0,0,0,0,0,0,-1,1665,568,2.90346,4.7046
448,456,3.06995,-4.93689,0,0,0,0,0,0,0,-1,1672,568,3.06991,4.93687
455,456,3.46582,-3.43701,0,0,0,0,0,0,0,-1,1679,568,3.46585,3.43698
462,456,4.68445,-4.45831,0,0,0,0,0,0,0,-1,1686,568,4.68439,4.45833
469,456,4.93201,-2.289,0,0,0,0,0,0,0,-1,1693,568,4.93197,2.28903
476,456,4.8363,-2.79364,0,0,0,0,0,0,0,-1,1700,568,4.83636,2.79363
483,456,12.8522,-13.692,0,0,0,0,0,0,0,-1,1707,568,12.8522,13.6919
490,456,16.3962,-16.533,0,0,0,0,0,0,0,-1,1714,568,16.3963,16.533
497,456,16.3257,-15.7331,0.00222189,0.00235521,0.00120728,0.00349767,0.00107943,0.812979,0.0020681,0.0478554,1721,568,16.3257,15.7331
504,456,16.2612,-15.0641,0.00199428,0.00209039,0.00116445,0.00320778,0.000876893,0.806019,0.00191438,0.0128577,1728,568,16.2612,15.0642
511,456,16.2827,-14.4744,0.0017114,0.00178101,0.00108931,0.00283607,0.000656339,0.801366,0.00171434,0.0136356,1735,568,16.2828,14.4744
518,456,16.2916,-13.8929,0.00134232,0.00155174,0.0010068,0.00245926,0.000434798,0.837214,0.00151551,0.016141,1742,568,16.2916,13.8929
525,456,16.2698,-13.3295,0.000966395,0.00135839,0.000874798,0.00205888,0.000265905,0.895601,0.00129309,0.0165269,1749,568,16.2698,13.3295
532,456,16.2516,-12.7548,0.00055466,0.00119666,0.000697606,0.00164357,0.000107743,1.00103,0.00106162,0.0162694,1756,568,16.2515,12.7548
539,456,16.2012,-12.1626,0.000141815,0.00104311,0.000498151,0.0012642,-7.92806e-05,1.15308,0.000870432,0.0194543,1763,568,16.2011,12.1626
546,456,16.1743,-11.5618,-0.000225226,0.00099144,0.000303284,0.00106285,-0.000296636,1.33955,0.000825408,0.0213057,1770,568,16.1744,11.5618
553,456,16.1423,-10.9372,-0.000562465,0.000963741,0.000125603,0.000974008,-0.000572733,1.48923,0.000902973,0.0138644,1777,568,16.1424,10.9372
560,456,16.1342,-10.3597,-0.000806711,0.000974441,6.7306e-07,0.000974441,-0.000806712,1.57042,0.00102987,0.0107802,1784,568,16.1342,10.3597
567,456,16.139,-9.75287,-0.000866622,0.00105695,-2.64778e-05,0.00105732,-0.000866986,-1.55703,0.00111281,0.0179555,1791,568,16.139,9.75289
574,456,16.1161,-9.35303,-0.000924669,0.00109675,-0.000118944,0.00110372,-0.000931644,-1.51222,0.00117652,0.0495378,1798,568,16.116,9.35303
581,456,16.1873,-8.89954,0,0,0,0,0,0,0,-1,1805,568,16.1873,8.89952
588,456,5.23901,-0.0901489,0,0,0,0,0,0,0,-1,1812,568,5.23906,0.0901656
595,456,6.90063,3.14886,0,0,0,0,0,0,0,-1,1819,568,6.90066,-3.14887
602,456,16.894,4.10938,0,0,0,0,0,0,0,-1,1826,568,16.8941,-4.1094
609,456,14.9966,3.5708,0,0,0,0,0,0,0,-1,1833,568,14.9966,-3.57083
616,456,17.7407,2.6579,0,0,0,0,0,0,0,-1,1840,568,17.7408,-2.6579
623,456,20.6838,1.7121,0,0,0,0,0,0,0,-1,1847,568,20.6838,-1.71208
630,456,0,0,0,0,0,0,0,0,0,-1,1854,568,0,0
637,456,0,0,0,0,0,0,0,0,0,-1,1861,568,0,0
644,456,0,0,0,0,0,0,0,0,0,-1,1868,568,0,0
651,456,0,0,0,0,0,0,0,0,0,-1,1875,568,0,0
658,456,0,0,0,0,0,0,0,0,0,-1,1882,568,0,0
665,456,0,0,0,0,0,0,0,0,0,-1,1889,568,0,0
672,456,0,0,0,0,0,0,0,0,0,-1,1896,568,0,0
679,456,0,0,0,0,0,0,0,0,0,-1,1903,568,0,0
686,456,0,0,0,0,0,0,0,0,0,-1,1910,568,0,0
693,456,0,0,0,0,0,0,0,0,0,-1,1917,568,0,0
700,456,0,0,0,0,0,0,0,0,0,-1,1924,568,0,0
707,456,0,0,0,0,0,0,0,0,0,-1,1931,568,0,0
714,456,0,0,0,0,0,0,0,0,0,-1,1938,568,0,0
721,456,0,0,0,0,0,0,0,0,0,-1,1945,568,0,0
728,456,0,0,0,0,0,0,0,0,0,-1,1952,568,0,0
735,456,0,0,0,0,0,0,0,0,0,-1,1959,568,0,0
742,456,0,0,0,0,0,0,0,0,0,-1,1966,568,0,0
749,456,0,0,0,0,0,0,0,0,0,-1,1973,568,0,0
756,456,0,0,0,0,0,0,0,0,0,-1,1980,568,0,0
763,456,0,0,0,0,0,0,0,0,0,-1,1987,568,0,0
770,456,0,0,0,0,0,0,0,0,0,-1,1994,568,0,0
777,456,0,0,0,0,0,0,0,0,0,-1,2001,568,0,0
784,456,0,0,0,0,0,0,0,0,0,-1,2008,568,0,0
791,456,0,0,0,0,0,0,0,0,0,-1,2015,568,0,0
798,456,0,0,0,0,0,0,0,0,0,-1,2022,568,0,0
805,456,0,0,0,0,0,0,0,0,0,-1,2029,568,0,0
812,456,0,0,0,0,0,0,0,0,0,-1,2036,568,0,0
-700,449,0,0,0,0,0,0,0,0,0,-1,524,575,0,0
-693,449,0,0,0,0,0,0,0,0,0,-1,531,575,0,0
-686,449,0,0,0,0,0,0,0,0,0,-1,538,575,0,0
-679,449,0,0,0,0,0,0,0,0,0,-1,545,575,0,0
-672,449,0,0,0,0,0,0,0,0,0,-1,552,575,0,0
-665,449,0,0,0,0,0,0,0,0,0,-1,559,575,0,0
-658,449,0,0,0,0,0,0,0,0,0,-1,566,575,0,0
-651,449,0,0,0,0,0,0,0,0,0,-1,573,575,0,0
-644,449,0,0,0,0,0,0,0,0,0,-1,580,575,0,0
-637,449,0,0,0,0,0,0,0,0,0,-1,587,575,0,0
-630,449,0,0,0,0,0,0,0,0,0,-1,594,575,0,0
-623,449,0,0,0,0,0,0,0,0,0,-1,601,575,0,0
-616,449,0,0,0,0,0,0,0,0,0,-1,608,575,0,0
-609,449,0,0,0,0,0,0,0,0,0,-1,615,575,0,0
-602,449,0,0,0,0,0,0,0,0,0,-1,622,575,0,0
-595,449,0,0,0,0,0,0,0,0,0,-1,629,575,0,0
-588,449,0,0,0,0,0,0,0,0,0,-1,636,575,0,0
-581,449,0,0,0,0,0,0,0,0,0,-1,643,575,0,0
-574,449,0,0,0,0,0,0,0,0,0,-1,650,575,0,0
-567,449,0,0,0,0,0,0,0,0,0,-1,657,575,0,0
-560,449,0,0,0,0,0,0,0,0,0,-1,664,575,0,0
-553,449,0,0,0,0,0,0,0,0,0,-1,671,575,0,0
-546,449,0,0,0,0,0,0,0,0,0,-1,678,575,0,0
-539,449,0,0,0,0,0,0,0,0,0,-1,685,575,0,0
-532,449,0,0,0,0,0,0,0,0,0,-1,692,575,0,0
-525,449,0,0,0,0,0,0,0,0,0,-1,699,575,0,0
-518,449,0,0,0,0,0,0,0,0,0,-1,706,575,0,0
-511,449,-0.941345,-4.4519,0,0,0,0,0,0,0,-1,713,575,-0.941356,4.45191
-504,449,-14.1078,0.318237,0,0,0,0,0,0,0,-1,720,575,-14.1078,-0.318231
-497,449,-8.61292,-3.09009,0,0,0,0,0,0,0,-1,727,575,-8.61291,3.09011
-490,449,-7.50995,-2.96252,0,0,0,0,0,0,0,-1,734,575,-7.50995,2.96251
-483,449,-5.77789,-2.50061,0,0,0,0,0,0,0,-1,741,575,-5.77792,2.50059
-476,449,-4.1723,-2.07739,0,0,0,0,0,0,0,-1,748,575,-4.17228,2.0774
-469,449,-4.02954,-4.56329,0,0,0,0,0,0,0,-1,755,575,-4.02951,4.56329
-462,449,-6.33252,-8.65411,0,0,0,0,0,0,0,-1,762,575,-6.33249,8.6541
-455,449,-6.6037,-9.72565,0,0,0,0,0,0,0,-1,769,575,-6.60369,9.72563
-448,449,-6.37091,-10.573,-0.000995036,0.00781071,-0.00314732,0.00881994,-0.00200427,-1.26049,0.00664951,0.0409422,776,575,-6.37089,10.573
-441,449,-6.37946,-11.3724,-0.000959296,0.00634611,-0.0023505,0.00703703,-0.00165022,-1.2849,0.00532731,0.0194956,783,575,-6.37947,11.3724
-434,449,-6.46936,-11.9249,-0.000816328,0.00503479,-0.00176372,0.00552531,-0.00130685,-1.29953,0.00418769,0.0130844,790,575,-6.46935,11.925
-427,449,-6.47125,-12.4748,-0.000586199,0.00388575,-0.00130558,0.00423901,-0.000939457,-1.30655,0.00318567,0.0128228,797,575,-6.47127,12.4748
-420,449,-6.45947,-13.0197,-0.00023221,0.00285785,-0.000976834,0.00314075,-0.000515108,-1.2889,0.00228497,0.0129154,804,575,-6.45945,13.0197
-413,449,-6.4635,-13.5871,6.69037e-05,0.00174441,-0.00054785,0.00190748,-9.61645e-05,-1.2815,0.00130489,0.010648,811,575,-6.46353,13.5871
-406,449,-6.50305,-14.1534,0.000501121,0.000908925,-0.000269103,0.00104265,0.000367396,-1.10961,0.000610659,0.00946826,818,575,-6.50304,14.1534
-399,449,-6.54541,-14.7091,0.00106871,0.0001557,-5.44718e-05,0.00107195,0.000152462,-0.0593812,0.000669621,0.00897459,825,575,-6.54542,14.7091
-392,449,-6.5459,-15.2643,0.00175112,-0.000574772,0.000116552,0.00175695,-0.000580598,0.049944,0.00140539,0.00994333,832,575,-6.54587,15.2643
-385,449,-6.55829,-15.8034,0.0025112,-0.00112107,0.000222518,0.00252479,-0.00113465,0.0609575,0.002163,0.0100466,839,575,-6.55831,15.8034
-378,449,-6.59229,-16.3358,0.00324008,-0.00165258,0.000417211,0.0032754,-0.0016879,0.0844603,0.00291401,0.00989261,846,575,-6.59231,16.3358
-371,449,-6.5744,-16.8888,0.00412738,-0.00193416,0.000570334,0.00418058,-0.00198735,0.093003,0.00363533,0.0156953,853,575,-6.57439,16.8888
-364,449,-6.5379,-17.4766,0,0,0,0,0,0,0,-1,860,575,-6.53792,17.4766
-357,449,-5.88049,-15.8704,0,0,0,0,0,0,0,-1,867,575,-5.88051,15.8704
-350,449,-2.8764,-9.90204,0,0,0,0,0,0,0,-1,874,575,-2.87638,9.90203
-343,449,-2.98492,-9.2254,0,0,0,0,0,0,0,-1,881,575,-2.98491,9.22541
-336,449,-1.29523,-9.54626,0,0,0,0,0,0,0,-1,888,575,-1.29525,9.54626
-329,449,-0.733398,-7.78937,0,0,0,0,0,0,0,-1,895,575,-0.733398,7.78937
-322,449,-0.628845,-3.16669,0,0,0,0,0,0,0,-1,902,575,-0.628861,3.16667
-315,449,-0.540344,-3.21918,0,0,0,0,0,0,0,-1,909,575,-0.540336,3.21917
-308,449,-1.04413,-2.99341,0,0,0,0,0,0,0,-1,916,575,-1.04415,2.99338
-301,449,-1.58691,-2.80725,0,0,0,0,0,0,0,-1,923,575,-1.58692,2.80728
-294,449,-3.71118,-2.76086,0,0,0,0,0,0,0,-1,930,575,-3.71119,2.76087
-287,449,-4.4082,-2.69525,0,0,0,0,0,0,0,-1,937,575,-4.40822,2.69526
-280,449,-2.12335,-11.5544,0,0,0,0,0,0,0,-1,944,575,-2.12334,11.5544
-273,449,0,0,0,0,0,0,0,0,0,-1,951,575,0,0
-266,449,0,0,0,0,0,0,0,0,0,-1,958,575,0,0
-259,449,0,0,0,0,0,0,0,0,0,-1,965,575,0,0
-252,449,0,0,0,0,0,0,0,0,0,-1,972,575,0,0
-245,449,0,0,0,0,0,0,0,0,0,-1,979,575,0,0
-238,449,0,0,0,0,0,0,0,0,0,-1,986,575,0,0
-231,449,0,0,0,0,0,0,0,0,0,-1,993,575,0,0
-224,449,0,0,0,0,0,0,0,0,0,-1,1000,575,0,0
-217,449,0,0,0,0,0,0,0,0,0,-1,1007,575,0,0
-210,449,0,0,0,0,0,0,0,0,0,-1,1014,575,0,0
-203,449,0,0,0,0,0,0,0,0,0,-1,1021,575,0,0
-196,449,0,0,0,0,0,0,0,0,0,-1,1028,575,0,0
-189,449,0,0,0,0,0,0,0,0,0,-1,1035,575,0,0
-182,449,0,0,0,0,0,0,0,0,0,-1,1042,575,0,0
-175,449,0,0,0,0,0,0,0,0,0,-1,1049,575,0,0
-168,449,0,0,0,0,0,0,0,0,0,-1,1056,575,0,0
-161,449,0,0,0,0,0,0,0,0,0,-1,1063,575,0,0
-154,449,0,0,0,0,0,0,0,0,0,-1,1070,575,0,0
-147,449,0,0,0,0,0,0,0,0,0,-1,1077,575,0,0
-140,449,0,0,0,0,0,0,0,0,0,-1,1084,575,0,0
-133,449,0,0,0,0,0,0,0,0,0,-1,1091,575,0,0
-126,449,0,0,0,0,0,0,0,0,0,-1,1098,575,0,0
-119,449,0,0,0,0,0,0,0,0,0,-1,1105,575,0,0
-112,449,0,0,0,0,0,0,0,0,0,-1,1112,575,0,0
-105,449,0,0,0,0,0,0,0,0,0,-1,1119,575,0,0
-98,449,0,0,0,0,0,0,0,0,0,-1,1126,575,0,0
-91,449,0,0,0,0,0,0,0,0,0,-1,1133,575,0,0
-84,449,0,0,0,0,0,0,0,0,0,-1,1140,575,0,0
-77,449,0,0,0,0,0,0,0,0,0,-1,1147,575,0,0
-70,449,0,0,0,0,0,0,0,0,0,-1,1154,575,0,0
-63,449,0,0,0,0,0,0,0,0,0,-1,1161,575,0,0
-56,449,0,0,0,0,0,0,0,0,0,-1,1168,575,0,0
-49,449,0,0,0,0,0,0,0,0,0,-1,1175,575,0,0
-42,449,0,0,0,0,0,0,0,0,0,-1,1182,575,0,0
-35,449,0,0,0,0,0,0,0,0,0,-1,1189,575,0,0
-28,449,0,0,0,0,0,0,0,0,0,-1,1196,575,0,0
-21,449,0,0,0,0,0,0,0,0,0,-1,1203,575,0,0
-14,449,0,0,0,0,0,0,0,0,0,-1,1210,575,0,0
-7,449,0,0,0,0,0,0,0,0,0,-1,1217,575,0,0
0,449,0,0,0,0,0,0,0,0,0,-1,1224,575,0,0
7,449,0,0,0,0,0,0,0,0,0,-1,1231,575,0,0
14,449,0,0,0,0,0,0,0,0,0,-1,1238,575,0,0
21,449,0,0,0,0,0,0,0,0,0,-1,1245,575,0,0
28,449,0,0,0,0,0,0,0,0,0,-1,1252,575,0,0
35,449,0,0,0,0,0,0,0,0,0,-1,1259,575,0,0
42,449,0,0,0,0,0,0,0,0,0,-1,1266,575,0,0
49,449,0,0,0,0,0,0,0,0,0,-1,1273,575,0,0
56,449,0,0,0,0,0,0,0,0,0,-1,1280,575,0,0
63,449,0,0,0,0,0,0,0,0,0,-1,1287,575,0,0
70,449,0,0,0,0,0,0,0,0,0,-1,1294,575,0,0
77,449,0,0,0,0,0,0,0,0,0,-1,1301,575,0,0
84,449,0,0,0,0,0,0,0,0,0,-1,1308,575,0,0
91,449,0,0,0,0,0,0,0,0,0,-1,1315,575,0,0
98,449,0,0,0,0,0,0,0,0,0,-1,1322,575,0,0
105,449,0,0,0,0,0,0,0,0,0,-1,1329,575,0,0
112,449,0,0,0,0,0,0,0,0,0,-1,1336,575,0,0
119,449,0,0,0,0,0,0,0,0,0,-1,1343,575,0,0
126,449,0,0,0,0,0,0,0,0,0,-1,1350,575,0,0
133,449,0,0,0,0,0,0,0,0,0,-1,1357,575,0,0
140,449,0,0,0,0,0,0,0,0,0,-1,1364,575,0,0
147,449,0,0,0,0,0,0,0,0,0,-1,1371,575,0,0
154,449,0,0,0,0,0,0,0,0,0,-1,1378,575,0,0
161,449,0,0,0,0,0,0,0,0,0,-1,1385,575,0,0
168,449,0,0,0,0,0,0,0,0,0,-1,1392,575,0,0
175,449,0,0,0,0,0,0,0,0,0,-1,1399,575,0,0
182,449,0,0,0,0,0,0,0,0,0,-1,1406,575,0,0
189,449,0,0,0,0,0,0,0,0,0,-1,1413,575,0,0
196,449,0,0,0,0,0,0,0,0,0,-1,1420,575,0,0
203,449,0,0,0,0,0,0,0,0,0,-1,1427,575,0,0
210,449,0,0,0,0,0,0,0,0,0,-1,1434,575,0,0
217,449,0,0,0,0,0,0,0,0,0,-1,1441,575,0,0
224,449,0,0,0,0,0,0,0,0,0,-1,1448,575,0,0
231,449,0,0,0,0,0,0,0,0,0,-1,1455,575,0,0
238,449,0,0,0,0,0,0,0,0,0,-1,1462,575,0,0
245,449,0,0,0,0,0,0,0,0,0,-1,1469,575,0,0
252,449,0,0,0,0,0,0,0,0,0,-1,1476,575,0,0
259,449,0,0,0,0,0,0,0,0,0,-1,1483,575,0,0
266,449,0,0,0,0,0,0,0,0,0,-1,1490,575,0,0
273,449,0,0,0,0,0,0,0,0,0,-1,1497,575,0,0
280,449,0,0,0,0,0,0,0,0,0,-1,1504,575,0,0
287,449,0,0,0,0,0,0,0,0,0,-1,1511,575,0,0
294,449,0,0,0,0,0,0,0,0,0,-1,1518,575,0,0
301,449,0,0,0,0,0,0,0,0,0,-1,1525,575,0,0
308,449,0,0,0,0,0,0,0,0,0,-1,1532,575,0,0
315,449,0,0,0,0,0,0,0,0,0,-1,1539,575,0,0
322,449,0,0,0,0,0,0,0,0,0,-1,1546,575,0,0
329,449,0,0,0,0,0,0,0,0,0,-1,1553,575,0,0
336,449,0,0,0,0,0,0,0,0,0,-1,1560,575,0,0
343,449,0,0,0,0,0,0,0,0,0,-1,1567,575,0,0
350,449,0,0,0,0,0,0,0,0,0,-1,1574,575,0,0
357,449,0,0,0,0,0,0,0,0,0,-1,1581,575,0,0
364,449,0,0,0,0,0,0,0,0,0,-1,1588,575,0,0
371,449,0,0,0,0,0,0,0,0,0,-1,1595,575,0,0
378,449,0,0,0,0,0,0,0,0,0,-1,1602,575,0,0
385,449,0,0,0,0,0,0,0,0,0,-1,1609,575,0,0
392,449,7.95471,3.66217,0,0,0,0,0,0,0,-1,1616,575,7.95471,-3.66218
399,449,19.9791,5.565,0,0,0,0,0,0,0,-1,1623,575,19.9791,-5.56499
406,449,24.9847,4.55969,0,0,0,0,0,0,0,-1,1630,575,24.9848,-4.55968
413,449,30.4159,3.15027,0,0,0,0,0,0,0,-1,1637,575,30.4159,-3.15028
420,449,23.9675,1.29718,0,0,0,0,0,0,0,-1,1644,575,23.9675,-1.29721
427,449,24.4276,-0.596558,0,0,0,0,0,0,0,-1,1651,575,24.4277,0.596569
434,449,25.61,-2.96594,0,0,0,0,0,0,0,-1,1658,575,25.61,2.96595
441,449,3.89856,-6.06458,0,0,0,0,0,0,0,-1,1665,575,3.89855,6.06459
448,449,4.03198,-5.18207,0,0,0,0,0,0,0,-1,1672,575,4.03197,5.18207
455,449,4.21948,-4.09467,0,0,0,0,0,0,0,-1,1679,575,4.21952,4.09465
462,449,4.23181,-2.96924,0,0,0,0,0,0,0,-1,1686,575,4.23185,2.96926
469,449,4.51672,-2.95135,0,0,0,0,0,0,0,-1,1693,575,4.51672,2.95135
476,449,4.71838,-1.86688,0,0,0,0,0,0,0,-1,1700,575,4.71842,1.86689
483,449,4.87878,-1.73126,0,0,0,0,0,0,0,-1,1707,575,4.87875,1.73128
490,449,5.73279,-2.74573,0,0,0,0,0,0,0,-1,1714,575,5.73282,2.74575
497,449,16.817,-15.9691,0,0,0,0,0,0,0,-1,1721,575,16.817,15.9691
504,449,16.8188,-15.1051,0,0,0,0,0,0,0,-1,1728,575,16.8188,15.1051
511,449,16.8691,-14.4859,0.00236954,0.00223621,0.00140552,0.00370998,0.000895779,0.7617,0.00223537,0.0115629,1735,575,16.8691,14.4859
518,449,16.8688,-13.893,0.00206796,0.00185583,0.00129816,0.00326439,0.000659408,0.744637,0.00199315,0.0125756,1742,575,16.8688,13.893
525,449,16.826,-13.3252,0.00172105,0.00165811,0.00115544,0.00284545,0.000533705,0.771784,0.00174646,0.0129306,1749,575,16.8261,13.3252
532,449,16.785,-12.7598,0.00132643,0.00143471,0.000955061,0.00233716,0.000423976,0.81371,0.00143777,0.0111419,1756,575,16.785,12.7598
539,449,16.7321,-12.1362,0.000932311,0.00124906,0.000755736,0.00186284,0.000318533,0.888685,0.00115051,0.0136143,1763,575,16.7321,12.1362
546,449,16.7296,-11.5213,0.000577445,0.00115957,0.000570705,0.00150915,0.000227867,1.02121,0.000939402,0.0231153,1770,575,16.7296,11.5213
553,449,16.705,-10.9465,0.000235005,0.00107105,0.000400456,0.00123191,7.4142e-05,1.18883,0.000797708,0.0170393,1777,575,16.705,10.9465
560,449,16.7291,-10.3801,-5.06744e-05,0.00106197,0.000287143,0.0011317,-0.000120408,1.33256,0.000797641,0.0148309,1784,575,16.7291,10.3801
567,449,16.7097,-9.79236,-0.000173921,0.00115961,0.000288049,0.00121917,-0.00023348,1.3669,0.000900752,0.0104775,1791,575,16.7098,9.79235
574,449,16.705,-9.1604,-0.000280151,0.00124349,0.000267546,0.0012891,-0.000325765,1.40193,0.000986094,0.0229481,1798,575,16.705,9.16041
581,449,16.7339,-8.3501,0,0,0,0,0,0,0,-1,1805,575,16.7339,8.35009
588,449,12.3274,-4.5672,0,0,0,0,0,0,0,-1,1812,575,12.3274,4.5672
595,449,15.9352,-5.65479,0,0,0,0,0,0,0,-1,1819,575,15.9352,5.65478
602,449,9.46167,4.17444,0,0,0,0,0,0,0,-1,1826,575,9.46164,-4.17442
609,449,12.2028,3.18652,0,0,0,0,0,0,0,-1,1833,575,12.2027,-3.18655
616,449,14.9438,2.19867,0,0,0,0,0,0,0,-1,1840,575,14.9438,-2.19867
623,449,9.83789,-0.0820313,0,0,0,0,0,0,0,-1,1847,575,9.83794,0.0820443
630,449,8.90686,4.99329,0,0,0,0,0,0,0,-1,1854,575,8.90685,-4.99327
637,449,0,0,0,0,0,0,0,0,0,-1,1861,575,0,0
644,449,0,0,0,0,0,0,0,0,0,-1,1868,575,0,0
651,449,0,0,0,0,0,0,0,0,0,-1,1875,575,0,0
658,449,0,0,0,0,0,0,0,0,0,-1,1882,575,0,0
665,449,0,0,0,0,0,0,0,0,0,-1,1889,575,0,0
672,449,0,0,0,0,0,0,0,0,0,-1,1896,575,0,0
679,449,0,0,0,0,0,0,0,0,0,-1,1903,575,0,0
686,449,0,0,0,0,0,0,0,0,0,-1,1910,575,0,0
693,449,0,0,0,0,0,0,0,0,0,-1,1917,575,0,0
700,449,0,0,0,0,0,0,0,0,0,-1,1924,575,0,0
707,449,0,0,0,0,0,0,0,0,0,-1,1931,575,0,0
714,449,0,0,0,0,0,0,0,0,0,-1,1938,575,0,0
721,449,0,0,0,0,0,0,0,0,0,-1,1945,575,0,0
728,449,0,0,0,0,0,0,0,0,0,-1,1952,575,0,0
735,449,0,0,0,0,0,0,0,0,0,-1,1959,575,0,0
742,449,0,0,0,0,0,0,0,0,0,-1,1966,575,0,0
749,449,0,0,0,0,0,0,0,0,0,-1,1973,575,0,0
756,449,0,0,0,0,0,0,0,0,0,-1,1980,575,0,0
763,449,0,0,0,0,0,0,0,0,0,-1,1987,575,0,0
770,449,0,0,0,0,0,0,0,0,0,-1,1994,575,0,0
777,449,0,0,0,0,0,0,0,0,0,-1,2001,575,0,0
784,449,0,0,0,0,0,0,0,0,0,-1,2008,575,0,0
791,449,0,0,0,0,0,0,0,0,0,-1,2015,575,0,0
798,449,0,0,0,0,0,0,0,0,0,-1,2022,575,0,0
805,449,0,0,0,0,0,0,0,0,0,-1,2029,575,0,0
812,449,0,0,0,0,0,0,0,0,0,-1,2036,575,0,0
-700,442,0,0,0,0,0,0,0,0,0,-1,524,582,0,0
-693,442,0,0,0,0,0,0,0,0,0,-1,531,582,0,0
-686,442,0,0,0,0,0,0,0,0,0,-1,538,582,0,0
-679,442,0,0,0,0,0,0,0,0,0,-1,545,582,0,0
-672,442,0,0,0,0,0,0,0,0,0,-1,552,582,0,0
-665,442,0,0,0,0,0,0,0,0,0,-1,559,582,0,0
-658,442,0,0,0,0,0,0,0,0,0,-1,566,582,0,0
-651,442,0,0,0,0,0,0,0,0,0,-1,573,582,0,0
-644,442,0,0,0,0,0,0,0,0,0,-1,580,582,0,0
-637,442,0,0,0,0,0,0,0,0,0,-1,587,582,0,0
-630,442,0,0,0,0,0,0,0,0,0,-1,594,582,0,0
-623,442,0,0,0,0,0,0,0,0,0,-1,601,582,0,0
-616,442,0,0,0,0,0,0,0,0,0,-1,608,582,0,0
-609,442,0,0,0,0,0,0,0,0,0,-1,615,582,0,0
-602,442,0,0,0,0,0,0,0,0,0,-1,622,582,0,0
-595,442,0,0,0,0,0,0,0,0,0,-1,629,582,0,0
-588,442,0,0,0,0,0,0,0,0,0,-1,636,582,0,0
-581,442,0,0,0,0,0,0,0,0,0,-1,643,582,0,0
-574,442,0,0,0,0,0,0,0,0,0,-1,650,582,0,0
-567,442,0,0,0,0,0,0,0,0,0,-1,657,582,0,0
-560,442,0,0,0,0,0,0,0,0,0,-1,664,582,0,0
-553,442,0,0,0,0,0,0,0,0,0,-1,671,582,0,0
-546,442,0,0,0,0,0,0,0,0,0,-1,678,582,0,0
-539,442,0,0,0,0,0,0,0,0,0,-1,685,582,0,0
-532,442,0,0,0,0,0,0,0,0,0,-1,692,582,0,0
-525,442,0,0,0,0,0,0,0,0,0,-1,699,582,0,0
-518,442,-0.493774,-5.72943,0,0,0,0,0,0,0,-1,706,582,-0.493791,5.72946
-511,442,-1.33008,-6.18512,0,0,0,0,0,0,0,-1,713,582,-1.33006,6.18511
-504,442,-3.20807,-6.34082,0,0,0,0,0,0,0,-1,720,582,-3.2081,6.34083
-497,442,-13.6886,-0.250122,0,0,0,0,0,0,0,-1,727,582,-13.6886,0.250143
-490,442,-9.09039,-3.64862,0,0,0,0,0,0,0,-1,734,582,-9.09037,3.64861
-483,442,-7.36499,-1.01892,0,0,0,0,0,0,0,-1,741,582,-7.365,1.01895
-476,442,-4.62225,-3.47467,0,0,0,0,0,0,0,-1,748,582,-4.62225,3.47465
-469,442,-7.09644,-8.23633,0,0,0,0,0,0,0,-1,755,582,-7.09643,8.23633
-462,442,-7.16827,-9.33099,0,0,0,0,0,0,0,-1,762,582,-7.1683,9.33099
-455,442,-7.05609,-10.1279,-0.000157286,0.00760727,-0.00379144,0.00915151,-0.00170152,-1.18402,0.00674015,0.0474775,769,582,-7.05609,10.128
-448,442,-6.94037,-10.7166,-0.000316569,0.006084,-0.00283806,0.00716115,-0.00139371,-1.20806,0.00530011,0.018217,776,582,-6.94034,10.7166
-441,442,-6.99725,-11.3086,-0.000327614,0.0047454,-0.00205846,0.00547556,-0.00105778,-1.22993,0.00404929,0.01423,783,582,-6.99726,11.3086
-434,442,-7.02277,-11.8945,-0.000240252,0.00361568,-0.00146966,0.00411195,-0.000736526,-1.24514,0.00301693,0.0134386,790,582,-7.02278,11.8945
-427,442,-7.04236,-12.4586,-5.97843e-05,0.00259558,-0.00100236,0.00293146,-0.00039567,-1.24746,0.00209867,0.0126341,797,582,-7.04234,12.4585
-420,442,-7.03021,-13.0089,0.000254897,0.00170917,-0.000675415,0.00197446,-1.0394e-05,-1.19653,0.00131979,0.0132313,804,582,-7.03022,13.0088
-413,442,-7.03729,-13.5768,0.000523628,0.000727244,-0.000252246,0.000897452,0.00035342,-0.977204,0.000522025,0.0113693,811,582,-7.03729,13.5768
-406,442,-7.07104,-14.1504,0.000924021,-1.35035e-05,3.02077e-05,0.000924994,-1.44758e-05,0.0321762,0.000621544,0.00972363,818,582,-7.07103,14.1504
-399,442,-7.09094,-14.7028,0.00149383,-0.000673196,0.00022236,0.00151641,-0.000695777,0.101206,0.00130617,0.00817414,825,582,-7.09094,14.7028
-392,442,-7.1106,-15.2513,0.0022062,-0.00127261,0.000353934,0.00224185,-0.00130826,0.10037,0.00207314,0.01065,832,582,-7.11061,15.2513
-385,442,-7.13312,-15.7737,0.00299057,-0.00169539,0.000416119,0.00302723,-0.00173206,0.0878849,0.00278149,0.0125989,839,582,-7.13313,15.7738
-378,442,-7.12897,-16.3202,0.00373128,-0.00216884,0.000613006,0.00379429,-0.00223185,0.10244,0.00351796,0.0150812,846,582,-7.12897,16.3202
-371,442,-7.07062,-16.9238,0.00475017,-0.00228586,0.000750104,0.00482925,-0.00236494,0.105036,0.00423402,0.0497348,853,582,-7.07059,16.9238
-364,442,-6.89764,-17.5333,0,0,0,0,0,0,0,-1,860,582,-6.89765,17.5333
-357,442,-4.9115,-11.2649,0,0,0,0,0,0,0,-1,867,582,-4.91147,11.2649
-350,442,-1.75372,-6.27618,0,0,0,0,0,0,0,-1,874,582,-1.75371,6.27618
-343,442,-1.4599,-4.63605,0,0,0,0,0,0,0,-1,881,582,-1.4599,4.63607
-336,442,-1.4054,-2.64313,0,0,0,0,0,0,0,-1,888,582,-1.40539,2.64315
-329,442,-0.952576,-2.76923,0,0,0,0,0,0,0,-1,895,582,-0.952571,2.7692
-322,442,-0.972534,-2.63208,0,0,0,0,0,0,0,-1,902,582,-0.972512,2.6321
-315,442,-0.445557,-2.89764,0,0,0,0,0,0,0,-1,909,582,-0.445582,2.89765
-308,442,-0.654175,-3.07831,0,0,0,0,0,0,0,-1,916,582,-0.654145,3.07832
-301,442,-1.37427,-2.41455,0,0,0,0,0,0,0,-1,923,582,-1.37425,2.41453
-294,442,-2.99963,-2.07855,0,0,0,0,0,0,0,-1,930,582,-2.99964,2.07857
-287,442,-2.26624,-4.73987,0,0,0,0,0,0,0,-1,937,582,-2.26626,4.73987
-280,442,0,0,0,0,0,0,0,0,0,-1,944,582,0,0
-273,442,0,0,0,0,0,0,0,0,0,-1,951,582,0,0
-266,442,0,0,0,0,0,0,0,0,0,-1,958,582,0,0
-259,442,0,0,0,0,0,0,0,0,0,-1,965,582,0,0
-252,442,0,0,0,0,0,0,0,0,0,-1,972,582,0,0
-245,442,0,0,0,0,0,0,0,0,0,-1,979,582,0,0
-238,442,0,0,0,0,0,0,0,0,0,-1,986,582,0,0
-231,442,0,0,0,0,0,0,0,0,0,-1,993,582,0,0
-224,442,0,0,0,0,0,0,0,0,0,-1,1000,582,0,0
-217,442,0,0,0,0,0,0,0,0,0,-1,1007,582,0,0
-210,442,0,0,0,0,0,0,0,0,0,-1,1014,582,0,0
-203,442,0,0,0,0,0,0,0,0,0,-1,1021,582,0,0
-196,442,0,0,0,0,0,0,0,0,0,-1,1028,582,0,0
-189,442,0,0,0,0,0,0,0,0,0,-1,1035,582,0,0
-182,442,0,0,0,0,0,0,0,0,0,-1,1042,582,0,0
-175,442,0,0,0,0,0,0,0,0,0,-1,1049,582,0,0
-168,442,0,0,0,0,0,0,0,0,0,-1,1056,582,0,0
-161,442,0,0,0,0,0,0,0,0,0,-1,1063,582,0,0
-154,442,0,0,0,0,0,0,0,0,0,-1,1070,582,0,0
-147,442,0,0,0,0,0,0,0,0,0,-1,1077,582,0,0
-140,442,0,0,0,0,0,0,0,0,0,-1,1084,582,0,0
-133,442,0,0,0,0,0,0,0,0,0,-1,1091,582,0,0
-126,442,0,0,0,0,0,0,0,0,0,-1,1098,582,0,0
-119,442,0,0,0,0,0,0,0,0,0,-1,1105,582,0,0
-112,442,0,0,0,0,0,0,0,0,0,-1,1112,582,0,0
-105,442,0,0,0,0,0,0,0,0,0,-1,1119,582,0,0
-98,442,0,0,0,0,0,0,0,0,0,-1,1126,582,0,0
-91,442,0,0,0,0,0,0,0,0,0,-1,1133,582,0,0
-84,442,0,0,0,0,0,0,0,0,0,-1,1140,582,0,0
-77,442,0,0,0,0,0,0,0,0,0,-1,1147,582,0,0
-70,442,0,0,0,0,0,0,0,0,0,-1,1154,582,0,0
-63,442,0,0,0,0,0,0,0,0,0,-1,1161,582,0,0
-56,442,0,0,0,0,0,0,0,0,0,-1,1168,582,0,0
-49,442,0,0,0,0,0,0,0,0,0,-1,1175,582,0,0
-42,442,0,0,0,0,0,0,0,0,0,-1,1182,582,0,0
-35,442,0,0,0,0,0,0,0,0,0,-1,1189,582,0,0
-28,442,0,0,0,0,0,0,0,0,0,-1,1196,582,0,0
-21,442,0,0,0,0,0,0,0,0,0,-1,1203,582,0,0
-14,442,0,0,0,0,0,0,0,0,0,-1,1210,582,0,0
-7,442,0,0,0,0,0,0,0,0,0,-1,1217,582,0,0
0,442,0,0,0,0,0,0,0,0,0,-1,1224,582,0,0
7,442,0,0,0,0,0,0,0,0,0,-1,1231,582,0,0
14,442,0,0,0,0,0,0,0,0,0,-1,1238,582,0,0
21,442,0,0,0,0,0,0,0,0,0,-1,1245,582,0,0
28,442,0,0,0,0,0,0,0,0,0,-1,1252,582,0,0
35,442,0,0,0,0,0,0,0,0,0,-1,1259,582,0,0
42,442,0,0,0,0,0,0,0,0,0,-1,1266,582,0,0
49,442,0,0,0,0,0,0,0,0,0,-1,1273,582,0,0
56,442,0,0,0,0,0,0,0,0,0,-1,1280,582,0,0
63,442,0,0,0,0,0,0,0,0,0,-1,1287,582,0,0
70,442,0,0,0,0,0,0,0,0,0,-1,1294,582,0,0
77,442,0,0,0,0,0,0,0,0,0,-1,1301,582,0,0
84,442,0,0,0,0,0,0,0,0,0,-1,1308,582,0,0
91,442,0,0,0,0,0,0,0,0,0,-1,1315,582,0,0
98,442,0,0,0,0,0,0,0,0,0,-1,1322,582,0,0
105,442,0,0,0,0,0,0,0,0,0,-1,1329,582,0,0
112,442,0,0,0,0,0,0,0,0,0,-1,1336,582,0,0
119,442,0,0,0,0,0,0,0,0,0,-1,1343,582,0,0
126,442,0,0,0,0,0,0,0,0,0,-1,1350,582,0,0
133,442,0,0,0,0,0,0,0,0,0,-1,1357,582,0,0
140,442,0,0,0,0,0,0,0,0,0,-1,1364,582,0,0
147,442,0,0,0,0,0,0,0,0,0,-1,1371,582,0,0
154,442,0,0,0,0,0,0,0,0,0,-1,1378,582,0,0
161,442,0,0,0,0,0,0,0,0,0,-1,1385,582,0,0
168,442,0,0,0,0,0,0,0,0,0,-1,1392,582,0,0
175,442,0,0,0,0,0,0,0,0,0,-1,1399,582,0,0
182,442,0,0,0,0,0,0,0,0,0,-1,1406,582,0,0
189,442,0,0,0,0,0,0,0,0,0,-1,1413,582,0,0
196,442,0,0,0,0,0,0,0,0,0,-1,1420,582,0,0
203,442,0,0,0,0,0,0,0,0,0,-1,1427,582,0,0
210,442,0,0,0,0,0,0,0,0,0,-1,1434,582,0,0
217,442,0,0,0,0,0,0,0,0,0,-1,1441,582,0,0
224,442,0,0,0,0,0,0,0,0,0,-1,1448,582,0,0
231,442,0,0,0,0,0,0,0,0,0,-1,1455,582,0,0
238,442,0,0,0,0,0,0,0,0,0,-1,1462,582,0,0
245,442,0,0,0,0,0,0,0,0,0,-1,1469,582,0,0
252,442,0,0,0,0,0,0,0,0,0,-1,1476,582,0,0
259,442,0,0,0,0,0,0,0,0,0,-1,1483,582,0,0
266,442,0,0,0,0,0,0,0,0,0,-1,1490,582,0,0
273,442,0,0,0,0,0,0,0,0,0,-1,1497,582,0,0
280,442,0,0,0,0,0,0,0,0,0,-1,1504,582,0,0
287,442,0,0,0,0,0,0,0,0,0,-1,1511,582,0,0
294,442,0,0,0,0,0,0,0,0,0,-1,1518,582,0,0
301,442,0,0,0,0,0,0,0,0,0,-1,1525,582,0,0
308,442,0,0,0,0,0,0,0,0,0,-1,1532,582,0,0
315,442,0,0,0,0,0,0,0,0,0,-1,1539,582,0,0
322,442,0,0,0,0,0,0,0,0,0,-1,1546,582,0,0
329,442,0,0,0,0,0,0,0,0,0,-1,1553,582,0,0
336,442,0,0,0,0,0,0,0,0,0,-1,1560,582,0,0
343,442,0,0,0,0,0,0,0,0,0,-1,1567,582,0,0
350,442,0,0,0,0,0,0,0,0,0,-1,1574,582,0,0
357,442,0,0,0,0,0,0,0,0,0,-1,1581,582,0,0
364,442,0,0,0,0,0,0,0,0,0,-1,1588,582,0,0
371,442,0,0,0,0,0,0,0,0,0,-1,1595,582,0,0
378,442,0,0,0,0,0,0,0,0,0,-1,1602,582,0,0
385,442,0,0,0,0,0,0,0,0,0,-1,1609,582,0,0
392,442,0,0,0,0,0,0,0,0,0,-1,1616,582,0,0
399,442,0,0,0,0,0,0,0,0,0,-1,1623,582,0,0
406,442,17.6321,4.08295,0,0,0,0,0,0,0,-1,1630,582,17.6321,-4.08293
413,442,25.4768,2.74445,0,0,0,0,0,0,0,-1,1637,582,25.4768,-2.74444
420,442,22.7478,1.55011,0,0,0,0,0,0,0,-1,1644,582,22.7478,-1.55009
427,442,23.2969,-0.456787,0,0,0,0,0,0,0,-1,1651,582,23.2968,0.456769
434,442,23.9512,-2.49365,0,0,0,0,0,0,0,-1,1658,582,23.9512,2.49366
441,442,24.8251,-4.43958,0,0,0,0,0,0,0,-1,1665,582,24.8251,4.43956
448,442,4.7749,-5.88562,0,0,0,0,0,0,0,-1,1672,582,4.7749,5.8856
455,442,4.87024,-4.60687,0,0,0,0,0,0,0,-1,1679,582,4.87019,4.60686
462,442,5.02307,-3.72821,0,0,0,0,0,0,0,-1,1686,582,5.02311,3.7282
469,442,5.12976,-2.98834,0,0,0,0,0,0,0,-1,1693,582,5.12971,2.98834
476,442,5.4624,1.76947,0,0,0,0,0,0,0,-1,1700,582,5.46234,-1.76944
483,442,5.98486,1.87042,0,0,0,0,0,0,0,-1,1707,582,5.98492,-1.87045
490,442,5.04407,-2.35834,0,0,0,0,0,0,0,-1,1714,582,5.04411,2.35837
497,442,6.20984,-3.07831,0,0,0,0,0,0,0,-1,1721,582,6.2098,3.07833
504,442,17.3619,-15.1859,0,0,0,0,0,0,0,-1,1728,582,17.3619,15.1859
511,442,17.4116,-14.4897,0.00292781,0.00291596,0.00170326,0.00462516,0.00121861,0.783659,0.00276814,0.0344718,1735,582,17.4116,14.4897
518,442,17.4464,-13.8471,0.00271339,0.00230539,0.00158512,0.00410759,0.000911193,0.721402,0.00249085,0.0114807,1742,582,17.4465,13.8471
525,442,17.3999,-13.3024,0.00239499,0.00206395,0.00143584,0.00367481,0.000784121,0.728012,0.00223484,0.0100441,1749,582,17.3999,13.3025
532,442,17.3734,-12.7345,0.00200939,0.00173217,0.00121245,0.00309112,0.000650437,0.728485,0.00188179,0.0110488,1756,582,17.3734,12.7345
539,442,17.3433,-12.1123,0.00162889,0.00148908,0.0010133,0.00257469,0.00054328,0.750957,0.00156708,0.0124512,1763,582,17.3432,12.1123
546,442,17.3256,-11.5302,0.00127887,0.00133177,0.000831711,0.00213745,0.000473184,0.801294,0.00129635,0.0164999,1770,582,17.3255,11.5302
553,442,17.2889,-10.9462,0.000928727,0.00117102,0.000660158,0.00172106,0.000378693,0.876146,0.00104429,0.0176194,1777,582,17.2889,10.9461
560,442,17.3127,-10.3615,0.000610013,0.00111967,0.00054013,0.00146207,0.000267617,1.00581,0.000898887,0.0146616,1784,582,17.3128,10.3615
567,442,17.2772,-9.77264,0.000442223,0.00119279,0.00053932,0.00147455,0.000160464,1.08936,0.00093415,0.0102807,1791,582,17.2773,9.77264
574,442,17.267,-9.1651,0.000332021,0.00130631,0.000572813,0.00157111,6.72195e-05,1.13777,0.00102574,0.012235,1798,582,17.2669,9.1651
581,442,17.299,-8.48181,0.000278168,0.00146558,0.000647193,0.00175014,-6.38852e-06,1.15656,0.0011689,0.0255826,1805,582,17.2989,8.4818
588,442,17.387,-7.77985,0,0,0,0,0,0,0,-1,1812,582,17.387,7.77985
595,442,16.27,-6.47083,0,0,0,0,0,0,0,-1,1819,582,16.27,6.47082
602,442,16.2213,-4.49225,0,0,0,0,0,0,0,-1,1826,582,16.2213,4.49223
609,442,12.761,2.97223,0,0,0,0,0,0,0,-1,1833,582,12.761,-2.97221
616,442,9.78345,-0.103394,0,0,0,0,0,0,0,-1,1840,582,9.78341,0.103424
623,442,9.23828,0.326721,0,0,0,0,0,0,0,-1,1847,582,9.23829,-0.326727
630,442,7.74304,2.3924,0,0,0,0,0,0,0,-1,1854,582,7.7431,-2.39238
637,442,5.87805,1.84027,0,0,0,0,0,0,0,-1,1861,582,5.87807,-1.84025
644,442,0,0,0,0,0,0,0,0,0,-1,1868,582,0,0
651,442,0,0,0,0,0,0,0,0,0,-1,1875,582,0,0
658,442,0,0,0,0,0,0,0,0,0,-1,1882,582,0,0
665,442,0,0,0,0,0,0,0,0,0,-1,1889,582,0,0
672,442,0,0,0,0,0,0,0,0,0,-1,1896,582,0,0
679,442,0,0,0,0,0,0,0,0,0,-1,1903,582,0,0
686,442,0,0,0,0,0,0,0,0,0,-1,1910,582,0,0
693,442,0,0,0,0,0,0,0,0,0,-1,1917,582,0,0
700,442,0,0,0,0,0,0,0,0,0,-1,1924,582,0,0
707,442,0,0,0,0,0,0,0,0,0,-1,1931,582,0,0
714,442,0,0,0,0,0,0,0,0,0,-1,1938,582,0,0
721,442,0,0,0,0,0,0,0,0,0,-1,1945,582,0,0
728,442,0,0,0,0,0,0,0,0,0,-1,1952,582,0,0
735,442,0,0,0,0,0,0,0,0,0,-1,1959,582,0,0
742,442,0,0,0,0,0,0,0,0,0,-1,1966,582,0,0
749,442,0,0,0,0,0,0,0,0,0,-1,1973,582,0,0
756,442,0,0,0,0,0,0,0,0,0,-1,1980,582,0,0
763,442,0,0,0,0,0,0,0,0,0,-1,1987,582,0,0
770,442,0,0,0,0,0,0,0,0,0,-1,1994,582,0,0
777,442,0,0,0,0,0,0,0,0,0,-1,2001,582,0,0
784,442,0,0,0,0,0,0,0,0,0,-1,2008,582,0,0
791,442,0,0,0,0,0,0,0,0,0,-1,2015,582,0,0
798,442,0,0,0,0,0,0,0,0,0,-1,2022,582,0,0
805,442,0,0,0,0,0,0,0,0,0,-1,2029,582,0,0
812,442,0,0,0,0,0,0,0,0,0,-1,2036,582,0,0
-700,435,0,0,0,0,0,0,0,0,0,-1,524,589,0,0
-693,435,0,0,0,0,0,0,0,0,0,-1,531,589,0,0
-686,435,0,0,0,0,0,0,0,0,0,-1,538,589,0,0
-679,435,0,0,0,0,0,0,0,0,0,-1,545,589,0,0
-672,435,0,0,0,0,0,0,0,0,0,-1,552,589,0,0
-665,435,0,0,0,0,0,0,0,0,0,-1,559,589,0,0
-658,435,0,0,0,0,0,0,0,0,0,-1,566,589,0,0
-651,435,0,0,0,0,0,0,0,0,0,-1,573,589,0,0
-644,435,0,0,0,0,0,0,0,0,0,-1,580,589,0,0
-637,435,0,0,0,0,0,0,0,0,0,-1,587,589,0,0
-630,435,0,0,0,0,0,0,0,0,0,-1,594,589,0,0
-623,435,0,0,0,0,0,0,0,0,0,-1,601,589,0,0
-616,435,0,0,0,0,0,0,0,0,0,-1,608,589,0,0
-609,435,0,0,0,0,0,0,0,0,0,-1,615,589,0,0
-602,435,0,0,0,0,0,0,0,0,0,-1,622,589,0,0
-595,435,0,0,0,0,0,0,0,0,0,-1,629,589,0,0
-588,435,0,0,0,0,0,0,0,0,0,-1,636,589,0,0
-581,435,0,0,0,0,0,0,0,0,0,-1,643,589,0,0
-574,435,0,0,0,0,0,0,0,0,0,-1,650,589,0,0
-567,435,0,0,0,0,0,0,0,0,0,-1,657,589,0,0
-560,435,0,0,0,0,0,0,0,0,0,-1,664,589,0,0
-553,435,0,0,0,0,0,0,0,0,0,-1,671,589,0,0
-546,435,0,0,0,0,0,0,0,0,0,-1,678,589,0,0
-539,435,0,0,0,0,0,0,0,0,0,-1,685,589,0,0
-532,435,0,0,0,0,0,0,0,0,0,-1,692,589,0,0
-525,435,-10.0776,10.0547,0,0,0,0,0,0,0,-1,699,589,-10.0776,-10.0547
-518,435,-1.83093,-5.82367,0,0,0,0,0,0,0,-1,706,589,-1.83093,5.8237
-511,435,-2.45154,-5.33118,0,0,0,0,0,0,0,-1,713,589,-2.45151,5.33115
-504,435,-3.07208,-4.83862,0,0,0,0,0,0,0,-1,720,589,-3.0721,4.8386
-497,435,-6.31012,-5.84698,0,0,0,0,0,0,0,-1,727,589,-6.31012,5.84697
-490,435,-5.81903,-0.458679,0,0,0,0,0,0,0,-1,734,589,-5.81902,0.458684
-483,435,-6.96503,-3.01624,0,0,0,0,0,0,0,-1,741,589,-6.96505,3.01623
-476,435,-7.81488,-7.92279,0,0,0,0,0,0,0,-1,748,589,-7.81485,7.92277
-469,435,-7.5296,-8.5882,0.000379175,0.00868871,-0.00487111,0.0109363,-0.00186838,-1.1385,0.00798682,0.0371893,755,589,-7.52958,8.58821
-462,435,-7.38245,-9.48175,0.000298486,0.00715899,-0.00401069,0.00900626,-0.00154878,-1.13917,0.00658146,0.0243374,762,589,-7.38246,9.48172
-455,435,-7.53674,-10.1172,0.000185887,0.00594046,-0.00316832,0.00734301,-0.00121666,-1.15405,0.00534724,0.0228736,769,589,-7.53675,10.1172
-448,435,-7.52216,-10.7347,9.99105e-05,0.00461427,-0.00236514,0.00562646,-0.000912272,-1.16642,0.00408913,0.0136612,776,589,-7.52214,10.7348
-441,435,-7.53058,-11.2938,0.000100353,0.00339132,-0.00166756,0.00408857,-0.000596891,-1.17477,0.00294491,0.0114056,783,589,-7.53058,11.2938
-434,435,-7.55304,-11.8337,0.000184308,0.00239983,-0.00111627,0.0028647,-0.000280567,-1.17619,0.00200986,0.0122031,790,589,-7.55306,11.8337
-427,435,-7.58368,-12.436,0.000357763,0.0014721,-0.000666837,0.00178391,4.59626e-05,-1.13342,0.00117425,0.00979806,797,589,-7.58369,12.436
-420,435,-7.59039,-12.994,0.000657943,0.000678674,-0.00035529,0.00102375,0.000312867,-0.799981,0.000605769,0.0101978,804,589,-7.59036,12.994
-413,435,-7.61505,-13.5671,0.000923163,-0.00019567,3.67251e-05,0.000924368,-0.000196874,0.0327774,0.000691279,0.0115169,811,589,-7.61503,13.5671
-406,435,-7.63507,-14.1332,0.00130452,-0.000885289,0.000311439,0.00134795,-0.000928721,0.138562,0.00132185,0.0116113,818,589,-7.63504,14.1332
-399,435,-7.64618,-14.6722,0.00188275,-0.0014958,0.000473474,0.00194785,-0.0015609,0.136635,0.00202988,0.00916559,825,589,-7.64618,14.6723
-392,435,-7.68262,-15.2332,0.00263429,-0.00199313,0.000562406,0.00270166,-0.00206051,0.119225,0.00275773,0.0104936,832,589,-7.68264,15.2332
-385,435,-7.69476,-15.7816,0.00344371,-0.00233373,0.000587494,0.00350285,-0.00239287,0.100319,0.00342394,0.0194922,839,589,-7.69478,15.7816
-378,435,-7.6972,-16.2205,0.00419402,-0.00281703,0.000806666,0.00428564,-0.00290864,0.113088,0.00417891,0.041519,846,589,-7.69722,16.2204
-371,435,-7.59564,-16.939,0,0,0,0,0,0,0,-1,853,589,-7.59565,16.939
-364,435,-5.62848,-11.5937,0,0,0,0,0,0,0,-1,860,589,-5.62847,11.5937
-357,435,-5.57343,-10.9666,0,0,0,0,0,0,0,-1,867,589,-5.57342,10.9666
-350,435,-0.86676,-3.69836,0,0,0,0,0,0,0,-1,874,589,-0.866784,3.69834
-343,435,-1.60706,-2.36835,0,0,0,0,0,0,0,-1,881,589,-1.60706,2.36838
-336,435,-2.07263,-1.94012,0,0,0,0,0,0,0,-1,888,589,-2.07265,1.94014
-329,435,-2.55963,-1.5517,0,0,0,0,0,0,0,-1,895,589,-2.5596,1.55168
-322,435,-3.08545,-1.55255,0,0,0,0,0,0,0,-1,902,589,-3.08544,1.55254
-315,435,-0.404297,-2.63763,0,0,0,0,0,0,0,-1,909,589,-0.404276,2.63761
-308,435,-1.70056,-1.90369,0,0,0,0,0,0,0,-1,916,589,-1.70056,1.90367
-301,435,-1.25232,-2.05511,0,0,0,0,0,0,0,-1,923,589,-1.25234,2.05514
-294,435,-1.79974,-1.97321,0,0,0,0,0,0,0,-1,930,589,-1.79973,1.97322
-287,435,0,0,0,0,0,0,0,0,0,-1,937,589,0,0
-280,435,0,0,0,0,0,0,0,0,0,-1,944,589,0,0
-273,435,0,0,0,0,0,0,0,0,0,-1,951,589,0,0
-266,435,0,0,0,0,0,0,0,0,0,-1,958,589,0,0
-259,435,0,0,0,0,0,0,0,0,0,-1,965,589,0,0
-252,435,0,0,0,0,0,0,0,0,0,-1,972,589,0,0
-245,435,0,0,0,0,0,0,0,0,0,-1,979,589,0,0
-238,435,0,0,0,0,0,0,0,0,0,-1,986,589,0,0
-231,435,0,0,0,0,0,0,0,0,0,-1,993,589,0,0
-224,435,0,0,0,0,0,0,0,0,0,-1,1000,589,0,0
-217,435,0,0,0,0,0,0,0,0,0,-1,1007,589,0,0
-210,435,0,0,0,0,0,0,0,0,0,-1,1014,589,0,0
-203,435,0,0,0,0,0,0,0,0,0,-1,1021,589,0,0
-196,435,0,0,0,0,0,0,0,0,0,-1,1028,589,0,0
-189,435,0,0,0,0,0,0,0,0,0,-1,1035,589,0,0
-182,435,0,0,0,0,0,0,0,0,0,-1,1042,589,0,0
-175,435,0,0,0,0,0,0,0,0,0,-1,1049,589,0,0
-168,435,0,0,0,0,0,0,0,0,0,-1,1056,589,0,0
-161,435,0,0,0,0,0,0,0,0,0,-1,1063,589,0,0
-154,435,0,0,0,0,0,0,0,0,0,-1,1070,589,0,0
-147,435,0,0,0,0,0,0,0,0,0,-1,1077,589,0,0
-140,435,0,0,0,0,0,0,0,0,0,-1,1084,589,0,0
-133,435,0,0,0,0,0,0,0,0,0,-1,1091,589,0,0
-126,435,0,0,0,0,0,0,0,0,0,-1,1098,589,0,0
-119,435,0,0,0,0,0,0,0,0,0,-1,1105,589,0,0
-112,435,0,0,0,0,0,0,0,0,0,-1,1112,589,0,0
-105,435,0,0,0,0,0,0,0,0,0,-1,1119,589,0,0
-98,435,0,0,0,0,0,0,0,0,0,-1,1126,589,0,0
-91,435,0,0,0,0,0,0,0,0,0,-1,1133,589,0,0
-84,435,0,0,0,0,0,0,0,0,0,-1,1140,589,0,0
-77,435,0,0,0,0,0,0,0,0,0,-1,1147,589,0,0
-70,435,0,0,0,0,0,0,0,0,0,-1,1154,589,0,0
-63,435,0,0,0,0,0,0,0,0,0,-1,1161,589,0,0
-56,435,0,0,0,0,0,0,0,0,0,-1,1168,589,0,0
-49,435,0,0,0,0,0,0,0,0,0,-1,1175,589,0,0
-42,435,0,0,0,0,0,0,0,0,0,-1,1182,589,0,0
-35,435,0,0,0,0,0,0,0,0,0,-1,1189,589,0,0
-28,435,0,0,0,0,0,0,0,0,0,-1,1196,589,0,0
-21,435,0,0,0,0,0,0,0,0,0,-1,1203,589,0,0
-14,435,0,0,0,0,0,0,0,0,0,-1,1210,589,0,0
-7,435,0,0,0,0,0,0,0,0,0,-1,1217,589,0,0
0,435,0,0,0,0,0,0,0,0,0,-1,1224,589,0,0
7,435,0,0,0,0,0,0,0,0,0,-1,1231,589,0,0
14,435,0,0,0,0,0,0,0,0,0,-1,1238,589,0,0
21,435,0,0,0,0,0,0,0,0,0,-1,1245,589,0,0
28,435,0,0,0,0,0,0,0,0,0,-1,1252,589,0,0
35,435,0,0,0,0,0,0,0,0,0,-1,1259,589,0,0
42,435,0,0,0,0,0,0,0,0,0,-1,1266,589,0,0
49,435,0,0,0,0,0,0,0,0,0,-1,1273,589,0,0
56,435,0,0,0,0,0,0,0,0,0,-1,1280,589,0,0
63,435,0,0,0,0,0,0,0,0,0,-1,1287,589,0,0
70,435,0,0,0,0,0,0,0,0,0,-1,1294,589,0,0
77,435,0,0,0,0,0,0,0,0,0,-1,1301,589,0,0
84,435,0,0,0,0,0,0,0,0,0,-1,1308,589,0,0
91,435,0,0,0,0,0,0,0,0,0,-1,1315,589,0,0
98,435,0,0,0,0,0,0,0,0,0,-1,1322,589,0,0
105,435,0,0,0,0,0,0,0,0,0,-1,1329,589,0,0
112,435,0,0,0,0,0,0,0,0,0,-1,1336,589,0,0
119,435,0,0,0,0,0,0,0,0,0,-1,1343,589,0,0
126,435,0,0,0,0,0,0,0,0,0,-1,1350,589,0,0
133,435,0,0,0,0,0,0,0,0,0,-1,1357,589,0,0
140,435,0,0,0,0,0,0,0,0,0,-1,1364,589,0,0
147,435,0,0,0,0,0,0,0,0,0,-1,1371,589,0,0
154,435,0,0,0,0,0,0,0,0,0,-1,1378,589,0,0
161,435,0,0,0,0,0,0,0,0,0,-1,1385,589,0,0
168,435,0,0,0,0,0,0,0,0,0,-1,1392,589,0,0
175,435,0,0,0,0,0,0,0,0,0,-1,1399,589,0,0
182,435,0,0,0,0,0,0,0,0,0,-1,1406,589,0,0
189,435,0,0,0,0,0,0,0,0,0,-1,1413,589,0,0
196,435,0,0,0,0,0,0,0,0,0,-1,1420,589,0,0
203,435,0,0,0,0,0,0,0,0,0,-1,1427,589,0,0
210,435,0,0,0,0,0,0,0,0,0,-1,1434,589,0,0
217,435,0,0,0,0,0,0,0,0,0,-1,1441,589,0,0
224,435,0,0,0,0,0,0,0,0,0,-1,1448,589,0,0
231,435,0,0,0,0,0,0,0,0,0,-1,1455,589,0,0
238,435,0,0,0,0,0,0,0,0,0,-1,1462,589,0,0
245,435,0,0,0,0,0,0,0,0,0,-1,1469,589,0,0
252,435,0,0,0,0,0,0,0,0,0,-1,1476,589,0,0
259,435,0,0,0,0,0,0,0,0,0,-1,1483,589,0,0
266,435,0,0,0,0,0,0,0,0,0,-1,1490,589,0,0
273,435,0,0,0,0,0,0,0,0,0,-1,1497,589,0,0
280,435,0,0,0,0,0,0,0,0,0,-1,1504,589,0,0
287,435,0,0,0,0,0,0,0,0,0,-1,1511,589,0,0
294,435,0,0,0,0,0,0,0,0,0,-1,1518,589,0,0
301,435,0,0,0,0,0,0,0,0,0,-1,1525,589,0,0
308,435,0,0,0,0,0,0,0,0,0,-1,1532,589,0,0
315,435,0,0,0,0,0,0,0,0,0,-1,1539,589,0,0
322,435,0,0,0,0,0,0,0,0,0,-1,1546,589,0,0
329,435,0,0,0,0,0,0,0,0,0,-1,1553,589,0,0
336,435,0,0,0,0,0,0,0,0,0,-1,1560,589,0,0
343,435,0,0,0,0,0,0,0,0,0,-1,1567,589,0,0
350,435,0,0,0,0,0,0,0,0,0,-1,1574,589,0,0
357,435,0,0,0,0,0,0,0,0,0,-1,1581,589,0,0
364,435,0,0,0,0,0,0,0,0,0,-1,1588,589,0,0
371,435,0,0,0,0,0,0,0,0,0,-1,1595,589,0,0
378,435,0,0,0,0,0,0,0,0,0,-1,1602,589,0,0
385,435,0,0,0,0,0,0,0,0,0,-1,1609,589,0,0
392,435,0,0,0,0,0,0,0,0,0,-1,1616,589,0,0
399,435,0,0,0,0,0,0,0,0,0,-1,1623,589,0,0
406,435,0,0,0,0,0,0,0,0,0,-1,1630,589,0,0
413,435,20.4565,3.49835,0,0,0,0,0,0,0,-1,1637,589,20.4565,-3.49836
420,435,21.4015,1.49609,0,0,0,0,0,0,0,-1,1644,589,21.4015,-1.49609
427,435,22.0464,-0.373962,0,0,0,0,0,0,0,-1,1651,589,22.0464,0.373972
434,435,22.1863,-1.54407,0,0,0,0,0,0,0,-1,1658,589,22.1862,1.54405
441,435,22.3992,-2.38287,0,0,0,0,0,0,0,-1,1665,589,22.3992,2.38289
448,435,7.4585,-0.00292969,0,0,0,0,0,0,0,-1,1672,589,7.45848,0.00294131
455,435,5.49915,-5.047,0,0,0,0,0,0,0,-1,1679,589,5.49914,5.04703
462,435,5.60669,-4.71466,0,0,0,0,0,0,0,-1,1686,589,5.60675,4.71469
469,435,5.87708,1.22351,0,0,0,0,0,0,0,-1,1693,589,5.87703,-1.22351
476,435,6.14136,1.37714,0,0,0,0,0,0,0,-1,1700,589,6.14138,-1.37712
483,435,6.49243,1.36169,0,0,0,0,0,0,0,-1,1707,589,6.49242,-1.36171
490,435,4.38391,-1.36218,0,0,0,0,0,0,0,-1,1714,589,4.38389,1.3622
497,435,7.23499,-3.64551,0,0,0,0,0,0,0,-1,1721,589,7.23495,3.64551
504,435,7.31189,-3.75909,0,0,0,0,0,0,0,-1,1728,589,7.31184,3.75911
511,435,17.9615,-14.5304,0,0,0,0,0,0,0,-1,1735,589,17.9615,14.5304
518,435,18.0356,-13.8672,0.00354912,0.00270992,0.0018851,0.00506075,0.00119829,0.675891,0.0030538,0.0274489,1742,589,18.0357,13.8672
525,435,17.9918,-13.2764,0.00316864,0.00241933,0.00172282,0.00455707,0.0010309,0.678332,0.00275937,0.0122361,1749,589,17.9919,13.2764
532,435,17.974,-12.6702,0.00271475,0.00197781,0.00146318,0.00385514,0.000837418,0.662048,0.00234141,0.0138617,1756,589,17.974,12.6702
539,435,17.96,-12.0595,0.00228975,0.00170468,0.00125757,0.00328837,0.000706071,0.671121,0.0019989,0.0160364,1763,589,17.96,12.0595
546,435,17.9235,-11.5031,0.00189314,0.001494,0.00107006,0.00278209,0.000605054,0.693204,0.00168955,0.0159285,1770,589,17.9235,11.503
553,435,17.8998,-10.9542,0.00150035,0.00129168,0.000889671,0.00229178,0.000500246,0.727028,0.00139141,0.0112064,1777,589,17.8997,10.9541
560,435,17.8756,-10.3571,0.00112486,0.00122065,0.000756002,0.00193027,0.000415236,0.817031,0.00117319,0.00868805,1784,589,17.8756,10.3571
567,435,17.8705,-9.73456,0.000880162,0.00129139,0.0007392,0.00185304,0.000318512,0.921048,0.00114407,0.00828103,1791,589,17.8705,9.73453
574,435,17.8505,-9.13672,0.000732944,0.00144172,0.000790754,0.00195387,0.000220797,0.996061,0.00123557,0.0103788,1798,589,17.8505,9.13669
581,435,17.8199,-8.55212,0.000702066,0.00169185,0.000921516,0.00224296,0.000150961,1.03182,0.00144761,0.0175359,1805,589,17.82,8.55214
588,435,17.7944,-7.99908,0.00101182,0.00212539,0.0012561,0.00294258,0.000194629,0.994017,0.00190017,0.0418111,1812,589,17.7944,7.99911
595,435,17.8313,-7.16772,0,0,0,0,0,0,0,-1,1819,589,17.8312,7.16771
602,435,16.8671,-6.39026,0,0,0,0,0,0,0,-1,1826,589,16.867,6.39024
609,435,15.2611,-3.42242,0,0,0,0,0,0,0,-1,1833,589,15.2611,3.42242
616,435,5.05151,-2.75269,0,0,0,0,0,0,0,-1,1840,589,5.05157,2.7527
623,435,11.7588,3.9704,0,0,0,0,0,0,0,-1,1847,589,11.7587,-3.97043
630,435,4.72742,-0.87561,0,0,0,0,0,0,0,-1,1854,589,4.7274,0.875636
637,435,5.05286,1.48792,0,0,0,0,0,0,0,-1,1861,589,5.05291,-1.48792
644,435,0,0,0,0,0,0,0,0,0,-1,1868,589,0,0
651,435,0,0,0,0,0,0,0,0,0,-1,1875,589,0,0
658,435,0,0,0,0,0,0,0,0,0,-1,1882,589,0,0
665,435,0,0,0,0,0,0,0,0,0,-1,1889,589,0,0
672,435,0,0,0,0,0,0,0,0,0,-1,1896,589,0,0
679,435,0,0,0,0,0,0,0,0,0,-1,1903,589,0,0
686,435,0,0,0,0,0,0,0,0,0,-1,1910,589,0,0
693,435,0,0,0,0,0,0,0,0,0,-1,1917,589,0,0
700,435,0,0,0,0,0,0,0,0,0,-1,1924,589,0,0
707,435,0,0,0,0,0,0,0,0,0,-1,1931,589,0,0
714,435,0,0,0,0,0,0,0,0,0,-1,1938,589,0,0
721,435,0,0,0,0,0,0,0,0,0,-1,1945,589,0,0
728,435,0,0,0,0,0,0,0,0,0,-1,1952,589,0,0
735,435,0,0,0,0,0,0,0,0,0,-1,1959,589,0,0
742,435,0,0,0,0,0,0,0,0,0,-1,1966,589,0,0
749,435,0,0,0,0,0,0,0,0,0,-1,1973,589,0,0
756,435,0,0,0,0,0,0,0,0,0,-1,1980,589,0,0
763,435,0,0,0,0,0,0,0,0,0,-1,1987,589,0,0
770,435,0,0,0,0,0,0,0,0,0,-1,1994,589,0,0
777,435,0,0,0,0,0,0,0,0,0,-1,2001,589,0,0
784,435,0,0,0,0,0,0,0,0,0,-1,2008,589,0,0
791,435,0,0,0,0,0,0,0,0,0,-1,2015,589,0,0
798,435,0,0,0,0,0,0,0,0,0,-1,2022,589,0,0
805,435,0,0,0,0,0,0,0,0,0,-1,2029,589,0,0
812,435,0,0,0,0,0,0,0,0,0,-1,2036,589,0,0
-700,428,0,0,0,0,0,0,0,0,0,-1,524,596,0,0
-693,428,0,0,0,0,0,0,0,0,0,-1,531,596,0,0
-686,428,0,0,0,0,0,0,0,0,0,-1,538,596,0,0
-679,428,0,0,0,0,0,0,0,0,0,-1,545,596,0,0
-672,428,0,0,0,0,0,0,0,0,0,-1,552,596,0,0
-665,428,0,0,0,0,0,0,0,0,0,-1,559,596,0,0
-658,428,0,0,0,0,0,0,0,0,0,-1,566,596,0,0
-651,428,0,0,0,0,0,0,0,0,0,-1,573,596,0,0
-644,428,0,0,0,0,0,0,0,0,0,-1,580,596,0,0
-637,428,0,0,0,0,0,0,0,0,0,-1,587,596,0,0
-630,428,0,0,0,0,0,0,0,0,0,-1,594,596,0,0
-623,428,0,0,0,0,0,0,0,0,0,-1,601,596,0,0
-616,428,0,0,0,0,0,0,0,0,0,-1,608,596,0,0
-609,428,0,0,0,0,0,0,0,0,0,-1,615,596,0,0
-602,428,0,0,0,0,0,0,0,0,0,-1,622,596,0,0
-595,428,0,0,0,0,0,0,0,0,0,-1,629,596,0,0
-588,428,0,0,0,0,0,0,0,0,0,-1,636,596,0,0
-581,428,0,0,0,0,0,0,0,0,0,-1,643,596,0,0
-574,428,0,0,0,0,0,0,0,0,0,-1,650,596,0,0
-567,428,0,0,0,0,0,0,0,0,0,-1,657,596,0,0
-560,428,0,0,0,0,0,0,0,0,0,-1,664,596,0,0
-553,428,0,0,0,0,0,0,0,0,0,-1,671,596,0,0
-546,428,0,0,0,0,0,0,0,0,0,-1,678,596,0,0
-539,428,0,0,0,0,0,0,0,0,0,-1,685,596,0,0
-532,428,0,0,0,0,0,0,0,0,0,-1,692,596,0,0
-525,428,-9.59918,7.58618,0,0,0,0,0,0,0,-1,699,596,-9.59918,-7.5862
-518,428,-2.92285,-4.81854,0,0,0,0,0,0,0,-1,706,596,-2.92285,4.81856
-511,428,-3.68811,-4.79474,0,0,0,0,0,0,0,-1,713,596,-3.68811,4.79474
-504,428,-4.45337,-4.77094,0,0,0,0,0,0,0,-1,720,596,-4.45337,4.77092
-497,428,-2.98108,-3.77502,0,0,0,0,0,0,0,-1,727,596,-2.98106,3.77505
-490,428,-6.39044,-2.80481,0,0,0,0,0,0,0,-1,734,596,-6.39047,2.80483
-483,428,-8.01685,-6.95386,0,0,0,0,0,0,0,-1,741,596,-8.01687,6.95387
-476,428,-8.01978,-8.21356,0,0,0,0,0,0,0,-1,748,596,-8.01978,8.21358
-469,428,-7.92712,-8.83087,0.000438994,0.00695609,-0.00391402,0.00879045,-0.00139537,-1.13253,0.00637652,0.0255197,755,596,-7.9271,8.83087
-462,428,-8.01801,-9.38434,0.000432154,0.00559751,-0.00322506,0.00714657,-0.00111691,-1.12302,0.005177,0.0262383,762,596,-8.01799,9.38432
-455,428,-8.09131,-10.0693,0.000398867,0.004481,-0.00252729,0.00568849,-0.00080863,-1.12508,0.00408862,0.0152569,769,596,-8.09129,10.0693
-448,428,-8.10669,-10.6705,0.000398542,0.00333097,-0.00186714,0.00423878,-0.00050927,-1.11825,0.00301,0.0117814,776,596,-8.1067,10.6705
-441,428,-8.10272,-11.2518,0.000422758,0.00220525,-0.00124537,0.00284542,-0.000217419,-1.09597,0.00197342,0.013486,783,596,-8.10274,11.2518
-434,428,-8.1059,-11.8544,0.000512523,0.00131211,-0.000732829,0.00174711,7.75278e-05,-1.03511,0.00113977,0.00999336,790,596,-8.10592,11.8544
-427,428,-8.12671,-12.4229,0.000683871,0.000444244,-0.000303123,0.00089,0.000238115,-0.597189,0.000532031,0.0107546,797,596,-8.12674,12.4229
-420,428,-8.14124,-12.9603,0.000961931,-0.000301234,1.39187e-06,0.000961933,-0.000301236,0.00110189,0.000761818,0.0118869,804,596,-8.14126,12.9603
-413,428,-8.15918,-13.4987,0.00122264,-0.00109031,0.000352397,0.00127514,-0.00114281,0.147889,0.0013967,0.0145676,811,596,-8.15916,13.4987
-406,428,-8.18231,-14.0596,0.00157391,-0.00177379,0.000615483,0.00168348,-0.00188336,0.17618,0.0020604,0.016686,818,596,-8.1823,14.0596
-399,428,-8.18921,-14.6271,0.00213557,-0.00238757,0.000741053,0.00225388,-0.00250589,0.158323,0.00274934,0.0149711,825,596,-8.18918,14.6271
-392,428,-8.1944,-15.225,0.00289655,-0.00283361,0.000785587,0.0030023,-0.00293936,0.133808,0.00343048,0.0256799,832,596,-8.19441,15.225
-385,428,-8.23645,-15.7687,0,0,0,0,0,0,0,-1,839,596,-8.23646,15.7687
-378,428,-8.36688,-16.1436,0,0,0,0,0,0,0,-1,846,596,-8.36686,16.1435
-371,428,-5.96155,-11.0703,0,0,0,0,0,0,0,-1,853,596,-5.96154,11.0702
-364,428,-6.33643,-10.7223,0,0,0,0,0,0,0,-1,860,596,-6.33645,10.7223
-357,428,-3.20996,-4.70966,0,0,0,0,0,0,0,-1,867,596,-3.20997,4.70965
-350,428,-1.62793,-3.94055,0,0,0,0,0,0,0,-1,874,596,-1.62794,3.94055
-343,428,-0.0567017,-4.80994,0,0,0,0,0,0,0,-1,881,596,-0.0567096,4.80996
-336,428,-3.29175,-1.39569,0,0,0,0,0,0,0,-1,888,596,-3.29172,1.39568
-329,428,-3.71564,-0.791321,0,0,0,0,0,0,0,-1,895,596,-3.71564,0.791299
-322,428,-5.52863,-3.59827,0,0,0,0,0,0,0,-1,902,596,-5.52865,3.59829
-315,428,-4.57172,-1.22052,0,0,0,0,0,0,0,-1,909,596,-4.57171,1.22052
-308,428,-5.94324,-0.810791,0,0,0,0,0,0,0,-1,916,596,-5.94321,0.810803
-301,428,0,0,0,0,0,0,0,0,0,-1,923,596,0,0
-294,428,0,0,0,0,0,0,0,0,0,-1,930,596,0,0
-287,428,0,0,0,0,0,0,0,0,0,-1,937,596,0,0
-280,428,0,0,0,0,0,0,0,0,0,-1,944,596,0,0
-273,428,0,0,0,0,0,0,0,0,0,-1,951,596,0,0
-266,428,0,0,0,0,0,0,0,0,0,-1,958,596,0,0
-259,428,0,0,0,0,0,0,0,0,0,-1,965,596,0,0
-252,428,0,0,0,0,0,0,0,0,0,-1,972,596,0,0
-245,428,0,0,0,0,0,0,0,0,0,-1,979,596,0,0
-238,428,0,0,0,0,0,0,0,0,0,-1,986,596,0,0
-231,428,0,0,0,0,0,0,0,0,0,-1,993,596,0,0
-224,428,0,0,0,0,0,0,0,0,0,-1,1000,596,0,0
-217,428,0,0,0,0,0,0,0,0,0,-1,1007,596,0,0
-210,428,0,0,0,0,0,0,0,0,0,-1,1014,596,0,0
-203,428,0,0,0,0,0,0,0,0,0,-1,1021,596,0,0
-196,428,0,0,0,0,0,0,0,0,0,-1,1028,596,0,0
-189,428,0,0,0,0,0,0,0,0,0,-1,1035,596,0,0
-182,428,0,0,0,0,0,0,0,0,0,-1,1042,596,0,0
-175,428,0,0,0,0,0,0,0,0,0,-1,1049,596,0,0
-168,428,0,0,0,0,0,0,0,0,0,-1,1056,596,0,0
-161,428,0,0,0,0,0,0,0,0,0,-1,1063,596,0,0
-154,428,0,0,0,0,0,0,0,0,0,-1,1070,596,0,0
-147,428,0,0,0,0,0,0,0,0,0,-1,1077,596,0,0
-140,428,0,0,0,0,0,0,0,0,0,-1,1084,596,0,0
-133,428,0,0,0,0,0,0,0,0,0,-1,1091,596,0,0
-126,428,0,0,0,0,0,0,0,0,0,-1,1098,596,0,0
-119,428,0,0,0,0,0,0,0,0,0,-1,1105,596,0,0
-112,428,0,0,0,0,0,0,0,0,0,-1,1112,596,0,0
-105,428,0,0,0,0,0,0,0,0,0,-1,1119,596,0,0
-98,428,0,0,0,0,0,0,0,0,0,-1,1126,596,0,0
-91,428,0,0,0,0,0,0,0,0,0,-1,1133,596,0,0
-84,428,0,0,0,0,0,0,0,0,0,-1,1140,596,0,0
-77,428,0,0,0,0,0,0,0,0,0,-1,1147,596,0,0
-70,428,0,0,0,0,0,0,0,0,0,-1,1154,596,0,0
-63,428,0,0,0,0,0,0,0,0,0,-1,1161,596,0,0
-56,428,0,0,0,0,0,0,0,0,0,-1,1168,596,0,0
-49,428,0,0,0,0,0,0,0,0,0,-1,1175,596,0,0
-42,428,0,0,0,0,0,0,0,0,0,-1,1182,596,0,0
-35,428,0,0,0,0,0,0,0,0,0,-1,1189,596,0,0
-28,428,0,0,0,0,0,0,0,0,0,-1,1196,596,0,0
-21,428,0,0,0,0,0,0,0,0,0,-1,1203,596,0,0
-14,428,0,0,0,0,0,0,0,0,0,-1,1210,596,0,0
-7,428,0,0,0,0,0,0,0,0,0,-1,1217,596,0,0
0,428,0,0,0,0,0,0,0,0,0,-1,1224,596,0,0
7,428,0,0,0,0,0,0,0,0,0,-1,1231,596,0,0
14,428,0,0,0,0,0,0,0,0,0,-1,1238,596,0,0
21,428,0,0,0,0,0,0,0,0,0,-1,1245,596,0,0
28,428,0,0,0,0,0,0,0,0,0,-1,1252,596,0,0
35,428,0,0,0,0,0,0,0,0,0,-1,1259,596,0,0
42,428,0,0,0,0,0,0,0,0,0,-1,1266,596,0,0
49,428,0,0,0,0,0,0,0,0,0,-1,1273,596,0,0
56,428,0,0,0,0,0,0,0,0,0,-1,1280,596,0,0
63,428,0,0,0,0,0,0,0,0,0,-1,1287,596,0,0
70,428,0,0,0,0,0,0,0,0,0,-1,1294,596,0,0
77,428,0,0,0,0,0,0,0,0,0,-1,1301,596,0,0
84,428,0,0,0,0,0,0,0,0,0,-1,1308,596,0,0
91,428,0,0,0,0,0,0,0,0,0,-1,1315,596,0,0
98,428,0,0,0,0,0,0,0,0,0,-1,1322,596,0,0
105,428,0,0,0,0,0,0,0,0,0,-1,1329,596,0,0
112,428,0,0,0,0,0,0,0,0,0,-1,1336,596,0,0
119,428,0,0,0,0,0,0,0,0,0,-1,1343,596,0,0
126,428,0,0,0,0,0,0,0,0,0,-1,1350,596,0,0
133,428,0,0,0,0,0,0,0,0,0,-1,1357,596,0,0
140,428,0,0,0,0,0,0,0,0,0,-1,1364,596,0,0
147,428,0,0,0,0,0,0,0,0,0,-1,1371,596,0,0
154,428,0,0,0,0,0,0,0,0,0,-1,1378,596,0,0
161,428,0,0,0,0,0,0,0,0,0,-1,1385,596,0,0
168,428,0,0,0,0,0,0,0,0,0,-1,1392,596,0,0
175,428,0,0,0,0,0,0,0,0,0,-1,1399,596,0,0
182,428,0,0,0,0,0,0,0,0,0,-1,1406,596,0,0
189,428,0,0,0,0,0,0,0,0,0,-1,1413,596,0,0
196,428,0,0,0,0,0,0,0,0,0,-1,1420,596,0,0
203,428,0,0,0,0,0,0,0,0,0,-1,1427,596,0,0
210,428,0,0,0,0,0,0,0,0,0,-1,1434,596,0,0
217,428,0,0,0,0,0,0,0,0,0,-1,1441,596,0,0
224,428,0,0,0,0,0,0,0,0,0,-1,1448,596,0,0
231,428,0,0,0,0,0,0,0,0,0,-1,1455,596,0,0
238,428,0,0,0,0,0,0,0,0,0,-1,1462,596,0,0
245,428,0,0,0,0,0,0,0,0,0,-1,1469,596,0,0
252,428,0,0,0,0,0,0,0,0,0,-1,1476,596,0,0
259,428,0,0,0,0,0,0,0,0,0,-1,1483,596,0,0
266,428,0,0,0,0,0,0,0,0,0,-1,1490,596,0,0
273,428,0,0,0,0,0,0,0,0,0,-1,1497,596,0,0
280,428,0,0,0,0,0,0,0,0,0,-1,1504,596,0,0
287,428,0,0,0,0,0,0,0,0,0,-1,1511,596,0,0
294,428,0,0,0,0,0,0,0,0,0,-1,1518,596,0,0
301,428,0,0,0,0,0,0,0,0,0,-1,1525,596,0,0
308,428,0,0,0,0,0,0,0,0,0,-1,1532,596,0,0
315,428,0,0,0,0,0,0,0,0,0,-1,1539,596,0,0
322,428,0,0,0,0,0,0,0,0,0,-1,1546,596,0,0
329,428,0,0,0,0,0,0,0,0,0,-1,1553,596,0,0
336,428,0,0,0,0,0,0,0,0,0,-1,1560,596,0,0
343,428,0,0,0,0,0,0,0,0,0,-1,1567,596,0,0
350,428,0,0,0,0,0,0,0,0,0,-1,1574,596,0,0
357,428,0,0,0,0,0,0,0,0,0,-1,1581,596,0,0
364,428,0,0,0,0,0,0,0,0,0,-1,1588,596,0,0
371,428,0,0,0,0,0,0,0,0,0,-1,1595,596,0,0
378,428,0,0,0,0,0,0,0,0,0,-1,1602,596,0,0
385,428,0,0,0,0,0,0,0,0,0,-1,1609,596,0,0
392,428,0,0,0,0,0,0,0,0,0,-1,1616,596,0,0
399,428,0,0,0,0,0,0,0,0,0,-1,1623,596,0,0
406,428,0,0,0,0,0,0,0,0,0,-1,1630,596,0,0
413,428,0,0,0,0,0,0,0,0,0,-1,1637,596,0,0
420,428,19.8469,1.3399,0,0,0,0,0,0,0,-1,1644,596,19.8469,-1.33992
427,428,20.7299,-0.225281,0,0,0,0,0,0,0,-1,1651,596,20.7299,0.225262
434,428,19.8915,-0.583069,0,0,0,0,0,0,0,-1,1658,596,19.8915,0.583075
441,428,8.17993,0.607483,0,0,0,0,0,0,0,-1,1665,596,8.17997,-0.607513
448,428,7.84338,-0.385986,0,0,0,0,0,0,0,-1,1672,596,7.84336,0.385978
455,428,6.64038,2.1123,0,0,0,0,0,0,0,-1,1679,596,6.64037,-2.11229
462,428,4.84106,4.12341,0,0,0,0,0,0,0,-1,1686,596,4.84107,-4.12339
469,428,7.83789,3.10083,0,0,0,0,0,0,0,-1,1693,596,7.83785,-3.10086
476,428,7.61255,1.73956,0,0,0,0,0,0,0,-1,1700,596,7.61252,-1.73958
483,428,7.22766,1.05121,0,0,0,0,0,0,0,-1,1707,596,7.2277,-1.05121
490,428,5.4071,-3.2793,0,0,0,0,0,0,0,-1,1714,596,5.40707,3.27929
497,428,7.84106,-3.65491,0,0,0,0,0,0,0,-1,1721,596,7.84107,3.65491
504,428,6.92139,-2.83356,0,0,0,0,0,0,0,-1,1728,596,6.92137,2.83353
511,428,7.88501,-3.78723,0,0,0,0,0,0,0,-1,1735,596,7.88502,3.78722
518,428,18.5829,-13.9468,0,0,0,0,0,0,0,-1,1742,596,18.5829,13.9467
525,428,18.5453,-13.2309,0,0,0,0,0,0,0,-1,1749,596,18.5452,13.2309
532,428,18.527,-12.5986,0.00374319,0.0021586,0.00179491,0.00491289,0.000988898,0.577554,0.00300045,0.0216273,1756,596,18.5269,12.5986
539,428,18.569,-12.0335,0.00320538,0.00184946,0.00150769,0.00418053,0.000874313,0.57411,0.00254612,0.0215483,1763,596,18.569,12.0335
546,428,18.5382,-11.5051,0.00269254,0.0015634,0.00125989,0.00350857,0.000747366,0.574758,0.00213401,0.0171111,1770,596,18.5382,11.5051
553,428,18.5049,-10.9214,0.00219408,0.00131813,0.00103428,0.0028793,0.000632911,0.585117,0.0017472,0.0113979,1777,596,18.5049,10.9214
560,428,18.4934,-10.3105,0.00169782,0.00122113,0.00086703,0.00235867,0.000560285,0.651262,0.00142294,0.0114977,1784,596,18.4934,10.3105
567,428,18.4767,-9.7179,0.00131111,0.00128169,0.000825831,0.00212236,0.00047044,0.776493,0.00128708,0.0103893,1791,596,18.4767,9.71788
574,428,18.4585,-9.12701,0.00103631,0.00145357,0.000886884,0.00215603,0.000333848,0.900918,0.00134001,0.0126472,1798,596,18.4585,9.12701
581,428,18.4078,-8.52026,0.000889041,0.00176584,0.00106537,0.00247949,0.000175392,0.980587,0.00159774,0.0116089,1805,596,18.4078,8.52024
588,428,18.3774,-7.90106,0.000992103,0.00232558,0.00142893,0.00323567,8.20126e-05,1.00368,0.0021303,0.0171807,1812,596,18.3774,7.90104
595,428,18.3402,-7.26538,0.00133994,0.00334186,0.00203106,0.00460521,7.65841e-05,1.01435,0.00304494,0.0253293,1819,596,18.3402,7.2654
602,428,18.4376,-6.60156,0,0,0,0,0,0,0,-1,1826,596,18.4376,6.60157
609,428,17.2073,-4.82446,0,0,0,0,0,0,0,-1,1833,596,17.2073,4.82447
616,428,15.7817,-3.09558,0,0,0,0,0,0,0,-1,1840,596,15.7817,3.09556
623,428,9.53577,1.12518,0,0,0,0,0,0,0,-1,1847,596,9.5358,-1.1252
630,428,7.07996,6.88562,0,0,0,0,0,0,0,-1,1854,596,7.0799,-6.88565
637,428,3.95435,1.90857,0,0,0,0,0,0,0,-1,1861,596,3.95439,-1.90858
644,428,5.75476,0.888977,0,0,0,0,0,0,0,-1,1868,596,5.75472,-0.888955
651,428,0,0,0,0,0,0,0,0,0,-1,1875,596,0,0
658,428,0,0,0,0,0,0,0,0,0,-1,1882,596,0,0
665,428,0,0,0,0,0,0,0,0,0,-1,1889,596,0,0
672,428,0,0,0,0,0,0,0,0,0,-1,1896,596,0,0
679,428,0,0,0,0,0,0,0,0,0,-1,1903,596,0,0
686,428,0,0,0,0,0,0,0,0,0,-1,1910,596,0,0
693,428,0,0,0,0,0,0,0,0,0,-1,1917,596,0,0
700,428,0,0,0,0,0,0,0,0,0,-1,1924,596,0,0
707,428,0,0,0,0,0,0,0,0,0,-1,1931,596,0,0
714,428,0,0,0,0,0,0,0,0,0,-1,1938,596,0,0
721,428,0,0,0,0,0,0,0,0,0,-1,1945,596,0,0
728,428,0,0,0,0,0,0,0,0,0,-1,1952,596,0,0
735,428,0,0,0,0,0,0,0,0,0,-1,1959,596,0,0
742,428,0,0,0,0,0,0,0,0,0,-1,1966,596,0,0
749,428,0,0,0,0,0,0,0,0,0,-1,1973,596,0,0
756,428,0,0,0,0,0,0,0,0,0,-1,1980,596,0,0
763,428,0,0,0,0,0,0,0,0,0,-1,1987,596,0,0
770,428,0,0,0,0,0,0,0,0,0,-1,1994,596,0,0
777,428,0,0,0,0,0,0,0,0,0,-1,2001,596,0,0
784,428,0,0,0,0,0,0,0,0,0,-1,2008,596,0,0
791,428,0,0,0,0,0,0,0,0,0,-1,2015,596,0,0
798,428,0,0,0,0,0,0,0,0,0,-1,2022,596,0,0
805,428,0,0,0,0,0,0,0,0,0,-1,2029,596,0,0
812,428,0,0,0,0,0,0,0,0,0,-1,2036,596,0,0
-700,421,0,0,0,0,0,0,0,0,0,-1,524,603,0,0
-693,421,0,0,0,0,0,0,0,0,0,-1,531,603,0,0
-686,421,0,0,0,0,0,0,0,0,0,-1,538,603,0,0
-679,421,0,0,0,0,0,0,0,0,0,-1,545,603,0,0
-672,421,0,0,0,0,0,0,0,0,0,-1,552,603,0,0
-665,421,0,0,0,0,0,0,0,0,0,-1,559,603,0,0
-658,421,0,0,0,0,0,0,0,0,0,-1,566,603,0,0
-651,421,0,0,0,0,0,0,0,0,0,-1,573,603,0,0
-644,421,0,0,0,0,0,0,0,0,0,-1,580,603,0,0
-637,421,0,0,0,0,0,0,0,0,0,-1,587,603,0,0
-630,421,0,0,0,0,0,0,0,0,0,-1,594,603,0,0
-623,421,0,0,0,0,0,0,0,0,0,-1,601,603,0,0
-616,421,0,0,0,0,0,0,0,0,0,-1,608,603,0,0
-609,421,0,0,0,0,0,0,0,0,0,-1,615,603,0,0
-602,421,0,0,0,0,0,0,0,0,0,-1,622,603,0,0
-595,421,0,0,0,0,0,0,0,0,0,-1,629,603,0,0
-588,421,0,0,0,0,0,0,0,0,0,-1,636,603,0,0
-581,421,0,0,0,0,0,0,0,0,0,-1,643,603,0,0
-574,421,0,0,0,0,0,0,0,0,0,-1,650,603,0,0
-567,421,0,0,0,0,0,0,0,0,0,-1,657,603,0,0
-560,421,0,0,0,0,0,0,0,0,0,-1,664,603,0,0
-553,421,0,0,0,0,0,0,0,0,0,-1,671,603,0,0
-546,421,0,0,0,0,0,0,0,0,0,-1,678,603,0,0
-539,421,0,0,0,0,0,0,0,0,0,-1,685,603,0,0
-532,421,-8.97382,6.95636,0,0,0,0,0,0,0,-1,692,603,-8.97384,-6.95634
-525,421,-2.11481,-8.04272,0,0,0,0,0,0,0,-1,699,603,-2.11483,8.0427
-518,421,-3.05908,-5.07233,0,0,0,0,0,0,0,-1,706,603,-3.0591,5.07235
-511,421,-4.63525,-4.08447,0,0,0,0,0,0,0,-1,713,603,-4.63524,4.08449
-504,421,-5.17029,-4.94458,0,0,0,0,0,0,0,-1,720,603,-5.17029,4.9446
-497,421,-6.63141,-2.32501,0,0,0,0,0,0,0,-1,727,603,-6.6314,2.32498
-490,421,-6.7616,-4.14783,0,0,0,0,0,0,0,-1,734,603,-6.76159,4.1478
-483,421,-8.38257,-7.91138,0,0,0,0,0,0,0,-1,741,603,-8.38258,7.91139
-476,421,-8.46765,-8.40692,0.000705563,0.00687803,-0.00377278,0.00866609,-0.0010825,-1.12822,0.00616996,0.0354112,748,603,-8.46764,8.40693
-469,421,-8.60156,-8.82446,0.000552632,0.00537224,-0.00312917,0.00691198,-0.000987105,-1.11352,0.0049698,0.0259257,755,603,-8.60157,8.82448
-462,421,-8.62225,-9.48004,0.000554048,0.00416243,-0.00255999,0.00549011,-0.000773637,-1.09236,0.00394333,0.020103,762,603,-8.62228,9.48003
-455,421,-8.63452,-10.0707,0.00055334,0.00313379,-0.00198083,0.00420754,-0.000520407,-1.07406,0.00299361,0.0203884,769,603,-8.63452,10.0707
-448,421,-8.67889,-10.6327,0.000599435,0.00211939,-0.00142499,0.00297439,-0.000255569,-1.03037,0.00207337,0.0196176,776,603,-8.6789,10.6327
-441,421,-8.69128,-11.2409,0.000636977,0.00107646,-0.000857856,0.00174227,-2.88349e-05,-0.910778,0.00117124,0.0143934,783,603,-8.6913,11.2409
-434,421,-8.69958,-11.8342,0.000731916,0.00027028,-0.000371462,0.000938432,6.37639e-05,-0.507403,0.000605487,0.0102032,790,603,-8.69961,11.8343
-427,421,-8.69598,-12.3929,0.000899044,-0.000532041,5.46565e-05,0.000901129,-0.000534125,0.0381183,0.000837626,0.0100518,797,603,-8.69599,12.3929
-420,421,-8.71582,-12.9307,0.0011448,-0.0012266,0.000385087,0.00120577,-0.00128757,0.157014,0.00143979,0.0119959,804,603,-8.7158,12.9307
-413,421,-8.73895,-13.4658,0.00139759,-0.00189269,0.000712873,0.0015454,-0.00204051,0.204448,0.00207689,0.0143536,811,603,-8.73894,13.4658
-406,421,-8.77667,-14.053,0.00171733,-0.00253681,0.000984652,0.00193418,-0.00275366,0.216771,0.00272028,0.0193436,818,603,-8.77667,14.053
-399,421,-8.71722,-14.7009,0.00226179,-0.00312084,0.00109298,0.00247526,-0.00333431,0.192883,0.00336635,0.0291337,825,603,-8.71723,14.7008
-392,421,-8.60663,-15.2546,0,0,0,0,0,0,0,-1,832,603,-8.60665,15.2546
-385,421,-8.80859,-15.2676,0,0,0,0,0,0,0,-1,839,603,-8.80859,15.2676
-378,421,-4.94733,-8.87909,0,0,0,0,0,0,0,-1,846,603,-4.94731,8.87906
-371,421,-5.65082,-7.01849,0,0,0,0,0,0,0,-1,853,603,-5.65082,7.0185
-364,421,-5.94189,-7.09875,0,0,0,0,0,0,0,-1,860,603,-5.94192,7.09878
-357,421,-7.62531,-8.26337,0,0,0,0,0,0,0,-1,867,603,-7.62532,8.26337
-350,421,-5.38019,-3.75024,0,0,0,0,0,0,0,-1,874,603,-5.38017,3.75026
-343,421,-6.22797,-2.57123,0,0,0,0,0,0,0,-1,881,603,-6.22798,2.57121
-336,421,-6.22882,-2.59369,0,0,0,0,0,0,0,-1,888,603,-6.22883,2.5937
-329,421,-4.50134,-1.49469,0,0,0,0,0,0,0,-1,895,603,-4.50137,1.49468
-322,421,-7.55817,1.13263,0,0,0,0,0,0,0,-1,902,603,-7.55818,-1.13263
-315,421,-4.47821,-1.26733,0,0,0,0,0,0,0,-1,909,603,-4.47824,1.26732
-308,421,0,0,0,0,0,0,0,0,0,-1,916,603,0,0
-301,421,0,0,0,0,0,0,0,0,0,-1,923,603,0,0
-294,421,0,0,0,0,0,0,0,0,0,-1,930,603,0,0
-287,421,0,0,0,0,0,0,0,0,0,-1,937,603,0,0
-280,421,0,0,0,0,0,0,0,0,0,-1,944,603,0,0
-273,421,0,0,0,0,0,0,0,0,0,-1,951,603,0,0
-266,421,0,0,0,0,0,0,0,0,0,-1,958,603,0,0
-259,421,0,0,0,0,0,0,0,0,0,-1,965,603,0,0
-252,421,0,0,0,0,0,0,0,0,0,-1,972,603,0,0
-245,421,0,0,0,0,0,0,0,0,0,-1,979,603,0,0
-238,421,0,0,0,0,0,0,0,0,0,-1,986,603,0,0
-231,421,0,0,0,0,0,0,0,0,0,-1,993,603,0,0
-224,421,0,0,0,0,0,0,0,0,0,-1,1000,603,0,0
-217,421,0,0,0,0,0,0,0,0,0,-1,1007,603,0,0
-210,421,0,0,0,0,0,0,0,0,0,-1,1014,603,0,0
-203,421,0,0,0,0,0,0,0,0,0,-1,1021,603,0,0
-196,421,0,0,0,0,0,0,0,0,0,-1,1028,603,0,0
-189,421,0,0,0,0,0,0,0,0,0,-1,1035,603,0,0
-182,421,0,0,0,0,0,0,0,0,0,-1,1042,603,0,0
-175,421,0,0,0,0,0,0,0,0,0,-1,1049,603,0,0
-168,421,0,0,0,0,0,0,0,0,0,-1,1056,603,0,0
-161,421,0,0,0,0,0,0,0,0,0,-1,1063,603,0,0
-154,421,0,0,0,0,0,0,0,0,0,-1,1070,603,0,0
-147,421,0,0,0,0,0,0,0,0,0,-1,1077,603,0,0
-140,421,0,0,0,0,0,0,0,0,0,-1,1084,603,0,0
-133,421,0,0,0,0,0,0,0,0,0,-1,1091,603,0,0
-126,421,0,0,0,0,0,0,0,0,0,-1,1098,603,0,0
-119,421,0,0,0,0,0,0,0,0,0,-1,1105,603,0,0
-112,421,0,0,0,0,0,0,0,0,0,-1,1112,603,0,0
-105,421,0,0,0,0,0,0,0,0,0,-1,1119,603,0,0
-98,421,0,0,0,0,0,0,0,0,0,-1,1126,603,0,0
-91,421,0,0,0,0,0,0,0,0,0,-1,1133,603,0,0
-84,421,0,0,0,0,0,0,0,0,0,-1,1140,603,0,0
-77,421,0,0,0,0,0,0,0,0,0,-1,1147,603,0,0
-70,421,0,0,0,0,0,0,0,0,0,-1,1154,603,0,0
-63,421,0,0,0,0,0,0,0,0,0,-1,1161,603,0,0
-56,421,0,0,0,0,0,0,0,0,0,-1,1168,603,0,0
-49,421,0,0,0,0,0,0,0,0,0,-1,1175,603,0,0
-42,421,0,0,0,0,0,0,0,0,0,-1,1182,603,0,0
-35,421,0,0,0,0,0,0,0,0,0,-1,1189,603,0,0
-28,421,0,0,0,0,0,0,0,0,0,-1,1196,603,0,0
-21,421,0,0,0,0,0,0,0,0,0,-1,1203,603,0,0
-14,421,0,0,0,0,0,0,0,0,0,-1,1210,603,0,0
-7,421,0,0,0,0,0,0,0,0,0,-1,1217,603,0,0
0,421,0,0,0,0,0,0,0,0,0,-1,1224,603,0,0
7,421,0,0,0,0,0,0,0,0,0,-1,1231,603,0,0
14,421,0,0,0,0,0,0,0,0,0,-1,1238,603,0,0
21,421,0,0,0,0,0,0,0,0,0,-1,1245,603,0,0
28,421,0,0,0,0,0,0,0,0,0,-1,1252,603,0,0
35,421,0,0,0,0,0,0,0,0,0,-1,1259,603,0,0
42,421,0,0,0,0,0,0,0,0,0,-1,1266,603,0,0
49,421,0,0,0,0,0,0,0,0,0,-1,1273,603,0,0
56,421,0,0,0,0,0,0,0,0,0,-1,1280,603,0,0
63,421,0,0,0,0,0,0,0,0,0,-1,1287,603,0,0
70,421,0,0,0,0,0,0,0,0,0,-1,1294,603,0,0
77,421,0,0,0,0,0,0,0,0,0,-1,1301,603,0,0
84,421,0,0,0,0,0,0,0,0,0,-1,1308,603,0,0
91,421,0,0,0,0,0,0,0,0,0,-1,1315,603,0,0
98,421,0,0,0,0,0,0,0,0,0,-1,1322,603,0,0
105,421,0,0,0,0,0,0,0,0,0,-1,1329,603,0,0
112,421,0,0,0,0,0,0,0,0,0,-1,1336,603,0,0
119,421,0,0,0,0,0,0,0,0,0,-1,1343,603,0,0
126,421,0,0,0,0,0,0,0,0,0,-1,1350,603,0,0
133,421,0,0,0,0,0,0,0,0,0,-1,1357,603,0,0
140,421,0,0,0,0,0,0,0,0,0,-1,1364,603,0,0
147,421,0,0,0,0,0,0,0,0,0,-1,1371,603,0,0
154,421,0,0,0,0,0,0,0,0,0,-1,1378,603,0,0
161,421,0,0,0,0,0,0,0,0,0,-1,1385,603,0,0
168,421,0,0,0,0,0,0,0,0,0,-1,1392,603,0,0
175,421,0,0,0,0,0,0,0,0,0,-1,1399,603,0,0
182,421,0,0,0,0,0,0,0,0,0,-1,1406,603,0,0
189,421,0,0,0,0,0,0,0,0,0,-1,1413,603,0,0
196,421,0,0,0,0,0,0,0,0,0,-1,1420,603,0,0
203,421,0,0,0,0,0,0,0,0,0,-1,1427,603,0,0
210,421,0,0,0,0,0,0,0,0,0,-1,1434,603,0,0
217,421,0,0,0,0,0,0,0,0,0,-1,1441,603,0,0
224,421,0,0,0,0,0,0,0,0,0,-1,1448,603,0,0
231,421,0,0,0,0,0,0,0,0,0,-1,1455,603,0,0
238,421,0,0,0,0,0,0,0,0,0,-1,1462,603,0,0
245,421,0,0,0,0,0,0,0,0,0,-1,1469,603,0,0
252,421,0,0,0,0,0,0,0,0,0,-1,1476,603,0,0
259,421,0,0,0,0,0,0,0,0,0,-1,1483,603,0,0
266,421,0,0,0,0,0,0,0,0,0,-1,1490,603,0,0
273,421,0,0,0,0,0,0,0,0,0,-1,1497,603,0,0
280,421,0,0,0,0,0,0,0,0,0,-1,1504,603,0,0
287,421,0,0,0,0,0,0,0,0,0,-1,1511,603,0,0
294,421,0,0,0,0,0,0,0,0,0,-1,1518,603,0,0
301,421,0,0,0,0,0,0,0,0,0,-1,1525,603,0,0
308,421,0,0,0,0,0,0,0,0,0,-1,1532,603,0,0
315,421,0,0,0,0,0,0,0,0,0,-1,1539,603,0,0
322,421,0,0,0,0,0,0,0,0,0,-1,1546,603,0,0
329,421,0,0,0,0,0,0,0,0,0,-1,1553,603,0,0
336,421,0,0,0,0,0,0,0,0,0,-1,1560,603,0,0
343,421,0,0,0,0,0,0,0,0,0,-1,1567,603,0,0
350,421,0,0,0,0,0,0,0,0,0,-1,1574,603,0,0
357,421,0,0,0,0,0,0,0,0,0,-1,1581,603,0,0
364,421,0,0,0,0,0,0,0,0,0,-1,1588,603,0,0
371,421,0,0,0,0,0,0,0,0,0,-1,1595,603,0,0
378,421,0,0,0,0,0,0,0,0,0,-1,1602,603,0,0
385,421,0,0,0,0,0,0,0,0,0,-1,1609,603,0,0
392,421,0,0,0,0,0,0,0,0,0,-1,1616,603,0,0
399,421,0,0,0,0,0,0,0,0,0,-1,1623,603,0,0
406,421,0,0,0,0,0,0,0,0,0,-1,1630,603,0,0
413,421,0,0,0,0,0,0,0,0,0,-1,1637,603,0,0
420,421,0,0,0,0,0,0,0,0,0,-1,1644,603,0,0
427,421,0,0,0,0,0,0,0,0,0,-1,1651,603,0,0
434,421,3.68176,-0.0327759,0,0,0,0,0,0,0,-1,1658,603,3.6818,0.0328037
441,421,8.06689,0.527832,0,0,0,0,0,0,0,-1,1665,603,8.06693,-0.527851
448,421,6.93921,0.802246,0,0,0,0,0,0,0,-1,1672,603,6.93923,-0.802251
455,421,7.29456,2.14825,0,0,0,0,0,0,0,-1,1679,603,7.29461,-2.14827
462,421,7.86902,3.53174,0,0,0,0,0,0,0,-1,1686,603,7.869,-3.53173
469,421,8.06604,2.81213,0,0,0,0,0,0,0,-1,1693,603,8.06606,-2.81212
476,421,8.26306,2.09253,0,0,0,0,0,0,0,-1,1700,603,8.26312,-2.09251
483,421,8.05322,0.798096,0,0,0,0,0,0,0,-1,1707,603,8.05323,-0.7981
490,421,7.51233,0.213074,0,0,0,0,0,0,0,-1,1714,603,7.51235,-0.213043
497,421,7.49634,-2.86688,0,0,0,0,0,0,0,-1,1721,603,7.4963,2.86688
504,421,6.90491,-2.18671,0,0,0,0,0,0,0,-1,1728,603,6.90491,2.18669
511,421,6.31348,-1.50653,0,0,0,0,0,0,0,-1,1735,603,6.31353,1.5065
518,421,6.27588,-2.49878,0,0,0,0,0,0,0,-1,1742,603,6.2759,2.4988
525,421,18.8654,-13.4853,0,0,0,0,0,0,0,-1,1749,603,18.8653,13.4853
532,421,18.9995,-12.6383,0.00474836,0.0024016,0.00213263,0.0060091,0.00114086,0.533898,0.00368513,0.0446749,1756,603,18.9995,12.6383
539,421,19.153,-12.0281,0.00407413,0.00203624,0.00174177,0.00507311,0.00103726,0.520738,0.00309481,0.0226176,1763,603,19.153,12.0282
546,421,19.1356,-11.4785,0.00342902,0.00163291,0.00141795,0.00420938,0.000852549,0.503108,0.00256965,0.0135816,1770,603,19.1357,11.4785
553,421,19.1019,-10.872,0.00283383,0.0013248,0.00113937,0.00344586,0.000712761,0.492939,0.00210036,0.0125098,1777,603,19.102,10.872
560,421,19.0767,-10.2686,0.00224256,0.00117004,0.000935585,0.00278468,0.000627923,0.525164,0.00168657,0.0142005,1784,603,19.0766,10.2686
567,421,19.0671,-9.71429,0.00175948,0.00117677,0.000866593,0.00238239,0.000553866,0.623229,0.0014396,0.0156887,1791,603,19.0671,9.7143
574,421,19.042,-9.1214,0.0014228,0.00133126,0.000934875,0.00231302,0.000441035,0.760938,0.00141805,0.0173328,1798,603,19.042,9.12141
581,421,19.0085,-8.49176,0.00123896,0.00165525,0.00114211,0.00260802,0.000286187,0.875532,0.00165157,0.0158942,1805,603,19.0085,8.49177
588,421,18.9684,-7.91962,0.00125975,0.002253,0.00150632,0.00334245,0.000170304,0.944635,0.00217376,0.0120309,1812,603,18.9684,7.91964
595,421,18.9989,-7.31366,0.00153468,0.00320718,0.00210353,0.00463459,0.000107273,0.974593,0.0030546,0.0176344,1819,603,18.9989,7.31365
602,421,18.9811,-6.67133,0,0,0,0,0,0,0,-1,1826,603,18.9811,6.67134
609,421,17.6451,-5.54187,0,0,0,0,0,0,0,-1,1833,603,17.6451,5.54189
616,421,17.7633,-4.72491,0,0,0,0,0,0,0,-1,1840,603,17.7633,4.7249
623,421,6.19885,0.376648,0,0,0,0,0,0,0,-1,1847,603,6.19881,-0.376624
630,421,6.54993,0.778748,0,0,0,0,0,0,0,-1,1854,603,6.54991,-0.778744
637,421,3.74512,1.65405,0,0,0,0,0,0,0,-1,1861,603,3.74517,-1.65407
644,421,3.58081,0.354675,0,0,0,0,0,0,0,-1,1868,603,3.58082,-0.354704
651,421,3.28687,3.66351,0,0,0,0,0,0,0,-1,1875,603,3.28688,-3.66353
658,421,0,0,0,0,0,0,0,0,0,-1,1882,603,0,0
665,421,0,0,0,0,0,0,0,0,0,-1,1889,603,0,0
672,421,0,0,0,0,0,0,0,0,0,-1,1896,603,0,0
679,421,0,0,0,0,0,0,0,0,0,-1,1903,603,0,0
686,421,0,0,0,0,0,0,0,0,0,-1,1910,603,0,0
693,421,0,0,0,0,0,0,0,0,0,-1,1917,603,0,0
700,421,0,0,0,0,0,0,0,0,0,-1,1924,603,0,0
707,421,0,0,0,0,0,0,0,0,0,-1,1931,603,0,0
714,421,0,0,0,0,0,0,0,0,0,-1,1938,603,0,0
721,421,0,0,0,0,0,0,0,0,0,-1,1945,603,0,0
728,421,0,0,0,0,0,0,0,0,0,-1,1952,603,0,0
735,421,0,0,0,0,0,0,0,0,0,-1,1959,603,0,0
742,421,0,0,0,0,0,0,0,0,0,-1,1966,603,0,0
749,421,0,0,0,0,0,0,0,0,0,-1,1973,603,0,0
756,421,0,0,0,0,0,0,0,0,0,-1,1980,603,0,0
763,421,0,0,0,0,0,0,0,0,0,-1,1987,603,0,0
770,421,0,0,0,0,0,0,0,0,0,-1,1994,603,0,0
777,421,0,0,0,0,0,0,0,0,0,-1,2001,603,0,0
784,421,0,0,0,0,0,0,0,0,0,-1,2008,603,0,0
791,421,0,0,0,0,0,0,0,0,0,-1,2015,603,0,0
798,421,0,0,0,0,0,0,0,0,0,-1,2022,603,0,0
805,421,0,0,0,0,0,0,0,0,0,-1,2029,603,0,0
812,421,0,0,0,0,0,0,0,0,0,-1,2036,603,0,0
-700,414,0,0,0,0,0,0,0,0,0,-1,524,610,0,0
-693,414,0,0,0,0,0,0,0,0,0,-1,531,610,0,0
-686,414,0,0,0,0,0,0,0,0,0,-1,538,610,0,0
-679,414,0,0,0,0,0,0,0,0,0,-1,545,610,0,0
-672,414,0,0,0,0,0,0,0,0,0,-1,552,610,0,0
-665,414,0,0,0,0,0,0,0,0,0,-1,559,610,0,0
-658,414,0,0,0,0,0,0,0,0,0,-1,566,610,0,0
-651,414,0,0,0,0,0,0,0,0,0,-1,573,610,0,0
-644,414,0,0,0,0,0,0,0,0,0,-1,580,610,0,0
-637,414,0,0,0,0,0,0,0,0,0,-1,587,610,0,0
-630,414,0,0,0,0,0,0,0,0,0,-1,594,610,0,0
-623,414,0,0,0,0,0,0,0,0,0,-1,601,610,0,0
-616,414,0,0,0,0,0,0,0,0,0,-1,608,610,0,0
-609,414,0,0,0,0,0,0,0,0,0,-1,615,610,0,0
-602,414,0,0,0,0,0,0,0,0,0,-1,622,610,0,0
-595,414,0,0,0,0,0,0,0,0,0,-1,629,610,0,0
-588,414,0,0,0,0,0,0,0,0,0,-1,636,610,0,0
-581,414,0,0,0,0,0,0,0,0,0,-1,643,610,0,0
-574,414,0,0,0,0,0,0,0,0,0,-1,650,610,0,0
-567,414,0,0,0,0,0,0,0,0,0,-1,657,610,0,0
-560,414,0,0,0,0,0,0,0,0,0,-1,664,610,0,0
-553,414,0,0,0,0,0,0,0,0,0,-1,671,610,0,0
-546,414,0,0,0,0,0,0,0,0,0,-1,678,610,0,0
-539,414,-7.50146,5.65619,0,0,0,0,0,0,0,-1,685,610,-7.50149,-5.65617
-532,414,-8.15204,4.01605,0,0,0,0,0,0,0,-1,692,610,-8.15206,-4.01606
-525,414,-3.47137,-3.27924,0,0,0,0,0,0,0,-1,699,610,-3.47136,3.27922
-518,414,-4.12909,-4.36908,0,0,0,0,0,0,0,-1,706,610,-4.12909,4.36909
-511,414,-3.92542,-4.97021,0,0,0,0,0,0,0,-1,713,610,-3.92542,4.97023
-504,414,-9.35394,-5.49896,0,0,0,0,0,0,0,-1,720,610,-9.35394,5.49898
-497,414,-9.17554,-6.03741,0,0,0,0,0,0,0,-1,727,610,-9.17551,6.03743
-490,414,-9.17108,-6.40552,0,0,0,0,0,0,0,-1,734,610,-9.17111,6.40553
-483,414,-9.03619,-7.78387,0,0,0,0,0,0,0,-1,741,610,-9.03617,7.78389
-476,414,-9.1626,-8.34436,0.000815807,0.00544821,-0.00299256,0.00691621,-0.000652194,-1.11474,0.00484287,0.0233701,748,610,-9.16262,8.34435
-469,414,-9.2019,-8.8736,0.000727176,0.00416682,-0.00249375,0.00547628,-0.000582285,-1.08727,0.00385962,0.0139206,755,610,-9.20191,8.87358
-462,414,-9.1936,-9.47986,0.000763102,0.00311687,-0.00203885,0.00429412,-0.000414152,-1.04715,0.00301031,0.023645,762,610,-9.19361,9.47983
-455,414,-9.19934,-10.077,0.000797967,0.00217816,-0.00156422,0.00319774,-0.000221615,-0.993145,0.00220941,0.0262604,769,610,-9.19932,10.077
-448,414,-9.23627,-10.6257,0.000885518,0.00128908,-0.00110379,0.00220938,-3.47826e-05,-0.875804,0.00148465,0.0253876,776,610,-9.23626,10.6256
-441,414,-9.25067,-11.2206,0.000931359,0.000323648,-0.000590139,0.00129128,-3.62674e-05,-0.547655,0.00087319,0.0175677,783,610,-9.25069,11.2206
-434,414,-9.26923,-11.7924,0.00101116,-0.000431339,-0.000121758,0.00102136,-0.000441544,-0.0836192,0.000866442,0.00946812,790,610,-9.26923,11.7924
-427,414,-9.28156,-12.3527,0.00112788,-0.00122463,0.000324936,0.00117193,-0.00126869,0.134762,0.00140946,0.0101729,797,610,-9.28155,12.3527
-420,414,-9.29553,-12.9139,0.00126984,-0.00196264,0.000738863,0.00143072,-0.00212352,0.214392,0.00206499,0.0105389,804,610,-9.29554,12.9139
-413,414,-9.32147,-13.4816,0.00144003,-0.00260081,0.00109866,0.00171943,-0.00288021,0.249027,0.00268364,0.0113727,811,610,-9.3215,13.4816
-406,414,-9.3197,-14.1285,0.00164441,-0.00334096,0.0014441,0.0020325,-0.00372906,0.262544,0.00337417,0.0251291,818,610,-9.31969,14.1285
-399,414,-9.25763,-14.7617,0,0,0,0,0,0,0,-1,825,610,-9.25765,14.7617
-392,414,-9.43781,-14.5624,0,0,0,0,0,0,0,-1,832,610,-9.43779,14.5624
-385,414,-8.14691,-13.0653,0,0,0,0,0,0,0,-1,839,610,-8.14692,13.0653
-378,414,-8.04907,-11.3331,0,0,0,0,0,0,0,-1,846,610,-8.04905,11.3331
-371,414,-5.20886,-8.05151,0,0,0,0,0,0,0,-1,853,610,-5.20887,8.05153
-364,414,-6.76282,-6.58759,0,0,0,0,0,0,0,-1,860,610,-6.7628,6.58756
-357,414,-9.08685,-8.86188,0,0,0,0,0,0,0,-1,867,610,-9.08688,8.86187
-350,414,-6.4502,-2.41821,0,0,0,0,0,0,0,-1,874,610,-6.45021,2.41822
-343,414,-6.80249,-2.32117,0,0,0,0,0,0,0,-1,881,610,-6.80252,2.32116
-336,414,-7.11017,-2.52026,0,0,0,0,0,0,0,-1,888,610,-7.11016,2.52026
-329,414,-7.59747,-2.70313,0,0,0,0,0,0,0,-1,895,610,-7.59747,2.70315
-322,414,-4.42236,-1.29163,0,0,0,0,0,0,0,-1,902,610,-4.42238,1.2916
-315,414,0,0,0,0,0,0,0,0,0,-1,909,610,0,0
-308,414,0,0,0,0,0,0,0,0,0,-1,916,610,0,0
-301,414,0,0,0,0,0,0,0,0,0,-1,923,610,0,0
-294,414,0,0,0,0,0,0,0,0,0,-1,930,610,0,0
-287,414,0,0,0,0,0,0,0,0,0,-1,937,610,0,0
-280,414,0,0,0,0,0,0,0,0,0,-1,944,610,0,0
-273,414,0,0,0,0,0,0,0,0,0,-1,951,610,0,0
-266,414,0,0,0,0,0,0,0,0,0,-1,958,610,0,0
-259,414,0,0,0,0,0,0,0,0,0,-1,965,610,0,0
-252,414,0,0,0,0,0,0,0,0,0,-1,972,610,0,0
-245,414,0,0,0,0,0,0,0,0,0,-1,979,610,0,0
-238,414,0,0,0,0,0,0,0,0,0,-1,986,610,0,0
-231,414,0,0,0,0,0,0,0,0,0,-1,993,610,0,0
-224,414,0,0,0,0,0,0,0,0,0,-1,1000,610,0,0
-217,414,0,0,0,0,0,0,0,0,0,-1,1007,610,0,0
-210,414,0,0,0,0,0,0,0,0,0,-1,1014,610,0,0
-203,414,0,0,0,0,0,0,0,0,0,-1,1021,610,0,0
-196,414,0,0,0,0,0,0,0,0,0,-1,1028,610,0,0
-189,414,0,0,0,0,0,0,0,0,0,-1,1035,610,0,0
-182,414,0,0,0,0,0,0,0,0,0,-1,1042,610,0,0
-175,414,0,0,0,0,0,0,0,0,0,-1,1049,610,0,0
-168,414,0,0,0,0,0,0,0,0,0,-1,1056,610,0,0
-161,414,0,0,0,0,0,0,0,0,0,-1,1063,610,0,0
-154,414,0,0,0,0,0,0,0,0,0,-1,1070,610,0,0
-147,414,0,0,0,0,0,0,0,0,0,-1,1077,610,0,0
-140,414,0,0,0,0,0,0,0,0,0,-1,1084,610,0,0
-133,414,0,0,0,0,0,0,0,0,0,-1,1091,610,0,0
-126,414,0,0,0,0,0,0,0,0,0,-1,1098,610,0,0
-119,414,0,0,0,0,0,0,0,0,0,-1,1105,610,0,0
-112,414,0,0,0,0,0,0,0,0,0,-1,1112,610,0,0
-105,414,0,0,0,0,0,0,0,0,0,-1,1119,610,0,0
-98,414,0,0,0,0,0,0,0,0,0,-1,1126,610,0,0
-91,414,0,0,0,0,0,0,0,0,0,-1,1133,610,0,0
-84,414,0,0,0,0,0,0,0,0,0,-1,1140,610,0,0
-77,414,0,0,0,0,0,0,0,0,0,-1,1147,610,0,0
-70,414,0,0,0,0,0,0,0,0,0,-1,1154,610,0,0
-63,414,0,0,0,0,0,0,0,0,0,-1,1161,610,0,0
-56,414,0,0,0,0,0,0,0,0,0,-1,1168,610,0,0
-49,414,0,0,0,0,0,0,0,0,0,-1,1175,610,0,0
-42,414,0,0,0,0,0,0,0,0,0,-1,1182,610,0,0
-35,414,0,0,0,0,0,0,0,0,0,-1,1189,610,0,0
-28,414,0,0,0,0,0,0,0,0,0,-1,1196,610,0,0
-21,414,0,0,0,0,0,0,0,0,0,-1,1203,610,0,0
-14,414,0,0,0,0,0,0,0,0,0,-1,1210,610,0,0
-7,414,0,0,0,0,0,0,0,0,0,-1,1217,610,0,0
0,414,0,0,0,0,0,0,0,0,0,-1,1224,610,0,0
7,414,0,0,0,0,0,0,0,0,0,-1,1231,610,0,0
14,414,0,0,0,0,0,0,0,0,0,-1,1238,610,0,0
21,414,0,0,0,0,0,0,0,0,0,-1,1245,610,0,0
28,414,0,0,0,0,0,0,0,0,0,-1,1252,610,0,0
35,414,0,0,0,0,0,0,0,0,0,-1,1259,610,0,0
42,414,0,0,0,0,0,0,0,0,0,-1,1266,610,0,0
49,414,0,0,0,0,0,0,0,0,0,-1,1273,610,0,0
56,414,0,0,0,0,0,0,0,0,0,-1,1280,610,0,0
63,414,0,0,0,0,0,0,0,0,0,-1,1287,610,0,0
70,414,0,0,0,0,0,0,0,0,0,-1,1294,610,0,0
77,414,0,0,0,0,0,0,0,0,0,-1,1301,610,0,0
84,414,0,0,0,0,0,0,0,0,0,-1,1308,610,0,0
91,414,0,0,0,0,0,0,0,0,0,-1,1315,610,0,0
98,414,0,0,0,0,0,0,0,0,0,-1,1322,610,0,0
105,414,0,0,0,0,0,0,0,0,0,-1,1329,610,0,0
112,414,0,0,0,0,0,0,0,0,0,-1,1336,610,0,0
119,414,0,0,0,0,0,0,0,0,0,-1,1343,610,0,0
126,414,0,0,0,0,0,0,0,0,0,-1,1350,610,0,0
133,414,0,0,0,0,0,0,0,0,0,-1,1357,610,0,0
140,414,0,0,0,0,0,0,0,0,0,-1,1364,610,0,0
147,414,0,0,0,0,0,0,0,0,0,-1,1371,610,0,0
154,414,0,0,0,0,0,0,0,0,0,-1,1378,610,0,0
161,414,0,0,0,0,0,0,0,0,0,-1,1385,610,0,0
168,414,0,0,0,0,0,0,0,0,0,-1,1392,610,0,0
175,414,0,0,0,0,0,0,0,0,0,-1,1399,610,0,0
182,414,0,0,0,0,0,0,0,0,0,-1,1406,610,0,0
189,414,0,0,0,0,0,0,0,0,0,-1,1413,610,0,0
196,414,0,0,0,0,0,0,0,0,0,-1,1420,610,0,0
203,414,0,0,0,0,0,0,0,0,0,-1,1427,610,0,0
210,414,0,0,0,0,0,0,0,0,0,-1,1434,610,0,0
217,414,0,0,0,0,0,0,0,0,0,-1,1441,610,0,0
224,414,0,0,0,0,0,0,0,0,0,-1,1448,610,0,0
231,414,0,0,0,0,0,0,0,0,0,-1,1455,610,0,0
238,414,0,0,0,0,0,0,0,0,0,-1,1462,610,0,0
245,414,0,0,0,0,0,0,0,0,0,-1,1469,610,0,0
252,414,0,0,0,0,0,0,0,0,0,-1,1476,610,0,0
259,414,0,0,0,0,0,0,0,0,0,-1,1483,610,0,0
266,414,0,0,0,0,0,0,0,0,0,-1,1490,610,0,0
273,414,0,0,0,0,0,0,0,0,0,-1,1497,610,0,0
280,414,0,0,0,0,0,0,0,0,0,-1,1504,610,0,0
287,414,0,0,0,0,0,0,0,0,0,-1,1511,610,0,0
294,414,0,0,0,0,0,0,0,0,0,-1,1518,610,0,0
301,414,0,0,0,0,0,0,0,0,0,-1,1525,610,0,0
308,414,0,0,0,0,0,0,0,0,0,-1,1532,610,0,0
315,414,0,0,0,0,0,0,0,0,0,-1,1539,610,0,0
322,414,0,0,0,0,0,0,0,0,0,-1,1546,610,0,0
329,414,0,0,0,0,0,0,0,0,0,-1,1553,610,0,0
336,414,0,0,0,0,0,0,0,0,0,-1,1560,610,0,0
343,414,0,0,0,0,0,0,0,0,0,-1,1567,610,0,0
350,414,0,0,0,0,0,0,0,0,0,-1,1574,610,0,0
357,414,0,0,0,0,0,0,0,0,0,-1,1581,610,0,0
364,414,0,0,0,0,0,0,0,0,0,-1,1588,610,0,0
371,414,0,0,0,0,0,0,0,0,0,-1,1595,610,0,0
378,414,0,0,0,0,0,0,0,0,0,-1,1602,610,0,0
385,414,0,0,0,0,0,0,0,0,0,-1,1609,610,0,0
392,414,0,0,0,0,0,0,0,0,0,-1,1616,610,0,0
399,414,0,0,0,0,0,0,0,0,0,-1,1623,610,0,0
406,414,0,0,0,0,0,0,0,0,0,-1,1630,610,0,0
413,414,0,0,0,0,0,0,0,0,0,-1,1637,610,0,0
420,414,0,0,0,0,0,0,0,0,0,-1,1644,610,0,0
427,414,0,0,0,0,0,0,0,0,0,-1,1651,610,0,0
434,414,0,0,0,0,0,0,0,0,0,-1,1658,610,0,0
441,414,7.84375,0.584412,0,0,0,0,0,0,0,-1,1665,610,7.84379,-0.584394
448,414,7.40808,1.25446,0,0,0,0,0,0,0,-1,1672,610,7.40807,-1.25446
455,414,6.3512,1.73846,0,0,0,0,0,0,0,-1,1679,610,6.3512,-1.73847
462,414,8.18103,3.22113,0,0,0,0,0,0,0,-1,1686,610,8.18108,-3.22112
469,414,8.38513,2.49579,0,0,0,0,0,0,0,-1,1693,610,8.38516,-2.49576
476,414,8.64099,1.71161,0,0,0,0,0,0,0,-1,1700,610,8.64097,-1.71164
483,414,8.62744,0.687622,0,0,0,0,0,0,0,-1,1707,610,8.62749,-0.687615
490,414,8.38831,-0.0302734,0,0,0,0,0,0,0,-1,1714,610,8.38835,0.0302913
497,414,4.71094,-0.110046,0,0,0,0,0,0,0,-1,1721,610,4.71089,0.110024
504,414,7.19568,-1.43835,0,0,0,0,0,0,0,-1,1728,610,7.19563,1.43836
511,414,5.94153,-1.28772,0,0,0,0,0,0,0,-1,1735,610,5.94151,1.28769
518,414,4.53381,-0.0996704,0,0,0,0,0,0,0,-1,1742,610,4.53378,0.0996819
525,414,6.18811,-1.64056,0,0,0,0,0,0,0,-1,1749,610,6.18814,1.64055
532,414,19.5618,-12.8577,0,0,0,0,0,0,0,-1,1756,610,19.5617,12.8577
539,414,19.6591,-12.145,0.00525094,0.00230889,0.00214178,0.00637821,0.00118162,0.484484,0.00391811,0.0487154,1763,610,19.6591,12.1449
546,414,19.703,-11.4594,0.00437373,0.00173629,0.0017109,0.00521514,0.000894869,0.457065,0.00322019,0.0143833,1770,610,19.7031,11.4594
553,414,19.694,-10.8663,0.00361661,0.00133825,0.00135409,0.00424698,0.000707887,0.43569,0.00262734,0.0126178,1777,610,19.694,10.8664
560,414,19.6799,-10.2637,0.00288201,0.00109839,0.00108915,0.00339789,0.000582519,0.442345,0.00209821,0.013955,1784,610,19.6799,10.2637
567,414,19.6599,-9.69513,0.00225928,0.00101995,0.000953928,0.00277714,0.000502087,0.497352,0.00170883,0.0223474,1791,610,19.6599,9.69512
574,414,19.5989,-9.11243,0.00182105,0.00113575,0.000978291,0.00251496,0.000441837,0.616947,0.00155049,0.0207554,1798,610,19.5988,9.11243
581,414,19.6123,-8.47565,0.00155318,0.00145038,0.00115022,0.00265315,0.00035041,0.763069,0.00166431,0.0168708,1805,610,19.6123,8.47562
588,414,19.5679,-7.90308,0.00145289,0.00204064,0.00145223,0.00322842,0.000265099,0.885231,0.00206958,0.0164144,1812,610,19.5678,7.90307
595,414,19.5447,-7.27051,0.00161288,0.0029049,0.00196339,0.00432583,0.000191955,0.944333,0.00282208,0.0219169,1819,610,19.5446,7.27053
602,414,19.5295,-6.6626,0.00199426,0.00405324,0.00265196,0.00586853,0.000178974,0.970544,0.00385408,0.0254679,1826,610,19.5295,6.66262
609,414,19.5107,-6.0448,0,0,0,0,0,0,0,-1,1833,610,19.5108,6.0448
616,414,19.7675,-5.18878,0,0,0,0,0,0,0,-1,1840,610,19.7674,5.18876
623,414,9.6969,0.0378418,0,0,0,0,0,0,0,-1,1847,610,9.69685,-0.0378644
630,414,5.47144,0.499329,0,0,0,0,0,0,0,-1,1854,610,5.47142,-0.499303
637,414,8.36707,4.16278,0,0,0,0,0,0,0,-1,1861,610,8.36709,-4.16278
644,414,5.87073,1.51422,0,0,0,0,0,0,0,-1,1868,610,5.87076,-1.51424
651,414,3.6377,0.820557,0,0,0,0,0,0,0,-1,1875,610,3.6377,-0.820543
658,414,2.29761,3.87323,0,0,0,0,0,0,0,-1,1882,610,2.29758,-3.87325
665,414,0,0,0,0,0,0,0,0,0,-1,1889,610,0,0
672,414,0,0,0,0,0,0,0,0,0,-1,1896,610,0,0
679,414,0,0,0,0,0,0,0,0,0,-1,1903,610,0,0
686,414,0,0,0,0,0,0,0,0,0,-1,1910,610,0,0
693,414,0,0,0,0,0,0,0,0,0,-1,1917,610,0,0
700,414,0,0,0,0,0,0,0,0,0,-1,1924,610,0,0
707,414,0,0,0,0,0,0,0,0,0,-1,1931,610,0,0
714,414,0,0,0,0,0,0,0,0,0,-1,1938,610,0,0
721,414,0,0,0,0,0,0,0,0,0,-1,1945,610,0,0
728,414,0,0,0,0,0,0,0,0,0,-1,1952,610,0,0
735,414,0,0,0,0,0,0,0,0,0,-1,1959,610,0,0
742,414,0,0,0,0,0,0,0,0,0,-1,1966,610,0,0
749,414,0,0,0,0,0,0,0,0,0,-1,1973,610,0,0
756,414,0,0,0,0,0,0,0,0,0,-1,1980,610,0,0
763,414,0,0,0,0,0,0,0,0,0,-1,1987,610,0,0
770,414,0,0,0,0,0,0,0,0,0,-1,1994,610,0,0
777,414,0,0,0,0,0,0,0,0,0,-1,2001,610,0,0
784,414,0,0,0,0,0,0,0,0,0,-1,2008,610,0,0
791,414,0,0,0,0,0,0,0,0,0,-1,2015,610,0,0
798,414,0,0,0,0,0,0,0,0,0,-1,2022,610,0,0
805,414,0,0,0,0,0,0,0,0,0,-1,2029,610,0,0
812,414,0,0,0,0,0,0,0,0,0,-1,2036,610,0,0
-700,407,0,0,0,0,0,0,0,0,0,-1,524,617,0,0
-693,407,0,0,0,0,0,0,0,0,0,-1,531,617,0,0
-686,407,0,0,0,0,0,0,0,0,0,-1,538,617,0,0
-679,407,0,0,0,0,0,0,0,0,0,-1,545,617,0,0
-672,407,0,0,0,0,0,0,0,0,0,-1,552,617,0,0
-665,407,0,0,0,0,0,0,0,0,0,-1,559,617,0,0
-658,407,0,0,0,0,0,0,0,0,0,-1,566,617,0,0
-651,407,0,0,0,0,0,0,0,0,0,-1,573,617,0,0
-644,407,0,0,0,0,0,0,0,0,0,-1,580,617,0,0
-637,407,0,0,0,0,0,0,0,0,0,-1,587,617,0,0
-630,407,0,0,0,0,0,0,0,0,0,-1,594,617,0,0
-623,407,0,0,0,0,0,0,0,0,0,-1,601,617,0,0
-616,407,0,0,0,0,0,0,0,0,0,-1,608,617,0,0
-609,407,0,0,0,0,0,0,0,0,0,-1,615,617,0,0
-602,407,0,0,0,0,0,0,0,0,0,-1,622,617,0,0
-595,407,0,0,0,0,0,0,0,0,0,-1,629,617,0,0
-588,407,0,0,0,0,0,0,0,0,0,-1,636,617,0,0
-581,407,0,0,0,0,0,0,0,0,0,-1,643,617,0,0
-574,407,0,0,0,0,0,0,0,0,0,-1,650,617,0,0
-567,407,0,0,0,0,0,0,0,0,0,-1,657,617,0,0
-560,407,0,0,0,0,0,0,0,0,0,-1,664,617,0,0
-553,407,0,0,0,0,0,0,0,0,0,-1,671,617,0,0
-546,407,-8.54517,-0.658142,0,0,0,0,0,0,0,-1,678,617,-8.54515,0.658112
-539,407,-6.09442,-1.01154,0,0,0,0,0,0,0,-1,685,617,-6.09441,1.01155
-532,407,-7.75665,1.62152,0,0,0,0,0,0,0,-1,692,617,-7.75667,-1.62154
-525,407,-3.78247,-2.67639,0,0,0,0,0,0,0,-1,699,617,-3.78246,2.67638
-518,407,-5.013,-5.87323,0,0,0,0,0,0,0,-1,706,617,-5.013,5.87324
-511,407,-9.42743,-4.94189,0,0,0,0,0,0,0,-1,713,617,-9.42745,4.94191
-504,407,-9.80591,-7.48315,0,0,0,0,0,0,0,-1,720,617,-9.80588,7.48317
-497,407,-9.84467,-6.81641,0,0,0,0,0,0,0,-1,727,617,-9.84468,6.8164
-490,407,-9.96515,-7.1203,0,0,0,0,0,0,0,-1,734,617,-9.96517,7.12031
-483,407,-9.65875,-7.70862,0.00110424,0.00564798,-0.00288898,0.00705138,-0.000299153,-1.11859,0.00480374,0.0313474,741,617,-9.65876,7.70861
-476,407,-9.7113,-8.26233,0.000825641,0.00431269,-0.00236743,0.00550934,-0.000371006,-1.10279,0.0038026,0.0155074,748,617,-9.7113,8.26234
-469,407,-9.75055,-8.82471,0.000775044,0.00321678,-0.00195801,0.00430336,-0.000311538,-1.06417,0.00297819,0.0133348,755,617,-9.75056,8.8247
-462,407,-9.7851,-9.4444,0.000828115,0.00229633,-0.00157222,0.00329739,-0.000172939,-1.00382,0.00225811,0.0210768,762,617,-9.78509,9.44442
-455,407,-9.79041,-10.0638,0.000896445,0.00142537,-0.00116942,0.00235986,-3.80464e-05,-0.896601,0.00158607,0.022559,769,617,-9.79043,10.0638
-448,407,-9.77228,-10.6154,0.0010325,0.000637148,-0.00078595,0.00164525,2.43962e-05,-0.662197,0.00108879,0.0196165,776,617,-9.77227,10.6154
-441,407,-9.8089,-11.1671,0.00112075,-0.000251749,-0.000331141,0.00119647,-0.000327466,-0.22479,0.000926301,0.0148316,783,617,-9.80891,11.1671
-434,407,-9.86261,-11.725,0.00123717,-0.000978402,0.000105817,0.00124221,-0.000983445,0.0476161,0.00128787,0.0104522,790,617,-9.8626,11.725
-427,407,-9.86951,-12.301,0.00135959,-0.0018032,0.000561614,0.00145636,-0.00189997,0.170622,0.00194341,0.0108737,797,617,-9.86949,12.301
-420,407,-9.8573,-12.8832,0.00145013,-0.00265868,0.00106063,0.00170777,-0.00291632,0.23829,0.00269994,0.0104633,804,617,-9.85729,12.8832
-413,407,-9.84967,-13.4156,0.00160509,-0.00335223,0.00145037,0.00199825,-0.00374538,0.264711,0.00336684,0.0133572,811,617,-9.84969,13.4156
-406,407,-9.93536,-13.801,0.00173324,-0.00433103,0.00187731,0.00226735,-0.00486514,0.277186,0.00420801,0.0386944,818,617,-9.93538,13.801
-399,407,-9.81854,-14.2103,0,0,0,0,0,0,0,-1,825,617,-9.81852,14.2103
-392,407,-8.33612,-12.195,0,0,0,0,0,0,0,-1,832,617,-8.33611,12.195
-385,407,-7.65765,-10.7744,0,0,0,0,0,0,0,-1,839,617,-7.65767,10.7744
-378,407,-6.08655,-7.42291,0,0,0,0,0,0,0,-1,846,617,-6.08652,7.42292
-371,407,-7.4007,-5.79449,0,0,0,0,0,0,0,-1,853,617,-7.40072,5.79447
-364,407,-10.0638,-6.6228,0,0,0,0,0,0,0,-1,860,617,-10.0639,6.62279
-357,407,-6.64447,-1.83337,0,0,0,0,0,0,0,-1,867,617,-6.64446,1.8334
-350,407,-7.03351,-1.77551,0,0,0,0,0,0,0,-1,874,617,-7.03349,1.77551
-343,407,-7.40967,-1.95026,0,0,0,0,0,0,0,-1,881,617,-7.40969,1.95026
-336,407,-8.10229,-2.40662,0,0,0,0,0,0,0,-1,888,617,-8.10229,2.40664
-329,407,-8.81232,-2.76331,0,0,0,0,0,0,0,-1,895,617,-8.81235,2.76331
-322,407,0,0,0,0,0,0,0,0,0,-1,902,617,0,0
-315,407,0,0,0,0,0,0,0,0,0,-1,909,617,0,0
-308,407,0,0,0,0,0,0,0,0,0,-1,916,617,0,0
-301,407,0,0,0,0,0,0,0,0,0,-1,923,617,0,0
-294,407,0,0,0,0,0,0,0,0,0,-1,930,617,0,0
-287,407,0,0,0,0,0,0,0,0,0,-1,937,617,0,0
-280,407,0,0,0,0,0,0,0,0,0,-1,944,617,0,0
-273,407,0,0,0,0,0,0,0,0,0,-1,951,617,0,0
-266,407,0,0,0,0,0,0,0,0,0,-1,958,617,0,0
-259,407,0,0,0,0,0,0,0,0,0,-1,965,617,0,0
-252,407,0,0,0,0,0,0,0,0,0,-1,972,617,0,0
-245,407,0,0,0,0,0,0,0,0,0,-1,979,617,0,0
-238,407,0,0,0,0,0,0,0,0,0,-1,986,617,0,0
-231,407,0,0,0,0,0,0,0,0,0,-1,993,617,0,0
-224,407,0,0,0,0,0,0,0,0,0,-1,1000,617,0,0
-217,407,0,0,0,0,0,0,0,0,0,-1,1007,617,0,0
-210,407,0,0,0,0,0,0,0,0,0,-1,1014,617,0,0
-203,407,0,0,0,0,0,0,0,0,0,-1,1021,617,0,0
-196,407,0,0,0,0,0,0,0,0,0,-1,1028,617,0,0
-189,407,0,0,0,0,0,0,0,0,0,-1,1035,617,0,0
-182,407,0,0,0,0,0,0,0,0,0,-1,1042,617,0,0
-175,407,0,0,0,0,0,0,0,0,0,-1,1049,617,0,0
-168,407,0,0,0,0,0,0,0,0,0,-1,1056,617,0,0
-161,407,0,0,0,0,0,0,0,0,0,-1,1063,617,0,0
-154,407,0,0,0,0,0,0,0,0,0,-1,1070,617,0,0
-147,407,0,0,0,0,0,0,0,0,0,-1,1077,617,0,0
-140,407,0,0,0,0,0,0,0,0,0,-1,1084,617,0,0
-133,407,0,0,0,0,0,0,0,0,0,-1,1091,617,0,0
-126,407,0,0,0,0,0,0,0,0,0,-1,1098,617,0,0
-119,407,0,0,0,0,0,0,0,0,0,-1,1105,617,0,0
-112,407,0,0,0,0,0,0,0,0,0,-1,1112,617,0,0
-105,407,0,0,0,0,0,0,0,0,0,-1,1119,617,0,0
-98,407,0,0,0,0,0,0,0,0,0,-1,1126,617,0,0
-91,407,0,0,0,0,0,0,0,0,0,-1,1133,617,0,0
-84,407,0,0,0,0,0,0,0,0,0,-1,1140,617,0,0
-77,407,0,0,0,0,0,0,0,0,0,-1,1147,617,0,0
-70,407,0,0,0,0,0,0,0,0,0,-1,1154,617,0,0
-63,407,0,0,0,0,0,0,0,0,0,-1,1161,617,0,0
-56,407,0,0,0,0,0,0,0,0,0,-1,1168,617,0,0
-49,407,0,0,0,0,0,0,0,0,0,-1,1175,617,0,0
-42,407,0,0,0,0,0,0,0,0,0,-1,1182,617,0,0
-35,407,0,0,0,0,0,0,0,0,0,-1,1189,617,0,0
-28,407,0,0,0,0,0,0,0,0,0,-1,1196,617,0,0
-21,407,0,0,0,0,0,0,0,0,0,-1,1203,617,0,0
-14,407,0,0,0,0,0,0,0,0,0,-1,1210,617,0,0
-7,407,0,0,0,0,0,0,0,0,0,-1,1217,617,0,0
0,407,0,0,0,0,0,0,0,0,0,-1,1224,617,0,0
7,407,0,0,0,0,0,0,0,0,0,-1,1231,617,0,0
14,407,0,0,0,0,0,0,0,0,0,-1,1238,617,0,0
21,407,0,0,0,0,0,0,0,0,0,-1,1245,617,0,0
28,407,0,0,0,0,0,0,0,0,0,-1,1252,617,0,0
35,407,0,0,0,0,0,0,0,0,0,-1,1259,617,0,0
42,407,0,0,0,0,0,0,0,0,0,-1,1266,617,0,0
49,407,0,0,0,0,0,0,0,0,0,-1,1273,617,0,0
56,407,0,0,0,0,0,0,0,0,0,-1,1280,617,0,0
63,407,0,0,0,0,0,0,0,0,0,-1,1287,617,0,0
70,407,0,0,0,0,0,0,0,0,0,-1,1294,617,0,0
77,407,0,0,0,0,0,0,0,0,0,-1,1301,617,0,0
84,407,0,0,0,0,0,0,0,0,0,-1,1308,617,0,0
91,407,0,0,0,0,0,0,0,0,0,-1,1315,617,0,0
98,407,0,0,0,0,0,0,0,0,0,-1,1322,617,0,0
105,407,0,0,0,0,0,0,0,0,0,-1,1329,617,0,0
112,407,0,0,0,0,0,0,0,0,0,-1,1336,617,0,0
119,407,0,0,0,0,0,0,0,0,0,-1,1343,617,0,0
126,407,0,0,0,0,0,0,0,0,0,-1,1350,617,0,0
133,407,0,0,0,0,0,0,0,0,0,-1,1357,617,0,0
140,407,0,0,0,0,0,0,0,0,0,-1,1364,617,0,0
147,407,0,0,0,0,0,0,0,0,0,-1,1371,617,0,0
154,407,0,0,0,0,0,0,0,0,0,-1,1378,617,0,0
161,407,0,0,0,0,0,0,0,0,0,-1,1385,617,0,0
168,407,0,0,0,0,0,0,0,0,0,-1,1392,617,0,0
175,407,0,0,0,0,0,0,0,0,0,-1,1399,617,0,0
182,407,0,0,0,0,0,0,0,0,0,-1,1406,617,0,0
189,407,0,0,0,0,0,0,0,0,0,-1,1413,617,0,0
196,407,0,0,0,0,0,0,0,0,0,-1,1420,617,0,0
203,407,0,0,0,0,0,0,0,0,0,-1,1427,617,0,0
210,407,0,0,0,0,0,0,0,0,0,-1,1434,617,0,0
217,407,0,0,0,0,0,0,0,0,0,-1,1441,617,0,0
224,407,0,0,0,0,0,0,0,0,0,-1,1448,617,0,0
231,407,0,0,0,0,0,0,0,0,0,-1,1455,617,0,0
238,407,0,0,0,0,0,0,0,0,0,-1,1462,617,0,0
245,407,0,0,0,0,0,0,0,0,0,-1,1469,617,0,0
252,407,0,0,0,0,0,0,0,0,0,-1,1476,617,0,0
259,407,0,0,0,0,0,0,0,0,0,-1,1483,617,0,0
266,407,0,0,0,0,0,0,0,0,0,-1,1490,617,0,0
273,407,0,0,0,0,0,0,0,0,0,-1,1497,617,0,0
280,407,0,0,0,0,0,0,0,0,0,-1,1504,617,0,0
287,407,0,0,0,0,0,0,0,0,0,-1,1511,617,0,0
294,407,0,0,0,0,0,0,0,0,0,-1,1518,617,0,0
301,407,0,0,0,0,0,0,0,0,0,-1,1525,617,0,0
308,407,0,0,0,0,0,0,0,0,0,-1,1532,617,0,0
315,407,0,0,0,0,0,0,0,0,0,-1,1539,617,0,0
322,407,0,0,0,0,0,0,0,0,0,-1,1546,617,0,0
329,407,0,0,0,0,0,0,0,0,0,-1,1553,617,0,0
336,407,0,0,0,0,0,0,0,0,0,-1,1560,617,0,0
343,407,0,0,0,0,0,0,0,0,0,-1,1567,617,0,0
350,407,0,0,0,0,0,0,0,0,0,-1,1574,617,0,0
357,407,0,0,0,0,0,0,0,0,0,-1,1581,617,0,0
364,407,0,0,0,0,0,0,0,0,0,-1,1588,617,0,0
371,407,0,0,0,0,0,0,0,0,0,-1,1595,617,0,0
378,407,0,0,0,0,0,0,0,0,0,-1,1602,617,0,0
385,407,0,0,0,0,0,0,0,0,0,-1,1609,617,0,0
392,407,0,0,0,0,0,0,0,0,0,-1,1616,617,0,0
399,407,0,0,0,0,0,0,0,0,0,-1,1623,617,0,0
406,407,0,0,0,0,0,0,0,0,0,-1,1630,617,0,0
413,407,0,0,0,0,0,0,0,0,0,-1,1637,617,0,0
420,407,0,0,0,0,0,0,0,0,0,-1,1644,617,0,0
427,407,0,0,0,0,0,0,0,0,0,-1,1651,617,0,0
434,407,0,0,0,0,0,0,0,0,0,-1,1658,617,0,0
441,407,0,0,0,0,0,0,0,0,0,-1,1665,617,0,0
448,407,7.02893,2.13843,0,0,0,0,0,0,0,-1,1672,617,7.02899,-2.13844
455,407,7.55237,2.29242,0,0,0,0,0,0,0,-1,1679,617,7.55236,-2.29244
462,407,8.2926,2.46173,0,0,0,0,0,0,0,-1,1686,617,8.29261,-2.46174
469,407,8.71509,2.22681,0,0,0,0,0,0,0,-1,1693,617,8.71511,-2.22681
476,407,8.89917,1.47766,0,0,0,0,0,0,0,-1,1700,617,8.89914,-1.47768
483,407,9.02612,0.682983,0,0,0,0,0,0,0,-1,1707,617,9.02608,-0.683004
490,407,9.12659,0.000671387,0,0,0,0,0,0,0,-1,1714,617,9.12653,-0.000675931
497,407,7.76819,0.855835,0,0,0,0,0,0,0,-1,1721,617,7.7682,-0.855865
504,407,4.69336,0.160706,0,0,0,0,0,0,0,-1,1728,617,4.69337,-0.1607
511,407,4.07104,-0.00140381,0,0,0,0,0,0,0,-1,1735,617,4.07109,0.00141425
518,407,6.09534,1.9411,0,0,0,0,0,0,0,-1,1742,617,6.09532,-1.94113
525,407,5.72534,-1.35986,0,0,0,0,0,0,0,-1,1749,617,5.72529,1.35988
532,407,18.5767,-10.6388,0,0,0,0,0,0,0,-1,1756,617,18.5766,10.6388
539,407,20.2263,-12.0555,0,0,0,0,0,0,0,-1,1763,617,20.2263,12.0555
546,407,20.2885,-11.4319,0.00537807,0.00187256,0.00207267,0.00633974,0.000910883,0.434416,0.00395796,0.0204164,1770,617,20.2885,11.4319
553,407,20.2628,-10.8555,0.00446041,0.00136361,0.00159189,0.00513274,0.000691277,0.399624,0.00321626,0.016044,1777,617,20.2628,10.8555
560,407,20.2667,-10.2281,0.0035948,0.00101042,0.00123288,0.00408859,0.000516623,0.380956,0.00257088,0.0163018,1784,617,20.2668,10.2282
567,407,20.2197,-9.68243,0.00284047,0.000822085,0.00100305,0.00325415,0.000408404,0.391172,0.00204693,0.0281966,1791,617,20.2198,9.68241
574,407,20.2051,-9.1203,0.00230708,0.000888215,0.000966699,0.00279673,0.000398565,0.468849,0.00174686,0.0259046,1798,617,20.205,9.12028
581,407,20.2142,-8.44775,0.00195263,0.00118135,0.00109639,0.00272922,0.00040476,0.616287,0.00170069,0.0184141,1805,617,20.2143,8.44778
588,407,20.1725,-7.86774,0.00174743,0.00174301,0.00135046,0.00309568,0.000394757,0.784581,0.0019456,0.0127424,1812,617,20.1725,7.86775
595,407,20.167,-7.27448,0.00182816,0.0025083,0.00180507,0.00400506,0.000331401,0.878505,0.00256671,0.0236327,1819,617,20.167,7.27446
602,407,20.1442,-6.61084,0.00220752,0.0035705,0.00247664,0.0054577,0.000320319,0.919658,0.00353653,0.0199684,1826,617,20.1442,6.61085
609,407,20.0668,-5.97729,0.00289128,0.00494175,0.00338603,0.00745436,0.000378677,0.932402,0.00484828,0.016921,1833,617,20.0667,5.97729
616,407,20.1305,-5.25092,0.00389777,0.00676533,0.00453552,0.0100883,0.0005748,0.938489,0.00654236,0.0291396,1840,617,20.1305,5.25091
623,407,20.4032,-4.40387,0,0,0,0,0,0,0,-1,1847,617,20.4032,4.40388
630,407,7.06177,0.814575,0,0,0,0,0,0,0,-1,1854,617,7.06178,-0.814579
637,407,9.54077,0.151917,0,0,0,0,0,0,0,-1,1861,617,9.5408,-0.151923
644,407,5.09766,2.27747,0,0,0,0,0,0,0,-1,1868,617,5.09764,-2.27746
651,407,7.37524,0.0513916,0,0,0,0,0,0,0,-1,1875,617,7.3752,-0.0513923
658,407,3.76685,0.594177,0,0,0,0,0,0,0,-1,1882,617,3.76683,-0.594184
665,407,5.76123,0.375061,0,0,0,0,0,0,0,-1,1889,617,5.76118,-0.37509
672,407,0,0,0,0,0,0,0,0,0,-1,1896,617,0,0
679,407,0,0,0,0,0,0,0,0,0,-1,1903,617,0,0
686,407,0,0,0,0,0,0,0,0,0,-1,1910,617,0,0
693,407,0,0,0,0,0,0,0,0,0,-1,1917,617,0,0
700,407,0,0,0,0,0,0,0,0,0,-1,1924,617,0,0
707,407,0,0,0,0,0,0,0,0,0,-1,1931,617,0,0
714,407,0,0,0,0,0,0,0,0,0,-1,1938,617,0,0
721,407,0,0,0,0,0,0,0,0,0,-1,1945,617,0,0
728,407,0,0,0,0,0,0,0,0,0,-1,1952,617,0,0
735,407,0,0,0,0,0,0,0,0,0,-1,1959,617,0,0
742,407,0,0,0,0,0,0,0,0,0,-1,1966,617,0,0
749,407,0,0,0,0,0,0,0,0,0,-1,1973,617,0,0
756,407,0,0,0,0,0,0,0,0,0,-1,1980,617,0,0
763,407,0,0,0,0,0,0,0,0,0,-1,1987,617,0,0
770,407,0,0,0,0,0,0,0,0,0,-1,1994,617,0,0
777,407,0,0,0,0,0,0,0,0,0,-1,2001,617,0,0
784,407,0,0,0,0,0,0,0,0,0,-1,2008,617,0,0
791,407,0,0,0,0,0,0,0,0,0,-1,2015,617,0,0
798,407,0,0,0,0,0,0,0,0,0,-1,2022,617,0,0
805,407,0,0,0,0,0,0,0,0,0,-1,2029,617,0,0
812,407,0,0,0,0,0,0,0,0,0,-1,2036,617,0,0
-700,400,0,0,0,0,0,0,0,0,0,-1,524,624,0,0
-693,400,0,0,0,0,0,0,0,0,0,-1,531,624,0,0
-686,400,0,0,0,0,0,0,0,0,0,-1,538,624,0,0
-679,400,0,0,0,0,0,0,0,0,0,-1,545,624,0,0
-672,400,0,0,0,0,0,0,0,0,0,-1,552,624,0,0
-665,400,0,0,0,0,0,0,0,0,0,-1,559,624,0,0
-658,400,0,0,0,0,0,0,0,0,0,-1,566,624,0,0
-651,400,0,0,0,0,0,0,0,0,0,-1,573,624,0,0
-644,400,0,0,0,0,0,0,0,0,0,-1,580,624,0,0
-637,400,0,0,0,0,0,0,0,0,0,-1,587,624,0,0
-630,400,0,0,0,0,0,0,0,0,0,-1,594,624,0,0
-623,400,0,0,0,0,0,0,0,0,0,-1,601,624,0,0
-616,400,0,0,0,0,0,0,0,0,0,-1,608,624,0,0
-609,400,0,0,0,0,0,0,0,0,0,-1,615,624,0,0
-602,400,0,0,0,0,0,0,0,0,0,-1,622,624,0,0
-595,400,0,0,0,0,0,0,0,0,0,-1,629,624,0,0
-588,400,0,0,0,0,0,0,0,0,0,-1,636,624,0,0
-581,400,0,0,0,0,0,0,0,0,0,-1,643,624,0,0
-574,400,0,0,0,0,0,0,0,0,0,-1,650,624,0,0
-567,400,0,0,0,0,0,0,0,0,0,-1,657,624,0,0
-560,400,0,0,0,0,0,0,0,0,0,-1,664,624,0,0
-553,400,0,0,0,0,0,0,0,0,0,-1,671,624,0,0
-546,400,-8.41174,-1.4599,0,0,0,0,0,0,0,-1,678,624,-8.41173,1.45989
-539,400,-5.69104,-1.7337,0,0,0,0,0,0,0,-1,685,624,-5.69103,1.7337
-532,400,-3.03632,-2.03912,0,0,0,0,0,0,0,-1,692,624,-3.03632,2.03909
-525,400,-6.20813,-7.04071,0,0,0,0,0,0,0,-1,699,624,-6.20814,7.04071
-518,400,-5.26544,-1.58661,0,0,0,0,0,0,0,-1,706,624,-5.26544,1.58658
-511,400,-10.6307,-6.7121,0,0,0,0,0,0,0,-1,713,624,-10.6307,6.71209
-504,400,-10.2663,-6.55109,0,0,0,0,0,0,0,-1,720,624,-10.2663,6.55106
-497,400,-10.4244,-6.31036,0,0,0,0,0,0,0,-1,727,624,-10.4243,6.31038
-490,400,-10.2451,-6.99182,0.0017235,0.00588389,-0.00290441,0.00737621,0.000231188,-1.09616,0.00484225,0.0305822,734,624,-10.2451,6.99182
-483,400,-10.2587,-7.6615,0.00122964,0.0044386,-0.0023341,0.0056665,1.74181e-06,-1.08651,0.00377708,0.0163656,741,624,-10.2587,7.66151
-476,400,-10.2831,-8.22986,0.00099311,0.00331425,-0.00189934,0.00437953,-7.21677e-05,-1.05965,0.00294404,0.0133866,748,624,-10.2831,8.22983
-469,400,-10.3134,-8.81964,0.000958338,0.00238777,-0.00155866,0.00338777,-4.16626e-05,-1.00037,0.00227253,0.0144961,755,624,-10.3134,8.81962
-462,400,-10.3463,-9.43274,0.00100877,0.00158891,-0.00122719,0.00255984,3.78352e-05,-0.901452,0.00169409,0.019839,762,624,-10.3463,9.43277
-455,400,-10.3575,-10.022,0.0010925,0.000789922,-0.000884904,0.00183895,4.34666e-05,-0.700734,0.00121174,0.0209634,769,624,-10.3575,10.022
-448,400,-10.3588,-10.5905,0.00125472,0.000100551,-0.00056884,0.00148795,-0.000132677,-0.389102,0.00103902,0.0154607,776,624,-10.3588,10.5905
-441,400,-10.3937,-11.1339,0.001373,-0.000674049,-0.00018683,0.00138992,-0.000690961,-0.0902739,0.00122378,0.0146088,783,624,-10.3937,11.1338
-434,400,-10.4396,-11.6799,0.00150945,-0.00135042,0.000202559,0.00152373,-0.00136469,0.0703598,0.00166847,0.0119543,790,624,-10.4396,11.6799
-427,400,-10.454,-12.2406,0.00161091,-0.00218474,0.000660162,0.00172245,-0.00229628,0.16738,0.00232809,0.0102528,797,624,-10.454,12.2406
-420,400,-10.4031,-12.8568,0.00160048,-0.00315023,0.00124864,0.00190867,-0.00345842,0.241985,0.00314146,0.0148186,804,624,-10.4031,12.8567
-413,400,-10.4698,-13.3036,0.00166139,-0.00389081,0.00167548,0.00212782,-0.00435723,0.271507,0.00381718,0.0350785,811,624,-10.4698,13.3036
-406,400,-10.571,-13.7081,0,0,0,0,0,0,0,-1,818,624,-10.571,13.7082
-399,400,-11.0176,-13.2944,0,0,0,0,0,0,0,-1,825,624,-11.0176,13.2944
-392,400,-4.92285,-6.63354,0,0,0,0,0,0,0,-1,832,624,-4.92285,6.63354
-385,400,-3.68738,-5.04205,0,0,0,0,0,0,0,-1,839,624,-3.68736,5.04207
-378,400,-6.84064,-1.28662,0,0,0,0,0,0,0,-1,846,624,-6.84062,1.28662
-371,400,-6.98865,-1.2572,0,0,0,0,0,0,0,-1,853,624,-6.98865,1.25721
-364,400,-6.97247,-1.24133,0,0,0,0,0,0,0,-1,860,624,-6.97249,1.24135
-357,400,-7.18329,-1.23218,0,0,0,0,0,0,0,-1,867,624,-7.18327,1.2322
-350,400,-7.40186,-1.19409,0,0,0,0,0,0,0,-1,874,624,-7.40187,1.19407
-343,400,-8.09357,-1.51147,0,0,0,0,0,0,0,-1,881,624,-8.09355,1.51148
-336,400,0,0,0,0,0,0,0,0,0,-1,888,624,0,0
-329,400,0,0,0,0,0,0,0,0,0,-1,895,624,0,0
-322,400,0,0,0,0,0,0,0,0,0,-1,902,624,0,0
-315,400,0,0,0,0,0,0,0,0,0,-1,909,624,0,0
-308,400,0,0,0,0,0,0,0,0,0,-1,916,624,0,0
-301,400,0,0,0,0,0,0,0,0,0,-1,923,624,0,0
-294,400,0,0,0,0,0,0,0,0,0,-1,930,624,0,0
-287,400,0,0,0,0,0,0,0,0,0,-1,937,624,0,0
-280,400,0,0,0,0,0,0,0,0,0,-1,944,624,0,0
-273,400,0,0,0,0,0,0,0,0,0,-1,951,624,0,0
-266,400,0,0,0,0,0,0,0,0,0,-1,958,624,0,0
-259,400,0,0,0,0,0,0,0,0,0,-1,965,624,0,0
-252,400,0,0,0,0,0,0,0,0,0,-1,972,624,0,0
-245,400,0,0,0,0,0,0,0,0,0,-1,979,624,0,0
-238,400,0,0,0,0,0,0,0,0,0,-1,986,624,0,0
-231,400,0,0,0,0,0,0,0,0,0,-1,993,624,0,0
-224,400,0,0,0,0,0,0,0,0,0,-1,1000,624,0,0
-217,400,0,0,0,0,0,0,0,0,0,-1,1007,624,0,0
-210,400,0,0,0,0,0,0,0,0,0,-1,1014,624,0,0
-203,400,0,0,0,0,0,0,0,0,0,-1,1021,624,0,0
-196,400,0,0,0,0,0,0,0,0,0,-1,1028,624,0,0
-189,400,0,0,0,0,0,0,0,0,0,-1,1035,624,0,0
-182,400,0,0,0,0,0,0,0,0,0,-1,1042,624,0,0
-175,400,0,0,0,0,0,0,0,0,0,-1,1049,624,0,0
-168,400,0,0,0,0,0,0,0,0,0,-1,1056,624,0,0
-161,400,0,0,0,0,0,0,0,0,0,-1,1063,624,0,0
-154,400,0,0,0,0,0,0,0,0,0,-1,1070,624,0,0
-147,400,0,0,0,0,0,0,0,0,0,-1,1077,624,0,0
-140,400,0,0,0,0,0,0,0,0,0,-1,1084,624,0,0
-133,400,0,0,0,0,0,0,0,0,0,-1,1091,624,0,0
-126,400,0,0,0,0,0,0,0,0,0,-1,1098,624,0,0
-119,400,0,0,0,0,0,0,0,0,0,-1,1105,624,0,0
-112,400,0,0,0,0,0,0,0,0,0,-1,1112,624,0,0
-105,400,0,0,0,0,0,0,0,0,0,-1,1119,624,0,0
-98,400,0,0,0,0,0,0,0,0,0,-1,1126,624,0,0
-91,400,0,0,0,0,0,0,0,0,0,-1,1133,624,0,0
-84,400,0,0,0,0,0,0,0,0,0,-1,1140,624,0,0
-77,400,0,0,0,0,0,0,0,0,0,-1,1147,624,0,0
-70,400,0,0,0,0,0,0,0,0,0,-1,1154,624,0,0
-63,400,0,0,0,0,0,0,0,0,0,-1,1161,624,0,0
-56,400,0,0,0,0,0,0,0,0,0,-1,1168,624,0,0
-49,400,0,0,0,0,0,0,0,0,0,-1,1175,624,0,0
-42,400,0,0,0,0,0,0,0,0,0,-1,1182,624,0,0
-35,400,0,0,0,0,0,0,0,0,0,-1,1189,624,0,0
-28,400,0,0,0,0,0,0,0,0,0,-1,1196,624,0,0
-21,400,0,0,0,0,0,0,0,0,0,-1,1203,624,0,0
-14,400,0,0,0,0,0,0,0,0,0,-1,1210,624,0,0
-7,400,0,0,0,0,0,0,0,0,0,-1,1217,624,0,0
0,400,0,0,0,0,0,0,0,0,0,-1,1224,624,0,0
7,400,0,0,0,0,0,0,0,0,0,-1,1231,624,0,0
14,400,0,0,0,0,0,0,0,0,0,-1,1238,624,0,0
21,400,0,0,0,0,0,0,0,0,0,-1,1245,624,0,0
28,400,0,0,0,0,0,0,0,0,0,-1,1252,624,0,0
35,400,0,0,0,0,0,0,0,0,0,-1,1259,624,0,0
42,400,0,0,0,0,0,0,0,0,0,-1,1266,624,0,0
49,400,0,0,0,0,0,0,0,0,0,-1,1273,624,0,0
56,400,0,0,0,0,0,0,0,0,0,-1,1280,624,0,0
63,400,0,0,0,0,0,0,0,0,0,-1,1287,624,0,0
70,400,0,0,0,0,0,0,0,0,0,-1,1294,624,0,0
77,400,0,0,0,0,0,0,0,0,0,-1,1301,624,0,0
84,400,0,0,0,0,0,0,0,0,0,-1,1308,624,0,0
91,400,0,0,0,0,0,0,0,0,0,-1,1315,624,0,0
98,400,0,0,0,0,0,0,0,0,0,-1,1322,624,0,0
105,400,0,0,0,0,0,0,0,0,0,-1,1329,624,0,0
112,400,0,0,0,0,0,0,0,0,0,-1,1336,624,0,0
119,400,0,0,0,0,0,0,0,0,0,-1,1343,624,0,0
126,400,0,0,0,0,0,0,0,0,0,-1,1350,624,0,0
133,400,0,0,0,0,0,0,0,0,0,-1,1357,624,0,0
140,400,0,0,0,0,0,0,0,0,0,-1,1364,624,0,0
147,400,0,0,0,0,0,0,0,0,0,-1,1371,624,0,0
154,400,0,0,0,0,0,0,0,0,0,-1,1378,624,0,0
161,400,0,0,0,0,0,0,0,0,0,-1,1385,624,0,0
168,400,0,0,0,0,0,0,0,0,0,-1,1392,624,0,0
175,400,0,0,0,0,0,0,0,0,0,-1,1399,624,0,0
182,400,0,0,0,0,0,0,0,0,0,-1,1406,624,0,0
189,400,0,0,0,0,0,0,0,0,0,-1,1413,624,0,0
196,400,0,0,0,0,0,0,0,0,0,-1,1420,624,0,0
203,400,0,0,0,0,0,0,0,0,0,-1,1427,624,0,0
210,400,0,0,0,0,0,0,0,0,0,-1,1434,624,0,0
217,400,0,0,0,0,0,0,0,0,0,-1,1441,624,0,0
224,400,0,0,0,0,0,0,0,0,0,-1,1448,624,0,0
231,400,0,0,0,0,0,0,0,0,0,-1,1455,624,0,0
238,400,0,0,0,0,0,0,0,0,0,-1,1462,624,0,0
245,400,0,0,0,0,0,0,0,0,0,-1,1469,624,0,0
252,400,0,0,0,0,0,0,0,0,0,-1,1476,624,0,0
259,400,0,0,0,0,0,0,0,0,0,-1,1483,624,0,0
266,400,0,0,0,0,0,0,0,0,0,-1,1490,624,0,0
273,400,0,0,0,0,0,0,0,0,0,-1,1497,624,0,0
280,400,0,0,0,0,0,0,0,0,0,-1,1504,624,0,0
287,400,0,0,0,0,0,0,0,0,0,-1,1511,624,0,0
294,400,0,0,0,0,0,0,0,0,0,-1,1518,624,0,0
301,400,0,0,0,0,0,0,0,0,0,-1,1525,624,0,0
308,400,0,0,0,0,0,0,0,0,0,-1,1532,624,0,0
315,400,0,0,0,0,0,0,0,0,0,-1,1539,624,0,0
322,400,0,0,0,0,0,0,0,0,0,-1,1546,624,0,0
329,400,0,0,0,0,0,0,0,0,0,-1,1553,624,0,0
336,400,0,0,0,0,0,0,0,0,0,-1,1560,624,0,0
343,400,0,0,0,0,0,0,0,0,0,-1,1567,624,0,0
350,400,0,0,0,0,0,0,0,0,0,-1,1574,624,0,0
357,400,0,0,0,0,0,0,0,0,0,-1,1581,624,0,0
364,400,0,0,0,0,0,0,0,0,0,-1,1588,624,0,0
371,400,0,0,0,0,0,0,0,0,0,-1,1595,624,0,0
378,400,0,0,0,0,0,0,0,0,0,-1,1602,624,0,0
385,400,0,0,0,0,0,0,0,0,0,-1,1609,624,0,0
392,400,0,0,0,0,0,0,0,0,0,-1,1616,624,0,0
399,400,0,0,0,0,0,0,0,0,0,-1,1623,624,0,0
406,400,0,0,0,0,0,0,0,0,0,-1,1630,624,0,0
413,400,0,0,0,0,0,0,0,0,0,-1,1637,624,0,0
420,400,0,0,0,0,0,0,0,0,0,-1,1644,624,0,0
427,400,0,0,0,0,0,0,0,0,0,-1,1651,624,0,0
434,400,0,0,0,0,0,0,0,0,0,-1,1658,624,0,0
441,400,0,0,0,0,0,0,0,0,0,-1,1665,624,0,0
448,400,0,0,0,0,0,0,0,0,0,-1,1672,624,0,0
455,400,8.91309,2.75885,0,0,0,0,0,0,0,-1,1679,624,8.91312,-2.75885
462,400,8.90356,2.37878,0,0,0,0,0,0,0,-1,1686,624,8.90353,-2.37878
469,400,9.14429,1.76849,0,0,0,0,0,0,0,-1,1693,624,9.14432,-1.76847
476,400,9.23254,1.25995,0,0,0,0,0,0,0,-1,1700,624,9.23252,-1.25994
483,400,9.59766,0.562439,0,0,0,0,0,0,0,-1,1707,624,9.59771,-0.56242
490,400,9.92578,-0.213745,0,0,0,0,0,0,0,-1,1714,624,9.92579,0.21376
497,400,9.19141,0.175232,0,0,0,0,0,0,0,-1,1721,624,9.19138,-0.175209
504,400,9.23438,0.00823975,0,0,0,0,0,0,0,-1,1728,624,9.23436,-0.00823766
511,400,6.16687,3.3501,0,0,0,0,0,0,0,-1,1735,624,6.16682,-3.35007
518,400,6.55237,1.74994,0,0,0,0,0,0,0,-1,1742,624,6.55236,-1.74993
525,400,6.99731,1.08783,0,0,0,0,0,0,0,-1,1749,624,6.99736,-1.08785
532,400,6.96582,-1.74982,0,0,0,0,0,0,0,-1,1756,624,6.96585,1.74983
539,400,21.2305,-10.5841,0,0,0,0,0,0,0,-1,1763,624,21.2304,10.5841
546,400,20.7518,-11.5389,0,0,0,0,0,0,0,-1,1770,624,20.7519,11.5389
553,400,20.8132,-10.8513,0.00553721,0.00120323,0.00170444,0.0061272,0.00061324,0.333242,0.00389651,0.037161,1777,624,20.8132,10.8513
560,400,20.8502,-10.2018,0.00445978,0.000827,0.00129595,0.0048747,0.00041208,0.309855,0.00312152,0.0157244,1784,624,20.8502,10.2018
567,400,20.8247,-9.62646,0.00349419,0.00059558,0.000998761,0.003805,0.000284769,0.301697,0.00244727,0.0178222,1791,624,20.8247,9.62646
574,400,20.823,-9.0791,0.00279718,0.000667529,0.000928075,0.00314486,0.000319847,0.358443,0.00199851,0.0199663,1798,624,20.823,9.07908
581,400,20.8,-8.44501,0.00229969,0.000972125,0.00103376,0.00286442,0.000407388,0.499995,0.00178935,0.0197022,1805,624,20.8,8.44501
588,400,20.7545,-7.80444,0.00196771,0.00151317,0.00125906,0.00301985,0.000461027,0.696107,0.00187851,0.0157866,1812,624,20.7545,7.80446
595,400,20.7598,-7.21729,0.00194132,0.00219365,0.00166289,0.00373516,0.000399816,0.823261,0.00236811,0.0147356,1819,624,20.7597,7.21727
602,400,20.7321,-6.60541,0.00223538,0.00315842,0.00229124,0.00503416,0.000359635,0.884782,0.00324288,0.0143213,1826,624,20.7321,6.60538
609,400,20.6537,-5.98944,0.00270688,0.00433424,0.00306637,0.00669305,0.000348071,0.915087,0.00435065,0.0140672,1833,624,20.6537,5.98944
616,400,20.6517,-5.37817,0.00325221,0.00573162,0.00390093,0.0085851,0.000398736,0.93925,0.00559522,0.0180231,1840,624,20.6517,5.37818
623,400,20.705,-4.74176,0,0,0,0,0,0,0,-1,1847,624,20.7049,4.74175
630,400,11.9432,0.09021,0,0,0,0,0,0,0,-1,1854,624,11.9432,-0.0902007
637,400,6.92896,1.01917,0,0,0,0,0,0,0,-1,1861,624,6.92899,-1.01918
644,400,8.65381,1.4599,0,0,0,0,0,0,0,-1,1868,624,8.65379,-1.45991
651,400,7.90601,0.424072,0,0,0,0,0,0,0,-1,1875,624,7.90598,-0.424097
658,400,8.69031,1.0484,0,0,0,0,0,0,0,-1,1882,624,8.6903,-1.0484
665,400,5.98438,0.522522,0,0,0,0,0,0,0,-1,1889,624,5.98442,-0.522552
672,400,0,0,0,0,0,0,0,0,0,-1,1896,624,0,0
679,400,0,0,0,0,0,0,0,0,0,-1,1903,624,0,0
686,400,0,0,0,0,0,0,0,0,0,-1,1910,624,0,0
693,400,0,0,0,0,0,0,0,0,0,-1,1917,624,0,0
700,400,0,0,0,0,0,0,0,0,0,-1,1924,624,0,0
707,400,0,0,0,0,0,0,0,0,0,-1,1931,624,0,0
714,400,0,0,0,0,0,0,0,0,0,-1,1938,624,0,0
721,400,0,0,0,0,0,0,0,0,0,-1,1945,624,0,0
728,400,0,0,0,0,0,0,0,0,0,-1,1952,624,0,0
735,400,0,0,0,0,0,0,0,0,0,-1,1959,624,0,0
742,400,0,0,0,0,0,0,0,0,0,-1,1966,624,0,0
749,400,0,0,0,0,0,0,0,0,0,-1,1973,624,0,0
756,400,0,0,0,0,0,0,0,0,0,-1,1980,624,0,0
763,400,0,0,0,0,0,0,0,0,0,-1,1987,624,0,0
770,400,0,0,0,0,0,0,0,0,0,-1,1994,624,0,0
777,400,0,0,0,0,0,0,0,0,0,-1,2001,624,0,0
784,400,0,0,0,0,0,0,0,0,0,-1,2008,624,0,0
791,400,0,0,0,0,0,0,0,0,0,-1,2015,624,0,0
798,400,0,0,0,0,0,0,0,0,0,-1,2022,624,0,0
805,400,0,0,0,0,0,0,0,0,0,-1,2029,624,0,0
812,400,0,0,0,0,0,0,0,0,0,-1,2036,624,0,0
-700,393,0,0,0,0,0,0,0,0,0,-1,524,631,0,0
-693,393,0,0,0,0,0,0,0,0,0,-1,531,631,0,0
-686,393,0,0,0,0,0,0,0,0,0,-1,538,631,0,0
-679,393,0,0,0,0,0,0,0,0,0,-1,545,631,0,0
-672,393,0,0,0,0,0,0,0,0,0,-1,552,631,0,0
-665,393,0,0,0,0,0,0,0,0,0,-1,559,631,0,0
-658,393,0,0,0,0,0,0,0,0,0,-1,566,631,0,0
-651,393,0,0,0,0,0,0,0,0,0,-1,573,631,0,0
-644,393,0,0,0,0,0,0,0,0,0,-1,580,631,0,0
-637,393,0,0,0,0,0,0,0,0,0,-1,587,631,0,0
-630,393,0,0,0,0,0,0,0,0,0,-1,594,631,0,0
-623,393,0,0,0,0,0,0,0,0,0,-1,601,631,0,0
-616,393,0,0,0,0,0,0,0,0,0,-1,608,631,0,0
-609,393,0,0,0,0,0,0,0,0,0,-1,615,631,0,0
-602,393,0,0,0,0,0,0,0,0,0,-1,622,631,0,0
-595,393,0,0,0,0,0,0,0,0,0,-1,629,631,0,0
-588,393,0,0,0,0,0,0,0,0,0,-1,636,631,0,0
-581,393,0,0,0,0,0,0,0,0,0,-1,643,631,0,0
-574,393,0,0,0,0,0,0,0,0,0,-1,650,631,0,0
-567,393,0,0,0,0,0,0,0,0,0,-1,657,631,0,0
-560,393,0,0,0,0,0,0,0,0,0,-1,664,631,0,0
-553,393,-2.35107,3.92633,0,0,0,0,0,0,0,-1,671,631,-2.35108,-3.92634
-546,393,-1.78778,2.4856,0,0,0,0,0,0,0,-1,678,631,-1.78778,-2.48557
-539,393,-5.2113,-2.20245,0,0,0,0,0,0,0,-1,685,631,-5.21128,2.20247
-532,393,-2.83643,-2.01624,0,0,0,0,0,0,0,-1,692,631,-2.83642,2.01626
-525,393,-5.9505,-0.952698,0,0,0,0,0,0,0,-1,699,631,-5.95053,0.95268
-518,393,-5.80219,-1.57739,0,0,0,0,0,0,0,-1,706,631,-5.80219,1.57738
-511,393,-6.15527,-2.09906,0,0,0,0,0,0,0,-1,713,631,-6.15526,2.09903
-504,393,-11.2159,-5.12469,0,0,0,0,0,0,0,-1,720,631,-11.2159,5.12469
-497,393,-10.8812,-6.10364,0.00185386,0.00595437,-0.00274574,0.00733088,0.000477362,-1.10609,0.00473616,0.0403853,727,631,-10.8811,6.10361
-490,393,-10.8373,-7.03076,0.00149657,0.0046175,-0.00226057,0.0058039,0.000310183,-1.08749,0.00377013,0.0203109,734,631,-10.8373,7.03075
-483,393,-10.837,-7.65436,0.00120693,0.00345457,-0.00183629,0.00448364,0.000177868,-1.06,0.0029316,0.0200199,741,631,-10.837,7.65434
-476,393,-10.855,-8.21265,0.00113442,0.00253424,-0.00153571,0.00352201,0.000146645,-0.999215,0.00230068,0.0169208,748,631,-10.855,8.21263
-469,393,-10.8803,-8.78955,0.00115104,0.00175136,-0.00126921,0.00275542,0.000146979,-0.901512,0.00178997,0.0128441,755,631,-10.8803,8.78957
-462,393,-10.9168,-9.40485,0.00121663,0.00107971,-0.00100247,0.00215297,0.000143361,-0.751305,0.00139,0.0154524,762,631,-10.9168,9.40484
-455,393,-10.9511,-10.0027,0.0013373,0.000369016,-0.000735063,0.00173334,-2.70185e-05,-0.494185,0.00116467,0.0147138,769,631,-10.9511,10.0027
-448,393,-10.9718,-10.5873,0.0015482,-0.000217776,-0.00049776,0.00167883,-0.000348412,-0.256659,0.00125163,0.0139273,776,631,-10.9718,10.5874
-441,393,-10.9888,-11.1384,0.0017419,-0.000831774,-0.000223465,0.00176116,-0.000851033,-0.08597,0.00153836,0.0133027,783,631,-10.9888,11.1385
-434,393,-11.0054,-11.6536,0.00194494,-0.00143878,8.22102e-05,0.00194694,-0.00144077,0.0242767,0.00196316,0.0124955,790,631,-11.0054,11.6536
-427,393,-10.9788,-12.2378,0.00206412,-0.00227537,0.000521533,0.00212592,-0.00233717,0.117945,0.00257773,0.0209294,797,631,-10.9788,12.2378
-420,393,-10.9999,-12.7959,0.00197222,-0.00337345,0.00121301,0.00223459,-0.00363582,0.213017,0.00342132,0.0452651,804,631,-10.9999,12.7959
-413,393,-11.2332,-13.3528,0,0,0,0,0,0,0,-1,811,631,-11.2331,13.3528
-406,393,-11.826,-12.7987,0,0,0,0,0,0,0,-1,818,631,-11.8261,12.7987
-399,393,-5.07343,-5.92365,0,0,0,0,0,0,0,-1,825,631,-5.07344,5.92364
-392,393,-2.08063,-3.02386,0,0,0,0,0,0,0,-1,832,631,-2.08063,3.02384
-385,393,-3.16931,-0.624756,0,0,0,0,0,0,0,-1,839,631,-3.16928,0.624764
-378,393,-7.33081,-0.872314,0,0,0,0,0,0,0,-1,846,631,-7.33081,0.872325
-371,393,-7.47858,-0.811096,0,0,0,0,0,0,0,-1,853,631,-7.47859,0.811075
-364,393,-7.64917,-0.662415,0,0,0,0,0,0,0,-1,860,631,-7.64917,0.662406
-357,393,-8.09686,-0.726013,0,0,0,0,0,0,0,-1,867,631,-8.09689,0.726029
-350,393,-8.38788,-0.511841,0,0,0,0,0,0,0,-1,874,631,-8.38785,0.511811
-343,393,0,0,0,0,0,0,0,0,0,-1,881,631,0,0
-336,393,0,0,0,0,0,0,0,0,0,-1,888,631,0,0
-329,393,0,0,0,0,0,0,0,0,0,-1,895,631,0,0
-322,393,0,0,0,0,0,0,0,0,0,-1,902,631,0,0
-315,393,0,0,0,0,0,0,0,0,0,-1,909,631,0,0
-308,393,0,0,0,0,0,0,0,0,0,-1,916,631,0,0
-301,393,0,0,0,0,0,0,0,0,0,-1,923,631,0,0
-294,393,0,0,0,0,0,0,0,0,0,-1,930,631,0,0
-287,393,0,0,0,0,0,0,0,0,0,-1,937,631,0,0
-280,393,0,0,0,0,0,0,0,0,0,-1,944,631,0,0
-273,393,0,0,0,0,0,0,0,0,0,-1,951,631,0,0
-266,393,0,0,0,0,0,0,0,0,0,-1,958,631,0,0
-259,393,0,0,0,0,0,0,0,0,0,-1,965,631,0,0
-252,393,0,0,0,0,0,0,0,0,0,-1,972,631,0,0
-245,393,0,0,0,0,0,0,0,0,0,-1,979,631,0,0
-238,393,0,0,0,0,0,0,0,0,0,-1,986,631,0,0
-231,393,0,0,0,0,0,0,0,0,0,-1,993,631,0,0
-224,393,0,0,0,0,0,0,0,0,0,-1,1000,631,0,0
-217,393,0,0,0,0,0,0,0,0,0,-1,1007,631,0,0
-210,393,0,0,0,0,0,0,0,0,0,-1,1014,631,0,0
-203,393,0,0,0,0,0,0,0,0,0,-1,1021,631,0,0
-196,393,0,0,0,0,0,0,0,0,0,-1,1028,631,0,0
-189,393,0,0,0,0,0,0,0,0,0,-1,1035,631,0,0
-182,393,0,0,0,0,0,0,0,0,0,-1,1042,631,0,0
-175,393,0,0,0,0,0,0,0,0,0,-1,1049,631,0,0
-168,393,0,0,0,0,0,0,0,0,0,-1,1056,631,0,0
-161,393,0,0,0,0,0,0,0,0,0,-1,1063,631,0,0
-154,393,0,0,0,0,0,0,0,0,0,-1,1070,631,0,0
-147,393,0,0,0,0,0,0,0,0,0,-1,1077,631,0,0
-140,393,0,0,0,0,0,0,0,0,0,-1,1084,631,0,0
-133,393,0,0,0,0,0,0,0,0,0,-1,1091,631,0,0
-126,393,0,0,0,0,0,0,0,0,0,-1,1098,631,0,0
-119,393,0,0,0,0,0,0,0,0,0,-1,1105,631,0,0
-112,393,0,0,0,0,0,0,0,0,0,-1,1112,631,0,0
-105,393,0,0,0,0,0,0,0,0,0,-1,1119,631,0,0
-98,393,0,0,0,0,0,0,0,0,0,-1,1126,631,0,0
-91,393,0,0,0,0,0,0,0,0,0,-1,1133,631,0,0
-84,393,0,0,0,0,0,0,0,0,0,-1,1140,631,0,0
-77,393,0,0,0,0,0,0,0,0,0,-1,1147,631,0,0
-70,393,0,0,0,0,0,0,0,0,0,-1,1154,631,0,0
-63,393,0,0,0,0,0,0,0,0,0,-1,1161,631,0,0
-56,393,0,0,0,0,0,0,0,0,0,-1,1168,631,0,0
-49,393,0,0,0,0,0,0,0,0,0,-1,1175,631,0,0
-42,393,0,0,0,0,0,0,0,0,0,-1,1182,631,0,0
-35,393,0,0,0,0,0,0,0,0,0,-1,1189,631,0,0
-28,393,0,0,0,0,0,0,0,0,0,-1,1196,631,0,0
-21,393,0,0,0,0,0,0,0,0,0,-1,1203,631,0,0
-14,393,0,0,0,0,0,0,0,0,0,-1,1210,631,0,0
-7,393,0,0,0,0,0,0,0,0,0,-1,1217,631,0,0
0,393,0,0,0,0,0,0,0,0,0,-1,1224,631,0,0
7,393,0,0,0,0,0,0,0,0,0,-1,1231,631,0,0
14,393,0,0,0,0,0,0,0,0,0,-1,1238,631,0,0
21,393,0,0,0,0,0,0,0,0,0,-1,1245,631,0,0
28,393,0,0,0,0,0,0,0,0,0,-1,1252,631,0,0
35,393,0,0,0,0,0,0,0,0,0,-1,1259,631,0,0
42,393,0,0,0,0,0,0,0,0,0,-1,1266,631,0,0
49,393,0,0,0,0,0,0,0,0,0,-1,1273,631,0,0
56,393,0,0,0,0,0,0,0,0,0,-1,1280,631,0,0
63,393,0,0,0,0,0,0,0,0,0,-1,1287,631,0,0
70,393,0,0,0,0,0,0,0,0,0,-1,1294,631,0,0
77,393,0,0,0,0,0,0,0,0,0,-1,1301,631,0,0
84,393,0,0,0,0,0,0,0,0,0,-1,1308,631,0,0
91,393,0,0,0,0,0,0,0,0,0,-1,1315,631,0,0
98,393,0,0,0,0,0,0,0,0,0,-1,1322,631,0,0
105,393,0,0,0,0,0,0,0,0,0,-1,1329,631,0,0
112,393,0,0,0,0,0,0,0,0,0,-1,1336,631,0,0
119,393,0,0,0,0,0,0,0,0,0,-1,1343,631,0,0
126,393,0,0,0,0,0,0,0,0,0,-1,1350,631,0,0
133,393,0,0,0,0,0,0,0,0,0,-1,1357,631,0,0
140,393,0,0,0,0,0,0,0,0,0,-1,1364,631,0,0
147,393,0,0,0,0,0,0,0,0,0,-1,1371,631,0,0
154,393,0,0,0,0,0,0,0,0,0,-1,1378,631,0,0
161,393,0,0,0,0,0,0,0,0,0,-1,1385,631,0,0
168,393,0,0,0,0,0,0,0,0,0,-1,1392,631,0,0
175,393,0,0,0,0,0,0,0,0,0,-1,1399,631,0,0
182,393,0,0,0,0,0,0,0,0,0,-1,1406,631,0,0
189,393,0,0,0,0,0,0,0,0,0,-1,1413,631,0,0
196,393,0,0,0,0,0,0,0,0,0,-1,1420,631,0,0
203,393,0,0,0,0,0,0,0,0,0,-1,1427,631,0,0
210,393,0,0,0,0,0,0,0,0,0,-1,1434,631,0,0
217,393,0,0,0,0,0,0,0,0,0,-1,1441,631,0,0
224,393,0,0,0,0,0,0,0,0,0,-1,1448,631,0,0
231,393,0,0,0,0,0,0,0,0,0,-1,1455,631,0,0
238,393,0,0,0,0,0,0,0,0,0,-1,1462,631,0,0
245,393,0,0,0,0,0,0,0,0,0,-1,1469,631,0,0
252,393,0,0,0,0,0,0,0,0,0,-1,1476,631,0,0
259,393,0,0,0,0,0,0,0,0,0,-1,1483,631,0,0
266,393,0,0,0,0,0,0,0,0,0,-1,1490,631,0,0
273,393,0,0,0,0,0,0,0,0,0,-1,1497,631,0,0
280,393,0,0,0,0,0,0,0,0,0,-1,1504,631,0,0
287,393,0,0,0,0,0,0,0,0,0,-1,1511,631,0,0
294,393,0,0,0,0,0,0,0,0,0,-1,1518,631,0,0
301,393,0,0,0,0,0,0,0,0,0,-1,1525,631,0,0
308,393,0,0,0,0,0,0,0,0,0,-1,1532,631,0,0
315,393,0,0,0,0,0,0,0,0,0,-1,1539,631,0,0
322,393,0,0,0,0,0,0,0,0,0,-1,1546,631,0,0
329,393,0,0,0,0,0,0,0,0,0,-1,1553,631,0,0
336,393,0,0,0,0,0,0,0,0,0,-1,1560,631,0,0
343,393,0,0,0,0,0,0,0,0,0,-1,1567,631,0,0
350,393,0,0,0,0,0,0,0,0,0,-1,1574,631,0,0
357,393,0,0,0,0,0,0,0,0,0,-1,1581,631,0,0
364,393,0,0,0,0,0,0,0,0,0,-1,1588,631,0,0
371,393,0,0,0,0,0,0,0,0,0,-1,1595,631,0,0
378,393,0,0,0,0,0,0,0,0,0,-1,1602,631,0,0
385,393,0,0,0,0,0,0,0,0,0,-1,1609,631,0,0
392,393,0,0,0,0,0,0,0,0,0,-1,1616,631,0,0
399,393,0,0,0,0,0,0,0,0,0,-1,1623,631,0,0
406,393,0,0,0,0,0,0,0,0,0,-1,1630,631,0,0
413,393,0,0,0,0,0,0,0,0,0,-1,1637,631,0,0
420,393,0,0,0,0,0,0,0,0,0,-1,1644,631,0,0
427,393,0,0,0,0,0,0,0,0,0,-1,1651,631,0,0
434,393,0,0,0,0,0,0,0,0,0,-1,1658,631,0,0
441,393,0,0,0,0,0,0,0,0,0,-1,1665,631,0,0
448,393,0,0,0,0,0,0,0,0,0,-1,1672,631,0,0
455,393,0,0,0,0,0,0,0,0,0,-1,1679,631,0,0
462,393,8.51099,1.89502,0,0,0,0,0,0,0,-1,1686,631,8.51103,-1.89504
469,393,9.39465,1.51703,0,0,0,0,0,0,0,-1,1693,631,9.39465,-1.51703
476,393,9.95569,1.185,0,0,0,0,0,0,0,-1,1700,631,9.95575,-1.18497
483,393,10.5267,0.887329,0,0,0,0,0,0,0,-1,1707,631,10.5267,-0.887321
490,393,10.9303,0.761414,0,0,0,0,0,0,0,-1,1714,631,10.9303,-0.761386
497,393,8.32153,1.88104,0,0,0,0,0,0,0,-1,1721,631,8.32148,-1.88103
504,393,9.46985,1.78711,0,0,0,0,0,0,0,-1,1728,631,9.46986,-1.78713
511,393,9.66565,-0.375977,0,0,0,0,0,0,0,-1,1735,631,9.66571,0.375949
518,393,7.01599,1.62482,0,0,0,0,0,0,0,-1,1742,631,7.01597,-1.62483
525,393,7.88245,-1.13422,0,0,0,0,0,0,0,-1,1749,631,7.88246,1.13423
532,393,7.06335,-1.18103,0,0,0,0,0,0,0,-1,1756,631,7.06332,1.18101
539,393,9.91626,-2.46301,0,0,0,0,0,0,0,-1,1763,631,9.91625,2.46302
546,393,16.4094,-8.04651,0,0,0,0,0,0,0,-1,1770,631,16.4094,8.04649
553,393,21.3135,-10.9105,0,0,0,0,0,0,0,-1,1777,631,21.3135,10.9105
560,393,21.4525,-10.2563,0.00545562,0.000516173,0.00135994,0.00580529,0.000166506,0.251669,0.0038159,0.0382901,1784,631,21.4525,10.2563
567,393,21.4244,-9.61169,0.00418303,0.000221809,0.000928639,0.00438992,1.49116e-05,0.219215,0.00292166,0.0163663,1791,631,21.4245,9.61166
574,393,21.4351,-9.05115,0.0032564,0.000281868,0.000768136,0.00344305,9.52185e-05,0.23837,0.00226429,0.0166413,1798,631,21.4351,9.05113
581,393,21.3845,-8.41174,0.00257346,0.000586274,0.000804456,0.0028583,0.00030144,0.340297,0.00181342,0.0153566,1805,631,21.3846,8.41175
588,393,21.3387,-7.75952,0.00211215,0.00109839,0.000979735,0.00270836,0.000502181,0.546677,0.00166364,0.0168859,1812,631,21.3387,7.75953
595,393,21.3617,-7.1908,0.00198934,0.00172196,0.00132682,0.00318918,0.000522117,0.735188,0.00197522,0.0145101,1819,631,21.3616,7.19078
602,393,21.3464,-6.59222,0.00221784,0.00261879,0.0019085,0.00433732,0.000499313,0.837727,0.00274031,0.0162888,1826,631,21.3465,6.59221
609,393,21.297,-5.98059,0.00258159,0.00367459,0.00259362,0.00577866,0.000477513,0.889233,0.00370355,0.0152403,1833,631,21.297,5.98061
616,393,21.2678,-5.38757,0.00297847,0.00481906,0.00322876,0.00725612,0.000541406,0.924232,0.00466743,0.0147799,1840,631,21.2678,5.38756
623,393,21.2911,-4.66504,0.00398585,0.00594717,0.00407945,0.00916217,0.000770845,0.903356,0.00586807,0.0321882,1847,631,21.2911,4.66501
630,393,21.3516,-3.81262,0,0,0,0,0,0,0,-1,1854,631,21.3516,3.81262
637,393,11.4626,0.608887,0,0,0,0,0,0,0,-1,1861,631,11.4627,-0.608904
644,393,8.97583,1.30585,0,0,0,0,0,0,0,-1,1868,631,8.97586,-1.30584
651,393,11.348,0.53302,0,0,0,0,0,0,0,-1,1875,631,11.348,-0.53305
658,393,9.21338,1.50836,0,0,0,0,0,0,0,-1,1882,631,9.21338,-1.50834
665,393,6.1001,2.32129,0,0,0,0,0,0,0,-1,1889,631,6.10012,-2.3213
672,393,7.14575,2.43225,0,0,0,0,0,0,0,-1,1896,631,7.14572,-2.43222
679,393,0,0,0,0,0,0,0,0,0,-1,1903,631,0,0
686,393,0,0,0,0,0,0,0,0,0,-1,1910,631,0,0
693,393,0,0,0,0,0,0,0,0,0,-1,1917,631,0,0
700,393,0,0,0,0,0,0,0,0,0,-1,1924,631,0,0
707,393,0,0,0,0,0,0,0,0,0,-1,1931,631,0,0
714,393,0,0,0,0,0,0,0,0,0,-1,1938,631,0,0
721,393,0,0,0,0,0,0,0,0,0,-1,1945,631,0,0
728,393,0,0,0,0,0,0,0,0,0,-1,1952,631,0,0
735,393,0,0,0,0,0,0,0,0,0,-1,1959,631,0,0
742,393,0,0,0,0,0,0,0,0,0,-1,1966,631,0,0
749,393,0,0,0,0,0,0,0,0,0,-1,1973,631,0,0
756,393,0,0,0,0,0,0,0,0,0,-1,1980,631,0,0
763,393,0,0,0,0,0,0,0,0,0,-1,1987,631,0,0
770,393,0,0,0,0,0,0,0,0,0,-1,1994,631,0,0
777,393,0,0,0,0,0,0,0,0,0,-1,2001,631,0,0
784,393,0,0,0,0,0,0,0,0,0,-1,2008,631,0,0
791,393,0,0,0,0,0,0,0,0,0,-1,2015,631,0,0
798,393,0,0,0,0,0,0,0,0,0,-1,2022,631,0,0
805,393,0,0,0,0,0,0,0,0,0,-1,2029,631,0,0
812,393,0,0,0,0,0,0,0,0,0,-1,2036,631,0,0
-700,386,0,0,0,0,0,0,0,0,0,-1,524,638,0,0
-693,386,0,0,0,0,0,0,0,0,0,-1,531,638,0,0
-686,386,0,0,0,0,0,0,0,0,0,-1,538,638,0,0
-679,386,0,0,0,0,0,0,0,0,0,-1,545,638,0,0
-672,386,0,0,0,0,0,0,0,0,0,-1,552,638,0,0
-665,386,0,0,0,0,0,0,0,0,0,-1,559,638,0,0
-658,386,0,0,0,0,0,0,0,0,0,-1,566,638,0,0
-651,386,0,0,0,0,0,0,0,0,0,-1,573,638,0,0
-644,386,0,0,0,0,0,0,0,0,0,-1,580,638,0,0
-637,386,0,0,0,0,0,0,0,0,0,-1,587,638,0,0
-630,386,0,0,0,0,0,0,0,0,0,-1,594,638,0,0
-623,386,0,0,0,0,0,0,0,0,0,-1,601,638,0,0
-616,386,0,0,0,0,0,0,0,0,0,-1,608,638,0,0
-609,386,0,0,0,0,0,0,0,0,0,-1,615,638,0,0
-602,386,0,0,0,0,0,0,0,0,0,-1,622,638,0,0
-595,386,0,0,0,0,0,0,0,0,0,-1,629,638,0,0
-588,386,0,0,0,0,0,0,0,0,0,-1,636,638,0,0
-581,386,0,0,0,0,0,0,0,0,0,-1,643,638,0,0
-574,386,0,0,0,0,0,0,0,0,0,-1,650,638,0,0
-567,386,0,0,0,0,0,0,0,0,0,-1,657,638,0,0
-560,386,-3.97229,-5.13898,0,0,0,0,0,0,0,-1,664,638,-3.97232,5.13897
-553,386,-4.94244,-5.54309,0,0,0,0,0,0,0,-1,671,638,-4.94242,5.5431
-546,386,-1.78668,1.72827,0,0,0,0,0,0,0,-1,678,638,-1.78668,-1.72829
-539,386,-0.879456,-2.90009,0,0,0,0,0,0,0,-1,685,638,-0.879442,2.90008
-532,386,-5.4884,1.73328,0,0,0,0,0,0,0,-1,692,638,-5.4884,-1.73325
-525,386,-6.64148,-1.50604,0,0,0,0,0,0,0,-1,699,638,-6.64149,1.50603
-518,386,-9.71906,-3.39722,0,0,0,0,0,0,0,-1,706,638,-9.71906,3.3972
-511,386,-10.7792,-3.83508,0,0,0,0,0,0,0,-1,713,638,-10.7793,3.83507
-504,386,-11.4768,-5.72467,0,0,0,0,0,0,0,-1,720,638,-11.4768,5.7247
-497,386,-11.4609,-6.42578,0.00211452,0.00529797,-0.00274694,0.00688103,0.000531462,-1.04799,0.00442086,0.0199928,727,638,-11.4609,6.42579
-490,386,-11.4084,-7.06146,0.0013686,0.00361172,-0.00178552,0.00459871,0.000381614,-1.06583,0.00294685,0.0134885,734,638,-11.4085,7.06144
-483,386,-11.4142,-7.66217,0.0012178,0.00269938,-0.00148743,0.00362029,0.000296899,-1.01643,0.0023209,0.0172796,741,638,-11.4142,7.66216
-476,386,-11.4398,-8.24298,0.00126201,0.00196694,-0.00130442,0.00296567,0.000263272,-0.917352,0.00189546,0.0164768,748,638,-11.4398,8.24296
-469,386,-11.4738,-8.79193,0.00134079,0.00132193,-0.0011203,0.0024517,0.00021102,-0.78119,0.00156887,0.0123288,755,638,-11.4737,8.79192
-462,386,-11.4963,-9.37958,0.00145754,0.000772271,-0.000932886,0.00210872,0.000121087,-0.609404,0.00136724,0.0117545,762,638,-11.4963,9.37957
-455,386,-11.5202,-9.97699,0.00165354,0.000146746,-0.000746635,0.00196084,-0.00016055,-0.390445,0.0013639,0.0126296,769,638,-11.5202,9.977
-448,386,-11.5394,-10.5516,0.00195463,-0.00035518,-0.00058945,0.00209636,-0.000496908,-0.235962,0.00158932,0.0125957,776,638,-11.5394,10.5516
-441,386,-11.5681,-11.1038,0.00229979,-0.000780649,-0.000449865,0.00236415,-0.000845002,-0.142087,0.00192076,0.0139504,783,638,-11.5681,11.1038
-434,386,-11.5211,-11.7092,0.00265331,-0.00133134,-0.000247866,0.00266867,-0.0013467,-0.0618872,0.00235978,0.0366295,790,638,-11.5211,11.7093
-427,386,-11.3984,-12.4133,0,0,0,0,0,0,0,-1,797,638,-11.3984,12.4133
-420,386,-11.576,-12.8116,0,0,0,0,0,0,0,-1,804,638,-11.5761,12.8116
-413,386,-5.45691,-5.35785,0,0,0,0,0,0,0,-1,811,638,-5.45691,5.35783
-406,386,-4.51135,-4.10999,0,0,0,0,0,0,0,-1,818,638,-4.51135,4.10996
-399,386,-3.57117,-3.42126,0,0,0,0,0,0,0,-1,825,638,-3.57116,3.42129
-392,386,-4.00977,0.403625,0,0,0,0,0,0,0,-1,832,638,-4.0098,-0.403616
-385,386,-3.2406,-0.118469,0,0,0,0,0,0,0,-1,839,638,-3.24058,0.118485
-378,386,-2.55243,-1.22748,0,0,0,0,0,0,0,-1,846,638,-2.55243,1.22748
-371,386,-7.95807,-0.330261,0,0,0,0,0,0,0,-1,853,638,-7.95806,0.330284
-364,386,-8.90637,-0.665955,0,0,0,0,0,0,0,-1,860,638,-8.90635,0.665951
-357,386,-9.10364,-0.388733,0,0,0,0,0,0,0,-1,867,638,-9.10364,0.388744
-350,386,0,0,0,0,0,0,0,0,0,-1,874,638,0,0
-343,386,0,0,0,0,0,0,0,0,0,-1,881,638,0,0
-336,386,0,0,0,0,0,0,0,0,0,-1,888,638,0,0
-329,386,0,0,0,0,0,0,0,0,0,-1,895,638,0,0
-322,386,0,0,0,0,0,0,0,0,0,-1,902,638,0,0
-315,386,0,0,0,0,0,0,0,0,0,-1,909,638,0,0
-308,386,0,0,0,0,0,0,0,0,0,-1,916,638,0,0
-301,386,0,0,0,0,0,0,0,0,0,-1,923,638,0,0
-294,386,0,0,0,0,0,0,0,0,0,-1,930,638,0,0
-287,386,0,0,0,0,0,0,0,0,0,-1,937,638,0,0
-280,386,0,0,0,0,0,0,0,0,0,-1,944,638,0,0
-273,386,0,0,0,0,0,0,0,0,0,-1,951,638,0,0
-266,386,0,0,0,0,0,0,0,0,0,-1,958,638,0,0
-259,386,0,0,0,0,0,0,0,0,0,-1,965,638,0,0
-252,386,0,0,0,0,0,0,0,0,0,-1,972,638,0,0
-245,386,0,0,0,0,0,0,0,0,0,-1,979,638,0,0
-238,386,0,0,0,0,0,0,0,0,0,-1,986,638,0,0
-231,386,0,0,0,0,0,0,0,0,0,-1,993,638,0,0
-224,386,0,0,0,0,0,0,0,0,0,-1,1000,638,0,0
-217,386,0,0,0,0,0,0,0,0,0,-1,1007,638,0,0
-210,386,0,0,0,0,0,0,0,0,0,-1,1014,638,0,0
-203,386,0,0,0,0,0,0,0,0,0,-1,1021,638,0,0
-196,386,0,0,0,0,0,0,0,0,0,-1,1028,638,0,0
-189,386,0,0,0,0,0,0,0,0,0,-1,1035,638,0,0
-182,386,0,0,0,0,0,0,0,0,0,-1,1042,638,0,0
-175,386,0,0,0,0,0,0,0,0,0,-1,1049,638,0,0
-168,386,0,0,0,0,0,0,0,0,0,-1,1056,638,0,0
-161,386,0,0,0,0,0,0,0,0,0,-1,1063,638,0,0
-154,386,0,0,0,0,0,0,0,0,0,-1,1070,638,0,0
-147,386,0,0,0,0,0,0,0,0,0,-1,1077,638,0,0
-140,386,0,0,0,0,0,0,0,0,0,-1,1084,638,0,0
-133,386,0,0,0,0,0,0,0,0,0,-1,1091,638,0,0
-126,386,0,0,0,0,0,0,0,0,0,-1,1098,638,0,0
-119,386,0,0,0,0,0,0,0,0,0,-1,1105,638,0,0
-112,386,0,0,0,0,0,0,0,0,0,-1,1112,638,0,0
-105,386,0,0,0,0,0,0,0,0,0,-1,1119,638,0,0
-98,386,0,0,0,0,0,0,0,0,0,-1,1126,638,0,0
-91,386,0,0,0,0,0,0,0,0,0,-1,1133,638,0,0
-84,386,0,0,0,0,0,0,0,0,0,-1,1140,638,0,0
-77,386,0,0,0,0,0,0,0,0,0,-1,1147,638,0,0
-70,386,0,0,0,0,0,0,0,0,0,-1,1154,638,0,0
-63,386,0,0,0,0,0,0,0,0,0,-1,1161,638,0,0
-56,386,0,0,0,0,0,0,0,0,0,-1,1168,638,0,0
-49,386,0,0,0,0,0,0,0,0,0,-1,1175,638,0,0
-42,386,0,0,0,0,0,0,0,0,0,-1,1182,638,0,0
-35,386,0,0,0,0,0,0,0,0,0,-1,1189,638,0,0
-28,386,0,0,0,0,0,0,0,0,0,-1,1196,638,0,0
-21,386,0,0,0,0,0,0,0,0,0,-1,1203,638,0,0
-14,386,0,0,0,0,0,0,0,0,0,-1,1210,638,0,0
-7,386,0,0,0,0,0,0,0,0,0,-1,1217,638,0,0
0,386,0,0,0,0,0,0,0,0,0,-1,1224,638,0,0
7,386,0,0,0,0,0,0,0,0,0,-1,1231,638,0,0
14,386,0,0,0,0,0,0,0,0,0,-1,1238,638,0,0
21,386,0,0,0,0,0,0,0,0,0,-1,1245,638,0,0
28,386,0,0,0,0,0,0,0,0,0,-1,1252,638,0,0
35,386,0,0,0,0,0,0,0,0,0,-1,1259,638,0,0
42,386,0,0,0,0,0,0,0,0,0,-1,1266,638,0,0
49,386,0,0,0,0,0,0,0,0,0,-1,1273,638,0,0
56,386,0,0,0,0,0,0,0,0,0,-1,1280,638,0,0
63,386,0,0,0,0,0,0,0,0,0,-1,1287,638,0,0
70,386,0,0,0,0,0,0,0,0,0,-1,1294,638,0,0
77,386,0,0,0,0,0,0,0,0,0,-1,1301,638,0,0
84,386,0,0,0,0,0,0,0,0,0,-1,1308,638,0,0
91,386,0,0,0,0,0,0,0,0,0,-1,1315,638,0,0
98,386,0,0,0,0,0,0,0,0,0,-1,1322,638,0,0
105,386,0,0,0,0,0,0,0,0,0,-1,1329,638,0,0
112,386,0,0,0,0,0,0,0,0,0,-1,1336,638,0,0
119,386,0,0,0,0,0,0,0,0,0,-1,1343,638,0,0
126,386,0,0,0,0,0,0,0,0,0,-1,1350,638,0,0
133,386,0,0,0,0,0,0,0,0,0,-1,1357,638,0,0
140,386,0,0,0,0,0,0,0,0,0,-1,1364,638,0,0
147,386,0,0,0,0,0,0,0,0,0,-1,1371,638,0,0
154,386,0,0,0,0,0,0,0,0,0,-1,1378,638,0,0
161,386,0,0,0,0,0,0,0,0,0,-1,1385,638,0,0
168,386,0,0,0,0,0,0,0,0,0,-1,1392,638,0,0
175,386,0,0,0,0,0,0,0,0,0,-1,1399,638,0,0
182,386,0,0,0,0,0,0,0,0,0,-1,1406,638,0,0
189,386,0,0,0,0,0,0,0,0,0,-1,1413,638,0,0
196,386,0,0,0,0,0,0,0,0,0,-1,1420,638,0,0
203,386,0,0,0,0,0,0,0,0,0,-1,1427,638,0,0
210,386,0,0,0,0,0,0,0,0,0,-1,1434,638,0,0
217,386,0,0,0,0,0,0,0,0,0,-1,1441,638,0,0
224,386,0,0,0,0,0,0,0,0,0,-1,1448,638,0,0
231,386,0,0,0,0,0,0,0,0,0,-1,1455,638,0,0
238,386,0,0,0,0,0,0,0,0,0,-1,1462,638,0,0
245,386,0,0,0,0,0,0,0,0,0,-1,1469,638,0,0
252,386,0,0,0,0,0,0,0,0,0,-1,1476,638,0,0
259,386,0,0,0,0,0,0,0,0,0,-1,1483,638,0,0
266,386,0,0,0,0,0,0,0,0,0,-1,1490,638,0,0
273,386,0,0,0,0,0,0,0,0,0,-1,1497,638,0,0
280,386,0,0,0,0,0,0,0,0,0,-1,1504,638,0,0
287,386,0,0,0,0,0,0,0,0,0,-1,1511,638,0,0
294,386,0,0,0,0,0,0,0,0,0,-1,1518,638,0,0
301,386,0,0,0,0,0,0,0,0,0,-1,1525,638,0,0
308,386,0,0,0,0,0,0,0,0,0,-1,1532,638,0,0
315,386,0,0,0,0,0,0,0,0,0,-1,1539,638,0,0
322,386,0,0,0,0,0,0,0,0,0,-1,1546,638,0,0
329,386,0,0,0,0,0,0,0,0,0,-1,1553,638,0,0
336,386,0,0,0,0,0,0,0,0,0,-1,1560,638,0,0
343,386,0,0,0,0,0,0,0,0,0,-1,1567,638,0,0
350,386,0,0,0,0,0,0,0,0,0,-1,1574,638,0,0
357,386,0,0,0,0,0,0,0,0,0,-1,1581,638,0,0
364,386,0,0,0,0,0,0,0,0,0,-1,1588,638,0,0
371,386,0,0,0,0,0,0,0,0,0,-1,1595,638,0,0
378,386,0,0,0,0,0,0,0,0,0,-1,1602,638,0,0
385,386,0,0,0,0,0,0,0,0,0,-1,1609,638,0,0
392,386,0,0,0,0,0,0,0,0,0,-1,1616,638,0,0
399,386,0,0,0,0,0,0,0,0,0,-1,1623,638,0,0
406,386,0,0,0,0,0,0,0,0,0,-1,1630,638,0,0
413,386,0,0,0,0,0,0,0,0,0,-1,1637,638,0,0
420,386,0,0,0,0,0,0,0,0,0,-1,1644,638,0,0
427,386,0,0,0,0,0,0,0,0,0,-1,1651,638,0,0
434,386,0,0,0,0,0,0,0,0,0,-1,1658,638,0,0
441,386,0,0,0,0,0,0,0,0,0,-1,1665,638,0,0
448,386,0,0,0,0,0,0,0,0,0,-1,1672,638,0,0
455,386,0,0,0,0,0,0,0,0,0,-1,1679,638,0,0
462,386,0,0,0,0,0,0,0,0,0,-1,1686,638,0,0
469,386,9.84692,1.55804,0,0,0,0,0,0,0,-1,1693,638,9.84691,-1.55807
476,386,10.6145,0.986511,0,0,0,0,0,0,0,-1,1700,638,10.6145,-0.986529
483,386,11.4113,0.732971,0,0,0,0,0,0,0,-1,1707,638,11.4112,-0.732958
490,386,7.79785,1.79572,0,0,0,0,0,0,0,-1,1714,638,7.79788,-1.7957
497,386,8.96362,1.77081,0,0,0,0,0,0,0,-1,1721,638,8.96357,-1.77081
504,386,10.0555,1.69427,0,0,0,0,0,0,0,-1,1728,638,10.0555,-1.69426
511,386,11.2172,1.534,0,0,0,0,0,0,0,-1,1735,638,11.2172,-1.53398
518,386,7.41553,1.75238,0,0,0,0,0,0,0,-1,1742,638,7.41547,-1.75238
525,386,8.82422,-1.1449,0,0,0,0,0,0,0,-1,1749,638,8.82426,1.14492
532,386,10.6432,0.617371,0,0,0,0,0,0,0,-1,1756,638,10.6432,-0.617359
539,386,9.62061,-0.393616,0,0,0,0,0,0,0,-1,1763,638,9.62059,0.393634
546,386,10.7963,-2.854,0,0,0,0,0,0,0,-1,1770,638,10.7962,2.854
553,386,16.9939,-7.27942,0,0,0,0,0,0,0,-1,1777,638,16.9939,7.27944
560,386,21.9336,-10.5025,0,0,0,0,0,0,0,-1,1784,638,21.9335,10.5025
567,386,21.9561,-9.56805,0.0050389,-9.19717e-05,0.000939111,0.00520538,-0.000258456,0.175456,0.00355954,0.033534,1791,638,21.9561,9.56806
574,386,22.0162,-8.96454,0.00381064,-7.416e-05,0.000650715,0.00391674,-0.000180259,0.161627,0.00267328,0.015985,1798,638,22.0163,8.96456
581,386,21.9668,-8.39545,0.0028885,0.000196027,0.000581017,0.00300853,7.5998e-05,0.203718,0.00198084,0.0148248,1805,638,21.9667,8.39543
588,386,21.9541,-7.77448,0.00226786,0.000638641,0.000682989,0.0025163,0.000390207,0.348867,0.00156378,0.0130469,1812,638,21.9541,7.77447
595,386,21.9398,-7.17993,0.00201719,0.00119274,0.000953861,0.00264409,0.000565845,0.581436,0.00160766,0.0138772,1819,638,21.9398,7.17991
602,386,21.9282,-6.57819,0.00213726,0.00199747,0.00145823,0.00352727,0.000607456,0.76145,0.00217746,0.0156686,1826,638,21.9282,6.57821
609,386,21.9261,-5.97327,0.00237593,0.00292167,0.00203801,0.00470499,0.000592605,0.851948,0.00295898,0.0146924,1833,638,21.9262,5.97324
616,386,21.8855,-5.37042,0.00261363,0.00385187,0.00251342,0.0058213,0.0006442,0.906157,0.00368495,0.0117073,1840,638,21.8855,5.37042
623,386,21.8395,-4.74725,0.00328659,0.00473622,0.00310391,0.00719882,0.000823992,0.900101,0.00454949,0.0112953,1847,638,21.8395,4.74725
630,386,21.9468,-4.06628,0.00392219,0.00560736,0.0035291,0.00839307,0.00113648,0.902581,0.00525765,0.0372869,1854,638,21.9468,4.06628
637,386,22.1318,-3.37006,0,0,0,0,0,0,0,-1,1861,638,22.1318,3.37005
644,386,11.6521,0.723328,0,0,0,0,0,0,0,-1,1868,638,11.6521,-0.723355
651,386,9.3866,1.31097,0,0,0,0,0,0,0,-1,1875,638,9.3866,-1.31095
658,386,12.0731,-0.00415039,0,0,0,0,0,0,0,-1,1882,638,12.0731,0.00412803
665,386,6.33167,1.78601,0,0,0,0,0,0,0,-1,1889,638,6.33171,-1.78601
672,386,7.23352,2.14435,0,0,0,0,0,0,0,-1,1896,638,7.23353,-2.14433
679,386,8.07764,2.57104,0,0,0,0,0,0,0,-1,1903,638,8.07758,-2.57103
686,386,0,0,0,0,0,0,0,0,0,-1,1910,638,0,0
693,386,0,0,0,0,0,0,0,0,0,-1,1917,638,0,0
700,386,0,0,0,0,0,0,0,0,0,-1,1924,638,0,0
707,386,0,0,0,0,0,0,0,0,0,-1,1931,638,0,0
714,386,0,0,0,0,0,0,0,0,0,-1,1938,638,0,0
721,386,0,0,0,0,0,0,0,0,0,-1,1945,638,0,0
728,386,0,0,0,0,0,0,0,0,0,-1,1952,638,0,0
735,386,0,0,0,0,0,0,0,0,0,-1,1959,638,0,0
742,386,0,0,0,0,0,0,0,0,0,-1,1966,638,0,0
749,386,0,0,0,0,0,0,0,0,0,-1,1973,638,0,0
756,386,0,0,0,0,0,0,0,0,0,-1,1980,638,0,0
763,386,0,0,0,0,0,0,0,0,0,-1,1987,638,0,0
770,386,0,0,0,0,0,0,0,0,0,-1,1994,638,0,0
777,386,0,0,0,0,0,0,0,0,0,-1,2001,638,0,0
784,386,0,0,0,0,0,0,0,0,0,-1,2008,638,0,0
791,386,0,0,0,0,0,0,0,0,0,-1,2015,638,0,0
798,386,0,0,0,0,0,0,0,0,0,-1,2022,638,0,0
805,386,0,0,0,0,0,0,0,0,0,-1,2029,638,0,0
812,386,0,0,0,0,0,0,0,0,0,-1,2036,638,0,0
-700,379,0,0,0,0,0,0,0,0,0,-1,524,645,0,0
-693,379,0,0,0,0,0,0,0,0,0,-1,531,645,0,0
-686,379,0,0,0,0,0,0,0,0,0,-1,538,645,0,0
-679,379,0,0,0,0,0,0,0,0,0,-1,545,645,0,0
-672,379,0,0,0,0,0,0,0,0,0,-1,552,645,0,0
-665,379,0,0,0,0,0,0,0,0,0,-1,559,645,0,0
-658,379,0,0,0,0,0,0,0,0,0,-1,566,645,0,0
-651,379,0,0,0,0,0,0,0,0,0,-1,573,645,0,0
-644,379,0,0,0,0,0,0,0,0,0,-1,580,645,0,0
-637,379,0,0,0,0,0,0,0,0,0,-1,587,645,0,0
-630,379,0,0,0,0,0,0,0,0,0,-1,594,645,0,0
-623,379,0,0,0,0,0,0,0,0,0,-1,601,645,0,0
-616,379,0,0,0,0,0,0,0,0,0,-1,608,645,0,0
-609,379,0,0,0,0,0,0,0,0,0,-1,615,645,0,0
-602,379,0,0,0,0,0,0,0,0,0,-1,622,645,0,0
-595,379,0,0,0,0,0,0,0,0,0,-1,629,645,0,0
-588,379,0,0,0,0,0,0,0,0,0,-1,636,645,0,0
-581,379,0,0,0,0,0,0,0,0,0,-1,643,645,0,0
-574,379,0,0,0,0,0,0,0,0,0,-1,650,645,0,0
-567,379,-8.78058,0.59668,0,0,0,0,0,0,0,-1,657,645,-8.7806,-0.596692
-560,379,-9.53485,-0.211304,0,0,0,0,0,0,0,-1,664,645,-9.53487,0.211282
-553,379,-5.17108,-4.53119,0,0,0,0,0,0,0,-1,671,645,-5.17106,4.53117
-546,379,-6.23053,-4.92102,0,0,0,0,0,0,0,-1,678,645,-6.23054,4.92105
-539,379,-0.71698,-2.19427,0,0,0,0,0,0,0,-1,685,645,-0.716959,2.19427
-532,379,-7.69611,0.217224,0,0,0,0,0,0,0,-1,692,645,-7.69614,-0.217204
-525,379,-7.09833,-1.13043,0,0,0,0,0,0,0,-1,699,645,-7.0983,1.13041
-518,379,-10.5613,-3.82849,0,0,0,0,0,0,0,-1,706,645,-10.5613,3.82849
-511,379,-11.9426,-5.36749,0,0,0,0,0,0,0,-1,713,645,-11.9426,5.36748
-504,379,-11.9223,-5.88428,0.00272303,0.00600659,-0.00330137,0.00805188,0.000677747,-1.01614,0.00515687,0.0285102,720,645,-11.9223,5.8843
-497,379,-11.9823,-6.44165,0.0019576,0.00421835,-0.00218896,0.00555157,0.000624381,-1.02374,0.00351147,0.0146641,727,645,-11.9823,6.44165
-490,379,-11.9705,-7.03259,0.00126521,0.00265892,-0.00124202,0.00338622,0.000537908,-1.04105,0.00210125,0.0117601,734,645,-11.9705,7.03256
-483,379,-11.9927,-7.61334,0.00125303,0.00196458,-0.00106762,0.00273414,0.000483465,-0.946231,0.00168489,0.0131233,741,645,-11.9927,7.61331
-476,379,-12.0057,-8.18726,0.00141786,0.00141594,-0.0010159,0.0024328,0.000401007,-0.784925,0.0015061,0.0130935,748,645,-12.0057,8.18724
-469,379,-12.0394,-8.75183,0.00159917,0.000933116,-0.000965862,0.00228781,0.000244481,-0.619381,0.0014506,0.0128015,755,645,-12.0394,8.75182
-462,379,-12.0793,-9.34436,0.00182135,0.000541319,-0.000929491,0.00230986,5.28068e-05,-0.483893,0.00152261,0.00998136,762,645,-12.0793,9.34439
-455,379,-12.1072,-9.92511,0.00214255,4.63533e-05,-0.000905933,0.00247981,-0.000290909,-0.356386,0.00175822,0.00945666,769,645,-12.1072,9.9251
-448,379,-12.1133,-10.4807,0.00257893,-0.000328315,-0.000921587,0.00284645,-0.000595838,-0.28252,0.00212429,0.0115091,776,645,-12.1133,10.4807
-441,379,-12.126,-11.1016,0.00314058,-0.000464084,-0.00104881,0.00342353,-0.000747034,-0.263509,0.00256784,0.0237303,783,645,-12.126,11.1015
-434,379,-11.9451,-11.804,0,0,0,0,0,0,0,-1,790,645,-11.9451,11.804
-427,379,-4.16113,-4.13452,0,0,0,0,0,0,0,-1,797,645,-4.16116,4.1345
-420,379,-4.63953,-3.46869,0,0,0,0,0,0,0,-1,804,645,-4.63953,3.46872
-413,379,-4.62543,-3.7912,0,0,0,0,0,0,0,-1,811,645,-4.62541,3.79123
-406,379,-4.64063,-4.38489,0,0,0,0,0,0,0,-1,818,645,-4.64065,4.3849
-399,379,-2.93536,-1.40118,0,0,0,0,0,0,0,-1,825,645,-2.93534,1.40119
-392,379,-4.16711,-0.466003,0,0,0,0,0,0,0,-1,832,645,-4.16714,0.465992
-385,379,-3.51862,0.441101,0,0,0,0,0,0,0,-1,839,645,-3.51859,-0.441072
-378,379,-5.3504,0.212219,0,0,0,0,0,0,0,-1,846,645,-5.35038,-0.212241
-371,379,-4.32092,-0.186707,0,0,0,0,0,0,0,-1,853,645,-4.3209,0.186707
-364,379,-3.40887,-0.549805,0,0,0,0,0,0,0,-1,860,645,-3.4089,0.549802
-357,379,0,0,0,0,0,0,0,0,0,-1,867,645,0,0
-350,379,0,0,0,0,0,0,0,0,0,-1,874,645,0,0
-343,379,0,0,0,0,0,0,0,0,0,-1,881,645,0,0
-336,379,0,0,0,0,0,0,0,0,0,-1,888,645,0,0
-329,379,0,0,0,0,0,0,0,0,0,-1,895,645,0,0
-322,379,0,0,0,0,0,0,0,0,0,-1,902,645,0,0
-315,379,0,0,0,0,0,0,0,0,0,-1,909,645,0,0
-308,379,0,0,0,0,0,0,0,0,0,-1,916,645,0,0
-301,379,0,0,0,0,0,0,0,0,0,-1,923,645,0,0
-294,379,0,0,0,0,0,0,0,0,0,-1,930,645,0,0
-287,379,0,0,0,0,0,0,0,0,0,-1,937,645,0,0
-280,379,0,0,0,0,0,0,0,0,0,-1,944,645,0,0
-273,379,0,0,0,0,0,0,0,0,0,-1,951,645,0,0
-266,379,0,0,0,0,0,0,0,0,0,-1,958,645,0,0
-259,379,0,0,0,0,0,0,0,0,0,-1,965,645,0,0
-252,379,0,0,0,0,0,0,0,0,0,-1,972,645,0,0
-245,379,0,0,0,0,0,0,0,0,0,-1,979,645,0,0
-238,379,0,0,0,0,0,0,0,0,0,-1,986,645,0,0
-231,379,0,0,0,0,0,0,0,0,0,-1,993,645,0,0
-224,379,0,0,0,0,0,0,0,0,0,-1,1000,645,0,0
-217,379,0,0,0,0,0,0,0,0,0,-1,1007,645,0,0
-210,379,0,0,0,0,0,0,0,0,0,-1,1014,645,0,0
-203,379,0,0,0,0,0,0,0,0,0,-1,1021,645,0,0
-196,379,0,0,0,0,0,0,0,0,0,-1,1028,645,0,0
-189,379,0,0,0,0,0,0,0,0,0,-1,1035,645,0,0
-182,379,0,0,0,0,0,0,0,0,0,-1,1042,645,0,0
-175,379,0,0,0,0,0,0,0,0,0,-1,1049,645,0,0
-168,379,0,0,0,0,0,0,0,0,0,-1,1056,645,0,0
-161,379,0,0,0,0,0,0,0,0,0,-1,1063,645,0,0
-154,379,0,0,0,0,0,0,0,0,0,-1,1070,645,0,0
-147,379,0,0,0,0,0,0,0,0,0,-1,1077,645,0,0
-140,379,0,0,0,0,0,0,0,0,0,-1,1084,645,0,0
-133,379,0,0,0,0,0,0,0,0,0,-1,1091,645,0,0
-126,379,0,0,0,0,0,0,0,0,0,-1,1098,645,0,0
-119,379,0,0,0,0,0,0,0,0,0,-1,1105,645,0,0
-112,379,0,0,0,0,0,0,0,0,0,-1,1112,645,0,0
-105,379,0,0,0,0,0,0,0,0,0,-1,1119,645,0,0
-98,379,0,0,0,0,0,0,0,0,0,-1,1126,645,0,0
-91,379,0,0,0,0,0,0,0,0,0,-1,1133,645,0,0
-84,379,0,0,0,0,0,0,0,0,0,-1,1140,645,0,0
-77,379,0,0,0,0,0,0,0,0,0,-1,1147,645,0,0
-70,379,0,0,0,0,0,0,0,0,0,-1,1154,645,0,0
-63,379,0,0,0,0,0,0,0,0,0,-1,1161,645,0,0
-56,379,0,0,0,0,0,0,0,0,0,-1,1168,645,0,0
-49,379,0,0,0,0,0,0,0,0,0,-1,1175,645,0,0
-42,379,0,0,0,0,0,0,0,0,0,-1,1182,645,0,0
-35,379,0,0,0,0,0,0,0,0,0,-1,1189,645,0,0
-28,379,0,0,0,0,0,0,0,0,0,-1,1196,645,0,0
-21,379,0,0,0,0,0,0,0,0,0,-1,1203,645,0,0
-14,379,0,0,0,0,0,0,0,0,0,-1,1210,645,0,0
-7,379,0,0,0,0,0,0,0,0,0,-1,1217,645,0,0
0,379,0,0,0,0,0,0,0,0,0,-1,1224,645,0,0
7,379,0,0,0,0,0,0,0,0,0,-1,1231,645,0,0
14,379,0,0,0,0,0,0,0,0,0,-1,1238,645,0,0
21,379,0,0,0,0,0,0,0,0,0,-1,1245,645,0,0
28,379,0,0,0,0,0,0,0,0,0,-1,1252,645,0,0
35,379,0,0,0,0,0,0,0,0,0,-1,1259,645,0,0
42,379,0,0,0,0,0,0,0,0,0,-1,1266,645,0,0
49,379,0,0,0,0,0,0,0,0,0,-1,1273,645,0,0
56,379,0,0,0,0,0,0,0,0,0,-1,1280,645,0,0
63,379,0,0,0,0,0,0,0,0,0,-1,1287,645,0,0
70,379,0,0,0,0,0,0,0,0,0,-1,1294,645,0,0
77,379,0,0,0,0,0,0,0,0,0,-1,1301,645,0,0
84,379,0,0,0,0,0,0,0,0,0,-1,1308,645,0,0
91,379,0,0,0,0,0,0,0,0,0,-1,1315,645,0,0
98,379,0,0,0,0,0,0,0,0,0,-1,1322,645,0,0
105,379,0,0,0,0,0,0,0,0,0,-1,1329,645,0,0
112,379,0,0,0,0,0,0,0,0,0,-1,1336,645,0,0
119,379,0,0,0,0,0,0,0,0,0,-1,1343,645,0,0
126,379,0,0,0,0,0,0,0,0,0,-1,1350,645,0,0
133,379,0,0,0,0,0,0,0,0,0,-1,1357,645,0,0
140,379,0,0,0,0,0,0,0,0,0,-1,1364,645,0,0
147,379,0,0,0,0,0,0,0,0,0,-1,1371,645,0,0
154,379,0,0,0,0,0,0,0,0,0,-1,1378,645,0,0
161,379,0,0,0,0,0,0,0,0,0,-1,1385,645,0,0
168,379,0,0,0,0,0,0,0,0,0,-1,1392,645,0,0
175,379,0,0,0,0,0,0,0,0,0,-1,1399,645,0,0
182,379,0,0,0,0,0,0,0,0,0,-1,1406,645,0,0
189,379,0,0,0,0,0,0,0,0,0,-1,1413,645,0,0
196,379,0,0,0,0,0,0,0,0,0,-1,1420,645,0,0
203,379,0,0,0,0,0,0,0,0,0,-1,1427,645,0,0
210,379,0,0,0,0,0,0,0,0,0,-1,1434,645,0,0
217,379,0,0,0,0,0,0,0,0,0,-1,1441,645,0,0
224,379,0,0,0,0,0,0,0,0,0,-1,1448,645,0,0
231,379,0,0,0,0,0,0,0,0,0,-1,1455,645,0,0
238,379,0,0,0,0,0,0,0,0,0,-1,1462,645,0,0
245,379,0,0,0,0,0,0,0,0,0,-1,1469,645,0,0
252,379,0,0,0,0,0,0,0,0,0,-1,1476,645,0,0
259,379,0,0,0,0,0,0,0,0,0,-1,1483,645,0,0
266,379,0,0,0,0,0,0,0,0,0,-1,1490,645,0,0
273,379,0,0,0,0,0,0,0,0,0,-1,1497,645,0,0
280,379,0,0,0,0,0,0,0,0,0,-1,1504,645,0,0
287,379,0,0,0,0,0,0,0,0,0,-1,1511,645,0,0
294,379,0,0,0,0,0,0,0,0,0,-1,1518,645,0,0
301,379,0,0,0,0,0,0,0,0,0,-1,1525,645,0,0
308,379,0,0,0,0,0,0,0,0,0,-1,1532,645,0,0
315,379,0,0,0,0,0,0,0,0,0,-1,1539,645,0,0
322,379,0,0,0,0,0,0,0,0,0,-1,1546,645,0,0
329,379,0,0,0,0,0,0,0,0,0,-1,1553,645,0,0
336,379,0,0,0,0,0,0,0,0,0,-1,1560,645,0,0
343,379,0,0,0,0,0,0,0,0,0,-1,1567,645,0,0
350,379,0,0,0,0,0,0,0,0,0,-1,1574,645,0,0
357,379,0,0,0,0,0,0,0,0,0,-1,1581,645,0,0
364,379,0,0,0,0,0,0,0,0,0,-1,1588,645,0,0
371,379,0,0,0,0,0,0,0,0,0,-1,1595,645,0,0
378,379,0,0,0,0,0,0,0,0,0,-1,1602,645,0,0
385,379,0,0,0,0,0,0,0,0,0,-1,1609,645,0,0
392,379,0,0,0,0,0,0,0,0,0,-1,1616,645,0,0
399,379,0,0,0,0,0,0,0,0,0,-1,1623,645,0,0
406,379,0,0,0,0,0,0,0,0,0,-1,1630,645,0,0
413,379,0,0,0,0,0,0,0,0,0,-1,1637,645,0,0
420,379,0,0,0,0,0,0,0,0,0,-1,1644,645,0,0
427,379,0,0,0,0,0,0,0,0,0,-1,1651,645,0,0
434,379,0,0,0,0,0,0,0,0,0,-1,1658,645,0,0
441,379,0,0,0,0,0,0,0,0,0,-1,1665,645,0,0
448,379,0,0,0,0,0,0,0,0,0,-1,1672,645,0,0
455,379,0,0,0,0,0,0,0,0,0,-1,1679,645,0,0
462,379,0,0,0,0,0,0,0,0,0,-1,1686,645,0,0
469,379,0,0,0,0,0,0,0,0,0,-1,1693,645,0,0
476,379,11.1787,0.830383,0,0,0,0,0,0,0,-1,1700,645,11.1787,-0.830365
483,379,7.4231,1.54321,0,0,0,0,0,0,0,-1,1707,645,7.42314,-1.54324
490,379,8.52881,1.56677,0,0,0,0,0,0,0,-1,1714,645,8.52878,-1.56677
497,379,9.63599,1.49573,0,0,0,0,0,0,0,-1,1721,645,9.63604,-1.4957
504,379,10.0833,1.35229,0,0,0,0,0,0,0,-1,1728,645,10.0832,-1.35227
511,379,8.14343,1.59912,0,0,0,0,0,0,0,-1,1735,645,8.14347,-1.59912
518,379,12.7955,-0.324097,0,0,0,0,0,0,0,-1,1742,645,12.7955,0.324101
525,379,6.03711,1.10352,0,0,0,0,0,0,0,-1,1749,645,6.03711,-1.10351
532,379,8.70947,0.887817,0,0,0,0,0,0,0,-1,1756,645,8.70953,-0.887808
539,379,9.87097,0.111389,0,0,0,0,0,0,0,-1,1763,645,9.87095,-0.111395
546,379,8.42383,-0.730652,0,0,0,0,0,0,0,-1,1770,645,8.42378,0.730638
553,379,19.2905,-7.67834,0,0,0,0,0,0,0,-1,1777,645,19.2905,7.67837
560,379,22.2235,-10.0508,0,0,0,0,0,0,0,-1,1784,645,22.2235,10.0508
567,379,22.3906,-9.47198,0.00599317,-0.000496218,0.000852179,0.00610322,-0.000606259,0.128418,0.00428522,0.0452853,1791,645,22.3907,9.47198
574,379,22.6117,-8.91943,0.00442884,-0.000443608,0.000495623,0.00447874,-0.000493511,0.10035,0.00316319,0.014517,1798,645,22.6117,8.91941
581,379,22.5945,-8.35449,0.00327426,-0.000161253,0.000368987,0.00331344,-0.000200437,0.105796,0.00227871,0.0159426,1805,645,22.5945,8.35452
588,379,22.5663,-7.76233,0.00250938,0.000233108,0.000436791,0.00259032,0.00015217,0.183222,0.00167845,0.0174898,1812,645,22.5663,7.76232
595,379,22.532,-7.16699,0.0021346,0.000754941,0.000655203,0.00239617,0.000493374,0.37983,0.00146102,0.0145301,1819,645,22.532,7.16702
602,379,22.5251,-6.56104,0.00212921,0.00147883,0.00108245,0.00293426,0.000673778,0.639477,0.00177474,0.0153392,1826,645,22.5251,6.56102
609,379,22.4926,-5.98059,0.00222556,0.00227482,0.00156335,0.00381373,0.000686644,0.793274,0.00234733,0.0154593,1833,645,22.4925,5.98061
616,379,22.4513,-5.37274,0.00229042,0.0030068,0.00190227,0.00458431,0.000712917,0.878457,0.00284846,0.0122065,1840,645,22.4513,5.37275
623,379,22.4432,-4.7301,0.00259367,0.00367459,0.00227099,0.00546854,0.000799712,0.902217,0.00341052,0.0121525,1847,645,22.4433,4.73013
630,379,22.4286,-4.11542,0.00269908,0.00424078,0.00245488,0.00604298,0.000896872,0.937527,0.00376547,0.0137567,1854,645,22.4286,4.11544
637,379,22.4492,-3.38782,0.00249506,0.00475526,0.00240303,0.00628065,0.00096966,1.00519,0.00390423,0.0430649,1861,645,22.4493,3.38781
644,379,22.7432,-2.53058,0,0,0,0,0,0,0,-1,1868,645,22.7432,2.53059
651,379,12.9515,0.220825,0,0,0,0,0,0,0,-1,1875,645,12.9515,-0.220814
658,379,13.7498,0.37439,0,0,0,0,0,0,0,-1,1882,645,13.7498,-0.374371
665,379,11.9719,0.353333,0,0,0,0,0,0,0,-1,1889,645,11.9719,-0.353321
672,379,7.57605,2.15326,0,0,0,0,0,0,0,-1,1896,645,7.57599,-2.15326
679,379,8.55078,2.50409,0,0,0,0,0,0,0,-1,1903,645,8.55073,-2.50406
686,379,0,0,0,0,0,0,0,0,0,-1,1910,645,0,0
693,379,0,0,0,0,0,0,0,0,0,-1,1917,645,0,0
700,379,0,0,0,0,0,0,0,0,0,-1,1924,645,0,0
707,379,0,0,0,0,0,0,0,0,0,-1,1931,645,0,0
714,379,0,0,0,0,0,0,0,0,0,-1,1938,645,0,0
721,379,0,0,0,0,0,0,0,0,0,-1,1945,645,0,0
728,379,0,0,0,0,0,0,0,0,0,-1,1952,645,0,0
735,379,0,0,0,0,0,0,0,0,0,-1,1959,645,0,0
742,379,0,0,0,0,0,0,0,0,0,-1,1966,645,0,0
749,379,0,0,0,0,0,0,0,0,0,-1,1973,645,0,0
756,379,0,0,0,0,0,0,0,0,0,-1,1980,645,0,0
763,379,0,0,0,0,0,0,0,0,0,-1,1987,645,0,0
770,379,0,0,0,0,0,0,0,0,0,-1,1994,645,0,0
777,379,0,0,0,0,0,0,0,0,0,-1,2001,645,0,0
784,379,0,0,0,0,0,0,0,0,0,-1,2008,645,0,0
791,379,0,0,0,0,0,0,0,0,0,-1,2015,645,0,0
798,379,0,0,0,0,0,0,0,0,0,-1,2022,645,0,0
805,379,0,0,0,0,0,0,0,0,0,-1,2029,645,0,0
812,379,0,0,0,0,0,0,0,0,0,-1,2036,645,0,0
-700,372,0,0,0,0,0,0,0,0,0,-1,524,652,0,0
-693,372,0,0,0,0,0,0,0,0,0,-1,531,652,0,0
-686,372,0,0,0,0,0,0,0,0,0,-1,538,652,0,0
-679,372,0,0,0,0,0,0,0,0,0,-1,545,652,0,0
-672,372,0,0,0,0,0,0,0,0,0,-1,552,652,0,0
-665,372,0,0,0,0,0,0,0,0,0,-1,559,652,0,0
-658,372,0,0,0,0,0,0,0,0,0,-1,566,652,0,0
-651,372,0,0,0,0,0,0,0,0,0,-1,573,652,0,0
-644,372,0,0,0,0,0,0,0,0,0,-1,580,652,0,0
-637,372,0,0,0,0,0,0,0,0,0,-1,587,652,0,0
-630,372,0,0,0,0,0,0,0,0,0,-1,594,652,0,0
-623,372,0,0,0,0,0,0,0,0,0,-1,601,652,0,0
-616,372,0,0,0,0,0,0,0,0,0,-1,608,652,0,0
-609,372,0,0,0,0,0,0,0,0,0,-1,615,652,0,0
-602,372,0,0,0,0,0,0,0,0,0,-1,622,652,0,0
-595,372,0,0,0,0,0,0,0,0,0,-1,629,652,0,0
-588,372,0,0,0,0,0,0,0,0,0,-1,636,652,0,0
-581,372,0,0,0,0,0,0,0,0,0,-1,643,652,0,0
-574,372,0,0,0,0,0,0,0,0,0,-1,650,652,0,0
-567,372,-7.93744,0.73407,0,0,0,0,0,0,0,-1,657,652,-7.93741,-0.734076
-560,372,-8.78552,-0.158203,0,0,0,0,0,0,0,-1,664,652,-8.78552,0.158216
-553,372,-7.95551,1.61694,0,0,0,0,0,0,0,-1,671,652,-7.95552,-1.61697
-546,372,-4.2403,-3.75372,0,0,0,0,0,0,0,-1,678,652,-4.24028,3.75369
-539,372,-7.92285,-0.0650024,0,0,0,0,0,0,0,-1,685,652,-7.92287,0.0649772
-532,372,-8.59589,-0.419556,0,0,0,0,0,0,0,-1,692,652,-8.59591,0.419539
-525,372,-8.03674,-1.36804,0,0,0,0,0,0,0,-1,699,652,-8.03676,1.36806
-518,372,-12.5972,-4.61401,0,0,0,0,0,0,0,-1,706,652,-12.5973,4.61404
-511,372,-12.5408,-5.29474,0.00376394,0.00726207,-0.00457752,0.0104133,0.000612706,-0.967888,0.00674724,0.0342131,713,652,-12.5408,5.29474
-504,372,-12.5446,-5.82111,0.00263637,0.00496801,-0.00290083,0.00692852,0.000675856,-0.976466,0.00441102,0.0169997,720,652,-12.5445,5.82113
-497,372,-12.5259,-6.43463,0.00202294,0.00336507,-0.00190265,0.00471153,0.000676483,-0.954938,0.00294157,0.0128257,727,652,-12.5259,6.43462
-490,372,-12.5519,-7.0163,0.00139217,0.00192347,-0.0010048,0.00269714,0.000618503,-0.914632,0.00163149,0.0125399,734,652,-12.5519,7.01629
-483,372,-12.569,-7.58771,0.00149252,0.00139111,-0.000919412,0.00236262,0.000521006,-0.757849,0.00143333,0.0117888,741,652,-12.569,7.58769
-476,372,-12.5803,-8.14789,0.00173334,0.000991658,-0.000947498,0.00237999,0.000345015,-0.598867,0.00148507,0.012291,748,652,-12.5803,8.14789
-469,372,-12.6168,-8.70422,0.00196361,0.000655192,-0.000984161,0.00249116,0.000127638,-0.492065,0.00161991,0.0106642,755,652,-12.6168,8.70424
-462,372,-12.6446,-9.30548,0.00223483,0.000414885,-0.00104903,0.00271357,-6.38524e-05,-0.428132,0.0018307,0.00972717,762,652,-12.6446,9.30549
-455,372,-12.6847,-9.88348,0.00262788,5.48604e-05,-0.0011362,0.00305778,-0.000375039,-0.361718,0.00217434,0.00977542,769,652,-12.6847,9.8835
-448,372,-12.6854,-10.4475,0.00314194,-0.000189415,-0.00126931,0.00357045,-0.000617929,-0.325581,0.00261077,0.0122928,776,652,-12.6854,10.4475
-441,372,-12.5453,-11.2202,0,0,0,0,0,0,0,-1,783,652,-12.5453,11.2201
-434,372,-9.86865,-9.68494,0,0,0,0,0,0,0,-1,790,652,-9.86863,9.68492
-427,372,-4.54248,-3.56268,0,0,0,0,0,0,0,-1,797,652,-4.54247,3.56266
-420,372,-4.66168,-2.93597,0,0,0,0,0,0,0,-1,804,652,-4.66166,2.93599
-413,372,-4.74762,-3.29541,0,0,0,0,0,0,0,-1,811,652,-4.74763,3.29542
-406,372,-0.885437,-0.583923,0,0,0,0,0,0,0,-1,818,652,-0.885437,0.5839
-399,372,-3.97357,-0.825012,0,0,0,0,0,0,0,-1,825,652,-3.97359,0.825037
-392,372,-7.64337,0.173035,0,0,0,0,0,0,0,-1,832,652,-7.64337,-0.173019
-385,372,-6.48871,-0.0271606,0,0,0,0,0,0,0,-1,839,652,-6.48874,0.0271353
-378,372,-5.33044,-0.242432,0,0,0,0,0,0,0,-1,846,652,-5.33042,0.242457
-371,372,-4.40802,-0.495667,0,0,0,0,0,0,0,-1,853,652,-4.40802,0.495661
-364,372,0,0,0,0,0,0,0,0,0,-1,860,652,0,0
-357,372,0,0,0,0,0,0,0,0,0,-1,867,652,0,0
-350,372,0,0,0,0,0,0,0,0,0,-1,874,652,0,0
-343,372,0,0,0,0,0,0,0,0,0,-1,881,652,0,0
-336,372,0,0,0,0,0,0,0,0,0,-1,888,652,0,0
-329,372,0,0,0,0,0,0,0,0,0,-1,895,652,0,0
-322,372,0,0,0,0,0,0,0,0,0,-1,902,652,0,0
-315,372,0,0,0,0,0,0,0,0,0,-1,909,652,0,0
-308,372,0,0,0,0,0,0,0,0,0,-1,916,652,0,0
-301,372,0,0,0,0,0,0,0,0,0,-1,923,652,0,0
-294,372,0,0,0,0,0,0,0,0,0,-1,930,652,0,0
-287,372,0,0,0,0,0,0,0,0,0,-1,937,652,0,0
-280,372,0,0,0,0,0,0,0,0,0,-1,944,652,0,0
-273,372,0,0,0,0,0,0,0,0,0,-1,951,652,0,0
-266,372,0,0,0,0,0,0,0,0,0,-1,958,652,0,0
-259,372,0,0,0,0,0,0,0,0,0,-1,965,652,0,0
-252,372,0,0,0,0,0,0,0,0,0,-1,972,652,0,0
-245,372,0,0,0,0,0,0,0,0,0,-1,979,652,0,0
-238,372,0,0,0,0,0,0,0,0,0,-1,986,652,0,0
-231,372,0,0,0,0,0,0,0,0,0,-1,993,652,0,0
-224,372,0,0,0,0,0,0,0,0,0,-1,1000,652,0,0
-217,372,0,0,0,0,0,0,0,0,0,-1,1007,652,0,0
-210,372,0,0,0,0,0,0,0,0,0,-1,1014,652,0,0
-203,372,0,0,0,0,0,0,0,0,0,-1,1021,652,0,0
-196,372,0,0,0,0,0,0,0,0,0,-1,1028,652,0,0
-189,372,0,0,0,0,0,0,0,0,0,-1,1035,652,0,0
-182,372,0,0,0,0,0,0,0,0,0,-1,1042,652,0,0
-175,372,0,0,0,0,0,0,0,0,0,-1,1049,652,0,0
-168,372,0,0,0,0,0,0,0,0,0,-1,1056,652,0,0
-161,372,0,0,0,0,0,0,0,0,0,-1,1063,652,0,0
-154,372,0,0,0,0,0,0,0,0,0,-1,1070,652,0,0
-147,372,0,0,0,0,0,0,0,0,0,-1,1077,652,0,0
-140,372,0,0,0,0,0,0,0,0,0,-1,1084,652,0,0
-133,372,0,0,0,0,0,0,0,0,0,-1,1091,652,0,0
-126,372,0,0,0,0,0,0,0,0,0,-1,1098,652,0,0
-119,372,0,0,0,0,0,0,0,0,0,-1,1105,652,0,0
-112,372,0,0,0,0,0,0,0,0,0,-1,1112,652,0,0
-105,372,0,0,0,0,0,0,0,0,0,-1,1119,652,0,0
-98,372,0,0,0,0,0,0,0,0,0,-1,1126,652,0,0
-91,372,0,0,0,0,0,0,0,0,0,-1,1133,652,0,0
-84,372,0,0,0,0,0,0,0,0,0,-1,1140,652,0,0
-77,372,0,0,0,0,0,0,0,0,0,-1,1147,652,0,0
-70,372,0,0,0,0,0,0,0,0,0,-1,1154,652,0,0
-63,372,0,0,0,0,0,0,0,0,0,-1,1161,652,0,0
-56,372,0,0,0,0,0,0,0,0,0,-1,1168,652,0,0
-49,372,0,0,0,0,0,0,0,0,0,-1,1175,652,0,0
-42,372,0,0,0,0,0,0,0,0,0,-1,1182,652,0,0
-35,372,0,0,0,0,0,0,0,0,0,-1,1189,652,0,0
-28,372,0,0,0,0,0,0,0,0,0,-1,1196,652,0,0
-21,372,0,0,0,0,0,0,0,0,0,-1,1203,652,0,0
-14,372,0,0,0,0,0,0,0,0,0,-1,1210,652,0,0
-7,372,0,0,0,0,0,0,0,0,0,-1,1217,652,0,0
0,372,0,0,0,0,0,0,0,0,0,-1,1224,652,0,0
7,372,0,0,0,0,0,0,0,0,0,-1,1231,652,0,0
14,372,0,0,0,0,0,0,0,0,0,-1,1238,652,0,0
21,372,0,0,0,0,0,0,0,0,0,-1,1245,652,0,0
28,372,0,0,0,0,0,0,0,0,0,-1,1252,652,0,0
35,372,0,0,0,0,0,0,0,0,0,-1,1259,652,0,0
42,372,0,0,0,0,0,0,0,0,0,-1,1266,652,0,0
49,372,0,0,0,0,0,0,0,0,0,-1,1273,652,0,0
56,372,0,0,0,0,0,0,0,0,0,-1,1280,652,0,0
63,372,0,0,0,0,0,0,0,0,0,-1,1287,652,0,0
70,372,0,0,0,0,0,0,0,0,0,-1,1294,652,0,0
77,372,0,0,0,0,0,0,0,0,0,-1,1301,652,0,0
84,372,0,0,0,0,0,0,0,0,0,-1,1308,652,0,0
91,372,0,0,0,0,0,0,0,0,0,-1,1315,652,0,0
98,372,0,0,0,0,0,0,0,0,0,-1,1322,652,0,0
105,372,0,0,0,0,0,0,0,0,0,-1,1329,652,0,0
112,372,0,0,0,0,0,0,0,0,0,-1,1336,652,0,0
119,372,0,0,0,0,0,0,0,0,0,-1,1343,652,0,0
126,372,0,0,0,0,0,0,0,0,0,-1,1350,652,0,0
133,372,0,0,0,0,0,0,0,0,0,-1,1357,652,0,0
140,372,0,0,0,0,0,0,0,0,0,-1,1364,652,0,0
147,372,0,0,0,0,0,0,0,0,0,-1,1371,652,0,0
154,372,0,0,0,0,0,0,0,0,0,-1,1378,652,0,0
161,372,0,0,0,0,0,0,0,0,0,-1,1385,652,0,0
168,372,0,0,0,0,0,0,0,0,0,-1,1392,652,0,0
175,372,0,0,0,0,0,0,0,0,0,-1,1399,652,0,0
182,372,0,0,0,0,0,0,0,0,0,-1,1406,652,0,0
189,372,0,0,0,0,0,0,0,0,0,-1,1413,652,0,0
196,372,0,0,0,0,0,0,0,0,0,-1,1420,652,0,0
203,372,0,0,0,0,0,0,0,0,0,-1,1427,652,0,0
210,372,0,0,0,0,0,0,0,0,0,-1,1434,652,0,0
217,372,0,0,0,0,0,0,0,0,0,-1,1441,652,0,0
224,372,0,0,0,0,0,0,0,0,0,-1,1448,652,0,0
231,372,0,0,0,0,0,0,0,0,0,-1,1455,652,0,0
238,372,0,0,0,0,0,0,0,0,0,-1,1462,652,0,0
245,372,0,0,0,0,0,0,0,0,0,-1,1469,652,0,0
252,372,0,0,0,0,0,0,0,0,0,-1,1476,652,0,0
259,372,0,0,0,0,0,0,0,0,0,-1,1483,652,0,0
266,372,0,0,0,0,0,0,0,0,0,-1,1490,652,0,0
273,372,0,0,0,0,0,0,0,0,0,-1,1497,652,0,0
280,372,0,0,0,0,0,0,0,0,0,-1,1504,652,0,0
287,372,0,0,0,0,0,0,0,0,0,-1,1511,652,0,0
294,372,0,0,0,0,0,0,0,0,0,-1,1518,652,0,0
301,372,0,0,0,0,0,0,0,0,0,-1,1525,652,0,0
308,372,0,0,0,0,0,0,0,0,0,-1,1532,652,0,0
315,372,0,0,0,0,0,0,0,0,0,-1,1539,652,0,0
322,372,0,0,0,0,0,0,0,0,0,-1,1546,652,0,0
329,372,0,0,0,0,0,0,0,0,0,-1,1553,652,0,0
336,372,0,0,0,0,0,0,0,0,0,-1,1560,652,0,0
343,372,0,0,0,0,0,0,0,0,0,-1,1567,652,0,0
350,372,0,0,0,0,0,0,0,0,0,-1,1574,652,0,0
357,372,0,0,0,0,0,0,0,0,0,-1,1581,652,0,0
364,372,0,0,0,0,0,0,0,0,0,-1,1588,652,0,0
371,372,0,0,0,0,0,0,0,0,0,-1,1595,652,0,0
378,372,0,0,0,0,0,0,0,0,0,-1,1602,652,0,0
385,372,0,0,0,0,0,0,0,0,0,-1,1609,652,0,0
392,372,0,0,0,0,0,0,0,0,0,-1,1616,652,0,0
399,372,0,0,0,0,0,0,0,0,0,-1,1623,652,0,0
406,372,0,0,0,0,0,0,0,0,0,-1,1630,652,0,0
413,372,0,0,0,0,0,0,0,0,0,-1,1637,652,0,0
420,372,0,0,0,0,0,0,0,0,0,-1,1644,652,0,0
427,372,0,0,0,0,0,0,0,0,0,-1,1651,652,0,0
434,372,0,0,0,0,0,0,0,0,0,-1,1658,652,0,0
441,372,0,0,0,0,0,0,0,0,0,-1,1665,652,0,0
448,372,0,0,0,0,0,0,0,0,0,-1,1672,652,0,0
455,372,0,0,0,0,0,0,0,0,0,-1,1679,652,0,0
462,372,0,0,0,0,0,0,0,0,0,-1,1686,652,0,0
469,372,0,0,0,0,0,0,0,0,0,-1,1693,652,0,0
476,372,0,0,0,0,0,0,0,0,0,-1,1700,652,0,0
483,372,8.74182,1.53125,0,0,0,0,0,0,0,-1,1707,652,8.74186,-1.53126
490,372,9.78455,1.67096,0,0,0,0,0,0,0,-1,1714,652,9.7846,-1.67093
497,372,9.97644,1.46069,0,0,0,0,0,0,0,-1,1721,652,9.97647,-1.46071
504,372,10.1216,1.28375,0,0,0,0,0,0,0,-1,1728,652,10.1216,-1.28376
511,372,11.7367,-0.0272217,0,0,0,0,0,0,0,-1,1735,652,11.7367,0.0272326
518,372,12.0657,-0.0995483,0,0,0,0,0,0,0,-1,1742,652,12.0657,0.0995285
525,372,12.3947,-0.171814,0,0,0,0,0,0,0,-1,1749,652,12.3946,0.171824
532,372,9.36597,1.72034,0,0,0,0,0,0,0,-1,1756,652,9.36597,-1.72036
539,372,7.82886,-0.0865479,0,0,0,0,0,0,0,-1,1763,652,7.82882,0.0865771
546,372,10.953,-0.187195,0,0,0,0,0,0,0,-1,1770,652,10.953,0.187181
553,372,14.1201,-4.83234,0,0,0,0,0,0,0,-1,1777,652,14.1201,4.83235
560,372,20.1057,-8.06934,0,0,0,0,0,0,0,-1,1784,652,20.1058,8.06936
567,372,23.2307,-9.55756,0,0,0,0,0,0,0,-1,1791,652,23.2307,9.55753
574,372,23.2316,-8.84033,0.0048914,-0.00077283,0.000299878,0.00490724,-0.000788662,0.0527458,0.00356359,0.0358174,1798,652,23.2315,8.84032
581,372,23.2241,-8.33209,0.00351617,-0.000499277,0.000117961,0.00351963,-0.000502739,0.0293431,0.0025307,0.0206361,1805,652,23.2242,8.33206
588,372,23.1809,-7.75378,0.00263168,-0.000175723,0.000157578,0.0026405,-0.00018454,0.0558954,0.00182496,0.0161527,1812,652,23.1809,7.75376
595,372,23.1399,-7.15186,0.00215455,0.000309071,0.00032997,0.00221177,0.000251847,0.171714,0.00139815,0.013843,1819,652,23.1399,7.15183
602,372,23.1273,-6.55859,0.00204207,0.000941042,0.000684893,0.00237028,0.000612839,0.446872,0.00142067,0.0145086,1826,652,23.1274,6.55858
609,372,23.0581,-5.96008,0.00204902,0.00161869,0.00109823,0.00295297,0.000714746,0.688663,0.00177892,0.014899,1833,652,23.0582,5.9601
616,372,23.0398,-5.3407,0.00201536,0.00220152,0.00135638,0.00346801,0.000748864,0.819656,0.00210722,0.0144649,1840,652,23.0397,5.34071
623,372,23.0605,-4.70306,0.00208196,0.00272102,0.00158327,0.00401668,0.000786293,0.884969,0.00245797,0.0121565,1847,652,23.0606,4.70309
630,372,23.0551,-4.09216,0.00191694,0.00308916,0.00163347,0.00423849,0.000767614,0.957651,0.00260772,0.016031,1854,652,23.055,4.09216
637,372,23.0707,-3.51581,0.00151458,0.00334508,0.00143501,0.00413187,0.000727792,1.06927,0.00254688,0.0273361,1861,652,23.0706,3.51579
644,372,23.2185,-2.91229,0,0,0,0,0,0,0,-1,1868,652,23.2185,2.9123
651,372,21.3998,-0.888,0,0,0,0,0,0,0,-1,1875,652,21.3998,0.887992
658,372,14.157,0.280273,0,0,0,0,0,0,0,-1,1882,652,14.157,-0.280264
665,372,15.2286,0.463867,0,0,0,0,0,0,0,-1,1889,652,15.2287,-0.463854
672,372,9.34106,1.48444,0,0,0,0,0,0,0,-1,1896,652,9.34109,-1.48444
679,372,10.7308,2.32391,0,0,0,0,0,0,0,-1,1903,652,10.7309,-2.3239
686,372,11.6295,2.52997,0,0,0,0,0,0,0,-1,1910,652,11.6296,-2.52996
693,372,0,0,0,0,0,0,0,0,0,-1,1917,652,0,0
700,372,0,0,0,0,0,0,0,0,0,-1,1924,652,0,0
707,372,0,0,0,0,0,0,0,0,0,-1,1931,652,0,0
714,372,0,0,0,0,0,0,0,0,0,-1,1938,652,0,0
721,372,0,0,0,0,0,0,0,0,0,-1,1945,652,0,0
728,372,0,0,0,0,0,0,0,0,0,-1,1952,652,0,0
735,372,0,0,0,0,0,0,0,0,0,-1,1959,652,0,0
742,372,0,0,0,0,0,0,0,0,0,-1,1966,652,0,0
749,372,0,0,0,0,0,0,0,0,0,-1,1973,652,0,0
756,372,0,0,0,0,0,0,0,0,0,-1,1980,652,0,0
763,372,0,0,0,0,0,0,0,0,0,-1,1987,652,0,0
770,372,0,0,0,0,0,0,0,0,0,-1,1994,652,0,0
777,372,0,0,0,0,0,0,0,0,0,-1,2001,652,0,0
784,372,0,0,0,0,0,0,0,0,0,-1,2008,652,0,0
791,372,0,0,0,0,0,0,0,0,0,-1,2015,652,0,0
798,372,0,0,0,0,0,0,0,0,0,-1,2022,652,0,0
805,372,0,0,0,0,0,0,0,0,0,-1,2029,652,0,0
812,372,0,0,0,0,0,0,0,0,0,-1,2036,652,0,0
-700,365,0,0,0,0,0,0,0,0,0,-1,524,659,0,0
-693,365,0,0,0,0,0,0,0,0,0,-1,531,659,0,0
-686,365,0,0,0,0,0,0,0,0,0,-1,538,659,0,0
-679,365,0,0,0,0,0,0,0,0,0,-1,545,659,0,0
-672,365,0,0,0,0,0,0,0,0,0,-1,552,659,0,0
-665,365,0,0,0,0,0,0,0,0,0,-1,559,659,0,0
-658,365,0,0,0,0,0,0,0,0,0,-1,566,659,0,0
-651,365,0,0,0,0,0,0,0,0,0,-1,573,659,0,0
-644,365,0,0,0,0,0,0,0,0,0,-1,580,659,0,0
-637,365,0,0,0,0,0,0,0,0,0,-1,587,659,0,0
-630,365,0,0,0,0,0,0,0,0,0,-1,594,659,0,0
-623,365,0,0,0,0,0,0,0,0,0,-1,601,659,0,0
-616,365,0,0,0,0,0,0,0,0,0,-1,608,659,0,0
-609,365,0,0,0,0,0,0,0,0,0,-1,615,659,0,0
-602,365,0,0,0,0,0,0,0,0,0,-1,622,659,0,0
-595,365,0,0,0,0,0,0,0,0,0,-1,629,659,0,0
-588,365,0,0,0,0,0,0,0,0,0,-1,636,659,0,0
-581,365,0,0,0,0,0,0,0,0,0,-1,643,659,0,0
-574,365,-7.69281,1.59015,0,0,0,0,0,0,0,-1,650,659,-7.69282,-1.59018
-567,365,-8.2583,1.72638,0,0,0,0,0,0,0,-1,657,659,-8.25827,-1.72637
-560,365,-7.17767,0.275757,0,0,0,0,0,0,0,-1,664,659,-7.17768,-0.27577
-553,365,-10.0349,-0.169617,0,0,0,0,0,0,0,-1,671,659,-10.0349,0.169593
-546,365,-10.6303,-1.51642,0,0,0,0,0,0,0,-1,678,659,-10.6303,1.5164
-539,365,-8.38599,1.52936,0,0,0,0,0,0,0,-1,685,659,-8.38598,-1.52935
-532,365,-8.52863,0.166504,0,0,0,0,0,0,0,-1,692,659,-8.52863,-0.166501
-525,365,-9.28229,-2.62726,0,0,0,0,0,0,0,-1,699,659,-9.28227,2.62724
-518,365,-13.1193,-4.5274,0,0,0,0,0,0,0,-1,706,659,-13.1193,4.52741
-511,365,-13.1234,-5.20404,0.00335259,0.00624941,-0.00399498,0.00905044,0.000551557,-0.959307,0.00585844,0.0327998,713,659,-13.1234,5.20403
-504,365,-13.0964,-5.80524,0.00247677,0.00414661,-0.00255233,0.00599711,0.000626273,-0.943472,0.00380653,0.0137062,720,659,-13.0964,5.80526
-497,365,-13.0909,-6.40808,0.00206908,0.00271896,-0.00171757,0.00414206,0.000645977,-0.878887,0.00257322,0.0138256,727,659,-13.0909,6.40809
-490,365,-13.1304,-6.99976,0.00151089,0.00138183,-0.000882808,0.00233153,0.0005612,-0.748915,0.00140515,0.0135355,734,659,-13.1304,6.99976
-483,365,-13.1619,-7.56384,0.00168455,0.000972531,-0.000862767,0.00226187,0.000395208,-0.589722,0.00139497,0.0121637,741,659,-13.1619,7.56384
-476,365,-13.1417,-8.13354,0.00196929,0.0006917,-0.000940951,0.00246779,0.000193196,-0.487192,0.00158473,0.0155591,748,659,-13.1417,8.13354
-469,365,-13.1769,-8.70654,0.00223773,0.000487799,-0.0010378,0.00272019,5.34265e-06,-0.435162,0.00181168,0.0157955,755,659,-13.1769,8.70653
-462,365,-13.2144,-9.27124,0.00256869,0.000386454,-0.00117834,0.00308351,-0.000128365,-0.411907,0.00209977,0.0138662,762,659,-13.2144,9.27125
-455,365,-13.2366,-9.8562,0.0030498,0.000146506,-0.00134286,0.00357566,-0.00037936,-0.373245,0.00251977,0.0156888,769,659,-13.2366,9.8562
-448,365,-13.1578,-10.5245,0.00364522,1.41475e-05,-0.00154699,0.00421492,-0.000555551,-0.352851,0.00301225,0.036888,776,659,-13.1579,10.5245
-441,365,-12.9351,-11.2996,0,0,0,0,0,0,0,-1,783,659,-12.9351,11.2995
-434,365,-5.45056,-3.98041,0,0,0,0,0,0,0,-1,790,659,-5.45055,3.98042
-427,365,-5.05377,-4.74689,0,0,0,0,0,0,0,-1,797,659,-5.05376,4.7469
-420,365,-4.58813,-3.16376,0,0,0,0,0,0,0,-1,804,659,-4.58816,3.16374
-413,365,0.141357,0.672729,0,0,0,0,0,0,0,-1,811,659,0.141365,-0.672714
-406,365,-1.75067,-0.934448,0,0,0,0,0,0,0,-1,818,659,-1.7507,0.934424
-399,365,-4.10242,-1.25439,0,0,0,0,0,0,0,-1,825,659,-4.10244,1.25438
-392,365,-7.46545,-0.779724,0,0,0,0,0,0,0,-1,832,659,-7.46543,0.779744
-385,365,-6.27875,-0.887573,0,0,0,0,0,0,0,-1,839,659,-6.27874,0.887545
-378,365,-5.34503,-0.263306,0,0,0,0,0,0,0,-1,846,659,-5.34504,0.263275
-371,365,0,0,0,0,0,0,0,0,0,-1,853,659,0,0
-364,365,0,0,0,0,0,0,0,0,0,-1,860,659,0,0
-357,365,0,0,0,0,0,0,0,0,0,-1,867,659,0,0
-350,365,0,0,0,0,0,0,0,0,0,-1,874,659,0,0
-343,365,0,0,0,0,0,0,0,0,0,-1,881,659,0,0
-336,365,0,0,0,0,0,0,0,0,0,-1,888,659,0,0
-329,365,0,0,0,0,0,0,0,0,0,-1,895,659,0,0
-322,365,0,0,0,0,0,0,0,0,0,-1,902,659,0,0
-315,365,0,0,0,0,0,0,0,0,0,-1,909,659,0,0
-308,365,0,0,0,0,0,0,0,0,0,-1,916,659,0,0
-301,365,0,0,0,0,0,0,0,0,0,-1,923,659,0,0
-294,365,0,0,0,0,0,0,0,0,0,-1,930,659,0,0
-287,365,0,0,0,0,0,0,0,0,0,-1,937,659,0,0
-280,365,0,0,0,0,0,0,0,0,0,-1,944,659,0,0
-273,365,0,0,0,0,0,0,0,0,0,-1,951,659,0,0
-266,365,0,0,0,0,0,0,0,0,0,-1,958,659,0,0
-259,365,0,0,0,0,0,0,0,0,0,-1,965,659,0,0
-252,365,0,0,0,0,0,0,0,0,0,-1,972,659,0,0
-245,365,0,0,0,0,0,0,0,0,0,-1,979,659,0,0
-238,365,0,0,0,0,0,0,0,0,0,-1,986,659,0,0
-231,365,0,0,0,0,0,0,0,0,0,-1,993,659,0,0
-224,365,0,0,0,0,0,0,0,0,0,-1,1000,659,0,0
-217,365,0,0,0,0,0,0,0,0,0,-1,1007,659,0,0
-210,365,0,0,0,0,0,0,0,0,0,-1,1014,659,0,0
-203,365,0,0,0,0,0,0,0,0,0,-1,1021,659,0,0
-196,365,0,0,0,0,0,0,0,0,0,-1,1028,659,0,0
-189,365,0,0,0,0,0,0,0,0,0,-1,1035,659,0,0
-182,365,0,0,0,0,0,0,0,0,0,-1,1042,659,0,0
-175,365,0,0,0,0,0,0,0,0,0,-1,1049,659,0,0
-168,365,0,0,0,0,0,0,0,0,0,-1,1056,659,0,0
-161,365,0,0,0,0,0,0,0,0,0,-1,1063,659,0,0
-154,365,0,0,0,0,0,0,0,0,0,-1,1070,659,0,0
-147,365,0,0,0,0,0,0,0,0,0,-1,1077,659,0,0
-140,365,0,0,0,0,0,0,0,0,0,-1,1084,659,0,0
-133,365,0,0,0,0,0,0,0,0,0,-1,1091,659,0,0
-126,365,0,0,0,0,0,0,0,0,0,-1,1098,659,0,0
-119,365,0,0,0,0,0,0,0,0,0,-1,1105,659,0,0
-112,365,0,0,0,0,0,0,0,0,0,-1,1112,659,0,0
-105,365,0,0,0,0,0,0,0,0,0,-1,1119,659,0,0
-98,365,0,0,0,0,0,0,0,0,0,-1,1126,659,0,0
-91,365,0,0,0,0,0,0,0,0,0,-1,1133,659,0,0
-84,365,0,0,0,0,0,0,0,0,0,-1,1140,659,0,0
-77,365,0,0,0,0,0,0,0,0,0,-1,1147,659,0,0
-70,365,0,0,0,0,0,0,0,0,0,-1,1154,659,0,0
-63,365,0,0,0,0,0,0,0,0,0,-1,1161,659,0,0
-56,365,0,0,0,0,0,0,0,0,0,-1,1168,659,0,0
-49,365,0,0,0,0,0,0,0,0,0,-1,1175,659,0,0
-42,365,0,0,0,0,0,0,0,0,0,-1,1182,659,0,0
-35,365,0,0,0,0,0,0,0,0,0,-1,1189,659,0,0
-28,365,0,0,0,0,0,0,0,0,0,-1,1196,659,0,0
-21,365,0,0,0,0,0,0,0,0,0,-1,1203,659,0,0
-14,365,0,0,0,0,0,0,0,0,0,-1,1210,659,0,0
-7,365,0,0,0,0,0,0,0,0,0,-1,1217,659,0,0
0,365,0,0,0,0,0,0,0,0,0,-1,1224,659,0,0
7,365,0,0,0,0,0,0,0,0,0,-1,1231,659,0,0
14,365,0,0,0,0,0,0,0,0,0,-1,1238,659,0,0
21,365,0,0,0,0,0,0,0,0,0,-1,1245,659,0,0
28,365,0,0,0,0,0,0,0,0,0,-1,1252,659,0,0
35,365,0,0,0,0,0,0,0,0,0,-1,1259,659,0,0
42,365,0,0,0,0,0,0,0,0,0,-1,1266,659,0,0
49,365,0,0,0,0,0,0,0,0,0,-1,1273,659,0,0
56,365,0,0,0,0,0,0,0,0,0,-1,1280,659,0,0
63,365,0,0,0,0,0,0,0,0,0,-1,1287,659,0,0
70,365,0,0,0,0,0,0,0,0,0,-1,1294,659,0,0
77,365,0,0,0,0,0,0,0,0,0,-1,1301,659,0,0
84,365,0,0,0,0,0,0,0,0,0,-1,1308,659,0,0
91,365,0,0,0,0,0,0,0,0,0,-1,1315,659,0,0
98,365,0,0,0,0,0,0,0,0,0,-1,1322,659,0,0
105,365,0,0,0,0,0,0,0,0,0,-1,1329,659,0,0
112,365,0,0,0,0,0,0,0,0,0,-1,1336,659,0,0
119,365,0,0,0,0,0,0,0,0,0,-1,1343,659,0,0
126,365,0,0,0,0,0,0,0,0,0,-1,1350,659,0,0
133,365,0,0,0,0,0,0,0,0,0,-1,1357,659,0,0
140,365,0,0,0,0,0,0,0,0,0,-1,1364,659,0,0
147,365,0,0,0,0,0,0,0,0,0,-1,1371,659,0,0
154,365,0,0,0,0,0,0,0,0,0,-1,1378,659,0,0
161,365,0,0,0,0,0,0,0,0,0,-1,1385,659,0,0
168,365,0,0,0,0,0,0,0,0,0,-1,1392,659,0,0
175,365,0,0,0,0,0,0,0,0,0,-1,1399,659,0,0
182,365,0,0,0,0,0,0,0,0,0,-1,1406,659,0,0
189,365,0,0,0,0,0,0,0,0,0,-1,1413,659,0,0
196,365,0,0,0,0,0,0,0,0,0,-1,1420,659,0,0
203,365,0,0,0,0,0,0,0,0,0,-1,1427,659,0,0
210,365,0,0,0,0,0,0,0,0,0,-1,1434,659,0,0
217,365,0,0,0,0,0,0,0,0,0,-1,1441,659,0,0
224,365,0,0,0,0,0,0,0,0,0,-1,1448,659,0,0
231,365,0,0,0,0,0,0,0,0,0,-1,1455,659,0,0
238,365,0,0,0,0,0,0,0,0,0,-1,1462,659,0,0
245,365,0,0,0,0,0,0,0,0,0,-1,1469,659,0,0
252,365,0,0,0,0,0,0,0,0,0,-1,1476,659,0,0
259,365,0,0,0,0,0,0,0,0,0,-1,1483,659,0,0
266,365,0,0,0,0,0,0,0,0,0,-1,1490,659,0,0
273,365,0,0,0,0,0,0,0,0,0,-1,1497,659,0,0
280,365,0,0,0,0,0,0,0,0,0,-1,1504,659,0,0
287,365,0,0,0,0,0,0,0,0,0,-1,1511,659,0,0
294,365,0,0,0,0,0,0,0,0,0,-1,1518,659,0,0
301,365,0,0,0,0,0,0,0,0,0,-1,1525,659,0,0
308,365,0,0,0,0,0,0,0,0,0,-1,1532,659,0,0
315,365,0,0,0,0,0,0,0,0,0,-1,1539,659,0,0
322,365,0,0,0,0,0,0,0,0,0,-1,1546,659,0,0
329,365,0,0,0,0,0,0,0,0,0,-1,1553,659,0,0
336,365,0,0,0,0,0,0,0,0,0,-1,1560,659,0,0
343,365,0,0,0,0,0,0,0,0,0,-1,1567,659,0,0
350,365,0,0,0,0,0,0,0,0,0,-1,1574,659,0,0
357,365,0,0,0,0,0,0,0,0,0,-1,1581,659,0,0
364,365,0,0,0,0,0,0,0,0,0,-1,1588,659,0,0
371,365,0,0,0,0,0,0,0,0,0,-1,1595,659,0,0
378,365,0,0,0,0,0,0,0,0,0,-1,1602,659,0,0
385,365,0,0,0,0,0,0,0,0,0,-1,1609,659,0,0
392,365,0,0,0,0,0,0,0,0,0,-1,1616,659,0,0
399,365,0,0,0,0,0,0,0,0,0,-1,1623,659,0,0
406,365,0,0,0,0,0,0,0,0,0,-1,1630,659,0,0
413,365,0,0,0,0,0,0,0,0,0,-1,1637,659,0,0
420,365,0,0,0,0,0,0,0,0,0,-1,1644,659,0,0
427,365,0,0,0,0,0,0,0,0,0,-1,1651,659,0,0
434,365,0,0,0,0,0,0,0,0,0,-1,1658,659,0,0
441,365,0,0,0,0,0,0,0,0,0,-1,1665,659,0,0
448,365,0,0,0,0,0,0,0,0,0,-1,1672,659,0,0
455,365,0,0,0,0,0,0,0,0,0,-1,1679,659,0,0
462,365,0,0,0,0,0,0,0,0,0,-1,1686,659,0,0
469,365,0,0,0,0,0,0,0,0,0,-1,1693,659,0,0
476,365,0,0,0,0,0,0,0,0,0,-1,1700,659,0,0
483,365,0,0,0,0,0,0,0,0,0,-1,1707,659,0,0
490,365,8.39551,0.471252,0,0,0,0,0,0,0,-1,1714,659,8.39551,-0.471241
497,365,9.89233,1.35394,0,0,0,0,0,0,0,-1,1721,659,9.89237,-1.35396
504,365,10.1414,1.18005,0,0,0,0,0,0,0,-1,1728,659,10.1413,-1.18004
511,365,10.5151,0.993896,0,0,0,0,0,0,0,-1,1735,659,10.5152,-0.993894
518,365,11.2029,0.398132,0,0,0,0,0,0,0,-1,1742,659,11.2029,-0.398136
525,365,15.5748,3.85303,0,0,0,0,0,0,0,-1,1749,659,15.5748,-3.85303
532,365,11.2446,1.00629,0,0,0,0,0,0,0,-1,1756,659,11.2446,-1.00631
539,365,12.6301,1.03204,0,0,0,0,0,0,0,-1,1763,659,12.6302,-1.03204
546,365,11.647,0.84198,0,0,0,0,0,0,0,-1,1770,659,11.6469,-0.841955
553,365,12.028,-0.558899,0,0,0,0,0,0,0,-1,1777,659,12.028,0.558873
560,365,14.5372,-4.55548,0,0,0,0,0,0,0,-1,1784,659,14.5373,4.55547
567,365,20.5676,-7.53888,0,0,0,0,0,0,0,-1,1791,659,20.5676,7.53887
574,365,23.9999,-8.77228,0,0,0,0,0,0,0,-1,1798,659,23.9999,8.77227
581,365,23.6377,-8.55737,0,0,0,0,0,0,0,-1,1805,659,23.6377,8.55739
588,365,23.731,-7.81097,0.00276172,-0.000523091,-9.88231e-05,0.00276469,-0.000526061,-0.0300486,0.00204121,0.0236146,1812,659,23.731,7.81097
595,365,23.7439,-7.10858,0.00217143,-4.37616e-05,4.97114e-05,0.00217255,-4.48767e-05,0.022426,0.00146355,0.0136708,1819,659,23.7439,7.10858
602,365,23.7062,-6.4917,0.00192714,0.000495412,0.000331441,0.00200015,0.000422407,0.216803,0.00121731,0.0151399,1826,659,23.7062,6.49169
609,365,23.6559,-5.88068,0.00185961,0.00106653,0.000695519,0.00226369,0.00066245,0.526311,0.00134388,0.0156915,1833,659,23.6559,5.8807
616,365,23.6726,-5.25531,0.00176028,0.00153627,0.000913174,0.00256829,0.000728257,0.724377,0.00152841,0.0170707,1840,659,23.6726,5.25528
623,365,23.696,-4.66284,0.00164974,0.00193184,0.00103972,0.00284003,0.00074155,0.852816,0.00170094,0.0114713,1847,659,23.6961,4.66283
630,365,23.6759,-4.07727,0.00125708,0.00215052,0.00100792,0.00280628,0.000601326,0.993996,0.00170611,0.0151111,1854,659,23.6759,4.07724
637,365,23.6428,-3.51074,0.000539543,0.00222246,0.000681761,0.00246398,0.000298019,1.23033,0.00155288,0.0218021,1861,659,23.6428,3.51073
644,365,23.6315,-2.89532,-0.00056887,0.00212849,6.82563e-05,0.00213021,-0.000570596,1.54551,0.00164369,0.0233792,1868,659,23.6314,2.89531
651,365,23.854,-2.0498,0,0,0,0,0,0,0,-1,1875,659,23.8541,2.04981
658,365,21.6173,-1.22028,0,0,0,0,0,0,0,-1,1882,659,21.6173,1.22025
665,365,14.0961,0.769043,0,0,0,0,0,0,0,-1,1889,659,14.0961,-0.769063
672,365,10.0579,2.15088,0,0,0,0,0,0,0,-1,1896,659,10.0579,-2.15088
679,365,10.9718,2.19208,0,0,0,0,0,0,0,-1,1903,659,10.9718,-2.19211
686,365,12.2134,2.17108,0,0,0,0,0,0,0,-1,1910,659,12.2134,-2.17109
693,365,13.7141,1.98279,0,0,0,0,0,0,0,-1,1917,659,13.7141,-1.98278
700,365,0,0,0,0,0,0,0,0,0,-1,1924,659,0,0
707,365,0,0,0,0,0,0,0,0,0,-1,1931,659,0,0
714,365,0,0,0,0,0,0,0,0,0,-1,1938,659,0,0
721,365,0,0,0,0,0,0,0,0,0,-1,1945,659,0,0
728,365,0,0,0,0,0,0,0,0,0,-1,1952,659,0,0
735,365,0,0,0,0,0,0,0,0,0,-1,1959,659,0,0
742,365,0,0,0,0,0,0,0,0,0,-1,1966,659,0,0
749,365,0,0,0,0,0,0,0,0,0,-1,1973,659,0,0
756,365,0,0,0,0,0,0,0,0,0,-1,1980,659,0,0
763,365,0,0,0,0,0,0,0,0,0,-1,1987,659,0,0
770,365,0,0,0,0,0,0,0,0,0,-1,1994,659,0,0
777,365,0,0,0,0,0,0,0,0,0,-1,2001,659,0,0
784,365,0,0,0,0,0,0,0,0,0,-1,2008,659,0,0
791,365,0,0,0,0,0,0,0,0,0,-1,2015,659,0,0
798,365,0,0,0,0,0,0,0,0,0,-1,2022,659,0,0
805,365,0,0,0,0,0,0,0,0,0,-1,2029,659,0,0
812,365,0,0,0,0,0,0,0,0,0,-1,2036,659,0,0
-700,358,0,0,0,0,0,0,0,0,0,-1,524,666,0,0
-693,358,0,0,0,0,0,0,0,0,0,-1,531,666,0,0
-686,358,0,0,0,0,0,0,0,0,0,-1,538,666,0,0
-679,358,0,0,0,0,0,0,0,0,0,-1,545,666,0,0
-672,358,0,0,0,0,0,0,0,0,0,-1,552,666,0,0
-665,358,0,0,0,0,0,0,0,0,0,-1,559,666,0,0
-658,358,0,0,0,0,0,0,0,0,0,-1,566,666,0,0
-651,358,0,0,0,0,0,0,0,0,0,-1,573,666,0,0
-644,358,0,0,0,0,0,0,0,0,0,-1,580,666,0,0
-637,358,0,0,0,0,0,0,0,0,0,-1,587,666,0,0
-630,358,0,0,0,0,0,0,0,0,0,-1,594,666,0,0
-623,358,0,0,0,0,0,0,0,0,0,-1,601,666,0,0
-616,358,0,0,0,0,0,0,0,0,0,-1,608,666,0,0
-609,358,0,0,0,0,0,0,0,0,0,-1,615,666,0,0
-602,358,0,0,0,0,0,0,0,0,0,-1,622,666,0,0
-595,358,0,0,0,0,0,0,0,0,0,-1,629,666,0,0
-588,358,0,0,0,0,0,0,0,0,0,-1,636,666,0,0
-581,358,-8.31616,1.61993,0,0,0,0,0,0,0,-1,643,666,-8.31614,-1.61993
-574,358,-8.22406,1.75385,0,0,0,0,0,0,0,-1,650,666,-8.22408,-1.75383
-567,358,-8.14215,1.91577,0,0,0,0,0,0,0,-1,657,666,-8.14214,-1.91579
-560,358,-10.6086,2.18872,0,0,0,0,0,0,0,-1,664,666,-10.6086,-2.18873
-553,358,-13.4767,1.09552,0,0,0,0,0,0,0,-1,671,666,-13.4767,-1.09551
-546,358,-13.3743,-0.185059,0,0,0,0,0,0,0,-1,678,666,-13.3743,0.185037
-539,358,-9.43884,-2.04785,0,0,0,0,0,0,0,-1,685,666,-9.43884,2.04785
-532,358,-12.4141,-2.36572,0,0,0,0,0,0,0,-1,692,666,-12.4141,2.3657
-525,358,-12.731,-3.88031,0,0,0,0,0,0,0,-1,699,666,-12.731,3.88029
-518,358,-13.6664,-4.60431,0,0,0,0,0,0,0,-1,706,666,-13.6664,4.60433
-511,358,-13.6872,-5.1803,0.00289547,0.00534696,-0.00335779,0.00769574,0.000546694,-0.960406,0.00495832,0.0166607,713,666,-13.6872,5.18033
-504,358,-13.7008,-5.76929,0.00222453,0.0034245,-0.00210853,0.00501675,0.000632285,-0.92401,0.00315493,0.0125231,720,666,-13.7008,5.76932
-497,358,-13.6826,-6.38684,0.00198584,0.00215348,-0.00141433,0.00348647,0.000652848,-0.814995,0.00214015,0.0122929,727,666,-13.6826,6.38685
-490,358,-13.6963,-6.96802,0.00156085,0.00094459,-0.000689426,0.00200787,0.00049757,-0.575246,0.0012074,0.0113101,734,666,-13.6963,6.96801
-483,358,-13.7427,-7.52374,0.00183117,0.000633287,-0.000744352,0.00218763,0.000276827,-0.446615,0.00137546,0.0099188,741,666,-13.7427,7.52372
-476,358,-13.7225,-8.07367,0.00217657,0.000446442,-0.000885989,0.00254978,7.32359e-05,-0.398674,0.00167597,0.0127448,748,666,-13.7225,8.07368
-469,358,-13.7686,-8.63983,0.00252584,0.000365269,-0.00107725,0.00297116,-8.00546e-05,-0.391995,0.00200799,0.0169899,755,666,-13.7686,8.63985
-462,358,-13.8086,-9.23895,0.00297813,0.000389896,-0.00133292,0.00354181,-0.000173783,-0.400083,0.00242121,0.0185191,762,666,-13.8086,9.23893
-455,358,-13.7244,-9.87085,0.00362634,0.000302532,-0.00162434,0.00428831,-0.00035944,-0.386984,0.00298591,0.0409538,769,666,-13.7244,9.87085
-448,358,-13.5552,-10.75,0,0,0,0,0,0,0,-1,776,666,-13.5552,10.75
-441,358,-5.56293,-3.98041,0,0,0,0,0,0,0,-1,783,666,-5.56291,3.98043
-434,358,-5.21558,-4.43127,0,0,0,0,0,0,0,-1,790,666,-5.21559,4.43125
-427,358,-3.56189,-3.15729,0,0,0,0,0,0,0,-1,797,666,-3.56192,3.15729
-420,358,0.200195,1.08234,0,0,0,0,0,0,0,-1,804,666,0.200174,-1.08231
-413,358,0.0325317,0.161072,0,0,0,0,0,0,0,-1,811,666,0.0325501,-0.161098
-406,358,-3.85846,0.753113,0,0,0,0,0,0,0,-1,818,666,-3.85846,-0.753129
-399,358,-1.31213,0.190735,0,0,0,0,0,0,0,-1,825,666,-1.31215,-0.190763
-392,358,-3.73914,-0.832214,0,0,0,0,0,0,0,-1,832,666,-3.73915,0.832202
-385,358,-5.95178,-1.69141,0,0,0,0,0,0,0,-1,839,666,-5.9518,1.69143
-378,358,0,0,0,0,0,0,0,0,0,-1,846,666,0,0
-371,358,0,0,0,0,0,0,0,0,0,-1,853,666,0,0
-364,358,0,0,0,0,0,0,0,0,0,-1,860,666,0,0
-357,358,0,0,0,0,0,0,0,0,0,-1,867,666,0,0
-350,358,0,0,0,0,0,0,0,0,0,-1,874,666,0,0
-343,358,0,0,0,0,0,0,0,0,0,-1,881,666,0,0
-336,358,0,0,0,0,0,0,0,0,0,-1,888,666,0,0
-329,358,0,0,0,0,0,0,0,0,0,-1,895,666,0,0
-322,358,0,0,0,0,0,0,0,0,0,-1,902,666,0,0
-315,358,0,0,0,0,0,0,0,0,0,-1,909,666,0,0
-308,358,0,0,0,0,0,0,0,0,0,-1,916,666,0,0
-301,358,0,0,0,0,0,0,0,0,0,-1,923,666,0,0
-294,358,0,0,0,0,0,0,0,0,0,-1,930,666,0,0
-287,358,0,0,0,0,0,0,0,0,0,-1,937,666,0,0
-280,358,0,0,0,0,0,0,0,0,0,-1,944,666,0,0
-273,358,0,0,0,0,0,0,0,0,0,-1,951,666,0,0
-266,358,0,0,0,0,0,0,0,0,0,-1,958,666,0,0
-259,358,0,0,0,0,0,0,0,0,0,-1,965,666,0,0
-252,358,0,0,0,0,0,0,0,0,0,-1,972,666,0,0
-245,358,0,0,0,0,0,0,0,0,0,-1,979,666,0,0
-238,358,0,0,0,0,0,0,0,0,0,-1,986,666,0,0
-231,358,0,0,0,0,0,0,0,0,0,-1,993,666,0,0
-224,358,0,0,0,0,0,0,0,0,0,-1,1000,666,0,0
-217,358,0,0,0,0,0,0,0,0,0,-1,1007,666,0,0
-210,358,0,0,0,0,0,0,0,0,0,-1,1014,666,0,0
-203,358,0,0,0,0,0,0,0,0,0,-1,1021,666,0,0
-196,358,0,0,0,0,0,0,0,0,0,-1,1028,666,0,0
-189,358,0,0,0,0,0,0,0,0,0,-1,1035,666,0,0
-182,358,0,0,0,0,0,0,0,0,0,-1,1042,666,0,0
-175,358,0,0,0,0,0,0,0,0,0,-1,1049,666,0,0
-168,358,0,0,0,0,0,0,0,0,0,-1,1056,666,0,0
-161,358,0,0,0,0,0,0,0,0,0,-1,1063,666,0,0
-154,358,0,0,0,0,0,0,0,0,0,-1,1070,666,0,0
-147,358,0,0,0,0,0,0,0,0,0,-1,1077,666,0,0
-140,358,0,0,0,0,0,0,0,0,0,-1,1084,666,0,0
-133,358,0,0,0,0,0,0,0,0,0,-1,1091,666,0,0
-126,358,0,0,0,0,0,0,0,0,0,-1,1098,666,0,0
-119,358,0,0,0,0,0,0,0,0,0,-1,1105,666,0,0
-112,358,0,0,0,0,0,0,0,0,0,-1,1112,666,0,0
-105,358,0,0,0,0,0,0,0,0,0,-1,1119,666,0,0
-98,358,0,0,0,0,0,0,0,0,0,-1,1126,666,0,0
-91,358,0,0,0,0,0,0,0,0,0,-1,1133,666,0,0
-84,358,0,0,0,0,0,0,0,0,0,-1,1140,666,0,0
-77,358,0,0,0,0,0,0,0,0,0,-1,1147,666,0,0
-70,358,0,0,0,0,0,0,0,0,0,-1,1154,666,0,0
-63,358,0,0,0,0,0,0,0,0,0,-1,1161,666,0,0
-56,358,0,0,0,0,0,0,0,0,0,-1,1168,666,0,0
-49,358,0,0,0,0,0,0,0,0,0,-1,1175,666,0,0
-42,358,0,0,0,0,0,0,0,0,0,-1,1182,666,0,0
-35,358,0,0,0,0,0,0,0,0,0,-1,1189,666,0,0
-28,358,0,0,0,0,0,0,0,0,0,-1,1196,666,0,0
-21,358,0,0,0,0,0,0,0,0,0,-1,1203,666,0,0
-14,358,0,0,0,0,0,0,0,0,0,-1,1210,666,0,0
-7,358,0,0,0,0,0,0,0,0,0,-1,1217,666,0,0
0,358,0,0,0,0,0,0,0,0,0,-1,1224,666,0,0
7,358,0,0,0,0,0,0,0,0,0,-1,1231,666,0,0
14,358,0,0,0,0,0,0,0,0,0,-1,1238,666,0,0
21,358,0,0,0,0,0,0,0,0,0,-1,1245,666,0,0
28,358,0,0,0,0,0,0,0,0,0,-1,1252,666,0,0
35,358,0,0,0,0,0,0,0,0,0,-1,1259,666,0,0
42,358,0,0,0,0,0,0,0,0,0,-1,1266,666,0,0
49,358,0,0,0,0,0,0,0,0,0,-1,1273,666,0,0
56,358,0,0,0,0,0,0,0,0,0,-1,1280,666,0,0
63,358,0,0,0,0,0,0,0,0,0,-1,1287,666,0,0
70,358,0,0,0,0,0,0,0,0,0,-1,1294,666,0,0
77,358,0,0,0,0,0,0,0,0,0,-1,1301,666,0,0
84,358,0,0,0,0,0,0,0,0,0,-1,1308,666,0,0
91,358,0,0,0,0,0,0,0,0,0,-1,1315,666,0,0
98,358,0,0,0,0,0,0,0,0,0,-1,1322,666,0,0
105,358,0,0,0,0,0,0,0,0,0,-1,1329,666,0,0
112,358,0,0,0,0,0,0,0,0,0,-1,1336,666,0,0
119,358,0,0,0,0,0,0,0,0,0,-1,1343,666,0,0
126,358,0,0,0,0,0,0,0,0,0,-1,1350,666,0,0
133,358,0,0,0,0,0,0,0,0,0,-1,1357,666,0,0
140,358,0,0,0,0,0,0,0,0,0,-1,1364,666,0,0
147,358,0,0,0,0,0,0,0,0,0,-1,1371,666,0,0
154,358,0,0,0,0,0,0,0,0,0,-1,1378,666,0,0
161,358,0,0,0,0,0,0,0,0,0,-1,1385,666,0,0
168,358,0,0,0,0,0,0,0,0,0,-1,1392,666,0,0
175,358,0,0,0,0,0,0,0,0,0,-1,1399,666,0,0
182,358,0,0,0,0,0,0,0,0,0,-1,1406,666,0,0
189,358,0,0,0,0,0,0,0,0,0,-1,1413,666,0,0
196,358,0,0,0,0,0,0,0,0,0,-1,1420,666,0,0
203,358,0,0,0,0,0,0,0,0,0,-1,1427,666,0,0
210,358,0,0,0,0,0,0,0,0,0,-1,1434,666,0,0
217,358,0,0,0,0,0,0,0,0,0,-1,1441,666,0,0
224,358,0,0,0,0,0,0,0,0,0,-1,1448,666,0,0
231,358,0,0,0,0,0,0,0,0,0,-1,1455,666,0,0
238,358,0,0,0,0,0,0,0,0,0,-1,1462,666,0,0
245,358,0,0,0,0,0,0,0,0,0,-1,1469,666,0,0
252,358,0,0,0,0,0,0,0,0,0,-1,1476,666,0,0
259,358,0,0,0,0,0,0,0,0,0,-1,1483,666,0,0
266,358,0,0,0,0,0,0,0,0,0,-1,1490,666,0,0
273,358,0,0,0,0,0,0,0,0,0,-1,1497,666,0,0
280,358,0,0,0,0,0,0,0,0,0,-1,1504,666,0,0
287,358,0,0,0,0,0,0,0,0,0,-1,1511,666,0,0
294,358,0,0,0,0,0,0,0,0,0,-1,1518,666,0,0
301,358,0,0,0,0,0,0,0,0,0,-1,1525,666,0,0
308,358,0,0,0,0,0,0,0,0,0,-1,1532,666,0,0
315,358,0,0,0,0,0,0,0,0,0,-1,1539,666,0,0
322,358,0,0,0,0,0,0,0,0,0,-1,1546,666,0,0
329,358,0,0,0,0,0,0,0,0,0,-1,1553,666,0,0
336,358,0,0,0,0,0,0,0,0,0,-1,1560,666,0,0
343,358,0,0,0,0,0,0,0,0,0,-1,1567,666,0,0
350,358,0,0,0,0,0,0,0,0,0,-1,1574,666,0,0
357,358,0,0,0,0,0,0,0,0,0,-1,1581,666,0,0
364,358,0,0,0,0,0,0,0,0,0,-1,1588,666,0,0
371,358,0,0,0,0,0,0,0,0,0,-1,1595,666,0,0
378,358,0,0,0,0,0,0,0,0,0,-1,1602,666,0,0
385,358,0,0,0,0,0,0,0,0,0,-1,1609,666,0,0
392,358,0,0,0,0,0,0,0,0,0,-1,1616,666,0,0
399,358,0,0,0,0,0,0,0,0,0,-1,1623,666,0,0
406,358,0,0,0,0,0,0,0,0,0,-1,1630,666,0,0
413,358,0,0,0,0,0,0,0,0,0,-1,1637,666,0,0
420,358,0,0,0,0,0,0,0,0,0,-1,1644,666,0,0
427,358,0,0,0,0,0,0,0,0,0,-1,1651,666,0,0
434,358,0,0,0,0,0,0,0,0,0,-1,1658,666,0,0
441,358,0,0,0,0,0,0,0,0,0,-1,1665,666,0,0
448,358,0,0,0,0,0,0,0,0,0,-1,1672,666,0,0
455,358,0,0,0,0,0,0,0,0,0,-1,1679,666,0,0
462,358,0,0,0,0,0,0,0,0,0,-1,1686,666,0,0
469,358,0,0,0,0,0,0,0,0,0,-1,1693,666,0,0
476,358,0,0,0,0,0,0,0,0,0,-1,1700,666,0,0
483,358,0,0,0,0,0,0,0,0,0,-1,1707,666,0,0
490,358,0,0,0,0,0,0,0,0,0,-1,1714,666,0,0
497,358,8.57239,1.1322,0,0,0,0,0,0,0,-1,1721,666,8.57234,-1.13219
504,358,10.5972,0.832947,0,0,0,0,0,0,0,-1,1728,666,10.5972,-0.832968
511,358,10.6873,0.868469,0,0,0,0,0,0,0,-1,1735,666,10.6872,-0.868484
518,358,16.5884,2.34894,0,0,0,0,0,0,0,-1,1742,666,16.5884,-2.34894
525,358,15.7626,3.65344,0,0,0,0,0,0,0,-1,1749,666,15.7626,-3.65342
532,358,14.9368,4.95789,0,0,0,0,0,0,0,-1,1756,666,14.9367,-4.9579
539,358,15.1597,3.42694,0,0,0,0,0,0,0,-1,1763,666,15.1597,-3.42692
546,358,12.3792,1.53558,0,0,0,0,0,0,0,-1,1770,666,12.3792,-1.5356
553,358,11.6584,1.26172,0,0,0,0,0,0,0,-1,1777,666,11.6585,-1.26175
560,358,10.8234,1.43042,0,0,0,0,0,0,0,-1,1784,666,10.8233,-1.43041
567,358,10.1333,-0.955139,0,0,0,0,0,0,0,-1,1791,666,10.1333,0.955132
574,358,14.7886,-2.69293,0,0,0,0,0,0,0,-1,1798,666,14.7885,2.6929
581,358,20.1738,-6.76135,0,0,0,0,0,0,0,-1,1805,666,20.1738,6.76137
588,358,24.1825,-7.87054,0,0,0,0,0,0,0,-1,1812,666,24.1825,7.87057
595,358,24.3414,-7.0777,-0.00205409,0.00238972,0.00260105,0.00358867,-0.00325305,1.13887,0.00395166,0.0167367,1819,666,24.3414,7.07771
602,358,24.3018,-6.43732,-0.000550362,0.00171877,0.00164931,0.00258607,-0.00141766,1.08668,0.00234414,0.0136621,1826,666,24.3017,6.43732
609,358,24.2537,-5.86127,0.0005373,0.00145549,0.00120327,0.00228427,-0.000291479,0.967644,0.00162872,0.017067,1833,666,24.2537,5.86129
616,358,24.2639,-5.25494,0.00113129,0.00138917,0.000942927,0.00221193,0.00030853,0.853348,0.0013833,0.0162657,1840,666,24.2639,5.25493
623,358,24.3032,-4.65863,0.00133584,0.00140772,0.000718892,0.00209157,0.000651992,0.810372,0.00123578,0.0142788,1847,666,24.3033,4.65865
630,358,24.2759,-4.08582,0.000882106,0.00147626,0.000593702,0.00184307,0.000515303,1.01737,0.00109802,0.0179961,1854,666,24.2759,4.08581
637,358,24.1948,-3.49622,1.09952e-05,0.00144155,0.00020541,0.00147046,-1.79149e-05,1.43097,0.00098633,0.0261765,1861,666,24.1948,3.49624
644,358,24.2098,-2.88995,-0.00121627,0.00120915,-0.000465947,0.00129558,-0.00130271,-1.38738,0.00150012,0.0209298,1868,666,24.2099,2.88993
651,358,24.3428,-2.15875,-0.00304829,0.000743793,-0.00153306,0.00128604,-0.00359053,-1.23083,0.0029184,0.0371779,1875,666,24.3427,2.15874
658,358,24.0939,-1.41113,0,0,0,0,0,0,0,-1,1882,666,24.0939,1.41116
665,358,23.3575,-0.825623,0,0,0,0,0,0,0,-1,1889,666,23.3576,0.82563
672,358,12.4299,1.47272,0,0,0,0,0,0,0,-1,1896,666,12.4299,-1.4727
679,358,12.1294,2.19702,0,0,0,0,0,0,0,-1,1903,666,12.1294,-2.19703
686,358,11.9557,2.2002,0,0,0,0,0,0,0,-1,1910,666,11.9557,-2.20021
693,358,13.188,2.52203,0,0,0,0,0,0,0,-1,1917,666,13.188,-2.52202
700,358,0,0,0,0,0,0,0,0,0,-1,1924,666,0,0
707,358,0,0,0,0,0,0,0,0,0,-1,1931,666,0,0
714,358,0,0,0,0,0,0,0,0,0,-1,1938,666,0,0
721,358,0,0,0,0,0,0,0,0,0,-1,1945,666,0,0
728,358,0,0,0,0,0,0,0,0,0,-1,1952,666,0,0
735,358,0,0,0,0,0,0,0,0,0,-1,1959,666,0,0
742,358,0,0,0,0,0,0,0,0,0,-1,1966,666,0,0
749,358,0,0,0,0,0,0,0,0,0,-1,1973,666,0,0
756,358,0,0,0,0,0,0,0,0,0,-1,1980,666,0,0
763,358,0,0,0,0,0,0,0,0,0,-1,1987,666,0,0
770,358,0,0,0,0,0,0,0,0,0,-1,1994,666,0,0
777,358,0,0,0,0,0,0,0,0,0,-1,2001,666,0,0
784,358,0,0,0,0,0,0,0,0,0,-1,2008,666,0,0
791,358,0,0,0,0,0,0,0,0,0,-1,2015,666,0,0
798,358,0,0,0,0,0,0,0,0,0,-1,2022,666,0,0
805,358,0,0,0,0,0,0,0,0,0,-1,2029,666,0,0
812,358,0,0,0,0,0,0,0,0,0,-1,2036,666,0,0
-700,351,0,0,0,0,0,0,0,0,0,-1,524,673,0,0
-693,351,0,0,0,0,0,0,0,0,0,-1,531,673,0,0
-686,351,0,0,0,0,0,0,0,0,0,-1,538,673,0,0
-679,351,0,0,0,0,0,0,0,0,0,-1,545,673,0,0
-672,351,0,0,0,0,0,0,0,0,0,-1,552,673,0,0
-665,351,0,0,0,0,0,0,0,0,0,-1,559,673,0,0
-658,351,0,0,0,0,0,0,0,0,0,-1,566,673,0,0
-651,351,0,0,0,0,0,0,0,0,0,-1,573,673,0,0
-644,351,0,0,0,0,0,0,0,0,0,-1,580,673,0,0
-637,351,0,0,0,0,0,0,0,0,0,-1,587,673,0,0
-630,351,0,0,0,0,0,0,0,0,0,-1,594,673,0,0
-623,351,0,0,0,0,0,0,0,0,0,-1,601,673,0,0
-616,351,0,0,0,0,0,0,0,0,0,-1,608,673,0,0
-609,351,0,0,0,0,0,0,0,0,0,-1,615,673,0,0
-602,351,0,0,0,0,0,0,0,0,0,-1,622,673,0,0
-595,351,0,0,0,0,0,0,0,0,0,-1,629,673,0,0
-588,351,0,0,0,0,0,0,0,0,0,-1,636,673,0,0
-581,351,-9.0647,1.71906,0,0,0,0,0,0,0,-1,643,673,-9.06472,-1.71908
-574,351,-8.23584,2.64764,0,0,0,0,0,0,0,-1,650,673,-8.23584,-2.64764
-567,351,-10.8027,4.56836,0,0,0,0,0,0,0,-1,657,673,-10.8027,-4.56839
-560,351,-14.2001,2.17084,0,0,0,0,0,0,0,-1,664,673,-14.2002,-2.17086
-553,351,-13.4979,0.779541,0,0,0,0,0,0,0,-1,671,673,-13.4978,-0.779519
-546,351,-14.0065,0.73645,0,0,0,0,0,0,0,-1,678,673,-14.0065,-0.736473
-539,351,-12.8123,-1.46393,0,0,0,0,0,0,0,-1,685,673,-12.8123,1.46395
-532,351,-14.1657,-3.36011,0,0,0,0,0,0,0,-1,692,673,-14.1657,3.36012
-525,351,-14.3058,-3.9903,0,0,0,0,0,0,0,-1,699,673,-14.3058,3.99031
-518,351,-14.2429,-4.55347,0.00355828,0.00698759,-0.00447758,0.0100676,0.000478271,-0.968256,0.00655812,0.0198976,706,673,-14.2429,4.55347
-511,351,-14.2382,-5.15851,0.00260042,0.00448399,-0.00278144,0.00647876,0.000605645,-0.948638,0.00413211,0.0117315,713,673,-14.2382,5.15853
-504,351,-14.2808,-5.75134,0.00206087,0.00272084,-0.00167975,0.00410271,0.000678995,-0.882388,0.00253925,0.0109114,720,673,-14.2808,5.75133
-497,351,-14.2954,-6.34534,0.00191631,0.0015746,-0.00108232,0.00284117,0.000649731,-0.707113,0.00171897,0.0109394,727,673,-14.2954,6.34534
-490,351,-14.2991,-6.9223,0.00164486,0.000539308,-0.000509568,0.0018439,0.000340272,-0.372374,0.001133,0.0105105,734,673,-14.2991,6.92232
-483,351,-14.3134,-7.48639,0.00197852,0.000303034,-0.000622966,0.00218476,9.67938e-05,-0.319705,0.00142534,0.012131,741,673,-14.3134,7.48642
-476,351,-14.3425,-8.05493,0.00232871,0.000191926,-0.000812693,0.00260268,-8.20421e-05,-0.325147,0.00176311,0.0114108,748,673,-14.3424,8.05496
-469,351,-14.3413,-8.59399,0.00272262,0.000244588,-0.00111269,0.00314891,-0.000181698,-0.365865,0.00216239,0.0142063,755,673,-14.3413,8.59402
-462,351,-14.3578,-9.2298,0.00330426,0.000418897,-0.00154461,0.00397515,-0.000251984,-0.409752,0.00273796,0.0301483,762,673,-14.3578,9.22982
-455,351,-14.1314,-9.99103,0,0,0,0,0,0,0,-1,769,673,-14.1314,9.99103
-448,351,-6.61456,-4.38654,0,0,0,0,0,0,0,-1,776,673,-6.61456,4.38654
-441,351,-4.31567,-2.3009,0,0,0,0,0,0,0,-1,783,673,-4.31565,2.30089
-434,351,-3.81708,-2.28003,0,0,0,0,0,0,0,-1,790,673,-3.81706,2.28006
-427,351,-2.05157,-2.7785,0,0,0,0,0,0,0,-1,797,673,-2.05157,2.77848
-420,351,-1.06989,-2.43665,0,0,0,0,0,0,0,-1,804,673,-1.06991,2.43663
-413,351,-0.392334,-2.06671,0,0,0,0,0,0,0,-1,811,673,-0.392363,2.06672
-406,351,-1.86316,-2.58105,0,0,0,0,0,0,0,-1,818,673,-1.86313,2.58106
-399,351,1.00952,-1.53455,0,0,0,0,0,0,0,-1,825,673,1.00954,1.53457
-392,351,-1.02197,0.877136,0,0,0,0,0,0,0,-1,832,673,-1.02195,-0.877143
-385,351,-1.47205,1.04437,0,0,0,0,0,0,0,-1,839,673,-1.47207,-1.04435
-378,351,0,0,0,0,0,0,0,0,0,-1,846,673,0,0
-371,351,0,0,0,0,0,0,0,0,0,-1,853,673,0,0
-364,351,0,0,0,0,0,0,0,0,0,-1,860,673,0,0
-357,351,0,0,0,0,0,0,0,0,0,-1,867,673,0,0
-350,351,0,0,0,0,0,0,0,0,0,-1,874,673,0,0
-343,351,0,0,0,0,0,0,0,0,0,-1,881,673,0,0
-336,351,0,0,0,0,0,0,0,0,0,-1,888,673,0,0
-329,351,0,0,0,0,0,0,0,0,0,-1,895,673,0,0
-322,351,0,0,0,0,0,0,0,0,0,-1,902,673,0,0
-315,351,0,0,0,0,0,0,0,0,0,-1,909,673,0,0
-308,351,0,0,0,0,0,0,0,0,0,-1,916,673,0,0
-301,351,0,0,0,0,0,0,0,0,0,-1,923,673,0,0
-294,351,0,0,0,0,0,0,0,0,0,-1,930,673,0,0
-287,351,0,0,0,0,0,0,0,0,0,-1,937,673,0,0
-280,351,0,0,0,0,0,0,0,0,0,-1,944,673,0,0
-273,351,0,0,0,0,0,0,0,0,0,-1,951,673,0,0
-266,351,0,0,0,0,0,0,0,0,0,-1,958,673,0,0
-259,351,0,0,0,0,0,0,0,0,0,-1,965,673,0,0
-252,351,0,0,0,0,0,0,0,0,0,-1,972,673,0,0
-245,351,0,0,0,0,0,0,0,0,0,-1,979,673,0,0
-238,351,0,0,0,0,0,0,0,0,0,-1,986,673,0,0
-231,351,0,0,0,0,0,0,0,0,0,-1,993,673,0,0
-224,351,0,0,0,0,0,0,0,0,0,-1,1000,673,0,0
-217,351,0,0,0,0,0,0,0,0,0,-1,1007,673,0,0
-210,351,0,0,0,0,0,0,0,0,0,-1,1014,673,0,0
-203,351,0,0,0,0,0,0,0,0,0,-1,1021,673,0,0
-196,351,0,0,0,0,0,0,0,0,0,-1,1028,673,0,0
-189,351,0,0,0,0,0,0,0,0,0,-1,1035,673,0,0
-182,351,0,0,0,0,0,0,0,0,0,-1,1042,673,0,0
-175,351,0,0,0,0,0,0,0,0,0,-1,1049,673,0,0
-168,351,0,0,0,0,0,0,0,0,0,-1,1056,673,0,0
-161,351,0,0,0,0,0,0,0,0,0,-1,1063,673,0,0
-154,351,0,0,0,0,0,0,0,0,0,-1,1070,673,0,0
-147,351,0,0,0,0,0,0,0,0,0,-1,1077,673,0,0
-140,351,0,0,0,0,0,0,0,0,0,-1,1084,673,0,0
-133,351,0,0,0,0,0,0,0,0,0,-1,1091,673,0,0
-126,351,0,0,0,0,0,0,0,0,0,-1,1098,673,0,0
-119,351,0,0,0,0,0,0,0,0,0,-1,1105,673,0,0
-112,351,0,0,0,0,0,0,0,0,0,-1,1112,673,0,0
-105,351,0,0,0,0,0,0,0,0,0,-1,1119,673,0,0
-98,351,0,0,0,0,0,0,0,0,0,-1,1126,673,0,0
-91,351,0,0,0,0,0,0,0,0,0,-1,1133,673,0,0
-84,351,0,0,0,0,0,0,0,0,0,-1,1140,673,0,0
-77,351,0,0,0,0,0,0,0,0,0,-1,1147,673,0,0
-70,351,0,0,0,0,0,0,0,0,0,-1,1154,673,0,0
-63,351,0,0,0,0,0,0,0,0,0,-1,1161,673,0,0
-56,351,0,0,0,0,0,0,0,0,0,-1,1168,673,0,0
-49,351,0,0,0,0,0,0,0,0,0,-1,1175,673,0,0
-42,351,0,0,0,0,0,0,0,0,0,-1,1182,673,0,0
-35,351,0,0,0,0,0,0,0,0,0,-1,1189,673,0,0
-28,351,0,0,0,0,0,0,0,0,0,-1,1196,673,0,0
-21,351,0,0,0,0,0,0,0,0,0,-1,1203,673,0,0
-14,351,0,0,0,0,0,0,0,0,0,-1,1210,673,0,0
-7,351,0,0,0,0,0,0,0,0,0,-1,1217,673,0,0
0,351,0,0,0,0,0,0,0,0,0,-1,1224,673,0,0
7,351,0,0,0,0,0,0,0,0,0,-1,1231,673,0,0
14,351,0,0,0,0,0,0,0,0,0,-1,1238,673,0,0
21,351,0,0,0,0,0,0,0,0,0,-1,1245,673,0,0
28,351,0,0,0,0,0,0,0,0,0,-1,1252,673,0,0
35,351,0,0,0,0,0,0,0,0,0,-1,1259,673,0,0
42,351,0,0,0,0,0,0,0,0,0,-1,1266,673,0,0
49,351,0,0,0,0,0,0,0,0,0,-1,1273,673,0,0
56,351,0,0,0,0,0,0,0,0,0,-1,1280,673,0,0
63,351,0,0,0,0,0,0,0,0,0,-1,1287,673,0,0
70,351,0,0,0,0,0,0,0,0,0,-1,1294,673,0,0
77,351,0,0,0,0,0,0,0,0,0,-1,1301,673,0,0
84,351,0,0,0,0,0,0,0,0,0,-1,1308,673,0,0
91,351,0,0,0,0,0,0,0,0,0,-1,1315,673,0,0
98,351,0,0,0,0,0,0,0,0,0,-1,1322,673,0,0
105,351,0,0,0,0,0,0,0,0,0,-1,1329,673,0,0
112,351,0,0,0,0,0,0,0,0,0,-1,1336,673,0,0
119,351,0,0,0,0,0,0,0,0,0,-1,1343,673,0,0
126,351,0,0,0,0,0,0,0,0,0,-1,1350,673,0,0
133,351,0,0,0,0,0,0,0,0,0,-1,1357,673,0,0
140,351,0,0,0,0,0,0,0,0,0,-1,1364,673,0,0
147,351,0,0,0,0,0,0,0,0,0,-1,1371,673,0,0
154,351,0,0,0,0,0,0,0,0,0,-1,1378,673,0,0
161,351,0,0,0,0,0,0,0,0,0,-1,1385,673,0,0
168,351,0,0,0,0,0,0,0,0,0,-1,1392,673,0,0
175,351,0,0,0,0,0,0,0,0,0,-1,1399,673,0,0
182,351,0,0,0,0,0,0,0,0,0,-1,1406,673,0,0
189,351,0,0,0,0,0,0,0,0,0,-1,1413,673,0,0
196,351,0,0,0,0,0,0,0,0,0,-1,1420,673,0,0
203,351,0,0,0,0,0,0,0,0,0,-1,1427,673,0,0
210,351,0,0,0,0,0,0,0,0,0,-1,1434,673,0,0
217,351,0,0,0,0,0,0,0,0,0,-1,1441,673,0,0
224,351,0,0,0,0,0,0,0,0,0,-1,1448,673,0,0
231,351,0,0,0,0,0,0,0,0,0,-1,1455,673,0,0
238,351,0,0,0,0,0,0,0,0,0,-1,1462,673,0,0
245,351,0,0,0,0,0,0,0,0,0,-1,1469,673,0,0
252,351,0,0,0,0,0,0,0,0,0,-1,1476,673,0,0
259,351,0,0,0,0,0,0,0,0,0,-1,1483,673,0,0
266,351,0,0,0,0,0,0,0,0,0,-1,1490,673,0,0
273,351,0,0,0,0,0,0,0,0,0,-1,1497,673,0,0
280,351,0,0,0,0,0,0,0,0,0,-1,1504,673,0,0
287,351,0,0,0,0,0,0,0,0,0,-1,1511,673,0,0
294,351,0,0,0,0,0,0,0,0,0,-1,1518,673,0,0
301,351,0,0,0,0,0,0,0,0,0,-1,1525,673,0,0
308,351,0,0,0,0,0,0,0,0,0,-1,1532,673,0,0
315,351,0,0,0,0,0,0,0,0,0,-1,1539,673,0,0
322,351,0,0,0,0,0,0,0,0,0,-1,1546,673,0,0
329,351,0,0,0,0,0,0,0,0,0,-1,1553,673,0,0
336,351,0,0,0,0,0,0,0,0,0,-1,1560,673,0,0
343,351,0,0,0,0,0,0,0,0,0,-1,1567,673,0,0
350,351,0,0,0,0,0,0,0,0,0,-1,1574,673,0,0
357,351,0,0,0,0,0,0,0,0,0,-1,1581,673,0,0
364,351,0,0,0,0,0,0,0,0,0,-1,1588,673,0,0
371,351,0,0,0,0,0,0,0,0,0,-1,1595,673,0,0
378,351,0,0,0,0,0,0,0,0,0,-1,1602,673,0,0
385,351,0,0,0,0,0,0,0,0,0,-1,1609,673,0,0
392,351,0,0,0,0,0,0,0,0,0,-1,1616,673,0,0
399,351,0,0,0,0,0,0,0,0,0,-1,1623,673,0,0
406,351,0,0,0,0,0,0,0,0,0,-1,1630,673,0,0
413,351,0,0,0,0,0,0,0,0,0,-1,1637,673,0,0
420,351,0,0,0,0,0,0,0,0,0,-1,1644,673,0,0
427,351,0,0,0,0,0,0,0,0,0,-1,1651,673,0,0
434,351,0,0,0,0,0,0,0,0,0,-1,1658,673,0,0
441,351,0,0,0,0,0,0,0,0,0,-1,1665,673,0,0
448,351,0,0,0,0,0,0,0,0,0,-1,1672,673,0,0
455,351,0,0,0,0,0,0,0,0,0,-1,1679,673,0,0
462,351,0,0,0,0,0,0,0,0,0,-1,1686,673,0,0
469,351,0,0,0,0,0,0,0,0,0,-1,1693,673,0,0
476,351,0,0,0,0,0,0,0,0,0,-1,1700,673,0,0
483,351,0,0,0,0,0,0,0,0,0,-1,1707,673,0,0
490,351,0,0,0,0,0,0,0,0,0,-1,1714,673,0,0
497,351,0,0,0,0,0,0,0,0,0,-1,1721,673,0,0
504,351,10.8842,1.61615,0,0,0,0,0,0,0,-1,1728,673,10.8842,-1.61618
511,351,15.4548,0.0236816,0,0,0,0,0,0,0,-1,1735,673,15.4549,-0.0236664
518,351,16.7448,2.49268,0,0,0,0,0,0,0,-1,1742,673,16.7448,-2.49269
525,351,16.0701,3.43225,0,0,0,0,0,0,0,-1,1749,673,16.07,-3.43227
532,351,32.3822,3.03021,0,0,0,0,0,0,0,-1,1756,673,32.3822,-3.03019
539,351,15.3387,3.54486,0,0,0,0,0,0,0,-1,1763,673,15.3387,-3.54485
546,351,13.9387,4.59357,0,0,0,0,0,0,0,-1,1770,673,13.9388,-4.59359
553,351,12.0682,2.02832,0,0,0,0,0,0,0,-1,1777,673,12.0683,-2.02831
560,351,12.0173,0.55304,0,0,0,0,0,0,0,-1,1784,673,12.0174,-0.553028
567,351,10.7827,0.130188,0,0,0,0,0,0,0,-1,1791,673,10.7827,-0.130183
574,351,13.405,-1.09204,0,0,0,0,0,0,0,-1,1798,673,13.405,1.09207
581,351,15.2351,-3.06049,0,0,0,0,0,0,0,-1,1805,673,15.2351,3.06046
588,351,24.8331,-7.80286,0,0,0,0,0,0,0,-1,1812,673,24.8331,7.80289
595,351,24.9342,-7.11792,-0.00946701,0.00827982,0.00824663,0.0115202,-0.0127074,1.19639,0.0139934,0.0423145,1819,673,24.9342,7.11791
602,351,24.9021,-6.46759,-0.00525342,0.00520046,0.0050348,0.00723094,-0.0072839,1.18746,0.00838016,0.0191512,1826,673,24.9021,6.46759
609,351,24.9167,-5.86859,-0.00207878,0.0030326,0.00282621,0.0042873,-0.00333347,1.15299,0.00441132,0.0182123,1833,673,24.9167,5.86862
616,351,24.9175,-5.26801,-0.00012212,0.00177965,0.00152049,0.0026221,-0.000964577,1.06483,0.00214321,0.0156281,1840,673,24.9175,5.26803
623,351,24.9202,-4.67407,0.000848528,0.00113838,0.000660915,0.00167007,0.000316837,0.893332,0.00102424,0.0156064,1847,673,24.9202,4.67405
630,351,24.8661,-4.08691,0.0006649,0.000928292,0.000298896,0.00112322,0.000469973,0.992906,0.000651362,0.0248247,1854,673,24.866,4.0869
637,351,24.8052,-3.45477,-0.000257924,0.000842715,-0.000105676,0.00085277,-0.000267978,-1.47594,0.000675788,0.0298929,1861,673,24.8052,3.45476
644,351,24.7977,-2.82471,-0.00150783,0.000556837,-0.000770405,0.000812617,-0.00176361,-1.25024,0.00152079,0.022299,1868,673,24.7978,2.82469
651,351,24.8148,-2.20667,-0.00328401,9.62044e-05,-0.00176124,0.000847086,-0.00403489,-1.16779,0.00301226,0.0172375,1875,673,24.8148,2.20669
658,351,24.7327,-1.55695,-0.00574115,-0.000690495,-0.00326103,0.000908688,-0.00734033,-1.11486,0.00522286,0.0338254,1882,673,24.7326,1.55695
665,351,24.3119,-1.16028,-0.00892875,-0.00180729,-0.00526617,0.000988976,-0.011725,-1.08267,0.00816632,0.0447439,1889,673,24.3119,1.16027
672,351,24.0544,-0.50647,0,0,0,0,0,0,0,-1,1896,673,24.0544,0.506471
679,351,14.1252,1.85681,0,0,0,0,0,0,0,-1,1903,673,14.1253,-1.85682
686,351,13.0294,2.1189,0,0,0,0,0,0,0,-1,1910,673,13.0294,-2.11892
693,351,13.5187,2.34595,0,0,0,0,0,0,0,-1,1917,673,13.5187,-2.34596
700,351,14.5629,-2.40173,0,0,0,0,0,0,0,-1,1924,673,14.5629,2.40172
707,351,0,0,0,0,0,0,0,0,0,-1,1931,673,0,0
714,351,0,0,0,0,0,0,0,0,0,-1,1938,673,0,0
721,351,0,0,0,0,0,0,0,0,0,-1,1945,673,0,0
728,351,0,0,0,0,0,0,0,0,0,-1,1952,673,0,0
735,351,0,0,0,0,0,0,0,0,0,-1,1959,673,0,0
742,351,0,0,0,0,0,0,0,0,0,-1,1966,673,0,0
749,351,0,0,0,0,0,0,0,0,0,-1,1973,673,0,0
756,351,0,0,0,0,0,0,0,0,0,-1,1980,673,0,0
763,351,0,0,0,0,0,0,0,0,0,-1,1987,673,0,0
770,351,0,0,0,0,0,0,0,0,0,-1,1994,673,0,0
777,351,0,0,0,0,0,0,0,0,0,-1,2001,673,0,0
784,351,0,0,0,0,0,0,0,0,0,-1,2008,673,0,0
791,351,0,0,0,0,0,0,0,0,0,-1,2015,673,0,0
798,351,0,0,0,0,0,0,0,0,0,-1,2022,673,0,0
805,351,0,0,0,0,0,0,0,0,0,-1,2029,673,0,0
812,351,0,0,0,0,0,0,0,0,0,-1,2036,673,0,0
-700,344,0,0,0,0,0,0,0,0,0,-1,524,680,0,0
-693,344,0,0,0,0,0,0,0,0,0,-1,531,680,0,0
-686,344,0,0,0,0,0,0,0,0,0,-1,538,680,0,0
-679,344,0,0,0,0,0,0,0,0,0,-1,545,680,0,0
-672,344,0,0,0,0,0,0,0,0,0,-1,552,680,0,0
-665,344,0,0,0,0,0,0,0,0,0,-1,559,680,0,0
-658,344,0,0,0,0,0,0,0,0,0,-1,566,680,0,0
-651,344,0,0,0,0,0,0,0,0,0,-1,573,680,0,0
-644,344,0,0,0,0,0,0,0,0,0,-1,580,680,0,0
-637,344,0,0,0,0,0,0,0,0,0,-1,587,680,0,0
-630,344,0,0,0,0,0,0,0,0,0,-1,594,680,0,0
-623,344,0,0,0,0,0,0,0,0,0,-1,601,680,0,0
-616,344,0,0,0,0,0,0,0,0,0,-1,608,680,0,0
-609,344,0,0,0,0,0,0,0,0,0,-1,615,680,0,0
-602,344,0,0,0,0,0,0,0,0,0,-1,622,680,0,0
-595,344,0,0,0,0,0,0,0,0,0,-1,629,680,0,0
-588,344,-9.27826,1.47302,0,0,0,0,0,0,0,-1,636,680,-9.27829,-1.473
-581,344,-10.0098,1.71753,0,0,0,0,0,0,0,-1,643,680,-10.0098,-1.7175
-574,344,-10.2208,3.04871,0,0,0,0,0,0,0,-1,650,680,-10.2208,-3.04869
-567,344,-14.3779,2.29016,0,0,0,0,0,0,0,-1,657,680,-14.3779,-2.29014
-560,344,-14.1238,1.8374,0,0,0,0,0,0,0,-1,664,680,-14.1238,-1.83743
-553,344,-14.7884,2.00116,0,0,0,0,0,0,0,-1,671,680,-14.7884,-2.00115
-546,344,-15.9136,-0.281433,0,0,0,0,0,0,0,-1,678,680,-15.9136,0.281443
-539,344,-14.8249,-2.55414,0,0,0,0,0,0,0,-1,685,680,-14.8249,2.55413
-532,344,-14.6111,-3.43066,0.00624202,0.0130257,-0.00849546,0.0187814,0.000486318,-0.975329,0.012362,0.041567,692,680,-14.6112,3.43068
-525,344,-14.8759,-3.88037,0.00429685,0.00886955,-0.00564796,0.0126764,0.000490017,-0.977721,0.00829241,0.0401263,699,680,-14.8758,3.88038
-518,344,-14.8204,-4.5448,0.00302469,0.00578376,-0.00358564,0.00824609,0.00056236,-0.969039,0.00531986,0.0196918,706,680,-14.8204,4.54481
-511,344,-14.8332,-5.15094,0.00223978,0.00353399,-0.00214232,0.00512481,0.000648968,-0.93207,0.00322208,0.0166446,713,680,-14.8332,5.15093
-504,344,-14.836,-5.74713,0.00183038,0.00191411,-0.00120089,0.00307387,0.000670629,-0.802821,0.00186631,0.0171147,720,680,-14.836,5.74711
-497,344,-14.874,-6.33704,0.00176449,0.000863138,-0.000695647,0.00214269,0.00048494,-0.497967,0.00129738,0.0152419,727,680,-14.874,6.33706
-490,344,-14.8923,-6.91284,0.00169413,4.56111e-05,-0.000333157,0.00175892,-1.91722e-05,-0.192056,0.00117905,0.0139576,734,680,-14.8923,6.91285
-483,344,-14.8969,-7.47162,0.00208089,-0.000136498,-0.000500719,0.00218871,-0.000244325,-0.212104,0.00154703,0.0140001,741,680,-14.8969,7.47161
-476,344,-14.9182,-8.03754,0.00240601,-0.000184256,-0.00073552,0.00260029,-0.000378538,-0.258245,0.00187251,0.015011,748,680,-14.9182,8.03756
-469,344,-14.8979,-8.63391,0.00284613,4.86705e-05,-0.00118285,0.00327922,-0.000384424,-0.350985,0.00232491,0.0186897,755,680,-14.898,8.63391
-462,344,-14.8948,-9.2373,0,0,0,0,0,0,0,-1,762,680,-14.8948,9.23729
-455,344,-12.1653,-7.99176,0,0,0,0,0,0,0,-1,769,680,-12.1653,7.99174
-448,344,-5.67657,-2.72864,0,0,0,0,0,0,0,-1,776,680,-5.6766,2.72863
-441,344,-5.09229,-2.34167,0,0,0,0,0,0,0,-1,783,680,-5.09229,2.34168
-434,344,-4.28778,-2.08807,0,0,0,0,0,0,0,-1,790,680,-4.28778,2.08809
-427,344,-3.06506,-1.45404,0,0,0,0,0,0,0,-1,797,680,-3.06505,1.45402
-420,344,-1.96582,-1.57574,0,0,0,0,0,0,0,-1,804,680,-1.96579,1.57574
-413,344,-0.817993,-1.4751,0,0,0,0,0,0,0,-1,811,680,-0.818017,1.47511
-406,344,-0.00714111,-1.25189,0,0,0,0,0,0,0,-1,818,680,-0.00714956,1.25191
-399,344,0.240051,-1.75769,0,0,0,0,0,0,0,-1,825,680,0.240079,1.75767
-392,344,1.11353,-2.05615,0,0,0,0,0,0,0,-1,832,680,1.11351,2.05616
-385,344,0,0,0,0,0,0,0,0,0,-1,839,680,0,0
-378,344,0,0,0,0,0,0,0,0,0,-1,846,680,0,0
-371,344,0,0,0,0,0,0,0,0,0,-1,853,680,0,0
-364,344,0,0,0,0,0,0,0,0,0,-1,860,680,0,0
-357,344,0,0,0,0,0,0,0,0,0,-1,867,680,0,0
-350,344,0,0,0,0,0,0,0,0,0,-1,874,680,0,0
-343,344,0,0,0,0,0,0,0,0,0,-1,881,680,0,0
-336,344,0,0,0,0,0,0,0,0,0,-1,888,680,0,0
-329,344,0,0,0,0,0,0,0,0,0,-1,895,680,0,0
-322,344,0,0,0,0,0,0,0,0,0,-1,902,680,0,0
-315,344,0,0,0,0,0,0,0,0,0,-1,909,680,0,0
-308,344,0,0,0,0,0,0,0,0,0,-1,916,680,0,0
-301,344,0,0,0,0,0,0,0,0,0,-1,923,680,0,0
-294,344,0,0,0,0,0,0,0,0,0,-1,930,680,0,0
-287,344,0,0,0,0,0,0,0,0,0,-1,937,680,0,0
-280,344,0,0,0,0,0,0,0,0,0,-1,944,680,0,0
-273,344,0,0,0,0,0,0,0,0,0,-1,951,680,0,0
-266,344,0,0,0,0,0,0,0,0,0,-1,958,680,0,0
-259,344,0,0,0,0,0,0,0,0,0,-1,965,680,0,0
-252,344,0,0,0,0,0,0,0,0,0,-1,972,680,0,0
-245,344,0,0,0,0,0,0,0,0,0,-1,979,680,0,0
-238,344,0,0,0,0,0,0,0,0,0,-1,986,680,0,0
-231,344,0,0,0,0,0,0,0,0,0,-1,993,680,0,0
-224,344,0,0,0,0,0,0,0,0,0,-1,1000,680,0,0
-217,344,0,0,0,0,0,0,0,0,0,-1,1007,680,0,0
-210,344,0,0,0,0,0,0,0,0,0,-1,1014,680,0,0
-203,344,0,0,0,0,0,0,0,0,0,-1,1021,680,0,0
-196,344,0,0,0,0,0,0,0,0,0,-1,1028,680,0,0
-189,344,0,0,0,0,0,0,0,0,0,-1,1035,680,0,0
-182,344,0,0,0,0,0,0,0,0,0,-1,1042,680,0,0
-175,344,0,0,0,0,0,0,0,0,0,-1,1049,680,0,0
-168,344,0,0,0,0,0,0,0,0,0,-1,1056,680,0,0
-161,344,0,0,0,0,0,0,0,0,0,-1,1063,680,0,0
-154,344,0,0,0,0,0,0,0,0,0,-1,1070,680,0,0
-147,344,0,0,0,0,0,0,0,0,0,-1,1077,680,0,0
-140,344,0,0,0,0,0,0,0,0,0,-1,1084,680,0,0
-133,344,0,0,0,0,0,0,0,0,0,-1,1091,680,0,0
-126,344,0,0,0,0,0,0,0,0,0,-1,1098,680,0,0
-119,344,0,0,0,0,0,0,0,0,0,-1,1105,680,0,0
-112,344,0,0,0,0,0,0,0,0,0,-1,1112,680,0,0
-105,344,0,0,0,0,0,0,0,0,0,-1,1119,680,0,0
-98,344,0,0,0,0,0,0,0,0,0,-1,1126,680,0,0
-91,344,0,0,0,0,0,0,0,0,0,-1,1133,680,0,0
-84,344,0,0,0,0,0,0,0,0,0,-1,1140,680,0,0
-77,344,0,0,0,0,0,0,0,0,0,-1,1147,680,0,0
-70,344,0,0,0,0,0,0,0,0,0,-1,1154,680,0,0
-63,344,0,0,0,0,0,0,0,0,0,-1,1161,680,0,0
-56,344,0,0,0,0,0,0,0,0,0,-1,1168,680,0,0
-49,344,0,0,0,0,0,0,0,0,0,-1,1175,680,0,0
-42,344,0,0,0,0,0,0,0,0,0,-1,1182,680,0,0
-35,344,0,0,0,0,0,0,0,0,0,-1,1189,680,0,0
-28,344,0,0,0,0,0,0,0,0,0,-1,1196,680,0,0
-21,344,0,0,0,0,0,0,0,0,0,-1,1203,680,0,0
-14,344,0,0,0,0,0,0,0,0,0,-1,1210,680,0,0
-7,344,0,0,0,0,0,0,0,0,0,-1,1217,680,0,0
0,344,0,0,0,0,0,0,0,0,0,-1,1224,680,0,0
7,344,0,0,0,0,0,0,0,0,0,-1,1231,680,0,0
14,344,0,0,0,0,0,0,0,0,0,-1,1238,680,0,0
21,344,0,0,0,0,0,0,0,0,0,-1,1245,680,0,0
28,344,0,0,0,0,0,0,0,0,0,-1,1252,680,0,0
35,344,0,0,0,0,0,0,0,0,0,-1,1259,680,0,0
42,344,0,0,0,0,0,0,0,0,0,-1,1266,680,0,0
49,344,0,0,0,0,0,0,0,0,0,-1,1273,680,0,0
56,344,0,0,0,0,0,0,0,0,0,-1,1280,680,0,0
63,344,0,0,0,0,0,0,0,0,0,-1,1287,680,0,0
70,344,0,0,0,0,0,0,0,0,0,-1,1294,680,0,0
77,344,0,0,0,0,0,0,0,0,0,-1,1301,680,0,0
84,344,0,0,0,0,0,0,0,0,0,-1,1308,680,0,0
91,344,0,0,0,0,0,0,0,0,0,-1,1315,680,0,0
98,344,0,0,0,0,0,0,0,0,0,-1,1322,680,0,0
105,344,0,0,0,0,0,0,0,0,0,-1,1329,680,0,0
112,344,0,0,0,0,0,0,0,0,0,-1,1336,680,0,0
119,344,0,0,0,0,0,0,0,0,0,-1,1343,680,0,0
126,344,0,0,0,0,0,0,0,0,0,-1,1350,680,0,0
133,344,0,0,0,0,0,0,0,0,0,-1,1357,680,0,0
140,344,0,0,0,0,0,0,0,0,0,-1,1364,680,0,0
147,344,0,0,0,0,0,0,0,0,0,-1,1371,680,0,0
154,344,0,0,0,0,0,0,0,0,0,-1,1378,680,0,0
161,344,0,0,0,0,0,0,0,0,0,-1,1385,680,0,0
168,344,0,0,0,0,0,0,0,0,0,-1,1392,680,0,0
175,344,0,0,0,0,0,0,0,0,0,-1,1399,680,0,0
182,344,0,0,0,0,0,0,0,0,0,-1,1406,680,0,0
189,344,0,0,0,0,0,0,0,0,0,-1,1413,680,0,0
196,344,0,0,0,0,0,0,0,0,0,-1,1420,680,0,0
203,344,0,0,0,0,0,0,0,0,0,-1,1427,680,0,0
210,344,0,0,0,0,0,0,0,0,0,-1,1434,680,0,0
217,344,0,0,0,0,0,0,0,0,0,-1,1441,680,0,0
224,344,0,0,0,0,0,0,0,0,0,-1,1448,680,0,0
231,344,0,0,0,0,0,0,0,0,0,-1,1455,680,0,0
238,344,0,0,0,0,0,0,0,0,0,-1,1462,680,0,0
245,344,0,0,0,0,0,0,0,0,0,-1,1469,680,0,0
252,344,0,0,0,0,0,0,0,0,0,-1,1476,680,0,0
259,344,0,0,0,0,0,0,0,0,0,-1,1483,680,0,0
266,344,0,0,0,0,0,0,0,0,0,-1,1490,680,0,0
273,344,0,0,0,0,0,0,0,0,0,-1,1497,680,0,0
280,344,0,0,0,0,0,0,0,0,0,-1,1504,680,0,0
287,344,0,0,0,0,0,0,0,0,0,-1,1511,680,0,0
294,344,0,0,0,0,0,0,0,0,0,-1,1518,680,0,0
301,344,0,0,0,0,0,0,0,0,0,-1,1525,680,0,0
308,344,0,0,0,0,0,0,0,0,0,-1,1532,680,0,0
315,344,0,0,0,0,0,0,0,0,0,-1,1539,680,0,0
322,344,0,0,0,0,0,0,0,0,0,-1,1546,680,0,0
329,344,0,0,0,0,0,0,0,0,0,-1,1553,680,0,0
336,344,0,0,0,0,0,0,0,0,0,-1,1560,680,0,0
343,344,0,0,0,0,0,0,0,0,0,-1,1567,680,0,0
350,344,0,0,0,0,0,0,0,0,0,-1,1574,680,0,0
357,344,0,0,0,0,0,0,0,0,0,-1,1581,680,0,0
364,344,0,0,0,0,0,0,0,0,0,-1,1588,680,0,0
371,344,0,0,0,0,0,0,0,0,0,-1,1595,680,0,0
378,344,0,0,0,0,0,0,0,0,0,-1,1602,680,0,0
385,344,0,0,0,0,0,0,0,0,0,-1,1609,680,0,0
392,344,0,0,0,0,0,0,0,0,0,-1,1616,680,0,0
399,344,0,0,0,0,0,0,0,0,0,-1,1623,680,0,0
406,344,0,0,0,0,0,0,0,0,0,-1,1630,680,0,0
413,344,0,0,0,0,0,0,0,0,0,-1,1637,680,0,0
420,344,0,0,0,0,0,0,0,0,0,-1,1644,680,0,0
427,344,0,0,0,0,0,0,0,0,0,-1,1651,680,0,0
434,344,0,0,0,0,0,0,0,0,0,-1,1658,680,0,0
441,344,0,0,0,0,0,0,0,0,0,-1,1665,680,0,0
448,344,0,0,0,0,0,0,0,0,0,-1,1672,680,0,0
455,344,0,0,0,0,0,0,0,0,0,-1,1679,680,0,0
462,344,0,0,0,0,0,0,0,0,0,-1,1686,680,0,0
469,344,0,0,0,0,0,0,0,0,0,-1,1693,680,0,0
476,344,0,0,0,0,0,0,0,0,0,-1,1700,680,0,0
483,344,0,0,0,0,0,0,0,0,0,-1,1707,680,0,0
490,344,0,0,0,0,0,0,0,0,0,-1,1714,680,0,0
497,344,0,0,0,0,0,0,0,0,0,-1,1721,680,0,0
504,344,0,0,0,0,0,0,0,0,0,-1,1728,680,0,0
511,344,15.4819,0.452637,0,0,0,0,0,0,0,-1,1735,680,15.4819,-0.452656
518,344,17.1357,2.31207,0,0,0,0,0,0,0,-1,1742,680,17.1358,-2.31207
525,344,31.5201,2.6217,0,0,0,0,0,0,0,-1,1749,680,31.5201,-2.62168
532,344,31.9766,2.61047,0,0,0,0,0,0,0,-1,1756,680,31.9765,-2.6105
539,344,32.4379,2.65314,0,0,0,0,0,0,0,-1,1763,680,32.4378,-2.65316
546,344,14.6722,4.30243,0,0,0,0,0,0,0,-1,1770,680,14.6722,-4.30241
553,344,14.8136,4.35681,0,0,0,0,0,0,0,-1,1777,680,14.8136,-4.35679
560,344,11.9363,2.14185,0,0,0,0,0,0,0,-1,1784,680,11.9362,-2.14182
567,344,11.397,0.925842,0,0,0,0,0,0,0,-1,1791,680,11.397,-0.92583
574,344,10.0004,0.504639,0,0,0,0,0,0,0,-1,1798,680,10.0004,-0.504645
581,344,13.6709,-0.969604,0,0,0,0,0,0,0,-1,1805,680,13.6709,0.969629
588,344,16.1447,-3.15948,0,0,0,0,0,0,0,-1,1812,680,16.1447,3.15946
595,344,25.4713,-7.13135,0,0,0,0,0,0,0,-1,1819,680,25.4713,7.13135
602,344,25.6312,-6.39813,-0.0101828,0.00882959,0.00836529,0.0119862,-0.0133394,1.20997,0.0146287,0.0444569,1826,680,25.6312,6.39814
609,344,25.54,-5.8233,-0.00489216,0.00487392,0.00465282,0.00673572,-0.00675396,1.19017,0.00778827,0.0160888,1833,680,25.5401,5.82333
616,344,25.5157,-5.22583,-0.00140646,0.00236028,0.00230768,0.00345558,-0.00250175,1.12765,0.00345413,0.0225131,1840,680,25.5158,5.22582
623,344,25.5,-4.64532,0.000406712,0.00109733,0.000858666,0.00167752,-0.000173475,0.976577,0.00118043,0.0194925,1847,680,25.5,4.64534
630,344,25.4583,-4.06421,0.00065197,0.000579519,0.000229758,0.000848341,0.000383148,0.707208,0.000490553,0.0240255,1854,680,25.4582,4.0642
637,344,25.4478,-3.42352,-0.000291173,0.000469088,-0.000158645,0.000500865,-0.00032295,-1.37311,0.000479313,0.0237192,1861,680,25.4477,3.42353
644,344,25.4327,-2.80524,-0.00152819,0.000176918,-0.000778891,0.000479144,-0.00183042,-1.20066,0.00140745,0.0170102,1868,680,25.4327,2.80527
651,344,25.3948,-2.21234,-0.00322286,-0.000237438,-0.0016659,0.000506682,-0.00396698,-1.15071,0.00282871,0.0116905,1875,680,25.3947,2.21232
658,344,25.3832,-1.52911,-0.00550151,-0.000866844,-0.00292727,0.000549308,-0.00691767,-1.12021,0.00480536,0.0231927,1882,680,25.3832,1.5291
665,344,25.2476,-0.94458,-0.00843374,-0.00172868,-0.00458622,0.000599711,-0.0107621,-1.10101,0.00738278,0.0375998,1889,680,25.2476,0.944585
672,344,25.3115,-0.550354,-0.0123148,-0.00298378,-0.00693914,0.000712459,-0.016011,-1.08136,0.0109192,0.0417648,1896,680,25.3115,0.550341
679,344,25.8064,-0.17218,0,0,0,0,0,0,0,-1,1903,680,25.8064,0.172207
686,344,15.024,1.82709,0,0,0,0,0,0,0,-1,1910,680,15.024,-1.82706
693,344,12.4362,-1.42346,0,0,0,0,0,0,0,-1,1917,680,12.4361,1.42348
700,344,17.5396,2.61206,0,0,0,0,0,0,0,-1,1924,680,17.5396,-2.61204
707,344,18.5829,3.29352,0,0,0,0,0,0,0,-1,1931,680,18.5828,-3.2935
714,344,0,0,0,0,0,0,0,0,0,-1,1938,680,0,0
721,344,0,0,0,0,0,0,0,0,0,-1,1945,680,0,0
728,344,0,0,0,0,0,0,0,0,0,-1,1952,680,0,0
735,344,0,0,0,0,0,0,0,0,0,-1,1959,680,0,0
742,344,0,0,0,0,0,0,0,0,0,-1,1966,680,0,0
749,344,0,0,0,0,0,0,0,0,0,-1,1973,680,0,0
756,344,0,0,0,0,0,0,0,0,0,-1,1980,680,0,0
763,344,0,0,0,0,0,0,0,0,0,-1,1987,680,0,0
770,344,0,0,0,0,0,0,0,0,0,-1,1994,680,0,0
777,344,0,0,0,0,0,0,0,0,0,-1,2001,680,0,0
784,344,0,0,0,0,0,0,0,0,0,-1,2008,680,0,0
791,344,0,0,0,0,0,0,0,0,0,-1,2015,680,0,0
798,344,0,0,0,0,0,0,0,0,0,-1,2022,680,0,0
805,344,0,0,0,0,0,0,0,0,0,-1,2029,680,0,0
812,344,0,0,0,0,0,0,0,0,0,-1,2036,680,0,0
-700,337,0,0,0,0,0,0,0,0,0,-1,524,687,0,0
-693,337,0,0,0,0,0,0,0,0,0,-1,531,687,0,0
-686,337,0,0,0,0,0,0,0,0,0,-1,538,687,0,0
-679,337,0,0,0,0,0,0,0,0,0,-1,545,687,0,0
-672,337,0,0,0,0,0,0,0,0,0,-1,552,687,0,0
-665,337,0,0,0,0,0,0,0,0,0,-1,559,687,0,0
-658,337,0,0,0,0,0,0,0,0,0,-1,566,687,0,0
-651,337,0,0,0,0,0,0,0,0,0,-1,573,687,0,0
-644,337,0,0,0,0,0,0,0,0,0,-1,580,687,0,0
-637,337,0,0,0,0,0,0,0,0,0,-1,587,687,0,0
-630,337,0,0,0,0,0,0,0,0,0,-1,594,687,0,0
-623,337,0,0,0,0,0,0,0,0,0,-1,601,687,0,0
-616,337,0,0,0,0,0,0,0,0,0,-1,608,687,0,0
-609,337,0,0,0,0,0,0,0,0,0,-1,615,687,0,0
-602,337,0,0,0,0,0,0,0,0,0,-1,622,687,0,0
-595,337,0,0,0,0,0,0,0,0,0,-1,629,687,0,0
-588,337,-10.8413,1.27863,0,0,0,0,0,0,0,-1,636,687,-10.8413,-1.27861
-581,337,-11.2157,1.31567,0,0,0,0,0,0,0,-1,643,687,-11.2157,-1.3157
-574,337,-6.03339,2.0321,0,0,0,0,0,0,0,-1,650,687,-6.03337,-2.03213
-567,337,-13.8102,1.56787,0,0,0,0,0,0,0,-1,657,687,-13.8102,-1.56789
-560,337,-15.5435,2.34247,0,0,0,0,0,0,0,-1,664,687,-15.5435,-2.34247
-553,337,-16.5222,0.514038,0,0,0,0,0,0,0,-1,671,687,-16.5222,-0.514045
-546,337,-15.9503,-1.00879,0.00950024,0.0198498,-0.0132782,0.0289259,0.000424111,-0.971205,0.0191441,0.0481642,678,687,-15.9503,1.0088
-539,337,-15.2496,-2.56714,0,0,0,0,0,0,0,-1,685,687,-15.2496,2.56712
-532,337,-15.3114,-3.37958,0.00460033,0.010099,-0.00640645,0.0143211,0.000378196,-0.988089,0.00942389,0.0301335,692,687,-15.3114,3.37959
-525,337,-15.4202,-3.98505,0.00324602,0.00678955,-0.0042159,0.00959086,0.000444719,-0.984322,0.00625094,0.0168563,699,687,-15.4202,3.98505
-518,337,-15.4166,-4.56421,0.00233099,0.00425872,-0.00257039,0.00604002,0.000549694,-0.964778,0.00385653,0.0227568,706,687,-15.4166,4.5642
-511,337,-15.4648,-5.1424,0.00179964,0.00237103,-0.00140047,0.00351465,0.000656023,-0.886017,0.00215792,0.0231708,713,687,-15.4648,5.14242
-504,337,-15.4473,-5.76062,0.00153963,0.000998233,-0.000617751,0.00194339,0.000594473,-0.5789,0.00114985,0.023435,720,687,-15.4473,5.76065
-497,337,-15.4481,-6.3313,0.00155123,0.000132698,-0.000205771,0.00158047,0.000103452,-0.141184,0.00102091,0.0166737,727,687,-15.4481,6.33127
-490,337,-15.4647,-6.89966,0.0017498,-0.000318344,-0.000111019,0.00175574,-0.000324287,-0.0534758,0.00129223,0.013826,734,687,-15.4647,6.89963
-483,337,-15.472,-7.4649,0.00222016,-0.000346276,-0.000356179,0.00226867,-0.00039479,-0.135376,0.00165977,0.0139381,741,687,-15.472,7.46488
-476,337,-15.4789,-8.06561,0.00254419,-0.00022397,-0.000682192,0.00270318,-0.000382959,-0.22897,0.0019424,0.0157186,748,687,-15.4789,8.06563
-469,337,-15.4913,-8.65955,0,0,0,0,0,0,0,-1,755,687,-15.4913,8.65957
-462,337,-14.186,-8.89264,0,0,0,0,0,0,0,-1,762,687,-14.186,8.89266
-455,337,-6.00574,-3.12933,0,0,0,0,0,0,0,-1,769,687,-6.00576,3.12934
-448,337,-5.30627,-2.07202,0,0,0,0,0,0,0,-1,776,687,-5.30628,2.07205
-441,337,-4.24762,-1.49597,0,0,0,0,0,0,0,-1,783,687,-4.24762,1.49598
-434,337,-6.86908,1.37531,0,0,0,0,0,0,0,-1,790,687,-6.86908,-1.3753
-427,337,-9.92004,2.487,0,0,0,0,0,0,0,-1,797,687,-9.92002,-2.48701
-420,337,-2.95996,-1.76697,0,0,0,0,0,0,0,-1,804,687,-2.95998,1.76696
-413,337,-1.29169,-1.99487,0,0,0,0,0,0,0,-1,811,687,-1.29171,1.9949
-406,337,-1.02356,-1.89563,0,0,0,0,0,0,0,-1,818,687,-1.02357,1.89564
-399,337,-0.472839,-2.21338,0,0,0,0,0,0,0,-1,825,687,-0.472837,2.2134
-392,337,0,0,0,0,0,0,0,0,0,-1,832,687,0,0
-385,337,0,0,0,0,0,0,0,0,0,-1,839,687,0,0
-378,337,0,0,0,0,0,0,0,0,0,-1,846,687,0,0
-371,337,0,0,0,0,0,0,0,0,0,-1,853,687,0,0
-364,337,0,0,0,0,0,0,0,0,0,-1,860,687,0,0
-357,337,0,0,0,0,0,0,0,0,0,-1,867,687,0,0
-350,337,0,0,0,0,0,0,0,0,0,-1,874,687,0,0
-343,337,0,0,0,0,0,0,0,0,0,-1,881,687,0,0
-336,337,0,0,0,0,0,0,0,0,0,-1,888,687,0,0
-329,337,0,0,0,0,0,0,0,0,0,-1,895,687,0,0
-322,337,0,0,0,0,0,0,0,0,0,-1,902,687,0,0
-315,337,0,0,0,0,0,0,0,0,0,-1,909,687,0,0
-308,337,0,0,0,0,0,0,0,0,0,-1,916,687,0,0
-301,337,0,0,0,0,0,0,0,0,0,-1,923,687,0,0
-294,337,0,0,0,0,0,0,0,0,0,-1,930,687,0,0
-287,337,0,0,0,0,0,0,0,0,0,-1,937,687,0,0
-280,337,0,0,0,0,0,0,0,0,0,-1,944,687,0,0
-273,337,0,0,0,0,0,0,0,0,0,-1,951,687,0,0
-266,337,0,0,0,0,0,0,0,0,0,-1,958,687,0,0
-259,337,0,0,0,0,0,0,0,0,0,-1,965,687,0,0
-252,337,0,0,0,0,0,0,0,0,0,-1,972,687,0,0
-245,337,0,0,0,0,0,0,0,0,0,-1,979,687,0,0
-238,337,0,0,0,0,0,0,0,0,0,-1,986,687,0,0
-231,337,0,0,0,0,0,0,0,0,0,-1,993,687,0,0
-224,337,0,0,0,0,0,0,0,0,0,-1,1000,687,0,0
-217,337,0,0,0,0,0,0,0,0,0,-1,1007,687,0,0
-210,337,0,0,0,0,0,0,0,0,0,-1,1014,687,0,0
-203,337,0,0,0,0,0,0,0,0,0,-1,1021,687,0,0
-196,337,0,0,0,0,0,0,0,0,0,-1,1028,687,0,0
-189,337,0,0,0,0,0,0,0,0,0,-1,1035,687,0,0
-182,337,0,0,0,0,0,0,0,0,0,-1,1042,687,0,0
-175,337,0,0,0,0,0,0,0,0,0,-1,1049,687,0,0
-168,337,0,0,0,0,0,0,0,0,0,-1,1056,687,0,0
-161,337,0,0,0,0,0,0,0,0,0,-1,1063,687,0,0
-154,337,0,0,0,0,0,0,0,0,0,-1,1070,687,0,0
-147,337,0,0,0,0,0,0,0,0,0,-1,1077,687,0,0
-140,337,0,0,0,0,0,0,0,0,0,-1,1084,687,0,0
-133,337,0,0,0,0,0,0,0,0,0,-1,1091,687,0,0
-126,337,0,0,0,0,0,0,0,0,0,-1,1098,687,0,0
-119,337,0,0,0,0,0,0,0,0,0,-1,1105,687,0,0
-112,337,0,0,0,0,0,0,0,0,0,-1,1112,687,0,0
-105,337,0,0,0,0,0,0,0,0,0,-1,1119,687,0,0
-98,337,0,0,0,0,0,0,0,0,0,-1,1126,687,0,0
-91,337,0,0,0,0,0,0,0,0,0,-1,1133,687,0,0
-84,337,0,0,0,0,0,0,0,0,0,-1,1140,687,0,0
-77,337,0,0,0,0,0,0,0,0,0,-1,1147,687,0,0
-70,337,0,0,0,0,0,0,0,0,0,-1,1154,687,0,0
-63,337,0,0,0,0,0,0,0,0,0,-1,1161,687,0,0
-56,337,0,0,0,0,0,0,0,0,0,-1,1168,687,0,0
-49,337,0,0,0,0,0,0,0,0,0,-1,1175,687,0,0
-42,337,0,0,0,0,0,0,0,0,0,-1,1182,687,0,0
-35,337,0,0,0,0,0,0,0,0,0,-1,1189,687,0,0
-28,337,0,0,0,0,0,0,0,0,0,-1,1196,687,0,0
-21,337,0,0,0,0,0,0,0,0,0,-1,1203,687,0,0
-14,337,0,0,0,0,0,0,0,0,0,-1,1210,687,0,0
-7,337,0,0,0,0,0,0,0,0,0,-1,1217,687,0,0
0,337,0,0,0,0,0,0,0,0,0,-1,1224,687,0,0
7,337,0,0,0,0,0,0,0,0,0,-1,1231,687,0,0
14,337,0,0,0,0,0,0,0,0,0,-1,1238,687,0,0
21,337,0,0,0,0,0,0,0,0,0,-1,1245,687,0,0
28,337,0,0,0,0,0,0,0,0,0,-1,1252,687,0,0
35,337,0,0,0,0,0,0,0,0,0,-1,1259,687,0,0
42,337,0,0,0,0,0,0,0,0,0,-1,1266,687,0,0
49,337,0,0,0,0,0,0,0,0,0,-1,1273,687,0,0
56,337,0,0,0,0,0,0,0,0,0,-1,1280,687,0,0
63,337,0,0,0,0,0,0,0,0,0,-1,1287,687,0,0
70,337,0,0,0,0,0,0,0,0,0,-1,1294,687,0,0
77,337,0,0,0,0,0,0,0,0,0,-1,1301,687,0,0
84,337,0,0,0,0,0,0,0,0,0,-1,1308,687,0,0
91,337,0,0,0,0,0,0,0,0,0,-1,1315,687,0,0
98,337,0,0,0,0,0,0,0,0,0,-1,1322,687,0,0
105,337,0,0,0,0,0,0,0,0,0,-1,1329,687,0,0
112,337,0,0,0,0,0,0,0,0,0,-1,1336,687,0,0
119,337,0,0,0,0,0,0,0,0,0,-1,1343,687,0,0
126,337,0,0,0,0,0,0,0,0,0,-1,1350,687,0,0
133,337,0,0,0,0,0,0,0,0,0,-1,1357,687,0,0
140,337,0,0,0,0,0,0,0,0,0,-1,1364,687,0,0
147,337,0,0,0,0,0,0,0,0,0,-1,1371,687,0,0
154,337,0,0,0,0,0,0,0,0,0,-1,1378,687,0,0
161,337,0,0,0,0,0,0,0,0,0,-1,1385,687,0,0
168,337,0,0,0,0,0,0,0,0,0,-1,1392,687,0,0
175,337,0,0,0,0,0,0,0,0,0,-1,1399,687,0,0
182,337,0,0,0,0,0,0,0,0,0,-1,1406,687,0,0
189,337,0,0,0,0,0,0,0,0,0,-1,1413,687,0,0
196,337,0,0,0,0,0,0,0,0,0,-1,1420,687,0,0
203,337,0,0,0,0,0,0,0,0,0,-1,1427,687,0,0
210,337,0,0,0,0,0,0,0,0,0,-1,1434,687,0,0
217,337,0,0,0,0,0,0,0,0,0,-1,1441,687,0,0
224,337,0,0,0,0,0,0,0,0,0,-1,1448,687,0,0
231,337,0,0,0,0,0,0,0,0,0,-1,1455,687,0,0
238,337,0,0,0,0,0,0,0,0,0,-1,1462,687,0,0
245,337,0,0,0,0,0,0,0,0,0,-1,1469,687,0,0
252,337,0,0,0,0,0,0,0,0,0,-1,1476,687,0,0
259,337,0,0,0,0,0,0,0,0,0,-1,1483,687,0,0
266,337,0,0,0,0,0,0,0,0,0,-1,1490,687,0,0
273,337,0,0,0,0,0,0,0,0,0,-1,1497,687,0,0
280,337,0,0,0,0,0,0,0,0,0,-1,1504,687,0,0
287,337,0,0,0,0,0,0,0,0,0,-1,1511,687,0,0
294,337,0,0,0,0,0,0,0,0,0,-1,1518,687,0,0
301,337,0,0,0,0,0,0,0,0,0,-1,1525,687,0,0
308,337,0,0,0,0,0,0,0,0,0,-1,1532,687,0,0
315,337,0,0,0,0,0,0,0,0,0,-1,1539,687,0,0
322,337,0,0,0,0,0,0,0,0,0,-1,1546,687,0,0
329,337,0,0,0,0,0,0,0,0,0,-1,1553,687,0,0
336,337,0,0,0,0,0,0,0,0,0,-1,1560,687,0,0
343,337,0,0,0,0,0,0,0,0,0,-1,1567,687,0,0
350,337,0,0,0,0,0,0,0,0,0,-1,1574,687,0,0
357,337,0,0,0,0,0,0,0,0,0,-1,1581,687,0,0
364,337,0,0,0,0,0,0,0,0,0,-1,1588,687,0,0
371,337,0,0,0,0,0,0,0,0,0,-1,1595,687,0,0
378,337,0,0,0,0,0,0,0,0,0,-1,1602,687,0,0
385,337,0,0,0,0,0,0,0,0,0,-1,1609,687,0,0
392,337,0,0,0,0,0,0,0,0,0,-1,1616,687,0,0
399,337,0,0,0,0,0,0,0,0,0,-1,1623,687,0,0
406,337,0,0,0,0,0,0,0,0,0,-1,1630,687,0,0
413,337,0,0,0,0,0,0,0,0,0,-1,1637,687,0,0
420,337,0,0,0,0,0,0,0,0,0,-1,1644,687,0,0
427,337,0,0,0,0,0,0,0,0,0,-1,1651,687,0,0
434,337,0,0,0,0,0,0,0,0,0,-1,1658,687,0,0
441,337,0,0,0,0,0,0,0,0,0,-1,1665,687,0,0
448,337,0,0,0,0,0,0,0,0,0,-1,1672,687,0,0
455,337,0,0,0,0,0,0,0,0,0,-1,1679,687,0,0
462,337,0,0,0,0,0,0,0,0,0,-1,1686,687,0,0
469,337,0,0,0,0,0,0,0,0,0,-1,1693,687,0,0
476,337,0,0,0,0,0,0,0,0,0,-1,1700,687,0,0
483,337,0,0,0,0,0,0,0,0,0,-1,1707,687,0,0
490,337,0,0,0,0,0,0,0,0,0,-1,1714,687,0,0
497,337,0,0,0,0,0,0,0,0,0,-1,1721,687,0,0
504,337,0,0,0,0,0,0,0,0,0,-1,1728,687,0,0
511,337,0,0,0,0,0,0,0,0,0,-1,1735,687,0,0
518,337,18.0369,1.64581,0,0,0,0,0,0,0,-1,1742,687,18.0368,-1.64581
525,337,31.0717,2.13745,0,0,0,0,0,0,0,-1,1749,687,31.0717,-2.13747
532,337,31.5126,2.13904,0,0,0,0,0,0,0,-1,1756,687,31.5125,-2.13905
539,337,31.9684,2.15594,0,0,0,0,0,0,0,-1,1763,687,31.9684,-2.15596
546,337,32.3584,1.43719,0,0,0,0,0,0,0,-1,1770,687,32.3585,-1.43722
553,337,32.1809,1.36395,0,0,0,0,0,0,0,-1,1777,687,32.181,-1.36396
560,337,18.4053,3.62793,0,0,0,0,0,0,0,-1,1784,687,18.4052,-3.6279
567,337,11.9288,1.38776,0,0,0,0,0,0,0,-1,1791,687,11.9288,-1.38777
574,337,10.704,1.19476,0,0,0,0,0,0,0,-1,1798,687,10.704,-1.19478
581,337,8.50427,0.561768,0,0,0,0,0,0,0,-1,1805,687,8.5043,-0.561754
588,337,8.5885,-0.0536499,0,0,0,0,0,0,0,-1,1812,687,8.58844,0.0536788
595,337,13.8816,-1.70703,0,0,0,0,0,0,0,-1,1819,687,13.8816,1.70702
602,337,26.0803,-6.4494,0,0,0,0,0,0,0,-1,1826,687,26.0803,6.44941
609,337,26.1222,-5.76569,-0.00844763,0.00709553,0.00690739,0.00972152,-0.0110736,1.2075,0.0120145,0.0268527,1833,687,26.1221,5.76567
616,337,26.1119,-5.19135,-0.00320804,0.00314576,0.00345721,0.00466406,-0.00472635,1.15698,0.0054216,0.0169411,1840,687,26.1119,5.19136
623,337,26.1007,-4.60559,-9.47379e-05,0.0012156,0.00125285,0.00197425,-0.000853388,1.02631,0.00167475,0.0149341,1847,687,26.1007,4.60556
630,337,26.0751,-4.00409,0.000761721,0.000322054,0.00026013,0.000882467,0.000201308,0.43458,0.00053401,0.0191873,1854,687,26.0751,4.00408
637,337,26.0671,-3.39233,-0.000186875,0.000218392,-0.000105485,0.000244204,-0.000212687,-1.33081,0.000263995,0.01694,1861,687,26.0672,3.39234
644,337,26.0273,-2.76538,-0.00140561,-2.27137e-05,-0.000662485,0.000243433,-0.00167175,-1.18879,0.00120388,0.0114122,1868,687,26.0274,2.76537
651,337,25.9836,-2.17322,-0.00302282,-0.000294574,-0.00141722,0.000308368,-0.00362576,-1.16855,0.00252624,0.0103051,1875,687,25.9837,2.17322
658,337,25.984,-1.56744,-0.00513131,-0.000701472,-0.00244081,0.000379579,-0.00621236,-1.15386,0.00427372,0.0123592,1882,687,25.984,1.56745
665,337,25.9884,-0.968994,-0.00781232,-0.00122863,-0.00375871,0.000475939,-0.00951689,-1.14504,0.00650904,0.0160311,1889,687,25.9885,0.969011
672,337,25.9456,-0.424255,-0.0112695,-0.0019318,-0.00552447,0.00063247,-0.0138338,-1.13623,0.0094404,0.0334748,1896,687,25.9456,0.424256
679,337,26.2318,0.0566406,0,0,0,0,0,0,0,-1,1903,687,26.2318,-0.0566242
686,337,18.5614,1.68597,0,0,0,0,0,0,0,-1,1910,687,18.5614,-1.68598
693,337,16.5415,2.21411,0,0,0,0,0,0,0,-1,1917,687,16.5415,-2.2141
700,337,17.2661,2.44379,0,0,0,0,0,0,0,-1,1924,687,17.2661,-2.44378
707,337,17.3544,5.61853,0,0,0,0,0,0,0,-1,1931,687,17.3543,-5.61851
714,337,0,0,0,0,0,0,0,0,0,-1,1938,687,0,0
721,337,0,0,0,0,0,0,0,0,0,-1,1945,687,0,0
728,337,0,0,0,0,0,0,0,0,0,-1,1952,687,0,0
735,337,0,0,0,0,0,0,0,0,0,-1,1959,687,0,0
742,337,0,0,0,0,0,0,0,0,0,-1,1966,687,0,0
749,337,0,0,0,0,0,0,0,0,0,-1,1973,687,0,0
756,337,0,0,0,0,0,0,0,0,0,-1,1980,687,0,0
763,337,0,0,0,0,0,0,0,0,0,-1,1987,687,0,0
770,337,0,0,0,0,0,0,0,0,0,-1,1994,687,0,0
777,337,0,0,0,0,0,0,0,0,0,-1,2001,687,0,0
784,337,0,0,0,0,0,0,0,0,0,-1,2008,687,0,0
791,337,0,0,0,0,0,0,0,0,0,-1,2015,687,0,0
798,337,0,0,0,0,0,0,0,0,0,-1,2022,687,0,0
805,337,0,0,0,0,0,0,0,0,0,-1,2029,687,0,0
812,337,0,0,0,0,0,0,0,0,0,-1,2036,687,0,0
-700,330,0,0,0,0,0,0,0,0,0,-1,524,694,0,0
-693,330,0,0,0,0,0,0,0,0,0,-1,531,694,0,0
-686,330,0,0,0,0,0,0,0,0,0,-1,538,694,0,0
-679,330,0,0,0,0,0,0,0,0,0,-1,545,694,0,0
-672,330,0,0,0,0,0,0,0,0,0,-1,552,694,0,0
-665,330,0,0,0,0,0,0,0,0,0,-1,559,694,0,0
-658,330,0,0,0,0,0,0,0,0,0,-1,566,694,0,0
-651,330,0,0,0,0,0,0,0,0,0,-1,573,694,0,0
-644,330,0,0,0,0,0,0,0,0,0,-1,580,694,0,0
-637,330,0,0,0,0,0,0,0,0,0,-1,587,694,0,0
-630,330,0,0,0,0,0,0,0,0,0,-1,594,694,0,0
-623,330,0,0,0,0,0,0,0,0,0,-1,601,694,0,0
-616,330,0,0,0,0,0,0,0,0,0,-1,608,694,0,0
-609,330,0,0,0,0,0,0,0,0,0,-1,615,694,0,0
-602,330,0,0,0,0,0,0,0,0,0,-1,622,694,0,0
-595,330,-4.67883,1.65515,0,0,0,0,0,0,0,-1,629,694,-4.67881,-1.65515
-588,330,-8.5047,2.67346,0,0,0,0,0,0,0,-1,636,694,-8.50469,-2.67348
-581,330,-12.4227,0.947083,0,0,0,0,0,0,0,-1,643,694,-12.4227,-0.947109
-574,330,-9.02118,1.87952,0,0,0,0,0,0,0,-1,650,694,-9.02115,-1.87953
-567,330,-8.35577,0.909973,0,0,0,0,0,0,0,-1,657,694,-8.35575,-0.909945
-560,330,-13.1036,-0.584656,0,0,0,0,0,0,0,-1,664,694,-13.1035,0.584658
-553,330,-15.8193,-1.15942,0,0,0,0,0,0,0,-1,671,694,-15.8193,1.15941
-546,330,-15.7891,-1.99036,0,0,0,0,0,0,0,-1,678,694,-15.7891,1.99038
-539,330,-16.0109,-2.67554,0,0,0,0,0,0,0,-1,685,694,-16.0109,2.67553
-532,330,-15.978,-3.35425,0.00313432,0.00752591,-0.00454204,0.0103751,0.000285156,-1.01055,0.00682365,0.016222,692,694,-15.978,3.35424
-525,330,-15.9581,-3.99597,0.00231905,0.00500615,-0.00296914,0.00692158,0.000403627,-0.997865,0.0044859,0.0109507,699,694,-15.958,3.99599
-518,330,-15.9818,-4.53833,0.00178884,0.00303437,-0.00175186,0.00427086,0.000552342,-0.956175,0.00268215,0.0141902,706,694,-15.9818,4.53832
-511,330,-16.0305,-5.12701,0.00150652,0.00153128,-0.000859977,0.00237896,0.000658832,-0.792596,0.00141832,0.0195344,713,694,-16.0305,5.12704
-504,330,-16.0295,-5.73175,0.00141469,0.0004378,-0.000237616,0.00146942,0.000383069,-0.226386,0.000880162,0.0192584,720,694,-16.0295,5.73177
-497,330,-16.0565,-6.27533,0.00152349,-0.000238647,0.000103791,0.00152958,-0.000244739,0.0586302,0.00111033,0.0138968,727,694,-16.0565,6.27535
-490,330,-16.0396,-6.85864,0.00203591,-0.000306294,-4.54525e-05,0.0020368,-0.000307176,-0.0193961,0.00147099,0.0135451,734,694,-16.0396,6.85863
-483,330,-16.0365,-7.45184,0.00261663,-0.000198415,-0.000300761,0.00264841,-0.000230189,-0.105257,0.00184712,0.0138375,741,694,-16.0365,7.45186
-476,330,-16.0865,-8.05115,0,0,0,0,0,0,0,-1,748,694,-16.0865,8.05116
-469,330,-15.7817,-8.50653,0,0,0,0,0,0,0,-1,755,694,-15.7817,8.50655
-462,330,-7.26733,-3.84833,0,0,0,0,0,0,0,-1,762,694,-7.26731,3.84832
-455,330,-5.04254,-1.79303,0,0,0,0,0,0,0,-1,769,694,-5.04252,1.79305
-448,330,-4.89886,-1.66156,0,0,0,0,0,0,0,-1,776,694,-4.89886,1.66157
-441,330,-5.30676,-2.34045,0,0,0,0,0,0,0,-1,783,694,-5.30679,2.34048
-434,330,-7.20428,1.00024,0,0,0,0,0,0,0,-1,790,694,-7.20431,-1.00027
-427,330,-16.0428,2.89258,0,0,0,0,0,0,0,-1,797,694,-16.0428,-2.89259
-420,330,-29.0331,0.271606,0,0,0,0,0,0,0,-1,804,694,-29.0331,-0.27158
-413,330,-29.0896,0.56366,0,0,0,0,0,0,0,-1,811,694,-29.0896,-0.563671
-406,330,-1.65375,-1.74371,0,0,0,0,0,0,0,-1,818,694,-1.65375,1.74371
-399,330,0,0,0,0,0,0,0,0,0,-1,825,694,0,0
-392,330,0,0,0,0,0,0,0,0,0,-1,832,694,0,0
-385,330,0,0,0,0,0,0,0,0,0,-1,839,694,0,0
-378,330,0,0,0,0,0,0,0,0,0,-1,846,694,0,0
-371,330,0,0,0,0,0,0,0,0,0,-1,853,694,0,0
-364,330,0,0,0,0,0,0,0,0,0,-1,860,694,0,0
-357,330,0,0,0,0,0,0,0,0,0,-1,867,694,0,0
-350,330,0,0,0,0,0,0,0,0,0,-1,874,694,0,0
-343,330,0,0,0,0,0,0,0,0,0,-1,881,694,0,0
-336,330,0,0,0,0,0,0,0,0,0,-1,888,694,0,0
-329,330,0,0,0,0,0,0,0,0,0,-1,895,694,0,0
-322,330,0,0,0,0,0,0,0,0,0,-1,902,694,0,0
-315,330,0,0,0,0,0,0,0,0,0,-1,909,694,0,0
-308,330,0,0,0,0,0,0,0,0,0,-1,916,694,0,0
-301,330,0,0,0,0,0,0,0,0,0,-1,923,694,0,0
-294,330,0,0,0,0,0,0,0,0,0,-1,930,694,0,0
-287,330,0,0,0,0,0,0,0,0,0,-1,937,694,0,0
-280,330,0,0,0,0,0,0,0,0,0,-1,944,694,0,0
-273,330,0,0,0,0,0,0,0,0,0,-1,951,694,0,0
-266,330,0,0,0,0,0,0,0,0,0,-1,958,694,0,0
-259,330,0,0,0,0,0,0,0,0,0,-1,965,694,0,0
-252,330,0,0,0,0,0,0,0,0,0,-1,972,694,0,0
-245,330,0,0,0,0,0,0,0,0,0,-1,979,694,0,0
-238,330,0,0,0,0,0,0,0,0,0,-1,986,694,0,0
-231,330,0,0,0,0,0,0,0,0,0,-1,993,694,0,0
-224,330,0,0,0,0,0,0,0,0,0,-1,1000,694,0,0
-217,330,0,0,0,0,0,0,0,0,0,-1,1007,694,0,0
-210,330,0,0,0,0,0,0,0,0,0,-1,1014,694,0,0
-203,330,0,0,0,0,0,0,0,0,0,-1,1021,694,0,0
-196,330,0,0,0,0,0,0,0,0,0,-1,1028,694,0,0
-189,330,0,0,0,0,0,0,0,0,0,-1,1035,694,0,0
-182,330,0,0,0,0,0,0,0,0,0,-1,1042,694,0,0
-175,330,0,0,0,0,0,0,0,0,0,-1,1049,694,0,0
-168,330,0,0,0,0,0,0,0,0,0,-1,1056,694,0,0
-161,330,0,0,0,0,0,0,0,0,0,-1,1063,694,0,0
-154,330,0,0,0,0,0,0,0,0,0,-1,1070,694,0,0
-147,330,0,0,0,0,0,0,0,0,0,-1,1077,694,0,0
-140,330,0,0,0,0,0,0,0,0,0,-1,1084,694,0,0
-133,330,0,0,0,0,0,0,0,0,0,-1,1091,694,0,0
-126,330,0,0,0,0,0,0,0,0,0,-1,1098,694,0,0
-119,330,0,0,0,0,0,0,0,0,0,-1,1105,694,0,0
-112,330,0,0,0,0,0,0,0,0,0,-1,1112,694,0,0
-105,330,0,0,0,0,0,0,0,0,0,-1,1119,694,0,0
-98,330,0,0,0,0,0,0,0,0,0,-1,1126,694,0,0
-91,330,0,0,0,0,0,0,0,0,0,-1,1133,694,0,0
-84,330,0,0,0,0,0,0,0,0,0,-1,1140,694,0,0
-77,330,0,0,0,0,0,0,0,0,0,-1,1147,694,0,0
-70,330,0,0,0,0,0,0,0,0,0,-1,1154,694,0,0
-63,330,0,0,0,0,0,0,0,0,0,-1,1161,694,0,0
-56,330,0,0,0,0,0,0,0,0,0,-1,1168,694,0,0
-49,330,0,0,0,0,0,0,0,0,0,-1,1175,694,0,0
-42,330,0,0,0,0,0,0,0,0,0,-1,1182,694,0,0
-35,330,0,0,0,0,0,0,0,0,0,-1,1189,694,0,0
-28,330,0,0,0,0,0,0,0,0,0,-1,1196,694,0,0
-21,330,0,0,0,0,0,0,0,0,0,-1,1203,694,0,0
-14,330,0,0,0,0,0,0,0,0,0,-1,1210,694,0,0
-7,330,0,0,0,0,0,0,0,0,0,-1,1217,694,0,0
0,330,0,0,0,0,0,0,0,0,0,-1,1224,694,0,0
7,330,0,0,0,0,0,0,0,0,0,-1,1231,694,0,0
14,330,0,0,0,0,0,0,0,0,0,-1,1238,694,0,0
21,330,0,0,0,0,0,0,0,0,0,-1,1245,694,0,0
28,330,0,0,0,0,0,0,0,0,0,-1,1252,694,0,0
35,330,0,0,0,0,0,0,0,0,0,-1,1259,694,0,0
42,330,0,0,0,0,0,0,0,0,0,-1,1266,694,0,0
49,330,0,0,0,0,0,0,0,0,0,-1,1273,694,0,0
56,330,0,0,0,0,0,0,0,0,0,-1,1280,694,0,0
63,330,0,0,0,0,0,0,0,0,0,-1,1287,694,0,0
70,330,0,0,0,0,0,0,0,0,0,-1,1294,694,0,0
77,330,0,0,0,0,0,0,0,0,0,-1,1301,694,0,0
84,330,0,0,0,0,0,0,0,0,0,-1,1308,694,0,0
91,330,0,0,0,0,0,0,0,0,0,-1,1315,694,0,0
98,330,0,0,0,0,0,0,0,0,0,-1,1322,694,0,0
105,330,0,0,0,0,0,0,0,0,0,-1,1329,694,0,0
112,330,0,0,0,0,0,0,0,0,0,-1,1336,694,0,0
119,330,0,0,0,0,0,0,0,0,0,-1,1343,694,0,0
126,330,0,0,0,0,0,0,0,0,0,-1,1350,694,0,0
133,330,0,0,0,0,0,0,0,0,0,-1,1357,694,0,0
140,330,0,0,0,0,0,0,0,0,0,-1,1364,694,0,0
147,330,0,0,0,0,0,0,0,0,0,-1,1371,694,0,0
154,330,0,0,0,0,0,0,0,0,0,-1,1378,694,0,0
161,330,0,0,0,0,0,0,0,0,0,-1,1385,694,0,0
168,330,0,0,0,0,0,0,0,0,0,-1,1392,694,0,0
175,330,0,0,0,0,0,0,0,0,0,-1,1399,694,0,0
182,330,0,0,0,0,0,0,0,0,0,-1,1406,694,0,0
189,330,0,0,0,0,0,0,0,0,0,-1,1413,694,0,0
196,330,0,0,0,0,0,0,0,0,0,-1,1420,694,0,0
203,330,0,0,0,0,0,0,0,0,0,-1,1427,694,0,0
210,330,0,0,0,0,0,0,0,0,0,-1,1434,694,0,0
217,330,0,0,0,0,0,0,0,0,0,-1,1441,694,0,0
224,330,0,0,0,0,0,0,0,0,0,-1,1448,694,0,0
231,330,0,0,0,0,0,0,0,0,0,-1,1455,694,0,0
238,330,0,0,0,0,0,0,0,0,0,-1,1462,694,0,0
245,330,0,0,0,0,0,0,0,0,0,-1,1469,694,0,0
252,330,0,0,0,0,0,0,0,0,0,-1,1476,694,0,0
259,330,0,0,0,0,0,0,0,0,0,-1,1483,694,0,0
266,330,0,0,0,0,0,0,0,0,0,-1,1490,694,0,0
273,330,0,0,0,0,0,0,0,0,0,-1,1497,694,0,0
280,330,0,0,0,0,0,0,0,0,0,-1,1504,694,0,0
287,330,0,0,0,0,0,0,0,0,0,-1,1511,694,0,0
294,330,0,0,0,0,0,0,0,0,0,-1,1518,694,0,0
301,330,0,0,0,0,0,0,0,0,0,-1,1525,694,0,0
308,330,0,0,0,0,0,0,0,0,0,-1,1532,694,0,0
315,330,0,0,0,0,0,0,0,0,0,-1,1539,694,0,0
322,330,0,0,0,0,0,0,0,0,0,-1,1546,694,0,0
329,330,0,0,0,0,0,0,0,0,0,-1,1553,694,0,0
336,330,0,0,0,0,0,0,0,0,0,-1,1560,694,0,0
343,330,0,0,0,0,0,0,0,0,0,-1,1567,694,0,0
350,330,0,0,0,0,0,0,0,0,0,-1,1574,694,0,0
357,330,0,0,0,0,0,0,0,0,0,-1,1581,694,0,0
364,330,0,0,0,0,0,0,0,0,0,-1,1588,694,0,0
371,330,0,0,0,0,0,0,0,0,0,-1,1595,694,0,0
378,330,0,0,0,0,0,0,0,0,0,-1,1602,694,0,0
385,330,0,0,0,0,0,0,0,0,0,-1,1609,694,0,0
392,330,0,0,0,0,0,0,0,0,0,-1,1616,694,0,0
399,330,0,0,0,0,0,0,0,0,0,-1,1623,694,0,0
406,330,0,0,0,0,0,0,0,0,0,-1,1630,694,0,0
413,330,0,0,0,0,0,0,0,0,0,-1,1637,694,0,0
420,330,0,0,0,0,0,0,0,0,0,-1,1644,694,0,0
427,330,0,0,0,0,0,0,0,0,0,-1,1651,694,0,0
434,330,0,0,0,0,0,0,0,0,0,-1,1658,694,0,0
441,330,0,0,0,0,0,0,0,0,0,-1,1665,694,0,0
448,330,0,0,0,0,0,0,0,0,0,-1,1672,694,0,0
455,330,0,0,0,0,0,0,0,0,0,-1,1679,694,0,0
462,330,0,0,0,0,0,0,0,0,0,-1,1686,694,0,0
469,330,0,0,0,0,0,0,0,0,0,-1,1693,694,0,0
476,330,0,0,0,0,0,0,0,0,0,-1,1700,694,0,0
483,330,0,0,0,0,0,0,0,0,0,-1,1707,694,0,0
490,330,0,0,0,0,0,0,0,0,0,-1,1714,694,0,0
497,330,0,0,0,0,0,0,0,0,0,-1,1721,694,0,0
504,330,0,0,0,0,0,0,0,0,0,-1,1728,694,0,0
511,330,0,0,0,0,0,0,0,0,0,-1,1735,694,0,0
518,330,0,0,0,0,0,0,0,0,0,-1,1742,694,0,0
525,330,30.6694,0.69519,0,0,0,0,0,0,0,-1,1749,694,30.6694,-0.695206
532,330,30.9469,1.32501,0,0,0,0,0,0,0,-1,1756,694,30.9469,-1.32501
539,330,31.5155,1.62506,0,0,0,0,0,0,0,-1,1763,694,31.5155,-1.62507
546,330,31.4187,1.85651,0,0,0,0,0,0,0,-1,1770,694,31.4187,-1.85651
553,330,31.8452,1.81476,0,0,0,0,0,0,0,-1,1777,694,31.8452,-1.81475
560,330,32.2401,2.43225,0,0,0,0,0,0,0,-1,1784,694,32.2401,-2.43227
567,330,18.0321,3.98578,0,0,0,0,0,0,0,-1,1791,694,18.0321,-3.98576
574,330,12.0454,2.1662,0,0,0,0,0,0,0,-1,1798,694,12.0455,-2.16618
581,330,11.4215,4.50836,0,0,0,0,0,0,0,-1,1805,694,11.4215,-4.50837
588,330,6.45667,-0.0630493,0,0,0,0,0,0,0,-1,1812,694,6.45661,0.0630695
595,330,8.23193,-0.258484,0,0,0,0,0,0,0,-1,1819,694,8.23188,0.258459
602,330,26.4418,-6.53601,0,0,0,0,0,0,0,-1,1826,694,26.4418,6.53603
609,330,26.6301,-5.79962,-0.0110392,0.0102865,0.00929869,0.0137715,-0.0145242,1.21221,0.0163385,0.0396027,1833,694,26.6301,5.7996
616,330,26.7124,-5.17688,-0.00461174,0.00486041,0.00487375,0.0069202,-0.00667154,1.17093,0.00784763,0.0111664,1840,694,26.7124,5.17687
623,330,26.7017,-4.57965,-0.000398333,0.0019233,0.00186217,0.00295683,-0.00143187,1.06411,0.0025843,0.0123939,1847,694,26.7016,4.57967
630,330,26.688,-3.96118,0.00105402,0.000394544,0.000407735,0.00124866,0.000199902,0.445383,0.000774457,0.0139978,1854,694,26.688,3.96116
637,330,26.6696,-3.34546,7.33932e-05,0.00011362,1.44005e-05,0.000118244,6.87695e-05,1.26011,6.85703e-05,0.0134079,1861,694,26.6695,3.34543
644,330,26.6208,-2.74438,-0.00113326,-0.000107555,-0.000484394,8.50396e-05,-0.00132586,-1.19236,0.000913571,0.00852887,1868,694,26.6208,2.74438
651,330,26.605,-2.14008,-0.00266159,-0.000227599,-0.0011138,0.000205138,-0.00309433,-1.20022,0.00213455,0.0118232,1875,694,26.6049,2.14006
658,330,26.5803,-1.53534,-0.00459066,-0.000421603,-0.00193092,0.000335299,-0.00534756,-1.19721,0.0036819,0.0126015,1882,694,26.5803,1.53534
665,330,26.5428,-0.941895,-0.00699822,-0.000659481,-0.00296451,0.000510872,-0.00816858,-1.19479,0.00562375,0.0111625,1889,694,26.5429,0.941895
672,330,26.5834,-0.328796,-0.0100099,-0.000932237,-0.00427782,0.00076598,-0.0117081,-1.19289,0.00807285,0.0262147,1896,694,26.5834,0.328814
679,330,26.2128,0.189941,-0.0141192,-0.00128195,-0.00600616,0.00108992,-0.0164911,-1.19469,0.0113748,0.0417984,1903,694,26.2127,-0.18993
686,330,25.9253,0.844971,0,0,0,0,0,0,0,-1,1910,694,25.9253,-0.844978
693,330,17.3999,2.5976,0,0,0,0,0,0,0,-1,1917,694,17.4,-2.59759
700,330,17.1072,4.13,0,0,0,0,0,0,0,-1,1924,694,17.1071,-4.13002
707,330,16.663,4.88672,0,0,0,0,0,0,0,-1,1931,694,16.6629,-4.88673
714,330,16.5454,5.80896,0,0,0,0,0,0,0,-1,1938,694,16.5454,-5.80899
721,330,0,0,0,0,0,0,0,0,0,-1,1945,694,0,0
728,330,0,0,0,0,0,0,0,0,0,-1,1952,694,0,0
735,330,0,0,0,0,0,0,0,0,0,-1,1959,694,0,0
742,330,0,0,0,0,0,0,0,0,0,-1,1966,694,0,0
749,330,0,0,0,0,0,0,0,0,0,-1,1973,694,0,0
756,330,0,0,0,0,0,0,0,0,0,-1,1980,694,0,0
763,330,0,0,0,0,0,0,0,0,0,-1,1987,694,0,0
770,330,0,0,0,0,0,0,0,0,0,-1,1994,694,0,0
777,330,0,0,0,0,0,0,0,0,0,-1,2001,694,0,0
784,330,0,0,0,0,0,0,0,0,0,-1,2008,694,0,0
791,330,0,0,0,0,0,0,0,0,0,-1,2015,694,0,0
798,330,0,0,0,0,0,0,0,0,0,-1,2022,694,0,0
805,330,0,0,0,0,0,0,0,0,0,-1,2029,694,0,0
812,330,0,0,0,0,0,0,0,0,0,-1,2036,694,0,0
-700,323,0,0,0,0,0,0,0,0,0,-1,524,701,0,0
-693,323,0,0,0,0,0,0,0,0,0,-1,531,701,0,0
-686,323,0,0,0,0,0,0,0,0,0,-1,538,701,0,0
-679,323,0,0,0,0,0,0,0,0,0,-1,545,701,0,0
-672,323,0,0,0,0,0,0,0,0,0,-1,552,701,0,0
-665,323,0,0,0,0,0,0,0,0,0,-1,559,701,0,0
-658,323,0,0,0,0,0,0,0,0,0,-1,566,701,0,0
-651,323,0,0,0,0,0,0,0,0,0,-1,573,701,0,0
-644,323,0,0,0,0,0,0,0,0,0,-1,580,701,0,0
-637,323,0,0,0,0,0,0,0,0,0,-1,587,701,0,0
-630,323,0,0,0,0,0,0,0,0,0,-1,594,701,0,0
-623,323,0,0,0,0,0,0,0,0,0,-1,601,701,0,0
-616,323,0,0,0,0,0,0,0,0,0,-1,608,701,0,0
-609,323,0,0,0,0,0,0,0,0,0,-1,615,701,0,0
-602,323,-4.15833,2.12256,0,0,0,0,0,0,0,-1,622,701,-4.1583,-2.12257
-595,323,-4.052,1.79156,0,0,0,0,0,0,0,-1,629,701,-4.05198,-1.79158
-588,323,-4.07019,1.94543,0,0,0,0,0,0,0,-1,636,701,-4.07019,-1.94542
-581,323,-6.63727,0.562805,0,0,0,0,0,0,0,-1,643,701,-6.63728,-0.56279
-574,323,-6.15887,0.426697,0,0,0,0,0,0,0,-1,650,701,-6.15887,-0.426727
-567,323,-10.0015,0.0371094,0,0,0,0,0,0,0,-1,657,701,-10.0015,-0.037126
-560,323,-16.3503,-1.16956,0,0,0,0,0,0,0,-1,664,701,-16.3503,1.16957
-553,323,-16.5003,-1.70013,0,0,0,0,0,0,0,-1,671,701,-16.5003,1.70013
-546,323,-16.4865,-2.1944,0.00331281,0.0104858,-0.00586375,0.0137729,2.56868e-05,-1.05986,0.00917338,0.0232966,678,701,-16.4865,2.19438
-539,323,-16.4716,-2.70587,0.00265393,0.00782839,-0.00432859,0.010284,0.000198301,-1.05476,0.00679087,0.0191044,685,701,-16.4716,2.70589
-532,323,-16.5053,-3.33917,0.00210622,0.00556142,-0.00305093,0.00733992,0.000327716,-1.04302,0.00478778,0.0109614,692,701,-16.5053,3.33918
-525,323,-16.5436,-3.95721,0.00168442,0.00365281,-0.00196731,0.00486838,0.000468851,-1.01733,0.00310114,0.0084198,699,701,-16.5436,3.95722
-518,323,-16.5544,-4.49719,0.00142616,0.00210827,-0.00109531,0.00291439,0.000620035,-0.936329,0.00177277,0.00996396,706,701,-16.5544,4.49722
-511,323,-16.5858,-5.07471,0.00128964,0.000874883,-0.000422011,0.00155247,0.00061205,-0.557023,0.00090298,0.013504,713,701,-16.5857,5.07468
-504,323,-16.6363,-5.6604,0.00126041,-5.58217e-05,8.1496e-05,0.00126543,-6.08484e-05,0.0616027,0.000864619,0.0150902,720,701,-16.6363,5.6604
-497,323,-16.6418,-6.22186,0.00134981,-0.00067586,0.000405221,0.00142787,-0.000753914,0.19029,0.00127953,0.012659,727,701,-16.6418,6.22184
-490,323,-16.6489,-6.80688,0.00207355,-0.000507018,7.68304e-05,0.00207584,-0.000509304,0.0297375,0.00158124,0.0150814,734,701,-16.6489,6.80688
-483,323,-16.6419,-7.38403,0.00270537,-0.000370311,-0.00014569,0.00271226,-0.000377197,-0.0472274,0.00194613,0.0282458,741,701,-16.6419,7.38401
-476,323,-16.6133,-7.96826,0,0,0,0,0,0,0,-1,748,701,-16.6133,7.96828
-469,323,-8.33301,-3.64001,0,0,0,0,0,0,0,-1,755,701,-8.33298,3.64
-462,323,-5.29431,-1.45697,0,0,0,0,0,0,0,-1,762,701,-5.29431,1.45699
-455,323,-5.0658,-1.36639,0,0,0,0,0,0,0,-1,769,701,-5.06578,1.3664
-448,323,-4.91608,-1.59601,0,0,0,0,0,0,0,-1,776,701,-4.91606,1.59604
-441,323,-14.4006,0.535217,0,0,0,0,0,0,0,-1,783,701,-14.4006,-0.535203
-434,323,-15.3158,2.479,0,0,0,0,0,0,0,-1,790,701,-15.3158,-2.47898
-427,323,-28.3923,1.16797,0,0,0,0,0,0,0,-1,797,701,-28.3923,-1.16796
-420,323,-28.7292,1.09302,0,0,0,0,0,0,0,-1,804,701,-28.7292,-1.09304
-413,323,-28.7955,1.22418,0,0,0,0,0,0,0,-1,811,701,-28.7956,-1.22419
-406,323,0,0,0,0,0,0,0,0,0,-1,818,701,0,0
-399,323,0,0,0,0,0,0,0,0,0,-1,825,701,0,0
-392,323,0,0,0,0,0,0,0,0,0,-1,832,701,0,0
-385,323,0,0,0,0,0,0,0,0,0,-1,839,701,0,0
-378,323,0,0,0,0,0,0,0,0,0,-1,846,701,0,0
-371,323,0,0,0,0,0,0,0,0,0,-1,853,701,0,0
-364,323,0,0,0,0,0,0,0,0,0,-1,860,701,0,0
-357,323,0,0,0,0,0,0,0,0,0,-1,867,701,0,0
-350,323,0,0,0,0,0,0,0,0,0,-1,874,701,0,0
-343,323,0,0,0,0,0,0,0,0,0,-1,881,701,0,0
-336,323,0,0,0,0,0,0,0,0,0,-1,888,701,0,0
-329,323,0,0,0,0,0,0,0,0,0,-1,895,701,0,0
-322,323,0,0,0,0,0,0,0,0,0,-1,902,701,0,0
-315,323,0,0,0,0,0,0,0,0,0,-1,909,701,0,0
-308,323,0,0,0,0,0,0,0,0,0,-1,916,701,0,0
-301,323,0,0,0,0,0,0,0,0,0,-1,923,701,0,0
-294,323,0,0,0,0,0,0,0,0,0,-1,930,701,0,0
-287,323,0,0,0,0,0,0,0,0,0,-1,937,701,0,0
-280,323,0,0,0,0,0,0,0,0,0,-1,944,701,0,0
-273,323,0,0,0,0,0,0,0,0,0,-1,951,701,0,0
-266,323,0,0,0,0,0,0,0,0,0,-1,958,701,0,0
-259,323,0,0,0,0,0,0,0,0,0,-1,965,701,0,0
-252,323,0,0,0,0,0,0,0,0,0,-1,972,701,0,0
-245,323,0,0,0,0,0,0,0,0,0,-1,979,701,0,0
-238,323,0,0,0,0,0,0,0,0,0,-1,986,701,0,0
-231,323,0,0,0,0,0,0,0,0,0,-1,993,701,0,0
-224,323,0,0,0,0,0,0,0,0,0,-1,1000,701,0,0
-217,323,0,0,0,0,0,0,0,0,0,-1,1007,701,0,0
-210,323,0,0,0,0,0,0,0,0,0,-1,1014,701,0,0
-203,323,0,0,0,0,0,0,0,0,0,-1,1021,701,0,0
-196,323,0,0,0,0,0,0,0,0,0,-1,1028,701,0,0
-189,323,0,0,0,0,0,0,0,0,0,-1,1035,701,0,0
-182,323,0,0,0,0,0,0,0,0,0,-1,1042,701,0,0
-175,323,0,0,0,0,0,0,0,0,0,-1,1049,701,0,0
-168,323,0,0,0,0,0,0,0,0,0,-1,1056,701,0,0
-161,323,0,0,0,0,0,0,0,0,0,-1,1063,701,0,0
-154,323,0,0,0,0,0,0,0,0,0,-1,1070,701,0,0
-147,323,0,0,0,0,0,0,0,0,0,-1,1077,701,0,0
-140,323,0,0,0,0,0,0,0,0,0,-1,1084,701,0,0
-133,323,0,0,0,0,0,0,0,0,0,-1,1091,701,0,0
-126,323,0,0,0,0,0,0,0,0,0,-1,1098,701,0,0
-119,323,0,0,0,0,0,0,0,0,0,-1,1105,701,0,0
-112,323,0,0,0,0,0,0,0,0,0,-1,1112,701,0,0
-105,323,0,0,0,0,0,0,0,0,0,-1,1119,701,0,0
-98,323,0,0,0,0,0,0,0,0,0,-1,1126,701,0,0
-91,323,0,0,0,0,0,0,0,0,0,-1,1133,701,0,0
-84,323,0,0,0,0,0,0,0,0,0,-1,1140,701,0,0
-77,323,0,0,0,0,0,0,0,0,0,-1,1147,701,0,0
-70,323,0,0,0,0,0,0,0,0,0,-1,1154,701,0,0
-63,323,0,0,0,0,0,0,0,0,0,-1,1161,701,0,0
-56,323,0,0,0,0,0,0,0,0,0,-1,1168,701,0,0
-49,323,0,0,0,0,0,0,0,0,0,-1,1175,701,0,0
-42,323,0,0,0,0,0,0,0,0,0,-1,1182,701,0,0
-35,323,0,0,0,0,0,0,0,0,0,-1,1189,701,0,0
-28,323,0,0,0,0,0,0,0,0,0,-1,1196,701,0,0
-21,323,0,0,0,0,0,0,0,0,0,-1,1203,701,0,0
-14,323,0,0,0,0,0,0,0,0,0,-1,1210,701,0,0
-7,323,0,0,0,0,0,0,0,0,0,-1,1217,701,0,0
0,323,0,0,0,0,0,0,0,0,0,-1,1224,701,0,0
7,323,0,0,0,0,0,0,0,0,0,-1,1231,701,0,0
14,323,0,0,0,0,0,0,0,0,0,-1,1238,701,0,0
21,323,0,0,0,0,0,0,0,0,0,-1,1245,701,0,0
28,323,0,0,0,0,0,0,0,0,0,-1,1252,701,0,0
35,323,0,0,0,0,0,0,0,0,0,-1,1259,701,0,0
42,323,0,0,0,0,0,0,0,0,0,-1,1266,701,0,0
49,323,0,0,0,0,0,0,0,0,0,-1,1273,701,0,0
56,323,0,0,0,0,0,0,0,0,0,-1,1280,701,0,0
63,323,0,0,0,0,0,0,0,0,0,-1,1287,701,0,0
70,323,0,0,0,0,0,0,0,0,0,-1,1294,701,0,0
77,323,0,0,0,0,0,0,0,0,0,-1,1301,701,0,0
84,323,0,0,0,0,0,0,0,0,0,-1,1308,701,0,0
91,323,0,0,0,0,0,0,0,0,0,-1,1315,701,0,0
98,323,0,0,0,0,0,0,0,0,0,-1,1322,701,0,0
105,323,0,0,0,0,0,0,0,0,0,-1,1329,701,0,0
112,323,0,0,0,0,0,0,0,0,0,-1,1336,701,0,0
119,323,0,0,0,0,0,0,0,0,0,-1,1343,701,0,0
126,323,0,0,0,0,0,0,0,0,0,-1,1350,701,0,0
133,323,0,0,0,0,0,0,0,0,0,-1,1357,701,0,0
140,323,0,0,0,0,0,0,0,0,0,-1,1364,701,0,0
147,323,0,0,0,0,0,0,0,0,0,-1,1371,701,0,0
154,323,0,0,0,0,0,0,0,0,0,-1,1378,701,0,0
161,323,0,0,0,0,0,0,0,0,0,-1,1385,701,0,0
168,323,0,0,0,0,0,0,0,0,0,-1,1392,701,0,0
175,323,0,0,0,0,0,0,0,0,0,-1,1399,701,0,0
182,323,0,0,0,0,0,0,0,0,0,-1,1406,701,0,0
189,323,0,0,0,0,0,0,0,0,0,-1,1413,701,0,0
196,323,0,0,0,0,0,0,0,0,0,-1,1420,701,0,0
203,323,0,0,0,0,0,0,0,0,0,-1,1427,701,0,0
210,323,0,0,0,0,0,0,0,0,0,-1,1434,701,0,0
217,323,0,0,0,0,0,0,0,0,0,-1,1441,701,0,0
224,323,0,0,0,0,0,0,0,0,0,-1,1448,701,0,0
231,323,0,0,0,0,0,0,0,0,0,-1,1455,701,0,0
238,323,0,0,0,0,0,0,0,0,0,-1,1462,701,0,0
245,323,0,0,0,0,0,0,0,0,0,-1,1469,701,0,0
252,323,0,0,0,0,0,0,0,0,0,-1,1476,701,0,0
259,323,0,0,0,0,0,0,0,0,0,-1,1483,701,0,0
266,323,0,0,0,0,0,0,0,0,0,-1,1490,701,0,0
273,323,0,0,0,0,0,0,0,0,0,-1,1497,701,0,0
280,323,0,0,0,0,0,0,0,0,0,-1,1504,701,0,0
287,323,0,0,0,0,0,0,0,0,0,-1,1511,701,0,0
294,323,0,0,0,0,0,0,0,0,0,-1,1518,701,0,0
301,323,0,0,0,0,0,0,0,0,0,-1,1525,701,0,0
308,323,0,0,0,0,0,0,0,0,0,-1,1532,701,0,0
315,323,0,0,0,0,0,0,0,0,0,-1,1539,701,0,0
322,323,0,0,0,0,0,0,0,0,0,-1,1546,701,0,0
329,323,0,0,0,0,0,0,0,0,0,-1,1553,701,0,0
336,323,0,0,0,0,0,0,0,0,0,-1,1560,701,0,0
343,323,0,0,0,0,0,0,0,0,0,-1,1567,701,0,0
350,323,0,0,0,0,0,0,0,0,0,-1,1574,701,0,0
357,323,0,0,0,0,0,0,0,0,0,-1,1581,701,0,0
364,323,0,0,0,0,0,0,0,0,0,-1,1588,701,0,0
371,323,0,0,0,0,0,0,0,0,0,-1,1595,701,0,0
378,323,0,0,0,0,0,0,0,0,0,-1,1602,701,0,0
385,323,0,0,0,0,0,0,0,0,0,-1,1609,701,0,0
392,323,0,0,0,0,0,0,0,0,0,-1,1616,701,0,0
399,323,0,0,0,0,0,0,0,0,0,-1,1623,701,0,0
406,323,0,0,0,0,0,0,0,0,0,-1,1630,701,0,0
413,323,0,0,0,0,0,0,0,0,0,-1,1637,701,0,0
420,323,0,0,0,0,0,0,0,0,0,-1,1644,701,0,0
427,323,0,0,0,0,0,0,0,0,0,-1,1651,701,0,0
434,323,0,0,0,0,0,0,0,0,0,-1,1658,701,0,0
441,323,0,0,0,0,0,0,0,0,0,-1,1665,701,0,0
448,323,0,0,0,0,0,0,0,0,0,-1,1672,701,0,0
455,323,0,0,0,0,0,0,0,0,0,-1,1679,701,0,0
462,323,0,0,0,0,0,0,0,0,0,-1,1686,701,0,0
469,323,0,0,0,0,0,0,0,0,0,-1,1693,701,0,0
476,323,0,0,0,0,0,0,0,0,0,-1,1700,701,0,0
483,323,0,0,0,0,0,0,0,0,0,-1,1707,701,0,0
490,323,0,0,0,0,0,0,0,0,0,-1,1714,701,0,0
497,323,0,0,0,0,0,0,0,0,0,-1,1721,701,0,0
504,323,0,0,0,0,0,0,0,0,0,-1,1728,701,0,0
511,323,0,0,0,0,0,0,0,0,0,-1,1735,701,0,0
518,323,0,0,0,0,0,0,0,0,0,-1,1742,701,0,0
525,323,0,0,0,0,0,0,0,0,0,-1,1749,701,0,0
532,323,33.6193,1.69446,0,0,0,0,0,0,0,-1,1756,701,33.6193,-1.69444
539,323,32.2698,2.44037,0,0,0,0,0,0,0,-1,1763,701,32.2697,-2.44036
546,323,31.1644,3.9444,0,0,0,0,0,0,0,-1,1770,701,31.1644,-3.94438
553,323,30.2488,5.8775,0,0,0,0,0,0,0,-1,1777,701,30.2487,-5.87752
560,323,40.6711,1.25153,0,0,0,0,0,0,0,-1,1784,701,40.6711,-1.25154
567,323,42.1637,2.01208,0,0,0,0,0,0,0,-1,1791,701,42.1637,-2.01207
574,323,12.514,5.89685,0,0,0,0,0,0,0,-1,1798,701,12.5141,-5.89683
581,323,11.821,5.3476,0,0,0,0,0,0,0,-1,1805,701,11.821,-5.34762
588,323,11.7933,7.00818,0,0,0,0,0,0,0,-1,1812,701,11.7933,-7.00819
595,323,6.67847,0.06604,0,0,0,0,0,0,0,-1,1819,701,6.67841,-0.0660418
602,323,11.2856,-0.595459,0,0,0,0,0,0,0,-1,1826,701,11.2856,0.595433
609,323,27.1078,-5.86194,0,0,0,0,0,0,0,-1,1833,701,27.1078,5.86192
616,323,27.3103,-5.14221,-0.00580336,0.0068497,0.00650786,0.00959936,-0.00855302,1.17103,0.0104861,0.0139844,1840,701,27.3103,5.14219
623,323,27.3115,-4.53674,-0.000544043,0.00292985,0.00267555,0.00438281,-0.00199701,1.0733,0.00376827,0.0135729,1847,701,27.3115,4.53673
630,323,27.275,-3.91534,0.00151145,0.000675009,0.000679008,0.0018907,0.000295757,0.509374,0.00117436,0.0147962,1854,701,27.275,3.91535
637,323,27.2603,-3.30719,0.000491742,0.000122666,0.000189401,0.000571641,4.27668e-05,0.399201,0.000367669,0.0114387,1861,701,27.2602,3.30717
644,323,27.2333,-2.73041,-0.000688418,-0.000174511,-0.000267111,-6.08254e-05,-0.000802103,-1.16841,0.000515657,0.00828161,1868,701,27.2333,2.7304
651,323,27.2252,-2.11963,-0.00210457,-0.0001613,-0.000781363,0.000113902,-0.00237977,-1.23216,0.00162581,0.0104574,1875,701,27.2252,2.11961
658,323,27.1636,-1.49188,-0.00384618,-0.00015948,-0.00142061,0.000324412,-0.00433008,-1.2425,0.00300071,0.0158836,1882,701,27.1636,1.49191
665,323,27.1044,-0.907837,-0.00598384,-0.000156387,-0.00221452,0.000589656,-0.00672989,-1.24585,0.0046955,0.013671,1889,701,27.1044,0.907833
672,323,27.1317,-0.268372,-0.00858087,-9.86181e-05,-0.00316721,0.000953493,-0.00963298,-1.25008,0.00676226,0.0146225,1896,701,27.1317,0.268364
679,323,27.0095,0.355896,-0.0119954,7.62884e-06,-0.00436708,0.00142835,-0.0134161,-1.25627,0.00945622,0.0386988,1903,701,27.0096,-0.355914
686,323,26.8948,0.821045,0,0,0,0,0,0,0,-1,1910,701,26.8948,-0.821075
693,323,23.8806,1.08844,0,0,0,0,0,0,0,-1,1917,701,23.8806,-1.08845
700,323,10.7705,0.828613,0,0,0,0,0,0,0,-1,1924,701,10.7705,-0.828591
707,323,16.9005,4.79193,0,0,0,0,0,0,0,-1,1931,701,16.9005,-4.7919
714,323,16.2346,6.25958,0,0,0,0,0,0,0,-1,1938,701,16.2346,-6.25956
721,323,0,0,0,0,0,0,0,0,0,-1,1945,701,0,0
728,323,0,0,0,0,0,0,0,0,0,-1,1952,701,0,0
735,323,0,0,0,0,0,0,0,0,0,-1,1959,701,0,0
742,323,0,0,0,0,0,0,0,0,0,-1,1966,701,0,0
749,323,0,0,0,0,0,0,0,0,0,-1,1973,701,0,0
756,323,0,0,0,0,0,0,0,0,0,-1,1980,701,0,0
763,323,0,0,0,0,0,0,0,0,0,-1,1987,701,0,0
770,323,0,0,0,0,0,0,0,0,0,-1,1994,701,0,0
777,323,0,0,0,0,0,0,0,0,0,-1,2001,701,0,0
784,323,0,0,0,0,0,0,0,0,0,-1,2008,701,0,0
791,323,0,0,0,0,0,0,0,0,0,-1,2015,701,0,0
798,323,0,0,0,0,0,0,0,0,0,-1,2022,701,0,0
805,323,0,0,0,0,0,0,0,0,0,-1,2029,701,0,0
812,323,0,0,0,0,0,0,0,0,0,-1,2036,701,0,0
-700,316,0,0,0,0,0,0,0,0,0,-1,524,708,0,0
-693,316,0,0,0,0,0,0,0,0,0,-1,531,708,0,0
-686,316,0,0,0,0,0,0,0,0,0,-1,538,708,0,0
-679,316,0,0,0,0,0,0,0,0,0,-1,545,708,0,0
-672,316,0,0,0,0,0,0,0,0,0,-1,552,708,0,0
-665,316,0,0,0,0,0,0,0,0,0,-1,559,708,0,0
-658,316,0,0,0,0,0,0,0,0,0,-1,566,708,0,0
-651,316,0,0,0,0,0,0,0,0,0,-1,573,708,0,0
-644,316,0,0,0,0,0,0,0,0,0,-1,580,708,0,0
-637,316,0,0,0,0,0,0,0,0,0,-1,587,708,0,0
-630,316,0,0,0,0,0,0,0,0,0,-1,594,708,0,0
-623,316,0,0,0,0,0,0,0,0,0,-1,601,708,0,0
-616,316,0,0,0,0,0,0,0,0,0,-1,608,708,0,0
-609,316,0,0,0,0,0,0,0,0,0,-1,615,708,0,0
-602,316,-0.451782,-0.0494995,0,0,0,0,0,0,0,-1,622,708,-0.451768,0.0495022
-595,316,-3.3761,2.17188,0,0,0,0,0,0,0,-1,629,708,-3.37609,-2.17189
-588,316,-5.00177,2.60675,0,0,0,0,0,0,0,-1,636,708,-5.00175,-2.60676
-581,316,-3.94653,0.393433,0,0,0,0,0,0,0,-1,643,708,-3.94655,-0.39342
-574,316,-9.67395,1.06067,0,0,0,0,0,0,0,-1,650,708,-9.67396,-1.06065
-567,316,-10.1962,0.448425,0,0,0,0,0,0,0,-1,657,708,-10.1962,-0.448411
-560,316,-16.7698,-1.22266,0,0,0,0,0,0,0,-1,664,708,-16.7698,1.22263
-553,316,-16.9199,-1.69592,0.00196071,0.0105094,-0.00416447,0.0122027,0.000267406,-1.18461,0.00804749,0.0444705,671,708,-16.9198,1.69589
-546,316,-17.1443,-2.12598,0.00175109,0.00780603,-0.0033891,0.00932296,0.000234158,-1.14995,0.00613874,0.0281336,678,708,-17.1444,2.12596
-539,316,-17.0533,-2.73096,0.00154305,0.00579223,-0.00260349,0.007028,0.000307282,-1.12763,0.00458634,0.0142011,685,708,-17.0533,2.73099
-532,316,-17.0884,-3.32214,0.00129187,0.00397327,-0.00189911,0.00495724,0.0003079,-1.09276,0.00320712,0.0114894,692,708,-17.0885,3.32216
-525,316,-17.1271,-3.90796,0.00111922,0.00248422,-0.00117589,0.00316133,0.000442115,-1.04834,0.00197673,0.0100246,699,708,-17.1271,3.90795
-518,316,-17.1317,-4.46942,0.00107828,0.00123997,-0.000553133,0.00171814,0.000600118,-0.857962,0.00100688,0.00986031,706,708,-17.1317,4.4694
-511,316,-17.1672,-5.04462,0.00119796,0.000119813,-2.18169e-05,0.0011984,0.000119372,-0.0202245,0.000762266,0.010423,713,708,-17.1672,5.04465
-504,316,-17.1965,-5.64777,0.00145252,-0.000855509,0.000432344,0.00153085,-0.000933838,0.179229,0.00143684,0.0138191,720,708,-17.1964,5.64779
-497,316,-17.1942,-6.20013,0.00192985,-0.00174885,0.000820881,0.00210471,-0.00192372,0.209882,0.0023266,0.0131968,727,708,-17.1942,6.20014
-490,316,-17.228,-6.77307,0.00340699,-0.00201801,0.000572866,0.00346683,-0.00207784,0.104068,0.00323453,0.0186936,734,708,-17.228,6.7731
-483,316,-17.1657,-7.34644,0,0,0,0,0,0,0,-1,741,708,-17.1657,7.34645
-476,316,-8.90894,-3.31207,0,0,0,0,0,0,0,-1,748,708,-8.90896,3.31206
-469,316,-6.24194,-1.42725,0,0,0,0,0,0,0,-1,755,708,-6.24192,1.42725
-462,316,-5.74237,-1.40039,0,0,0,0,0,0,0,-1,762,708,-5.74238,1.40039
-455,316,-5.44745,-1.21899,0,0,0,0,0,0,0,-1,769,708,-5.44746,1.21898
-448,316,-14.8945,0.655396,0,0,0,0,0,0,0,-1,776,708,-14.8946,-0.655396
-441,316,-14.9626,0.576111,0,0,0,0,0,0,0,-1,783,708,-14.9626,-0.576115
-434,316,-27.7723,1.15576,0,0,0,0,0,0,0,-1,790,708,-27.7723,-1.15579
-427,316,-28.0504,1.31427,0,0,0,0,0,0,0,-1,797,708,-28.0504,-1.31427
-420,316,-28.198,1.62891,0,0,0,0,0,0,0,-1,804,708,-28.198,-1.62889
-413,316,0,0,0,0,0,0,0,0,0,-1,811,708,0,0
-406,316,0,0,0,0,0,0,0,0,0,-1,818,708,0,0
-399,316,0,0,0,0,0,0,0,0,0,-1,825,708,0,0
-392,316,0,0,0,0,0,0,0,0,0,-1,832,708,0,0
-385,316,0,0,0,0,0,0,0,0,0,-1,839,708,0,0
-378,316,0,0,0,0,0,0,0,0,0,-1,846,708,0,0
-371,316,0,0,0,0,0,0,0,0,0,-1,853,708,0,0
-364,316,0,0,0,0,0,0,0,0,0,-1,860,708,0,0
-357,316,0,0,0,0,0,0,0,0,0,-1,867,708,0,0
-350,316,0,0,0,0,0,0,0,0,0,-1,874,708,0,0
-343,316,0,0,0,0,0,0,0,0,0,-1,881,708,0,0
-336,316,0,0,0,0,0,0,0,0,0,-1,888,708,0,0
-329,316,0,0,0,0,0,0,0,0,0,-1,895,708,0,0
-322,316,0,0,0,0,0,0,0,0,0,-1,902,708,0,0
-315,316,0,0,0,0,0,0,0,0,0,-1,909,708,0,0
-308,316,0,0,0,0,0,0,0,0,0,-1,916,708,0,0
-301,316,0,0,0,0,0,0,0,0,0,-1,923,708,0,0
-294,316,0,0,0,0,0,0,0,0,0,-1,930,708,0,0
-287,316,0,0,0,0,0,0,0,0,0,-1,937,708,0,0
-280,316,0,0,0,0,0,0,0,0,0,-1,944,708,0,0
-273,316,0,0,0,0,0,0,0,0,0,-1,951,708,0,0
-266,316,0,0,0,0,0,0,0,0,0,-1,958,708,0,0
-259,316,0,0,0,0,0,0,0,0,0,-1,965,708,0,0
-252,316,0,0,0,0,0,0,0,0,0,-1,972,708,0,0
-245,316,0,0,0,0,0,0,0,0,0,-1,979,708,0,0
-238,316,0,0,0,0,0,0,0,0,0,-1,986,708,0,0
-231,316,0,0,0,0,0,0,0,0,0,-1,993,708,0,0
-224,316,0,0,0,0,0,0,0,0,0,-1,1000,708,0,0
-217,316,0,0,0,0,0,0,0,0,0,-1,1007,708,0,0
-210,316,0,0,0,0,0,0,0,0,0,-1,1014,708,0,0
-203,316,0,0,0,0,0,0,0,0,0,-1,1021,708,0,0
-196,316,0,0,0,0,0,0,0,0,0,-1,1028,708,0,0
-189,316,0,0,0,0,0,0,0,0,0,-1,1035,708,0,0
-182,316,0,0,0,0,0,0,0,0,0,-1,1042,708,0,0
-175,316,0,0,0,0,0,0,0,0,0,-1,1049,708,0,0
-168,316,0,0,0,0,0,0,0,0,0,-1,1056,708,0,0
-161,316,0,0,0,0,0,0,0,0,0,-1,1063,708,0,0
-154,316,0,0,0,0,0,0,0,0,0,-1,1070,708,0,0
-147,316,0,0,0,0,0,0,0,0,0,-1,1077,708,0,0
-140,316,0,0,0,0,0,0,0,0,0,-1,1084,708,0,0
-133,316,0,0,0,0,0,0,0,0,0,-1,1091,708,0,0
-126,316,0,0,0,0,0,0,0,0,0,-1,1098,708,0,0
-119,316,0,0,0,0,0,0,0,0,0,-1,1105,708,0,0
-112,316,0,0,0,0,0,0,0,0,0,-1,1112,708,0,0
-105,316,0,0,0,0,0,0,0,0,0,-1,1119,708,0,0
-98,316,0,0,0,0,0,0,0,0,0,-1,1126,708,0,0
-91,316,0,0,0,0,0,0,0,0,0,-1,1133,708,0,0
-84,316,0,0,0,0,0,0,0,0,0,-1,1140,708,0,0
-77,316,0,0,0,0,0,0,0,0,0,-1,1147,708,0,0
-70,316,0,0,0,0,0,0,0,0,0,-1,1154,708,0,0
-63,316,0,0,0,0,0,0,0,0,0,-1,1161,708,0,0
-56,316,0,0,0,0,0,0,0,0,0,-1,1168,708,0,0
-49,316,0,0,0,0,0,0,0,0,0,-1,1175,708,0,0
-42,316,0,0,0,0,0,0,0,0,0,-1,1182,708,0,0
-35,316,0,0,0,0,0,0,0,0,0,-1,1189,708,0,0
-28,316,0,0,0,0,0,0,0,0,0,-1,1196,708,0,0
-21,316,0,0,0,0,0,0,0,0,0,-1,1203,708,0,0
-14,316,0,0,0,0,0,0,0,0,0,-1,1210,708,0,0
-7,316,0,0,0,0,0,0,0,0,0,-1,1217,708,0,0
0,316,0,0,0,0,0,0,0,0,0,-1,1224,708,0,0
7,316,0,0,0,0,0,0,0,0,0,-1,1231,708,0,0
14,316,0,0,0,0,0,0,0,0,0,-1,1238,708,0,0
21,316,0,0,0,0,0,0,0,0,0,-1,1245,708,0,0
28,316,0,0,0,0,0,0,0,0,0,-1,1252,708,0,0
35,316,0,0,0,0,0,0,0,0,0,-1,1259,708,0,0
42,316,0,0,0,0,0,0,0,0,0,-1,1266,708,0,0
49,316,0,0,0,0,0,0,0,0,0,-1,1273,708,0,0
56,316,0,0,0,0,0,0,0,0,0,-1,1280,708,0,0
63,316,0,0,0,0,0,0,0,0,0,-1,1287,708,0,0
70,316,0,0,0,0,0,0,0,0,0,-1,1294,708,0,0
77,316,0,0,0,0,0,0,0,0,0,-1,1301,708,0,0
84,316,0,0,0,0,0,0,0,0,0,-1,1308,708,0,0
91,316,0,0,0,0,0,0,0,0,0,-1,1315,708,0,0
98,316,0,0,0,0,0,0,0,0,0,-1,1322,708,0,0
105,316,0,0,0,0,0,0,0,0,0,-1,1329,708,0,0
112,316,0,0,0,0,0,0,0,0,0,-1,1336,708,0,0
119,316,0,0,0,0,0,0,0,0,0,-1,1343,708,0,0
126,316,0,0,0,0,0,0,0,0,0,-1,1350,708,0,0
133,316,0,0,0,0,0,0,0,0,0,-1,1357,708,0,0
140,316,0,0,0,0,0,0,0,0,0,-1,1364,708,0,0
147,316,0,0,0,0,0,0,0,0,0,-1,1371,708,0,0
154,316,0,0,0,0,0,0,0,0,0,-1,1378,708,0,0
161,316,0,0,0,0,0,0,0,0,0,-1,1385,708,0,0
168,316,0,0,0,0,0,0,0,0,0,-1,1392,708,0,0
175,316,0,0,0,0,0,0,0,0,0,-1,1399,708,0,0
182,316,0,0,0,0,0,0,0,0,0,-1,1406,708,0,0
189,316,0,0,0,0,0,0,0,0,0,-1,1413,708,0,0
196,316,0,0,0,0,0,0,0,0,0,-1,1420,708,0,0
203,316,0,0,0,0,0,0,0,0,0,-1,1427,708,0,0
210,316,0,0,0,0,0,0,0,0,0,-1,1434,708,0,0
217,316,0,0,0,0,0,0,0,0,0,-1,1441,708,0,0
224,316,0,0,0,0,0,0,0,0,0,-1,1448,708,0,0
231,316,0,0,0,0,0,0,0,0,0,-1,1455,708,0,0
238,316,0,0,0,0,0,0,0,0,0,-1,1462,708,0,0
245,316,0,0,0,0,0,0,0,0,0,-1,1469,708,0,0
252,316,0,0,0,0,0,0,0,0,0,-1,1476,708,0,0
259,316,0,0,0,0,0,0,0,0,0,-1,1483,708,0,0
266,316,0,0,0,0,0,0,0,0,0,-1,1490,708,0,0
273,316,0,0,0,0,0,0,0,0,0,-1,1497,708,0,0
280,316,0,0,0,0,0,0,0,0,0,-1,1504,708,0,0
287,316,0,0,0,0,0,0,0,0,0,-1,1511,708,0,0
294,316,0,0,0,0,0,0,0,0,0,-1,1518,708,0,0
301,316,0,0,0,0,0,0,0,0,0,-1,1525,708,0,0
308,316,0,0,0,0,0,0,0,0,0,-1,1532,708,0,0
315,316,0,0,0,0,0,0,0,0,0,-1,1539,708,0,0
322,316,0,0,0,0,0,0,0,0,0,-1,1546,708,0,0
329,316,0,0,0,0,0,0,0,0,0,-1,1553,708,0,0
336,316,0,0,0,0,0,0,0,0,0,-1,1560,708,0,0
343,316,0,0,0,0,0,0,0,0,0,-1,1567,708,0,0
350,316,0,0,0,0,0,0,0,0,0,-1,1574,708,0,0
357,316,0,0,0,0,0,0,0,0,0,-1,1581,708,0,0
364,316,0,0,0,0,0,0,0,0,0,-1,1588,708,0,0
371,316,0,0,0,0,0,0,0,0,0,-1,1595,708,0,0
378,316,0,0,0,0,0,0,0,0,0,-1,1602,708,0,0
385,316,0,0,0,0,0,0,0,0,0,-1,1609,708,0,0
392,316,0,0,0,0,0,0,0,0,0,-1,1616,708,0,0
399,316,0,0,0,0,0,0,0,0,0,-1,1623,708,0,0
406,316,0,0,0,0,0,0,0,0,0,-1,1630,708,0,0
413,316,0,0,0,0,0,0,0,0,0,-1,1637,708,0,0
420,316,0,0,0,0,0,0,0,0,0,-1,1644,708,0,0
427,316,0,0,0,0,0,0,0,0,0,-1,1651,708,0,0
434,316,0,0,0,0,0,0,0,0,0,-1,1658,708,0,0
441,316,0,0,0,0,0,0,0,0,0,-1,1665,708,0,0
448,316,0,0,0,0,0,0,0,0,0,-1,1672,708,0,0
455,316,0,0,0,0,0,0,0,0,0,-1,1679,708,0,0
462,316,0,0,0,0,0,0,0,0,0,-1,1686,708,0,0
469,316,0,0,0,0,0,0,0,0,0,-1,1693,708,0,0
476,316,0,0,0,0,0,0,0,0,0,-1,1700,708,0,0
483,316,0,0,0,0,0,0,0,0,0,-1,1707,708,0,0
490,316,0,0,0,0,0,0,0,0,0,-1,1714,708,0,0
497,316,0,0,0,0,0,0,0,0,0,-1,1721,708,0,0
504,316,0,0,0,0,0,0,0,0,0,-1,1728,708,0,0
511,316,0,0,0,0,0,0,0,0,0,-1,1735,708,0,0
518,316,0,0,0,0,0,0,0,0,0,-1,1742,708,0,0
525,316,0,0,0,0,0,0,0,0,0,-1,1749,708,0,0
532,316,33.8604,0.531128,0,0,0,0,0,0,0,-1,1756,708,33.8604,-0.531151
539,316,44.4543,2.73468,0,0,0,0,0,0,0,-1,1763,708,44.4543,-2.7347
546,316,44.713,3.35498,0,0,0,0,0,0,0,-1,1770,708,44.7131,-3.35501
553,316,39.9031,6.57275,0,0,0,0,0,0,0,-1,1777,708,39.9031,-6.57274
560,316,39.1196,1.10046,0,0,0,0,0,0,0,-1,1784,708,39.1197,-1.10048
567,316,47.3683,6.04919,0,0,0,0,0,0,0,-1,1791,708,47.3683,-6.04918
574,316,45.9872,6.7655,0,0,0,0,0,0,0,-1,1798,708,45.9871,-6.76552
581,316,24.6815,7.77496,0,0,0,0,0,0,0,-1,1805,708,24.6815,-7.77499
588,316,19.7659,2.90198,0,0,0,0,0,0,0,-1,1812,708,19.7659,-2.902
595,316,12.5363,1.50702,0,0,0,0,0,0,0,-1,1819,708,12.5363,-1.50701
602,316,7.79919,0.0422363,0,0,0,0,0,0,0,-1,1826,708,7.79923,-0.0422066
609,316,27.8206,-5.74231,0,0,0,0,0,0,0,-1,1833,708,27.8205,5.74228
616,316,27.8881,-5.09534,-0.00361858,0.00805897,0.00870696,0.0127036,-0.00826324,1.08075,0.0121954,0.0161543,1840,708,27.8881,5.09533
623,316,27.9043,-4.48914,0.00149928,0.00368584,0.00419736,0.00692997,-0.00174485,0.912801,0.00529825,0.0118663,1847,708,27.9043,4.48914
630,316,27.8606,-3.9295,0.0032784,0.000883411,0.00148947,0.00399206,0.000169752,0.446818,0.00260663,0.0135162,1854,708,27.8606,3.9295
637,316,27.8403,-3.31152,0.00169614,0.000109851,0.000651469,0.00192939,-0.000123401,0.34382,0.0013293,0.0121569,1861,708,27.8404,3.31152
644,316,27.8374,-2.6955,0.000150628,-0.000245363,7.43452e-05,0.000164125,-0.000258861,0.1796,0.000246245,0.0120263,1868,708,27.8374,2.69548
651,316,27.8159,-2.08197,-0.00142312,-8.21259e-05,-0.000428471,4.30867e-05,-0.00154833,-1.28648,0.00104688,0.0139397,1875,708,27.816,2.08198
658,316,27.7363,-1.45947,-0.00300698,0.000115338,-0.000919549,0.000366026,-0.00325767,-1.30464,0.0023035,0.0257044,1882,708,27.7364,1.45948
665,316,27.6833,-0.851624,-0.00481031,0.000367242,-0.0014653,0.000753171,-0.00519624,-1.31327,0.00374058,0.0198403,1889,708,27.6834,0.851596
672,316,27.7201,-0.258057,-0.00694983,0.000721521,-0.00209304,0.00125543,-0.00748374,-1.32104,0.00545599,0.0128286,1896,708,27.7201,0.25804
679,316,27.7307,0.448181,-0.00963877,0.00120696,-0.00284241,0.00190674,-0.0103386,-1.32941,0.00760802,0.0347322,1903,708,27.7307,-0.448182
686,316,27.1429,1.07068,-0.0129949,0.00176947,-0.00369501,0.00264257,-0.013868,-1.33876,0.0102405,0.0485258,1910,708,27.1429,-1.07066
693,316,26.4315,1.80652,0,0,0,0,0,0,0,-1,1917,708,26.4315,-1.80651
700,316,12.8749,2.89136,0,0,0,0,0,0,0,-1,1924,708,12.8748,-2.89137
707,316,15.7089,5.41486,0,0,0,0,0,0,0,-1,1931,708,15.7088,-5.41487
714,316,16.1727,5.52045,0,0,0,0,0,0,0,-1,1938,708,16.1728,-5.52042
721,316,16.7094,6.53351,0,0,0,0,0,0,0,-1,1945,708,16.7094,-6.5335
728,316,0,0,0,0,0,0,0,0,0,-1,1952,708,0,0
735,316,0,0,0,0,0,0,0,0,0,-1,1959,708,0,0
742,316,0,0,0,0,0,0,0,0,0,-1,1966,708,0,0
749,316,0,0,0,0,0,0,0,0,0,-1,1973,708,0,0
756,316,0,0,0,0,0,0,0,0,0,-1,1980,708,0,0
763,316,0,0,0,0,0,0,0,0,0,-1,1987,708,0,0
770,316,0,0,0,0,0,0,0,0,0,-1,1994,708,0,0
777,316,0,0,0,0,0,0,0,0,0,-1,2001,708,0,0
784,316,0,0,0,0,0,0,0,0,0,-1,2008,708,0,0
791,316,0,0,0,0,0,0,0,0,0,-1,2015,708,0,0
798,316,0,0,0,0,0,0,0,0,0,-1,2022,708,0,0
805,316,0,0,0,0,0,0,0,0,0,-1,2029,708,0,0
812,316,0,0,0,0,0,0,0,0,0,-1,2036,708,0,0
-700,309,0,0,0,0,0,0,0,0,0,-1,524,715,0,0
-693,309,0,0,0,0,0,0,0,0,0,-1,531,715,0,0
-686,309,0,0,0,0,0,0,0,0,0,-1,538,715,0,0
-679,309,0,0,0,0,0,0,0,0,0,-1,545,715,0,0
-672,309,0,0,0,0,0,0,0,0,0,-1,552,715,0,0
-665,309,0,0,0,0,0,0,0,0,0,-1,559,715,0,0
-658,309,0,0,0,0,0,0,0,0,0,-1,566,715,0,0
-651,309,0,0,0,0,0,0,0,0,0,-1,573,715,0,0
-644,309,0,0,0,0,0,0,0,0,0,-1,580,715,0,0
-637,309,0,0,0,0,0,0,0,0,0,-1,587,715,0,0
-630,309,0,0,0,0,0,0,0,0,0,-1,594,715,0,0
-623,309,0,0,0,0,0,0,0,0,0,-1,601,715,0,0
-616,309,0,0,0,0,0,0,0,0,0,-1,608,715,0,0
-609,309,-5.95392,-3.93689,0,0,0,0,0,0,0,-1,615,715,-5.95392,3.93686
-602,309,-4.99786,-3.31287,0,0,0,0,0,0,0,-1,622,715,-4.99786,3.31284
-595,309,-6.80847,2.4046,0,0,0,0,0,0,0,-1,629,715,-6.80845,-2.40458
-588,309,-6.08795,2.19324,0,0,0,0,0,0,0,-1,636,715,-6.08793,-2.19325
-581,309,-5.97552,1.3277,0,0,0,0,0,0,0,-1,643,715,-5.97552,-1.32769
-574,309,-8.73602,0.208435,0,0,0,0,0,0,0,-1,650,715,-8.73604,-0.208437
-567,309,-10.3909,0.85968,0,0,0,0,0,0,0,-1,657,715,-10.3909,-0.859696
-560,309,-17.5211,-1.47913,0,0,0,0,0,0,0,-1,664,715,-17.5211,1.47911
-553,309,-17.5983,-1.62329,0.00120446,0.00773184,-0.00165898,0.00812928,0.000807015,-1.33566,0.00517154,0.0449812,671,715,-17.5983,1.6233
-546,309,-17.7027,-2.12506,0.00102322,0.00567041,-0.00153541,0.00613188,0.000561754,-1.27883,0.00391413,0.0228459,678,715,-17.7027,2.12509
-539,309,-17.6425,-2.72577,0.00092219,0.00410808,-0.00124144,0.0045347,0.000495567,-1.23979,0.00287223,0.0157948,685,715,-17.6424,2.72576
-532,309,-17.6594,-3.29852,0.000697195,0.00264115,-0.000931825,0.00301566,0.000322681,-1.18864,0.00191198,0.0133678,692,715,-17.6594,3.29851
-525,309,-17.7104,-3.89948,0.000666256,0.00146983,-0.000489944,0.00170166,0.00043442,-1.12883,0.00102092,0.0164768,699,715,-17.7104,3.89949
-518,309,-17.73,-4.45453,0.000891761,0.000414791,-6.84881e-05,0.000901401,0.000405151,-0.139827,0.000521309,0.0163783,706,715,-17.73,4.45455
-511,309,-17.7405,-5.01672,0.00135104,-0.000674408,0.000364459,0.00141463,-0.000737992,0.172724,0.00126312,0.0125204,713,715,-17.7405,5.01674
-504,309,-17.7454,-5.61249,0.00200041,-0.00176084,0.000842277,0.00218041,-0.00194084,0.210541,0.00238075,0.0101228,720,715,-17.7455,5.61251
-497,309,-17.7596,-6.16016,0.00299336,-0.00300687,0.00136935,0.00329109,-0.0033046,0.214095,0.00380803,0.0142788,727,715,-17.7596,6.16013
-490,309,-17.7469,-6.71387,0.00511887,-0.00396762,0.0014795,0.00535369,-0.00420245,0.157409,0.00553057,0.0491184,734,715,-17.7469,6.71389
-483,309,-17.4191,-7.59973,0,0,0,0,0,0,0,-1,741,715,-17.419,7.59975
-476,309,-5.29486,-1.2262,0,0,0,0,0,0,0,-1,748,715,-5.29484,1.22622
-469,309,-4.22717,-0.592896,0,0,0,0,0,0,0,-1,755,715,-4.2272,0.592905
-462,309,-10.428,2.46948,0,0,0,0,0,0,0,-1,762,715,-10.428,-2.46947
-455,309,-15.8216,0.00915527,0,0,0,0,0,0,0,-1,769,715,-15.8216,-0.00913359
-448,309,-37.3543,-1.02441,0,0,0,0,0,0,0,-1,776,715,-37.3543,1.02444
-441,309,-19.8181,1.4425,0,0,0,0,0,0,0,-1,783,715,-19.8181,-1.44249
-434,309,-28.3196,0.95105,0,0,0,0,0,0,0,-1,790,715,-28.3196,-0.951068
-427,309,-27.8553,1.40332,0,0,0,0,0,0,0,-1,797,715,-27.8553,-1.40334
-420,309,-27.3148,1.90747,0,0,0,0,0,0,0,-1,804,715,-27.3148,-1.90745
-413,309,0,0,0,0,0,0,0,0,0,-1,811,715,0,0
-406,309,0,0,0,0,0,0,0,0,0,-1,818,715,0,0
-399,309,0,0,0,0,0,0,0,0,0,-1,825,715,0,0
-392,309,0,0,0,0,0,0,0,0,0,-1,832,715,0,0
-385,309,0,0,0,0,0,0,0,0,0,-1,839,715,0,0
-378,309,0,0,0,0,0,0,0,0,0,-1,846,715,0,0
-371,309,0,0,0,0,0,0,0,0,0,-1,853,715,0,0
-364,309,0,0,0,0,0,0,0,0,0,-1,860,715,0,0
-357,309,0,0,0,0,0,0,0,0,0,-1,867,715,0,0
-350,309,0,0,0,0,0,0,0,0,0,-1,874,715,0,0
-343,309,0,0,0,0,0,0,0,0,0,-1,881,715,0,0
-336,309,0,0,0,0,0,0,0,0,0,-1,888,715,0,0
-329,309,0,0,0,0,0,0,0,0,0,-1,895,715,0,0
-322,309,0,0,0,0,0,0,0,0,0,-1,902,715,0,0
-315,309,0,0,0,0,0,0,0,0,0,-1,909,715,0,0
-308,309,0,0,0,0,0,0,0,0,0,-1,916,715,0,0
-301,309,0,0,0,0,0,0,0,0,0,-1,923,715,0,0
-294,309,0,0,0,0,0,0,0,0,0,-1,930,715,0,0
-287,309,0,0,0,0,0,0,0,0,0,-1,937,715,0,0
-280,309,0,0,0,0,0,0,0,0,0,-1,944,715,0,0
-273,309,0,0,0,0,0,0,0,0,0,-1,951,715,0,0
-266,309,0,0,0,0,0,0,0,0,0,-1,958,715,0,0
-259,309,0,0,0,0,0,0,0,0,0,-1,965,715,0,0
-252,309,0,0,0,0,0,0,0,0,0,-1,972,715,0,0
-245,309,0,0,0,0,0,0,0,0,0,-1,979,715,0,0
-238,309,0,0,0,0,0,0,0,0,0,-1,986,715,0,0
-231,309,0,0,0,0,0,0,0,0,0,-1,993,715,0,0
-224,309,0,0,0,0,0,0,0,0,0,-1,1000,715,0,0
-217,309,0,0,0,0,0,0,0,0,0,-1,1007,715,0,0
-210,309,0,0,0,0,0,0,0,0,0,-1,1014,715,0,0
-203,309,0,0,0,0,0,0,0,0,0,-1,1021,715,0,0
-196,309,0,0,0,0,0,0,0,0,0,-1,1028,715,0,0
-189,309,0,0,0,0,0,0,0,0,0,-1,1035,715,0,0
-182,309,0,0,0,0,0,0,0,0,0,-1,1042,715,0,0
-175,309,0,0,0,0,0,0,0,0,0,-1,1049,715,0,0
-168,309,0,0,0,0,0,0,0,0,0,-1,1056,715,0,0
-161,309,0,0,0,0,0,0,0,0,0,-1,1063,715,0,0
-154,309,0,0,0,0,0,0,0,0,0,-1,1070,715,0,0
-147,309,0,0,0,0,0,0,0,0,0,-1,1077,715,0,0
-140,309,0,0,0,0,0,0,0,0,0,-1,1084,715,0,0
-133,309,0,0,0,0,0,0,0,0,0,-1,1091,715,0,0
-126,309,0,0,0,0,0,0,0,0,0,-1,1098,715,0,0
-119,309,0,0,0,0,0,0,0,0,0,-1,1105,715,0,0
-112,309,0,0,0,0,0,0,0,0,0,-1,1112,715,0,0
-105,309,0,0,0,0,0,0,0,0,0,-1,1119,715,0,0
-98,309,0,0,0,0,0,0,0,0,0,-1,1126,715,0,0
-91,309,0,0,0,0,0,0,0,0,0,-1,1133,715,0,0
-84,309,0,0,0,0,0,0,0,0,0,-1,1140,715,0,0
-77,309,0,0,0,0,0,0,0,0,0,-1,1147,715,0,0
-70,309,0,0,0,0,0,0,0,0,0,-1,1154,715,0,0
-63,309,0,0,0,0,0,0,0,0,0,-1,1161,715,0,0
-56,309,0,0,0,0,0,0,0,0,0,-1,1168,715,0,0
-49,309,0,0,0,0,0,0,0,0,0,-1,1175,715,0,0
-42,309,0,0,0,0,0,0,0,0,0,-1,1182,715,0,0
-35,309,0,0,0,0,0,0,0,0,0,-1,1189,715,0,0
-28,309,0,0,0,0,0,0,0,0,0,-1,1196,715,0,0
-21,309,0,0,0,0,0,0,0,0,0,-1,1203,715,0,0
-14,309,0,0,0,0,0,0,0,0,0,-1,1210,715,0,0
-7,309,0,0,0,0,0,0,0,0,0,-1,1217,715,0,0
0,309,0,0,0,0,0,0,0,0,0,-1,1224,715,0,0
7,309,0,0,0,0,0,0,0,0,0,-1,1231,715,0,0
14,309,0,0,0,0,0,0,0,0,0,-1,1238,715,0,0
21,309,0,0,0,0,0,0,0,0,0,-1,1245,715,0,0
28,309,0,0,0,0,0,0,0,0,0,-1,1252,715,0,0
35,309,0,0,0,0,0,0,0,0,0,-1,1259,715,0,0
42,309,0,0,0,0,0,0,0,0,0,-1,1266,715,0,0
49,309,0,0,0,0,0,0,0,0,0,-1,1273,715,0,0
56,309,0,0,0,0,0,0,0,0,0,-1,1280,715,0,0
63,309,0,0,0,0,0,0,0,0,0,-1,1287,715,0,0
70,309,0,0,0,0,0,0,0,0,0,-1,1294,715,0,0
77,309,0,0,0,0,0,0,0,0,0,-1,1301,715,0,0
84,309,0,0,0,0,0,0,0,0,0,-1,1308,715,0,0
91,309,0,0,0,0,0,0,0,0,0,-1,1315,715,0,0
98,309,0,0,0,0,0,0,0,0,0,-1,1322,715,0,0
105,309,0,0,0,0,0,0,0,0,0,-1,1329,715,0,0
112,309,0,0,0,0,0,0,0,0,0,-1,1336,715,0,0
119,309,0,0,0,0,0,0,0,0,0,-1,1343,715,0,0
126,309,0,0,0,0,0,0,0,0,0,-1,1350,715,0,0
133,309,0,0,0,0,0,0,0,0,0,-1,1357,715,0,0
140,309,0,0,0,0,0,0,0,0,0,-1,1364,715,0,0
147,309,0,0,0,0,0,0,0,0,0,-1,1371,715,0,0
154,309,0,0,0,0,0,0,0,0,0,-1,1378,715,0,0
161,309,0,0,0,0,0,0,0,0,0,-1,1385,715,0,0
168,309,0,0,0,0,0,0,0,0,0,-1,1392,715,0,0
175,309,0,0,0,0,0,0,0,0,0,-1,1399,715,0,0
182,309,0,0,0,0,0,0,0,0,0,-1,1406,715,0,0
189,309,0,0,0,0,0,0,0,0,0,-1,1413,715,0,0
196,309,0,0,0,0,0,0,0,0,0,-1,1420,715,0,0
203,309,0,0,0,0,0,0,0,0,0,-1,1427,715,0,0
210,309,0,0,0,0,0,0,0,0,0,-1,1434,715,0,0
217,309,0,0,0,0,0,0,0,0,0,-1,1441,715,0,0
224,309,0,0,0,0,0,0,0,0,0,-1,1448,715,0,0
231,309,0,0,0,0,0,0,0,0,0,-1,1455,715,0,0
238,309,0,0,0,0,0,0,0,0,0,-1,1462,715,0,0
245,309,0,0,0,0,0,0,0,0,0,-1,1469,715,0,0
252,309,0,0,0,0,0,0,0,0,0,-1,1476,715,0,0
259,309,0,0,0,0,0,0,0,0,0,-1,1483,715,0,0
266,309,0,0,0,0,0,0,0,0,0,-1,1490,715,0,0
273,309,0,0,0,0,0,0,0,0,0,-1,1497,715,0,0
280,309,0,0,0,0,0,0,0,0,0,-1,1504,715,0,0
287,309,0,0,0,0,0,0,0,0,0,-1,1511,715,0,0
294,309,0,0,0,0,0,0,0,0,0,-1,1518,715,0,0
301,309,0,0,0,0,0,0,0,0,0,-1,1525,715,0,0
308,309,0,0,0,0,0,0,0,0,0,-1,1532,715,0,0
315,309,0,0,0,0,0,0,0,0,0,-1,1539,715,0,0
322,309,0,0,0,0,0,0,0,0,0,-1,1546,715,0,0
329,309,0,0,0,0,0,0,0,0,0,-1,1553,715,0,0
336,309,0,0,0,0,0,0,0,0,0,-1,1560,715,0,0
343,309,0,0,0,0,0,0,0,0,0,-1,1567,715,0,0
350,309,0,0,0,0,0,0,0,0,0,-1,1574,715,0,0
357,309,0,0,0,0,0,0,0,0,0,-1,1581,715,0,0
364,309,0,0,0,0,0,0,0,0,0,-1,1588,715,0,0
371,309,0,0,0,0,0,0,0,0,0,-1,1595,715,0,0
378,309,0,0,0,0,0,0,0,0,0,-1,1602,715,0,0
385,309,0,0,0,0,0,0,0,0,0,-1,1609,715,0,0
392,309,0,0,0,0,0,0,0,0,0,-1,1616,715,0,0
399,309,0,0,0,0,0,0,0,0,0,-1,1623,715,0,0
406,309,0,0,0,0,0,0,0,0,0,-1,1630,715,0,0
413,309,0,0,0,0,0,0,0,0,0,-1,1637,715,0,0
420,309,0,0,0,0,0,0,0,0,0,-1,1644,715,0,0
427,309,0,0,0,0,0,0,0,0,0,-1,1651,715,0,0
434,309,0,0,0,0,0,0,0,0,0,-1,1658,715,0,0
441,309,0,0,0,0,0,0,0,0,0,-1,1665,715,0,0
448,309,0,0,0,0,0,0,0,0,0,-1,1672,715,0,0
455,309,0,0,0,0,0,0,0,0,0,-1,1679,715,0,0
462,309,0,0,0,0,0,0,0,0,0,-1,1686,715,0,0
469,309,0,0,0,0,0,0,0,0,0,-1,1693,715,0,0
476,309,0,0,0,0,0,0,0,0,0,-1,1700,715,0,0
483,309,0,0,0,0,0,0,0,0,0,-1,1707,715,0,0
490,309,0,0,0,0,0,0,0,0,0,-1,1714,715,0,0
497,309,0,0,0,0,0,0,0,0,0,-1,1721,715,0,0
504,309,0,0,0,0,0,0,0,0,0,-1,1728,715,0,0
511,309,0,0,0,0,0,0,0,0,0,-1,1735,715,0,0
518,309,0,0,0,0,0,0,0,0,0,-1,1742,715,0,0
525,309,0,0,0,0,0,0,0,0,0,-1,1749,715,0,0
532,309,0,0,0,0,0,0,0,0,0,-1,1756,715,0,0
539,309,44.2073,2.66235,0,0,0,0,0,0,0,-1,1763,715,44.2073,-2.66238
546,309,44.4976,3.25531,0,0,0,0,0,0,0,-1,1770,715,44.4976,-3.25533
553,309,47.9611,4.06433,0,0,0,0,0,0,0,-1,1777,715,47.9611,-4.06434
560,309,47.9784,4.64801,0,0,0,0,0,0,0,-1,1784,715,47.9784,-4.64799
567,309,47.0073,5.43121,-0.0972412,0.0729527,0.0633857,0.0939653,-0.118254,1.25069,0.122792,0.0472757,1791,715,47.0073,-5.43121
574,309,45.8746,6.53271,-0.0744228,0.060314,0.052848,0.0785693,-0.092678,1.2382,0.0989815,0.0457534,1798,715,45.8747,-6.53269
581,309,45.0629,7.73468,0,0,0,0,0,0,0,-1,1805,715,45.0629,-7.73471
588,309,26.2064,7.76422,0,0,0,0,0,0,0,-1,1812,715,26.2064,-7.7642
595,309,19.585,3.71558,0,0,0,0,0,0,0,-1,1819,715,19.5849,-3.71555
602,309,11.0811,3.47772,0,0,0,0,0,0,0,-1,1826,715,11.0811,-3.47772
609,309,28.3972,-5.76404,0,0,0,0,0,0,0,-1,1833,715,28.3972,5.76407
616,309,28.4778,-5.09528,-0.00155821,0.00905548,0.0105698,0.0155759,-0.00807862,1.01805,0.0138837,0.0263279,1840,715,28.4778,5.09527
623,309,28.5082,-4.46631,0.00335541,0.00451864,0.00580551,0.0097716,-0.00189755,0.835323,0.00723039,0.0114694,1847,715,28.5082,4.46633
630,309,28.4518,-3.90515,0.00498437,0.00127909,0.00257196,0.00630147,-3.80098e-05,0.473281,0.00421371,0.0110766,1854,715,28.4518,3.90516
637,309,28.4119,-3.29657,0.00303073,0.000149273,0.00131084,0.00353782,-0.00035782,0.369115,0.00248642,0.0134977,1861,715,28.4119,3.29657
644,309,28.3861,-2.6709,0.00113101,-0.000341749,0.000521388,0.00129691,-0.000507645,0.308052,0.00107456,0.0153016,1868,715,28.3861,2.67092
651,309,28.3804,-2.04987,-0.000670609,-6.74806e-05,-7.76914e-05,-5.76336e-05,-0.000680456,-1.44472,0.000435698,0.0145622,1875,715,28.3803,2.04987
658,309,28.3405,-1.43701,-0.00218979,0.000259988,-0.000536041,0.000372145,-0.00230195,-1.36454,0.00167254,0.019751,1882,715,28.3404,1.43704
665,309,28.3536,-0.8396,-0.00369156,0.000706051,-0.000896377,0.000881743,-0.00386725,-1.37725,0.00291685,0.0182924,1889,715,28.3536,0.839596
672,309,28.333,-0.236694,-0.00543839,0.0012712,-0.00129634,0.00151295,-0.00568014,-1.38643,0.00437908,0.0149667,1896,715,28.333,0.236683
679,309,28.3234,0.411011,-0.00753404,0.00200372,-0.00174787,0.00231394,-0.00784426,-1.39514,0.00614773,0.0196514,1903,715,28.3234,-0.411019
686,309,28.1323,1.13666,-0.0100364,0.00286547,-0.00223187,0.00324065,-0.0104116,-1.40425,0.00823657,0.0354618,1910,715,28.1323,-1.13668
693,309,27.6334,1.78619,0,0,0,0,0,0,0,-1,1917,715,27.6334,-1.78618
700,309,23.0179,3.08337,0,0,0,0,0,0,0,-1,1924,715,23.018,-3.08336
707,309,15.6318,4.58655,0,0,0,0,0,0,0,-1,1931,715,15.6318,-4.58657
714,309,16.7573,6.68286,0,0,0,0,0,0,0,-1,1938,715,16.7574,-6.68284
721,309,16.8337,5.4458,0,0,0,0,0,0,0,-1,1945,715,16.8338,-5.44582
728,309,0,0,0,0,0,0,0,0,0,-1,1952,715,0,0
735,309,0,0,0,0,0,0,0,0,0,-1,1959,715,0,0
742,309,0,0,0,0,0,0,0,0,0,-1,1966,715,0,0
749,309,0,0,0,0,0,0,0,0,0,-1,1973,715,0,0
756,309,0,0,0,0,0,0,0,0,0,-1,1980,715,0,0
763,309,0,0,0,0,0,0,0,0,0,-1,1987,715,0,0
770,309,0,0,0,0,0,0,0,0,0,-1,1994,715,0,0
777,309,0,0,0,0,0,0,0,0,0,-1,2001,715,0,0
784,309,0,0,0,0,0,0,0,0,0,-1,2008,715,0,0
791,309,0,0,0,0,0,0,0,0,0,-1,2015,715,0,0
798,309,0,0,0,0,0,0,0,0,0,-1,2022,715,0,0
805,309,0,0,0,0,0,0,0,0,0,-1,2029,715,0,0
812,309,0,0,0,0,0,0,0,0,0,-1,2036,715,0,0
-700,302,0,0,0,0,0,0,0,0,0,-1,524,722,0,0
-693,302,0,0,0,0,0,0,0,0,0,-1,531,722,0,0
-686,302,0,0,0,0,0,0,0,0,0,-1,538,722,0,0
-679,302,0,0,0,0,0,0,0,0,0,-1,545,722,0,0
-672,302,0,0,0,0,0,0,0,0,0,-1,552,722,0,0
-665,302,0,0,0,0,0,0,0,0,0,-1,559,722,0,0
-658,302,0,0,0,0,0,0,0,0,0,-1,566,722,0,0
-651,302,0,0,0,0,0,0,0,0,0,-1,573,722,0,0
-644,302,0,0,0,0,0,0,0,0,0,-1,580,722,0,0
-637,302,0,0,0,0,0,0,0,0,0,-1,587,722,0,0
-630,302,0,0,0,0,0,0,0,0,0,-1,594,722,0,0
-623,302,0,0,0,0,0,0,0,0,0,-1,601,722,0,0
-616,302,0,0,0,0,0,0,0,0,0,-1,608,722,0,0
-609,302,-7.79266,-3.71649,0,0,0,0,0,0,0,-1,615,722,-7.79267,3.7165
-602,302,0.92865,-1.99158,0,0,0,0,0,0,0,-1,622,722,0.928637,1.99157
-595,302,-7.89941,2.13641,0,0,0,0,0,0,0,-1,629,722,-7.89939,-2.13639
-588,302,-7.10895,1.79163,0,0,0,0,0,0,0,-1,636,722,-7.10896,-1.79163
-581,302,-9.17566,1.09448,0,0,0,0,0,0,0,-1,643,722,-9.17569,-1.09445
-574,302,-11.5183,-0.344543,0,0,0,0,0,0,0,-1,650,722,-11.5183,0.344557
-567,302,-12.1534,-0.672241,0,0,0,0,0,0,0,-1,657,722,-12.1535,0.672246
-560,302,-18.315,-0.896484,0,0,0,0,0,0,0,-1,664,722,-18.315,0.896459
-553,302,-18.2336,-1.5036,0.000589944,0.00559538,-0.000212321,0.00560437,0.000580954,-1.52848,0.00355844,0.0247292,671,722,-18.2336,1.5036
-546,302,-18.2352,-2.14319,0.000475019,0.00399507,-0.000371656,0.00403388,0.000436207,-1.46674,0.00255629,0.0158417,678,722,-18.2352,2.14319
-539,302,-18.2493,-2.67712,0.000460031,0.00275236,-0.000335097,0.00280034,0.00041205,-1.42858,0.00174583,0.015281,685,722,-18.2493,2.67714
-532,302,-18.2624,-3.25238,0.000275493,0.00155969,-0.000230957,0.00159996,0.00023522,-1.39816,0.000997521,0.0149577,692,722,-18.2624,3.25239
-525,302,-18.2705,-3.8999,0.000383827,0.000580408,8.21824e-06,0.000580751,0.000383484,1.52909,0.000340994,0.019723,699,722,-18.2705,3.89987
-518,302,-18.3043,-4.43463,0.000909927,-0.000438768,0.000243373,0.000952501,-0.000481341,0.173177,0.000842595,0.0213358,706,722,-18.3043,4.43462
-511,302,-18.3132,-4.98163,0.00177004,-0.00164204,0.000558232,0.00185904,-0.00173105,0.158115,0.00207318,0.0110862,713,722,-18.3133,4.98161
-504,302,-18.306,-5.5863,0.00288681,-0.00295646,0.00100572,0.00305507,-0.00312472,0.165764,0.00356798,0.00998477,720,722,-18.306,5.58632
-497,302,-18.3647,-6.12396,0.00449547,-0.00459055,0.00148233,0.00473119,-0.00482627,0.157699,0.00551809,0.0153809,727,722,-18.3648,6.12394
-490,302,-18.205,-6.63293,0,0,0,0,0,0,0,-1,734,722,-18.205,6.63297
-483,302,-9.53412,-3.1673,0,0,0,0,0,0,0,-1,741,722,-9.53411,3.1673
-476,302,-4.29749,-0.203491,0,0,0,0,0,0,0,-1,748,722,-4.29751,0.203464
-469,302,-12.369,1.42859,0,0,0,0,0,0,0,-1,755,722,-12.3689,-1.42857
-462,302,-17.4766,0.310791,0,0,0,0,0,0,0,-1,762,722,-17.4766,-0.310788
-455,302,-36.7368,-2.97418,0,0,0,0,0,0,0,-1,769,722,-36.7368,2.97416
-448,302,-37.3755,-1.21204,0,0,0,0,0,0,0,-1,776,722,-37.3755,1.21201
-441,302,-38.1774,-1.19635,0,0,0,0,0,0,0,-1,783,722,-38.1774,1.19636
-434,302,-38.5441,-0.682678,0,0,0,0,0,0,0,-1,790,722,-38.5441,0.682664
-427,302,-27.1735,1.81506,0,0,0,0,0,0,0,-1,797,722,-27.1735,-1.81504
-420,302,0,0,0,0,0,0,0,0,0,-1,804,722,0,0
-413,302,0,0,0,0,0,0,0,0,0,-1,811,722,0,0
-406,302,0,0,0,0,0,0,0,0,0,-1,818,722,0,0
-399,302,0,0,0,0,0,0,0,0,0,-1,825,722,0,0
-392,302,0,0,0,0,0,0,0,0,0,-1,832,722,0,0
-385,302,0,0,0,0,0,0,0,0,0,-1,839,722,0,0
-378,302,0,0,0,0,0,0,0,0,0,-1,846,722,0,0
-371,302,0,0,0,0,0,0,0,0,0,-1,853,722,0,0
-364,302,0,0,0,0,0,0,0,0,0,-1,860,722,0,0
-357,302,0,0,0,0,0,0,0,0,0,-1,867,722,0,0
-350,302,0,0,0,0,0,0,0,0,0,-1,874,722,0,0
-343,302,0,0,0,0,0,0,0,0,0,-1,881,722,0,0
-336,302,0,0,0,0,0,0,0,0,0,-1,888,722,0,0
-329,302,0,0,0,0,0,0,0,0,0,-1,895,722,0,0
-322,302,0,0,0,0,0,0,0,0,0,-1,902,722,0,0
-315,302,0,0,0,0,0,0,0,0,0,-1,909,722,0,0
-308,302,0,0,0,0,0,0,0,0,0,-1,916,722,0,0
-301,302,0,0,0,0,0,0,0,0,0,-1,923,722,0,0
-294,302,0,0,0,0,0,0,0,0,0,-1,930,722,0,0
-287,302,0,0,0,0,0,0,0,0,0,-1,937,722,0,0
-280,302,0,0,0,0,0,0,0,0,0,-1,944,722,0,0
-273,302,0,0,0,0,0,0,0,0,0,-1,951,722,0,0
-266,302,0,0,0,0,0,0,0,0,0,-1,958,722,0,0
-259,302,0,0,0,0,0,0,0,0,0,-1,965,722,0,0
-252,302,0,0,0,0,0,0,0,0,0,-1,972,722,0,0
-245,302,0,0,0,0,0,0,0,0,0,-1,979,722,0,0
-238,302,0,0,0,0,0,0,0,0,0,-1,986,722,0,0
-231,302,0,0,0,0,0,0,0,0,0,-1,993,722,0,0
-224,302,0,0,0,0,0,0,0,0,0,-1,1000,722,0,0
-217,302,0,0,0,0,0,0,0,0,0,-1,1007,722,0,0
-210,302,0,0,0,0,0,0,0,0,0,-1,1014,722,0,0
-203,302,0,0,0,0,0,0,0,0,0,-1,1021,722,0,0
-196,302,0,0,0,0,0,0,0,0,0,-1,1028,722,0,0
-189,302,0,0,0,0,0,0,0,0,0,-1,1035,722,0,0
-182,302,0,0,0,0,0,0,0,0,0,-1,1042,722,0,0
-175,302,0,0,0,0,0,0,0,0,0,-1,1049,722,0,0
-168,302,0,0,0,0,0,0,0,0,0,-1,1056,722,0,0
-161,302,0,0,0,0,0,0,0,0,0,-1,1063,722,0,0
-154,302,0,0,0,0,0,0,0,0,0,-1,1070,722,0,0
-147,302,0,0,0,0,0,0,0,0,0,-1,1077,722,0,0
-140,302,0,0,0,0,0,0,0,0,0,-1,1084,722,0,0
-133,302,0,0,0,0,0,0,0,0,0,-1,1091,722,0,0
-126,302,0,0,0,0,0,0,0,0,0,-1,1098,722,0,0
-119,302,0,0,0,0,0,0,0,0,0,-1,1105,722,0,0
-112,302,0,0,0,0,0,0,0,0,0,-1,1112,722,0,0
-105,302,0,0,0,0,0,0,0,0,0,-1,1119,722,0,0
-98,302,0,0,0,0,0,0,0,0,0,-1,1126,722,0,0
-91,302,0,0,0,0,0,0,0,0,0,-1,1133,722,0,0
-84,302,0,0,0,0,0,0,0,0,0,-1,1140,722,0,0
-77,302,0,0,0,0,0,0,0,0,0,-1,1147,722,0,0
-70,302,0,0,0,0,0,0,0,0,0,-1,1154,722,0,0
-63,302,0,0,0,0,0,0,0,0,0,-1,1161,722,0,0
-56,302,0,0,0,0,0,0,0,0,0,-1,1168,722,0,0
-49,302,0,0,0,0,0,0,0,0,0,-1,1175,722,0,0
-42,302,0,0,0,0,0,0,0,0,0,-1,1182,722,0,0
-35,302,0,0,0,0,0,0,0,0,0,-1,1189,722,0,0
-28,302,0,0,0,0,0,0,0,0,0,-1,1196,722,0,0
-21,302,0,0,0,0,0,0,0,0,0,-1,1203,722,0,0
-14,302,0,0,0,0,0,0,0,0,0,-1,1210,722,0,0
-7,302,0,0,0,0,0,0,0,0,0,-1,1217,722,0,0
0,302,0,0,0,0,0,0,0,0,0,-1,1224,722,0,0
7,302,0,0,0,0,0,0,0,0,0,-1,1231,722,0,0
14,302,0,0,0,0,0,0,0,0,0,-1,1238,722,0,0
21,302,0,0,0,0,0,0,0,0,0,-1,1245,722,0,0
28,302,0,0,0,0,0,0,0,0,0,-1,1252,722,0,0
35,302,0,0,0,0,0,0,0,0,0,-1,1259,722,0,0
42,302,0,0,0,0,0,0,0,0,0,-1,1266,722,0,0
49,302,0,0,0,0,0,0,0,0,0,-1,1273,722,0,0
56,302,0,0,0,0,0,0,0,0,0,-1,1280,722,0,0
63,302,0,0,0,0,0,0,0,0,0,-1,1287,722,0,0
70,302,0,0,0,0,0,0,0,0,0,-1,1294,722,0,0
77,302,0,0,0,0,0,0,0,0,0,-1,1301,722,0,0
84,302,0,0,0,0,0,0,0,0,0,-1,1308,722,0,0
91,302,0,0,0,0,0,0,0,0,0,-1,1315,722,0,0
98,302,0,0,0,0,0,0,0,0,0,-1,1322,722,0,0
105,302,0,0,0,0,0,0,0,0,0,-1,1329,722,0,0
112,302,0,0,0,0,0,0,0,0,0,-1,1336,722,0,0
119,302,0,0,0,0,0,0,0,0,0,-1,1343,722,0,0
126,302,0,0,0,0,0,0,0,0,0,-1,1350,722,0,0
133,302,0,0,0,0,0,0,0,0,0,-1,1357,722,0,0
140,302,0,0,0,0,0,0,0,0,0,-1,1364,722,0,0
147,302,0,0,0,0,0,0,0,0,0,-1,1371,722,0,0
154,302,0,0,0,0,0,0,0,0,0,-1,1378,722,0,0
161,302,0,0,0,0,0,0,0,0,0,-1,1385,722,0,0
168,302,0,0,0,0,0,0,0,0,0,-1,1392,722,0,0
175,302,0,0,0,0,0,0,0,0,0,-1,1399,722,0,0
182,302,0,0,0,0,0,0,0,0,0,-1,1406,722,0,0
189,302,0,0,0,0,0,0,0,0,0,-1,1413,722,0,0
196,302,0,0,0,0,0,0,0,0,0,-1,1420,722,0,0
203,302,0,0,0,0,0,0,0,0,0,-1,1427,722,0,0
210,302,0,0,0,0,0,0,0,0,0,-1,1434,722,0,0
217,302,0,0,0,0,0,0,0,0,0,-1,1441,722,0,0
224,302,0,0,0,0,0,0,0,0,0,-1,1448,722,0,0
231,302,0,0,0,0,0,0,0,0,0,-1,1455,722,0,0
238,302,0,0,0,0,0,0,0,0,0,-1,1462,722,0,0
245,302,0,0,0,0,0,0,0,0,0,-1,1469,722,0,0
252,302,0,0,0,0,0,0,0,0,0,-1,1476,722,0,0
259,302,0,0,0,0,0,0,0,0,0,-1,1483,722,0,0
266,302,0,0,0,0,0,0,0,0,0,-1,1490,722,0,0
273,302,0,0,0,0,0,0,0,0,0,-1,1497,722,0,0
280,302,0,0,0,0,0,0,0,0,0,-1,1504,722,0,0
287,302,0,0,0,0,0,0,0,0,0,-1,1511,722,0,0
294,302,0,0,0,0,0,0,0,0,0,-1,1518,722,0,0
301,302,0,0,0,0,0,0,0,0,0,-1,1525,722,0,0
308,302,0,0,0,0,0,0,0,0,0,-1,1532,722,0,0
315,302,0,0,0,0,0,0,0,0,0,-1,1539,722,0,0
322,302,0,0,0,0,0,0,0,0,0,-1,1546,722,0,0
329,302,0,0,0,0,0,0,0,0,0,-1,1553,722,0,0
336,302,0,0,0,0,0,0,0,0,0,-1,1560,722,0,0
343,302,0,0,0,0,0,0,0,0,0,-1,1567,722,0,0
350,302,0,0,0,0,0,0,0,0,0,-1,1574,722,0,0
357,302,0,0,0,0,0,0,0,0,0,-1,1581,722,0,0
364,302,0,0,0,0,0,0,0,0,0,-1,1588,722,0,0
371,302,0,0,0,0,0,0,0,0,0,-1,1595,722,0,0
378,302,0,0,0,0,0,0,0,0,0,-1,1602,722,0,0
385,302,0,0,0,0,0,0,0,0,0,-1,1609,722,0,0
392,302,0,0,0,0,0,0,0,0,0,-1,1616,722,0,0
399,302,0,0,0,0,0,0,0,0,0,-1,1623,722,0,0
406,302,0,0,0,0,0,0,0,0,0,-1,1630,722,0,0
413,302,0,0,0,0,0,0,0,0,0,-1,1637,722,0,0
420,302,0,0,0,0,0,0,0,0,0,-1,1644,722,0,0
427,302,0,0,0,0,0,0,0,0,0,-1,1651,722,0,0
434,302,0,0,0,0,0,0,0,0,0,-1,1658,722,0,0
441,302,0,0,0,0,0,0,0,0,0,-1,1665,722,0,0
448,302,0,0,0,0,0,0,0,0,0,-1,1672,722,0,0
455,302,0,0,0,0,0,0,0,0,0,-1,1679,722,0,0
462,302,0,0,0,0,0,0,0,0,0,-1,1686,722,0,0
469,302,0,0,0,0,0,0,0,0,0,-1,1693,722,0,0
476,302,0,0,0,0,0,0,0,0,0,-1,1700,722,0,0
483,302,0,0,0,0,0,0,0,0,0,-1,1707,722,0,0
490,302,0,0,0,0,0,0,0,0,0,-1,1714,722,0,0
497,302,0,0,0,0,0,0,0,0,0,-1,1721,722,0,0
504,302,0,0,0,0,0,0,0,0,0,-1,1728,722,0,0
511,302,0,0,0,0,0,0,0,0,0,-1,1735,722,0,0
518,302,0,0,0,0,0,0,0,0,0,-1,1742,722,0,0
525,302,0,0,0,0,0,0,0,0,0,-1,1749,722,0,0
532,302,0,0,0,0,0,0,0,0,0,-1,1756,722,0,0
539,302,0,0,0,0,0,0,0,0,0,-1,1763,722,0,0
546,302,48.9873,1.50562,0,0,0,0,0,0,0,-1,1770,722,48.9873,-1.50562
553,302,48.5511,2.79346,-0.126991,0.0937889,0.076912,0.11794,-0.151143,1.26653,0.155749,0.0452132,1777,722,48.5512,-2.79343
560,302,47.9004,3.90967,-0.109781,0.0835677,0.0708365,0.106742,-0.132956,1.25462,0.138665,0.0460044,1784,722,47.9004,-3.90967
567,302,46.8901,4.84912,-0.088718,0.0714155,0.0615179,0.0923197,-0.109622,1.24323,0.116734,0.0460001,1791,722,46.8901,-4.84912
574,302,45.9537,6.00867,-0.0684802,0.0595319,0.0518643,0.0779072,-0.0868555,1.2303,0.0951725,0.0475628,1798,722,45.9537,-6.00864
581,302,45.137,7.38043,0,0,0,0,0,0,0,-1,1805,722,45.1369,-7.38044
588,302,26.9731,7.19983,0,0,0,0,0,0,0,-1,1812,722,26.9732,-7.19981
595,302,27.3826,8.13104,0,0,0,0,0,0,0,-1,1819,722,27.3825,-8.13102
602,302,14.7349,5.21246,0,0,0,0,0,0,0,-1,1826,722,14.7349,-5.21247
609,302,28.6851,-5.53937,0,0,0,0,0,0,0,-1,1833,722,28.685,5.53938
616,302,29.0696,-5.10138,0,0,0,0,0,0,0,-1,1840,722,29.0696,5.10136
623,302,29.1154,-4.43872,0.0052251,0.00510291,0.007177,0.0123413,-0.00201325,0.781142,0.00897419,0.0156472,1847,722,29.1153,4.4387
630,302,29.0441,-3.86127,0.006582,0.0016863,0.00380497,0.0086585,-0.000390202,0.499562,0.0059067,0.01181,1854,722,29.044,3.86125
637,302,28.995,-3.26276,0.00434596,0.000177272,0.00218911,0.00528431,-0.000761078,0.404954,0.00380204,0.0141239,1861,722,28.995,3.26277
644,302,28.9897,-2.65149,0.0020531,-0.000543204,0.00109168,0.00245111,-0.000941212,0.349607,0.00202219,0.0160293,1868,722,28.9897,2.65149
651,302,28.9866,-2.03192,-2.30018e-05,-0.000172525,0.00025633,0.000169247,-0.000364774,0.643503,0.00031513,0.0157935,1875,722,28.9866,2.03194
658,302,28.98,-1.4422,-0.00150794,0.000245365,-0.000314305,0.000300005,-0.00156258,-1.39867,0.00115479,0.0154633,1882,722,28.98,1.44218
665,302,28.9557,-0.84259,-0.00273136,0.000842918,-0.000539183,0.000922483,-0.00281092,-1.42429,0.00224552,0.0150206,1889,722,28.9556,0.842611
672,302,28.9244,-0.246277,-0.00399913,0.00156834,-0.000726908,0.00166168,-0.00409247,-1.44308,0.00341955,0.0119561,1896,722,28.9245,0.246262
679,302,28.9048,0.370483,-0.00513289,0.00262895,-0.000692013,0.00269016,-0.00519411,-1.48257,0.00462787,0.00901543,1903,722,28.9048,-0.370469
686,302,28.913,1.00818,-0.00641144,0.00383226,-0.00061754,0.00386935,-0.00644854,-1.5108,0.00601875,0.019264,1910,722,28.913,-1.00819
693,302,28.8829,1.6474,0,0,0,0,0,0,0,-1,1917,722,28.883,-1.64743
700,302,25.4069,1.97308,0,0,0,0,0,0,0,-1,1924,722,25.4068,-1.97311
707,302,16.7321,4.76685,0,0,0,0,0,0,0,-1,1931,722,16.7321,-4.76687
714,302,17.2,5.77594,0,0,0,0,0,0,0,-1,1938,722,17.2,-5.77595
721,302,17.7914,6.60394,0,0,0,0,0,0,0,-1,1945,722,17.7914,-6.60395
728,302,17.2798,4.81702,0,0,0,0,0,0,0,-1,1952,722,17.2798,-4.81703
735,302,0,0,0,0,0,0,0,0,0,-1,1959,722,0,0
742,302,0,0,0,0,0,0,0,0,0,-1,1966,722,0,0
749,302,0,0,0,0,0,0,0,0,0,-1,1973,722,0,0
756,302,0,0,0,0,0,0,0,0,0,-1,1980,722,0,0
763,302,0,0,0,0,0,0,0,0,0,-1,1987,722,0,0
770,302,0,0,0,0,0,0,0,0,0,-1,1994,722,0,0
777,302,0,0,0,0,0,0,0,0,0,-1,2001,722,0,0
784,302,0,0,0,0,0,0,0,0,0,-1,2008,722,0,0
791,302,0,0,0,0,0,0,0,0,0,-1,2015,722,0,0
798,302,0,0,0,0,0,0,0,0,0,-1,2022,722,0,0
805,302,0,0,0,0,0,0,0,0,0,-1,2029,722,0,0
812,302,0,0,0,0,0,0,0,0,0,-1,2036,722,0,0
-700,295,0,0,0,0,0,0,0,0,0,-1,524,729,0,0
-693,295,0,0,0,0,0,0,0,0,0,-1,531,729,0,0
-686,295,0,0,0,0,0,0,0,0,0,-1,538,729,0,0
-679,295,0,0,0,0,0,0,0,0,0,-1,545,729,0,0
-672,295,0,0,0,0,0,0,0,0,0,-1,552,729,0,0
-665,295,0,0,0,0,0,0,0,0,0,-1,559,729,0,0
-658,295,0,0,0,0,0,0,0,0,0,-1,566,729,0,0
-651,295,0,0,0,0,0,0,0,0,0,-1,573,729,0,0
-644,295,0,0,0,0,0,0,0,0,0,-1,580,729,0,0
-637,295,0,0,0,0,0,0,0,0,0,-1,587,729,0,0
-630,295,0,0,0,0,0,0,0,0,0,-1,594,729,0,0
-623,295,0,0,0,0,0,0,0,0,0,-1,601,729,0,0
-616,295,-13.4911,1.31738,0,0,0,0,0,0,0,-1,608,729,-13.4911,-1.3174
-609,295,-10.2864,0.832031,0,0,0,0,0,0,0,-1,615,729,-10.2863,-0.832034
-602,295,-8.19006,3.01587,0,0,0,0,0,0,0,-1,622,729,-8.19005,-3.01588
-595,295,-0.615479,-1.95447,0,0,0,0,0,0,0,-1,629,729,-0.615481,1.95445
-588,295,-7.98999,1.56903,0,0,0,0,0,0,0,-1,636,729,-7.98997,-1.56905
-581,295,-12.0404,0.150574,0,0,0,0,0,0,0,-1,643,729,-12.0404,-0.150604
-574,295,-12.1605,-0.0739746,0,0,0,0,0,0,0,-1,650,729,-12.1605,0.0739856
-567,295,-18.3434,-0.42218,0,0,0,0,0,0,0,-1,657,729,-18.3434,0.422155
-560,295,-18.7217,-0.982727,0.000620049,0.0056697,0.00117135,0.00592818,0.000361565,1.35361,0.00383728,0.0341569,664,729,-18.7217,0.982727
-553,295,-18.7604,-1.56812,0.000358475,0.00413739,0.000604436,0.00423171,0.00026415,1.41599,0.00273734,0.0184539,671,729,-18.7605,1.56813
-546,295,-18.8315,-2.12823,0.000194991,0.0027846,0.000353788,0.00283207,0.000147527,1.43743,0.00184084,0.0205575,678,729,-18.8315,2.12824
-539,295,-18.8475,-2.64795,0.000150955,0.00169628,0.00028711,0.00174789,9.93364e-05,1.39291,0.0011336,0.0191254,685,729,-18.8475,2.64797
-532,295,-18.8593,-3.20844,-6.85563e-05,0.000637511,0.000313191,0.000756411,-0.000187456,1.20796,0.000577001,0.0163302,692,729,-18.8593,3.20842
-525,295,-18.8519,-3.8136,9.67059e-05,-0.000296857,0.0003971,0.000343107,-0.000543259,0.555359,0.000516074,0.0144028,699,729,-18.8519,3.81359
-518,295,-18.8685,-4.38074,0.000799604,-0.00140725,0.000418327,0.00087624,-0.00148388,0.181187,0.00137759,0.0102958,706,729,-18.8685,4.38076
-511,295,-18.8775,-4.94702,0.00190636,-0.00280101,0.000533223,0.001966,-0.00286066,0.111394,0.00280259,0.00867874,713,729,-18.8775,4.94703
-504,295,-18.8966,-5.53009,0.00327388,-0.00432748,0.000759521,0.00334902,-0.00440262,0.0986201,0.00448917,0.0107959,720,729,-18.8966,5.53009
-497,295,-18.9702,-6.03003,0.0051683,-0.0062441,0.000903589,0.0052394,-0.0063152,0.0785241,0.00668068,0.0222653,727,729,-18.9702,6.03001
-490,295,-19.0489,-6.49408,0,0,0,0,0,0,0,-1,734,729,-19.0489,6.49407
-483,295,-6.84503,-0.454651,0,0,0,0,0,0,0,-1,741,729,-6.84505,0.454639
-476,295,-13.1738,-0.836243,0,0,0,0,0,0,0,-1,748,729,-13.1738,0.836223
-469,295,-26.5608,-0.466187,0,0,0,0,0,0,0,-1,755,729,-26.5608,0.466162
-462,295,-29.7701,-0.792664,0,0,0,0,0,0,0,-1,762,729,-29.7701,0.792642
-455,295,-37.14,-1.6676,0,0,0,0,0,0,0,-1,769,729,-37.14,1.66761
-448,295,-37.1309,-1.22095,0,0,0,0,0,0,0,-1,776,729,-37.1308,1.22097
-441,295,-37.28,-1.02405,0,0,0,0,0,0,0,-1,783,729,-37.28,1.02408
-434,295,-37.5234,-0.676086,0,0,0,0,0,0,0,-1,790,729,-37.5234,0.676077
-427,295,0,0,0,0,0,0,0,0,0,-1,797,729,0,0
-420,295,0,0,0,0,0,0,0,0,0,-1,804,729,0,0
-413,295,0,0,0,0,0,0,0,0,0,-1,811,729,0,0
-406,295,0,0,0,0,0,0,0,0,0,-1,818,729,0,0
-399,295,0,0,0,0,0,0,0,0,0,-1,825,729,0,0
-392,295,0,0,0,0,0,0,0,0,0,-1,832,729,0,0
-385,295,0,0,0,0,0,0,0,0,0,-1,839,729,0,0
-378,295,0,0,0,0,0,0,0,0,0,-1,846,729,0,0
-371,295,0,0,0,0,0,0,0,0,0,-1,853,729,0,0
-364,295,0,0,0,0,0,0,0,0,0,-1,860,729,0,0
-357,295,0,0,0,0,0,0,0,0,0,-1,867,729,0,0
-350,295,0,0,0,0,0,0,0,0,0,-1,874,729,0,0
-343,295,0,0,0,0,0,0,0,0,0,-1,881,729,0,0
-336,295,0,0,0,0,0,0,0,0,0,-1,888,729,0,0
-329,295,0,0,0,0,0,0,0,0,0,-1,895,729,0,0
-322,295,0,0,0,0,0,0,0,0,0,-1,902,729,0,0
-315,295,0,0,0,0,0,0,0,0,0,-1,909,729,0,0
-308,295,0,0,0,0,0,0,0,0,0,-1,916,729,0,0
-301,295,0,0,0,0,0,0,0,0,0,-1,923,729,0,0
-294,295,0,0,0,0,0,0,0,0,0,-1,930,729,0,0
-287,295,0,0,0,0,0,0,0,0,0,-1,937,729,0,0
-280,295,0,0,0,0,0,0,0,0,0,-1,944,729,0,0
-273,295,0,0,0,0,0,0,0,0,0,-1,951,729,0,0
-266,295,0,0,0,0,0,0,0,0,0,-1,958,729,0,0
-259,295,0,0,0,0,0,0,0,0,0,-1,965,729,0,0
-252,295,0,0,0,0,0,0,0,0,0,-1,972,729,0,0
-245,295,0,0,0,0,0,0,0,0,0,-1,979,729,0,0
-238,295,0,0,0,0,0,0,0,0,0,-1,986,729,0,0
-231,295,0,0,0,0,0,0,0,0,0,-1,993,729,0,0
-224,295,0,0,0,0,0,0,0,0,0,-1,1000,729,0,0
-217,295,0,0,0,0,0,0,0,0,0,-1,1007,729,0,0
-210,295,0,0,0,0,0,0,0,0,0,-1,1014,729,0,0
-203,295,0,0,0,0,0,0,0,0,0,-1,1021,729,0,0
-196,295,0,0,0,0,0,0,0,0,0,-1,1028,729,0,0
-189,295,0,0,0,0,0,0,0,0,0,-1,1035,729,0,0
-182,295,0,0,0,0,0,0,0,0,0,-1,1042,729,0,0
-175,295,0,0,0,0,0,0,0,0,0,-1,1049,729,0,0
-168,295,0,0,0,0,0,0,0,0,0,-1,1056,729,0,0
-161,295,0,0,0,0,0,0,0,0,0,-1,1063,729,0,0
-154,295,0,0,0,0,0,0,0,0,0,-1,1070,729,0,0
-147,295,0,0,0,0,0,0,0,0,0,-1,1077,729,0,0
-140,295,0,0,0,0,0,0,0,0,0,-1,1084,729,0,0
-133,295,0,0,0,0,0,0,0,0,0,-1,1091,729,0,0
-126,295,0,0,0,0,0,0,0,0,0,-1,1098,729,0,0
-119,295,0,0,0,0,0,0,0,0,0,-1,1105,729,0,0
-112,295,0,0,0,0,0,0,0,0,0,-1,1112,729,0,0
-105,295,0,0,0,0,0,0,0,0,0,-1,1119,729,0,0
-98,295,0,0,0,0,0,0,0,0,0,-1,1126,729,0,0
-91,295,0,0,0,0,0,0,0,0,0,-1,1133,729,0,0
-84,295,0,0,0,0,0,0,0,0,0,-1,1140,729,0,0
-77,295,0,0,0,0,0,0,0,0,0,-1,1147,729,0,0
-70,295,0,0,0,0,0,0,0,0,0,-1,1154,729,0,0
-63,295,0,0,0,0,0,0,0,0,0,-1,1161,729,0,0
-56,295,0,0,0,0,0,0,0,0,0,-1,1168,729,0,0
-49,295,0,0,0,0,0,0,0,0,0,-1,1175,729,0,0
-42,295,0,0,0,0,0,0,0,0,0,-1,1182,729,0,0
-35,295,0,0,0,0,0,0,0,0,0,-1,1189,729,0,0
-28,295,0,0,0,0,0,0,0,0,0,-1,1196,729,0,0
-21,295,0,0,0,0,0,0,0,0,0,-1,1203,729,0,0
-14,295,0,0,0,0,0,0,0,0,0,-1,1210,729,0,0
-7,295,0,0,0,0,0,0,0,0,0,-1,1217,729,0,0
0,295,0,0,0,0,0,0,0,0,0,-1,1224,729,0,0
7,295,0,0,0,0,0,0,0,0,0,-1,1231,729,0,0
14,295,0,0,0,0,0,0,0,0,0,-1,1238,729,0,0
21,295,0,0,0,0,0,0,0,0,0,-1,1245,729,0,0
28,295,0,0,0,0,0,0,0,0,0,-1,1252,729,0,0
35,295,0,0,0,0,0,0,0,0,0,-1,1259,729,0,0
42,295,0,0,0,0,0,0,0,0,0,-1,1266,729,0,0
49,295,0,0,0,0,0,0,0,0,0,-1,1273,729,0,0
56,295,0,0,0,0,0,0,0,0,0,-1,1280,729,0,0
63,295,0,0,0,0,0,0,0,0,0,-1,1287,729,0,0
70,295,0,0,0,0,0,0,0,0,0,-1,1294,729,0,0
77,295,0,0,0,0,0,0,0,0,0,-1,1301,729,0,0
84,295,0,0,0,0,0,0,0,0,0,-1,1308,729,0,0
91,295,0,0,0,0,0,0,0,0,0,-1,1315,729,0,0
98,295,0,0,0,0,0,0,0,0,0,-1,1322,729,0,0
105,295,0,0,0,0,0,0,0,0,0,-1,1329,729,0,0
112,295,0,0,0,0,0,0,0,0,0,-1,1336,729,0,0
119,295,0,0,0,0,0,0,0,0,0,-1,1343,729,0,0
126,295,0,0,0,0,0,0,0,0,0,-1,1350,729,0,0
133,295,0,0,0,0,0,0,0,0,0,-1,1357,729,0,0
140,295,0,0,0,0,0,0,0,0,0,-1,1364,729,0,0
147,295,0,0,0,0,0,0,0,0,0,-1,1371,729,0,0
154,295,0,0,0,0,0,0,0,0,0,-1,1378,729,0,0
161,295,0,0,0,0,0,0,0,0,0,-1,1385,729,0,0
168,295,0,0,0,0,0,0,0,0,0,-1,1392,729,0,0
175,295,0,0,0,0,0,0,0,0,0,-1,1399,729,0,0
182,295,0,0,0,0,0,0,0,0,0,-1,1406,729,0,0
189,295,0,0,0,0,0,0,0,0,0,-1,1413,729,0,0
196,295,0,0,0,0,0,0,0,0,0,-1,1420,729,0,0
203,295,0,0,0,0,0,0,0,0,0,-1,1427,729,0,0
210,295,0,0,0,0,0,0,0,0,0,-1,1434,729,0,0
217,295,0,0,0,0,0,0,0,0,0,-1,1441,729,0,0
224,295,0,0,0,0,0,0,0,0,0,-1,1448,729,0,0
231,295,0,0,0,0,0,0,0,0,0,-1,1455,729,0,0
238,295,0,0,0,0,0,0,0,0,0,-1,1462,729,0,0
245,295,0,0,0,0,0,0,0,0,0,-1,1469,729,0,0
252,295,0,0,0,0,0,0,0,0,0,-1,1476,729,0,0
259,295,0,0,0,0,0,0,0,0,0,-1,1483,729,0,0
266,295,0,0,0,0,0,0,0,0,0,-1,1490,729,0,0
273,295,0,0,0,0,0,0,0,0,0,-1,1497,729,0,0
280,295,0,0,0,0,0,0,0,0,0,-1,1504,729,0,0
287,295,0,0,0,0,0,0,0,0,0,-1,1511,729,0,0
294,295,0,0,0,0,0,0,0,0,0,-1,1518,729,0,0
301,295,0,0,0,0,0,0,0,0,0,-1,1525,729,0,0
308,295,0,0,0,0,0,0,0,0,0,-1,1532,729,0,0
315,295,0,0,0,0,0,0,0,0,0,-1,1539,729,0,0
322,295,0,0,0,0,0,0,0,0,0,-1,1546,729,0,0
329,295,0,0,0,0,0,0,0,0,0,-1,1553,729,0,0
336,295,0,0,0,0,0,0,0,0,0,-1,1560,729,0,0
343,295,0,0,0,0,0,0,0,0,0,-1,1567,729,0,0
350,295,0,0,0,0,0,0,0,0,0,-1,1574,729,0,0
357,295,0,0,0,0,0,0,0,0,0,-1,1581,729,0,0
364,295,0,0,0,0,0,0,0,0,0,-1,1588,729,0,0
371,295,0,0,0,0,0,0,0,0,0,-1,1595,729,0,0
378,295,0,0,0,0,0,0,0,0,0,-1,1602,729,0,0
385,295,0,0,0,0,0,0,0,0,0,-1,1609,729,0,0
392,295,0,0,0,0,0,0,0,0,0,-1,1616,729,0,0
399,295,0,0,0,0,0,0,0,0,0,-1,1623,729,0,0
406,295,0,0,0,0,0,0,0,0,0,-1,1630,729,0,0
413,295,0,0,0,0,0,0,0,0,0,-1,1637,729,0,0
420,295,0,0,0,0,0,0,0,0,0,-1,1644,729,0,0
427,295,0,0,0,0,0,0,0,0,0,-1,1651,729,0,0
434,295,0,0,0,0,0,0,0,0,0,-1,1658,729,0,0
441,295,0,0,0,0,0,0,0,0,0,-1,1665,729,0,0
448,295,0,0,0,0,0,0,0,0,0,-1,1672,729,0,0
455,295,0,0,0,0,0,0,0,0,0,-1,1679,729,0,0
462,295,0,0,0,0,0,0,0,0,0,-1,1686,729,0,0
469,295,0,0,0,0,0,0,0,0,0,-1,1693,729,0,0
476,295,0,0,0,0,0,0,0,0,0,-1,1700,729,0,0
483,295,0,0,0,0,0,0,0,0,0,-1,1707,729,0,0
490,295,0,0,0,0,0,0,0,0,0,-1,1714,729,0,0
497,295,0,0,0,0,0,0,0,0,0,-1,1721,729,0,0
504,295,0,0,0,0,0,0,0,0,0,-1,1728,729,0,0
511,295,0,0,0,0,0,0,0,0,0,-1,1735,729,0,0
518,295,0,0,0,0,0,0,0,0,0,-1,1742,729,0,0
525,295,0,0,0,0,0,0,0,0,0,-1,1749,729,0,0
532,295,0,0,0,0,0,0,0,0,0,-1,1756,729,0,0
539,295,0,0,0,0,0,0,0,0,0,-1,1763,729,0,0
546,295,48.8486,1.93115,0,0,0,0,0,0,0,-1,1770,729,48.8486,-1.93117
553,295,48.7095,2.24249,-0.10872,0.0832607,0.0624561,0.101791,-0.12725,1.28238,0.132509,0.0476644,1777,729,48.7095,-2.24251
560,295,47.8405,3.19769,-0.0966179,0.0780867,0.0638189,0.098916,-0.117447,1.25531,0.12507,0.0431135,1784,729,47.8405,-3.19772
567,295,46.9696,2.94031,0,0,0,0,0,0,0,-1,1791,729,46.9696,-2.94032
574,295,45.8945,5.06598,0,0,0,0,0,0,0,-1,1798,729,45.8945,-5.06597
581,295,37.8191,2.19592,0,0,0,0,0,0,0,-1,1805,729,37.8191,-2.19594
588,295,39.0542,2.45679,0,0,0,0,0,0,0,-1,1812,729,39.0542,-2.45676
595,295,27.2102,6.99121,0,0,0,0,0,0,0,-1,1819,729,27.2103,-6.99121
602,295,26.9065,7.82141,0,0,0,0,0,0,0,-1,1826,729,26.9064,-7.8214
609,295,11.7737,2.19989,0,0,0,0,0,0,0,-1,1833,729,11.7736,-2.19988
616,295,29.7728,-4.96301,0,0,0,0,0,0,0,-1,1840,729,29.7728,4.96302
623,295,29.6942,-4.40564,0.00676892,0.00516436,0.00842528,0.01443,-0.00249675,0.73793,0.0105512,0.0329325,1847,729,29.6942,4.40562
630,295,29.6355,-3.81726,0.00787051,0.00186486,0.00510804,0.010793,-0.0010576,0.519675,0.0075725,0.0134724,1854,729,29.6355,3.81724
637,295,29.6121,-3.21594,0.00571434,0.000165227,0.00325362,0.00721579,-0.00133622,0.432351,0.00531225,0.0144683,1861,729,29.6121,3.21591
644,295,29.6154,-2.62299,0.00322763,-0.000757087,0.0018425,0.00394899,-0.00147845,0.37317,0.00323994,0.0137678,1868,729,29.6154,2.623
651,295,29.5997,-2.01758,0.00089642,-0.000319054,0.000699016,0.00121495,-0.000637582,0.427568,0.00108674,0.0138778,1875,729,29.5997,2.01758
658,295,29.5721,-1.4101,-0.000557442,0.000145618,-5.86524e-05,0.000150478,-0.000562301,-1.48813,0.000433815,0.0128587,1882,729,29.5721,1.41009
665,295,29.5442,-0.837219,-0.00150602,0.00087419,-0.00014568,0.000883073,-0.00151491,-1.50989,0.0014004,0.0120934,1889,729,29.5442,0.837245
672,295,29.5229,-0.255798,-0.00241979,0.00171637,-0.000168093,0.00172319,-0.00242661,-1.53025,0.00240733,0.0139943,1896,729,29.5229,0.25579
679,295,29.5011,0.368652,-0.00299468,0.00296928,0.000173977,0.00297435,-0.00299975,1.54166,0.00344916,0.0107205,1903,729,29.5011,-0.368645
686,295,29.5115,0.972229,-0.00364586,0.00434446,0.000552961,0.00438254,-0.00368394,1.50203,0.00466301,0.0112725,1910,729,29.5115,-0.972206
693,295,29.4788,1.5509,-0.00394514,0.00610553,0.00123407,0.00625484,-0.00409444,1.45039,0.0060184,0.0485258,1917,729,29.4787,-1.55093
700,295,29.5283,2.12891,0,0,0,0,0,0,0,-1,1924,729,29.5283,-2.12892
707,295,22.2661,3.05206,0,0,0,0,0,0,0,-1,1931,729,22.2662,-3.05207
714,295,17.4906,4.63068,0,0,0,0,0,0,0,-1,1938,729,17.4906,-4.63066
721,295,18.3792,5.32281,0,0,0,0,0,0,0,-1,1945,729,18.3791,-5.32283
728,295,17.379,3.74866,0,0,0,0,0,0,0,-1,1952,729,17.379,-3.74863
735,295,0,0,0,0,0,0,0,0,0,-1,1959,729,0,0
742,295,0,0,0,0,0,0,0,0,0,-1,1966,729,0,0
749,295,0,0,0,0,0,0,0,0,0,-1,1973,729,0,0
756,295,0,0,0,0,0,0,0,0,0,-1,1980,729,0,0
763,295,0,0,0,0,0,0,0,0,0,-1,1987,729,0,0
770,295,0,0,0,0,0,0,0,0,0,-1,1994,729,0,0
777,295,0,0,0,0,0,0,0,0,0,-1,2001,729,0,0
784,295,0,0,0,0,0,0,0,0,0,-1,2008,729,0,0
791,295,0,0,0,0,0,0,0,0,0,-1,2015,729,0,0
798,295,0,0,0,0,0,0,0,0,0,-1,2022,729,0,0
805,295,0,0,0,0,0,0,0,0,0,-1,2029,729,0,0
812,295,0,0,0,0,0,0,0,0,0,-1,2036,729,0,0
-700,288,0,0,0,0,0,0,0,0,0,-1,524,736,0,0
-693,288,0,0,0,0,0,0,0,0,0,-1,531,736,0,0
-686,288,0,0,0,0,0,0,0,0,0,-1,538,736,0,0
-679,288,0,0,0,0,0,0,0,0,0,-1,545,736,0,0
-672,288,0,0,0,0,0,0,0,0,0,-1,552,736,0,0
-665,288,0,0,0,0,0,0,0,0,0,-1,559,736,0,0
-658,288,0,0,0,0,0,0,0,0,0,-1,566,736,0,0
-651,288,0,0,0,0,0,0,0,0,0,-1,573,736,0,0
-644,288,0,0,0,0,0,0,0,0,0,-1,580,736,0,0
-637,288,0,0,0,0,0,0,0,0,0,-1,587,736,0,0
-630,288,0,0,0,0,0,0,0,0,0,-1,594,736,0,0
-623,288,0,0,0,0,0,0,0,0,0,-1,601,736,0,0
-616,288,-11.7584,2.4425,0,0,0,0,0,0,0,-1,608,736,-11.7584,-2.44251
-609,288,-10.3007,2.32178,0,0,0,0,0,0,0,-1,615,736,-10.3007,-2.32178
-602,288,-10.1458,-1.85559,0,0,0,0,0,0,0,-1,622,736,-10.1458,1.85556
-595,288,-7.63208,1.81769,0,0,0,0,0,0,0,-1,629,736,-7.63205,-1.81766
-588,288,-8.19269,1.50598,0,0,0,0,0,0,0,-1,636,736,-8.19268,-1.50601
-581,288,-13.1915,0.659241,0,0,0,0,0,0,0,-1,643,736,-13.1915,-0.659228
-574,288,-18.9088,0.166016,0,0,0,0,0,0,0,-1,650,736,-18.9087,-0.166014
-567,288,-19.0847,-0.420898,0.00163608,0.00627379,0.0021067,0.00708786,0.000822005,1.20205,0.00447647,0.0402865,657,736,-19.0847,0.420911
-560,288,-19.3517,-1.01825,0.00083277,0.00448983,0.0013902,0.00495829,0.000364306,1.24577,0.00319103,0.0179451,664,736,-19.3517,1.01828
-553,288,-19.3377,-1.51025,0.00043626,0.0030795,0.00093672,0.0033778,0.000137966,1.2625,0.00220731,0.0180515,671,736,-19.3377,1.51025
-546,288,-19.3788,-2.06866,0.000191754,0.00185032,0.000737428,0.00213077,-8.86974e-05,1.20738,0.00145099,0.020039,678,736,-19.3789,2.06867
-539,288,-19.3958,-2.63635,7.53824e-05,0.000817498,0.000693194,0.0012327,-0.000339818,1.03114,0.000955432,0.0179411,685,736,-19.3958,2.63638
-532,288,-19.3685,-3.21875,-0.000195668,-0.000107617,0.000691885,0.000541642,-0.000844927,0.817171,0.000806894,0.0147119,692,736,-19.3685,3.21875
-525,288,-19.3959,-3.80231,4.55354e-05,-0.000911735,0.00062221,0.000351908,-0.00121811,0.457544,0.000951323,0.0127872,699,736,-19.3959,3.80228
-518,288,-19.4462,-4.35852,0.000943376,-0.0019551,0.000437243,0.0010079,-0.00201962,0.14651,0.00178017,0.0105671,706,736,-19.4461,4.35854
-511,288,-19.466,-4.91858,0.00227027,-0.00329273,0.000362045,0.00229374,-0.00331619,0.0647169,0.00325678,0.00805649,713,736,-19.466,4.91856
-504,288,-19.4977,-5.48596,0.00383241,-0.00470537,0.00042149,0.00385316,-0.00472612,0.0492082,0.00496179,0.0103607,720,736,-19.4977,5.48594
-497,288,-19.5109,-5.88159,0.00589812,-0.00647682,0.000350575,0.00590805,-0.00648674,0.0282992,0.00715873,0.0326992,727,736,-19.5109,5.88159
-490,288,-19.3984,-6.22382,0,0,0,0,0,0,0,-1,734,736,-19.3985,6.2238
-483,288,-17.3287,0.564758,0,0,0,0,0,0,0,-1,741,736,-17.3287,-0.56477
-476,288,-26.136,0.452148,0,0,0,0,0,0,0,-1,748,736,-26.136,-0.452177
-469,288,-27.7904,0.649841,0,0,0,0,0,0,0,-1,755,736,-27.7904,-0.649854
-462,288,-34.9476,1.23218,0,0,0,0,0,0,0,-1,762,736,-34.9476,-1.23219
-455,288,-35.3354,0.743347,0,0,0,0,0,0,0,-1,769,736,-35.3354,-0.743378
-448,288,-36.1013,0.106995,0,0,0,0,0,0,0,-1,776,736,-36.1013,-0.106975
-441,288,-36.4864,-0.569519,0,0,0,0,0,0,0,-1,783,736,-36.4864,0.569532
-434,288,-36.2269,-0.579102,0,0,0,0,0,0,0,-1,790,736,-36.2268,0.579116
-427,288,0,0,0,0,0,0,0,0,0,-1,797,736,0,0
-420,288,0,0,0,0,0,0,0,0,0,-1,804,736,0,0
-413,288,0,0,0,0,0,0,0,0,0,-1,811,736,0,0
-406,288,0,0,0,0,0,0,0,0,0,-1,818,736,0,0
-399,288,0,0,0,0,0,0,0,0,0,-1,825,736,0,0
-392,288,0,0,0,0,0,0,0,0,0,-1,832,736,0,0
-385,288,0,0,0,0,0,0,0,0,0,-1,839,736,0,0
-378,288,0,0,0,0,0,0,0,0,0,-1,846,736,0,0
-371,288,0,0,0,0,0,0,0,0,0,-1,853,736,0,0
-364,288,0,0,0,0,0,0,0,0,0,-1,860,736,0,0
-357,288,0,0,0,0,0,0,0,0,0,-1,867,736,0,0
-350,288,0,0,0,0,0,0,0,0,0,-1,874,736,0,0
-343,288,0,0,0,0,0,0,0,0,0,-1,881,736,0,0
-336,288,0,0,0,0,0,0,0,0,0,-1,888,736,0,0
-329,288,0,0,0,0,0,0,0,0,0,-1,895,736,0,0
-322,288,0,0,0,0,0,0,0,0,0,-1,902,736,0,0
-315,288,0,0,0,0,0,0,0,0,0,-1,909,736,0,0
-308,288,0,0,0,0,0,0,0,0,0,-1,916,736,0,0
-301,288,0,0,0,0,0,0,0,0,0,-1,923,736,0,0
-294,288,0,0,0,0,0,0,0,0,0,-1,930,736,0,0
-287,288,0,0,0,0,0,0,0,0,0,-1,937,736,0,0
-280,288,0,0,0,0,0,0,0,0,0,-1,944,736,0,0
-273,288,0,0,0,0,0,0,0,0,0,-1,951,736,0,0
-266,288,0,0,0,0,0,0,0,0,0,-1,958,736,0,0
-259,288,0,0,0,0,0,0,0,0,0,-1,965,736,0,0
-252,288,0,0,0,0,0,0,0,0,0,-1,972,736,0,0
-245,288,0,0,0,0,0,0,0,0,0,-1,979,736,0,0
-238,288,0,0,0,0,0,0,0,0,0,-1,986,736,0,0
-231,288,0,0,0,0,0,0,0,0,0,-1,993,736,0,0
-224,288,0,0,0,0,0,0,0,0,0,-1,1000,736,0,0
-217,288,0,0,0,0,0,0,0,0,0,-1,1007,736,0,0
-210,288,0,0,0,0,0,0,0,0,0,-1,1014,736,0,0
-203,288,0,0,0,0,0,0,0,0,0,-1,1021,736,0,0
-196,288,0,0,0,0,0,0,0,0,0,-1,1028,736,0,0
-189,288,0,0,0,0,0,0,0,0,0,-1,1035,736,0,0
-182,288,0,0,0,0,0,0,0,0,0,-1,1042,736,0,0
-175,288,0,0,0,0,0,0,0,0,0,-1,1049,736,0,0
-168,288,0,0,0,0,0,0,0,0,0,-1,1056,736,0,0
-161,288,0,0,0,0,0,0,0,0,0,-1,1063,736,0,0
-154,288,0,0,0,0,0,0,0,0,0,-1,1070,736,0,0
-147,288,0,0,0,0,0,0,0,0,0,-1,1077,736,0,0
-140,288,0,0,0,0,0,0,0,0,0,-1,1084,736,0,0
-133,288,0,0,0,0,0,0,0,0,0,-1,1091,736,0,0
-126,288,0,0,0,0,0,0,0,0,0,-1,1098,736,0,0
-119,288,0,0,0,0,0,0,0,0,0,-1,1105,736,0,0
-112,288,0,0,0,0,0,0,0,0,0,-1,1112,736,0,0
-105,288,0,0,0,0,0,0,0,0,0,-1,1119,736,0,0
-98,288,0,0,0,0,0,0,0,0,0,-1,1126,736,0,0
-91,288,0,0,0,0,0,0,0,0,0,-1,1133,736,0,0
-84,288,0,0,0,0,0,0,0,0,0,-1,1140,736,0,0
-77,288,0,0,0,0,0,0,0,0,0,-1,1147,736,0,0
-70,288,0,0,0,0,0,0,0,0,0,-1,1154,736,0,0
-63,288,0,0,0,0,0,0,0,0,0,-1,1161,736,0,0
-56,288,0,0,0,0,0,0,0,0,0,-1,1168,736,0,0
-49,288,0,0,0,0,0,0,0,0,0,-1,1175,736,0,0
-42,288,0,0,0,0,0,0,0,0,0,-1,1182,736,0,0
-35,288,0,0,0,0,0,0,0,0,0,-1,1189,736,0,0
-28,288,0,0,0,0,0,0,0,0,0,-1,1196,736,0,0
-21,288,0,0,0,0,0,0,0,0,0,-1,1203,736,0,0
-14,288,0,0,0,0,0,0,0,0,0,-1,1210,736,0,0
-7,288,0,0,0,0,0,0,0,0,0,-1,1217,736,0,0
0,288,0,0,0,0,0,0,0,0,0,-1,1224,736,0,0
7,288,0,0,0,0,0,0,0,0,0,-1,1231,736,0,0
14,288,0,0,0,0,0,0,0,0,0,-1,1238,736,0,0
21,288,0,0,0,0,0,0,0,0,0,-1,1245,736,0,0
28,288,0,0,0,0,0,0,0,0,0,-1,1252,736,0,0
35,288,0,0,0,0,0,0,0,0,0,-1,1259,736,0,0
42,288,0,0,0,0,0,0,0,0,0,-1,1266,736,0,0
49,288,0,0,0,0,0,0,0,0,0,-1,1273,736,0,0
56,288,0,0,0,0,0,0,0,0,0,-1,1280,736,0,0
63,288,0,0,0,0,0,0,0,0,0,-1,1287,736,0,0
70,288,0,0,0,0,0,0,0,0,0,-1,1294,736,0,0
77,288,0,0,0,0,0,0,0,0,0,-1,1301,736,0,0
84,288,0,0,0,0,0,0,0,0,0,-1,1308,736,0,0
91,288,0,0,0,0,0,0,0,0,0,-1,1315,736,0,0
98,288,0,0,0,0,0,0,0,0,0,-1,1322,736,0,0
105,288,0,0,0,0,0,0,0,0,0,-1,1329,736,0,0
112,288,0,0,0,0,0,0,0,0,0,-1,1336,736,0,0
119,288,0,0,0,0,0,0,0,0,0,-1,1343,736,0,0
126,288,0,0,0,0,0,0,0,0,0,-1,1350,736,0,0
133,288,0,0,0,0,0,0,0,0,0,-1,1357,736,0,0
140,288,0,0,0,0,0,0,0,0,0,-1,1364,736,0,0
147,288,0,0,0,0,0,0,0,0,0,-1,1371,736,0,0
154,288,0,0,0,0,0,0,0,0,0,-1,1378,736,0,0
161,288,0,0,0,0,0,0,0,0,0,-1,1385,736,0,0
168,288,0,0,0,0,0,0,0,0,0,-1,1392,736,0,0
175,288,0,0,0,0,0,0,0,0,0,-1,1399,736,0,0
182,288,0,0,0,0,0,0,0,0,0,-1,1406,736,0,0
189,288,0,0,0,0,0,0,0,0,0,-1,1413,736,0,0
196,288,0,0,0,0,0,0,0,0,0,-1,1420,736,0,0
203,288,0,0,0,0,0,0,0,0,0,-1,1427,736,0,0
210,288,0,0,0,0,0,0,0,0,0,-1,1434,736,0,0
217,288,0,0,0,0,0,0,0,0,0,-1,1441,736,0,0
224,288,0,0,0,0,0,0,0,0,0,-1,1448,736,0,0
231,288,0,0,0,0,0,0,0,0,0,-1,1455,736,0,0
238,288,0,0,0,0,0,0,0,0,0,-1,1462,736,0,0
245,288,0,0,0,0,0,0,0,0,0,-1,1469,736,0,0
252,288,0,0,0,0,0,0,0,0,0,-1,1476,736,0,0
259,288,0,0,0,0,0,0,0,0,0,-1,1483,736,0,0
266,288,0,0,0,0,0,0,0,0,0,-1,1490,736,0,0
273,288,0,0,0,0,0,0,0,0,0,-1,1497,736,0,0
280,288,0,0,0,0,0,0,0,0,0,-1,1504,736,0,0
287,288,0,0,0,0,0,0,0,0,0,-1,1511,736,0,0
294,288,0,0,0,0,0,0,0,0,0,-1,1518,736,0,0
301,288,0,0,0,0,0,0,0,0,0,-1,1525,736,0,0
308,288,0,0,0,0,0,0,0,0,0,-1,1532,736,0,0
315,288,0,0,0,0,0,0,0,0,0,-1,1539,736,0,0
322,288,0,0,0,0,0,0,0,0,0,-1,1546,736,0,0
329,288,0,0,0,0,0,0,0,0,0,-1,1553,736,0,0
336,288,0,0,0,0,0,0,0,0,0,-1,1560,736,0,0
343,288,0,0,0,0,0,0,0,0,0,-1,1567,736,0,0
350,288,0,0,0,0,0,0,0,0,0,-1,1574,736,0,0
357,288,0,0,0,0,0,0,0,0,0,-1,1581,736,0,0
364,288,0,0,0,0,0,0,0,0,0,-1,1588,736,0,0
371,288,0,0,0,0,0,0,0,0,0,-1,1595,736,0,0
378,288,0,0,0,0,0,0,0,0,0,-1,1602,736,0,0
385,288,0,0,0,0,0,0,0,0,0,-1,1609,736,0,0
392,288,0,0,0,0,0,0,0,0,0,-1,1616,736,0,0
399,288,0,0,0,0,0,0,0,0,0,-1,1623,736,0,0
406,288,0,0,0,0,0,0,0,0,0,-1,1630,736,0,0
413,288,0,0,0,0,0,0,0,0,0,-1,1637,736,0,0
420,288,0,0,0,0,0,0,0,0,0,-1,1644,736,0,0
427,288,0,0,0,0,0,0,0,0,0,-1,1651,736,0,0
434,288,0,0,0,0,0,0,0,0,0,-1,1658,736,0,0
441,288,0,0,0,0,0,0,0,0,0,-1,1665,736,0,0
448,288,0,0,0,0,0,0,0,0,0,-1,1672,736,0,0
455,288,0,0,0,0,0,0,0,0,0,-1,1679,736,0,0
462,288,0,0,0,0,0,0,0,0,0,-1,1686,736,0,0
469,288,0,0,0,0,0,0,0,0,0,-1,1693,736,0,0
476,288,0,0,0,0,0,0,0,0,0,-1,1700,736,0,0
483,288,0,0,0,0,0,0,0,0,0,-1,1707,736,0,0
490,288,0,0,0,0,0,0,0,0,0,-1,1714,736,0,0
497,288,0,0,0,0,0,0,0,0,0,-1,1721,736,0,0
504,288,0,0,0,0,0,0,0,0,0,-1,1728,736,0,0
511,288,0,0,0,0,0,0,0,0,0,-1,1735,736,0,0
518,288,0,0,0,0,0,0,0,0,0,-1,1742,736,0,0
525,288,0,0,0,0,0,0,0,0,0,-1,1749,736,0,0
532,288,0,0,0,0,0,0,0,0,0,-1,1756,736,0,0
539,288,0,0,0,0,0,0,0,0,0,-1,1763,736,0,0
546,288,0,0,0,0,0,0,0,0,0,-1,1770,736,0,0
553,288,48.1055,1.96002,0,0,0,0,0,0,0,-1,1777,736,48.1055,-1.96004
560,288,47.8082,2.60095,-0.0851247,0.0683306,0.0527217,0.0846981,-0.101492,1.26978,0.107643,0.0452044,1784,736,47.8083,-2.60093
567,288,47.3468,3.09174,-0.0672434,0.0624794,0.0526642,0.0811675,-0.0859315,1.2298,0.0964877,0.0456992,1791,736,47.3468,-3.09172
574,288,46.9019,3.56555,0,0,0,0,0,0,0,-1,1798,736,46.9018,-3.56554
581,288,47.9154,4.12219,0,0,0,0,0,0,0,-1,1805,736,47.9154,-4.12217
588,288,47.9396,4.94324,0,0,0,0,0,0,0,-1,1812,736,47.9396,-4.94326
595,288,47.035,3.35156,0,0,0,0,0,0,0,-1,1819,736,47.035,-3.35157
602,288,26.7634,7.61279,0,0,0,0,0,0,0,-1,1826,736,26.7635,-7.61279
609,288,17.5223,4.86414,0,0,0,0,0,0,0,-1,1833,736,17.5223,-4.86412
616,288,13.4886,0.801331,0,0,0,0,0,0,0,-1,1840,736,13.4886,-0.80132
623,288,30.2754,-4.39685,0,0,0,0,0,0,0,-1,1847,736,30.2754,4.39687
630,288,30.2146,-3.78174,0.009213,0.00184146,0.00623414,0.0127694,-0.00171497,0.518427,0.00913841,0.0260219,1854,736,30.2146,3.78173
637,288,30.2292,-3.19183,0.00724233,0.000130639,0.0042873,0.00925649,-0.00188352,0.439195,0.00688525,0.0117699,1861,736,30.2292,3.19186
644,288,30.2235,-2.60663,0.0045464,-0.000968006,0.00265502,0.0056169,-0.0020385,0.38326,0.00457797,0.010626,1868,736,30.2235,2.60662
651,288,30.1979,-2.00604,0.00178636,-0.000558541,0.00115942,0.00226282,-0.001035,0.389906,0.00194749,0.0112702,1875,736,30.1979,2.00605
658,288,30.1644,-1.37872,0.000159457,-0.000153357,9.40726e-05,0.000185568,-0.000179468,0.270747,0.000210763,0.0164042,1882,736,30.1644,1.37874
665,288,30.119,-0.783997,-0.000672874,0.000677453,0.000117095,0.000687531,-0.000682953,1.48493,0.000791251,0.0167676,1889,736,30.119,0.784019
672,288,30.1259,-0.223999,-0.00140966,0.00160491,0.00021844,0.00162066,-0.0014254,1.49884,0.00175985,0.0160068,1896,736,30.1259,0.223998
679,288,30.1201,0.39447,-0.00167938,0.00297637,0.000764902,0.00309882,-0.00180183,1.41206,0.00286223,0.013698,1903,736,30.1201,-0.394474
686,288,30.084,0.954102,-0.0019878,0.00444711,0.00132743,0.00471018,-0.00225087,1.37515,0.00410172,0.0105791,1910,736,30.084,-0.9541
693,288,30.0913,1.61212,-0.00184708,0.00628272,0.00224125,0.00685966,-0.00242401,1.31885,0.00556012,0.022625,1917,736,30.0913,-1.61209
700,288,29.9403,2.37646,-0.000872176,0.00883966,0.00381446,0.0101587,-0.00219121,1.23787,0.00760878,0.0490847,1924,736,29.9403,-2.37646
707,288,29.9862,3.1933,0,0,0,0,0,0,0,-1,1931,736,29.9862,-3.19328
714,288,23.0149,3.82544,0,0,0,0,0,0,0,-1,1938,736,23.0149,-3.82541
721,288,18.0732,3.69385,0,0,0,0,0,0,0,-1,1945,736,18.0732,-3.69387
728,288,19.3208,3.91455,0,0,0,0,0,0,0,-1,1952,736,19.3209,-3.91455
735,288,18.7712,3.51312,0,0,0,0,0,0,0,-1,1959,736,18.7713,-3.51309
742,288,0,0,0,0,0,0,0,0,0,-1,1966,736,0,0
749,288,0,0,0,0,0,0,0,0,0,-1,1973,736,0,0
756,288,0,0,0,0,0,0,0,0,0,-1,1980,736,0,0
763,288,0,0,0,0,0,0,0,0,0,-1,1987,736,0,0
770,288,0,0,0,0,0,0,0,0,0,-1,1994,736,0,0
777,288,0,0,0,0,0,0,0,0,0,-1,2001,736,0,0
784,288,0,0,0,0,0,0,0,0,0,-1,2008,736,0,0
791,288,0,0,0,0,0,0,0,0,0,-1,2015,736,0,0
798,288,0,0,0,0,0,0,0,0,0,-1,2022,736,0,0
805,288,0,0,0,0,0,0,0,0,0,-1,2029,736,0,0
812,288,0,0,0,0,0,0,0,0,0,-1,2036,736,0,0
-700,281,0,0,0,0,0,0,0,0,0,-1,524,743,0,0
-693,281,0,0,0,0,0,0,0,0,0,-1,531,743,0,0
-686,281,0,0,0,0,0,0,0,0,0,-1,538,743,0,0
-679,281,0,0,0,0,0,0,0,0,0,-1,545,743,0,0
-672,281,0,0,0,0,0,0,0,0,0,-1,552,743,0,0
-665,281,0,0,0,0,0,0,0,0,0,-1,559,743,0,0
-658,281,0,0,0,0,0,0,0,0,0,-1,566,743,0,0
-651,281,0,0,0,0,0,0,0,0,0,-1,573,743,0,0
-644,281,0,0,0,0,0,0,0,0,0,-1,580,743,0,0
-637,281,0,0,0,0,0,0,0,0,0,-1,587,743,0,0
-630,281,0,0,0,0,0,0,0,0,0,-1,594,743,0,0
-623,281,-19.1697,5.67017,0,0,0,0,0,0,0,-1,601,743,-19.1697,-5.67019
-616,281,-11.5906,2.6853,0,0,0,0,0,0,0,-1,608,743,-11.5906,-2.68529
-609,281,-16.1972,4.14838,0,0,0,0,0,0,0,-1,615,743,-16.1972,-4.14837
-602,281,-12.7697,3.94086,0,0,0,0,0,0,0,-1,622,743,-12.7697,-3.94086
-595,281,-10.4797,-1.07404,0,0,0,0,0,0,0,-1,629,743,-10.4798,1.07402
-588,281,-13.277,1.49817,0,0,0,0,0,0,0,-1,636,743,-13.2771,-1.49817
-581,281,-19.7965,0.636108,0,0,0,0,0,0,0,-1,643,743,-19.7965,-0.636102
-574,281,-19.7218,0.125366,0.00284334,0.00640294,0.00391947,0.00892779,0.000318498,0.998524,0.00584858,0.0427766,650,743,-19.7218,-0.125378
-567,281,-19.8853,-0.385071,0.00133408,0.00445664,0.00288886,0.00617912,-0.000388406,1.03314,0.0042548,0.0205727,657,743,-19.8853,0.385041
-560,281,-19.939,-0.965698,0.000387045,0.00286923,0.0022548,0.00420194,-0.000945662,1.03698,0.00316398,0.00857433,664,743,-19.939,0.965712
-553,281,-19.9241,-1.52423,-0.000114449,0.00161748,0.00181145,0.00275931,-0.00125628,1.00836,0.00237192,0.0137267,671,743,-19.9241,1.52422
-546,281,-19.9291,-2.04425,-0.000381513,0.000584572,0.00154776,0.00172292,-0.00151986,0.936654,0.00187344,0.0164799,678,743,-19.9291,2.04425
-539,281,-19.936,-2.62671,-0.000502282,-0.000259604,0.00137812,0.00100251,-0.0017644,0.829308,0.00161754,0.0150645,685,743,-19.9359,2.62668
-532,281,-19.9547,-3.18842,-0.000741978,-0.00089576,0.00120724,0.000390821,-0.00202856,0.753595,0.00149972,0.0148016,692,743,-19.9547,3.18843
-525,281,-19.9952,-3.76654,-0.000345078,-0.00145932,0.000852117,0.000115881,-0.00192028,0.495875,0.00132051,0.017178,699,743,-19.9952,3.76653
-518,281,-20.0139,-4.35065,0.000779756,-0.00234952,0.00039944,0.000829938,-0.00239971,0.124976,0.00193666,0.0134009,706,743,-20.0139,4.35067
-511,281,-20.0311,-4.91315,0.00231543,-0.00358961,0.000141988,0.00231884,-0.00359302,0.0240267,0.00343954,0.0109798,713,743,-20.0311,4.91316
-504,281,-20.0944,-5.48712,0.0040373,-0.00485953,7.06729e-05,0.00403786,-0.00486009,0.00794294,0.00514454,0.014658,720,743,-20.0944,5.48715
-497,281,-19.9674,-6.07593,0.00624659,-0.00648354,-0.000139978,0.00624813,-0.00648507,-0.010994,0.00735194,0.0479669,727,743,-19.9674,6.07593
-490,281,-19.7419,-6.55853,0,0,0,0,0,0,0,-1,734,743,-19.7419,6.55854
-483,281,-22.1078,-2.34973,0,0,0,0,0,0,0,-1,741,743,-22.1078,2.3497
-476,281,-28.0016,2.17786,0,0,0,0,0,0,0,-1,748,743,-28.0016,-2.17786
-469,281,-34.6448,0.171692,0,0,0,0,0,0,0,-1,755,743,-34.6448,-0.171685
-462,281,-34.2302,1.18732,0,0,0,0,0,0,0,-1,762,743,-34.2302,-1.1873
-455,281,-35.0367,0.741882,0,0,0,0,0,0,0,-1,769,743,-35.0367,-0.741898
-448,281,-35.6111,0.471985,0,0,0,0,0,0,0,-1,776,743,-35.6111,-0.47201
-441,281,-35.7243,0.524963,0,0,0,0,0,0,0,-1,783,743,-35.7243,-0.524959
-434,281,0,0,0,0,0,0,0,0,0,-1,790,743,0,0
-427,281,0,0,0,0,0,0,0,0,0,-1,797,743,0,0
-420,281,0,0,0,0,0,0,0,0,0,-1,804,743,0,0
-413,281,0,0,0,0,0,0,0,0,0,-1,811,743,0,0
-406,281,0,0,0,0,0,0,0,0,0,-1,818,743,0,0
-399,281,0,0,0,0,0,0,0,0,0,-1,825,743,0,0
-392,281,0,0,0,0,0,0,0,0,0,-1,832,743,0,0
-385,281,0,0,0,0,0,0,0,0,0,-1,839,743,0,0
-378,281,0,0,0,0,0,0,0,0,0,-1,846,743,0,0
-371,281,0,0,0,0,0,0,0,0,0,-1,853,743,0,0
-364,281,0,0,0,0,0,0,0,0,0,-1,860,743,0,0
-357,281,0,0,0,0,0,0,0,0,0,-1,867,743,0,0
-350,281,0,0,0,0,0,0,0,0,0,-1,874,743,0,0
-343,281,0,0,0,0,0,0,0,0,0,-1,881,743,0,0
-336,281,0,0,0,0,0,0,0,0,0,-1,888,743,0,0
-329,281,0,0,0,0,0,0,0,0,0,-1,895,743,0,0
-322,281,0,0,0,0,0,0,0,0,0,-1,902,743,0,0
-315,281,0,0,0,0,0,0,0,0,0,-1,909,743,0,0
-308,281,0,0,0,0,0,0,0,0,0,-1,916,743,0,0
-301,281,0,0,0,0,0,0,0,0,0,-1,923,743,0,0
-294,281,0,0,0,0,0,0,0,0,0,-1,930,743,0,0
-287,281,0,0,0,0,0,0,0,0,0,-1,937,743,0,0
-280,281,0,0,0,0,0,0,0,0,0,-1,944,743,0,0
-273,281,0,0,0,0,0,0,0,0,0,-1,951,743,0,0
-266,281,0,0,0,0,0,0,0,0,0,-1,958,743,0,0
-259,281,0,0,0,0,0,0,0,0,0,-1,965,743,0,0
-252,281,0,0,0,0,0,0,0,0,0,-1,972,743,0,0
-245,281,0,0,0,0,0,0,0,0,0,-1,979,743,0,0
-238,281,0,0,0,0,0,0,0,0,0,-1,986,743,0,0
-231,281,0,0,0,0,0,0,0,0,0,-1,993,743,0,0
-224,281,0,0,0,0,0,0,0,0,0,-1,1000,743,0,0
-217,281,0,0,0,0,0,0,0,0,0,-1,1007,743,0,0
-210,281,0,0,0,0,0,0,0,0,0,-1,1014,743,0,0
-203,281,0,0,0,0,0,0,0,0,0,-1,1021,743,0,0
-196,281,0,0,0,0,0,0,0,0,0,-1,1028,743,0,0
-189,281,0,0,0,0,0,0,0,0,0,-1,1035,743,0,0
-182,281,0,0,0,0,0,0,0,0,0,-1,1042,743,0,0
-175,281,0,0,0,0,0,0,0,0,0,-1,1049,743,0,0
-168,281,0,0,0,0,0,0,0,0,0,-1,1056,743,0,0
-161,281,0,0,0,0,0,0,0,0,0,-1,1063,743,0,0
-154,281,0,0,0,0,0,0,0,0,0,-1,1070,743,0,0
-147,281,0,0,0,0,0,0,0,0,0,-1,1077,743,0,0
-140,281,0,0,0,0,0,0,0,0,0,-1,1084,743,0,0
-133,281,0,0,0,0,0,0,0,0,0,-1,1091,743,0,0
-126,281,0,0,0,0,0,0,0,0,0,-1,1098,743,0,0
-119,281,0,0,0,0,0,0,0,0,0,-1,1105,743,0,0
-112,281,0,0,0,0,0,0,0,0,0,-1,1112,743,0,0
-105,281,0,0,0,0,0,0,0,0,0,-1,1119,743,0,0
-98,281,0,0,0,0,0,0,0,0,0,-1,1126,743,0,0
-91,281,0,0,0,0,0,0,0,0,0,-1,1133,743,0,0
-84,281,0,0,0,0,0,0,0,0,0,-1,1140,743,0,0
-77,281,0,0,0,0,0,0,0,0,0,-1,1147,743,0,0
-70,281,0,0,0,0,0,0,0,0,0,-1,1154,743,0,0
-63,281,0,0,0,0,0,0,0,0,0,-1,1161,743,0,0
-56,281,0,0,0,0,0,0,0,0,0,-1,1168,743,0,0
-49,281,0,0,0,0,0,0,0,0,0,-1,1175,743,0,0
-42,281,0,0,0,0,0,0,0,0,0,-1,1182,743,0,0
-35,281,0,0,0,0,0,0,0,0,0,-1,1189,743,0,0
-28,281,0,0,0,0,0,0,0,0,0,-1,1196,743,0,0
-21,281,0,0,0,0,0,0,0,0,0,-1,1203,743,0,0
-14,281,0,0,0,0,0,0,0,0,0,-1,1210,743,0,0
-7,281,0,0,0,0,0,0,0,0,0,-1,1217,743,0,0
0,281,0,0,0,0,0,0,0,0,0,-1,1224,743,0,0
7,281,0,0,0,0,0,0,0,0,0,-1,1231,743,0,0
14,281,0,0,0,0,0,0,0,0,0,-1,1238,743,0,0
21,281,0,0,0,0,0,0,0,0,0,-1,1245,743,0,0
28,281,0,0,0,0,0,0,0,0,0,-1,1252,743,0,0
35,281,0,0,0,0,0,0,0,0,0,-1,1259,743,0,0
42,281,0,0,0,0,0,0,0,0,0,-1,1266,743,0,0
49,281,0,0,0,0,0,0,0,0,0,-1,1273,743,0,0
56,281,0,0,0,0,0,0,0,0,0,-1,1280,743,0,0
63,281,0,0,0,0,0,0,0,0,0,-1,1287,743,0,0
70,281,0,0,0,0,0,0,0,0,0,-1,1294,743,0,0
77,281,0,0,0,0,0,0,0,0,0,-1,1301,743,0,0
84,281,0,0,0,0,0,0,0,0,0,-1,1308,743,0,0
91,281,0,0,0,0,0,0,0,0,0,-1,1315,743,0,0
98,281,0,0,0,0,0,0,0,0,0,-1,1322,743,0,0
105,281,0,0,0,0,0,0,0,0,0,-1,1329,743,0,0
112,281,0,0,0,0,0,0,0,0,0,-1,1336,743,0,0
119,281,0,0,0,0,0,0,0,0,0,-1,1343,743,0,0
126,281,0,0,0,0,0,0,0,0,0,-1,1350,743,0,0
133,281,0,0,0,0,0,0,0,0,0,-1,1357,743,0,0
140,281,0,0,0,0,0,0,0,0,0,-1,1364,743,0,0
147,281,0,0,0,0,0,0,0,0,0,-1,1371,743,0,0
154,281,0,0,0,0,0,0,0,0,0,-1,1378,743,0,0
161,281,0,0,0,0,0,0,0,0,0,-1,1385,743,0,0
168,281,0,0,0,0,0,0,0,0,0,-1,1392,743,0,0
175,281,0,0,0,0,0,0,0,0,0,-1,1399,743,0,0
182,281,0,0,0,0,0,0,0,0,0,-1,1406,743,0,0
189,281,0,0,0,0,0,0,0,0,0,-1,1413,743,0,0
196,281,0,0,0,0,0,0,0,0,0,-1,1420,743,0,0
203,281,0,0,0,0,0,0,0,0,0,-1,1427,743,0,0
210,281,0,0,0,0,0,0,0,0,0,-1,1434,743,0,0
217,281,0,0,0,0,0,0,0,0,0,-1,1441,743,0,0
224,281,0,0,0,0,0,0,0,0,0,-1,1448,743,0,0
231,281,0,0,0,0,0,0,0,0,0,-1,1455,743,0,0
238,281,0,0,0,0,0,0,0,0,0,-1,1462,743,0,0
245,281,0,0,0,0,0,0,0,0,0,-1,1469,743,0,0
252,281,0,0,0,0,0,0,0,0,0,-1,1476,743,0,0
259,281,0,0,0,0,0,0,0,0,0,-1,1483,743,0,0
266,281,0,0,0,0,0,0,0,0,0,-1,1490,743,0,0
273,281,0,0,0,0,0,0,0,0,0,-1,1497,743,0,0
280,281,0,0,0,0,0,0,0,0,0,-1,1504,743,0,0
287,281,0,0,0,0,0,0,0,0,0,-1,1511,743,0,0
294,281,0,0,0,0,0,0,0,0,0,-1,1518,743,0,0
301,281,0,0,0,0,0,0,0,0,0,-1,1525,743,0,0
308,281,0,0,0,0,0,0,0,0,0,-1,1532,743,0,0
315,281,0,0,0,0,0,0,0,0,0,-1,1539,743,0,0
322,281,0,0,0,0,0,0,0,0,0,-1,1546,743,0,0
329,281,0,0,0,0,0,0,0,0,0,-1,1553,743,0,0
336,281,0,0,0,0,0,0,0,0,0,-1,1560,743,0,0
343,281,0,0,0,0,0,0,0,0,0,-1,1567,743,0,0
350,281,0,0,0,0,0,0,0,0,0,-1,1574,743,0,0
357,281,0,0,0,0,0,0,0,0,0,-1,1581,743,0,0
364,281,0,0,0,0,0,0,0,0,0,-1,1588,743,0,0
371,281,0,0,0,0,0,0,0,0,0,-1,1595,743,0,0
378,281,0,0,0,0,0,0,0,0,0,-1,1602,743,0,0
385,281,0,0,0,0,0,0,0,0,0,-1,1609,743,0,0
392,281,0,0,0,0,0,0,0,0,0,-1,1616,743,0,0
399,281,0,0,0,0,0,0,0,0,0,-1,1623,743,0,0
406,281,0,0,0,0,0,0,0,0,0,-1,1630,743,0,0
413,281,0,0,0,0,0,0,0,0,0,-1,1637,743,0,0
420,281,0,0,0,0,0,0,0,0,0,-1,1644,743,0,0
427,281,0,0,0,0,0,0,0,0,0,-1,1651,743,0,0
434,281,0,0,0,0,0,0,0,0,0,-1,1658,743,0,0
441,281,0,0,0,0,0,0,0,0,0,-1,1665,743,0,0
448,281,0,0,0,0,0,0,0,0,0,-1,1672,743,0,0
455,281,0,0,0,0,0,0,0,0,0,-1,1679,743,0,0
462,281,0,0,0,0,0,0,0,0,0,-1,1686,743,0,0
469,281,0,0,0,0,0,0,0,0,0,-1,1693,743,0,0
476,281,0,0,0,0,0,0,0,0,0,-1,1700,743,0,0
483,281,0,0,0,0,0,0,0,0,0,-1,1707,743,0,0
490,281,0,0,0,0,0,0,0,0,0,-1,1714,743,0,0
497,281,0,0,0,0,0,0,0,0,0,-1,1721,743,0,0
504,281,0,0,0,0,0,0,0,0,0,-1,1728,743,0,0
511,281,0,0,0,0,0,0,0,0,0,-1,1735,743,0,0
518,281,0,0,0,0,0,0,0,0,0,-1,1742,743,0,0
525,281,0,0,0,0,0,0,0,0,0,-1,1749,743,0,0
532,281,0,0,0,0,0,0,0,0,0,-1,1756,743,0,0
539,281,0,0,0,0,0,0,0,0,0,-1,1763,743,0,0
546,281,0,0,0,0,0,0,0,0,0,-1,1770,743,0,0
553,281,0,0,0,0,0,0,0,0,0,-1,1777,743,0,0
560,281,48.1221,2.78314,0,0,0,0,0,0,0,-1,1784,743,48.1221,-2.78313
567,281,47.6973,3.24493,0,0,0,0,0,0,0,-1,1791,743,47.6972,-3.24495
574,281,48.4244,2.6792,0,0,0,0,0,0,0,-1,1798,743,48.4244,-2.67918
581,281,48.3665,3.49365,-0.0256999,0.0387446,0.0365339,0.0552358,-0.0421911,1.14678,0.0564172,0.0433585,1805,743,48.3665,-3.49367
588,281,48.444,4.16034,-0.0147997,0.030618,0.0307796,0.0461593,-0.030341,1.10322,0.0444811,0.0462052,1812,743,48.4439,-4.16034
595,281,48.5212,5.06024,0,0,0,0,0,0,0,-1,1819,743,48.5212,-5.06024
602,281,45.9985,3.98254,0,0,0,0,0,0,0,-1,1826,743,45.9985,-3.98254
609,281,32.7925,1.28723,0,0,0,0,0,0,0,-1,1833,743,32.7925,-1.28722
616,281,21.3191,-0.253906,0,0,0,0,0,0,0,-1,1840,743,21.3191,0.253931
623,281,30.5835,-4.11304,0,0,0,0,0,0,0,-1,1847,743,30.5835,4.11306
630,281,30.7213,-3.66833,0.0100537,0.00167836,0.00686093,0.013904,-0.00217193,0.511395,0.0100717,0.0480391,1854,743,30.7214,3.66832
637,281,30.7889,-3.16772,0.00828431,-6.65042e-06,0.00499602,0.0106308,-0.0023531,0.439086,0.00798792,0.0153329,1861,743,30.7889,3.16775
644,281,30.7921,-2.56506,0.00557058,-0.00123845,0.00336836,0.00695528,-0.00262315,0.39003,0.00571554,0.0105102,1868,743,30.7921,2.56504
651,281,30.795,-1.97614,0.00247554,-0.000927935,0.00156704,0.00308714,-0.00153954,0.372108,0.00272057,0.0119612,1875,743,30.795,1.97616
658,281,30.7561,-1.37842,0.000692208,-0.000690677,7.58397e-05,0.000696355,-0.000694823,0.0546233,0.000803197,0.0199708,1882,743,30.756,1.37844
665,281,30.6975,-0.76593,1.79348e-05,0.000200326,0.000152864,0.000287131,-6.887e-05,1.05435,0.000218034,0.0196904,1889,743,30.6975,0.765944
672,281,30.6954,-0.184875,-0.000516667,0.00119495,0.000330939,0.00125671,-0.000578425,1.3863,0.00108337,0.012651,1896,743,30.6954,0.184876
679,281,30.7039,0.379578,-0.000486438,0.00267064,0.00100309,0.00296239,-0.000778188,1.28775,0.00227905,0.0196663,1903,743,30.7038,-0.379601
686,281,30.6591,0.929565,-0.000460873,0.00422436,0.00168064,0.00476486,-0.00100138,1.25964,0.00355766,0.015445,1910,743,30.6591,-0.929548
693,281,30.6385,1.54462,8.67577e-05,0.00613137,0.00273719,0.00718663,-0.000968501,1.20283,0.0051444,0.0120721,1917,743,30.6386,-1.54461
700,281,30.6071,2.17694,0.00150298,0.00869244,0.00443081,0.0108033,-0.000607918,1.1262,0.00741318,0.0306739,1924,743,30.6071,-2.17697
707,281,30.6652,2.78607,0,0,0,0,0,0,0,-1,1931,743,30.6651,-2.78607
714,281,25.0125,2.5105,0,0,0,0,0,0,0,-1,1938,743,25.0124,-2.51053
721,281,16.9656,3.22174,0,0,0,0,0,0,0,-1,1945,743,16.9656,-3.22172
728,281,19.0251,3.63934,0,0,0,0,0,0,0,-1,1952,743,19.0252,-3.63932
735,281,19.0869,2.50311,0,0,0,0,0,0,0,-1,1959,743,19.0869,-2.5031
742,281,0,0,0,0,0,0,0,0,0,-1,1966,743,0,0
749,281,0,0,0,0,0,0,0,0,0,-1,1973,743,0,0
756,281,0,0,0,0,0,0,0,0,0,-1,1980,743,0,0
763,281,0,0,0,0,0,0,0,0,0,-1,1987,743,0,0
770,281,0,0,0,0,0,0,0,0,0,-1,1994,743,0,0
777,281,0,0,0,0,0,0,0,0,0,-1,2001,743,0,0
784,281,0,0,0,0,0,0,0,0,0,-1,2008,743,0,0
791,281,0,0,0,0,0,0,0,0,0,-1,2015,743,0,0
798,281,0,0,0,0,0,0,0,0,0,-1,2022,743,0,0
805,281,0,0,0,0,0,0,0,0,0,-1,2029,743,0,0
812,281,0,0,0,0,0,0,0,0,0,-1,2036,743,0,0
-700,274,0,0,0,0,0,0,0,0,0,-1,524,750,0,0
-693,274,0,0,0,0,0,0,0,0,0,-1,531,750,0,0
-686,274,0,0,0,0,0,0,0,0,0,-1,538,750,0,0
-679,274,0,0,0,0,0,0,0,0,0,-1,545,750,0,0
-672,274,0,0,0,0,0,0,0,0,0,-1,552,750,0,0
-665,274,0,0,0,0,0,0,0,0,0,-1,559,750,0,0
-658,274,0,0,0,0,0,0,0,0,0,-1,566,750,0,0
-651,274,0,0,0,0,0,0,0,0,0,-1,573,750,0,0
-644,274,0,0,0,0,0,0,0,0,0,-1,580,750,0,0
-637,274,0,0,0,0,0,0,0,0,0,-1,587,750,0,0
-630,274,0,0,0,0,0,0,0,0,0,-1,594,750,0,0
-623,274,-19.6909,5.12701,0,0,0,0,0,0,0,-1,601,750,-19.6908,-5.12703
-616,274,-17.9133,3.9024,0,0,0,0,0,0,0,-1,608,750,-17.9133,-3.90239
-609,274,-18.6586,4.92523,0,0,0,0,0,0,0,-1,615,750,-18.6586,-4.92526
-602,274,-18.191,4.28918,0,0,0,0,0,0,0,-1,622,750,-18.191,-4.28919
-595,274,-18.4185,1.95624,0,0,0,0,0,0,0,-1,629,750,-18.4185,-1.95626
-588,274,-20.5248,1.90393,0,0,0,0,0,0,0,-1,636,750,-20.5248,-1.90395
-581,274,-20.4012,0.630005,0,0,0,0,0,0,0,-1,643,750,-20.4012,-0.630001
-574,274,-20.3099,0.114563,0.00401468,0.00605488,0.00278981,0.00800525,0.00206432,0.960673,0.00479907,0.0262371,650,750,-20.31,-0.114556
-567,274,-20.4828,-0.39502,0.00220518,0.00419202,0.00216626,0.00558178,0.000815418,1.00038,0.00348136,0.0246465,657,750,-20.4829,0.395037
-560,274,-20.5095,-0.909607,0.000963828,0.00263096,0.00181327,0.00379308,-0.000198298,1.00084,0.00259735,0.0143188,664,750,-20.5095,0.909612
-553,274,-20.489,-1.52069,0.000166903,0.00134562,0.00159671,0.00245827,-0.000945744,0.962196,0.00202895,0.00970479,671,750,-20.489,1.52069
-546,274,-20.5222,-2.06891,-0.000351183,0.000298195,0.00150093,0.00150915,-0.00156214,0.891919,0.0017733,0.0117986,678,750,-20.5222,2.06891
-539,274,-20.5266,-2.62476,-0.000759326,-0.000507562,0.00141276,0.000784909,-0.0020518,0.829833,0.00169134,0.0126783,685,750,-20.5266,2.62478
-532,274,-20.5355,-3.1665,-0.00121923,-0.00100213,0.00127297,0.000166909,-0.00238827,0.827932,0.00165063,0.0137194,692,750,-20.5355,3.16653
-525,274,-20.5759,-3.70612,-0.000890329,-0.00147628,0.000794248,-0.000336743,-0.00202986,0.608705,0.00125613,0.014283,699,750,-20.5759,3.70609
-518,274,-20.5927,-4.30664,0.000253396,-0.0023221,0.000221362,0.000272283,-0.00234099,0.0851172,0.00165888,0.0136439,706,750,-20.5927,4.30664
-511,274,-20.6084,-4.90155,0.00181905,-0.00352306,-0.000129089,0.00182216,-0.00352618,-0.0241457,0.00313967,0.0129701,713,750,-20.6084,4.90157
-504,274,-20.6887,-5.50739,0.00355915,-0.00470286,-0.000273483,0.00356819,-0.00471191,-0.033053,0.00479569,0.0253543,720,750,-20.6887,5.50737
-497,274,-20.5174,-6.24054,0,0,0,0,0,0,0,-1,727,750,-20.5174,6.24051
-490,274,-13.6545,-3.58826,0,0,0,0,0,0,0,-1,734,750,-13.6546,3.58825
-483,274,-27.8608,1.30981,0,0,0,0,0,0,0,-1,741,750,-27.8608,-1.30979
-476,274,-33.7561,-0.508606,0,0,0,0,0,0,0,-1,748,750,-33.7561,0.508636
-469,274,-36.8749,0.0674438,0,0,0,0,0,0,0,-1,755,750,-36.8749,-0.0674694
-462,274,-36.5469,0.236084,0,0,0,0,0,0,0,-1,762,750,-36.547,-0.236078
-455,274,-35.0296,0.743103,0,0,0,0,0,0,0,-1,769,750,-35.0296,-0.743097
-448,274,-35.0747,0.840027,0,0,0,0,0,0,0,-1,776,750,-35.0747,-0.840005
-441,274,0,0,0,0,0,0,0,0,0,-1,783,750,0,0
-434,274,0,0,0,0,0,0,0,0,0,-1,790,750,0,0
-427,274,0,0,0,0,0,0,0,0,0,-1,797,750,0,0
-420,274,0,0,0,0,0,0,0,0,0,-1,804,750,0,0
-413,274,0,0,0,0,0,0,0,0,0,-1,811,750,0,0
-406,274,0,0,0,0,0,0,0,0,0,-1,818,750,0,0
-399,274,0,0,0,0,0,0,0,0,0,-1,825,750,0,0
-392,274,0,0,0,0,0,0,0,0,0,-1,832,750,0,0
-385,274,0,0,0,0,0,0,0,0,0,-1,839,750,0,0
-378,274,0,0,0,0,0,0,0,0,0,-1,846,750,0,0
-371,274,0,0,0,0,0,0,0,0,0,-1,853,750,0,0
-364,274,0,0,0,0,0,0,0,0,0,-1,860,750,0,0
-357,274,0,0,0,0,0,0,0,0,0,-1,867,750,0,0
-350,274,0,0,0,0,0,0,0,0,0,-1,874,750,0,0
-343,274,0,0,0,0,0,0,0,0,0,-1,881,750,0,0
-336,274,0,0,0,0,0,0,0,0,0,-1,888,750,0,0
-329,274,0,0,0,0,0,0,0,0,0,-1,895,750,0,0
-322,274,0,0,0,0,0,0,0,0,0,-1,902,750,0,0
-315,274,0,0,0,0,0,0,0,0,0,-1,909,750,0,0
-308,274,0,0,0,0,0,0,0,0,0,-1,916,750,0,0
-301,274,0,0,0,0,0,0,0,0,0,-1,923,750,0,0
-294,274,0,0,0,0,0,0,0,0,0,-1,930,750,0,0
-287,274,0,0,0,0,0,0,0,0,0,-1,937,750,0,0
-280,274,0,0,0,0,0,0,0,0,0,-1,944,750,0,0
-273,274,0,0,0,0,0,0,0,0,0,-1,951,750,0,0
-266,274,0,0,0,0,0,0,0,0,0,-1,958,750,0,0
-259,274,0,0,0,0,0,0,0,0,0,-1,965,750,0,0
-252,274,0,0,0,0,0,0,0,0,0,-1,972,750,0,0
-245,274,0,0,0,0,0,0,0,0,0,-1,979,750,0,0
-238,274,0,0,0,0,0,0,0,0,0,-1,986,750,0,0
-231,274,0,0,0,0,0,0,0,0,0,-1,993,750,0,0
-224,274,0,0,0,0,0,0,0,0,0,-1,1000,750,0,0
-217,274,0,0,0,0,0,0,0,0,0,-1,1007,750,0,0
-210,274,0,0,0,0,0,0,0,0,0,-1,1014,750,0,0
-203,274,0,0,0,0,0,0,0,0,0,-1,1021,750,0,0
-196,274,0,0,0,0,0,0,0,0,0,-1,1028,750,0,0
-189,274,0,0,0,0,0,0,0,0,0,-1,1035,750,0,0
-182,274,0,0,0,0,0,0,0,0,0,-1,1042,750,0,0
-175,274,0,0,0,0,0,0,0,0,0,-1,1049,750,0,0
-168,274,0,0,0,0,0,0,0,0,0,-1,1056,750,0,0
-161,274,0,0,0,0,0,0,0,0,0,-1,1063,750,0,0
-154,274,0,0,0,0,0,0,0,0,0,-1,1070,750,0,0
-147,274,0,0,0,0,0,0,0,0,0,-1,1077,750,0,0
-140,274,0,0,0,0,0,0,0,0,0,-1,1084,750,0,0
-133,274,0,0,0,0,0,0,0,0,0,-1,1091,750,0,0
-126,274,0,0,0,0,0,0,0,0,0,-1,1098,750,0,0
-119,274,0,0,0,0,0,0,0,0,0,-1,1105,750,0,0
-112,274,0,0,0,0,0,0,0,0,0,-1,1112,750,0,0
-105,274,0,0,0,0,0,0,0,0,0,-1,1119,750,0,0
-98,274,0,0,0,0,0,0,0,0,0,-1,1126,750,0,0
-91,274,0,0,0,0,0,0,0,0,0,-1,1133,750,0,0
-84,274,0,0,0,0,0,0,0,0,0,-1,1140,750,0,0
-77,274,0,0,0,0,0,0,0,0,0,-1,1147,750,0,0
-70,274,0,0,0,0,0,0,0,0,0,-1,1154,750,0,0
-63,274,0,0,0,0,0,0,0,0,0,-1,1161,750,0,0
-56,274,0,0,0,0,0,0,0,0,0,-1,1168,750,0,0
-49,274,0,0,0,0,0,0,0,0,0,-1,1175,750,0,0
-42,274,0,0,0,0,0,0,0,0,0,-1,1182,750,0,0
-35,274,0,0,0,0,0,0,0,0,0,-1,1189,750,0,0
-28,274,0,0,0,0,0,0,0,0,0,-1,1196,750,0,0
-21,274,0,0,0,0,0,0,0,0,0,-1,1203,750,0,0
-14,274,0,0,0,0,0,0,0,0,0,-1,1210,750,0,0
-7,274,0,0,0,0,0,0,0,0,0,-1,1217,750,0,0
0,274,0,0,0,0,0,0,0,0,0,-1,1224,750,0,0
7,274,0,0,0,0,0,0,0,0,0,-1,1231,750,0,0
14,274,0,0,0,0,0,0,0,0,0,-1,1238,750,0,0
21,274,0,0,0,0,0,0,0,0,0,-1,1245,750,0,0
28,274,0,0,0,0,0,0,0,0,0,-1,1252,750,0,0
35,274,0,0,0,0,0,0,0,0,0,-1,1259,750,0,0
42,274,0,0,0,0,0,0,0,0,0,-1,1266,750,0,0
49,274,0,0,0,0,0,0,0,0,0,-1,1273,750,0,0
56,274,0,0,0,0,0,0,0,0,0,-1,1280,750,0,0
63,274,0,0,0,0,0,0,0,0,0,-1,1287,750,0,0
70,274,0,0,0,0,0,0,0,0,0,-1,1294,750,0,0
77,274,0,0,0,0,0,0,0,0,0,-1,1301,750,0,0
84,274,0,0,0,0,0,0,0,0,0,-1,1308,750,0,0
91,274,0,0,0,0,0,0,0,0,0,-1,1315,750,0,0
98,274,0,0,0,0,0,0,0,0,0,-1,1322,750,0,0
105,274,0,0,0,0,0,0,0,0,0,-1,1329,750,0,0
112,274,0,0,0,0,0,0,0,0,0,-1,1336,750,0,0
119,274,0,0,0,0,0,0,0,0,0,-1,1343,750,0,0
126,274,0,0,0,0,0,0,0,0,0,-1,1350,750,0,0
133,274,0,0,0,0,0,0,0,0,0,-1,1357,750,0,0
140,274,0,0,0,0,0,0,0,0,0,-1,1364,750,0,0
147,274,0,0,0,0,0,0,0,0,0,-1,1371,750,0,0
154,274,0,0,0,0,0,0,0,0,0,-1,1378,750,0,0
161,274,0,0,0,0,0,0,0,0,0,-1,1385,750,0,0
168,274,0,0,0,0,0,0,0,0,0,-1,1392,750,0,0
175,274,0,0,0,0,0,0,0,0,0,-1,1399,750,0,0
182,274,0,0,0,0,0,0,0,0,0,-1,1406,750,0,0
189,274,0,0,0,0,0,0,0,0,0,-1,1413,750,0,0
196,274,0,0,0,0,0,0,0,0,0,-1,1420,750,0,0
203,274,0,0,0,0,0,0,0,0,0,-1,1427,750,0,0
210,274,0,0,0,0,0,0,0,0,0,-1,1434,750,0,0
217,274,0,0,0,0,0,0,0,0,0,-1,1441,750,0,0
224,274,0,0,0,0,0,0,0,0,0,-1,1448,750,0,0
231,274,0,0,0,0,0,0,0,0,0,-1,1455,750,0,0
238,274,0,0,0,0,0,0,0,0,0,-1,1462,750,0,0
245,274,0,0,0,0,0,0,0,0,0,-1,1469,750,0,0
252,274,0,0,0,0,0,0,0,0,0,-1,1476,750,0,0
259,274,0,0,0,0,0,0,0,0,0,-1,1483,750,0,0
266,274,0,0,0,0,0,0,0,0,0,-1,1490,750,0,0
273,274,0,0,0,0,0,0,0,0,0,-1,1497,750,0,0
280,274,0,0,0,0,0,0,0,0,0,-1,1504,750,0,0
287,274,0,0,0,0,0,0,0,0,0,-1,1511,750,0,0
294,274,0,0,0,0,0,0,0,0,0,-1,1518,750,0,0
301,274,0,0,0,0,0,0,0,0,0,-1,1525,750,0,0
308,274,0,0,0,0,0,0,0,0,0,-1,1532,750,0,0
315,274,0,0,0,0,0,0,0,0,0,-1,1539,750,0,0
322,274,0,0,0,0,0,0,0,0,0,-1,1546,750,0,0
329,274,0,0,0,0,0,0,0,0,0,-1,1553,750,0,0
336,274,0,0,0,0,0,0,0,0,0,-1,1560,750,0,0
343,274,0,0,0,0,0,0,0,0,0,-1,1567,750,0,0
350,274,0,0,0,0,0,0,0,0,0,-1,1574,750,0,0
357,274,0,0,0,0,0,0,0,0,0,-1,1581,750,0,0
364,274,0,0,0,0,0,0,0,0,0,-1,1588,750,0,0
371,274,0,0,0,0,0,0,0,0,0,-1,1595,750,0,0
378,274,0,0,0,0,0,0,0,0,0,-1,1602,750,0,0
385,274,0,0,0,0,0,0,0,0,0,-1,1609,750,0,0
392,274,0,0,0,0,0,0,0,0,0,-1,1616,750,0,0
399,274,0,0,0,0,0,0,0,0,0,-1,1623,750,0,0
406,274,0,0,0,0,0,0,0,0,0,-1,1630,750,0,0
413,274,0,0,0,0,0,0,0,0,0,-1,1637,750,0,0
420,274,0,0,0,0,0,0,0,0,0,-1,1644,750,0,0
427,274,0,0,0,0,0,0,0,0,0,-1,1651,750,0,0
434,274,0,0,0,0,0,0,0,0,0,-1,1658,750,0,0
441,274,0,0,0,0,0,0,0,0,0,-1,1665,750,0,0
448,274,0,0,0,0,0,0,0,0,0,-1,1672,750,0,0
455,274,0,0,0,0,0,0,0,0,0,-1,1679,750,0,0
462,274,0,0,0,0,0,0,0,0,0,-1,1686,750,0,0
469,274,0,0,0,0,0,0,0,0,0,-1,1693,750,0,0
476,274,0,0,0,0,0,0,0,0,0,-1,1700,750,0,0
483,274,0,0,0,0,0,0,0,0,0,-1,1707,750,0,0
490,274,0,0,0,0,0,0,0,0,0,-1,1714,750,0,0
497,274,0,0,0,0,0,0,0,0,0,-1,1721,750,0,0
504,274,0,0,0,0,0,0,0,0,0,-1,1728,750,0,0
511,274,0,0,0,0,0,0,0,0,0,-1,1735,750,0,0
518,274,0,0,0,0,0,0,0,0,0,-1,1742,750,0,0
525,274,0,0,0,0,0,0,0,0,0,-1,1749,750,0,0
532,274,0,0,0,0,0,0,0,0,0,-1,1756,750,0,0
539,274,0,0,0,0,0,0,0,0,0,-1,1763,750,0,0
546,274,0,0,0,0,0,0,0,0,0,-1,1770,750,0,0
553,274,0,0,0,0,0,0,0,0,0,-1,1777,750,0,0
560,274,48.2606,3.16077,0,0,0,0,0,0,0,-1,1784,750,48.2606,-3.16077
567,274,48.171,3.20801,0,0,0,0,0,0,0,-1,1791,750,48.171,-3.20803
574,274,48.7367,2.6889,0,0,0,0,0,0,0,-1,1798,750,48.7367,-2.68892
581,274,48.7664,3.14465,-0.0176507,0.0337316,0.0326052,0.0495511,-0.0334702,1.11907,0.0482312,0.0440253,1805,750,48.7664,-3.14467
588,274,48.9202,3.76953,-0.00778927,0.0265256,0.0279848,0.0421939,-0.0234575,1.0604,0.038415,0.0422169,1812,750,48.9201,-3.76955
595,274,50.2277,2.45001,0,0,0,0,0,0,0,-1,1819,750,50.2277,-2.45
602,274,51.6603,3.05664,0,0,0,0,0,0,0,-1,1826,750,51.6603,-3.05665
609,274,44.6676,3.10461,0,0,0,0,0,0,0,-1,1833,750,44.6676,-3.1046
616,274,32.7869,1.78436,0,0,0,0,0,0,0,-1,1840,750,32.7868,-1.78437
623,274,24.8231,-1.80353,0,0,0,0,0,0,0,-1,1847,750,24.8232,1.80351
630,274,31.269,-3.72913,0,0,0,0,0,0,0,-1,1854,750,31.269,3.72911
637,274,31.3635,-3.16223,0.00853721,-0.000116323,0.00513763,0.0109273,-0.00250641,0.435432,0.00824826,0.0173166,1861,750,31.3635,3.16222
644,274,31.3577,-2.54138,0.00600919,-0.00135538,0.00370864,0.00755311,-0.0028993,0.394482,0.00623089,0.0115327,1868,750,31.3577,2.54139
651,274,31.3619,-1.95837,0.00284213,-0.00118584,0.00179979,0.00352914,-0.00187285,0.364647,0.00316733,0.0131175,1875,750,31.3619,1.95835
658,274,31.337,-1.38226,0.000993987,-0.00120101,-6.42752e-05,0.000995868,-0.0012029,-0.0292491,0.00127133,0.015243,1882,750,31.3371,1.38229
665,274,31.2941,-0.767395,0.000513988,-0.000346528,2.41999e-05,0.000514668,-0.000347208,0.028093,0.000500725,0.0143003,1889,750,31.2941,0.767392
672,274,31.2961,-0.173889,0.000212474,0.000673888,0.000259484,0.000790396,9.59663e-05,1.14878,0.000498033,0.0121413,1896,750,31.2961,0.173874
679,274,31.2975,0.409546,0.000528845,0.002206,0.00102668,0.00269304,4.17974e-05,1.12784,0.00178159,0.0145694,1903,750,31.2974,-0.409572
686,274,31.2722,0.985046,0.000898162,0.00382896,0.00182398,0.00470329,2.3837e-05,1.12381,0.00312761,0.0163969,1910,750,31.2722,-0.985054
693,274,31.2299,1.5863,0.00181937,0.00577345,0.00301879,0.00740498,0.000187838,1.07531,0.00487525,0.0131885,1917,750,31.2299,-1.58632
700,274,31.2186,2.2226,0.00358698,0.00827322,0.00481588,0.0112857,0.00057446,1.01181,0.00733984,0.0161205,1924,750,31.2186,-2.2226
707,274,31.1149,2.85968,0.00656589,0.0115202,0.00756278,0.0170012,0.00108491,0.943665,0.0109904,0.0287048,1931,750,31.1148,-2.85969
714,274,31.222,3.49072,0,0,0,0,0,0,0,-1,1938,750,31.2221,-3.49071
721,274,25.6215,3.91144,0,0,0,0,0,0,0,-1,1945,750,25.6214,-3.91141
728,274,19.2209,3.95154,0,0,0,0,0,0,0,-1,1952,750,19.221,-3.95151
735,274,20.6608,4.10931,0,0,0,0,0,0,0,-1,1959,750,20.6607,-4.10932
742,274,11.7815,-0.740234,0,0,0,0,0,0,0,-1,1966,750,11.7815,0.740253
749,274,0,0,0,0,0,0,0,0,0,-1,1973,750,0,0
756,274,0,0,0,0,0,0,0,0,0,-1,1980,750,0,0
763,274,0,0,0,0,0,0,0,0,0,-1,1987,750,0,0
770,274,0,0,0,0,0,0,0,0,0,-1,1994,750,0,0
777,274,0,0,0,0,0,0,0,0,0,-1,2001,750,0,0
784,274,0,0,0,0,0,0,0,0,0,-1,2008,750,0,0
791,274,0,0,0,0,0,0,0,0,0,-1,2015,750,0,0
798,274,0,0,0,0,0,0,0,0,0,-1,2022,750,0,0
805,274,0,0,0,0,0,0,0,0,0,-1,2029,750,0,0
812,274,0,0,0,0,0,0,0,0,0,-1,2036,750,0,0
-700,267,0,0,0,0,0,0,0,0,0,-1,524,757,0,0
-693,267,0,0,0,0,0,0,0,0,0,-1,531,757,0,0
-686,267,0,0,0,0,0,0,0,0,0,-1,538,757,0,0
-679,267,0,0,0,0,0,0,0,0,0,-1,545,757,0,0
-672,267,0,0,0,0,0,0,0,0,0,-1,552,757,0,0
-665,267,0,0,0,0,0,0,0,0,0,-1,559,757,0,0
-658,267,0,0,0,0,0,0,0,0,0,-1,566,757,0,0
-651,267,0,0,0,0,0,0,0,0,0,-1,573,757,0,0
-644,267,0,0,0,0,0,0,0,0,0,-1,580,757,0,0
-637,267,0,0,0,0,0,0,0,0,0,-1,587,757,0,0
-630,267,-21.3979,5.17529,0,0,0,0,0,0,0,-1,594,757,-21.3979,-5.17529
-623,267,-20.043,4.43115,0,0,0,0,0,0,0,-1,601,757,-20.043,-4.43116
-616,267,-18.6576,5.19214,0,0,0,0,0,0,0,-1,608,757,-18.6576,-5.19215
-609,267,-18.6078,4.34973,0,0,0,0,0,0,0,-1,615,757,-18.6078,-4.34976
-602,267,-19.3658,2.84296,0,0,0,0,0,0,0,-1,622,757,-19.3658,-2.84295
-595,267,-21.3326,1.9726,0,0,0,0,0,0,0,-1,629,757,-21.3327,-1.97262
-588,267,-21.1087,1.47266,0.0106893,0.0110753,0.00296537,0.0138539,0.00791066,0.817887,0.00802541,0.0466135,636,757,-21.1087,-1.47265
-581,267,-20.9009,0.89917,0.00696354,0.00788175,0.00220449,0.00967443,0.00517086,0.888059,0.00558996,0.0348842,643,757,-20.9009,-0.899165
-574,267,-20.9194,0.23645,0.00438797,0.00563543,0.00178475,0.0069023,0.0031211,0.953504,0.00399111,0.0207069,650,757,-20.9195,-0.23645
-567,267,-21.0134,-0.288513,0.00252706,0.00384231,0.00151814,0.00483915,0.00153023,0.989787,0.0028561,0.0263477,657,757,-21.0135,0.288531
-560,267,-21.0451,-0.85907,0.00115368,0.00230328,0.00142766,0.0032675,0.000189456,0.976779,0.00211801,0.0229779,664,757,-21.0451,0.859095
-553,267,-21.0532,-1.4696,0.00016435,0.000982443,0.00143767,0.00206812,-0.000921328,0.923997,0.00176778,0.0186067,671,757,-21.0532,1.46963
-546,267,-21.066,-2.05133,-0.000522026,-7.53528e-05,0.00151867,0.00123632,-0.0018337,0.858405,0.00178362,0.0119723,678,757,-21.066,2.05131
-539,267,-21.0704,-2.61938,-0.00111393,-0.000794876,0.00149922,0.00055328,-0.00246208,0.838402,0.00185355,0.0115577,685,757,-21.0703,2.6194
-532,267,-21.0651,-3.18921,-0.00164467,-0.0011259,0.00138108,1.99398e-05,-0.00279051,0.878224,0.00186702,0.0125405,692,757,-21.065,3.18919
-525,267,-21.1262,-3.71143,-0.00126286,-0.00150128,0.000785454,-0.00058762,-0.00217652,0.710086,0.00130018,0.0116563,699,757,-21.1262,3.71143
-518,267,-21.1724,-4.2691,-5.41274e-05,-0.00228158,0.000102647,-4.94072e-05,-0.0022863,0.0459528,0.001508,0.0120317,706,757,-21.1724,4.26908
-511,267,-21.157,-4.84753,0.00153668,-0.00341756,-0.000342606,0.00156026,-0.00344114,-0.068718,0.00295484,0.0183251,713,757,-21.157,4.84752
-504,267,-21.2519,-5.32751,0.0032742,-0.00450073,-0.000575991,0.00331664,-0.00454317,-0.073548,0.00455624,0.0347153,720,757,-21.2519,5.32753
-497,267,-21.4354,-5.78827,0,0,0,0,0,0,0,-1,727,757,-21.4354,5.7883
-490,267,-23.4949,-0.494995,0,0,0,0,0,0,0,-1,734,757,-23.4949,0.494981
-483,267,-33.2785,-0.448425,0,0,0,0,0,0,0,-1,741,757,-33.2785,0.448407
-476,267,-36.8812,0.471985,0,0,0,0,0,0,0,-1,748,757,-36.8812,-0.472006
-469,267,-36.8453,0.270203,0.0220704,-0.0215505,0.00300037,0.0222758,-0.0217559,0.068354,0.0254223,0.0476466,755,757,-36.8453,-0.270199
-462,267,-36.4916,0.414551,0.0278734,-0.0294655,0.00728481,0.0287844,-0.0303765,0.124415,0.0341607,0.0480666,762,757,-36.4916,-0.414539
-455,267,-36.1314,0.582703,0,0,0,0,0,0,0,-1,769,757,-36.1314,-0.582717
-448,267,-34.98,1.41986,0,0,0,0,0,0,0,-1,776,757,-34.98,-1.41989
-441,267,0,0,0,0,0,0,0,0,0,-1,783,757,0,0
-434,267,0,0,0,0,0,0,0,0,0,-1,790,757,0,0
-427,267,0,0,0,0,0,0,0,0,0,-1,797,757,0,0
-420,267,0,0,0,0,0,0,0,0,0,-1,804,757,0,0
-413,267,0,0,0,0,0,0,0,0,0,-1,811,757,0,0
-406,267,0,0,0,0,0,0,0,0,0,-1,818,757,0,0
-399,267,0,0,0,0,0,0,0,0,0,-1,825,757,0,0
-392,267,0,0,0,0,0,0,0,0,0,-1,832,757,0,0
-385,267,0,0,0,0,0,0,0,0,0,-1,839,757,0,0
-378,267,0,0,0,0,0,0,0,0,0,-1,846,757,0,0
-371,267,0,0,0,0,0,0,0,0,0,-1,853,757,0,0
-364,267,0,0,0,0,0,0,0,0,0,-1,860,757,0,0
-357,267,0,0,0,0,0,0,0,0,0,-1,867,757,0,0
-350,267,0,0,0,0,0,0,0,0,0,-1,874,757,0,0
-343,267,0,0,0,0,0,0,0,0,0,-1,881,757,0,0
-336,267,0,0,0,0,0,0,0,0,0,-1,888,757,0,0
-329,267,0,0,0,0,0,0,0,0,0,-1,895,757,0,0
-322,267,0,0,0,0,0,0,0,0,0,-1,902,757,0,0
-315,267,0,0,0,0,0,0,0,0,0,-1,909,757,0,0
-308,267,0,0,0,0,0,0,0,0,0,-1,916,757,0,0
-301,267,0,0,0,0,0,0,0,0,0,-1,923,757,0,0
-294,267,0,0,0,0,0,0,0,0,0,-1,930,757,0,0
-287,267,0,0,0,0,0,0,0,0,0,-1,937,757,0,0
-280,267,0,0,0,0,0,0,0,0,0,-1,944,757,0,0
-273,267,0,0,0,0,0,0,0,0,0,-1,951,757,0,0
-266,267,0,0,0,0,0,0,0,0,0,-1,958,757,0,0
-259,267,0,0,0,0,0,0,0,0,0,-1,965,757,0,0
-252,267,0,0,0,0,0,0,0,0,0,-1,972,757,0,0
-245,267,0,0,0,0,0,0,0,0,0,-1,979,757,0,0
-238,267,0,0,0,0,0,0,0,0,0,-1,986,757,0,0
-231,267,0,0,0,0,0,0,0,0,0,-1,993,757,0,0
-224,267,0,0,0,0,0,0,0,0,0,-1,1000,757,0,0
-217,267,0,0,0,0,0,0,0,0,0,-1,1007,757,0,0
-210,267,0,0,0,0,0,0,0,0,0,-1,1014,757,0,0
-203,267,0,0,0,0,0,0,0,0,0,-1,1021,757,0,0
-196,267,0,0,0,0,0,0,0,0,0,-1,1028,757,0,0
-189,267,0,0,0,0,0,0,0,0,0,-1,1035,757,0,0
-182,267,0,0,0,0,0,0,0,0,0,-1,1042,757,0,0
-175,267,0,0,0,0,0,0,0,0,0,-1,1049,757,0,0
-168,267,0,0,0,0,0,0,0,0,0,-1,1056,757,0,0
-161,267,0,0,0,0,0,0,0,0,0,-1,1063,757,0,0
-154,267,0,0,0,0,0,0,0,0,0,-1,1070,757,0,0
-147,267,0,0,0,0,0,0,0,0,0,-1,1077,757,0,0
-140,267,0,0,0,0,0,0,0,0,0,-1,1084,757,0,0
-133,267,0,0,0,0,0,0,0,0,0,-1,1091,757,0,0
-126,267,0,0,0,0,0,0,0,0,0,-1,1098,757,0,0
-119,267,0,0,0,0,0,0,0,0,0,-1,1105,757,0,0
-112,267,0,0,0,0,0,0,0,0,0,-1,1112,757,0,0
-105,267,0,0,0,0,0,0,0,0,0,-1,1119,757,0,0
-98,267,0,0,0,0,0,0,0,0,0,-1,1126,757,0,0
-91,267,0,0,0,0,0,0,0,0,0,-1,1133,757,0,0
-84,267,0,0,0,0,0,0,0,0,0,-1,1140,757,0,0
-77,267,0,0,0,0,0,0,0,0,0,-1,1147,757,0,0
-70,267,0,0,0,0,0,0,0,0,0,-1,1154,757,0,0
-63,267,0,0,0,0,0,0,0,0,0,-1,1161,757,0,0
-56,267,0,0,0,0,0,0,0,0,0,-1,1168,757,0,0
-49,267,0,0,0,0,0,0,0,0,0,-1,1175,757,0,0
-42,267,0,0,0,0,0,0,0,0,0,-1,1182,757,0,0
-35,267,0,0,0,0,0,0,0,0,0,-1,1189,757,0,0
-28,267,0,0,0,0,0,0,0,0,0,-1,1196,757,0,0
-21,267,0,0,0,0,0,0,0,0,0,-1,1203,757,0,0
-14,267,0,0,0,0,0,0,0,0,0,-1,1210,757,0,0
-7,267,0,0,0,0,0,0,0,0,0,-1,1217,757,0,0
0,267,0,0,0,0,0,0,0,0,0,-1,1224,757,0,0
7,267,0,0,0,0,0,0,0,0,0,-1,1231,757,0,0
14,267,0,0,0,0,0,0,0,0,0,-1,1238,757,0,0
21,267,0,0,0,0,0,0,0,0,0,-1,1245,757,0,0
28,267,0,0,0,0,0,0,0,0,0,-1,1252,757,0,0
35,267,0,0,0,0,0,0,0,0,0,-1,1259,757,0,0
42,267,0,0,0,0,0,0,0,0,0,-1,1266,757,0,0
49,267,0,0,0,0,0,0,0,0,0,-1,1273,757,0,0
56,267,0,0,0,0,0,0,0,0,0,-1,1280,757,0,0
63,267,0,0,0,0,0,0,0,0,0,-1,1287,757,0,0
70,267,0,0,0,0,0,0,0,0,0,-1,1294,757,0,0
77,267,0,0,0,0,0,0,0,0,0,-1,1301,757,0,0
84,267,0,0,0,0,0,0,0,0,0,-1,1308,757,0,0
91,267,0,0,0,0,0,0,0,0,0,-1,1315,757,0,0
98,267,0,0,0,0,0,0,0,0,0,-1,1322,757,0,0
105,267,0,0,0,0,0,0,0,0,0,-1,1329,757,0,0
112,267,0,0,0,0,0,0,0,0,0,-1,1336,757,0,0
119,267,0,0,0,0,0,0,0,0,0,-1,1343,757,0,0
126,267,0,0,0,0,0,0,0,0,0,-1,1350,757,0,0
133,267,0,0,0,0,0,0,0,0,0,-1,1357,757,0,0
140,267,0,0,0,0,0,0,0,0,0,-1,1364,757,0,0
147,267,0,0,0,0,0,0,0,0,0,-1,1371,757,0,0
154,267,0,0,0,0,0,0,0,0,0,-1,1378,757,0,0
161,267,0,0,0,0,0,0,0,0,0,-1,1385,757,0,0
168,267,0,0,0,0,0,0,0,0,0,-1,1392,757,0,0
175,267,0,0,0,0,0,0,0,0,0,-1,1399,757,0,0
182,267,0,0,0,0,0,0,0,0,0,-1,1406,757,0,0
189,267,0,0,0,0,0,0,0,0,0,-1,1413,757,0,0
196,267,0,0,0,0,0,0,0,0,0,-1,1420,757,0,0
203,267,0,0,0,0,0,0,0,0,0,-1,1427,757,0,0
210,267,0,0,0,0,0,0,0,0,0,-1,1434,757,0,0
217,267,0,0,0,0,0,0,0,0,0,-1,1441,757,0,0
224,267,0,0,0,0,0,0,0,0,0,-1,1448,757,0,0
231,267,0,0,0,0,0,0,0,0,0,-1,1455,757,0,0
238,267,0,0,0,0,0,0,0,0,0,-1,1462,757,0,0
245,267,0,0,0,0,0,0,0,0,0,-1,1469,757,0,0
252,267,0,0,0,0,0,0,0,0,0,-1,1476,757,0,0
259,267,0,0,0,0,0,0,0,0,0,-1,1483,757,0,0
266,267,0,0,0,0,0,0,0,0,0,-1,1490,757,0,0
273,267,0,0,0,0,0,0,0,0,0,-1,1497,757,0,0
280,267,0,0,0,0,0,0,0,0,0,-1,1504,757,0,0
287,267,0,0,0,0,0,0,0,0,0,-1,1511,757,0,0
294,267,0,0,0,0,0,0,0,0,0,-1,1518,757,0,0
301,267,0,0,0,0,0,0,0,0,0,-1,1525,757,0,0
308,267,0,0,0,0,0,0,0,0,0,-1,1532,757,0,0
315,267,0,0,0,0,0,0,0,0,0,-1,1539,757,0,0
322,267,0,0,0,0,0,0,0,0,0,-1,1546,757,0,0
329,267,0,0,0,0,0,0,0,0,0,-1,1553,757,0,0
336,267,0,0,0,0,0,0,0,0,0,-1,1560,757,0,0
343,267,0,0,0,0,0,0,0,0,0,-1,1567,757,0,0
350,267,0,0,0,0,0,0,0,0,0,-1,1574,757,0,0
357,267,0,0,0,0,0,0,0,0,0,-1,1581,757,0,0
364,267,0,0,0,0,0,0,0,0,0,-1,1588,757,0,0
371,267,0,0,0,0,0,0,0,0,0,-1,1595,757,0,0
378,267,0,0,0,0,0,0,0,0,0,-1,1602,757,0,0
385,267,0,0,0,0,0,0,0,0,0,-1,1609,757,0,0
392,267,0,0,0,0,0,0,0,0,0,-1,1616,757,0,0
399,267,0,0,0,0,0,0,0,0,0,-1,1623,757,0,0
406,267,0,0,0,0,0,0,0,0,0,-1,1630,757,0,0
413,267,0,0,0,0,0,0,0,0,0,-1,1637,757,0,0
420,267,0,0,0,0,0,0,0,0,0,-1,1644,757,0,0
427,267,0,0,0,0,0,0,0,0,0,-1,1651,757,0,0
434,267,0,0,0,0,0,0,0,0,0,-1,1658,757,0,0
441,267,0,0,0,0,0,0,0,0,0,-1,1665,757,0,0
448,267,0,0,0,0,0,0,0,0,0,-1,1672,757,0,0
455,267,0,0,0,0,0,0,0,0,0,-1,1679,757,0,0
462,267,0,0,0,0,0,0,0,0,0,-1,1686,757,0,0
469,267,0,0,0,0,0,0,0,0,0,-1,1693,757,0,0
476,267,0,0,0,0,0,0,0,0,0,-1,1700,757,0,0
483,267,0,0,0,0,0,0,0,0,0,-1,1707,757,0,0
490,267,0,0,0,0,0,0,0,0,0,-1,1714,757,0,0
497,267,0,0,0,0,0,0,0,0,0,-1,1721,757,0,0
504,267,0,0,0,0,0,0,0,0,0,-1,1728,757,0,0
511,267,0,0,0,0,0,0,0,0,0,-1,1735,757,0,0
518,267,0,0,0,0,0,0,0,0,0,-1,1742,757,0,0
525,267,0,0,0,0,0,0,0,0,0,-1,1749,757,0,0
532,267,0,0,0,0,0,0,0,0,0,-1,1756,757,0,0
539,267,0,0,0,0,0,0,0,0,0,-1,1763,757,0,0
546,267,0,0,0,0,0,0,0,0,0,-1,1770,757,0,0
553,267,0,0,0,0,0,0,0,0,0,-1,1777,757,0,0
560,267,0,0,0,0,0,0,0,0,0,-1,1784,757,0,0
567,267,48.6079,3.00922,0,0,0,0,0,0,0,-1,1791,757,48.6079,-3.00921
574,267,48.7039,2.99799,-0.0268158,0.0334642,0.0278898,0.0443883,-0.0377399,1.19748,0.0474685,0.0462082,1798,757,48.7039,-2.998
581,267,48.6952,3.17432,-0.0112534,0.0282022,0.0277747,0.0425422,-0.0255935,1.09419,0.0397418,0.0466933,1805,757,48.6952,-3.17431
588,267,49.2406,2.65009,0,0,0,0,0,0,0,-1,1812,757,49.2407,-2.65009
595,267,50.0035,2.51788,0.00377013,0.0167962,0.0210703,0.0323371,-0.0117708,0.935295,0.0263723,0.0473208,1819,757,50.0035,-2.5179
602,267,50.9233,2.83893,0.00693964,0.0122352,0.0174533,0.0272404,-0.00806552,0.860678,0.0213625,0.0466466,1826,757,50.9234,-2.83896
609,267,50.7717,3.49438,0,0,0,0,0,0,0,-1,1833,757,50.7717,-3.4944
616,267,44.2543,3.28918,0,0,0,0,0,0,0,-1,1840,757,44.2542,-3.28918
623,267,24.1475,-1.1391,0,0,0,0,0,0,0,-1,1847,757,24.1475,1.13913
630,267,32.2614,-3.36896,0,0,0,0,0,0,0,-1,1854,757,32.2614,3.36894
637,267,32.0347,-2.96808,0.00779346,0.000302291,0.00520191,0.010458,-0.00236222,0.473373,0.00787833,0.0376056,1861,757,32.0346,2.96807
644,267,31.9541,-2.51538,0.00543457,-0.000767782,0.00395593,0.00735999,-0.0026932,0.452965,0.00600906,0.0127895,1868,757,31.9541,2.51539
651,267,31.9407,-1.93768,0.00242868,-0.000716405,0.0021126,0.00348976,-0.00177749,0.465456,0.00309415,0.0134111,1875,757,31.9407,1.93768
658,267,31.9373,-1.35522,0.000676128,-0.00106141,-2.86145e-05,0.000676599,-0.00106188,-0.0164625,0.00101189,0.0135081,1882,757,31.9373,1.35525
665,267,31.9054,-0.743591,0.000442743,-0.000538642,-7.87397e-05,0.00044902,-0.00054492,-0.079555,0.000574741,0.0141645,1889,757,31.9054,0.74362
672,267,31.917,-0.157166,0.000382659,0.000259107,9.40587e-05,0.000433414,0.000208351,0.494834,0.000250294,0.0126724,1896,757,31.917,0.157163
679,267,31.9045,0.424561,0.000932934,0.00161884,0.000839555,0.00218279,0.000368987,0.979302,0.00134912,0.0127139,1903,757,31.9046,-0.424559
686,267,31.8752,1.02795,0.00160555,0.00316494,0.00170025,0.00425574,0.000514746,1.00038,0.0026821,0.0141872,1910,757,31.8752,-1.02795
693,267,31.8149,1.59564,0.00279217,0.00507989,0.00300086,0.0071475,0.000724559,0.967486,0.00454278,0.0143019,1917,757,31.8149,-1.59562
700,267,31.7965,2.211,0.00481074,0.00744888,0.00486796,0.0111733,0.0010863,0.917706,0.00711447,0.0148824,1924,757,31.7965,-2.21098
707,267,31.7701,2.80707,0.00797914,0.0104586,0.00759514,0.0169146,0.00152324,0.8663,0.0108045,0.0150025,1931,757,31.7701,-2.80708
714,267,31.7971,3.43256,0.0129896,0.0145776,0.0118043,0.0256146,0.00195263,0.81898,0.0164642,0.0355592,1938,757,31.7971,-3.43257
721,267,31.8739,4.07306,0,0,0,0,0,0,0,-1,1945,757,31.8739,-4.07308
728,267,26.7886,3.90027,0,0,0,0,0,0,0,-1,1952,757,26.7886,-3.90028
735,267,24.6713,2.82483,0,0,0,0,0,0,0,-1,1959,757,24.6713,-2.82483
742,267,18.1177,3.56561,0,0,0,0,0,0,0,-1,1966,757,18.1176,-3.56564
749,267,0,0,0,0,0,0,0,0,0,-1,1973,757,0,0
756,267,0,0,0,0,0,0,0,0,0,-1,1980,757,0,0
763,267,0,0,0,0,0,0,0,0,0,-1,1987,757,0,0
770,267,0,0,0,0,0,0,0,0,0,-1,1994,757,0,0
777,267,0,0,0,0,0,0,0,0,0,-1,2001,757,0,0
784,267,0,0,0,0,0,0,0,0,0,-1,2008,757,0,0
791,267,0,0,0,0,0,0,0,0,0,-1,2015,757,0,0
798,267,0,0,0,0,0,0,0,0,0,-1,2022,757,0,0
805,267,0,0,0,0,0,0,0,0,0,-1,2029,757,0,0
812,267,0,0,0,0,0,0,0,0,0,-1,2036,757,0,0
-700,260,0,0,0,0,0,0,0,0,0,-1,524,764,0,0
-693,260,0,0,0,0,0,0,0,0,0,-1,531,764,0,0
-686,260,0,0,0,0,0,0,0,0,0,-1,538,764,0,0
-679,260,0,0,0,0,0,0,0,0,0,-1,545,764,0,0
-672,260,0,0,0,0,0,0,0,0,0,-1,552,764,0,0
-665,260,0,0,0,0,0,0,0,0,0,-1,559,764,0,0
-658,260,0,0,0,0,0,0,0,0,0,-1,566,764,0,0
-651,260,0,0,0,0,0,0,0,0,0,-1,573,764,0,0
-644,260,0,0,0,0,0,0,0,0,0,-1,580,764,0,0
-637,260,0,0,0,0,0,0,0,0,0,-1,587,764,0,0
-630,260,-21.8905,4.49341,0,0,0,0,0,0,0,-1,594,764,-21.8905,-4.49342
-623,260,-20.3127,3.53546,0,0,0,0,0,0,0,-1,601,764,-20.3127,-3.53544
-616,260,-23.4346,3.65009,0,0,0,0,0,0,0,-1,608,764,-23.4345,-3.65008
-609,260,-18.557,3.77429,0,0,0,0,0,0,0,-1,615,764,-18.557,-3.77426
-602,260,-20.5432,2.90839,0,0,0,0,0,0,0,-1,622,764,-20.5432,-2.90838
-595,260,-22.726,1.59979,0,0,0,0,0,0,0,-1,629,764,-22.726,-1.59981
-588,260,-22.1413,1.14154,0.00961577,0.00997408,0.0014323,0.0112384,0.00835147,0.847617,0.00673931,0.0418657,636,764,-22.1413,-1.14152
-581,260,-21.5334,0.747803,0.00664155,0.0072162,0.00110517,0.00807078,0.00578697,0.912576,0.00480375,0.0265272,643,764,-21.5334,-0.747815
-574,260,-21.5527,0.232788,0.00436738,0.0051501,0.00101697,0.00584841,0.00366907,0.969077,0.0034129,0.0180903,650,764,-21.5527,-0.232782
-567,260,-21.5709,-0.26532,0.00258485,0.00340064,0.00103168,0.00410214,0.00188336,0.973652,0.00237101,0.0179452,657,764,-21.5709,0.265349
-560,260,-21.5972,-0.840088,0.00116821,0.00185004,0.00115807,0.00271633,0.000301916,0.928546,0.00171911,0.0205462,664,764,-21.5972,0.840066
-553,260,-21.6167,-1.44684,7.47123e-05,0.000472216,0.00135163,0.00163962,-0.0010927,0.858398,0.00158801,0.018157,671,764,-21.6167,1.44681
-546,260,-21.6209,-2.01703,-0.000762515,-0.000617225,0.00156998,0.00088179,-0.00226153,0.808517,0.00187217,0.0120975,678,764,-21.6209,2.01704
-539,260,-21.6191,-2.58472,-0.00152021,-0.00122527,0.00155056,0.000184815,-0.0029303,0.832809,0.00201796,0.0131419,685,764,-21.6191,2.58473
-532,260,-21.6172,-3.11115,-0.00209245,-0.00135989,0.00140673,-0.000272537,-0.00317981,0.91276,0.00203512,0.0179067,692,764,-21.6172,3.11116
-525,260,-21.6788,-3.69995,-0.00167993,-0.00159086,0.000697149,-0.000936825,-0.00233396,0.817295,0.00135622,0.0158812,699,764,-21.6788,3.69994
-518,260,-21.7554,-4.21442,-0.000495176,-0.00223544,-5.88364e-05,-0.000493189,-0.00223743,-0.0337574,0.00135743,0.0180318,706,764,-21.7554,4.21439
-511,260,-21.7571,-4.74139,0.00101149,-0.00322243,-0.000570827,0.0010871,-0.00329804,-0.13169,0.00263685,0.0328637,713,764,-21.7571,4.7414
-504,260,-21.8288,-5.26453,0,0,0,0,0,0,0,-1,720,764,-21.8288,5.26455
-497,260,-16.6542,-3.67334,0,0,0,0,0,0,0,-1,727,764,-16.6542,3.67331
-490,260,-29.4557,0.921387,0,0,0,0,0,0,0,-1,734,764,-29.4557,-0.921369
-483,260,-37.1813,0.530579,0,0,0,0,0,0,0,-1,741,764,-37.1813,-0.530578
-476,260,-37.0138,0.623291,0.0153152,-0.0143032,-0.000513151,0.0153241,-0.0143121,-0.0173185,0.0171138,0.0430015,748,764,-37.0138,-0.623274
-469,260,-36.7937,0.570129,0.0201884,-0.0197166,0.00138326,0.0202363,-0.0197645,0.0346085,0.023095,0.0449809,755,764,-36.7937,-0.57015
-462,260,-36.5185,0.67157,0.0251231,-0.0264798,0.00465922,0.0255404,-0.0268971,0.0893272,0.0302782,0.0432329,762,764,-36.5185,-0.671596
-455,260,-36.4371,0.902222,0.0295694,-0.0332501,0.00900104,0.0308336,-0.0345144,0.139545,0.0377486,0.0492351,769,764,-36.4371,-0.902234
-448,260,0,0,0,0,0,0,0,0,0,-1,776,764,0,0
-441,260,0,0,0,0,0,0,0,0,0,-1,783,764,0,0
-434,260,0,0,0,0,0,0,0,0,0,-1,790,764,0,0
-427,260,0,0,0,0,0,0,0,0,0,-1,797,764,0,0
-420,260,0,0,0,0,0,0,0,0,0,-1,804,764,0,0
-413,260,0,0,0,0,0,0,0,0,0,-1,811,764,0,0
-406,260,0,0,0,0,0,0,0,0,0,-1,818,764,0,0
-399,260,0,0,0,0,0,0,0,0,0,-1,825,764,0,0
-392,260,0,0,0,0,0,0,0,0,0,-1,832,764,0,0
-385,260,0,0,0,0,0,0,0,0,0,-1,839,764,0,0
-378,260,0,0,0,0,0,0,0,0,0,-1,846,764,0,0
-371,260,0,0,0,0,0,0,0,0,0,-1,853,764,0,0
-364,260,0,0,0,0,0,0,0,0,0,-1,860,764,0,0
-357,260,0,0,0,0,0,0,0,0,0,-1,867,764,0,0
-350,260,0,0,0,0,0,0,0,0,0,-1,874,764,0,0
-343,260,0,0,0,0,0,0,0,0,0,-1,881,764,0,0
-336,260,0,0,0,0,0,0,0,0,0,-1,888,764,0,0
-329,260,0,0,0,0,0,0,0,0,0,-1,895,764,0,0
-322,260,0,0,0,0,0,0,0,0,0,-1,902,764,0,0
-315,260,0,0,0,0,0,0,0,0,0,-1,909,764,0,0
-308,260,0,0,0,0,0,0,0,0,0,-1,916,764,0,0
-301,260,0,0,0,0,0,0,0,0,0,-1,923,764,0,0
-294,260,0,0,0,0,0,0,0,0,0,-1,930,764,0,0
-287,260,0,0,0,0,0,0,0,0,0,-1,937,764,0,0
-280,260,0,0,0,0,0,0,0,0,0,-1,944,764,0,0
-273,260,0,0,0,0,0,0,0,0,0,-1,951,764,0,0
-266,260,0,0,0,0,0,0,0,0,0,-1,958,764,0,0
-259,260,0,0,0,0,0,0,0,0,0,-1,965,764,0,0
-252,260,0,0,0,0,0,0,0,0,0,-1,972,764,0,0
-245,260,0,0,0,0,0,0,0,0,0,-1,979,764,0,0
-238,260,0,0,0,0,0,0,0,0,0,-1,986,764,0,0
-231,260,0,0,0,0,0,0,0,0,0,-1,993,764,0,0
-224,260,0,0,0,0,0,0,0,0,0,-1,1000,764,0,0
-217,260,0,0,0,0,0,0,0,0,0,-1,1007,764,0,0
-210,260,0,0,0,0,0,0,0,0,0,-1,1014,764,0,0
-203,260,0,0,0,0,0,0,0,0,0,-1,1021,764,0,0
-196,260,0,0,0,0,0,0,0,0,0,-1,1028,764,0,0
-189,260,0,0,0,0,0,0,0,0,0,-1,1035,764,0,0
-182,260,0,0,0,0,0,0,0,0,0,-1,1042,764,0,0
-175,260,0,0,0,0,0,0,0,0,0,-1,1049,764,0,0
-168,260,0,0,0,0,0,0,0,0,0,-1,1056,764,0,0
-161,260,0,0,0,0,0,0,0,0,0,-1,1063,764,0,0
-154,260,0,0,0,0,0,0,0,0,0,-1,1070,764,0,0
-147,260,0,0,0,0,0,0,0,0,0,-1,1077,764,0,0
-140,260,0,0,0,0,0,0,0,0,0,-1,1084,764,0,0
-133,260,0,0,0,0,0,0,0,0,0,-1,1091,764,0,0
-126,260,0,0,0,0,0,0,0,0,0,-1,1098,764,0,0
-119,260,0,0,0,0,0,0,0,0,0,-1,1105,764,0,0
-112,260,0,0,0,0,0,0,0,0,0,-1,1112,764,0,0
-105,260,0,0,0,0,0,0,0,0,0,-1,1119,764,0,0
-98,260,0,0,0,0,0,0,0,0,0,-1,1126,764,0,0
-91,260,0,0,0,0,0,0,0,0,0,-1,1133,764,0,0
-84,260,0,0,0,0,0,0,0,0,0,-1,1140,764,0,0
-77,260,0,0,0,0,0,0,0,0,0,-1,1147,764,0,0
-70,260,0,0,0,0,0,0,0,0,0,-1,1154,764,0,0
-63,260,0,0,0,0,0,0,0,0,0,-1,1161,764,0,0
-56,260,0,0,0,0,0,0,0,0,0,-1,1168,764,0,0
-49,260,0,0,0,0,0,0,0,0,0,-1,1175,764,0,0
-42,260,0,0,0,0,0,0,0,0,0,-1,1182,764,0,0
-35,260,0,0,0,0,0,0,0,0,0,-1,1189,764,0,0
-28,260,0,0,0,0,0,0,0,0,0,-1,1196,764,0,0
-21,260,0,0,0,0,0,0,0,0,0,-1,1203,764,0,0
-14,260,0,0,0,0,0,0,0,0,0,-1,1210,764,0,0
-7,260,0,0,0,0,0,0,0,0,0,-1,1217,764,0,0
0,260,0,0,0,0,0,0,0,0,0,-1,1224,764,0,0
7,260,0,0,0,0,0,0,0,0,0,-1,1231,764,0,0
14,260,0,0,0,0,0,0,0,0,0,-1,1238,764,0,0
21,260,0,0,0,0,0,0,0,0,0,-1,1245,764,0,0
28,260,0,0,0,0,0,0,0,0,0,-1,1252,764,0,0
35,260,0,0,0,0,0,0,0,0,0,-1,1259,764,0,0
42,260,0,0,0,0,0,0,0,0,0,-1,1266,764,0,0
49,260,0,0,0,0,0,0,0,0,0,-1,1273,764,0,0
56,260,0,0,0,0,0,0,0,0,0,-1,1280,764,0,0
63,260,0,0,0,0,0,0,0,0,0,-1,1287,764,0,0
70,260,0,0,0,0,0,0,0,0,0,-1,1294,764,0,0
77,260,0,0,0,0,0,0,0,0,0,-1,1301,764,0,0
84,260,0,0,0,0,0,0,0,0,0,-1,1308,764,0,0
91,260,0,0,0,0,0,0,0,0,0,-1,1315,764,0,0
98,260,0,0,0,0,0,0,0,0,0,-1,1322,764,0,0
105,260,0,0,0,0,0,0,0,0,0,-1,1329,764,0,0
112,260,0,0,0,0,0,0,0,0,0,-1,1336,764,0,0
119,260,0,0,0,0,0,0,0,0,0,-1,1343,764,0,0
126,260,0,0,0,0,0,0,0,0,0,-1,1350,764,0,0
133,260,0,0,0,0,0,0,0,0,0,-1,1357,764,0,0
140,260,0,0,0,0,0,0,0,0,0,-1,1364,764,0,0
147,260,0,0,0,0,0,0,0,0,0,-1,1371,764,0,0
154,260,0,0,0,0,0,0,0,0,0,-1,1378,764,0,0
161,260,0,0,0,0,0,0,0,0,0,-1,1385,764,0,0
168,260,0,0,0,0,0,0,0,0,0,-1,1392,764,0,0
175,260,0,0,0,0,0,0,0,0,0,-1,1399,764,0,0
182,260,0,0,0,0,0,0,0,0,0,-1,1406,764,0,0
189,260,0,0,0,0,0,0,0,0,0,-1,1413,764,0,0
196,260,0,0,0,0,0,0,0,0,0,-1,1420,764,0,0
203,260,0,0,0,0,0,0,0,0,0,-1,1427,764,0,0
210,260,0,0,0,0,0,0,0,0,0,-1,1434,764,0,0
217,260,0,0,0,0,0,0,0,0,0,-1,1441,764,0,0
224,260,0,0,0,0,0,0,0,0,0,-1,1448,764,0,0
231,260,0,0,0,0,0,0,0,0,0,-1,1455,764,0,0
238,260,0,0,0,0,0,0,0,0,0,-1,1462,764,0,0
245,260,0,0,0,0,0,0,0,0,0,-1,1469,764,0,0
252,260,0,0,0,0,0,0,0,0,0,-1,1476,764,0,0
259,260,0,0,0,0,0,0,0,0,0,-1,1483,764,0,0
266,260,0,0,0,0,0,0,0,0,0,-1,1490,764,0,0
273,260,0,0,0,0,0,0,0,0,0,-1,1497,764,0,0
280,260,0,0,0,0,0,0,0,0,0,-1,1504,764,0,0
287,260,0,0,0,0,0,0,0,0,0,-1,1511,764,0,0
294,260,0,0,0,0,0,0,0,0,0,-1,1518,764,0,0
301,260,0,0,0,0,0,0,0,0,0,-1,1525,764,0,0
308,260,0,0,0,0,0,0,0,0,0,-1,1532,764,0,0
315,260,0,0,0,0,0,0,0,0,0,-1,1539,764,0,0
322,260,0,0,0,0,0,0,0,0,0,-1,1546,764,0,0
329,260,0,0,0,0,0,0,0,0,0,-1,1553,764,0,0
336,260,0,0,0,0,0,0,0,0,0,-1,1560,764,0,0
343,260,0,0,0,0,0,0,0,0,0,-1,1567,764,0,0
350,260,0,0,0,0,0,0,0,0,0,-1,1574,764,0,0
357,260,0,0,0,0,0,0,0,0,0,-1,1581,764,0,0
364,260,0,0,0,0,0,0,0,0,0,-1,1588,764,0,0
371,260,0,0,0,0,0,0,0,0,0,-1,1595,764,0,0
378,260,0,0,0,0,0,0,0,0,0,-1,1602,764,0,0
385,260,0,0,0,0,0,0,0,0,0,-1,1609,764,0,0
392,260,0,0,0,0,0,0,0,0,0,-1,1616,764,0,0
399,260,0,0,0,0,0,0,0,0,0,-1,1623,764,0,0
406,260,0,0,0,0,0,0,0,0,0,-1,1630,764,0,0
413,260,0,0,0,0,0,0,0,0,0,-1,1637,764,0,0
420,260,0,0,0,0,0,0,0,0,0,-1,1644,764,0,0
427,260,0,0,0,0,0,0,0,0,0,-1,1651,764,0,0
434,260,0,0,0,0,0,0,0,0,0,-1,1658,764,0,0
441,260,0,0,0,0,0,0,0,0,0,-1,1665,764,0,0
448,260,0,0,0,0,0,0,0,0,0,-1,1672,764,0,0
455,260,0,0,0,0,0,0,0,0,0,-1,1679,764,0,0
462,260,0,0,0,0,0,0,0,0,0,-1,1686,764,0,0
469,260,0,0,0,0,0,0,0,0,0,-1,1693,764,0,0
476,260,0,0,0,0,0,0,0,0,0,-1,1700,764,0,0
483,260,0,0,0,0,0,0,0,0,0,-1,1707,764,0,0
490,260,0,0,0,0,0,0,0,0,0,-1,1714,764,0,0
497,260,0,0,0,0,0,0,0,0,0,-1,1721,764,0,0
504,260,0,0,0,0,0,0,0,0,0,-1,1728,764,0,0
511,260,0,0,0,0,0,0,0,0,0,-1,1735,764,0,0
518,260,0,0,0,0,0,0,0,0,0,-1,1742,764,0,0
525,260,0,0,0,0,0,0,0,0,0,-1,1749,764,0,0
532,260,0,0,0,0,0,0,0,0,0,-1,1756,764,0,0
539,260,0,0,0,0,0,0,0,0,0,-1,1763,764,0,0
546,260,0,0,0,0,0,0,0,0,0,-1,1770,764,0,0
553,260,0,0,0,0,0,0,0,0,0,-1,1777,764,0,0
560,260,0,0,0,0,0,0,0,0,0,-1,1784,764,0,0
567,260,0,0,0,0,0,0,0,0,0,-1,1791,764,0,0
574,260,48.7073,2.84229,-0.0249407,0.0255484,0.0182214,0.0314375,-0.0308298,1.25819,0.0359506,0.0383994,1798,764,48.7073,-2.8423
581,260,48.6317,3.06152,-0.00753744,0.0224611,0.0218542,0.0339681,-0.0190445,1.08615,0.0310085,0.0463724,1805,764,48.6317,-3.06152
588,260,49.0171,2.7478,0,0,0,0,0,0,0,-1,1812,764,49.0171,-2.7478
595,260,49.7565,2.5979,0.00658699,0.0137604,0.0186807,0.0291957,-0.00884823,0.880244,0.022988,0.0458533,1819,764,49.7564,-2.59791
602,260,50.2313,2.71747,0.00851691,0.0100743,0.0157111,0.025026,-0.00643482,0.81016,0.019192,0.0434666,1826,764,50.2314,-2.71744
609,260,49.9225,3.48657,0,0,0,0,0,0,0,-1,1833,764,49.9225,-3.48655
616,260,46.0709,2.74542,0,0,0,0,0,0,0,-1,1840,764,46.0709,-2.74545
623,260,32.2268,3.25836,0,0,0,0,0,0,0,-1,1847,764,32.2268,-3.25833
630,260,24.3739,-0.536316,0,0,0,0,0,0,0,-1,1854,764,24.3739,0.536343
637,260,32.724,-2.76807,0,0,0,0,0,0,0,-1,1861,764,32.7239,2.76807
644,260,32.6075,-2.44434,0.00365718,-0.000195749,0.00375117,0.00594766,-0.00248622,0.548178,0.00500414,0.0332914,1868,764,32.6075,2.44436
651,260,32.5852,-1.88202,0.000802739,-0.000167506,0.00208357,0.00245691,-0.00182168,0.67102,0.00247931,0.0155886,1875,764,32.5852,1.88199
658,260,32.5177,-1.29944,-0.000789803,-0.000681978,-0.000116549,-0.000607476,-0.000864305,-1.00203,0.000512513,0.015671,1882,764,32.5177,1.29946
665,260,32.4753,-0.717834,-0.000608383,-0.000491395,-0.000273134,-0.000270562,-0.000829216,-0.890885,0.000488285,0.0162913,1889,764,32.4754,0.717821
672,260,32.4781,-0.111938,-0.000178602,5.3676e-06,-0.000150299,8.95953e-05,-0.00026283,-1.06,0.000211508,0.0147613,1896,764,32.4781,0.111964
679,260,32.4568,0.468811,0.000799172,0.00108475,0.000547897,0.00150816,0.000375764,0.912869,0.000906527,0.0126177,1903,764,32.4568,-0.468831
686,260,32.434,1.05249,0.0019644,0.00245205,0.00142099,0.00364999,0.000766467,0.870364,0.00222234,0.0159476,1910,764,32.4339,-1.0525
693,260,32.3743,1.59985,0.00357168,0.004217,0.00276835,0.00668143,0.00110725,0.843413,0.00413492,0.0165944,1917,764,32.3742,-1.59986
700,260,32.3406,2.20355,0.00579006,0.00643685,0.00462576,0.0107505,0.0014764,0.820298,0.00672908,0.0146122,1924,764,32.3406,-2.20353
707,260,32.3451,2.7879,0.00907036,0.0091976,0.00721928,0.0163535,0.00191442,0.789804,0.0103236,0.0145876,1931,764,32.3451,-2.78792
714,260,32.3462,3.37872,0.013949,0.0128579,0.0110326,0.0244495,0.00235734,0.760693,0.0155735,0.0279612,1938,764,32.3463,-3.37872
721,260,32.3643,3.99377,0,0,0,0,0,0,0,-1,1945,764,32.3642,-3.99379
728,260,33.4344,5.75409,0,0,0,0,0,0,0,-1,1952,764,33.4345,-5.75408
735,260,26.9788,4.85681,0,0,0,0,0,0,0,-1,1959,764,26.9787,-4.85678
742,260,32.1443,1.73688,0,0,0,0,0,0,0,-1,1966,764,32.1442,-1.73688
749,260,33.6013,2.94733,0,0,0,0,0,0,0,-1,1973,764,33.6013,-2.9473
756,260,0,0,0,0,0,0,0,0,0,-1,1980,764,0,0
763,260,0,0,0,0,0,0,0,0,0,-1,1987,764,0,0
770,260,0,0,0,0,0,0,0,0,0,-1,1994,764,0,0
777,260,0,0,0,0,0,0,0,0,0,-1,2001,764,0,0
784,260,0,0,0,0,0,0,0,0,0,-1,2008,764,0,0
791,260,0,0,0,0,0,0,0,0,0,-1,2015,764,0,0
798,260,0,0,0,0,0,0,0,0,0,-1,2022,764,0,0
805,260,0,0,0,0,0,0,0,0,0,-1,2029,764,0,0
812,260,0,0,0,0,0,0,0,0,0,-1,2036,764,0,0
-700,253,0,0,0,0,0,0,0,0,0,-1,524,771,0,0
-693,253,0,0,0,0,0,0,0,0,0,-1,531,771,0,0
-686,253,0,0,0,0,0,0,0,0,0,-1,538,771,0,0
-679,253,0,0,0,0,0,0,0,0,0,-1,545,771,0,0
-672,253,0,0,0,0,0,0,0,0,0,-1,552,771,0,0
-665,253,0,0,0,0,0,0,0,0,0,-1,559,771,0,0
-658,253,0,0,0,0,0,0,0,0,0,-1,566,771,0,0
-651,253,0,0,0,0,0,0,0,0,0,-1,573,771,0,0
-644,253,0,0,0,0,0,0,0,0,0,-1,580,771,0,0
-637,253,-24.7979,-0.491394,0,0,0,0,0,0,0,-1,587,771,-24.7978,0.491371
-630,253,-25.156,0.540405,0,0,0,0,0,0,0,-1,594,771,-25.156,-0.540421
-623,253,-20.808,2.84314,0,0,0,0,0,0,0,-1,601,771,-20.8081,-2.84312
-616,253,-25.0877,2.96875,0,0,0,0,0,0,0,-1,608,771,-25.0877,-2.96876
-609,253,-24.28,2.08228,0,0,0,0,0,0,0,-1,615,771,-24.2801,-2.08227
-602,253,-23.0087,3.30829,0,0,0,0,0,0,0,-1,622,771,-23.0088,-3.30828
-595,253,-22.3691,1.89404,0,0,0,0,0,0,0,-1,629,771,-22.3691,-1.89403
-588,253,-22.2405,1.29633,0.00785591,0.00880712,0.000253204,0.00887032,0.0077927,1.32619,0.00558908,0.0379218,636,771,-22.2405,-1.29634
-581,253,-22.1055,0.737671,0.00564467,0.00642816,0.000280923,0.00651847,0.00555436,1.25974,0.00406259,0.0250163,643,771,-22.1055,-0.737644
-574,253,-22.1243,0.201843,0.00375909,0.00452892,0.000472686,0.00475359,0.00353442,1.1271,0.00285093,0.0213672,650,771,-22.1243,-0.201838
-567,253,-22.1449,-0.34082,0.00215917,0.00283288,0.00073047,0.00330043,0.00169163,1.00144,0.0019057,0.0171839,657,771,-22.1449,0.34085
-560,253,-22.1392,-0.843079,0.000805825,0.0012877,0.0010483,0.00212239,-2.88717e-05,0.898354,0.00142465,0.0136467,664,771,-22.1392,0.843082
-553,253,-22.1697,-1.40417,-0.000251908,-0.000102186,0.00138445,0.00120942,-0.00156352,0.812408,0.0016053,0.0126159,671,771,-22.1698,1.40416
-546,253,-22.1949,-1.95258,-0.00113572,-0.00115307,0.00169146,0.000547089,-0.00283588,0.782834,0.00209688,0.0116542,678,771,-22.195,1.95256
-539,253,-22.2397,-2.54706,-0.00196978,-0.00157638,0.00160707,-0.000154014,-0.00339215,0.846294,0.00221188,0.0131957,685,771,-22.2397,2.54704
-532,253,-22.2166,-3.1145,-0.00252984,-0.00150162,0.00137464,-0.000548103,-0.00348336,0.964343,0.00216282,0.0188936,692,771,-22.2166,3.11451
-525,253,-22.235,-3.66528,-0.00212896,-0.00158815,0.000570038,-0.00122763,-0.00248948,1.00686,0.00143735,0.0167872,699,771,-22.235,3.66527
-518,253,-22.3167,-4.19855,-0.00105357,-0.00208253,-0.000237573,-0.00100137,-0.00213474,-0.2163,0.00123328,0.0268492,706,771,-22.3166,4.19855
-511,253,-22.3966,-4.68781,0,0,0,0,0,0,0,-1,713,771,-22.3966,4.6878
-504,253,-19.317,-4.1723,0,0,0,0,0,0,0,-1,720,771,-19.317,4.1723
-497,253,-21.7737,-1.76837,0,0,0,0,0,0,0,-1,727,771,-21.7738,1.7684
-490,253,-29.7674,0.438354,0,0,0,0,0,0,0,-1,734,771,-29.7674,-0.438339
-483,253,-37.3339,0.757507,0,0,0,0,0,0,0,-1,741,771,-37.3339,-0.757498
-476,253,-37.1388,0.798035,0.0131226,-0.012285,-0.00170984,0.0132372,-0.0123995,-0.0668946,0.014804,0.0455896,748,771,-37.1388,-0.798061
-469,253,-36.8204,0.797241,0.0173701,-0.016836,-0.000323284,0.0173731,-0.0168391,-0.00944994,0.0197532,0.0431826,755,771,-36.8205,-0.797269
-462,253,-36.6564,0.791077,0.0214092,-0.0225093,0.0023636,0.0215361,-0.0226361,0.0536113,0.0255055,0.0443982,762,771,-36.6564,-0.791049
-455,253,-36.5361,1.01392,0.024652,-0.0284286,0.00656133,0.025451,-0.0292276,0.121181,0.0315938,0.0356864,769,771,-36.536,-1.01389
-448,253,0,0,0,0,0,0,0,0,0,-1,776,771,0,0
-441,253,0,0,0,0,0,0,0,0,0,-1,783,771,0,0
-434,253,0,0,0,0,0,0,0,0,0,-1,790,771,0,0
-427,253,0,0,0,0,0,0,0,0,0,-1,797,771,0,0
-420,253,0,0,0,0,0,0,0,0,0,-1,804,771,0,0
-413,253,0,0,0,0,0,0,0,0,0,-1,811,771,0,0
-406,253,0,0,0,0,0,0,0,0,0,-1,818,771,0,0
-399,253,0,0,0,0,0,0,0,0,0,-1,825,771,0,0
-392,253,0,0,0,0,0,0,0,0,0,-1,832,771,0,0
-385,253,0,0,0,0,0,0,0,0,0,-1,839,771,0,0
-378,253,0,0,0,0,0,0,0,0,0,-1,846,771,0,0
-371,253,0,0,0,0,0,0,0,0,0,-1,853,771,0,0
-364,253,0,0,0,0,0,0,0,0,0,-1,860,771,0,0
-357,253,0,0,0,0,0,0,0,0,0,-1,867,771,0,0
-350,253,0,0,0,0,0,0,0,0,0,-1,874,771,0,0
-343,253,0,0,0,0,0,0,0,0,0,-1,881,771,0,0
-336,253,0,0,0,0,0,0,0,0,0,-1,888,771,0,0
-329,253,0,0,0,0,0,0,0,0,0,-1,895,771,0,0
-322,253,0,0,0,0,0,0,0,0,0,-1,902,771,0,0
-315,253,0,0,0,0,0,0,0,0,0,-1,909,771,0,0
-308,253,0,0,0,0,0,0,0,0,0,-1,916,771,0,0
-301,253,0,0,0,0,0,0,0,0,0,-1,923,771,0,0
-294,253,0,0,0,0,0,0,0,0,0,-1,930,771,0,0
-287,253,0,0,0,0,0,0,0,0,0,-1,937,771,0,0
-280,253,0,0,0,0,0,0,0,0,0,-1,944,771,0,0
-273,253,0,0,0,0,0,0,0,0,0,-1,951,771,0,0
-266,253,0,0,0,0,0,0,0,0,0,-1,958,771,0,0
-259,253,0,0,0,0,0,0,0,0,0,-1,965,771,0,0
-252,253,0,0,0,0,0,0,0,0,0,-1,972,771,0,0
-245,253,0,0,0,0,0,0,0,0,0,-1,979,771,0,0
-238,253,0,0,0,0,0,0,0,0,0,-1,986,771,0,0
-231,253,0,0,0,0,0,0,0,0,0,-1,993,771,0,0
-224,253,0,0,0,0,0,0,0,0,0,-1,1000,771,0,0
-217,253,0,0,0,0,0,0,0,0,0,-1,1007,771,0,0
-210,253,0,0,0,0,0,0,0,0,0,-1,1014,771,0,0
-203,253,0,0,0,0,0,0,0,0,0,-1,1021,771,0,0
-196,253,0,0,0,0,0,0,0,0,0,-1,1028,771,0,0
-189,253,0,0,0,0,0,0,0,0,0,-1,1035,771,0,0
-182,253,0,0,0,0,0,0,0,0,0,-1,1042,771,0,0
-175,253,0,0,0,0,0,0,0,0,0,-1,1049,771,0,0
-168,253,0,0,0,0,0,0,0,0,0,-1,1056,771,0,0
-161,253,0,0,0,0,0,0,0,0,0,-1,1063,771,0,0
-154,253,0,0,0,0,0,0,0,0,0,-1,1070,771,0,0
-147,253,0,0,0,0,0,0,0,0,0,-1,1077,771,0,0
-140,253,0,0,0,0,0,0,0,0,0,-1,1084,771,0,0
-133,253,0,0,0,0,0,0,0,0,0,-1,1091,771,0,0
-126,253,0,0,0,0,0,0,0,0,0,-1,1098,771,0,0
-119,253,0,0,0,0,0,0,0,0,0,-1,1105,771,0,0
-112,253,0,0,0,0,0,0,0,0,0,-1,1112,771,0,0
-105,253,0,0,0,0,0,0,0,0,0,-1,1119,771,0,0
-98,253,0,0,0,0,0,0,0,0,0,-1,1126,771,0,0
-91,253,0,0,0,0,0,0,0,0,0,-1,1133,771,0,0
-84,253,0,0,0,0,0,0,0,0,0,-1,1140,771,0,0
-77,253,0,0,0,0,0,0,0,0,0,-1,1147,771,0,0
-70,253,0,0,0,0,0,0,0,0,0,-1,1154,771,0,0
-63,253,0,0,0,0,0,0,0,0,0,-1,1161,771,0,0
-56,253,0,0,0,0,0,0,0,0,0,-1,1168,771,0,0
-49,253,0,0,0,0,0,0,0,0,0,-1,1175,771,0,0
-42,253,0,0,0,0,0,0,0,0,0,-1,1182,771,0,0
-35,253,0,0,0,0,0,0,0,0,0,-1,1189,771,0,0
-28,253,0,0,0,0,0,0,0,0,0,-1,1196,771,0,0
-21,253,0,0,0,0,0,0,0,0,0,-1,1203,771,0,0
-14,253,0,0,0,0,0,0,0,0,0,-1,1210,771,0,0
-7,253,0,0,0,0,0,0,0,0,0,-1,1217,771,0,0
0,253,0,0,0,0,0,0,0,0,0,-1,1224,771,0,0
7,253,0,0,0,0,0,0,0,0,0,-1,1231,771,0,0
14,253,0,0,0,0,0,0,0,0,0,-1,1238,771,0,0
21,253,0,0,0,0,0,0,0,0,0,-1,1245,771,0,0
28,253,0,0,0,0,0,0,0,0,0,-1,1252,771,0,0
35,253,0,0,0,0,0,0,0,0,0,-1,1259,771,0,0
42,253,0,0,0,0,0,0,0,0,0,-1,1266,771,0,0
49,253,0,0,0,0,0,0,0,0,0,-1,1273,771,0,0
56,253,0,0,0,0,0,0,0,0,0,-1,1280,771,0,0
63,253,0,0,0,0,0,0,0,0,0,-1,1287,771,0,0
70,253,0,0,0,0,0,0,0,0,0,-1,1294,771,0,0
77,253,0,0,0,0,0,0,0,0,0,-1,1301,771,0,0
84,253,0,0,0,0,0,0,0,0,0,-1,1308,771,0,0
91,253,0,0,0,0,0,0,0,0,0,-1,1315,771,0,0
98,253,0,0,0,0,0,0,0,0,0,-1,1322,771,0,0
105,253,0,0,0,0,0,0,0,0,0,-1,1329,771,0,0
112,253,0,0,0,0,0,0,0,0,0,-1,1336,771,0,0
119,253,0,0,0,0,0,0,0,0,0,-1,1343,771,0,0
126,253,0,0,0,0,0,0,0,0,0,-1,1350,771,0,0
133,253,0,0,0,0,0,0,0,0,0,-1,1357,771,0,0
140,253,0,0,0,0,0,0,0,0,0,-1,1364,771,0,0
147,253,0,0,0,0,0,0,0,0,0,-1,1371,771,0,0
154,253,0,0,0,0,0,0,0,0,0,-1,1378,771,0,0
161,253,0,0,0,0,0,0,0,0,0,-1,1385,771,0,0
168,253,0,0,0,0,0,0,0,0,0,-1,1392,771,0,0
175,253,0,0,0,0,0,0,0,0,0,-1,1399,771,0,0
182,253,0,0,0,0,0,0,0,0,0,-1,1406,771,0,0
189,253,0,0,0,0,0,0,0,0,0,-1,1413,771,0,0
196,253,0,0,0,0,0,0,0,0,0,-1,1420,771,0,0
203,253,0,0,0,0,0,0,0,0,0,-1,1427,771,0,0
210,253,0,0,0,0,0,0,0,0,0,-1,1434,771,0,0
217,253,0,0,0,0,0,0,0,0,0,-1,1441,771,0,0
224,253,0,0,0,0,0,0,0,0,0,-1,1448,771,0,0
231,253,0,0,0,0,0,0,0,0,0,-1,1455,771,0,0
238,253,0,0,0,0,0,0,0,0,0,-1,1462,771,0,0
245,253,0,0,0,0,0,0,0,0,0,-1,1469,771,0,0
252,253,0,0,0,0,0,0,0,0,0,-1,1476,771,0,0
259,253,0,0,0,0,0,0,0,0,0,-1,1483,771,0,0
266,253,0,0,0,0,0,0,0,0,0,-1,1490,771,0,0
273,253,0,0,0,0,0,0,0,0,0,-1,1497,771,0,0
280,253,0,0,0,0,0,0,0,0,0,-1,1504,771,0,0
287,253,0,0,0,0,0,0,0,0,0,-1,1511,771,0,0
294,253,0,0,0,0,0,0,0,0,0,-1,1518,771,0,0
301,253,0,0,0,0,0,0,0,0,0,-1,1525,771,0,0
308,253,0,0,0,0,0,0,0,0,0,-1,1532,771,0,0
315,253,0,0,0,0,0,0,0,0,0,-1,1539,771,0,0
322,253,0,0,0,0,0,0,0,0,0,-1,1546,771,0,0
329,253,0,0,0,0,0,0,0,0,0,-1,1553,771,0,0
336,253,0,0,0,0,0,0,0,0,0,-1,1560,771,0,0
343,253,0,0,0,0,0,0,0,0,0,-1,1567,771,0,0
350,253,0,0,0,0,0,0,0,0,0,-1,1574,771,0,0
357,253,0,0,0,0,0,0,0,0,0,-1,1581,771,0,0
364,253,0,0,0,0,0,0,0,0,0,-1,1588,771,0,0
371,253,0,0,0,0,0,0,0,0,0,-1,1595,771,0,0
378,253,0,0,0,0,0,0,0,0,0,-1,1602,771,0,0
385,253,0,0,0,0,0,0,0,0,0,-1,1609,771,0,0
392,253,0,0,0,0,0,0,0,0,0,-1,1616,771,0,0
399,253,0,0,0,0,0,0,0,0,0,-1,1623,771,0,0
406,253,0,0,0,0,0,0,0,0,0,-1,1630,771,0,0
413,253,0,0,0,0,0,0,0,0,0,-1,1637,771,0,0
420,253,0,0,0,0,0,0,0,0,0,-1,1644,771,0,0
427,253,0,0,0,0,0,0,0,0,0,-1,1651,771,0,0
434,253,0,0,0,0,0,0,0,0,0,-1,1658,771,0,0
441,253,0,0,0,0,0,0,0,0,0,-1,1665,771,0,0
448,253,0,0,0,0,0,0,0,0,0,-1,1672,771,0,0
455,253,0,0,0,0,0,0,0,0,0,-1,1679,771,0,0
462,253,0,0,0,0,0,0,0,0,0,-1,1686,771,0,0
469,253,0,0,0,0,0,0,0,0,0,-1,1693,771,0,0
476,253,0,0,0,0,0,0,0,0,0,-1,1700,771,0,0
483,253,0,0,0,0,0,0,0,0,0,-1,1707,771,0,0
490,253,0,0,0,0,0,0,0,0,0,-1,1714,771,0,0
497,253,0,0,0,0,0,0,0,0,0,-1,1721,771,0,0
504,253,0,0,0,0,0,0,0,0,0,-1,1728,771,0,0
511,253,0,0,0,0,0,0,0,0,0,-1,1735,771,0,0
518,253,0,0,0,0,0,0,0,0,0,-1,1742,771,0,0
525,253,0,0,0,0,0,0,0,0,0,-1,1749,771,0,0
532,253,0,0,0,0,0,0,0,0,0,-1,1756,771,0,0
539,253,0,0,0,0,0,0,0,0,0,-1,1763,771,0,0
546,253,0,0,0,0,0,0,0,0,0,-1,1770,771,0,0
553,253,0,0,0,0,0,0,0,0,0,-1,1777,771,0,0
560,253,0,0,0,0,0,0,0,0,0,-1,1784,771,0,0
567,253,0,0,0,0,0,0,0,0,0,-1,1791,771,0,0
574,253,48.6862,2.71643,-0.0252102,0.0170111,0.00698855,0.0181378,-0.0263369,1.41095,0.0258225,0.0365724,1798,771,48.6861,-2.71646
581,253,48.6172,2.77014,-0.00508916,0.0160151,0.0142577,0.0232007,-0.0122748,1.10397,0.0208031,0.0423389,1805,771,48.6172,-2.77016
588,253,48.8795,2.75525,0.00536149,0.0134873,0.0166433,0.0265565,-0.00770769,0.905114,0.0207562,0.0461845,1812,771,48.8795,-2.75527
595,253,49.3733,2.64807,0.00929137,0.0106498,0.0157961,0.0257812,-0.00584008,0.806884,0.019429,0.0454179,1819,771,49.3733,-2.64806
602,253,49.4088,2.64465,0.0101125,0.00802426,0.0137746,0.0228825,-0.00474579,0.747571,0.0170584,0.0459686,1826,771,49.4088,-2.64464
609,253,49.1716,3.07849,0,0,0,0,0,0,0,-1,1833,771,49.1717,-3.07851
616,253,48.7629,3.48895,0,0,0,0,0,0,0,-1,1840,771,48.7629,-3.48894
623,253,48.028,2.24768,0,0,0,0,0,0,0,-1,1847,771,48.028,-2.24766
630,253,33.561,2.96838,0,0,0,0,0,0,0,-1,1854,771,33.561,-2.96836
637,253,22.3192,-0.604004,0,0,0,0,0,0,0,-1,1861,771,22.3192,0.603986
644,253,33.2933,-2.38641,0,0,0,0,0,0,0,-1,1868,771,33.2933,2.38639
651,253,33.123,-1.80664,-0.000303391,0.000612354,0.00215509,0.00235767,-0.00204871,0.890072,0.00254611,0.0292156,1875,771,33.1231,1.80663
658,253,33.0664,-1.26941,-0.00177652,4.10426e-05,2.14038e-05,4.12946e-05,-0.00177677,1.55902,0.00119851,0.0201237,1882,771,33.0664,1.26938
665,253,32.9725,-0.70636,-0.00152511,-0.000111891,-0.000272395,-6.12054e-05,-0.0015758,-1.38683,0.00103074,0.0220782,1889,771,32.9725,0.706381
672,253,32.9644,-0.103271,-0.000945296,1.33045e-05,-0.000271006,8.46156e-05,-0.00101661,-1.31349,0.000707632,0.017947,1896,771,32.9643,0.103255
679,253,33.0344,0.506287,0.000126966,0.000697618,0.000263534,0.0008007,2.38833e-05,1.19794,0.00052602,0.0133412,1903,771,33.0344,-0.506315
686,253,33.0132,1.09198,0.00147153,0.00177281,0.00102735,0.00266051,0.000583834,0.858192,0.00161464,0.0191977,1910,771,33.0131,-1.09195
693,253,32.9668,1.63641,0.00327736,0.00326668,0.00229411,0.00556614,0.000977903,0.784234,0.00343155,0.0197699,1917,771,32.9668,-1.63644
700,253,32.9413,2.18604,0.00543089,0.00521208,0.00404091,0.00936388,0.0012791,0.771864,0.00586291,0.016175,1924,771,32.9413,-2.18605
707,253,32.9354,2.77765,0.00827137,0.00743736,0.00637259,0.0142406,0.00146814,0.752726,0.00904415,0.0151864,1931,771,32.9355,-2.77764
714,253,32.9386,3.37317,0.0123174,0.0103106,0.00965039,0.0210164,0.00161158,0.733598,0.0135058,0.0215427,1938,771,32.9386,-3.37319
721,253,32.9781,4.07043,0.0175672,0.0136258,0.0139462,0.0296812,0.00151176,0.715208,0.0193033,0.0391377,1945,771,32.9781,-4.07044
728,253,33.7909,5.29291,0.0245196,0.0177163,0.0197,0.0411095,0.00112637,0.699904,0.0270387,0.0496233,1952,771,33.7909,-5.29291
735,253,34.5735,6.15118,0,0,0,0,0,0,0,-1,1959,771,34.5734,-6.1512
742,253,31.0571,5.7337,0,0,0,0,0,0,0,-1,1966,771,31.0571,-5.73373
749,253,33.7754,3.21533,0,0,0,0,0,0,0,-1,1973,771,33.7754,-3.21533
756,253,0,0,0,0,0,0,0,0,0,-1,1980,771,0,0
763,253,0,0,0,0,0,0,0,0,0,-1,1987,771,0,0
770,253,0,0,0,0,0,0,0,0,0,-1,1994,771,0,0
777,253,0,0,0,0,0,0,0,0,0,-1,2001,771,0,0
784,253,0,0,0,0,0,0,0,0,0,-1,2008,771,0,0
791,253,0,0,0,0,0,0,0,0,0,-1,2015,771,0,0
798,253,0,0,0,0,0,0,0,0,0,-1,2022,771,0,0
805,253,0,0,0,0,0,0,0,0,0,-1,2029,771,0,0
812,253,0,0,0,0,0,0,0,0,0,-1,2036,771,0,0
-700,246,0,0,0,0,0,0,0,0,0,-1,524,778,0,0
-693,246,0,0,0,0,0,0,0,0,0,-1,531,778,0,0
-686,246,0,0,0,0,0,0,0,0,0,-1,538,778,0,0
-679,246,0,0,0,0,0,0,0,0,0,-1,545,778,0,0
-672,246,0,0,0,0,0,0,0,0,0,-1,552,778,0,0
-665,246,0,0,0,0,0,0,0,0,0,-1,559,778,0,0
-658,246,0,0,0,0,0,0,0,0,0,-1,566,778,0,0
-651,246,0,0,0,0,0,0,0,0,0,-1,573,778,0,0
-644,246,0,0,0,0,0,0,0,0,0,-1,580,778,0,0
-637,246,-24.1234,0.130432,0,0,0,0,0,0,0,-1,587,778,-24.1234,-0.130438
-630,246,-24.0781,1.38916,0,0,0,0,0,0,0,-1,594,778,-24.0781,-1.38913
-623,246,-23.9183,2.49573,0,0,0,0,0,0,0,-1,601,778,-23.9183,-2.49575
-616,246,-26.8182,2.0705,0,0,0,0,0,0,0,-1,608,778,-26.8182,-2.07052
-609,246,-26.0615,1.16388,0,0,0,0,0,0,0,-1,615,778,-26.0615,-1.16388
-602,246,-21.8019,3.6532,0,0,0,0,0,0,0,-1,622,778,-21.8019,-3.6532
-595,246,-22.5549,2.06067,0,0,0,0,0,0,0,-1,629,778,-22.5549,-2.06067
-588,246,-22.6057,1.4035,0.0058922,0.00772489,-0.000394495,0.0078062,0.00581089,-1.36753,0.00468293,0.0305431,636,778,-22.6057,-1.40352
-581,246,-22.6832,0.805969,0.00435805,0.00562127,-0.000182492,0.0056471,0.00433222,-1.43016,0.00341197,0.0178837,643,778,-22.6832,-0.805967
-574,246,-22.6353,0.19928,0.00286149,0.0038528,0.00017725,0.00388354,0.00283075,1.39908,0.00231917,0.0189481,650,778,-22.6353,-0.199268
-567,246,-22.6587,-0.327454,0.00147207,0.00220856,0.00060096,0.00254512,0.0011355,1.06027,0.00147227,0.0212538,657,778,-22.6587,0.327465
-560,246,-22.7091,-0.844421,0.000227126,0.000697484,0.00105872,0.00154683,-0.000622217,0.894691,0.00128967,0.0168663,664,778,-22.7091,0.844408
-553,246,-22.7134,-1.34778,-0.000734233,-0.000654724,0.00148824,0.000794293,-0.00218325,0.798751,0.00178034,0.0135362,671,778,-22.7134,1.34779
-546,246,-22.7513,-1.8974,-0.00163683,-0.00162653,0.00185213,0.000220457,-0.00348382,0.786789,0.00239941,0.0112541,678,778,-22.7513,1.8974
-539,246,-22.7812,-2.49646,-0.0024893,-0.00185258,0.00167844,-0.000462573,-0.00387931,0.879122,0.00244663,0.0111888,685,778,-22.7812,2.49645
-532,246,-22.7701,-3.08002,-0.00296022,-0.00165482,0.00135964,-0.000799333,-0.00381571,1.00918,0.00232365,0.014764,692,778,-22.7701,3.08003
-525,246,-22.8198,-3.59955,-0.00258042,-0.00165678,0.000525143,-0.00141928,-0.00281792,1.14606,0.00162694,0.0250465,699,778,-22.8198,3.59956
-518,246,-22.9991,-3.94995,-0.0016448,-0.00202348,-0.000285674,-0.00149142,-0.00217687,-0.492744,0.00128521,0.0390547,706,778,-22.9991,3.94994
-511,246,-23.2868,-4.17236,0,0,0,0,0,0,0,-1,713,778,-23.2868,4.17236
-504,246,-20.0047,-2.88214,0,0,0,0,0,0,0,-1,720,778,-20.0047,2.88216
-497,246,-29.4669,1.82684,0,0,0,0,0,0,0,-1,727,778,-29.4669,-1.82687
-490,246,-36.559,1.71515,0,0,0,0,0,0,0,-1,734,778,-36.559,-1.71513
-483,246,-36.4152,1.39532,0,0,0,0,0,0,0,-1,741,778,-36.4152,-1.39534
-476,246,-36.4374,1.41205,0.0107062,-0.00988687,-0.0028378,0.0110901,-0.0102708,-0.134465,0.0123357,0.0457397,748,778,-36.4374,-1.41208
-469,246,-36.5282,0.973938,0.0142841,-0.0136277,-0.00178982,0.0143984,-0.013742,-0.0637759,0.0162483,0.0407432,755,778,-36.5282,-0.97394
-462,246,-36.525,1.01477,0.0173544,-0.0185235,0.00075076,0.0173701,-0.0185392,0.0209132,0.0207359,0.0449886,762,778,-36.525,-1.01475
-455,246,0,0,0,0,0,0,0,0,0,-1,769,778,0,0
-448,246,0,0,0,0,0,0,0,0,0,-1,776,778,0,0
-441,246,0,0,0,0,0,0,0,0,0,-1,783,778,0,0
-434,246,0,0,0,0,0,0,0,0,0,-1,790,778,0,0
-427,246,0,0,0,0,0,0,0,0,0,-1,797,778,0,0
-420,246,0,0,0,0,0,0,0,0,0,-1,804,778,0,0
-413,246,0,0,0,0,0,0,0,0,0,-1,811,778,0,0
-406,246,0,0,0,0,0,0,0,0,0,-1,818,778,0,0
-399,246,0,0,0,0,0,0,0,0,0,-1,825,778,0,0
-392,246,0,0,0,0,0,0,0,0,0,-1,832,778,0,0
-385,246,0,0,0,0,0,0,0,0,0,-1,839,778,0,0
-378,246,0,0,0,0,0,0,0,0,0,-1,846,778,0,0
-371,246,0,0,0,0,0,0,0,0,0,-1,853,778,0,0
-364,246,0,0,0,0,0,0,0,0,0,-1,860,778,0,0
-357,246,0,0,0,0,0,0,0,0,0,-1,867,778,0,0
-350,246,0,0,0,0,0,0,0,0,0,-1,874,778,0,0
-343,246,0,0,0,0,0,0,0,0,0,-1,881,778,0,0
-336,246,0,0,0,0,0,0,0,0,0,-1,888,778,0,0
-329,246,0,0,0,0,0,0,0,0,0,-1,895,778,0,0
-322,246,0,0,0,0,0,0,0,0,0,-1,902,778,0,0
-315,246,0,0,0,0,0,0,0,0,0,-1,909,778,0,0
-308,246,0,0,0,0,0,0,0,0,0,-1,916,778,0,0
-301,246,0,0,0,0,0,0,0,0,0,-1,923,778,0,0
-294,246,0,0,0,0,0,0,0,0,0,-1,930,778,0,0
-287,246,0,0,0,0,0,0,0,0,0,-1,937,778,0,0
-280,246,0,0,0,0,0,0,0,0,0,-1,944,778,0,0
-273,246,0,0,0,0,0,0,0,0,0,-1,951,778,0,0
-266,246,0,0,0,0,0,0,0,0,0,-1,958,778,0,0
-259,246,0,0,0,0,0,0,0,0,0,-1,965,778,0,0
-252,246,0,0,0,0,0,0,0,0,0,-1,972,778,0,0
-245,246,0,0,0,0,0,0,0,0,0,-1,979,778,0,0
-238,246,0,0,0,0,0,0,0,0,0,-1,986,778,0,0
-231,246,0,0,0,0,0,0,0,0,0,-1,993,778,0,0
-224,246,0,0,0,0,0,0,0,0,0,-1,1000,778,0,0
-217,246,0,0,0,0,0,0,0,0,0,-1,1007,778,0,0
-210,246,0,0,0,0,0,0,0,0,0,-1,1014,778,0,0
-203,246,0,0,0,0,0,0,0,0,0,-1,1021,778,0,0
-196,246,0,0,0,0,0,0,0,0,0,-1,1028,778,0,0
-189,246,0,0,0,0,0,0,0,0,0,-1,1035,778,0,0
-182,246,0,0,0,0,0,0,0,0,0,-1,1042,778,0,0
-175,246,0,0,0,0,0,0,0,0,0,-1,1049,778,0,0
-168,246,0,0,0,0,0,0,0,0,0,-1,1056,778,0,0
-161,246,0,0,0,0,0,0,0,0,0,-1,1063,778,0,0
-154,246,0,0,0,0,0,0,0,0,0,-1,1070,778,0,0
-147,246,0,0,0,0,0,0,0,0,0,-1,1077,778,0,0
-140,246,0,0,0,0,0,0,0,0,0,-1,1084,778,0,0
-133,246,0,0,0,0,0,0,0,0,0,-1,1091,778,0,0
-126,246,0,0,0,0,0,0,0,0,0,-1,1098,778,0,0
-119,246,0,0,0,0,0,0,0,0,0,-1,1105,778,0,0
-112,246,0,0,0,0,0,0,0,0,0,-1,1112,778,0,0
-105,246,0,0,0,0,0,0,0,0,0,-1,1119,778,0,0
-98,246,0,0,0,0,0,0,0,0,0,-1,1126,778,0,0
-91,246,0,0,0,0,0,0,0,0,0,-1,1133,778,0,0
-84,246,0,0,0,0,0,0,0,0,0,-1,1140,778,0,0
-77,246,0,0,0,0,0,0,0,0,0,-1,1147,778,0,0
-70,246,0,0,0,0,0,0,0,0,0,-1,1154,778,0,0
-63,246,0,0,0,0,0,0,0,0,0,-1,1161,778,0,0
-56,246,0,0,0,0,0,0,0,0,0,-1,1168,778,0,0
-49,246,0,0,0,0,0,0,0,0,0,-1,1175,778,0,0
-42,246,0,0,0,0,0,0,0,0,0,-1,1182,778,0,0
-35,246,0,0,0,0,0,0,0,0,0,-1,1189,778,0,0
-28,246,0,0,0,0,0,0,0,0,0,-1,1196,778,0,0
-21,246,0,0,0,0,0,0,0,0,0,-1,1203,778,0,0
-14,246,0,0,0,0,0,0,0,0,0,-1,1210,778,0,0
-7,246,0,0,0,0,0,0,0,0,0,-1,1217,778,0,0
0,246,0,0,0,0,0,0,0,0,0,-1,1224,778,0,0
7,246,0,0,0,0,0,0,0,0,0,-1,1231,778,0,0
14,246,0,0,0,0,0,0,0,0,0,-1,1238,778,0,0
21,246,0,0,0,0,0,0,0,0,0,-1,1245,778,0,0
28,246,0,0,0,0,0,0,0,0,0,-1,1252,778,0,0
35,246,0,0,0,0,0,0,0,0,0,-1,1259,778,0,0
42,246,0,0,0,0,0,0,0,0,0,-1,1266,778,0,0
49,246,0,0,0,0,0,0,0,0,0,-1,1273,778,0,0
56,246,0,0,0,0,0,0,0,0,0,-1,1280,778,0,0
63,246,0,0,0,0,0,0,0,0,0,-1,1287,778,0,0
70,246,0,0,0,0,0,0,0,0,0,-1,1294,778,0,0
77,246,0,0,0,0,0,0,0,0,0,-1,1301,778,0,0
84,246,0,0,0,0,0,0,0,0,0,-1,1308,778,0,0
91,246,0,0,0,0,0,0,0,0,0,-1,1315,778,0,0
98,246,0,0,0,0,0,0,0,0,0,-1,1322,778,0,0
105,246,0,0,0,0,0,0,0,0,0,-1,1329,778,0,0
112,246,0,0,0,0,0,0,0,0,0,-1,1336,778,0,0
119,246,0,0,0,0,0,0,0,0,0,-1,1343,778,0,0
126,246,0,0,0,0,0,0,0,0,0,-1,1350,778,0,0
133,246,0,0,0,0,0,0,0,0,0,-1,1357,778,0,0
140,246,0,0,0,0,0,0,0,0,0,-1,1364,778,0,0
147,246,0,0,0,0,0,0,0,0,0,-1,1371,778,0,0
154,246,0,0,0,0,0,0,0,0,0,-1,1378,778,0,0
161,246,0,0,0,0,0,0,0,0,0,-1,1385,778,0,0
168,246,0,0,0,0,0,0,0,0,0,-1,1392,778,0,0
175,246,0,0,0,0,0,0,0,0,0,-1,1399,778,0,0
182,246,0,0,0,0,0,0,0,0,0,-1,1406,778,0,0
189,246,0,0,0,0,0,0,0,0,0,-1,1413,778,0,0
196,246,0,0,0,0,0,0,0,0,0,-1,1420,778,0,0
203,246,0,0,0,0,0,0,0,0,0,-1,1427,778,0,0
210,246,0,0,0,0,0,0,0,0,0,-1,1434,778,0,0
217,246,0,0,0,0,0,0,0,0,0,-1,1441,778,0,0
224,246,0,0,0,0,0,0,0,0,0,-1,1448,778,0,0
231,246,0,0,0,0,0,0,0,0,0,-1,1455,778,0,0
238,246,0,0,0,0,0,0,0,0,0,-1,1462,778,0,0
245,246,0,0,0,0,0,0,0,0,0,-1,1469,778,0,0
252,246,0,0,0,0,0,0,0,0,0,-1,1476,778,0,0
259,246,0,0,0,0,0,0,0,0,0,-1,1483,778,0,0
266,246,0,0,0,0,0,0,0,0,0,-1,1490,778,0,0
273,246,0,0,0,0,0,0,0,0,0,-1,1497,778,0,0
280,246,0,0,0,0,0,0,0,0,0,-1,1504,778,0,0
287,246,0,0,0,0,0,0,0,0,0,-1,1511,778,0,0
294,246,0,0,0,0,0,0,0,0,0,-1,1518,778,0,0
301,246,0,0,0,0,0,0,0,0,0,-1,1525,778,0,0
308,246,0,0,0,0,0,0,0,0,0,-1,1532,778,0,0
315,246,0,0,0,0,0,0,0,0,0,-1,1539,778,0,0
322,246,0,0,0,0,0,0,0,0,0,-1,1546,778,0,0
329,246,0,0,0,0,0,0,0,0,0,-1,1553,778,0,0
336,246,0,0,0,0,0,0,0,0,0,-1,1560,778,0,0
343,246,0,0,0,0,0,0,0,0,0,-1,1567,778,0,0
350,246,0,0,0,0,0,0,0,0,0,-1,1574,778,0,0
357,246,0,0,0,0,0,0,0,0,0,-1,1581,778,0,0
364,246,0,0,0,0,0,0,0,0,0,-1,1588,778,0,0
371,246,0,0,0,0,0,0,0,0,0,-1,1595,778,0,0
378,246,0,0,0,0,0,0,0,0,0,-1,1602,778,0,0
385,246,0,0,0,0,0,0,0,0,0,-1,1609,778,0,0
392,246,0,0,0,0,0,0,0,0,0,-1,1616,778,0,0
399,246,0,0,0,0,0,0,0,0,0,-1,1623,778,0,0
406,246,0,0,0,0,0,0,0,0,0,-1,1630,778,0,0
413,246,0,0,0,0,0,0,0,0,0,-1,1637,778,0,0
420,246,0,0,0,0,0,0,0,0,0,-1,1644,778,0,0
427,246,0,0,0,0,0,0,0,0,0,-1,1651,778,0,0
434,246,0,0,0,0,0,0,0,0,0,-1,1658,778,0,0
441,246,0,0,0,0,0,0,0,0,0,-1,1665,778,0,0
448,246,0,0,0,0,0,0,0,0,0,-1,1672,778,0,0
455,246,0,0,0,0,0,0,0,0,0,-1,1679,778,0,0
462,246,0,0,0,0,0,0,0,0,0,-1,1686,778,0,0
469,246,0,0,0,0,0,0,0,0,0,-1,1693,778,0,0
476,246,0,0,0,0,0,0,0,0,0,-1,1700,778,0,0
483,246,0,0,0,0,0,0,0,0,0,-1,1707,778,0,0
490,246,0,0,0,0,0,0,0,0,0,-1,1714,778,0,0
497,246,0,0,0,0,0,0,0,0,0,-1,1721,778,0,0
504,246,0,0,0,0,0,0,0,0,0,-1,1728,778,0,0
511,246,0,0,0,0,0,0,0,0,0,-1,1735,778,0,0
518,246,0,0,0,0,0,0,0,0,0,-1,1742,778,0,0
525,246,0,0,0,0,0,0,0,0,0,-1,1749,778,0,0
532,246,0,0,0,0,0,0,0,0,0,-1,1756,778,0,0
539,246,0,0,0,0,0,0,0,0,0,-1,1763,778,0,0
546,246,0,0,0,0,0,0,0,0,0,-1,1770,778,0,0
553,246,0,0,0,0,0,0,0,0,0,-1,1777,778,0,0
560,246,0,0,0,0,0,0,0,0,0,-1,1784,778,0,0
567,246,0,0,0,0,0,0,0,0,0,-1,1791,778,0,0
574,246,0,0,0,0,0,0,0,0,0,-1,1798,778,0,0
581,246,48.947,2.64081,-0.00439317,0.00862862,0.00526567,0.0104914,-0.00625599,1.23077,0.00977166,0.0417894,1805,778,48.947,-2.64081
588,246,48.8455,2.60156,0.00697491,0.00819774,0.0108294,0.018433,-0.00326035,0.813598,0.0135073,0.0444723,1812,778,48.8455,-2.60154
595,246,48.9886,2.64307,0.0107092,0.00718704,0.0121695,0.0212445,-0.00334818,0.71354,0.0154008,0.0426353,1819,778,48.9886,-2.64307
602,246,48.8976,2.75812,0.0108219,0.00590483,0.0114386,0.0200632,-0.00333649,0.679543,0.0146151,0.0492126,1826,778,48.8976,-2.75814
609,246,48.787,2.80292,0,0,0,0,0,0,0,-1,1833,778,48.787,-2.80291
616,246,46.574,4.39575,0,0,0,0,0,0,0,-1,1840,778,46.5739,-4.39573
623,246,49.6732,2.11438,0,0,0,0,0,0,0,-1,1847,778,49.6732,-2.11439
630,246,47.0985,3.3858,0,0,0,0,0,0,0,-1,1854,778,47.0985,-3.38582
637,246,29.5785,0.837585,0,0,0,0,0,0,0,-1,1861,778,29.5785,-0.837606
644,246,28.1232,-1.43188,0,0,0,0,0,0,0,-1,1868,778,28.1232,1.43188
651,246,33.4852,-1.89545,0,0,0,0,0,0,0,-1,1875,778,33.4852,1.89546
658,246,33.5427,-1.30756,-0.00254412,0.000813,9.30151e-05,0.000815575,-0.0025467,1.54312,0.00202516,0.0337744,1882,778,33.5427,1.30754
665,246,33.5663,-0.671204,-0.00239006,0.000434085,-0.000319567,0.000469795,-0.00242577,-1.45952,0.0017944,0.02352,1889,778,33.5662,0.671187
672,246,33.5992,-0.0527344,-0.00183661,0.000228498,-0.000445622,0.000320554,-0.00192867,-1.36708,0.00140487,0.0218932,1896,778,33.5992,0.0527527
679,246,33.645,0.512878,-0.000840922,0.000480677,-9.90762e-05,0.000488063,-0.000848308,-1.49638,0.000780842,0.0206157,1903,778,33.6451,-0.5129
686,246,33.6436,1.10901,0.000553432,0.0012244,0.000519838,0.00150761,0.000270222,1.07195,0.000928202,0.0219498,1910,778,33.6435,-1.109
693,246,33.6127,1.6731,0.0024654,0.00238932,0.00167175,0.00409954,0.000755175,0.774023,0.00251931,0.0176876,1917,778,33.6127,-1.67311
700,246,33.558,2.21063,0.00450948,0.00406239,0.00331194,0.00760541,0.000966462,0.751701,0.00478079,0.0146105,1924,778,33.558,-2.21061
707,246,33.5331,2.80066,0.00690391,0.00580669,0.00544707,0.0118299,0.000880668,0.73521,0.00761007,0.0137344,1931,778,33.5331,-2.80068
714,246,33.511,3.39789,0.0100986,0.00768641,0.00831452,0.0172941,0.00049097,0.71337,0.0113693,0.0133009,1938,778,33.511,-3.39788
721,246,33.4714,3.97064,0.0138962,0.00961819,0.0119542,0.0239013,-0.000386907,0.696869,0.0160647,0.0209683,1945,778,33.4714,-3.97062
728,246,33.7252,4.7439,0.0183061,0.0113292,0.0166074,0.0317875,-0.00215215,0.681876,0.0219442,0.0471939,1952,778,33.7252,-4.74392
735,246,34.2169,5.62701,0,0,0,0,0,0,0,-1,1959,778,34.2169,-5.62704
742,246,31.7356,6.70013,0,0,0,0,0,0,0,-1,1966,778,31.7356,-6.70011
749,246,32.3883,7.69324,0,0,0,0,0,0,0,-1,1973,778,32.3883,-7.69322
756,246,33.6919,3.45264,0,0,0,0,0,0,0,-1,1980,778,33.6919,-3.45262
763,246,0,0,0,0,0,0,0,0,0,-1,1987,778,0,0
770,246,0,0,0,0,0,0,0,0,0,-1,1994,778,0,0
777,246,0,0,0,0,0,0,0,0,0,-1,2001,778,0,0
784,246,0,0,0,0,0,0,0,0,0,-1,2008,778,0,0
791,246,0,0,0,0,0,0,0,0,0,-1,2015,778,0,0
798,246,0,0,0,0,0,0,0,0,0,-1,2022,778,0,0
805,246,0,0,0,0,0,0,0,0,0,-1,2029,778,0,0
812,246,0,0,0,0,0,0,0,0,0,-1,2036,778,0,0
-700,239,0,0,0,0,0,0,0,0,0,-1,524,785,0,0
-693,239,0,0,0,0,0,0,0,0,0,-1,531,785,0,0
-686,239,0,0,0,0,0,0,0,0,0,-1,538,785,0,0
-679,239,0,0,0,0,0,0,0,0,0,-1,545,785,0,0
-672,239,0,0,0,0,0,0,0,0,0,-1,552,785,0,0
-665,239,0,0,0,0,0,0,0,0,0,-1,559,785,0,0
-658,239,0,0,0,0,0,0,0,0,0,-1,566,785,0,0
-651,239,0,0,0,0,0,0,0,0,0,-1,573,785,0,0
-644,239,0,0,0,0,0,0,0,0,0,-1,580,785,0,0
-637,239,-23.2709,0.465088,0,0,0,0,0,0,0,-1,587,785,-23.271,-0.465116
-630,239,-23.4006,0.956299,0,0,0,0,0,0,0,-1,594,785,-23.4005,-0.956285
-623,239,-30.6328,2.52185,0,0,0,0,0,0,0,-1,601,785,-30.6328,-2.52183
-616,239,-29.1425,1.42139,0,0,0,0,0,0,0,-1,608,785,-29.1425,-1.42139
-609,239,-27.8569,0.322937,0,0,0,0,0,0,0,-1,615,785,-27.857,-0.322963
-602,239,-22.8965,3.18628,0,0,0,0,0,0,0,-1,622,785,-22.8965,-3.18629
-595,239,-22.9953,2.35052,0.00535016,0.00772445,-0.000235942,0.00774767,0.00532694,-1.4727,0.00457681,0.0448078,629,785,-22.9953,-2.35051
-588,239,-23.1056,1.48157,0.00413131,0.00600328,-0.000170727,0.00601872,0.00411587,-1.48059,0.00355235,0.0205413,636,785,-23.1056,-1.48158
-581,239,-23.2247,0.823853,0.00315684,0.00441998,-0.000104091,0.0044285,0.00314832,-1.48912,0.00263154,0.01137,643,785,-23.2247,-0.823834
-574,239,-23.2078,0.248413,0.0020113,0.00292496,0.000204975,0.00296884,0.00196742,1.35991,0.00174404,0.0122853,650,785,-23.2079,-0.248435
-567,239,-23.2397,-0.306702,0.000834935,0.00142871,0.000649898,0.00184633,0.000417324,0.999656,0.00111805,0.0160695,657,785,-23.2397,0.306725
-560,239,-23.2863,-0.828125,-0.000256672,0.00011468,0.001124,0.00106824,-0.00121023,0.867255,0.00131633,0.0168711,664,785,-23.2863,0.828102
-553,239,-23.2922,-1.33978,-0.00108175,-0.00113891,0.00161056,0.000500483,-0.00272114,0.776525,0.00200189,0.0146352,671,785,-23.2922,1.3398
-546,239,-23.3291,-1.88464,-0.00195401,-0.00199012,0.00206179,8.98046e-05,-0.00403393,0.78102,0.00271971,0.0148186,678,785,-23.3291,1.88467
-539,239,-23.3682,-2.4649,-0.00280873,-0.00203565,0.00186667,-0.000515918,-0.00432846,0.887493,0.00272997,0.0165626,685,785,-23.3681,2.4649
-532,239,-23.3801,-3.01239,-0.00324306,-0.00174529,0.00155193,-0.000771003,-0.00421735,1.01019,0.00259306,0.0188421,692,785,-23.3801,3.01239
-525,239,-23.4321,-3.39453,-0.00295346,-0.00166842,0.000778108,-0.00130184,-0.00332004,1.13052,0.00193164,0.0296588,699,785,-23.4321,3.39451
-518,239,-23.7375,-3.60303,0,0,0,0,0,0,0,-1,706,785,-23.7375,3.60301
-511,239,-20.9849,-2.09235,0,0,0,0,0,0,0,-1,713,785,-20.9848,2.09234
-504,239,-25.5015,2.00421,0,0,0,0,0,0,0,-1,720,785,-25.5015,-2.00422
-497,239,-36.7159,1.73627,0,0,0,0,0,0,0,-1,727,785,-36.7159,-1.73625
-490,239,-36.564,1.53436,0.00299303,-0.00398207,-0.0028159,0.00398792,-0.00497697,-0.339623,0.00518637,0.0465516,734,785,-36.564,-1.53438
-483,239,-36.5,1.18341,0.00533627,-0.00537954,-0.0034045,0.00632641,-0.00636969,-0.283027,0.00733011,0.0430609,741,785,-36.5,-1.1834
-476,239,-36.3763,1.18799,0.00823245,-0.00755153,-0.00353638,0.00898855,-0.00830763,-0.210635,0.00998853,0.0397508,748,785,-36.3763,-1.18801
-469,239,-36.3691,1.14862,0.0111543,-0.0107348,-0.00266198,0.0114733,-0.0110539,-0.119296,0.0130069,0.0396417,755,785,-36.3692,-1.14859
-462,239,-36.4166,1.15131,0.0132769,-0.0152844,0.000153836,0.0132777,-0.0152853,0.00538596,0.0165044,0.0416892,762,785,-36.4166,-1.15131
-455,239,0,0,0,0,0,0,0,0,0,-1,769,785,0,0
-448,239,0,0,0,0,0,0,0,0,0,-1,776,785,0,0
-441,239,0,0,0,0,0,0,0,0,0,-1,783,785,0,0
-434,239,0,0,0,0,0,0,0,0,0,-1,790,785,0,0
-427,239,0,0,0,0,0,0,0,0,0,-1,797,785,0,0
-420,239,0,0,0,0,0,0,0,0,0,-1,804,785,0,0
-413,239,0,0,0,0,0,0,0,0,0,-1,811,785,0,0
-406,239,0,0,0,0,0,0,0,0,0,-1,818,785,0,0
-399,239,0,0,0,0,0,0,0,0,0,-1,825,785,0,0
-392,239,0,0,0,0,0,0,0,0,0,-1,832,785,0,0
-385,239,0,0,0,0,0,0,0,0,0,-1,839,785,0,0
-378,239,0,0,0,0,0,0,0,0,0,-1,846,785,0,0
-371,239,0,0,0,0,0,0,0,0,0,-1,853,785,0,0
-364,239,0,0,0,0,0,0,0,0,0,-1,860,785,0,0
-357,239,0,0,0,0,0,0,0,0,0,-1,867,785,0,0
-350,239,0,0,0,0,0,0,0,0,0,-1,874,785,0,0
-343,239,0,0,0,0,0,0,0,0,0,-1,881,785,0,0
-336,239,0,0,0,0,0,0,0,0,0,-1,888,785,0,0
-329,239,0,0,0,0,0,0,0,0,0,-1,895,785,0,0
-322,239,0,0,0,0,0,0,0,0,0,-1,902,785,0,0
-315,239,0,0,0,0,0,0,0,0,0,-1,909,785,0,0
-308,239,0,0,0,0,0,0,0,0,0,-1,916,785,0,0
-301,239,0,0,0,0,0,0,0,0,0,-1,923,785,0,0
-294,239,0,0,0,0,0,0,0,0,0,-1,930,785,0,0
-287,239,0,0,0,0,0,0,0,0,0,-1,937,785,0,0
-280,239,0,0,0,0,0,0,0,0,0,-1,944,785,0,0
-273,239,0,0,0,0,0,0,0,0,0,-1,951,785,0,0
-266,239,0,0,0,0,0,0,0,0,0,-1,958,785,0,0
-259,239,0,0,0,0,0,0,0,0,0,-1,965,785,0,0
-252,239,0,0,0,0,0,0,0,0,0,-1,972,785,0,0
-245,239,0,0,0,0,0,0,0,0,0,-1,979,785,0,0
-238,239,0,0,0,0,0,0,0,0,0,-1,986,785,0,0
-231,239,0,0,0,0,0,0,0,0,0,-1,993,785,0,0
-224,239,0,0,0,0,0,0,0,0,0,-1,1000,785,0,0
-217,239,0,0,0,0,0,0,0,0,0,-1,1007,785,0,0
-210,239,0,0,0,0,0,0,0,0,0,-1,1014,785,0,0
-203,239,0,0,0,0,0,0,0,0,0,-1,1021,785,0,0
-196,239,0,0,0,0,0,0,0,0,0,-1,1028,785,0,0
-189,239,0,0,0,0,0,0,0,0,0,-1,1035,785,0,0
-182,239,0,0,0,0,0,0,0,0,0,-1,1042,785,0,0
-175,239,0,0,0,0,0,0,0,0,0,-1,1049,785,0,0
-168,239,0,0,0,0,0,0,0,0,0,-1,1056,785,0,0
-161,239,0,0,0,0,0,0,0,0,0,-1,1063,785,0,0
-154,239,0,0,0,0,0,0,0,0,0,-1,1070,785,0,0
-147,239,0,0,0,0,0,0,0,0,0,-1,1077,785,0,0
-140,239,0,0,0,0,0,0,0,0,0,-1,1084,785,0,0
-133,239,0,0,0,0,0,0,0,0,0,-1,1091,785,0,0
-126,239,0,0,0,0,0,0,0,0,0,-1,1098,785,0,0
-119,239,0,0,0,0,0,0,0,0,0,-1,1105,785,0,0
-112,239,0,0,0,0,0,0,0,0,0,-1,1112,785,0,0
-105,239,0,0,0,0,0,0,0,0,0,-1,1119,785,0,0
-98,239,0,0,0,0,0,0,0,0,0,-1,1126,785,0,0
-91,239,0,0,0,0,0,0,0,0,0,-1,1133,785,0,0
-84,239,0,0,0,0,0,0,0,0,0,-1,1140,785,0,0
-77,239,0,0,0,0,0,0,0,0,0,-1,1147,785,0,0
-70,239,0,0,0,0,0,0,0,0,0,-1,1154,785,0,0
-63,239,0,0,0,0,0,0,0,0,0,-1,1161,785,0,0
-56,239,0,0,0,0,0,0,0,0,0,-1,1168,785,0,0
-49,239,0,0,0,0,0,0,0,0,0,-1,1175,785,0,0
-42,239,0,0,0,0,0,0,0,0,0,-1,1182,785,0,0
-35,239,0,0,0,0,0,0,0,0,0,-1,1189,785,0,0
-28,239,0,0,0,0,0,0,0,0,0,-1,1196,785,0,0
-21,239,0,0,0,0,0,0,0,0,0,-1,1203,785,0,0
-14,239,0,0,0,0,0,0,0,0,0,-1,1210,785,0,0
-7,239,0,0,0,0,0,0,0,0,0,-1,1217,785,0,0
0,239,0,0,0,0,0,0,0,0,0,-1,1224,785,0,0
7,239,0,0,0,0,0,0,0,0,0,-1,1231,785,0,0
14,239,0,0,0,0,0,0,0,0,0,-1,1238,785,0,0
21,239,0,0,0,0,0,0,0,0,0,-1,1245,785,0,0
28,239,0,0,0,0,0,0,0,0,0,-1,1252,785,0,0
35,239,0,0,0,0,0,0,0,0,0,-1,1259,785,0,0
42,239,0,0,0,0,0,0,0,0,0,-1,1266,785,0,0
49,239,0,0,0,0,0,0,0,0,0,-1,1273,785,0,0
56,239,0,0,0,0,0,0,0,0,0,-1,1280,785,0,0
63,239,0,0,0,0,0,0,0,0,0,-1,1287,785,0,0
70,239,0,0,0,0,0,0,0,0,0,-1,1294,785,0,0
77,239,0,0,0,0,0,0,0,0,0,-1,1301,785,0,0
84,239,0,0,0,0,0,0,0,0,0,-1,1308,785,0,0
91,239,0,0,0,0,0,0,0,0,0,-1,1315,785,0,0
98,239,0,0,0,0,0,0,0,0,0,-1,1322,785,0,0
105,239,0,0,0,0,0,0,0,0,0,-1,1329,785,0,0
112,239,0,0,0,0,0,0,0,0,0,-1,1336,785,0,0
119,239,0,0,0,0,0,0,0,0,0,-1,1343,785,0,0
126,239,0,0,0,0,0,0,0,0,0,-1,1350,785,0,0
133,239,0,0,0,0,0,0,0,0,0,-1,1357,785,0,0
140,239,0,0,0,0,0,0,0,0,0,-1,1364,785,0,0
147,239,0,0,0,0,0,0,0,0,0,-1,1371,785,0,0
154,239,0,0,0,0,0,0,0,0,0,-1,1378,785,0,0
161,239,0,0,0,0,0,0,0,0,0,-1,1385,785,0,0
168,239,0,0,0,0,0,0,0,0,0,-1,1392,785,0,0
175,239,0,0,0,0,0,0,0,0,0,-1,1399,785,0,0
182,239,0,0,0,0,0,0,0,0,0,-1,1406,785,0,0
189,239,0,0,0,0,0,0,0,0,0,-1,1413,785,0,0
196,239,0,0,0,0,0,0,0,0,0,-1,1420,785,0,0
203,239,0,0,0,0,0,0,0,0,0,-1,1427,785,0,0
210,239,0,0,0,0,0,0,0,0,0,-1,1434,785,0,0
217,239,0,0,0,0,0,0,0,0,0,-1,1441,785,0,0
224,239,0,0,0,0,0,0,0,0,0,-1,1448,785,0,0
231,239,0,0,0,0,0,0,0,0,0,-1,1455,785,0,0
238,239,0,0,0,0,0,0,0,0,0,-1,1462,785,0,0
245,239,0,0,0,0,0,0,0,0,0,-1,1469,785,0,0
252,239,0,0,0,0,0,0,0,0,0,-1,1476,785,0,0
259,239,0,0,0,0,0,0,0,0,0,-1,1483,785,0,0
266,239,0,0,0,0,0,0,0,0,0,-1,1490,785,0,0
273,239,0,0,0,0,0,0,0,0,0,-1,1497,785,0,0
280,239,0,0,0,0,0,0,0,0,0,-1,1504,785,0,0
287,239,0,0,0,0,0,0,0,0,0,-1,1511,785,0,0
294,239,0,0,0,0,0,0,0,0,0,-1,1518,785,0,0
301,239,0,0,0,0,0,0,0,0,0,-1,1525,785,0,0
308,239,0,0,0,0,0,0,0,0,0,-1,1532,785,0,0
315,239,0,0,0,0,0,0,0,0,0,-1,1539,785,0,0
322,239,0,0,0,0,0,0,0,0,0,-1,1546,785,0,0
329,239,0,0,0,0,0,0,0,0,0,-1,1553,785,0,0
336,239,0,0,0,0,0,0,0,0,0,-1,1560,785,0,0
343,239,0,0,0,0,0,0,0,0,0,-1,1567,785,0,0
350,239,0,0,0,0,0,0,0,0,0,-1,1574,785,0,0
357,239,0,0,0,0,0,0,0,0,0,-1,1581,785,0,0
364,239,0,0,0,0,0,0,0,0,0,-1,1588,785,0,0
371,239,0,0,0,0,0,0,0,0,0,-1,1595,785,0,0
378,239,0,0,0,0,0,0,0,0,0,-1,1602,785,0,0
385,239,0,0,0,0,0,0,0,0,0,-1,1609,785,0,0
392,239,0,0,0,0,0,0,0,0,0,-1,1616,785,0,0
399,239,0,0,0,0,0,0,0,0,0,-1,1623,785,0,0
406,239,0,0,0,0,0,0,0,0,0,-1,1630,785,0,0
413,239,0,0,0,0,0,0,0,0,0,-1,1637,785,0,0
420,239,0,0,0,0,0,0,0,0,0,-1,1644,785,0,0
427,239,0,0,0,0,0,0,0,0,0,-1,1651,785,0,0
434,239,0,0,0,0,0,0,0,0,0,-1,1658,785,0,0
441,239,0,0,0,0,0,0,0,0,0,-1,1665,785,0,0
448,239,0,0,0,0,0,0,0,0,0,-1,1672,785,0,0
455,239,0,0,0,0,0,0,0,0,0,-1,1679,785,0,0
462,239,0,0,0,0,0,0,0,0,0,-1,1686,785,0,0
469,239,0,0,0,0,0,0,0,0,0,-1,1693,785,0,0
476,239,0,0,0,0,0,0,0,0,0,-1,1700,785,0,0
483,239,0,0,0,0,0,0,0,0,0,-1,1707,785,0,0
490,239,0,0,0,0,0,0,0,0,0,-1,1714,785,0,0
497,239,0,0,0,0,0,0,0,0,0,-1,1721,785,0,0
504,239,0,0,0,0,0,0,0,0,0,-1,1728,785,0,0
511,239,0,0,0,0,0,0,0,0,0,-1,1735,785,0,0
518,239,0,0,0,0,0,0,0,0,0,-1,1742,785,0,0
525,239,0,0,0,0,0,0,0,0,0,-1,1749,785,0,0
532,239,0,0,0,0,0,0,0,0,0,-1,1756,785,0,0
539,239,0,0,0,0,0,0,0,0,0,-1,1763,785,0,0
546,239,0,0,0,0,0,0,0,0,0,-1,1770,785,0,0
553,239,0,0,0,0,0,0,0,0,0,-1,1777,785,0,0
560,239,0,0,0,0,0,0,0,0,0,-1,1784,785,0,0
567,239,0,0,0,0,0,0,0,0,0,-1,1791,785,0,0
574,239,0,0,0,0,0,0,0,0,0,-1,1798,785,0,0
581,239,48.6769,2.92206,-0.00656901,0.00143159,-0.00318945,0.00254744,-0.00768486,-1.23425,0.00615082,0.036989,1805,785,48.6768,-2.92206
588,239,48.6222,2.86115,0.00486594,0.00320983,0.00511895,0.00922338,-0.00114761,0.705211,0.00656498,0.0384116,1812,785,48.6222,-2.86113
595,239,48.7312,2.68872,0.00894233,0.0041541,0.0086884,0.0155604,-0.002464,0.650958,0.011285,0.0348626,1819,785,48.7312,-2.68874
602,239,48.7839,2.72723,0.00915867,0.00420747,0.009335,0.0163408,-0.00297461,0.655784,0.0120088,0.0412501,1826,785,48.784,-2.72724
609,239,48.8488,2.85077,0,0,0,0,0,0,0,-1,1833,785,48.8488,-2.85076
616,239,49.3486,2.28522,0,0,0,0,0,0,0,-1,1840,785,49.3486,-2.28522
623,239,49.3812,2.31171,0,0,0,0,0,0,0,-1,1847,785,49.3812,-2.31172
630,239,49.4137,2.3382,0,0,0,0,0,0,0,-1,1854,785,49.4137,-2.33822
637,239,39.5542,2.54114,0,0,0,0,0,0,0,-1,1861,785,39.5543,-2.54114
644,239,18.3466,0.735413,0,0,0,0,0,0,0,-1,1868,785,18.3465,-0.735414
651,239,33.8104,-2.02124,0,0,0,0,0,0,0,-1,1875,785,33.8104,2.02123
658,239,34.0544,-1.28082,-0.00339074,0.00127257,0.000240355,0.00128492,-0.00340309,1.51944,0.0027972,0.0474667,1882,785,34.0545,1.28083
665,239,34.1918,-0.613892,-0.00329044,0.00092464,-0.00025426,0.000939921,-0.00330572,-1.51076,0.00257495,0.0193096,1889,785,34.1918,0.613891
672,239,34.2144,-0.019043,-0.00277159,0.000586099,-0.000512544,0.000662595,-0.00284809,-1.42264,0.00215384,0.0217446,1896,785,34.2144,0.0190593
679,239,34.2032,0.549622,-0.00183242,0.000522504,-0.00037386,0.000580432,-0.00189035,-1.41707,0.00149183,0.0221879,1903,785,34.2032,-0.549637
686,239,34.2173,1.15424,-0.000430547,0.000950677,3.85915e-05,0.000951754,-0.000431624,1.54289,0.000817295,0.0235689,1910,785,34.2173,-1.15422
693,239,34.1926,1.70813,0.00154596,0.00174976,0.00100538,0.00265839,0.00063733,0.835903,0.00160263,0.0156676,1917,785,34.1926,-1.70811
700,239,34.1332,2.25458,0.00348388,0.00311284,0.00250884,0.00581405,0.000782672,0.748492,0.00364327,0.0119558,1924,785,34.1331,-2.25457
707,239,34.1133,2.81561,0.00551865,0.00450284,0.00446133,0.00950089,0.000520596,0.728719,0.00616772,0.0117764,1931,785,34.1132,-2.81562
714,239,34.095,3.38318,0.00807354,0.00580901,0.00697888,0.0140114,-0.000128856,0.704978,0.00938419,0.0108901,1938,785,34.0949,-3.38315
721,239,34.0211,3.98773,0.0108616,0.00697585,0.0100884,0.0191925,-0.00135503,0.69027,0.0132697,0.0242246,1945,785,34.0211,-3.98773
728,239,34.0231,4.73071,0.0136756,0.00754313,0.0139055,0.0248489,-0.00363016,0.676882,0.0178991,0.0437826,1952,785,34.0231,-4.73071
735,239,34.3289,5.68036,0,0,0,0,0,0,0,-1,1959,785,34.3288,-5.68037
742,239,32.4141,7.6665,0,0,0,0,0,0,0,-1,1966,785,32.4141,-7.6665
749,239,32.1489,3.4411,0,0,0,0,0,0,0,-1,1973,785,32.149,-3.44109
756,239,32.9064,3.6687,0,0,0,0,0,0,0,-1,1980,785,32.9063,-3.66873
763,239,0,0,0,0,0,0,0,0,0,-1,1987,785,0,0
770,239,0,0,0,0,0,0,0,0,0,-1,1994,785,0,0
777,239,0,0,0,0,0,0,0,0,0,-1,2001,785,0,0
784,239,0,0,0,0,0,0,0,0,0,-1,2008,785,0,0
791,239,0,0,0,0,0,0,0,0,0,-1,2015,785,0,0
798,239,0,0,0,0,0,0,0,0,0,-1,2022,785,0,0
805,239,0,0,0,0,0,0,0,0,0,-1,2029,785,0,0
812,239,0,0,0,0,0,0,0,0,0,-1,2036,785,0,0
-700,232,0,0,0,0,0,0,0,0,0,-1,524,792,0,0
-693,232,0,0,0,0,0,0,0,0,0,-1,531,792,0,0
-686,232,0,0,0,0,0,0,0,0,0,-1,538,792,0,0
-679,232,0,0,0,0,0,0,0,0,0,-1,545,792,0,0
-672,232,0,0,0,0,0,0,0,0,0,-1,552,792,0,0
-665,232,0,0,0,0,0,0,0,0,0,-1,559,792,0,0
-658,232,0,0,0,0,0,0,0,0,0,-1,566,792,0,0
-651,232,0,0,0,0,0,0,0,0,0,-1,573,792,0,0
-644,232,-22.5826,0.269348,0,0,0,0,0,0,0,-1,580,792,-22.5826,-0.269357
-637,232,-30.1556,5.06824,0,0,0,0,0,0,0,-1,587,792,-30.1556,-5.06823
-630,232,-32.2345,1.80212,0,0,0,0,0,0,0,-1,594,792,-32.2345,-1.80211
-623,232,-31.5665,1.05115,0,0,0,0,0,0,0,-1,601,792,-31.5664,-1.05112
-616,232,-30.6812,0.432861,0,0,0,0,0,0,0,-1,608,792,-30.6812,-0.432881
-609,232,-29.7142,-0.478943,0,0,0,0,0,0,0,-1,615,792,-29.7142,0.478965
-602,232,-23.8223,3.12823,0,0,0,0,0,0,0,-1,622,792,-23.8223,-3.12822
-595,232,-23.7275,2.29596,0.00312269,0.00567758,-5.8855e-05,0.00567893,0.00312134,-1.54778,0.00328411,0.0380665,629,792,-23.7275,-2.29593
-588,232,-23.7169,1.45648,0.00269769,0.00458154,-0.00012404,0.00458967,0.00268956,-1.50533,0.00266288,0.0136698,636,792,-23.7168,-1.4565
-581,232,-23.7539,0.823975,0.00221484,0.00335885,-8.37621e-05,0.00336495,0.00220874,-1.4981,0.00197418,0.0082226,643,792,-23.7539,-0.823956
-574,232,-23.7692,0.281128,0.00140005,0.00205122,0.000225417,0.00212164,0.00132963,1.26801,0.00123797,0.00872994,650,792,-23.7691,-0.281132
-567,232,-23.8149,-0.260925,0.000466709,0.000682615,0.000718426,0.00130115,-0.000151829,0.859972,0.000922221,0.011117,657,792,-23.8149,0.260942
-560,232,-23.8487,-0.8078,-0.000392921,-0.000432952,0.00124179,0.000829017,-0.00165489,0.77734,0.00146027,0.0148351,664,792,-23.8487,0.807774
-553,232,-23.8809,-1.34418,-0.00101368,-0.00156106,0.00177552,0.000509126,-0.00308386,0.708927,0.00224494,0.0140883,671,792,-23.8809,1.34417
-546,232,-23.9126,-1.88116,-0.00172386,-0.00225193,0.00223879,0.000266406,-0.0042422,0.726701,0.00292099,0.021833,678,792,-23.9126,1.88117
-539,232,-23.9771,-2.40436,-0.00241559,-0.00205951,0.00200008,-0.000229559,-0.00424554,0.829789,0.00275703,0.0315846,685,792,-23.9771,2.40436
-532,232,-24.0848,-2.92358,-0.00275195,-0.00170143,0.00167955,-0.000466922,-0.00398645,0.93695,0.00251648,0.0317553,692,792,-24.0848,2.92358
-525,232,-24.0157,-3.11383,0,0,0,0,0,0,0,-1,699,792,-24.0157,3.11382
-518,232,-20.8098,-3.08154,0,0,0,0,0,0,0,-1,706,792,-20.8098,3.08155
-511,232,-21.6708,-0.962708,0,0,0,0,0,0,0,-1,713,792,-21.6708,0.962731
-504,232,-34.2155,0.346985,0,0,0,0,0,0,0,-1,720,792,-34.2155,-0.346955
-497,232,-35.5298,1.56091,0,0,0,0,0,0,0,-1,727,792,-35.5298,-1.5609
-490,232,-36.4216,1.26917,0.00210251,-0.0026571,-0.0028527,0.00343772,-0.00399231,-0.437765,0.00429371,0.042896,734,792,-36.4216,-1.26919
-483,232,-36.588,0.980469,0.00403363,-0.00362217,-0.00360385,0.00546316,-0.0050517,-0.377629,0.0060723,0.0401508,741,792,-36.588,-0.980484
-476,232,-36.4705,1.00531,0.00643851,-0.00533337,-0.00383719,0.00757883,-0.00647369,-0.288864,0.00812159,0.0338618,748,792,-36.4704,-1.00531
-469,232,-36.4188,1.04462,0.00868259,-0.00811575,-0.0028034,0.00913809,-0.00857125,-0.161072,0.0102262,0.0311915,755,792,-36.4188,-1.04465
-462,232,0,0,0,0,0,0,0,0,0,-1,762,792,0,0
-455,232,0,0,0,0,0,0,0,0,0,-1,769,792,0,0
-448,232,0,0,0,0,0,0,0,0,0,-1,776,792,0,0
-441,232,0,0,0,0,0,0,0,0,0,-1,783,792,0,0
-434,232,0,0,0,0,0,0,0,0,0,-1,790,792,0,0
-427,232,0,0,0,0,0,0,0,0,0,-1,797,792,0,0
-420,232,0,0,0,0,0,0,0,0,0,-1,804,792,0,0
-413,232,0,0,0,0,0,0,0,0,0,-1,811,792,0,0
-406,232,0,0,0,0,0,0,0,0,0,-1,818,792,0,0
-399,232,0,0,0,0,0,0,0,0,0,-1,825,792,0,0
-392,232,0,0,0,0,0,0,0,0,0,-1,832,792,0,0
-385,232,0,0,0,0,0,0,0,0,0,-1,839,792,0,0
-378,232,0,0,0,0,0,0,0,0,0,-1,846,792,0,0
-371,232,0,0,0,0,0,0,0,0,0,-1,853,792,0,0
-364,232,0,0,0,0,0,0,0,0,0,-1,860,792,0,0
-357,232,0,0,0,0,0,0,0,0,0,-1,867,792,0,0
-350,232,0,0,0,0,0,0,0,0,0,-1,874,792,0,0
-343,232,0,0,0,0,0,0,0,0,0,-1,881,792,0,0
-336,232,0,0,0,0,0,0,0,0,0,-1,888,792,0,0
-329,232,0,0,0,0,0,0,0,0,0,-1,895,792,0,0
-322,232,0,0,0,0,0,0,0,0,0,-1,902,792,0,0
-315,232,0,0,0,0,0,0,0,0,0,-1,909,792,0,0
-308,232,0,0,0,0,0,0,0,0,0,-1,916,792,0,0
-301,232,0,0,0,0,0,0,0,0,0,-1,923,792,0,0
-294,232,0,0,0,0,0,0,0,0,0,-1,930,792,0,0
-287,232,0,0,0,0,0,0,0,0,0,-1,937,792,0,0
-280,232,0,0,0,0,0,0,0,0,0,-1,944,792,0,0
-273,232,0,0,0,0,0,0,0,0,0,-1,951,792,0,0
-266,232,0,0,0,0,0,0,0,0,0,-1,958,792,0,0
-259,232,0,0,0,0,0,0,0,0,0,-1,965,792,0,0
-252,232,0,0,0,0,0,0,0,0,0,-1,972,792,0,0
-245,232,0,0,0,0,0,0,0,0,0,-1,979,792,0,0
-238,232,0,0,0,0,0,0,0,0,0,-1,986,792,0,0
-231,232,0,0,0,0,0,0,0,0,0,-1,993,792,0,0
-224,232,0,0,0,0,0,0,0,0,0,-1,1000,792,0,0
-217,232,0,0,0,0,0,0,0,0,0,-1,1007,792,0,0
-210,232,0,0,0,0,0,0,0,0,0,-1,1014,792,0,0
-203,232,0,0,0,0,0,0,0,0,0,-1,1021,792,0,0
-196,232,0,0,0,0,0,0,0,0,0,-1,1028,792,0,0
-189,232,0,0,0,0,0,0,0,0,0,-1,1035,792,0,0
-182,232,0,0,0,0,0,0,0,0,0,-1,1042,792,0,0
-175,232,0,0,0,0,0,0,0,0,0,-1,1049,792,0,0
-168,232,0,0,0,0,0,0,0,0,0,-1,1056,792,0,0
-161,232,0,0,0,0,0,0,0,0,0,-1,1063,792,0,0
-154,232,0,0,0,0,0,0,0,0,0,-1,1070,792,0,0
-147,232,0,0,0,0,0,0,0,0,0,-1,1077,792,0,0
-140,232,0,0,0,0,0,0,0,0,0,-1,1084,792,0,0
-133,232,0,0,0,0,0,0,0,0,0,-1,1091,792,0,0
-126,232,0,0,0,0,0,0,0,0,0,-1,1098,792,0,0
-119,232,0,0,0,0,0,0,0,0,0,-1,1105,792,0,0
-112,232,0,0,0,0,0,0,0,0,0,-1,1112,792,0,0
-105,232,0,0,0,0,0,0,0,0,0,-1,1119,792,0,0
-98,232,0,0,0,0,0,0,0,0,0,-1,1126,792,0,0
-91,232,0,0,0,0,0,0,0,0,0,-1,1133,792,0,0
-84,232,0,0,0,0,0,0,0,0,0,-1,1140,792,0,0
-77,232,0,0,0,0,0,0,0,0,0,-1,1147,792,0,0
-70,232,0,0,0,0,0,0,0,0,0,-1,1154,792,0,0
-63,232,0,0,0,0,0,0,0,0,0,-1,1161,792,0,0
-56,232,0,0,0,0,0,0,0,0,0,-1,1168,792,0,0
-49,232,0,0,0,0,0,0,0,0,0,-1,1175,792,0,0
-42,232,0,0,0,0,0,0,0,0,0,-1,1182,792,0,0
-35,232,0,0,0,0,0,0,0,0,0,-1,1189,792,0,0
-28,232,0,0,0,0,0,0,0,0,0,-1,1196,792,0,0
-21,232,0,0,0,0,0,0,0,0,0,-1,1203,792,0,0
-14,232,0,0,0,0,0,0,0,0,0,-1,1210,792,0,0
-7,232,0,0,0,0,0,0,0,0,0,-1,1217,792,0,0
0,232,0,0,0,0,0,0,0,0,0,-1,1224,792,0,0
7,232,0,0,0,0,0,0,0,0,0,-1,1231,792,0,0
14,232,0,0,0,0,0,0,0,0,0,-1,1238,792,0,0
21,232,0,0,0,0,0,0,0,0,0,-1,1245,792,0,0
28,232,0,0,0,0,0,0,0,0,0,-1,1252,792,0,0
35,232,0,0,0,0,0,0,0,0,0,-1,1259,792,0,0
42,232,0,0,0,0,0,0,0,0,0,-1,1266,792,0,0
49,232,0,0,0,0,0,0,0,0,0,-1,1273,792,0,0
56,232,0,0,0,0,0,0,0,0,0,-1,1280,792,0,0
63,232,0,0,0,0,0,0,0,0,0,-1,1287,792,0,0
70,232,0,0,0,0,0,0,0,0,0,-1,1294,792,0,0
77,232,0,0,0,0,0,0,0,0,0,-1,1301,792,0,0
84,232,0,0,0,0,0,0,0,0,0,-1,1308,792,0,0
91,232,0,0,0,0,0,0,0,0,0,-1,1315,792,0,0
98,232,0,0,0,0,0,0,0,0,0,-1,1322,792,0,0
105,232,0,0,0,0,0,0,0,0,0,-1,1329,792,0,0
112,232,0,0,0,0,0,0,0,0,0,-1,1336,792,0,0
119,232,0,0,0,0,0,0,0,0,0,-1,1343,792,0,0
126,232,0,0,0,0,0,0,0,0,0,-1,1350,792,0,0
133,232,0,0,0,0,0,0,0,0,0,-1,1357,792,0,0
140,232,0,0,0,0,0,0,0,0,0,-1,1364,792,0,0
147,232,0,0,0,0,0,0,0,0,0,-1,1371,792,0,0
154,232,0,0,0,0,0,0,0,0,0,-1,1378,792,0,0
161,232,0,0,0,0,0,0,0,0,0,-1,1385,792,0,0
168,232,0,0,0,0,0,0,0,0,0,-1,1392,792,0,0
175,232,0,0,0,0,0,0,0,0,0,-1,1399,792,0,0
182,232,0,0,0,0,0,0,0,0,0,-1,1406,792,0,0
189,232,0,0,0,0,0,0,0,0,0,-1,1413,792,0,0
196,232,0,0,0,0,0,0,0,0,0,-1,1420,792,0,0
203,232,0,0,0,0,0,0,0,0,0,-1,1427,792,0,0
210,232,0,0,0,0,0,0,0,0,0,-1,1434,792,0,0
217,232,0,0,0,0,0,0,0,0,0,-1,1441,792,0,0
224,232,0,0,0,0,0,0,0,0,0,-1,1448,792,0,0
231,232,0,0,0,0,0,0,0,0,0,-1,1455,792,0,0
238,232,0,0,0,0,0,0,0,0,0,-1,1462,792,0,0
245,232,0,0,0,0,0,0,0,0,0,-1,1469,792,0,0
252,232,0,0,0,0,0,0,0,0,0,-1,1476,792,0,0
259,232,0,0,0,0,0,0,0,0,0,-1,1483,792,0,0
266,232,0,0,0,0,0,0,0,0,0,-1,1490,792,0,0
273,232,0,0,0,0,0,0,0,0,0,-1,1497,792,0,0
280,232,0,0,0,0,0,0,0,0,0,-1,1504,792,0,0
287,232,0,0,0,0,0,0,0,0,0,-1,1511,792,0,0
294,232,0,0,0,0,0,0,0,0,0,-1,1518,792,0,0
301,232,0,0,0,0,0,0,0,0,0,-1,1525,792,0,0
308,232,0,0,0,0,0,0,0,0,0,-1,1532,792,0,0
315,232,0,0,0,0,0,0,0,0,0,-1,1539,792,0,0
322,232,0,0,0,0,0,0,0,0,0,-1,1546,792,0,0
329,232,0,0,0,0,0,0,0,0,0,-1,1553,792,0,0
336,232,0,0,0,0,0,0,0,0,0,-1,1560,792,0,0
343,232,0,0,0,0,0,0,0,0,0,-1,1567,792,0,0
350,232,0,0,0,0,0,0,0,0,0,-1,1574,792,0,0
357,232,0,0,0,0,0,0,0,0,0,-1,1581,792,0,0
364,232,0,0,0,0,0,0,0,0,0,-1,1588,792,0,0
371,232,0,0,0,0,0,0,0,0,0,-1,1595,792,0,0
378,232,0,0,0,0,0,0,0,0,0,-1,1602,792,0,0
385,232,0,0,0,0,0,0,0,0,0,-1,1609,792,0,0
392,232,0,0,0,0,0,0,0,0,0,-1,1616,792,0,0
399,232,0,0,0,0,0,0,0,0,0,-1,1623,792,0,0
406,232,0,0,0,0,0,0,0,0,0,-1,1630,792,0,0
413,232,0,0,0,0,0,0,0,0,0,-1,1637,792,0,0
420,232,0,0,0,0,0,0,0,0,0,-1,1644,792,0,0
427,232,0,0,0,0,0,0,0,0,0,-1,1651,792,0,0
434,232,0,0,0,0,0,0,0,0,0,-1,1658,792,0,0
441,232,0,0,0,0,0,0,0,0,0,-1,1665,792,0,0
448,232,0,0,0,0,0,0,0,0,0,-1,1672,792,0,0
455,232,0,0,0,0,0,0,0,0,0,-1,1679,792,0,0
462,232,0,0,0,0,0,0,0,0,0,-1,1686,792,0,0
469,232,0,0,0,0,0,0,0,0,0,-1,1693,792,0,0
476,232,0,0,0,0,0,0,0,0,0,-1,1700,792,0,0
483,232,0,0,0,0,0,0,0,0,0,-1,1707,792,0,0
490,232,0,0,0,0,0,0,0,0,0,-1,1714,792,0,0
497,232,0,0,0,0,0,0,0,0,0,-1,1721,792,0,0
504,232,0,0,0,0,0,0,0,0,0,-1,1728,792,0,0
511,232,0,0,0,0,0,0,0,0,0,-1,1735,792,0,0
518,232,0,0,0,0,0,0,0,0,0,-1,1742,792,0,0
525,232,0,0,0,0,0,0,0,0,0,-1,1749,792,0,0
532,232,0,0,0,0,0,0,0,0,0,-1,1756,792,0,0
539,232,0,0,0,0,0,0,0,0,0,-1,1763,792,0,0
546,232,0,0,0,0,0,0,0,0,0,-1,1770,792,0,0
553,232,0,0,0,0,0,0,0,0,0,-1,1777,792,0,0
560,232,0,0,0,0,0,0,0,0,0,-1,1784,792,0,0
567,232,0,0,0,0,0,0,0,0,0,-1,1791,792,0,0
574,232,0,0,0,0,0,0,0,0,0,-1,1798,792,0,0
581,232,0,0,0,0,0,0,0,0,0,-1,1805,792,0,0
588,232,48.5903,2.99432,0.00241272,-0.000852542,-0.000167291,0.00242126,-0.000861091,-0.0510553,0.00196513,0.0384061,1812,792,48.5904,-2.99434
595,232,48.6565,2.75604,0.00662544,0.00155044,0.00499728,0.00969255,-0.00151668,0.550473,0.00702207,0.0362144,1819,792,48.6565,-2.75601
602,232,48.6934,2.66156,0.00702826,0.00289091,0.00697743,0.0122372,-0.00231804,0.641286,0.00903055,0.0353973,1826,792,48.6933,-2.66158
609,232,48.7394,2.75134,0.00582622,0.00338085,0.00718679,0.0118936,-0.00268652,0.70114,0.00895985,0.0426303,1833,792,48.7394,-2.75134
616,232,48.8146,2.83484,0,0,0,0,0,0,0,-1,1840,792,48.8146,-2.83485
623,232,49.0038,2.659,0,0,0,0,0,0,0,-1,1847,792,49.0037,-2.65897
630,232,49.021,2.81342,0,0,0,0,0,0,0,-1,1854,792,49.021,-2.81342
637,232,47.0471,4.04309,0,0,0,0,0,0,0,-1,1861,792,47.0471,-4.04309
644,232,30.7756,4.24139,0,0,0,0,0,0,0,-1,1868,792,30.7757,-4.24141
651,232,31.6797,-0.564087,0,0,0,0,0,0,0,-1,1875,792,31.6797,0.564059
658,232,34.9402,-1.08167,0,0,0,0,0,0,0,-1,1882,792,34.9401,1.08164
665,232,34.8182,-0.551636,-0.0040538,0.00139158,-0.000222996,0.00140069,-0.00406292,-1.52994,0.00327686,0.0232046,1889,792,34.8183,0.551628
672,232,34.7338,0.0222778,-0.00364936,0.0009695,-0.000573897,0.00103974,-0.0037196,-1.44901,0.00288936,0.0264437,1896,792,34.7338,-0.0222902
679,232,34.7498,0.598999,-0.00283799,0.000613198,-0.000657715,0.000734294,-0.00295908,-1.38872,0.00225765,0.0207756,1903,792,34.7497,-0.599
686,232,34.7616,1.18616,-0.00147826,0.000729631,-0.000469695,0.000825398,-0.00157403,-1.36966,0.0014076,0.0189509,1910,792,34.7616,-1.18615
693,232,34.7111,1.72314,0.000542494,0.00112711,0.000258142,0.00122478,0.000444827,1.20909,0.000715898,0.0110392,1917,792,34.7111,-1.72317
700,232,34.6998,2.28064,0.002407,0.00214647,0.00158895,0.00387102,0.000682455,0.744498,0.00238595,0.0129312,1924,792,34.6999,-2.28065
707,232,34.6885,2.84204,0.00413247,0.00318142,0.00334615,0.00703671,0.000277182,0.714815,0.00460153,0.0130292,1931,792,34.6884,-2.84203
714,232,34.6799,3.40894,0.00617525,0.00397847,0.00555784,0.0107422,-0.000588477,0.687841,0.00736547,0.0138839,1938,792,34.6799,-3.40895
721,232,34.6351,3.98816,0.00817576,0.00451146,0.00822301,0.0147683,-0.00208104,0.675785,0.0106074,0.0227147,1945,792,34.6352,-3.98814
728,232,34.6365,4.57385,0.0097964,0.00418171,0.011377,0.0187073,-0.00472918,0.664436,0.0143108,0.0449649,1952,792,34.6364,-4.57387
735,232,34.9174,5.40289,0,0,0,0,0,0,0,-1,1959,792,34.9174,-5.4029
742,232,25.6461,6.00684,0,0,0,0,0,0,0,-1,1966,792,25.6461,-6.00684
749,232,31.2874,3.74713,0,0,0,0,0,0,0,-1,1973,792,31.2874,-3.74713
756,232,32.1207,3.896,0,0,0,0,0,0,0,-1,1980,792,32.1207,-3.89597
763,232,32.7255,4.05878,0,0,0,0,0,0,0,-1,1987,792,32.7255,-4.05881
770,232,0,0,0,0,0,0,0,0,0,-1,1994,792,0,0
777,232,0,0,0,0,0,0,0,0,0,-1,2001,792,0,0
784,232,0,0,0,0,0,0,0,0,0,-1,2008,792,0,0
791,232,0,0,0,0,0,0,0,0,0,-1,2015,792,0,0
798,232,0,0,0,0,0,0,0,0,0,-1,2022,792,0,0
805,232,0,0,0,0,0,0,0,0,0,-1,2029,792,0,0
812,232,0,0,0,0,0,0,0,0,0,-1,2036,792,0,0
-700,225,0,0,0,0,0,0,0,0,0,-1,524,799,0,0
-693,225,0,0,0,0,0,0,0,0,0,-1,531,799,0,0
-686,225,0,0,0,0,0,0,0,0,0,-1,538,799,0,0
-679,225,0,0,0,0,0,0,0,0,0,-1,545,799,0,0
-672,225,0,0,0,0,0,0,0,0,0,-1,552,799,0,0
-665,225,0,0,0,0,0,0,0,0,0,-1,559,799,0,0
-658,225,0,0,0,0,0,0,0,0,0,-1,566,799,0,0
-651,225,0,0,0,0,0,0,0,0,0,-1,573,799,0,0
-644,225,-28.9417,3.77637,0,0,0,0,0,0,0,-1,580,799,-28.9416,-3.77637
-637,225,-29.6128,3.23175,0,0,0,0,0,0,0,-1,587,799,-29.6128,-3.23173
-630,225,-29.8912,5.02606,0,0,0,0,0,0,0,-1,594,799,-29.8912,-5.02606
-623,225,-32.8276,-0.00836182,0,0,0,0,0,0,0,-1,601,799,-32.8276,0.00837668
-616,225,-32.0569,-0.549255,0,0,0,0,0,0,0,-1,608,799,-32.0569,0.549265
-609,225,-24.2545,3.77222,0,0,0,0,0,0,0,-1,615,799,-24.2544,-3.77222
-602,225,-24.377,2.68451,0,0,0,0,0,0,0,-1,622,799,-24.377,-2.68452
-595,225,-24.328,2.01837,0.0014863,0.00327708,0.00101594,0.00373589,0.0010275,1.1466,0.0022285,0.0317824,629,799,-24.328,-2.01839
-588,225,-24.2901,1.3714,0.00147212,0.002973,0.00048412,0.0031156,0.00132951,1.28433,0.00180522,0.0123482,636,799,-24.2901,-1.37143
-581,225,-24.301,0.84021,0.00123939,0.00227986,0.000235043,0.00233049,0.00118876,1.35862,0.0013456,0.00985859,643,799,-24.301,-0.840196
-574,225,-24.3156,0.305054,0.000683265,0.00122969,0.000427748,0.00146404,0.000448922,1.0696,0.000866076,0.00896744,650,799,-24.3155,-0.305068
-567,225,-24.36,-0.250671,6.29364e-05,4.31857e-05,0.000942348,0.000995461,-0.000889339,0.780159,0.00108876,0.0124212,657,799,-24.3601,0.250674
-560,225,-24.3882,-0.769531,-0.000451614,-0.00081305,0.00152486,0.000903201,-0.00216787,0.726416,0.00182251,0.0132959,664,799,-24.3882,0.769538
-553,225,-24.431,-1.31421,-0.000823217,-0.00159608,0.00212893,0.000954065,-0.00337336,0.695618,0.00262537,0.0119135,671,799,-24.4309,1.3142
-546,225,-24.4655,-1.83783,-0.00142051,-0.00197862,0.00256846,0.000884006,-0.00428314,0.731287,0.00319117,0.0212307,678,799,-24.4655,1.8378
-539,225,-24.4672,-2.3728,-0.00201242,-0.00152913,0.0023195,0.000561275,-0.00410283,0.837301,0.00294022,0.0437686,685,799,-24.4673,2.37282
-532,225,-24.6507,-2.82184,-0.0023319,-0.0011236,0.00203956,0.000399406,-0.0038549,0.92939,0.00271289,0.0438398,692,799,-24.6507,2.82187
-525,225,-24.9044,-3.01111,0,0,0,0,0,0,0,-1,699,799,-24.9044,3.01113
-518,225,-21.963,0.171326,0,0,0,0,0,0,0,-1,706,799,-21.9629,-0.171319
-511,225,-33.0002,0.660217,0,0,0,0,0,0,0,-1,713,799,-33.0002,-0.660239
-504,225,-35.8383,1.57794,0,0,0,0,0,0,0,-1,720,799,-35.8383,-1.57796
-497,225,-36.0547,1.29614,-0.000114478,-0.0007425,-0.00152577,0.00112926,-0.00198624,-0.683913,0.00182128,0.0426849,727,799,-36.0547,-1.29612
-490,225,-36.342,1.04663,0.00114977,-0.000944315,-0.00257032,0.00287813,-0.00267268,-0.591981,0.00320549,0.0386097,734,799,-36.342,-1.04663
-483,225,-36.4874,0.988525,0.00281441,-0.00154021,-0.00349543,0.0047552,-0.00348099,-0.506854,0.0047741,0.0321022,741,799,-36.4873,-0.988506
-476,225,-36.4531,0.957886,0.00488136,-0.00281928,-0.00379967,0.00644052,-0.00437843,-0.389389,0.00628403,0.0307944,748,799,-36.4531,-0.957911
-469,225,-36.4167,1.05103,0.00673928,-0.00512663,-0.00260336,0.00728533,-0.00567267,-0.206749,0.00750059,0.0342083,755,799,-36.4167,-1.05102
-462,225,0,0,0,0,0,0,0,0,0,-1,762,799,0,0
-455,225,0,0,0,0,0,0,0,0,0,-1,769,799,0,0
-448,225,0,0,0,0,0,0,0,0,0,-1,776,799,0,0
-441,225,0,0,0,0,0,0,0,0,0,-1,783,799,0,0
-434,225,0,0,0,0,0,0,0,0,0,-1,790,799,0,0
-427,225,0,0,0,0,0,0,0,0,0,-1,797,799,0,0
-420,225,0,0,0,0,0,0,0,0,0,-1,804,799,0,0
-413,225,0,0,0,0,0,0,0,0,0,-1,811,799,0,0
-406,225,0,0,0,0,0,0,0,0,0,-1,818,799,0,0
-399,225,0,0,0,0,0,0,0,0,0,-1,825,799,0,0
-392,225,0,0,0,0,0,0,0,0,0,-1,832,799,0,0
-385,225,0,0,0,0,0,0,0,0,0,-1,839,799,0,0
-378,225,0,0,0,0,0,0,0,0,0,-1,846,799,0,0
-371,225,0,0,0,0,0,0,0,0,0,-1,853,799,0,0
-364,225,0,0,0,0,0,0,0,0,0,-1,860,799,0,0
-357,225,0,0,0,0,0,0,0,0,0,-1,867,799,0,0
-350,225,0,0,0,0,0,0,0,0,0,-1,874,799,0,0
-343,225,0,0,0,0,0,0,0,0,0,-1,881,799,0,0
-336,225,0,0,0,0,0,0,0,0,0,-1,888,799,0,0
-329,225,0,0,0,0,0,0,0,0,0,-1,895,799,0,0
-322,225,0,0,0,0,0,0,0,0,0,-1,902,799,0,0
-315,225,0,0,0,0,0,0,0,0,0,-1,909,799,0,0
-308,225,0,0,0,0,0,0,0,0,0,-1,916,799,0,0
-301,225,0,0,0,0,0,0,0,0,0,-1,923,799,0,0
-294,225,0,0,0,0,0,0,0,0,0,-1,930,799,0,0
-287,225,0,0,0,0,0,0,0,0,0,-1,937,799,0,0
-280,225,0,0,0,0,0,0,0,0,0,-1,944,799,0,0
-273,225,0,0,0,0,0,0,0,0,0,-1,951,799,0,0
-266,225,0,0,0,0,0,0,0,0,0,-1,958,799,0,0
-259,225,0,0,0,0,0,0,0,0,0,-1,965,799,0,0
-252,225,0,0,0,0,0,0,0,0,0,-1,972,799,0,0
-245,225,0,0,0,0,0,0,0,0,0,-1,979,799,0,0
-238,225,0,0,0,0,0,0,0,0,0,-1,986,799,0,0
-231,225,0,0,0,0,0,0,0,0,0,-1,993,799,0,0
-224,225,0,0,0,0,0,0,0,0,0,-1,1000,799,0,0
-217,225,0,0,0,0,0,0,0,0,0,-1,1007,799,0,0
-210,225,0,0,0,0,0,0,0,0,0,-1,1014,799,0,0
-203,225,0,0,0,0,0,0,0,0,0,-1,1021,799,0,0
-196,225,0,0,0,0,0,0,0,0,0,-1,1028,799,0,0
-189,225,0,0,0,0,0,0,0,0,0,-1,1035,799,0,0
-182,225,0,0,0,0,0,0,0,0,0,-1,1042,799,0,0
-175,225,0,0,0,0,0,0,0,0,0,-1,1049,799,0,0
-168,225,0,0,0,0,0,0,0,0,0,-1,1056,799,0,0
-161,225,0,0,0,0,0,0,0,0,0,-1,1063,799,0,0
-154,225,0,0,0,0,0,0,0,0,0,-1,1070,799,0,0
-147,225,0,0,0,0,0,0,0,0,0,-1,1077,799,0,0
-140,225,0,0,0,0,0,0,0,0,0,-1,1084,799,0,0
-133,225,0,0,0,0,0,0,0,0,0,-1,1091,799,0,0
-126,225,0,0,0,0,0,0,0,0,0,-1,1098,799,0,0
-119,225,0,0,0,0,0,0,0,0,0,-1,1105,799,0,0
-112,225,0,0,0,0,0,0,0,0,0,-1,1112,799,0,0
-105,225,0,0,0,0,0,0,0,0,0,-1,1119,799,0,0
-98,225,0,0,0,0,0,0,0,0,0,-1,1126,799,0,0
-91,225,0,0,0,0,0,0,0,0,0,-1,1133,799,0,0
-84,225,0,0,0,0,0,0,0,0,0,-1,1140,799,0,0
-77,225,0,0,0,0,0,0,0,0,0,-1,1147,799,0,0
-70,225,0,0,0,0,0,0,0,0,0,-1,1154,799,0,0
-63,225,0,0,0,0,0,0,0,0,0,-1,1161,799,0,0
-56,225,0,0,0,0,0,0,0,0,0,-1,1168,799,0,0
-49,225,0,0,0,0,0,0,0,0,0,-1,1175,799,0,0
-42,225,0,0,0,0,0,0,0,0,0,-1,1182,799,0,0
-35,225,0,0,0,0,0,0,0,0,0,-1,1189,799,0,0
-28,225,0,0,0,0,0,0,0,0,0,-1,1196,799,0,0
-21,225,0,0,0,0,0,0,0,0,0,-1,1203,799,0,0
-14,225,0,0,0,0,0,0,0,0,0,-1,1210,799,0,0
-7,225,0,0,0,0,0,0,0,0,0,-1,1217,799,0,0
0,225,0,0,0,0,0,0,0,0,0,-1,1224,799,0,0
7,225,0,0,0,0,0,0,0,0,0,-1,1231,799,0,0
14,225,0,0,0,0,0,0,0,0,0,-1,1238,799,0,0
21,225,0,0,0,0,0,0,0,0,0,-1,1245,799,0,0
28,225,0,0,0,0,0,0,0,0,0,-1,1252,799,0,0
35,225,0,0,0,0,0,0,0,0,0,-1,1259,799,0,0
42,225,0,0,0,0,0,0,0,0,0,-1,1266,799,0,0
49,225,0,0,0,0,0,0,0,0,0,-1,1273,799,0,0
56,225,0,0,0,0,0,0,0,0,0,-1,1280,799,0,0
63,225,0,0,0,0,0,0,0,0,0,-1,1287,799,0,0
70,225,0,0,0,0,0,0,0,0,0,-1,1294,799,0,0
77,225,0,0,0,0,0,0,0,0,0,-1,1301,799,0,0
84,225,0,0,0,0,0,0,0,0,0,-1,1308,799,0,0
91,225,0,0,0,0,0,0,0,0,0,-1,1315,799,0,0
98,225,0,0,0,0,0,0,0,0,0,-1,1322,799,0,0
105,225,0,0,0,0,0,0,0,0,0,-1,1329,799,0,0
112,225,0,0,0,0,0,0,0,0,0,-1,1336,799,0,0
119,225,0,0,0,0,0,0,0,0,0,-1,1343,799,0,0
126,225,0,0,0,0,0,0,0,0,0,-1,1350,799,0,0
133,225,0,0,0,0,0,0,0,0,0,-1,1357,799,0,0
140,225,0,0,0,0,0,0,0,0,0,-1,1364,799,0,0
147,225,0,0,0,0,0,0,0,0,0,-1,1371,799,0,0
154,225,0,0,0,0,0,0,0,0,0,-1,1378,799,0,0
161,225,0,0,0,0,0,0,0,0,0,-1,1385,799,0,0
168,225,0,0,0,0,0,0,0,0,0,-1,1392,799,0,0
175,225,0,0,0,0,0,0,0,0,0,-1,1399,799,0,0
182,225,0,0,0,0,0,0,0,0,0,-1,1406,799,0,0
189,225,0,0,0,0,0,0,0,0,0,-1,1413,799,0,0
196,225,0,0,0,0,0,0,0,0,0,-1,1420,799,0,0
203,225,0,0,0,0,0,0,0,0,0,-1,1427,799,0,0
210,225,0,0,0,0,0,0,0,0,0,-1,1434,799,0,0
217,225,0,0,0,0,0,0,0,0,0,-1,1441,799,0,0
224,225,0,0,0,0,0,0,0,0,0,-1,1448,799,0,0
231,225,0,0,0,0,0,0,0,0,0,-1,1455,799,0,0
238,225,0,0,0,0,0,0,0,0,0,-1,1462,799,0,0
245,225,0,0,0,0,0,0,0,0,0,-1,1469,799,0,0
252,225,0,0,0,0,0,0,0,0,0,-1,1476,799,0,0
259,225,0,0,0,0,0,0,0,0,0,-1,1483,799,0,0
266,225,0,0,0,0,0,0,0,0,0,-1,1490,799,0,0
273,225,0,0,0,0,0,0,0,0,0,-1,1497,799,0,0
280,225,0,0,0,0,0,0,0,0,0,-1,1504,799,0,0
287,225,0,0,0,0,0,0,0,0,0,-1,1511,799,0,0
294,225,0,0,0,0,0,0,0,0,0,-1,1518,799,0,0
301,225,0,0,0,0,0,0,0,0,0,-1,1525,799,0,0
308,225,0,0,0,0,0,0,0,0,0,-1,1532,799,0,0
315,225,0,0,0,0,0,0,0,0,0,-1,1539,799,0,0
322,225,0,0,0,0,0,0,0,0,0,-1,1546,799,0,0
329,225,0,0,0,0,0,0,0,0,0,-1,1553,799,0,0
336,225,0,0,0,0,0,0,0,0,0,-1,1560,799,0,0
343,225,0,0,0,0,0,0,0,0,0,-1,1567,799,0,0
350,225,0,0,0,0,0,0,0,0,0,-1,1574,799,0,0
357,225,0,0,0,0,0,0,0,0,0,-1,1581,799,0,0
364,225,0,0,0,0,0,0,0,0,0,-1,1588,799,0,0
371,225,0,0,0,0,0,0,0,0,0,-1,1595,799,0,0
378,225,0,0,0,0,0,0,0,0,0,-1,1602,799,0,0
385,225,0,0,0,0,0,0,0,0,0,-1,1609,799,0,0
392,225,0,0,0,0,0,0,0,0,0,-1,1616,799,0,0
399,225,0,0,0,0,0,0,0,0,0,-1,1623,799,0,0
406,225,0,0,0,0,0,0,0,0,0,-1,1630,799,0,0
413,225,0,0,0,0,0,0,0,0,0,-1,1637,799,0,0
420,225,0,0,0,0,0,0,0,0,0,-1,1644,799,0,0
427,225,0,0,0,0,0,0,0,0,0,-1,1651,799,0,0
434,225,0,0,0,0,0,0,0,0,0,-1,1658,799,0,0
441,225,0,0,0,0,0,0,0,0,0,-1,1665,799,0,0
448,225,0,0,0,0,0,0,0,0,0,-1,1672,799,0,0
455,225,0,0,0,0,0,0,0,0,0,-1,1679,799,0,0
462,225,0,0,0,0,0,0,0,0,0,-1,1686,799,0,0
469,225,0,0,0,0,0,0,0,0,0,-1,1693,799,0,0
476,225,0,0,0,0,0,0,0,0,0,-1,1700,799,0,0
483,225,0,0,0,0,0,0,0,0,0,-1,1707,799,0,0
490,225,0,0,0,0,0,0,0,0,0,-1,1714,799,0,0
497,225,0,0,0,0,0,0,0,0,0,-1,1721,799,0,0
504,225,0,0,0,0,0,0,0,0,0,-1,1728,799,0,0
511,225,0,0,0,0,0,0,0,0,0,-1,1735,799,0,0
518,225,0,0,0,0,0,0,0,0,0,-1,1742,799,0,0
525,225,0,0,0,0,0,0,0,0,0,-1,1749,799,0,0
532,225,0,0,0,0,0,0,0,0,0,-1,1756,799,0,0
539,225,0,0,0,0,0,0,0,0,0,-1,1763,799,0,0
546,225,0,0,0,0,0,0,0,0,0,-1,1770,799,0,0
553,225,0,0,0,0,0,0,0,0,0,-1,1777,799,0,0
560,225,0,0,0,0,0,0,0,0,0,-1,1784,799,0,0
567,225,0,0,0,0,0,0,0,0,0,-1,1791,799,0,0
574,225,0,0,0,0,0,0,0,0,0,-1,1798,799,0,0
581,225,0,0,0,0,0,0,0,0,0,-1,1805,799,0,0
588,225,48.7321,2.98877,-0.000379949,-0.00406533,-0.00476752,0.0028886,-0.00733388,-0.600987,0.00608511,0.0375241,1812,799,48.732,-2.9888
595,225,48.75,2.78162,0.00404045,-0.00105416,0.00136564,0.00438343,-0.00139714,0.24606,0.0034827,0.0369917,1819,799,48.7499,-2.78162
602,225,48.6807,2.64679,0.00458244,0.0012837,0.00443752,0.0076672,-0.00180106,0.607466,0.0058057,0.0338181,1826,799,48.6807,-2.6468
609,225,48.6848,2.7406,0.00363999,0.00268004,0.00558597,0.00876657,-0.00244654,0.742541,0.00680804,0.0320091,1833,799,48.6848,-2.74059
616,225,48.6891,2.76898,0.00197181,0.00310735,0.0053379,0.00790759,-0.00282843,0.838382,0.00642551,0.0381709,1840,799,48.6891,-2.76898
623,225,48.7465,2.836,0.000259807,0.00306409,0.00441286,0.00629221,-0.00296831,0.939224,0.00546016,0.0417829,1847,799,48.7464,-2.83602
630,225,48.917,2.80872,-0.000990707,0.0029017,0.00350067,0.0049608,-0.0030498,1.0391,0.00466858,0.0456308,1854,799,48.9169,-2.80874
637,225,49.0358,2.78265,0,0,0,0,0,0,0,-1,1861,799,49.0358,-2.78263
644,225,42.0298,2.46411,0,0,0,0,0,0,0,-1,1868,799,42.0298,-2.4641
651,225,27.9657,0.579529,0,0,0,0,0,0,0,-1,1875,799,27.9657,-0.579541
658,225,36.0955,-0.72052,0,0,0,0,0,0,0,-1,1882,799,36.0954,0.720519
665,225,35.5944,-0.3573,-0.00460597,0.00178575,-0.00018205,0.00179093,-0.00461115,-1.54234,0.00381391,0.0288027,1889,799,35.5943,0.357302
672,225,35.3467,0.171326,-0.00429018,0.00130953,-0.000584676,0.00136993,-0.00435058,-1.46786,0.00344894,0.0275047,1896,799,35.3467,-0.171317
679,225,35.3297,0.699341,-0.00366436,0.00073476,-0.000849931,0.00089326,-0.00382286,-1.38643,0.00289267,0.0209658,1903,799,35.3297,-0.699313
686,225,35.2999,1.19727,-0.00246751,0.000592913,-0.000862861,0.000819425,-0.00269402,-1.31408,0.00212255,0.0112756,1910,799,35.2999,-1.19724
693,225,35.2704,1.73462,-0.000515481,0.000634455,-0.000390479,0.000754514,-0.000635539,-1.27251,0.000803527,0.0105107,1917,799,35.2704,-1.73461
700,225,35.2537,2.30066,0.00121368,0.00132678,0.000732996,0.0020054,0.000535053,0.823895,0.00119906,0.011963,1924,799,35.2536,-2.30064
707,225,35.2336,2.86963,0.00261221,0.00206056,0.00227283,0.0046259,4.68784e-05,0.725015,0.00306842,0.0119265,1931,799,35.2336,-2.86962
714,225,35.2347,3.44031,0.00423459,0.00245796,0.00422029,0.00765904,-0.000966495,0.681669,0.0054568,0.0135109,1938,799,35.2347,-3.44033
721,225,35.2439,4.02026,0.00563862,0.002513,0.00651882,0.0107793,-0.00262773,0.667749,0.00820364,0.0172118,1945,799,35.2439,-4.02029
728,225,35.1511,4.44849,0.00642765,0.00155496,0.00915528,0.0134652,-0.0054826,0.655355,0.0112585,0.0349213,1952,799,35.1511,-4.44851
735,225,35.3612,5.14539,0,0,0,0,0,0,0,-1,1959,799,35.3611,-5.14537
742,225,29.0922,3.2132,0,0,0,0,0,0,0,-1,1966,799,29.0921,-3.21322
749,225,29.9529,4.45538,0,0,0,0,0,0,0,-1,1973,799,29.9529,-4.45537
756,225,31.8855,3.83466,0,0,0,0,0,0,0,-1,1980,799,31.8855,-3.83463
763,225,29.1302,5.2796,0,0,0,0,0,0,0,-1,1987,799,29.1303,-5.27958
770,225,0,0,0,0,0,0,0,0,0,-1,1994,799,0,0
777,225,0,0,0,0,0,0,0,0,0,-1,2001,799,0,0
784,225,0,0,0,0,0,0,0,0,0,-1,2008,799,0,0
791,225,0,0,0,0,0,0,0,0,0,-1,2015,799,0,0
798,225,0,0,0,0,0,0,0,0,0,-1,2022,799,0,0
805,225,0,0,0,0,0,0,0,0,0,-1,2029,799,0,0
812,225,0,0,0,0,0,0,0,0,0,-1,2036,799,0,0
-700,218,0,0,0,0,0,0,0,0,0,-1,524,806,0,0
-693,218,0,0,0,0,0,0,0,0,0,-1,531,806,0,0
-686,218,0,0,0,0,0,0,0,0,0,-1,538,806,0,0
-679,218,0,0,0,0,0,0,0,0,0,-1,545,806,0,0
-672,218,0,0,0,0,0,0,0,0,0,-1,552,806,0,0
-665,218,0,0,0,0,0,0,0,0,0,-1,559,806,0,0
-658,218,0,0,0,0,0,0,0,0,0,-1,566,806,0,0
-651,218,-26.2643,2.93054,0,0,0,0,0,0,0,-1,573,806,-26.2643,-2.93053
-644,218,-28.7305,4.12079,0,0,0,0,0,0,0,-1,580,806,-28.7305,-4.12076
-637,218,-29.3349,3.56067,0,0,0,0,0,0,0,-1,587,806,-29.3349,-3.56068
-630,218,-29.7347,3.06238,0,0,0,0,0,0,0,-1,594,806,-29.7347,-3.06238
-623,218,-29.4469,4.34161,0,0,0,0,0,0,0,-1,601,806,-29.4469,-4.34164
-616,218,-20.0258,1.87585,0,0,0,0,0,0,0,-1,608,806,-20.0258,-1.87585
-609,218,-24.5598,3.07855,0,0,0,0,0,0,0,-1,615,806,-24.5598,-3.07858
-602,218,-24.7116,2.50757,0.000517029,4.75221e-05,0.00303681,0.00332815,-0.0027636,0.746824,0.0035221,0.0431574,622,806,-24.7116,-2.50757
-595,218,-24.8657,1.9342,0.000842147,0.00137262,0.00165241,0.00278095,-0.000566178,0.864977,0.00206868,0.0182806,629,806,-24.8657,-1.93422
-588,218,-24.8525,1.38373,0.000902575,0.00168756,0.00101365,0.00238206,0.000208083,0.970114,0.00152342,0.0110954,636,806,-24.8525,-1.3837
-581,218,-24.8489,0.872009,0.0007384,0.00148577,0.000700076,0.00190565,0.000318519,1.03055,0.00117869,0.0110207,643,806,-24.8489,-0.872008
-574,218,-24.8746,0.348938,0.000373184,0.000771637,0.00092223,0.00151591,-0.000371093,0.891777,0.00115436,0.010791,650,806,-24.8746,-0.348944
-567,218,-24.8729,-0.237305,9.75764e-05,-0.000121323,0.00153379,0.00152582,-0.00154956,0.749779,0.00177559,0.0185246,657,806,-24.8729,0.237318
-560,218,-24.902,-0.735413,-3.13685e-05,-0.000658957,0.00219816,0.00187528,-0.00256561,0.714501,0.00257425,0.0185657,664,806,-24.9021,0.735427
-553,218,-24.8966,-1.32648,-0.000164873,-0.00104337,0.00283028,0.00226004,-0.00346828,0.708415,0.00333168,0.0180605,671,806,-24.8966,1.3265
-546,218,-25.0195,-1.96265,-0.000633302,-0.00111233,0.0031482,0.00228448,-0.00403011,0.747431,0.00369188,0.0212259,678,806,-25.0195,1.96262
-539,218,-25.0367,-2.52014,-0.00111866,-0.000560265,0.00288946,0.00206346,-0.00374238,0.833562,0.0033984,0.0347273,685,806,-25.0367,2.52016
-532,218,-25.2034,-2.76538,-0.00140783,-0.000164767,0.00262848,0.00191466,-0.00348726,0.901496,0.00316255,0.0452744,692,806,-25.2034,2.76536
-525,218,-25.719,-2.92236,0,0,0,0,0,0,0,-1,699,806,-25.719,2.92237
-518,218,-23.61,2.54181,0,0,0,0,0,0,0,-1,706,806,-23.61,-2.54183
-511,218,-36.4296,1.20911,0,0,0,0,0,0,0,-1,713,806,-36.4296,-1.20912
-504,218,-36.4756,1.10809,-0.000938965,0.000755599,0.000181652,0.000774852,-0.000958218,1.4652,0.00100245,0.0488484,720,806,-36.4757,-1.1081
-497,218,-36.2814,1.15167,-0.000187524,0.00103995,-0.000954269,0.00156081,-0.00070838,-1.07117,0.00134058,0.0487224,727,806,-36.2814,-1.1517
-490,218,-36.4324,0.974487,0.000826247,0.00115561,-0.00214342,0.00314066,-0.00115881,-0.823739,0.0025687,0.0366596,734,806,-36.4324,-0.974517
-483,218,-36.4037,1.02173,0.00225128,0.000898249,-0.00326584,0.00490995,-0.00176041,-0.683268,0.00399167,0.0324648,741,806,-36.4038,-1.0217
-476,218,-36.4294,1.03345,0.00388461,-7.88384e-05,-0.00359278,0.00600597,-0.00220019,-0.533368,0.00490473,0.0342449,748,806,-36.4294,-1.03345
-469,218,0,0,0,0,0,0,0,0,0,-1,755,806,0,0
-462,218,0,0,0,0,0,0,0,0,0,-1,762,806,0,0
-455,218,0,0,0,0,0,0,0,0,0,-1,769,806,0,0
-448,218,0,0,0,0,0,0,0,0,0,-1,776,806,0,0
-441,218,0,0,0,0,0,0,0,0,0,-1,783,806,0,0
-434,218,0,0,0,0,0,0,0,0,0,-1,790,806,0,0
-427,218,0,0,0,0,0,0,0,0,0,-1,797,806,0,0
-420,218,0,0,0,0,0,0,0,0,0,-1,804,806,0,0
-413,218,0,0,0,0,0,0,0,0,0,-1,811,806,0,0
-406,218,0,0,0,0,0,0,0,0,0,-1,818,806,0,0
-399,218,0,0,0,0,0,0,0,0,0,-1,825,806,0,0
-392,218,0,0,0,0,0,0,0,0,0,-1,832,806,0,0
-385,218,0,0,0,0,0,0,0,0,0,-1,839,806,0,0
-378,218,0,0,0,0,0,0,0,0,0,-1,846,806,0,0
-371,218,0,0,0,0,0,0,0,0,0,-1,853,806,0,0
-364,218,0,0,0,0,0,0,0,0,0,-1,860,806,0,0
-357,218,0,0,0,0,0,0,0,0,0,-1,867,806,0,0
-350,218,0,0,0,0,0,0,0,0,0,-1,874,806,0,0
-343,218,0,0,0,0,0,0,0,0,0,-1,881,806,0,0
-336,218,0,0,0,0,0,0,0,0,0,-1,888,806,0,0
-329,218,0,0,0,0,0,0,0,0,0,-1,895,806,0,0
-322,218,0,0,0,0,0,0,0,0,0,-1,902,806,0,0
-315,218,0,0,0,0,0,0,0,0,0,-1,909,806,0,0
-308,218,0,0,0,0,0,0,0,0,0,-1,916,806,0,0
-301,218,0,0,0,0,0,0,0,0,0,-1,923,806,0,0
-294,218,0,0,0,0,0,0,0,0,0,-1,930,806,0,0
-287,218,0,0,0,0,0,0,0,0,0,-1,937,806,0,0
-280,218,0,0,0,0,0,0,0,0,0,-1,944,806,0,0
-273,218,0,0,0,0,0,0,0,0,0,-1,951,806,0,0
-266,218,0,0,0,0,0,0,0,0,0,-1,958,806,0,0
-259,218,0,0,0,0,0,0,0,0,0,-1,965,806,0,0
-252,218,0,0,0,0,0,0,0,0,0,-1,972,806,0,0
-245,218,0,0,0,0,0,0,0,0,0,-1,979,806,0,0
-238,218,0,0,0,0,0,0,0,0,0,-1,986,806,0,0
-231,218,0,0,0,0,0,0,0,0,0,-1,993,806,0,0
-224,218,0,0,0,0,0,0,0,0,0,-1,1000,806,0,0
-217,218,0,0,0,0,0,0,0,0,0,-1,1007,806,0,0
-210,218,0,0,0,0,0,0,0,0,0,-1,1014,806,0,0
-203,218,0,0,0,0,0,0,0,0,0,-1,1021,806,0,0
-196,218,0,0,0,0,0,0,0,0,0,-1,1028,806,0,0
-189,218,0,0,0,0,0,0,0,0,0,-1,1035,806,0,0
-182,218,0,0,0,0,0,0,0,0,0,-1,1042,806,0,0
-175,218,0,0,0,0,0,0,0,0,0,-1,1049,806,0,0
-168,218,0,0,0,0,0,0,0,0,0,-1,1056,806,0,0
-161,218,0,0,0,0,0,0,0,0,0,-1,1063,806,0,0
-154,218,0,0,0,0,0,0,0,0,0,-1,1070,806,0,0
-147,218,0,0,0,0,0,0,0,0,0,-1,1077,806,0,0
-140,218,0,0,0,0,0,0,0,0,0,-1,1084,806,0,0
-133,218,0,0,0,0,0,0,0,0,0,-1,1091,806,0,0
-126,218,0,0,0,0,0,0,0,0,0,-1,1098,806,0,0
-119,218,0,0,0,0,0,0,0,0,0,-1,1105,806,0,0
-112,218,0,0,0,0,0,0,0,0,0,-1,1112,806,0,0
-105,218,0,0,0,0,0,0,0,0,0,-1,1119,806,0,0
-98,218,0,0,0,0,0,0,0,0,0,-1,1126,806,0,0
-91,218,0,0,0,0,0,0,0,0,0,-1,1133,806,0,0
-84,218,0,0,0,0,0,0,0,0,0,-1,1140,806,0,0
-77,218,0,0,0,0,0,0,0,0,0,-1,1147,806,0,0
-70,218,0,0,0,0,0,0,0,0,0,-1,1154,806,0,0
-63,218,0,0,0,0,0,0,0,0,0,-1,1161,806,0,0
-56,218,0,0,0,0,0,0,0,0,0,-1,1168,806,0,0
-49,218,0,0,0,0,0,0,0,0,0,-1,1175,806,0,0
-42,218,0,0,0,0,0,0,0,0,0,-1,1182,806,0,0
-35,218,0,0,0,0,0,0,0,0,0,-1,1189,806,0,0
-28,218,0,0,0,0,0,0,0,0,0,-1,1196,806,0,0
-21,218,0,0,0,0,0,0,0,0,0,-1,1203,806,0,0
-14,218,0,0,0,0,0,0,0,0,0,-1,1210,806,0,0
-7,218,0,0,0,0,0,0,0,0,0,-1,1217,806,0,0
0,218,0,0,0,0,0,0,0,0,0,-1,1224,806,0,0
7,218,0,0,0,0,0,0,0,0,0,-1,1231,806,0,0
14,218,0,0,0,0,0,0,0,0,0,-1,1238,806,0,0
21,218,0,0,0,0,0,0,0,0,0,-1,1245,806,0,0
28,218,0,0,0,0,0,0,0,0,0,-1,1252,806,0,0
35,218,0,0,0,0,0,0,0,0,0,-1,1259,806,0,0
42,218,0,0,0,0,0,0,0,0,0,-1,1266,806,0,0
49,218,0,0,0,0,0,0,0,0,0,-1,1273,806,0,0
56,218,0,0,0,0,0,0,0,0,0,-1,1280,806,0,0
63,218,0,0,0,0,0,0,0,0,0,-1,1287,806,0,0
70,218,0,0,0,0,0,0,0,0,0,-1,1294,806,0,0
77,218,0,0,0,0,0,0,0,0,0,-1,1301,806,0,0
84,218,0,0,0,0,0,0,0,0,0,-1,1308,806,0,0
91,218,0,0,0,0,0,0,0,0,0,-1,1315,806,0,0
98,218,0,0,0,0,0,0,0,0,0,-1,1322,806,0,0
105,218,0,0,0,0,0,0,0,0,0,-1,1329,806,0,0
112,218,0,0,0,0,0,0,0,0,0,-1,1336,806,0,0
119,218,0,0,0,0,0,0,0,0,0,-1,1343,806,0,0
126,218,0,0,0,0,0,0,0,0,0,-1,1350,806,0,0
133,218,0,0,0,0,0,0,0,0,0,-1,1357,806,0,0
140,218,0,0,0,0,0,0,0,0,0,-1,1364,806,0,0
147,218,0,0,0,0,0,0,0,0,0,-1,1371,806,0,0
154,218,0,0,0,0,0,0,0,0,0,-1,1378,806,0,0
161,218,0,0,0,0,0,0,0,0,0,-1,1385,806,0,0
168,218,0,0,0,0,0,0,0,0,0,-1,1392,806,0,0
175,218,0,0,0,0,0,0,0,0,0,-1,1399,806,0,0
182,218,0,0,0,0,0,0,0,0,0,-1,1406,806,0,0
189,218,0,0,0,0,0,0,0,0,0,-1,1413,806,0,0
196,218,0,0,0,0,0,0,0,0,0,-1,1420,806,0,0
203,218,0,0,0,0,0,0,0,0,0,-1,1427,806,0,0
210,218,0,0,0,0,0,0,0,0,0,-1,1434,806,0,0
217,218,0,0,0,0,0,0,0,0,0,-1,1441,806,0,0
224,218,0,0,0,0,0,0,0,0,0,-1,1448,806,0,0
231,218,0,0,0,0,0,0,0,0,0,-1,1455,806,0,0
238,218,0,0,0,0,0,0,0,0,0,-1,1462,806,0,0
245,218,0,0,0,0,0,0,0,0,0,-1,1469,806,0,0
252,218,0,0,0,0,0,0,0,0,0,-1,1476,806,0,0
259,218,0,0,0,0,0,0,0,0,0,-1,1483,806,0,0
266,218,0,0,0,0,0,0,0,0,0,-1,1490,806,0,0
273,218,0,0,0,0,0,0,0,0,0,-1,1497,806,0,0
280,218,0,0,0,0,0,0,0,0,0,-1,1504,806,0,0
287,218,0,0,0,0,0,0,0,0,0,-1,1511,806,0,0
294,218,0,0,0,0,0,0,0,0,0,-1,1518,806,0,0
301,218,0,0,0,0,0,0,0,0,0,-1,1525,806,0,0
308,218,0,0,0,0,0,0,0,0,0,-1,1532,806,0,0
315,218,0,0,0,0,0,0,0,0,0,-1,1539,806,0,0
322,218,0,0,0,0,0,0,0,0,0,-1,1546,806,0,0
329,218,0,0,0,0,0,0,0,0,0,-1,1553,806,0,0
336,218,0,0,0,0,0,0,0,0,0,-1,1560,806,0,0
343,218,0,0,0,0,0,0,0,0,0,-1,1567,806,0,0
350,218,0,0,0,0,0,0,0,0,0,-1,1574,806,0,0
357,218,0,0,0,0,0,0,0,0,0,-1,1581,806,0,0
364,218,0,0,0,0,0,0,0,0,0,-1,1588,806,0,0
371,218,0,0,0,0,0,0,0,0,0,-1,1595,806,0,0
378,218,0,0,0,0,0,0,0,0,0,-1,1602,806,0,0
385,218,0,0,0,0,0,0,0,0,0,-1,1609,806,0,0
392,218,0,0,0,0,0,0,0,0,0,-1,1616,806,0,0
399,218,0,0,0,0,0,0,0,0,0,-1,1623,806,0,0
406,218,0,0,0,0,0,0,0,0,0,-1,1630,806,0,0
413,218,0,0,0,0,0,0,0,0,0,-1,1637,806,0,0
420,218,0,0,0,0,0,0,0,0,0,-1,1644,806,0,0
427,218,0,0,0,0,0,0,0,0,0,-1,1651,806,0,0
434,218,0,0,0,0,0,0,0,0,0,-1,1658,806,0,0
441,218,0,0,0,0,0,0,0,0,0,-1,1665,806,0,0
448,218,0,0,0,0,0,0,0,0,0,-1,1672,806,0,0
455,218,0,0,0,0,0,0,0,0,0,-1,1679,806,0,0
462,218,0,0,0,0,0,0,0,0,0,-1,1686,806,0,0
469,218,0,0,0,0,0,0,0,0,0,-1,1693,806,0,0
476,218,0,0,0,0,0,0,0,0,0,-1,1700,806,0,0
483,218,0,0,0,0,0,0,0,0,0,-1,1707,806,0,0
490,218,0,0,0,0,0,0,0,0,0,-1,1714,806,0,0
497,218,0,0,0,0,0,0,0,0,0,-1,1721,806,0,0
504,218,0,0,0,0,0,0,0,0,0,-1,1728,806,0,0
511,218,0,0,0,0,0,0,0,0,0,-1,1735,806,0,0
518,218,0,0,0,0,0,0,0,0,0,-1,1742,806,0,0
525,218,0,0,0,0,0,0,0,0,0,-1,1749,806,0,0
532,218,0,0,0,0,0,0,0,0,0,-1,1756,806,0,0
539,218,0,0,0,0,0,0,0,0,0,-1,1763,806,0,0
546,218,0,0,0,0,0,0,0,0,0,-1,1770,806,0,0
553,218,0,0,0,0,0,0,0,0,0,-1,1777,806,0,0
560,218,0,0,0,0,0,0,0,0,0,-1,1784,806,0,0
567,218,0,0,0,0,0,0,0,0,0,-1,1791,806,0,0
574,218,0,0,0,0,0,0,0,0,0,-1,1798,806,0,0
581,218,0,0,0,0,0,0,0,0,0,-1,1805,806,0,0
588,218,0,0,0,0,0,0,0,0,0,-1,1812,806,0,0
595,218,48.7714,2.85205,0.0022441,-0.00369856,-0.00199814,0.00285346,-0.00430792,-0.296005,0.00416296,0.0403146,1819,806,48.7714,-2.85206
602,218,48.7198,2.65375,0.00250903,-0.000595755,0.0016634,0.0032319,-0.00131863,0.409952,0.00270355,0.0343668,1826,806,48.7199,-2.65375
609,218,48.6978,2.69702,0.00159122,0.00171992,0.00365841,0.00531454,-0.0020034,0.794192,0.0043668,0.0285743,1833,806,48.6978,-2.69704
616,218,48.6925,2.7583,6.86661e-05,0.00291812,0.00415382,0.00588475,-0.00289797,0.950607,0.00516752,0.0297239,1840,806,48.6926,-2.75829
623,218,48.7205,2.73938,-0.00153748,0.00328186,0.00364425,0.00524107,-0.00349668,1.07751,0.00507814,0.0353859,1847,806,48.7204,-2.73936
630,218,48.7815,2.82336,-0.00271201,0.00335792,0.00295832,0.00456119,-0.00391528,1.18449,0.00489863,0.0406709,1854,806,48.7815,-2.82338
637,218,48.4312,3.21381,-0.0035013,0.00318803,0.00222985,0.0038632,-0.00417647,1.27679,0.00464288,0.0451284,1861,806,48.4312,-3.21383
644,218,47.5093,3.08691,0,0,0,0,0,0,0,-1,1868,806,47.5092,-3.08694
651,218,41.7338,1.99164,0,0,0,0,0,0,0,-1,1875,806,41.7338,-1.99162
658,218,28.41,0.514954,0,0,0,0,0,0,0,-1,1882,806,28.41,-0.514983
665,218,36.4711,-0.0628052,0,0,0,0,0,0,0,-1,1889,806,36.4711,0.062808
672,218,36.1085,0.229797,-0.0048152,0.00164299,-0.000598495,0.00169798,-0.00487019,-1.47916,0.0039368,0.0228657,1896,806,36.1086,-0.229793
679,218,35.9709,0.716248,-0.00428031,0.000948309,-0.000966898,0.00112138,-0.00445339,-1.39367,0.00340484,0.0190706,1903,806,35.971,-0.716228
686,218,35.9084,1.20154,-0.00322424,0.000628966,-0.001149,0.000945576,-0.00354085,-1.30192,0.00273088,0.0121989,1910,806,35.9084,-1.20151
693,218,35.8892,1.75226,-0.00139371,0.000353108,-0.00092542,0.000752195,-0.0017928,-1.16364,0.00150974,0.0115122,1917,806,35.8891,-1.75226
700,218,35.8364,2.31158,0.00016321,0.000719647,-2.29166e-05,0.000720589,0.000162268,-1.5297,0.000436476,0.00993266,1924,806,35.8364,-2.31155
707,218,35.8014,2.87506,0.00122702,0.0011742,0.00128948,0.00249036,-8.91453e-05,0.77516,0.00169074,0.00848697,1931,806,35.8014,-2.87507
714,218,35.7999,3.44653,0.00247067,0.00123775,0.00300439,0.00492119,-0.00121277,0.68421,0.00375098,0.0114662,1938,806,35.8,-3.44656
721,218,35.801,4.00116,0.00339783,0.00090881,0.0050141,0.00731956,-0.00301291,0.663755,0.00613575,0.0149699,1945,806,35.801,-4.00116
728,218,35.7743,4.60382,0.00357804,-0.000509836,0.00726414,0.00908032,-0.00601212,0.648257,0.00877344,0.0259258,1952,806,35.7743,-4.60379
735,218,36.0646,5.31384,0.00275523,-0.00336906,0.00998245,0.0101346,-0.0107485,0.636578,0.0120586,0.0458239,1959,806,36.0646,-5.31386
742,218,36.8776,5.24103,0,0,0,0,0,0,0,-1,1966,806,36.8776,-5.24102
749,218,37.2681,4.93146,0,0,0,0,0,0,0,-1,1973,806,37.2681,-4.93147
756,218,34.7111,7.59937,0,0,0,0,0,0,0,-1,1980,806,34.711,-7.59938
763,218,35.1069,6.14771,0,0,0,0,0,0,0,-1,1987,806,35.1069,-6.1477
770,218,0,0,0,0,0,0,0,0,0,-1,1994,806,0,0
777,218,0,0,0,0,0,0,0,0,0,-1,2001,806,0,0
784,218,0,0,0,0,0,0,0,0,0,-1,2008,806,0,0
791,218,0,0,0,0,0,0,0,0,0,-1,2015,806,0,0
798,218,0,0,0,0,0,0,0,0,0,-1,2022,806,0,0
805,218,0,0,0,0,0,0,0,0,0,-1,2029,806,0,0
812,218,0,0,0,0,0,0,0,0,0,-1,2036,806,0,0
-700,211,0,0,0,0,0,0,0,0,0,-1,524,813,0,0
-693,211,0,0,0,0,0,0,0,0,0,-1,531,813,0,0
-686,211,0,0,0,0,0,0,0,0,0,-1,538,813,0,0
-679,211,0,0,0,0,0,0,0,0,0,-1,545,813,0,0
-672,211,0,0,0,0,0,0,0,0,0,-1,552,813,0,0
-665,211,0,0,0,0,0,0,0,0,0,-1,559,813,0,0
-658,211,0,0,0,0,0,0,0,0,0,-1,566,813,0,0
-651,211,-26.5805,4.03448,0,0,0,0,0,0,0,-1,573,813,-26.5805,-4.03446
-644,211,-25.6163,4.17889,0,0,0,0,0,0,0,-1,580,813,-25.6163,-4.17889
-637,211,-29.3029,4.28766,0,0,0,0,0,0,0,-1,587,813,-29.3029,-4.28766
-630,211,-26.2802,6.70776,0,0,0,0,0,0,0,-1,594,813,-26.2802,-6.70775
-623,211,-26.2827,6.96381,0,0,0,0,0,0,0,-1,601,813,-26.2827,-6.96378
-616,211,-25.2113,3.47589,0,0,0,0,0,0,0,-1,608,813,-25.2113,-3.47592
-609,211,-25.2532,2.93439,0.000409579,-0.00444867,0.0059032,0.0043639,-0.008403,0.590211,0.00749293,0.0429649,615,813,-25.2531,-2.93438
-602,211,-25.3226,2.41949,0.000180801,-0.00176189,0.00349524,0.00283716,-0.00441824,0.649866,0.00422193,0.0219197,622,813,-25.3226,-2.41949
-595,211,-25.4022,1.93347,0.000225319,-0.00018766,0.00209582,0.0021248,-0.00208714,0.736294,0.0024318,0.0108557,629,813,-25.4021,-1.93347
-588,211,-25.405,1.40344,0.000338168,0.000464146,0.00141079,0.00181335,-0.00101104,0.807707,0.00165245,0.0113731,636,813,-25.405,-1.40346
-581,211,-25.4036,0.885803,0.000263118,0.000598453,0.00107469,0.00151847,-0.000656904,0.862782,0.00128837,0.0120776,643,813,-25.4036,-0.88579
-574,211,-25.4363,0.356995,0.000186811,0.000157691,0.00129769,0.00147002,-0.00112552,0.779788,0.00150293,0.0131761,650,813,-25.4363,-0.356972
-567,211,-25.4424,-0.19397,0.000354323,-0.000426483,0.00191499,0.0019183,-0.00199046,0.684843,0.00225685,0.0198991,657,813,-25.4424,0.193987
-560,211,-25.4581,-0.714233,0.000579323,-0.000591195,0.00254382,0.00260434,-0.00261622,0.67233,0.00301409,0.0241771,664,813,-25.458,0.714244
-553,211,-25.3382,-1.2843,0.000590098,-0.000502145,0.00311831,0.00320975,-0.00312179,0.69871,0.00365563,0.0359299,671,813,-25.3382,1.2843
-546,211,-25.6668,-1.73047,0.000203625,-0.000240288,0.00328913,0.00327827,-0.00331494,0.751708,0.00380661,0.044274,678,813,-25.6668,1.73044
-539,211,-25.6277,-2.31158,-0.000197888,0.0004313,0.00305687,0.00318972,-0.00295631,0.836675,0.00354926,0.0283059,685,813,-25.6278,2.31159
-532,211,-25.5195,-2.97864,0,0,0,0,0,0,0,-1,692,813,-25.5195,2.97866
-525,211,-14.3009,2.3233,0,0,0,0,0,0,0,-1,699,813,-14.3009,-2.3233
-518,211,-34.952,1.93011,0,0,0,0,0,0,0,-1,706,813,-34.952,-1.9301
-511,211,-36.2272,1.20227,0,0,0,0,0,0,0,-1,713,813,-36.2271,-1.20229
-504,211,-36.2973,1.13263,-0.00069223,0.00272448,0.000541899,0.00280837,-0.000776117,1.41721,0.00217755,0.0470486,720,813,-36.2973,-1.13266
-497,211,-36.2602,1.16492,-0.000151618,0.00334885,-0.000697262,0.00348262,-0.000285394,-1.38124,0.00242249,0.043838,727,813,-36.2602,-1.1649
-490,211,-36.4014,1,0.000605917,0.00387332,-0.00203415,0.0048486,-0.000369357,-1.12372,0.00336229,0.0323752,734,813,-36.4014,-0.999981
-483,211,-36.41,1.00842,0.00185298,0.00407367,-0.00337659,0.00651779,-0.000591146,-0.944246,0.00455505,0.0299186,741,813,-36.41,-1.00845
-476,211,-36.4051,1.02496,0.00315141,0.00355824,-0.00366957,0.00703003,-0.000320382,-0.813086,0.00479705,0.032861,748,813,-36.4051,-1.02497
-469,211,0,0,0,0,0,0,0,0,0,-1,755,813,0,0
-462,211,0,0,0,0,0,0,0,0,0,-1,762,813,0,0
-455,211,0,0,0,0,0,0,0,0,0,-1,769,813,0,0
-448,211,0,0,0,0,0,0,0,0,0,-1,776,813,0,0
-441,211,0,0,0,0,0,0,0,0,0,-1,783,813,0,0
-434,211,0,0,0,0,0,0,0,0,0,-1,790,813,0,0
-427,211,0,0,0,0,0,0,0,0,0,-1,797,813,0,0
-420,211,0,0,0,0,0,0,0,0,0,-1,804,813,0,0
-413,211,0,0,0,0,0,0,0,0,0,-1,811,813,0,0
-406,211,0,0,0,0,0,0,0,0,0,-1,818,813,0,0
-399,211,0,0,0,0,0,0,0,0,0,-1,825,813,0,0
-392,211,0,0,0,0,0,0,0,0,0,-1,832,813,0,0
-385,211,0,0,0,0,0,0,0,0,0,-1,839,813,0,0
-378,211,0,0,0,0,0,0,0,0,0,-1,846,813,0,0
-371,211,0,0,0,0,0,0,0,0,0,-1,853,813,0,0
-364,211,0,0,0,0,0,0,0,0,0,-1,860,813,0,0
-357,211,0,0,0,0,0,0,0,0,0,-1,867,813,0,0
-350,211,0,0,0,0,0,0,0,0,0,-1,874,813,0,0
-343,211,0,0,0,0,0,0,0,0,0,-1,881,813,0,0
-336,211,0,0,0,0,0,0,0,0,0,-1,888,813,0,0
-329,211,0,0,0,0,0,0,0,0,0,-1,895,813,0,0
-322,211,0,0,0,0,0,0,0,0,0,-1,902,813,0,0
-315,211,0,0,0,0,0,0,0,0,0,-1,909,813,0,0
-308,211,0,0,0,0,0,0,0,0,0,-1,916,813,0,0
-301,211,0,0,0,0,0,0,0,0,0,-1,923,813,0,0
-294,211,0,0,0,0,0,0,0,0,0,-1,930,813,0,0
-287,211,0,0,0,0,0,0,0,0,0,-1,937,813,0,0
-280,211,0,0,0,0,0,0,0,0,0,-1,944,813,0,0
-273,211,0,0,0,0,0,0,0,0,0,-1,951,813,0,0
-266,211,0,0,0,0,0,0,0,0,0,-1,958,813,0,0
-259,211,0,0,0,0,0,0,0,0,0,-1,965,813,0,0
-252,211,0,0,0,0,0,0,0,0,0,-1,972,813,0,0
-245,211,0,0,0,0,0,0,0,0,0,-1,979,813,0,0
-238,211,0,0,0,0,0,0,0,0,0,-1,986,813,0,0
-231,211,0,0,0,0,0,0,0,0,0,-1,993,813,0,0
-224,211,0,0,0,0,0,0,0,0,0,-1,1000,813,0,0
-217,211,0,0,0,0,0,0,0,0,0,-1,1007,813,0,0
-210,211,0,0,0,0,0,0,0,0,0,-1,1014,813,0,0
-203,211,0,0,0,0,0,0,0,0,0,-1,1021,813,0,0
-196,211,0,0,0,0,0,0,0,0,0,-1,1028,813,0,0
-189,211,0,0,0,0,0,0,0,0,0,-1,1035,813,0,0
-182,211,0,0,0,0,0,0,0,0,0,-1,1042,813,0,0
-175,211,0,0,0,0,0,0,0,0,0,-1,1049,813,0,0
-168,211,0,0,0,0,0,0,0,0,0,-1,1056,813,0,0
-161,211,0,0,0,0,0,0,0,0,0,-1,1063,813,0,0
-154,211,0,0,0,0,0,0,0,0,0,-1,1070,813,0,0
-147,211,0,0,0,0,0,0,0,0,0,-1,1077,813,0,0
-140,211,0,0,0,0,0,0,0,0,0,-1,1084,813,0,0
-133,211,0,0,0,0,0,0,0,0,0,-1,1091,813,0,0
-126,211,0,0,0,0,0,0,0,0,0,-1,1098,813,0,0
-119,211,0,0,0,0,0,0,0,0,0,-1,1105,813,0,0
-112,211,0,0,0,0,0,0,0,0,0,-1,1112,813,0,0
-105,211,0,0,0,0,0,0,0,0,0,-1,1119,813,0,0
-98,211,0,0,0,0,0,0,0,0,0,-1,1126,813,0,0
-91,211,0,0,0,0,0,0,0,0,0,-1,1133,813,0,0
-84,211,0,0,0,0,0,0,0,0,0,-1,1140,813,0,0
-77,211,0,0,0,0,0,0,0,0,0,-1,1147,813,0,0
-70,211,0,0,0,0,0,0,0,0,0,-1,1154,813,0,0
-63,211,0,0,0,0,0,0,0,0,0,-1,1161,813,0,0
-56,211,0,0,0,0,0,0,0,0,0,-1,1168,813,0,0
-49,211,0,0,0,0,0,0,0,0,0,-1,1175,813,0,0
-42,211,0,0,0,0,0,0,0,0,0,-1,1182,813,0,0
-35,211,0,0,0,0,0,0,0,0,0,-1,1189,813,0,0
-28,211,0,0,0,0,0,0,0,0,0,-1,1196,813,0,0
-21,211,0,0,0,0,0,0,0,0,0,-1,1203,813,0,0
-14,211,0,0,0,0,0,0,0,0,0,-1,1210,813,0,0
-7,211,0,0,0,0,0,0,0,0,0,-1,1217,813,0,0
0,211,0,0,0,0,0,0,0,0,0,-1,1224,813,0,0
7,211,0,0,0,0,0,0,0,0,0,-1,1231,813,0,0
14,211,0,0,0,0,0,0,0,0,0,-1,1238,813,0,0
21,211,0,0,0,0,0,0,0,0,0,-1,1245,813,0,0
28,211,0,0,0,0,0,0,0,0,0,-1,1252,813,0,0
35,211,0,0,0,0,0,0,0,0,0,-1,1259,813,0,0
42,211,0,0,0,0,0,0,0,0,0,-1,1266,813,0,0
49,211,0,0,0,0,0,0,0,0,0,-1,1273,813,0,0
56,211,0,0,0,0,0,0,0,0,0,-1,1280,813,0,0
63,211,0,0,0,0,0,0,0,0,0,-1,1287,813,0,0
70,211,0,0,0,0,0,0,0,0,0,-1,1294,813,0,0
77,211,0,0,0,0,0,0,0,0,0,-1,1301,813,0,0
84,211,0,0,0,0,0,0,0,0,0,-1,1308,813,0,0
91,211,0,0,0,0,0,0,0,0,0,-1,1315,813,0,0
98,211,0,0,0,0,0,0,0,0,0,-1,1322,813,0,0
105,211,0,0,0,0,0,0,0,0,0,-1,1329,813,0,0
112,211,0,0,0,0,0,0,0,0,0,-1,1336,813,0,0
119,211,0,0,0,0,0,0,0,0,0,-1,1343,813,0,0
126,211,0,0,0,0,0,0,0,0,0,-1,1350,813,0,0
133,211,0,0,0,0,0,0,0,0,0,-1,1357,813,0,0
140,211,0,0,0,0,0,0,0,0,0,-1,1364,813,0,0
147,211,0,0,0,0,0,0,0,0,0,-1,1371,813,0,0
154,211,0,0,0,0,0,0,0,0,0,-1,1378,813,0,0
161,211,0,0,0,0,0,0,0,0,0,-1,1385,813,0,0
168,211,0,0,0,0,0,0,0,0,0,-1,1392,813,0,0
175,211,0,0,0,0,0,0,0,0,0,-1,1399,813,0,0
182,211,0,0,0,0,0,0,0,0,0,-1,1406,813,0,0
189,211,0,0,0,0,0,0,0,0,0,-1,1413,813,0,0
196,211,0,0,0,0,0,0,0,0,0,-1,1420,813,0,0
203,211,0,0,0,0,0,0,0,0,0,-1,1427,813,0,0
210,211,0,0,0,0,0,0,0,0,0,-1,1434,813,0,0
217,211,0,0,0,0,0,0,0,0,0,-1,1441,813,0,0
224,211,0,0,0,0,0,0,0,0,0,-1,1448,813,0,0
231,211,0,0,0,0,0,0,0,0,0,-1,1455,813,0,0
238,211,0,0,0,0,0,0,0,0,0,-1,1462,813,0,0
245,211,0,0,0,0,0,0,0,0,0,-1,1469,813,0,0
252,211,0,0,0,0,0,0,0,0,0,-1,1476,813,0,0
259,211,0,0,0,0,0,0,0,0,0,-1,1483,813,0,0
266,211,0,0,0,0,0,0,0,0,0,-1,1490,813,0,0
273,211,0,0,0,0,0,0,0,0,0,-1,1497,813,0,0
280,211,0,0,0,0,0,0,0,0,0,-1,1504,813,0,0
287,211,0,0,0,0,0,0,0,0,0,-1,1511,813,0,0
294,211,0,0,0,0,0,0,0,0,0,-1,1518,813,0,0
301,211,0,0,0,0,0,0,0,0,0,-1,1525,813,0,0
308,211,0,0,0,0,0,0,0,0,0,-1,1532,813,0,0
315,211,0,0,0,0,0,0,0,0,0,-1,1539,813,0,0
322,211,0,0,0,0,0,0,0,0,0,-1,1546,813,0,0
329,211,0,0,0,0,0,0,0,0,0,-1,1553,813,0,0
336,211,0,0,0,0,0,0,0,0,0,-1,1560,813,0,0
343,211,0,0,0,0,0,0,0,0,0,-1,1567,813,0,0
350,211,0,0,0,0,0,0,0,0,0,-1,1574,813,0,0
357,211,0,0,0,0,0,0,0,0,0,-1,1581,813,0,0
364,211,0,0,0,0,0,0,0,0,0,-1,1588,813,0,0
371,211,0,0,0,0,0,0,0,0,0,-1,1595,813,0,0
378,211,0,0,0,0,0,0,0,0,0,-1,1602,813,0,0
385,211,0,0,0,0,0,0,0,0,0,-1,1609,813,0,0
392,211,0,0,0,0,0,0,0,0,0,-1,1616,813,0,0
399,211,0,0,0,0,0,0,0,0,0,-1,1623,813,0,0
406,211,0,0,0,0,0,0,0,0,0,-1,1630,813,0,0
413,211,0,0,0,0,0,0,0,0,0,-1,1637,813,0,0
420,211,0,0,0,0,0,0,0,0,0,-1,1644,813,0,0
427,211,0,0,0,0,0,0,0,0,0,-1,1651,813,0,0
434,211,0,0,0,0,0,0,0,0,0,-1,1658,813,0,0
441,211,0,0,0,0,0,0,0,0,0,-1,1665,813,0,0
448,211,0,0,0,0,0,0,0,0,0,-1,1672,813,0,0
455,211,0,0,0,0,0,0,0,0,0,-1,1679,813,0,0
462,211,0,0,0,0,0,0,0,0,0,-1,1686,813,0,0
469,211,0,0,0,0,0,0,0,0,0,-1,1693,813,0,0
476,211,0,0,0,0,0,0,0,0,0,-1,1700,813,0,0
483,211,0,0,0,0,0,0,0,0,0,-1,1707,813,0,0
490,211,0,0,0,0,0,0,0,0,0,-1,1714,813,0,0
497,211,0,0,0,0,0,0,0,0,0,-1,1721,813,0,0
504,211,0,0,0,0,0,0,0,0,0,-1,1728,813,0,0
511,211,0,0,0,0,0,0,0,0,0,-1,1735,813,0,0
518,211,0,0,0,0,0,0,0,0,0,-1,1742,813,0,0
525,211,0,0,0,0,0,0,0,0,0,-1,1749,813,0,0
532,211,0,0,0,0,0,0,0,0,0,-1,1756,813,0,0
539,211,0,0,0,0,0,0,0,0,0,-1,1763,813,0,0
546,211,0,0,0,0,0,0,0,0,0,-1,1770,813,0,0
553,211,0,0,0,0,0,0,0,0,0,-1,1777,813,0,0
560,211,0,0,0,0,0,0,0,0,0,-1,1784,813,0,0
567,211,0,0,0,0,0,0,0,0,0,-1,1791,813,0,0
574,211,0,0,0,0,0,0,0,0,0,-1,1798,813,0,0
581,211,0,0,0,0,0,0,0,0,0,-1,1805,813,0,0
588,211,0,0,0,0,0,0,0,0,0,-1,1812,813,0,0
595,211,48.8369,2.74524,0.00298578,-0.0058965,-0.00441959,0.00481014,-0.00772086,-0.391483,0.00729954,0.0403511,1819,813,48.8369,-2.74523
602,211,48.783,2.63037,0.00172312,-0.00235189,-0.000909864,0.00191705,-0.00254581,-0.209994,0.00258514,0.0376397,1826,813,48.783,-2.63035
609,211,48.7468,2.70496,-2.46575e-05,0.000679245,0.00149938,0.00186743,-0.00121284,0.900677,0.00179173,0.0364721,1833,813,48.7469,-2.70496
616,211,48.7087,2.75598,-0.00173647,0.00266772,0.00270896,0.00395671,-0.00302547,1.12667,0.00404309,0.0295632,1840,813,48.7087,-2.75597
623,211,48.6747,2.74286,-0.00325706,0.00350413,0.00274237,0.00447659,-0.00422952,1.23003,0.00502715,0.0300736,1847,813,48.6747,-2.74286
630,211,48.6523,2.75488,-0.00426912,0.00383551,0.00238079,0.00448313,-0.00491674,1.3052,0.00542895,0.0371188,1854,813,48.6523,-2.75491
637,211,48.6996,2.77307,-0.00484171,0.00368094,0.0018072,0.00404832,-0.00520908,1.37025,0.00535875,0.0427295,1861,813,48.6996,-2.77308
644,211,47.8264,3.09943,-0.00532148,0.00338294,0.0013718,0.00359401,-0.00553255,1.41813,0.0053087,0.0491114,1868,813,47.8264,-3.09944
651,211,47.2827,3.42566,0,0,0,0,0,0,0,-1,1875,813,47.2827,-3.42569
658,211,27.7909,1.52234,0,0,0,0,0,0,0,-1,1882,813,27.7909,-1.52234
665,211,36.9916,-0.074707,0,0,0,0,0,0,0,-1,1889,813,36.9916,0.0747335
672,211,36.8159,0.26709,-0.00505425,0.00180745,-0.000584597,0.0018569,-0.0051037,-1.48641,0.00416188,0.040677,1896,813,36.816,-0.267102
679,211,36.6389,0.718323,-0.00462736,0.00107916,-0.00102,0.001256,-0.0048042,-1.39913,0.00369335,0.0244598,1903,813,36.6389,-0.718312
686,211,36.4846,1.24585,-0.00372366,0.000682016,-0.00132143,0.00104796,-0.00408961,-1.30063,0.00313467,0.0129708,1910,813,36.4846,-1.24586
693,211,36.4501,1.78009,-0.00208809,0.000187758,-0.00133117,0.00080109,-0.00270142,-1.13904,0.00211907,0.0118031,1917,813,36.4501,-1.78007
700,211,36.356,2.29846,-0.000748598,0.000249666,-0.000661414,0.000579147,-0.00107808,-1.10863,0.000971147,0.0139885,1924,813,36.356,-2.29845
707,211,36.3604,2.90173,-1.97576e-05,0.000435487,0.000402331,0.000670123,-0.000254393,1.04283,0.000551465,0.0224477,1931,813,36.3604,-2.90171
714,211,36.3494,3.49817,0.000888865,0.000241866,0.00189,0.00248285,-0.00135212,0.700638,0.00224598,0.0248397,1938,813,36.3493,-3.49817
721,211,36.3607,3.99597,0.00146888,-0.00034141,0.00366939,0.00434311,-0.00321564,0.664475,0.0043802,0.0188056,1945,813,36.3607,-3.99595
728,211,36.3754,4.55518,0.0012723,-0.00199989,0.00563134,0.0055004,-0.00622799,0.644023,0.00677573,0.0169373,1952,813,36.3754,-4.55516
735,211,36.4395,5.17719,6.17055e-05,-0.0050629,0.00793394,0.00583683,-0.010838,0.629208,0.0097705,0.0271318,1959,813,36.4394,-5.17716
742,211,36.9174,5.36853,0,0,0,0,0,0,0,-1,1966,813,36.9173,-5.3685
749,211,37.1863,5.32306,0,0,0,0,0,0,0,-1,1973,813,37.1863,-5.32305
756,211,35.4307,6.54449,0,0,0,0,0,0,0,-1,1980,813,35.4307,-6.5445
763,211,35.9668,6.12091,0,0,0,0,0,0,0,-1,1987,813,35.9668,-6.12092
770,211,36.3982,6.86078,0,0,0,0,0,0,0,-1,1994,813,36.3981,-6.86079
777,211,0,0,0,0,0,0,0,0,0,-1,2001,813,0,0
784,211,0,0,0,0,0,0,0,0,0,-1,2008,813,0,0
791,211,0,0,0,0,0,0,0,0,0,-1,2015,813,0,0
798,211,0,0,0,0,0,0,0,0,0,-1,2022,813,0,0
805,211,0,0,0,0,0,0,0,0,0,-1,2029,813,0,0
812,211,0,0,0,0,0,0,0,0,0,-1,2036,813,0,0
-700,204,0,0,0,0,0,0,0,0,0,-1,524,820,0,0
-693,204,0,0,0,0,0,0,0,0,0,-1,531,820,0,0
-686,204,0,0,0,0,0,0,0,0,0,-1,538,820,0,0
-679,204,0,0,0,0,0,0,0,0,0,-1,545,820,0,0
-672,204,0,0,0,0,0,0,0,0,0,-1,552,820,0,0
-665,204,0,0,0,0,0,0,0,0,0,-1,559,820,0,0
-658,204,0,0,0,0,0,0,0,0,0,-1,566,820,0,0
-651,204,-26.9496,5.22046,0,0,0,0,0,0,0,-1,573,820,-26.9496,-5.22048
-644,204,-26.0089,5.32202,0,0,0,0,0,0,0,-1,580,820,-26.0089,-5.32201
-637,204,-26.352,7.71545,0,0,0,0,0,0,0,-1,587,820,-26.352,-7.71546
-630,204,-26.5369,7.09045,0,0,0,0,0,0,0,-1,594,820,-26.5369,-7.09043
-623,204,-25.6373,3.87756,0,0,0,0,0,0,0,-1,601,820,-25.6373,-3.87759
-616,204,-25.6956,3.51196,0,0,0,0,0,0,0,-1,608,820,-25.6956,-3.51195
-609,204,-25.7783,2.98969,-6.60271e-05,-0.00553561,0.00683223,0.00455842,-0.0101601,0.595025,0.00870045,0.0366969,615,820,-25.7783,-2.98969
-602,204,-25.8795,2.46771,-0.000576876,-0.00282304,0.00431585,0.00275962,-0.00615954,0.65811,0.00527272,0.0162575,622,820,-25.8795,-2.46771
-595,204,-25.9371,1.94843,-0.00058264,-0.00114232,0.00274965,0.00190137,-0.00362633,0.734686,0.0032428,0.0149446,629,820,-25.9371,-1.94841
-588,204,-25.9597,1.40869,-0.000288701,-0.000351096,0.00188825,0.00156861,-0.00220841,0.777138,0.00219106,0.0131312,636,820,-25.9597,-1.40868
-581,204,-25.9615,0.882385,-0.000115591,-7.16948e-05,0.00141953,0.00132606,-0.00151334,0.793128,0.00164052,0.0128022,643,820,-25.9615,-0.882415
-574,204,-25.9808,0.365234,0.000192941,-0.000399514,0.00153109,0.0014562,-0.00166277,0.689842,0.00180206,0.0142386,650,820,-25.9808,-0.365212
-567,204,-25.9675,-0.156311,0.000795131,-0.000768591,0.00205213,0.0022093,-0.00218276,0.603388,0.00253577,0.0144521,657,820,-25.9675,0.156306
-560,204,-25.9476,-0.721863,0.00131849,-0.000596829,0.00255315,0.00308768,-0.00236601,0.605973,0.00315787,0.0180367,664,820,-25.9476,0.721877
-553,204,-26.0461,-1.15369,0.00141274,-0.000136751,0.00307528,0.00380936,-0.00253338,0.662003,0.0036866,0.0208043,671,820,-26.0461,1.1537
-546,204,-26.2091,-1.59821,0.0010914,0.000381518,0.00314779,0.0039042,-0.00243128,0.729256,0.0036906,0.024611,678,820,-26.2091,1.59819
-539,204,-26.0812,-2.19525,0.000797982,0.00118482,0.00295866,0.00395637,-0.00197357,0.818038,0.00348687,0.0455543,685,820,-26.0812,2.19526
-532,204,-25.9243,-3.0473,0,0,0,0,0,0,0,-1,692,820,-25.9243,3.04728
-525,204,-25.7137,1.52496,0,0,0,0,0,0,0,-1,699,820,-25.7137,-1.52496
-518,204,-36.3022,1.25983,0,0,0,0,0,0,0,-1,706,820,-36.3022,-1.2598
-511,204,-36.2712,1.21405,-6.95994e-05,0.00397078,0.00168588,0.00458182,-0.000680639,1.22308,0.00330487,0.0488036,713,820,-36.2712,-1.21406
-504,204,-36.2316,1.2085,-0.000145344,0.00473251,0.000698086,0.00483045,-0.000243283,1.43141,0.00330438,0.045628,720,820,-36.2317,-1.20847
-497,204,-36.3049,1.14313,0.000183306,0.00577488,-0.000676485,0.00585556,0.000102627,-1.45209,0.00386995,0.0365569,727,820,-36.3049,-1.14311
-490,204,-36.4432,0.963257,0.000704769,0.00683398,-0.00225825,0.00757615,-3.73945e-05,-1.25327,0.00506328,0.0309027,734,820,-36.4433,-0.963266
-483,204,-36.4977,0.841064,0.00189476,0.00771247,-0.0040571,0.00979576,-0.000188527,-1.09641,0.00659425,0.0364485,741,820,-36.4977,-0.841035
-476,204,0,0,0,0,0,0,0,0,0,-1,748,820,0,0
-469,204,0,0,0,0,0,0,0,0,0,-1,755,820,0,0
-462,204,0,0,0,0,0,0,0,0,0,-1,762,820,0,0
-455,204,0,0,0,0,0,0,0,0,0,-1,769,820,0,0
-448,204,0,0,0,0,0,0,0,0,0,-1,776,820,0,0
-441,204,0,0,0,0,0,0,0,0,0,-1,783,820,0,0
-434,204,0,0,0,0,0,0,0,0,0,-1,790,820,0,0
-427,204,0,0,0,0,0,0,0,0,0,-1,797,820,0,0
-420,204,0,0,0,0,0,0,0,0,0,-1,804,820,0,0
-413,204,0,0,0,0,0,0,0,0,0,-1,811,820,0,0
-406,204,0,0,0,0,0,0,0,0,0,-1,818,820,0,0
-399,204,0,0,0,0,0,0,0,0,0,-1,825,820,0,0
-392,204,0,0,0,0,0,0,0,0,0,-1,832,820,0,0
-385,204,0,0,0,0,0,0,0,0,0,-1,839,820,0,0
-378,204,0,0,0,0,0,0,0,0,0,-1,846,820,0,0
-371,204,0,0,0,0,0,0,0,0,0,-1,853,820,0,0
-364,204,0,0,0,0,0,0,0,0,0,-1,860,820,0,0
-357,204,0,0,0,0,0,0,0,0,0,-1,867,820,0,0
-350,204,0,0,0,0,0,0,0,0,0,-1,874,820,0,0
-343,204,0,0,0,0,0,0,0,0,0,-1,881,820,0,0
-336,204,0,0,0,0,0,0,0,0,0,-1,888,820,0,0
-329,204,0,0,0,0,0,0,0,0,0,-1,895,820,0,0
-322,204,0,0,0,0,0,0,0,0,0,-1,902,820,0,0
-315,204,0,0,0,0,0,0,0,0,0,-1,909,820,0,0
-308,204,0,0,0,0,0,0,0,0,0,-1,916,820,0,0
-301,204,0,0,0,0,0,0,0,0,0,-1,923,820,0,0
-294,204,0,0,0,0,0,0,0,0,0,-1,930,820,0,0
-287,204,0,0,0,0,0,0,0,0,0,-1,937,820,0,0
-280,204,0,0,0,0,0,0,0,0,0,-1,944,820,0,0
-273,204,0,0,0,0,0,0,0,0,0,-1,951,820,0,0
-266,204,0,0,0,0,0,0,0,0,0,-1,958,820,0,0
-259,204,0,0,0,0,0,0,0,0,0,-1,965,820,0,0
-252,204,0,0,0,0,0,0,0,0,0,-1,972,820,0,0
-245,204,0,0,0,0,0,0,0,0,0,-1,979,820,0,0
-238,204,0,0,0,0,0,0,0,0,0,-1,986,820,0,0
-231,204,0,0,0,0,0,0,0,0,0,-1,993,820,0,0
-224,204,0,0,0,0,0,0,0,0,0,-1,1000,820,0,0
-217,204,0,0,0,0,0,0,0,0,0,-1,1007,820,0,0
-210,204,0,0,0,0,0,0,0,0,0,-1,1014,820,0,0
-203,204,0,0,0,0,0,0,0,0,0,-1,1021,820,0,0
-196,204,0,0,0,0,0,0,0,0,0,-1,1028,820,0,0
-189,204,0,0,0,0,0,0,0,0,0,-1,1035,820,0,0
-182,204,0,0,0,0,0,0,0,0,0,-1,1042,820,0,0
-175,204,0,0,0,0,0,0,0,0,0,-1,1049,820,0,0
-168,204,0,0,0,0,0,0,0,0,0,-1,1056,820,0,0
-161,204,0,0,0,0,0,0,0,0,0,-1,1063,820,0,0
-154,204,0,0,0,0,0,0,0,0,0,-1,1070,820,0,0
-147,204,0,0,0,0,0,0,0,0,0,-1,1077,820,0,0
-140,204,0,0,0,0,0,0,0,0,0,-1,1084,820,0,0
-133,204,0,0,0,0,0,0,0,0,0,-1,1091,820,0,0
-126,204,0,0,0,0,0,0,0,0,0,-1,1098,820,0,0
-119,204,0,0,0,0,0,0,0,0,0,-1,1105,820,0,0
-112,204,0,0,0,0,0,0,0,0,0,-1,1112,820,0,0
-105,204,0,0,0,0,0,0,0,0,0,-1,1119,820,0,0
-98,204,0,0,0,0,0,0,0,0,0,-1,1126,820,0,0
-91,204,0,0,0,0,0,0,0,0,0,-1,1133,820,0,0
-84,204,0,0,0,0,0,0,0,0,0,-1,1140,820,0,0
-77,204,0,0,0,0,0,0,0,0,0,-1,1147,820,0,0
-70,204,0,0,0,0,0,0,0,0,0,-1,1154,820,0,0
-63,204,0,0,0,0,0,0,0,0,0,-1,1161,820,0,0
-56,204,0,0,0,0,0,0,0,0,0,-1,1168,820,0,0
-49,204,0,0,0,0,0,0,0,0,0,-1,1175,820,0,0
-42,204,0,0,0,0,0,0,0,0,0,-1,1182,820,0,0
-35,204,0,0,0,0,0,0,0,0,0,-1,1189,820,0,0
-28,204,0,0,0,0,0,0,0,0,0,-1,1196,820,0,0
-21,204,0,0,0,0,0,0,0,0,0,-1,1203,820,0,0
-14,204,0,0,0,0,0,0,0,0,0,-1,1210,820,0,0
-7,204,0,0,0,0,0,0,0,0,0,-1,1217,820,0,0
0,204,0,0,0,0,0,0,0,0,0,-1,1224,820,0,0
7,204,0,0,0,0,0,0,0,0,0,-1,1231,820,0,0
14,204,0,0,0,0,0,0,0,0,0,-1,1238,820,0,0
21,204,0,0,0,0,0,0,0,0,0,-1,1245,820,0,0
28,204,0,0,0,0,0,0,0,0,0,-1,1252,820,0,0
35,204,0,0,0,0,0,0,0,0,0,-1,1259,820,0,0
42,204,0,0,0,0,0,0,0,0,0,-1,1266,820,0,0
49,204,0,0,0,0,0,0,0,0,0,-1,1273,820,0,0
56,204,0,0,0,0,0,0,0,0,0,-1,1280,820,0,0
63,204,0,0,0,0,0,0,0,0,0,-1,1287,820,0,0
70,204,0,0,0,0,0,0,0,0,0,-1,1294,820,0,0
77,204,0,0,0,0,0,0,0,0,0,-1,1301,820,0,0
84,204,0,0,0,0,0,0,0,0,0,-1,1308,820,0,0
91,204,0,0,0,0,0,0,0,0,0,-1,1315,820,0,0
98,204,0,0,0,0,0,0,0,0,0,-1,1322,820,0,0
105,204,0,0,0,0,0,0,0,0,0,-1,1329,820,0,0
112,204,0,0,0,0,0,0,0,0,0,-1,1336,820,0,0
119,204,0,0,0,0,0,0,0,0,0,-1,1343,820,0,0
126,204,0,0,0,0,0,0,0,0,0,-1,1350,820,0,0
133,204,0,0,0,0,0,0,0,0,0,-1,1357,820,0,0
140,204,0,0,0,0,0,0,0,0,0,-1,1364,820,0,0
147,204,0,0,0,0,0,0,0,0,0,-1,1371,820,0,0
154,204,0,0,0,0,0,0,0,0,0,-1,1378,820,0,0
161,204,0,0,0,0,0,0,0,0,0,-1,1385,820,0,0
168,204,0,0,0,0,0,0,0,0,0,-1,1392,820,0,0
175,204,0,0,0,0,0,0,0,0,0,-1,1399,820,0,0
182,204,0,0,0,0,0,0,0,0,0,-1,1406,820,0,0
189,204,0,0,0,0,0,0,0,0,0,-1,1413,820,0,0
196,204,0,0,0,0,0,0,0,0,0,-1,1420,820,0,0
203,204,0,0,0,0,0,0,0,0,0,-1,1427,820,0,0
210,204,0,0,0,0,0,0,0,0,0,-1,1434,820,0,0
217,204,0,0,0,0,0,0,0,0,0,-1,1441,820,0,0
224,204,0,0,0,0,0,0,0,0,0,-1,1448,820,0,0
231,204,0,0,0,0,0,0,0,0,0,-1,1455,820,0,0
238,204,0,0,0,0,0,0,0,0,0,-1,1462,820,0,0
245,204,0,0,0,0,0,0,0,0,0,-1,1469,820,0,0
252,204,0,0,0,0,0,0,0,0,0,-1,1476,820,0,0
259,204,0,0,0,0,0,0,0,0,0,-1,1483,820,0,0
266,204,0,0,0,0,0,0,0,0,0,-1,1490,820,0,0
273,204,0,0,0,0,0,0,0,0,0,-1,1497,820,0,0
280,204,0,0,0,0,0,0,0,0,0,-1,1504,820,0,0
287,204,0,0,0,0,0,0,0,0,0,-1,1511,820,0,0
294,204,0,0,0,0,0,0,0,0,0,-1,1518,820,0,0
301,204,0,0,0,0,0,0,0,0,0,-1,1525,820,0,0
308,204,0,0,0,0,0,0,0,0,0,-1,1532,820,0,0
315,204,0,0,0,0,0,0,0,0,0,-1,1539,820,0,0
322,204,0,0,0,0,0,0,0,0,0,-1,1546,820,0,0
329,204,0,0,0,0,0,0,0,0,0,-1,1553,820,0,0
336,204,0,0,0,0,0,0,0,0,0,-1,1560,820,0,0
343,204,0,0,0,0,0,0,0,0,0,-1,1567,820,0,0
350,204,0,0,0,0,0,0,0,0,0,-1,1574,820,0,0
357,204,0,0,0,0,0,0,0,0,0,-1,1581,820,0,0
364,204,0,0,0,0,0,0,0,0,0,-1,1588,820,0,0
371,204,0,0,0,0,0,0,0,0,0,-1,1595,820,0,0
378,204,0,0,0,0,0,0,0,0,0,-1,1602,820,0,0
385,204,0,0,0,0,0,0,0,0,0,-1,1609,820,0,0
392,204,0,0,0,0,0,0,0,0,0,-1,1616,820,0,0
399,204,0,0,0,0,0,0,0,0,0,-1,1623,820,0,0
406,204,0,0,0,0,0,0,0,0,0,-1,1630,820,0,0
413,204,0,0,0,0,0,0,0,0,0,-1,1637,820,0,0
420,204,0,0,0,0,0,0,0,0,0,-1,1644,820,0,0
427,204,0,0,0,0,0,0,0,0,0,-1,1651,820,0,0
434,204,0,0,0,0,0,0,0,0,0,-1,1658,820,0,0
441,204,0,0,0,0,0,0,0,0,0,-1,1665,820,0,0
448,204,0,0,0,0,0,0,0,0,0,-1,1672,820,0,0
455,204,0,0,0,0,0,0,0,0,0,-1,1679,820,0,0
462,204,0,0,0,0,0,0,0,0,0,-1,1686,820,0,0
469,204,0,0,0,0,0,0,0,0,0,-1,1693,820,0,0
476,204,0,0,0,0,0,0,0,0,0,-1,1700,820,0,0
483,204,0,0,0,0,0,0,0,0,0,-1,1707,820,0,0
490,204,0,0,0,0,0,0,0,0,0,-1,1714,820,0,0
497,204,0,0,0,0,0,0,0,0,0,-1,1721,820,0,0
504,204,0,0,0,0,0,0,0,0,0,-1,1728,820,0,0
511,204,0,0,0,0,0,0,0,0,0,-1,1735,820,0,0
518,204,0,0,0,0,0,0,0,0,0,-1,1742,820,0,0
525,204,0,0,0,0,0,0,0,0,0,-1,1749,820,0,0
532,204,0,0,0,0,0,0,0,0,0,-1,1756,820,0,0
539,204,0,0,0,0,0,0,0,0,0,-1,1763,820,0,0
546,204,0,0,0,0,0,0,0,0,0,-1,1770,820,0,0
553,204,0,0,0,0,0,0,0,0,0,-1,1777,820,0,0
560,204,0,0,0,0,0,0,0,0,0,-1,1784,820,0,0
567,204,0,0,0,0,0,0,0,0,0,-1,1791,820,0,0
574,204,0,0,0,0,0,0,0,0,0,-1,1798,820,0,0
581,204,0,0,0,0,0,0,0,0,0,-1,1805,820,0,0
588,204,0,0,0,0,0,0,0,0,0,-1,1812,820,0,0
595,204,0,0,0,0,0,0,0,0,0,-1,1819,820,0,0
602,204,48.7732,2.58759,0.00224802,-0.00369222,-0.0022823,0.00302363,-0.00446784,-0.327593,0.00435191,0.0387616,1826,820,48.7732,-2.58758
609,204,48.7267,2.71838,-3.19143e-05,-0.000451903,4.73457e-05,-2.66431e-05,-0.000457174,0.110877,0.000296301,0.0418258,1833,820,48.7267,-2.71839
616,204,48.6609,2.7688,-0.0020311,0.00209155,0.00162296,0.00265378,-0.00259333,1.23731,0.00302949,0.0376466,1840,820,48.6609,-2.76881
623,204,48.6382,2.77893,-0.00371965,0.00343376,0.00209159,0.00400043,-0.00428632,1.30622,0.0047853,0.0279146,1847,820,48.6382,-2.77896
630,204,48.6398,2.76324,-0.00481988,0.00407769,0.00201061,0.00451094,-0.00525313,1.35856,0.00564271,0.0274812,1854,820,48.6398,-2.76323
637,204,48.6714,2.73663,-0.00536168,0.00400431,0.00155577,0.00425598,-0.00561334,1.41042,0.00571599,0.0332366,1861,820,48.6713,-2.73666
644,204,48.46,3.06152,-0.00568512,0.00363715,0.0011468,0.00377615,-0.00582413,1.45017,0.0055846,0.0396023,1868,820,48.46,-3.0615
651,204,48.2483,3.42053,0,0,0,0,0,0,0,-1,1875,820,48.2483,-3.42052
658,204,34.9631,1.64844,0,0,0,0,0,0,0,-1,1882,820,34.9631,-1.64842
665,204,21.8292,1.51099,0,0,0,0,0,0,0,-1,1889,820,21.8292,-1.51099
672,204,37.1433,-0.0212402,0,0,0,0,0,0,0,-1,1896,820,37.1433,0.0212669
679,204,37.0981,0.585938,-0.00467475,0.00105094,-0.00110312,0.00125611,-0.00487993,-1.3869,0.00374292,0.0384588,1903,820,37.0982,-0.585913
686,204,37.0336,1.2417,-0.00389125,0.000609122,-0.00147944,0.0010519,-0.00433403,-1.27999,0.00329642,0.018786,1910,820,37.0336,-1.24172
693,204,36.9158,1.77338,-0.00248112,-7.30944e-06,-0.00165837,0.000824635,-0.00331306,-1.10582,0.00252881,0.0170507,1917,820,36.9158,-1.77336
700,204,36.9478,2.34802,-0.00139684,-0.000195426,-0.00119706,0.000543194,-0.00213546,-1.01795,0.00163506,0.0180066,1924,820,36.9477,-2.34804
707,204,36.9285,2.91895,-0.000998004,-0.000198633,-0.000380358,-4.65746e-05,-0.00115006,-1.19048,0.000751664,0.0161941,1931,820,36.9285,-2.91897
714,204,36.9093,3.53381,-0.000384403,-0.000477172,0.000887703,0.000458127,-0.0013197,0.759296,0.00106585,0.0249735,1938,820,36.9093,-3.53382
721,204,36.9093,4.06348,-4.05032e-05,-0.00106239,0.00246546,0.00196639,-0.00306929,0.683224,0.00293051,0.0224651,1945,820,36.9093,-4.06348
728,204,36.9012,4.56177,-0.000409458,-0.00261843,0.00420813,0.00283671,-0.0058646,0.65706,0.00512409,0.0127295,1952,820,36.9013,-4.56175
735,204,36.848,5.13495,-0.00168093,-0.00538318,0.00619089,0.00292966,-0.00999378,0.640125,0.00782409,0.0145665,1959,820,36.848,-5.13493
742,204,36.957,5.49597,0,0,0,0,0,0,0,-1,1966,820,36.957,-5.49598
749,204,36.3906,6.22937,-0.00828645,-0.0180204,0.0113443,-0.000809128,-0.0254977,0.582762,0.0167353,0.0459274,1973,820,36.3906,-6.22938
756,204,35.9,6.8999,-0.0142128,-0.0298731,0.014651,-0.00543083,-0.038655,0.539986,0.024164,0.0495359,1980,820,35.9,-6.89987
763,204,35.425,7.59686,0,0,0,0,0,0,0,-1,1987,820,35.425,-7.59687
770,204,37.4347,6.65546,0,0,0,0,0,0,0,-1,1994,820,37.4347,-6.65543
777,204,0,0,0,0,0,0,0,0,0,-1,2001,820,0,0
784,204,0,0,0,0,0,0,0,0,0,-1,2008,820,0,0
791,204,0,0,0,0,0,0,0,0,0,-1,2015,820,0,0
798,204,0,0,0,0,0,0,0,0,0,-1,2022,820,0,0
805,204,0,0,0,0,0,0,0,0,0,-1,2029,820,0,0
812,204,0,0,0,0,0,0,0,0,0,-1,2036,820,0,0
-700,197,0,0,0,0,0,0,0,0,0,-1,524,827,0,0
-693,197,0,0,0,0,0,0,0,0,0,-1,531,827,0,0
-686,197,0,0,0,0,0,0,0,0,0,-1,538,827,0,0
-679,197,0,0,0,0,0,0,0,0,0,-1,545,827,0,0
-672,197,0,0,0,0,0,0,0,0,0,-1,552,827,0,0
-665,197,0,0,0,0,0,0,0,0,0,-1,559,827,0,0
-658,197,-28.2596,6.08923,0,0,0,0,0,0,0,-1,566,827,-28.2596,-6.08923
-651,197,-27.4594,6.21869,0,0,0,0,0,0,0,-1,573,827,-27.4593,-6.21868
-644,197,-26.6991,6.16089,0,0,0,0,0,0,0,-1,580,827,-26.6991,-6.16091
-637,197,-27.0466,7.04468,0,0,0,0,0,0,0,-1,587,827,-27.0466,-7.04469
-630,197,-25.9293,5.70282,0,0,0,0,0,0,0,-1,594,827,-25.9293,-5.70282
-623,197,-26.1887,2.54053,0,0,0,0,0,0,0,-1,601,827,-26.1887,-2.54051
-616,197,-26.0914,3.36694,0,0,0,0,0,0,0,-1,608,827,-26.0915,-3.36695
-609,197,-26.2576,2.95593,0.000545964,-0.00594877,0.00751692,0.00548697,-0.0108898,0.581503,0.00962511,0.0344792,615,827,-26.2576,-2.95595
-602,197,-26.4062,2.49127,-0.000231861,-0.0032677,0.00501708,0.0034919,-0.00699146,0.638501,0.00616396,0.0178436,622,827,-26.4062,-2.49125
-595,197,-26.4666,1.97461,-0.000341822,-0.00153661,0.00339289,0.00250586,-0.00438429,0.698255,0.00402701,0.0180268,629,827,-26.4666,-1.97462
-588,197,-26.4883,1.42279,2.4426e-05,-0.000649265,0.00243237,0.00214316,-0.002768,0.716593,0.0028431,0.0197349,636,827,-26.4883,-1.42279
-581,197,-26.5081,0.884521,0.000329616,-0.000268602,0.00188449,0.00193859,-0.00187757,0.706694,0.00220336,0.011759,643,827,-26.5081,-0.884512
-574,197,-26.5089,0.389282,0.000838818,-0.000494879,0.00188584,0.00217224,-0.0018283,0.615456,0.00231256,0.0134561,650,827,-26.5089,-0.389258
-567,197,-26.4738,-0.118408,0.00167145,-0.000674839,0.00227313,0.00305631,-0.0020597,0.547179,0.00297236,0.0158145,657,827,-26.4738,0.118386
-560,197,-26.4271,-0.638,0,0,0,0,0,0,0,-1,664,827,-26.427,0.63799
-553,197,-26.8225,-1.117,0,0,0,0,0,0,0,-1,671,827,-26.8225,1.117
-546,197,-26.7413,-1.53119,0,0,0,0,0,0,0,-1,678,827,-26.7413,1.5312
-539,197,-26.481,-1.97632,0,0,0,0,0,0,0,-1,685,827,-26.481,1.97631
-532,197,-16.0519,0.0410156,0,0,0,0,0,0,0,-1,692,827,-16.0519,-0.0410415
-525,197,-35.3785,2.11829,0,0,0,0,0,0,0,-1,699,827,-35.3785,-2.11826
-518,197,-36.3154,1.08594,0,0,0,0,0,0,0,-1,706,827,-36.3154,-1.08594
-511,197,-36.275,1.1731,0.000937396,0.00554555,0.00176156,0.0061418,0.00034115,1.24442,0.00398568,0.0430437,713,827,-36.275,-1.17309
-504,197,-36.3155,1.16675,0.000690348,0.00675912,0.000732,0.00684616,0.000603304,1.45244,0.00437689,0.0402211,720,827,-36.3155,-1.16677
-497,197,-36.4479,1.18646,0.00078785,0.00842891,-0.000777396,0.0085072,0.000709561,-1.47043,0.00545036,0.0399202,727,827,-36.4479,-1.18648
-490,197,-36.5137,1.05853,0.00101379,0.0102903,-0.00269895,0.0110184,0.00028569,-1.3073,0.00725226,0.0376668,734,827,-36.5137,-1.05852
-483,197,-36.3599,0.991577,0.00205539,0.0121984,-0.0052544,0.0144295,-0.000175773,-1.16924,0.00967882,0.0431599,741,827,-36.3599,-0.991574
-476,197,0,0,0,0,0,0,0,0,0,-1,748,827,0,0
-469,197,0,0,0,0,0,0,0,0,0,-1,755,827,0,0
-462,197,0,0,0,0,0,0,0,0,0,-1,762,827,0,0
-455,197,0,0,0,0,0,0,0,0,0,-1,769,827,0,0
-448,197,0,0,0,0,0,0,0,0,0,-1,776,827,0,0
-441,197,0,0,0,0,0,0,0,0,0,-1,783,827,0,0
-434,197,0,0,0,0,0,0,0,0,0,-1,790,827,0,0
-427,197,0,0,0,0,0,0,0,0,0,-1,797,827,0,0
-420,197,0,0,0,0,0,0,0,0,0,-1,804,827,0,0
-413,197,0,0,0,0,0,0,0,0,0,-1,811,827,0,0
-406,197,0,0,0,0,0,0,0,0,0,-1,818,827,0,0
-399,197,0,0,0,0,0,0,0,0,0,-1,825,827,0,0
-392,197,0,0,0,0,0,0,0,0,0,-1,832,827,0,0
-385,197,0,0,0,0,0,0,0,0,0,-1,839,827,0,0
-378,197,0,0,0,0,0,0,0,0,0,-1,846,827,0,0
-371,197,0,0,0,0,0,0,0,0,0,-1,853,827,0,0
-364,197,0,0,0,0,0,0,0,0,0,-1,860,827,0,0
-357,197,0,0,0,0,0,0,0,0,0,-1,867,827,0,0
-350,197,0,0,0,0,0,0,0,0,0,-1,874,827,0,0
-343,197,0,0,0,0,0,0,0,0,0,-1,881,827,0,0
-336,197,0,0,0,0,0,0,0,0,0,-1,888,827,0,0
-329,197,0,0,0,0,0,0,0,0,0,-1,895,827,0,0
-322,197,0,0,0,0,0,0,0,0,0,-1,902,827,0,0
-315,197,0,0,0,0,0,0,0,0,0,-1,909,827,0,0
-308,197,0,0,0,0,0,0,0,0,0,-1,916,827,0,0
-301,197,0,0,0,0,0,0,0,0,0,-1,923,827,0,0
-294,197,0,0,0,0,0,0,0,0,0,-1,930,827,0,0
-287,197,0,0,0,0,0,0,0,0,0,-1,937,827,0,0
-280,197,0,0,0,0,0,0,0,0,0,-1,944,827,0,0
-273,197,0,0,0,0,0,0,0,0,0,-1,951,827,0,0
-266,197,0,0,0,0,0,0,0,0,0,-1,958,827,0,0
-259,197,0,0,0,0,0,0,0,0,0,-1,965,827,0,0
-252,197,0,0,0,0,0,0,0,0,0,-1,972,827,0,0
-245,197,0,0,0,0,0,0,0,0,0,-1,979,827,0,0
-238,197,0,0,0,0,0,0,0,0,0,-1,986,827,0,0
-231,197,0,0,0,0,0,0,0,0,0,-1,993,827,0,0
-224,197,0,0,0,0,0,0,0,0,0,-1,1000,827,0,0
-217,197,0,0,0,0,0,0,0,0,0,-1,1007,827,0,0
-210,197,0,0,0,0,0,0,0,0,0,-1,1014,827,0,0
-203,197,0,0,0,0,0,0,0,0,0,-1,1021,827,0,0
-196,197,0,0,0,0,0,0,0,0,0,-1,1028,827,0,0
-189,197,0,0,0,0,0,0,0,0,0,-1,1035,827,0,0
-182,197,0,0,0,0,0,0,0,0,0,-1,1042,827,0,0
-175,197,0,0,0,0,0,0,0,0,0,-1,1049,827,0,0
-168,197,0,0,0,0,0,0,0,0,0,-1,1056,827,0,0
-161,197,0,0,0,0,0,0,0,0,0,-1,1063,827,0,0
-154,197,0,0,0,0,0,0,0,0,0,-1,1070,827,0,0
-147,197,0,0,0,0,0,0,0,0,0,-1,1077,827,0,0
-140,197,0,0,0,0,0,0,0,0,0,-1,1084,827,0,0
-133,197,0,0,0,0,0,0,0,0,0,-1,1091,827,0,0
-126,197,0,0,0,0,0,0,0,0,0,-1,1098,827,0,0
-119,197,0,0,0,0,0,0,0,0,0,-1,1105,827,0,0
-112,197,0,0,0,0,0,0,0,0,0,-1,1112,827,0,0
-105,197,0,0,0,0,0,0,0,0,0,-1,1119,827,0,0
-98,197,0,0,0,0,0,0,0,0,0,-1,1126,827,0,0
-91,197,0,0,0,0,0,0,0,0,0,-1,1133,827,0,0
-84,197,0,0,0,0,0,0,0,0,0,-1,1140,827,0,0
-77,197,0,0,0,0,0,0,0,0,0,-1,1147,827,0,0
-70,197,0,0,0,0,0,0,0,0,0,-1,1154,827,0,0
-63,197,0,0,0,0,0,0,0,0,0,-1,1161,827,0,0
-56,197,0,0,0,0,0,0,0,0,0,-1,1168,827,0,0
-49,197,0,0,0,0,0,0,0,0,0,-1,1175,827,0,0
-42,197,0,0,0,0,0,0,0,0,0,-1,1182,827,0,0
-35,197,0,0,0,0,0,0,0,0,0,-1,1189,827,0,0
-28,197,0,0,0,0,0,0,0,0,0,-1,1196,827,0,0
-21,197,0,0,0,0,0,0,0,0,0,-1,1203,827,0,0
-14,197,0,0,0,0,0,0,0,0,0,-1,1210,827,0,0
-7,197,0,0,0,0,0,0,0,0,0,-1,1217,827,0,0
0,197,0,0,0,0,0,0,0,0,0,-1,1224,827,0,0
7,197,0,0,0,0,0,0,0,0,0,-1,1231,827,0,0
14,197,0,0,0,0,0,0,0,0,0,-1,1238,827,0,0
21,197,0,0,0,0,0,0,0,0,0,-1,1245,827,0,0
28,197,0,0,0,0,0,0,0,0,0,-1,1252,827,0,0
35,197,0,0,0,0,0,0,0,0,0,-1,1259,827,0,0
42,197,0,0,0,0,0,0,0,0,0,-1,1266,827,0,0
49,197,0,0,0,0,0,0,0,0,0,-1,1273,827,0,0
56,197,0,0,0,0,0,0,0,0,0,-1,1280,827,0,0
63,197,0,0,0,0,0,0,0,0,0,-1,1287,827,0,0
70,197,0,0,0,0,0,0,0,0,0,-1,1294,827,0,0
77,197,0,0,0,0,0,0,0,0,0,-1,1301,827,0,0
84,197,0,0,0,0,0,0,0,0,0,-1,1308,827,0,0
91,197,0,0,0,0,0,0,0,0,0,-1,1315,827,0,0
98,197,0,0,0,0,0,0,0,0,0,-1,1322,827,0,0
105,197,0,0,0,0,0,0,0,0,0,-1,1329,827,0,0
112,197,0,0,0,0,0,0,0,0,0,-1,1336,827,0,0
119,197,0,0,0,0,0,0,0,0,0,-1,1343,827,0,0
126,197,0,0,0,0,0,0,0,0,0,-1,1350,827,0,0
133,197,0,0,0,0,0,0,0,0,0,-1,1357,827,0,0
140,197,0,0,0,0,0,0,0,0,0,-1,1364,827,0,0
147,197,0,0,0,0,0,0,0,0,0,-1,1371,827,0,0
154,197,0,0,0,0,0,0,0,0,0,-1,1378,827,0,0
161,197,0,0,0,0,0,0,0,0,0,-1,1385,827,0,0
168,197,0,0,0,0,0,0,0,0,0,-1,1392,827,0,0
175,197,0,0,0,0,0,0,0,0,0,-1,1399,827,0,0
182,197,0,0,0,0,0,0,0,0,0,-1,1406,827,0,0
189,197,0,0,0,0,0,0,0,0,0,-1,1413,827,0,0
196,197,0,0,0,0,0,0,0,0,0,-1,1420,827,0,0
203,197,0,0,0,0,0,0,0,0,0,-1,1427,827,0,0
210,197,0,0,0,0,0,0,0,0,0,-1,1434,827,0,0
217,197,0,0,0,0,0,0,0,0,0,-1,1441,827,0,0
224,197,0,0,0,0,0,0,0,0,0,-1,1448,827,0,0
231,197,0,0,0,0,0,0,0,0,0,-1,1455,827,0,0
238,197,0,0,0,0,0,0,0,0,0,-1,1462,827,0,0
245,197,0,0,0,0,0,0,0,0,0,-1,1469,827,0,0
252,197,0,0,0,0,0,0,0,0,0,-1,1476,827,0,0
259,197,0,0,0,0,0,0,0,0,0,-1,1483,827,0,0
266,197,0,0,0,0,0,0,0,0,0,-1,1490,827,0,0
273,197,0,0,0,0,0,0,0,0,0,-1,1497,827,0,0
280,197,0,0,0,0,0,0,0,0,0,-1,1504,827,0,0
287,197,0,0,0,0,0,0,0,0,0,-1,1511,827,0,0
294,197,0,0,0,0,0,0,0,0,0,-1,1518,827,0,0
301,197,0,0,0,0,0,0,0,0,0,-1,1525,827,0,0
308,197,0,0,0,0,0,0,0,0,0,-1,1532,827,0,0
315,197,0,0,0,0,0,0,0,0,0,-1,1539,827,0,0
322,197,0,0,0,0,0,0,0,0,0,-1,1546,827,0,0
329,197,0,0,0,0,0,0,0,0,0,-1,1553,827,0,0
336,197,0,0,0,0,0,0,0,0,0,-1,1560,827,0,0
343,197,0,0,0,0,0,0,0,0,0,-1,1567,827,0,0
350,197,0,0,0,0,0,0,0,0,0,-1,1574,827,0,0
357,197,0,0,0,0,0,0,0,0,0,-1,1581,827,0,0
364,197,0,0,0,0,0,0,0,0,0,-1,1588,827,0,0
371,197,0,0,0,0,0,0,0,0,0,-1,1595,827,0,0
378,197,0,0,0,0,0,0,0,0,0,-1,1602,827,0,0
385,197,0,0,0,0,0,0,0,0,0,-1,1609,827,0,0
392,197,0,0,0,0,0,0,0,0,0,-1,1616,827,0,0
399,197,0,0,0,0,0,0,0,0,0,-1,1623,827,0,0
406,197,0,0,0,0,0,0,0,0,0,-1,1630,827,0,0
413,197,0,0,0,0,0,0,0,0,0,-1,1637,827,0,0
420,197,0,0,0,0,0,0,0,0,0,-1,1644,827,0,0
427,197,0,0,0,0,0,0,0,0,0,-1,1651,827,0,0
434,197,0,0,0,0,0,0,0,0,0,-1,1658,827,0,0
441,197,0,0,0,0,0,0,0,0,0,-1,1665,827,0,0
448,197,0,0,0,0,0,0,0,0,0,-1,1672,827,0,0
455,197,0,0,0,0,0,0,0,0,0,-1,1679,827,0,0
462,197,0,0,0,0,0,0,0,0,0,-1,1686,827,0,0
469,197,0,0,0,0,0,0,0,0,0,-1,1693,827,0,0
476,197,0,0,0,0,0,0,0,0,0,-1,1700,827,0,0
483,197,0,0,0,0,0,0,0,0,0,-1,1707,827,0,0
490,197,0,0,0,0,0,0,0,0,0,-1,1714,827,0,0
497,197,0,0,0,0,0,0,0,0,0,-1,1721,827,0,0
504,197,0,0,0,0,0,0,0,0,0,-1,1728,827,0,0
511,197,0,0,0,0,0,0,0,0,0,-1,1735,827,0,0
518,197,0,0,0,0,0,0,0,0,0,-1,1742,827,0,0
525,197,0,0,0,0,0,0,0,0,0,-1,1749,827,0,0
532,197,0,0,0,0,0,0,0,0,0,-1,1756,827,0,0
539,197,0,0,0,0,0,0,0,0,0,-1,1763,827,0,0
546,197,0,0,0,0,0,0,0,0,0,-1,1770,827,0,0
553,197,0,0,0,0,0,0,0,0,0,-1,1777,827,0,0
560,197,0,0,0,0,0,0,0,0,0,-1,1784,827,0,0
567,197,0,0,0,0,0,0,0,0,0,-1,1791,827,0,0
574,197,0,0,0,0,0,0,0,0,0,-1,1798,827,0,0
581,197,0,0,0,0,0,0,0,0,0,-1,1805,827,0,0
588,197,0,0,0,0,0,0,0,0,0,-1,1812,827,0,0
595,197,0,0,0,0,0,0,0,0,0,-1,1819,827,0,0
602,197,48.6183,2.58136,0.0027962,-0.00470544,-0.0030259,0.00386458,-0.00577382,-0.339416,0.00560101,0.0397818,1826,827,48.6183,-2.58138
609,197,48.666,2.4823,0.000494133,-0.00140472,-0.000870669,0.000832912,-0.0017435,-0.371077,0.00151814,0.0412851,1833,827,48.666,-2.4823
616,197,48.6028,2.57581,-0.00150525,0.00141561,0.00084293,0.00164141,-0.00173105,1.30906,0.00194732,0.0401387,1840,827,48.6027,-2.57579
623,197,48.6152,2.64789,-0.00327861,0.00315545,0.00164092,0.00354978,-0.00367294,1.33496,0.00417024,0.0360504,1847,827,48.6152,-2.64789
630,197,48.7029,2.67957,-0.00453636,0.00408677,0.00178539,0.00444181,-0.0048914,1.3745,0.00539062,0.0307297,1854,827,48.7029,-2.67957
637,197,48.6813,2.66132,-0.00515085,0.00413346,0.00142695,0.00434783,-0.00536522,1.42169,0.00561807,0.0274997,1861,827,48.6813,-2.66133
644,197,48.7063,2.68036,-0.00542845,0.00373914,0.00103549,0.00385464,-0.00554396,1.45971,0.00545542,0.0330216,1868,827,48.7063,-2.68037
651,197,48.8302,2.83325,0,0,0,0,0,0,0,-1,1875,827,48.8302,-2.83325
658,197,40.4694,3.05927,0,0,0,0,0,0,0,-1,1882,827,40.4694,-3.05926
665,197,14.0618,1.80304,0,0,0,0,0,0,0,-1,1889,827,14.0617,-1.80303
672,197,37.0833,-0.0733032,0,0,0,0,0,0,0,-1,1896,827,37.0833,0.0732821
679,197,37.4933,0.432556,0,0,0,0,0,0,0,-1,1903,827,37.4933,-0.432546
686,197,37.5863,1.29358,-0.00390006,0.000442013,-0.00152513,0.000924167,-0.00438222,-1.2646,0.00327331,0.0321087,1910,827,37.5863,-1.2936
693,197,37.4813,1.88446,-0.00274306,-0.000235869,-0.00181238,0.000714218,-0.00369315,-1.08796,0.00273148,0.0185849,1917,827,37.4813,-1.88445
700,197,37.4691,2.40399,-0.00199296,-0.000610695,-0.00156527,0.000409233,-0.00301289,-0.993298,0.00215798,0.0232628,1924,827,37.4691,-2.40402
707,197,37.5129,2.95319,-0.00203265,-0.000780213,-0.00107823,-0.000159542,-0.00265332,-1.04848,0.00171817,0.009513,1931,827,37.513,-2.95319
714,197,37.488,3.49347,-0.00185741,-0.00114384,-0.000171089,-0.00110494,-0.00189631,-1.34723,0.00109981,0.0112384,1938,827,37.4881,-3.49344
721,197,37.4701,4.03003,-0.00188882,-0.00173755,0.00105236,-0.000758115,-0.00286826,0.821272,0.00171622,0.0116035,1945,827,37.4701,-4.03005
728,197,37.4338,4.57916,-0.00251998,-0.00320494,0.00245299,-0.000385676,-0.00533924,0.716038,0.00343815,0.00984597,1952,827,37.4339,-4.57917
735,197,37.3984,5.1275,-0.00390062,-0.00568545,0.00402331,-0.000671942,-0.00891413,0.676259,0.00573191,0.0107505,1959,827,37.3985,-5.12751
742,197,37.382,5.68463,-0.00624653,-0.00974117,0.00581861,-0.00191854,-0.0140692,0.639533,0.00880984,0.0207438,1966,827,37.3819,-5.68465
749,197,36.9812,6.56219,-0.00980677,-0.016139,0.00806695,-0.00430686,-0.0216389,0.598395,0.0132262,0.0436681,1973,827,36.9812,-6.56219
756,197,36.4963,7.47784,-0.0145953,-0.0256466,0.0107609,-0.00802423,-0.0322176,0.548206,0.019366,0.0462716,1980,827,36.4964,-7.47785
763,197,36.4268,8.58673,-0.0207356,-0.0391209,0.0136348,-0.013484,-0.0463724,0.488796,0.0275434,0.04809,1987,827,36.4268,-8.58672
770,197,36.6056,9.6554,0,0,0,0,0,0,0,-1,1994,827,36.6056,-9.65542
777,197,0,0,0,0,0,0,0,0,0,-1,2001,827,0,0
784,197,0,0,0,0,0,0,0,0,0,-1,2008,827,0,0
791,197,0,0,0,0,0,0,0,0,0,-1,2015,827,0,0
798,197,0,0,0,0,0,0,0,0,0,-1,2022,827,0,0
805,197,0,0,0,0,0,0,0,0,0,-1,2029,827,0,0
812,197,0,0,0,0,0,0,0,0,0,-1,2036,827,0,0
-700,190,0,0,0,0,0,0,0,0,0,-1,524,834,0,0
-693,190,0,0,0,0,0,0,0,0,0,-1,531,834,0,0
-686,190,0,0,0,0,0,0,0,0,0,-1,538,834,0,0
-679,190,0,0,0,0,0,0,0,0,0,-1,545,834,0,0
-672,190,0,0,0,0,0,0,0,0,0,-1,552,834,0,0
-665,190,0,0,0,0,0,0,0,0,0,-1,559,834,0,0
-658,190,-29.6046,6.81848,0,0,0,0,0,0,0,-1,566,834,-29.6046,-6.81848
-651,190,-29.3401,5.43561,0,0,0,0,0,0,0,-1,573,834,-29.3401,-5.43559
-644,190,-26.3731,5.34583,0,0,0,0,0,0,0,-1,580,834,-26.3731,-5.3458
-637,190,-25.8989,7.53088,0,0,0,0,0,0,0,-1,587,834,-25.8989,-7.5309
-630,190,-27.0356,2.47394,0,0,0,0,0,0,0,-1,594,834,-27.0356,-2.47396
-623,190,-27.014,2.46442,0,0,0,0,0,0,0,-1,601,834,-27.014,-2.46443
-616,190,-26.9012,2.74335,0.00388602,-0.00922572,0.0110967,0.0102187,-0.0155584,0.518586,0.0149885,0.0432872,608,834,-26.9012,-2.74334
-609,190,-26.882,2.91925,0.00132467,-0.00591567,0.00766394,0.00618045,-0.0107714,0.56475,0.0099061,0.0263025,615,834,-26.882,-2.91925
-602,190,-26.9498,2.50592,0.000317274,-0.00338141,0.00530838,0.00408923,-0.00715337,0.617782,0.00657078,0.0169981,622,834,-26.9499,-2.5059
-595,190,-27.0034,1.96899,0.000107659,-0.00169339,0.00374815,0.00306195,-0.00464768,0.667504,0.00448243,0.0187427,629,834,-27.0034,-1.96899
-588,190,-27.0222,1.42474,0.000514686,-0.000779854,0.00280449,0.00274563,-0.0030108,0.671985,0.00332465,0.0188572,636,834,-27.0222,-1.42477
-581,190,-27.0315,0.907898,0.000929005,-0.000345589,0.00227744,0.00265664,-0.00207322,0.648973,0.0027377,0.0134755,643,834,-27.0315,-0.907925
-574,190,-27.0112,0.403992,0.00155324,-0.000483904,0.00221632,0.00297384,-0.0019045,0.570003,0.00283898,0.0121606,650,834,-27.0112,-0.403977
-567,190,-26.9319,-0.177063,0.00249352,-0.000510222,0.00246736,0.00388016,-0.00189686,0.512004,0.00340025,0.0231717,657,834,-26.9319,0.177048
-560,190,-26.8336,-0.805481,0,0,0,0,0,0,0,-1,664,834,-26.8335,0.805458
-553,190,-26.8853,-0.973022,0,0,0,0,0,0,0,-1,671,834,-26.8852,0.973013
-546,190,-27.3042,-1.55688,0,0,0,0,0,0,0,-1,678,834,-27.3042,1.55689
-539,190,-16.4624,-0.542542,0,0,0,0,0,0,0,-1,685,834,-16.4624,0.542527
-532,190,-21.6292,2.06122,0,0,0,0,0,0,0,-1,692,834,-21.6292,-2.06123
-525,190,-36.5215,0.771118,0,0,0,0,0,0,0,-1,699,834,-36.5215,-0.771123
-518,190,-36.3569,1.01447,0.00273641,0.00558357,0.0021903,0.00677227,0.00154771,1.07357,0.00409756,0.0477783,706,834,-36.3569,-1.01448
-511,190,-36.2134,1.1618,0.00208851,0.00696102,0.00173875,0.00751786,0.00153168,1.26087,0.00458739,0.0421913,713,834,-36.2135,-1.16179
-504,190,-36.5205,1.23297,0.00182567,0.00871859,0.000708569,0.00879068,0.00175359,1.46941,0.00537219,0.044534,720,834,-36.5205,-1.23296
-497,190,-36.5663,1.5354,0.00180602,0.0111515,-0.000886229,0.0112348,0.00172272,-1.47708,0.00698678,0.0467216,727,834,-36.5663,-1.53539
-490,190,-36.4573,1.71271,0,0,0,0,0,0,0,-1,734,834,-36.4574,-1.71268
-483,190,0,0,0,0,0,0,0,0,0,-1,741,834,0,0
-476,190,0,0,0,0,0,0,0,0,0,-1,748,834,0,0
-469,190,0,0,0,0,0,0,0,0,0,-1,755,834,0,0
-462,190,0,0,0,0,0,0,0,0,0,-1,762,834,0,0
-455,190,0,0,0,0,0,0,0,0,0,-1,769,834,0,0
-448,190,0,0,0,0,0,0,0,0,0,-1,776,834,0,0
-441,190,0,0,0,0,0,0,0,0,0,-1,783,834,0,0
-434,190,0,0,0,0,0,0,0,0,0,-1,790,834,0,0
-427,190,0,0,0,0,0,0,0,0,0,-1,797,834,0,0
-420,190,0,0,0,0,0,0,0,0,0,-1,804,834,0,0
-413,190,0,0,0,0,0,0,0,0,0,-1,811,834,0,0
-406,190,0,0,0,0,0,0,0,0,0,-1,818,834,0,0
-399,190,0,0,0,0,0,0,0,0,0,-1,825,834,0,0
-392,190,0,0,0,0,0,0,0,0,0,-1,832,834,0,0
-385,190,0,0,0,0,0,0,0,0,0,-1,839,834,0,0
-378,190,0,0,0,0,0,0,0,0,0,-1,846,834,0,0
-371,190,0,0,0,0,0,0,0,0,0,-1,853,834,0,0
-364,190,0,0,0,0,0,0,0,0,0,-1,860,834,0,0
-357,190,0,0,0,0,0,0,0,0,0,-1,867,834,0,0
-350,190,0,0,0,0,0,0,0,0,0,-1,874,834,0,0
-343,190,0,0,0,0,0,0,0,0,0,-1,881,834,0,0
-336,190,0,0,0,0,0,0,0,0,0,-1,888,834,0,0
-329,190,0,0,0,0,0,0,0,0,0,-1,895,834,0,0
-322,190,0,0,0,0,0,0,0,0,0,-1,902,834,0,0
-315,190,0,0,0,0,0,0,0,0,0,-1,909,834,0,0
-308,190,0,0,0,0,0,0,0,0,0,-1,916,834,0,0
-301,190,0,0,0,0,0,0,0,0,0,-1,923,834,0,0
-294,190,0,0,0,0,0,0,0,0,0,-1,930,834,0,0
-287,190,0,0,0,0,0,0,0,0,0,-1,937,834,0,0
-280,190,0,0,0,0,0,0,0,0,0,-1,944,834,0,0
-273,190,0,0,0,0,0,0,0,0,0,-1,951,834,0,0
-266,190,0,0,0,0,0,0,0,0,0,-1,958,834,0,0
-259,190,0,0,0,0,0,0,0,0,0,-1,965,834,0,0
-252,190,0,0,0,0,0,0,0,0,0,-1,972,834,0,0
-245,190,0,0,0,0,0,0,0,0,0,-1,979,834,0,0
-238,190,0,0,0,0,0,0,0,0,0,-1,986,834,0,0
-231,190,0,0,0,0,0,0,0,0,0,-1,993,834,0,0
-224,190,0,0,0,0,0,0,0,0,0,-1,1000,834,0,0
-217,190,0,0,0,0,0,0,0,0,0,-1,1007,834,0,0
-210,190,0,0,0,0,0,0,0,0,0,-1,1014,834,0,0
-203,190,0,0,0,0,0,0,0,0,0,-1,1021,834,0,0
-196,190,0,0,0,0,0,0,0,0,0,-1,1028,834,0,0
-189,190,0,0,0,0,0,0,0,0,0,-1,1035,834,0,0
-182,190,0,0,0,0,0,0,0,0,0,-1,1042,834,0,0
-175,190,0,0,0,0,0,0,0,0,0,-1,1049,834,0,0
-168,190,0,0,0,0,0,0,0,0,0,-1,1056,834,0,0
-161,190,0,0,0,0,0,0,0,0,0,-1,1063,834,0,0
-154,190,0,0,0,0,0,0,0,0,0,-1,1070,834,0,0
-147,190,0,0,0,0,0,0,0,0,0,-1,1077,834,0,0
-140,190,0,0,0,0,0,0,0,0,0,-1,1084,834,0,0
-133,190,0,0,0,0,0,0,0,0,0,-1,1091,834,0,0
-126,190,0,0,0,0,0,0,0,0,0,-1,1098,834,0,0
-119,190,0,0,0,0,0,0,0,0,0,-1,1105,834,0,0
-112,190,0,0,0,0,0,0,0,0,0,-1,1112,834,0,0
-105,190,0,0,0,0,0,0,0,0,0,-1,1119,834,0,0
-98,190,0,0,0,0,0,0,0,0,0,-1,1126,834,0,0
-91,190,0,0,0,0,0,0,0,0,0,-1,1133,834,0,0
-84,190,0,0,0,0,0,0,0,0,0,-1,1140,834,0,0
-77,190,0,0,0,0,0,0,0,0,0,-1,1147,834,0,0
-70,190,0,0,0,0,0,0,0,0,0,-1,1154,834,0,0
-63,190,0,0,0,0,0,0,0,0,0,-1,1161,834,0,0
-56,190,0,0,0,0,0,0,0,0,0,-1,1168,834,0,0
-49,190,0,0,0,0,0,0,0,0,0,-1,1175,834,0,0
-42,190,0,0,0,0,0,0,0,0,0,-1,1182,834,0,0
-35,190,0,0,0,0,0,0,0,0,0,-1,1189,834,0,0
-28,190,0,0,0,0,0,0,0,0,0,-1,1196,834,0,0
-21,190,0,0,0,0,0,0,0,0,0,-1,1203,834,0,0
-14,190,0,0,0,0,0,0,0,0,0,-1,1210,834,0,0
-7,190,0,0,0,0,0,0,0,0,0,-1,1217,834,0,0
0,190,0,0,0,0,0,0,0,0,0,-1,1224,834,0,0
7,190,0,0,0,0,0,0,0,0,0,-1,1231,834,0,0
14,190,0,0,0,0,0,0,0,0,0,-1,1238,834,0,0
21,190,0,0,0,0,0,0,0,0,0,-1,1245,834,0,0
28,190,0,0,0,0,0,0,0,0,0,-1,1252,834,0,0
35,190,0,0,0,0,0,0,0,0,0,-1,1259,834,0,0
42,190,0,0,0,0,0,0,0,0,0,-1,1266,834,0,0
49,190,0,0,0,0,0,0,0,0,0,-1,1273,834,0,0
56,190,0,0,0,0,0,0,0,0,0,-1,1280,834,0,0
63,190,0,0,0,0,0,0,0,0,0,-1,1287,834,0,0
70,190,0,0,0,0,0,0,0,0,0,-1,1294,834,0,0
77,190,0,0,0,0,0,0,0,0,0,-1,1301,834,0,0
84,190,0,0,0,0,0,0,0,0,0,-1,1308,834,0,0
91,190,0,0,0,0,0,0,0,0,0,-1,1315,834,0,0
98,190,0,0,0,0,0,0,0,0,0,-1,1322,834,0,0
105,190,0,0,0,0,0,0,0,0,0,-1,1329,834,0,0
112,190,0,0,0,0,0,0,0,0,0,-1,1336,834,0,0
119,190,0,0,0,0,0,0,0,0,0,-1,1343,834,0,0
126,190,0,0,0,0,0,0,0,0,0,-1,1350,834,0,0
133,190,0,0,0,0,0,0,0,0,0,-1,1357,834,0,0
140,190,0,0,0,0,0,0,0,0,0,-1,1364,834,0,0
147,190,0,0,0,0,0,0,0,0,0,-1,1371,834,0,0
154,190,0,0,0,0,0,0,0,0,0,-1,1378,834,0,0
161,190,0,0,0,0,0,0,0,0,0,-1,1385,834,0,0
168,190,0,0,0,0,0,0,0,0,0,-1,1392,834,0,0
175,190,0,0,0,0,0,0,0,0,0,-1,1399,834,0,0
182,190,0,0,0,0,0,0,0,0,0,-1,1406,834,0,0
189,190,0,0,0,0,0,0,0,0,0,-1,1413,834,0,0
196,190,0,0,0,0,0,0,0,0,0,-1,1420,834,0,0
203,190,0,0,0,0,0,0,0,0,0,-1,1427,834,0,0
210,190,0,0,0,0,0,0,0,0,0,-1,1434,834,0,0
217,190,0,0,0,0,0,0,0,0,0,-1,1441,834,0,0
224,190,0,0,0,0,0,0,0,0,0,-1,1448,834,0,0
231,190,0,0,0,0,0,0,0,0,0,-1,1455,834,0,0
238,190,0,0,0,0,0,0,0,0,0,-1,1462,834,0,0
245,190,0,0,0,0,0,0,0,0,0,-1,1469,834,0,0
252,190,0,0,0,0,0,0,0,0,0,-1,1476,834,0,0
259,190,0,0,0,0,0,0,0,0,0,-1,1483,834,0,0
266,190,0,0,0,0,0,0,0,0,0,-1,1490,834,0,0
273,190,0,0,0,0,0,0,0,0,0,-1,1497,834,0,0
280,190,0,0,0,0,0,0,0,0,0,-1,1504,834,0,0
287,190,0,0,0,0,0,0,0,0,0,-1,1511,834,0,0
294,190,0,0,0,0,0,0,0,0,0,-1,1518,834,0,0
301,190,0,0,0,0,0,0,0,0,0,-1,1525,834,0,0
308,190,0,0,0,0,0,0,0,0,0,-1,1532,834,0,0
315,190,0,0,0,0,0,0,0,0,0,-1,1539,834,0,0
322,190,0,0,0,0,0,0,0,0,0,-1,1546,834,0,0
329,190,0,0,0,0,0,0,0,0,0,-1,1553,834,0,0
336,190,0,0,0,0,0,0,0,0,0,-1,1560,834,0,0
343,190,0,0,0,0,0,0,0,0,0,-1,1567,834,0,0
350,190,0,0,0,0,0,0,0,0,0,-1,1574,834,0,0
357,190,0,0,0,0,0,0,0,0,0,-1,1581,834,0,0
364,190,0,0,0,0,0,0,0,0,0,-1,1588,834,0,0
371,190,0,0,0,0,0,0,0,0,0,-1,1595,834,0,0
378,190,0,0,0,0,0,0,0,0,0,-1,1602,834,0,0
385,190,0,0,0,0,0,0,0,0,0,-1,1609,834,0,0
392,190,0,0,0,0,0,0,0,0,0,-1,1616,834,0,0
399,190,0,0,0,0,0,0,0,0,0,-1,1623,834,0,0
406,190,0,0,0,0,0,0,0,0,0,-1,1630,834,0,0
413,190,0,0,0,0,0,0,0,0,0,-1,1637,834,0,0
420,190,0,0,0,0,0,0,0,0,0,-1,1644,834,0,0
427,190,0,0,0,0,0,0,0,0,0,-1,1651,834,0,0
434,190,0,0,0,0,0,0,0,0,0,-1,1658,834,0,0
441,190,0,0,0,0,0,0,0,0,0,-1,1665,834,0,0
448,190,0,0,0,0,0,0,0,0,0,-1,1672,834,0,0
455,190,0,0,0,0,0,0,0,0,0,-1,1679,834,0,0
462,190,0,0,0,0,0,0,0,0,0,-1,1686,834,0,0
469,190,0,0,0,0,0,0,0,0,0,-1,1693,834,0,0
476,190,0,0,0,0,0,0,0,0,0,-1,1700,834,0,0
483,190,0,0,0,0,0,0,0,0,0,-1,1707,834,0,0
490,190,0,0,0,0,0,0,0,0,0,-1,1714,834,0,0
497,190,0,0,0,0,0,0,0,0,0,-1,1721,834,0,0
504,190,0,0,0,0,0,0,0,0,0,-1,1728,834,0,0
511,190,0,0,0,0,0,0,0,0,0,-1,1735,834,0,0
518,190,0,0,0,0,0,0,0,0,0,-1,1742,834,0,0
525,190,0,0,0,0,0,0,0,0,0,-1,1749,834,0,0
532,190,0,0,0,0,0,0,0,0,0,-1,1756,834,0,0
539,190,0,0,0,0,0,0,0,0,0,-1,1763,834,0,0
546,190,0,0,0,0,0,0,0,0,0,-1,1770,834,0,0
553,190,0,0,0,0,0,0,0,0,0,-1,1777,834,0,0
560,190,0,0,0,0,0,0,0,0,0,-1,1784,834,0,0
567,190,0,0,0,0,0,0,0,0,0,-1,1791,834,0,0
574,190,0,0,0,0,0,0,0,0,0,-1,1798,834,0,0
581,190,0,0,0,0,0,0,0,0,0,-1,1805,834,0,0
588,190,0,0,0,0,0,0,0,0,0,-1,1812,834,0,0
595,190,0,0,0,0,0,0,0,0,0,-1,1819,834,0,0
602,190,48.605,2.89728,0.00351241,-0.00509588,-0.00346445,0.00473348,-0.00631696,-0.338864,0.00640177,0.0447283,1826,834,48.605,-2.89725
609,190,48.5253,2.69092,0.00133017,-0.00205035,-0.00136462,0.00181227,-0.00253246,-0.339602,0.00251989,0.0406634,1833,834,48.5252,-2.69094
616,190,48.573,2.72125,-0.000527709,0.000644753,0.00037577,0.000754848,-0.000637804,1.28579,0.000804994,0.0386232,1840,834,48.5731,-2.72126
623,190,48.91,2.75098,0,0,0,0,0,0,0,-1,1847,834,48.91,-2.75101
630,190,48.8478,2.67578,-0.00371849,0.00362449,0.00171987,0.00400735,-0.00410135,1.35176,0.00468167,0.0420495,1854,834,48.8477,-2.67576
637,190,48.6741,2.60931,-0.00450965,0.00381577,0.00146281,0.00406532,-0.00475919,1.40183,0.00510008,0.0344805,1861,834,48.674,-2.60933
644,190,48.6447,2.71997,-0.00486315,0.00345174,0.00108476,0.00359092,-0.00500233,1.44318,0.00498358,0.0274131,1868,834,48.6447,-2.72
651,190,48.7208,2.83661,-0.00483795,0.00287238,0.000711301,0.00293745,-0.00490302,1.47957,0.00457387,0.0418891,1875,834,48.7208,-2.83664
658,190,48.8105,2.9292,0,0,0,0,0,0,0,-1,1882,834,48.8105,-2.92919
665,190,25.9916,3.05157,0,0,0,0,0,0,0,-1,1889,834,25.9916,-3.05156
672,190,27.2662,1.70862,0,0,0,0,0,0,0,-1,1896,834,27.2662,-1.70861
679,190,38.1432,0.992493,0,0,0,0,0,0,0,-1,1903,834,38.1432,-0.99252
686,190,38.0894,1.42285,-0.00370547,0.000441796,-0.0014184,0.000880495,-0.00414417,-1.27084,0.00309827,0.0267153,1910,834,38.0893,-1.42286
693,190,38.1245,1.90332,-0.00275436,-0.000141547,-0.00173152,0.000721117,-0.00361703,-1.10858,0.00268421,0.0198142,1917,834,38.1245,-1.9033
700,190,37.9945,2.42639,-0.00227324,-0.000556589,-0.00160295,0.00040337,-0.0032332,-1.03121,0.00230173,0.0148298,1924,834,37.9945,-2.42637
707,190,38.0237,2.96356,-0.00252784,-0.000796833,-0.00132746,-7.76484e-05,-0.00324703,-1.07429,0.00213927,0.0137941,1931,834,38.0237,-2.96358
714,190,38.033,3.49127,-0.00251928,-0.00117379,-0.00068043,-0.000889684,-0.00280339,-1.17526,0.00165414,0.0116933,1938,834,38.033,-3.49127
721,190,38.0109,4.0379,-0.00263794,-0.0017375,0.000287437,-0.00165357,-0.00272187,1.28669,0.00158354,0.0112791,1945,834,38.0109,-4.03788
728,190,37.984,4.58209,-0.00327822,-0.00304187,0.0014547,-0.00170056,-0.00461953,0.825927,0.00269783,0.0129815,1952,834,37.984,-4.58209
735,190,37.969,5.10059,-0.00455515,-0.00518438,0.00275171,-0.00210013,-0.0076394,0.728479,0.00455715,0.0116517,1959,834,37.969,-5.10062
742,190,37.929,5.68433,-0.00661403,-0.00851211,0.00421996,-0.00323771,-0.0118884,0.674792,0.00709699,0.0164904,1966,834,37.929,-5.68434
749,190,37.781,6.66705,-0.0096269,-0.013633,0.00603999,-0.00526647,-0.0179934,0.625291,0.010682,0.0386889,1973,834,37.781,-6.66705
756,190,37.6251,7.64581,0,0,0,0,0,0,0,-1,1980,834,37.6252,-7.64579
763,190,37.1091,9.39899,0,0,0,0,0,0,0,-1,1987,834,37.1091,-9.39896
770,190,37.3177,10.498,0,0,0,0,0,0,0,-1,1994,834,37.3177,-10.498
777,190,39.5988,6.67767,0,0,0,0,0,0,0,-1,2001,834,39.5987,-6.67767
784,190,0,0,0,0,0,0,0,0,0,-1,2008,834,0,0
791,190,0,0,0,0,0,0,0,0,0,-1,2015,834,0,0
798,190,0,0,0,0,0,0,0,0,0,-1,2022,834,0,0
805,190,0,0,0,0,0,0,0,0,0,-1,2029,834,0,0
812,190,0,0,0,0,0,0,0,0,0,-1,2036,834,0,0
-700,183,0,0,0,0,0,0,0,0,0,-1,524,841,0,0
-693,183,0,0,0,0,0,0,0,0,0,-1,531,841,0,0
-686,183,0,0,0,0,0,0,0,0,0,-1,538,841,0,0
-679,183,0,0,0,0,0,0,0,0,0,-1,545,841,0,0
-672,183,0,0,0,0,0,0,0,0,0,-1,552,841,0,0
-665,183,0,0,0,0,0,0,0,0,0,-1,559,841,0,0
-658,183,-28.3281,4.81165,0,0,0,0,0,0,0,-1,566,841,-28.3281,-4.81166
-651,183,-26.8482,6.84131,0,0,0,0,0,0,0,-1,573,841,-26.8482,-6.84132
-644,183,-26.6058,5.32813,0,0,0,0,0,0,0,-1,580,841,-26.6059,-5.32811
-637,183,-26.4503,4.85144,0,0,0,0,0,0,0,-1,587,841,-26.4503,-4.85141
-630,183,-26.1118,4.2193,0,0,0,0,0,0,0,-1,594,841,-26.1117,-4.2193
-623,183,-27.3916,3.96863,0,0,0,0,0,0,0,-1,601,841,-27.3916,-3.96861
-616,183,-27.4418,3.47943,0.00478656,-0.00857249,0.010815,0.0108184,-0.0146044,0.508761,0.014732,0.0408899,608,841,-27.4418,-3.47946
-609,183,-27.4899,2.99396,0.00194007,-0.00556852,0.00763713,0.0066958,-0.0103242,0.556952,0.00990068,0.0169112,615,841,-27.4899,-2.99395
-602,183,-27.5092,2.49048,0.000673495,-0.00326596,0.00543896,0.00448841,-0.00708087,0.611669,0.0067352,0.0109898,622,841,-27.5091,-2.4905
-595,183,-27.5311,1.95032,0.000313706,-0.00169699,0.00395481,0.00338896,-0.00477224,0.66093,0.00473437,0.0112591,629,841,-27.5311,-1.9503
-588,183,-27.5311,1.43073,0.000690298,-0.000823703,0.00303902,0.00306518,-0.00319859,0.663336,0.00361666,0.0139046,636,841,-27.5311,-1.43071
-581,183,-27.5559,0.932251,0.00117744,-0.000381348,0.00252664,0.00304216,-0.00224607,0.635793,0.00306467,0.014918,643,841,-27.5559,-0.932238
-574,183,-27.5365,0.44928,0.00185981,-0.000455677,0.002377,0.00334602,-0.00194189,0.558777,0.00308864,0.0152,650,841,-27.5365,-0.449303
-567,183,-27.3448,-0.10907,0.00281833,-0.000392734,0.00247762,0.00416514,-0.00173955,0.49791,0.00350364,0.0464516,657,841,-27.3448,0.10904
-560,183,-27.2452,-0.722778,0,0,0,0,0,0,0,-1,664,841,-27.2452,0.722766
-553,183,-27.183,-1.10352,0,0,0,0,0,0,0,-1,671,841,-27.1831,1.10353
-546,183,-26.27,-1.5625,0,0,0,0,0,0,0,-1,678,841,-26.27,1.56248
-539,183,-16.8032,-0.417297,0,0,0,0,0,0,0,-1,685,841,-16.8032,0.41732
-532,183,-29.9686,0.953613,0,0,0,0,0,0,0,-1,692,841,-29.9686,-0.953627
-525,183,-36.5477,0.685669,0,0,0,0,0,0,0,-1,699,841,-36.5477,-0.685645
-518,183,-36.3878,0.920471,0.00333284,0.00635785,0.00185683,0.00724023,0.00245046,1.12718,0.00425225,0.0442279,706,841,-36.3878,-0.920443
-511,183,-36.1834,1.16638,0.00261895,0.00808351,0.0013488,0.00839829,0.00230416,1.34152,0.00501063,0.0391798,713,841,-36.1834,-1.16638
-504,183,-36.9302,1.64911,0,0,0,0,0,0,0,-1,720,841,-36.9302,-1.64913
-497,183,-36.5811,1.54816,0.00209013,0.0138898,-0.00183078,0.0141673,0.0018126,-1.42035,0.00890239,0.0466422,727,841,-36.581,-1.54819
-490,183,-36.3496,1.49408,0.00182039,0.018007,-0.00474105,0.0192934,0.000533975,-1.30584,0.012688,0.0406971,734,841,-36.3496,-1.49409
-483,183,0,0,0,0,0,0,0,0,0,-1,741,841,0,0
-476,183,0,0,0,0,0,0,0,0,0,-1,748,841,0,0
-469,183,0,0,0,0,0,0,0,0,0,-1,755,841,0,0
-462,183,0,0,0,0,0,0,0,0,0,-1,762,841,0,0
-455,183,0,0,0,0,0,0,0,0,0,-1,769,841,0,0
-448,183,0,0,0,0,0,0,0,0,0,-1,776,841,0,0
-441,183,0,0,0,0,0,0,0,0,0,-1,783,841,0,0
-434,183,0,0,0,0,0,0,0,0,0,-1,790,841,0,0
-427,183,0,0,0,0,0,0,0,0,0,-1,797,841,0,0
-420,183,0,0,0,0,0,0,0,0,0,-1,804,841,0,0
-413,183,0,0,0,0,0,0,0,0,0,-1,811,841,0,0
-406,183,0,0,0,0,0,0,0,0,0,-1,818,841,0,0
-399,183,0,0,0,0,0,0,0,0,0,-1,825,841,0,0
-392,183,0,0,0,0,0,0,0,0,0,-1,832,841,0,0
-385,183,0,0,0,0,0,0,0,0,0,-1,839,841,0,0
-378,183,0,0,0,0,0,0,0,0,0,-1,846,841,0,0
-371,183,0,0,0,0,0,0,0,0,0,-1,853,841,0,0
-364,183,0,0,0,0,0,0,0,0,0,-1,860,841,0,0
-357,183,0,0,0,0,0,0,0,0,0,-1,867,841,0,0
-350,183,0,0,0,0,0,0,0,0,0,-1,874,841,0,0
-343,183,0,0,0,0,0,0,0,0,0,-1,881,841,0,0
-336,183,0,0,0,0,0,0,0,0,0,-1,888,841,0,0
-329,183,0,0,0,0,0,0,0,0,0,-1,895,841,0,0
-322,183,0,0,0,0,0,0,0,0,0,-1,902,841,0,0
-315,183,0,0,0,0,0,0,0,0,0,-1,909,841,0,0
-308,183,0,0,0,0,0,0,0,0,0,-1,916,841,0,0
-301,183,0,0,0,0,0,0,0,0,0,-1,923,841,0,0
-294,183,0,0,0,0,0,0,0,0,0,-1,930,841,0,0
-287,183,0,0,0,0,0,0,0,0,0,-1,937,841,0,0
-280,183,0,0,0,0,0,0,0,0,0,-1,944,841,0,0
-273,183,0,0,0,0,0,0,0,0,0,-1,951,841,0,0
-266,183,0,0,0,0,0,0,0,0,0,-1,958,841,0,0
-259,183,0,0,0,0,0,0,0,0,0,-1,965,841,0,0
-252,183,0,0,0,0,0,0,0,0,0,-1,972,841,0,0
-245,183,0,0,0,0,0,0,0,0,0,-1,979,841,0,0
-238,183,0,0,0,0,0,0,0,0,0,-1,986,841,0,0
-231,183,0,0,0,0,0,0,0,0,0,-1,993,841,0,0
-224,183,0,0,0,0,0,0,0,0,0,-1,1000,841,0,0
-217,183,0,0,0,0,0,0,0,0,0,-1,1007,841,0,0
-210,183,0,0,0,0,0,0,0,0,0,-1,1014,841,0,0
-203,183,0,0,0,0,0,0,0,0,0,-1,1021,841,0,0
-196,183,0,0,0,0,0,0,0,0,0,-1,1028,841,0,0
-189,183,0,0,0,0,0,0,0,0,0,-1,1035,841,0,0
-182,183,0,0,0,0,0,0,0,0,0,-1,1042,841,0,0
-175,183,0,0,0,0,0,0,0,0,0,-1,1049,841,0,0
-168,183,0,0,0,0,0,0,0,0,0,-1,1056,841,0,0
-161,183,0,0,0,0,0,0,0,0,0,-1,1063,841,0,0
-154,183,0,0,0,0,0,0,0,0,0,-1,1070,841,0,0
-147,183,0,0,0,0,0,0,0,0,0,-1,1077,841,0,0
-140,183,0,0,0,0,0,0,0,0,0,-1,1084,841,0,0
-133,183,0,0,0,0,0,0,0,0,0,-1,1091,841,0,0
-126,183,0,0,0,0,0,0,0,0,0,-1,1098,841,0,0
-119,183,0,0,0,0,0,0,0,0,0,-1,1105,841,0,0
-112,183,0,0,0,0,0,0,0,0,0,-1,1112,841,0,0
-105,183,0,0,0,0,0,0,0,0,0,-1,1119,841,0,0
-98,183,0,0,0,0,0,0,0,0,0,-1,1126,841,0,0
-91,183,0,0,0,0,0,0,0,0,0,-1,1133,841,0,0
-84,183,0,0,0,0,0,0,0,0,0,-1,1140,841,0,0
-77,183,0,0,0,0,0,0,0,0,0,-1,1147,841,0,0
-70,183,0,0,0,0,0,0,0,0,0,-1,1154,841,0,0
-63,183,0,0,0,0,0,0,0,0,0,-1,1161,841,0,0
-56,183,0,0,0,0,0,0,0,0,0,-1,1168,841,0,0
-49,183,0,0,0,0,0,0,0,0,0,-1,1175,841,0,0
-42,183,0,0,0,0,0,0,0,0,0,-1,1182,841,0,0
-35,183,0,0,0,0,0,0,0,0,0,-1,1189,841,0,0
-28,183,0,0,0,0,0,0,0,0,0,-1,1196,841,0,0
-21,183,0,0,0,0,0,0,0,0,0,-1,1203,841,0,0
-14,183,0,0,0,0,0,0,0,0,0,-1,1210,841,0,0
-7,183,0,0,0,0,0,0,0,0,0,-1,1217,841,0,0
0,183,0,0,0,0,0,0,0,0,0,-1,1224,841,0,0
7,183,0,0,0,0,0,0,0,0,0,-1,1231,841,0,0
14,183,0,0,0,0,0,0,0,0,0,-1,1238,841,0,0
21,183,0,0,0,0,0,0,0,0,0,-1,1245,841,0,0
28,183,0,0,0,0,0,0,0,0,0,-1,1252,841,0,0
35,183,0,0,0,0,0,0,0,0,0,-1,1259,841,0,0
42,183,0,0,0,0,0,0,0,0,0,-1,1266,841,0,0
49,183,0,0,0,0,0,0,0,0,0,-1,1273,841,0,0
56,183,0,0,0,0,0,0,0,0,0,-1,1280,841,0,0
63,183,0,0,0,0,0,0,0,0,0,-1,1287,841,0,0
70,183,0,0,0,0,0,0,0,0,0,-1,1294,841,0,0
77,183,0,0,0,0,0,0,0,0,0,-1,1301,841,0,0
84,183,0,0,0,0,0,0,0,0,0,-1,1308,841,0,0
91,183,0,0,0,0,0,0,0,0,0,-1,1315,841,0,0
98,183,0,0,0,0,0,0,0,0,0,-1,1322,841,0,0
105,183,0,0,0,0,0,0,0,0,0,-1,1329,841,0,0
112,183,0,0,0,0,0,0,0,0,0,-1,1336,841,0,0
119,183,0,0,0,0,0,0,0,0,0,-1,1343,841,0,0
126,183,0,0,0,0,0,0,0,0,0,-1,1350,841,0,0
133,183,0,0,0,0,0,0,0,0,0,-1,1357,841,0,0
140,183,0,0,0,0,0,0,0,0,0,-1,1364,841,0,0
147,183,0,0,0,0,0,0,0,0,0,-1,1371,841,0,0
154,183,0,0,0,0,0,0,0,0,0,-1,1378,841,0,0
161,183,0,0,0,0,0,0,0,0,0,-1,1385,841,0,0
168,183,0,0,0,0,0,0,0,0,0,-1,1392,841,0,0
175,183,0,0,0,0,0,0,0,0,0,-1,1399,841,0,0
182,183,0,0,0,0,0,0,0,0,0,-1,1406,841,0,0
189,183,0,0,0,0,0,0,0,0,0,-1,1413,841,0,0
196,183,0,0,0,0,0,0,0,0,0,-1,1420,841,0,0
203,183,0,0,0,0,0,0,0,0,0,-1,1427,841,0,0
210,183,0,0,0,0,0,0,0,0,0,-1,1434,841,0,0
217,183,0,0,0,0,0,0,0,0,0,-1,1441,841,0,0
224,183,0,0,0,0,0,0,0,0,0,-1,1448,841,0,0
231,183,0,0,0,0,0,0,0,0,0,-1,1455,841,0,0
238,183,0,0,0,0,0,0,0,0,0,-1,1462,841,0,0
245,183,0,0,0,0,0,0,0,0,0,-1,1469,841,0,0
252,183,0,0,0,0,0,0,0,0,0,-1,1476,841,0,0
259,183,0,0,0,0,0,0,0,0,0,-1,1483,841,0,0
266,183,0,0,0,0,0,0,0,0,0,-1,1490,841,0,0
273,183,0,0,0,0,0,0,0,0,0,-1,1497,841,0,0
280,183,0,0,0,0,0,0,0,0,0,-1,1504,841,0,0
287,183,0,0,0,0,0,0,0,0,0,-1,1511,841,0,0
294,183,0,0,0,0,0,0,0,0,0,-1,1518,841,0,0
301,183,0,0,0,0,0,0,0,0,0,-1,1525,841,0,0
308,183,0,0,0,0,0,0,0,0,0,-1,1532,841,0,0
315,183,0,0,0,0,0,0,0,0,0,-1,1539,841,0,0
322,183,0,0,0,0,0,0,0,0,0,-1,1546,841,0,0
329,183,0,0,0,0,0,0,0,0,0,-1,1553,841,0,0
336,183,0,0,0,0,0,0,0,0,0,-1,1560,841,0,0
343,183,0,0,0,0,0,0,0,0,0,-1,1567,841,0,0
350,183,0,0,0,0,0,0,0,0,0,-1,1574,841,0,0
357,183,0,0,0,0,0,0,0,0,0,-1,1581,841,0,0
364,183,0,0,0,0,0,0,0,0,0,-1,1588,841,0,0
371,183,0,0,0,0,0,0,0,0,0,-1,1595,841,0,0
378,183,0,0,0,0,0,0,0,0,0,-1,1602,841,0,0
385,183,0,0,0,0,0,0,0,0,0,-1,1609,841,0,0
392,183,0,0,0,0,0,0,0,0,0,-1,1616,841,0,0
399,183,0,0,0,0,0,0,0,0,0,-1,1623,841,0,0
406,183,0,0,0,0,0,0,0,0,0,-1,1630,841,0,0
413,183,0,0,0,0,0,0,0,0,0,-1,1637,841,0,0
420,183,0,0,0,0,0,0,0,0,0,-1,1644,841,0,0
427,183,0,0,0,0,0,0,0,0,0,-1,1651,841,0,0
434,183,0,0,0,0,0,0,0,0,0,-1,1658,841,0,0
441,183,0,0,0,0,0,0,0,0,0,-1,1665,841,0,0
448,183,0,0,0,0,0,0,0,0,0,-1,1672,841,0,0
455,183,0,0,0,0,0,0,0,0,0,-1,1679,841,0,0
462,183,0,0,0,0,0,0,0,0,0,-1,1686,841,0,0
469,183,0,0,0,0,0,0,0,0,0,-1,1693,841,0,0
476,183,0,0,0,0,0,0,0,0,0,-1,1700,841,0,0
483,183,0,0,0,0,0,0,0,0,0,-1,1707,841,0,0
490,183,0,0,0,0,0,0,0,0,0,-1,1714,841,0,0
497,183,0,0,0,0,0,0,0,0,0,-1,1721,841,0,0
504,183,0,0,0,0,0,0,0,0,0,-1,1728,841,0,0
511,183,0,0,0,0,0,0,0,0,0,-1,1735,841,0,0
518,183,0,0,0,0,0,0,0,0,0,-1,1742,841,0,0
525,183,0,0,0,0,0,0,0,0,0,-1,1749,841,0,0
532,183,0,0,0,0,0,0,0,0,0,-1,1756,841,0,0
539,183,0,0,0,0,0,0,0,0,0,-1,1763,841,0,0
546,183,0,0,0,0,0,0,0,0,0,-1,1770,841,0,0
553,183,0,0,0,0,0,0,0,0,0,-1,1777,841,0,0
560,183,0,0,0,0,0,0,0,0,0,-1,1784,841,0,0
567,183,0,0,0,0,0,0,0,0,0,-1,1791,841,0,0
574,183,0,0,0,0,0,0,0,0,0,-1,1798,841,0,0
581,183,0,0,0,0,0,0,0,0,0,-1,1805,841,0,0
588,183,0,0,0,0,0,0,0,0,0,-1,1812,841,0,0
595,183,0,0,0,0,0,0,0,0,0,-1,1819,841,0,0
602,183,0,0,0,0,0,0,0,0,0,-1,1826,841,0,0
609,183,48.5143,3.04449,0.00139337,-0.00287876,-0.00182307,0.00206557,-0.00355096,-0.353253,0.00328029,0.0410162,1833,841,48.5143,-3.0445
616,183,48.6178,2.84174,-0.000141673,-0.000448478,-5.70826e-05,-0.000131397,-0.000458754,-0.178117,0.000272798,0.0395768,1840,841,48.6178,-2.84171
623,183,48.8765,2.75128,-0.00168352,0.00149757,0.00113348,0.00186012,-0.00204607,1.26122,0.00225609,0.0446232,1847,841,48.8765,-2.75128
630,183,48.801,2.60736,-0.00303126,0.00280396,0.0015872,0.00320775,-0.00343505,1.32168,0.00383597,0.0423867,1854,841,48.8011,-2.60733
637,183,48.6313,2.72314,-0.00389355,0.00326433,0.00144224,0.003544,-0.00417322,1.37926,0.00446048,0.0349598,1861,841,48.6314,-2.72317
644,183,48.5183,2.7887,-0.00429682,0.00305112,0.00107033,0.00320386,-0.00444955,1.42906,0.00443817,0.0273922,1868,841,48.5183,-2.78868
651,183,48.6365,2.75916,-0.00429945,0.00255261,0.000674527,0.00261838,-0.00436523,1.4736,0.00407381,0.024026,1875,841,48.6365,-2.75917
658,183,48.7557,2.69385,0,0,0,0,0,0,0,-1,1882,841,48.7558,-2.69386
665,183,38.4337,2.66992,0,0,0,0,0,0,0,-1,1889,841,38.4337,-2.6699
672,183,29.168,1.54572,0,0,0,0,0,0,0,-1,1896,841,29.168,-1.54574
679,183,38.8452,0.979309,0,0,0,0,0,0,0,-1,1903,841,38.8452,-0.979307
686,183,38.7758,1.42853,-0.0033081,0.000586115,-0.00136354,0.00101608,-0.00373806,-1.26534,0.00289088,0.0283941,1910,841,38.7758,-1.42855
693,183,38.738,1.90424,-0.00250671,0.000115314,-0.00165838,0.000918296,-0.00330969,-1.11987,0.00256789,0.0251129,1917,841,38.7381,-1.90424
700,183,38.6096,2.45227,-0.00220581,-0.00029943,-0.00157201,0.000585798,-0.00309104,-1.05794,0.00228117,0.0244821,1924,841,38.6097,-2.45229
707,183,38.5504,2.98279,-0.00258263,-0.000591267,-0.0014346,0.00015932,-0.00333322,-1.08876,0.00227711,0.0133683,1931,841,38.5504,-2.98281
714,183,38.549,3.49524,-0.00266369,-0.000915567,-0.000999849,-0.000461592,-0.00311767,-1.14459,0.00194295,0.0163785,1938,841,38.549,-3.49521
721,183,38.5594,4.0329,-0.00282351,-0.00135689,-0.000243105,-0.00131764,-0.00286275,-1.41074,0.00165455,0.0150497,1945,841,38.5595,-4.03293
728,183,38.5315,4.58698,-0.00344409,-0.00236607,0.000727469,-0.00199968,-0.00381048,1.10424,0.00220088,0.0128718,1952,841,38.5315,-4.58696
735,183,38.5259,5.11609,-0.00459797,-0.00402771,0.00179223,-0.00249807,-0.00612761,0.864283,0.00355782,0.0117887,1959,841,38.5259,-5.11607
742,183,38.5118,5.66162,-0.00638354,-0.00651365,0.00297986,-0.00346802,-0.00942917,0.774484,0.005507,0.011842,1966,841,38.5119,-5.66164
749,183,38.6581,6.08923,0,0,0,0,0,0,0,-1,1973,841,38.658,-6.08921
756,183,37.9744,6.97247,0,0,0,0,0,0,0,-1,1980,841,37.9744,-6.97248
763,183,37.7998,10.1646,0,0,0,0,0,0,0,-1,1987,841,37.7998,-10.1646
770,183,40.073,6.66895,0,0,0,0,0,0,0,-1,1994,841,40.073,-6.66896
777,183,40.8909,6.89099,0,0,0,0,0,0,0,-1,2001,841,40.8909,-6.89096
784,183,0,0,0,0,0,0,0,0,0,-1,2008,841,0,0
791,183,0,0,0,0,0,0,0,0,0,-1,2015,841,0,0
798,183,0,0,0,0,0,0,0,0,0,-1,2022,841,0,0
805,183,0,0,0,0,0,0,0,0,0,-1,2029,841,0,0
812,183,0,0,0,0,0,0,0,0,0,-1,2036,841,0,0
-700,176,0,0,0,0,0,0,0,0,0,-1,524,848,0,0
-693,176,0,0,0,0,0,0,0,0,0,-1,531,848,0,0
-686,176,0,0,0,0,0,0,0,0,0,-1,538,848,0,0
-679,176,0,0,0,0,0,0,0,0,0,-1,545,848,0,0
-672,176,0,0,0,0,0,0,0,0,0,-1,552,848,0,0
-665,176,-27.5441,1.32941,0,0,0,0,0,0,0,-1,559,848,-27.5441,-1.32942
-658,176,-27.4673,1.63702,0,0,0,0,0,0,0,-1,566,848,-27.4673,-1.63702
-651,176,-28.113,6.4953,0,0,0,0,0,0,0,-1,573,848,-28.1131,-6.49529
-644,176,-27.941,5.99268,0,0,0,0,0,0,0,-1,580,848,-27.941,-5.99267
-637,176,-27.7711,5.47681,0.0273381,-0.0230644,0.0279387,0.0397623,-0.0354886,0.418434,0.0434695,0.0474122,587,848,-27.771,-5.47681
-630,176,-27.5888,5.01495,0.017717,-0.0164002,0.0197889,0.0267849,-0.0254682,0.42968,0.0301715,0.0430015,594,848,-27.5888,-5.01495
-623,176,-27.5868,4.24207,0.00998037,-0.0110311,0.014095,0.0170541,-0.0181049,0.465137,0.0203021,0.0433598,601,848,-27.5868,-4.24206
-616,176,-27.9841,3.56354,0.00491465,-0.00742105,0.010126,0.0106034,-0.0131098,0.511853,0.0137163,0.0282152,608,848,-27.9841,-3.56352
-609,176,-28.0148,3.00439,0.00201093,-0.00486096,0.00725916,0.00660624,-0.00945627,0.564358,0.00932223,0.0117225,615,848,-28.0148,-3.00442
-602,176,-28.0372,2.47455,0.000666803,-0.00288168,0.00525829,0.00444211,-0.00665699,0.622687,0.00645046,0.0122068,622,848,-28.0371,-2.47458
-595,176,-28.0623,1.95422,0.000302764,-0.00151245,0.00389119,0.00339079,-0.00460048,0.670823,0.00463135,0.0114186,629,848,-28.0623,-1.9542
-588,176,-28.0547,1.44928,0.00075566,-0.000760123,0.00305354,0.00314395,-0.00314842,0.663756,0.0036329,0.0134634,636,848,-28.0547,-1.44928
-581,176,-28.0877,0.983093,0.00139167,-0.000378958,0.00261228,0.00326457,-0.00225186,0.62202,0.00320276,0.013077,643,848,-28.0877,-0.983096
-574,176,-28.1203,0.483337,0.00210992,-0.000476427,0.00243384,0.00357281,-0.00193932,0.541201,0.00322867,0.0208469,650,848,-28.1203,-0.483353
-567,176,-27.9265,0.108948,0,0,0,0,0,0,0,-1,657,848,-27.9265,-0.108976
-560,176,-27.9663,-0.0908813,0,0,0,0,0,0,0,-1,664,848,-27.9663,0.0908723
-553,176,-27.3114,-1.09894,0,0,0,0,0,0,0,-1,671,848,-27.3114,1.09894
-546,176,-16.657,-0.403198,0,0,0,0,0,0,0,-1,678,848,-16.657,0.403182
-539,176,-22.7061,1.48657,0,0,0,0,0,0,0,-1,685,848,-22.7061,-1.48657
-532,176,-36.4412,0.685303,0,0,0,0,0,0,0,-1,692,848,-36.4411,-0.685285
-525,176,-36.436,0.77832,0.00455322,0.00528064,0.0016399,0.00659667,0.00323718,0.894525,0.00380881,0.0457802,699,848,-36.4361,-0.778316
-518,176,-36.4092,0.814148,0.00400335,0.00694725,0.00132009,0.00745249,0.00349811,1.20526,0.00430539,0.0386701,706,848,-36.4092,-0.814128
-511,176,-36.1795,1.23071,0.00324223,0.00915225,0.000586919,0.00920997,0.00318451,1.47276,0.00540105,0.0364567,713,848,-36.1795,-1.23069
-504,176,-35.9705,1.62341,0.00285838,0.0125215,-0.0010697,0.0126385,0.00274139,-1.46185,0.00767681,0.0415786,720,848,-35.9705,-1.62341
-497,176,-36.3411,1.43536,0.00232363,0.01696,-0.00367584,0.0178313,0.00145233,-1.33806,0.0114342,0.0433977,727,848,-36.3411,-1.43538
-490,176,-36.4025,1.22253,0.00157676,0.0222086,-0.00749331,0.0246429,-0.000857529,-1.25669,0.0167218,0.0377186,734,848,-36.4024,-1.22256
-483,176,0,0,0,0,0,0,0,0,0,-1,741,848,0,0
-476,176,0,0,0,0,0,0,0,0,0,-1,748,848,0,0
-469,176,0,0,0,0,0,0,0,0,0,-1,755,848,0,0
-462,176,0,0,0,0,0,0,0,0,0,-1,762,848,0,0
-455,176,0,0,0,0,0,0,0,0,0,-1,769,848,0,0
-448,176,0,0,0,0,0,0,0,0,0,-1,776,848,0,0
-441,176,0,0,0,0,0,0,0,0,0,-1,783,848,0,0
-434,176,0,0,0,0,0,0,0,0,0,-1,790,848,0,0
-427,176,0,0,0,0,0,0,0,0,0,-1,797,848,0,0
-420,176,0,0,0,0,0,0,0,0,0,-1,804,848,0,0
-413,176,0,0,0,0,0,0,0,0,0,-1,811,848,0,0
-406,176,0,0,0,0,0,0,0,0,0,-1,818,848,0,0
-399,176,0,0,0,0,0,0,0,0,0,-1,825,848,0,0
-392,176,0,0,0,0,0,0,0,0,0,-1,832,848,0,0
-385,176,0,0,0,0,0,0,0,0,0,-1,839,848,0,0
-378,176,0,0,0,0,0,0,0,0,0,-1,846,848,0,0
-371,176,0,0,0,0,0,0,0,0,0,-1,853,848,0,0
-364,176,0,0,0,0,0,0,0,0,0,-1,860,848,0,0
-357,176,0,0,0,0,0,0,0,0,0,-1,867,848,0,0
-350,176,0,0,0,0,0,0,0,0,0,-1,874,848,0,0
-343,176,0,0,0,0,0,0,0,0,0,-1,881,848,0,0
-336,176,0,0,0,0,0,0,0,0,0,-1,888,848,0,0
-329,176,0,0,0,0,0,0,0,0,0,-1,895,848,0,0
-322,176,0,0,0,0,0,0,0,0,0,-1,902,848,0,0
-315,176,0,0,0,0,0,0,0,0,0,-1,909,848,0,0
-308,176,0,0,0,0,0,0,0,0,0,-1,916,848,0,0
-301,176,0,0,0,0,0,0,0,0,0,-1,923,848,0,0
-294,176,0,0,0,0,0,0,0,0,0,-1,930,848,0,0
-287,176,0,0,0,0,0,0,0,0,0,-1,937,848,0,0
-280,176,0,0,0,0,0,0,0,0,0,-1,944,848,0,0
-273,176,0,0,0,0,0,0,0,0,0,-1,951,848,0,0
-266,176,0,0,0,0,0,0,0,0,0,-1,958,848,0,0
-259,176,0,0,0,0,0,0,0,0,0,-1,965,848,0,0
-252,176,0,0,0,0,0,0,0,0,0,-1,972,848,0,0
-245,176,0,0,0,0,0,0,0,0,0,-1,979,848,0,0
-238,176,0,0,0,0,0,0,0,0,0,-1,986,848,0,0
-231,176,0,0,0,0,0,0,0,0,0,-1,993,848,0,0
-224,176,0,0,0,0,0,0,0,0,0,-1,1000,848,0,0
-217,176,0,0,0,0,0,0,0,0,0,-1,1007,848,0,0
-210,176,0,0,0,0,0,0,0,0,0,-1,1014,848,0,0
-203,176,0,0,0,0,0,0,0,0,0,-1,1021,848,0,0
-196,176,0,0,0,0,0,0,0,0,0,-1,1028,848,0,0
-189,176,0,0,0,0,0,0,0,0,0,-1,1035,848,0,0
-182,176,0,0,0,0,0,0,0,0,0,-1,1042,848,0,0
-175,176,0,0,0,0,0,0,0,0,0,-1,1049,848,0,0
-168,176,0,0,0,0,0,0,0,0,0,-1,1056,848,0,0
-161,176,0,0,0,0,0,0,0,0,0,-1,1063,848,0,0
-154,176,0,0,0,0,0,0,0,0,0,-1,1070,848,0,0
-147,176,0,0,0,0,0,0,0,0,0,-1,1077,848,0,0
-140,176,0,0,0,0,0,0,0,0,0,-1,1084,848,0,0
-133,176,0,0,0,0,0,0,0,0,0,-1,1091,848,0,0
-126,176,0,0,0,0,0,0,0,0,0,-1,1098,848,0,0
-119,176,0,0,0,0,0,0,0,0,0,-1,1105,848,0,0
-112,176,0,0,0,0,0,0,0,0,0,-1,1112,848,0,0
-105,176,0,0,0,0,0,0,0,0,0,-1,1119,848,0,0
-98,176,0,0,0,0,0,0,0,0,0,-1,1126,848,0,0
-91,176,0,0,0,0,0,0,0,0,0,-1,1133,848,0,0
-84,176,0,0,0,0,0,0,0,0,0,-1,1140,848,0,0
-77,176,0,0,0,0,0,0,0,0,0,-1,1147,848,0,0
-70,176,0,0,0,0,0,0,0,0,0,-1,1154,848,0,0
-63,176,0,0,0,0,0,0,0,0,0,-1,1161,848,0,0
-56,176,0,0,0,0,0,0,0,0,0,-1,1168,848,0,0
-49,176,0,0,0,0,0,0,0,0,0,-1,1175,848,0,0
-42,176,0,0,0,0,0,0,0,0,0,-1,1182,848,0,0
-35,176,0,0,0,0,0,0,0,0,0,-1,1189,848,0,0
-28,176,0,0,0,0,0,0,0,0,0,-1,1196,848,0,0
-21,176,0,0,0,0,0,0,0,0,0,-1,1203,848,0,0
-14,176,0,0,0,0,0,0,0,0,0,-1,1210,848,0,0
-7,176,0,0,0,0,0,0,0,0,0,-1,1217,848,0,0
0,176,0,0,0,0,0,0,0,0,0,-1,1224,848,0,0
7,176,0,0,0,0,0,0,0,0,0,-1,1231,848,0,0
14,176,0,0,0,0,0,0,0,0,0,-1,1238,848,0,0
21,176,0,0,0,0,0,0,0,0,0,-1,1245,848,0,0
28,176,0,0,0,0,0,0,0,0,0,-1,1252,848,0,0
35,176,0,0,0,0,0,0,0,0,0,-1,1259,848,0,0
42,176,0,0,0,0,0,0,0,0,0,-1,1266,848,0,0
49,176,0,0,0,0,0,0,0,0,0,-1,1273,848,0,0
56,176,0,0,0,0,0,0,0,0,0,-1,1280,848,0,0
63,176,0,0,0,0,0,0,0,0,0,-1,1287,848,0,0
70,176,0,0,0,0,0,0,0,0,0,-1,1294,848,0,0
77,176,0,0,0,0,0,0,0,0,0,-1,1301,848,0,0
84,176,0,0,0,0,0,0,0,0,0,-1,1308,848,0,0
91,176,0,0,0,0,0,0,0,0,0,-1,1315,848,0,0
98,176,0,0,0,0,0,0,0,0,0,-1,1322,848,0,0
105,176,0,0,0,0,0,0,0,0,0,-1,1329,848,0,0
112,176,0,0,0,0,0,0,0,0,0,-1,1336,848,0,0
119,176,0,0,0,0,0,0,0,0,0,-1,1343,848,0,0
126,176,0,0,0,0,0,0,0,0,0,-1,1350,848,0,0
133,176,0,0,0,0,0,0,0,0,0,-1,1357,848,0,0
140,176,0,0,0,0,0,0,0,0,0,-1,1364,848,0,0
147,176,0,0,0,0,0,0,0,0,0,-1,1371,848,0,0
154,176,0,0,0,0,0,0,0,0,0,-1,1378,848,0,0
161,176,0,0,0,0,0,0,0,0,0,-1,1385,848,0,0
168,176,0,0,0,0,0,0,0,0,0,-1,1392,848,0,0
175,176,0,0,0,0,0,0,0,0,0,-1,1399,848,0,0
182,176,0,0,0,0,0,0,0,0,0,-1,1406,848,0,0
189,176,0,0,0,0,0,0,0,0,0,-1,1413,848,0,0
196,176,0,0,0,0,0,0,0,0,0,-1,1420,848,0,0
203,176,0,0,0,0,0,0,0,0,0,-1,1427,848,0,0
210,176,0,0,0,0,0,0,0,0,0,-1,1434,848,0,0
217,176,0,0,0,0,0,0,0,0,0,-1,1441,848,0,0
224,176,0,0,0,0,0,0,0,0,0,-1,1448,848,0,0
231,176,0,0,0,0,0,0,0,0,0,-1,1455,848,0,0
238,176,0,0,0,0,0,0,0,0,0,-1,1462,848,0,0
245,176,0,0,0,0,0,0,0,0,0,-1,1469,848,0,0
252,176,0,0,0,0,0,0,0,0,0,-1,1476,848,0,0
259,176,0,0,0,0,0,0,0,0,0,-1,1483,848,0,0
266,176,0,0,0,0,0,0,0,0,0,-1,1490,848,0,0
273,176,0,0,0,0,0,0,0,0,0,-1,1497,848,0,0
280,176,0,0,0,0,0,0,0,0,0,-1,1504,848,0,0
287,176,0,0,0,0,0,0,0,0,0,-1,1511,848,0,0
294,176,0,0,0,0,0,0,0,0,0,-1,1518,848,0,0
301,176,0,0,0,0,0,0,0,0,0,-1,1525,848,0,0
308,176,0,0,0,0,0,0,0,0,0,-1,1532,848,0,0
315,176,0,0,0,0,0,0,0,0,0,-1,1539,848,0,0
322,176,0,0,0,0,0,0,0,0,0,-1,1546,848,0,0
329,176,0,0,0,0,0,0,0,0,0,-1,1553,848,0,0
336,176,0,0,0,0,0,0,0,0,0,-1,1560,848,0,0
343,176,0,0,0,0,0,0,0,0,0,-1,1567,848,0,0
350,176,0,0,0,0,0,0,0,0,0,-1,1574,848,0,0
357,176,0,0,0,0,0,0,0,0,0,-1,1581,848,0,0
364,176,0,0,0,0,0,0,0,0,0,-1,1588,848,0,0
371,176,0,0,0,0,0,0,0,0,0,-1,1595,848,0,0
378,176,0,0,0,0,0,0,0,0,0,-1,1602,848,0,0
385,176,0,0,0,0,0,0,0,0,0,-1,1609,848,0,0
392,176,0,0,0,0,0,0,0,0,0,-1,1616,848,0,0
399,176,0,0,0,0,0,0,0,0,0,-1,1623,848,0,0
406,176,0,0,0,0,0,0,0,0,0,-1,1630,848,0,0
413,176,0,0,0,0,0,0,0,0,0,-1,1637,848,0,0
420,176,0,0,0,0,0,0,0,0,0,-1,1644,848,0,0
427,176,0,0,0,0,0,0,0,0,0,-1,1651,848,0,0
434,176,0,0,0,0,0,0,0,0,0,-1,1658,848,0,0
441,176,0,0,0,0,0,0,0,0,0,-1,1665,848,0,0
448,176,0,0,0,0,0,0,0,0,0,-1,1672,848,0,0
455,176,0,0,0,0,0,0,0,0,0,-1,1679,848,0,0
462,176,0,0,0,0,0,0,0,0,0,-1,1686,848,0,0
469,176,0,0,0,0,0,0,0,0,0,-1,1693,848,0,0
476,176,0,0,0,0,0,0,0,0,0,-1,1700,848,0,0
483,176,0,0,0,0,0,0,0,0,0,-1,1707,848,0,0
490,176,0,0,0,0,0,0,0,0,0,-1,1714,848,0,0
497,176,0,0,0,0,0,0,0,0,0,-1,1721,848,0,0
504,176,0,0,0,0,0,0,0,0,0,-1,1728,848,0,0
511,176,0,0,0,0,0,0,0,0,0,-1,1735,848,0,0
518,176,0,0,0,0,0,0,0,0,0,-1,1742,848,0,0
525,176,0,0,0,0,0,0,0,0,0,-1,1749,848,0,0
532,176,0,0,0,0,0,0,0,0,0,-1,1756,848,0,0
539,176,0,0,0,0,0,0,0,0,0,-1,1763,848,0,0
546,176,0,0,0,0,0,0,0,0,0,-1,1770,848,0,0
553,176,0,0,0,0,0,0,0,0,0,-1,1777,848,0,0
560,176,0,0,0,0,0,0,0,0,0,-1,1784,848,0,0
567,176,0,0,0,0,0,0,0,0,0,-1,1791,848,0,0
574,176,0,0,0,0,0,0,0,0,0,-1,1798,848,0,0
581,176,0,0,0,0,0,0,0,0,0,-1,1805,848,0,0
588,176,0,0,0,0,0,0,0,0,0,-1,1812,848,0,0
595,176,0,0,0,0,0,0,0,0,0,-1,1819,848,0,0
602,176,0,0,0,0,0,0,0,0,0,-1,1826,848,0,0
609,176,48.5475,2.84692,0.00108983,-0.00315107,-0.00181383,0.00175977,-0.00382101,-0.35381,0.00329451,0.0391063,1833,848,48.5475,-2.8469
616,176,48.5288,2.80048,-0.000123665,-0.00111464,-0.000279753,-5.01442e-05,-0.00118816,-0.256993,0.000775931,0.0398646,1840,848,48.5288,-2.80048
623,176,48.495,2.59607,-0.00127418,0.000672,0.000890964,0.00101827,-0.00162045,1.20011,0.00153663,0.0453269,1847,848,48.4949,-2.59604
630,176,48.7328,2.67822,-0.00229678,0.00201571,0.00141482,0.00243845,-0.00271951,1.28045,0.00297942,0.042625,1854,848,48.7328,-2.67823
637,176,48.5752,2.76617,-0.00302444,0.002736,0.00140118,0.00305874,-0.00334718,1.34441,0.00369971,0.0330746,1861,848,48.5752,-2.76617
644,176,48.4681,2.76459,-0.00339246,0.00271472,0.00107409,0.00289812,-0.00357586,1.40168,0.00374457,0.0311365,1868,848,48.4682,-2.7646
651,176,48.5796,2.73883,-0.00341045,0.00232055,0.000686792,0.0024017,-0.0034916,1.45318,0.00342184,0.031108,1875,848,48.5796,-2.73885
658,176,48.6941,2.72577,-0.00330465,0.00203245,0.000267329,0.00204581,-0.00331801,1.52087,0.0031257,0.0424434,1882,848,48.6941,-2.72578
665,176,48.766,2.71338,0,0,0,0,0,0,0,-1,1889,848,48.766,-2.7134
672,176,16.9304,2.80719,0,0,0,0,0,0,0,-1,1896,848,16.9305,-2.80719
679,176,39.5953,0.884644,0,0,0,0,0,0,0,-1,1903,848,39.5954,-0.884667
686,176,39.4701,1.50006,-0.00260218,0.00056947,-0.00123734,0.000995078,-0.00302778,-1.2395,0.00241942,0.0403367,1910,848,39.4701,-1.50003
693,176,39.3094,2.04602,-0.00196016,0.000173307,-0.00149596,0.000943914,-0.00273076,-1.09512,0.0022036,0.0217078,1917,848,39.3094,-2.04604
700,176,39.1714,2.57153,-0.00182035,-0.000238706,-0.00141844,0.000594469,-0.00265352,-1.0397,0.00199689,0.0256678,1924,848,39.1714,-2.57154
707,176,39.1591,3.04968,-0.0022767,-0.000562967,-0.00137621,0.000201335,-0.003041,-1.06384,0.00209767,0.015597,1931,848,39.159,-3.04966
714,176,39.1368,3.5365,-0.00248692,-0.000813605,-0.00114163,-0.000234881,-0.00306565,-1.10162,0.00197014,0.0121593,1938,848,39.1368,-3.53651
721,176,39.1134,4.03113,-0.00275066,-0.00107674,-0.000595877,-0.00088629,-0.00294111,-1.26144,0.00174215,0.0124843,1945,848,39.1134,-4.03116
728,176,39.0701,4.60809,-0.00340892,-0.00171086,0.000171639,-0.00169368,-0.0034261,1.47106,0.0019781,0.0155255,1952,848,39.0701,-4.6081
735,176,39.0601,5.15259,-0.00449029,-0.00279697,0.00101278,-0.00232358,-0.00496369,1.13355,0.00286773,0.0144182,1959,848,39.06,-5.15258
742,176,39.0461,5.65826,-0.00606723,-0.00442446,0.0019457,-0.00313387,-0.00735782,0.985127,0.00426355,0.0188546,1966,848,39.0461,-5.65829
749,176,39.1182,6.0575,-0.00822427,-0.00684477,0.00302548,-0.00443141,-0.0106376,0.897473,0.00617007,0.0313586,1973,848,39.1181,-6.05751
756,176,39.2748,6.39966,0,0,0,0,0,0,0,-1,1980,848,39.2748,-6.39964
763,176,38.8152,7.64233,0,0,0,0,0,0,0,-1,1987,848,38.8152,-7.64231
770,176,36.4186,4.25641,0,0,0,0,0,0,0,-1,1994,848,36.4186,-4.25639
777,176,42.4061,7.20282,0,0,0,0,0,0,0,-1,2001,848,42.4062,-7.2028
784,176,0,0,0,0,0,0,0,0,0,-1,2008,848,0,0
791,176,0,0,0,0,0,0,0,0,0,-1,2015,848,0,0
798,176,0,0,0,0,0,0,0,0,0,-1,2022,848,0,0
805,176,0,0,0,0,0,0,0,0,0,-1,2029,848,0,0
812,176,0,0,0,0,0,0,0,0,0,-1,2036,848,0,0
-700,169,0,0,0,0,0,0,0,0,0,-1,524,855,0,0
-693,169,0,0,0,0,0,0,0,0,0,-1,531,855,0,0
-686,169,0,0,0,0,0,0,0,0,0,-1,538,855,0,0
-679,169,0,0,0,0,0,0,0,0,0,-1,545,855,0,0
-672,169,0,0,0,0,0,0,0,0,0,-1,552,855,0,0
-665,169,-27.7006,2.21771,0,0,0,0,0,0,0,-1,559,855,-27.7006,-2.21773
-658,169,-27.6542,2.5282,0,0,0,0,0,0,0,-1,566,855,-27.6542,-2.52822
-651,169,-27.7207,7.25531,0,0,0,0,0,0,0,-1,573,855,-27.7207,-7.25533
-644,169,-29.2762,6.65723,0,0,0,0,0,0,0,-1,580,855,-29.2762,-6.65723
-637,169,-29.1155,6.10809,0.0284844,-0.01991,0.0250274,0.0390992,-0.0305248,0.401131,0.0402989,0.0446446,587,855,-29.1155,-6.10811
-630,169,-28.9428,5.62292,0.01855,-0.0141334,0.0178415,0.0264027,-0.0219862,0.414623,0.0279761,0.0473142,594,855,-28.9428,-5.62291
-623,169,-28.6129,4.34595,0.0106173,-0.00949212,0.0128214,0.0168564,-0.0157312,0.452878,0.0188182,0.0397202,601,855,-28.6129,-4.34594
-616,169,-28.5143,3.51703,0.00541263,-0.00638642,0.00928106,0.0105105,-0.0114843,0.502287,0.0127028,0.0231713,608,855,-28.5144,-3.51702
-609,169,-28.528,2.99847,0.00234616,-0.00416718,0.00671203,0.00654987,-0.0083709,0.55953,0.00863587,0.0141709,615,855,-28.5279,-2.99847
-602,169,-28.5649,2.49402,0.000849493,-0.00246431,0.00491085,0.00437542,-0.00599024,0.622697,0.00600878,0.0139604,622,855,-28.565,-2.494
-595,169,-28.5844,1.97058,0.00042632,-0.00131742,0.00368595,0.00334212,-0.00423322,0.669263,0.00438369,0.0121693,629,855,-28.5844,-1.9706
-588,169,-28.5668,1.47723,0.000900142,-0.000770047,0.00296105,0.00314161,-0.00301151,0.647955,0.00355277,0.0102003,636,855,-28.5668,-1.47722
-581,169,-28.6234,1.02002,0.00158239,-0.000498061,0.00261007,0.00335188,-0.00226755,0.595773,0.00326446,0.0153507,643,855,-28.6234,-1.02002
-574,169,-28.8346,0.506042,0.00223387,-0.000632912,0.00238648,0.00358434,-0.00198339,0.514957,0.00325852,0.0282719,650,855,-28.8346,-0.506058
-567,169,-28.6493,0.102356,0.00312723,-0.000531459,0.00222367,0.00417733,-0.00158156,0.441193,0.00343564,0.0396602,657,855,-28.6493,-0.102378
-560,169,-28.5903,-0.292419,0.00402027,0.000153135,0.00205239,0.00490645,-0.000733049,0.4076,0.0035407,0.046248,664,855,-28.5903,0.292402
-553,169,-28.3931,-0.749329,0,0,0,0,0,0,0,-1,671,855,-28.3931,0.749333
-546,169,-19.0852,-1.05609,0,0,0,0,0,0,0,-1,678,855,-19.0852,1.05612
-539,169,-33.2307,1.10706,0,0,0,0,0,0,0,-1,685,855,-33.2307,-1.10708
-532,169,-36.5906,0.515381,0,0,0,0,0,0,0,-1,692,855,-36.5906,-0.515406
-525,169,-36.5139,0.616821,0.00509985,0.00545511,0.00105016,0.00634256,0.0042124,0.869178,0.00372708,0.0436394,699,855,-36.5139,-0.616795
-518,169,-36.3727,0.857544,0.00446515,0.0074385,0.000586053,0.00754984,0.00435381,1.38305,0.00437595,0.0383538,706,855,-36.3727,-0.85754
-511,169,-36.22,1.18396,0.00364609,0.0103302,-0.000514475,0.0103695,0.00360672,-1.49443,0.00607858,0.0394847,713,855,-36.22,-1.18396
-504,169,-36.2054,1.20294,0.0031729,0.014994,-0.00276587,0.0156091,0.00255776,-1.35195,0.00966694,0.0420839,720,855,-36.2054,-1.20293
-497,169,-36.2932,1.00739,0.00222947,0.0206194,-0.00598622,0.0223964,0.000452551,-1.28225,0.0147824,0.0414024,727,855,-36.2931,-1.0074
-490,169,0,0,0,0,0,0,0,0,0,-1,734,855,0,0
-483,169,0,0,0,0,0,0,0,0,0,-1,741,855,0,0
-476,169,0,0,0,0,0,0,0,0,0,-1,748,855,0,0
-469,169,0,0,0,0,0,0,0,0,0,-1,755,855,0,0
-462,169,0,0,0,0,0,0,0,0,0,-1,762,855,0,0
-455,169,0,0,0,0,0,0,0,0,0,-1,769,855,0,0
-448,169,0,0,0,0,0,0,0,0,0,-1,776,855,0,0
-441,169,0,0,0,0,0,0,0,0,0,-1,783,855,0,0
-434,169,0,0,0,0,0,0,0,0,0,-1,790,855,0,0
-427,169,0,0,0,0,0,0,0,0,0,-1,797,855,0,0
-420,169,0,0,0,0,0,0,0,0,0,-1,804,855,0,0
-413,169,0,0,0,0,0,0,0,0,0,-1,811,855,0,0
-406,169,0,0,0,0,0,0,0,0,0,-1,818,855,0,0
-399,169,0,0,0,0,0,0,0,0,0,-1,825,855,0,0
-392,169,0,0,0,0,0,0,0,0,0,-1,832,855,0,0
-385,169,0,0,0,0,0,0,0,0,0,-1,839,855,0,0
-378,169,0,0,0,0,0,0,0,0,0,-1,846,855,0,0
-371,169,0,0,0,0,0,0,0,0,0,-1,853,855,0,0
-364,169,0,0,0,0,0,0,0,0,0,-1,860,855,0,0
-357,169,0,0,0,0,0,0,0,0,0,-1,867,855,0,0
-350,169,0,0,0,0,0,0,0,0,0,-1,874,855,0,0
-343,169,0,0,0,0,0,0,0,0,0,-1,881,855,0,0
-336,169,0,0,0,0,0,0,0,0,0,-1,888,855,0,0
-329,169,0,0,0,0,0,0,0,0,0,-1,895,855,0,0
-322,169,0,0,0,0,0,0,0,0,0,-1,902,855,0,0
-315,169,0,0,0,0,0,0,0,0,0,-1,909,855,0,0
-308,169,0,0,0,0,0,0,0,0,0,-1,916,855,0,0
-301,169,0,0,0,0,0,0,0,0,0,-1,923,855,0,0
-294,169,0,0,0,0,0,0,0,0,0,-1,930,855,0,0
-287,169,0,0,0,0,0,0,0,0,0,-1,937,855,0,0
-280,169,0,0,0,0,0,0,0,0,0,-1,944,855,0,0
-273,169,0,0,0,0,0,0,0,0,0,-1,951,855,0,0
-266,169,0,0,0,0,0,0,0,0,0,-1,958,855,0,0
-259,169,0,0,0,0,0,0,0,0,0,-1,965,855,0,0
-252,169,0,0,0,0,0,0,0,0,0,-1,972,855,0,0
-245,169,0,0,0,0,0,0,0,0,0,-1,979,855,0,0
-238,169,0,0,0,0,0,0,0,0,0,-1,986,855,0,0
-231,169,0,0,0,0,0,0,0,0,0,-1,993,855,0,0
-224,169,0,0,0,0,0,0,0,0,0,-1,1000,855,0,0
-217,169,0,0,0,0,0,0,0,0,0,-1,1007,855,0,0
-210,169,0,0,0,0,0,0,0,0,0,-1,1014,855,0,0
-203,169,0,0,0,0,0,0,0,0,0,-1,1021,855,0,0
-196,169,0,0,0,0,0,0,0,0,0,-1,1028,855,0,0
-189,169,0,0,0,0,0,0,0,0,0,-1,1035,855,0,0
-182,169,0,0,0,0,0,0,0,0,0,-1,1042,855,0,0
-175,169,0,0,0,0,0,0,0,0,0,-1,1049,855,0,0
-168,169,0,0,0,0,0,0,0,0,0,-1,1056,855,0,0
-161,169,0,0,0,0,0,0,0,0,0,-1,1063,855,0,0
-154,169,0,0,0,0,0,0,0,0,0,-1,1070,855,0,0
-147,169,0,0,0,0,0,0,0,0,0,-1,1077,855,0,0
-140,169,0,0,0,0,0,0,0,0,0,-1,1084,855,0,0
-133,169,0,0,0,0,0,0,0,0,0,-1,1091,855,0,0
-126,169,0,0,0,0,0,0,0,0,0,-1,1098,855,0,0
-119,169,0,0,0,0,0,0,0,0,0,-1,1105,855,0,0
-112,169,0,0,0,0,0,0,0,0,0,-1,1112,855,0,0
-105,169,0,0,0,0,0,0,0,0,0,-1,1119,855,0,0
-98,169,0,0,0,0,0,0,0,0,0,-1,1126,855,0,0
-91,169,0,0,0,0,0,0,0,0,0,-1,1133,855,0,0
-84,169,0,0,0,0,0,0,0,0,0,-1,1140,855,0,0
-77,169,0,0,0,0,0,0,0,0,0,-1,1147,855,0,0
-70,169,0,0,0,0,0,0,0,0,0,-1,1154,855,0,0
-63,169,0,0,0,0,0,0,0,0,0,-1,1161,855,0,0
-56,169,0,0,0,0,0,0,0,0,0,-1,1168,855,0,0
-49,169,0,0,0,0,0,0,0,0,0,-1,1175,855,0,0
-42,169,0,0,0,0,0,0,0,0,0,-1,1182,855,0,0
-35,169,0,0,0,0,0,0,0,0,0,-1,1189,855,0,0
-28,169,0,0,0,0,0,0,0,0,0,-1,1196,855,0,0
-21,169,0,0,0,0,0,0,0,0,0,-1,1203,855,0,0
-14,169,0,0,0,0,0,0,0,0,0,-1,1210,855,0,0
-7,169,0,0,0,0,0,0,0,0,0,-1,1217,855,0,0
0,169,0,0,0,0,0,0,0,0,0,-1,1224,855,0,0
7,169,0,0,0,0,0,0,0,0,0,-1,1231,855,0,0
14,169,0,0,0,0,0,0,0,0,0,-1,1238,855,0,0
21,169,0,0,0,0,0,0,0,0,0,-1,1245,855,0,0
28,169,0,0,0,0,0,0,0,0,0,-1,1252,855,0,0
35,169,0,0,0,0,0,0,0,0,0,-1,1259,855,0,0
42,169,0,0,0,0,0,0,0,0,0,-1,1266,855,0,0
49,169,0,0,0,0,0,0,0,0,0,-1,1273,855,0,0
56,169,0,0,0,0,0,0,0,0,0,-1,1280,855,0,0
63,169,0,0,0,0,0,0,0,0,0,-1,1287,855,0,0
70,169,0,0,0,0,0,0,0,0,0,-1,1294,855,0,0
77,169,0,0,0,0,0,0,0,0,0,-1,1301,855,0,0
84,169,0,0,0,0,0,0,0,0,0,-1,1308,855,0,0
91,169,0,0,0,0,0,0,0,0,0,-1,1315,855,0,0
98,169,0,0,0,0,0,0,0,0,0,-1,1322,855,0,0
105,169,0,0,0,0,0,0,0,0,0,-1,1329,855,0,0
112,169,0,0,0,0,0,0,0,0,0,-1,1336,855,0,0
119,169,0,0,0,0,0,0,0,0,0,-1,1343,855,0,0
126,169,0,0,0,0,0,0,0,0,0,-1,1350,855,0,0
133,169,0,0,0,0,0,0,0,0,0,-1,1357,855,0,0
140,169,0,0,0,0,0,0,0,0,0,-1,1364,855,0,0
147,169,0,0,0,0,0,0,0,0,0,-1,1371,855,0,0
154,169,0,0,0,0,0,0,0,0,0,-1,1378,855,0,0
161,169,0,0,0,0,0,0,0,0,0,-1,1385,855,0,0
168,169,0,0,0,0,0,0,0,0,0,-1,1392,855,0,0
175,169,0,0,0,0,0,0,0,0,0,-1,1399,855,0,0
182,169,0,0,0,0,0,0,0,0,0,-1,1406,855,0,0
189,169,0,0,0,0,0,0,0,0,0,-1,1413,855,0,0
196,169,0,0,0,0,0,0,0,0,0,-1,1420,855,0,0
203,169,0,0,0,0,0,0,0,0,0,-1,1427,855,0,0
210,169,0,0,0,0,0,0,0,0,0,-1,1434,855,0,0
217,169,0,0,0,0,0,0,0,0,0,-1,1441,855,0,0
224,169,0,0,0,0,0,0,0,0,0,-1,1448,855,0,0
231,169,0,0,0,0,0,0,0,0,0,-1,1455,855,0,0
238,169,0,0,0,0,0,0,0,0,0,-1,1462,855,0,0
245,169,0,0,0,0,0,0,0,0,0,-1,1469,855,0,0
252,169,0,0,0,0,0,0,0,0,0,-1,1476,855,0,0
259,169,0,0,0,0,0,0,0,0,0,-1,1483,855,0,0
266,169,0,0,0,0,0,0,0,0,0,-1,1490,855,0,0
273,169,0,0,0,0,0,0,0,0,0,-1,1497,855,0,0
280,169,0,0,0,0,0,0,0,0,0,-1,1504,855,0,0
287,169,0,0,0,0,0,0,0,0,0,-1,1511,855,0,0
294,169,0,0,0,0,0,0,0,0,0,-1,1518,855,0,0
301,169,0,0,0,0,0,0,0,0,0,-1,1525,855,0,0
308,169,0,0,0,0,0,0,0,0,0,-1,1532,855,0,0
315,169,0,0,0,0,0,0,0,0,0,-1,1539,855,0,0
322,169,0,0,0,0,0,0,0,0,0,-1,1546,855,0,0
329,169,0,0,0,0,0,0,0,0,0,-1,1553,855,0,0
336,169,0,0,0,0,0,0,0,0,0,-1,1560,855,0,0
343,169,0,0,0,0,0,0,0,0,0,-1,1567,855,0,0
350,169,0,0,0,0,0,0,0,0,0,-1,1574,855,0,0
357,169,0,0,0,0,0,0,0,0,0,-1,1581,855,0,0
364,169,0,0,0,0,0,0,0,0,0,-1,1588,855,0,0
371,169,0,0,0,0,0,0,0,0,0,-1,1595,855,0,0
378,169,0,0,0,0,0,0,0,0,0,-1,1602,855,0,0
385,169,0,0,0,0,0,0,0,0,0,-1,1609,855,0,0
392,169,0,0,0,0,0,0,0,0,0,-1,1616,855,0,0
399,169,0,0,0,0,0,0,0,0,0,-1,1623,855,0,0
406,169,0,0,0,0,0,0,0,0,0,-1,1630,855,0,0
413,169,0,0,0,0,0,0,0,0,0,-1,1637,855,0,0
420,169,0,0,0,0,0,0,0,0,0,-1,1644,855,0,0
427,169,0,0,0,0,0,0,0,0,0,-1,1651,855,0,0
434,169,0,0,0,0,0,0,0,0,0,-1,1658,855,0,0
441,169,0,0,0,0,0,0,0,0,0,-1,1665,855,0,0
448,169,0,0,0,0,0,0,0,0,0,-1,1672,855,0,0
455,169,0,0,0,0,0,0,0,0,0,-1,1679,855,0,0
462,169,0,0,0,0,0,0,0,0,0,-1,1686,855,0,0
469,169,0,0,0,0,0,0,0,0,0,-1,1693,855,0,0
476,169,0,0,0,0,0,0,0,0,0,-1,1700,855,0,0
483,169,0,0,0,0,0,0,0,0,0,-1,1707,855,0,0
490,169,0,0,0,0,0,0,0,0,0,-1,1714,855,0,0
497,169,0,0,0,0,0,0,0,0,0,-1,1721,855,0,0
504,169,0,0,0,0,0,0,0,0,0,-1,1728,855,0,0
511,169,0,0,0,0,0,0,0,0,0,-1,1735,855,0,0
518,169,0,0,0,0,0,0,0,0,0,-1,1742,855,0,0
525,169,0,0,0,0,0,0,0,0,0,-1,1749,855,0,0
532,169,0,0,0,0,0,0,0,0,0,-1,1756,855,0,0
539,169,0,0,0,0,0,0,0,0,0,-1,1763,855,0,0
546,169,0,0,0,0,0,0,0,0,0,-1,1770,855,0,0
553,169,0,0,0,0,0,0,0,0,0,-1,1777,855,0,0
560,169,0,0,0,0,0,0,0,0,0,-1,1784,855,0,0
567,169,0,0,0,0,0,0,0,0,0,-1,1791,855,0,0
574,169,0,0,0,0,0,0,0,0,0,-1,1798,855,0,0
581,169,0,0,0,0,0,0,0,0,0,-1,1805,855,0,0
588,169,0,0,0,0,0,0,0,0,0,-1,1812,855,0,0
595,169,0,0,0,0,0,0,0,0,0,-1,1819,855,0,0
602,169,0,0,0,0,0,0,0,0,0,-1,1826,855,0,0
609,169,0,0,0,0,0,0,0,0,0,-1,1833,855,0,0
616,169,48.5237,2.80811,0,0,0,0,0,0,0,-1,1840,855,48.5237,-2.80813
623,169,48.8215,2.34021,0,0,0,0,0,0,0,-1,1847,855,48.8215,-2.34022
630,169,48.807,2.52704,-0.00190623,0.00125652,0.00107219,0.00158574,-0.00223544,1.27289,0.00221676,0.0445823,1854,855,48.807,-2.52707
637,169,48.6616,2.73645,-0.00238821,0.00215235,0.00123815,0.00246802,-0.00270389,1.32115,0.00298704,0.0386683,1861,855,48.6616,-2.73642
644,169,48.5428,2.76758,-0.00261993,0.0023227,0.00103157,0.00252936,-0.00282659,1.37308,0.00309384,0.0369269,1868,855,48.5428,-2.7676
651,169,48.5548,2.7182,-0.00258278,0.00204566,0.000721181,0.00215543,-0.00269255,1.41975,0.0028047,0.0369164,1875,855,48.5548,-2.71822
658,169,48.6184,2.74054,-0.00247407,0.00181515,0.000360924,0.00184531,-0.00250423,1.48743,0.0025208,0.0380083,1882,855,48.6184,-2.74053
665,169,48.6925,2.79443,0,0,0,0,0,0,0,-1,1889,855,48.6925,-2.79444
672,169,31.2465,2.96387,0,0,0,0,0,0,0,-1,1896,855,31.2464,-2.9639
679,169,38.4297,1.08197,0,0,0,0,0,0,0,-1,1903,855,38.4296,-1.08194
686,169,39.8947,1.54669,0,0,0,0,0,0,0,-1,1910,855,39.8947,-1.54668
693,169,39.89,2.10364,-0.00145238,0.000198607,-0.00117818,0.000811706,-0.00206548,-1.09098,0.00171291,0.0225198,1917,855,39.8901,-2.10362
700,169,39.8763,2.66138,-0.00146544,-0.000169066,-0.00110701,0.000465562,-0.00210007,-1.05025,0.00157829,0.0206185,1924,855,39.8764,-2.66135
707,169,39.7872,3.12299,-0.00198011,-0.000468644,-0.00113463,0.0001389,-0.00258765,-1.07919,0.00177322,0.0200812,1931,855,39.7873,-3.12296
714,169,39.6646,3.5437,-0.00229937,-0.000634517,-0.00107805,-0.000104913,-0.00282897,-1.11416,0.001852,0.0149071,1938,855,39.6646,-3.54373
721,169,39.6537,4.06238,-0.00264687,-0.00072229,-0.00075768,-0.000459802,-0.00290935,-1.2373,0.00180592,0.0168401,1945,855,39.6537,-4.0624
728,169,39.6379,4.62543,-0.00331584,-0.0010094,-0.000222813,-0.000988072,-0.00333717,-1.47537,0.00197941,0.014144,1952,855,39.638,-4.62542
735,169,39.5862,5.15582,-0.00430743,-0.00158226,0.000382429,-0.00152961,-0.00436008,1.43398,0.00255436,0.0188016,1959,855,39.5862,-5.15581
742,169,39.5806,5.6535,-0.00569277,-0.00248065,0.00107539,-0.00215386,-0.00601955,1.27579,0.00352192,0.0163549,1966,855,39.5805,-5.65353
749,169,39.515,6.06195,-0.00752506,-0.00382596,0.00184353,-0.00306411,-0.00828692,1.17891,0.00483826,0.0270625,1973,855,39.515,-6.06196
756,169,39.6184,6.37292,0,0,0,0,0,0,0,-1,1980,855,39.6184,-6.37295
763,169,39.3905,7.47485,0,0,0,0,0,0,0,-1,1987,855,39.3905,-7.47486
770,169,37.2059,3.97021,0,0,0,0,0,0,0,-1,1994,855,37.2059,-3.97022
777,169,37.9381,9.14392,0,0,0,0,0,0,0,-1,2001,855,37.9381,-9.1439
784,169,37.6997,9.83215,0,0,0,0,0,0,0,-1,2008,855,37.6997,-9.83216
791,169,0,0,0,0,0,0,0,0,0,-1,2015,855,0,0
798,169,0,0,0,0,0,0,0,0,0,-1,2022,855,0,0
805,169,0,0,0,0,0,0,0,0,0,-1,2029,855,0,0
812,169,0,0,0,0,0,0,0,0,0,-1,2036,855,0,0
-700,162,0,0,0,0,0,0,0,0,0,-1,524,862,0,0
-693,162,0,0,0,0,0,0,0,0,0,-1,531,862,0,0
-686,162,0,0,0,0,0,0,0,0,0,-1,538,862,0,0
-679,162,0,0,0,0,0,0,0,0,0,-1,545,862,0,0
-672,162,0,0,0,0,0,0,0,0,0,-1,552,862,0,0
-665,162,-27.7366,3.01807,0,0,0,0,0,0,0,-1,559,862,-27.7366,-3.01809
-658,162,-27.9741,3.1861,0,0,0,0,0,0,0,-1,566,862,-27.9741,-3.18607
-651,162,-28.442,6.95349,0,0,0,0,0,0,0,-1,573,862,-28.442,-6.95351
-644,162,-30.4137,7.00598,0,0,0,0,0,0,0,-1,580,862,-30.4137,-7.00598
-637,162,-29.9902,6.0932,0.0275269,-0.0174161,0.0213561,0.0360563,-0.0259454,0.379977,0.035955,0.0467958,587,862,-29.9902,-6.09318
-630,162,-29.5845,5.32782,0.0178671,-0.0121507,0.0152843,0.0242795,-0.0185632,0.397244,0.0248086,0.0467742,594,862,-29.5845,-5.32781
-623,162,-29.0461,4.315,0,0,0,0,0,0,0,-1,601,862,-29.0461,-4.31498
-616,162,-28.9995,3.50244,0.00522886,-0.00529543,0.00813372,0.00965421,-0.00972078,0.498282,0.0111862,0.0206568,608,862,-28.9995,-3.50247
-609,162,-29.0483,2.99072,0.00222957,-0.00335992,0.00596765,0.00602447,-0.00715482,0.566408,0.00761839,0.0133843,615,862,-29.0483,-2.99072
-602,162,-29.0829,2.49561,0.000739205,-0.00190681,0.00445477,0.00406327,-0.00523087,0.641053,0.00538007,0.0121512,622,862,-29.0829,-2.49558
-595,162,-29.0833,2.01172,0.00036866,-0.000982056,0.00345681,0.00321547,-0.00382887,0.688928,0.00407219,0.0113381,629,862,-29.0833,-2.01174
-588,162,-29.0848,1.51569,0.000923478,-0.000628656,0.00288752,0.0031374,-0.00284258,0.654117,0.00345394,0.0116622,636,862,-29.0848,-1.51569
-581,162,-29.2757,1.03094,0.00167301,-0.000455458,0.00259636,0.00341479,-0.00219723,0.590894,0.00326542,0.0252372,643,862,-29.2757,-1.03096
-574,162,-29.5312,0.523621,0.00224259,-0.000594759,0.00229848,0.00352496,-0.00187713,0.508905,0.0031669,0.0371837,650,862,-29.5312,-0.523595
-567,162,-29.4798,0.0119629,0.00303737,-0.000493159,0.00199291,0.00393441,-0.00139019,0.422948,0.00318899,0.0441229,657,862,-29.4798,-0.0119418
-560,162,-29.2397,-0.645935,0.00391941,0.000189235,0.00171914,0.00459085,-0.00048221,0.372351,0.00323331,0.0409085,664,862,-29.2397,0.645942
-553,162,-28.8391,-1.32104,0,0,0,0,0,0,0,-1,671,862,-28.839,1.32105
-546,162,-22.8181,-1.51154,0,0,0,0,0,0,0,-1,678,862,-22.8181,1.51155
-539,162,-36.3723,0.876038,0,0,0,0,0,0,0,-1,685,862,-36.3723,-0.876041
-532,162,-36.3234,0.922485,0.00516566,0.00423211,0.000797433,0.00562289,0.00377488,0.520611,0.0033093,0.0409838,692,862,-36.3234,-0.922474
-525,162,-36.3513,0.936035,0.00500793,0.00574965,0.000279331,0.00584308,0.0049145,1.24802,0.00362571,0.0396649,699,862,-36.3513,-0.936056
-518,162,-36.36,0.980103,0.00410782,0.00807509,-0.000400771,0.00811518,0.00406774,-1.47112,0.0046853,0.0384692,706,862,-36.36,-0.980106
-511,162,-36.3553,0.936951,0.00298674,0.011667,-0.00196363,0.0120905,0.00256319,-1.35836,0.00735632,0.0430151,713,862,-36.3553,-0.936948
-504,162,-36.3366,0.795654,0.00224174,0.0175434,-0.00480187,0.0189255,0.000859676,-1.29055,0.0123404,0.0465667,720,862,-36.3366,-0.795655
-497,162,-36.2724,0.672852,0.000943436,0.0238871,-0.00827903,0.0265626,-0.001732,-1.25823,0.018313,0.0438832,727,862,-36.2724,-0.672851
-490,162,0,0,0,0,0,0,0,0,0,-1,734,862,0,0
-483,162,0,0,0,0,0,0,0,0,0,-1,741,862,0,0
-476,162,0,0,0,0,0,0,0,0,0,-1,748,862,0,0
-469,162,0,0,0,0,0,0,0,0,0,-1,755,862,0,0
-462,162,0,0,0,0,0,0,0,0,0,-1,762,862,0,0
-455,162,0,0,0,0,0,0,0,0,0,-1,769,862,0,0
-448,162,0,0,0,0,0,0,0,0,0,-1,776,862,0,0
-441,162,0,0,0,0,0,0,0,0,0,-1,783,862,0,0
-434,162,0,0,0,0,0,0,0,0,0,-1,790,862,0,0
-427,162,0,0,0,0,0,0,0,0,0,-1,797,862,0,0
-420,162,0,0,0,0,0,0,0,0,0,-1,804,862,0,0
-413,162,0,0,0,0,0,0,0,0,0,-1,811,862,0,0
-406,162,0,0,0,0,0,0,0,0,0,-1,818,862,0,0
-399,162,0,0,0,0,0,0,0,0,0,-1,825,862,0,0
-392,162,0,0,0,0,0,0,0,0,0,-1,832,862,0,0
-385,162,0,0,0,0,0,0,0,0,0,-1,839,862,0,0
-378,162,0,0,0,0,0,0,0,0,0,-1,846,862,0,0
-371,162,0,0,0,0,0,0,0,0,0,-1,853,862,0,0
-364,162,0,0,0,0,0,0,0,0,0,-1,860,862,0,0
-357,162,0,0,0,0,0,0,0,0,0,-1,867,862,0,0
-350,162,0,0,0,0,0,0,0,0,0,-1,874,862,0,0
-343,162,0,0,0,0,0,0,0,0,0,-1,881,862,0,0
-336,162,0,0,0,0,0,0,0,0,0,-1,888,862,0,0
-329,162,0,0,0,0,0,0,0,0,0,-1,895,862,0,0
-322,162,0,0,0,0,0,0,0,0,0,-1,902,862,0,0
-315,162,0,0,0,0,0,0,0,0,0,-1,909,862,0,0
-308,162,0,0,0,0,0,0,0,0,0,-1,916,862,0,0
-301,162,0,0,0,0,0,0,0,0,0,-1,923,862,0,0
-294,162,0,0,0,0,0,0,0,0,0,-1,930,862,0,0
-287,162,0,0,0,0,0,0,0,0,0,-1,937,862,0,0
-280,162,0,0,0,0,0,0,0,0,0,-1,944,862,0,0
-273,162,0,0,0,0,0,0,0,0,0,-1,951,862,0,0
-266,162,0,0,0,0,0,0,0,0,0,-1,958,862,0,0
-259,162,0,0,0,0,0,0,0,0,0,-1,965,862,0,0
-252,162,0,0,0,0,0,0,0,0,0,-1,972,862,0,0
-245,162,0,0,0,0,0,0,0,0,0,-1,979,862,0,0
-238,162,0,0,0,0,0,0,0,0,0,-1,986,862,0,0
-231,162,0,0,0,0,0,0,0,0,0,-1,993,862,0,0
-224,162,0,0,0,0,0,0,0,0,0,-1,1000,862,0,0
-217,162,0,0,0,0,0,0,0,0,0,-1,1007,862,0,0
-210,162,0,0,0,0,0,0,0,0,0,-1,1014,862,0,0
-203,162,0,0,0,0,0,0,0,0,0,-1,1021,862,0,0
-196,162,0,0,0,0,0,0,0,0,0,-1,1028,862,0,0
-189,162,0,0,0,0,0,0,0,0,0,-1,1035,862,0,0
-182,162,0,0,0,0,0,0,0,0,0,-1,1042,862,0,0
-175,162,0,0,0,0,0,0,0,0,0,-1,1049,862,0,0
-168,162,0,0,0,0,0,0,0,0,0,-1,1056,862,0,0
-161,162,0,0,0,0,0,0,0,0,0,-1,1063,862,0,0
-154,162,0,0,0,0,0,0,0,0,0,-1,1070,862,0,0
-147,162,0,0,0,0,0,0,0,0,0,-1,1077,862,0,0
-140,162,0,0,0,0,0,0,0,0,0,-1,1084,862,0,0
-133,162,0,0,0,0,0,0,0,0,0,-1,1091,862,0,0
-126,162,0,0,0,0,0,0,0,0,0,-1,1098,862,0,0
-119,162,0,0,0,0,0,0,0,0,0,-1,1105,862,0,0
-112,162,0,0,0,0,0,0,0,0,0,-1,1112,862,0,0
-105,162,0,0,0,0,0,0,0,0,0,-1,1119,862,0,0
-98,162,0,0,0,0,0,0,0,0,0,-1,1126,862,0,0
-91,162,0,0,0,0,0,0,0,0,0,-1,1133,862,0,0
-84,162,0,0,0,0,0,0,0,0,0,-1,1140,862,0,0
-77,162,0,0,0,0,0,0,0,0,0,-1,1147,862,0,0
-70,162,0,0,0,0,0,0,0,0,0,-1,1154,862,0,0
-63,162,0,0,0,0,0,0,0,0,0,-1,1161,862,0,0
-56,162,0,0,0,0,0,0,0,0,0,-1,1168,862,0,0
-49,162,0,0,0,0,0,0,0,0,0,-1,1175,862,0,0
-42,162,0,0,0,0,0,0,0,0,0,-1,1182,862,0,0
-35,162,0,0,0,0,0,0,0,0,0,-1,1189,862,0,0
-28,162,0,0,0,0,0,0,0,0,0,-1,1196,862,0,0
-21,162,0,0,0,0,0,0,0,0,0,-1,1203,862,0,0
-14,162,0,0,0,0,0,0,0,0,0,-1,1210,862,0,0
-7,162,0,0,0,0,0,0,0,0,0,-1,1217,862,0,0
0,162,0,0,0,0,0,0,0,0,0,-1,1224,862,0,0
7,162,0,0,0,0,0,0,0,0,0,-1,1231,862,0,0
14,162,0,0,0,0,0,0,0,0,0,-1,1238,862,0,0
21,162,0,0,0,0,0,0,0,0,0,-1,1245,862,0,0
28,162,0,0,0,0,0,0,0,0,0,-1,1252,862,0,0
35,162,0,0,0,0,0,0,0,0,0,-1,1259,862,0,0
42,162,0,0,0,0,0,0,0,0,0,-1,1266,862,0,0
49,162,0,0,0,0,0,0,0,0,0,-1,1273,862,0,0
56,162,0,0,0,0,0,0,0,0,0,-1,1280,862,0,0
63,162,0,0,0,0,0,0,0,0,0,-1,1287,862,0,0
70,162,0,0,0,0,0,0,0,0,0,-1,1294,862,0,0
77,162,0,0,0,0,0,0,0,0,0,-1,1301,862,0,0
84,162,0,0,0,0,0,0,0,0,0,-1,1308,862,0,0
91,162,0,0,0,0,0,0,0,0,0,-1,1315,862,0,0
98,162,0,0,0,0,0,0,0,0,0,-1,1322,862,0,0
105,162,0,0,0,0,0,0,0,0,0,-1,1329,862,0,0
112,162,0,0,0,0,0,0,0,0,0,-1,1336,862,0,0
119,162,0,0,0,0,0,0,0,0,0,-1,1343,862,0,0
126,162,0,0,0,0,0,0,0,0,0,-1,1350,862,0,0
133,162,0,0,0,0,0,0,0,0,0,-1,1357,862,0,0
140,162,0,0,0,0,0,0,0,0,0,-1,1364,862,0,0
147,162,0,0,0,0,0,0,0,0,0,-1,1371,862,0,0
154,162,0,0,0,0,0,0,0,0,0,-1,1378,862,0,0
161,162,0,0,0,0,0,0,0,0,0,-1,1385,862,0,0
168,162,0,0,0,0,0,0,0,0,0,-1,1392,862,0,0
175,162,0,0,0,0,0,0,0,0,0,-1,1399,862,0,0
182,162,0,0,0,0,0,0,0,0,0,-1,1406,862,0,0
189,162,0,0,0,0,0,0,0,0,0,-1,1413,862,0,0
196,162,0,0,0,0,0,0,0,0,0,-1,1420,862,0,0
203,162,0,0,0,0,0,0,0,0,0,-1,1427,862,0,0
210,162,0,0,0,0,0,0,0,0,0,-1,1434,862,0,0
217,162,0,0,0,0,0,0,0,0,0,-1,1441,862,0,0
224,162,0,0,0,0,0,0,0,0,0,-1,1448,862,0,0
231,162,0,0,0,0,0,0,0,0,0,-1,1455,862,0,0
238,162,0,0,0,0,0,0,0,0,0,-1,1462,862,0,0
245,162,0,0,0,0,0,0,0,0,0,-1,1469,862,0,0
252,162,0,0,0,0,0,0,0,0,0,-1,1476,862,0,0
259,162,0,0,0,0,0,0,0,0,0,-1,1483,862,0,0
266,162,0,0,0,0,0,0,0,0,0,-1,1490,862,0,0
273,162,0,0,0,0,0,0,0,0,0,-1,1497,862,0,0
280,162,0,0,0,0,0,0,0,0,0,-1,1504,862,0,0
287,162,0,0,0,0,0,0,0,0,0,-1,1511,862,0,0
294,162,0,0,0,0,0,0,0,0,0,-1,1518,862,0,0
301,162,0,0,0,0,0,0,0,0,0,-1,1525,862,0,0
308,162,0,0,0,0,0,0,0,0,0,-1,1532,862,0,0
315,162,0,0,0,0,0,0,0,0,0,-1,1539,862,0,0
322,162,0,0,0,0,0,0,0,0,0,-1,1546,862,0,0
329,162,0,0,0,0,0,0,0,0,0,-1,1553,862,0,0
336,162,0,0,0,0,0,0,0,0,0,-1,1560,862,0,0
343,162,0,0,0,0,0,0,0,0,0,-1,1567,862,0,0
350,162,0,0,0,0,0,0,0,0,0,-1,1574,862,0,0
357,162,0,0,0,0,0,0,0,0,0,-1,1581,862,0,0
364,162,0,0,0,0,0,0,0,0,0,-1,1588,862,0,0
371,162,0,0,0,0,0,0,0,0,0,-1,1595,862,0,0
378,162,0,0,0,0,0,0,0,0,0,-1,1602,862,0,0
385,162,0,0,0,0,0,0,0,0,0,-1,1609,862,0,0
392,162,0,0,0,0,0,0,0,0,0,-1,1616,862,0,0
399,162,0,0,0,0,0,0,0,0,0,-1,1623,862,0,0
406,162,0,0,0,0,0,0,0,0,0,-1,1630,862,0,0
413,162,0,0,0,0,0,0,0,0,0,-1,1637,862,0,0
420,162,0,0,0,0,0,0,0,0,0,-1,1644,862,0,0
427,162,0,0,0,0,0,0,0,0,0,-1,1651,862,0,0
434,162,0,0,0,0,0,0,0,0,0,-1,1658,862,0,0
441,162,0,0,0,0,0,0,0,0,0,-1,1665,862,0,0
448,162,0,0,0,0,0,0,0,0,0,-1,1672,862,0,0
455,162,0,0,0,0,0,0,0,0,0,-1,1679,862,0,0
462,162,0,0,0,0,0,0,0,0,0,-1,1686,862,0,0
469,162,0,0,0,0,0,0,0,0,0,-1,1693,862,0,0
476,162,0,0,0,0,0,0,0,0,0,-1,1700,862,0,0
483,162,0,0,0,0,0,0,0,0,0,-1,1707,862,0,0
490,162,0,0,0,0,0,0,0,0,0,-1,1714,862,0,0
497,162,0,0,0,0,0,0,0,0,0,-1,1721,862,0,0
504,162,0,0,0,0,0,0,0,0,0,-1,1728,862,0,0
511,162,0,0,0,0,0,0,0,0,0,-1,1735,862,0,0
518,162,0,0,0,0,0,0,0,0,0,-1,1742,862,0,0
525,162,0,0,0,0,0,0,0,0,0,-1,1749,862,0,0
532,162,0,0,0,0,0,0,0,0,0,-1,1756,862,0,0
539,162,0,0,0,0,0,0,0,0,0,-1,1763,862,0,0
546,162,0,0,0,0,0,0,0,0,0,-1,1770,862,0,0
553,162,0,0,0,0,0,0,0,0,0,-1,1777,862,0,0
560,162,0,0,0,0,0,0,0,0,0,-1,1784,862,0,0
567,162,0,0,0,0,0,0,0,0,0,-1,1791,862,0,0
574,162,0,0,0,0,0,0,0,0,0,-1,1798,862,0,0
581,162,0,0,0,0,0,0,0,0,0,-1,1805,862,0,0
588,162,0,0,0,0,0,0,0,0,0,-1,1812,862,0,0
595,162,0,0,0,0,0,0,0,0,0,-1,1819,862,0,0
602,162,0,0,0,0,0,0,0,0,0,-1,1826,862,0,0
609,162,0,0,0,0,0,0,0,0,0,-1,1833,862,0,0
616,162,48.6903,2.78021,-0.00061847,-0.00167439,-0.000770294,-0.00021257,-0.00208029,-0.484968,0.00132172,0.0442889,1840,862,48.6903,-2.78023
623,162,48.7552,2.63348,-0.00126174,-0.000462743,4.99061e-05,-0.000459638,-0.00126484,1.50866,0.000739286,0.045871,1847,862,48.7552,-2.63348
630,162,48.7739,2.64746,-0.00158596,0.000533085,0.000535974,0.000660937,-0.00171381,1.33663,0.00141526,0.0436887,1854,862,48.7739,-2.64749
637,162,48.7535,2.73431,-0.00173151,0.00140048,0.000814137,0.00159946,-0.0019305,1.33108,0.00204101,0.0409217,1861,862,48.7535,-2.7343
644,162,48.6622,2.75763,-0.00179056,0.00168792,0.000754645,0.00184458,-0.00194722,1.36611,0.00218946,0.0372882,1868,862,48.6622,-2.75762
651,162,48.6453,2.65991,-0.0016952,0.00153232,0.000556525,0.00162559,-0.00178847,1.40475,0.00197185,0.0344228,1875,862,48.6452,-2.65989
658,162,48.6323,2.69952,-0.00158658,0.00138726,0.000301361,0.00141749,-0.00161681,1.47081,0.00175311,0.0362009,1882,862,48.6323,-2.69952
665,162,48.6189,2.79919,-0.0016617,0.00108592,4.92625e-07,0.00108592,-0.0016617,1.57062,0.00159791,0.0463472,1889,862,48.6189,-2.79917
672,162,48.5887,2.88593,0,0,0,0,0,0,0,-1,1896,862,48.5887,-2.8859
679,162,26.5077,2.54785,0,0,0,0,0,0,0,-1,1903,862,26.5077,-2.54787
686,162,40.1796,1.40826,0,0,0,0,0,0,0,-1,1910,862,40.1795,-1.40827
693,162,40.422,2.15833,-0.00104648,0.000211566,-0.00091784,0.000695243,-0.00153015,-1.0858,0.00131463,0.0254934,1917,862,40.422,-2.15831
700,162,40.4135,2.64801,-0.00115029,-8.76013e-05,-0.000829962,0.000366532,-0.00160442,-1.07013,0.00121043,0.0242507,1924,862,40.4135,-2.64799
707,162,40.3171,3.09485,-0.00167373,-0.000339295,-0.000884554,0.000101464,-0.00211449,-1.10852,0.00144467,0.0178563,1931,862,40.3171,-3.09487
714,162,40.2051,3.54083,-0.00207854,-0.000432042,-0.000967812,1.52987e-05,-0.00252588,-1.13783,0.00168904,0.0213393,1938,862,40.2051,-3.54082
721,162,40.1147,4.15387,-0.00252299,-0.000368314,-0.000852856,-7.15991e-05,-0.0028197,-1.23599,0.0018564,0.0298863,1945,862,40.1147,-4.15388
728,162,40.1348,4.65717,-0.00330589,-0.000379094,-0.000560985,-0.000275253,-0.00340973,-1.38776,0.00218718,0.0232927,1952,862,40.1347,-4.65717
735,162,40.1412,5.16534,-0.0043451,-0.000558577,-0.000208411,-0.00054714,-0.00435653,-1.51598,0.00274024,0.0104683,1959,862,40.1412,-5.16537
742,162,40.1014,5.66772,-0.00569841,-0.000898163,0.000239466,-0.000886247,-0.00571033,1.52107,0.00354856,0.0126652,1966,862,40.1014,-5.66775
749,162,40.0367,6.17627,-0.00738543,-0.00143335,0.000736954,-0.00134346,-0.00747532,1.44942,0.00460157,0.0197843,1973,862,40.0368,-6.17627
756,162,39.9816,6.66156,-0.00931236,-0.00214597,0.00136861,-0.00189349,-0.00956484,1.38837,0.00584847,0.0433285,1980,862,39.9816,-6.66157
763,162,39.9641,7.17761,0,0,0,0,0,0,0,-1,1987,862,39.9641,-7.17761
770,162,40.193,7.74231,0,0,0,0,0,0,0,-1,1994,862,40.1931,-7.7423
777,162,39.4197,8.78247,0,0,0,0,0,0,0,-1,2001,862,39.4197,-8.78246
784,162,37.2179,12.1003,0,0,0,0,0,0,0,-1,2008,862,37.2179,-12.1003
791,162,0,0,0,0,0,0,0,0,0,-1,2015,862,0,0
798,162,0,0,0,0,0,0,0,0,0,-1,2022,862,0,0
805,162,0,0,0,0,0,0,0,0,0,-1,2029,862,0,0
812,162,0,0,0,0,0,0,0,0,0,-1,2036,862,0,0
-700,155,0,0,0,0,0,0,0,0,0,-1,524,869,0,0
-693,155,0,0,0,0,0,0,0,0,0,-1,531,869,0,0
-686,155,0,0,0,0,0,0,0,0,0,-1,538,869,0,0
-679,155,0,0,0,0,0,0,0,0,0,-1,545,869,0,0
-672,155,0,0,0,0,0,0,0,0,0,-1,552,869,0,0
-665,155,-27.8384,3.4223,0,0,0,0,0,0,0,-1,559,869,-27.8384,-3.4223
-658,155,-28.6256,3.6264,0,0,0,0,0,0,0,-1,566,869,-28.6256,-3.62639
-651,155,-28.7778,3.56354,0,0,0,0,0,0,0,-1,573,869,-28.7778,-3.56353
-644,155,-30.6925,3.72064,0,0,0,0,0,0,0,-1,580,869,-30.6925,-3.72065
-637,155,-30.3217,6.02631,0,0,0,0,0,0,0,-1,587,869,-30.3216,-6.0263
-630,155,-30.0225,5.11304,0,0,0,0,0,0,0,-1,594,869,-30.0225,-5.11303
-623,155,-29.5324,4.21252,0,0,0,0,0,0,0,-1,601,869,-29.5324,-4.21251
-616,155,-29.4836,3.51862,0.0043218,-0.00405997,0.00704114,0.00832488,-0.00806305,0.516957,0.00946198,0.0150198,608,869,-29.4836,-3.5186
-609,155,-29.5448,2.99341,0.00164273,-0.00243172,0.00524225,0.00522969,-0.00601867,0.600071,0.00649957,0.0129272,615,869,-29.5448,-2.99341
-602,155,-29.5803,2.49231,0.000369866,-0.00128542,0.00399357,0.00362065,-0.0045362,0.683223,0.00471924,0.0122604,622,869,-29.5803,-2.4923
-595,155,-29.6048,2.01453,0.000211241,-0.000621549,0.00317917,0.00300117,-0.00341148,0.720281,0.00370487,0.0116529,629,869,-29.6048,-2.01451
-588,155,-29.6084,1.5625,0.000884564,-0.00042636,0.00272402,0.00303087,-0.00257267,0.667331,0.00323881,0.0156003,636,869,-29.6084,-1.5625
-581,155,-29.8508,1.20709,0.00161193,-0.00028775,0.00247043,0.00330883,-0.00198465,0.601869,0.0030879,0.0313241,643,869,-29.8508,-1.20712
-574,155,-29.9465,0.82135,0.00202928,-0.000391678,0.00211821,0.00325849,-0.00162089,0.525812,0.00286951,0.0371179,650,869,-29.9464,-0.821354
-567,155,-29.9075,0.156067,0.00268221,-0.000298448,0.00170307,0.00345496,-0.0010712,0.425959,0.00273131,0.0444511,657,869,-29.9075,-0.156064
-560,155,-29.7592,-0.436157,0.00353481,0.0003212,0.00135466,0.00402966,-0.000173646,0.350231,0.00274615,0.0377582,664,869,-29.7592,0.436172
-553,155,-29.5024,-1.31573,0,0,0,0,0,0,0,-1,671,869,-29.5024,1.31573
-546,155,-22.7988,0.873657,0,0,0,0,0,0,0,-1,678,869,-22.7988,-0.873645
-539,155,-36.3629,0.835571,0,0,0,0,0,0,0,-1,685,869,-36.3629,-0.835542
-532,155,-36.3405,0.917603,0.00484281,0.00432217,0.00011103,0.0048655,0.00429948,0.201575,0.00307242,0.037645,692,869,-36.3405,-0.917583
-525,155,-36.2632,1.04694,0.00446737,0.00596565,-0.000577578,0.00616245,0.00427057,-1.2424,0.00364517,0.0385429,699,869,-36.2632,-1.04695
-518,155,-36.35,0.863586,0.00330961,0.00853675,-0.00156688,0.00897045,0.0028759,-1.30076,0.00528905,0.0409389,706,869,-36.35,-0.86359
-511,155,-36.2806,0.53009,0.00199572,0.0125275,-0.00367596,0.0136836,0.000839596,-1.26608,0.00885583,0.0428863,713,869,-36.2807,-0.530081
-504,155,-36.2113,0.0162354,0,0,0,0,0,0,0,-1,720,869,-36.2113,-0.0162174
-497,155,0,0,0,0,0,0,0,0,0,-1,727,869,0,0
-490,155,0,0,0,0,0,0,0,0,0,-1,734,869,0,0
-483,155,0,0,0,0,0,0,0,0,0,-1,741,869,0,0
-476,155,0,0,0,0,0,0,0,0,0,-1,748,869,0,0
-469,155,0,0,0,0,0,0,0,0,0,-1,755,869,0,0
-462,155,0,0,0,0,0,0,0,0,0,-1,762,869,0,0
-455,155,0,0,0,0,0,0,0,0,0,-1,769,869,0,0
-448,155,0,0,0,0,0,0,0,0,0,-1,776,869,0,0
-441,155,0,0,0,0,0,0,0,0,0,-1,783,869,0,0
-434,155,0,0,0,0,0,0,0,0,0,-1,790,869,0,0
-427,155,0,0,0,0,0,0,0,0,0,-1,797,869,0,0
-420,155,0,0,0,0,0,0,0,0,0,-1,804,869,0,0
-413,155,0,0,0,0,0,0,0,0,0,-1,811,869,0,0
-406,155,0,0,0,0,0,0,0,0,0,-1,818,869,0,0
-399,155,0,0,0,0,0,0,0,0,0,-1,825,869,0,0
-392,155,0,0,0,0,0,0,0,0,0,-1,832,869,0,0
-385,155,0,0,0,0,0,0,0,0,0,-1,839,869,0,0
-378,155,0,0,0,0,0,0,0,0,0,-1,846,869,0,0
-371,155,0,0,0,0,0,0,0,0,0,-1,853,869,0,0
-364,155,0,0,0,0,0,0,0,0,0,-1,860,869,0,0
-357,155,0,0,0,0,0,0,0,0,0,-1,867,869,0,0
-350,155,0,0,0,0,0,0,0,0,0,-1,874,869,0,0
-343,155,0,0,0,0,0,0,0,0,0,-1,881,869,0,0
-336,155,0,0,0,0,0,0,0,0,0,-1,888,869,0,0
-329,155,0,0,0,0,0,0,0,0,0,-1,895,869,0,0
-322,155,0,0,0,0,0,0,0,0,0,-1,902,869,0,0
-315,155,0,0,0,0,0,0,0,0,0,-1,909,869,0,0
-308,155,0,0,0,0,0,0,0,0,0,-1,916,869,0,0
-301,155,0,0,0,0,0,0,0,0,0,-1,923,869,0,0
-294,155,0,0,0,0,0,0,0,0,0,-1,930,869,0,0
-287,155,0,0,0,0,0,0,0,0,0,-1,937,869,0,0
-280,155,0,0,0,0,0,0,0,0,0,-1,944,869,0,0
-273,155,0,0,0,0,0,0,0,0,0,-1,951,869,0,0
-266,155,0,0,0,0,0,0,0,0,0,-1,958,869,0,0
-259,155,0,0,0,0,0,0,0,0,0,-1,965,869,0,0
-252,155,0,0,0,0,0,0,0,0,0,-1,972,869,0,0
-245,155,0,0,0,0,0,0,0,0,0,-1,979,869,0,0
-238,155,0,0,0,0,0,0,0,0,0,-1,986,869,0,0
-231,155,0,0,0,0,0,0,0,0,0,-1,993,869,0,0
-224,155,0,0,0,0,0,0,0,0,0,-1,1000,869,0,0
-217,155,0,0,0,0,0,0,0,0,0,-1,1007,869,0,0
-210,155,0,0,0,0,0,0,0,0,0,-1,1014,869,0,0
-203,155,0,0,0,0,0,0,0,0,0,-1,1021,869,0,0
-196,155,0,0,0,0,0,0,0,0,0,-1,1028,869,0,0
-189,155,0,0,0,0,0,0,0,0,0,-1,1035,869,0,0
-182,155,0,0,0,0,0,0,0,0,0,-1,1042,869,0,0
-175,155,0,0,0,0,0,0,0,0,0,-1,1049,869,0,0
-168,155,0,0,0,0,0,0,0,0,0,-1,1056,869,0,0
-161,155,0,0,0,0,0,0,0,0,0,-1,1063,869,0,0
-154,155,0,0,0,0,0,0,0,0,0,-1,1070,869,0,0
-147,155,0,0,0,0,0,0,0,0,0,-1,1077,869,0,0
-140,155,0,0,0,0,0,0,0,0,0,-1,1084,869,0,0
-133,155,0,0,0,0,0,0,0,0,0,-1,1091,869,0,0
-126,155,0,0,0,0,0,0,0,0,0,-1,1098,869,0,0
-119,155,0,0,0,0,0,0,0,0,0,-1,1105,869,0,0
-112,155,0,0,0,0,0,0,0,0,0,-1,1112,869,0,0
-105,155,0,0,0,0,0,0,0,0,0,-1,1119,869,0,0
-98,155,0,0,0,0,0,0,0,0,0,-1,1126,869,0,0
-91,155,0,0,0,0,0,0,0,0,0,-1,1133,869,0,0
-84,155,0,0,0,0,0,0,0,0,0,-1,1140,869,0,0
-77,155,0,0,0,0,0,0,0,0,0,-1,1147,869,0,0
-70,155,0,0,0,0,0,0,0,0,0,-1,1154,869,0,0
-63,155,0,0,0,0,0,0,0,0,0,-1,1161,869,0,0
-56,155,0,0,0,0,0,0,0,0,0,-1,1168,869,0,0
-49,155,0,0,0,0,0,0,0,0,0,-1,1175,869,0,0
-42,155,0,0,0,0,0,0,0,0,0,-1,1182,869,0,0
-35,155,0,0,0,0,0,0,0,0,0,-1,1189,869,0,0
-28,155,0,0,0,0,0,0,0,0,0,-1,1196,869,0,0
-21,155,0,0,0,0,0,0,0,0,0,-1,1203,869,0,0
-14,155,0,0,0,0,0,0,0,0,0,-1,1210,869,0,0
-7,155,0,0,0,0,0,0,0,0,0,-1,1217,869,0,0
0,155,0,0,0,0,0,0,0,0,0,-1,1224,869,0,0
7,155,0,0,0,0,0,0,0,0,0,-1,1231,869,0,0
14,155,0,0,0,0,0,0,0,0,0,-1,1238,869,0,0
21,155,0,0,0,0,0,0,0,0,0,-1,1245,869,0,0
28,155,0,0,0,0,0,0,0,0,0,-1,1252,869,0,0
35,155,0,0,0,0,0,0,0,0,0,-1,1259,869,0,0
42,155,0,0,0,0,0,0,0,0,0,-1,1266,869,0,0
49,155,0,0,0,0,0,0,0,0,0,-1,1273,869,0,0
56,155,0,0,0,0,0,0,0,0,0,-1,1280,869,0,0
63,155,0,0,0,0,0,0,0,0,0,-1,1287,869,0,0
70,155,0,0,0,0,0,0,0,0,0,-1,1294,869,0,0
77,155,0,0,0,0,0,0,0,0,0,-1,1301,869,0,0
84,155,0,0,0,0,0,0,0,0,0,-1,1308,869,0,0
91,155,0,0,0,0,0,0,0,0,0,-1,1315,869,0,0
98,155,0,0,0,0,0,0,0,0,0,-1,1322,869,0,0
105,155,0,0,0,0,0,0,0,0,0,-1,1329,869,0,0
112,155,0,0,0,0,0,0,0,0,0,-1,1336,869,0,0
119,155,0,0,0,0,0,0,0,0,0,-1,1343,869,0,0
126,155,0,0,0,0,0,0,0,0,0,-1,1350,869,0,0
133,155,0,0,0,0,0,0,0,0,0,-1,1357,869,0,0
140,155,0,0,0,0,0,0,0,0,0,-1,1364,869,0,0
147,155,0,0,0,0,0,0,0,0,0,-1,1371,869,0,0
154,155,0,0,0,0,0,0,0,0,0,-1,1378,869,0,0
161,155,0,0,0,0,0,0,0,0,0,-1,1385,869,0,0
168,155,0,0,0,0,0,0,0,0,0,-1,1392,869,0,0
175,155,0,0,0,0,0,0,0,0,0,-1,1399,869,0,0
182,155,0,0,0,0,0,0,0,0,0,-1,1406,869,0,0
189,155,0,0,0,0,0,0,0,0,0,-1,1413,869,0,0
196,155,0,0,0,0,0,0,0,0,0,-1,1420,869,0,0
203,155,0,0,0,0,0,0,0,0,0,-1,1427,869,0,0
210,155,0,0,0,0,0,0,0,0,0,-1,1434,869,0,0
217,155,0,0,0,0,0,0,0,0,0,-1,1441,869,0,0
224,155,0,0,0,0,0,0,0,0,0,-1,1448,869,0,0
231,155,0,0,0,0,0,0,0,0,0,-1,1455,869,0,0
238,155,0,0,0,0,0,0,0,0,0,-1,1462,869,0,0
245,155,0,0,0,0,0,0,0,0,0,-1,1469,869,0,0
252,155,0,0,0,0,0,0,0,0,0,-1,1476,869,0,0
259,155,0,0,0,0,0,0,0,0,0,-1,1483,869,0,0
266,155,0,0,0,0,0,0,0,0,0,-1,1490,869,0,0
273,155,0,0,0,0,0,0,0,0,0,-1,1497,869,0,0
280,155,0,0,0,0,0,0,0,0,0,-1,1504,869,0,0
287,155,0,0,0,0,0,0,0,0,0,-1,1511,869,0,0
294,155,0,0,0,0,0,0,0,0,0,-1,1518,869,0,0
301,155,0,0,0,0,0,0,0,0,0,-1,1525,869,0,0
308,155,0,0,0,0,0,0,0,0,0,-1,1532,869,0,0
315,155,0,0,0,0,0,0,0,0,0,-1,1539,869,0,0
322,155,0,0,0,0,0,0,0,0,0,-1,1546,869,0,0
329,155,0,0,0,0,0,0,0,0,0,-1,1553,869,0,0
336,155,0,0,0,0,0,0,0,0,0,-1,1560,869,0,0
343,155,0,0,0,0,0,0,0,0,0,-1,1567,869,0,0
350,155,0,0,0,0,0,0,0,0,0,-1,1574,869,0,0
357,155,0,0,0,0,0,0,0,0,0,-1,1581,869,0,0
364,155,0,0,0,0,0,0,0,0,0,-1,1588,869,0,0
371,155,0,0,0,0,0,0,0,0,0,-1,1595,869,0,0
378,155,0,0,0,0,0,0,0,0,0,-1,1602,869,0,0
385,155,0,0,0,0,0,0,0,0,0,-1,1609,869,0,0
392,155,0,0,0,0,0,0,0,0,0,-1,1616,869,0,0
399,155,0,0,0,0,0,0,0,0,0,-1,1623,869,0,0
406,155,0,0,0,0,0,0,0,0,0,-1,1630,869,0,0
413,155,0,0,0,0,0,0,0,0,0,-1,1637,869,0,0
420,155,0,0,0,0,0,0,0,0,0,-1,1644,869,0,0
427,155,0,0,0,0,0,0,0,0,0,-1,1651,869,0,0
434,155,0,0,0,0,0,0,0,0,0,-1,1658,869,0,0
441,155,0,0,0,0,0,0,0,0,0,-1,1665,869,0,0
448,155,0,0,0,0,0,0,0,0,0,-1,1672,869,0,0
455,155,0,0,0,0,0,0,0,0,0,-1,1679,869,0,0
462,155,0,0,0,0,0,0,0,0,0,-1,1686,869,0,0
469,155,0,0,0,0,0,0,0,0,0,-1,1693,869,0,0
476,155,0,0,0,0,0,0,0,0,0,-1,1700,869,0,0
483,155,0,0,0,0,0,0,0,0,0,-1,1707,869,0,0
490,155,0,0,0,0,0,0,0,0,0,-1,1714,869,0,0
497,155,0,0,0,0,0,0,0,0,0,-1,1721,869,0,0
504,155,0,0,0,0,0,0,0,0,0,-1,1728,869,0,0
511,155,0,0,0,0,0,0,0,0,0,-1,1735,869,0,0
518,155,0,0,0,0,0,0,0,0,0,-1,1742,869,0,0
525,155,0,0,0,0,0,0,0,0,0,-1,1749,869,0,0
532,155,0,0,0,0,0,0,0,0,0,-1,1756,869,0,0
539,155,0,0,0,0,0,0,0,0,0,-1,1763,869,0,0
546,155,0,0,0,0,0,0,0,0,0,-1,1770,869,0,0
553,155,0,0,0,0,0,0,0,0,0,-1,1777,869,0,0
560,155,0,0,0,0,0,0,0,0,0,-1,1784,869,0,0
567,155,0,0,0,0,0,0,0,0,0,-1,1791,869,0,0
574,155,0,0,0,0,0,0,0,0,0,-1,1798,869,0,0
581,155,0,0,0,0,0,0,0,0,0,-1,1805,869,0,0
588,155,0,0,0,0,0,0,0,0,0,-1,1812,869,0,0
595,155,0,0,0,0,0,0,0,0,0,-1,1819,869,0,0
602,155,0,0,0,0,0,0,0,0,0,-1,1826,869,0,0
609,155,0,0,0,0,0,0,0,0,0,-1,1833,869,0,0
616,155,48.7639,2.53296,-0.0014648,-0.00229214,-0.00157067,-0.000254234,-0.0035027,-0.656637,0.00225517,0.0444202,1840,869,48.7639,-2.53296
623,155,48.7229,2.68359,-0.00172251,-0.00116618,-0.000796953,-0.000600242,-0.00228845,-0.953304,0.0013701,0.0444577,1847,869,48.7229,-2.68358
630,155,48.6948,2.73413,-0.00156204,-0.000249334,-0.000229409,-0.000210397,-0.00160098,-1.40267,0.00100456,0.044487,1854,869,48.6948,-2.73415
637,155,48.6678,2.93994,-0.00120683,0.000630579,0.000240417,0.000661515,-0.00123777,1.44282,0.00111325,0.0405811,1861,869,48.6678,-2.93993
644,155,48.6696,2.80469,-0.000935522,0.00100192,0.000383685,0.00107514,-0.00100874,1.38224,0.00120333,0.0339624,1868,869,48.6696,-2.8047
651,155,48.7012,2.65985,-0.000700079,0.000949895,0.000331645,0.00101406,-0.000764244,1.37968,0.00103008,0.0327171,1875,869,48.7012,-2.65983
658,155,48.6881,2.6795,-0.000557465,0.000875981,0.000198988,0.000903092,-0.000584575,1.43539,0.000865442,0.02983,1882,869,48.6881,-2.67951
665,155,48.6532,2.71362,-0.00065448,0.000622766,-2.88975e-05,0.00062342,-0.000655133,-1.54819,0.000738249,0.0349273,1889,869,48.6532,-2.71365
672,155,48.7267,2.55981,0,0,0,0,0,0,0,-1,1896,869,48.7267,-2.5598
679,155,35.1565,2.78528,0,0,0,0,0,0,0,-1,1903,869,35.1565,-2.7853
686,155,41.1508,1.76819,0,0,0,0,0,0,0,-1,1910,869,41.1508,-1.76819
693,155,40.9248,2.19568,-0.000459526,-3.52883e-07,-0.000740607,0.000545437,-0.00100532,-0.9357,0.000908356,0.0443454,1917,869,40.9248,-2.19571
700,155,40.9386,2.72595,-0.000695718,-0.000223902,-0.000636754,0.000219239,-0.00113886,-0.962801,0.00084189,0.0300953,1924,869,40.9386,-2.72593
707,155,40.9672,3.24957,-0.00117515,-0.000378905,-0.00069048,2.00074e-05,-0.00157406,-1.04691,0.00105611,0.0216288,1931,869,40.9672,-3.24957
714,155,40.9209,3.6637,-0.00161594,-0.000346082,-0.000853182,8.25003e-05,-0.00204452,-1.10528,0.00139133,0.0422259,1938,869,40.9209,-3.66368
721,155,40.6866,4.15631,-0.00212711,-0.000129883,-0.000875056,0.000199265,-0.00245625,-1.21102,0.0017078,0.0316957,1945,869,40.6866,-4.1563
728,155,40.6565,4.6839,-0.00300619,0.000121086,-0.000754783,0.000293726,-0.00317883,-1.34594,0.00222361,0.019292,1952,869,40.6565,-4.68392
735,155,40.6683,5.1629,-0.0040881,0.000296708,-0.000604917,0.00037863,-0.00417002,-1.43619,0.00291443,0.0145702,1959,869,40.6684,-5.1629
742,155,40.6343,5.66815,-0.00542605,0.000425674,-0.000388231,0.000451319,-0.00545169,-1.50484,0.00379386,0.0164875,1966,869,40.6343,-5.66817
749,155,40.5803,6.17645,-0.00700559,0.000468153,-0.000152216,0.000471252,-0.00700869,-1.55044,0.0048372,0.0169052,1973,869,40.5803,-6.17647
756,155,40.4902,6.73846,-0.00872049,0.000561373,0.000171809,0.000564551,-0.00872367,1.55229,0.0060128,0.028437,1980,869,40.4902,-6.73847
763,155,40.4744,7.18243,-0.010582,0.00104838,0.000643512,0.00108387,-0.0106175,1.51569,0.00746592,0.0424737,1987,869,40.4744,-7.18241
770,155,40.5031,7.5451,-0.0129453,0.00164137,0.000945597,0.00170241,-0.0130063,1.50633,0.00929049,0.0476099,1994,869,40.5031,-7.54509
777,155,40.5432,7.99127,0,0,0,0,0,0,0,-1,2001,869,40.5432,-7.99124
784,155,38.9619,9.88068,0,0,0,0,0,0,0,-1,2008,869,38.9619,-9.88066
791,155,0,0,0,0,0,0,0,0,0,-1,2015,869,0,0
798,155,0,0,0,0,0,0,0,0,0,-1,2022,869,0,0
805,155,0,0,0,0,0,0,0,0,0,-1,2029,869,0,0
812,155,0,0,0,0,0,0,0,0,0,-1,2036,869,0,0
-700,148,0,0,0,0,0,0,0,0,0,-1,524,876,0,0
-693,148,0,0,0,0,0,0,0,0,0,-1,531,876,0,0
-686,148,0,0,0,0,0,0,0,0,0,-1,538,876,0,0
-679,148,0,0,0,0,0,0,0,0,0,-1,545,876,0,0
-672,148,-27.0593,4.11377,0,0,0,0,0,0,0,-1,552,876,-27.0593,-4.11379
-665,148,-27.9471,4.16602,0,0,0,0,0,0,0,-1,559,876,-27.9472,-4.16604
-658,148,-29.5823,4.6098,0,0,0,0,0,0,0,-1,566,876,-29.5823,-4.6098
-651,148,-32.3823,0.443176,0,0,0,0,0,0,0,-1,573,876,-32.3823,-0.443187
-644,148,-32.8326,-0.11792,0,0,0,0,0,0,0,-1,580,876,-32.8326,0.117905
-637,148,-30.7917,2.54272,0,0,0,0,0,0,0,-1,587,876,-30.7917,-2.54272
-630,148,-30.3986,4.82678,0,0,0,0,0,0,0,-1,594,876,-30.3986,-4.82678
-623,148,-29.8472,4.09204,0.00720736,-0.00286045,0.00870854,0.0122322,-0.00788532,0.523339,0.0117049,0.0274841,601,876,-29.8472,-4.09207
-616,148,-29.9773,3.5163,0.00335282,-0.00229348,0.00632595,0.007457,-0.00639766,0.57552,0.00800678,0.0137205,608,876,-29.9773,-3.51632
-609,148,-30.0463,3.00092,0.000984787,-0.00151297,0.00463158,0.00453291,-0.00506109,0.653708,0.0055419,0.0121526,615,876,-30.0463,-3.00089
-602,148,-30.1068,2.50946,-2.21938e-05,-0.000731532,0.0035916,0.00323221,-0.00398593,0.736183,0.00417496,0.0128844,622,876,-30.1068,-2.50947
-595,148,-30.1267,2.03137,1.18054e-05,-0.000354316,0.00290051,0.00273503,-0.00307754,0.753883,0.00335783,0.011388,629,876,-30.1267,-2.0314
-588,148,-30.1627,1.49579,0.000712521,-0.000302947,0.0025055,0.00276121,-0.00235164,0.685428,0.00295506,0.0222449,636,876,-30.1627,-1.49579
-581,148,-30.2993,1.16888,0.00132087,-0.000150189,0.00226076,0.00296274,-0.00179206,0.628126,0.00277278,0.0387537,643,876,-30.2993,-1.16887
-574,148,-29.9884,0.829041,0.00157057,-0.000207446,0.00187048,0.00275257,-0.00138944,0.563558,0.00243417,0.0444619,650,876,-29.9884,-0.829015
-567,148,-30.222,0.387573,0,0,0,0,0,0,0,-1,657,876,-30.222,-0.387574
-560,148,-30.3218,-0.253113,0,0,0,0,0,0,0,-1,664,876,-30.3218,0.253138
-553,148,-18.3896,-0.00280762,0,0,0,0,0,0,0,-1,671,876,-18.3897,0.00278524
-546,148,-36.3245,0.86908,0,0,0,0,0,0,0,-1,678,876,-36.3244,-0.869082
-539,148,-36.3226,0.8573,0.00379493,0.00307275,-5.70122e-05,0.0037994,0.00306828,-0.0782984,0.00232782,0.0389978,685,876,-36.3226,-0.857285
-532,148,-36.2813,1.00952,0.00414901,0.00422557,-0.000589588,0.00477812,0.00359646,-0.817817,0.00287368,0.0368451,692,876,-36.2813,-1.0095
-525,148,-36.2256,1.02216,0.00353293,0.00593018,-0.00145804,0.00661904,0.00284407,-1.12943,0.00383408,0.0390926,699,876,-36.2256,-1.02214
-518,148,-36.3262,0.69281,0.00216994,0.0086165,-0.00274304,0.00962569,0.00116075,-1.21826,0.00606733,0.0440896,706,876,-36.3262,-0.69281
-511,148,-36.1905,0.348694,0.000794674,0.012671,-0.00518723,0.0146176,-0.0011519,-1.2118,0.0101508,0.0414354,713,876,-36.1905,-0.34871
-504,148,-35.9132,-0.0227051,0,0,0,0,0,0,0,-1,720,876,-35.9132,0.0227133
-497,148,0,0,0,0,0,0,0,0,0,-1,727,876,0,0
-490,148,0,0,0,0,0,0,0,0,0,-1,734,876,0,0
-483,148,0,0,0,0,0,0,0,0,0,-1,741,876,0,0
-476,148,0,0,0,0,0,0,0,0,0,-1,748,876,0,0
-469,148,0,0,0,0,0,0,0,0,0,-1,755,876,0,0
-462,148,0,0,0,0,0,0,0,0,0,-1,762,876,0,0
-455,148,0,0,0,0,0,0,0,0,0,-1,769,876,0,0
-448,148,0,0,0,0,0,0,0,0,0,-1,776,876,0,0
-441,148,0,0,0,0,0,0,0,0,0,-1,783,876,0,0
-434,148,0,0,0,0,0,0,0,0,0,-1,790,876,0,0
-427,148,0,0,0,0,0,0,0,0,0,-1,797,876,0,0
-420,148,0,0,0,0,0,0,0,0,0,-1,804,876,0,0
-413,148,0,0,0,0,0,0,0,0,0,-1,811,876,0,0
-406,148,0,0,0,0,0,0,0,0,0,-1,818,876,0,0
-399,148,0,0,0,0,0,0,0,0,0,-1,825,876,0,0
-392,148,0,0,0,0,0,0,0,0,0,-1,832,876,0,0
-385,148,0,0,0,0,0,0,0,0,0,-1,839,876,0,0
-378,148,0,0,0,0,0,0,0,0,0,-1,846,876,0,0
-371,148,0,0,0,0,0,0,0,0,0,-1,853,876,0,0
-364,148,0,0,0,0,0,0,0,0,0,-1,860,876,0,0
-357,148,0,0,0,0,0,0,0,0,0,-1,867,876,0,0
-350,148,0,0,0,0,0,0,0,0,0,-1,874,876,0,0
-343,148,0,0,0,0,0,0,0,0,0,-1,881,876,0,0
-336,148,0,0,0,0,0,0,0,0,0,-1,888,876,0,0
-329,148,0,0,0,0,0,0,0,0,0,-1,895,876,0,0
-322,148,0,0,0,0,0,0,0,0,0,-1,902,876,0,0
-315,148,0,0,0,0,0,0,0,0,0,-1,909,876,0,0
-308,148,0,0,0,0,0,0,0,0,0,-1,916,876,0,0
-301,148,0,0,0,0,0,0,0,0,0,-1,923,876,0,0
-294,148,0,0,0,0,0,0,0,0,0,-1,930,876,0,0
-287,148,0,0,0,0,0,0,0,0,0,-1,937,876,0,0
-280,148,0,0,0,0,0,0,0,0,0,-1,944,876,0,0
-273,148,0,0,0,0,0,0,0,0,0,-1,951,876,0,0
-266,148,0,0,0,0,0,0,0,0,0,-1,958,876,0,0
-259,148,0,0,0,0,0,0,0,0,0,-1,965,876,0,0
-252,148,0,0,0,0,0,0,0,0,0,-1,972,876,0,0
-245,148,0,0,0,0,0,0,0,0,0,-1,979,876,0,0
-238,148,0,0,0,0,0,0,0,0,0,-1,986,876,0,0
-231,148,0,0,0,0,0,0,0,0,0,-1,993,876,0,0
-224,148,0,0,0,0,0,0,0,0,0,-1,1000,876,0,0
-217,148,0,0,0,0,0,0,0,0,0,-1,1007,876,0,0
-210,148,0,0,0,0,0,0,0,0,0,-1,1014,876,0,0
-203,148,0,0,0,0,0,0,0,0,0,-1,1021,876,0,0
-196,148,0,0,0,0,0,0,0,0,0,-1,1028,876,0,0
-189,148,0,0,0,0,0,0,0,0,0,-1,1035,876,0,0
-182,148,0,0,0,0,0,0,0,0,0,-1,1042,876,0,0
-175,148,0,0,0,0,0,0,0,0,0,-1,1049,876,0,0
-168,148,0,0,0,0,0,0,0,0,0,-1,1056,876,0,0
-161,148,0,0,0,0,0,0,0,0,0,-1,1063,876,0,0
-154,148,0,0,0,0,0,0,0,0,0,-1,1070,876,0,0
-147,148,0,0,0,0,0,0,0,0,0,-1,1077,876,0,0
-140,148,0,0,0,0,0,0,0,0,0,-1,1084,876,0,0
-133,148,0,0,0,0,0,0,0,0,0,-1,1091,876,0,0
-126,148,0,0,0,0,0,0,0,0,0,-1,1098,876,0,0
-119,148,0,0,0,0,0,0,0,0,0,-1,1105,876,0,0
-112,148,0,0,0,0,0,0,0,0,0,-1,1112,876,0,0
-105,148,0,0,0,0,0,0,0,0,0,-1,1119,876,0,0
-98,148,0,0,0,0,0,0,0,0,0,-1,1126,876,0,0
-91,148,0,0,0,0,0,0,0,0,0,-1,1133,876,0,0
-84,148,0,0,0,0,0,0,0,0,0,-1,1140,876,0,0
-77,148,0,0,0,0,0,0,0,0,0,-1,1147,876,0,0
-70,148,0,0,0,0,0,0,0,0,0,-1,1154,876,0,0
-63,148,0,0,0,0,0,0,0,0,0,-1,1161,876,0,0
-56,148,0,0,0,0,0,0,0,0,0,-1,1168,876,0,0
-49,148,0,0,0,0,0,0,0,0,0,-1,1175,876,0,0
-42,148,0,0,0,0,0,0,0,0,0,-1,1182,876,0,0
-35,148,0,0,0,0,0,0,0,0,0,-1,1189,876,0,0
-28,148,0,0,0,0,0,0,0,0,0,-1,1196,876,0,0
-21,148,0,0,0,0,0,0,0,0,0,-1,1203,876,0,0
-14,148,0,0,0,0,0,0,0,0,0,-1,1210,876,0,0
-7,148,0,0,0,0,0,0,0,0,0,-1,1217,876,0,0
0,148,0,0,0,0,0,0,0,0,0,-1,1224,876,0,0
7,148,0,0,0,0,0,0,0,0,0,-1,1231,876,0,0
14,148,0,0,0,0,0,0,0,0,0,-1,1238,876,0,0
21,148,0,0,0,0,0,0,0,0,0,-1,1245,876,0,0
28,148,0,0,0,0,0,0,0,0,0,-1,1252,876,0,0
35,148,0,0,0,0,0,0,0,0,0,-1,1259,876,0,0
42,148,0,0,0,0,0,0,0,0,0,-1,1266,876,0,0
49,148,0,0,0,0,0,0,0,0,0,-1,1273,876,0,0
56,148,0,0,0,0,0,0,0,0,0,-1,1280,876,0,0
63,148,0,0,0,0,0,0,0,0,0,-1,1287,876,0,0
70,148,0,0,0,0,0,0,0,0,0,-1,1294,876,0,0
77,148,0,0,0,0,0,0,0,0,0,-1,1301,876,0,0
84,148,0,0,0,0,0,0,0,0,0,-1,1308,876,0,0
91,148,0,0,0,0,0,0,0,0,0,-1,1315,876,0,0
98,148,0,0,0,0,0,0,0,0,0,-1,1322,876,0,0
105,148,0,0,0,0,0,0,0,0,0,-1,1329,876,0,0
112,148,0,0,0,0,0,0,0,0,0,-1,1336,876,0,0
119,148,0,0,0,0,0,0,0,0,0,-1,1343,876,0,0
126,148,0,0,0,0,0,0,0,0,0,-1,1350,876,0,0
133,148,0,0,0,0,0,0,0,0,0,-1,1357,876,0,0
140,148,0,0,0,0,0,0,0,0,0,-1,1364,876,0,0
147,148,0,0,0,0,0,0,0,0,0,-1,1371,876,0,0
154,148,0,0,0,0,0,0,0,0,0,-1,1378,876,0,0
161,148,0,0,0,0,0,0,0,0,0,-1,1385,876,0,0
168,148,0,0,0,0,0,0,0,0,0,-1,1392,876,0,0
175,148,0,0,0,0,0,0,0,0,0,-1,1399,876,0,0
182,148,0,0,0,0,0,0,0,0,0,-1,1406,876,0,0
189,148,0,0,0,0,0,0,0,0,0,-1,1413,876,0,0
196,148,0,0,0,0,0,0,0,0,0,-1,1420,876,0,0
203,148,0,0,0,0,0,0,0,0,0,-1,1427,876,0,0
210,148,0,0,0,0,0,0,0,0,0,-1,1434,876,0,0
217,148,0,0,0,0,0,0,0,0,0,-1,1441,876,0,0
224,148,0,0,0,0,0,0,0,0,0,-1,1448,876,0,0
231,148,0,0,0,0,0,0,0,0,0,-1,1455,876,0,0
238,148,0,0,0,0,0,0,0,0,0,-1,1462,876,0,0
245,148,0,0,0,0,0,0,0,0,0,-1,1469,876,0,0
252,148,0,0,0,0,0,0,0,0,0,-1,1476,876,0,0
259,148,0,0,0,0,0,0,0,0,0,-1,1483,876,0,0
266,148,0,0,0,0,0,0,0,0,0,-1,1490,876,0,0
273,148,0,0,0,0,0,0,0,0,0,-1,1497,876,0,0
280,148,0,0,0,0,0,0,0,0,0,-1,1504,876,0,0
287,148,0,0,0,0,0,0,0,0,0,-1,1511,876,0,0
294,148,0,0,0,0,0,0,0,0,0,-1,1518,876,0,0
301,148,0,0,0,0,0,0,0,0,0,-1,1525,876,0,0
308,148,0,0,0,0,0,0,0,0,0,-1,1532,876,0,0
315,148,0,0,0,0,0,0,0,0,0,-1,1539,876,0,0
322,148,0,0,0,0,0,0,0,0,0,-1,1546,876,0,0
329,148,0,0,0,0,0,0,0,0,0,-1,1553,876,0,0
336,148,0,0,0,0,0,0,0,0,0,-1,1560,876,0,0
343,148,0,0,0,0,0,0,0,0,0,-1,1567,876,0,0
350,148,0,0,0,0,0,0,0,0,0,-1,1574,876,0,0
357,148,0,0,0,0,0,0,0,0,0,-1,1581,876,0,0
364,148,0,0,0,0,0,0,0,0,0,-1,1588,876,0,0
371,148,0,0,0,0,0,0,0,0,0,-1,1595,876,0,0
378,148,0,0,0,0,0,0,0,0,0,-1,1602,876,0,0
385,148,0,0,0,0,0,0,0,0,0,-1,1609,876,0,0
392,148,0,0,0,0,0,0,0,0,0,-1,1616,876,0,0
399,148,0,0,0,0,0,0,0,0,0,-1,1623,876,0,0
406,148,0,0,0,0,0,0,0,0,0,-1,1630,876,0,0
413,148,0,0,0,0,0,0,0,0,0,-1,1637,876,0,0
420,148,0,0,0,0,0,0,0,0,0,-1,1644,876,0,0
427,148,0,0,0,0,0,0,0,0,0,-1,1651,876,0,0
434,148,0,0,0,0,0,0,0,0,0,-1,1658,876,0,0
441,148,0,0,0,0,0,0,0,0,0,-1,1665,876,0,0
448,148,0,0,0,0,0,0,0,0,0,-1,1672,876,0,0
455,148,0,0,0,0,0,0,0,0,0,-1,1679,876,0,0
462,148,0,0,0,0,0,0,0,0,0,-1,1686,876,0,0
469,148,0,0,0,0,0,0,0,0,0,-1,1693,876,0,0
476,148,0,0,0,0,0,0,0,0,0,-1,1700,876,0,0
483,148,0,0,0,0,0,0,0,0,0,-1,1707,876,0,0
490,148,0,0,0,0,0,0,0,0,0,-1,1714,876,0,0
497,148,0,0,0,0,0,0,0,0,0,-1,1721,876,0,0
504,148,0,0,0,0,0,0,0,0,0,-1,1728,876,0,0
511,148,0,0,0,0,0,0,0,0,0,-1,1735,876,0,0
518,148,0,0,0,0,0,0,0,0,0,-1,1742,876,0,0
525,148,0,0,0,0,0,0,0,0,0,-1,1749,876,0,0
532,148,0,0,0,0,0,0,0,0,0,-1,1756,876,0,0
539,148,0,0,0,0,0,0,0,0,0,-1,1763,876,0,0
546,148,0,0,0,0,0,0,0,0,0,-1,1770,876,0,0
553,148,0,0,0,0,0,0,0,0,0,-1,1777,876,0,0
560,148,0,0,0,0,0,0,0,0,0,-1,1784,876,0,0
567,148,0,0,0,0,0,0,0,0,0,-1,1791,876,0,0
574,148,0,0,0,0,0,0,0,0,0,-1,1798,876,0,0
581,148,0,0,0,0,0,0,0,0,0,-1,1805,876,0,0
588,148,0,0,0,0,0,0,0,0,0,-1,1812,876,0,0
595,148,0,0,0,0,0,0,0,0,0,-1,1819,876,0,0
602,148,0,0,0,0,0,0,0,0,0,-1,1826,876,0,0
609,148,0,0,0,0,0,0,0,0,0,-1,1833,876,0,0
616,148,0,0,0,0,0,0,0,0,0,-1,1840,876,0,0
623,148,48.6454,2.68042,-0.00211813,-0.00200432,-0.00172029,-0.000339995,-0.00378245,-0.801933,0.00241629,0.0422933,1847,876,48.6454,-2.6804
630,148,48.6923,2.70349,-0.00185447,-0.00112919,-0.00103326,-0.000396784,-0.00258688,-0.954166,0.00160872,0.0415297,1854,876,48.6923,-2.70347
637,148,48.6819,2.74353,-0.00135875,-0.000252245,-0.00044761,-9.38497e-05,-0.00151715,-1.23068,0.000981646,0.0377566,1861,876,48.6819,-2.74356
644,148,48.5765,2.6261,-0.000930893,0.000201202,-0.000136458,0.000217418,-0.000947109,-1.45252,0.000714984,0.0358612,1868,876,48.5766,-2.62608
651,148,48.5912,2.52679,-0.000577291,0.000264959,-3.33314e-05,0.000266276,-0.000578608,-1.5313,0.000498781,0.0384491,1875,876,48.5912,-2.52681
658,148,48.6816,2.6814,-0.000335803,0.000288673,-1.4115e-05,0.000288992,-0.000336122,-1.54821,0.000361252,0.0351988,1882,876,48.6817,-2.68142
665,148,48.6008,2.83813,-0.000374737,0.000109253,-0.000153916,0.000154053,-0.000419537,-1.28755,0.000342783,0.0265184,1889,876,48.6008,-2.83811
672,148,48.6448,2.71118,-0.000402628,-0.00019633,-0.000242819,-3.56593e-05,-0.000563299,-0.986248,0.000364229,0.0326129,1896,876,48.6448,-2.71119
679,148,48.4667,2.91608,0,0,0,0,0,0,0,-1,1903,876,48.4666,-2.91606
686,148,21.6195,2.40845,0,0,0,0,0,0,0,-1,1910,876,21.6196,-2.40846
693,148,40.958,2.13873,0,0,0,0,0,0,0,-1,1917,876,40.958,-2.13873
700,148,41.4758,2.81042,-0.000386853,-0.000376604,-0.000489615,0.000107913,-0.00087137,-0.790631,0.000620022,0.034078,1924,876,41.4758,-2.81043
707,148,41.5814,3.44305,-0.000761882,-0.000392995,-0.000554293,6.7362e-06,-0.00116161,-0.946013,0.000776664,0.0276573,1931,876,41.5814,-3.44307
714,148,41.4786,3.76007,-0.00118156,-0.000215712,-0.00076634,0.000207175,-0.00160445,-1.06655,0.00114495,0.027534,1938,876,41.4786,-3.76007
721,148,41.1964,4.18762,-0.00164864,0.00014767,-0.000873428,0.000502335,-0.00200331,-1.18508,0.00153071,0.0219375,1945,876,41.1964,-4.18761
728,148,41.1736,4.68475,-0.00241197,0.00064276,-0.000846497,0.000861649,-0.00263086,-1.31776,0.00210087,0.0203288,1952,876,41.1736,-4.68474
735,148,41.1818,5.18427,-0.00330749,0.00119503,-0.000830795,0.00134344,-0.00345589,-1.39403,0.00285896,0.0190608,1959,876,41.1818,-5.18429
742,148,41.1416,5.67896,-0.00438264,0.00182673,-0.000763121,0.00191914,-0.00447505,-1.45029,0.00378872,0.0205575,1966,876,41.1416,-5.67898
749,148,41.0652,6.15924,-0.0055964,0.00244557,-0.000645389,0.00249703,-0.00564787,-1.49122,0.00481832,0.0199981,1973,876,41.0652,-6.15925
756,148,40.9767,6.73553,-0.00680454,0.00322467,-0.000410022,0.0032414,-0.00682128,-1.53,0.00593097,0.024413,1980,876,40.9767,-6.73552
763,148,40.8658,7.04852,-0.00793076,0.0045108,5.96056e-05,0.00451109,-0.00793105,1.56601,0.00727336,0.0429155,1987,876,40.8659,-7.04855
770,148,40.8486,7.31598,-0.00926189,0.00594307,0.00041581,0.00595444,-0.00927325,1.54348,0.00886104,0.0477232,1994,876,40.8486,-7.316
777,148,40.9963,7.77936,0,0,0,0,0,0,0,-1,2001,876,40.9963,-7.77936
784,148,40.4189,9.19659,0,0,0,0,0,0,0,-1,2008,876,40.4189,-9.19662
791,148,40.6108,9.98114,0,0,0,0,0,0,0,-1,2015,876,40.6108,-9.98111
798,148,0,0,0,0,0,0,0,0,0,-1,2022,876,0,0
805,148,0,0,0,0,0,0,0,0,0,-1,2029,876,0,0
812,148,0,0,0,0,0,0,0,0,0,-1,2036,876,0,0
-700,141,0,0,0,0,0,0,0,0,0,-1,524,883,0,0
-693,141,0,0,0,0,0,0,0,0,0,-1,531,883,0,0
-686,141,0,0,0,0,0,0,0,0,0,-1,538,883,0,0
-679,141,0,0,0,0,0,0,0,0,0,-1,545,883,0,0
-672,141,-27.1796,5.43048,0,0,0,0,0,0,0,-1,552,883,-27.1797,-5.43046
-665,141,-28.5873,4.51385,0,0,0,0,0,0,0,-1,559,883,-28.5873,-4.51388
-658,141,-32.3431,1.59045,0,0,0,0,0,0,0,-1,566,883,-32.3431,-1.59046
-651,141,-32.7885,1.06683,0,0,0,0,0,0,0,-1,573,883,-32.7884,-1.06683
-644,141,-33.2145,0.52594,0,0,0,0,0,0,0,-1,580,883,-33.2145,-0.52596
-637,141,-30.5563,5.46667,0,0,0,0,0,0,0,-1,587,883,-30.5563,-5.46669
-630,141,-30.4843,4.87726,0,0,0,0,0,0,0,-1,594,883,-30.4843,-4.87723
-623,141,-30.2986,4.01935,0.00528353,0.00128419,0.00863969,0.0121519,-0.00558423,0.671675,0.0104714,0.0291268,601,883,-30.2986,-4.01932
-616,141,-30.496,3.46552,0.00227576,-0.000168032,0.00601443,0.00719116,-0.00508343,0.685182,0.00712148,0.0132673,608,883,-30.496,-3.46552
-609,141,-30.555,3.00031,0.000209214,-0.000532334,0.00421771,0.00407242,-0.00439554,0.741556,0.00489016,0.0137613,615,883,-30.555,-3.00031
-602,141,-30.5953,2.53546,-0.000738554,-0.000289849,0.00329752,0.00279094,-0.00381935,0.819364,0.00383182,0.0131776,622,883,-30.5953,-2.53546
-595,141,-30.5852,2.05029,-0.000765031,-0.000315553,0.00264926,0.00211848,-0.00319906,0.827712,0.00309114,0.013145,629,883,-30.5852,-2.05028
-588,141,-30.8784,1.56757,-0.000227533,-0.000432941,0.00227225,0.00194433,-0.0026048,0.762814,0.00263565,0.0273968,636,883,-30.8784,-1.56759
-581,141,-30.8094,1.13037,0.000195437,-0.000286427,0.00201645,0.0019853,-0.00207629,0.725938,0.00234515,0.0363888,643,883,-30.8094,-1.1304
-574,141,-30.4678,0.833923,0.000369165,-0.000325208,0.00159758,0.00165685,-0.00161289,0.678402,0.00188784,0.0484833,650,883,-30.4678,-0.833953
-567,141,-30.5335,0.480103,0,0,0,0,0,0,0,-1,657,883,-30.5335,-0.480081
-560,141,-30.5542,0.23175,0,0,0,0,0,0,0,-1,664,883,-30.5542,-0.231742
-553,141,-32.0876,1.39459,0,0,0,0,0,0,0,-1,671,883,-32.0876,-1.3946
-546,141,-36.2805,0.886353,0,0,0,0,0,0,0,-1,678,883,-36.2804,-0.886346
-539,141,-36.2872,0.883484,0.00256368,0.00246993,-0.000746169,0.00326445,0.00176917,-0.754028,0.00188694,0.0313465,685,883,-36.2872,-0.883512
-532,141,-36.2636,0.997864,0.00286055,0.00369114,-0.00140522,0.00474115,0.00181054,-0.929077,0.00276265,0.0295593,692,883,-36.2636,-0.997872
-525,141,-36.2602,0.973816,0.00217393,0.00552862,-0.00245238,0.00682241,0.000880137,-1.08534,0.00428513,0.040169,699,883,-36.2602,-0.973809
-518,141,-36.4133,0.809692,0.000905697,0.00838342,-0.0039207,0.0100622,-0.000773096,-1.16623,0.00698013,0.0447207,706,883,-36.4133,-0.809697
-511,141,-36.3712,0.625061,-0.000203991,0.0124268,-0.00621083,0.0149691,-0.00274629,-1.18227,0.0110096,0.0396476,713,883,-36.3712,-0.625043
-504,141,-36.0909,0.493652,0,0,0,0,0,0,0,-1,720,883,-36.0909,-0.493676
-497,141,0,0,0,0,0,0,0,0,0,-1,727,883,0,0
-490,141,0,0,0,0,0,0,0,0,0,-1,734,883,0,0
-483,141,0,0,0,0,0,0,0,0,0,-1,741,883,0,0
-476,141,0,0,0,0,0,0,0,0,0,-1,748,883,0,0
-469,141,0,0,0,0,0,0,0,0,0,-1,755,883,0,0
-462,141,0,0,0,0,0,0,0,0,0,-1,762,883,0,0
-455,141,0,0,0,0,0,0,0,0,0,-1,769,883,0,0
-448,141,0,0,0,0,0,0,0,0,0,-1,776,883,0,0
-441,141,0,0,0,0,0,0,0,0,0,-1,783,883,0,0
-434,141,0,0,0,0,0,0,0,0,0,-1,790,883,0,0
-427,141,0,0,0,0,0,0,0,0,0,-1,797,883,0,0
-420,141,0,0,0,0,0,0,0,0,0,-1,804,883,0,0
-413,141,0,0,0,0,0,0,0,0,0,-1,811,883,0,0
-406,141,0,0,0,0,0,0,0,0,0,-1,818,883,0,0
-399,141,0,0,0,0,0,0,0,0,0,-1,825,883,0,0
-392,141,0,0,0,0,0,0,0,0,0,-1,832,883,0,0
-385,141,0,0,0,0,0,0,0,0,0,-1,839,883,0,0
-378,141,0,0,0,0,0,0,0,0,0,-1,846,883,0,0
-371,141,0,0,0,0,0,0,0,0,0,-1,853,883,0,0
-364,141,0,0,0,0,0,0,0,0,0,-1,860,883,0,0
-357,141,0,0,0,0,0,0,0,0,0,-1,867,883,0,0
-350,141,0,0,0,0,0,0,0,0,0,-1,874,883,0,0
-343,141,0,0,0,0,0,0,0,0,0,-1,881,883,0,0
-336,141,0,0,0,0,0,0,0,0,0,-1,888,883,0,0
-329,141,0,0,0,0,0,0,0,0,0,-1,895,883,0,0
-322,141,0,0,0,0,0,0,0,0,0,-1,902,883,0,0
-315,141,0,0,0,0,0,0,0,0,0,-1,909,883,0,0
-308,141,0,0,0,0,0,0,0,0,0,-1,916,883,0,0
-301,141,0,0,0,0,0,0,0,0,0,-1,923,883,0,0
-294,141,0,0,0,0,0,0,0,0,0,-1,930,883,0,0
-287,141,0,0,0,0,0,0,0,0,0,-1,937,883,0,0
-280,141,0,0,0,0,0,0,0,0,0,-1,944,883,0,0
-273,141,0,0,0,0,0,0,0,0,0,-1,951,883,0,0
-266,141,0,0,0,0,0,0,0,0,0,-1,958,883,0,0
-259,141,0,0,0,0,0,0,0,0,0,-1,965,883,0,0
-252,141,0,0,0,0,0,0,0,0,0,-1,972,883,0,0
-245,141,0,0,0,0,0,0,0,0,0,-1,979,883,0,0
-238,141,0,0,0,0,0,0,0,0,0,-1,986,883,0,0
-231,141,0,0,0,0,0,0,0,0,0,-1,993,883,0,0
-224,141,0,0,0,0,0,0,0,0,0,-1,1000,883,0,0
-217,141,0,0,0,0,0,0,0,0,0,-1,1007,883,0,0
-210,141,0,0,0,0,0,0,0,0,0,-1,1014,883,0,0
-203,141,0,0,0,0,0,0,0,0,0,-1,1021,883,0,0
-196,141,0,0,0,0,0,0,0,0,0,-1,1028,883,0,0
-189,141,0,0,0,0,0,0,0,0,0,-1,1035,883,0,0
-182,141,0,0,0,0,0,0,0,0,0,-1,1042,883,0,0
-175,141,0,0,0,0,0,0,0,0,0,-1,1049,883,0,0
-168,141,0,0,0,0,0,0,0,0,0,-1,1056,883,0,0
-161,141,0,0,0,0,0,0,0,0,0,-1,1063,883,0,0
-154,141,0,0,0,0,0,0,0,0,0,-1,1070,883,0,0
-147,141,0,0,0,0,0,0,0,0,0,-1,1077,883,0,0
-140,141,0,0,0,0,0,0,0,0,0,-1,1084,883,0,0
-133,141,0,0,0,0,0,0,0,0,0,-1,1091,883,0,0
-126,141,0,0,0,0,0,0,0,0,0,-1,1098,883,0,0
-119,141,0,0,0,0,0,0,0,0,0,-1,1105,883,0,0
-112,141,0,0,0,0,0,0,0,0,0,-1,1112,883,0,0
-105,141,0,0,0,0,0,0,0,0,0,-1,1119,883,0,0
-98,141,0,0,0,0,0,0,0,0,0,-1,1126,883,0,0
-91,141,0,0,0,0,0,0,0,0,0,-1,1133,883,0,0
-84,141,0,0,0,0,0,0,0,0,0,-1,1140,883,0,0
-77,141,0,0,0,0,0,0,0,0,0,-1,1147,883,0,0
-70,141,0,0,0,0,0,0,0,0,0,-1,1154,883,0,0
-63,141,0,0,0,0,0,0,0,0,0,-1,1161,883,0,0
-56,141,0,0,0,0,0,0,0,0,0,-1,1168,883,0,0
-49,141,0,0,0,0,0,0,0,0,0,-1,1175,883,0,0
-42,141,0,0,0,0,0,0,0,0,0,-1,1182,883,0,0
-35,141,0,0,0,0,0,0,0,0,0,-1,1189,883,0,0
-28,141,0,0,0,0,0,0,0,0,0,-1,1196,883,0,0
-21,141,0,0,0,0,0,0,0,0,0,-1,1203,883,0,0
-14,141,0,0,0,0,0,0,0,0,0,-1,1210,883,0,0
-7,141,0,0,0,0,0,0,0,0,0,-1,1217,883,0,0
0,141,0,0,0,0,0,0,0,0,0,-1,1224,883,0,0
7,141,0,0,0,0,0,0,0,0,0,-1,1231,883,0,0
14,141,0,0,0,0,0,0,0,0,0,-1,1238,883,0,0
21,141,0,0,0,0,0,0,0,0,0,-1,1245,883,0,0
28,141,0,0,0,0,0,0,0,0,0,-1,1252,883,0,0
35,141,0,0,0,0,0,0,0,0,0,-1,1259,883,0,0
42,141,0,0,0,0,0,0,0,0,0,-1,1266,883,0,0
49,141,0,0,0,0,0,0,0,0,0,-1,1273,883,0,0
56,141,0,0,0,0,0,0,0,0,0,-1,1280,883,0,0
63,141,0,0,0,0,0,0,0,0,0,-1,1287,883,0,0
70,141,0,0,0,0,0,0,0,0,0,-1,1294,883,0,0
77,141,0,0,0,0,0,0,0,0,0,-1,1301,883,0,0
84,141,0,0,0,0,0,0,0,0,0,-1,1308,883,0,0
91,141,0,0,0,0,0,0,0,0,0,-1,1315,883,0,0
98,141,0,0,0,0,0,0,0,0,0,-1,1322,883,0,0
105,141,0,0,0,0,0,0,0,0,0,-1,1329,883,0,0
112,141,0,0,0,0,0,0,0,0,0,-1,1336,883,0,0
119,141,0,0,0,0,0,0,0,0,0,-1,1343,883,0,0
126,141,0,0,0,0,0,0,0,0,0,-1,1350,883,0,0
133,141,0,0,0,0,0,0,0,0,0,-1,1357,883,0,0
140,141,0,0,0,0,0,0,0,0,0,-1,1364,883,0,0
147,141,0,0,0,0,0,0,0,0,0,-1,1371,883,0,0
154,141,0,0,0,0,0,0,0,0,0,-1,1378,883,0,0
161,141,0,0,0,0,0,0,0,0,0,-1,1385,883,0,0
168,141,0,0,0,0,0,0,0,0,0,-1,1392,883,0,0
175,141,0,0,0,0,0,0,0,0,0,-1,1399,883,0,0
182,141,0,0,0,0,0,0,0,0,0,-1,1406,883,0,0
189,141,0,0,0,0,0,0,0,0,0,-1,1413,883,0,0
196,141,0,0,0,0,0,0,0,0,0,-1,1420,883,0,0
203,141,0,0,0,0,0,0,0,0,0,-1,1427,883,0,0
210,141,0,0,0,0,0,0,0,0,0,-1,1434,883,0,0
217,141,0,0,0,0,0,0,0,0,0,-1,1441,883,0,0
224,141,0,0,0,0,0,0,0,0,0,-1,1448,883,0,0
231,141,0,0,0,0,0,0,0,0,0,-1,1455,883,0,0
238,141,0,0,0,0,0,0,0,0,0,-1,1462,883,0,0
245,141,0,0,0,0,0,0,0,0,0,-1,1469,883,0,0
252,141,0,0,0,0,0,0,0,0,0,-1,1476,883,0,0
259,141,0,0,0,0,0,0,0,0,0,-1,1483,883,0,0
266,141,0,0,0,0,0,0,0,0,0,-1,1490,883,0,0
273,141,0,0,0,0,0,0,0,0,0,-1,1497,883,0,0
280,141,0,0,0,0,0,0,0,0,0,-1,1504,883,0,0
287,141,0,0,0,0,0,0,0,0,0,-1,1511,883,0,0
294,141,0,0,0,0,0,0,0,0,0,-1,1518,883,0,0
301,141,0,0,0,0,0,0,0,0,0,-1,1525,883,0,0
308,141,0,0,0,0,0,0,0,0,0,-1,1532,883,0,0
315,141,0,0,0,0,0,0,0,0,0,-1,1539,883,0,0
322,141,0,0,0,0,0,0,0,0,0,-1,1546,883,0,0
329,141,0,0,0,0,0,0,0,0,0,-1,1553,883,0,0
336,141,0,0,0,0,0,0,0,0,0,-1,1560,883,0,0
343,141,0,0,0,0,0,0,0,0,0,-1,1567,883,0,0
350,141,0,0,0,0,0,0,0,0,0,-1,1574,883,0,0
357,141,0,0,0,0,0,0,0,0,0,-1,1581,883,0,0
364,141,0,0,0,0,0,0,0,0,0,-1,1588,883,0,0
371,141,0,0,0,0,0,0,0,0,0,-1,1595,883,0,0
378,141,0,0,0,0,0,0,0,0,0,-1,1602,883,0,0
385,141,0,0,0,0,0,0,0,0,0,-1,1609,883,0,0
392,141,0,0,0,0,0,0,0,0,0,-1,1616,883,0,0
399,141,0,0,0,0,0,0,0,0,0,-1,1623,883,0,0
406,141,0,0,0,0,0,0,0,0,0,-1,1630,883,0,0
413,141,0,0,0,0,0,0,0,0,0,-1,1637,883,0,0
420,141,0,0,0,0,0,0,0,0,0,-1,1644,883,0,0
427,141,0,0,0,0,0,0,0,0,0,-1,1651,883,0,0
434,141,0,0,0,0,0,0,0,0,0,-1,1658,883,0,0
441,141,0,0,0,0,0,0,0,0,0,-1,1665,883,0,0
448,141,0,0,0,0,0,0,0,0,0,-1,1672,883,0,0
455,141,0,0,0,0,0,0,0,0,0,-1,1679,883,0,0
462,141,0,0,0,0,0,0,0,0,0,-1,1686,883,0,0
469,141,0,0,0,0,0,0,0,0,0,-1,1693,883,0,0
476,141,0,0,0,0,0,0,0,0,0,-1,1700,883,0,0
483,141,0,0,0,0,0,0,0,0,0,-1,1707,883,0,0
490,141,0,0,0,0,0,0,0,0,0,-1,1714,883,0,0
497,141,0,0,0,0,0,0,0,0,0,-1,1721,883,0,0
504,141,0,0,0,0,0,0,0,0,0,-1,1728,883,0,0
511,141,0,0,0,0,0,0,0,0,0,-1,1735,883,0,0
518,141,0,0,0,0,0,0,0,0,0,-1,1742,883,0,0
525,141,0,0,0,0,0,0,0,0,0,-1,1749,883,0,0
532,141,0,0,0,0,0,0,0,0,0,-1,1756,883,0,0
539,141,0,0,0,0,0,0,0,0,0,-1,1763,883,0,0
546,141,0,0,0,0,0,0,0,0,0,-1,1770,883,0,0
553,141,0,0,0,0,0,0,0,0,0,-1,1777,883,0,0
560,141,0,0,0,0,0,0,0,0,0,-1,1784,883,0,0
567,141,0,0,0,0,0,0,0,0,0,-1,1791,883,0,0
574,141,0,0,0,0,0,0,0,0,0,-1,1798,883,0,0
581,141,0,0,0,0,0,0,0,0,0,-1,1805,883,0,0
588,141,0,0,0,0,0,0,0,0,0,-1,1812,883,0,0
595,141,0,0,0,0,0,0,0,0,0,-1,1819,883,0,0
602,141,0,0,0,0,0,0,0,0,0,-1,1826,883,0,0
609,141,0,0,0,0,0,0,0,0,0,-1,1833,883,0,0
616,141,0,0,0,0,0,0,0,0,0,-1,1840,883,0,0
623,141,48.7894,2.60846,-0.00225867,-0.00260673,-0.00275506,0.000327847,-0.00519325,-0.753856,0.00357646,0.0455029,1847,883,48.7895,-2.60847
630,141,48.7175,2.65924,-0.00202582,-0.00167126,-0.00194821,0.00010772,-0.0038048,-0.830771,0.00257319,0.0436049,1854,883,48.7176,-2.65923
637,141,48.626,2.47638,0,0,0,0,0,0,0,-1,1861,883,48.626,-2.47637
644,141,48.4609,2.60864,-0.00110061,-0.000125904,-0.000716133,0.000252976,-0.00147949,-1.08417,0.00108057,0.0428101,1868,883,48.461,-2.60864
651,141,48.6449,2.64221,-0.000663276,8.63023e-05,-0.000396651,0.000257222,-0.000834196,-1.16393,0.000658827,0.0394134,1875,883,48.6449,-2.64221
658,141,48.7367,2.69415,-0.000295768,0.000211238,-0.000173572,0.000264966,-0.000349496,-1.27061,0.000355877,0.0370502,1882,883,48.7366,-2.69414
665,141,48.576,2.80499,-0.000204042,9.84043e-05,-0.000166506,0.00017211,-0.000277747,-1.15407,0.000262101,0.0301477,1889,883,48.576,-2.80501
672,141,48.5786,2.77789,-0.000135637,-0.000154578,-0.000157649,1.28261e-05,-0.000303041,-0.755396,0.000206436,0.0242229,1896,883,48.5786,-2.77792
679,141,48.5889,2.70166,-1.11579e-05,-0.000105295,-0.000250463,0.000196621,-0.000313073,-0.692518,0.000296821,0.043457,1903,883,48.5888,-2.70167
686,141,48.6271,2.58856,0,0,0,0,0,0,0,-1,1910,883,48.6271,-2.58859
693,141,41.4283,2.05646,0,0,0,0,0,0,0,-1,1917,883,41.4284,-2.05646
700,141,41.9156,2.77893,-4.62452e-05,-0.000238904,-0.000205441,8.43294e-05,-0.000369479,-0.566172,0.000278714,0.0329706,1924,883,41.9157,-2.77893
707,141,41.9091,3.40668,-0.000326651,-0.000239051,-0.0003102,3.0426e-05,-0.000596127,-0.855534,0.000407939,0.0283006,1931,883,41.9091,-3.40667
714,141,41.6866,3.74207,-0.000733801,-2.29013e-06,-0.000587084,0.000323652,-0.00105974,-1.06398,0.000835542,0.0259836,1938,883,41.6866,-3.74207
721,141,41.6625,4.17035,-0.00122313,0.000401333,-0.00078806,0.000720808,-0.0015426,-1.18565,0.00133518,0.0154773,1945,883,41.6624,-4.17037
728,141,41.7089,4.63708,-0.00199158,0.0010264,-0.000870054,0.00125926,-0.00222444,-1.30929,0.00203688,0.0156739,1952,883,41.7089,-4.63706
735,141,41.7137,5.19611,-0.00285477,0.00186735,-0.00102009,0.00207829,-0.00306571,-1.36688,0.00298808,0.0177301,1959,883,41.7137,-5.19609
742,141,41.6609,5.69647,-0.00388523,0.00298948,-0.00113765,0.00317285,-0.0040686,-1.41099,0.0041915,0.0185763,1966,883,41.6608,-5.69645
749,141,41.625,6.15179,-0.00502216,0.00423452,-0.00117308,0.00438087,-0.00516851,-1.44668,0.00551959,0.0146567,1973,883,41.6249,-6.15182
756,141,41.5734,6.70862,-0.00611446,0.00574585,-0.00105133,0.00583833,-0.00620694,-1.48307,0.00695542,0.0208858,1980,883,41.5734,-6.70861
763,141,41.2505,7.31647,-0.00704901,0.00788296,-0.000607075,0.0079076,-0.00707365,-1.53023,0.0086539,0.0439676,1987,883,41.2505,-7.31647
770,141,41.187,7.12854,0,0,0,0,0,0,0,-1,1994,883,41.187,-7.12857
777,141,41.9054,7.27954,0,0,0,0,0,0,0,-1,2001,883,41.9054,-7.27954
784,141,42.7319,7.87225,0,0,0,0,0,0,0,-1,2008,883,42.7319,-7.87224
791,141,42.5815,7.74707,0,0,0,0,0,0,0,-1,2015,883,42.5815,-7.74706
798,141,0,0,0,0,0,0,0,0,0,-1,2022,883,0,0
805,141,0,0,0,0,0,0,0,0,0,-1,2029,883,0,0
812,141,0,0,0,0,0,0,0,0,0,-1,2036,883,0,0
-700,134,0,0,0,0,0,0,0,0,0,-1,524,890,0,0
-693,134,0,0,0,0,0,0,0,0,0,-1,531,890,0,0
-686,134,0,0,0,0,0,0,0,0,0,-1,538,890,0,0
-679,134,0,0,0,0,0,0,0,0,0,-1,545,890,0,0
-672,134,-27.8921,4.70044,0,0,0,0,0,0,0,-1,552,890,-27.8921,-4.70044
-665,134,-30.1264,3.99939,0,0,0,0,0,0,0,-1,559,890,-30.1264,-3.99936
-658,134,-32.6898,2.21106,0,0,0,0,0,0,0,-1,566,890,-32.6897,-2.21103
-651,134,-33.1285,1.69788,0,0,0,0,0,0,0,-1,573,890,-33.1285,-1.6979
-644,134,-33.5674,1.18475,0,0,0,0,0,0,0,-1,580,890,-33.5674,-1.18477
-637,134,-28.7275,0.339355,0,0,0,0,0,0,0,-1,587,890,-28.7275,-0.339377
-630,134,-30.8507,4.26996,0,0,0,0,0,0,0,-1,594,890,-30.8507,-4.26995
-623,134,-30.8342,3.90466,0.004353,0.00542261,0.0090066,0.0139103,-0.00413466,0.815053,0.0109159,0.0268332,601,890,-30.8342,-3.90464
-616,134,-31.0092,3.46051,0.0016939,0.00211461,0.0059524,0.00786037,-0.00405186,0.803061,0.00699371,0.0125166,608,890,-31.0092,-3.46048
-609,134,-31.0813,3.00433,-0.000400336,0.000548704,0.00391593,0.00401876,-0.00387039,0.845693,0.00455507,0.0118104,615,890,-31.0813,-3.00433
-602,134,-31.0709,2.53119,-0.00153911,0.000130995,0.00295399,0.00236569,-0.00377381,0.923147,0.00357559,0.0125101,622,890,-31.0709,-2.53118
-595,134,-31.0145,2.10791,-0.00174234,-0.000190998,0.00234198,0.00150042,-0.00343376,0.945314,0.00292073,0.0201879,629,890,-31.0145,-2.10792
-588,134,-31.4512,1.70544,-0.00136868,-0.000470122,0.00198686,0.00111762,-0.00295642,0.896591,0.0024307,0.0342679,636,890,-31.4512,-1.70547
-581,134,-31.5568,1.2688,0,0,0,0,0,0,0,-1,643,890,-31.5568,-1.2688
-574,134,-31.1517,0.757751,0,0,0,0,0,0,0,-1,650,890,-31.1517,-0.757758
-567,134,-30.9003,0.296326,0,0,0,0,0,0,0,-1,657,890,-30.9002,-0.296302
-560,134,-22.9123,0.106567,0,0,0,0,0,0,0,-1,664,890,-22.9123,-0.106594
-553,134,-36.228,0.986328,0,0,0,0,0,0,0,-1,671,890,-36.2279,-0.986299
-546,134,-36.2702,0.933716,0.000887265,0.000944677,-0.000789027,0.00170552,0.000126422,-0.803581,0.0010973,0.032115,678,890,-36.2702,-0.933729
-539,134,-36.2723,0.909058,0.00122065,0.00181706,-0.00143326,0.00298282,5.49019e-05,-0.887965,0.0019705,0.0187487,685,890,-36.2723,-0.909038
-532,134,-36.2868,0.913696,0.00151292,0.00298895,-0.00225115,0.00461997,-0.000118109,-0.943797,0.0031201,0.0225173,692,890,-36.2868,-0.913698
-525,134,-36.2642,0.966309,0.000910753,0.00476187,-0.00348994,0.00682222,-0.0011496,-1.03749,0.00497581,0.0352708,699,890,-36.2641,-0.966307
-518,134,-36.3735,0.85376,-0.000147818,0.00738135,-0.00512463,0.00997553,-0.002742,-1.10219,0.00772824,0.0437699,706,890,-36.3735,-0.853765
-511,134,-36.4501,0.752197,-0.000927285,0.0108628,-0.00723247,0.0142984,-0.00436284,-1.12733,0.0112716,0.0457697,713,890,-36.4501,-0.752172
-504,134,0,0,0,0,0,0,0,0,0,-1,720,890,0,0
-497,134,0,0,0,0,0,0,0,0,0,-1,727,890,0,0
-490,134,0,0,0,0,0,0,0,0,0,-1,734,890,0,0
-483,134,0,0,0,0,0,0,0,0,0,-1,741,890,0,0
-476,134,0,0,0,0,0,0,0,0,0,-1,748,890,0,0
-469,134,0,0,0,0,0,0,0,0,0,-1,755,890,0,0
-462,134,0,0,0,0,0,0,0,0,0,-1,762,890,0,0
-455,134,0,0,0,0,0,0,0,0,0,-1,769,890,0,0
-448,134,0,0,0,0,0,0,0,0,0,-1,776,890,0,0
-441,134,0,0,0,0,0,0,0,0,0,-1,783,890,0,0
-434,134,0,0,0,0,0,0,0,0,0,-1,790,890,0,0
-427,134,0,0,0,0,0,0,0,0,0,-1,797,890,0,0
-420,134,0,0,0,0,0,0,0,0,0,-1,804,890,0,0
-413,134,0,0,0,0,0,0,0,0,0,-1,811,890,0,0
-406,134,0,0,0,0,0,0,0,0,0,-1,818,890,0,0
-399,134,0,0,0,0,0,0,0,0,0,-1,825,890,0,0
-392,134,0,0,0,0,0,0,0,0,0,-1,832,890,0,0
-385,134,0,0,0,0,0,0,0,0,0,-1,839,890,0,0
-378,134,0,0,0,0,0,0,0,0,0,-1,846,890,0,0
-371,134,0,0,0,0,0,0,0,0,0,-1,853,890,0,0
-364,134,0,0,0,0,0,0,0,0,0,-1,860,890,0,0
-357,134,0,0,0,0,0,0,0,0,0,-1,867,890,0,0
-350,134,0,0,0,0,0,0,0,0,0,-1,874,890,0,0
-343,134,0,0,0,0,0,0,0,0,0,-1,881,890,0,0
-336,134,0,0,0,0,0,0,0,0,0,-1,888,890,0,0
-329,134,0,0,0,0,0,0,0,0,0,-1,895,890,0,0
-322,134,0,0,0,0,0,0,0,0,0,-1,902,890,0,0
-315,134,0,0,0,0,0,0,0,0,0,-1,909,890,0,0
-308,134,0,0,0,0,0,0,0,0,0,-1,916,890,0,0
-301,134,0,0,0,0,0,0,0,0,0,-1,923,890,0,0
-294,134,0,0,0,0,0,0,0,0,0,-1,930,890,0,0
-287,134,0,0,0,0,0,0,0,0,0,-1,937,890,0,0
-280,134,0,0,0,0,0,0,0,0,0,-1,944,890,0,0
-273,134,0,0,0,0,0,0,0,0,0,-1,951,890,0,0
-266,134,0,0,0,0,0,0,0,0,0,-1,958,890,0,0
-259,134,0,0,0,0,0,0,0,0,0,-1,965,890,0,0
-252,134,0,0,0,0,0,0,0,0,0,-1,972,890,0,0
-245,134,0,0,0,0,0,0,0,0,0,-1,979,890,0,0
-238,134,0,0,0,0,0,0,0,0,0,-1,986,890,0,0
-231,134,0,0,0,0,0,0,0,0,0,-1,993,890,0,0
-224,134,0,0,0,0,0,0,0,0,0,-1,1000,890,0,0
-217,134,0,0,0,0,0,0,0,0,0,-1,1007,890,0,0
-210,134,0,0,0,0,0,0,0,0,0,-1,1014,890,0,0
-203,134,0,0,0,0,0,0,0,0,0,-1,1021,890,0,0
-196,134,0,0,0,0,0,0,0,0,0,-1,1028,890,0,0
-189,134,0,0,0,0,0,0,0,0,0,-1,1035,890,0,0
-182,134,0,0,0,0,0,0,0,0,0,-1,1042,890,0,0
-175,134,0,0,0,0,0,0,0,0,0,-1,1049,890,0,0
-168,134,0,0,0,0,0,0,0,0,0,-1,1056,890,0,0
-161,134,0,0,0,0,0,0,0,0,0,-1,1063,890,0,0
-154,134,0,0,0,0,0,0,0,0,0,-1,1070,890,0,0
-147,134,0,0,0,0,0,0,0,0,0,-1,1077,890,0,0
-140,134,0,0,0,0,0,0,0,0,0,-1,1084,890,0,0
-133,134,0,0,0,0,0,0,0,0,0,-1,1091,890,0,0
-126,134,0,0,0,0,0,0,0,0,0,-1,1098,890,0,0
-119,134,0,0,0,0,0,0,0,0,0,-1,1105,890,0,0
-112,134,0,0,0,0,0,0,0,0,0,-1,1112,890,0,0
-105,134,0,0,0,0,0,0,0,0,0,-1,1119,890,0,0
-98,134,0,0,0,0,0,0,0,0,0,-1,1126,890,0,0
-91,134,0,0,0,0,0,0,0,0,0,-1,1133,890,0,0
-84,134,0,0,0,0,0,0,0,0,0,-1,1140,890,0,0
-77,134,0,0,0,0,0,0,0,0,0,-1,1147,890,0,0
-70,134,0,0,0,0,0,0,0,0,0,-1,1154,890,0,0
-63,134,0,0,0,0,0,0,0,0,0,-1,1161,890,0,0
-56,134,0,0,0,0,0,0,0,0,0,-1,1168,890,0,0
-49,134,0,0,0,0,0,0,0,0,0,-1,1175,890,0,0
-42,134,0,0,0,0,0,0,0,0,0,-1,1182,890,0,0
-35,134,0,0,0,0,0,0,0,0,0,-1,1189,890,0,0
-28,134,0,0,0,0,0,0,0,0,0,-1,1196,890,0,0
-21,134,0,0,0,0,0,0,0,0,0,-1,1203,890,0,0
-14,134,0,0,0,0,0,0,0,0,0,-1,1210,890,0,0
-7,134,0,0,0,0,0,0,0,0,0,-1,1217,890,0,0
0,134,0,0,0,0,0,0,0,0,0,-1,1224,890,0,0
7,134,0,0,0,0,0,0,0,0,0,-1,1231,890,0,0
14,134,0,0,0,0,0,0,0,0,0,-1,1238,890,0,0
21,134,0,0,0,0,0,0,0,0,0,-1,1245,890,0,0
28,134,0,0,0,0,0,0,0,0,0,-1,1252,890,0,0
35,134,0,0,0,0,0,0,0,0,0,-1,1259,890,0,0
42,134,0,0,0,0,0,0,0,0,0,-1,1266,890,0,0
49,134,0,0,0,0,0,0,0,0,0,-1,1273,890,0,0
56,134,0,0,0,0,0,0,0,0,0,-1,1280,890,0,0
63,134,0,0,0,0,0,0,0,0,0,-1,1287,890,0,0
70,134,0,0,0,0,0,0,0,0,0,-1,1294,890,0,0
77,134,0,0,0,0,0,0,0,0,0,-1,1301,890,0,0
84,134,0,0,0,0,0,0,0,0,0,-1,1308,890,0,0
91,134,0,0,0,0,0,0,0,0,0,-1,1315,890,0,0
98,134,0,0,0,0,0,0,0,0,0,-1,1322,890,0,0
105,134,0,0,0,0,0,0,0,0,0,-1,1329,890,0,0
112,134,0,0,0,0,0,0,0,0,0,-1,1336,890,0,0
119,134,0,0,0,0,0,0,0,0,0,-1,1343,890,0,0
126,134,0,0,0,0,0,0,0,0,0,-1,1350,890,0,0
133,134,0,0,0,0,0,0,0,0,0,-1,1357,890,0,0
140,134,0,0,0,0,0,0,0,0,0,-1,1364,890,0,0
147,134,0,0,0,0,0,0,0,0,0,-1,1371,890,0,0
154,134,0,0,0,0,0,0,0,0,0,-1,1378,890,0,0
161,134,0,0,0,0,0,0,0,0,0,-1,1385,890,0,0
168,134,0,0,0,0,0,0,0,0,0,-1,1392,890,0,0
175,134,0,0,0,0,0,0,0,0,0,-1,1399,890,0,0
182,134,0,0,0,0,0,0,0,0,0,-1,1406,890,0,0
189,134,0,0,0,0,0,0,0,0,0,-1,1413,890,0,0
196,134,0,0,0,0,0,0,0,0,0,-1,1420,890,0,0
203,134,0,0,0,0,0,0,0,0,0,-1,1427,890,0,0
210,134,0,0,0,0,0,0,0,0,0,-1,1434,890,0,0
217,134,0,0,0,0,0,0,0,0,0,-1,1441,890,0,0
224,134,0,0,0,0,0,0,0,0,0,-1,1448,890,0,0
231,134,0,0,0,0,0,0,0,0,0,-1,1455,890,0,0
238,134,0,0,0,0,0,0,0,0,0,-1,1462,890,0,0
245,134,0,0,0,0,0,0,0,0,0,-1,1469,890,0,0
252,134,0,0,0,0,0,0,0,0,0,-1,1476,890,0,0
259,134,0,0,0,0,0,0,0,0,0,-1,1483,890,0,0
266,134,0,0,0,0,0,0,0,0,0,-1,1490,890,0,0
273,134,0,0,0,0,0,0,0,0,0,-1,1497,890,0,0
280,134,0,0,0,0,0,0,0,0,0,-1,1504,890,0,0
287,134,0,0,0,0,0,0,0,0,0,-1,1511,890,0,0
294,134,0,0,0,0,0,0,0,0,0,-1,1518,890,0,0
301,134,0,0,0,0,0,0,0,0,0,-1,1525,890,0,0
308,134,0,0,0,0,0,0,0,0,0,-1,1532,890,0,0
315,134,0,0,0,0,0,0,0,0,0,-1,1539,890,0,0
322,134,0,0,0,0,0,0,0,0,0,-1,1546,890,0,0
329,134,0,0,0,0,0,0,0,0,0,-1,1553,890,0,0
336,134,0,0,0,0,0,0,0,0,0,-1,1560,890,0,0
343,134,0,0,0,0,0,0,0,0,0,-1,1567,890,0,0
350,134,0,0,0,0,0,0,0,0,0,-1,1574,890,0,0
357,134,0,0,0,0,0,0,0,0,0,-1,1581,890,0,0
364,134,0,0,0,0,0,0,0,0,0,-1,1588,890,0,0
371,134,0,0,0,0,0,0,0,0,0,-1,1595,890,0,0
378,134,0,0,0,0,0,0,0,0,0,-1,1602,890,0,0
385,134,0,0,0,0,0,0,0,0,0,-1,1609,890,0,0
392,134,0,0,0,0,0,0,0,0,0,-1,1616,890,0,0
399,134,0,0,0,0,0,0,0,0,0,-1,1623,890,0,0
406,134,0,0,0,0,0,0,0,0,0,-1,1630,890,0,0
413,134,0,0,0,0,0,0,0,0,0,-1,1637,890,0,0
420,134,0,0,0,0,0,0,0,0,0,-1,1644,890,0,0
427,134,0,0,0,0,0,0,0,0,0,-1,1651,890,0,0
434,134,0,0,0,0,0,0,0,0,0,-1,1658,890,0,0
441,134,0,0,0,0,0,0,0,0,0,-1,1665,890,0,0
448,134,0,0,0,0,0,0,0,0,0,-1,1672,890,0,0
455,134,0,0,0,0,0,0,0,0,0,-1,1679,890,0,0
462,134,0,0,0,0,0,0,0,0,0,-1,1686,890,0,0
469,134,0,0,0,0,0,0,0,0,0,-1,1693,890,0,0
476,134,0,0,0,0,0,0,0,0,0,-1,1700,890,0,0
483,134,0,0,0,0,0,0,0,0,0,-1,1707,890,0,0
490,134,0,0,0,0,0,0,0,0,0,-1,1714,890,0,0
497,134,0,0,0,0,0,0,0,0,0,-1,1721,890,0,0
504,134,0,0,0,0,0,0,0,0,0,-1,1728,890,0,0
511,134,0,0,0,0,0,0,0,0,0,-1,1735,890,0,0
518,134,0,0,0,0,0,0,0,0,0,-1,1742,890,0,0
525,134,0,0,0,0,0,0,0,0,0,-1,1749,890,0,0
532,134,0,0,0,0,0,0,0,0,0,-1,1756,890,0,0
539,134,0,0,0,0,0,0,0,0,0,-1,1763,890,0,0
546,134,0,0,0,0,0,0,0,0,0,-1,1770,890,0,0
553,134,0,0,0,0,0,0,0,0,0,-1,1777,890,0,0
560,134,0,0,0,0,0,0,0,0,0,-1,1784,890,0,0
567,134,0,0,0,0,0,0,0,0,0,-1,1791,890,0,0
574,134,0,0,0,0,0,0,0,0,0,-1,1798,890,0,0
581,134,0,0,0,0,0,0,0,0,0,-1,1805,890,0,0
588,134,0,0,0,0,0,0,0,0,0,-1,1812,890,0,0
595,134,0,0,0,0,0,0,0,0,0,-1,1819,890,0,0
602,134,0,0,0,0,0,0,0,0,0,-1,1826,890,0,0
609,134,0,0,0,0,0,0,0,0,0,-1,1833,890,0,0
616,134,0,0,0,0,0,0,0,0,0,-1,1840,890,0,0
623,134,48.7635,3.05884,-0.00212564,-0.00252379,-0.00359423,0.00127503,-0.00592445,-0.757733,0.00443615,0.0464469,1847,890,48.7635,-3.05885
630,134,48.6093,2.97498,-0.00200449,-0.00167252,-0.00279353,0.000959953,-0.00463697,-0.815072,0.00345603,0.0470046,1854,890,48.6092,-2.97498
637,134,48.5989,2.85437,-0.00162774,-0.000720028,-0.00206757,0.000942918,-0.00329068,-0.89344,0.00256649,0.0462359,1861,890,48.5988,-2.85439
644,134,48.5145,2.76447,-0.00121581,-8.04602e-05,-0.00139258,0.000855709,-0.00215198,-0.978936,0.00178944,0.0418064,1868,890,48.5145,-2.76445
651,134,48.5988,2.71008,-0.000773652,0.000203286,-0.000854005,0.000698649,-0.00126902,-1.04518,0.00115183,0.0409689,1875,890,48.5987,-2.7101
658,134,48.6066,2.73938,-0.000341139,0.00036497,-0.000400201,0.00054559,-0.000521759,-1.14684,0.000616285,0.0393659,1882,890,48.6066,-2.73937
665,134,48.549,2.69141,-0.000133685,0.000280634,-0.000206434,0.00036593,-0.000218981,-1.17897,0.000341232,0.0371096,1889,890,48.549,-2.69139
672,134,48.6299,2.66895,2.25868e-05,4.9404e-05,-5.91097e-05,9.66069e-05,-2.4616e-05,-0.896932,7.39877e-05,0.0248354,1896,890,48.6298,-2.66897
679,134,48.6313,2.62775,0.000193499,8.54166e-05,-3.58305e-05,0.000204298,7.46174e-05,-0.292738,0.000119371,0.0225909,1903,890,48.6313,-2.62774
686,134,48.6742,2.50018,0,0,0,0,0,0,0,-1,1910,890,48.6742,-2.50017
693,134,34.5778,2.48096,0,0,0,0,0,0,0,-1,1917,890,34.5777,-2.48099
700,134,42.1536,2.58301,0,0,0,0,0,0,0,-1,1924,890,42.1536,-2.58301
707,134,42.0107,2.99518,-8.09956e-05,-6.23955e-05,2.07103e-07,-6.23932e-05,-8.09979e-05,1.55966,4.89891e-05,0.023435,1931,890,42.0108,-2.99516
714,134,42.038,3.56653,-0.000461946,0.000152077,-0.000325173,0.000292271,-0.000602141,-1.16374,0.000526618,0.0234746,1938,890,42.038,-3.56655
721,134,42.2125,4.12683,-0.000980081,0.000495601,-0.000574263,0.00069274,-0.00117722,-1.24011,0.00109163,0.0201832,1945,890,42.2126,-4.12684
728,134,42.2805,4.61676,-0.00178746,0.00106322,-0.000700938,0.00122624,-0.00195049,-1.34228,0.00184991,0.0179883,1952,890,42.2806,-4.61679
735,134,42.2347,5.18976,-0.00267098,0.00188457,-0.000935342,0.00206914,-0.00285555,-1.37597,0.00285533,0.0244015,1959,890,42.2347,-5.18977
742,134,42.1749,5.71161,-0.00373266,0.00307058,-0.00112626,0.00325218,-0.00391426,-1.41093,0.00414343,0.016541,1966,890,42.1749,-5.71161
749,134,42.1787,6.17035,-0.00490139,0.00442446,-0.00116118,0.00456687,-0.0050438,-1.44877,0.005551,0.0132444,1973,890,42.1787,-6.17037
756,134,42.1398,6.64899,-0.00599886,0.00604519,-0.000963857,0.00612184,-0.00607551,-1.49144,0.00704216,0.0178411,1980,890,42.1398,-6.649
763,134,41.9532,7.24573,-0.00687436,0.00820825,-0.000355385,0.00821662,-0.00688273,-1.54725,0.00872894,0.0392579,1987,890,41.9532,-7.24572
770,134,41.7749,7.83881,0,0,0,0,0,0,0,-1,1994,890,41.7748,-7.83883
777,134,43.6969,5.94574,0,0,0,0,0,0,0,-1,2001,890,43.697,-5.94577
784,134,42.3352,7.4964,0,0,0,0,0,0,0,-1,2008,890,42.3352,-7.49641
791,134,42.2061,9.63593,0,0,0,0,0,0,0,-1,2015,890,42.2061,-9.63591
798,134,0,0,0,0,0,0,0,0,0,-1,2022,890,0,0
805,134,0,0,0,0,0,0,0,0,0,-1,2029,890,0,0
812,134,0,0,0,0,0,0,0,0,0,-1,2036,890,0,0
-700,127,0,0,0,0,0,0,0,0,0,-1,524,897,0,0
-693,127,0,0,0,0,0,0,0,0,0,-1,531,897,0,0
-686,127,0,0,0,0,0,0,0,0,0,-1,538,897,0,0
-679,127,-35.6425,3.09082,0,0,0,0,0,0,0,-1,545,897,-35.6425,-3.09079
-672,127,-34.6617,4.18298,0,0,0,0,0,0,0,-1,552,897,-34.6617,-4.18301
-665,127,-34.1415,4.05511,0,0,0,0,0,0,0,-1,559,897,-34.1415,-4.0551
-658,127,-32.6992,2.68634,0,0,0,0,0,0,0,-1,566,897,-32.6992,-2.68631
-651,127,-33.4333,2.34149,0,0,0,0,0,0,0,-1,573,897,-33.4333,-2.34149
-644,127,-33.8521,1.84509,0,0,0,0,0,0,0,-1,580,897,-33.8521,-1.84508
-637,127,-31.806,4.06177,0,0,0,0,0,0,0,-1,587,897,-31.806,-4.06179
-630,127,-31.356,4.20868,0,0,0,0,0,0,0,-1,594,897,-31.356,-4.2087
-623,127,-31.445,3.80774,0.00433796,0.00842407,0.0102068,0.0167902,-0.0040282,0.884176,0.0127501,0.0171174,601,897,-31.445,-3.80776
-616,127,-31.5095,3.43396,0.00161543,0.00372972,0.00655602,0.00931328,-0.00396813,0.865334,0.0078723,0.0107199,608,897,-31.5094,-3.43396
-609,127,-31.5697,2.9939,-0.00078805,0.0012212,0.00408186,0.00442025,-0.0039871,0.90606,0.00485613,0.0142607,615,897,-31.5697,-2.99392
-602,127,-31.5674,2.55798,-0.00238554,0.000342238,0.00285645,0.00214371,-0.00418701,1.00813,0.00371796,0.0160342,622,897,-31.5674,-2.55797
-595,127,-31.5095,2.15924,-0.00285601,-9.88328e-05,0.00219778,0.00111695,-0.00407179,1.06551,0.00315349,0.0261869,629,897,-31.5095,-2.15925
-588,127,-31.6584,1.62042,-0.00261777,-0.000464237,0.00183763,0.000588859,-0.00367087,1.05041,0.0026653,0.0328467,636,897,-31.6585,-1.62043
-581,127,-31.4755,1.09412,0,0,0,0,0,0,0,-1,643,897,-31.4754,-1.09412
-574,127,-25.2603,0.511169,0,0,0,0,0,0,0,-1,650,897,-25.2603,-0.51117
-567,127,-24.5417,-0.0447388,0,0,0,0,0,0,0,-1,657,897,-24.5417,0.0447226
-560,127,-18.9678,1.21667,0,0,0,0,0,0,0,-1,664,897,-18.9677,-1.2167
-553,127,-36.2279,0.934631,0,0,0,0,0,0,0,-1,671,897,-36.2279,-0.934652
-546,127,-36.2537,0.912292,-0.000664591,0.000464996,-0.00114867,0.00118022,-0.00137981,-1.01389,0.00147953,0.0233511,678,897,-36.2537,-0.912278
-539,127,-36.2726,0.883484,-0.000353975,0.00119315,-0.00185786,0.00243205,-0.00159288,-0.982668,0.00234057,0.0198083,685,897,-36.2727,-0.883503
-532,127,-36.2744,0.906433,-9.54121e-05,0.00220723,-0.00273766,0.00402581,-0.00191399,-0.984446,0.00350085,0.0159797,692,897,-36.2744,-0.906438
-525,127,-36.3357,0.999756,-0.000627356,0.00370625,-0.00400703,0.00609482,-0.00301592,-1.03326,0.00535927,0.0298897,699,897,-36.3357,-0.999752
-518,127,-36.2968,0.85614,-0.00174344,0.0057972,-0.0055945,0.00877327,-0.00471951,-1.08191,0.00790638,0.0395493,706,897,-36.2968,-0.856141
-511,127,-36.2274,0.693542,-0.00259166,0.00852684,-0.00737289,0.0122015,-0.0062663,-1.10843,0.0108444,0.0451202,713,897,-36.2274,-0.693561
-504,127,0,0,0,0,0,0,0,0,0,-1,720,897,0,0
-497,127,0,0,0,0,0,0,0,0,0,-1,727,897,0,0
-490,127,0,0,0,0,0,0,0,0,0,-1,734,897,0,0
-483,127,0,0,0,0,0,0,0,0,0,-1,741,897,0,0
-476,127,0,0,0,0,0,0,0,0,0,-1,748,897,0,0
-469,127,0,0,0,0,0,0,0,0,0,-1,755,897,0,0
-462,127,0,0,0,0,0,0,0,0,0,-1,762,897,0,0
-455,127,0,0,0,0,0,0,0,0,0,-1,769,897,0,0
-448,127,0,0,0,0,0,0,0,0,0,-1,776,897,0,0
-441,127,0,0,0,0,0,0,0,0,0,-1,783,897,0,0
-434,127,0,0,0,0,0,0,0,0,0,-1,790,897,0,0
-427,127,0,0,0,0,0,0,0,0,0,-1,797,897,0,0
-420,127,0,0,0,0,0,0,0,0,0,-1,804,897,0,0
-413,127,0,0,0,0,0,0,0,0,0,-1,811,897,0,0
-406,127,0,0,0,0,0,0,0,0,0,-1,818,897,0,0
-399,127,0,0,0,0,0,0,0,0,0,-1,825,897,0,0
-392,127,0,0,0,0,0,0,0,0,0,-1,832,897,0,0
-385,127,0,0,0,0,0,0,0,0,0,-1,839,897,0,0
-378,127,0,0,0,0,0,0,0,0,0,-1,846,897,0,0
-371,127,0,0,0,0,0,0,0,0,0,-1,853,897,0,0
-364,127,0,0,0,0,0,0,0,0,0,-1,860,897,0,0
-357,127,0,0,0,0,0,0,0,0,0,-1,867,897,0,0
-350,127,0,0,0,0,0,0,0,0,0,-1,874,897,0,0
-343,127,0,0,0,0,0,0,0,0,0,-1,881,897,0,0
-336,127,0,0,0,0,0,0,0,0,0,-1,888,897,0,0
-329,127,0,0,0,0,0,0,0,0,0,-1,895,897,0,0
-322,127,0,0,0,0,0,0,0,0,0,-1,902,897,0,0
-315,127,0,0,0,0,0,0,0,0,0,-1,909,897,0,0
-308,127,0,0,0,0,0,0,0,0,0,-1,916,897,0,0
-301,127,0,0,0,0,0,0,0,0,0,-1,923,897,0,0
-294,127,0,0,0,0,0,0,0,0,0,-1,930,897,0,0
-287,127,0,0,0,0,0,0,0,0,0,-1,937,897,0,0
-280,127,0,0,0,0,0,0,0,0,0,-1,944,897,0,0
-273,127,0,0,0,0,0,0,0,0,0,-1,951,897,0,0
-266,127,0,0,0,0,0,0,0,0,0,-1,958,897,0,0
-259,127,0,0,0,0,0,0,0,0,0,-1,965,897,0,0
-252,127,0,0,0,0,0,0,0,0,0,-1,972,897,0,0
-245,127,0,0,0,0,0,0,0,0,0,-1,979,897,0,0
-238,127,0,0,0,0,0,0,0,0,0,-1,986,897,0,0
-231,127,0,0,0,0,0,0,0,0,0,-1,993,897,0,0
-224,127,0,0,0,0,0,0,0,0,0,-1,1000,897,0,0
-217,127,0,0,0,0,0,0,0,0,0,-1,1007,897,0,0
-210,127,0,0,0,0,0,0,0,0,0,-1,1014,897,0,0
-203,127,0,0,0,0,0,0,0,0,0,-1,1021,897,0,0
-196,127,0,0,0,0,0,0,0,0,0,-1,1028,897,0,0
-189,127,0,0,0,0,0,0,0,0,0,-1,1035,897,0,0
-182,127,0,0,0,0,0,0,0,0,0,-1,1042,897,0,0
-175,127,0,0,0,0,0,0,0,0,0,-1,1049,897,0,0
-168,127,0,0,0,0,0,0,0,0,0,-1,1056,897,0,0
-161,127,0,0,0,0,0,0,0,0,0,-1,1063,897,0,0
-154,127,0,0,0,0,0,0,0,0,0,-1,1070,897,0,0
-147,127,0,0,0,0,0,0,0,0,0,-1,1077,897,0,0
-140,127,0,0,0,0,0,0,0,0,0,-1,1084,897,0,0
-133,127,0,0,0,0,0,0,0,0,0,-1,1091,897,0,0
-126,127,0,0,0,0,0,0,0,0,0,-1,1098,897,0,0
-119,127,0,0,0,0,0,0,0,0,0,-1,1105,897,0,0
-112,127,0,0,0,0,0,0,0,0,0,-1,1112,897,0,0
-105,127,0,0,0,0,0,0,0,0,0,-1,1119,897,0,0
-98,127,0,0,0,0,0,0,0,0,0,-1,1126,897,0,0
-91,127,0,0,0,0,0,0,0,0,0,-1,1133,897,0,0
-84,127,0,0,0,0,0,0,0,0,0,-1,1140,897,0,0
-77,127,0,0,0,0,0,0,0,0,0,-1,1147,897,0,0
-70,127,0,0,0,0,0,0,0,0,0,-1,1154,897,0,0
-63,127,0,0,0,0,0,0,0,0,0,-1,1161,897,0,0
-56,127,0,0,0,0,0,0,0,0,0,-1,1168,897,0,0
-49,127,0,0,0,0,0,0,0,0,0,-1,1175,897,0,0
-42,127,0,0,0,0,0,0,0,0,0,-1,1182,897,0,0
-35,127,0,0,0,0,0,0,0,0,0,-1,1189,897,0,0
-28,127,0,0,0,0,0,0,0,0,0,-1,1196,897,0,0
-21,127,0,0,0,0,0,0,0,0,0,-1,1203,897,0,0
-14,127,0,0,0,0,0,0,0,0,0,-1,1210,897,0,0
-7,127,0,0,0,0,0,0,0,0,0,-1,1217,897,0,0
0,127,0,0,0,0,0,0,0,0,0,-1,1224,897,0,0
7,127,0,0,0,0,0,0,0,0,0,-1,1231,897,0,0
14,127,0,0,0,0,0,0,0,0,0,-1,1238,897,0,0
21,127,0,0,0,0,0,0,0,0,0,-1,1245,897,0,0
28,127,0,0,0,0,0,0,0,0,0,-1,1252,897,0,0
35,127,0,0,0,0,0,0,0,0,0,-1,1259,897,0,0
42,127,0,0,0,0,0,0,0,0,0,-1,1266,897,0,0
49,127,0,0,0,0,0,0,0,0,0,-1,1273,897,0,0
56,127,0,0,0,0,0,0,0,0,0,-1,1280,897,0,0
63,127,0,0,0,0,0,0,0,0,0,-1,1287,897,0,0
70,127,0,0,0,0,0,0,0,0,0,-1,1294,897,0,0
77,127,0,0,0,0,0,0,0,0,0,-1,1301,897,0,0
84,127,0,0,0,0,0,0,0,0,0,-1,1308,897,0,0
91,127,0,0,0,0,0,0,0,0,0,-1,1315,897,0,0
98,127,0,0,0,0,0,0,0,0,0,-1,1322,897,0,0
105,127,0,0,0,0,0,0,0,0,0,-1,1329,897,0,0
112,127,0,0,0,0,0,0,0,0,0,-1,1336,897,0,0
119,127,0,0,0,0,0,0,0,0,0,-1,1343,897,0,0
126,127,0,0,0,0,0,0,0,0,0,-1,1350,897,0,0
133,127,0,0,0,0,0,0,0,0,0,-1,1357,897,0,0
140,127,0,0,0,0,0,0,0,0,0,-1,1364,897,0,0
147,127,0,0,0,0,0,0,0,0,0,-1,1371,897,0,0
154,127,0,0,0,0,0,0,0,0,0,-1,1378,897,0,0
161,127,0,0,0,0,0,0,0,0,0,-1,1385,897,0,0
168,127,0,0,0,0,0,0,0,0,0,-1,1392,897,0,0
175,127,0,0,0,0,0,0,0,0,0,-1,1399,897,0,0
182,127,0,0,0,0,0,0,0,0,0,-1,1406,897,0,0
189,127,0,0,0,0,0,0,0,0,0,-1,1413,897,0,0
196,127,0,0,0,0,0,0,0,0,0,-1,1420,897,0,0
203,127,0,0,0,0,0,0,0,0,0,-1,1427,897,0,0
210,127,0,0,0,0,0,0,0,0,0,-1,1434,897,0,0
217,127,0,0,0,0,0,0,0,0,0,-1,1441,897,0,0
224,127,0,0,0,0,0,0,0,0,0,-1,1448,897,0,0
231,127,0,0,0,0,0,0,0,0,0,-1,1455,897,0,0
238,127,0,0,0,0,0,0,0,0,0,-1,1462,897,0,0
245,127,0,0,0,0,0,0,0,0,0,-1,1469,897,0,0
252,127,0,0,0,0,0,0,0,0,0,-1,1476,897,0,0
259,127,0,0,0,0,0,0,0,0,0,-1,1483,897,0,0
266,127,0,0,0,0,0,0,0,0,0,-1,1490,897,0,0
273,127,0,0,0,0,0,0,0,0,0,-1,1497,897,0,0
280,127,0,0,0,0,0,0,0,0,0,-1,1504,897,0,0
287,127,0,0,0,0,0,0,0,0,0,-1,1511,897,0,0
294,127,0,0,0,0,0,0,0,0,0,-1,1518,897,0,0
301,127,0,0,0,0,0,0,0,0,0,-1,1525,897,0,0
308,127,0,0,0,0,0,0,0,0,0,-1,1532,897,0,0
315,127,0,0,0,0,0,0,0,0,0,-1,1539,897,0,0
322,127,0,0,0,0,0,0,0,0,0,-1,1546,897,0,0
329,127,0,0,0,0,0,0,0,0,0,-1,1553,897,0,0
336,127,0,0,0,0,0,0,0,0,0,-1,1560,897,0,0
343,127,0,0,0,0,0,0,0,0,0,-1,1567,897,0,0
350,127,0,0,0,0,0,0,0,0,0,-1,1574,897,0,0
357,127,0,0,0,0,0,0,0,0,0,-1,1581,897,0,0
364,127,0,0,0,0,0,0,0,0,0,-1,1588,897,0,0
371,127,0,0,0,0,0,0,0,0,0,-1,1595,897,0,0
378,127,0,0,0,0,0,0,0,0,0,-1,1602,897,0,0
385,127,0,0,0,0,0,0,0,0,0,-1,1609,897,0,0
392,127,0,0,0,0,0,0,0,0,0,-1,1616,897,0,0
399,127,0,0,0,0,0,0,0,0,0,-1,1623,897,0,0
406,127,0,0,0,0,0,0,0,0,0,-1,1630,897,0,0
413,127,0,0,0,0,0,0,0,0,0,-1,1637,897,0,0
420,127,0,0,0,0,0,0,0,0,0,-1,1644,897,0,0
427,127,0,0,0,0,0,0,0,0,0,-1,1651,897,0,0
434,127,0,0,0,0,0,0,0,0,0,-1,1658,897,0,0
441,127,0,0,0,0,0,0,0,0,0,-1,1665,897,0,0
448,127,0,0,0,0,0,0,0,0,0,-1,1672,897,0,0
455,127,0,0,0,0,0,0,0,0,0,-1,1679,897,0,0
462,127,0,0,0,0,0,0,0,0,0,-1,1686,897,0,0
469,127,0,0,0,0,0,0,0,0,0,-1,1693,897,0,0
476,127,0,0,0,0,0,0,0,0,0,-1,1700,897,0,0
483,127,0,0,0,0,0,0,0,0,0,-1,1707,897,0,0
490,127,0,0,0,0,0,0,0,0,0,-1,1714,897,0,0
497,127,0,0,0,0,0,0,0,0,0,-1,1721,897,0,0
504,127,0,0,0,0,0,0,0,0,0,-1,1728,897,0,0
511,127,0,0,0,0,0,0,0,0,0,-1,1735,897,0,0
518,127,0,0,0,0,0,0,0,0,0,-1,1742,897,0,0
525,127,0,0,0,0,0,0,0,0,0,-1,1749,897,0,0
532,127,0,0,0,0,0,0,0,0,0,-1,1756,897,0,0
539,127,0,0,0,0,0,0,0,0,0,-1,1763,897,0,0
546,127,0,0,0,0,0,0,0,0,0,-1,1770,897,0,0
553,127,0,0,0,0,0,0,0,0,0,-1,1777,897,0,0
560,127,0,0,0,0,0,0,0,0,0,-1,1784,897,0,0
567,127,0,0,0,0,0,0,0,0,0,-1,1791,897,0,0
574,127,0,0,0,0,0,0,0,0,0,-1,1798,897,0,0
581,127,0,0,0,0,0,0,0,0,0,-1,1805,897,0,0
588,127,0,0,0,0,0,0,0,0,0,-1,1812,897,0,0
595,127,0,0,0,0,0,0,0,0,0,-1,1819,897,0,0
602,127,0,0,0,0,0,0,0,0,0,-1,1826,897,0,0
609,127,0,0,0,0,0,0,0,0,0,-1,1833,897,0,0
616,127,0,0,0,0,0,0,0,0,0,-1,1840,897,0,0
623,127,0,0,0,0,0,0,0,0,0,-1,1847,897,0,0
630,127,48.6018,2.9375,-0.00227031,-0.00243975,-0.00379825,0.00144416,-0.00615422,-0.774247,0.00465941,0.0430313,1854,897,48.6018,-2.93752
637,127,48.5681,2.90271,-0.00190561,-0.00127196,-0.00301529,0.0014431,-0.00462067,-0.837743,0.00365764,0.0414971,1861,897,48.5682,-2.90272
644,127,48.6844,2.80438,-0.00150007,-0.000454596,-0.00217011,0.00125485,-0.00320952,-0.903587,0.00265858,0.040235,1868,897,48.6844,-2.80436
651,127,48.5281,2.6297,-0.00102413,-5.81893e-06,-0.00140922,0.000983404,-0.00201335,-0.958753,0.00176391,0.0418984,1875,897,48.5281,-2.62973
658,127,48.4352,2.5993,-0.00049631,0.000294024,-0.000712143,0.000713292,-0.000915578,-1.0387,0.000942843,0.0437369,1882,897,48.4352,-2.5993
665,127,48.5455,2.53461,-0.000145276,0.000314907,-0.000321182,0.000479911,-0.000310279,-1.09622,0.000459707,0.0410185,1889,897,48.5455,-2.5346
672,127,48.6229,2.50317,0.000120305,0.000144425,-3.34312e-05,0.000167905,9.68248e-05,-0.958506,9.7319e-05,0.0326907,1896,897,48.6229,-2.50316
679,127,48.6528,2.64569,0.000356671,0.000183983,0.000108148,0.000408715,0.000131939,0.448519,0.00024086,0.0263653,1903,897,48.6529,-2.64569
686,127,48.6492,2.57446,0.000431263,0.000147788,0.000149281,0.000495376,8.3675e-05,0.405657,0.000306194,0.0471486,1910,897,48.6492,-2.57446
693,127,48.6228,2.33093,0,0,0,0,0,0,0,-1,1917,897,48.6227,-2.33092
700,127,42.6012,2.54633,0,0,0,0,0,0,0,-1,1924,897,42.6012,-2.54633
707,127,42.4576,3.01782,0.000118965,8.29819e-05,0.000194099,0.000295904,-9.39579e-05,0.739184,0.000234937,0.0267423,1931,897,42.4576,-3.01783
714,127,42.6724,3.57721,-0.00024776,0.000305988,-0.000148728,0.000343406,-0.000285178,-1.32433,0.000363431,0.0227764,1938,897,42.6723,-3.57719
721,127,42.8464,4.23639,-0.000785471,0.000620922,-0.000404444,0.000728934,-0.000893484,-1.30982,0.000938308,0.0194024,1945,897,42.8464,-4.23641
728,127,42.7809,4.69128,-0.0015926,0.00113401,-0.000537514,0.00123614,-0.00169474,-1.38302,0.00169904,0.0173236,1952,897,42.7809,-4.69127
735,127,42.7527,5.22107,-0.00246467,0.00190876,-0.000814867,0.00205566,-0.00261156,-1.39244,0.00270099,0.0206872,1959,897,42.7527,-5.22104
742,127,42.7018,5.70264,-0.00352637,0.00311945,-0.00104103,0.0032787,-0.00368562,-1.41899,0.00402314,0.0185661,1966,897,42.7017,-5.70265
749,127,42.6732,6.15625,-0.00469037,0.0045725,-0.00104284,0.00468845,-0.00480632,-1.46006,0.00548195,0.0135619,1973,897,42.6732,-6.15623
756,127,42.6331,6.61053,-0.00575941,0.00631344,-0.000759972,0.0063611,-0.00580706,-1.50818,0.00702772,0.0163688,1980,897,42.6331,-6.61055
763,127,42.5685,7.05634,-0.0065324,0.00852262,-2.51277e-05,0.00852267,-0.00653245,-1.56913,0.00871735,0.0255922,1987,897,42.5684,-7.05631
770,127,42.5426,7.48175,0,0,0,0,0,0,0,-1,1994,897,42.5426,-7.48176
777,127,42.703,5.33789,0,0,0,0,0,0,0,-1,2001,897,42.7031,-5.33791
784,127,42.6145,8.47131,0,0,0,0,0,0,0,-1,2008,897,42.6146,-8.47131
791,127,42.5813,5.51636,0,0,0,0,0,0,0,-1,2015,897,42.5813,-5.51633
798,127,0,0,0,0,0,0,0,0,0,-1,2022,897,0,0
805,127,0,0,0,0,0,0,0,0,0,-1,2029,897,0,0
812,127,0,0,0,0,0,0,0,0,0,-1,2036,897,0,0
-700,120,0,0,0,0,0,0,0,0,0,-1,524,904,0,0
-693,120,0,0,0,0,0,0,0,0,0,-1,531,904,0,0
-686,120,0,0,0,0,0,0,0,0,0,-1,538,904,0,0
-679,120,-35.8138,2.91296,0,0,0,0,0,0,0,-1,545,904,-35.8138,-2.91293
-672,120,-35.3891,3.78448,0,0,0,0,0,0,0,-1,552,904,-35.3891,-3.78451
-665,120,-34.0465,4.03125,0,0,0,0,0,0,0,-1,559,904,-34.0465,-4.03122
-658,120,-32.627,4.50543,0,0,0,0,0,0,0,-1,566,904,-32.627,-4.50543
-651,120,-33.7668,3.00983,0,0,0,0,0,0,0,-1,573,904,-33.7668,-3.00981
-644,120,-33.1442,3.41473,0,0,0,0,0,0,0,-1,580,904,-33.1442,-3.41475
-637,120,-32.5107,3.84332,0.00222724,0.0321799,0.0211172,0.0430922,-0.00868513,1.09384,0.0320183,0.0469261,587,904,-32.5107,-3.8433
-630,120,-31.9177,4.17432,0.00409401,0.0199987,0.0149922,0.0290171,-0.00492438,1.02925,0.0211779,0.0284597,594,904,-31.9177,-4.17432
-623,120,-31.9481,3.80841,0.00370244,0.0113152,0.0100354,0.0182419,-0.0032242,0.966664,0.0133662,0.0117522,601,904,-31.9481,-3.80839
-616,120,-31.9729,3.39648,0.00116907,0.00534105,0.0062908,0.00988269,-0.00337258,0.94549,0.00795465,0.0108108,608,904,-31.9729,-3.39647
-609,120,-32.0134,2.98035,-0.0014268,0.00198483,0.00378151,0.00442746,-0.00386943,0.99728,0.00479382,0.0139091,615,904,-32.0134,-2.98033
-602,120,-32.0354,2.5564,-0.00335352,0.000643798,0.00254585,0.00188181,-0.00459153,1.11818,0.00384498,0.0162221,622,904,-32.0354,-2.55638
-595,120,-31.967,2.18677,-0.0041028,8.52895e-06,0.00188399,0.000741262,-0.00483553,1.19987,0.00349706,0.0288762,629,904,-31.967,-2.18678
-588,120,-31.9424,1.63934,-0.00404763,-0.000449208,0.00151659,0.00010471,-0.00460154,1.22061,0.00310319,0.0388874,636,904,-31.9425,-1.63933
-581,120,-31.6971,0.960205,0,0,0,0,0,0,0,-1,643,904,-31.6971,-0.960223
-574,120,-27.5438,0.505066,0,0,0,0,0,0,0,-1,650,904,-27.5438,-0.505085
-567,120,-25.2822,-0.410645,0,0,0,0,0,0,0,-1,657,904,-25.2821,0.410629
-560,120,-27.3358,1.10327,0,0,0,0,0,0,0,-1,664,904,-27.3358,-1.10324
-553,120,-36.2075,1.03754,0,0,0,0,0,0,0,-1,671,904,-36.2075,-1.03751
-546,120,-36.2026,0.966736,-0.00222989,-5.3768e-06,-0.00160141,0.000832139,-0.00306741,-1.08893,0.00237149,0.0313524,678,904,-36.2026,-0.966745
-539,120,-36.1956,0.94696,-0.00176172,0.00056518,-0.00233469,0.00201025,-0.00320679,-1.01655,0.00303835,0.0264245,685,904,-36.1956,-0.946959
-532,120,-36.2126,0.870239,-0.00128848,0.00135739,-0.00322892,0.00352388,-0.00345497,-0.979825,0.0040293,0.0274216,692,904,-36.2126,-0.870226
-525,120,-36.3796,1.03955,-0.00138461,0.00246007,-0.0044532,0.00538813,-0.00431268,-0.989154,0.00561222,0.0339768,699,904,-36.3797,-1.03957
-518,120,-36.3351,0.857056,-0.00232769,0.00384767,-0.00595773,0.0074703,-0.00595033,-1.02447,0.00776495,0.0387668,706,904,-36.3351,-0.857053
-511,120,-36.2759,0.797729,-0.00280263,0.00565559,-0.00750669,0.0100425,-0.00718954,-1.04193,0.00999427,0.0420987,713,904,-36.2759,-0.797702
-504,120,0,0,0,0,0,0,0,0,0,-1,720,904,0,0
-497,120,0,0,0,0,0,0,0,0,0,-1,727,904,0,0
-490,120,0,0,0,0,0,0,0,0,0,-1,734,904,0,0
-483,120,0,0,0,0,0,0,0,0,0,-1,741,904,0,0
-476,120,0,0,0,0,0,0,0,0,0,-1,748,904,0,0
-469,120,0,0,0,0,0,0,0,0,0,-1,755,904,0,0
-462,120,0,0,0,0,0,0,0,0,0,-1,762,904,0,0
-455,120,0,0,0,0,0,0,0,0,0,-1,769,904,0,0
-448,120,0,0,0,0,0,0,0,0,0,-1,776,904,0,0
-441,120,0,0,0,0,0,0,0,0,0,-1,783,904,0,0
-434,120,0,0,0,0,0,0,0,0,0,-1,790,904,0,0
-427,120,0,0,0,0,0,0,0,0,0,-1,797,904,0,0
-420,120,0,0,0,0,0,0,0,0,0,-1,804,904,0,0
-413,120,0,0,0,0,0,0,0,0,0,-1,811,904,0,0
-406,120,0,0,0,0,0,0,0,0,0,-1,818,904,0,0
-399,120,0,0,0,0,0,0,0,0,0,-1,825,904,0,0
-392,120,0,0,0,0,0,0,0,0,0,-1,832,904,0,0
-385,120,0,0,0,0,0,0,0,0,0,-1,839,904,0,0
-378,120,0,0,0,0,0,0,0,0,0,-1,846,904,0,0
-371,120,0,0,0,0,0,0,0,0,0,-1,853,904,0,0
-364,120,0,0,0,0,0,0,0,0,0,-1,860,904,0,0
-357,120,0,0,0,0,0,0,0,0,0,-1,867,904,0,0
-350,120,0,0,0,0,0,0,0,0,0,-1,874,904,0,0
-343,120,0,0,0,0,0,0,0,0,0,-1,881,904,0,0
-336,120,0,0,0,0,0,0,0,0,0,-1,888,904,0,0
-329,120,0,0,0,0,0,0,0,0,0,-1,895,904,0,0
-322,120,0,0,0,0,0,0,0,0,0,-1,902,904,0,0
-315,120,0,0,0,0,0,0,0,0,0,-1,909,904,0,0
-308,120,0,0,0,0,0,0,0,0,0,-1,916,904,0,0
-301,120,0,0,0,0,0,0,0,0,0,-1,923,904,0,0
-294,120,0,0,0,0,0,0,0,0,0,-1,930,904,0,0
-287,120,0,0,0,0,0,0,0,0,0,-1,937,904,0,0
-280,120,0,0,0,0,0,0,0,0,0,-1,944,904,0,0
-273,120,0,0,0,0,0,0,0,0,0,-1,951,904,0,0
-266,120,0,0,0,0,0,0,0,0,0,-1,958,904,0,0
-259,120,0,0,0,0,0,0,0,0,0,-1,965,904,0,0
-252,120,0,0,0,0,0,0,0,0,0,-1,972,904,0,0
-245,120,0,0,0,0,0,0,0,0,0,-1,979,904,0,0
-238,120,0,0,0,0,0,0,0,0,0,-1,986,904,0,0
-231,120,0,0,0,0,0,0,0,0,0,-1,993,904,0,0
-224,120,0,0,0,0,0,0,0,0,0,-1,1000,904,0,0
-217,120,0,0,0,0,0,0,0,0,0,-1,1007,904,0,0
-210,120,0,0,0,0,0,0,0,0,0,-1,1014,904,0,0
-203,120,0,0,0,0,0,0,0,0,0,-1,1021,904,0,0
-196,120,0,0,0,0,0,0,0,0,0,-1,1028,904,0,0
-189,120,0,0,0,0,0,0,0,0,0,-1,1035,904,0,0
-182,120,0,0,0,0,0,0,0,0,0,-1,1042,904,0,0
-175,120,0,0,0,0,0,0,0,0,0,-1,1049,904,0,0
-168,120,0,0,0,0,0,0,0,0,0,-1,1056,904,0,0
-161,120,0,0,0,0,0,0,0,0,0,-1,1063,904,0,0
-154,120,0,0,0,0,0,0,0,0,0,-1,1070,904,0,0
-147,120,0,0,0,0,0,0,0,0,0,-1,1077,904,0,0
-140,120,0,0,0,0,0,0,0,0,0,-1,1084,904,0,0
-133,120,0,0,0,0,0,0,0,0,0,-1,1091,904,0,0
-126,120,0,0,0,0,0,0,0,0,0,-1,1098,904,0,0
-119,120,0,0,0,0,0,0,0,0,0,-1,1105,904,0,0
-112,120,0,0,0,0,0,0,0,0,0,-1,1112,904,0,0
-105,120,0,0,0,0,0,0,0,0,0,-1,1119,904,0,0
-98,120,0,0,0,0,0,0,0,0,0,-1,1126,904,0,0
-91,120,0,0,0,0,0,0,0,0,0,-1,1133,904,0,0
-84,120,0,0,0,0,0,0,0,0,0,-1,1140,904,0,0
-77,120,0,0,0,0,0,0,0,0,0,-1,1147,904,0,0
-70,120,0,0,0,0,0,0,0,0,0,-1,1154,904,0,0
-63,120,0,0,0,0,0,0,0,0,0,-1,1161,904,0,0
-56,120,0,0,0,0,0,0,0,0,0,-1,1168,904,0,0
-49,120,0,0,0,0,0,0,0,0,0,-1,1175,904,0,0
-42,120,0,0,0,0,0,0,0,0,0,-1,1182,904,0,0
-35,120,0,0,0,0,0,0,0,0,0,-1,1189,904,0,0
-28,120,0,0,0,0,0,0,0,0,0,-1,1196,904,0,0
-21,120,0,0,0,0,0,0,0,0,0,-1,1203,904,0,0
-14,120,0,0,0,0,0,0,0,0,0,-1,1210,904,0,0
-7,120,0,0,0,0,0,0,0,0,0,-1,1217,904,0,0
0,120,0,0,0,0,0,0,0,0,0,-1,1224,904,0,0
7,120,0,0,0,0,0,0,0,0,0,-1,1231,904,0,0
14,120,0,0,0,0,0,0,0,0,0,-1,1238,904,0,0
21,120,0,0,0,0,0,0,0,0,0,-1,1245,904,0,0
28,120,0,0,0,0,0,0,0,0,0,-1,1252,904,0,0
35,120,0,0,0,0,0,0,0,0,0,-1,1259,904,0,0
42,120,0,0,0,0,0,0,0,0,0,-1,1266,904,0,0
49,120,0,0,0,0,0,0,0,0,0,-1,1273,904,0,0
56,120,0,0,0,0,0,0,0,0,0,-1,1280,904,0,0
63,120,0,0,0,0,0,0,0,0,0,-1,1287,904,0,0
70,120,0,0,0,0,0,0,0,0,0,-1,1294,904,0,0
77,120,0,0,0,0,0,0,0,0,0,-1,1301,904,0,0
84,120,0,0,0,0,0,0,0,0,0,-1,1308,904,0,0
91,120,0,0,0,0,0,0,0,0,0,-1,1315,904,0,0
98,120,0,0,0,0,0,0,0,0,0,-1,1322,904,0,0
105,120,0,0,0,0,0,0,0,0,0,-1,1329,904,0,0
112,120,0,0,0,0,0,0,0,0,0,-1,1336,904,0,0
119,120,0,0,0,0,0,0,0,0,0,-1,1343,904,0,0
126,120,0,0,0,0,0,0,0,0,0,-1,1350,904,0,0
133,120,0,0,0,0,0,0,0,0,0,-1,1357,904,0,0
140,120,0,0,0,0,0,0,0,0,0,-1,1364,904,0,0
147,120,0,0,0,0,0,0,0,0,0,-1,1371,904,0,0
154,120,0,0,0,0,0,0,0,0,0,-1,1378,904,0,0
161,120,0,0,0,0,0,0,0,0,0,-1,1385,904,0,0
168,120,0,0,0,0,0,0,0,0,0,-1,1392,904,0,0
175,120,0,0,0,0,0,0,0,0,0,-1,1399,904,0,0
182,120,0,0,0,0,0,0,0,0,0,-1,1406,904,0,0
189,120,0,0,0,0,0,0,0,0,0,-1,1413,904,0,0
196,120,0,0,0,0,0,0,0,0,0,-1,1420,904,0,0
203,120,0,0,0,0,0,0,0,0,0,-1,1427,904,0,0
210,120,0,0,0,0,0,0,0,0,0,-1,1434,904,0,0
217,120,0,0,0,0,0,0,0,0,0,-1,1441,904,0,0
224,120,0,0,0,0,0,0,0,0,0,-1,1448,904,0,0
231,120,0,0,0,0,0,0,0,0,0,-1,1455,904,0,0
238,120,0,0,0,0,0,0,0,0,0,-1,1462,904,0,0
245,120,0,0,0,0,0,0,0,0,0,-1,1469,904,0,0
252,120,0,0,0,0,0,0,0,0,0,-1,1476,904,0,0
259,120,0,0,0,0,0,0,0,0,0,-1,1483,904,0,0
266,120,0,0,0,0,0,0,0,0,0,-1,1490,904,0,0
273,120,0,0,0,0,0,0,0,0,0,-1,1497,904,0,0
280,120,0,0,0,0,0,0,0,0,0,-1,1504,904,0,0
287,120,0,0,0,0,0,0,0,0,0,-1,1511,904,0,0
294,120,0,0,0,0,0,0,0,0,0,-1,1518,904,0,0
301,120,0,0,0,0,0,0,0,0,0,-1,1525,904,0,0
308,120,0,0,0,0,0,0,0,0,0,-1,1532,904,0,0
315,120,0,0,0,0,0,0,0,0,0,-1,1539,904,0,0
322,120,0,0,0,0,0,0,0,0,0,-1,1546,904,0,0
329,120,0,0,0,0,0,0,0,0,0,-1,1553,904,0,0
336,120,0,0,0,0,0,0,0,0,0,-1,1560,904,0,0
343,120,0,0,0,0,0,0,0,0,0,-1,1567,904,0,0
350,120,0,0,0,0,0,0,0,0,0,-1,1574,904,0,0
357,120,0,0,0,0,0,0,0,0,0,-1,1581,904,0,0
364,120,0,0,0,0,0,0,0,0,0,-1,1588,904,0,0
371,120,0,0,0,0,0,0,0,0,0,-1,1595,904,0,0
378,120,0,0,0,0,0,0,0,0,0,-1,1602,904,0,0
385,120,0,0,0,0,0,0,0,0,0,-1,1609,904,0,0
392,120,0,0,0,0,0,0,0,0,0,-1,1616,904,0,0
399,120,0,0,0,0,0,0,0,0,0,-1,1623,904,0,0
406,120,0,0,0,0,0,0,0,0,0,-1,1630,904,0,0
413,120,0,0,0,0,0,0,0,0,0,-1,1637,904,0,0
420,120,0,0,0,0,0,0,0,0,0,-1,1644,904,0,0
427,120,0,0,0,0,0,0,0,0,0,-1,1651,904,0,0
434,120,0,0,0,0,0,0,0,0,0,-1,1658,904,0,0
441,120,0,0,0,0,0,0,0,0,0,-1,1665,904,0,0
448,120,0,0,0,0,0,0,0,0,0,-1,1672,904,0,0
455,120,0,0,0,0,0,0,0,0,0,-1,1679,904,0,0
462,120,0,0,0,0,0,0,0,0,0,-1,1686,904,0,0
469,120,0,0,0,0,0,0,0,0,0,-1,1693,904,0,0
476,120,0,0,0,0,0,0,0,0,0,-1,1700,904,0,0
483,120,0,0,0,0,0,0,0,0,0,-1,1707,904,0,0
490,120,0,0,0,0,0,0,0,0,0,-1,1714,904,0,0
497,120,0,0,0,0,0,0,0,0,0,-1,1721,904,0,0
504,120,0,0,0,0,0,0,0,0,0,-1,1728,904,0,0
511,120,0,0,0,0,0,0,0,0,0,-1,1735,904,0,0
518,120,0,0,0,0,0,0,0,0,0,-1,1742,904,0,0
525,120,0,0,0,0,0,0,0,0,0,-1,1749,904,0,0
532,120,0,0,0,0,0,0,0,0,0,-1,1756,904,0,0
539,120,0,0,0,0,0,0,0,0,0,-1,1763,904,0,0
546,120,0,0,0,0,0,0,0,0,0,-1,1770,904,0,0
553,120,0,0,0,0,0,0,0,0,0,-1,1777,904,0,0
560,120,0,0,0,0,0,0,0,0,0,-1,1784,904,0,0
567,120,0,0,0,0,0,0,0,0,0,-1,1791,904,0,0
574,120,0,0,0,0,0,0,0,0,0,-1,1798,904,0,0
581,120,0,0,0,0,0,0,0,0,0,-1,1805,904,0,0
588,120,0,0,0,0,0,0,0,0,0,-1,1812,904,0,0
595,120,0,0,0,0,0,0,0,0,0,-1,1819,904,0,0
602,120,0,0,0,0,0,0,0,0,0,-1,1826,904,0,0
609,120,0,0,0,0,0,0,0,0,0,-1,1833,904,0,0
616,120,0,0,0,0,0,0,0,0,0,-1,1840,904,0,0
623,120,0,0,0,0,0,0,0,0,0,-1,1847,904,0,0
630,120,48.5797,2.90796,-0.00226772,-0.00323521,-0.00501314,0.00228496,-0.00778788,-0.7373,0.00609798,0.0404037,1854,904,48.5797,-2.90796
637,120,48.6088,2.82166,-0.00207283,-0.00177037,-0.00403028,0.00211152,-0.00595472,-0.804151,0.00483003,0.0409772,1861,904,48.6087,-2.82165
644,120,48.7191,2.78589,-0.00175919,-0.00077131,-0.00295913,0.00173482,-0.00426532,-0.868096,0.0035654,0.0392247,1868,904,48.7191,-2.78586
651,120,48.4962,2.75311,-0.00129727,-0.000198467,-0.00196879,0.00129614,-0.00279188,-0.921465,0.0024123,0.0410923,1875,904,48.4963,-2.75313
658,120,48.4561,2.67865,-0.000709657,0.000207906,-0.00103571,0.000881896,-0.00138365,-0.993892,0.00131866,0.0418643,1882,904,48.4561,-2.67866
665,120,48.548,2.61365,-0.000231924,0.000336028,-0.000439077,0.000574959,-0.000470854,-1.07244,0.000604797,0.0365495,1889,904,48.5479,-2.61363
672,120,48.6196,2.51184,0.000108567,0.000212603,-2.18731e-05,0.000217015,0.000104155,-1.37177,0.000125327,0.0349132,1896,904,48.6196,-2.51184
679,120,48.5945,2.5755,0.000398116,0.000234769,0.000225339,0.000556127,7.67585e-05,0.611538,0.000347998,0.0323656,1903,904,48.5945,-2.57552
686,120,48.5906,2.67157,0.000500822,0.000175527,0.000315815,0.000693411,-1.70626e-05,0.547607,0.000468065,0.0275059,1910,904,48.5906,-2.67158
693,120,48.5403,2.67822,0,0,0,0,0,0,0,-1,1917,904,48.5403,-2.67823
700,120,42.2007,3.00946,0,0,0,0,0,0,0,-1,1924,904,42.2007,-3.00944
707,120,43.167,3.31262,0,0,0,0,0,0,0,-1,1931,904,43.167,-3.31264
714,120,43.3407,3.85956,-0.000202157,0.000359416,-4.45394e-05,0.000362927,-0.000205668,-1.49214,0.000332437,0.0219574,1938,904,43.3407,-3.85955
721,120,43.3293,4.33252,-0.000774665,0.000672772,-0.000300108,0.000732529,-0.000834421,-1.37425,0.000905316,0.0176099,1945,904,43.3294,-4.33253
728,120,43.2634,4.80756,-0.00157969,0.00116431,-0.00041415,0.00122546,-0.00164084,-1.42422,0.00166064,0.0126124,1952,904,43.2634,-4.80754
735,120,43.2181,5.22974,-0.00242327,0.00189941,-0.000717554,0.00201541,-0.00253927,-1.41052,0.00263543,0.0140397,1959,904,43.2181,-5.22974
742,120,43.1949,5.70532,-0.0034528,0.00310732,-0.000967423,0.00324701,-0.00359249,-1.42739,0.00395047,0.0153129,1966,904,43.1949,-5.70532
749,120,43.1777,6.14935,-0.00456902,0.00463284,-0.000932444,0.00472638,-0.00466256,-1.47082,0.00542075,0.0119036,1973,904,43.1777,-6.14937
756,120,43.1125,6.60248,-0.00557926,0.00645878,-0.0005628,0.00648504,-0.00560551,-1.52418,0.00698664,0.0145185,1980,904,43.1126,-6.6025
763,120,43.0175,7.03625,-0.00626109,0.0086685,0.000281884,0.00867382,-0.00626641,1.55192,0.00866299,0.0275957,1987,904,43.0174,-7.03625
770,120,42.9424,7.48462,0,0,0,0,0,0,0,-1,1994,904,42.9424,-7.48461
777,120,41.3512,6.78638,0,0,0,0,0,0,0,-1,2001,904,41.3512,-6.78635
784,120,43.5239,5.77271,0,0,0,0,0,0,0,-1,2008,904,43.524,-5.77269
791,120,41.957,6.00659,0,0,0,0,0,0,0,-1,2015,904,41.957,-6.00662
798,120,40.751,6.32587,0,0,0,0,0,0,0,-1,2022,904,40.7509,-6.32586
805,120,0,0,0,0,0,0,0,0,0,-1,2029,904,0,0
812,120,0,0,0,0,0,0,0,0,0,-1,2036,904,0,0
-700,113,0,0,0,0,0,0,0,0,0,-1,524,911,0,0
-693,113,0,0,0,0,0,0,0,0,0,-1,531,911,0,0
-686,113,0,0,0,0,0,0,0,0,0,-1,538,911,0,0
-679,113,-32.7333,7.92194,0,0,0,0,0,0,0,-1,545,911,-32.7333,-7.92191
-672,113,-35.7634,3.41516,0,0,0,0,0,0,0,-1,552,911,-35.7634,-3.41515
-665,113,-32.4675,8.05255,0,0,0,0,0,0,0,-1,559,911,-32.4675,-8.05255
-658,113,-32.8323,4.89233,0,0,0,0,0,0,0,-1,566,911,-32.8323,-4.89234
-651,113,-31.9794,4.24982,0,0,0,0,0,0,0,-1,573,911,-31.9794,-4.24979
-644,113,-32.4355,4.78168,0,0,0,0,0,0,0,-1,580,911,-32.4356,-4.78165
-637,113,-32.4492,4.44965,-0.000669408,0.0350209,0.0221366,0.0456095,-0.011258,1.12463,0.0347719,0.041235,587,911,-32.4492,-4.44965
-630,113,-32.361,4.22021,0.00218129,0.0223655,0.0158467,0.0310609,-0.00651404,1.06894,0.0231856,0.0201786,594,911,-32.361,-4.22019
-623,113,-32.431,3.79938,0.00241209,0.0128877,0.0106265,0.0194971,-0.00419736,1.01437,0.0145997,0.0116714,601,911,-32.431,-3.79935
-616,113,-32.4449,3.38885,0.000129722,0.00608382,0.00653515,0.0102881,-0.00407452,0.999126,0.00854699,0.0103934,608,911,-32.4449,-3.38884
-609,113,-32.453,3.00275,-0.00251615,0.00220664,0.0037587,0.00428417,-0.00459368,1.06586,0.00512666,0.0114691,615,911,-32.453,-3.00272
-602,113,-32.4656,2.55652,-0.00460815,0.000604993,0.00230172,0.0014758,-0.00547896,1.20911,0.00423125,0.0184531,622,911,-32.4657,-2.55653
-595,113,-32.4891,2.25049,-0.00551698,-0.000103588,0.00149708,0.000282846,-0.00590341,1.31819,0.0040332,0.024873,629,911,-32.4891,-2.25048
-588,113,-32.446,1.8009,-0.00557131,-0.000613421,0.00107327,-0.000391054,-0.00579367,1.3665,0.00373892,0.0292999,636,911,-32.446,-1.80087
-581,113,-32.4744,1.36792,-0.00548946,-0.000588887,0.000749713,-0.000476758,-0.00560159,1.42233,0.00358606,0.0301508,643,911,-32.4744,-1.36793
-574,113,-32.468,0.785217,0,0,0,0,0,0,0,-1,650,911,-32.468,-0.785188
-567,113,-21.8396,0.437378,0,0,0,0,0,0,0,-1,657,911,-21.8396,-0.437351
-560,113,-36.3039,0.670288,0,0,0,0,0,0,0,-1,664,911,-36.3039,-0.670293
-553,113,-36.297,0.926147,-0.0041619,-0.000653965,-0.00154758,-6.88273e-05,-0.00474703,-1.20931,0.003142,0.0379365,671,911,-36.297,-0.926146
-546,113,-36.259,1.00751,-0.00375924,-0.000244048,-0.00218228,0.000800406,-0.00480369,-1.12441,0.0034999,0.0339062,678,911,-36.259,-1.00752
-539,113,-36.1572,1.07825,-0.00309647,0.000307282,-0.00286451,0.00193734,-0.00472653,-1.05344,0.00395813,0.0361404,685,911,-36.1572,-1.07828
-532,113,-36.0887,0.920593,-0.00230287,0.00100235,-0.00366466,0.0033698,-0.00467032,-0.997224,0.00466216,0.0381736,692,911,-36.0887,-0.920582
-525,113,-36.1512,0.81427,-0.00194547,0.0018307,-0.0047308,0.00503627,-0.00515104,-0.975265,0.00588177,0.037823,699,911,-36.1512,-0.814287
-518,113,-36.2955,0.757629,-0.00295912,0.00260167,-0.00614542,0.0065664,-0.00692386,-0.997836,0.00778951,0.0395224,706,911,-36.2955,-0.757658
-511,113,-36.4285,0.646667,-0.00334804,0.00349132,-0.00768027,0.00847883,-0.00833554,-0.994849,0.0097079,0.0409019,713,911,-36.4285,-0.646676
-504,113,0,0,0,0,0,0,0,0,0,-1,720,911,0,0
-497,113,0,0,0,0,0,0,0,0,0,-1,727,911,0,0
-490,113,0,0,0,0,0,0,0,0,0,-1,734,911,0,0
-483,113,0,0,0,0,0,0,0,0,0,-1,741,911,0,0
-476,113,0,0,0,0,0,0,0,0,0,-1,748,911,0,0
-469,113,0,0,0,0,0,0,0,0,0,-1,755,911,0,0
-462,113,0,0,0,0,0,0,0,0,0,-1,762,911,0,0
-455,113,0,0,0,0,0,0,0,0,0,-1,769,911,0,0
-448,113,0,0,0,0,0,0,0,0,0,-1,776,911,0,0
-441,113,0,0,0,0,0,0,0,0,0,-1,783,911,0,0
-434,113,0,0,0,0,0,0,0,0,0,-1,790,911,0,0
-427,113,0,0,0,0,0,0,0,0,0,-1,797,911,0,0
-420,113,0,0,0,0,0,0,0,0,0,-1,804,911,0,0
-413,113,0,0,0,0,0,0,0,0,0,-1,811,911,0,0
-406,113,0,0,0,0,0,0,0,0,0,-1,818,911,0,0
-399,113,0,0,0,0,0,0,0,0,0,-1,825,911,0,0
-392,113,0,0,0,0,0,0,0,0,0,-1,832,911,0,0
-385,113,0,0,0,0,0,0,0,0,0,-1,839,911,0,0
-378,113,0,0,0,0,0,0,0,0,0,-1,846,911,0,0
-371,113,0,0,0,0,0,0,0,0,0,-1,853,911,0,0
-364,113,0,0,0,0,0,0,0,0,0,-1,860,911,0,0
-357,113,0,0,0,0,0,0,0,0,0,-1,867,911,0,0
-350,113,0,0,0,0,0,0,0,0,0,-1,874,911,0,0
-343,113,0,0,0,0,0,0,0,0,0,-1,881,911,0,0
-336,113,0,0,0,0,0,0,0,0,0,-1,888,911,0,0
-329,113,0,0,0,0,0,0,0,0,0,-1,895,911,0,0
-322,113,0,0,0,0,0,0,0,0,0,-1,902,911,0,0
-315,113,0,0,0,0,0,0,0,0,0,-1,909,911,0,0
-308,113,0,0,0,0,0,0,0,0,0,-1,916,911,0,0
-301,113,0,0,0,0,0,0,0,0,0,-1,923,911,0,0
-294,113,0,0,0,0,0,0,0,0,0,-1,930,911,0,0
-287,113,0,0,0,0,0,0,0,0,0,-1,937,911,0,0
-280,113,0,0,0,0,0,0,0,0,0,-1,944,911,0,0
-273,113,0,0,0,0,0,0,0,0,0,-1,951,911,0,0
-266,113,0,0,0,0,0,0,0,0,0,-1,958,911,0,0
-259,113,0,0,0,0,0,0,0,0,0,-1,965,911,0,0
-252,113,0,0,0,0,0,0,0,0,0,-1,972,911,0,0
-245,113,0,0,0,0,0,0,0,0,0,-1,979,911,0,0
-238,113,0,0,0,0,0,0,0,0,0,-1,986,911,0,0
-231,113,0,0,0,0,0,0,0,0,0,-1,993,911,0,0
-224,113,0,0,0,0,0,0,0,0,0,-1,1000,911,0,0
-217,113,0,0,0,0,0,0,0,0,0,-1,1007,911,0,0
-210,113,0,0,0,0,0,0,0,0,0,-1,1014,911,0,0
-203,113,0,0,0,0,0,0,0,0,0,-1,1021,911,0,0
-196,113,0,0,0,0,0,0,0,0,0,-1,1028,911,0,0
-189,113,0,0,0,0,0,0,0,0,0,-1,1035,911,0,0
-182,113,0,0,0,0,0,0,0,0,0,-1,1042,911,0,0
-175,113,0,0,0,0,0,0,0,0,0,-1,1049,911,0,0
-168,113,0,0,0,0,0,0,0,0,0,-1,1056,911,0,0
-161,113,0,0,0,0,0,0,0,0,0,-1,1063,911,0,0
-154,113,0,0,0,0,0,0,0,0,0,-1,1070,911,0,0
-147,113,0,0,0,0,0,0,0,0,0,-1,1077,911,0,0
-140,113,0,0,0,0,0,0,0,0,0,-1,1084,911,0,0
-133,113,0,0,0,0,0,0,0,0,0,-1,1091,911,0,0
-126,113,0,0,0,0,0,0,0,0,0,-1,1098,911,0,0
-119,113,0,0,0,0,0,0,0,0,0,-1,1105,911,0,0
-112,113,0,0,0,0,0,0,0,0,0,-1,1112,911,0,0
-105,113,0,0,0,0,0,0,0,0,0,-1,1119,911,0,0
-98,113,0,0,0,0,0,0,0,0,0,-1,1126,911,0,0
-91,113,0,0,0,0,0,0,0,0,0,-1,1133,911,0,0
-84,113,0,0,0,0,0,0,0,0,0,-1,1140,911,0,0
-77,113,0,0,0,0,0,0,0,0,0,-1,1147,911,0,0
-70,113,0,0,0,0,0,0,0,0,0,-1,1154,911,0,0
-63,113,0,0,0,0,0,0,0,0,0,-1,1161,911,0,0
-56,113,0,0,0,0,0,0,0,0,0,-1,1168,911,0,0
-49,113,0,0,0,0,0,0,0,0,0,-1,1175,911,0,0
-42,113,0,0,0,0,0,0,0,0,0,-1,1182,911,0,0
-35,113,0,0,0,0,0,0,0,0,0,-1,1189,911,0,0
-28,113,0,0,0,0,0,0,0,0,0,-1,1196,911,0,0
-21,113,0,0,0,0,0,0,0,0,0,-1,1203,911,0,0
-14,113,0,0,0,0,0,0,0,0,0,-1,1210,911,0,0
-7,113,0,0,0,0,0,0,0,0,0,-1,1217,911,0,0
0,113,0,0,0,0,0,0,0,0,0,-1,1224,911,0,0
7,113,0,0,0,0,0,0,0,0,0,-1,1231,911,0,0
14,113,0,0,0,0,0,0,0,0,0,-1,1238,911,0,0
21,113,0,0,0,0,0,0,0,0,0,-1,1245,911,0,0
28,113,0,0,0,0,0,0,0,0,0,-1,1252,911,0,0
35,113,0,0,0,0,0,0,0,0,0,-1,1259,911,0,0
42,113,0,0,0,0,0,0,0,0,0,-1,1266,911,0,0
49,113,0,0,0,0,0,0,0,0,0,-1,1273,911,0,0
56,113,0,0,0,0,0,0,0,0,0,-1,1280,911,0,0
63,113,0,0,0,0,0,0,0,0,0,-1,1287,911,0,0
70,113,0,0,0,0,0,0,0,0,0,-1,1294,911,0,0
77,113,0,0,0,0,0,0,0,0,0,-1,1301,911,0,0
84,113,0,0,0,0,0,0,0,0,0,-1,1308,911,0,0
91,113,0,0,0,0,0,0,0,0,0,-1,1315,911,0,0
98,113,0,0,0,0,0,0,0,0,0,-1,1322,911,0,0
105,113,0,0,0,0,0,0,0,0,0,-1,1329,911,0,0
112,113,0,0,0,0,0,0,0,0,0,-1,1336,911,0,0
119,113,0,0,0,0,0,0,0,0,0,-1,1343,911,0,0
126,113,0,0,0,0,0,0,0,0,0,-1,1350,911,0,0
133,113,0,0,0,0,0,0,0,0,0,-1,1357,911,0,0
140,113,0,0,0,0,0,0,0,0,0,-1,1364,911,0,0
147,113,0,0,0,0,0,0,0,0,0,-1,1371,911,0,0
154,113,0,0,0,0,0,0,0,0,0,-1,1378,911,0,0
161,113,0,0,0,0,0,0,0,0,0,-1,1385,911,0,0
168,113,0,0,0,0,0,0,0,0,0,-1,1392,911,0,0
175,113,0,0,0,0,0,0,0,0,0,-1,1399,911,0,0
182,113,0,0,0,0,0,0,0,0,0,-1,1406,911,0,0
189,113,0,0,0,0,0,0,0,0,0,-1,1413,911,0,0
196,113,0,0,0,0,0,0,0,0,0,-1,1420,911,0,0
203,113,0,0,0,0,0,0,0,0,0,-1,1427,911,0,0
210,113,0,0,0,0,0,0,0,0,0,-1,1434,911,0,0
217,113,0,0,0,0,0,0,0,0,0,-1,1441,911,0,0
224,113,0,0,0,0,0,0,0,0,0,-1,1448,911,0,0
231,113,0,0,0,0,0,0,0,0,0,-1,1455,911,0,0
238,113,0,0,0,0,0,0,0,0,0,-1,1462,911,0,0
245,113,0,0,0,0,0,0,0,0,0,-1,1469,911,0,0
252,113,0,0,0,0,0,0,0,0,0,-1,1476,911,0,0
259,113,0,0,0,0,0,0,0,0,0,-1,1483,911,0,0
266,113,0,0,0,0,0,0,0,0,0,-1,1490,911,0,0
273,113,0,0,0,0,0,0,0,0,0,-1,1497,911,0,0
280,113,0,0,0,0,0,0,0,0,0,-1,1504,911,0,0
287,113,0,0,0,0,0,0,0,0,0,-1,1511,911,0,0
294,113,0,0,0,0,0,0,0,0,0,-1,1518,911,0,0
301,113,0,0,0,0,0,0,0,0,0,-1,1525,911,0,0
308,113,0,0,0,0,0,0,0,0,0,-1,1532,911,0,0
315,113,0,0,0,0,0,0,0,0,0,-1,1539,911,0,0
322,113,0,0,0,0,0,0,0,0,0,-1,1546,911,0,0
329,113,0,0,0,0,0,0,0,0,0,-1,1553,911,0,0
336,113,0,0,0,0,0,0,0,0,0,-1,1560,911,0,0
343,113,0,0,0,0,0,0,0,0,0,-1,1567,911,0,0
350,113,0,0,0,0,0,0,0,0,0,-1,1574,911,0,0
357,113,0,0,0,0,0,0,0,0,0,-1,1581,911,0,0
364,113,0,0,0,0,0,0,0,0,0,-1,1588,911,0,0
371,113,0,0,0,0,0,0,0,0,0,-1,1595,911,0,0
378,113,0,0,0,0,0,0,0,0,0,-1,1602,911,0,0
385,113,0,0,0,0,0,0,0,0,0,-1,1609,911,0,0
392,113,0,0,0,0,0,0,0,0,0,-1,1616,911,0,0
399,113,0,0,0,0,0,0,0,0,0,-1,1623,911,0,0
406,113,0,0,0,0,0,0,0,0,0,-1,1630,911,0,0
413,113,0,0,0,0,0,0,0,0,0,-1,1637,911,0,0
420,113,0,0,0,0,0,0,0,0,0,-1,1644,911,0,0
427,113,0,0,0,0,0,0,0,0,0,-1,1651,911,0,0
434,113,0,0,0,0,0,0,0,0,0,-1,1658,911,0,0
441,113,0,0,0,0,0,0,0,0,0,-1,1665,911,0,0
448,113,0,0,0,0,0,0,0,0,0,-1,1672,911,0,0
455,113,0,0,0,0,0,0,0,0,0,-1,1679,911,0,0
462,113,0,0,0,0,0,0,0,0,0,-1,1686,911,0,0
469,113,0,0,0,0,0,0,0,0,0,-1,1693,911,0,0
476,113,0,0,0,0,0,0,0,0,0,-1,1700,911,0,0
483,113,0,0,0,0,0,0,0,0,0,-1,1707,911,0,0
490,113,0,0,0,0,0,0,0,0,0,-1,1714,911,0,0
497,113,0,0,0,0,0,0,0,0,0,-1,1721,911,0,0
504,113,0,0,0,0,0,0,0,0,0,-1,1728,911,0,0
511,113,0,0,0,0,0,0,0,0,0,-1,1735,911,0,0
518,113,0,0,0,0,0,0,0,0,0,-1,1742,911,0,0
525,113,0,0,0,0,0,0,0,0,0,-1,1749,911,0,0
532,113,0,0,0,0,0,0,0,0,0,-1,1756,911,0,0
539,113,0,0,0,0,0,0,0,0,0,-1,1763,911,0,0
546,113,0,0,0,0,0,0,0,0,0,-1,1770,911,0,0
553,113,0,0,0,0,0,0,0,0,0,-1,1777,911,0,0
560,113,0,0,0,0,0,0,0,0,0,-1,1784,911,0,0
567,113,0,0,0,0,0,0,0,0,0,-1,1791,911,0,0
574,113,0,0,0,0,0,0,0,0,0,-1,1798,911,0,0
581,113,0,0,0,0,0,0,0,0,0,-1,1805,911,0,0
588,113,0,0,0,0,0,0,0,0,0,-1,1812,911,0,0
595,113,0,0,0,0,0,0,0,0,0,-1,1819,911,0,0
602,113,0,0,0,0,0,0,0,0,0,-1,1826,911,0,0
609,113,0,0,0,0,0,0,0,0,0,-1,1833,911,0,0
616,113,0,0,0,0,0,0,0,0,0,-1,1840,911,0,0
623,113,0,0,0,0,0,0,0,0,0,-1,1847,911,0,0
630,113,48.6361,2.71643,-0.00193547,-0.0035868,-0.00619552,0.00348916,-0.00901143,-0.719154,0.00744827,0.0406264,1854,911,48.6361,-2.7164
637,113,48.7136,2.84265,-0.00194701,-0.00198261,-0.00492596,0.00296119,-0.0068908,-0.783592,0.00583692,0.0382317,1861,911,48.7137,-2.84267
644,113,48.6953,2.73285,-0.00178723,-0.000902993,-0.00363381,0.0023155,-0.00500572,-0.845935,0.00432098,0.0358309,1868,911,48.6953,-2.73283
651,113,48.5619,2.66296,-0.00143128,-0.000293738,-0.00245,0.00165264,-0.00337766,-0.899453,0.00296062,0.038088,1875,911,48.5619,-2.66298
658,113,48.5496,2.55518,-0.000891742,0.000139865,-0.00132939,0.00105001,-0.00180189,-0.970457,0.00166551,0.0410367,1882,911,48.5495,-2.55518
665,113,48.5105,2.67377,-0.000370298,0.000309982,-0.000548878,0.000615568,-0.000675884,-1.06279,0.000745891,0.0376795,1889,911,48.5105,-2.67378
672,113,48.5161,2.67859,1.05627e-06,0.00020997,-1.22497e-05,0.000210686,3.40464e-07,-1.51243,0.000140344,0.0351593,1896,911,48.5161,-2.67858
679,113,48.5721,2.53558,0.000316828,0.000170902,0.000318895,0.000571001,-8.32713e-05,0.672934,0.000411244,0.0295117,1903,911,48.5721,-2.53561
686,113,48.572,2.6698,0.000449695,6.8491e-05,0.000452319,0.000749931,-0.000231744,0.585994,0.000592506,0.0301798,1910,911,48.572,-2.66982
693,113,48.7054,2.45056,0,0,0,0,0,0,0,-1,1917,911,48.7055,-2.45055
700,113,43.897,2.79669,0,0,0,0,0,0,0,-1,1924,911,43.897,-2.79671
707,113,43.655,3.34741,0,0,0,0,0,0,0,-1,1931,911,43.655,-3.34744
714,113,43.6918,3.80432,-0.000183991,0.000304984,1.89446e-05,0.000305717,-0.000184724,1.53213,0.000286014,0.0231232,1938,911,43.6917,-3.8043
721,113,43.6885,4.26941,-0.000751436,0.000606016,-0.000232107,0.000644606,-0.000790027,-1.40604,0.000829703,0.021838,1945,911,43.6885,-4.26938
728,113,43.7603,4.78693,-0.00151179,0.00111179,-0.00031347,0.00114873,-0.00154872,-1.45351,0.00156307,0.0227779,1952,911,43.7603,-4.7869
735,113,43.7002,5.25775,-0.00227949,0.00185086,-0.000638961,0.00194744,-0.00237608,-1.42077,0.00250027,0.019947,1959,911,43.7002,-5.25778
742,113,43.6643,5.69489,-0.00323308,0.0030814,-0.000916416,0.00321171,-0.00336339,-1.42955,0.00379647,0.0134926,1966,911,43.6642,-5.69487
749,113,43.6777,6.14209,-0.00428405,0.00470378,-0.000877606,0.00478867,-0.00436894,-1.47437,0.005289,0.0102869,1973,911,43.6777,-6.14207
756,113,43.6093,6.60901,-0.00522671,0.00662716,-0.0004666,0.00664549,-0.00524505,-1.53151,0.00688086,0.0138842,1980,911,43.6093,-6.60903
763,113,43.4747,7.10938,-0.00583921,0.00884288,0.000397891,0.00885365,-0.00584999,1.54372,0.00854799,0.0289982,1987,911,43.4747,-7.10939
770,113,43.3654,7.61261,0,0,0,0,0,0,0,-1,1994,911,43.3653,-7.61259
777,113,41.8534,7.79913,0,0,0,0,0,0,0,-1,2001,911,41.8533,-7.79911
784,113,42.8354,6.22766,0,0,0,0,0,0,0,-1,2008,911,42.8355,-6.22766
791,113,41.7288,7.26263,0,0,0,0,0,0,0,-1,2015,911,41.7287,-7.26261
798,113,41.9556,6.86206,0,0,0,0,0,0,0,-1,2022,911,41.9555,-6.86204
805,113,0,0,0,0,0,0,0,0,0,-1,2029,911,0,0
812,113,0,0,0,0,0,0,0,0,0,-1,2036,911,0,0
-700,106,0,0,0,0,0,0,0,0,0,-1,524,918,0,0
-693,106,0,0,0,0,0,0,0,0,0,-1,531,918,0,0
-686,106,0,0,0,0,0,0,0,0,0,-1,538,918,0,0
-679,106,-33.0699,6.67871,0,0,0,0,0,0,0,-1,545,918,-33.0699,-6.67869
-672,106,-33.0441,6.77197,0,0,0,0,0,0,0,-1,552,918,-33.0442,-6.77196
-665,106,-32.7547,6.94861,0,0,0,0,0,0,0,-1,559,918,-32.7547,-6.94862
-658,106,-32.1507,6.82391,0,0,0,0,0,0,0,-1,566,918,-32.1507,-6.82389
-651,106,-32.0419,4.14575,0,0,0,0,0,0,0,-1,573,918,-32.0419,-4.14573
-644,106,-32.5163,5.23682,0,0,0,0,0,0,0,-1,580,918,-32.5163,-5.23684
-637,106,-32.538,4.63177,-0.00235859,0.0358336,0.0233617,0.0469109,-0.0134358,1.12803,0.0365844,0.0333901,587,918,-32.538,-4.63177
-630,106,-32.7826,4.26556,0.00088352,0.0232458,0.0167719,0.0322219,-0.00809258,1.0794,0.0246261,0.0156132,594,918,-32.7826,-4.26555
-623,106,-32.9025,3.76758,0.00127219,0.0135706,0.0112786,0.0202674,-0.00542462,1.03498,0.0156367,0.0146341,601,918,-32.9025,-3.7676
-616,106,-32.9328,3.35559,-0.00088368,0.00646625,0.00687302,0.0105851,-0.00500255,1.03091,0.00918992,0.0144158,608,918,-32.9328,-3.35557
-609,106,-32.9099,2.98889,-0.00354044,0.00241482,0.00386877,0.00431917,-0.00544479,1.11338,0.00564969,0.0114822,615,918,-32.9099,-2.9889
-602,106,-32.9229,2.56122,-0.005724,0.000749684,0.00219908,0.00142604,-0.00640035,1.27242,0.00481319,0.0184285,622,918,-32.9229,-2.5612
-595,106,-33.0389,2.19037,-0.00678525,6.61712e-05,0.00127399,0.000295394,-0.00701448,1.39278,0.00477783,0.0226634,629,918,-33.0389,-2.19036
-588,106,-33.0269,1.7464,-0.0069862,-0.000446307,0.000794047,-0.000351278,-0.00708123,1.45169,0.00460819,0.026694,636,918,-33.0269,-1.74643
-581,106,-32.8579,1.27948,-0.0069282,-0.000398361,0.000416434,-0.00037191,-0.00695465,1.50736,0.00451757,0.0171179,643,918,-32.8579,-1.27948
-574,106,-32.8364,0.848511,0,0,0,0,0,0,0,-1,650,918,-32.8364,-0.848533
-567,106,-36.2079,0.840881,0,0,0,0,0,0,0,-1,657,918,-36.208,-0.840858
-560,106,-36.23,0.867798,-0.00601687,-0.000674166,-0.00131667,-0.000367306,-0.00632373,-1.34183,0.00409887,0.0490332,664,918,-36.23,-0.867774
-553,106,-36.2983,0.947327,-0.00559164,-0.000514329,-0.00186785,9.87852e-05,-0.00620475,-1.25363,0.00416982,0.0343169,671,918,-36.2983,-0.947344
-546,106,-36.2057,0.969971,-0.0049872,-0.000196796,-0.00246415,0.000844431,-0.00602843,-1.171,0.00432798,0.037076,678,918,-36.2057,-0.969975
-539,106,-36.1603,1,-0.00398417,0.000211487,-0.00309465,0.00185234,-0.00562503,-1.08326,0.0044965,0.0392979,685,918,-36.1604,-1.00002
-532,106,-36.1288,0.960999,-0.0026677,0.000590846,-0.00382743,0.00312135,-0.00519821,-0.986623,0.00485293,0.0420329,692,918,-36.1288,-0.961007
-525,106,-36.2173,0.860718,-0.00175504,0.000852746,-0.0048215,0.00454355,-0.00544584,-0.917456,0.00577522,0.0404063,699,918,-36.2173,-0.86071
-518,106,-36.3532,0.69751,-0.00294439,0.000794455,-0.00624833,0.00544702,-0.00759695,-0.930754,0.00756496,0.0396349,706,918,-36.3532,-0.69752
-511,106,0,0,0,0,0,0,0,0,0,-1,713,918,0,0
-504,106,0,0,0,0,0,0,0,0,0,-1,720,918,0,0
-497,106,0,0,0,0,0,0,0,0,0,-1,727,918,0,0
-490,106,0,0,0,0,0,0,0,0,0,-1,734,918,0,0
-483,106,0,0,0,0,0,0,0,0,0,-1,741,918,0,0
-476,106,0,0,0,0,0,0,0,0,0,-1,748,918,0,0
-469,106,0,0,0,0,0,0,0,0,0,-1,755,918,0,0
-462,106,0,0,0,0,0,0,0,0,0,-1,762,918,0,0
-455,106,0,0,0,0,0,0,0,0,0,-1,769,918,0,0
-448,106,0,0,0,0,0,0,0,0,0,-1,776,918,0,0
-441,106,0,0,0,0,0,0,0,0,0,-1,783,918,0,0
-434,106,0,0,0,0,0,0,0,0,0,-1,790,918,0,0
-427,106,0,0,0,0,0,0,0,0,0,-1,797,918,0,0
-420,106,0,0,0,0,0,0,0,0,0,-1,804,918,0,0
-413,106,0,0,0,0,0,0,0,0,0,-1,811,918,0,0
-406,106,0,0,0,0,0,0,0,0,0,-1,818,918,0,0
-399,106,0,0,0,0,0,0,0,0,0,-1,825,918,0,0
-392,106,0,0,0,0,0,0,0,0,0,-1,832,918,0,0
-385,106,0,0,0,0,0,0,0,0,0,-1,839,918,0,0
-378,106,0,0,0,0,0,0,0,0,0,-1,846,918,0,0
-371,106,0,0,0,0,0,0,0,0,0,-1,853,918,0,0
-364,106,0,0,0,0,0,0,0,0,0,-1,860,918,0,0
-357,106,0,0,0,0,0,0,0,0,0,-1,867,918,0,0
-350,106,0,0,0,0,0,0,0,0,0,-1,874,918,0,0
-343,106,0,0,0,0,0,0,0,0,0,-1,881,918,0,0
-336,106,0,0,0,0,0,0,0,0,0,-1,888,918,0,0
-329,106,0,0,0,0,0,0,0,0,0,-1,895,918,0,0
-322,106,0,0,0,0,0,0,0,0,0,-1,902,918,0,0
-315,106,0,0,0,0,0,0,0,0,0,-1,909,918,0,0
-308,106,0,0,0,0,0,0,0,0,0,-1,916,918,0,0
-301,106,0,0,0,0,0,0,0,0,0,-1,923,918,0,0
-294,106,0,0,0,0,0,0,0,0,0,-1,930,918,0,0
-287,106,0,0,0,0,0,0,0,0,0,-1,937,918,0,0
-280,106,0,0,0,0,0,0,0,0,0,-1,944,918,0,0
-273,106,0,0,0,0,0,0,0,0,0,-1,951,918,0,0
-266,106,0,0,0,0,0,0,0,0,0,-1,958,918,0,0
-259,106,0,0,0,0,0,0,0,0,0,-1,965,918,0,0
-252,106,0,0,0,0,0,0,0,0,0,-1,972,918,0,0
-245,106,0,0,0,0,0,0,0,0,0,-1,979,918,0,0
-238,106,0,0,0,0,0,0,0,0,0,-1,986,918,0,0
-231,106,0,0,0,0,0,0,0,0,0,-1,993,918,0,0
-224,106,0,0,0,0,0,0,0,0,0,-1,1000,918,0,0
-217,106,0,0,0,0,0,0,0,0,0,-1,1007,918,0,0
-210,106,0,0,0,0,0,0,0,0,0,-1,1014,918,0,0
-203,106,0,0,0,0,0,0,0,0,0,-1,1021,918,0,0
-196,106,0,0,0,0,0,0,0,0,0,-1,1028,918,0,0
-189,106,0,0,0,0,0,0,0,0,0,-1,1035,918,0,0
-182,106,0,0,0,0,0,0,0,0,0,-1,1042,918,0,0
-175,106,0,0,0,0,0,0,0,0,0,-1,1049,918,0,0
-168,106,0,0,0,0,0,0,0,0,0,-1,1056,918,0,0
-161,106,0,0,0,0,0,0,0,0,0,-1,1063,918,0,0
-154,106,0,0,0,0,0,0,0,0,0,-1,1070,918,0,0
-147,106,0,0,0,0,0,0,0,0,0,-1,1077,918,0,0
-140,106,0,0,0,0,0,0,0,0,0,-1,1084,918,0,0
-133,106,0,0,0,0,0,0,0,0,0,-1,1091,918,0,0
-126,106,0,0,0,0,0,0,0,0,0,-1,1098,918,0,0
-119,106,0,0,0,0,0,0,0,0,0,-1,1105,918,0,0
-112,106,0,0,0,0,0,0,0,0,0,-1,1112,918,0,0
-105,106,0,0,0,0,0,0,0,0,0,-1,1119,918,0,0
-98,106,0,0,0,0,0,0,0,0,0,-1,1126,918,0,0
-91,106,0,0,0,0,0,0,0,0,0,-1,1133,918,0,0
-84,106,0,0,0,0,0,0,0,0,0,-1,1140,918,0,0
-77,106,0,0,0,0,0,0,0,0,0,-1,1147,918,0,0
-70,106,0,0,0,0,0,0,0,0,0,-1,1154,918,0,0
-63,106,0,0,0,0,0,0,0,0,0,-1,1161,918,0,0
-56,106,0,0,0,0,0,0,0,0,0,-1,1168,918,0,0
-49,106,0,0,0,0,0,0,0,0,0,-1,1175,918,0,0
-42,106,0,0,0,0,0,0,0,0,0,-1,1182,918,0,0
-35,106,0,0,0,0,0,0,0,0,0,-1,1189,918,0,0
-28,106,0,0,0,0,0,0,0,0,0,-1,1196,918,0,0
-21,106,0,0,0,0,0,0,0,0,0,-1,1203,918,0,0
-14,106,0,0,0,0,0,0,0,0,0,-1,1210,918,0,0
-7,106,0,0,0,0,0,0,0,0,0,-1,1217,918,0,0
0,106,0,0,0,0,0,0,0,0,0,-1,1224,918,0,0
7,106,0,0,0,0,0,0,0,0,0,-1,1231,918,0,0
14,106,0,0,0,0,0,0,0,0,0,-1,1238,918,0,0
21,106,0,0,0,0,0,0,0,0,0,-1,1245,918,0,0
28,106,0,0,0,0,0,0,0,0,0,-1,1252,918,0,0
35,106,0,0,0,0,0,0,0,0,0,-1,1259,918,0,0
42,106,0,0,0,0,0,0,0,0,0,-1,1266,918,0,0
49,106,0,0,0,0,0,0,0,0,0,-1,1273,918,0,0
56,106,0,0,0,0,0,0,0,0,0,-1,1280,918,0,0
63,106,0,0,0,0,0,0,0,0,0,-1,1287,918,0,0
70,106,0,0,0,0,0,0,0,0,0,-1,1294,918,0,0
77,106,0,0,0,0,0,0,0,0,0,-1,1301,918,0,0
84,106,0,0,0,0,0,0,0,0,0,-1,1308,918,0,0
91,106,0,0,0,0,0,0,0,0,0,-1,1315,918,0,0
98,106,0,0,0,0,0,0,0,0,0,-1,1322,918,0,0
105,106,0,0,0,0,0,0,0,0,0,-1,1329,918,0,0
112,106,0,0,0,0,0,0,0,0,0,-1,1336,918,0,0
119,106,0,0,0,0,0,0,0,0,0,-1,1343,918,0,0
126,106,0,0,0,0,0,0,0,0,0,-1,1350,918,0,0
133,106,0,0,0,0,0,0,0,0,0,-1,1357,918,0,0
140,106,0,0,0,0,0,0,0,0,0,-1,1364,918,0,0
147,106,0,0,0,0,0,0,0,0,0,-1,1371,918,0,0
154,106,0,0,0,0,0,0,0,0,0,-1,1378,918,0,0
161,106,0,0,0,0,0,0,0,0,0,-1,1385,918,0,0
168,106,0,0,0,0,0,0,0,0,0,-1,1392,918,0,0
175,106,0,0,0,0,0,0,0,0,0,-1,1399,918,0,0
182,106,0,0,0,0,0,0,0,0,0,-1,1406,918,0,0
189,106,0,0,0,0,0,0,0,0,0,-1,1413,918,0,0
196,106,0,0,0,0,0,0,0,0,0,-1,1420,918,0,0
203,106,0,0,0,0,0,0,0,0,0,-1,1427,918,0,0
210,106,0,0,0,0,0,0,0,0,0,-1,1434,918,0,0
217,106,0,0,0,0,0,0,0,0,0,-1,1441,918,0,0
224,106,0,0,0,0,0,0,0,0,0,-1,1448,918,0,0
231,106,0,0,0,0,0,0,0,0,0,-1,1455,918,0,0
238,106,0,0,0,0,0,0,0,0,0,-1,1462,918,0,0
245,106,0,0,0,0,0,0,0,0,0,-1,1469,918,0,0
252,106,0,0,0,0,0,0,0,0,0,-1,1476,918,0,0
259,106,0,0,0,0,0,0,0,0,0,-1,1483,918,0,0
266,106,0,0,0,0,0,0,0,0,0,-1,1490,918,0,0
273,106,0,0,0,0,0,0,0,0,0,-1,1497,918,0,0
280,106,0,0,0,0,0,0,0,0,0,-1,1504,918,0,0
287,106,0,0,0,0,0,0,0,0,0,-1,1511,918,0,0
294,106,0,0,0,0,0,0,0,0,0,-1,1518,918,0,0
301,106,0,0,0,0,0,0,0,0,0,-1,1525,918,0,0
308,106,0,0,0,0,0,0,0,0,0,-1,1532,918,0,0
315,106,0,0,0,0,0,0,0,0,0,-1,1539,918,0,0
322,106,0,0,0,0,0,0,0,0,0,-1,1546,918,0,0
329,106,0,0,0,0,0,0,0,0,0,-1,1553,918,0,0
336,106,0,0,0,0,0,0,0,0,0,-1,1560,918,0,0
343,106,0,0,0,0,0,0,0,0,0,-1,1567,918,0,0
350,106,0,0,0,0,0,0,0,0,0,-1,1574,918,0,0
357,106,0,0,0,0,0,0,0,0,0,-1,1581,918,0,0
364,106,0,0,0,0,0,0,0,0,0,-1,1588,918,0,0
371,106,0,0,0,0,0,0,0,0,0,-1,1595,918,0,0
378,106,0,0,0,0,0,0,0,0,0,-1,1602,918,0,0
385,106,0,0,0,0,0,0,0,0,0,-1,1609,918,0,0
392,106,0,0,0,0,0,0,0,0,0,-1,1616,918,0,0
399,106,0,0,0,0,0,0,0,0,0,-1,1623,918,0,0
406,106,0,0,0,0,0,0,0,0,0,-1,1630,918,0,0
413,106,0,0,0,0,0,0,0,0,0,-1,1637,918,0,0
420,106,0,0,0,0,0,0,0,0,0,-1,1644,918,0,0
427,106,0,0,0,0,0,0,0,0,0,-1,1651,918,0,0
434,106,0,0,0,0,0,0,0,0,0,-1,1658,918,0,0
441,106,0,0,0,0,0,0,0,0,0,-1,1665,918,0,0
448,106,0,0,0,0,0,0,0,0,0,-1,1672,918,0,0
455,106,0,0,0,0,0,0,0,0,0,-1,1679,918,0,0
462,106,0,0,0,0,0,0,0,0,0,-1,1686,918,0,0
469,106,0,0,0,0,0,0,0,0,0,-1,1693,918,0,0
476,106,0,0,0,0,0,0,0,0,0,-1,1700,918,0,0
483,106,0,0,0,0,0,0,0,0,0,-1,1707,918,0,0
490,106,0,0,0,0,0,0,0,0,0,-1,1714,918,0,0
497,106,0,0,0,0,0,0,0,0,0,-1,1721,918,0,0
504,106,0,0,0,0,0,0,0,0,0,-1,1728,918,0,0
511,106,0,0,0,0,0,0,0,0,0,-1,1735,918,0,0
518,106,0,0,0,0,0,0,0,0,0,-1,1742,918,0,0
525,106,0,0,0,0,0,0,0,0,0,-1,1749,918,0,0
532,106,0,0,0,0,0,0,0,0,0,-1,1756,918,0,0
539,106,0,0,0,0,0,0,0,0,0,-1,1763,918,0,0
546,106,0,0,0,0,0,0,0,0,0,-1,1770,918,0,0
553,106,0,0,0,0,0,0,0,0,0,-1,1777,918,0,0
560,106,0,0,0,0,0,0,0,0,0,-1,1784,918,0,0
567,106,0,0,0,0,0,0,0,0,0,-1,1791,918,0,0
574,106,0,0,0,0,0,0,0,0,0,-1,1798,918,0,0
581,106,0,0,0,0,0,0,0,0,0,-1,1805,918,0,0
588,106,0,0,0,0,0,0,0,0,0,-1,1812,918,0,0
595,106,0,0,0,0,0,0,0,0,0,-1,1819,918,0,0
602,106,0,0,0,0,0,0,0,0,0,-1,1826,918,0,0
609,106,0,0,0,0,0,0,0,0,0,-1,1833,918,0,0
616,106,0,0,0,0,0,0,0,0,0,-1,1840,918,0,0
623,106,0,0,0,0,0,0,0,0,0,-1,1847,918,0,0
630,106,48.7725,2.86206,-0.00185617,-0.00413219,-0.00740518,0.00449793,-0.0104863,-0.709156,0.00887844,0.0417722,1854,918,48.7724,-2.86205
637,106,48.8223,2.82526,-0.00200463,-0.00224206,-0.00581387,0.00369173,-0.00793843,-0.77519,0.00686227,0.0393192,1861,918,48.8223,-2.82528
644,106,48.8558,2.6261,-0.00194209,-0.000992633,-0.00428428,0.00284314,-0.00577786,-0.840577,0.00507256,0.0373401,1868,918,48.8558,-2.62608
651,106,48.705,2.50684,-0.00164222,-0.000316062,-0.00290154,0.00199719,-0.00395548,-0.897733,0.00349822,0.0398221,1875,918,48.705,-2.50686
658,106,48.5562,2.46143,-0.001133,0.000161661,-0.00159972,0.00124006,-0.00221139,-0.977653,0.00201883,0.041238,1882,918,48.5561,-2.46141
665,106,48.4893,2.67816,-0.000569296,0.000386673,-0.000628619,0.000698391,-0.000881014,-1.11045,0.0009139,0.0412651,1889,918,48.4892,-2.67818
672,106,48.5558,2.77002,-0.000168154,0.000316682,2.88623e-05,0.000318394,-0.000169866,1.51155,0.000286212,0.0405466,1896,918,48.5558,-2.77002
679,106,48.6307,2.68274,0.000173606,0.000205055,0.000439387,0.000628999,-0.000250338,0.803285,0.00052314,0.0341374,1903,918,48.6307,-2.68272
686,106,48.5968,2.7052,0.00035557,4.51874e-05,0.000595519,0.000815787,-0.000415029,0.657934,0.000723059,0.0333147,1910,918,48.5968,-2.7052
693,106,48.6335,2.52191,0.000307616,-1.93726e-05,0.000708269,0.000871016,-0.000582772,0.671967,0.000844826,0.0378385,1917,918,48.6335,-2.52191
700,106,48.9042,2.09698,0,0,0,0,0,0,0,-1,1924,918,48.9042,-2.09699
707,106,44.075,3.27869,0,0,0,0,0,0,0,-1,1931,918,44.075,-3.2787
714,106,44.1989,3.79004,-0.000226529,0.000297668,6.40797e-05,0.000305388,-0.000234249,1.4509,0.000312461,0.0348878,1938,918,44.1989,-3.79001
721,106,44.2415,4.30585,-0.000781191,0.000585929,-0.000196779,0.000613689,-0.000808951,-1.43065,0.000823936,0.0265126,1945,918,44.2415,-4.30586
728,106,44.2858,4.81006,-0.00149295,0.00109059,-0.000271006,0.00111871,-0.00152107,-1.4674,0.00152997,0.0250707,1952,918,44.2857,-4.81007
735,106,44.2322,5.26953,-0.00219048,0.0018545,-0.000610733,0.0019447,-0.00228068,-1.42416,0.0024421,0.0222846,1959,918,44.2322,-5.26954
742,106,44.1743,5.68518,-0.00308007,0.00312541,-0.000896205,0.00325225,-0.00320691,-1.4302,0.00372923,0.012634,1966,918,44.1743,-5.68516
749,106,44.1477,6.12311,-0.00408266,0.00488214,-0.000835604,0.00495936,-0.00415988,-1.47864,0.00527174,0.010039,1973,918,44.1477,-6.1231
756,106,44.0804,6.55865,-0.0049798,0.00697754,-0.000343494,0.0069874,-0.00498966,-1.5421,0.00694695,0.012622,1980,918,44.0804,-6.55867
763,106,43.9709,7.07507,-0.0055696,0.00932192,0.000601935,0.00934621,-0.00559389,1.53046,0.00871588,0.0236781,1987,918,43.9709,-7.07506
770,106,44.0504,7.28748,-0.00580735,0.0118224,0.00195247,0.012036,-0.006021,1.46181,0.0106163,0.0441535,1994,918,44.0504,-7.28749
777,106,44.2429,7.46741,0,0,0,0,0,0,0,-1,2001,918,44.2429,-7.46739
784,106,44.9028,8.31732,0,0,0,0,0,0,0,-1,2008,918,44.9028,-8.3173
791,106,44.166,8.95978,0,0,0,0,0,0,0,-1,2015,918,44.166,-8.95977
798,106,43.1941,7.08234,0,0,0,0,0,0,0,-1,2022,918,43.1941,-7.08234
805,106,0,0,0,0,0,0,0,0,0,-1,2029,918,0,0
812,106,0,0,0,0,0,0,0,0,0,-1,2036,918,0,0
-700,99,0,0,0,0,0,0,0,0,0,-1,524,925,0,0
-693,99,0,0,0,0,0,0,0,0,0,-1,531,925,0,0
-686,99,0,0,0,0,0,0,0,0,0,-1,538,925,0,0
-679,99,-33.3807,5.37524,-0.0436779,0.150112,0.0674844,0.171296,-0.0648626,1.26662,0.140887,0.0457388,545,925,-33.3807,-5.37522
-672,99,-33.5715,5.53284,-0.0305956,0.126751,0.0624339,0.148514,-0.0523587,1.23539,0.120322,0.0466482,552,925,-33.5715,-5.53284
-665,99,-33.1886,5.68658,-0.0204569,0.104894,0.0555105,0.125942,-0.0415051,1.20837,0.100689,0.0483114,559,925,-33.1886,-5.6866
-658,99,-32.9733,5.88477,0,0,0,0,0,0,0,-1,566,925,-32.9733,-5.88475
-651,99,-32.9486,5.55048,0,0,0,0,0,0,0,-1,573,925,-32.9486,-5.55051
-644,99,-33.0032,5.08728,-0.00388337,0.0498018,0.0311308,0.0640646,-0.0181461,1.14118,0.0498713,0.0473954,580,925,-33.0033,-5.08726
-637,99,-33.0568,4.56384,-0.0019709,0.0359839,0.0237162,0.0473808,-0.0133678,1.12283,0.0368602,0.0309209,587,925,-33.0568,-4.56383
-630,99,-33.2208,4.20026,0.000832284,0.0237363,0.0170129,0.0327925,-0.0082239,1.08163,0.025057,0.0160053,594,925,-33.2207,-4.20027
-623,99,-33.3713,3.76563,0.000794889,0.0141511,0.0114483,0.0207267,-0.00578068,1.04943,0.0160945,0.011006,601,925,-33.3714,-3.76559
-616,99,-33.3792,3.35309,-0.00158432,0.00695241,0.00692016,0.0108147,-0.00544662,1.06174,0.00955747,0.0124605,608,925,-33.3791,-3.35311
-609,99,-33.3588,2.98846,-0.0043117,0.00287827,0.00380097,0.00451505,-0.00594848,1.16418,0.00605998,0.0114633,615,925,-33.3588,-2.98844
-602,99,-33.3611,2.62524,-0.00660975,0.00117672,0.0019784,0.00165056,-0.00708359,1.33572,0.005358,0.0154457,622,925,-33.3611,-2.62523
-595,99,-33.4649,2.25726,-0.00783425,0.000493694,0.000986072,0.000608857,-0.00794941,1.45453,0.00551378,0.0205061,629,925,-33.4649,-2.25726
-588,99,-33.4565,1.84302,-0.00819538,-4.683e-05,0.000504665,-1.56933e-05,-0.00822652,1.50918,0.00547912,0.0221657,636,925,-33.4565,-1.84303
-581,99,-33.3813,1.34857,-0.00823106,-4.34473e-05,9.51318e-05,-4.23421e-05,-0.00823217,1.55918,0.00547405,0.0164675,643,925,-33.3813,-1.34857
-574,99,-33.3959,0.86322,0,0,0,0,0,0,0,-1,650,925,-33.3959,-0.86325
-567,99,-36.1473,0.924744,0,0,0,0,0,0,0,-1,657,925,-36.1474,-0.92473
-560,99,-36.1057,0.897278,-0.00740215,-0.00041579,-0.00152734,-9.6479e-05,-0.00772146,-1.3647,0.00511578,0.0424276,664,925,-36.1057,-0.897307
-553,99,-36.2133,0.976563,-0.00685756,-0.000300055,-0.00203266,0.000278905,-0.00743652,-1.29332,0.00505321,0.03741,671,925,-36.2133,-0.976576
-546,99,-36.145,0.899719,-0.00596893,-8.77672e-05,-0.00256047,0.000870759,-0.00692745,-1.21259,0.00493423,0.0410697,678,925,-36.145,-0.899738
-539,99,-36.1335,0.84259,-0.00452395,0.00010349,-0.00310887,0.00166512,-0.00608558,-1.1053,0.00471122,0.0394341,685,925,-36.1336,-0.842585
-532,99,-36.2321,0.838623,-0.0025811,8.33703e-05,-0.00376209,0.00274215,-0.00523988,-0.955569,0.00468303,0.0427434,692,925,-36.2321,-0.83864
-525,99,-36.2913,0.839783,-0.0011318,-0.000188316,-0.00474268,0.00410603,-0.00542615,-0.834969,0.00552097,0.0424315,699,925,-36.2913,-0.839764
-518,99,-36.3675,0.773499,-0.00253175,-0.000785397,-0.00614072,0.00454392,-0.00786107,-0.856022,0.00724687,0.0411238,706,925,-36.3675,-0.773528
-511,99,0,0,0,0,0,0,0,0,0,-1,713,925,0,0
-504,99,0,0,0,0,0,0,0,0,0,-1,720,925,0,0
-497,99,0,0,0,0,0,0,0,0,0,-1,727,925,0,0
-490,99,0,0,0,0,0,0,0,0,0,-1,734,925,0,0
-483,99,0,0,0,0,0,0,0,0,0,-1,741,925,0,0
-476,99,0,0,0,0,0,0,0,0,0,-1,748,925,0,0
-469,99,0,0,0,0,0,0,0,0,0,-1,755,925,0,0
-462,99,0,0,0,0,0,0,0,0,0,-1,762,925,0,0
-455,99,0,0,0,0,0,0,0,0,0,-1,769,925,0,0
-448,99,0,0,0,0,0,0,0,0,0,-1,776,925,0,0
-441,99,0,0,0,0,0,0,0,0,0,-1,783,925,0,0
-434,99,0,0,0,0,0,0,0,0,0,-1,790,925,0,0
-427,99,0,0,0,0,0,0,0,0,0,-1,797,925,0,0
-420,99,0,0,0,0,0,0,0,0,0,-1,804,925,0,0
-413,99,0,0,0,0,0,0,0,0,0,-1,811,925,0,0
-406,99,0,0,0,0,0,0,0,0,0,-1,818,925,0,0
-399,99,0,0,0,0,0,0,0,0,0,-1,825,925,0,0
-392,99,0,0,0,0,0,0,0,0,0,-1,832,925,0,0
-385,99,0,0,0,0,0,0,0,0,0,-1,839,925,0,0
-378,99,0,0,0,0,0,0,0,0,0,-1,846,925,0,0
-371,99,0,0,0,0,0,0,0,0,0,-1,853,925,0,0
-364,99,0,0,0,0,0,0,0,0,0,-1,860,925,0,0
-357,99,0,0,0,0,0,0,0,0,0,-1,867,925,0,0
-350,99,0,0,0,0,0,0,0,0,0,-1,874,925,0,0
-343,99,0,0,0,0,0,0,0,0,0,-1,881,925,0,0
-336,99,0,0,0,0,0,0,0,0,0,-1,888,925,0,0
-329,99,0,0,0,0,0,0,0,0,0,-1,895,925,0,0
-322,99,0,0,0,0,0,0,0,0,0,-1,902,925,0,0
-315,99,0,0,0,0,0,0,0,0,0,-1,909,925,0,0
-308,99,0,0,0,0,0,0,0,0,0,-1,916,925,0,0
-301,99,0,0,0,0,0,0,0,0,0,-1,923,925,0,0
-294,99,0,0,0,0,0,0,0,0,0,-1,930,925,0,0
-287,99,0,0,0,0,0,0,0,0,0,-1,937,925,0,0
-280,99,0,0,0,0,0,0,0,0,0,-1,944,925,0,0
-273,99,0,0,0,0,0,0,0,0,0,-1,951,925,0,0
-266,99,0,0,0,0,0,0,0,0,0,-1,958,925,0,0
-259,99,0,0,0,0,0,0,0,0,0,-1,965,925,0,0
-252,99,0,0,0,0,0,0,0,0,0,-1,972,925,0,0
-245,99,0,0,0,0,0,0,0,0,0,-1,979,925,0,0
-238,99,0,0,0,0,0,0,0,0,0,-1,986,925,0,0
-231,99,0,0,0,0,0,0,0,0,0,-1,993,925,0,0
-224,99,0,0,0,0,0,0,0,0,0,-1,1000,925,0,0
-217,99,0,0,0,0,0,0,0,0,0,-1,1007,925,0,0
-210,99,0,0,0,0,0,0,0,0,0,-1,1014,925,0,0
-203,99,0,0,0,0,0,0,0,0,0,-1,1021,925,0,0
-196,99,0,0,0,0,0,0,0,0,0,-1,1028,925,0,0
-189,99,0,0,0,0,0,0,0,0,0,-1,1035,925,0,0
-182,99,0,0,0,0,0,0,0,0,0,-1,1042,925,0,0
-175,99,0,0,0,0,0,0,0,0,0,-1,1049,925,0,0
-168,99,0,0,0,0,0,0,0,0,0,-1,1056,925,0,0
-161,99,0,0,0,0,0,0,0,0,0,-1,1063,925,0,0
-154,99,0,0,0,0,0,0,0,0,0,-1,1070,925,0,0
-147,99,0,0,0,0,0,0,0,0,0,-1,1077,925,0,0
-140,99,0,0,0,0,0,0,0,0,0,-1,1084,925,0,0
-133,99,0,0,0,0,0,0,0,0,0,-1,1091,925,0,0
-126,99,0,0,0,0,0,0,0,0,0,-1,1098,925,0,0
-119,99,0,0,0,0,0,0,0,0,0,-1,1105,925,0,0
-112,99,0,0,0,0,0,0,0,0,0,-1,1112,925,0,0
-105,99,0,0,0,0,0,0,0,0,0,-1,1119,925,0,0
-98,99,0,0,0,0,0,0,0,0,0,-1,1126,925,0,0
-91,99,0,0,0,0,0,0,0,0,0,-1,1133,925,0,0
-84,99,0,0,0,0,0,0,0,0,0,-1,1140,925,0,0
-77,99,0,0,0,0,0,0,0,0,0,-1,1147,925,0,0
-70,99,0,0,0,0,0,0,0,0,0,-1,1154,925,0,0
-63,99,0,0,0,0,0,0,0,0,0,-1,1161,925,0,0
-56,99,0,0,0,0,0,0,0,0,0,-1,1168,925,0,0
-49,99,0,0,0,0,0,0,0,0,0,-1,1175,925,0,0
-42,99,0,0,0,0,0,0,0,0,0,-1,1182,925,0,0
-35,99,0,0,0,0,0,0,0,0,0,-1,1189,925,0,0
-28,99,0,0,0,0,0,0,0,0,0,-1,1196,925,0,0
-21,99,0,0,0,0,0,0,0,0,0,-1,1203,925,0,0
-14,99,0,0,0,0,0,0,0,0,0,-1,1210,925,0,0
-7,99,0,0,0,0,0,0,0,0,0,-1,1217,925,0,0
0,99,0,0,0,0,0,0,0,0,0,-1,1224,925,0,0
7,99,0,0,0,0,0,0,0,0,0,-1,1231,925,0,0
14,99,0,0,0,0,0,0,0,0,0,-1,1238,925,0,0
21,99,0,0,0,0,0,0,0,0,0,-1,1245,925,0,0
28,99,0,0,0,0,0,0,0,0,0,-1,1252,925,0,0
35,99,0,0,0,0,0,0,0,0,0,-1,1259,925,0,0
42,99,0,0,0,0,0,0,0,0,0,-1,1266,925,0,0
49,99,0,0,0,0,0,0,0,0,0,-1,1273,925,0,0
56,99,0,0,0,0,0,0,0,0,0,-1,1280,925,0,0
63,99,0,0,0,0,0,0,0,0,0,-1,1287,925,0,0
70,99,0,0,0,0,0,0,0,0,0,-1,1294,925,0,0
77,99,0,0,0,0,0,0,0,0,0,-1,1301,925,0,0
84,99,0,0,0,0,0,0,0,0,0,-1,1308,925,0,0
91,99,0,0,0,0,0,0,0,0,0,-1,1315,925,0,0
98,99,0,0,0,0,0,0,0,0,0,-1,1322,925,0,0
105,99,0,0,0,0,0,0,0,0,0,-1,1329,925,0,0
112,99,0,0,0,0,0,0,0,0,0,-1,1336,925,0,0
119,99,0,0,0,0,0,0,0,0,0,-1,1343,925,0,0
126,99,0,0,0,0,0,0,0,0,0,-1,1350,925,0,0
133,99,0,0,0,0,0,0,0,0,0,-1,1357,925,0,0
140,99,0,0,0,0,0,0,0,0,0,-1,1364,925,0,0
147,99,0,0,0,0,0,0,0,0,0,-1,1371,925,0,0
154,99,0,0,0,0,0,0,0,0,0,-1,1378,925,0,0
161,99,0,0,0,0,0,0,0,0,0,-1,1385,925,0,0
168,99,0,0,0,0,0,0,0,0,0,-1,1392,925,0,0
175,99,0,0,0,0,0,0,0,0,0,-1,1399,925,0,0
182,99,0,0,0,0,0,0,0,0,0,-1,1406,925,0,0
189,99,0,0,0,0,0,0,0,0,0,-1,1413,925,0,0
196,99,0,0,0,0,0,0,0,0,0,-1,1420,925,0,0
203,99,0,0,0,0,0,0,0,0,0,-1,1427,925,0,0
210,99,0,0,0,0,0,0,0,0,0,-1,1434,925,0,0
217,99,0,0,0,0,0,0,0,0,0,-1,1441,925,0,0
224,99,0,0,0,0,0,0,0,0,0,-1,1448,925,0,0
231,99,0,0,0,0,0,0,0,0,0,-1,1455,925,0,0
238,99,0,0,0,0,0,0,0,0,0,-1,1462,925,0,0
245,99,0,0,0,0,0,0,0,0,0,-1,1469,925,0,0
252,99,0,0,0,0,0,0,0,0,0,-1,1476,925,0,0
259,99,0,0,0,0,0,0,0,0,0,-1,1483,925,0,0
266,99,0,0,0,0,0,0,0,0,0,-1,1490,925,0,0
273,99,0,0,0,0,0,0,0,0,0,-1,1497,925,0,0
280,99,0,0,0,0,0,0,0,0,0,-1,1504,925,0,0
287,99,0,0,0,0,0,0,0,0,0,-1,1511,925,0,0
294,99,0,0,0,0,0,0,0,0,0,-1,1518,925,0,0
301,99,0,0,0,0,0,0,0,0,0,-1,1525,925,0,0
308,99,0,0,0,0,0,0,0,0,0,-1,1532,925,0,0
315,99,0,0,0,0,0,0,0,0,0,-1,1539,925,0,0
322,99,0,0,0,0,0,0,0,0,0,-1,1546,925,0,0
329,99,0,0,0,0,0,0,0,0,0,-1,1553,925,0,0
336,99,0,0,0,0,0,0,0,0,0,-1,1560,925,0,0
343,99,0,0,0,0,0,0,0,0,0,-1,1567,925,0,0
350,99,0,0,0,0,0,0,0,0,0,-1,1574,925,0,0
357,99,0,0,0,0,0,0,0,0,0,-1,1581,925,0,0
364,99,0,0,0,0,0,0,0,0,0,-1,1588,925,0,0
371,99,0,0,0,0,0,0,0,0,0,-1,1595,925,0,0
378,99,0,0,0,0,0,0,0,0,0,-1,1602,925,0,0
385,99,0,0,0,0,0,0,0,0,0,-1,1609,925,0,0
392,99,0,0,0,0,0,0,0,0,0,-1,1616,925,0,0
399,99,0,0,0,0,0,0,0,0,0,-1,1623,925,0,0
406,99,0,0,0,0,0,0,0,0,0,-1,1630,925,0,0
413,99,0,0,0,0,0,0,0,0,0,-1,1637,925,0,0
420,99,0,0,0,0,0,0,0,0,0,-1,1644,925,0,0
427,99,0,0,0,0,0,0,0,0,0,-1,1651,925,0,0
434,99,0,0,0,0,0,0,0,0,0,-1,1658,925,0,0
441,99,0,0,0,0,0,0,0,0,0,-1,1665,925,0,0
448,99,0,0,0,0,0,0,0,0,0,-1,1672,925,0,0
455,99,0,0,0,0,0,0,0,0,0,-1,1679,925,0,0
462,99,0,0,0,0,0,0,0,0,0,-1,1686,925,0,0
469,99,0,0,0,0,0,0,0,0,0,-1,1693,925,0,0
476,99,0,0,0,0,0,0,0,0,0,-1,1700,925,0,0
483,99,0,0,0,0,0,0,0,0,0,-1,1707,925,0,0
490,99,0,0,0,0,0,0,0,0,0,-1,1714,925,0,0
497,99,0,0,0,0,0,0,0,0,0,-1,1721,925,0,0
504,99,0,0,0,0,0,0,0,0,0,-1,1728,925,0,0
511,99,0,0,0,0,0,0,0,0,0,-1,1735,925,0,0
518,99,0,0,0,0,0,0,0,0,0,-1,1742,925,0,0
525,99,0,0,0,0,0,0,0,0,0,-1,1749,925,0,0
532,99,0,0,0,0,0,0,0,0,0,-1,1756,925,0,0
539,99,0,0,0,0,0,0,0,0,0,-1,1763,925,0,0
546,99,0,0,0,0,0,0,0,0,0,-1,1770,925,0,0
553,99,0,0,0,0,0,0,0,0,0,-1,1777,925,0,0
560,99,0,0,0,0,0,0,0,0,0,-1,1784,925,0,0
567,99,0,0,0,0,0,0,0,0,0,-1,1791,925,0,0
574,99,0,0,0,0,0,0,0,0,0,-1,1798,925,0,0
581,99,0,0,0,0,0,0,0,0,0,-1,1805,925,0,0
588,99,0,0,0,0,0,0,0,0,0,-1,1812,925,0,0
595,99,0,0,0,0,0,0,0,0,0,-1,1819,925,0,0
602,99,0,0,0,0,0,0,0,0,0,-1,1826,925,0,0
609,99,0,0,0,0,0,0,0,0,0,-1,1833,925,0,0
616,99,0,0,0,0,0,0,0,0,0,-1,1840,925,0,0
623,99,0,0,0,0,0,0,0,0,0,-1,1847,925,0,0
630,99,0,0,0,0,0,0,0,0,0,-1,1854,925,0,0
637,99,48.8232,2.74542,-0.00215644,-0.00263126,-0.00694845,0.00455866,-0.00934635,-0.768321,0.00818515,0.0444777,1861,925,48.8232,-2.74543
644,99,48.8594,2.46545,-0.00220385,-0.00122357,-0.00506655,0.00337649,-0.00680392,-0.833618,0.00598767,0.0408707,1868,925,48.8594,-2.46547
651,99,48.6058,2.703,-0.00194459,-0.000479322,-0.0034337,0.00229904,-0.00472295,-0.890505,0.00413387,0.0415591,1875,925,48.6059,-2.703
658,99,48.5612,2.86475,-0.00145797,8.23622e-05,-0.00193319,0.00139315,-0.00276876,-0.974957,0.00244624,0.0429209,1882,925,48.5612,-2.86476
665,99,48.5498,2.88257,-0.00085677,0.000422345,-0.000751076,0.00076927,-0.0012037,-1.13809,0.00114826,0.0425838,1889,925,48.5498,-2.88256
672,99,48.6476,2.85474,-0.000419665,0.00043462,5.8792e-05,0.000438647,-0.000423692,1.50241,0.000497897,0.0422603,1896,925,48.6476,-2.85476
679,99,48.6595,2.68719,-3.8973e-05,0.000309554,0.000553216,0.000715305,-0.000444723,0.937979,0.000675788,0.0383185,1903,925,48.6596,-2.6872
686,99,48.5913,2.70233,0.000210815,0.00013266,0.000733601,0.000906379,-0.000562904,0.758789,0.000855982,0.0312995,1910,925,48.5913,-2.70231
693,99,48.5684,2.74585,0.000209342,6.05843e-05,0.000834424,0.000972695,-0.000702769,0.740946,0.000971505,0.0356788,1917,925,48.5684,-2.74585
700,99,48.613,2.68341,0,0,0,0,0,0,0,-1,1924,925,48.613,-2.6834
707,99,44.8905,3.3335,0,0,0,0,0,0,0,-1,1931,925,44.8905,-3.3335
714,99,44.8334,3.87683,-0.000274857,0.000414543,0.000100216,0.000428816,-0.000289129,1.42933,0.000417113,0.0431194,1938,925,44.8334,-3.87681
721,99,44.6726,4.28436,-0.00081349,0.000690779,-0.000164443,0.000708546,-0.000831257,-1.46317,0.000889946,0.0295867,1945,925,44.6726,-4.28436
728,99,44.7283,4.78839,-0.0014885,0.00118494,-0.000252256,0.00120854,-0.00151209,-1.47754,0.00157401,0.0231913,1952,925,44.7283,-4.78841
735,99,44.6935,5.26746,-0.00211721,0.00192093,-0.000633279,0.00201792,-0.0022142,-1.41883,0.00244429,0.0184808,1959,925,44.6935,-5.26744
742,99,44.6556,5.69745,-0.00282734,0.00310672,-0.000920467,0.00324622,-0.00296684,-1.42039,0.00358832,0.0135202,1966,925,44.6557,-5.69745
749,99,44.6012,6.10876,-0.00346546,0.00481096,-0.000741316,0.00487684,-0.00353134,-1.48217,0.00487514,0.0121716,1973,925,44.6011,-6.10875
756,99,44.5496,6.49994,-0.0037054,0.00683599,0.000125558,0.00683748,-0.0037069,1.55889,0.00617659,0.0132839,1980,925,44.5495,-6.49996
763,99,44.4877,6.92267,-0.00338923,0.00905299,0.00156134,0.00924592,-0.00358216,1.44785,0.00764314,0.0161084,1987,925,44.4877,-6.92264
770,99,44.4872,7.41748,-0.00212009,0.0112575,0.00374438,0.0122343,-0.00309683,1.31563,0.00936079,0.0294695,1994,925,44.4872,-7.41748
777,99,44.7729,7.88037,0.000587213,0.0131833,0.00754252,0.0167115,-0.00294098,1.13326,0.0122397,0.0405759,2001,925,44.773,-7.88035
784,99,44.9741,8.40112,0,0,0,0,0,0,0,-1,2008,925,44.974,-8.40112
791,99,45.1519,8.9007,0,0,0,0,0,0,0,-1,2015,925,45.1518,-8.90068
798,99,44.5288,9.72137,0,0,0,0,0,0,0,-1,2022,925,44.5287,-9.72135
805,99,0,0,0,0,0,0,0,0,0,-1,2029,925,0,0
812,99,0,0,0,0,0,0,0,0,0,-1,2036,925,0,0
-700,92,0,0,0,0,0,0,0,0,0,-1,524,932,0,0
-693,92,0,0,0,0,0,0,0,0,0,-1,531,932,0,0
-686,92,-33.4305,4.70667,-0.069276,0.16911,0.0801203,0.193535,-0.0937014,1.27489,0.169142,0.0461518,538,932,-33.4305,-4.70668
-679,92,-33.7272,4.39709,-0.0451816,0.146278,0.0739781,0.171531,-0.0704351,1.24183,0.143706,0.0460667,545,932,-33.7272,-4.39709
-672,92,-34.08,4.51007,-0.0293713,0.123852,0.0660141,0.14837,-0.0538892,1.21518,0.120947,0.0442073,552,932,-34.08,-4.51006
-665,92,-34.0688,4.76697,-0.0182911,0.102648,0.0572707,0.125464,-0.0411072,1.19168,0.100197,0.0472969,559,932,-34.0688,-4.76696
-658,92,-33.1918,5.00549,0,0,0,0,0,0,0,-1,566,932,-33.1918,-5.00552
-651,92,-33.4438,4.93457,-0.00542096,0.0650895,0.0394386,0.0827336,-0.023065,1.15012,0.0642395,0.0456488,573,932,-33.4438,-4.93454
-644,92,-33.6019,4.93073,-0.00235526,0.0492943,0.0311137,0.0639044,-0.0169654,1.13179,0.0492421,0.0424447,580,932,-33.6019,-4.9307
-637,92,-33.6249,4.51611,-0.000837677,0.0358111,0.0236246,0.047385,-0.0124116,1.11526,0.0364387,0.0255492,587,932,-33.6248,-4.51613
-630,92,-33.6807,4.11017,0.00130049,0.0239967,0.0168495,0.0329633,-0.0076661,1.08176,0.024927,0.0133994,594,932,-33.6807,-4.11019
-623,92,-33.7625,3.74792,0.000489942,0.0145591,0.0113148,0.0208479,-0.00579879,1.06351,0.0161816,0.00956291,601,932,-33.7624,-3.7479
-616,92,-33.7822,3.367,-0.00220558,0.00737985,0.00672521,0.0108454,-0.00567111,1.09498,0.00969052,0.00935248,608,932,-33.7822,-3.36703
-609,92,-33.8005,2.99158,-0.00493072,0.00332583,0.00352786,0.00462788,-0.00623277,1.21723,0.00629318,0.0095316,615,932,-33.8004,-2.9916
-602,92,-33.7759,2.62653,-0.00734472,0.0015602,0.00154369,0.00182021,-0.00760473,1.40393,0.00577301,0.0111676,622,932,-33.776,-2.62655
-595,92,-33.7046,2.1955,-0.00878921,0.000806488,0.000455479,0.00082806,-0.00881078,1.52347,0.00616843,0.0213304,629,932,-33.7046,-2.19549
-588,92,-33.7346,1.84955,-0.00937272,0.000190938,-3.6687e-05,0.000191079,-0.00937286,-1.56696,0.00631323,0.0249257,636,932,-33.7346,-1.84954
-581,92,-33.978,1.44812,-0.00954658,0.000107037,-0.000476267,0.000130477,-0.00957002,-1.52162,0.00642394,0.0244673,643,932,-33.978,-1.44809
-574,92,-34.6328,1.02704,-0.00938368,-4.12855e-05,-0.00102497,6.98431e-05,-0.00949481,-1.4628,0.00635328,0.0440635,650,932,-34.6327,-1.02703
-567,92,-35.5574,0.611877,0,0,0,0,0,0,0,-1,657,932,-35.5574,-0.611864
-560,92,-36.0915,0.861938,-0.00879461,-0.000253356,-0.0019484,0.000170109,-0.00921808,-1.35678,0.00620287,0.0389041,664,932,-36.0915,-0.861923
-553,92,-36.1614,0.964294,-0.00804919,-0.000126949,-0.0023442,0.000514729,-0.00869087,-1.30361,0.00597289,0.0388962,671,932,-36.1614,-0.964267
-546,92,-36.1741,0.851135,-0.00679505,5.83171e-05,-0.0027148,0.00100339,-0.00774013,-1.2358,0.00552501,0.0414278,678,932,-36.1741,-0.851113
-539,92,-36.1797,0.705872,-0.00486495,0.000157686,-0.00306777,0.00161095,-0.00631822,-1.12839,0.00483935,0.0395557,685,932,-36.1797,-0.705902
-532,92,-36.3453,0.744324,-0.00234241,-4.37402e-05,-0.00352127,0.00251102,-0.00489717,-0.943146,0.00435045,0.0421322,692,932,-36.3453,-0.744337
-525,92,-36.3101,0.867249,-0.000597604,-0.000510791,-0.0044081,0.00385412,-0.00496251,-0.790322,0.00510367,0.0397027,699,932,-36.3101,-0.867278
-518,92,-36.2629,0.904114,-0.00244271,-0.00128663,-0.00583002,0.00399394,-0.00772328,-0.834811,0.00687821,0.0403241,706,932,-36.263,-0.904084
-511,92,0,0,0,0,0,0,0,0,0,-1,713,932,0,0
-504,92,0,0,0,0,0,0,0,0,0,-1,720,932,0,0
-497,92,0,0,0,0,0,0,0,0,0,-1,727,932,0,0
-490,92,0,0,0,0,0,0,0,0,0,-1,734,932,0,0
-483,92,0,0,0,0,0,0,0,0,0,-1,741,932,0,0
-476,92,0,0,0,0,0,0,0,0,0,-1,748,932,0,0
-469,92,0,0,0,0,0,0,0,0,0,-1,755,932,0,0
-462,92,0,0,0,0,0,0,0,0,0,-1,762,932,0,0
-455,92,0,0,0,0,0,0,0,0,0,-1,769,932,0,0
-448,92,0,0,0,0,0,0,0,0,0,-1,776,932,0,0
-441,92,0,0,0,0,0,0,0,0,0,-1,783,932,0,0
-434,92,0,0,0,0,0,0,0,0,0,-1,790,932,0,0
-427,92,0,0,0,0,0,0,0,0,0,-1,797,932,0,0
-420,92,0,0,0,0,0,0,0,0,0,-1,804,932,0,0
-413,92,0,0,0,0,0,0,0,0,0,-1,811,932,0,0
-406,92,0,0,0,0,0,0,0,0,0,-1,818,932,0,0
-399,92,0,0,0,0,0,0,0,0,0,-1,825,932,0,0
-392,92,0,0,0,0,0,0,0,0,0,-1,832,932,0,0
-385,92,0,0,0,0,0,0,0,0,0,-1,839,932,0,0
-378,92,0,0,0,0,0,0,0,0,0,-1,846,932,0,0
-371,92,0,0,0,0,0,0,0,0,0,-1,853,932,0,0
-364,92,0,0,0,0,0,0,0,0,0,-1,860,932,0,0
-357,92,0,0,0,0,0,0,0,0,0,-1,867,932,0,0
-350,92,0,0,0,0,0,0,0,0,0,-1,874,932,0,0
-343,92,0,0,0,0,0,0,0,0,0,-1,881,932,0,0
-336,92,0,0,0,0,0,0,0,0,0,-1,888,932,0,0
-329,92,0,0,0,0,0,0,0,0,0,-1,895,932,0,0
-322,92,0,0,0,0,0,0,0,0,0,-1,902,932,0,0
-315,92,0,0,0,0,0,0,0,0,0,-1,909,932,0,0
-308,92,0,0,0,0,0,0,0,0,0,-1,916,932,0,0
-301,92,0,0,0,0,0,0,0,0,0,-1,923,932,0,0
-294,92,0,0,0,0,0,0,0,0,0,-1,930,932,0,0
-287,92,0,0,0,0,0,0,0,0,0,-1,937,932,0,0
-280,92,0,0,0,0,0,0,0,0,0,-1,944,932,0,0
-273,92,0,0,0,0,0,0,0,0,0,-1,951,932,0,0
-266,92,0,0,0,0,0,0,0,0,0,-1,958,932,0,0
-259,92,0,0,0,0,0,0,0,0,0,-1,965,932,0,0
-252,92,0,0,0,0,0,0,0,0,0,-1,972,932,0,0
-245,92,0,0,0,0,0,0,0,0,0,-1,979,932,0,0
-238,92,0,0,0,0,0,0,0,0,0,-1,986,932,0,0
-231,92,0,0,0,0,0,0,0,0,0,-1,993,932,0,0
-224,92,0,0,0,0,0,0,0,0,0,-1,1000,932,0,0
-217,92,0,0,0,0,0,0,0,0,0,-1,1007,932,0,0
-210,92,0,0,0,0,0,0,0,0,0,-1,1014,932,0,0
-203,92,0,0,0,0,0,0,0,0,0,-1,1021,932,0,0
-196,92,0,0,0,0,0,0,0,0,0,-1,1028,932,0,0
-189,92,0,0,0,0,0,0,0,0,0,-1,1035,932,0,0
-182,92,0,0,0,0,0,0,0,0,0,-1,1042,932,0,0
-175,92,0,0,0,0,0,0,0,0,0,-1,1049,932,0,0
-168,92,0,0,0,0,0,0,0,0,0,-1,1056,932,0,0
-161,92,0,0,0,0,0,0,0,0,0,-1,1063,932,0,0
-154,92,0,0,0,0,0,0,0,0,0,-1,1070,932,0,0
-147,92,0,0,0,0,0,0,0,0,0,-1,1077,932,0,0
-140,92,0,0,0,0,0,0,0,0,0,-1,1084,932,0,0
-133,92,0,0,0,0,0,0,0,0,0,-1,1091,932,0,0
-126,92,0,0,0,0,0,0,0,0,0,-1,1098,932,0,0
-119,92,0,0,0,0,0,0,0,0,0,-1,1105,932,0,0
-112,92,0,0,0,0,0,0,0,0,0,-1,1112,932,0,0
-105,92,0,0,0,0,0,0,0,0,0,-1,1119,932,0,0
-98,92,0,0,0,0,0,0,0,0,0,-1,1126,932,0,0
-91,92,0,0,0,0,0,0,0,0,0,-1,1133,932,0,0
-84,92,0,0,0,0,0,0,0,0,0,-1,1140,932,0,0
-77,92,0,0,0,0,0,0,0,0,0,-1,1147,932,0,0
-70,92,0,0,0,0,0,0,0,0,0,-1,1154,932,0,0
-63,92,0,0,0,0,0,0,0,0,0,-1,1161,932,0,0
-56,92,0,0,0,0,0,0,0,0,0,-1,1168,932,0,0
-49,92,0,0,0,0,0,0,0,0,0,-1,1175,932,0,0
-42,92,0,0,0,0,0,0,0,0,0,-1,1182,932,0,0
-35,92,0,0,0,0,0,0,0,0,0,-1,1189,932,0,0
-28,92,0,0,0,0,0,0,0,0,0,-1,1196,932,0,0
-21,92,0,0,0,0,0,0,0,0,0,-1,1203,932,0,0
-14,92,0,0,0,0,0,0,0,0,0,-1,1210,932,0,0
-7,92,0,0,0,0,0,0,0,0,0,-1,1217,932,0,0
0,92,0,0,0,0,0,0,0,0,0,-1,1224,932,0,0
7,92,0,0,0,0,0,0,0,0,0,-1,1231,932,0,0
14,92,0,0,0,0,0,0,0,0,0,-1,1238,932,0,0
21,92,0,0,0,0,0,0,0,0,0,-1,1245,932,0,0
28,92,0,0,0,0,0,0,0,0,0,-1,1252,932,0,0
35,92,0,0,0,0,0,0,0,0,0,-1,1259,932,0,0
42,92,0,0,0,0,0,0,0,0,0,-1,1266,932,0,0
49,92,0,0,0,0,0,0,0,0,0,-1,1273,932,0,0
56,92,0,0,0,0,0,0,0,0,0,-1,1280,932,0,0
63,92,0,0,0,0,0,0,0,0,0,-1,1287,932,0,0
70,92,0,0,0,0,0,0,0,0,0,-1,1294,932,0,0
77,92,0,0,0,0,0,0,0,0,0,-1,1301,932,0,0
84,92,0,0,0,0,0,0,0,0,0,-1,1308,932,0,0
91,92,0,0,0,0,0,0,0,0,0,-1,1315,932,0,0
98,92,0,0,0,0,0,0,0,0,0,-1,1322,932,0,0
105,92,0,0,0,0,0,0,0,0,0,-1,1329,932,0,0
112,92,0,0,0,0,0,0,0,0,0,-1,1336,932,0,0
119,92,0,0,0,0,0,0,0,0,0,-1,1343,932,0,0
126,92,0,0,0,0,0,0,0,0,0,-1,1350,932,0,0
133,92,0,0,0,0,0,0,0,0,0,-1,1357,932,0,0
140,92,0,0,0,0,0,0,0,0,0,-1,1364,932,0,0
147,92,0,0,0,0,0,0,0,0,0,-1,1371,932,0,0
154,92,0,0,0,0,0,0,0,0,0,-1,1378,932,0,0
161,92,0,0,0,0,0,0,0,0,0,-1,1385,932,0,0
168,92,0,0,0,0,0,0,0,0,0,-1,1392,932,0,0
175,92,0,0,0,0,0,0,0,0,0,-1,1399,932,0,0
182,92,0,0,0,0,0,0,0,0,0,-1,1406,932,0,0
189,92,0,0,0,0,0,0,0,0,0,-1,1413,932,0,0
196,92,0,0,0,0,0,0,0,0,0,-1,1420,932,0,0
203,92,0,0,0,0,0,0,0,0,0,-1,1427,932,0,0
210,92,0,0,0,0,0,0,0,0,0,-1,1434,932,0,0
217,92,0,0,0,0,0,0,0,0,0,-1,1441,932,0,0
224,92,0,0,0,0,0,0,0,0,0,-1,1448,932,0,0
231,92,0,0,0,0,0,0,0,0,0,-1,1455,932,0,0
238,92,0,0,0,0,0,0,0,0,0,-1,1462,932,0,0
245,92,0,0,0,0,0,0,0,0,0,-1,1469,932,0,0
252,92,0,0,0,0,0,0,0,0,0,-1,1476,932,0,0
259,92,0,0,0,0,0,0,0,0,0,-1,1483,932,0,0
266,92,0,0,0,0,0,0,0,0,0,-1,1490,932,0,0
273,92,0,0,0,0,0,0,0,0,0,-1,1497,932,0,0
280,92,0,0,0,0,0,0,0,0,0,-1,1504,932,0,0
287,92,0,0,0,0,0,0,0,0,0,-1,1511,932,0,0
294,92,0,0,0,0,0,0,0,0,0,-1,1518,932,0,0
301,92,0,0,0,0,0,0,0,0,0,-1,1525,932,0,0
308,92,0,0,0,0,0,0,0,0,0,-1,1532,932,0,0
315,92,0,0,0,0,0,0,0,0,0,-1,1539,932,0,0
322,92,0,0,0,0,0,0,0,0,0,-1,1546,932,0,0
329,92,0,0,0,0,0,0,0,0,0,-1,1553,932,0,0
336,92,0,0,0,0,0,0,0,0,0,-1,1560,932,0,0
343,92,0,0,0,0,0,0,0,0,0,-1,1567,932,0,0
350,92,0,0,0,0,0,0,0,0,0,-1,1574,932,0,0
357,92,0,0,0,0,0,0,0,0,0,-1,1581,932,0,0
364,92,0,0,0,0,0,0,0,0,0,-1,1588,932,0,0
371,92,0,0,0,0,0,0,0,0,0,-1,1595,932,0,0
378,92,0,0,0,0,0,0,0,0,0,-1,1602,932,0,0
385,92,0,0,0,0,0,0,0,0,0,-1,1609,932,0,0
392,92,0,0,0,0,0,0,0,0,0,-1,1616,932,0,0
399,92,0,0,0,0,0,0,0,0,0,-1,1623,932,0,0
406,92,0,0,0,0,0,0,0,0,0,-1,1630,932,0,0
413,92,0,0,0,0,0,0,0,0,0,-1,1637,932,0,0
420,92,0,0,0,0,0,0,0,0,0,-1,1644,932,0,0
427,92,0,0,0,0,0,0,0,0,0,-1,1651,932,0,0
434,92,0,0,0,0,0,0,0,0,0,-1,1658,932,0,0
441,92,0,0,0,0,0,0,0,0,0,-1,1665,932,0,0
448,92,0,0,0,0,0,0,0,0,0,-1,1672,932,0,0
455,92,0,0,0,0,0,0,0,0,0,-1,1679,932,0,0
462,92,0,0,0,0,0,0,0,0,0,-1,1686,932,0,0
469,92,0,0,0,0,0,0,0,0,0,-1,1693,932,0,0
476,92,0,0,0,0,0,0,0,0,0,-1,1700,932,0,0
483,92,0,0,0,0,0,0,0,0,0,-1,1707,932,0,0
490,92,0,0,0,0,0,0,0,0,0,-1,1714,932,0,0
497,92,0,0,0,0,0,0,0,0,0,-1,1721,932,0,0
504,92,0,0,0,0,0,0,0,0,0,-1,1728,932,0,0
511,92,0,0,0,0,0,0,0,0,0,-1,1735,932,0,0
518,92,0,0,0,0,0,0,0,0,0,-1,1742,932,0,0
525,92,0,0,0,0,0,0,0,0,0,-1,1749,932,0,0
532,92,0,0,0,0,0,0,0,0,0,-1,1756,932,0,0
539,92,0,0,0,0,0,0,0,0,0,-1,1763,932,0,0
546,92,0,0,0,0,0,0,0,0,0,-1,1770,932,0,0
553,92,0,0,0,0,0,0,0,0,0,-1,1777,932,0,0
560,92,0,0,0,0,0,0,0,0,0,-1,1784,932,0,0
567,92,0,0,0,0,0,0,0,0,0,-1,1791,932,0,0
574,92,0,0,0,0,0,0,0,0,0,-1,1798,932,0,0
581,92,0,0,0,0,0,0,0,0,0,-1,1805,932,0,0
588,92,0,0,0,0,0,0,0,0,0,-1,1812,932,0,0
595,92,0,0,0,0,0,0,0,0,0,-1,1819,932,0,0
602,92,0,0,0,0,0,0,0,0,0,-1,1826,932,0,0
609,92,0,0,0,0,0,0,0,0,0,-1,1833,932,0,0
616,92,0,0,0,0,0,0,0,0,0,-1,1840,932,0,0
623,92,0,0,0,0,0,0,0,0,0,-1,1847,932,0,0
630,92,0,0,0,0,0,0,0,0,0,-1,1854,932,0,0
637,92,48.62,2.97528,-0.00250674,-0.00297589,-0.00751784,0.00478018,-0.0102628,-0.769802,0.00887527,0.0488023,1861,932,48.62,-2.9753
644,92,48.796,2.41534,-0.00257408,-0.00152881,-0.00547677,0.0034502,-0.0075531,-0.832968,0.0064983,0.0425818,1868,932,48.796,-2.41535
651,92,48.7406,2.63715,-0.00229545,-0.000764895,-0.00375239,0.00229946,-0.00535981,-0.885991,0.00453822,0.0429606,1875,932,48.7406,-2.63714
658,92,48.4338,2.99213,-0.00180488,-0.000144004,-0.00220268,0.00137958,-0.00332847,-0.965665,0.00279475,0.0477741,1882,932,48.4338,-2.9921
665,92,48.4307,2.89185,-0.00116448,0.000295851,-0.000936279,0.000753019,-0.00162165,-1.11657,0.00140125,0.0446618,1889,932,48.4306,-2.89182
672,92,48.5403,2.8028,-0.000683951,0.000385878,-4.96047e-05,0.000388173,-0.000686246,-1.52456,0.000628223,0.0418511,1896,932,48.5403,-2.80277
679,92,48.5736,2.73376,-0.000265811,0.00027254,0.000491049,0.00056335,-0.000556622,1.03611,0.00064662,0.0386756,1903,932,48.5736,-2.73376
686,92,48.5491,2.71063,4.89923e-05,9.16032e-05,0.000681902,0.000752532,-0.000611937,0.801015,0.00078917,0.0311374,1910,932,48.5491,-2.71066
693,92,48.5771,2.80579,9.38351e-05,2.45158e-05,0.000767262,0.00082722,-0.000708869,0.762827,0.000887738,0.028612,1917,932,48.5772,-2.8058
700,92,48.5715,2.90649,0,0,0,0,0,0,0,-1,1924,932,48.5715,-2.90651
707,92,32.9893,3.26874,0,0,0,0,0,0,0,-1,1931,932,32.9893,-3.26874
714,92,45.3354,3.88708,0,0,0,0,0,0,0,-1,1938,932,45.3354,-3.88706
721,92,45.23,4.41254,-0.000866186,0.000734627,-0.000239462,0.00076968,-0.000901239,-1.42545,0.000965702,0.0317177,1945,932,45.23,-4.41252
728,92,45.1121,4.86517,-0.00148938,0.00126775,-0.000305709,0.00130124,-0.00152287,-1.46168,0.00163218,0.023711,1952,932,45.1121,-4.8652
735,92,45.1093,5.28619,-0.00205687,0.0020109,-0.00067102,0.00211873,-0.0021647,-1.41146,0.00247309,0.0182728,1959,932,45.1093,-5.28616
742,92,45.1409,5.6748,-0.00261214,0.00312694,-0.000899813,0.00326471,-0.00274991,-1.41886,0.00347678,0.0181799,1966,932,45.1408,-5.67482
749,92,45.0714,6.08673,-0.00294341,0.00477181,-0.00054656,0.00481034,-0.00298194,-1.50042,0.00453997,0.0171078,1973,932,45.0714,-6.08674
756,92,44.9939,6.47119,-0.00263942,0.00685114,0.000756387,0.00691104,-0.00269932,1.49176,0.0057234,0.0157107,1980,932,44.9939,-6.47121
763,92,44.9709,6.86847,-0.00163604,0.00910038,0.00273551,0.00975717,-0.00229284,1.33516,0.00738861,0.0180466,1987,932,44.971,-6.86849
770,92,44.939,7.33252,0.000547628,0.0112943,0.00570125,0.0137553,-0.00191339,1.1633,0.00987002,0.0266651,1994,932,44.9389,-7.33254
777,92,44.8431,7.91693,0.004497,0.0132369,0.010556,0.0202917,-0.0025578,0.981647,0.014456,0.0431006,2001,932,44.8432,-7.91695
784,92,44.8616,8.57458,0,0,0,0,0,0,0,-1,2008,932,44.8617,-8.57458
791,92,45.1082,9.40521,0,0,0,0,0,0,0,-1,2015,932,45.1082,-9.40522
798,92,45.4878,10.0684,0,0,0,0,0,0,0,-1,2022,932,45.4878,-10.0684
805,92,0,0,0,0,0,0,0,0,0,-1,2029,932,0,0
812,92,0,0,0,0,0,0,0,0,0,-1,2036,932,0,0
-700,85,0,0,0,0,0,0,0,0,0,-1,524,939,0,0
-693,85,0,0,0,0,0,0,0,0,0,-1,531,939,0,0
-686,85,-33.5517,3.51105,-0.050682,0.16117,0.0809807,0.188579,-0.0780909,1.24444,0.158305,0.0454628,538,939,-33.5517,-3.51108
-679,85,-34.7981,3.90015,-0.0316572,0.140388,0.0740521,0.167872,-0.0591405,1.21542,0.135984,0.0457636,545,939,-34.7981,-3.90013
-672,85,-34.9512,3.77777,-0.0188985,0.119473,0.065414,0.145501,-0.0449265,1.19211,0.114941,0.0439871,552,939,-34.9512,-3.77778
-665,85,-35.0673,3.86176,-0.0101757,0.0994394,0.0562191,0.123146,-0.0338822,1.17174,0.0954181,0.0437978,559,939,-35.0672,-3.86177
-658,85,-34.7639,3.9223,-0.00441445,0.080738,0.0470322,0.101603,-0.0252793,1.15325,0.0775475,0.0461227,566,939,-34.7639,-3.92227
-651,85,-34.1846,4.31915,-0.000926982,0.0636764,0.0382214,0.0814174,-0.018668,1.13623,0.0614535,0.0437122,573,939,-34.1846,-4.31917
-644,85,-33.9138,4.66833,0.000817866,0.0485541,0.0300881,0.0630914,-0.0137195,1.12071,0.0473021,0.0334981,580,939,-33.9138,-4.66831
-637,85,-34.0125,4.39948,0.00115302,0.0354979,0.0228137,0.0468799,-0.010229,1.10802,0.0351624,0.0185791,587,939,-34.0125,-4.3995
-630,85,-34.1044,4.03674,0.00215412,0.0241849,0.0161405,0.0327106,-0.0063716,1.08483,0.024212,0.0119098,594,939,-34.1044,-4.03673
-623,85,-34.1695,3.68292,0.000466839,0.0149905,0.0107484,0.0207002,-0.00524291,1.08249,0.0158397,0.00972626,601,939,-34.1695,-3.68292
-616,85,-34.1676,3.33862,-0.00258959,0.00790788,0.00622291,0.0108,-0.00548173,1.13574,0.00956597,0.0100042,608,939,-34.1676,-3.33863
-609,85,-34.1891,2.98041,-0.00533122,0.00390742,0.00300769,0.0048003,-0.0062241,1.28222,0.00638261,0.0123823,615,939,-34.1891,-2.98042
-602,85,-34.1959,2.63867,-0.00774504,0.00209289,0.000875825,0.00217025,-0.00782241,1.48269,0.00606911,0.0166226,622,939,-34.1959,-2.63869
-595,85,-34.1132,2.28027,-0.0093107,0.00126737,-0.000327725,0.00127751,-0.00932084,-1.53985,0.00668057,0.0198704,629,939,-34.1132,-2.2803
-588,85,-34.1269,1.91229,-0.0100608,0.000572911,-0.000867573,0.000643229,-0.0101311,-1.48992,0.00697835,0.0202176,636,939,-34.1269,-1.91228
-581,85,-34.3387,1.57306,-0.0102919,0.000398714,-0.00133973,0.000564049,-0.0104573,-1.44801,0.00716694,0.0273684,643,939,-34.3387,-1.57307
-574,85,-35.0297,1.2547,-0.0101192,0.000224592,-0.00185309,0.000546551,-0.0104412,-1.39877,0.00714994,0.0437512,650,939,-35.0297,-1.2547
-567,85,-35.9697,1.00177,0,0,0,0,0,0,0,-1,657,939,-35.9697,-1.00178
-560,85,-36.1564,1.00037,-0.00940113,0.000112263,-0.00261113,0.000781813,-0.0100707,-1.31978,0.00698898,0.0375058,664,939,-36.1563,-1.00034
-553,85,-36.1504,0.921936,-0.00834442,0.000258524,-0.00284515,0.00111433,-0.00920023,-1.27861,0.00653667,0.0434488,671,939,-36.1504,-0.921917
-546,85,-36.1439,0.772217,-0.00659994,0.000430094,-0.00298634,0.00152741,-0.00769725,-1.21867,0.00570915,0.0431131,678,939,-36.1439,-0.772188
-539,85,-36.1946,0.858215,-0.00402889,0.000469078,-0.00303855,0.0020004,-0.00556021,-1.10398,0.00452353,0.0389923,685,939,-36.1946,-0.858226
-532,85,-36.1962,0.897156,-0.00076296,0.000204122,-0.00315989,0.00291725,-0.00347609,-0.861322,0.0036959,0.0403085,692,939,-36.1962,-0.897144
-525,85,-36.1501,0.867676,0.00146204,-0.000257678,-0.00382063,0.00451837,-0.00331401,-0.674714,0.00453981,0.0387722,699,939,-36.1501,-0.867671
-518,85,-36.1432,0.983459,-0.000344922,-0.000920575,-0.00516622,0.00454148,-0.00580698,-0.75757,0.00598956,0.0378174,706,939,-36.1432,-0.983471
-511,85,0,0,0,0,0,0,0,0,0,-1,713,939,0,0
-504,85,0,0,0,0,0,0,0,0,0,-1,720,939,0,0
-497,85,0,0,0,0,0,0,0,0,0,-1,727,939,0,0
-490,85,0,0,0,0,0,0,0,0,0,-1,734,939,0,0
-483,85,0,0,0,0,0,0,0,0,0,-1,741,939,0,0
-476,85,0,0,0,0,0,0,0,0,0,-1,748,939,0,0
-469,85,0,0,0,0,0,0,0,0,0,-1,755,939,0,0
-462,85,0,0,0,0,0,0,0,0,0,-1,762,939,0,0
-455,85,0,0,0,0,0,0,0,0,0,-1,769,939,0,0
-448,85,0,0,0,0,0,0,0,0,0,-1,776,939,0,0
-441,85,0,0,0,0,0,0,0,0,0,-1,783,939,0,0
-434,85,0,0,0,0,0,0,0,0,0,-1,790,939,0,0
-427,85,0,0,0,0,0,0,0,0,0,-1,797,939,0,0
-420,85,0,0,0,0,0,0,0,0,0,-1,804,939,0,0
-413,85,0,0,0,0,0,0,0,0,0,-1,811,939,0,0
-406,85,0,0,0,0,0,0,0,0,0,-1,818,939,0,0
-399,85,0,0,0,0,0,0,0,0,0,-1,825,939,0,0
-392,85,0,0,0,0,0,0,0,0,0,-1,832,939,0,0
-385,85,0,0,0,0,0,0,0,0,0,-1,839,939,0,0
-378,85,0,0,0,0,0,0,0,0,0,-1,846,939,0,0
-371,85,0,0,0,0,0,0,0,0,0,-1,853,939,0,0
-364,85,0,0,0,0,0,0,0,0,0,-1,860,939,0,0
-357,85,0,0,0,0,0,0,0,0,0,-1,867,939,0,0
-350,85,0,0,0,0,0,0,0,0,0,-1,874,939,0,0
-343,85,0,0,0,0,0,0,0,0,0,-1,881,939,0,0
-336,85,0,0,0,0,0,0,0,0,0,-1,888,939,0,0
-329,85,0,0,0,0,0,0,0,0,0,-1,895,939,0,0
-322,85,0,0,0,0,0,0,0,0,0,-1,902,939,0,0
-315,85,0,0,0,0,0,0,0,0,0,-1,909,939,0,0
-308,85,0,0,0,0,0,0,0,0,0,-1,916,939,0,0
-301,85,0,0,0,0,0,0,0,0,0,-1,923,939,0,0
-294,85,0,0,0,0,0,0,0,0,0,-1,930,939,0,0
-287,85,0,0,0,0,0,0,0,0,0,-1,937,939,0,0
-280,85,0,0,0,0,0,0,0,0,0,-1,944,939,0,0
-273,85,0,0,0,0,0,0,0,0,0,-1,951,939,0,0
-266,85,0,0,0,0,0,0,0,0,0,-1,958,939,0,0
-259,85,0,0,0,0,0,0,0,0,0,-1,965,939,0,0
-252,85,0,0,0,0,0,0,0,0,0,-1,972,939,0,0
-245,85,0,0,0,0,0,0,0,0,0,-1,979,939,0,0
-238,85,0,0,0,0,0,0,0,0,0,-1,986,939,0,0
-231,85,0,0,0,0,0,0,0,0,0,-1,993,939,0,0
-224,85,0,0,0,0,0,0,0,0,0,-1,1000,939,0,0
-217,85,0,0,0,0,0,0,0,0,0,-1,1007,939,0,0
-210,85,0,0,0,0,0,0,0,0,0,-1,1014,939,0,0
-203,85,0,0,0,0,0,0,0,0,0,-1,1021,939,0,0
-196,85,0,0,0,0,0,0,0,0,0,-1,1028,939,0,0
-189,85,0,0,0,0,0,0,0,0,0,-1,1035,939,0,0
-182,85,0,0,0,0,0,0,0,0,0,-1,1042,939,0,0
-175,85,0,0,0,0,0,0,0,0,0,-1,1049,939,0,0
-168,85,0,0,0,0,0,0,0,0,0,-1,1056,939,0,0
-161,85,0,0,0,0,0,0,0,0,0,-1,1063,939,0,0
-154,85,0,0,0,0,0,0,0,0,0,-1,1070,939,0,0
-147,85,0,0,0,0,0,0,0,0,0,-1,1077,939,0,0
-140,85,0,0,0,0,0,0,0,0,0,-1,1084,939,0,0
-133,85,0,0,0,0,0,0,0,0,0,-1,1091,939,0,0
-126,85,0,0,0,0,0,0,0,0,0,-1,1098,939,0,0
-119,85,0,0,0,0,0,0,0,0,0,-1,1105,939,0,0
-112,85,0,0,0,0,0,0,0,0,0,-1,1112,939,0,0
-105,85,0,0,0,0,0,0,0,0,0,-1,1119,939,0,0
-98,85,0,0,0,0,0,0,0,0,0,-1,1126,939,0,0
-91,85,0,0,0,0,0,0,0,0,0,-1,1133,939,0,0
-84,85,0,0,0,0,0,0,0,0,0,-1,1140,939,0,0
-77,85,0,0,0,0,0,0,0,0,0,-1,1147,939,0,0
-70,85,0,0,0,0,0,0,0,0,0,-1,1154,939,0,0
-63,85,0,0,0,0,0,0,0,0,0,-1,1161,939,0,0
-56,85,0,0,0,0,0,0,0,0,0,-1,1168,939,0,0
-49,85,0,0,0,0,0,0,0,0,0,-1,1175,939,0,0
-42,85,0,0,0,0,0,0,0,0,0,-1,1182,939,0,0
-35,85,0,0,0,0,0,0,0,0,0,-1,1189,939,0,0
-28,85,0,0,0,0,0,0,0,0,0,-1,1196,939,0,0
-21,85,0,0,0,0,0,0,0,0,0,-1,1203,939,0,0
-14,85,0,0,0,0,0,0,0,0,0,-1,1210,939,0,0
-7,85,0,0,0,0,0,0,0,0,0,-1,1217,939,0,0
0,85,0,0,0,0,0,0,0,0,0,-1,1224,939,0,0
7,85,0,0,0,0,0,0,0,0,0,-1,1231,939,0,0
14,85,0,0,0,0,0,0,0,0,0,-1,1238,939,0,0
21,85,0,0,0,0,0,0,0,0,0,-1,1245,939,0,0
28,85,0,0,0,0,0,0,0,0,0,-1,1252,939,0,0
35,85,0,0,0,0,0,0,0,0,0,-1,1259,939,0,0
42,85,0,0,0,0,0,0,0,0,0,-1,1266,939,0,0
49,85,0,0,0,0,0,0,0,0,0,-1,1273,939,0,0
56,85,0,0,0,0,0,0,0,0,0,-1,1280,939,0,0
63,85,0,0,0,0,0,0,0,0,0,-1,1287,939,0,0
70,85,0,0,0,0,0,0,0,0,0,-1,1294,939,0,0
77,85,0,0,0,0,0,0,0,0,0,-1,1301,939,0,0
84,85,0,0,0,0,0,0,0,0,0,-1,1308,939,0,0
91,85,0,0,0,0,0,0,0,0,0,-1,1315,939,0,0
98,85,0,0,0,0,0,0,0,0,0,-1,1322,939,0,0
105,85,0,0,0,0,0,0,0,0,0,-1,1329,939,0,0
112,85,0,0,0,0,0,0,0,0,0,-1,1336,939,0,0
119,85,0,0,0,0,0,0,0,0,0,-1,1343,939,0,0
126,85,0,0,0,0,0,0,0,0,0,-1,1350,939,0,0
133,85,0,0,0,0,0,0,0,0,0,-1,1357,939,0,0
140,85,0,0,0,0,0,0,0,0,0,-1,1364,939,0,0
147,85,0,0,0,0,0,0,0,0,0,-1,1371,939,0,0
154,85,0,0,0,0,0,0,0,0,0,-1,1378,939,0,0
161,85,0,0,0,0,0,0,0,0,0,-1,1385,939,0,0
168,85,0,0,0,0,0,0,0,0,0,-1,1392,939,0,0
175,85,0,0,0,0,0,0,0,0,0,-1,1399,939,0,0
182,85,0,0,0,0,0,0,0,0,0,-1,1406,939,0,0
189,85,0,0,0,0,0,0,0,0,0,-1,1413,939,0,0
196,85,0,0,0,0,0,0,0,0,0,-1,1420,939,0,0
203,85,0,0,0,0,0,0,0,0,0,-1,1427,939,0,0
210,85,0,0,0,0,0,0,0,0,0,-1,1434,939,0,0
217,85,0,0,0,0,0,0,0,0,0,-1,1441,939,0,0
224,85,0,0,0,0,0,0,0,0,0,-1,1448,939,0,0
231,85,0,0,0,0,0,0,0,0,0,-1,1455,939,0,0
238,85,0,0,0,0,0,0,0,0,0,-1,1462,939,0,0
245,85,0,0,0,0,0,0,0,0,0,-1,1469,939,0,0
252,85,0,0,0,0,0,0,0,0,0,-1,1476,939,0,0
259,85,0,0,0,0,0,0,0,0,0,-1,1483,939,0,0
266,85,0,0,0,0,0,0,0,0,0,-1,1490,939,0,0
273,85,0,0,0,0,0,0,0,0,0,-1,1497,939,0,0
280,85,0,0,0,0,0,0,0,0,0,-1,1504,939,0,0
287,85,0,0,0,0,0,0,0,0,0,-1,1511,939,0,0
294,85,0,0,0,0,0,0,0,0,0,-1,1518,939,0,0
301,85,0,0,0,0,0,0,0,0,0,-1,1525,939,0,0
308,85,0,0,0,0,0,0,0,0,0,-1,1532,939,0,0
315,85,0,0,0,0,0,0,0,0,0,-1,1539,939,0,0
322,85,0,0,0,0,0,0,0,0,0,-1,1546,939,0,0
329,85,0,0,0,0,0,0,0,0,0,-1,1553,939,0,0
336,85,0,0,0,0,0,0,0,0,0,-1,1560,939,0,0
343,85,0,0,0,0,0,0,0,0,0,-1,1567,939,0,0
350,85,0,0,0,0,0,0,0,0,0,-1,1574,939,0,0
357,85,0,0,0,0,0,0,0,0,0,-1,1581,939,0,0
364,85,0,0,0,0,0,0,0,0,0,-1,1588,939,0,0
371,85,0,0,0,0,0,0,0,0,0,-1,1595,939,0,0
378,85,0,0,0,0,0,0,0,0,0,-1,1602,939,0,0
385,85,0,0,0,0,0,0,0,0,0,-1,1609,939,0,0
392,85,0,0,0,0,0,0,0,0,0,-1,1616,939,0,0
399,85,0,0,0,0,0,0,0,0,0,-1,1623,939,0,0
406,85,0,0,0,0,0,0,0,0,0,-1,1630,939,0,0
413,85,0,0,0,0,0,0,0,0,0,-1,1637,939,0,0
420,85,0,0,0,0,0,0,0,0,0,-1,1644,939,0,0
427,85,0,0,0,0,0,0,0,0,0,-1,1651,939,0,0
434,85,0,0,0,0,0,0,0,0,0,-1,1658,939,0,0
441,85,0,0,0,0,0,0,0,0,0,-1,1665,939,0,0
448,85,0,0,0,0,0,0,0,0,0,-1,1672,939,0,0
455,85,0,0,0,0,0,0,0,0,0,-1,1679,939,0,0
462,85,0,0,0,0,0,0,0,0,0,-1,1686,939,0,0
469,85,0,0,0,0,0,0,0,0,0,-1,1693,939,0,0
476,85,0,0,0,0,0,0,0,0,0,-1,1700,939,0,0
483,85,0,0,0,0,0,0,0,0,0,-1,1707,939,0,0
490,85,0,0,0,0,0,0,0,0,0,-1,1714,939,0,0
497,85,0,0,0,0,0,0,0,0,0,-1,1721,939,0,0
504,85,0,0,0,0,0,0,0,0,0,-1,1728,939,0,0
511,85,0,0,0,0,0,0,0,0,0,-1,1735,939,0,0
518,85,0,0,0,0,0,0,0,0,0,-1,1742,939,0,0
525,85,0,0,0,0,0,0,0,0,0,-1,1749,939,0,0
532,85,0,0,0,0,0,0,0,0,0,-1,1756,939,0,0
539,85,0,0,0,0,0,0,0,0,0,-1,1763,939,0,0
546,85,0,0,0,0,0,0,0,0,0,-1,1770,939,0,0
553,85,0,0,0,0,0,0,0,0,0,-1,1777,939,0,0
560,85,0,0,0,0,0,0,0,0,0,-1,1784,939,0,0
567,85,0,0,0,0,0,0,0,0,0,-1,1791,939,0,0
574,85,0,0,0,0,0,0,0,0,0,-1,1798,939,0,0
581,85,0,0,0,0,0,0,0,0,0,-1,1805,939,0,0
588,85,0,0,0,0,0,0,0,0,0,-1,1812,939,0,0
595,85,0,0,0,0,0,0,0,0,0,-1,1819,939,0,0
602,85,0,0,0,0,0,0,0,0,0,-1,1826,939,0,0
609,85,0,0,0,0,0,0,0,0,0,-1,1833,939,0,0
616,85,0,0,0,0,0,0,0,0,0,-1,1840,939,0,0
623,85,0,0,0,0,0,0,0,0,0,-1,1847,939,0,0
630,85,0,0,0,0,0,0,0,0,0,-1,1854,939,0,0
637,85,48.4921,3.04089,0,0,0,0,0,0,0,-1,1861,939,48.492,-3.04088
644,85,48.6986,2.46051,-0.00275776,-0.00123134,-0.00560234,0.00365954,-0.00764863,-0.853097,0.00666281,0.0439676,1868,939,48.6986,-2.46054
651,85,48.7941,2.03491,-0.00249984,-0.00066322,-0.00383428,0.00236118,-0.00552425,-0.902934,0.00467315,0.0427029,1875,939,48.7941,-2.03494
658,85,48.5891,2.63513,-0.00202108,-0.000167486,-0.00228198,0.00136872,-0.00355729,-0.978291,0.00293611,0.0441542,1882,939,48.5891,-2.63513
665,85,48.4031,2.67059,-0.00136374,0.000190183,-0.000967787,0.000654303,-0.00182786,-1.12363,0.00148551,0.0440169,1889,939,48.4031,-2.67057
672,85,48.4886,2.56311,-0.000862783,0.00023463,-1.57161e-05,0.000234855,-0.000863008,-1.55648,0.00066754,0.0419114,1896,939,48.4886,-2.56311
679,85,48.4913,2.5448,-0.00043828,5.19541e-05,0.00057803,0.000434691,-0.000821017,0.985934,0.000736331,0.0392112,1903,939,48.4913,-2.54482
686,85,48.4745,2.6911,-8.78109e-05,-0.000179701,0.000794141,0.000661713,-0.000929225,0.756503,0.000922846,0.0355171,1910,939,48.4744,-2.6911
693,85,48.5359,2.75964,-1.35493e-05,-0.000276428,0.000879633,0.00074441,-0.00103439,0.711234,0.00103153,0.0317182,1917,939,48.5359,-2.75966
700,85,48.5424,2.84534,-0.000100943,-0.000273032,0.000873118,0.00069036,-0.00106434,0.736282,0.00102071,0.0451461,1924,939,48.5424,-2.84536
707,85,48.5918,2.96558,0,0,0,0,0,0,0,-1,1931,939,48.5918,-2.96558
714,85,45.7245,3.96899,0,0,0,0,0,0,0,-1,1938,939,45.7245,-3.96897
721,85,45.6199,4.46216,-0.000982904,0.000544373,-0.00010944,0.000552175,-0.000990707,-1.49962,0.000902697,0.0295529,1945,939,45.6199,-4.46215
728,85,45.502,4.98743,-0.00155943,0.00115999,-0.000177759,0.00117156,-0.001571,-1.5058,0.00158901,0.0266626,1952,939,45.5019,-4.98744
735,85,45.5363,5.32568,-0.00207305,0.00198445,-0.000554581,0.00205888,-0.00214748,-1.43738,0.00242873,0.0252865,1959,939,45.5363,-5.32571
742,85,45.6041,5.68671,-0.00250868,0.00311839,-0.000791366,0.00322756,-0.00261786,-1.4337,0.00338097,0.0175285,1966,939,45.6041,-5.68671
749,85,45.528,6.08154,-0.00261419,0.0047837,-0.00043735,0.00480947,-0.00263996,-1.51195,0.0043613,0.0140768,1973,939,45.5279,-6.08153
756,85,45.4089,6.45459,-0.0019442,0.00713643,0.00095834,0.00723647,-0.00204424,1.46679,0.00563081,0.0138619,1980,939,45.409,-6.45456
763,85,45.375,6.80737,-0.000474335,0.00968824,0.00311027,0.0105646,-0.00135067,1.29616,0.00753374,0.014148,1987,939,45.375,-6.80734
770,85,45.3184,7.18634,0.00221521,0.012279,0.00635365,0.015352,-0.000857745,1.12031,0.0105322,0.0193341,1994,939,45.3183,-7.18637
777,85,45.0936,7.79919,0.00664994,0.014821,0.0112983,0.0227498,-0.00127884,0.958886,0.0156103,0.0393948,2001,939,45.0937,-7.79918
784,85,44.9893,8.56348,0,0,0,0,0,0,0,-1,2008,939,44.9892,-8.56347
791,85,44.8123,9.34076,0,0,0,0,0,0,0,-1,2015,939,44.8122,-9.34073
798,85,45.8301,10.0475,0,0,0,0,0,0,0,-1,2022,939,45.8301,-10.0475
805,85,47.3477,8.97565,0,0,0,0,0,0,0,-1,2029,939,47.3476,-8.97562
812,85,0,0,0,0,0,0,0,0,0,-1,2036,939,0,0
-700,78,0,0,0,0,0,0,0,0,0,-1,524,946,0,0
-693,78,0,0,0,0,0,0,0,0,0,-1,531,946,0,0
-686,78,-33.5625,2.3418,-0.0204924,0.154233,0.0761471,0.182761,-0.0490203,1.21234,0.141049,0.0451714,538,946,-33.5625,-2.3418
-679,78,-35.8956,3.09473,-0.00832032,0.134663,0.0696022,0.162949,-0.036606,1.18479,0.122669,0.0445906,545,946,-35.8956,-3.09474
-672,78,-35.9726,2.7663,-0.00119793,0.114966,0.0614983,0.141475,-0.0277064,1.16382,0.10478,0.0479291,552,946,-35.9726,-2.7663
-665,78,-36.0145,3.00409,0.00292135,0.0960288,0.0528638,0.119915,-0.0209652,1.1464,0.0877706,0.049112,559,946,-36.0145,-3.00409
-658,78,-35.9897,3.19476,0.00497172,0.0782913,0.0442489,0.0990937,-0.0158307,1.13133,0.0719225,0.0471546,566,946,-35.9897,-3.19475
-651,78,-34.256,5.39355,0.00553252,0.0620511,0.036006,0.0795633,-0.0119796,1.11812,0.0574532,0.0476478,573,946,-34.256,-5.39357
-644,78,-34.2008,4.60425,0.00508309,0.047571,0.0284018,0.0617948,-0.00914077,1.1065,0.0445571,0.0295123,580,946,-34.2008,-4.60427
-637,78,-34.3927,4.29584,0.00364844,0.0349637,0.0215704,0.0459602,-0.00734809,1.09934,0.0333604,0.0165401,587,946,-34.3927,-4.29584
-630,78,-34.5154,3.96216,0.00324389,0.0241649,0.0151481,0.0321133,-0.00470452,1.08758,0.023137,0.0154922,594,946,-34.5154,-3.96214
-623,78,-34.5415,3.62177,0.000639001,0.0152793,0.00999957,0.0203517,-0.00443343,1.10135,0.0152618,0.0135501,601,946,-34.5415,-3.62177
-616,78,-34.5461,3.29517,-0.00273514,0.0083973,0.00559162,0.0107209,-0.00505872,1.17696,0.00930381,0.0114092,608,946,-34.5461,-3.29514
-609,78,-34.5414,2.99335,-0.00538132,0.00450256,0.00236576,0.00503963,-0.00591839,1.34756,0.0063334,0.0120152,615,946,-34.5415,-2.99334
-602,78,-34.5599,2.6701,-0.00762345,0.00265425,0.000119858,0.00265565,-0.00762485,1.55914,0.00616224,0.0165393,622,946,-34.56,-2.6701
-595,78,-34.4952,2.27795,-0.00918144,0.0017337,-0.00119262,0.00186248,-0.00931023,-1.46322,0.00691181,0.0169387,629,946,-34.4952,-2.27797
-588,78,-34.5004,1.9928,-0.00998379,0.000943236,-0.00177034,0.0012229,-0.0102635,-1.41412,0.00728423,0.0147804,636,946,-34.5004,-1.99277
-581,78,-34.6505,1.68732,-0.0102459,0.00067787,-0.00226784,0.00112998,-0.010698,-1.37402,0.00753695,0.0314937,643,946,-34.6505,-1.68731
-574,78,-35.3624,1.31403,-0.0100786,0.000491465,-0.00271384,0.00114752,-0.0107347,-1.3336,0.00756801,0.0398212,650,946,-35.3625,-1.31405
-567,78,-36.1453,1.09918,0,0,0,0,0,0,0,-1,657,946,-36.1453,-1.09916
-560,78,-36.2668,0.953003,-0.00922877,0.000415739,-0.0031812,0.00137052,-0.0101836,-1.27922,0.00728896,0.0354562,664,946,-36.2668,-0.952977
-553,78,-36.2221,0.86908,-0.00793455,0.000548464,-0.00317508,0.00160521,-0.0089913,-1.2495,0.00659472,0.044393,671,946,-36.2221,-0.869071
-546,78,-36.1827,0.727112,-0.00584787,0.000673814,-0.00300443,0.0018469,-0.00702095,-1.19855,0.00540254,0.0423618,678,946,-36.1828,-0.727115
-539,78,-36.1257,0.934814,-0.00285958,0.000634066,-0.00267593,0.00208287,-0.00430838,-1.07457,0.00376382,0.0379701,685,946,-36.1257,-0.934829
-532,78,-36.0529,1.05664,0.000865674,0.000335791,-0.00242119,0.00303637,-0.00183491,-0.730902,0.00284081,0.0394472,692,946,-36.0529,-1.05665
-525,78,-35.9807,0.912598,0.00345543,-6.2488e-05,-0.00284651,0.00504259,-0.00164965,-0.508647,0.0040259,0.0392239,699,946,-35.9807,-0.912578
-518,78,-36.0634,1.00616,0.00195996,-0.000541937,-0.00407325,0.00497003,-0.00355201,-0.636414,0.00494285,0.03912,706,946,-36.0634,-1.00615
-511,78,0,0,0,0,0,0,0,0,0,-1,713,946,0,0
-504,78,0,0,0,0,0,0,0,0,0,-1,720,946,0,0
-497,78,0,0,0,0,0,0,0,0,0,-1,727,946,0,0
-490,78,0,0,0,0,0,0,0,0,0,-1,734,946,0,0
-483,78,0,0,0,0,0,0,0,0,0,-1,741,946,0,0
-476,78,0,0,0,0,0,0,0,0,0,-1,748,946,0,0
-469,78,0,0,0,0,0,0,0,0,0,-1,755,946,0,0
-462,78,0,0,0,0,0,0,0,0,0,-1,762,946,0,0
-455,78,0,0,0,0,0,0,0,0,0,-1,769,946,0,0
-448,78,0,0,0,0,0,0,0,0,0,-1,776,946,0,0
-441,78,0,0,0,0,0,0,0,0,0,-1,783,946,0,0
-434,78,0,0,0,0,0,0,0,0,0,-1,790,946,0,0
-427,78,0,0,0,0,0,0,0,0,0,-1,797,946,0,0
-420,78,0,0,0,0,0,0,0,0,0,-1,804,946,0,0
-413,78,0,0,0,0,0,0,0,0,0,-1,811,946,0,0
-406,78,0,0,0,0,0,0,0,0,0,-1,818,946,0,0
-399,78,0,0,0,0,0,0,0,0,0,-1,825,946,0,0
-392,78,0,0,0,0,0,0,0,0,0,-1,832,946,0,0
-385,78,0,0,0,0,0,0,0,0,0,-1,839,946,0,0
-378,78,0,0,0,0,0,0,0,0,0,-1,846,946,0,0
-371,78,0,0,0,0,0,0,0,0,0,-1,853,946,0,0
-364,78,0,0,0,0,0,0,0,0,0,-1,860,946,0,0
-357,78,0,0,0,0,0,0,0,0,0,-1,867,946,0,0
-350,78,0,0,0,0,0,0,0,0,0,-1,874,946,0,0
-343,78,0,0,0,0,0,0,0,0,0,-1,881,946,0,0
-336,78,0,0,0,0,0,0,0,0,0,-1,888,946,0,0
-329,78,0,0,0,0,0,0,0,0,0,-1,895,946,0,0
-322,78,0,0,0,0,0,0,0,0,0,-1,902,946,0,0
-315,78,0,0,0,0,0,0,0,0,0,-1,909,946,0,0
-308,78,0,0,0,0,0,0,0,0,0,-1,916,946,0,0
-301,78,0,0,0,0,0,0,0,0,0,-1,923,946,0,0
-294,78,0,0,0,0,0,0,0,0,0,-1,930,946,0,0
-287,78,0,0,0,0,0,0,0,0,0,-1,937,946,0,0
-280,78,0,0,0,0,0,0,0,0,0,-1,944,946,0,0
-273,78,0,0,0,0,0,0,0,0,0,-1,951,946,0,0
-266,78,0,0,0,0,0,0,0,0,0,-1,958,946,0,0
-259,78,0,0,0,0,0,0,0,0,0,-1,965,946,0,0
-252,78,0,0,0,0,0,0,0,0,0,-1,972,946,0,0
-245,78,0,0,0,0,0,0,0,0,0,-1,979,946,0,0
-238,78,0,0,0,0,0,0,0,0,0,-1,986,946,0,0
-231,78,0,0,0,0,0,0,0,0,0,-1,993,946,0,0
-224,78,0,0,0,0,0,0,0,0,0,-1,1000,946,0,0
-217,78,0,0,0,0,0,0,0,0,0,-1,1007,946,0,0
-210,78,0,0,0,0,0,0,0,0,0,-1,1014,946,0,0
-203,78,0,0,0,0,0,0,0,0,0,-1,1021,946,0,0
-196,78,0,0,0,0,0,0,0,0,0,-1,1028,946,0,0
-189,78,0,0,0,0,0,0,0,0,0,-1,1035,946,0,0
-182,78,0,0,0,0,0,0,0,0,0,-1,1042,946,0,0
-175,78,0,0,0,0,0,0,0,0,0,-1,1049,946,0,0
-168,78,0,0,0,0,0,0,0,0,0,-1,1056,946,0,0
-161,78,0,0,0,0,0,0,0,0,0,-1,1063,946,0,0
-154,78,0,0,0,0,0,0,0,0,0,-1,1070,946,0,0
-147,78,0,0,0,0,0,0,0,0,0,-1,1077,946,0,0
-140,78,0,0,0,0,0,0,0,0,0,-1,1084,946,0,0
-133,78,0,0,0,0,0,0,0,0,0,-1,1091,946,0,0
-126,78,0,0,0,0,0,0,0,0,0,-1,1098,946,0,0
-119,78,0,0,0,0,0,0,0,0,0,-1,1105,946,0,0
-112,78,0,0,0,0,0,0,0,0,0,-1,1112,946,0,0
-105,78,0,0,0,0,0,0,0,0,0,-1,1119,946,0,0
-98,78,0,0,0,0,0,0,0,0,0,-1,1126,946,0,0
-91,78,0,0,0,0,0,0,0,0,0,-1,1133,946,0,0
-84,78,0,0,0,0,0,0,0,0,0,-1,1140,946,0,0
-77,78,0,0,0,0,0,0,0,0,0,-1,1147,946,0,0
-70,78,0,0,0,0,0,0,0,0,0,-1,1154,946,0,0
-63,78,0,0,0,0,0,0,0,0,0,-1,1161,946,0,0
-56,78,0,0,0,0,0,0,0,0,0,-1,1168,946,0,0
-49,78,0,0,0,0,0,0,0,0,0,-1,1175,946,0,0
-42,78,0,0,0,0,0,0,0,0,0,-1,1182,946,0,0
-35,78,0,0,0,0,0,0,0,0,0,-1,1189,946,0,0
-28,78,0,0,0,0,0,0,0,0,0,-1,1196,946,0,0
-21,78,0,0,0,0,0,0,0,0,0,-1,1203,946,0,0
-14,78,0,0,0,0,0,0,0,0,0,-1,1210,946,0,0
-7,78,0,0,0,0,0,0,0,0,0,-1,1217,946,0,0
0,78,0,0,0,0,0,0,0,0,0,-1,1224,946,0,0
7,78,0,0,0,0,0,0,0,0,0,-1,1231,946,0,0
14,78,0,0,0,0,0,0,0,0,0,-1,1238,946,0,0
21,78,0,0,0,0,0,0,0,0,0,-1,1245,946,0,0
28,78,0,0,0,0,0,0,0,0,0,-1,1252,946,0,0
35,78,0,0,0,0,0,0,0,0,0,-1,1259,946,0,0
42,78,0,0,0,0,0,0,0,0,0,-1,1266,946,0,0
49,78,0,0,0,0,0,0,0,0,0,-1,1273,946,0,0
56,78,0,0,0,0,0,0,0,0,0,-1,1280,946,0,0
63,78,0,0,0,0,0,0,0,0,0,-1,1287,946,0,0
70,78,0,0,0,0,0,0,0,0,0,-1,1294,946,0,0
77,78,0,0,0,0,0,0,0,0,0,-1,1301,946,0,0
84,78,0,0,0,0,0,0,0,0,0,-1,1308,946,0,0
91,78,0,0,0,0,0,0,0,0,0,-1,1315,946,0,0
98,78,0,0,0,0,0,0,0,0,0,-1,1322,946,0,0
105,78,0,0,0,0,0,0,0,0,0,-1,1329,946,0,0
112,78,0,0,0,0,0,0,0,0,0,-1,1336,946,0,0
119,78,0,0,0,0,0,0,0,0,0,-1,1343,946,0,0
126,78,0,0,0,0,0,0,0,0,0,-1,1350,946,0,0
133,78,0,0,0,0,0,0,0,0,0,-1,1357,946,0,0
140,78,0,0,0,0,0,0,0,0,0,-1,1364,946,0,0
147,78,0,0,0,0,0,0,0,0,0,-1,1371,946,0,0
154,78,0,0,0,0,0,0,0,0,0,-1,1378,946,0,0
161,78,0,0,0,0,0,0,0,0,0,-1,1385,946,0,0
168,78,0,0,0,0,0,0,0,0,0,-1,1392,946,0,0
175,78,0,0,0,0,0,0,0,0,0,-1,1399,946,0,0
182,78,0,0,0,0,0,0,0,0,0,-1,1406,946,0,0
189,78,0,0,0,0,0,0,0,0,0,-1,1413,946,0,0
196,78,0,0,0,0,0,0,0,0,0,-1,1420,946,0,0
203,78,0,0,0,0,0,0,0,0,0,-1,1427,946,0,0
210,78,0,0,0,0,0,0,0,0,0,-1,1434,946,0,0
217,78,0,0,0,0,0,0,0,0,0,-1,1441,946,0,0
224,78,0,0,0,0,0,0,0,0,0,-1,1448,946,0,0
231,78,0,0,0,0,0,0,0,0,0,-1,1455,946,0,0
238,78,0,0,0,0,0,0,0,0,0,-1,1462,946,0,0
245,78,0,0,0,0,0,0,0,0,0,-1,1469,946,0,0
252,78,0,0,0,0,0,0,0,0,0,-1,1476,946,0,0
259,78,0,0,0,0,0,0,0,0,0,-1,1483,946,0,0
266,78,0,0,0,0,0,0,0,0,0,-1,1490,946,0,0
273,78,0,0,0,0,0,0,0,0,0,-1,1497,946,0,0
280,78,0,0,0,0,0,0,0,0,0,-1,1504,946,0,0
287,78,0,0,0,0,0,0,0,0,0,-1,1511,946,0,0
294,78,0,0,0,0,0,0,0,0,0,-1,1518,946,0,0
301,78,0,0,0,0,0,0,0,0,0,-1,1525,946,0,0
308,78,0,0,0,0,0,0,0,0,0,-1,1532,946,0,0
315,78,0,0,0,0,0,0,0,0,0,-1,1539,946,0,0
322,78,0,0,0,0,0,0,0,0,0,-1,1546,946,0,0
329,78,0,0,0,0,0,0,0,0,0,-1,1553,946,0,0
336,78,0,0,0,0,0,0,0,0,0,-1,1560,946,0,0
343,78,0,0,0,0,0,0,0,0,0,-1,1567,946,0,0
350,78,0,0,0,0,0,0,0,0,0,-1,1574,946,0,0
357,78,0,0,0,0,0,0,0,0,0,-1,1581,946,0,0
364,78,0,0,0,0,0,0,0,0,0,-1,1588,946,0,0
371,78,0,0,0,0,0,0,0,0,0,-1,1595,946,0,0
378,78,0,0,0,0,0,0,0,0,0,-1,1602,946,0,0
385,78,0,0,0,0,0,0,0,0,0,-1,1609,946,0,0
392,78,0,0,0,0,0,0,0,0,0,-1,1616,946,0,0
399,78,0,0,0,0,0,0,0,0,0,-1,1623,946,0,0
406,78,0,0,0,0,0,0,0,0,0,-1,1630,946,0,0
413,78,0,0,0,0,0,0,0,0,0,-1,1637,946,0,0
420,78,0,0,0,0,0,0,0,0,0,-1,1644,946,0,0
427,78,0,0,0,0,0,0,0,0,0,-1,1651,946,0,0
434,78,0,0,0,0,0,0,0,0,0,-1,1658,946,0,0
441,78,0,0,0,0,0,0,0,0,0,-1,1665,946,0,0
448,78,0,0,0,0,0,0,0,0,0,-1,1672,946,0,0
455,78,0,0,0,0,0,0,0,0,0,-1,1679,946,0,0
462,78,0,0,0,0,0,0,0,0,0,-1,1686,946,0,0
469,78,0,0,0,0,0,0,0,0,0,-1,1693,946,0,0
476,78,0,0,0,0,0,0,0,0,0,-1,1700,946,0,0
483,78,0,0,0,0,0,0,0,0,0,-1,1707,946,0,0
490,78,0,0,0,0,0,0,0,0,0,-1,1714,946,0,0
497,78,0,0,0,0,0,0,0,0,0,-1,1721,946,0,0
504,78,0,0,0,0,0,0,0,0,0,-1,1728,946,0,0
511,78,0,0,0,0,0,0,0,0,0,-1,1735,946,0,0
518,78,0,0,0,0,0,0,0,0,0,-1,1742,946,0,0
525,78,0,0,0,0,0,0,0,0,0,-1,1749,946,0,0
532,78,0,0,0,0,0,0,0,0,0,-1,1756,946,0,0
539,78,0,0,0,0,0,0,0,0,0,-1,1763,946,0,0
546,78,0,0,0,0,0,0,0,0,0,-1,1770,946,0,0
553,78,0,0,0,0,0,0,0,0,0,-1,1777,946,0,0
560,78,0,0,0,0,0,0,0,0,0,-1,1784,946,0,0
567,78,0,0,0,0,0,0,0,0,0,-1,1791,946,0,0
574,78,0,0,0,0,0,0,0,0,0,-1,1798,946,0,0
581,78,0,0,0,0,0,0,0,0,0,-1,1805,946,0,0
588,78,0,0,0,0,0,0,0,0,0,-1,1812,946,0,0
595,78,0,0,0,0,0,0,0,0,0,-1,1819,946,0,0
602,78,0,0,0,0,0,0,0,0,0,-1,1826,946,0,0
609,78,0,0,0,0,0,0,0,0,0,-1,1833,946,0,0
616,78,0,0,0,0,0,0,0,0,0,-1,1840,946,0,0
623,78,0,0,0,0,0,0,0,0,0,-1,1847,946,0,0
630,78,0,0,0,0,0,0,0,0,0,-1,1854,946,0,0
637,78,48.6466,2.88,-0.00241583,-0.00119143,-0.00756743,0.00578852,-0.00939578,-0.82576,0.00884874,0.0460692,1861,946,48.6466,-2.88001
644,78,48.6125,2.61041,-0.00268051,-0.000524381,-0.00539668,0.00390087,-0.00710575,-0.883983,0.00644385,0.0434361,1868,946,48.6125,-2.61041
651,78,48.6262,2.70551,-0.00250522,-0.000315542,-0.00365203,0.00240223,-0.00522299,-0.93103,0.00450171,0.0423395,1875,946,48.6262,-2.70549
658,78,48.583,2.72974,-0.00208303,-6.21282e-05,-0.00214651,0.00129987,-0.00344503,-1.00538,0.00283125,0.0393264,1882,946,48.583,-2.72972
665,78,48.603,2.62677,-0.00147779,0.000148834,-0.00082869,0.000496643,-0.0018256,-1.17342,0.00141204,0.0404827,1889,946,48.6031,-2.62679
672,78,48.6006,2.43976,-0.00101406,0.000137794,0.000176794,0.000164318,-0.00104059,1.42188,0.000754487,0.0396997,1896,946,48.6006,-2.43976
679,78,48.5013,2.49921,-0.000624047,-7.34657e-05,0.000825453,0.000521392,-0.0012189,0.94635,0.00103131,0.0390312,1903,946,48.5013,-2.49919
686,78,48.5165,2.5882,-0.00026704,-0.00031689,0.0010751,0.000783429,-0.00136736,0.773808,0.00125692,0.0385461,1910,946,48.5164,-2.58819
693,78,48.5753,2.61829,-0.000182391,-0.000425366,0.00116362,0.000866067,-0.00147382,0.733384,0.00136604,0.0332899,1917,946,48.5753,-2.61829
700,78,48.5171,2.71851,-0.000280323,-0.000409767,0.00114103,0.000797824,-0.00148791,0.757067,0.00133957,0.031657,1924,946,48.517,-2.71848
707,78,48.5145,2.91559,0,0,0,0,0,0,0,-1,1931,946,48.5145,-2.91557
714,78,46.004,4.21802,0,0,0,0,0,0,0,-1,1938,946,46.0041,-4.21804
721,78,45.9489,4.58612,-0.00120064,0.000527595,0.00017113,0.000544377,-0.00121742,1.47304,0.00104162,0.0307006,1945,946,45.9488,-4.58611
728,78,45.9315,5.05957,-0.00173624,0.00122727,8.45739e-05,0.00122968,-0.00173865,1.54229,0.00172214,0.0313564,1952,946,45.9315,-5.05956
735,78,46.0063,5.38666,-0.00221041,0.00210023,-0.000299975,0.002121,-0.00223119,-1.50165,0.002513,0.022619,1959,946,46.0063,-5.38664
742,78,46.0378,5.70221,-0.00255432,0.00321393,-0.000541948,0.00326441,-0.00260479,-1.47793,0.00339571,0.0176706,1966,946,46.0378,-5.70219
749,78,45.9236,6.05414,-0.00249652,0.00483571,-0.000197361,0.00484102,-0.00250183,-1.54391,0.0043105,0.0151125,1973,946,45.9236,-6.05414
756,78,45.8601,6.38275,-0.00157343,0.00721373,0.0012386,0.00738498,-0.00174468,1.43341,0.00559628,0.0158924,1980,946,45.8601,-6.38274
763,78,45.7977,6.69696,0.00028104,0.00983703,0.00354156,0.0110065,-0.00088839,1.25187,0.00765098,0.016143,1987,946,45.7977,-6.69697
770,78,45.7032,7.00409,0.00344362,0.012553,0.00705733,0.0163978,-0.00040117,1.07196,0.011068,0.021254,1994,946,45.7032,-7.00406
777,78,45.6548,7.47235,0.00836223,0.0152405,0.0121583,0.0244366,-0.00083394,0.923229,0.0165761,0.0408422,2001,946,45.6547,-7.47236
784,78,45.6719,7.97119,0,0,0,0,0,0,0,-1,2008,946,45.6719,-7.97119
791,78,45.3894,7.02856,0,0,0,0,0,0,0,-1,2015,946,45.3893,-7.02858
798,78,47.4456,9.10638,0,0,0,0,0,0,0,-1,2022,946,47.4455,-9.1064
805,78,44.4521,7.54877,0,0,0,0,0,0,0,-1,2029,946,44.4522,-7.54875
812,78,0,0,0,0,0,0,0,0,0,-1,2036,946,0,0
-700,71,0,0,0,0,0,0,0,0,0,-1,524,953,0,0
-693,71,0,0,0,0,0,0,0,0,0,-1,531,953,0,0
-686,71,-36.8441,2.65021,0.0152585,0.148113,0.0688838,0.177381,-0.0140093,1.16902,0.12319,0.0440145,538,953,-36.8442,-2.65023
-679,71,-36.9318,2.43713,0.0200744,0.129141,0.0630481,0.157968,-0.00875265,1.14195,0.108348,0.0474031,545,953,-36.9318,-2.4371
-672,71,-37.2147,2.1886,0.0209456,0.110278,0.055833,0.137113,-0.00588916,1.12277,0.0934334,0.0474437,552,953,-37.2147,-2.18857
-665,71,-37.0638,2.15082,0,0,0,0,0,0,0,-1,559,953,-37.0638,-2.15082
-658,71,-34.8156,5.36664,0,0,0,0,0,0,0,-1,566,953,-34.8155,-5.36665
-651,71,-34.7731,4.92841,0.0140938,0.0599031,0.0330398,0.0772011,-0.00320417,1.08849,0.052568,0.0476801,573,953,-34.7731,-4.9284
-644,71,-34.6164,4.52679,0.0107702,0.0460633,0.0261684,0.0599791,-0.00314566,1.08205,0.0410748,0.0350345,580,953,-34.6164,-4.52679
-637,71,-34.7856,4.22955,0.0069104,0.0339799,0.0199542,0.0445566,-0.00366629,1.0834,0.0309988,0.0164182,587,953,-34.7856,-4.22953
-630,71,-34.8746,3.90686,0.00472926,0.0237284,0.0139099,0.031073,-0.00261536,1.08499,0.0216399,0.0157009,594,953,-34.8746,-3.90683
-623,71,-34.9036,3.57428,0.00104759,0.0152342,0.00902178,0.0196173,-0.0033355,1.11855,0.0143201,0.0149546,601,953,-34.9036,-3.5743
-616,71,-34.9224,3.23755,-0.00274743,0.00872082,0.00477802,0.0104506,-0.00447719,1.22345,0.00884557,0.0144333,608,953,-34.9223,-3.23753
-609,71,-34.8973,2.97668,-0.00536343,0.00502353,0.00157074,0.00525587,-0.00559577,1.42395,0.00626622,0.0152092,615,953,-34.8973,-2.97669
-602,71,-34.858,2.69635,-0.00742859,0.00320971,-0.000743704,0.00326145,-0.00748033,-1.50134,0.00635922,0.0163911,622,953,-34.858,-2.69638
-595,71,-34.8557,2.38995,-0.00882276,0.00220151,-0.00214397,0.00260378,-0.00922504,-1.38532,0.00717715,0.0180926,629,953,-34.8557,-2.38997
-588,71,-34.5086,2.17474,0,0,0,0,0,0,0,-1,636,953,-34.5086,-2.17474
-581,71,-35.1197,1.61078,-0.00977993,0.000967045,-0.00330728,0.00190327,-0.0107162,-1.29493,0.00785576,0.0368487,643,953,-35.1197,-1.61077
-574,71,-35.8431,1.16101,-0.00959763,0.00074947,-0.00368873,0.00192984,-0.010778,-1.2611,0.0079075,0.0414817,650,953,-35.8432,-1.16104
-567,71,-36.4182,0.839966,0,0,0,0,0,0,0,-1,657,953,-36.4182,-0.83996
-560,71,-36.2139,0.98999,-0.0086094,0.000630218,-0.00380632,0.00199628,-0.00997547,-1.22622,0.00740597,0.0287075,664,953,-36.2139,-0.990002
-553,71,-36.3159,1.01587,-0.00713647,0.00069876,-0.0035163,0.00204537,-0.00848308,-1.20506,0.00644627,0.0404969,671,953,-36.3159,-1.01585
-546,71,-36.4351,1.17761,0,0,0,0,0,0,0,-1,678,953,-36.4351,-1.1776
-539,71,-36.1135,1.20892,-0.00154127,0.000535202,-0.00226195,0.00198581,-0.00299188,-1.00056,0.00289337,0.0391209,685,953,-36.1136,-1.20893
-532,71,-36.1531,1.07153,0.00244825,0.000144332,-0.00167305,0.00332757,-0.000734995,-0.483903,0.00249966,0.043687,692,953,-36.1531,-1.07156
-525,71,-36.0925,0.821716,0.0052556,-0.000219888,-0.00199042,0.00590268,-0.000866966,-0.314319,0.00425366,0.0431161,699,953,-36.0925,-0.821732
-518,71,0,0,0,0,0,0,0,0,0,-1,706,953,0,0
-511,71,0,0,0,0,0,0,0,0,0,-1,713,953,0,0
-504,71,0,0,0,0,0,0,0,0,0,-1,720,953,0,0
-497,71,0,0,0,0,0,0,0,0,0,-1,727,953,0,0
-490,71,0,0,0,0,0,0,0,0,0,-1,734,953,0,0
-483,71,0,0,0,0,0,0,0,0,0,-1,741,953,0,0
-476,71,0,0,0,0,0,0,0,0,0,-1,748,953,0,0
-469,71,0,0,0,0,0,0,0,0,0,-1,755,953,0,0
-462,71,0,0,0,0,0,0,0,0,0,-1,762,953,0,0
-455,71,0,0,0,0,0,0,0,0,0,-1,769,953,0,0
-448,71,0,0,0,0,0,0,0,0,0,-1,776,953,0,0
-441,71,0,0,0,0,0,0,0,0,0,-1,783,953,0,0
-434,71,0,0,0,0,0,0,0,0,0,-1,790,953,0,0
-427,71,0,0,0,0,0,0,0,0,0,-1,797,953,0,0
-420,71,0,0,0,0,0,0,0,0,0,-1,804,953,0,0
-413,71,0,0,0,0,0,0,0,0,0,-1,811,953,0,0
-406,71,0,0,0,0,0,0,0,0,0,-1,818,953,0,0
-399,71,0,0,0,0,0,0,0,0,0,-1,825,953,0,0
-392,71,0,0,0,0,0,0,0,0,0,-1,832,953,0,0
-385,71,0,0,0,0,0,0,0,0,0,-1,839,953,0,0
-378,71,0,0,0,0,0,0,0,0,0,-1,846,953,0,0
-371,71,0,0,0,0,0,0,0,0,0,-1,853,953,0,0
-364,71,0,0,0,0,0,0,0,0,0,-1,860,953,0,0
-357,71,0,0,0,0,0,0,0,0,0,-1,867,953,0,0
-350,71,0,0,0,0,0,0,0,0,0,-1,874,953,0,0
-343,71,0,0,0,0,0,0,0,0,0,-1,881,953,0,0
-336,71,0,0,0,0,0,0,0,0,0,-1,888,953,0,0
-329,71,0,0,0,0,0,0,0,0,0,-1,895,953,0,0
-322,71,0,0,0,0,0,0,0,0,0,-1,902,953,0,0
-315,71,0,0,0,0,0,0,0,0,0,-1,909,953,0,0
-308,71,0,0,0,0,0,0,0,0,0,-1,916,953,0,0
-301,71,0,0,0,0,0,0,0,0,0,-1,923,953,0,0
-294,71,0,0,0,0,0,0,0,0,0,-1,930,953,0,0
-287,71,0,0,0,0,0,0,0,0,0,-1,937,953,0,0
-280,71,0,0,0,0,0,0,0,0,0,-1,944,953,0,0
-273,71,0,0,0,0,0,0,0,0,0,-1,951,953,0,0
-266,71,0,0,0,0,0,0,0,0,0,-1,958,953,0,0
-259,71,0,0,0,0,0,0,0,0,0,-1,965,953,0,0
-252,71,0,0,0,0,0,0,0,0,0,-1,972,953,0,0
-245,71,0,0,0,0,0,0,0,0,0,-1,979,953,0,0
-238,71,0,0,0,0,0,0,0,0,0,-1,986,953,0,0
-231,71,0,0,0,0,0,0,0,0,0,-1,993,953,0,0
-224,71,0,0,0,0,0,0,0,0,0,-1,1000,953,0,0
-217,71,0,0,0,0,0,0,0,0,0,-1,1007,953,0,0
-210,71,0,0,0,0,0,0,0,0,0,-1,1014,953,0,0
-203,71,0,0,0,0,0,0,0,0,0,-1,1021,953,0,0
-196,71,0,0,0,0,0,0,0,0,0,-1,1028,953,0,0
-189,71,0,0,0,0,0,0,0,0,0,-1,1035,953,0,0
-182,71,0,0,0,0,0,0,0,0,0,-1,1042,953,0,0
-175,71,0,0,0,0,0,0,0,0,0,-1,1049,953,0,0
-168,71,0,0,0,0,0,0,0,0,0,-1,1056,953,0,0
-161,71,0,0,0,0,0,0,0,0,0,-1,1063,953,0,0
-154,71,0,0,0,0,0,0,0,0,0,-1,1070,953,0,0
-147,71,0,0,0,0,0,0,0,0,0,-1,1077,953,0,0
-140,71,0,0,0,0,0,0,0,0,0,-1,1084,953,0,0
-133,71,0,0,0,0,0,0,0,0,0,-1,1091,953,0,0
-126,71,0,0,0,0,0,0,0,0,0,-1,1098,953,0,0
-119,71,0,0,0,0,0,0,0,0,0,-1,1105,953,0,0
-112,71,0,0,0,0,0,0,0,0,0,-1,1112,953,0,0
-105,71,0,0,0,0,0,0,0,0,0,-1,1119,953,0,0
-98,71,0,0,0,0,0,0,0,0,0,-1,1126,953,0,0
-91,71,0,0,0,0,0,0,0,0,0,-1,1133,953,0,0
-84,71,0,0,0,0,0,0,0,0,0,-1,1140,953,0,0
-77,71,0,0,0,0,0,0,0,0,0,-1,1147,953,0,0
-70,71,0,0,0,0,0,0,0,0,0,-1,1154,953,0,0
-63,71,0,0,0,0,0,0,0,0,0,-1,1161,953,0,0
-56,71,0,0,0,0,0,0,0,0,0,-1,1168,953,0,0
-49,71,0,0,0,0,0,0,0,0,0,-1,1175,953,0,0
-42,71,0,0,0,0,0,0,0,0,0,-1,1182,953,0,0
-35,71,0,0,0,0,0,0,0,0,0,-1,1189,953,0,0
-28,71,0,0,0,0,0,0,0,0,0,-1,1196,953,0,0
-21,71,0,0,0,0,0,0,0,0,0,-1,1203,953,0,0
-14,71,0,0,0,0,0,0,0,0,0,-1,1210,953,0,0
-7,71,0,0,0,0,0,0,0,0,0,-1,1217,953,0,0
0,71,0,0,0,0,0,0,0,0,0,-1,1224,953,0,0
7,71,0,0,0,0,0,0,0,0,0,-1,1231,953,0,0
14,71,0,0,0,0,0,0,0,0,0,-1,1238,953,0,0
21,71,0,0,0,0,0,0,0,0,0,-1,1245,953,0,0
28,71,0,0,0,0,0,0,0,0,0,-1,1252,953,0,0
35,71,0,0,0,0,0,0,0,0,0,-1,1259,953,0,0
42,71,0,0,0,0,0,0,0,0,0,-1,1266,953,0,0
49,71,0,0,0,0,0,0,0,0,0,-1,1273,953,0,0
56,71,0,0,0,0,0,0,0,0,0,-1,1280,953,0,0
63,71,0,0,0,0,0,0,0,0,0,-1,1287,953,0,0
70,71,0,0,0,0,0,0,0,0,0,-1,1294,953,0,0
77,71,0,0,0,0,0,0,0,0,0,-1,1301,953,0,0
84,71,0,0,0,0,0,0,0,0,0,-1,1308,953,0,0
91,71,0,0,0,0,0,0,0,0,0,-1,1315,953,0,0
98,71,0,0,0,0,0,0,0,0,0,-1,1322,953,0,0
105,71,0,0,0,0,0,0,0,0,0,-1,1329,953,0,0
112,71,0,0,0,0,0,0,0,0,0,-1,1336,953,0,0
119,71,0,0,0,0,0,0,0,0,0,-1,1343,953,0,0
126,71,0,0,0,0,0,0,0,0,0,-1,1350,953,0,0
133,71,0,0,0,0,0,0,0,0,0,-1,1357,953,0,0
140,71,0,0,0,0,0,0,0,0,0,-1,1364,953,0,0
147,71,0,0,0,0,0,0,0,0,0,-1,1371,953,0,0
154,71,0,0,0,0,0,0,0,0,0,-1,1378,953,0,0
161,71,0,0,0,0,0,0,0,0,0,-1,1385,953,0,0
168,71,0,0,0,0,0,0,0,0,0,-1,1392,953,0,0
175,71,0,0,0,0,0,0,0,0,0,-1,1399,953,0,0
182,71,0,0,0,0,0,0,0,0,0,-1,1406,953,0,0
189,71,0,0,0,0,0,0,0,0,0,-1,1413,953,0,0
196,71,0,0,0,0,0,0,0,0,0,-1,1420,953,0,0
203,71,0,0,0,0,0,0,0,0,0,-1,1427,953,0,0
210,71,0,0,0,0,0,0,0,0,0,-1,1434,953,0,0
217,71,0,0,0,0,0,0,0,0,0,-1,1441,953,0,0
224,71,0,0,0,0,0,0,0,0,0,-1,1448,953,0,0
231,71,0,0,0,0,0,0,0,0,0,-1,1455,953,0,0
238,71,0,0,0,0,0,0,0,0,0,-1,1462,953,0,0
245,71,0,0,0,0,0,0,0,0,0,-1,1469,953,0,0
252,71,0,0,0,0,0,0,0,0,0,-1,1476,953,0,0
259,71,0,0,0,0,0,0,0,0,0,-1,1483,953,0,0
266,71,0,0,0,0,0,0,0,0,0,-1,1490,953,0,0
273,71,0,0,0,0,0,0,0,0,0,-1,1497,953,0,0
280,71,0,0,0,0,0,0,0,0,0,-1,1504,953,0,0
287,71,0,0,0,0,0,0,0,0,0,-1,1511,953,0,0
294,71,0,0,0,0,0,0,0,0,0,-1,1518,953,0,0
301,71,0,0,0,0,0,0,0,0,0,-1,1525,953,0,0
308,71,0,0,0,0,0,0,0,0,0,-1,1532,953,0,0
315,71,0,0,0,0,0,0,0,0,0,-1,1539,953,0,0
322,71,0,0,0,0,0,0,0,0,0,-1,1546,953,0,0
329,71,0,0,0,0,0,0,0,0,0,-1,1553,953,0,0
336,71,0,0,0,0,0,0,0,0,0,-1,1560,953,0,0
343,71,0,0,0,0,0,0,0,0,0,-1,1567,953,0,0
350,71,0,0,0,0,0,0,0,0,0,-1,1574,953,0,0
357,71,0,0,0,0,0,0,0,0,0,-1,1581,953,0,0
364,71,0,0,0,0,0,0,0,0,0,-1,1588,953,0,0
371,71,0,0,0,0,0,0,0,0,0,-1,1595,953,0,0
378,71,0,0,0,0,0,0,0,0,0,-1,1602,953,0,0
385,71,0,0,0,0,0,0,0,0,0,-1,1609,953,0,0
392,71,0,0,0,0,0,0,0,0,0,-1,1616,953,0,0
399,71,0,0,0,0,0,0,0,0,0,-1,1623,953,0,0
406,71,0,0,0,0,0,0,0,0,0,-1,1630,953,0,0
413,71,0,0,0,0,0,0,0,0,0,-1,1637,953,0,0
420,71,0,0,0,0,0,0,0,0,0,-1,1644,953,0,0
427,71,0,0,0,0,0,0,0,0,0,-1,1651,953,0,0
434,71,0,0,0,0,0,0,0,0,0,-1,1658,953,0,0
441,71,0,0,0,0,0,0,0,0,0,-1,1665,953,0,0
448,71,0,0,0,0,0,0,0,0,0,-1,1672,953,0,0
455,71,0,0,0,0,0,0,0,0,0,-1,1679,953,0,0
462,71,0,0,0,0,0,0,0,0,0,-1,1686,953,0,0
469,71,0,0,0,0,0,0,0,0,0,-1,1693,953,0,0
476,71,0,0,0,0,0,0,0,0,0,-1,1700,953,0,0
483,71,0,0,0,0,0,0,0,0,0,-1,1707,953,0,0
490,71,0,0,0,0,0,0,0,0,0,-1,1714,953,0,0
497,71,0,0,0,0,0,0,0,0,0,-1,1721,953,0,0
504,71,0,0,0,0,0,0,0,0,0,-1,1728,953,0,0
511,71,0,0,0,0,0,0,0,0,0,-1,1735,953,0,0
518,71,0,0,0,0,0,0,0,0,0,-1,1742,953,0,0
525,71,0,0,0,0,0,0,0,0,0,-1,1749,953,0,0
532,71,0,0,0,0,0,0,0,0,0,-1,1756,953,0,0
539,71,0,0,0,0,0,0,0,0,0,-1,1763,953,0,0
546,71,0,0,0,0,0,0,0,0,0,-1,1770,953,0,0
553,71,0,0,0,0,0,0,0,0,0,-1,1777,953,0,0
560,71,0,0,0,0,0,0,0,0,0,-1,1784,953,0,0
567,71,0,0,0,0,0,0,0,0,0,-1,1791,953,0,0
574,71,0,0,0,0,0,0,0,0,0,-1,1798,953,0,0
581,71,0,0,0,0,0,0,0,0,0,-1,1805,953,0,0
588,71,0,0,0,0,0,0,0,0,0,-1,1812,953,0,0
595,71,0,0,0,0,0,0,0,0,0,-1,1819,953,0,0
602,71,0,0,0,0,0,0,0,0,0,-1,1826,953,0,0
609,71,0,0,0,0,0,0,0,0,0,-1,1833,953,0,0
616,71,0,0,0,0,0,0,0,0,0,-1,1840,953,0,0
623,71,0,0,0,0,0,0,0,0,0,-1,1847,953,0,0
630,71,0,0,0,0,0,0,0,0,0,-1,1854,953,0,0
637,71,48.6523,2.82648,-0.00242926,-0.00112085,-0.00699146,0.00524694,-0.00879706,-0.832048,0.0081942,0.0413596,1861,953,48.6524,-2.8265
644,71,48.5522,2.6579,-0.00270679,-0.000479763,-0.00492979,0.00346071,-0.00664726,-0.896471,0.00593172,0.0424856,1868,953,48.5522,-2.6579
651,71,48.5206,2.43085,-0.00256053,-0.000291756,-0.00329737,0.0020609,-0.00491319,-0.951071,0.00413722,0.0395832,1875,953,48.5207,-2.43086
658,71,48.5505,2.62549,-0.00215673,-6.84473e-05,-0.00191546,0.00106897,-0.00329415,-1.03494,0.00262598,0.0375924,1882,953,48.5506,-2.62547
665,71,48.5996,2.82227,-0.00159889,0.000171628,-0.000668502,0.000395683,-0.00182295,-1.2474,0.00136642,0.0381282,1889,953,48.5996,-2.82229
672,71,48.6031,2.4986,-0.0011653,0.000247509,0.0003412,0.000325594,-0.00124339,1.34582,0.000956119,0.0387935,1896,953,48.6031,-2.49857
679,71,48.5935,2.47064,-0.000784204,0.000138251,0.00105486,0.000828311,-0.00147426,0.991494,0.00134672,0.0386627,1903,953,48.5935,-2.47064
686,71,48.5767,2.49988,-0.000414832,-5.19979e-05,0.00137184,0.00115037,-0.0016172,0.851138,0.00160542,0.0376985,1910,953,48.5766,-2.49989
693,71,48.5958,2.5166,-0.000307871,-0.000145634,0.0014932,0.00126865,-0.00172216,0.812534,0.00173335,0.0347345,1917,953,48.5958,-2.5166
700,71,48.5598,2.57666,-0.00040207,-0.000109863,0.00147956,0.00123079,-0.00174272,0.834613,0.00172521,0.0380209,1924,953,48.5598,-2.57667
707,71,48.5402,2.78516,0,0,0,0,0,0,0,-1,1931,953,48.5401,-2.78514
714,71,46.7091,4.3186,0,0,0,0,0,0,0,-1,1938,953,46.7091,-4.31861
721,71,46.4778,4.64368,-0.00134183,0.00088455,0.000583573,0.00102824,-0.00148552,1.32937,0.0014593,0.0413551,1945,953,46.4778,-4.64368
728,71,46.306,5.06946,-0.0018597,0.00163234,0.000493365,0.00170071,-0.00192806,1.4331,0.00209644,0.0256906,1952,953,46.306,-5.06949
735,71,46.3635,5.44202,-0.00232165,0.00251281,0.000115959,0.00251559,-0.00232443,1.54683,0.00279511,0.0199194,1959,953,46.3636,-5.44201
742,71,46.4066,5.74353,-0.00261386,0.00355331,-0.000136661,0.00355633,-0.00261689,-1.54865,0.00357784,0.0206372,1966,953,46.4066,-5.74353
749,71,46.3497,6.04163,-0.00246956,0.00506809,0.000174947,0.00507215,-0.00247362,1.5476,0.00444182,0.0196859,1973,953,46.3498,-6.0416
756,71,46.292,6.32281,-0.0014226,0.0074145,0.00158248,0.00768933,-0.00169743,1.39884,0.00577578,0.0177027,1980,953,46.2919,-6.32283
763,71,46.2291,6.66016,0.000689344,0.010039,0.00391468,0.0114616,-0.000733262,1.22223,0.00789686,0.0200591,1987,953,46.2292,-6.66019
770,71,46.031,6.9223,0.00423493,0.012855,0.0075756,0.0172608,-0.000170879,1.04403,0.0115646,0.0239453,1994,953,46.031,-6.92227
777,71,45.9813,7.29913,0.00955294,0.0156919,0.0127782,0.0257641,-0.000519251,0.903272,0.0173518,0.0425731,2001,953,45.9813,-7.29916
784,71,46.0303,7.72223,0,0,0,0,0,0,0,-1,2008,953,46.0303,-7.72221
791,71,45.9553,7.30524,0,0,0,0,0,0,0,-1,2015,953,45.9554,-7.30523
798,71,45.8943,7.41119,0,0,0,0,0,0,0,-1,2022,953,45.8942,-7.41121
805,71,45.0161,6.63287,0,0,0,0,0,0,0,-1,2029,953,45.0161,-6.63289
812,71,0,0,0,0,0,0,0,0,0,-1,2036,953,0,0
-700,64,0,0,0,0,0,0,0,0,0,-1,524,960,0,0
-693,64,0,0,0,0,0,0,0,0,0,-1,531,960,0,0
-686,64,-38.1951,1.83392,0,0,0,0,0,0,0,-1,538,960,-38.1951,-1.83394
-679,64,-38.2677,1.71185,0.048913,0.123936,0.0558451,0.153698,0.0191505,1.08114,0.096716,0.0466666,545,960,-38.2677,-1.71183
-672,64,-38.5037,1.3833,0.0431071,0.105995,0.0496943,0.133358,0.0157442,1.06747,0.0841496,0.0482529,552,960,-38.5037,-1.38332
-665,64,-38.9619,0.869751,0,0,0,0,0,0,0,-1,559,960,-38.9618,-0.869759
-658,64,-34.6517,5.58862,0,0,0,0,0,0,0,-1,566,960,-34.6516,-5.58863
-651,64,-35.3715,4.52106,0,0,0,0,0,0,0,-1,573,960,-35.3715,-4.52105
-644,64,-35.133,4.3526,0.0155211,0.0449,0.0238547,0.0582253,0.0021958,1.06137,0.0381061,0.0330054,580,960,-35.133,-4.35261
-637,64,-35.1544,4.07269,0.00935649,0.0332605,0.0182241,0.0431023,-0.000485267,1.07563,0.028898,0.0166624,587,960,-35.1544,-4.0727
-630,64,-35.2151,3.80286,0.00558839,0.0234733,0.012537,0.0299303,-0.000868646,1.09519,0.0202493,0.0135921,594,960,-35.2151,-3.80288
-623,64,-35.243,3.53723,0.00103618,0.01533,0.00789906,0.0188355,-0.00246931,1.15312,0.0134558,0.0138379,601,960,-35.2431,-3.53725
-616,64,-35.261,3.25995,-0.00302094,0.00919268,0.00383151,0.0102951,-0.00412341,1.29063,0.00857499,0.0168968,608,960,-35.261,-3.25997
-609,64,-35.2117,3.0152,-0.00544869,0.00569955,0.000663584,0.00573891,-0.00548805,1.51155,0.00648243,0.0166225,615,960,-35.2117,-3.01519
-602,64,-35.1808,2.75482,-0.00716993,0.00392343,-0.00167845,0.00417182,-0.00741832,-1.42387,0.00677851,0.0165686,622,960,-35.1808,-2.75482
-595,64,-35.1951,2.49194,-0.0082903,0.00283023,-0.00314718,0.00365912,-0.00911919,-1.31327,0.00759874,0.0191614,629,960,-35.195,-2.49193
-588,64,-34.9241,2.51416,0,0,0,0,0,0,0,-1,636,960,-34.9241,-2.51415
-581,64,-35.4665,1.6828,-0.00896945,0.0014131,-0.00441567,0.00303706,-0.0105934,-1.21838,0.00826282,0.0398395,643,960,-35.4665,-1.6828
-574,64,-36.0183,1.1225,-0.00871801,0.00115207,-0.00470054,0.00303244,-0.0105984,-1.19026,0.00826398,0.0411628,650,960,-36.0183,-1.1225
-567,64,-36.1337,0.84729,-0.00842515,0.000959883,-0.00472536,0.00292685,-0.0103921,-1.17635,0.00808232,0.0240199,657,960,-36.1338,-0.847294
-560,64,-36.1755,0.850586,-0.00760384,0.000919357,-0.00442275,0.00279958,-0.00948406,-1.16882,0.00743375,0.0339614,664,960,-36.1756,-0.850579
-553,64,-36.1781,0.90448,-0.00600254,0.000870584,-0.00380757,0.00256311,-0.00769507,-1.15251,0.00616466,0.038644,671,960,-36.1781,-0.904509
-546,64,-36.2574,0.895691,-0.00350217,0.000725661,-0.00288577,0.00218893,-0.00496545,-1.10151,0.004233,0.0398478,678,960,-36.2575,-0.895702
-539,64,-36.3842,1.14362,-1.03673e-05,0.000337307,-0.00173145,0.00190362,-0.00157668,-0.83543,0.00201231,0.0421816,685,960,-36.3842,-1.1436
-532,64,-36.3135,1.16333,0.00418533,-0.000164524,-0.000855722,0.00434761,-0.000326811,-0.187423,0.00301326,0.0452527,692,960,-36.3135,-1.16335
-525,64,-36.3792,0.595642,0.00722043,-0.000486563,-0.00111095,0.00737738,-0.000643509,-0.140343,0.00514618,0.0465071,699,960,-36.3792,-0.595648
-518,64,0,0,0,0,0,0,0,0,0,-1,706,960,0,0
-511,64,0,0,0,0,0,0,0,0,0,-1,713,960,0,0
-504,64,0,0,0,0,0,0,0,0,0,-1,720,960,0,0
-497,64,0,0,0,0,0,0,0,0,0,-1,727,960,0,0
-490,64,0,0,0,0,0,0,0,0,0,-1,734,960,0,0
-483,64,0,0,0,0,0,0,0,0,0,-1,741,960,0,0
-476,64,0,0,0,0,0,0,0,0,0,-1,748,960,0,0
-469,64,0,0,0,0,0,0,0,0,0,-1,755,960,0,0
-462,64,0,0,0,0,0,0,0,0,0,-1,762,960,0,0
-455,64,0,0,0,0,0,0,0,0,0,-1,769,960,0,0
-448,64,0,0,0,0,0,0,0,0,0,-1,776,960,0,0
-441,64,0,0,0,0,0,0,0,0,0,-1,783,960,0,0
-434,64,0,0,0,0,0,0,0,0,0,-1,790,960,0,0
-427,64,0,0,0,0,0,0,0,0,0,-1,797,960,0,0
-420,64,0,0,0,0,0,0,0,0,0,-1,804,960,0,0
-413,64,0,0,0,0,0,0,0,0,0,-1,811,960,0,0
-406,64,0,0,0,0,0,0,0,0,0,-1,818,960,0,0
-399,64,0,0,0,0,0,0,0,0,0,-1,825,960,0,0
-392,64,0,0,0,0,0,0,0,0,0,-1,832,960,0,0
-385,64,0,0,0,0,0,0,0,0,0,-1,839,960,0,0
-378,64,0,0,0,0,0,0,0,0,0,-1,846,960,0,0
-371,64,0,0,0,0,0,0,0,0,0,-1,853,960,0,0
-364,64,0,0,0,0,0,0,0,0,0,-1,860,960,0,0
-357,64,0,0,0,0,0,0,0,0,0,-1,867,960,0,0
-350,64,0,0,0,0,0,0,0,0,0,-1,874,960,0,0
-343,64,0,0,0,0,0,0,0,0,0,-1,881,960,0,0
-336,64,0,0,0,0,0,0,0,0,0,-1,888,960,0,0
-329,64,0,0,0,0,0,0,0,0,0,-1,895,960,0,0
-322,64,0,0,0,0,0,0,0,0,0,-1,902,960,0,0
-315,64,0,0,0,0,0,0,0,0,0,-1,909,960,0,0
-308,64,0,0,0,0,0,0,0,0,0,-1,916,960,0,0
-301,64,0,0,0,0,0,0,0,0,0,-1,923,960,0,0
-294,64,0,0,0,0,0,0,0,0,0,-1,930,960,0,0
-287,64,0,0,0,0,0,0,0,0,0,-1,937,960,0,0
-280,64,0,0,0,0,0,0,0,0,0,-1,944,960,0,0
-273,64,0,0,0,0,0,0,0,0,0,-1,951,960,0,0
-266,64,0,0,0,0,0,0,0,0,0,-1,958,960,0,0
-259,64,0,0,0,0,0,0,0,0,0,-1,965,960,0,0
-252,64,0,0,0,0,0,0,0,0,0,-1,972,960,0,0
-245,64,0,0,0,0,0,0,0,0,0,-1,979,960,0,0
-238,64,0,0,0,0,0,0,0,0,0,-1,986,960,0,0
-231,64,0,0,0,0,0,0,0,0,0,-1,993,960,0,0
-224,64,0,0,0,0,0,0,0,0,0,-1,1000,960,0,0
-217,64,0,0,0,0,0,0,0,0,0,-1,1007,960,0,0
-210,64,0,0,0,0,0,0,0,0,0,-1,1014,960,0,0
-203,64,0,0,0,0,0,0,0,0,0,-1,1021,960,0,0
-196,64,0,0,0,0,0,0,0,0,0,-1,1028,960,0,0
-189,64,0,0,0,0,0,0,0,0,0,-1,1035,960,0,0
-182,64,0,0,0,0,0,0,0,0,0,-1,1042,960,0,0
-175,64,0,0,0,0,0,0,0,0,0,-1,1049,960,0,0
-168,64,0,0,0,0,0,0,0,0,0,-1,1056,960,0,0
-161,64,0,0,0,0,0,0,0,0,0,-1,1063,960,0,0
-154,64,0,0,0,0,0,0,0,0,0,-1,1070,960,0,0
-147,64,0,0,0,0,0,0,0,0,0,-1,1077,960,0,0
-140,64,0,0,0,0,0,0,0,0,0,-1,1084,960,0,0
-133,64,0,0,0,0,0,0,0,0,0,-1,1091,960,0,0
-126,64,0,0,0,0,0,0,0,0,0,-1,1098,960,0,0
-119,64,0,0,0,0,0,0,0,0,0,-1,1105,960,0,0
-112,64,0,0,0,0,0,0,0,0,0,-1,1112,960,0,0
-105,64,0,0,0,0,0,0,0,0,0,-1,1119,960,0,0
-98,64,0,0,0,0,0,0,0,0,0,-1,1126,960,0,0
-91,64,0,0,0,0,0,0,0,0,0,-1,1133,960,0,0
-84,64,0,0,0,0,0,0,0,0,0,-1,1140,960,0,0
-77,64,0,0,0,0,0,0,0,0,0,-1,1147,960,0,0
-70,64,0,0,0,0,0,0,0,0,0,-1,1154,960,0,0
-63,64,0,0,0,0,0,0,0,0,0,-1,1161,960,0,0
-56,64,0,0,0,0,0,0,0,0,0,-1,1168,960,0,0
-49,64,0,0,0,0,0,0,0,0,0,-1,1175,960,0,0
-42,64,0,0,0,0,0,0,0,0,0,-1,1182,960,0,0
-35,64,0,0,0,0,0,0,0,0,0,-1,1189,960,0,0
-28,64,0,0,0,0,0,0,0,0,0,-1,1196,960,0,0
-21,64,0,0,0,0,0,0,0,0,0,-1,1203,960,0,0
-14,64,0,0,0,0,0,0,0,0,0,-1,1210,960,0,0
-7,64,0,0,0,0,0,0,0,0,0,-1,1217,960,0,0
0,64,0,0,0,0,0,0,0,0,0,-1,1224,960,0,0
7,64,0,0,0,0,0,0,0,0,0,-1,1231,960,0,0
14,64,0,0,0,0,0,0,0,0,0,-1,1238,960,0,0
21,64,0,0,0,0,0,0,0,0,0,-1,1245,960,0,0
28,64,0,0,0,0,0,0,0,0,0,-1,1252,960,0,0
35,64,0,0,0,0,0,0,0,0,0,-1,1259,960,0,0
42,64,0,0,0,0,0,0,0,0,0,-1,1266,960,0,0
49,64,0,0,0,0,0,0,0,0,0,-1,1273,960,0,0
56,64,0,0,0,0,0,0,0,0,0,-1,1280,960,0,0
63,64,0,0,0,0,0,0,0,0,0,-1,1287,960,0,0
70,64,0,0,0,0,0,0,0,0,0,-1,1294,960,0,0
77,64,0,0,0,0,0,0,0,0,0,-1,1301,960,0,0
84,64,0,0,0,0,0,0,0,0,0,-1,1308,960,0,0
91,64,0,0,0,0,0,0,0,0,0,-1,1315,960,0,0
98,64,0,0,0,0,0,0,0,0,0,-1,1322,960,0,0
105,64,0,0,0,0,0,0,0,0,0,-1,1329,960,0,0
112,64,0,0,0,0,0,0,0,0,0,-1,1336,960,0,0
119,64,0,0,0,0,0,0,0,0,0,-1,1343,960,0,0
126,64,0,0,0,0,0,0,0,0,0,-1,1350,960,0,0
133,64,0,0,0,0,0,0,0,0,0,-1,1357,960,0,0
140,64,0,0,0,0,0,0,0,0,0,-1,1364,960,0,0
147,64,0,0,0,0,0,0,0,0,0,-1,1371,960,0,0
154,64,0,0,0,0,0,0,0,0,0,-1,1378,960,0,0
161,64,0,0,0,0,0,0,0,0,0,-1,1385,960,0,0
168,64,0,0,0,0,0,0,0,0,0,-1,1392,960,0,0
175,64,0,0,0,0,0,0,0,0,0,-1,1399,960,0,0
182,64,0,0,0,0,0,0,0,0,0,-1,1406,960,0,0
189,64,0,0,0,0,0,0,0,0,0,-1,1413,960,0,0
196,64,0,0,0,0,0,0,0,0,0,-1,1420,960,0,0
203,64,0,0,0,0,0,0,0,0,0,-1,1427,960,0,0
210,64,0,0,0,0,0,0,0,0,0,-1,1434,960,0,0
217,64,0,0,0,0,0,0,0,0,0,-1,1441,960,0,0
224,64,0,0,0,0,0,0,0,0,0,-1,1448,960,0,0
231,64,0,0,0,0,0,0,0,0,0,-1,1455,960,0,0
238,64,0,0,0,0,0,0,0,0,0,-1,1462,960,0,0
245,64,0,0,0,0,0,0,0,0,0,-1,1469,960,0,0
252,64,0,0,0,0,0,0,0,0,0,-1,1476,960,0,0
259,64,0,0,0,0,0,0,0,0,0,-1,1483,960,0,0
266,64,0,0,0,0,0,0,0,0,0,-1,1490,960,0,0
273,64,0,0,0,0,0,0,0,0,0,-1,1497,960,0,0
280,64,0,0,0,0,0,0,0,0,0,-1,1504,960,0,0
287,64,0,0,0,0,0,0,0,0,0,-1,1511,960,0,0
294,64,0,0,0,0,0,0,0,0,0,-1,1518,960,0,0
301,64,0,0,0,0,0,0,0,0,0,-1,1525,960,0,0
308,64,0,0,0,0,0,0,0,0,0,-1,1532,960,0,0
315,64,0,0,0,0,0,0,0,0,0,-1,1539,960,0,0
322,64,0,0,0,0,0,0,0,0,0,-1,1546,960,0,0
329,64,0,0,0,0,0,0,0,0,0,-1,1553,960,0,0
336,64,0,0,0,0,0,0,0,0,0,-1,1560,960,0,0
343,64,0,0,0,0,0,0,0,0,0,-1,1567,960,0,0
350,64,0,0,0,0,0,0,0,0,0,-1,1574,960,0,0
357,64,0,0,0,0,0,0,0,0,0,-1,1581,960,0,0
364,64,0,0,0,0,0,0,0,0,0,-1,1588,960,0,0
371,64,0,0,0,0,0,0,0,0,0,-1,1595,960,0,0
378,64,0,0,0,0,0,0,0,0,0,-1,1602,960,0,0
385,64,0,0,0,0,0,0,0,0,0,-1,1609,960,0,0
392,64,0,0,0,0,0,0,0,0,0,-1,1616,960,0,0
399,64,0,0,0,0,0,0,0,0,0,-1,1623,960,0,0
406,64,0,0,0,0,0,0,0,0,0,-1,1630,960,0,0
413,64,0,0,0,0,0,0,0,0,0,-1,1637,960,0,0
420,64,0,0,0,0,0,0,0,0,0,-1,1644,960,0,0
427,64,0,0,0,0,0,0,0,0,0,-1,1651,960,0,0
434,64,0,0,0,0,0,0,0,0,0,-1,1658,960,0,0
441,64,0,0,0,0,0,0,0,0,0,-1,1665,960,0,0
448,64,0,0,0,0,0,0,0,0,0,-1,1672,960,0,0
455,64,0,0,0,0,0,0,0,0,0,-1,1679,960,0,0
462,64,0,0,0,0,0,0,0,0,0,-1,1686,960,0,0
469,64,0,0,0,0,0,0,0,0,0,-1,1693,960,0,0
476,64,0,0,0,0,0,0,0,0,0,-1,1700,960,0,0
483,64,0,0,0,0,0,0,0,0,0,-1,1707,960,0,0
490,64,0,0,0,0,0,0,0,0,0,-1,1714,960,0,0
497,64,0,0,0,0,0,0,0,0,0,-1,1721,960,0,0
504,64,0,0,0,0,0,0,0,0,0,-1,1728,960,0,0
511,64,0,0,0,0,0,0,0,0,0,-1,1735,960,0,0
518,64,0,0,0,0,0,0,0,0,0,-1,1742,960,0,0
525,64,0,0,0,0,0,0,0,0,0,-1,1749,960,0,0
532,64,0,0,0,0,0,0,0,0,0,-1,1756,960,0,0
539,64,0,0,0,0,0,0,0,0,0,-1,1763,960,0,0
546,64,0,0,0,0,0,0,0,0,0,-1,1770,960,0,0
553,64,0,0,0,0,0,0,0,0,0,-1,1777,960,0,0
560,64,0,0,0,0,0,0,0,0,0,-1,1784,960,0,0
567,64,0,0,0,0,0,0,0,0,0,-1,1791,960,0,0
574,64,0,0,0,0,0,0,0,0,0,-1,1798,960,0,0
581,64,0,0,0,0,0,0,0,0,0,-1,1805,960,0,0
588,64,0,0,0,0,0,0,0,0,0,-1,1812,960,0,0
595,64,0,0,0,0,0,0,0,0,0,-1,1819,960,0,0
602,64,0,0,0,0,0,0,0,0,0,-1,1826,960,0,0
609,64,0,0,0,0,0,0,0,0,0,-1,1833,960,0,0
616,64,0,0,0,0,0,0,0,0,0,-1,1840,960,0,0
623,64,0,0,0,0,0,0,0,0,0,-1,1847,960,0,0
630,64,0,0,0,0,0,0,0,0,0,-1,1854,960,0,0
637,64,0,0,0,0,0,0,0,0,0,-1,1861,960,0,0
644,64,48.6412,2.71631,-0.00254047,-0.000451986,-0.00423568,0.00286627,-0.00585873,-0.906255,0.00513519,0.0410164,1868,960,48.6413,-2.71633
651,64,48.6221,2.54498,-0.00243355,-0.000217867,-0.00279033,0.0016765,-0.00432792,-0.97437,0.00357754,0.0384694,1875,960,48.6221,-2.54497
658,64,48.506,2.5824,-0.00206591,7.14827e-06,-0.00158776,0.00086677,-0.00292553,-1.07458,0.00229451,0.0373769,1882,960,48.506,-2.58238
665,64,48.5479,2.75555,-0.00154106,0.000272261,-0.000474157,0.000388761,-0.00165756,-1.32987,0.00125487,0.0392527,1889,960,48.5479,-2.75553
672,64,48.5503,2.71442,-0.00109609,0.000422519,0.000488232,0.00056594,-0.00123951,1.28508,0.00106628,0.0415788,1896,960,48.5503,-2.71443
679,64,48.5842,2.61206,-0.000668851,0.000383846,0.00125108,0.00121479,-0.0014998,0.984516,0.00157015,0.0399983,1903,960,48.5842,-2.61205
686,64,48.5366,2.5387,-0.000242263,0.000233491,0.00165513,0.00166775,-0.00167652,0.85677,0.00193082,0.0358357,1910,960,48.5367,-2.53867
693,64,48.5173,2.55371,-8.16702e-05,0.000129701,0.0018311,0.00185816,-0.00181013,0.814225,0.00211795,0.0322367,1917,960,48.5174,-2.55372
700,64,48.5652,2.62671,-0.000146441,0.000169988,0.0018483,0.00186683,-0.00184328,0.828094,0.00214205,0.0330688,1924,960,48.5652,-2.62668
707,64,48.6479,2.68005,0,0,0,0,0,0,0,-1,1931,960,48.6479,-2.68006
714,64,47.7627,3.7066,0,0,0,0,0,0,0,-1,1938,960,47.7628,-3.70661
721,64,46.7301,4.66125,0,0,0,0,0,0,0,-1,1945,960,46.7301,-4.66123
728,64,46.6447,5.07709,-0.00164804,0.00198693,0.00096065,0.0022252,-0.0018863,1.32768,0.00237646,0.0195633,1952,960,46.6447,-5.07712
735,64,46.6611,5.46265,-0.0021255,0.0028941,0.000613214,0.00296793,-0.00219932,1.45098,0.0029943,0.0279235,1959,960,46.6611,-5.46262
742,64,46.7488,5.74103,-0.00240616,0.00389346,0.00037058,0.00391519,-0.00242788,1.51224,0.00369558,0.0254223,1966,960,46.7488,-5.74103
749,64,46.7089,6.02777,-0.00224224,0.00534983,0.000695013,0.00541293,-0.00230534,1.48025,0.00457496,0.0165446,1973,960,46.7088,-6.02777
756,64,46.6494,6.31201,-0.00120682,0.00771835,0.00207546,0.00817737,-0.00166584,1.35313,0.00608337,0.0154249,1980,960,46.6494,-6.312
763,64,46.6111,6.62018,0.000976531,0.0103774,0.00439446,0.0121116,-0.000757736,1.19491,0.00833849,0.0177944,1987,960,46.6111,-6.6202
770,64,46.4235,6.85547,0.00474402,0.013319,0.00814863,0.0182393,-0.000176235,1.02758,0.0122187,0.018347,1994,960,46.4234,-6.85547
777,64,46.3125,7.27655,0.0102982,0.0163401,0.0134484,0.0271027,-0.000464329,0.89588,0.0182252,0.0332093,2001,960,46.3125,-7.27654
784,64,46.3069,7.57788,0.0190613,0.0196083,0.0215365,0.040873,-0.00220342,0.791748,0.028012,0.0434693,2008,960,46.3068,-7.57789
791,64,46.3999,7.5954,0,0,0,0,0,0,0,-1,2015,960,46.3999,-7.59537
798,64,46.4673,7.68811,0,0,0,0,0,0,0,-1,2022,960,46.4674,-7.68814
805,64,45.2212,5.37988,0,0,0,0,0,0,0,-1,2029,960,45.2211,-5.37991
812,64,0,0,0,0,0,0,0,0,0,-1,2036,960,0,0
-700,57,0,0,0,0,0,0,0,0,0,-1,524,967,0,0
-693,57,0,0,0,0,0,0,0,0,0,-1,531,967,0,0
-686,57,-37.5489,1.06354,0,0,0,0,0,0,0,-1,538,967,-37.5489,-1.06356
-679,57,-39.4169,0.986084,0,0,0,0,0,0,0,-1,545,967,-39.4169,-0.986098
-672,57,-39.5858,0.262756,0,0,0,0,0,0,0,-1,552,967,-39.5857,-0.262745
-665,57,-35.8188,4.14679,0,0,0,0,0,0,0,-1,559,967,-35.8189,-4.14679
-658,57,-34.6756,3.86963,0,0,0,0,0,0,0,-1,566,967,-34.6756,-3.86961
-651,57,-35.1057,3.97083,0.0309032,0.0562573,0.0266175,0.0730625,0.0140981,1.00764,0.0447554,0.0458598,573,967,-35.1057,-3.97084
-644,57,-35.5031,4.14618,0.0213982,0.0434681,0.0213519,0.056468,0.00839831,1.0239,0.0351816,0.0327697,580,967,-35.5031,-4.14617
-637,57,-35.4523,3.92908,0.012661,0.0322362,0.0163926,0.0415409,0.00335634,1.05453,0.0266457,0.0188683,587,967,-35.4524,-3.9291
-630,57,-35.534,3.70166,0.00710565,0.0228495,0.0111505,0.0286268,0.00132839,1.09276,0.0186575,0.0142142,594,967,-35.534,-3.70168
-623,57,-35.5518,3.49579,0.00159811,0.0150378,0.00678185,0.0178652,-0.00122929,1.1758,0.0123403,0.0128388,601,967,-35.5518,-3.49577
-616,57,-35.5402,3.2829,-0.00277962,0.0092981,0.00290159,0.00995902,-0.00344054,1.34684,0.00803558,0.0148459,608,967,-35.5402,-3.28292
-609,57,-35.5366,3.0329,-0.00506446,0.00604179,-0.000214382,0.00604593,-0.00506859,-1.5515,0.00642523,0.0157964,615,967,-35.5365,-3.03293
-602,57,-35.5168,2.77472,-0.00644186,0.0043402,-0.0025552,0.00491509,-0.00701675,-1.34949,0.00692438,0.0115689,622,967,-35.5168,-2.77473
-595,57,-35.5104,2.54053,-0.00728755,0.00317798,-0.00408088,0.00458113,-0.00869071,-1.23962,0.00778399,0.0136843,629,967,-35.5104,-2.54055
-588,57,-35.3244,2.43835,0,0,0,0,0,0,0,-1,636,967,-35.3244,-2.43834
-581,57,-35.7263,1.67145,-0.00771755,0.00164275,-0.00545285,0.00414851,-0.0102233,-1.14004,0.00854109,0.0329485,643,967,-35.7262,-1.67143
-574,57,-36.0984,0.960266,-0.00742846,0.00134933,-0.00565375,0.00411776,-0.0101969,-1.11545,0.00850936,0.0301028,650,967,-36.0984,-0.960243
-567,57,-36.1312,0.840515,-0.00711419,0.00112729,-0.0055204,0.00389533,-0.00988223,-1.10601,0.00820099,0.0313003,657,967,-36.1311,-0.840538
-560,57,-36.1353,0.84436,-0.00626464,0.00100536,-0.00497342,0.00353057,-0.00878984,-1.10098,0.00732604,0.0390384,664,967,-36.1353,-0.844376
-553,57,-36.0886,0.811096,-0.00462117,0.000857017,-0.00404016,0.00299906,-0.00676321,-1.08329,0.00577422,0.0391829,671,967,-36.0886,-0.811107
-546,57,-36.0417,0.780029,-0.00203103,0.000577308,-0.00273902,0.0023068,-0.00376052,-1.00759,0.00353633,0.0424653,678,967,-36.0417,-0.780053
-539,57,-36.4537,1.10455,0.00161962,2.87386e-05,-0.00119491,0.00225964,-0.00061128,-0.491735,0.00174622,0.0443777,685,967,-36.4537,-1.10455
-532,57,-36.4236,0.681213,0.00608771,-0.000518392,-0.000150694,0.00609114,-0.000521827,-0.0227955,0.00424541,0.045749,692,967,-36.4237,-0.681236
-525,57,-36.2509,0.632751,0.00961168,-0.000747151,-0.000484762,0.00963432,-0.000769787,-0.046661,0.00669424,0.0468249,699,967,-36.2509,-0.632752
-518,57,0,0,0,0,0,0,0,0,0,-1,706,967,0,0
-511,57,0,0,0,0,0,0,0,0,0,-1,713,967,0,0
-504,57,0,0,0,0,0,0,0,0,0,-1,720,967,0,0
-497,57,0,0,0,0,0,0,0,0,0,-1,727,967,0,0
-490,57,0,0,0,0,0,0,0,0,0,-1,734,967,0,0
-483,57,0,0,0,0,0,0,0,0,0,-1,741,967,0,0
-476,57,0,0,0,0,0,0,0,0,0,-1,748,967,0,0
-469,57,0,0,0,0,0,0,0,0,0,-1,755,967,0,0
-462,57,0,0,0,0,0,0,0,0,0,-1,762,967,0,0
-455,57,0,0,0,0,0,0,0,0,0,-1,769,967,0,0
-448,57,0,0,0,0,0,0,0,0,0,-1,776,967,0,0
-441,57,0,0,0,0,0,0,0,0,0,-1,783,967,0,0
-434,57,0,0,0,0,0,0,0,0,0,-1,790,967,0,0
-427,57,0,0,0,0,0,0,0,0,0,-1,797,967,0,0
-420,57,0,0,0,0,0,0,0,0,0,-1,804,967,0,0
-413,57,0,0,0,0,0,0,0,0,0,-1,811,967,0,0
-406,57,0,0,0,0,0,0,0,0,0,-1,818,967,0,0
-399,57,0,0,0,0,0,0,0,0,0,-1,825,967,0,0
-392,57,0,0,0,0,0,0,0,0,0,-1,832,967,0,0
-385,57,0,0,0,0,0,0,0,0,0,-1,839,967,0,0
-378,57,0,0,0,0,0,0,0,0,0,-1,846,967,0,0
-371,57,0,0,0,0,0,0,0,0,0,-1,853,967,0,0
-364,57,0,0,0,0,0,0,0,0,0,-1,860,967,0,0
-357,57,0,0,0,0,0,0,0,0,0,-1,867,967,0,0
-350,57,0,0,0,0,0,0,0,0,0,-1,874,967,0,0
-343,57,0,0,0,0,0,0,0,0,0,-1,881,967,0,0
-336,57,0,0,0,0,0,0,0,0,0,-1,888,967,0,0
-329,57,0,0,0,0,0,0,0,0,0,-1,895,967,0,0
-322,57,0,0,0,0,0,0,0,0,0,-1,902,967,0,0
-315,57,0,0,0,0,0,0,0,0,0,-1,909,967,0,0
-308,57,0,0,0,0,0,0,0,0,0,-1,916,967,0,0
-301,57,0,0,0,0,0,0,0,0,0,-1,923,967,0,0
-294,57,0,0,0,0,0,0,0,0,0,-1,930,967,0,0
-287,57,0,0,0,0,0,0,0,0,0,-1,937,967,0,0
-280,57,0,0,0,0,0,0,0,0,0,-1,944,967,0,0
-273,57,0,0,0,0,0,0,0,0,0,-1,951,967,0,0
-266,57,0,0,0,0,0,0,0,0,0,-1,958,967,0,0
-259,57,0,0,0,0,0,0,0,0,0,-1,965,967,0,0
-252,57,0,0,0,0,0,0,0,0,0,-1,972,967,0,0
-245,57,0,0,0,0,0,0,0,0,0,-1,979,967,0,0
-238,57,0,0,0,0,0,0,0,0,0,-1,986,967,0,0
-231,57,0,0,0,0,0,0,0,0,0,-1,993,967,0,0
-224,57,0,0,0,0,0,0,0,0,0,-1,1000,967,0,0
-217,57,0,0,0,0,0,0,0,0,0,-1,1007,967,0,0
-210,57,0,0,0,0,0,0,0,0,0,-1,1014,967,0,0
-203,57,0,0,0,0,0,0,0,0,0,-1,1021,967,0,0
-196,57,0,0,0,0,0,0,0,0,0,-1,1028,967,0,0
-189,57,0,0,0,0,0,0,0,0,0,-1,1035,967,0,0
-182,57,0,0,0,0,0,0,0,0,0,-1,1042,967,0,0
-175,57,0,0,0,0,0,0,0,0,0,-1,1049,967,0,0
-168,57,0,0,0,0,0,0,0,0,0,-1,1056,967,0,0
-161,57,0,0,0,0,0,0,0,0,0,-1,1063,967,0,0
-154,57,0,0,0,0,0,0,0,0,0,-1,1070,967,0,0
-147,57,0,0,0,0,0,0,0,0,0,-1,1077,967,0,0
-140,57,0,0,0,0,0,0,0,0,0,-1,1084,967,0,0
-133,57,0,0,0,0,0,0,0,0,0,-1,1091,967,0,0
-126,57,0,0,0,0,0,0,0,0,0,-1,1098,967,0,0
-119,57,0,0,0,0,0,0,0,0,0,-1,1105,967,0,0
-112,57,0,0,0,0,0,0,0,0,0,-1,1112,967,0,0
-105,57,0,0,0,0,0,0,0,0,0,-1,1119,967,0,0
-98,57,0,0,0,0,0,0,0,0,0,-1,1126,967,0,0
-91,57,0,0,0,0,0,0,0,0,0,-1,1133,967,0,0
-84,57,0,0,0,0,0,0,0,0,0,-1,1140,967,0,0
-77,57,0,0,0,0,0,0,0,0,0,-1,1147,967,0,0
-70,57,0,0,0,0,0,0,0,0,0,-1,1154,967,0,0
-63,57,0,0,0,0,0,0,0,0,0,-1,1161,967,0,0
-56,57,0,0,0,0,0,0,0,0,0,-1,1168,967,0,0
-49,57,0,0,0,0,0,0,0,0,0,-1,1175,967,0,0
-42,57,0,0,0,0,0,0,0,0,0,-1,1182,967,0,0
-35,57,0,0,0,0,0,0,0,0,0,-1,1189,967,0,0
-28,57,0,0,0,0,0,0,0,0,0,-1,1196,967,0,0
-21,57,0,0,0,0,0,0,0,0,0,-1,1203,967,0,0
-14,57,0,0,0,0,0,0,0,0,0,-1,1210,967,0,0
-7,57,0,0,0,0,0,0,0,0,0,-1,1217,967,0,0
0,57,0,0,0,0,0,0,0,0,0,-1,1224,967,0,0
7,57,0,0,0,0,0,0,0,0,0,-1,1231,967,0,0
14,57,0,0,0,0,0,0,0,0,0,-1,1238,967,0,0
21,57,0,0,0,0,0,0,0,0,0,-1,1245,967,0,0
28,57,0,0,0,0,0,0,0,0,0,-1,1252,967,0,0
35,57,0,0,0,0,0,0,0,0,0,-1,1259,967,0,0
42,57,0,0,0,0,0,0,0,0,0,-1,1266,967,0,0
49,57,0,0,0,0,0,0,0,0,0,-1,1273,967,0,0
56,57,0,0,0,0,0,0,0,0,0,-1,1280,967,0,0
63,57,0,0,0,0,0,0,0,0,0,-1,1287,967,0,0
70,57,0,0,0,0,0,0,0,0,0,-1,1294,967,0,0
77,57,0,0,0,0,0,0,0,0,0,-1,1301,967,0,0
84,57,0,0,0,0,0,0,0,0,0,-1,1308,967,0,0
91,57,0,0,0,0,0,0,0,0,0,-1,1315,967,0,0
98,57,0,0,0,0,0,0,0,0,0,-1,1322,967,0,0
105,57,0,0,0,0,0,0,0,0,0,-1,1329,967,0,0
112,57,0,0,0,0,0,0,0,0,0,-1,1336,967,0,0
119,57,0,0,0,0,0,0,0,0,0,-1,1343,967,0,0
126,57,0,0,0,0,0,0,0,0,0,-1,1350,967,0,0
133,57,0,0,0,0,0,0,0,0,0,-1,1357,967,0,0
140,57,0,0,0,0,0,0,0,0,0,-1,1364,967,0,0
147,57,0,0,0,0,0,0,0,0,0,-1,1371,967,0,0
154,57,0,0,0,0,0,0,0,0,0,-1,1378,967,0,0
161,57,0,0,0,0,0,0,0,0,0,-1,1385,967,0,0
168,57,0,0,0,0,0,0,0,0,0,-1,1392,967,0,0
175,57,0,0,0,0,0,0,0,0,0,-1,1399,967,0,0
182,57,0,0,0,0,0,0,0,0,0,-1,1406,967,0,0
189,57,0,0,0,0,0,0,0,0,0,-1,1413,967,0,0
196,57,0,0,0,0,0,0,0,0,0,-1,1420,967,0,0
203,57,0,0,0,0,0,0,0,0,0,-1,1427,967,0,0
210,57,0,0,0,0,0,0,0,0,0,-1,1434,967,0,0
217,57,0,0,0,0,0,0,0,0,0,-1,1441,967,0,0
224,57,0,0,0,0,0,0,0,0,0,-1,1448,967,0,0
231,57,0,0,0,0,0,0,0,0,0,-1,1455,967,0,0
238,57,0,0,0,0,0,0,0,0,0,-1,1462,967,0,0
245,57,0,0,0,0,0,0,0,0,0,-1,1469,967,0,0
252,57,0,0,0,0,0,0,0,0,0,-1,1476,967,0,0
259,57,0,0,0,0,0,0,0,0,0,-1,1483,967,0,0
266,57,0,0,0,0,0,0,0,0,0,-1,1490,967,0,0
273,57,0,0,0,0,0,0,0,0,0,-1,1497,967,0,0
280,57,0,0,0,0,0,0,0,0,0,-1,1504,967,0,0
287,57,0,0,0,0,0,0,0,0,0,-1,1511,967,0,0
294,57,0,0,0,0,0,0,0,0,0,-1,1518,967,0,0
301,57,0,0,0,0,0,0,0,0,0,-1,1525,967,0,0
308,57,0,0,0,0,0,0,0,0,0,-1,1532,967,0,0
315,57,0,0,0,0,0,0,0,0,0,-1,1539,967,0,0
322,57,0,0,0,0,0,0,0,0,0,-1,1546,967,0,0
329,57,0,0,0,0,0,0,0,0,0,-1,1553,967,0,0
336,57,0,0,0,0,0,0,0,0,0,-1,1560,967,0,0
343,57,0,0,0,0,0,0,0,0,0,-1,1567,967,0,0
350,57,0,0,0,0,0,0,0,0,0,-1,1574,967,0,0
357,57,0,0,0,0,0,0,0,0,0,-1,1581,967,0,0
364,57,0,0,0,0,0,0,0,0,0,-1,1588,967,0,0
371,57,0,0,0,0,0,0,0,0,0,-1,1595,967,0,0
378,57,0,0,0,0,0,0,0,0,0,-1,1602,967,0,0
385,57,0,0,0,0,0,0,0,0,0,-1,1609,967,0,0
392,57,0,0,0,0,0,0,0,0,0,-1,1616,967,0,0
399,57,0,0,0,0,0,0,0,0,0,-1,1623,967,0,0
406,57,0,0,0,0,0,0,0,0,0,-1,1630,967,0,0
413,57,0,0,0,0,0,0,0,0,0,-1,1637,967,0,0
420,57,0,0,0,0,0,0,0,0,0,-1,1644,967,0,0
427,57,0,0,0,0,0,0,0,0,0,-1,1651,967,0,0
434,57,0,0,0,0,0,0,0,0,0,-1,1658,967,0,0
441,57,0,0,0,0,0,0,0,0,0,-1,1665,967,0,0
448,57,0,0,0,0,0,0,0,0,0,-1,1672,967,0,0
455,57,0,0,0,0,0,0,0,0,0,-1,1679,967,0,0
462,57,0,0,0,0,0,0,0,0,0,-1,1686,967,0,0
469,57,0,0,0,0,0,0,0,0,0,-1,1693,967,0,0
476,57,0,0,0,0,0,0,0,0,0,-1,1700,967,0,0
483,57,0,0,0,0,0,0,0,0,0,-1,1707,967,0,0
490,57,0,0,0,0,0,0,0,0,0,-1,1714,967,0,0
497,57,0,0,0,0,0,0,0,0,0,-1,1721,967,0,0
504,57,0,0,0,0,0,0,0,0,0,-1,1728,967,0,0
511,57,0,0,0,0,0,0,0,0,0,-1,1735,967,0,0
518,57,0,0,0,0,0,0,0,0,0,-1,1742,967,0,0
525,57,0,0,0,0,0,0,0,0,0,-1,1749,967,0,0
532,57,0,0,0,0,0,0,0,0,0,-1,1756,967,0,0
539,57,0,0,0,0,0,0,0,0,0,-1,1763,967,0,0
546,57,0,0,0,0,0,0,0,0,0,-1,1770,967,0,0
553,57,0,0,0,0,0,0,0,0,0,-1,1777,967,0,0
560,57,0,0,0,0,0,0,0,0,0,-1,1784,967,0,0
567,57,0,0,0,0,0,0,0,0,0,-1,1791,967,0,0
574,57,0,0,0,0,0,0,0,0,0,-1,1798,967,0,0
581,57,0,0,0,0,0,0,0,0,0,-1,1805,967,0,0
588,57,0,0,0,0,0,0,0,0,0,-1,1812,967,0,0
595,57,0,0,0,0,0,0,0,0,0,-1,1819,967,0,0
602,57,0,0,0,0,0,0,0,0,0,-1,1826,967,0,0
609,57,0,0,0,0,0,0,0,0,0,-1,1833,967,0,0
616,57,0,0,0,0,0,0,0,0,0,-1,1840,967,0,0
623,57,0,0,0,0,0,0,0,0,0,-1,1847,967,0,0
630,57,0,0,0,0,0,0,0,0,0,-1,1854,967,0,0
637,57,0,0,0,0,0,0,0,0,0,-1,1861,967,0,0
644,57,48.6111,2.89697,-0.0019572,-0.000422352,-0.00348152,0.00237532,-0.00475487,-0.893877,0.00419234,0.0407587,1868,967,48.611,-2.89699
651,57,48.6293,2.62109,-0.00199111,-0.000219545,-0.00223267,0.00129664,-0.00350729,-0.974243,0.00286977,0.0340617,1875,967,48.6293,-2.62109
658,57,48.6171,2.5307,-0.0017423,-4.33151e-05,-0.00121376,0.000588694,-0.00237431,-1.09072,0.00181128,0.0344936,1882,967,48.617,-2.53073
665,57,48.5026,2.42957,-0.00132962,0.000204887,-0.000239901,0.000241518,-0.00136625,-1.41927,0.0010011,0.0418811,1889,967,48.5026,-2.42958
672,57,48.5308,2.55701,-0.000946765,0.000398166,0.000662699,0.00066983,-0.00121843,1.18175,0.00110542,0.0419648,1896,967,48.5308,-2.55702
679,57,48.4961,2.67792,-0.000541401,0.00042254,0.00147307,0.00149048,-0.00160934,0.943503,0.00179012,0.039418,1903,967,48.4961,-2.67794
686,57,48.4865,2.6181,-0.000107142,0.000305818,0.00199995,0.00210992,-0.00191125,0.836837,0.00232257,0.0367175,1910,967,48.4864,-2.61811
693,57,48.4591,2.59369,7.96196e-05,0.000206633,0.0022614,0.00240542,-0.00211917,0.799436,0.00261401,0.0306137,1917,967,48.4591,-2.59368
700,57,48.5262,2.65033,1.82765e-05,0.000259365,0.00232418,0.00246613,-0.00218848,0.811308,0.00268893,0.0251865,1924,967,48.5263,-2.65032
707,57,48.703,2.69385,0,0,0,0,0,0,0,-1,1931,967,48.703,-2.69384
714,57,47.8848,3.33862,0,0,0,0,0,0,0,-1,1938,967,47.8848,-3.33863
721,57,47.0574,4.8266,0,0,0,0,0,0,0,-1,1945,967,47.0574,-4.82661
728,57,46.9564,5.18695,-0.00159995,0.00220884,0.00156823,0.00277144,-0.00216255,1.22635,0.00285586,0.0217487,1952,967,46.9564,-5.18693
735,57,47.0245,5.49585,-0.00208513,0.00314936,0.00125446,0.00343447,-0.00237024,1.34732,0.00337007,0.0270133,1959,967,47.0246,-5.49585
742,57,47.0681,5.6781,-0.00236596,0.00413798,0.00102057,0.00429436,-0.00252234,1.41875,0.0039797,0.0197986,1966,967,47.0681,-5.67812
749,57,47.0127,6.01453,-0.00220699,0.00556391,0.00133618,0.00578724,-0.00243033,1.40518,0.00487458,0.014178,1973,967,47.0127,-6.01454
756,57,46.9635,6.27594,-0.00122277,0.00797681,0.00264968,0.0086854,-0.00193135,1.30949,0.00652996,0.0119238,1980,967,46.9634,-6.27596
763,57,46.8943,6.53107,0.000941613,0.0106616,0.00484982,0.0126675,-0.00106427,1.17862,0.00882119,0.0125404,1987,967,46.8943,-6.53109
770,57,46.808,6.76965,0.00482176,0.0137116,0.0085657,0.018917,-0.000383636,1.02473,0.0127411,0.0119222,1994,967,46.808,-6.76965
777,57,46.7056,7.02844,0.0105229,0.0169132,0.0138866,0.0279675,-0.000531469,0.898475,0.0188247,0.0277649,2001,967,46.7056,-7.02846
784,57,46.6711,7.59668,0.0193111,0.0204156,0.0219263,0.0417966,-0.00206992,0.797989,0.0285794,0.0478146,2008,967,46.6713,-7.59668
791,57,46.6619,8.01996,0,0,0,0,0,0,0,-1,2015,967,46.6618,-8.01996
798,57,49.0078,8.59192,0,0,0,0,0,0,0,-1,2022,967,49.0077,-8.59194
805,57,49.5339,9.23376,0,0,0,0,0,0,0,-1,2029,967,49.534,-9.23378
812,57,0,0,0,0,0,0,0,0,0,-1,2036,967,0,0
-700,50,0,0,0,0,0,0,0,0,0,-1,524,974,0,0
-693,50,-34.7252,5.94427,0,0,0,0,0,0,0,-1,531,974,-34.7252,-5.94427
-686,50,-35.6592,2.51874,0,0,0,0,0,0,0,-1,538,974,-35.6592,-2.51874
-679,50,-39.4578,5.37518,0,0,0,0,0,0,0,-1,545,974,-39.4578,-5.37517
-672,50,-37.4723,4.78015,0.089865,0.097825,0.0356154,0.129682,0.058008,0.841042,0.0750104,0.0495913,552,974,-37.4723,-4.78018
-665,50,-36.5117,4.23792,0,0,0,0,0,0,0,-1,559,974,-36.5117,-4.23789
-658,50,-34.6026,3.49298,0,0,0,0,0,0,0,-1,566,974,-34.6026,-3.493
-651,50,-35.1319,3.66534,0.0399303,0.0539869,0.0230384,0.0710452,0.022872,0.933449,0.0418761,0.0437483,573,974,-35.1319,-3.66536
-644,50,-35.6152,3.9231,0.0272629,0.0416392,0.0186614,0.054449,0.0144531,0.969235,0.0325687,0.0302877,580,974,-35.6152,-3.9231
-637,50,-35.7026,3.80176,0.0160733,0.0308202,0.0143735,0.0396012,0.00729228,1.02239,0.024337,0.0176599,587,974,-35.7027,-3.80173
-630,50,-35.7794,3.62909,0.00880399,0.0218317,0.00961735,0.0269335,0.00370218,1.08306,0.0168577,0.0119132,594,974,-35.7794,-3.62909
-623,50,-35.799,3.47467,0.00245295,0.0143777,0.00551521,0.0165374,0.000293292,1.19757,0.0109285,0.0124425,601,974,-35.799,-3.47469
-616,50,-35.8107,3.27856,-0.00214013,0.00906436,0.00179388,0.00934456,-0.00242033,1.41585,0.00717389,0.0129138,608,974,-35.8106,-3.27854
-609,50,-35.8209,3.0191,-0.00426084,0.00606621,-0.00128529,0.00622377,-0.0044184,-1.44882,0.00617366,0.0120436,615,974,-35.8209,-3.01913
-602,50,-35.8204,2.79742,-0.00528844,0.00448309,-0.00357485,0.00565126,-0.00645662,-1.25496,0.00699564,0.0113823,622,974,-35.8205,-2.79742
-595,50,-35.8109,2.59326,-0.00583249,0.00328872,-0.00514601,0.0056042,-0.00814797,-1.14798,0.00798496,0.0118999,629,974,-35.8109,-2.59328
-588,50,-35.8323,2.24207,-0.0060881,0.00225682,-0.00600353,0.00539544,-0.00922671,-1.08908,0.00853815,0.0182528,636,974,-35.8324,-2.24205
-581,50,-36.0079,1.41333,-0.00595028,0.00172331,-0.00659705,0.00551816,-0.00974513,-1.04879,0.0089242,0.023948,643,974,-36.0079,-1.41333
-574,50,-36.187,0.60968,0,0,0,0,0,0,0,-1,650,974,-36.187,-0.609668
-567,50,-36.0803,0.789978,-0.00529616,0.0011818,-0.00637348,0.00509211,-0.00920646,-1.02049,0.00836843,0.0350431,657,974,-36.0803,-0.789993
-560,50,-36.1078,0.764282,-0.00445699,0.00103082,-0.00555072,0.00447881,-0.00790498,-1.01495,0.00724042,0.0396112,664,974,-36.1078,-0.764305
-553,50,-36.1276,0.743103,-0.00284841,0.000855157,-0.00426726,0.00365511,-0.00564836,-0.990112,0.0054123,0.039453,671,974,-36.1276,-0.743132
-546,50,-35.9951,0.99469,-0.000275958,0.000552066,-0.00255952,0.00273084,-0.00245473,-0.865581,0.0029953,0.0412192,678,974,-35.995,-0.994674
-539,50,-35.9786,1.27325,0.00339616,2.75695e-05,-0.000625828,0.00350867,-8.49412e-05,-0.177879,0.00236794,0.0430967,685,974,-35.9786,-1.27323
-532,50,-36.204,0.877808,0.00802468,-0.000312852,0.00051997,0.00805698,-0.000345155,0.0620446,0.00548999,0.0453419,692,974,-36.204,-0.87782
-525,50,-36.063,0.979248,0.0119892,-6.2393e-05,7.59088e-06,0.0119892,-6.23977e-05,0.000629866,0.00801367,0.0451614,699,974,-36.063,-0.979224
-518,50,0,0,0,0,0,0,0,0,0,-1,706,974,0,0
-511,50,0,0,0,0,0,0,0,0,0,-1,713,974,0,0
-504,50,0,0,0,0,0,0,0,0,0,-1,720,974,0,0
-497,50,0,0,0,0,0,0,0,0,0,-1,727,974,0,0
-490,50,0,0,0,0,0,0,0,0,0,-1,734,974,0,0
-483,50,0,0,0,0,0,0,0,0,0,-1,741,974,0,0
-476,50,0,0,0,0,0,0,0,0,0,-1,748,974,0,0
-469,50,0,0,0,0,0,0,0,0,0,-1,755,974,0,0
-462,50,0,0,0,0,0,0,0,0,0,-1,762,974,0,0
-455,50,0,0,0,0,0,0,0,0,0,-1,769,974,0,0
-448,50,0,0,0,0,0,0,0,0,0,-1,776,974,0,0
-441,50,0,0,0,0,0,0,0,0,0,-1,783,974,0,0
-434,50,0,0,0,0,0,0,0,0,0,-1,790,974,0,0
-427,50,0,0,0,0,0,0,0,0,0,-1,797,974,0,0
-420,50,0,0,0,0,0,0,0,0,0,-1,804,974,0,0
-413,50,0,0,0,0,0,0,0,0,0,-1,811,974,0,0
-406,50,0,0,0,0,0,0,0,0,0,-1,818,974,0,0
-399,50,0,0,0,0,0,0,0,0,0,-1,825,974,0,0
-392,50,0,0,0,0,0,0,0,0,0,-1,832,974,0,0
-385,50,0,0,0,0,0,0,0,0,0,-1,839,974,0,0
-378,50,0,0,0,0,0,0,0,0,0,-1,846,974,0,0
-371,50,0,0,0,0,0,0,0,0,0,-1,853,974,0,0
-364,50,0,0,0,0,0,0,0,0,0,-1,860,974,0,0
-357,50,0,0,0,0,0,0,0,0,0,-1,867,974,0,0
-350,50,0,0,0,0,0,0,0,0,0,-1,874,974,0,0
-343,50,0,0,0,0,0,0,0,0,0,-1,881,974,0,0
-336,50,0,0,0,0,0,0,0,0,0,-1,888,974,0,0
-329,50,0,0,0,0,0,0,0,0,0,-1,895,974,0,0
-322,50,0,0,0,0,0,0,0,0,0,-1,902,974,0,0
-315,50,0,0,0,0,0,0,0,0,0,-1,909,974,0,0
-308,50,0,0,0,0,0,0,0,0,0,-1,916,974,0,0
-301,50,0,0,0,0,0,0,0,0,0,-1,923,974,0,0
-294,50,0,0,0,0,0,0,0,0,0,-1,930,974,0,0
-287,50,0,0,0,0,0,0,0,0,0,-1,937,974,0,0
-280,50,0,0,0,0,0,0,0,0,0,-1,944,974,0,0
-273,50,0,0,0,0,0,0,0,0,0,-1,951,974,0,0
-266,50,0,0,0,0,0,0,0,0,0,-1,958,974,0,0
-259,50,0,0,0,0,0,0,0,0,0,-1,965,974,0,0
-252,50,0,0,0,0,0,0,0,0,0,-1,972,974,0,0
-245,50,0,0,0,0,0,0,0,0,0,-1,979,974,0,0
-238,50,0,0,0,0,0,0,0,0,0,-1,986,974,0,0
-231,50,0,0,0,0,0,0,0,0,0,-1,993,974,0,0
-224,50,0,0,0,0,0,0,0,0,0,-1,1000,974,0,0
-217,50,0,0,0,0,0,0,0,0,0,-1,1007,974,0,0
-210,50,0,0,0,0,0,0,0,0,0,-1,1014,974,0,0
-203,50,0,0,0,0,0,0,0,0,0,-1,1021,974,0,0
-196,50,0,0,0,0,0,0,0,0,0,-1,1028,974,0,0
-189,50,0,0,0,0,0,0,0,0,0,-1,1035,974,0,0
-182,50,0,0,0,0,0,0,0,0,0,-1,1042,974,0,0
-175,50,0,0,0,0,0,0,0,0,0,-1,1049,974,0,0
-168,50,0,0,0,0,0,0,0,0,0,-1,1056,974,0,0
-161,50,0,0,0,0,0,0,0,0,0,-1,1063,974,0,0
-154,50,0,0,0,0,0,0,0,0,0,-1,1070,974,0,0
-147,50,0,0,0,0,0,0,0,0,0,-1,1077,974,0,0
-140,50,0,0,0,0,0,0,0,0,0,-1,1084,974,0,0
-133,50,0,0,0,0,0,0,0,0,0,-1,1091,974,0,0
-126,50,0,0,0,0,0,0,0,0,0,-1,1098,974,0,0
-119,50,0,0,0,0,0,0,0,0,0,-1,1105,974,0,0
-112,50,0,0,0,0,0,0,0,0,0,-1,1112,974,0,0
-105,50,0,0,0,0,0,0,0,0,0,-1,1119,974,0,0
-98,50,0,0,0,0,0,0,0,0,0,-1,1126,974,0,0
-91,50,0,0,0,0,0,0,0,0,0,-1,1133,974,0,0
-84,50,0,0,0,0,0,0,0,0,0,-1,1140,974,0,0
-77,50,0,0,0,0,0,0,0,0,0,-1,1147,974,0,0
-70,50,0,0,0,0,0,0,0,0,0,-1,1154,974,0,0
-63,50,0,0,0,0,0,0,0,0,0,-1,1161,974,0,0
-56,50,0,0,0,0,0,0,0,0,0,-1,1168,974,0,0
-49,50,0,0,0,0,0,0,0,0,0,-1,1175,974,0,0
-42,50,0,0,0,0,0,0,0,0,0,-1,1182,974,0,0
-35,50,0,0,0,0,0,0,0,0,0,-1,1189,974,0,0
-28,50,0,0,0,0,0,0,0,0,0,-1,1196,974,0,0
-21,50,0,0,0,0,0,0,0,0,0,-1,1203,974,0,0
-14,50,0,0,0,0,0,0,0,0,0,-1,1210,974,0,0
-7,50,0,0,0,0,0,0,0,0,0,-1,1217,974,0,0
0,50,0,0,0,0,0,0,0,0,0,-1,1224,974,0,0
7,50,0,0,0,0,0,0,0,0,0,-1,1231,974,0,0
14,50,0,0,0,0,0,0,0,0,0,-1,1238,974,0,0
21,50,0,0,0,0,0,0,0,0,0,-1,1245,974,0,0
28,50,0,0,0,0,0,0,0,0,0,-1,1252,974,0,0
35,50,0,0,0,0,0,0,0,0,0,-1,1259,974,0,0
42,50,0,0,0,0,0,0,0,0,0,-1,1266,974,0,0
49,50,0,0,0,0,0,0,0,0,0,-1,1273,974,0,0
56,50,0,0,0,0,0,0,0,0,0,-1,1280,974,0,0
63,50,0,0,0,0,0,0,0,0,0,-1,1287,974,0,0
70,50,0,0,0,0,0,0,0,0,0,-1,1294,974,0,0
77,50,0,0,0,0,0,0,0,0,0,-1,1301,974,0,0
84,50,0,0,0,0,0,0,0,0,0,-1,1308,974,0,0
91,50,0,0,0,0,0,0,0,0,0,-1,1315,974,0,0
98,50,0,0,0,0,0,0,0,0,0,-1,1322,974,0,0
105,50,0,0,0,0,0,0,0,0,0,-1,1329,974,0,0
112,50,0,0,0,0,0,0,0,0,0,-1,1336,974,0,0
119,50,0,0,0,0,0,0,0,0,0,-1,1343,974,0,0
126,50,0,0,0,0,0,0,0,0,0,-1,1350,974,0,0
133,50,0,0,0,0,0,0,0,0,0,-1,1357,974,0,0
140,50,0,0,0,0,0,0,0,0,0,-1,1364,974,0,0
147,50,0,0,0,0,0,0,0,0,0,-1,1371,974,0,0
154,50,0,0,0,0,0,0,0,0,0,-1,1378,974,0,0
161,50,0,0,0,0,0,0,0,0,0,-1,1385,974,0,0
168,50,0,0,0,0,0,0,0,0,0,-1,1392,974,0,0
175,50,0,0,0,0,0,0,0,0,0,-1,1399,974,0,0
182,50,0,0,0,0,0,0,0,0,0,-1,1406,974,0,0
189,50,0,0,0,0,0,0,0,0,0,-1,1413,974,0,0
196,50,0,0,0,0,0,0,0,0,0,-1,1420,974,0,0
203,50,0,0,0,0,0,0,0,0,0,-1,1427,974,0,0
210,50,0,0,0,0,0,0,0,0,0,-1,1434,974,0,0
217,50,0,0,0,0,0,0,0,0,0,-1,1441,974,0,0
224,50,0,0,0,0,0,0,0,0,0,-1,1448,974,0,0
231,50,0,0,0,0,0,0,0,0,0,-1,1455,974,0,0
238,50,0,0,0,0,0,0,0,0,0,-1,1462,974,0,0
245,50,0,0,0,0,0,0,0,0,0,-1,1469,974,0,0
252,50,0,0,0,0,0,0,0,0,0,-1,1476,974,0,0
259,50,0,0,0,0,0,0,0,0,0,-1,1483,974,0,0
266,50,0,0,0,0,0,0,0,0,0,-1,1490,974,0,0
273,50,0,0,0,0,0,0,0,0,0,-1,1497,974,0,0
280,50,0,0,0,0,0,0,0,0,0,-1,1504,974,0,0
287,50,0,0,0,0,0,0,0,0,0,-1,1511,974,0,0
294,50,0,0,0,0,0,0,0,0,0,-1,1518,974,0,0
301,50,0,0,0,0,0,0,0,0,0,-1,1525,974,0,0
308,50,0,0,0,0,0,0,0,0,0,-1,1532,974,0,0
315,50,0,0,0,0,0,0,0,0,0,-1,1539,974,0,0
322,50,0,0,0,0,0,0,0,0,0,-1,1546,974,0,0
329,50,0,0,0,0,0,0,0,0,0,-1,1553,974,0,0
336,50,0,0,0,0,0,0,0,0,0,-1,1560,974,0,0
343,50,0,0,0,0,0,0,0,0,0,-1,1567,974,0,0
350,50,0,0,0,0,0,0,0,0,0,-1,1574,974,0,0
357,50,0,0,0,0,0,0,0,0,0,-1,1581,974,0,0
364,50,0,0,0,0,0,0,0,0,0,-1,1588,974,0,0
371,50,0,0,0,0,0,0,0,0,0,-1,1595,974,0,0
378,50,0,0,0,0,0,0,0,0,0,-1,1602,974,0,0
385,50,0,0,0,0,0,0,0,0,0,-1,1609,974,0,0
392,50,0,0,0,0,0,0,0,0,0,-1,1616,974,0,0
399,50,0,0,0,0,0,0,0,0,0,-1,1623,974,0,0
406,50,0,0,0,0,0,0,0,0,0,-1,1630,974,0,0
413,50,0,0,0,0,0,0,0,0,0,-1,1637,974,0,0
420,50,0,0,0,0,0,0,0,0,0,-1,1644,974,0,0
427,50,0,0,0,0,0,0,0,0,0,-1,1651,974,0,0
434,50,0,0,0,0,0,0,0,0,0,-1,1658,974,0,0
441,50,0,0,0,0,0,0,0,0,0,-1,1665,974,0,0
448,50,0,0,0,0,0,0,0,0,0,-1,1672,974,0,0
455,50,0,0,0,0,0,0,0,0,0,-1,1679,974,0,0
462,50,0,0,0,0,0,0,0,0,0,-1,1686,974,0,0
469,50,0,0,0,0,0,0,0,0,0,-1,1693,974,0,0
476,50,0,0,0,0,0,0,0,0,0,-1,1700,974,0,0
483,50,0,0,0,0,0,0,0,0,0,-1,1707,974,0,0
490,50,0,0,0,0,0,0,0,0,0,-1,1714,974,0,0
497,50,0,0,0,0,0,0,0,0,0,-1,1721,974,0,0
504,50,0,0,0,0,0,0,0,0,0,-1,1728,974,0,0
511,50,0,0,0,0,0,0,0,0,0,-1,1735,974,0,0
518,50,0,0,0,0,0,0,0,0,0,-1,1742,974,0,0
525,50,0,0,0,0,0,0,0,0,0,-1,1749,974,0,0
532,50,0,0,0,0,0,0,0,0,0,-1,1756,974,0,0
539,50,0,0,0,0,0,0,0,0,0,-1,1763,974,0,0
546,50,0,0,0,0,0,0,0,0,0,-1,1770,974,0,0
553,50,0,0,0,0,0,0,0,0,0,-1,1777,974,0,0
560,50,0,0,0,0,0,0,0,0,0,-1,1784,974,0,0
567,50,0,0,0,0,0,0,0,0,0,-1,1791,974,0,0
574,50,0,0,0,0,0,0,0,0,0,-1,1798,974,0,0
581,50,0,0,0,0,0,0,0,0,0,-1,1805,974,0,0
588,50,0,0,0,0,0,0,0,0,0,-1,1812,974,0,0
595,50,0,0,0,0,0,0,0,0,0,-1,1819,974,0,0
602,50,0,0,0,0,0,0,0,0,0,-1,1826,974,0,0
609,50,0,0,0,0,0,0,0,0,0,-1,1833,974,0,0
616,50,0,0,0,0,0,0,0,0,0,-1,1840,974,0,0
623,50,0,0,0,0,0,0,0,0,0,-1,1847,974,0,0
630,50,0,0,0,0,0,0,0,0,0,-1,1854,974,0,0
637,50,0,0,0,0,0,0,0,0,0,-1,1861,974,0,0
644,50,48.6335,2.87396,-0.000846238,7.06848e-05,-0.00252627,0.00217976,-0.00295531,-0.87516,0.00297599,0.0391374,1868,974,48.6335,-2.87398
651,50,48.5447,2.69464,-0.0011711,0.000204782,-0.00157308,0.00123377,-0.00220009,-0.991528,0.00200854,0.0324917,1875,974,48.5447,-2.69464
658,50,48.561,2.64209,-0.00115129,0.000291748,-0.000791247,0.000641052,-0.00150059,-1.15507,0.00126924,0.0370656,1882,974,48.561,-2.6421
665,50,48.3451,2.43762,-0.000945992,0.000474558,1.46031e-05,0.000474708,-0.000946142,1.56052,0.000835244,0.0428995,1889,974,48.3451,-2.43763
672,50,48.3311,2.43201,-0.000714782,0.00066298,0.000841799,0.00106184,-0.00111364,1.12831,0.00125613,0.0416936,1896,974,48.331,-2.43202
679,50,48.399,2.67053,-0.000389767,0.000715157,0.00168498,0.00193593,-0.00161054,0.943813,0.00205043,0.0411544,1903,974,48.3991,-2.67052
686,50,48.4991,2.66351,9.57781e-06,0.00060297,0.0023148,0.00264001,-0.00202746,0.849137,0.00270249,0.0417771,1910,974,48.4991,-2.66349
693,50,48.4547,2.68268,0.000207285,0.000495832,0.00266714,0.0030226,-0.00231948,0.812418,0.00309314,0.0390539,1917,974,48.4547,-2.68265
700,50,48.4608,2.71802,0.000162945,0.000539032,0.00278055,0.00313789,-0.00243591,0.819161,0.00322653,0.0232476,1924,974,48.4608,-2.718
707,50,48.5392,2.82428,-8.22022e-05,0.000750652,0.0026702,0.0030367,-0.00236825,0.862752,0.00312849,0.0405998,1931,974,48.5392,-2.82428
714,50,48.4751,3.02319,0,0,0,0,0,0,0,-1,1938,974,48.4751,-3.02322
721,50,47.321,4.86945,0,0,0,0,0,0,0,-1,1945,974,47.321,-4.86943
728,50,47.299,5.20886,-0.00158959,0.00252639,0.0021869,0.00347137,-0.00253457,1.16292,0.00348157,0.0218932,1952,974,47.2989,-5.20887
735,50,47.3505,5.47742,-0.00208708,0.00350663,0.00191351,0.00409856,-0.00267902,1.27079,0.00394154,0.0199597,1959,974,47.3505,-5.47741
742,50,47.3668,5.73785,-0.00238915,0.0044934,0.00168795,0.00488508,-0.00278083,1.34279,0.00448115,0.0146359,1966,974,47.3669,-5.73785
749,50,47.3253,5.96411,-0.00229178,0.00589223,0.00200317,0.00635624,-0.00275578,1.34318,0.00539598,0.0156843,1973,974,47.3253,-5.96411
756,50,47.2777,6.2113,-0.00146192,0.00835315,0.00324522,0.00932909,-0.00243787,1.27867,0.0071715,0.0133929,1980,974,47.2777,-6.21133
763,50,47.1887,6.46887,0.000511536,0.011077,0.00529373,0.013273,-0.00168442,1.17758,0.00946024,0.0133053,1987,974,47.1887,-6.46885
770,50,47.1136,6.69159,0.00427548,0.014254,0.0089165,0.0194822,-0.000952724,1.04047,0.0133171,0.0131532,1994,974,47.1137,-6.69161
777,50,47.0884,6.97906,0.00989141,0.0176769,0.0142172,0.0285246,-0.000956316,0.919026,0.0193431,0.0248128,2001,974,47.0885,-6.97907
784,50,47.0991,7.26416,0.018434,0.0214557,0.0221356,0.0421319,-0.00224225,0.819472,0.0288644,0.0406219,2008,974,47.099,-7.26418
791,50,47.6155,7.59137,0.0305448,0.025557,0.0329766,0.0611216,-0.00501983,0.747657,0.0425199,0.0451731,2015,974,47.6155,-7.59137
798,50,48.6965,8.54724,0.0460209,0.0303743,0.046666,0.0855149,-0.00911963,0.702348,0.0602802,0.0439444,2022,974,48.6965,-8.54725
805,50,49.2634,9.20691,0.0654578,0.036577,0.0642392,0.11686,-0.0148249,0.67484,0.083289,0.0451164,2029,974,49.2635,-9.20692
812,50,0,0,0,0,0,0,0,0,0,-1,2036,974,0,0
-700,43,0,0,0,0,0,0,0,0,0,-1,524,981,0,0
-693,43,-42.2672,4.07434,0,0,0,0,0,0,0,-1,531,981,-42.2672,-4.07433
-686,43,-41.4218,3.93713,0,0,0,0,0,0,0,-1,538,981,-41.4218,-3.93714
-679,43,-39.6253,4.44623,0.134969,0.108438,0.0299583,0.154468,0.0889396,0.57697,0.0895227,0.046174,545,981,-39.6253,-4.44622
-672,43,-37.9385,4.41107,0.110676,0.0924593,0.0278073,0.130829,0.0723068,0.627125,0.0756738,0.0498911,552,981,-37.9385,-4.41108
-665,43,-36.414,4.08661,0,0,0,0,0,0,0,-1,559,981,-36.414,-4.08661
-658,43,-35.9078,4.4964,0,0,0,0,0,0,0,-1,566,981,-35.9078,-4.4964
-651,43,-35.868,4.19336,0.048372,0.0509974,0.0189939,0.0687239,0.0306455,0.8199,0.039755,0.0422149,573,981,-35.868,-4.19339
-644,43,-35.8763,3.88818,0.0327685,0.0392805,0.0155766,0.0519377,0.0201112,0.888431,0.0302395,0.0240805,580,981,-35.8763,-3.8882
-637,43,-35.987,3.71008,0.0192913,0.0289535,0.0120408,0.0370962,0.0111485,0.97618,0.0219783,0.0175914,587,981,-35.987,-3.71008
-630,43,-35.9927,3.54797,0.0100597,0.0204703,0.00801522,0.0248222,0.00570785,1.07339,0.0150117,0.0143618,594,981,-35.9927,-3.54798
-623,43,-36.016,3.40167,0.00301301,0.013441,0.00418936,0.0149155,0.00153847,1.23237,0.00947259,0.012622,601,981,-36.016,-3.40169
-616,43,-36.0366,3.20166,-0.00164275,0.00863121,0.000663134,0.00867384,-0.00168537,1.50661,0.00641854,0.0118678,608,981,-36.0365,-3.20163
-609,43,-36.0424,2.98676,-0.00350173,0.00592706,-0.00230221,0.00645916,-0.00403383,-1.34366,0.00611183,0.0138422,615,981,-36.0424,-2.98678
-602,43,-36.0287,2.79816,-0.00411034,0.00448431,-0.00449448,0.0064053,-0.00603132,-1.16689,0.00718137,0.0164649,622,981,-36.0288,-2.79817
-595,43,-36.0712,2.63232,-0.00429769,0.00329874,-0.00604852,0.00664272,-0.00764167,-1.06576,0.00825382,0.0150573,629,981,-36.0712,-2.63234
-588,43,-36.0529,2.12909,-0.00430504,0.00229743,-0.00694217,0.00668332,-0.00869093,-1.00734,0.00890151,0.0224601,636,981,-36.0528,-2.1291
-581,43,-36.099,1.21912,-0.00396211,0.00177488,-0.00751689,0.006952,-0.00913924,-0.967673,0.00931884,0.0281868,643,981,-36.099,-1.21913
-574,43,-36.1313,0.888489,-0.00357886,0.00146365,-0.00751512,0.00686917,-0.00898438,-0.947244,0.00918017,0.0260076,650,981,-36.1313,-0.888492
-567,43,-36.0909,0.859253,-0.00328574,0.00122602,-0.00703825,0.00636108,-0.0084208,-0.940484,0.0085619,0.0344648,657,981,-36.091,-0.859245
-560,43,-36.0378,0.688965,-0.00255581,0.00106961,-0.00599194,0.00551703,-0.00700324,-0.932284,0.00724554,0.0386716,664,981,-36.0378,-0.688985
-553,43,-36.0994,0.666748,-0.00114411,0.000903618,-0.00441949,0.0044163,-0.00465679,-0.899225,0.00523896,0.0405793,671,981,-36.0993,-0.666737
-546,43,-36.2651,1.19189,0.00120031,0.000632293,-0.00237064,0.00330389,-0.00147129,-0.725782,0.00282382,0.0442071,678,981,-36.2651,-1.19189
-539,43,-36.4556,1.13635,0.00464541,0.000216795,-0.00012189,0.00464876,0.000213442,-0.0274956,0.00303053,0.0492528,685,981,-36.4557,-1.13634
-532,43,-36.1741,0.811768,0,0,0,0,0,0,0,-1,692,981,-36.1741,-0.811756
-525,43,-35.8391,1.07068,0,0,0,0,0,0,0,-1,699,981,-35.839,-1.0707
-518,43,0,0,0,0,0,0,0,0,0,-1,706,981,0,0
-511,43,0,0,0,0,0,0,0,0,0,-1,713,981,0,0
-504,43,0,0,0,0,0,0,0,0,0,-1,720,981,0,0
-497,43,0,0,0,0,0,0,0,0,0,-1,727,981,0,0
-490,43,0,0,0,0,0,0,0,0,0,-1,734,981,0,0
-483,43,0,0,0,0,0,0,0,0,0,-1,741,981,0,0
-476,43,0,0,0,0,0,0,0,0,0,-1,748,981,0,0
-469,43,0,0,0,0,0,0,0,0,0,-1,755,981,0,0
-462,43,0,0,0,0,0,0,0,0,0,-1,762,981,0,0
-455,43,0,0,0,0,0,0,0,0,0,-1,769,981,0,0
-448,43,0,0,0,0,0,0,0,0,0,-1,776,981,0,0
-441,43,0,0,0,0,0,0,0,0,0,-1,783,981,0,0
-434,43,0,0,0,0,0,0,0,0,0,-1,790,981,0,0
-427,43,0,0,0,0,0,0,0,0,0,-1,797,981,0,0
-420,43,0,0,0,0,0,0,0,0,0,-1,804,981,0,0
-413,43,0,0,0,0,0,0,0,0,0,-1,811,981,0,0
-406,43,0,0,0,0,0,0,0,0,0,-1,818,981,0,0
-399,43,0,0,0,0,0,0,0,0,0,-1,825,981,0,0
-392,43,0,0,0,0,0,0,0,0,0,-1,832,981,0,0
-385,43,0,0,0,0,0,0,0,0,0,-1,839,981,0,0
-378,43,0,0,0,0,0,0,0,0,0,-1,846,981,0,0
-371,43,0,0,0,0,0,0,0,0,0,-1,853,981,0,0
-364,43,0,0,0,0,0,0,0,0,0,-1,860,981,0,0
-357,43,0,0,0,0,0,0,0,0,0,-1,867,981,0,0
-350,43,0,0,0,0,0,0,0,0,0,-1,874,981,0,0
-343,43,0,0,0,0,0,0,0,0,0,-1,881,981,0,0
-336,43,0,0,0,0,0,0,0,0,0,-1,888,981,0,0
-329,43,0,0,0,0,0,0,0,0,0,-1,895,981,0,0
-322,43,0,0,0,0,0,0,0,0,0,-1,902,981,0,0
-315,43,0,0,0,0,0,0,0,0,0,-1,909,981,0,0
-308,43,0,0,0,0,0,0,0,0,0,-1,916,981,0,0
-301,43,0,0,0,0,0,0,0,0,0,-1,923,981,0,0
-294,43,0,0,0,0,0,0,0,0,0,-1,930,981,0,0
-287,43,0,0,0,0,0,0,0,0,0,-1,937,981,0,0
-280,43,0,0,0,0,0,0,0,0,0,-1,944,981,0,0
-273,43,0,0,0,0,0,0,0,0,0,-1,951,981,0,0
-266,43,0,0,0,0,0,0,0,0,0,-1,958,981,0,0
-259,43,0,0,0,0,0,0,0,0,0,-1,965,981,0,0
-252,43,0,0,0,0,0,0,0,0,0,-1,972,981,0,0
-245,43,0,0,0,0,0,0,0,0,0,-1,979,981,0,0
-238,43,0,0,0,0,0,0,0,0,0,-1,986,981,0,0
-231,43,0,0,0,0,0,0,0,0,0,-1,993,981,0,0
-224,43,0,0,0,0,0,0,0,0,0,-1,1000,981,0,0
-217,43,0,0,0,0,0,0,0,0,0,-1,1007,981,0,0
-210,43,0,0,0,0,0,0,0,0,0,-1,1014,981,0,0
-203,43,0,0,0,0,0,0,0,0,0,-1,1021,981,0,0
-196,43,0,0,0,0,0,0,0,0,0,-1,1028,981,0,0
-189,43,0,0,0,0,0,0,0,0,0,-1,1035,981,0,0
-182,43,0,0,0,0,0,0,0,0,0,-1,1042,981,0,0
-175,43,0,0,0,0,0,0,0,0,0,-1,1049,981,0,0
-168,43,0,0,0,0,0,0,0,0,0,-1,1056,981,0,0
-161,43,0,0,0,0,0,0,0,0,0,-1,1063,981,0,0
-154,43,0,0,0,0,0,0,0,0,0,-1,1070,981,0,0
-147,43,0,0,0,0,0,0,0,0,0,-1,1077,981,0,0
-140,43,0,0,0,0,0,0,0,0,0,-1,1084,981,0,0
-133,43,0,0,0,0,0,0,0,0,0,-1,1091,981,0,0
-126,43,0,0,0,0,0,0,0,0,0,-1,1098,981,0,0
-119,43,0,0,0,0,0,0,0,0,0,-1,1105,981,0,0
-112,43,0,0,0,0,0,0,0,0,0,-1,1112,981,0,0
-105,43,0,0,0,0,0,0,0,0,0,-1,1119,981,0,0
-98,43,0,0,0,0,0,0,0,0,0,-1,1126,981,0,0
-91,43,0,0,0,0,0,0,0,0,0,-1,1133,981,0,0
-84,43,0,0,0,0,0,0,0,0,0,-1,1140,981,0,0
-77,43,0,0,0,0,0,0,0,0,0,-1,1147,981,0,0
-70,43,0,0,0,0,0,0,0,0,0,-1,1154,981,0,0
-63,43,0,0,0,0,0,0,0,0,0,-1,1161,981,0,0
-56,43,0,0,0,0,0,0,0,0,0,-1,1168,981,0,0
-49,43,0,0,0,0,0,0,0,0,0,-1,1175,981,0,0
-42,43,0,0,0,0,0,0,0,0,0,-1,1182,981,0,0
-35,43,0,0,0,0,0,0,0,0,0,-1,1189,981,0,0
-28,43,0,0,0,0,0,0,0,0,0,-1,1196,981,0,0
-21,43,0,0,0,0,0,0,0,0,0,-1,1203,981,0,0
-14,43,0,0,0,0,0,0,0,0,0,-1,1210,981,0,0
-7,43,0,0,0,0,0,0,0,0,0,-1,1217,981,0,0
0,43,0,0,0,0,0,0,0,0,0,-1,1224,981,0,0
7,43,0,0,0,0,0,0,0,0,0,-1,1231,981,0,0
14,43,0,0,0,0,0,0,0,0,0,-1,1238,981,0,0
21,43,0,0,0,0,0,0,0,0,0,-1,1245,981,0,0
28,43,0,0,0,0,0,0,0,0,0,-1,1252,981,0,0
35,43,0,0,0,0,0,0,0,0,0,-1,1259,981,0,0
42,43,0,0,0,0,0,0,0,0,0,-1,1266,981,0,0
49,43,0,0,0,0,0,0,0,0,0,-1,1273,981,0,0
56,43,0,0,0,0,0,0,0,0,0,-1,1280,981,0,0
63,43,0,0,0,0,0,0,0,0,0,-1,1287,981,0,0
70,43,0,0,0,0,0,0,0,0,0,-1,1294,981,0,0
77,43,0,0,0,0,0,0,0,0,0,-1,1301,981,0,0
84,43,0,0,0,0,0,0,0,0,0,-1,1308,981,0,0
91,43,0,0,0,0,0,0,0,0,0,-1,1315,981,0,0
98,43,0,0,0,0,0,0,0,0,0,-1,1322,981,0,0
105,43,0,0,0,0,0,0,0,0,0,-1,1329,981,0,0
112,43,0,0,0,0,0,0,0,0,0,-1,1336,981,0,0
119,43,0,0,0,0,0,0,0,0,0,-1,1343,981,0,0
126,43,0,0,0,0,0,0,0,0,0,-1,1350,981,0,0
133,43,0,0,0,0,0,0,0,0,0,-1,1357,981,0,0
140,43,0,0,0,0,0,0,0,0,0,-1,1364,981,0,0
147,43,0,0,0,0,0,0,0,0,0,-1,1371,981,0,0
154,43,0,0,0,0,0,0,0,0,0,-1,1378,981,0,0
161,43,0,0,0,0,0,0,0,0,0,-1,1385,981,0,0
168,43,0,0,0,0,0,0,0,0,0,-1,1392,981,0,0
175,43,0,0,0,0,0,0,0,0,0,-1,1399,981,0,0
182,43,0,0,0,0,0,0,0,0,0,-1,1406,981,0,0
189,43,0,0,0,0,0,0,0,0,0,-1,1413,981,0,0
196,43,0,0,0,0,0,0,0,0,0,-1,1420,981,0,0
203,43,0,0,0,0,0,0,0,0,0,-1,1427,981,0,0
210,43,0,0,0,0,0,0,0,0,0,-1,1434,981,0,0
217,43,0,0,0,0,0,0,0,0,0,-1,1441,981,0,0
224,43,0,0,0,0,0,0,0,0,0,-1,1448,981,0,0
231,43,0,0,0,0,0,0,0,0,0,-1,1455,981,0,0
238,43,0,0,0,0,0,0,0,0,0,-1,1462,981,0,0
245,43,0,0,0,0,0,0,0,0,0,-1,1469,981,0,0
252,43,0,0,0,0,0,0,0,0,0,-1,1476,981,0,0
259,43,0,0,0,0,0,0,0,0,0,-1,1483,981,0,0
266,43,0,0,0,0,0,0,0,0,0,-1,1490,981,0,0
273,43,0,0,0,0,0,0,0,0,0,-1,1497,981,0,0
280,43,0,0,0,0,0,0,0,0,0,-1,1504,981,0,0
287,43,0,0,0,0,0,0,0,0,0,-1,1511,981,0,0
294,43,0,0,0,0,0,0,0,0,0,-1,1518,981,0,0
301,43,0,0,0,0,0,0,0,0,0,-1,1525,981,0,0
308,43,0,0,0,0,0,0,0,0,0,-1,1532,981,0,0
315,43,0,0,0,0,0,0,0,0,0,-1,1539,981,0,0
322,43,0,0,0,0,0,0,0,0,0,-1,1546,981,0,0
329,43,0,0,0,0,0,0,0,0,0,-1,1553,981,0,0
336,43,0,0,0,0,0,0,0,0,0,-1,1560,981,0,0
343,43,0,0,0,0,0,0,0,0,0,-1,1567,981,0,0
350,43,0,0,0,0,0,0,0,0,0,-1,1574,981,0,0
357,43,0,0,0,0,0,0,0,0,0,-1,1581,981,0,0
364,43,0,0,0,0,0,0,0,0,0,-1,1588,981,0,0
371,43,0,0,0,0,0,0,0,0,0,-1,1595,981,0,0
378,43,0,0,0,0,0,0,0,0,0,-1,1602,981,0,0
385,43,0,0,0,0,0,0,0,0,0,-1,1609,981,0,0
392,43,0,0,0,0,0,0,0,0,0,-1,1616,981,0,0
399,43,0,0,0,0,0,0,0,0,0,-1,1623,981,0,0
406,43,0,0,0,0,0,0,0,0,0,-1,1630,981,0,0
413,43,0,0,0,0,0,0,0,0,0,-1,1637,981,0,0
420,43,0,0,0,0,0,0,0,0,0,-1,1644,981,0,0
427,43,0,0,0,0,0,0,0,0,0,-1,1651,981,0,0
434,43,0,0,0,0,0,0,0,0,0,-1,1658,981,0,0
441,43,0,0,0,0,0,0,0,0,0,-1,1665,981,0,0
448,43,0,0,0,0,0,0,0,0,0,-1,1672,981,0,0
455,43,0,0,0,0,0,0,0,0,0,-1,1679,981,0,0
462,43,0,0,0,0,0,0,0,0,0,-1,1686,981,0,0
469,43,0,0,0,0,0,0,0,0,0,-1,1693,981,0,0
476,43,0,0,0,0,0,0,0,0,0,-1,1700,981,0,0
483,43,0,0,0,0,0,0,0,0,0,-1,1707,981,0,0
490,43,0,0,0,0,0,0,0,0,0,-1,1714,981,0,0
497,43,0,0,0,0,0,0,0,0,0,-1,1721,981,0,0
504,43,0,0,0,0,0,0,0,0,0,-1,1728,981,0,0
511,43,0,0,0,0,0,0,0,0,0,-1,1735,981,0,0
518,43,0,0,0,0,0,0,0,0,0,-1,1742,981,0,0
525,43,0,0,0,0,0,0,0,0,0,-1,1749,981,0,0
532,43,0,0,0,0,0,0,0,0,0,-1,1756,981,0,0
539,43,0,0,0,0,0,0,0,0,0,-1,1763,981,0,0
546,43,0,0,0,0,0,0,0,0,0,-1,1770,981,0,0
553,43,0,0,0,0,0,0,0,0,0,-1,1777,981,0,0
560,43,0,0,0,0,0,0,0,0,0,-1,1784,981,0,0
567,43,0,0,0,0,0,0,0,0,0,-1,1791,981,0,0
574,43,0,0,0,0,0,0,0,0,0,-1,1798,981,0,0
581,43,0,0,0,0,0,0,0,0,0,-1,1805,981,0,0
588,43,0,0,0,0,0,0,0,0,0,-1,1812,981,0,0
595,43,0,0,0,0,0,0,0,0,0,-1,1819,981,0,0
602,43,0,0,0,0,0,0,0,0,0,-1,1826,981,0,0
609,43,0,0,0,0,0,0,0,0,0,-1,1833,981,0,0
616,43,0,0,0,0,0,0,0,0,0,-1,1840,981,0,0
623,43,0,0,0,0,0,0,0,0,0,-1,1847,981,0,0
630,43,0,0,0,0,0,0,0,0,0,-1,1854,981,0,0
637,43,0,0,0,0,0,0,0,0,0,-1,1861,981,0,0
644,43,48.5719,2.70056,0.000781617,0.000531418,-0.00180967,0.0024705,-0.00115747,-0.750889,0.00213985,0.0382717,1868,981,48.5719,-2.70056
651,43,48.3976,2.74243,-2.72256e-05,0.00058214,-0.00108758,0.00140691,-0.000851994,-0.921971,0.00131723,0.0373396,1875,981,48.3975,-2.74243
658,43,48.6488,2.60974,-0.000361293,0.000582918,-0.00050192,0.000799875,-0.00057825,-1.1628,0.000799083,0.0390549,1882,981,48.6488,-2.60975
665,43,48.5593,2.6358,-0.00044503,0.000692702,0.000145349,0.000710977,-0.000463305,1.44572,0.00068298,0.0403587,1889,981,48.5593,-2.63582
672,43,48.3467,2.57471,-0.000407446,0.00086172,0.000882997,0.00131451,-0.000860235,1.09697,0.00126469,0.0397292,1896,981,48.3466,-2.57472
679,43,48.3696,2.57776,-0.00017896,0.000937773,0.00173779,0.0022047,-0.00144589,0.940843,0.00212279,0.0404322,1903,981,48.3697,-2.57778
686,43,48.5426,2.71338,0.000197413,0.000825232,0.00245113,0.00298247,-0.00195982,0.849085,0.00287372,0.0422134,1910,981,48.5426,-2.71335
693,43,48.4971,2.71222,0.000444773,0.000687603,0.00289844,0.00346717,-0.00233479,0.806331,0.00337096,0.0389402,1917,981,48.4971,-2.71225
700,43,48.4624,2.69049,0.000445128,0.000710323,0.00308747,0.00366804,-0.00251259,0.806858,0.00358911,0.0346956,1924,981,48.4624,-2.69049
707,43,48.5693,2.66925,0.000185569,0.000903892,0.00308073,0.00364632,-0.00255686,0.843428,0.00359977,0.0339143,1931,981,48.5693,-2.66924
714,43,48.546,2.73096,0,0,0,0,0,0,0,-1,1938,981,48.546,-2.73094
721,43,47.736,4.84943,0,0,0,0,0,0,0,-1,1945,981,47.736,-4.84942
728,43,47.7041,5.17523,-0.00140761,0.00272695,0.00265849,0.00402735,-0.002708,1.11587,0.00391344,0.0204518,1952,981,47.7041,-5.17523
735,43,47.6613,5.47644,-0.00193137,0.00374187,0.00241789,0.00463253,-0.00282203,1.21786,0.004346,0.0139702,1959,981,47.6613,-5.47644
742,43,47.6191,5.7146,-0.00230338,0.0047391,0.00220371,0.00537183,-0.00293611,1.2912,0.00486482,0.0148958,1966,981,47.6192,-5.71458
749,43,47.5884,5.93396,-0.00235142,0.0061468,0.00251436,0.00683499,-0.00303962,1.30364,0.00583979,0.0170476,1973,981,47.5884,-5.93396
756,43,47.5693,6.14758,-0.00178219,0.0086741,0.00363941,0.0098161,-0.0029242,1.26674,0.00770601,0.0201352,1980,981,47.5693,-6.14755
763,43,47.5012,6.36053,-0.000181043,0.011483,0.00544935,0.0136327,-0.00233074,1.19505,0.00995672,0.024786,1987,981,47.5012,-6.36055
770,43,47.3896,6.63837,0.00320354,0.0148369,0.00884239,0.0196042,-0.00156382,1.07632,0.0136207,0.0204617,1994,981,47.3897,-6.63839
777,43,47.4016,6.89801,0.00846764,0.0185324,0.013977,0.0283554,-0.00135536,0.958196,0.0193712,0.0243042,2001,981,47.4016,-6.89802
784,43,47.4553,7.27411,0.0164918,0.0226482,0.021644,0.0414318,-0.00229177,0.856035,0.0284159,0.0421026,2008,981,47.4553,-7.27412
791,43,47.7544,7.80524,0.0279783,0.0271469,0.0322078,0.059773,-0.00464786,0.778945,0.0414848,0.0469339,2015,981,47.7543,-7.80521
798,43,48.2173,8.50458,0.0426607,0.0324281,0.0455451,0.0833759,-0.00828715,0.729465,0.0585422,0.0444241,2022,981,48.2173,-8.50458
805,43,48.6006,9.10205,0.0607802,0.0392758,0.062451,0.113398,-0.0133418,0.700149,0.0804156,0.0458696,2029,981,48.6007,-9.10204
812,43,48.8872,9.68994,0,0,0,0,0,0,0,-1,2036,981,48.8871,-9.68993
-700,36,0,0,0,0,0,0,0,0,0,-1,524,988,0,0
-693,36,-42.2833,3.27002,0.215056,0.136589,0.0208989,0.220275,0.13137,0.244724,0.127961,0.0491372,531,988,-42.2833,-3.27004
-686,36,-40.9319,3.3512,0.186902,0.118661,0.0220392,0.193401,0.112162,0.286751,0.112135,0.0472622,538,988,-40.9318,-3.35119
-679,36,-39.6494,3.58655,0.155812,0.102104,0.0219477,0.16364,0.0942761,0.342602,0.0948416,0.0459635,545,988,-39.6494,-3.58655
-672,36,-37.9625,3.77313,0.126277,0.0868163,0.0210071,0.135367,0.0777268,0.408363,0.0784403,0.0466392,552,988,-37.9626,-3.77311
-665,36,-36.5661,3.63184,0.0992704,0.0726799,0.0194568,0.109541,0.0624097,0.485675,0.063448,0.047646,559,988,-36.5661,-3.63183
-658,36,-35.8721,4.06982,0,0,0,0,0,0,0,-1,566,988,-35.8722,-4.06985
-651,36,-35.9737,3.86761,0.0544445,0.0477195,0.0151797,0.0666296,0.0355344,0.676401,0.0384971,0.0407545,573,988,-35.9737,-3.86761
-644,36,-36.1176,3.69153,0.0366744,0.0367142,0.0125799,0.0492743,0.0241143,0.78619,0.0284506,0.0260217,580,988,-36.1176,-3.69152
-637,36,-36.2283,3.54968,0.0215252,0.0269201,0.00970611,0.0342966,0.0141487,0.920932,0.0199019,0.0204943,587,988,-36.2283,-3.54967
-630,36,-36.2095,3.47296,0.0109142,0.0190188,0.00631548,0.0224702,0.0074627,1.07064,0.0132147,0.0154462,594,988,-36.2095,-3.47294
-623,36,-36.2325,3.35486,0.00348149,0.0124754,0.00285802,0.0133068,0.00265014,1.28772,0.00813302,0.0132201,601,988,-36.2325,-3.35483
-616,36,-36.2411,3.19366,-0.00104551,0.00818804,-0.00034703,0.00820107,-0.00105854,-1.53328,0.00585222,0.0110979,608,988,-36.2411,-3.19369
-609,36,-36.2094,3.0481,-0.00262636,0.00570865,-0.00309641,0.00673305,-0.00365075,-1.2513,0.00608249,0.0149045,615,988,-36.2094,-3.04811
-602,36,-36.2202,2.86176,-0.00285636,0.00433406,-0.00511653,0.0069922,-0.0055145,-1.09165,0.00723753,0.0193787,622,988,-36.2202,-2.86175
-595,36,-36.3715,2.90326,0,0,0,0,0,0,0,-1,629,988,-36.3715,-2.90325
-588,36,-36.2493,1.9494,-0.00249123,0.00213846,-0.00748124,0.0076548,-0.00800757,-0.935436,0.00904344,0.0306687,636,988,-36.2492,-1.94941
-581,36,-36.1165,1.09802,-0.00197422,0.00159356,-0.00802929,0.00803473,-0.0084154,-0.894709,0.00949834,0.0312917,643,988,-36.1165,-1.09803
-574,36,-36.0854,0.894775,-0.00157994,0.00125842,-0.00795092,0.00791582,-0.00823735,-0.873714,0.00932665,0.0260044,650,988,-36.0854,-0.89478
-567,36,-36.0811,0.852539,-0.00137219,0.00101476,-0.00737851,0.0072957,-0.00765312,-0.865579,0.00863153,0.0337973,657,988,-36.0811,-0.852546
-560,36,-36.0549,0.649658,-0.000829618,0.000862678,-0.00620057,0.00627456,-0.0062415,-0.853211,0.00722616,0.0390541,664,988,-36.0549,-0.649677
-553,36,-35.9937,0.4151,0,0,0,0,0,0,0,-1,671,988,-35.9937,-0.41512
-546,36,-36.2368,1.3739,0,0,0,0,0,0,0,-1,678,988,-36.2367,-1.37391
-539,36,-36.1133,0.736328,0,0,0,0,0,0,0,-1,685,988,-36.1133,-0.736316
-532,36,-36.1193,0.962219,0.00954275,0.000490675,0.00127303,0.00971837,0.00031505,0.137092,0.00637649,0.049704,692,988,-36.1193,-0.962205
-525,36,-35.7822,1.20563,0.0141574,0.00199263,0.000287398,0.0141642,0.00198584,0.0236078,0.0088554,0.0473823,699,988,-35.7821,-1.20565
-518,36,0,0,0,0,0,0,0,0,0,-1,706,988,0,0
-511,36,0,0,0,0,0,0,0,0,0,-1,713,988,0,0
-504,36,0,0,0,0,0,0,0,0,0,-1,720,988,0,0
-497,36,0,0,0,0,0,0,0,0,0,-1,727,988,0,0
-490,36,0,0,0,0,0,0,0,0,0,-1,734,988,0,0
-483,36,0,0,0,0,0,0,0,0,0,-1,741,988,0,0
-476,36,0,0,0,0,0,0,0,0,0,-1,748,988,0,0
-469,36,0,0,0,0,0,0,0,0,0,-1,755,988,0,0
-462,36,0,0,0,0,0,0,0,0,0,-1,762,988,0,0
-455,36,0,0,0,0,0,0,0,0,0,-1,769,988,0,0
-448,36,0,0,0,0,0,0,0,0,0,-1,776,988,0,0
-441,36,0,0,0,0,0,0,0,0,0,-1,783,988,0,0
-434,36,0,0,0,0,0,0,0,0,0,-1,790,988,0,0
-427,36,0,0,0,0,0,0,0,0,0,-1,797,988,0,0
-420,36,0,0,0,0,0,0,0,0,0,-1,804,988,0,0
-413,36,0,0,0,0,0,0,0,0,0,-1,811,988,0,0
-406,36,0,0,0,0,0,0,0,0,0,-1,818,988,0,0
-399,36,0,0,0,0,0,0,0,0,0,-1,825,988,0,0
-392,36,0,0,0,0,0,0,0,0,0,-1,832,988,0,0
-385,36,0,0,0,0,0,0,0,0,0,-1,839,988,0,0
-378,36,0,0,0,0,0,0,0,0,0,-1,846,988,0,0
-371,36,0,0,0,0,0,0,0,0,0,-1,853,988,0,0
-364,36,0,0,0,0,0,0,0,0,0,-1,860,988,0,0
-357,36,0,0,0,0,0,0,0,0,0,-1,867,988,0,0
-350,36,0,0,0,0,0,0,0,0,0,-1,874,988,0,0
-343,36,0,0,0,0,0,0,0,0,0,-1,881,988,0,0
-336,36,0,0,0,0,0,0,0,0,0,-1,888,988,0,0
-329,36,0,0,0,0,0,0,0,0,0,-1,895,988,0,0
-322,36,0,0,0,0,0,0,0,0,0,-1,902,988,0,0
-315,36,0,0,0,0,0,0,0,0,0,-1,909,988,0,0
-308,36,0,0,0,0,0,0,0,0,0,-1,916,988,0,0
-301,36,0,0,0,0,0,0,0,0,0,-1,923,988,0,0
-294,36,0,0,0,0,0,0,0,0,0,-1,930,988,0,0
-287,36,0,0,0,0,0,0,0,0,0,-1,937,988,0,0
-280,36,0,0,0,0,0,0,0,0,0,-1,944,988,0,0
-273,36,0,0,0,0,0,0,0,0,0,-1,951,988,0,0
-266,36,0,0,0,0,0,0,0,0,0,-1,958,988,0,0
-259,36,0,0,0,0,0,0,0,0,0,-1,965,988,0,0
-252,36,0,0,0,0,0,0,0,0,0,-1,972,988,0,0
-245,36,0,0,0,0,0,0,0,0,0,-1,979,988,0,0
-238,36,0,0,0,0,0,0,0,0,0,-1,986,988,0,0
-231,36,0,0,0,0,0,0,0,0,0,-1,993,988,0,0
-224,36,0,0,0,0,0,0,0,0,0,-1,1000,988,0,0
-217,36,0,0,0,0,0,0,0,0,0,-1,1007,988,0,0
-210,36,0,0,0,0,0,0,0,0,0,-1,1014,988,0,0
-203,36,0,0,0,0,0,0,0,0,0,-1,1021,988,0,0
-196,36,0,0,0,0,0,0,0,0,0,-1,1028,988,0,0
-189,36,0,0,0,0,0,0,0,0,0,-1,1035,988,0,0
-182,36,0,0,0,0,0,0,0,0,0,-1,1042,988,0,0
-175,36,0,0,0,0,0,0,0,0,0,-1,1049,988,0,0
-168,36,0,0,0,0,0,0,0,0,0,-1,1056,988,0,0
-161,36,0,0,0,0,0,0,0,0,0,-1,1063,988,0,0
-154,36,0,0,0,0,0,0,0,0,0,-1,1070,988,0,0
-147,36,0,0,0,0,0,0,0,0,0,-1,1077,988,0,0
-140,36,0,0,0,0,0,0,0,0,0,-1,1084,988,0,0
-133,36,0,0,0,0,0,0,0,0,0,-1,1091,988,0,0
-126,36,0,0,0,0,0,0,0,0,0,-1,1098,988,0,0
-119,36,0,0,0,0,0,0,0,0,0,-1,1105,988,0,0
-112,36,0,0,0,0,0,0,0,0,0,-1,1112,988,0,0
-105,36,0,0,0,0,0,0,0,0,0,-1,1119,988,0,0
-98,36,0,0,0,0,0,0,0,0,0,-1,1126,988,0,0
-91,36,0,0,0,0,0,0,0,0,0,-1,1133,988,0,0
-84,36,0,0,0,0,0,0,0,0,0,-1,1140,988,0,0
-77,36,0,0,0,0,0,0,0,0,0,-1,1147,988,0,0
-70,36,0,0,0,0,0,0,0,0,0,-1,1154,988,0,0
-63,36,0,0,0,0,0,0,0,0,0,-1,1161,988,0,0
-56,36,0,0,0,0,0,0,0,0,0,-1,1168,988,0,0
-49,36,0,0,0,0,0,0,0,0,0,-1,1175,988,0,0
-42,36,0,0,0,0,0,0,0,0,0,-1,1182,988,0,0
-35,36,0,0,0,0,0,0,0,0,0,-1,1189,988,0,0
-28,36,0,0,0,0,0,0,0,0,0,-1,1196,988,0,0
-21,36,0,0,0,0,0,0,0,0,0,-1,1203,988,0,0
-14,36,0,0,0,0,0,0,0,0,0,-1,1210,988,0,0
-7,36,0,0,0,0,0,0,0,0,0,-1,1217,988,0,0
0,36,0,0,0,0,0,0,0,0,0,-1,1224,988,0,0
7,36,0,0,0,0,0,0,0,0,0,-1,1231,988,0,0
14,36,0,0,0,0,0,0,0,0,0,-1,1238,988,0,0
21,36,0,0,0,0,0,0,0,0,0,-1,1245,988,0,0
28,36,0,0,0,0,0,0,0,0,0,-1,1252,988,0,0
35,36,0,0,0,0,0,0,0,0,0,-1,1259,988,0,0
42,36,0,0,0,0,0,0,0,0,0,-1,1266,988,0,0
49,36,0,0,0,0,0,0,0,0,0,-1,1273,988,0,0
56,36,0,0,0,0,0,0,0,0,0,-1,1280,988,0,0
63,36,0,0,0,0,0,0,0,0,0,-1,1287,988,0,0
70,36,0,0,0,0,0,0,0,0,0,-1,1294,988,0,0
77,36,0,0,0,0,0,0,0,0,0,-1,1301,988,0,0
84,36,0,0,0,0,0,0,0,0,0,-1,1308,988,0,0
91,36,0,0,0,0,0,0,0,0,0,-1,1315,988,0,0
98,36,0,0,0,0,0,0,0,0,0,-1,1322,988,0,0
105,36,0,0,0,0,0,0,0,0,0,-1,1329,988,0,0
112,36,0,0,0,0,0,0,0,0,0,-1,1336,988,0,0
119,36,0,0,0,0,0,0,0,0,0,-1,1343,988,0,0
126,36,0,0,0,0,0,0,0,0,0,-1,1350,988,0,0
133,36,0,0,0,0,0,0,0,0,0,-1,1357,988,0,0
140,36,0,0,0,0,0,0,0,0,0,-1,1364,988,0,0
147,36,0,0,0,0,0,0,0,0,0,-1,1371,988,0,0
154,36,0,0,0,0,0,0,0,0,0,-1,1378,988,0,0
161,36,0,0,0,0,0,0,0,0,0,-1,1385,988,0,0
168,36,0,0,0,0,0,0,0,0,0,-1,1392,988,0,0
175,36,0,0,0,0,0,0,0,0,0,-1,1399,988,0,0
182,36,0,0,0,0,0,0,0,0,0,-1,1406,988,0,0
189,36,0,0,0,0,0,0,0,0,0,-1,1413,988,0,0
196,36,0,0,0,0,0,0,0,0,0,-1,1420,988,0,0
203,36,0,0,0,0,0,0,0,0,0,-1,1427,988,0,0
210,36,0,0,0,0,0,0,0,0,0,-1,1434,988,0,0
217,36,0,0,0,0,0,0,0,0,0,-1,1441,988,0,0
224,36,0,0,0,0,0,0,0,0,0,-1,1448,988,0,0
231,36,0,0,0,0,0,0,0,0,0,-1,1455,988,0,0
238,36,0,0,0,0,0,0,0,0,0,-1,1462,988,0,0
245,36,0,0,0,0,0,0,0,0,0,-1,1469,988,0,0
252,36,0,0,0,0,0,0,0,0,0,-1,1476,988,0,0
259,36,0,0,0,0,0,0,0,0,0,-1,1483,988,0,0
266,36,0,0,0,0,0,0,0,0,0,-1,1490,988,0,0
273,36,0,0,0,0,0,0,0,0,0,-1,1497,988,0,0
280,36,0,0,0,0,0,0,0,0,0,-1,1504,988,0,0
287,36,0,0,0,0,0,0,0,0,0,-1,1511,988,0,0
294,36,0,0,0,0,0,0,0,0,0,-1,1518,988,0,0
301,36,0,0,0,0,0,0,0,0,0,-1,1525,988,0,0
308,36,0,0,0,0,0,0,0,0,0,-1,1532,988,0,0
315,36,0,0,0,0,0,0,0,0,0,-1,1539,988,0,0
322,36,0,0,0,0,0,0,0,0,0,-1,1546,988,0,0
329,36,0,0,0,0,0,0,0,0,0,-1,1553,988,0,0
336,36,0,0,0,0,0,0,0,0,0,-1,1560,988,0,0
343,36,0,0,0,0,0,0,0,0,0,-1,1567,988,0,0
350,36,0,0,0,0,0,0,0,0,0,-1,1574,988,0,0
357,36,0,0,0,0,0,0,0,0,0,-1,1581,988,0,0
364,36,0,0,0,0,0,0,0,0,0,-1,1588,988,0,0
371,36,0,0,0,0,0,0,0,0,0,-1,1595,988,0,0
378,36,0,0,0,0,0,0,0,0,0,-1,1602,988,0,0
385,36,0,0,0,0,0,0,0,0,0,-1,1609,988,0,0
392,36,0,0,0,0,0,0,0,0,0,-1,1616,988,0,0
399,36,0,0,0,0,0,0,0,0,0,-1,1623,988,0,0
406,36,0,0,0,0,0,0,0,0,0,-1,1630,988,0,0
413,36,0,0,0,0,0,0,0,0,0,-1,1637,988,0,0
420,36,0,0,0,0,0,0,0,0,0,-1,1644,988,0,0
427,36,0,0,0,0,0,0,0,0,0,-1,1651,988,0,0
434,36,0,0,0,0,0,0,0,0,0,-1,1658,988,0,0
441,36,0,0,0,0,0,0,0,0,0,-1,1665,988,0,0
448,36,0,0,0,0,0,0,0,0,0,-1,1672,988,0,0
455,36,0,0,0,0,0,0,0,0,0,-1,1679,988,0,0
462,36,0,0,0,0,0,0,0,0,0,-1,1686,988,0,0
469,36,0,0,0,0,0,0,0,0,0,-1,1693,988,0,0
476,36,0,0,0,0,0,0,0,0,0,-1,1700,988,0,0
483,36,0,0,0,0,0,0,0,0,0,-1,1707,988,0,0
490,36,0,0,0,0,0,0,0,0,0,-1,1714,988,0,0
497,36,0,0,0,0,0,0,0,0,0,-1,1721,988,0,0
504,36,0,0,0,0,0,0,0,0,0,-1,1728,988,0,0
511,36,0,0,0,0,0,0,0,0,0,-1,1735,988,0,0
518,36,0,0,0,0,0,0,0,0,0,-1,1742,988,0,0
525,36,0,0,0,0,0,0,0,0,0,-1,1749,988,0,0
532,36,0,0,0,0,0,0,0,0,0,-1,1756,988,0,0
539,36,0,0,0,0,0,0,0,0,0,-1,1763,988,0,0
546,36,0,0,0,0,0,0,0,0,0,-1,1770,988,0,0
553,36,0,0,0,0,0,0,0,0,0,-1,1777,988,0,0
560,36,0,0,0,0,0,0,0,0,0,-1,1784,988,0,0
567,36,0,0,0,0,0,0,0,0,0,-1,1791,988,0,0
574,36,0,0,0,0,0,0,0,0,0,-1,1798,988,0,0
581,36,0,0,0,0,0,0,0,0,0,-1,1805,988,0,0
588,36,0,0,0,0,0,0,0,0,0,-1,1812,988,0,0
595,36,0,0,0,0,0,0,0,0,0,-1,1819,988,0,0
602,36,0,0,0,0,0,0,0,0,0,-1,1826,988,0,0
609,36,0,0,0,0,0,0,0,0,0,-1,1833,988,0,0
616,36,0,0,0,0,0,0,0,0,0,-1,1840,988,0,0
623,36,0,0,0,0,0,0,0,0,0,-1,1847,988,0,0
630,36,0,0,0,0,0,0,0,0,0,-1,1854,988,0,0
637,36,0,0,0,0,0,0,0,0,0,-1,1861,988,0,0
644,36,48.4458,2.599,0.00226935,0.000535415,-0.000729357,0.00253534,0.000269425,-0.349702,0.00160796,0.0409866,1868,988,48.4458,-2.599
651,36,48.3481,2.8902,0.00101698,0.000434177,-0.000341278,0.00117434,0.000276817,-0.432036,0.000708869,0.0405464,1875,988,48.3482,-2.89023
658,36,48.6284,2.70459,0.000352954,0.000379058,-3.01948e-05,0.000398901,0.000333111,-0.9894,0.000246943,0.040885,1882,988,48.6284,-2.70457
665,36,48.697,2.6795,-4.65399e-06,0.000472897,0.000405006,0.000704275,-0.000236031,1.05175,0.000564877,0.0394136,1889,988,48.6971,-2.67953
672,36,48.5378,2.76324,-0.000178625,0.000688006,0.00099447,0.00133946,-0.000830082,0.990858,0.00126404,0.0381899,1896,988,48.5378,-2.76325
679,36,48.4935,2.77979,-7.27764e-05,0.000863763,0.00180709,0.00226227,-0.00147129,0.912174,0.00217164,0.0397246,1903,988,48.4935,-2.77977
686,36,48.5139,2.74164,0.000238219,0.000827292,0.00256635,0.00311596,-0.00205044,0.842532,0.00300389,0.0380673,1910,988,48.514,-2.74164
693,36,48.4978,2.65894,0.000502377,0.00072467,0.00309432,0.00370984,-0.00248279,0.80335,0.00359863,0.0384674,1917,988,48.4978,-2.65891
700,36,48.5371,2.67633,0.000540289,0.000770298,0.00335776,0.00401502,-0.00270443,0.802517,0.003904,0.035656,1924,988,48.5371,-2.67632
707,36,48.5864,2.6463,0.000273518,0.000995417,0.00345269,0.00410598,-0.00283704,0.83748,0.00403081,0.0279155,1931,988,48.5865,-2.64632
714,36,48.5049,3.16943,-0.000160925,0.00139131,0.00341961,0.00412178,-0.00289139,0.896988,0.00406977,0.0421181,1938,988,48.5048,-3.1694
721,36,48.0304,4.89545,0,0,0,0,0,0,0,-1,1945,988,48.0304,-4.89543
728,36,47.9443,5.22205,-0.00134138,0.00292733,0.0031191,0.00457243,-0.00298648,1.08545,0.00439604,0.0222193,1952,988,47.9443,-5.22205
735,36,47.8815,5.52393,-0.00186446,0.00395439,0.00290691,0.00515773,-0.00306781,1.17831,0.00479984,0.0189414,1959,988,47.8814,-5.52394
742,36,47.834,5.68542,-0.00225958,0.00493379,0.00267541,0.00581973,-0.00314553,1.25102,0.00525229,0.0159229,1966,988,47.834,-5.68542
749,36,47.8215,5.90363,-0.00234424,0.00631885,0.00294855,0.00722717,-0.00325256,1.27196,0.00619384,0.0176617,1973,988,47.8215,-5.90365
756,36,47.7983,6.10889,-0.00194469,0.0088363,0.00388432,0.01009,-0.0031984,1.25859,0.0080086,0.0179488,1980,988,47.7983,-6.10889
763,36,47.6881,6.29877,-0.000591178,0.0116468,0.00536327,0.0136646,-0.00260894,1.21096,0.0100924,0.0203269,1987,988,47.6881,-6.29878
770,36,47.6196,6.5191,0.00251545,0.0150738,0.00837634,0.0192632,-0.00167395,1.10703,0.0134349,0.0160459,1994,988,47.6196,-6.51913
777,36,47.5994,6.79321,0.00751467,0.0189122,0.0131317,0.0275284,-0.00110148,0.990121,0.0187302,0.0236505,2001,988,47.5992,-6.79324
784,36,47.6074,7.15704,0.0151354,0.023199,0.0202867,0.0398507,-0.00151623,0.883491,0.0270867,0.0444812,2008,988,47.6075,-7.15702
791,36,47.603,7.5127,0,0,0,0,0,0,0,-1,2015,988,47.6031,-7.51269
798,36,47.6992,8.55017,0.0401245,0.0333143,0.0428212,0.0796758,-0.00623701,0.745723,0.0553135,0.0462384,2022,988,47.6993,-8.55019
805,36,47.7229,8.11902,0.0575132,0.0403894,0.0588114,0.108383,-0.01048,0.713115,0.0759897,0.0464663,2029,988,47.723,-8.11903
812,36,47.6907,8.15302,0,0,0,0,0,0,0,-1,2036,988,47.6907,-8.15304
-700,29,0,0,0,0,0,0,0,0,0,-1,524,995,0,0
-693,29,-42.2889,2.42694,0.247338,0.128004,0.00838306,0.247924,0.127418,0.0697915,0.143158,0.0463628,531,995,-42.2889,-2.42695
-686,29,-40.9243,2.56934,0.207598,0.109959,0.0117213,0.208985,0.108572,0.117818,0.120688,0.0486135,538,995,-40.9244,-2.56935
-679,29,-39.5076,2.82068,0.169681,0.0939976,0.0132846,0.171945,0.0917335,0.168807,0.099347,0.0480531,545,995,-39.5076,-2.82069
-672,29,-38.0648,3.01984,0.13573,0.0795646,0.0136725,0.138881,0.0764131,0.226543,0.0803178,0.0438672,552,995,-38.0648,-3.01983
-665,29,-36.9843,3.07916,0.105696,0.0663936,0.0132467,0.109743,0.0623457,0.296564,0.063556,0.0452272,559,995,-36.9843,-3.07914
-658,29,-35.9003,2.71191,0,0,0,0,0,0,0,-1,566,995,-35.9003,-2.71189
-651,29,-36.056,3.53326,0,0,0,0,0,0,0,-1,573,995,-36.056,-3.53326
-644,29,-36.1624,3.24921,0.0381165,0.0334072,0.00917869,0.0452378,0.026286,0.659838,0.0262322,0.0438132,580,995,-36.1624,-3.24921
-637,29,-36.3826,3.40283,0.0220373,0.0243419,0.00703696,0.0303203,0.0160589,0.866555,0.0175157,0.0251883,587,995,-36.3826,-3.40282
-630,29,-36.382,3.39435,0.0105768,0.0171833,0.00442201,0.0193996,0.0083605,1.10619,0.0112359,0.0130875,594,995,-36.382,-3.39438
-623,29,-36.3876,3.3252,0.00324727,0.0112728,0.00145323,0.0115278,0.00299223,1.39707,0.00690734,0.0120595,601,995,-36.3876,-3.32521
-616,29,-36.4101,3.18927,-0.000833456,0.00759064,-0.00133242,0.00779636,-0.00103918,-1.41761,0.00557634,0.013834,608,995,-36.4101,-3.18929
-609,29,-36.4213,3.10406,-0.00203112,0.00537659,-0.00376864,0.00695679,-0.00361132,-1.17376,0.00620257,0.0189422,615,995,-36.4213,-3.10409
-602,29,-36.4675,2.97467,-0.00188518,0.00414541,-0.00551488,0.00741549,-0.00515526,-1.03557,0.00729672,0.0202159,622,995,-36.4675,-2.97466
-595,29,-36.4747,3.0014,0,0,0,0,0,0,0,-1,629,995,-36.4747,-3.0014
-588,29,-36.2907,2.01801,-0.00104223,0.0020153,-0.00774558,0.00838155,-0.00740847,-0.882832,0.00912214,0.0379025,636,995,-36.2907,-2.01802
-581,29,-36.0878,1.22028,-0.000408272,0.00149522,-0.00827002,0.00886808,-0.00778113,-0.842688,0.00961925,0.0446218,643,995,-36.0878,-1.22027
-574,29,-36.0578,0.870178,-2.16914e-05,0.00119741,-0.00814594,0.00875658,-0.00758086,-0.822743,0.00944056,0.0318306,650,995,-36.0578,-0.870176
-567,29,-36.0731,0.780029,0.000110139,0.00101252,-0.00754221,0.00811702,-0.00699436,-0.815273,0.00873258,0.0335564,657,995,-36.0731,-0.780007
-560,29,-36.1821,0.589478,0.000468316,0.000926231,-0.00632548,0.0070269,-0.00563235,-0.803488,0.00732359,0.038221,664,995,-36.1821,-0.58945
-553,29,-36.2241,0.693054,0.00125515,0.000860326,-0.00452159,0.00558364,-0.00346816,-0.763582,0.00527341,0.041799,671,995,-36.2241,-0.693079
-546,29,-36.2037,0.966736,0,0,0,0,0,0,0,-1,678,995,-36.2037,-0.966728
-539,29,-36.1384,0.748474,0.00525246,0.000573282,0.000200173,0.00526101,0.000564735,0.0426757,0.00333507,0.044816,685,995,-36.1384,-0.748466
-532,29,-36.1068,0.835571,0.00929498,0.00106879,0.00102504,0.00942079,0.000942986,0.122119,0.00599099,0.0461334,692,995,-36.1067,-0.835598
-525,29,-35.9903,1.01428,0.0141046,0.00299203,-0.000213429,0.0141087,0.00298794,-0.0191967,0.00858491,0.0425197,699,995,-35.9903,-1.01431
-518,29,0,0,0,0,0,0,0,0,0,-1,706,995,0,0
-511,29,0,0,0,0,0,0,0,0,0,-1,713,995,0,0
-504,29,0,0,0,0,0,0,0,0,0,-1,720,995,0,0
-497,29,0,0,0,0,0,0,0,0,0,-1,727,995,0,0
-490,29,0,0,0,0,0,0,0,0,0,-1,734,995,0,0
-483,29,0,0,0,0,0,0,0,0,0,-1,741,995,0,0
-476,29,0,0,0,0,0,0,0,0,0,-1,748,995,0,0
-469,29,0,0,0,0,0,0,0,0,0,-1,755,995,0,0
-462,29,0,0,0,0,0,0,0,0,0,-1,762,995,0,0
-455,29,0,0,0,0,0,0,0,0,0,-1,769,995,0,0
-448,29,0,0,0,0,0,0,0,0,0,-1,776,995,0,0
-441,29,0,0,0,0,0,0,0,0,0,-1,783,995,0,0
-434,29,0,0,0,0,0,0,0,0,0,-1,790,995,0,0
-427,29,0,0,0,0,0,0,0,0,0,-1,797,995,0,0
-420,29,0,0,0,0,0,0,0,0,0,-1,804,995,0,0
-413,29,0,0,0,0,0,0,0,0,0,-1,811,995,0,0
-406,29,0,0,0,0,0,0,0,0,0,-1,818,995,0,0
-399,29,0,0,0,0,0,0,0,0,0,-1,825,995,0,0
-392,29,0,0,0,0,0,0,0,0,0,-1,832,995,0,0
-385,29,0,0,0,0,0,0,0,0,0,-1,839,995,0,0
-378,29,0,0,0,0,0,0,0,0,0,-1,846,995,0,0
-371,29,0,0,0,0,0,0,0,0,0,-1,853,995,0,0
-364,29,0,0,0,0,0,0,0,0,0,-1,860,995,0,0
-357,29,0,0,0,0,0,0,0,0,0,-1,867,995,0,0
-350,29,0,0,0,0,0,0,0,0,0,-1,874,995,0,0
-343,29,0,0,0,0,0,0,0,0,0,-1,881,995,0,0
-336,29,0,0,0,0,0,0,0,0,0,-1,888,995,0,0
-329,29,0,0,0,0,0,0,0,0,0,-1,895,995,0,0
-322,29,0,0,0,0,0,0,0,0,0,-1,902,995,0,0
-315,29,0,0,0,0,0,0,0,0,0,-1,909,995,0,0
-308,29,0,0,0,0,0,0,0,0,0,-1,916,995,0,0
-301,29,0,0,0,0,0,0,0,0,0,-1,923,995,0,0
-294,29,0,0,0,0,0,0,0,0,0,-1,930,995,0,0
-287,29,0,0,0,0,0,0,0,0,0,-1,937,995,0,0
-280,29,0,0,0,0,0,0,0,0,0,-1,944,995,0,0
-273,29,0,0,0,0,0,0,0,0,0,-1,951,995,0,0
-266,29,0,0,0,0,0,0,0,0,0,-1,958,995,0,0
-259,29,0,0,0,0,0,0,0,0,0,-1,965,995,0,0
-252,29,0,0,0,0,0,0,0,0,0,-1,972,995,0,0
-245,29,0,0,0,0,0,0,0,0,0,-1,979,995,0,0
-238,29,0,0,0,0,0,0,0,0,0,-1,986,995,0,0
-231,29,0,0,0,0,0,0,0,0,0,-1,993,995,0,0
-224,29,0,0,0,0,0,0,0,0,0,-1,1000,995,0,0
-217,29,0,0,0,0,0,0,0,0,0,-1,1007,995,0,0
-210,29,0,0,0,0,0,0,0,0,0,-1,1014,995,0,0
-203,29,0,0,0,0,0,0,0,0,0,-1,1021,995,0,0
-196,29,0,0,0,0,0,0,0,0,0,-1,1028,995,0,0
-189,29,0,0,0,0,0,0,0,0,0,-1,1035,995,0,0
-182,29,0,0,0,0,0,0,0,0,0,-1,1042,995,0,0
-175,29,0,0,0,0,0,0,0,0,0,-1,1049,995,0,0
-168,29,0,0,0,0,0,0,0,0,0,-1,1056,995,0,0
-161,29,0,0,0,0,0,0,0,0,0,-1,1063,995,0,0
-154,29,0,0,0,0,0,0,0,0,0,-1,1070,995,0,0
-147,29,0,0,0,0,0,0,0,0,0,-1,1077,995,0,0
-140,29,0,0,0,0,0,0,0,0,0,-1,1084,995,0,0
-133,29,0,0,0,0,0,0,0,0,0,-1,1091,995,0,0
-126,29,0,0,0,0,0,0,0,0,0,-1,1098,995,0,0
-119,29,0,0,0,0,0,0,0,0,0,-1,1105,995,0,0
-112,29,0,0,0,0,0,0,0,0,0,-1,1112,995,0,0
-105,29,0,0,0,0,0,0,0,0,0,-1,1119,995,0,0
-98,29,0,0,0,0,0,0,0,0,0,-1,1126,995,0,0
-91,29,0,0,0,0,0,0,0,0,0,-1,1133,995,0,0
-84,29,0,0,0,0,0,0,0,0,0,-1,1140,995,0,0
-77,29,0,0,0,0,0,0,0,0,0,-1,1147,995,0,0
-70,29,0,0,0,0,0,0,0,0,0,-1,1154,995,0,0
-63,29,0,0,0,0,0,0,0,0,0,-1,1161,995,0,0
-56,29,0,0,0,0,0,0,0,0,0,-1,1168,995,0,0
-49,29,0,0,0,0,0,0,0,0,0,-1,1175,995,0,0
-42,29,0,0,0,0,0,0,0,0,0,-1,1182,995,0,0
-35,29,0,0,0,0,0,0,0,0,0,-1,1189,995,0,0
-28,29,0,0,0,0,0,0,0,0,0,-1,1196,995,0,0
-21,29,0,0,0,0,0,0,0,0,0,-1,1203,995,0,0
-14,29,0,0,0,0,0,0,0,0,0,-1,1210,995,0,0
-7,29,0,0,0,0,0,0,0,0,0,-1,1217,995,0,0
0,29,0,0,0,0,0,0,0,0,0,-1,1224,995,0,0
7,29,0,0,0,0,0,0,0,0,0,-1,1231,995,0,0
14,29,0,0,0,0,0,0,0,0,0,-1,1238,995,0,0
21,29,0,0,0,0,0,0,0,0,0,-1,1245,995,0,0
28,29,0,0,0,0,0,0,0,0,0,-1,1252,995,0,0
35,29,0,0,0,0,0,0,0,0,0,-1,1259,995,0,0
42,29,0,0,0,0,0,0,0,0,0,-1,1266,995,0,0
49,29,0,0,0,0,0,0,0,0,0,-1,1273,995,0,0
56,29,0,0,0,0,0,0,0,0,0,-1,1280,995,0,0
63,29,0,0,0,0,0,0,0,0,0,-1,1287,995,0,0
70,29,0,0,0,0,0,0,0,0,0,-1,1294,995,0,0
77,29,0,0,0,0,0,0,0,0,0,-1,1301,995,0,0
84,29,0,0,0,0,0,0,0,0,0,-1,1308,995,0,0
91,29,0,0,0,0,0,0,0,0,0,-1,1315,995,0,0
98,29,0,0,0,0,0,0,0,0,0,-1,1322,995,0,0
105,29,0,0,0,0,0,0,0,0,0,-1,1329,995,0,0
112,29,0,0,0,0,0,0,0,0,0,-1,1336,995,0,0
119,29,0,0,0,0,0,0,0,0,0,-1,1343,995,0,0
126,29,0,0,0,0,0,0,0,0,0,-1,1350,995,0,0
133,29,0,0,0,0,0,0,0,0,0,-1,1357,995,0,0
140,29,0,0,0,0,0,0,0,0,0,-1,1364,995,0,0
147,29,0,0,0,0,0,0,0,0,0,-1,1371,995,0,0
154,29,0,0,0,0,0,0,0,0,0,-1,1378,995,0,0
161,29,0,0,0,0,0,0,0,0,0,-1,1385,995,0,0
168,29,0,0,0,0,0,0,0,0,0,-1,1392,995,0,0
175,29,0,0,0,0,0,0,0,0,0,-1,1399,995,0,0
182,29,0,0,0,0,0,0,0,0,0,-1,1406,995,0,0
189,29,0,0,0,0,0,0,0,0,0,-1,1413,995,0,0
196,29,0,0,0,0,0,0,0,0,0,-1,1420,995,0,0
203,29,0,0,0,0,0,0,0,0,0,-1,1427,995,0,0
210,29,0,0,0,0,0,0,0,0,0,-1,1434,995,0,0
217,29,0,0,0,0,0,0,0,0,0,-1,1441,995,0,0
224,29,0,0,0,0,0,0,0,0,0,-1,1448,995,0,0
231,29,0,0,0,0,0,0,0,0,0,-1,1455,995,0,0
238,29,0,0,0,0,0,0,0,0,0,-1,1462,995,0,0
245,29,0,0,0,0,0,0,0,0,0,-1,1469,995,0,0
252,29,0,0,0,0,0,0,0,0,0,-1,1476,995,0,0
259,29,0,0,0,0,0,0,0,0,0,-1,1483,995,0,0
266,29,0,0,0,0,0,0,0,0,0,-1,1490,995,0,0
273,29,0,0,0,0,0,0,0,0,0,-1,1497,995,0,0
280,29,0,0,0,0,0,0,0,0,0,-1,1504,995,0,0
287,29,0,0,0,0,0,0,0,0,0,-1,1511,995,0,0
294,29,0,0,0,0,0,0,0,0,0,-1,1518,995,0,0
301,29,0,0,0,0,0,0,0,0,0,-1,1525,995,0,0
308,29,0,0,0,0,0,0,0,0,0,-1,1532,995,0,0
315,29,0,0,0,0,0,0,0,0,0,-1,1539,995,0,0
322,29,0,0,0,0,0,0,0,0,0,-1,1546,995,0,0
329,29,0,0,0,0,0,0,0,0,0,-1,1553,995,0,0
336,29,0,0,0,0,0,0,0,0,0,-1,1560,995,0,0
343,29,0,0,0,0,0,0,0,0,0,-1,1567,995,0,0
350,29,0,0,0,0,0,0,0,0,0,-1,1574,995,0,0
357,29,0,0,0,0,0,0,0,0,0,-1,1581,995,0,0
364,29,0,0,0,0,0,0,0,0,0,-1,1588,995,0,0
371,29,0,0,0,0,0,0,0,0,0,-1,1595,995,0,0
378,29,0,0,0,0,0,0,0,0,0,-1,1602,995,0,0
385,29,0,0,0,0,0,0,0,0,0,-1,1609,995,0,0
392,29,0,0,0,0,0,0,0,0,0,-1,1616,995,0,0
399,29,0,0,0,0,0,0,0,0,0,-1,1623,995,0,0
406,29,0,0,0,0,0,0,0,0,0,-1,1630,995,0,0
413,29,0,0,0,0,0,0,0,0,0,-1,1637,995,0,0
420,29,0,0,0,0,0,0,0,0,0,-1,1644,995,0,0
427,29,0,0,0,0,0,0,0,0,0,-1,1651,995,0,0
434,29,0,0,0,0,0,0,0,0,0,-1,1658,995,0,0
441,29,0,0,0,0,0,0,0,0,0,-1,1665,995,0,0
448,29,0,0,0,0,0,0,0,0,0,-1,1672,995,0,0
455,29,0,0,0,0,0,0,0,0,0,-1,1679,995,0,0
462,29,0,0,0,0,0,0,0,0,0,-1,1686,995,0,0
469,29,0,0,0,0,0,0,0,0,0,-1,1693,995,0,0
476,29,0,0,0,0,0,0,0,0,0,-1,1700,995,0,0
483,29,0,0,0,0,0,0,0,0,0,-1,1707,995,0,0
490,29,0,0,0,0,0,0,0,0,0,-1,1714,995,0,0
497,29,0,0,0,0,0,0,0,0,0,-1,1721,995,0,0
504,29,0,0,0,0,0,0,0,0,0,-1,1728,995,0,0
511,29,0,0,0,0,0,0,0,0,0,-1,1735,995,0,0
518,29,0,0,0,0,0,0,0,0,0,-1,1742,995,0,0
525,29,0,0,0,0,0,0,0,0,0,-1,1749,995,0,0
532,29,0,0,0,0,0,0,0,0,0,-1,1756,995,0,0
539,29,0,0,0,0,0,0,0,0,0,-1,1763,995,0,0
546,29,0,0,0,0,0,0,0,0,0,-1,1770,995,0,0
553,29,0,0,0,0,0,0,0,0,0,-1,1777,995,0,0
560,29,0,0,0,0,0,0,0,0,0,-1,1784,995,0,0
567,29,0,0,0,0,0,0,0,0,0,-1,1791,995,0,0
574,29,0,0,0,0,0,0,0,0,0,-1,1798,995,0,0
581,29,0,0,0,0,0,0,0,0,0,-1,1805,995,0,0
588,29,0,0,0,0,0,0,0,0,0,-1,1812,995,0,0
595,29,0,0,0,0,0,0,0,0,0,-1,1819,995,0,0
602,29,0,0,0,0,0,0,0,0,0,-1,1826,995,0,0
609,29,0,0,0,0,0,0,0,0,0,-1,1833,995,0,0
616,29,0,0,0,0,0,0,0,0,0,-1,1840,995,0,0
623,29,0,0,0,0,0,0,0,0,0,-1,1847,995,0,0
630,29,0,0,0,0,0,0,0,0,0,-1,1854,995,0,0
637,29,0,0,0,0,0,0,0,0,0,-1,1861,995,0,0
644,29,48.4637,2.51727,0.0042352,0.000758836,0.000107742,0.00423854,0.0007555,0.0309532,0.00261056,0.0424545,1868,995,48.4638,-2.51727
651,29,48.469,2.79089,0.00232878,0.00064994,0.000231285,0.00236006,0.00061866,0.13443,0.00141304,0.0423637,1875,995,48.4689,-2.79092
658,29,48.5714,2.7074,0.00119407,0.000561766,0.000319507,0.00132741,0.000428434,0.395337,0.000782264,0.0438879,1882,995,48.5714,-2.70738
665,29,48.5675,2.67493,0.000495148,0.000612205,0.000589685,0.00114626,-3.89061e-05,0.834863,0.000777466,0.0409546,1889,995,48.5675,-2.67491
672,29,48.4614,2.73859,7.29341e-05,0.000810532,0.00106895,0.00157251,-0.000689044,0.95151,0.00133851,0.0385247,1896,995,48.4615,-2.73858
679,29,48.4315,2.80371,2.42941e-05,0.00100869,0.0018464,0.00242736,-0.00139438,0.915655,0.00223319,0.0394782,1903,995,48.4315,-2.80371
686,29,48.3851,2.77411,0.000231021,0.000980877,0.00264744,0.00327981,-0.00206791,0.85574,0.00311382,0.0377413,1910,995,48.3852,-2.77408
693,29,48.4467,2.69012,0.000469239,0.000871365,0.00325788,0.00393438,-0.00259377,0.816217,0.00379543,0.0372004,1917,995,48.4466,-2.69014
700,29,48.506,2.70496,0.000530824,0.000894618,0.00358882,0.00430614,-0.0028807,0.810719,0.00417644,0.0340389,1924,995,48.506,-2.70498
707,29,48.5125,2.69263,0.000263657,0.00109258,0.00377493,0.00447573,-0.00311949,0.840076,0.00440835,0.0240833,1931,995,48.5125,-2.69262
714,29,48.4948,3.1275,-0.000172422,0.0015024,0.00382118,0.00457685,-0.00324687,0.893268,0.00453873,0.0437781,1938,995,48.4948,-3.12749
721,29,48.0382,5.10529,0,0,0,0,0,0,0,-1,1945,995,48.0382,-5.10532
728,29,48.0647,5.35394,-0.00138298,0.00303089,0.0035456,0.0050003,-0.00335239,1.06378,0.00485362,0.0280826,1952,995,48.0647,-5.35397
735,29,48.0377,5.59692,-0.00190568,0.00404821,0.0033599,0.00556027,-0.00341774,1.14792,0.00523242,0.0172908,1959,995,48.0377,-5.59691
742,29,48.0215,5.72491,-0.00233729,0.00501172,0.00310982,0.00615105,-0.00347662,1.21962,0.00562957,0.013947,1966,995,48.0215,-5.72492
749,29,47.9978,5.88904,-0.00250613,0.00636785,0.00332997,0.00747843,-0.00361671,1.24889,0.00653384,0.0149573,1973,995,47.9978,-5.88904
756,29,47.9792,6.0813,-0.00229885,0.00880126,0.00409716,0.0101497,-0.00364733,1.25284,0.00825536,0.0147881,1980,995,47.9793,-6.08131
763,29,47.9235,6.19763,-0.00121338,0.0114314,0.00531981,0.0133717,-0.00315373,1.22105,0.0101307,0.013132,1987,995,47.9235,-6.19766
770,29,47.8497,6.31335,0.00152082,0.0146848,0.00798139,0.0184481,-0.00224249,1.1302,0.0131103,0.0160522,1994,995,47.8498,-6.31334
777,29,47.7585,6.55688,0.00610145,0.0183002,0.0123719,0.0259946,-0.00159289,1.01442,0.0178843,0.0271245,2001,995,47.7585,-6.55691
784,29,47.7793,7.0141,0.0130475,0.0221634,0.0189955,0.0371401,-0.00192921,0.903146,0.0254275,0.0435111,2008,995,47.7793,-7.0141
791,29,47.7922,7.49219,0,0,0,0,0,0,0,-1,2015,995,47.7921,-7.49219
798,29,47.0234,8.59137,0,0,0,0,0,0,0,-1,2022,995,47.0235,-8.59135
805,29,47.4885,8.60107,0,0,0,0,0,0,0,-1,2029,995,47.4885,-8.6011
812,29,47.155,4.62274,0,0,0,0,0,0,0,-1,2036,995,47.1551,-4.62272
-700,22,0,0,0,0,0,0,0,0,0,-1,524,1002,0,0
-693,22,-42.2543,1.60437,0.266064,0.116528,-0.00409334,0.266175,0.116416,-0.0273463,0.154078,0.0468557,531,1002,-42.2543,-1.60436
-686,22,-40.4462,1.66772,0.219095,0.0992968,0.00111711,0.219105,0.0992864,0.0093239,0.126685,0.045061,538,1002,-40.4462,-1.6677
-679,22,-39.0718,1.935,0.176846,0.0844471,0.00413311,0.17703,0.0842626,0.0446126,0.102248,0.0463829,545,1002,-39.0718,-1.935
-672,22,-38.2166,2.56586,0.140023,0.0711995,0.00576137,0.140502,0.0707205,0.0829434,0.0811192,0.0479669,552,1002,-38.2165,-2.56586
-665,22,-37.4339,2.62451,0.107989,0.0592245,0.00645726,0.10883,0.0583839,0.129444,0.0628887,0.0459478,559,1002,-37.4339,-2.62449
-658,22,-36.2808,2.48065,0.0803757,0.0483796,0.0065293,0.0816568,0.0470985,0.193748,0.0473295,0.0468294,566,1002,-36.2808,-2.48064
-651,22,-35.545,2.51971,0,0,0,0,0,0,0,-1,573,1002,-35.545,-2.51969
-644,22,-36.1541,2.9458,0.0375371,0.0296824,0.00543465,0.0403149,0.0269045,0.472515,0.0237065,0.0389898,580,1002,-36.154,-2.94583
-637,22,-36.5312,3.2652,0.0211485,0.0214866,0.00411193,0.0254329,0.0172021,0.805947,0.0149851,0.0240538,587,1002,-36.5312,-3.26517
-630,22,-36.4999,3.30328,0.00933151,0.0151357,0.00240014,0.0159996,0.0084676,1.22529,0.00924264,0.0127731,594,1002,-36.5,-3.30331
-623,22,-36.517,3.24646,0.00252665,0.00995441,-1.41466e-05,0.00995443,0.00252662,-1.56889,0.00597489,0.0116082,601,1002,-36.517,-3.24647
-616,22,-36.5401,3.13556,-0.000879024,0.00690243,-0.00229937,0.00753109,-0.00150769,-1.30391,0.00559146,0.0177242,608,1002,-36.5401,-3.13557
-609,22,-36.5959,3.10004,-0.00164874,0.00496189,-0.00434856,0.00711872,-0.00380558,-1.11036,0.00640311,0.025531,615,1002,-36.596,-3.10006
-602,22,-36.681,3.02563,-0.00115153,0.00388082,-0.00577258,0.00766177,-0.00493248,-0.990925,0.00732799,0.0260521,622,1002,-36.681,-3.02565
-595,22,-36.5341,2.91107,0,0,0,0,0,0,0,-1,629,1002,-36.5341,-2.91108
-588,22,-36.3036,2.01886,7.66247e-05,0.00192701,-0.00782383,0.00888016,-0.00687653,-0.844251,0.00912161,0.0413314,636,1002,-36.3036,-2.01886
-581,22,-36.0471,1.35791,0.000788161,0.00148269,-0.00832855,0.00947121,-0.00720036,-0.806234,0.00965505,0.0441752,643,1002,-36.0471,-1.35789
-574,22,-36.1012,0.619507,0,0,0,0,0,0,0,-1,650,1002,-36.1012,-0.619496
-567,22,-36.0831,0.769409,0.00123965,0.00122178,-0.00760291,0.00883362,-0.0063722,-0.784811,0.00881734,0.0348699,657,1002,-36.0831,-0.769398
-560,22,-36.1545,0.742798,0.00143586,0.00128086,-0.00641974,0.00777856,-0.00506185,-0.779362,0.00746852,0.0380766,664,1002,-36.1546,-0.742772
-553,22,-36.2261,0.844543,0.00193218,0.00136821,-0.00465873,0.00631746,-0.00301706,-0.755171,0.00550043,0.0400656,671,1002,-36.2261,-0.844559
-546,22,-36.154,0.880432,0.00307376,0.00136044,-0.00236248,0.0047301,-0.0002959,-0.611465,0.00325652,0.0411449,678,1002,-36.154,-0.880413
-539,22,-36.1516,0.747681,0.00505112,0.00140751,-0.000100269,0.00505387,0.00140475,-0.0274914,0.00301224,0.0405371,685,1002,-36.1515,-0.747661
-532,22,-36.093,0.805725,0.00874167,0.00213337,0.000439773,0.00877081,0.00210424,0.0661597,0.00528726,0.0414273,692,1002,-36.093,-0.805703
-525,22,0,0,0,0,0,0,0,0,0,-1,699,1002,0,0
-518,22,0,0,0,0,0,0,0,0,0,-1,706,1002,0,0
-511,22,0,0,0,0,0,0,0,0,0,-1,713,1002,0,0
-504,22,0,0,0,0,0,0,0,0,0,-1,720,1002,0,0
-497,22,0,0,0,0,0,0,0,0,0,-1,727,1002,0,0
-490,22,0,0,0,0,0,0,0,0,0,-1,734,1002,0,0
-483,22,0,0,0,0,0,0,0,0,0,-1,741,1002,0,0
-476,22,0,0,0,0,0,0,0,0,0,-1,748,1002,0,0
-469,22,0,0,0,0,0,0,0,0,0,-1,755,1002,0,0
-462,22,0,0,0,0,0,0,0,0,0,-1,762,1002,0,0
-455,22,0,0,0,0,0,0,0,0,0,-1,769,1002,0,0
-448,22,0,0,0,0,0,0,0,0,0,-1,776,1002,0,0
-441,22,0,0,0,0,0,0,0,0,0,-1,783,1002,0,0
-434,22,0,0,0,0,0,0,0,0,0,-1,790,1002,0,0
-427,22,0,0,0,0,0,0,0,0,0,-1,797,1002,0,0
-420,22,0,0,0,0,0,0,0,0,0,-1,804,1002,0,0
-413,22,0,0,0,0,0,0,0,0,0,-1,811,1002,0,0
-406,22,0,0,0,0,0,0,0,0,0,-1,818,1002,0,0
-399,22,0,0,0,0,0,0,0,0,0,-1,825,1002,0,0
-392,22,0,0,0,0,0,0,0,0,0,-1,832,1002,0,0
-385,22,0,0,0,0,0,0,0,0,0,-1,839,1002,0,0
-378,22,0,0,0,0,0,0,0,0,0,-1,846,1002,0,0
-371,22,0,0,0,0,0,0,0,0,0,-1,853,1002,0,0
-364,22,0,0,0,0,0,0,0,0,0,-1,860,1002,0,0
-357,22,0,0,0,0,0,0,0,0,0,-1,867,1002,0,0
-350,22,0,0,0,0,0,0,0,0,0,-1,874,1002,0,0
-343,22,0,0,0,0,0,0,0,0,0,-1,881,1002,0,0
-336,22,0,0,0,0,0,0,0,0,0,-1,888,1002,0,0
-329,22,0,0,0,0,0,0,0,0,0,-1,895,1002,0,0
-322,22,0,0,0,0,0,0,0,0,0,-1,902,1002,0,0
-315,22,0,0,0,0,0,0,0,0,0,-1,909,1002,0,0
-308,22,0,0,0,0,0,0,0,0,0,-1,916,1002,0,0
-301,22,0,0,0,0,0,0,0,0,0,-1,923,1002,0,0
-294,22,0,0,0,0,0,0,0,0,0,-1,930,1002,0,0
-287,22,0,0,0,0,0,0,0,0,0,-1,937,1002,0,0
-280,22,0,0,0,0,0,0,0,0,0,-1,944,1002,0,0
-273,22,0,0,0,0,0,0,0,0,0,-1,951,1002,0,0
-266,22,0,0,0,0,0,0,0,0,0,-1,958,1002,0,0
-259,22,0,0,0,0,0,0,0,0,0,-1,965,1002,0,0
-252,22,0,0,0,0,0,0,0,0,0,-1,972,1002,0,0
-245,22,0,0,0,0,0,0,0,0,0,-1,979,1002,0,0
-238,22,0,0,0,0,0,0,0,0,0,-1,986,1002,0,0
-231,22,0,0,0,0,0,0,0,0,0,-1,993,1002,0,0
-224,22,0,0,0,0,0,0,0,0,0,-1,1000,1002,0,0
-217,22,0,0,0,0,0,0,0,0,0,-1,1007,1002,0,0
-210,22,0,0,0,0,0,0,0,0,0,-1,1014,1002,0,0
-203,22,0,0,0,0,0,0,0,0,0,-1,1021,1002,0,0
-196,22,0,0,0,0,0,0,0,0,0,-1,1028,1002,0,0
-189,22,0,0,0,0,0,0,0,0,0,-1,1035,1002,0,0
-182,22,0,0,0,0,0,0,0,0,0,-1,1042,1002,0,0
-175,22,0,0,0,0,0,0,0,0,0,-1,1049,1002,0,0
-168,22,0,0,0,0,0,0,0,0,0,-1,1056,1002,0,0
-161,22,0,0,0,0,0,0,0,0,0,-1,1063,1002,0,0
-154,22,0,0,0,0,0,0,0,0,0,-1,1070,1002,0,0
-147,22,0,0,0,0,0,0,0,0,0,-1,1077,1002,0,0
-140,22,0,0,0,0,0,0,0,0,0,-1,1084,1002,0,0
-133,22,0,0,0,0,0,0,0,0,0,-1,1091,1002,0,0
-126,22,0,0,0,0,0,0,0,0,0,-1,1098,1002,0,0
-119,22,0,0,0,0,0,0,0,0,0,-1,1105,1002,0,0
-112,22,0,0,0,0,0,0,0,0,0,-1,1112,1002,0,0
-105,22,0,0,0,0,0,0,0,0,0,-1,1119,1002,0,0
-98,22,0,0,0,0,0,0,0,0,0,-1,1126,1002,0,0
-91,22,0,0,0,0,0,0,0,0,0,-1,1133,1002,0,0
-84,22,0,0,0,0,0,0,0,0,0,-1,1140,1002,0,0
-77,22,0,0,0,0,0,0,0,0,0,-1,1147,1002,0,0
-70,22,0,0,0,0,0,0,0,0,0,-1,1154,1002,0,0
-63,22,0,0,0,0,0,0,0,0,0,-1,1161,1002,0,0
-56,22,0,0,0,0,0,0,0,0,0,-1,1168,1002,0,0
-49,22,0,0,0,0,0,0,0,0,0,-1,1175,1002,0,0
-42,22,0,0,0,0,0,0,0,0,0,-1,1182,1002,0,0
-35,22,0,0,0,0,0,0,0,0,0,-1,1189,1002,0,0
-28,22,0,0,0,0,0,0,0,0,0,-1,1196,1002,0,0
-21,22,0,0,0,0,0,0,0,0,0,-1,1203,1002,0,0
-14,22,0,0,0,0,0,0,0,0,0,-1,1210,1002,0,0
-7,22,0,0,0,0,0,0,0,0,0,-1,1217,1002,0,0
0,22,0,0,0,0,0,0,0,0,0,-1,1224,1002,0,0
7,22,0,0,0,0,0,0,0,0,0,-1,1231,1002,0,0
14,22,0,0,0,0,0,0,0,0,0,-1,1238,1002,0,0
21,22,0,0,0,0,0,0,0,0,0,-1,1245,1002,0,0
28,22,0,0,0,0,0,0,0,0,0,-1,1252,1002,0,0
35,22,0,0,0,0,0,0,0,0,0,-1,1259,1002,0,0
42,22,0,0,0,0,0,0,0,0,0,-1,1266,1002,0,0
49,22,0,0,0,0,0,0,0,0,0,-1,1273,1002,0,0
56,22,0,0,0,0,0,0,0,0,0,-1,1280,1002,0,0
63,22,0,0,0,0,0,0,0,0,0,-1,1287,1002,0,0
70,22,0,0,0,0,0,0,0,0,0,-1,1294,1002,0,0
77,22,0,0,0,0,0,0,0,0,0,-1,1301,1002,0,0
84,22,0,0,0,0,0,0,0,0,0,-1,1308,1002,0,0
91,22,0,0,0,0,0,0,0,0,0,-1,1315,1002,0,0
98,22,0,0,0,0,0,0,0,0,0,-1,1322,1002,0,0
105,22,0,0,0,0,0,0,0,0,0,-1,1329,1002,0,0
112,22,0,0,0,0,0,0,0,0,0,-1,1336,1002,0,0
119,22,0,0,0,0,0,0,0,0,0,-1,1343,1002,0,0
126,22,0,0,0,0,0,0,0,0,0,-1,1350,1002,0,0
133,22,0,0,0,0,0,0,0,0,0,-1,1357,1002,0,0
140,22,0,0,0,0,0,0,0,0,0,-1,1364,1002,0,0
147,22,0,0,0,0,0,0,0,0,0,-1,1371,1002,0,0
154,22,0,0,0,0,0,0,0,0,0,-1,1378,1002,0,0
161,22,0,0,0,0,0,0,0,0,0,-1,1385,1002,0,0
168,22,0,0,0,0,0,0,0,0,0,-1,1392,1002,0,0
175,22,0,0,0,0,0,0,0,0,0,-1,1399,1002,0,0
182,22,0,0,0,0,0,0,0,0,0,-1,1406,1002,0,0
189,22,0,0,0,0,0,0,0,0,0,-1,1413,1002,0,0
196,22,0,0,0,0,0,0,0,0,0,-1,1420,1002,0,0
203,22,0,0,0,0,0,0,0,0,0,-1,1427,1002,0,0
210,22,0,0,0,0,0,0,0,0,0,-1,1434,1002,0,0
217,22,0,0,0,0,0,0,0,0,0,-1,1441,1002,0,0
224,22,0,0,0,0,0,0,0,0,0,-1,1448,1002,0,0
231,22,0,0,0,0,0,0,0,0,0,-1,1455,1002,0,0
238,22,0,0,0,0,0,0,0,0,0,-1,1462,1002,0,0
245,22,0,0,0,0,0,0,0,0,0,-1,1469,1002,0,0
252,22,0,0,0,0,0,0,0,0,0,-1,1476,1002,0,0
259,22,0,0,0,0,0,0,0,0,0,-1,1483,1002,0,0
266,22,0,0,0,0,0,0,0,0,0,-1,1490,1002,0,0
273,22,0,0,0,0,0,0,0,0,0,-1,1497,1002,0,0
280,22,0,0,0,0,0,0,0,0,0,-1,1504,1002,0,0
287,22,0,0,0,0,0,0,0,0,0,-1,1511,1002,0,0
294,22,0,0,0,0,0,0,0,0,0,-1,1518,1002,0,0
301,22,0,0,0,0,0,0,0,0,0,-1,1525,1002,0,0
308,22,0,0,0,0,0,0,0,0,0,-1,1532,1002,0,0
315,22,0,0,0,0,0,0,0,0,0,-1,1539,1002,0,0
322,22,0,0,0,0,0,0,0,0,0,-1,1546,1002,0,0
329,22,0,0,0,0,0,0,0,0,0,-1,1553,1002,0,0
336,22,0,0,0,0,0,0,0,0,0,-1,1560,1002,0,0
343,22,0,0,0,0,0,0,0,0,0,-1,1567,1002,0,0
350,22,0,0,0,0,0,0,0,0,0,-1,1574,1002,0,0
357,22,0,0,0,0,0,0,0,0,0,-1,1581,1002,0,0
364,22,0,0,0,0,0,0,0,0,0,-1,1588,1002,0,0
371,22,0,0,0,0,0,0,0,0,0,-1,1595,1002,0,0
378,22,0,0,0,0,0,0,0,0,0,-1,1602,1002,0,0
385,22,0,0,0,0,0,0,0,0,0,-1,1609,1002,0,0
392,22,0,0,0,0,0,0,0,0,0,-1,1616,1002,0,0
399,22,0,0,0,0,0,0,0,0,0,-1,1623,1002,0,0
406,22,0,0,0,0,0,0,0,0,0,-1,1630,1002,0,0
413,22,0,0,0,0,0,0,0,0,0,-1,1637,1002,0,0
420,22,0,0,0,0,0,0,0,0,0,-1,1644,1002,0,0
427,22,0,0,0,0,0,0,0,0,0,-1,1651,1002,0,0
434,22,0,0,0,0,0,0,0,0,0,-1,1658,1002,0,0
441,22,0,0,0,0,0,0,0,0,0,-1,1665,1002,0,0
448,22,0,0,0,0,0,0,0,0,0,-1,1672,1002,0,0
455,22,0,0,0,0,0,0,0,0,0,-1,1679,1002,0,0
462,22,0,0,0,0,0,0,0,0,0,-1,1686,1002,0,0
469,22,0,0,0,0,0,0,0,0,0,-1,1693,1002,0,0
476,22,0,0,0,0,0,0,0,0,0,-1,1700,1002,0,0
483,22,0,0,0,0,0,0,0,0,0,-1,1707,1002,0,0
490,22,0,0,0,0,0,0,0,0,0,-1,1714,1002,0,0
497,22,0,0,0,0,0,0,0,0,0,-1,1721,1002,0,0
504,22,0,0,0,0,0,0,0,0,0,-1,1728,1002,0,0
511,22,0,0,0,0,0,0,0,0,0,-1,1735,1002,0,0
518,22,0,0,0,0,0,0,0,0,0,-1,1742,1002,0,0
525,22,0,0,0,0,0,0,0,0,0,-1,1749,1002,0,0
532,22,0,0,0,0,0,0,0,0,0,-1,1756,1002,0,0
539,22,0,0,0,0,0,0,0,0,0,-1,1763,1002,0,0
546,22,0,0,0,0,0,0,0,0,0,-1,1770,1002,0,0
553,22,0,0,0,0,0,0,0,0,0,-1,1777,1002,0,0
560,22,0,0,0,0,0,0,0,0,0,-1,1784,1002,0,0
567,22,0,0,0,0,0,0,0,0,0,-1,1791,1002,0,0
574,22,0,0,0,0,0,0,0,0,0,-1,1798,1002,0,0
581,22,0,0,0,0,0,0,0,0,0,-1,1805,1002,0,0
588,22,0,0,0,0,0,0,0,0,0,-1,1812,1002,0,0
595,22,0,0,0,0,0,0,0,0,0,-1,1819,1002,0,0
602,22,0,0,0,0,0,0,0,0,0,-1,1826,1002,0,0
609,22,0,0,0,0,0,0,0,0,0,-1,1833,1002,0,0
616,22,0,0,0,0,0,0,0,0,0,-1,1840,1002,0,0
623,22,0,0,0,0,0,0,0,0,0,-1,1847,1002,0,0
630,22,0,0,0,0,0,0,0,0,0,-1,1854,1002,0,0
637,22,0,0,0,0,0,0,0,0,0,-1,1861,1002,0,0
644,22,48.5161,2.53351,0.00625777,0.00136299,0.000784857,0.00638054,0.00124022,0.155165,0.00390647,0.0404385,1868,1002,48.5162,-2.53352
651,22,48.6216,2.57019,0.00362156,0.00130574,0.000733377,0.00383427,0.00109303,0.282295,0.00228087,0.0424785,1875,1002,48.6216,-2.5702
658,22,48.6196,2.69647,0.002,0.00116785,0.000656461,0.00236114,0.000806713,0.502942,0.0013858,0.0432256,1882,1002,48.6196,-2.69646
665,22,48.4597,2.71204,0.000967061,0.00111454,0.000798384,0.00184258,0.000239019,0.831448,0.00115698,0.0413154,1889,1002,48.4597,-2.71203
672,22,48.4446,2.64099,0.000311294,0.0012082,0.0011903,0.00203172,-0.00051223,0.965553,0.00155363,0.0394611,1896,1002,48.4445,-2.64097
679,22,48.4612,2.71875,0.000101282,0.00132041,0.00191832,0.00272368,-0.00130199,0.939233,0.00237204,0.0384565,1903,1002,48.4612,-2.71872
686,22,48.447,2.75122,0.000195146,0.00120503,0.00274317,0.00348935,-0.00208917,0.876415,0.0032544,0.0380091,1910,1002,48.447,-2.7512
693,22,48.3805,2.86542,0.000399215,0.0010033,0.00341345,0.00412804,-0.00272553,0.829526,0.00398443,0.0370286,1917,1002,48.3805,-2.86543
700,22,48.4843,2.77411,0.000467899,0.000945359,0.00381556,0.00452965,-0.00311639,0.816641,0.00443951,0.0336211,1924,1002,48.4843,-2.77408
707,22,48.429,2.74408,0.000194595,0.00105498,0.00407058,0.00471803,-0.00346846,0.838044,0.00474479,0.0324073,1931,1002,48.4289,-2.7441
714,22,48.4633,2.86926,-0.000229604,0.00142951,0.00417145,0.00485309,-0.00365318,0.88355,0.00492736,0.0417635,1938,1002,48.4632,-2.86929
721,22,48.2532,4.17255,0,0,0,0,0,0,0,-1,1945,1002,48.2531,-4.17254
728,22,48.1436,5.08502,-0.00148886,0.00289744,0.00394702,0.00521969,-0.00381112,1.03898,0.00523504,0.0453879,1952,1002,48.1435,-5.08501
735,22,48.1948,5.67139,-0.00201841,0.00391124,0.00378293,0.00575274,-0.00385991,1.11777,0.00558561,0.0176163,1959,1002,48.1949,-5.6714
742,22,48.1991,5.7771,-0.00250053,0.00490501,0.00352831,0.00631687,-0.00391239,1.19016,0.00596001,0.0165621,1966,1002,48.1992,-5.77713
749,22,48.149,5.9046,-0.00278808,0.00627602,0.00371636,0.00760492,-0.00411699,1.22738,0.00686679,0.0128022,1973,1002,48.149,-5.9046
756,22,48.1442,6.00574,-0.00280214,0.00862134,0.0043504,0.0100894,-0.00427023,1.24534,0.00851444,0.0181275,1980,1002,48.1442,-6.00576
763,22,48.0896,6.15155,-0.00199561,0.0110934,0.00541015,0.0130401,-0.0039423,1.2254,0.0102631,0.0200477,1987,1002,48.0896,-6.15155
770,22,47.9601,6.24487,0.000302818,0.0141605,0.00778443,0.0176531,-0.00318977,1.14906,0.0129635,0.017713,1994,1002,47.96,-6.24485
777,22,47.7161,6.25098,0.00437659,0.0175175,0.0118843,0.0245267,-0.00263263,1.03792,0.0172956,0.036344,2001,1002,47.7161,-6.25098
784,22,47.4824,6.30817,0,0,0,0,0,0,0,-1,2008,1002,47.4823,-6.30818
791,22,45.9712,8.2243,0,0,0,0,0,0,0,-1,2015,1002,45.9712,-8.22433
798,22,46.4426,8.47577,0,0,0,0,0,0,0,-1,2022,1002,46.4426,-8.47578
805,22,46.9138,8.72723,0,0,0,0,0,0,0,-1,2029,1002,46.9139,-8.72724
812,22,46.6714,4.56311,0,0,0,0,0,0,0,-1,2036,1002,46.6713,-4.56312
-700,15,0,0,0,0,0,0,0,0,0,-1,524,1009,0,0
-693,15,-42.2133,0.852112,0,0,0,0,0,0,0,-1,531,1009,-42.2133,-0.852133
-686,15,-40.3776,0.407898,0,0,0,0,0,0,0,-1,538,1009,-40.3776,-0.40792
-679,15,-39.3694,1.27997,0,0,0,0,0,0,0,-1,545,1009,-39.3694,-1.27998
-672,15,-38.4824,2.04865,0,0,0,0,0,0,0,-1,552,1009,-38.4823,-2.04862
-665,15,-36.9406,2.30566,0,0,0,0,0,0,0,-1,559,1009,-36.9405,-2.30564
-658,15,-36.4268,2.56152,0,0,0,0,0,0,0,-1,566,1009,-36.4267,-2.56154
-651,15,-35.7866,2.08911,0,0,0,0,0,0,0,-1,573,1009,-35.7866,-2.08908
-644,15,-36.233,2.80481,0.0355719,0.0267526,0.00268278,0.0363239,0.0260007,0.273282,0.0216129,0.044811,580,1009,-36.2331,-2.80481
-637,15,-36.4841,3.20703,0.0195878,0.019306,0.00201677,0.0214686,0.0174252,0.750526,0.0131731,0.0267697,587,1009,-36.4841,-3.20704
-630,15,-36.5197,3.21533,0.00810847,0.01359,0.00104499,0.0137824,0.00791601,1.38866,0.00798656,0.0141578,594,1009,-36.5197,-3.21536
-623,15,-36.5757,3.18982,0.00208493,0.00898293,-0.00098103,0.00911974,0.00194812,-1.43224,0.00554571,0.0100885,601,1009,-36.5757,-3.18982
-616,15,-36.6116,3.14935,-0.000707337,0.00634965,-0.00290502,0.00739165,-0.00174934,-1.2264,0.00560266,0.0154078,608,1009,-36.6116,-3.14935
-609,15,-36.6376,3.13257,-0.00115714,0.00449658,-0.00468781,0.00714391,-0.00380447,-1.05672,0.00641831,0.0212422,615,1009,-36.6375,-3.13254
-602,15,-36.642,3.06451,-0.000505988,0.00340228,-0.00585113,0.00761697,-0.00472068,-0.946562,0.00718827,0.0226763,622,1009,-36.642,-3.06452
-595,15,-36.4207,2.41278,0,0,0,0,0,0,0,-1,629,1009,-36.4207,-2.41279
-588,15,-36.2866,1.80853,0,0,0,0,0,0,0,-1,636,1009,-36.2866,-1.80855
-581,15,-36.0577,0.986206,0.00177724,0.00119236,-0.00805814,0.00954824,-0.00657864,-0.76726,0.00936333,0.0370759,643,1009,-36.0577,-0.986214
-574,15,-36.0659,0.852905,0.00216564,0.00103371,-0.00789805,0.00951798,-0.00631863,-0.74963,0.00920525,0.0347796,650,1009,-36.0659,-0.85292
-567,15,-36.0764,0.771545,0.00224674,0.00105258,-0.00732535,0.0089993,-0.00569998,-0.744733,0.0085576,0.0356055,657,1009,-36.0764,-0.771534
-560,15,-36.037,0.960693,0.00235949,0.0012204,-0.00620705,0.00802307,-0.00444317,-0.739647,0.00729564,0.0409688,664,1009,-36.037,-0.960683
-553,15,-36.0959,1.06403,0.00264512,0.00143313,-0.00455768,0.00663691,-0.00255866,-0.719305,0.00548035,0.0416318,671,1009,-36.096,-1.06404
-546,15,-36.1395,0.92926,0.00343198,0.00154486,-0.00241706,0.00508313,-0.000106288,-0.599307,0.00342473,0.0412426,678,1009,-36.1395,-0.929284
-539,15,-36.0873,0.724487,0,0,0,0,0,0,0,-1,685,1009,-36.0873,-0.724513
-532,15,-36.1172,0.876892,0,0,0,0,0,0,0,-1,692,1009,-36.1172,-0.876917
-525,15,0,0,0,0,0,0,0,0,0,-1,699,1009,0,0
-518,15,0,0,0,0,0,0,0,0,0,-1,706,1009,0,0
-511,15,0,0,0,0,0,0,0,0,0,-1,713,1009,0,0
-504,15,0,0,0,0,0,0,0,0,0,-1,720,1009,0,0
-497,15,0,0,0,0,0,0,0,0,0,-1,727,1009,0,0
-490,15,0,0,0,0,0,0,0,0,0,-1,734,1009,0,0
-483,15,0,0,0,0,0,0,0,0,0,-1,741,1009,0,0
-476,15,0,0,0,0,0,0,0,0,0,-1,748,1009,0,0
-469,15,0,0,0,0,0,0,0,0,0,-1,755,1009,0,0
-462,15,0,0,0,0,0,0,0,0,0,-1,762,1009,0,0
-455,15,0,0,0,0,0,0,0,0,0,-1,769,1009,0,0
-448,15,0,0,0,0,0,0,0,0,0,-1,776,1009,0,0
-441,15,0,0,0,0,0,0,0,0,0,-1,783,1009,0,0
-434,15,0,0,0,0,0,0,0,0,0,-1,790,1009,0,0
-427,15,0,0,0,0,0,0,0,0,0,-1,797,1009,0,0
-420,15,0,0,0,0,0,0,0,0,0,-1,804,1009,0,0
-413,15,0,0,0,0,0,0,0,0,0,-1,811,1009,0,0
-406,15,0,0,0,0,0,0,0,0,0,-1,818,1009,0,0
-399,15,0,0,0,0,0,0,0,0,0,-1,825,1009,0,0
-392,15,0,0,0,0,0,0,0,0,0,-1,832,1009,0,0
-385,15,0,0,0,0,0,0,0,0,0,-1,839,1009,0,0
-378,15,0,0,0,0,0,0,0,0,0,-1,846,1009,0,0
-371,15,0,0,0,0,0,0,0,0,0,-1,853,1009,0,0
-364,15,0,0,0,0,0,0,0,0,0,-1,860,1009,0,0
-357,15,0,0,0,0,0,0,0,0,0,-1,867,1009,0,0
-350,15,0,0,0,0,0,0,0,0,0,-1,874,1009,0,0
-343,15,0,0,0,0,0,0,0,0,0,-1,881,1009,0,0
-336,15,0,0,0,0,0,0,0,0,0,-1,888,1009,0,0
-329,15,0,0,0,0,0,0,0,0,0,-1,895,1009,0,0
-322,15,0,0,0,0,0,0,0,0,0,-1,902,1009,0,0
-315,15,0,0,0,0,0,0,0,0,0,-1,909,1009,0,0
-308,15,0,0,0,0,0,0,0,0,0,-1,916,1009,0,0
-301,15,0,0,0,0,0,0,0,0,0,-1,923,1009,0,0
-294,15,0,0,0,0,0,0,0,0,0,-1,930,1009,0,0
-287,15,0,0,0,0,0,0,0,0,0,-1,937,1009,0,0
-280,15,0,0,0,0,0,0,0,0,0,-1,944,1009,0,0
-273,15,0,0,0,0,0,0,0,0,0,-1,951,1009,0,0
-266,15,0,0,0,0,0,0,0,0,0,-1,958,1009,0,0
-259,15,0,0,0,0,0,0,0,0,0,-1,965,1009,0,0
-252,15,0,0,0,0,0,0,0,0,0,-1,972,1009,0,0
-245,15,0,0,0,0,0,0,0,0,0,-1,979,1009,0,0
-238,15,0,0,0,0,0,0,0,0,0,-1,986,1009,0,0
-231,15,0,0,0,0,0,0,0,0,0,-1,993,1009,0,0
-224,15,0,0,0,0,0,0,0,0,0,-1,1000,1009,0,0
-217,15,0,0,0,0,0,0,0,0,0,-1,1007,1009,0,0
-210,15,0,0,0,0,0,0,0,0,0,-1,1014,1009,0,0
-203,15,0,0,0,0,0,0,0,0,0,-1,1021,1009,0,0
-196,15,0,0,0,0,0,0,0,0,0,-1,1028,1009,0,0
-189,15,0,0,0,0,0,0,0,0,0,-1,1035,1009,0,0
-182,15,0,0,0,0,0,0,0,0,0,-1,1042,1009,0,0
-175,15,0,0,0,0,0,0,0,0,0,-1,1049,1009,0,0
-168,15,0,0,0,0,0,0,0,0,0,-1,1056,1009,0,0
-161,15,0,0,0,0,0,0,0,0,0,-1,1063,1009,0,0
-154,15,0,0,0,0,0,0,0,0,0,-1,1070,1009,0,0
-147,15,0,0,0,0,0,0,0,0,0,-1,1077,1009,0,0
-140,15,0,0,0,0,0,0,0,0,0,-1,1084,1009,0,0
-133,15,0,0,0,0,0,0,0,0,0,-1,1091,1009,0,0
-126,15,0,0,0,0,0,0,0,0,0,-1,1098,1009,0,0
-119,15,0,0,0,0,0,0,0,0,0,-1,1105,1009,0,0
-112,15,0,0,0,0,0,0,0,0,0,-1,1112,1009,0,0
-105,15,0,0,0,0,0,0,0,0,0,-1,1119,1009,0,0
-98,15,0,0,0,0,0,0,0,0,0,-1,1126,1009,0,0
-91,15,0,0,0,0,0,0,0,0,0,-1,1133,1009,0,0
-84,15,0,0,0,0,0,0,0,0,0,-1,1140,1009,0,0
-77,15,0,0,0,0,0,0,0,0,0,-1,1147,1009,0,0
-70,15,0,0,0,0,0,0,0,0,0,-1,1154,1009,0,0
-63,15,0,0,0,0,0,0,0,0,0,-1,1161,1009,0,0
-56,15,0,0,0,0,0,0,0,0,0,-1,1168,1009,0,0
-49,15,0,0,0,0,0,0,0,0,0,-1,1175,1009,0,0
-42,15,0,0,0,0,0,0,0,0,0,-1,1182,1009,0,0
-35,15,0,0,0,0,0,0,0,0,0,-1,1189,1009,0,0
-28,15,0,0,0,0,0,0,0,0,0,-1,1196,1009,0,0
-21,15,0,0,0,0,0,0,0,0,0,-1,1203,1009,0,0
-14,15,0,0,0,0,0,0,0,0,0,-1,1210,1009,0,0
-7,15,0,0,0,0,0,0,0,0,0,-1,1217,1009,0,0
0,15,0,0,0,0,0,0,0,0,0,-1,1224,1009,0,0
7,15,0,0,0,0,0,0,0,0,0,-1,1231,1009,0,0
14,15,0,0,0,0,0,0,0,0,0,-1,1238,1009,0,0
21,15,0,0,0,0,0,0,0,0,0,-1,1245,1009,0,0
28,15,0,0,0,0,0,0,0,0,0,-1,1252,1009,0,0
35,15,0,0,0,0,0,0,0,0,0,-1,1259,1009,0,0
42,15,0,0,0,0,0,0,0,0,0,-1,1266,1009,0,0
49,15,0,0,0,0,0,0,0,0,0,-1,1273,1009,0,0
56,15,0,0,0,0,0,0,0,0,0,-1,1280,1009,0,0
63,15,0,0,0,0,0,0,0,0,0,-1,1287,1009,0,0
70,15,0,0,0,0,0,0,0,0,0,-1,1294,1009,0,0
77,15,0,0,0,0,0,0,0,0,0,-1,1301,1009,0,0
84,15,0,0,0,0,0,0,0,0,0,-1,1308,1009,0,0
91,15,0,0,0,0,0,0,0,0,0,-1,1315,1009,0,0
98,15,0,0,0,0,0,0,0,0,0,-1,1322,1009,0,0
105,15,0,0,0,0,0,0,0,0,0,-1,1329,1009,0,0
112,15,0,0,0,0,0,0,0,0,0,-1,1336,1009,0,0
119,15,0,0,0,0,0,0,0,0,0,-1,1343,1009,0,0
126,15,0,0,0,0,0,0,0,0,0,-1,1350,1009,0,0
133,15,0,0,0,0,0,0,0,0,0,-1,1357,1009,0,0
140,15,0,0,0,0,0,0,0,0,0,-1,1364,1009,0,0
147,15,0,0,0,0,0,0,0,0,0,-1,1371,1009,0,0
154,15,0,0,0,0,0,0,0,0,0,-1,1378,1009,0,0
161,15,0,0,0,0,0,0,0,0,0,-1,1385,1009,0,0
168,15,0,0,0,0,0,0,0,0,0,-1,1392,1009,0,0
175,15,0,0,0,0,0,0,0,0,0,-1,1399,1009,0,0
182,15,0,0,0,0,0,0,0,0,0,-1,1406,1009,0,0
189,15,0,0,0,0,0,0,0,0,0,-1,1413,1009,0,0
196,15,0,0,0,0,0,0,0,0,0,-1,1420,1009,0,0
203,15,0,0,0,0,0,0,0,0,0,-1,1427,1009,0,0
210,15,0,0,0,0,0,0,0,0,0,-1,1434,1009,0,0
217,15,0,0,0,0,0,0,0,0,0,-1,1441,1009,0,0
224,15,0,0,0,0,0,0,0,0,0,-1,1448,1009,0,0
231,15,0,0,0,0,0,0,0,0,0,-1,1455,1009,0,0
238,15,0,0,0,0,0,0,0,0,0,-1,1462,1009,0,0
245,15,0,0,0,0,0,0,0,0,0,-1,1469,1009,0,0
252,15,0,0,0,0,0,0,0,0,0,-1,1476,1009,0,0
259,15,0,0,0,0,0,0,0,0,0,-1,1483,1009,0,0
266,15,0,0,0,0,0,0,0,0,0,-1,1490,1009,0,0
273,15,0,0,0,0,0,0,0,0,0,-1,1497,1009,0,0
280,15,0,0,0,0,0,0,0,0,0,-1,1504,1009,0,0
287,15,0,0,0,0,0,0,0,0,0,-1,1511,1009,0,0
294,15,0,0,0,0,0,0,0,0,0,-1,1518,1009,0,0
301,15,0,0,0,0,0,0,0,0,0,-1,1525,1009,0,0
308,15,0,0,0,0,0,0,0,0,0,-1,1532,1009,0,0
315,15,0,0,0,0,0,0,0,0,0,-1,1539,1009,0,0
322,15,0,0,0,0,0,0,0,0,0,-1,1546,1009,0,0
329,15,0,0,0,0,0,0,0,0,0,-1,1553,1009,0,0
336,15,0,0,0,0,0,0,0,0,0,-1,1560,1009,0,0
343,15,0,0,0,0,0,0,0,0,0,-1,1567,1009,0,0
350,15,0,0,0,0,0,0,0,0,0,-1,1574,1009,0,0
357,15,0,0,0,0,0,0,0,0,0,-1,1581,1009,0,0
364,15,0,0,0,0,0,0,0,0,0,-1,1588,1009,0,0
371,15,0,0,0,0,0,0,0,0,0,-1,1595,1009,0,0
378,15,0,0,0,0,0,0,0,0,0,-1,1602,1009,0,0
385,15,0,0,0,0,0,0,0,0,0,-1,1609,1009,0,0
392,15,0,0,0,0,0,0,0,0,0,-1,1616,1009,0,0
399,15,0,0,0,0,0,0,0,0,0,-1,1623,1009,0,0
406,15,0,0,0,0,0,0,0,0,0,-1,1630,1009,0,0
413,15,0,0,0,0,0,0,0,0,0,-1,1637,1009,0,0
420,15,0,0,0,0,0,0,0,0,0,-1,1644,1009,0,0
427,15,0,0,0,0,0,0,0,0,0,-1,1651,1009,0,0
434,15,0,0,0,0,0,0,0,0,0,-1,1658,1009,0,0
441,15,0,0,0,0,0,0,0,0,0,-1,1665,1009,0,0
448,15,0,0,0,0,0,0,0,0,0,-1,1672,1009,0,0
455,15,0,0,0,0,0,0,0,0,0,-1,1679,1009,0,0
462,15,0,0,0,0,0,0,0,0,0,-1,1686,1009,0,0
469,15,0,0,0,0,0,0,0,0,0,-1,1693,1009,0,0
476,15,0,0,0,0,0,0,0,0,0,-1,1700,1009,0,0
483,15,0,0,0,0,0,0,0,0,0,-1,1707,1009,0,0
490,15,0,0,0,0,0,0,0,0,0,-1,1714,1009,0,0
497,15,0,0,0,0,0,0,0,0,0,-1,1721,1009,0,0
504,15,0,0,0,0,0,0,0,0,0,-1,1728,1009,0,0
511,15,0,0,0,0,0,0,0,0,0,-1,1735,1009,0,0
518,15,0,0,0,0,0,0,0,0,0,-1,1742,1009,0,0
525,15,0,0,0,0,0,0,0,0,0,-1,1749,1009,0,0
532,15,0,0,0,0,0,0,0,0,0,-1,1756,1009,0,0
539,15,0,0,0,0,0,0,0,0,0,-1,1763,1009,0,0
546,15,0,0,0,0,0,0,0,0,0,-1,1770,1009,0,0
553,15,0,0,0,0,0,0,0,0,0,-1,1777,1009,0,0
560,15,0,0,0,0,0,0,0,0,0,-1,1784,1009,0,0
567,15,0,0,0,0,0,0,0,0,0,-1,1791,1009,0,0
574,15,0,0,0,0,0,0,0,0,0,-1,1798,1009,0,0
581,15,0,0,0,0,0,0,0,0,0,-1,1805,1009,0,0
588,15,0,0,0,0,0,0,0,0,0,-1,1812,1009,0,0
595,15,0,0,0,0,0,0,0,0,0,-1,1819,1009,0,0
602,15,0,0,0,0,0,0,0,0,0,-1,1826,1009,0,0
609,15,0,0,0,0,0,0,0,0,0,-1,1833,1009,0,0
616,15,0,0,0,0,0,0,0,0,0,-1,1840,1009,0,0
623,15,0,0,0,0,0,0,0,0,0,-1,1847,1009,0,0
630,15,0,0,0,0,0,0,0,0,0,-1,1854,1009,0,0
637,15,0,0,0,0,0,0,0,0,0,-1,1861,1009,0,0
644,15,48.4314,2.65222,0.00833997,0.00135183,0.0014193,0.00861723,0.00107456,0.192921,0.00542224,0.0389123,1868,1009,48.4314,-2.65225
651,15,48.5592,2.49408,0.00492461,0.00145532,0.00118667,0.00529168,0.00108825,0.299988,0.00322679,0.0384041,1875,1009,48.5592,-2.49408
658,15,48.5018,2.53748,0.00278368,0.00140667,0.000941482,0.00326155,0.0009288,0.469686,0.00194033,0.0392417,1882,1009,48.5018,-2.53749
665,15,48.4453,2.57355,0.00139803,0.00137243,0.000945575,0.00233089,0.00043957,0.77863,0.0014301,0.0403809,1889,1009,48.4454,-2.57354
672,15,48.53,2.633,0.000504094,0.00146773,0.001236,0.0023125,-0.000340676,0.971248,0.00166687,0.0395117,1896,1009,48.53,-2.63303
679,15,48.623,2.69604,0.00013,0.00156766,0.00188131,0.00286279,-0.00116513,0.967884,0.00239338,0.0380839,1903,1009,48.6231,-2.69602
686,15,48.5212,2.59259,0.000122523,0.00141453,0.00268902,0.00353405,-0.001997,0.903283,0.00323419,0.0428385,1910,1009,48.5212,-2.5926
693,15,48.4028,2.6709,0.000301065,0.00114727,0.00339308,0.00414353,-0.00269519,0.847426,0.00397774,0.0422056,1917,1009,48.4028,-2.67088
700,15,48.4822,2.70563,0.000391755,0.00102037,0.00385176,0.00457062,-0.0031585,0.826108,0.00448717,0.0324828,1924,1009,48.4821,-2.7056
707,15,48.4648,2.72583,0.000132623,0.00105443,0.00415049,0.00476953,-0.00358248,0.840696,0.00483825,0.0309264,1931,1009,48.4648,-2.72586
714,15,48.4871,2.76318,-0.000266035,0.00138636,0.00429933,0.00493816,-0.00381784,0.880325,0.00506905,0.0378353,1938,1009,48.4871,-2.76318
721,15,48.3093,3.73492,0,0,0,0,0,0,0,-1,1945,1009,48.3093,-3.73495
728,15,48.1055,5.16907,-0.0015347,0.00277354,0.00414773,0.00529316,-0.00405432,1.0249,0.00541255,0.0496061,1952,1009,48.1055,-5.16906
735,15,48.2833,5.70038,-0.0020745,0.00379171,0.00401369,0.0058298,-0.00411259,1.10094,0.00576871,0.0197323,1959,1009,48.2833,-5.70035
742,15,48.2849,5.86243,-0.00262045,0.00481849,0.00378057,0.00640252,-0.00420448,1.17402,0.00616763,0.033286,1966,1009,48.2849,-5.86242
749,15,48.2659,5.93658,-0.00303188,0.00620834,0.00394804,0.00766543,-0.00448897,1.21724,0.00709678,0.0207506,1973,1009,48.2659,-5.93656
756,15,48.2649,5.91638,-0.00325507,0.00847026,0.00449018,0.00999221,-0.00477702,1.244,0.00870242,0.0169902,1980,1009,48.2649,-5.91638
763,15,48.2048,6.03424,-0.00272232,0.010862,0.00544537,0.0127754,-0.00463564,1.2329,0.010412,0.0144087,1987,1009,48.2048,-6.03425
770,15,48.0812,6.07941,-0.000874245,0.0138135,0.00756606,0.0170137,-0.00407445,1.17065,0.0129167,0.017927,1994,1009,48.0812,-6.07939
777,15,47.782,6.15607,0.00267413,0.0169929,0.0113873,0.0232845,-0.00361744,1.06603,0.0168587,0.039483,2001,1009,47.782,-6.15605
784,15,47.541,6.25116,0,0,0,0,0,0,0,-1,2008,1009,47.541,-6.25119
791,15,45.6431,8.09332,0,0,0,0,0,0,0,-1,2015,1009,45.643,-8.0933
798,15,45.9031,8.29016,0.0261285,0.0247126,0.035378,0.0608056,-0.00996453,0.775394,0.0442343,0.0487411,2022,1009,45.903,-8.29015
805,15,46.0571,8.29614,0,0,0,0,0,0,0,-1,2029,1009,46.0572,-8.29613
812,15,46.3435,8.48181,0,0,0,0,0,0,0,-1,2036,1009,46.3435,-8.48182
-700,8,0,0,0,0,0,0,0,0,0,-1,524,1016,0,0
-693,8,-41.7651,0.431763,0,0,0,0,0,0,0,-1,531,1016,-41.7651,-0.431763
-686,8,-40.4991,-0.34552,0,0,0,0,0,0,0,-1,538,1016,-40.4991,0.345522
-679,8,-39.5363,0.56604,0,0,0,0,0,0,0,-1,545,1016,-39.5363,-0.56605
-672,8,-36.8619,2.35748,0,0,0,0,0,0,0,-1,552,1016,-36.8619,-2.35749
-665,8,-36.7557,2.40979,0,0,0,0,0,0,0,-1,559,1016,-36.7557,-2.40976
-658,8,-36.565,2.55225,0,0,0,0,0,0,0,-1,566,1016,-36.565,-2.55227
-651,8,-36.394,2.70624,0,0,0,0,0,0,0,-1,573,1016,-36.394,-2.70626
-644,8,-36.3252,2.85272,0,0,0,0,0,0,0,-1,580,1016,-36.3252,-2.85271
-637,8,-36.3631,3.01813,0.0168774,0.0174205,0.000542494,0.0177556,0.0165423,1.01744,0.0114541,0.0373691,587,1016,-36.3631,-3.01814
-630,8,-36.5343,3.15143,0.00644154,0.0123738,-0.000126956,0.0123765,0.00643882,-1.54941,0.00714752,0.0212556,594,1016,-36.5343,-3.1514
-623,8,-36.5403,3.18311,0.00140454,0.00828138,-0.00185691,0.00875075,0.000935161,-1.32321,0.00554845,0.0153973,601,1016,-36.5403,-3.18308
-616,8,-36.5568,3.16174,-0.000748051,0.0059675,-0.00347112,0.00743915,-0.0022197,-1.1698,0.00584164,0.0154952,608,1016,-36.5568,-3.16172
-609,8,-36.5712,3.1037,-0.000923791,0.00414851,-0.0050017,0.0072203,-0.00399558,-1.02004,0.0065641,0.0177817,615,1016,-36.5712,-3.10368
-602,8,-36.5584,3.10693,-0.000213714,0.00293387,-0.00595995,0.00752432,-0.00480416,-0.914482,0.00717537,0.0237507,622,1016,-36.5584,-3.10694
-595,8,-36.6241,3.04291,0,0,0,0,0,0,0,-1,629,1016,-36.6241,-3.04288
-588,8,-35.9733,0.917908,0,0,0,0,0,0,0,-1,636,1016,-35.9733,-0.91792
-581,8,-36.024,0.880127,0.00224493,0.000730912,-0.00775032,0.00927512,-0.00629928,-0.736715,0.00904643,0.0300971,643,1016,-36.024,-0.880141
-574,8,-35.987,0.675232,0.00266732,0.000561661,-0.00752521,0.00921299,-0.00598402,-0.715896,0.00883977,0.03638,650,1016,-35.987,-0.675262
-567,8,-36.0267,0.594849,0.00280102,0.000582937,-0.00692962,0.00870979,-0.00532583,-0.706049,0.0081816,0.0402366,657,1016,-36.0267,-0.594824
-560,8,-36.1113,0.983398,0.00294494,0.000763272,-0.00583938,0.0077945,-0.00408629,-0.693059,0.00696985,0.0427076,664,1016,-36.1113,-0.983425
-553,8,-35.9471,1.21881,0.00321714,0.000988767,-0.0042703,0.00651622,-0.00231031,-0.657786,0.00528533,0.0421073,671,1016,-35.9472,-1.21884
-546,8,-35.8906,1.08557,0.00393341,0.00108855,-0.00226701,0.00518729,-0.000165331,-0.50522,0.0035146,0.0414384,678,1016,-35.8905,-1.08556
-539,8,-36.1888,1.16754,0.00526414,0.00119495,-0.000435953,0.00531032,0.00114877,-0.105539,0.0032262,0.0408797,685,1016,-36.1888,-1.16752
-532,8,-36.0021,0.894958,0.00816928,0.00194251,-0.000305447,0.00818423,0.00192757,-0.0488974,0.0049406,0.0419894,692,1016,-36.0021,-0.89496
-525,8,0,0,0,0,0,0,0,0,0,-1,699,1016,0,0
-518,8,0,0,0,0,0,0,0,0,0,-1,706,1016,0,0
-511,8,0,0,0,0,0,0,0,0,0,-1,713,1016,0,0
-504,8,0,0,0,0,0,0,0,0,0,-1,720,1016,0,0
-497,8,0,0,0,0,0,0,0,0,0,-1,727,1016,0,0
-490,8,0,0,0,0,0,0,0,0,0,-1,734,1016,0,0
-483,8,0,0,0,0,0,0,0,0,0,-1,741,1016,0,0
-476,8,0,0,0,0,0,0,0,0,0,-1,748,1016,0,0
-469,8,0,0,0,0,0,0,0,0,0,-1,755,1016,0,0
-462,8,0,0,0,0,0,0,0,0,0,-1,762,1016,0,0
-455,8,0,0,0,0,0,0,0,0,0,-1,769,1016,0,0
-448,8,0,0,0,0,0,0,0,0,0,-1,776,1016,0,0
-441,8,0,0,0,0,0,0,0,0,0,-1,783,1016,0,0
-434,8,0,0,0,0,0,0,0,0,0,-1,790,1016,0,0
-427,8,0,0,0,0,0,0,0,0,0,-1,797,1016,0,0
-420,8,0,0,0,0,0,0,0,0,0,-1,804,1016,0,0
-413,8,0,0,0,0,0,0,0,0,0,-1,811,1016,0,0
-406,8,0,0,0,0,0,0,0,0,0,-1,818,1016,0,0
-399,8,0,0,0,0,0,0,0,0,0,-1,825,1016,0,0
-392,8,0,0,0,0,0,0,0,0,0,-1,832,1016,0,0
-385,8,0,0,0,0,0,0,0,0,0,-1,839,1016,0,0
-378,8,0,0,0,0,0,0,0,0,0,-1,846,1016,0,0
-371,8,0,0,0,0,0,0,0,0,0,-1,853,1016,0,0
-364,8,0,0,0,0,0,0,0,0,0,-1,860,1016,0,0
-357,8,0,0,0,0,0,0,0,0,0,-1,867,1016,0,0
-350,8,0,0,0,0,0,0,0,0,0,-1,874,1016,0,0
-343,8,0,0,0,0,0,0,0,0,0,-1,881,1016,0,0
-336,8,0,0,0,0,0,0,0,0,0,-1,888,1016,0,0
-329,8,0,0,0,0,0,0,0,0,0,-1,895,1016,0,0
-322,8,0,0,0,0,0,0,0,0,0,-1,902,1016,0,0
-315,8,0,0,0,0,0,0,0,0,0,-1,909,1016,0,0
-308,8,0,0,0,0,0,0,0,0,0,-1,916,1016,0,0
-301,8,0,0,0,0,0,0,0,0,0,-1,923,1016,0,0
-294,8,0,0,0,0,0,0,0,0,0,-1,930,1016,0,0
-287,8,0,0,0,0,0,0,0,0,0,-1,937,1016,0,0
-280,8,0,0,0,0,0,0,0,0,0,-1,944,1016,0,0
-273,8,0,0,0,0,0,0,0,0,0,-1,951,1016,0,0
-266,8,0,0,0,0,0,0,0,0,0,-1,958,1016,0,0
-259,8,0,0,0,0,0,0,0,0,0,-1,965,1016,0,0
-252,8,0,0,0,0,0,0,0,0,0,-1,972,1016,0,0
-245,8,0,0,0,0,0,0,0,0,0,-1,979,1016,0,0
-238,8,0,0,0,0,0,0,0,0,0,-1,986,1016,0,0
-231,8,0,0,0,0,0,0,0,0,0,-1,993,1016,0,0
-224,8,0,0,0,0,0,0,0,0,0,-1,1000,1016,0,0
-217,8,0,0,0,0,0,0,0,0,0,-1,1007,1016,0,0
-210,8,0,0,0,0,0,0,0,0,0,-1,1014,1016,0,0
-203,8,0,0,0,0,0,0,0,0,0,-1,1021,1016,0,0
-196,8,0,0,0,0,0,0,0,0,0,-1,1028,1016,0,0
-189,8,0,0,0,0,0,0,0,0,0,-1,1035,1016,0,0
-182,8,0,0,0,0,0,0,0,0,0,-1,1042,1016,0,0
-175,8,0,0,0,0,0,0,0,0,0,-1,1049,1016,0,0
-168,8,0,0,0,0,0,0,0,0,0,-1,1056,1016,0,0
-161,8,0,0,0,0,0,0,0,0,0,-1,1063,1016,0,0
-154,8,0,0,0,0,0,0,0,0,0,-1,1070,1016,0,0
-147,8,0,0,0,0,0,0,0,0,0,-1,1077,1016,0,0
-140,8,0,0,0,0,0,0,0,0,0,-1,1084,1016,0,0
-133,8,0,0,0,0,0,0,0,0,0,-1,1091,1016,0,0
-126,8,0,0,0,0,0,0,0,0,0,-1,1098,1016,0,0
-119,8,0,0,0,0,0,0,0,0,0,-1,1105,1016,0,0
-112,8,0,0,0,0,0,0,0,0,0,-1,1112,1016,0,0
-105,8,0,0,0,0,0,0,0,0,0,-1,1119,1016,0,0
-98,8,0,0,0,0,0,0,0,0,0,-1,1126,1016,0,0
-91,8,0,0,0,0,0,0,0,0,0,-1,1133,1016,0,0
-84,8,0,0,0,0,0,0,0,0,0,-1,1140,1016,0,0
-77,8,0,0,0,0,0,0,0,0,0,-1,1147,1016,0,0
-70,8,0,0,0,0,0,0,0,0,0,-1,1154,1016,0,0
-63,8,0,0,0,0,0,0,0,0,0,-1,1161,1016,0,0
-56,8,0,0,0,0,0,0,0,0,0,-1,1168,1016,0,0
-49,8,0,0,0,0,0,0,0,0,0,-1,1175,1016,0,0
-42,8,0,0,0,0,0,0,0,0,0,-1,1182,1016,0,0
-35,8,0,0,0,0,0,0,0,0,0,-1,1189,1016,0,0
-28,8,0,0,0,0,0,0,0,0,0,-1,1196,1016,0,0
-21,8,0,0,0,0,0,0,0,0,0,-1,1203,1016,0,0
-14,8,0,0,0,0,0,0,0,0,0,-1,1210,1016,0,0
-7,8,0,0,0,0,0,0,0,0,0,-1,1217,1016,0,0
0,8,0,0,0,0,0,0,0,0,0,-1,1224,1016,0,0
7,8,0,0,0,0,0,0,0,0,0,-1,1231,1016,0,0
14,8,0,0,0,0,0,0,0,0,0,-1,1238,1016,0,0
21,8,0,0,0,0,0,0,0,0,0,-1,1245,1016,0,0
28,8,0,0,0,0,0,0,0,0,0,-1,1252,1016,0,0
35,8,0,0,0,0,0,0,0,0,0,-1,1259,1016,0,0
42,8,0,0,0,0,0,0,0,0,0,-1,1266,1016,0,0
49,8,0,0,0,0,0,0,0,0,0,-1,1273,1016,0,0
56,8,0,0,0,0,0,0,0,0,0,-1,1280,1016,0,0
63,8,0,0,0,0,0,0,0,0,0,-1,1287,1016,0,0
70,8,0,0,0,0,0,0,0,0,0,-1,1294,1016,0,0
77,8,0,0,0,0,0,0,0,0,0,-1,1301,1016,0,0
84,8,0,0,0,0,0,0,0,0,0,-1,1308,1016,0,0
91,8,0,0,0,0,0,0,0,0,0,-1,1315,1016,0,0
98,8,0,0,0,0,0,0,0,0,0,-1,1322,1016,0,0
105,8,0,0,0,0,0,0,0,0,0,-1,1329,1016,0,0
112,8,0,0,0,0,0,0,0,0,0,-1,1336,1016,0,0
119,8,0,0,0,0,0,0,0,0,0,-1,1343,1016,0,0
126,8,0,0,0,0,0,0,0,0,0,-1,1350,1016,0,0
133,8,0,0,0,0,0,0,0,0,0,-1,1357,1016,0,0
140,8,0,0,0,0,0,0,0,0,0,-1,1364,1016,0,0
147,8,0,0,0,0,0,0,0,0,0,-1,1371,1016,0,0
154,8,0,0,0,0,0,0,0,0,0,-1,1378,1016,0,0
161,8,0,0,0,0,0,0,0,0,0,-1,1385,1016,0,0
168,8,0,0,0,0,0,0,0,0,0,-1,1392,1016,0,0
175,8,0,0,0,0,0,0,0,0,0,-1,1399,1016,0,0
182,8,0,0,0,0,0,0,0,0,0,-1,1406,1016,0,0
189,8,0,0,0,0,0,0,0,0,0,-1,1413,1016,0,0
196,8,0,0,0,0,0,0,0,0,0,-1,1420,1016,0,0
203,8,0,0,0,0,0,0,0,0,0,-1,1427,1016,0,0
210,8,0,0,0,0,0,0,0,0,0,-1,1434,1016,0,0
217,8,0,0,0,0,0,0,0,0,0,-1,1441,1016,0,0
224,8,0,0,0,0,0,0,0,0,0,-1,1448,1016,0,0
231,8,0,0,0,0,0,0,0,0,0,-1,1455,1016,0,0
238,8,0,0,0,0,0,0,0,0,0,-1,1462,1016,0,0
245,8,0,0,0,0,0,0,0,0,0,-1,1469,1016,0,0
252,8,0,0,0,0,0,0,0,0,0,-1,1476,1016,0,0
259,8,0,0,0,0,0,0,0,0,0,-1,1483,1016,0,0
266,8,0,0,0,0,0,0,0,0,0,-1,1490,1016,0,0
273,8,0,0,0,0,0,0,0,0,0,-1,1497,1016,0,0
280,8,0,0,0,0,0,0,0,0,0,-1,1504,1016,0,0
287,8,0,0,0,0,0,0,0,0,0,-1,1511,1016,0,0
294,8,0,0,0,0,0,0,0,0,0,-1,1518,1016,0,0
301,8,0,0,0,0,0,0,0,0,0,-1,1525,1016,0,0
308,8,0,0,0,0,0,0,0,0,0,-1,1532,1016,0,0
315,8,0,0,0,0,0,0,0,0,0,-1,1539,1016,0,0
322,8,0,0,0,0,0,0,0,0,0,-1,1546,1016,0,0
329,8,0,0,0,0,0,0,0,0,0,-1,1553,1016,0,0
336,8,0,0,0,0,0,0,0,0,0,-1,1560,1016,0,0
343,8,0,0,0,0,0,0,0,0,0,-1,1567,1016,0,0
350,8,0,0,0,0,0,0,0,0,0,-1,1574,1016,0,0
357,8,0,0,0,0,0,0,0,0,0,-1,1581,1016,0,0
364,8,0,0,0,0,0,0,0,0,0,-1,1588,1016,0,0
371,8,0,0,0,0,0,0,0,0,0,-1,1595,1016,0,0
378,8,0,0,0,0,0,0,0,0,0,-1,1602,1016,0,0
385,8,0,0,0,0,0,0,0,0,0,-1,1609,1016,0,0
392,8,0,0,0,0,0,0,0,0,0,-1,1616,1016,0,0
399,8,0,0,0,0,0,0,0,0,0,-1,1623,1016,0,0
406,8,0,0,0,0,0,0,0,0,0,-1,1630,1016,0,0
413,8,0,0,0,0,0,0,0,0,0,-1,1637,1016,0,0
420,8,0,0,0,0,0,0,0,0,0,-1,1644,1016,0,0
427,8,0,0,0,0,0,0,0,0,0,-1,1651,1016,0,0
434,8,0,0,0,0,0,0,0,0,0,-1,1658,1016,0,0
441,8,0,0,0,0,0,0,0,0,0,-1,1665,1016,0,0
448,8,0,0,0,0,0,0,0,0,0,-1,1672,1016,0,0
455,8,0,0,0,0,0,0,0,0,0,-1,1679,1016,0,0
462,8,0,0,0,0,0,0,0,0,0,-1,1686,1016,0,0
469,8,0,0,0,0,0,0,0,0,0,-1,1693,1016,0,0
476,8,0,0,0,0,0,0,0,0,0,-1,1700,1016,0,0
483,8,0,0,0,0,0,0,0,0,0,-1,1707,1016,0,0
490,8,0,0,0,0,0,0,0,0,0,-1,1714,1016,0,0
497,8,0,0,0,0,0,0,0,0,0,-1,1721,1016,0,0
504,8,0,0,0,0,0,0,0,0,0,-1,1728,1016,0,0
511,8,0,0,0,0,0,0,0,0,0,-1,1735,1016,0,0
518,8,0,0,0,0,0,0,0,0,0,-1,1742,1016,0,0
525,8,0,0,0,0,0,0,0,0,0,-1,1749,1016,0,0
532,8,0,0,0,0,0,0,0,0,0,-1,1756,1016,0,0
539,8,0,0,0,0,0,0,0,0,0,-1,1763,1016,0,0
546,8,0,0,0,0,0,0,0,0,0,-1,1770,1016,0,0
553,8,0,0,0,0,0,0,0,0,0,-1,1777,1016,0,0
560,8,0,0,0,0,0,0,0,0,0,-1,1784,1016,0,0
567,8,0,0,0,0,0,0,0,0,0,-1,1791,1016,0,0
574,8,0,0,0,0,0,0,0,0,0,-1,1798,1016,0,0
581,8,0,0,0,0,0,0,0,0,0,-1,1805,1016,0,0
588,8,0,0,0,0,0,0,0,0,0,-1,1812,1016,0,0
595,8,0,0,0,0,0,0,0,0,0,-1,1819,1016,0,0
602,8,0,0,0,0,0,0,0,0,0,-1,1826,1016,0,0
609,8,0,0,0,0,0,0,0,0,0,-1,1833,1016,0,0
616,8,0,0,0,0,0,0,0,0,0,-1,1840,1016,0,0
623,8,0,0,0,0,0,0,0,0,0,-1,1847,1016,0,0
630,8,0,0,0,0,0,0,0,0,0,-1,1854,1016,0,0
637,8,0,0,0,0,0,0,0,0,0,-1,1861,1016,0,0
644,8,48.2672,2.69983,0.00956957,0.00130915,0.00210212,0.0100737,0.000804969,0.235396,0.00646424,0.0408478,1868,1016,48.2672,-2.69986
651,8,48.3939,2.50549,0.00574388,0.00153304,0.00170967,0.00635061,0.000926308,0.341017,0.00396124,0.0366807,1875,1016,48.3939,-2.50548
658,8,48.4655,2.51971,0.00329576,0.00160765,0.00130036,0.00400198,0.000901425,0.49753,0.00242404,0.0373998,1882,1016,48.4655,-2.51969
665,8,48.447,3.26831,0,0,0,0,0,0,0,-1,1889,1016,48.447,-3.26829
672,8,48.5479,3.00037,0,0,0,0,0,0,0,-1,1896,1016,48.5479,-3.00035
679,8,48.575,2.64722,0.000103878,0.00189561,0.00183697,0.00304353,-0.00104404,1.01227,0.00245227,0.0385351,1903,1016,48.575,-2.64724
686,8,48.4591,2.56061,-3.31278e-05,0.00172703,0.00256678,0.00356042,-0.00186651,0.950554,0.00318371,0.0414213,1910,1016,48.4591,-2.5606
693,8,48.4404,2.66284,7.45384e-05,0.0014022,0.00325579,0.00406114,-0.00258441,0.885966,0.00386826,0.0407062,1917,1016,48.4404,-2.66282
700,8,48.4917,2.67352,0.000153953,0.00120324,0.00373839,0.00445362,-0.00309643,0.855112,0.00438244,0.0305383,1924,1016,48.4917,-2.67353
707,8,48.4788,2.65961,-0.000109076,0.00115389,0.00404829,0.00461965,-0.00357483,0.862769,0.00474389,0.0250694,1931,1016,48.4788,-2.65958
714,8,48.5107,2.66705,-0.000502591,0.00142571,0.00421932,0.00478964,-0.00386652,0.897724,0.0050071,0.0335932,1938,1016,48.5107,-2.66704
721,8,48.5212,3.85651,0,0,0,0,0,0,0,-1,1945,1016,48.5212,-3.85651
728,8,48.1721,5.19989,-0.00178286,0.00269872,0.00414317,0.00516823,-0.00425238,1.03329,0.00544755,0.0443871,1952,1016,48.1721,-5.1999
735,8,48.1857,5.70679,-0.00232689,0.00368905,0.00405078,0.00572654,-0.00436439,1.10476,0.00584367,0.0448636,1959,1016,48.1856,-5.70679
742,8,48.249,5.94061,0,0,0,0,0,0,0,-1,1966,1016,48.2491,-5.94062
749,8,48.4011,5.86035,-0.00338679,0.00613696,0.00405925,0.00763232,-0.00488215,1.21784,0.00728316,0.043582,1973,1016,48.4011,-5.86033
756,8,48.2933,5.82489,-0.00374068,0.00832399,0.00454506,0.00984458,-0.00526127,1.24794,0.00885417,0.0264418,1980,1016,48.2933,-5.8249
763,8,48.2915,5.92328,-0.00340228,0.0106758,0.00544235,0.0125343,-0.00526084,1.24171,0.0105562,0.0149848,1987,1016,48.2915,-5.9233
770,8,48.194,5.90118,-0.00192114,0.0135719,0.00736834,0.0165166,-0.00486578,1.19061,0.0129416,0.0197234,1994,1016,48.194,-5.90121
777,8,47.8743,5.95557,0.00116494,0.0166361,0.0109485,0.0223061,-0.00450501,1.09295,0.0165777,0.0345871,2001,1016,47.8742,-5.95556
784,8,47.5435,6.00433,0,0,0,0,0,0,0,-1,2008,1016,47.5436,-6.00432
791,8,44.9063,7.89551,0,0,0,0,0,0,0,-1,2015,1016,44.9062,-7.89553
798,8,45.1382,8.06274,0,0,0,0,0,0,0,-1,2022,1016,45.1381,-8.06275
805,8,45.3699,8.22998,0,0,0,0,0,0,0,-1,2029,1016,45.3699,-8.22998
812,8,46.4026,2.224,0,0,0,0,0,0,0,-1,2036,1016,46.4026,-2.224
-700,1,0,0,0,0,0,0,0,0,0,-1,524,1023,0,0
-693,1,-40.9707,0.481689,0,0,0,0,0,0,0,-1,531,1023,-40.9707,-0.481692
-686,1,-38.6846,-0.247498,0,0,0,0,0,0,0,-1,538,1023,-38.6846,0.2475
-679,1,-39.7217,-0.038208,0,0,0,0,0,0,0,-1,545,1023,-39.7217,0.0382195
-672,1,-36.4129,2.6889,0,0,0,0,0,0,0,-1,552,1023,-36.4129,-2.68892
-665,1,-36.339,2.50928,0,0,0,0,0,0,0,-1,559,1023,-36.339,-2.50927
-658,1,-36.442,2.66925,0.0622799,0.0341354,-0.00240455,0.0624839,0.0339314,-0.0846188,0.0361196,0.031422,566,1023,-36.442,-2.66926
-651,1,-36.316,2.85126,0,0,0,0,0,0,0,-1,573,1023,-36.316,-2.85128
-644,1,-36.0766,3.07495,0,0,0,0,0,0,0,-1,580,1023,-36.0766,-3.07494
-637,1,-36.3606,2.99945,0.0141597,0.0159795,-0.000252764,0.016014,0.0141252,-1.43532,0.0101054,0.0342555,587,1023,-36.3606,-2.99944
-630,1,-36.5754,3.07324,0.005038,0.0114632,-0.000799564,0.0115612,0.00493999,-1.44883,0.00669836,0.0293638,594,1023,-36.5755,-3.07326
-623,1,-36.4923,3.14612,0.000942614,0.00770084,-0.00233818,0.00843092,0.00021253,-1.26814,0.00555113,0.0154812,601,1023,-36.4923,-3.14612
-616,1,-36.5785,3.1001,-0.000719924,0.00557635,-0.00369399,0.0072817,-0.00242527,-1.13829,0.00583343,0.0188915,608,1023,-36.5785,-3.10007
-609,1,-36.5693,3.14368,-0.000770958,0.00377547,-0.00498155,0.00697796,-0.00397345,-0.999449,0.00640162,0.0189045,615,1023,-36.5693,-3.14367
-602,1,-36.4384,3.21979,-0.00011778,0.00244897,-0.00578504,0.00709129,-0.00476009,-0.894552,0.00688638,0.0149979,622,1023,-36.4384,-3.2198
-595,1,-36.3287,3.18298,0,0,0,0,0,0,0,-1,629,1023,-36.3287,-3.18296
-588,1,-36.1874,2.04272,0.00141228,0.00077176,-0.00691934,0.00801876,-0.00583472,-0.762272,0.00803138,0.0467521,636,1023,-36.1874,-2.04273
-581,1,-36.0455,0.906555,0.00231608,0.000325411,-0.00717435,0.00856381,-0.00592232,-0.716471,0.00840979,0.0289828,643,1023,-36.0455,-0.90658
-574,1,-36.0292,0.819824,0.00274638,0.000202,-0.0069147,0.00850494,-0.00555656,-0.694424,0.00817769,0.0372933,650,1023,-36.0292,-0.819835
-567,1,-35.9242,0.707153,0.00292268,0.000280129,-0.00632223,0.00806022,-0.00485742,-0.682387,0.00753403,0.0422601,657,1023,-35.9242,-0.707159
-560,1,-35.8477,0.654785,0.00309507,0.000536003,-0.00529097,0.00725902,-0.00362795,-0.666759,0.00640107,0.0426937,664,1023,-35.8477,-0.654776
-553,1,-35.9283,1.19244,0.00336985,0.000849194,-0.00383971,0.00615079,-0.00193174,-0.626821,0.00487376,0.041514,671,1023,-35.9283,-1.19242
-546,1,-35.6704,1.07965,0,0,0,0,0,0,0,-1,678,1023,-35.6704,-1.07968
-539,1,-36.1146,1.20642,0.00520276,0.00111056,-0.000412865,0.005244,0.00106932,-0.099554,0.00319968,0.0394894,685,1023,-36.1146,-1.20641
-532,1,-35.9429,0.858826,0.00776969,0.00177545,-0.000356669,0.00779084,0.0017543,-0.0592234,0.0047191,0.0425078,692,1023,-35.9429,-0.858807
-525,1,0,0,0,0,0,0,0,0,0,-1,699,1023,0,0
-518,1,0,0,0,0,0,0,0,0,0,-1,706,1023,0,0
-511,1,0,0,0,0,0,0,0,0,0,-1,713,1023,0,0
-504,1,0,0,0,0,0,0,0,0,0,-1,720,1023,0,0
-497,1,0,0,0,0,0,0,0,0,0,-1,727,1023,0,0
-490,1,0,0,0,0,0,0,0,0,0,-1,734,1023,0,0
-483,1,0,0,0,0,0,0,0,0,0,-1,741,1023,0,0
-476,1,0,0,0,0,0,0,0,0,0,-1,748,1023,0,0
-469,1,0,0,0,0,0,0,0,0,0,-1,755,1023,0,0
-462,1,0,0,0,0,0,0,0,0,0,-1,762,1023,0,0
-455,1,0,0,0,0,0,0,0,0,0,-1,769,1023,0,0
-448,1,0,0,0,0,0,0,0,0,0,-1,776,1023,0,0
-441,1,0,0,0,0,0,0,0,0,0,-1,783,1023,0,0
-434,1,0,0,0,0,0,0,0,0,0,-1,790,1023,0,0
-427,1,0,0,0,0,0,0,0,0,0,-1,797,1023,0,0
-420,1,0,0,0,0,0,0,0,0,0,-1,804,1023,0,0
-413,1,0,0,0,0,0,0,0,0,0,-1,811,1023,0,0
-406,1,0,0,0,0,0,0,0,0,0,-1,818,1023,0,0
-399,1,0,0,0,0,0,0,0,0,0,-1,825,1023,0,0
-392,1,0,0,0,0,0,0,0,0,0,-1,832,1023,0,0
-385,1,0,0,0,0,0,0,0,0,0,-1,839,1023,0,0
-378,1,0,0,0,0,0,0,0,0,0,-1,846,1023,0,0
-371,1,0,0,0,0,0,0,0,0,0,-1,853,1023,0,0
-364,1,0,0,0,0,0,0,0,0,0,-1,860,1023,0,0
-357,1,0,0,0,0,0,0,0,0,0,-1,867,1023,0,0
-350,1,0,0,0,0,0,0,0,0,0,-1,874,1023,0,0
-343,1,0,0,0,0,0,0,0,0,0,-1,881,1023,0,0
-336,1,0,0,0,0,0,0,0,0,0,-1,888,1023,0,0
-329,1,0,0,0,0,0,0,0,0,0,-1,895,1023,0,0
-322,1,0,0,0,0,0,0,0,0,0,-1,902,1023,0,0
-315,1,0,0,0,0,0,0,0,0,0,-1,909,1023,0,0
-308,1,0,0,0,0,0,0,0,0,0,-1,916,1023,0,0
-301,1,0,0,0,0,0,0,0,0,0,-1,923,1023,0,0
-294,1,0,0,0,0,0,0,0,0,0,-1,930,1023,0,0
-287,1,0,0,0,0,0,0,0,0,0,-1,937,1023,0,0
-280,1,0,0,0,0,0,0,0,0,0,-1,944,1023,0,0
-273,1,0,0,0,0,0,0,0,0,0,-1,951,1023,0,0
-266,1,0,0,0,0,0,0,0,0,0,-1,958,1023,0,0
-259,1,0,0,0,0,0,0,0,0,0,-1,965,1023,0,0
-252,1,0,0,0,0,0,0,0,0,0,-1,972,1023,0,0
-245,1,0,0,0,0,0,0,0,0,0,-1,979,1023,0,0
-238,1,0,0,0,0,0,0,0,0,0,-1,986,1023,0,0
-231,1,0,0,0,0,0,0,0,0,0,-1,993,1023,0,0
-224,1,0,0,0,0,0,0,0,0,0,-1,1000,1023,0,0
-217,1,0,0,0,0,0,0,0,0,0,-1,1007,1023,0,0
-210,1,0,0,0,0,0,0,0,0,0,-1,1014,1023,0,0
-203,1,0,0,0,0,0,0,0,0,0,-1,1021,1023,0,0
-196,1,0,0,0,0,0,0,0,0,0,-1,1028,1023,0,0
-189,1,0,0,0,0,0,0,0,0,0,-1,1035,1023,0,0
-182,1,0,0,0,0,0,0,0,0,0,-1,1042,1023,0,0
-175,1,0,0,0,0,0,0,0,0,0,-1,1049,1023,0,0
-168,1,0,0,0,0,0,0,0,0,0,-1,1056,1023,0,0
-161,1,0,0,0,0,0,0,0,0,0,-1,1063,1023,0,0
-154,1,0,0,0,0,0,0,0,0,0,-1,1070,1023,0,0
-147,1,0,0,0,0,0,0,0,0,0,-1,1077,1023,0,0
-140,1,0,0,0,0,0,0,0,0,0,-1,1084,1023,0,0
-133,1,0,0,0,0,0,0,0,0,0,-1,1091,1023,0,0
-126,1,0,0,0,0,0,0,0,0,0,-1,1098,1023,0,0
-119,1,0,0,0,0,0,0,0,0,0,-1,1105,1023,0,0
-112,1,0,0,0,0,0,0,0,0,0,-1,1112,1023,0,0
-105,1,0,0,0,0,0,0,0,0,0,-1,1119,1023,0,0
-98,1,0,0,0,0,0,0,0,0,0,-1,1126,1023,0,0
-91,1,0,0,0,0,0,0,0,0,0,-1,1133,1023,0,0
-84,1,0,0,0,0,0,0,0,0,0,-1,1140,1023,0,0
-77,1,0,0,0,0,0,0,0,0,0,-1,1147,1023,0,0
-70,1,0,0,0,0,0,0,0,0,0,-1,1154,1023,0,0
-63,1,0,0,0,0,0,0,0,0,0,-1,1161,1023,0,0
-56,1,0,0,0,0,0,0,0,0,0,-1,1168,1023,0,0
-49,1,0,0,0,0,0,0,0,0,0,-1,1175,1023,0,0
-42,1,0,0,0,0,0,0,0,0,0,-1,1182,1023,0,0
-35,1,0,0,0,0,0,0,0,0,0,-1,1189,1023,0,0
-28,1,0,0,0,0,0,0,0,0,0,-1,1196,1023,0,0
-21,1,0,0,0,0,0,0,0,0,0,-1,1203,1023,0,0
-14,1,0,0,0,0,0,0,0,0,0,-1,1210,1023,0,0
-7,1,0,0,0,0,0,0,0,0,0,-1,1217,1023,0,0
0,1,0,0,0,0,0,0,0,0,0,-1,1224,1023,0,0
7,1,0,0,0,0,0,0,0,0,0,-1,1231,1023,0,0
14,1,0,0,0,0,0,0,0,0,0,-1,1238,1023,0,0
21,1,0,0,0,0,0,0,0,0,0,-1,1245,1023,0,0
28,1,0,0,0,0,0,0,0,0,0,-1,1252,1023,0,0
35,1,0,0,0,0,0,0,0,0,0,-1,1259,1023,0,0
42,1,0,0,0,0,0,0,0,0,0,-1,1266,1023,0,0
49,1,0,0,0,0,0,0,0,0,0,-1,1273,1023,0,0
56,1,0,0,0,0,0,0,0,0,0,-1,1280,1023,0,0
63,1,0,0,0,0,0,0,0,0,0,-1,1287,1023,0,0
70,1,0,0,0,0,0,0,0,0,0,-1,1294,1023,0,0
77,1,0,0,0,0,0,0,0,0,0,-1,1301,1023,0,0
84,1,0,0,0,0,0,0,0,0,0,-1,1308,1023,0,0
91,1,0,0,0,0,0,0,0,0,0,-1,1315,1023,0,0
98,1,0,0,0,0,0,0,0,0,0,-1,1322,1023,0,0
105,1,0,0,0,0,0,0,0,0,0,-1,1329,1023,0,0
112,1,0,0,0,0,0,0,0,0,0,-1,1336,1023,0,0
119,1,0,0,0,0,0,0,0,0,0,-1,1343,1023,0,0
126,1,0,0,0,0,0,0,0,0,0,-1,1350,1023,0,0
133,1,0,0,0,0,0,0,0,0,0,-1,1357,1023,0,0
140,1,0,0,0,0,0,0,0,0,0,-1,1364,1023,0,0
147,1,0,0,0,0,0,0,0,0,0,-1,1371,1023,0,0
154,1,0,0,0,0,0,0,0,0,0,-1,1378,1023,0,0
161,1,0,0,0,0,0,0,0,0,0,-1,1385,1023,0,0
168,1,0,0,0,0,0,0,0,0,0,-1,1392,1023,0,0
175,1,0,0,0,0,0,0,0,0,0,-1,1399,1023,0,0
182,1,0,0,0,0,0,0,0,0,0,-1,1406,1023,0,0
189,1,0,0,0,0,0,0,0,0,0,-1,1413,1023,0,0
196,1,0,0,0,0,0,0,0,0,0,-1,1420,1023,0,0
203,1,0,0,0,0,0,0,0,0,0,-1,1427,1023,0,0
210,1,0,0,0,0,0,0,0,0,0,-1,1434,1023,0,0
217,1,0,0,0,0,0,0,0,0,0,-1,1441,1023,0,0
224,1,0,0,0,0,0,0,0,0,0,-1,1448,1023,0,0
231,1,0,0,0,0,0,0,0,0,0,-1,1455,1023,0,0
238,1,0,0,0,0,0,0,0,0,0,-1,1462,1023,0,0
245,1,0,0,0,0,0,0,0,0,0,-1,1469,1023,0,0
252,1,0,0,0,0,0,0,0,0,0,-1,1476,1023,0,0
259,1,0,0,0,0,0,0,0,0,0,-1,1483,1023,0,0
266,1,0,0,0,0,0,0,0,0,0,-1,1490,1023,0,0
273,1,0,0,0,0,0,0,0,0,0,-1,1497,1023,0,0
280,1,0,0,0,0,0,0,0,0,0,-1,1504,1023,0,0
287,1,0,0,0,0,0,0,0,0,0,-1,1511,1023,0,0
294,1,0,0,0,0,0,0,0,0,0,-1,1518,1023,0,0
301,1,0,0,0,0,0,0,0,0,0,-1,1525,1023,0,0
308,1,0,0,0,0,0,0,0,0,0,-1,1532,1023,0,0
315,1,0,0,0,0,0,0,0,0,0,-1,1539,1023,0,0
322,1,0,0,0,0,0,0,0,0,0,-1,1546,1023,0,0
329,1,0,0,0,0,0,0,0,0,0,-1,1553,1023,0,0
336,1,0,0,0,0,0,0,0,0,0,-1,1560,1023,0,0
343,1,0,0,0,0,0,0,0,0,0,-1,1567,1023,0,0
350,1,0,0,0,0,0,0,0,0,0,-1,1574,1023,0,0
357,1,0,0,0,0,0,0,0,0,0,-1,1581,1023,0,0
364,1,0,0,0,0,0,0,0,0,0,-1,1588,1023,0,0
371,1,0,0,0,0,0,0,0,0,0,-1,1595,1023,0,0
378,1,0,0,0,0,0,0,0,0,0,-1,1602,1023,0,0
385,1,0,0,0,0,0,0,0,0,0,-1,1609,1023,0,0
392,1,0,0,0,0,0,0,0,0,0,-1,1616,1023,0,0
399,1,0,0,0,0,0,0,0,0,0,-1,1623,1023,0,0
406,1,0,0,0,0,0,0,0,0,0,-1,1630,1023,0,0
413,1,0,0,0,0,0,0,0,0,0,-1,1637,1023,0,0
420,1,0,0,0,0,0,0,0,0,0,-1,1644,1023,0,0
427,1,0,0,0,0,0,0,0,0,0,-1,1651,1023,0,0
434,1,0,0,0,0,0,0,0,0,0,-1,1658,1023,0,0
441,1,0,0,0,0,0,0,0,0,0,-1,1665,1023,0,0
448,1,0,0,0,0,0,0,0,0,0,-1,1672,1023,0,0
455,1,0,0,0,0,0,0,0,0,0,-1,1679,1023,0,0
462,1,0,0,0,0,0,0,0,0,0,-1,1686,1023,0,0
469,1,0,0,0,0,0,0,0,0,0,-1,1693,1023,0,0
476,1,0,0,0,0,0,0,0,0,0,-1,1700,1023,0,0
483,1,0,0,0,0,0,0,0,0,0,-1,1707,1023,0,0
490,1,0,0,0,0,0,0,0,0,0,-1,1714,1023,0,0
497,1,0,0,0,0,0,0,0,0,0,-1,1721,1023,0,0
504,1,0,0,0,0,0,0,0,0,0,-1,1728,1023,0,0
511,1,0,0,0,0,0,0,0,0,0,-1,1735,1023,0,0
518,1,0,0,0,0,0,0,0,0,0,-1,1742,1023,0,0
525,1,0,0,0,0,0,0,0,0,0,-1,1749,1023,0,0
532,1,0,0,0,0,0,0,0,0,0,-1,1756,1023,0,0
539,1,0,0,0,0,0,0,0,0,0,-1,1763,1023,0,0
546,1,0,0,0,0,0,0,0,0,0,-1,1770,1023,0,0
553,1,0,0,0,0,0,0,0,0,0,-1,1777,1023,0,0
560,1,0,0,0,0,0,0,0,0,0,-1,1784,1023,0,0
567,1,0,0,0,0,0,0,0,0,0,-1,1791,1023,0,0
574,1,0,0,0,0,0,0,0,0,0,-1,1798,1023,0,0
581,1,0,0,0,0,0,0,0,0,0,-1,1805,1023,0,0
588,1,0,0,0,0,0,0,0,0,0,-1,1812,1023,0,0
595,1,0,0,0,0,0,0,0,0,0,-1,1819,1023,0,0
602,1,0,0,0,0,0,0,0,0,0,-1,1826,1023,0,0
609,1,0,0,0,0,0,0,0,0,0,-1,1833,1023,0,0
616,1,0,0,0,0,0,0,0,0,0,-1,1840,1023,0,0
623,1,0,0,0,0,0,0,0,0,0,-1,1847,1023,0,0
630,1,0,0,0,0,0,0,0,0,0,-1,1854,1023,0,0
637,1,0,0,0,0,0,0,0,0,0,-1,1861,1023,0,0
644,1,0,0,0,0,0,0,0,0,0,-1,1868,1023,0,0
651,1,48.3353,2.55273,0.00623557,0.00106804,0.00215945,0.00701916,0.000284449,0.348089,0.00458756,0.0362771,1875,1023,48.3354,-2.55276
658,1,48.5676,2.54504,0.00363626,0.00135941,0.0015963,0.00445849,0.000537177,0.475645,0.00281043,0.0381548,1882,1023,48.5676,-2.54504
665,1,48.6572,2.70581,0,0,0,0,0,0,0,-1,1889,1023,48.6572,-2.70583
672,1,48.6208,2.6745,0.000753618,0.00177339,0.00140138,0.00275476,-0.000227749,0.959877,0.00191694,0.0419794,1896,1023,48.6208,-2.67453
679,1,48.5264,2.71552,0.000117059,0.00196875,0.00181212,0.00307784,-0.000992029,1.02157,0.00245044,0.0386406,1903,1023,48.5264,-2.71554
686,1,48.3618,2.53906,-0.000145698,0.00182566,0.00247399,0.00350309,-0.00182313,0.974968,0.00312567,0.0394494,1910,1023,48.3618,-2.53909
693,1,48.3613,2.68884,-0.000125816,0.00148365,0.0031405,0.00392089,-0.00256305,0.910822,0.00377076,0.0375031,1917,1023,48.3613,-2.68886
700,1,48.4487,2.71179,-7.51708e-05,0.0012384,0.00363202,0.00427254,-0.00310931,0.874848,0.00427952,0.0309047,1924,1023,48.4488,-2.71178
707,1,48.4586,2.65778,-0.000355164,0.00113888,0.00393957,0.00440163,-0.00361791,0.879096,0.00463744,0.0266166,1931,1023,48.4586,-2.6578
714,1,48.4592,2.6507,-0.000762268,0.00136078,0.00412097,0.00455475,-0.00395624,0.911453,0.00491787,0.0310997,1938,1023,48.4593,-2.65068
721,1,48.5763,2.61737,0,0,0,0,0,0,0,-1,1945,1023,48.5762,-2.61735
728,1,48.4619,5.42163,0,0,0,0,0,0,0,-1,1952,1023,48.4619,-5.42161
735,1,48.1318,5.86188,0,0,0,0,0,0,0,-1,1959,1023,48.1318,-5.86185
742,1,48.3774,5.62445,0,0,0,0,0,0,0,-1,1966,1023,48.3774,-5.62445
749,1,48.312,5.85638,-0.00375409,0.00587866,0.00405942,0.0073612,-0.00523663,1.22064,0.00730776,0.0491357,1973,1023,48.312,-5.85636
756,1,48.3278,5.86206,-0.00419438,0.00795004,0.00448025,0.00942397,-0.00566832,1.25296,0.00880301,0.025571,1980,1023,48.3278,-5.86207
763,1,48.2529,5.83136,-0.00400104,0.0102094,0.00531241,0.0119758,-0.00576745,1.24979,0.010451,0.0150202,1987,1023,48.253,-5.83133
770,1,48.2422,5.82635,-0.00283887,0.0129772,0.00703236,0.0156518,-0.00551341,1.20737,0.0126784,0.0171616,1994,1023,48.2421,-5.82637
777,1,47.9666,5.77759,-0.000183434,0.0158455,0.0103449,0.0209173,-0.00525516,1.11497,0.0159871,0.02468,2001,1023,47.9665,-5.77759
784,1,47.8428,5.86658,0.00394302,0.0182733,0.0152134,0.0279245,-0.00570812,1.00548,0.020782,0.0453443,2008,1023,47.8429,-5.86655
791,1,47.7993,6.03583,0,0,0,0,0,0,0,-1,2015,1023,47.7992,-6.03584
798,1,44.3674,7.9939,0,0,0,0,0,0,0,-1,2022,1023,44.3675,-7.99392
805,1,44.5742,8.13617,0,0,0,0,0,0,0,-1,2029,1023,44.5743,-8.13617
812,1,48.3435,6.14886,0,0,0,0,0,0,0,-1,2036,1023,48.3434,-6.14885
-700,-6,0,0,0,0,0,0,0,0,0,-1,524,1030,0,0
-693,-6,-40.2726,0.441406,0,0,0,0,0,0,0,-1,531,1030,-40.2726,-0.441393
-686,-6,-37.5364,-0.469971,0.156917,0.0579625,-0.0235274,0.162226,0.0526535,-0.221937,0.0955634,0.0439818,538,1030,-37.5364,0.46991
-679,-6,-35.106,-1.45508,0,0,0,0,0,0,0,-1,545,1030,-35.106,1.45514
-672,-6,-36.2461,2.02722,0,0,0,0,0,0,0,-1,552,1030,-36.2461,-2.02725
-665,-6,-36.1434,2.41541,0.0738883,0.035743,-0.007617,0.075353,0.0342783,-0.189981,0.043564,0.0428595,559,1030,-36.1434,-2.41546
-658,-6,-36.2007,2.64185,0.0530939,0.0298563,-0.00484682,0.0540643,0.0288859,-0.197602,0.0312385,0.0362293,566,1030,-36.2007,-2.64191
-651,-6,-36.1998,2.7876,0,0,0,0,0,0,0,-1,573,1030,-36.1998,-2.7876
-644,-6,-36.1255,3.29565,0,0,0,0,0,0,0,-1,580,1030,-36.1255,-3.2956
-637,-6,-36.3391,3.12244,0.0114982,0.0144657,-0.00123986,0.0149156,0.0110483,-1.22276,0.008938,0.038506,587,1030,-36.3391,-3.12244
-630,-6,-36.4645,3.00623,0.00370139,0.0104295,-0.00145691,0.0107314,0.00339945,-1.36645,0.00633294,0.0218008,594,1030,-36.4645,-3.00622
-623,-6,-36.4296,3.07019,0.000528063,0.00700062,-0.00271637,0.00798952,-0.000460838,-1.22166,0.00548642,0.0160409,601,1030,-36.4296,-3.07017
-616,-6,-36.485,3.10266,-0.000639648,0.00508217,-0.00376566,0.00695042,-0.0025079,-1.11025,0.00565799,0.0178305,608,1030,-36.485,-3.10263
-609,-6,-36.4591,3.19617,-0.000599452,0.00330656,-0.00478034,0.00651745,-0.00381035,-0.979326,0.00603065,0.0172467,615,1030,-36.4591,-3.19622
-602,-6,-36.3813,3.28955,1.60332e-05,0.00192726,-0.00541553,0.00647084,-0.00452755,-0.872728,0.00638288,0.0134305,622,1030,-36.3813,-3.28951
-595,-6,-36.353,3.35461,0,0,0,0,0,0,0,-1,629,1030,-36.353,-3.35466
-588,-6,-36.1514,1.95227,0,0,0,0,0,0,0,-1,636,1030,-36.1514,-1.95223
-581,-6,-36.0562,0.667114,0,0,0,0,0,0,0,-1,643,1030,-36.0562,-0.66713
-574,-6,-36.1046,0.950928,0,0,0,0,0,0,0,-1,650,1030,-36.1046,-0.950923
-567,-6,-35.9969,0.907104,0,0,0,0,0,0,0,-1,657,1030,-35.997,-0.907085
-560,-6,-35.9182,0.684204,0,0,0,0,0,0,0,-1,664,1030,-35.9182,-0.684202
-553,-6,-35.7975,1.11829,0,0,0,0,0,0,0,-1,671,1030,-35.7975,-1.11833
-546,-6,-36.0046,0.964478,0.00376311,0.0012904,-0.00184922,0.00475121,0.000302301,-0.490735,0.00307167,0.0382215,678,1030,-36.0046,-0.964441
-539,-6,-36.1028,0.976563,0.00476284,0.00141169,-0.000528829,0.00484431,0.00133022,-0.152858,0.00289005,0.0394064,685,1030,-36.1029,-0.976563
-532,-6,-35.9943,0.795166,0.00695999,0.00200567,-0.000486578,0.00700732,0.00195834,-0.0969784,0.00417479,0.0428948,692,1030,-35.9942,-0.795218
-525,-6,0,0,0,0,0,0,0,0,0,-1,699,1030,0,0
-518,-6,0,0,0,0,0,0,0,0,0,-1,706,1030,0,0
-511,-6,0,0,0,0,0,0,0,0,0,-1,713,1030,0,0
-504,-6,0,0,0,0,0,0,0,0,0,-1,720,1030,0,0
-497,-6,0,0,0,0,0,0,0,0,0,-1,727,1030,0,0
-490,-6,0,0,0,0,0,0,0,0,0,-1,734,1030,0,0
-483,-6,0,0,0,0,0,0,0,0,0,-1,741,1030,0,0
-476,-6,0,0,0,0,0,0,0,0,0,-1,748,1030,0,0
-469,-6,0,0,0,0,0,0,0,0,0,-1,755,1030,0,0
-462,-6,0,0,0,0,0,0,0,0,0,-1,762,1030,0,0
-455,-6,0,0,0,0,0,0,0,0,0,-1,769,1030,0,0
-448,-6,0,0,0,0,0,0,0,0,0,-1,776,1030,0,0
-441,-6,0,0,0,0,0,0,0,0,0,-1,783,1030,0,0
-434,-6,0,0,0,0,0,0,0,0,0,-1,790,1030,0,0
-427,-6,0,0,0,0,0,0,0,0,0,-1,797,1030,0,0
-420,-6,0,0,0,0,0,0,0,0,0,-1,804,1030,0,0
-413,-6,0,0,0,0,0,0,0,0,0,-1,811,1030,0,0
-406,-6,0,0,0,0,0,0,0,0,0,-1,818,1030,0,0
-399,-6,0,0,0,0,0,0,0,0,0,-1,825,1030,0,0
-392,-6,0,0,0,0,0,0,0,0,0,-1,832,1030,0,0
-385,-6,0,0,0,0,0,0,0,0,0,-1,839,1030,0,0
-378,-6,0,0,0,0,0,0,0,0,0,-1,846,1030,0,0
-371,-6,0,0,0,0,0,0,0,0,0,-1,853,1030,0,0
-364,-6,0,0,0,0,0,0,0,0,0,-1,860,1030,0,0
-357,-6,0,0,0,0,0,0,0,0,0,-1,867,1030,0,0
-350,-6,0,0,0,0,0,0,0,0,0,-1,874,1030,0,0
-343,-6,0,0,0,0,0,0,0,0,0,-1,881,1030,0,0
-336,-6,0,0,0,0,0,0,0,0,0,-1,888,1030,0,0
-329,-6,0,0,0,0,0,0,0,0,0,-1,895,1030,0,0
-322,-6,0,0,0,0,0,0,0,0,0,-1,902,1030,0,0
-315,-6,0,0,0,0,0,0,0,0,0,-1,909,1030,0,0
-308,-6,0,0,0,0,0,0,0,0,0,-1,916,1030,0,0
-301,-6,0,0,0,0,0,0,0,0,0,-1,923,1030,0,0
-294,-6,0,0,0,0,0,0,0,0,0,-1,930,1030,0,0
-287,-6,0,0,0,0,0,0,0,0,0,-1,937,1030,0,0
-280,-6,0,0,0,0,0,0,0,0,0,-1,944,1030,0,0
-273,-6,0,0,0,0,0,0,0,0,0,-1,951,1030,0,0
-266,-6,0,0,0,0,0,0,0,0,0,-1,958,1030,0,0
-259,-6,0,0,0,0,0,0,0,0,0,-1,965,1030,0,0
-252,-6,0,0,0,0,0,0,0,0,0,-1,972,1030,0,0
-245,-6,0,0,0,0,0,0,0,0,0,-1,979,1030,0,0
-238,-6,0,0,0,0,0,0,0,0,0,-1,986,1030,0,0
-231,-6,0,0,0,0,0,0,0,0,0,-1,993,1030,0,0
-224,-6,0,0,0,0,0,0,0,0,0,-1,1000,1030,0,0
-217,-6,0,0,0,0,0,0,0,0,0,-1,1007,1030,0,0
-210,-6,0,0,0,0,0,0,0,0,0,-1,1014,1030,0,0
-203,-6,0,0,0,0,0,0,0,0,0,-1,1021,1030,0,0
-196,-6,0,0,0,0,0,0,0,0,0,-1,1028,1030,0,0
-189,-6,0,0,0,0,0,0,0,0,0,-1,1035,1030,0,0
-182,-6,0,0,0,0,0,0,0,0,0,-1,1042,1030,0,0
-175,-6,0,0,0,0,0,0,0,0,0,-1,1049,1030,0,0
-168,-6,0,0,0,0,0,0,0,0,0,-1,1056,1030,0,0
-161,-6,0,0,0,0,0,0,0,0,0,-1,1063,1030,0,0
-154,-6,0,0,0,0,0,0,0,0,0,-1,1070,1030,0,0
-147,-6,0,0,0,0,0,0,0,0,0,-1,1077,1030,0,0
-140,-6,0,0,0,0,0,0,0,0,0,-1,1084,1030,0,0
-133,-6,0,0,0,0,0,0,0,0,0,-1,1091,1030,0,0
-126,-6,0,0,0,0,0,0,0,0,0,-1,1098,1030,0,0
-119,-6,0,0,0,0,0,0,0,0,0,-1,1105,1030,0,0
-112,-6,0,0,0,0,0,0,0,0,0,-1,1112,1030,0,0
-105,-6,0,0,0,0,0,0,0,0,0,-1,1119,1030,0,0
-98,-6,0,0,0,0,0,0,0,0,0,-1,1126,1030,0,0
-91,-6,0,0,0,0,0,0,0,0,0,-1,1133,1030,0,0
-84,-6,0,0,0,0,0,0,0,0,0,-1,1140,1030,0,0
-77,-6,0,0,0,0,0,0,0,0,0,-1,1147,1030,0,0
-70,-6,0,0,0,0,0,0,0,0,0,-1,1154,1030,0,0
-63,-6,0,0,0,0,0,0,0,0,0,-1,1161,1030,0,0
-56,-6,0,0,0,0,0,0,0,0,0,-1,1168,1030,0,0
-49,-6,0,0,0,0,0,0,0,0,0,-1,1175,1030,0,0
-42,-6,0,0,0,0,0,0,0,0,0,-1,1182,1030,0,0
-35,-6,0,0,0,0,0,0,0,0,0,-1,1189,1030,0,0
-28,-6,0,0,0,0,0,0,0,0,0,-1,1196,1030,0,0
-21,-6,0,0,0,0,0,0,0,0,0,-1,1203,1030,0,0
-14,-6,0,0,0,0,0,0,0,0,0,-1,1210,1030,0,0
-7,-6,0,0,0,0,0,0,0,0,0,-1,1217,1030,0,0
0,-6,0,0,0,0,0,0,0,0,0,-1,1224,1030,0,0
7,-6,0,0,0,0,0,0,0,0,0,-1,1231,1030,0,0
14,-6,0,0,0,0,0,0,0,0,0,-1,1238,1030,0,0
21,-6,0,0,0,0,0,0,0,0,0,-1,1245,1030,0,0
28,-6,0,0,0,0,0,0,0,0,0,-1,1252,1030,0,0
35,-6,0,0,0,0,0,0,0,0,0,-1,1259,1030,0,0
42,-6,0,0,0,0,0,0,0,0,0,-1,1266,1030,0,0
49,-6,0,0,0,0,0,0,0,0,0,-1,1273,1030,0,0
56,-6,0,0,0,0,0,0,0,0,0,-1,1280,1030,0,0
63,-6,0,0,0,0,0,0,0,0,0,-1,1287,1030,0,0
70,-6,0,0,0,0,0,0,0,0,0,-1,1294,1030,0,0
77,-6,0,0,0,0,0,0,0,0,0,-1,1301,1030,0,0
84,-6,0,0,0,0,0,0,0,0,0,-1,1308,1030,0,0
91,-6,0,0,0,0,0,0,0,0,0,-1,1315,1030,0,0
98,-6,0,0,0,0,0,0,0,0,0,-1,1322,1030,0,0
105,-6,0,0,0,0,0,0,0,0,0,-1,1329,1030,0,0
112,-6,0,0,0,0,0,0,0,0,0,-1,1336,1030,0,0
119,-6,0,0,0,0,0,0,0,0,0,-1,1343,1030,0,0
126,-6,0,0,0,0,0,0,0,0,0,-1,1350,1030,0,0
133,-6,0,0,0,0,0,0,0,0,0,-1,1357,1030,0,0
140,-6,0,0,0,0,0,0,0,0,0,-1,1364,1030,0,0
147,-6,0,0,0,0,0,0,0,0,0,-1,1371,1030,0,0
154,-6,0,0,0,0,0,0,0,0,0,-1,1378,1030,0,0
161,-6,0,0,0,0,0,0,0,0,0,-1,1385,1030,0,0
168,-6,0,0,0,0,0,0,0,0,0,-1,1392,1030,0,0
175,-6,0,0,0,0,0,0,0,0,0,-1,1399,1030,0,0
182,-6,0,0,0,0,0,0,0,0,0,-1,1406,1030,0,0
189,-6,0,0,0,0,0,0,0,0,0,-1,1413,1030,0,0
196,-6,0,0,0,0,0,0,0,0,0,-1,1420,1030,0,0
203,-6,0,0,0,0,0,0,0,0,0,-1,1427,1030,0,0
210,-6,0,0,0,0,0,0,0,0,0,-1,1434,1030,0,0
217,-6,0,0,0,0,0,0,0,0,0,-1,1441,1030,0,0
224,-6,0,0,0,0,0,0,0,0,0,-1,1448,1030,0,0
231,-6,0,0,0,0,0,0,0,0,0,-1,1455,1030,0,0
238,-6,0,0,0,0,0,0,0,0,0,-1,1462,1030,0,0
245,-6,0,0,0,0,0,0,0,0,0,-1,1469,1030,0,0
252,-6,0,0,0,0,0,0,0,0,0,-1,1476,1030,0,0
259,-6,0,0,0,0,0,0,0,0,0,-1,1483,1030,0,0
266,-6,0,0,0,0,0,0,0,0,0,-1,1490,1030,0,0
273,-6,0,0,0,0,0,0,0,0,0,-1,1497,1030,0,0
280,-6,0,0,0,0,0,0,0,0,0,-1,1504,1030,0,0
287,-6,0,0,0,0,0,0,0,0,0,-1,1511,1030,0,0
294,-6,0,0,0,0,0,0,0,0,0,-1,1518,1030,0,0
301,-6,0,0,0,0,0,0,0,0,0,-1,1525,1030,0,0
308,-6,0,0,0,0,0,0,0,0,0,-1,1532,1030,0,0
315,-6,0,0,0,0,0,0,0,0,0,-1,1539,1030,0,0
322,-6,0,0,0,0,0,0,0,0,0,-1,1546,1030,0,0
329,-6,0,0,0,0,0,0,0,0,0,-1,1553,1030,0,0
336,-6,0,0,0,0,0,0,0,0,0,-1,1560,1030,0,0
343,-6,0,0,0,0,0,0,0,0,0,-1,1567,1030,0,0
350,-6,0,0,0,0,0,0,0,0,0,-1,1574,1030,0,0
357,-6,0,0,0,0,0,0,0,0,0,-1,1581,1030,0,0
364,-6,0,0,0,0,0,0,0,0,0,-1,1588,1030,0,0
371,-6,0,0,0,0,0,0,0,0,0,-1,1595,1030,0,0
378,-6,0,0,0,0,0,0,0,0,0,-1,1602,1030,0,0
385,-6,0,0,0,0,0,0,0,0,0,-1,1609,1030,0,0
392,-6,0,0,0,0,0,0,0,0,0,-1,1616,1030,0,0
399,-6,0,0,0,0,0,0,0,0,0,-1,1623,1030,0,0
406,-6,0,0,0,0,0,0,0,0,0,-1,1630,1030,0,0
413,-6,0,0,0,0,0,0,0,0,0,-1,1637,1030,0,0
420,-6,0,0,0,0,0,0,0,0,0,-1,1644,1030,0,0
427,-6,0,0,0,0,0,0,0,0,0,-1,1651,1030,0,0
434,-6,0,0,0,0,0,0,0,0,0,-1,1658,1030,0,0
441,-6,0,0,0,0,0,0,0,0,0,-1,1665,1030,0,0
448,-6,0,0,0,0,0,0,0,0,0,-1,1672,1030,0,0
455,-6,0,0,0,0,0,0,0,0,0,-1,1679,1030,0,0
462,-6,0,0,0,0,0,0,0,0,0,-1,1686,1030,0,0
469,-6,0,0,0,0,0,0,0,0,0,-1,1693,1030,0,0
476,-6,0,0,0,0,0,0,0,0,0,-1,1700,1030,0,0
483,-6,0,0,0,0,0,0,0,0,0,-1,1707,1030,0,0
490,-6,0,0,0,0,0,0,0,0,0,-1,1714,1030,0,0
497,-6,0,0,0,0,0,0,0,0,0,-1,1721,1030,0,0
504,-6,0,0,0,0,0,0,0,0,0,-1,1728,1030,0,0
511,-6,0,0,0,0,0,0,0,0,0,-1,1735,1030,0,0
518,-6,0,0,0,0,0,0,0,0,0,-1,1742,1030,0,0
525,-6,0,0,0,0,0,0,0,0,0,-1,1749,1030,0,0
532,-6,0,0,0,0,0,0,0,0,0,-1,1756,1030,0,0
539,-6,0,0,0,0,0,0,0,0,0,-1,1763,1030,0,0
546,-6,0,0,0,0,0,0,0,0,0,-1,1770,1030,0,0
553,-6,0,0,0,0,0,0,0,0,0,-1,1777,1030,0,0
560,-6,0,0,0,0,0,0,0,0,0,-1,1784,1030,0,0
567,-6,0,0,0,0,0,0,0,0,0,-1,1791,1030,0,0
574,-6,0,0,0,0,0,0,0,0,0,-1,1798,1030,0,0
581,-6,0,0,0,0,0,0,0,0,0,-1,1805,1030,0,0
588,-6,0,0,0,0,0,0,0,0,0,-1,1812,1030,0,0
595,-6,0,0,0,0,0,0,0,0,0,-1,1819,1030,0,0
602,-6,0,0,0,0,0,0,0,0,0,-1,1826,1030,0,0
609,-6,0,0,0,0,0,0,0,0,0,-1,1833,1030,0,0
616,-6,0,0,0,0,0,0,0,0,0,-1,1840,1030,0,0
623,-6,0,0,0,0,0,0,0,0,0,-1,1847,1030,0,0
630,-6,0,0,0,0,0,0,0,0,0,-1,1854,1030,0,0
637,-6,0,0,0,0,0,0,0,0,0,-1,1861,1030,0,0
644,-6,0,0,0,0,0,0,0,0,0,-1,1868,1030,0,0
651,-6,48.4879,2.599,0.0069066,0.000234805,0.00230636,0.00762625,-0.000484849,0.302457,0.00525325,0.035055,1875,1030,48.4879,-2.59894
658,-6,48.6747,2.55774,0.00413078,0.000843991,0.00165588,0.00482034,0.000154426,0.394592,0.00316334,0.0408467,1882,1030,48.6747,-2.55776
665,-6,48.8947,2.38623,0,0,0,0,0,0,0,-1,1889,1030,48.8946,-2.38627
672,-6,48.6996,2.43091,0.000962461,0.00156443,0.0013525,0.00264903,-0.000122138,0.894884,0.00180811,0.0435209,1896,1030,48.6995,-2.43087
679,-6,48.5339,2.68884,0.000199363,0.00182615,0.00170366,0.00290063,-0.000875122,1.00812,0.0022821,0.0417714,1903,1030,48.5339,-2.68879
686,-6,48.4271,2.73718,-0.000191273,0.00170389,0.00231826,0.00326075,-0.00174813,0.97941,0.0029355,0.0388954,1910,1030,48.4271,-2.73718
693,-6,48.3911,2.72437,-0.000263916,0.0013521,0.00296475,0.00361698,-0.00252879,0.918437,0.00356676,0.0365782,1917,1030,48.3911,-2.72441
700,-6,48.4882,2.62939,-0.000256171,0.00108103,0.00346592,0.00394225,-0.00311739,0.880681,0.00408514,0.0316619,1924,1030,48.4882,-2.6294
707,-6,48.4633,2.63782,-0.000565206,0.000952095,0.00376998,0.004039,-0.00365212,0.884689,0.00444234,0.0293495,1931,1030,48.4633,-2.63787
714,-6,48.4633,2.59253,-0.000986339,0.00114626,0.00396392,0.0041848,-0.00402487,0.916789,0.00474016,0.0410825,1938,1030,48.4633,-2.59248
721,-6,48.5551,2.41907,0,0,0,0,0,0,0,-1,1945,1030,48.5551,-2.4191
728,-6,48.0592,5.90015,0,0,0,0,0,0,0,-1,1952,1030,48.0592,-5.9002
735,-6,48.1539,5.80164,-0.0028549,0.00315029,0.00398704,0.00513889,-0.0048435,1.10814,0.00576418,0.0388848,1959,1030,48.1539,-5.8016
742,-6,48.3232,5.78906,-0.00356022,0.00423837,0.00388702,0.00584484,-0.00516669,1.17889,0.00636153,0.0402228,1966,1030,48.3232,-5.7891
749,-6,48.265,5.74561,0,0,0,0,0,0,0,-1,1973,1030,48.265,-5.74559
756,-6,48.2979,5.76245,-0.00492861,0.00760587,0.00429065,0.00893389,-0.00625663,1.27063,0.00881554,0.0203367,1980,1030,48.2979,-5.76243
763,-6,48.2064,5.68286,-0.00507429,0.00985531,0.00501073,0.0113811,-0.00660008,1.27521,0.010503,0.0185859,1987,1030,48.2064,-5.68285
770,-6,48.1538,5.6676,-0.00455057,0.0126058,0.00644438,0.0147568,-0.00670156,1.24865,0.0126766,0.0168118,1994,1030,48.1538,-5.66763
777,-6,48.0667,5.64856,-0.00278677,0.0154249,0.00933277,0.0193581,-0.00671998,1.17194,0.0156345,0.0192316,2001,1030,48.0666,-5.64859
784,-6,48.0015,5.58972,0.000209762,0.0177185,0.0135787,0.0251202,-0.00719196,1.07172,0.0195893,0.0450038,2008,1030,48.0014,-5.58969
791,-6,47.9795,5.53064,0,0,0,0,0,0,0,-1,2015,1030,47.9795,-5.53068
798,-6,48.9116,5.18274,0,0,0,0,0,0,0,-1,2022,1030,48.9115,-5.18275
805,-6,48.3882,5.46948,0,0,0,0,0,0,0,-1,2029,1030,48.3881,-5.46951
812,-6,48.5222,5.8739,0,0,0,0,0,0,0,-1,2036,1030,48.5221,-5.87393
-700,-13,0,0,0,0,0,0,0,0,0,-1,524,1037,0,0
-693,-13,-39.6447,0.466553,0,0,0,0,0,0,0,-1,531,1037,-39.6448,-0.466497
-686,-13,-37.071,-0.420898,0,0,0,0,0,0,0,-1,538,1037,-37.071,0.42086
-679,-13,-36.0817,2.36597,0,0,0,0,0,0,0,-1,545,1037,-36.0817,-2.366
-672,-13,-36.0421,2.21277,0.0823997,0.034986,-0.0149051,0.086696,0.0306897,-0.280637,0.0507603,0.049281,552,1037,-36.0421,-2.21278
-665,-13,-35.992,2.08447,0.0607819,0.0298331,-0.0103471,0.0639225,0.0266924,-0.294689,0.0370724,0.0459055,559,1037,-35.992,-2.08453
-658,-13,-36.0881,1.91064,0,0,0,0,0,0,0,-1,566,1037,-36.0881,-1.91066
-651,-13,-36.2524,2.52832,0.0283636,0.0209383,-0.00457636,0.0305439,0.018758,-0.44461,0.017787,0.0434962,573,1037,-36.2524,-2.52838
-644,-13,-36.0951,2.72278,0.0175302,0.0169329,-0.00270514,0.0199531,0.01451,-0.73042,0.0119098,0.0335692,580,1037,-36.0951,-2.72281
-637,-13,-36.1785,2.89807,0.0081444,0.0127828,-0.00200114,0.0135268,0.00740039,-1.21484,0.00782125,0.02587,587,1037,-36.1784,-2.89806
-630,-13,-36.3056,2.901,0.00191525,0.00928847,-0.00189693,0.00974788,0.00145584,-1.33319,0.00607176,0.0166734,594,1037,-36.3056,-2.90101
-623,-13,-36.3282,3.01965,-0.000152292,0.00628801,-0.00290332,0.0074036,-0.00126788,-1.20394,0.00540813,0.013957,601,1037,-36.3282,-3.01962
-616,-13,-36.3135,3.15234,-0.00078371,0.00456747,-0.00368373,0.00644475,-0.00266099,-1.09949,0.00540638,0.0131217,608,1037,-36.3135,-3.15235
-609,-13,-36.2866,3.23218,-0.000599197,0.00282305,-0.00448669,0.00591384,-0.00368999,-0.967573,0.0055941,0.0174181,615,1037,-36.2866,-3.23219
-602,-13,-36.2711,3.33459,1.99327e-05,0.00139204,-0.00499756,0.00575042,-0.00433845,-0.853611,0.00584379,0.0127783,622,1037,-36.2711,-3.33457
-595,-13,-36.2753,3.42798,0,0,0,0,0,0,0,-1,629,1037,-36.2753,-3.42803
-588,-13,-35.9766,1.69653,0,0,0,0,0,0,0,-1,636,1037,-35.9766,-1.69648
-581,-13,-36.0241,0.808472,0.00212728,-0.000425274,-0.00574745,0.00673846,-0.00503645,-0.676141,0.00682188,0.0168213,643,1037,-36.0241,-0.808473
-574,-13,-36.095,0.927246,0.00254665,-0.000433521,-0.00549375,0.00674881,-0.00463568,-0.652968,0.00661048,0.0315253,650,1037,-36.095,-0.92722
-567,-13,-36.1678,1.11572,0.00275459,-0.000193946,-0.00498651,0.0064802,-0.00391956,-0.641667,0.00606467,0.0396762,657,1037,-36.1678,-1.11568
-560,-13,-36.0811,0.926025,0.00293968,0.000261223,-0.0041723,0.00598241,-0.00278151,-0.630102,0.00517113,0.0437567,664,1037,-36.081,-0.925988
-553,-13,-35.9771,0.803955,0.00320826,0.000784271,-0.00308012,0.00530627,-0.00131373,-0.597957,0.00404713,0.0410856,671,1037,-35.977,-0.803951
-546,-13,-36.0485,0.896973,0.00378497,0.00113643,-0.00176135,0.00466434,0.000257058,-0.463056,0.00302751,0.0356616,678,1037,-36.0485,-0.896928
-539,-13,-36.0281,0.931396,0.00472899,0.00117942,-0.000767359,0.00488777,0.00102063,-0.204047,0.0029772,0.0377777,685,1037,-36.0281,-0.931398
-532,-13,-36.0178,0.72876,0.00660397,0.00154801,-0.00076841,0.00671817,0.00143381,-0.147544,0.00408559,0.0407101,692,1037,-36.0178,-0.728744
-525,-13,0,0,0,0,0,0,0,0,0,-1,699,1037,0,0
-518,-13,0,0,0,0,0,0,0,0,0,-1,706,1037,0,0
-511,-13,0,0,0,0,0,0,0,0,0,-1,713,1037,0,0
-504,-13,0,0,0,0,0,0,0,0,0,-1,720,1037,0,0
-497,-13,0,0,0,0,0,0,0,0,0,-1,727,1037,0,0
-490,-13,0,0,0,0,0,0,0,0,0,-1,734,1037,0,0
-483,-13,0,0,0,0,0,0,0,0,0,-1,741,1037,0,0
-476,-13,0,0,0,0,0,0,0,0,0,-1,748,1037,0,0
-469,-13,0,0,0,0,0,0,0,0,0,-1,755,1037,0,0
-462,-13,0,0,0,0,0,0,0,0,0,-1,762,1037,0,0
-455,-13,0,0,0,0,0,0,0,0,0,-1,769,1037,0,0
-448,-13,0,0,0,0,0,0,0,0,0,-1,776,1037,0,0
-441,-13,0,0,0,0,0,0,0,0,0,-1,783,1037,0,0
-434,-13,0,0,0,0,0,0,0,0,0,-1,790,1037,0,0
-427,-13,0,0,0,0,0,0,0,0,0,-1,797,1037,0,0
-420,-13,0,0,0,0,0,0,0,0,0,-1,804,1037,0,0
-413,-13,0,0,0,0,0,0,0,0,0,-1,811,1037,0,0
-406,-13,0,0,0,0,0,0,0,0,0,-1,818,1037,0,0
-399,-13,0,0,0,0,0,0,0,0,0,-1,825,1037,0,0
-392,-13,0,0,0,0,0,0,0,0,0,-1,832,1037,0,0
-385,-13,0,0,0,0,0,0,0,0,0,-1,839,1037,0,0
-378,-13,0,0,0,0,0,0,0,0,0,-1,846,1037,0,0
-371,-13,0,0,0,0,0,0,0,0,0,-1,853,1037,0,0
-364,-13,0,0,0,0,0,0,0,0,0,-1,860,1037,0,0
-357,-13,0,0,0,0,0,0,0,0,0,-1,867,1037,0,0
-350,-13,0,0,0,0,0,0,0,0,0,-1,874,1037,0,0
-343,-13,0,0,0,0,0,0,0,0,0,-1,881,1037,0,0
-336,-13,0,0,0,0,0,0,0,0,0,-1,888,1037,0,0
-329,-13,0,0,0,0,0,0,0,0,0,-1,895,1037,0,0
-322,-13,0,0,0,0,0,0,0,0,0,-1,902,1037,0,0
-315,-13,0,0,0,0,0,0,0,0,0,-1,909,1037,0,0
-308,-13,0,0,0,0,0,0,0,0,0,-1,916,1037,0,0
-301,-13,0,0,0,0,0,0,0,0,0,-1,923,1037,0,0
-294,-13,0,0,0,0,0,0,0,0,0,-1,930,1037,0,0
-287,-13,0,0,0,0,0,0,0,0,0,-1,937,1037,0,0
-280,-13,0,0,0,0,0,0,0,0,0,-1,944,1037,0,0
-273,-13,0,0,0,0,0,0,0,0,0,-1,951,1037,0,0
-266,-13,0,0,0,0,0,0,0,0,0,-1,958,1037,0,0
-259,-13,0,0,0,0,0,0,0,0,0,-1,965,1037,0,0
-252,-13,0,0,0,0,0,0,0,0,0,-1,972,1037,0,0
-245,-13,0,0,0,0,0,0,0,0,0,-1,979,1037,0,0
-238,-13,0,0,0,0,0,0,0,0,0,-1,986,1037,0,0
-231,-13,0,0,0,0,0,0,0,0,0,-1,993,1037,0,0
-224,-13,0,0,0,0,0,0,0,0,0,-1,1000,1037,0,0
-217,-13,0,0,0,0,0,0,0,0,0,-1,1007,1037,0,0
-210,-13,0,0,0,0,0,0,0,0,0,-1,1014,1037,0,0
-203,-13,0,0,0,0,0,0,0,0,0,-1,1021,1037,0,0
-196,-13,0,0,0,0,0,0,0,0,0,-1,1028,1037,0,0
-189,-13,0,0,0,0,0,0,0,0,0,-1,1035,1037,0,0
-182,-13,0,0,0,0,0,0,0,0,0,-1,1042,1037,0,0
-175,-13,0,0,0,0,0,0,0,0,0,-1,1049,1037,0,0
-168,-13,0,0,0,0,0,0,0,0,0,-1,1056,1037,0,0
-161,-13,0,0,0,0,0,0,0,0,0,-1,1063,1037,0,0
-154,-13,0,0,0,0,0,0,0,0,0,-1,1070,1037,0,0
-147,-13,0,0,0,0,0,0,0,0,0,-1,1077,1037,0,0
-140,-13,0,0,0,0,0,0,0,0,0,-1,1084,1037,0,0
-133,-13,0,0,0,0,0,0,0,0,0,-1,1091,1037,0,0
-126,-13,0,0,0,0,0,0,0,0,0,-1,1098,1037,0,0
-119,-13,0,0,0,0,0,0,0,0,0,-1,1105,1037,0,0
-112,-13,0,0,0,0,0,0,0,0,0,-1,1112,1037,0,0
-105,-13,0,0,0,0,0,0,0,0,0,-1,1119,1037,0,0
-98,-13,0,0,0,0,0,0,0,0,0,-1,1126,1037,0,0
-91,-13,0,0,0,0,0,0,0,0,0,-1,1133,1037,0,0
-84,-13,0,0,0,0,0,0,0,0,0,-1,1140,1037,0,0
-77,-13,0,0,0,0,0,0,0,0,0,-1,1147,1037,0,0
-70,-13,0,0,0,0,0,0,0,0,0,-1,1154,1037,0,0
-63,-13,0,0,0,0,0,0,0,0,0,-1,1161,1037,0,0
-56,-13,0,0,0,0,0,0,0,0,0,-1,1168,1037,0,0
-49,-13,0,0,0,0,0,0,0,0,0,-1,1175,1037,0,0
-42,-13,0,0,0,0,0,0,0,0,0,-1,1182,1037,0,0
-35,-13,0,0,0,0,0,0,0,0,0,-1,1189,1037,0,0
-28,-13,0,0,0,0,0,0,0,0,0,-1,1196,1037,0,0
-21,-13,0,0,0,0,0,0,0,0,0,-1,1203,1037,0,0
-14,-13,0,0,0,0,0,0,0,0,0,-1,1210,1037,0,0
-7,-13,0,0,0,0,0,0,0,0,0,-1,1217,1037,0,0
0,-13,0,0,0,0,0,0,0,0,0,-1,1224,1037,0,0
7,-13,0,0,0,0,0,0,0,0,0,-1,1231,1037,0,0
14,-13,0,0,0,0,0,0,0,0,0,-1,1238,1037,0,0
21,-13,0,0,0,0,0,0,0,0,0,-1,1245,1037,0,0
28,-13,0,0,0,0,0,0,0,0,0,-1,1252,1037,0,0
35,-13,0,0,0,0,0,0,0,0,0,-1,1259,1037,0,0
42,-13,0,0,0,0,0,0,0,0,0,-1,1266,1037,0,0
49,-13,0,0,0,0,0,0,0,0,0,-1,1273,1037,0,0
56,-13,0,0,0,0,0,0,0,0,0,-1,1280,1037,0,0
63,-13,0,0,0,0,0,0,0,0,0,-1,1287,1037,0,0
70,-13,0,0,0,0,0,0,0,0,0,-1,1294,1037,0,0
77,-13,0,0,0,0,0,0,0,0,0,-1,1301,1037,0,0
84,-13,0,0,0,0,0,0,0,0,0,-1,1308,1037,0,0
91,-13,0,0,0,0,0,0,0,0,0,-1,1315,1037,0,0
98,-13,0,0,0,0,0,0,0,0,0,-1,1322,1037,0,0
105,-13,0,0,0,0,0,0,0,0,0,-1,1329,1037,0,0
112,-13,0,0,0,0,0,0,0,0,0,-1,1336,1037,0,0
119,-13,0,0,0,0,0,0,0,0,0,-1,1343,1037,0,0
126,-13,0,0,0,0,0,0,0,0,0,-1,1350,1037,0,0
133,-13,0,0,0,0,0,0,0,0,0,-1,1357,1037,0,0
140,-13,0,0,0,0,0,0,0,0,0,-1,1364,1037,0,0
147,-13,0,0,0,0,0,0,0,0,0,-1,1371,1037,0,0
154,-13,0,0,0,0,0,0,0,0,0,-1,1378,1037,0,0
161,-13,0,0,0,0,0,0,0,0,0,-1,1385,1037,0,0
168,-13,0,0,0,0,0,0,0,0,0,-1,1392,1037,0,0
175,-13,0,0,0,0,0,0,0,0,0,-1,1399,1037,0,0
182,-13,0,0,0,0,0,0,0,0,0,-1,1406,1037,0,0
189,-13,0,0,0,0,0,0,0,0,0,-1,1413,1037,0,0
196,-13,0,0,0,0,0,0,0,0,0,-1,1420,1037,0,0
203,-13,0,0,0,0,0,0,0,0,0,-1,1427,1037,0,0
210,-13,0,0,0,0,0,0,0,0,0,-1,1434,1037,0,0
217,-13,0,0,0,0,0,0,0,0,0,-1,1441,1037,0,0
224,-13,0,0,0,0,0,0,0,0,0,-1,1448,1037,0,0
231,-13,0,0,0,0,0,0,0,0,0,-1,1455,1037,0,0
238,-13,0,0,0,0,0,0,0,0,0,-1,1462,1037,0,0
245,-13,0,0,0,0,0,0,0,0,0,-1,1469,1037,0,0
252,-13,0,0,0,0,0,0,0,0,0,-1,1476,1037,0,0
259,-13,0,0,0,0,0,0,0,0,0,-1,1483,1037,0,0
266,-13,0,0,0,0,0,0,0,0,0,-1,1490,1037,0,0
273,-13,0,0,0,0,0,0,0,0,0,-1,1497,1037,0,0
280,-13,0,0,0,0,0,0,0,0,0,-1,1504,1037,0,0
287,-13,0,0,0,0,0,0,0,0,0,-1,1511,1037,0,0
294,-13,0,0,0,0,0,0,0,0,0,-1,1518,1037,0,0
301,-13,0,0,0,0,0,0,0,0,0,-1,1525,1037,0,0
308,-13,0,0,0,0,0,0,0,0,0,-1,1532,1037,0,0
315,-13,0,0,0,0,0,0,0,0,0,-1,1539,1037,0,0
322,-13,0,0,0,0,0,0,0,0,0,-1,1546,1037,0,0
329,-13,0,0,0,0,0,0,0,0,0,-1,1553,1037,0,0
336,-13,0,0,0,0,0,0,0,0,0,-1,1560,1037,0,0
343,-13,0,0,0,0,0,0,0,0,0,-1,1567,1037,0,0
350,-13,0,0,0,0,0,0,0,0,0,-1,1574,1037,0,0
357,-13,0,0,0,0,0,0,0,0,0,-1,1581,1037,0,0
364,-13,0,0,0,0,0,0,0,0,0,-1,1588,1037,0,0
371,-13,0,0,0,0,0,0,0,0,0,-1,1595,1037,0,0
378,-13,0,0,0,0,0,0,0,0,0,-1,1602,1037,0,0
385,-13,0,0,0,0,0,0,0,0,0,-1,1609,1037,0,0
392,-13,0,0,0,0,0,0,0,0,0,-1,1616,1037,0,0
399,-13,0,0,0,0,0,0,0,0,0,-1,1623,1037,0,0
406,-13,0,0,0,0,0,0,0,0,0,-1,1630,1037,0,0
413,-13,0,0,0,0,0,0,0,0,0,-1,1637,1037,0,0
420,-13,0,0,0,0,0,0,0,0,0,-1,1644,1037,0,0
427,-13,0,0,0,0,0,0,0,0,0,-1,1651,1037,0,0
434,-13,0,0,0,0,0,0,0,0,0,-1,1658,1037,0,0
441,-13,0,0,0,0,0,0,0,0,0,-1,1665,1037,0,0
448,-13,0,0,0,0,0,0,0,0,0,-1,1672,1037,0,0
455,-13,0,0,0,0,0,0,0,0,0,-1,1679,1037,0,0
462,-13,0,0,0,0,0,0,0,0,0,-1,1686,1037,0,0
469,-13,0,0,0,0,0,0,0,0,0,-1,1693,1037,0,0
476,-13,0,0,0,0,0,0,0,0,0,-1,1700,1037,0,0
483,-13,0,0,0,0,0,0,0,0,0,-1,1707,1037,0,0
490,-13,0,0,0,0,0,0,0,0,0,-1,1714,1037,0,0
497,-13,0,0,0,0,0,0,0,0,0,-1,1721,1037,0,0
504,-13,0,0,0,0,0,0,0,0,0,-1,1728,1037,0,0
511,-13,0,0,0,0,0,0,0,0,0,-1,1735,1037,0,0
518,-13,0,0,0,0,0,0,0,0,0,-1,1742,1037,0,0
525,-13,0,0,0,0,0,0,0,0,0,-1,1749,1037,0,0
532,-13,0,0,0,0,0,0,0,0,0,-1,1756,1037,0,0
539,-13,0,0,0,0,0,0,0,0,0,-1,1763,1037,0,0
546,-13,0,0,0,0,0,0,0,0,0,-1,1770,1037,0,0
553,-13,0,0,0,0,0,0,0,0,0,-1,1777,1037,0,0
560,-13,0,0,0,0,0,0,0,0,0,-1,1784,1037,0,0
567,-13,0,0,0,0,0,0,0,0,0,-1,1791,1037,0,0
574,-13,0,0,0,0,0,0,0,0,0,-1,1798,1037,0,0
581,-13,0,0,0,0,0,0,0,0,0,-1,1805,1037,0,0
588,-13,0,0,0,0,0,0,0,0,0,-1,1812,1037,0,0
595,-13,0,0,0,0,0,0,0,0,0,-1,1819,1037,0,0
602,-13,0,0,0,0,0,0,0,0,0,-1,1826,1037,0,0
609,-13,0,0,0,0,0,0,0,0,0,-1,1833,1037,0,0
616,-13,0,0,0,0,0,0,0,0,0,-1,1840,1037,0,0
623,-13,0,0,0,0,0,0,0,0,0,-1,1847,1037,0,0
630,-13,0,0,0,0,0,0,0,0,0,-1,1854,1037,0,0
637,-13,0,0,0,0,0,0,0,0,0,-1,1861,1037,0,0
644,-13,0,0,0,0,0,0,0,0,0,-1,1868,1037,0,0
651,-13,48.5706,2.64612,0.00698175,-0.000172844,0.00232152,0.00766901,-0.000860111,0.287822,0.00542217,0.0361482,1875,1037,48.5705,-2.64616
658,-13,48.639,2.72668,0.00421035,0.000635137,0.00166038,0.00486249,-1.70083e-05,0.374258,0.00324735,0.0453025,1882,1037,48.639,-2.7267
665,-13,48.6953,2.73352,0.00228044,0.00111708,0.00132418,0.00314506,0.000252456,0.578448,0.00201783,0.04718,1889,1037,48.6953,-2.73348
672,-13,48.6638,2.6001,0.00100713,0.00149619,0.00135227,0.00262586,-0.000122547,0.874847,0.00179282,0.0390944,1896,1037,48.6638,-2.60011
679,-13,48.486,2.68213,0.00020895,0.00176265,0.00166539,0.00282346,-0.000851864,1.00363,0.00222139,0.0375238,1903,1037,48.4859,-2.68216
686,-13,48.5029,2.68982,-0.000249943,0.00162295,0.00222993,0.00310509,-0.00173208,0.984188,0.00282999,0.0384246,1910,1037,48.5029,-2.68985
693,-13,48.5824,2.65759,-0.000388479,0.00123555,0.00283986,0.00337721,-0.00253014,0.92465,0.00342227,0.0373334,1917,1037,48.5824,-2.65757
700,-13,48.5212,2.51892,-0.000420582,0.000928712,0.00333988,0.00366141,-0.00315327,0.885056,0.0039381,0.0350913,1924,1037,48.5212,-2.51891
707,-13,48.5433,2.58362,-0.000744891,0.000763535,0.00362923,0.00371609,-0.00369745,0.887848,0.00428022,0.0324563,1931,1037,48.5433,-2.58358
714,-13,48.4979,2.87732,-0.00116479,0.000921254,0.00381868,0.0038368,-0.00408033,0.918715,0.00457168,0.0354179,1938,1037,48.4979,-2.87729
721,-13,48.3396,3.2196,0,0,0,0,0,0,0,-1,1945,1037,48.3396,-3.21966
728,-13,48.2506,5.96863,0,0,0,0,0,0,0,-1,1952,1037,48.2506,-5.96868
735,-13,48.2133,5.94373,-0.00303581,0.00278015,0.00389037,0.00472926,-0.00498492,1.10634,0.00560913,0.0285706,1959,1037,48.2132,-5.94378
742,-13,48.2089,5.89465,-0.00374071,0.0039067,0.00380654,0.00547841,-0.00531242,1.17922,0.00623033,0.0186474,1966,1037,48.2089,-5.89469
749,-13,48.2509,5.82104,-0.0044384,0.00525599,0.00384539,0.00659607,-0.00577847,1.23547,0.00714964,0.0253428,1973,1037,48.2508,-5.821
756,-13,48.2416,5.73401,-0.00514423,0.00716952,0.00403153,0.00837202,-0.00634673,1.28092,0.00852465,0.01742,1980,1037,48.2416,-5.73403
763,-13,48.1794,5.63452,-0.00535212,0.0093621,0.00463624,0.0107011,-0.00669109,1.28964,0.0101299,0.0242608,1987,1037,48.1794,-5.63446
770,-13,48.1152,5.59302,-0.00504128,0.0120298,0.00579687,0.0138122,-0.00682364,1.2725,0.0121397,0.0213805,1994,1037,48.1152,-5.59303
777,-13,47.998,5.49878,-0.00360589,0.0147178,0.00827548,0.0179019,-0.00679002,1.20349,0.0147292,0.0169594,2001,1037,47.998,-5.49882
784,-13,47.968,5.39624,-0.00110175,0.0167877,0.0119265,0.022751,-0.00706503,1.10715,0.0179908,0.0358868,2008,1037,47.9679,-5.39628
791,-13,47.9824,5.28076,0.00284599,0.017826,0.0173665,0.0292489,-0.0085769,0.98899,0.0229,0.0488282,2015,1037,47.9825,-5.28073
798,-13,48.5457,5.15503,0.0086641,0.017559,0.0246681,0.0381773,-0.0119542,0.874586,0.0302346,0.0458364,2022,1037,48.5456,-5.15498
805,-13,48.6855,5.24268,0,0,0,0,0,0,0,-1,2029,1037,48.6854,-5.24274
812,-13,48.5833,5.63147,0,0,0,0,0,0,0,-1,2036,1037,48.5833,-5.63146
-700,-20,-42.6482,1.72681,0,0,0,0,0,0,0,-1,524,1044,-42.6482,-1.72681
-693,-20,-39.908,0.771362,0,0,0,0,0,0,0,-1,531,1044,-39.908,-0.771365
-686,-20,-37.0788,-0.138916,0,0,0,0,0,0,0,-1,538,1044,-37.0788,0.138962
-679,-20,-35.283,2.84204,0,0,0,0,0,0,0,-1,545,1044,-35.283,-2.84199
-672,-20,-35.6871,2.53711,0.0659076,0.0268678,-0.0185203,0.0732954,0.0194799,-0.379563,0.0438376,0.0467919,552,1044,-35.6871,-2.53708
-665,-20,-35.7714,2.33154,0.0473229,0.0233692,-0.0130421,0.0530531,0.017639,-0.413975,0.031198,0.0453676,559,1044,-35.7714,-2.33156
-658,-20,-35.8573,2.11401,0.0322388,0.0202619,-0.00890282,0.0369799,0.0155209,-0.489332,0.0214419,0.0469414,566,1044,-35.8573,-2.11403
-651,-20,-36.0287,2.32178,0.0206139,0.0172931,-0.0059522,0.025133,0.0127741,-0.649377,0.0145112,0.04237,573,1044,-36.0287,-2.32173
-644,-20,-35.977,2.46838,0.0122367,0.0143231,-0.00361959,0.0170468,0.009513,-0.925696,0.00986407,0.0291911,580,1044,-35.977,-2.46835
-637,-20,-36.0394,2.63489,0.00496927,0.0111283,-0.00252994,0.0120343,0.00406331,-1.22693,0.00706905,0.0198145,587,1044,-36.0393,-2.63483
-630,-20,-36.1275,2.82202,0.0003569,0.0082301,-0.00218877,0.00879767,-0.00021067,-1.31707,0.00593658,0.0165775,594,1044,-36.1275,-2.82198
-623,-20,-36.1688,2.99976,-0.000821141,0.00562705,-0.0029938,0.00680268,-0.00199678,-1.19661,0.00532696,0.01492,601,1044,-36.1688,-2.99979
-616,-20,-36.1547,3.13977,-0.00103498,0.00411843,-0.00356233,0.00593827,-0.00285482,-1.0985,0.00517969,0.0144649,608,1044,-36.1548,-3.13974
-609,-20,-36.1721,3.26196,-0.000655104,0.00246041,-0.00417278,0.00535672,-0.00355141,-0.964044,0.0051782,0.0154915,615,1044,-36.1721,-3.26191
-602,-20,-36.1565,3.36926,-8.20216e-05,0.00100207,-0.00456379,0.00505589,-0.00413585,-0.844507,0.00531571,0.0129669,622,1044,-36.1565,-3.36922
-595,-20,-36.1375,3.45056,0.000407249,0.000133503,-0.00478368,0.00505601,-0.00451526,-0.771096,0.00552891,0.0299365,629,1044,-36.1375,-3.4506
-588,-20,-36.0499,3.27063,0,0,0,0,0,0,0,-1,636,1044,-36.0499,-3.27065
-581,-20,-36.0052,0.780884,0.00176555,-0.000679826,-0.00490803,0.0056009,-0.00451517,-0.663323,0.00585172,0.0217909,643,1044,-36.0052,-0.780847
-574,-20,-36.0702,0.997803,0.00211948,-0.000704965,-0.00462769,0.00554564,-0.00413112,-0.637302,0.00560674,0.0348003,650,1044,-36.0702,-0.99776
-567,-20,-36.1232,1.26233,0.0022982,-0.000465528,-0.00411013,0.00525255,-0.00341987,-0.62323,0.00504415,0.0428075,657,1044,-36.1232,-1.26238
-560,-20,-36.0676,1.0741,0.00244251,-1.54085e-05,-0.00334055,0.00477299,-0.00234589,-0.609136,0.00418895,0.0444743,664,1044,-36.0676,-1.07408
-553,-20,-35.9718,0.822998,0.00265497,0.000489432,-0.0023571,0.0041661,-0.0010217,-0.570091,0.00317327,0.0403335,671,1044,-35.9718,-0.822952
-546,-20,-35.962,0.857788,0.00312788,0.000797123,-0.0012311,0.00365771,0.000267295,-0.406409,0.00235444,0.0375267,678,1044,-35.962,-0.857804
-539,-20,-35.9615,0.995972,0.00386514,0.000679419,-0.000527975,0.00395036,0.000594196,-0.160034,0.00245955,0.0412387,685,1044,-35.9615,-0.996016
-532,-20,-36.053,0.859497,0.0052913,0.000798878,-0.000617808,0.00537471,0.000715464,-0.134204,0.00337006,0.0409509,692,1044,-36.053,-0.8595
-525,-20,0,0,0,0,0,0,0,0,0,-1,699,1044,0,0
-518,-20,0,0,0,0,0,0,0,0,0,-1,706,1044,0,0
-511,-20,0,0,0,0,0,0,0,0,0,-1,713,1044,0,0
-504,-20,0,0,0,0,0,0,0,0,0,-1,720,1044,0,0
-497,-20,0,0,0,0,0,0,0,0,0,-1,727,1044,0,0
-490,-20,0,0,0,0,0,0,0,0,0,-1,734,1044,0,0
-483,-20,0,0,0,0,0,0,0,0,0,-1,741,1044,0,0
-476,-20,0,0,0,0,0,0,0,0,0,-1,748,1044,0,0
-469,-20,0,0,0,0,0,0,0,0,0,-1,755,1044,0,0
-462,-20,0,0,0,0,0,0,0,0,0,-1,762,1044,0,0
-455,-20,0,0,0,0,0,0,0,0,0,-1,769,1044,0,0
-448,-20,0,0,0,0,0,0,0,0,0,-1,776,1044,0,0
-441,-20,0,0,0,0,0,0,0,0,0,-1,783,1044,0,0
-434,-20,0,0,0,0,0,0,0,0,0,-1,790,1044,0,0
-427,-20,0,0,0,0,0,0,0,0,0,-1,797,1044,0,0
-420,-20,0,0,0,0,0,0,0,0,0,-1,804,1044,0,0
-413,-20,0,0,0,0,0,0,0,0,0,-1,811,1044,0,0
-406,-20,0,0,0,0,0,0,0,0,0,-1,818,1044,0,0
-399,-20,0,0,0,0,0,0,0,0,0,-1,825,1044,0,0
-392,-20,0,0,0,0,0,0,0,0,0,-1,832,1044,0,0
-385,-20,0,0,0,0,0,0,0,0,0,-1,839,1044,0,0
-378,-20,0,0,0,0,0,0,0,0,0,-1,846,1044,0,0
-371,-20,0,0,0,0,0,0,0,0,0,-1,853,1044,0,0
-364,-20,0,0,0,0,0,0,0,0,0,-1,860,1044,0,0
-357,-20,0,0,0,0,0,0,0,0,0,-1,867,1044,0,0
-350,-20,0,0,0,0,0,0,0,0,0,-1,874,1044,0,0
-343,-20,0,0,0,0,0,0,0,0,0,-1,881,1044,0,0
-336,-20,0,0,0,0,0,0,0,0,0,-1,888,1044,0,0
-329,-20,0,0,0,0,0,0,0,0,0,-1,895,1044,0,0
-322,-20,0,0,0,0,0,0,0,0,0,-1,902,1044,0,0
-315,-20,0,0,0,0,0,0,0,0,0,-1,909,1044,0,0
-308,-20,0,0,0,0,0,0,0,0,0,-1,916,1044,0,0
-301,-20,0,0,0,0,0,0,0,0,0,-1,923,1044,0,0
-294,-20,0,0,0,0,0,0,0,0,0,-1,930,1044,0,0
-287,-20,0,0,0,0,0,0,0,0,0,-1,937,1044,0,0
-280,-20,0,0,0,0,0,0,0,0,0,-1,944,1044,0,0
-273,-20,0,0,0,0,0,0,0,0,0,-1,951,1044,0,0
-266,-20,0,0,0,0,0,0,0,0,0,-1,958,1044,0,0
-259,-20,0,0,0,0,0,0,0,0,0,-1,965,1044,0,0
-252,-20,0,0,0,0,0,0,0,0,0,-1,972,1044,0,0
-245,-20,0,0,0,0,0,0,0,0,0,-1,979,1044,0,0
-238,-20,0,0,0,0,0,0,0,0,0,-1,986,1044,0,0
-231,-20,0,0,0,0,0,0,0,0,0,-1,993,1044,0,0
-224,-20,0,0,0,0,0,0,0,0,0,-1,1000,1044,0,0
-217,-20,0,0,0,0,0,0,0,0,0,-1,1007,1044,0,0
-210,-20,0,0,0,0,0,0,0,0,0,-1,1014,1044,0,0
-203,-20,0,0,0,0,0,0,0,0,0,-1,1021,1044,0,0
-196,-20,0,0,0,0,0,0,0,0,0,-1,1028,1044,0,0
-189,-20,0,0,0,0,0,0,0,0,0,-1,1035,1044,0,0
-182,-20,0,0,0,0,0,0,0,0,0,-1,1042,1044,0,0
-175,-20,0,0,0,0,0,0,0,0,0,-1,1049,1044,0,0
-168,-20,0,0,0,0,0,0,0,0,0,-1,1056,1044,0,0
-161,-20,0,0,0,0,0,0,0,0,0,-1,1063,1044,0,0
-154,-20,0,0,0,0,0,0,0,0,0,-1,1070,1044,0,0
-147,-20,0,0,0,0,0,0,0,0,0,-1,1077,1044,0,0
-140,-20,0,0,0,0,0,0,0,0,0,-1,1084,1044,0,0
-133,-20,0,0,0,0,0,0,0,0,0,-1,1091,1044,0,0
-126,-20,0,0,0,0,0,0,0,0,0,-1,1098,1044,0,0
-119,-20,0,0,0,0,0,0,0,0,0,-1,1105,1044,0,0
-112,-20,0,0,0,0,0,0,0,0,0,-1,1112,1044,0,0
-105,-20,0,0,0,0,0,0,0,0,0,-1,1119,1044,0,0
-98,-20,0,0,0,0,0,0,0,0,0,-1,1126,1044,0,0
-91,-20,0,0,0,0,0,0,0,0,0,-1,1133,1044,0,0
-84,-20,0,0,0,0,0,0,0,0,0,-1,1140,1044,0,0
-77,-20,0,0,0,0,0,0,0,0,0,-1,1147,1044,0,0
-70,-20,0,0,0,0,0,0,0,0,0,-1,1154,1044,0,0
-63,-20,0,0,0,0,0,0,0,0,0,-1,1161,1044,0,0
-56,-20,0,0,0,0,0,0,0,0,0,-1,1168,1044,0,0
-49,-20,0,0,0,0,0,0,0,0,0,-1,1175,1044,0,0
-42,-20,0,0,0,0,0,0,0,0,0,-1,1182,1044,0,0
-35,-20,0,0,0,0,0,0,0,0,0,-1,1189,1044,0,0
-28,-20,0,0,0,0,0,0,0,0,0,-1,1196,1044,0,0
-21,-20,0,0,0,0,0,0,0,0,0,-1,1203,1044,0,0
-14,-20,0,0,0,0,0,0,0,0,0,-1,1210,1044,0,0
-7,-20,0,0,0,0,0,0,0,0,0,-1,1217,1044,0,0
0,-20,0,0,0,0,0,0,0,0,0,-1,1224,1044,0,0
7,-20,0,0,0,0,0,0,0,0,0,-1,1231,1044,0,0
14,-20,0,0,0,0,0,0,0,0,0,-1,1238,1044,0,0
21,-20,0,0,0,0,0,0,0,0,0,-1,1245,1044,0,0
28,-20,0,0,0,0,0,0,0,0,0,-1,1252,1044,0,0
35,-20,0,0,0,0,0,0,0,0,0,-1,1259,1044,0,0
42,-20,0,0,0,0,0,0,0,0,0,-1,1266,1044,0,0
49,-20,0,0,0,0,0,0,0,0,0,-1,1273,1044,0,0
56,-20,0,0,0,0,0,0,0,0,0,-1,1280,1044,0,0
63,-20,0,0,0,0,0,0,0,0,0,-1,1287,1044,0,0
70,-20,0,0,0,0,0,0,0,0,0,-1,1294,1044,0,0
77,-20,0,0,0,0,0,0,0,0,0,-1,1301,1044,0,0
84,-20,0,0,0,0,0,0,0,0,0,-1,1308,1044,0,0
91,-20,0,0,0,0,0,0,0,0,0,-1,1315,1044,0,0
98,-20,0,0,0,0,0,0,0,0,0,-1,1322,1044,0,0
105,-20,0,0,0,0,0,0,0,0,0,-1,1329,1044,0,0
112,-20,0,0,0,0,0,0,0,0,0,-1,1336,1044,0,0
119,-20,0,0,0,0,0,0,0,0,0,-1,1343,1044,0,0
126,-20,0,0,0,0,0,0,0,0,0,-1,1350,1044,0,0
133,-20,0,0,0,0,0,0,0,0,0,-1,1357,1044,0,0
140,-20,0,0,0,0,0,0,0,0,0,-1,1364,1044,0,0
147,-20,0,0,0,0,0,0,0,0,0,-1,1371,1044,0,0
154,-20,0,0,0,0,0,0,0,0,0,-1,1378,1044,0,0
161,-20,0,0,0,0,0,0,0,0,0,-1,1385,1044,0,0
168,-20,0,0,0,0,0,0,0,0,0,-1,1392,1044,0,0
175,-20,0,0,0,0,0,0,0,0,0,-1,1399,1044,0,0
182,-20,0,0,0,0,0,0,0,0,0,-1,1406,1044,0,0
189,-20,0,0,0,0,0,0,0,0,0,-1,1413,1044,0,0
196,-20,0,0,0,0,0,0,0,0,0,-1,1420,1044,0,0
203,-20,0,0,0,0,0,0,0,0,0,-1,1427,1044,0,0
210,-20,0,0,0,0,0,0,0,0,0,-1,1434,1044,0,0
217,-20,0,0,0,0,0,0,0,0,0,-1,1441,1044,0,0
224,-20,0,0,0,0,0,0,0,0,0,-1,1448,1044,0,0
231,-20,0,0,0,0,0,0,0,0,0,-1,1455,1044,0,0
238,-20,0,0,0,0,0,0,0,0,0,-1,1462,1044,0,0
245,-20,0,0,0,0,0,0,0,0,0,-1,1469,1044,0,0
252,-20,0,0,0,0,0,0,0,0,0,-1,1476,1044,0,0
259,-20,0,0,0,0,0,0,0,0,0,-1,1483,1044,0,0
266,-20,0,0,0,0,0,0,0,0,0,-1,1490,1044,0,0
273,-20,0,0,0,0,0,0,0,0,0,-1,1497,1044,0,0
280,-20,0,0,0,0,0,0,0,0,0,-1,1504,1044,0,0
287,-20,0,0,0,0,0,0,0,0,0,-1,1511,1044,0,0
294,-20,0,0,0,0,0,0,0,0,0,-1,1518,1044,0,0
301,-20,0,0,0,0,0,0,0,0,0,-1,1525,1044,0,0
308,-20,0,0,0,0,0,0,0,0,0,-1,1532,1044,0,0
315,-20,0,0,0,0,0,0,0,0,0,-1,1539,1044,0,0
322,-20,0,0,0,0,0,0,0,0,0,-1,1546,1044,0,0
329,-20,0,0,0,0,0,0,0,0,0,-1,1553,1044,0,0
336,-20,0,0,0,0,0,0,0,0,0,-1,1560,1044,0,0
343,-20,0,0,0,0,0,0,0,0,0,-1,1567,1044,0,0
350,-20,0,0,0,0,0,0,0,0,0,-1,1574,1044,0,0
357,-20,0,0,0,0,0,0,0,0,0,-1,1581,1044,0,0
364,-20,0,0,0,0,0,0,0,0,0,-1,1588,1044,0,0
371,-20,0,0,0,0,0,0,0,0,0,-1,1595,1044,0,0
378,-20,0,0,0,0,0,0,0,0,0,-1,1602,1044,0,0
385,-20,0,0,0,0,0,0,0,0,0,-1,1609,1044,0,0
392,-20,0,0,0,0,0,0,0,0,0,-1,1616,1044,0,0
399,-20,0,0,0,0,0,0,0,0,0,-1,1623,1044,0,0
406,-20,0,0,0,0,0,0,0,0,0,-1,1630,1044,0,0
413,-20,0,0,0,0,0,0,0,0,0,-1,1637,1044,0,0
420,-20,0,0,0,0,0,0,0,0,0,-1,1644,1044,0,0
427,-20,0,0,0,0,0,0,0,0,0,-1,1651,1044,0,0
434,-20,0,0,0,0,0,0,0,0,0,-1,1658,1044,0,0
441,-20,0,0,0,0,0,0,0,0,0,-1,1665,1044,0,0
448,-20,0,0,0,0,0,0,0,0,0,-1,1672,1044,0,0
455,-20,0,0,0,0,0,0,0,0,0,-1,1679,1044,0,0
462,-20,0,0,0,0,0,0,0,0,0,-1,1686,1044,0,0
469,-20,0,0,0,0,0,0,0,0,0,-1,1693,1044,0,0
476,-20,0,0,0,0,0,0,0,0,0,-1,1700,1044,0,0
483,-20,0,0,0,0,0,0,0,0,0,-1,1707,1044,0,0
490,-20,0,0,0,0,0,0,0,0,0,-1,1714,1044,0,0
497,-20,0,0,0,0,0,0,0,0,0,-1,1721,1044,0,0
504,-20,0,0,0,0,0,0,0,0,0,-1,1728,1044,0,0
511,-20,0,0,0,0,0,0,0,0,0,-1,1735,1044,0,0
518,-20,0,0,0,0,0,0,0,0,0,-1,1742,1044,0,0
525,-20,0,0,0,0,0,0,0,0,0,-1,1749,1044,0,0
532,-20,0,0,0,0,0,0,0,0,0,-1,1756,1044,0,0
539,-20,0,0,0,0,0,0,0,0,0,-1,1763,1044,0,0
546,-20,0,0,0,0,0,0,0,0,0,-1,1770,1044,0,0
553,-20,0,0,0,0,0,0,0,0,0,-1,1777,1044,0,0
560,-20,0,0,0,0,0,0,0,0,0,-1,1784,1044,0,0
567,-20,0,0,0,0,0,0,0,0,0,-1,1791,1044,0,0
574,-20,0,0,0,0,0,0,0,0,0,-1,1798,1044,0,0
581,-20,0,0,0,0,0,0,0,0,0,-1,1805,1044,0,0
588,-20,0,0,0,0,0,0,0,0,0,-1,1812,1044,0,0
595,-20,0,0,0,0,0,0,0,0,0,-1,1819,1044,0,0
602,-20,0,0,0,0,0,0,0,0,0,-1,1826,1044,0,0
609,-20,0,0,0,0,0,0,0,0,0,-1,1833,1044,0,0
616,-20,0,0,0,0,0,0,0,0,0,-1,1840,1044,0,0
623,-20,0,0,0,0,0,0,0,0,0,-1,1847,1044,0,0
630,-20,0,0,0,0,0,0,0,0,0,-1,1854,1044,0,0
637,-20,0,0,0,0,0,0,0,0,0,-1,1861,1044,0,0
644,-20,0,0,0,0,0,0,0,0,0,-1,1868,1044,0,0
651,-20,48.5165,2.5929,0,0,0,0,0,0,0,-1,1875,1044,48.5165,-2.5929
658,-20,48.6273,2.93787,0,0,0,0,0,0,0,-1,1882,1044,48.6273,-2.93791
665,-20,48.5887,2.82886,0.00236904,0.000931153,0.000564459,0.00256415,0.000736043,0.332802,0.00152451,0.0433754,1889,1044,48.5888,-2.82883
672,-20,48.5439,2.7063,0.00114746,0.00134116,0.000765455,0.00201587,0.000472757,0.848327,0.00121732,0.0262428,1896,1044,48.544,-2.70635
679,-20,48.4727,2.62305,0.000362747,0.00164022,0.00117444,0.00233838,-0.00033541,1.03446,0.00168191,0.0272963,1903,1044,48.4727,-2.62299
686,-20,48.4187,2.53052,-0.000144244,0.00151983,0.00178124,0.00265377,-0.00127819,1.00389,0.00231597,0.0361932,1910,1044,48.4187,-2.53053
693,-20,48.4594,2.39563,-0.000363277,0.00113886,0.00241006,0.00291217,-0.00213658,0.936449,0.00292634,0.0397476,1917,1044,48.4594,-2.39567
700,-20,48.4297,2.49561,-0.000453075,0.000823335,0.00294129,0.00319487,-0.00282461,0.892233,0.00347753,0.0377494,1924,1044,48.4296,-2.49555
707,-20,48.4985,2.55603,-0.000805333,0.000635551,0.00325849,0.00325229,-0.00342208,0.894196,0.00385387,0.0336143,1931,1044,48.4985,-2.55605
714,-20,48.5153,2.77637,-0.00124647,0.000778885,0.00348681,0.0033971,-0.00386468,0.926726,0.00419549,0.0342228,1938,1044,48.5153,-2.77632
721,-20,48.4109,2.8717,0,0,0,0,0,0,0,-1,1945,1044,48.4109,-2.87165
728,-20,48.5465,6.00085,0,0,0,0,0,0,0,-1,1952,1044,48.5465,-6.00088
735,-20,48.282,5.96375,-0.00312541,0.00242094,0.00367484,0.00425156,-0.00495603,1.10863,0.00532119,0.0296822,1959,1044,48.282,-5.9637
742,-20,48.0779,5.84937,-0.00379269,0.00351116,0.00364284,0.00501742,-0.00529895,1.17872,0.0059569,0.0230919,1966,1044,48.0779,-5.84932
749,-20,48.1477,5.77771,-0.00441955,0.00479235,0.00369797,0.00609316,-0.00572036,1.23255,0.00682167,0.0256059,1973,1044,48.1477,-5.77772
756,-20,48.1421,5.69653,-0.00501942,0.00650563,0.003897,0.00769963,-0.00621343,1.27349,0.00804797,0.0175623,1980,1044,48.1421,-5.69659
763,-20,48.0598,5.59326,-0.00513184,0.00853376,0.00452762,0.00989769,-0.00649578,1.27819,0.00953247,0.0249805,1987,1044,48.0598,-5.59324
770,-20,48.0129,5.57593,-0.00474896,0.0109798,0.00565288,0.0128006,-0.0065698,1.25918,0.0113747,0.0219464,1994,1044,48.0129,-5.57597
777,-20,47.9165,5.40735,-0.0032527,0.0133806,0.00802833,0.0166234,-0.0064955,1.18692,0.013768,0.0152906,2001,1044,47.9166,-5.40731
784,-20,47.894,5.3186,-0.000772932,0.0150894,0.0115054,0.0211324,-0.00681591,1.08717,0.0168269,0.0193289,2008,1044,47.894,-5.31863
791,-20,47.9644,5.14771,0.00304693,0.0156471,0.0167304,0.0272243,-0.00853026,0.96547,0.0215629,0.035432,2015,1044,47.9644,-5.14766
798,-20,48.1406,5.13184,0.00866195,0.0147001,0.0238916,0.0357626,-0.0124006,0.848248,0.0288769,0.0434214,2022,1044,48.1407,-5.13186
805,-20,48.2449,5.3075,0.0163972,0.0120922,0.0332989,0.047613,-0.0191237,0.753122,0.0396835,0.0429278,2029,1044,48.2448,-5.30744
812,-20,48.4026,5.47559,0.0258434,0.00713597,0.0453278,0.0627726,-0.0297932,0.683648,0.0545618,0.0437792,2036,1044,48.4025,-5.4756
-700,-27,-38.033,5.97156,0,0,0,0,0,0,0,-1,524,1051,-38.033,-5.9716
-693,-27,-40.1058,1.05127,0,0,0,0,0,0,0,-1,531,1051,-40.1058,-1.05121
-686,-27,-35.0292,3.10889,0,0,0,0,0,0,0,-1,538,1051,-35.0292,-3.10891
-679,-27,-35.2224,2.99792,0,0,0,0,0,0,0,-1,545,1051,-35.2223,-2.99791
-672,-27,-35.4948,2.90674,0.0507153,0.02096,-0.0218516,0.0622732,0.00940216,-0.48652,0.0387634,0.0437513,552,1051,-35.4948,-2.9068
-665,-27,-35.5649,2.67725,0.0358529,0.0193299,-0.0155541,0.0452034,0.0099794,-0.541271,0.0274213,0.0430378,559,1051,-35.5649,-2.67724
-658,-27,-35.4691,2.40186,0.0239866,0.0176149,-0.010757,0.0320196,0.00958188,-0.641432,0.0189767,0.0444752,566,1051,-35.4691,-2.40189
-651,-27,-35.6224,2.29309,0.0150147,0.0156291,-0.00730922,0.0226375,0.00800619,-0.8064,0.013255,0.0369152,573,1051,-35.6224,-2.29312
-644,-27,-35.8182,2.36072,0.00872987,0.0132815,-0.00459083,0.0161297,0.00588172,-1.01551,0.0094255,0.0177318,580,1051,-35.8182,-2.36076
-637,-27,-35.8678,2.49634,0.00315519,0.0105972,-0.00313155,0.0117396,0.00201281,-1.221,0.00724921,0.0139358,587,1051,-35.8678,-2.49639
-630,-27,-35.961,2.80493,-0.000219216,0.0079167,-0.00256399,0.00865731,-0.000959827,-1.2896,0.00611664,0.018657,594,1051,-35.961,-2.80494
-623,-27,-35.9838,2.9978,-0.00093712,0.00543743,-0.00315398,0.00673416,-0.00223385,-1.18072,0.00539061,0.0169211,601,1051,-35.9838,-2.99776
-616,-27,-35.978,3.15039,-0.00100887,0.00395439,-0.00350261,0.0057654,-0.00281989,-1.0936,0.00505303,0.014068,608,1051,-35.9779,-3.15036
-609,-27,-35.9654,3.31543,-0.000607421,0.00226012,-0.00388068,0.00496343,-0.00331073,-0.962352,0.00480875,0.0139429,615,1051,-35.9654,-3.31539
-602,-27,-35.9323,3.48267,-0.000118871,0.000775528,-0.00417136,0.0045236,-0.00386694,-0.838798,0.00484922,0.012909,622,1051,-35.9323,-3.48271
-595,-27,-35.9637,3.61377,0.000281763,-3.40159e-05,-0.00428099,0.00440777,-0.00416003,-0.766966,0.00494731,0.0157532,629,1051,-35.9637,-3.6138
-588,-27,-35.9907,0.886841,0,0,0,0,0,0,0,-1,636,1051,-35.9907,-0.886837
-581,-27,-35.9923,0.786011,0.00152338,-0.000742767,-0.00415698,0.00469894,-0.00391833,-0.652345,0.00498199,0.0199292,643,1051,-35.9923,-0.786056
-574,-27,-36.0045,0.716431,0.00187477,-0.000747452,-0.00383922,0.00462058,-0.00349326,-0.620854,0.00469957,0.0326105,650,1051,-36.0045,-0.716433
-567,-27,-36.0513,0.752319,0.00209588,-0.000488729,-0.00330466,0.00435193,-0.00274478,-0.599013,0.00413217,0.0436638,657,1051,-36.0513,-0.752356
-560,-27,-35.9687,1.00488,0.00230194,-3.93418e-05,-0.00255414,0.00394093,-0.00167833,-0.570518,0.00333079,0.0482935,664,1051,-35.9687,-1.00485
-553,-27,-35.8338,0.652954,0.00261668,0.000436441,-0.00162357,0.00348215,-0.000429035,-0.489751,0.00247686,0.040132,671,1051,-35.8338,-0.653008
-546,-27,-35.8131,0.701904,0.00322975,0.000672732,-0.000593398,0.00336075,0.000541735,-0.217272,0.00208353,0.040062,678,1051,-35.8131,-0.701963
-539,-27,-35.8262,0.852661,0.00412314,0.000355608,-3.28196e-05,0.00412343,0.000355322,-0.00871026,0.0026385,0.0440909,685,1051,-35.8262,-0.852635
-532,-27,-35.9255,0.967529,0.00549384,0.000224934,-2.25908e-05,0.00549394,0.000224837,-0.00428746,0.00359003,0.0431371,692,1051,-35.9255,-0.967525
-525,-27,0,0,0,0,0,0,0,0,0,-1,699,1051,0,0
-518,-27,0,0,0,0,0,0,0,0,0,-1,706,1051,0,0
-511,-27,0,0,0,0,0,0,0,0,0,-1,713,1051,0,0
-504,-27,0,0,0,0,0,0,0,0,0,-1,720,1051,0,0
-497,-27,0,0,0,0,0,0,0,0,0,-1,727,1051,0,0
-490,-27,0,0,0,0,0,0,0,0,0,-1,734,1051,0,0
-483,-27,0,0,0,0,0,0,0,0,0,-1,741,1051,0,0
-476,-27,0,0,0,0,0,0,0,0,0,-1,748,1051,0,0
-469,-27,0,0,0,0,0,0,0,0,0,-1,755,1051,0,0
-462,-27,0,0,0,0,0,0,0,0,0,-1,762,1051,0,0
-455,-27,0,0,0,0,0,0,0,0,0,-1,769,1051,0,0
-448,-27,0,0,0,0,0,0,0,0,0,-1,776,1051,0,0
-441,-27,0,0,0,0,0,0,0,0,0,-1,783,1051,0,0
-434,-27,0,0,0,0,0,0,0,0,0,-1,790,1051,0,0
-427,-27,0,0,0,0,0,0,0,0,0,-1,797,1051,0,0
-420,-27,0,0,0,0,0,0,0,0,0,-1,804,1051,0,0
-413,-27,0,0,0,0,0,0,0,0,0,-1,811,1051,0,0
-406,-27,0,0,0,0,0,0,0,0,0,-1,818,1051,0,0
-399,-27,0,0,0,0,0,0,0,0,0,-1,825,1051,0,0
-392,-27,0,0,0,0,0,0,0,0,0,-1,832,1051,0,0
-385,-27,0,0,0,0,0,0,0,0,0,-1,839,1051,0,0
-378,-27,0,0,0,0,0,0,0,0,0,-1,846,1051,0,0
-371,-27,0,0,0,0,0,0,0,0,0,-1,853,1051,0,0
-364,-27,0,0,0,0,0,0,0,0,0,-1,860,1051,0,0
-357,-27,0,0,0,0,0,0,0,0,0,-1,867,1051,0,0
-350,-27,0,0,0,0,0,0,0,0,0,-1,874,1051,0,0
-343,-27,0,0,0,0,0,0,0,0,0,-1,881,1051,0,0
-336,-27,0,0,0,0,0,0,0,0,0,-1,888,1051,0,0
-329,-27,0,0,0,0,0,0,0,0,0,-1,895,1051,0,0
-322,-27,0,0,0,0,0,0,0,0,0,-1,902,1051,0,0
-315,-27,0,0,0,0,0,0,0,0,0,-1,909,1051,0,0
-308,-27,0,0,0,0,0,0,0,0,0,-1,916,1051,0,0
-301,-27,0,0,0,0,0,0,0,0,0,-1,923,1051,0,0
-294,-27,0,0,0,0,0,0,0,0,0,-1,930,1051,0,0
-287,-27,0,0,0,0,0,0,0,0,0,-1,937,1051,0,0
-280,-27,0,0,0,0,0,0,0,0,0,-1,944,1051,0,0
-273,-27,0,0,0,0,0,0,0,0,0,-1,951,1051,0,0
-266,-27,0,0,0,0,0,0,0,0,0,-1,958,1051,0,0
-259,-27,0,0,0,0,0,0,0,0,0,-1,965,1051,0,0
-252,-27,0,0,0,0,0,0,0,0,0,-1,972,1051,0,0
-245,-27,0,0,0,0,0,0,0,0,0,-1,979,1051,0,0
-238,-27,0,0,0,0,0,0,0,0,0,-1,986,1051,0,0
-231,-27,0,0,0,0,0,0,0,0,0,-1,993,1051,0,0
-224,-27,0,0,0,0,0,0,0,0,0,-1,1000,1051,0,0
-217,-27,0,0,0,0,0,0,0,0,0,-1,1007,1051,0,0
-210,-27,0,0,0,0,0,0,0,0,0,-1,1014,1051,0,0
-203,-27,0,0,0,0,0,0,0,0,0,-1,1021,1051,0,0
-196,-27,0,0,0,0,0,0,0,0,0,-1,1028,1051,0,0
-189,-27,0,0,0,0,0,0,0,0,0,-1,1035,1051,0,0
-182,-27,0,0,0,0,0,0,0,0,0,-1,1042,1051,0,0
-175,-27,0,0,0,0,0,0,0,0,0,-1,1049,1051,0,0
-168,-27,0,0,0,0,0,0,0,0,0,-1,1056,1051,0,0
-161,-27,0,0,0,0,0,0,0,0,0,-1,1063,1051,0,0
-154,-27,0,0,0,0,0,0,0,0,0,-1,1070,1051,0,0
-147,-27,0,0,0,0,0,0,0,0,0,-1,1077,1051,0,0
-140,-27,0,0,0,0,0,0,0,0,0,-1,1084,1051,0,0
-133,-27,0,0,0,0,0,0,0,0,0,-1,1091,1051,0,0
-126,-27,0,0,0,0,0,0,0,0,0,-1,1098,1051,0,0
-119,-27,0,0,0,0,0,0,0,0,0,-1,1105,1051,0,0
-112,-27,0,0,0,0,0,0,0,0,0,-1,1112,1051,0,0
-105,-27,0,0,0,0,0,0,0,0,0,-1,1119,1051,0,0
-98,-27,0,0,0,0,0,0,0,0,0,-1,1126,1051,0,0
-91,-27,0,0,0,0,0,0,0,0,0,-1,1133,1051,0,0
-84,-27,0,0,0,0,0,0,0,0,0,-1,1140,1051,0,0
-77,-27,0,0,0,0,0,0,0,0,0,-1,1147,1051,0,0
-70,-27,0,0,0,0,0,0,0,0,0,-1,1154,1051,0,0
-63,-27,0,0,0,0,0,0,0,0,0,-1,1161,1051,0,0
-56,-27,0,0,0,0,0,0,0,0,0,-1,1168,1051,0,0
-49,-27,0,0,0,0,0,0,0,0,0,-1,1175,1051,0,0
-42,-27,0,0,0,0,0,0,0,0,0,-1,1182,1051,0,0
-35,-27,0,0,0,0,0,0,0,0,0,-1,1189,1051,0,0
-28,-27,0,0,0,0,0,0,0,0,0,-1,1196,1051,0,0
-21,-27,0,0,0,0,0,0,0,0,0,-1,1203,1051,0,0
-14,-27,0,0,0,0,0,0,0,0,0,-1,1210,1051,0,0
-7,-27,0,0,0,0,0,0,0,0,0,-1,1217,1051,0,0
0,-27,0,0,0,0,0,0,0,0,0,-1,1224,1051,0,0
7,-27,0,0,0,0,0,0,0,0,0,-1,1231,1051,0,0
14,-27,0,0,0,0,0,0,0,0,0,-1,1238,1051,0,0
21,-27,0,0,0,0,0,0,0,0,0,-1,1245,1051,0,0
28,-27,0,0,0,0,0,0,0,0,0,-1,1252,1051,0,0
35,-27,0,0,0,0,0,0,0,0,0,-1,1259,1051,0,0
42,-27,0,0,0,0,0,0,0,0,0,-1,1266,1051,0,0
49,-27,0,0,0,0,0,0,0,0,0,-1,1273,1051,0,0
56,-27,0,0,0,0,0,0,0,0,0,-1,1280,1051,0,0
63,-27,0,0,0,0,0,0,0,0,0,-1,1287,1051,0,0
70,-27,0,0,0,0,0,0,0,0,0,-1,1294,1051,0,0
77,-27,0,0,0,0,0,0,0,0,0,-1,1301,1051,0,0
84,-27,0,0,0,0,0,0,0,0,0,-1,1308,1051,0,0
91,-27,0,0,0,0,0,0,0,0,0,-1,1315,1051,0,0
98,-27,0,0,0,0,0,0,0,0,0,-1,1322,1051,0,0
105,-27,0,0,0,0,0,0,0,0,0,-1,1329,1051,0,0
112,-27,0,0,0,0,0,0,0,0,0,-1,1336,1051,0,0
119,-27,0,0,0,0,0,0,0,0,0,-1,1343,1051,0,0
126,-27,0,0,0,0,0,0,0,0,0,-1,1350,1051,0,0
133,-27,0,0,0,0,0,0,0,0,0,-1,1357,1051,0,0
140,-27,0,0,0,0,0,0,0,0,0,-1,1364,1051,0,0
147,-27,0,0,0,0,0,0,0,0,0,-1,1371,1051,0,0
154,-27,0,0,0,0,0,0,0,0,0,-1,1378,1051,0,0
161,-27,0,0,0,0,0,0,0,0,0,-1,1385,1051,0,0
168,-27,0,0,0,0,0,0,0,0,0,-1,1392,1051,0,0
175,-27,0,0,0,0,0,0,0,0,0,-1,1399,1051,0,0
182,-27,0,0,0,0,0,0,0,0,0,-1,1406,1051,0,0
189,-27,0,0,0,0,0,0,0,0,0,-1,1413,1051,0,0
196,-27,0,0,0,0,0,0,0,0,0,-1,1420,1051,0,0
203,-27,0,0,0,0,0,0,0,0,0,-1,1427,1051,0,0
210,-27,0,0,0,0,0,0,0,0,0,-1,1434,1051,0,0
217,-27,0,0,0,0,0,0,0,0,0,-1,1441,1051,0,0
224,-27,0,0,0,0,0,0,0,0,0,-1,1448,1051,0,0
231,-27,0,0,0,0,0,0,0,0,0,-1,1455,1051,0,0
238,-27,0,0,0,0,0,0,0,0,0,-1,1462,1051,0,0
245,-27,0,0,0,0,0,0,0,0,0,-1,1469,1051,0,0
252,-27,0,0,0,0,0,0,0,0,0,-1,1476,1051,0,0
259,-27,0,0,0,0,0,0,0,0,0,-1,1483,1051,0,0
266,-27,0,0,0,0,0,0,0,0,0,-1,1490,1051,0,0
273,-27,0,0,0,0,0,0,0,0,0,-1,1497,1051,0,0
280,-27,0,0,0,0,0,0,0,0,0,-1,1504,1051,0,0
287,-27,0,0,0,0,0,0,0,0,0,-1,1511,1051,0,0
294,-27,0,0,0,0,0,0,0,0,0,-1,1518,1051,0,0
301,-27,0,0,0,0,0,0,0,0,0,-1,1525,1051,0,0
308,-27,0,0,0,0,0,0,0,0,0,-1,1532,1051,0,0
315,-27,0,0,0,0,0,0,0,0,0,-1,1539,1051,0,0
322,-27,0,0,0,0,0,0,0,0,0,-1,1546,1051,0,0
329,-27,0,0,0,0,0,0,0,0,0,-1,1553,1051,0,0
336,-27,0,0,0,0,0,0,0,0,0,-1,1560,1051,0,0
343,-27,0,0,0,0,0,0,0,0,0,-1,1567,1051,0,0
350,-27,0,0,0,0,0,0,0,0,0,-1,1574,1051,0,0
357,-27,0,0,0,0,0,0,0,0,0,-1,1581,1051,0,0
364,-27,0,0,0,0,0,0,0,0,0,-1,1588,1051,0,0
371,-27,0,0,0,0,0,0,0,0,0,-1,1595,1051,0,0
378,-27,0,0,0,0,0,0,0,0,0,-1,1602,1051,0,0
385,-27,0,0,0,0,0,0,0,0,0,-1,1609,1051,0,0
392,-27,0,0,0,0,0,0,0,0,0,-1,1616,1051,0,0
399,-27,0,0,0,0,0,0,0,0,0,-1,1623,1051,0,0
406,-27,0,0,0,0,0,0,0,0,0,-1,1630,1051,0,0
413,-27,0,0,0,0,0,0,0,0,0,-1,1637,1051,0,0
420,-27,0,0,0,0,0,0,0,0,0,-1,1644,1051,0,0
427,-27,0,0,0,0,0,0,0,0,0,-1,1651,1051,0,0
434,-27,0,0,0,0,0,0,0,0,0,-1,1658,1051,0,0
441,-27,0,0,0,0,0,0,0,0,0,-1,1665,1051,0,0
448,-27,0,0,0,0,0,0,0,0,0,-1,1672,1051,0,0
455,-27,0,0,0,0,0,0,0,0,0,-1,1679,1051,0,0
462,-27,0,0,0,0,0,0,0,0,0,-1,1686,1051,0,0
469,-27,0,0,0,0,0,0,0,0,0,-1,1693,1051,0,0
476,-27,0,0,0,0,0,0,0,0,0,-1,1700,1051,0,0
483,-27,0,0,0,0,0,0,0,0,0,-1,1707,1051,0,0
490,-27,0,0,0,0,0,0,0,0,0,-1,1714,1051,0,0
497,-27,0,0,0,0,0,0,0,0,0,-1,1721,1051,0,0
504,-27,0,0,0,0,0,0,0,0,0,-1,1728,1051,0,0
511,-27,0,0,0,0,0,0,0,0,0,-1,1735,1051,0,0
518,-27,0,0,0,0,0,0,0,0,0,-1,1742,1051,0,0
525,-27,0,0,0,0,0,0,0,0,0,-1,1749,1051,0,0
532,-27,0,0,0,0,0,0,0,0,0,-1,1756,1051,0,0
539,-27,0,0,0,0,0,0,0,0,0,-1,1763,1051,0,0
546,-27,0,0,0,0,0,0,0,0,0,-1,1770,1051,0,0
553,-27,0,0,0,0,0,0,0,0,0,-1,1777,1051,0,0
560,-27,0,0,0,0,0,0,0,0,0,-1,1784,1051,0,0
567,-27,0,0,0,0,0,0,0,0,0,-1,1791,1051,0,0
574,-27,0,0,0,0,0,0,0,0,0,-1,1798,1051,0,0
581,-27,0,0,0,0,0,0,0,0,0,-1,1805,1051,0,0
588,-27,0,0,0,0,0,0,0,0,0,-1,1812,1051,0,0
595,-27,0,0,0,0,0,0,0,0,0,-1,1819,1051,0,0
602,-27,0,0,0,0,0,0,0,0,0,-1,1826,1051,0,0
609,-27,0,0,0,0,0,0,0,0,0,-1,1833,1051,0,0
616,-27,0,0,0,0,0,0,0,0,0,-1,1840,1051,0,0
623,-27,0,0,0,0,0,0,0,0,0,-1,1847,1051,0,0
630,-27,0,0,0,0,0,0,0,0,0,-1,1854,1051,0,0
637,-27,0,0,0,0,0,0,0,0,0,-1,1861,1051,0,0
644,-27,0,0,0,0,0,0,0,0,0,-1,1868,1051,0,0
651,-27,48.5063,2.698,0.00658695,-0.000858838,6.83706e-05,0.00658758,-0.000859465,0.00918143,0.00470445,0.0417503,1875,1051,48.5064,-2.69801
658,-27,48.552,2.74792,0.00422386,4.08491e-06,-7.01292e-05,0.00422503,2.9197e-06,-0.0166131,0.00281571,0.043042,1882,1051,48.552,-2.74798
665,-27,48.5417,2.65454,0.00251751,0.000581559,-3.12013e-06,0.00251752,0.000581554,-0.00161167,0.00152199,0.040828,1889,1051,48.5417,-2.65456
672,-27,48.4733,2.62927,0.00138211,0.00102285,0.000298432,0.0015508,0.000854157,0.514489,0.000896893,0.0301601,1896,1051,48.4733,-2.62923
679,-27,48.4119,2.58728,0.00060907,0.00136047,0.000767499,0.00183929,0.00013025,1.01301,0.00118517,0.028255,1903,1051,48.4119,-2.5873
686,-27,48.3529,2.49817,5.36873e-05,0.00127395,0.00140576,0.00219628,-0.00086864,0.990142,0.00182403,0.0387889,1910,1051,48.3529,-2.49812
693,-27,48.2959,2.39502,-0.000249588,0.000923203,0.00204944,0.00246849,-0.00179488,0.924738,0.00247168,0.0395263,1917,1051,48.2959,-2.39499
700,-27,48.4121,2.59644,-0.000401444,0.000615002,0.00259915,0.00275515,-0.00254159,0.881947,0.0030589,0.03907,1924,1051,48.4121,-2.59638
707,-27,48.421,2.6123,-0.000779244,0.000421221,0.00293707,0.00281877,-0.00317679,0.886192,0.0034636,0.0270452,1931,1051,48.4211,-2.61226
714,-27,48.4717,2.72803,-0.00124448,0.000570528,0.00320547,0.00299447,-0.00366843,0.923344,0.00385338,0.0266997,1938,1051,48.4716,-2.728
721,-27,48.4548,2.88965,0,0,0,0,0,0,0,-1,1945,1051,48.4549,-2.88961
728,-27,48.5868,6.03638,0,0,0,0,0,0,0,-1,1952,1051,48.5868,-6.03636
735,-27,48.1307,6.02747,-0.00310828,0.00203324,0.0035258,0.00382597,-0.00490101,1.1004,0.00505125,0.0317901,1959,1051,48.1307,-6.02747
742,-27,47.9545,5.95361,-0.00375485,0.00307926,0.00354275,0.00458434,-0.00525992,1.16907,0.00568804,0.0189091,1966,1051,47.9545,-5.95365
749,-27,48.0217,5.802,-0.00430455,0.00427816,0.00361226,0.00559609,-0.00562249,1.22095,0.00647706,0.0145864,1973,1051,48.0218,-5.80199
756,-27,47.9915,5.64893,-0.00480021,0.00591155,0.00383059,0.00714041,-0.00602907,1.26037,0.00761242,0.0145357,1980,1051,47.9915,-5.64896
763,-27,47.9232,5.50806,-0.00484851,0.00787215,0.00447362,0.00928788,-0.00626424,1.26431,0.00903541,0.0157335,1987,1051,47.9232,-5.50803
770,-27,47.8705,5.37329,-0.00443876,0.0102752,0.00556376,0.0121422,-0.00630569,1.24705,0.0108271,0.0168274,1994,1051,47.8704,-5.37326
777,-27,47.8062,5.34875,-0.00296663,0.0126719,0.00781014,0.0159043,-0.00619902,1.17839,0.0131651,0.0188849,2001,1051,47.8061,-5.34872
784,-27,47.7742,5.32971,-0.000584008,0.0144396,0.0110765,0.0203113,-0.00645567,1.08336,0.0161293,0.0265564,2008,1051,47.7742,-5.32973
791,-27,47.76,5.04102,0.00304204,0.015173,0.0159494,0.0261713,-0.00795631,0.9671,0.0206179,0.0413393,2015,1051,47.7601,-5.04098
798,-27,47.7114,5.073,0.00831827,0.014544,0.0226538,0.0342978,-0.0114356,0.853676,0.0274819,0.0473286,2022,1051,47.7115,-5.07306
805,-27,47.7021,5.396,0.0155798,0.0123941,0.0315079,0.0455351,-0.0175611,0.760143,0.0376031,0.0450159,2029,1051,47.7021,-5.396
812,-27,47.8687,5.72925,0.0244818,0.00809923,0.0428982,0.0599637,-0.0273827,0.69106,0.0515857,0.0442871,2036,1051,47.8687,-5.72923
-700,-34,-41.2532,-1.98657,0,0,0,0,0,0,0,-1,524,1058,-41.2532,1.98661
-693,-34,-41.0991,-1.41101,0,0,0,0,0,0,0,-1,531,1058,-41.0991,1.411
-686,-34,-36.8861,-0.419678,0,0,0,0,0,0,0,-1,538,1058,-36.8861,0.419677
-679,-34,-35.1617,3.15381,0,0,0,0,0,0,0,-1,545,1058,-35.1617,-3.15383
-672,-34,-35.3995,3.05603,0,0,0,0,0,0,0,-1,552,1058,-35.3995,-3.05598
-665,-34,-35.2805,2.53479,0,0,0,0,0,0,0,-1,559,1058,-35.2805,-2.53473
-658,-34,-35.2999,2.49072,0.0171776,0.0171721,-0.012014,0.0291888,0.00516087,-0.785285,0.0179874,0.0436157,566,1058,-35.2999,-2.49074
-651,-34,-35.4635,2.15063,0.0106223,0.0155875,-0.00819156,0.0216644,0.00454537,-0.932532,0.0131915,0.0302828,573,1058,-35.4635,-2.15063
-644,-34,-35.6536,2.24731,0.0060602,0.0133885,-0.00520042,0.016086,0.00336273,-1.0923,0.00979738,0.0158575,580,1058,-35.6536,-2.24734
-637,-34,-35.7009,2.43018,0.00191536,0.01076,-0.00344255,0.011942,0.000733386,-1.24007,0.00772845,0.0170836,587,1058,-35.7008,-2.43013
-630,-34,-35.7257,2.72559,-0.000489304,0.00796235,-0.0026907,0.00874626,-0.00127321,-1.2873,0.00629829,0.0176692,594,1058,-35.7257,-2.72554
-623,-34,-35.7307,2.94543,-0.00094746,0.00541061,-0.00311607,0.00668311,-0.00221996,-1.1831,0.00535115,0.0142815,601,1058,-35.7307,-2.94544
-616,-34,-35.7088,3.18201,-0.000978175,0.00379916,-0.0033027,0.00548646,-0.00266548,-1.09848,0.00479954,0.0205686,608,1058,-35.7088,-3.18202
-609,-34,-35.6962,3.38196,-0.000568656,0.00198838,-0.00355404,0.00448687,-0.00306715,-0.958059,0.00438692,0.021206,615,1058,-35.6962,-3.38191
-602,-34,-35.6932,3.5415,-7.85567e-05,0.000408229,-0.00379437,0.003967,-0.00363733,-0.817427,0.00439174,0.0166654,622,1058,-35.6932,-3.54151
-595,-34,-35.7893,3.67383,0.000227059,-0.000400547,-0.00384695,0.00377298,-0.00394647,-0.744702,0.0044572,0.0162758,629,1058,-35.7893,-3.67384
-588,-34,-36.0344,3.7616,0,0,0,0,0,0,0,-1,636,1058,-36.0344,-3.76162
-581,-34,-35.991,0.827148,0.00133545,-0.00106965,-0.0035047,0.00383818,-0.00357237,-0.62013,0.0042794,0.0209739,643,1058,-35.991,-0.827161
-574,-34,-35.9879,0.729614,0.00168235,-0.00104859,-0.00312494,0.00372713,-0.00309336,-0.579421,0.00394347,0.0323319,650,1058,-35.9878,-0.729575
-567,-34,-35.9616,0.646729,0.00194316,-0.000764198,-0.00254489,0.003472,-0.00229304,-0.54097,0.00335156,0.0415203,657,1058,-35.9616,-0.646736
-560,-34,-35.8651,0.94458,0,0,0,0,0,0,0,-1,664,1058,-35.8651,-0.944571
-553,-34,-35.8286,0.600586,0.00264646,0.000235291,-0.000783969,0.00287894,2.80701e-06,-0.288287,0.00191836,0.0420121,671,1058,-35.8285,-0.600581
-546,-34,-35.8762,0.671997,0.00344885,0.000548227,0.00031402,0.00348245,0.000514621,0.106614,0.00217053,0.0416713,678,1058,-35.8762,-0.672055
-539,-34,-35.7271,0.616699,0.00461906,0.000293276,0.00101214,0.00484417,6.817e-05,0.218843,0.00320697,0.0402605,685,1058,-35.7271,-0.616662
-532,-34,-35.736,0.776245,0.00608531,0.000189438,0.00138886,0.0063961,-0.000121347,0.220143,0.00430508,0.0406991,692,1058,-35.736,-0.776196
-525,-34,0,0,0,0,0,0,0,0,0,-1,699,1058,0,0
-518,-34,0,0,0,0,0,0,0,0,0,-1,706,1058,0,0
-511,-34,0,0,0,0,0,0,0,0,0,-1,713,1058,0,0
-504,-34,0,0,0,0,0,0,0,0,0,-1,720,1058,0,0
-497,-34,0,0,0,0,0,0,0,0,0,-1,727,1058,0,0
-490,-34,0,0,0,0,0,0,0,0,0,-1,734,1058,0,0
-483,-34,0,0,0,0,0,0,0,0,0,-1,741,1058,0,0
-476,-34,0,0,0,0,0,0,0,0,0,-1,748,1058,0,0
-469,-34,0,0,0,0,0,0,0,0,0,-1,755,1058,0,0
-462,-34,0,0,0,0,0,0,0,0,0,-1,762,1058,0,0
-455,-34,0,0,0,0,0,0,0,0,0,-1,769,1058,0,0
-448,-34,0,0,0,0,0,0,0,0,0,-1,776,1058,0,0
-441,-34,0,0,0,0,0,0,0,0,0,-1,783,1058,0,0
-434,-34,0,0,0,0,0,0,0,0,0,-1,790,1058,0,0
-427,-34,0,0,0,0,0,0,0,0,0,-1,797,1058,0,0
-420,-34,0,0,0,0,0,0,0,0,0,-1,804,1058,0,0
-413,-34,0,0,0,0,0,0,0,0,0,-1,811,1058,0,0
-406,-34,0,0,0,0,0,0,0,0,0,-1,818,1058,0,0
-399,-34,0,0,0,0,0,0,0,0,0,-1,825,1058,0,0
-392,-34,0,0,0,0,0,0,0,0,0,-1,832,1058,0,0
-385,-34,0,0,0,0,0,0,0,0,0,-1,839,1058,0,0
-378,-34,0,0,0,0,0,0,0,0,0,-1,846,1058,0,0
-371,-34,0,0,0,0,0,0,0,0,0,-1,853,1058,0,0
-364,-34,0,0,0,0,0,0,0,0,0,-1,860,1058,0,0
-357,-34,0,0,0,0,0,0,0,0,0,-1,867,1058,0,0
-350,-34,0,0,0,0,0,0,0,0,0,-1,874,1058,0,0
-343,-34,0,0,0,0,0,0,0,0,0,-1,881,1058,0,0
-336,-34,0,0,0,0,0,0,0,0,0,-1,888,1058,0,0
-329,-34,0,0,0,0,0,0,0,0,0,-1,895,1058,0,0
-322,-34,0,0,0,0,0,0,0,0,0,-1,902,1058,0,0
-315,-34,0,0,0,0,0,0,0,0,0,-1,909,1058,0,0
-308,-34,0,0,0,0,0,0,0,0,0,-1,916,1058,0,0
-301,-34,0,0,0,0,0,0,0,0,0,-1,923,1058,0,0
-294,-34,0,0,0,0,0,0,0,0,0,-1,930,1058,0,0
-287,-34,0,0,0,0,0,0,0,0,0,-1,937,1058,0,0
-280,-34,0,0,0,0,0,0,0,0,0,-1,944,1058,0,0
-273,-34,0,0,0,0,0,0,0,0,0,-1,951,1058,0,0
-266,-34,0,0,0,0,0,0,0,0,0,-1,958,1058,0,0
-259,-34,0,0,0,0,0,0,0,0,0,-1,965,1058,0,0
-252,-34,0,0,0,0,0,0,0,0,0,-1,972,1058,0,0
-245,-34,0,0,0,0,0,0,0,0,0,-1,979,1058,0,0
-238,-34,0,0,0,0,0,0,0,0,0,-1,986,1058,0,0
-231,-34,0,0,0,0,0,0,0,0,0,-1,993,1058,0,0
-224,-34,0,0,0,0,0,0,0,0,0,-1,1000,1058,0,0
-217,-34,0,0,0,0,0,0,0,0,0,-1,1007,1058,0,0
-210,-34,0,0,0,0,0,0,0,0,0,-1,1014,1058,0,0
-203,-34,0,0,0,0,0,0,0,0,0,-1,1021,1058,0,0
-196,-34,0,0,0,0,0,0,0,0,0,-1,1028,1058,0,0
-189,-34,0,0,0,0,0,0,0,0,0,-1,1035,1058,0,0
-182,-34,0,0,0,0,0,0,0,0,0,-1,1042,1058,0,0
-175,-34,0,0,0,0,0,0,0,0,0,-1,1049,1058,0,0
-168,-34,0,0,0,0,0,0,0,0,0,-1,1056,1058,0,0
-161,-34,0,0,0,0,0,0,0,0,0,-1,1063,1058,0,0
-154,-34,0,0,0,0,0,0,0,0,0,-1,1070,1058,0,0
-147,-34,0,0,0,0,0,0,0,0,0,-1,1077,1058,0,0
-140,-34,0,0,0,0,0,0,0,0,0,-1,1084,1058,0,0
-133,-34,0,0,0,0,0,0,0,0,0,-1,1091,1058,0,0
-126,-34,0,0,0,0,0,0,0,0,0,-1,1098,1058,0,0
-119,-34,0,0,0,0,0,0,0,0,0,-1,1105,1058,0,0
-112,-34,0,0,0,0,0,0,0,0,0,-1,1112,1058,0,0
-105,-34,0,0,0,0,0,0,0,0,0,-1,1119,1058,0,0
-98,-34,0,0,0,0,0,0,0,0,0,-1,1126,1058,0,0
-91,-34,0,0,0,0,0,0,0,0,0,-1,1133,1058,0,0
-84,-34,0,0,0,0,0,0,0,0,0,-1,1140,1058,0,0
-77,-34,0,0,0,0,0,0,0,0,0,-1,1147,1058,0,0
-70,-34,0,0,0,0,0,0,0,0,0,-1,1154,1058,0,0
-63,-34,0,0,0,0,0,0,0,0,0,-1,1161,1058,0,0
-56,-34,0,0,0,0,0,0,0,0,0,-1,1168,1058,0,0
-49,-34,0,0,0,0,0,0,0,0,0,-1,1175,1058,0,0
-42,-34,0,0,0,0,0,0,0,0,0,-1,1182,1058,0,0
-35,-34,0,0,0,0,0,0,0,0,0,-1,1189,1058,0,0
-28,-34,0,0,0,0,0,0,0,0,0,-1,1196,1058,0,0
-21,-34,0,0,0,0,0,0,0,0,0,-1,1203,1058,0,0
-14,-34,0,0,0,0,0,0,0,0,0,-1,1210,1058,0,0
-7,-34,0,0,0,0,0,0,0,0,0,-1,1217,1058,0,0
0,-34,0,0,0,0,0,0,0,0,0,-1,1224,1058,0,0
7,-34,0,0,0,0,0,0,0,0,0,-1,1231,1058,0,0
14,-34,0,0,0,0,0,0,0,0,0,-1,1238,1058,0,0
21,-34,0,0,0,0,0,0,0,0,0,-1,1245,1058,0,0
28,-34,0,0,0,0,0,0,0,0,0,-1,1252,1058,0,0
35,-34,0,0,0,0,0,0,0,0,0,-1,1259,1058,0,0
42,-34,0,0,0,0,0,0,0,0,0,-1,1266,1058,0,0
49,-34,0,0,0,0,0,0,0,0,0,-1,1273,1058,0,0
56,-34,0,0,0,0,0,0,0,0,0,-1,1280,1058,0,0
63,-34,0,0,0,0,0,0,0,0,0,-1,1287,1058,0,0
70,-34,0,0,0,0,0,0,0,0,0,-1,1294,1058,0,0
77,-34,0,0,0,0,0,0,0,0,0,-1,1301,1058,0,0
84,-34,0,0,0,0,0,0,0,0,0,-1,1308,1058,0,0
91,-34,0,0,0,0,0,0,0,0,0,-1,1315,1058,0,0
98,-34,0,0,0,0,0,0,0,0,0,-1,1322,1058,0,0
105,-34,0,0,0,0,0,0,0,0,0,-1,1329,1058,0,0
112,-34,0,0,0,0,0,0,0,0,0,-1,1336,1058,0,0
119,-34,0,0,0,0,0,0,0,0,0,-1,1343,1058,0,0
126,-34,0,0,0,0,0,0,0,0,0,-1,1350,1058,0,0
133,-34,0,0,0,0,0,0,0,0,0,-1,1357,1058,0,0
140,-34,0,0,0,0,0,0,0,0,0,-1,1364,1058,0,0
147,-34,0,0,0,0,0,0,0,0,0,-1,1371,1058,0,0
154,-34,0,0,0,0,0,0,0,0,0,-1,1378,1058,0,0
161,-34,0,0,0,0,0,0,0,0,0,-1,1385,1058,0,0
168,-34,0,0,0,0,0,0,0,0,0,-1,1392,1058,0,0
175,-34,0,0,0,0,0,0,0,0,0,-1,1399,1058,0,0
182,-34,0,0,0,0,0,0,0,0,0,-1,1406,1058,0,0
189,-34,0,0,0,0,0,0,0,0,0,-1,1413,1058,0,0
196,-34,0,0,0,0,0,0,0,0,0,-1,1420,1058,0,0
203,-34,0,0,0,0,0,0,0,0,0,-1,1427,1058,0,0
210,-34,0,0,0,0,0,0,0,0,0,-1,1434,1058,0,0
217,-34,0,0,0,0,0,0,0,0,0,-1,1441,1058,0,0
224,-34,0,0,0,0,0,0,0,0,0,-1,1448,1058,0,0
231,-34,0,0,0,0,0,0,0,0,0,-1,1455,1058,0,0
238,-34,0,0,0,0,0,0,0,0,0,-1,1462,1058,0,0
245,-34,0,0,0,0,0,0,0,0,0,-1,1469,1058,0,0
252,-34,0,0,0,0,0,0,0,0,0,-1,1476,1058,0,0
259,-34,0,0,0,0,0,0,0,0,0,-1,1483,1058,0,0
266,-34,0,0,0,0,0,0,0,0,0,-1,1490,1058,0,0
273,-34,0,0,0,0,0,0,0,0,0,-1,1497,1058,0,0
280,-34,0,0,0,0,0,0,0,0,0,-1,1504,1058,0,0
287,-34,0,0,0,0,0,0,0,0,0,-1,1511,1058,0,0
294,-34,0,0,0,0,0,0,0,0,0,-1,1518,1058,0,0
301,-34,0,0,0,0,0,0,0,0,0,-1,1525,1058,0,0
308,-34,0,0,0,0,0,0,0,0,0,-1,1532,1058,0,0
315,-34,0,0,0,0,0,0,0,0,0,-1,1539,1058,0,0
322,-34,0,0,0,0,0,0,0,0,0,-1,1546,1058,0,0
329,-34,0,0,0,0,0,0,0,0,0,-1,1553,1058,0,0
336,-34,0,0,0,0,0,0,0,0,0,-1,1560,1058,0,0
343,-34,0,0,0,0,0,0,0,0,0,-1,1567,1058,0,0
350,-34,0,0,0,0,0,0,0,0,0,-1,1574,1058,0,0
357,-34,0,0,0,0,0,0,0,0,0,-1,1581,1058,0,0
364,-34,0,0,0,0,0,0,0,0,0,-1,1588,1058,0,0
371,-34,0,0,0,0,0,0,0,0,0,-1,1595,1058,0,0
378,-34,0,0,0,0,0,0,0,0,0,-1,1602,1058,0,0
385,-34,0,0,0,0,0,0,0,0,0,-1,1609,1058,0,0
392,-34,0,0,0,0,0,0,0,0,0,-1,1616,1058,0,0
399,-34,0,0,0,0,0,0,0,0,0,-1,1623,1058,0,0
406,-34,0,0,0,0,0,0,0,0,0,-1,1630,1058,0,0
413,-34,0,0,0,0,0,0,0,0,0,-1,1637,1058,0,0
420,-34,0,0,0,0,0,0,0,0,0,-1,1644,1058,0,0
427,-34,0,0,0,0,0,0,0,0,0,-1,1651,1058,0,0
434,-34,0,0,0,0,0,0,0,0,0,-1,1658,1058,0,0
441,-34,0,0,0,0,0,0,0,0,0,-1,1665,1058,0,0
448,-34,0,0,0,0,0,0,0,0,0,-1,1672,1058,0,0
455,-34,0,0,0,0,0,0,0,0,0,-1,1679,1058,0,0
462,-34,0,0,0,0,0,0,0,0,0,-1,1686,1058,0,0
469,-34,0,0,0,0,0,0,0,0,0,-1,1693,1058,0,0
476,-34,0,0,0,0,0,0,0,0,0,-1,1700,1058,0,0
483,-34,0,0,0,0,0,0,0,0,0,-1,1707,1058,0,0
490,-34,0,0,0,0,0,0,0,0,0,-1,1714,1058,0,0
497,-34,0,0,0,0,0,0,0,0,0,-1,1721,1058,0,0
504,-34,0,0,0,0,0,0,0,0,0,-1,1728,1058,0,0
511,-34,0,0,0,0,0,0,0,0,0,-1,1735,1058,0,0
518,-34,0,0,0,0,0,0,0,0,0,-1,1742,1058,0,0
525,-34,0,0,0,0,0,0,0,0,0,-1,1749,1058,0,0
532,-34,0,0,0,0,0,0,0,0,0,-1,1756,1058,0,0
539,-34,0,0,0,0,0,0,0,0,0,-1,1763,1058,0,0
546,-34,0,0,0,0,0,0,0,0,0,-1,1770,1058,0,0
553,-34,0,0,0,0,0,0,0,0,0,-1,1777,1058,0,0
560,-34,0,0,0,0,0,0,0,0,0,-1,1784,1058,0,0
567,-34,0,0,0,0,0,0,0,0,0,-1,1791,1058,0,0
574,-34,0,0,0,0,0,0,0,0,0,-1,1798,1058,0,0
581,-34,0,0,0,0,0,0,0,0,0,-1,1805,1058,0,0
588,-34,0,0,0,0,0,0,0,0,0,-1,1812,1058,0,0
595,-34,0,0,0,0,0,0,0,0,0,-1,1819,1058,0,0
602,-34,0,0,0,0,0,0,0,0,0,-1,1826,1058,0,0
609,-34,0,0,0,0,0,0,0,0,0,-1,1833,1058,0,0
616,-34,0,0,0,0,0,0,0,0,0,-1,1840,1058,0,0
623,-34,0,0,0,0,0,0,0,0,0,-1,1847,1058,0,0
630,-34,0,0,0,0,0,0,0,0,0,-1,1854,1058,0,0
637,-34,0,0,0,0,0,0,0,0,0,-1,1861,1058,0,0
644,-34,0,0,0,0,0,0,0,0,0,-1,1868,1058,0,0
651,-34,48.4678,2.5658,0.00625576,-0.000443073,-0.000323585,0.00627135,-0.000458667,-0.0481553,0.00434187,0.0420416,1875,1058,48.4678,-2.56583
658,-34,48.493,2.62061,0.00424407,4.90355e-05,-0.000491254,0.00430083,-7.72416e-06,-0.11503,0.0028698,0.0424133,1882,1058,48.493,-2.62057
665,-34,48.578,2.60535,0.00272893,0.000406597,-0.000389741,0.00279259,0.000342935,-0.161915,0.0017586,0.0418401,1889,1058,48.578,-2.60537
672,-34,48.5247,2.53723,0.00168556,0.000714794,-3.6276e-05,0.00168691,0.00071344,-0.0372991,0.000977788,0.0375587,1896,1058,48.5247,-2.53729
679,-34,48.3501,2.62366,0.000899268,0.000960824,0.000475715,0.00140676,0.000453336,0.817702,0.000829121,0.0363009,1903,1058,48.3501,-2.62367
686,-34,48.4025,2.65466,0.000236887,0.000836903,0.00112938,0.00170545,-0.000631657,0.915219,0.00139599,0.0399843,1910,1058,48.4024,-2.65471
693,-34,48.3933,2.64563,-0.000194061,0.000498285,0.00177668,0.0019622,-0.00165798,0.881614,0.00209257,0.0396907,1917,1058,48.3933,-2.64565
700,-34,48.4357,2.7113,-0.000453222,0.000207973,0.00231627,0.00221712,-0.00246237,0.856283,0.00270294,0.0405318,1924,1058,48.4357,-2.71125
707,-34,48.4131,2.69958,-0.000888942,3.01893e-05,0.00266089,0.0022709,-0.00312966,0.87091,0.00313113,0.0262949,1931,1058,48.413,-2.69962
714,-34,48.4108,2.77222,-0.0013945,0.000211505,0.00295397,0.00246967,-0.00365267,0.918111,0.00355666,0.0217262,1938,1058,48.4108,-2.77218
721,-34,48.4111,2.88147,0,0,0,0,0,0,0,-1,1945,1058,48.4111,-2.88148
728,-34,47.9655,6.13916,0,0,0,0,0,0,0,-1,1952,1058,47.9654,-6.13912
735,-34,47.8237,6.07935,-0.00324347,0.00162989,0.00338357,0.00336286,-0.00497644,1.09746,0.00484465,0.0202968,1959,1058,47.8237,-6.07936
742,-34,47.7772,5.97253,-0.0038712,0.00269202,0.00343461,0.00416073,-0.00533991,1.16671,0.00549926,0.0159302,1966,1058,47.7772,-5.9725
749,-34,47.8278,5.8158,-0.00432741,0.00387027,0.00350263,0.00516299,-0.00562013,1.21723,0.0062275,0.0137499,1973,1058,47.8278,-5.81583
756,-34,47.8461,5.62866,-0.00469434,0.00547101,0.00372654,0.00669077,-0.0059141,1.25447,0.00728203,0.0114446,1980,1058,47.846,-5.62861
763,-34,47.7737,5.4679,-0.00466693,0.00741781,0.00435858,0.00882577,-0.00607489,1.25835,0.00865163,0.0127855,1987,1058,47.7736,-5.4679
770,-34,47.6963,5.30591,-0.00422604,0.00984218,0.00539115,0.0116705,-0.00605439,1.24383,0.0104033,0.0182936,1994,1058,47.6963,-5.30591
777,-34,47.582,5.26648,-0.00282377,0.0123174,0.00745411,0.0153712,-0.00587756,1.18197,0.0126696,0.0207664,2001,1058,47.582,-5.26649
784,-34,47.4014,5.21802,-0.000618597,0.0142375,0.0104268,0.0196116,-0.00599266,1.0949,0.0154639,0.0377088,2008,1058,47.4013,-5.21802
791,-34,47.2256,5.14709,0,0,0,0,0,0,0,-1,2015,1058,47.2255,-5.14712
798,-34,47.4204,4.89368,0,0,0,0,0,0,0,-1,2022,1058,47.4205,-4.89367
805,-34,47.3777,5.32202,0.0145273,0.0134262,0.0291579,0.0431398,-0.0151864,0.775958,0.03494,0.0475028,2029,1058,47.3778,-5.32208
812,-34,47.4504,5.6571,0.023048,0.00980286,0.039792,0.0567648,-0.0239139,0.702939,0.0478497,0.049036,2036,1058,47.4505,-5.65711
-700,-41,-40.0084,-2.03394,0.0799851,0.0234133,-0.0672489,0.124655,-0.0212563,-0.586323,0.0910197,0.0480536,524,1065,-40.0084,2.03399
-693,-41,-39.8373,-1.47095,0.0679498,0.024195,-0.0533878,0.103769,-0.011624,-0.590943,0.0733615,0.0476185,531,1065,-39.8373,1.471
-686,-41,-37.0054,-1.31836,0,0,0,0,0,0,0,-1,538,1065,-37.0054,1.31839
-679,-41,-36.2087,-0.794678,0.0435053,0.0240207,-0.0312715,0.0665169,0.00100906,-0.634394,0.0440121,0.0450478,545,1065,-36.2087,0.794645
-672,-41,-35.9246,-0.443604,0.0328152,0.023194,-0.023052,0.0515532,0.00445604,-0.682532,0.032984,0.0459145,552,1065,-35.9246,0.443593
-665,-41,-35.0478,0.777588,0,0,0,0,0,0,0,-1,559,1065,-35.0478,-0.777641
-658,-41,-35.0763,1.36377,0.0160379,0.0199491,-0.01147,0.0296291,0.00635793,-0.869834,0.0180114,0.0428037,566,1065,-35.0763,-1.3638
-651,-41,-35.1954,1.93164,0.0102182,0.0175375,-0.00781039,0.0225031,0.00525262,-1.00449,0.0135938,0.0306656,573,1065,-35.1954,-1.93166
-644,-41,-35.4272,2.19104,0.00615102,0.0147141,-0.00495171,0.0169786,0.00388649,-1.14187,0.0102717,0.0173974,580,1065,-35.4272,-2.19101
-637,-41,-35.4792,2.40564,0.00229903,0.0115245,-0.00318843,0.0125192,0.00130433,-1.26839,0.00794713,0.0192404,587,1065,-35.4792,-2.40561
-630,-41,-35.4827,2.6626,0.000139423,0.00824744,-0.00242609,0.00891793,-0.000531067,-1.30116,0.00612998,0.0151357,594,1065,-35.4827,-2.66261
-623,-41,-35.455,2.90637,-0.000429474,0.00543548,-0.00283784,0.00658378,-0.00157777,-1.1863,0.00499881,0.0125289,601,1065,-35.455,-2.90632
-616,-41,-35.4635,3.17029,-0.000513566,0.00359987,-0.00297902,0.00516319,-0.00207688,-1.08753,0.0043048,0.0160325,608,1065,-35.4635,-3.17026
-609,-41,-35.4284,3.41833,-0.000208627,0.0015943,-0.00321072,0.0040277,-0.00264203,-0.922258,0.00387838,0.0243161,615,1065,-35.4284,-3.41831
-602,-41,-35.4565,3.58276,0.00017691,-8.20214e-05,-0.00343713,0.00348701,-0.00339213,-0.766574,0.0039718,0.0156406,622,1065,-35.4565,-3.5827
-595,-41,-35.5637,3.73059,0.000417026,-0.000928991,-0.00347698,0.00328553,-0.0037975,-0.6898,0.00409295,0.0234288,629,1065,-35.5636,-3.73061
-588,-41,-35.8109,2.19446,0,0,0,0,0,0,0,-1,636,1065,-35.8109,-2.19443
-581,-41,-35.9661,0.893066,0.00143238,-0.00162704,-0.00299034,0.00326156,-0.00345622,-0.548975,0.00387906,0.0342093,643,1065,-35.9661,-0.893097
-574,-41,-35.979,0.806152,0.00175752,-0.0016357,-0.00256791,0.00313868,-0.00301686,-0.49347,0.00355413,0.0366634,650,1065,-35.979,-0.806157
-567,-41,-35.9111,0.727783,0.00202443,-0.0013749,-0.00194499,0.00290775,-0.00225823,-0.426304,0.00299043,0.0416814,657,1065,-35.9111,-0.727768
-560,-41,-35.9232,0.710083,0.00229769,-0.000896725,-0.00110517,0.00264277,-0.0012418,-0.302647,0.00229086,0.042259,664,1065,-35.9232,-0.71006
-553,-41,-36.0206,0.671997,0.00275704,-0.000326303,-5.40362e-05,0.00275799,-0.00032725,-0.017518,0.00195688,0.042792,671,1065,-36.0205,-0.672026
-546,-41,-36.0929,0.738892,0.00360816,0.000115125,0.00118282,0.003971,-0.000247713,0.297645,0.00273365,0.0396245,678,1065,-36.0929,-0.738838
-539,-41,-36.0708,0.840698,0.00492649,6.1098e-05,0.0021464,0.00573803,-0.000750436,0.361478,0.00409846,0.0388161,685,1065,-36.0708,-0.840715
-532,-41,-35.7614,0.85791,0.00648863,0.000121512,0.00288454,0.00760107,-0.000990926,0.36808,0.00542792,0.037956,692,1065,-35.7614,-0.857923
-525,-41,0,0,0,0,0,0,0,0,0,-1,699,1065,0,0
-518,-41,0,0,0,0,0,0,0,0,0,-1,706,1065,0,0
-511,-41,0,0,0,0,0,0,0,0,0,-1,713,1065,0,0
-504,-41,0,0,0,0,0,0,0,0,0,-1,720,1065,0,0
-497,-41,0,0,0,0,0,0,0,0,0,-1,727,1065,0,0
-490,-41,0,0,0,0,0,0,0,0,0,-1,734,1065,0,0
-483,-41,0,0,0,0,0,0,0,0,0,-1,741,1065,0,0
-476,-41,0,0,0,0,0,0,0,0,0,-1,748,1065,0,0
-469,-41,0,0,0,0,0,0,0,0,0,-1,755,1065,0,0
-462,-41,0,0,0,0,0,0,0,0,0,-1,762,1065,0,0
-455,-41,0,0,0,0,0,0,0,0,0,-1,769,1065,0,0
-448,-41,0,0,0,0,0,0,0,0,0,-1,776,1065,0,0
-441,-41,0,0,0,0,0,0,0,0,0,-1,783,1065,0,0
-434,-41,0,0,0,0,0,0,0,0,0,-1,790,1065,0,0
-427,-41,0,0,0,0,0,0,0,0,0,-1,797,1065,0,0
-420,-41,0,0,0,0,0,0,0,0,0,-1,804,1065,0,0
-413,-41,0,0,0,0,0,0,0,0,0,-1,811,1065,0,0
-406,-41,0,0,0,0,0,0,0,0,0,-1,818,1065,0,0
-399,-41,0,0,0,0,0,0,0,0,0,-1,825,1065,0,0
-392,-41,0,0,0,0,0,0,0,0,0,-1,832,1065,0,0
-385,-41,0,0,0,0,0,0,0,0,0,-1,839,1065,0,0
-378,-41,0,0,0,0,0,0,0,0,0,-1,846,1065,0,0
-371,-41,0,0,0,0,0,0,0,0,0,-1,853,1065,0,0
-364,-41,0,0,0,0,0,0,0,0,0,-1,860,1065,0,0
-357,-41,0,0,0,0,0,0,0,0,0,-1,867,1065,0,0
-350,-41,0,0,0,0,0,0,0,0,0,-1,874,1065,0,0
-343,-41,0,0,0,0,0,0,0,0,0,-1,881,1065,0,0
-336,-41,0,0,0,0,0,0,0,0,0,-1,888,1065,0,0
-329,-41,0,0,0,0,0,0,0,0,0,-1,895,1065,0,0
-322,-41,0,0,0,0,0,0,0,0,0,-1,902,1065,0,0
-315,-41,0,0,0,0,0,0,0,0,0,-1,909,1065,0,0
-308,-41,0,0,0,0,0,0,0,0,0,-1,916,1065,0,0
-301,-41,0,0,0,0,0,0,0,0,0,-1,923,1065,0,0
-294,-41,0,0,0,0,0,0,0,0,0,-1,930,1065,0,0
-287,-41,0,0,0,0,0,0,0,0,0,-1,937,1065,0,0
-280,-41,0,0,0,0,0,0,0,0,0,-1,944,1065,0,0
-273,-41,0,0,0,0,0,0,0,0,0,-1,951,1065,0,0
-266,-41,0,0,0,0,0,0,0,0,0,-1,958,1065,0,0
-259,-41,0,0,0,0,0,0,0,0,0,-1,965,1065,0,0
-252,-41,0,0,0,0,0,0,0,0,0,-1,972,1065,0,0
-245,-41,0,0,0,0,0,0,0,0,0,-1,979,1065,0,0
-238,-41,0,0,0,0,0,0,0,0,0,-1,986,1065,0,0
-231,-41,0,0,0,0,0,0,0,0,0,-1,993,1065,0,0
-224,-41,0,0,0,0,0,0,0,0,0,-1,1000,1065,0,0
-217,-41,0,0,0,0,0,0,0,0,0,-1,1007,1065,0,0
-210,-41,0,0,0,0,0,0,0,0,0,-1,1014,1065,0,0
-203,-41,0,0,0,0,0,0,0,0,0,-1,1021,1065,0,0
-196,-41,0,0,0,0,0,0,0,0,0,-1,1028,1065,0,0
-189,-41,0,0,0,0,0,0,0,0,0,-1,1035,1065,0,0
-182,-41,0,0,0,0,0,0,0,0,0,-1,1042,1065,0,0
-175,-41,0,0,0,0,0,0,0,0,0,-1,1049,1065,0,0
-168,-41,0,0,0,0,0,0,0,0,0,-1,1056,1065,0,0
-161,-41,0,0,0,0,0,0,0,0,0,-1,1063,1065,0,0
-154,-41,0,0,0,0,0,0,0,0,0,-1,1070,1065,0,0
-147,-41,0,0,0,0,0,0,0,0,0,-1,1077,1065,0,0
-140,-41,0,0,0,0,0,0,0,0,0,-1,1084,1065,0,0
-133,-41,0,0,0,0,0,0,0,0,0,-1,1091,1065,0,0
-126,-41,0,0,0,0,0,0,0,0,0,-1,1098,1065,0,0
-119,-41,0,0,0,0,0,0,0,0,0,-1,1105,1065,0,0
-112,-41,0,0,0,0,0,0,0,0,0,-1,1112,1065,0,0
-105,-41,0,0,0,0,0,0,0,0,0,-1,1119,1065,0,0
-98,-41,0,0,0,0,0,0,0,0,0,-1,1126,1065,0,0
-91,-41,0,0,0,0,0,0,0,0,0,-1,1133,1065,0,0
-84,-41,0,0,0,0,0,0,0,0,0,-1,1140,1065,0,0
-77,-41,0,0,0,0,0,0,0,0,0,-1,1147,1065,0,0
-70,-41,0,0,0,0,0,0,0,0,0,-1,1154,1065,0,0
-63,-41,0,0,0,0,0,0,0,0,0,-1,1161,1065,0,0
-56,-41,0,0,0,0,0,0,0,0,0,-1,1168,1065,0,0
-49,-41,0,0,0,0,0,0,0,0,0,-1,1175,1065,0,0
-42,-41,0,0,0,0,0,0,0,0,0,-1,1182,1065,0,0
-35,-41,0,0,0,0,0,0,0,0,0,-1,1189,1065,0,0
-28,-41,0,0,0,0,0,0,0,0,0,-1,1196,1065,0,0
-21,-41,0,0,0,0,0,0,0,0,0,-1,1203,1065,0,0
-14,-41,0,0,0,0,0,0,0,0,0,-1,1210,1065,0,0
-7,-41,0,0,0,0,0,0,0,0,0,-1,1217,1065,0,0
0,-41,0,0,0,0,0,0,0,0,0,-1,1224,1065,0,0
7,-41,0,0,0,0,0,0,0,0,0,-1,1231,1065,0,0
14,-41,0,0,0,0,0,0,0,0,0,-1,1238,1065,0,0
21,-41,0,0,0,0,0,0,0,0,0,-1,1245,1065,0,0
28,-41,0,0,0,0,0,0,0,0,0,-1,1252,1065,0,0
35,-41,0,0,0,0,0,0,0,0,0,-1,1259,1065,0,0
42,-41,0,0,0,0,0,0,0,0,0,-1,1266,1065,0,0
49,-41,0,0,0,0,0,0,0,0,0,-1,1273,1065,0,0
56,-41,0,0,0,0,0,0,0,0,0,-1,1280,1065,0,0
63,-41,0,0,0,0,0,0,0,0,0,-1,1287,1065,0,0
70,-41,0,0,0,0,0,0,0,0,0,-1,1294,1065,0,0
77,-41,0,0,0,0,0,0,0,0,0,-1,1301,1065,0,0
84,-41,0,0,0,0,0,0,0,0,0,-1,1308,1065,0,0
91,-41,0,0,0,0,0,0,0,0,0,-1,1315,1065,0,0
98,-41,0,0,0,0,0,0,0,0,0,-1,1322,1065,0,0
105,-41,0,0,0,0,0,0,0,0,0,-1,1329,1065,0,0
112,-41,0,0,0,0,0,0,0,0,0,-1,1336,1065,0,0
119,-41,0,0,0,0,0,0,0,0,0,-1,1343,1065,0,0
126,-41,0,0,0,0,0,0,0,0,0,-1,1350,1065,0,0
133,-41,0,0,0,0,0,0,0,0,0,-1,1357,1065,0,0
140,-41,0,0,0,0,0,0,0,0,0,-1,1364,1065,0,0
147,-41,0,0,0,0,0,0,0,0,0,-1,1371,1065,0,0
154,-41,0,0,0,0,0,0,0,0,0,-1,1378,1065,0,0
161,-41,0,0,0,0,0,0,0,0,0,-1,1385,1065,0,0
168,-41,0,0,0,0,0,0,0,0,0,-1,1392,1065,0,0
175,-41,0,0,0,0,0,0,0,0,0,-1,1399,1065,0,0
182,-41,0,0,0,0,0,0,0,0,0,-1,1406,1065,0,0
189,-41,0,0,0,0,0,0,0,0,0,-1,1413,1065,0,0
196,-41,0,0,0,0,0,0,0,0,0,-1,1420,1065,0,0
203,-41,0,0,0,0,0,0,0,0,0,-1,1427,1065,0,0
210,-41,0,0,0,0,0,0,0,0,0,-1,1434,1065,0,0
217,-41,0,0,0,0,0,0,0,0,0,-1,1441,1065,0,0
224,-41,0,0,0,0,0,0,0,0,0,-1,1448,1065,0,0
231,-41,0,0,0,0,0,0,0,0,0,-1,1455,1065,0,0
238,-41,0,0,0,0,0,0,0,0,0,-1,1462,1065,0,0
245,-41,0,0,0,0,0,0,0,0,0,-1,1469,1065,0,0
252,-41,0,0,0,0,0,0,0,0,0,-1,1476,1065,0,0
259,-41,0,0,0,0,0,0,0,0,0,-1,1483,1065,0,0
266,-41,0,0,0,0,0,0,0,0,0,-1,1490,1065,0,0
273,-41,0,0,0,0,0,0,0,0,0,-1,1497,1065,0,0
280,-41,0,0,0,0,0,0,0,0,0,-1,1504,1065,0,0
287,-41,0,0,0,0,0,0,0,0,0,-1,1511,1065,0,0
294,-41,0,0,0,0,0,0,0,0,0,-1,1518,1065,0,0
301,-41,0,0,0,0,0,0,0,0,0,-1,1525,1065,0,0
308,-41,0,0,0,0,0,0,0,0,0,-1,1532,1065,0,0
315,-41,0,0,0,0,0,0,0,0,0,-1,1539,1065,0,0
322,-41,0,0,0,0,0,0,0,0,0,-1,1546,1065,0,0
329,-41,0,0,0,0,0,0,0,0,0,-1,1553,1065,0,0
336,-41,0,0,0,0,0,0,0,0,0,-1,1560,1065,0,0
343,-41,0,0,0,0,0,0,0,0,0,-1,1567,1065,0,0
350,-41,0,0,0,0,0,0,0,0,0,-1,1574,1065,0,0
357,-41,0,0,0,0,0,0,0,0,0,-1,1581,1065,0,0
364,-41,0,0,0,0,0,0,0,0,0,-1,1588,1065,0,0
371,-41,0,0,0,0,0,0,0,0,0,-1,1595,1065,0,0
378,-41,0,0,0,0,0,0,0,0,0,-1,1602,1065,0,0
385,-41,0,0,0,0,0,0,0,0,0,-1,1609,1065,0,0
392,-41,0,0,0,0,0,0,0,0,0,-1,1616,1065,0,0
399,-41,0,0,0,0,0,0,0,0,0,-1,1623,1065,0,0
406,-41,0,0,0,0,0,0,0,0,0,-1,1630,1065,0,0
413,-41,0,0,0,0,0,0,0,0,0,-1,1637,1065,0,0
420,-41,0,0,0,0,0,0,0,0,0,-1,1644,1065,0,0
427,-41,0,0,0,0,0,0,0,0,0,-1,1651,1065,0,0
434,-41,0,0,0,0,0,0,0,0,0,-1,1658,1065,0,0
441,-41,0,0,0,0,0,0,0,0,0,-1,1665,1065,0,0
448,-41,0,0,0,0,0,0,0,0,0,-1,1672,1065,0,0
455,-41,0,0,0,0,0,0,0,0,0,-1,1679,1065,0,0
462,-41,0,0,0,0,0,0,0,0,0,-1,1686,1065,0,0
469,-41,0,0,0,0,0,0,0,0,0,-1,1693,1065,0,0
476,-41,0,0,0,0,0,0,0,0,0,-1,1700,1065,0,0
483,-41,0,0,0,0,0,0,0,0,0,-1,1707,1065,0,0
490,-41,0,0,0,0,0,0,0,0,0,-1,1714,1065,0,0
497,-41,0,0,0,0,0,0,0,0,0,-1,1721,1065,0,0
504,-41,0,0,0,0,0,0,0,0,0,-1,1728,1065,0,0
511,-41,0,0,0,0,0,0,0,0,0,-1,1735,1065,0,0
518,-41,0,0,0,0,0,0,0,0,0,-1,1742,1065,0,0
525,-41,0,0,0,0,0,0,0,0,0,-1,1749,1065,0,0
532,-41,0,0,0,0,0,0,0,0,0,-1,1756,1065,0,0
539,-41,0,0,0,0,0,0,0,0,0,-1,1763,1065,0,0
546,-41,0,0,0,0,0,0,0,0,0,-1,1770,1065,0,0
553,-41,0,0,0,0,0,0,0,0,0,-1,1777,1065,0,0
560,-41,0,0,0,0,0,0,0,0,0,-1,1784,1065,0,0
567,-41,0,0,0,0,0,0,0,0,0,-1,1791,1065,0,0
574,-41,0,0,0,0,0,0,0,0,0,-1,1798,1065,0,0
581,-41,0,0,0,0,0,0,0,0,0,-1,1805,1065,0,0
588,-41,0,0,0,0,0,0,0,0,0,-1,1812,1065,0,0
595,-41,0,0,0,0,0,0,0,0,0,-1,1819,1065,0,0
602,-41,0,0,0,0,0,0,0,0,0,-1,1826,1065,0,0
609,-41,0,0,0,0,0,0,0,0,0,-1,1833,1065,0,0
616,-41,0,0,0,0,0,0,0,0,0,-1,1840,1065,0,0
623,-41,0,0,0,0,0,0,0,0,0,-1,1847,1065,0,0
630,-41,0,0,0,0,0,0,0,0,0,-1,1854,1065,0,0
637,-41,0,0,0,0,0,0,0,0,0,-1,1861,1065,0,0
644,-41,0,0,0,0,0,0,0,0,0,-1,1868,1065,0,0
651,-41,48.5066,2.47827,0.00578211,2.0851e-05,-0.000599264,0.00584378,-4.0822e-05,-0.102553,0.00390953,0.0359711,1875,1065,48.5066,-2.47821
658,-41,48.4155,2.60095,0.0041454,0.000130481,-0.000869086,0.00432546,-4.95701e-05,-0.204283,0.0029003,0.039443,1882,1065,48.4155,-2.60099
665,-41,48.3721,2.69739,0.00282802,0.000232005,-0.000781874,0.00304532,1.47071e-05,-0.271078,0.00202533,0.0410869,1889,1065,48.3721,-2.69736
672,-41,48.5273,2.43335,0.00188285,0.000391813,-0.000411818,0.00198903,0.000285633,-0.252338,0.00124181,0.042164,1896,1065,48.5273,-2.43333
679,-41,48.4474,2.73926,0.00108647,0.000543308,0.000124263,0.00111355,0.000516229,0.214558,0.000643476,0.0409271,1903,1065,48.4473,-2.7393
686,-41,48.5421,2.61646,0.000332036,0.000393478,0.000780131,0.00114349,-0.000417979,0.805077,0.00093339,0.0382184,1910,1065,48.5421,-2.61645
693,-41,48.5765,2.56079,-0.000191946,9.24066e-05,0.00141769,0.00137504,-0.00147458,0.835374,0.00164556,0.0423222,1917,1065,48.5765,-2.56074
700,-41,48.5507,2.66992,-0.000526266,-0.000153766,0.00194377,0.00161266,-0.00229269,0.833162,0.00226612,0.0418937,1924,1065,48.5507,-2.66994
707,-41,48.4561,2.67627,-0.00100175,-0.000297462,0.00230227,0.00167945,-0.00297865,0.861287,0.002724,0.0295105,1931,1065,48.4561,-2.67623
714,-41,48.4199,2.72754,-0.00152466,-7.29578e-05,0.00262682,0.00192645,-0.00352407,0.920196,0.0031916,0.0226042,1938,1065,48.4199,-2.72755
721,-41,48.423,2.85669,0,0,0,0,0,0,0,-1,1945,1065,48.423,-2.85672
728,-41,47.8057,6.17627,0,0,0,0,0,0,0,-1,1952,1065,47.8056,-6.17633
735,-41,47.6604,6.0592,-0.00332836,0.00131473,0.0031747,0.00292616,-0.00493979,1.1011,0.00459075,0.0195092,1959,1065,47.6604,-6.0592
742,-41,47.5784,5.93542,-0.00393277,0.00240976,0.00323461,0.00376835,-0.00529136,1.17315,0.00525521,0.0162956,1966,1065,47.5784,-5.93541
749,-41,47.6019,5.80347,-0.00429784,0.00359691,0.00323592,0.00475375,-0.00545467,1.22746,0.00589846,0.0145595,1973,1065,47.602,-5.80342
756,-41,47.6516,5.63757,-0.00455202,0.0051835,0.00340474,0.00625605,-0.00562458,1.26562,0.00686252,0.0139518,1980,1065,47.6516,-5.63761
763,-41,47.5823,5.43494,-0.004476,0.00716896,0.00391366,0.00836204,-0.00566907,1.2749,0.00815045,0.0121132,1987,1065,47.5823,-5.43496
770,-41,47.4906,5.26416,-0.00404164,0.0096992,0.00471291,0.0111603,-0.00550274,1.27017,0.00980351,0.0130275,1994,1065,47.4906,-5.26411
777,-41,47.3792,5.11108,-0.0027509,0.0123949,0.0063254,0.0146891,-0.00504509,1.22286,0.0118384,0.0158301,2001,1065,47.3791,-5.11107
784,-41,47.2412,4.9458,-0.000751149,0.0146549,0.00868374,0.0185598,-0.00465605,1.14821,0.0141823,0.0269201,2008,1065,47.2412,-4.94581
791,-41,47.1626,5.03577,0.00228274,0.0161655,0.0122618,0.0233143,-0.00486613,1.04296,0.0173933,0.0429347,2015,1065,47.1626,-5.03577
798,-41,47.2078,5.00793,0,0,0,0,0,0,0,-1,2022,1065,47.2077,-5.00797
805,-41,46.804,4.21643,0,0,0,0,0,0,0,-1,2029,1065,46.8041,-4.21641
812,-41,47.3262,5.31262,0,0,0,0,0,0,0,-1,2036,1065,47.3262,-5.31267
-700,-48,-38.6554,-2.20117,0.0680977,0.0309979,-0.064035,0.116215,-0.0171199,-0.644415,0.0837688,0.0483974,524,1072,-38.6554,2.20111
-693,-48,-38.5685,-1.56482,0.0570022,0.0314155,-0.0514399,0.0972158,-0.00879811,-0.663518,0.0679334,0.0453574,531,1072,-38.5685,1.56487
-686,-48,-36.6024,-1.55627,0,0,0,0,0,0,0,-1,538,1072,-36.6023,1.55627
-679,-48,-36.192,-1.10352,0.0354911,0.0296082,-0.0307176,0.0634077,0.00169158,-0.737665,0.0417194,0.0473846,545,1072,-36.192,1.10347
-672,-48,-35.7971,-0.6875,0.0262958,0.0278121,-0.0228305,0.049897,0.00421088,-0.801996,0.0319536,0.0421987,552,1072,-35.7971,0.687507
-665,-48,-35.4372,-0.136719,0.0184866,0.0254979,-0.0164503,0.0388119,0.00517261,-0.89038,0.0243343,0.0436678,559,1072,-35.4372,0.13674
-658,-48,-35.1631,0.611694,0.0122319,0.0227008,-0.0114842,0.0300872,0.00484546,-0.99923,0.0186539,0.0456597,566,1072,-35.1631,-0.611722
-651,-48,-34.9857,1.54126,0.00752311,0.0194995,-0.0078181,0.0233592,0.00366341,-1.11221,0.0145067,0.0366246,573,1072,-34.9857,-1.54131
-644,-48,-35.1037,2.14294,0.00435908,0.016077,-0.00495221,0.0178895,0.00254654,-1.21993,0.0111746,0.0207295,580,1072,-35.1037,-2.14293
-637,-48,-35.1034,2.32092,0.00130268,0.0123399,-0.00309434,0.0131482,0.000494361,-1.31528,0.0086054,0.0214254,587,1072,-35.1034,-2.32095
-630,-48,-35.1028,2.58752,-0.000188502,0.00860447,-0.00223977,0.00914212,-0.00072615,-1.33521,0.00635065,0.0221864,594,1072,-35.1028,-2.58751
-623,-48,-35.1982,2.87476,-0.000479993,0.00555799,-0.00258402,0.00651284,-0.00143485,-1.21684,0.00489085,0.0116213,601,1072,-35.1982,-2.87476
-616,-48,-35.2098,3.14685,-0.000269723,0.00352649,-0.0026274,0.00486969,-0.00161292,-1.09821,0.003897,0.0104706,608,1072,-35.2099,-3.14684
-609,-48,-35.1557,3.40784,0.000158766,0.00133545,-0.00281055,0.00361858,-0.00212436,-0.888575,0.00335289,0.0132239,615,1072,-35.1557,-3.40786
-602,-48,-35.191,3.62476,0.000454604,-0.000333374,-0.00301118,0.00309746,-0.00297623,-0.720347,0.00350688,0.0135182,622,1072,-35.191,-3.62477
-595,-48,-35.2368,3.80103,0.000635587,-0.00114074,-0.00304315,0.00291754,-0.00342269,-0.643414,0.0036644,0.0295677,629,1072,-35.2368,-3.80104
-588,-48,-35.7311,2.28149,0,0,0,0,0,0,0,-1,636,1072,-35.7312,-2.28144
-581,-48,-35.9548,0.897217,0.00154484,-0.00182158,-0.00247328,0.00285334,-0.00313008,-0.486619,0.00345576,0.0460411,643,1072,-35.9548,-0.897171
-574,-48,-36.0056,0.863647,0.00181981,-0.00184489,-0.00201701,0.0027125,-0.00273758,-0.416666,0.00314662,0.0415889,650,1072,-36.0055,-0.863705
-567,-48,-35.9711,0.81897,0.00206399,-0.00160519,-0.0013722,0.00252039,-0.0020616,-0.321097,0.00264983,0.039665,657,1072,-35.9711,-0.819017
-560,-48,-35.9298,0.804688,0.00230838,-0.00113613,-0.000514375,0.00238355,-0.0012113,-0.145115,0.00211195,0.0403219,664,1072,-35.9298,-0.804652
-553,-48,-35.9859,0.727051,0.00274883,-0.000551513,0.000571924,0.00284514,-0.000647813,0.166814,0.00214555,0.0421725,671,1072,-35.9859,-0.727046
-546,-48,-36.0617,0.744995,0.0036118,-3.70264e-05,0.00188012,0.00440718,-0.000832407,0.400217,0.0032513,0.0395881,678,1072,-36.0617,-0.744955
-539,-48,-36.1663,0.810669,0.00509044,2.26873e-05,0.00299416,0.00647901,-0.00136587,0.434235,0.00483931,0.0400691,685,1072,-36.1663,-0.810706
-532,-48,-35.9785,1.07532,0.00674259,0.00019488,0.00395463,0.00860266,-0.00166519,0.43965,0.00636322,0.0390494,692,1072,-35.9785,-1.07537
-525,-48,0,0,0,0,0,0,0,0,0,-1,699,1072,0,0
-518,-48,0,0,0,0,0,0,0,0,0,-1,706,1072,0,0
-511,-48,0,0,0,0,0,0,0,0,0,-1,713,1072,0,0
-504,-48,0,0,0,0,0,0,0,0,0,-1,720,1072,0,0
-497,-48,0,0,0,0,0,0,0,0,0,-1,727,1072,0,0
-490,-48,0,0,0,0,0,0,0,0,0,-1,734,1072,0,0
-483,-48,0,0,0,0,0,0,0,0,0,-1,741,1072,0,0
-476,-48,0,0,0,0,0,0,0,0,0,-1,748,1072,0,0
-469,-48,0,0,0,0,0,0,0,0,0,-1,755,1072,0,0
-462,-48,0,0,0,0,0,0,0,0,0,-1,762,1072,0,0
-455,-48,0,0,0,0,0,0,0,0,0,-1,769,1072,0,0
-448,-48,0,0,0,0,0,0,0,0,0,-1,776,1072,0,0
-441,-48,0,0,0,0,0,0,0,0,0,-1,783,1072,0,0
-434,-48,0,0,0,0,0,0,0,0,0,-1,790,1072,0,0
-427,-48,0,0,0,0,0,0,0,0,0,-1,797,1072,0,0
-420,-48,0,0,0,0,0,0,0,0,0,-1,804,1072,0,0
-413,-48,0,0,0,0,0,0,0,0,0,-1,811,1072,0,0
-406,-48,0,0,0,0,0,0,0,0,0,-1,818,1072,0,0
-399,-48,0,0,0,0,0,0,0,0,0,-1,825,1072,0,0
-392,-48,0,0,0,0,0,0,0,0,0,-1,832,1072,0,0
-385,-48,0,0,0,0,0,0,0,0,0,-1,839,1072,0,0
-378,-48,0,0,0,0,0,0,0,0,0,-1,846,1072,0,0
-371,-48,0,0,0,0,0,0,0,0,0,-1,853,1072,0,0
-364,-48,0,0,0,0,0,0,0,0,0,-1,860,1072,0,0
-357,-48,0,0,0,0,0,0,0,0,0,-1,867,1072,0,0
-350,-48,0,0,0,0,0,0,0,0,0,-1,874,1072,0,0
-343,-48,0,0,0,0,0,0,0,0,0,-1,881,1072,0,0
-336,-48,0,0,0,0,0,0,0,0,0,-1,888,1072,0,0
-329,-48,0,0,0,0,0,0,0,0,0,-1,895,1072,0,0
-322,-48,0,0,0,0,0,0,0,0,0,-1,902,1072,0,0
-315,-48,0,0,0,0,0,0,0,0,0,-1,909,1072,0,0
-308,-48,0,0,0,0,0,0,0,0,0,-1,916,1072,0,0
-301,-48,0,0,0,0,0,0,0,0,0,-1,923,1072,0,0
-294,-48,0,0,0,0,0,0,0,0,0,-1,930,1072,0,0
-287,-48,0,0,0,0,0,0,0,0,0,-1,937,1072,0,0
-280,-48,0,0,0,0,0,0,0,0,0,-1,944,1072,0,0
-273,-48,0,0,0,0,0,0,0,0,0,-1,951,1072,0,0
-266,-48,0,0,0,0,0,0,0,0,0,-1,958,1072,0,0
-259,-48,0,0,0,0,0,0,0,0,0,-1,965,1072,0,0
-252,-48,0,0,0,0,0,0,0,0,0,-1,972,1072,0,0
-245,-48,0,0,0,0,0,0,0,0,0,-1,979,1072,0,0
-238,-48,0,0,0,0,0,0,0,0,0,-1,986,1072,0,0
-231,-48,0,0,0,0,0,0,0,0,0,-1,993,1072,0,0
-224,-48,0,0,0,0,0,0,0,0,0,-1,1000,1072,0,0
-217,-48,0,0,0,0,0,0,0,0,0,-1,1007,1072,0,0
-210,-48,0,0,0,0,0,0,0,0,0,-1,1014,1072,0,0
-203,-48,0,0,0,0,0,0,0,0,0,-1,1021,1072,0,0
-196,-48,0,0,0,0,0,0,0,0,0,-1,1028,1072,0,0
-189,-48,0,0,0,0,0,0,0,0,0,-1,1035,1072,0,0
-182,-48,0,0,0,0,0,0,0,0,0,-1,1042,1072,0,0
-175,-48,0,0,0,0,0,0,0,0,0,-1,1049,1072,0,0
-168,-48,0,0,0,0,0,0,0,0,0,-1,1056,1072,0,0
-161,-48,0,0,0,0,0,0,0,0,0,-1,1063,1072,0,0
-154,-48,0,0,0,0,0,0,0,0,0,-1,1070,1072,0,0
-147,-48,0,0,0,0,0,0,0,0,0,-1,1077,1072,0,0
-140,-48,0,0,0,0,0,0,0,0,0,-1,1084,1072,0,0
-133,-48,0,0,0,0,0,0,0,0,0,-1,1091,1072,0,0
-126,-48,0,0,0,0,0,0,0,0,0,-1,1098,1072,0,0
-119,-48,0,0,0,0,0,0,0,0,0,-1,1105,1072,0,0
-112,-48,0,0,0,0,0,0,0,0,0,-1,1112,1072,0,0
-105,-48,0,0,0,0,0,0,0,0,0,-1,1119,1072,0,0
-98,-48,0,0,0,0,0,0,0,0,0,-1,1126,1072,0,0
-91,-48,0,0,0,0,0,0,0,0,0,-1,1133,1072,0,0
-84,-48,0,0,0,0,0,0,0,0,0,-1,1140,1072,0,0
-77,-48,0,0,0,0,0,0,0,0,0,-1,1147,1072,0,0
-70,-48,0,0,0,0,0,0,0,0,0,-1,1154,1072,0,0
-63,-48,0,0,0,0,0,0,0,0,0,-1,1161,1072,0,0
-56,-48,0,0,0,0,0,0,0,0,0,-1,1168,1072,0,0
-49,-48,0,0,0,0,0,0,0,0,0,-1,1175,1072,0,0
-42,-48,0,0,0,0,0,0,0,0,0,-1,1182,1072,0,0
-35,-48,0,0,0,0,0,0,0,0,0,-1,1189,1072,0,0
-28,-48,0,0,0,0,0,0,0,0,0,-1,1196,1072,0,0
-21,-48,0,0,0,0,0,0,0,0,0,-1,1203,1072,0,0
-14,-48,0,0,0,0,0,0,0,0,0,-1,1210,1072,0,0
-7,-48,0,0,0,0,0,0,0,0,0,-1,1217,1072,0,0
0,-48,0,0,0,0,0,0,0,0,0,-1,1224,1072,0,0
7,-48,0,0,0,0,0,0,0,0,0,-1,1231,1072,0,0
14,-48,0,0,0,0,0,0,0,0,0,-1,1238,1072,0,0
21,-48,0,0,0,0,0,0,0,0,0,-1,1245,1072,0,0
28,-48,0,0,0,0,0,0,0,0,0,-1,1252,1072,0,0
35,-48,0,0,0,0,0,0,0,0,0,-1,1259,1072,0,0
42,-48,0,0,0,0,0,0,0,0,0,-1,1266,1072,0,0
49,-48,0,0,0,0,0,0,0,0,0,-1,1273,1072,0,0
56,-48,0,0,0,0,0,0,0,0,0,-1,1280,1072,0,0
63,-48,0,0,0,0,0,0,0,0,0,-1,1287,1072,0,0
70,-48,0,0,0,0,0,0,0,0,0,-1,1294,1072,0,0
77,-48,0,0,0,0,0,0,0,0,0,-1,1301,1072,0,0
84,-48,0,0,0,0,0,0,0,0,0,-1,1308,1072,0,0
91,-48,0,0,0,0,0,0,0,0,0,-1,1315,1072,0,0
98,-48,0,0,0,0,0,0,0,0,0,-1,1322,1072,0,0
105,-48,0,0,0,0,0,0,0,0,0,-1,1329,1072,0,0
112,-48,0,0,0,0,0,0,0,0,0,-1,1336,1072,0,0
119,-48,0,0,0,0,0,0,0,0,0,-1,1343,1072,0,0
126,-48,0,0,0,0,0,0,0,0,0,-1,1350,1072,0,0
133,-48,0,0,0,0,0,0,0,0,0,-1,1357,1072,0,0
140,-48,0,0,0,0,0,0,0,0,0,-1,1364,1072,0,0
147,-48,0,0,0,0,0,0,0,0,0,-1,1371,1072,0,0
154,-48,0,0,0,0,0,0,0,0,0,-1,1378,1072,0,0
161,-48,0,0,0,0,0,0,0,0,0,-1,1385,1072,0,0
168,-48,0,0,0,0,0,0,0,0,0,-1,1392,1072,0,0
175,-48,0,0,0,0,0,0,0,0,0,-1,1399,1072,0,0
182,-48,0,0,0,0,0,0,0,0,0,-1,1406,1072,0,0
189,-48,0,0,0,0,0,0,0,0,0,-1,1413,1072,0,0
196,-48,0,0,0,0,0,0,0,0,0,-1,1420,1072,0,0
203,-48,0,0,0,0,0,0,0,0,0,-1,1427,1072,0,0
210,-48,0,0,0,0,0,0,0,0,0,-1,1434,1072,0,0
217,-48,0,0,0,0,0,0,0,0,0,-1,1441,1072,0,0
224,-48,0,0,0,0,0,0,0,0,0,-1,1448,1072,0,0
231,-48,0,0,0,0,0,0,0,0,0,-1,1455,1072,0,0
238,-48,0,0,0,0,0,0,0,0,0,-1,1462,1072,0,0
245,-48,0,0,0,0,0,0,0,0,0,-1,1469,1072,0,0
252,-48,0,0,0,0,0,0,0,0,0,-1,1476,1072,0,0
259,-48,0,0,0,0,0,0,0,0,0,-1,1483,1072,0,0
266,-48,0,0,0,0,0,0,0,0,0,-1,1490,1072,0,0
273,-48,0,0,0,0,0,0,0,0,0,-1,1497,1072,0,0
280,-48,0,0,0,0,0,0,0,0,0,-1,1504,1072,0,0
287,-48,0,0,0,0,0,0,0,0,0,-1,1511,1072,0,0
294,-48,0,0,0,0,0,0,0,0,0,-1,1518,1072,0,0
301,-48,0,0,0,0,0,0,0,0,0,-1,1525,1072,0,0
308,-48,0,0,0,0,0,0,0,0,0,-1,1532,1072,0,0
315,-48,0,0,0,0,0,0,0,0,0,-1,1539,1072,0,0
322,-48,0,0,0,0,0,0,0,0,0,-1,1546,1072,0,0
329,-48,0,0,0,0,0,0,0,0,0,-1,1553,1072,0,0
336,-48,0,0,0,0,0,0,0,0,0,-1,1560,1072,0,0
343,-48,0,0,0,0,0,0,0,0,0,-1,1567,1072,0,0
350,-48,0,0,0,0,0,0,0,0,0,-1,1574,1072,0,0
357,-48,0,0,0,0,0,0,0,0,0,-1,1581,1072,0,0
364,-48,0,0,0,0,0,0,0,0,0,-1,1588,1072,0,0
371,-48,0,0,0,0,0,0,0,0,0,-1,1595,1072,0,0
378,-48,0,0,0,0,0,0,0,0,0,-1,1602,1072,0,0
385,-48,0,0,0,0,0,0,0,0,0,-1,1609,1072,0,0
392,-48,0,0,0,0,0,0,0,0,0,-1,1616,1072,0,0
399,-48,0,0,0,0,0,0,0,0,0,-1,1623,1072,0,0
406,-48,0,0,0,0,0,0,0,0,0,-1,1630,1072,0,0
413,-48,0,0,0,0,0,0,0,0,0,-1,1637,1072,0,0
420,-48,0,0,0,0,0,0,0,0,0,-1,1644,1072,0,0
427,-48,0,0,0,0,0,0,0,0,0,-1,1651,1072,0,0
434,-48,0,0,0,0,0,0,0,0,0,-1,1658,1072,0,0
441,-48,0,0,0,0,0,0,0,0,0,-1,1665,1072,0,0
448,-48,0,0,0,0,0,0,0,0,0,-1,1672,1072,0,0
455,-48,0,0,0,0,0,0,0,0,0,-1,1679,1072,0,0
462,-48,0,0,0,0,0,0,0,0,0,-1,1686,1072,0,0
469,-48,0,0,0,0,0,0,0,0,0,-1,1693,1072,0,0
476,-48,0,0,0,0,0,0,0,0,0,-1,1700,1072,0,0
483,-48,0,0,0,0,0,0,0,0,0,-1,1707,1072,0,0
490,-48,0,0,0,0,0,0,0,0,0,-1,1714,1072,0,0
497,-48,0,0,0,0,0,0,0,0,0,-1,1721,1072,0,0
504,-48,0,0,0,0,0,0,0,0,0,-1,1728,1072,0,0
511,-48,0,0,0,0,0,0,0,0,0,-1,1735,1072,0,0
518,-48,0,0,0,0,0,0,0,0,0,-1,1742,1072,0,0
525,-48,0,0,0,0,0,0,0,0,0,-1,1749,1072,0,0
532,-48,0,0,0,0,0,0,0,0,0,-1,1756,1072,0,0
539,-48,0,0,0,0,0,0,0,0,0,-1,1763,1072,0,0
546,-48,0,0,0,0,0,0,0,0,0,-1,1770,1072,0,0
553,-48,0,0,0,0,0,0,0,0,0,-1,1777,1072,0,0
560,-48,0,0,0,0,0,0,0,0,0,-1,1784,1072,0,0
567,-48,0,0,0,0,0,0,0,0,0,-1,1791,1072,0,0
574,-48,0,0,0,0,0,0,0,0,0,-1,1798,1072,0,0
581,-48,0,0,0,0,0,0,0,0,0,-1,1805,1072,0,0
588,-48,0,0,0,0,0,0,0,0,0,-1,1812,1072,0,0
595,-48,0,0,0,0,0,0,0,0,0,-1,1819,1072,0,0
602,-48,0,0,0,0,0,0,0,0,0,-1,1826,1072,0,0
609,-48,0,0,0,0,0,0,0,0,0,-1,1833,1072,0,0
616,-48,0,0,0,0,0,0,0,0,0,-1,1840,1072,0,0
623,-48,0,0,0,0,0,0,0,0,0,-1,1847,1072,0,0
630,-48,0,0,0,0,0,0,0,0,0,-1,1854,1072,0,0
637,-48,0,0,0,0,0,0,0,0,0,-1,1861,1072,0,0
644,-48,0,0,0,0,0,0,0,0,0,-1,1868,1072,0,0
651,-48,48.3892,2.57983,0.00538047,0.000131502,-0.000959501,0.00555036,-3.83938e-05,-0.17525,0.00371311,0.0306139,1875,1072,48.3891,-2.57988
658,-48,48.375,2.64465,0.00415209,8.27751e-05,-0.00129859,0.00453118,-0.000296312,-0.28403,0.00312424,0.0357241,1882,1072,48.375,-2.64466
665,-48,48.3022,2.55042,0.00303371,7.205e-05,-0.00120235,0.00346037,-0.000354609,-0.340992,0.00243374,0.0409398,1889,1072,48.3023,-2.55038
672,-48,48.3557,2.54321,0.00216958,0.000170401,-0.000805647,0.00245384,-0.000113849,-0.339187,0.00167513,0.041521,1896,1072,48.3557,-2.54326
679,-48,48.4602,2.47241,0.00134666,0.000288783,-0.000236276,0.00139703,0.00023841,-0.210052,0.000862934,0.0389299,1903,1072,48.4602,-2.47245
686,-48,48.4592,2.50073,0.000515859,0.000154451,0.000418275,0.000790795,-0.000120486,0.581497,0.000571607,0.0370637,1910,1072,48.4592,-2.50076
693,-48,48.5852,2.4718,-7.54194e-05,-9.89243e-05,0.00103389,0.000946786,-0.00112113,0.779715,0.00119533,0.0396301,1917,1072,48.5852,-2.47177
700,-48,48.5613,2.57922,-0.000455617,-0.000297284,0.00153169,0.00115729,-0.00191019,0.811218,0.0017887,0.0358348,1924,1072,48.5613,-2.57916
707,-48,48.4796,2.6604,-0.000940801,-0.000410904,0.00190261,0.00124511,-0.00259682,0.854581,0.00226344,0.0301654,1931,1072,48.4796,-2.66042
714,-48,48.4459,2.73901,-0.00146457,-0.000163293,0.00225867,0.00153659,-0.00316445,0.925633,0.00276785,0.0388367,1938,1072,48.446,-2.73897
721,-48,48.4348,2.97095,0,0,0,0,0,0,0,-1,1945,1072,48.4348,-2.97094
728,-48,47.5967,6.33716,0,0,0,0,0,0,0,-1,1952,1072,47.5967,-6.33717
735,-48,47.4709,6.15796,-0.00321596,0.00113618,0.00289614,0.00258266,-0.00466245,1.10759,0.00424003,0.0203816,1959,1072,47.471,-6.15796
742,-48,47.3494,5.96765,-0.00376767,0.00223828,0.00294673,0.00344257,-0.00497196,1.18282,0.0048848,0.0165808,1966,1072,47.3494,-5.96769
749,-48,47.374,5.7887,-0.00401984,0.00344232,0.00289245,0.00443218,-0.0050097,1.24107,0.00545467,0.014582,1973,1072,47.3741,-5.7887
756,-48,47.389,5.6012,-0.00417104,0.00503055,0.00298503,0.00591407,-0.00505456,1.28303,0.00633922,0.0129341,1980,1072,47.389,-5.60119
763,-48,47.3379,5.40198,-0.004055,0.00709931,0.00333567,0.00802072,-0.00497642,1.30129,0.0075722,0.0124545,1987,1072,47.3379,-5.40193
770,-48,47.3059,5.20154,-0.00362215,0.00980507,0.00385358,0.0108324,-0.00464951,1.31026,0.00917303,0.0127177,1994,1072,47.306,-5.20148
777,-48,47.179,4.99231,-0.00242395,0.0128179,0.00492807,0.0142725,-0.00387851,1.28379,0.0110374,0.0121395,2001,1072,47.1788,-4.99226
784,-48,47.0579,4.78308,-0.000580002,0.0155506,0.0065542,0.0178779,-0.00290732,1.2296,0.0129966,0.0246962,2008,1072,47.0579,-4.78303
791,-48,46.928,4.61707,0.0022472,0.0177732,0.00911308,0.0219815,-0.00196112,1.13818,0.0153499,0.0405811,2015,1072,46.9279,-4.61701
798,-48,46.7297,4.44507,0,0,0,0,0,0,0,-1,2022,1072,46.7297,-4.4451
805,-48,46.5798,4.18884,0,0,0,0,0,0,0,-1,2029,1072,46.5798,-4.18888
812,-48,46.439,3.94897,0,0,0,0,0,0,0,-1,2036,1072,46.439,-3.94892
-700,-55,-37.1435,-2.23328,0.0536655,0.0383471,-0.0624633,0.108937,-0.0169248,-0.724393,0.0788741,0.0479713,524,1079,-37.1435,2.23325
-693,-55,-37.2947,-1.66589,0.0449871,0.0382199,-0.0505929,0.0923095,-0.00910242,-0.752008,0.0647873,0.0480402,531,1079,-37.2947,1.66592
-686,-55,-36.9441,-1.36475,0.0361503,0.0368088,-0.0398818,0.0763627,-0.0034036,-0.789525,0.0520801,0.04395,538,1079,-36.9441,1.36479
-679,-55,-36.0328,-1.23364,0,0,0,0,0,0,0,-1,545,1079,-36.0328,1.23367
-672,-55,-35.4641,-0.761719,0.0205675,0.0318707,-0.0230246,0.0499272,0.00251103,-0.905748,0.0324801,0.0435016,552,1079,-35.4641,0.7617
-665,-55,-34.9612,-0.375977,0.0143155,0.0286357,-0.0167004,0.0396462,0.00330498,-0.987915,0.0254009,0.046083,559,1079,-34.9613,0.376032
-658,-55,-34.9169,0.36731,0,0,0,0,0,0,0,-1,566,1079,-34.9169,-0.367338
-651,-55,-34.8619,1.2146,0.00558268,0.0211153,-0.0079617,0.0244712,0.00222674,-1.17189,0.0156249,0.04079,573,1079,-34.862,-1.21454
-644,-55,-34.8508,2.02917,0.00316266,0.0171856,-0.00502025,0.0187976,0.00155069,-1.2601,0.0120481,0.0238437,580,1079,-34.8507,-2.02916
-637,-55,-34.8453,2.25757,0.000718623,0.0129789,-0.00300805,0.0136771,2.03666e-05,-1.34271,0.0091113,0.0192209,587,1079,-34.8453,-2.25756
-630,-55,-34.8288,2.56409,-0.0003182,0.00885596,-0.0019823,0.00926596,-0.000728198,-1.36684,0.00643379,0.0209189,594,1079,-34.8288,-2.56404
-623,-55,-34.9683,2.87695,-0.000432081,0.00562481,-0.00219804,0.0063384,-0.00114567,-1.25688,0.00465473,0.0175103,601,1079,-34.9683,-2.877
-616,-55,-34.9929,3.11584,-7.4236e-05,0.00344555,-0.00210544,0.00442976,-0.00105844,-1.13352,0.00336199,0.0157408,608,1079,-34.9929,-3.11583
-609,-55,-34.9229,3.43567,0.000384542,0.00114766,-0.00219839,0.00299736,-0.00146516,-0.871323,0.00262657,0.0172741,615,1079,-34.9229,-3.43566
-602,-55,-34.9026,3.70532,0.000614462,-0.000473308,-0.00235847,0.00249094,-0.00234979,-0.672074,0.00279519,0.0151511,622,1079,-34.9026,-3.70531
-595,-55,-34.8232,4.0061,0.000731529,-0.00122604,-0.00237534,0.00232184,-0.00281636,-0.589968,0.00297112,0.0298689,629,1079,-34.8232,-4.00608
-588,-55,-34.8456,4.37073,0,0,0,0,0,0,0,-1,636,1079,-34.8456,-4.37074
-581,-55,-35.9963,0.788452,0,0,0,0,0,0,0,-1,643,1079,-35.9963,-0.788495
-574,-55,-36.0065,0.6427,0.00173245,-0.00197608,-0.00138857,0.00219474,-0.00243836,-0.321383,0.00267615,0.0393891,650,1079,-36.0065,-0.642709
-567,-55,-35.9056,0.664307,0.00194318,-0.00178051,-0.000819859,0.0021157,-0.00195303,-0.207399,0.00234971,0.0383406,657,1079,-35.9056,-0.664335
-560,-55,-35.9947,0.780029,0.00214284,-0.00135929,-7.10577e-05,0.00214428,-0.00136073,-0.0202787,0.0020404,0.0407832,664,1079,-35.9947,-0.779981
-553,-55,-35.8969,0.841431,0.00252802,-0.000813476,0.000883184,0.00274709,-0.00103255,0.243139,0.00225578,0.0433978,671,1079,-35.8969,-0.841438
-546,-55,-35.9121,0.871582,0.00336554,-0.000286026,0.00205596,0.00428938,-0.00120987,0.422313,0.00333681,0.0399659,678,1079,-35.9121,-0.87161
-539,-55,-36.013,0.96875,0.00498395,-0.000169887,0.00309735,0.00643618,-0.00162212,0.438429,0.00492143,0.0395841,685,1079,-36.013,-0.968709
-532,-55,-36.0777,1.31287,0.00660129,3.97617e-05,0.00416049,0.00861894,-0.00197788,0.451537,0.00650625,0.0392114,692,1079,-36.0777,-1.31282
-525,-55,0,0,0,0,0,0,0,0,0,-1,699,1079,0,0
-518,-55,0,0,0,0,0,0,0,0,0,-1,706,1079,0,0
-511,-55,0,0,0,0,0,0,0,0,0,-1,713,1079,0,0
-504,-55,0,0,0,0,0,0,0,0,0,-1,720,1079,0,0
-497,-55,0,0,0,0,0,0,0,0,0,-1,727,1079,0,0
-490,-55,0,0,0,0,0,0,0,0,0,-1,734,1079,0,0
-483,-55,0,0,0,0,0,0,0,0,0,-1,741,1079,0,0
-476,-55,0,0,0,0,0,0,0,0,0,-1,748,1079,0,0
-469,-55,0,0,0,0,0,0,0,0,0,-1,755,1079,0,0
-462,-55,0,0,0,0,0,0,0,0,0,-1,762,1079,0,0
-455,-55,0,0,0,0,0,0,0,0,0,-1,769,1079,0,0
-448,-55,0,0,0,0,0,0,0,0,0,-1,776,1079,0,0
-441,-55,0,0,0,0,0,0,0,0,0,-1,783,1079,0,0
-434,-55,0,0,0,0,0,0,0,0,0,-1,790,1079,0,0
-427,-55,0,0,0,0,0,0,0,0,0,-1,797,1079,0,0
-420,-55,0,0,0,0,0,0,0,0,0,-1,804,1079,0,0
-413,-55,0,0,0,0,0,0,0,0,0,-1,811,1079,0,0
-406,-55,0,0,0,0,0,0,0,0,0,-1,818,1079,0,0
-399,-55,0,0,0,0,0,0,0,0,0,-1,825,1079,0,0
-392,-55,0,0,0,0,0,0,0,0,0,-1,832,1079,0,0
-385,-55,0,0,0,0,0,0,0,0,0,-1,839,1079,0,0
-378,-55,0,0,0,0,0,0,0,0,0,-1,846,1079,0,0
-371,-55,0,0,0,0,0,0,0,0,0,-1,853,1079,0,0
-364,-55,0,0,0,0,0,0,0,0,0,-1,860,1079,0,0
-357,-55,0,0,0,0,0,0,0,0,0,-1,867,1079,0,0
-350,-55,0,0,0,0,0,0,0,0,0,-1,874,1079,0,0
-343,-55,0,0,0,0,0,0,0,0,0,-1,881,1079,0,0
-336,-55,0,0,0,0,0,0,0,0,0,-1,888,1079,0,0
-329,-55,0,0,0,0,0,0,0,0,0,-1,895,1079,0,0
-322,-55,0,0,0,0,0,0,0,0,0,-1,902,1079,0,0
-315,-55,0,0,0,0,0,0,0,0,0,-1,909,1079,0,0
-308,-55,0,0,0,0,0,0,0,0,0,-1,916,1079,0,0
-301,-55,0,0,0,0,0,0,0,0,0,-1,923,1079,0,0
-294,-55,0,0,0,0,0,0,0,0,0,-1,930,1079,0,0
-287,-55,0,0,0,0,0,0,0,0,0,-1,937,1079,0,0
-280,-55,0,0,0,0,0,0,0,0,0,-1,944,1079,0,0
-273,-55,0,0,0,0,0,0,0,0,0,-1,951,1079,0,0
-266,-55,0,0,0,0,0,0,0,0,0,-1,958,1079,0,0
-259,-55,0,0,0,0,0,0,0,0,0,-1,965,1079,0,0
-252,-55,0,0,0,0,0,0,0,0,0,-1,972,1079,0,0
-245,-55,0,0,0,0,0,0,0,0,0,-1,979,1079,0,0
-238,-55,0,0,0,0,0,0,0,0,0,-1,986,1079,0,0
-231,-55,0,0,0,0,0,0,0,0,0,-1,993,1079,0,0
-224,-55,0,0,0,0,0,0,0,0,0,-1,1000,1079,0,0
-217,-55,0,0,0,0,0,0,0,0,0,-1,1007,1079,0,0
-210,-55,0,0,0,0,0,0,0,0,0,-1,1014,1079,0,0
-203,-55,0,0,0,0,0,0,0,0,0,-1,1021,1079,0,0
-196,-55,0,0,0,0,0,0,0,0,0,-1,1028,1079,0,0
-189,-55,0,0,0,0,0,0,0,0,0,-1,1035,1079,0,0
-182,-55,0,0,0,0,0,0,0,0,0,-1,1042,1079,0,0
-175,-55,0,0,0,0,0,0,0,0,0,-1,1049,1079,0,0
-168,-55,0,0,0,0,0,0,0,0,0,-1,1056,1079,0,0
-161,-55,0,0,0,0,0,0,0,0,0,-1,1063,1079,0,0
-154,-55,0,0,0,0,0,0,0,0,0,-1,1070,1079,0,0
-147,-55,0,0,0,0,0,0,0,0,0,-1,1077,1079,0,0
-140,-55,0,0,0,0,0,0,0,0,0,-1,1084,1079,0,0
-133,-55,0,0,0,0,0,0,0,0,0,-1,1091,1079,0,0
-126,-55,0,0,0,0,0,0,0,0,0,-1,1098,1079,0,0
-119,-55,0,0,0,0,0,0,0,0,0,-1,1105,1079,0,0
-112,-55,0,0,0,0,0,0,0,0,0,-1,1112,1079,0,0
-105,-55,0,0,0,0,0,0,0,0,0,-1,1119,1079,0,0
-98,-55,0,0,0,0,0,0,0,0,0,-1,1126,1079,0,0
-91,-55,0,0,0,0,0,0,0,0,0,-1,1133,1079,0,0
-84,-55,0,0,0,0,0,0,0,0,0,-1,1140,1079,0,0
-77,-55,0,0,0,0,0,0,0,0,0,-1,1147,1079,0,0
-70,-55,0,0,0,0,0,0,0,0,0,-1,1154,1079,0,0
-63,-55,0,0,0,0,0,0,0,0,0,-1,1161,1079,0,0
-56,-55,0,0,0,0,0,0,0,0,0,-1,1168,1079,0,0
-49,-55,0,0,0,0,0,0,0,0,0,-1,1175,1079,0,0
-42,-55,0,0,0,0,0,0,0,0,0,-1,1182,1079,0,0
-35,-55,0,0,0,0,0,0,0,0,0,-1,1189,1079,0,0
-28,-55,0,0,0,0,0,0,0,0,0,-1,1196,1079,0,0
-21,-55,0,0,0,0,0,0,0,0,0,-1,1203,1079,0,0
-14,-55,0,0,0,0,0,0,0,0,0,-1,1210,1079,0,0
-7,-55,0,0,0,0,0,0,0,0,0,-1,1217,1079,0,0
0,-55,0,0,0,0,0,0,0,0,0,-1,1224,1079,0,0
7,-55,0,0,0,0,0,0,0,0,0,-1,1231,1079,0,0
14,-55,0,0,0,0,0,0,0,0,0,-1,1238,1079,0,0
21,-55,0,0,0,0,0,0,0,0,0,-1,1245,1079,0,0
28,-55,0,0,0,0,0,0,0,0,0,-1,1252,1079,0,0
35,-55,0,0,0,0,0,0,0,0,0,-1,1259,1079,0,0
42,-55,0,0,0,0,0,0,0,0,0,-1,1266,1079,0,0
49,-55,0,0,0,0,0,0,0,0,0,-1,1273,1079,0,0
56,-55,0,0,0,0,0,0,0,0,0,-1,1280,1079,0,0
63,-55,0,0,0,0,0,0,0,0,0,-1,1287,1079,0,0
70,-55,0,0,0,0,0,0,0,0,0,-1,1294,1079,0,0
77,-55,0,0,0,0,0,0,0,0,0,-1,1301,1079,0,0
84,-55,0,0,0,0,0,0,0,0,0,-1,1308,1079,0,0
91,-55,0,0,0,0,0,0,0,0,0,-1,1315,1079,0,0
98,-55,0,0,0,0,0,0,0,0,0,-1,1322,1079,0,0
105,-55,0,0,0,0,0,0,0,0,0,-1,1329,1079,0,0
112,-55,0,0,0,0,0,0,0,0,0,-1,1336,1079,0,0
119,-55,0,0,0,0,0,0,0,0,0,-1,1343,1079,0,0
126,-55,0,0,0,0,0,0,0,0,0,-1,1350,1079,0,0
133,-55,0,0,0,0,0,0,0,0,0,-1,1357,1079,0,0
140,-55,0,0,0,0,0,0,0,0,0,-1,1364,1079,0,0
147,-55,0,0,0,0,0,0,0,0,0,-1,1371,1079,0,0
154,-55,0,0,0,0,0,0,0,0,0,-1,1378,1079,0,0
161,-55,0,0,0,0,0,0,0,0,0,-1,1385,1079,0,0
168,-55,0,0,0,0,0,0,0,0,0,-1,1392,1079,0,0
175,-55,0,0,0,0,0,0,0,0,0,-1,1399,1079,0,0
182,-55,0,0,0,0,0,0,0,0,0,-1,1406,1079,0,0
189,-55,0,0,0,0,0,0,0,0,0,-1,1413,1079,0,0
196,-55,0,0,0,0,0,0,0,0,0,-1,1420,1079,0,0
203,-55,0,0,0,0,0,0,0,0,0,-1,1427,1079,0,0
210,-55,0,0,0,0,0,0,0,0,0,-1,1434,1079,0,0
217,-55,0,0,0,0,0,0,0,0,0,-1,1441,1079,0,0
224,-55,0,0,0,0,0,0,0,0,0,-1,1448,1079,0,0
231,-55,0,0,0,0,0,0,0,0,0,-1,1455,1079,0,0
238,-55,0,0,0,0,0,0,0,0,0,-1,1462,1079,0,0
245,-55,0,0,0,0,0,0,0,0,0,-1,1469,1079,0,0
252,-55,0,0,0,0,0,0,0,0,0,-1,1476,1079,0,0
259,-55,0,0,0,0,0,0,0,0,0,-1,1483,1079,0,0
266,-55,0,0,0,0,0,0,0,0,0,-1,1490,1079,0,0
273,-55,0,0,0,0,0,0,0,0,0,-1,1497,1079,0,0
280,-55,0,0,0,0,0,0,0,0,0,-1,1504,1079,0,0
287,-55,0,0,0,0,0,0,0,0,0,-1,1511,1079,0,0
294,-55,0,0,0,0,0,0,0,0,0,-1,1518,1079,0,0
301,-55,0,0,0,0,0,0,0,0,0,-1,1525,1079,0,0
308,-55,0,0,0,0,0,0,0,0,0,-1,1532,1079,0,0
315,-55,0,0,0,0,0,0,0,0,0,-1,1539,1079,0,0
322,-55,0,0,0,0,0,0,0,0,0,-1,1546,1079,0,0
329,-55,0,0,0,0,0,0,0,0,0,-1,1553,1079,0,0
336,-55,0,0,0,0,0,0,0,0,0,-1,1560,1079,0,0
343,-55,0,0,0,0,0,0,0,0,0,-1,1567,1079,0,0
350,-55,0,0,0,0,0,0,0,0,0,-1,1574,1079,0,0
357,-55,0,0,0,0,0,0,0,0,0,-1,1581,1079,0,0
364,-55,0,0,0,0,0,0,0,0,0,-1,1588,1079,0,0
371,-55,0,0,0,0,0,0,0,0,0,-1,1595,1079,0,0
378,-55,0,0,0,0,0,0,0,0,0,-1,1602,1079,0,0
385,-55,0,0,0,0,0,0,0,0,0,-1,1609,1079,0,0
392,-55,0,0,0,0,0,0,0,0,0,-1,1616,1079,0,0
399,-55,0,0,0,0,0,0,0,0,0,-1,1623,1079,0,0
406,-55,0,0,0,0,0,0,0,0,0,-1,1630,1079,0,0
413,-55,0,0,0,0,0,0,0,0,0,-1,1637,1079,0,0
420,-55,0,0,0,0,0,0,0,0,0,-1,1644,1079,0,0
427,-55,0,0,0,0,0,0,0,0,0,-1,1651,1079,0,0
434,-55,0,0,0,0,0,0,0,0,0,-1,1658,1079,0,0
441,-55,0,0,0,0,0,0,0,0,0,-1,1665,1079,0,0
448,-55,0,0,0,0,0,0,0,0,0,-1,1672,1079,0,0
455,-55,0,0,0,0,0,0,0,0,0,-1,1679,1079,0,0
462,-55,0,0,0,0,0,0,0,0,0,-1,1686,1079,0,0
469,-55,0,0,0,0,0,0,0,0,0,-1,1693,1079,0,0
476,-55,0,0,0,0,0,0,0,0,0,-1,1700,1079,0,0
483,-55,0,0,0,0,0,0,0,0,0,-1,1707,1079,0,0
490,-55,0,0,0,0,0,0,0,0,0,-1,1714,1079,0,0
497,-55,0,0,0,0,0,0,0,0,0,-1,1721,1079,0,0
504,-55,0,0,0,0,0,0,0,0,0,-1,1728,1079,0,0
511,-55,0,0,0,0,0,0,0,0,0,-1,1735,1079,0,0
518,-55,0,0,0,0,0,0,0,0,0,-1,1742,1079,0,0
525,-55,0,0,0,0,0,0,0,0,0,-1,1749,1079,0,0
532,-55,0,0,0,0,0,0,0,0,0,-1,1756,1079,0,0
539,-55,0,0,0,0,0,0,0,0,0,-1,1763,1079,0,0
546,-55,0,0,0,0,0,0,0,0,0,-1,1770,1079,0,0
553,-55,0,0,0,0,0,0,0,0,0,-1,1777,1079,0,0
560,-55,0,0,0,0,0,0,0,0,0,-1,1784,1079,0,0
567,-55,0,0,0,0,0,0,0,0,0,-1,1791,1079,0,0
574,-55,0,0,0,0,0,0,0,0,0,-1,1798,1079,0,0
581,-55,0,0,0,0,0,0,0,0,0,-1,1805,1079,0,0
588,-55,0,0,0,0,0,0,0,0,0,-1,1812,1079,0,0
595,-55,0,0,0,0,0,0,0,0,0,-1,1819,1079,0,0
602,-55,0,0,0,0,0,0,0,0,0,-1,1826,1079,0,0
609,-55,0,0,0,0,0,0,0,0,0,-1,1833,1079,0,0
616,-55,0,0,0,0,0,0,0,0,0,-1,1840,1079,0,0
623,-55,0,0,0,0,0,0,0,0,0,-1,1847,1079,0,0
630,-55,0,0,0,0,0,0,0,0,0,-1,1854,1079,0,0
637,-55,0,0,0,0,0,0,0,0,0,-1,1861,1079,0,0
644,-55,0,0,0,0,0,0,0,0,0,-1,1868,1079,0,0
651,-55,48.2793,2.78943,0.00554757,-0.000244054,-0.00135255,0.00584787,-0.000544352,-0.218479,0.00409212,0.0333341,1875,1079,48.2793,-2.7894
658,-55,48.4344,2.81323,0.00446583,-0.000351151,-0.00168278,0.00499546,-0.000880786,-0.304922,0.00365941,0.0325256,1882,1079,48.4344,-2.81321
665,-55,48.4174,2.6825,0.00339181,-0.000382103,-0.00155323,0.00394885,-0.000939145,-0.344346,0.0029951,0.0370561,1889,1079,48.4173,-2.68246
672,-55,48.3604,2.70654,0.0025086,-0.000277488,-0.00112653,0.0029071,-0.00067599,-0.340006,0.00219832,0.0365552,1896,1079,48.3603,-2.70657
679,-55,48.3707,2.53589,0.00160359,-0.000137485,-0.00052164,0.00174791,-0.000281809,-0.269922,0.00126968,0.0354289,1903,1079,48.3707,-2.53589
686,-55,48.4188,2.37695,0.000703714,-0.000228166,0.000155353,0.000728931,-0.000253382,0.160913,0.000588875,0.0376001,1910,1079,48.4188,-2.37696
693,-55,48.491,2.44189,6.58879e-05,-0.000412751,0.00077073,0.000633599,-0.000980462,0.634863,0.000939024,0.038121,1917,1079,48.491,-2.44184
700,-55,48.5164,2.56189,-0.000366992,-0.000532895,0.00124504,0.000797858,-0.00169775,0.752135,0.00147173,0.0329199,1924,1079,48.5163,-2.56184
707,-55,48.4561,2.63098,-0.000853932,-0.000613731,0.00164638,0.000916925,-0.00238459,0.821808,0.00196791,0.0293836,1931,1079,48.456,-2.63093
714,-55,48.4503,2.68164,-0.00137309,-0.000331324,0.00205883,0.00127149,-0.00297591,0.909298,0.00251719,0.0498983,1938,1079,48.4504,-2.68159
721,-55,48.5204,2.78699,0,0,0,0,0,0,0,-1,1945,1079,48.5204,-2.78696
728,-55,47.2727,6.46655,0,0,0,0,0,0,0,-1,1952,1079,47.2727,-6.46661
735,-55,47.1776,6.21985,-0.00307728,0.000913083,0.0027727,0.00233383,-0.00449803,1.09727,0.00400981,0.0210683,1959,1079,47.1776,-6.21989
742,-55,47.1759,6.00964,-0.00355206,0.0020041,0.00278658,0.00316083,-0.0047088,1.17733,0.00457274,0.0201614,1966,1079,47.1759,-6.0096
749,-55,47.1876,5.80627,-0.00365421,0.00323052,0.00262039,0.00411439,-0.00453808,1.24548,0.00499751,0.0134972,1973,1079,47.1876,-5.80627
756,-55,47.1091,5.59277,-0.00368908,0.00482719,0.00257527,0.00554537,-0.00440726,1.29883,0.00575866,0.0113079,1980,1079,47.1091,-5.59276
763,-55,47.0837,5.38513,-0.00345676,0.00697229,0.00267379,0.00761783,-0.00410231,1.3339,0.00686735,0.0145759,1987,1079,47.0837,-5.38519
770,-55,47.0736,5.14526,-0.00286356,0.0098173,0.00277318,0.0103972,-0.0034435,1.36464,0.00832035,0.0162634,1994,1079,47.0736,-5.14526
777,-55,46.9725,4.92249,-0.00149476,0.0130644,0.00314912,0.0137163,-0.00214672,1.36665,0.00993737,0.0133555,2001,1079,46.9725,-4.92252
784,-55,46.8232,4.70935,0.000536974,0.0161799,0.00388013,0.0170895,-0.000372581,1.34054,0.0115192,0.0290683,2008,1079,46.8233,-4.70938
791,-55,46.7046,4.57239,0.00366109,0.0190205,0.00521785,0.0206254,0.0020562,1.2724,0.0131187,0.0423221,2015,1079,46.7045,-4.57244
798,-55,47.3096,4.33228,0,0,0,0,0,0,0,-1,2022,1079,47.3096,-4.33226
805,-55,46.3513,4.32056,0,0,0,0,0,0,0,-1,2029,1079,46.3512,-4.3205
812,-55,45.6851,4.06567,0,0,0,0,0,0,0,-1,2036,1079,45.6851,-4.06572
-700,-62,-36.2079,-2.0708,0,0,0,0,0,0,0,-1,524,1086,-36.2079,2.07079
-693,-62,-35.7921,-1.87415,0,0,0,0,0,0,0,-1,531,1086,-35.7921,1.8742
-686,-62,-35.4282,-1.52991,0.0227767,0.0424031,-0.0397008,0.0734855,-0.00830572,-0.90656,0.0519806,0.0478976,538,1086,-35.4282,1.52992
-679,-62,-35.0558,-1.20703,0.0169953,0.0392453,-0.0309191,0.0609799,-0.00473934,-0.958091,0.0423216,0.0451427,545,1086,-35.0558,1.20698
-672,-62,-34.7645,-0.669434,0.011976,0.0355176,-0.0233984,0.0499391,-0.00244545,-1.01844,0.0341371,0.0431234,552,1086,-34.7646,0.669491
-665,-62,-34.4441,-0.646484,0,0,0,0,0,0,0,-1,559,1086,-34.4441,0.646506
-658,-62,-34.7209,1.09729,0,0,0,0,0,0,0,-1,566,1086,-34.7209,-1.0973
-651,-62,-34.5808,1.50281,0.00219111,0.0224005,-0.00825952,0.0253467,-0.000755031,-1.22817,0.017155,0.0411864,573,1086,-34.5808,-1.50282
-644,-62,-34.5571,1.9325,0.000860901,0.0180016,-0.00521112,0.0194615,-0.000599037,-1.29764,0.0131786,0.0155159,580,1086,-34.5571,-1.93244
-637,-62,-34.5975,2.26965,-0.000617631,0.0133962,-0.0030855,0.0140455,-0.0012669,-1.3634,0.00981326,0.0133181,587,1086,-34.5975,-2.26971
-630,-62,-34.6251,2.58008,-0.000778612,0.00895077,-0.0019602,0.00933085,-0.00115869,-1.37927,0.00664058,0.0150348,594,1086,-34.6251,-2.58011
-623,-62,-34.6791,2.88513,-0.000543831,0.00558521,-0.00204199,0.00620322,-0.00116184,-1.27691,0.00457223,0.0171685,601,1086,-34.6791,-2.8851
-616,-62,-34.6779,3.18274,0.000128859,0.00328531,-0.00183054,0.00412404,-0.000709867,-1.14116,0.00301398,0.016915,608,1086,-34.6779,-3.18278
-609,-62,-34.6365,3.47534,0.000740699,0.000909503,-0.00185857,0.00268559,-0.00103539,-0.808089,0.00221761,0.0172384,615,1086,-34.6366,-3.47532
-602,-62,-34.5573,3.7605,0.00095445,-0.000650368,-0.00196945,0.00227868,-0.00197459,-0.591951,0.00245772,0.0159816,622,1086,-34.5572,-3.7605
-595,-62,-34.449,4.10547,0.0010745,-0.00139683,-0.00198732,0.00217898,-0.00250132,-0.50726,0.00270431,0.0331858,629,1086,-34.4491,-4.10544
-588,-62,-34.3962,4.48364,0,0,0,0,0,0,0,-1,636,1086,-34.3962,-4.48366
-581,-62,-35.9786,0.952271,0,0,0,0,0,0,0,-1,643,1086,-35.9787,-0.952275
-574,-62,-35.9722,0.791016,0.00199224,-0.00229449,-0.0011431,0.00227801,-0.00258026,-0.244974,0.00280673,0.0343427,650,1086,-35.9722,-0.79106
-567,-62,-35.9424,0.653198,0.00216805,-0.00219206,-0.000658657,0.00226538,-0.00228939,-0.146704,0.00262971,0.0374158,657,1086,-35.9424,-0.653226
-560,-62,-35.9848,0.760864,0.0023165,-0.00187086,-1.76193e-05,0.00231657,-0.00187093,-0.00420763,0.00242222,0.040564,664,1086,-35.9848,-0.760834
-553,-62,-35.902,0.792847,0.00259991,-0.00140376,0.000805005,0.00275571,-0.00155956,0.191172,0.00252312,0.0397724,671,1086,-35.902,-0.792906
-546,-62,-35.8556,0.858521,0.00334565,-0.000893937,0.00184065,0.00403326,-0.00158155,0.357516,0.00334314,0.0331633,678,1086,-35.8556,-0.858461
-539,-62,-35.9149,1.01428,0.00506014,-0.000711331,0.00281583,0.00620633,-0.00185752,0.386569,0.00487612,0.0394277,685,1086,-35.9149,-1.01433
-532,-62,-35.9139,1.15625,0.00670959,-0.000456427,0.00376851,0.00832654,-0.00207338,0.405313,0.0063559,0.0425774,692,1086,-35.914,-1.15621
-525,-62,0,0,0,0,0,0,0,0,0,-1,699,1086,0,0
-518,-62,0,0,0,0,0,0,0,0,0,-1,706,1086,0,0
-511,-62,0,0,0,0,0,0,0,0,0,-1,713,1086,0,0
-504,-62,0,0,0,0,0,0,0,0,0,-1,720,1086,0,0
-497,-62,0,0,0,0,0,0,0,0,0,-1,727,1086,0,0
-490,-62,0,0,0,0,0,0,0,0,0,-1,734,1086,0,0
-483,-62,0,0,0,0,0,0,0,0,0,-1,741,1086,0,0
-476,-62,0,0,0,0,0,0,0,0,0,-1,748,1086,0,0
-469,-62,0,0,0,0,0,0,0,0,0,-1,755,1086,0,0
-462,-62,0,0,0,0,0,0,0,0,0,-1,762,1086,0,0
-455,-62,0,0,0,0,0,0,0,0,0,-1,769,1086,0,0
-448,-62,0,0,0,0,0,0,0,0,0,-1,776,1086,0,0
-441,-62,0,0,0,0,0,0,0,0,0,-1,783,1086,0,0
-434,-62,0,0,0,0,0,0,0,0,0,-1,790,1086,0,0
-427,-62,0,0,0,0,0,0,0,0,0,-1,797,1086,0,0
-420,-62,0,0,0,0,0,0,0,0,0,-1,804,1086,0,0
-413,-62,0,0,0,0,0,0,0,0,0,-1,811,1086,0,0
-406,-62,0,0,0,0,0,0,0,0,0,-1,818,1086,0,0
-399,-62,0,0,0,0,0,0,0,0,0,-1,825,1086,0,0
-392,-62,0,0,0,0,0,0,0,0,0,-1,832,1086,0,0
-385,-62,0,0,0,0,0,0,0,0,0,-1,839,1086,0,0
-378,-62,0,0,0,0,0,0,0,0,0,-1,846,1086,0,0
-371,-62,0,0,0,0,0,0,0,0,0,-1,853,1086,0,0
-364,-62,0,0,0,0,0,0,0,0,0,-1,860,1086,0,0
-357,-62,0,0,0,0,0,0,0,0,0,-1,867,1086,0,0
-350,-62,0,0,0,0,0,0,0,0,0,-1,874,1086,0,0
-343,-62,0,0,0,0,0,0,0,0,0,-1,881,1086,0,0
-336,-62,0,0,0,0,0,0,0,0,0,-1,888,1086,0,0
-329,-62,0,0,0,0,0,0,0,0,0,-1,895,1086,0,0
-322,-62,0,0,0,0,0,0,0,0,0,-1,902,1086,0,0
-315,-62,0,0,0,0,0,0,0,0,0,-1,909,1086,0,0
-308,-62,0,0,0,0,0,0,0,0,0,-1,916,1086,0,0
-301,-62,0,0,0,0,0,0,0,0,0,-1,923,1086,0,0
-294,-62,0,0,0,0,0,0,0,0,0,-1,930,1086,0,0
-287,-62,0,0,0,0,0,0,0,0,0,-1,937,1086,0,0
-280,-62,0,0,0,0,0,0,0,0,0,-1,944,1086,0,0
-273,-62,0,0,0,0,0,0,0,0,0,-1,951,1086,0,0
-266,-62,0,0,0,0,0,0,0,0,0,-1,958,1086,0,0
-259,-62,0,0,0,0,0,0,0,0,0,-1,965,1086,0,0
-252,-62,0,0,0,0,0,0,0,0,0,-1,972,1086,0,0
-245,-62,0,0,0,0,0,0,0,0,0,-1,979,1086,0,0
-238,-62,0,0,0,0,0,0,0,0,0,-1,986,1086,0,0
-231,-62,0,0,0,0,0,0,0,0,0,-1,993,1086,0,0
-224,-62,0,0,0,0,0,0,0,0,0,-1,1000,1086,0,0
-217,-62,0,0,0,0,0,0,0,0,0,-1,1007,1086,0,0
-210,-62,0,0,0,0,0,0,0,0,0,-1,1014,1086,0,0
-203,-62,0,0,0,0,0,0,0,0,0,-1,1021,1086,0,0
-196,-62,0,0,0,0,0,0,0,0,0,-1,1028,1086,0,0
-189,-62,0,0,0,0,0,0,0,0,0,-1,1035,1086,0,0
-182,-62,0,0,0,0,0,0,0,0,0,-1,1042,1086,0,0
-175,-62,0,0,0,0,0,0,0,0,0,-1,1049,1086,0,0
-168,-62,0,0,0,0,0,0,0,0,0,-1,1056,1086,0,0
-161,-62,0,0,0,0,0,0,0,0,0,-1,1063,1086,0,0
-154,-62,0,0,0,0,0,0,0,0,0,-1,1070,1086,0,0
-147,-62,0,0,0,0,0,0,0,0,0,-1,1077,1086,0,0
-140,-62,0,0,0,0,0,0,0,0,0,-1,1084,1086,0,0
-133,-62,0,0,0,0,0,0,0,0,0,-1,1091,1086,0,0
-126,-62,0,0,0,0,0,0,0,0,0,-1,1098,1086,0,0
-119,-62,0,0,0,0,0,0,0,0,0,-1,1105,1086,0,0
-112,-62,0,0,0,0,0,0,0,0,0,-1,1112,1086,0,0
-105,-62,0,0,0,0,0,0,0,0,0,-1,1119,1086,0,0
-98,-62,0,0,0,0,0,0,0,0,0,-1,1126,1086,0,0
-91,-62,0,0,0,0,0,0,0,0,0,-1,1133,1086,0,0
-84,-62,0,0,0,0,0,0,0,0,0,-1,1140,1086,0,0
-77,-62,0,0,0,0,0,0,0,0,0,-1,1147,1086,0,0
-70,-62,0,0,0,0,0,0,0,0,0,-1,1154,1086,0,0
-63,-62,0,0,0,0,0,0,0,0,0,-1,1161,1086,0,0
-56,-62,0,0,0,0,0,0,0,0,0,-1,1168,1086,0,0
-49,-62,0,0,0,0,0,0,0,0,0,-1,1175,1086,0,0
-42,-62,0,0,0,0,0,0,0,0,0,-1,1182,1086,0,0
-35,-62,0,0,0,0,0,0,0,0,0,-1,1189,1086,0,0
-28,-62,0,0,0,0,0,0,0,0,0,-1,1196,1086,0,0
-21,-62,0,0,0,0,0,0,0,0,0,-1,1203,1086,0,0
-14,-62,0,0,0,0,0,0,0,0,0,-1,1210,1086,0,0
-7,-62,0,0,0,0,0,0,0,0,0,-1,1217,1086,0,0
0,-62,0,0,0,0,0,0,0,0,0,-1,1224,1086,0,0
7,-62,0,0,0,0,0,0,0,0,0,-1,1231,1086,0,0
14,-62,0,0,0,0,0,0,0,0,0,-1,1238,1086,0,0
21,-62,0,0,0,0,0,0,0,0,0,-1,1245,1086,0,0
28,-62,0,0,0,0,0,0,0,0,0,-1,1252,1086,0,0
35,-62,0,0,0,0,0,0,0,0,0,-1,1259,1086,0,0
42,-62,0,0,0,0,0,0,0,0,0,-1,1266,1086,0,0
49,-62,0,0,0,0,0,0,0,0,0,-1,1273,1086,0,0
56,-62,0,0,0,0,0,0,0,0,0,-1,1280,1086,0,0
63,-62,0,0,0,0,0,0,0,0,0,-1,1287,1086,0,0
70,-62,0,0,0,0,0,0,0,0,0,-1,1294,1086,0,0
77,-62,0,0,0,0,0,0,0,0,0,-1,1301,1086,0,0
84,-62,0,0,0,0,0,0,0,0,0,-1,1308,1086,0,0
91,-62,0,0,0,0,0,0,0,0,0,-1,1315,1086,0,0
98,-62,0,0,0,0,0,0,0,0,0,-1,1322,1086,0,0
105,-62,0,0,0,0,0,0,0,0,0,-1,1329,1086,0,0
112,-62,0,0,0,0,0,0,0,0,0,-1,1336,1086,0,0
119,-62,0,0,0,0,0,0,0,0,0,-1,1343,1086,0,0
126,-62,0,0,0,0,0,0,0,0,0,-1,1350,1086,0,0
133,-62,0,0,0,0,0,0,0,0,0,-1,1357,1086,0,0
140,-62,0,0,0,0,0,0,0,0,0,-1,1364,1086,0,0
147,-62,0,0,0,0,0,0,0,0,0,-1,1371,1086,0,0
154,-62,0,0,0,0,0,0,0,0,0,-1,1378,1086,0,0
161,-62,0,0,0,0,0,0,0,0,0,-1,1385,1086,0,0
168,-62,0,0,0,0,0,0,0,0,0,-1,1392,1086,0,0
175,-62,0,0,0,0,0,0,0,0,0,-1,1399,1086,0,0
182,-62,0,0,0,0,0,0,0,0,0,-1,1406,1086,0,0
189,-62,0,0,0,0,0,0,0,0,0,-1,1413,1086,0,0
196,-62,0,0,0,0,0,0,0,0,0,-1,1420,1086,0,0
203,-62,0,0,0,0,0,0,0,0,0,-1,1427,1086,0,0
210,-62,0,0,0,0,0,0,0,0,0,-1,1434,1086,0,0
217,-62,0,0,0,0,0,0,0,0,0,-1,1441,1086,0,0
224,-62,0,0,0,0,0,0,0,0,0,-1,1448,1086,0,0
231,-62,0,0,0,0,0,0,0,0,0,-1,1455,1086,0,0
238,-62,0,0,0,0,0,0,0,0,0,-1,1462,1086,0,0
245,-62,0,0,0,0,0,0,0,0,0,-1,1469,1086,0,0
252,-62,0,0,0,0,0,0,0,0,0,-1,1476,1086,0,0
259,-62,0,0,0,0,0,0,0,0,0,-1,1483,1086,0,0
266,-62,0,0,0,0,0,0,0,0,0,-1,1490,1086,0,0
273,-62,0,0,0,0,0,0,0,0,0,-1,1497,1086,0,0
280,-62,0,0,0,0,0,0,0,0,0,-1,1504,1086,0,0
287,-62,0,0,0,0,0,0,0,0,0,-1,1511,1086,0,0
294,-62,0,0,0,0,0,0,0,0,0,-1,1518,1086,0,0
301,-62,0,0,0,0,0,0,0,0,0,-1,1525,1086,0,0
308,-62,0,0,0,0,0,0,0,0,0,-1,1532,1086,0,0
315,-62,0,0,0,0,0,0,0,0,0,-1,1539,1086,0,0
322,-62,0,0,0,0,0,0,0,0,0,-1,1546,1086,0,0
329,-62,0,0,0,0,0,0,0,0,0,-1,1553,1086,0,0
336,-62,0,0,0,0,0,0,0,0,0,-1,1560,1086,0,0
343,-62,0,0,0,0,0,0,0,0,0,-1,1567,1086,0,0
350,-62,0,0,0,0,0,0,0,0,0,-1,1574,1086,0,0
357,-62,0,0,0,0,0,0,0,0,0,-1,1581,1086,0,0
364,-62,0,0,0,0,0,0,0,0,0,-1,1588,1086,0,0
371,-62,0,0,0,0,0,0,0,0,0,-1,1595,1086,0,0
378,-62,0,0,0,0,0,0,0,0,0,-1,1602,1086,0,0
385,-62,0,0,0,0,0,0,0,0,0,-1,1609,1086,0,0
392,-62,0,0,0,0,0,0,0,0,0,-1,1616,1086,0,0
399,-62,0,0,0,0,0,0,0,0,0,-1,1623,1086,0,0
406,-62,0,0,0,0,0,0,0,0,0,-1,1630,1086,0,0
413,-62,0,0,0,0,0,0,0,0,0,-1,1637,1086,0,0
420,-62,0,0,0,0,0,0,0,0,0,-1,1644,1086,0,0
427,-62,0,0,0,0,0,0,0,0,0,-1,1651,1086,0,0
434,-62,0,0,0,0,0,0,0,0,0,-1,1658,1086,0,0
441,-62,0,0,0,0,0,0,0,0,0,-1,1665,1086,0,0
448,-62,0,0,0,0,0,0,0,0,0,-1,1672,1086,0,0
455,-62,0,0,0,0,0,0,0,0,0,-1,1679,1086,0,0
462,-62,0,0,0,0,0,0,0,0,0,-1,1686,1086,0,0
469,-62,0,0,0,0,0,0,0,0,0,-1,1693,1086,0,0
476,-62,0,0,0,0,0,0,0,0,0,-1,1700,1086,0,0
483,-62,0,0,0,0,0,0,0,0,0,-1,1707,1086,0,0
490,-62,0,0,0,0,0,0,0,0,0,-1,1714,1086,0,0
497,-62,0,0,0,0,0,0,0,0,0,-1,1721,1086,0,0
504,-62,0,0,0,0,0,0,0,0,0,-1,1728,1086,0,0
511,-62,0,0,0,0,0,0,0,0,0,-1,1735,1086,0,0
518,-62,0,0,0,0,0,0,0,0,0,-1,1742,1086,0,0
525,-62,0,0,0,0,0,0,0,0,0,-1,1749,1086,0,0
532,-62,0,0,0,0,0,0,0,0,0,-1,1756,1086,0,0
539,-62,0,0,0,0,0,0,0,0,0,-1,1763,1086,0,0
546,-62,0,0,0,0,0,0,0,0,0,-1,1770,1086,0,0
553,-62,0,0,0,0,0,0,0,0,0,-1,1777,1086,0,0
560,-62,0,0,0,0,0,0,0,0,0,-1,1784,1086,0,0
567,-62,0,0,0,0,0,0,0,0,0,-1,1791,1086,0,0
574,-62,0,0,0,0,0,0,0,0,0,-1,1798,1086,0,0
581,-62,0,0,0,0,0,0,0,0,0,-1,1805,1086,0,0
588,-62,0,0,0,0,0,0,0,0,0,-1,1812,1086,0,0
595,-62,0,0,0,0,0,0,0,0,0,-1,1819,1086,0,0
602,-62,0,0,0,0,0,0,0,0,0,-1,1826,1086,0,0
609,-62,0,0,0,0,0,0,0,0,0,-1,1833,1086,0,0
616,-62,0,0,0,0,0,0,0,0,0,-1,1840,1086,0,0
623,-62,0,0,0,0,0,0,0,0,0,-1,1847,1086,0,0
630,-62,0,0,0,0,0,0,0,0,0,-1,1854,1086,0,0
637,-62,0,0,0,0,0,0,0,0,0,-1,1861,1086,0,0
644,-62,0,0,0,0,0,0,0,0,0,-1,1868,1086,0,0
651,-62,48.2141,2.85876,0,0,0,0,0,0,0,-1,1875,1086,48.2141,-2.85879
658,-62,48.1133,2.53479,0,0,0,0,0,0,0,-1,1882,1086,48.1133,-2.53478
665,-62,48.4323,2.6355,0.00384184,-0.000678688,-0.00175412,0.00444264,-0.00127949,-0.329988,0.00346785,0.0379805,1889,1086,48.4323,-2.63551
672,-62,48.3975,2.65259,0.00282945,-0.000663919,-0.00126952,0.00324206,-0.00107653,-0.314248,0.00259573,0.0377216,1896,1086,48.3974,-2.65255
679,-62,48.4058,2.53943,0.00176643,-0.000598439,-0.000617064,0.00191776,-0.000749766,-0.240491,0.00158854,0.0394284,1903,1086,48.4058,-2.5394
686,-62,48.4486,2.44873,0.000763072,-0.00070046,8.16499e-05,0.000767614,-0.000705001,0.0555598,0.000850471,0.0394375,1910,1086,48.4486,-2.44877
693,-62,48.5109,2.53552,6.42467e-05,-0.000839802,0.000683851,0.000431965,-0.00120752,0.493364,0.000981225,0.0382676,1917,1086,48.5109,-2.53553
700,-62,48.5176,2.59546,-0.000408219,-0.000893557,0.00111843,0.000493565,-0.00179534,0.678568,0.00139092,0.0329131,1924,1086,48.5176,-2.59551
707,-62,48.4147,2.60474,-0.000895669,-0.000949167,0.00152628,0.000604098,-0.00244893,0.776636,0.00186686,0.0257052,1931,1086,48.4146,-2.60468
714,-62,48.4496,2.63342,-0.00140061,-0.000621756,0.0019638,0.000990857,-0.00301322,0.88328,0.00240804,0.0411982,1938,1086,48.4496,-2.63346
721,-62,48.5754,2.80298,0,0,0,0,0,0,0,-1,1945,1086,48.5754,-2.80303
728,-62,47.0001,6.62012,0,0,0,0,0,0,0,-1,1952,1086,47.0001,-6.62006
735,-62,46.9495,6.25989,-0.00301863,0.000636298,0.0026826,0.00205475,-0.00443708,1.08441,0.00383126,0.0248433,1959,1086,46.9495,-6.25994
742,-62,46.9142,6.04065,-0.00341957,0.00172438,0.00263598,0.00283526,-0.00453045,1.17195,0.00428997,0.0247121,1966,1086,46.9142,-6.04061
749,-62,46.8905,5.79236,-0.00338678,0.00297176,0.00236788,0.00375665,-0.00417167,1.25072,0.00457951,0.0186588,1973,1086,46.8905,-5.79232
756,-62,46.818,5.60535,-0.00331922,0.0045743,0.00218604,0.00513927,-0.00388418,1.31789,0.00522646,0.0148864,1980,1086,46.818,-5.60536
763,-62,46.8043,5.35376,-0.00297877,0.0067624,0.00203598,0.00717081,-0.00338718,1.37283,0.00622477,0.0165401,1987,1086,46.8043,-5.35379
770,-62,46.8094,5.0791,-0.00222429,0.00968521,0.0017329,0.00993223,-0.00247131,1.4292,0.00758074,0.0134193,1994,1086,46.8095,-5.07915
777,-62,46.6829,4.81616,-0.000683075,0.0130688,0.00148663,0.0132277,-0.000841948,1.46433,0.00911209,0.0146013,2001,1086,46.6829,-4.81615
784,-62,46.6191,4.55798,0.00154732,0.0164532,0.00142795,0.0165887,0.00141176,1.47615,0.0106199,0.0277541,2008,1086,46.6193,-4.55798
791,-62,46.7153,4.21667,0.00498049,0.0197804,0.00169195,0.0199713,0.00478952,1.45841,0.0120396,0.0428313,2015,1086,46.7154,-4.21668
798,-62,46.9551,3.65857,0.0104573,0.0229198,0.00243778,0.0233797,0.00999739,1.38434,0.0135453,0.0458214,2022,1086,46.9552,-3.65856
805,-62,47.2444,3.31018,0,0,0,0,0,0,0,-1,2029,1086,47.2444,-3.31013
812,-62,46.2234,4.49585,0,0,0,0,0,0,0,-1,2036,1086,46.2234,-4.49585
-700,-69,-34.7326,1.40076,0,0,0,0,0,0,0,-1,524,1093,-34.7326,-1.40073
-693,-69,-34.4727,0.841675,0,0,0,0,0,0,0,-1,531,1093,-34.4727,-0.841736
-686,-69,-34.7207,-1.67676,0,0,0,0,0,0,0,-1,538,1093,-34.7207,1.67672
-679,-69,-34.4164,-1.10083,0,0,0,0,0,0,0,-1,545,1093,-34.4164,1.10077
-672,-69,-34.1769,-0.579468,0,0,0,0,0,0,0,-1,552,1093,-34.1769,0.579456
-665,-69,-34.5988,2.58032,0,0,0,0,0,0,0,-1,559,1093,-34.5988,-2.58027
-658,-69,-34.437,2.08154,0,0,0,0,0,0,0,-1,566,1093,-34.437,-2.08157
-651,-69,-34.1676,1.68726,-0.00120901,0.0233399,-0.00890819,0.0262318,-0.0041009,-1.2569,0.0190029,0.0341543,573,1093,-34.1676,-1.6873
-644,-69,-34.2117,1.91992,-0.00157385,0.0184723,-0.00569472,0.0199771,-0.00307865,-1.31246,0.014454,0.0100481,580,1093,-34.2117,-1.91994
-637,-69,-34.2617,2.27771,-0.00216376,0.0134928,-0.0034192,0.014207,-0.0028779,-1.3649,0.0105621,0.0112318,587,1093,-34.2617,-2.27771
-630,-69,-34.2619,2.55078,-0.00167845,0.00877591,-0.00209868,0.00918148,-0.00208402,-1.3799,0.00692105,0.0148362,594,1093,-34.2619,-2.5508
-623,-69,-34.2545,2.8551,-0.000933492,0.00527591,-0.0020283,0.00587974,-0.00153732,-1.28145,0.00452026,0.0165851,601,1093,-34.2545,-2.85509
-616,-69,-34.2786,3.16113,0.000145671,0.00287858,-0.00170507,0.00369718,-0.000672932,-1.1232,0.00271702,0.0192688,608,1093,-34.2786,-3.16108
-609,-69,-34.2814,3.44641,0.000971685,0.000535535,-0.00167352,0.00244128,-0.000934063,-0.720609,0.00201248,0.0170585,615,1093,-34.2814,-3.44646
-602,-69,-34.2338,3.7981,0.00121343,-0.000861388,-0.00170766,0.0021741,-0.00182206,-0.512439,0.00231016,0.0187968,622,1093,-34.2338,-3.79807
-595,-69,-34.1221,4.08044,0.00134035,-0.00153999,-0.0016831,0.00211533,-0.00231497,-0.431511,0.0025587,0.0344012,629,1093,-34.1221,-4.08048
-588,-69,-34.0761,4.39148,0,0,0,0,0,0,0,-1,636,1093,-34.0761,-4.39148
-581,-69,-35.941,0.929199,0,0,0,0,0,0,0,-1,643,1093,-35.941,-0.929217
-574,-69,-35.9418,0.947388,0.00217896,-0.00237616,-0.000957341,0.00237198,-0.00256918,-0.198957,0.00285354,0.0316056,650,1093,-35.9418,-0.947343
-567,-69,-35.934,0.853516,0.00231088,-0.00231061,-0.000559959,0.00237775,-0.00237749,-0.118873,0.00274544,0.0366571,657,1093,-35.934,-0.853551
-560,-69,-35.9467,0.881348,0.00239635,-0.00202354,-2.73722e-05,0.00239652,-0.00202371,-0.00619262,0.00255505,0.0391213,664,1093,-35.9467,-0.88131
-553,-69,-35.9241,0.883667,0.00252649,-0.00156464,0.000652204,0.00262795,-0.0016661,0.154324,0.00249982,0.039658,671,1093,-35.924,-0.883649
-546,-69,-35.9218,0.872681,0.00310178,-0.000991849,0.00153712,0.00361469,-0.00150476,0.322065,0.00303824,0.0358552,678,1093,-35.9217,-0.872632
-539,-69,-35.8617,0.906128,0.00478566,-0.000655096,0.00242516,0.00570971,-0.00157914,0.364043,0.00442774,0.0416758,685,1093,-35.8617,-0.906175
-532,-69,-35.7499,0.956421,0.00638551,-0.000275637,0.00323821,0.00770023,-0.00159035,0.385669,0.00573755,0.0465024,692,1093,-35.7499,-0.956421
-525,-69,0,0,0,0,0,0,0,0,0,-1,699,1093,0,0
-518,-69,0,0,0,0,0,0,0,0,0,-1,706,1093,0,0
-511,-69,0,0,0,0,0,0,0,0,0,-1,713,1093,0,0
-504,-69,0,0,0,0,0,0,0,0,0,-1,720,1093,0,0
-497,-69,0,0,0,0,0,0,0,0,0,-1,727,1093,0,0
-490,-69,0,0,0,0,0,0,0,0,0,-1,734,1093,0,0
-483,-69,0,0,0,0,0,0,0,0,0,-1,741,1093,0,0
-476,-69,0,0,0,0,0,0,0,0,0,-1,748,1093,0,0
-469,-69,0,0,0,0,0,0,0,0,0,-1,755,1093,0,0
-462,-69,0,0,0,0,0,0,0,0,0,-1,762,1093,0,0
-455,-69,0,0,0,0,0,0,0,0,0,-1,769,1093,0,0
-448,-69,0,0,0,0,0,0,0,0,0,-1,776,1093,0,0
-441,-69,0,0,0,0,0,0,0,0,0,-1,783,1093,0,0
-434,-69,0,0,0,0,0,0,0,0,0,-1,790,1093,0,0
-427,-69,0,0,0,0,0,0,0,0,0,-1,797,1093,0,0
-420,-69,0,0,0,0,0,0,0,0,0,-1,804,1093,0,0
-413,-69,0,0,0,0,0,0,0,0,0,-1,811,1093,0,0
-406,-69,0,0,0,0,0,0,0,0,0,-1,818,1093,0,0
-399,-69,0,0,0,0,0,0,0,0,0,-1,825,1093,0,0
-392,-69,0,0,0,0,0,0,0,0,0,-1,832,1093,0,0
-385,-69,0,0,0,0,0,0,0,0,0,-1,839,1093,0,0
-378,-69,0,0,0,0,0,0,0,0,0,-1,846,1093,0,0
-371,-69,0,0,0,0,0,0,0,0,0,-1,853,1093,0,0
-364,-69,0,0,0,0,0,0,0,0,0,-1,860,1093,0,0
-357,-69,0,0,0,0,0,0,0,0,0,-1,867,1093,0,0
-350,-69,0,0,0,0,0,0,0,0,0,-1,874,1093,0,0
-343,-69,0,0,0,0,0,0,0,0,0,-1,881,1093,0,0
-336,-69,0,0,0,0,0,0,0,0,0,-1,888,1093,0,0
-329,-69,0,0,0,0,0,0,0,0,0,-1,895,1093,0,0
-322,-69,0,0,0,0,0,0,0,0,0,-1,902,1093,0,0
-315,-69,0,0,0,0,0,0,0,0,0,-1,909,1093,0,0
-308,-69,0,0,0,0,0,0,0,0,0,-1,916,1093,0,0
-301,-69,0,0,0,0,0,0,0,0,0,-1,923,1093,0,0
-294,-69,0,0,0,0,0,0,0,0,0,-1,930,1093,0,0
-287,-69,0,0,0,0,0,0,0,0,0,-1,937,1093,0,0
-280,-69,0,0,0,0,0,0,0,0,0,-1,944,1093,0,0
-273,-69,0,0,0,0,0,0,0,0,0,-1,951,1093,0,0
-266,-69,0,0,0,0,0,0,0,0,0,-1,958,1093,0,0
-259,-69,0,0,0,0,0,0,0,0,0,-1,965,1093,0,0
-252,-69,0,0,0,0,0,0,0,0,0,-1,972,1093,0,0
-245,-69,0,0,0,0,0,0,0,0,0,-1,979,1093,0,0
-238,-69,0,0,0,0,0,0,0,0,0,-1,986,1093,0,0
-231,-69,0,0,0,0,0,0,0,0,0,-1,993,1093,0,0
-224,-69,0,0,0,0,0,0,0,0,0,-1,1000,1093,0,0
-217,-69,0,0,0,0,0,0,0,0,0,-1,1007,1093,0,0
-210,-69,0,0,0,0,0,0,0,0,0,-1,1014,1093,0,0
-203,-69,0,0,0,0,0,0,0,0,0,-1,1021,1093,0,0
-196,-69,0,0,0,0,0,0,0,0,0,-1,1028,1093,0,0
-189,-69,0,0,0,0,0,0,0,0,0,-1,1035,1093,0,0
-182,-69,0,0,0,0,0,0,0,0,0,-1,1042,1093,0,0
-175,-69,0,0,0,0,0,0,0,0,0,-1,1049,1093,0,0
-168,-69,0,0,0,0,0,0,0,0,0,-1,1056,1093,0,0
-161,-69,0,0,0,0,0,0,0,0,0,-1,1063,1093,0,0
-154,-69,0,0,0,0,0,0,0,0,0,-1,1070,1093,0,0
-147,-69,0,0,0,0,0,0,0,0,0,-1,1077,1093,0,0
-140,-69,0,0,0,0,0,0,0,0,0,-1,1084,1093,0,0
-133,-69,0,0,0,0,0,0,0,0,0,-1,1091,1093,0,0
-126,-69,0,0,0,0,0,0,0,0,0,-1,1098,1093,0,0
-119,-69,0,0,0,0,0,0,0,0,0,-1,1105,1093,0,0
-112,-69,0,0,0,0,0,0,0,0,0,-1,1112,1093,0,0
-105,-69,0,0,0,0,0,0,0,0,0,-1,1119,1093,0,0
-98,-69,0,0,0,0,0,0,0,0,0,-1,1126,1093,0,0
-91,-69,0,0,0,0,0,0,0,0,0,-1,1133,1093,0,0
-84,-69,0,0,0,0,0,0,0,0,0,-1,1140,1093,0,0
-77,-69,0,0,0,0,0,0,0,0,0,-1,1147,1093,0,0
-70,-69,0,0,0,0,0,0,0,0,0,-1,1154,1093,0,0
-63,-69,0,0,0,0,0,0,0,0,0,-1,1161,1093,0,0
-56,-69,0,0,0,0,0,0,0,0,0,-1,1168,1093,0,0
-49,-69,0,0,0,0,0,0,0,0,0,-1,1175,1093,0,0
-42,-69,0,0,0,0,0,0,0,0,0,-1,1182,1093,0,0
-35,-69,0,0,0,0,0,0,0,0,0,-1,1189,1093,0,0
-28,-69,0,0,0,0,0,0,0,0,0,-1,1196,1093,0,0
-21,-69,0,0,0,0,0,0,0,0,0,-1,1203,1093,0,0
-14,-69,0,0,0,0,0,0,0,0,0,-1,1210,1093,0,0
-7,-69,0,0,0,0,0,0,0,0,0,-1,1217,1093,0,0
0,-69,0,0,0,0,0,0,0,0,0,-1,1224,1093,0,0
7,-69,0,0,0,0,0,0,0,0,0,-1,1231,1093,0,0
14,-69,0,0,0,0,0,0,0,0,0,-1,1238,1093,0,0
21,-69,0,0,0,0,0,0,0,0,0,-1,1245,1093,0,0
28,-69,0,0,0,0,0,0,0,0,0,-1,1252,1093,0,0
35,-69,0,0,0,0,0,0,0,0,0,-1,1259,1093,0,0
42,-69,0,0,0,0,0,0,0,0,0,-1,1266,1093,0,0
49,-69,0,0,0,0,0,0,0,0,0,-1,1273,1093,0,0
56,-69,0,0,0,0,0,0,0,0,0,-1,1280,1093,0,0
63,-69,0,0,0,0,0,0,0,0,0,-1,1287,1093,0,0
70,-69,0,0,0,0,0,0,0,0,0,-1,1294,1093,0,0
77,-69,0,0,0,0,0,0,0,0,0,-1,1301,1093,0,0
84,-69,0,0,0,0,0,0,0,0,0,-1,1308,1093,0,0
91,-69,0,0,0,0,0,0,0,0,0,-1,1315,1093,0,0
98,-69,0,0,0,0,0,0,0,0,0,-1,1322,1093,0,0
105,-69,0,0,0,0,0,0,0,0,0,-1,1329,1093,0,0
112,-69,0,0,0,0,0,0,0,0,0,-1,1336,1093,0,0
119,-69,0,0,0,0,0,0,0,0,0,-1,1343,1093,0,0
126,-69,0,0,0,0,0,0,0,0,0,-1,1350,1093,0,0
133,-69,0,0,0,0,0,0,0,0,0,-1,1357,1093,0,0
140,-69,0,0,0,0,0,0,0,0,0,-1,1364,1093,0,0
147,-69,0,0,0,0,0,0,0,0,0,-1,1371,1093,0,0
154,-69,0,0,0,0,0,0,0,0,0,-1,1378,1093,0,0
161,-69,0,0,0,0,0,0,0,0,0,-1,1385,1093,0,0
168,-69,0,0,0,0,0,0,0,0,0,-1,1392,1093,0,0
175,-69,0,0,0,0,0,0,0,0,0,-1,1399,1093,0,0
182,-69,0,0,0,0,0,0,0,0,0,-1,1406,1093,0,0
189,-69,0,0,0,0,0,0,0,0,0,-1,1413,1093,0,0
196,-69,0,0,0,0,0,0,0,0,0,-1,1420,1093,0,0
203,-69,0,0,0,0,0,0,0,0,0,-1,1427,1093,0,0
210,-69,0,0,0,0,0,0,0,0,0,-1,1434,1093,0,0
217,-69,0,0,0,0,0,0,0,0,0,-1,1441,1093,0,0
224,-69,0,0,0,0,0,0,0,0,0,-1,1448,1093,0,0
231,-69,0,0,0,0,0,0,0,0,0,-1,1455,1093,0,0
238,-69,0,0,0,0,0,0,0,0,0,-1,1462,1093,0,0
245,-69,0,0,0,0,0,0,0,0,0,-1,1469,1093,0,0
252,-69,0,0,0,0,0,0,0,0,0,-1,1476,1093,0,0
259,-69,0,0,0,0,0,0,0,0,0,-1,1483,1093,0,0
266,-69,0,0,0,0,0,0,0,0,0,-1,1490,1093,0,0
273,-69,0,0,0,0,0,0,0,0,0,-1,1497,1093,0,0
280,-69,0,0,0,0,0,0,0,0,0,-1,1504,1093,0,0
287,-69,0,0,0,0,0,0,0,0,0,-1,1511,1093,0,0
294,-69,0,0,0,0,0,0,0,0,0,-1,1518,1093,0,0
301,-69,0,0,0,0,0,0,0,0,0,-1,1525,1093,0,0
308,-69,0,0,0,0,0,0,0,0,0,-1,1532,1093,0,0
315,-69,0,0,0,0,0,0,0,0,0,-1,1539,1093,0,0
322,-69,0,0,0,0,0,0,0,0,0,-1,1546,1093,0,0
329,-69,0,0,0,0,0,0,0,0,0,-1,1553,1093,0,0
336,-69,0,0,0,0,0,0,0,0,0,-1,1560,1093,0,0
343,-69,0,0,0,0,0,0,0,0,0,-1,1567,1093,0,0
350,-69,0,0,0,0,0,0,0,0,0,-1,1574,1093,0,0
357,-69,0,0,0,0,0,0,0,0,0,-1,1581,1093,0,0
364,-69,0,0,0,0,0,0,0,0,0,-1,1588,1093,0,0
371,-69,0,0,0,0,0,0,0,0,0,-1,1595,1093,0,0
378,-69,0,0,0,0,0,0,0,0,0,-1,1602,1093,0,0
385,-69,0,0,0,0,0,0,0,0,0,-1,1609,1093,0,0
392,-69,0,0,0,0,0,0,0,0,0,-1,1616,1093,0,0
399,-69,0,0,0,0,0,0,0,0,0,-1,1623,1093,0,0
406,-69,0,0,0,0,0,0,0,0,0,-1,1630,1093,0,0
413,-69,0,0,0,0,0,0,0,0,0,-1,1637,1093,0,0
420,-69,0,0,0,0,0,0,0,0,0,-1,1644,1093,0,0
427,-69,0,0,0,0,0,0,0,0,0,-1,1651,1093,0,0
434,-69,0,0,0,0,0,0,0,0,0,-1,1658,1093,0,0
441,-69,0,0,0,0,0,0,0,0,0,-1,1665,1093,0,0
448,-69,0,0,0,0,0,0,0,0,0,-1,1672,1093,0,0
455,-69,0,0,0,0,0,0,0,0,0,-1,1679,1093,0,0
462,-69,0,0,0,0,0,0,0,0,0,-1,1686,1093,0,0
469,-69,0,0,0,0,0,0,0,0,0,-1,1693,1093,0,0
476,-69,0,0,0,0,0,0,0,0,0,-1,1700,1093,0,0
483,-69,0,0,0,0,0,0,0,0,0,-1,1707,1093,0,0
490,-69,0,0,0,0,0,0,0,0,0,-1,1714,1093,0,0
497,-69,0,0,0,0,0,0,0,0,0,-1,1721,1093,0,0
504,-69,0,0,0,0,0,0,0,0,0,-1,1728,1093,0,0
511,-69,0,0,0,0,0,0,0,0,0,-1,1735,1093,0,0
518,-69,0,0,0,0,0,0,0,0,0,-1,1742,1093,0,0
525,-69,0,0,0,0,0,0,0,0,0,-1,1749,1093,0,0
532,-69,0,0,0,0,0,0,0,0,0,-1,1756,1093,0,0
539,-69,0,0,0,0,0,0,0,0,0,-1,1763,1093,0,0
546,-69,0,0,0,0,0,0,0,0,0,-1,1770,1093,0,0
553,-69,0,0,0,0,0,0,0,0,0,-1,1777,1093,0,0
560,-69,0,0,0,0,0,0,0,0,0,-1,1784,1093,0,0
567,-69,0,0,0,0,0,0,0,0,0,-1,1791,1093,0,0
574,-69,0,0,0,0,0,0,0,0,0,-1,1798,1093,0,0
581,-69,0,0,0,0,0,0,0,0,0,-1,1805,1093,0,0
588,-69,0,0,0,0,0,0,0,0,0,-1,1812,1093,0,0
595,-69,0,0,0,0,0,0,0,0,0,-1,1819,1093,0,0
602,-69,0,0,0,0,0,0,0,0,0,-1,1826,1093,0,0
609,-69,0,0,0,0,0,0,0,0,0,-1,1833,1093,0,0
616,-69,0,0,0,0,0,0,0,0,0,-1,1840,1093,0,0
623,-69,0,0,0,0,0,0,0,0,0,-1,1847,1093,0,0
630,-69,0,0,0,0,0,0,0,0,0,-1,1854,1093,0,0
637,-69,0,0,0,0,0,0,0,0,0,-1,1861,1093,0,0
644,-69,0,0,0,0,0,0,0,0,0,-1,1868,1093,0,0
651,-69,48.2162,3.1272,0.00687588,0.000460532,-0.00242684,0.00769049,-0.000354075,-0.323848,0.005249,0.0431792,1875,1093,48.2162,-3.12724
658,-69,48.343,2.72388,0.00555646,-6.40329e-05,-0.00237008,0.00642246,-0.000930032,-0.350317,0.00462294,0.0441232,1882,1093,48.343,-2.72382
665,-69,48.6487,2.28113,0,0,0,0,0,0,0,-1,1889,1093,48.6487,-2.28114
672,-69,48.3567,2.67957,0.00311541,-0.000594127,-0.00143268,0.0036043,-0.00108302,-0.328851,0.00283372,0.0381775,1896,1093,48.3566,-2.67958
679,-69,48.3633,2.59888,0.00194245,-0.000706656,-0.000758791,0.0021444,-0.000908604,-0.260114,0.00181015,0.0399769,1903,1093,48.3633,-2.59888
686,-69,48.4572,2.57751,0.000912663,-0.000913316,-8.58166e-05,0.000916688,-0.00091734,-0.0468599,0.00105888,0.037665,1910,1093,48.4571,-2.57753
693,-69,48.4819,2.53638,0.000231863,-0.00109445,0.000464534,0.000378379,-0.00124096,0.305527,0.000978142,0.0356576,1917,1093,48.4819,-2.53644
700,-69,48.4554,2.53101,-0.000236315,-0.00116483,0.000853557,0.000271073,-0.00167221,0.536322,0.00121529,0.0318472,1924,1093,48.4554,-2.53105
707,-69,48.4053,2.58838,-0.000706411,-0.00123742,0.00125311,0.000309011,-0.00225284,0.681004,0.00161478,0.0239912,1931,1093,48.4053,-2.58835
714,-69,48.4484,2.56921,-0.0011928,-0.000920166,0.00168838,0.000637393,-0.00275036,0.82568,0.00207887,0.0314742,1938,1093,48.4483,-2.56922
721,-69,48.5505,2.64819,0,0,0,0,0,0,0,-1,1945,1093,48.5505,-2.64815
728,-69,46.4055,6.74561,0,0,0,0,0,0,0,-1,1952,1093,46.4055,-6.7456
735,-69,46.6271,6.41101,-0.00266863,0.000320598,0.0024113,0.00166292,-0.00401096,1.06284,0.00336802,0.0340404,1959,1093,46.6271,-6.41104
742,-69,46.5905,6.15686,-0.00300684,0.00141733,0.00235194,0.00243401,-0.00402352,1.16278,0.00376572,0.0264912,1966,1093,46.5904,-6.15681
749,-69,46.4528,5.83203,-0.00292901,0.00270653,0.00203593,0.00336509,-0.00358757,1.25795,0.0040148,0.0274324,1973,1093,46.4528,-5.83198
756,-69,46.5311,5.58508,-0.00284203,0.00433613,0.00177167,0.00474958,-0.00325549,1.34153,0.00464848,0.0169887,1980,1093,46.5311,-5.58511
763,-69,46.5229,5.30981,-0.00245729,0.00660774,0.00141649,0.00682392,-0.00267347,1.41935,0.00565516,0.0177082,1987,1093,46.5229,-5.30977
770,-69,46.4398,5.09802,-0.00163504,0.00965218,0.000743443,0.00970094,-0.00168379,1.50531,0.00709547,0.0176157,1994,1093,46.4398,-5.09805
777,-69,46.3422,4.85547,-3.28363e-05,0.0131959,-7.78209e-05,0.0131964,-3.32943e-05,-1.56491,0.00880871,0.0227936,2001,1093,46.3422,-4.85544
784,-69,46.3572,4.5459,0.00227032,0.0168843,-0.000904468,0.01694,0.00221455,-1.50922,0.0106323,0.0338912,2008,1093,46.3572,-4.54595
791,-69,46.4763,4.07043,0.00590586,0.0207385,-0.00173075,0.0209378,0.00570658,-1.45616,0.0124984,0.0449051,2015,1093,46.4763,-4.07041
798,-69,46.5664,3.52454,0.0117947,0.0246939,-0.00251142,0.0251656,0.011323,-1.38513,0.0145536,0.0467609,2022,1093,46.5665,-3.52452
805,-69,46.6604,3.02417,0,0,0,0,0,0,0,-1,2029,1093,46.6604,-3.02412
812,-69,46.7559,4.91943,0,0,0,0,0,0,0,-1,2036,1093,46.7559,-4.91946
-700,-76,0,0,0,0,0,0,0,0,0,-1,524,1100,0,0
-693,-76,-33.5337,0.604858,0,0,0,0,0,0,0,-1,531,1100,-33.5337,-0.604848
-686,-76,-33.1896,0.898071,0,0,0,0,0,0,0,-1,538,1100,-33.1896,-0.89811
-679,-76,-33.7869,-1.02759,0,0,0,0,0,0,0,-1,545,1100,-33.7869,1.02762
-672,-76,-34.7319,1.48547,0,0,0,0,0,0,0,-1,552,1100,-34.7319,-1.48552
-665,-76,-34.3151,1.55359,-0.00544477,0.0358511,-0.0191802,0.0433851,-0.0129787,-1.19651,0.0340835,0.0488297,559,1100,-34.3151,-1.55363
-658,-76,-34.0377,1.46484,-0.00546782,0.0299578,-0.013787,0.034691,-0.0102011,-1.24009,0.0271736,0.0456701,566,1100,-34.0376,-1.4649
-651,-76,-33.7433,1.59924,-0.00505238,0.0241915,-0.00955834,0.0270385,-0.00789935,-1.28131,0.0211562,0.0297894,573,1100,-33.7434,-1.59924
-644,-76,-33.8002,1.89221,-0.00428716,0.0189083,-0.00618123,0.0204526,-0.00583154,-1.32596,0.0159386,0.0101839,580,1100,-33.8002,-1.89222
-637,-76,-33.8825,2.20874,-0.00388424,0.0136011,-0.00377013,0.0143793,-0.0046625,-1.36723,0.011461,0.0124503,587,1100,-33.8825,-2.20876
-630,-76,-33.8976,2.49829,-0.0026686,0.00864446,-0.0022676,0.00908205,-0.00310619,-1.38016,0.00731339,0.0150215,594,1100,-33.8976,-2.49832
-623,-76,-33.9025,2.83069,-0.00136976,0.00498241,-0.00202527,0.00557319,-0.00196054,-1.28697,0.00451322,0.0167258,601,1100,-33.9025,-2.83067
-616,-76,-33.9497,3.17859,8.73724e-05,0.0024628,-0.00159639,0.00326484,-0.00071467,-1.10522,0.00244978,0.0170234,608,1100,-33.9497,-3.17859
-609,-76,-33.939,3.49182,0.0010857,0.000184298,-0.00150491,0.00220595,-0.000935955,-0.639906,0.00186272,0.0173011,615,1100,-33.939,-3.49184
-602,-76,-33.8835,3.81885,0.00134168,-0.00102594,-0.00143715,0.0020198,-0.00170406,-0.440879,0.00215255,0.0190943,622,1100,-33.8835,-3.81886
-595,-76,-33.8403,4.09375,0.00146043,-0.00163549,-0.00135153,0.00196742,-0.00214247,-0.358877,0.00237356,0.0301973,629,1100,-33.8403,-4.09375
-588,-76,-33.8159,4.3833,0,0,0,0,0,0,0,-1,636,1100,-33.8159,-4.38333
-581,-76,-35.8745,0.743042,0,0,0,0,0,0,0,-1,643,1100,-35.8745,-0.743046
-574,-76,-35.9084,0.779175,0.00225922,-0.00232675,-0.000745997,0.00237752,-0.00244505,-0.157269,0.0027844,0.0340118,650,1100,-35.9084,-0.779194
-567,-76,-36.1108,0.72583,0.00237004,-0.00226397,-0.000437683,0.00241101,-0.00230495,-0.0933502,0.00272299,0.0393188,657,1100,-36.1108,-0.725827
-560,-76,-36.0128,0.958008,0.00243272,-0.00197782,-1.73125e-05,0.00243279,-0.00197789,-0.00392518,0.00255102,0.0419355,664,1100,-36.0128,-0.958007
-553,-76,-35.9156,0.927734,0.00245207,-0.00149244,0.000503664,0.00251536,-0.00155574,0.125015,0.00237212,0.0430541,671,1100,-35.9156,-0.927677
-546,-76,-35.9988,0.794067,0.00289171,-0.000817174,0.00119878,0.00324544,-0.00117091,0.286934,0.00264189,0.0404379,678,1100,-35.9988,-0.794098
-539,-76,-35.8508,0.819214,0.00458823,-0.000238551,0.00194528,0.0052746,-0.000924928,0.339205,0.00386181,0.0431628,685,1100,-35.8508,-0.819171
-532,-76,-35.7136,0.832153,0.0062177,0.000355434,0.00257655,0.00718915,-0.000616019,0.360554,0.00501075,0.0461519,692,1100,-35.7136,-0.83218
-525,-76,0,0,0,0,0,0,0,0,0,-1,699,1100,0,0
-518,-76,0,0,0,0,0,0,0,0,0,-1,706,1100,0,0
-511,-76,0,0,0,0,0,0,0,0,0,-1,713,1100,0,0
-504,-76,0,0,0,0,0,0,0,0,0,-1,720,1100,0,0
-497,-76,0,0,0,0,0,0,0,0,0,-1,727,1100,0,0
-490,-76,0,0,0,0,0,0,0,0,0,-1,734,1100,0,0
-483,-76,0,0,0,0,0,0,0,0,0,-1,741,1100,0,0
-476,-76,0,0,0,0,0,0,0,0,0,-1,748,1100,0,0
-469,-76,0,0,0,0,0,0,0,0,0,-1,755,1100,0,0
-462,-76,0,0,0,0,0,0,0,0,0,-1,762,1100,0,0
-455,-76,0,0,0,0,0,0,0,0,0,-1,769,1100,0,0
-448,-76,0,0,0,0,0,0,0,0,0,-1,776,1100,0,0
-441,-76,0,0,0,0,0,0,0,0,0,-1,783,1100,0,0
-434,-76,0,0,0,0,0,0,0,0,0,-1,790,1100,0,0
-427,-76,0,0,0,0,0,0,0,0,0,-1,797,1100,0,0
-420,-76,0,0,0,0,0,0,0,0,0,-1,804,1100,0,0
-413,-76,0,0,0,0,0,0,0,0,0,-1,811,1100,0,0
-406,-76,0,0,0,0,0,0,0,0,0,-1,818,1100,0,0
-399,-76,0,0,0,0,0,0,0,0,0,-1,825,1100,0,0
-392,-76,0,0,0,0,0,0,0,0,0,-1,832,1100,0,0
-385,-76,0,0,0,0,0,0,0,0,0,-1,839,1100,0,0
-378,-76,0,0,0,0,0,0,0,0,0,-1,846,1100,0,0
-371,-76,0,0,0,0,0,0,0,0,0,-1,853,1100,0,0
-364,-76,0,0,0,0,0,0,0,0,0,-1,860,1100,0,0
-357,-76,0,0,0,0,0,0,0,0,0,-1,867,1100,0,0
-350,-76,0,0,0,0,0,0,0,0,0,-1,874,1100,0,0
-343,-76,0,0,0,0,0,0,0,0,0,-1,881,1100,0,0
-336,-76,0,0,0,0,0,0,0,0,0,-1,888,1100,0,0
-329,-76,0,0,0,0,0,0,0,0,0,-1,895,1100,0,0
-322,-76,0,0,0,0,0,0,0,0,0,-1,902,1100,0,0
-315,-76,0,0,0,0,0,0,0,0,0,-1,909,1100,0,0
-308,-76,0,0,0,0,0,0,0,0,0,-1,916,1100,0,0
-301,-76,0,0,0,0,0,0,0,0,0,-1,923,1100,0,0
-294,-76,0,0,0,0,0,0,0,0,0,-1,930,1100,0,0
-287,-76,0,0,0,0,0,0,0,0,0,-1,937,1100,0,0
-280,-76,0,0,0,0,0,0,0,0,0,-1,944,1100,0,0
-273,-76,0,0,0,0,0,0,0,0,0,-1,951,1100,0,0
-266,-76,0,0,0,0,0,0,0,0,0,-1,958,1100,0,0
-259,-76,0,0,0,0,0,0,0,0,0,-1,965,1100,0,0
-252,-76,0,0,0,0,0,0,0,0,0,-1,972,1100,0,0
-245,-76,0,0,0,0,0,0,0,0,0,-1,979,1100,0,0
-238,-76,0,0,0,0,0,0,0,0,0,-1,986,1100,0,0
-231,-76,0,0,0,0,0,0,0,0,0,-1,993,1100,0,0
-224,-76,0,0,0,0,0,0,0,0,0,-1,1000,1100,0,0
-217,-76,0,0,0,0,0,0,0,0,0,-1,1007,1100,0,0
-210,-76,0,0,0,0,0,0,0,0,0,-1,1014,1100,0,0
-203,-76,0,0,0,0,0,0,0,0,0,-1,1021,1100,0,0
-196,-76,0,0,0,0,0,0,0,0,0,-1,1028,1100,0,0
-189,-76,0,0,0,0,0,0,0,0,0,-1,1035,1100,0,0
-182,-76,0,0,0,0,0,0,0,0,0,-1,1042,1100,0,0
-175,-76,0,0,0,0,0,0,0,0,0,-1,1049,1100,0,0
-168,-76,0,0,0,0,0,0,0,0,0,-1,1056,1100,0,0
-161,-76,0,0,0,0,0,0,0,0,0,-1,1063,1100,0,0
-154,-76,0,0,0,0,0,0,0,0,0,-1,1070,1100,0,0
-147,-76,0,0,0,0,0,0,0,0,0,-1,1077,1100,0,0
-140,-76,0,0,0,0,0,0,0,0,0,-1,1084,1100,0,0
-133,-76,0,0,0,0,0,0,0,0,0,-1,1091,1100,0,0
-126,-76,0,0,0,0,0,0,0,0,0,-1,1098,1100,0,0
-119,-76,0,0,0,0,0,0,0,0,0,-1,1105,1100,0,0
-112,-76,0,0,0,0,0,0,0,0,0,-1,1112,1100,0,0
-105,-76,0,0,0,0,0,0,0,0,0,-1,1119,1100,0,0
-98,-76,0,0,0,0,0,0,0,0,0,-1,1126,1100,0,0
-91,-76,0,0,0,0,0,0,0,0,0,-1,1133,1100,0,0
-84,-76,0,0,0,0,0,0,0,0,0,-1,1140,1100,0,0
-77,-76,0,0,0,0,0,0,0,0,0,-1,1147,1100,0,0
-70,-76,0,0,0,0,0,0,0,0,0,-1,1154,1100,0,0
-63,-76,0,0,0,0,0,0,0,0,0,-1,1161,1100,0,0
-56,-76,0,0,0,0,0,0,0,0,0,-1,1168,1100,0,0
-49,-76,0,0,0,0,0,0,0,0,0,-1,1175,1100,0,0
-42,-76,0,0,0,0,0,0,0,0,0,-1,1182,1100,0,0
-35,-76,0,0,0,0,0,0,0,0,0,-1,1189,1100,0,0
-28,-76,0,0,0,0,0,0,0,0,0,-1,1196,1100,0,0
-21,-76,0,0,0,0,0,0,0,0,0,-1,1203,1100,0,0
-14,-76,0,0,0,0,0,0,0,0,0,-1,1210,1100,0,0
-7,-76,0,0,0,0,0,0,0,0,0,-1,1217,1100,0,0
0,-76,0,0,0,0,0,0,0,0,0,-1,1224,1100,0,0
7,-76,0,0,0,0,0,0,0,0,0,-1,1231,1100,0,0
14,-76,0,0,0,0,0,0,0,0,0,-1,1238,1100,0,0
21,-76,0,0,0,0,0,0,0,0,0,-1,1245,1100,0,0
28,-76,0,0,0,0,0,0,0,0,0,-1,1252,1100,0,0
35,-76,0,0,0,0,0,0,0,0,0,-1,1259,1100,0,0
42,-76,0,0,0,0,0,0,0,0,0,-1,1266,1100,0,0
49,-76,0,0,0,0,0,0,0,0,0,-1,1273,1100,0,0
56,-76,0,0,0,0,0,0,0,0,0,-1,1280,1100,0,0
63,-76,0,0,0,0,0,0,0,0,0,-1,1287,1100,0,0
70,-76,0,0,0,0,0,0,0,0,0,-1,1294,1100,0,0
77,-76,0,0,0,0,0,0,0,0,0,-1,1301,1100,0,0
84,-76,0,0,0,0,0,0,0,0,0,-1,1308,1100,0,0
91,-76,0,0,0,0,0,0,0,0,0,-1,1315,1100,0,0
98,-76,0,0,0,0,0,0,0,0,0,-1,1322,1100,0,0
105,-76,0,0,0,0,0,0,0,0,0,-1,1329,1100,0,0
112,-76,0,0,0,0,0,0,0,0,0,-1,1336,1100,0,0
119,-76,0,0,0,0,0,0,0,0,0,-1,1343,1100,0,0
126,-76,0,0,0,0,0,0,0,0,0,-1,1350,1100,0,0
133,-76,0,0,0,0,0,0,0,0,0,-1,1357,1100,0,0
140,-76,0,0,0,0,0,0,0,0,0,-1,1364,1100,0,0
147,-76,0,0,0,0,0,0,0,0,0,-1,1371,1100,0,0
154,-76,0,0,0,0,0,0,0,0,0,-1,1378,1100,0,0
161,-76,0,0,0,0,0,0,0,0,0,-1,1385,1100,0,0
168,-76,0,0,0,0,0,0,0,0,0,-1,1392,1100,0,0
175,-76,0,0,0,0,0,0,0,0,0,-1,1399,1100,0,0
182,-76,0,0,0,0,0,0,0,0,0,-1,1406,1100,0,0
189,-76,0,0,0,0,0,0,0,0,0,-1,1413,1100,0,0
196,-76,0,0,0,0,0,0,0,0,0,-1,1420,1100,0,0
203,-76,0,0,0,0,0,0,0,0,0,-1,1427,1100,0,0
210,-76,0,0,0,0,0,0,0,0,0,-1,1434,1100,0,0
217,-76,0,0,0,0,0,0,0,0,0,-1,1441,1100,0,0
224,-76,0,0,0,0,0,0,0,0,0,-1,1448,1100,0,0
231,-76,0,0,0,0,0,0,0,0,0,-1,1455,1100,0,0
238,-76,0,0,0,0,0,0,0,0,0,-1,1462,1100,0,0
245,-76,0,0,0,0,0,0,0,0,0,-1,1469,1100,0,0
252,-76,0,0,0,0,0,0,0,0,0,-1,1476,1100,0,0
259,-76,0,0,0,0,0,0,0,0,0,-1,1483,1100,0,0
266,-76,0,0,0,0,0,0,0,0,0,-1,1490,1100,0,0
273,-76,0,0,0,0,0,0,0,0,0,-1,1497,1100,0,0
280,-76,0,0,0,0,0,0,0,0,0,-1,1504,1100,0,0
287,-76,0,0,0,0,0,0,0,0,0,-1,1511,1100,0,0
294,-76,0,0,0,0,0,0,0,0,0,-1,1518,1100,0,0
301,-76,0,0,0,0,0,0,0,0,0,-1,1525,1100,0,0
308,-76,0,0,0,0,0,0,0,0,0,-1,1532,1100,0,0
315,-76,0,0,0,0,0,0,0,0,0,-1,1539,1100,0,0
322,-76,0,0,0,0,0,0,0,0,0,-1,1546,1100,0,0
329,-76,0,0,0,0,0,0,0,0,0,-1,1553,1100,0,0
336,-76,0,0,0,0,0,0,0,0,0,-1,1560,1100,0,0
343,-76,0,0,0,0,0,0,0,0,0,-1,1567,1100,0,0
350,-76,0,0,0,0,0,0,0,0,0,-1,1574,1100,0,0
357,-76,0,0,0,0,0,0,0,0,0,-1,1581,1100,0,0
364,-76,0,0,0,0,0,0,0,0,0,-1,1588,1100,0,0
371,-76,0,0,0,0,0,0,0,0,0,-1,1595,1100,0,0
378,-76,0,0,0,0,0,0,0,0,0,-1,1602,1100,0,0
385,-76,0,0,0,0,0,0,0,0,0,-1,1609,1100,0,0
392,-76,0,0,0,0,0,0,0,0,0,-1,1616,1100,0,0
399,-76,0,0,0,0,0,0,0,0,0,-1,1623,1100,0,0
406,-76,0,0,0,0,0,0,0,0,0,-1,1630,1100,0,0
413,-76,0,0,0,0,0,0,0,0,0,-1,1637,1100,0,0
420,-76,0,0,0,0,0,0,0,0,0,-1,1644,1100,0,0
427,-76,0,0,0,0,0,0,0,0,0,-1,1651,1100,0,0
434,-76,0,0,0,0,0,0,0,0,0,-1,1658,1100,0,0
441,-76,0,0,0,0,0,0,0,0,0,-1,1665,1100,0,0
448,-76,0,0,0,0,0,0,0,0,0,-1,1672,1100,0,0
455,-76,0,0,0,0,0,0,0,0,0,-1,1679,1100,0,0
462,-76,0,0,0,0,0,0,0,0,0,-1,1686,1100,0,0
469,-76,0,0,0,0,0,0,0,0,0,-1,1693,1100,0,0
476,-76,0,0,0,0,0,0,0,0,0,-1,1700,1100,0,0
483,-76,0,0,0,0,0,0,0,0,0,-1,1707,1100,0,0
490,-76,0,0,0,0,0,0,0,0,0,-1,1714,1100,0,0
497,-76,0,0,0,0,0,0,0,0,0,-1,1721,1100,0,0
504,-76,0,0,0,0,0,0,0,0,0,-1,1728,1100,0,0
511,-76,0,0,0,0,0,0,0,0,0,-1,1735,1100,0,0
518,-76,0,0,0,0,0,0,0,0,0,-1,1742,1100,0,0
525,-76,0,0,0,0,0,0,0,0,0,-1,1749,1100,0,0
532,-76,0,0,0,0,0,0,0,0,0,-1,1756,1100,0,0
539,-76,0,0,0,0,0,0,0,0,0,-1,1763,1100,0,0
546,-76,0,0,0,0,0,0,0,0,0,-1,1770,1100,0,0
553,-76,0,0,0,0,0,0,0,0,0,-1,1777,1100,0,0
560,-76,0,0,0,0,0,0,0,0,0,-1,1784,1100,0,0
567,-76,0,0,0,0,0,0,0,0,0,-1,1791,1100,0,0
574,-76,0,0,0,0,0,0,0,0,0,-1,1798,1100,0,0
581,-76,0,0,0,0,0,0,0,0,0,-1,1805,1100,0,0
588,-76,0,0,0,0,0,0,0,0,0,-1,1812,1100,0,0
595,-76,0,0,0,0,0,0,0,0,0,-1,1819,1100,0,0
602,-76,0,0,0,0,0,0,0,0,0,-1,1826,1100,0,0
609,-76,0,0,0,0,0,0,0,0,0,-1,1833,1100,0,0
616,-76,0,0,0,0,0,0,0,0,0,-1,1840,1100,0,0
623,-76,0,0,0,0,0,0,0,0,0,-1,1847,1100,0,0
630,-76,0,0,0,0,0,0,0,0,0,-1,1854,1100,0,0
637,-76,0,0,0,0,0,0,0,0,0,-1,1861,1100,0,0
644,-76,0,0,0,0,0,0,0,0,0,-1,1868,1100,0,0
651,-76,48.5193,2.90881,0.00707849,0.000772894,-0.00272523,0.00809307,-0.000241685,-0.356393,0.00547772,0.0417231,1875,1100,48.5193,-2.90883
658,-76,48.5563,2.92725,0.00569245,0.000130514,-0.0024959,0.00664823,-0.000825268,-0.365714,0.0047313,0.0442069,1882,1100,48.5563,-2.92719
665,-76,48.5176,2.573,0,0,0,0,0,0,0,-1,1889,1100,48.5176,-2.57295
672,-76,48.2583,2.5752,0.00313805,-0.000594827,-0.00145194,0.00363629,-0.00109307,-0.330567,0.00285907,0.0359845,1896,1100,48.2583,-2.57516
679,-76,48.3573,2.51624,0.0019173,-0.000812174,-0.000812524,0.00214087,-0.00103574,-0.268504,0.00187064,0.0377729,1903,1100,48.3573,-2.51629
686,-76,48.5791,2.52563,0.000930532,-0.00107606,-0.000206501,0.000951563,-0.00109709,-0.101494,0.00118378,0.0349547,1910,1100,48.5791,-2.5256
693,-76,48.5302,2.50854,0.000315624,-0.0012703,0.000271954,0.000360962,-0.00131564,0.165195,0.00101895,0.035268,1917,1100,48.5302,-2.50849
700,-76,48.4364,2.53577,-0.000114763,-0.00134604,0.000606706,0.00013395,-0.00159475,0.389046,0.00111051,0.0333874,1924,1100,48.4364,-2.53577
707,-76,48.4095,2.60327,-0.000546837,-0.00142641,0.000982318,8.96492e-05,-0.00206289,0.574928,0.0014061,0.024585,1931,1100,48.4095,-2.6033
714,-76,48.4443,2.63782,0,0,0,0,0,0,0,-1,1938,1100,48.4443,-2.63777
721,-76,45.1713,3.04919,0,0,0,0,0,0,0,-1,1945,1100,45.1713,-3.04915
728,-76,45.6332,6.76221,0,0,0,0,0,0,0,-1,1952,1100,45.6332,-6.76217
735,-76,46.0049,6.53638,-0.00233617,0.000120136,0.00209356,0.00131919,-0.00353523,1.05067,0.00289841,0.039492,1959,1100,46.0049,-6.53637
742,-76,46.2155,6.21777,-0.00260076,0.00120497,0.00202333,0.00207965,-0.00347544,1.16276,0.00324081,0.0264635,1966,1100,46.2155,-6.2178
749,-76,46.1326,5.85071,-0.00243864,0.00252815,0.00167416,0.00303976,-0.00295025,1.27422,0.00345847,0.0255681,1973,1100,46.1325,-5.85072
756,-76,46.2094,5.59912,-0.00231925,0.00419965,0.00131036,0.00445318,-0.00257278,1.37967,0.00410458,0.0162596,1980,1100,46.2093,-5.59915
763,-76,46.1881,5.30811,-0.00187035,0.00661431,0.00069719,0.00667122,-0.00192725,1.48935,0.0052101,0.0169333,1987,1100,46.1881,-5.30816
770,-76,46.0779,5.06958,-0.000935043,0.00983918,-0.000399251,0.00985396,-0.000949817,-1.53381,0.00690771,0.0175932,1994,1100,46.0779,-5.06954
777,-76,45.9915,4.90454,0.000780982,0.0136192,-0.00184828,0.01388,0.000520188,-1.43062,0.00908488,0.0216557,2001,1100,45.9914,-4.90453
784,-76,46.0898,4.59131,0.00323632,0.017768,-0.00357823,0.0186013,0.00240301,-1.34199,0.0116825,0.0341911,2008,1100,46.09,-4.59127
791,-76,46.229,4.42712,0,0,0,0,0,0,0,-1,2015,1100,46.2289,-4.42713
798,-76,46.3152,3.89514,0,0,0,0,0,0,0,-1,2022,1100,46.3151,-3.8952
805,-76,45.9116,2.41675,0,0,0,0,0,0,0,-1,2029,1100,45.9116,-2.4167
812,-76,45.7612,1.49231,0,0,0,0,0,0,0,-1,2036,1100,45.7611,-1.49233
-700,-83,0,0,0,0,0,0,0,0,0,-1,524,1107,0,0
-693,-83,-32.7741,0.270874,-0.0216893,0.0599811,-0.0528018,0.0858958,-0.0476039,-1.11454,0.0781258,0.0454124,531,1107,-32.7741,-0.27084
-686,-83,-32.6933,0.380005,-0.0198546,0.0554774,-0.0435358,0.0753795,-0.0397567,-1.14202,0.0675262,0.0497054,538,1107,-32.6933,-0.379999
-679,-83,-33.2186,0.325439,0,0,0,0,0,0,0,-1,545,1107,-33.2186,-0.325491
-672,-83,-33.3494,0.338013,-0.0153574,0.0436932,-0.027049,0.0542103,-0.0258745,-1.19997,0.0471918,0.0482647,552,1107,-33.3494,-0.337961
-665,-83,-33.3005,0.588257,-0.0132448,0.0373031,-0.0202761,0.0444312,-0.0203729,-1.23274,0.0382645,0.0472989,559,1107,-33.3005,-0.588196
-658,-83,-33.4824,1.07764,-0.0112426,0.0308781,-0.0146633,0.03548,-0.0158445,-1.26669,0.0303464,0.0429673,566,1107,-33.4824,-1.07767
-651,-83,-33.3931,1.43628,-0.00919813,0.0246807,-0.0102319,0.027531,-0.0120485,-1.29911,0.0234268,0.031619,573,1107,-33.393,-1.43626
-644,-83,-33.4109,1.80188,-0.00718395,0.0190678,-0.00669893,0.0206784,-0.00879457,-1.33484,0.0174712,0.0144595,580,1107,-33.4109,-1.80189
-637,-83,-33.492,2.13623,-0.00571506,0.0135375,-0.00416248,0.0143989,-0.00657647,-1.36673,0.0123877,0.0107659,587,1107,-33.492,-2.1362
-630,-83,-33.5237,2.50598,-0.00370585,0.00844787,-0.00247542,0.00893271,-0.0041907,-1.37738,0.00773993,0.0158924,594,1107,-33.5237,-2.50602
-623,-83,-33.5612,2.83313,-0.00181763,0.00466444,-0.00200991,0.00523707,-0.00239027,-1.29325,0.00450472,0.0162005,601,1107,-33.5611,-2.83312
-616,-83,-33.6071,3.16919,-2.54714e-05,0.00204523,-0.00146621,0.00280479,-0.000785035,-1.09282,0.00217919,0.0149884,608,1107,-33.6071,-3.1692
-609,-83,-33.5697,3.48376,0.0010775,-0.00011887,-0.00135013,0.00195602,-0.000997392,-0.576865,0.00173484,0.0178392,615,1107,-33.5697,-3.48378
-602,-83,-33.5615,3.85632,0.00132705,-0.00107757,-0.00122971,0.00184455,-0.00159507,-0.398331,0.0019876,0.0177611,622,1107,-33.5615,-3.85633
-595,-83,-33.5005,4.19763,0.00142035,-0.00162115,-0.00111001,0.00178236,-0.00198316,-0.315259,0.00217506,0.021482,629,1107,-33.5005,-4.19769
-588,-83,-33.4948,4.47571,0,0,0,0,0,0,0,-1,636,1107,-33.4948,-4.47566
-581,-83,-35.876,0.772461,0,0,0,0,0,0,0,-1,643,1107,-35.876,-0.772426
-574,-83,-35.9106,0.740723,0.00215631,-0.00222961,-0.000700162,0.00226537,-0.00233867,-0.154524,0.00265825,0.0363819,650,1107,-35.9106,-0.740719
-567,-83,-36.0596,0.75354,0.00225544,-0.00218839,-0.000509402,0.00231309,-0.00224604,-0.112684,0.00263231,0.0408147,657,1107,-36.0596,-0.753598
-560,-83,-35.9973,0.777954,0.00231367,-0.00195875,-0.00022225,0.0023252,-0.00197028,-0.0518332,0.00248281,0.0410702,664,1107,-35.9973,-0.778001
-553,-83,-35.8709,0.784546,0.00223328,-0.0015584,0.000122978,0.00223726,-0.00156239,0.0323883,0.00220523,0.0424613,671,1107,-35.8709,-0.78455
-546,-83,-35.8942,0.876343,0.00251185,-0.000980543,0.000613017,0.00261633,-0.00108502,0.168809,0.00219709,0.0397296,678,1107,-35.8942,-0.8763
-539,-83,-35.8933,0.896973,0.00414151,-0.000513264,0.00123464,0.00444871,-0.000820468,0.243868,0.00327375,0.0421686,685,1107,-35.8933,-0.896919
-532,-83,-35.7177,0.780884,0.00574739,-8.2296e-05,0.00173906,0.00622676,-0.00056166,0.268966,0.00435049,0.0450514,692,1107,-35.7177,-0.780864
-525,-83,0,0,0,0,0,0,0,0,0,-1,699,1107,0,0
-518,-83,0,0,0,0,0,0,0,0,0,-1,706,1107,0,0
-511,-83,0,0,0,0,0,0,0,0,0,-1,713,1107,0,0
-504,-83,0,0,0,0,0,0,0,0,0,-1,720,1107,0,0
-497,-83,0,0,0,0,0,0,0,0,0,-1,727,1107,0,0
-490,-83,0,0,0,0,0,0,0,0,0,-1,734,1107,0,0
-483,-83,0,0,0,0,0,0,0,0,0,-1,741,1107,0,0
-476,-83,0,0,0,0,0,0,0,0,0,-1,748,1107,0,0
-469,-83,0,0,0,0,0,0,0,0,0,-1,755,1107,0,0
-462,-83,0,0,0,0,0,0,0,0,0,-1,762,1107,0,0
-455,-83,0,0,0,0,0,0,0,0,0,-1,769,1107,0,0
-448,-83,0,0,0,0,0,0,0,0,0,-1,776,1107,0,0
-441,-83,0,0,0,0,0,0,0,0,0,-1,783,1107,0,0
-434,-83,0,0,0,0,0,0,0,0,0,-1,790,1107,0,0
-427,-83,0,0,0,0,0,0,0,0,0,-1,797,1107,0,0
-420,-83,0,0,0,0,0,0,0,0,0,-1,804,1107,0,0
-413,-83,0,0,0,0,0,0,0,0,0,-1,811,1107,0,0
-406,-83,0,0,0,0,0,0,0,0,0,-1,818,1107,0,0
-399,-83,0,0,0,0,0,0,0,0,0,-1,825,1107,0,0
-392,-83,0,0,0,0,0,0,0,0,0,-1,832,1107,0,0
-385,-83,0,0,0,0,0,0,0,0,0,-1,839,1107,0,0
-378,-83,0,0,0,0,0,0,0,0,0,-1,846,1107,0,0
-371,-83,0,0,0,0,0,0,0,0,0,-1,853,1107,0,0
-364,-83,0,0,0,0,0,0,0,0,0,-1,860,1107,0,0
-357,-83,0,0,0,0,0,0,0,0,0,-1,867,1107,0,0
-350,-83,0,0,0,0,0,0,0,0,0,-1,874,1107,0,0
-343,-83,0,0,0,0,0,0,0,0,0,-1,881,1107,0,0
-336,-83,0,0,0,0,0,0,0,0,0,-1,888,1107,0,0
-329,-83,0,0,0,0,0,0,0,0,0,-1,895,1107,0,0
-322,-83,0,0,0,0,0,0,0,0,0,-1,902,1107,0,0
-315,-83,0,0,0,0,0,0,0,0,0,-1,909,1107,0,0
-308,-83,0,0,0,0,0,0,0,0,0,-1,916,1107,0,0
-301,-83,0,0,0,0,0,0,0,0,0,-1,923,1107,0,0
-294,-83,0,0,0,0,0,0,0,0,0,-1,930,1107,0,0
-287,-83,0,0,0,0,0,0,0,0,0,-1,937,1107,0,0
-280,-83,0,0,0,0,0,0,0,0,0,-1,944,1107,0,0
-273,-83,0,0,0,0,0,0,0,0,0,-1,951,1107,0,0
-266,-83,0,0,0,0,0,0,0,0,0,-1,958,1107,0,0
-259,-83,0,0,0,0,0,0,0,0,0,-1,965,1107,0,0
-252,-83,0,0,0,0,0,0,0,0,0,-1,972,1107,0,0
-245,-83,0,0,0,0,0,0,0,0,0,-1,979,1107,0,0
-238,-83,0,0,0,0,0,0,0,0,0,-1,986,1107,0,0
-231,-83,0,0,0,0,0,0,0,0,0,-1,993,1107,0,0
-224,-83,0,0,0,0,0,0,0,0,0,-1,1000,1107,0,0
-217,-83,0,0,0,0,0,0,0,0,0,-1,1007,1107,0,0
-210,-83,0,0,0,0,0,0,0,0,0,-1,1014,1107,0,0
-203,-83,0,0,0,0,0,0,0,0,0,-1,1021,1107,0,0
-196,-83,0,0,0,0,0,0,0,0,0,-1,1028,1107,0,0
-189,-83,0,0,0,0,0,0,0,0,0,-1,1035,1107,0,0
-182,-83,0,0,0,0,0,0,0,0,0,-1,1042,1107,0,0
-175,-83,0,0,0,0,0,0,0,0,0,-1,1049,1107,0,0
-168,-83,0,0,0,0,0,0,0,0,0,-1,1056,1107,0,0
-161,-83,0,0,0,0,0,0,0,0,0,-1,1063,1107,0,0
-154,-83,0,0,0,0,0,0,0,0,0,-1,1070,1107,0,0
-147,-83,0,0,0,0,0,0,0,0,0,-1,1077,1107,0,0
-140,-83,0,0,0,0,0,0,0,0,0,-1,1084,1107,0,0
-133,-83,0,0,0,0,0,0,0,0,0,-1,1091,1107,0,0
-126,-83,0,0,0,0,0,0,0,0,0,-1,1098,1107,0,0
-119,-83,0,0,0,0,0,0,0,0,0,-1,1105,1107,0,0
-112,-83,0,0,0,0,0,0,0,0,0,-1,1112,1107,0,0
-105,-83,0,0,0,0,0,0,0,0,0,-1,1119,1107,0,0
-98,-83,0,0,0,0,0,0,0,0,0,-1,1126,1107,0,0
-91,-83,0,0,0,0,0,0,0,0,0,-1,1133,1107,0,0
-84,-83,0,0,0,0,0,0,0,0,0,-1,1140,1107,0,0
-77,-83,0,0,0,0,0,0,0,0,0,-1,1147,1107,0,0
-70,-83,0,0,0,0,0,0,0,0,0,-1,1154,1107,0,0
-63,-83,0,0,0,0,0,0,0,0,0,-1,1161,1107,0,0
-56,-83,0,0,0,0,0,0,0,0,0,-1,1168,1107,0,0
-49,-83,0,0,0,0,0,0,0,0,0,-1,1175,1107,0,0
-42,-83,0,0,0,0,0,0,0,0,0,-1,1182,1107,0,0
-35,-83,0,0,0,0,0,0,0,0,0,-1,1189,1107,0,0
-28,-83,0,0,0,0,0,0,0,0,0,-1,1196,1107,0,0
-21,-83,0,0,0,0,0,0,0,0,0,-1,1203,1107,0,0
-14,-83,0,0,0,0,0,0,0,0,0,-1,1210,1107,0,0
-7,-83,0,0,0,0,0,0,0,0,0,-1,1217,1107,0,0
0,-83,0,0,0,0,0,0,0,0,0,-1,1224,1107,0,0
7,-83,0,0,0,0,0,0,0,0,0,-1,1231,1107,0,0
14,-83,0,0,0,0,0,0,0,0,0,-1,1238,1107,0,0
21,-83,0,0,0,0,0,0,0,0,0,-1,1245,1107,0,0
28,-83,0,0,0,0,0,0,0,0,0,-1,1252,1107,0,0
35,-83,0,0,0,0,0,0,0,0,0,-1,1259,1107,0,0
42,-83,0,0,0,0,0,0,0,0,0,-1,1266,1107,0,0
49,-83,0,0,0,0,0,0,0,0,0,-1,1273,1107,0,0
56,-83,0,0,0,0,0,0,0,0,0,-1,1280,1107,0,0
63,-83,0,0,0,0,0,0,0,0,0,-1,1287,1107,0,0
70,-83,0,0,0,0,0,0,0,0,0,-1,1294,1107,0,0
77,-83,0,0,0,0,0,0,0,0,0,-1,1301,1107,0,0
84,-83,0,0,0,0,0,0,0,0,0,-1,1308,1107,0,0
91,-83,0,0,0,0,0,0,0,0,0,-1,1315,1107,0,0
98,-83,0,0,0,0,0,0,0,0,0,-1,1322,1107,0,0
105,-83,0,0,0,0,0,0,0,0,0,-1,1329,1107,0,0
112,-83,0,0,0,0,0,0,0,0,0,-1,1336,1107,0,0
119,-83,0,0,0,0,0,0,0,0,0,-1,1343,1107,0,0
126,-83,0,0,0,0,0,0,0,0,0,-1,1350,1107,0,0
133,-83,0,0,0,0,0,0,0,0,0,-1,1357,1107,0,0
140,-83,0,0,0,0,0,0,0,0,0,-1,1364,1107,0,0
147,-83,0,0,0,0,0,0,0,0,0,-1,1371,1107,0,0
154,-83,0,0,0,0,0,0,0,0,0,-1,1378,1107,0,0
161,-83,0,0,0,0,0,0,0,0,0,-1,1385,1107,0,0
168,-83,0,0,0,0,0,0,0,0,0,-1,1392,1107,0,0
175,-83,0,0,0,0,0,0,0,0,0,-1,1399,1107,0,0
182,-83,0,0,0,0,0,0,0,0,0,-1,1406,1107,0,0
189,-83,0,0,0,0,0,0,0,0,0,-1,1413,1107,0,0
196,-83,0,0,0,0,0,0,0,0,0,-1,1420,1107,0,0
203,-83,0,0,0,0,0,0,0,0,0,-1,1427,1107,0,0
210,-83,0,0,0,0,0,0,0,0,0,-1,1434,1107,0,0
217,-83,0,0,0,0,0,0,0,0,0,-1,1441,1107,0,0
224,-83,0,0,0,0,0,0,0,0,0,-1,1448,1107,0,0
231,-83,0,0,0,0,0,0,0,0,0,-1,1455,1107,0,0
238,-83,0,0,0,0,0,0,0,0,0,-1,1462,1107,0,0
245,-83,0,0,0,0,0,0,0,0,0,-1,1469,1107,0,0
252,-83,0,0,0,0,0,0,0,0,0,-1,1476,1107,0,0
259,-83,0,0,0,0,0,0,0,0,0,-1,1483,1107,0,0
266,-83,0,0,0,0,0,0,0,0,0,-1,1490,1107,0,0
273,-83,0,0,0,0,0,0,0,0,0,-1,1497,1107,0,0
280,-83,0,0,0,0,0,0,0,0,0,-1,1504,1107,0,0
287,-83,0,0,0,0,0,0,0,0,0,-1,1511,1107,0,0
294,-83,0,0,0,0,0,0,0,0,0,-1,1518,1107,0,0
301,-83,0,0,0,0,0,0,0,0,0,-1,1525,1107,0,0
308,-83,0,0,0,0,0,0,0,0,0,-1,1532,1107,0,0
315,-83,0,0,0,0,0,0,0,0,0,-1,1539,1107,0,0
322,-83,0,0,0,0,0,0,0,0,0,-1,1546,1107,0,0
329,-83,0,0,0,0,0,0,0,0,0,-1,1553,1107,0,0
336,-83,0,0,0,0,0,0,0,0,0,-1,1560,1107,0,0
343,-83,0,0,0,0,0,0,0,0,0,-1,1567,1107,0,0
350,-83,0,0,0,0,0,0,0,0,0,-1,1574,1107,0,0
357,-83,0,0,0,0,0,0,0,0,0,-1,1581,1107,0,0
364,-83,0,0,0,0,0,0,0,0,0,-1,1588,1107,0,0
371,-83,0,0,0,0,0,0,0,0,0,-1,1595,1107,0,0
378,-83,0,0,0,0,0,0,0,0,0,-1,1602,1107,0,0
385,-83,0,0,0,0,0,0,0,0,0,-1,1609,1107,0,0
392,-83,0,0,0,0,0,0,0,0,0,-1,1616,1107,0,0
399,-83,0,0,0,0,0,0,0,0,0,-1,1623,1107,0,0
406,-83,0,0,0,0,0,0,0,0,0,-1,1630,1107,0,0
413,-83,0,0,0,0,0,0,0,0,0,-1,1637,1107,0,0
420,-83,0,0,0,0,0,0,0,0,0,-1,1644,1107,0,0
427,-83,0,0,0,0,0,0,0,0,0,-1,1651,1107,0,0
434,-83,0,0,0,0,0,0,0,0,0,-1,1658,1107,0,0
441,-83,0,0,0,0,0,0,0,0,0,-1,1665,1107,0,0
448,-83,0,0,0,0,0,0,0,0,0,-1,1672,1107,0,0
455,-83,0,0,0,0,0,0,0,0,0,-1,1679,1107,0,0
462,-83,0,0,0,0,0,0,0,0,0,-1,1686,1107,0,0
469,-83,0,0,0,0,0,0,0,0,0,-1,1693,1107,0,0
476,-83,0,0,0,0,0,0,0,0,0,-1,1700,1107,0,0
483,-83,0,0,0,0,0,0,0,0,0,-1,1707,1107,0,0
490,-83,0,0,0,0,0,0,0,0,0,-1,1714,1107,0,0
497,-83,0,0,0,0,0,0,0,0,0,-1,1721,1107,0,0
504,-83,0,0,0,0,0,0,0,0,0,-1,1728,1107,0,0
511,-83,0,0,0,0,0,0,0,0,0,-1,1735,1107,0,0
518,-83,0,0,0,0,0,0,0,0,0,-1,1742,1107,0,0
525,-83,0,0,0,0,0,0,0,0,0,-1,1749,1107,0,0
532,-83,0,0,0,0,0,0,0,0,0,-1,1756,1107,0,0
539,-83,0,0,0,0,0,0,0,0,0,-1,1763,1107,0,0
546,-83,0,0,0,0,0,0,0,0,0,-1,1770,1107,0,0
553,-83,0,0,0,0,0,0,0,0,0,-1,1777,1107,0,0
560,-83,0,0,0,0,0,0,0,0,0,-1,1784,1107,0,0
567,-83,0,0,0,0,0,0,0,0,0,-1,1791,1107,0,0
574,-83,0,0,0,0,0,0,0,0,0,-1,1798,1107,0,0
581,-83,0,0,0,0,0,0,0,0,0,-1,1805,1107,0,0
588,-83,0,0,0,0,0,0,0,0,0,-1,1812,1107,0,0
595,-83,0,0,0,0,0,0,0,0,0,-1,1819,1107,0,0
602,-83,0,0,0,0,0,0,0,0,0,-1,1826,1107,0,0
609,-83,0,0,0,0,0,0,0,0,0,-1,1833,1107,0,0
616,-83,0,0,0,0,0,0,0,0,0,-1,1840,1107,0,0
623,-83,0,0,0,0,0,0,0,0,0,-1,1847,1107,0,0
630,-83,0,0,0,0,0,0,0,0,0,-1,1854,1107,0,0
637,-83,0,0,0,0,0,0,0,0,0,-1,1861,1107,0,0
644,-83,48.4308,2.60657,0.00880167,0.00152958,-0.00269637,0.00969234,0.000638902,-0.319041,0.00625947,0.0363021,1868,1107,48.4308,-2.60654
651,-83,48.5276,2.69067,0.00706183,0.000571971,-0.00271677,0.00804897,-0.00041517,-0.348519,0.00550958,0.0407756,1875,1107,48.5276,-2.69072
658,-83,48.7045,2.79724,0,0,0,0,0,0,0,-1,1882,1107,48.7045,-2.79725
665,-83,48.3263,2.67761,0.00426125,-0.000538173,-0.00194256,0.00494896,-0.00122588,-0.340253,0.00377488,0.0422213,1889,1107,48.3263,-2.67763
672,-83,48.204,2.52612,0.00302178,-0.000819387,-0.00136366,0.00345666,-0.00125426,-0.30871,0.00281719,0.0386683,1896,1107,48.204,-2.52606
679,-83,48.3676,2.50818,0.0017908,-0.00104169,-0.000785288,0.00199394,-0.00124483,-0.253141,0.00188651,0.0380602,1903,1107,48.3675,-2.50817
686,-83,48.5511,2.48877,0.000857743,-0.00128439,-0.000267132,0.000890552,-0.0013172,-0.12221,0.00128255,0.034713,1910,1107,48.5512,-2.48871
693,-83,48.5107,2.5448,0.000307127,-0.00143077,0.000133637,0.000317343,-0.00144099,0.0762982,0.00108206,0.03347,1917,1107,48.5107,-2.54482
700,-83,48.4255,2.65063,-8.96266e-05,-0.00147004,0.000413966,2.4998e-05,-0.00158466,0.270126,0.00106487,0.031758,1924,1107,48.4255,-2.65059
707,-83,48.4185,2.60681,-0.000486399,-0.00152418,0.000762382,-8.30784e-05,-0.0019275,0.486599,0.00125822,0.0240818,1931,1107,48.4184,-2.60687
714,-83,48.3911,2.57166,0,0,0,0,0,0,0,-1,1938,1107,48.3912,-2.57168
721,-83,45.9977,7.01672,0,0,0,0,0,0,0,-1,1945,1107,45.9977,-7.01678
728,-83,45.9717,6.79199,-0.00173781,-0.000482413,0.00170335,0.000705211,-0.00292544,0.961932,0.00222297,0.0425477,1952,1107,45.9717,-6.79202
735,-83,45.6427,6.5144,-0.00212994,5.1519e-05,0.00182027,0.00108284,-0.00316126,1.05532,0.00254639,0.0391329,1959,1107,45.6428,-6.51443
742,-83,45.8271,6.19214,-0.00235854,0.00108809,0.00176845,0.00183403,-0.00310448,1.17163,0.00288253,0.0234937,1966,1107,45.8272,-6.19219
749,-83,45.8979,5.88098,-0.00218221,0.00240528,0.00144368,0.00282179,-0.00259872,1.28992,0.00313042,0.0167596,1973,1107,45.8979,-5.88097
756,-83,45.9277,5.58972,-0.00210821,0.00407234,0.00106437,0.00425051,-0.00228638,1.40495,0.00383044,0.0163471,1980,1107,45.9277,-5.58975
763,-83,45.9059,5.26929,-0.00172471,0.00654365,0.000334848,0.00655719,-0.00173825,1.53039,0.00505157,0.0122702,1987,1107,45.9059,-5.26927
770,-83,45.8066,5.02014,-0.000912457,0.0098195,-0.000915605,0.00989706,-0.000990012,-1.48629,0.00695158,0.0151916,1994,1107,45.8067,-5.02016
777,-83,45.6893,4.76196,0.000579395,0.0136944,-0.00261189,0.0141954,7.83685e-05,-1.38127,0.00943758,0.0178317,2001,1107,45.6893,-4.76199
784,-83,45.5747,4.5437,0.00277559,0.0181481,-0.00482146,0.0195352,0.00138853,-1.29068,0.0125862,0.0284653,2008,1107,45.5748,-4.54376
791,-83,45.4504,4.27026,0.00646151,0.0234122,-0.00781095,0.0264625,0.00341112,-1.19848,0.0166217,0.0434957,2015,1107,45.4505,-4.27027
798,-83,45.2361,4.05518,0,0,0,0,0,0,0,-1,2022,1107,45.236,-4.05523
805,-83,45.5271,2.76343,0,0,0,0,0,0,0,-1,2029,1107,45.5271,-2.76341
812,-83,45.3254,2.10547,0,0,0,0,0,0,0,-1,2036,1107,45.3253,-2.10544
-700,-90,0,0,0,0,0,0,0,0,0,-1,524,1114,0,0
-693,-90,-32.3244,-0.192261,-0.0401711,0.064993,-0.0533004,0.0872828,-0.0624609,-1.17471,0.0868496,0.045428,531,1114,-32.3244,0.192283
-686,-90,-32.3073,-0.117676,-0.0355148,0.0589005,-0.0445077,0.0765735,-0.0531878,-1.19281,0.0753222,0.0454271,538,1114,-32.3072,0.117619
-679,-90,-32.1415,0.0633545,0,0,0,0,0,0,0,-1,545,1114,-32.1416,-0.0633786
-672,-90,-32.0768,0.299072,-0.0253884,0.044813,-0.0280249,0.0546284,-0.0352038,-1.23391,0.0522672,0.0478023,552,1114,-32.0768,-0.29902
-665,-90,-33.402,0.423218,-0.0208006,0.0376237,-0.021088,0.04444,-0.0276169,-1.25816,0.0419783,0.0468854,559,1114,-33.402,-0.423164
-658,-90,-33.1232,0.859741,-0.0167529,0.0306164,-0.0153146,0.0351364,-0.0212728,-1.2838,0.0328941,0.0452563,566,1114,-33.1231,-0.859785
-651,-90,-32.968,1.18469,-0.0131082,0.0240835,-0.0107427,0.0269635,-0.0159882,-1.30887,0.0250666,0.0313935,573,1114,-32.9679,-1.18468
-644,-90,-33.0694,1.67456,-0.00988011,0.018295,-0.00711326,0.019989,-0.0115741,-1.337,0.0184376,0.0143719,580,1114,-33.0694,-1.67459
-637,-90,-33.1185,2.11255,-0.007399,0.0127669,-0.00449347,0.0137228,-0.00835494,-1.36118,0.0128716,0.0117334,587,1114,-33.1185,-2.11258
-630,-90,-33.14,2.48804,-0.00465358,0.00780404,-0.00265868,0.00834772,-0.00519726,-1.36908,0.00789039,0.0108625,594,1114,-33.14,-2.48809
-623,-90,-33.1539,2.85632,-0.00222506,0.00410966,-0.00196194,0.00466807,-0.00278347,-1.29351,0.00434777,0.00986325,601,1114,-33.154,-2.85631
-616,-90,-33.186,3.2262,-0.000198015,0.00155594,-0.00130867,0.00225431,-0.000896383,-1.0806,0.00187452,0.0124169,608,1114,-33.1861,-3.2262
-609,-90,-33.1811,3.54614,0.000935267,-0.000384534,-0.00117187,0.00162027,-0.00106953,-0.52897,0.00156377,0.0184551,615,1114,-33.1811,-3.54615
-602,-90,-33.2432,3.88538,0.00119679,-0.00108021,-0.00101932,0.00158642,-0.00146985,-0.365111,0.00176497,0.0195502,622,1114,-33.2433,-3.8854
-595,-90,-33.1132,4.31262,0.00124117,-0.00160013,-0.000857384,0.00147985,-0.00183881,-0.2715,0.00191976,0.0160437,629,1114,-33.1132,-4.31257
-588,-90,-33.114,4.6145,0,0,0,0,0,0,0,-1,636,1114,-33.114,-4.61451
-581,-90,-35.9479,1.03052,0,0,0,0,0,0,0,-1,643,1114,-35.9479,-1.03049
-574,-90,-35.9102,0.940186,0.00192976,-0.00218096,-0.000617482,0.00202051,-0.00227171,-0.145924,0.00247953,0.0368964,650,1114,-35.9101,-0.940231
-567,-90,-35.9014,0.852173,0.0020442,-0.00217478,-0.00053133,0.00211009,-0.00224066,-0.123372,0.00251229,0.0349564,657,1114,-35.9014,-0.852173
-560,-90,-35.894,0.897583,0.00212916,-0.00200925,-0.000375623,0.00216298,-0.00204307,-0.0897873,0.00242869,0.0377816,664,1114,-35.894,-0.89759
-553,-90,-35.7847,1.05432,0.00197858,-0.0016889,-0.000235767,0.00199368,-0.00170399,-0.063935,0.00213703,0.0412033,671,1114,-35.7847,-1.05431
-546,-90,-35.8181,1.0498,0.00207364,-0.00120498,-2.62361e-05,0.00207385,-0.00120519,-0.0080015,0.00191517,0.0431043,678,1114,-35.8181,-1.04976
-539,-90,-35.9857,0.873901,0.00352438,-0.000841812,0.000335394,0.00354999,-0.000867425,0.0762201,0.00270261,0.0418925,685,1114,-35.9857,-0.873878
-532,-90,-35.9015,0.823853,0.00504338,-0.00054325,0.000589602,0.00510492,-0.000604797,0.104011,0.00362175,0.0426136,692,1114,-35.9015,-0.823907
-525,-90,0,0,0,0,0,0,0,0,0,-1,699,1114,0,0
-518,-90,0,0,0,0,0,0,0,0,0,-1,706,1114,0,0
-511,-90,0,0,0,0,0,0,0,0,0,-1,713,1114,0,0
-504,-90,0,0,0,0,0,0,0,0,0,-1,720,1114,0,0
-497,-90,0,0,0,0,0,0,0,0,0,-1,727,1114,0,0
-490,-90,0,0,0,0,0,0,0,0,0,-1,734,1114,0,0
-483,-90,0,0,0,0,0,0,0,0,0,-1,741,1114,0,0
-476,-90,0,0,0,0,0,0,0,0,0,-1,748,1114,0,0
-469,-90,0,0,0,0,0,0,0,0,0,-1,755,1114,0,0
-462,-90,0,0,0,0,0,0,0,0,0,-1,762,1114,0,0
-455,-90,0,0,0,0,0,0,0,0,0,-1,769,1114,0,0
-448,-90,0,0,0,0,0,0,0,0,0,-1,776,1114,0,0
-441,-90,0,0,0,0,0,0,0,0,0,-1,783,1114,0,0
-434,-90,0,0,0,0,0,0,0,0,0,-1,790,1114,0,0
-427,-90,0,0,0,0,0,0,0,0,0,-1,797,1114,0,0
-420,-90,0,0,0,0,0,0,0,0,0,-1,804,1114,0,0
-413,-90,0,0,0,0,0,0,0,0,0,-1,811,1114,0,0
-406,-90,0,0,0,0,0,0,0,0,0,-1,818,1114,0,0
-399,-90,0,0,0,0,0,0,0,0,0,-1,825,1114,0,0
-392,-90,0,0,0,0,0,0,0,0,0,-1,832,1114,0,0
-385,-90,0,0,0,0,0,0,0,0,0,-1,839,1114,0,0
-378,-90,0,0,0,0,0,0,0,0,0,-1,846,1114,0,0
-371,-90,0,0,0,0,0,0,0,0,0,-1,853,1114,0,0
-364,-90,0,0,0,0,0,0,0,0,0,-1,860,1114,0,0
-357,-90,0,0,0,0,0,0,0,0,0,-1,867,1114,0,0
-350,-90,0,0,0,0,0,0,0,0,0,-1,874,1114,0,0
-343,-90,0,0,0,0,0,0,0,0,0,-1,881,1114,0,0
-336,-90,0,0,0,0,0,0,0,0,0,-1,888,1114,0,0
-329,-90,0,0,0,0,0,0,0,0,0,-1,895,1114,0,0
-322,-90,0,0,0,0,0,0,0,0,0,-1,902,1114,0,0
-315,-90,0,0,0,0,0,0,0,0,0,-1,909,1114,0,0
-308,-90,0,0,0,0,0,0,0,0,0,-1,916,1114,0,0
-301,-90,0,0,0,0,0,0,0,0,0,-1,923,1114,0,0
-294,-90,0,0,0,0,0,0,0,0,0,-1,930,1114,0,0
-287,-90,0,0,0,0,0,0,0,0,0,-1,937,1114,0,0
-280,-90,0,0,0,0,0,0,0,0,0,-1,944,1114,0,0
-273,-90,0,0,0,0,0,0,0,0,0,-1,951,1114,0,0
-266,-90,0,0,0,0,0,0,0,0,0,-1,958,1114,0,0
-259,-90,0,0,0,0,0,0,0,0,0,-1,965,1114,0,0
-252,-90,0,0,0,0,0,0,0,0,0,-1,972,1114,0,0
-245,-90,0,0,0,0,0,0,0,0,0,-1,979,1114,0,0
-238,-90,0,0,0,0,0,0,0,0,0,-1,986,1114,0,0
-231,-90,0,0,0,0,0,0,0,0,0,-1,993,1114,0,0
-224,-90,0,0,0,0,0,0,0,0,0,-1,1000,1114,0,0
-217,-90,0,0,0,0,0,0,0,0,0,-1,1007,1114,0,0
-210,-90,0,0,0,0,0,0,0,0,0,-1,1014,1114,0,0
-203,-90,0,0,0,0,0,0,0,0,0,-1,1021,1114,0,0
-196,-90,0,0,0,0,0,0,0,0,0,-1,1028,1114,0,0
-189,-90,0,0,0,0,0,0,0,0,0,-1,1035,1114,0,0
-182,-90,0,0,0,0,0,0,0,0,0,-1,1042,1114,0,0
-175,-90,0,0,0,0,0,0,0,0,0,-1,1049,1114,0,0
-168,-90,0,0,0,0,0,0,0,0,0,-1,1056,1114,0,0
-161,-90,0,0,0,0,0,0,0,0,0,-1,1063,1114,0,0
-154,-90,0,0,0,0,0,0,0,0,0,-1,1070,1114,0,0
-147,-90,0,0,0,0,0,0,0,0,0,-1,1077,1114,0,0
-140,-90,0,0,0,0,0,0,0,0,0,-1,1084,1114,0,0
-133,-90,0,0,0,0,0,0,0,0,0,-1,1091,1114,0,0
-126,-90,0,0,0,0,0,0,0,0,0,-1,1098,1114,0,0
-119,-90,0,0,0,0,0,0,0,0,0,-1,1105,1114,0,0
-112,-90,0,0,0,0,0,0,0,0,0,-1,1112,1114,0,0
-105,-90,0,0,0,0,0,0,0,0,0,-1,1119,1114,0,0
-98,-90,0,0,0,0,0,0,0,0,0,-1,1126,1114,0,0
-91,-90,0,0,0,0,0,0,0,0,0,-1,1133,1114,0,0
-84,-90,0,0,0,0,0,0,0,0,0,-1,1140,1114,0,0
-77,-90,0,0,0,0,0,0,0,0,0,-1,1147,1114,0,0
-70,-90,0,0,0,0,0,0,0,0,0,-1,1154,1114,0,0
-63,-90,0,0,0,0,0,0,0,0,0,-1,1161,1114,0,0
-56,-90,0,0,0,0,0,0,0,0,0,-1,1168,1114,0,0
-49,-90,0,0,0,0,0,0,0,0,0,-1,1175,1114,0,0
-42,-90,0,0,0,0,0,0,0,0,0,-1,1182,1114,0,0
-35,-90,0,0,0,0,0,0,0,0,0,-1,1189,1114,0,0
-28,-90,0,0,0,0,0,0,0,0,0,-1,1196,1114,0,0
-21,-90,0,0,0,0,0,0,0,0,0,-1,1203,1114,0,0
-14,-90,0,0,0,0,0,0,0,0,0,-1,1210,1114,0,0
-7,-90,0,0,0,0,0,0,0,0,0,-1,1217,1114,0,0
0,-90,0,0,0,0,0,0,0,0,0,-1,1224,1114,0,0
7,-90,0,0,0,0,0,0,0,0,0,-1,1231,1114,0,0
14,-90,0,0,0,0,0,0,0,0,0,-1,1238,1114,0,0
21,-90,0,0,0,0,0,0,0,0,0,-1,1245,1114,0,0
28,-90,0,0,0,0,0,0,0,0,0,-1,1252,1114,0,0
35,-90,0,0,0,0,0,0,0,0,0,-1,1259,1114,0,0
42,-90,0,0,0,0,0,0,0,0,0,-1,1266,1114,0,0
49,-90,0,0,0,0,0,0,0,0,0,-1,1273,1114,0,0
56,-90,0,0,0,0,0,0,0,0,0,-1,1280,1114,0,0
63,-90,0,0,0,0,0,0,0,0,0,-1,1287,1114,0,0
70,-90,0,0,0,0,0,0,0,0,0,-1,1294,1114,0,0
77,-90,0,0,0,0,0,0,0,0,0,-1,1301,1114,0,0
84,-90,0,0,0,0,0,0,0,0,0,-1,1308,1114,0,0
91,-90,0,0,0,0,0,0,0,0,0,-1,1315,1114,0,0
98,-90,0,0,0,0,0,0,0,0,0,-1,1322,1114,0,0
105,-90,0,0,0,0,0,0,0,0,0,-1,1329,1114,0,0
112,-90,0,0,0,0,0,0,0,0,0,-1,1336,1114,0,0
119,-90,0,0,0,0,0,0,0,0,0,-1,1343,1114,0,0
126,-90,0,0,0,0,0,0,0,0,0,-1,1350,1114,0,0
133,-90,0,0,0,0,0,0,0,0,0,-1,1357,1114,0,0
140,-90,0,0,0,0,0,0,0,0,0,-1,1364,1114,0,0
147,-90,0,0,0,0,0,0,0,0,0,-1,1371,1114,0,0
154,-90,0,0,0,0,0,0,0,0,0,-1,1378,1114,0,0
161,-90,0,0,0,0,0,0,0,0,0,-1,1385,1114,0,0
168,-90,0,0,0,0,0,0,0,0,0,-1,1392,1114,0,0
175,-90,0,0,0,0,0,0,0,0,0,-1,1399,1114,0,0
182,-90,0,0,0,0,0,0,0,0,0,-1,1406,1114,0,0
189,-90,0,0,0,0,0,0,0,0,0,-1,1413,1114,0,0
196,-90,0,0,0,0,0,0,0,0,0,-1,1420,1114,0,0
203,-90,0,0,0,0,0,0,0,0,0,-1,1427,1114,0,0
210,-90,0,0,0,0,0,0,0,0,0,-1,1434,1114,0,0
217,-90,0,0,0,0,0,0,0,0,0,-1,1441,1114,0,0
224,-90,0,0,0,0,0,0,0,0,0,-1,1448,1114,0,0
231,-90,0,0,0,0,0,0,0,0,0,-1,1455,1114,0,0
238,-90,0,0,0,0,0,0,0,0,0,-1,1462,1114,0,0
245,-90,0,0,0,0,0,0,0,0,0,-1,1469,1114,0,0
252,-90,0,0,0,0,0,0,0,0,0,-1,1476,1114,0,0
259,-90,0,0,0,0,0,0,0,0,0,-1,1483,1114,0,0
266,-90,0,0,0,0,0,0,0,0,0,-1,1490,1114,0,0
273,-90,0,0,0,0,0,0,0,0,0,-1,1497,1114,0,0
280,-90,0,0,0,0,0,0,0,0,0,-1,1504,1114,0,0
287,-90,0,0,0,0,0,0,0,0,0,-1,1511,1114,0,0
294,-90,0,0,0,0,0,0,0,0,0,-1,1518,1114,0,0
301,-90,0,0,0,0,0,0,0,0,0,-1,1525,1114,0,0
308,-90,0,0,0,0,0,0,0,0,0,-1,1532,1114,0,0
315,-90,0,0,0,0,0,0,0,0,0,-1,1539,1114,0,0
322,-90,0,0,0,0,0,0,0,0,0,-1,1546,1114,0,0
329,-90,0,0,0,0,0,0,0,0,0,-1,1553,1114,0,0
336,-90,0,0,0,0,0,0,0,0,0,-1,1560,1114,0,0
343,-90,0,0,0,0,0,0,0,0,0,-1,1567,1114,0,0
350,-90,0,0,0,0,0,0,0,0,0,-1,1574,1114,0,0
357,-90,0,0,0,0,0,0,0,0,0,-1,1581,1114,0,0
364,-90,0,0,0,0,0,0,0,0,0,-1,1588,1114,0,0
371,-90,0,0,0,0,0,0,0,0,0,-1,1595,1114,0,0
378,-90,0,0,0,0,0,0,0,0,0,-1,1602,1114,0,0
385,-90,0,0,0,0,0,0,0,0,0,-1,1609,1114,0,0
392,-90,0,0,0,0,0,0,0,0,0,-1,1616,1114,0,0
399,-90,0,0,0,0,0,0,0,0,0,-1,1623,1114,0,0
406,-90,0,0,0,0,0,0,0,0,0,-1,1630,1114,0,0
413,-90,0,0,0,0,0,0,0,0,0,-1,1637,1114,0,0
420,-90,0,0,0,0,0,0,0,0,0,-1,1644,1114,0,0
427,-90,0,0,0,0,0,0,0,0,0,-1,1651,1114,0,0
434,-90,0,0,0,0,0,0,0,0,0,-1,1658,1114,0,0
441,-90,0,0,0,0,0,0,0,0,0,-1,1665,1114,0,0
448,-90,0,0,0,0,0,0,0,0,0,-1,1672,1114,0,0
455,-90,0,0,0,0,0,0,0,0,0,-1,1679,1114,0,0
462,-90,0,0,0,0,0,0,0,0,0,-1,1686,1114,0,0
469,-90,0,0,0,0,0,0,0,0,0,-1,1693,1114,0,0
476,-90,0,0,0,0,0,0,0,0,0,-1,1700,1114,0,0
483,-90,0,0,0,0,0,0,0,0,0,-1,1707,1114,0,0
490,-90,0,0,0,0,0,0,0,0,0,-1,1714,1114,0,0
497,-90,0,0,0,0,0,0,0,0,0,-1,1721,1114,0,0
504,-90,0,0,0,0,0,0,0,0,0,-1,1728,1114,0,0
511,-90,0,0,0,0,0,0,0,0,0,-1,1735,1114,0,0
518,-90,0,0,0,0,0,0,0,0,0,-1,1742,1114,0,0
525,-90,0,0,0,0,0,0,0,0,0,-1,1749,1114,0,0
532,-90,0,0,0,0,0,0,0,0,0,-1,1756,1114,0,0
539,-90,0,0,0,0,0,0,0,0,0,-1,1763,1114,0,0
546,-90,0,0,0,0,0,0,0,0,0,-1,1770,1114,0,0
553,-90,0,0,0,0,0,0,0,0,0,-1,1777,1114,0,0
560,-90,0,0,0,0,0,0,0,0,0,-1,1784,1114,0,0
567,-90,0,0,0,0,0,0,0,0,0,-1,1791,1114,0,0
574,-90,0,0,0,0,0,0,0,0,0,-1,1798,1114,0,0
581,-90,0,0,0,0,0,0,0,0,0,-1,1805,1114,0,0
588,-90,0,0,0,0,0,0,0,0,0,-1,1812,1114,0,0
595,-90,0,0,0,0,0,0,0,0,0,-1,1819,1114,0,0
602,-90,0,0,0,0,0,0,0,0,0,-1,1826,1114,0,0
609,-90,0,0,0,0,0,0,0,0,0,-1,1833,1114,0,0
616,-90,0,0,0,0,0,0,0,0,0,-1,1840,1114,0,0
623,-90,0,0,0,0,0,0,0,0,0,-1,1847,1114,0,0
630,-90,0,0,0,0,0,0,0,0,0,-1,1854,1114,0,0
637,-90,0,0,0,0,0,0,0,0,0,-1,1861,1114,0,0
644,-90,48.2937,2.51233,0.00867127,0.00151114,-0.00268666,0.00956725,0.000615153,-0.321895,0.00618333,0.0356234,1868,1114,48.2937,-2.51232
651,-90,48.3555,2.61865,0.00684793,0.000606162,-0.00252455,0.00774119,-0.00028709,-0.340079,0.0052591,0.0376314,1875,1114,48.3555,-2.61862
658,-90,48.4725,2.77527,0.00542471,-2.74794e-05,-0.00216161,0.00617771,-0.000780486,-0.335208,0.00440176,0.0416861,1882,1114,48.4725,-2.77525
665,-90,48.3685,2.58813,0.00404509,-0.000462672,-0.00168088,0.00460285,-0.00102044,-0.320395,0.00345925,0.0440157,1889,1114,48.3685,-2.58812
672,-90,48.3876,2.32764,0,0,0,0,0,0,0,-1,1896,1114,48.3875,-2.32764
679,-90,48.5258,2.76123,0.00158944,-0.00102168,-0.000607985,0.00172407,-0.0011563,-0.217912,0.00167372,0.0390682,1903,1114,48.5258,-2.76126
686,-90,48.5502,2.70752,0.000708675,-0.00128291,-0.000176269,0.000724156,-0.00129839,-0.0875995,0.0011833,0.0343073,1910,1114,48.5501,-2.70752
693,-90,48.5042,2.66162,0.000214537,-0.00143779,0.000141873,0.00022663,-0.00144988,0.085033,0.00105031,0.0340901,1917,1114,48.5041,-2.66158
700,-90,48.4568,2.66101,-0.000151078,-0.00148874,0.000369899,-5.56057e-05,-0.00158421,0.252592,0.0010381,0.031447,1924,1114,48.4568,-2.661
707,-90,48.4058,2.58105,-0.000524342,-0.00155117,0.00068112,-0.000184809,-0.0018907,0.462441,0.0012036,0.0245717,1931,1114,48.4057,-2.58102
714,-90,48.3604,2.48035,0,0,0,0,0,0,0,-1,1938,1114,48.3603,-2.48034
721,-90,45.5439,7.15222,0,0,0,0,0,0,0,-1,1945,1114,45.5439,-7.15218
728,-90,45.55,6.9198,-0.00167791,-0.000580119,0.00153713,0.00050318,-0.00276121,0.956887,0.00202943,0.0294445,1952,1114,45.55,-6.91975
735,-90,45.3688,6.54602,-0.00203846,-0.000114148,0.00164587,0.00083017,-0.00298278,1.0499,0.00231539,0.033408,1959,1114,45.3687,-6.54598
742,-90,45.4568,6.17737,-0.00224104,0.000851332,0.00162158,0.00154573,-0.00293543,1.1662,0.00262834,0.0287231,1966,1114,45.4567,-6.17741
749,-90,45.6884,5.78247,-0.00210203,0.00212743,0.00130136,0.00249576,-0.00247036,1.29497,0.00286721,0.0194092,1973,1114,45.6884,-5.78251
756,-90,45.6708,5.51758,-0.00218005,0.00382609,0.000743477,0.00391675,-0.00227072,1.44945,0.00361423,0.0173763,1980,1114,45.6708,-5.5176
763,-90,45.6138,5.23157,-0.00198118,0.00629514,-0.000243608,0.0063023,-0.00198835,-1.5414,0.00499794,0.0121197,1987,1114,45.6138,-5.23162
770,-90,45.5464,4.92432,-0.00151488,0.00954273,-0.00191132,0.00986378,-0.00183593,-1.40438,0.00726556,0.015349,1994,1114,45.5464,-4.92437
777,-90,45.4443,4.6875,-0.000556701,0.0134244,-0.00428505,0.0146332,-0.0017655,-1.29584,0.0103941,0.0164738,2001,1114,45.4444,-4.68752
784,-90,45.3093,4.51184,0.000962448,0.0180584,-0.00762887,0.0209677,-0.00194678,-1.20648,0.0146705,0.0307677,2008,1114,45.3094,-4.51186
791,-90,45.1184,4.0885,0.00366025,0.023774,-0.0125383,0.0297904,-0.00235613,-1.12341,0.0206904,0.0435919,2015,1114,45.1185,-4.08848
798,-90,45.2803,3.50305,0.00844269,0.0310631,-0.0197145,0.0424814,-0.00297557,-1.04583,0.0293631,0.0454849,2022,1114,45.2803,-3.50309
805,-90,45.5078,3.02869,0,0,0,0,0,0,0,-1,2029,1114,45.5078,-3.02872
812,-90,44.8286,2.7489,0,0,0,0,0,0,0,-1,2036,1114,44.8286,-2.74895
-700,-97,0,0,0,0,0,0,0,0,0,-1,524,1121,0,0
-693,-97,-31.9463,-0.718506,0,0,0,0,0,0,0,-1,531,1121,-31.9463,0.718558
-686,-97,-31.9082,-0.617188,0,0,0,0,0,0,0,-1,538,1121,-31.9082,0.617204
-679,-97,-30.8696,0.175537,0,0,0,0,0,0,0,-1,545,1121,-30.8696,-0.175517
-672,-97,-30.8419,0.147461,-0.0292451,0.0423129,-0.0283875,0.0522066,-0.0391387,-1.23544,0.0529178,0.0487116,552,1121,-30.8419,-0.147403
-665,-97,-33.8156,-0.449341,-0.0246468,0.0355519,-0.0217432,0.0425839,-0.0316788,-1.258,0.0430294,0.0490239,559,1121,-33.8156,0.449293
-658,-97,-32.779,0.646729,0,0,0,0,0,0,0,-1,566,1121,-32.779,-0.646678
-651,-97,-32.6481,1.23718,-0.0157102,0.0224612,-0.0114723,0.0256438,-0.0188928,-1.30019,0.0258115,0.0313991,573,1121,-32.6482,-1.23722
-644,-97,-32.7052,1.68787,-0.0117304,0.0168321,-0.00780591,0.0188262,-0.0137245,-1.32069,0.01887,0.0118461,580,1121,-32.7052,-1.68784
-637,-97,-32.7399,2.09509,-0.00837821,0.011545,-0.00506742,0.0127598,-0.00959303,-1.33551,0.0129485,0.0121607,587,1121,-32.7399,-2.09515
-630,-97,-32.749,2.4613,-0.00519397,0.00696949,-0.00294183,0.00764363,-0.00586812,-1.34553,0.00782343,0.00940418,594,1121,-32.749,-2.46127
-623,-97,-32.7649,2.82886,-0.00232998,0.00347143,-0.0018818,0.00402837,-0.00288691,-1.28305,0.00401063,0.0108956,601,1121,-32.7649,-2.82884
-616,-97,-32.8124,3.22034,-0.000164953,0.00105329,-0.00108188,0.00168574,-0.000797403,-1.04179,0.0014639,0.0181951,608,1121,-32.8125,-3.22029
-609,-97,-32.8892,3.61621,0.000936633,-0.000583428,-0.000932206,0.00137937,-0.00102617,-0.443397,0.00139382,0.0254986,615,1121,-32.8891,-3.61618
-602,-97,-32.9164,3.92798,0.00121303,-0.000976416,-0.00074844,0.00144442,-0.00120781,-0.299844,0.0015333,0.0239846,622,1121,-32.9164,-3.92794
-595,-97,-32.7602,4.31372,0.00121115,-0.00147747,-0.000565412,0.00132521,-0.00159154,-0.199067,0.00168633,0.0185603,629,1121,-32.7602,-4.31373
-588,-97,-32.7877,4.66516,0,0,0,0,0,0,0,-1,636,1121,-32.7877,-4.66522
-581,-97,-35.5558,1.11877,0,0,0,0,0,0,0,-1,643,1121,-35.5559,-1.11872
-574,-97,-35.938,1.05115,0,0,0,0,0,0,0,-1,650,1121,-35.938,-1.05116
-567,-97,-35.8691,0.796753,0.00189798,-0.0018523,-0.000445692,0.00195022,-0.00190454,-0.116677,0.0022256,0.0351191,657,1121,-35.8692,-0.796766
-560,-97,-35.933,0.872192,0.00198665,-0.00168596,-0.000370698,0.00202369,-0.001723,-0.0995975,0.00216548,0.0390278,664,1121,-35.933,-0.872206
-553,-97,-35.949,0.960327,0.00170161,-0.00135854,-0.000388991,0.00175028,-0.00140721,-0.124478,0.00182656,0.04504,671,1121,-35.949,-0.96037
-546,-97,-35.7973,1.25427,0.00150936,-0.000848546,-0.000416612,0.00158081,-0.000919991,-0.169839,0.00146054,0.0468592,678,1121,-35.7973,-1.25432
-539,-97,-36.0171,0.807617,0.00253196,-0.000429459,-0.000291257,0.00256033,-0.000457832,-0.0971107,0.00187819,0.0426873,685,1121,-36.0171,-0.807566
-532,-97,-35.9714,0.806152,0.00368673,-0.000107033,-0.000256592,0.003704,-0.000124309,-0.0672273,0.0025118,0.0389515,692,1121,-35.9715,-0.806103
-525,-97,0,0,0,0,0,0,0,0,0,-1,699,1121,0,0
-518,-97,0,0,0,0,0,0,0,0,0,-1,706,1121,0,0
-511,-97,0,0,0,0,0,0,0,0,0,-1,713,1121,0,0
-504,-97,0,0,0,0,0,0,0,0,0,-1,720,1121,0,0
-497,-97,0,0,0,0,0,0,0,0,0,-1,727,1121,0,0
-490,-97,0,0,0,0,0,0,0,0,0,-1,734,1121,0,0
-483,-97,0,0,0,0,0,0,0,0,0,-1,741,1121,0,0
-476,-97,0,0,0,0,0,0,0,0,0,-1,748,1121,0,0
-469,-97,0,0,0,0,0,0,0,0,0,-1,755,1121,0,0
-462,-97,0,0,0,0,0,0,0,0,0,-1,762,1121,0,0
-455,-97,0,0,0,0,0,0,0,0,0,-1,769,1121,0,0
-448,-97,0,0,0,0,0,0,0,0,0,-1,776,1121,0,0
-441,-97,0,0,0,0,0,0,0,0,0,-1,783,1121,0,0
-434,-97,0,0,0,0,0,0,0,0,0,-1,790,1121,0,0
-427,-97,0,0,0,0,0,0,0,0,0,-1,797,1121,0,0
-420,-97,0,0,0,0,0,0,0,0,0,-1,804,1121,0,0
-413,-97,0,0,0,0,0,0,0,0,0,-1,811,1121,0,0
-406,-97,0,0,0,0,0,0,0,0,0,-1,818,1121,0,0
-399,-97,0,0,0,0,0,0,0,0,0,-1,825,1121,0,0
-392,-97,0,0,0,0,0,0,0,0,0,-1,832,1121,0,0
-385,-97,0,0,0,0,0,0,0,0,0,-1,839,1121,0,0
-378,-97,0,0,0,0,0,0,0,0,0,-1,846,1121,0,0
-371,-97,0,0,0,0,0,0,0,0,0,-1,853,1121,0,0
-364,-97,0,0,0,0,0,0,0,0,0,-1,860,1121,0,0
-357,-97,0,0,0,0,0,0,0,0,0,-1,867,1121,0,0
-350,-97,0,0,0,0,0,0,0,0,0,-1,874,1121,0,0
-343,-97,0,0,0,0,0,0,0,0,0,-1,881,1121,0,0
-336,-97,0,0,0,0,0,0,0,0,0,-1,888,1121,0,0
-329,-97,0,0,0,0,0,0,0,0,0,-1,895,1121,0,0
-322,-97,0,0,0,0,0,0,0,0,0,-1,902,1121,0,0
-315,-97,0,0,0,0,0,0,0,0,0,-1,909,1121,0,0
-308,-97,0,0,0,0,0,0,0,0,0,-1,916,1121,0,0
-301,-97,0,0,0,0,0,0,0,0,0,-1,923,1121,0,0
-294,-97,0,0,0,0,0,0,0,0,0,-1,930,1121,0,0
-287,-97,0,0,0,0,0,0,0,0,0,-1,937,1121,0,0
-280,-97,0,0,0,0,0,0,0,0,0,-1,944,1121,0,0
-273,-97,0,0,0,0,0,0,0,0,0,-1,951,1121,0,0
-266,-97,0,0,0,0,0,0,0,0,0,-1,958,1121,0,0
-259,-97,0,0,0,0,0,0,0,0,0,-1,965,1121,0,0
-252,-97,0,0,0,0,0,0,0,0,0,-1,972,1121,0,0
-245,-97,0,0,0,0,0,0,0,0,0,-1,979,1121,0,0
-238,-97,0,0,0,0,0,0,0,0,0,-1,986,1121,0,0
-231,-97,0,0,0,0,0,0,0,0,0,-1,993,1121,0,0
-224,-97,0,0,0,0,0,0,0,0,0,-1,1000,1121,0,0
-217,-97,0,0,0,0,0,0,0,0,0,-1,1007,1121,0,0
-210,-97,0,0,0,0,0,0,0,0,0,-1,1014,1121,0,0
-203,-97,0,0,0,0,0,0,0,0,0,-1,1021,1121,0,0
-196,-97,0,0,0,0,0,0,0,0,0,-1,1028,1121,0,0
-189,-97,0,0,0,0,0,0,0,0,0,-1,1035,1121,0,0
-182,-97,0,0,0,0,0,0,0,0,0,-1,1042,1121,0,0
-175,-97,0,0,0,0,0,0,0,0,0,-1,1049,1121,0,0
-168,-97,0,0,0,0,0,0,0,0,0,-1,1056,1121,0,0
-161,-97,0,0,0,0,0,0,0,0,0,-1,1063,1121,0,0
-154,-97,0,0,0,0,0,0,0,0,0,-1,1070,1121,0,0
-147,-97,0,0,0,0,0,0,0,0,0,-1,1077,1121,0,0
-140,-97,0,0,0,0,0,0,0,0,0,-1,1084,1121,0,0
-133,-97,0,0,0,0,0,0,0,0,0,-1,1091,1121,0,0
-126,-97,0,0,0,0,0,0,0,0,0,-1,1098,1121,0,0
-119,-97,0,0,0,0,0,0,0,0,0,-1,1105,1121,0,0
-112,-97,0,0,0,0,0,0,0,0,0,-1,1112,1121,0,0
-105,-97,0,0,0,0,0,0,0,0,0,-1,1119,1121,0,0
-98,-97,0,0,0,0,0,0,0,0,0,-1,1126,1121,0,0
-91,-97,0,0,0,0,0,0,0,0,0,-1,1133,1121,0,0
-84,-97,0,0,0,0,0,0,0,0,0,-1,1140,1121,0,0
-77,-97,0,0,0,0,0,0,0,0,0,-1,1147,1121,0,0
-70,-97,0,0,0,0,0,0,0,0,0,-1,1154,1121,0,0
-63,-97,0,0,0,0,0,0,0,0,0,-1,1161,1121,0,0
-56,-97,0,0,0,0,0,0,0,0,0,-1,1168,1121,0,0
-49,-97,0,0,0,0,0,0,0,0,0,-1,1175,1121,0,0
-42,-97,0,0,0,0,0,0,0,0,0,-1,1182,1121,0,0
-35,-97,0,0,0,0,0,0,0,0,0,-1,1189,1121,0,0
-28,-97,0,0,0,0,0,0,0,0,0,-1,1196,1121,0,0
-21,-97,0,0,0,0,0,0,0,0,0,-1,1203,1121,0,0
-14,-97,0,0,0,0,0,0,0,0,0,-1,1210,1121,0,0
-7,-97,0,0,0,0,0,0,0,0,0,-1,1217,1121,0,0
0,-97,0,0,0,0,0,0,0,0,0,-1,1224,1121,0,0
7,-97,0,0,0,0,0,0,0,0,0,-1,1231,1121,0,0
14,-97,0,0,0,0,0,0,0,0,0,-1,1238,1121,0,0
21,-97,0,0,0,0,0,0,0,0,0,-1,1245,1121,0,0
28,-97,0,0,0,0,0,0,0,0,0,-1,1252,1121,0,0
35,-97,0,0,0,0,0,0,0,0,0,-1,1259,1121,0,0
42,-97,0,0,0,0,0,0,0,0,0,-1,1266,1121,0,0
49,-97,0,0,0,0,0,0,0,0,0,-1,1273,1121,0,0
56,-97,0,0,0,0,0,0,0,0,0,-1,1280,1121,0,0
63,-97,0,0,0,0,0,0,0,0,0,-1,1287,1121,0,0
70,-97,0,0,0,0,0,0,0,0,0,-1,1294,1121,0,0
77,-97,0,0,0,0,0,0,0,0,0,-1,1301,1121,0,0
84,-97,0,0,0,0,0,0,0,0,0,-1,1308,1121,0,0
91,-97,0,0,0,0,0,0,0,0,0,-1,1315,1121,0,0
98,-97,0,0,0,0,0,0,0,0,0,-1,1322,1121,0,0
105,-97,0,0,0,0,0,0,0,0,0,-1,1329,1121,0,0
112,-97,0,0,0,0,0,0,0,0,0,-1,1336,1121,0,0
119,-97,0,0,0,0,0,0,0,0,0,-1,1343,1121,0,0
126,-97,0,0,0,0,0,0,0,0,0,-1,1350,1121,0,0
133,-97,0,0,0,0,0,0,0,0,0,-1,1357,1121,0,0
140,-97,0,0,0,0,0,0,0,0,0,-1,1364,1121,0,0
147,-97,0,0,0,0,0,0,0,0,0,-1,1371,1121,0,0
154,-97,0,0,0,0,0,0,0,0,0,-1,1378,1121,0,0
161,-97,0,0,0,0,0,0,0,0,0,-1,1385,1121,0,0
168,-97,0,0,0,0,0,0,0,0,0,-1,1392,1121,0,0
175,-97,0,0,0,0,0,0,0,0,0,-1,1399,1121,0,0
182,-97,0,0,0,0,0,0,0,0,0,-1,1406,1121,0,0
189,-97,0,0,0,0,0,0,0,0,0,-1,1413,1121,0,0
196,-97,0,0,0,0,0,0,0,0,0,-1,1420,1121,0,0
203,-97,0,0,0,0,0,0,0,0,0,-1,1427,1121,0,0
210,-97,0,0,0,0,0,0,0,0,0,-1,1434,1121,0,0
217,-97,0,0,0,0,0,0,0,0,0,-1,1441,1121,0,0
224,-97,0,0,0,0,0,0,0,0,0,-1,1448,1121,0,0
231,-97,0,0,0,0,0,0,0,0,0,-1,1455,1121,0,0
238,-97,0,0,0,0,0,0,0,0,0,-1,1462,1121,0,0
245,-97,0,0,0,0,0,0,0,0,0,-1,1469,1121,0,0
252,-97,0,0,0,0,0,0,0,0,0,-1,1476,1121,0,0
259,-97,0,0,0,0,0,0,0,0,0,-1,1483,1121,0,0
266,-97,0,0,0,0,0,0,0,0,0,-1,1490,1121,0,0
273,-97,0,0,0,0,0,0,0,0,0,-1,1497,1121,0,0
280,-97,0,0,0,0,0,0,0,0,0,-1,1504,1121,0,0
287,-97,0,0,0,0,0,0,0,0,0,-1,1511,1121,0,0
294,-97,0,0,0,0,0,0,0,0,0,-1,1518,1121,0,0
301,-97,0,0,0,0,0,0,0,0,0,-1,1525,1121,0,0
308,-97,0,0,0,0,0,0,0,0,0,-1,1532,1121,0,0
315,-97,0,0,0,0,0,0,0,0,0,-1,1539,1121,0,0
322,-97,0,0,0,0,0,0,0,0,0,-1,1546,1121,0,0
329,-97,0,0,0,0,0,0,0,0,0,-1,1553,1121,0,0
336,-97,0,0,0,0,0,0,0,0,0,-1,1560,1121,0,0
343,-97,0,0,0,0,0,0,0,0,0,-1,1567,1121,0,0
350,-97,0,0,0,0,0,0,0,0,0,-1,1574,1121,0,0
357,-97,0,0,0,0,0,0,0,0,0,-1,1581,1121,0,0
364,-97,0,0,0,0,0,0,0,0,0,-1,1588,1121,0,0
371,-97,0,0,0,0,0,0,0,0,0,-1,1595,1121,0,0
378,-97,0,0,0,0,0,0,0,0,0,-1,1602,1121,0,0
385,-97,0,0,0,0,0,0,0,0,0,-1,1609,1121,0,0
392,-97,0,0,0,0,0,0,0,0,0,-1,1616,1121,0,0
399,-97,0,0,0,0,0,0,0,0,0,-1,1623,1121,0,0
406,-97,0,0,0,0,0,0,0,0,0,-1,1630,1121,0,0
413,-97,0,0,0,0,0,0,0,0,0,-1,1637,1121,0,0
420,-97,0,0,0,0,0,0,0,0,0,-1,1644,1121,0,0
427,-97,0,0,0,0,0,0,0,0,0,-1,1651,1121,0,0
434,-97,0,0,0,0,0,0,0,0,0,-1,1658,1121,0,0
441,-97,0,0,0,0,0,0,0,0,0,-1,1665,1121,0,0
448,-97,0,0,0,0,0,0,0,0,0,-1,1672,1121,0,0
455,-97,0,0,0,0,0,0,0,0,0,-1,1679,1121,0,0
462,-97,0,0,0,0,0,0,0,0,0,-1,1686,1121,0,0
469,-97,0,0,0,0,0,0,0,0,0,-1,1693,1121,0,0
476,-97,0,0,0,0,0,0,0,0,0,-1,1700,1121,0,0
483,-97,0,0,0,0,0,0,0,0,0,-1,1707,1121,0,0
490,-97,0,0,0,0,0,0,0,0,0,-1,1714,1121,0,0
497,-97,0,0,0,0,0,0,0,0,0,-1,1721,1121,0,0
504,-97,0,0,0,0,0,0,0,0,0,-1,1728,1121,0,0
511,-97,0,0,0,0,0,0,0,0,0,-1,1735,1121,0,0
518,-97,0,0,0,0,0,0,0,0,0,-1,1742,1121,0,0
525,-97,0,0,0,0,0,0,0,0,0,-1,1749,1121,0,0
532,-97,0,0,0,0,0,0,0,0,0,-1,1756,1121,0,0
539,-97,0,0,0,0,0,0,0,0,0,-1,1763,1121,0,0
546,-97,0,0,0,0,0,0,0,0,0,-1,1770,1121,0,0
553,-97,0,0,0,0,0,0,0,0,0,-1,1777,1121,0,0
560,-97,0,0,0,0,0,0,0,0,0,-1,1784,1121,0,0
567,-97,0,0,0,0,0,0,0,0,0,-1,1791,1121,0,0
574,-97,0,0,0,0,0,0,0,0,0,-1,1798,1121,0,0
581,-97,0,0,0,0,0,0,0,0,0,-1,1805,1121,0,0
588,-97,0,0,0,0,0,0,0,0,0,-1,1812,1121,0,0
595,-97,0,0,0,0,0,0,0,0,0,-1,1819,1121,0,0
602,-97,0,0,0,0,0,0,0,0,0,-1,1826,1121,0,0
609,-97,0,0,0,0,0,0,0,0,0,-1,1833,1121,0,0
616,-97,0,0,0,0,0,0,0,0,0,-1,1840,1121,0,0
623,-97,0,0,0,0,0,0,0,0,0,-1,1847,1121,0,0
630,-97,0,0,0,0,0,0,0,0,0,-1,1854,1121,0,0
637,-97,0,0,0,0,0,0,0,0,0,-1,1861,1121,0,0
644,-97,48.3409,2.53345,0.00804944,0.00145832,-0.00265058,0.0089831,0.000524663,-0.338675,0.00582173,0.0377936,1868,1121,48.341,-2.53341
651,-97,48.3647,2.69739,0.00626462,0.000697508,-0.00232876,0.00711029,-0.000148165,-0.348335,0.00479035,0.0369799,1875,1121,48.3648,-2.69743
658,-97,48.3711,2.74097,0.00491846,0.000128185,-0.00191497,0.00558988,-0.000543236,-0.337225,0.00392023,0.0394826,1882,1121,48.3711,-2.74095
665,-97,48.464,2.52539,0.00360495,-0.000278481,-0.00142372,0.00407098,-0.00074451,-0.316339,0.00299318,0.042546,1889,1121,48.464,-2.5254
672,-97,48.5444,2.4342,0.00244156,-0.000596685,-0.000896729,0.00268648,-0.000841608,-0.266626,0.00212775,0.0438583,1896,1121,48.5445,-2.43419
679,-97,48.5492,2.755,0.00131977,-0.000896177,-0.000432931,0.00140135,-0.000977756,-0.186249,0.00138082,0.0412954,1903,1121,48.5492,-2.75495
686,-97,48.4469,2.79871,0.000563656,-0.00117511,-8.38447e-05,0.000567689,-0.00117915,-0.0480721,0.00102892,0.0367243,1910,1121,48.4469,-2.79875
693,-97,48.4467,2.61707,0.000180956,-0.00134809,0.000151896,0.0001959,-0.00136303,0.0980638,0.000980532,0.0344393,1917,1121,48.4466,-2.61704
700,-97,48.4371,2.60571,-0.000120053,-0.00143027,0.000334524,-3.95844e-05,-0.00151074,0.236061,0.000994229,0.0278153,1924,1121,48.4371,-2.60571
707,-97,48.3951,2.60889,-0.000451415,-0.00151854,0.00060441,-0.000178752,-0.00179121,0.423787,0.00113924,0.0243053,1931,1121,48.3951,-2.60888
714,-97,48.3303,2.53406,0,0,0,0,0,0,0,-1,1938,1121,48.3303,-2.53402
721,-97,45.2959,7.12537,0,0,0,0,0,0,0,-1,1945,1121,45.2959,-7.12536
728,-97,45.2831,6.89319,-0.00148343,-0.000685649,0.00137354,0.00034575,-0.00251483,0.926717,0.00180289,0.0257641,1952,1121,45.2831,-6.8932
735,-97,45.223,6.4939,-0.00181392,-0.000288768,0.00148796,0.000620642,-0.00272333,1.0222,0.00205393,0.0256138,1959,1121,45.223,-6.49394
742,-97,45.21,6.16309,-0.00200571,0.00057542,0.00150754,0.00126935,-0.00269964,1.1394,0.00234057,0.0207947,1966,1121,45.21,-6.16312
749,-97,45.2953,5.81323,-0.0019246,0.00179116,0.00120716,0.0021489,-0.00228233,1.2827,0.00255876,0.022794,1973,1121,45.2953,-5.81321
756,-97,45.3003,5.49146,-0.00207746,0.00349617,0.000503466,0.00354128,-0.00212257,1.48143,0.00330405,0.0168254,1980,1121,45.3002,-5.4914
763,-97,45.2432,5.22205,-0.00192257,0.00591513,-0.000676706,0.00597313,-0.00198056,-1.4853,0.00478103,0.011666,1987,1121,45.2432,-5.22207
770,-97,45.1874,4.95776,-0.00151258,0.00904612,-0.00267026,0.009683,-0.00214947,-1.33666,0.0072784,0.0110422,1994,1121,45.1874,-4.95776
777,-97,45.1576,4.65955,-0.000617885,0.0127969,-0.00555743,0.0148001,-0.00262107,-1.22484,0.0108465,0.0160037,2001,1121,45.1576,-4.65952
784,-97,45.0732,4.22327,0.00088268,0.0173553,-0.00973232,0.0218687,-0.00363071,-1.13656,0.0159279,0.035997,2008,1121,45.0732,-4.22323
791,-97,45.1423,3.62317,0.00358579,0.0230918,-0.0159627,0.0320452,-0.00536761,-1.05963,0.0233591,0.0421435,2015,1121,45.1423,-3.62322
798,-97,45.2686,3.06274,0.00835788,0.0305018,-0.0251521,0.046911,-0.00805136,-0.992735,0.0342745,0.0439501,2022,1121,45.2686,-3.06278
805,-97,45.4021,2.55383,0,0,0,0,0,0,0,-1,2029,1121,45.4021,-2.5538
812,-97,45.478,2.03821,0,0,0,0,0,0,0,-1,2036,1121,45.478,-2.03824
-700,-104,0,0,0,0,0,0,0,0,0,-1,524,1128,0,0
-693,-104,-31.6149,-1.25684,0,0,0,0,0,0,0,-1,531,1128,-31.6149,1.25678
-686,-104,-25.3441,-7.01746,0,0,0,0,0,0,0,-1,538,1128,-25.344,7.01751
-679,-104,-24.0389,-7.48706,0,0,0,0,0,0,0,-1,545,1128,-24.0389,7.48706
-672,-104,-29.5861,0.0661621,0,0,0,0,0,0,0,-1,552,1128,-29.5861,-0.0662058
-665,-104,-34.1319,-1.23657,0,0,0,0,0,0,0,-1,559,1128,-34.1319,1.23659
-658,-104,-32.3004,0.799438,0,0,0,0,0,0,0,-1,566,1128,-32.3004,-0.799472
-651,-104,-32.2614,1.26697,-0.0166247,0.0209737,-0.0116852,0.0243094,-0.0199604,-1.29273,0.0256003,0.0387353,573,1128,-32.2614,-1.26698
-644,-104,-32.3138,1.67419,-0.0124152,0.0155779,-0.00804687,0.0177262,-0.0145635,-1.30991,0.0186723,0.0154867,580,1128,-32.3138,-1.67423
-637,-104,-32.3339,2.07141,-0.00878521,0.0105758,-0.0052656,0.0119152,-0.0101246,-1.32171,0.0127387,0.0114172,587,1128,-32.3339,-2.07141
-630,-104,-32.347,2.41223,-0.00537395,0.00640064,-0.00298836,0.00711565,-0.00608896,-1.33594,0.00763137,0.0147374,594,1128,-32.3471,-2.41218
-623,-104,-32.3832,2.82336,-0.00223701,0.00302682,-0.00173949,0.00354971,-0.0027599,-1.27879,0.00365236,0.0157891,601,1128,-32.3832,-2.82334
-616,-104,-32.5995,3.28088,-6.97045e-05,0.000696202,-0.000916339,0.00130639,-0.000679893,-0.983326,0.00116564,0.0214491,608,1128,-32.5995,-3.28084
-609,-104,-32.7153,3.53052,0.000890529,-0.000671771,-0.000816827,0.0012396,-0.00102084,-0.40386,0.0013071,0.028428,615,1128,-32.7153,-3.53053
-602,-104,-32.538,3.94531,0.0011578,-0.000839729,-0.000677559,0.00136594,-0.00104787,-0.29804,0.00139764,0.0253442,622,1128,-32.538,-3.9453
-595,-104,-32.3498,4.41382,0.00105531,-0.00136101,-0.000508999,0.00115816,-0.00146386,-0.199366,0.00151725,0.0175873,629,1128,-32.3498,-4.41382
-588,-104,-32.2677,4.896,0,0,0,0,0,0,0,-1,636,1128,-32.2677,-4.89604
-581,-104,-23.9373,2.85864,0,0,0,0,0,0,0,-1,643,1128,-23.9373,-2.85861
-574,-104,-35.9045,1.06848,0,0,0,0,0,0,0,-1,650,1128,-35.9045,-1.06851
-567,-104,-35.8252,0.760254,0.00164125,-0.00140725,-0.000427514,0.00170006,-0.00146607,-0.136725,0.00182963,0.0356706,657,1128,-35.8252,-0.760282
-560,-104,-35.9564,0.716064,0.00178537,-0.00121599,-0.000339362,0.00182327,-0.00125389,-0.111199,0.0017867,0.0417068,664,1128,-35.9564,-0.716032
-553,-104,-36.0465,0.705078,0.00145906,-0.000852762,-0.00039733,0.00152544,-0.000919144,-0.165543,0.00142578,0.0469099,671,1128,-36.0465,-0.705038
-546,-104,-35.9595,0.835815,0.00110844,-0.000284046,-0.00051833,0.0012802,-0.000455801,-0.319975,0.00103927,0.0464549,678,1128,-35.9595,-0.835788
-539,-104,-35.9135,0.893433,0.0018596,0.000228082,-0.000505698,0.00200363,8.40531e-05,-0.277466,0.00130863,0.0410696,685,1128,-35.9135,-0.893461
-532,-104,-35.8226,0.889893,0.00285017,0.000594803,-0.000574915,0.00298826,0.000456707,-0.235736,0.00185874,0.0394262,692,1128,-35.8226,-0.889922
-525,-104,-35.9297,0.812866,0.00365241,0.000872067,-0.000797189,0.00386477,0.000659713,-0.260333,0.00238719,0.0368377,699,1128,-35.9298,-0.812867
-518,-104,0,0,0,0,0,0,0,0,0,-1,706,1128,0,0
-511,-104,0,0,0,0,0,0,0,0,0,-1,713,1128,0,0
-504,-104,0,0,0,0,0,0,0,0,0,-1,720,1128,0,0
-497,-104,0,0,0,0,0,0,0,0,0,-1,727,1128,0,0
-490,-104,0,0,0,0,0,0,0,0,0,-1,734,1128,0,0
-483,-104,0,0,0,0,0,0,0,0,0,-1,741,1128,0,0
-476,-104,0,0,0,0,0,0,0,0,0,-1,748,1128,0,0
-469,-104,0,0,0,0,0,0,0,0,0,-1,755,1128,0,0
-462,-104,0,0,0,0,0,0,0,0,0,-1,762,1128,0,0
-455,-104,0,0,0,0,0,0,0,0,0,-1,769,1128,0,0
-448,-104,0,0,0,0,0,0,0,0,0,-1,776,1128,0,0
-441,-104,0,0,0,0,0,0,0,0,0,-1,783,1128,0,0
-434,-104,0,0,0,0,0,0,0,0,0,-1,790,1128,0,0
-427,-104,0,0,0,0,0,0,0,0,0,-1,797,1128,0,0
-420,-104,0,0,0,0,0,0,0,0,0,-1,804,1128,0,0
-413,-104,0,0,0,0,0,0,0,0,0,-1,811,1128,0,0
-406,-104,0,0,0,0,0,0,0,0,0,-1,818,1128,0,0
-399,-104,0,0,0,0,0,0,0,0,0,-1,825,1128,0,0
-392,-104,0,0,0,0,0,0,0,0,0,-1,832,1128,0,0
-385,-104,0,0,0,0,0,0,0,0,0,-1,839,1128,0,0
-378,-104,0,0,0,0,0,0,0,0,0,-1,846,1128,0,0
-371,-104,0,0,0,0,0,0,0,0,0,-1,853,1128,0,0
-364,-104,0,0,0,0,0,0,0,0,0,-1,860,1128,0,0
-357,-104,0,0,0,0,0,0,0,0,0,-1,867,1128,0,0
-350,-104,0,0,0,0,0,0,0,0,0,-1,874,1128,0,0
-343,-104,0,0,0,0,0,0,0,0,0,-1,881,1128,0,0
-336,-104,0,0,0,0,0,0,0,0,0,-1,888,1128,0,0
-329,-104,0,0,0,0,0,0,0,0,0,-1,895,1128,0,0
-322,-104,0,0,0,0,0,0,0,0,0,-1,902,1128,0,0
-315,-104,0,0,0,0,0,0,0,0,0,-1,909,1128,0,0
-308,-104,0,0,0,0,0,0,0,0,0,-1,916,1128,0,0
-301,-104,0,0,0,0,0,0,0,0,0,-1,923,1128,0,0
-294,-104,0,0,0,0,0,0,0,0,0,-1,930,1128,0,0
-287,-104,0,0,0,0,0,0,0,0,0,-1,937,1128,0,0
-280,-104,0,0,0,0,0,0,0,0,0,-1,944,1128,0,0
-273,-104,0,0,0,0,0,0,0,0,0,-1,951,1128,0,0
-266,-104,0,0,0,0,0,0,0,0,0,-1,958,1128,0,0
-259,-104,0,0,0,0,0,0,0,0,0,-1,965,1128,0,0
-252,-104,0,0,0,0,0,0,0,0,0,-1,972,1128,0,0
-245,-104,0,0,0,0,0,0,0,0,0,-1,979,1128,0,0
-238,-104,0,0,0,0,0,0,0,0,0,-1,986,1128,0,0
-231,-104,0,0,0,0,0,0,0,0,0,-1,993,1128,0,0
-224,-104,0,0,0,0,0,0,0,0,0,-1,1000,1128,0,0
-217,-104,0,0,0,0,0,0,0,0,0,-1,1007,1128,0,0
-210,-104,0,0,0,0,0,0,0,0,0,-1,1014,1128,0,0
-203,-104,0,0,0,0,0,0,0,0,0,-1,1021,1128,0,0
-196,-104,0,0,0,0,0,0,0,0,0,-1,1028,1128,0,0
-189,-104,0,0,0,0,0,0,0,0,0,-1,1035,1128,0,0
-182,-104,0,0,0,0,0,0,0,0,0,-1,1042,1128,0,0
-175,-104,0,0,0,0,0,0,0,0,0,-1,1049,1128,0,0
-168,-104,0,0,0,0,0,0,0,0,0,-1,1056,1128,0,0
-161,-104,0,0,0,0,0,0,0,0,0,-1,1063,1128,0,0
-154,-104,0,0,0,0,0,0,0,0,0,-1,1070,1128,0,0
-147,-104,0,0,0,0,0,0,0,0,0,-1,1077,1128,0,0
-140,-104,0,0,0,0,0,0,0,0,0,-1,1084,1128,0,0
-133,-104,0,0,0,0,0,0,0,0,0,-1,1091,1128,0,0
-126,-104,0,0,0,0,0,0,0,0,0,-1,1098,1128,0,0
-119,-104,0,0,0,0,0,0,0,0,0,-1,1105,1128,0,0
-112,-104,0,0,0,0,0,0,0,0,0,-1,1112,1128,0,0
-105,-104,0,0,0,0,0,0,0,0,0,-1,1119,1128,0,0
-98,-104,0,0,0,0,0,0,0,0,0,-1,1126,1128,0,0
-91,-104,0,0,0,0,0,0,0,0,0,-1,1133,1128,0,0
-84,-104,0,0,0,0,0,0,0,0,0,-1,1140,1128,0,0
-77,-104,0,0,0,0,0,0,0,0,0,-1,1147,1128,0,0
-70,-104,0,0,0,0,0,0,0,0,0,-1,1154,1128,0,0
-63,-104,0,0,0,0,0,0,0,0,0,-1,1161,1128,0,0
-56,-104,0,0,0,0,0,0,0,0,0,-1,1168,1128,0,0
-49,-104,0,0,0,0,0,0,0,0,0,-1,1175,1128,0,0
-42,-104,0,0,0,0,0,0,0,0,0,-1,1182,1128,0,0
-35,-104,0,0,0,0,0,0,0,0,0,-1,1189,1128,0,0
-28,-104,0,0,0,0,0,0,0,0,0,-1,1196,1128,0,0
-21,-104,0,0,0,0,0,0,0,0,0,-1,1203,1128,0,0
-14,-104,0,0,0,0,0,0,0,0,0,-1,1210,1128,0,0
-7,-104,0,0,0,0,0,0,0,0,0,-1,1217,1128,0,0
0,-104,0,0,0,0,0,0,0,0,0,-1,1224,1128,0,0
7,-104,0,0,0,0,0,0,0,0,0,-1,1231,1128,0,0
14,-104,0,0,0,0,0,0,0,0,0,-1,1238,1128,0,0
21,-104,0,0,0,0,0,0,0,0,0,-1,1245,1128,0,0
28,-104,0,0,0,0,0,0,0,0,0,-1,1252,1128,0,0
35,-104,0,0,0,0,0,0,0,0,0,-1,1259,1128,0,0
42,-104,0,0,0,0,0,0,0,0,0,-1,1266,1128,0,0
49,-104,0,0,0,0,0,0,0,0,0,-1,1273,1128,0,0
56,-104,0,0,0,0,0,0,0,0,0,-1,1280,1128,0,0
63,-104,0,0,0,0,0,0,0,0,0,-1,1287,1128,0,0
70,-104,0,0,0,0,0,0,0,0,0,-1,1294,1128,0,0
77,-104,0,0,0,0,0,0,0,0,0,-1,1301,1128,0,0
84,-104,0,0,0,0,0,0,0,0,0,-1,1308,1128,0,0
91,-104,0,0,0,0,0,0,0,0,0,-1,1315,1128,0,0
98,-104,0,0,0,0,0,0,0,0,0,-1,1322,1128,0,0
105,-104,0,0,0,0,0,0,0,0,0,-1,1329,1128,0,0
112,-104,0,0,0,0,0,0,0,0,0,-1,1336,1128,0,0
119,-104,0,0,0,0,0,0,0,0,0,-1,1343,1128,0,0
126,-104,0,0,0,0,0,0,0,0,0,-1,1350,1128,0,0
133,-104,0,0,0,0,0,0,0,0,0,-1,1357,1128,0,0
140,-104,0,0,0,0,0,0,0,0,0,-1,1364,1128,0,0
147,-104,0,0,0,0,0,0,0,0,0,-1,1371,1128,0,0
154,-104,0,0,0,0,0,0,0,0,0,-1,1378,1128,0,0
161,-104,0,0,0,0,0,0,0,0,0,-1,1385,1128,0,0
168,-104,0,0,0,0,0,0,0,0,0,-1,1392,1128,0,0
175,-104,0,0,0,0,0,0,0,0,0,-1,1399,1128,0,0
182,-104,0,0,0,0,0,0,0,0,0,-1,1406,1128,0,0
189,-104,0,0,0,0,0,0,0,0,0,-1,1413,1128,0,0
196,-104,0,0,0,0,0,0,0,0,0,-1,1420,1128,0,0
203,-104,0,0,0,0,0,0,0,0,0,-1,1427,1128,0,0
210,-104,0,0,0,0,0,0,0,0,0,-1,1434,1128,0,0
217,-104,0,0,0,0,0,0,0,0,0,-1,1441,1128,0,0
224,-104,0,0,0,0,0,0,0,0,0,-1,1448,1128,0,0
231,-104,0,0,0,0,0,0,0,0,0,-1,1455,1128,0,0
238,-104,0,0,0,0,0,0,0,0,0,-1,1462,1128,0,0
245,-104,0,0,0,0,0,0,0,0,0,-1,1469,1128,0,0
252,-104,0,0,0,0,0,0,0,0,0,-1,1476,1128,0,0
259,-104,0,0,0,0,0,0,0,0,0,-1,1483,1128,0,0
266,-104,0,0,0,0,0,0,0,0,0,-1,1490,1128,0,0
273,-104,0,0,0,0,0,0,0,0,0,-1,1497,1128,0,0
280,-104,0,0,0,0,0,0,0,0,0,-1,1504,1128,0,0
287,-104,0,0,0,0,0,0,0,0,0,-1,1511,1128,0,0
294,-104,0,0,0,0,0,0,0,0,0,-1,1518,1128,0,0
301,-104,0,0,0,0,0,0,0,0,0,-1,1525,1128,0,0
308,-104,0,0,0,0,0,0,0,0,0,-1,1532,1128,0,0
315,-104,0,0,0,0,0,0,0,0,0,-1,1539,1128,0,0
322,-104,0,0,0,0,0,0,0,0,0,-1,1546,1128,0,0
329,-104,0,0,0,0,0,0,0,0,0,-1,1553,1128,0,0
336,-104,0,0,0,0,0,0,0,0,0,-1,1560,1128,0,0
343,-104,0,0,0,0,0,0,0,0,0,-1,1567,1128,0,0
350,-104,0,0,0,0,0,0,0,0,0,-1,1574,1128,0,0
357,-104,0,0,0,0,0,0,0,0,0,-1,1581,1128,0,0
364,-104,0,0,0,0,0,0,0,0,0,-1,1588,1128,0,0
371,-104,0,0,0,0,0,0,0,0,0,-1,1595,1128,0,0
378,-104,0,0,0,0,0,0,0,0,0,-1,1602,1128,0,0
385,-104,0,0,0,0,0,0,0,0,0,-1,1609,1128,0,0
392,-104,0,0,0,0,0,0,0,0,0,-1,1616,1128,0,0
399,-104,0,0,0,0,0,0,0,0,0,-1,1623,1128,0,0
406,-104,0,0,0,0,0,0,0,0,0,-1,1630,1128,0,0
413,-104,0,0,0,0,0,0,0,0,0,-1,1637,1128,0,0
420,-104,0,0,0,0,0,0,0,0,0,-1,1644,1128,0,0
427,-104,0,0,0,0,0,0,0,0,0,-1,1651,1128,0,0
434,-104,0,0,0,0,0,0,0,0,0,-1,1658,1128,0,0
441,-104,0,0,0,0,0,0,0,0,0,-1,1665,1128,0,0
448,-104,0,0,0,0,0,0,0,0,0,-1,1672,1128,0,0
455,-104,0,0,0,0,0,0,0,0,0,-1,1679,1128,0,0
462,-104,0,0,0,0,0,0,0,0,0,-1,1686,1128,0,0
469,-104,0,0,0,0,0,0,0,0,0,-1,1693,1128,0,0
476,-104,0,0,0,0,0,0,0,0,0,-1,1700,1128,0,0
483,-104,0,0,0,0,0,0,0,0,0,-1,1707,1128,0,0
490,-104,0,0,0,0,0,0,0,0,0,-1,1714,1128,0,0
497,-104,0,0,0,0,0,0,0,0,0,-1,1721,1128,0,0
504,-104,0,0,0,0,0,0,0,0,0,-1,1728,1128,0,0
511,-104,0,0,0,0,0,0,0,0,0,-1,1735,1128,0,0
518,-104,0,0,0,0,0,0,0,0,0,-1,1742,1128,0,0
525,-104,0,0,0,0,0,0,0,0,0,-1,1749,1128,0,0
532,-104,0,0,0,0,0,0,0,0,0,-1,1756,1128,0,0
539,-104,0,0,0,0,0,0,0,0,0,-1,1763,1128,0,0
546,-104,0,0,0,0,0,0,0,0,0,-1,1770,1128,0,0
553,-104,0,0,0,0,0,0,0,0,0,-1,1777,1128,0,0
560,-104,0,0,0,0,0,0,0,0,0,-1,1784,1128,0,0
567,-104,0,0,0,0,0,0,0,0,0,-1,1791,1128,0,0
574,-104,0,0,0,0,0,0,0,0,0,-1,1798,1128,0,0
581,-104,0,0,0,0,0,0,0,0,0,-1,1805,1128,0,0
588,-104,0,0,0,0,0,0,0,0,0,-1,1812,1128,0,0
595,-104,0,0,0,0,0,0,0,0,0,-1,1819,1128,0,0
602,-104,0,0,0,0,0,0,0,0,0,-1,1826,1128,0,0
609,-104,0,0,0,0,0,0,0,0,0,-1,1833,1128,0,0
616,-104,0,0,0,0,0,0,0,0,0,-1,1840,1128,0,0
623,-104,0,0,0,0,0,0,0,0,0,-1,1847,1128,0,0
630,-104,0,0,0,0,0,0,0,0,0,-1,1854,1128,0,0
637,-104,0,0,0,0,0,0,0,0,0,-1,1861,1128,0,0
644,-104,48.3021,2.7572,0.00694072,0.00168525,-0.00209852,0.00767584,0.000950131,-0.336944,0.00483176,0.0386982,1868,1128,48.3021,-2.75722
651,-104,48.4059,2.88098,0.00533554,0.000986922,-0.00173568,0.00594336,0.000379108,-0.336842,0.00384211,0.0373407,1875,1128,48.4058,-2.88097
658,-104,48.4695,2.67993,0.00415862,0.000429906,-0.00136982,0.00460775,-1.9226e-05,-0.316832,0.00307826,0.0398266,1882,1128,48.4695,-2.67994
665,-104,48.6245,2.52344,0.00300181,-6.32353e-08,-0.000970771,0.00328839,-0.000286641,-0.287053,0.00229378,0.0429708,1889,1128,48.6245,-2.52349
672,-104,48.7178,2.58728,0.00199895,-0.000371597,-0.000569444,0.00212864,-0.000501291,-0.223936,0.00161238,0.0434549,1896,1128,48.7178,-2.58729
679,-104,48.5352,2.64478,0.00102412,-0.00071639,-0.000225613,0.00105289,-0.000745159,-0.126832,0.00104316,0.0402393,1903,1128,48.5352,-2.64473
686,-104,48.3276,2.76587,0.000422516,-0.00100797,1.03234e-05,0.000422591,-0.00100804,0.00721621,0.000848716,0.0387097,1910,1128,48.3277,-2.76583
693,-104,48.3257,2.64392,0.000155859,-0.00118019,0.000160513,0.000174872,-0.0011992,0.117906,0.000863679,0.0351776,1917,1128,48.3257,-2.64395
700,-104,48.4131,2.59558,-7.56781e-05,-0.00128333,0.000307795,-1.7549e-06,-0.00135725,0.235706,0.00090425,0.027409,1924,1128,48.413,-2.59554
707,-104,48.4054,2.58777,0,0,0,0,0,0,0,-1,1931,1128,48.4054,-2.58772
714,-104,45.5221,2.32166,0,0,0,0,0,0,0,-1,1938,1128,45.5221,-2.3216
721,-104,44.8959,7.24475,0,0,0,0,0,0,0,-1,1945,1128,44.8959,-7.24478
728,-104,45.0095,6.81653,-0.00128534,-0.000689358,0.00122777,0.000276065,-0.00225076,0.90445,0.00160048,0.024282,1952,1128,45.0095,-6.81652
735,-104,45.0276,6.44702,-0.00160649,-0.000345338,0.00137624,0.000537908,-0.00248973,1.00022,0.00186516,0.0280601,1959,1128,45.0275,-6.44699
742,-104,44.9285,6.14185,-0.00182885,0.000423905,0.00150356,0.00117621,-0.00258115,1.10687,0.00221928,0.0195459,1966,1128,44.9285,-6.14179
749,-104,44.8933,5.82715,-0.00187489,0.0015853,0.00133126,0.0020382,-0.00232779,1.24287,0.00252256,0.0206579,1973,1128,44.8933,-5.8271
756,-104,44.8933,5.49182,-0.00216993,0.00331767,0.000627125,0.00338843,-0.00224068,1.45845,0.00327241,0.0166126,1980,1128,44.8933,-5.49182
763,-104,44.8748,5.20325,-0.0021656,0.00573159,-0.000542777,0.00576872,-0.00220273,-1.50249,0.00475334,0.0154256,1987,1128,44.8748,-5.2032
770,-104,44.8252,4.94653,-0.00195595,0.00880494,-0.00252692,0.00936878,-0.00251979,-1.35126,0.00723359,0.0140328,1994,1128,44.8252,-4.94654
777,-104,44.7649,4.60107,-0.00130375,0.0124902,-0.00544547,0.0143808,-0.00319435,-1.23663,0.0108104,0.0214029,2001,1128,44.7648,-4.60106
784,-104,44.7058,4.05994,-6.65126e-05,0.0170171,-0.00975174,0.0214391,-0.00448846,-1.14508,0.0160001,0.0379489,2008,1128,44.7057,-4.05998
791,-104,44.7129,3.52734,0.00231605,0.0227769,-0.0162391,0.0317395,-0.00664649,-1.06649,0.023688,0.0430291,2015,1128,44.7129,-3.52735
798,-104,45.3892,2.61975,0.00663544,0.0302419,-0.025832,0.0468396,-0.00996222,-0.999696,0.0350226,0.0476341,2022,1128,45.3891,-2.6197
805,-104,45.5413,2.14075,0,0,0,0,0,0,0,-1,2029,1128,45.5413,-2.14073
812,-104,46.2515,3.22192,0,0,0,0,0,0,0,-1,2036,1128,46.2514,-3.22198
-700,-111,0,0,0,0,0,0,0,0,0,-1,524,1135,0,0
-693,-111,-25.4094,-7.9718,0,0,0,0,0,0,0,-1,531,1135,-25.4094,7.97186
-686,-111,-24.2197,-8.29053,0,0,0,0,0,0,0,-1,538,1135,-24.2197,8.29055
-679,-111,-30.835,0.381104,0,0,0,0,0,0,0,-1,545,1135,-30.835,-0.381135
-672,-111,-31.4046,0.773804,0,0,0,0,0,0,0,-1,552,1135,-31.4046,-0.773791
-665,-111,-31.8553,1.37744,0,0,0,0,0,0,0,-1,559,1135,-31.8553,-1.3775
-658,-111,-31.7494,0.977783,0,0,0,0,0,0,0,-1,566,1135,-31.7494,-0.977779
-651,-111,-31.7183,1.26929,-0.0171407,0.0205421,-0.0101587,0.0231063,-0.0197049,-1.32355,0.024743,0.041215,573,1135,-31.7183,-1.26926
-644,-111,-31.8092,1.63806,-0.0126792,0.015145,-0.0070735,0.0168399,-0.0143742,-1.33561,0.0180402,0.0266125,580,1135,-31.8092,-1.63802
-637,-111,-31.921,2.05859,-0.00884062,0.0102655,-0.00466511,0.0113438,-0.00991884,-1.34366,0.0122851,0.0110583,587,1135,-31.921,-2.05854
-630,-111,-31.9534,2.39575,-0.00530669,0.00631243,-0.00262734,0.00687891,-0.00587317,-1.35844,0.00737005,0.020643,594,1135,-31.9534,-2.39575
-623,-111,-31.9832,2.8114,-0.00215544,0.00293017,-0.00144677,0.00331295,-0.00253821,-1.31215,0.00338802,0.0170384,601,1135,-31.9832,-2.81141
-616,-111,-32.1892,3.21887,-4.42554e-05,0.00063968,-0.00065832,0.00103955,-0.000444128,-1.02494,0.000879297,0.0176775,608,1135,-32.1892,-3.21882
-609,-111,-32.4165,3.53174,0.000766253,-0.00054019,-0.000612631,0.00100858,-0.000782521,-0.376671,0.00103684,0.0289736,615,1135,-32.4165,-3.53176
-602,-111,-32.2908,3.94958,0.00106929,-0.000513751,-0.000552681,0.00124315,-0.000687612,-0.304776,0.00113,0.0337823,622,1135,-32.2908,-3.94954
-595,-111,-32.0464,4.42639,0.000888899,-0.00106295,-0.000429316,0.000979154,-0.00115321,-0.207214,0.00123249,0.0173846,629,1135,-32.0464,-4.42636
-588,-111,-31.7502,4.98145,0,0,0,0,0,0,0,-1,636,1135,-31.7503,-4.98141
-581,-111,-21.0555,3.14551,0,0,0,0,0,0,0,-1,643,1135,-21.0555,-3.14548
-574,-111,-35.8416,0.880005,0,0,0,0,0,0,0,-1,650,1135,-35.8415,-0.880006
-567,-111,-35.8124,0.866577,0.0014389,-0.000937879,-0.000486006,0.00153444,-0.00103342,-0.194104,0.00149193,0.0393971,657,1135,-35.8124,-0.866611
-560,-111,-35.8145,0.876587,0.00165617,-0.000784001,-0.000410826,0.00172348,-0.000851311,-0.162397,0.00151472,0.0409267,664,1135,-35.8145,-0.876574
-553,-111,-35.9357,0.776001,0.00135912,-0.000462019,-0.000510928,0.00149267,-0.000595569,-0.255667,0.00124217,0.043384,671,1135,-35.9357,-0.775947
-546,-111,-35.881,0.820923,0.000999564,1.82237e-05,-0.000673749,0.00134238,-0.00032459,-0.470675,0.00102047,0.0391103,678,1135,-35.881,-0.820885
-539,-111,-35.7895,0.933838,0.00171285,0.000492531,-0.000580179,0.00194465,0.000260727,-0.380109,0.00121886,0.0386872,685,1135,-35.7895,-0.933808
-532,-111,-35.8298,0.971436,0.00283109,0.000778343,-0.000473405,0.00293501,0.000674427,-0.216081,0.0017751,0.0398689,692,1135,-35.8298,-0.971467
-525,-111,-35.8452,0.800903,0.00380209,0.000955231,-0.000488417,0.00388355,0.000873768,-0.16527,0.0023525,0.0379741,699,1135,-35.8452,-0.800856
-518,-111,0,0,0,0,0,0,0,0,0,-1,706,1135,0,0
-511,-111,0,0,0,0,0,0,0,0,0,-1,713,1135,0,0
-504,-111,0,0,0,0,0,0,0,0,0,-1,720,1135,0,0
-497,-111,0,0,0,0,0,0,0,0,0,-1,727,1135,0,0
-490,-111,0,0,0,0,0,0,0,0,0,-1,734,1135,0,0
-483,-111,0,0,0,0,0,0,0,0,0,-1,741,1135,0,0
-476,-111,0,0,0,0,0,0,0,0,0,-1,748,1135,0,0
-469,-111,0,0,0,0,0,0,0,0,0,-1,755,1135,0,0
-462,-111,0,0,0,0,0,0,0,0,0,-1,762,1135,0,0
-455,-111,0,0,0,0,0,0,0,0,0,-1,769,1135,0,0
-448,-111,0,0,0,0,0,0,0,0,0,-1,776,1135,0,0
-441,-111,0,0,0,0,0,0,0,0,0,-1,783,1135,0,0
-434,-111,0,0,0,0,0,0,0,0,0,-1,790,1135,0,0
-427,-111,0,0,0,0,0,0,0,0,0,-1,797,1135,0,0
-420,-111,0,0,0,0,0,0,0,0,0,-1,804,1135,0,0
-413,-111,0,0,0,0,0,0,0,0,0,-1,811,1135,0,0
-406,-111,0,0,0,0,0,0,0,0,0,-1,818,1135,0,0
-399,-111,0,0,0,0,0,0,0,0,0,-1,825,1135,0,0
-392,-111,0,0,0,0,0,0,0,0,0,-1,832,1135,0,0
-385,-111,0,0,0,0,0,0,0,0,0,-1,839,1135,0,0
-378,-111,0,0,0,0,0,0,0,0,0,-1,846,1135,0,0
-371,-111,0,0,0,0,0,0,0,0,0,-1,853,1135,0,0
-364,-111,0,0,0,0,0,0,0,0,0,-1,860,1135,0,0
-357,-111,0,0,0,0,0,0,0,0,0,-1,867,1135,0,0
-350,-111,0,0,0,0,0,0,0,0,0,-1,874,1135,0,0
-343,-111,0,0,0,0,0,0,0,0,0,-1,881,1135,0,0
-336,-111,0,0,0,0,0,0,0,0,0,-1,888,1135,0,0
-329,-111,0,0,0,0,0,0,0,0,0,-1,895,1135,0,0
-322,-111,0,0,0,0,0,0,0,0,0,-1,902,1135,0,0
-315,-111,0,0,0,0,0,0,0,0,0,-1,909,1135,0,0
-308,-111,0,0,0,0,0,0,0,0,0,-1,916,1135,0,0
-301,-111,0,0,0,0,0,0,0,0,0,-1,923,1135,0,0
-294,-111,0,0,0,0,0,0,0,0,0,-1,930,1135,0,0
-287,-111,0,0,0,0,0,0,0,0,0,-1,937,1135,0,0
-280,-111,0,0,0,0,0,0,0,0,0,-1,944,1135,0,0
-273,-111,0,0,0,0,0,0,0,0,0,-1,951,1135,0,0
-266,-111,0,0,0,0,0,0,0,0,0,-1,958,1135,0,0
-259,-111,0,0,0,0,0,0,0,0,0,-1,965,1135,0,0
-252,-111,0,0,0,0,0,0,0,0,0,-1,972,1135,0,0
-245,-111,0,0,0,0,0,0,0,0,0,-1,979,1135,0,0
-238,-111,0,0,0,0,0,0,0,0,0,-1,986,1135,0,0
-231,-111,0,0,0,0,0,0,0,0,0,-1,993,1135,0,0
-224,-111,0,0,0,0,0,0,0,0,0,-1,1000,1135,0,0
-217,-111,0,0,0,0,0,0,0,0,0,-1,1007,1135,0,0
-210,-111,0,0,0,0,0,0,0,0,0,-1,1014,1135,0,0
-203,-111,0,0,0,0,0,0,0,0,0,-1,1021,1135,0,0
-196,-111,0,0,0,0,0,0,0,0,0,-1,1028,1135,0,0
-189,-111,0,0,0,0,0,0,0,0,0,-1,1035,1135,0,0
-182,-111,0,0,0,0,0,0,0,0,0,-1,1042,1135,0,0
-175,-111,0,0,0,0,0,0,0,0,0,-1,1049,1135,0,0
-168,-111,0,0,0,0,0,0,0,0,0,-1,1056,1135,0,0
-161,-111,0,0,0,0,0,0,0,0,0,-1,1063,1135,0,0
-154,-111,0,0,0,0,0,0,0,0,0,-1,1070,1135,0,0
-147,-111,0,0,0,0,0,0,0,0,0,-1,1077,1135,0,0
-140,-111,0,0,0,0,0,0,0,0,0,-1,1084,1135,0,0
-133,-111,0,0,0,0,0,0,0,0,0,-1,1091,1135,0,0
-126,-111,0,0,0,0,0,0,0,0,0,-1,1098,1135,0,0
-119,-111,0,0,0,0,0,0,0,0,0,-1,1105,1135,0,0
-112,-111,0,0,0,0,0,0,0,0,0,-1,1112,1135,0,0
-105,-111,0,0,0,0,0,0,0,0,0,-1,1119,1135,0,0
-98,-111,0,0,0,0,0,0,0,0,0,-1,1126,1135,0,0
-91,-111,0,0,0,0,0,0,0,0,0,-1,1133,1135,0,0
-84,-111,0,0,0,0,0,0,0,0,0,-1,1140,1135,0,0
-77,-111,0,0,0,0,0,0,0,0,0,-1,1147,1135,0,0
-70,-111,0,0,0,0,0,0,0,0,0,-1,1154,1135,0,0
-63,-111,0,0,0,0,0,0,0,0,0,-1,1161,1135,0,0
-56,-111,0,0,0,0,0,0,0,0,0,-1,1168,1135,0,0
-49,-111,0,0,0,0,0,0,0,0,0,-1,1175,1135,0,0
-42,-111,0,0,0,0,0,0,0,0,0,-1,1182,1135,0,0
-35,-111,0,0,0,0,0,0,0,0,0,-1,1189,1135,0,0
-28,-111,0,0,0,0,0,0,0,0,0,-1,1196,1135,0,0
-21,-111,0,0,0,0,0,0,0,0,0,-1,1203,1135,0,0
-14,-111,0,0,0,0,0,0,0,0,0,-1,1210,1135,0,0
-7,-111,0,0,0,0,0,0,0,0,0,-1,1217,1135,0,0
0,-111,0,0,0,0,0,0,0,0,0,-1,1224,1135,0,0
7,-111,0,0,0,0,0,0,0,0,0,-1,1231,1135,0,0
14,-111,0,0,0,0,0,0,0,0,0,-1,1238,1135,0,0
21,-111,0,0,0,0,0,0,0,0,0,-1,1245,1135,0,0
28,-111,0,0,0,0,0,0,0,0,0,-1,1252,1135,0,0
35,-111,0,0,0,0,0,0,0,0,0,-1,1259,1135,0,0
42,-111,0,0,0,0,0,0,0,0,0,-1,1266,1135,0,0
49,-111,0,0,0,0,0,0,0,0,0,-1,1273,1135,0,0
56,-111,0,0,0,0,0,0,0,0,0,-1,1280,1135,0,0
63,-111,0,0,0,0,0,0,0,0,0,-1,1287,1135,0,0
70,-111,0,0,0,0,0,0,0,0,0,-1,1294,1135,0,0
77,-111,0,0,0,0,0,0,0,0,0,-1,1301,1135,0,0
84,-111,0,0,0,0,0,0,0,0,0,-1,1308,1135,0,0
91,-111,0,0,0,0,0,0,0,0,0,-1,1315,1135,0,0
98,-111,0,0,0,0,0,0,0,0,0,-1,1322,1135,0,0
105,-111,0,0,0,0,0,0,0,0,0,-1,1329,1135,0,0
112,-111,0,0,0,0,0,0,0,0,0,-1,1336,1135,0,0
119,-111,0,0,0,0,0,0,0,0,0,-1,1343,1135,0,0
126,-111,0,0,0,0,0,0,0,0,0,-1,1350,1135,0,0
133,-111,0,0,0,0,0,0,0,0,0,-1,1357,1135,0,0
140,-111,0,0,0,0,0,0,0,0,0,-1,1364,1135,0,0
147,-111,0,0,0,0,0,0,0,0,0,-1,1371,1135,0,0
154,-111,0,0,0,0,0,0,0,0,0,-1,1378,1135,0,0
161,-111,0,0,0,0,0,0,0,0,0,-1,1385,1135,0,0
168,-111,0,0,0,0,0,0,0,0,0,-1,1392,1135,0,0
175,-111,0,0,0,0,0,0,0,0,0,-1,1399,1135,0,0
182,-111,0,0,0,0,0,0,0,0,0,-1,1406,1135,0,0
189,-111,0,0,0,0,0,0,0,0,0,-1,1413,1135,0,0
196,-111,0,0,0,0,0,0,0,0,0,-1,1420,1135,0,0
203,-111,0,0,0,0,0,0,0,0,0,-1,1427,1135,0,0
210,-111,0,0,0,0,0,0,0,0,0,-1,1434,1135,0,0
217,-111,0,0,0,0,0,0,0,0,0,-1,1441,1135,0,0
224,-111,0,0,0,0,0,0,0,0,0,-1,1448,1135,0,0
231,-111,0,0,0,0,0,0,0,0,0,-1,1455,1135,0,0
238,-111,0,0,0,0,0,0,0,0,0,-1,1462,1135,0,0
245,-111,0,0,0,0,0,0,0,0,0,-1,1469,1135,0,0
252,-111,0,0,0,0,0,0,0,0,0,-1,1476,1135,0,0
259,-111,0,0,0,0,0,0,0,0,0,-1,1483,1135,0,0
266,-111,0,0,0,0,0,0,0,0,0,-1,1490,1135,0,0
273,-111,0,0,0,0,0,0,0,0,0,-1,1497,1135,0,0
280,-111,0,0,0,0,0,0,0,0,0,-1,1504,1135,0,0
287,-111,0,0,0,0,0,0,0,0,0,-1,1511,1135,0,0
294,-111,0,0,0,0,0,0,0,0,0,-1,1518,1135,0,0
301,-111,0,0,0,0,0,0,0,0,0,-1,1525,1135,0,0
308,-111,0,0,0,0,0,0,0,0,0,-1,1532,1135,0,0
315,-111,0,0,0,0,0,0,0,0,0,-1,1539,1135,0,0
322,-111,0,0,0,0,0,0,0,0,0,-1,1546,1135,0,0
329,-111,0,0,0,0,0,0,0,0,0,-1,1553,1135,0,0
336,-111,0,0,0,0,0,0,0,0,0,-1,1560,1135,0,0
343,-111,0,0,0,0,0,0,0,0,0,-1,1567,1135,0,0
350,-111,0,0,0,0,0,0,0,0,0,-1,1574,1135,0,0
357,-111,0,0,0,0,0,0,0,0,0,-1,1581,1135,0,0
364,-111,0,0,0,0,0,0,0,0,0,-1,1588,1135,0,0
371,-111,0,0,0,0,0,0,0,0,0,-1,1595,1135,0,0
378,-111,0,0,0,0,0,0,0,0,0,-1,1602,1135,0,0
385,-111,0,0,0,0,0,0,0,0,0,-1,1609,1135,0,0
392,-111,0,0,0,0,0,0,0,0,0,-1,1616,1135,0,0
399,-111,0,0,0,0,0,0,0,0,0,-1,1623,1135,0,0
406,-111,0,0,0,0,0,0,0,0,0,-1,1630,1135,0,0
413,-111,0,0,0,0,0,0,0,0,0,-1,1637,1135,0,0
420,-111,0,0,0,0,0,0,0,0,0,-1,1644,1135,0,0
427,-111,0,0,0,0,0,0,0,0,0,-1,1651,1135,0,0
434,-111,0,0,0,0,0,0,0,0,0,-1,1658,1135,0,0
441,-111,0,0,0,0,0,0,0,0,0,-1,1665,1135,0,0
448,-111,0,0,0,0,0,0,0,0,0,-1,1672,1135,0,0
455,-111,0,0,0,0,0,0,0,0,0,-1,1679,1135,0,0
462,-111,0,0,0,0,0,0,0,0,0,-1,1686,1135,0,0
469,-111,0,0,0,0,0,0,0,0,0,-1,1693,1135,0,0
476,-111,0,0,0,0,0,0,0,0,0,-1,1700,1135,0,0
483,-111,0,0,0,0,0,0,0,0,0,-1,1707,1135,0,0
490,-111,0,0,0,0,0,0,0,0,0,-1,1714,1135,0,0
497,-111,0,0,0,0,0,0,0,0,0,-1,1721,1135,0,0
504,-111,0,0,0,0,0,0,0,0,0,-1,1728,1135,0,0
511,-111,0,0,0,0,0,0,0,0,0,-1,1735,1135,0,0
518,-111,0,0,0,0,0,0,0,0,0,-1,1742,1135,0,0
525,-111,0,0,0,0,0,0,0,0,0,-1,1749,1135,0,0
532,-111,0,0,0,0,0,0,0,0,0,-1,1756,1135,0,0
539,-111,0,0,0,0,0,0,0,0,0,-1,1763,1135,0,0
546,-111,0,0,0,0,0,0,0,0,0,-1,1770,1135,0,0
553,-111,0,0,0,0,0,0,0,0,0,-1,1777,1135,0,0
560,-111,0,0,0,0,0,0,0,0,0,-1,1784,1135,0,0
567,-111,0,0,0,0,0,0,0,0,0,-1,1791,1135,0,0
574,-111,0,0,0,0,0,0,0,0,0,-1,1798,1135,0,0
581,-111,0,0,0,0,0,0,0,0,0,-1,1805,1135,0,0
588,-111,0,0,0,0,0,0,0,0,0,-1,1812,1135,0,0
595,-111,0,0,0,0,0,0,0,0,0,-1,1819,1135,0,0
602,-111,0,0,0,0,0,0,0,0,0,-1,1826,1135,0,0
609,-111,0,0,0,0,0,0,0,0,0,-1,1833,1135,0,0
616,-111,0,0,0,0,0,0,0,0,0,-1,1840,1135,0,0
623,-111,0,0,0,0,0,0,0,0,0,-1,1847,1135,0,0
630,-111,0,0,0,0,0,0,0,0,0,-1,1854,1135,0,0
637,-111,0,0,0,0,0,0,0,0,0,-1,1861,1135,0,0
644,-111,48.2405,2.96313,0.00545023,0.00178978,-0.00122486,0.00582227,0.00141774,-0.294891,0.00350583,0.0428973,1868,1135,48.2405,-2.96315
651,-111,48.3147,2.79529,0.00417816,0.00115783,-0.000889842,0.00442083,0.000915164,-0.266233,0.00269448,0.0395016,1875,1135,48.3147,-2.79529
658,-111,48.509,2.74207,0.00327664,0.000640192,-0.000617204,0.00341397,0.000502856,-0.218947,0.00212826,0.0424408,1882,1135,48.509,-2.74209
665,-111,48.6226,2.82043,0.00237314,0.000217415,-0.000357395,0.00243084,0.000159708,-0.160085,0.00157004,0.0438093,1889,1135,48.6226,-2.82043
672,-111,48.6,2.62903,0.00159453,-0.000163724,-0.000116806,0.00160225,-0.00017145,-0.0660462,0.00112966,0.0418131,1896,1135,48.5999,-2.629
679,-111,48.4453,2.61646,0.000794389,-0.000511517,9.33818e-05,0.000801032,-0.00051816,0.0710257,0.000767451,0.0394686,1903,1135,48.4453,-2.61649
686,-111,48.2938,2.80713,0.000313525,-0.000803423,0.000208193,0.000351069,-0.000840967,0.178416,0.00070733,0.0378181,1910,1135,48.2938,-2.80716
693,-111,48.1567,2.93872,0,0,0,0,0,0,0,-1,1917,1135,48.1567,-2.93877
700,-111,48.4155,2.62219,0,0,0,0,0,0,0,-1,1924,1135,48.4155,-2.62213
707,-111,48.41,2.56848,0,0,0,0,0,0,0,-1,1931,1135,48.4101,-2.56849
714,-111,45.1654,7.39746,0,0,0,0,0,0,0,-1,1938,1135,45.1654,-7.39745
721,-111,44.5979,7.17163,-0.000915707,-0.000924319,0.000961006,4.10023e-05,-0.00188103,0.783158,0.00126791,0.0415824,1945,1135,44.5979,-7.1716
728,-111,44.6207,6.86658,-0.00123825,-0.000636974,0.00115874,0.000259496,-0.00213472,0.912325,0.00151706,0.0225765,1952,1135,44.6207,-6.86663
735,-111,44.6443,6.53748,-0.00153625,-0.000376225,0.00132869,0.000493533,-0.00240601,0.991196,0.00179132,0.0240714,1959,1135,44.6443,-6.53754
742,-111,44.5859,6.21021,-0.0017975,0.000249531,0.00155877,0.00109078,-0.00263875,1.07591,0.00221421,0.0155819,1966,1135,44.586,-6.21023
749,-111,44.5327,5.85229,-0.00197678,0.00130946,0.00152007,0.00190475,-0.00257206,1.19754,0.00259424,0.0170973,1973,1135,44.5327,-5.85229
756,-111,44.5071,5.49512,-0.00238971,0.00305079,0.000776694,0.0031595,-0.00249842,1.43173,0.00327403,0.0165179,1980,1135,44.507,-5.49511
763,-111,44.5059,5.19727,-0.0025234,0.00544295,-0.000428386,0.00546592,-0.00254637,-1.51723,0.00472716,0.014567,1987,1135,44.5059,-5.19731
770,-111,44.4967,4.89111,-0.00251497,0.00845169,-0.0024834,0.00898784,-0.00305112,-1.35817,0.00722691,0.0131117,1994,1135,44.4966,-4.8911
777,-111,44.3638,4.54211,-0.00214953,0.0120779,-0.0055583,0.0139919,-0.00406353,-1.23916,0.010937,0.0269437,2001,1135,44.3638,-4.54214
784,-111,44.3711,4.04895,-0.00131282,0.0165933,-0.0101761,0.0211942,-0.00591371,-1.14617,0.0164587,0.0421209,2008,1135,44.371,-4.04894
791,-111,44.4304,3.49939,0,0,0,0,0,0,0,-1,2015,1135,44.4303,-3.49938
798,-111,45.4658,2.63379,0.00392454,0.0300346,-0.0276987,0.0476007,-0.0136415,-1.00562,0.037126,0.0464046,2022,1135,45.4658,-2.63385
805,-111,45.948,2.8114,0,0,0,0,0,0,0,-1,2029,1135,45.9481,-2.81134
812,-111,46.3918,2.97168,0,0,0,0,0,0,0,-1,2036,1135,46.3918,-2.97169
-700,-118,0,0,0,0,0,0,0,0,0,-1,524,1142,0,0
-693,-118,-28.9482,-3.44446,0,0,0,0,0,0,0,-1,531,1142,-28.9481,3.4445
-686,-118,-30.586,0.237915,0,0,0,0,0,0,0,-1,538,1142,-30.586,-0.237912
-679,-118,-31.2259,0.676147,0,0,0,0,0,0,0,-1,545,1142,-31.2259,-0.676181
-672,-118,-31.8466,1.09546,0,0,0,0,0,0,0,-1,552,1142,-31.8466,-1.09552
-665,-118,-32.2934,1.55518,0,0,0,0,0,0,0,-1,559,1142,-32.2934,-1.55514
-658,-118,-31.2806,1.15369,0,0,0,0,0,0,0,-1,566,1142,-31.2807,-1.15366
-651,-118,-31.2386,1.38745,-0.0160425,0.0197837,-0.00824126,0.0215886,-0.0178473,-1.3552,0.0228024,0.0429598,573,1142,-31.2386,-1.38743
-644,-118,-31.3212,1.63464,-0.0116982,0.0144886,-0.00568706,0.0156704,-0.0128799,-1.36592,0.0165098,0.0299632,580,1142,-31.3212,-1.63463
-637,-118,-31.4929,2.07983,-0.00802759,0.0097717,-0.0037093,0.0105138,-0.00876966,-1.37335,0.0111485,0.016577,587,1142,-31.4929,-2.07987
-630,-118,-31.5377,2.43799,-0.00472542,0.00600255,-0.0020362,0.00637602,-0.0050989,-1.38939,0.00663871,0.0231322,594,1142,-31.5377,-2.43795
-623,-118,-31.533,2.83154,-0.0018309,0.00267335,-0.00107145,0.00291523,-0.00207279,-1.34877,0.00289349,0.0193684,601,1142,-31.5329,-2.83157
-616,-118,-31.6407,3.21753,4.57666e-05,0.00049393,-0.000413853,0.000740472,-0.000200776,-1.03353,0.000572433,0.0210784,608,1142,-31.6407,-3.21754
-609,-118,-31.8637,3.43713,0.000654952,-0.000472337,-0.00046029,0.000819018,-0.000636402,-0.3424,0.000842489,0.0349471,615,1142,-31.8637,-3.43718
-602,-118,-31.7452,4.05872,0.00094944,-0.000143265,-0.000491743,0.00113815,-0.000331972,-0.36642,0.000890298,0.0337106,622,1142,-31.7452,-4.05868
-595,-118,-31.9543,4.66089,0,0,0,0,0,0,0,-1,629,1142,-31.9543,-4.66088
-588,-118,-30.8828,5.12256,0,0,0,0,0,0,0,-1,636,1142,-30.8828,-5.12255
-581,-118,-24.6116,3.89648,0,0,0,0,0,0,0,-1,643,1142,-24.6116,-3.89645
-574,-118,-35.372,0.639404,0,0,0,0,0,0,0,-1,650,1142,-35.372,-0.639349
-567,-118,-35.9462,1.23694,0,0,0,0,0,0,0,-1,657,1142,-35.9463,-1.23698
-560,-118,-35.819,1.05396,0.00150897,-0.000539893,-0.000346762,0.00156607,-0.00059699,-0.163193,0.00128994,0.0367936,664,1142,-35.819,-1.05397
-553,-118,-35.7169,0.901489,0.00125321,-0.000299846,-0.000438245,0.00136834,-0.000414976,-0.256903,0.00107752,0.0383074,671,1142,-35.7169,-0.901431
-546,-118,-35.757,1.06885,0.000897597,-7.33505e-06,-0.00057576,0.00117741,-0.000287143,-0.452369,0.000896119,0.0385479,678,1142,-35.757,-1.06885
-539,-118,-35.8158,1.07312,0.00150018,0.000277018,-0.000295642,0.00156789,0.000209308,-0.225142,0.000982947,0.0402797,685,1142,-35.8158,-1.07316
-532,-118,-35.9211,1.06714,0.00262844,0.000326201,0.000158499,0.0026393,0.00031534,0.0684154,0.00166441,0.0416658,692,1142,-35.9211,-1.06708
-525,-118,-35.9489,0.990723,0.00366101,0.000313551,0.000554874,0.00375059,0.000223972,0.160059,0.00242918,0.0407578,699,1142,-35.9489,-0.990705
-518,-118,0,0,0,0,0,0,0,0,0,-1,706,1142,0,0
-511,-118,0,0,0,0,0,0,0,0,0,-1,713,1142,0,0
-504,-118,0,0,0,0,0,0,0,0,0,-1,720,1142,0,0
-497,-118,0,0,0,0,0,0,0,0,0,-1,727,1142,0,0
-490,-118,0,0,0,0,0,0,0,0,0,-1,734,1142,0,0
-483,-118,0,0,0,0,0,0,0,0,0,-1,741,1142,0,0
-476,-118,0,0,0,0,0,0,0,0,0,-1,748,1142,0,0
-469,-118,0,0,0,0,0,0,0,0,0,-1,755,1142,0,0
-462,-118,0,0,0,0,0,0,0,0,0,-1,762,1142,0,0
-455,-118,0,0,0,0,0,0,0,0,0,-1,769,1142,0,0
-448,-118,0,0,0,0,0,0,0,0,0,-1,776,1142,0,0
-441,-118,0,0,0,0,0,0,0,0,0,-1,783,1142,0,0
-434,-118,0,0,0,0,0,0,0,0,0,-1,790,1142,0,0
-427,-118,0,0,0,0,0,0,0,0,0,-1,797,1142,0,0
-420,-118,0,0,0,0,0,0,0,0,0,-1,804,1142,0,0
-413,-118,0,0,0,0,0,0,0,0,0,-1,811,1142,0,0
-406,-118,0,0,0,0,0,0,0,0,0,-1,818,1142,0,0
-399,-118,0,0,0,0,0,0,0,0,0,-1,825,1142,0,0
-392,-118,0,0,0,0,0,0,0,0,0,-1,832,1142,0,0
-385,-118,0,0,0,0,0,0,0,0,0,-1,839,1142,0,0
-378,-118,0,0,0,0,0,0,0,0,0,-1,846,1142,0,0
-371,-118,0,0,0,0,0,0,0,0,0,-1,853,1142,0,0
-364,-118,0,0,0,0,0,0,0,0,0,-1,860,1142,0,0
-357,-118,0,0,0,0,0,0,0,0,0,-1,867,1142,0,0
-350,-118,0,0,0,0,0,0,0,0,0,-1,874,1142,0,0
-343,-118,0,0,0,0,0,0,0,0,0,-1,881,1142,0,0
-336,-118,0,0,0,0,0,0,0,0,0,-1,888,1142,0,0
-329,-118,0,0,0,0,0,0,0,0,0,-1,895,1142,0,0
-322,-118,0,0,0,0,0,0,0,0,0,-1,902,1142,0,0
-315,-118,0,0,0,0,0,0,0,0,0,-1,909,1142,0,0
-308,-118,0,0,0,0,0,0,0,0,0,-1,916,1142,0,0
-301,-118,0,0,0,0,0,0,0,0,0,-1,923,1142,0,0
-294,-118,0,0,0,0,0,0,0,0,0,-1,930,1142,0,0
-287,-118,0,0,0,0,0,0,0,0,0,-1,937,1142,0,0
-280,-118,0,0,0,0,0,0,0,0,0,-1,944,1142,0,0
-273,-118,0,0,0,0,0,0,0,0,0,-1,951,1142,0,0
-266,-118,0,0,0,0,0,0,0,0,0,-1,958,1142,0,0
-259,-118,0,0,0,0,0,0,0,0,0,-1,965,1142,0,0
-252,-118,0,0,0,0,0,0,0,0,0,-1,972,1142,0,0
-245,-118,0,0,0,0,0,0,0,0,0,-1,979,1142,0,0
-238,-118,0,0,0,0,0,0,0,0,0,-1,986,1142,0,0
-231,-118,0,0,0,0,0,0,0,0,0,-1,993,1142,0,0
-224,-118,0,0,0,0,0,0,0,0,0,-1,1000,1142,0,0
-217,-118,0,0,0,0,0,0,0,0,0,-1,1007,1142,0,0
-210,-118,0,0,0,0,0,0,0,0,0,-1,1014,1142,0,0
-203,-118,0,0,0,0,0,0,0,0,0,-1,1021,1142,0,0
-196,-118,0,0,0,0,0,0,0,0,0,-1,1028,1142,0,0
-189,-118,0,0,0,0,0,0,0,0,0,-1,1035,1142,0,0
-182,-118,0,0,0,0,0,0,0,0,0,-1,1042,1142,0,0
-175,-118,0,0,0,0,0,0,0,0,0,-1,1049,1142,0,0
-168,-118,0,0,0,0,0,0,0,0,0,-1,1056,1142,0,0
-161,-118,0,0,0,0,0,0,0,0,0,-1,1063,1142,0,0
-154,-118,0,0,0,0,0,0,0,0,0,-1,1070,1142,0,0
-147,-118,0,0,0,0,0,0,0,0,0,-1,1077,1142,0,0
-140,-118,0,0,0,0,0,0,0,0,0,-1,1084,1142,0,0
-133,-118,0,0,0,0,0,0,0,0,0,-1,1091,1142,0,0
-126,-118,0,0,0,0,0,0,0,0,0,-1,1098,1142,0,0
-119,-118,0,0,0,0,0,0,0,0,0,-1,1105,1142,0,0
-112,-118,0,0,0,0,0,0,0,0,0,-1,1112,1142,0,0
-105,-118,0,0,0,0,0,0,0,0,0,-1,1119,1142,0,0
-98,-118,0,0,0,0,0,0,0,0,0,-1,1126,1142,0,0
-91,-118,0,0,0,0,0,0,0,0,0,-1,1133,1142,0,0
-84,-118,0,0,0,0,0,0,0,0,0,-1,1140,1142,0,0
-77,-118,0,0,0,0,0,0,0,0,0,-1,1147,1142,0,0
-70,-118,0,0,0,0,0,0,0,0,0,-1,1154,1142,0,0
-63,-118,0,0,0,0,0,0,0,0,0,-1,1161,1142,0,0
-56,-118,0,0,0,0,0,0,0,0,0,-1,1168,1142,0,0
-49,-118,0,0,0,0,0,0,0,0,0,-1,1175,1142,0,0
-42,-118,0,0,0,0,0,0,0,0,0,-1,1182,1142,0,0
-35,-118,0,0,0,0,0,0,0,0,0,-1,1189,1142,0,0
-28,-118,0,0,0,0,0,0,0,0,0,-1,1196,1142,0,0
-21,-118,0,0,0,0,0,0,0,0,0,-1,1203,1142,0,0
-14,-118,0,0,0,0,0,0,0,0,0,-1,1210,1142,0,0
-7,-118,0,0,0,0,0,0,0,0,0,-1,1217,1142,0,0
0,-118,0,0,0,0,0,0,0,0,0,-1,1224,1142,0,0
7,-118,0,0,0,0,0,0,0,0,0,-1,1231,1142,0,0
14,-118,0,0,0,0,0,0,0,0,0,-1,1238,1142,0,0
21,-118,0,0,0,0,0,0,0,0,0,-1,1245,1142,0,0
28,-118,0,0,0,0,0,0,0,0,0,-1,1252,1142,0,0
35,-118,0,0,0,0,0,0,0,0,0,-1,1259,1142,0,0
42,-118,0,0,0,0,0,0,0,0,0,-1,1266,1142,0,0
49,-118,0,0,0,0,0,0,0,0,0,-1,1273,1142,0,0
56,-118,0,0,0,0,0,0,0,0,0,-1,1280,1142,0,0
63,-118,0,0,0,0,0,0,0,0,0,-1,1287,1142,0,0
70,-118,0,0,0,0,0,0,0,0,0,-1,1294,1142,0,0
77,-118,0,0,0,0,0,0,0,0,0,-1,1301,1142,0,0
84,-118,0,0,0,0,0,0,0,0,0,-1,1308,1142,0,0
91,-118,0,0,0,0,0,0,0,0,0,-1,1315,1142,0,0
98,-118,0,0,0,0,0,0,0,0,0,-1,1322,1142,0,0
105,-118,0,0,0,0,0,0,0,0,0,-1,1329,1142,0,0
112,-118,0,0,0,0,0,0,0,0,0,-1,1336,1142,0,0
119,-118,0,0,0,0,0,0,0,0,0,-1,1343,1142,0,0
126,-118,0,0,0,0,0,0,0,0,0,-1,1350,1142,0,0
133,-118,0,0,0,0,0,0,0,0,0,-1,1357,1142,0,0
140,-118,0,0,0,0,0,0,0,0,0,-1,1364,1142,0,0
147,-118,0,0,0,0,0,0,0,0,0,-1,1371,1142,0,0
154,-118,0,0,0,0,0,0,0,0,0,-1,1378,1142,0,0
161,-118,0,0,0,0,0,0,0,0,0,-1,1385,1142,0,0
168,-118,0,0,0,0,0,0,0,0,0,-1,1392,1142,0,0
175,-118,0,0,0,0,0,0,0,0,0,-1,1399,1142,0,0
182,-118,0,0,0,0,0,0,0,0,0,-1,1406,1142,0,0
189,-118,0,0,0,0,0,0,0,0,0,-1,1413,1142,0,0
196,-118,0,0,0,0,0,0,0,0,0,-1,1420,1142,0,0
203,-118,0,0,0,0,0,0,0,0,0,-1,1427,1142,0,0
210,-118,0,0,0,0,0,0,0,0,0,-1,1434,1142,0,0
217,-118,0,0,0,0,0,0,0,0,0,-1,1441,1142,0,0
224,-118,0,0,0,0,0,0,0,0,0,-1,1448,1142,0,0
231,-118,0,0,0,0,0,0,0,0,0,-1,1455,1142,0,0
238,-118,0,0,0,0,0,0,0,0,0,-1,1462,1142,0,0
245,-118,0,0,0,0,0,0,0,0,0,-1,1469,1142,0,0
252,-118,0,0,0,0,0,0,0,0,0,-1,1476,1142,0,0
259,-118,0,0,0,0,0,0,0,0,0,-1,1483,1142,0,0
266,-118,0,0,0,0,0,0,0,0,0,-1,1490,1142,0,0
273,-118,0,0,0,0,0,0,0,0,0,-1,1497,1142,0,0
280,-118,0,0,0,0,0,0,0,0,0,-1,1504,1142,0,0
287,-118,0,0,0,0,0,0,0,0,0,-1,1511,1142,0,0
294,-118,0,0,0,0,0,0,0,0,0,-1,1518,1142,0,0
301,-118,0,0,0,0,0,0,0,0,0,-1,1525,1142,0,0
308,-118,0,0,0,0,0,0,0,0,0,-1,1532,1142,0,0
315,-118,0,0,0,0,0,0,0,0,0,-1,1539,1142,0,0
322,-118,0,0,0,0,0,0,0,0,0,-1,1546,1142,0,0
329,-118,0,0,0,0,0,0,0,0,0,-1,1553,1142,0,0
336,-118,0,0,0,0,0,0,0,0,0,-1,1560,1142,0,0
343,-118,0,0,0,0,0,0,0,0,0,-1,1567,1142,0,0
350,-118,0,0,0,0,0,0,0,0,0,-1,1574,1142,0,0
357,-118,0,0,0,0,0,0,0,0,0,-1,1581,1142,0,0
364,-118,0,0,0,0,0,0,0,0,0,-1,1588,1142,0,0
371,-118,0,0,0,0,0,0,0,0,0,-1,1595,1142,0,0
378,-118,0,0,0,0,0,0,0,0,0,-1,1602,1142,0,0
385,-118,0,0,0,0,0,0,0,0,0,-1,1609,1142,0,0
392,-118,0,0,0,0,0,0,0,0,0,-1,1616,1142,0,0
399,-118,0,0,0,0,0,0,0,0,0,-1,1623,1142,0,0
406,-118,0,0,0,0,0,0,0,0,0,-1,1630,1142,0,0
413,-118,0,0,0,0,0,0,0,0,0,-1,1637,1142,0,0
420,-118,0,0,0,0,0,0,0,0,0,-1,1644,1142,0,0
427,-118,0,0,0,0,0,0,0,0,0,-1,1651,1142,0,0
434,-118,0,0,0,0,0,0,0,0,0,-1,1658,1142,0,0
441,-118,0,0,0,0,0,0,0,0,0,-1,1665,1142,0,0
448,-118,0,0,0,0,0,0,0,0,0,-1,1672,1142,0,0
455,-118,0,0,0,0,0,0,0,0,0,-1,1679,1142,0,0
462,-118,0,0,0,0,0,0,0,0,0,-1,1686,1142,0,0
469,-118,0,0,0,0,0,0,0,0,0,-1,1693,1142,0,0
476,-118,0,0,0,0,0,0,0,0,0,-1,1700,1142,0,0
483,-118,0,0,0,0,0,0,0,0,0,-1,1707,1142,0,0
490,-118,0,0,0,0,0,0,0,0,0,-1,1714,1142,0,0
497,-118,0,0,0,0,0,0,0,0,0,-1,1721,1142,0,0
504,-118,0,0,0,0,0,0,0,0,0,-1,1728,1142,0,0
511,-118,0,0,0,0,0,0,0,0,0,-1,1735,1142,0,0
518,-118,0,0,0,0,0,0,0,0,0,-1,1742,1142,0,0
525,-118,0,0,0,0,0,0,0,0,0,-1,1749,1142,0,0
532,-118,0,0,0,0,0,0,0,0,0,-1,1756,1142,0,0
539,-118,0,0,0,0,0,0,0,0,0,-1,1763,1142,0,0
546,-118,0,0,0,0,0,0,0,0,0,-1,1770,1142,0,0
553,-118,0,0,0,0,0,0,0,0,0,-1,1777,1142,0,0
560,-118,0,0,0,0,0,0,0,0,0,-1,1784,1142,0,0
567,-118,0,0,0,0,0,0,0,0,0,-1,1791,1142,0,0
574,-118,0,0,0,0,0,0,0,0,0,-1,1798,1142,0,0
581,-118,0,0,0,0,0,0,0,0,0,-1,1805,1142,0,0
588,-118,0,0,0,0,0,0,0,0,0,-1,1812,1142,0,0
595,-118,0,0,0,0,0,0,0,0,0,-1,1819,1142,0,0
602,-118,0,0,0,0,0,0,0,0,0,-1,1826,1142,0,0
609,-118,0,0,0,0,0,0,0,0,0,-1,1833,1142,0,0
616,-118,0,0,0,0,0,0,0,0,0,-1,1840,1142,0,0
623,-118,0,0,0,0,0,0,0,0,0,-1,1847,1142,0,0
630,-118,0,0,0,0,0,0,0,0,0,-1,1854,1142,0,0
637,-118,0,0,0,0,0,0,0,0,0,-1,1861,1142,0,0
644,-118,48.2443,3.02087,0.00424932,0.00119955,-0.000448659,0.00431395,0.00113491,-0.143075,0.00258218,0.0422668,1868,1142,48.2442,-3.02089
651,-118,48.2872,2.69336,0.00329832,0.000820087,-0.000200412,0.00331443,0.000803985,-0.0801746,0.00199634,0.0398847,1875,1142,48.2873,-2.69339
658,-118,48.3081,2.61682,0.0026498,0.000497419,-4.65578e-05,0.0026508,0.000496412,-0.0216174,0.00162717,0.0419416,1882,1142,48.3081,-2.61679
665,-118,48.3866,2.93311,0.00197962,0.000233689,6.16653e-05,0.00198179,0.000231514,0.0352609,0.00125118,0.0417783,1889,1142,48.3866,-2.93315
672,-118,48.3181,2.77625,0.00138865,-2.87809e-05,0.000155132,0.00140543,-4.55608e-05,0.107747,0.000952501,0.0434759,1896,1142,48.3181,-2.77628
679,-118,48.2867,2.74695,0.00072788,-0.000300873,0.000263693,0.000791532,-0.000364525,0.236856,0.000682458,0.0416058,1903,1142,48.2867,-2.74697
686,-118,48.2498,2.88098,0.00034182,-0.000544778,0.000297766,0.000432542,-0.0006355,0.295741,0.000620334,0.0365837,1910,1142,48.2497,-2.88101
693,-118,48.2279,2.75513,0.000185719,-0.000660038,0.000304736,0.00028408,-0.000758399,0.312217,0.000622295,0.0352516,1917,1142,48.2279,-2.75517
700,-118,48.3997,2.66174,2.71296e-05,-0.000786277,0.00039909,0.000190234,-0.000949381,0.387975,0.000704941,0.0239099,1924,1142,48.3996,-2.6617
707,-118,48.4802,2.69653,0,0,0,0,0,0,0,-1,1931,1142,48.4802,-2.69659
714,-118,44.446,7.75989,0,0,0,0,0,0,0,-1,1938,1142,44.446,-7.75994
721,-118,44.1831,7.32202,-0.000827328,-0.000675721,0.000888603,0.000140306,-0.00164335,0.827948,0.00114521,0.0303236,1945,1142,44.1831,-7.32196
728,-118,44.2543,6.96484,-0.00111757,-0.000505778,0.0011261,0.000355236,-0.00197859,0.918019,0.00145203,0.0199082,1952,1142,44.2543,-6.96486
735,-118,44.2482,6.60803,-0.0014242,-0.00034692,0.00133276,0.000551932,-0.00232305,0.977439,0.00176173,0.020268,1959,1142,44.2481,-6.60807
742,-118,44.2251,6.26074,-0.00174533,9.34339e-05,0.00166766,0.00107835,-0.00273025,1.03732,0.00226679,0.0267932,1966,1142,44.2252,-6.2607
749,-118,44.1736,5.91162,-0.00211167,0.00100849,0.00178294,0.00181753,-0.00292071,1.14481,0.00276023,0.0227042,1973,1142,44.1736,-5.91167
756,-118,44.1362,5.54236,-0.00272058,0.00272252,0.00101992,0.00290735,-0.00290541,1.39152,0.003356,0.0192074,1980,1142,44.1362,-5.54238
763,-118,44.1622,5.17517,-0.00313006,0.00503983,-0.000190539,0.00504427,-0.0031345,-1.54749,0.00476473,0.0105685,1987,1142,44.1622,-5.17515
770,-118,44.1145,4.86975,-0.0034838,0.00794165,-0.00228631,0.00838217,-0.00392432,-1.38045,0.00725888,0.0140399,1994,1142,44.1145,-4.86977
777,-118,44.0027,4.58447,-0.00359626,0.0114848,-0.00549719,0.0132759,-0.00538733,-1.25583,0.0110914,0.0313262,2001,1142,44.0027,-4.58445
784,-118,44.2886,4.34607,-0.00339957,0.0159725,-0.0104057,0.0205026,-0.00792965,-1.1602,0.0169419,0.0459591,2008,1142,44.2885,-4.34603
791,-118,44.6113,4.13318,0,0,0,0,0,0,0,-1,2015,1142,44.6114,-4.13321
798,-118,43.2214,5.48486,0,0,0,0,0,0,0,-1,2022,1142,43.2214,-5.48486
805,-118,46.0774,2.56055,0,0,0,0,0,0,0,-1,2029,1142,46.0773,-2.56049
812,-118,46.5322,2.72144,0,0,0,0,0,0,0,-1,2036,1142,46.5322,-2.7214
-700,-125,0,0,0,0,0,0,0,0,0,-1,524,1149,0,0
-693,-125,-34.4659,-2.64734,0,0,0,0,0,0,0,-1,531,1149,-34.4659,2.6474
-686,-125,-31.0944,0.600952,0,0,0,0,0,0,0,-1,538,1149,-31.0944,-0.600977
-679,-125,-31.7068,1.01025,0,0,0,0,0,0,0,-1,545,1149,-31.7068,-1.01024
-672,-125,-32.3291,1.41711,0,0,0,0,0,0,0,-1,552,1149,-32.3291,-1.41715
-665,-125,-32.5221,1.94214,0,0,0,0,0,0,0,-1,559,1149,-32.5221,-1.94211
-658,-125,-31.0073,1.25818,0,0,0,0,0,0,0,-1,566,1149,-31.0073,-1.25813
-651,-125,-30.9285,1.4967,-0.0122407,0.0181472,-0.00495632,0.0189351,-0.0130286,-1.41314,0.018559,0.0407199,573,1149,-30.9285,-1.49676
-644,-125,-30.9626,1.68445,-0.00864017,0.0133784,-0.00329755,0.0138616,-0.00912341,-1.42529,0.0133641,0.0275081,580,1149,-30.9627,-1.68441
-637,-125,-31.0719,2.08362,-0.00569064,0.00908479,-0.00208487,0.00937333,-0.00597918,-1.43327,0.00893569,0.0136337,587,1149,-31.0719,-2.08366
-630,-125,-31.0894,2.45874,-0.00313612,0.00563527,-0.00104243,0.00575746,-0.00325831,-1.45412,0.00527149,0.0153443,594,1149,-31.0894,-2.45872
-623,-125,-31.0977,2.86401,-0.000948958,0.00245459,-0.000580453,0.00255086,-0.00104523,-1.40644,0.002136,0.0145532,601,1149,-31.0977,-2.86399
-616,-125,-31.1304,3.2467,0.000433986,0.000359874,-0.000228016,0.000627938,0.000165922,-0.704845,0.000375735,0.0217451,608,1149,-31.1304,-3.2467
-609,-125,-31.2902,3.54309,0.000757585,-0.00044963,-0.000411155,0.000884313,-0.000576358,-0.298986,0.000849543,0.0402998,615,1149,-31.2902,-3.54303
-602,-125,-31.2855,4.09314,0.000937631,0.000119318,-0.000538575,0.00120484,-0.000147892,-0.460557,0.00085679,0.0329046,622,1149,-31.2855,-4.09313
-595,-125,-31.4741,4.62158,0,0,0,0,0,0,0,-1,629,1149,-31.4741,-4.62159
-588,-125,-31.1838,4.99097,0,0,0,0,0,0,0,-1,636,1149,-31.1839,-4.99094
-581,-125,-26.4055,4.83203,0,0,0,0,0,0,0,-1,643,1149,-26.4055,-4.83204
-574,-125,-35.7719,0.630981,0,0,0,0,0,0,0,-1,650,1149,-35.7719,-0.631011
-567,-125,-35.8431,0.868042,0,0,0,0,0,0,0,-1,657,1149,-35.8431,-0.868077
-560,-125,-35.8536,0.973877,0.0012015,-0.000532847,-0.000246741,0.00123592,-0.000567267,-0.138604,0.00106466,0.0372346,664,1149,-35.8536,-0.973919
-553,-125,-35.8344,0.953613,0.00096659,-0.00034418,-0.000326611,0.00104346,-0.000421055,-0.231164,0.000870622,0.0397906,671,1149,-35.8344,-0.953639
-546,-125,-35.9017,1.1416,0.000647746,-0.000169772,-0.000442541,0.000841421,-0.000363447,-0.41253,0.000713643,0.0423134,678,1149,-35.9017,-1.1416
-539,-125,-35.8801,0.786133,0.00120511,9.35378e-05,-2.21359e-06,0.00120512,9.35335e-05,-0.00199139,0.000774118,0.0421785,685,1149,-35.8801,-0.78614
-532,-125,-35.8627,0.79834,0.00239204,0.000113957,0.000761503,0.00262315,-0.000117149,0.294651,0.00178909,0.0396897,692,1149,-35.8627,-0.79833
-525,-125,-35.8521,0.950928,0.00356252,0.000136506,0.00149553,0.00412349,-0.00042447,0.35886,0.00290085,0.0411069,699,1149,-35.8521,-0.950895
-518,-125,0,0,0,0,0,0,0,0,0,-1,706,1149,0,0
-511,-125,0,0,0,0,0,0,0,0,0,-1,713,1149,0,0
-504,-125,0,0,0,0,0,0,0,0,0,-1,720,1149,0,0
-497,-125,0,0,0,0,0,0,0,0,0,-1,727,1149,0,0
-490,-125,0,0,0,0,0,0,0,0,0,-1,734,1149,0,0
-483,-125,0,0,0,0,0,0,0,0,0,-1,741,1149,0,0
-476,-125,0,0,0,0,0,0,0,0,0,-1,748,1149,0,0
-469,-125,0,0,0,0,0,0,0,0,0,-1,755,1149,0,0
-462,-125,0,0,0,0,0,0,0,0,0,-1,762,1149,0,0
-455,-125,0,0,0,0,0,0,0,0,0,-1,769,1149,0,0
-448,-125,0,0,0,0,0,0,0,0,0,-1,776,1149,0,0
-441,-125,0,0,0,0,0,0,0,0,0,-1,783,1149,0,0
-434,-125,0,0,0,0,0,0,0,0,0,-1,790,1149,0,0
-427,-125,0,0,0,0,0,0,0,0,0,-1,797,1149,0,0
-420,-125,0,0,0,0,0,0,0,0,0,-1,804,1149,0,0
-413,-125,0,0,0,0,0,0,0,0,0,-1,811,1149,0,0
-406,-125,0,0,0,0,0,0,0,0,0,-1,818,1149,0,0
-399,-125,0,0,0,0,0,0,0,0,0,-1,825,1149,0,0
-392,-125,0,0,0,0,0,0,0,0,0,-1,832,1149,0,0
-385,-125,0,0,0,0,0,0,0,0,0,-1,839,1149,0,0
-378,-125,0,0,0,0,0,0,0,0,0,-1,846,1149,0,0
-371,-125,0,0,0,0,0,0,0,0,0,-1,853,1149,0,0
-364,-125,0,0,0,0,0,0,0,0,0,-1,860,1149,0,0
-357,-125,0,0,0,0,0,0,0,0,0,-1,867,1149,0,0
-350,-125,0,0,0,0,0,0,0,0,0,-1,874,1149,0,0
-343,-125,0,0,0,0,0,0,0,0,0,-1,881,1149,0,0
-336,-125,0,0,0,0,0,0,0,0,0,-1,888,1149,0,0
-329,-125,0,0,0,0,0,0,0,0,0,-1,895,1149,0,0
-322,-125,0,0,0,0,0,0,0,0,0,-1,902,1149,0,0
-315,-125,0,0,0,0,0,0,0,0,0,-1,909,1149,0,0
-308,-125,0,0,0,0,0,0,0,0,0,-1,916,1149,0,0
-301,-125,0,0,0,0,0,0,0,0,0,-1,923,1149,0,0
-294,-125,0,0,0,0,0,0,0,0,0,-1,930,1149,0,0
-287,-125,0,0,0,0,0,0,0,0,0,-1,937,1149,0,0
-280,-125,0,0,0,0,0,0,0,0,0,-1,944,1149,0,0
-273,-125,0,0,0,0,0,0,0,0,0,-1,951,1149,0,0
-266,-125,0,0,0,0,0,0,0,0,0,-1,958,1149,0,0
-259,-125,0,0,0,0,0,0,0,0,0,-1,965,1149,0,0
-252,-125,0,0,0,0,0,0,0,0,0,-1,972,1149,0,0
-245,-125,0,0,0,0,0,0,0,0,0,-1,979,1149,0,0
-238,-125,0,0,0,0,0,0,0,0,0,-1,986,1149,0,0
-231,-125,0,0,0,0,0,0,0,0,0,-1,993,1149,0,0
-224,-125,0,0,0,0,0,0,0,0,0,-1,1000,1149,0,0
-217,-125,0,0,0,0,0,0,0,0,0,-1,1007,1149,0,0
-210,-125,0,0,0,0,0,0,0,0,0,-1,1014,1149,0,0
-203,-125,0,0,0,0,0,0,0,0,0,-1,1021,1149,0,0
-196,-125,0,0,0,0,0,0,0,0,0,-1,1028,1149,0,0
-189,-125,0,0,0,0,0,0,0,0,0,-1,1035,1149,0,0
-182,-125,0,0,0,0,0,0,0,0,0,-1,1042,1149,0,0
-175,-125,0,0,0,0,0,0,0,0,0,-1,1049,1149,0,0
-168,-125,0,0,0,0,0,0,0,0,0,-1,1056,1149,0,0
-161,-125,0,0,0,0,0,0,0,0,0,-1,1063,1149,0,0
-154,-125,0,0,0,0,0,0,0,0,0,-1,1070,1149,0,0
-147,-125,0,0,0,0,0,0,0,0,0,-1,1077,1149,0,0
-140,-125,0,0,0,0,0,0,0,0,0,-1,1084,1149,0,0
-133,-125,0,0,0,0,0,0,0,0,0,-1,1091,1149,0,0
-126,-125,0,0,0,0,0,0,0,0,0,-1,1098,1149,0,0
-119,-125,0,0,0,0,0,0,0,0,0,-1,1105,1149,0,0
-112,-125,0,0,0,0,0,0,0,0,0,-1,1112,1149,0,0
-105,-125,0,0,0,0,0,0,0,0,0,-1,1119,1149,0,0
-98,-125,0,0,0,0,0,0,0,0,0,-1,1126,1149,0,0
-91,-125,0,0,0,0,0,0,0,0,0,-1,1133,1149,0,0
-84,-125,0,0,0,0,0,0,0,0,0,-1,1140,1149,0,0
-77,-125,0,0,0,0,0,0,0,0,0,-1,1147,1149,0,0
-70,-125,0,0,0,0,0,0,0,0,0,-1,1154,1149,0,0
-63,-125,0,0,0,0,0,0,0,0,0,-1,1161,1149,0,0
-56,-125,0,0,0,0,0,0,0,0,0,-1,1168,1149,0,0
-49,-125,0,0,0,0,0,0,0,0,0,-1,1175,1149,0,0
-42,-125,0,0,0,0,0,0,0,0,0,-1,1182,1149,0,0
-35,-125,0,0,0,0,0,0,0,0,0,-1,1189,1149,0,0
-28,-125,0,0,0,0,0,0,0,0,0,-1,1196,1149,0,0
-21,-125,0,0,0,0,0,0,0,0,0,-1,1203,1149,0,0
-14,-125,0,0,0,0,0,0,0,0,0,-1,1210,1149,0,0
-7,-125,0,0,0,0,0,0,0,0,0,-1,1217,1149,0,0
0,-125,0,0,0,0,0,0,0,0,0,-1,1224,1149,0,0
7,-125,0,0,0,0,0,0,0,0,0,-1,1231,1149,0,0
14,-125,0,0,0,0,0,0,0,0,0,-1,1238,1149,0,0
21,-125,0,0,0,0,0,0,0,0,0,-1,1245,1149,0,0
28,-125,0,0,0,0,0,0,0,0,0,-1,1252,1149,0,0
35,-125,0,0,0,0,0,0,0,0,0,-1,1259,1149,0,0
42,-125,0,0,0,0,0,0,0,0,0,-1,1266,1149,0,0
49,-125,0,0,0,0,0,0,0,0,0,-1,1273,1149,0,0
56,-125,0,0,0,0,0,0,0,0,0,-1,1280,1149,0,0
63,-125,0,0,0,0,0,0,0,0,0,-1,1287,1149,0,0
70,-125,0,0,0,0,0,0,0,0,0,-1,1294,1149,0,0
77,-125,0,0,0,0,0,0,0,0,0,-1,1301,1149,0,0
84,-125,0,0,0,0,0,0,0,0,0,-1,1308,1149,0,0
91,-125,0,0,0,0,0,0,0,0,0,-1,1315,1149,0,0
98,-125,0,0,0,0,0,0,0,0,0,-1,1322,1149,0,0
105,-125,0,0,0,0,0,0,0,0,0,-1,1329,1149,0,0
112,-125,0,0,0,0,0,0,0,0,0,-1,1336,1149,0,0
119,-125,0,0,0,0,0,0,0,0,0,-1,1343,1149,0,0
126,-125,0,0,0,0,0,0,0,0,0,-1,1350,1149,0,0
133,-125,0,0,0,0,0,0,0,0,0,-1,1357,1149,0,0
140,-125,0,0,0,0,0,0,0,0,0,-1,1364,1149,0,0
147,-125,0,0,0,0,0,0,0,0,0,-1,1371,1149,0,0
154,-125,0,0,0,0,0,0,0,0,0,-1,1378,1149,0,0
161,-125,0,0,0,0,0,0,0,0,0,-1,1385,1149,0,0
168,-125,0,0,0,0,0,0,0,0,0,-1,1392,1149,0,0
175,-125,0,0,0,0,0,0,0,0,0,-1,1399,1149,0,0
182,-125,0,0,0,0,0,0,0,0,0,-1,1406,1149,0,0
189,-125,0,0,0,0,0,0,0,0,0,-1,1413,1149,0,0
196,-125,0,0,0,0,0,0,0,0,0,-1,1420,1149,0,0
203,-125,0,0,0,0,0,0,0,0,0,-1,1427,1149,0,0
210,-125,0,0,0,0,0,0,0,0,0,-1,1434,1149,0,0
217,-125,0,0,0,0,0,0,0,0,0,-1,1441,1149,0,0
224,-125,0,0,0,0,0,0,0,0,0,-1,1448,1149,0,0
231,-125,0,0,0,0,0,0,0,0,0,-1,1455,1149,0,0
238,-125,0,0,0,0,0,0,0,0,0,-1,1462,1149,0,0
245,-125,0,0,0,0,0,0,0,0,0,-1,1469,1149,0,0
252,-125,0,0,0,0,0,0,0,0,0,-1,1476,1149,0,0
259,-125,0,0,0,0,0,0,0,0,0,-1,1483,1149,0,0
266,-125,0,0,0,0,0,0,0,0,0,-1,1490,1149,0,0
273,-125,0,0,0,0,0,0,0,0,0,-1,1497,1149,0,0
280,-125,0,0,0,0,0,0,0,0,0,-1,1504,1149,0,0
287,-125,0,0,0,0,0,0,0,0,0,-1,1511,1149,0,0
294,-125,0,0,0,0,0,0,0,0,0,-1,1518,1149,0,0
301,-125,0,0,0,0,0,0,0,0,0,-1,1525,1149,0,0
308,-125,0,0,0,0,0,0,0,0,0,-1,1532,1149,0,0
315,-125,0,0,0,0,0,0,0,0,0,-1,1539,1149,0,0
322,-125,0,0,0,0,0,0,0,0,0,-1,1546,1149,0,0
329,-125,0,0,0,0,0,0,0,0,0,-1,1553,1149,0,0
336,-125,0,0,0,0,0,0,0,0,0,-1,1560,1149,0,0
343,-125,0,0,0,0,0,0,0,0,0,-1,1567,1149,0,0
350,-125,0,0,0,0,0,0,0,0,0,-1,1574,1149,0,0
357,-125,0,0,0,0,0,0,0,0,0,-1,1581,1149,0,0
364,-125,0,0,0,0,0,0,0,0,0,-1,1588,1149,0,0
371,-125,0,0,0,0,0,0,0,0,0,-1,1595,1149,0,0
378,-125,0,0,0,0,0,0,0,0,0,-1,1602,1149,0,0
385,-125,0,0,0,0,0,0,0,0,0,-1,1609,1149,0,0
392,-125,0,0,0,0,0,0,0,0,0,-1,1616,1149,0,0
399,-125,0,0,0,0,0,0,0,0,0,-1,1623,1149,0,0
406,-125,0,0,0,0,0,0,0,0,0,-1,1630,1149,0,0
413,-125,0,0,0,0,0,0,0,0,0,-1,1637,1149,0,0
420,-125,0,0,0,0,0,0,0,0,0,-1,1644,1149,0,0
427,-125,0,0,0,0,0,0,0,0,0,-1,1651,1149,0,0
434,-125,0,0,0,0,0,0,0,0,0,-1,1658,1149,0,0
441,-125,0,0,0,0,0,0,0,0,0,-1,1665,1149,0,0
448,-125,0,0,0,0,0,0,0,0,0,-1,1672,1149,0,0
455,-125,0,0,0,0,0,0,0,0,0,-1,1679,1149,0,0
462,-125,0,0,0,0,0,0,0,0,0,-1,1686,1149,0,0
469,-125,0,0,0,0,0,0,0,0,0,-1,1693,1149,0,0
476,-125,0,0,0,0,0,0,0,0,0,-1,1700,1149,0,0
483,-125,0,0,0,0,0,0,0,0,0,-1,1707,1149,0,0
490,-125,0,0,0,0,0,0,0,0,0,-1,1714,1149,0,0
497,-125,0,0,0,0,0,0,0,0,0,-1,1721,1149,0,0
504,-125,0,0,0,0,0,0,0,0,0,-1,1728,1149,0,0
511,-125,0,0,0,0,0,0,0,0,0,-1,1735,1149,0,0
518,-125,0,0,0,0,0,0,0,0,0,-1,1742,1149,0,0
525,-125,0,0,0,0,0,0,0,0,0,-1,1749,1149,0,0
532,-125,0,0,0,0,0,0,0,0,0,-1,1756,1149,0,0
539,-125,0,0,0,0,0,0,0,0,0,-1,1763,1149,0,0
546,-125,0,0,0,0,0,0,0,0,0,-1,1770,1149,0,0
553,-125,0,0,0,0,0,0,0,0,0,-1,1777,1149,0,0
560,-125,0,0,0,0,0,0,0,0,0,-1,1784,1149,0,0
567,-125,0,0,0,0,0,0,0,0,0,-1,1791,1149,0,0
574,-125,0,0,0,0,0,0,0,0,0,-1,1798,1149,0,0
581,-125,0,0,0,0,0,0,0,0,0,-1,1805,1149,0,0
588,-125,0,0,0,0,0,0,0,0,0,-1,1812,1149,0,0
595,-125,0,0,0,0,0,0,0,0,0,-1,1819,1149,0,0
602,-125,0,0,0,0,0,0,0,0,0,-1,1826,1149,0,0
609,-125,0,0,0,0,0,0,0,0,0,-1,1833,1149,0,0
616,-125,0,0,0,0,0,0,0,0,0,-1,1840,1149,0,0
623,-125,0,0,0,0,0,0,0,0,0,-1,1847,1149,0,0
630,-125,0,0,0,0,0,0,0,0,0,-1,1854,1149,0,0
637,-125,0,0,0,0,0,0,0,0,0,-1,1861,1149,0,0
644,-125,48.4585,2.71985,0.00315919,0.000397955,0.000668657,0.00331259,0.000244555,0.225512,0.00213155,0.0386418,1868,1149,48.4585,-2.7198
651,-125,48.381,2.58704,0.00246856,0.00033799,0.000750746,0.00270652,0.000100028,0.30695,0.00177194,0.0367197,1875,1149,48.381,-2.58705
658,-125,48.271,2.49573,0.00204099,0.00026229,0.000707239,0.00228792,1.53607e-05,0.335914,0.00152018,0.0406585,1882,1149,48.271,-2.49576
665,-125,48.2098,2.60986,0.00158967,0.000205852,0.000588014,0.00180578,-1.02576e-05,0.352201,0.00120729,0.0411626,1889,1149,48.2098,-2.60981
672,-125,48.1816,2.65564,0.00117201,9.69961e-05,0.000477779,0.00135366,-8.46536e-05,0.363318,0.000931941,0.0428317,1896,1149,48.1816,-2.6557
679,-125,48.2434,2.6344,0.000624229,-7.41607e-05,0.000455605,0.000849066,-0.000298998,0.458427,0.000687728,0.040157,1903,1149,48.2434,-2.63445
686,-125,48.3284,2.72034,0.000296872,-0.000250992,0.000398818,0.000506773,-0.000460893,0.484472,0.000558892,0.0361725,1910,1149,48.3284,-2.72038
693,-125,48.2958,2.67993,0.000165686,-0.000317335,0.000364641,0.000361543,-0.000513192,0.492903,0.000507552,0.0330694,1917,1149,48.2958,-2.67989
700,-125,48.3911,2.67542,8.28526e-06,-0.000431085,0.00045242,0.000291537,-0.000714336,0.559377,0.000597597,0.0179188,1924,1149,48.3911,-2.67544
707,-125,48.5093,2.71875,0,0,0,0,0,0,0,-1,1931,1149,48.5093,-2.7187
714,-125,43.9121,7.70593,0,0,0,0,0,0,0,-1,1938,1149,43.9122,-7.7059
721,-125,43.8639,7.34155,-0.000842339,-0.000349911,0.000848092,0.000286985,-0.00147923,0.926672,0.00109443,0.0285091,1945,1149,43.8639,-7.34158
728,-125,43.8337,7.02026,-0.00110614,-0.000276434,0.00111531,0.000498679,-0.00188125,0.96345,0.00144928,0.0203438,1952,1149,43.8338,-7.02022
735,-125,43.8375,6.67029,-0.00139885,-0.000181936,0.00134675,0.000687427,-0.00226821,0.997571,0.00178594,0.0213825,1959,1149,43.8375,-6.67024
742,-125,43.851,6.27844,-0.00174083,0.000123573,0.00174271,0.00116774,-0.002785,1.03099,0.00234492,0.0270941,1966,1149,43.8509,-6.27847
749,-125,43.7938,5.95032,-0.00225013,0.000926615,0.00198827,0.00188307,-0.00320659,1.12242,0.00297145,0.0272891,1973,1149,43.7939,-5.95035
756,-125,43.7655,5.54565,-0.00300915,0.00263836,0.00119948,0.00288256,-0.00325335,1.36995,0.00354472,0.0230282,1980,1149,43.7655,-5.54567
763,-125,43.7653,5.17883,-0.00366186,0.00491164,-3.4136e-05,0.00491177,-0.003662,-1.56681,0.00496757,0.0122782,1987,1149,43.7652,-5.17879
770,-125,43.7396,4.82874,-0.00433847,0.00775033,-0.00218769,0.00813406,-0.00472219,-1.39716,0.00750918,0.0151165,1994,1149,43.7397,-4.82868
777,-125,43.6566,4.57239,-0.00488518,0.0112493,-0.00554454,0.0129709,-0.00660683,-1.26972,0.0115006,0.03119,2001,1149,43.6566,-4.57237
784,-125,43.5852,4.2572,-0.00527591,0.015729,-0.0107327,0.020243,-0.00978982,-1.17268,0.0176861,0.0471723,2008,1149,43.5853,-4.25718
791,-125,43.5718,3.95471,0,0,0,0,0,0,0,-1,2015,1149,43.5717,-3.95473
798,-125,42.4683,5.10437,0,0,0,0,0,0,0,-1,2022,1149,42.4684,-5.10431
805,-125,41.8689,5.61682,0,0,0,0,0,0,0,-1,2029,1149,41.869,-5.61685
812,-125,43.7236,0.0098877,0,0,0,0,0,0,0,-1,2036,1149,43.7237,-0.00986534
-700,-132,0,0,0,0,0,0,0,0,0,-1,524,1156,0,0
-693,-132,-33.3091,-2.25134,0,0,0,0,0,0,0,-1,531,1156,-33.3091,2.25132
-686,-132,-32.8554,-2.25806,0,0,0,0,0,0,0,-1,538,1156,-32.8554,2.25812
-679,-132,-32.3954,-1.46106,0,0,0,0,0,0,0,-1,545,1156,-32.3955,1.461
-672,-132,-32.7257,1.75854,0,0,0,0,0,0,0,-1,552,1156,-32.7257,-1.75856
-665,-132,-33.0979,1.43738,0,0,0,0,0,0,0,-1,559,1156,-33.0979,-1.4374
-658,-132,-30.9051,1.41406,0,0,0,0,0,0,0,-1,566,1156,-30.9051,-1.41402
-651,-132,-30.7419,1.56567,-0.00948857,0.0163454,-0.00130279,0.0164109,-0.0095541,-1.52054,0.0151642,0.0409429,573,1156,-30.7419,-1.56565
-644,-132,-30.6237,1.68213,-0.00617603,0.0122615,-0.000592669,0.0122805,-0.00619506,-1.5387,0.010858,0.0221529,580,1156,-30.6237,-1.68211
-637,-132,-30.6568,2.07483,-0.00369948,0.00849876,-0.000268199,0.00850465,-0.00370537,-1.54882,0.0072287,0.0112449,587,1156,-30.6568,-2.07482
-630,-132,-30.6555,2.45959,-0.00172026,0.00547084,-9.48518e-08,0.00547084,-0.00172026,-1.57078,0.00433593,0.00986055,594,1156,-30.6554,-2.45955
-623,-132,-30.6827,2.9093,-0.00026587,0.00250586,-0.00023219,0.00252518,-0.000285186,-1.4878,0.00178612,0.0158684,601,1156,-30.6828,-2.90933
-616,-132,-30.6982,3.27454,0.000568914,0.000502139,-0.00032561,0.000862844,0.000208209,-0.734308,0.000519914,0.0288057,608,1156,-30.6982,-3.27451
-609,-132,-30.7642,3.83813,0,0,0,0,0,0,0,-1,615,1156,-30.7642,-3.83817
-602,-132,-30.7349,4.05652,0.000716092,0.000241153,-0.000781751,0.00129565,-0.0003384,-0.637944,0.000995916,0.0299593,622,1156,-30.7349,-4.05649
-595,-132,-30.8441,4.49573,0.000263853,-0.000464009,-0.000726602,0.00071257,-0.000912726,-0.553228,0.000940734,0.0426214,629,1156,-30.8441,-4.49571
-588,-132,-30.8265,4.98267,0,0,0,0,0,0,0,-1,636,1156,-30.8265,-4.98265
-581,-132,-30.7039,5.49646,0,0,0,0,0,0,0,-1,643,1156,-30.7039,-5.49651
-574,-132,-33.2071,2.86963,0,0,0,0,0,0,0,-1,650,1156,-33.2071,-2.86963
-567,-132,-35.7988,0.761597,0,0,0,0,0,0,0,-1,657,1156,-35.7988,-0.761591
-560,-132,-35.8434,0.872803,0.000855653,-0.000466234,-0.000421446,0.000978586,-0.000589167,-0.28382,0.000914403,0.0344095,664,1156,-35.8434,-0.872835
-553,-132,-35.9007,0.547241,0.00065546,-0.000296469,-0.0004935,0.000865123,-0.000506132,-0.401742,0.000800687,0.0370302,671,1156,-35.9007,-0.54727
-546,-132,-36.036,1.302,0,0,0,0,0,0,0,-1,678,1156,-36.036,-1.30197
-539,-132,-35.8532,0.646362,0.000995082,0.000148169,9.95712e-05,0.00100663,0.00013662,0.115472,0.000630501,0.0424699,685,1156,-35.8532,-0.646327
-532,-132,-35.7505,0.697998,0.00214156,0.000262678,0.00117632,0.00270753,-0.000303295,0.448446,0.00191415,0.0421583,692,1156,-35.7506,-0.698039
-525,-132,-35.8154,0.911743,0.00349256,0.000485713,0.00224483,0.0046909,-0.000712626,0.490338,0.00338987,0.0430459,699,1156,-35.8154,-0.911738
-518,-132,0,0,0,0,0,0,0,0,0,-1,706,1156,0,0
-511,-132,0,0,0,0,0,0,0,0,0,-1,713,1156,0,0
-504,-132,0,0,0,0,0,0,0,0,0,-1,720,1156,0,0
-497,-132,0,0,0,0,0,0,0,0,0,-1,727,1156,0,0
-490,-132,0,0,0,0,0,0,0,0,0,-1,734,1156,0,0
-483,-132,0,0,0,0,0,0,0,0,0,-1,741,1156,0,0
-476,-132,0,0,0,0,0,0,0,0,0,-1,748,1156,0,0
-469,-132,0,0,0,0,0,0,0,0,0,-1,755,1156,0,0
-462,-132,0,0,0,0,0,0,0,0,0,-1,762,1156,0,0
-455,-132,0,0,0,0,0,0,0,0,0,-1,769,1156,0,0
-448,-132,0,0,0,0,0,0,0,0,0,-1,776,1156,0,0
-441,-132,0,0,0,0,0,0,0,0,0,-1,783,1156,0,0
-434,-132,0,0,0,0,0,0,0,0,0,-1,790,1156,0,0
-427,-132,0,0,0,0,0,0,0,0,0,-1,797,1156,0,0
-420,-132,0,0,0,0,0,0,0,0,0,-1,804,1156,0,0
-413,-132,0,0,0,0,0,0,0,0,0,-1,811,1156,0,0
-406,-132,0,0,0,0,0,0,0,0,0,-1,818,1156,0,0
-399,-132,0,0,0,0,0,0,0,0,0,-1,825,1156,0,0
-392,-132,0,0,0,0,0,0,0,0,0,-1,832,1156,0,0
-385,-132,0,0,0,0,0,0,0,0,0,-1,839,1156,0,0
-378,-132,0,0,0,0,0,0,0,0,0,-1,846,1156,0,0
-371,-132,0,0,0,0,0,0,0,0,0,-1,853,1156,0,0
-364,-132,0,0,0,0,0,0,0,0,0,-1,860,1156,0,0
-357,-132,0,0,0,0,0,0,0,0,0,-1,867,1156,0,0
-350,-132,0,0,0,0,0,0,0,0,0,-1,874,1156,0,0
-343,-132,0,0,0,0,0,0,0,0,0,-1,881,1156,0,0
-336,-132,0,0,0,0,0,0,0,0,0,-1,888,1156,0,0
-329,-132,0,0,0,0,0,0,0,0,0,-1,895,1156,0,0
-322,-132,0,0,0,0,0,0,0,0,0,-1,902,1156,0,0
-315,-132,0,0,0,0,0,0,0,0,0,-1,909,1156,0,0
-308,-132,0,0,0,0,0,0,0,0,0,-1,916,1156,0,0
-301,-132,0,0,0,0,0,0,0,0,0,-1,923,1156,0,0
-294,-132,0,0,0,0,0,0,0,0,0,-1,930,1156,0,0
-287,-132,0,0,0,0,0,0,0,0,0,-1,937,1156,0,0
-280,-132,0,0,0,0,0,0,0,0,0,-1,944,1156,0,0
-273,-132,0,0,0,0,0,0,0,0,0,-1,951,1156,0,0
-266,-132,0,0,0,0,0,0,0,0,0,-1,958,1156,0,0
-259,-132,0,0,0,0,0,0,0,0,0,-1,965,1156,0,0
-252,-132,0,0,0,0,0,0,0,0,0,-1,972,1156,0,0
-245,-132,0,0,0,0,0,0,0,0,0,-1,979,1156,0,0
-238,-132,0,0,0,0,0,0,0,0,0,-1,986,1156,0,0
-231,-132,0,0,0,0,0,0,0,0,0,-1,993,1156,0,0
-224,-132,0,0,0,0,0,0,0,0,0,-1,1000,1156,0,0
-217,-132,0,0,0,0,0,0,0,0,0,-1,1007,1156,0,0
-210,-132,0,0,0,0,0,0,0,0,0,-1,1014,1156,0,0
-203,-132,0,0,0,0,0,0,0,0,0,-1,1021,1156,0,0
-196,-132,0,0,0,0,0,0,0,0,0,-1,1028,1156,0,0
-189,-132,0,0,0,0,0,0,0,0,0,-1,1035,1156,0,0
-182,-132,0,0,0,0,0,0,0,0,0,-1,1042,1156,0,0
-175,-132,0,0,0,0,0,0,0,0,0,-1,1049,1156,0,0
-168,-132,0,0,0,0,0,0,0,0,0,-1,1056,1156,0,0
-161,-132,0,0,0,0,0,0,0,0,0,-1,1063,1156,0,0
-154,-132,0,0,0,0,0,0,0,0,0,-1,1070,1156,0,0
-147,-132,0,0,0,0,0,0,0,0,0,-1,1077,1156,0,0
-140,-132,0,0,0,0,0,0,0,0,0,-1,1084,1156,0,0
-133,-132,0,0,0,0,0,0,0,0,0,-1,1091,1156,0,0
-126,-132,0,0,0,0,0,0,0,0,0,-1,1098,1156,0,0
-119,-132,0,0,0,0,0,0,0,0,0,-1,1105,1156,0,0
-112,-132,0,0,0,0,0,0,0,0,0,-1,1112,1156,0,0
-105,-132,0,0,0,0,0,0,0,0,0,-1,1119,1156,0,0
-98,-132,0,0,0,0,0,0,0,0,0,-1,1126,1156,0,0
-91,-132,0,0,0,0,0,0,0,0,0,-1,1133,1156,0,0
-84,-132,0,0,0,0,0,0,0,0,0,-1,1140,1156,0,0
-77,-132,0,0,0,0,0,0,0,0,0,-1,1147,1156,0,0
-70,-132,0,0,0,0,0,0,0,0,0,-1,1154,1156,0,0
-63,-132,0,0,0,0,0,0,0,0,0,-1,1161,1156,0,0
-56,-132,0,0,0,0,0,0,0,0,0,-1,1168,1156,0,0
-49,-132,0,0,0,0,0,0,0,0,0,-1,1175,1156,0,0
-42,-132,0,0,0,0,0,0,0,0,0,-1,1182,1156,0,0
-35,-132,0,0,0,0,0,0,0,0,0,-1,1189,1156,0,0
-28,-132,0,0,0,0,0,0,0,0,0,-1,1196,1156,0,0
-21,-132,0,0,0,0,0,0,0,0,0,-1,1203,1156,0,0
-14,-132,0,0,0,0,0,0,0,0,0,-1,1210,1156,0,0
-7,-132,0,0,0,0,0,0,0,0,0,-1,1217,1156,0,0
0,-132,0,0,0,0,0,0,0,0,0,-1,1224,1156,0,0
7,-132,0,0,0,0,0,0,0,0,0,-1,1231,1156,0,0
14,-132,0,0,0,0,0,0,0,0,0,-1,1238,1156,0,0
21,-132,0,0,0,0,0,0,0,0,0,-1,1245,1156,0,0
28,-132,0,0,0,0,0,0,0,0,0,-1,1252,1156,0,0
35,-132,0,0,0,0,0,0,0,0,0,-1,1259,1156,0,0
42,-132,0,0,0,0,0,0,0,0,0,-1,1266,1156,0,0
49,-132,0,0,0,0,0,0,0,0,0,-1,1273,1156,0,0
56,-132,0,0,0,0,0,0,0,0,0,-1,1280,1156,0,0
63,-132,0,0,0,0,0,0,0,0,0,-1,1287,1156,0,0
70,-132,0,0,0,0,0,0,0,0,0,-1,1294,1156,0,0
77,-132,0,0,0,0,0,0,0,0,0,-1,1301,1156,0,0
84,-132,0,0,0,0,0,0,0,0,0,-1,1308,1156,0,0
91,-132,0,0,0,0,0,0,0,0,0,-1,1315,1156,0,0
98,-132,0,0,0,0,0,0,0,0,0,-1,1322,1156,0,0
105,-132,0,0,0,0,0,0,0,0,0,-1,1329,1156,0,0
112,-132,0,0,0,0,0,0,0,0,0,-1,1336,1156,0,0
119,-132,0,0,0,0,0,0,0,0,0,-1,1343,1156,0,0
126,-132,0,0,0,0,0,0,0,0,0,-1,1350,1156,0,0
133,-132,0,0,0,0,0,0,0,0,0,-1,1357,1156,0,0
140,-132,0,0,0,0,0,0,0,0,0,-1,1364,1156,0,0
147,-132,0,0,0,0,0,0,0,0,0,-1,1371,1156,0,0
154,-132,0,0,0,0,0,0,0,0,0,-1,1378,1156,0,0
161,-132,0,0,0,0,0,0,0,0,0,-1,1385,1156,0,0
168,-132,0,0,0,0,0,0,0,0,0,-1,1392,1156,0,0
175,-132,0,0,0,0,0,0,0,0,0,-1,1399,1156,0,0
182,-132,0,0,0,0,0,0,0,0,0,-1,1406,1156,0,0
189,-132,0,0,0,0,0,0,0,0,0,-1,1413,1156,0,0
196,-132,0,0,0,0,0,0,0,0,0,-1,1420,1156,0,0
203,-132,0,0,0,0,0,0,0,0,0,-1,1427,1156,0,0
210,-132,0,0,0,0,0,0,0,0,0,-1,1434,1156,0,0
217,-132,0,0,0,0,0,0,0,0,0,-1,1441,1156,0,0
224,-132,0,0,0,0,0,0,0,0,0,-1,1448,1156,0,0
231,-132,0,0,0,0,0,0,0,0,0,-1,1455,1156,0,0
238,-132,0,0,0,0,0,0,0,0,0,-1,1462,1156,0,0
245,-132,0,0,0,0,0,0,0,0,0,-1,1469,1156,0,0
252,-132,0,0,0,0,0,0,0,0,0,-1,1476,1156,0,0
259,-132,0,0,0,0,0,0,0,0,0,-1,1483,1156,0,0
266,-132,0,0,0,0,0,0,0,0,0,-1,1490,1156,0,0
273,-132,0,0,0,0,0,0,0,0,0,-1,1497,1156,0,0
280,-132,0,0,0,0,0,0,0,0,0,-1,1504,1156,0,0
287,-132,0,0,0,0,0,0,0,0,0,-1,1511,1156,0,0
294,-132,0,0,0,0,0,0,0,0,0,-1,1518,1156,0,0
301,-132,0,0,0,0,0,0,0,0,0,-1,1525,1156,0,0
308,-132,0,0,0,0,0,0,0,0,0,-1,1532,1156,0,0
315,-132,0,0,0,0,0,0,0,0,0,-1,1539,1156,0,0
322,-132,0,0,0,0,0,0,0,0,0,-1,1546,1156,0,0
329,-132,0,0,0,0,0,0,0,0,0,-1,1553,1156,0,0
336,-132,0,0,0,0,0,0,0,0,0,-1,1560,1156,0,0
343,-132,0,0,0,0,0,0,0,0,0,-1,1567,1156,0,0
350,-132,0,0,0,0,0,0,0,0,0,-1,1574,1156,0,0
357,-132,0,0,0,0,0,0,0,0,0,-1,1581,1156,0,0
364,-132,0,0,0,0,0,0,0,0,0,-1,1588,1156,0,0
371,-132,0,0,0,0,0,0,0,0,0,-1,1595,1156,0,0
378,-132,0,0,0,0,0,0,0,0,0,-1,1602,1156,0,0
385,-132,0,0,0,0,0,0,0,0,0,-1,1609,1156,0,0
392,-132,0,0,0,0,0,0,0,0,0,-1,1616,1156,0,0
399,-132,0,0,0,0,0,0,0,0,0,-1,1623,1156,0,0
406,-132,0,0,0,0,0,0,0,0,0,-1,1630,1156,0,0
413,-132,0,0,0,0,0,0,0,0,0,-1,1637,1156,0,0
420,-132,0,0,0,0,0,0,0,0,0,-1,1644,1156,0,0
427,-132,0,0,0,0,0,0,0,0,0,-1,1651,1156,0,0
434,-132,0,0,0,0,0,0,0,0,0,-1,1658,1156,0,0
441,-132,0,0,0,0,0,0,0,0,0,-1,1665,1156,0,0
448,-132,0,0,0,0,0,0,0,0,0,-1,1672,1156,0,0
455,-132,0,0,0,0,0,0,0,0,0,-1,1679,1156,0,0
462,-132,0,0,0,0,0,0,0,0,0,-1,1686,1156,0,0
469,-132,0,0,0,0,0,0,0,0,0,-1,1693,1156,0,0
476,-132,0,0,0,0,0,0,0,0,0,-1,1700,1156,0,0
483,-132,0,0,0,0,0,0,0,0,0,-1,1707,1156,0,0
490,-132,0,0,0,0,0,0,0,0,0,-1,1714,1156,0,0
497,-132,0,0,0,0,0,0,0,0,0,-1,1721,1156,0,0
504,-132,0,0,0,0,0,0,0,0,0,-1,1728,1156,0,0
511,-132,0,0,0,0,0,0,0,0,0,-1,1735,1156,0,0
518,-132,0,0,0,0,0,0,0,0,0,-1,1742,1156,0,0
525,-132,0,0,0,0,0,0,0,0,0,-1,1749,1156,0,0
532,-132,0,0,0,0,0,0,0,0,0,-1,1756,1156,0,0
539,-132,0,0,0,0,0,0,0,0,0,-1,1763,1156,0,0
546,-132,0,0,0,0,0,0,0,0,0,-1,1770,1156,0,0
553,-132,0,0,0,0,0,0,0,0,0,-1,1777,1156,0,0
560,-132,0,0,0,0,0,0,0,0,0,-1,1784,1156,0,0
567,-132,0,0,0,0,0,0,0,0,0,-1,1791,1156,0,0
574,-132,0,0,0,0,0,0,0,0,0,-1,1798,1156,0,0
581,-132,0,0,0,0,0,0,0,0,0,-1,1805,1156,0,0
588,-132,0,0,0,0,0,0,0,0,0,-1,1812,1156,0,0
595,-132,0,0,0,0,0,0,0,0,0,-1,1819,1156,0,0
602,-132,0,0,0,0,0,0,0,0,0,-1,1826,1156,0,0
609,-132,0,0,0,0,0,0,0,0,0,-1,1833,1156,0,0
616,-132,0,0,0,0,0,0,0,0,0,-1,1840,1156,0,0
623,-132,0,0,0,0,0,0,0,0,0,-1,1847,1156,0,0
630,-132,0,0,0,0,0,0,0,0,0,-1,1854,1156,0,0
637,-132,0,0,0,0,0,0,0,0,0,-1,1861,1156,0,0
644,-132,48.4611,2.54285,0.00206649,0.00019614,0.0010179,0.00251359,-0.000250957,0.413865,0.00176533,0.0393151,1868,1156,48.4611,-2.54279
651,-132,48.4432,2.50232,0.00174394,0.000171604,0.00105564,0.002274,-0.000358452,0.465338,0.00164852,0.0400813,1875,1156,48.4433,-2.50229
658,-132,48.3367,2.51123,0.00158289,0.000174327,0.000941825,0.00205463,-0.000297422,0.464358,0.0014789,0.0407046,1882,1156,48.3367,-2.51125
665,-132,48.2216,2.66687,0.00137306,0.000222635,0.000724288,0.00172276,-0.000127065,0.449809,0.00119312,0.0391475,1889,1156,48.2215,-2.66686
672,-132,48.2078,2.8822,0.00112873,0.000217353,0.000523099,0.00136679,-2.07048e-05,0.42708,0.000918174,0.0394262,1896,1156,48.2077,-2.8822
679,-132,48.3693,2.61462,0.000697446,0.000129782,0.000466136,0.000959364,-0.000132136,0.511928,0.000687865,0.0389788,1903,1156,48.3692,-2.61458
686,-132,48.4291,2.68896,0.000395366,-1.09247e-05,0.000395069,0.000636459,-0.000252017,0.547926,0.000528726,0.0348209,1910,1156,48.429,-2.68891
693,-132,48.3197,2.7179,0.000249953,-4.97809e-05,0.000370315,0.000499577,-0.000299405,0.593122,0.000466093,0.0288254,1917,1156,48.3197,-2.71784
700,-132,48.3876,2.66113,7.32765e-05,-0.0001431,0.00046849,0.000445908,-0.000515731,0.671922,0.00055569,0.0418942,1924,1156,48.3876,-2.66108
707,-132,48.4491,2.60999,0,0,0,0,0,0,0,-1,1931,1156,48.4491,-2.60995
714,-132,43.4377,7.65088,0,0,0,0,0,0,0,-1,1938,1156,43.4377,-7.65092
721,-132,43.5432,7.33374,-0.000780279,-3.99344e-05,0.000816616,0.000486492,-0.00130671,0.998196,0.0010708,0.0346202,1945,1156,43.5432,-7.3337
728,-132,43.4675,7.02295,-0.00100748,-6.59197e-05,0.00111006,0.000669068,-0.00174247,0.985953,0.00143754,0.0256848,1952,1156,43.4676,-7.02293
735,-132,43.3936,6.69983,-0.0012719,-1.84679e-05,0.00134672,0.000840219,-0.00213059,1.00318,0.00176831,0.0261249,1959,1156,43.3935,-6.69989
742,-132,43.423,6.2345,-0.00161054,0.000163125,0.00177536,0.00126082,-0.00270824,1.01703,0.00234178,0.0215649,1966,1156,43.423,-6.23444
749,-132,43.4049,5.88342,-0.00222713,0.000841341,0.00213722,0.00193799,-0.00332379,1.09671,0.00307281,0.0252828,1973,1156,43.405,-5.88338
756,-132,43.3674,5.49719,-0.00306968,0.0025182,0.00132734,0.00281747,-0.00336895,1.34904,0.00357646,0.024553,1980,1156,43.3674,-5.49725
763,-132,43.3707,5.18274,-0.00386554,0.00473258,5.30339e-05,0.00473291,-0.00386586,1.56463,0.00497291,0.0138645,1987,1156,43.3707,-5.18271
770,-132,43.3822,4.84045,-0.00474014,0.00750067,-0.0021706,0.00787417,-0.00511364,-1.40039,0.00755477,0.0137476,1994,1156,43.3822,-4.84051
777,-132,43.3259,4.46826,-0.00558418,0.0109483,-0.00567321,0.0127078,-0.00734371,-1.27006,0.011714,0.0246121,2001,1156,43.326,-4.46821
784,-132,43.0767,4.1958,-0.00639733,0.0153929,-0.0111051,0.020055,-0.0110594,-1.17332,0.0182124,0.0448688,2008,1156,43.0766,-4.19575
791,-132,42.5386,4.3999,-0.00686605,0.0212943,-0.0195382,0.0312972,-0.0168689,-1.09762,0.0282216,0.0470237,2015,1156,42.5387,-4.3999
798,-132,41.8647,4.72327,-0.00648576,0.0291292,-0.0321056,0.0480352,-0.0253917,-1.0386,0.0430597,0.0486887,2022,1156,41.8646,-4.72323
805,-132,41.2312,5.10083,0,0,0,0,0,0,0,-1,2029,1156,41.2313,-5.10084
812,-132,43.3916,0.622437,0,0,0,0,0,0,0,-1,2036,1156,43.3916,-0.622461
-700,-139,0,0,0,0,0,0,0,0,0,-1,524,1163,0,0
-693,-139,-32.1373,-1.80371,0,0,0,0,0,0,0,-1,531,1163,-32.1373,1.80374
-686,-139,-31.4435,-1.70032,0,0,0,0,0,0,0,-1,538,1163,-31.4435,1.70036
-679,-139,-31.4196,-1.34766,0,0,0,0,0,0,0,-1,545,1163,-31.4196,1.34768
-672,-139,-31.3029,-1.01843,0,0,0,0,0,0,0,-1,552,1163,-31.3028,1.01846
-665,-139,-29.6364,0.964966,0,0,0,0,0,0,0,-1,559,1163,-29.6364,-0.964984
-658,-139,-30.4607,0.709229,0,0,0,0,0,0,0,-1,566,1163,-30.4607,-0.709169
-651,-139,-30.3276,1.18567,-0.00516392,0.0152598,0.00263251,0.0155937,-0.00549778,1.44465,0.0126336,0.0447507,573,1163,-30.3276,-1.18571
-644,-139,-30.1925,1.66541,-0.00208737,0.0117105,0.00238495,0.0121111,-0.00248797,1.40438,0.00901855,0.0227884,580,1163,-30.1925,-1.66545
-637,-139,-30.2033,2.05127,-0.000262933,0.00835629,0.00171444,0.00868478,-0.00059143,1.38148,0.00599673,0.0121691,587,1163,-30.2033,-2.0513
-630,-139,-30.2181,2.45422,0.000792037,0.00559266,0.00113684,0.00584827,0.000536431,1.34964,0.0037329,0.0100506,594,1163,-30.2181,-2.45426
-623,-139,-30.236,2.8866,0.00104019,0.00272747,9.1201e-05,0.00273239,0.00103528,1.51695,0.0015929,0.0160595,601,1163,-30.236,-2.88662
-616,-139,-30.2556,3.27808,0.000776815,0.000760678,-0.000524074,0.00129288,0.00024461,-0.777701,0.000793061,0.0178952,608,1163,-30.2555,-3.27802
-609,-139,-30.1093,3.70886,0.000283064,-0.000110679,-0.000977783,0.0010836,-0.000911213,-0.686054,0.00115314,0.0409899,615,1163,-30.1093,-3.70885
-602,-139,-30.2614,4.12744,0.000380526,0.000493719,-0.00109485,0.00153344,-0.000659192,-0.811222,0.00129902,0.0363621,622,1163,-30.2614,-4.12744
-595,-139,-30.4191,4.58862,-9.63965e-05,-0.000166692,-0.00101279,0.000881855,-0.00114494,-0.768053,0.00117345,0.0414979,629,1163,-30.4191,-4.58858
-588,-139,-30.6077,4.96948,0,0,0,0,0,0,0,-1,636,1163,-30.6076,-4.96942
-581,-139,-32.5784,3.98743,0,0,0,0,0,0,0,-1,643,1163,-32.5784,-3.9874
-574,-139,-23.0725,2.4043,0,0,0,0,0,0,0,-1,650,1163,-23.0725,-2.40433
-567,-139,-35.9265,1.28381,0,0,0,0,0,0,0,-1,657,1163,-35.9264,-1.28377
-560,-139,-35.8209,0.864502,0,0,0,0,0,0,0,-1,664,1163,-35.8209,-0.864453
-553,-139,-35.715,0.110229,0,0,0,0,0,0,0,-1,671,1163,-35.715,-0.110185
-546,-139,-35.7831,0.667358,0.000227811,4.05075e-06,-0.00072245,0.000846993,-0.000615131,-0.708577,0.000847688,0.0414144,678,1163,-35.7832,-0.667325
-539,-139,-35.8595,0.971802,0.000826793,0.000275403,0.0001264,0.000854388,0.000247808,0.214941,0.000507571,0.0417566,685,1163,-35.8595,-0.971799
-532,-139,-35.7245,0.936646,0.00185939,0.000229648,0.00146656,0.00272226,-0.000633222,0.531819,0.00205864,0.0411251,692,1163,-35.7245,-0.936691
-525,-139,-35.6549,0.977417,0.00317787,0.000370977,0.00279292,0.00490014,-0.00135129,0.552575,0.00379818,0.0420835,699,1163,-35.6549,-0.977378
-518,-139,0,0,0,0,0,0,0,0,0,-1,706,1163,0,0
-511,-139,0,0,0,0,0,0,0,0,0,-1,713,1163,0,0
-504,-139,0,0,0,0,0,0,0,0,0,-1,720,1163,0,0
-497,-139,0,0,0,0,0,0,0,0,0,-1,727,1163,0,0
-490,-139,0,0,0,0,0,0,0,0,0,-1,734,1163,0,0
-483,-139,0,0,0,0,0,0,0,0,0,-1,741,1163,0,0
-476,-139,0,0,0,0,0,0,0,0,0,-1,748,1163,0,0
-469,-139,0,0,0,0,0,0,0,0,0,-1,755,1163,0,0
-462,-139,0,0,0,0,0,0,0,0,0,-1,762,1163,0,0
-455,-139,0,0,0,0,0,0,0,0,0,-1,769,1163,0,0
-448,-139,0,0,0,0,0,0,0,0,0,-1,776,1163,0,0
-441,-139,0,0,0,0,0,0,0,0,0,-1,783,1163,0,0
-434,-139,0,0,0,0,0,0,0,0,0,-1,790,1163,0,0
-427,-139,0,0,0,0,0,0,0,0,0,-1,797,1163,0,0
-420,-139,0,0,0,0,0,0,0,0,0,-1,804,1163,0,0
-413,-139,0,0,0,0,0,0,0,0,0,-1,811,1163,0,0
-406,-139,0,0,0,0,0,0,0,0,0,-1,818,1163,0,0
-399,-139,0,0,0,0,0,0,0,0,0,-1,825,1163,0,0
-392,-139,0,0,0,0,0,0,0,0,0,-1,832,1163,0,0
-385,-139,0,0,0,0,0,0,0,0,0,-1,839,1163,0,0
-378,-139,0,0,0,0,0,0,0,0,0,-1,846,1163,0,0
-371,-139,0,0,0,0,0,0,0,0,0,-1,853,1163,0,0
-364,-139,0,0,0,0,0,0,0,0,0,-1,860,1163,0,0
-357,-139,0,0,0,0,0,0,0,0,0,-1,867,1163,0,0
-350,-139,0,0,0,0,0,0,0,0,0,-1,874,1163,0,0
-343,-139,0,0,0,0,0,0,0,0,0,-1,881,1163,0,0
-336,-139,0,0,0,0,0,0,0,0,0,-1,888,1163,0,0
-329,-139,0,0,0,0,0,0,0,0,0,-1,895,1163,0,0
-322,-139,0,0,0,0,0,0,0,0,0,-1,902,1163,0,0
-315,-139,0,0,0,0,0,0,0,0,0,-1,909,1163,0,0
-308,-139,0,0,0,0,0,0,0,0,0,-1,916,1163,0,0
-301,-139,0,0,0,0,0,0,0,0,0,-1,923,1163,0,0
-294,-139,0,0,0,0,0,0,0,0,0,-1,930,1163,0,0
-287,-139,0,0,0,0,0,0,0,0,0,-1,937,1163,0,0
-280,-139,0,0,0,0,0,0,0,0,0,-1,944,1163,0,0
-273,-139,0,0,0,0,0,0,0,0,0,-1,951,1163,0,0
-266,-139,0,0,0,0,0,0,0,0,0,-1,958,1163,0,0
-259,-139,0,0,0,0,0,0,0,0,0,-1,965,1163,0,0
-252,-139,0,0,0,0,0,0,0,0,0,-1,972,1163,0,0
-245,-139,0,0,0,0,0,0,0,0,0,-1,979,1163,0,0
-238,-139,0,0,0,0,0,0,0,0,0,-1,986,1163,0,0
-231,-139,0,0,0,0,0,0,0,0,0,-1,993,1163,0,0
-224,-139,0,0,0,0,0,0,0,0,0,-1,1000,1163,0,0
-217,-139,0,0,0,0,0,0,0,0,0,-1,1007,1163,0,0
-210,-139,0,0,0,0,0,0,0,0,0,-1,1014,1163,0,0
-203,-139,0,0,0,0,0,0,0,0,0,-1,1021,1163,0,0
-196,-139,0,0,0,0,0,0,0,0,0,-1,1028,1163,0,0
-189,-139,0,0,0,0,0,0,0,0,0,-1,1035,1163,0,0
-182,-139,0,0,0,0,0,0,0,0,0,-1,1042,1163,0,0
-175,-139,0,0,0,0,0,0,0,0,0,-1,1049,1163,0,0
-168,-139,0,0,0,0,0,0,0,0,0,-1,1056,1163,0,0
-161,-139,0,0,0,0,0,0,0,0,0,-1,1063,1163,0,0
-154,-139,0,0,0,0,0,0,0,0,0,-1,1070,1163,0,0
-147,-139,0,0,0,0,0,0,0,0,0,-1,1077,1163,0,0
-140,-139,0,0,0,0,0,0,0,0,0,-1,1084,1163,0,0
-133,-139,0,0,0,0,0,0,0,0,0,-1,1091,1163,0,0
-126,-139,0,0,0,0,0,0,0,0,0,-1,1098,1163,0,0
-119,-139,0,0,0,0,0,0,0,0,0,-1,1105,1163,0,0
-112,-139,0,0,0,0,0,0,0,0,0,-1,1112,1163,0,0
-105,-139,0,0,0,0,0,0,0,0,0,-1,1119,1163,0,0
-98,-139,0,0,0,0,0,0,0,0,0,-1,1126,1163,0,0
-91,-139,0,0,0,0,0,0,0,0,0,-1,1133,1163,0,0
-84,-139,0,0,0,0,0,0,0,0,0,-1,1140,1163,0,0
-77,-139,0,0,0,0,0,0,0,0,0,-1,1147,1163,0,0
-70,-139,0,0,0,0,0,0,0,0,0,-1,1154,1163,0,0
-63,-139,0,0,0,0,0,0,0,0,0,-1,1161,1163,0,0
-56,-139,0,0,0,0,0,0,0,0,0,-1,1168,1163,0,0
-49,-139,0,0,0,0,0,0,0,0,0,-1,1175,1163,0,0
-42,-139,0,0,0,0,0,0,0,0,0,-1,1182,1163,0,0
-35,-139,0,0,0,0,0,0,0,0,0,-1,1189,1163,0,0
-28,-139,0,0,0,0,0,0,0,0,0,-1,1196,1163,0,0
-21,-139,0,0,0,0,0,0,0,0,0,-1,1203,1163,0,0
-14,-139,0,0,0,0,0,0,0,0,0,-1,1210,1163,0,0
-7,-139,0,0,0,0,0,0,0,0,0,-1,1217,1163,0,0
0,-139,0,0,0,0,0,0,0,0,0,-1,1224,1163,0,0
7,-139,0,0,0,0,0,0,0,0,0,-1,1231,1163,0,0
14,-139,0,0,0,0,0,0,0,0,0,-1,1238,1163,0,0
21,-139,0,0,0,0,0,0,0,0,0,-1,1245,1163,0,0
28,-139,0,0,0,0,0,0,0,0,0,-1,1252,1163,0,0
35,-139,0,0,0,0,0,0,0,0,0,-1,1259,1163,0,0
42,-139,0,0,0,0,0,0,0,0,0,-1,1266,1163,0,0
49,-139,0,0,0,0,0,0,0,0,0,-1,1273,1163,0,0
56,-139,0,0,0,0,0,0,0,0,0,-1,1280,1163,0,0
63,-139,0,0,0,0,0,0,0,0,0,-1,1287,1163,0,0
70,-139,0,0,0,0,0,0,0,0,0,-1,1294,1163,0,0
77,-139,0,0,0,0,0,0,0,0,0,-1,1301,1163,0,0
84,-139,0,0,0,0,0,0,0,0,0,-1,1308,1163,0,0
91,-139,0,0,0,0,0,0,0,0,0,-1,1315,1163,0,0
98,-139,0,0,0,0,0,0,0,0,0,-1,1322,1163,0,0
105,-139,0,0,0,0,0,0,0,0,0,-1,1329,1163,0,0
112,-139,0,0,0,0,0,0,0,0,0,-1,1336,1163,0,0
119,-139,0,0,0,0,0,0,0,0,0,-1,1343,1163,0,0
126,-139,0,0,0,0,0,0,0,0,0,-1,1350,1163,0,0
133,-139,0,0,0,0,0,0,0,0,0,-1,1357,1163,0,0
140,-139,0,0,0,0,0,0,0,0,0,-1,1364,1163,0,0
147,-139,0,0,0,0,0,0,0,0,0,-1,1371,1163,0,0
154,-139,0,0,0,0,0,0,0,0,0,-1,1378,1163,0,0
161,-139,0,0,0,0,0,0,0,0,0,-1,1385,1163,0,0
168,-139,0,0,0,0,0,0,0,0,0,-1,1392,1163,0,0
175,-139,0,0,0,0,0,0,0,0,0,-1,1399,1163,0,0
182,-139,0,0,0,0,0,0,0,0,0,-1,1406,1163,0,0
189,-139,0,0,0,0,0,0,0,0,0,-1,1413,1163,0,0
196,-139,0,0,0,0,0,0,0,0,0,-1,1420,1163,0,0
203,-139,0,0,0,0,0,0,0,0,0,-1,1427,1163,0,0
210,-139,0,0,0,0,0,0,0,0,0,-1,1434,1163,0,0
217,-139,0,0,0,0,0,0,0,0,0,-1,1441,1163,0,0
224,-139,0,0,0,0,0,0,0,0,0,-1,1448,1163,0,0
231,-139,0,0,0,0,0,0,0,0,0,-1,1455,1163,0,0
238,-139,0,0,0,0,0,0,0,0,0,-1,1462,1163,0,0
245,-139,0,0,0,0,0,0,0,0,0,-1,1469,1163,0,0
252,-139,0,0,0,0,0,0,0,0,0,-1,1476,1163,0,0
259,-139,0,0,0,0,0,0,0,0,0,-1,1483,1163,0,0
266,-139,0,0,0,0,0,0,0,0,0,-1,1490,1163,0,0
273,-139,0,0,0,0,0,0,0,0,0,-1,1497,1163,0,0
280,-139,0,0,0,0,0,0,0,0,0,-1,1504,1163,0,0
287,-139,0,0,0,0,0,0,0,0,0,-1,1511,1163,0,0
294,-139,0,0,0,0,0,0,0,0,0,-1,1518,1163,0,0
301,-139,0,0,0,0,0,0,0,0,0,-1,1525,1163,0,0
308,-139,0,0,0,0,0,0,0,0,0,-1,1532,1163,0,0
315,-139,0,0,0,0,0,0,0,0,0,-1,1539,1163,0,0
322,-139,0,0,0,0,0,0,0,0,0,-1,1546,1163,0,0
329,-139,0,0,0,0,0,0,0,0,0,-1,1553,1163,0,0
336,-139,0,0,0,0,0,0,0,0,0,-1,1560,1163,0,0
343,-139,0,0,0,0,0,0,0,0,0,-1,1567,1163,0,0
350,-139,0,0,0,0,0,0,0,0,0,-1,1574,1163,0,0
357,-139,0,0,0,0,0,0,0,0,0,-1,1581,1163,0,0
364,-139,0,0,0,0,0,0,0,0,0,-1,1588,1163,0,0
371,-139,0,0,0,0,0,0,0,0,0,-1,1595,1163,0,0
378,-139,0,0,0,0,0,0,0,0,0,-1,1602,1163,0,0
385,-139,0,0,0,0,0,0,0,0,0,-1,1609,1163,0,0
392,-139,0,0,0,0,0,0,0,0,0,-1,1616,1163,0,0
399,-139,0,0,0,0,0,0,0,0,0,-1,1623,1163,0,0
406,-139,0,0,0,0,0,0,0,0,0,-1,1630,1163,0,0
413,-139,0,0,0,0,0,0,0,0,0,-1,1637,1163,0,0
420,-139,0,0,0,0,0,0,0,0,0,-1,1644,1163,0,0
427,-139,0,0,0,0,0,0,0,0,0,-1,1651,1163,0,0
434,-139,0,0,0,0,0,0,0,0,0,-1,1658,1163,0,0
441,-139,0,0,0,0,0,0,0,0,0,-1,1665,1163,0,0
448,-139,0,0,0,0,0,0,0,0,0,-1,1672,1163,0,0
455,-139,0,0,0,0,0,0,0,0,0,-1,1679,1163,0,0
462,-139,0,0,0,0,0,0,0,0,0,-1,1686,1163,0,0
469,-139,0,0,0,0,0,0,0,0,0,-1,1693,1163,0,0
476,-139,0,0,0,0,0,0,0,0,0,-1,1700,1163,0,0
483,-139,0,0,0,0,0,0,0,0,0,-1,1707,1163,0,0
490,-139,0,0,0,0,0,0,0,0,0,-1,1714,1163,0,0
497,-139,0,0,0,0,0,0,0,0,0,-1,1721,1163,0,0
504,-139,0,0,0,0,0,0,0,0,0,-1,1728,1163,0,0
511,-139,0,0,0,0,0,0,0,0,0,-1,1735,1163,0,0
518,-139,0,0,0,0,0,0,0,0,0,-1,1742,1163,0,0
525,-139,0,0,0,0,0,0,0,0,0,-1,1749,1163,0,0
532,-139,0,0,0,0,0,0,0,0,0,-1,1756,1163,0,0
539,-139,0,0,0,0,0,0,0,0,0,-1,1763,1163,0,0
546,-139,0,0,0,0,0,0,0,0,0,-1,1770,1163,0,0
553,-139,0,0,0,0,0,0,0,0,0,-1,1777,1163,0,0
560,-139,0,0,0,0,0,0,0,0,0,-1,1784,1163,0,0
567,-139,0,0,0,0,0,0,0,0,0,-1,1791,1163,0,0
574,-139,0,0,0,0,0,0,0,0,0,-1,1798,1163,0,0
581,-139,0,0,0,0,0,0,0,0,0,-1,1805,1163,0,0
588,-139,0,0,0,0,0,0,0,0,0,-1,1812,1163,0,0
595,-139,0,0,0,0,0,0,0,0,0,-1,1819,1163,0,0
602,-139,0,0,0,0,0,0,0,0,0,-1,1826,1163,0,0
609,-139,0,0,0,0,0,0,0,0,0,-1,1833,1163,0,0
616,-139,0,0,0,0,0,0,0,0,0,-1,1840,1163,0,0
623,-139,0,0,0,0,0,0,0,0,0,-1,1847,1163,0,0
630,-139,0,0,0,0,0,0,0,0,0,-1,1854,1163,0,0
637,-139,0,0,0,0,0,0,0,0,0,-1,1861,1163,0,0
644,-139,48.2894,2.50317,0.000964286,-7.49012e-05,0.00102248,0.00159162,-0.000702236,0.550317,0.00135714,0.0390731,1868,1163,48.2894,-2.5032
651,-139,48.2216,2.52808,0.00109764,-3.60481e-05,0.00106439,0.00173671,-0.000675122,0.540723,0.00143673,0.0404441,1875,1163,48.2215,-2.52811
658,-139,48.3068,2.52759,0.00126171,8.14219e-05,0.00093629,0.00177832,-0.000435189,0.504197,0.00135413,0.0402202,1882,1163,48.3067,-2.52753
665,-139,48.3369,2.70801,0.00132517,0.000277859,0.000681582,0.00166103,-5.80022e-05,0.457844,0.00112719,0.0381571,1889,1163,48.3369,-2.70805
672,-139,48.3857,2.83948,0.00121588,0.000420145,0.000455484,0.00142279,0.000213228,0.426408,0.000886047,0.0379748,1896,1163,48.3857,-2.83943
679,-139,48.5007,2.86731,0.000843367,0.000440628,0.000400899,0.00109063,0.000193367,0.552657,0.000671969,0.0350726,1903,1163,48.5007,-2.86733
686,-139,48.4138,2.81665,0.000534331,0.000316017,0.000358762,0.000800174,5.01734e-05,0.637718,0.000517536,0.034471,1910,1163,48.4138,-2.81665
693,-139,48.3519,2.73132,0.000328091,0.000280519,0.000364026,0.000669106,-6.04973e-05,0.752774,0.000467543,0.0262564,1917,1163,48.3519,-2.7313
700,-139,48.4246,2.59363,0,0,0,0,0,0,0,-1,1924,1163,48.4246,-2.59359
707,-139,32.116,6.54346,0,0,0,0,0,0,0,-1,1931,1163,32.116,-6.54343
714,-139,42.9912,7.85999,0,0,0,0,0,0,0,-1,1938,1163,42.9912,-7.86
721,-139,43.1549,7.33508,-0.000821055,0.000333671,0.000795343,0.00073912,-0.0012265,1.09936,0.00114642,0.0321116,1945,1163,43.1549,-7.33505
728,-139,43.0626,7.05945,-0.00101522,0.000212232,0.0010998,0.000857959,-0.00166095,1.03989,0.00147872,0.039197,1952,1163,43.0626,-7.05948
735,-139,42.9315,6.78162,-0.00119793,0.000198966,0.00131393,0.000988552,-0.00198752,1.02969,0.0017502,0.0285794,1959,1163,42.9315,-6.78164
742,-139,42.9862,6.23572,-0.00146064,0.000246793,0.00175412,0.00134391,-0.00255776,1.01187,0.00228868,0.0235764,1966,1163,42.9862,-6.23574
749,-139,42.9783,5.84595,-0.00207437,0.000770066,0.00222795,0.00199104,-0.00329535,1.06947,0.00308291,0.0210394,1973,1163,42.9782,-5.8459
756,-139,42.9695,5.52808,-0.00289098,0.00235227,0.00142032,0.00271229,-0.003251,1.32254,0.00344759,0.0118387,1980,1163,42.9694,-5.5281
763,-139,42.9628,5.17578,-0.00371582,0.00445732,0.000106716,0.00445871,-0.00371721,1.55774,0.00472684,0.0109692,1987,1163,42.9627,-5.17583
770,-139,42.9773,4.80811,-0.00465641,0.00712751,-0.00219003,0.00752136,-0.00505027,-1.39286,0.00730482,0.0128232,1994,1163,42.9773,-4.8081
777,-139,42.9846,4.50769,-0.00562944,0.0105208,-0.00585217,0.0124184,-0.00752705,-1.25724,0.0116304,0.0257381,2001,1163,42.9846,-4.50769
784,-139,42.5466,4.45215,-0.00661956,0.0149585,-0.0115387,0.0199665,-0.0116275,-1.16131,0.0184514,0.0424794,2008,1163,42.5467,-4.45211
791,-139,41.8782,4.35229,-0.00737434,0.0208821,-0.0203427,0.0315214,-0.0180137,-1.08891,0.0289514,0.0471603,2015,1163,41.8781,-4.35224
798,-139,41.415,4.33716,-0.00749351,0.0287366,-0.0333764,0.0485971,-0.027354,-1.03403,0.0444184,0.0472873,2022,1163,41.4149,-4.33717
805,-139,40.7856,4.16724,-0.00662036,0.0390716,-0.0520118,0.0730338,-0.0405825,-0.992336,0.0664823,0.0465513,2029,1163,40.7857,-4.16722
812,-139,0,0,0,0,0,0,0,0,0,-1,2036,1163,0,0
-700,-146,0,0,0,0,0,0,0,0,0,-1,524,1170,0,0
-693,-146,-30.8127,-1.37415,0,0,0,0,0,0,0,-1,531,1170,-30.8127,1.37416
-686,-146,-30.4754,-1.50452,-0.0418266,0.0261458,-0.0170488,0.0301823,-0.0458631,-1.33832,0.0442148,0.0482914,538,1170,-30.4754,1.5045
-679,-146,-30.4241,-1.24121,-0.0288921,0.026108,-0.00455092,0.026482,-0.0292661,-1.4888,0.0321996,0.0486996,545,1170,-30.4241,1.24123
-672,-146,-30.3159,-0.927856,-0.0187616,0.0243694,0.00264856,0.0245314,-0.0189236,1.50969,0.0251583,0.0446218,552,1170,-30.3159,0.927802
-665,-146,-30.023,-0.421753,0,0,0,0,0,0,0,-1,559,1170,-30.023,0.421734
-658,-146,-30.0388,0.492798,0,0,0,0,0,0,0,-1,566,1170,-30.0388,-0.492849
-651,-146,-29.8906,1.05786,-0.00136938,0.0152913,0.00701941,0.0178543,-0.00393246,1.2207,0.0134074,0.0405912,573,1170,-29.8906,-1.05784
-644,-146,-29.7205,1.61462,0.00103615,0.0120196,0.00577807,0.0144994,-0.00144365,1.1654,0.0101817,0.0207275,580,1170,-29.7205,-1.61457
-637,-146,-29.7469,2.02454,0.00209447,0.00881601,0.00401632,0.0106922,0.000218294,1.13378,0.00705649,0.0101582,587,1170,-29.7469,-2.02449
-630,-146,-29.772,2.45227,0.00238636,0.00607193,0.00250642,0.0073401,0.00111819,1.10239,0.00456653,0.00987766,594,1170,-29.772,-2.45228
-623,-146,-29.7966,2.8656,0.00173535,0.00312026,0.000552237,0.0033135,0.0015421,1.23419,0.00191458,0.0128325,601,1170,-29.7966,-2.86562
-616,-146,-29.8465,3.29382,0.000521744,0.00105152,-0.000705096,0.00153984,3.34217e-05,-0.96508,0.0010156,0.0176108,608,1170,-29.8465,-3.29379
-609,-146,-29.7004,3.7915,-0.000530259,0.000120581,-0.00130751,0.00114256,-0.00155224,-0.907362,0.00156183,0.0262971,615,1170,-29.7005,-3.79153
-602,-146,-29.3514,4.17627,0,0,0,0,0,0,0,-1,622,1170,-29.3514,-4.17626
-595,-146,-30.0396,4.62085,0,0,0,0,0,0,0,-1,629,1170,-30.0396,-4.62085
-588,-146,-30.1873,4.95447,0,0,0,0,0,0,0,-1,636,1170,-30.1873,-4.95442
-581,-146,-28.6086,5.78027,0,0,0,0,0,0,0,-1,643,1170,-28.6086,-5.78029
-574,-146,-17.9915,3.79114,0,0,0,0,0,0,0,-1,650,1170,-17.9915,-3.79118
-567,-146,-35.8738,0.996826,0,0,0,0,0,0,0,-1,657,1170,-35.8738,-0.996791
-560,-146,-35.8026,0.913696,0,0,0,0,0,0,0,-1,664,1170,-35.8026,-0.913677
-553,-146,-35.7047,0.858765,-0.000142786,0.000189921,-0.000875279,0.000914515,-0.00086738,-0.879307,0.0010289,0.0381133,671,1170,-35.7047,-0.85875
-546,-146,-35.6672,0.926758,-1.65575e-05,4.76547e-05,-0.000836779,0.000852943,-0.000821846,-0.804573,0.000966995,0.0421323,678,1170,-35.6672,-0.926817
-539,-146,-35.6365,1.17236,0.000827181,0.000194733,0.000175956,0.000872839,0.000149076,0.253882,0.000539115,0.0415163,685,1170,-35.6365,-1.17237
-532,-146,-35.6882,0.937988,0.00199837,-5.76808e-05,0.00177825,0.00302437,-0.00108368,0.523314,0.00245842,0.0382762,692,1170,-35.6882,-0.937983
-525,-146,-35.6669,0.958862,0.00356913,-6.10902e-05,0.00340349,0.00561127,-0.00210323,0.540429,0.00460491,0.0411353,699,1170,-35.6669,-0.958904
-518,-146,0,0,0,0,0,0,0,0,0,-1,706,1170,0,0
-511,-146,0,0,0,0,0,0,0,0,0,-1,713,1170,0,0
-504,-146,0,0,0,0,0,0,0,0,0,-1,720,1170,0,0
-497,-146,0,0,0,0,0,0,0,0,0,-1,727,1170,0,0
-490,-146,0,0,0,0,0,0,0,0,0,-1,734,1170,0,0
-483,-146,0,0,0,0,0,0,0,0,0,-1,741,1170,0,0
-476,-146,0,0,0,0,0,0,0,0,0,-1,748,1170,0,0
-469,-146,0,0,0,0,0,0,0,0,0,-1,755,1170,0,0
-462,-146,0,0,0,0,0,0,0,0,0,-1,762,1170,0,0
-455,-146,0,0,0,0,0,0,0,0,0,-1,769,1170,0,0
-448,-146,0,0,0,0,0,0,0,0,0,-1,776,1170,0,0
-441,-146,0,0,0,0,0,0,0,0,0,-1,783,1170,0,0
-434,-146,0,0,0,0,0,0,0,0,0,-1,790,1170,0,0
-427,-146,0,0,0,0,0,0,0,0,0,-1,797,1170,0,0
-420,-146,0,0,0,0,0,0,0,0,0,-1,804,1170,0,0
-413,-146,0,0,0,0,0,0,0,0,0,-1,811,1170,0,0
-406,-146,0,0,0,0,0,0,0,0,0,-1,818,1170,0,0
-399,-146,0,0,0,0,0,0,0,0,0,-1,825,1170,0,0
-392,-146,0,0,0,0,0,0,0,0,0,-1,832,1170,0,0
-385,-146,0,0,0,0,0,0,0,0,0,-1,839,1170,0,0
-378,-146,0,0,0,0,0,0,0,0,0,-1,846,1170,0,0
-371,-146,0,0,0,0,0,0,0,0,0,-1,853,1170,0,0
-364,-146,0,0,0,0,0,0,0,0,0,-1,860,1170,0,0
-357,-146,0,0,0,0,0,0,0,0,0,-1,867,1170,0,0
-350,-146,0,0,0,0,0,0,0,0,0,-1,874,1170,0,0
-343,-146,0,0,0,0,0,0,0,0,0,-1,881,1170,0,0
-336,-146,0,0,0,0,0,0,0,0,0,-1,888,1170,0,0
-329,-146,0,0,0,0,0,0,0,0,0,-1,895,1170,0,0
-322,-146,0,0,0,0,0,0,0,0,0,-1,902,1170,0,0
-315,-146,0,0,0,0,0,0,0,0,0,-1,909,1170,0,0
-308,-146,0,0,0,0,0,0,0,0,0,-1,916,1170,0,0
-301,-146,0,0,0,0,0,0,0,0,0,-1,923,1170,0,0
-294,-146,0,0,0,0,0,0,0,0,0,-1,930,1170,0,0
-287,-146,0,0,0,0,0,0,0,0,0,-1,937,1170,0,0
-280,-146,0,0,0,0,0,0,0,0,0,-1,944,1170,0,0
-273,-146,0,0,0,0,0,0,0,0,0,-1,951,1170,0,0
-266,-146,0,0,0,0,0,0,0,0,0,-1,958,1170,0,0
-259,-146,0,0,0,0,0,0,0,0,0,-1,965,1170,0,0
-252,-146,0,0,0,0,0,0,0,0,0,-1,972,1170,0,0
-245,-146,0,0,0,0,0,0,0,0,0,-1,979,1170,0,0
-238,-146,0,0,0,0,0,0,0,0,0,-1,986,1170,0,0
-231,-146,0,0,0,0,0,0,0,0,0,-1,993,1170,0,0
-224,-146,0,0,0,0,0,0,0,0,0,-1,1000,1170,0,0
-217,-146,0,0,0,0,0,0,0,0,0,-1,1007,1170,0,0
-210,-146,0,0,0,0,0,0,0,0,0,-1,1014,1170,0,0
-203,-146,0,0,0,0,0,0,0,0,0,-1,1021,1170,0,0
-196,-146,0,0,0,0,0,0,0,0,0,-1,1028,1170,0,0
-189,-146,0,0,0,0,0,0,0,0,0,-1,1035,1170,0,0
-182,-146,0,0,0,0,0,0,0,0,0,-1,1042,1170,0,0
-175,-146,0,0,0,0,0,0,0,0,0,-1,1049,1170,0,0
-168,-146,0,0,0,0,0,0,0,0,0,-1,1056,1170,0,0
-161,-146,0,0,0,0,0,0,0,0,0,-1,1063,1170,0,0
-154,-146,0,0,0,0,0,0,0,0,0,-1,1070,1170,0,0
-147,-146,0,0,0,0,0,0,0,0,0,-1,1077,1170,0,0
-140,-146,0,0,0,0,0,0,0,0,0,-1,1084,1170,0,0
-133,-146,0,0,0,0,0,0,0,0,0,-1,1091,1170,0,0
-126,-146,0,0,0,0,0,0,0,0,0,-1,1098,1170,0,0
-119,-146,0,0,0,0,0,0,0,0,0,-1,1105,1170,0,0
-112,-146,0,0,0,0,0,0,0,0,0,-1,1112,1170,0,0
-105,-146,0,0,0,0,0,0,0,0,0,-1,1119,1170,0,0
-98,-146,0,0,0,0,0,0,0,0,0,-1,1126,1170,0,0
-91,-146,0,0,0,0,0,0,0,0,0,-1,1133,1170,0,0
-84,-146,0,0,0,0,0,0,0,0,0,-1,1140,1170,0,0
-77,-146,0,0,0,0,0,0,0,0,0,-1,1147,1170,0,0
-70,-146,0,0,0,0,0,0,0,0,0,-1,1154,1170,0,0
-63,-146,0,0,0,0,0,0,0,0,0,-1,1161,1170,0,0
-56,-146,0,0,0,0,0,0,0,0,0,-1,1168,1170,0,0
-49,-146,0,0,0,0,0,0,0,0,0,-1,1175,1170,0,0
-42,-146,0,0,0,0,0,0,0,0,0,-1,1182,1170,0,0
-35,-146,0,0,0,0,0,0,0,0,0,-1,1189,1170,0,0
-28,-146,0,0,0,0,0,0,0,0,0,-1,1196,1170,0,0
-21,-146,0,0,0,0,0,0,0,0,0,-1,1203,1170,0,0
-14,-146,0,0,0,0,0,0,0,0,0,-1,1210,1170,0,0
-7,-146,0,0,0,0,0,0,0,0,0,-1,1217,1170,0,0
0,-146,0,0,0,0,0,0,0,0,0,-1,1224,1170,0,0
7,-146,0,0,0,0,0,0,0,0,0,-1,1231,1170,0,0
14,-146,0,0,0,0,0,0,0,0,0,-1,1238,1170,0,0
21,-146,0,0,0,0,0,0,0,0,0,-1,1245,1170,0,0
28,-146,0,0,0,0,0,0,0,0,0,-1,1252,1170,0,0
35,-146,0,0,0,0,0,0,0,0,0,-1,1259,1170,0,0
42,-146,0,0,0,0,0,0,0,0,0,-1,1266,1170,0,0
49,-146,0,0,0,0,0,0,0,0,0,-1,1273,1170,0,0
56,-146,0,0,0,0,0,0,0,0,0,-1,1280,1170,0,0
63,-146,0,0,0,0,0,0,0,0,0,-1,1287,1170,0,0
70,-146,0,0,0,0,0,0,0,0,0,-1,1294,1170,0,0
77,-146,0,0,0,0,0,0,0,0,0,-1,1301,1170,0,0
84,-146,0,0,0,0,0,0,0,0,0,-1,1308,1170,0,0
91,-146,0,0,0,0,0,0,0,0,0,-1,1315,1170,0,0
98,-146,0,0,0,0,0,0,0,0,0,-1,1322,1170,0,0
105,-146,0,0,0,0,0,0,0,0,0,-1,1329,1170,0,0
112,-146,0,0,0,0,0,0,0,0,0,-1,1336,1170,0,0
119,-146,0,0,0,0,0,0,0,0,0,-1,1343,1170,0,0
126,-146,0,0,0,0,0,0,0,0,0,-1,1350,1170,0,0
133,-146,0,0,0,0,0,0,0,0,0,-1,1357,1170,0,0
140,-146,0,0,0,0,0,0,0,0,0,-1,1364,1170,0,0
147,-146,0,0,0,0,0,0,0,0,0,-1,1371,1170,0,0
154,-146,0,0,0,0,0,0,0,0,0,-1,1378,1170,0,0
161,-146,0,0,0,0,0,0,0,0,0,-1,1385,1170,0,0
168,-146,0,0,0,0,0,0,0,0,0,-1,1392,1170,0,0
175,-146,0,0,0,0,0,0,0,0,0,-1,1399,1170,0,0
182,-146,0,0,0,0,0,0,0,0,0,-1,1406,1170,0,0
189,-146,0,0,0,0,0,0,0,0,0,-1,1413,1170,0,0
196,-146,0,0,0,0,0,0,0,0,0,-1,1420,1170,0,0
203,-146,0,0,0,0,0,0,0,0,0,-1,1427,1170,0,0
210,-146,0,0,0,0,0,0,0,0,0,-1,1434,1170,0,0
217,-146,0,0,0,0,0,0,0,0,0,-1,1441,1170,0,0
224,-146,0,0,0,0,0,0,0,0,0,-1,1448,1170,0,0
231,-146,0,0,0,0,0,0,0,0,0,-1,1455,1170,0,0
238,-146,0,0,0,0,0,0,0,0,0,-1,1462,1170,0,0
245,-146,0,0,0,0,0,0,0,0,0,-1,1469,1170,0,0
252,-146,0,0,0,0,0,0,0,0,0,-1,1476,1170,0,0
259,-146,0,0,0,0,0,0,0,0,0,-1,1483,1170,0,0
266,-146,0,0,0,0,0,0,0,0,0,-1,1490,1170,0,0
273,-146,0,0,0,0,0,0,0,0,0,-1,1497,1170,0,0
280,-146,0,0,0,0,0,0,0,0,0,-1,1504,1170,0,0
287,-146,0,0,0,0,0,0,0,0,0,-1,1511,1170,0,0
294,-146,0,0,0,0,0,0,0,0,0,-1,1518,1170,0,0
301,-146,0,0,0,0,0,0,0,0,0,-1,1525,1170,0,0
308,-146,0,0,0,0,0,0,0,0,0,-1,1532,1170,0,0
315,-146,0,0,0,0,0,0,0,0,0,-1,1539,1170,0,0
322,-146,0,0,0,0,0,0,0,0,0,-1,1546,1170,0,0
329,-146,0,0,0,0,0,0,0,0,0,-1,1553,1170,0,0
336,-146,0,0,0,0,0,0,0,0,0,-1,1560,1170,0,0
343,-146,0,0,0,0,0,0,0,0,0,-1,1567,1170,0,0
350,-146,0,0,0,0,0,0,0,0,0,-1,1574,1170,0,0
357,-146,0,0,0,0,0,0,0,0,0,-1,1581,1170,0,0
364,-146,0,0,0,0,0,0,0,0,0,-1,1588,1170,0,0
371,-146,0,0,0,0,0,0,0,0,0,-1,1595,1170,0,0
378,-146,0,0,0,0,0,0,0,0,0,-1,1602,1170,0,0
385,-146,0,0,0,0,0,0,0,0,0,-1,1609,1170,0,0
392,-146,0,0,0,0,0,0,0,0,0,-1,1616,1170,0,0
399,-146,0,0,0,0,0,0,0,0,0,-1,1623,1170,0,0
406,-146,0,0,0,0,0,0,0,0,0,-1,1630,1170,0,0
413,-146,0,0,0,0,0,0,0,0,0,-1,1637,1170,0,0
420,-146,0,0,0,0,0,0,0,0,0,-1,1644,1170,0,0
427,-146,0,0,0,0,0,0,0,0,0,-1,1651,1170,0,0
434,-146,0,0,0,0,0,0,0,0,0,-1,1658,1170,0,0
441,-146,0,0,0,0,0,0,0,0,0,-1,1665,1170,0,0
448,-146,0,0,0,0,0,0,0,0,0,-1,1672,1170,0,0
455,-146,0,0,0,0,0,0,0,0,0,-1,1679,1170,0,0
462,-146,0,0,0,0,0,0,0,0,0,-1,1686,1170,0,0
469,-146,0,0,0,0,0,0,0,0,0,-1,1693,1170,0,0
476,-146,0,0,0,0,0,0,0,0,0,-1,1700,1170,0,0
483,-146,0,0,0,0,0,0,0,0,0,-1,1707,1170,0,0
490,-146,0,0,0,0,0,0,0,0,0,-1,1714,1170,0,0
497,-146,0,0,0,0,0,0,0,0,0,-1,1721,1170,0,0
504,-146,0,0,0,0,0,0,0,0,0,-1,1728,1170,0,0
511,-146,0,0,0,0,0,0,0,0,0,-1,1735,1170,0,0
518,-146,0,0,0,0,0,0,0,0,0,-1,1742,1170,0,0
525,-146,0,0,0,0,0,0,0,0,0,-1,1749,1170,0,0
532,-146,0,0,0,0,0,0,0,0,0,-1,1756,1170,0,0
539,-146,0,0,0,0,0,0,0,0,0,-1,1763,1170,0,0
546,-146,0,0,0,0,0,0,0,0,0,-1,1770,1170,0,0
553,-146,0,0,0,0,0,0,0,0,0,-1,1777,1170,0,0
560,-146,0,0,0,0,0,0,0,0,0,-1,1784,1170,0,0
567,-146,0,0,0,0,0,0,0,0,0,-1,1791,1170,0,0
574,-146,0,0,0,0,0,0,0,0,0,-1,1798,1170,0,0
581,-146,0,0,0,0,0,0,0,0,0,-1,1805,1170,0,0
588,-146,0,0,0,0,0,0,0,0,0,-1,1812,1170,0,0
595,-146,0,0,0,0,0,0,0,0,0,-1,1819,1170,0,0
602,-146,0,0,0,0,0,0,0,0,0,-1,1826,1170,0,0
609,-146,0,0,0,0,0,0,0,0,0,-1,1833,1170,0,0
616,-146,0,0,0,0,0,0,0,0,0,-1,1840,1170,0,0
623,-146,0,0,0,0,0,0,0,0,0,-1,1847,1170,0,0
630,-146,0,0,0,0,0,0,0,0,0,-1,1854,1170,0,0
637,-146,48.4194,2.42773,-0.000761674,-7.44223e-05,0.000787917,0.00044154,-0.00127764,0.991024,0.00103095,0.0370292,1861,1170,48.4194,-2.42768
644,-146,48.3376,2.4884,0.000193229,-0.000337192,0.00114046,0.00109891,-0.00124287,0.671155,0.00135288,0.0355585,1868,1170,48.3376,-2.48844
651,-146,48.2775,2.62146,0.000718603,-0.000231823,0.00106479,0.00140941,-0.000922631,0.575513,0.00135615,0.0338579,1875,1170,48.2774,-2.62146
658,-146,48.3353,2.61414,0.00117295,-2.76248e-05,0.000843066,0.00160761,-0.000462278,0.47602,0.00125455,0.034923,1882,1170,48.3354,-2.61411
665,-146,48.4155,2.60828,0.00148459,0.000322778,0.000496611,0.00166793,0.000139436,0.353663,0.00106851,0.0367511,1889,1170,48.4155,-2.6083
672,-146,48.4714,2.62097,0.00148479,0.000629513,0.000233256,0.00154427,0.000570034,0.249671,0.000901709,0.0372412,1896,1170,48.4714,-2.62092
679,-146,48.4581,2.66284,0.00112001,0.00077631,0.000203296,0.00121436,0.000681962,0.434511,0.000702881,0.0296692,1903,1170,48.4581,-2.66282
686,-146,48.3456,2.67261,0.000759512,0.000690993,0.00021798,0.000945908,0.000504596,0.707451,0.000546528,0.0247162,1910,1170,48.3456,-2.67256
693,-146,48.3694,2.61523,0.000481954,0.000681897,0.000277427,0.000876815,0.000287035,0.958331,0.00051619,0.0192828,1917,1170,48.3694,-2.61518
700,-146,48.4205,2.43091,0,0,0,0,0,0,0,-1,1924,1170,48.4205,-2.43085
707,-146,29.9441,6.94653,0,0,0,0,0,0,0,-1,1931,1170,29.9441,-6.94652
714,-146,31.325,6.13245,0,0,0,0,0,0,0,-1,1938,1170,31.325,-6.1325
721,-146,42.7487,7.20129,0,0,0,0,0,0,0,-1,1945,1170,42.7486,-7.20125
728,-146,42.6272,6.84888,0,0,0,0,0,0,0,-1,1952,1170,42.6272,-6.84885
735,-146,42.5856,6.70813,-0.00113205,0.000522154,0.00132957,0.00126089,-0.00187079,1.06365,0.00181947,0.0275614,1959,1170,42.5856,-6.70817
742,-146,42.6389,6.26831,-0.00136346,0.000434085,0.00177828,0.00152782,-0.00245719,1.01938,0.00232151,0.017262,1966,1170,42.6389,-6.26826
749,-146,42.6082,5.89734,-0.00193574,0.000784411,0.00232424,0.00211727,-0.00326859,1.05012,0.00313312,0.0159623,1973,1170,42.6082,-5.89732
756,-146,42.5929,5.52905,-0.00266227,0.00219242,0.00152427,0.00263132,-0.00310118,1.29043,0.00331337,0.0123214,1980,1170,42.5929,-5.52909
763,-146,42.5605,5.15588,-0.00342769,0.0040613,0.000236663,0.00406877,-0.00343516,1.53924,0.00433754,0.0112691,1987,1170,42.5605,-5.15593
770,-146,42.5574,4.77405,-0.0043219,0.00655099,-0.00206609,0.00693036,-0.00470127,-1.3892,0.0067565,0.0128385,1994,1170,42.5573,-4.7741
777,-146,42.5731,4.54675,-0.00528253,0.00981884,-0.0058136,0.0117976,-0.00726131,-1.24272,0.0111071,0.0237705,2001,1170,42.5731,-4.54671
784,-146,42.2947,4.54907,-0.00626021,0.014173,-0.0116494,0.0194512,-0.0115383,-1.14538,0.0180852,0.04346,2008,1170,42.2946,-4.54907
791,-146,42.0891,4.47351,0,0,0,0,0,0,0,-1,2015,1170,42.0891,-4.4735
798,-146,44.124,4.97729,-0.00727472,0.0279365,-0.034131,0.0487351,-0.0280733,-1.02351,0.044877,0.0478625,2022,1170,44.124,-4.97734
805,-146,44.5811,4.39001,-0.00664215,0.0382613,-0.0531162,0.0734759,-0.0418568,-0.985355,0.0674163,0.0487859,2029,1170,44.5811,-4.38999
812,-146,0,0,0,0,0,0,0,0,0,-1,2036,1170,0,0
-700,-153,0,0,0,0,0,0,0,0,0,-1,524,1177,0,0
-693,-153,0,0,0,0,0,0,0,0,0,-1,531,1177,0,0
-686,-153,-29.4402,-1.12659,-0.0242406,0.0257301,-0.00433729,0.0261037,-0.0246143,-1.48486,0.0292863,0.0448911,538,1177,-29.4402,1.12662
-679,-153,-29.5473,-1.31335,-0.0140861,0.0266918,0.00689309,0.0278255,-0.0152198,1.40779,0.0252049,0.049604,545,1177,-29.5473,1.31331
-672,-153,-29.5076,-0.913208,-0.00677207,0.0256928,0.0127174,0.0300814,-0.0111606,1.23851,0.0246322,0.0450162,552,1177,-29.5076,0.913268
-665,-153,-29.5566,-0.599487,-0.00151005,0.0234897,0.0148686,0.0304146,-0.008435,1.13493,0.0235961,0.0452063,559,1177,-29.5566,0.599442
-658,-153,-29.6764,-0.137817,0.00215662,0.0205283,0.0145446,0.0285449,-0.00586004,1.06705,0.0212543,0.0483871,566,1177,-29.6764,0.137772
-651,-153,-29.582,0.714355,0.00443456,0.0171701,0.0127431,0.0250479,-0.00344323,1.0171,0.0179567,0.0470174,573,1177,-29.582,-0.714298
-644,-153,-29.252,1.55505,0.00539749,0.0136661,0.0100837,0.0204302,-0.00136657,0.979946,0.0140977,0.0282312,580,1177,-29.252,-1.55511
-637,-153,-29.2919,2.01343,0.00521506,0.0101331,0.00694531,0.0150419,0.000306312,0.95554,0.00992738,0.0108218,587,1177,-29.2919,-2.01342
-630,-153,-29.3325,2.46155,0.00451813,0.00705949,0.00427887,0.0102524,0.00132525,0.929734,0.00643878,0.00990213,594,1177,-29.3325,-2.46158
-623,-153,-29.3503,2.87769,0.00290739,0.00371601,0.00122306,0.00459985,0.00202354,0.94503,0.00266211,0.0104865,601,1177,-29.3503,-2.87772
-616,-153,-29.3768,3.30469,0.000574487,0.00135431,-0.000913037,0.0019572,-2.84109e-05,-0.9872,0.00131437,0.0121249,608,1177,-29.3768,-3.30468
-609,-153,-29.3475,3.72839,-0.00120391,0.000161908,-0.00180518,0.00140903,-0.00245104,-0.966231,0.00225552,0.0218226,615,1177,-29.3475,-3.72838
-602,-153,-29.2924,4.11536,0,0,0,0,0,0,0,-1,622,1177,-29.2924,-4.11534
-595,-153,-29.701,4.65051,0,0,0,0,0,0,0,-1,629,1177,-29.701,-4.6505
-588,-153,-29.1819,5.06567,0,0,0,0,0,0,0,-1,636,1177,-29.1819,-5.06562
-581,-153,-28.2946,5.67114,0,0,0,0,0,0,0,-1,643,1177,-28.2946,-5.67111
-574,-153,-25.4814,5.16956,0,0,0,0,0,0,0,-1,650,1177,-25.4814,-5.16961
-567,-153,-35.3121,1.09485,0,0,0,0,0,0,0,-1,657,1177,-35.3121,-1.09482
-560,-153,-35.8108,0.932983,0,0,0,0,0,0,0,-1,664,1177,-35.8108,-0.933012
-553,-153,-35.7372,0.886597,-0.000391896,-0.000182282,-0.00112056,0.000838358,-0.00141254,-0.832028,0.00131357,0.0369528,671,1177,-35.7372,-0.886639
-546,-153,-35.6718,0.879395,-0.000147649,-0.000477138,-0.00105318,0.000753598,-0.00137839,-0.707814,0.0012484,0.0394491,678,1177,-35.6718,-0.879409
-539,-153,-35.9053,0.712036,0.000793545,-0.000356887,9.47652e-05,0.000801299,-0.000364641,0.0816402,0.000688712,0.0412475,685,1177,-35.9054,-0.712075
-532,-153,-35.9379,0.737549,0.00195273,-0.000559427,0.00192906,0.00299861,-0.00160531,0.496812,0.00269834,0.041143,692,1177,-35.9379,-0.73753
-525,-153,-35.8543,0.891479,0.00367001,-0.000425191,0.00385349,0.00598613,-0.00274131,0.541188,0.00515357,0.0426085,699,1177,-35.8543,-0.89146
-518,-153,0,0,0,0,0,0,0,0,0,-1,706,1177,0,0
-511,-153,0,0,0,0,0,0,0,0,0,-1,713,1177,0,0
-504,-153,0,0,0,0,0,0,0,0,0,-1,720,1177,0,0
-497,-153,0,0,0,0,0,0,0,0,0,-1,727,1177,0,0
-490,-153,0,0,0,0,0,0,0,0,0,-1,734,1177,0,0
-483,-153,0,0,0,0,0,0,0,0,0,-1,741,1177,0,0
-476,-153,0,0,0,0,0,0,0,0,0,-1,748,1177,0,0
-469,-153,0,0,0,0,0,0,0,0,0,-1,755,1177,0,0
-462,-153,0,0,0,0,0,0,0,0,0,-1,762,1177,0,0
-455,-153,0,0,0,0,0,0,0,0,0,-1,769,1177,0,0
-448,-153,0,0,0,0,0,0,0,0,0,-1,776,1177,0,0
-441,-153,0,0,0,0,0,0,0,0,0,-1,783,1177,0,0
-434,-153,0,0,0,0,0,0,0,0,0,-1,790,1177,0,0
-427,-153,0,0,0,0,0,0,0,0,0,-1,797,1177,0,0
-420,-153,0,0,0,0,0,0,0,0,0,-1,804,1177,0,0
-413,-153,0,0,0,0,0,0,0,0,0,-1,811,1177,0,0
-406,-153,0,0,0,0,0,0,0,0,0,-1,818,1177,0,0
-399,-153,0,0,0,0,0,0,0,0,0,-1,825,1177,0,0
-392,-153,0,0,0,0,0,0,0,0,0,-1,832,1177,0,0
-385,-153,0,0,0,0,0,0,0,0,0,-1,839,1177,0,0
-378,-153,0,0,0,0,0,0,0,0,0,-1,846,1177,0,0
-371,-153,0,0,0,0,0,0,0,0,0,-1,853,1177,0,0
-364,-153,0,0,0,0,0,0,0,0,0,-1,860,1177,0,0
-357,-153,0,0,0,0,0,0,0,0,0,-1,867,1177,0,0
-350,-153,0,0,0,0,0,0,0,0,0,-1,874,1177,0,0
-343,-153,0,0,0,0,0,0,0,0,0,-1,881,1177,0,0
-336,-153,0,0,0,0,0,0,0,0,0,-1,888,1177,0,0
-329,-153,0,0,0,0,0,0,0,0,0,-1,895,1177,0,0
-322,-153,0,0,0,0,0,0,0,0,0,-1,902,1177,0,0
-315,-153,0,0,0,0,0,0,0,0,0,-1,909,1177,0,0
-308,-153,0,0,0,0,0,0,0,0,0,-1,916,1177,0,0
-301,-153,0,0,0,0,0,0,0,0,0,-1,923,1177,0,0
-294,-153,0,0,0,0,0,0,0,0,0,-1,930,1177,0,0
-287,-153,0,0,0,0,0,0,0,0,0,-1,937,1177,0,0
-280,-153,0,0,0,0,0,0,0,0,0,-1,944,1177,0,0
-273,-153,0,0,0,0,0,0,0,0,0,-1,951,1177,0,0
-266,-153,0,0,0,0,0,0,0,0,0,-1,958,1177,0,0
-259,-153,0,0,0,0,0,0,0,0,0,-1,965,1177,0,0
-252,-153,0,0,0,0,0,0,0,0,0,-1,972,1177,0,0
-245,-153,0,0,0,0,0,0,0,0,0,-1,979,1177,0,0
-238,-153,0,0,0,0,0,0,0,0,0,-1,986,1177,0,0
-231,-153,0,0,0,0,0,0,0,0,0,-1,993,1177,0,0
-224,-153,0,0,0,0,0,0,0,0,0,-1,1000,1177,0,0
-217,-153,0,0,0,0,0,0,0,0,0,-1,1007,1177,0,0
-210,-153,0,0,0,0,0,0,0,0,0,-1,1014,1177,0,0
-203,-153,0,0,0,0,0,0,0,0,0,-1,1021,1177,0,0
-196,-153,0,0,0,0,0,0,0,0,0,-1,1028,1177,0,0
-189,-153,0,0,0,0,0,0,0,0,0,-1,1035,1177,0,0
-182,-153,0,0,0,0,0,0,0,0,0,-1,1042,1177,0,0
-175,-153,0,0,0,0,0,0,0,0,0,-1,1049,1177,0,0
-168,-153,0,0,0,0,0,0,0,0,0,-1,1056,1177,0,0
-161,-153,0,0,0,0,0,0,0,0,0,-1,1063,1177,0,0
-154,-153,0,0,0,0,0,0,0,0,0,-1,1070,1177,0,0
-147,-153,0,0,0,0,0,0,0,0,0,-1,1077,1177,0,0
-140,-153,0,0,0,0,0,0,0,0,0,-1,1084,1177,0,0
-133,-153,0,0,0,0,0,0,0,0,0,-1,1091,1177,0,0
-126,-153,0,0,0,0,0,0,0,0,0,-1,1098,1177,0,0
-119,-153,0,0,0,0,0,0,0,0,0,-1,1105,1177,0,0
-112,-153,0,0,0,0,0,0,0,0,0,-1,1112,1177,0,0
-105,-153,0,0,0,0,0,0,0,0,0,-1,1119,1177,0,0
-98,-153,0,0,0,0,0,0,0,0,0,-1,1126,1177,0,0
-91,-153,0,0,0,0,0,0,0,0,0,-1,1133,1177,0,0
-84,-153,0,0,0,0,0,0,0,0,0,-1,1140,1177,0,0
-77,-153,0,0,0,0,0,0,0,0,0,-1,1147,1177,0,0
-70,-153,0,0,0,0,0,0,0,0,0,-1,1154,1177,0,0
-63,-153,0,0,0,0,0,0,0,0,0,-1,1161,1177,0,0
-56,-153,0,0,0,0,0,0,0,0,0,-1,1168,1177,0,0
-49,-153,0,0,0,0,0,0,0,0,0,-1,1175,1177,0,0
-42,-153,0,0,0,0,0,0,0,0,0,-1,1182,1177,0,0
-35,-153,0,0,0,0,0,0,0,0,0,-1,1189,1177,0,0
-28,-153,0,0,0,0,0,0,0,0,0,-1,1196,1177,0,0
-21,-153,0,0,0,0,0,0,0,0,0,-1,1203,1177,0,0
-14,-153,0,0,0,0,0,0,0,0,0,-1,1210,1177,0,0
-7,-153,0,0,0,0,0,0,0,0,0,-1,1217,1177,0,0
0,-153,0,0,0,0,0,0,0,0,0,-1,1224,1177,0,0
7,-153,0,0,0,0,0,0,0,0,0,-1,1231,1177,0,0
14,-153,0,0,0,0,0,0,0,0,0,-1,1238,1177,0,0
21,-153,0,0,0,0,0,0,0,0,0,-1,1245,1177,0,0
28,-153,0,0,0,0,0,0,0,0,0,-1,1252,1177,0,0
35,-153,0,0,0,0,0,0,0,0,0,-1,1259,1177,0,0
42,-153,0,0,0,0,0,0,0,0,0,-1,1266,1177,0,0
49,-153,0,0,0,0,0,0,0,0,0,-1,1273,1177,0,0
56,-153,0,0,0,0,0,0,0,0,0,-1,1280,1177,0,0
63,-153,0,0,0,0,0,0,0,0,0,-1,1287,1177,0,0
70,-153,0,0,0,0,0,0,0,0,0,-1,1294,1177,0,0
77,-153,0,0,0,0,0,0,0,0,0,-1,1301,1177,0,0
84,-153,0,0,0,0,0,0,0,0,0,-1,1308,1177,0,0
91,-153,0,0,0,0,0,0,0,0,0,-1,1315,1177,0,0
98,-153,0,0,0,0,0,0,0,0,0,-1,1322,1177,0,0
105,-153,0,0,0,0,0,0,0,0,0,-1,1329,1177,0,0
112,-153,0,0,0,0,0,0,0,0,0,-1,1336,1177,0,0
119,-153,0,0,0,0,0,0,0,0,0,-1,1343,1177,0,0
126,-153,0,0,0,0,0,0,0,0,0,-1,1350,1177,0,0
133,-153,0,0,0,0,0,0,0,0,0,-1,1357,1177,0,0
140,-153,0,0,0,0,0,0,0,0,0,-1,1364,1177,0,0
147,-153,0,0,0,0,0,0,0,0,0,-1,1371,1177,0,0
154,-153,0,0,0,0,0,0,0,0,0,-1,1378,1177,0,0
161,-153,0,0,0,0,0,0,0,0,0,-1,1385,1177,0,0
168,-153,0,0,0,0,0,0,0,0,0,-1,1392,1177,0,0
175,-153,0,0,0,0,0,0,0,0,0,-1,1399,1177,0,0
182,-153,0,0,0,0,0,0,0,0,0,-1,1406,1177,0,0
189,-153,0,0,0,0,0,0,0,0,0,-1,1413,1177,0,0
196,-153,0,0,0,0,0,0,0,0,0,-1,1420,1177,0,0
203,-153,0,0,0,0,0,0,0,0,0,-1,1427,1177,0,0
210,-153,0,0,0,0,0,0,0,0,0,-1,1434,1177,0,0
217,-153,0,0,0,0,0,0,0,0,0,-1,1441,1177,0,0
224,-153,0,0,0,0,0,0,0,0,0,-1,1448,1177,0,0
231,-153,0,0,0,0,0,0,0,0,0,-1,1455,1177,0,0
238,-153,0,0,0,0,0,0,0,0,0,-1,1462,1177,0,0
245,-153,0,0,0,0,0,0,0,0,0,-1,1469,1177,0,0
252,-153,0,0,0,0,0,0,0,0,0,-1,1476,1177,0,0
259,-153,0,0,0,0,0,0,0,0,0,-1,1483,1177,0,0
266,-153,0,0,0,0,0,0,0,0,0,-1,1490,1177,0,0
273,-153,0,0,0,0,0,0,0,0,0,-1,1497,1177,0,0
280,-153,0,0,0,0,0,0,0,0,0,-1,1504,1177,0,0
287,-153,0,0,0,0,0,0,0,0,0,-1,1511,1177,0,0
294,-153,0,0,0,0,0,0,0,0,0,-1,1518,1177,0,0
301,-153,0,0,0,0,0,0,0,0,0,-1,1525,1177,0,0
308,-153,0,0,0,0,0,0,0,0,0,-1,1532,1177,0,0
315,-153,0,0,0,0,0,0,0,0,0,-1,1539,1177,0,0
322,-153,0,0,0,0,0,0,0,0,0,-1,1546,1177,0,0
329,-153,0,0,0,0,0,0,0,0,0,-1,1553,1177,0,0
336,-153,0,0,0,0,0,0,0,0,0,-1,1560,1177,0,0
343,-153,0,0,0,0,0,0,0,0,0,-1,1567,1177,0,0
350,-153,0,0,0,0,0,0,0,0,0,-1,1574,1177,0,0
357,-153,0,0,0,0,0,0,0,0,0,-1,1581,1177,0,0
364,-153,0,0,0,0,0,0,0,0,0,-1,1588,1177,0,0
371,-153,0,0,0,0,0,0,0,0,0,-1,1595,1177,0,0
378,-153,0,0,0,0,0,0,0,0,0,-1,1602,1177,0,0
385,-153,0,0,0,0,0,0,0,0,0,-1,1609,1177,0,0
392,-153,0,0,0,0,0,0,0,0,0,-1,1616,1177,0,0
399,-153,0,0,0,0,0,0,0,0,0,-1,1623,1177,0,0
406,-153,0,0,0,0,0,0,0,0,0,-1,1630,1177,0,0
413,-153,0,0,0,0,0,0,0,0,0,-1,1637,1177,0,0
420,-153,0,0,0,0,0,0,0,0,0,-1,1644,1177,0,0
427,-153,0,0,0,0,0,0,0,0,0,-1,1651,1177,0,0
434,-153,0,0,0,0,0,0,0,0,0,-1,1658,1177,0,0
441,-153,0,0,0,0,0,0,0,0,0,-1,1665,1177,0,0
448,-153,0,0,0,0,0,0,0,0,0,-1,1672,1177,0,0
455,-153,0,0,0,0,0,0,0,0,0,-1,1679,1177,0,0
462,-153,0,0,0,0,0,0,0,0,0,-1,1686,1177,0,0
469,-153,0,0,0,0,0,0,0,0,0,-1,1693,1177,0,0
476,-153,0,0,0,0,0,0,0,0,0,-1,1700,1177,0,0
483,-153,0,0,0,0,0,0,0,0,0,-1,1707,1177,0,0
490,-153,0,0,0,0,0,0,0,0,0,-1,1714,1177,0,0
497,-153,0,0,0,0,0,0,0,0,0,-1,1721,1177,0,0
504,-153,0,0,0,0,0,0,0,0,0,-1,1728,1177,0,0
511,-153,0,0,0,0,0,0,0,0,0,-1,1735,1177,0,0
518,-153,0,0,0,0,0,0,0,0,0,-1,1742,1177,0,0
525,-153,0,0,0,0,0,0,0,0,0,-1,1749,1177,0,0
532,-153,0,0,0,0,0,0,0,0,0,-1,1756,1177,0,0
539,-153,0,0,0,0,0,0,0,0,0,-1,1763,1177,0,0
546,-153,0,0,0,0,0,0,0,0,0,-1,1770,1177,0,0
553,-153,0,0,0,0,0,0,0,0,0,-1,1777,1177,0,0
560,-153,0,0,0,0,0,0,0,0,0,-1,1784,1177,0,0
567,-153,0,0,0,0,0,0,0,0,0,-1,1791,1177,0,0
574,-153,0,0,0,0,0,0,0,0,0,-1,1798,1177,0,0
581,-153,0,0,0,0,0,0,0,0,0,-1,1805,1177,0,0
588,-153,0,0,0,0,0,0,0,0,0,-1,1812,1177,0,0
595,-153,0,0,0,0,0,0,0,0,0,-1,1819,1177,0,0
602,-153,0,0,0,0,0,0,0,0,0,-1,1826,1177,0,0
609,-153,0,0,0,0,0,0,0,0,0,-1,1833,1177,0,0
616,-153,0,0,0,0,0,0,0,0,0,-1,1840,1177,0,0
623,-153,0,0,0,0,0,0,0,0,0,-1,1847,1177,0,0
630,-153,0,0,0,0,0,0,0,0,0,-1,1854,1177,0,0
637,-153,48.3922,2.5022,-0.00124043,0.000214085,0.0015347,0.00118512,-0.00221146,1.00666,0.00199064,0.0374284,1861,1177,48.3922,-2.50215
644,-153,48.3898,2.5426,-0.0001232,-0.00013068,0.00151407,0.00138713,-0.00164101,0.784163,0.00175035,0.0346618,1868,1177,48.3898,-2.54256
651,-153,48.3466,2.6394,0.000575667,-0.000111058,0.00118887,0.00146977,-0.00100516,0.644817,0.00143727,0.0282183,1875,1177,48.3466,-2.63942
658,-153,48.338,2.60229,0.0011914,3.49587e-05,0.000725412,0.00154084,-0.000314486,0.448916,0.00114653,0.0330747,1882,1177,48.338,-2.60235
665,-153,48.4259,2.53552,0.00166067,0.000356898,0.000181203,0.00168539,0.000332183,0.135561,0.00103086,0.0369521,1889,1177,48.4259,-2.5355
672,-153,48.4318,2.51978,0.00173596,0.000667799,-0.000171177,0.00176272,0.000641038,-0.155081,0.00103024,0.0361943,1896,1177,48.4317,-2.51972
679,-153,48.3428,2.58459,0.00137222,0.000825558,-0.000181196,0.00142682,0.000770953,-0.292702,0.000824669,0.0283505,1903,1177,48.3427,-2.58458
686,-153,48.3523,2.65808,0.00097469,0.000747071,-9.76385e-05,0.00101083,0.000710927,-0.354535,0.000599471,0.0189383,1910,1177,48.3523,-2.6581
693,-153,48.4039,2.57312,0.000674513,0.000744776,2.55485e-05,0.000753084,0.000666206,1.25641,0.000475748,0.0336029,1917,1177,48.4039,-2.57309
700,-153,48.4413,2.44434,0,0,0,0,0,0,0,-1,1924,1177,48.4413,-2.44435
707,-153,29.6483,6.6842,0,0,0,0,0,0,0,-1,1931,1177,29.6483,-6.68415
714,-153,36.0046,6.78418,0,0,0,0,0,0,0,-1,1938,1177,36.0046,-6.78418
721,-153,36.4866,6.47595,0,0,0,0,0,0,0,-1,1945,1177,36.4866,-6.47593
728,-153,42.205,6.81909,0,0,0,0,0,0,0,-1,1952,1177,42.2049,-6.81908
735,-153,42.191,6.6366,-0.000951154,0.000635094,0.0013052,0.00136925,-0.00168531,1.05842,0.0017667,0.0384246,1959,1177,42.191,-6.63659
742,-153,42.2302,6.32617,-0.00119705,0.000513,0.00178037,0.00163301,-0.00231706,1.00926,0.00229195,0.0148543,1966,1177,42.2302,-6.32622
749,-153,42.2234,5.9502,-0.001692,0.000791124,0.00234575,0.00220362,-0.00310449,1.0288,0.00307931,0.0161194,1973,1177,42.2234,-5.9502
756,-153,42.2062,5.54346,-0.00225687,0.00208533,0.00153315,0.00257209,-0.00274363,1.26337,0.00306957,0.011525,1980,1177,42.2062,-5.54344
763,-153,42.1788,5.1604,-0.00284772,0.00377093,0.000270326,0.00378196,-0.00285875,1.53004,0.00384634,0.0112671,1987,1177,42.1788,-5.16038
770,-153,42.1663,4.77527,-0.00354695,0.00611324,-0.00203038,0.00652263,-0.00395634,-1.37183,0.00611021,0.0117236,1994,1177,42.1662,-4.77524
777,-153,42.1422,4.40918,-0.00428592,0.00928067,-0.00584262,0.01145,-0.00645524,-1.21528,0.0104708,0.0241809,2001,1177,42.1422,-4.40916
784,-153,41.9392,4.4325,-0.0049742,0.0135626,-0.0117822,0.019285,-0.0106966,-1.11867,0.017545,0.0459772,2008,1177,41.9393,-4.43251
791,-153,41.7852,4.37793,0,0,0,0,0,0,0,-1,2015,1177,41.7851,-4.37789
798,-153,43.4744,4.84924,-0.00501666,0.0274431,-0.0349185,0.0497192,-0.0272928,-1.00294,0.0450869,0.0473682,2022,1177,43.4744,-4.8493
805,-153,43.6555,4.40894,-0.0036681,0.0379286,-0.054308,0.0752846,-0.0410241,-0.968268,0.068115,0.0448931,2029,1177,43.6555,-4.409
812,-153,0,0,0,0,0,0,0,0,0,-1,2036,1177,0,0
-700,-160,0,0,0,0,0,0,0,0,0,-1,524,1184,0,0
-693,-160,0,0,0,0,0,0,0,0,0,-1,531,1184,0,0
-686,-160,-29.3632,-2.75806,0,0,0,0,0,0,0,-1,538,1184,-29.3632,2.75811
-679,-160,-29.1962,-1.98901,-0.0140793,0.0334158,0.0223083,0.0422506,-0.0229141,1.19372,0.038171,0.048099,545,1184,-29.1961,1.98899
-672,-160,-29.0074,-0.851563,-0.00546792,0.0316857,0.0256328,0.0447655,-0.0185476,1.09896,0.037584,0.0436671,552,1184,-29.0074,0.851572
-665,-160,-29.001,-0.770752,0.00046888,0.028735,0.025554,0.0438038,-0.0146,1.038,0.0350965,0.0448609,559,1184,-29.0011,0.770768
-658,-160,-29.6236,-0.414551,0.00439692,0.025,0.0232382,0.0401176,-0.0107207,0.994034,0.030944,0.0490468,566,1184,-29.6236,0.41451
-651,-160,-29.0423,1.02551,0,0,0,0,0,0,0,-1,573,1184,-29.0423,-1.02552
-644,-160,-28.8812,1.52283,0.00734586,0.0165945,0.0152255,0.0278825,-0.00394212,0.932832,0.0200321,0.0381134,580,1184,-28.8811,-1.52283
-637,-160,-28.8148,2.01648,0.00684061,0.0122911,0.0104834,0.0203977,-0.00126596,0.912564,0.0140395,0.0143012,587,1184,-28.8148,-2.01648
-630,-160,-28.8923,2.42432,0.00582666,0.00857431,0.00650408,0.0138481,0.000552894,0.889481,0.00905338,0.00901727,594,1184,-28.8923,-2.42426
-623,-160,-28.9361,2.83533,0.00383799,0.00456721,0.00219636,0.00642902,0.00197618,0.867652,0.0038025,0.012994,601,1184,-28.9361,-2.83536
-616,-160,-28.949,3.28687,0.000913754,0.00176846,-0.000894114,0.0023321,0.000350112,-1.00833,0.00145217,0.0109726,608,1184,-28.949,-3.28689
-609,-160,-28.9554,3.7771,-0.00159089,0.000260779,-0.00217948,0.00170292,-0.00303302,-0.986247,0.00277001,0.0137535,615,1184,-28.9554,-3.77709
-602,-160,-28.8755,4.40686,-0.00124274,0.000644188,-0.00174214,0.00168193,-0.00228048,-1.03357,0.00229638,0.0475436,622,1184,-28.8756,-4.40683
-595,-160,-28.9583,5.2439,0,0,0,0,0,0,0,-1,629,1184,-28.9583,-5.24386
-588,-160,-28.2798,5.22412,0,0,0,0,0,0,0,-1,636,1184,-28.2798,-5.22415
-581,-160,-25.2925,4.6272,0,0,0,0,0,0,0,-1,643,1184,-25.2925,-4.62719
-574,-160,-28.1793,4.33484,0,0,0,0,0,0,0,-1,650,1184,-28.1792,-4.33488
-567,-160,-29.5828,0.643921,0,0,0,0,0,0,0,-1,657,1184,-29.5828,-0.643968
-560,-160,-35.7889,0.99646,0,0,0,0,0,0,0,-1,664,1184,-35.7889,-0.996476
-553,-160,-35.76,0.953003,-0.000254046,-0.000322302,-0.00107202,0.000784387,-0.00136074,-0.769486,0.0012533,0.040089,671,1184,-35.76,-0.953046
-546,-160,-35.6957,0.856323,0.000104685,-0.000731144,-0.000959802,0.000733609,-0.00136007,-0.580068,0.00122669,0.0387915,678,1184,-35.6957,-0.856376
-539,-160,-35.8128,0.565063,0.000948084,-0.000706936,0.000114651,0.000955989,-0.000714841,0.0688362,0.000967997,0.0410759,685,1184,-35.8128,-0.565094
-532,-160,-35.8784,0.514282,0.00178327,-0.000928528,0.00184988,0.00272095,-0.00186621,0.469143,0.00266368,0.045192,692,1184,-35.8784,-0.514231
-525,-160,-35.7922,0.845093,0.0033271,-0.000679902,0.00392433,0.00572978,-0.00308258,0.549379,0.00516377,0.0454286,699,1184,-35.7922,-0.845106
-518,-160,-35.6307,1.09546,0.00497836,-0.000439098,0.00594146,0.00879942,-0.00426016,0.571522,0.00769027,0.0423571,706,1184,-35.6307,-1.09541
-511,-160,0,0,0,0,0,0,0,0,0,-1,713,1184,0,0
-504,-160,0,0,0,0,0,0,0,0,0,-1,720,1184,0,0
-497,-160,0,0,0,0,0,0,0,0,0,-1,727,1184,0,0
-490,-160,0,0,0,0,0,0,0,0,0,-1,734,1184,0,0
-483,-160,0,0,0,0,0,0,0,0,0,-1,741,1184,0,0
-476,-160,0,0,0,0,0,0,0,0,0,-1,748,1184,0,0
-469,-160,0,0,0,0,0,0,0,0,0,-1,755,1184,0,0
-462,-160,0,0,0,0,0,0,0,0,0,-1,762,1184,0,0
-455,-160,0,0,0,0,0,0,0,0,0,-1,769,1184,0,0
-448,-160,0,0,0,0,0,0,0,0,0,-1,776,1184,0,0
-441,-160,0,0,0,0,0,0,0,0,0,-1,783,1184,0,0
-434,-160,0,0,0,0,0,0,0,0,0,-1,790,1184,0,0
-427,-160,0,0,0,0,0,0,0,0,0,-1,797,1184,0,0
-420,-160,0,0,0,0,0,0,0,0,0,-1,804,1184,0,0
-413,-160,0,0,0,0,0,0,0,0,0,-1,811,1184,0,0
-406,-160,0,0,0,0,0,0,0,0,0,-1,818,1184,0,0
-399,-160,0,0,0,0,0,0,0,0,0,-1,825,1184,0,0
-392,-160,0,0,0,0,0,0,0,0,0,-1,832,1184,0,0
-385,-160,0,0,0,0,0,0,0,0,0,-1,839,1184,0,0
-378,-160,0,0,0,0,0,0,0,0,0,-1,846,1184,0,0
-371,-160,0,0,0,0,0,0,0,0,0,-1,853,1184,0,0
-364,-160,0,0,0,0,0,0,0,0,0,-1,860,1184,0,0
-357,-160,0,0,0,0,0,0,0,0,0,-1,867,1184,0,0
-350,-160,0,0,0,0,0,0,0,0,0,-1,874,1184,0,0
-343,-160,0,0,0,0,0,0,0,0,0,-1,881,1184,0,0
-336,-160,0,0,0,0,0,0,0,0,0,-1,888,1184,0,0
-329,-160,0,0,0,0,0,0,0,0,0,-1,895,1184,0,0
-322,-160,0,0,0,0,0,0,0,0,0,-1,902,1184,0,0
-315,-160,0,0,0,0,0,0,0,0,0,-1,909,1184,0,0
-308,-160,0,0,0,0,0,0,0,0,0,-1,916,1184,0,0
-301,-160,0,0,0,0,0,0,0,0,0,-1,923,1184,0,0
-294,-160,0,0,0,0,0,0,0,0,0,-1,930,1184,0,0
-287,-160,0,0,0,0,0,0,0,0,0,-1,937,1184,0,0
-280,-160,0,0,0,0,0,0,0,0,0,-1,944,1184,0,0
-273,-160,0,0,0,0,0,0,0,0,0,-1,951,1184,0,0
-266,-160,0,0,0,0,0,0,0,0,0,-1,958,1184,0,0
-259,-160,0,0,0,0,0,0,0,0,0,-1,965,1184,0,0
-252,-160,0,0,0,0,0,0,0,0,0,-1,972,1184,0,0
-245,-160,0,0,0,0,0,0,0,0,0,-1,979,1184,0,0
-238,-160,0,0,0,0,0,0,0,0,0,-1,986,1184,0,0
-231,-160,0,0,0,0,0,0,0,0,0,-1,993,1184,0,0
-224,-160,0,0,0,0,0,0,0,0,0,-1,1000,1184,0,0
-217,-160,0,0,0,0,0,0,0,0,0,-1,1007,1184,0,0
-210,-160,0,0,0,0,0,0,0,0,0,-1,1014,1184,0,0
-203,-160,0,0,0,0,0,0,0,0,0,-1,1021,1184,0,0
-196,-160,0,0,0,0,0,0,0,0,0,-1,1028,1184,0,0
-189,-160,0,0,0,0,0,0,0,0,0,-1,1035,1184,0,0
-182,-160,0,0,0,0,0,0,0,0,0,-1,1042,1184,0,0
-175,-160,0,0,0,0,0,0,0,0,0,-1,1049,1184,0,0
-168,-160,0,0,0,0,0,0,0,0,0,-1,1056,1184,0,0
-161,-160,0,0,0,0,0,0,0,0,0,-1,1063,1184,0,0
-154,-160,0,0,0,0,0,0,0,0,0,-1,1070,1184,0,0
-147,-160,0,0,0,0,0,0,0,0,0,-1,1077,1184,0,0
-140,-160,0,0,0,0,0,0,0,0,0,-1,1084,1184,0,0
-133,-160,0,0,0,0,0,0,0,0,0,-1,1091,1184,0,0
-126,-160,0,0,0,0,0,0,0,0,0,-1,1098,1184,0,0
-119,-160,0,0,0,0,0,0,0,0,0,-1,1105,1184,0,0
-112,-160,0,0,0,0,0,0,0,0,0,-1,1112,1184,0,0
-105,-160,0,0,0,0,0,0,0,0,0,-1,1119,1184,0,0
-98,-160,0,0,0,0,0,0,0,0,0,-1,1126,1184,0,0
-91,-160,0,0,0,0,0,0,0,0,0,-1,1133,1184,0,0
-84,-160,0,0,0,0,0,0,0,0,0,-1,1140,1184,0,0
-77,-160,0,0,0,0,0,0,0,0,0,-1,1147,1184,0,0
-70,-160,0,0,0,0,0,0,0,0,0,-1,1154,1184,0,0
-63,-160,0,0,0,0,0,0,0,0,0,-1,1161,1184,0,0
-56,-160,0,0,0,0,0,0,0,0,0,-1,1168,1184,0,0
-49,-160,0,0,0,0,0,0,0,0,0,-1,1175,1184,0,0
-42,-160,0,0,0,0,0,0,0,0,0,-1,1182,1184,0,0
-35,-160,0,0,0,0,0,0,0,0,0,-1,1189,1184,0,0
-28,-160,0,0,0,0,0,0,0,0,0,-1,1196,1184,0,0
-21,-160,0,0,0,0,0,0,0,0,0,-1,1203,1184,0,0
-14,-160,0,0,0,0,0,0,0,0,0,-1,1210,1184,0,0
-7,-160,0,0,0,0,0,0,0,0,0,-1,1217,1184,0,0
0,-160,0,0,0,0,0,0,0,0,0,-1,1224,1184,0,0
7,-160,0,0,0,0,0,0,0,0,0,-1,1231,1184,0,0
14,-160,0,0,0,0,0,0,0,0,0,-1,1238,1184,0,0
21,-160,0,0,0,0,0,0,0,0,0,-1,1245,1184,0,0
28,-160,0,0,0,0,0,0,0,0,0,-1,1252,1184,0,0
35,-160,0,0,0,0,0,0,0,0,0,-1,1259,1184,0,0
42,-160,0,0,0,0,0,0,0,0,0,-1,1266,1184,0,0
49,-160,0,0,0,0,0,0,0,0,0,-1,1273,1184,0,0
56,-160,0,0,0,0,0,0,0,0,0,-1,1280,1184,0,0
63,-160,0,0,0,0,0,0,0,0,0,-1,1287,1184,0,0
70,-160,0,0,0,0,0,0,0,0,0,-1,1294,1184,0,0
77,-160,0,0,0,0,0,0,0,0,0,-1,1301,1184,0,0
84,-160,0,0,0,0,0,0,0,0,0,-1,1308,1184,0,0
91,-160,0,0,0,0,0,0,0,0,0,-1,1315,1184,0,0
98,-160,0,0,0,0,0,0,0,0,0,-1,1322,1184,0,0
105,-160,0,0,0,0,0,0,0,0,0,-1,1329,1184,0,0
112,-160,0,0,0,0,0,0,0,0,0,-1,1336,1184,0,0
119,-160,0,0,0,0,0,0,0,0,0,-1,1343,1184,0,0
126,-160,0,0,0,0,0,0,0,0,0,-1,1350,1184,0,0
133,-160,0,0,0,0,0,0,0,0,0,-1,1357,1184,0,0
140,-160,0,0,0,0,0,0,0,0,0,-1,1364,1184,0,0
147,-160,0,0,0,0,0,0,0,0,0,-1,1371,1184,0,0
154,-160,0,0,0,0,0,0,0,0,0,-1,1378,1184,0,0
161,-160,0,0,0,0,0,0,0,0,0,-1,1385,1184,0,0
168,-160,0,0,0,0,0,0,0,0,0,-1,1392,1184,0,0
175,-160,0,0,0,0,0,0,0,0,0,-1,1399,1184,0,0
182,-160,0,0,0,0,0,0,0,0,0,-1,1406,1184,0,0
189,-160,0,0,0,0,0,0,0,0,0,-1,1413,1184,0,0
196,-160,0,0,0,0,0,0,0,0,0,-1,1420,1184,0,0
203,-160,0,0,0,0,0,0,0,0,0,-1,1427,1184,0,0
210,-160,0,0,0,0,0,0,0,0,0,-1,1434,1184,0,0
217,-160,0,0,0,0,0,0,0,0,0,-1,1441,1184,0,0
224,-160,0,0,0,0,0,0,0,0,0,-1,1448,1184,0,0
231,-160,0,0,0,0,0,0,0,0,0,-1,1455,1184,0,0
238,-160,0,0,0,0,0,0,0,0,0,-1,1462,1184,0,0
245,-160,0,0,0,0,0,0,0,0,0,-1,1469,1184,0,0
252,-160,0,0,0,0,0,0,0,0,0,-1,1476,1184,0,0
259,-160,0,0,0,0,0,0,0,0,0,-1,1483,1184,0,0
266,-160,0,0,0,0,0,0,0,0,0,-1,1490,1184,0,0
273,-160,0,0,0,0,0,0,0,0,0,-1,1497,1184,0,0
280,-160,0,0,0,0,0,0,0,0,0,-1,1504,1184,0,0
287,-160,0,0,0,0,0,0,0,0,0,-1,1511,1184,0,0
294,-160,0,0,0,0,0,0,0,0,0,-1,1518,1184,0,0
301,-160,0,0,0,0,0,0,0,0,0,-1,1525,1184,0,0
308,-160,0,0,0,0,0,0,0,0,0,-1,1532,1184,0,0
315,-160,0,0,0,0,0,0,0,0,0,-1,1539,1184,0,0
322,-160,0,0,0,0,0,0,0,0,0,-1,1546,1184,0,0
329,-160,0,0,0,0,0,0,0,0,0,-1,1553,1184,0,0
336,-160,0,0,0,0,0,0,0,0,0,-1,1560,1184,0,0
343,-160,0,0,0,0,0,0,0,0,0,-1,1567,1184,0,0
350,-160,0,0,0,0,0,0,0,0,0,-1,1574,1184,0,0
357,-160,0,0,0,0,0,0,0,0,0,-1,1581,1184,0,0
364,-160,0,0,0,0,0,0,0,0,0,-1,1588,1184,0,0
371,-160,0,0,0,0,0,0,0,0,0,-1,1595,1184,0,0
378,-160,0,0,0,0,0,0,0,0,0,-1,1602,1184,0,0
385,-160,0,0,0,0,0,0,0,0,0,-1,1609,1184,0,0
392,-160,0,0,0,0,0,0,0,0,0,-1,1616,1184,0,0
399,-160,0,0,0,0,0,0,0,0,0,-1,1623,1184,0,0
406,-160,0,0,0,0,0,0,0,0,0,-1,1630,1184,0,0
413,-160,0,0,0,0,0,0,0,0,0,-1,1637,1184,0,0
420,-160,0,0,0,0,0,0,0,0,0,-1,1644,1184,0,0
427,-160,0,0,0,0,0,0,0,0,0,-1,1651,1184,0,0
434,-160,0,0,0,0,0,0,0,0,0,-1,1658,1184,0,0
441,-160,0,0,0,0,0,0,0,0,0,-1,1665,1184,0,0
448,-160,0,0,0,0,0,0,0,0,0,-1,1672,1184,0,0
455,-160,0,0,0,0,0,0,0,0,0,-1,1679,1184,0,0
462,-160,0,0,0,0,0,0,0,0,0,-1,1686,1184,0,0
469,-160,0,0,0,0,0,0,0,0,0,-1,1693,1184,0,0
476,-160,0,0,0,0,0,0,0,0,0,-1,1700,1184,0,0
483,-160,0,0,0,0,0,0,0,0,0,-1,1707,1184,0,0
490,-160,0,0,0,0,0,0,0,0,0,-1,1714,1184,0,0
497,-160,0,0,0,0,0,0,0,0,0,-1,1721,1184,0,0
504,-160,0,0,0,0,0,0,0,0,0,-1,1728,1184,0,0
511,-160,0,0,0,0,0,0,0,0,0,-1,1735,1184,0,0
518,-160,0,0,0,0,0,0,0,0,0,-1,1742,1184,0,0
525,-160,0,0,0,0,0,0,0,0,0,-1,1749,1184,0,0
532,-160,0,0,0,0,0,0,0,0,0,-1,1756,1184,0,0
539,-160,0,0,0,0,0,0,0,0,0,-1,1763,1184,0,0
546,-160,0,0,0,0,0,0,0,0,0,-1,1770,1184,0,0
553,-160,0,0,0,0,0,0,0,0,0,-1,1777,1184,0,0
560,-160,0,0,0,0,0,0,0,0,0,-1,1784,1184,0,0
567,-160,0,0,0,0,0,0,0,0,0,-1,1791,1184,0,0
574,-160,0,0,0,0,0,0,0,0,0,-1,1798,1184,0,0
581,-160,0,0,0,0,0,0,0,0,0,-1,1805,1184,0,0
588,-160,0,0,0,0,0,0,0,0,0,-1,1812,1184,0,0
595,-160,0,0,0,0,0,0,0,0,0,-1,1819,1184,0,0
602,-160,0,0,0,0,0,0,0,0,0,-1,1826,1184,0,0
609,-160,0,0,0,0,0,0,0,0,0,-1,1833,1184,0,0
616,-160,0,0,0,0,0,0,0,0,0,-1,1840,1184,0,0
623,-160,0,0,0,0,0,0,0,0,0,-1,1847,1184,0,0
630,-160,0,0,0,0,0,0,0,0,0,-1,1854,1184,0,0
637,-160,48.2217,2.57166,-0.00153552,0.000584858,0.00203428,0.00181864,-0.0027693,1.02561,0.00266774,0.0426091,1861,1184,48.2216,-2.57164
644,-160,48.2688,2.56921,-0.00027863,0.000211048,0.00174862,0.00173188,-0.00179947,0.854955,0.00203895,0.0407805,1868,1184,48.2687,-2.56922
651,-160,48.2435,2.60474,0.000605108,0.000163254,0.00123204,0.00163588,-0.000867512,0.696682,0.00146785,0.03584,1875,1184,48.2436,-2.60473
658,-160,48.1984,2.80029,0.00139981,0.000260338,0.000571264,0.00163688,2.32647e-05,0.393369,0.00108358,0.0390131,1882,1184,48.1984,-2.80029
665,-160,48.3717,2.78027,0.00202477,0.000504033,-0.000109092,0.00203256,0.000496247,-0.0712498,0.00122364,0.0387915,1889,1184,48.3717,-2.78032
672,-160,48.3619,2.54565,0.00216416,0.00075814,-0.000495952,0.00232149,0.000600806,-0.307194,0.00139133,0.0324504,1896,1184,48.362,-2.54568
679,-160,48.3251,2.61084,0.00178366,0.000877116,-0.000481013,0.00199132,0.000669458,-0.40754,0.00117008,0.025269,1903,1184,48.3251,-2.61079
686,-160,48.3754,2.65967,0.0013378,0.000783331,-0.000366975,0.00152049,0.000600642,-0.461906,0.000884278,0.0177194,1910,1184,48.3753,-2.65971
693,-160,48.4436,2.5603,0,0,0,0,0,0,0,-1,1917,1184,48.4436,-2.56025
700,-160,42.8784,2.44617,0,0,0,0,0,0,0,-1,1924,1184,42.8785,-2.4462
707,-160,24.5115,6.27405,0,0,0,0,0,0,0,-1,1931,1184,24.5115,-6.27401
714,-160,35.6892,6.8905,0,0,0,0,0,0,0,-1,1938,1184,35.6892,-6.89048
721,-160,36.2388,6.37878,0,0,0,0,0,0,0,-1,1945,1184,36.2388,-6.37876
728,-160,41.8407,7.13391,0,0,0,0,0,0,0,-1,1952,1184,41.8407,-7.13393
735,-160,41.9281,6.67847,-0.000794261,0.000648243,0.00118699,0.00131593,-0.00146195,1.0584,0.00160455,0.029953,1959,1184,41.9282,-6.67849
742,-160,41.8245,6.29858,-0.00107133,0.000536216,0.00171251,0.0016242,-0.00215931,1.00481,0.00219168,0.0167804,1966,1184,41.8245,-6.29855
749,-160,41.8126,5.9248,-0.00147093,0.000793997,0.0022836,0.00221052,-0.00288745,1.01558,0.00295195,0.0183582,1973,1184,41.8127,-5.92486
756,-160,41.8098,5.53357,-0.00184452,0.00200499,0.00147882,0.0025075,-0.00234703,1.24324,0.00280327,0.0118167,1980,1184,41.8098,-5.53359
763,-160,41.7631,5.15698,-0.00225127,0.00355283,0.000301701,0.00356847,-0.00226691,1.519,0.00339688,0.0123959,1987,1184,41.7631,-5.15703
770,-160,41.6791,4.7489,-0.00273137,0.00578169,-0.00192358,0.00619616,-0.00314584,-1.35857,0.0054886,0.0236502,1994,1184,41.679,-4.74895
777,-160,41.6239,4.42908,-0.00318282,0.00888171,-0.00571198,0.011157,-0.00545808,-1.19173,0.00977898,0.0361422,2001,1184,41.6239,-4.42911
784,-160,41.9214,4.18445,-0.0034723,0.0131269,-0.0116626,0.0191416,-0.00948705,-1.09465,0.0168391,0.0455351,2008,1184,41.9213,-4.1844
791,-160,42.428,4.18286,0,0,0,0,0,0,0,-1,2015,1184,42.4279,-4.18288
798,-160,42.8965,4.35767,0,0,0,0,0,0,0,-1,2022,1184,42.8965,-4.35768
805,-160,43.2595,4.3573,0,0,0,0,0,0,0,-1,2029,1184,43.2596,-4.35728
812,-160,0,0,0,0,0,0,0,0,0,-1,2036,1184,0,0
-700,-167,0,0,0,0,0,0,0,0,0,-1,524,1191,0,0
-693,-167,0,0,0,0,0,0,0,0,0,-1,531,1191,0,0
-686,-167,-28.755,-3.51746,-0.029429,0.0431914,0.0359621,0.057986,-0.0442236,1.18051,0.0591888,0.0472646,538,1191,-28.755,3.51747
-679,-167,-28.7236,-2.88757,-0.0140819,0.0421523,0.0412891,0.0639888,-0.0359184,1.08432,0.0584354,0.0467211,545,1191,-28.7236,2.88759
-672,-167,-28.9041,-2.0741,0,0,0,0,0,0,0,-1,552,1191,-28.904,2.07408
-665,-167,-29.1593,-1.46021,0.00267833,0.0351464,0.0385508,0.0607419,-0.0229172,0.984683,0.0499191,0.0473772,559,1191,-29.1593,1.46021
-658,-167,-29.4234,-0.805298,0.00685308,0.0303643,0.0337465,0.0543441,-0.0171267,0.953,0.0430882,0.0498979,566,1191,-29.4234,0.805274
-651,-167,-28.7365,1.37683,0,0,0,0,0,0,0,-1,573,1191,-28.7365,-1.37678
-644,-167,-28.5128,1.72363,0.00945296,0.0200475,0.021462,0.0368563,-0.00735587,0.90639,0.0273545,0.0417602,580,1191,-28.5128,-1.72359
-637,-167,-28.3427,2.04541,0.00861677,0.0148732,0.0149154,0.0269849,-0.0034949,0.888766,0.0192609,0.0188086,587,1191,-28.3427,-2.04542
-630,-167,-28.436,2.41602,0.00730662,0.0104309,0.00947461,0.0184713,-0.000733766,0.867101,0.0125659,0.00984141,594,1191,-28.4361,-2.41601
-623,-167,-28.4628,2.83313,0.00503975,0.00568729,0.00379081,0.00916813,0.00155891,0.828,0.00566441,0.0127883,601,1191,-28.4628,-2.83315
-616,-167,-28.4863,3.29468,0.00159093,0.00235018,-0.000441072,0.0025525,0.00138861,-1.14073,0.00147559,0.016027,608,1191,-28.4863,-3.29471
-609,-167,-28.4926,3.78772,-0.0017049,0.000443418,-0.00234589,0.00194938,-0.00321086,-1.0001,0.0030088,0.0135751,615,1191,-28.4926,-3.78775
-602,-167,-28.5205,4.22253,-0.00157566,0.000793746,-0.00166019,0.00164859,-0.0024305,-1.09529,0.00236944,0.0164075,622,1191,-28.5205,-4.22253
-595,-167,-28.3928,4.59631,0,0,0,0,0,0,0,-1,629,1191,-28.3928,-4.59626
-588,-167,-28.6789,5.03821,0,0,0,0,0,0,0,-1,636,1191,-28.6789,-5.03821
-581,-167,-28.3348,5.29346,0,0,0,0,0,0,0,-1,643,1191,-28.3349,-5.29344
-574,-167,-24.1547,5.43677,0,0,0,0,0,0,0,-1,650,1191,-24.1547,-5.43682
-567,-167,-27.3643,2.55859,0,0,0,0,0,0,0,-1,657,1191,-27.3643,-2.55864
-560,-167,-35.6863,0.915894,0,0,0,0,0,0,0,-1,664,1191,-35.6863,-0.91586
-553,-167,-35.7047,0.858765,-0.00010692,-1.44148e-05,-0.000956158,0.000896609,-0.00101794,-0.809566,0.00110611,0.0392653,671,1191,-35.7047,-0.858709
-546,-167,-35.7079,0.865356,0.000379786,-0.000505839,-0.000818618,0.000867682,-0.000993735,-0.537473,0.00107551,0.0343243,678,1191,-35.7079,-0.865354
-539,-167,-35.6027,0.64563,0.00115367,-0.000587152,8.82443e-05,0.00115813,-0.000591613,0.0505187,0.00102771,0.0382213,685,1191,-35.6027,-0.645598
-532,-167,-35.6918,0.602417,0.00156815,-0.0008694,0.00155222,0.00232291,-0.00162415,0.452578,0.00229071,0.0438198,692,1191,-35.6918,-0.602398
-525,-167,-35.6628,0.855713,0.00256828,-0.000573922,0.00358569,0.00491196,-0.0029176,0.578916,0.00456902,0.0437006,699,1191,-35.6628,-0.85576
-518,-167,-35.5626,1.05981,0.00370561,-0.000182818,0.00561206,0.00770069,-0.0041779,0.618651,0.00695791,0.0436183,706,1191,-35.5626,-1.05985
-511,-167,0,0,0,0,0,0,0,0,0,-1,713,1191,0,0
-504,-167,0,0,0,0,0,0,0,0,0,-1,720,1191,0,0
-497,-167,0,0,0,0,0,0,0,0,0,-1,727,1191,0,0
-490,-167,0,0,0,0,0,0,0,0,0,-1,734,1191,0,0
-483,-167,0,0,0,0,0,0,0,0,0,-1,741,1191,0,0
-476,-167,0,0,0,0,0,0,0,0,0,-1,748,1191,0,0
-469,-167,0,0,0,0,0,0,0,0,0,-1,755,1191,0,0
-462,-167,0,0,0,0,0,0,0,0,0,-1,762,1191,0,0
-455,-167,0,0,0,0,0,0,0,0,0,-1,769,1191,0,0
-448,-167,0,0,0,0,0,0,0,0,0,-1,776,1191,0,0
-441,-167,0,0,0,0,0,0,0,0,0,-1,783,1191,0,0
-434,-167,0,0,0,0,0,0,0,0,0,-1,790,1191,0,0
-427,-167,0,0,0,0,0,0,0,0,0,-1,797,1191,0,0
-420,-167,0,0,0,0,0,0,0,0,0,-1,804,1191,0,0
-413,-167,0,0,0,0,0,0,0,0,0,-1,811,1191,0,0
-406,-167,0,0,0,0,0,0,0,0,0,-1,818,1191,0,0
-399,-167,0,0,0,0,0,0,0,0,0,-1,825,1191,0,0
-392,-167,0,0,0,0,0,0,0,0,0,-1,832,1191,0,0
-385,-167,0,0,0,0,0,0,0,0,0,-1,839,1191,0,0
-378,-167,0,0,0,0,0,0,0,0,0,-1,846,1191,0,0
-371,-167,0,0,0,0,0,0,0,0,0,-1,853,1191,0,0
-364,-167,0,0,0,0,0,0,0,0,0,-1,860,1191,0,0
-357,-167,0,0,0,0,0,0,0,0,0,-1,867,1191,0,0
-350,-167,0,0,0,0,0,0,0,0,0,-1,874,1191,0,0
-343,-167,0,0,0,0,0,0,0,0,0,-1,881,1191,0,0
-336,-167,0,0,0,0,0,0,0,0,0,-1,888,1191,0,0
-329,-167,0,0,0,0,0,0,0,0,0,-1,895,1191,0,0
-322,-167,0,0,0,0,0,0,0,0,0,-1,902,1191,0,0
-315,-167,0,0,0,0,0,0,0,0,0,-1,909,1191,0,0
-308,-167,0,0,0,0,0,0,0,0,0,-1,916,1191,0,0
-301,-167,0,0,0,0,0,0,0,0,0,-1,923,1191,0,0
-294,-167,0,0,0,0,0,0,0,0,0,-1,930,1191,0,0
-287,-167,0,0,0,0,0,0,0,0,0,-1,937,1191,0,0
-280,-167,0,0,0,0,0,0,0,0,0,-1,944,1191,0,0
-273,-167,0,0,0,0,0,0,0,0,0,-1,951,1191,0,0
-266,-167,0,0,0,0,0,0,0,0,0,-1,958,1191,0,0
-259,-167,0,0,0,0,0,0,0,0,0,-1,965,1191,0,0
-252,-167,0,0,0,0,0,0,0,0,0,-1,972,1191,0,0
-245,-167,0,0,0,0,0,0,0,0,0,-1,979,1191,0,0
-238,-167,0,0,0,0,0,0,0,0,0,-1,986,1191,0,0
-231,-167,0,0,0,0,0,0,0,0,0,-1,993,1191,0,0
-224,-167,0,0,0,0,0,0,0,0,0,-1,1000,1191,0,0
-217,-167,0,0,0,0,0,0,0,0,0,-1,1007,1191,0,0
-210,-167,0,0,0,0,0,0,0,0,0,-1,1014,1191,0,0
-203,-167,0,0,0,0,0,0,0,0,0,-1,1021,1191,0,0
-196,-167,0,0,0,0,0,0,0,0,0,-1,1028,1191,0,0
-189,-167,0,0,0,0,0,0,0,0,0,-1,1035,1191,0,0
-182,-167,0,0,0,0,0,0,0,0,0,-1,1042,1191,0,0
-175,-167,0,0,0,0,0,0,0,0,0,-1,1049,1191,0,0
-168,-167,0,0,0,0,0,0,0,0,0,-1,1056,1191,0,0
-161,-167,0,0,0,0,0,0,0,0,0,-1,1063,1191,0,0
-154,-167,0,0,0,0,0,0,0,0,0,-1,1070,1191,0,0
-147,-167,0,0,0,0,0,0,0,0,0,-1,1077,1191,0,0
-140,-167,0,0,0,0,0,0,0,0,0,-1,1084,1191,0,0
-133,-167,0,0,0,0,0,0,0,0,0,-1,1091,1191,0,0
-126,-167,0,0,0,0,0,0,0,0,0,-1,1098,1191,0,0
-119,-167,0,0,0,0,0,0,0,0,0,-1,1105,1191,0,0
-112,-167,0,0,0,0,0,0,0,0,0,-1,1112,1191,0,0
-105,-167,0,0,0,0,0,0,0,0,0,-1,1119,1191,0,0
-98,-167,0,0,0,0,0,0,0,0,0,-1,1126,1191,0,0
-91,-167,0,0,0,0,0,0,0,0,0,-1,1133,1191,0,0
-84,-167,0,0,0,0,0,0,0,0,0,-1,1140,1191,0,0
-77,-167,0,0,0,0,0,0,0,0,0,-1,1147,1191,0,0
-70,-167,0,0,0,0,0,0,0,0,0,-1,1154,1191,0,0
-63,-167,0,0,0,0,0,0,0,0,0,-1,1161,1191,0,0
-56,-167,0,0,0,0,0,0,0,0,0,-1,1168,1191,0,0
-49,-167,0,0,0,0,0,0,0,0,0,-1,1175,1191,0,0
-42,-167,0,0,0,0,0,0,0,0,0,-1,1182,1191,0,0
-35,-167,0,0,0,0,0,0,0,0,0,-1,1189,1191,0,0
-28,-167,0,0,0,0,0,0,0,0,0,-1,1196,1191,0,0
-21,-167,0,0,0,0,0,0,0,0,0,-1,1203,1191,0,0
-14,-167,0,0,0,0,0,0,0,0,0,-1,1210,1191,0,0
-7,-167,0,0,0,0,0,0,0,0,0,-1,1217,1191,0,0
0,-167,0,0,0,0,0,0,0,0,0,-1,1224,1191,0,0
7,-167,0,0,0,0,0,0,0,0,0,-1,1231,1191,0,0
14,-167,0,0,0,0,0,0,0,0,0,-1,1238,1191,0,0
21,-167,0,0,0,0,0,0,0,0,0,-1,1245,1191,0,0
28,-167,0,0,0,0,0,0,0,0,0,-1,1252,1191,0,0
35,-167,0,0,0,0,0,0,0,0,0,-1,1259,1191,0,0
42,-167,0,0,0,0,0,0,0,0,0,-1,1266,1191,0,0
49,-167,0,0,0,0,0,0,0,0,0,-1,1273,1191,0,0
56,-167,0,0,0,0,0,0,0,0,0,-1,1280,1191,0,0
63,-167,0,0,0,0,0,0,0,0,0,-1,1287,1191,0,0
70,-167,0,0,0,0,0,0,0,0,0,-1,1294,1191,0,0
77,-167,0,0,0,0,0,0,0,0,0,-1,1301,1191,0,0
84,-167,0,0,0,0,0,0,0,0,0,-1,1308,1191,0,0
91,-167,0,0,0,0,0,0,0,0,0,-1,1315,1191,0,0
98,-167,0,0,0,0,0,0,0,0,0,-1,1322,1191,0,0
105,-167,0,0,0,0,0,0,0,0,0,-1,1329,1191,0,0
112,-167,0,0,0,0,0,0,0,0,0,-1,1336,1191,0,0
119,-167,0,0,0,0,0,0,0,0,0,-1,1343,1191,0,0
126,-167,0,0,0,0,0,0,0,0,0,-1,1350,1191,0,0
133,-167,0,0,0,0,0,0,0,0,0,-1,1357,1191,0,0
140,-167,0,0,0,0,0,0,0,0,0,-1,1364,1191,0,0
147,-167,0,0,0,0,0,0,0,0,0,-1,1371,1191,0,0
154,-167,0,0,0,0,0,0,0,0,0,-1,1378,1191,0,0
161,-167,0,0,0,0,0,0,0,0,0,-1,1385,1191,0,0
168,-167,0,0,0,0,0,0,0,0,0,-1,1392,1191,0,0
175,-167,0,0,0,0,0,0,0,0,0,-1,1399,1191,0,0
182,-167,0,0,0,0,0,0,0,0,0,-1,1406,1191,0,0
189,-167,0,0,0,0,0,0,0,0,0,-1,1413,1191,0,0
196,-167,0,0,0,0,0,0,0,0,0,-1,1420,1191,0,0
203,-167,0,0,0,0,0,0,0,0,0,-1,1427,1191,0,0
210,-167,0,0,0,0,0,0,0,0,0,-1,1434,1191,0,0
217,-167,0,0,0,0,0,0,0,0,0,-1,1441,1191,0,0
224,-167,0,0,0,0,0,0,0,0,0,-1,1448,1191,0,0
231,-167,0,0,0,0,0,0,0,0,0,-1,1455,1191,0,0
238,-167,0,0,0,0,0,0,0,0,0,-1,1462,1191,0,0
245,-167,0,0,0,0,0,0,0,0,0,-1,1469,1191,0,0
252,-167,0,0,0,0,0,0,0,0,0,-1,1476,1191,0,0
259,-167,0,0,0,0,0,0,0,0,0,-1,1483,1191,0,0
266,-167,0,0,0,0,0,0,0,0,0,-1,1490,1191,0,0
273,-167,0,0,0,0,0,0,0,0,0,-1,1497,1191,0,0
280,-167,0,0,0,0,0,0,0,0,0,-1,1504,1191,0,0
287,-167,0,0,0,0,0,0,0,0,0,-1,1511,1191,0,0
294,-167,0,0,0,0,0,0,0,0,0,-1,1518,1191,0,0
301,-167,0,0,0,0,0,0,0,0,0,-1,1525,1191,0,0
308,-167,0,0,0,0,0,0,0,0,0,-1,1532,1191,0,0
315,-167,0,0,0,0,0,0,0,0,0,-1,1539,1191,0,0
322,-167,0,0,0,0,0,0,0,0,0,-1,1546,1191,0,0
329,-167,0,0,0,0,0,0,0,0,0,-1,1553,1191,0,0
336,-167,0,0,0,0,0,0,0,0,0,-1,1560,1191,0,0
343,-167,0,0,0,0,0,0,0,0,0,-1,1567,1191,0,0
350,-167,0,0,0,0,0,0,0,0,0,-1,1574,1191,0,0
357,-167,0,0,0,0,0,0,0,0,0,-1,1581,1191,0,0
364,-167,0,0,0,0,0,0,0,0,0,-1,1588,1191,0,0
371,-167,0,0,0,0,0,0,0,0,0,-1,1595,1191,0,0
378,-167,0,0,0,0,0,0,0,0,0,-1,1602,1191,0,0
385,-167,0,0,0,0,0,0,0,0,0,-1,1609,1191,0,0
392,-167,0,0,0,0,0,0,0,0,0,-1,1616,1191,0,0
399,-167,0,0,0,0,0,0,0,0,0,-1,1623,1191,0,0
406,-167,0,0,0,0,0,0,0,0,0,-1,1630,1191,0,0
413,-167,0,0,0,0,0,0,0,0,0,-1,1637,1191,0,0
420,-167,0,0,0,0,0,0,0,0,0,-1,1644,1191,0,0
427,-167,0,0,0,0,0,0,0,0,0,-1,1651,1191,0,0
434,-167,0,0,0,0,0,0,0,0,0,-1,1658,1191,0,0
441,-167,0,0,0,0,0,0,0,0,0,-1,1665,1191,0,0
448,-167,0,0,0,0,0,0,0,0,0,-1,1672,1191,0,0
455,-167,0,0,0,0,0,0,0,0,0,-1,1679,1191,0,0
462,-167,0,0,0,0,0,0,0,0,0,-1,1686,1191,0,0
469,-167,0,0,0,0,0,0,0,0,0,-1,1693,1191,0,0
476,-167,0,0,0,0,0,0,0,0,0,-1,1700,1191,0,0
483,-167,0,0,0,0,0,0,0,0,0,-1,1707,1191,0,0
490,-167,0,0,0,0,0,0,0,0,0,-1,1714,1191,0,0
497,-167,0,0,0,0,0,0,0,0,0,-1,1721,1191,0,0
504,-167,0,0,0,0,0,0,0,0,0,-1,1728,1191,0,0
511,-167,0,0,0,0,0,0,0,0,0,-1,1735,1191,0,0
518,-167,0,0,0,0,0,0,0,0,0,-1,1742,1191,0,0
525,-167,0,0,0,0,0,0,0,0,0,-1,1749,1191,0,0
532,-167,0,0,0,0,0,0,0,0,0,-1,1756,1191,0,0
539,-167,0,0,0,0,0,0,0,0,0,-1,1763,1191,0,0
546,-167,0,0,0,0,0,0,0,0,0,-1,1770,1191,0,0
553,-167,0,0,0,0,0,0,0,0,0,-1,1777,1191,0,0
560,-167,0,0,0,0,0,0,0,0,0,-1,1784,1191,0,0
567,-167,0,0,0,0,0,0,0,0,0,-1,1791,1191,0,0
574,-167,0,0,0,0,0,0,0,0,0,-1,1798,1191,0,0
581,-167,0,0,0,0,0,0,0,0,0,-1,1805,1191,0,0
588,-167,0,0,0,0,0,0,0,0,0,-1,1812,1191,0,0
595,-167,0,0,0,0,0,0,0,0,0,-1,1819,1191,0,0
602,-167,0,0,0,0,0,0,0,0,0,-1,1826,1191,0,0
609,-167,0,0,0,0,0,0,0,0,0,-1,1833,1191,0,0
616,-167,0,0,0,0,0,0,0,0,0,-1,1840,1191,0,0
623,-167,0,0,0,0,0,0,0,0,0,-1,1847,1191,0,0
630,-167,0,0,0,0,0,0,0,0,0,-1,1854,1191,0,0
637,-167,48.1354,2.60876,-0.00150956,0.000250856,0.00232775,0.00185926,-0.00311796,0.966157,0.00290407,0.0440937,1861,1191,48.1353,-2.60871
644,-167,48.1702,2.49451,-0.000204964,8.88626e-05,0.00176115,0.00170921,-0.00182532,0.827011,0.00204103,0.0453287,1868,1191,48.1701,-2.49452
651,-167,48.2588,2.53125,0.000794027,0.000170757,0.00103084,0.0015593,-0.000594521,0.63861,0.00128442,0.0426761,1875,1191,48.2588,-2.53129
658,-167,48.1724,3.005,0.00167899,0.00039475,0.000165614,0.0017,0.000373736,0.126209,0.00103157,0.0443822,1882,1191,48.1724,-3.00501
665,-167,48.3934,2.93701,0.00236004,0.000689126,-0.000618748,0.00256421,0.000484949,-0.318733,0.00157294,0.0388016,1889,1191,48.3935,-2.93699
672,-167,48.3654,2.63953,0.00249655,0.000987437,-0.00101086,0.00300342,0.000480567,-0.464785,0.00186287,0.026884,1896,1191,48.3653,-2.63948
679,-167,48.3344,2.65222,0.00210627,0.00112374,-0.000968917,0.00270135,0.00052866,-0.550771,0.0016531,0.0211556,1903,1191,48.3344,-2.65223
686,-167,48.3682,2.66345,0.00163152,0.00102818,-0.000827071,0.00221022,0.000449481,-0.610522,0.00134885,0.0310057,1910,1191,48.3682,-2.6635
693,-167,48.387,2.70044,0,0,0,0,0,0,0,-1,1917,1191,48.387,-2.70039
700,-167,28.0459,2.70508,0,0,0,0,0,0,0,-1,1924,1191,28.0459,-2.70513
707,-167,29.4708,7.10168,0,0,0,0,0,0,0,-1,1931,1191,29.4708,-7.10172
714,-167,35.9202,6.84668,0,0,0,0,0,0,0,-1,1938,1191,35.9202,-6.84664
721,-167,36.2072,6.38892,0,0,0,0,0,0,0,-1,1945,1191,36.2072,-6.38891
728,-167,41.3989,7.2113,0,0,0,0,0,0,0,-1,1952,1191,41.399,-7.21133
735,-167,41.4395,6.79517,-0.000616373,0.000867688,0.000995855,0.00136757,-0.00111625,1.10558,0.00143648,0.0183468,1959,1191,41.4394,-6.79512
742,-167,41.3914,6.33215,-0.000872377,0.000735638,0.00160775,0.00172921,-0.00186595,1.01725,0.00207617,0.0158787,1966,1191,41.3914,-6.33218
749,-167,41.3835,5.91638,-0.00104713,0.00094289,0.00215348,0.00232012,-0.00242436,1.00181,0.00273945,0.0145282,1973,1191,41.3836,-5.91636
756,-167,41.4089,5.53748,-0.00103383,0.00199608,0.00138896,0.00253644,-0.00157419,1.19978,0.00239485,0.0111237,1980,1191,41.4089,-5.53752
763,-167,41.351,5.14636,-0.00100763,0.00337149,0.000292784,0.00339097,-0.00102711,1.50433,0.00266971,0.0132052,1987,1191,41.3509,-5.14642
770,-167,41.1986,4.84851,-0.000999537,0.00544408,-0.00185358,0.00593924,-0.00149469,-1.30976,0.00454048,0.0309057,1994,1191,41.1987,-4.84846
777,-167,41.4484,4.75513,-0.000908376,0.0084261,-0.00556543,0.0110223,-0.00350454,-1.13432,0.00875342,0.0467205,2001,1191,41.4484,-4.75519
784,-167,41.7251,4.59497,0,0,0,0,0,0,0,-1,2008,1191,41.7252,-4.59501
791,-167,41.8931,3.82397,0,0,0,0,0,0,0,-1,2015,1191,41.893,-3.82392
798,-167,42.3164,3.90686,0,0,0,0,0,0,0,-1,2022,1191,42.3165,-3.90681
805,-167,47.4907,-1.07446,0,0,0,0,0,0,0,-1,2029,1191,47.4908,1.07445
812,-167,0,0,0,0,0,0,0,0,0,-1,2036,1191,0,0
-700,-174,0,0,0,0,0,0,0,0,0,-1,524,1198,0,0
-693,-174,0,0,0,0,0,0,0,0,0,-1,531,1198,0,0
-686,-174,-28.189,-4.09143,-0.0319384,0.0553516,0.0606906,0.0864611,-0.0630479,1.09713,0.0866712,0.0447042,538,1198,-28.189,4.09139
-679,-174,-28.5134,-3.06616,-0.0138715,0.0529645,0.0628282,0.0907094,-0.0516164,1.02982,0.0831986,0.0461484,545,1198,-28.5134,3.06622
-672,-174,-28.7758,-2.40015,-0.00246222,0.0485557,0.0595579,0.0878375,-0.0417441,0.987732,0.0763754,0.0487856,552,1198,-28.7758,2.40015
-665,-174,-29.0396,-1.79248,0.00476321,0.0430299,0.053431,0.08065,-0.0328569,0.957332,0.0674418,0.0474695,559,1198,-29.0396,1.79246
-658,-174,-29.2073,1.28015,0.00904073,0.0369246,0.045776,0.0708348,-0.0248694,0.93322,0.0573398,0.0452752,566,1198,-29.2073,-1.2802
-651,-174,-28.5671,1.44678,0.0110379,0.0306596,0.0374087,0.0595225,-0.017825,0.913641,0.0467697,0.0487929,573,1198,-28.5671,-1.44683
-644,-174,-28.1171,1.70081,0.0112465,0.0242812,0.0287398,0.0472333,-0.0117057,0.896898,0.0360303,0.0459568,580,1198,-28.1171,-1.7008
-637,-174,-27.8692,2.07471,0.0101571,0.0181159,0.0202886,0.0348118,-0.00653869,0.882239,0.0256665,0.0252171,587,1198,-27.8692,-2.07472
-630,-174,-27.9501,2.45129,0.00867102,0.0128447,0.0132941,0.0242147,-0.00269899,0.863251,0.0171139,0.0135665,594,1198,-27.9501,-2.45134
-623,-174,-27.9871,2.88599,0.00637209,0.0072799,0.00617903,0.0130217,0.00063031,0.822062,0.00847883,0.0141423,601,1198,-27.9871,-2.88602
-616,-174,-28.0009,3.36121,0.00283663,0.00331756,0.000721891,0.00383798,0.00231621,0.946171,0.00223163,0.0189052,608,1198,-28.0009,-3.36124
-609,-174,-28.0259,3.80945,-0.00092703,0.000755028,-0.00211141,0.00218675,-0.00235875,-0.974929,0.00262497,0.0195497,615,1198,-28.0259,-3.8094
-602,-174,-28.07,4.20667,-0.00141368,0.000837007,-0.00154377,0.00162206,-0.00219873,-1.10035,0.0022143,0.0139421,622,1198,-28.07,-4.20673
-595,-174,-27.8895,4.56775,0,0,0,0,0,0,0,-1,629,1198,-27.8894,-4.5677
-588,-174,-28.4677,4.9978,0,0,0,0,0,0,0,-1,636,1198,-28.4676,-4.9978
-581,-174,-28.5447,5.52869,0,0,0,0,0,0,0,-1,643,1198,-28.5447,-5.52871
-574,-174,-27.5696,6.20142,0,0,0,0,0,0,0,-1,650,1198,-27.5696,-6.2014
-567,-174,-26.6597,3.04041,0,0,0,0,0,0,0,-1,657,1198,-26.6597,-3.04039
-560,-174,-35.5765,0.901123,0,0,0,0,0,0,0,-1,664,1198,-35.5765,-0.901109
-553,-174,-35.6578,0.891113,0.000155164,-0.000309857,-0.00088715,0.000839767,-0.00099446,-0.657237,0.00106025,0.0386215,671,1198,-35.6578,-0.891055
-546,-174,-35.7385,0.900269,0.000663667,-0.000842512,-0.000697655,0.000937158,-0.001116,-0.373603,0.00118689,0.0286506,678,1198,-35.7385,-0.900249
-539,-174,-35.7657,0.913452,0.001295,-0.000969576,2.05931e-05,0.00129519,-0.000969763,0.00909256,0.00131216,0.0342465,685,1198,-35.7657,-0.913422
-532,-174,-35.7683,0.95813,0.00144209,-0.00127755,0.00117349,0.00187843,-0.00171389,0.355988,0.00207475,0.0440712,692,1198,-35.7683,-0.958151
-525,-174,-35.8195,1.02161,0.00200361,-0.00106982,0.00293957,0.00378391,-0.00285011,0.54455,0.00384278,0.0438589,699,1198,-35.8195,-1.02163
-518,-174,-35.7097,0.857178,0.00288255,-0.00057093,0.00489614,0.00634752,-0.0040359,0.615871,0.00604418,0.0437766,706,1198,-35.7097,-0.857173
-511,-174,0,0,0,0,0,0,0,0,0,-1,713,1198,0,0
-504,-174,0,0,0,0,0,0,0,0,0,-1,720,1198,0,0
-497,-174,0,0,0,0,0,0,0,0,0,-1,727,1198,0,0
-490,-174,0,0,0,0,0,0,0,0,0,-1,734,1198,0,0
-483,-174,0,0,0,0,0,0,0,0,0,-1,741,1198,0,0
-476,-174,0,0,0,0,0,0,0,0,0,-1,748,1198,0,0
-469,-174,0,0,0,0,0,0,0,0,0,-1,755,1198,0,0
-462,-174,0,0,0,0,0,0,0,0,0,-1,762,1198,0,0
-455,-174,0,0,0,0,0,0,0,0,0,-1,769,1198,0,0
-448,-174,0,0,0,0,0,0,0,0,0,-1,776,1198,0,0
-441,-174,0,0,0,0,0,0,0,0,0,-1,783,1198,0,0
-434,-174,0,0,0,0,0,0,0,0,0,-1,790,1198,0,0
-427,-174,0,0,0,0,0,0,0,0,0,-1,797,1198,0,0
-420,-174,0,0,0,0,0,0,0,0,0,-1,804,1198,0,0
-413,-174,0,0,0,0,0,0,0,0,0,-1,811,1198,0,0
-406,-174,0,0,0,0,0,0,0,0,0,-1,818,1198,0,0
-399,-174,0,0,0,0,0,0,0,0,0,-1,825,1198,0,0
-392,-174,0,0,0,0,0,0,0,0,0,-1,832,1198,0,0
-385,-174,0,0,0,0,0,0,0,0,0,-1,839,1198,0,0
-378,-174,0,0,0,0,0,0,0,0,0,-1,846,1198,0,0
-371,-174,0,0,0,0,0,0,0,0,0,-1,853,1198,0,0
-364,-174,0,0,0,0,0,0,0,0,0,-1,860,1198,0,0
-357,-174,0,0,0,0,0,0,0,0,0,-1,867,1198,0,0
-350,-174,0,0,0,0,0,0,0,0,0,-1,874,1198,0,0
-343,-174,0,0,0,0,0,0,0,0,0,-1,881,1198,0,0
-336,-174,0,0,0,0,0,0,0,0,0,-1,888,1198,0,0
-329,-174,0,0,0,0,0,0,0,0,0,-1,895,1198,0,0
-322,-174,0,0,0,0,0,0,0,0,0,-1,902,1198,0,0
-315,-174,0,0,0,0,0,0,0,0,0,-1,909,1198,0,0
-308,-174,0,0,0,0,0,0,0,0,0,-1,916,1198,0,0
-301,-174,0,0,0,0,0,0,0,0,0,-1,923,1198,0,0
-294,-174,0,0,0,0,0,0,0,0,0,-1,930,1198,0,0
-287,-174,0,0,0,0,0,0,0,0,0,-1,937,1198,0,0
-280,-174,0,0,0,0,0,0,0,0,0,-1,944,1198,0,0
-273,-174,0,0,0,0,0,0,0,0,0,-1,951,1198,0,0
-266,-174,0,0,0,0,0,0,0,0,0,-1,958,1198,0,0
-259,-174,0,0,0,0,0,0,0,0,0,-1,965,1198,0,0
-252,-174,0,0,0,0,0,0,0,0,0,-1,972,1198,0,0
-245,-174,0,0,0,0,0,0,0,0,0,-1,979,1198,0,0
-238,-174,0,0,0,0,0,0,0,0,0,-1,986,1198,0,0
-231,-174,0,0,0,0,0,0,0,0,0,-1,993,1198,0,0
-224,-174,0,0,0,0,0,0,0,0,0,-1,1000,1198,0,0
-217,-174,0,0,0,0,0,0,0,0,0,-1,1007,1198,0,0
-210,-174,0,0,0,0,0,0,0,0,0,-1,1014,1198,0,0
-203,-174,0,0,0,0,0,0,0,0,0,-1,1021,1198,0,0
-196,-174,0,0,0,0,0,0,0,0,0,-1,1028,1198,0,0
-189,-174,0,0,0,0,0,0,0,0,0,-1,1035,1198,0,0
-182,-174,0,0,0,0,0,0,0,0,0,-1,1042,1198,0,0
-175,-174,0,0,0,0,0,0,0,0,0,-1,1049,1198,0,0
-168,-174,0,0,0,0,0,0,0,0,0,-1,1056,1198,0,0
-161,-174,0,0,0,0,0,0,0,0,0,-1,1063,1198,0,0
-154,-174,0,0,0,0,0,0,0,0,0,-1,1070,1198,0,0
-147,-174,0,0,0,0,0,0,0,0,0,-1,1077,1198,0,0
-140,-174,0,0,0,0,0,0,0,0,0,-1,1084,1198,0,0
-133,-174,0,0,0,0,0,0,0,0,0,-1,1091,1198,0,0
-126,-174,0,0,0,0,0,0,0,0,0,-1,1098,1198,0,0
-119,-174,0,0,0,0,0,0,0,0,0,-1,1105,1198,0,0
-112,-174,0,0,0,0,0,0,0,0,0,-1,1112,1198,0,0
-105,-174,0,0,0,0,0,0,0,0,0,-1,1119,1198,0,0
-98,-174,0,0,0,0,0,0,0,0,0,-1,1126,1198,0,0
-91,-174,0,0,0,0,0,0,0,0,0,-1,1133,1198,0,0
-84,-174,0,0,0,0,0,0,0,0,0,-1,1140,1198,0,0
-77,-174,0,0,0,0,0,0,0,0,0,-1,1147,1198,0,0
-70,-174,0,0,0,0,0,0,0,0,0,-1,1154,1198,0,0
-63,-174,0,0,0,0,0,0,0,0,0,-1,1161,1198,0,0
-56,-174,0,0,0,0,0,0,0,0,0,-1,1168,1198,0,0
-49,-174,0,0,0,0,0,0,0,0,0,-1,1175,1198,0,0
-42,-174,0,0,0,0,0,0,0,0,0,-1,1182,1198,0,0
-35,-174,0,0,0,0,0,0,0,0,0,-1,1189,1198,0,0
-28,-174,0,0,0,0,0,0,0,0,0,-1,1196,1198,0,0
-21,-174,0,0,0,0,0,0,0,0,0,-1,1203,1198,0,0
-14,-174,0,0,0,0,0,0,0,0,0,-1,1210,1198,0,0
-7,-174,0,0,0,0,0,0,0,0,0,-1,1217,1198,0,0
0,-174,0,0,0,0,0,0,0,0,0,-1,1224,1198,0,0
7,-174,0,0,0,0,0,0,0,0,0,-1,1231,1198,0,0
14,-174,0,0,0,0,0,0,0,0,0,-1,1238,1198,0,0
21,-174,0,0,0,0,0,0,0,0,0,-1,1245,1198,0,0
28,-174,0,0,0,0,0,0,0,0,0,-1,1252,1198,0,0
35,-174,0,0,0,0,0,0,0,0,0,-1,1259,1198,0,0
42,-174,0,0,0,0,0,0,0,0,0,-1,1266,1198,0,0
49,-174,0,0,0,0,0,0,0,0,0,-1,1273,1198,0,0
56,-174,0,0,0,0,0,0,0,0,0,-1,1280,1198,0,0
63,-174,0,0,0,0,0,0,0,0,0,-1,1287,1198,0,0
70,-174,0,0,0,0,0,0,0,0,0,-1,1294,1198,0,0
77,-174,0,0,0,0,0,0,0,0,0,-1,1301,1198,0,0
84,-174,0,0,0,0,0,0,0,0,0,-1,1308,1198,0,0
91,-174,0,0,0,0,0,0,0,0,0,-1,1315,1198,0,0
98,-174,0,0,0,0,0,0,0,0,0,-1,1322,1198,0,0
105,-174,0,0,0,0,0,0,0,0,0,-1,1329,1198,0,0
112,-174,0,0,0,0,0,0,0,0,0,-1,1336,1198,0,0
119,-174,0,0,0,0,0,0,0,0,0,-1,1343,1198,0,0
126,-174,0,0,0,0,0,0,0,0,0,-1,1350,1198,0,0
133,-174,0,0,0,0,0,0,0,0,0,-1,1357,1198,0,0
140,-174,0,0,0,0,0,0,0,0,0,-1,1364,1198,0,0
147,-174,0,0,0,0,0,0,0,0,0,-1,1371,1198,0,0
154,-174,0,0,0,0,0,0,0,0,0,-1,1378,1198,0,0
161,-174,0,0,0,0,0,0,0,0,0,-1,1385,1198,0,0
168,-174,0,0,0,0,0,0,0,0,0,-1,1392,1198,0,0
175,-174,0,0,0,0,0,0,0,0,0,-1,1399,1198,0,0
182,-174,0,0,0,0,0,0,0,0,0,-1,1406,1198,0,0
189,-174,0,0,0,0,0,0,0,0,0,-1,1413,1198,0,0
196,-174,0,0,0,0,0,0,0,0,0,-1,1420,1198,0,0
203,-174,0,0,0,0,0,0,0,0,0,-1,1427,1198,0,0
210,-174,0,0,0,0,0,0,0,0,0,-1,1434,1198,0,0
217,-174,0,0,0,0,0,0,0,0,0,-1,1441,1198,0,0
224,-174,0,0,0,0,0,0,0,0,0,-1,1448,1198,0,0
231,-174,0,0,0,0,0,0,0,0,0,-1,1455,1198,0,0
238,-174,0,0,0,0,0,0,0,0,0,-1,1462,1198,0,0
245,-174,0,0,0,0,0,0,0,0,0,-1,1469,1198,0,0
252,-174,0,0,0,0,0,0,0,0,0,-1,1476,1198,0,0
259,-174,0,0,0,0,0,0,0,0,0,-1,1483,1198,0,0
266,-174,0,0,0,0,0,0,0,0,0,-1,1490,1198,0,0
273,-174,0,0,0,0,0,0,0,0,0,-1,1497,1198,0,0
280,-174,0,0,0,0,0,0,0,0,0,-1,1504,1198,0,0
287,-174,0,0,0,0,0,0,0,0,0,-1,1511,1198,0,0
294,-174,0,0,0,0,0,0,0,0,0,-1,1518,1198,0,0
301,-174,0,0,0,0,0,0,0,0,0,-1,1525,1198,0,0
308,-174,0,0,0,0,0,0,0,0,0,-1,1532,1198,0,0
315,-174,0,0,0,0,0,0,0,0,0,-1,1539,1198,0,0
322,-174,0,0,0,0,0,0,0,0,0,-1,1546,1198,0,0
329,-174,0,0,0,0,0,0,0,0,0,-1,1553,1198,0,0
336,-174,0,0,0,0,0,0,0,0,0,-1,1560,1198,0,0
343,-174,0,0,0,0,0,0,0,0,0,-1,1567,1198,0,0
350,-174,0,0,0,0,0,0,0,0,0,-1,1574,1198,0,0
357,-174,0,0,0,0,0,0,0,0,0,-1,1581,1198,0,0
364,-174,0,0,0,0,0,0,0,0,0,-1,1588,1198,0,0
371,-174,0,0,0,0,0,0,0,0,0,-1,1595,1198,0,0
378,-174,0,0,0,0,0,0,0,0,0,-1,1602,1198,0,0
385,-174,0,0,0,0,0,0,0,0,0,-1,1609,1198,0,0
392,-174,0,0,0,0,0,0,0,0,0,-1,1616,1198,0,0
399,-174,0,0,0,0,0,0,0,0,0,-1,1623,1198,0,0
406,-174,0,0,0,0,0,0,0,0,0,-1,1630,1198,0,0
413,-174,0,0,0,0,0,0,0,0,0,-1,1637,1198,0,0
420,-174,0,0,0,0,0,0,0,0,0,-1,1644,1198,0,0
427,-174,0,0,0,0,0,0,0,0,0,-1,1651,1198,0,0
434,-174,0,0,0,0,0,0,0,0,0,-1,1658,1198,0,0
441,-174,0,0,0,0,0,0,0,0,0,-1,1665,1198,0,0
448,-174,0,0,0,0,0,0,0,0,0,-1,1672,1198,0,0
455,-174,0,0,0,0,0,0,0,0,0,-1,1679,1198,0,0
462,-174,0,0,0,0,0,0,0,0,0,-1,1686,1198,0,0
469,-174,0,0,0,0,0,0,0,0,0,-1,1693,1198,0,0
476,-174,0,0,0,0,0,0,0,0,0,-1,1700,1198,0,0
483,-174,0,0,0,0,0,0,0,0,0,-1,1707,1198,0,0
490,-174,0,0,0,0,0,0,0,0,0,-1,1714,1198,0,0
497,-174,0,0,0,0,0,0,0,0,0,-1,1721,1198,0,0
504,-174,0,0,0,0,0,0,0,0,0,-1,1728,1198,0,0
511,-174,0,0,0,0,0,0,0,0,0,-1,1735,1198,0,0
518,-174,0,0,0,0,0,0,0,0,0,-1,1742,1198,0,0
525,-174,0,0,0,0,0,0,0,0,0,-1,1749,1198,0,0
532,-174,0,0,0,0,0,0,0,0,0,-1,1756,1198,0,0
539,-174,0,0,0,0,0,0,0,0,0,-1,1763,1198,0,0
546,-174,0,0,0,0,0,0,0,0,0,-1,1770,1198,0,0
553,-174,0,0,0,0,0,0,0,0,0,-1,1777,1198,0,0
560,-174,0,0,0,0,0,0,0,0,0,-1,1784,1198,0,0
567,-174,0,0,0,0,0,0,0,0,0,-1,1791,1198,0,0
574,-174,0,0,0,0,0,0,0,0,0,-1,1798,1198,0,0
581,-174,0,0,0,0,0,0,0,0,0,-1,1805,1198,0,0
588,-174,0,0,0,0,0,0,0,0,0,-1,1812,1198,0,0
595,-174,0,0,0,0,0,0,0,0,0,-1,1819,1198,0,0
602,-174,0,0,0,0,0,0,0,0,0,-1,1826,1198,0,0
609,-174,0,0,0,0,0,0,0,0,0,-1,1833,1198,0,0
616,-174,0,0,0,0,0,0,0,0,0,-1,1840,1198,0,0
623,-174,0,0,0,0,0,0,0,0,0,-1,1847,1198,0,0
630,-174,0,0,0,0,0,0,0,0,0,-1,1854,1198,0,0
637,-174,48.1492,2.70752,-0.00123024,-0.000402932,0.00238786,0.00160683,-0.00324001,0.871163,0.00285079,0.0422067,1861,1198,48.1492,-2.70746
644,-174,48.1715,2.60901,0.000129978,-0.000326672,0.0015614,0.00147965,-0.00167635,0.712797,0.0018233,0.0455332,1868,1198,48.1715,-2.60899
651,-174,48.3306,2.68042,0.00108437,-7.29845e-05,0.000705995,0.00141855,-0.000407157,0.442089,0.00110667,0.0465034,1875,1198,48.3305,-2.68044
658,-174,48.4,2.87439,0.00182465,0.000284623,-0.000206552,0.00185187,0.000257401,-0.131037,0.00115835,0.0404476,1882,1198,48.4001,-2.87433
665,-174,48.3983,2.63599,0.00231399,0.00058525,-0.000896889,0.00269523,0.00020401,-0.40193,0.00173282,0.0341673,1889,1198,48.3983,-2.63598
672,-174,48.3602,2.64771,0.00227438,0.000866596,-0.00114086,0.00291103,0.000229955,-0.508991,0.00186875,0.0257023,1896,1198,48.3603,-2.64765
679,-174,48.3481,2.66211,0.00182437,0.000982981,-0.00100979,0.0024976,0.000309752,-0.588026,0.00157202,0.0225926,1903,1198,48.3482,-2.66206
686,-174,48.3667,2.65967,0,0,0,0,0,0,0,-1,1910,1198,48.3667,-2.6597
693,-174,47.9373,3.12708,0,0,0,0,0,0,0,-1,1917,1198,47.9372,-3.12713
700,-174,25.4004,6.11792,0,0,0,0,0,0,0,-1,1924,1198,25.4004,-6.11797
707,-174,34.7908,7.34473,0,0,0,0,0,0,0,-1,1931,1198,34.7908,-7.34475
714,-174,40.1135,7.79871,0,0,0,0,0,0,0,-1,1938,1198,40.1135,-7.79875
721,-174,40.8693,7.59863,0,0,0,0,0,0,0,-1,1945,1198,40.8693,-7.59859
728,-174,41.137,7.17273,-0.00056815,0.000943961,0.000728598,0.00123789,-0.000862083,1.18734,0.00121888,0.0484141,1952,1198,41.137,-7.17274
735,-174,40.993,6.75708,-0.000806971,0.000948283,0.00106871,0.00145354,-0.00131223,1.12917,0.00159751,0.0130003,1959,1198,40.993,-6.75704
742,-174,40.9672,6.31885,-0.000859249,0.000817803,0.00164583,0.0018264,-0.00186785,1.021,0.00213292,0.0202187,1966,1198,40.9672,-6.31884
749,-174,40.9777,5.922,-0.000596834,0.00097814,0.00205476,0.00239115,-0.00200984,0.96839,0.00254409,0.0179533,1973,1198,40.9777,-5.92199
756,-174,40.9709,5.52246,-8.64471e-05,0.00185278,0.00134004,0.00253721,-0.00077088,1.09858,0.00199862,0.0107516,1980,1198,40.9709,-5.52244
763,-174,40.9508,5.13733,0.000478238,0.00303129,0.000356891,0.00308024,0.000429287,1.43449,0.00192641,0.0145296,1987,1198,40.9508,-5.13733
770,-174,41.051,4.78577,0.00110391,0.0048765,-0.00160692,0.00546816,0.000512239,-1.218,0.00348726,0.0332505,1994,1198,41.051,-4.78571
777,-174,41.3059,4.38757,0,0,0,0,0,0,0,-1,2001,1198,41.3059,-4.38755
784,-174,40.7651,3.94226,0,0,0,0,0,0,0,-1,2008,1198,40.7652,-3.94232
791,-174,41.407,3.23169,0,0,0,0,0,0,0,-1,2015,1198,41.4071,-3.23164
798,-174,41.0354,1.76587,0,0,0,0,0,0,0,-1,2022,1198,41.0354,-1.76589
805,-174,47.9458,-1.34534,0,0,0,0,0,0,0,-1,2029,1198,47.9457,1.3453
812,-174,0,0,0,0,0,0,0,0,0,-1,2036,1198,0,0
-700,-181,0,0,0,0,0,0,0,0,0,-1,524,1205,0,0
-693,-181,0,0,0,0,0,0,0,0,0,-1,531,1205,0,0
-686,-181,-27.8246,-4.19141,-0.0341783,0.0699305,0.0875296,0.119715,-0.0839624,1.05366,0.118195,0.0441023,538,1205,-27.8245,4.19137
-679,-181,-28.5809,-3.19629,-0.0133084,0.0659512,0.0865095,0.121476,-0.0688333,1.00018,0.111268,0.0447254,545,1205,-28.5809,3.19632
-672,-181,-28.9559,-2.22253,-0.000559223,0.0598323,0.0798083,0.114966,-0.0556931,0.966252,0.100492,0.0465171,552,1205,-28.9559,2.22254
-665,-181,-28.916,-2.09937,0,0,0,0,0,0,0,-1,559,1205,-28.916,2.09941
-658,-181,-28.7455,0.257202,0.0113941,0.0448073,0.0594005,0.0898059,-0.0336045,0.922484,0.0736727,0.0449798,566,1205,-28.7455,-0.257194
-651,-181,-27.8992,1.0271,0.0131684,0.0370398,0.0482092,0.0747689,-0.0245607,0.906749,0.0597401,0.047843,573,1205,-27.8992,-1.0271
-644,-181,-27.5798,1.66382,0.0130778,0.0293195,0.0370774,0.059155,-0.0167577,0.893208,0.0460504,0.0449013,580,1205,-27.5799,-1.66376
-637,-181,-27.395,2.10742,0.0117131,0.0220084,0.0265722,0.043927,-0.0102055,0.881075,0.0332133,0.0250328,587,1205,-27.395,-2.10738
-630,-181,-27.4756,2.46521,0.0100361,0.0157711,0.0178744,0.0310065,-0.00519932,0.864934,0.0226043,0.0136192,594,1205,-27.4756,-2.46516
-623,-181,-27.5208,2.89539,0.00777161,0.0092675,0.00920417,0.0177541,-0.000714951,0.82594,0.0120814,0.0150411,601,1205,-27.5208,-2.89545
-616,-181,-27.5313,3.36096,0.004298,0.0045756,0.00242772,0.00686849,0.00200512,0.813953,0.00407837,0.0144787,608,1205,-27.5313,-3.36097
-609,-181,-27.5434,3.83997,0.000305564,0.00117729,-0.00160204,0.0024017,-0.000918848,-0.918217,0.00197981,0.0137672,615,1205,-27.5434,-3.83996
-602,-181,-27.5522,4.27722,-0.000792178,0.000710973,-0.0014925,0.00163046,-0.00171166,-1.01865,0.00192976,0.0130125,622,1205,-27.5522,-4.27722
-595,-181,-27.7484,4.61804,-0.000575356,0.000504194,-0.00157773,0.00163193,-0.00170309,-0.950218,0.00192562,0.0362426,629,1205,-27.7484,-4.61802
-588,-181,-28.0383,5.13977,-0.000311981,0.000142616,-0.00179257,0.00172224,-0.00189161,-0.848462,0.00208722,0.0338339,636,1205,-28.0384,-5.13982
-581,-181,-27.9383,5.69397,-6.27664e-05,-0.000228263,-0.00162947,0.00148605,-0.00177708,-0.760029,0.00188647,0.0295086,643,1205,-27.9383,-5.694
-574,-181,-27.5734,6.15894,0,0,0,0,0,0,0,-1,650,1205,-27.5734,-6.15891
-567,-181,-25.8839,3.34485,0,0,0,0,0,0,0,-1,657,1205,-25.8839,-3.3449
-560,-181,-31.7396,1.63306,0,0,0,0,0,0,0,-1,664,1205,-31.7396,-1.63303
-553,-181,-35.7239,0.869751,0,0,0,0,0,0,0,-1,671,1205,-35.7239,-0.869759
-546,-181,-35.7362,0.935913,0.0010846,-0.00168971,-0.000600718,0.00120909,-0.00181419,-0.204338,0.00175711,0.0361349,678,1205,-35.7362,-0.935918
-539,-181,-35.768,1.00403,0.00152079,-0.00178183,-3.46629e-05,0.00152115,-0.00178219,-0.010494,0.00190917,0.0390494,685,1205,-35.768,-1.00409
-532,-181,-35.7783,0.988647,0.00131687,-0.00200143,0.000827588,0.00151182,-0.00219638,0.231345,0.00215306,0.0444948,692,1205,-35.7783,-0.988633
-525,-181,-35.7651,0.914429,0.00114206,-0.00188891,0.00218947,0.00228936,-0.00303622,0.482672,0.00308479,0.0417939,699,1205,-35.7651,-0.91447
-518,-181,-35.7578,0.896118,0.00140125,-0.00138502,0.00398033,0.00422521,-0.00420897,0.617059,0.00486948,0.0422749,706,1205,-35.7578,-0.896146
-511,-181,0,0,0,0,0,0,0,0,0,-1,713,1205,0,0
-504,-181,0,0,0,0,0,0,0,0,0,-1,720,1205,0,0
-497,-181,0,0,0,0,0,0,0,0,0,-1,727,1205,0,0
-490,-181,0,0,0,0,0,0,0,0,0,-1,734,1205,0,0
-483,-181,0,0,0,0,0,0,0,0,0,-1,741,1205,0,0
-476,-181,0,0,0,0,0,0,0,0,0,-1,748,1205,0,0
-469,-181,0,0,0,0,0,0,0,0,0,-1,755,1205,0,0
-462,-181,0,0,0,0,0,0,0,0,0,-1,762,1205,0,0
-455,-181,0,0,0,0,0,0,0,0,0,-1,769,1205,0,0
-448,-181,0,0,0,0,0,0,0,0,0,-1,776,1205,0,0
-441,-181,0,0,0,0,0,0,0,0,0,-1,783,1205,0,0
-434,-181,0,0,0,0,0,0,0,0,0,-1,790,1205,0,0
-427,-181,0,0,0,0,0,0,0,0,0,-1,797,1205,0,0
-420,-181,0,0,0,0,0,0,0,0,0,-1,804,1205,0,0
-413,-181,0,0,0,0,0,0,0,0,0,-1,811,1205,0,0
-406,-181,0,0,0,0,0,0,0,0,0,-1,818,1205,0,0
-399,-181,0,0,0,0,0,0,0,0,0,-1,825,1205,0,0
-392,-181,0,0,0,0,0,0,0,0,0,-1,832,1205,0,0
-385,-181,0,0,0,0,0,0,0,0,0,-1,839,1205,0,0
-378,-181,0,0,0,0,0,0,0,0,0,-1,846,1205,0,0
-371,-181,0,0,0,0,0,0,0,0,0,-1,853,1205,0,0
-364,-181,0,0,0,0,0,0,0,0,0,-1,860,1205,0,0
-357,-181,0,0,0,0,0,0,0,0,0,-1,867,1205,0,0
-350,-181,0,0,0,0,0,0,0,0,0,-1,874,1205,0,0
-343,-181,0,0,0,0,0,0,0,0,0,-1,881,1205,0,0
-336,-181,0,0,0,0,0,0,0,0,0,-1,888,1205,0,0
-329,-181,0,0,0,0,0,0,0,0,0,-1,895,1205,0,0
-322,-181,0,0,0,0,0,0,0,0,0,-1,902,1205,0,0
-315,-181,0,0,0,0,0,0,0,0,0,-1,909,1205,0,0
-308,-181,0,0,0,0,0,0,0,0,0,-1,916,1205,0,0
-301,-181,0,0,0,0,0,0,0,0,0,-1,923,1205,0,0
-294,-181,0,0,0,0,0,0,0,0,0,-1,930,1205,0,0
-287,-181,0,0,0,0,0,0,0,0,0,-1,937,1205,0,0
-280,-181,0,0,0,0,0,0,0,0,0,-1,944,1205,0,0
-273,-181,0,0,0,0,0,0,0,0,0,-1,951,1205,0,0
-266,-181,0,0,0,0,0,0,0,0,0,-1,958,1205,0,0
-259,-181,0,0,0,0,0,0,0,0,0,-1,965,1205,0,0
-252,-181,0,0,0,0,0,0,0,0,0,-1,972,1205,0,0
-245,-181,0,0,0,0,0,0,0,0,0,-1,979,1205,0,0
-238,-181,0,0,0,0,0,0,0,0,0,-1,986,1205,0,0
-231,-181,0,0,0,0,0,0,0,0,0,-1,993,1205,0,0
-224,-181,0,0,0,0,0,0,0,0,0,-1,1000,1205,0,0
-217,-181,0,0,0,0,0,0,0,0,0,-1,1007,1205,0,0
-210,-181,0,0,0,0,0,0,0,0,0,-1,1014,1205,0,0
-203,-181,0,0,0,0,0,0,0,0,0,-1,1021,1205,0,0
-196,-181,0,0,0,0,0,0,0,0,0,-1,1028,1205,0,0
-189,-181,0,0,0,0,0,0,0,0,0,-1,1035,1205,0,0
-182,-181,0,0,0,0,0,0,0,0,0,-1,1042,1205,0,0
-175,-181,0,0,0,0,0,0,0,0,0,-1,1049,1205,0,0
-168,-181,0,0,0,0,0,0,0,0,0,-1,1056,1205,0,0
-161,-181,0,0,0,0,0,0,0,0,0,-1,1063,1205,0,0
-154,-181,0,0,0,0,0,0,0,0,0,-1,1070,1205,0,0
-147,-181,0,0,0,0,0,0,0,0,0,-1,1077,1205,0,0
-140,-181,0,0,0,0,0,0,0,0,0,-1,1084,1205,0,0
-133,-181,0,0,0,0,0,0,0,0,0,-1,1091,1205,0,0
-126,-181,0,0,0,0,0,0,0,0,0,-1,1098,1205,0,0
-119,-181,0,0,0,0,0,0,0,0,0,-1,1105,1205,0,0
-112,-181,0,0,0,0,0,0,0,0,0,-1,1112,1205,0,0
-105,-181,0,0,0,0,0,0,0,0,0,-1,1119,1205,0,0
-98,-181,0,0,0,0,0,0,0,0,0,-1,1126,1205,0,0
-91,-181,0,0,0,0,0,0,0,0,0,-1,1133,1205,0,0
-84,-181,0,0,0,0,0,0,0,0,0,-1,1140,1205,0,0
-77,-181,0,0,0,0,0,0,0,0,0,-1,1147,1205,0,0
-70,-181,0,0,0,0,0,0,0,0,0,-1,1154,1205,0,0
-63,-181,0,0,0,0,0,0,0,0,0,-1,1161,1205,0,0
-56,-181,0,0,0,0,0,0,0,0,0,-1,1168,1205,0,0
-49,-181,0,0,0,0,0,0,0,0,0,-1,1175,1205,0,0
-42,-181,0,0,0,0,0,0,0,0,0,-1,1182,1205,0,0
-35,-181,0,0,0,0,0,0,0,0,0,-1,1189,1205,0,0
-28,-181,0,0,0,0,0,0,0,0,0,-1,1196,1205,0,0
-21,-181,0,0,0,0,0,0,0,0,0,-1,1203,1205,0,0
-14,-181,0,0,0,0,0,0,0,0,0,-1,1210,1205,0,0
-7,-181,0,0,0,0,0,0,0,0,0,-1,1217,1205,0,0
0,-181,0,0,0,0,0,0,0,0,0,-1,1224,1205,0,0
7,-181,0,0,0,0,0,0,0,0,0,-1,1231,1205,0,0
14,-181,0,0,0,0,0,0,0,0,0,-1,1238,1205,0,0
21,-181,0,0,0,0,0,0,0,0,0,-1,1245,1205,0,0
28,-181,0,0,0,0,0,0,0,0,0,-1,1252,1205,0,0
35,-181,0,0,0,0,0,0,0,0,0,-1,1259,1205,0,0
42,-181,0,0,0,0,0,0,0,0,0,-1,1266,1205,0,0
49,-181,0,0,0,0,0,0,0,0,0,-1,1273,1205,0,0
56,-181,0,0,0,0,0,0,0,0,0,-1,1280,1205,0,0
63,-181,0,0,0,0,0,0,0,0,0,-1,1287,1205,0,0
70,-181,0,0,0,0,0,0,0,0,0,-1,1294,1205,0,0
77,-181,0,0,0,0,0,0,0,0,0,-1,1301,1205,0,0
84,-181,0,0,0,0,0,0,0,0,0,-1,1308,1205,0,0
91,-181,0,0,0,0,0,0,0,0,0,-1,1315,1205,0,0
98,-181,0,0,0,0,0,0,0,0,0,-1,1322,1205,0,0
105,-181,0,0,0,0,0,0,0,0,0,-1,1329,1205,0,0
112,-181,0,0,0,0,0,0,0,0,0,-1,1336,1205,0,0
119,-181,0,0,0,0,0,0,0,0,0,-1,1343,1205,0,0
126,-181,0,0,0,0,0,0,0,0,0,-1,1350,1205,0,0
133,-181,0,0,0,0,0,0,0,0,0,-1,1357,1205,0,0
140,-181,0,0,0,0,0,0,0,0,0,-1,1364,1205,0,0
147,-181,0,0,0,0,0,0,0,0,0,-1,1371,1205,0,0
154,-181,0,0,0,0,0,0,0,0,0,-1,1378,1205,0,0
161,-181,0,0,0,0,0,0,0,0,0,-1,1385,1205,0,0
168,-181,0,0,0,0,0,0,0,0,0,-1,1392,1205,0,0
175,-181,0,0,0,0,0,0,0,0,0,-1,1399,1205,0,0
182,-181,0,0,0,0,0,0,0,0,0,-1,1406,1205,0,0
189,-181,0,0,0,0,0,0,0,0,0,-1,1413,1205,0,0
196,-181,0,0,0,0,0,0,0,0,0,-1,1420,1205,0,0
203,-181,0,0,0,0,0,0,0,0,0,-1,1427,1205,0,0
210,-181,0,0,0,0,0,0,0,0,0,-1,1434,1205,0,0
217,-181,0,0,0,0,0,0,0,0,0,-1,1441,1205,0,0
224,-181,0,0,0,0,0,0,0,0,0,-1,1448,1205,0,0
231,-181,0,0,0,0,0,0,0,0,0,-1,1455,1205,0,0
238,-181,0,0,0,0,0,0,0,0,0,-1,1462,1205,0,0
245,-181,0,0,0,0,0,0,0,0,0,-1,1469,1205,0,0
252,-181,0,0,0,0,0,0,0,0,0,-1,1476,1205,0,0
259,-181,0,0,0,0,0,0,0,0,0,-1,1483,1205,0,0
266,-181,0,0,0,0,0,0,0,0,0,-1,1490,1205,0,0
273,-181,0,0,0,0,0,0,0,0,0,-1,1497,1205,0,0
280,-181,0,0,0,0,0,0,0,0,0,-1,1504,1205,0,0
287,-181,0,0,0,0,0,0,0,0,0,-1,1511,1205,0,0
294,-181,0,0,0,0,0,0,0,0,0,-1,1518,1205,0,0
301,-181,0,0,0,0,0,0,0,0,0,-1,1525,1205,0,0
308,-181,0,0,0,0,0,0,0,0,0,-1,1532,1205,0,0
315,-181,0,0,0,0,0,0,0,0,0,-1,1539,1205,0,0
322,-181,0,0,0,0,0,0,0,0,0,-1,1546,1205,0,0
329,-181,0,0,0,0,0,0,0,0,0,-1,1553,1205,0,0
336,-181,0,0,0,0,0,0,0,0,0,-1,1560,1205,0,0
343,-181,0,0,0,0,0,0,0,0,0,-1,1567,1205,0,0
350,-181,0,0,0,0,0,0,0,0,0,-1,1574,1205,0,0
357,-181,0,0,0,0,0,0,0,0,0,-1,1581,1205,0,0
364,-181,0,0,0,0,0,0,0,0,0,-1,1588,1205,0,0
371,-181,0,0,0,0,0,0,0,0,0,-1,1595,1205,0,0
378,-181,0,0,0,0,0,0,0,0,0,-1,1602,1205,0,0
385,-181,0,0,0,0,0,0,0,0,0,-1,1609,1205,0,0
392,-181,0,0,0,0,0,0,0,0,0,-1,1616,1205,0,0
399,-181,0,0,0,0,0,0,0,0,0,-1,1623,1205,0,0
406,-181,0,0,0,0,0,0,0,0,0,-1,1630,1205,0,0
413,-181,0,0,0,0,0,0,0,0,0,-1,1637,1205,0,0
420,-181,0,0,0,0,0,0,0,0,0,-1,1644,1205,0,0
427,-181,0,0,0,0,0,0,0,0,0,-1,1651,1205,0,0
434,-181,0,0,0,0,0,0,0,0,0,-1,1658,1205,0,0
441,-181,0,0,0,0,0,0,0,0,0,-1,1665,1205,0,0
448,-181,0,0,0,0,0,0,0,0,0,-1,1672,1205,0,0
455,-181,0,0,0,0,0,0,0,0,0,-1,1679,1205,0,0
462,-181,0,0,0,0,0,0,0,0,0,-1,1686,1205,0,0
469,-181,0,0,0,0,0,0,0,0,0,-1,1693,1205,0,0
476,-181,0,0,0,0,0,0,0,0,0,-1,1700,1205,0,0
483,-181,0,0,0,0,0,0,0,0,0,-1,1707,1205,0,0
490,-181,0,0,0,0,0,0,0,0,0,-1,1714,1205,0,0
497,-181,0,0,0,0,0,0,0,0,0,-1,1721,1205,0,0
504,-181,0,0,0,0,0,0,0,0,0,-1,1728,1205,0,0
511,-181,0,0,0,0,0,0,0,0,0,-1,1735,1205,0,0
518,-181,0,0,0,0,0,0,0,0,0,-1,1742,1205,0,0
525,-181,0,0,0,0,0,0,0,0,0,-1,1749,1205,0,0
532,-181,0,0,0,0,0,0,0,0,0,-1,1756,1205,0,0
539,-181,0,0,0,0,0,0,0,0,0,-1,1763,1205,0,0
546,-181,0,0,0,0,0,0,0,0,0,-1,1770,1205,0,0
553,-181,0,0,0,0,0,0,0,0,0,-1,1777,1205,0,0
560,-181,0,0,0,0,0,0,0,0,0,-1,1784,1205,0,0
567,-181,0,0,0,0,0,0,0,0,0,-1,1791,1205,0,0
574,-181,0,0,0,0,0,0,0,0,0,-1,1798,1205,0,0
581,-181,0,0,0,0,0,0,0,0,0,-1,1805,1205,0,0
588,-181,0,0,0,0,0,0,0,0,0,-1,1812,1205,0,0
595,-181,0,0,0,0,0,0,0,0,0,-1,1819,1205,0,0
602,-181,0,0,0,0,0,0,0,0,0,-1,1826,1205,0,0
609,-181,0,0,0,0,0,0,0,0,0,-1,1833,1205,0,0
616,-181,0,0,0,0,0,0,0,0,0,-1,1840,1205,0,0
623,-181,0,0,0,0,0,0,0,0,0,-1,1847,1205,0,0
630,-181,48.3431,2.81641,-0.00177716,-0.000286002,0.00264435,0.00171587,-0.00377903,0.922807,0.00324616,0.0380844,1854,1205,48.3432,-2.81635
637,-181,48.1917,2.77234,-0.000477325,-0.000267919,0.0019405,0.0015707,-0.00231595,0.812351,0.00225766,0.0380484,1861,1205,48.1917,-2.77236
644,-181,48.1664,2.66602,0.000631278,-3.91412e-05,0.00106545,0.00141301,-0.000820871,0.632992,0.00130475,0.0431924,1868,1205,48.1664,-2.66604
651,-181,48.292,2.75928,0.001374,0.000279914,0.00026773,0.001436,0.000217912,0.227572,0.000893596,0.04323,1875,1205,48.292,-2.75924
658,-181,48.3799,2.78894,0.00194173,0.000602135,-0.000524473,0.00212264,0.000421227,-0.332154,0.00129768,0.0344763,1882,1205,48.3799,-2.78892
665,-181,48.3723,2.66528,0.00230951,0.000722351,-0.00101325,0.00280296,0.0002289,-0.453191,0.00179721,0.0308562,1889,1205,48.3723,-2.66526
672,-181,48.359,2.64856,0.00223447,0.000804539,-0.00108096,0.00281551,0.000223492,-0.493219,0.00180712,0.0241335,1896,1205,48.359,-2.64851
679,-181,48.4091,2.70337,0.00184258,0.000793999,-0.000893467,0.00235422,0.000282353,-0.520069,0.00148434,0.0306773,1903,1205,48.409,-2.70338
686,-181,48.5031,2.75293,0,0,0,0,0,0,0,-1,1910,1205,48.5031,-2.75294
693,-181,36.1301,2.91016,0,0,0,0,0,0,0,-1,1917,1205,36.1302,-2.9102
700,-181,29.5845,6.58398,0,0,0,0,0,0,0,-1,1924,1205,29.5844,-6.58395
707,-181,39.8232,8.03186,0,0,0,0,0,0,0,-1,1931,1205,39.8233,-8.0319
714,-181,40.174,7.73877,0,0,0,0,0,0,0,-1,1938,1205,40.174,-7.73878
721,-181,40.4102,7.66956,0,0,0,0,0,0,0,-1,1945,1205,40.4101,-7.66959
728,-181,40.5928,7.15393,-0.000507518,0.000754326,0.000811034,0.00115094,-0.000904136,1.11597,0.00118935,0.0279705,1952,1205,40.5928,-7.15397
735,-181,40.6112,6.77649,-0.000622111,0.000785902,0.00113262,0.00141548,-0.00125169,1.06346,0.00154086,0.0116412,1959,1205,40.6113,-6.7765
742,-181,40.5681,6.39783,-0.000427273,0.000686536,0.00168315,0.00190252,-0.00164326,0.945165,0.00204898,0.0170629,1966,1205,40.5681,-6.39778
749,-181,40.552,5.94153,0.000248519,0.000853629,0.00203015,0.00260365,-0.0015015,0.859369,0.00239841,0.0158251,1973,1205,40.552,-5.94157
756,-181,40.5673,5.51489,0.00125672,0.00162309,0.00148915,0.00294027,-6.04676e-05,0.846598,0.00198065,0.0113113,1980,1205,40.5673,-5.51486
763,-181,40.5746,5.11279,0.00243827,0.0026856,0.000734284,0.00330656,0.00181731,0.868821,0.00191217,0.0136349,1987,1205,40.5746,-5.11275
770,-181,40.7312,4.59827,0.00376605,0.00435788,-0.000881973,0.00499226,0.00313167,-0.947255,0.00291326,0.03722,1994,1205,40.7311,-4.59825
777,-181,40.9846,3.95361,0,0,0,0,0,0,0,-1,2001,1205,40.9847,-3.95355
784,-181,34.7717,2.39917,0,0,0,0,0,0,0,-1,2008,1205,34.7717,-2.39918
791,-181,39.9827,1.92883,0,0,0,0,0,0,0,-1,2015,1205,39.9826,-1.92877
798,-181,41.1882,1.26025,0,0,0,0,0,0,0,-1,2022,1205,41.1883,-1.2603
805,-181,0,0,0,0,0,0,0,0,0,-1,2029,1205,0,0
812,-181,0,0,0,0,0,0,0,0,0,-1,2036,1205,0,0
-700,-188,0,0,0,0,0,0,0,0,0,-1,524,1212,0,0
-693,-188,0,0,0,0,0,0,0,0,0,-1,531,1212,0,0
-686,-188,0,0,0,0,0,0,0,0,0,-1,538,1212,0,0
-679,-188,-28.7629,-3.12659,-0.0120963,0.0811366,0.112128,0.155952,-0.086912,0.9824,0.142094,0.044669,545,1212,-28.7629,3.12662
-672,-188,-29.307,-2.2356,0.00149462,0.0729084,0.101708,0.144996,-0.0705926,0.954213,0.126917,0.0471391,552,1212,-29.307,2.23559
-665,-188,-29.4903,-1.13831,0.00927779,0.0634393,0.0883077,0.128725,-0.0560082,0.934178,0.109376,0.0465947,559,1212,-29.4903,1.13833
-658,-188,-29.4377,0.0318604,0.0133263,0.0536612,0.0739534,0.110148,-0.0431602,0.918514,0.0912855,0.0439768,566,1212,-29.4377,-0.0319208
-651,-188,-27.0811,0.5354,0.0148073,0.0440967,0.05971,0.0909317,-0.0320277,0.905656,0.0736559,0.0488505,573,1212,-27.0811,-0.535411
-644,-188,-27.1233,1.73755,0,0,0,0,0,0,0,-1,580,1212,-27.1233,-1.7376
-637,-188,-27.0104,2.0636,0.012904,0.0262516,0.033362,0.0536008,-0.0144452,0.884116,0.0413977,0.0221203,587,1212,-27.0104,-2.06359
-630,-188,-27.0328,2.45227,0.0111056,0.0189523,0.0229067,0.0382691,-0.00821126,0.870212,0.0286449,0.0107613,594,1212,-27.0328,-2.45232
-623,-188,-27.0421,2.91309,0.00897468,0.0114566,0.0126672,0.0229434,-0.00251218,0.834225,0.0161981,0.0114053,601,1212,-27.0421,-2.91311
-616,-188,-27.0325,3.37402,0.00568868,0.00600711,0.00457397,0.0104246,0.00127116,0.802796,0.00656718,0.0112152,608,1212,-27.0325,-3.37405
-609,-188,-27.0208,3.84656,0.00164829,0.00184648,-0.000632226,0.00238733,0.00110744,-0.863133,0.00137952,0.0136534,615,1212,-27.0208,-3.84658
-602,-188,-27.0486,4.33838,-9.42365e-05,0.000670958,-0.00124086,0.00158687,-0.00101015,-0.93494,0.00151166,0.0167734,622,1212,-27.0486,-4.33842
-595,-188,-27.1548,4.74829,-0.000129965,0.000249099,-0.00127007,0.0013437,-0.00122457,-0.859466,0.00148332,0.0229735,629,1212,-27.1548,-4.74829
-588,-188,-27.3391,5.19116,0.000264616,-0.000159915,-0.00145459,0.00152235,-0.00141765,-0.712946,0.00169777,0.0262777,636,1212,-27.3391,-5.1911
-581,-188,-27.3338,5.62329,0.000576724,-0.000571697,-0.00132837,0.00144968,-0.00144466,-0.581394,0.00167105,0.0262161,643,1212,-27.3338,-5.62332
-574,-188,-27.6664,5.99207,0,0,0,0,0,0,0,-1,650,1212,-27.6664,-5.99209
-567,-188,-19.5786,4.10388,0,0,0,0,0,0,0,-1,657,1212,-19.5785,-4.10383
-560,-188,-23.9507,0.416626,0,0,0,0,0,0,0,-1,664,1212,-23.9508,-0.416602
-553,-188,-35.8119,0.766602,0,0,0,0,0,0,0,-1,671,1212,-35.8119,-0.7666
-546,-188,-35.719,0.889771,0.00143794,-0.00212522,-0.000250466,0.00145546,-0.00214274,-0.0698357,0.00209001,0.0458514,678,1212,-35.719,-0.889818
-539,-188,-35.6917,0.977295,0.00168481,-0.00219731,0.000171041,0.00169234,-0.00220483,0.0439452,0.00225651,0.0397869,685,1212,-35.6917,-0.977324
-532,-188,-35.6585,0.897705,0.00125565,-0.00230825,0.000766054,0.00141333,-0.00246593,0.203006,0.00226701,0.0432783,692,1212,-35.6585,-0.897752
-525,-188,-35.5817,0.908203,0.000524305,-0.00219275,0.00166322,0.00131331,-0.00298175,0.442946,0.00254136,0.0413051,699,1212,-35.5817,-0.908242
-518,-188,-35.6379,0.932861,0.000122012,-0.00155556,0.00319134,0.00258295,-0.0040165,0.656889,0.00384004,0.0434336,706,1212,-35.638,-0.932843
-511,-188,-35.7702,0.977783,0.000281094,-0.00103761,0.00507102,0.00473544,-0.00549196,0.720749,0.00591018,0.04062,713,1212,-35.7702,-0.977768
-504,-188,0,0,0,0,0,0,0,0,0,-1,720,1212,0,0
-497,-188,0,0,0,0,0,0,0,0,0,-1,727,1212,0,0
-490,-188,0,0,0,0,0,0,0,0,0,-1,734,1212,0,0
-483,-188,0,0,0,0,0,0,0,0,0,-1,741,1212,0,0
-476,-188,0,0,0,0,0,0,0,0,0,-1,748,1212,0,0
-469,-188,0,0,0,0,0,0,0,0,0,-1,755,1212,0,0
-462,-188,0,0,0,0,0,0,0,0,0,-1,762,1212,0,0
-455,-188,0,0,0,0,0,0,0,0,0,-1,769,1212,0,0
-448,-188,0,0,0,0,0,0,0,0,0,-1,776,1212,0,0
-441,-188,0,0,0,0,0,0,0,0,0,-1,783,1212,0,0
-434,-188,0,0,0,0,0,0,0,0,0,-1,790,1212,0,0
-427,-188,0,0,0,0,0,0,0,0,0,-1,797,1212,0,0
-420,-188,0,0,0,0,0,0,0,0,0,-1,804,1212,0,0
-413,-188,0,0,0,0,0,0,0,0,0,-1,811,1212,0,0
-406,-188,0,0,0,0,0,0,0,0,0,-1,818,1212,0,0
-399,-188,0,0,0,0,0,0,0,0,0,-1,825,1212,0,0
-392,-188,0,0,0,0,0,0,0,0,0,-1,832,1212,0,0
-385,-188,0,0,0,0,0,0,0,0,0,-1,839,1212,0,0
-378,-188,0,0,0,0,0,0,0,0,0,-1,846,1212,0,0
-371,-188,0,0,0,0,0,0,0,0,0,-1,853,1212,0,0
-364,-188,0,0,0,0,0,0,0,0,0,-1,860,1212,0,0
-357,-188,0,0,0,0,0,0,0,0,0,-1,867,1212,0,0
-350,-188,0,0,0,0,0,0,0,0,0,-1,874,1212,0,0
-343,-188,0,0,0,0,0,0,0,0,0,-1,881,1212,0,0
-336,-188,0,0,0,0,0,0,0,0,0,-1,888,1212,0,0
-329,-188,0,0,0,0,0,0,0,0,0,-1,895,1212,0,0
-322,-188,0,0,0,0,0,0,0,0,0,-1,902,1212,0,0
-315,-188,0,0,0,0,0,0,0,0,0,-1,909,1212,0,0
-308,-188,0,0,0,0,0,0,0,0,0,-1,916,1212,0,0
-301,-188,0,0,0,0,0,0,0,0,0,-1,923,1212,0,0
-294,-188,0,0,0,0,0,0,0,0,0,-1,930,1212,0,0
-287,-188,0,0,0,0,0,0,0,0,0,-1,937,1212,0,0
-280,-188,0,0,0,0,0,0,0,0,0,-1,944,1212,0,0
-273,-188,0,0,0,0,0,0,0,0,0,-1,951,1212,0,0
-266,-188,0,0,0,0,0,0,0,0,0,-1,958,1212,0,0
-259,-188,0,0,0,0,0,0,0,0,0,-1,965,1212,0,0
-252,-188,0,0,0,0,0,0,0,0,0,-1,972,1212,0,0
-245,-188,0,0,0,0,0,0,0,0,0,-1,979,1212,0,0
-238,-188,0,0,0,0,0,0,0,0,0,-1,986,1212,0,0
-231,-188,0,0,0,0,0,0,0,0,0,-1,993,1212,0,0
-224,-188,0,0,0,0,0,0,0,0,0,-1,1000,1212,0,0
-217,-188,0,0,0,0,0,0,0,0,0,-1,1007,1212,0,0
-210,-188,0,0,0,0,0,0,0,0,0,-1,1014,1212,0,0
-203,-188,0,0,0,0,0,0,0,0,0,-1,1021,1212,0,0
-196,-188,0,0,0,0,0,0,0,0,0,-1,1028,1212,0,0
-189,-188,0,0,0,0,0,0,0,0,0,-1,1035,1212,0,0
-182,-188,0,0,0,0,0,0,0,0,0,-1,1042,1212,0,0
-175,-188,0,0,0,0,0,0,0,0,0,-1,1049,1212,0,0
-168,-188,0,0,0,0,0,0,0,0,0,-1,1056,1212,0,0
-161,-188,0,0,0,0,0,0,0,0,0,-1,1063,1212,0,0
-154,-188,0,0,0,0,0,0,0,0,0,-1,1070,1212,0,0
-147,-188,0,0,0,0,0,0,0,0,0,-1,1077,1212,0,0
-140,-188,0,0,0,0,0,0,0,0,0,-1,1084,1212,0,0
-133,-188,0,0,0,0,0,0,0,0,0,-1,1091,1212,0,0
-126,-188,0,0,0,0,0,0,0,0,0,-1,1098,1212,0,0
-119,-188,0,0,0,0,0,0,0,0,0,-1,1105,1212,0,0
-112,-188,0,0,0,0,0,0,0,0,0,-1,1112,1212,0,0
-105,-188,0,0,0,0,0,0,0,0,0,-1,1119,1212,0,0
-98,-188,0,0,0,0,0,0,0,0,0,-1,1126,1212,0,0
-91,-188,0,0,0,0,0,0,0,0,0,-1,1133,1212,0,0
-84,-188,0,0,0,0,0,0,0,0,0,-1,1140,1212,0,0
-77,-188,0,0,0,0,0,0,0,0,0,-1,1147,1212,0,0
-70,-188,0,0,0,0,0,0,0,0,0,-1,1154,1212,0,0
-63,-188,0,0,0,0,0,0,0,0,0,-1,1161,1212,0,0
-56,-188,0,0,0,0,0,0,0,0,0,-1,1168,1212,0,0
-49,-188,0,0,0,0,0,0,0,0,0,-1,1175,1212,0,0
-42,-188,0,0,0,0,0,0,0,0,0,-1,1182,1212,0,0
-35,-188,0,0,0,0,0,0,0,0,0,-1,1189,1212,0,0
-28,-188,0,0,0,0,0,0,0,0,0,-1,1196,1212,0,0
-21,-188,0,0,0,0,0,0,0,0,0,-1,1203,1212,0,0
-14,-188,0,0,0,0,0,0,0,0,0,-1,1210,1212,0,0
-7,-188,0,0,0,0,0,0,0,0,0,-1,1217,1212,0,0
0,-188,0,0,0,0,0,0,0,0,0,-1,1224,1212,0,0
7,-188,0,0,0,0,0,0,0,0,0,-1,1231,1212,0,0
14,-188,0,0,0,0,0,0,0,0,0,-1,1238,1212,0,0
21,-188,0,0,0,0,0,0,0,0,0,-1,1245,1212,0,0
28,-188,0,0,0,0,0,0,0,0,0,-1,1252,1212,0,0
35,-188,0,0,0,0,0,0,0,0,0,-1,1259,1212,0,0
42,-188,0,0,0,0,0,0,0,0,0,-1,1266,1212,0,0
49,-188,0,0,0,0,0,0,0,0,0,-1,1273,1212,0,0
56,-188,0,0,0,0,0,0,0,0,0,-1,1280,1212,0,0
63,-188,0,0,0,0,0,0,0,0,0,-1,1287,1212,0,0
70,-188,0,0,0,0,0,0,0,0,0,-1,1294,1212,0,0
77,-188,0,0,0,0,0,0,0,0,0,-1,1301,1212,0,0
84,-188,0,0,0,0,0,0,0,0,0,-1,1308,1212,0,0
91,-188,0,0,0,0,0,0,0,0,0,-1,1315,1212,0,0
98,-188,0,0,0,0,0,0,0,0,0,-1,1322,1212,0,0
105,-188,0,0,0,0,0,0,0,0,0,-1,1329,1212,0,0
112,-188,0,0,0,0,0,0,0,0,0,-1,1336,1212,0,0
119,-188,0,0,0,0,0,0,0,0,0,-1,1343,1212,0,0
126,-188,0,0,0,0,0,0,0,0,0,-1,1350,1212,0,0
133,-188,0,0,0,0,0,0,0,0,0,-1,1357,1212,0,0
140,-188,0,0,0,0,0,0,0,0,0,-1,1364,1212,0,0
147,-188,0,0,0,0,0,0,0,0,0,-1,1371,1212,0,0
154,-188,0,0,0,0,0,0,0,0,0,-1,1378,1212,0,0
161,-188,0,0,0,0,0,0,0,0,0,-1,1385,1212,0,0
168,-188,0,0,0,0,0,0,0,0,0,-1,1392,1212,0,0
175,-188,0,0,0,0,0,0,0,0,0,-1,1399,1212,0,0
182,-188,0,0,0,0,0,0,0,0,0,-1,1406,1212,0,0
189,-188,0,0,0,0,0,0,0,0,0,-1,1413,1212,0,0
196,-188,0,0,0,0,0,0,0,0,0,-1,1420,1212,0,0
203,-188,0,0,0,0,0,0,0,0,0,-1,1427,1212,0,0
210,-188,0,0,0,0,0,0,0,0,0,-1,1434,1212,0,0
217,-188,0,0,0,0,0,0,0,0,0,-1,1441,1212,0,0
224,-188,0,0,0,0,0,0,0,0,0,-1,1448,1212,0,0
231,-188,0,0,0,0,0,0,0,0,0,-1,1455,1212,0,0
238,-188,0,0,0,0,0,0,0,0,0,-1,1462,1212,0,0
245,-188,0,0,0,0,0,0,0,0,0,-1,1469,1212,0,0
252,-188,0,0,0,0,0,0,0,0,0,-1,1476,1212,0,0
259,-188,0,0,0,0,0,0,0,0,0,-1,1483,1212,0,0
266,-188,0,0,0,0,0,0,0,0,0,-1,1490,1212,0,0
273,-188,0,0,0,0,0,0,0,0,0,-1,1497,1212,0,0
280,-188,0,0,0,0,0,0,0,0,0,-1,1504,1212,0,0
287,-188,0,0,0,0,0,0,0,0,0,-1,1511,1212,0,0
294,-188,0,0,0,0,0,0,0,0,0,-1,1518,1212,0,0
301,-188,0,0,0,0,0,0,0,0,0,-1,1525,1212,0,0
308,-188,0,0,0,0,0,0,0,0,0,-1,1532,1212,0,0
315,-188,0,0,0,0,0,0,0,0,0,-1,1539,1212,0,0
322,-188,0,0,0,0,0,0,0,0,0,-1,1546,1212,0,0
329,-188,0,0,0,0,0,0,0,0,0,-1,1553,1212,0,0
336,-188,0,0,0,0,0,0,0,0,0,-1,1560,1212,0,0
343,-188,0,0,0,0,0,0,0,0,0,-1,1567,1212,0,0
350,-188,0,0,0,0,0,0,0,0,0,-1,1574,1212,0,0
357,-188,0,0,0,0,0,0,0,0,0,-1,1581,1212,0,0
364,-188,0,0,0,0,0,0,0,0,0,-1,1588,1212,0,0
371,-188,0,0,0,0,0,0,0,0,0,-1,1595,1212,0,0
378,-188,0,0,0,0,0,0,0,0,0,-1,1602,1212,0,0
385,-188,0,0,0,0,0,0,0,0,0,-1,1609,1212,0,0
392,-188,0,0,0,0,0,0,0,0,0,-1,1616,1212,0,0
399,-188,0,0,0,0,0,0,0,0,0,-1,1623,1212,0,0
406,-188,0,0,0,0,0,0,0,0,0,-1,1630,1212,0,0
413,-188,0,0,0,0,0,0,0,0,0,-1,1637,1212,0,0
420,-188,0,0,0,0,0,0,0,0,0,-1,1644,1212,0,0
427,-188,0,0,0,0,0,0,0,0,0,-1,1651,1212,0,0
434,-188,0,0,0,0,0,0,0,0,0,-1,1658,1212,0,0
441,-188,0,0,0,0,0,0,0,0,0,-1,1665,1212,0,0
448,-188,0,0,0,0,0,0,0,0,0,-1,1672,1212,0,0
455,-188,0,0,0,0,0,0,0,0,0,-1,1679,1212,0,0
462,-188,0,0,0,0,0,0,0,0,0,-1,1686,1212,0,0
469,-188,0,0,0,0,0,0,0,0,0,-1,1693,1212,0,0
476,-188,0,0,0,0,0,0,0,0,0,-1,1700,1212,0,0
483,-188,0,0,0,0,0,0,0,0,0,-1,1707,1212,0,0
490,-188,0,0,0,0,0,0,0,0,0,-1,1714,1212,0,0
497,-188,0,0,0,0,0,0,0,0,0,-1,1721,1212,0,0
504,-188,0,0,0,0,0,0,0,0,0,-1,1728,1212,0,0
511,-188,0,0,0,0,0,0,0,0,0,-1,1735,1212,0,0
518,-188,0,0,0,0,0,0,0,0,0,-1,1742,1212,0,0
525,-188,0,0,0,0,0,0,0,0,0,-1,1749,1212,0,0
532,-188,0,0,0,0,0,0,0,0,0,-1,1756,1212,0,0
539,-188,0,0,0,0,0,0,0,0,0,-1,1763,1212,0,0
546,-188,0,0,0,0,0,0,0,0,0,-1,1770,1212,0,0
553,-188,0,0,0,0,0,0,0,0,0,-1,1777,1212,0,0
560,-188,0,0,0,0,0,0,0,0,0,-1,1784,1212,0,0
567,-188,0,0,0,0,0,0,0,0,0,-1,1791,1212,0,0
574,-188,0,0,0,0,0,0,0,0,0,-1,1798,1212,0,0
581,-188,0,0,0,0,0,0,0,0,0,-1,1805,1212,0,0
588,-188,0,0,0,0,0,0,0,0,0,-1,1812,1212,0,0
595,-188,0,0,0,0,0,0,0,0,0,-1,1819,1212,0,0
602,-188,0,0,0,0,0,0,0,0,0,-1,1826,1212,0,0
609,-188,0,0,0,0,0,0,0,0,0,-1,1833,1212,0,0
616,-188,0,0,0,0,0,0,0,0,0,-1,1840,1212,0,0
623,-188,0,0,0,0,0,0,0,0,0,-1,1847,1212,0,0
630,-188,48.3745,2.60962,-0.00100936,9.76323e-05,0.00197526,0.00159548,-0.00250721,0.922002,0.00238811,0.040753,1854,1212,48.3745,-2.60966
637,-188,48.234,2.61401,-0.000173711,0.000361941,0.0013021,0.00142347,-0.00123524,0.886828,0.00153629,0.0421785,1861,1212,48.234,-2.61397
644,-188,48.1741,2.66211,0.000556087,0.000850307,0.000421556,0.00114968,0.000256709,0.953276,0.000696831,0.0387509,1868,1212,48.174,-2.66205
651,-188,48.1978,2.73804,0.00111251,0.00121726,-0.000282013,0.00145172,0.000878047,-0.877211,0.000844269,0.0323515,1875,1212,48.1977,-2.73798
658,-188,48.2471,2.6991,0.00164091,0.00144072,-0.000911757,0.00245805,0.000623581,-0.730728,0.00147544,0.0305266,1882,1212,48.247,-2.69912
665,-188,48.2695,2.65173,0.00205817,0.00133348,-0.00119533,0.00294487,0.000446775,-0.638234,0.00183257,0.0308343,1889,1212,48.2696,-2.65179
672,-188,48.3392,2.64746,0.00211913,0.00117932,-0.0011175,0.0028615,0.000436948,-0.586374,0.00177998,0.0270085,1896,1212,48.3392,-2.64744
679,-188,48.3851,2.61108,0,0,0,0,0,0,0,-1,1903,1212,48.3852,-2.61103
686,-188,47.8763,2.71082,0,0,0,0,0,0,0,-1,1910,1212,47.8763,-2.7108
693,-188,35.9054,2.18042,0,0,0,0,0,0,0,-1,1917,1212,35.9054,-2.18038
700,-188,39.0826,8.68848,0,0,0,0,0,0,0,-1,1924,1212,39.0826,-8.68852
707,-188,40.3502,8.6803,0,0,0,0,0,0,0,-1,1931,1212,40.3502,-8.68025
714,-188,40.5844,8.20117,0,0,0,0,0,0,0,-1,1938,1212,40.5843,-8.20122
721,-188,40.3502,7.65979,-2.15091e-05,0.000679809,0.000262695,0.000767295,-0.000108994,1.24932,0.000551464,0.0396195,1945,1212,40.3502,-7.6598
728,-188,40.1819,7.19666,-0.000187276,0.000585485,0.000827814,0.00111265,-0.000714441,1.00374,0.00106319,0.0133728,1952,1212,40.1819,-7.19668
735,-188,40.1677,6.79004,-0.000161209,0.000595976,0.00111766,0.00139743,-0.000962658,0.948701,0.00137028,0.0131263,1959,1212,40.1677,-6.79008
742,-188,40.1276,6.37598,0.000280879,0.000534468,0.00160062,0.00201331,-0.00119796,0.824924,0.00187384,0.0144084,1966,1212,40.1275,-6.376
749,-188,40.1235,5.95227,0.0013609,0.00072253,0.00182196,0.00289143,-0.000807996,0.698684,0.00224593,0.0138579,1973,1212,40.1235,-5.95223
756,-188,40.1437,5.52234,0.00289203,0.00142216,0.00132737,0.00367434,0.000639843,0.532569,0.00226659,0.0123144,1980,1212,40.1437,-5.52232
763,-188,40.1625,5.10352,0.00488147,0.00241465,0.000554727,0.00500047,0.00229565,0.211323,0.00289024,0.0159005,1987,1212,40.1625,-5.10351
770,-188,40.1494,4.59692,0.00726893,0.00393113,-0.00105367,0.00757372,0.00362634,-0.281578,0.004374,0.0328742,1994,1212,40.1494,-4.5969
777,-188,40.1947,4.03235,0,0,0,0,0,0,0,-1,2001,1212,40.1947,-4.03231
784,-188,34.7103,1.6665,0,0,0,0,0,0,0,-1,2008,1212,34.7103,-1.66656
791,-188,38.8401,0.969482,0,0,0,0,0,0,0,-1,2015,1212,38.8401,-0.969542
798,-188,38.8203,2.93079,0,0,0,0,0,0,0,-1,2022,1212,38.8204,-2.93082
805,-188,0,0,0,0,0,0,0,0,0,-1,2029,1212,0,0
812,-188,0,0,0,0,0,0,0,0,0,-1,2036,1212,0,0
-700,-195,0,0,0,0,0,0,0,0,0,-1,524,1219,0,0
-693,-195,0,0,0,0,0,0,0,0,0,-1,531,1219,0,0
-686,-195,0,0,0,0,0,0,0,0,0,-1,538,1219,0,0
-679,-195,-29.1455,-3.41663,-0.00993302,0.0982494,0.138945,0.193261,-0.104944,0.971022,0.174668,0.0435844,545,1219,-29.1455,3.41657
-672,-195,-29.8417,-2.56848,0.00397499,0.0875983,0.124637,0.177249,-0.0856762,0.947234,0.154839,0.0476388,552,1219,-29.8417,2.56853
-665,-195,-30.1466,-1.40662,0.0114516,0.0755772,0.107218,0.155424,-0.0683949,0.930688,0.132438,0.048616,559,1219,-30.1466,1.40663
-658,-195,-30.0947,0.203491,0.0150294,0.0634278,0.0891457,0.1316,-0.0531432,0.917933,0.109821,0.0461359,566,1219,-30.0947,-0.203517
-651,-195,-26.1931,1.26587,0,0,0,0,0,0,0,-1,573,1219,-26.1931,-1.26593
-644,-195,-26.332,1.67676,0.015461,0.0408138,0.0553333,0.0849042,-0.0286294,0.898001,0.0681799,0.0413746,580,1219,-26.332,-1.67679
-637,-195,-26.4919,2.06873,0.0137423,0.0308262,0.0405505,0.0637247,-0.0191561,0.889205,0.0501044,0.021782,587,1219,-26.4919,-2.06868
-630,-195,-26.5662,2.4541,0.0118346,0.0223617,0.0282701,0.0458541,-0.0116578,0.877438,0.0351066,0.0082068,594,1219,-26.5662,-2.45413
-623,-195,-26.575,2.90906,0.00986499,0.0138333,0.0164581,0.0284264,-0.0047281,0.845387,0.0207077,0.00809879,601,1219,-26.575,-2.90912
-616,-195,-26.5604,3.39209,0.00686248,0.00759557,0.00704033,0.0142789,0.000179154,0.811406,0.00946011,0.0100535,608,1219,-26.5605,-3.39214
-609,-195,-26.561,3.89795,0.00304956,0.00276258,0.000671292,0.00359253,0.00221962,0.680109,0.00209326,0.0180608,615,1219,-26.561,-3.89792
-602,-195,-26.5983,4.35754,0.000802315,0.000976207,-0.00107548,0.00196825,-0.000189731,-0.825732,0.00137977,0.0217848,622,1219,-26.5983,-4.35759
-595,-195,-26.6488,4.79895,0.000439707,0.000374841,-0.00115345,0.00156118,-0.000746629,-0.771343,0.0013598,0.0200014,629,1219,-26.6488,-4.79895
-588,-195,-26.6796,5.29712,0.000981196,-3.83281e-05,-0.00131858,0.00188512,-0.000942251,-0.600947,0.00166236,0.0229711,636,1219,-26.6796,-5.29718
-581,-195,-26.4834,5.83728,0,0,0,0,0,0,0,-1,643,1219,-26.4834,-5.83729
-574,-195,-27.0231,5.84705,0,0,0,0,0,0,0,-1,650,1219,-27.0231,-5.84702
-567,-195,-20.6388,3.78369,0,0,0,0,0,0,0,-1,657,1219,-20.6388,-3.78369
-560,-195,-20.878,2.10388,0,0,0,0,0,0,0,-1,664,1219,-20.878,-2.10385
-553,-195,-35.3707,0.942627,0,0,0,0,0,0,0,-1,671,1219,-35.3707,-0.942643
-546,-195,-35.7426,0.841553,0,0,0,0,0,0,0,-1,678,1219,-35.7426,-0.841574
-539,-195,-35.6443,0.929443,0.00191761,-0.00216714,0.000211642,0.00192855,-0.00217808,0.0516285,0.00237242,0.0424834,685,1219,-35.6443,-0.92945
-532,-195,-35.665,0.810791,0.00134699,-0.00225078,0.000646312,0.00145957,-0.00236336,0.172461,0.00222764,0.0385247,692,1219,-35.665,-0.810843
-525,-195,-35.6757,1.02393,0.000225751,-0.00216506,0.00121784,0.000736838,-0.00267614,0.397347,0.00207381,0.0408151,699,1219,-35.6757,-1.02396
-518,-195,-35.7829,1.15466,-0.000971627,-0.00143252,0.00247815,0.00128676,-0.00369091,0.739035,0.0029835,0.0414851,706,1219,-35.7829,-1.15466
-511,-195,-35.6807,1.13208,-0.00159606,-0.000788103,0.00428346,0.00311039,-0.00549455,0.832415,0.00503123,0.0404111,713,1219,-35.6807,-1.13206
-504,-195,0,0,0,0,0,0,0,0,0,-1,720,1219,0,0
-497,-195,0,0,0,0,0,0,0,0,0,-1,727,1219,0,0
-490,-195,0,0,0,0,0,0,0,0,0,-1,734,1219,0,0
-483,-195,0,0,0,0,0,0,0,0,0,-1,741,1219,0,0
-476,-195,0,0,0,0,0,0,0,0,0,-1,748,1219,0,0
-469,-195,0,0,0,0,0,0,0,0,0,-1,755,1219,0,0
-462,-195,0,0,0,0,0,0,0,0,0,-1,762,1219,0,0
-455,-195,0,0,0,0,0,0,0,0,0,-1,769,1219,0,0
-448,-195,0,0,0,0,0,0,0,0,0,-1,776,1219,0,0
-441,-195,0,0,0,0,0,0,0,0,0,-1,783,1219,0,0
-434,-195,0,0,0,0,0,0,0,0,0,-1,790,1219,0,0
-427,-195,0,0,0,0,0,0,0,0,0,-1,797,1219,0,0
-420,-195,0,0,0,0,0,0,0,0,0,-1,804,1219,0,0
-413,-195,0,0,0,0,0,0,0,0,0,-1,811,1219,0,0
-406,-195,0,0,0,0,0,0,0,0,0,-1,818,1219,0,0
-399,-195,0,0,0,0,0,0,0,0,0,-1,825,1219,0,0
-392,-195,0,0,0,0,0,0,0,0,0,-1,832,1219,0,0
-385,-195,0,0,0,0,0,0,0,0,0,-1,839,1219,0,0
-378,-195,0,0,0,0,0,0,0,0,0,-1,846,1219,0,0
-371,-195,0,0,0,0,0,0,0,0,0,-1,853,1219,0,0
-364,-195,0,0,0,0,0,0,0,0,0,-1,860,1219,0,0
-357,-195,0,0,0,0,0,0,0,0,0,-1,867,1219,0,0
-350,-195,0,0,0,0,0,0,0,0,0,-1,874,1219,0,0
-343,-195,0,0,0,0,0,0,0,0,0,-1,881,1219,0,0
-336,-195,0,0,0,0,0,0,0,0,0,-1,888,1219,0,0
-329,-195,0,0,0,0,0,0,0,0,0,-1,895,1219,0,0
-322,-195,0,0,0,0,0,0,0,0,0,-1,902,1219,0,0
-315,-195,0,0,0,0,0,0,0,0,0,-1,909,1219,0,0
-308,-195,0,0,0,0,0,0,0,0,0,-1,916,1219,0,0
-301,-195,0,0,0,0,0,0,0,0,0,-1,923,1219,0,0
-294,-195,0,0,0,0,0,0,0,0,0,-1,930,1219,0,0
-287,-195,0,0,0,0,0,0,0,0,0,-1,937,1219,0,0
-280,-195,0,0,0,0,0,0,0,0,0,-1,944,1219,0,0
-273,-195,0,0,0,0,0,0,0,0,0,-1,951,1219,0,0
-266,-195,0,0,0,0,0,0,0,0,0,-1,958,1219,0,0
-259,-195,0,0,0,0,0,0,0,0,0,-1,965,1219,0,0
-252,-195,0,0,0,0,0,0,0,0,0,-1,972,1219,0,0
-245,-195,0,0,0,0,0,0,0,0,0,-1,979,1219,0,0
-238,-195,0,0,0,0,0,0,0,0,0,-1,986,1219,0,0
-231,-195,0,0,0,0,0,0,0,0,0,-1,993,1219,0,0
-224,-195,0,0,0,0,0,0,0,0,0,-1,1000,1219,0,0
-217,-195,0,0,0,0,0,0,0,0,0,-1,1007,1219,0,0
-210,-195,0,0,0,0,0,0,0,0,0,-1,1014,1219,0,0
-203,-195,0,0,0,0,0,0,0,0,0,-1,1021,1219,0,0
-196,-195,0,0,0,0,0,0,0,0,0,-1,1028,1219,0,0
-189,-195,0,0,0,0,0,0,0,0,0,-1,1035,1219,0,0
-182,-195,0,0,0,0,0,0,0,0,0,-1,1042,1219,0,0
-175,-195,0,0,0,0,0,0,0,0,0,-1,1049,1219,0,0
-168,-195,0,0,0,0,0,0,0,0,0,-1,1056,1219,0,0
-161,-195,0,0,0,0,0,0,0,0,0,-1,1063,1219,0,0
-154,-195,0,0,0,0,0,0,0,0,0,-1,1070,1219,0,0
-147,-195,0,0,0,0,0,0,0,0,0,-1,1077,1219,0,0
-140,-195,0,0,0,0,0,0,0,0,0,-1,1084,1219,0,0
-133,-195,0,0,0,0,0,0,0,0,0,-1,1091,1219,0,0
-126,-195,0,0,0,0,0,0,0,0,0,-1,1098,1219,0,0
-119,-195,0,0,0,0,0,0,0,0,0,-1,1105,1219,0,0
-112,-195,0,0,0,0,0,0,0,0,0,-1,1112,1219,0,0
-105,-195,0,0,0,0,0,0,0,0,0,-1,1119,1219,0,0
-98,-195,0,0,0,0,0,0,0,0,0,-1,1126,1219,0,0
-91,-195,0,0,0,0,0,0,0,0,0,-1,1133,1219,0,0
-84,-195,0,0,0,0,0,0,0,0,0,-1,1140,1219,0,0
-77,-195,0,0,0,0,0,0,0,0,0,-1,1147,1219,0,0
-70,-195,0,0,0,0,0,0,0,0,0,-1,1154,1219,0,0
-63,-195,0,0,0,0,0,0,0,0,0,-1,1161,1219,0,0
-56,-195,0,0,0,0,0,0,0,0,0,-1,1168,1219,0,0
-49,-195,0,0,0,0,0,0,0,0,0,-1,1175,1219,0,0
-42,-195,0,0,0,0,0,0,0,0,0,-1,1182,1219,0,0
-35,-195,0,0,0,0,0,0,0,0,0,-1,1189,1219,0,0
-28,-195,0,0,0,0,0,0,0,0,0,-1,1196,1219,0,0
-21,-195,0,0,0,0,0,0,0,0,0,-1,1203,1219,0,0
-14,-195,0,0,0,0,0,0,0,0,0,-1,1210,1219,0,0
-7,-195,0,0,0,0,0,0,0,0,0,-1,1217,1219,0,0
0,-195,0,0,0,0,0,0,0,0,0,-1,1224,1219,0,0
7,-195,0,0,0,0,0,0,0,0,0,-1,1231,1219,0,0
14,-195,0,0,0,0,0,0,0,0,0,-1,1238,1219,0,0
21,-195,0,0,0,0,0,0,0,0,0,-1,1245,1219,0,0
28,-195,0,0,0,0,0,0,0,0,0,-1,1252,1219,0,0
35,-195,0,0,0,0,0,0,0,0,0,-1,1259,1219,0,0
42,-195,0,0,0,0,0,0,0,0,0,-1,1266,1219,0,0
49,-195,0,0,0,0,0,0,0,0,0,-1,1273,1219,0,0
56,-195,0,0,0,0,0,0,0,0,0,-1,1280,1219,0,0
63,-195,0,0,0,0,0,0,0,0,0,-1,1287,1219,0,0
70,-195,0,0,0,0,0,0,0,0,0,-1,1294,1219,0,0
77,-195,0,0,0,0,0,0,0,0,0,-1,1301,1219,0,0
84,-195,0,0,0,0,0,0,0,0,0,-1,1308,1219,0,0
91,-195,0,0,0,0,0,0,0,0,0,-1,1315,1219,0,0
98,-195,0,0,0,0,0,0,0,0,0,-1,1322,1219,0,0
105,-195,0,0,0,0,0,0,0,0,0,-1,1329,1219,0,0
112,-195,0,0,0,0,0,0,0,0,0,-1,1336,1219,0,0
119,-195,0,0,0,0,0,0,0,0,0,-1,1343,1219,0,0
126,-195,0,0,0,0,0,0,0,0,0,-1,1350,1219,0,0
133,-195,0,0,0,0,0,0,0,0,0,-1,1357,1219,0,0
140,-195,0,0,0,0,0,0,0,0,0,-1,1364,1219,0,0
147,-195,0,0,0,0,0,0,0,0,0,-1,1371,1219,0,0
154,-195,0,0,0,0,0,0,0,0,0,-1,1378,1219,0,0
161,-195,0,0,0,0,0,0,0,0,0,-1,1385,1219,0,0
168,-195,0,0,0,0,0,0,0,0,0,-1,1392,1219,0,0
175,-195,0,0,0,0,0,0,0,0,0,-1,1399,1219,0,0
182,-195,0,0,0,0,0,0,0,0,0,-1,1406,1219,0,0
189,-195,0,0,0,0,0,0,0,0,0,-1,1413,1219,0,0
196,-195,0,0,0,0,0,0,0,0,0,-1,1420,1219,0,0
203,-195,0,0,0,0,0,0,0,0,0,-1,1427,1219,0,0
210,-195,0,0,0,0,0,0,0,0,0,-1,1434,1219,0,0
217,-195,0,0,0,0,0,0,0,0,0,-1,1441,1219,0,0
224,-195,0,0,0,0,0,0,0,0,0,-1,1448,1219,0,0
231,-195,0,0,0,0,0,0,0,0,0,-1,1455,1219,0,0
238,-195,0,0,0,0,0,0,0,0,0,-1,1462,1219,0,0
245,-195,0,0,0,0,0,0,0,0,0,-1,1469,1219,0,0
252,-195,0,0,0,0,0,0,0,0,0,-1,1476,1219,0,0
259,-195,0,0,0,0,0,0,0,0,0,-1,1483,1219,0,0
266,-195,0,0,0,0,0,0,0,0,0,-1,1490,1219,0,0
273,-195,0,0,0,0,0,0,0,0,0,-1,1497,1219,0,0
280,-195,0,0,0,0,0,0,0,0,0,-1,1504,1219,0,0
287,-195,0,0,0,0,0,0,0,0,0,-1,1511,1219,0,0
294,-195,0,0,0,0,0,0,0,0,0,-1,1518,1219,0,0
301,-195,0,0,0,0,0,0,0,0,0,-1,1525,1219,0,0
308,-195,0,0,0,0,0,0,0,0,0,-1,1532,1219,0,0
315,-195,0,0,0,0,0,0,0,0,0,-1,1539,1219,0,0
322,-195,0,0,0,0,0,0,0,0,0,-1,1546,1219,0,0
329,-195,0,0,0,0,0,0,0,0,0,-1,1553,1219,0,0
336,-195,0,0,0,0,0,0,0,0,0,-1,1560,1219,0,0
343,-195,0,0,0,0,0,0,0,0,0,-1,1567,1219,0,0
350,-195,0,0,0,0,0,0,0,0,0,-1,1574,1219,0,0
357,-195,0,0,0,0,0,0,0,0,0,-1,1581,1219,0,0
364,-195,0,0,0,0,0,0,0,0,0,-1,1588,1219,0,0
371,-195,0,0,0,0,0,0,0,0,0,-1,1595,1219,0,0
378,-195,0,0,0,0,0,0,0,0,0,-1,1602,1219,0,0
385,-195,0,0,0,0,0,0,0,0,0,-1,1609,1219,0,0
392,-195,0,0,0,0,0,0,0,0,0,-1,1616,1219,0,0
399,-195,0,0,0,0,0,0,0,0,0,-1,1623,1219,0,0
406,-195,0,0,0,0,0,0,0,0,0,-1,1630,1219,0,0
413,-195,0,0,0,0,0,0,0,0,0,-1,1637,1219,0,0
420,-195,0,0,0,0,0,0,0,0,0,-1,1644,1219,0,0
427,-195,0,0,0,0,0,0,0,0,0,-1,1651,1219,0,0
434,-195,0,0,0,0,0,0,0,0,0,-1,1658,1219,0,0
441,-195,0,0,0,0,0,0,0,0,0,-1,1665,1219,0,0
448,-195,0,0,0,0,0,0,0,0,0,-1,1672,1219,0,0
455,-195,0,0,0,0,0,0,0,0,0,-1,1679,1219,0,0
462,-195,0,0,0,0,0,0,0,0,0,-1,1686,1219,0,0
469,-195,0,0,0,0,0,0,0,0,0,-1,1693,1219,0,0
476,-195,0,0,0,0,0,0,0,0,0,-1,1700,1219,0,0
483,-195,0,0,0,0,0,0,0,0,0,-1,1707,1219,0,0
490,-195,0,0,0,0,0,0,0,0,0,-1,1714,1219,0,0
497,-195,0,0,0,0,0,0,0,0,0,-1,1721,1219,0,0
504,-195,0,0,0,0,0,0,0,0,0,-1,1728,1219,0,0
511,-195,0,0,0,0,0,0,0,0,0,-1,1735,1219,0,0
518,-195,0,0,0,0,0,0,0,0,0,-1,1742,1219,0,0
525,-195,0,0,0,0,0,0,0,0,0,-1,1749,1219,0,0
532,-195,0,0,0,0,0,0,0,0,0,-1,1756,1219,0,0
539,-195,0,0,0,0,0,0,0,0,0,-1,1763,1219,0,0
546,-195,0,0,0,0,0,0,0,0,0,-1,1770,1219,0,0
553,-195,0,0,0,0,0,0,0,0,0,-1,1777,1219,0,0
560,-195,0,0,0,0,0,0,0,0,0,-1,1784,1219,0,0
567,-195,0,0,0,0,0,0,0,0,0,-1,1791,1219,0,0
574,-195,0,0,0,0,0,0,0,0,0,-1,1798,1219,0,0
581,-195,0,0,0,0,0,0,0,0,0,-1,1805,1219,0,0
588,-195,0,0,0,0,0,0,0,0,0,-1,1812,1219,0,0
595,-195,0,0,0,0,0,0,0,0,0,-1,1819,1219,0,0
602,-195,0,0,0,0,0,0,0,0,0,-1,1826,1219,0,0
609,-195,0,0,0,0,0,0,0,0,0,-1,1833,1219,0,0
616,-195,0,0,0,0,0,0,0,0,0,-1,1840,1219,0,0
623,-195,0,0,0,0,0,0,0,0,0,-1,1847,1219,0,0
630,-195,48.4302,2.4696,-0.000197893,0.000697642,0.00149947,0.00181478,-0.00131503,0.930492,0.00181465,0.041363,1854,1219,48.4302,-2.46963
637,-195,48.3784,2.60205,-0.000113025,0.00105045,0.000740246,0.00141019,-0.000472767,1.11843,0.00113114,0.0431489,1861,1219,48.3785,-2.60206
644,-195,48.3411,2.72095,-2.55059e-05,0.00158964,-0.000161825,0.0016057,-4.15599e-05,-1.47191,0.00108458,0.0373227,1868,1219,48.3411,-2.72092
651,-195,48.277,2.74023,0.000220746,0.00183702,-0.000817426,0.00217835,-0.000120581,-1.17524,0.00149405,0.0273912,1875,1219,48.277,-2.74018
658,-195,48.2903,2.69507,0.000707755,0.00188917,-0.00132421,0.00274845,-0.000151523,-0.995194,0.00188484,0.0239649,1882,1219,48.2902,-2.69502
665,-195,48.3182,2.66687,0.00123476,0.00158325,-0.00145959,0.00287896,-6.09483e-05,-0.844806,0.00193994,0.0239862,1889,1219,48.3182,-2.66682
672,-195,48.3921,2.57068,0.00151117,0.00126029,-0.0013003,0.00269207,7.93943e-05,-0.737311,0.00176884,0.0388254,1896,1219,48.392,-2.57066
679,-195,48.4373,2.45862,0,0,0,0,0,0,0,-1,1903,1219,48.4372,-2.45864
686,-195,47.7782,2.72046,0,0,0,0,0,0,0,-1,1910,1219,47.7782,-2.72045
693,-195,24.4368,5.68298,0,0,0,0,0,0,0,-1,1917,1219,24.4368,-5.68293
700,-195,39.7406,9.13721,0,0,0,0,0,0,0,-1,1924,1219,39.7406,-9.13725
707,-195,39.8099,8.56323,0.0010723,0.0006037,-0.000567457,0.00145193,0.000224075,-0.589611,0.000902579,0.0319529,1931,1219,39.81,-8.56322
714,-195,39.828,7.96033,0.000823791,0.0005114,-0.000298085,0.00100412,0.000331066,-0.544068,0.000590833,0.0395386,1938,1219,39.828,-7.96038
721,-195,39.7777,7.6366,0.000314477,0.000329327,0.000226272,0.000548296,9.55077e-05,0.8018,0.00033822,0.0222698,1945,1219,39.7777,-7.63657
728,-195,39.7643,7.22217,0.000209001,0.000310302,0.000813,0.00107423,-0.000554925,0.816508,0.000956387,0.0111619,1952,1219,39.7642,-7.22217
735,-195,39.7456,6.78357,0.000443356,0.000375425,0.00108884,0.00149876,-0.000679978,0.769806,0.00128716,0.013201,1959,1219,39.7456,-6.78353
742,-195,39.7203,6.3667,0.00128949,0.000407099,0.00142368,0.00233878,-0.000642184,0.635142,0.00181159,0.014905,1966,1219,39.7204,-6.36673
749,-195,39.6985,5.95569,0.00296939,0.000673521,0.0015505,0.00375065,-0.00010774,0.466745,0.00253711,0.0139896,1973,1219,39.6985,-5.95568
756,-195,39.7114,5.54736,0.00547887,0.00120651,0.00142491,0.00591049,0.00077488,0.294129,0.00370912,0.0135746,1980,1219,39.7114,-5.54736
763,-195,39.724,5.12646,0.00892334,0.00208073,0.000996649,0.00906555,0.00193852,0.141731,0.00551234,0.0186587,1987,1219,39.724,-5.12642
770,-195,39.6565,4.78711,0.0134175,0.0032995,0.000192554,0.0134212,0.00329584,0.0190216,0.00807621,0.0367717,1994,1219,39.6565,-4.7871
777,-195,39.6405,4.52417,0,0,0,0,0,0,0,-1,2001,1219,39.6405,-4.52412
784,-195,40.2747,-0.327393,0,0,0,0,0,0,0,-1,2008,1219,40.2747,0.327416
791,-195,40.3972,1.3114,0,0,0,0,0,0,0,-1,2015,1219,40.3973,-1.31137
798,-195,40.4421,3.11365,0,0,0,0,0,0,0,-1,2022,1219,40.4421,-3.11367
805,-195,0,0,0,0,0,0,0,0,0,-1,2029,1219,0,0
812,-195,0,0,0,0,0,0,0,0,0,-1,2036,1219,0,0
-700,-202,0,0,0,0,0,0,0,0,0,-1,524,1226,0,0
-693,-202,0,0,0,0,0,0,0,0,0,-1,531,1226,0,0
-686,-202,0,0,0,0,0,0,0,0,0,-1,538,1226,0,0
-679,-202,-29.5994,-4.02014,-0.00711661,0.117038,0.166962,0.23309,-0.123168,0.963381,0.208924,0.0471273,545,1226,-29.5994,4.02009
-672,-202,-30.5198,-3.14661,0.00684863,0.103701,0.14866,0.211623,-0.101074,0.942853,0.184258,0.0461431,552,1226,-30.5198,3.14665
-665,-202,-31.2858,-2.0498,0.0137321,0.0888296,0.127041,0.183755,-0.0811935,0.929089,0.156742,0.0446541,559,1226,-31.2858,2.0498
-658,-202,-30.761,-0.307983,0.0166897,0.0740558,0.105118,0.154334,-0.0635879,0.918589,0.129402,0.0451644,566,1226,-30.761,0.308033
-651,-202,-25.8013,0.920654,0,0,0,0,0,0,0,-1,573,1226,-25.8013,-0.920674
-644,-202,-25.9288,1.42749,0.0163689,0.0472825,0.0652502,0.0988817,-0.0352303,0.901697,0.0802839,0.0485385,580,1226,-25.9289,-1.42747
-637,-202,-25.9855,1.96021,0.0144765,0.0357699,0.0482178,0.0745024,-0.0242561,0.894057,0.0594273,0.0385543,587,1226,-25.9855,-1.96018
-630,-202,-26.0677,2.4408,0.0124182,0.0260042,0.0339898,0.0538731,-0.0154507,0.884026,0.0420233,0.0161512,594,1226,-26.0677,-2.44076
-623,-202,-26.0845,2.91235,0.0105504,0.0163897,0.0205697,0.0342459,-0.00730583,0.855898,0.0256156,0.00814016,601,1226,-26.0845,-2.91232
-616,-202,-26.0972,3.39331,0.00777878,0.00929162,0.00981546,0.0183798,-0.00130936,0.823854,0.0127121,0.00864979,608,1226,-26.0972,-3.39337
-609,-202,-26.1148,3.90857,0.00413297,0.00376225,0.00233326,0.00628822,0.001607,0.745761,0.00377236,0.0218069,615,1226,-26.1148,-3.90855
-602,-202,-26.1633,4.33142,0.00134055,0.00117975,-0.000742979,0.00200747,0.000512832,-0.731501,0.00120433,0.0222184,622,1226,-26.1633,-4.33138
-595,-202,-26.1774,4.79407,0.000725536,0.000329311,-0.000860375,0.00141031,-0.000355466,-0.672239,0.00107841,0.0169117,629,1226,-26.1774,-4.79405
-588,-202,-26.1205,5.27417,0.00146035,-0.00024091,-0.00103359,0.00194833,-0.000728889,-0.441097,0.00159825,0.0154915,636,1226,-26.1205,-5.27418
-581,-202,-25.997,5.78699,0,0,0,0,0,0,0,-1,643,1226,-25.997,-5.78699
-574,-202,-26.2499,5.80078,0,0,0,0,0,0,0,-1,650,1226,-26.2499,-5.80075
-567,-202,-22.1768,4.56995,0,0,0,0,0,0,0,-1,657,1226,-22.1768,-4.56991
-560,-202,-10.929,2.73096,0,0,0,0,0,0,0,-1,664,1226,-10.929,-2.73092
-553,-202,-30.2701,1.474,0,0,0,0,0,0,0,-1,671,1226,-30.2701,-1.47395
-546,-202,-35.838,1.19263,0,0,0,0,0,0,0,-1,678,1226,-35.838,-1.19262
-539,-202,-35.6877,1.05933,0.00214647,-0.00236939,0.000388704,0.00217968,-0.0024026,0.0852398,0.00264663,0.0461051,685,1226,-35.6877,-1.05936
-532,-202,-35.6613,0.86438,0.00149658,-0.00237353,0.000702073,0.00162,-0.00249696,0.174024,0.00239484,0.0317301,692,1226,-35.6613,-0.864418
-525,-202,-35.8082,1.04895,0.000254071,-0.00226986,0.00100444,0.000605006,-0.0026208,0.336127,0.00197992,0.0363966,699,1226,-35.8082,-1.04901
-518,-202,-35.9153,1.28784,-0.00141227,-0.00153503,0.00189109,0.000418431,-0.00336574,0.769175,0.00239551,0.0407478,706,1226,-35.9153,-1.28781
-511,-202,-35.8214,1.19531,-0.00275172,-0.000870247,0.00339237,0.00170941,-0.00533138,0.920654,0.0042405,0.0410814,713,1226,-35.8214,-1.19529
-504,-202,0,0,0,0,0,0,0,0,0,-1,720,1226,0,0
-497,-202,0,0,0,0,0,0,0,0,0,-1,727,1226,0,0
-490,-202,0,0,0,0,0,0,0,0,0,-1,734,1226,0,0
-483,-202,0,0,0,0,0,0,0,0,0,-1,741,1226,0,0
-476,-202,0,0,0,0,0,0,0,0,0,-1,748,1226,0,0
-469,-202,0,0,0,0,0,0,0,0,0,-1,755,1226,0,0
-462,-202,0,0,0,0,0,0,0,0,0,-1,762,1226,0,0
-455,-202,0,0,0,0,0,0,0,0,0,-1,769,1226,0,0
-448,-202,0,0,0,0,0,0,0,0,0,-1,776,1226,0,0
-441,-202,0,0,0,0,0,0,0,0,0,-1,783,1226,0,0
-434,-202,0,0,0,0,0,0,0,0,0,-1,790,1226,0,0
-427,-202,0,0,0,0,0,0,0,0,0,-1,797,1226,0,0
-420,-202,0,0,0,0,0,0,0,0,0,-1,804,1226,0,0
-413,-202,0,0,0,0,0,0,0,0,0,-1,811,1226,0,0
-406,-202,0,0,0,0,0,0,0,0,0,-1,818,1226,0,0
-399,-202,0,0,0,0,0,0,0,0,0,-1,825,1226,0,0
-392,-202,0,0,0,0,0,0,0,0,0,-1,832,1226,0,0
-385,-202,0,0,0,0,0,0,0,0,0,-1,839,1226,0,0
-378,-202,0,0,0,0,0,0,0,0,0,-1,846,1226,0,0
-371,-202,0,0,0,0,0,0,0,0,0,-1,853,1226,0,0
-364,-202,0,0,0,0,0,0,0,0,0,-1,860,1226,0,0
-357,-202,0,0,0,0,0,0,0,0,0,-1,867,1226,0,0
-350,-202,0,0,0,0,0,0,0,0,0,-1,874,1226,0,0
-343,-202,0,0,0,0,0,0,0,0,0,-1,881,1226,0,0
-336,-202,0,0,0,0,0,0,0,0,0,-1,888,1226,0,0
-329,-202,0,0,0,0,0,0,0,0,0,-1,895,1226,0,0
-322,-202,0,0,0,0,0,0,0,0,0,-1,902,1226,0,0
-315,-202,0,0,0,0,0,0,0,0,0,-1,909,1226,0,0
-308,-202,0,0,0,0,0,0,0,0,0,-1,916,1226,0,0
-301,-202,0,0,0,0,0,0,0,0,0,-1,923,1226,0,0
-294,-202,0,0,0,0,0,0,0,0,0,-1,930,1226,0,0
-287,-202,0,0,0,0,0,0,0,0,0,-1,937,1226,0,0
-280,-202,0,0,0,0,0,0,0,0,0,-1,944,1226,0,0
-273,-202,0,0,0,0,0,0,0,0,0,-1,951,1226,0,0
-266,-202,0,0,0,0,0,0,0,0,0,-1,958,1226,0,0
-259,-202,0,0,0,0,0,0,0,0,0,-1,965,1226,0,0
-252,-202,0,0,0,0,0,0,0,0,0,-1,972,1226,0,0
-245,-202,0,0,0,0,0,0,0,0,0,-1,979,1226,0,0
-238,-202,0,0,0,0,0,0,0,0,0,-1,986,1226,0,0
-231,-202,0,0,0,0,0,0,0,0,0,-1,993,1226,0,0
-224,-202,0,0,0,0,0,0,0,0,0,-1,1000,1226,0,0
-217,-202,0,0,0,0,0,0,0,0,0,-1,1007,1226,0,0
-210,-202,0,0,0,0,0,0,0,0,0,-1,1014,1226,0,0
-203,-202,0,0,0,0,0,0,0,0,0,-1,1021,1226,0,0
-196,-202,0,0,0,0,0,0,0,0,0,-1,1028,1226,0,0
-189,-202,0,0,0,0,0,0,0,0,0,-1,1035,1226,0,0
-182,-202,0,0,0,0,0,0,0,0,0,-1,1042,1226,0,0
-175,-202,0,0,0,0,0,0,0,0,0,-1,1049,1226,0,0
-168,-202,0,0,0,0,0,0,0,0,0,-1,1056,1226,0,0
-161,-202,0,0,0,0,0,0,0,0,0,-1,1063,1226,0,0
-154,-202,0,0,0,0,0,0,0,0,0,-1,1070,1226,0,0
-147,-202,0,0,0,0,0,0,0,0,0,-1,1077,1226,0,0
-140,-202,0,0,0,0,0,0,0,0,0,-1,1084,1226,0,0
-133,-202,0,0,0,0,0,0,0,0,0,-1,1091,1226,0,0
-126,-202,0,0,0,0,0,0,0,0,0,-1,1098,1226,0,0
-119,-202,0,0,0,0,0,0,0,0,0,-1,1105,1226,0,0
-112,-202,0,0,0,0,0,0,0,0,0,-1,1112,1226,0,0
-105,-202,0,0,0,0,0,0,0,0,0,-1,1119,1226,0,0
-98,-202,0,0,0,0,0,0,0,0,0,-1,1126,1226,0,0
-91,-202,0,0,0,0,0,0,0,0,0,-1,1133,1226,0,0
-84,-202,0,0,0,0,0,0,0,0,0,-1,1140,1226,0,0
-77,-202,0,0,0,0,0,0,0,0,0,-1,1147,1226,0,0
-70,-202,0,0,0,0,0,0,0,0,0,-1,1154,1226,0,0
-63,-202,0,0,0,0,0,0,0,0,0,-1,1161,1226,0,0
-56,-202,0,0,0,0,0,0,0,0,0,-1,1168,1226,0,0
-49,-202,0,0,0,0,0,0,0,0,0,-1,1175,1226,0,0
-42,-202,0,0,0,0,0,0,0,0,0,-1,1182,1226,0,0
-35,-202,0,0,0,0,0,0,0,0,0,-1,1189,1226,0,0
-28,-202,0,0,0,0,0,0,0,0,0,-1,1196,1226,0,0
-21,-202,0,0,0,0,0,0,0,0,0,-1,1203,1226,0,0
-14,-202,0,0,0,0,0,0,0,0,0,-1,1210,1226,0,0
-7,-202,0,0,0,0,0,0,0,0,0,-1,1217,1226,0,0
0,-202,0,0,0,0,0,0,0,0,0,-1,1224,1226,0,0
7,-202,0,0,0,0,0,0,0,0,0,-1,1231,1226,0,0
14,-202,0,0,0,0,0,0,0,0,0,-1,1238,1226,0,0
21,-202,0,0,0,0,0,0,0,0,0,-1,1245,1226,0,0
28,-202,0,0,0,0,0,0,0,0,0,-1,1252,1226,0,0
35,-202,0,0,0,0,0,0,0,0,0,-1,1259,1226,0,0
42,-202,0,0,0,0,0,0,0,0,0,-1,1266,1226,0,0
49,-202,0,0,0,0,0,0,0,0,0,-1,1273,1226,0,0
56,-202,0,0,0,0,0,0,0,0,0,-1,1280,1226,0,0
63,-202,0,0,0,0,0,0,0,0,0,-1,1287,1226,0,0
70,-202,0,0,0,0,0,0,0,0,0,-1,1294,1226,0,0
77,-202,0,0,0,0,0,0,0,0,0,-1,1301,1226,0,0
84,-202,0,0,0,0,0,0,0,0,0,-1,1308,1226,0,0
91,-202,0,0,0,0,0,0,0,0,0,-1,1315,1226,0,0
98,-202,0,0,0,0,0,0,0,0,0,-1,1322,1226,0,0
105,-202,0,0,0,0,0,0,0,0,0,-1,1329,1226,0,0
112,-202,0,0,0,0,0,0,0,0,0,-1,1336,1226,0,0
119,-202,0,0,0,0,0,0,0,0,0,-1,1343,1226,0,0
126,-202,0,0,0,0,0,0,0,0,0,-1,1350,1226,0,0
133,-202,0,0,0,0,0,0,0,0,0,-1,1357,1226,0,0
140,-202,0,0,0,0,0,0,0,0,0,-1,1364,1226,0,0
147,-202,0,0,0,0,0,0,0,0,0,-1,1371,1226,0,0
154,-202,0,0,0,0,0,0,0,0,0,-1,1378,1226,0,0
161,-202,0,0,0,0,0,0,0,0,0,-1,1385,1226,0,0
168,-202,0,0,0,0,0,0,0,0,0,-1,1392,1226,0,0
175,-202,0,0,0,0,0,0,0,0,0,-1,1399,1226,0,0
182,-202,0,0,0,0,0,0,0,0,0,-1,1406,1226,0,0
189,-202,0,0,0,0,0,0,0,0,0,-1,1413,1226,0,0
196,-202,0,0,0,0,0,0,0,0,0,-1,1420,1226,0,0
203,-202,0,0,0,0,0,0,0,0,0,-1,1427,1226,0,0
210,-202,0,0,0,0,0,0,0,0,0,-1,1434,1226,0,0
217,-202,0,0,0,0,0,0,0,0,0,-1,1441,1226,0,0
224,-202,0,0,0,0,0,0,0,0,0,-1,1448,1226,0,0
231,-202,0,0,0,0,0,0,0,0,0,-1,1455,1226,0,0
238,-202,0,0,0,0,0,0,0,0,0,-1,1462,1226,0,0
245,-202,0,0,0,0,0,0,0,0,0,-1,1469,1226,0,0
252,-202,0,0,0,0,0,0,0,0,0,-1,1476,1226,0,0
259,-202,0,0,0,0,0,0,0,0,0,-1,1483,1226,0,0
266,-202,0,0,0,0,0,0,0,0,0,-1,1490,1226,0,0
273,-202,0,0,0,0,0,0,0,0,0,-1,1497,1226,0,0
280,-202,0,0,0,0,0,0,0,0,0,-1,1504,1226,0,0
287,-202,0,0,0,0,0,0,0,0,0,-1,1511,1226,0,0
294,-202,0,0,0,0,0,0,0,0,0,-1,1518,1226,0,0
301,-202,0,0,0,0,0,0,0,0,0,-1,1525,1226,0,0
308,-202,0,0,0,0,0,0,0,0,0,-1,1532,1226,0,0
315,-202,0,0,0,0,0,0,0,0,0,-1,1539,1226,0,0
322,-202,0,0,0,0,0,0,0,0,0,-1,1546,1226,0,0
329,-202,0,0,0,0,0,0,0,0,0,-1,1553,1226,0,0
336,-202,0,0,0,0,0,0,0,0,0,-1,1560,1226,0,0
343,-202,0,0,0,0,0,0,0,0,0,-1,1567,1226,0,0
350,-202,0,0,0,0,0,0,0,0,0,-1,1574,1226,0,0
357,-202,0,0,0,0,0,0,0,0,0,-1,1581,1226,0,0
364,-202,0,0,0,0,0,0,0,0,0,-1,1588,1226,0,0
371,-202,0,0,0,0,0,0,0,0,0,-1,1595,1226,0,0
378,-202,0,0,0,0,0,0,0,0,0,-1,1602,1226,0,0
385,-202,0,0,0,0,0,0,0,0,0,-1,1609,1226,0,0
392,-202,0,0,0,0,0,0,0,0,0,-1,1616,1226,0,0
399,-202,0,0,0,0,0,0,0,0,0,-1,1623,1226,0,0
406,-202,0,0,0,0,0,0,0,0,0,-1,1630,1226,0,0
413,-202,0,0,0,0,0,0,0,0,0,-1,1637,1226,0,0
420,-202,0,0,0,0,0,0,0,0,0,-1,1644,1226,0,0
427,-202,0,0,0,0,0,0,0,0,0,-1,1651,1226,0,0
434,-202,0,0,0,0,0,0,0,0,0,-1,1658,1226,0,0
441,-202,0,0,0,0,0,0,0,0,0,-1,1665,1226,0,0
448,-202,0,0,0,0,0,0,0,0,0,-1,1672,1226,0,0
455,-202,0,0,0,0,0,0,0,0,0,-1,1679,1226,0,0
462,-202,0,0,0,0,0,0,0,0,0,-1,1686,1226,0,0
469,-202,0,0,0,0,0,0,0,0,0,-1,1693,1226,0,0
476,-202,0,0,0,0,0,0,0,0,0,-1,1700,1226,0,0
483,-202,0,0,0,0,0,0,0,0,0,-1,1707,1226,0,0
490,-202,0,0,0,0,0,0,0,0,0,-1,1714,1226,0,0
497,-202,0,0,0,0,0,0,0,0,0,-1,1721,1226,0,0
504,-202,0,0,0,0,0,0,0,0,0,-1,1728,1226,0,0
511,-202,0,0,0,0,0,0,0,0,0,-1,1735,1226,0,0
518,-202,0,0,0,0,0,0,0,0,0,-1,1742,1226,0,0
525,-202,0,0,0,0,0,0,0,0,0,-1,1749,1226,0,0
532,-202,0,0,0,0,0,0,0,0,0,-1,1756,1226,0,0
539,-202,0,0,0,0,0,0,0,0,0,-1,1763,1226,0,0
546,-202,0,0,0,0,0,0,0,0,0,-1,1770,1226,0,0
553,-202,0,0,0,0,0,0,0,0,0,-1,1777,1226,0,0
560,-202,0,0,0,0,0,0,0,0,0,-1,1784,1226,0,0
567,-202,0,0,0,0,0,0,0,0,0,-1,1791,1226,0,0
574,-202,0,0,0,0,0,0,0,0,0,-1,1798,1226,0,0
581,-202,0,0,0,0,0,0,0,0,0,-1,1805,1226,0,0
588,-202,0,0,0,0,0,0,0,0,0,-1,1812,1226,0,0
595,-202,0,0,0,0,0,0,0,0,0,-1,1819,1226,0,0
602,-202,0,0,0,0,0,0,0,0,0,-1,1826,1226,0,0
609,-202,0,0,0,0,0,0,0,0,0,-1,1833,1226,0,0
616,-202,0,0,0,0,0,0,0,0,0,-1,1840,1226,0,0
623,-202,0,0,0,0,0,0,0,0,0,-1,1847,1226,0,0
630,-202,48.3781,2.56396,0.00044842,0.00131468,0.000850851,0.0018363,-7.32001e-05,1.02083,0.00124932,0.0375523,1854,1226,48.3781,-2.56391
637,-202,48.4717,2.75696,-0.000231878,0.00154808,9.80157e-05,0.00155346,-0.000237259,1.51595,0.00112311,0.0387463,1861,1226,48.4717,-2.75701
644,-202,48.4351,2.80774,-0.000791372,0.00187706,-0.000724946,0.00206129,-0.000975602,-1.32193,0.00179031,0.0357927,1868,1226,48.4351,-2.80771
651,-202,48.3726,2.72815,-0.000765844,0.00189899,-0.0012706,0.0024077,-0.00127456,-1.18997,0.00215925,0.0277261,1875,1226,48.3725,-2.72819
658,-202,48.3713,2.66541,-0.000262273,0.00180211,-0.00162973,0.00269902,-0.00115919,-1.06769,0.00228591,0.0226103,1882,1226,48.3713,-2.66543
665,-202,48.3757,2.65698,0.000363475,0.00141376,-0.00162861,0.0025998,-0.00082256,-0.94136,0.0020628,0.0222727,1889,1226,48.3757,-2.65695
672,-202,48.5098,2.64551,0.000766972,0.00105355,-0.00140239,0.00231995,-0.000499433,-0.836308,0.00173721,0.045957,1896,1226,48.5098,-2.64555
679,-202,48.085,2.12976,0,0,0,0,0,0,0,-1,1903,1226,48.085,-2.12981
686,-202,47.8248,1.91772,0,0,0,0,0,0,0,-1,1910,1226,47.8248,-1.91773
693,-202,39.0732,9.67969,0,0,0,0,0,0,0,-1,1917,1226,39.0732,-9.67968
700,-202,39.2213,9.04089,0.00100991,0.000386923,-0.000712695,0.00147621,-7.93754e-05,-0.579374,0.00101164,0.0446474,1924,1226,39.2213,-9.04088
707,-202,39.3431,8.34912,0.00107063,0.000206173,-0.000556999,0.00134343,-6.66304e-05,-0.455433,0.000918637,0.0339597,1931,1226,39.3431,-8.34918
714,-202,39.3344,7.94177,0.000922845,3.93633e-05,-0.000244225,0.000985863,-2.36541e-05,-0.252522,0.000665267,0.0265824,1938,1226,39.3343,-7.94173
721,-202,39.3699,7.65991,0.000433204,-0.000129752,0.000301017,0.000563843,-0.000260392,0.409465,0.000486504,0.015669,1945,1226,39.3699,-7.65994
728,-202,39.3467,7.21997,0.00041116,-3.74624e-05,0.000894496,0.00110904,-0.000735343,0.662547,0.00107212,0.0113581,1952,1226,39.3466,-7.21995
735,-202,39.3181,6.78967,0.000829187,0.00013168,0.00116968,0.001701,-0.00074013,0.640513,0.00144532,0.0114179,1959,1226,39.3182,-6.78965
742,-202,39.3025,6.36499,0.00189643,0.00028233,0.00142955,0.002731,-0.000552246,0.528426,0.00202994,0.0119303,1966,1226,39.3025,-6.36495
749,-202,39.2642,5.9425,0.00370565,0.00063113,0.00162228,0.00440333,-6.65477e-05,0.40615,0.00295798,0.0119467,1973,1226,39.2641,-5.94252
756,-202,39.2753,5.54309,0.0063603,0.00111874,0.00181279,0.00692617,0.00055288,0.302566,0.00444463,0.0118948,1980,1226,39.2753,-5.54311
763,-202,39.3213,5.18726,0.0101419,0.00197069,0.00179506,0.0105189,0.00159374,0.206985,0.00654634,0.020167,1987,1226,39.3213,-5.18722
770,-202,39.342,4.87256,0,0,0,0,0,0,0,-1,1994,1226,39.3421,-4.8726
777,-202,38.9323,4.52051,0,0,0,0,0,0,0,-1,2001,1226,38.9322,-4.5205
784,-202,37.9491,-2.1272,0,0,0,0,0,0,0,-1,2008,1226,37.9491,2.12721
791,-202,41.6821,1.56946,0,0,0,0,0,0,0,-1,2015,1226,41.6821,-1.56946
798,-202,41.7263,3.20728,0,0,0,0,0,0,0,-1,2022,1226,41.7262,-3.20725
805,-202,0,0,0,0,0,0,0,0,0,-1,2029,1226,0,0
812,-202,0,0,0,0,0,0,0,0,0,-1,2036,1226,0,0
-700,-209,0,0,0,0,0,0,0,0,0,-1,524,1233,0,0
-693,-209,0,0,0,0,0,0,0,0,0,-1,531,1233,0,0
-686,-209,0,0,0,0,0,0,0,0,0,-1,538,1233,0,0
-679,-209,-31.5131,-6.2063,-0.00210688,0.13733,0.195793,0.275447,-0.140224,0.95644,0.244184,0.0456089,545,1233,-31.5131,6.20631
-672,-209,-31.2313,-3.87805,0.0109437,0.120739,0.172903,0.24725,-0.115567,0.939118,0.214022,0.046642,552,1233,-31.2313,3.8781
-665,-209,-31.6813,-2.84778,0.0165342,0.102633,0.146781,0.212548,-0.0933805,0.928043,0.181039,0.0440164,559,1233,-31.6813,2.84782
-658,-209,-31.5131,-1.12439,0.0185253,0.0850375,0.120995,0.177263,-0.0737006,0.919514,0.14895,0.0470981,566,1233,-31.5131,1.12439
-651,-209,-31.1949,0.510254,0,0,0,0,0,0,0,-1,573,1233,-31.1949,-0.510275
-644,-209,-25.5857,1.23792,0,0,0,0,0,0,0,-1,580,1233,-25.5857,-1.23792
-637,-209,-25.52,1.86707,0,0,0,0,0,0,0,-1,587,1233,-25.52,-1.86711
-630,-209,-25.5213,2.38464,0.0129559,0.0297172,0.0396482,0.0618608,-0.0191878,0.889553,0.0489076,0.0269464,594,1233,-25.5213,-2.38467
-623,-209,-25.5778,2.90735,0.0111221,0.0190305,0.0246691,0.0400603,-0.00990774,0.864867,0.0305498,0.0124354,601,1233,-25.5777,-2.90738
-616,-209,-25.604,3.40991,0.00851424,0.0110322,0.0126043,0.0224403,-0.00289381,0.835176,0.0160122,0.0113679,608,1233,-25.604,-3.40986
-609,-209,-25.6388,3.89246,0.00500129,0.00480158,0.00404448,0.00894715,0.000855724,0.773056,0.00570097,0.0136475,615,1233,-25.6388,-3.89244
-602,-209,-25.6777,4.36133,0.00184992,0.00140934,-0.000286638,0.00199114,0.00126812,-0.457774,0.00116385,0.0164499,622,1233,-25.6777,-4.36132
-595,-209,-25.6482,4.80042,0.00112982,0.000282343,-0.000426117,0.00130703,0.000105141,-0.394097,0.000838504,0.0125527,629,1233,-25.6482,-4.80043
-588,-209,-25.6191,5.32507,0.00202176,-0.000503309,-0.000609541,0.0021612,-0.000642749,-0.224893,0.00169614,0.0179012,636,1233,-25.619,-5.32503
-581,-209,-25.371,5.91882,0.00266534,-0.00119272,-0.000645489,0.00277047,-0.00129785,-0.161453,0.00239959,0.048973,643,1233,-25.371,-5.91886
-574,-209,-25.5735,6.41772,0,0,0,0,0,0,0,-1,650,1233,-25.5735,-6.41767
-567,-209,-25.6895,6.72058,0,0,0,0,0,0,0,-1,657,1233,-25.6895,-6.72056
-560,-209,-13.9294,4.16626,0,0,0,0,0,0,0,-1,664,1233,-13.9294,-4.16621
-553,-209,-22.7542,0.748779,0,0,0,0,0,0,0,-1,671,1233,-22.7541,-0.748796
-546,-209,-36.1778,1.17944,0,0,0,0,0,0,0,-1,678,1233,-36.1778,-1.1795
-539,-209,-35.863,1.07629,0.00223967,-0.00249496,0.000619713,0.00231944,-0.00257473,0.128017,0.00282693,0.0414179,685,1233,-35.8631,-1.07626
-532,-209,-35.6052,1.00745,0.00150206,-0.00233473,0.00086849,0.0016895,-0.00252217,0.212555,0.00244739,0.0336835,692,1233,-35.6052,-1.00748
-525,-209,-35.7369,1.05823,0.000259551,-0.00206561,0.00105583,0.000667438,-0.0024735,0.368657,0.00191074,0.0344331,699,1233,-35.7369,-1.05819
-518,-209,-35.8682,1.18738,-0.00156509,-0.00125844,0.00166194,0.000257232,-0.00308076,0.831395,0.00214473,0.0421977,706,1233,-35.8682,-1.18733
-511,-209,-35.9337,1.18298,-0.00344701,-0.000529468,0.00274271,0.00111828,-0.00509476,1.02981,0.00382416,0.0424132,713,1233,-35.9337,-1.18294
-504,-209,0,0,0,0,0,0,0,0,0,-1,720,1233,0,0
-497,-209,0,0,0,0,0,0,0,0,0,-1,727,1233,0,0
-490,-209,0,0,0,0,0,0,0,0,0,-1,734,1233,0,0
-483,-209,0,0,0,0,0,0,0,0,0,-1,741,1233,0,0
-476,-209,0,0,0,0,0,0,0,0,0,-1,748,1233,0,0
-469,-209,0,0,0,0,0,0,0,0,0,-1,755,1233,0,0
-462,-209,0,0,0,0,0,0,0,0,0,-1,762,1233,0,0
-455,-209,0,0,0,0,0,0,0,0,0,-1,769,1233,0,0
-448,-209,0,0,0,0,0,0,0,0,0,-1,776,1233,0,0
-441,-209,0,0,0,0,0,0,0,0,0,-1,783,1233,0,0
-434,-209,0,0,0,0,0,0,0,0,0,-1,790,1233,0,0
-427,-209,0,0,0,0,0,0,0,0,0,-1,797,1233,0,0
-420,-209,0,0,0,0,0,0,0,0,0,-1,804,1233,0,0
-413,-209,0,0,0,0,0,0,0,0,0,-1,811,1233,0,0
-406,-209,0,0,0,0,0,0,0,0,0,-1,818,1233,0,0
-399,-209,0,0,0,0,0,0,0,0,0,-1,825,1233,0,0
-392,-209,0,0,0,0,0,0,0,0,0,-1,832,1233,0,0
-385,-209,0,0,0,0,0,0,0,0,0,-1,839,1233,0,0
-378,-209,0,0,0,0,0,0,0,0,0,-1,846,1233,0,0
-371,-209,0,0,0,0,0,0,0,0,0,-1,853,1233,0,0
-364,-209,0,0,0,0,0,0,0,0,0,-1,860,1233,0,0
-357,-209,0,0,0,0,0,0,0,0,0,-1,867,1233,0,0
-350,-209,0,0,0,0,0,0,0,0,0,-1,874,1233,0,0
-343,-209,0,0,0,0,0,0,0,0,0,-1,881,1233,0,0
-336,-209,0,0,0,0,0,0,0,0,0,-1,888,1233,0,0
-329,-209,0,0,0,0,0,0,0,0,0,-1,895,1233,0,0
-322,-209,0,0,0,0,0,0,0,0,0,-1,902,1233,0,0
-315,-209,0,0,0,0,0,0,0,0,0,-1,909,1233,0,0
-308,-209,0,0,0,0,0,0,0,0,0,-1,916,1233,0,0
-301,-209,0,0,0,0,0,0,0,0,0,-1,923,1233,0,0
-294,-209,0,0,0,0,0,0,0,0,0,-1,930,1233,0,0
-287,-209,0,0,0,0,0,0,0,0,0,-1,937,1233,0,0
-280,-209,0,0,0,0,0,0,0,0,0,-1,944,1233,0,0
-273,-209,0,0,0,0,0,0,0,0,0,-1,951,1233,0,0
-266,-209,0,0,0,0,0,0,0,0,0,-1,958,1233,0,0
-259,-209,0,0,0,0,0,0,0,0,0,-1,965,1233,0,0
-252,-209,0,0,0,0,0,0,0,0,0,-1,972,1233,0,0
-245,-209,0,0,0,0,0,0,0,0,0,-1,979,1233,0,0
-238,-209,0,0,0,0,0,0,0,0,0,-1,986,1233,0,0
-231,-209,0,0,0,0,0,0,0,0,0,-1,993,1233,0,0
-224,-209,0,0,0,0,0,0,0,0,0,-1,1000,1233,0,0
-217,-209,0,0,0,0,0,0,0,0,0,-1,1007,1233,0,0
-210,-209,0,0,0,0,0,0,0,0,0,-1,1014,1233,0,0
-203,-209,0,0,0,0,0,0,0,0,0,-1,1021,1233,0,0
-196,-209,0,0,0,0,0,0,0,0,0,-1,1028,1233,0,0
-189,-209,0,0,0,0,0,0,0,0,0,-1,1035,1233,0,0
-182,-209,0,0,0,0,0,0,0,0,0,-1,1042,1233,0,0
-175,-209,0,0,0,0,0,0,0,0,0,-1,1049,1233,0,0
-168,-209,0,0,0,0,0,0,0,0,0,-1,1056,1233,0,0
-161,-209,0,0,0,0,0,0,0,0,0,-1,1063,1233,0,0
-154,-209,0,0,0,0,0,0,0,0,0,-1,1070,1233,0,0
-147,-209,0,0,0,0,0,0,0,0,0,-1,1077,1233,0,0
-140,-209,0,0,0,0,0,0,0,0,0,-1,1084,1233,0,0
-133,-209,0,0,0,0,0,0,0,0,0,-1,1091,1233,0,0
-126,-209,0,0,0,0,0,0,0,0,0,-1,1098,1233,0,0
-119,-209,0,0,0,0,0,0,0,0,0,-1,1105,1233,0,0
-112,-209,0,0,0,0,0,0,0,0,0,-1,1112,1233,0,0
-105,-209,0,0,0,0,0,0,0,0,0,-1,1119,1233,0,0
-98,-209,0,0,0,0,0,0,0,0,0,-1,1126,1233,0,0
-91,-209,0,0,0,0,0,0,0,0,0,-1,1133,1233,0,0
-84,-209,0,0,0,0,0,0,0,0,0,-1,1140,1233,0,0
-77,-209,0,0,0,0,0,0,0,0,0,-1,1147,1233,0,0
-70,-209,0,0,0,0,0,0,0,0,0,-1,1154,1233,0,0
-63,-209,0,0,0,0,0,0,0,0,0,-1,1161,1233,0,0
-56,-209,0,0,0,0,0,0,0,0,0,-1,1168,1233,0,0
-49,-209,0,0,0,0,0,0,0,0,0,-1,1175,1233,0,0
-42,-209,0,0,0,0,0,0,0,0,0,-1,1182,1233,0,0
-35,-209,0,0,0,0,0,0,0,0,0,-1,1189,1233,0,0
-28,-209,0,0,0,0,0,0,0,0,0,-1,1196,1233,0,0
-21,-209,0,0,0,0,0,0,0,0,0,-1,1203,1233,0,0
-14,-209,0,0,0,0,0,0,0,0,0,-1,1210,1233,0,0
-7,-209,0,0,0,0,0,0,0,0,0,-1,1217,1233,0,0
0,-209,0,0,0,0,0,0,0,0,0,-1,1224,1233,0,0
7,-209,0,0,0,0,0,0,0,0,0,-1,1231,1233,0,0
14,-209,0,0,0,0,0,0,0,0,0,-1,1238,1233,0,0
21,-209,0,0,0,0,0,0,0,0,0,-1,1245,1233,0,0
28,-209,0,0,0,0,0,0,0,0,0,-1,1252,1233,0,0
35,-209,0,0,0,0,0,0,0,0,0,-1,1259,1233,0,0
42,-209,0,0,0,0,0,0,0,0,0,-1,1266,1233,0,0
49,-209,0,0,0,0,0,0,0,0,0,-1,1273,1233,0,0
56,-209,0,0,0,0,0,0,0,0,0,-1,1280,1233,0,0
63,-209,0,0,0,0,0,0,0,0,0,-1,1287,1233,0,0
70,-209,0,0,0,0,0,0,0,0,0,-1,1294,1233,0,0
77,-209,0,0,0,0,0,0,0,0,0,-1,1301,1233,0,0
84,-209,0,0,0,0,0,0,0,0,0,-1,1308,1233,0,0
91,-209,0,0,0,0,0,0,0,0,0,-1,1315,1233,0,0
98,-209,0,0,0,0,0,0,0,0,0,-1,1322,1233,0,0
105,-209,0,0,0,0,0,0,0,0,0,-1,1329,1233,0,0
112,-209,0,0,0,0,0,0,0,0,0,-1,1336,1233,0,0
119,-209,0,0,0,0,0,0,0,0,0,-1,1343,1233,0,0
126,-209,0,0,0,0,0,0,0,0,0,-1,1350,1233,0,0
133,-209,0,0,0,0,0,0,0,0,0,-1,1357,1233,0,0
140,-209,0,0,0,0,0,0,0,0,0,-1,1364,1233,0,0
147,-209,0,0,0,0,0,0,0,0,0,-1,1371,1233,0,0
154,-209,0,0,0,0,0,0,0,0,0,-1,1378,1233,0,0
161,-209,0,0,0,0,0,0,0,0,0,-1,1385,1233,0,0
168,-209,0,0,0,0,0,0,0,0,0,-1,1392,1233,0,0
175,-209,0,0,0,0,0,0,0,0,0,-1,1399,1233,0,0
182,-209,0,0,0,0,0,0,0,0,0,-1,1406,1233,0,0
189,-209,0,0,0,0,0,0,0,0,0,-1,1413,1233,0,0
196,-209,0,0,0,0,0,0,0,0,0,-1,1420,1233,0,0
203,-209,0,0,0,0,0,0,0,0,0,-1,1427,1233,0,0
210,-209,0,0,0,0,0,0,0,0,0,-1,1434,1233,0,0
217,-209,0,0,0,0,0,0,0,0,0,-1,1441,1233,0,0
224,-209,0,0,0,0,0,0,0,0,0,-1,1448,1233,0,0
231,-209,0,0,0,0,0,0,0,0,0,-1,1455,1233,0,0
238,-209,0,0,0,0,0,0,0,0,0,-1,1462,1233,0,0
245,-209,0,0,0,0,0,0,0,0,0,-1,1469,1233,0,0
252,-209,0,0,0,0,0,0,0,0,0,-1,1476,1233,0,0
259,-209,0,0,0,0,0,0,0,0,0,-1,1483,1233,0,0
266,-209,0,0,0,0,0,0,0,0,0,-1,1490,1233,0,0
273,-209,0,0,0,0,0,0,0,0,0,-1,1497,1233,0,0
280,-209,0,0,0,0,0,0,0,0,0,-1,1504,1233,0,0
287,-209,0,0,0,0,0,0,0,0,0,-1,1511,1233,0,0
294,-209,0,0,0,0,0,0,0,0,0,-1,1518,1233,0,0
301,-209,0,0,0,0,0,0,0,0,0,-1,1525,1233,0,0
308,-209,0,0,0,0,0,0,0,0,0,-1,1532,1233,0,0
315,-209,0,0,0,0,0,0,0,0,0,-1,1539,1233,0,0
322,-209,0,0,0,0,0,0,0,0,0,-1,1546,1233,0,0
329,-209,0,0,0,0,0,0,0,0,0,-1,1553,1233,0,0
336,-209,0,0,0,0,0,0,0,0,0,-1,1560,1233,0,0
343,-209,0,0,0,0,0,0,0,0,0,-1,1567,1233,0,0
350,-209,0,0,0,0,0,0,0,0,0,-1,1574,1233,0,0
357,-209,0,0,0,0,0,0,0,0,0,-1,1581,1233,0,0
364,-209,0,0,0,0,0,0,0,0,0,-1,1588,1233,0,0
371,-209,0,0,0,0,0,0,0,0,0,-1,1595,1233,0,0
378,-209,0,0,0,0,0,0,0,0,0,-1,1602,1233,0,0
385,-209,0,0,0,0,0,0,0,0,0,-1,1609,1233,0,0
392,-209,0,0,0,0,0,0,0,0,0,-1,1616,1233,0,0
399,-209,0,0,0,0,0,0,0,0,0,-1,1623,1233,0,0
406,-209,0,0,0,0,0,0,0,0,0,-1,1630,1233,0,0
413,-209,0,0,0,0,0,0,0,0,0,-1,1637,1233,0,0
420,-209,0,0,0,0,0,0,0,0,0,-1,1644,1233,0,0
427,-209,0,0,0,0,0,0,0,0,0,-1,1651,1233,0,0
434,-209,0,0,0,0,0,0,0,0,0,-1,1658,1233,0,0
441,-209,0,0,0,0,0,0,0,0,0,-1,1665,1233,0,0
448,-209,0,0,0,0,0,0,0,0,0,-1,1672,1233,0,0
455,-209,0,0,0,0,0,0,0,0,0,-1,1679,1233,0,0
462,-209,0,0,0,0,0,0,0,0,0,-1,1686,1233,0,0
469,-209,0,0,0,0,0,0,0,0,0,-1,1693,1233,0,0
476,-209,0,0,0,0,0,0,0,0,0,-1,1700,1233,0,0
483,-209,0,0,0,0,0,0,0,0,0,-1,1707,1233,0,0
490,-209,0,0,0,0,0,0,0,0,0,-1,1714,1233,0,0
497,-209,0,0,0,0,0,0,0,0,0,-1,1721,1233,0,0
504,-209,0,0,0,0,0,0,0,0,0,-1,1728,1233,0,0
511,-209,0,0,0,0,0,0,0,0,0,-1,1735,1233,0,0
518,-209,0,0,0,0,0,0,0,0,0,-1,1742,1233,0,0
525,-209,0,0,0,0,0,0,0,0,0,-1,1749,1233,0,0
532,-209,0,0,0,0,0,0,0,0,0,-1,1756,1233,0,0
539,-209,0,0,0,0,0,0,0,0,0,-1,1763,1233,0,0
546,-209,0,0,0,0,0,0,0,0,0,-1,1770,1233,0,0
553,-209,0,0,0,0,0,0,0,0,0,-1,1777,1233,0,0
560,-209,0,0,0,0,0,0,0,0,0,-1,1784,1233,0,0
567,-209,0,0,0,0,0,0,0,0,0,-1,1791,1233,0,0
574,-209,0,0,0,0,0,0,0,0,0,-1,1798,1233,0,0
581,-209,0,0,0,0,0,0,0,0,0,-1,1805,1233,0,0
588,-209,0,0,0,0,0,0,0,0,0,-1,1812,1233,0,0
595,-209,0,0,0,0,0,0,0,0,0,-1,1819,1233,0,0
602,-209,0,0,0,0,0,0,0,0,0,-1,1826,1233,0,0
609,-209,0,0,0,0,0,0,0,0,0,-1,1833,1233,0,0
616,-209,0,0,0,0,0,0,0,0,0,-1,1840,1233,0,0
623,-209,48.1925,2.6123,0.00221323,0.00146893,0.000810721,0.00273313,0.000949022,0.570227,0.00160234,0.0336509,1847,1233,48.1925,-2.61226
630,-209,48.2609,2.56531,0.000708474,0.00165287,6.18714e-05,0.00165691,0.000704437,1.50565,0.000960183,0.0358231,1854,1233,48.2609,-2.56531
637,-209,48.3607,2.57227,-0.00062291,0.00192895,-0.000775627,0.00214621,-0.000840163,-1.2977,0.00177829,0.0368997,1861,1233,48.3608,-2.5723
644,-209,48.3896,2.67334,-0.00168625,0.00221877,-0.00149238,0.0027238,-0.00219128,-1.24449,0.00284327,0.0315987,1868,1233,48.3897,-2.67332
651,-209,48.3456,2.68311,-0.0017503,0.00217843,-0.00188621,0.00293739,-0.00250926,-1.18824,0.00314786,0.0246038,1875,1233,48.3456,-2.68306
658,-209,48.3568,2.67041,-0.00120867,0.00202469,-0.00205217,0.00302048,-0.00220447,-1.11902,0.00302887,0.0219493,1882,1233,48.3568,-2.6704
665,-209,48.4333,2.66675,-0.000533421,0.00161714,-0.00189173,0.00271784,-0.00163412,-1.04383,0.00253844,0.0373313,1889,1233,48.4334,-2.66676
672,-209,48.562,2.625,0,0,0,0,0,0,0,-1,1896,1233,48.562,-2.62503
679,-209,48.1162,1.90918,0,0,0,0,0,0,0,-1,1903,1233,48.1162,-1.90922
686,-209,33.3711,3.89856,0,0,0,0,0,0,0,-1,1910,1233,33.3711,-3.89855
693,-209,38.6263,9.71594,0,0,0,0,0,0,0,-1,1917,1233,38.6264,-9.71599
700,-209,38.7581,9.07837,0.000722101,0.000399355,-0.000710981,0.00128979,-0.000168337,-0.673802,0.000921116,0.041809,1924,1233,38.7581,-9.07835
707,-209,38.8743,8.49084,0.000975285,0.000106459,-0.000493225,0.00119813,-0.000116384,-0.424356,0.000840238,0.0344749,1931,1233,38.8743,-8.49082
714,-209,38.8981,8.1012,0.000943094,-0.000175801,-0.00014653,0.000961965,-0.000194672,-0.128083,0.000715089,0.019543,1938,1233,38.898,-8.10122
721,-209,38.9224,7.6676,0.000507024,-0.000378243,0.000402064,0.00066237,-0.000533589,0.368703,0.00069182,0.0132982,1945,1233,38.9223,-7.66754
728,-209,38.9346,7.2373,0.000584095,-0.000226034,0.000964928,0.00122553,-0.00086747,0.586675,0.00121428,0.0126115,1952,1233,38.9345,-7.23735
735,-209,38.9089,6.8136,0.00117971,1.42603e-06,0.00120492,0.00193181,-0.000750672,0.558016,0.00159799,0.0141786,1959,1233,38.9089,-6.81362
742,-209,38.8833,6.38306,0.00244055,0.000259722,0.00137258,0.00310313,-0.000402857,0.449732,0.00221528,0.0135562,1966,1233,38.8833,-6.38308
749,-209,38.8414,5.95996,0.00443836,0.000636077,0.00143036,0.00491635,0.000158084,0.322509,0.00322616,0.0120161,1973,1233,38.8414,-5.95998
756,-209,38.8274,5.56079,0.00744603,0.00115642,0.0013068,0.00770674,0.00089571,0.196917,0.00486681,0.0115145,1980,1233,38.8274,-5.56076
763,-209,38.8071,5.22583,0.0118794,0.00199261,0.000835468,0.0119495,0.00192251,0.0837127,0.00740909,0.021236,1987,1233,38.8071,-5.22579
770,-209,38.8492,4.98328,0,0,0,0,0,0,0,-1,1994,1233,38.8493,-4.98329
777,-209,38.5304,4.56787,0,0,0,0,0,0,0,-1,2001,1233,38.5304,-4.56792
784,-209,40.3342,-2.14001,0,0,0,0,0,0,0,-1,2008,1233,40.3342,2.13997
791,-209,41.8398,1.573,0,0,0,0,0,0,0,-1,2015,1233,41.8399,-1.57295
798,-209,41.8267,2.67419,0,0,0,0,0,0,0,-1,2022,1233,41.8267,-2.67425
805,-209,0,0,0,0,0,0,0,0,0,-1,2029,1233,0,0
812,-209,0,0,0,0,0,0,0,0,0,-1,2036,1233,0,0
-700,-216,0,0,0,0,0,0,0,0,0,-1,524,1240,0,0
-693,-216,0,0,0,0,0,0,0,0,0,-1,531,1240,0,0
-686,-216,0,0,0,0,0,0,0,0,0,-1,538,1240,0,0
-679,-216,-32.5613,-6.88184,0.00376015,0.157905,0.2227,0.316491,-0.154827,0.951988,0.2774,0.0449165,545,1240,-32.5613,6.88186
-672,-216,-32.5739,-5.24414,0.015149,0.137731,0.19549,0.281313,-0.128433,0.937307,0.241994,0.0475623,552,1240,-32.5738,5.24409
-665,-216,-32.6047,-3.54602,0.0192,0.116262,0.165228,0.239939,-0.104477,0.928241,0.203911,0.0476673,559,1240,-32.6047,3.54608
-658,-216,-32.2695,-1.8927,0.020161,0.0956359,0.135791,0.198836,-0.083039,0.920932,0.167255,0.0471607,566,1240,-32.2695,1.89269
-651,-216,-31.7518,-0.549438,0,0,0,0,0,0,0,-1,573,1240,-31.7518,0.549482
-644,-216,-31.4476,1.02881,0,0,0,0,0,0,0,-1,580,1240,-31.4476,-1.02878
-637,-216,-25.2355,1.5459,0,0,0,0,0,0,0,-1,587,1240,-25.2356,-1.5459
-630,-216,-25.0966,2.26221,0.0135374,0.0330954,0.0448844,0.0692537,-0.0226209,0.892657,0.0552745,0.0337037,594,1240,-25.0966,-2.26219
-623,-216,-25.0621,2.92566,0.0116581,0.021413,0.028475,0.0454253,-0.0123542,0.870219,0.0351333,0.0143556,601,1240,-25.0621,-2.92567
-616,-216,-25.118,3.42725,0.00908584,0.0125473,0.0151789,0.0260938,-0.00446062,0.842165,0.0190576,0.0132139,608,1240,-25.118,-3.42728
-609,-216,-25.1417,3.91309,0.00559959,0.005704,0.00565523,0.0113073,-3.67453e-06,0.790014,0.0075394,0.0132711,615,1240,-25.1417,-3.91306
-602,-216,-25.1533,4.33215,0.00216132,0.00155222,0.000169274,0.0022052,0.00150833,0.253646,0.00130159,0.0130489,622,1240,-25.1533,-4.33221
-595,-216,-25.1243,4.80188,0.00138383,0.000186844,-2.83721e-05,0.0013845,0.000186172,-0.0236852,0.000867627,0.0186591,629,1240,-25.1243,-4.80187
-588,-216,-25.1534,5.31128,0.0023295,-0.00073177,-0.000171793,0.00233912,-0.000741381,-0.0558844,0.00185655,0.0213672,636,1240,-25.1534,-5.31133
-581,-216,-25.133,5.86206,0.00307863,-0.00150216,-0.000211244,0.00308835,-0.00151189,-0.0459852,0.00270743,0.0341761,643,1240,-25.133,-5.86211
-574,-216,-24.9566,6.33447,0,0,0,0,0,0,0,-1,650,1240,-24.9566,-6.3345
-567,-216,-25.1429,7.37817,0,0,0,0,0,0,0,-1,657,1240,-25.1429,-7.37818
-560,-216,-16.5087,5.4574,0,0,0,0,0,0,0,-1,664,1240,-16.5087,-5.45746
-553,-216,-16.2355,1.22351,0,0,0,0,0,0,0,-1,671,1240,-16.2356,-1.22356
-546,-216,-36.3295,1.28784,0,0,0,0,0,0,0,-1,678,1240,-36.3295,-1.28788
-539,-216,-35.8875,1.13721,0.00200182,-0.00234762,0.000955807,0.00220259,-0.0025484,0.207047,0.0027454,0.0475003,685,1240,-35.8875,-1.13715
-532,-216,-35.5703,1.06055,0.00118494,-0.00202438,0.00115732,0.00155875,-0.00239819,0.312415,0.00230161,0.0447634,692,1240,-35.5703,-1.06058
-525,-216,-35.5962,1.0127,1.85227e-05,-0.0015476,0.00133053,0.000779315,-0.00230839,0.519425,0.00185412,0.0435675,699,1240,-35.5962,-1.01272
-518,-216,-35.6896,1.05872,-0.00168288,-0.000661824,0.00177344,0.00067311,-0.00301781,0.925546,0.00226976,0.0413568,706,1240,-35.6897,-1.05874
-511,-216,-35.8433,1.13135,-0.00376627,0.000210915,0.00246288,0.00138781,-0.00494316,1.12502,0.00384251,0.0413224,713,1240,-35.8432,-1.13134
-504,-216,-35.8663,1.21411,-0.00582536,0.000344126,0.00398421,0.00229819,-0.00777942,1.11482,0.00609844,0.0411824,720,1240,-35.8663,-1.21414
-497,-216,0,0,0,0,0,0,0,0,0,-1,727,1240,0,0
-490,-216,0,0,0,0,0,0,0,0,0,-1,734,1240,0,0
-483,-216,0,0,0,0,0,0,0,0,0,-1,741,1240,0,0
-476,-216,0,0,0,0,0,0,0,0,0,-1,748,1240,0,0
-469,-216,0,0,0,0,0,0,0,0,0,-1,755,1240,0,0
-462,-216,0,0,0,0,0,0,0,0,0,-1,762,1240,0,0
-455,-216,0,0,0,0,0,0,0,0,0,-1,769,1240,0,0
-448,-216,0,0,0,0,0,0,0,0,0,-1,776,1240,0,0
-441,-216,0,0,0,0,0,0,0,0,0,-1,783,1240,0,0
-434,-216,0,0,0,0,0,0,0,0,0,-1,790,1240,0,0
-427,-216,0,0,0,0,0,0,0,0,0,-1,797,1240,0,0
-420,-216,0,0,0,0,0,0,0,0,0,-1,804,1240,0,0
-413,-216,0,0,0,0,0,0,0,0,0,-1,811,1240,0,0
-406,-216,0,0,0,0,0,0,0,0,0,-1,818,1240,0,0
-399,-216,0,0,0,0,0,0,0,0,0,-1,825,1240,0,0
-392,-216,0,0,0,0,0,0,0,0,0,-1,832,1240,0,0
-385,-216,0,0,0,0,0,0,0,0,0,-1,839,1240,0,0
-378,-216,0,0,0,0,0,0,0,0,0,-1,846,1240,0,0
-371,-216,0,0,0,0,0,0,0,0,0,-1,853,1240,0,0
-364,-216,0,0,0,0,0,0,0,0,0,-1,860,1240,0,0
-357,-216,0,0,0,0,0,0,0,0,0,-1,867,1240,0,0
-350,-216,0,0,0,0,0,0,0,0,0,-1,874,1240,0,0
-343,-216,0,0,0,0,0,0,0,0,0,-1,881,1240,0,0
-336,-216,0,0,0,0,0,0,0,0,0,-1,888,1240,0,0
-329,-216,0,0,0,0,0,0,0,0,0,-1,895,1240,0,0
-322,-216,0,0,0,0,0,0,0,0,0,-1,902,1240,0,0
-315,-216,0,0,0,0,0,0,0,0,0,-1,909,1240,0,0
-308,-216,0,0,0,0,0,0,0,0,0,-1,916,1240,0,0
-301,-216,0,0,0,0,0,0,0,0,0,-1,923,1240,0,0
-294,-216,0,0,0,0,0,0,0,0,0,-1,930,1240,0,0
-287,-216,0,0,0,0,0,0,0,0,0,-1,937,1240,0,0
-280,-216,0,0,0,0,0,0,0,0,0,-1,944,1240,0,0
-273,-216,0,0,0,0,0,0,0,0,0,-1,951,1240,0,0
-266,-216,0,0,0,0,0,0,0,0,0,-1,958,1240,0,0
-259,-216,0,0,0,0,0,0,0,0,0,-1,965,1240,0,0
-252,-216,0,0,0,0,0,0,0,0,0,-1,972,1240,0,0
-245,-216,0,0,0,0,0,0,0,0,0,-1,979,1240,0,0
-238,-216,0,0,0,0,0,0,0,0,0,-1,986,1240,0,0
-231,-216,0,0,0,0,0,0,0,0,0,-1,993,1240,0,0
-224,-216,0,0,0,0,0,0,0,0,0,-1,1000,1240,0,0
-217,-216,0,0,0,0,0,0,0,0,0,-1,1007,1240,0,0
-210,-216,0,0,0,0,0,0,0,0,0,-1,1014,1240,0,0
-203,-216,0,0,0,0,0,0,0,0,0,-1,1021,1240,0,0
-196,-216,0,0,0,0,0,0,0,0,0,-1,1028,1240,0,0
-189,-216,0,0,0,0,0,0,0,0,0,-1,1035,1240,0,0
-182,-216,0,0,0,0,0,0,0,0,0,-1,1042,1240,0,0
-175,-216,0,0,0,0,0,0,0,0,0,-1,1049,1240,0,0
-168,-216,0,0,0,0,0,0,0,0,0,-1,1056,1240,0,0
-161,-216,0,0,0,0,0,0,0,0,0,-1,1063,1240,0,0
-154,-216,0,0,0,0,0,0,0,0,0,-1,1070,1240,0,0
-147,-216,0,0,0,0,0,0,0,0,0,-1,1077,1240,0,0
-140,-216,0,0,0,0,0,0,0,0,0,-1,1084,1240,0,0
-133,-216,0,0,0,0,0,0,0,0,0,-1,1091,1240,0,0
-126,-216,0,0,0,0,0,0,0,0,0,-1,1098,1240,0,0
-119,-216,0,0,0,0,0,0,0,0,0,-1,1105,1240,0,0
-112,-216,0,0,0,0,0,0,0,0,0,-1,1112,1240,0,0
-105,-216,0,0,0,0,0,0,0,0,0,-1,1119,1240,0,0
-98,-216,0,0,0,0,0,0,0,0,0,-1,1126,1240,0,0
-91,-216,0,0,0,0,0,0,0,0,0,-1,1133,1240,0,0
-84,-216,0,0,0,0,0,0,0,0,0,-1,1140,1240,0,0
-77,-216,0,0,0,0,0,0,0,0,0,-1,1147,1240,0,0
-70,-216,0,0,0,0,0,0,0,0,0,-1,1154,1240,0,0
-63,-216,0,0,0,0,0,0,0,0,0,-1,1161,1240,0,0
-56,-216,0,0,0,0,0,0,0,0,0,-1,1168,1240,0,0
-49,-216,0,0,0,0,0,0,0,0,0,-1,1175,1240,0,0
-42,-216,0,0,0,0,0,0,0,0,0,-1,1182,1240,0,0
-35,-216,0,0,0,0,0,0,0,0,0,-1,1189,1240,0,0
-28,-216,0,0,0,0,0,0,0,0,0,-1,1196,1240,0,0
-21,-216,0,0,0,0,0,0,0,0,0,-1,1203,1240,0,0
-14,-216,0,0,0,0,0,0,0,0,0,-1,1210,1240,0,0
-7,-216,0,0,0,0,0,0,0,0,0,-1,1217,1240,0,0
0,-216,0,0,0,0,0,0,0,0,0,-1,1224,1240,0,0
7,-216,0,0,0,0,0,0,0,0,0,-1,1231,1240,0,0
14,-216,0,0,0,0,0,0,0,0,0,-1,1238,1240,0,0
21,-216,0,0,0,0,0,0,0,0,0,-1,1245,1240,0,0
28,-216,0,0,0,0,0,0,0,0,0,-1,1252,1240,0,0
35,-216,0,0,0,0,0,0,0,0,0,-1,1259,1240,0,0
42,-216,0,0,0,0,0,0,0,0,0,-1,1266,1240,0,0
49,-216,0,0,0,0,0,0,0,0,0,-1,1273,1240,0,0
56,-216,0,0,0,0,0,0,0,0,0,-1,1280,1240,0,0
63,-216,0,0,0,0,0,0,0,0,0,-1,1287,1240,0,0
70,-216,0,0,0,0,0,0,0,0,0,-1,1294,1240,0,0
77,-216,0,0,0,0,0,0,0,0,0,-1,1301,1240,0,0
84,-216,0,0,0,0,0,0,0,0,0,-1,1308,1240,0,0
91,-216,0,0,0,0,0,0,0,0,0,-1,1315,1240,0,0
98,-216,0,0,0,0,0,0,0,0,0,-1,1322,1240,0,0
105,-216,0,0,0,0,0,0,0,0,0,-1,1329,1240,0,0
112,-216,0,0,0,0,0,0,0,0,0,-1,1336,1240,0,0
119,-216,0,0,0,0,0,0,0,0,0,-1,1343,1240,0,0
126,-216,0,0,0,0,0,0,0,0,0,-1,1350,1240,0,0
133,-216,0,0,0,0,0,0,0,0,0,-1,1357,1240,0,0
140,-216,0,0,0,0,0,0,0,0,0,-1,1364,1240,0,0
147,-216,0,0,0,0,0,0,0,0,0,-1,1371,1240,0,0
154,-216,0,0,0,0,0,0,0,0,0,-1,1378,1240,0,0
161,-216,0,0,0,0,0,0,0,0,0,-1,1385,1240,0,0
168,-216,0,0,0,0,0,0,0,0,0,-1,1392,1240,0,0
175,-216,0,0,0,0,0,0,0,0,0,-1,1399,1240,0,0
182,-216,0,0,0,0,0,0,0,0,0,-1,1406,1240,0,0
189,-216,0,0,0,0,0,0,0,0,0,-1,1413,1240,0,0
196,-216,0,0,0,0,0,0,0,0,0,-1,1420,1240,0,0
203,-216,0,0,0,0,0,0,0,0,0,-1,1427,1240,0,0
210,-216,0,0,0,0,0,0,0,0,0,-1,1434,1240,0,0
217,-216,0,0,0,0,0,0,0,0,0,-1,1441,1240,0,0
224,-216,0,0,0,0,0,0,0,0,0,-1,1448,1240,0,0
231,-216,0,0,0,0,0,0,0,0,0,-1,1455,1240,0,0
238,-216,0,0,0,0,0,0,0,0,0,-1,1462,1240,0,0
245,-216,0,0,0,0,0,0,0,0,0,-1,1469,1240,0,0
252,-216,0,0,0,0,0,0,0,0,0,-1,1476,1240,0,0
259,-216,0,0,0,0,0,0,0,0,0,-1,1483,1240,0,0
266,-216,0,0,0,0,0,0,0,0,0,-1,1490,1240,0,0
273,-216,0,0,0,0,0,0,0,0,0,-1,1497,1240,0,0
280,-216,0,0,0,0,0,0,0,0,0,-1,1504,1240,0,0
287,-216,0,0,0,0,0,0,0,0,0,-1,1511,1240,0,0
294,-216,0,0,0,0,0,0,0,0,0,-1,1518,1240,0,0
301,-216,0,0,0,0,0,0,0,0,0,-1,1525,1240,0,0
308,-216,0,0,0,0,0,0,0,0,0,-1,1532,1240,0,0
315,-216,0,0,0,0,0,0,0,0,0,-1,1539,1240,0,0
322,-216,0,0,0,0,0,0,0,0,0,-1,1546,1240,0,0
329,-216,0,0,0,0,0,0,0,0,0,-1,1553,1240,0,0
336,-216,0,0,0,0,0,0,0,0,0,-1,1560,1240,0,0
343,-216,0,0,0,0,0,0,0,0,0,-1,1567,1240,0,0
350,-216,0,0,0,0,0,0,0,0,0,-1,1574,1240,0,0
357,-216,0,0,0,0,0,0,0,0,0,-1,1581,1240,0,0
364,-216,0,0,0,0,0,0,0,0,0,-1,1588,1240,0,0
371,-216,0,0,0,0,0,0,0,0,0,-1,1595,1240,0,0
378,-216,0,0,0,0,0,0,0,0,0,-1,1602,1240,0,0
385,-216,0,0,0,0,0,0,0,0,0,-1,1609,1240,0,0
392,-216,0,0,0,0,0,0,0,0,0,-1,1616,1240,0,0
399,-216,0,0,0,0,0,0,0,0,0,-1,1623,1240,0,0
406,-216,0,0,0,0,0,0,0,0,0,-1,1630,1240,0,0
413,-216,0,0,0,0,0,0,0,0,0,-1,1637,1240,0,0
420,-216,0,0,0,0,0,0,0,0,0,-1,1644,1240,0,0
427,-216,0,0,0,0,0,0,0,0,0,-1,1651,1240,0,0
434,-216,0,0,0,0,0,0,0,0,0,-1,1658,1240,0,0
441,-216,0,0,0,0,0,0,0,0,0,-1,1665,1240,0,0
448,-216,0,0,0,0,0,0,0,0,0,-1,1672,1240,0,0
455,-216,0,0,0,0,0,0,0,0,0,-1,1679,1240,0,0
462,-216,0,0,0,0,0,0,0,0,0,-1,1686,1240,0,0
469,-216,0,0,0,0,0,0,0,0,0,-1,1693,1240,0,0
476,-216,0,0,0,0,0,0,0,0,0,-1,1700,1240,0,0
483,-216,0,0,0,0,0,0,0,0,0,-1,1707,1240,0,0
490,-216,0,0,0,0,0,0,0,0,0,-1,1714,1240,0,0
497,-216,0,0,0,0,0,0,0,0,0,-1,1721,1240,0,0
504,-216,0,0,0,0,0,0,0,0,0,-1,1728,1240,0,0
511,-216,0,0,0,0,0,0,0,0,0,-1,1735,1240,0,0
518,-216,0,0,0,0,0,0,0,0,0,-1,1742,1240,0,0
525,-216,0,0,0,0,0,0,0,0,0,-1,1749,1240,0,0
532,-216,0,0,0,0,0,0,0,0,0,-1,1756,1240,0,0
539,-216,0,0,0,0,0,0,0,0,0,-1,1763,1240,0,0
546,-216,0,0,0,0,0,0,0,0,0,-1,1770,1240,0,0
553,-216,0,0,0,0,0,0,0,0,0,-1,1777,1240,0,0
560,-216,0,0,0,0,0,0,0,0,0,-1,1784,1240,0,0
567,-216,0,0,0,0,0,0,0,0,0,-1,1791,1240,0,0
574,-216,0,0,0,0,0,0,0,0,0,-1,1798,1240,0,0
581,-216,0,0,0,0,0,0,0,0,0,-1,1805,1240,0,0
588,-216,0,0,0,0,0,0,0,0,0,-1,1812,1240,0,0
595,-216,0,0,0,0,0,0,0,0,0,-1,1819,1240,0,0
602,-216,0,0,0,0,0,0,0,0,0,-1,1826,1240,0,0
609,-216,0,0,0,0,0,0,0,0,0,-1,1833,1240,0,0
616,-216,0,0,0,0,0,0,0,0,0,-1,1840,1240,0,0
623,-216,48.1658,2.64795,0.00269733,0.00220383,0.000180293,0.00275618,0.00214498,0.315511,0.0016714,0.0378128,1847,1240,48.1657,-2.64793
630,-216,48.1472,2.59937,0.000731896,0.00216029,-0.000748769,0.00248085,0.00041133,-1.16628,0.00153527,0.0359734,1854,1240,48.1472,-2.59931
637,-216,48.311,2.6051,-0.00117144,0.00231905,-0.00172052,0.00302453,-0.00187692,-1.18166,0.00285559,0.0326968,1861,1240,48.3111,-2.60507
644,-216,48.379,2.62939,-0.00251588,0.00244491,-0.00223851,0.00330567,-0.00337664,-1.2037,0.0038581,0.0268484,1868,1240,48.379,-2.62943
651,-216,48.3457,2.67212,-0.00258109,0.00232983,-0.00244068,0.00333648,-0.00358773,-1.17961,0.00399857,0.0233014,1875,1240,48.3457,-2.67207
658,-216,48.3481,2.65515,-0.00203825,0.00213478,-0.00241036,0.00323627,-0.00313974,-1.14215,0.00368133,0.0339999,1882,1240,48.3482,-2.65511
665,-216,48.3431,2.49561,-0.00139436,0.00175134,-0.00211583,0.00281488,-0.00245791,-1.10502,0.00304657,0.0462018,1889,1240,48.3432,-2.49559
672,-216,48.4471,2.44116,0,0,0,0,0,0,0,-1,1896,1240,48.4471,-2.44112
679,-216,47.3159,3.82703,0,0,0,0,0,0,0,-1,1903,1240,47.316,-3.82708
686,-216,21.5172,6.19458,0,0,0,0,0,0,0,-1,1910,1240,21.5172,-6.19453
693,-216,38.809,9.41272,0,0,0,0,0,0,0,-1,1917,1240,38.8089,-9.41266
700,-216,38.4789,9.0791,0.000345533,0.000516446,-0.000602142,0.00103917,-0.000177186,-0.855888,0.000758767,0.0392779,1924,1240,38.4789,-9.07914
707,-216,38.4515,8.547,0.00083836,0.000140007,-0.000311918,0.00095739,2.09772e-05,-0.36455,0.000631384,0.0327155,1931,1240,38.4516,-8.54702
714,-216,38.5056,8.11279,0.000955477,-0.000273387,6.16589e-05,0.000958563,-0.000276473,0.0500082,0.000748419,0.0140148,1938,1240,38.5056,-8.11277
721,-216,38.5035,7.70935,0.000647879,-0.000479564,0.000563155,0.00088098,-0.000712664,0.392448,0.0009218,0.0132382,1945,1240,38.5035,-7.70935
728,-216,38.5245,7.27258,0.000839095,-0.000251555,0.00104207,0.0014699,-0.000882362,0.544337,0.00137213,0.0122635,1952,1240,38.5245,-7.27259
735,-216,38.5188,6.85413,0.00153247,5.79835e-05,0.00122656,0.00222631,-0.000635853,0.514798,0.00173543,0.0125641,1959,1240,38.5189,-6.85411
742,-216,38.4539,6.44177,0.0028957,0.000452229,0.00129735,0.00345603,-0.000108101,0.407703,0.00234088,0.0139542,1966,1240,38.4538,-6.4418
749,-216,38.4181,5.98682,0.00501247,0.00097707,0.00123835,0.00536218,0.000627362,0.275232,0.0033851,0.0112478,1973,1240,38.418,-5.98687
756,-216,38.3778,5.55933,0.00826421,0.00169282,0.000913026,0.0083887,0.00156832,0.135521,0.00514992,0.0107784,1980,1240,38.3778,-5.55932
763,-216,38.3713,5.19958,0.0130868,0.00278041,0.000161624,0.0130893,0.00277788,0.0156767,0.00796344,0.0192301,1987,1240,38.3713,-5.19955
770,-216,38.5898,4.82874,0.0197325,0.00404558,-0.000829328,0.0197763,0.00400186,-0.0526717,0.0120734,0.0441284,1994,1240,38.5899,-4.82876
777,-216,38.8752,4.45667,0,0,0,0,0,0,0,-1,2001,1240,38.8753,-4.4567
784,-216,42.4829,-1.97656,0,0,0,0,0,0,0,-1,2008,1240,42.4828,1.97653
791,-216,41.0908,0.603882,0,0,0,0,0,0,0,-1,2015,1240,41.0908,-0.603931
798,-216,0,0,0,0,0,0,0,0,0,-1,2022,1240,0,0
805,-216,0,0,0,0,0,0,0,0,0,-1,2029,1240,0,0
812,-216,0,0,0,0,0,0,0,0,0,-1,2036,1240,0,0
-700,-223,0,0,0,0,0,0,0,0,0,-1,524,1247,0,0
-693,-223,0,0,0,0,0,0,0,0,0,-1,531,1247,0,0
-686,-223,0,0,0,0,0,0,0,0,0,-1,538,1247,0,0
-679,-223,0,0,0,0,0,0,0,0,0,-1,545,1247,0,0
-672,-223,-33.5034,-5.771,0.0200742,0.153266,0.216838,0.313505,-0.140164,0.934387,0.268223,0.0486452,552,1247,-33.5034,5.77104
-665,-223,-33.3766,-4.43127,0.0221226,0.128571,0.182412,0.265365,-0.114672,0.927347,0.22509,0.0476457,559,1247,-33.3766,4.43125
-658,-223,-33.434,-2.75098,0.0218003,0.105052,0.149365,0.218483,-0.0916305,0.921293,0.18397,0.0466617,566,1247,-33.434,2.75102
-651,-223,-32.5685,-1.34485,0,0,0,0,0,0,0,-1,573,1247,-32.5685,1.34491
-644,-223,-33.0006,0.717407,0,0,0,0,0,0,0,-1,580,1247,-33.0006,-0.71741
-637,-223,-24.7308,1.40649,0,0,0,0,0,0,0,-1,587,1247,-24.7308,-1.40649
-630,-223,-24.6689,2.19116,0.0138628,0.0361051,0.0492104,0.0754354,-0.0254675,0.896527,0.0605906,0.0485326,594,1247,-24.6689,-2.19118
-623,-223,-24.6262,2.95581,0.0118208,0.0235612,0.0315407,0.0497732,-0.0143913,0.877403,0.0388775,0.0235209,601,1247,-24.6261,-2.95587
-616,-223,-24.6401,3.41833,0.00923531,0.0139959,0.0172816,0.0290604,-0.00582918,0.853836,0.0215807,0.0152914,608,1247,-24.64,-3.4183
-609,-223,-24.6517,3.91333,0.00583156,0.00666326,0.00709093,0.0133505,-0.000855707,0.814687,0.00919886,0.0121809,615,1247,-24.6517,-3.91327
-602,-223,-24.6662,4.34216,0.00235763,0.00181726,0.000710624,0.0028477,0.00132719,0.603735,0.00164538,0.0143223,622,1247,-24.6662,-4.34217
-595,-223,-24.6369,4.86487,0.00166828,0.000315853,0.000425143,0.00179083,0.000193311,0.280631,0.00113495,0.0200101,629,1247,-24.6369,-4.86484
-588,-223,-24.6931,5.37659,0.00259703,-0.000695319,0.000232476,0.00261337,-0.000711653,0.070147,0.00202166,0.023573,636,1247,-24.6931,-5.37659
-581,-223,-24.7696,5.82043,0.00342614,-0.00147486,0.000134622,0.00342983,-0.00147855,0.0274406,0.00290754,0.0231239,643,1247,-24.7696,-5.82044
-574,-223,-24.716,6.28735,0.00358006,-0.00190632,0.000283027,0.00359462,-0.00192088,0.0514052,0.00323288,0.027308,650,1247,-24.716,-6.28741
-567,-223,-24.4363,6.54382,0,0,0,0,0,0,0,-1,657,1247,-24.4363,-6.54377
-560,-223,-24.4076,7.6698,0,0,0,0,0,0,0,-1,664,1247,-24.4076,-7.66984
-553,-223,-11.4025,4.14722,0,0,0,0,0,0,0,-1,671,1247,-11.4025,-4.14719
-546,-223,-26.9034,-0.148682,0,0,0,0,0,0,0,-1,678,1247,-26.9034,0.14867
-539,-223,-35.7917,1.22339,0,0,0,0,0,0,0,-1,685,1247,-35.7917,-1.22342
-532,-223,-35.4958,1.0343,0,0,0,0,0,0,0,-1,692,1247,-35.4958,-1.03429
-525,-223,-35.5429,0.949707,0,0,0,0,0,0,0,-1,699,1247,-35.5429,-0.949673
-518,-223,-35.6855,1.03003,0,0,0,0,0,0,0,-1,706,1247,-35.6855,-1.02997
-511,-223,-35.8271,1.10583,-0.00360941,0.000731768,0.00275185,0.00206605,-0.00494369,1.11933,0.0041592,0.0397461,713,1247,-35.8271,-1.10589
-504,-223,-35.8244,1.14551,-0.00588085,0.00118917,0.00385474,0.00288439,-0.00757608,1.15648,0.00623856,0.0395798,720,1247,-35.8244,-1.14556
-497,-223,0,0,0,0,0,0,0,0,0,-1,727,1247,0,0
-490,-223,0,0,0,0,0,0,0,0,0,-1,734,1247,0,0
-483,-223,0,0,0,0,0,0,0,0,0,-1,741,1247,0,0
-476,-223,0,0,0,0,0,0,0,0,0,-1,748,1247,0,0
-469,-223,0,0,0,0,0,0,0,0,0,-1,755,1247,0,0
-462,-223,0,0,0,0,0,0,0,0,0,-1,762,1247,0,0
-455,-223,0,0,0,0,0,0,0,0,0,-1,769,1247,0,0
-448,-223,0,0,0,0,0,0,0,0,0,-1,776,1247,0,0
-441,-223,0,0,0,0,0,0,0,0,0,-1,783,1247,0,0
-434,-223,0,0,0,0,0,0,0,0,0,-1,790,1247,0,0
-427,-223,0,0,0,0,0,0,0,0,0,-1,797,1247,0,0
-420,-223,0,0,0,0,0,0,0,0,0,-1,804,1247,0,0
-413,-223,0,0,0,0,0,0,0,0,0,-1,811,1247,0,0
-406,-223,0,0,0,0,0,0,0,0,0,-1,818,1247,0,0
-399,-223,0,0,0,0,0,0,0,0,0,-1,825,1247,0,0
-392,-223,0,0,0,0,0,0,0,0,0,-1,832,1247,0,0
-385,-223,0,0,0,0,0,0,0,0,0,-1,839,1247,0,0
-378,-223,0,0,0,0,0,0,0,0,0,-1,846,1247,0,0
-371,-223,0,0,0,0,0,0,0,0,0,-1,853,1247,0,0
-364,-223,0,0,0,0,0,0,0,0,0,-1,860,1247,0,0
-357,-223,0,0,0,0,0,0,0,0,0,-1,867,1247,0,0
-350,-223,0,0,0,0,0,0,0,0,0,-1,874,1247,0,0
-343,-223,0,0,0,0,0,0,0,0,0,-1,881,1247,0,0
-336,-223,0,0,0,0,0,0,0,0,0,-1,888,1247,0,0
-329,-223,0,0,0,0,0,0,0,0,0,-1,895,1247,0,0
-322,-223,0,0,0,0,0,0,0,0,0,-1,902,1247,0,0
-315,-223,0,0,0,0,0,0,0,0,0,-1,909,1247,0,0
-308,-223,0,0,0,0,0,0,0,0,0,-1,916,1247,0,0
-301,-223,0,0,0,0,0,0,0,0,0,-1,923,1247,0,0
-294,-223,0,0,0,0,0,0,0,0,0,-1,930,1247,0,0
-287,-223,0,0,0,0,0,0,0,0,0,-1,937,1247,0,0
-280,-223,0,0,0,0,0,0,0,0,0,-1,944,1247,0,0
-273,-223,0,0,0,0,0,0,0,0,0,-1,951,1247,0,0
-266,-223,0,0,0,0,0,0,0,0,0,-1,958,1247,0,0
-259,-223,0,0,0,0,0,0,0,0,0,-1,965,1247,0,0
-252,-223,0,0,0,0,0,0,0,0,0,-1,972,1247,0,0
-245,-223,0,0,0,0,0,0,0,0,0,-1,979,1247,0,0
-238,-223,0,0,0,0,0,0,0,0,0,-1,986,1247,0,0
-231,-223,0,0,0,0,0,0,0,0,0,-1,993,1247,0,0
-224,-223,0,0,0,0,0,0,0,0,0,-1,1000,1247,0,0
-217,-223,0,0,0,0,0,0,0,0,0,-1,1007,1247,0,0
-210,-223,0,0,0,0,0,0,0,0,0,-1,1014,1247,0,0
-203,-223,0,0,0,0,0,0,0,0,0,-1,1021,1247,0,0
-196,-223,0,0,0,0,0,0,0,0,0,-1,1028,1247,0,0
-189,-223,0,0,0,0,0,0,0,0,0,-1,1035,1247,0,0
-182,-223,0,0,0,0,0,0,0,0,0,-1,1042,1247,0,0
-175,-223,0,0,0,0,0,0,0,0,0,-1,1049,1247,0,0
-168,-223,0,0,0,0,0,0,0,0,0,-1,1056,1247,0,0
-161,-223,0,0,0,0,0,0,0,0,0,-1,1063,1247,0,0
-154,-223,0,0,0,0,0,0,0,0,0,-1,1070,1247,0,0
-147,-223,0,0,0,0,0,0,0,0,0,-1,1077,1247,0,0
-140,-223,0,0,0,0,0,0,0,0,0,-1,1084,1247,0,0
-133,-223,0,0,0,0,0,0,0,0,0,-1,1091,1247,0,0
-126,-223,0,0,0,0,0,0,0,0,0,-1,1098,1247,0,0
-119,-223,0,0,0,0,0,0,0,0,0,-1,1105,1247,0,0
-112,-223,0,0,0,0,0,0,0,0,0,-1,1112,1247,0,0
-105,-223,0,0,0,0,0,0,0,0,0,-1,1119,1247,0,0
-98,-223,0,0,0,0,0,0,0,0,0,-1,1126,1247,0,0
-91,-223,0,0,0,0,0,0,0,0,0,-1,1133,1247,0,0
-84,-223,0,0,0,0,0,0,0,0,0,-1,1140,1247,0,0
-77,-223,0,0,0,0,0,0,0,0,0,-1,1147,1247,0,0
-70,-223,0,0,0,0,0,0,0,0,0,-1,1154,1247,0,0
-63,-223,0,0,0,0,0,0,0,0,0,-1,1161,1247,0,0
-56,-223,0,0,0,0,0,0,0,0,0,-1,1168,1247,0,0
-49,-223,0,0,0,0,0,0,0,0,0,-1,1175,1247,0,0
-42,-223,0,0,0,0,0,0,0,0,0,-1,1182,1247,0,0
-35,-223,0,0,0,0,0,0,0,0,0,-1,1189,1247,0,0
-28,-223,0,0,0,0,0,0,0,0,0,-1,1196,1247,0,0
-21,-223,0,0,0,0,0,0,0,0,0,-1,1203,1247,0,0
-14,-223,0,0,0,0,0,0,0,0,0,-1,1210,1247,0,0
-7,-223,0,0,0,0,0,0,0,0,0,-1,1217,1247,0,0
0,-223,0,0,0,0,0,0,0,0,0,-1,1224,1247,0,0
7,-223,0,0,0,0,0,0,0,0,0,-1,1231,1247,0,0
14,-223,0,0,0,0,0,0,0,0,0,-1,1238,1247,0,0
21,-223,0,0,0,0,0,0,0,0,0,-1,1245,1247,0,0
28,-223,0,0,0,0,0,0,0,0,0,-1,1252,1247,0,0
35,-223,0,0,0,0,0,0,0,0,0,-1,1259,1247,0,0
42,-223,0,0,0,0,0,0,0,0,0,-1,1266,1247,0,0
49,-223,0,0,0,0,0,0,0,0,0,-1,1273,1247,0,0
56,-223,0,0,0,0,0,0,0,0,0,-1,1280,1247,0,0
63,-223,0,0,0,0,0,0,0,0,0,-1,1287,1247,0,0
70,-223,0,0,0,0,0,0,0,0,0,-1,1294,1247,0,0
77,-223,0,0,0,0,0,0,0,0,0,-1,1301,1247,0,0
84,-223,0,0,0,0,0,0,0,0,0,-1,1308,1247,0,0
91,-223,0,0,0,0,0,0,0,0,0,-1,1315,1247,0,0
98,-223,0,0,0,0,0,0,0,0,0,-1,1322,1247,0,0
105,-223,0,0,0,0,0,0,0,0,0,-1,1329,1247,0,0
112,-223,0,0,0,0,0,0,0,0,0,-1,1336,1247,0,0
119,-223,0,0,0,0,0,0,0,0,0,-1,1343,1247,0,0
126,-223,0,0,0,0,0,0,0,0,0,-1,1350,1247,0,0
133,-223,0,0,0,0,0,0,0,0,0,-1,1357,1247,0,0
140,-223,0,0,0,0,0,0,0,0,0,-1,1364,1247,0,0
147,-223,0,0,0,0,0,0,0,0,0,-1,1371,1247,0,0
154,-223,0,0,0,0,0,0,0,0,0,-1,1378,1247,0,0
161,-223,0,0,0,0,0,0,0,0,0,-1,1385,1247,0,0
168,-223,0,0,0,0,0,0,0,0,0,-1,1392,1247,0,0
175,-223,0,0,0,0,0,0,0,0,0,-1,1399,1247,0,0
182,-223,0,0,0,0,0,0,0,0,0,-1,1406,1247,0,0
189,-223,0,0,0,0,0,0,0,0,0,-1,1413,1247,0,0
196,-223,0,0,0,0,0,0,0,0,0,-1,1420,1247,0,0
203,-223,0,0,0,0,0,0,0,0,0,-1,1427,1247,0,0
210,-223,0,0,0,0,0,0,0,0,0,-1,1434,1247,0,0
217,-223,0,0,0,0,0,0,0,0,0,-1,1441,1247,0,0
224,-223,0,0,0,0,0,0,0,0,0,-1,1448,1247,0,0
231,-223,0,0,0,0,0,0,0,0,0,-1,1455,1247,0,0
238,-223,0,0,0,0,0,0,0,0,0,-1,1462,1247,0,0
245,-223,0,0,0,0,0,0,0,0,0,-1,1469,1247,0,0
252,-223,0,0,0,0,0,0,0,0,0,-1,1476,1247,0,0
259,-223,0,0,0,0,0,0,0,0,0,-1,1483,1247,0,0
266,-223,0,0,0,0,0,0,0,0,0,-1,1490,1247,0,0
273,-223,0,0,0,0,0,0,0,0,0,-1,1497,1247,0,0
280,-223,0,0,0,0,0,0,0,0,0,-1,1504,1247,0,0
287,-223,0,0,0,0,0,0,0,0,0,-1,1511,1247,0,0
294,-223,0,0,0,0,0,0,0,0,0,-1,1518,1247,0,0
301,-223,0,0,0,0,0,0,0,0,0,-1,1525,1247,0,0
308,-223,0,0,0,0,0,0,0,0,0,-1,1532,1247,0,0
315,-223,0,0,0,0,0,0,0,0,0,-1,1539,1247,0,0
322,-223,0,0,0,0,0,0,0,0,0,-1,1546,1247,0,0
329,-223,0,0,0,0,0,0,0,0,0,-1,1553,1247,0,0
336,-223,0,0,0,0,0,0,0,0,0,-1,1560,1247,0,0
343,-223,0,0,0,0,0,0,0,0,0,-1,1567,1247,0,0
350,-223,0,0,0,0,0,0,0,0,0,-1,1574,1247,0,0
357,-223,0,0,0,0,0,0,0,0,0,-1,1581,1247,0,0
364,-223,0,0,0,0,0,0,0,0,0,-1,1588,1247,0,0
371,-223,0,0,0,0,0,0,0,0,0,-1,1595,1247,0,0
378,-223,0,0,0,0,0,0,0,0,0,-1,1602,1247,0,0
385,-223,0,0,0,0,0,0,0,0,0,-1,1609,1247,0,0
392,-223,0,0,0,0,0,0,0,0,0,-1,1616,1247,0,0
399,-223,0,0,0,0,0,0,0,0,0,-1,1623,1247,0,0
406,-223,0,0,0,0,0,0,0,0,0,-1,1630,1247,0,0
413,-223,0,0,0,0,0,0,0,0,0,-1,1637,1247,0,0
420,-223,0,0,0,0,0,0,0,0,0,-1,1644,1247,0,0
427,-223,0,0,0,0,0,0,0,0,0,-1,1651,1247,0,0
434,-223,0,0,0,0,0,0,0,0,0,-1,1658,1247,0,0
441,-223,0,0,0,0,0,0,0,0,0,-1,1665,1247,0,0
448,-223,0,0,0,0,0,0,0,0,0,-1,1672,1247,0,0
455,-223,0,0,0,0,0,0,0,0,0,-1,1679,1247,0,0
462,-223,0,0,0,0,0,0,0,0,0,-1,1686,1247,0,0
469,-223,0,0,0,0,0,0,0,0,0,-1,1693,1247,0,0
476,-223,0,0,0,0,0,0,0,0,0,-1,1700,1247,0,0
483,-223,0,0,0,0,0,0,0,0,0,-1,1707,1247,0,0
490,-223,0,0,0,0,0,0,0,0,0,-1,1714,1247,0,0
497,-223,0,0,0,0,0,0,0,0,0,-1,1721,1247,0,0
504,-223,0,0,0,0,0,0,0,0,0,-1,1728,1247,0,0
511,-223,0,0,0,0,0,0,0,0,0,-1,1735,1247,0,0
518,-223,0,0,0,0,0,0,0,0,0,-1,1742,1247,0,0
525,-223,0,0,0,0,0,0,0,0,0,-1,1749,1247,0,0
532,-223,0,0,0,0,0,0,0,0,0,-1,1756,1247,0,0
539,-223,0,0,0,0,0,0,0,0,0,-1,1763,1247,0,0
546,-223,0,0,0,0,0,0,0,0,0,-1,1770,1247,0,0
553,-223,0,0,0,0,0,0,0,0,0,-1,1777,1247,0,0
560,-223,0,0,0,0,0,0,0,0,0,-1,1784,1247,0,0
567,-223,0,0,0,0,0,0,0,0,0,-1,1791,1247,0,0
574,-223,0,0,0,0,0,0,0,0,0,-1,1798,1247,0,0
581,-223,0,0,0,0,0,0,0,0,0,-1,1805,1247,0,0
588,-223,0,0,0,0,0,0,0,0,0,-1,1812,1247,0,0
595,-223,0,0,0,0,0,0,0,0,0,-1,1819,1247,0,0
602,-223,0,0,0,0,0,0,0,0,0,-1,1826,1247,0,0
609,-223,0,0,0,0,0,0,0,0,0,-1,1833,1247,0,0
616,-223,0,0,0,0,0,0,0,0,0,-1,1840,1247,0,0
623,-223,48.2507,2.74915,0.00252404,0.00309307,-0.000223416,0.00317031,0.0024468,-1.23796,0.0019184,0.0379542,1847,1247,48.2507,-2.7492
630,-223,48.1595,2.76855,0.000120347,0.00274359,-0.00131338,0.00328812,-0.000424185,-1.17776,0.00234629,0.0338476,1854,1247,48.1595,-2.76854
637,-223,48.2744,2.65784,-0.00233094,0.00265001,-0.00239951,0.00361787,-0.00329881,-1.1874,0.00399476,0.0281863,1861,1247,48.2745,-2.65782
644,-223,48.3297,2.65173,-0.00369989,0.00250851,-0.00267085,0.00349937,-0.00469075,-1.21555,0.00474521,0.0231592,1868,1247,48.3297,-2.65168
651,-223,48.3037,2.6217,-0.00361418,0.00227853,-0.00270443,0.00333154,-0.0046672,-1.19949,0.00463948,0.0302676,1875,1247,48.3037,-2.62174
658,-223,48.2848,2.5885,0,0,0,0,0,0,0,-1,1882,1247,48.2847,-2.58847
665,-223,48.2039,2.25293,0,0,0,0,0,0,0,-1,1889,1247,48.2038,-2.25297
672,-223,48.5055,2.81226,0,0,0,0,0,0,0,-1,1896,1247,48.5056,-2.81223
679,-223,43.2783,2.46973,0,0,0,0,0,0,0,-1,1903,1247,43.2784,-2.46978
686,-223,38.6182,9.77075,0,0,0,0,0,0,0,-1,1910,1247,38.6182,-9.77077
693,-223,38.4292,9.37573,-0.000806993,0.000706832,-0.000777911,0.0010353,-0.00113547,-1.17126,0.00125374,0.0458574,1917,1247,38.4292,-9.3757
700,-223,38.1681,8.96252,-7.79225e-05,0.000402783,-0.000371726,0.000605092,-0.000280232,-1.07238,0.000522486,0.0251822,1924,1247,38.1681,-8.96259
707,-223,38.0602,8.54956,0.000659017,-2.11491e-06,-1.96166e-05,0.000659598,-2.69647e-06,-0.0296365,0.000440634,0.0200207,1931,1247,38.0602,-8.54957
714,-223,38.0669,8.15161,0.00087946,-0.000450431,0.000340353,0.000961504,-0.000532475,0.236542,0.000874324,0.0111121,1938,1247,38.0669,-8.15157
721,-223,38.0742,7.72144,0.000663388,-0.000548931,0.000755724,0.00102602,-0.000911559,0.447391,0.00111931,0.014763,1945,1247,38.0743,-7.72141
728,-223,38.0714,7.28809,0.000913942,-0.000228228,0.00111656,0.00159699,-0.000911278,0.549009,0.00146608,0.0173377,1952,1247,38.0714,-7.2881
735,-223,38.0426,6.90125,0.00170515,0.000193348,0.0012135,0.00237892,-0.000480422,0.50685,0.00176798,0.0160583,1959,1247,38.0426,-6.90126
742,-223,37.9697,6.48926,0.00318539,0.000736937,0.00116474,0.00365094,0.000271388,0.380251,0.00234873,0.0146474,1966,1247,37.9698,-6.48928
749,-223,37.9497,5.98376,0.00549843,0.00145398,0.000955905,0.00571297,0.00123943,0.220785,0.00347009,0.0124079,1973,1247,37.9497,-5.98376
756,-223,37.9065,5.54761,0.00912408,0.0024656,0.000362644,0.00914377,0.00244591,0.0542496,0.0054661,0.014882,1980,1247,37.9065,-5.54759
763,-223,37.9133,5.19666,0.014537,0.00399233,-0.000775612,0.0145938,0.00393558,-0.0730308,0.00871862,0.0203521,1987,1247,37.9134,-5.19663
770,-223,38.1421,4.82556,0.022093,0.00594874,-0.00234286,0.0224261,0.00561562,-0.14124,0.0134747,0.0444682,1994,1247,38.1421,-4.82558
777,-223,38.3853,4.43274,0,0,0,0,0,0,0,-1,2001,1247,38.3852,-4.43276
784,-223,35.1801,2.14172,0,0,0,0,0,0,0,-1,2008,1247,35.1801,-2.14178
791,-223,34.7136,2.92554,0,0,0,0,0,0,0,-1,2015,1247,34.7137,-2.92555
798,-223,0,0,0,0,0,0,0,0,0,-1,2022,1247,0,0
805,-223,0,0,0,0,0,0,0,0,0,-1,2029,1247,0,0
812,-223,0,0,0,0,0,0,0,0,0,-1,2036,1247,0,0
-700,-230,0,0,0,0,0,0,0,0,0,-1,524,1254,0,0
-693,-230,0,0,0,0,0,0,0,0,0,-1,531,1254,0,0
-686,-230,0,0,0,0,0,0,0,0,0,-1,538,1254,0,0
-679,-230,0,0,0,0,0,0,0,0,0,-1,545,1254,0,0
-672,-230,-34.4724,-6.23804,0,0,0,0,0,0,0,-1,552,1254,-34.4724,6.23805
-665,-230,-34.3254,-5.12378,0,0,0,0,0,0,0,-1,559,1254,-34.3254,5.12375
-658,-230,-34.5913,-3.77161,0.0251836,0.11295,0.160793,0.235741,-0.0976072,0.918612,0.19789,0.0433387,566,1254,-34.5913,3.77157
-651,-230,-33.9964,-1.89709,0,0,0,0,0,0,0,-1,573,1254,-33.9964,1.89713
-644,-230,-33.428,0.0577393,0,0,0,0,0,0,0,-1,580,1254,-33.428,-0.0577121
-637,-230,-32.9183,1.94067,0,0,0,0,0,0,0,-1,587,1254,-32.9183,-1.94071
-630,-230,-24.2767,2.23889,0,0,0,0,0,0,0,-1,594,1254,-24.2768,-2.23885
-623,-230,-24.1913,2.87878,0.0119786,0.0252883,0.0339455,0.0532251,-0.0159582,0.882194,0.0418301,0.0289678,601,1254,-24.1913,-2.87873
-616,-230,-24.1696,3.41235,0.00920568,0.0150566,0.0188511,0.0312079,-0.00694565,0.862378,0.0234657,0.0162177,608,1254,-24.1696,-3.41241
-609,-230,-24.1604,3.91125,0.00592002,0.00740856,0.00828453,0.0149822,-0.0016536,0.830197,0.0105825,0.012457,615,1254,-24.1604,-3.91126
-602,-230,-24.1624,4.38635,0.00255855,0.00214122,0.00131788,0.00368418,0.00101558,0.706883,0.00219727,0.0116357,622,1254,-24.1624,-4.38635
-595,-230,-24.1778,4.91553,0.00200032,0.000629924,0.000884251,0.00243378,0.000196463,0.455778,0.00156116,0.0171293,629,1254,-24.1778,-4.91555
-588,-230,-24.1945,5.43921,0.00283479,-0.000470312,0.000579455,0.00293344,-0.000568958,0.168624,0.00217028,0.0256426,636,1254,-24.1945,-5.43918
-581,-230,-24.2287,5.91272,0.00370167,-0.00130275,0.000387638,0.00373152,-0.0013326,0.0768481,0.00303115,0.0252222,643,1254,-24.2287,-5.91277
-574,-230,-24.2128,6.31213,0.00398612,-0.0017625,0.000448484,0.00402089,-0.00179728,0.0773919,0.00343993,0.022441,650,1254,-24.2128,-6.31212
-567,-230,-24.0826,6.78992,0.00395133,-0.00196973,0.00050999,0.00399494,-0.00201334,0.0852944,0.00353121,0.0383127,657,1254,-24.0826,-6.78992
-560,-230,-24.0111,7.27808,0,0,0,0,0,0,0,-1,664,1254,-24.0111,-7.27813
-553,-230,-13.1939,4.9718,0,0,0,0,0,0,0,-1,671,1254,-13.1939,-4.97175
-546,-230,-15.23,0.453979,0,0,0,0,0,0,0,-1,678,1254,-15.23,-0.453996
-539,-230,-25.8232,0.512817,0,0,0,0,0,0,0,-1,685,1254,-25.8232,-0.512878
-532,-230,-21.1644,1.52966,0,0,0,0,0,0,0,-1,692,1254,-21.1644,-1.52969
-525,-230,-29.4775,0.731445,0,0,0,0,0,0,0,-1,699,1254,-29.4775,-0.731432
-518,-230,-35.5203,0.855347,0,0,0,0,0,0,0,-1,706,1254,-35.5202,-0.855302
-511,-230,-35.6844,1.00183,-0.00380226,0.000867057,0.00349785,0.00273782,-0.00567302,1.07967,0.00495359,0.042072,713,1254,-35.6844,-1.00178
-504,-230,-35.7116,1.12732,-0.00562464,0.00150848,0.00450886,0.00369085,-0.00780701,1.12002,0.0067786,0.0377467,720,1254,-35.7116,-1.12735
-497,-230,0,0,0,0,0,0,0,0,0,-1,727,1254,0,0
-490,-230,0,0,0,0,0,0,0,0,0,-1,734,1254,0,0
-483,-230,0,0,0,0,0,0,0,0,0,-1,741,1254,0,0
-476,-230,0,0,0,0,0,0,0,0,0,-1,748,1254,0,0
-469,-230,0,0,0,0,0,0,0,0,0,-1,755,1254,0,0
-462,-230,0,0,0,0,0,0,0,0,0,-1,762,1254,0,0
-455,-230,0,0,0,0,0,0,0,0,0,-1,769,1254,0,0
-448,-230,0,0,0,0,0,0,0,0,0,-1,776,1254,0,0
-441,-230,0,0,0,0,0,0,0,0,0,-1,783,1254,0,0
-434,-230,0,0,0,0,0,0,0,0,0,-1,790,1254,0,0
-427,-230,0,0,0,0,0,0,0,0,0,-1,797,1254,0,0
-420,-230,0,0,0,0,0,0,0,0,0,-1,804,1254,0,0
-413,-230,0,0,0,0,0,0,0,0,0,-1,811,1254,0,0
-406,-230,0,0,0,0,0,0,0,0,0,-1,818,1254,0,0
-399,-230,0,0,0,0,0,0,0,0,0,-1,825,1254,0,0
-392,-230,0,0,0,0,0,0,0,0,0,-1,832,1254,0,0
-385,-230,0,0,0,0,0,0,0,0,0,-1,839,1254,0,0
-378,-230,0,0,0,0,0,0,0,0,0,-1,846,1254,0,0
-371,-230,0,0,0,0,0,0,0,0,0,-1,853,1254,0,0
-364,-230,0,0,0,0,0,0,0,0,0,-1,860,1254,0,0
-357,-230,0,0,0,0,0,0,0,0,0,-1,867,1254,0,0
-350,-230,0,0,0,0,0,0,0,0,0,-1,874,1254,0,0
-343,-230,0,0,0,0,0,0,0,0,0,-1,881,1254,0,0
-336,-230,0,0,0,0,0,0,0,0,0,-1,888,1254,0,0
-329,-230,0,0,0,0,0,0,0,0,0,-1,895,1254,0,0
-322,-230,0,0,0,0,0,0,0,0,0,-1,902,1254,0,0
-315,-230,0,0,0,0,0,0,0,0,0,-1,909,1254,0,0
-308,-230,0,0,0,0,0,0,0,0,0,-1,916,1254,0,0
-301,-230,0,0,0,0,0,0,0,0,0,-1,923,1254,0,0
-294,-230,0,0,0,0,0,0,0,0,0,-1,930,1254,0,0
-287,-230,0,0,0,0,0,0,0,0,0,-1,937,1254,0,0
-280,-230,0,0,0,0,0,0,0,0,0,-1,944,1254,0,0
-273,-230,0,0,0,0,0,0,0,0,0,-1,951,1254,0,0
-266,-230,0,0,0,0,0,0,0,0,0,-1,958,1254,0,0
-259,-230,0,0,0,0,0,0,0,0,0,-1,965,1254,0,0
-252,-230,0,0,0,0,0,0,0,0,0,-1,972,1254,0,0
-245,-230,0,0,0,0,0,0,0,0,0,-1,979,1254,0,0
-238,-230,0,0,0,0,0,0,0,0,0,-1,986,1254,0,0
-231,-230,0,0,0,0,0,0,0,0,0,-1,993,1254,0,0
-224,-230,0,0,0,0,0,0,0,0,0,-1,1000,1254,0,0
-217,-230,0,0,0,0,0,0,0,0,0,-1,1007,1254,0,0
-210,-230,0,0,0,0,0,0,0,0,0,-1,1014,1254,0,0
-203,-230,0,0,0,0,0,0,0,0,0,-1,1021,1254,0,0
-196,-230,0,0,0,0,0,0,0,0,0,-1,1028,1254,0,0
-189,-230,0,0,0,0,0,0,0,0,0,-1,1035,1254,0,0
-182,-230,0,0,0,0,0,0,0,0,0,-1,1042,1254,0,0
-175,-230,0,0,0,0,0,0,0,0,0,-1,1049,1254,0,0
-168,-230,0,0,0,0,0,0,0,0,0,-1,1056,1254,0,0
-161,-230,0,0,0,0,0,0,0,0,0,-1,1063,1254,0,0
-154,-230,0,0,0,0,0,0,0,0,0,-1,1070,1254,0,0
-147,-230,0,0,0,0,0,0,0,0,0,-1,1077,1254,0,0
-140,-230,0,0,0,0,0,0,0,0,0,-1,1084,1254,0,0
-133,-230,0,0,0,0,0,0,0,0,0,-1,1091,1254,0,0
-126,-230,0,0,0,0,0,0,0,0,0,-1,1098,1254,0,0
-119,-230,0,0,0,0,0,0,0,0,0,-1,1105,1254,0,0
-112,-230,0,0,0,0,0,0,0,0,0,-1,1112,1254,0,0
-105,-230,0,0,0,0,0,0,0,0,0,-1,1119,1254,0,0
-98,-230,0,0,0,0,0,0,0,0,0,-1,1126,1254,0,0
-91,-230,0,0,0,0,0,0,0,0,0,-1,1133,1254,0,0
-84,-230,0,0,0,0,0,0,0,0,0,-1,1140,1254,0,0
-77,-230,0,0,0,0,0,0,0,0,0,-1,1147,1254,0,0
-70,-230,0,0,0,0,0,0,0,0,0,-1,1154,1254,0,0
-63,-230,0,0,0,0,0,0,0,0,0,-1,1161,1254,0,0
-56,-230,0,0,0,0,0,0,0,0,0,-1,1168,1254,0,0
-49,-230,0,0,0,0,0,0,0,0,0,-1,1175,1254,0,0
-42,-230,0,0,0,0,0,0,0,0,0,-1,1182,1254,0,0
-35,-230,0,0,0,0,0,0,0,0,0,-1,1189,1254,0,0
-28,-230,0,0,0,0,0,0,0,0,0,-1,1196,1254,0,0
-21,-230,0,0,0,0,0,0,0,0,0,-1,1203,1254,0,0
-14,-230,0,0,0,0,0,0,0,0,0,-1,1210,1254,0,0
-7,-230,0,0,0,0,0,0,0,0,0,-1,1217,1254,0,0
0,-230,0,0,0,0,0,0,0,0,0,-1,1224,1254,0,0
7,-230,0,0,0,0,0,0,0,0,0,-1,1231,1254,0,0
14,-230,0,0,0,0,0,0,0,0,0,-1,1238,1254,0,0
21,-230,0,0,0,0,0,0,0,0,0,-1,1245,1254,0,0
28,-230,0,0,0,0,0,0,0,0,0,-1,1252,1254,0,0
35,-230,0,0,0,0,0,0,0,0,0,-1,1259,1254,0,0
42,-230,0,0,0,0,0,0,0,0,0,-1,1266,1254,0,0
49,-230,0,0,0,0,0,0,0,0,0,-1,1273,1254,0,0
56,-230,0,0,0,0,0,0,0,0,0,-1,1280,1254,0,0
63,-230,0,0,0,0,0,0,0,0,0,-1,1287,1254,0,0
70,-230,0,0,0,0,0,0,0,0,0,-1,1294,1254,0,0
77,-230,0,0,0,0,0,0,0,0,0,-1,1301,1254,0,0
84,-230,0,0,0,0,0,0,0,0,0,-1,1308,1254,0,0
91,-230,0,0,0,0,0,0,0,0,0,-1,1315,1254,0,0
98,-230,0,0,0,0,0,0,0,0,0,-1,1322,1254,0,0
105,-230,0,0,0,0,0,0,0,0,0,-1,1329,1254,0,0
112,-230,0,0,0,0,0,0,0,0,0,-1,1336,1254,0,0
119,-230,0,0,0,0,0,0,0,0,0,-1,1343,1254,0,0
126,-230,0,0,0,0,0,0,0,0,0,-1,1350,1254,0,0
133,-230,0,0,0,0,0,0,0,0,0,-1,1357,1254,0,0
140,-230,0,0,0,0,0,0,0,0,0,-1,1364,1254,0,0
147,-230,0,0,0,0,0,0,0,0,0,-1,1371,1254,0,0
154,-230,0,0,0,0,0,0,0,0,0,-1,1378,1254,0,0
161,-230,0,0,0,0,0,0,0,0,0,-1,1385,1254,0,0
168,-230,0,0,0,0,0,0,0,0,0,-1,1392,1254,0,0
175,-230,0,0,0,0,0,0,0,0,0,-1,1399,1254,0,0
182,-230,0,0,0,0,0,0,0,0,0,-1,1406,1254,0,0
189,-230,0,0,0,0,0,0,0,0,0,-1,1413,1254,0,0
196,-230,0,0,0,0,0,0,0,0,0,-1,1420,1254,0,0
203,-230,0,0,0,0,0,0,0,0,0,-1,1427,1254,0,0
210,-230,0,0,0,0,0,0,0,0,0,-1,1434,1254,0,0
217,-230,0,0,0,0,0,0,0,0,0,-1,1441,1254,0,0
224,-230,0,0,0,0,0,0,0,0,0,-1,1448,1254,0,0
231,-230,0,0,0,0,0,0,0,0,0,-1,1455,1254,0,0
238,-230,0,0,0,0,0,0,0,0,0,-1,1462,1254,0,0
245,-230,0,0,0,0,0,0,0,0,0,-1,1469,1254,0,0
252,-230,0,0,0,0,0,0,0,0,0,-1,1476,1254,0,0
259,-230,0,0,0,0,0,0,0,0,0,-1,1483,1254,0,0
266,-230,0,0,0,0,0,0,0,0,0,-1,1490,1254,0,0
273,-230,0,0,0,0,0,0,0,0,0,-1,1497,1254,0,0
280,-230,0,0,0,0,0,0,0,0,0,-1,1504,1254,0,0
287,-230,0,0,0,0,0,0,0,0,0,-1,1511,1254,0,0
294,-230,0,0,0,0,0,0,0,0,0,-1,1518,1254,0,0
301,-230,0,0,0,0,0,0,0,0,0,-1,1525,1254,0,0
308,-230,0,0,0,0,0,0,0,0,0,-1,1532,1254,0,0
315,-230,0,0,0,0,0,0,0,0,0,-1,1539,1254,0,0
322,-230,0,0,0,0,0,0,0,0,0,-1,1546,1254,0,0
329,-230,0,0,0,0,0,0,0,0,0,-1,1553,1254,0,0
336,-230,0,0,0,0,0,0,0,0,0,-1,1560,1254,0,0
343,-230,0,0,0,0,0,0,0,0,0,-1,1567,1254,0,0
350,-230,0,0,0,0,0,0,0,0,0,-1,1574,1254,0,0
357,-230,0,0,0,0,0,0,0,0,0,-1,1581,1254,0,0
364,-230,0,0,0,0,0,0,0,0,0,-1,1588,1254,0,0
371,-230,0,0,0,0,0,0,0,0,0,-1,1595,1254,0,0
378,-230,0,0,0,0,0,0,0,0,0,-1,1602,1254,0,0
385,-230,0,0,0,0,0,0,0,0,0,-1,1609,1254,0,0
392,-230,0,0,0,0,0,0,0,0,0,-1,1616,1254,0,0
399,-230,0,0,0,0,0,0,0,0,0,-1,1623,1254,0,0
406,-230,0,0,0,0,0,0,0,0,0,-1,1630,1254,0,0
413,-230,0,0,0,0,0,0,0,0,0,-1,1637,1254,0,0
420,-230,0,0,0,0,0,0,0,0,0,-1,1644,1254,0,0
427,-230,0,0,0,0,0,0,0,0,0,-1,1651,1254,0,0
434,-230,0,0,0,0,0,0,0,0,0,-1,1658,1254,0,0
441,-230,0,0,0,0,0,0,0,0,0,-1,1665,1254,0,0
448,-230,0,0,0,0,0,0,0,0,0,-1,1672,1254,0,0
455,-230,0,0,0,0,0,0,0,0,0,-1,1679,1254,0,0
462,-230,0,0,0,0,0,0,0,0,0,-1,1686,1254,0,0
469,-230,0,0,0,0,0,0,0,0,0,-1,1693,1254,0,0
476,-230,0,0,0,0,0,0,0,0,0,-1,1700,1254,0,0
483,-230,0,0,0,0,0,0,0,0,0,-1,1707,1254,0,0
490,-230,0,0,0,0,0,0,0,0,0,-1,1714,1254,0,0
497,-230,0,0,0,0,0,0,0,0,0,-1,1721,1254,0,0
504,-230,0,0,0,0,0,0,0,0,0,-1,1728,1254,0,0
511,-230,0,0,0,0,0,0,0,0,0,-1,1735,1254,0,0
518,-230,0,0,0,0,0,0,0,0,0,-1,1742,1254,0,0
525,-230,0,0,0,0,0,0,0,0,0,-1,1749,1254,0,0
532,-230,0,0,0,0,0,0,0,0,0,-1,1756,1254,0,0
539,-230,0,0,0,0,0,0,0,0,0,-1,1763,1254,0,0
546,-230,0,0,0,0,0,0,0,0,0,-1,1770,1254,0,0
553,-230,0,0,0,0,0,0,0,0,0,-1,1777,1254,0,0
560,-230,0,0,0,0,0,0,0,0,0,-1,1784,1254,0,0
567,-230,0,0,0,0,0,0,0,0,0,-1,1791,1254,0,0
574,-230,0,0,0,0,0,0,0,0,0,-1,1798,1254,0,0
581,-230,0,0,0,0,0,0,0,0,0,-1,1805,1254,0,0
588,-230,0,0,0,0,0,0,0,0,0,-1,1812,1254,0,0
595,-230,0,0,0,0,0,0,0,0,0,-1,1819,1254,0,0
602,-230,0,0,0,0,0,0,0,0,0,-1,1826,1254,0,0
609,-230,0,0,0,0,0,0,0,0,0,-1,1833,1254,0,0
616,-230,48.3066,2.88123,0.00506686,0.00462082,0.000621629,0.00550427,0.00418342,0.613167,0.00331805,0.0350525,1840,1254,48.3067,-2.88119
623,-230,48.4063,2.79651,0.00252192,0.0037085,-0.000442336,0.00385524,0.00237518,-1.25047,0.00224574,0.0361797,1847,1254,48.4063,-2.79655
630,-230,48.3868,2.70935,-0.00025691,0.00303753,-0.00170486,0.00376094,-0.000980322,-1.1695,0.00289003,0.0318542,1854,1254,48.3869,-2.70936
637,-230,48.2889,2.70056,-0.00312166,0.00263313,-0.00287991,0.00382676,-0.00431529,-1.17788,0.00470364,0.0264488,1861,1254,48.2889,-2.70053
644,-230,48.2386,2.62744,-0.00433264,0.00225748,-0.00292642,0.00336939,-0.00544454,-1.20769,0.00513552,0.0208045,1868,1254,48.2387,-2.6274
651,-230,48.1763,2.505,-0.0041369,0.00196555,-0.00283483,0.00307921,-0.00525056,-1.19647,0.00486335,0.0449935,1875,1254,48.1763,-2.50501
658,-230,48.0901,2.37207,0,0,0,0,0,0,0,-1,1882,1254,48.0901,-2.37209
665,-230,48.2299,2.78784,0,0,0,0,0,0,0,-1,1889,1254,48.2298,-2.78779
672,-230,43.0962,2.78699,0,0,0,0,0,0,0,-1,1896,1254,43.0962,-2.78698
679,-230,27.9967,2.37708,0,0,0,0,0,0,0,-1,1903,1254,27.9967,-2.3771
686,-230,37.5988,9.69397,0,0,0,0,0,0,0,-1,1910,1254,37.5988,-9.69403
693,-230,37.6276,9.42456,-0.00139685,0.000513776,-0.000644324,0.000710755,-0.00159383,-1.27411,0.00136273,0.0460451,1917,1254,37.6275,-9.42461
700,-230,37.6711,9.07361,-0.000374307,0.000170061,-0.000150494,0.000208895,-0.000413141,-1.31826,0.000365529,0.0206862,1924,1254,37.6711,-9.07359
707,-230,37.6086,8.62341,0.000594004,-0.000201269,0.0002383,0.000659942,-0.000267207,0.269949,0.000551065,0.0110884,1931,1254,37.6087,-8.62345
714,-230,37.5992,8.16956,0.000842906,-0.000613544,0.00055473,0.00103012,-0.000800762,0.325491,0.00105982,0.0126325,1938,1254,37.5993,-8.16959
721,-230,37.6013,7.72656,0.000664132,-0.000576355,0.000889641,0.0011284,-0.00104062,0.480981,0.00125263,0.0128515,1945,1254,37.6013,-7.72654
728,-230,37.5713,7.33008,0.000926705,-0.000196276,0.00114987,0.00164486,-0.000914426,0.558274,0.00149753,0.0142896,1952,1254,37.5713,-7.33002
735,-230,37.5554,6.92542,0.00174792,0.000290888,0.00116647,0.00239468,-0.000355871,0.506261,0.00172734,0.0156573,1959,1254,37.5554,-6.92539
742,-230,37.5209,6.45862,0.00328814,0.000917299,0.0010098,0.00365993,0.000545507,0.352783,0.00227997,0.0123994,1966,1254,37.5209,-6.4586
749,-230,37.5029,5.9834,0.00577111,0.00174325,0.000659743,0.00587642,0.00163794,0.158286,0.00350174,0.0115103,1973,1254,37.5029,-5.98345
756,-230,37.4891,5.56799,0.00976395,0.00293667,-0.000207517,0.00977025,0.00293037,-0.0303579,0.00578943,0.0168537,1980,1254,37.4891,-5.56803
763,-230,37.4852,5.16162,0.015804,0.00473011,-0.00175399,0.0160751,0.00445893,-0.15339,0.00958273,0.0350839,1987,1254,37.4852,-5.16157
770,-230,37.7836,4.81787,0.0243867,0.00711268,-0.00394583,0.0252454,0.00625403,-0.214268,0.0151812,0.0490972,1994,1254,37.7835,-4.81782
777,-230,38.1431,4.53394,0,0,0,0,0,0,0,-1,2001,1254,38.143,-4.53391
784,-230,35.8896,1.80334,0,0,0,0,0,0,0,-1,2008,1254,35.8897,-1.80338
791,-230,35.6028,2.20642,0,0,0,0,0,0,0,-1,2015,1254,35.6027,-2.2064
798,-230,0,0,0,0,0,0,0,0,0,-1,2022,1254,0,0
805,-230,0,0,0,0,0,0,0,0,0,-1,2029,1254,0,0
812,-230,0,0,0,0,0,0,0,0,0,-1,2036,1254,0,0
-700,-237,0,0,0,0,0,0,0,0,0,-1,524,1261,0,0
-693,-237,0,0,0,0,0,0,0,0,0,-1,531,1261,0,0
-686,-237,0,0,0,0,0,0,0,0,0,-1,538,1261,0,0
-679,-237,0,0,0,0,0,0,0,0,0,-1,545,1261,0,0
-672,-237,-35.2999,-6.50769,0,0,0,0,0,0,0,-1,552,1261,-35.2998,6.50774
-665,-237,-35.3182,-4.8667,0,0,0,0,0,0,0,-1,559,1261,-35.3182,4.86671
-658,-237,-35.4324,-4.62085,0,0,0,0,0,0,0,-1,566,1261,-35.4324,4.62081
-651,-237,-34.6639,-3.00244,0,0,0,0,0,0,0,-1,573,1261,-34.664,3.0024
-644,-237,-34.0914,-0.665649,0,0,0,0,0,0,0,-1,580,1261,-34.0914,0.665635
-637,-237,-23.9626,1.19214,0,0,0,0,0,0,0,-1,587,1261,-23.9626,-1.19212
-630,-237,-23.8482,2.01233,0.0147446,0.0405451,0.0554894,0.084614,-0.0293244,0.89961,0.0683153,0.0485569,594,1261,-23.8482,-2.0123
-623,-237,-23.6804,2.81482,0.0117455,0.0262564,0.0355628,0.0552963,-0.0172944,0.886027,0.0437828,0.0299716,601,1261,-23.6804,-2.81487
-616,-237,-23.6364,3.43091,0.00873339,0.0154907,0.0197427,0.0321417,-0.00791764,0.870144,0.0244973,0.0146838,608,1261,-23.6364,-3.4309
-609,-237,-23.6544,3.9126,0.00562906,0.0077402,0.00895,0.0156967,-0.0023274,0.844097,0.0113203,0.0174046,615,1261,-23.6543,-3.91262
-602,-237,-23.6667,4.39697,0.00256382,0.00240129,0.00176051,0.00424494,0.000720168,0.762335,0.00262307,0.012346,622,1261,-23.6667,-4.39701
-595,-237,-23.7014,4.92432,0.00219671,0.000937429,0.00128421,0.00299733,0.000136813,0.557471,0.00195421,0.0150187,629,1261,-23.7014,-4.92437
-588,-237,-23.7095,5.46814,0.00290779,-0.00025259,0.000943517,0.00316804,-0.000512841,0.269139,0.0023021,0.0262889,636,1261,-23.7095,-5.46815
-581,-237,-23.7366,5.97131,0.00373198,-0.00122616,0.000726904,0.00383635,-0.00133053,0.142611,0.00309783,0.0251788,643,1261,-23.7366,-5.97132
-574,-237,-23.7467,6.39685,0.00411485,-0.00183723,0.000734627,0.00420418,-0.00192656,0.121004,0.00362009,0.0171108,650,1261,-23.7467,-6.39688
-567,-237,-23.7108,6.89819,0.00418555,-0.00210282,0.000761957,0.00427655,-0.00219383,0.118878,0.00379964,0.0270044,657,1261,-23.7107,-6.89815
-560,-237,-23.4535,7.23694,0,0,0,0,0,0,0,-1,664,1261,-23.4535,-7.23694
-553,-237,-20.6102,6.92139,0,0,0,0,0,0,0,-1,671,1261,-20.6102,-6.92138
-546,-237,-11.192,1.14014,0,0,0,0,0,0,0,-1,678,1261,-11.192,-1.14011
-539,-237,-16.512,1.53455,0,0,0,0,0,0,0,-1,685,1261,-16.512,-1.53457
-532,-237,-29.7025,1.23621,0,0,0,0,0,0,0,-1,692,1261,-29.7025,-1.23618
-525,-237,-33.0974,1.11963,0,0,0,0,0,0,0,-1,699,1261,-33.0974,-1.11964
-518,-237,-35.2965,0.64563,0,0,0,0,0,0,0,-1,706,1261,-35.2965,-0.645671
-511,-237,-35.5666,1.005,-0.00427269,0.00125729,0.00402252,0.00337348,-0.00638887,1.0865,0.00572521,0.0443809,713,1261,-35.5666,-1.00503
-504,-237,-35.7216,1.26953,-0.00565627,0.0017925,0.00514079,0.00441625,-0.00828002,1.09888,0.00744247,0.0398248,720,1261,-35.7216,-1.26958
-497,-237,-35.6666,1.33752,-0.00706075,0.00222894,0.00665521,0.00569991,-0.0105317,1.09006,0.00950873,0.0437781,727,1261,-35.6666,-1.33748
-490,-237,0,0,0,0,0,0,0,0,0,-1,734,1261,0,0
-483,-237,0,0,0,0,0,0,0,0,0,-1,741,1261,0,0
-476,-237,0,0,0,0,0,0,0,0,0,-1,748,1261,0,0
-469,-237,0,0,0,0,0,0,0,0,0,-1,755,1261,0,0
-462,-237,0,0,0,0,0,0,0,0,0,-1,762,1261,0,0
-455,-237,0,0,0,0,0,0,0,0,0,-1,769,1261,0,0
-448,-237,0,0,0,0,0,0,0,0,0,-1,776,1261,0,0
-441,-237,0,0,0,0,0,0,0,0,0,-1,783,1261,0,0
-434,-237,0,0,0,0,0,0,0,0,0,-1,790,1261,0,0
-427,-237,0,0,0,0,0,0,0,0,0,-1,797,1261,0,0
-420,-237,0,0,0,0,0,0,0,0,0,-1,804,1261,0,0
-413,-237,0,0,0,0,0,0,0,0,0,-1,811,1261,0,0
-406,-237,0,0,0,0,0,0,0,0,0,-1,818,1261,0,0
-399,-237,0,0,0,0,0,0,0,0,0,-1,825,1261,0,0
-392,-237,0,0,0,0,0,0,0,0,0,-1,832,1261,0,0
-385,-237,0,0,0,0,0,0,0,0,0,-1,839,1261,0,0
-378,-237,0,0,0,0,0,0,0,0,0,-1,846,1261,0,0
-371,-237,0,0,0,0,0,0,0,0,0,-1,853,1261,0,0
-364,-237,0,0,0,0,0,0,0,0,0,-1,860,1261,0,0
-357,-237,0,0,0,0,0,0,0,0,0,-1,867,1261,0,0
-350,-237,0,0,0,0,0,0,0,0,0,-1,874,1261,0,0
-343,-237,0,0,0,0,0,0,0,0,0,-1,881,1261,0,0
-336,-237,0,0,0,0,0,0,0,0,0,-1,888,1261,0,0
-329,-237,0,0,0,0,0,0,0,0,0,-1,895,1261,0,0
-322,-237,0,0,0,0,0,0,0,0,0,-1,902,1261,0,0
-315,-237,0,0,0,0,0,0,0,0,0,-1,909,1261,0,0
-308,-237,0,0,0,0,0,0,0,0,0,-1,916,1261,0,0
-301,-237,0,0,0,0,0,0,0,0,0,-1,923,1261,0,0
-294,-237,0,0,0,0,0,0,0,0,0,-1,930,1261,0,0
-287,-237,0,0,0,0,0,0,0,0,0,-1,937,1261,0,0
-280,-237,0,0,0,0,0,0,0,0,0,-1,944,1261,0,0
-273,-237,0,0,0,0,0,0,0,0,0,-1,951,1261,0,0
-266,-237,0,0,0,0,0,0,0,0,0,-1,958,1261,0,0
-259,-237,0,0,0,0,0,0,0,0,0,-1,965,1261,0,0
-252,-237,0,0,0,0,0,0,0,0,0,-1,972,1261,0,0
-245,-237,0,0,0,0,0,0,0,0,0,-1,979,1261,0,0
-238,-237,0,0,0,0,0,0,0,0,0,-1,986,1261,0,0
-231,-237,0,0,0,0,0,0,0,0,0,-1,993,1261,0,0
-224,-237,0,0,0,0,0,0,0,0,0,-1,1000,1261,0,0
-217,-237,0,0,0,0,0,0,0,0,0,-1,1007,1261,0,0
-210,-237,0,0,0,0,0,0,0,0,0,-1,1014,1261,0,0
-203,-237,0,0,0,0,0,0,0,0,0,-1,1021,1261,0,0
-196,-237,0,0,0,0,0,0,0,0,0,-1,1028,1261,0,0
-189,-237,0,0,0,0,0,0,0,0,0,-1,1035,1261,0,0
-182,-237,0,0,0,0,0,0,0,0,0,-1,1042,1261,0,0
-175,-237,0,0,0,0,0,0,0,0,0,-1,1049,1261,0,0
-168,-237,0,0,0,0,0,0,0,0,0,-1,1056,1261,0,0
-161,-237,0,0,0,0,0,0,0,0,0,-1,1063,1261,0,0
-154,-237,0,0,0,0,0,0,0,0,0,-1,1070,1261,0,0
-147,-237,0,0,0,0,0,0,0,0,0,-1,1077,1261,0,0
-140,-237,0,0,0,0,0,0,0,0,0,-1,1084,1261,0,0
-133,-237,0,0,0,0,0,0,0,0,0,-1,1091,1261,0,0
-126,-237,0,0,0,0,0,0,0,0,0,-1,1098,1261,0,0
-119,-237,0,0,0,0,0,0,0,0,0,-1,1105,1261,0,0
-112,-237,0,0,0,0,0,0,0,0,0,-1,1112,1261,0,0
-105,-237,0,0,0,0,0,0,0,0,0,-1,1119,1261,0,0
-98,-237,0,0,0,0,0,0,0,0,0,-1,1126,1261,0,0
-91,-237,0,0,0,0,0,0,0,0,0,-1,1133,1261,0,0
-84,-237,0,0,0,0,0,0,0,0,0,-1,1140,1261,0,0
-77,-237,0,0,0,0,0,0,0,0,0,-1,1147,1261,0,0
-70,-237,0,0,0,0,0,0,0,0,0,-1,1154,1261,0,0
-63,-237,0,0,0,0,0,0,0,0,0,-1,1161,1261,0,0
-56,-237,0,0,0,0,0,0,0,0,0,-1,1168,1261,0,0
-49,-237,0,0,0,0,0,0,0,0,0,-1,1175,1261,0,0
-42,-237,0,0,0,0,0,0,0,0,0,-1,1182,1261,0,0
-35,-237,0,0,0,0,0,0,0,0,0,-1,1189,1261,0,0
-28,-237,0,0,0,0,0,0,0,0,0,-1,1196,1261,0,0
-21,-237,0,0,0,0,0,0,0,0,0,-1,1203,1261,0,0
-14,-237,0,0,0,0,0,0,0,0,0,-1,1210,1261,0,0
-7,-237,0,0,0,0,0,0,0,0,0,-1,1217,1261,0,0
0,-237,0,0,0,0,0,0,0,0,0,-1,1224,1261,0,0
7,-237,0,0,0,0,0,0,0,0,0,-1,1231,1261,0,0
14,-237,0,0,0,0,0,0,0,0,0,-1,1238,1261,0,0
21,-237,0,0,0,0,0,0,0,0,0,-1,1245,1261,0,0
28,-237,0,0,0,0,0,0,0,0,0,-1,1252,1261,0,0
35,-237,0,0,0,0,0,0,0,0,0,-1,1259,1261,0,0
42,-237,0,0,0,0,0,0,0,0,0,-1,1266,1261,0,0
49,-237,0,0,0,0,0,0,0,0,0,-1,1273,1261,0,0
56,-237,0,0,0,0,0,0,0,0,0,-1,1280,1261,0,0
63,-237,0,0,0,0,0,0,0,0,0,-1,1287,1261,0,0
70,-237,0,0,0,0,0,0,0,0,0,-1,1294,1261,0,0
77,-237,0,0,0,0,0,0,0,0,0,-1,1301,1261,0,0
84,-237,0,0,0,0,0,0,0,0,0,-1,1308,1261,0,0
91,-237,0,0,0,0,0,0,0,0,0,-1,1315,1261,0,0
98,-237,0,0,0,0,0,0,0,0,0,-1,1322,1261,0,0
105,-237,0,0,0,0,0,0,0,0,0,-1,1329,1261,0,0
112,-237,0,0,0,0,0,0,0,0,0,-1,1336,1261,0,0
119,-237,0,0,0,0,0,0,0,0,0,-1,1343,1261,0,0
126,-237,0,0,0,0,0,0,0,0,0,-1,1350,1261,0,0
133,-237,0,0,0,0,0,0,0,0,0,-1,1357,1261,0,0
140,-237,0,0,0,0,0,0,0,0,0,-1,1364,1261,0,0
147,-237,0,0,0,0,0,0,0,0,0,-1,1371,1261,0,0
154,-237,0,0,0,0,0,0,0,0,0,-1,1378,1261,0,0
161,-237,0,0,0,0,0,0,0,0,0,-1,1385,1261,0,0
168,-237,0,0,0,0,0,0,0,0,0,-1,1392,1261,0,0
175,-237,0,0,0,0,0,0,0,0,0,-1,1399,1261,0,0
182,-237,0,0,0,0,0,0,0,0,0,-1,1406,1261,0,0
189,-237,0,0,0,0,0,0,0,0,0,-1,1413,1261,0,0
196,-237,0,0,0,0,0,0,0,0,0,-1,1420,1261,0,0
203,-237,0,0,0,0,0,0,0,0,0,-1,1427,1261,0,0
210,-237,0,0,0,0,0,0,0,0,0,-1,1434,1261,0,0
217,-237,0,0,0,0,0,0,0,0,0,-1,1441,1261,0,0
224,-237,0,0,0,0,0,0,0,0,0,-1,1448,1261,0,0
231,-237,0,0,0,0,0,0,0,0,0,-1,1455,1261,0,0
238,-237,0,0,0,0,0,0,0,0,0,-1,1462,1261,0,0
245,-237,0,0,0,0,0,0,0,0,0,-1,1469,1261,0,0
252,-237,0,0,0,0,0,0,0,0,0,-1,1476,1261,0,0
259,-237,0,0,0,0,0,0,0,0,0,-1,1483,1261,0,0
266,-237,0,0,0,0,0,0,0,0,0,-1,1490,1261,0,0
273,-237,0,0,0,0,0,0,0,0,0,-1,1497,1261,0,0
280,-237,0,0,0,0,0,0,0,0,0,-1,1504,1261,0,0
287,-237,0,0,0,0,0,0,0,0,0,-1,1511,1261,0,0
294,-237,0,0,0,0,0,0,0,0,0,-1,1518,1261,0,0
301,-237,0,0,0,0,0,0,0,0,0,-1,1525,1261,0,0
308,-237,0,0,0,0,0,0,0,0,0,-1,1532,1261,0,0
315,-237,0,0,0,0,0,0,0,0,0,-1,1539,1261,0,0
322,-237,0,0,0,0,0,0,0,0,0,-1,1546,1261,0,0
329,-237,0,0,0,0,0,0,0,0,0,-1,1553,1261,0,0
336,-237,0,0,0,0,0,0,0,0,0,-1,1560,1261,0,0
343,-237,0,0,0,0,0,0,0,0,0,-1,1567,1261,0,0
350,-237,0,0,0,0,0,0,0,0,0,-1,1574,1261,0,0
357,-237,0,0,0,0,0,0,0,0,0,-1,1581,1261,0,0
364,-237,0,0,0,0,0,0,0,0,0,-1,1588,1261,0,0
371,-237,0,0,0,0,0,0,0,0,0,-1,1595,1261,0,0
378,-237,0,0,0,0,0,0,0,0,0,-1,1602,1261,0,0
385,-237,0,0,0,0,0,0,0,0,0,-1,1609,1261,0,0
392,-237,0,0,0,0,0,0,0,0,0,-1,1616,1261,0,0
399,-237,0,0,0,0,0,0,0,0,0,-1,1623,1261,0,0
406,-237,0,0,0,0,0,0,0,0,0,-1,1630,1261,0,0
413,-237,0,0,0,0,0,0,0,0,0,-1,1637,1261,0,0
420,-237,0,0,0,0,0,0,0,0,0,-1,1644,1261,0,0
427,-237,0,0,0,0,0,0,0,0,0,-1,1651,1261,0,0
434,-237,0,0,0,0,0,0,0,0,0,-1,1658,1261,0,0
441,-237,0,0,0,0,0,0,0,0,0,-1,1665,1261,0,0
448,-237,0,0,0,0,0,0,0,0,0,-1,1672,1261,0,0
455,-237,0,0,0,0,0,0,0,0,0,-1,1679,1261,0,0
462,-237,0,0,0,0,0,0,0,0,0,-1,1686,1261,0,0
469,-237,0,0,0,0,0,0,0,0,0,-1,1693,1261,0,0
476,-237,0,0,0,0,0,0,0,0,0,-1,1700,1261,0,0
483,-237,0,0,0,0,0,0,0,0,0,-1,1707,1261,0,0
490,-237,0,0,0,0,0,0,0,0,0,-1,1714,1261,0,0
497,-237,0,0,0,0,0,0,0,0,0,-1,1721,1261,0,0
504,-237,0,0,0,0,0,0,0,0,0,-1,1728,1261,0,0
511,-237,0,0,0,0,0,0,0,0,0,-1,1735,1261,0,0
518,-237,0,0,0,0,0,0,0,0,0,-1,1742,1261,0,0
525,-237,0,0,0,0,0,0,0,0,0,-1,1749,1261,0,0
532,-237,0,0,0,0,0,0,0,0,0,-1,1756,1261,0,0
539,-237,0,0,0,0,0,0,0,0,0,-1,1763,1261,0,0
546,-237,0,0,0,0,0,0,0,0,0,-1,1770,1261,0,0
553,-237,0,0,0,0,0,0,0,0,0,-1,1777,1261,0,0
560,-237,0,0,0,0,0,0,0,0,0,-1,1784,1261,0,0
567,-237,0,0,0,0,0,0,0,0,0,-1,1791,1261,0,0
574,-237,0,0,0,0,0,0,0,0,0,-1,1798,1261,0,0
581,-237,0,0,0,0,0,0,0,0,0,-1,1805,1261,0,0
588,-237,0,0,0,0,0,0,0,0,0,-1,1812,1261,0,0
595,-237,0,0,0,0,0,0,0,0,0,-1,1819,1261,0,0
602,-237,0,0,0,0,0,0,0,0,0,-1,1826,1261,0,0
609,-237,0,0,0,0,0,0,0,0,0,-1,1833,1261,0,0
616,-237,48.4248,2.64319,0.00520416,0.00479463,0.00046149,0.00550428,0.00449452,0.576596,0.00338353,0.0347666,1840,1261,48.4247,-2.64317
623,-237,48.4467,2.6416,0.00247105,0.00363386,-0.000878848,0.00410621,0.0019987,-1.07762,0.002371,0.0329369,1847,1261,48.4466,-2.64156
630,-237,48.3479,2.68835,-0.000762237,0.00271583,-0.00237916,0.00392377,-0.00197017,-1.101,0.00346462,0.0282474,1854,1261,48.3479,-2.68835
637,-237,48.2289,2.63623,-0.00390837,0.00211704,-0.0035773,0.00378124,-0.00557258,-1.13536,0.00543334,0.0217132,1861,1261,48.2289,-2.63625
644,-237,48.0558,2.43201,-0.00477513,0.0016735,-0.00337713,0.00311836,-0.00621999,-1.16653,0.00548973,0.0403777,1868,1261,48.0558,-2.43195
651,-237,47.9153,2.15002,-0.00446338,0.00141191,-0.00313871,0.00277325,-0.00582471,-1.16156,0.00506717,0.049014,1875,1261,47.9152,-2.15008
658,-237,47.7378,1.80396,-0.00387438,0.00113612,-0.00276566,0.00236251,-0.00510078,-1.15341,0.00440454,0.0483173,1882,1261,47.7378,-1.80396
665,-237,47.5048,1.45654,0,0,0,0,0,0,0,-1,1889,1261,47.5048,-1.45657
672,-237,45.3922,1.95618,0,0,0,0,0,0,0,-1,1896,1261,45.3922,-1.95623
679,-237,23.1501,7.37488,0,0,0,0,0,0,0,-1,1903,1261,23.1502,-7.37493
686,-237,36.8348,9.99426,0,0,0,0,0,0,0,-1,1910,1261,36.8349,-9.99424
693,-237,36.9633,9.53381,-0.00199086,0.000340593,-0.000626051,0.000498066,-0.00214834,-1.32437,0.00162391,0.0495223,1917,1261,36.9633,-9.5338
700,-237,37.1636,9.11304,-0.000702635,6.43013e-06,-3.45233e-05,8.10705e-06,-0.000704312,-1.52226,0.000472267,0.0128715,1924,1261,37.1636,-9.11301
707,-237,37.1656,8.65503,0.000425957,-0.000254278,0.000393816,0.000606196,-0.000434518,0.429217,0.000603575,0.00985805,1931,1261,37.1656,-8.65508
714,-237,37.142,8.19287,0.000656412,-0.000622219,0.000696996,0.000962892,-0.000928698,0.414268,0.00109217,0.0146833,1938,1261,37.142,-8.19286
721,-237,37.099,7.76074,0.000508778,-0.000468364,0.000959053,0.00109654,-0.00105612,0.549816,0.00124291,0.0169342,1945,1261,37.099,-7.76077
728,-237,37.1099,7.33948,0.000775945,-2.90481e-05,0.00112677,0.00156995,-0.000823052,0.613855,0.00140385,0.0148352,1952,1261,37.1099,-7.33946
735,-237,37.1021,6.89099,0.00161924,0.000519928,0.00106565,0.00226864,-0.000129468,0.547296,0.00155738,0.0193947,1959,1261,37.102,-6.89096
742,-237,37.0923,6.44397,0.00320901,0.00122417,0.000797585,0.00348979,0.000943388,0.338489,0.00208448,0.0155957,1966,1261,37.0923,-6.44397
749,-237,37.0413,6.01624,0.00585723,0.00215601,0.000289618,0.00587975,0.00213348,0.0776197,0.00343698,0.0104229,1973,1261,37.0412,-6.01629
756,-237,36.9951,5.59485,0.010207,0.00353745,-0.000896827,0.0103255,0.00341896,-0.131358,0.00607371,0.0176161,1980,1261,36.9951,-5.5948
763,-237,36.8883,5.15979,0.0168769,0.00561263,-0.00293746,0.0175969,0.00489263,-0.240371,0.010488,0.0352262,1987,1261,36.8884,-5.15975
770,-237,37.0747,4.58862,0.0265218,0.00846258,-0.00590617,0.0282819,0.00670254,-0.289622,0.017065,0.0445597,1994,1261,37.0747,-4.58868
777,-237,37.3057,4.03577,0,0,0,0,0,0,0,-1,2001,1261,37.3056,-4.03579
784,-237,36.3441,1.68591,0,0,0,0,0,0,0,-1,2008,1261,36.3441,-1.68592
791,-237,32.3025,6.03235,0,0,0,0,0,0,0,-1,2015,1261,32.3025,-6.03229
798,-237,0,0,0,0,0,0,0,0,0,-1,2022,1261,0,0
805,-237,0,0,0,0,0,0,0,0,0,-1,2029,1261,0,0
812,-237,0,0,0,0,0,0,0,0,0,-1,2036,1261,0,0
-700,-244,0,0,0,0,0,0,0,0,0,-1,524,1268,0,0
-693,-244,0,0,0,0,0,0,0,0,0,-1,531,1268,0,0
-686,-244,0,0,0,0,0,0,0,0,0,-1,538,1268,0,0
-679,-244,0,0,0,0,0,0,0,0,0,-1,545,1268,0,0
-672,-244,-36.1747,-6.93701,0,0,0,0,0,0,0,-1,552,1268,-36.1747,6.93706
-665,-244,-36.2567,-5.21753,0,0,0,0,0,0,0,-1,559,1268,-36.2567,5.21755
-658,-244,-36.2474,-3.48572,0,0,0,0,0,0,0,-1,566,1268,-36.2474,3.48571
-651,-244,-35.7643,-3.32861,0,0,0,0,0,0,0,-1,573,1268,-35.7643,3.32865
-644,-244,-35.4961,-1.87769,0,0,0,0,0,0,0,-1,580,1268,-35.4961,1.87774
-637,-244,-23.0353,1.06213,0,0,0,0,0,0,0,-1,587,1268,-23.0353,-1.06211
-630,-244,-23.0887,1.86035,0.0140888,0.0421715,0.0572182,0.087046,-0.0307858,0.90572,0.0705677,0.0422804,594,1268,-23.0887,-1.86037
-623,-244,-23.2075,2.79761,0.010343,0.0268945,0.0360776,0.0556334,-0.0183959,0.898142,0.0445067,0.0318705,601,1268,-23.2075,-2.79756
-616,-244,-23.1292,3.45239,0.00720006,0.0156866,0.0197514,0.0316454,-0.00875875,0.891207,0.0245431,0.0171503,608,1268,-23.1292,-3.45233
-609,-244,-23.1488,3.91541,0.00451077,0.00796635,0.00915682,0.015557,-0.00307984,0.878646,0.0115358,0.0156782,615,1268,-23.1488,-3.9154
-602,-244,-23.1871,4.40198,0.00208681,0.00265464,0.0021391,0.00452858,0.000212864,0.851376,0.00295066,0.0156397,622,1268,-23.1871,-4.402
-595,-244,-23.2147,4.92139,0.00218652,0.00126883,0.00159465,0.00338702,6.83247e-05,0.645311,0.00223559,0.0165845,629,1268,-23.2147,-4.92138
-588,-244,-23.202,5.45361,0.00275928,1.39584e-05,0.00124249,0.0032381,-0.00046486,0.367831,0.0023292,0.0211616,636,1268,-23.202,-5.4536
-581,-244,-23.2348,5.93201,0.00351827,-0.00109497,0.00102235,0.00373469,-0.00131139,0.208603,0.00302326,0.0190054,643,1268,-23.2348,-5.932
-574,-244,-23.2513,6.41724,0.00401003,-0.00186958,0.000977471,0.00416827,-0.00202782,0.160498,0.00364777,0.0135089,650,1268,-23.2514,-6.41721
-567,-244,-23.2418,6.9115,0.00428341,-0.00223586,0.000963569,0.00442284,-0.0023753,0.143711,0.00398381,0.0145839,657,1268,-23.2418,-6.91155
-560,-244,-23.1469,7.40186,0.00371398,-0.00196633,0.00101412,0.00388961,-0.00214196,0.171477,0.00353072,0.0377307,664,1268,-23.1469,-7.40191
-553,-244,-22.995,7.91418,0,0,0,0,0,0,0,-1,671,1268,-22.995,-7.91425
-546,-244,-11.2686,4.41772,0,0,0,0,0,0,0,-1,678,1268,-11.2686,-4.41767
-539,-244,-12.8706,0.3302,0,0,0,0,0,0,0,-1,685,1268,-12.8706,-0.330156
-532,-244,-18.1502,0.816528,0,0,0,0,0,0,0,-1,692,1268,-18.1502,-0.816514
-525,-244,-33.0835,0.693604,0,0,0,0,0,0,0,-1,699,1268,-33.0835,-0.69365
-518,-244,-33.1169,0.668091,0,0,0,0,0,0,0,-1,706,1268,-33.1169,-0.668103
-511,-244,-35.5527,1.03381,0,0,0,0,0,0,0,-1,713,1268,-35.5528,-1.0338
-504,-244,-35.6864,1.15601,0,0,0,0,0,0,0,-1,720,1268,-35.6864,-1.15599
-497,-244,-35.7383,1.29443,0,0,0,0,0,0,0,-1,727,1268,-35.7383,-1.29442
-490,-244,0,0,0,0,0,0,0,0,0,-1,734,1268,0,0
-483,-244,0,0,0,0,0,0,0,0,0,-1,741,1268,0,0
-476,-244,0,0,0,0,0,0,0,0,0,-1,748,1268,0,0
-469,-244,0,0,0,0,0,0,0,0,0,-1,755,1268,0,0
-462,-244,0,0,0,0,0,0,0,0,0,-1,762,1268,0,0
-455,-244,0,0,0,0,0,0,0,0,0,-1,769,1268,0,0
-448,-244,0,0,0,0,0,0,0,0,0,-1,776,1268,0,0
-441,-244,0,0,0,0,0,0,0,0,0,-1,783,1268,0,0
-434,-244,0,0,0,0,0,0,0,0,0,-1,790,1268,0,0
-427,-244,0,0,0,0,0,0,0,0,0,-1,797,1268,0,0
-420,-244,0,0,0,0,0,0,0,0,0,-1,804,1268,0,0
-413,-244,0,0,0,0,0,0,0,0,0,-1,811,1268,0,0
-406,-244,0,0,0,0,0,0,0,0,0,-1,818,1268,0,0
-399,-244,0,0,0,0,0,0,0,0,0,-1,825,1268,0,0
-392,-244,0,0,0,0,0,0,0,0,0,-1,832,1268,0,0
-385,-244,0,0,0,0,0,0,0,0,0,-1,839,1268,0,0
-378,-244,0,0,0,0,0,0,0,0,0,-1,846,1268,0,0
-371,-244,0,0,0,0,0,0,0,0,0,-1,853,1268,0,0
-364,-244,0,0,0,0,0,0,0,0,0,-1,860,1268,0,0
-357,-244,0,0,0,0,0,0,0,0,0,-1,867,1268,0,0
-350,-244,0,0,0,0,0,0,0,0,0,-1,874,1268,0,0
-343,-244,0,0,0,0,0,0,0,0,0,-1,881,1268,0,0
-336,-244,0,0,0,0,0,0,0,0,0,-1,888,1268,0,0
-329,-244,0,0,0,0,0,0,0,0,0,-1,895,1268,0,0
-322,-244,0,0,0,0,0,0,0,0,0,-1,902,1268,0,0
-315,-244,0,0,0,0,0,0,0,0,0,-1,909,1268,0,0
-308,-244,0,0,0,0,0,0,0,0,0,-1,916,1268,0,0
-301,-244,0,0,0,0,0,0,0,0,0,-1,923,1268,0,0
-294,-244,0,0,0,0,0,0,0,0,0,-1,930,1268,0,0
-287,-244,0,0,0,0,0,0,0,0,0,-1,937,1268,0,0
-280,-244,0,0,0,0,0,0,0,0,0,-1,944,1268,0,0
-273,-244,0,0,0,0,0,0,0,0,0,-1,951,1268,0,0
-266,-244,0,0,0,0,0,0,0,0,0,-1,958,1268,0,0
-259,-244,0,0,0,0,0,0,0,0,0,-1,965,1268,0,0
-252,-244,0,0,0,0,0,0,0,0,0,-1,972,1268,0,0
-245,-244,0,0,0,0,0,0,0,0,0,-1,979,1268,0,0
-238,-244,0,0,0,0,0,0,0,0,0,-1,986,1268,0,0
-231,-244,0,0,0,0,0,0,0,0,0,-1,993,1268,0,0
-224,-244,0,0,0,0,0,0,0,0,0,-1,1000,1268,0,0
-217,-244,0,0,0,0,0,0,0,0,0,-1,1007,1268,0,0
-210,-244,0,0,0,0,0,0,0,0,0,-1,1014,1268,0,0
-203,-244,0,0,0,0,0,0,0,0,0,-1,1021,1268,0,0
-196,-244,0,0,0,0,0,0,0,0,0,-1,1028,1268,0,0
-189,-244,0,0,0,0,0,0,0,0,0,-1,1035,1268,0,0
-182,-244,0,0,0,0,0,0,0,0,0,-1,1042,1268,0,0
-175,-244,0,0,0,0,0,0,0,0,0,-1,1049,1268,0,0
-168,-244,0,0,0,0,0,0,0,0,0,-1,1056,1268,0,0
-161,-244,0,0,0,0,0,0,0,0,0,-1,1063,1268,0,0
-154,-244,0,0,0,0,0,0,0,0,0,-1,1070,1268,0,0
-147,-244,0,0,0,0,0,0,0,0,0,-1,1077,1268,0,0
-140,-244,0,0,0,0,0,0,0,0,0,-1,1084,1268,0,0
-133,-244,0,0,0,0,0,0,0,0,0,-1,1091,1268,0,0
-126,-244,0,0,0,0,0,0,0,0,0,-1,1098,1268,0,0
-119,-244,0,0,0,0,0,0,0,0,0,-1,1105,1268,0,0
-112,-244,0,0,0,0,0,0,0,0,0,-1,1112,1268,0,0
-105,-244,0,0,0,0,0,0,0,0,0,-1,1119,1268,0,0
-98,-244,0,0,0,0,0,0,0,0,0,-1,1126,1268,0,0
-91,-244,0,0,0,0,0,0,0,0,0,-1,1133,1268,0,0
-84,-244,0,0,0,0,0,0,0,0,0,-1,1140,1268,0,0
-77,-244,0,0,0,0,0,0,0,0,0,-1,1147,1268,0,0
-70,-244,0,0,0,0,0,0,0,0,0,-1,1154,1268,0,0
-63,-244,0,0,0,0,0,0,0,0,0,-1,1161,1268,0,0
-56,-244,0,0,0,0,0,0,0,0,0,-1,1168,1268,0,0
-49,-244,0,0,0,0,0,0,0,0,0,-1,1175,1268,0,0
-42,-244,0,0,0,0,0,0,0,0,0,-1,1182,1268,0,0
-35,-244,0,0,0,0,0,0,0,0,0,-1,1189,1268,0,0
-28,-244,0,0,0,0,0,0,0,0,0,-1,1196,1268,0,0
-21,-244,0,0,0,0,0,0,0,0,0,-1,1203,1268,0,0
-14,-244,0,0,0,0,0,0,0,0,0,-1,1210,1268,0,0
-7,-244,0,0,0,0,0,0,0,0,0,-1,1217,1268,0,0
0,-244,0,0,0,0,0,0,0,0,0,-1,1224,1268,0,0
7,-244,0,0,0,0,0,0,0,0,0,-1,1231,1268,0,0
14,-244,0,0,0,0,0,0,0,0,0,-1,1238,1268,0,0
21,-244,0,0,0,0,0,0,0,0,0,-1,1245,1268,0,0
28,-244,0,0,0,0,0,0,0,0,0,-1,1252,1268,0,0
35,-244,0,0,0,0,0,0,0,0,0,-1,1259,1268,0,0
42,-244,0,0,0,0,0,0,0,0,0,-1,1266,1268,0,0
49,-244,0,0,0,0,0,0,0,0,0,-1,1273,1268,0,0
56,-244,0,0,0,0,0,0,0,0,0,-1,1280,1268,0,0
63,-244,0,0,0,0,0,0,0,0,0,-1,1287,1268,0,0
70,-244,0,0,0,0,0,0,0,0,0,-1,1294,1268,0,0
77,-244,0,0,0,0,0,0,0,0,0,-1,1301,1268,0,0
84,-244,0,0,0,0,0,0,0,0,0,-1,1308,1268,0,0
91,-244,0,0,0,0,0,0,0,0,0,-1,1315,1268,0,0
98,-244,0,0,0,0,0,0,0,0,0,-1,1322,1268,0,0
105,-244,0,0,0,0,0,0,0,0,0,-1,1329,1268,0,0
112,-244,0,0,0,0,0,0,0,0,0,-1,1336,1268,0,0
119,-244,0,0,0,0,0,0,0,0,0,-1,1343,1268,0,0
126,-244,0,0,0,0,0,0,0,0,0,-1,1350,1268,0,0
133,-244,0,0,0,0,0,0,0,0,0,-1,1357,1268,0,0
140,-244,0,0,0,0,0,0,0,0,0,-1,1364,1268,0,0
147,-244,0,0,0,0,0,0,0,0,0,-1,1371,1268,0,0
154,-244,0,0,0,0,0,0,0,0,0,-1,1378,1268,0,0
161,-244,0,0,0,0,0,0,0,0,0,-1,1385,1268,0,0
168,-244,0,0,0,0,0,0,0,0,0,-1,1392,1268,0,0
175,-244,0,0,0,0,0,0,0,0,0,-1,1399,1268,0,0
182,-244,0,0,0,0,0,0,0,0,0,-1,1406,1268,0,0
189,-244,0,0,0,0,0,0,0,0,0,-1,1413,1268,0,0
196,-244,0,0,0,0,0,0,0,0,0,-1,1420,1268,0,0
203,-244,0,0,0,0,0,0,0,0,0,-1,1427,1268,0,0
210,-244,0,0,0,0,0,0,0,0,0,-1,1434,1268,0,0
217,-244,0,0,0,0,0,0,0,0,0,-1,1441,1268,0,0
224,-244,0,0,0,0,0,0,0,0,0,-1,1448,1268,0,0
231,-244,0,0,0,0,0,0,0,0,0,-1,1455,1268,0,0
238,-244,0,0,0,0,0,0,0,0,0,-1,1462,1268,0,0
245,-244,0,0,0,0,0,0,0,0,0,-1,1469,1268,0,0
252,-244,0,0,0,0,0,0,0,0,0,-1,1476,1268,0,0
259,-244,0,0,0,0,0,0,0,0,0,-1,1483,1268,0,0
266,-244,0,0,0,0,0,0,0,0,0,-1,1490,1268,0,0
273,-244,0,0,0,0,0,0,0,0,0,-1,1497,1268,0,0
280,-244,0,0,0,0,0,0,0,0,0,-1,1504,1268,0,0
287,-244,0,0,0,0,0,0,0,0,0,-1,1511,1268,0,0
294,-244,0,0,0,0,0,0,0,0,0,-1,1518,1268,0,0
301,-244,0,0,0,0,0,0,0,0,0,-1,1525,1268,0,0
308,-244,0,0,0,0,0,0,0,0,0,-1,1532,1268,0,0
315,-244,0,0,0,0,0,0,0,0,0,-1,1539,1268,0,0
322,-244,0,0,0,0,0,0,0,0,0,-1,1546,1268,0,0
329,-244,0,0,0,0,0,0,0,0,0,-1,1553,1268,0,0
336,-244,0,0,0,0,0,0,0,0,0,-1,1560,1268,0,0
343,-244,0,0,0,0,0,0,0,0,0,-1,1567,1268,0,0
350,-244,0,0,0,0,0,0,0,0,0,-1,1574,1268,0,0
357,-244,0,0,0,0,0,0,0,0,0,-1,1581,1268,0,0
364,-244,0,0,0,0,0,0,0,0,0,-1,1588,1268,0,0
371,-244,0,0,0,0,0,0,0,0,0,-1,1595,1268,0,0
378,-244,0,0,0,0,0,0,0,0,0,-1,1602,1268,0,0
385,-244,0,0,0,0,0,0,0,0,0,-1,1609,1268,0,0
392,-244,0,0,0,0,0,0,0,0,0,-1,1616,1268,0,0
399,-244,0,0,0,0,0,0,0,0,0,-1,1623,1268,0,0
406,-244,0,0,0,0,0,0,0,0,0,-1,1630,1268,0,0
413,-244,0,0,0,0,0,0,0,0,0,-1,1637,1268,0,0
420,-244,0,0,0,0,0,0,0,0,0,-1,1644,1268,0,0
427,-244,0,0,0,0,0,0,0,0,0,-1,1651,1268,0,0
434,-244,0,0,0,0,0,0,0,0,0,-1,1658,1268,0,0
441,-244,0,0,0,0,0,0,0,0,0,-1,1665,1268,0,0
448,-244,0,0,0,0,0,0,0,0,0,-1,1672,1268,0,0
455,-244,0,0,0,0,0,0,0,0,0,-1,1679,1268,0,0
462,-244,0,0,0,0,0,0,0,0,0,-1,1686,1268,0,0
469,-244,0,0,0,0,0,0,0,0,0,-1,1693,1268,0,0
476,-244,0,0,0,0,0,0,0,0,0,-1,1700,1268,0,0
483,-244,0,0,0,0,0,0,0,0,0,-1,1707,1268,0,0
490,-244,0,0,0,0,0,0,0,0,0,-1,1714,1268,0,0
497,-244,0,0,0,0,0,0,0,0,0,-1,1721,1268,0,0
504,-244,0,0,0,0,0,0,0,0,0,-1,1728,1268,0,0
511,-244,0,0,0,0,0,0,0,0,0,-1,1735,1268,0,0
518,-244,0,0,0,0,0,0,0,0,0,-1,1742,1268,0,0
525,-244,0,0,0,0,0,0,0,0,0,-1,1749,1268,0,0
532,-244,0,0,0,0,0,0,0,0,0,-1,1756,1268,0,0
539,-244,0,0,0,0,0,0,0,0,0,-1,1763,1268,0,0
546,-244,0,0,0,0,0,0,0,0,0,-1,1770,1268,0,0
553,-244,0,0,0,0,0,0,0,0,0,-1,1777,1268,0,0
560,-244,0,0,0,0,0,0,0,0,0,-1,1784,1268,0,0
567,-244,0,0,0,0,0,0,0,0,0,-1,1791,1268,0,0
574,-244,0,0,0,0,0,0,0,0,0,-1,1798,1268,0,0
581,-244,0,0,0,0,0,0,0,0,0,-1,1805,1268,0,0
588,-244,0,0,0,0,0,0,0,0,0,-1,1812,1268,0,0
595,-244,0,0,0,0,0,0,0,0,0,-1,1819,1268,0,0
602,-244,0,0,0,0,0,0,0,0,0,-1,1826,1268,0,0
609,-244,0,0,0,0,0,0,0,0,0,-1,1833,1268,0,0
616,-244,48.3745,2.52893,0.00412189,0.00423655,0.000462771,0.00464553,0.00371291,0.847029,0.0028377,0.0327673,1840,1268,48.3745,-2.52897
623,-244,48.3749,2.61633,0.00127067,0.0027309,-0.00114372,0.00335768,0.000643894,-1.06948,0.00205768,0.0276625,1847,1268,48.3749,-2.61635
630,-244,48.282,2.70081,-0.00210198,0.00153217,-0.0027667,0.00302514,-0.00359495,-1.07596,0.00382683,0.0258575,1854,1268,48.2819,-2.70081
637,-244,48.2107,2.60437,-0.0047795,0.000891778,-0.00375622,0.00276252,-0.00665025,-1.10872,0.00558684,0.0396028,1861,1268,48.2107,-2.60442
644,-244,48.0853,2.53723,-0.00507413,0.000599564,-0.0034166,0.00220353,-0.0066781,-1.13187,0.00534033,0.0462537,1868,1268,48.0854,-2.53717
651,-244,47.925,1.77039,-0.00463785,0.000495413,-0.00312451,0.00197232,-0.00611475,-1.12924,0.00486897,0.0467053,1875,1268,47.9251,-1.77036
658,-244,47.4067,1.68152,-0.00406931,0.000340998,-0.00273345,0.00164789,-0.0053762,-1.12481,0.00424151,0.0492172,1882,1268,47.4067,-1.68158
665,-244,47.3567,0.873901,0,0,0,0,0,0,0,-1,1889,1268,47.3566,-0.873863
672,-244,32.224,3.6123,0,0,0,0,0,0,0,-1,1896,1268,32.224,-3.6123
679,-244,27.2593,7.90649,0,0,0,0,0,0,0,-1,1903,1268,27.2592,-7.9065
686,-244,36.6744,10.2295,0,0,0,0,0,0,0,-1,1910,1268,36.6744,-10.2295
693,-244,36.6689,9.69019,-0.00237953,7.70593e-05,-0.000558468,0.000198059,-0.00250052,-1.35743,0.0017368,0.0259839,1917,1268,36.6689,-9.69023
700,-244,36.7039,9.14111,-0.000888828,-0.000209735,0.000102395,-0.000194631,-0.000903932,1.42435,0.000549359,0.00955367,1924,1268,36.7038,-9.14113
707,-244,36.7175,8.67468,0.000301128,-0.000301016,0.000533792,0.000612901,-0.000612788,0.528625,0.000707652,0.009834,1931,1268,36.7175,-8.67467
714,-244,36.7449,8.21472,0.000506578,-0.000575609,0.000803701,0.000934359,-0.00100339,0.489124,0.001119,0.0137776,1938,1268,36.7449,-8.21469
721,-244,36.6715,7.81006,0.000427909,-0.00026665,0.000967388,0.00110846,-0.000947205,0.613069,0.00118806,0.0183346,1945,1268,36.6715,-7.81011
728,-244,36.6454,7.34607,0.000675603,0.000250481,0.00103749,0.00152209,-0.000596003,0.684357,0.00126124,0.0233347,1952,1268,36.6454,-7.34602
735,-244,36.6417,6.84412,0.00149357,0.000878624,0.000895221,0.00213265,0.000239545,0.61998,0.00134903,0.0253385,1959,1268,36.6417,-6.84416
742,-244,36.6128,6.46436,0.00308793,0.00168455,0.000506037,0.00325136,0.00152111,0.312396,0.00187847,0.0163872,1966,1268,36.6127,-6.46436
749,-244,36.5079,6.11694,0.00586602,0.0027598,-0.000185531,0.00587706,0.00274876,-0.0594471,0.00339548,0.0230467,1973,1268,36.5079,-6.11698
756,-244,36.3652,5.79175,0.0105349,0.0043895,-0.00174444,0.0109955,0.00392885,-0.258175,0.00643385,0.0327582,1980,1268,36.3652,-5.7918
763,-244,36.5176,5.26404,0.0178255,0.00683608,-0.00438444,0.0193604,0.0053012,-0.336741,0.0115527,0.044441,1987,1268,36.5176,-5.26407
770,-244,37.2056,4.23364,0.0285921,0.0102982,-0.00832021,0.0318102,0.0070802,-0.369051,0.0192849,0.0484921,1994,1268,37.2055,-4.23367
777,-244,37.2579,3.52527,0,0,0,0,0,0,0,-1,2001,1268,37.2579,-3.52532
784,-244,31.7908,5.20081,0,0,0,0,0,0,0,-1,2008,1268,31.7907,-5.20083
791,-244,0,0,0,0,0,0,0,0,0,-1,2015,1268,0,0
798,-244,0,0,0,0,0,0,0,0,0,-1,2022,1268,0,0
805,-244,0,0,0,0,0,0,0,0,0,-1,2029,1268,0,0
812,-244,0,0,0,0,0,0,0,0,0,-1,2036,1268,0,0
-700,-251,0,0,0,0,0,0,0,0,0,-1,524,1275,0,0
-693,-251,0,0,0,0,0,0,0,0,0,-1,531,1275,0,0
-686,-251,0,0,0,0,0,0,0,0,0,-1,538,1275,0,0
-679,-251,0,0,0,0,0,0,0,0,0,-1,545,1275,0,0
-672,-251,0,0,0,0,0,0,0,0,0,-1,552,1275,0,0
-665,-251,-37.6044,-6.22937,0,0,0,0,0,0,0,-1,559,1275,-37.6043,6.22937
-658,-251,-37.3909,-4.9679,0,0,0,0,0,0,0,-1,566,1275,-37.3909,4.96794
-651,-251,-36.9274,-3.65503,0,0,0,0,0,0,0,-1,573,1275,-36.9273,3.65498
-644,-251,-36.8125,-2.30371,0,0,0,0,0,0,0,-1,580,1275,-36.8125,2.3037
-637,-251,-36.655,-1.04102,0,0,0,0,0,0,0,-1,587,1275,-36.655,1.04096
-630,-251,-22.5719,2.43018,0,0,0,0,0,0,0,-1,594,1275,-22.5719,-2.43017
-623,-251,-22.6245,2.95789,0.0112839,0.0268266,0.035331,0.0552309,-0.0171203,0.893654,0.0436609,0.0395315,601,1275,-22.6244,-2.95784
-616,-251,-22.6203,3.45532,0.00751881,0.0154418,0.0189098,0.0308006,-0.00784003,0.888651,0.0235855,0.0203515,608,1275,-22.6203,-3.4553
-609,-251,-22.6613,3.92224,0.00466525,0.00797891,0.00889777,0.0153728,-0.00272864,0.877447,0.0112687,0.0206774,615,1275,-22.6613,-3.92219
-602,-251,-22.6902,4.43457,0.00223809,0.0028766,0.00235824,0.0049371,0.000177588,0.852679,0.00323383,0.0147443,622,1275,-22.6902,-4.43458
-595,-251,-22.7112,4.92957,0.00218188,0.00155497,0.0017517,0.00364795,8.88961e-05,0.696864,0.00240288,0.0131723,629,1275,-22.7112,-4.92951
-588,-251,-22.7145,5.41565,0.00251837,0.000361821,0.00135946,0.00317526,-0.000295072,0.450119,0.00222174,0.0161205,636,1275,-22.7145,-5.41569
-581,-251,-22.7125,5.92505,0.00313699,-0.000738436,0.0011146,0.00343469,-0.00103614,0.260999,0.00270222,0.0154075,643,1275,-22.7125,-5.92505
-574,-251,-22.7191,6.45276,0.0037137,-0.00158595,0.000990131,0.00389264,-0.0017649,0.178797,0.0033425,0.0136356,650,1275,-22.719,-6.45278
-567,-251,-22.7365,6.96082,0.00421134,-0.0020137,0.000918391,0.00434401,-0.00214637,0.143461,0.00381815,0.0135736,657,1275,-22.7365,-6.9608
-560,-251,-22.6846,7.59937,0.00381095,-0.00174613,0.000950995,0.00396919,-0.00190437,0.164884,0.00346024,0.0344471,664,1275,-22.6846,-7.59942
-553,-251,-22.5382,8.17883,0,0,0,0,0,0,0,-1,671,1275,-22.5382,-8.17889
-546,-251,-12.995,4.5675,0,0,0,0,0,0,0,-1,678,1275,-12.995,-4.56745
-539,-251,-10.7916,0.366333,0,0,0,0,0,0,0,-1,685,1275,-10.7916,-0.366282
-532,-251,-10.7391,-0.00769043,0,0,0,0,0,0,0,-1,692,1275,-10.7391,0.00773227
-525,-251,-29.4286,-0.250244,0,0,0,0,0,0,0,-1,699,1275,-29.4286,0.250266
-518,-251,-32.6981,0.678833,0,0,0,0,0,0,0,-1,706,1275,-32.6981,-0.678787
-511,-251,-29.4731,0.637085,0,0,0,0,0,0,0,-1,713,1275,-29.4731,-0.637025
-504,-251,-30.6428,0.792358,0,0,0,0,0,0,0,-1,720,1275,-30.6427,-0.792335
-497,-251,-35.7544,1.17957,0,0,0,0,0,0,0,-1,727,1275,-35.7544,-1.17961
-490,-251,0,0,0,0,0,0,0,0,0,-1,734,1275,0,0
-483,-251,0,0,0,0,0,0,0,0,0,-1,741,1275,0,0
-476,-251,0,0,0,0,0,0,0,0,0,-1,748,1275,0,0
-469,-251,0,0,0,0,0,0,0,0,0,-1,755,1275,0,0
-462,-251,0,0,0,0,0,0,0,0,0,-1,762,1275,0,0
-455,-251,0,0,0,0,0,0,0,0,0,-1,769,1275,0,0
-448,-251,0,0,0,0,0,0,0,0,0,-1,776,1275,0,0
-441,-251,0,0,0,0,0,0,0,0,0,-1,783,1275,0,0
-434,-251,0,0,0,0,0,0,0,0,0,-1,790,1275,0,0
-427,-251,0,0,0,0,0,0,0,0,0,-1,797,1275,0,0
-420,-251,0,0,0,0,0,0,0,0,0,-1,804,1275,0,0
-413,-251,0,0,0,0,0,0,0,0,0,-1,811,1275,0,0
-406,-251,0,0,0,0,0,0,0,0,0,-1,818,1275,0,0
-399,-251,0,0,0,0,0,0,0,0,0,-1,825,1275,0,0
-392,-251,0,0,0,0,0,0,0,0,0,-1,832,1275,0,0
-385,-251,0,0,0,0,0,0,0,0,0,-1,839,1275,0,0
-378,-251,0,0,0,0,0,0,0,0,0,-1,846,1275,0,0
-371,-251,0,0,0,0,0,0,0,0,0,-1,853,1275,0,0
-364,-251,0,0,0,0,0,0,0,0,0,-1,860,1275,0,0
-357,-251,0,0,0,0,0,0,0,0,0,-1,867,1275,0,0
-350,-251,0,0,0,0,0,0,0,0,0,-1,874,1275,0,0
-343,-251,0,0,0,0,0,0,0,0,0,-1,881,1275,0,0
-336,-251,0,0,0,0,0,0,0,0,0,-1,888,1275,0,0
-329,-251,0,0,0,0,0,0,0,0,0,-1,895,1275,0,0
-322,-251,0,0,0,0,0,0,0,0,0,-1,902,1275,0,0
-315,-251,0,0,0,0,0,0,0,0,0,-1,909,1275,0,0
-308,-251,0,0,0,0,0,0,0,0,0,-1,916,1275,0,0
-301,-251,0,0,0,0,0,0,0,0,0,-1,923,1275,0,0
-294,-251,0,0,0,0,0,0,0,0,0,-1,930,1275,0,0
-287,-251,0,0,0,0,0,0,0,0,0,-1,937,1275,0,0
-280,-251,0,0,0,0,0,0,0,0,0,-1,944,1275,0,0
-273,-251,0,0,0,0,0,0,0,0,0,-1,951,1275,0,0
-266,-251,0,0,0,0,0,0,0,0,0,-1,958,1275,0,0
-259,-251,0,0,0,0,0,0,0,0,0,-1,965,1275,0,0
-252,-251,0,0,0,0,0,0,0,0,0,-1,972,1275,0,0
-245,-251,0,0,0,0,0,0,0,0,0,-1,979,1275,0,0
-238,-251,0,0,0,0,0,0,0,0,0,-1,986,1275,0,0
-231,-251,0,0,0,0,0,0,0,0,0,-1,993,1275,0,0
-224,-251,0,0,0,0,0,0,0,0,0,-1,1000,1275,0,0
-217,-251,0,0,0,0,0,0,0,0,0,-1,1007,1275,0,0
-210,-251,0,0,0,0,0,0,0,0,0,-1,1014,1275,0,0
-203,-251,0,0,0,0,0,0,0,0,0,-1,1021,1275,0,0
-196,-251,0,0,0,0,0,0,0,0,0,-1,1028,1275,0,0
-189,-251,0,0,0,0,0,0,0,0,0,-1,1035,1275,0,0
-182,-251,0,0,0,0,0,0,0,0,0,-1,1042,1275,0,0
-175,-251,0,0,0,0,0,0,0,0,0,-1,1049,1275,0,0
-168,-251,0,0,0,0,0,0,0,0,0,-1,1056,1275,0,0
-161,-251,0,0,0,0,0,0,0,0,0,-1,1063,1275,0,0
-154,-251,0,0,0,0,0,0,0,0,0,-1,1070,1275,0,0
-147,-251,0,0,0,0,0,0,0,0,0,-1,1077,1275,0,0
-140,-251,0,0,0,0,0,0,0,0,0,-1,1084,1275,0,0
-133,-251,0,0,0,0,0,0,0,0,0,-1,1091,1275,0,0
-126,-251,0,0,0,0,0,0,0,0,0,-1,1098,1275,0,0
-119,-251,0,0,0,0,0,0,0,0,0,-1,1105,1275,0,0
-112,-251,0,0,0,0,0,0,0,0,0,-1,1112,1275,0,0
-105,-251,0,0,0,0,0,0,0,0,0,-1,1119,1275,0,0
-98,-251,0,0,0,0,0,0,0,0,0,-1,1126,1275,0,0
-91,-251,0,0,0,0,0,0,0,0,0,-1,1133,1275,0,0
-84,-251,0,0,0,0,0,0,0,0,0,-1,1140,1275,0,0
-77,-251,0,0,0,0,0,0,0,0,0,-1,1147,1275,0,0
-70,-251,0,0,0,0,0,0,0,0,0,-1,1154,1275,0,0
-63,-251,0,0,0,0,0,0,0,0,0,-1,1161,1275,0,0
-56,-251,0,0,0,0,0,0,0,0,0,-1,1168,1275,0,0
-49,-251,0,0,0,0,0,0,0,0,0,-1,1175,1275,0,0
-42,-251,0,0,0,0,0,0,0,0,0,-1,1182,1275,0,0
-35,-251,0,0,0,0,0,0,0,0,0,-1,1189,1275,0,0
-28,-251,0,0,0,0,0,0,0,0,0,-1,1196,1275,0,0
-21,-251,0,0,0,0,0,0,0,0,0,-1,1203,1275,0,0
-14,-251,0,0,0,0,0,0,0,0,0,-1,1210,1275,0,0
-7,-251,0,0,0,0,0,0,0,0,0,-1,1217,1275,0,0
0,-251,0,0,0,0,0,0,0,0,0,-1,1224,1275,0,0
7,-251,0,0,0,0,0,0,0,0,0,-1,1231,1275,0,0
14,-251,0,0,0,0,0,0,0,0,0,-1,1238,1275,0,0
21,-251,0,0,0,0,0,0,0,0,0,-1,1245,1275,0,0
28,-251,0,0,0,0,0,0,0,0,0,-1,1252,1275,0,0
35,-251,0,0,0,0,0,0,0,0,0,-1,1259,1275,0,0
42,-251,0,0,0,0,0,0,0,0,0,-1,1266,1275,0,0
49,-251,0,0,0,0,0,0,0,0,0,-1,1273,1275,0,0
56,-251,0,0,0,0,0,0,0,0,0,-1,1280,1275,0,0
63,-251,0,0,0,0,0,0,0,0,0,-1,1287,1275,0,0
70,-251,0,0,0,0,0,0,0,0,0,-1,1294,1275,0,0
77,-251,0,0,0,0,0,0,0,0,0,-1,1301,1275,0,0
84,-251,0,0,0,0,0,0,0,0,0,-1,1308,1275,0,0
91,-251,0,0,0,0,0,0,0,0,0,-1,1315,1275,0,0
98,-251,0,0,0,0,0,0,0,0,0,-1,1322,1275,0,0
105,-251,0,0,0,0,0,0,0,0,0,-1,1329,1275,0,0
112,-251,0,0,0,0,0,0,0,0,0,-1,1336,1275,0,0
119,-251,0,0,0,0,0,0,0,0,0,-1,1343,1275,0,0
126,-251,0,0,0,0,0,0,0,0,0,-1,1350,1275,0,0
133,-251,0,0,0,0,0,0,0,0,0,-1,1357,1275,0,0
140,-251,0,0,0,0,0,0,0,0,0,-1,1364,1275,0,0
147,-251,0,0,0,0,0,0,0,0,0,-1,1371,1275,0,0
154,-251,0,0,0,0,0,0,0,0,0,-1,1378,1275,0,0
161,-251,0,0,0,0,0,0,0,0,0,-1,1385,1275,0,0
168,-251,0,0,0,0,0,0,0,0,0,-1,1392,1275,0,0
175,-251,0,0,0,0,0,0,0,0,0,-1,1399,1275,0,0
182,-251,0,0,0,0,0,0,0,0,0,-1,1406,1275,0,0
189,-251,0,0,0,0,0,0,0,0,0,-1,1413,1275,0,0
196,-251,0,0,0,0,0,0,0,0,0,-1,1420,1275,0,0
203,-251,0,0,0,0,0,0,0,0,0,-1,1427,1275,0,0
210,-251,0,0,0,0,0,0,0,0,0,-1,1434,1275,0,0
217,-251,0,0,0,0,0,0,0,0,0,-1,1441,1275,0,0
224,-251,0,0,0,0,0,0,0,0,0,-1,1448,1275,0,0
231,-251,0,0,0,0,0,0,0,0,0,-1,1455,1275,0,0
238,-251,0,0,0,0,0,0,0,0,0,-1,1462,1275,0,0
245,-251,0,0,0,0,0,0,0,0,0,-1,1469,1275,0,0
252,-251,0,0,0,0,0,0,0,0,0,-1,1476,1275,0,0
259,-251,0,0,0,0,0,0,0,0,0,-1,1483,1275,0,0
266,-251,0,0,0,0,0,0,0,0,0,-1,1490,1275,0,0
273,-251,0,0,0,0,0,0,0,0,0,-1,1497,1275,0,0
280,-251,0,0,0,0,0,0,0,0,0,-1,1504,1275,0,0
287,-251,0,0,0,0,0,0,0,0,0,-1,1511,1275,0,0
294,-251,0,0,0,0,0,0,0,0,0,-1,1518,1275,0,0
301,-251,0,0,0,0,0,0,0,0,0,-1,1525,1275,0,0
308,-251,0,0,0,0,0,0,0,0,0,-1,1532,1275,0,0
315,-251,0,0,0,0,0,0,0,0,0,-1,1539,1275,0,0
322,-251,0,0,0,0,0,0,0,0,0,-1,1546,1275,0,0
329,-251,0,0,0,0,0,0,0,0,0,-1,1553,1275,0,0
336,-251,0,0,0,0,0,0,0,0,0,-1,1560,1275,0,0
343,-251,0,0,0,0,0,0,0,0,0,-1,1567,1275,0,0
350,-251,0,0,0,0,0,0,0,0,0,-1,1574,1275,0,0
357,-251,0,0,0,0,0,0,0,0,0,-1,1581,1275,0,0
364,-251,0,0,0,0,0,0,0,0,0,-1,1588,1275,0,0
371,-251,0,0,0,0,0,0,0,0,0,-1,1595,1275,0,0
378,-251,0,0,0,0,0,0,0,0,0,-1,1602,1275,0,0
385,-251,0,0,0,0,0,0,0,0,0,-1,1609,1275,0,0
392,-251,0,0,0,0,0,0,0,0,0,-1,1616,1275,0,0
399,-251,0,0,0,0,0,0,0,0,0,-1,1623,1275,0,0
406,-251,0,0,0,0,0,0,0,0,0,-1,1630,1275,0,0
413,-251,0,0,0,0,0,0,0,0,0,-1,1637,1275,0,0
420,-251,0,0,0,0,0,0,0,0,0,-1,1644,1275,0,0
427,-251,0,0,0,0,0,0,0,0,0,-1,1651,1275,0,0
434,-251,0,0,0,0,0,0,0,0,0,-1,1658,1275,0,0
441,-251,0,0,0,0,0,0,0,0,0,-1,1665,1275,0,0
448,-251,0,0,0,0,0,0,0,0,0,-1,1672,1275,0,0
455,-251,0,0,0,0,0,0,0,0,0,-1,1679,1275,0,0
462,-251,0,0,0,0,0,0,0,0,0,-1,1686,1275,0,0
469,-251,0,0,0,0,0,0,0,0,0,-1,1693,1275,0,0
476,-251,0,0,0,0,0,0,0,0,0,-1,1700,1275,0,0
483,-251,0,0,0,0,0,0,0,0,0,-1,1707,1275,0,0
490,-251,0,0,0,0,0,0,0,0,0,-1,1714,1275,0,0
497,-251,0,0,0,0,0,0,0,0,0,-1,1721,1275,0,0
504,-251,0,0,0,0,0,0,0,0,0,-1,1728,1275,0,0
511,-251,0,0,0,0,0,0,0,0,0,-1,1735,1275,0,0
518,-251,0,0,0,0,0,0,0,0,0,-1,1742,1275,0,0
525,-251,0,0,0,0,0,0,0,0,0,-1,1749,1275,0,0
532,-251,0,0,0,0,0,0,0,0,0,-1,1756,1275,0,0
539,-251,0,0,0,0,0,0,0,0,0,-1,1763,1275,0,0
546,-251,0,0,0,0,0,0,0,0,0,-1,1770,1275,0,0
553,-251,0,0,0,0,0,0,0,0,0,-1,1777,1275,0,0
560,-251,0,0,0,0,0,0,0,0,0,-1,1784,1275,0,0
567,-251,0,0,0,0,0,0,0,0,0,-1,1791,1275,0,0
574,-251,0,0,0,0,0,0,0,0,0,-1,1798,1275,0,0
581,-251,0,0,0,0,0,0,0,0,0,-1,1805,1275,0,0
588,-251,0,0,0,0,0,0,0,0,0,-1,1812,1275,0,0
595,-251,0,0,0,0,0,0,0,0,0,-1,1819,1275,0,0
602,-251,0,0,0,0,0,0,0,0,0,-1,1826,1275,0,0
609,-251,48.2865,2.6908,0.00484387,0.0060149,0.00197448,0.00748885,0.00336991,0.929539,0.00433089,0.0312109,1833,1275,48.2865,-2.69077
616,-251,48.2874,2.60583,0.00270083,0.00345122,0.000406856,0.00362947,0.00252258,1.15786,0.00214795,0.0266217,1840,1275,48.2874,-2.60583
623,-251,48.2871,2.65308,-9.51924e-05,0.00139993,-0.0013193,0.00216874,-0.000864006,-1.04316,0.00180416,0.0238235,1847,1275,48.2872,-2.65312
630,-251,48.1832,2.56091,-0.00313412,-6.7319e-05,-0.00289987,0.00167961,-0.00488105,-1.0286,0.00393526,0.0352352,1854,1275,48.1832,-2.56092
637,-251,48.2426,2.46606,-0.00490222,-0.000506097,-0.00359353,0.00150831,-0.00691663,-1.05988,0.00518747,0.0400733,1861,1275,48.2425,-2.46607
644,-251,48.0652,2.56665,-0.00474457,-0.000506661,-0.00323502,0.0012416,-0.00649283,-1.07534,0.00479629,0.0436877,1868,1275,48.0652,-2.56671
651,-251,47.7788,2.48083,-0.00428245,-0.000389366,-0.00296418,0.00121027,-0.00588209,-1.07593,0.0043809,0.0499934,1875,1275,47.7788,-2.48078
658,-251,47.2648,1.42944,0,0,0,0,0,0,0,-1,1882,1275,47.2648,-1.42949
665,-251,32.9579,2.60229,0,0,0,0,0,0,0,-1,1889,1275,32.9579,-2.60231
672,-251,26.0721,4.53064,0,0,0,0,0,0,0,-1,1896,1275,26.0721,-4.53063
679,-251,29.1344,8.63782,0,0,0,0,0,0,0,-1,1903,1275,29.1344,-8.63778
686,-251,36.3082,10.104,0,0,0,0,0,0,0,-1,1910,1275,36.3083,-10.104
693,-251,36.2798,9.64478,-0.00250804,-0.000235583,-0.000398526,-0.00016772,-0.0025759,-1.40213,0.00166418,0.014279,1917,1275,36.2798,-9.64472
700,-251,36.2684,9.16492,-0.000926639,-0.000482825,0.000296289,-0.000334557,-0.00107491,1.10681,0.000635168,0.00917394,1924,1275,36.2684,-9.16489
707,-251,36.2853,8.68372,0.000186404,-0.00041611,0.000685446,0.000633874,-0.00086358,0.578352,0.00086794,0.0110747,1931,1275,36.2852,-8.68374
714,-251,36.2898,8.2301,0.000306852,-0.000584086,0.000888231,0.000855061,-0.00113229,0.552965,0.00115112,0.0139466,1938,1275,36.2898,-8.23008
721,-251,36.2056,7.8175,0.000266909,-0.000119619,0.000930158,0.00102367,-0.000876378,0.682968,0.00109809,0.0188539,1945,1275,36.2055,-7.81756
728,-251,36.1722,7.40747,0.000468163,0.000480394,0.000903074,0.00137737,-0.000428816,0.788784,0.00108968,0.0223074,1952,1275,36.1722,-7.40743
735,-251,36.2151,6.89026,0.0012453,0.00120639,0.000670068,0.0018962,0.000555497,0.770885,0.00112562,0.0189753,1959,1275,36.2151,-6.89025
742,-251,36.1392,6.51233,0.0028326,0.00213626,0.000147579,0.00286259,0.00210628,0.200457,0.00171288,0.0176074,1966,1275,36.1391,-6.51228
749,-251,35.9346,6.22864,0.00574081,0.0033929,-0.000758818,0.0059647,0.00316901,-0.286913,0.00344597,0.034804,1973,1275,35.9346,-6.22867
756,-251,35.7916,5.99377,0,0,0,0,0,0,0,-1,1980,1275,35.7916,-5.99381
763,-251,36.1431,5.46045,0,0,0,0,0,0,0,-1,1987,1275,36.143,-5.46041
770,-251,37.6879,3.92712,0,0,0,0,0,0,0,-1,1994,1275,37.6878,-3.92713
777,-251,31.5731,4.33252,0,0,0,0,0,0,0,-1,2001,1275,31.5731,-4.33251
784,-251,32.0776,5.78247,0,0,0,0,0,0,0,-1,2008,1275,32.0776,-5.78247
791,-251,0,0,0,0,0,0,0,0,0,-1,2015,1275,0,0
798,-251,0,0,0,0,0,0,0,0,0,-1,2022,1275,0,0
805,-251,0,0,0,0,0,0,0,0,0,-1,2029,1275,0,0
812,-251,0,0,0,0,0,0,0,0,0,-1,2036,1275,0,0
-700,-258,0,0,0,0,0,0,0,0,0,-1,524,1282,0,0
-693,-258,0,0,0,0,0,0,0,0,0,-1,531,1282,0,0
-686,-258,0,0,0,0,0,0,0,0,0,-1,538,1282,0,0
-679,-258,0,0,0,0,0,0,0,0,0,-1,545,1282,0,0
-672,-258,0,0,0,0,0,0,0,0,0,-1,552,1282,0,0
-665,-258,-38.6733,-7.33057,0,0,0,0,0,0,0,-1,559,1282,-38.6733,7.33057
-658,-258,-38.2619,-5.3175,0,0,0,0,0,0,0,-1,566,1282,-38.2619,5.31746
-651,-258,-38.0291,-3.97766,0,0,0,0,0,0,0,-1,573,1282,-38.0291,3.97769
-644,-258,-37.8869,-2.79016,0,0,0,0,0,0,0,-1,580,1282,-37.8869,2.79021
-637,-258,-23.9147,1.9967,0,0,0,0,0,0,0,-1,587,1282,-23.9147,-1.99675
-630,-258,-23.5231,2.35852,0,0,0,0,0,0,0,-1,594,1282,-23.5231,-2.35846
-623,-258,-21.9356,2.71179,0,0,0,0,0,0,0,-1,601,1282,-21.9356,-2.71179
-616,-258,-22.0694,3.32324,0.00762619,0.0145303,0.0175055,0.0289208,-0.00676436,0.882748,0.0218866,0.0371277,608,1282,-22.0694,-3.32324
-609,-258,-22.113,3.92078,0.00473894,0.00769495,0.00836788,0.0147144,-0.00228047,0.872811,0.0106514,0.0183005,615,1282,-22.113,-3.92078
-602,-258,-22.1682,4.45398,0.00248875,0.00308809,0.00256442,0.00537029,0.00020655,0.843562,0.00351337,0.0141289,622,1282,-22.1682,-4.45395
-595,-258,-22.1957,4.95691,0.0022473,0.00183107,0.00189726,0.00394782,0.000130548,0.73077,0.00258946,0.0119362,629,1282,-22.1957,-4.95693
-588,-258,-22.1906,5.45764,0.00232935,0.000717042,0.00145412,0.00318583,-0.000139437,0.532293,0.00217186,0.0132982,636,1282,-22.1906,-5.45763
-581,-258,-22.1927,5.93188,0.00273793,-0.000314055,0.001173,0.00313666,-0.000712793,0.327675,0.00236479,0.0157848,643,1282,-22.1927,-5.93192
-574,-258,-22.1874,6.43335,0.00328576,-0.00118296,0.000987487,0.00349424,-0.00139145,0.208072,0.00290654,0.0164429,650,1282,-22.1874,-6.43337
-567,-258,-22.2308,6.99023,0.0039208,-0.00170052,0.000884744,0.00405677,-0.00183648,0.152481,0.00348203,0.0154057,657,1282,-22.2309,-6.99025
-560,-258,-22.241,7.51538,0.00380168,-0.00154511,0.000906158,0.00395108,-0.00169451,0.1634,0.00334515,0.0380648,664,1282,-22.241,-7.51533
-553,-258,-22.1691,8.05029,0,0,0,0,0,0,0,-1,671,1282,-22.169,-8.05031
-546,-258,-14.2231,5.92029,0,0,0,0,0,0,0,-1,678,1282,-14.2231,-5.92028
-539,-258,-10.2228,4.05823,0,0,0,0,0,0,0,-1,685,1282,-10.2228,-4.05823
-532,-258,-10.2173,-0.353882,0,0,0,0,0,0,0,-1,692,1282,-10.2173,0.353836
-525,-258,-21.8661,-1.5929,0,0,0,0,0,0,0,-1,699,1282,-21.8661,1.59285
-518,-258,-29.2484,0.123169,0,0,0,0,0,0,0,-1,706,1282,-29.2484,-0.123186
-511,-258,-23.5061,1.16833,0,0,0,0,0,0,0,-1,713,1282,-23.5061,-1.16833
-504,-258,-22.9178,0.484131,0,0,0,0,0,0,0,-1,720,1282,-22.9178,-0.484106
-497,-258,-17.8047,0.730469,0,0,0,0,0,0,0,-1,727,1282,-17.8048,-0.730489
-490,-258,-15.4346,0.632935,0,0,0,0,0,0,0,-1,734,1282,-15.4346,-0.632917
-483,-258,0,0,0,0,0,0,0,0,0,-1,741,1282,0,0
-476,-258,0,0,0,0,0,0,0,0,0,-1,748,1282,0,0
-469,-258,0,0,0,0,0,0,0,0,0,-1,755,1282,0,0
-462,-258,0,0,0,0,0,0,0,0,0,-1,762,1282,0,0
-455,-258,0,0,0,0,0,0,0,0,0,-1,769,1282,0,0
-448,-258,0,0,0,0,0,0,0,0,0,-1,776,1282,0,0
-441,-258,0,0,0,0,0,0,0,0,0,-1,783,1282,0,0
-434,-258,0,0,0,0,0,0,0,0,0,-1,790,1282,0,0
-427,-258,0,0,0,0,0,0,0,0,0,-1,797,1282,0,0
-420,-258,0,0,0,0,0,0,0,0,0,-1,804,1282,0,0
-413,-258,0,0,0,0,0,0,0,0,0,-1,811,1282,0,0
-406,-258,0,0,0,0,0,0,0,0,0,-1,818,1282,0,0
-399,-258,0,0,0,0,0,0,0,0,0,-1,825,1282,0,0
-392,-258,0,0,0,0,0,0,0,0,0,-1,832,1282,0,0
-385,-258,0,0,0,0,0,0,0,0,0,-1,839,1282,0,0
-378,-258,0,0,0,0,0,0,0,0,0,-1,846,1282,0,0
-371,-258,0,0,0,0,0,0,0,0,0,-1,853,1282,0,0
-364,-258,0,0,0,0,0,0,0,0,0,-1,860,1282,0,0
-357,-258,0,0,0,0,0,0,0,0,0,-1,867,1282,0,0
-350,-258,0,0,0,0,0,0,0,0,0,-1,874,1282,0,0
-343,-258,0,0,0,0,0,0,0,0,0,-1,881,1282,0,0
-336,-258,0,0,0,0,0,0,0,0,0,-1,888,1282,0,0
-329,-258,0,0,0,0,0,0,0,0,0,-1,895,1282,0,0
-322,-258,0,0,0,0,0,0,0,0,0,-1,902,1282,0,0
-315,-258,0,0,0,0,0,0,0,0,0,-1,909,1282,0,0
-308,-258,0,0,0,0,0,0,0,0,0,-1,916,1282,0,0
-301,-258,0,0,0,0,0,0,0,0,0,-1,923,1282,0,0
-294,-258,0,0,0,0,0,0,0,0,0,-1,930,1282,0,0
-287,-258,0,0,0,0,0,0,0,0,0,-1,937,1282,0,0
-280,-258,0,0,0,0,0,0,0,0,0,-1,944,1282,0,0
-273,-258,0,0,0,0,0,0,0,0,0,-1,951,1282,0,0
-266,-258,0,0,0,0,0,0,0,0,0,-1,958,1282,0,0
-259,-258,0,0,0,0,0,0,0,0,0,-1,965,1282,0,0
-252,-258,0,0,0,0,0,0,0,0,0,-1,972,1282,0,0
-245,-258,0,0,0,0,0,0,0,0,0,-1,979,1282,0,0
-238,-258,0,0,0,0,0,0,0,0,0,-1,986,1282,0,0
-231,-258,0,0,0,0,0,0,0,0,0,-1,993,1282,0,0
-224,-258,0,0,0,0,0,0,0,0,0,-1,1000,1282,0,0
-217,-258,0,0,0,0,0,0,0,0,0,-1,1007,1282,0,0
-210,-258,0,0,0,0,0,0,0,0,0,-1,1014,1282,0,0
-203,-258,0,0,0,0,0,0,0,0,0,-1,1021,1282,0,0
-196,-258,0,0,0,0,0,0,0,0,0,-1,1028,1282,0,0
-189,-258,0,0,0,0,0,0,0,0,0,-1,1035,1282,0,0
-182,-258,0,0,0,0,0,0,0,0,0,-1,1042,1282,0,0
-175,-258,0,0,0,0,0,0,0,0,0,-1,1049,1282,0,0
-168,-258,0,0,0,0,0,0,0,0,0,-1,1056,1282,0,0
-161,-258,0,0,0,0,0,0,0,0,0,-1,1063,1282,0,0
-154,-258,0,0,0,0,0,0,0,0,0,-1,1070,1282,0,0
-147,-258,0,0,0,0,0,0,0,0,0,-1,1077,1282,0,0
-140,-258,0,0,0,0,0,0,0,0,0,-1,1084,1282,0,0
-133,-258,0,0,0,0,0,0,0,0,0,-1,1091,1282,0,0
-126,-258,0,0,0,0,0,0,0,0,0,-1,1098,1282,0,0
-119,-258,0,0,0,0,0,0,0,0,0,-1,1105,1282,0,0
-112,-258,0,0,0,0,0,0,0,0,0,-1,1112,1282,0,0
-105,-258,0,0,0,0,0,0,0,0,0,-1,1119,1282,0,0
-98,-258,0,0,0,0,0,0,0,0,0,-1,1126,1282,0,0
-91,-258,0,0,0,0,0,0,0,0,0,-1,1133,1282,0,0
-84,-258,0,0,0,0,0,0,0,0,0,-1,1140,1282,0,0
-77,-258,0,0,0,0,0,0,0,0,0,-1,1147,1282,0,0
-70,-258,0,0,0,0,0,0,0,0,0,-1,1154,1282,0,0
-63,-258,0,0,0,0,0,0,0,0,0,-1,1161,1282,0,0
-56,-258,0,0,0,0,0,0,0,0,0,-1,1168,1282,0,0
-49,-258,0,0,0,0,0,0,0,0,0,-1,1175,1282,0,0
-42,-258,0,0,0,0,0,0,0,0,0,-1,1182,1282,0,0
-35,-258,0,0,0,0,0,0,0,0,0,-1,1189,1282,0,0
-28,-258,0,0,0,0,0,0,0,0,0,-1,1196,1282,0,0
-21,-258,0,0,0,0,0,0,0,0,0,-1,1203,1282,0,0
-14,-258,0,0,0,0,0,0,0,0,0,-1,1210,1282,0,0
-7,-258,0,0,0,0,0,0,0,0,0,-1,1217,1282,0,0
0,-258,0,0,0,0,0,0,0,0,0,-1,1224,1282,0,0
7,-258,0,0,0,0,0,0,0,0,0,-1,1231,1282,0,0
14,-258,0,0,0,0,0,0,0,0,0,-1,1238,1282,0,0
21,-258,0,0,0,0,0,0,0,0,0,-1,1245,1282,0,0
28,-258,0,0,0,0,0,0,0,0,0,-1,1252,1282,0,0
35,-258,0,0,0,0,0,0,0,0,0,-1,1259,1282,0,0
42,-258,0,0,0,0,0,0,0,0,0,-1,1266,1282,0,0
49,-258,0,0,0,0,0,0,0,0,0,-1,1273,1282,0,0
56,-258,0,0,0,0,0,0,0,0,0,-1,1280,1282,0,0
63,-258,0,0,0,0,0,0,0,0,0,-1,1287,1282,0,0
70,-258,0,0,0,0,0,0,0,0,0,-1,1294,1282,0,0
77,-258,0,0,0,0,0,0,0,0,0,-1,1301,1282,0,0
84,-258,0,0,0,0,0,0,0,0,0,-1,1308,1282,0,0
91,-258,0,0,0,0,0,0,0,0,0,-1,1315,1282,0,0
98,-258,0,0,0,0,0,0,0,0,0,-1,1322,1282,0,0
105,-258,0,0,0,0,0,0,0,0,0,-1,1329,1282,0,0
112,-258,0,0,0,0,0,0,0,0,0,-1,1336,1282,0,0
119,-258,0,0,0,0,0,0,0,0,0,-1,1343,1282,0,0
126,-258,0,0,0,0,0,0,0,0,0,-1,1350,1282,0,0
133,-258,0,0,0,0,0,0,0,0,0,-1,1357,1282,0,0
140,-258,0,0,0,0,0,0,0,0,0,-1,1364,1282,0,0
147,-258,0,0,0,0,0,0,0,0,0,-1,1371,1282,0,0
154,-258,0,0,0,0,0,0,0,0,0,-1,1378,1282,0,0
161,-258,0,0,0,0,0,0,0,0,0,-1,1385,1282,0,0
168,-258,0,0,0,0,0,0,0,0,0,-1,1392,1282,0,0
175,-258,0,0,0,0,0,0,0,0,0,-1,1399,1282,0,0
182,-258,0,0,0,0,0,0,0,0,0,-1,1406,1282,0,0
189,-258,0,0,0,0,0,0,0,0,0,-1,1413,1282,0,0
196,-258,0,0,0,0,0,0,0,0,0,-1,1420,1282,0,0
203,-258,0,0,0,0,0,0,0,0,0,-1,1427,1282,0,0
210,-258,0,0,0,0,0,0,0,0,0,-1,1434,1282,0,0
217,-258,0,0,0,0,0,0,0,0,0,-1,1441,1282,0,0
224,-258,0,0,0,0,0,0,0,0,0,-1,1448,1282,0,0
231,-258,0,0,0,0,0,0,0,0,0,-1,1455,1282,0,0
238,-258,0,0,0,0,0,0,0,0,0,-1,1462,1282,0,0
245,-258,0,0,0,0,0,0,0,0,0,-1,1469,1282,0,0
252,-258,0,0,0,0,0,0,0,0,0,-1,1476,1282,0,0
259,-258,0,0,0,0,0,0,0,0,0,-1,1483,1282,0,0
266,-258,0,0,0,0,0,0,0,0,0,-1,1490,1282,0,0
273,-258,0,0,0,0,0,0,0,0,0,-1,1497,1282,0,0
280,-258,0,0,0,0,0,0,0,0,0,-1,1504,1282,0,0
287,-258,0,0,0,0,0,0,0,0,0,-1,1511,1282,0,0
294,-258,0,0,0,0,0,0,0,0,0,-1,1518,1282,0,0
301,-258,0,0,0,0,0,0,0,0,0,-1,1525,1282,0,0
308,-258,0,0,0,0,0,0,0,0,0,-1,1532,1282,0,0
315,-258,0,0,0,0,0,0,0,0,0,-1,1539,1282,0,0
322,-258,0,0,0,0,0,0,0,0,0,-1,1546,1282,0,0
329,-258,0,0,0,0,0,0,0,0,0,-1,1553,1282,0,0
336,-258,0,0,0,0,0,0,0,0,0,-1,1560,1282,0,0
343,-258,0,0,0,0,0,0,0,0,0,-1,1567,1282,0,0
350,-258,0,0,0,0,0,0,0,0,0,-1,1574,1282,0,0
357,-258,0,0,0,0,0,0,0,0,0,-1,1581,1282,0,0
364,-258,0,0,0,0,0,0,0,0,0,-1,1588,1282,0,0
371,-258,0,0,0,0,0,0,0,0,0,-1,1595,1282,0,0
378,-258,0,0,0,0,0,0,0,0,0,-1,1602,1282,0,0
385,-258,0,0,0,0,0,0,0,0,0,-1,1609,1282,0,0
392,-258,0,0,0,0,0,0,0,0,0,-1,1616,1282,0,0
399,-258,0,0,0,0,0,0,0,0,0,-1,1623,1282,0,0
406,-258,0,0,0,0,0,0,0,0,0,-1,1630,1282,0,0
413,-258,0,0,0,0,0,0,0,0,0,-1,1637,1282,0,0
420,-258,0,0,0,0,0,0,0,0,0,-1,1644,1282,0,0
427,-258,0,0,0,0,0,0,0,0,0,-1,1651,1282,0,0
434,-258,0,0,0,0,0,0,0,0,0,-1,1658,1282,0,0
441,-258,0,0,0,0,0,0,0,0,0,-1,1665,1282,0,0
448,-258,0,0,0,0,0,0,0,0,0,-1,1672,1282,0,0
455,-258,0,0,0,0,0,0,0,0,0,-1,1679,1282,0,0
462,-258,0,0,0,0,0,0,0,0,0,-1,1686,1282,0,0
469,-258,0,0,0,0,0,0,0,0,0,-1,1693,1282,0,0
476,-258,0,0,0,0,0,0,0,0,0,-1,1700,1282,0,0
483,-258,0,0,0,0,0,0,0,0,0,-1,1707,1282,0,0
490,-258,0,0,0,0,0,0,0,0,0,-1,1714,1282,0,0
497,-258,0,0,0,0,0,0,0,0,0,-1,1721,1282,0,0
504,-258,0,0,0,0,0,0,0,0,0,-1,1728,1282,0,0
511,-258,0,0,0,0,0,0,0,0,0,-1,1735,1282,0,0
518,-258,0,0,0,0,0,0,0,0,0,-1,1742,1282,0,0
525,-258,0,0,0,0,0,0,0,0,0,-1,1749,1282,0,0
532,-258,0,0,0,0,0,0,0,0,0,-1,1756,1282,0,0
539,-258,0,0,0,0,0,0,0,0,0,-1,1763,1282,0,0
546,-258,0,0,0,0,0,0,0,0,0,-1,1770,1282,0,0
553,-258,0,0,0,0,0,0,0,0,0,-1,1777,1282,0,0
560,-258,0,0,0,0,0,0,0,0,0,-1,1784,1282,0,0
567,-258,0,0,0,0,0,0,0,0,0,-1,1791,1282,0,0
574,-258,0,0,0,0,0,0,0,0,0,-1,1798,1282,0,0
581,-258,0,0,0,0,0,0,0,0,0,-1,1805,1282,0,0
588,-258,0,0,0,0,0,0,0,0,0,-1,1812,1282,0,0
595,-258,0,0,0,0,0,0,0,0,0,-1,1819,1282,0,0
602,-258,0,0,0,0,0,0,0,0,0,-1,1826,1282,0,0
609,-258,48.2736,2.73743,0.00196196,0.00350921,0.00127483,0.00422678,0.00124438,1.05812,0.00250816,0.0264886,1833,1282,48.2735,-2.73745
616,-258,48.2802,2.72729,0.000310541,0.00070814,-0.000190915,0.000784966,0.000233715,-1.18821,0.000465397,0.0252099,1840,1282,48.2802,-2.72729
623,-258,48.278,2.73828,-0.0018517,-0.00135002,-0.00166785,8.57463e-05,-0.00328747,-0.860038,0.00222078,0.036432,1847,1282,48.2779,-2.73825
630,-258,48.438,2.6134,-0.0039032,-0.00237719,-0.00284159,-0.000197954,-0.00608244,-0.916561,0.00399061,0.0441498,1854,1282,48.438,-2.6134
637,-258,48.5161,2.45605,-0.00464471,-0.00215475,-0.00317727,1.27489e-05,-0.00681221,-0.972125,0.00454573,0.0431461,1861,1282,48.5161,-2.45608
644,-258,48.4061,2.58655,-0.00424428,-0.00175577,-0.0028788,0.00013616,-0.00613621,-0.989381,0.00413694,0.0464462,1868,1282,48.4061,-2.5866
651,-258,48.6027,2.66138,0,0,0,0,0,0,0,-1,1875,1282,48.6027,-2.66142
658,-258,45.4424,3.1405,0,0,0,0,0,0,0,-1,1882,1282,45.4423,-3.14046
665,-258,35.4747,1.1864,0,0,0,0,0,0,0,-1,1889,1282,35.4747,-1.18637
672,-258,22.703,2.80957,0,0,0,0,0,0,0,-1,1896,1282,22.703,-2.80962
679,-258,26.8693,8.19543,0,0,0,0,0,0,0,-1,1903,1282,26.8692,-8.19548
686,-258,35.8782,10.1105,0,0,0,0,0,0,0,-1,1910,1282,35.8782,-10.1105
693,-258,35.8436,9.64026,-0.00251433,-0.000488219,-0.000110236,-0.000482239,-0.00252031,-1.5166,0.00154476,0.0136217,1917,1282,35.8437,-9.6403
700,-258,35.8214,9.1709,-0.000946373,-0.000604687,0.000568459,-0.000181954,-0.00136911,0.931373,0.000858537,0.00935343,1924,1282,35.8214,-9.17094
707,-258,35.8383,8.70264,8.3619e-06,-0.000380439,0.000885351,0.000720404,-0.00109248,0.677326,0.00105399,0.0113373,1931,1282,35.8383,-8.70267
714,-258,35.8265,8.25928,3.22041e-05,-0.000470743,0.00101751,0.000828858,-0.0012674,0.664253,0.00121907,0.0115996,1938,1282,35.8265,-8.25923
721,-258,35.7976,7.79553,2.55241e-05,4.33749e-05,0.000953666,0.000988157,-0.000919258,0.790078,0.00110149,0.0167514,1945,1282,35.7976,-7.7955
728,-258,35.7383,7.37793,0.00016461,0.000617954,0.00086786,0.00128825,-0.000505692,0.913137,0.00106808,0.0167222,1952,1282,35.7383,-7.37788
735,-258,35.7513,6.92139,0.000862641,0.00133465,0.000577779,0.00172277,0.000474526,0.979292,0.00102753,0.0164199,1959,1282,35.7513,-6.92142
742,-258,35.7152,6.51953,0.00237936,0.00228024,-4.10158e-05,0.00239413,0.00226547,-0.345679,0.00155498,0.0180404,1966,1282,35.7152,-6.51958
749,-258,35.5289,6.19971,0.00533041,0.00360325,-0.00114173,0.00589837,0.00303529,-0.461612,0.00340591,0.0390085,1973,1282,35.529,-6.19972
756,-258,35.3672,5.73376,0,0,0,0,0,0,0,-1,1980,1282,35.3672,-5.73381
763,-258,34.3058,5.43958,0,0,0,0,0,0,0,-1,1987,1282,34.3058,-5.43955
770,-258,35.0776,4.69446,0,0,0,0,0,0,0,-1,1994,1282,35.0776,-4.6944
777,-258,31.912,4.83093,0,0,0,0,0,0,0,-1,2001,1282,31.912,-4.8309
784,-258,32.6525,6.43091,0,0,0,0,0,0,0,-1,2008,1282,32.6525,-6.43091
791,-258,0,0,0,0,0,0,0,0,0,-1,2015,1282,0,0
798,-258,0,0,0,0,0,0,0,0,0,-1,2022,1282,0,0
805,-258,0,0,0,0,0,0,0,0,0,-1,2029,1282,0,0
812,-258,0,0,0,0,0,0,0,0,0,-1,2036,1282,0,0
-700,-265,0,0,0,0,0,0,0,0,0,-1,524,1289,0,0
-693,-265,0,0,0,0,0,0,0,0,0,-1,531,1289,0,0
-686,-265,0,0,0,0,0,0,0,0,0,-1,538,1289,0,0
-679,-265,0,0,0,0,0,0,0,0,0,-1,545,1289,0,0
-672,-265,0,0,0,0,0,0,0,0,0,-1,552,1289,0,0
-665,-265,-22.1805,0.142822,0,0,0,0,0,0,0,-1,559,1289,-22.1805,-0.142782
-658,-265,-21.2094,0.122192,0,0,0,0,0,0,0,-1,566,1289,-21.2094,-0.122208
-651,-265,-20.4794,0.275879,0,0,0,0,0,0,0,-1,573,1289,-20.4794,-0.275842
-644,-265,-24.5891,2.23987,0,0,0,0,0,0,0,-1,580,1289,-24.5891,-2.23987
-637,-265,-24.1727,1.51135,0,0,0,0,0,0,0,-1,587,1289,-24.1727,-1.51131
-630,-265,-23.8566,0.68103,0,0,0,0,0,0,0,-1,594,1289,-23.8566,-0.681087
-623,-265,-21.2867,2.52612,0,0,0,0,0,0,0,-1,601,1289,-21.2867,-2.52613
-616,-265,-21.5721,3.23022,0,0,0,0,0,0,0,-1,608,1289,-21.5721,-3.23017
-609,-265,-21.6,3.89734,0.00495113,0.00748636,0.00770255,0.0140249,-0.00158742,0.866953,0.0099215,0.0198218,615,1289,-21.6,-3.89736
-602,-265,-21.6442,4.46045,0.00280114,0.00349486,0.00281402,0.00598332,0.000312683,0.846719,0.00388884,0.0151456,622,1289,-21.6443,-4.46043
-595,-265,-21.6711,4.98364,0.00237093,0.0022245,0.00204592,0.00434494,0.000250486,0.767513,0.00281685,0.0125404,629,1289,-21.6711,-4.98368
-588,-265,-21.6823,5.48987,0.00222048,0.00111244,0.00150608,0.00327121,6.17196e-05,0.609152,0.00216052,0.0112662,636,1289,-21.6822,-5.48983
-581,-265,-21.6965,5.96753,0.00236005,0.00010392,0.00114257,0.0028376,-0.000373631,0.395894,0.00202778,0.0139338,643,1289,-21.6965,-5.96758
-574,-265,-21.713,6.50854,0.00271161,-0.000799245,0.000896967,0.00292749,-0.00101513,0.236192,0.00236385,0.0152934,650,1289,-21.7129,-6.50852
-567,-265,-21.7599,7.04858,0.0032731,-0.00146043,0.000784613,0.00339976,-0.00158709,0.160056,0.00294188,0.0208647,657,1289,-21.7599,-7.04853
-560,-265,-21.8099,7.56372,0.0034118,-0.00154566,0.00084089,0.00355055,-0.00168441,0.163529,0.00308575,0.0235946,664,1289,-21.8099,-7.56372
-553,-265,-21.8193,8.06921,0,0,0,0,0,0,0,-1,671,1289,-21.8193,-8.06924
-546,-265,-21.1743,8.77881,0,0,0,0,0,0,0,-1,678,1289,-21.1743,-8.77881
-539,-265,-13.7668,6.39917,0,0,0,0,0,0,0,-1,685,1289,-13.7668,-6.39915
-532,-265,-8.53998,3.41467,0,0,0,0,0,0,0,-1,692,1289,-8.53996,-3.41473
-525,-265,-12.1317,0.514648,0,0,0,0,0,0,0,-1,699,1289,-12.1317,-0.514634
-518,-265,-24.1604,0.712402,0,0,0,0,0,0,0,-1,706,1289,-24.1604,-0.712425
-511,-265,-23.233,0.791626,0,0,0,0,0,0,0,-1,713,1289,-23.233,-0.791617
-504,-265,-22.3056,0.87085,0,0,0,0,0,0,0,-1,720,1289,-22.3056,-0.87081
-497,-265,-18.689,-0.278442,0,0,0,0,0,0,0,-1,727,1289,-18.689,0.278423
-490,-265,-15.1696,0.492676,0,0,0,0,0,0,0,-1,734,1289,-15.1696,-0.492688
-483,-265,0,0,0,0,0,0,0,0,0,-1,741,1289,0,0
-476,-265,0,0,0,0,0,0,0,0,0,-1,748,1289,0,0
-469,-265,0,0,0,0,0,0,0,0,0,-1,755,1289,0,0
-462,-265,0,0,0,0,0,0,0,0,0,-1,762,1289,0,0
-455,-265,0,0,0,0,0,0,0,0,0,-1,769,1289,0,0
-448,-265,0,0,0,0,0,0,0,0,0,-1,776,1289,0,0
-441,-265,0,0,0,0,0,0,0,0,0,-1,783,1289,0,0
-434,-265,0,0,0,0,0,0,0,0,0,-1,790,1289,0,0
-427,-265,0,0,0,0,0,0,0,0,0,-1,797,1289,0,0
-420,-265,0,0,0,0,0,0,0,0,0,-1,804,1289,0,0
-413,-265,0,0,0,0,0,0,0,0,0,-1,811,1289,0,0
-406,-265,0,0,0,0,0,0,0,0,0,-1,818,1289,0,0
-399,-265,0,0,0,0,0,0,0,0,0,-1,825,1289,0,0
-392,-265,0,0,0,0,0,0,0,0,0,-1,832,1289,0,0
-385,-265,0,0,0,0,0,0,0,0,0,-1,839,1289,0,0
-378,-265,0,0,0,0,0,0,0,0,0,-1,846,1289,0,0
-371,-265,0,0,0,0,0,0,0,0,0,-1,853,1289,0,0
-364,-265,0,0,0,0,0,0,0,0,0,-1,860,1289,0,0
-357,-265,0,0,0,0,0,0,0,0,0,-1,867,1289,0,0
-350,-265,0,0,0,0,0,0,0,0,0,-1,874,1289,0,0
-343,-265,0,0,0,0,0,0,0,0,0,-1,881,1289,0,0
-336,-265,0,0,0,0,0,0,0,0,0,-1,888,1289,0,0
-329,-265,0,0,0,0,0,0,0,0,0,-1,895,1289,0,0
-322,-265,0,0,0,0,0,0,0,0,0,-1,902,1289,0,0
-315,-265,0,0,0,0,0,0,0,0,0,-1,909,1289,0,0
-308,-265,0,0,0,0,0,0,0,0,0,-1,916,1289,0,0
-301,-265,0,0,0,0,0,0,0,0,0,-1,923,1289,0,0
-294,-265,0,0,0,0,0,0,0,0,0,-1,930,1289,0,0
-287,-265,0,0,0,0,0,0,0,0,0,-1,937,1289,0,0
-280,-265,0,0,0,0,0,0,0,0,0,-1,944,1289,0,0
-273,-265,0,0,0,0,0,0,0,0,0,-1,951,1289,0,0
-266,-265,0,0,0,0,0,0,0,0,0,-1,958,1289,0,0
-259,-265,0,0,0,0,0,0,0,0,0,-1,965,1289,0,0
-252,-265,0,0,0,0,0,0,0,0,0,-1,972,1289,0,0
-245,-265,0,0,0,0,0,0,0,0,0,-1,979,1289,0,0
-238,-265,0,0,0,0,0,0,0,0,0,-1,986,1289,0,0
-231,-265,0,0,0,0,0,0,0,0,0,-1,993,1289,0,0
-224,-265,0,0,0,0,0,0,0,0,0,-1,1000,1289,0,0
-217,-265,0,0,0,0,0,0,0,0,0,-1,1007,1289,0,0
-210,-265,0,0,0,0,0,0,0,0,0,-1,1014,1289,0,0
-203,-265,0,0,0,0,0,0,0,0,0,-1,1021,1289,0,0
-196,-265,0,0,0,0,0,0,0,0,0,-1,1028,1289,0,0
-189,-265,0,0,0,0,0,0,0,0,0,-1,1035,1289,0,0
-182,-265,0,0,0,0,0,0,0,0,0,-1,1042,1289,0,0
-175,-265,0,0,0,0,0,0,0,0,0,-1,1049,1289,0,0
-168,-265,0,0,0,0,0,0,0,0,0,-1,1056,1289,0,0
-161,-265,0,0,0,0,0,0,0,0,0,-1,1063,1289,0,0
-154,-265,0,0,0,0,0,0,0,0,0,-1,1070,1289,0,0
-147,-265,0,0,0,0,0,0,0,0,0,-1,1077,1289,0,0
-140,-265,0,0,0,0,0,0,0,0,0,-1,1084,1289,0,0
-133,-265,0,0,0,0,0,0,0,0,0,-1,1091,1289,0,0
-126,-265,0,0,0,0,0,0,0,0,0,-1,1098,1289,0,0
-119,-265,0,0,0,0,0,0,0,0,0,-1,1105,1289,0,0
-112,-265,0,0,0,0,0,0,0,0,0,-1,1112,1289,0,0
-105,-265,0,0,0,0,0,0,0,0,0,-1,1119,1289,0,0
-98,-265,0,0,0,0,0,0,0,0,0,-1,1126,1289,0,0
-91,-265,0,0,0,0,0,0,0,0,0,-1,1133,1289,0,0
-84,-265,0,0,0,0,0,0,0,0,0,-1,1140,1289,0,0
-77,-265,0,0,0,0,0,0,0,0,0,-1,1147,1289,0,0
-70,-265,0,0,0,0,0,0,0,0,0,-1,1154,1289,0,0
-63,-265,0,0,0,0,0,0,0,0,0,-1,1161,1289,0,0
-56,-265,0,0,0,0,0,0,0,0,0,-1,1168,1289,0,0
-49,-265,0,0,0,0,0,0,0,0,0,-1,1175,1289,0,0
-42,-265,0,0,0,0,0,0,0,0,0,-1,1182,1289,0,0
-35,-265,0,0,0,0,0,0,0,0,0,-1,1189,1289,0,0
-28,-265,0,0,0,0,0,0,0,0,0,-1,1196,1289,0,0
-21,-265,0,0,0,0,0,0,0,0,0,-1,1203,1289,0,0
-14,-265,0,0,0,0,0,0,0,0,0,-1,1210,1289,0,0
-7,-265,0,0,0,0,0,0,0,0,0,-1,1217,1289,0,0
0,-265,0,0,0,0,0,0,0,0,0,-1,1224,1289,0,0
7,-265,0,0,0,0,0,0,0,0,0,-1,1231,1289,0,0
14,-265,0,0,0,0,0,0,0,0,0,-1,1238,1289,0,0
21,-265,0,0,0,0,0,0,0,0,0,-1,1245,1289,0,0
28,-265,0,0,0,0,0,0,0,0,0,-1,1252,1289,0,0
35,-265,0,0,0,0,0,0,0,0,0,-1,1259,1289,0,0
42,-265,0,0,0,0,0,0,0,0,0,-1,1266,1289,0,0
49,-265,0,0,0,0,0,0,0,0,0,-1,1273,1289,0,0
56,-265,0,0,0,0,0,0,0,0,0,-1,1280,1289,0,0
63,-265,0,0,0,0,0,0,0,0,0,-1,1287,1289,0,0
70,-265,0,0,0,0,0,0,0,0,0,-1,1294,1289,0,0
77,-265,0,0,0,0,0,0,0,0,0,-1,1301,1289,0,0
84,-265,0,0,0,0,0,0,0,0,0,-1,1308,1289,0,0
91,-265,0,0,0,0,0,0,0,0,0,-1,1315,1289,0,0
98,-265,0,0,0,0,0,0,0,0,0,-1,1322,1289,0,0
105,-265,0,0,0,0,0,0,0,0,0,-1,1329,1289,0,0
112,-265,0,0,0,0,0,0,0,0,0,-1,1336,1289,0,0
119,-265,0,0,0,0,0,0,0,0,0,-1,1343,1289,0,0
126,-265,0,0,0,0,0,0,0,0,0,-1,1350,1289,0,0
133,-265,0,0,0,0,0,0,0,0,0,-1,1357,1289,0,0
140,-265,0,0,0,0,0,0,0,0,0,-1,1364,1289,0,0
147,-265,0,0,0,0,0,0,0,0,0,-1,1371,1289,0,0
154,-265,0,0,0,0,0,0,0,0,0,-1,1378,1289,0,0
161,-265,0,0,0,0,0,0,0,0,0,-1,1385,1289,0,0
168,-265,0,0,0,0,0,0,0,0,0,-1,1392,1289,0,0
175,-265,0,0,0,0,0,0,0,0,0,-1,1399,1289,0,0
182,-265,0,0,0,0,0,0,0,0,0,-1,1406,1289,0,0
189,-265,0,0,0,0,0,0,0,0,0,-1,1413,1289,0,0
196,-265,0,0,0,0,0,0,0,0,0,-1,1420,1289,0,0
203,-265,0,0,0,0,0,0,0,0,0,-1,1427,1289,0,0
210,-265,0,0,0,0,0,0,0,0,0,-1,1434,1289,0,0
217,-265,0,0,0,0,0,0,0,0,0,-1,1441,1289,0,0
224,-265,0,0,0,0,0,0,0,0,0,-1,1448,1289,0,0
231,-265,0,0,0,0,0,0,0,0,0,-1,1455,1289,0,0
238,-265,0,0,0,0,0,0,0,0,0,-1,1462,1289,0,0
245,-265,0,0,0,0,0,0,0,0,0,-1,1469,1289,0,0
252,-265,0,0,0,0,0,0,0,0,0,-1,1476,1289,0,0
259,-265,0,0,0,0,0,0,0,0,0,-1,1483,1289,0,0
266,-265,0,0,0,0,0,0,0,0,0,-1,1490,1289,0,0
273,-265,0,0,0,0,0,0,0,0,0,-1,1497,1289,0,0
280,-265,0,0,0,0,0,0,0,0,0,-1,1504,1289,0,0
287,-265,0,0,0,0,0,0,0,0,0,-1,1511,1289,0,0
294,-265,0,0,0,0,0,0,0,0,0,-1,1518,1289,0,0
301,-265,0,0,0,0,0,0,0,0,0,-1,1525,1289,0,0
308,-265,0,0,0,0,0,0,0,0,0,-1,1532,1289,0,0
315,-265,0,0,0,0,0,0,0,0,0,-1,1539,1289,0,0
322,-265,0,0,0,0,0,0,0,0,0,-1,1546,1289,0,0
329,-265,0,0,0,0,0,0,0,0,0,-1,1553,1289,0,0
336,-265,0,0,0,0,0,0,0,0,0,-1,1560,1289,0,0
343,-265,0,0,0,0,0,0,0,0,0,-1,1567,1289,0,0
350,-265,0,0,0,0,0,0,0,0,0,-1,1574,1289,0,0
357,-265,0,0,0,0,0,0,0,0,0,-1,1581,1289,0,0
364,-265,0,0,0,0,0,0,0,0,0,-1,1588,1289,0,0
371,-265,0,0,0,0,0,0,0,0,0,-1,1595,1289,0,0
378,-265,0,0,0,0,0,0,0,0,0,-1,1602,1289,0,0
385,-265,0,0,0,0,0,0,0,0,0,-1,1609,1289,0,0
392,-265,0,0,0,0,0,0,0,0,0,-1,1616,1289,0,0
399,-265,0,0,0,0,0,0,0,0,0,-1,1623,1289,0,0
406,-265,0,0,0,0,0,0,0,0,0,-1,1630,1289,0,0
413,-265,0,0,0,0,0,0,0,0,0,-1,1637,1289,0,0
420,-265,0,0,0,0,0,0,0,0,0,-1,1644,1289,0,0
427,-265,0,0,0,0,0,0,0,0,0,-1,1651,1289,0,0
434,-265,0,0,0,0,0,0,0,0,0,-1,1658,1289,0,0
441,-265,0,0,0,0,0,0,0,0,0,-1,1665,1289,0,0
448,-265,0,0,0,0,0,0,0,0,0,-1,1672,1289,0,0
455,-265,0,0,0,0,0,0,0,0,0,-1,1679,1289,0,0
462,-265,0,0,0,0,0,0,0,0,0,-1,1686,1289,0,0
469,-265,0,0,0,0,0,0,0,0,0,-1,1693,1289,0,0
476,-265,0,0,0,0,0,0,0,0,0,-1,1700,1289,0,0
483,-265,0,0,0,0,0,0,0,0,0,-1,1707,1289,0,0
490,-265,0,0,0,0,0,0,0,0,0,-1,1714,1289,0,0
497,-265,0,0,0,0,0,0,0,0,0,-1,1721,1289,0,0
504,-265,0,0,0,0,0,0,0,0,0,-1,1728,1289,0,0
511,-265,0,0,0,0,0,0,0,0,0,-1,1735,1289,0,0
518,-265,0,0,0,0,0,0,0,0,0,-1,1742,1289,0,0
525,-265,0,0,0,0,0,0,0,0,0,-1,1749,1289,0,0
532,-265,0,0,0,0,0,0,0,0,0,-1,1756,1289,0,0
539,-265,0,0,0,0,0,0,0,0,0,-1,1763,1289,0,0
546,-265,0,0,0,0,0,0,0,0,0,-1,1770,1289,0,0
553,-265,0,0,0,0,0,0,0,0,0,-1,1777,1289,0,0
560,-265,0,0,0,0,0,0,0,0,0,-1,1784,1289,0,0
567,-265,0,0,0,0,0,0,0,0,0,-1,1791,1289,0,0
574,-265,0,0,0,0,0,0,0,0,0,-1,1798,1289,0,0
581,-265,0,0,0,0,0,0,0,0,0,-1,1805,1289,0,0
588,-265,0,0,0,0,0,0,0,0,0,-1,1812,1289,0,0
595,-265,0,0,0,0,0,0,0,0,0,-1,1819,1289,0,0
602,-265,48.2391,2.76672,-0.00506304,0.00339481,-0.00102358,0.00351692,-0.00518516,-1.45206,0.00505483,0.027441,1826,1289,48.2392,-2.76673
609,-265,48.2153,2.69775,-0.00319877,-0.000639395,-0.0010771,-0.000246439,-0.00359172,-1.22097,0.00231671,0.0296287,1833,1289,48.2153,-2.69772
616,-265,48.2809,2.72925,-0.00393271,-0.00383548,-0.00169318,-0.00219021,-0.00557797,-0.79975,0.00324509,0.0362787,1840,1289,48.2809,-2.72925
623,-265,48.3545,2.7323,-0.00474447,-0.0053836,-0.0023634,-0.00267912,-0.00744895,-0.718198,0.00435675,0.048316,1847,1289,48.3545,-2.73227
630,-265,48.632,2.71667,-0.00522484,-0.00538035,-0.00287401,-0.00242753,-0.00817766,-0.771874,0.00484954,0.0462026,1854,1289,48.6319,-2.71668
637,-265,48.8584,2.63245,-0.0047711,-0.00427505,-0.0027946,-0.00171749,-0.00732866,-0.829658,0.00442579,0.0476533,1861,1289,48.8584,-2.6325
644,-265,48.9564,2.50159,0,0,0,0,0,0,0,-1,1868,1289,48.9565,-2.50163
651,-265,45.0878,3.73743,0,0,0,0,0,0,0,-1,1875,1289,45.0877,-3.73741
658,-265,41.7163,3.71619,0,0,0,0,0,0,0,-1,1882,1289,41.7163,-3.71624
665,-265,34.7902,1.43164,0,0,0,0,0,0,0,-1,1889,1289,34.7901,-1.43162
672,-265,20.0045,6.62671,0,0,0,0,0,0,0,-1,1896,1289,20.0045,-6.62668
679,-265,35.3928,10.6049,0,0,0,0,0,0,0,-1,1903,1289,35.3929,-10.6048
686,-265,35.3842,10.1177,-0.00331334,-0.000945372,-0.00109574,-0.000516143,-0.00374257,-1.19744,0.00234204,0.036015,1910,1289,35.3842,-10.1176
693,-265,35.375,9.64832,-0.00238343,-0.000760498,-2.13862e-05,-0.000760217,-0.00238372,-1.55762,0.001406,0.00996898,1917,1289,35.375,-9.6483
700,-265,35.3563,9.19202,-0.000916579,-0.000676954,0.000646481,-0.000139276,-0.00145426,0.877023,0.000926575,0.010972,1924,1289,35.3563,-9.19202
707,-265,35.3588,8.72839,-0.000165527,-0.000300635,0.00093989,0.000709233,-0.0011754,0.749523,0.00109913,0.0111962,1931,1289,35.3587,-8.72839
714,-265,35.3424,8.26208,-0.000216336,-0.000286927,0.00105774,0.000806699,-0.00130996,0.76872,0.00123352,0.0123005,1938,1289,35.3425,-8.2621
721,-265,35.3015,7.80359,-0.000187696,0.000261146,0.000935227,0.000998502,-0.000925052,0.903154,0.00111083,0.0136867,1945,1289,35.3015,-7.80363
728,-265,35.2649,7.38171,-0.000102562,0.00079761,0.000818393,0.00128152,-0.00058647,1.03681,0.00110309,0.014514,1952,1289,35.2649,-7.38172
735,-265,35.2856,6.94604,0.000499607,0.00147813,0.000478086,0.00167293,0.000304804,1.18387,0.00102885,0.0162811,1959,1289,35.2857,-6.94602
742,-265,35.2748,6.5033,0.00191951,0.00240437,-0.000229493,0.00249577,0.00182811,-1.1918,0.00149195,0.0193173,1966,1289,35.2748,-6.50332
749,-265,35.218,6.07483,0.00486504,0.00373684,-0.00153314,0.00593456,0.00266732,-0.609116,0.00343215,0.04622,1973,1289,35.218,-6.07479
756,-265,35.269,5.64612,0,0,0,0,0,0,0,-1,1980,1289,35.2691,-5.64612
763,-265,34.2904,5.52454,0,0,0,0,0,0,0,-1,1987,1289,34.2905,-5.52454
770,-265,35.1674,5.07715,0,0,0,0,0,0,0,-1,1994,1289,35.1673,-5.07718
777,-265,32.1664,5.3457,0,0,0,0,0,0,0,-1,2001,1289,32.1664,-5.34568
784,-265,0,0,0,0,0,0,0,0,0,-1,2008,1289,0,0
791,-265,0,0,0,0,0,0,0,0,0,-1,2015,1289,0,0
798,-265,0,0,0,0,0,0,0,0,0,-1,2022,1289,0,0
805,-265,0,0,0,0,0,0,0,0,0,-1,2029,1289,0,0
812,-265,0,0,0,0,0,0,0,0,0,-1,2036,1289,0,0
-700,-272,0,0,0,0,0,0,0,0,0,-1,524,1296,0,0
-693,-272,0,0,0,0,0,0,0,0,0,-1,531,1296,0,0
-686,-272,0,0,0,0,0,0,0,0,0,-1,538,1296,0,0
-679,-272,0,0,0,0,0,0,0,0,0,-1,545,1296,0,0
-672,-272,0,0,0,0,0,0,0,0,0,-1,552,1296,0,0
-665,-272,0,0,0,0,0,0,0,0,0,-1,559,1296,0,0
-658,-272,-20.8167,0.685791,0,0,0,0,0,0,0,-1,566,1296,-20.8167,-0.68577
-651,-272,-19.9265,0.797852,0,0,0,0,0,0,0,-1,573,1296,-19.9265,-0.797894
-644,-272,-24.5912,1.62415,0,0,0,0,0,0,0,-1,580,1296,-24.5912,-1.62411
-637,-272,-24.1454,0.841187,0,0,0,0,0,0,0,-1,587,1296,-24.1454,-0.841179
-630,-272,-23.6996,0.0582275,0,0,0,0,0,0,0,-1,594,1296,-23.6996,-0.0582498
-623,-272,-20.9919,2.50964,0,0,0,0,0,0,0,-1,601,1296,-20.9919,-2.50961
-616,-272,-21.0121,3.3479,0,0,0,0,0,0,0,-1,608,1296,-21.0121,-3.34791
-609,-272,-21.0756,4.06946,0.00518262,0.00729878,0.00704968,0.0133693,-0.000887945,0.859887,0.00922313,0.02519,615,1296,-21.0756,-4.0694
-602,-272,-21.1181,4.48438,0.00328506,0.00397596,0.00315832,0.00680767,0.000453355,0.83987,0.00439513,0.0144019,622,1296,-21.1181,-4.4844
-595,-272,-21.1526,5.00732,0.0026984,0.00266939,0.00229987,0.00498381,0.000383973,0.782245,0.00320223,0.0112792,629,1296,-21.1526,-5.00728
-588,-272,-21.1654,5.50562,0.00238041,0.00154149,0.00167174,0.00368451,0.000237396,0.662479,0.00238116,0.0106504,636,1296,-21.1654,-5.50567
-581,-272,-21.2012,6.00476,0.00228769,0.000542825,0.00123106,0.00292412,-9.36032e-05,0.477134,0.00198135,0.0103192,643,1296,-21.2011,-6.00472
-574,-272,-21.2247,6.52844,0.00238666,-0.000380592,0.000934344,0.00267259,-0.000666523,0.296973,0.00204052,0.0149181,650,1296,-21.2247,-6.52844
-567,-272,-21.2335,7.03613,0.00271616,-0.00114218,0.000810871,0.00287964,-0.00130567,0.198951,0.00247269,0.021446,657,1296,-21.2335,-7.03607
-560,-272,-21.2868,7.56128,0.00290274,-0.00150185,0.000895802,0.00307796,-0.00167707,0.193159,0.00278475,0.0213933,664,1296,-21.2868,-7.56123
-553,-272,-21.2012,8.0625,0.00309097,-0.00183037,0.00130105,0.00341375,-0.00215315,0.243186,0.00324141,0.0234912,671,1296,-21.2012,-8.06247
-546,-272,-21.1428,8.57483,0,0,0,0,0,0,0,-1,678,1296,-21.1428,-8.5748
-539,-272,-21.0858,9.44312,0,0,0,0,0,0,0,-1,685,1296,-21.0858,-9.44317
-532,-272,-10.5572,4.53943,0,0,0,0,0,0,0,-1,692,1296,-10.5572,-4.53943
-525,-272,-11.9599,0.0393066,0,0,0,0,0,0,0,-1,699,1296,-11.9599,-0.0393577
-518,-272,-21.1357,-1.41382,0,0,0,0,0,0,0,-1,706,1296,-21.1357,1.41379
-511,-272,-23.2565,0.226318,0,0,0,0,0,0,0,-1,713,1296,-23.2565,-0.22626
-504,-272,-19.7397,0.114746,0,0,0,0,0,0,0,-1,720,1296,-19.7397,-0.114701
-497,-272,-19.2225,1.71301,0,0,0,0,0,0,0,-1,727,1296,-19.2225,-1.71302
-490,-272,-20.1948,2.4032,0,0,0,0,0,0,0,-1,734,1296,-20.1948,-2.40322
-483,-272,-15.3736,0.792603,0,0,0,0,0,0,0,-1,741,1296,-15.3736,-0.79263
-476,-272,0,0,0,0,0,0,0,0,0,-1,748,1296,0,0
-469,-272,0,0,0,0,0,0,0,0,0,-1,755,1296,0,0
-462,-272,0,0,0,0,0,0,0,0,0,-1,762,1296,0,0
-455,-272,0,0,0,0,0,0,0,0,0,-1,769,1296,0,0
-448,-272,0,0,0,0,0,0,0,0,0,-1,776,1296,0,0
-441,-272,0,0,0,0,0,0,0,0,0,-1,783,1296,0,0
-434,-272,0,0,0,0,0,0,0,0,0,-1,790,1296,0,0
-427,-272,0,0,0,0,0,0,0,0,0,-1,797,1296,0,0
-420,-272,0,0,0,0,0,0,0,0,0,-1,804,1296,0,0
-413,-272,0,0,0,0,0,0,0,0,0,-1,811,1296,0,0
-406,-272,0,0,0,0,0,0,0,0,0,-1,818,1296,0,0
-399,-272,0,0,0,0,0,0,0,0,0,-1,825,1296,0,0
-392,-272,0,0,0,0,0,0,0,0,0,-1,832,1296,0,0
-385,-272,0,0,0,0,0,0,0,0,0,-1,839,1296,0,0
-378,-272,0,0,0,0,0,0,0,0,0,-1,846,1296,0,0
-371,-272,0,0,0,0,0,0,0,0,0,-1,853,1296,0,0
-364,-272,0,0,0,0,0,0,0,0,0,-1,860,1296,0,0
-357,-272,0,0,0,0,0,0,0,0,0,-1,867,1296,0,0
-350,-272,0,0,0,0,0,0,0,0,0,-1,874,1296,0,0
-343,-272,0,0,0,0,0,0,0,0,0,-1,881,1296,0,0
-336,-272,0,0,0,0,0,0,0,0,0,-1,888,1296,0,0
-329,-272,0,0,0,0,0,0,0,0,0,-1,895,1296,0,0
-322,-272,0,0,0,0,0,0,0,0,0,-1,902,1296,0,0
-315,-272,0,0,0,0,0,0,0,0,0,-1,909,1296,0,0
-308,-272,0,0,0,0,0,0,0,0,0,-1,916,1296,0,0
-301,-272,0,0,0,0,0,0,0,0,0,-1,923,1296,0,0
-294,-272,0,0,0,0,0,0,0,0,0,-1,930,1296,0,0
-287,-272,0,0,0,0,0,0,0,0,0,-1,937,1296,0,0
-280,-272,0,0,0,0,0,0,0,0,0,-1,944,1296,0,0
-273,-272,0,0,0,0,0,0,0,0,0,-1,951,1296,0,0
-266,-272,0,0,0,0,0,0,0,0,0,-1,958,1296,0,0
-259,-272,0,0,0,0,0,0,0,0,0,-1,965,1296,0,0
-252,-272,0,0,0,0,0,0,0,0,0,-1,972,1296,0,0
-245,-272,0,0,0,0,0,0,0,0,0,-1,979,1296,0,0
-238,-272,0,0,0,0,0,0,0,0,0,-1,986,1296,0,0
-231,-272,0,0,0,0,0,0,0,0,0,-1,993,1296,0,0
-224,-272,0,0,0,0,0,0,0,0,0,-1,1000,1296,0,0
-217,-272,0,0,0,0,0,0,0,0,0,-1,1007,1296,0,0
-210,-272,0,0,0,0,0,0,0,0,0,-1,1014,1296,0,0
-203,-272,0,0,0,0,0,0,0,0,0,-1,1021,1296,0,0
-196,-272,0,0,0,0,0,0,0,0,0,-1,1028,1296,0,0
-189,-272,0,0,0,0,0,0,0,0,0,-1,1035,1296,0,0
-182,-272,0,0,0,0,0,0,0,0,0,-1,1042,1296,0,0
-175,-272,0,0,0,0,0,0,0,0,0,-1,1049,1296,0,0
-168,-272,0,0,0,0,0,0,0,0,0,-1,1056,1296,0,0
-161,-272,0,0,0,0,0,0,0,0,0,-1,1063,1296,0,0
-154,-272,0,0,0,0,0,0,0,0,0,-1,1070,1296,0,0
-147,-272,0,0,0,0,0,0,0,0,0,-1,1077,1296,0,0
-140,-272,0,0,0,0,0,0,0,0,0,-1,1084,1296,0,0
-133,-272,0,0,0,0,0,0,0,0,0,-1,1091,1296,0,0
-126,-272,0,0,0,0,0,0,0,0,0,-1,1098,1296,0,0
-119,-272,0,0,0,0,0,0,0,0,0,-1,1105,1296,0,0
-112,-272,0,0,0,0,0,0,0,0,0,-1,1112,1296,0,0
-105,-272,0,0,0,0,0,0,0,0,0,-1,1119,1296,0,0
-98,-272,0,0,0,0,0,0,0,0,0,-1,1126,1296,0,0
-91,-272,0,0,0,0,0,0,0,0,0,-1,1133,1296,0,0
-84,-272,0,0,0,0,0,0,0,0,0,-1,1140,1296,0,0
-77,-272,0,0,0,0,0,0,0,0,0,-1,1147,1296,0,0
-70,-272,0,0,0,0,0,0,0,0,0,-1,1154,1296,0,0
-63,-272,0,0,0,0,0,0,0,0,0,-1,1161,1296,0,0
-56,-272,0,0,0,0,0,0,0,0,0,-1,1168,1296,0,0
-49,-272,0,0,0,0,0,0,0,0,0,-1,1175,1296,0,0
-42,-272,0,0,0,0,0,0,0,0,0,-1,1182,1296,0,0
-35,-272,0,0,0,0,0,0,0,0,0,-1,1189,1296,0,0
-28,-272,0,0,0,0,0,0,0,0,0,-1,1196,1296,0,0
-21,-272,0,0,0,0,0,0,0,0,0,-1,1203,1296,0,0
-14,-272,0,0,0,0,0,0,0,0,0,-1,1210,1296,0,0
-7,-272,0,0,0,0,0,0,0,0,0,-1,1217,1296,0,0
0,-272,0,0,0,0,0,0,0,0,0,-1,1224,1296,0,0
7,-272,0,0,0,0,0,0,0,0,0,-1,1231,1296,0,0
14,-272,0,0,0,0,0,0,0,0,0,-1,1238,1296,0,0
21,-272,0,0,0,0,0,0,0,0,0,-1,1245,1296,0,0
28,-272,0,0,0,0,0,0,0,0,0,-1,1252,1296,0,0
35,-272,0,0,0,0,0,0,0,0,0,-1,1259,1296,0,0
42,-272,0,0,0,0,0,0,0,0,0,-1,1266,1296,0,0
49,-272,0,0,0,0,0,0,0,0,0,-1,1273,1296,0,0
56,-272,0,0,0,0,0,0,0,0,0,-1,1280,1296,0,0
63,-272,0,0,0,0,0,0,0,0,0,-1,1287,1296,0,0
70,-272,0,0,0,0,0,0,0,0,0,-1,1294,1296,0,0
77,-272,0,0,0,0,0,0,0,0,0,-1,1301,1296,0,0
84,-272,0,0,0,0,0,0,0,0,0,-1,1308,1296,0,0
91,-272,0,0,0,0,0,0,0,0,0,-1,1315,1296,0,0
98,-272,0,0,0,0,0,0,0,0,0,-1,1322,1296,0,0
105,-272,0,0,0,0,0,0,0,0,0,-1,1329,1296,0,0
112,-272,0,0,0,0,0,0,0,0,0,-1,1336,1296,0,0
119,-272,0,0,0,0,0,0,0,0,0,-1,1343,1296,0,0
126,-272,0,0,0,0,0,0,0,0,0,-1,1350,1296,0,0
133,-272,0,0,0,0,0,0,0,0,0,-1,1357,1296,0,0
140,-272,0,0,0,0,0,0,0,0,0,-1,1364,1296,0,0
147,-272,0,0,0,0,0,0,0,0,0,-1,1371,1296,0,0
154,-272,0,0,0,0,0,0,0,0,0,-1,1378,1296,0,0
161,-272,0,0,0,0,0,0,0,0,0,-1,1385,1296,0,0
168,-272,0,0,0,0,0,0,0,0,0,-1,1392,1296,0,0
175,-272,0,0,0,0,0,0,0,0,0,-1,1399,1296,0,0
182,-272,0,0,0,0,0,0,0,0,0,-1,1406,1296,0,0
189,-272,0,0,0,0,0,0,0,0,0,-1,1413,1296,0,0
196,-272,0,0,0,0,0,0,0,0,0,-1,1420,1296,0,0
203,-272,0,0,0,0,0,0,0,0,0,-1,1427,1296,0,0
210,-272,0,0,0,0,0,0,0,0,0,-1,1434,1296,0,0
217,-272,0,0,0,0,0,0,0,0,0,-1,1441,1296,0,0
224,-272,0,0,0,0,0,0,0,0,0,-1,1448,1296,0,0
231,-272,0,0,0,0,0,0,0,0,0,-1,1455,1296,0,0
238,-272,0,0,0,0,0,0,0,0,0,-1,1462,1296,0,0
245,-272,0,0,0,0,0,0,0,0,0,-1,1469,1296,0,0
252,-272,0,0,0,0,0,0,0,0,0,-1,1476,1296,0,0
259,-272,0,0,0,0,0,0,0,0,0,-1,1483,1296,0,0
266,-272,0,0,0,0,0,0,0,0,0,-1,1490,1296,0,0
273,-272,0,0,0,0,0,0,0,0,0,-1,1497,1296,0,0
280,-272,0,0,0,0,0,0,0,0,0,-1,1504,1296,0,0
287,-272,0,0,0,0,0,0,0,0,0,-1,1511,1296,0,0
294,-272,0,0,0,0,0,0,0,0,0,-1,1518,1296,0,0
301,-272,0,0,0,0,0,0,0,0,0,-1,1525,1296,0,0
308,-272,0,0,0,0,0,0,0,0,0,-1,1532,1296,0,0
315,-272,0,0,0,0,0,0,0,0,0,-1,1539,1296,0,0
322,-272,0,0,0,0,0,0,0,0,0,-1,1546,1296,0,0
329,-272,0,0,0,0,0,0,0,0,0,-1,1553,1296,0,0
336,-272,0,0,0,0,0,0,0,0,0,-1,1560,1296,0,0
343,-272,0,0,0,0,0,0,0,0,0,-1,1567,1296,0,0
350,-272,0,0,0,0,0,0,0,0,0,-1,1574,1296,0,0
357,-272,0,0,0,0,0,0,0,0,0,-1,1581,1296,0,0
364,-272,0,0,0,0,0,0,0,0,0,-1,1588,1296,0,0
371,-272,0,0,0,0,0,0,0,0,0,-1,1595,1296,0,0
378,-272,0,0,0,0,0,0,0,0,0,-1,1602,1296,0,0
385,-272,0,0,0,0,0,0,0,0,0,-1,1609,1296,0,0
392,-272,0,0,0,0,0,0,0,0,0,-1,1616,1296,0,0
399,-272,0,0,0,0,0,0,0,0,0,-1,1623,1296,0,0
406,-272,0,0,0,0,0,0,0,0,0,-1,1630,1296,0,0
413,-272,0,0,0,0,0,0,0,0,0,-1,1637,1296,0,0
420,-272,0,0,0,0,0,0,0,0,0,-1,1644,1296,0,0
427,-272,0,0,0,0,0,0,0,0,0,-1,1651,1296,0,0
434,-272,0,0,0,0,0,0,0,0,0,-1,1658,1296,0,0
441,-272,0,0,0,0,0,0,0,0,0,-1,1665,1296,0,0
448,-272,0,0,0,0,0,0,0,0,0,-1,1672,1296,0,0
455,-272,0,0,0,0,0,0,0,0,0,-1,1679,1296,0,0
462,-272,0,0,0,0,0,0,0,0,0,-1,1686,1296,0,0
469,-272,0,0,0,0,0,0,0,0,0,-1,1693,1296,0,0
476,-272,0,0,0,0,0,0,0,0,0,-1,1700,1296,0,0
483,-272,0,0,0,0,0,0,0,0,0,-1,1707,1296,0,0
490,-272,0,0,0,0,0,0,0,0,0,-1,1714,1296,0,0
497,-272,0,0,0,0,0,0,0,0,0,-1,1721,1296,0,0
504,-272,0,0,0,0,0,0,0,0,0,-1,1728,1296,0,0
511,-272,0,0,0,0,0,0,0,0,0,-1,1735,1296,0,0
518,-272,0,0,0,0,0,0,0,0,0,-1,1742,1296,0,0
525,-272,0,0,0,0,0,0,0,0,0,-1,1749,1296,0,0
532,-272,0,0,0,0,0,0,0,0,0,-1,1756,1296,0,0
539,-272,0,0,0,0,0,0,0,0,0,-1,1763,1296,0,0
546,-272,0,0,0,0,0,0,0,0,0,-1,1770,1296,0,0
553,-272,0,0,0,0,0,0,0,0,0,-1,1777,1296,0,0
560,-272,0,0,0,0,0,0,0,0,0,-1,1784,1296,0,0
567,-272,0,0,0,0,0,0,0,0,0,-1,1791,1296,0,0
574,-272,0,0,0,0,0,0,0,0,0,-1,1798,1296,0,0
581,-272,0,0,0,0,0,0,0,0,0,-1,1805,1296,0,0
588,-272,0,0,0,0,0,0,0,0,0,-1,1812,1296,0,0
595,-272,0,0,0,0,0,0,0,0,0,-1,1819,1296,0,0
602,-272,48.2568,2.67773,-0.0108012,-0.000767107,-0.00498403,0.00128771,-0.012856,-1.17975,0.00903059,0.0307,1826,1296,48.2569,-2.67773
609,-272,48.1555,2.5426,-0.00874499,-0.00520946,-0.00370903,-0.00286847,-0.011086,-1.00778,0.0066442,0.0382978,1833,1296,48.1555,-2.54257
616,-272,48.1874,2.56213,-0.00874653,-0.00865191,-0.0034213,-0.0052776,-0.0121208,-0.792311,0.0070174,0.0446542,1840,1296,48.1874,-2.56218
623,-272,48.3191,2.70227,-0.00797137,-0.00906977,-0.00321435,-0.00525964,-0.0117815,-0.700785,0.00681505,0.0451305,1847,1296,48.319,-2.70226
630,-272,48.6793,2.78931,0,0,0,0,0,0,0,-1,1854,1296,48.6794,-2.78933
637,-272,49.1733,2.75842,0,0,0,0,0,0,0,-1,1861,1296,49.1734,-2.75838
644,-272,48.5034,3.21082,0,0,0,0,0,0,0,-1,1868,1296,48.5034,-3.21077
651,-272,41.9225,4.27161,0,0,0,0,0,0,0,-1,1875,1296,41.9225,-4.27157
658,-272,35.1527,2.10571,0,0,0,0,0,0,0,-1,1882,1296,35.1527,-2.10573
665,-272,22.0238,4.14417,0,0,0,0,0,0,0,-1,1889,1296,22.0238,-4.14421
672,-272,22.661,7.21765,0,0,0,0,0,0,0,-1,1896,1296,22.661,-7.21761
679,-272,34.8661,10.6282,0,0,0,0,0,0,0,-1,1903,1296,34.8661,-10.6281
686,-272,34.8684,10.149,-0.00288412,-0.0013213,-0.000981277,-0.000848316,-0.0033571,-1.12164,0.0020157,0.0231706,1910,1296,34.8684,-10.149
693,-272,34.8862,9.67834,-0.00191595,-0.00102201,0.000110035,-0.00100867,-0.0019293,1.45011,0.00111427,0.0115246,1917,1296,34.8862,-9.67834
700,-272,34.8823,9.21069,-0.000644715,-0.000777339,0.000715022,7.06333e-06,-0.00142912,0.73916,0.000955108,0.0119278,1924,1296,34.8823,-9.21065
707,-272,34.881,8.73926,-0.000163423,-0.000294532,0.000960134,0.000733392,-0.00119135,0.751313,0.00112168,0.0118097,1931,1296,34.881,-8.73924
714,-272,34.8535,8.27405,-0.000363639,-0.000166956,0.00105252,0.000791806,-0.0013224,0.83198,0.00123338,0.0132019,1938,1296,34.8535,-8.274
721,-272,34.8271,7.82544,-0.000422713,0.000402792,0.000893469,0.000974241,-0.000994161,1.00178,0.00113648,0.0167344,1945,1296,34.8271,-7.82542
728,-272,34.8223,7.35547,-0.000480923,0.00091692,0.000759706,0.0012503,-0.000814302,1.15727,0.00120083,0.0179552,1952,1296,34.8223,-7.35541
735,-272,34.8181,6.9397,-8.25401e-05,0.00157378,0.00038732,0.00165988,-0.000168637,1.35206,0.00116687,0.0156246,1959,1296,34.8182,-6.93968
742,-272,34.7156,6.48975,0.00110714,0.00249049,-0.000388423,0.00259209,0.00100554,-1.31495,0.00150902,0.025361,1966,1296,34.7156,-6.48973
749,-272,34.6937,5.87024,0,0,0,0,0,0,0,-1,1973,1296,34.6938,-5.87029
756,-272,32.9099,5.30151,0,0,0,0,0,0,0,-1,1980,1296,32.9099,-5.30156
763,-272,34.3995,5.88416,0,0,0,0,0,0,0,-1,1987,1296,34.3996,-5.88419
770,-272,25.9485,3.67749,0,0,0,0,0,0,0,-1,1994,1296,25.9485,-3.67744
777,-272,32.3619,6.13257,0,0,0,0,0,0,0,-1,2001,1296,32.362,-6.1326
784,-272,0,0,0,0,0,0,0,0,0,-1,2008,1296,0,0
791,-272,0,0,0,0,0,0,0,0,0,-1,2015,1296,0,0
798,-272,0,0,0,0,0,0,0,0,0,-1,2022,1296,0,0
805,-272,0,0,0,0,0,0,0,0,0,-1,2029,1296,0,0
812,-272,0,0,0,0,0,0,0,0,0,-1,2036,1296,0,0
-700,-279,0,0,0,0,0,0,0,0,0,-1,524,1303,0,0
-693,-279,0,0,0,0,0,0,0,0,0,-1,531,1303,0,0
-686,-279,0,0,0,0,0,0,0,0,0,-1,538,1303,0,0
-679,-279,0,0,0,0,0,0,0,0,0,-1,545,1303,0,0
-672,-279,0,0,0,0,0,0,0,0,0,-1,552,1303,0,0
-665,-279,0,0,0,0,0,0,0,0,0,-1,559,1303,0,0
-658,-279,-20.2977,1.0509,0,0,0,0,0,0,0,-1,566,1303,-20.2978,-1.0509
-651,-279,-18.2878,1.5625,0,0,0,0,0,0,0,-1,573,1303,-18.2879,-1.56247
-644,-279,-19.7198,0.645874,0,0,0,0,0,0,0,-1,580,1303,-19.7198,-0.645909
-637,-279,-24.0978,0.214844,0,0,0,0,0,0,0,-1,587,1303,-24.0978,-0.214866
-630,-279,-19.8475,-0.60144,0,0,0,0,0,0,0,-1,594,1303,-19.8475,0.60148
-623,-279,-20.8763,2.23047,0,0,0,0,0,0,0,-1,601,1303,-20.8763,-2.23049
-616,-279,-21.3477,3.35645,0,0,0,0,0,0,0,-1,608,1303,-21.3477,-3.35643
-609,-279,-20.9321,3.93018,0.00570859,0.00686151,0.00613455,0.0124466,0.000123475,0.832245,0.00825691,0.0452223,615,1303,-20.9321,-3.93021
-602,-279,-20.5978,4.49146,0.00381624,0.00438442,0.00346489,0.00757684,0.000623819,0.826303,0.00485666,0.014487,622,1303,-20.5978,-4.49148
-595,-279,-20.6375,5.01404,0.00307759,0.00306379,0.00255338,0.00562408,0.000517298,0.784047,0.0035894,0.0101754,629,1303,-20.6375,-5.01404
-588,-279,-20.6428,5.52527,0.00261415,0.00193966,0.00187321,0.00418023,0.000373582,0.696334,0.00267101,0.0108592,636,1303,-20.6428,-5.52523
-581,-279,-20.6775,6.0177,0.00239041,0.000973133,0.00138508,0.0032376,0.000125944,0.548946,0.00211767,0.012372,643,1303,-20.6775,-6.01766
-574,-279,-20.7119,6.52295,0.00236083,9.56856e-05,0.00104588,0.00276988,-0.000313361,0.372812,0.00195941,0.0127645,650,1303,-20.7119,-6.52299
-567,-279,-20.7125,7.01965,0.00253662,-0.000600386,0.000855513,0.00275476,-0.000818529,0.249665,0.00216164,0.018089,657,1303,-20.7125,-7.01966
-560,-279,-20.7293,7.56543,0.00273082,-0.00109245,0.0008621,0.00291622,-0.00127785,0.211832,0.00248227,0.0183083,664,1303,-20.7293,-7.56544
-553,-279,-20.7302,8.11475,0.00304959,-0.00154946,0.00118886,0.00333873,-0.00183861,0.238579,0.00303068,0.0147399,671,1303,-20.7302,-8.11471
-546,-279,-20.7108,8.60901,0.00323625,-0.00157409,0.00164631,0.00374573,-0.00208357,0.30012,0.00341085,0.025963,678,1303,-20.7107,-8.60907
-539,-279,-20.9453,9.16321,0,0,0,0,0,0,0,-1,685,1303,-20.9453,-9.16323
-532,-279,-14.9813,7.89917,0,0,0,0,0,0,0,-1,692,1303,-14.9813,-7.89918
-525,-279,-11.7063,-0.539185,0,0,0,0,0,0,0,-1,699,1303,-11.7063,0.539166
-518,-279,-16.8138,1.11963,0,0,0,0,0,0,0,-1,706,1303,-16.8138,-1.11968
-511,-279,-20.1063,-1.37915,0,0,0,0,0,0,0,-1,713,1303,-20.1062,1.37918
-504,-279,-18.3766,1.04578,0,0,0,0,0,0,0,-1,720,1303,-18.3767,-1.04577
-497,-279,-19.0046,2.08911,0,0,0,0,0,0,0,-1,727,1303,-19.0046,-2.08905
-490,-279,-20.0176,2.55188,0,0,0,0,0,0,0,-1,734,1303,-20.0176,-2.55183
-483,-279,-20.8064,2.99792,0,0,0,0,0,0,0,-1,741,1303,-20.8064,-2.99797
-476,-279,0,0,0,0,0,0,0,0,0,-1,748,1303,0,0
-469,-279,0,0,0,0,0,0,0,0,0,-1,755,1303,0,0
-462,-279,0,0,0,0,0,0,0,0,0,-1,762,1303,0,0
-455,-279,0,0,0,0,0,0,0,0,0,-1,769,1303,0,0
-448,-279,0,0,0,0,0,0,0,0,0,-1,776,1303,0,0
-441,-279,0,0,0,0,0,0,0,0,0,-1,783,1303,0,0
-434,-279,0,0,0,0,0,0,0,0,0,-1,790,1303,0,0
-427,-279,0,0,0,0,0,0,0,0,0,-1,797,1303,0,0
-420,-279,0,0,0,0,0,0,0,0,0,-1,804,1303,0,0
-413,-279,0,0,0,0,0,0,0,0,0,-1,811,1303,0,0
-406,-279,0,0,0,0,0,0,0,0,0,-1,818,1303,0,0
-399,-279,0,0,0,0,0,0,0,0,0,-1,825,1303,0,0
-392,-279,0,0,0,0,0,0,0,0,0,-1,832,1303,0,0
-385,-279,0,0,0,0,0,0,0,0,0,-1,839,1303,0,0
-378,-279,0,0,0,0,0,0,0,0,0,-1,846,1303,0,0
-371,-279,0,0,0,0,0,0,0,0,0,-1,853,1303,0,0
-364,-279,0,0,0,0,0,0,0,0,0,-1,860,1303,0,0
-357,-279,0,0,0,0,0,0,0,0,0,-1,867,1303,0,0
-350,-279,0,0,0,0,0,0,0,0,0,-1,874,1303,0,0
-343,-279,0,0,0,0,0,0,0,0,0,-1,881,1303,0,0
-336,-279,0,0,0,0,0,0,0,0,0,-1,888,1303,0,0
-329,-279,0,0,0,0,0,0,0,0,0,-1,895,1303,0,0
-322,-279,0,0,0,0,0,0,0,0,0,-1,902,1303,0,0
-315,-279,0,0,0,0,0,0,0,0,0,-1,909,1303,0,0
-308,-279,0,0,0,0,0,0,0,0,0,-1,916,1303,0,0
-301,-279,0,0,0,0,0,0,0,0,0,-1,923,1303,0,0
-294,-279,0,0,0,0,0,0,0,0,0,-1,930,1303,0,0
-287,-279,0,0,0,0,0,0,0,0,0,-1,937,1303,0,0
-280,-279,0,0,0,0,0,0,0,0,0,-1,944,1303,0,0
-273,-279,0,0,0,0,0,0,0,0,0,-1,951,1303,0,0
-266,-279,0,0,0,0,0,0,0,0,0,-1,958,1303,0,0
-259,-279,0,0,0,0,0,0,0,0,0,-1,965,1303,0,0
-252,-279,0,0,0,0,0,0,0,0,0,-1,972,1303,0,0
-245,-279,0,0,0,0,0,0,0,0,0,-1,979,1303,0,0
-238,-279,0,0,0,0,0,0,0,0,0,-1,986,1303,0,0
-231,-279,0,0,0,0,0,0,0,0,0,-1,993,1303,0,0
-224,-279,0,0,0,0,0,0,0,0,0,-1,1000,1303,0,0
-217,-279,0,0,0,0,0,0,0,0,0,-1,1007,1303,0,0
-210,-279,0,0,0,0,0,0,0,0,0,-1,1014,1303,0,0
-203,-279,0,0,0,0,0,0,0,0,0,-1,1021,1303,0,0
-196,-279,0,0,0,0,0,0,0,0,0,-1,1028,1303,0,0
-189,-279,0,0,0,0,0,0,0,0,0,-1,1035,1303,0,0
-182,-279,0,0,0,0,0,0,0,0,0,-1,1042,1303,0,0
-175,-279,0,0,0,0,0,0,0,0,0,-1,1049,1303,0,0
-168,-279,0,0,0,0,0,0,0,0,0,-1,1056,1303,0,0
-161,-279,0,0,0,0,0,0,0,0,0,-1,1063,1303,0,0
-154,-279,0,0,0,0,0,0,0,0,0,-1,1070,1303,0,0
-147,-279,0,0,0,0,0,0,0,0,0,-1,1077,1303,0,0
-140,-279,0,0,0,0,0,0,0,0,0,-1,1084,1303,0,0
-133,-279,0,0,0,0,0,0,0,0,0,-1,1091,1303,0,0
-126,-279,0,0,0,0,0,0,0,0,0,-1,1098,1303,0,0
-119,-279,0,0,0,0,0,0,0,0,0,-1,1105,1303,0,0
-112,-279,0,0,0,0,0,0,0,0,0,-1,1112,1303,0,0
-105,-279,0,0,0,0,0,0,0,0,0,-1,1119,1303,0,0
-98,-279,0,0,0,0,0,0,0,0,0,-1,1126,1303,0,0
-91,-279,0,0,0,0,0,0,0,0,0,-1,1133,1303,0,0
-84,-279,0,0,0,0,0,0,0,0,0,-1,1140,1303,0,0
-77,-279,0,0,0,0,0,0,0,0,0,-1,1147,1303,0,0
-70,-279,0,0,0,0,0,0,0,0,0,-1,1154,1303,0,0
-63,-279,0,0,0,0,0,0,0,0,0,-1,1161,1303,0,0
-56,-279,0,0,0,0,0,0,0,0,0,-1,1168,1303,0,0
-49,-279,0,0,0,0,0,0,0,0,0,-1,1175,1303,0,0
-42,-279,0,0,0,0,0,0,0,0,0,-1,1182,1303,0,0
-35,-279,0,0,0,0,0,0,0,0,0,-1,1189,1303,0,0
-28,-279,0,0,0,0,0,0,0,0,0,-1,1196,1303,0,0
-21,-279,0,0,0,0,0,0,0,0,0,-1,1203,1303,0,0
-14,-279,0,0,0,0,0,0,0,0,0,-1,1210,1303,0,0
-7,-279,0,0,0,0,0,0,0,0,0,-1,1217,1303,0,0
0,-279,0,0,0,0,0,0,0,0,0,-1,1224,1303,0,0
7,-279,0,0,0,0,0,0,0,0,0,-1,1231,1303,0,0
14,-279,0,0,0,0,0,0,0,0,0,-1,1238,1303,0,0
21,-279,0,0,0,0,0,0,0,0,0,-1,1245,1303,0,0
28,-279,0,0,0,0,0,0,0,0,0,-1,1252,1303,0,0
35,-279,0,0,0,0,0,0,0,0,0,-1,1259,1303,0,0
42,-279,0,0,0,0,0,0,0,0,0,-1,1266,1303,0,0
49,-279,0,0,0,0,0,0,0,0,0,-1,1273,1303,0,0
56,-279,0,0,0,0,0,0,0,0,0,-1,1280,1303,0,0
63,-279,0,0,0,0,0,0,0,0,0,-1,1287,1303,0,0
70,-279,0,0,0,0,0,0,0,0,0,-1,1294,1303,0,0
77,-279,0,0,0,0,0,0,0,0,0,-1,1301,1303,0,0
84,-279,0,0,0,0,0,0,0,0,0,-1,1308,1303,0,0
91,-279,0,0,0,0,0,0,0,0,0,-1,1315,1303,0,0
98,-279,0,0,0,0,0,0,0,0,0,-1,1322,1303,0,0
105,-279,0,0,0,0,0,0,0,0,0,-1,1329,1303,0,0
112,-279,0,0,0,0,0,0,0,0,0,-1,1336,1303,0,0
119,-279,0,0,0,0,0,0,0,0,0,-1,1343,1303,0,0
126,-279,0,0,0,0,0,0,0,0,0,-1,1350,1303,0,0
133,-279,0,0,0,0,0,0,0,0,0,-1,1357,1303,0,0
140,-279,0,0,0,0,0,0,0,0,0,-1,1364,1303,0,0
147,-279,0,0,0,0,0,0,0,0,0,-1,1371,1303,0,0
154,-279,0,0,0,0,0,0,0,0,0,-1,1378,1303,0,0
161,-279,0,0,0,0,0,0,0,0,0,-1,1385,1303,0,0
168,-279,0,0,0,0,0,0,0,0,0,-1,1392,1303,0,0
175,-279,0,0,0,0,0,0,0,0,0,-1,1399,1303,0,0
182,-279,0,0,0,0,0,0,0,0,0,-1,1406,1303,0,0
189,-279,0,0,0,0,0,0,0,0,0,-1,1413,1303,0,0
196,-279,0,0,0,0,0,0,0,0,0,-1,1420,1303,0,0
203,-279,0,0,0,0,0,0,0,0,0,-1,1427,1303,0,0
210,-279,0,0,0,0,0,0,0,0,0,-1,1434,1303,0,0
217,-279,0,0,0,0,0,0,0,0,0,-1,1441,1303,0,0
224,-279,0,0,0,0,0,0,0,0,0,-1,1448,1303,0,0
231,-279,0,0,0,0,0,0,0,0,0,-1,1455,1303,0,0
238,-279,0,0,0,0,0,0,0,0,0,-1,1462,1303,0,0
245,-279,0,0,0,0,0,0,0,0,0,-1,1469,1303,0,0
252,-279,0,0,0,0,0,0,0,0,0,-1,1476,1303,0,0
259,-279,0,0,0,0,0,0,0,0,0,-1,1483,1303,0,0
266,-279,0,0,0,0,0,0,0,0,0,-1,1490,1303,0,0
273,-279,0,0,0,0,0,0,0,0,0,-1,1497,1303,0,0
280,-279,0,0,0,0,0,0,0,0,0,-1,1504,1303,0,0
287,-279,0,0,0,0,0,0,0,0,0,-1,1511,1303,0,0
294,-279,0,0,0,0,0,0,0,0,0,-1,1518,1303,0,0
301,-279,0,0,0,0,0,0,0,0,0,-1,1525,1303,0,0
308,-279,0,0,0,0,0,0,0,0,0,-1,1532,1303,0,0
315,-279,0,0,0,0,0,0,0,0,0,-1,1539,1303,0,0
322,-279,0,0,0,0,0,0,0,0,0,-1,1546,1303,0,0
329,-279,0,0,0,0,0,0,0,0,0,-1,1553,1303,0,0
336,-279,0,0,0,0,0,0,0,0,0,-1,1560,1303,0,0
343,-279,0,0,0,0,0,0,0,0,0,-1,1567,1303,0,0
350,-279,0,0,0,0,0,0,0,0,0,-1,1574,1303,0,0
357,-279,0,0,0,0,0,0,0,0,0,-1,1581,1303,0,0
364,-279,0,0,0,0,0,0,0,0,0,-1,1588,1303,0,0
371,-279,0,0,0,0,0,0,0,0,0,-1,1595,1303,0,0
378,-279,0,0,0,0,0,0,0,0,0,-1,1602,1303,0,0
385,-279,0,0,0,0,0,0,0,0,0,-1,1609,1303,0,0
392,-279,0,0,0,0,0,0,0,0,0,-1,1616,1303,0,0
399,-279,0,0,0,0,0,0,0,0,0,-1,1623,1303,0,0
406,-279,0,0,0,0,0,0,0,0,0,-1,1630,1303,0,0
413,-279,0,0,0,0,0,0,0,0,0,-1,1637,1303,0,0
420,-279,0,0,0,0,0,0,0,0,0,-1,1644,1303,0,0
427,-279,0,0,0,0,0,0,0,0,0,-1,1651,1303,0,0
434,-279,0,0,0,0,0,0,0,0,0,-1,1658,1303,0,0
441,-279,0,0,0,0,0,0,0,0,0,-1,1665,1303,0,0
448,-279,0,0,0,0,0,0,0,0,0,-1,1672,1303,0,0
455,-279,0,0,0,0,0,0,0,0,0,-1,1679,1303,0,0
462,-279,0,0,0,0,0,0,0,0,0,-1,1686,1303,0,0
469,-279,0,0,0,0,0,0,0,0,0,-1,1693,1303,0,0
476,-279,0,0,0,0,0,0,0,0,0,-1,1700,1303,0,0
483,-279,0,0,0,0,0,0,0,0,0,-1,1707,1303,0,0
490,-279,0,0,0,0,0,0,0,0,0,-1,1714,1303,0,0
497,-279,0,0,0,0,0,0,0,0,0,-1,1721,1303,0,0
504,-279,0,0,0,0,0,0,0,0,0,-1,1728,1303,0,0
511,-279,0,0,0,0,0,0,0,0,0,-1,1735,1303,0,0
518,-279,0,0,0,0,0,0,0,0,0,-1,1742,1303,0,0
525,-279,0,0,0,0,0,0,0,0,0,-1,1749,1303,0,0
532,-279,0,0,0,0,0,0,0,0,0,-1,1756,1303,0,0
539,-279,0,0,0,0,0,0,0,0,0,-1,1763,1303,0,0
546,-279,0,0,0,0,0,0,0,0,0,-1,1770,1303,0,0
553,-279,0,0,0,0,0,0,0,0,0,-1,1777,1303,0,0
560,-279,0,0,0,0,0,0,0,0,0,-1,1784,1303,0,0
567,-279,0,0,0,0,0,0,0,0,0,-1,1791,1303,0,0
574,-279,0,0,0,0,0,0,0,0,0,-1,1798,1303,0,0
581,-279,0,0,0,0,0,0,0,0,0,-1,1805,1303,0,0
588,-279,0,0,0,0,0,0,0,0,0,-1,1812,1303,0,0
595,-279,0,0,0,0,0,0,0,0,0,-1,1819,1303,0,0
602,-279,48.306,2.64478,0,0,0,0,0,0,0,-1,1826,1303,48.3061,-2.64472
609,-279,48.0632,2.39465,0,0,0,0,0,0,0,-1,1833,1303,48.0632,-2.39466
616,-279,47.9055,2.33484,-0.0134194,-0.0132621,-0.00543232,-0.00790787,-0.0187737,-0.792635,0.0108837,0.0468674,1840,1303,47.9055,-2.3349
623,-279,48.2914,2.67822,-0.0110174,-0.0120503,-0.00436424,-0.00713915,-0.0159285,-0.726507,0.00921277,0.049692,1847,1303,48.2914,-2.67819
630,-279,48.5076,2.70642,0,0,0,0,0,0,0,-1,1854,1303,48.5076,-2.70642
637,-279,47.9097,3.3302,0,0,0,0,0,0,0,-1,1861,1303,47.9097,-3.33018
644,-279,33.5021,3.40234,0,0,0,0,0,0,0,-1,1868,1303,33.5021,-3.40237
651,-279,29.8456,2.3562,0,0,0,0,0,0,0,-1,1875,1303,29.8455,-2.35615
658,-279,21.5076,7.65649,0,0,0,0,0,0,0,-1,1882,1303,21.5076,-7.65648
665,-279,18.9794,6.09607,0,0,0,0,0,0,0,-1,1889,1303,18.9793,-6.09601
672,-279,23.5206,8.32507,0,0,0,0,0,0,0,-1,1896,1303,23.5206,-8.32512
679,-279,34.3158,10.5946,0,0,0,0,0,0,0,-1,1903,1303,34.3158,-10.5946
686,-279,34.3741,10.1508,-0.00200517,-0.00142671,-0.000995421,-0.000679348,-0.00275253,-0.926787,0.0016557,0.0253441,1910,1303,34.3742,-10.1508
693,-279,34.3872,9.69958,-0.00108367,-0.00102693,-3.07308e-06,-0.00102676,-0.00108383,-1.51684,0.000704302,0.0160696,1917,1303,34.3873,-9.69958
700,-279,34.3949,9.23523,-0.000134332,-0.000686786,0.000527779,0.000185136,-0.00100625,0.544312,0.000740305,0.0118667,1924,1303,34.3949,-9.23528
707,-279,34.3904,8.76514,2.83934e-05,-0.000209502,0.000787053,0.000705436,-0.000886545,0.7104,0.000921111,0.00941862,1931,1303,34.3904,-8.76509
714,-279,34.374,8.2887,-0.00035959,-4.70884e-05,0.000943857,0.000753363,-0.00116004,0.867427,0.00111299,0.010238,1938,1303,34.374,-8.2887
721,-279,34.3881,7.80933,-0.000591591,0.000471132,0.000855159,0.000946568,-0.00106703,1.06339,0.00116324,0.0140476,1945,1303,34.3881,-7.80936
728,-279,34.4012,7.35657,-0.000869228,0.000932301,0.000790804,0.00123018,-0.00116711,1.21055,0.00138423,0.0161182,1952,1303,34.4012,-7.35659
735,-279,34.3541,6.96655,-0.000768907,0.00153664,0.000473683,0.00163017,-0.000862433,1.37586,0.00146168,0.0155526,1959,1303,34.3542,-6.96659
742,-279,34.2473,6.53955,4.98072e-05,0.00241615,-0.000273899,0.00244744,1.85177e-05,-1.45705,0.00162549,0.0305179,1966,1303,34.2473,-6.53951
749,-279,34.2926,6.04858,0,0,0,0,0,0,0,-1,1973,1303,34.2926,-6.04861
756,-279,23.2091,4.43433,0,0,0,0,0,0,0,-1,1980,1303,23.2092,-4.43432
763,-279,27.1613,3.46265,0,0,0,0,0,0,0,-1,1987,1303,27.1613,-3.4627
770,-279,21.5828,3.54199,0,0,0,0,0,0,0,-1,1994,1303,21.5827,-3.54198
777,-279,32.5369,6.99609,0,0,0,0,0,0,0,-1,2001,1303,32.5369,-6.99608
784,-279,0,0,0,0,0,0,0,0,0,-1,2008,1303,0,0
791,-279,0,0,0,0,0,0,0,0,0,-1,2015,1303,0,0
798,-279,0,0,0,0,0,0,0,0,0,-1,2022,1303,0,0
805,-279,0,0,0,0,0,0,0,0,0,-1,2029,1303,0,0
812,-279,0,0,0,0,0,0,0,0,0,-1,2036,1303,0,0
-700,-286,0,0,0,0,0,0,0,0,0,-1,524,1310,0,0
-693,-286,0,0,0,0,0,0,0,0,0,-1,531,1310,0,0
-686,-286,0,0,0,0,0,0,0,0,0,-1,538,1310,0,0
-679,-286,0,0,0,0,0,0,0,0,0,-1,545,1310,0,0
-672,-286,0,0,0,0,0,0,0,0,0,-1,552,1310,0,0
-665,-286,0,0,0,0,0,0,0,0,0,-1,559,1310,0,0
-658,-286,-18.8017,-0.794922,0,0,0,0,0,0,0,-1,566,1310,-18.8017,0.79496
-651,-286,-18.798,0.594727,0,0,0,0,0,0,0,-1,573,1310,-18.798,-0.594671
-644,-286,-19.1089,1.80017,0,0,0,0,0,0,0,-1,580,1310,-19.1089,-1.80021
-637,-286,-19.4593,2.65125,0,0,0,0,0,0,0,-1,587,1310,-19.4593,-2.65124
-630,-286,-19.6556,3.39246,0,0,0,0,0,0,0,-1,594,1310,-19.6556,-3.39242
-623,-286,-20.1415,-1.72998,0,0,0,0,0,0,0,-1,601,1310,-20.1415,1.72995
-616,-286,-20.7865,2.08813,0,0,0,0,0,0,0,-1,608,1310,-20.7865,-2.08817
-609,-286,-20.5803,3.61963,0,0,0,0,0,0,0,-1,615,1310,-20.5803,-3.61969
-602,-286,-20.1225,4.42419,0.00459296,0.00466804,0.00390598,0.00853666,0.000724337,0.790204,0.00546568,0.0199949,622,1310,-20.1225,-4.42421
-595,-286,-20.1529,5.01941,0.00361316,0.00335802,0.00287081,0.00635923,0.000611949,0.763194,0.00405094,0.0111761,629,1310,-20.1529,-5.0194
-588,-286,-20.1377,5.52979,0.00293517,0.00226475,0.00209579,0.00472238,0.000477533,0.706098,0.00300177,0.0116191,636,1310,-20.1377,-5.52984
-581,-286,-20.1311,6.02502,0.00253745,0.00136163,0.00153992,0.00359787,0.000301207,0.603049,0.00230475,0.014023,643,1310,-20.1311,-6.02497
-574,-286,-20.1716,6.53931,0.00235324,0.000560348,0.00114292,0.00290934,4.25137e-06,0.452836,0.00193814,0.0148094,650,1310,-20.1717,-6.53936
-567,-286,-20.1949,7.05957,0.00238852,-6.85288e-05,0.0008944,0.00267961,-0.000359617,0.314645,0.00191755,0.0150391,657,1310,-20.1949,-7.05963
-560,-286,-20.201,7.59448,0.00255351,-0.000607254,0.000820465,0.0027538,-0.000807538,0.239427,0.00215606,0.0150455,664,1310,-20.201,-7.59454
-553,-286,-20.2211,8.12744,0.00294908,-0.00107888,0.00099783,0.00318272,-0.00131252,0.230001,0.00266915,0.0113766,671,1310,-20.2211,-8.12749
-546,-286,-20.2149,8.64514,0.00337418,-0.00125035,0.00135046,0.00373966,-0.00161583,0.264302,0.00317201,0.0197653,678,1310,-20.2149,-8.64509
-539,-286,-20.2034,9.18152,0.00396967,-0.00152227,0.00198792,0.00461371,-0.00216631,0.313307,0.00399855,0.045253,685,1310,-20.2034,-9.18156
-532,-286,-20.0386,9.73584,0,0,0,0,0,0,0,-1,692,1310,-20.0386,-9.73584
-525,-286,-11.4528,-1.11768,0,0,0,0,0,0,0,-1,699,1310,-11.4528,1.11769
-518,-286,-11.0701,1.37329,0,0,0,0,0,0,0,-1,706,1310,-11.0701,-1.37332
-511,-286,-17.7545,-0.0791016,0,0,0,0,0,0,0,-1,713,1310,-17.7544,0.0791606
-504,-286,-18.0455,1.29602,0,0,0,0,0,0,0,-1,720,1310,-18.0455,-1.29601
-497,-286,-18.3367,2.67114,0,0,0,0,0,0,0,-1,727,1310,-18.3366,-2.67118
-490,-286,-19.5795,2.47266,0,0,0,0,0,0,0,-1,734,1310,-19.5795,-2.4727
-483,-286,-19.7277,2.74744,0,0,0,0,0,0,0,-1,741,1310,-19.7277,-2.74747
-476,-286,-20.0391,3.06177,0,0,0,0,0,0,0,-1,748,1310,-20.0391,-3.06178
-469,-286,0,0,0,0,0,0,0,0,0,-1,755,1310,0,0
-462,-286,0,0,0,0,0,0,0,0,0,-1,762,1310,0,0
-455,-286,0,0,0,0,0,0,0,0,0,-1,769,1310,0,0
-448,-286,0,0,0,0,0,0,0,0,0,-1,776,1310,0,0
-441,-286,0,0,0,0,0,0,0,0,0,-1,783,1310,0,0
-434,-286,0,0,0,0,0,0,0,0,0,-1,790,1310,0,0
-427,-286,0,0,0,0,0,0,0,0,0,-1,797,1310,0,0
-420,-286,0,0,0,0,0,0,0,0,0,-1,804,1310,0,0
-413,-286,0,0,0,0,0,0,0,0,0,-1,811,1310,0,0
-406,-286,0,0,0,0,0,0,0,0,0,-1,818,1310,0,0
-399,-286,0,0,0,0,0,0,0,0,0,-1,825,1310,0,0
-392,-286,0,0,0,0,0,0,0,0,0,-1,832,1310,0,0
-385,-286,0,0,0,0,0,0,0,0,0,-1,839,1310,0,0
-378,-286,0,0,0,0,0,0,0,0,0,-1,846,1310,0,0
-371,-286,0,0,0,0,0,0,0,0,0,-1,853,1310,0,0
-364,-286,0,0,0,0,0,0,0,0,0,-1,860,1310,0,0
-357,-286,0,0,0,0,0,0,0,0,0,-1,867,1310,0,0
-350,-286,0,0,0,0,0,0,0,0,0,-1,874,1310,0,0
-343,-286,0,0,0,0,0,0,0,0,0,-1,881,1310,0,0
-336,-286,0,0,0,0,0,0,0,0,0,-1,888,1310,0,0
-329,-286,0,0,0,0,0,0,0,0,0,-1,895,1310,0,0
-322,-286,0,0,0,0,0,0,0,0,0,-1,902,1310,0,0
-315,-286,0,0,0,0,0,0,0,0,0,-1,909,1310,0,0
-308,-286,0,0,0,0,0,0,0,0,0,-1,916,1310,0,0
-301,-286,0,0,0,0,0,0,0,0,0,-1,923,1310,0,0
-294,-286,0,0,0,0,0,0,0,0,0,-1,930,1310,0,0
-287,-286,0,0,0,0,0,0,0,0,0,-1,937,1310,0,0
-280,-286,0,0,0,0,0,0,0,0,0,-1,944,1310,0,0
-273,-286,0,0,0,0,0,0,0,0,0,-1,951,1310,0,0
-266,-286,0,0,0,0,0,0,0,0,0,-1,958,1310,0,0
-259,-286,0,0,0,0,0,0,0,0,0,-1,965,1310,0,0
-252,-286,0,0,0,0,0,0,0,0,0,-1,972,1310,0,0
-245,-286,0,0,0,0,0,0,0,0,0,-1,979,1310,0,0
-238,-286,0,0,0,0,0,0,0,0,0,-1,986,1310,0,0
-231,-286,0,0,0,0,0,0,0,0,0,-1,993,1310,0,0
-224,-286,0,0,0,0,0,0,0,0,0,-1,1000,1310,0,0
-217,-286,0,0,0,0,0,0,0,0,0,-1,1007,1310,0,0
-210,-286,0,0,0,0,0,0,0,0,0,-1,1014,1310,0,0
-203,-286,0,0,0,0,0,0,0,0,0,-1,1021,1310,0,0
-196,-286,0,0,0,0,0,0,0,0,0,-1,1028,1310,0,0
-189,-286,0,0,0,0,0,0,0,0,0,-1,1035,1310,0,0
-182,-286,0,0,0,0,0,0,0,0,0,-1,1042,1310,0,0
-175,-286,0,0,0,0,0,0,0,0,0,-1,1049,1310,0,0
-168,-286,0,0,0,0,0,0,0,0,0,-1,1056,1310,0,0
-161,-286,0,0,0,0,0,0,0,0,0,-1,1063,1310,0,0
-154,-286,0,0,0,0,0,0,0,0,0,-1,1070,1310,0,0
-147,-286,0,0,0,0,0,0,0,0,0,-1,1077,1310,0,0
-140,-286,0,0,0,0,0,0,0,0,0,-1,1084,1310,0,0
-133,-286,0,0,0,0,0,0,0,0,0,-1,1091,1310,0,0
-126,-286,0,0,0,0,0,0,0,0,0,-1,1098,1310,0,0
-119,-286,0,0,0,0,0,0,0,0,0,-1,1105,1310,0,0
-112,-286,0,0,0,0,0,0,0,0,0,-1,1112,1310,0,0
-105,-286,0,0,0,0,0,0,0,0,0,-1,1119,1310,0,0
-98,-286,0,0,0,0,0,0,0,0,0,-1,1126,1310,0,0
-91,-286,0,0,0,0,0,0,0,0,0,-1,1133,1310,0,0
-84,-286,0,0,0,0,0,0,0,0,0,-1,1140,1310,0,0
-77,-286,0,0,0,0,0,0,0,0,0,-1,1147,1310,0,0
-70,-286,0,0,0,0,0,0,0,0,0,-1,1154,1310,0,0
-63,-286,0,0,0,0,0,0,0,0,0,-1,1161,1310,0,0
-56,-286,0,0,0,0,0,0,0,0,0,-1,1168,1310,0,0
-49,-286,0,0,0,0,0,0,0,0,0,-1,1175,1310,0,0
-42,-286,0,0,0,0,0,0,0,0,0,-1,1182,1310,0,0
-35,-286,0,0,0,0,0,0,0,0,0,-1,1189,1310,0,0
-28,-286,0,0,0,0,0,0,0,0,0,-1,1196,1310,0,0
-21,-286,0,0,0,0,0,0,0,0,0,-1,1203,1310,0,0
-14,-286,0,0,0,0,0,0,0,0,0,-1,1210,1310,0,0
-7,-286,0,0,0,0,0,0,0,0,0,-1,1217,1310,0,0
0,-286,0,0,0,0,0,0,0,0,0,-1,1224,1310,0,0
7,-286,0,0,0,0,0,0,0,0,0,-1,1231,1310,0,0
14,-286,0,0,0,0,0,0,0,0,0,-1,1238,1310,0,0
21,-286,0,0,0,0,0,0,0,0,0,-1,1245,1310,0,0
28,-286,0,0,0,0,0,0,0,0,0,-1,1252,1310,0,0
35,-286,0,0,0,0,0,0,0,0,0,-1,1259,1310,0,0
42,-286,0,0,0,0,0,0,0,0,0,-1,1266,1310,0,0
49,-286,0,0,0,0,0,0,0,0,0,-1,1273,1310,0,0
56,-286,0,0,0,0,0,0,0,0,0,-1,1280,1310,0,0
63,-286,0,0,0,0,0,0,0,0,0,-1,1287,1310,0,0
70,-286,0,0,0,0,0,0,0,0,0,-1,1294,1310,0,0
77,-286,0,0,0,0,0,0,0,0,0,-1,1301,1310,0,0
84,-286,0,0,0,0,0,0,0,0,0,-1,1308,1310,0,0
91,-286,0,0,0,0,0,0,0,0,0,-1,1315,1310,0,0
98,-286,0,0,0,0,0,0,0,0,0,-1,1322,1310,0,0
105,-286,0,0,0,0,0,0,0,0,0,-1,1329,1310,0,0
112,-286,0,0,0,0,0,0,0,0,0,-1,1336,1310,0,0
119,-286,0,0,0,0,0,0,0,0,0,-1,1343,1310,0,0
126,-286,0,0,0,0,0,0,0,0,0,-1,1350,1310,0,0
133,-286,0,0,0,0,0,0,0,0,0,-1,1357,1310,0,0
140,-286,0,0,0,0,0,0,0,0,0,-1,1364,1310,0,0
147,-286,0,0,0,0,0,0,0,0,0,-1,1371,1310,0,0
154,-286,0,0,0,0,0,0,0,0,0,-1,1378,1310,0,0
161,-286,0,0,0,0,0,0,0,0,0,-1,1385,1310,0,0
168,-286,0,0,0,0,0,0,0,0,0,-1,1392,1310,0,0
175,-286,0,0,0,0,0,0,0,0,0,-1,1399,1310,0,0
182,-286,0,0,0,0,0,0,0,0,0,-1,1406,1310,0,0
189,-286,0,0,0,0,0,0,0,0,0,-1,1413,1310,0,0
196,-286,0,0,0,0,0,0,0,0,0,-1,1420,1310,0,0
203,-286,0,0,0,0,0,0,0,0,0,-1,1427,1310,0,0
210,-286,0,0,0,0,0,0,0,0,0,-1,1434,1310,0,0
217,-286,0,0,0,0,0,0,0,0,0,-1,1441,1310,0,0
224,-286,0,0,0,0,0,0,0,0,0,-1,1448,1310,0,0
231,-286,0,0,0,0,0,0,0,0,0,-1,1455,1310,0,0
238,-286,0,0,0,0,0,0,0,0,0,-1,1462,1310,0,0
245,-286,0,0,0,0,0,0,0,0,0,-1,1469,1310,0,0
252,-286,0,0,0,0,0,0,0,0,0,-1,1476,1310,0,0
259,-286,0,0,0,0,0,0,0,0,0,-1,1483,1310,0,0
266,-286,0,0,0,0,0,0,0,0,0,-1,1490,1310,0,0
273,-286,0,0,0,0,0,0,0,0,0,-1,1497,1310,0,0
280,-286,0,0,0,0,0,0,0,0,0,-1,1504,1310,0,0
287,-286,0,0,0,0,0,0,0,0,0,-1,1511,1310,0,0
294,-286,0,0,0,0,0,0,0,0,0,-1,1518,1310,0,0
301,-286,0,0,0,0,0,0,0,0,0,-1,1525,1310,0,0
308,-286,0,0,0,0,0,0,0,0,0,-1,1532,1310,0,0
315,-286,0,0,0,0,0,0,0,0,0,-1,1539,1310,0,0
322,-286,0,0,0,0,0,0,0,0,0,-1,1546,1310,0,0
329,-286,0,0,0,0,0,0,0,0,0,-1,1553,1310,0,0
336,-286,0,0,0,0,0,0,0,0,0,-1,1560,1310,0,0
343,-286,0,0,0,0,0,0,0,0,0,-1,1567,1310,0,0
350,-286,0,0,0,0,0,0,0,0,0,-1,1574,1310,0,0
357,-286,0,0,0,0,0,0,0,0,0,-1,1581,1310,0,0
364,-286,0,0,0,0,0,0,0,0,0,-1,1588,1310,0,0
371,-286,0,0,0,0,0,0,0,0,0,-1,1595,1310,0,0
378,-286,0,0,0,0,0,0,0,0,0,-1,1602,1310,0,0
385,-286,0,0,0,0,0,0,0,0,0,-1,1609,1310,0,0
392,-286,0,0,0,0,0,0,0,0,0,-1,1616,1310,0,0
399,-286,0,0,0,0,0,0,0,0,0,-1,1623,1310,0,0
406,-286,0,0,0,0,0,0,0,0,0,-1,1630,1310,0,0
413,-286,0,0,0,0,0,0,0,0,0,-1,1637,1310,0,0
420,-286,0,0,0,0,0,0,0,0,0,-1,1644,1310,0,0
427,-286,0,0,0,0,0,0,0,0,0,-1,1651,1310,0,0
434,-286,0,0,0,0,0,0,0,0,0,-1,1658,1310,0,0
441,-286,0,0,0,0,0,0,0,0,0,-1,1665,1310,0,0
448,-286,0,0,0,0,0,0,0,0,0,-1,1672,1310,0,0
455,-286,0,0,0,0,0,0,0,0,0,-1,1679,1310,0,0
462,-286,0,0,0,0,0,0,0,0,0,-1,1686,1310,0,0
469,-286,0,0,0,0,0,0,0,0,0,-1,1693,1310,0,0
476,-286,0,0,0,0,0,0,0,0,0,-1,1700,1310,0,0
483,-286,0,0,0,0,0,0,0,0,0,-1,1707,1310,0,0
490,-286,0,0,0,0,0,0,0,0,0,-1,1714,1310,0,0
497,-286,0,0,0,0,0,0,0,0,0,-1,1721,1310,0,0
504,-286,0,0,0,0,0,0,0,0,0,-1,1728,1310,0,0
511,-286,0,0,0,0,0,0,0,0,0,-1,1735,1310,0,0
518,-286,0,0,0,0,0,0,0,0,0,-1,1742,1310,0,0
525,-286,0,0,0,0,0,0,0,0,0,-1,1749,1310,0,0
532,-286,0,0,0,0,0,0,0,0,0,-1,1756,1310,0,0
539,-286,0,0,0,0,0,0,0,0,0,-1,1763,1310,0,0
546,-286,0,0,0,0,0,0,0,0,0,-1,1770,1310,0,0
553,-286,0,0,0,0,0,0,0,0,0,-1,1777,1310,0,0
560,-286,0,0,0,0,0,0,0,0,0,-1,1784,1310,0,0
567,-286,0,0,0,0,0,0,0,0,0,-1,1791,1310,0,0
574,-286,0,0,0,0,0,0,0,0,0,-1,1798,1310,0,0
581,-286,0,0,0,0,0,0,0,0,0,-1,1805,1310,0,0
588,-286,0,0,0,0,0,0,0,0,0,-1,1812,1310,0,0
595,-286,47.9208,2.89246,0,0,0,0,0,0,0,-1,1819,1310,47.9208,-2.89241
602,-286,48.4025,2.62781,0,0,0,0,0,0,0,-1,1826,1310,48.4025,-2.6278
609,-286,48.4363,2.13965,0,0,0,0,0,0,0,-1,1833,1310,48.4362,-2.13963
616,-286,47.8821,2.17126,0,0,0,0,0,0,0,-1,1840,1310,47.8821,-2.17123
623,-286,48.2949,2.5896,0,0,0,0,0,0,0,-1,1847,1310,48.295,-2.58966
630,-286,47.1569,3.21167,0,0,0,0,0,0,0,-1,1854,1310,47.1569,-3.21161
637,-286,47.8409,3.69824,0,0,0,0,0,0,0,-1,1861,1310,47.841,-3.69823
644,-286,25.6433,1.33862,0,0,0,0,0,0,0,-1,1868,1310,25.6433,-1.33858
651,-286,25.2507,1.88245,0,0,0,0,0,0,0,-1,1875,1310,25.2508,-1.88245
658,-286,25.9475,9.43689,0,0,0,0,0,0,0,-1,1882,1310,25.9475,-9.43693
665,-286,24.9838,8.03101,0,0,0,0,0,0,0,-1,1889,1310,24.9837,-8.03104
672,-286,34.2358,10.9761,0,0,0,0,0,0,0,-1,1896,1310,34.2359,-10.9761
679,-286,33.962,10.6315,0,0,0,0,0,0,0,-1,1903,1310,33.9621,-10.6315
686,-286,33.9543,10.1808,-0.00127531,-0.00153894,-0.000979078,-0.000419216,-0.00239504,-0.718484,0.00147692,0.0208124,1910,1310,33.9544,-10.1808
693,-286,33.9376,9.72034,-0.000588614,-0.00100024,-0.000101659,-0.000564876,-0.00102398,-0.229393,0.000592244,0.015498,1917,1310,33.9376,-9.72033
700,-286,33.9265,9.23999,2.29552e-05,-0.000558151,0.000358694,0.000194011,-0.000729207,0.444985,0.000562082,0.0115223,1924,1310,33.9265,-9.23995
707,-286,33.9125,8.79236,-8.5063e-06,-0.0001128,0.000634346,0.000575833,-0.000697139,0.744387,0.000736062,0.00881716,1931,1310,33.9125,-8.7923
714,-286,33.9072,8.32324,-0.000448249,5.21604e-05,0.000847434,0.000685555,-0.00108164,0.928945,0.0010288,0.00867193,1938,1310,33.9072,-8.32327
721,-286,33.9231,7.84106,-0.000767774,0.000470803,0.00082782,0.000885344,-0.00118231,1.10654,0.00119786,0.011397,1945,1310,33.9232,-7.84112
728,-286,33.9047,7.3844,-0.00118519,0.00084019,0.000829272,0.00113641,-0.0014814,1.22772,0.00151576,0.0142658,1952,1310,33.9047,-7.38441
735,-286,33.9116,6.93762,-0.00135333,0.00133701,0.000559681,0.00144879,-0.00146512,1.37366,0.00168236,0.0185719,1959,1310,33.9116,-6.93757
742,-286,33.9072,6.53882,-0.000963773,0.00208899,-0.000168354,0.00209825,-0.00097303,-1.51587,0.00181244,0.0427533,1966,1310,33.9072,-6.53887
749,-286,34.0846,6.08899,0,0,0,0,0,0,0,-1,1973,1310,34.0846,-6.08904
756,-286,24.8226,4.43481,0,0,0,0,0,0,0,-1,1980,1310,24.8227,-4.43479
763,-286,20.6671,3.99683,0,0,0,0,0,0,0,-1,1987,1310,20.6671,-3.99683
770,-286,23.9147,4.45679,0,0,0,0,0,0,0,-1,1994,1310,23.9146,-4.45675
777,-286,0,0,0,0,0,0,0,0,0,-1,2001,1310,0,0
784,-286,0,0,0,0,0,0,0,0,0,-1,2008,1310,0,0
791,-286,0,0,0,0,0,0,0,0,0,-1,2015,1310,0,0
798,-286,0,0,0,0,0,0,0,0,0,-1,2022,1310,0,0
805,-286,0,0,0,0,0,0,0,0,0,-1,2029,1310,0,0
812,-286,0,0,0,0,0,0,0,0,0,-1,2036,1310,0,0
-700,-293,0,0,0,0,0,0,0,0,0,-1,524,1317,0,0
-693,-293,0,0,0,0,0,0,0,0,0,-1,531,1317,0,0
-686,-293,0,0,0,0,0,0,0,0,0,-1,538,1317,0,0
-679,-293,0,0,0,0,0,0,0,0,0,-1,545,1317,0,0
-672,-293,0,0,0,0,0,0,0,0,0,-1,552,1317,0,0
-665,-293,0,0,0,0,0,0,0,0,0,-1,559,1317,0,0
-658,-293,0,0,0,0,0,0,0,0,0,-1,566,1317,0,0
-651,-293,-19.3986,0.230591,0,0,0,0,0,0,0,-1,573,1317,-19.3986,-0.230615
-644,-293,-19.6501,1.56128,0,0,0,0,0,0,0,-1,580,1317,-19.6502,-1.56126
-637,-293,-19.9641,2.40369,0,0,0,0,0,0,0,-1,587,1317,-19.9641,-2.4037
-630,-293,-20.2918,3.08264,0,0,0,0,0,0,0,-1,594,1317,-20.2918,-3.08267
-623,-293,-15.6058,0.229614,0,0,0,0,0,0,0,-1,601,1317,-15.6058,-0.229666
-616,-293,-15.5056,2.17737,0,0,0,0,0,0,0,-1,608,1317,-15.5055,-2.17742
-609,-293,-19.5353,3.63049,0,0,0,0,0,0,0,-1,615,1317,-19.5353,-3.63055
-602,-293,-19.5055,4.35291,0.00525604,0.00496308,0.00435808,0.0094701,0.000749018,0.768599,0.00607913,0.047524,622,1317,-19.5055,-4.35296
-595,-293,-19.6602,5.03149,0.00415361,0.00363761,0.00318388,0.00708992,0.000701298,0.74497,0.00451106,0.0191803,629,1317,-19.6601,-5.03154
-588,-293,-19.6305,5.53113,0.0033317,0.00254034,0.00230525,0.00527499,0.000597056,0.700404,0.0033355,0.0162487,636,1317,-19.6305,-5.53116
-581,-293,-19.6265,6.02478,0.00281696,0.00166529,0.00168149,0.00401848,0.000463768,0.620429,0.00253856,0.0188278,643,1317,-19.6265,-6.02482
-574,-293,-19.6572,6.57532,0.00253633,0.000915034,0.0012348,0.00320281,0.000248563,0.494932,0.00205736,0.0175472,650,1317,-19.6571,-6.57526
-567,-293,-19.6808,7.11194,0.00246536,0.000304204,0.000952694,0.00282536,-5.57986e-05,0.361292,0.00190245,0.0168587,657,1317,-19.6808,-7.11196
-560,-293,-19.6923,7.63464,0.00260624,-0.000246552,0.000804599,0.00281752,-0.000457833,0.256794,0.00204809,0.0171176,664,1317,-19.6923,-7.63463
-553,-293,-19.6926,8.14063,0.00304059,-0.000671704,0.000827033,0.0032165,-0.000847617,0.20958,0.00247572,0.0119661,671,1317,-19.6926,-8.14063
-546,-293,-19.7077,8.66248,0.00367399,-0.000936777,0.000985989,0.00387599,-0.00113878,0.202073,0.00303564,0.0121914,678,1317,-19.7077,-8.66248
-539,-293,-19.6552,9.1886,0.00481306,-0.00125874,0.0013838,0.00511357,-0.00155924,0.213838,0.00403061,0.0351663,685,1317,-19.6552,-9.18859
-532,-293,-19.5632,9.6637,0,0,0,0,0,0,0,-1,692,1317,-19.5632,-9.66365
-525,-293,-8.20642,3.62256,0,0,0,0,0,0,0,-1,699,1317,-8.20639,-3.6226
-518,-293,-10.1053,0.314209,0,0,0,0,0,0,0,-1,706,1317,-10.1053,-0.314234
-511,-293,-11.6276,0.235352,0,0,0,0,0,0,0,-1,713,1317,-11.6276,-0.235372
-504,-293,-17.9086,1.25427,0,0,0,0,0,0,0,-1,720,1317,-17.9086,-1.25423
-497,-293,-18.8006,1.62122,0,0,0,0,0,0,0,-1,727,1317,-18.8006,-1.62119
-490,-293,-18.8961,1.99255,0,0,0,0,0,0,0,-1,734,1317,-18.8961,-1.99251
-483,-293,-19.0831,2.35498,0,0,0,0,0,0,0,-1,741,1317,-19.0831,-2.35497
-476,-293,-19.5228,2.61243,0,0,0,0,0,0,0,-1,748,1317,-19.5228,-2.61237
-469,-293,0,0,0,0,0,0,0,0,0,-1,755,1317,0,0
-462,-293,0,0,0,0,0,0,0,0,0,-1,762,1317,0,0
-455,-293,0,0,0,0,0,0,0,0,0,-1,769,1317,0,0
-448,-293,0,0,0,0,0,0,0,0,0,-1,776,1317,0,0
-441,-293,0,0,0,0,0,0,0,0,0,-1,783,1317,0,0
-434,-293,0,0,0,0,0,0,0,0,0,-1,790,1317,0,0
-427,-293,0,0,0,0,0,0,0,0,0,-1,797,1317,0,0
-420,-293,0,0,0,0,0,0,0,0,0,-1,804,1317,0,0
-413,-293,0,0,0,0,0,0,0,0,0,-1,811,1317,0,0
-406,-293,0,0,0,0,0,0,0,0,0,-1,818,1317,0,0
-399,-293,0,0,0,0,0,0,0,0,0,-1,825,1317,0,0
-392,-293,0,0,0,0,0,0,0,0,0,-1,832,1317,0,0
-385,-293,0,0,0,0,0,0,0,0,0,-1,839,1317,0,0
-378,-293,0,0,0,0,0,0,0,0,0,-1,846,1317,0,0
-371,-293,0,0,0,0,0,0,0,0,0,-1,853,1317,0,0
-364,-293,0,0,0,0,0,0,0,0,0,-1,860,1317,0,0
-357,-293,0,0,0,0,0,0,0,0,0,-1,867,1317,0,0
-350,-293,0,0,0,0,0,0,0,0,0,-1,874,1317,0,0
-343,-293,0,0,0,0,0,0,0,0,0,-1,881,1317,0,0
-336,-293,0,0,0,0,0,0,0,0,0,-1,888,1317,0,0
-329,-293,0,0,0,0,0,0,0,0,0,-1,895,1317,0,0
-322,-293,0,0,0,0,0,0,0,0,0,-1,902,1317,0,0
-315,-293,0,0,0,0,0,0,0,0,0,-1,909,1317,0,0
-308,-293,0,0,0,0,0,0,0,0,0,-1,916,1317,0,0
-301,-293,0,0,0,0,0,0,0,0,0,-1,923,1317,0,0
-294,-293,0,0,0,0,0,0,0,0,0,-1,930,1317,0,0
-287,-293,0,0,0,0,0,0,0,0,0,-1,937,1317,0,0
-280,-293,0,0,0,0,0,0,0,0,0,-1,944,1317,0,0
-273,-293,0,0,0,0,0,0,0,0,0,-1,951,1317,0,0
-266,-293,0,0,0,0,0,0,0,0,0,-1,958,1317,0,0
-259,-293,0,0,0,0,0,0,0,0,0,-1,965,1317,0,0
-252,-293,0,0,0,0,0,0,0,0,0,-1,972,1317,0,0
-245,-293,0,0,0,0,0,0,0,0,0,-1,979,1317,0,0
-238,-293,0,0,0,0,0,0,0,0,0,-1,986,1317,0,0
-231,-293,0,0,0,0,0,0,0,0,0,-1,993,1317,0,0
-224,-293,0,0,0,0,0,0,0,0,0,-1,1000,1317,0,0
-217,-293,0,0,0,0,0,0,0,0,0,-1,1007,1317,0,0
-210,-293,0,0,0,0,0,0,0,0,0,-1,1014,1317,0,0
-203,-293,0,0,0,0,0,0,0,0,0,-1,1021,1317,0,0
-196,-293,0,0,0,0,0,0,0,0,0,-1,1028,1317,0,0
-189,-293,0,0,0,0,0,0,0,0,0,-1,1035,1317,0,0
-182,-293,0,0,0,0,0,0,0,0,0,-1,1042,1317,0,0
-175,-293,0,0,0,0,0,0,0,0,0,-1,1049,1317,0,0
-168,-293,0,0,0,0,0,0,0,0,0,-1,1056,1317,0,0
-161,-293,0,0,0,0,0,0,0,0,0,-1,1063,1317,0,0
-154,-293,0,0,0,0,0,0,0,0,0,-1,1070,1317,0,0
-147,-293,0,0,0,0,0,0,0,0,0,-1,1077,1317,0,0
-140,-293,0,0,0,0,0,0,0,0,0,-1,1084,1317,0,0
-133,-293,0,0,0,0,0,0,0,0,0,-1,1091,1317,0,0
-126,-293,0,0,0,0,0,0,0,0,0,-1,1098,1317,0,0
-119,-293,0,0,0,0,0,0,0,0,0,-1,1105,1317,0,0
-112,-293,0,0,0,0,0,0,0,0,0,-1,1112,1317,0,0
-105,-293,0,0,0,0,0,0,0,0,0,-1,1119,1317,0,0
-98,-293,0,0,0,0,0,0,0,0,0,-1,1126,1317,0,0
-91,-293,0,0,0,0,0,0,0,0,0,-1,1133,1317,0,0
-84,-293,0,0,0,0,0,0,0,0,0,-1,1140,1317,0,0
-77,-293,0,0,0,0,0,0,0,0,0,-1,1147,1317,0,0
-70,-293,0,0,0,0,0,0,0,0,0,-1,1154,1317,0,0
-63,-293,0,0,0,0,0,0,0,0,0,-1,1161,1317,0,0
-56,-293,0,0,0,0,0,0,0,0,0,-1,1168,1317,0,0
-49,-293,0,0,0,0,0,0,0,0,0,-1,1175,1317,0,0
-42,-293,0,0,0,0,0,0,0,0,0,-1,1182,1317,0,0
-35,-293,0,0,0,0,0,0,0,0,0,-1,1189,1317,0,0
-28,-293,0,0,0,0,0,0,0,0,0,-1,1196,1317,0,0
-21,-293,0,0,0,0,0,0,0,0,0,-1,1203,1317,0,0
-14,-293,0,0,0,0,0,0,0,0,0,-1,1210,1317,0,0
-7,-293,0,0,0,0,0,0,0,0,0,-1,1217,1317,0,0
0,-293,0,0,0,0,0,0,0,0,0,-1,1224,1317,0,0
7,-293,0,0,0,0,0,0,0,0,0,-1,1231,1317,0,0
14,-293,0,0,0,0,0,0,0,0,0,-1,1238,1317,0,0
21,-293,0,0,0,0,0,0,0,0,0,-1,1245,1317,0,0
28,-293,0,0,0,0,0,0,0,0,0,-1,1252,1317,0,0
35,-293,0,0,0,0,0,0,0,0,0,-1,1259,1317,0,0
42,-293,0,0,0,0,0,0,0,0,0,-1,1266,1317,0,0
49,-293,0,0,0,0,0,0,0,0,0,-1,1273,1317,0,0
56,-293,0,0,0,0,0,0,0,0,0,-1,1280,1317,0,0
63,-293,0,0,0,0,0,0,0,0,0,-1,1287,1317,0,0
70,-293,0,0,0,0,0,0,0,0,0,-1,1294,1317,0,0
77,-293,0,0,0,0,0,0,0,0,0,-1,1301,1317,0,0
84,-293,0,0,0,0,0,0,0,0,0,-1,1308,1317,0,0
91,-293,0,0,0,0,0,0,0,0,0,-1,1315,1317,0,0
98,-293,0,0,0,0,0,0,0,0,0,-1,1322,1317,0,0
105,-293,0,0,0,0,0,0,0,0,0,-1,1329,1317,0,0
112,-293,0,0,0,0,0,0,0,0,0,-1,1336,1317,0,0
119,-293,0,0,0,0,0,0,0,0,0,-1,1343,1317,0,0
126,-293,0,0,0,0,0,0,0,0,0,-1,1350,1317,0,0
133,-293,0,0,0,0,0,0,0,0,0,-1,1357,1317,0,0
140,-293,0,0,0,0,0,0,0,0,0,-1,1364,1317,0,0
147,-293,0,0,0,0,0,0,0,0,0,-1,1371,1317,0,0
154,-293,0,0,0,0,0,0,0,0,0,-1,1378,1317,0,0
161,-293,0,0,0,0,0,0,0,0,0,-1,1385,1317,0,0
168,-293,0,0,0,0,0,0,0,0,0,-1,1392,1317,0,0
175,-293,0,0,0,0,0,0,0,0,0,-1,1399,1317,0,0
182,-293,0,0,0,0,0,0,0,0,0,-1,1406,1317,0,0
189,-293,0,0,0,0,0,0,0,0,0,-1,1413,1317,0,0
196,-293,0,0,0,0,0,0,0,0,0,-1,1420,1317,0,0
203,-293,0,0,0,0,0,0,0,0,0,-1,1427,1317,0,0
210,-293,0,0,0,0,0,0,0,0,0,-1,1434,1317,0,0
217,-293,0,0,0,0,0,0,0,0,0,-1,1441,1317,0,0
224,-293,0,0,0,0,0,0,0,0,0,-1,1448,1317,0,0
231,-293,0,0,0,0,0,0,0,0,0,-1,1455,1317,0,0
238,-293,0,0,0,0,0,0,0,0,0,-1,1462,1317,0,0
245,-293,0,0,0,0,0,0,0,0,0,-1,1469,1317,0,0
252,-293,0,0,0,0,0,0,0,0,0,-1,1476,1317,0,0
259,-293,0,0,0,0,0,0,0,0,0,-1,1483,1317,0,0
266,-293,0,0,0,0,0,0,0,0,0,-1,1490,1317,0,0
273,-293,0,0,0,0,0,0,0,0,0,-1,1497,1317,0,0
280,-293,0,0,0,0,0,0,0,0,0,-1,1504,1317,0,0
287,-293,0,0,0,0,0,0,0,0,0,-1,1511,1317,0,0
294,-293,0,0,0,0,0,0,0,0,0,-1,1518,1317,0,0
301,-293,0,0,0,0,0,0,0,0,0,-1,1525,1317,0,0
308,-293,0,0,0,0,0,0,0,0,0,-1,1532,1317,0,0
315,-293,0,0,0,0,0,0,0,0,0,-1,1539,1317,0,0
322,-293,0,0,0,0,0,0,0,0,0,-1,1546,1317,0,0
329,-293,0,0,0,0,0,0,0,0,0,-1,1553,1317,0,0
336,-293,0,0,0,0,0,0,0,0,0,-1,1560,1317,0,0
343,-293,0,0,0,0,0,0,0,0,0,-1,1567,1317,0,0
350,-293,0,0,0,0,0,0,0,0,0,-1,1574,1317,0,0
357,-293,0,0,0,0,0,0,0,0,0,-1,1581,1317,0,0
364,-293,0,0,0,0,0,0,0,0,0,-1,1588,1317,0,0
371,-293,0,0,0,0,0,0,0,0,0,-1,1595,1317,0,0
378,-293,0,0,0,0,0,0,0,0,0,-1,1602,1317,0,0
385,-293,0,0,0,0,0,0,0,0,0,-1,1609,1317,0,0
392,-293,0,0,0,0,0,0,0,0,0,-1,1616,1317,0,0
399,-293,0,0,0,0,0,0,0,0,0,-1,1623,1317,0,0
406,-293,0,0,0,0,0,0,0,0,0,-1,1630,1317,0,0
413,-293,0,0,0,0,0,0,0,0,0,-1,1637,1317,0,0
420,-293,0,0,0,0,0,0,0,0,0,-1,1644,1317,0,0
427,-293,0,0,0,0,0,0,0,0,0,-1,1651,1317,0,0
434,-293,0,0,0,0,0,0,0,0,0,-1,1658,1317,0,0
441,-293,0,0,0,0,0,0,0,0,0,-1,1665,1317,0,0
448,-293,0,0,0,0,0,0,0,0,0,-1,1672,1317,0,0
455,-293,0,0,0,0,0,0,0,0,0,-1,1679,1317,0,0
462,-293,0,0,0,0,0,0,0,0,0,-1,1686,1317,0,0
469,-293,0,0,0,0,0,0,0,0,0,-1,1693,1317,0,0
476,-293,0,0,0,0,0,0,0,0,0,-1,1700,1317,0,0
483,-293,0,0,0,0,0,0,0,0,0,-1,1707,1317,0,0
490,-293,0,0,0,0,0,0,0,0,0,-1,1714,1317,0,0
497,-293,0,0,0,0,0,0,0,0,0,-1,1721,1317,0,0
504,-293,0,0,0,0,0,0,0,0,0,-1,1728,1317,0,0
511,-293,0,0,0,0,0,0,0,0,0,-1,1735,1317,0,0
518,-293,0,0,0,0,0,0,0,0,0,-1,1742,1317,0,0
525,-293,0,0,0,0,0,0,0,0,0,-1,1749,1317,0,0
532,-293,0,0,0,0,0,0,0,0,0,-1,1756,1317,0,0
539,-293,0,0,0,0,0,0,0,0,0,-1,1763,1317,0,0
546,-293,0,0,0,0,0,0,0,0,0,-1,1770,1317,0,0
553,-293,0,0,0,0,0,0,0,0,0,-1,1777,1317,0,0
560,-293,0,0,0,0,0,0,0,0,0,-1,1784,1317,0,0
567,-293,0,0,0,0,0,0,0,0,0,-1,1791,1317,0,0
574,-293,0,0,0,0,0,0,0,0,0,-1,1798,1317,0,0
581,-293,0,0,0,0,0,0,0,0,0,-1,1805,1317,0,0
588,-293,0,0,0,0,0,0,0,0,0,-1,1812,1317,0,0
595,-293,48.0605,2.78748,0,0,0,0,0,0,0,-1,1819,1317,48.0606,-2.78743
602,-293,49.0872,2.13879,0,0,0,0,0,0,0,-1,1826,1317,49.0871,-2.13878
609,-293,48.6304,2.08936,-0.0248232,-0.0229417,-0.0109598,-0.0128823,-0.0348825,-0.828211,0.0203675,0.0465835,1833,1317,48.6304,-2.08933
616,-293,48.0455,2.09412,-0.0200518,-0.0205777,-0.00815213,-0.0121584,-0.0284712,-0.769276,0.0164961,0.049172,1840,1317,48.0456,-2.09416
623,-293,47.5114,2.13562,0,0,0,0,0,0,0,-1,1847,1317,47.5113,-2.13567
630,-293,46.6716,3.21558,0,0,0,0,0,0,0,-1,1854,1317,46.6716,-3.2156
637,-293,42.7729,4.95544,0,0,0,0,0,0,0,-1,1861,1317,42.773,-4.95546
644,-293,24.4565,0.520752,0,0,0,0,0,0,0,-1,1868,1317,24.4566,-0.520709
651,-293,25.8926,9.51245,0,0,0,0,0,0,0,-1,1875,1317,25.8926,-9.51246
658,-293,25.4904,9.10205,0,0,0,0,0,0,0,-1,1882,1317,25.4904,-9.10209
665,-293,33.8582,11.3739,0,0,0,0,0,0,0,-1,1889,1317,33.8582,-11.3739
672,-293,33.6003,11.1599,0.000501251,-0.00268277,-0.00158943,0.00115886,-0.00334038,-0.392294,0.0026975,0.0387631,1896,1317,33.6004,-11.16
679,-293,33.543,10.6726,-0.000714121,-0.00232618,-0.00158604,0.000258953,-0.00329925,-0.550305,0.0022907,0.0147855,1903,1317,33.5429,-10.6726
686,-293,33.5289,10.1891,-0.000579714,-0.00162233,-0.000650553,-0.000267367,-0.00193468,-0.447622,0.00121054,0.0166699,1910,1317,33.529,-10.189
693,-293,33.5028,9.73145,-0.000220963,-0.000963418,4.44383e-05,-0.000218312,-0.000966068,0.0595697,0.000585014,0.0120289,1917,1317,33.5028,-9.73148
700,-293,33.4614,9.25354,6.92833e-05,-0.000471163,0.000372874,0.000259555,-0.000661435,0.471842,0.000548348,0.0106078,1924,1317,33.4614,-9.2535
707,-293,33.441,8.80444,-7.38061e-05,-7.87815e-05,0.000606231,0.000529943,-0.00068253,0.783346,0.000701867,0.0108609,1931,1317,33.4411,-8.80447
714,-293,33.4395,8.3446,-0.00047525,8.44391e-05,0.000825223,0.000675976,-0.00106679,0.94887,0.00101458,0.00773608,1938,1317,33.4395,-8.34459
721,-293,33.4415,7.86792,-0.000798661,0.000370737,0.000892271,0.000852818,-0.00128074,1.07544,0.00124004,0.00966405,1945,1317,33.4415,-7.86787
728,-293,33.4271,7.37927,-0.00125323,0.000632284,0.000979598,0.00104909,-0.00167003,1.16852,0.00158347,0.0121125,1952,1317,33.4271,-7.37925
735,-293,33.4344,6.87915,-0.0015819,0.000987749,0.000826727,0.00123075,-0.0018249,1.28492,0.00177526,0.0241444,1959,1317,33.4345,-6.87919
742,-293,33.6014,6.44971,0,0,0,0,0,0,0,-1,1966,1317,33.6015,-6.44974
749,-293,29.439,5.35339,0,0,0,0,0,0,0,-1,1973,1317,29.4389,-5.35334
756,-293,24.978,3.9718,0,0,0,0,0,0,0,-1,1980,1317,24.978,-3.97186
763,-293,26.6713,4.74097,0,0,0,0,0,0,0,-1,1987,1317,26.6713,-4.74098
770,-293,24.1349,4.69153,0,0,0,0,0,0,0,-1,1994,1317,24.1348,-4.69159
777,-293,0,0,0,0,0,0,0,0,0,-1,2001,1317,0,0
784,-293,0,0,0,0,0,0,0,0,0,-1,2008,1317,0,0
791,-293,0,0,0,0,0,0,0,0,0,-1,2015,1317,0,0
798,-293,0,0,0,0,0,0,0,0,0,-1,2022,1317,0,0
805,-293,0,0,0,0,0,0,0,0,0,-1,2029,1317,0,0
812,-293,0,0,0,0,0,0,0,0,0,-1,2036,1317,0,0
-700,-300,0,0,0,0,0,0,0,0,0,-1,524,1324,0,0
-693,-300,0,0,0,0,0,0,0,0,0,-1,531,1324,0,0
-686,-300,0,0,0,0,0,0,0,0,0,-1,538,1324,0,0
-679,-300,0,0,0,0,0,0,0,0,0,-1,545,1324,0,0
-672,-300,0,0,0,0,0,0,0,0,0,-1,552,1324,0,0
-665,-300,0,0,0,0,0,0,0,0,0,-1,559,1324,0,0
-658,-300,0,0,0,0,0,0,0,0,0,-1,566,1324,0,0
-651,-300,-20.1143,0.203857,0,0,0,0,0,0,0,-1,573,1324,-20.1142,-0.203872
-644,-300,-20.4374,1.17224,0,0,0,0,0,0,0,-1,580,1324,-20.4375,-1.17226
-637,-300,-20.7362,1.82813,0,0,0,0,0,0,0,-1,587,1324,-20.7362,-1.8281
-630,-300,-21.1108,2.26306,0,0,0,0,0,0,0,-1,594,1324,-21.1109,-2.2631
-623,-300,-12.7067,1.48462,0,0,0,0,0,0,0,-1,601,1324,-12.7067,-1.48462
-616,-300,-14.9988,1.68628,0,0,0,0,0,0,0,-1,608,1324,-14.9988,-1.68627
-609,-300,-15.5027,3.29907,0,0,0,0,0,0,0,-1,615,1324,-15.5027,-3.29902
-602,-300,-19.1156,4.34045,0,0,0,0,0,0,0,-1,622,1324,-19.1156,-4.34051
-595,-300,-19.1655,5.02197,0.00501021,0.0039656,0.00343231,0.00795973,0.00101608,0.709891,0.00500231,0.0341852,629,1324,-19.1655,-5.02197
-588,-300,-19.1063,5.55798,0.00387616,0.00281234,0.00248233,0.00588293,0.000805563,0.679855,0.00368292,0.0210384,636,1324,-19.1063,-5.55803
-581,-300,-19.1313,6.08118,0.00315527,0.00193857,0.00181384,0.00446006,0.000633775,0.623597,0.00278625,0.0209821,643,1324,-19.1313,-6.08113
-574,-300,-19.1387,6.60046,0.00270395,0.0012266,0.00134484,0.00349963,0.00043092,0.534259,0.00220354,0.016804,650,1324,-19.1387,-6.60045
-567,-300,-19.1618,7.11987,0.00250951,0.000632851,0.00104519,0.00297578,0.000166587,0.419609,0.00193072,0.0169962,657,1324,-19.1618,-7.11983
-560,-300,-19.1957,7.6554,0.00254677,0.000115567,0.000875086,0.00282898,-0.000166651,0.311972,0.00194392,0.0156689,664,1324,-19.1957,-7.65534
-553,-300,-19.1719,8.17175,0.00285358,-0.000285079,0.000857384,0.00307252,-0.000504018,0.250014,0.00223537,0.0109881,671,1324,-19.1719,-8.17177
-546,-300,-19.1783,8.68652,0.00341494,-0.00055913,0.00100701,0.00365555,-0.000799735,0.234533,0.00274275,0.00899639,678,1324,-19.1783,-8.68652
-539,-300,-19.1595,9.22754,0.00443876,-0.000854997,0.0013795,0.00477667,-0.00119291,0.240223,0.00364769,0.0213172,685,1324,-19.1596,-9.22751
-532,-300,-19.1237,9.74316,0,0,0,0,0,0,0,-1,692,1324,-19.1237,-9.74316
-525,-300,-13.5115,6.27783,0,0,0,0,0,0,0,-1,699,1324,-13.5115,-6.2778
-518,-300,-9.8349,-0.537109,0,0,0,0,0,0,0,-1,706,1324,-9.83487,0.537068
-511,-300,-12.8644,0.081665,0,0,0,0,0,0,0,-1,713,1324,-12.8644,-0.0817016
-504,-300,-13.4829,-0.165527,0,0,0,0,0,0,0,-1,720,1324,-13.4829,0.165544
-497,-300,-18.1063,0.956543,0,0,0,0,0,0,0,-1,727,1324,-18.1063,-0.9565
-490,-300,-18.2293,1.53625,0,0,0,0,0,0,0,-1,734,1324,-18.2293,-1.53626
-483,-300,-18.3522,1.61084,0,0,0,0,0,0,0,-1,741,1324,-18.3522,-1.6108
-476,-300,-18.7489,1.96387,0,0,0,0,0,0,0,-1,748,1324,-18.7489,-1.96387
-469,-300,0,0,0,0,0,0,0,0,0,-1,755,1324,0,0
-462,-300,0,0,0,0,0,0,0,0,0,-1,762,1324,0,0
-455,-300,0,0,0,0,0,0,0,0,0,-1,769,1324,0,0
-448,-300,0,0,0,0,0,0,0,0,0,-1,776,1324,0,0
-441,-300,0,0,0,0,0,0,0,0,0,-1,783,1324,0,0
-434,-300,0,0,0,0,0,0,0,0,0,-1,790,1324,0,0
-427,-300,0,0,0,0,0,0,0,0,0,-1,797,1324,0,0
-420,-300,0,0,0,0,0,0,0,0,0,-1,804,1324,0,0
-413,-300,0,0,0,0,0,0,0,0,0,-1,811,1324,0,0
-406,-300,0,0,0,0,0,0,0,0,0,-1,818,1324,0,0
-399,-300,0,0,0,0,0,0,0,0,0,-1,825,1324,0,0
-392,-300,0,0,0,0,0,0,0,0,0,-1,832,1324,0,0
-385,-300,0,0,0,0,0,0,0,0,0,-1,839,1324,0,0
-378,-300,0,0,0,0,0,0,0,0,0,-1,846,1324,0,0
-371,-300,0,0,0,0,0,0,0,0,0,-1,853,1324,0,0
-364,-300,0,0,0,0,0,0,0,0,0,-1,860,1324,0,0
-357,-300,0,0,0,0,0,0,0,0,0,-1,867,1324,0,0
-350,-300,0,0,0,0,0,0,0,0,0,-1,874,1324,0,0
-343,-300,0,0,0,0,0,0,0,0,0,-1,881,1324,0,0
-336,-300,0,0,0,0,0,0,0,0,0,-1,888,1324,0,0
-329,-300,0,0,0,0,0,0,0,0,0,-1,895,1324,0,0
-322,-300,0,0,0,0,0,0,0,0,0,-1,902,1324,0,0
-315,-300,0,0,0,0,0,0,0,0,0,-1,909,1324,0,0
-308,-300,0,0,0,0,0,0,0,0,0,-1,916,1324,0,0
-301,-300,0,0,0,0,0,0,0,0,0,-1,923,1324,0,0
-294,-300,0,0,0,0,0,0,0,0,0,-1,930,1324,0,0
-287,-300,0,0,0,0,0,0,0,0,0,-1,937,1324,0,0
-280,-300,0,0,0,0,0,0,0,0,0,-1,944,1324,0,0
-273,-300,0,0,0,0,0,0,0,0,0,-1,951,1324,0,0
-266,-300,0,0,0,0,0,0,0,0,0,-1,958,1324,0,0
-259,-300,0,0,0,0,0,0,0,0,0,-1,965,1324,0,0
-252,-300,0,0,0,0,0,0,0,0,0,-1,972,1324,0,0
-245,-300,0,0,0,0,0,0,0,0,0,-1,979,1324,0,0
-238,-300,0,0,0,0,0,0,0,0,0,-1,986,1324,0,0
-231,-300,0,0,0,0,0,0,0,0,0,-1,993,1324,0,0
-224,-300,0,0,0,0,0,0,0,0,0,-1,1000,1324,0,0
-217,-300,0,0,0,0,0,0,0,0,0,-1,1007,1324,0,0
-210,-300,0,0,0,0,0,0,0,0,0,-1,1014,1324,0,0
-203,-300,0,0,0,0,0,0,0,0,0,-1,1021,1324,0,0
-196,-300,0,0,0,0,0,0,0,0,0,-1,1028,1324,0,0
-189,-300,0,0,0,0,0,0,0,0,0,-1,1035,1324,0,0
-182,-300,0,0,0,0,0,0,0,0,0,-1,1042,1324,0,0
-175,-300,0,0,0,0,0,0,0,0,0,-1,1049,1324,0,0
-168,-300,0,0,0,0,0,0,0,0,0,-1,1056,1324,0,0
-161,-300,0,0,0,0,0,0,0,0,0,-1,1063,1324,0,0
-154,-300,0,0,0,0,0,0,0,0,0,-1,1070,1324,0,0
-147,-300,0,0,0,0,0,0,0,0,0,-1,1077,1324,0,0
-140,-300,0,0,0,0,0,0,0,0,0,-1,1084,1324,0,0
-133,-300,0,0,0,0,0,0,0,0,0,-1,1091,1324,0,0
-126,-300,0,0,0,0,0,0,0,0,0,-1,1098,1324,0,0
-119,-300,0,0,0,0,0,0,0,0,0,-1,1105,1324,0,0
-112,-300,0,0,0,0,0,0,0,0,0,-1,1112,1324,0,0
-105,-300,0,0,0,0,0,0,0,0,0,-1,1119,1324,0,0
-98,-300,0,0,0,0,0,0,0,0,0,-1,1126,1324,0,0
-91,-300,0,0,0,0,0,0,0,0,0,-1,1133,1324,0,0
-84,-300,0,0,0,0,0,0,0,0,0,-1,1140,1324,0,0
-77,-300,0,0,0,0,0,0,0,0,0,-1,1147,1324,0,0
-70,-300,0,0,0,0,0,0,0,0,0,-1,1154,1324,0,0
-63,-300,0,0,0,0,0,0,0,0,0,-1,1161,1324,0,0
-56,-300,0,0,0,0,0,0,0,0,0,-1,1168,1324,0,0
-49,-300,0,0,0,0,0,0,0,0,0,-1,1175,1324,0,0
-42,-300,0,0,0,0,0,0,0,0,0,-1,1182,1324,0,0
-35,-300,0,0,0,0,0,0,0,0,0,-1,1189,1324,0,0
-28,-300,0,0,0,0,0,0,0,0,0,-1,1196,1324,0,0
-21,-300,0,0,0,0,0,0,0,0,0,-1,1203,1324,0,0
-14,-300,0,0,0,0,0,0,0,0,0,-1,1210,1324,0,0
-7,-300,0,0,0,0,0,0,0,0,0,-1,1217,1324,0,0
0,-300,0,0,0,0,0,0,0,0,0,-1,1224,1324,0,0
7,-300,0,0,0,0,0,0,0,0,0,-1,1231,1324,0,0
14,-300,0,0,0,0,0,0,0,0,0,-1,1238,1324,0,0
21,-300,0,0,0,0,0,0,0,0,0,-1,1245,1324,0,0
28,-300,0,0,0,0,0,0,0,0,0,-1,1252,1324,0,0
35,-300,0,0,0,0,0,0,0,0,0,-1,1259,1324,0,0
42,-300,0,0,0,0,0,0,0,0,0,-1,1266,1324,0,0
49,-300,0,0,0,0,0,0,0,0,0,-1,1273,1324,0,0
56,-300,0,0,0,0,0,0,0,0,0,-1,1280,1324,0,0
63,-300,0,0,0,0,0,0,0,0,0,-1,1287,1324,0,0
70,-300,0,0,0,0,0,0,0,0,0,-1,1294,1324,0,0
77,-300,0,0,0,0,0,0,0,0,0,-1,1301,1324,0,0
84,-300,0,0,0,0,0,0,0,0,0,-1,1308,1324,0,0
91,-300,0,0,0,0,0,0,0,0,0,-1,1315,1324,0,0
98,-300,0,0,0,0,0,0,0,0,0,-1,1322,1324,0,0
105,-300,0,0,0,0,0,0,0,0,0,-1,1329,1324,0,0
112,-300,0,0,0,0,0,0,0,0,0,-1,1336,1324,0,0
119,-300,0,0,0,0,0,0,0,0,0,-1,1343,1324,0,0
126,-300,0,0,0,0,0,0,0,0,0,-1,1350,1324,0,0
133,-300,0,0,0,0,0,0,0,0,0,-1,1357,1324,0,0
140,-300,0,0,0,0,0,0,0,0,0,-1,1364,1324,0,0
147,-300,0,0,0,0,0,0,0,0,0,-1,1371,1324,0,0
154,-300,0,0,0,0,0,0,0,0,0,-1,1378,1324,0,0
161,-300,0,0,0,0,0,0,0,0,0,-1,1385,1324,0,0
168,-300,0,0,0,0,0,0,0,0,0,-1,1392,1324,0,0
175,-300,0,0,0,0,0,0,0,0,0,-1,1399,1324,0,0
182,-300,0,0,0,0,0,0,0,0,0,-1,1406,1324,0,0
189,-300,0,0,0,0,0,0,0,0,0,-1,1413,1324,0,0
196,-300,0,0,0,0,0,0,0,0,0,-1,1420,1324,0,0
203,-300,0,0,0,0,0,0,0,0,0,-1,1427,1324,0,0
210,-300,0,0,0,0,0,0,0,0,0,-1,1434,1324,0,0
217,-300,0,0,0,0,0,0,0,0,0,-1,1441,1324,0,0
224,-300,0,0,0,0,0,0,0,0,0,-1,1448,1324,0,0
231,-300,0,0,0,0,0,0,0,0,0,-1,1455,1324,0,0
238,-300,0,0,0,0,0,0,0,0,0,-1,1462,1324,0,0
245,-300,0,0,0,0,0,0,0,0,0,-1,1469,1324,0,0
252,-300,0,0,0,0,0,0,0,0,0,-1,1476,1324,0,0
259,-300,0,0,0,0,0,0,0,0,0,-1,1483,1324,0,0
266,-300,0,0,0,0,0,0,0,0,0,-1,1490,1324,0,0
273,-300,0,0,0,0,0,0,0,0,0,-1,1497,1324,0,0
280,-300,0,0,0,0,0,0,0,0,0,-1,1504,1324,0,0
287,-300,0,0,0,0,0,0,0,0,0,-1,1511,1324,0,0
294,-300,0,0,0,0,0,0,0,0,0,-1,1518,1324,0,0
301,-300,0,0,0,0,0,0,0,0,0,-1,1525,1324,0,0
308,-300,0,0,0,0,0,0,0,0,0,-1,1532,1324,0,0
315,-300,0,0,0,0,0,0,0,0,0,-1,1539,1324,0,0
322,-300,0,0,0,0,0,0,0,0,0,-1,1546,1324,0,0
329,-300,0,0,0,0,0,0,0,0,0,-1,1553,1324,0,0
336,-300,0,0,0,0,0,0,0,0,0,-1,1560,1324,0,0
343,-300,0,0,0,0,0,0,0,0,0,-1,1567,1324,0,0
350,-300,0,0,0,0,0,0,0,0,0,-1,1574,1324,0,0
357,-300,0,0,0,0,0,0,0,0,0,-1,1581,1324,0,0
364,-300,0,0,0,0,0,0,0,0,0,-1,1588,1324,0,0
371,-300,0,0,0,0,0,0,0,0,0,-1,1595,1324,0,0
378,-300,0,0,0,0,0,0,0,0,0,-1,1602,1324,0,0
385,-300,0,0,0,0,0,0,0,0,0,-1,1609,1324,0,0
392,-300,0,0,0,0,0,0,0,0,0,-1,1616,1324,0,0
399,-300,0,0,0,0,0,0,0,0,0,-1,1623,1324,0,0
406,-300,0,0,0,0,0,0,0,0,0,-1,1630,1324,0,0
413,-300,0,0,0,0,0,0,0,0,0,-1,1637,1324,0,0
420,-300,0,0,0,0,0,0,0,0,0,-1,1644,1324,0,0
427,-300,0,0,0,0,0,0,0,0,0,-1,1651,1324,0,0
434,-300,0,0,0,0,0,0,0,0,0,-1,1658,1324,0,0
441,-300,0,0,0,0,0,0,0,0,0,-1,1665,1324,0,0
448,-300,0,0,0,0,0,0,0,0,0,-1,1672,1324,0,0
455,-300,0,0,0,0,0,0,0,0,0,-1,1679,1324,0,0
462,-300,0,0,0,0,0,0,0,0,0,-1,1686,1324,0,0
469,-300,0,0,0,0,0,0,0,0,0,-1,1693,1324,0,0
476,-300,0,0,0,0,0,0,0,0,0,-1,1700,1324,0,0
483,-300,0,0,0,0,0,0,0,0,0,-1,1707,1324,0,0
490,-300,0,0,0,0,0,0,0,0,0,-1,1714,1324,0,0
497,-300,0,0,0,0,0,0,0,0,0,-1,1721,1324,0,0
504,-300,0,0,0,0,0,0,0,0,0,-1,1728,1324,0,0
511,-300,0,0,0,0,0,0,0,0,0,-1,1735,1324,0,0
518,-300,0,0,0,0,0,0,0,0,0,-1,1742,1324,0,0
525,-300,0,0,0,0,0,0,0,0,0,-1,1749,1324,0,0
532,-300,0,0,0,0,0,0,0,0,0,-1,1756,1324,0,0
539,-300,0,0,0,0,0,0,0,0,0,-1,1763,1324,0,0
546,-300,0,0,0,0,0,0,0,0,0,-1,1770,1324,0,0
553,-300,0,0,0,0,0,0,0,0,0,-1,1777,1324,0,0
560,-300,0,0,0,0,0,0,0,0,0,-1,1784,1324,0,0
567,-300,0,0,0,0,0,0,0,0,0,-1,1791,1324,0,0
574,-300,0,0,0,0,0,0,0,0,0,-1,1798,1324,0,0
581,-300,0,0,0,0,0,0,0,0,0,-1,1805,1324,0,0
588,-300,47.0767,3.70276,0,0,0,0,0,0,0,-1,1812,1324,47.0766,-3.70277
595,-300,48.5194,2.6947,0,0,0,0,0,0,0,-1,1819,1324,48.5193,-2.69471
602,-300,48.5337,2.71863,0,0,0,0,0,0,0,-1,1826,1324,48.5337,-2.71862
609,-300,48.3101,2.51758,-0.0287135,-0.0267265,-0.0129737,-0.0147083,-0.0407317,-0.823614,0.023817,0.0478812,1833,1324,48.3101,-2.51757
616,-300,47.9926,2.41736,-0.0228354,-0.0227287,-0.00972202,-0.0130599,-0.0325042,-0.788144,0.0188866,0.0495797,1840,1324,47.9926,-2.4174
623,-300,47.4474,2.43188,0,0,0,0,0,0,0,-1,1847,1324,47.4474,-2.43194
630,-300,42.4099,3.9165,0,0,0,0,0,0,0,-1,1854,1324,42.4099,-3.91649
637,-300,31.1719,4.6366,0,0,0,0,0,0,0,-1,1861,1324,31.1718,-4.63665
644,-300,22.9836,3.44934,0,0,0,0,0,0,0,-1,1868,1324,22.9836,-3.4493
651,-300,25.5004,9.11853,0,0,0,0,0,0,0,-1,1875,1324,25.5004,-9.11851
658,-300,25.4012,9.20032,0,0,0,0,0,0,0,-1,1882,1324,25.4012,-9.20036
665,-300,33.1646,11.6506,0,0,0,0,0,0,0,-1,1889,1324,33.1645,-11.6506
672,-300,33.0336,11.223,0.00190675,-0.00244734,-0.00100681,0.00212828,-0.00266888,-0.216587,0.0027755,0.0221236,1896,1324,33.0336,-11.223
679,-300,33.063,10.6965,0.000546678,-0.00198676,-0.000945971,0.00086092,-0.002301,-0.320721,0.00188759,0.0130636,1903,1324,33.0629,-10.6965
686,-300,33.0504,10.2136,0.000341321,-0.00129554,-0.000199138,0.0003652,-0.00131941,-0.11934,0.0010233,0.0141739,1910,1324,33.0505,-10.2137
693,-300,33.0125,9.75525,0.000335814,-0.000726444,0.000252307,0.000392696,-0.000783327,0.22174,0.00069135,0.011358,1917,1324,33.0124,-9.75522
700,-300,32.9883,9.2644,0.000318921,-0.000338849,0.00041023,0.000515825,-0.000535753,0.447507,0.000607165,0.0121335,1924,1324,32.9883,-9.26435
707,-300,32.9851,8.78088,6.86551e-05,-5.14626e-05,0.000559194,0.000571006,-0.000553813,0.731902,0.00064944,0.0088659,1931,1324,32.9851,-8.78088
714,-300,32.9918,8.3335,-0.000358525,0.00014001,0.000742751,0.000674204,-0.00089272,0.947293,0.000907592,0.0106057,1938,1324,32.9918,-8.33351
721,-300,32.9781,7.87537,-0.000956673,0.000333081,0.000985286,0.000865767,-0.00148936,1.07517,0.00137553,0.012548,1945,1324,32.9782,-7.87538
728,-300,32.9751,7.3811,-0.00179423,0.00053523,0.00126985,0.00109361,-0.00235261,1.15652,0.00203346,0.0164692,1952,1324,32.9752,-7.38113
735,-300,33.0458,6.87891,0,0,0,0,0,0,0,-1,1959,1324,33.0457,-6.87894
742,-300,32.3978,6.80261,0,0,0,0,0,0,0,-1,1966,1324,32.3979,-6.80257
749,-300,27.4065,5.9718,0,0,0,0,0,0,0,-1,1973,1324,27.4065,-5.97181
756,-300,22.1423,3.45642,0,0,0,0,0,0,0,-1,1980,1324,22.1423,-3.45638
763,-300,22.6136,5.1571,0,0,0,0,0,0,0,-1,1987,1324,22.6136,-5.15706
770,-300,24.859,4.77979,0,0,0,0,0,0,0,-1,1994,1324,24.859,-4.77972
777,-300,0,0,0,0,0,0,0,0,0,-1,2001,1324,0,0
784,-300,0,0,0,0,0,0,0,0,0,-1,2008,1324,0,0
791,-300,0,0,0,0,0,0,0,0,0,-1,2015,1324,0,0
798,-300,0,0,0,0,0,0,0,0,0,-1,2022,1324,0,0
805,-300,0,0,0,0,0,0,0,0,0,-1,2029,1324,0,0
812,-300,0,0,0,0,0,0,0,0,0,-1,2036,1324,0,0
-700,-307,0,0,0,0,0,0,0,0,0,-1,524,1331,0,0
-693,-307,0,0,0,0,0,0,0,0,0,-1,531,1331,0,0
-686,-307,0,0,0,0,0,0,0,0,0,-1,538,1331,0,0
-679,-307,0,0,0,0,0,0,0,0,0,-1,545,1331,0,0
-672,-307,0,0,0,0,0,0,0,0,0,-1,552,1331,0,0
-665,-307,0,0,0,0,0,0,0,0,0,-1,559,1331,0,0
-658,-307,0,0,0,0,0,0,0,0,0,-1,566,1331,0,0
-651,-307,-20.2972,-0.0720215,0,0,0,0,0,0,0,-1,573,1331,-20.2973,0.0720287
-644,-307,-20.7615,0.556152,0,0,0,0,0,0,0,-1,580,1331,-20.7615,-0.556159
-637,-307,-21.0822,1.21277,0,0,0,0,0,0,0,-1,587,1331,-21.0821,-1.21273
-630,-307,-12.0005,0.767212,0,0,0,0,0,0,0,-1,594,1331,-12.0005,-0.767266
-623,-307,-12.2128,2.93811,0,0,0,0,0,0,0,-1,601,1331,-12.2128,-2.93813
-616,-307,-12.6612,2.08289,0,0,0,0,0,0,0,-1,608,1331,-12.6612,-2.08293
-609,-307,-12.2767,1.83228,0,0,0,0,0,0,0,-1,615,1331,-12.2768,-1.83224
-602,-307,-18.6027,4.40137,0,0,0,0,0,0,0,-1,622,1331,-18.6026,-4.40139
-595,-307,-18.7057,5.03564,0.00597682,0.00444527,0.00407408,0.00935647,0.00106562,0.692501,0.00591453,0.0432397,629,1331,-18.7057,-5.03565
-588,-307,-18.5961,5.6012,0.00451933,0.00313295,0.00287964,0.00678804,0.000864246,0.667285,0.00426656,0.0216735,636,1331,-18.5961,-5.60123
-581,-307,-18.5902,6.12317,0.00358634,0.0021982,0.00205984,0.0050659,0.000718638,0.622896,0.00316503,0.0160573,643,1331,-18.5902,-6.12315
-574,-307,-18.6372,6.6272,0.0029687,0.00145701,0.00148739,0.00388127,0.000544435,0.550317,0.00242648,0.0130078,650,1331,-18.6372,-6.62716
-567,-307,-18.6489,7.13562,0.00264689,0.000847379,0.00111195,0.00317751,0.000316754,0.445244,0.00202105,0.0133231,657,1331,-18.6489,-7.13563
-560,-307,-18.6553,7.66052,0.00257868,0.000341752,0.000891984,0.00289081,2.96228e-05,0.336609,0.00191741,0.0139066,664,1331,-18.6553,-7.66049
-553,-307,-18.6538,8.18481,0.00277116,-6.33208e-05,0.000821593,0.00299208,-0.000284246,0.262685,0.00209591,0.010773,671,1331,-18.6538,-8.18477
-546,-307,-18.6627,8.69836,0.00325859,-0.000365853,0.000938768,0.0034873,-0.000594571,0.23898,0.0025463,0.00951767,678,1331,-18.6627,-8.6984
-539,-307,-18.6686,9.24304,0.00416062,-0.000656885,0.00126437,0.00447229,-0.000968557,0.241686,0.00335136,0.0154777,685,1331,-18.6686,-9.24306
-532,-307,-18.6733,9.79517,0,0,0,0,0,0,0,-1,692,1331,-18.6733,-9.79521
-525,-307,-13.2009,6.91309,0,0,0,0,0,0,0,-1,699,1331,-13.2009,-6.9131
-518,-307,-9.77777,-1.56653,0,0,0,0,0,0,0,-1,706,1331,-9.77777,1.56651
-511,-307,-12.5226,0.26709,0,0,0,0,0,0,0,-1,713,1331,-12.5226,-0.267038
-504,-307,-12.5913,-0.308105,0,0,0,0,0,0,0,-1,720,1331,-12.5913,0.308124
-497,-307,-13.8586,-0.115845,0,0,0,0,0,0,0,-1,727,1331,-13.8587,0.115861
-490,-307,-17.9429,0.982178,0,0,0,0,0,0,0,-1,734,1331,-17.9429,-0.982198
-483,-307,-18.1066,0.927612,0,0,0,0,0,0,0,-1,741,1331,-18.1066,-0.927609
-476,-307,-18.1288,1.1228,0,0,0,0,0,0,0,-1,748,1331,-18.1289,-1.12286
-469,-307,-18.2028,0.798584,0,0,0,0,0,0,0,-1,755,1331,-18.2027,-0.798546
-462,-307,0,0,0,0,0,0,0,0,0,-1,762,1331,0,0
-455,-307,0,0,0,0,0,0,0,0,0,-1,769,1331,0,0
-448,-307,0,0,0,0,0,0,0,0,0,-1,776,1331,0,0
-441,-307,0,0,0,0,0,0,0,0,0,-1,783,1331,0,0
-434,-307,0,0,0,0,0,0,0,0,0,-1,790,1331,0,0
-427,-307,0,0,0,0,0,0,0,0,0,-1,797,1331,0,0
-420,-307,0,0,0,0,0,0,0,0,0,-1,804,1331,0,0
-413,-307,0,0,0,0,0,0,0,0,0,-1,811,1331,0,0
-406,-307,0,0,0,0,0,0,0,0,0,-1,818,1331,0,0
-399,-307,0,0,0,0,0,0,0,0,0,-1,825,1331,0,0
-392,-307,0,0,0,0,0,0,0,0,0,-1,832,1331,0,0
-385,-307,0,0,0,0,0,0,0,0,0,-1,839,1331,0,0
-378,-307,0,0,0,0,0,0,0,0,0,-1,846,1331,0,0
-371,-307,0,0,0,0,0,0,0,0,0,-1,853,1331,0,0
-364,-307,0,0,0,0,0,0,0,0,0,-1,860,1331,0,0
-357,-307,0,0,0,0,0,0,0,0,0,-1,867,1331,0,0
-350,-307,0,0,0,0,0,0,0,0,0,-1,874,1331,0,0
-343,-307,0,0,0,0,0,0,0,0,0,-1,881,1331,0,0
-336,-307,0,0,0,0,0,0,0,0,0,-1,888,1331,0,0
-329,-307,0,0,0,0,0,0,0,0,0,-1,895,1331,0,0
-322,-307,0,0,0,0,0,0,0,0,0,-1,902,1331,0,0
-315,-307,0,0,0,0,0,0,0,0,0,-1,909,1331,0,0
-308,-307,0,0,0,0,0,0,0,0,0,-1,916,1331,0,0
-301,-307,0,0,0,0,0,0,0,0,0,-1,923,1331,0,0
-294,-307,0,0,0,0,0,0,0,0,0,-1,930,1331,0,0
-287,-307,0,0,0,0,0,0,0,0,0,-1,937,1331,0,0
-280,-307,0,0,0,0,0,0,0,0,0,-1,944,1331,0,0
-273,-307,0,0,0,0,0,0,0,0,0,-1,951,1331,0,0
-266,-307,0,0,0,0,0,0,0,0,0,-1,958,1331,0,0
-259,-307,0,0,0,0,0,0,0,0,0,-1,965,1331,0,0
-252,-307,0,0,0,0,0,0,0,0,0,-1,972,1331,0,0
-245,-307,0,0,0,0,0,0,0,0,0,-1,979,1331,0,0
-238,-307,0,0,0,0,0,0,0,0,0,-1,986,1331,0,0
-231,-307,0,0,0,0,0,0,0,0,0,-1,993,1331,0,0
-224,-307,0,0,0,0,0,0,0,0,0,-1,1000,1331,0,0
-217,-307,0,0,0,0,0,0,0,0,0,-1,1007,1331,0,0
-210,-307,0,0,0,0,0,0,0,0,0,-1,1014,1331,0,0
-203,-307,0,0,0,0,0,0,0,0,0,-1,1021,1331,0,0
-196,-307,0,0,0,0,0,0,0,0,0,-1,1028,1331,0,0
-189,-307,0,0,0,0,0,0,0,0,0,-1,1035,1331,0,0
-182,-307,0,0,0,0,0,0,0,0,0,-1,1042,1331,0,0
-175,-307,0,0,0,0,0,0,0,0,0,-1,1049,1331,0,0
-168,-307,0,0,0,0,0,0,0,0,0,-1,1056,1331,0,0
-161,-307,0,0,0,0,0,0,0,0,0,-1,1063,1331,0,0
-154,-307,0,0,0,0,0,0,0,0,0,-1,1070,1331,0,0
-147,-307,0,0,0,0,0,0,0,0,0,-1,1077,1331,0,0
-140,-307,0,0,0,0,0,0,0,0,0,-1,1084,1331,0,0
-133,-307,0,0,0,0,0,0,0,0,0,-1,1091,1331,0,0
-126,-307,0,0,0,0,0,0,0,0,0,-1,1098,1331,0,0
-119,-307,0,0,0,0,0,0,0,0,0,-1,1105,1331,0,0
-112,-307,0,0,0,0,0,0,0,0,0,-1,1112,1331,0,0
-105,-307,0,0,0,0,0,0,0,0,0,-1,1119,1331,0,0
-98,-307,0,0,0,0,0,0,0,0,0,-1,1126,1331,0,0
-91,-307,0,0,0,0,0,0,0,0,0,-1,1133,1331,0,0
-84,-307,0,0,0,0,0,0,0,0,0,-1,1140,1331,0,0
-77,-307,0,0,0,0,0,0,0,0,0,-1,1147,1331,0,0
-70,-307,0,0,0,0,0,0,0,0,0,-1,1154,1331,0,0
-63,-307,0,0,0,0,0,0,0,0,0,-1,1161,1331,0,0
-56,-307,0,0,0,0,0,0,0,0,0,-1,1168,1331,0,0
-49,-307,0,0,0,0,0,0,0,0,0,-1,1175,1331,0,0
-42,-307,0,0,0,0,0,0,0,0,0,-1,1182,1331,0,0
-35,-307,0,0,0,0,0,0,0,0,0,-1,1189,1331,0,0
-28,-307,0,0,0,0,0,0,0,0,0,-1,1196,1331,0,0
-21,-307,0,0,0,0,0,0,0,0,0,-1,1203,1331,0,0
-14,-307,0,0,0,0,0,0,0,0,0,-1,1210,1331,0,0
-7,-307,0,0,0,0,0,0,0,0,0,-1,1217,1331,0,0
0,-307,0,0,0,0,0,0,0,0,0,-1,1224,1331,0,0
7,-307,0,0,0,0,0,0,0,0,0,-1,1231,1331,0,0
14,-307,0,0,0,0,0,0,0,0,0,-1,1238,1331,0,0
21,-307,0,0,0,0,0,0,0,0,0,-1,1245,1331,0,0
28,-307,0,0,0,0,0,0,0,0,0,-1,1252,1331,0,0
35,-307,0,0,0,0,0,0,0,0,0,-1,1259,1331,0,0
42,-307,0,0,0,0,0,0,0,0,0,-1,1266,1331,0,0
49,-307,0,0,0,0,0,0,0,0,0,-1,1273,1331,0,0
56,-307,0,0,0,0,0,0,0,0,0,-1,1280,1331,0,0
63,-307,0,0,0,0,0,0,0,0,0,-1,1287,1331,0,0
70,-307,0,0,0,0,0,0,0,0,0,-1,1294,1331,0,0
77,-307,0,0,0,0,0,0,0,0,0,-1,1301,1331,0,0
84,-307,0,0,0,0,0,0,0,0,0,-1,1308,1331,0,0
91,-307,0,0,0,0,0,0,0,0,0,-1,1315,1331,0,0
98,-307,0,0,0,0,0,0,0,0,0,-1,1322,1331,0,0
105,-307,0,0,0,0,0,0,0,0,0,-1,1329,1331,0,0
112,-307,0,0,0,0,0,0,0,0,0,-1,1336,1331,0,0
119,-307,0,0,0,0,0,0,0,0,0,-1,1343,1331,0,0
126,-307,0,0,0,0,0,0,0,0,0,-1,1350,1331,0,0
133,-307,0,0,0,0,0,0,0,0,0,-1,1357,1331,0,0
140,-307,0,0,0,0,0,0,0,0,0,-1,1364,1331,0,0
147,-307,0,0,0,0,0,0,0,0,0,-1,1371,1331,0,0
154,-307,0,0,0,0,0,0,0,0,0,-1,1378,1331,0,0
161,-307,0,0,0,0,0,0,0,0,0,-1,1385,1331,0,0
168,-307,0,0,0,0,0,0,0,0,0,-1,1392,1331,0,0
175,-307,0,0,0,0,0,0,0,0,0,-1,1399,1331,0,0
182,-307,0,0,0,0,0,0,0,0,0,-1,1406,1331,0,0
189,-307,0,0,0,0,0,0,0,0,0,-1,1413,1331,0,0
196,-307,0,0,0,0,0,0,0,0,0,-1,1420,1331,0,0
203,-307,0,0,0,0,0,0,0,0,0,-1,1427,1331,0,0
210,-307,0,0,0,0,0,0,0,0,0,-1,1434,1331,0,0
217,-307,0,0,0,0,0,0,0,0,0,-1,1441,1331,0,0
224,-307,0,0,0,0,0,0,0,0,0,-1,1448,1331,0,0
231,-307,0,0,0,0,0,0,0,0,0,-1,1455,1331,0,0
238,-307,0,0,0,0,0,0,0,0,0,-1,1462,1331,0,0
245,-307,0,0,0,0,0,0,0,0,0,-1,1469,1331,0,0
252,-307,0,0,0,0,0,0,0,0,0,-1,1476,1331,0,0
259,-307,0,0,0,0,0,0,0,0,0,-1,1483,1331,0,0
266,-307,0,0,0,0,0,0,0,0,0,-1,1490,1331,0,0
273,-307,0,0,0,0,0,0,0,0,0,-1,1497,1331,0,0
280,-307,0,0,0,0,0,0,0,0,0,-1,1504,1331,0,0
287,-307,0,0,0,0,0,0,0,0,0,-1,1511,1331,0,0
294,-307,0,0,0,0,0,0,0,0,0,-1,1518,1331,0,0
301,-307,0,0,0,0,0,0,0,0,0,-1,1525,1331,0,0
308,-307,0,0,0,0,0,0,0,0,0,-1,1532,1331,0,0
315,-307,0,0,0,0,0,0,0,0,0,-1,1539,1331,0,0
322,-307,0,0,0,0,0,0,0,0,0,-1,1546,1331,0,0
329,-307,0,0,0,0,0,0,0,0,0,-1,1553,1331,0,0
336,-307,0,0,0,0,0,0,0,0,0,-1,1560,1331,0,0
343,-307,0,0,0,0,0,0,0,0,0,-1,1567,1331,0,0
350,-307,0,0,0,0,0,0,0,0,0,-1,1574,1331,0,0
357,-307,0,0,0,0,0,0,0,0,0,-1,1581,1331,0,0
364,-307,0,0,0,0,0,0,0,0,0,-1,1588,1331,0,0
371,-307,0,0,0,0,0,0,0,0,0,-1,1595,1331,0,0
378,-307,0,0,0,0,0,0,0,0,0,-1,1602,1331,0,0
385,-307,0,0,0,0,0,0,0,0,0,-1,1609,1331,0,0
392,-307,0,0,0,0,0,0,0,0,0,-1,1616,1331,0,0
399,-307,0,0,0,0,0,0,0,0,0,-1,1623,1331,0,0
406,-307,0,0,0,0,0,0,0,0,0,-1,1630,1331,0,0
413,-307,0,0,0,0,0,0,0,0,0,-1,1637,1331,0,0
420,-307,0,0,0,0,0,0,0,0,0,-1,1644,1331,0,0
427,-307,0,0,0,0,0,0,0,0,0,-1,1651,1331,0,0
434,-307,0,0,0,0,0,0,0,0,0,-1,1658,1331,0,0
441,-307,0,0,0,0,0,0,0,0,0,-1,1665,1331,0,0
448,-307,0,0,0,0,0,0,0,0,0,-1,1672,1331,0,0
455,-307,0,0,0,0,0,0,0,0,0,-1,1679,1331,0,0
462,-307,0,0,0,0,0,0,0,0,0,-1,1686,1331,0,0
469,-307,0,0,0,0,0,0,0,0,0,-1,1693,1331,0,0
476,-307,0,0,0,0,0,0,0,0,0,-1,1700,1331,0,0
483,-307,0,0,0,0,0,0,0,0,0,-1,1707,1331,0,0
490,-307,0,0,0,0,0,0,0,0,0,-1,1714,1331,0,0
497,-307,0,0,0,0,0,0,0,0,0,-1,1721,1331,0,0
504,-307,0,0,0,0,0,0,0,0,0,-1,1728,1331,0,0
511,-307,0,0,0,0,0,0,0,0,0,-1,1735,1331,0,0
518,-307,0,0,0,0,0,0,0,0,0,-1,1742,1331,0,0
525,-307,0,0,0,0,0,0,0,0,0,-1,1749,1331,0,0
532,-307,0,0,0,0,0,0,0,0,0,-1,1756,1331,0,0
539,-307,0,0,0,0,0,0,0,0,0,-1,1763,1331,0,0
546,-307,0,0,0,0,0,0,0,0,0,-1,1770,1331,0,0
553,-307,0,0,0,0,0,0,0,0,0,-1,1777,1331,0,0
560,-307,0,0,0,0,0,0,0,0,0,-1,1784,1331,0,0
567,-307,0,0,0,0,0,0,0,0,0,-1,1791,1331,0,0
574,-307,0,0,0,0,0,0,0,0,0,-1,1798,1331,0,0
581,-307,0,0,0,0,0,0,0,0,0,-1,1805,1331,0,0
588,-307,48.9391,2.93726,0,0,0,0,0,0,0,-1,1812,1331,48.939,-2.93724
595,-307,48.7631,2.79016,-0.0429373,-0.0274865,-0.0284558,-0.00572601,-0.0646977,-0.917947,0.0413555,0.0434929,1819,1331,48.763,-2.79019
602,-307,48.5643,2.62012,-0.0393756,-0.0325266,-0.0203428,-0.0153221,-0.0565801,-0.868786,0.0337912,0.0449469,1826,1331,48.5643,-2.62014
609,-307,48.399,2.4873,-0.0323671,-0.0290366,-0.0151717,-0.015439,-0.0459647,-0.840059,0.02701,0.0472131,1833,1331,48.3991,-2.48725
616,-307,48.0499,2.52173,0,0,0,0,0,0,0,-1,1840,1331,48.05,-2.52169
623,-307,44.3966,2.84888,0,0,0,0,0,0,0,-1,1847,1331,44.3966,-2.84884
630,-307,29.8116,1.51184,0,0,0,0,0,0,0,-1,1854,1331,29.8116,-1.51188
637,-307,24.6407,4.09106,0,0,0,0,0,0,0,-1,1861,1331,24.6407,-4.09103
644,-307,22.6885,5.80408,0,0,0,0,0,0,0,-1,1868,1331,22.6884,-5.80408
651,-307,17.5013,5.80078,0,0,0,0,0,0,0,-1,1875,1331,17.5014,-5.80072
658,-307,32.9448,12.2361,0,0,0,0,0,0,0,-1,1882,1331,32.9448,-12.2361
665,-307,32.6672,11.6586,0.00171711,-0.00223729,3.08502e-05,0.00171735,-0.00223753,0.00780085,0.00228993,0.0428349,1889,1331,32.6672,-11.6586
672,-307,32.5931,11.2152,0.00244483,-0.00137721,-0.000545118,0.00252106,-0.00145344,-0.138935,0.00232211,0.0145918,1896,1331,32.5931,-11.2151
679,-307,32.5728,10.7338,0.0010418,-0.00110337,-0.000514209,0.00115869,-0.00122026,-0.22352,0.00137364,0.0109509,1903,1331,32.5728,-10.7338
686,-307,32.5514,10.2502,0.000715225,-0.000730838,-1.36976e-05,0.000715354,-0.000730968,-0.00947122,0.000835051,0.0108726,1910,1331,32.5514,-10.2503
693,-307,32.5427,9.76099,0.000587271,-0.000437336,0.000261448,0.000650129,-0.000500194,0.235942,0.000666017,0.0120923,1917,1331,32.5427,-9.76104
700,-307,32.5385,9.26208,0.000486091,-0.000223259,0.000355915,0.000633879,-0.000371047,0.393572,0.000586772,0.0134704,1924,1331,32.5384,-9.26212
707,-307,32.5179,8.77698,0.000288751,-3.10836e-05,0.000474977,0.000630009,-0.000372341,0.623016,0.000585046,0.014866,1931,1331,32.518,-8.77698
714,-307,32.5122,8.34436,-2.88678e-05,0.000169663,0.000617455,0.000695781,-0.000554986,0.865099,0.000723654,0.0126752,1938,1331,32.5122,-8.3443
721,-307,32.5391,7.89709,-0.000508787,0.000353842,0.000840476,0.000867214,-0.00102216,1.02247,0.00109205,0.0164436,1945,1331,32.5391,-7.8971
728,-307,32.488,7.60608,-0.00120597,0.000534014,0.00109779,0.00106475,-0.0017367,1.12047,0.00163285,0.0443409,1952,1331,32.4881,-7.60609
735,-307,32.5101,6.99963,0,0,0,0,0,0,0,-1,1959,1331,32.5101,-6.99958
742,-307,26.677,6.09192,0,0,0,0,0,0,0,-1,1966,1331,26.677,-6.0919
749,-307,26.7727,5.9032,0,0,0,0,0,0,0,-1,1973,1331,26.7727,-5.90323
756,-307,27.1556,5.74756,0,0,0,0,0,0,0,-1,1980,1331,27.1557,-5.7475
763,-307,18.7522,3.55298,0,0,0,0,0,0,0,-1,1987,1331,18.7522,-3.55301
770,-307,0,0,0,0,0,0,0,0,0,-1,1994,1331,0,0
777,-307,0,0,0,0,0,0,0,0,0,-1,2001,1331,0,0
784,-307,0,0,0,0,0,0,0,0,0,-1,2008,1331,0,0
791,-307,0,0,0,0,0,0,0,0,0,-1,2015,1331,0,0
798,-307,0,0,0,0,0,0,0,0,0,-1,2022,1331,0,0
805,-307,0,0,0,0,0,0,0,0,0,-1,2029,1331,0,0
812,-307,0,0,0,0,0,0,0,0,0,-1,2036,1331,0,0
-700,-314,0,0,0,0,0,0,0,0,0,-1,524,1338,0,0
-693,-314,0,0,0,0,0,0,0,0,0,-1,531,1338,0,0
-686,-314,0,0,0,0,0,0,0,0,0,-1,538,1338,0,0
-679,-314,0,0,0,0,0,0,0,0,0,-1,545,1338,0,0
-672,-314,0,0,0,0,0,0,0,0,0,-1,552,1338,0,0
-665,-314,0,0,0,0,0,0,0,0,0,-1,559,1338,0,0
-658,-314,0,0,0,0,0,0,0,0,0,-1,566,1338,0,0
-651,-314,0,0,0,0,0,0,0,0,0,-1,573,1338,0,0
-644,-314,-20.9896,-0.0299072,0,0,0,0,0,0,0,-1,580,1338,-20.9896,0.0299587
-637,-314,-18.8677,6.62646,0,0,0,0,0,0,0,-1,587,1338,-18.8677,-6.62651
-630,-314,-13.2771,2.98938,0,0,0,0,0,0,0,-1,594,1338,-13.2771,-2.98943
-623,-314,-13.3542,3.00903,0,0,0,0,0,0,0,-1,601,1338,-13.3542,-3.00907
-616,-314,-9.93311,1.15088,0,0,0,0,0,0,0,-1,608,1338,-9.93308,-1.15093
-609,-314,-9.4361,2.86292,0,0,0,0,0,0,0,-1,615,1338,-9.43612,-2.86286
-602,-314,-11.8027,2.42798,0,0,0,0,0,0,0,-1,622,1338,-11.8027,-2.42802
-595,-314,-18.1804,4.73352,0,0,0,0,0,0,0,-1,629,1338,-18.1804,-4.73356
-588,-314,-18.1241,5.56592,0.00511174,0.0032217,0.00307205,0.00738084,0.000952597,0.636182,0.00463576,0.0317106,636,1338,-18.1241,-5.56593
-581,-314,-18.0518,6.11316,0.00397726,0.00231464,0.0021673,0.00546721,0.000824686,0.602267,0.00340338,0.0126912,643,1338,-18.0518,-6.11311
-574,-314,-18.1094,6.61023,0.00321405,0.00159213,0.00154795,0.0041506,0.000655576,0.544109,0.00257649,0.0118015,650,1338,-18.1094,-6.61029
-567,-314,-18.115,7.14185,0.00279514,0.00100935,0.00115218,0.00335991,0.000444587,0.455755,0.00210743,0.0140614,657,1338,-18.115,-7.14184
-560,-314,-18.0891,7.672,0.00265876,0.000527524,0.000927734,0.00300603,0.000180261,0.358168,0.00194671,0.0147337,664,1338,-18.0891,-7.67194
-553,-314,-18.1213,8.19971,0.00278158,0.000120255,0.00084767,0.00302864,-0.000126805,0.283601,0.00206266,0.0176058,671,1338,-18.1213,-8.19967
-546,-314,-18.1646,8.73071,0.00322507,-0.000204264,0.000960824,0.00347592,-0.000455116,0.25538,0.00248293,0.0177054,678,1338,-18.1646,-8.73068
-539,-314,-18.1525,9.25037,0.00403486,-0.00049121,0.00126535,0.00436459,-0.00082094,0.254916,0.00321846,0.0172677,685,1338,-18.1525,-9.25039
-532,-314,-18.1121,9.72937,0,0,0,0,0,0,0,-1,692,1338,-18.112,-9.72935
-525,-314,-13.3017,7.50671,0,0,0,0,0,0,0,-1,699,1338,-13.3017,-7.50669
-518,-314,-8.52753,4.70032,0,0,0,0,0,0,0,-1,706,1338,-8.52755,-4.70034
-511,-314,-11.8597,0.384888,0,0,0,0,0,0,0,-1,713,1338,-11.8597,-0.384927
-504,-314,-11.4322,-0.187378,0,0,0,0,0,0,0,-1,720,1338,-11.4322,0.187381
-497,-314,-11.0047,-0.759644,0,0,0,0,0,0,0,-1,727,1338,-11.0047,0.759689
-490,-314,-18.5143,0.471069,0,0,0,0,0,0,0,-1,734,1338,-18.5143,-0.47103
-483,-314,-17.8528,0.577271,0,0,0,0,0,0,0,-1,741,1338,-17.8528,-0.577327
-476,-314,-17.714,0.665405,0,0,0,0,0,0,0,-1,748,1338,-17.714,-0.665388
-469,-314,-17.7246,0.794678,0,0,0,0,0,0,0,-1,755,1338,-17.7246,-0.794645
-462,-314,0,0,0,0,0,0,0,0,0,-1,762,1338,0,0
-455,-314,0,0,0,0,0,0,0,0,0,-1,769,1338,0,0
-448,-314,0,0,0,0,0,0,0,0,0,-1,776,1338,0,0
-441,-314,0,0,0,0,0,0,0,0,0,-1,783,1338,0,0
-434,-314,0,0,0,0,0,0,0,0,0,-1,790,1338,0,0
-427,-314,0,0,0,0,0,0,0,0,0,-1,797,1338,0,0
-420,-314,0,0,0,0,0,0,0,0,0,-1,804,1338,0,0
-413,-314,0,0,0,0,0,0,0,0,0,-1,811,1338,0,0
-406,-314,0,0,0,0,0,0,0,0,0,-1,818,1338,0,0
-399,-314,0,0,0,0,0,0,0,0,0,-1,825,1338,0,0
-392,-314,0,0,0,0,0,0,0,0,0,-1,832,1338,0,0
-385,-314,0,0,0,0,0,0,0,0,0,-1,839,1338,0,0
-378,-314,0,0,0,0,0,0,0,0,0,-1,846,1338,0,0
-371,-314,0,0,0,0,0,0,0,0,0,-1,853,1338,0,0
-364,-314,0,0,0,0,0,0,0,0,0,-1,860,1338,0,0
-357,-314,0,0,0,0,0,0,0,0,0,-1,867,1338,0,0
-350,-314,0,0,0,0,0,0,0,0,0,-1,874,1338,0,0
-343,-314,0,0,0,0,0,0,0,0,0,-1,881,1338,0,0
-336,-314,0,0,0,0,0,0,0,0,0,-1,888,1338,0,0
-329,-314,0,0,0,0,0,0,0,0,0,-1,895,1338,0,0
-322,-314,0,0,0,0,0,0,0,0,0,-1,902,1338,0,0
-315,-314,0,0,0,0,0,0,0,0,0,-1,909,1338,0,0
-308,-314,0,0,0,0,0,0,0,0,0,-1,916,1338,0,0
-301,-314,0,0,0,0,0,0,0,0,0,-1,923,1338,0,0
-294,-314,0,0,0,0,0,0,0,0,0,-1,930,1338,0,0
-287,-314,0,0,0,0,0,0,0,0,0,-1,937,1338,0,0
-280,-314,0,0,0,0,0,0,0,0,0,-1,944,1338,0,0
-273,-314,0,0,0,0,0,0,0,0,0,-1,951,1338,0,0
-266,-314,0,0,0,0,0,0,0,0,0,-1,958,1338,0,0
-259,-314,0,0,0,0,0,0,0,0,0,-1,965,1338,0,0
-252,-314,0,0,0,0,0,0,0,0,0,-1,972,1338,0,0
-245,-314,0,0,0,0,0,0,0,0,0,-1,979,1338,0,0
-238,-314,0,0,0,0,0,0,0,0,0,-1,986,1338,0,0
-231,-314,0,0,0,0,0,0,0,0,0,-1,993,1338,0,0
-224,-314,0,0,0,0,0,0,0,0,0,-1,1000,1338,0,0
-217,-314,0,0,0,0,0,0,0,0,0,-1,1007,1338,0,0
-210,-314,0,0,0,0,0,0,0,0,0,-1,1014,1338,0,0
-203,-314,0,0,0,0,0,0,0,0,0,-1,1021,1338,0,0
-196,-314,0,0,0,0,0,0,0,0,0,-1,1028,1338,0,0
-189,-314,0,0,0,0,0,0,0,0,0,-1,1035,1338,0,0
-182,-314,0,0,0,0,0,0,0,0,0,-1,1042,1338,0,0
-175,-314,0,0,0,0,0,0,0,0,0,-1,1049,1338,0,0
-168,-314,0,0,0,0,0,0,0,0,0,-1,1056,1338,0,0
-161,-314,0,0,0,0,0,0,0,0,0,-1,1063,1338,0,0
-154,-314,0,0,0,0,0,0,0,0,0,-1,1070,1338,0,0
-147,-314,0,0,0,0,0,0,0,0,0,-1,1077,1338,0,0
-140,-314,0,0,0,0,0,0,0,0,0,-1,1084,1338,0,0
-133,-314,0,0,0,0,0,0,0,0,0,-1,1091,1338,0,0
-126,-314,0,0,0,0,0,0,0,0,0,-1,1098,1338,0,0
-119,-314,0,0,0,0,0,0,0,0,0,-1,1105,1338,0,0
-112,-314,0,0,0,0,0,0,0,0,0,-1,1112,1338,0,0
-105,-314,0,0,0,0,0,0,0,0,0,-1,1119,1338,0,0
-98,-314,0,0,0,0,0,0,0,0,0,-1,1126,1338,0,0
-91,-314,0,0,0,0,0,0,0,0,0,-1,1133,1338,0,0
-84,-314,0,0,0,0,0,0,0,0,0,-1,1140,1338,0,0
-77,-314,0,0,0,0,0,0,0,0,0,-1,1147,1338,0,0
-70,-314,0,0,0,0,0,0,0,0,0,-1,1154,1338,0,0
-63,-314,0,0,0,0,0,0,0,0,0,-1,1161,1338,0,0
-56,-314,0,0,0,0,0,0,0,0,0,-1,1168,1338,0,0
-49,-314,0,0,0,0,0,0,0,0,0,-1,1175,1338,0,0
-42,-314,0,0,0,0,0,0,0,0,0,-1,1182,1338,0,0
-35,-314,0,0,0,0,0,0,0,0,0,-1,1189,1338,0,0
-28,-314,0,0,0,0,0,0,0,0,0,-1,1196,1338,0,0
-21,-314,0,0,0,0,0,0,0,0,0,-1,1203,1338,0,0
-14,-314,0,0,0,0,0,0,0,0,0,-1,1210,1338,0,0
-7,-314,0,0,0,0,0,0,0,0,0,-1,1217,1338,0,0
0,-314,0,0,0,0,0,0,0,0,0,-1,1224,1338,0,0
7,-314,0,0,0,0,0,0,0,0,0,-1,1231,1338,0,0
14,-314,0,0,0,0,0,0,0,0,0,-1,1238,1338,0,0
21,-314,0,0,0,0,0,0,0,0,0,-1,1245,1338,0,0
28,-314,0,0,0,0,0,0,0,0,0,-1,1252,1338,0,0
35,-314,0,0,0,0,0,0,0,0,0,-1,1259,1338,0,0
42,-314,0,0,0,0,0,0,0,0,0,-1,1266,1338,0,0
49,-314,0,0,0,0,0,0,0,0,0,-1,1273,1338,0,0
56,-314,0,0,0,0,0,0,0,0,0,-1,1280,1338,0,0
63,-314,0,0,0,0,0,0,0,0,0,-1,1287,1338,0,0
70,-314,0,0,0,0,0,0,0,0,0,-1,1294,1338,0,0
77,-314,0,0,0,0,0,0,0,0,0,-1,1301,1338,0,0
84,-314,0,0,0,0,0,0,0,0,0,-1,1308,1338,0,0
91,-314,0,0,0,0,0,0,0,0,0,-1,1315,1338,0,0
98,-314,0,0,0,0,0,0,0,0,0,-1,1322,1338,0,0
105,-314,0,0,0,0,0,0,0,0,0,-1,1329,1338,0,0
112,-314,0,0,0,0,0,0,0,0,0,-1,1336,1338,0,0
119,-314,0,0,0,0,0,0,0,0,0,-1,1343,1338,0,0
126,-314,0,0,0,0,0,0,0,0,0,-1,1350,1338,0,0
133,-314,0,0,0,0,0,0,0,0,0,-1,1357,1338,0,0
140,-314,0,0,0,0,0,0,0,0,0,-1,1364,1338,0,0
147,-314,0,0,0,0,0,0,0,0,0,-1,1371,1338,0,0
154,-314,0,0,0,0,0,0,0,0,0,-1,1378,1338,0,0
161,-314,0,0,0,0,0,0,0,0,0,-1,1385,1338,0,0
168,-314,0,0,0,0,0,0,0,0,0,-1,1392,1338,0,0
175,-314,0,0,0,0,0,0,0,0,0,-1,1399,1338,0,0
182,-314,0,0,0,0,0,0,0,0,0,-1,1406,1338,0,0
189,-314,0,0,0,0,0,0,0,0,0,-1,1413,1338,0,0
196,-314,0,0,0,0,0,0,0,0,0,-1,1420,1338,0,0
203,-314,0,0,0,0,0,0,0,0,0,-1,1427,1338,0,0
210,-314,0,0,0,0,0,0,0,0,0,-1,1434,1338,0,0
217,-314,0,0,0,0,0,0,0,0,0,-1,1441,1338,0,0
224,-314,0,0,0,0,0,0,0,0,0,-1,1448,1338,0,0
231,-314,0,0,0,0,0,0,0,0,0,-1,1455,1338,0,0
238,-314,0,0,0,0,0,0,0,0,0,-1,1462,1338,0,0
245,-314,0,0,0,0,0,0,0,0,0,-1,1469,1338,0,0
252,-314,0,0,0,0,0,0,0,0,0,-1,1476,1338,0,0
259,-314,0,0,0,0,0,0,0,0,0,-1,1483,1338,0,0
266,-314,0,0,0,0,0,0,0,0,0,-1,1490,1338,0,0
273,-314,0,0,0,0,0,0,0,0,0,-1,1497,1338,0,0
280,-314,0,0,0,0,0,0,0,0,0,-1,1504,1338,0,0
287,-314,0,0,0,0,0,0,0,0,0,-1,1511,1338,0,0
294,-314,0,0,0,0,0,0,0,0,0,-1,1518,1338,0,0
301,-314,0,0,0,0,0,0,0,0,0,-1,1525,1338,0,0
308,-314,0,0,0,0,0,0,0,0,0,-1,1532,1338,0,0
315,-314,0,0,0,0,0,0,0,0,0,-1,1539,1338,0,0
322,-314,0,0,0,0,0,0,0,0,0,-1,1546,1338,0,0
329,-314,0,0,0,0,0,0,0,0,0,-1,1553,1338,0,0
336,-314,0,0,0,0,0,0,0,0,0,-1,1560,1338,0,0
343,-314,0,0,0,0,0,0,0,0,0,-1,1567,1338,0,0
350,-314,0,0,0,0,0,0,0,0,0,-1,1574,1338,0,0
357,-314,0,0,0,0,0,0,0,0,0,-1,1581,1338,0,0
364,-314,0,0,0,0,0,0,0,0,0,-1,1588,1338,0,0
371,-314,0,0,0,0,0,0,0,0,0,-1,1595,1338,0,0
378,-314,0,0,0,0,0,0,0,0,0,-1,1602,1338,0,0
385,-314,0,0,0,0,0,0,0,0,0,-1,1609,1338,0,0
392,-314,0,0,0,0,0,0,0,0,0,-1,1616,1338,0,0
399,-314,0,0,0,0,0,0,0,0,0,-1,1623,1338,0,0
406,-314,0,0,0,0,0,0,0,0,0,-1,1630,1338,0,0
413,-314,0,0,0,0,0,0,0,0,0,-1,1637,1338,0,0
420,-314,0,0,0,0,0,0,0,0,0,-1,1644,1338,0,0
427,-314,0,0,0,0,0,0,0,0,0,-1,1651,1338,0,0
434,-314,0,0,0,0,0,0,0,0,0,-1,1658,1338,0,0
441,-314,0,0,0,0,0,0,0,0,0,-1,1665,1338,0,0
448,-314,0,0,0,0,0,0,0,0,0,-1,1672,1338,0,0
455,-314,0,0,0,0,0,0,0,0,0,-1,1679,1338,0,0
462,-314,0,0,0,0,0,0,0,0,0,-1,1686,1338,0,0
469,-314,0,0,0,0,0,0,0,0,0,-1,1693,1338,0,0
476,-314,0,0,0,0,0,0,0,0,0,-1,1700,1338,0,0
483,-314,0,0,0,0,0,0,0,0,0,-1,1707,1338,0,0
490,-314,0,0,0,0,0,0,0,0,0,-1,1714,1338,0,0
497,-314,0,0,0,0,0,0,0,0,0,-1,1721,1338,0,0
504,-314,0,0,0,0,0,0,0,0,0,-1,1728,1338,0,0
511,-314,0,0,0,0,0,0,0,0,0,-1,1735,1338,0,0
518,-314,0,0,0,0,0,0,0,0,0,-1,1742,1338,0,0
525,-314,0,0,0,0,0,0,0,0,0,-1,1749,1338,0,0
532,-314,0,0,0,0,0,0,0,0,0,-1,1756,1338,0,0
539,-314,0,0,0,0,0,0,0,0,0,-1,1763,1338,0,0
546,-314,0,0,0,0,0,0,0,0,0,-1,1770,1338,0,0
553,-314,0,0,0,0,0,0,0,0,0,-1,1777,1338,0,0
560,-314,0,0,0,0,0,0,0,0,0,-1,1784,1338,0,0
567,-314,0,0,0,0,0,0,0,0,0,-1,1791,1338,0,0
574,-314,0,0,0,0,0,0,0,0,0,-1,1798,1338,0,0
581,-314,49.7633,3.98621,-0.0539625,-0.0194885,-0.0526916,0.0187138,-0.0921649,-0.943477,0.0685382,0.0458708,1805,1338,49.7633,-3.9862
588,-314,49.3467,3.4939,-0.0522923,-0.0277192,-0.041755,0.0035194,-0.0835309,-0.928486,0.0568967,0.0428279,1812,1338,49.3467,-3.49392
595,-314,48.8868,3.05884,-0.0502925,-0.036033,-0.0316049,-0.0107637,-0.0755618,-0.896336,0.0471976,0.0450877,1819,1338,48.8869,-3.05886
602,-314,48.7299,3.02686,-0.043855,-0.035434,-0.0236375,-0.0156349,-0.0636541,-0.873538,0.0383033,0.0439016,1826,1338,48.7299,-3.02691
609,-314,48.4767,3.0321,-0.0358867,-0.0303491,-0.0179791,-0.0149268,-0.051309,-0.861798,0.0304743,0.0451622,1833,1338,48.4766,-3.03211
616,-314,48.1149,3.005,0,0,0,0,0,0,0,-1,1840,1338,48.1149,-3.00505
623,-314,38.7728,2.71741,0,0,0,0,0,0,0,-1,1847,1338,38.7728,-2.71737
630,-314,29.4308,6.23206,0,0,0,0,0,0,0,-1,1854,1338,29.4308,-6.23202
637,-314,22.1349,5.16418,0,0,0,0,0,0,0,-1,1861,1338,22.1349,-5.16414
644,-314,18.7517,6.2605,0,0,0,0,0,0,0,-1,1868,1338,18.7517,-6.26053
651,-314,23.1317,8.005,0,0,0,0,0,0,0,-1,1875,1338,23.1317,-8.00506
658,-314,32.1605,12.1737,0,0,0,0,0,0,0,-1,1882,1338,32.1606,-12.1737
665,-314,32.0853,11.7207,0.00110592,-0.00188548,0.000611369,0.00122604,-0.0020056,0.194014,0.0018838,0.0265625,1889,1338,32.0853,-11.7207
672,-314,32.0914,11.2704,0.00193921,-0.000995849,1.47355e-05,0.00193929,-0.000995923,0.00502033,0.00172357,0.0131735,1896,1338,32.0914,-11.2704
679,-314,32.0912,10.7676,0.000945395,-0.000818569,-0.000130734,0.000955032,-0.000828206,-0.0735777,0.00103042,0.0111002,1903,1338,32.0912,-10.7676
686,-314,32.0743,10.2819,0.000827523,-0.000566273,5.87225e-05,0.000829993,-0.000568743,0.0420321,0.000812242,0.0132616,1910,1338,32.0743,-10.2818
693,-314,32.0646,9.79004,0.000801307,-0.000340324,0.000165886,0.000824923,-0.000363939,0.141411,0.00070338,0.0130669,1917,1338,32.0646,-9.79009
700,-314,32.0573,9.28931,0.000794838,-0.000138889,0.000218746,0.000843543,-0.000187595,0.219084,0.000634211,0.0147068,1924,1338,32.0572,-9.28932
707,-314,32.0502,8.81372,0.000715194,5.53628e-05,0.000307739,0.000836441,-6.58844e-05,0.375317,0.000580836,0.0143585,1931,1338,32.0502,-8.81371
714,-314,32.0306,8.37219,0.000526888,0.000257597,0.000419263,0.000832595,-4.81106e-05,0.630026,0.000571775,0.0113768,1938,1338,32.0306,-8.37222
721,-314,31.9967,7.9425,0.00018235,0.000410595,0.000650455,0.000956863,-0.000363918,0.872239,0.000787751,0.0255354,1945,1338,31.9967,-7.9425
728,-314,32.0559,7.5155,0,0,0,0,0,0,0,-1,1952,1338,32.0559,-7.51553
735,-314,26.3665,6.21582,0,0,0,0,0,0,0,-1,1959,1338,26.3664,-6.21581
742,-314,26.2235,6.0166,0,0,0,0,0,0,0,-1,1966,1338,26.2235,-6.01662
749,-314,26.2223,5.47046,0,0,0,0,0,0,0,-1,1973,1338,26.2223,-5.47041
756,-314,24.2521,5.93408,0,0,0,0,0,0,0,-1,1980,1338,24.252,-5.93413
763,-314,19.2207,4.07239,0,0,0,0,0,0,0,-1,1987,1338,19.2206,-4.07239
770,-314,0,0,0,0,0,0,0,0,0,-1,1994,1338,0,0
777,-314,0,0,0,0,0,0,0,0,0,-1,2001,1338,0,0
784,-314,0,0,0,0,0,0,0,0,0,-1,2008,1338,0,0
791,-314,0,0,0,0,0,0,0,0,0,-1,2015,1338,0,0
798,-314,0,0,0,0,0,0,0,0,0,-1,2022,1338,0,0
805,-314,0,0,0,0,0,0,0,0,0,-1,2029,1338,0,0
812,-314,0,0,0,0,0,0,0,0,0,-1,2036,1338,0,0
-700,-321,0,0,0,0,0,0,0,0,0,-1,524,1345,0,0
-693,-321,0,0,0,0,0,0,0,0,0,-1,531,1345,0,0
-686,-321,0,0,0,0,0,0,0,0,0,-1,538,1345,0,0
-679,-321,0,0,0,0,0,0,0,0,0,-1,545,1345,0,0
-672,-321,0,0,0,0,0,0,0,0,0,-1,552,1345,0,0
-665,-321,0,0,0,0,0,0,0,0,0,-1,559,1345,0,0
-658,-321,0,0,0,0,0,0,0,0,0,-1,566,1345,0,0
-651,-321,0,0,0,0,0,0,0,0,0,-1,573,1345,0,0
-644,-321,-17.2769,5.65454,0,0,0,0,0,0,0,-1,580,1345,-17.2768,-5.65454
-637,-321,-13.3991,3.59241,0,0,0,0,0,0,0,-1,587,1345,-13.3991,-3.59236
-630,-321,-13.2958,3.65039,0,0,0,0,0,0,0,-1,594,1345,-13.2958,-3.65042
-623,-321,-13.2242,3.14148,0,0,0,0,0,0,0,-1,601,1345,-13.2243,-3.14146
-616,-321,-11.6754,3.13794,0,0,0,0,0,0,0,-1,608,1345,-11.6754,-3.13789
-609,-321,-7.95209,1.14758,0,0,0,0,0,0,0,-1,615,1345,-7.95208,-1.14757
-602,-321,-8.85791,2.50049,0,0,0,0,0,0,0,-1,622,1345,-8.85791,-2.50048
-595,-321,-18.0611,4.88818,0,0,0,0,0,0,0,-1,629,1345,-18.0611,-4.88821
-588,-321,-17.6492,5.47424,0.00571242,0.00340885,0.00329393,0.00805013,0.00107113,0.617208,0.00504774,0.0468307,636,1345,-17.6492,-5.4743
-581,-321,-17.5523,6.1156,0.00439335,0.00247041,0.00230524,0.00592959,0.000934174,0.587826,0.00368139,0.013712,643,1345,-17.5523,-6.1156
-574,-321,-17.5917,6.62817,0.00349099,0.00172765,0.00163999,0.00447128,0.000747355,0.538759,0.0027656,0.0155649,650,1345,-17.5917,-6.62811
-567,-321,-17.5955,7.16223,0.00297552,0.00115921,0.00122236,0.00359016,0.00054457,0.465911,0.00223415,0.0226347,657,1345,-17.5955,-7.16227
-560,-321,-17.5717,7.77271,0.00276988,0.000688948,0.000988272,0.00316443,0.000294406,0.379838,0.00201865,0.0249267,664,1345,-17.5717,-7.77276
-553,-321,-17.5856,8.22864,0.00281605,0.000289757,0.000895059,0.00310102,4.7856e-06,0.308235,0.00206575,0.0274022,671,1345,-17.5856,-8.22866
-546,-321,-17.6193,8.71436,0.00318922,-3.22562e-05,0.000988094,0.00346814,-0.000311176,0.275122,0.00242249,0.0273213,678,1345,-17.6193,-8.71432
-539,-321,-17.6269,9.25037,0.00388226,-0.000300841,0.00125177,0.00422823,-0.000646814,0.269655,0.00305732,0.0248737,685,1345,-17.6269,-9.25042
-532,-321,-17.5856,9.79016,0.00509475,-0.000444966,0.00175077,0.00560168,-0.000951894,0.281837,0.00408885,0.0332638,692,1345,-17.5856,-9.79014
-525,-321,-17.5908,10.3618,0,0,0,0,0,0,0,-1,699,1345,-17.5908,-10.3618
-518,-321,-10.3564,6.75696,0,0,0,0,0,0,0,-1,706,1345,-10.3564,-6.75694
-511,-321,-9.3302,5.29297,0,0,0,0,0,0,0,-1,713,1345,-9.33023,-5.29294
-504,-321,-10.4713,0.0145264,0,0,0,0,0,0,0,-1,720,1345,-10.4713,-0.0145296
-497,-321,-9.96771,0.313599,0,0,0,0,0,0,0,-1,727,1345,-9.96769,-0.313618
-490,-321,-10.7631,0.973511,0,0,0,0,0,0,0,-1,734,1345,-10.7631,-0.97353
-483,-321,-17.5908,0.2323,0,0,0,0,0,0,0,-1,741,1345,-17.5908,-0.232355
-476,-321,-17.2915,0.297363,0,0,0,0,0,0,0,-1,748,1345,-17.2915,-0.297342
-469,-321,-17.2441,0.478027,0,0,0,0,0,0,0,-1,755,1345,-17.2441,-0.477994
-462,-321,-17.1672,0.526489,0,0,0,0,0,0,0,-1,762,1345,-17.1672,-0.526533
-455,-321,0,0,0,0,0,0,0,0,0,-1,769,1345,0,0
-448,-321,0,0,0,0,0,0,0,0,0,-1,776,1345,0,0
-441,-321,0,0,0,0,0,0,0,0,0,-1,783,1345,0,0
-434,-321,0,0,0,0,0,0,0,0,0,-1,790,1345,0,0
-427,-321,0,0,0,0,0,0,0,0,0,-1,797,1345,0,0
-420,-321,0,0,0,0,0,0,0,0,0,-1,804,1345,0,0
-413,-321,0,0,0,0,0,0,0,0,0,-1,811,1345,0,0
-406,-321,0,0,0,0,0,0,0,0,0,-1,818,1345,0,0
-399,-321,0,0,0,0,0,0,0,0,0,-1,825,1345,0,0
-392,-321,0,0,0,0,0,0,0,0,0,-1,832,1345,0,0
-385,-321,0,0,0,0,0,0,0,0,0,-1,839,1345,0,0
-378,-321,0,0,0,0,0,0,0,0,0,-1,846,1345,0,0
-371,-321,0,0,0,0,0,0,0,0,0,-1,853,1345,0,0
-364,-321,0,0,0,0,0,0,0,0,0,-1,860,1345,0,0
-357,-321,0,0,0,0,0,0,0,0,0,-1,867,1345,0,0
-350,-321,0,0,0,0,0,0,0,0,0,-1,874,1345,0,0
-343,-321,0,0,0,0,0,0,0,0,0,-1,881,1345,0,0
-336,-321,0,0,0,0,0,0,0,0,0,-1,888,1345,0,0
-329,-321,0,0,0,0,0,0,0,0,0,-1,895,1345,0,0
-322,-321,0,0,0,0,0,0,0,0,0,-1,902,1345,0,0
-315,-321,0,0,0,0,0,0,0,0,0,-1,909,1345,0,0
-308,-321,0,0,0,0,0,0,0,0,0,-1,916,1345,0,0
-301,-321,0,0,0,0,0,0,0,0,0,-1,923,1345,0,0
-294,-321,0,0,0,0,0,0,0,0,0,-1,930,1345,0,0
-287,-321,0,0,0,0,0,0,0,0,0,-1,937,1345,0,0
-280,-321,0,0,0,0,0,0,0,0,0,-1,944,1345,0,0
-273,-321,0,0,0,0,0,0,0,0,0,-1,951,1345,0,0
-266,-321,0,0,0,0,0,0,0,0,0,-1,958,1345,0,0
-259,-321,0,0,0,0,0,0,0,0,0,-1,965,1345,0,0
-252,-321,0,0,0,0,0,0,0,0,0,-1,972,1345,0,0
-245,-321,0,0,0,0,0,0,0,0,0,-1,979,1345,0,0
-238,-321,0,0,0,0,0,0,0,0,0,-1,986,1345,0,0
-231,-321,0,0,0,0,0,0,0,0,0,-1,993,1345,0,0
-224,-321,0,0,0,0,0,0,0,0,0,-1,1000,1345,0,0
-217,-321,0,0,0,0,0,0,0,0,0,-1,1007,1345,0,0
-210,-321,0,0,0,0,0,0,0,0,0,-1,1014,1345,0,0
-203,-321,0,0,0,0,0,0,0,0,0,-1,1021,1345,0,0
-196,-321,0,0,0,0,0,0,0,0,0,-1,1028,1345,0,0
-189,-321,0,0,0,0,0,0,0,0,0,-1,1035,1345,0,0
-182,-321,0,0,0,0,0,0,0,0,0,-1,1042,1345,0,0
-175,-321,0,0,0,0,0,0,0,0,0,-1,1049,1345,0,0
-168,-321,0,0,0,0,0,0,0,0,0,-1,1056,1345,0,0
-161,-321,0,0,0,0,0,0,0,0,0,-1,1063,1345,0,0
-154,-321,0,0,0,0,0,0,0,0,0,-1,1070,1345,0,0
-147,-321,0,0,0,0,0,0,0,0,0,-1,1077,1345,0,0
-140,-321,0,0,0,0,0,0,0,0,0,-1,1084,1345,0,0
-133,-321,0,0,0,0,0,0,0,0,0,-1,1091,1345,0,0
-126,-321,0,0,0,0,0,0,0,0,0,-1,1098,1345,0,0
-119,-321,0,0,0,0,0,0,0,0,0,-1,1105,1345,0,0
-112,-321,0,0,0,0,0,0,0,0,0,-1,1112,1345,0,0
-105,-321,0,0,0,0,0,0,0,0,0,-1,1119,1345,0,0
-98,-321,0,0,0,0,0,0,0,0,0,-1,1126,1345,0,0
-91,-321,0,0,0,0,0,0,0,0,0,-1,1133,1345,0,0
-84,-321,0,0,0,0,0,0,0,0,0,-1,1140,1345,0,0
-77,-321,0,0,0,0,0,0,0,0,0,-1,1147,1345,0,0
-70,-321,0,0,0,0,0,0,0,0,0,-1,1154,1345,0,0
-63,-321,0,0,0,0,0,0,0,0,0,-1,1161,1345,0,0
-56,-321,0,0,0,0,0,0,0,0,0,-1,1168,1345,0,0
-49,-321,0,0,0,0,0,0,0,0,0,-1,1175,1345,0,0
-42,-321,0,0,0,0,0,0,0,0,0,-1,1182,1345,0,0
-35,-321,0,0,0,0,0,0,0,0,0,-1,1189,1345,0,0
-28,-321,0,0,0,0,0,0,0,0,0,-1,1196,1345,0,0
-21,-321,0,0,0,0,0,0,0,0,0,-1,1203,1345,0,0
-14,-321,0,0,0,0,0,0,0,0,0,-1,1210,1345,0,0
-7,-321,0,0,0,0,0,0,0,0,0,-1,1217,1345,0,0
0,-321,0,0,0,0,0,0,0,0,0,-1,1224,1345,0,0
7,-321,0,0,0,0,0,0,0,0,0,-1,1231,1345,0,0
14,-321,0,0,0,0,0,0,0,0,0,-1,1238,1345,0,0
21,-321,0,0,0,0,0,0,0,0,0,-1,1245,1345,0,0
28,-321,0,0,0,0,0,0,0,0,0,-1,1252,1345,0,0
35,-321,0,0,0,0,0,0,0,0,0,-1,1259,1345,0,0
42,-321,0,0,0,0,0,0,0,0,0,-1,1266,1345,0,0
49,-321,0,0,0,0,0,0,0,0,0,-1,1273,1345,0,0
56,-321,0,0,0,0,0,0,0,0,0,-1,1280,1345,0,0
63,-321,0,0,0,0,0,0,0,0,0,-1,1287,1345,0,0
70,-321,0,0,0,0,0,0,0,0,0,-1,1294,1345,0,0
77,-321,0,0,0,0,0,0,0,0,0,-1,1301,1345,0,0
84,-321,0,0,0,0,0,0,0,0,0,-1,1308,1345,0,0
91,-321,0,0,0,0,0,0,0,0,0,-1,1315,1345,0,0
98,-321,0,0,0,0,0,0,0,0,0,-1,1322,1345,0,0
105,-321,0,0,0,0,0,0,0,0,0,-1,1329,1345,0,0
112,-321,0,0,0,0,0,0,0,0,0,-1,1336,1345,0,0
119,-321,0,0,0,0,0,0,0,0,0,-1,1343,1345,0,0
126,-321,0,0,0,0,0,0,0,0,0,-1,1350,1345,0,0
133,-321,0,0,0,0,0,0,0,0,0,-1,1357,1345,0,0
140,-321,0,0,0,0,0,0,0,0,0,-1,1364,1345,0,0
147,-321,0,0,0,0,0,0,0,0,0,-1,1371,1345,0,0
154,-321,0,0,0,0,0,0,0,0,0,-1,1378,1345,0,0
161,-321,0,0,0,0,0,0,0,0,0,-1,1385,1345,0,0
168,-321,0,0,0,0,0,0,0,0,0,-1,1392,1345,0,0
175,-321,0,0,0,0,0,0,0,0,0,-1,1399,1345,0,0
182,-321,0,0,0,0,0,0,0,0,0,-1,1406,1345,0,0
189,-321,0,0,0,0,0,0,0,0,0,-1,1413,1345,0,0
196,-321,0,0,0,0,0,0,0,0,0,-1,1420,1345,0,0
203,-321,0,0,0,0,0,0,0,0,0,-1,1427,1345,0,0
210,-321,0,0,0,0,0,0,0,0,0,-1,1434,1345,0,0
217,-321,0,0,0,0,0,0,0,0,0,-1,1441,1345,0,0
224,-321,0,0,0,0,0,0,0,0,0,-1,1448,1345,0,0
231,-321,0,0,0,0,0,0,0,0,0,-1,1455,1345,0,0
238,-321,0,0,0,0,0,0,0,0,0,-1,1462,1345,0,0
245,-321,0,0,0,0,0,0,0,0,0,-1,1469,1345,0,0
252,-321,0,0,0,0,0,0,0,0,0,-1,1476,1345,0,0
259,-321,0,0,0,0,0,0,0,0,0,-1,1483,1345,0,0
266,-321,0,0,0,0,0,0,0,0,0,-1,1490,1345,0,0
273,-321,0,0,0,0,0,0,0,0,0,-1,1497,1345,0,0
280,-321,0,0,0,0,0,0,0,0,0,-1,1504,1345,0,0
287,-321,0,0,0,0,0,0,0,0,0,-1,1511,1345,0,0
294,-321,0,0,0,0,0,0,0,0,0,-1,1518,1345,0,0
301,-321,0,0,0,0,0,0,0,0,0,-1,1525,1345,0,0
308,-321,0,0,0,0,0,0,0,0,0,-1,1532,1345,0,0
315,-321,0,0,0,0,0,0,0,0,0,-1,1539,1345,0,0
322,-321,0,0,0,0,0,0,0,0,0,-1,1546,1345,0,0
329,-321,0,0,0,0,0,0,0,0,0,-1,1553,1345,0,0
336,-321,0,0,0,0,0,0,0,0,0,-1,1560,1345,0,0
343,-321,0,0,0,0,0,0,0,0,0,-1,1567,1345,0,0
350,-321,0,0,0,0,0,0,0,0,0,-1,1574,1345,0,0
357,-321,0,0,0,0,0,0,0,0,0,-1,1581,1345,0,0
364,-321,0,0,0,0,0,0,0,0,0,-1,1588,1345,0,0
371,-321,0,0,0,0,0,0,0,0,0,-1,1595,1345,0,0
378,-321,0,0,0,0,0,0,0,0,0,-1,1602,1345,0,0
385,-321,0,0,0,0,0,0,0,0,0,-1,1609,1345,0,0
392,-321,0,0,0,0,0,0,0,0,0,-1,1616,1345,0,0
399,-321,0,0,0,0,0,0,0,0,0,-1,1623,1345,0,0
406,-321,0,0,0,0,0,0,0,0,0,-1,1630,1345,0,0
413,-321,0,0,0,0,0,0,0,0,0,-1,1637,1345,0,0
420,-321,0,0,0,0,0,0,0,0,0,-1,1644,1345,0,0
427,-321,0,0,0,0,0,0,0,0,0,-1,1651,1345,0,0
434,-321,0,0,0,0,0,0,0,0,0,-1,1658,1345,0,0
441,-321,0,0,0,0,0,0,0,0,0,-1,1665,1345,0,0
448,-321,0,0,0,0,0,0,0,0,0,-1,1672,1345,0,0
455,-321,0,0,0,0,0,0,0,0,0,-1,1679,1345,0,0
462,-321,0,0,0,0,0,0,0,0,0,-1,1686,1345,0,0
469,-321,0,0,0,0,0,0,0,0,0,-1,1693,1345,0,0
476,-321,0,0,0,0,0,0,0,0,0,-1,1700,1345,0,0
483,-321,0,0,0,0,0,0,0,0,0,-1,1707,1345,0,0
490,-321,0,0,0,0,0,0,0,0,0,-1,1714,1345,0,0
497,-321,0,0,0,0,0,0,0,0,0,-1,1721,1345,0,0
504,-321,0,0,0,0,0,0,0,0,0,-1,1728,1345,0,0
511,-321,0,0,0,0,0,0,0,0,0,-1,1735,1345,0,0
518,-321,0,0,0,0,0,0,0,0,0,-1,1742,1345,0,0
525,-321,0,0,0,0,0,0,0,0,0,-1,1749,1345,0,0
532,-321,0,0,0,0,0,0,0,0,0,-1,1756,1345,0,0
539,-321,0,0,0,0,0,0,0,0,0,-1,1763,1345,0,0
546,-321,0,0,0,0,0,0,0,0,0,-1,1770,1345,0,0
553,-321,0,0,0,0,0,0,0,0,0,-1,1777,1345,0,0
560,-321,0,0,0,0,0,0,0,0,0,-1,1784,1345,0,0
567,-321,0,0,0,0,0,0,0,0,0,-1,1791,1345,0,0
574,-321,0,0,0,0,0,0,0,0,0,-1,1798,1345,0,0
581,-321,49.9773,4.13696,-0.0610074,-0.0276313,-0.0568582,0.0149373,-0.103576,-0.928141,0.0745303,0.0457772,1805,1345,49.9772,-4.13692
588,-321,49.5574,3.74097,-0.0597007,-0.0360547,-0.046805,0.000397492,-0.0961529,-0.90911,0.0642348,0.0472989,1812,1345,49.5574,-3.74092
595,-321,49.1759,3.42566,-0.0554885,-0.0401001,-0.036707,-0.0102895,-0.085299,-0.888708,0.0537654,0.0475841,1819,1345,49.1759,-3.42565
602,-321,48.7419,3.37378,-0.0471625,-0.0357695,-0.0285978,-0.0123064,-0.0706256,-0.883708,0.0435649,0.0463853,1826,1345,48.7419,-3.37383
609,-321,48.311,3.39575,0,0,0,0,0,0,0,-1,1833,1345,48.311,-3.39571
616,-321,37.8107,2.58704,0,0,0,0,0,0,0,-1,1840,1345,37.8106,-2.58705
623,-321,37.6854,3.68933,0,0,0,0,0,0,0,-1,1847,1345,37.6854,-3.68931
630,-321,23.6674,4.34106,0,0,0,0,0,0,0,-1,1854,1345,23.6674,-4.34112
637,-321,21.7925,6.79224,0,0,0,0,0,0,0,-1,1861,1345,21.7925,-6.7922
644,-321,16.8844,6.71973,0,0,0,0,0,0,0,-1,1868,1345,16.8844,-6.71971
651,-321,27.4924,10.0319,0,0,0,0,0,0,0,-1,1875,1345,27.4924,-10.0319
658,-321,31.5393,12.234,0,0,0,0,0,0,0,-1,1882,1345,31.5393,-12.234
665,-321,31.5825,11.7716,-0.000276471,-0.0013899,0.000744562,9.64942e-05,-0.00176286,0.464382,0.00120869,0.0210005,1889,1345,31.5826,-11.7716
672,-321,31.6215,11.2673,0.00092974,-0.000536681,0.000174031,0.00095011,-0.000557052,0.116521,0.000879969,0.0131753,1896,1345,31.6215,-11.2674
679,-321,31.6188,10.7694,0.000692457,-0.000483035,-4.72719e-05,0.000694355,-0.000484933,-0.0401282,0.000684431,0.0113014,1903,1345,31.6187,-10.7695
686,-321,31.5682,10.3013,0.000953298,-0.000350608,-2.48089e-05,0.00095377,-0.00035108,-0.0190175,0.000779682,0.012482,1910,1345,31.5682,-10.3013
693,-321,31.5601,9.83643,0.00114709,-0.000185091,-1.21647e-05,0.0011472,-0.000185202,-0.00913043,0.000833423,0.0127838,1917,1345,31.56,-9.83638
700,-321,31.5797,9.34204,0.00129279,-4.68841e-06,2.34865e-05,0.00129321,-5.11343e-06,0.0180938,0.00086385,0.0134102,1924,1345,31.5797,-9.34202
707,-321,31.5797,8.85364,0.00135219,0.000190211,7.84782e-05,0.00135746,0.000184935,0.0671323,0.000850062,0.0154932,1931,1345,31.5797,-8.85358
714,-321,31.5529,8.38574,0.0013012,0.000392013,0.000161602,0.00132907,0.000364143,0.170777,0.000793042,0.0138042,1938,1345,31.5529,-8.38571
721,-321,31.4688,7.89404,0.00108326,0.000502877,0.000422224,0.0013054,0.000280737,0.484325,0.00079342,0.0406931,1945,1345,31.4687,-7.89401
728,-321,31.424,7.47827,0,0,0,0,0,0,0,-1,1952,1345,31.424,-7.4783
735,-321,22.0081,5.65479,0,0,0,0,0,0,0,-1,1959,1345,22.008,-5.65481
742,-321,24.5398,5.05725,0,0,0,0,0,0,0,-1,1966,1345,24.5398,-5.05729
749,-321,24.0675,5.4458,0,0,0,0,0,0,0,-1,1973,1345,24.0675,-5.44581
756,-321,19.6251,4.98315,0,0,0,0,0,0,0,-1,1980,1345,19.6251,-4.98311
763,-321,19.6747,4.61438,0,0,0,0,0,0,0,-1,1987,1345,19.6747,-4.61436
770,-321,0,0,0,0,0,0,0,0,0,-1,1994,1345,0,0
777,-321,0,0,0,0,0,0,0,0,0,-1,2001,1345,0,0
784,-321,0,0,0,0,0,0,0,0,0,-1,2008,1345,0,0
791,-321,0,0,0,0,0,0,0,0,0,-1,2015,1345,0,0
798,-321,0,0,0,0,0,0,0,0,0,-1,2022,1345,0,0
805,-321,0,0,0,0,0,0,0,0,0,-1,2029,1345,0,0
812,-321,0,0,0,0,0,0,0,0,0,-1,2036,1345,0,0
-700,-328,0,0,0,0,0,0,0,0,0,-1,524,1352,0,0
-693,-328,0,0,0,0,0,0,0,0,0,-1,531,1352,0,0
-686,-328,0,0,0,0,0,0,0,0,0,-1,538,1352,0,0
-679,-328,0,0,0,0,0,0,0,0,0,-1,545,1352,0,0
-672,-328,0,0,0,0,0,0,0,0,0,-1,552,1352,0,0
-665,-328,0,0,0,0,0,0,0,0,0,-1,559,1352,0,0
-658,-328,0,0,0,0,0,0,0,0,0,-1,566,1352,0,0
-651,-328,0,0,0,0,0,0,0,0,0,-1,573,1352,0,0
-644,-328,0,0,0,0,0,0,0,0,0,-1,580,1352,0,0
-637,-328,-12.0695,1.02014,0,0,0,0,0,0,0,-1,587,1352,-12.0694,-1.02017
-630,-328,-13.3971,4.54578,0,0,0,0,0,0,0,-1,594,1352,-13.3971,-4.54572
-623,-328,-10.7739,4.55042,0,0,0,0,0,0,0,-1,601,1352,-10.7739,-4.55041
-616,-328,-8.22198,-0.25708,0,0,0,0,0,0,0,-1,608,1352,-8.22201,0.257067
-609,-328,-7.87439,0.192871,0,0,0,0,0,0,0,-1,615,1352,-7.87441,-0.192822
-602,-328,-7.63062,1.31665,0,0,0,0,0,0,0,-1,622,1352,-7.63064,-1.3166
-595,-328,-9.42639,2.93494,0,0,0,0,0,0,0,-1,629,1352,-9.42638,-2.93499
-588,-328,-17.231,5.08582,0,0,0,0,0,0,0,-1,636,1352,-17.231,-5.08582
-581,-328,-17.0636,6.07837,0.00509294,0.00239216,0.00237843,0.0064776,0.00100751,0.527208,0.00402482,0.0249385,643,1352,-17.0636,-6.07831
-574,-328,-17.0623,6.65808,0.00395404,0.00164485,0.0016803,0.0048382,0.000760696,0.484379,0.00300418,0.0165717,650,1352,-17.0622,-6.65808
-567,-328,-17.0847,7.20996,0.00326318,0.00112342,0.00125379,0.00384153,0.000545075,0.43219,0.00240005,0.0213289,657,1352,-17.0847,-7.20998
-560,-328,-17.0761,7.81665,0.00291988,0.000696362,0.00102412,0.00331969,0.000296556,0.372194,0.0021212,0.0275033,664,1352,-17.0761,-7.81663
-553,-328,-17.0582,8.29004,0.00282442,0.000342143,0.00093534,0.0031374,2.91627e-05,0.322905,0.00208195,0.030049,671,1352,-17.0582,-8.29005
-546,-328,-17.0851,8.75513,0.00305206,5.87929e-05,0.00101618,0.00336444,-0.000253589,0.298239,0.00233209,0.0291104,678,1352,-17.0851,-8.75514
-539,-328,-17.1374,9.25452,0.00355729,-0.000164551,0.00124963,0.00393794,-0.000545194,0.295675,0.00282462,0.023542,685,1352,-17.1374,-9.25448
-532,-328,-17.1259,9.78979,0.00448231,-0.000299188,0.00168687,0.00501751,-0.000834391,0.307231,0.00365502,0.0183976,692,1352,-17.1259,-9.78975
-525,-328,-17.0893,10.4067,0.00572063,-0.000556778,0.00225832,0.00644864,-0.00128479,0.31185,0.0047852,0.0300781,699,1352,-17.0893,-10.4068
-518,-328,-17.1111,10.8506,0,0,0,0,0,0,0,-1,706,1352,-17.1111,-10.8506
-511,-328,-9.39868,7.16113,0,0,0,0,0,0,0,-1,713,1352,-9.39869,-7.16113
-504,-328,-8.60626,-0.905762,0,0,0,0,0,0,0,-1,720,1352,-8.60623,0.905787
-497,-328,-9.29102,-0.0517578,0,0,0,0,0,0,0,-1,727,1352,-9.29104,0.0518175
-490,-328,-10.0663,0.882813,0,0,0,0,0,0,0,-1,734,1352,-10.0663,-0.882795
-483,-328,-10.8181,1.72375,0,0,0,0,0,0,0,-1,741,1352,-10.8181,-1.72374
-476,-328,-16.8951,-0.150757,0,0,0,0,0,0,0,-1,748,1352,-16.8951,0.150795
-469,-328,-16.8412,0.00158691,0,0,0,0,0,0,0,-1,755,1352,-16.8412,-0.00161515
-462,-328,-16.3546,-0.203491,0,0,0,0,0,0,0,-1,762,1352,-16.3545,0.203532
-455,-328,0,0,0,0,0,0,0,0,0,-1,769,1352,0,0
-448,-328,0,0,0,0,0,0,0,0,0,-1,776,1352,0,0
-441,-328,0,0,0,0,0,0,0,0,0,-1,783,1352,0,0
-434,-328,0,0,0,0,0,0,0,0,0,-1,790,1352,0,0
-427,-328,0,0,0,0,0,0,0,0,0,-1,797,1352,0,0
-420,-328,0,0,0,0,0,0,0,0,0,-1,804,1352,0,0
-413,-328,0,0,0,0,0,0,0,0,0,-1,811,1352,0,0
-406,-328,0,0,0,0,0,0,0,0,0,-1,818,1352,0,0
-399,-328,0,0,0,0,0,0,0,0,0,-1,825,1352,0,0
-392,-328,0,0,0,0,0,0,0,0,0,-1,832,1352,0,0
-385,-328,0,0,0,0,0,0,0,0,0,-1,839,1352,0,0
-378,-328,0,0,0,0,0,0,0,0,0,-1,846,1352,0,0
-371,-328,0,0,0,0,0,0,0,0,0,-1,853,1352,0,0
-364,-328,0,0,0,0,0,0,0,0,0,-1,860,1352,0,0
-357,-328,0,0,0,0,0,0,0,0,0,-1,867,1352,0,0
-350,-328,0,0,0,0,0,0,0,0,0,-1,874,1352,0,0
-343,-328,0,0,0,0,0,0,0,0,0,-1,881,1352,0,0
-336,-328,0,0,0,0,0,0,0,0,0,-1,888,1352,0,0
-329,-328,0,0,0,0,0,0,0,0,0,-1,895,1352,0,0
-322,-328,0,0,0,0,0,0,0,0,0,-1,902,1352,0,0
-315,-328,0,0,0,0,0,0,0,0,0,-1,909,1352,0,0
-308,-328,0,0,0,0,0,0,0,0,0,-1,916,1352,0,0
-301,-328,0,0,0,0,0,0,0,0,0,-1,923,1352,0,0
-294,-328,0,0,0,0,0,0,0,0,0,-1,930,1352,0,0
-287,-328,0,0,0,0,0,0,0,0,0,-1,937,1352,0,0
-280,-328,0,0,0,0,0,0,0,0,0,-1,944,1352,0,0
-273,-328,0,0,0,0,0,0,0,0,0,-1,951,1352,0,0
-266,-328,0,0,0,0,0,0,0,0,0,-1,958,1352,0,0
-259,-328,0,0,0,0,0,0,0,0,0,-1,965,1352,0,0
-252,-328,0,0,0,0,0,0,0,0,0,-1,972,1352,0,0
-245,-328,0,0,0,0,0,0,0,0,0,-1,979,1352,0,0
-238,-328,0,0,0,0,0,0,0,0,0,-1,986,1352,0,0
-231,-328,0,0,0,0,0,0,0,0,0,-1,993,1352,0,0
-224,-328,0,0,0,0,0,0,0,0,0,-1,1000,1352,0,0
-217,-328,0,0,0,0,0,0,0,0,0,-1,1007,1352,0,0
-210,-328,0,0,0,0,0,0,0,0,0,-1,1014,1352,0,0
-203,-328,0,0,0,0,0,0,0,0,0,-1,1021,1352,0,0
-196,-328,0,0,0,0,0,0,0,0,0,-1,1028,1352,0,0
-189,-328,0,0,0,0,0,0,0,0,0,-1,1035,1352,0,0
-182,-328,0,0,0,0,0,0,0,0,0,-1,1042,1352,0,0
-175,-328,0,0,0,0,0,0,0,0,0,-1,1049,1352,0,0
-168,-328,0,0,0,0,0,0,0,0,0,-1,1056,1352,0,0
-161,-328,0,0,0,0,0,0,0,0,0,-1,1063,1352,0,0
-154,-328,0,0,0,0,0,0,0,0,0,-1,1070,1352,0,0
-147,-328,0,0,0,0,0,0,0,0,0,-1,1077,1352,0,0
-140,-328,0,0,0,0,0,0,0,0,0,-1,1084,1352,0,0
-133,-328,0,0,0,0,0,0,0,0,0,-1,1091,1352,0,0
-126,-328,0,0,0,0,0,0,0,0,0,-1,1098,1352,0,0
-119,-328,0,0,0,0,0,0,0,0,0,-1,1105,1352,0,0
-112,-328,0,0,0,0,0,0,0,0,0,-1,1112,1352,0,0
-105,-328,0,0,0,0,0,0,0,0,0,-1,1119,1352,0,0
-98,-328,0,0,0,0,0,0,0,0,0,-1,1126,1352,0,0
-91,-328,0,0,0,0,0,0,0,0,0,-1,1133,1352,0,0
-84,-328,0,0,0,0,0,0,0,0,0,-1,1140,1352,0,0
-77,-328,0,0,0,0,0,0,0,0,0,-1,1147,1352,0,0
-70,-328,0,0,0,0,0,0,0,0,0,-1,1154,1352,0,0
-63,-328,0,0,0,0,0,0,0,0,0,-1,1161,1352,0,0
-56,-328,0,0,0,0,0,0,0,0,0,-1,1168,1352,0,0
-49,-328,0,0,0,0,0,0,0,0,0,-1,1175,1352,0,0
-42,-328,0,0,0,0,0,0,0,0,0,-1,1182,1352,0,0
-35,-328,0,0,0,0,0,0,0,0,0,-1,1189,1352,0,0
-28,-328,0,0,0,0,0,0,0,0,0,-1,1196,1352,0,0
-21,-328,0,0,0,0,0,0,0,0,0,-1,1203,1352,0,0
-14,-328,0,0,0,0,0,0,0,0,0,-1,1210,1352,0,0
-7,-328,0,0,0,0,0,0,0,0,0,-1,1217,1352,0,0
0,-328,0,0,0,0,0,0,0,0,0,-1,1224,1352,0,0
7,-328,0,0,0,0,0,0,0,0,0,-1,1231,1352,0,0
14,-328,0,0,0,0,0,0,0,0,0,-1,1238,1352,0,0
21,-328,0,0,0,0,0,0,0,0,0,-1,1245,1352,0,0
28,-328,0,0,0,0,0,0,0,0,0,-1,1252,1352,0,0
35,-328,0,0,0,0,0,0,0,0,0,-1,1259,1352,0,0
42,-328,0,0,0,0,0,0,0,0,0,-1,1266,1352,0,0
49,-328,0,0,0,0,0,0,0,0,0,-1,1273,1352,0,0
56,-328,0,0,0,0,0,0,0,0,0,-1,1280,1352,0,0
63,-328,0,0,0,0,0,0,0,0,0,-1,1287,1352,0,0
70,-328,0,0,0,0,0,0,0,0,0,-1,1294,1352,0,0
77,-328,0,0,0,0,0,0,0,0,0,-1,1301,1352,0,0
84,-328,0,0,0,0,0,0,0,0,0,-1,1308,1352,0,0
91,-328,0,0,0,0,0,0,0,0,0,-1,1315,1352,0,0
98,-328,0,0,0,0,0,0,0,0,0,-1,1322,1352,0,0
105,-328,0,0,0,0,0,0,0,0,0,-1,1329,1352,0,0
112,-328,0,0,0,0,0,0,0,0,0,-1,1336,1352,0,0
119,-328,0,0,0,0,0,0,0,0,0,-1,1343,1352,0,0
126,-328,0,0,0,0,0,0,0,0,0,-1,1350,1352,0,0
133,-328,0,0,0,0,0,0,0,0,0,-1,1357,1352,0,0
140,-328,0,0,0,0,0,0,0,0,0,-1,1364,1352,0,0
147,-328,0,0,0,0,0,0,0,0,0,-1,1371,1352,0,0
154,-328,0,0,0,0,0,0,0,0,0,-1,1378,1352,0,0
161,-328,0,0,0,0,0,0,0,0,0,-1,1385,1352,0,0
168,-328,0,0,0,0,0,0,0,0,0,-1,1392,1352,0,0
175,-328,0,0,0,0,0,0,0,0,0,-1,1399,1352,0,0
182,-328,0,0,0,0,0,0,0,0,0,-1,1406,1352,0,0
189,-328,0,0,0,0,0,0,0,0,0,-1,1413,1352,0,0
196,-328,0,0,0,0,0,0,0,0,0,-1,1420,1352,0,0
203,-328,0,0,0,0,0,0,0,0,0,-1,1427,1352,0,0
210,-328,0,0,0,0,0,0,0,0,0,-1,1434,1352,0,0
217,-328,0,0,0,0,0,0,0,0,0,-1,1441,1352,0,0
224,-328,0,0,0,0,0,0,0,0,0,-1,1448,1352,0,0
231,-328,0,0,0,0,0,0,0,0,0,-1,1455,1352,0,0
238,-328,0,0,0,0,0,0,0,0,0,-1,1462,1352,0,0
245,-328,0,0,0,0,0,0,0,0,0,-1,1469,1352,0,0
252,-328,0,0,0,0,0,0,0,0,0,-1,1476,1352,0,0
259,-328,0,0,0,0,0,0,0,0,0,-1,1483,1352,0,0
266,-328,0,0,0,0,0,0,0,0,0,-1,1490,1352,0,0
273,-328,0,0,0,0,0,0,0,0,0,-1,1497,1352,0,0
280,-328,0,0,0,0,0,0,0,0,0,-1,1504,1352,0,0
287,-328,0,0,0,0,0,0,0,0,0,-1,1511,1352,0,0
294,-328,0,0,0,0,0,0,0,0,0,-1,1518,1352,0,0
301,-328,0,0,0,0,0,0,0,0,0,-1,1525,1352,0,0
308,-328,0,0,0,0,0,0,0,0,0,-1,1532,1352,0,0
315,-328,0,0,0,0,0,0,0,0,0,-1,1539,1352,0,0
322,-328,0,0,0,0,0,0,0,0,0,-1,1546,1352,0,0
329,-328,0,0,0,0,0,0,0,0,0,-1,1553,1352,0,0
336,-328,0,0,0,0,0,0,0,0,0,-1,1560,1352,0,0
343,-328,0,0,0,0,0,0,0,0,0,-1,1567,1352,0,0
350,-328,0,0,0,0,0,0,0,0,0,-1,1574,1352,0,0
357,-328,0,0,0,0,0,0,0,0,0,-1,1581,1352,0,0
364,-328,0,0,0,0,0,0,0,0,0,-1,1588,1352,0,0
371,-328,0,0,0,0,0,0,0,0,0,-1,1595,1352,0,0
378,-328,0,0,0,0,0,0,0,0,0,-1,1602,1352,0,0
385,-328,0,0,0,0,0,0,0,0,0,-1,1609,1352,0,0
392,-328,0,0,0,0,0,0,0,0,0,-1,1616,1352,0,0
399,-328,0,0,0,0,0,0,0,0,0,-1,1623,1352,0,0
406,-328,0,0,0,0,0,0,0,0,0,-1,1630,1352,0,0
413,-328,0,0,0,0,0,0,0,0,0,-1,1637,1352,0,0
420,-328,0,0,0,0,0,0,0,0,0,-1,1644,1352,0,0
427,-328,0,0,0,0,0,0,0,0,0,-1,1651,1352,0,0
434,-328,0,0,0,0,0,0,0,0,0,-1,1658,1352,0,0
441,-328,0,0,0,0,0,0,0,0,0,-1,1665,1352,0,0
448,-328,0,0,0,0,0,0,0,0,0,-1,1672,1352,0,0
455,-328,0,0,0,0,0,0,0,0,0,-1,1679,1352,0,0
462,-328,0,0,0,0,0,0,0,0,0,-1,1686,1352,0,0
469,-328,0,0,0,0,0,0,0,0,0,-1,1693,1352,0,0
476,-328,0,0,0,0,0,0,0,0,0,-1,1700,1352,0,0
483,-328,0,0,0,0,0,0,0,0,0,-1,1707,1352,0,0
490,-328,0,0,0,0,0,0,0,0,0,-1,1714,1352,0,0
497,-328,0,0,0,0,0,0,0,0,0,-1,1721,1352,0,0
504,-328,0,0,0,0,0,0,0,0,0,-1,1728,1352,0,0
511,-328,0,0,0,0,0,0,0,0,0,-1,1735,1352,0,0
518,-328,0,0,0,0,0,0,0,0,0,-1,1742,1352,0,0
525,-328,0,0,0,0,0,0,0,0,0,-1,1749,1352,0,0
532,-328,0,0,0,0,0,0,0,0,0,-1,1756,1352,0,0
539,-328,0,0,0,0,0,0,0,0,0,-1,1763,1352,0,0
546,-328,0,0,0,0,0,0,0,0,0,-1,1770,1352,0,0
553,-328,0,0,0,0,0,0,0,0,0,-1,1777,1352,0,0
560,-328,0,0,0,0,0,0,0,0,0,-1,1784,1352,0,0
567,-328,0,0,0,0,0,0,0,0,0,-1,1791,1352,0,0
574,-328,44.8926,5.11475,0,0,0,0,0,0,0,-1,1798,1352,44.8926,-5.11469
581,-328,50.5533,4.3905,0,0,0,0,0,0,0,-1,1805,1352,50.5533,-4.39048
588,-328,50.1937,4.06274,-0.0649293,-0.0361609,-0.0543342,0.00566087,-0.106751,-0.914797,0.0731274,0.0486626,1812,1352,50.1937,-4.06278
595,-328,49.592,3.59802,-0.055591,-0.0346077,-0.0433584,-0.000489611,-0.089709,-0.904104,0.0596435,0.0492846,1819,1352,49.5921,-3.59798
602,-328,48.7734,3.66785,0,0,0,0,0,0,0,-1,1826,1352,48.7734,-3.66782
609,-328,37.0468,1.17407,0,0,0,0,0,0,0,-1,1833,1352,37.0468,-1.17407
616,-328,36.999,2.42859,0,0,0,0,0,0,0,-1,1840,1352,36.999,-2.42862
623,-328,34.345,5.14722,0,0,0,0,0,0,0,-1,1847,1352,34.3449,-5.14718
630,-328,22.0211,5.026,0,0,0,0,0,0,0,-1,1854,1352,22.0212,-5.02603
637,-328,21.15,5.53699,0,0,0,0,0,0,0,-1,1861,1352,21.15,-5.53704
644,-328,16.9579,6.3396,0,0,0,0,0,0,0,-1,1868,1352,16.9579,-6.33959
651,-328,31.385,12.7837,0,0,0,0,0,0,0,-1,1875,1352,31.385,-12.7837
658,-328,31.1595,12.2991,-0.00361202,-0.00466868,7.9856e-06,-0.00361196,-0.00466874,0.00755684,0.00282686,0.0433659,1882,1352,31.1595,-12.2991
665,-328,31.1603,11.7703,-0.000381946,-0.0011514,6.97601e-05,-0.000375673,-0.00115768,0.089687,0.000681971,0.0145153,1889,1352,31.1602,-11.7702
672,-328,31.1503,11.282,0.00078722,-0.000339077,-0.000145434,0.000805697,-0.000357553,-0.126365,0.000688015,0.0113549,1896,1352,31.1502,-11.282
679,-328,31.147,10.7753,0.00088467,-0.000309397,-0.000195888,0.000915984,-0.000340712,-0.158517,0.000750466,0.0135071,1903,1352,31.147,-10.7753
686,-328,31.0958,10.2971,0.00123564,-0.000201023,-0.0001719,0.00125592,-0.000221305,-0.117443,0.000919964,0.0147673,1910,1352,31.0958,-10.2971
693,-328,31.0792,9.84033,0.00155129,-4.92996e-05,-0.000177521,0.00157074,-6.87519e-05,-0.109142,0.00107082,0.00981429,1917,1352,31.0792,-9.84039
700,-328,31.0851,9.35132,0.00184612,0.000139201,-0.000185927,0.00186613,0.000119184,-0.10725,0.00120632,0.014216,1924,1352,31.085,-9.35131
707,-328,31.0963,8.86292,0.00206075,0.000370114,-0.000199666,0.00208401,0.000346853,-0.115976,0.00128937,0.01708,1931,1352,31.0963,-8.86285
714,-328,31.0825,8.39136,0.00219033,0.000633616,-0.000194143,0.00221417,0.000609769,-0.12222,0.00132065,0.016936,1938,1352,31.0825,-8.39136
721,-328,31.1136,7.90308,0,0,0,0,0,0,0,-1,1945,1352,31.1136,-7.90304
728,-328,29.2787,6.74695,0,0,0,0,0,0,0,-1,1952,1352,29.2787,-6.74693
735,-328,20.8927,5.23523,0,0,0,0,0,0,0,-1,1959,1352,20.8927,-5.23528
742,-328,20.3547,4.11316,0,0,0,0,0,0,0,-1,1966,1352,20.3547,-4.11321
749,-328,20.0669,5.66321,0,0,0,0,0,0,0,-1,1973,1352,20.0669,-5.66319
756,-328,19.9543,5.50464,0,0,0,0,0,0,0,-1,1980,1352,19.9543,-5.50463
763,-328,0,0,0,0,0,0,0,0,0,-1,1987,1352,0,0
770,-328,0,0,0,0,0,0,0,0,0,-1,1994,1352,0,0
777,-328,0,0,0,0,0,0,0,0,0,-1,2001,1352,0,0
784,-328,0,0,0,0,0,0,0,0,0,-1,2008,1352,0,0
791,-328,0,0,0,0,0,0,0,0,0,-1,2015,1352,0,0
798,-328,0,0,0,0,0,0,0,0,0,-1,2022,1352,0,0
805,-328,0,0,0,0,0,0,0,0,0,-1,2029,1352,0,0
812,-328,0,0,0,0,0,0,0,0,0,-1,2036,1352,0,0
-700,-335,0,0,0,0,0,0,0,0,0,-1,524,1359,0,0
-693,-335,0,0,0,0,0,0,0,0,0,-1,531,1359,0,0
-686,-335,0,0,0,0,0,0,0,0,0,-1,538,1359,0,0
-679,-335,0,0,0,0,0,0,0,0,0,-1,545,1359,0,0
-672,-335,0,0,0,0,0,0,0,0,0,-1,552,1359,0,0
-665,-335,0,0,0,0,0,0,0,0,0,-1,559,1359,0,0
-658,-335,0,0,0,0,0,0,0,0,0,-1,566,1359,0,0
-651,-335,0,0,0,0,0,0,0,0,0,-1,573,1359,0,0
-644,-335,0,0,0,0,0,0,0,0,0,-1,580,1359,0,0
-637,-335,-9.64746,3.53809,0,0,0,0,0,0,0,-1,587,1359,-9.64744,-3.53803
-630,-335,-6.07397,-2.99902,0,0,0,0,0,0,0,-1,594,1359,-6.07397,2.99902
-623,-335,-8.43304,1.09509,0,0,0,0,0,0,0,-1,601,1359,-8.43301,-1.09507
-616,-335,-7.80927,-0.485352,0,0,0,0,0,0,0,-1,608,1359,-7.80926,0.485291
-609,-335,-7.12256,-2.03601,0,0,0,0,0,0,0,-1,615,1359,-7.12253,2.03601
-602,-335,-9.39935,2.25146,0,0,0,0,0,0,0,-1,622,1359,-9.39935,-2.25145
-595,-335,-9.54767,3.01917,0,0,0,0,0,0,0,-1,629,1359,-9.54768,-3.01911
-588,-335,-16.6818,5.34558,0,0,0,0,0,0,0,-1,636,1359,-16.6818,-5.34558
-581,-335,-16.5281,6.1593,0.00521159,0.00210892,0.00227323,0.00641238,0.000908129,0.485978,0.00400666,0.040936,643,1359,-16.5281,-6.15924
-574,-335,-16.5344,6.64978,0.0040542,0.00143434,0.00161954,0.00482725,0.000661283,0.445348,0.00302196,0.014307,650,1359,-16.5344,-6.64979
-567,-335,-16.5343,7.23193,0.00333888,0.00101049,0.00122382,0.00386379,0.00048558,0.405181,0.00243023,0.0176608,657,1359,-16.5343,-7.23192
-560,-335,-16.5311,7.75,0.00296819,0.000647415,0.00101789,0.00335137,0.000264238,0.360036,0.00215158,0.0249161,664,1359,-16.531,-7.75002
-553,-335,-16.5419,8.27441,0.00284524,0.000357334,0.000952798,0.00316821,3.4366e-05,0.326813,0.00210078,0.0292172,671,1359,-16.5419,-8.27442
-546,-335,-16.5884,8.80981,0.00298707,0.000117649,0.00101969,0.00331253,-0.000207803,0.308946,0.00228078,0.0282446,678,1359,-16.5884,-8.80983
-539,-335,-16.6446,9.27539,0.00335751,-6.74708e-05,0.00122034,0.00374784,-0.000457801,0.30957,0.0026643,0.0215425,685,1359,-16.6446,-9.27538
-532,-335,-16.6569,9.82117,0.00407328,-0.000190481,0.00159588,0.00460444,-0.000721636,0.321296,0.00333629,0.0154182,692,1359,-16.6569,-9.82114
-525,-335,-16.5834,10.4063,0.00508147,-0.000371973,0.00210637,0.0058003,-0.0010908,0.328871,0.00427709,0.0122656,699,1359,-16.5835,-10.4062
-518,-335,-16.4998,10.885,0.00645369,-0.000421718,0.00277235,0.00743229,-0.00140032,0.339332,0.00548158,0.0476878,706,1359,-16.4997,-10.885
-511,-335,-16.3586,11.3082,0,0,0,0,0,0,0,-1,713,1359,-16.3586,-11.3082
-504,-335,-9.35767,5.99695,0,0,0,0,0,0,0,-1,720,1359,-9.35767,-5.99694
-497,-335,-8.75024,-0.650513,0,0,0,0,0,0,0,-1,727,1359,-8.75024,0.650521
-490,-335,-9.51971,0.417603,0,0,0,0,0,0,0,-1,734,1359,-9.51974,-0.41765
-483,-335,-10.2883,1.29224,0,0,0,0,0,0,0,-1,741,1359,-10.2883,-1.2922
-476,-335,-11.9938,-0.173462,0,0,0,0,0,0,0,-1,748,1359,-11.9938,0.173429
-469,-335,-12.8704,-0.204102,0,0,0,0,0,0,0,-1,755,1359,-12.8704,0.204117
-462,-335,-13.486,0.0218506,0,0,0,0,0,0,0,-1,762,1359,-13.4859,-0.0217908
-455,-335,-14.1504,0.549561,0,0,0,0,0,0,0,-1,769,1359,-14.1504,-0.549583
-448,-335,0,0,0,0,0,0,0,0,0,-1,776,1359,0,0
-441,-335,0,0,0,0,0,0,0,0,0,-1,783,1359,0,0
-434,-335,0,0,0,0,0,0,0,0,0,-1,790,1359,0,0
-427,-335,0,0,0,0,0,0,0,0,0,-1,797,1359,0,0
-420,-335,0,0,0,0,0,0,0,0,0,-1,804,1359,0,0
-413,-335,0,0,0,0,0,0,0,0,0,-1,811,1359,0,0
-406,-335,0,0,0,0,0,0,0,0,0,-1,818,1359,0,0
-399,-335,0,0,0,0,0,0,0,0,0,-1,825,1359,0,0
-392,-335,0,0,0,0,0,0,0,0,0,-1,832,1359,0,0
-385,-335,0,0,0,0,0,0,0,0,0,-1,839,1359,0,0
-378,-335,0,0,0,0,0,0,0,0,0,-1,846,1359,0,0
-371,-335,0,0,0,0,0,0,0,0,0,-1,853,1359,0,0
-364,-335,0,0,0,0,0,0,0,0,0,-1,860,1359,0,0
-357,-335,0,0,0,0,0,0,0,0,0,-1,867,1359,0,0
-350,-335,0,0,0,0,0,0,0,0,0,-1,874,1359,0,0
-343,-335,0,0,0,0,0,0,0,0,0,-1,881,1359,0,0
-336,-335,0,0,0,0,0,0,0,0,0,-1,888,1359,0,0
-329,-335,0,0,0,0,0,0,0,0,0,-1,895,1359,0,0
-322,-335,0,0,0,0,0,0,0,0,0,-1,902,1359,0,0
-315,-335,0,0,0,0,0,0,0,0,0,-1,909,1359,0,0
-308,-335,0,0,0,0,0,0,0,0,0,-1,916,1359,0,0
-301,-335,0,0,0,0,0,0,0,0,0,-1,923,1359,0,0
-294,-335,0,0,0,0,0,0,0,0,0,-1,930,1359,0,0
-287,-335,0,0,0,0,0,0,0,0,0,-1,937,1359,0,0
-280,-335,0,0,0,0,0,0,0,0,0,-1,944,1359,0,0
-273,-335,0,0,0,0,0,0,0,0,0,-1,951,1359,0,0
-266,-335,0,0,0,0,0,0,0,0,0,-1,958,1359,0,0
-259,-335,0,0,0,0,0,0,0,0,0,-1,965,1359,0,0
-252,-335,0,0,0,0,0,0,0,0,0,-1,972,1359,0,0
-245,-335,0,0,0,0,0,0,0,0,0,-1,979,1359,0,0
-238,-335,0,0,0,0,0,0,0,0,0,-1,986,1359,0,0
-231,-335,0,0,0,0,0,0,0,0,0,-1,993,1359,0,0
-224,-335,0,0,0,0,0,0,0,0,0,-1,1000,1359,0,0
-217,-335,0,0,0,0,0,0,0,0,0,-1,1007,1359,0,0
-210,-335,0,0,0,0,0,0,0,0,0,-1,1014,1359,0,0
-203,-335,0,0,0,0,0,0,0,0,0,-1,1021,1359,0,0
-196,-335,0,0,0,0,0,0,0,0,0,-1,1028,1359,0,0
-189,-335,0,0,0,0,0,0,0,0,0,-1,1035,1359,0,0
-182,-335,0,0,0,0,0,0,0,0,0,-1,1042,1359,0,0
-175,-335,0,0,0,0,0,0,0,0,0,-1,1049,1359,0,0
-168,-335,0,0,0,0,0,0,0,0,0,-1,1056,1359,0,0
-161,-335,0,0,0,0,0,0,0,0,0,-1,1063,1359,0,0
-154,-335,0,0,0,0,0,0,0,0,0,-1,1070,1359,0,0
-147,-335,0,0,0,0,0,0,0,0,0,-1,1077,1359,0,0
-140,-335,0,0,0,0,0,0,0,0,0,-1,1084,1359,0,0
-133,-335,0,0,0,0,0,0,0,0,0,-1,1091,1359,0,0
-126,-335,0,0,0,0,0,0,0,0,0,-1,1098,1359,0,0
-119,-335,0,0,0,0,0,0,0,0,0,-1,1105,1359,0,0
-112,-335,0,0,0,0,0,0,0,0,0,-1,1112,1359,0,0
-105,-335,0,0,0,0,0,0,0,0,0,-1,1119,1359,0,0
-98,-335,0,0,0,0,0,0,0,0,0,-1,1126,1359,0,0
-91,-335,0,0,0,0,0,0,0,0,0,-1,1133,1359,0,0
-84,-335,0,0,0,0,0,0,0,0,0,-1,1140,1359,0,0
-77,-335,0,0,0,0,0,0,0,0,0,-1,1147,1359,0,0
-70,-335,0,0,0,0,0,0,0,0,0,-1,1154,1359,0,0
-63,-335,0,0,0,0,0,0,0,0,0,-1,1161,1359,0,0
-56,-335,0,0,0,0,0,0,0,0,0,-1,1168,1359,0,0
-49,-335,0,0,0,0,0,0,0,0,0,-1,1175,1359,0,0
-42,-335,0,0,0,0,0,0,0,0,0,-1,1182,1359,0,0
-35,-335,0,0,0,0,0,0,0,0,0,-1,1189,1359,0,0
-28,-335,0,0,0,0,0,0,0,0,0,-1,1196,1359,0,0
-21,-335,0,0,0,0,0,0,0,0,0,-1,1203,1359,0,0
-14,-335,0,0,0,0,0,0,0,0,0,-1,1210,1359,0,0
-7,-335,0,0,0,0,0,0,0,0,0,-1,1217,1359,0,0
0,-335,0,0,0,0,0,0,0,0,0,-1,1224,1359,0,0
7,-335,0,0,0,0,0,0,0,0,0,-1,1231,1359,0,0
14,-335,0,0,0,0,0,0,0,0,0,-1,1238,1359,0,0
21,-335,0,0,0,0,0,0,0,0,0,-1,1245,1359,0,0
28,-335,0,0,0,0,0,0,0,0,0,-1,1252,1359,0,0
35,-335,0,0,0,0,0,0,0,0,0,-1,1259,1359,0,0
42,-335,0,0,0,0,0,0,0,0,0,-1,1266,1359,0,0
49,-335,0,0,0,0,0,0,0,0,0,-1,1273,1359,0,0
56,-335,0,0,0,0,0,0,0,0,0,-1,1280,1359,0,0
63,-335,0,0,0,0,0,0,0,0,0,-1,1287,1359,0,0
70,-335,0,0,0,0,0,0,0,0,0,-1,1294,1359,0,0
77,-335,0,0,0,0,0,0,0,0,0,-1,1301,1359,0,0
84,-335,0,0,0,0,0,0,0,0,0,-1,1308,1359,0,0
91,-335,0,0,0,0,0,0,0,0,0,-1,1315,1359,0,0
98,-335,0,0,0,0,0,0,0,0,0,-1,1322,1359,0,0
105,-335,0,0,0,0,0,0,0,0,0,-1,1329,1359,0,0
112,-335,0,0,0,0,0,0,0,0,0,-1,1336,1359,0,0
119,-335,0,0,0,0,0,0,0,0,0,-1,1343,1359,0,0
126,-335,0,0,0,0,0,0,0,0,0,-1,1350,1359,0,0
133,-335,0,0,0,0,0,0,0,0,0,-1,1357,1359,0,0
140,-335,0,0,0,0,0,0,0,0,0,-1,1364,1359,0,0
147,-335,0,0,0,0,0,0,0,0,0,-1,1371,1359,0,0
154,-335,0,0,0,0,0,0,0,0,0,-1,1378,1359,0,0
161,-335,0,0,0,0,0,0,0,0,0,-1,1385,1359,0,0
168,-335,0,0,0,0,0,0,0,0,0,-1,1392,1359,0,0
175,-335,0,0,0,0,0,0,0,0,0,-1,1399,1359,0,0
182,-335,0,0,0,0,0,0,0,0,0,-1,1406,1359,0,0
189,-335,0,0,0,0,0,0,0,0,0,-1,1413,1359,0,0
196,-335,0,0,0,0,0,0,0,0,0,-1,1420,1359,0,0
203,-335,0,0,0,0,0,0,0,0,0,-1,1427,1359,0,0
210,-335,0,0,0,0,0,0,0,0,0,-1,1434,1359,0,0
217,-335,0,0,0,0,0,0,0,0,0,-1,1441,1359,0,0
224,-335,0,0,0,0,0,0,0,0,0,-1,1448,1359,0,0
231,-335,0,0,0,0,0,0,0,0,0,-1,1455,1359,0,0
238,-335,0,0,0,0,0,0,0,0,0,-1,1462,1359,0,0
245,-335,0,0,0,0,0,0,0,0,0,-1,1469,1359,0,0
252,-335,0,0,0,0,0,0,0,0,0,-1,1476,1359,0,0
259,-335,0,0,0,0,0,0,0,0,0,-1,1483,1359,0,0
266,-335,0,0,0,0,0,0,0,0,0,-1,1490,1359,0,0
273,-335,0,0,0,0,0,0,0,0,0,-1,1497,1359,0,0
280,-335,0,0,0,0,0,0,0,0,0,-1,1504,1359,0,0
287,-335,0,0,0,0,0,0,0,0,0,-1,1511,1359,0,0
294,-335,0,0,0,0,0,0,0,0,0,-1,1518,1359,0,0
301,-335,0,0,0,0,0,0,0,0,0,-1,1525,1359,0,0
308,-335,0,0,0,0,0,0,0,0,0,-1,1532,1359,0,0
315,-335,0,0,0,0,0,0,0,0,0,-1,1539,1359,0,0
322,-335,0,0,0,0,0,0,0,0,0,-1,1546,1359,0,0
329,-335,0,0,0,0,0,0,0,0,0,-1,1553,1359,0,0
336,-335,0,0,0,0,0,0,0,0,0,-1,1560,1359,0,0
343,-335,0,0,0,0,0,0,0,0,0,-1,1567,1359,0,0
350,-335,0,0,0,0,0,0,0,0,0,-1,1574,1359,0,0
357,-335,0,0,0,0,0,0,0,0,0,-1,1581,1359,0,0
364,-335,0,0,0,0,0,0,0,0,0,-1,1588,1359,0,0
371,-335,0,0,0,0,0,0,0,0,0,-1,1595,1359,0,0
378,-335,0,0,0,0,0,0,0,0,0,-1,1602,1359,0,0
385,-335,0,0,0,0,0,0,0,0,0,-1,1609,1359,0,0
392,-335,0,0,0,0,0,0,0,0,0,-1,1616,1359,0,0
399,-335,0,0,0,0,0,0,0,0,0,-1,1623,1359,0,0
406,-335,0,0,0,0,0,0,0,0,0,-1,1630,1359,0,0
413,-335,0,0,0,0,0,0,0,0,0,-1,1637,1359,0,0
420,-335,0,0,0,0,0,0,0,0,0,-1,1644,1359,0,0
427,-335,0,0,0,0,0,0,0,0,0,-1,1651,1359,0,0
434,-335,0,0,0,0,0,0,0,0,0,-1,1658,1359,0,0
441,-335,0,0,0,0,0,0,0,0,0,-1,1665,1359,0,0
448,-335,0,0,0,0,0,0,0,0,0,-1,1672,1359,0,0
455,-335,0,0,0,0,0,0,0,0,0,-1,1679,1359,0,0
462,-335,0,0,0,0,0,0,0,0,0,-1,1686,1359,0,0
469,-335,0,0,0,0,0,0,0,0,0,-1,1693,1359,0,0
476,-335,0,0,0,0,0,0,0,0,0,-1,1700,1359,0,0
483,-335,0,0,0,0,0,0,0,0,0,-1,1707,1359,0,0
490,-335,0,0,0,0,0,0,0,0,0,-1,1714,1359,0,0
497,-335,0,0,0,0,0,0,0,0,0,-1,1721,1359,0,0
504,-335,0,0,0,0,0,0,0,0,0,-1,1728,1359,0,0
511,-335,0,0,0,0,0,0,0,0,0,-1,1735,1359,0,0
518,-335,0,0,0,0,0,0,0,0,0,-1,1742,1359,0,0
525,-335,0,0,0,0,0,0,0,0,0,-1,1749,1359,0,0
532,-335,0,0,0,0,0,0,0,0,0,-1,1756,1359,0,0
539,-335,0,0,0,0,0,0,0,0,0,-1,1763,1359,0,0
546,-335,0,0,0,0,0,0,0,0,0,-1,1770,1359,0,0
553,-335,0,0,0,0,0,0,0,0,0,-1,1777,1359,0,0
560,-335,0,0,0,0,0,0,0,0,0,-1,1784,1359,0,0
567,-335,0,0,0,0,0,0,0,0,0,-1,1791,1359,0,0
574,-335,44.5405,5.74219,0,0,0,0,0,0,0,-1,1798,1359,44.5406,-5.74224
581,-335,44.1571,6.41992,0,0,0,0,0,0,0,-1,1805,1359,44.1571,-6.41989
588,-335,50.7247,4.16223,0,0,0,0,0,0,0,-1,1812,1359,50.7247,-4.16227
595,-335,49.984,3.76465,0,0,0,0,0,0,0,-1,1819,1359,49.984,-3.76467
602,-335,36.5643,0.0861816,0,0,0,0,0,0,0,-1,1826,1359,36.5643,-0.0862283
609,-335,36.2933,0.993896,0,0,0,0,0,0,0,-1,1833,1359,36.2934,-0.993911
616,-335,34.6969,4.82666,0,0,0,0,0,0,0,-1,1840,1359,34.6969,-4.82667
623,-335,26.6051,6.54333,0,0,0,0,0,0,0,-1,1847,1359,26.6051,-6.54339
630,-335,19.1707,1.00952,0,0,0,0,0,0,0,-1,1854,1359,19.1707,-1.00953
637,-335,18.2009,6.65454,0,0,0,0,0,0,0,-1,1861,1359,18.2009,-6.6546
644,-335,28.1042,12.067,0,0,0,0,0,0,0,-1,1868,1359,28.1042,-12.067
651,-335,30.577,12.9401,0,0,0,0,0,0,0,-1,1875,1359,30.5771,-12.9401
658,-335,30.6418,12.342,-0.00367965,-0.00372288,-0.00080801,-0.00289297,-0.00450957,-0.772026,0.00263813,0.0275549,1882,1359,30.6418,-12.342
665,-335,30.6738,11.7904,-0.000708363,-0.000805938,-0.00050227,-0.000252517,-0.00126178,-0.736983,0.000770928,0.0150281,1889,1359,30.6738,-11.7904
672,-335,30.6544,11.2902,0.000670462,-0.000162788,-0.000363233,0.00080657,-0.000298897,-0.35852,0.000660295,0.0166176,1896,1359,30.6544,-11.2901
679,-335,30.6489,10.8142,0.00112714,-0.00018184,-0.000283288,0.00118582,-0.000240519,-0.204245,0.000881725,0.0150498,1903,1359,30.649,-10.8142
686,-335,30.6526,10.3218,0.00160775,-0.000110861,-0.000271311,0.00164957,-0.000152674,-0.152914,0.00115397,0.0133052,1910,1359,30.6526,-10.3217
693,-335,30.627,9.83716,0.00208969,1.97719e-05,-0.000305875,0.00213394,-2.44817e-05,-0.143682,0.00143086,0.0104527,1917,1359,30.627,-9.83721
700,-335,30.5909,9.37683,0.00256978,0.000211981,-0.000371341,0.00262688,0.000154879,-0.152575,0.00170198,0.0114463,1924,1359,30.591,-9.3768
707,-335,30.5912,8.89526,0.00297724,0.000483777,-0.000474039,0.00306432,0.000396697,-0.181672,0.00192433,0.0153272,1931,1359,30.5911,-8.8953
714,-335,30.6071,8.3186,0.00335313,0.000823362,-0.000571386,0.0034762,0.000700293,-0.212146,0.00212289,0.0342135,1938,1359,30.6071,-8.31857
721,-335,30.5532,7.65625,0,0,0,0,0,0,0,-1,1945,1359,30.5532,-7.6563
728,-335,20.8126,5.21167,0,0,0,0,0,0,0,-1,1952,1359,20.8127,-5.21172
735,-335,20.2725,5.34729,0,0,0,0,0,0,0,-1,1959,1359,20.2724,-5.34734
742,-335,19.8624,4.72229,0,0,0,0,0,0,0,-1,1966,1359,19.8624,-4.72225
749,-335,20.5887,6.05322,0,0,0,0,0,0,0,-1,1973,1359,20.5887,-6.05322
756,-335,20.7832,6.00452,0,0,0,0,0,0,0,-1,1980,1359,20.7832,-6.00447
763,-335,0,0,0,0,0,0,0,0,0,-1,1987,1359,0,0
770,-335,0,0,0,0,0,0,0,0,0,-1,1994,1359,0,0
777,-335,0,0,0,0,0,0,0,0,0,-1,2001,1359,0,0
784,-335,0,0,0,0,0,0,0,0,0,-1,2008,1359,0,0
791,-335,0,0,0,0,0,0,0,0,0,-1,2015,1359,0,0
798,-335,0,0,0,0,0,0,0,0,0,-1,2022,1359,0,0
805,-335,0,0,0,0,0,0,0,0,0,-1,2029,1359,0,0
812,-335,0,0,0,0,0,0,0,0,0,-1,2036,1359,0,0
-700,-342,0,0,0,0,0,0,0,0,0,-1,524,1366,0,0
-693,-342,0,0,0,0,0,0,0,0,0,-1,531,1366,0,0
-686,-342,0,0,0,0,0,0,0,0,0,-1,538,1366,0,0
-679,-342,0,0,0,0,0,0,0,0,0,-1,545,1366,0,0
-672,-342,0,0,0,0,0,0,0,0,0,-1,552,1366,0,0
-665,-342,0,0,0,0,0,0,0,0,0,-1,559,1366,0,0
-658,-342,0,0,0,0,0,0,0,0,0,-1,566,1366,0,0
-651,-342,0,0,0,0,0,0,0,0,0,-1,573,1366,0,0
-644,-342,0,0,0,0,0,0,0,0,0,-1,580,1366,0,0
-637,-342,-8.67786,-4.58557,0,0,0,0,0,0,0,-1,587,1366,-8.67788,4.5856
-630,-342,-8.60132,2.71777,0,0,0,0,0,0,0,-1,594,1366,-8.60135,-2.71779
-623,-342,-8.41168,0.662476,0,0,0,0,0,0,0,-1,601,1366,-8.41168,-0.662442
-616,-342,-6.625,-1.28015,0,0,0,0,0,0,0,-1,608,1366,-6.62499,1.28011
-609,-342,-7.83154,0.674561,0,0,0,0,0,0,0,-1,615,1366,-7.83155,-0.674598
-602,-342,-9.65765,2.25195,0,0,0,0,0,0,0,-1,622,1366,-9.65767,-2.25192
-595,-342,-9.47687,3.00671,0,0,0,0,0,0,0,-1,629,1366,-9.47686,-3.00668
-588,-342,-9.78467,3.57727,0,0,0,0,0,0,0,-1,636,1366,-9.78468,-3.57723
-581,-342,-16.1384,6.19385,0,0,0,0,0,0,0,-1,643,1366,-16.1384,-6.19389
-574,-342,-16.0404,6.69482,0.00460657,0.00117166,0.00163987,0.00526374,0.000514494,0.381146,0.00335085,0.0150664,650,1366,-16.0404,-6.69482
-567,-342,-15.9688,7.22485,0.00369989,0.000844057,0.00122032,0.00415031,0.00039364,0.353584,0.00264544,0.0174473,657,1366,-15.9688,-7.22485
-560,-342,-16.0088,7.70508,0.00319788,0.000542351,0.00100727,0.00353671,0.000203515,0.324499,0.00229298,0.0248648,664,1366,-16.0088,-7.70511
-553,-342,-16.0549,8.19897,0.00294777,0.00031148,0.000933935,0.00324509,1.41554e-05,0.308212,0.00215869,0.0289802,671,1366,-16.0549,-8.19896
-546,-342,-16.0669,8.76733,0.00295177,0.000131903,0.000988386,0.0032637,-0.000180029,0.305704,0.00223822,0.0309893,678,1366,-16.0669,-8.76738
-539,-342,-16.1366,9.323,0.00316412,-5.89681e-06,0.00116109,0.0035439,-0.000385671,0.316117,0.00250109,0.0249473,685,1366,-16.1366,-9.32303
-532,-342,-16.1351,9.87402,0.00365894,-9.97518e-05,0.00147961,0.0041715,-0.000612309,0.333475,0.00300596,0.0180807,692,1366,-16.135,-9.87402
-525,-342,-16.0648,10.4366,0.00441601,-0.00020197,0.00192731,0.00511467,-0.000900633,0.347772,0.00374625,0.0126501,699,1366,-16.0647,-10.4367
-518,-342,-16.0096,10.9902,0.00546544,-0.000179174,0.00250823,0.00641893,-0.00113266,0.363273,0.00470253,0.030245,706,1366,-16.0096,-10.9902
-511,-342,-16.0277,11.5337,0,0,0,0,0,0,0,-1,713,1366,-16.0277,-11.5337
-504,-342,-8.95709,6.5719,0,0,0,0,0,0,0,-1,720,1366,-8.95707,-6.57192
-497,-342,-8.26587,-0.943604,0,0,0,0,0,0,0,-1,727,1366,-8.26586,0.943543
-490,-342,-9.07153,-0.0227051,0,0,0,0,0,0,0,-1,734,1366,-9.07155,0.0227087
-483,-342,-9.87726,0.898071,0,0,0,0,0,0,0,-1,741,1366,-9.87724,-0.898125
-476,-342,-11.6371,-0.736328,0,0,0,0,0,0,0,-1,748,1366,-11.6371,0.736281
-469,-342,-12.6245,-0.987549,0,0,0,0,0,0,0,-1,755,1366,-12.6245,0.987553
-462,-342,-13.0912,-0.533203,0,0,0,0,0,0,0,-1,762,1366,-13.0912,0.533224
-455,-342,-13.7612,0.122925,0,0,0,0,0,0,0,-1,769,1366,-13.7612,-0.122896
-448,-342,-14.5278,0.826904,0,0,0,0,0,0,0,-1,776,1366,-14.5277,-0.826861
-441,-342,0,0,0,0,0,0,0,0,0,-1,783,1366,0,0
-434,-342,0,0,0,0,0,0,0,0,0,-1,790,1366,0,0
-427,-342,0,0,0,0,0,0,0,0,0,-1,797,1366,0,0
-420,-342,0,0,0,0,0,0,0,0,0,-1,804,1366,0,0
-413,-342,0,0,0,0,0,0,0,0,0,-1,811,1366,0,0
-406,-342,0,0,0,0,0,0,0,0,0,-1,818,1366,0,0
-399,-342,0,0,0,0,0,0,0,0,0,-1,825,1366,0,0
-392,-342,0,0,0,0,0,0,0,0,0,-1,832,1366,0,0
-385,-342,0,0,0,0,0,0,0,0,0,-1,839,1366,0,0
-378,-342,0,0,0,0,0,0,0,0,0,-1,846,1366,0,0
-371,-342,0,0,0,0,0,0,0,0,0,-1,853,1366,0,0
-364,-342,0,0,0,0,0,0,0,0,0,-1,860,1366,0,0
-357,-342,0,0,0,0,0,0,0,0,0,-1,867,1366,0,0
-350,-342,0,0,0,0,0,0,0,0,0,-1,874,1366,0,0
-343,-342,0,0,0,0,0,0,0,0,0,-1,881,1366,0,0
-336,-342,0,0,0,0,0,0,0,0,0,-1,888,1366,0,0
-329,-342,0,0,0,0,0,0,0,0,0,-1,895,1366,0,0
-322,-342,0,0,0,0,0,0,0,0,0,-1,902,1366,0,0
-315,-342,0,0,0,0,0,0,0,0,0,-1,909,1366,0,0
-308,-342,0,0,0,0,0,0,0,0,0,-1,916,1366,0,0
-301,-342,0,0,0,0,0,0,0,0,0,-1,923,1366,0,0
-294,-342,0,0,0,0,0,0,0,0,0,-1,930,1366,0,0
-287,-342,0,0,0,0,0,0,0,0,0,-1,937,1366,0,0
-280,-342,0,0,0,0,0,0,0,0,0,-1,944,1366,0,0
-273,-342,0,0,0,0,0,0,0,0,0,-1,951,1366,0,0
-266,-342,0,0,0,0,0,0,0,0,0,-1,958,1366,0,0
-259,-342,0,0,0,0,0,0,0,0,0,-1,965,1366,0,0
-252,-342,0,0,0,0,0,0,0,0,0,-1,972,1366,0,0
-245,-342,0,0,0,0,0,0,0,0,0,-1,979,1366,0,0
-238,-342,0,0,0,0,0,0,0,0,0,-1,986,1366,0,0
-231,-342,0,0,0,0,0,0,0,0,0,-1,993,1366,0,0
-224,-342,0,0,0,0,0,0,0,0,0,-1,1000,1366,0,0
-217,-342,0,0,0,0,0,0,0,0,0,-1,1007,1366,0,0
-210,-342,0,0,0,0,0,0,0,0,0,-1,1014,1366,0,0
-203,-342,0,0,0,0,0,0,0,0,0,-1,1021,1366,0,0
-196,-342,0,0,0,0,0,0,0,0,0,-1,1028,1366,0,0
-189,-342,0,0,0,0,0,0,0,0,0,-1,1035,1366,0,0
-182,-342,0,0,0,0,0,0,0,0,0,-1,1042,1366,0,0
-175,-342,0,0,0,0,0,0,0,0,0,-1,1049,1366,0,0
-168,-342,0,0,0,0,0,0,0,0,0,-1,1056,1366,0,0
-161,-342,0,0,0,0,0,0,0,0,0,-1,1063,1366,0,0
-154,-342,0,0,0,0,0,0,0,0,0,-1,1070,1366,0,0
-147,-342,0,0,0,0,0,0,0,0,0,-1,1077,1366,0,0
-140,-342,0,0,0,0,0,0,0,0,0,-1,1084,1366,0,0
-133,-342,0,0,0,0,0,0,0,0,0,-1,1091,1366,0,0
-126,-342,0,0,0,0,0,0,0,0,0,-1,1098,1366,0,0
-119,-342,0,0,0,0,0,0,0,0,0,-1,1105,1366,0,0
-112,-342,0,0,0,0,0,0,0,0,0,-1,1112,1366,0,0
-105,-342,0,0,0,0,0,0,0,0,0,-1,1119,1366,0,0
-98,-342,0,0,0,0,0,0,0,0,0,-1,1126,1366,0,0
-91,-342,0,0,0,0,0,0,0,0,0,-1,1133,1366,0,0
-84,-342,0,0,0,0,0,0,0,0,0,-1,1140,1366,0,0
-77,-342,0,0,0,0,0,0,0,0,0,-1,1147,1366,0,0
-70,-342,0,0,0,0,0,0,0,0,0,-1,1154,1366,0,0
-63,-342,0,0,0,0,0,0,0,0,0,-1,1161,1366,0,0
-56,-342,0,0,0,0,0,0,0,0,0,-1,1168,1366,0,0
-49,-342,0,0,0,0,0,0,0,0,0,-1,1175,1366,0,0
-42,-342,0,0,0,0,0,0,0,0,0,-1,1182,1366,0,0
-35,-342,0,0,0,0,0,0,0,0,0,-1,1189,1366,0,0
-28,-342,0,0,0,0,0,0,0,0,0,-1,1196,1366,0,0
-21,-342,0,0,0,0,0,0,0,0,0,-1,1203,1366,0,0
-14,-342,0,0,0,0,0,0,0,0,0,-1,1210,1366,0,0
-7,-342,0,0,0,0,0,0,0,0,0,-1,1217,1366,0,0
0,-342,0,0,0,0,0,0,0,0,0,-1,1224,1366,0,0
7,-342,0,0,0,0,0,0,0,0,0,-1,1231,1366,0,0
14,-342,0,0,0,0,0,0,0,0,0,-1,1238,1366,0,0
21,-342,0,0,0,0,0,0,0,0,0,-1,1245,1366,0,0
28,-342,0,0,0,0,0,0,0,0,0,-1,1252,1366,0,0
35,-342,0,0,0,0,0,0,0,0,0,-1,1259,1366,0,0
42,-342,0,0,0,0,0,0,0,0,0,-1,1266,1366,0,0
49,-342,0,0,0,0,0,0,0,0,0,-1,1273,1366,0,0
56,-342,0,0,0,0,0,0,0,0,0,-1,1280,1366,0,0
63,-342,0,0,0,0,0,0,0,0,0,-1,1287,1366,0,0
70,-342,0,0,0,0,0,0,0,0,0,-1,1294,1366,0,0
77,-342,0,0,0,0,0,0,0,0,0,-1,1301,1366,0,0
84,-342,0,0,0,0,0,0,0,0,0,-1,1308,1366,0,0
91,-342,0,0,0,0,0,0,0,0,0,-1,1315,1366,0,0
98,-342,0,0,0,0,0,0,0,0,0,-1,1322,1366,0,0
105,-342,0,0,0,0,0,0,0,0,0,-1,1329,1366,0,0
112,-342,0,0,0,0,0,0,0,0,0,-1,1336,1366,0,0
119,-342,0,0,0,0,0,0,0,0,0,-1,1343,1366,0,0
126,-342,0,0,0,0,0,0,0,0,0,-1,1350,1366,0,0
133,-342,0,0,0,0,0,0,0,0,0,-1,1357,1366,0,0
140,-342,0,0,0,0,0,0,0,0,0,-1,1364,1366,0,0
147,-342,0,0,0,0,0,0,0,0,0,-1,1371,1366,0,0
154,-342,0,0,0,0,0,0,0,0,0,-1,1378,1366,0,0
161,-342,0,0,0,0,0,0,0,0,0,-1,1385,1366,0,0
168,-342,0,0,0,0,0,0,0,0,0,-1,1392,1366,0,0
175,-342,0,0,0,0,0,0,0,0,0,-1,1399,1366,0,0
182,-342,0,0,0,0,0,0,0,0,0,-1,1406,1366,0,0
189,-342,0,0,0,0,0,0,0,0,0,-1,1413,1366,0,0
196,-342,0,0,0,0,0,0,0,0,0,-1,1420,1366,0,0
203,-342,0,0,0,0,0,0,0,0,0,-1,1427,1366,0,0
210,-342,0,0,0,0,0,0,0,0,0,-1,1434,1366,0,0
217,-342,0,0,0,0,0,0,0,0,0,-1,1441,1366,0,0
224,-342,0,0,0,0,0,0,0,0,0,-1,1448,1366,0,0
231,-342,0,0,0,0,0,0,0,0,0,-1,1455,1366,0,0
238,-342,0,0,0,0,0,0,0,0,0,-1,1462,1366,0,0
245,-342,0,0,0,0,0,0,0,0,0,-1,1469,1366,0,0
252,-342,0,0,0,0,0,0,0,0,0,-1,1476,1366,0,0
259,-342,0,0,0,0,0,0,0,0,0,-1,1483,1366,0,0
266,-342,0,0,0,0,0,0,0,0,0,-1,1490,1366,0,0
273,-342,0,0,0,0,0,0,0,0,0,-1,1497,1366,0,0
280,-342,0,0,0,0,0,0,0,0,0,-1,1504,1366,0,0
287,-342,0,0,0,0,0,0,0,0,0,-1,1511,1366,0,0
294,-342,0,0,0,0,0,0,0,0,0,-1,1518,1366,0,0
301,-342,0,0,0,0,0,0,0,0,0,-1,1525,1366,0,0
308,-342,0,0,0,0,0,0,0,0,0,-1,1532,1366,0,0
315,-342,0,0,0,0,0,0,0,0,0,-1,1539,1366,0,0
322,-342,0,0,0,0,0,0,0,0,0,-1,1546,1366,0,0
329,-342,0,0,0,0,0,0,0,0,0,-1,1553,1366,0,0
336,-342,0,0,0,0,0,0,0,0,0,-1,1560,1366,0,0
343,-342,0,0,0,0,0,0,0,0,0,-1,1567,1366,0,0
350,-342,0,0,0,0,0,0,0,0,0,-1,1574,1366,0,0
357,-342,0,0,0,0,0,0,0,0,0,-1,1581,1366,0,0
364,-342,0,0,0,0,0,0,0,0,0,-1,1588,1366,0,0
371,-342,0,0,0,0,0,0,0,0,0,-1,1595,1366,0,0
378,-342,0,0,0,0,0,0,0,0,0,-1,1602,1366,0,0
385,-342,0,0,0,0,0,0,0,0,0,-1,1609,1366,0,0
392,-342,0,0,0,0,0,0,0,0,0,-1,1616,1366,0,0
399,-342,0,0,0,0,0,0,0,0,0,-1,1623,1366,0,0
406,-342,0,0,0,0,0,0,0,0,0,-1,1630,1366,0,0
413,-342,0,0,0,0,0,0,0,0,0,-1,1637,1366,0,0
420,-342,0,0,0,0,0,0,0,0,0,-1,1644,1366,0,0
427,-342,0,0,0,0,0,0,0,0,0,-1,1651,1366,0,0
434,-342,0,0,0,0,0,0,0,0,0,-1,1658,1366,0,0
441,-342,0,0,0,0,0,0,0,0,0,-1,1665,1366,0,0
448,-342,0,0,0,0,0,0,0,0,0,-1,1672,1366,0,0
455,-342,0,0,0,0,0,0,0,0,0,-1,1679,1366,0,0
462,-342,0,0,0,0,0,0,0,0,0,-1,1686,1366,0,0
469,-342,0,0,0,0,0,0,0,0,0,-1,1693,1366,0,0
476,-342,0,0,0,0,0,0,0,0,0,-1,1700,1366,0,0
483,-342,0,0,0,0,0,0,0,0,0,-1,1707,1366,0,0
490,-342,0,0,0,0,0,0,0,0,0,-1,1714,1366,0,0
497,-342,0,0,0,0,0,0,0,0,0,-1,1721,1366,0,0
504,-342,0,0,0,0,0,0,0,0,0,-1,1728,1366,0,0
511,-342,0,0,0,0,0,0,0,0,0,-1,1735,1366,0,0
518,-342,0,0,0,0,0,0,0,0,0,-1,1742,1366,0,0
525,-342,0,0,0,0,0,0,0,0,0,-1,1749,1366,0,0
532,-342,0,0,0,0,0,0,0,0,0,-1,1756,1366,0,0
539,-342,0,0,0,0,0,0,0,0,0,-1,1763,1366,0,0
546,-342,0,0,0,0,0,0,0,0,0,-1,1770,1366,0,0
553,-342,0,0,0,0,0,0,0,0,0,-1,1777,1366,0,0
560,-342,0,0,0,0,0,0,0,0,0,-1,1784,1366,0,0
567,-342,42.6652,5.53748,0,0,0,0,0,0,0,-1,1791,1366,42.6652,-5.53752
574,-342,43.0466,5.95728,0,0,0,0,0,0,0,-1,1798,1366,43.0466,-5.9573
581,-342,43.4904,6.59937,0,0,0,0,0,0,0,-1,1805,1366,43.4903,-6.59938
588,-342,43.9108,7.22559,0,0,0,0,0,0,0,-1,1812,1366,43.9107,-7.22554
595,-342,35.7993,0.709961,0,0,0,0,0,0,0,-1,1819,1366,35.7993,-0.709913
602,-342,36.3618,3.28723,0,0,0,0,0,0,0,-1,1826,1366,36.3619,-3.28719
609,-342,35.3777,4.14978,0,0,0,0,0,0,0,-1,1833,1366,35.3777,-4.14976
616,-342,34.199,5.8158,0,0,0,0,0,0,0,-1,1840,1366,34.199,-5.81579
623,-342,26.0299,6.86865,0,0,0,0,0,0,0,-1,1847,1366,26.0299,-6.86863
630,-342,17.3431,0.773071,0,0,0,0,0,0,0,-1,1854,1366,17.3432,-0.773095
637,-342,16.196,6.76172,0,0,0,0,0,0,0,-1,1861,1366,16.1961,-6.76174
644,-342,30.1586,13.2777,0,0,0,0,0,0,0,-1,1868,1366,30.1585,-13.2777
651,-342,30.213,12.8092,-0.00585334,-0.0062166,-0.00150588,-0.00451818,-0.00755176,-0.72538,0.004388,0.0459992,1875,1366,30.213,-12.8092
658,-342,30.2056,12.2736,-0.00250496,-0.00242773,-0.000801047,-0.00166437,-0.00326832,-0.809483,0.00188708,0.0204937,1882,1366,30.2056,-12.2735
665,-342,30.1885,11.7754,-0.000251677,-0.000413799,-0.000505441,0.000179162,-0.000844638,-0.705887,0.000631344,0.0171181,1889,1366,30.1884,-11.7753
672,-342,30.1644,11.3275,0.000848885,-9.29128e-05,-0.000339155,0.000958307,-0.000202335,-0.312087,0.000715911,0.0137834,1896,1366,30.1645,-11.3275
679,-342,30.1523,10.8605,0.00142155,-0.0001763,-0.000237203,0.00145602,-0.000210769,-0.144306,0.00104803,0.0138226,1903,1366,30.1524,-10.8605
686,-342,30.1812,10.3776,0.00203619,-0.00015865,-0.000225419,0.00205911,-0.000181563,-0.101295,0.00143709,0.0122911,1910,1366,30.1812,-10.3776
693,-342,30.1564,9.87952,0.00265698,-7.99003e-05,-0.000263224,0.00268206,-0.000104986,-0.0950162,0.00182404,0.0120657,1917,1366,30.1564,-9.87958
700,-342,30.1079,9.40051,0.00328813,8.23598e-05,-0.000363084,0.00332873,4.17515e-05,-0.11138,0.00220537,0.0134973,1924,1366,30.1079,-9.40053
707,-342,30.1115,8.89355,0.00383583,0.00035627,-0.000542685,0.0039185,0.000273595,-0.151182,0.00252608,0.0136872,1931,1366,30.1115,-8.89352
714,-342,30.1991,8.22839,0,0,0,0,0,0,0,-1,1938,1366,30.1991,-8.22835
721,-342,22.4666,6.08679,0,0,0,0,0,0,0,-1,1945,1366,22.4666,-6.08678
728,-342,19.8912,5.26636,0,0,0,0,0,0,0,-1,1952,1366,19.8913,-5.26636
735,-342,19.481,4.41968,0,0,0,0,0,0,0,-1,1959,1366,19.4809,-4.41962
742,-342,19.309,2.66943,0,0,0,0,0,0,0,-1,1966,1366,19.3089,-2.66948
749,-342,21.0934,6.47729,0,0,0,0,0,0,0,-1,1973,1366,21.0934,-6.4773
756,-342,0,0,0,0,0,0,0,0,0,-1,1980,1366,0,0
763,-342,0,0,0,0,0,0,0,0,0,-1,1987,1366,0,0
770,-342,0,0,0,0,0,0,0,0,0,-1,1994,1366,0,0
777,-342,0,0,0,0,0,0,0,0,0,-1,2001,1366,0,0
784,-342,0,0,0,0,0,0,0,0,0,-1,2008,1366,0,0
791,-342,0,0,0,0,0,0,0,0,0,-1,2015,1366,0,0
798,-342,0,0,0,0,0,0,0,0,0,-1,2022,1366,0,0
805,-342,0,0,0,0,0,0,0,0,0,-1,2029,1366,0,0
812,-342,0,0,0,0,0,0,0,0,0,-1,2036,1366,0,0
-700,-349,0,0,0,0,0,0,0,0,0,-1,524,1373,0,0
-693,-349,0,0,0,0,0,0,0,0,0,-1,531,1373,0,0
-686,-349,0,0,0,0,0,0,0,0,0,-1,538,1373,0,0
-679,-349,0,0,0,0,0,0,0,0,0,-1,545,1373,0,0
-672,-349,0,0,0,0,0,0,0,0,0,-1,552,1373,0,0
-665,-349,0,0,0,0,0,0,0,0,0,-1,559,1373,0,0
-658,-349,0,0,0,0,0,0,0,0,0,-1,566,1373,0,0
-651,-349,0,0,0,0,0,0,0,0,0,-1,573,1373,0,0
-644,-349,0,0,0,0,0,0,0,0,0,-1,580,1373,0,0
-637,-349,0,0,0,0,0,0,0,0,0,-1,587,1373,0,0
-630,-349,-7.64117,-5.06177,0,0,0,0,0,0,0,-1,594,1373,-7.64118,5.0618
-623,-349,-8.63507,0.51123,0,0,0,0,0,0,0,-1,601,1373,-8.63505,-0.511275
-616,-349,-5.2066,-0.188232,0,0,0,0,0,0,0,-1,608,1373,-5.20659,0.188211
-609,-349,-7.12073,1.37048,0,0,0,0,0,0,0,-1,615,1373,-7.12072,-1.37044
-602,-349,-9.00623,3.39587,0,0,0,0,0,0,0,-1,622,1373,-9.0062,-3.39591
-595,-349,-9.50568,2.96912,0,0,0,0,0,0,0,-1,629,1373,-9.50569,-2.96906
-588,-349,-8.60046,3.56042,0,0,0,0,0,0,0,-1,636,1373,-8.60046,-3.56047
-581,-349,-15.4258,6.19324,0,0,0,0,0,0,0,-1,643,1373,-15.4258,-6.19324
-574,-349,-15.4634,6.65186,0.00552681,0.000814206,0.00166101,0.00605341,0.000287605,0.307012,0.00394324,0.0332382,650,1373,-15.4634,-6.65184
-567,-349,-15.4849,7.22595,0.00431534,0.000614757,0.00121945,0.00468105,0.000249051,0.291359,0.00304108,0.018024,657,1373,-15.4849,-7.22595
-560,-349,-15.5007,7.75757,0.00360601,0.000390382,0.00099731,0.0038902,0.000106188,0.277602,0.00255881,0.0220649,664,1373,-15.5008,-7.75761
-553,-349,-15.5396,8.24963,0.0031706,0.000234736,0.000913196,0.00343147,-2.61322e-05,0.278254,0.00229641,0.0282764,671,1373,-15.5396,-8.24962
-546,-349,-15.5457,8.76355,0.00297755,0.000124425,0.000947276,0.00326341,-0.000161441,0.293087,0.00223137,0.0310059,678,1373,-15.5456,-8.76359
-539,-349,-15.6009,9.33179,0.00299729,3.58714e-05,0.00108183,0.00335038,-0.000317227,0.315489,0.00234649,0.0240529,685,1373,-15.6009,-9.33179
-532,-349,-15.5782,9.89563,0.00325958,-2.84729e-05,0.00133254,0.00373179,-0.000500688,0.340565,0.00267045,0.0168155,692,1373,-15.5782,-9.89561
-525,-349,-15.541,10.4552,0.00375916,-7.65934e-05,0.00170032,0.00440436,-0.000721792,0.362672,0.00320405,0.0132033,699,1373,-15.541,-10.4552
-518,-349,-15.5551,11.0203,0.00449449,-3.53381e-05,0.00217282,0.0053682,-0.00090905,0.382324,0.00391714,0.0196892,706,1373,-15.5551,-11.0202
-511,-349,-15.5327,11.6018,0,0,0,0,0,0,0,-1,713,1373,-15.5327,-11.6018
-504,-349,-9.60516,7.88831,0,0,0,0,0,0,0,-1,720,1373,-9.60519,-7.88825
-497,-349,-7.9339,5.58789,0,0,0,0,0,0,0,-1,727,1373,-7.93388,-5.58785
-490,-349,-8.73969,-0.503784,0,0,0,0,0,0,0,-1,734,1373,-8.73966,0.503752
-483,-349,-5.66974,3.7395,0,0,0,0,0,0,0,-1,741,1373,-5.66975,-3.73949
-476,-349,-10.8496,1.15759,0,0,0,0,0,0,0,-1,748,1373,-10.8496,-1.15756
-469,-349,-12.3314,-1.74878,0,0,0,0,0,0,0,-1,755,1373,-12.3314,1.74882
-462,-349,-12.6559,-0.995361,0,0,0,0,0,0,0,-1,762,1373,-12.656,0.995351
-455,-349,-13.2897,-0.234253,0,0,0,0,0,0,0,-1,769,1373,-13.2897,0.234261
-448,-349,-14.045,0.712891,0,0,0,0,0,0,0,-1,776,1373,-14.045,-0.712838
-441,-349,0,0,0,0,0,0,0,0,0,-1,783,1373,0,0
-434,-349,0,0,0,0,0,0,0,0,0,-1,790,1373,0,0
-427,-349,0,0,0,0,0,0,0,0,0,-1,797,1373,0,0
-420,-349,0,0,0,0,0,0,0,0,0,-1,804,1373,0,0
-413,-349,0,0,0,0,0,0,0,0,0,-1,811,1373,0,0
-406,-349,0,0,0,0,0,0,0,0,0,-1,818,1373,0,0
-399,-349,0,0,0,0,0,0,0,0,0,-1,825,1373,0,0
-392,-349,0,0,0,0,0,0,0,0,0,-1,832,1373,0,0
-385,-349,0,0,0,0,0,0,0,0,0,-1,839,1373,0,0
-378,-349,0,0,0,0,0,0,0,0,0,-1,846,1373,0,0
-371,-349,0,0,0,0,0,0,0,0,0,-1,853,1373,0,0
-364,-349,0,0,0,0,0,0,0,0,0,-1,860,1373,0,0
-357,-349,0,0,0,0,0,0,0,0,0,-1,867,1373,0,0
-350,-349,0,0,0,0,0,0,0,0,0,-1,874,1373,0,0
-343,-349,0,0,0,0,0,0,0,0,0,-1,881,1373,0,0
-336,-349,0,0,0,0,0,0,0,0,0,-1,888,1373,0,0
-329,-349,0,0,0,0,0,0,0,0,0,-1,895,1373,0,0
-322,-349,0,0,0,0,0,0,0,0,0,-1,902,1373,0,0
-315,-349,0,0,0,0,0,0,0,0,0,-1,909,1373,0,0
-308,-349,0,0,0,0,0,0,0,0,0,-1,916,1373,0,0
-301,-349,0,0,0,0,0,0,0,0,0,-1,923,1373,0,0
-294,-349,0,0,0,0,0,0,0,0,0,-1,930,1373,0,0
-287,-349,0,0,0,0,0,0,0,0,0,-1,937,1373,0,0
-280,-349,0,0,0,0,0,0,0,0,0,-1,944,1373,0,0
-273,-349,0,0,0,0,0,0,0,0,0,-1,951,1373,0,0
-266,-349,0,0,0,0,0,0,0,0,0,-1,958,1373,0,0
-259,-349,0,0,0,0,0,0,0,0,0,-1,965,1373,0,0
-252,-349,0,0,0,0,0,0,0,0,0,-1,972,1373,0,0
-245,-349,0,0,0,0,0,0,0,0,0,-1,979,1373,0,0
-238,-349,0,0,0,0,0,0,0,0,0,-1,986,1373,0,0
-231,-349,0,0,0,0,0,0,0,0,0,-1,993,1373,0,0
-224,-349,0,0,0,0,0,0,0,0,0,-1,1000,1373,0,0
-217,-349,0,0,0,0,0,0,0,0,0,-1,1007,1373,0,0
-210,-349,0,0,0,0,0,0,0,0,0,-1,1014,1373,0,0
-203,-349,0,0,0,0,0,0,0,0,0,-1,1021,1373,0,0
-196,-349,0,0,0,0,0,0,0,0,0,-1,1028,1373,0,0
-189,-349,0,0,0,0,0,0,0,0,0,-1,1035,1373,0,0
-182,-349,0,0,0,0,0,0,0,0,0,-1,1042,1373,0,0
-175,-349,0,0,0,0,0,0,0,0,0,-1,1049,1373,0,0
-168,-349,0,0,0,0,0,0,0,0,0,-1,1056,1373,0,0
-161,-349,0,0,0,0,0,0,0,0,0,-1,1063,1373,0,0
-154,-349,0,0,0,0,0,0,0,0,0,-1,1070,1373,0,0
-147,-349,0,0,0,0,0,0,0,0,0,-1,1077,1373,0,0
-140,-349,0,0,0,0,0,0,0,0,0,-1,1084,1373,0,0
-133,-349,0,0,0,0,0,0,0,0,0,-1,1091,1373,0,0
-126,-349,0,0,0,0,0,0,0,0,0,-1,1098,1373,0,0
-119,-349,0,0,0,0,0,0,0,0,0,-1,1105,1373,0,0
-112,-349,0,0,0,0,0,0,0,0,0,-1,1112,1373,0,0
-105,-349,0,0,0,0,0,0,0,0,0,-1,1119,1373,0,0
-98,-349,0,0,0,0,0,0,0,0,0,-1,1126,1373,0,0
-91,-349,0,0,0,0,0,0,0,0,0,-1,1133,1373,0,0
-84,-349,0,0,0,0,0,0,0,0,0,-1,1140,1373,0,0
-77,-349,0,0,0,0,0,0,0,0,0,-1,1147,1373,0,0
-70,-349,0,0,0,0,0,0,0,0,0,-1,1154,1373,0,0
-63,-349,0,0,0,0,0,0,0,0,0,-1,1161,1373,0,0
-56,-349,0,0,0,0,0,0,0,0,0,-1,1168,1373,0,0
-49,-349,0,0,0,0,0,0,0,0,0,-1,1175,1373,0,0
-42,-349,0,0,0,0,0,0,0,0,0,-1,1182,1373,0,0
-35,-349,0,0,0,0,0,0,0,0,0,-1,1189,1373,0,0
-28,-349,0,0,0,0,0,0,0,0,0,-1,1196,1373,0,0
-21,-349,0,0,0,0,0,0,0,0,0,-1,1203,1373,0,0
-14,-349,0,0,0,0,0,0,0,0,0,-1,1210,1373,0,0
-7,-349,0,0,0,0,0,0,0,0,0,-1,1217,1373,0,0
0,-349,0,0,0,0,0,0,0,0,0,-1,1224,1373,0,0
7,-349,0,0,0,0,0,0,0,0,0,-1,1231,1373,0,0
14,-349,0,0,0,0,0,0,0,0,0,-1,1238,1373,0,0
21,-349,0,0,0,0,0,0,0,0,0,-1,1245,1373,0,0
28,-349,0,0,0,0,0,0,0,0,0,-1,1252,1373,0,0
35,-349,0,0,0,0,0,0,0,0,0,-1,1259,1373,0,0
42,-349,0,0,0,0,0,0,0,0,0,-1,1266,1373,0,0
49,-349,0,0,0,0,0,0,0,0,0,-1,1273,1373,0,0
56,-349,0,0,0,0,0,0,0,0,0,-1,1280,1373,0,0
63,-349,0,0,0,0,0,0,0,0,0,-1,1287,1373,0,0
70,-349,0,0,0,0,0,0,0,0,0,-1,1294,1373,0,0
77,-349,0,0,0,0,0,0,0,0,0,-1,1301,1373,0,0
84,-349,0,0,0,0,0,0,0,0,0,-1,1308,1373,0,0
91,-349,0,0,0,0,0,0,0,0,0,-1,1315,1373,0,0
98,-349,0,0,0,0,0,0,0,0,0,-1,1322,1373,0,0
105,-349,0,0,0,0,0,0,0,0,0,-1,1329,1373,0,0
112,-349,0,0,0,0,0,0,0,0,0,-1,1336,1373,0,0
119,-349,0,0,0,0,0,0,0,0,0,-1,1343,1373,0,0
126,-349,0,0,0,0,0,0,0,0,0,-1,1350,1373,0,0
133,-349,0,0,0,0,0,0,0,0,0,-1,1357,1373,0,0
140,-349,0,0,0,0,0,0,0,0,0,-1,1364,1373,0,0
147,-349,0,0,0,0,0,0,0,0,0,-1,1371,1373,0,0
154,-349,0,0,0,0,0,0,0,0,0,-1,1378,1373,0,0
161,-349,0,0,0,0,0,0,0,0,0,-1,1385,1373,0,0
168,-349,0,0,0,0,0,0,0,0,0,-1,1392,1373,0,0
175,-349,0,0,0,0,0,0,0,0,0,-1,1399,1373,0,0
182,-349,0,0,0,0,0,0,0,0,0,-1,1406,1373,0,0
189,-349,0,0,0,0,0,0,0,0,0,-1,1413,1373,0,0
196,-349,0,0,0,0,0,0,0,0,0,-1,1420,1373,0,0
203,-349,0,0,0,0,0,0,0,0,0,-1,1427,1373,0,0
210,-349,0,0,0,0,0,0,0,0,0,-1,1434,1373,0,0
217,-349,0,0,0,0,0,0,0,0,0,-1,1441,1373,0,0
224,-349,0,0,0,0,0,0,0,0,0,-1,1448,1373,0,0
231,-349,0,0,0,0,0,0,0,0,0,-1,1455,1373,0,0
238,-349,0,0,0,0,0,0,0,0,0,-1,1462,1373,0,0
245,-349,0,0,0,0,0,0,0,0,0,-1,1469,1373,0,0
252,-349,0,0,0,0,0,0,0,0,0,-1,1476,1373,0,0
259,-349,0,0,0,0,0,0,0,0,0,-1,1483,1373,0,0
266,-349,0,0,0,0,0,0,0,0,0,-1,1490,1373,0,0
273,-349,0,0,0,0,0,0,0,0,0,-1,1497,1373,0,0
280,-349,0,0,0,0,0,0,0,0,0,-1,1504,1373,0,0
287,-349,0,0,0,0,0,0,0,0,0,-1,1511,1373,0,0
294,-349,0,0,0,0,0,0,0,0,0,-1,1518,1373,0,0
301,-349,0,0,0,0,0,0,0,0,0,-1,1525,1373,0,0
308,-349,0,0,0,0,0,0,0,0,0,-1,1532,1373,0,0
315,-349,0,0,0,0,0,0,0,0,0,-1,1539,1373,0,0
322,-349,0,0,0,0,0,0,0,0,0,-1,1546,1373,0,0
329,-349,0,0,0,0,0,0,0,0,0,-1,1553,1373,0,0
336,-349,0,0,0,0,0,0,0,0,0,-1,1560,1373,0,0
343,-349,0,0,0,0,0,0,0,0,0,-1,1567,1373,0,0
350,-349,0,0,0,0,0,0,0,0,0,-1,1574,1373,0,0
357,-349,0,0,0,0,0,0,0,0,0,-1,1581,1373,0,0
364,-349,0,0,0,0,0,0,0,0,0,-1,1588,1373,0,0
371,-349,0,0,0,0,0,0,0,0,0,-1,1595,1373,0,0
378,-349,0,0,0,0,0,0,0,0,0,-1,1602,1373,0,0
385,-349,0,0,0,0,0,0,0,0,0,-1,1609,1373,0,0
392,-349,0,0,0,0,0,0,0,0,0,-1,1616,1373,0,0
399,-349,0,0,0,0,0,0,0,0,0,-1,1623,1373,0,0
406,-349,0,0,0,0,0,0,0,0,0,-1,1630,1373,0,0
413,-349,0,0,0,0,0,0,0,0,0,-1,1637,1373,0,0
420,-349,0,0,0,0,0,0,0,0,0,-1,1644,1373,0,0
427,-349,0,0,0,0,0,0,0,0,0,-1,1651,1373,0,0
434,-349,0,0,0,0,0,0,0,0,0,-1,1658,1373,0,0
441,-349,0,0,0,0,0,0,0,0,0,-1,1665,1373,0,0
448,-349,0,0,0,0,0,0,0,0,0,-1,1672,1373,0,0
455,-349,0,0,0,0,0,0,0,0,0,-1,1679,1373,0,0
462,-349,0,0,0,0,0,0,0,0,0,-1,1686,1373,0,0
469,-349,0,0,0,0,0,0,0,0,0,-1,1693,1373,0,0
476,-349,0,0,0,0,0,0,0,0,0,-1,1700,1373,0,0
483,-349,0,0,0,0,0,0,0,0,0,-1,1707,1373,0,0
490,-349,0,0,0,0,0,0,0,0,0,-1,1714,1373,0,0
497,-349,0,0,0,0,0,0,0,0,0,-1,1721,1373,0,0
504,-349,0,0,0,0,0,0,0,0,0,-1,1728,1373,0,0
511,-349,0,0,0,0,0,0,0,0,0,-1,1735,1373,0,0
518,-349,0,0,0,0,0,0,0,0,0,-1,1742,1373,0,0
525,-349,0,0,0,0,0,0,0,0,0,-1,1749,1373,0,0
532,-349,0,0,0,0,0,0,0,0,0,-1,1756,1373,0,0
539,-349,0,0,0,0,0,0,0,0,0,-1,1763,1373,0,0
546,-349,0,0,0,0,0,0,0,0,0,-1,1770,1373,0,0
553,-349,0,0,0,0,0,0,0,0,0,-1,1777,1373,0,0
560,-349,45.6893,3.53845,0,0,0,0,0,0,0,-1,1784,1373,45.6893,-3.5385
567,-349,41.9424,6.03833,0,0,0,0,0,0,0,-1,1791,1373,41.9423,-6.03834
574,-349,42.4165,6.17078,0,0,0,0,0,0,0,-1,1798,1373,42.4165,-6.17072
581,-349,42.8947,6.78381,0,0,0,0,0,0,0,-1,1805,1373,42.8946,-6.78376
588,-349,44.8121,5.06213,0,0,0,0,0,0,0,-1,1812,1373,44.8121,-5.06215
595,-349,44.4338,6.14099,0,0,0,0,0,0,0,-1,1819,1373,44.4338,-6.14095
602,-349,35.6641,3.26465,0,0,0,0,0,0,0,-1,1826,1373,35.6641,-3.26468
609,-349,34.7175,4.401,0,0,0,0,0,0,0,-1,1833,1373,34.7175,-4.40096
616,-349,27.1451,6.68274,0,0,0,0,0,0,0,-1,1840,1373,27.1451,-6.6828
623,-349,18.8478,2.75769,0,0,0,0,0,0,0,-1,1847,1373,18.8478,-2.75774
630,-349,15.4948,6.47644,0,0,0,0,0,0,0,-1,1854,1373,15.4947,-6.4765
637,-349,16.5161,6.92639,0,0,0,0,0,0,0,-1,1861,1373,16.5161,-6.92636
644,-349,29.8314,13.2963,0,0,0,0,0,0,0,-1,1868,1373,29.8314,-13.2963
651,-349,29.8319,12.7753,-0.00330076,-0.00383167,-0.0016257,-0.00191898,-0.00521345,-0.70447,0.00304471,0.0359713,1875,1373,29.832,-12.7753
658,-349,29.7379,12.2606,-0.000884541,-0.00108744,-0.000928587,-5.18789e-05,-0.0019201,-0.730988,0.00126313,0.025749,1882,1373,29.738,-12.2607
665,-349,29.677,11.7896,0.00039144,-7.92122e-05,-0.000498714,0.000707562,-0.000395334,-0.564954,0.000645206,0.0201412,1889,1373,29.6769,-11.7895
672,-349,29.6632,11.326,0.00107313,-0.000118818,-0.000225746,0.00111445,-0.00016014,-0.181043,0.000801696,0.0154398,1896,1373,29.6632,-11.326
679,-349,29.6526,10.8604,0.00165424,-0.0002911,-2.49417e-05,0.00165456,-0.00029142,-0.0128185,0.00121192,0.0159065,1903,1373,29.6525,-10.8604
686,-349,29.6964,10.3918,0.0022948,-0.000374682,8.45506e-05,0.00229748,-0.000377357,0.0316308,0.00167169,0.0170554,1910,1373,29.6964,-10.3919
693,-349,29.6716,9.90662,0.00296641,-0.000396519,0.000133575,0.00297171,-0.000401816,0.0396366,0.00212776,0.0192615,1917,1373,29.6716,-9.9066
700,-349,29.6385,9.44446,0.0036758,-0.000321545,9.54174e-05,0.00367808,-0.000323822,0.0238521,0.00256681,0.0168439,1924,1373,29.6386,-9.44444
707,-349,29.704,8.91565,0.00430595,-0.000119313,-6.1353e-05,0.0043068,-0.000120163,-0.0138607,0.00291208,0.0338011,1931,1373,29.704,-8.91569
714,-349,29.8333,8.28809,0,0,0,0,0,0,0,-1,1938,1373,29.8332,-8.2881
721,-349,19.6688,5.93604,0,0,0,0,0,0,0,-1,1945,1373,19.6688,-5.93606
728,-349,18.6333,3.73218,0,0,0,0,0,0,0,-1,1952,1373,18.6333,-3.73214
735,-349,18.1918,3.39954,0,0,0,0,0,0,0,-1,1959,1373,18.1918,-3.3995
742,-349,20.7345,2.07483,0,0,0,0,0,0,0,-1,1966,1373,20.7345,-2.07485
749,-349,21.9037,1.45789,0,0,0,0,0,0,0,-1,1973,1373,21.9037,-1.45788
756,-349,0,0,0,0,0,0,0,0,0,-1,1980,1373,0,0
763,-349,0,0,0,0,0,0,0,0,0,-1,1987,1373,0,0
770,-349,0,0,0,0,0,0,0,0,0,-1,1994,1373,0,0
777,-349,0,0,0,0,0,0,0,0,0,-1,2001,1373,0,0
784,-349,0,0,0,0,0,0,0,0,0,-1,2008,1373,0,0
791,-349,0,0,0,0,0,0,0,0,0,-1,2015,1373,0,0
798,-349,0,0,0,0,0,0,0,0,0,-1,2022,1373,0,0
805,-349,0,0,0,0,0,0,0,0,0,-1,2029,1373,0,0
812,-349,0,0,0,0,0,0,0,0,0,-1,2036,1373,0,0
-700,-356,0,0,0,0,0,0,0,0,0,-1,524,1380,0,0
-693,-356,0,0,0,0,0,0,0,0,0,-1,531,1380,0,0
-686,-356,0,0,0,0,0,0,0,0,0,-1,538,1380,0,0
-679,-356,0,0,0,0,0,0,0,0,0,-1,545,1380,0,0
-672,-356,0,0,0,0,0,0,0,0,0,-1,552,1380,0,0
-665,-356,0,0,0,0,0,0,0,0,0,-1,559,1380,0,0
-658,-356,0,0,0,0,0,0,0,0,0,-1,566,1380,0,0
-651,-356,0,0,0,0,0,0,0,0,0,-1,573,1380,0,0
-644,-356,0,0,0,0,0,0,0,0,0,-1,580,1380,0,0
-637,-356,0,0,0,0,0,0,0,0,0,-1,587,1380,0,0
-630,-356,-8.23126,-5.01917,0,0,0,0,0,0,0,-1,594,1380,-8.23124,5.0192
-623,-356,-0.263855,-0.675781,0,0,0,0,0,0,0,-1,601,1380,-0.263835,0.675841
-616,-356,-8.26532,-3.43945,0,0,0,0,0,0,0,-1,608,1380,-8.2653,3.43948
-609,-356,-4.88483,0.734497,0,0,0,0,0,0,0,-1,615,1380,-4.88485,-0.734532
-602,-356,-9.06635,2.4021,0,0,0,0,0,0,0,-1,622,1380,-9.06634,-2.40206
-595,-356,-8.45703,3.61853,0,0,0,0,0,0,0,-1,629,1380,-8.45706,-3.61848
-588,-356,-9.31738,4.14258,0,0,0,0,0,0,0,-1,636,1380,-9.31736,-4.14255
-581,-356,-14.3957,6.35889,0,0,0,0,0,0,0,-1,643,1380,-14.3957,-6.35889
-574,-356,-15.0205,6.62268,0,0,0,0,0,0,0,-1,650,1380,-15.0205,-6.62271
-567,-356,-14.9892,7.20007,0.0048444,0.000448177,0.00129453,0.00519727,9.53067e-05,0.26612,0.00343352,0.0195713,657,1380,-14.9892,-7.20007
-560,-356,-14.9446,7.7959,0.00398906,0.000263938,0.00102853,0.00425417,-1.17719e-06,0.25227,0.00283651,0.0188841,664,1380,-14.9446,-7.79588
-553,-356,-14.9694,8.32166,0.00341235,0.000157514,0.000908675,0.00364885,-7.8983e-05,0.254617,0.00245932,0.0217528,671,1380,-14.9694,-8.32169
-546,-356,-15.0231,8.82043,0.00306298,8.51491e-05,0.000899192,0.00331344,-0.000165307,0.27165,0.00226607,0.0237883,678,1380,-15.0231,-8.82049
-539,-356,-15.0284,9.35803,0.00292282,3.16987e-05,0.000986648,0.00322744,-0.000272917,0.299454,0.00224813,0.0157773,685,1380,-15.0284,-9.35806
-532,-356,-15.0321,9.91724,0.00301034,1.1445e-05,0.00118979,0.00342504,-0.000403248,0.335377,0.00242896,0.0139726,692,1380,-15.0321,-9.9172
-525,-356,-15.0388,10.4518,0.00332191,2.05433e-05,0.00150326,0.00390384,-0.000561386,0.369345,0.00280845,0.0124988,699,1380,-15.0388,-10.4518
-518,-356,-15.0452,10.9923,0.00385681,0.000103233,0.0019224,0.00466665,-0.000706605,0.398702,0.00337141,0.0124527,706,1380,-15.0452,-10.9923
-511,-356,-15.0271,11.5339,0,0,0,0,0,0,0,-1,713,1380,-15.0271,-11.5339
-504,-356,-14.3925,12.3971,0,0,0,0,0,0,0,-1,720,1380,-14.3925,-12.3971
-497,-356,-5.68604,4.96387,0,0,0,0,0,0,0,-1,727,1380,-5.68605,-4.96385
-490,-356,-7.95288,5.5625,0,0,0,0,0,0,0,-1,734,1380,-7.95285,-5.56246
-483,-356,-7.2627,4.07446,0,0,0,0,0,0,0,-1,741,1380,-7.2627,-4.07441
-476,-356,-5.1936,4.16016,0,0,0,0,0,0,0,-1,748,1380,-5.1936,-4.16012
-469,-356,-10.0883,0.536011,0,0,0,0,0,0,0,-1,755,1380,-10.0883,-0.535989
-462,-356,-12.3481,-0.215698,0,0,0,0,0,0,0,-1,762,1380,-12.3481,0.215641
-455,-356,-13.1367,-0.264648,0,0,0,0,0,0,0,-1,769,1380,-13.1367,0.264647
-448,-356,-13.9116,-0.310181,0,0,0,0,0,0,0,-1,776,1380,-13.9115,0.310207
-441,-356,-13.1602,3.05603,0,0,0,0,0,0,0,-1,783,1380,-13.1602,-3.05609
-434,-356,0,0,0,0,0,0,0,0,0,-1,790,1380,0,0
-427,-356,0,0,0,0,0,0,0,0,0,-1,797,1380,0,0
-420,-356,0,0,0,0,0,0,0,0,0,-1,804,1380,0,0
-413,-356,0,0,0,0,0,0,0,0,0,-1,811,1380,0,0
-406,-356,0,0,0,0,0,0,0,0,0,-1,818,1380,0,0
-399,-356,0,0,0,0,0,0,0,0,0,-1,825,1380,0,0
-392,-356,0,0,0,0,0,0,0,0,0,-1,832,1380,0,0
-385,-356,0,0,0,0,0,0,0,0,0,-1,839,1380,0,0
-378,-356,0,0,0,0,0,0,0,0,0,-1,846,1380,0,0
-371,-356,0,0,0,0,0,0,0,0,0,-1,853,1380,0,0
-364,-356,0,0,0,0,0,0,0,0,0,-1,860,1380,0,0
-357,-356,0,0,0,0,0,0,0,0,0,-1,867,1380,0,0
-350,-356,0,0,0,0,0,0,0,0,0,-1,874,1380,0,0
-343,-356,0,0,0,0,0,0,0,0,0,-1,881,1380,0,0
-336,-356,0,0,0,0,0,0,0,0,0,-1,888,1380,0,0
-329,-356,0,0,0,0,0,0,0,0,0,-1,895,1380,0,0
-322,-356,0,0,0,0,0,0,0,0,0,-1,902,1380,0,0
-315,-356,0,0,0,0,0,0,0,0,0,-1,909,1380,0,0
-308,-356,0,0,0,0,0,0,0,0,0,-1,916,1380,0,0
-301,-356,0,0,0,0,0,0,0,0,0,-1,923,1380,0,0
-294,-356,0,0,0,0,0,0,0,0,0,-1,930,1380,0,0
-287,-356,0,0,0,0,0,0,0,0,0,-1,937,1380,0,0
-280,-356,0,0,0,0,0,0,0,0,0,-1,944,1380,0,0
-273,-356,0,0,0,0,0,0,0,0,0,-1,951,1380,0,0
-266,-356,0,0,0,0,0,0,0,0,0,-1,958,1380,0,0
-259,-356,0,0,0,0,0,0,0,0,0,-1,965,1380,0,0
-252,-356,0,0,0,0,0,0,0,0,0,-1,972,1380,0,0
-245,-356,0,0,0,0,0,0,0,0,0,-1,979,1380,0,0
-238,-356,0,0,0,0,0,0,0,0,0,-1,986,1380,0,0
-231,-356,0,0,0,0,0,0,0,0,0,-1,993,1380,0,0
-224,-356,0,0,0,0,0,0,0,0,0,-1,1000,1380,0,0
-217,-356,0,0,0,0,0,0,0,0,0,-1,1007,1380,0,0
-210,-356,0,0,0,0,0,0,0,0,0,-1,1014,1380,0,0
-203,-356,0,0,0,0,0,0,0,0,0,-1,1021,1380,0,0
-196,-356,0,0,0,0,0,0,0,0,0,-1,1028,1380,0,0
-189,-356,0,0,0,0,0,0,0,0,0,-1,1035,1380,0,0
-182,-356,0,0,0,0,0,0,0,0,0,-1,1042,1380,0,0
-175,-356,0,0,0,0,0,0,0,0,0,-1,1049,1380,0,0
-168,-356,0,0,0,0,0,0,0,0,0,-1,1056,1380,0,0
-161,-356,0,0,0,0,0,0,0,0,0,-1,1063,1380,0,0
-154,-356,0,0,0,0,0,0,0,0,0,-1,1070,1380,0,0
-147,-356,0,0,0,0,0,0,0,0,0,-1,1077,1380,0,0
-140,-356,0,0,0,0,0,0,0,0,0,-1,1084,1380,0,0
-133,-356,0,0,0,0,0,0,0,0,0,-1,1091,1380,0,0
-126,-356,0,0,0,0,0,0,0,0,0,-1,1098,1380,0,0
-119,-356,0,0,0,0,0,0,0,0,0,-1,1105,1380,0,0
-112,-356,0,0,0,0,0,0,0,0,0,-1,1112,1380,0,0
-105,-356,0,0,0,0,0,0,0,0,0,-1,1119,1380,0,0
-98,-356,0,0,0,0,0,0,0,0,0,-1,1126,1380,0,0
-91,-356,0,0,0,0,0,0,0,0,0,-1,1133,1380,0,0
-84,-356,0,0,0,0,0,0,0,0,0,-1,1140,1380,0,0
-77,-356,0,0,0,0,0,0,0,0,0,-1,1147,1380,0,0
-70,-356,0,0,0,0,0,0,0,0,0,-1,1154,1380,0,0
-63,-356,0,0,0,0,0,0,0,0,0,-1,1161,1380,0,0
-56,-356,0,0,0,0,0,0,0,0,0,-1,1168,1380,0,0
-49,-356,0,0,0,0,0,0,0,0,0,-1,1175,1380,0,0
-42,-356,0,0,0,0,0,0,0,0,0,-1,1182,1380,0,0
-35,-356,0,0,0,0,0,0,0,0,0,-1,1189,1380,0,0
-28,-356,0,0,0,0,0,0,0,0,0,-1,1196,1380,0,0
-21,-356,0,0,0,0,0,0,0,0,0,-1,1203,1380,0,0
-14,-356,0,0,0,0,0,0,0,0,0,-1,1210,1380,0,0
-7,-356,0,0,0,0,0,0,0,0,0,-1,1217,1380,0,0
0,-356,0,0,0,0,0,0,0,0,0,-1,1224,1380,0,0
7,-356,0,0,0,0,0,0,0,0,0,-1,1231,1380,0,0
14,-356,0,0,0,0,0,0,0,0,0,-1,1238,1380,0,0
21,-356,0,0,0,0,0,0,0,0,0,-1,1245,1380,0,0
28,-356,0,0,0,0,0,0,0,0,0,-1,1252,1380,0,0
35,-356,0,0,0,0,0,0,0,0,0,-1,1259,1380,0,0
42,-356,0,0,0,0,0,0,0,0,0,-1,1266,1380,0,0
49,-356,0,0,0,0,0,0,0,0,0,-1,1273,1380,0,0
56,-356,0,0,0,0,0,0,0,0,0,-1,1280,1380,0,0
63,-356,0,0,0,0,0,0,0,0,0,-1,1287,1380,0,0
70,-356,0,0,0,0,0,0,0,0,0,-1,1294,1380,0,0
77,-356,0,0,0,0,0,0,0,0,0,-1,1301,1380,0,0
84,-356,0,0,0,0,0,0,0,0,0,-1,1308,1380,0,0
91,-356,0,0,0,0,0,0,0,0,0,-1,1315,1380,0,0
98,-356,0,0,0,0,0,0,0,0,0,-1,1322,1380,0,0
105,-356,0,0,0,0,0,0,0,0,0,-1,1329,1380,0,0
112,-356,0,0,0,0,0,0,0,0,0,-1,1336,1380,0,0
119,-356,0,0,0,0,0,0,0,0,0,-1,1343,1380,0,0
126,-356,0,0,0,0,0,0,0,0,0,-1,1350,1380,0,0
133,-356,0,0,0,0,0,0,0,0,0,-1,1357,1380,0,0
140,-356,0,0,0,0,0,0,0,0,0,-1,1364,1380,0,0
147,-356,0,0,0,0,0,0,0,0,0,-1,1371,1380,0,0
154,-356,0,0,0,0,0,0,0,0,0,-1,1378,1380,0,0
161,-356,0,0,0,0,0,0,0,0,0,-1,1385,1380,0,0
168,-356,0,0,0,0,0,0,0,0,0,-1,1392,1380,0,0
175,-356,0,0,0,0,0,0,0,0,0,-1,1399,1380,0,0
182,-356,0,0,0,0,0,0,0,0,0,-1,1406,1380,0,0
189,-356,0,0,0,0,0,0,0,0,0,-1,1413,1380,0,0
196,-356,0,0,0,0,0,0,0,0,0,-1,1420,1380,0,0
203,-356,0,0,0,0,0,0,0,0,0,-1,1427,1380,0,0
210,-356,0,0,0,0,0,0,0,0,0,-1,1434,1380,0,0
217,-356,0,0,0,0,0,0,0,0,0,-1,1441,1380,0,0
224,-356,0,0,0,0,0,0,0,0,0,-1,1448,1380,0,0
231,-356,0,0,0,0,0,0,0,0,0,-1,1455,1380,0,0
238,-356,0,0,0,0,0,0,0,0,0,-1,1462,1380,0,0
245,-356,0,0,0,0,0,0,0,0,0,-1,1469,1380,0,0
252,-356,0,0,0,0,0,0,0,0,0,-1,1476,1380,0,0
259,-356,0,0,0,0,0,0,0,0,0,-1,1483,1380,0,0
266,-356,0,0,0,0,0,0,0,0,0,-1,1490,1380,0,0
273,-356,0,0,0,0,0,0,0,0,0,-1,1497,1380,0,0
280,-356,0,0,0,0,0,0,0,0,0,-1,1504,1380,0,0
287,-356,0,0,0,0,0,0,0,0,0,-1,1511,1380,0,0
294,-356,0,0,0,0,0,0,0,0,0,-1,1518,1380,0,0
301,-356,0,0,0,0,0,0,0,0,0,-1,1525,1380,0,0
308,-356,0,0,0,0,0,0,0,0,0,-1,1532,1380,0,0
315,-356,0,0,0,0,0,0,0,0,0,-1,1539,1380,0,0
322,-356,0,0,0,0,0,0,0,0,0,-1,1546,1380,0,0
329,-356,0,0,0,0,0,0,0,0,0,-1,1553,1380,0,0
336,-356,0,0,0,0,0,0,0,0,0,-1,1560,1380,0,0
343,-356,0,0,0,0,0,0,0,0,0,-1,1567,1380,0,0
350,-356,0,0,0,0,0,0,0,0,0,-1,1574,1380,0,0
357,-356,0,0,0,0,0,0,0,0,0,-1,1581,1380,0,0
364,-356,0,0,0,0,0,0,0,0,0,-1,1588,1380,0,0
371,-356,0,0,0,0,0,0,0,0,0,-1,1595,1380,0,0
378,-356,0,0,0,0,0,0,0,0,0,-1,1602,1380,0,0
385,-356,0,0,0,0,0,0,0,0,0,-1,1609,1380,0,0
392,-356,0,0,0,0,0,0,0,0,0,-1,1616,1380,0,0
399,-356,0,0,0,0,0,0,0,0,0,-1,1623,1380,0,0
406,-356,0,0,0,0,0,0,0,0,0,-1,1630,1380,0,0
413,-356,0,0,0,0,0,0,0,0,0,-1,1637,1380,0,0
420,-356,0,0,0,0,0,0,0,0,0,-1,1644,1380,0,0
427,-356,0,0,0,0,0,0,0,0,0,-1,1651,1380,0,0
434,-356,0,0,0,0,0,0,0,0,0,-1,1658,1380,0,0
441,-356,0,0,0,0,0,0,0,0,0,-1,1665,1380,0,0
448,-356,0,0,0,0,0,0,0,0,0,-1,1672,1380,0,0
455,-356,0,0,0,0,0,0,0,0,0,-1,1679,1380,0,0
462,-356,0,0,0,0,0,0,0,0,0,-1,1686,1380,0,0
469,-356,0,0,0,0,0,0,0,0,0,-1,1693,1380,0,0
476,-356,0,0,0,0,0,0,0,0,0,-1,1700,1380,0,0
483,-356,0,0,0,0,0,0,0,0,0,-1,1707,1380,0,0
490,-356,0,0,0,0,0,0,0,0,0,-1,1714,1380,0,0
497,-356,0,0,0,0,0,0,0,0,0,-1,1721,1380,0,0
504,-356,0,0,0,0,0,0,0,0,0,-1,1728,1380,0,0
511,-356,0,0,0,0,0,0,0,0,0,-1,1735,1380,0,0
518,-356,0,0,0,0,0,0,0,0,0,-1,1742,1380,0,0
525,-356,0,0,0,0,0,0,0,0,0,-1,1749,1380,0,0
532,-356,0,0,0,0,0,0,0,0,0,-1,1756,1380,0,0
539,-356,0,0,0,0,0,0,0,0,0,-1,1763,1380,0,0
546,-356,0,0,0,0,0,0,0,0,0,-1,1770,1380,0,0
553,-356,0,0,0,0,0,0,0,0,0,-1,1777,1380,0,0
560,-356,45.7938,3.65295,0,0,0,0,0,0,0,-1,1784,1380,45.7938,-3.65294
567,-356,45.6788,3.51428,0,0,0,0,0,0,0,-1,1791,1380,45.6788,-3.51422
574,-356,45.5742,3.39575,0,0,0,0,0,0,0,-1,1798,1380,45.5742,-3.39574
581,-356,45.6708,3.64172,0,0,0,0,0,0,0,-1,1805,1380,45.6707,-3.64175
588,-356,44.4739,4.87085,0,0,0,0,0,0,0,-1,1812,1380,44.4739,-4.87086
595,-356,32.0834,5.86084,0,0,0,0,0,0,0,-1,1819,1380,32.0834,-5.86079
602,-356,30.1604,6.07104,0,0,0,0,0,0,0,-1,1826,1380,30.1604,-6.07104
609,-356,28.3435,6.48901,0,0,0,0,0,0,0,-1,1833,1380,28.3435,-6.48899
616,-356,26.9358,6.80872,0,0,0,0,0,0,0,-1,1840,1380,26.9358,-6.80877
623,-356,16.1803,1.07532,0,0,0,0,0,0,0,-1,1847,1380,16.1803,-1.07529
630,-356,16.4138,6.91553,0,0,0,0,0,0,0,-1,1854,1380,16.4138,-6.9155
637,-356,24.8021,12.0151,0,0,0,0,0,0,0,-1,1861,1380,24.8022,-12.0151
644,-356,29.3126,13.3497,0,0,0,0,0,0,0,-1,1868,1380,29.3127,-13.3497
651,-356,29.2683,12.8038,-0.00164151,-0.00185846,-0.00154054,-0.00020563,-0.00329434,-0.75025,0.00213099,0.0184988,1875,1380,29.2684,-12.8038
658,-356,29.2135,12.2852,-4.1623e-05,-0.000215363,-0.00085948,0.000735366,-0.000992352,-0.735033,0.00100117,0.0141975,1882,1380,29.2135,-12.2852
665,-356,29.2059,11.8307,0.00069142,9.73132e-05,-0.000381597,0.000877954,-8.92206e-05,-0.454667,0.000617196,0.0148447,1889,1380,29.206,-11.8306
672,-356,29.1912,11.3766,0.00119041,-0.000187051,-2.20907e-05,0.00119076,-0.000187405,-0.0160318,0.000863119,0.0166593,1896,1380,29.1911,-11.3766
679,-356,29.1699,10.8889,0.00178197,-0.00040984,0.000240211,0.00180799,-0.000435857,0.107889,0.00137386,0.0189123,1903,1380,29.1699,-10.8889
686,-356,29.1575,10.4047,0.00246505,-0.000557013,0.000409836,0.00251965,-0.000611606,0.132429,0.00191645,0.0193382,1910,1380,29.1575,-10.4047
693,-356,29.182,9.93176,0.00322346,-0.000636242,0.000502977,0.00328793,-0.00070071,0.127479,0.00245903,0.0164523,1917,1380,29.182,-9.93175
700,-356,29.2067,9.46423,0.00407052,-0.000592681,0.000486712,0.00412077,-0.000642939,0.102895,0.00298467,0.0210802,1924,1380,29.2067,-9.46424
707,-356,29.3145,8.80444,0,0,0,0,0,0,0,-1,1931,1380,29.3144,-8.80439
714,-356,19.6907,5.82129,0,0,0,0,0,0,0,-1,1938,1380,19.6907,-5.82132
721,-356,17.2948,4.1958,0,0,0,0,0,0,0,-1,1945,1380,17.2948,-4.19584
728,-356,19.1846,2.31519,0,0,0,0,0,0,0,-1,1952,1380,19.1846,-2.31514
735,-356,20.0731,2.50842,0,0,0,0,0,0,0,-1,1959,1380,20.0731,-2.50844
742,-356,21.0111,2.43762,0,0,0,0,0,0,0,-1,1966,1380,21.0112,-2.43762
749,-356,22.1411,1.83276,0,0,0,0,0,0,0,-1,1973,1380,22.1411,-1.83275
756,-356,0,0,0,0,0,0,0,0,0,-1,1980,1380,0,0
763,-356,0,0,0,0,0,0,0,0,0,-1,1987,1380,0,0
770,-356,0,0,0,0,0,0,0,0,0,-1,1994,1380,0,0
777,-356,0,0,0,0,0,0,0,0,0,-1,2001,1380,0,0
784,-356,0,0,0,0,0,0,0,0,0,-1,2008,1380,0,0
791,-356,0,0,0,0,0,0,0,0,0,-1,2015,1380,0,0
798,-356,0,0,0,0,0,0,0,0,0,-1,2022,1380,0,0
805,-356,0,0,0,0,0,0,0,0,0,-1,2029,1380,0,0
812,-356,0,0,0,0,0,0,0,0,0,-1,2036,1380,0,0
-700,-363,0,0,0,0,0,0,0,0,0,-1,524,1387,0,0
-693,-363,0,0,0,0,0,0,0,0,0,-1,531,1387,0,0
-686,-363,0,0,0,0,0,0,0,0,0,-1,538,1387,0,0
-679,-363,0,0,0,0,0,0,0,0,0,-1,545,1387,0,0
-672,-363,0,0,0,0,0,0,0,0,0,-1,552,1387,0,0
-665,-363,0,0,0,0,0,0,0,0,0,-1,559,1387,0,0
-658,-363,0,0,0,0,0,0,0,0,0,-1,566,1387,0,0
-651,-363,0,0,0,0,0,0,0,0,0,-1,573,1387,0,0
-644,-363,0,0,0,0,0,0,0,0,0,-1,580,1387,0,0
-637,-363,0,0,0,0,0,0,0,0,0,-1,587,1387,0,0
-630,-363,0,0,0,0,0,0,0,0,0,-1,594,1387,0,0
-623,-363,-9.67566,-5.91846,0,0,0,0,0,0,0,-1,601,1387,-9.67563,5.91847
-616,-363,-9.02985,-2.98083,0,0,0,0,0,0,0,-1,608,1387,-9.02987,2.98079
-609,-363,-4.90265,0.195679,0,0,0,0,0,0,0,-1,615,1387,-4.90263,-0.195721
-602,-363,-9.65009,3.5321,0,0,0,0,0,0,0,-1,622,1387,-9.65007,-3.53211
-595,-363,-8.00256,3.48853,0,0,0,0,0,0,0,-1,629,1387,-8.00256,-3.48855
-588,-363,-10.8846,4.49768,0,0,0,0,0,0,0,-1,636,1387,-10.8846,-4.49773
-581,-363,-11.7469,5.15161,0,0,0,0,0,0,0,-1,643,1387,-11.747,-5.15167
-574,-363,-14.3757,6.61926,0,0,0,0,0,0,0,-1,650,1387,-14.3757,-6.61925
-567,-363,-14.4442,7.27393,0.00539991,0.000233955,0.00145327,0.00578068,-0.000146811,0.256246,0.00390364,0.0404673,657,1387,-14.4442,-7.27397
-560,-363,-14.4373,7.77161,0.00439976,9.96882e-05,0.00113265,0.00467986,-0.000180409,0.24243,0.00318175,0.0144887,664,1387,-14.4373,-7.77157
-553,-363,-14.444,8.33533,0.00368511,5.15979e-05,0.000964731,0.00392537,-0.000188661,0.244077,0.00268201,0.0136952,671,1387,-14.444,-8.33533
-546,-363,-14.4676,8.85803,0.00318437,1.84955e-05,0.000895537,0.00342013,-0.000217269,0.257425,0.00235585,0.0133264,678,1387,-14.4676,-8.85805
-539,-363,-14.4736,9.40503,0.00289592,8.62442e-07,0.000918909,0.00316296,-0.000266174,0.282812,0.00220273,0.0150988,685,1387,-14.4736,-9.40502
-532,-363,-14.5017,9.93323,0.0028355,1.80684e-05,0.00105891,0.00318911,-0.000335538,0.32229,0.00224629,0.012656,692,1387,-14.5017,-9.93328
-525,-363,-14.5099,10.4469,0.00304936,0.000117604,0.00135442,0.00357929,-0.000412325,0.372949,0.00253484,0.0111933,699,1387,-14.51,-10.4469
-518,-363,-14.5171,10.9978,0.00348791,0.000270703,0.00175722,0.00426162,-0.00050301,0.414762,0.00302274,0.0100257,706,1387,-14.5171,-10.9978
-511,-363,-14.4892,11.5708,0.00425543,0.000485729,0.00233803,0.00537375,-0.000632594,0.446152,0.00381091,0.0244538,713,1387,-14.4892,-11.5708
-504,-363,-14.4432,12.1611,0,0,0,0,0,0,0,-1,720,1387,-14.4432,-12.1611
-497,-363,-7.18842,7.29944,0,0,0,0,0,0,0,-1,727,1387,-7.18839,-7.29945
-490,-363,-5.42413,4.6958,0,0,0,0,0,0,0,-1,734,1387,-5.42412,-4.69583
-483,-363,-6.28375,4.1394,0,0,0,0,0,0,0,-1,741,1387,-6.28374,-4.13944
-476,-363,-5.83807,4.31018,0,0,0,0,0,0,0,-1,748,1387,-5.8381,-4.31013
-469,-363,-10.7125,0.697754,0,0,0,0,0,0,0,-1,755,1387,-10.7125,-0.697811
-462,-363,-9.55951,-0.0830078,0,0,0,0,0,0,0,-1,762,1387,-9.55949,0.0830163
-455,-363,-13.1008,-0.290894,0,0,0,0,0,0,0,-1,769,1387,-13.1008,0.290921
-448,-363,-11.7324,2.46606,0,0,0,0,0,0,0,-1,776,1387,-11.7324,-2.46605
-441,-363,-12.4464,2.5354,0,0,0,0,0,0,0,-1,783,1387,-12.4463,-2.53537
-434,-363,-13.6918,2.14661,0,0,0,0,0,0,0,-1,790,1387,-13.6918,-2.14662
-427,-363,0,0,0,0,0,0,0,0,0,-1,797,1387,0,0
-420,-363,0,0,0,0,0,0,0,0,0,-1,804,1387,0,0
-413,-363,0,0,0,0,0,0,0,0,0,-1,811,1387,0,0
-406,-363,0,0,0,0,0,0,0,0,0,-1,818,1387,0,0
-399,-363,0,0,0,0,0,0,0,0,0,-1,825,1387,0,0
-392,-363,0,0,0,0,0,0,0,0,0,-1,832,1387,0,0
-385,-363,0,0,0,0,0,0,0,0,0,-1,839,1387,0,0
-378,-363,0,0,0,0,0,0,0,0,0,-1,846,1387,0,0
-371,-363,0,0,0,0,0,0,0,0,0,-1,853,1387,0,0
-364,-363,0,0,0,0,0,0,0,0,0,-1,860,1387,0,0
-357,-363,0,0,0,0,0,0,0,0,0,-1,867,1387,0,0
-350,-363,0,0,0,0,0,0,0,0,0,-1,874,1387,0,0
-343,-363,0,0,0,0,0,0,0,0,0,-1,881,1387,0,0
-336,-363,0,0,0,0,0,0,0,0,0,-1,888,1387,0,0
-329,-363,0,0,0,0,0,0,0,0,0,-1,895,1387,0,0
-322,-363,0,0,0,0,0,0,0,0,0,-1,902,1387,0,0
-315,-363,0,0,0,0,0,0,0,0,0,-1,909,1387,0,0
-308,-363,0,0,0,0,0,0,0,0,0,-1,916,1387,0,0
-301,-363,0,0,0,0,0,0,0,0,0,-1,923,1387,0,0
-294,-363,0,0,0,0,0,0,0,0,0,-1,930,1387,0,0
-287,-363,0,0,0,0,0,0,0,0,0,-1,937,1387,0,0
-280,-363,0,0,0,0,0,0,0,0,0,-1,944,1387,0,0
-273,-363,0,0,0,0,0,0,0,0,0,-1,951,1387,0,0
-266,-363,0,0,0,0,0,0,0,0,0,-1,958,1387,0,0
-259,-363,0,0,0,0,0,0,0,0,0,-1,965,1387,0,0
-252,-363,0,0,0,0,0,0,0,0,0,-1,972,1387,0,0
-245,-363,0,0,0,0,0,0,0,0,0,-1,979,1387,0,0
-238,-363,0,0,0,0,0,0,0,0,0,-1,986,1387,0,0
-231,-363,0,0,0,0,0,0,0,0,0,-1,993,1387,0,0
-224,-363,0,0,0,0,0,0,0,0,0,-1,1000,1387,0,0
-217,-363,0,0,0,0,0,0,0,0,0,-1,1007,1387,0,0
-210,-363,0,0,0,0,0,0,0,0,0,-1,1014,1387,0,0
-203,-363,0,0,0,0,0,0,0,0,0,-1,1021,1387,0,0
-196,-363,0,0,0,0,0,0,0,0,0,-1,1028,1387,0,0
-189,-363,0,0,0,0,0,0,0,0,0,-1,1035,1387,0,0
-182,-363,0,0,0,0,0,0,0,0,0,-1,1042,1387,0,0
-175,-363,0,0,0,0,0,0,0,0,0,-1,1049,1387,0,0
-168,-363,0,0,0,0,0,0,0,0,0,-1,1056,1387,0,0
-161,-363,0,0,0,0,0,0,0,0,0,-1,1063,1387,0,0
-154,-363,0,0,0,0,0,0,0,0,0,-1,1070,1387,0,0
-147,-363,0,0,0,0,0,0,0,0,0,-1,1077,1387,0,0
-140,-363,0,0,0,0,0,0,0,0,0,-1,1084,1387,0,0
-133,-363,0,0,0,0,0,0,0,0,0,-1,1091,1387,0,0
-126,-363,0,0,0,0,0,0,0,0,0,-1,1098,1387,0,0
-119,-363,0,0,0,0,0,0,0,0,0,-1,1105,1387,0,0
-112,-363,0,0,0,0,0,0,0,0,0,-1,1112,1387,0,0
-105,-363,0,0,0,0,0,0,0,0,0,-1,1119,1387,0,0
-98,-363,0,0,0,0,0,0,0,0,0,-1,1126,1387,0,0
-91,-363,0,0,0,0,0,0,0,0,0,-1,1133,1387,0,0
-84,-363,0,0,0,0,0,0,0,0,0,-1,1140,1387,0,0
-77,-363,0,0,0,0,0,0,0,0,0,-1,1147,1387,0,0
-70,-363,0,0,0,0,0,0,0,0,0,-1,1154,1387,0,0
-63,-363,0,0,0,0,0,0,0,0,0,-1,1161,1387,0,0
-56,-363,0,0,0,0,0,0,0,0,0,-1,1168,1387,0,0
-49,-363,0,0,0,0,0,0,0,0,0,-1,1175,1387,0,0
-42,-363,0,0,0,0,0,0,0,0,0,-1,1182,1387,0,0
-35,-363,0,0,0,0,0,0,0,0,0,-1,1189,1387,0,0
-28,-363,0,0,0,0,0,0,0,0,0,-1,1196,1387,0,0
-21,-363,0,0,0,0,0,0,0,0,0,-1,1203,1387,0,0
-14,-363,0,0,0,0,0,0,0,0,0,-1,1210,1387,0,0
-7,-363,0,0,0,0,0,0,0,0,0,-1,1217,1387,0,0
0,-363,0,0,0,0,0,0,0,0,0,-1,1224,1387,0,0
7,-363,0,0,0,0,0,0,0,0,0,-1,1231,1387,0,0
14,-363,0,0,0,0,0,0,0,0,0,-1,1238,1387,0,0
21,-363,0,0,0,0,0,0,0,0,0,-1,1245,1387,0,0
28,-363,0,0,0,0,0,0,0,0,0,-1,1252,1387,0,0
35,-363,0,0,0,0,0,0,0,0,0,-1,1259,1387,0,0
42,-363,0,0,0,0,0,0,0,0,0,-1,1266,1387,0,0
49,-363,0,0,0,0,0,0,0,0,0,-1,1273,1387,0,0
56,-363,0,0,0,0,0,0,0,0,0,-1,1280,1387,0,0
63,-363,0,0,0,0,0,0,0,0,0,-1,1287,1387,0,0
70,-363,0,0,0,0,0,0,0,0,0,-1,1294,1387,0,0
77,-363,0,0,0,0,0,0,0,0,0,-1,1301,1387,0,0
84,-363,0,0,0,0,0,0,0,0,0,-1,1308,1387,0,0
91,-363,0,0,0,0,0,0,0,0,0,-1,1315,1387,0,0
98,-363,0,0,0,0,0,0,0,0,0,-1,1322,1387,0,0
105,-363,0,0,0,0,0,0,0,0,0,-1,1329,1387,0,0
112,-363,0,0,0,0,0,0,0,0,0,-1,1336,1387,0,0
119,-363,0,0,0,0,0,0,0,0,0,-1,1343,1387,0,0
126,-363,0,0,0,0,0,0,0,0,0,-1,1350,1387,0,0
133,-363,0,0,0,0,0,0,0,0,0,-1,1357,1387,0,0
140,-363,0,0,0,0,0,0,0,0,0,-1,1364,1387,0,0
147,-363,0,0,0,0,0,0,0,0,0,-1,1371,1387,0,0
154,-363,0,0,0,0,0,0,0,0,0,-1,1378,1387,0,0
161,-363,0,0,0,0,0,0,0,0,0,-1,1385,1387,0,0
168,-363,0,0,0,0,0,0,0,0,0,-1,1392,1387,0,0
175,-363,0,0,0,0,0,0,0,0,0,-1,1399,1387,0,0
182,-363,0,0,0,0,0,0,0,0,0,-1,1406,1387,0,0
189,-363,0,0,0,0,0,0,0,0,0,-1,1413,1387,0,0
196,-363,0,0,0,0,0,0,0,0,0,-1,1420,1387,0,0
203,-363,0,0,0,0,0,0,0,0,0,-1,1427,1387,0,0
210,-363,0,0,0,0,0,0,0,0,0,-1,1434,1387,0,0
217,-363,0,0,0,0,0,0,0,0,0,-1,1441,1387,0,0
224,-363,0,0,0,0,0,0,0,0,0,-1,1448,1387,0,0
231,-363,0,0,0,0,0,0,0,0,0,-1,1455,1387,0,0
238,-363,0,0,0,0,0,0,0,0,0,-1,1462,1387,0,0
245,-363,0,0,0,0,0,0,0,0,0,-1,1469,1387,0,0
252,-363,0,0,0,0,0,0,0,0,0,-1,1476,1387,0,0
259,-363,0,0,0,0,0,0,0,0,0,-1,1483,1387,0,0
266,-363,0,0,0,0,0,0,0,0,0,-1,1490,1387,0,0
273,-363,0,0,0,0,0,0,0,0,0,-1,1497,1387,0,0
280,-363,0,0,0,0,0,0,0,0,0,-1,1504,1387,0,0
287,-363,0,0,0,0,0,0,0,0,0,-1,1511,1387,0,0
294,-363,0,0,0,0,0,0,0,0,0,-1,1518,1387,0,0
301,-363,0,0,0,0,0,0,0,0,0,-1,1525,1387,0,0
308,-363,0,0,0,0,0,0,0,0,0,-1,1532,1387,0,0
315,-363,0,0,0,0,0,0,0,0,0,-1,1539,1387,0,0
322,-363,0,0,0,0,0,0,0,0,0,-1,1546,1387,0,0
329,-363,0,0,0,0,0,0,0,0,0,-1,1553,1387,0,0
336,-363,0,0,0,0,0,0,0,0,0,-1,1560,1387,0,0
343,-363,0,0,0,0,0,0,0,0,0,-1,1567,1387,0,0
350,-363,0,0,0,0,0,0,0,0,0,-1,1574,1387,0,0
357,-363,0,0,0,0,0,0,0,0,0,-1,1581,1387,0,0
364,-363,0,0,0,0,0,0,0,0,0,-1,1588,1387,0,0
371,-363,0,0,0,0,0,0,0,0,0,-1,1595,1387,0,0
378,-363,0,0,0,0,0,0,0,0,0,-1,1602,1387,0,0
385,-363,0,0,0,0,0,0,0,0,0,-1,1609,1387,0,0
392,-363,0,0,0,0,0,0,0,0,0,-1,1616,1387,0,0
399,-363,0,0,0,0,0,0,0,0,0,-1,1623,1387,0,0
406,-363,0,0,0,0,0,0,0,0,0,-1,1630,1387,0,0
413,-363,0,0,0,0,0,0,0,0,0,-1,1637,1387,0,0
420,-363,0,0,0,0,0,0,0,0,0,-1,1644,1387,0,0
427,-363,0,0,0,0,0,0,0,0,0,-1,1651,1387,0,0
434,-363,0,0,0,0,0,0,0,0,0,-1,1658,1387,0,0
441,-363,0,0,0,0,0,0,0,0,0,-1,1665,1387,0,0
448,-363,0,0,0,0,0,0,0,0,0,-1,1672,1387,0,0
455,-363,0,0,0,0,0,0,0,0,0,-1,1679,1387,0,0
462,-363,0,0,0,0,0,0,0,0,0,-1,1686,1387,0,0
469,-363,0,0,0,0,0,0,0,0,0,-1,1693,1387,0,0
476,-363,0,0,0,0,0,0,0,0,0,-1,1700,1387,0,0
483,-363,0,0,0,0,0,0,0,0,0,-1,1707,1387,0,0
490,-363,0,0,0,0,0,0,0,0,0,-1,1714,1387,0,0
497,-363,0,0,0,0,0,0,0,0,0,-1,1721,1387,0,0
504,-363,0,0,0,0,0,0,0,0,0,-1,1728,1387,0,0
511,-363,0,0,0,0,0,0,0,0,0,-1,1735,1387,0,0
518,-363,0,0,0,0,0,0,0,0,0,-1,1742,1387,0,0
525,-363,0,0,0,0,0,0,0,0,0,-1,1749,1387,0,0
532,-363,0,0,0,0,0,0,0,0,0,-1,1756,1387,0,0
539,-363,0,0,0,0,0,0,0,0,0,-1,1763,1387,0,0
546,-363,0,0,0,0,0,0,0,0,0,-1,1770,1387,0,0
553,-363,45.9076,3.64331,0,0,0,0,0,0,0,-1,1777,1387,45.9076,-3.64336
560,-363,45.9459,3.6875,0,0,0,0,0,0,0,-1,1784,1387,45.9459,-3.68756
567,-363,45.9266,3.32825,0,0,0,0,0,0,0,-1,1791,1387,45.9266,-3.32824
574,-363,45.7261,2.8075,0,0,0,0,0,0,0,-1,1798,1387,45.7261,-2.80754
581,-363,39.2413,1.97632,0,0,0,0,0,0,0,-1,1805,1387,39.2413,-1.97636
588,-363,32.5608,6.72131,0,0,0,0,0,0,0,-1,1812,1387,32.5608,-6.72131
595,-363,31.4688,6.95435,0,0,0,0,0,0,0,-1,1819,1387,31.4688,-6.95431
602,-363,25.7437,5.33667,0,0,0,0,0,0,0,-1,1826,1387,25.7437,-5.33667
609,-363,27.7048,7.06885,0,0,0,0,0,0,0,-1,1833,1387,27.7048,-7.06882
616,-363,16.229,1.08704,0,0,0,0,0,0,0,-1,1840,1387,16.229,-1.08706
623,-363,15.7283,7.16663,0,0,0,0,0,0,0,-1,1847,1387,15.7282,-7.16665
630,-363,18.3192,9.27844,0,0,0,0,0,0,0,-1,1854,1387,18.3192,-9.27843
637,-363,28.7311,13.9797,0,0,0,0,0,0,0,-1,1861,1387,28.731,-13.9797
644,-363,28.733,13.3649,-0.00316067,-0.00214182,-0.00318874,0.000577939,-0.00588042,-0.864608,0.00412644,0.014771,1868,1387,28.733,-13.3649
651,-363,28.7308,12.8176,-0.000600869,-0.00051486,-0.00129757,0.000740418,-0.00185615,-0.801963,0.00154457,0.0107464,1875,1387,28.7308,-12.8177
658,-363,28.7305,12.3313,0.000409073,9.85242e-05,-0.000730067,0.0010002,-0.000492598,-0.680617,0.000878316,0.0114825,1882,1387,28.7305,-12.3312
665,-363,28.7191,11.8715,0.000918956,2.68064e-05,-0.000240269,0.000979548,-3.37865e-05,-0.247036,0.000664581,0.0127552,1889,1387,28.7191,-11.8715
672,-363,28.7131,11.4025,0.00139732,-0.00030041,0.000186398,0.00141754,-0.000320634,0.108077,0.00106807,0.0145744,1896,1387,28.7131,-11.4024
679,-363,28.6941,10.9167,0.00200684,-0.000547518,0.000505335,0.00210318,-0.000643856,0.188381,0.00165892,0.0160091,1903,1387,28.6941,-10.9167
686,-363,28.6691,10.4344,0.00272405,-0.000750304,0.000745514,0.00287726,-0.000903517,0.202692,0.00227983,0.0160673,1910,1387,28.6691,-10.4344
693,-363,28.6674,9.92896,0.00356813,-0.000874794,0.000877714,0.00373524,-0.0010419,0.18814,0.00290052,0.0141184,1917,1387,28.6674,-9.92893
700,-363,28.8097,9.39783,0.00457104,-0.000844709,0.000860205,0.00470439,-0.000978056,0.153793,0.00350802,0.0249709,1924,1387,28.8096,-9.39781
707,-363,29.045,8.92969,0,0,0,0,0,0,0,-1,1931,1387,29.045,-8.9297
714,-363,16.5782,5.3147,0,0,0,0,0,0,0,-1,1938,1387,16.5783,-5.31472
721,-363,14.4045,4.51685,0,0,0,0,0,0,0,-1,1945,1387,14.4045,-4.51685
728,-363,19.9756,0.853027,0,0,0,0,0,0,0,-1,1952,1387,19.9756,-0.853059
735,-363,21.4297,1.2981,0,0,0,0,0,0,0,-1,1959,1387,21.4297,-1.29811
742,-363,21.3621,2.79663,0,0,0,0,0,0,0,-1,1966,1387,21.362,-2.7966
749,-363,0,0,0,0,0,0,0,0,0,-1,1973,1387,0,0
756,-363,0,0,0,0,0,0,0,0,0,-1,1980,1387,0,0
763,-363,0,0,0,0,0,0,0,0,0,-1,1987,1387,0,0
770,-363,0,0,0,0,0,0,0,0,0,-1,1994,1387,0,0
777,-363,0,0,0,0,0,0,0,0,0,-1,2001,1387,0,0
784,-363,0,0,0,0,0,0,0,0,0,-1,2008,1387,0,0
791,-363,0,0,0,0,0,0,0,0,0,-1,2015,1387,0,0
798,-363,0,0,0,0,0,0,0,0,0,-1,2022,1387,0,0
805,-363,0,0,0,0,0,0,0,0,0,-1,2029,1387,0,0
812,-363,0,0,0,0,0,0,0,0,0,-1,2036,1387,0,0
-700,-370,0,0,0,0,0,0,0,0,0,-1,524,1394,0,0
-693,-370,0,0,0,0,0,0,0,0,0,-1,531,1394,0,0
-686,-370,0,0,0,0,0,0,0,0,0,-1,538,1394,0,0
-679,-370,0,0,0,0,0,0,0,0,0,-1,545,1394,0,0
-672,-370,0,0,0,0,0,0,0,0,0,-1,552,1394,0,0
-665,-370,0,0,0,0,0,0,0,0,0,-1,559,1394,0,0
-658,-370,0,0,0,0,0,0,0,0,0,-1,566,1394,0,0
-651,-370,0,0,0,0,0,0,0,0,0,-1,573,1394,0,0
-644,-370,0,0,0,0,0,0,0,0,0,-1,580,1394,0,0
-637,-370,0,0,0,0,0,0,0,0,0,-1,587,1394,0,0
-630,-370,0,0,0,0,0,0,0,0,0,-1,594,1394,0,0
-623,-370,-10.1758,-7.10486,0,0,0,0,0,0,0,-1,601,1394,-10.1758,7.10483
-616,-370,-8.85925,-1.61475,0,0,0,0,0,0,0,-1,608,1394,-8.85925,1.61476
-609,-370,-5.39325,0.0421143,0,0,0,0,0,0,0,-1,615,1394,-5.39328,-0.0421372
-602,-370,-12.3151,3.44592,0,0,0,0,0,0,0,-1,622,1394,-12.3151,-3.44595
-595,-370,-7.53284,5.44214,0,0,0,0,0,0,0,-1,629,1394,-7.53284,-5.44216
-588,-370,-11.2422,4.50598,0,0,0,0,0,0,0,-1,636,1394,-11.2422,-4.50596
-581,-370,-13.1575,5.84888,0,0,0,0,0,0,0,-1,643,1394,-13.1575,-5.84887
-574,-370,-13.0107,6.69861,0,0,0,0,0,0,0,-1,650,1394,-13.0108,-6.69866
-567,-370,-13.889,7.05713,0,0,0,0,0,0,0,-1,657,1394,-13.889,-7.05714
-560,-370,-13.9641,7.75574,0.00503807,-9.76204e-05,0.00125918,0.00533018,-0.000389733,0.227955,0.00369023,0.0258698,664,1394,-13.9641,-7.75569
-553,-370,-13.9097,8.34253,0.00413046,-5.16453e-05,0.00103436,0.0043723,-0.000293488,0.229683,0.00301746,0.0110023,671,1394,-13.9097,-8.34249
-546,-370,-13.8958,8.89771,0.00343644,-3.25523e-05,0.000903165,0.0036575,-0.000253608,0.240038,0.00252711,0.0136122,678,1394,-13.8957,-8.89775
-539,-370,-13.9025,9.46655,0.00296446,-1.05941e-05,0.000865748,0.00319805,-0.000244188,0.263541,0.00221792,0.0180124,685,1394,-13.9025,-9.4666
-532,-370,-13.9664,9.96228,0.00273399,3.55484e-05,0.000946854,0.00303308,-0.000263541,0.305959,0.00211538,0.0200536,692,1394,-13.9664,-9.96233
-525,-370,-13.97,10.4485,0.00280861,0.000184294,0.00121067,0.00328181,-0.000288902,0.372597,0.00229025,0.0162543,699,1394,-13.97,-10.4485
-518,-370,-13.9924,10.9963,0.00315853,0.000442527,0.00163992,0.00392973,-0.000328675,0.43958,0.00273597,0.011954,706,1394,-13.9923,-10.9964
-511,-370,-13.9679,11.5648,0.00383364,0.000794587,0.00224733,0.00502694,-0.000398715,0.488129,0.0034918,0.0142165,713,1394,-13.9679,-11.5648
-504,-370,-13.9359,12.1309,0,0,0,0,0,0,0,-1,720,1394,-13.9358,-12.1309
-497,-370,-12.3546,11.7982,0,0,0,0,0,0,0,-1,727,1394,-12.3546,-11.7983
-490,-370,-5.30695,4.5271,0,0,0,0,0,0,0,-1,734,1394,-5.30698,-4.52704
-483,-370,-6.02997,4.59253,0,0,0,0,0,0,0,-1,741,1394,-6.02994,-4.5925
-476,-370,-6.75293,4.65796,0,0,0,0,0,0,0,-1,748,1394,-6.7529,-4.65795
-469,-370,-10.584,1.14294,0,0,0,0,0,0,0,-1,755,1394,-10.584,-1.14293
-462,-370,-9.54462,0.387207,0,0,0,0,0,0,0,-1,762,1394,-9.5446,-0.387176
-455,-370,-8.50525,-0.36853,0,0,0,0,0,0,0,-1,769,1394,-8.50523,0.368582
-448,-370,-10.9543,2.28833,0,0,0,0,0,0,0,-1,776,1394,-10.9543,-2.28835
-441,-370,-11.8699,1.8313,0,0,0,0,0,0,0,-1,783,1394,-11.8699,-1.83127
-434,-370,-12.7855,1.37415,0,0,0,0,0,0,0,-1,790,1394,-12.7855,-1.37419
-427,-370,0,0,0,0,0,0,0,0,0,-1,797,1394,0,0
-420,-370,0,0,0,0,0,0,0,0,0,-1,804,1394,0,0
-413,-370,0,0,0,0,0,0,0,0,0,-1,811,1394,0,0
-406,-370,0,0,0,0,0,0,0,0,0,-1,818,1394,0,0
-399,-370,0,0,0,0,0,0,0,0,0,-1,825,1394,0,0
-392,-370,0,0,0,0,0,0,0,0,0,-1,832,1394,0,0
-385,-370,0,0,0,0,0,0,0,0,0,-1,839,1394,0,0
-378,-370,0,0,0,0,0,0,0,0,0,-1,846,1394,0,0
-371,-370,0,0,0,0,0,0,0,0,0,-1,853,1394,0,0
-364,-370,0,0,0,0,0,0,0,0,0,-1,860,1394,0,0
-357,-370,0,0,0,0,0,0,0,0,0,-1,867,1394,0,0
-350,-370,0,0,0,0,0,0,0,0,0,-1,874,1394,0,0
-343,-370,0,0,0,0,0,0,0,0,0,-1,881,1394,0,0
-336,-370,0,0,0,0,0,0,0,0,0,-1,888,1394,0,0
-329,-370,0,0,0,0,0,0,0,0,0,-1,895,1394,0,0
-322,-370,0,0,0,0,0,0,0,0,0,-1,902,1394,0,0
-315,-370,0,0,0,0,0,0,0,0,0,-1,909,1394,0,0
-308,-370,0,0,0,0,0,0,0,0,0,-1,916,1394,0,0
-301,-370,0,0,0,0,0,0,0,0,0,-1,923,1394,0,0
-294,-370,0,0,0,0,0,0,0,0,0,-1,930,1394,0,0
-287,-370,0,0,0,0,0,0,0,0,0,-1,937,1394,0,0
-280,-370,0,0,0,0,0,0,0,0,0,-1,944,1394,0,0
-273,-370,0,0,0,0,0,0,0,0,0,-1,951,1394,0,0
-266,-370,0,0,0,0,0,0,0,0,0,-1,958,1394,0,0
-259,-370,0,0,0,0,0,0,0,0,0,-1,965,1394,0,0
-252,-370,0,0,0,0,0,0,0,0,0,-1,972,1394,0,0
-245,-370,0,0,0,0,0,0,0,0,0,-1,979,1394,0,0
-238,-370,0,0,0,0,0,0,0,0,0,-1,986,1394,0,0
-231,-370,0,0,0,0,0,0,0,0,0,-1,993,1394,0,0
-224,-370,0,0,0,0,0,0,0,0,0,-1,1000,1394,0,0
-217,-370,0,0,0,0,0,0,0,0,0,-1,1007,1394,0,0
-210,-370,0,0,0,0,0,0,0,0,0,-1,1014,1394,0,0
-203,-370,0,0,0,0,0,0,0,0,0,-1,1021,1394,0,0
-196,-370,0,0,0,0,0,0,0,0,0,-1,1028,1394,0,0
-189,-370,0,0,0,0,0,0,0,0,0,-1,1035,1394,0,0
-182,-370,0,0,0,0,0,0,0,0,0,-1,1042,1394,0,0
-175,-370,0,0,0,0,0,0,0,0,0,-1,1049,1394,0,0
-168,-370,0,0,0,0,0,0,0,0,0,-1,1056,1394,0,0
-161,-370,0,0,0,0,0,0,0,0,0,-1,1063,1394,0,0
-154,-370,0,0,0,0,0,0,0,0,0,-1,1070,1394,0,0
-147,-370,0,0,0,0,0,0,0,0,0,-1,1077,1394,0,0
-140,-370,0,0,0,0,0,0,0,0,0,-1,1084,1394,0,0
-133,-370,0,0,0,0,0,0,0,0,0,-1,1091,1394,0,0
-126,-370,0,0,0,0,0,0,0,0,0,-1,1098,1394,0,0
-119,-370,0,0,0,0,0,0,0,0,0,-1,1105,1394,0,0
-112,-370,0,0,0,0,0,0,0,0,0,-1,1112,1394,0,0
-105,-370,0,0,0,0,0,0,0,0,0,-1,1119,1394,0,0
-98,-370,0,0,0,0,0,0,0,0,0,-1,1126,1394,0,0
-91,-370,0,0,0,0,0,0,0,0,0,-1,1133,1394,0,0
-84,-370,0,0,0,0,0,0,0,0,0,-1,1140,1394,0,0
-77,-370,0,0,0,0,0,0,0,0,0,-1,1147,1394,0,0
-70,-370,0,0,0,0,0,0,0,0,0,-1,1154,1394,0,0
-63,-370,0,0,0,0,0,0,0,0,0,-1,1161,1394,0,0
-56,-370,0,0,0,0,0,0,0,0,0,-1,1168,1394,0,0
-49,-370,0,0,0,0,0,0,0,0,0,-1,1175,1394,0,0
-42,-370,0,0,0,0,0,0,0,0,0,-1,1182,1394,0,0
-35,-370,0,0,0,0,0,0,0,0,0,-1,1189,1394,0,0
-28,-370,0,0,0,0,0,0,0,0,0,-1,1196,1394,0,0
-21,-370,0,0,0,0,0,0,0,0,0,-1,1203,1394,0,0
-14,-370,0,0,0,0,0,0,0,0,0,-1,1210,1394,0,0
-7,-370,0,0,0,0,0,0,0,0,0,-1,1217,1394,0,0
0,-370,0,0,0,0,0,0,0,0,0,-1,1224,1394,0,0
7,-370,0,0,0,0,0,0,0,0,0,-1,1231,1394,0,0
14,-370,0,0,0,0,0,0,0,0,0,-1,1238,1394,0,0
21,-370,0,0,0,0,0,0,0,0,0,-1,1245,1394,0,0
28,-370,0,0,0,0,0,0,0,0,0,-1,1252,1394,0,0
35,-370,0,0,0,0,0,0,0,0,0,-1,1259,1394,0,0
42,-370,0,0,0,0,0,0,0,0,0,-1,1266,1394,0,0
49,-370,0,0,0,0,0,0,0,0,0,-1,1273,1394,0,0
56,-370,0,0,0,0,0,0,0,0,0,-1,1280,1394,0,0
63,-370,0,0,0,0,0,0,0,0,0,-1,1287,1394,0,0
70,-370,0,0,0,0,0,0,0,0,0,-1,1294,1394,0,0
77,-370,0,0,0,0,0,0,0,0,0,-1,1301,1394,0,0
84,-370,0,0,0,0,0,0,0,0,0,-1,1308,1394,0,0
91,-370,0,0,0,0,0,0,0,0,0,-1,1315,1394,0,0
98,-370,0,0,0,0,0,0,0,0,0,-1,1322,1394,0,0
105,-370,0,0,0,0,0,0,0,0,0,-1,1329,1394,0,0
112,-370,0,0,0,0,0,0,0,0,0,-1,1336,1394,0,0
119,-370,0,0,0,0,0,0,0,0,0,-1,1343,1394,0,0
126,-370,0,0,0,0,0,0,0,0,0,-1,1350,1394,0,0
133,-370,0,0,0,0,0,0,0,0,0,-1,1357,1394,0,0
140,-370,0,0,0,0,0,0,0,0,0,-1,1364,1394,0,0
147,-370,0,0,0,0,0,0,0,0,0,-1,1371,1394,0,0
154,-370,0,0,0,0,0,0,0,0,0,-1,1378,1394,0,0
161,-370,0,0,0,0,0,0,0,0,0,-1,1385,1394,0,0
168,-370,0,0,0,0,0,0,0,0,0,-1,1392,1394,0,0
175,-370,0,0,0,0,0,0,0,0,0,-1,1399,1394,0,0
182,-370,0,0,0,0,0,0,0,0,0,-1,1406,1394,0,0
189,-370,0,0,0,0,0,0,0,0,0,-1,1413,1394,0,0
196,-370,0,0,0,0,0,0,0,0,0,-1,1420,1394,0,0
203,-370,0,0,0,0,0,0,0,0,0,-1,1427,1394,0,0
210,-370,0,0,0,0,0,0,0,0,0,-1,1434,1394,0,0
217,-370,0,0,0,0,0,0,0,0,0,-1,1441,1394,0,0
224,-370,0,0,0,0,0,0,0,0,0,-1,1448,1394,0,0
231,-370,0,0,0,0,0,0,0,0,0,-1,1455,1394,0,0
238,-370,0,0,0,0,0,0,0,0,0,-1,1462,1394,0,0
245,-370,0,0,0,0,0,0,0,0,0,-1,1469,1394,0,0
252,-370,0,0,0,0,0,0,0,0,0,-1,1476,1394,0,0
259,-370,0,0,0,0,0,0,0,0,0,-1,1483,1394,0,0
266,-370,0,0,0,0,0,0,0,0,0,-1,1490,1394,0,0
273,-370,0,0,0,0,0,0,0,0,0,-1,1497,1394,0,0
280,-370,0,0,0,0,0,0,0,0,0,-1,1504,1394,0,0
287,-370,0,0,0,0,0,0,0,0,0,-1,1511,1394,0,0
294,-370,0,0,0,0,0,0,0,0,0,-1,1518,1394,0,0
301,-370,0,0,0,0,0,0,0,0,0,-1,1525,1394,0,0
308,-370,0,0,0,0,0,0,0,0,0,-1,1532,1394,0,0
315,-370,0,0,0,0,0,0,0,0,0,-1,1539,1394,0,0
322,-370,0,0,0,0,0,0,0,0,0,-1,1546,1394,0,0
329,-370,0,0,0,0,0,0,0,0,0,-1,1553,1394,0,0
336,-370,0,0,0,0,0,0,0,0,0,-1,1560,1394,0,0
343,-370,0,0,0,0,0,0,0,0,0,-1,1567,1394,0,0
350,-370,0,0,0,0,0,0,0,0,0,-1,1574,1394,0,0
357,-370,0,0,0,0,0,0,0,0,0,-1,1581,1394,0,0
364,-370,0,0,0,0,0,0,0,0,0,-1,1588,1394,0,0
371,-370,0,0,0,0,0,0,0,0,0,-1,1595,1394,0,0
378,-370,0,0,0,0,0,0,0,0,0,-1,1602,1394,0,0
385,-370,0,0,0,0,0,0,0,0,0,-1,1609,1394,0,0
392,-370,0,0,0,0,0,0,0,0,0,-1,1616,1394,0,0
399,-370,0,0,0,0,0,0,0,0,0,-1,1623,1394,0,0
406,-370,0,0,0,0,0,0,0,0,0,-1,1630,1394,0,0
413,-370,0,0,0,0,0,0,0,0,0,-1,1637,1394,0,0
420,-370,0,0,0,0,0,0,0,0,0,-1,1644,1394,0,0
427,-370,0,0,0,0,0,0,0,0,0,-1,1651,1394,0,0
434,-370,0,0,0,0,0,0,0,0,0,-1,1658,1394,0,0
441,-370,0,0,0,0,0,0,0,0,0,-1,1665,1394,0,0
448,-370,0,0,0,0,0,0,0,0,0,-1,1672,1394,0,0
455,-370,0,0,0,0,0,0,0,0,0,-1,1679,1394,0,0
462,-370,0,0,0,0,0,0,0,0,0,-1,1686,1394,0,0
469,-370,0,0,0,0,0,0,0,0,0,-1,1693,1394,0,0
476,-370,0,0,0,0,0,0,0,0,0,-1,1700,1394,0,0
483,-370,0,0,0,0,0,0,0,0,0,-1,1707,1394,0,0
490,-370,0,0,0,0,0,0,0,0,0,-1,1714,1394,0,0
497,-370,0,0,0,0,0,0,0,0,0,-1,1721,1394,0,0
504,-370,0,0,0,0,0,0,0,0,0,-1,1728,1394,0,0
511,-370,0,0,0,0,0,0,0,0,0,-1,1735,1394,0,0
518,-370,0,0,0,0,0,0,0,0,0,-1,1742,1394,0,0
525,-370,0,0,0,0,0,0,0,0,0,-1,1749,1394,0,0
532,-370,0,0,0,0,0,0,0,0,0,-1,1756,1394,0,0
539,-370,0,0,0,0,0,0,0,0,0,-1,1763,1394,0,0
546,-370,27.4949,2.81201,0,0,0,0,0,0,0,-1,1770,1394,27.4948,-2.81198
553,-370,26.5985,1.99329,0,0,0,0,0,0,0,-1,1777,1394,26.5985,-1.99327
560,-370,46.0132,3.65686,0,0,0,0,0,0,0,-1,1784,1394,46.0132,-3.65689
567,-370,46.1089,3.11719,0,0,0,0,0,0,0,-1,1791,1394,46.1089,-3.1172
574,-370,38.8953,1.49353,0,0,0,0,0,0,0,-1,1798,1394,38.8952,-1.49348
581,-370,39.178,2.86145,0,0,0,0,0,0,0,-1,1805,1394,39.1779,-2.86145
588,-370,39.2102,4.27661,0,0,0,0,0,0,0,-1,1812,1394,39.2102,-4.27657
595,-370,25.793,4.5271,0,0,0,0,0,0,0,-1,1819,1394,25.793,-4.52711
602,-370,25.1077,5.34937,0,0,0,0,0,0,0,-1,1826,1394,25.1077,-5.34932
609,-370,16.712,0.993286,0,0,0,0,0,0,0,-1,1833,1394,16.7121,-0.99323
616,-370,16.7764,7.23315,0,0,0,0,0,0,0,-1,1840,1394,16.7764,-7.23313
623,-370,17.6625,8.94263,0,0,0,0,0,0,0,-1,1847,1394,17.6624,-8.94258
630,-370,20.9681,11.1785,0,0,0,0,0,0,0,-1,1854,1394,20.9681,-11.1784
637,-370,28.2937,13.8433,0,0,0,0,0,0,0,-1,1861,1394,28.2937,-13.8433
644,-370,28.2728,13.3416,-0.00131632,5.00018e-05,-0.00247173,0.00193124,-0.00319756,-0.920227,0.00299105,0.0121475,1868,1394,28.2729,-13.3416
651,-370,28.2542,12.8438,9.2474e-05,0.000364519,-0.00107188,0.00130897,-0.000851978,-0.848511,0.00125689,0.0118342,1875,1394,28.2542,-12.8437
658,-370,28.2488,12.3739,0.000643697,0.000225936,-0.00050964,0.000985601,-0.000115968,-0.59091,0.000698938,0.0124327,1882,1394,28.2487,-12.3739
665,-370,28.2412,11.8833,0.00100147,-0.000137647,9.05263e-06,0.00100154,-0.000137719,0.00794639,0.000718017,0.0137978,1889,1394,28.2412,-11.8833
672,-370,28.2264,11.3898,0.00146599,-0.000490807,0.000488025,0.00158095,-0.000605766,0.231343,0.00130368,0.014572,1896,1394,28.2265,-11.3898
679,-370,28.2263,10.9146,0.00207303,-0.000794129,0.000888969,0.00232628,-0.00104739,0.277536,0.00199389,0.0140554,1903,1394,28.2264,-10.9146
686,-370,28.1893,10.4359,0.00280084,-0.00110407,0.00124819,0.00316573,-0.00146896,0.284406,0.00273496,0.0144747,1910,1394,28.1894,-10.4359
693,-370,28.1534,9.922,0.00370247,-0.00136615,0.0014957,0.00411092,-0.0017746,0.266584,0.00348611,0.012955,1917,1394,28.1534,-9.92198
700,-370,28.3551,9.38098,0.00483248,-0.00152155,0.0016062,0.00521543,-0.0019045,0.234046,0.00425626,0.0337739,1924,1394,28.3551,-9.38094
707,-370,28.7177,8.7854,0,0,0,0,0,0,0,-1,1931,1394,28.7177,-8.78543
714,-370,16.9116,5.93018,0,0,0,0,0,0,0,-1,1938,1394,16.9116,-5.93014
721,-370,17.2007,4.69153,0,0,0,0,0,0,0,-1,1945,1394,17.2007,-4.69158
728,-370,20.5315,-0.313354,0,0,0,0,0,0,0,-1,1952,1394,20.5315,0.313332
735,-370,22.3652,0.233398,0,0,0,0,0,0,0,-1,1959,1394,22.3652,-0.233355
742,-370,24.1989,0.780029,0,0,0,0,0,0,0,-1,1966,1394,24.1989,-0.780041
749,-370,0,0,0,0,0,0,0,0,0,-1,1973,1394,0,0
756,-370,0,0,0,0,0,0,0,0,0,-1,1980,1394,0,0
763,-370,0,0,0,0,0,0,0,0,0,-1,1987,1394,0,0
770,-370,0,0,0,0,0,0,0,0,0,-1,1994,1394,0,0
777,-370,0,0,0,0,0,0,0,0,0,-1,2001,1394,0,0
784,-370,0,0,0,0,0,0,0,0,0,-1,2008,1394,0,0
791,-370,0,0,0,0,0,0,0,0,0,-1,2015,1394,0,0
798,-370,0,0,0,0,0,0,0,0,0,-1,2022,1394,0,0
805,-370,0,0,0,0,0,0,0,0,0,-1,2029,1394,0,0
812,-370,0,0,0,0,0,0,0,0,0,-1,2036,1394,0,0
-700,-377,0,0,0,0,0,0,0,0,0,-1,524,1401,0,0
-693,-377,0,0,0,0,0,0,0,0,0,-1,531,1401,0,0
-686,-377,0,0,0,0,0,0,0,0,0,-1,538,1401,0,0
-679,-377,0,0,0,0,0,0,0,0,0,-1,545,1401,0,0
-672,-377,0,0,0,0,0,0,0,0,0,-1,552,1401,0,0
-665,-377,0,0,0,0,0,0,0,0,0,-1,559,1401,0,0
-658,-377,0,0,0,0,0,0,0,0,0,-1,566,1401,0,0
-651,-377,0,0,0,0,0,0,0,0,0,-1,573,1401,0,0
-644,-377,0,0,0,0,0,0,0,0,0,-1,580,1401,0,0
-637,-377,0,0,0,0,0,0,0,0,0,-1,587,1401,0,0
-630,-377,0,0,0,0,0,0,0,0,0,-1,594,1401,0,0
-623,-377,0,0,0,0,0,0,0,0,0,-1,601,1401,0,0
-616,-377,-9.43915,-2.4906,0,0,0,0,0,0,0,-1,608,1401,-9.43915,2.49062
-609,-377,-7.2821,-1.35278,0,0,0,0,0,0,0,-1,615,1401,-7.28208,1.35279
-602,-377,-14.9736,3.98279,0,0,0,0,0,0,0,-1,622,1401,-14.9737,-3.98276
-595,-377,-6.9082,1.18201,0,0,0,0,0,0,0,-1,629,1401,-6.90822,-1.18204
-588,-377,-12.8003,3.44751,0,0,0,0,0,0,0,-1,636,1401,-12.8003,-3.44754
-581,-377,-11.8243,6.21521,0,0,0,0,0,0,0,-1,643,1401,-11.8244,-6.21519
-574,-377,-12.2761,6.60547,0,0,0,0,0,0,0,-1,650,1401,-12.2761,-6.60552
-567,-377,-13.1902,7.26929,0,0,0,0,0,0,0,-1,657,1401,-13.1902,-7.26926
-560,-377,-13.5356,7.88525,0.00553302,-0.000280143,0.00127423,0.00580006,-0.000547183,0.20658,0.0040614,0.0486201,664,1401,-13.5356,-7.88527
-553,-377,-13.3914,8.34448,0.00440668,-0.000127589,0.00101415,0.00462317,-0.00034408,0.210314,0.00320297,0.0147783,671,1401,-13.3914,-8.3445
-546,-377,-13.3922,8.95508,0.00352022,-6.28044e-05,0.000841035,0.00370781,-0.000250397,0.219457,0.00255943,0.0157821,678,1401,-13.3922,-8.95512
-539,-377,-13.3825,9.45203,0.002896,-6.53729e-06,0.00076678,0.00308611,-0.00019665,0.243036,0.00212599,0.0211636,685,1401,-13.3825,-9.45205
-532,-377,-13.4331,9.9375,0.00254769,6.33265e-05,0.000811521,0.00278928,-0.000178265,0.289347,0.0019217,0.0202263,692,1401,-13.4331,-9.93752
-525,-377,-13.4075,10.4843,0.00253692,0.000235952,0.0010459,0.00294127,-0.000168402,0.368909,0.00201932,0.0201394,699,1401,-13.4075,-10.4843
-518,-377,-13.4586,11.0227,0.00286616,0.000549922,0.00148232,0.00358913,-0.000173055,0.453786,0.00245248,0.013598,706,1401,-13.4586,-11.0227
-511,-377,-13.4704,11.5638,0.00362501,0.00105583,0.00219056,0.00487985,-0.000199019,0.520211,0.00332156,0.0114631,713,1401,-13.4704,-11.5638
-504,-377,-13.4883,12.1177,0.00495556,0.00170994,0.00322918,0.00694676,-0.000281265,0.552557,0.00472772,0.0155678,720,1401,-13.4883,-12.1177
-497,-377,-13.3193,12.7257,0,0,0,0,0,0,0,-1,727,1401,-13.3194,-12.7257
-490,-377,-8.88409,10.1245,0,0,0,0,0,0,0,-1,734,1401,-8.8841,-10.1245
-483,-377,-5.6524,5.07324,0,0,0,0,0,0,0,-1,741,1401,-5.6524,-5.07325
-476,-377,-6.11682,5.10535,0,0,0,0,0,0,0,-1,748,1401,-6.11681,-5.10537
-469,-377,-10.3211,1.9281,0,0,0,0,0,0,0,-1,755,1401,-10.3211,-1.92808
-462,-377,-9.2204,1.0022,0,0,0,0,0,0,0,-1,762,1401,-9.22039,-1.00218
-455,-377,-8.11969,0.0762939,0,0,0,0,0,0,0,-1,769,1401,-8.11968,-0.0762759
-448,-377,-9.05334,0.877319,0,0,0,0,0,0,0,-1,776,1401,-9.05332,-0.877324
-441,-377,-11.212,0.763428,0,0,0,0,0,0,0,-1,783,1401,-11.212,-0.763415
-434,-377,-11.0984,0.996216,0,0,0,0,0,0,0,-1,790,1401,-11.0984,-0.996265
-427,-377,-11.1733,1.25732,0,0,0,0,0,0,0,-1,797,1401,-11.1733,-1.25732
-420,-377,0,0,0,0,0,0,0,0,0,-1,804,1401,0,0
-413,-377,0,0,0,0,0,0,0,0,0,-1,811,1401,0,0
-406,-377,0,0,0,0,0,0,0,0,0,-1,818,1401,0,0
-399,-377,0,0,0,0,0,0,0,0,0,-1,825,1401,0,0
-392,-377,0,0,0,0,0,0,0,0,0,-1,832,1401,0,0
-385,-377,0,0,0,0,0,0,0,0,0,-1,839,1401,0,0
-378,-377,0,0,0,0,0,0,0,0,0,-1,846,1401,0,0
-371,-377,0,0,0,0,0,0,0,0,0,-1,853,1401,0,0
-364,-377,0,0,0,0,0,0,0,0,0,-1,860,1401,0,0
-357,-377,0,0,0,0,0,0,0,0,0,-1,867,1401,0,0
-350,-377,0,0,0,0,0,0,0,0,0,-1,874,1401,0,0
-343,-377,0,0,0,0,0,0,0,0,0,-1,881,1401,0,0
-336,-377,0,0,0,0,0,0,0,0,0,-1,888,1401,0,0
-329,-377,0,0,0,0,0,0,0,0,0,-1,895,1401,0,0
-322,-377,0,0,0,0,0,0,0,0,0,-1,902,1401,0,0
-315,-377,0,0,0,0,0,0,0,0,0,-1,909,1401,0,0
-308,-377,0,0,0,0,0,0,0,0,0,-1,916,1401,0,0
-301,-377,0,0,0,0,0,0,0,0,0,-1,923,1401,0,0
-294,-377,0,0,0,0,0,0,0,0,0,-1,930,1401,0,0
-287,-377,0,0,0,0,0,0,0,0,0,-1,937,1401,0,0
-280,-377,0,0,0,0,0,0,0,0,0,-1,944,1401,0,0
-273,-377,0,0,0,0,0,0,0,0,0,-1,951,1401,0,0
-266,-377,0,0,0,0,0,0,0,0,0,-1,958,1401,0,0
-259,-377,0,0,0,0,0,0,0,0,0,-1,965,1401,0,0
-252,-377,0,0,0,0,0,0,0,0,0,-1,972,1401,0,0
-245,-377,0,0,0,0,0,0,0,0,0,-1,979,1401,0,0
-238,-377,0,0,0,0,0,0,0,0,0,-1,986,1401,0,0
-231,-377,0,0,0,0,0,0,0,0,0,-1,993,1401,0,0
-224,-377,0,0,0,0,0,0,0,0,0,-1,1000,1401,0,0
-217,-377,0,0,0,0,0,0,0,0,0,-1,1007,1401,0,0
-210,-377,0,0,0,0,0,0,0,0,0,-1,1014,1401,0,0
-203,-377,0,0,0,0,0,0,0,0,0,-1,1021,1401,0,0
-196,-377,0,0,0,0,0,0,0,0,0,-1,1028,1401,0,0
-189,-377,0,0,0,0,0,0,0,0,0,-1,1035,1401,0,0
-182,-377,0,0,0,0,0,0,0,0,0,-1,1042,1401,0,0
-175,-377,0,0,0,0,0,0,0,0,0,-1,1049,1401,0,0
-168,-377,0,0,0,0,0,0,0,0,0,-1,1056,1401,0,0
-161,-377,0,0,0,0,0,0,0,0,0,-1,1063,1401,0,0
-154,-377,0,0,0,0,0,0,0,0,0,-1,1070,1401,0,0
-147,-377,0,0,0,0,0,0,0,0,0,-1,1077,1401,0,0
-140,-377,0,0,0,0,0,0,0,0,0,-1,1084,1401,0,0
-133,-377,0,0,0,0,0,0,0,0,0,-1,1091,1401,0,0
-126,-377,0,0,0,0,0,0,0,0,0,-1,1098,1401,0,0
-119,-377,0,0,0,0,0,0,0,0,0,-1,1105,1401,0,0
-112,-377,0,0,0,0,0,0,0,0,0,-1,1112,1401,0,0
-105,-377,0,0,0,0,0,0,0,0,0,-1,1119,1401,0,0
-98,-377,0,0,0,0,0,0,0,0,0,-1,1126,1401,0,0
-91,-377,0,0,0,0,0,0,0,0,0,-1,1133,1401,0,0
-84,-377,0,0,0,0,0,0,0,0,0,-1,1140,1401,0,0
-77,-377,0,0,0,0,0,0,0,0,0,-1,1147,1401,0,0
-70,-377,0,0,0,0,0,0,0,0,0,-1,1154,1401,0,0
-63,-377,0,0,0,0,0,0,0,0,0,-1,1161,1401,0,0
-56,-377,0,0,0,0,0,0,0,0,0,-1,1168,1401,0,0
-49,-377,0,0,0,0,0,0,0,0,0,-1,1175,1401,0,0
-42,-377,0,0,0,0,0,0,0,0,0,-1,1182,1401,0,0
-35,-377,0,0,0,0,0,0,0,0,0,-1,1189,1401,0,0
-28,-377,0,0,0,0,0,0,0,0,0,-1,1196,1401,0,0
-21,-377,0,0,0,0,0,0,0,0,0,-1,1203,1401,0,0
-14,-377,0,0,0,0,0,0,0,0,0,-1,1210,1401,0,0
-7,-377,0,0,0,0,0,0,0,0,0,-1,1217,1401,0,0
0,-377,0,0,0,0,0,0,0,0,0,-1,1224,1401,0,0
7,-377,0,0,0,0,0,0,0,0,0,-1,1231,1401,0,0
14,-377,0,0,0,0,0,0,0,0,0,-1,1238,1401,0,0
21,-377,0,0,0,0,0,0,0,0,0,-1,1245,1401,0,0
28,-377,0,0,0,0,0,0,0,0,0,-1,1252,1401,0,0
35,-377,0,0,0,0,0,0,0,0,0,-1,1259,1401,0,0
42,-377,0,0,0,0,0,0,0,0,0,-1,1266,1401,0,0
49,-377,0,0,0,0,0,0,0,0,0,-1,1273,1401,0,0
56,-377,0,0,0,0,0,0,0,0,0,-1,1280,1401,0,0
63,-377,0,0,0,0,0,0,0,0,0,-1,1287,1401,0,0
70,-377,0,0,0,0,0,0,0,0,0,-1,1294,1401,0,0
77,-377,0,0,0,0,0,0,0,0,0,-1,1301,1401,0,0
84,-377,0,0,0,0,0,0,0,0,0,-1,1308,1401,0,0
91,-377,0,0,0,0,0,0,0,0,0,-1,1315,1401,0,0
98,-377,0,0,0,0,0,0,0,0,0,-1,1322,1401,0,0
105,-377,0,0,0,0,0,0,0,0,0,-1,1329,1401,0,0
112,-377,0,0,0,0,0,0,0,0,0,-1,1336,1401,0,0
119,-377,0,0,0,0,0,0,0,0,0,-1,1343,1401,0,0
126,-377,0,0,0,0,0,0,0,0,0,-1,1350,1401,0,0
133,-377,0,0,0,0,0,0,0,0,0,-1,1357,1401,0,0
140,-377,0,0,0,0,0,0,0,0,0,-1,1364,1401,0,0
147,-377,0,0,0,0,0,0,0,0,0,-1,1371,1401,0,0
154,-377,0,0,0,0,0,0,0,0,0,-1,1378,1401,0,0
161,-377,0,0,0,0,0,0,0,0,0,-1,1385,1401,0,0
168,-377,0,0,0,0,0,0,0,0,0,-1,1392,1401,0,0
175,-377,0,0,0,0,0,0,0,0,0,-1,1399,1401,0,0
182,-377,0,0,0,0,0,0,0,0,0,-1,1406,1401,0,0
189,-377,0,0,0,0,0,0,0,0,0,-1,1413,1401,0,0
196,-377,0,0,0,0,0,0,0,0,0,-1,1420,1401,0,0
203,-377,0,0,0,0,0,0,0,0,0,-1,1427,1401,0,0
210,-377,0,0,0,0,0,0,0,0,0,-1,1434,1401,0,0
217,-377,0,0,0,0,0,0,0,0,0,-1,1441,1401,0,0
224,-377,0,0,0,0,0,0,0,0,0,-1,1448,1401,0,0
231,-377,0,0,0,0,0,0,0,0,0,-1,1455,1401,0,0
238,-377,0,0,0,0,0,0,0,0,0,-1,1462,1401,0,0
245,-377,0,0,0,0,0,0,0,0,0,-1,1469,1401,0,0
252,-377,0,0,0,0,0,0,0,0,0,-1,1476,1401,0,0
259,-377,0,0,0,0,0,0,0,0,0,-1,1483,1401,0,0
266,-377,0,0,0,0,0,0,0,0,0,-1,1490,1401,0,0
273,-377,0,0,0,0,0,0,0,0,0,-1,1497,1401,0,0
280,-377,0,0,0,0,0,0,0,0,0,-1,1504,1401,0,0
287,-377,0,0,0,0,0,0,0,0,0,-1,1511,1401,0,0
294,-377,0,0,0,0,0,0,0,0,0,-1,1518,1401,0,0
301,-377,0,0,0,0,0,0,0,0,0,-1,1525,1401,0,0
308,-377,0,0,0,0,0,0,0,0,0,-1,1532,1401,0,0
315,-377,0,0,0,0,0,0,0,0,0,-1,1539,1401,0,0
322,-377,0,0,0,0,0,0,0,0,0,-1,1546,1401,0,0
329,-377,0,0,0,0,0,0,0,0,0,-1,1553,1401,0,0
336,-377,0,0,0,0,0,0,0,0,0,-1,1560,1401,0,0
343,-377,0,0,0,0,0,0,0,0,0,-1,1567,1401,0,0
350,-377,0,0,0,0,0,0,0,0,0,-1,1574,1401,0,0
357,-377,0,0,0,0,0,0,0,0,0,-1,1581,1401,0,0
364,-377,0,0,0,0,0,0,0,0,0,-1,1588,1401,0,0
371,-377,0,0,0,0,0,0,0,0,0,-1,1595,1401,0,0
378,-377,0,0,0,0,0,0,0,0,0,-1,1602,1401,0,0
385,-377,0,0,0,0,0,0,0,0,0,-1,1609,1401,0,0
392,-377,0,0,0,0,0,0,0,0,0,-1,1616,1401,0,0
399,-377,0,0,0,0,0,0,0,0,0,-1,1623,1401,0,0
406,-377,0,0,0,0,0,0,0,0,0,-1,1630,1401,0,0
413,-377,0,0,0,0,0,0,0,0,0,-1,1637,1401,0,0
420,-377,0,0,0,0,0,0,0,0,0,-1,1644,1401,0,0
427,-377,0,0,0,0,0,0,0,0,0,-1,1651,1401,0,0
434,-377,0,0,0,0,0,0,0,0,0,-1,1658,1401,0,0
441,-377,0,0,0,0,0,0,0,0,0,-1,1665,1401,0,0
448,-377,0,0,0,0,0,0,0,0,0,-1,1672,1401,0,0
455,-377,0,0,0,0,0,0,0,0,0,-1,1679,1401,0,0
462,-377,0,0,0,0,0,0,0,0,0,-1,1686,1401,0,0
469,-377,0,0,0,0,0,0,0,0,0,-1,1693,1401,0,0
476,-377,0,0,0,0,0,0,0,0,0,-1,1700,1401,0,0
483,-377,0,0,0,0,0,0,0,0,0,-1,1707,1401,0,0
490,-377,0,0,0,0,0,0,0,0,0,-1,1714,1401,0,0
497,-377,0,0,0,0,0,0,0,0,0,-1,1721,1401,0,0
504,-377,0,0,0,0,0,0,0,0,0,-1,1728,1401,0,0
511,-377,0,0,0,0,0,0,0,0,0,-1,1735,1401,0,0
518,-377,0,0,0,0,0,0,0,0,0,-1,1742,1401,0,0
525,-377,0,0,0,0,0,0,0,0,0,-1,1749,1401,0,0
532,-377,0,0,0,0,0,0,0,0,0,-1,1756,1401,0,0
539,-377,0,0,0,0,0,0,0,0,0,-1,1763,1401,0,0
546,-377,27.8485,2.34094,0,0,0,0,0,0,0,-1,1770,1401,27.8486,-2.34091
553,-377,27.2189,2.42493,0,0,0,0,0,0,0,-1,1777,1401,27.2188,-2.42498
560,-377,38.3577,-2.15015,0,0,0,0,0,0,0,-1,1784,1401,38.3576,2.1501
567,-377,38.4889,-0.285645,0,0,0,0,0,0,0,-1,1791,1401,38.4889,0.2857
574,-377,38.6221,1.61694,0,0,0,0,0,0,0,-1,1798,1401,38.6221,-1.61689
581,-377,39.1818,3.76367,0,0,0,0,0,0,0,-1,1805,1401,39.1818,-3.76366
588,-377,25.882,4.35217,0,0,0,0,0,0,0,-1,1812,1401,25.8819,-4.3522
595,-377,25.5392,5.11804,0,0,0,0,0,0,0,-1,1819,1401,25.5392,-5.11808
602,-377,24.816,5.79126,0,0,0,0,0,0,0,-1,1826,1401,24.816,-5.79124
609,-377,15.0223,4.76135,0,0,0,0,0,0,0,-1,1833,1401,15.0224,-4.76129
616,-377,14.1842,5.78992,0,0,0,0,0,0,0,-1,1840,1401,14.1842,-5.78987
623,-377,15.8248,8.76721,0,0,0,0,0,0,0,-1,1847,1401,15.8248,-8.76725
630,-377,27.4047,14.6412,0,0,0,0,0,0,0,-1,1854,1401,27.4047,-14.6412
637,-377,27.7037,13.8977,-0.00113794,0.000265679,-0.00307977,0.00272259,-0.00359485,-0.897424,0.00365895,0.032646,1861,1401,27.7038,-13.8976
644,-377,27.7928,13.3593,3.24939e-05,0.00067586,-0.00169073,0.00207524,-0.00136688,-0.879406,0.00200129,0.0118499,1868,1401,27.7928,-13.3592
651,-377,27.776,12.8503,0.000510996,0.000412475,-0.000748767,0.00121212,-0.00028865,-0.752551,0.000919525,0.0137867,1875,1401,27.776,-12.8504
658,-377,27.7634,12.3855,0.000727993,4.94286e-05,-0.000200276,0.000782694,-5.2723e-06,-0.266625,0.000523562,0.0158951,1882,1401,27.7634,-12.3855
665,-377,27.7737,11.8719,0.00104314,-0.000311655,0.000331256,0.0011198,-0.000388311,0.227409,0.000904205,0.018451,1889,1401,27.7737,-11.872
672,-377,27.7561,11.3765,0.00147967,-0.000702437,0.00086373,0.00178017,-0.00100294,0.334814,0.00162758,0.0171758,1896,1401,27.7561,-11.3765
679,-377,27.7042,10.9373,0.00205422,-0.00108209,0.00136342,0.00256405,-0.00159192,0.357837,0.00242123,0.0169357,1903,1401,27.7042,-10.9372
686,-377,27.6802,10.4677,0.00275057,-0.00153735,0.00188782,0.00346325,-0.00225004,0.360976,0.00332327,0.0151559,1910,1401,27.6802,-10.4676
693,-377,27.7214,9.94861,0.00366208,-0.00199385,0.00232325,0.00449402,-0.00282579,0.343865,0.00426252,0.0149743,1917,1401,27.7214,-9.94858
700,-377,28.0059,9.48132,0,0,0,0,0,0,0,-1,1924,1401,28.0058,-9.48134
707,-377,27.5404,9.08911,0,0,0,0,0,0,0,-1,1931,1401,27.5405,-9.08908
714,-377,16.5369,5.45959,0,0,0,0,0,0,0,-1,1938,1401,16.5369,-5.4596
721,-377,17.0913,5.42529,0,0,0,0,0,0,0,-1,1945,1401,17.0914,-5.42529
728,-377,14.5396,2.79724,0,0,0,0,0,0,0,-1,1952,1401,14.5396,-2.7972
735,-377,23.2977,-0.991089,0,0,0,0,0,0,0,-1,1959,1401,23.2978,0.991076
742,-377,0,0,0,0,0,0,0,0,0,-1,1966,1401,0,0
749,-377,0,0,0,0,0,0,0,0,0,-1,1973,1401,0,0
756,-377,0,0,0,0,0,0,0,0,0,-1,1980,1401,0,0
763,-377,0,0,0,0,0,0,0,0,0,-1,1987,1401,0,0
770,-377,0,0,0,0,0,0,0,0,0,-1,1994,1401,0,0
777,-377,0,0,0,0,0,0,0,0,0,-1,2001,1401,0,0
784,-377,0,0,0,0,0,0,0,0,0,-1,2008,1401,0,0
791,-377,0,0,0,0,0,0,0,0,0,-1,2015,1401,0,0
798,-377,0,0,0,0,0,0,0,0,0,-1,2022,1401,0,0
805,-377,0,0,0,0,0,0,0,0,0,-1,2029,1401,0,0
812,-377,0,0,0,0,0,0,0,0,0,-1,2036,1401,0,0
-700,-384,0,0,0,0,0,0,0,0,0,-1,524,1408,0,0
-693,-384,0,0,0,0,0,0,0,0,0,-1,531,1408,0,0
-686,-384,0,0,0,0,0,0,0,0,0,-1,538,1408,0,0
-679,-384,0,0,0,0,0,0,0,0,0,-1,545,1408,0,0
-672,-384,0,0,0,0,0,0,0,0,0,-1,552,1408,0,0
-665,-384,0,0,0,0,0,0,0,0,0,-1,559,1408,0,0
-658,-384,0,0,0,0,0,0,0,0,0,-1,566,1408,0,0
-651,-384,0,0,0,0,0,0,0,0,0,-1,573,1408,0,0
-644,-384,0,0,0,0,0,0,0,0,0,-1,580,1408,0,0
-637,-384,0,0,0,0,0,0,0,0,0,-1,587,1408,0,0
-630,-384,0,0,0,0,0,0,0,0,0,-1,594,1408,0,0
-623,-384,0,0,0,0,0,0,0,0,0,-1,601,1408,0,0
-616,-384,-10.019,-3.36646,0,0,0,0,0,0,0,-1,608,1408,-10.019,3.36648
-609,-384,-7.72357,-2.3418,0,0,0,0,0,0,0,-1,615,1408,-7.72358,2.34182
-602,-384,-11.7632,-2.85156,0,0,0,0,0,0,0,-1,622,1408,-11.7632,2.85157
-595,-384,-10.2217,2.8855,0,0,0,0,0,0,0,-1,629,1408,-10.2218,-2.88548
-588,-384,-12.1653,2.29041,0,0,0,0,0,0,0,-1,636,1408,-12.1654,-2.29038
-581,-384,-11.9297,3.60376,0,0,0,0,0,0,0,-1,643,1408,-11.9298,-3.6038
-574,-384,-11.8677,6.02722,0,0,0,0,0,0,0,-1,650,1408,-11.8677,-6.02722
-567,-384,-12.0743,7.04639,0,0,0,0,0,0,0,-1,657,1408,-12.0743,-7.04641
-560,-384,-12.962,7.82825,0,0,0,0,0,0,0,-1,664,1408,-12.962,-7.82826
-553,-384,-12.8985,8.3656,0.00484775,-0.000115029,0.00110289,0.0050818,-0.000349086,0.20912,0.00351002,0.0361509,671,1408,-12.8985,-8.36555
-546,-384,-12.877,8.95447,0.00370841,-5.80254e-05,0.000831286,0.00388372,-0.000233338,0.207847,0.00267033,0.0147842,678,1408,-12.877,-8.95449
-539,-384,-12.8913,9.46594,0.00290327,6.32262e-06,0.00068419,0.00305673,-0.000147138,0.220643,0.00208859,0.0165253,685,1408,-12.8913,-9.46599
-532,-384,-12.8641,9.95459,0.00241054,7.19256e-05,0.000656488,0.00258222,-9.9758e-05,0.25579,0.00175568,0.0220231,692,1408,-12.8641,-9.95459
-525,-384,-12.8469,10.5382,0.00230377,0.000257955,0.000843098,0.00260644,-4.47143e-05,0.344666,0.00175272,0.0210752,699,1408,-12.8469,-10.5382
-518,-384,-12.9232,11.0543,0.00257586,0.000607751,0.001259,0.00318976,-6.14871e-06,0.453684,0.00212856,0.0128466,706,1408,-12.9231,-11.0543
-511,-384,-12.9697,11.6016,0.00328011,0.00120611,0.00198417,0.00448193,4.29386e-06,0.544602,0.00298652,0.0109583,713,1408,-12.9697,-11.6016
-504,-384,-12.9677,12.1597,0.00446929,0.00197295,0.0029992,0.00646968,-2.74393e-05,0.588215,0.00432229,0.012515,720,1408,-12.9677,-12.1597
-497,-384,-12.9227,12.7179,0.00622986,0.00317217,0.00447211,0.00942723,-2.52002e-05,0.620694,0.00629324,0.0386929,727,1408,-12.9227,-12.7178
-490,-384,-12.7541,13.3699,0,0,0,0,0,0,0,-1,734,1408,-12.7541,-13.3699
-483,-384,-6.26471,7.61194,0,0,0,0,0,0,0,-1,741,1408,-6.26469,-7.61191
-476,-384,-6.02734,5.67761,0,0,0,0,0,0,0,-1,748,1408,-6.02736,-5.6776
-469,-384,-10.206,2.63721,0,0,0,0,0,0,0,-1,755,1408,-10.206,-2.6372
-462,-384,-9.04291,1.43542,0,0,0,0,0,0,0,-1,762,1408,-9.04293,-1.43545
-455,-384,-7.87988,0.233765,0,0,0,0,0,0,0,-1,769,1408,-7.87986,-0.233709
-448,-384,-9.35529,7.19226,0,0,0,0,0,0,0,-1,776,1408,-9.35531,-7.19226
-441,-384,-10.4697,1.79004,0,0,0,0,0,0,0,-1,783,1408,-10.4697,-1.79003
-434,-384,-10.6449,0.552246,0,0,0,0,0,0,0,-1,790,1408,-10.6449,-0.552216
-427,-384,-10.968,1.10583,0,0,0,0,0,0,0,-1,797,1408,-10.968,-1.10588
-420,-384,-12.5607,4.54858,0,0,0,0,0,0,0,-1,804,1408,-12.5607,-4.54859
-413,-384,0,0,0,0,0,0,0,0,0,-1,811,1408,0,0
-406,-384,0,0,0,0,0,0,0,0,0,-1,818,1408,0,0
-399,-384,0,0,0,0,0,0,0,0,0,-1,825,1408,0,0
-392,-384,0,0,0,0,0,0,0,0,0,-1,832,1408,0,0
-385,-384,0,0,0,0,0,0,0,0,0,-1,839,1408,0,0
-378,-384,0,0,0,0,0,0,0,0,0,-1,846,1408,0,0
-371,-384,0,0,0,0,0,0,0,0,0,-1,853,1408,0,0
-364,-384,0,0,0,0,0,0,0,0,0,-1,860,1408,0,0
-357,-384,0,0,0,0,0,0,0,0,0,-1,867,1408,0,0
-350,-384,0,0,0,0,0,0,0,0,0,-1,874,1408,0,0
-343,-384,0,0,0,0,0,0,0,0,0,-1,881,1408,0,0
-336,-384,0,0,0,0,0,0,0,0,0,-1,888,1408,0,0
-329,-384,0,0,0,0,0,0,0,0,0,-1,895,1408,0,0
-322,-384,0,0,0,0,0,0,0,0,0,-1,902,1408,0,0
-315,-384,0,0,0,0,0,0,0,0,0,-1,909,1408,0,0
-308,-384,0,0,0,0,0,0,0,0,0,-1,916,1408,0,0
-301,-384,0,0,0,0,0,0,0,0,0,-1,923,1408,0,0
-294,-384,0,0,0,0,0,0,0,0,0,-1,930,1408,0,0
-287,-384,0,0,0,0,0,0,0,0,0,-1,937,1408,0,0
-280,-384,0,0,0,0,0,0,0,0,0,-1,944,1408,0,0
-273,-384,0,0,0,0,0,0,0,0,0,-1,951,1408,0,0
-266,-384,0,0,0,0,0,0,0,0,0,-1,958,1408,0,0
-259,-384,0,0,0,0,0,0,0,0,0,-1,965,1408,0,0
-252,-384,0,0,0,0,0,0,0,0,0,-1,972,1408,0,0
-245,-384,0,0,0,0,0,0,0,0,0,-1,979,1408,0,0
-238,-384,0,0,0,0,0,0,0,0,0,-1,986,1408,0,0
-231,-384,0,0,0,0,0,0,0,0,0,-1,993,1408,0,0
-224,-384,0,0,0,0,0,0,0,0,0,-1,1000,1408,0,0
-217,-384,0,0,0,0,0,0,0,0,0,-1,1007,1408,0,0
-210,-384,0,0,0,0,0,0,0,0,0,-1,1014,1408,0,0
-203,-384,0,0,0,0,0,0,0,0,0,-1,1021,1408,0,0
-196,-384,0,0,0,0,0,0,0,0,0,-1,1028,1408,0,0
-189,-384,0,0,0,0,0,0,0,0,0,-1,1035,1408,0,0
-182,-384,0,0,0,0,0,0,0,0,0,-1,1042,1408,0,0
-175,-384,0,0,0,0,0,0,0,0,0,-1,1049,1408,0,0
-168,-384,0,0,0,0,0,0,0,0,0,-1,1056,1408,0,0
-161,-384,0,0,0,0,0,0,0,0,0,-1,1063,1408,0,0
-154,-384,0,0,0,0,0,0,0,0,0,-1,1070,1408,0,0
-147,-384,0,0,0,0,0,0,0,0,0,-1,1077,1408,0,0
-140,-384,0,0,0,0,0,0,0,0,0,-1,1084,1408,0,0
-133,-384,0,0,0,0,0,0,0,0,0,-1,1091,1408,0,0
-126,-384,0,0,0,0,0,0,0,0,0,-1,1098,1408,0,0
-119,-384,0,0,0,0,0,0,0,0,0,-1,1105,1408,0,0
-112,-384,0,0,0,0,0,0,0,0,0,-1,1112,1408,0,0
-105,-384,0,0,0,0,0,0,0,0,0,-1,1119,1408,0,0
-98,-384,0,0,0,0,0,0,0,0,0,-1,1126,1408,0,0
-91,-384,0,0,0,0,0,0,0,0,0,-1,1133,1408,0,0
-84,-384,0,0,0,0,0,0,0,0,0,-1,1140,1408,0,0
-77,-384,0,0,0,0,0,0,0,0,0,-1,1147,1408,0,0
-70,-384,0,0,0,0,0,0,0,0,0,-1,1154,1408,0,0
-63,-384,0,0,0,0,0,0,0,0,0,-1,1161,1408,0,0
-56,-384,0,0,0,0,0,0,0,0,0,-1,1168,1408,0,0
-49,-384,0,0,0,0,0,0,0,0,0,-1,1175,1408,0,0
-42,-384,0,0,0,0,0,0,0,0,0,-1,1182,1408,0,0
-35,-384,0,0,0,0,0,0,0,0,0,-1,1189,1408,0,0
-28,-384,0,0,0,0,0,0,0,0,0,-1,1196,1408,0,0
-21,-384,0,0,0,0,0,0,0,0,0,-1,1203,1408,0,0
-14,-384,0,0,0,0,0,0,0,0,0,-1,1210,1408,0,0
-7,-384,0,0,0,0,0,0,0,0,0,-1,1217,1408,0,0
0,-384,0,0,0,0,0,0,0,0,0,-1,1224,1408,0,0
7,-384,0,0,0,0,0,0,0,0,0,-1,1231,1408,0,0
14,-384,0,0,0,0,0,0,0,0,0,-1,1238,1408,0,0
21,-384,0,0,0,0,0,0,0,0,0,-1,1245,1408,0,0
28,-384,0,0,0,0,0,0,0,0,0,-1,1252,1408,0,0
35,-384,0,0,0,0,0,0,0,0,0,-1,1259,1408,0,0
42,-384,0,0,0,0,0,0,0,0,0,-1,1266,1408,0,0
49,-384,0,0,0,0,0,0,0,0,0,-1,1273,1408,0,0
56,-384,0,0,0,0,0,0,0,0,0,-1,1280,1408,0,0
63,-384,0,0,0,0,0,0,0,0,0,-1,1287,1408,0,0
70,-384,0,0,0,0,0,0,0,0,0,-1,1294,1408,0,0
77,-384,0,0,0,0,0,0,0,0,0,-1,1301,1408,0,0
84,-384,0,0,0,0,0,0,0,0,0,-1,1308,1408,0,0
91,-384,0,0,0,0,0,0,0,0,0,-1,1315,1408,0,0
98,-384,0,0,0,0,0,0,0,0,0,-1,1322,1408,0,0
105,-384,0,0,0,0,0,0,0,0,0,-1,1329,1408,0,0
112,-384,0,0,0,0,0,0,0,0,0,-1,1336,1408,0,0
119,-384,0,0,0,0,0,0,0,0,0,-1,1343,1408,0,0
126,-384,0,0,0,0,0,0,0,0,0,-1,1350,1408,0,0
133,-384,0,0,0,0,0,0,0,0,0,-1,1357,1408,0,0
140,-384,0,0,0,0,0,0,0,0,0,-1,1364,1408,0,0
147,-384,0,0,0,0,0,0,0,0,0,-1,1371,1408,0,0
154,-384,0,0,0,0,0,0,0,0,0,-1,1378,1408,0,0
161,-384,0,0,0,0,0,0,0,0,0,-1,1385,1408,0,0
168,-384,0,0,0,0,0,0,0,0,0,-1,1392,1408,0,0
175,-384,0,0,0,0,0,0,0,0,0,-1,1399,1408,0,0
182,-384,0,0,0,0,0,0,0,0,0,-1,1406,1408,0,0
189,-384,0,0,0,0,0,0,0,0,0,-1,1413,1408,0,0
196,-384,0,0,0,0,0,0,0,0,0,-1,1420,1408,0,0
203,-384,0,0,0,0,0,0,0,0,0,-1,1427,1408,0,0
210,-384,0,0,0,0,0,0,0,0,0,-1,1434,1408,0,0
217,-384,0,0,0,0,0,0,0,0,0,-1,1441,1408,0,0
224,-384,0,0,0,0,0,0,0,0,0,-1,1448,1408,0,0
231,-384,0,0,0,0,0,0,0,0,0,-1,1455,1408,0,0
238,-384,0,0,0,0,0,0,0,0,0,-1,1462,1408,0,0
245,-384,0,0,0,0,0,0,0,0,0,-1,1469,1408,0,0
252,-384,0,0,0,0,0,0,0,0,0,-1,1476,1408,0,0
259,-384,0,0,0,0,0,0,0,0,0,-1,1483,1408,0,0
266,-384,0,0,0,0,0,0,0,0,0,-1,1490,1408,0,0
273,-384,0,0,0,0,0,0,0,0,0,-1,1497,1408,0,0
280,-384,0,0,0,0,0,0,0,0,0,-1,1504,1408,0,0
287,-384,0,0,0,0,0,0,0,0,0,-1,1511,1408,0,0
294,-384,0,0,0,0,0,0,0,0,0,-1,1518,1408,0,0
301,-384,0,0,0,0,0,0,0,0,0,-1,1525,1408,0,0
308,-384,0,0,0,0,0,0,0,0,0,-1,1532,1408,0,0
315,-384,0,0,0,0,0,0,0,0,0,-1,1539,1408,0,0
322,-384,0,0,0,0,0,0,0,0,0,-1,1546,1408,0,0
329,-384,0,0,0,0,0,0,0,0,0,-1,1553,1408,0,0
336,-384,0,0,0,0,0,0,0,0,0,-1,1560,1408,0,0
343,-384,0,0,0,0,0,0,0,0,0,-1,1567,1408,0,0
350,-384,0,0,0,0,0,0,0,0,0,-1,1574,1408,0,0
357,-384,0,0,0,0,0,0,0,0,0,-1,1581,1408,0,0
364,-384,0,0,0,0,0,0,0,0,0,-1,1588,1408,0,0
371,-384,0,0,0,0,0,0,0,0,0,-1,1595,1408,0,0
378,-384,0,0,0,0,0,0,0,0,0,-1,1602,1408,0,0
385,-384,0,0,0,0,0,0,0,0,0,-1,1609,1408,0,0
392,-384,0,0,0,0,0,0,0,0,0,-1,1616,1408,0,0
399,-384,0,0,0,0,0,0,0,0,0,-1,1623,1408,0,0
406,-384,0,0,0,0,0,0,0,0,0,-1,1630,1408,0,0
413,-384,0,0,0,0,0,0,0,0,0,-1,1637,1408,0,0
420,-384,0,0,0,0,0,0,0,0,0,-1,1644,1408,0,0
427,-384,0,0,0,0,0,0,0,0,0,-1,1651,1408,0,0
434,-384,0,0,0,0,0,0,0,0,0,-1,1658,1408,0,0
441,-384,0,0,0,0,0,0,0,0,0,-1,1665,1408,0,0
448,-384,0,0,0,0,0,0,0,0,0,-1,1672,1408,0,0
455,-384,0,0,0,0,0,0,0,0,0,-1,1679,1408,0,0
462,-384,0,0,0,0,0,0,0,0,0,-1,1686,1408,0,0
469,-384,0,0,0,0,0,0,0,0,0,-1,1693,1408,0,0
476,-384,0,0,0,0,0,0,0,0,0,-1,1700,1408,0,0
483,-384,0,0,0,0,0,0,0,0,0,-1,1707,1408,0,0
490,-384,0,0,0,0,0,0,0,0,0,-1,1714,1408,0,0
497,-384,0,0,0,0,0,0,0,0,0,-1,1721,1408,0,0
504,-384,0,0,0,0,0,0,0,0,0,-1,1728,1408,0,0
511,-384,0,0,0,0,0,0,0,0,0,-1,1735,1408,0,0
518,-384,0,0,0,0,0,0,0,0,0,-1,1742,1408,0,0
525,-384,0,0,0,0,0,0,0,0,0,-1,1749,1408,0,0
532,-384,0,0,0,0,0,0,0,0,0,-1,1756,1408,0,0
539,-384,27.6886,2.85803,0,0,0,0,0,0,0,-1,1763,1408,27.6886,-2.85807
546,-384,27.5044,2.9425,0,0,0,0,0,0,0,-1,1770,1408,27.5044,-2.94255
553,-384,27.3052,2.78394,0,0,0,0,0,0,0,-1,1777,1408,27.3051,-2.78394
560,-384,26.833,3.19812,0,0,0,0,0,0,0,-1,1784,1408,26.833,-3.19816
567,-384,38.2566,0.109985,0,0,0,0,0,0,0,-1,1791,1408,38.2566,-0.110044
574,-384,38.4003,2.05945,0,0,0,0,0,0,0,-1,1798,1408,38.4003,-2.05949
581,-384,25.819,3.91846,0,0,0,0,0,0,0,-1,1805,1408,25.8189,-3.91848
588,-384,23.3721,4.25439,0,0,0,0,0,0,0,-1,1812,1408,23.3721,-4.25442
595,-384,24.981,5.59595,0,0,0,0,0,0,0,-1,1819,1408,24.981,-5.59598
602,-384,20.6605,4.17261,0,0,0,0,0,0,0,-1,1826,1408,20.6606,-4.17265
609,-384,14.158,5.49475,0,0,0,0,0,0,0,-1,1833,1408,14.158,-5.49474
616,-384,14.7997,7.6908,0,0,0,0,0,0,0,-1,1840,1408,14.7996,-7.69079
623,-384,16.4293,9.58899,0,0,0,0,0,0,0,-1,1847,1408,16.4294,-9.58901
630,-384,27.2772,14.4384,0,0,0,0,0,0,0,-1,1854,1408,27.2772,-14.4383
637,-384,27.3198,13.8887,0.000738436,0.000892754,-0.00142774,0.00224541,-0.000614224,-0.812393,0.00173824,0.0203466,1861,1408,27.3198,-13.8887
644,-384,27.2847,13.3961,0.00062296,0.000653887,-0.0010061,0.00164464,-0.000367795,-0.793083,0.00123738,0.0153119,1868,1408,27.2847,-13.3961
651,-384,27.2614,12.8665,0.000621875,0.000241141,-0.000437062,0.000908229,-4.52133e-05,-0.580007,0.000621106,0.0162169,1875,1408,27.2613,-12.8664
658,-384,27.2532,12.3844,0.000769357,-0.000126645,0.000110049,0.000782676,-0.000139964,0.120437,0.000574153,0.0172001,1882,1408,27.2532,-12.3844
665,-384,27.2726,11.9282,0.00101009,-0.000518322,0.000675146,0.00126561,-0.000773838,0.361801,0.00118883,0.0186217,1889,1408,27.2726,-11.9282
672,-384,27.2646,11.4215,0.00136105,-0.000958577,0.00128088,0.00192919,-0.00152672,0.41748,0.00199978,0.0157853,1896,1408,27.2647,-11.4215
679,-384,27.2162,10.9307,0.00182608,-0.00143465,0.00191142,0.00270801,-0.00231657,0.432293,0.00290388,0.0150028,1903,1408,27.2162,-10.9307
686,-384,27.2031,10.4855,0.00237553,-0.00206396,0.00265861,0.00361923,-0.00330766,0.437559,0.00400059,0.012406,1910,1408,27.2032,-10.4855
693,-384,27.2482,10.016,0.00312334,-0.00275021,0.00336866,0.00465562,-0.00428249,0.426893,0.00516192,0.0226397,1917,1408,27.2482,-10.016
700,-384,27.3104,9.56702,0,0,0,0,0,0,0,-1,1924,1408,27.3105,-9.56703
707,-384,17.0566,6.62842,0,0,0,0,0,0,0,-1,1931,1408,17.0567,-6.62848
714,-384,16.038,5.0282,0,0,0,0,0,0,0,-1,1938,1408,16.038,-5.02819
721,-384,13.8843,2.8717,0,0,0,0,0,0,0,-1,1945,1408,13.8843,-2.87171
728,-384,15.4409,6.25745,0,0,0,0,0,0,0,-1,1952,1408,15.4409,-6.2574
735,-384,16.7598,6.71289,0,0,0,0,0,0,0,-1,1959,1408,16.7598,-6.71287
742,-384,0,0,0,0,0,0,0,0,0,-1,1966,1408,0,0
749,-384,0,0,0,0,0,0,0,0,0,-1,1973,1408,0,0
756,-384,0,0,0,0,0,0,0,0,0,-1,1980,1408,0,0
763,-384,0,0,0,0,0,0,0,0,0,-1,1987,1408,0,0
770,-384,0,0,0,0,0,0,0,0,0,-1,1994,1408,0,0
777,-384,0,0,0,0,0,0,0,0,0,-1,2001,1408,0,0
784,-384,0,0,0,0,0,0,0,0,0,-1,2008,1408,0,0
791,-384,0,0,0,0,0,0,0,0,0,-1,2015,1408,0,0
798,-384,0,0,0,0,0,0,0,0,0,-1,2022,1408,0,0
805,-384,0,0,0,0,0,0,0,0,0,-1,2029,1408,0,0
812,-384,0,0,0,0,0,0,0,0,0,-1,2036,1408,0,0
-700,-391,0,0,0,0,0,0,0,0,0,-1,524,1415,0,0
-693,-391,0,0,0,0,0,0,0,0,0,-1,531,1415,0,0
-686,-391,0,0,0,0,0,0,0,0,0,-1,538,1415,0,0
-679,-391,0,0,0,0,0,0,0,0,0,-1,545,1415,0,0
-672,-391,0,0,0,0,0,0,0,0,0,-1,552,1415,0,0
-665,-391,0,0,0,0,0,0,0,0,0,-1,559,1415,0,0
-658,-391,0,0,0,0,0,0,0,0,0,-1,566,1415,0,0
-651,-391,0,0,0,0,0,0,0,0,0,-1,573,1415,0,0
-644,-391,0,0,0,0,0,0,0,0,0,-1,580,1415,0,0
-637,-391,0,0,0,0,0,0,0,0,0,-1,587,1415,0,0
-630,-391,0,0,0,0,0,0,0,0,0,-1,594,1415,0,0
-623,-391,0,0,0,0,0,0,0,0,0,-1,601,1415,0,0
-616,-391,0,0,0,0,0,0,0,0,0,-1,608,1415,0,0
-609,-391,-7.71753,-3.69763,0,0,0,0,0,0,0,-1,615,1415,-7.71751,3.69759
-602,-391,-13.9493,-4.12805,0,0,0,0,0,0,0,-1,622,1415,-13.9493,4.12803
-595,-391,-10.8315,1.76172,0,0,0,0,0,0,0,-1,629,1415,-10.8315,-1.76171
-588,-391,-10.265,2.16431,0,0,0,0,0,0,0,-1,636,1415,-10.265,-2.16431
-581,-391,-11.3325,2.44836,0,0,0,0,0,0,0,-1,643,1415,-11.3325,-2.44842
-574,-391,-11.1471,6.19983,0,0,0,0,0,0,0,-1,650,1415,-11.1471,-6.19981
-567,-391,-11.5172,6.82458,0,0,0,0,0,0,0,-1,657,1415,-11.5171,-6.82454
-560,-391,-11.2459,7.37195,0,0,0,0,0,0,0,-1,664,1415,-11.2459,-7.37191
-553,-391,-12.4542,8.26355,0,0,0,0,0,0,0,-1,671,1415,-12.4542,-8.26351
-546,-391,-12.3709,8.9408,0.00399674,1.70904e-05,0.000888697,0.00418618,-0.000172347,0.21002,0.00284997,0.0152889,678,1415,-12.3709,-8.94081
-539,-391,-12.3129,9.4906,0.00298385,7.73889e-05,0.000670338,0.003131,-6.97656e-05,0.216095,0.00211097,0.0145788,685,1415,-12.3128,-9.49056
-532,-391,-12.3002,10.0299,0.00231662,0.000121136,0.000568127,0.00245492,-1.71661e-05,0.238791,0.00164236,0.0246265,692,1415,-12.3002,-10.0299
-525,-391,-12.3101,10.5842,0.002079,0.000295717,0.00069757,0.00231945,5.52679e-05,0.331941,0.00152821,0.022753,699,1415,-12.31,-10.5843
-518,-391,-12.4139,11.0917,0.0022605,0.000667506,0.00108957,0.00281366,0.000114343,0.469778,0.00183884,0.0149125,706,1415,-12.4139,-11.0917
-511,-391,-12.431,11.6199,0.00289707,0.00131149,0.00180946,0.00407979,0.000128767,0.578925,0.00267797,0.0144312,713,1415,-12.431,-11.6199
-504,-391,-12.4291,12.1709,0.00399032,0.00216103,0.00282133,0.00604156,0.00010979,0.628648,0.00399161,0.0127623,720,1415,-12.4292,-12.1709
-497,-391,-12.4403,12.702,0.00560517,0.00338157,0.00425099,0.00888734,9.93982e-05,0.657493,0.00589204,0.0138396,727,1415,-12.4403,-12.702
-490,-391,-12.4344,13.2388,0,0,0,0,0,0,0,-1,734,1415,-12.4344,-13.2387
-483,-391,-11.1018,12.9382,0,0,0,0,0,0,0,-1,741,1415,-11.1018,-12.9382
-476,-391,-6.05731,6.85303,0,0,0,0,0,0,0,-1,748,1415,-6.05728,-6.85304
-469,-391,-3.88953,5.0979,0,0,0,0,0,0,0,-1,755,1415,-3.88955,-5.09794
-462,-391,-8.67688,2.03125,0,0,0,0,0,0,0,-1,762,1415,-8.67685,-2.03121
-455,-391,-8.65576,6.46997,0,0,0,0,0,0,0,-1,769,1415,-8.65579,-6.46999
-448,-391,-8.39618,4.38403,0,0,0,0,0,0,0,-1,776,1415,-8.39617,-4.38405
-441,-391,-9.77704,2.5946,0,0,0,0,0,0,0,-1,783,1415,-9.77702,-2.5946
-434,-391,-11.5403,2.12878,0,0,0,0,0,0,0,-1,790,1415,-11.5403,-2.12881
-427,-391,-10.5311,2.50403,0,0,0,0,0,0,0,-1,797,1415,-10.5311,-2.504
-420,-391,-14.7087,1.24365,0,0,0,0,0,0,0,-1,804,1415,-14.7088,-1.24365
-413,-391,0,0,0,0,0,0,0,0,0,-1,811,1415,0,0
-406,-391,0,0,0,0,0,0,0,0,0,-1,818,1415,0,0
-399,-391,0,0,0,0,0,0,0,0,0,-1,825,1415,0,0
-392,-391,0,0,0,0,0,0,0,0,0,-1,832,1415,0,0
-385,-391,0,0,0,0,0,0,0,0,0,-1,839,1415,0,0
-378,-391,0,0,0,0,0,0,0,0,0,-1,846,1415,0,0
-371,-391,0,0,0,0,0,0,0,0,0,-1,853,1415,0,0
-364,-391,0,0,0,0,0,0,0,0,0,-1,860,1415,0,0
-357,-391,0,0,0,0,0,0,0,0,0,-1,867,1415,0,0
-350,-391,0,0,0,0,0,0,0,0,0,-1,874,1415,0,0
-343,-391,0,0,0,0,0,0,0,0,0,-1,881,1415,0,0
-336,-391,0,0,0,0,0,0,0,0,0,-1,888,1415,0,0
-329,-391,0,0,0,0,0,0,0,0,0,-1,895,1415,0,0
-322,-391,0,0,0,0,0,0,0,0,0,-1,902,1415,0,0
-315,-391,0,0,0,0,0,0,0,0,0,-1,909,1415,0,0
-308,-391,0,0,0,0,0,0,0,0,0,-1,916,1415,0,0
-301,-391,0,0,0,0,0,0,0,0,0,-1,923,1415,0,0
-294,-391,0,0,0,0,0,0,0,0,0,-1,930,1415,0,0
-287,-391,0,0,0,0,0,0,0,0,0,-1,937,1415,0,0
-280,-391,0,0,0,0,0,0,0,0,0,-1,944,1415,0,0
-273,-391,0,0,0,0,0,0,0,0,0,-1,951,1415,0,0
-266,-391,0,0,0,0,0,0,0,0,0,-1,958,1415,0,0
-259,-391,0,0,0,0,0,0,0,0,0,-1,965,1415,0,0
-252,-391,0,0,0,0,0,0,0,0,0,-1,972,1415,0,0
-245,-391,0,0,0,0,0,0,0,0,0,-1,979,1415,0,0
-238,-391,0,0,0,0,0,0,0,0,0,-1,986,1415,0,0
-231,-391,0,0,0,0,0,0,0,0,0,-1,993,1415,0,0
-224,-391,0,0,0,0,0,0,0,0,0,-1,1000,1415,0,0
-217,-391,0,0,0,0,0,0,0,0,0,-1,1007,1415,0,0
-210,-391,0,0,0,0,0,0,0,0,0,-1,1014,1415,0,0
-203,-391,0,0,0,0,0,0,0,0,0,-1,1021,1415,0,0
-196,-391,0,0,0,0,0,0,0,0,0,-1,1028,1415,0,0
-189,-391,0,0,0,0,0,0,0,0,0,-1,1035,1415,0,0
-182,-391,0,0,0,0,0,0,0,0,0,-1,1042,1415,0,0
-175,-391,0,0,0,0,0,0,0,0,0,-1,1049,1415,0,0
-168,-391,0,0,0,0,0,0,0,0,0,-1,1056,1415,0,0
-161,-391,0,0,0,0,0,0,0,0,0,-1,1063,1415,0,0
-154,-391,0,0,0,0,0,0,0,0,0,-1,1070,1415,0,0
-147,-391,0,0,0,0,0,0,0,0,0,-1,1077,1415,0,0
-140,-391,0,0,0,0,0,0,0,0,0,-1,1084,1415,0,0
-133,-391,0,0,0,0,0,0,0,0,0,-1,1091,1415,0,0
-126,-391,0,0,0,0,0,0,0,0,0,-1,1098,1415,0,0
-119,-391,0,0,0,0,0,0,0,0,0,-1,1105,1415,0,0
-112,-391,0,0,0,0,0,0,0,0,0,-1,1112,1415,0,0
-105,-391,0,0,0,0,0,0,0,0,0,-1,1119,1415,0,0
-98,-391,0,0,0,0,0,0,0,0,0,-1,1126,1415,0,0
-91,-391,0,0,0,0,0,0,0,0,0,-1,1133,1415,0,0
-84,-391,0,0,0,0,0,0,0,0,0,-1,1140,1415,0,0
-77,-391,0,0,0,0,0,0,0,0,0,-1,1147,1415,0,0
-70,-391,0,0,0,0,0,0,0,0,0,-1,1154,1415,0,0
-63,-391,0,0,0,0,0,0,0,0,0,-1,1161,1415,0,0
-56,-391,0,0,0,0,0,0,0,0,0,-1,1168,1415,0,0
-49,-391,0,0,0,0,0,0,0,0,0,-1,1175,1415,0,0
-42,-391,0,0,0,0,0,0,0,0,0,-1,1182,1415,0,0
-35,-391,0,0,0,0,0,0,0,0,0,-1,1189,1415,0,0
-28,-391,0,0,0,0,0,0,0,0,0,-1,1196,1415,0,0
-21,-391,0,0,0,0,0,0,0,0,0,-1,1203,1415,0,0
-14,-391,0,0,0,0,0,0,0,0,0,-1,1210,1415,0,0
-7,-391,0,0,0,0,0,0,0,0,0,-1,1217,1415,0,0
0,-391,0,0,0,0,0,0,0,0,0,-1,1224,1415,0,0
7,-391,0,0,0,0,0,0,0,0,0,-1,1231,1415,0,0
14,-391,0,0,0,0,0,0,0,0,0,-1,1238,1415,0,0
21,-391,0,0,0,0,0,0,0,0,0,-1,1245,1415,0,0
28,-391,0,0,0,0,0,0,0,0,0,-1,1252,1415,0,0
35,-391,0,0,0,0,0,0,0,0,0,-1,1259,1415,0,0
42,-391,0,0,0,0,0,0,0,0,0,-1,1266,1415,0,0
49,-391,0,0,0,0,0,0,0,0,0,-1,1273,1415,0,0
56,-391,0,0,0,0,0,0,0,0,0,-1,1280,1415,0,0
63,-391,0,0,0,0,0,0,0,0,0,-1,1287,1415,0,0
70,-391,0,0,0,0,0,0,0,0,0,-1,1294,1415,0,0
77,-391,0,0,0,0,0,0,0,0,0,-1,1301,1415,0,0
84,-391,0,0,0,0,0,0,0,0,0,-1,1308,1415,0,0
91,-391,0,0,0,0,0,0,0,0,0,-1,1315,1415,0,0
98,-391,0,0,0,0,0,0,0,0,0,-1,1322,1415,0,0
105,-391,0,0,0,0,0,0,0,0,0,-1,1329,1415,0,0
112,-391,0,0,0,0,0,0,0,0,0,-1,1336,1415,0,0
119,-391,0,0,0,0,0,0,0,0,0,-1,1343,1415,0,0
126,-391,0,0,0,0,0,0,0,0,0,-1,1350,1415,0,0
133,-391,0,0,0,0,0,0,0,0,0,-1,1357,1415,0,0
140,-391,0,0,0,0,0,0,0,0,0,-1,1364,1415,0,0
147,-391,0,0,0,0,0,0,0,0,0,-1,1371,1415,0,0
154,-391,0,0,0,0,0,0,0,0,0,-1,1378,1415,0,0
161,-391,0,0,0,0,0,0,0,0,0,-1,1385,1415,0,0
168,-391,0,0,0,0,0,0,0,0,0,-1,1392,1415,0,0
175,-391,0,0,0,0,0,0,0,0,0,-1,1399,1415,0,0
182,-391,0,0,0,0,0,0,0,0,0,-1,1406,1415,0,0
189,-391,0,0,0,0,0,0,0,0,0,-1,1413,1415,0,0
196,-391,0,0,0,0,0,0,0,0,0,-1,1420,1415,0,0
203,-391,0,0,0,0,0,0,0,0,0,-1,1427,1415,0,0
210,-391,0,0,0,0,0,0,0,0,0,-1,1434,1415,0,0
217,-391,0,0,0,0,0,0,0,0,0,-1,1441,1415,0,0
224,-391,0,0,0,0,0,0,0,0,0,-1,1448,1415,0,0
231,-391,0,0,0,0,0,0,0,0,0,-1,1455,1415,0,0
238,-391,0,0,0,0,0,0,0,0,0,-1,1462,1415,0,0
245,-391,0,0,0,0,0,0,0,0,0,-1,1469,1415,0,0
252,-391,0,0,0,0,0,0,0,0,0,-1,1476,1415,0,0
259,-391,0,0,0,0,0,0,0,0,0,-1,1483,1415,0,0
266,-391,0,0,0,0,0,0,0,0,0,-1,1490,1415,0,0
273,-391,0,0,0,0,0,0,0,0,0,-1,1497,1415,0,0
280,-391,0,0,0,0,0,0,0,0,0,-1,1504,1415,0,0
287,-391,0,0,0,0,0,0,0,0,0,-1,1511,1415,0,0
294,-391,0,0,0,0,0,0,0,0,0,-1,1518,1415,0,0
301,-391,0,0,0,0,0,0,0,0,0,-1,1525,1415,0,0
308,-391,0,0,0,0,0,0,0,0,0,-1,1532,1415,0,0
315,-391,0,0,0,0,0,0,0,0,0,-1,1539,1415,0,0
322,-391,0,0,0,0,0,0,0,0,0,-1,1546,1415,0,0
329,-391,0,0,0,0,0,0,0,0,0,-1,1553,1415,0,0
336,-391,0,0,0,0,0,0,0,0,0,-1,1560,1415,0,0
343,-391,0,0,0,0,0,0,0,0,0,-1,1567,1415,0,0
350,-391,0,0,0,0,0,0,0,0,0,-1,1574,1415,0,0
357,-391,0,0,0,0,0,0,0,0,0,-1,1581,1415,0,0
364,-391,0,0,0,0,0,0,0,0,0,-1,1588,1415,0,0
371,-391,0,0,0,0,0,0,0,0,0,-1,1595,1415,0,0
378,-391,0,0,0,0,0,0,0,0,0,-1,1602,1415,0,0
385,-391,0,0,0,0,0,0,0,0,0,-1,1609,1415,0,0
392,-391,0,0,0,0,0,0,0,0,0,-1,1616,1415,0,0
399,-391,0,0,0,0,0,0,0,0,0,-1,1623,1415,0,0
406,-391,0,0,0,0,0,0,0,0,0,-1,1630,1415,0,0
413,-391,0,0,0,0,0,0,0,0,0,-1,1637,1415,0,0
420,-391,0,0,0,0,0,0,0,0,0,-1,1644,1415,0,0
427,-391,0,0,0,0,0,0,0,0,0,-1,1651,1415,0,0
434,-391,0,0,0,0,0,0,0,0,0,-1,1658,1415,0,0
441,-391,0,0,0,0,0,0,0,0,0,-1,1665,1415,0,0
448,-391,0,0,0,0,0,0,0,0,0,-1,1672,1415,0,0
455,-391,0,0,0,0,0,0,0,0,0,-1,1679,1415,0,0
462,-391,0,0,0,0,0,0,0,0,0,-1,1686,1415,0,0
469,-391,0,0,0,0,0,0,0,0,0,-1,1693,1415,0,0
476,-391,0,0,0,0,0,0,0,0,0,-1,1700,1415,0,0
483,-391,0,0,0,0,0,0,0,0,0,-1,1707,1415,0,0
490,-391,0,0,0,0,0,0,0,0,0,-1,1714,1415,0,0
497,-391,0,0,0,0,0,0,0,0,0,-1,1721,1415,0,0
504,-391,0,0,0,0,0,0,0,0,0,-1,1728,1415,0,0
511,-391,0,0,0,0,0,0,0,0,0,-1,1735,1415,0,0
518,-391,0,0,0,0,0,0,0,0,0,-1,1742,1415,0,0
525,-391,0,0,0,0,0,0,0,0,0,-1,1749,1415,0,0
532,-391,28.5959,3.02356,0,0,0,0,0,0,0,-1,1756,1415,28.596,-3.02358
539,-391,27.5881,3.25012,0,0,0,0,0,0,0,-1,1763,1415,27.5882,-3.25016
546,-391,27.2837,3.28064,0,0,0,0,0,0,0,-1,1770,1415,27.2837,-3.28064
553,-391,32.5952,5.04553,0,0,0,0,0,0,0,-1,1777,1415,32.5952,-5.04551
560,-391,31.2947,5.67017,0,0,0,0,0,0,0,-1,1784,1415,31.2947,-5.67011
567,-391,30.1473,6.17603,0,0,0,0,0,0,0,-1,1791,1415,30.1473,-6.17602
574,-391,27.5656,5.6842,0,0,0,0,0,0,0,-1,1798,1415,27.5655,-5.68422
581,-391,25.8883,5.76123,0,0,0,0,0,0,0,-1,1805,1415,25.8883,-5.76124
588,-391,24.2717,5.47986,0,0,0,0,0,0,0,-1,1812,1415,24.2717,-5.47982
595,-391,22.8827,6.1991,0,0,0,0,0,0,0,-1,1819,1415,22.8827,-6.19909
602,-391,15.1635,5.69849,0,0,0,0,0,0,0,-1,1826,1415,15.1635,-5.69847
609,-391,14.8285,7.50476,0,0,0,0,0,0,0,-1,1833,1415,14.8285,-7.50479
616,-391,20.7952,12.0503,0,0,0,0,0,0,0,-1,1840,1415,20.7952,-12.0503
623,-391,26.8186,14.7671,0,0,0,0,0,0,0,-1,1847,1415,26.8187,-14.7671
630,-391,26.9514,14.283,0.00123526,0.001329,-0.0016214,0.00290421,-0.000339944,-0.799848,0.00205883,0.0380656,1854,1415,26.9514,-14.2829
637,-391,26.8314,13.884,0.00091931,0.000801624,-0.00113815,0.00200014,-0.000279207,-0.759571,0.00143558,0.0152028,1861,1415,26.8314,-13.884
644,-391,26.7866,13.3859,0.000688618,0.000458709,-0.000673179,0.00125659,-0.00010926,-0.700832,0.000876418,0.0156236,1868,1415,26.7867,-13.3858
651,-391,26.7721,12.9061,0.000599902,4.13982e-05,-0.00012458,0.00062643,1.48696e-05,-0.209811,0.000412753,0.0176748,1875,1415,26.7721,-12.9061
658,-391,26.7538,12.4132,0.000628219,-0.000341418,0.000441342,0.000799016,-0.000512215,0.369245,0.000763052,0.0184642,1882,1415,26.7538,-12.4133
665,-391,26.7594,11.9504,0.000759643,-0.000766003,0.00105846,0.00130151,-0.00130787,0.473158,0.00150653,0.0151559,1889,1415,26.7594,-11.9504
672,-391,26.7623,11.4484,0.000995297,-0.00124453,0.00175084,0.00195376,-0.00220299,0.500868,0.00240134,0.0130887,1896,1415,26.7623,-11.4484
679,-391,26.7444,10.9596,0.00132058,-0.00181359,0.00253641,0.00273496,-0.00322797,0.508682,0.00344662,0.0115833,1903,1415,26.7444,-10.9596
686,-391,26.7428,10.5012,0.00168169,-0.00263232,0.00356195,0.00368884,-0.00463946,0.513145,0.00481878,0.0130828,1910,1415,26.7428,-10.5012
693,-391,26.7325,10.1719,0.00219177,-0.00358609,0.00464324,0.00477144,-0.00616576,0.507114,0.00633168,0.0352379,1917,1415,26.7325,-10.1718
700,-391,26.7813,9.84924,0,0,0,0,0,0,0,-1,1924,1415,26.7813,-9.84919
707,-391,12.9524,5.96851,0,0,0,0,0,0,0,-1,1931,1415,12.9524,-5.96849
714,-391,15.6875,7.67896,0,0,0,0,0,0,0,-1,1938,1415,15.6875,-7.67893
721,-391,14.1808,8.08435,0,0,0,0,0,0,0,-1,1945,1415,14.1808,-8.08439
728,-391,13.8102,7.28174,0,0,0,0,0,0,0,-1,1952,1415,13.8102,-7.28174
735,-391,0,0,0,0,0,0,0,0,0,-1,1959,1415,0,0
742,-391,0,0,0,0,0,0,0,0,0,-1,1966,1415,0,0
749,-391,0,0,0,0,0,0,0,0,0,-1,1973,1415,0,0
756,-391,0,0,0,0,0,0,0,0,0,-1,1980,1415,0,0
763,-391,0,0,0,0,0,0,0,0,0,-1,1987,1415,0,0
770,-391,0,0,0,0,0,0,0,0,0,-1,1994,1415,0,0
777,-391,0,0,0,0,0,0,0,0,0,-1,2001,1415,0,0
784,-391,0,0,0,0,0,0,0,0,0,-1,2008,1415,0,0
791,-391,0,0,0,0,0,0,0,0,0,-1,2015,1415,0,0
798,-391,0,0,0,0,0,0,0,0,0,-1,2022,1415,0,0
805,-391,0,0,0,0,0,0,0,0,0,-1,2029,1415,0,0
812,-391,0,0,0,0,0,0,0,0,0,-1,2036,1415,0,0
-700,-398,0,0,0,0,0,0,0,0,0,-1,524,1422,0,0
-693,-398,0,0,0,0,0,0,0,0,0,-1,531,1422,0,0
-686,-398,0,0,0,0,0,0,0,0,0,-1,538,1422,0,0
-679,-398,0,0,0,0,0,0,0,0,0,-1,545,1422,0,0
-672,-398,0,0,0,0,0,0,0,0,0,-1,552,1422,0,0
-665,-398,0,0,0,0,0,0,0,0,0,-1,559,1422,0,0
-658,-398,0,0,0,0,0,0,0,0,0,-1,566,1422,0,0
-651,-398,0,0,0,0,0,0,0,0,0,-1,573,1422,0,0
-644,-398,0,0,0,0,0,0,0,0,0,-1,580,1422,0,0
-637,-398,0,0,0,0,0,0,0,0,0,-1,587,1422,0,0
-630,-398,0,0,0,0,0,0,0,0,0,-1,594,1422,0,0
-623,-398,0,0,0,0,0,0,0,0,0,-1,601,1422,0,0
-616,-398,0,0,0,0,0,0,0,0,0,-1,608,1422,0,0
-609,-398,-7.47125,-4.05322,0,0,0,0,0,0,0,-1,615,1422,-7.47128,4.05317
-602,-398,-4.58868,-2.77026,0,0,0,0,0,0,0,-1,622,1422,-4.58869,2.77023
-595,-398,-12.2224,-1.82007,0,0,0,0,0,0,0,-1,629,1422,-12.2224,1.82006
-588,-398,-10.6939,1.32336,0,0,0,0,0,0,0,-1,636,1422,-10.6939,-1.32337
-581,-398,-10.433,3.1123,0,0,0,0,0,0,0,-1,643,1422,-10.433,-3.11233
-574,-398,-10.4475,5.89807,0,0,0,0,0,0,0,-1,650,1422,-10.4475,-5.89802
-567,-398,-10.4904,6.80115,0,0,0,0,0,0,0,-1,657,1422,-10.4904,-6.80115
-560,-398,-10.5333,7.70435,0,0,0,0,0,0,0,-1,664,1422,-10.5333,-7.70429
-553,-398,-11.9131,8.2959,0,0,0,0,0,0,0,-1,671,1422,-11.9132,-8.29594
-546,-398,-11.8578,8.9491,0.00410441,0.000163038,0.000982456,0.00433572,-6.82806e-05,0.231238,0.00291351,0.025611,678,1422,-11.8578,-8.9491
-539,-398,-11.7832,9.53259,0.00295303,0.000197658,0.000692919,0.00311747,3.32167e-05,0.233006,0.00206733,0.0130853,685,1422,-11.7832,-9.53261
-532,-398,-11.8062,10.0515,0.00215996,0.000182109,0.000500245,0.00227928,6.27839e-05,0.234157,0.00149903,0.0207752,692,1422,-11.8062,-10.0515
-525,-398,-11.8302,10.5831,0.00182927,0.000301287,0.000547546,0.00200522,0.000125338,0.31092,0.00129705,0.0195813,699,1422,-11.8302,-10.5831
-518,-398,-11.8975,11.1121,0.00195646,0.000646338,0.000882997,0.00240085,0.00020195,0.466262,0.00153768,0.0184891,706,1422,-11.8975,-11.112
-511,-398,-11.8917,11.6199,0.0025359,0.00128498,0.00155805,0.00358934,0.000231532,0.594526,0.00231957,0.0147974,713,1422,-11.8917,-11.6198
-504,-398,-11.888,12.1796,0.00354544,0.00215742,0.00252361,0.00546873,0.000234131,0.651212,0.00357034,0.0141826,720,1422,-11.888,-12.1796
-497,-398,-11.9135,12.7141,0.00509431,0.00340539,0.00391941,0.0082592,0.000240508,0.679292,0.00542774,0.0104584,727,1422,-11.9135,-12.7141
-490,-398,-11.914,13.2373,0.00733238,0.00520299,0.00585085,0.0122146,0.000320743,0.695397,0.0080383,0.0182963,734,1422,-11.914,-13.2373
-483,-398,-11.8995,13.7742,0,0,0,0,0,0,0,-1,741,1422,-11.8995,-13.7741
-476,-398,-8.64392,11.9448,0,0,0,0,0,0,0,-1,748,1422,-8.6439,-11.9448
-469,-398,-8.91699,10.6276,0,0,0,0,0,0,0,-1,755,1422,-8.91697,-10.6275
-462,-398,-9.59753,9.32532,0,0,0,0,0,0,0,-1,762,1422,-9.59753,-9.32531
-455,-398,-8.08331,6.75024,0,0,0,0,0,0,0,-1,769,1422,-8.08333,-6.75022
-448,-398,-7.4505,5.25293,0,0,0,0,0,0,0,-1,776,1422,-7.4505,-5.25291
-441,-398,-7.61639,3.32141,0,0,0,0,0,0,0,-1,783,1422,-7.61637,-3.32145
-434,-398,-10.7618,3.297,0,0,0,0,0,0,0,-1,790,1422,-10.7618,-3.29704
-427,-398,-11.9061,2.24939,0,0,0,0,0,0,0,-1,797,1422,-11.9061,-2.24941
-420,-398,-13.467,2.32788,0,0,0,0,0,0,0,-1,804,1422,-13.467,-2.32787
-413,-398,-14.7983,2.15515,0,0,0,0,0,0,0,-1,811,1422,-14.7983,-2.15516
-406,-398,0,0,0,0,0,0,0,0,0,-1,818,1422,0,0
-399,-398,0,0,0,0,0,0,0,0,0,-1,825,1422,0,0
-392,-398,0,0,0,0,0,0,0,0,0,-1,832,1422,0,0
-385,-398,0,0,0,0,0,0,0,0,0,-1,839,1422,0,0
-378,-398,0,0,0,0,0,0,0,0,0,-1,846,1422,0,0
-371,-398,0,0,0,0,0,0,0,0,0,-1,853,1422,0,0
-364,-398,0,0,0,0,0,0,0,0,0,-1,860,1422,0,0
-357,-398,0,0,0,0,0,0,0,0,0,-1,867,1422,0,0
-350,-398,0,0,0,0,0,0,0,0,0,-1,874,1422,0,0
-343,-398,0,0,0,0,0,0,0,0,0,-1,881,1422,0,0
-336,-398,0,0,0,0,0,0,0,0,0,-1,888,1422,0,0
-329,-398,0,0,0,0,0,0,0,0,0,-1,895,1422,0,0
-322,-398,0,0,0,0,0,0,0,0,0,-1,902,1422,0,0
-315,-398,0,0,0,0,0,0,0,0,0,-1,909,1422,0,0
-308,-398,0,0,0,0,0,0,0,0,0,-1,916,1422,0,0
-301,-398,0,0,0,0,0,0,0,0,0,-1,923,1422,0,0
-294,-398,0,0,0,0,0,0,0,0,0,-1,930,1422,0,0
-287,-398,0,0,0,0,0,0,0,0,0,-1,937,1422,0,0
-280,-398,0,0,0,0,0,0,0,0,0,-1,944,1422,0,0
-273,-398,0,0,0,0,0,0,0,0,0,-1,951,1422,0,0
-266,-398,0,0,0,0,0,0,0,0,0,-1,958,1422,0,0
-259,-398,0,0,0,0,0,0,0,0,0,-1,965,1422,0,0
-252,-398,0,0,0,0,0,0,0,0,0,-1,972,1422,0,0
-245,-398,0,0,0,0,0,0,0,0,0,-1,979,1422,0,0
-238,-398,0,0,0,0,0,0,0,0,0,-1,986,1422,0,0
-231,-398,0,0,0,0,0,0,0,0,0,-1,993,1422,0,0
-224,-398,0,0,0,0,0,0,0,0,0,-1,1000,1422,0,0
-217,-398,0,0,0,0,0,0,0,0,0,-1,1007,1422,0,0
-210,-398,0,0,0,0,0,0,0,0,0,-1,1014,1422,0,0
-203,-398,0,0,0,0,0,0,0,0,0,-1,1021,1422,0,0
-196,-398,0,0,0,0,0,0,0,0,0,-1,1028,1422,0,0
-189,-398,0,0,0,0,0,0,0,0,0,-1,1035,1422,0,0
-182,-398,0,0,0,0,0,0,0,0,0,-1,1042,1422,0,0
-175,-398,0,0,0,0,0,0,0,0,0,-1,1049,1422,0,0
-168,-398,0,0,0,0,0,0,0,0,0,-1,1056,1422,0,0
-161,-398,0,0,0,0,0,0,0,0,0,-1,1063,1422,0,0
-154,-398,0,0,0,0,0,0,0,0,0,-1,1070,1422,0,0
-147,-398,0,0,0,0,0,0,0,0,0,-1,1077,1422,0,0
-140,-398,0,0,0,0,0,0,0,0,0,-1,1084,1422,0,0
-133,-398,0,0,0,0,0,0,0,0,0,-1,1091,1422,0,0
-126,-398,0,0,0,0,0,0,0,0,0,-1,1098,1422,0,0
-119,-398,0,0,0,0,0,0,0,0,0,-1,1105,1422,0,0
-112,-398,0,0,0,0,0,0,0,0,0,-1,1112,1422,0,0
-105,-398,0,0,0,0,0,0,0,0,0,-1,1119,1422,0,0
-98,-398,0,0,0,0,0,0,0,0,0,-1,1126,1422,0,0
-91,-398,0,0,0,0,0,0,0,0,0,-1,1133,1422,0,0
-84,-398,0,0,0,0,0,0,0,0,0,-1,1140,1422,0,0
-77,-398,0,0,0,0,0,0,0,0,0,-1,1147,1422,0,0
-70,-398,0,0,0,0,0,0,0,0,0,-1,1154,1422,0,0
-63,-398,0,0,0,0,0,0,0,0,0,-1,1161,1422,0,0
-56,-398,0,0,0,0,0,0,0,0,0,-1,1168,1422,0,0
-49,-398,0,0,0,0,0,0,0,0,0,-1,1175,1422,0,0
-42,-398,0,0,0,0,0,0,0,0,0,-1,1182,1422,0,0
-35,-398,0,0,0,0,0,0,0,0,0,-1,1189,1422,0,0
-28,-398,0,0,0,0,0,0,0,0,0,-1,1196,1422,0,0
-21,-398,0,0,0,0,0,0,0,0,0,-1,1203,1422,0,0
-14,-398,0,0,0,0,0,0,0,0,0,-1,1210,1422,0,0
-7,-398,0,0,0,0,0,0,0,0,0,-1,1217,1422,0,0
0,-398,0,0,0,0,0,0,0,0,0,-1,1224,1422,0,0
7,-398,0,0,0,0,0,0,0,0,0,-1,1231,1422,0,0
14,-398,0,0,0,0,0,0,0,0,0,-1,1238,1422,0,0
21,-398,0,0,0,0,0,0,0,0,0,-1,1245,1422,0,0
28,-398,0,0,0,0,0,0,0,0,0,-1,1252,1422,0,0
35,-398,0,0,0,0,0,0,0,0,0,-1,1259,1422,0,0
42,-398,0,0,0,0,0,0,0,0,0,-1,1266,1422,0,0
49,-398,0,0,0,0,0,0,0,0,0,-1,1273,1422,0,0
56,-398,0,0,0,0,0,0,0,0,0,-1,1280,1422,0,0
63,-398,0,0,0,0,0,0,0,0,0,-1,1287,1422,0,0
70,-398,0,0,0,0,0,0,0,0,0,-1,1294,1422,0,0
77,-398,0,0,0,0,0,0,0,0,0,-1,1301,1422,0,0
84,-398,0,0,0,0,0,0,0,0,0,-1,1308,1422,0,0
91,-398,0,0,0,0,0,0,0,0,0,-1,1315,1422,0,0
98,-398,0,0,0,0,0,0,0,0,0,-1,1322,1422,0,0
105,-398,0,0,0,0,0,0,0,0,0,-1,1329,1422,0,0
112,-398,0,0,0,0,0,0,0,0,0,-1,1336,1422,0,0
119,-398,0,0,0,0,0,0,0,0,0,-1,1343,1422,0,0
126,-398,0,0,0,0,0,0,0,0,0,-1,1350,1422,0,0
133,-398,0,0,0,0,0,0,0,0,0,-1,1357,1422,0,0
140,-398,0,0,0,0,0,0,0,0,0,-1,1364,1422,0,0
147,-398,0,0,0,0,0,0,0,0,0,-1,1371,1422,0,0
154,-398,0,0,0,0,0,0,0,0,0,-1,1378,1422,0,0
161,-398,0,0,0,0,0,0,0,0,0,-1,1385,1422,0,0
168,-398,0,0,0,0,0,0,0,0,0,-1,1392,1422,0,0
175,-398,0,0,0,0,0,0,0,0,0,-1,1399,1422,0,0
182,-398,0,0,0,0,0,0,0,0,0,-1,1406,1422,0,0
189,-398,0,0,0,0,0,0,0,0,0,-1,1413,1422,0,0
196,-398,0,0,0,0,0,0,0,0,0,-1,1420,1422,0,0
203,-398,0,0,0,0,0,0,0,0,0,-1,1427,1422,0,0
210,-398,0,0,0,0,0,0,0,0,0,-1,1434,1422,0,0
217,-398,0,0,0,0,0,0,0,0,0,-1,1441,1422,0,0
224,-398,0,0,0,0,0,0,0,0,0,-1,1448,1422,0,0
231,-398,0,0,0,0,0,0,0,0,0,-1,1455,1422,0,0
238,-398,0,0,0,0,0,0,0,0,0,-1,1462,1422,0,0
245,-398,0,0,0,0,0,0,0,0,0,-1,1469,1422,0,0
252,-398,0,0,0,0,0,0,0,0,0,-1,1476,1422,0,0
259,-398,0,0,0,0,0,0,0,0,0,-1,1483,1422,0,0
266,-398,0,0,0,0,0,0,0,0,0,-1,1490,1422,0,0
273,-398,0,0,0,0,0,0,0,0,0,-1,1497,1422,0,0
280,-398,0,0,0,0,0,0,0,0,0,-1,1504,1422,0,0
287,-398,0,0,0,0,0,0,0,0,0,-1,1511,1422,0,0
294,-398,0,0,0,0,0,0,0,0,0,-1,1518,1422,0,0
301,-398,0,0,0,0,0,0,0,0,0,-1,1525,1422,0,0
308,-398,0,0,0,0,0,0,0,0,0,-1,1532,1422,0,0
315,-398,0,0,0,0,0,0,0,0,0,-1,1539,1422,0,0
322,-398,0,0,0,0,0,0,0,0,0,-1,1546,1422,0,0
329,-398,0,0,0,0,0,0,0,0,0,-1,1553,1422,0,0
336,-398,0,0,0,0,0,0,0,0,0,-1,1560,1422,0,0
343,-398,0,0,0,0,0,0,0,0,0,-1,1567,1422,0,0
350,-398,0,0,0,0,0,0,0,0,0,-1,1574,1422,0,0
357,-398,0,0,0,0,0,0,0,0,0,-1,1581,1422,0,0
364,-398,0,0,0,0,0,0,0,0,0,-1,1588,1422,0,0
371,-398,0,0,0,0,0,0,0,0,0,-1,1595,1422,0,0
378,-398,0,0,0,0,0,0,0,0,0,-1,1602,1422,0,0
385,-398,0,0,0,0,0,0,0,0,0,-1,1609,1422,0,0
392,-398,0,0,0,0,0,0,0,0,0,-1,1616,1422,0,0
399,-398,0,0,0,0,0,0,0,0,0,-1,1623,1422,0,0
406,-398,0,0,0,0,0,0,0,0,0,-1,1630,1422,0,0
413,-398,0,0,0,0,0,0,0,0,0,-1,1637,1422,0,0
420,-398,0,0,0,0,0,0,0,0,0,-1,1644,1422,0,0
427,-398,0,0,0,0,0,0,0,0,0,-1,1651,1422,0,0
434,-398,0,0,0,0,0,0,0,0,0,-1,1658,1422,0,0
441,-398,0,0,0,0,0,0,0,0,0,-1,1665,1422,0,0
448,-398,0,0,0,0,0,0,0,0,0,-1,1672,1422,0,0
455,-398,0,0,0,0,0,0,0,0,0,-1,1679,1422,0,0
462,-398,0,0,0,0,0,0,0,0,0,-1,1686,1422,0,0
469,-398,0,0,0,0,0,0,0,0,0,-1,1693,1422,0,0
476,-398,0,0,0,0,0,0,0,0,0,-1,1700,1422,0,0
483,-398,0,0,0,0,0,0,0,0,0,-1,1707,1422,0,0
490,-398,0,0,0,0,0,0,0,0,0,-1,1714,1422,0,0
497,-398,0,0,0,0,0,0,0,0,0,-1,1721,1422,0,0
504,-398,0,0,0,0,0,0,0,0,0,-1,1728,1422,0,0
511,-398,0,0,0,0,0,0,0,0,0,-1,1735,1422,0,0
518,-398,0,0,0,0,0,0,0,0,0,-1,1742,1422,0,0
525,-398,0,0,0,0,0,0,0,0,0,-1,1749,1422,0,0
532,-398,28.4558,3.84094,0,0,0,0,0,0,0,-1,1756,1422,28.4558,-3.8409
539,-398,27.0594,3.33887,0,0,0,0,0,0,0,-1,1763,1422,27.0595,-3.3389
546,-398,31.6873,5.58582,0,0,0,0,0,0,0,-1,1770,1422,31.6872,-5.58585
553,-398,30.4392,5.92383,0,0,0,0,0,0,0,-1,1777,1422,30.4392,-5.92386
560,-398,29.1621,6.30469,0,0,0,0,0,0,0,-1,1784,1422,29.1621,-6.30469
567,-398,27.8411,6.55029,0,0,0,0,0,0,0,-1,1791,1422,27.8411,-6.55033
574,-398,26.411,6.8916,0,0,0,0,0,0,0,-1,1798,1422,26.411,-6.8916
581,-398,24.75,7.11145,0,0,0,0,0,0,0,-1,1805,1422,24.7499,-7.11142
588,-398,23.1649,7.67969,0,0,0,0,0,0,0,-1,1812,1422,23.1649,-7.67975
595,-398,21.4253,7.86023,0,0,0,0,0,0,0,-1,1819,1422,21.4253,-7.86029
602,-398,19.6857,8.04077,0,0,0,0,0,0,0,-1,1826,1422,19.6856,-8.04083
609,-398,21.1835,13.2628,0,0,0,0,0,0,0,-1,1833,1422,21.1835,-13.2628
616,-398,25.9772,15.7841,0,0,0,0,0,0,0,-1,1840,1422,25.9771,-15.784
623,-398,26.3508,14.8495,0,0,0,0,0,0,0,-1,1847,1422,26.3508,-14.8495
630,-398,26.368,14.3689,0.00139437,0.00121763,-0.00141659,0.00272534,-0.000113347,-0.754247,0.00185583,0.0130735,1854,1422,26.3681,-14.3689
637,-398,26.3475,13.897,0.000981545,0.000633534,-0.000879887,0.00170447,-8.93882e-05,-0.687778,0.00116725,0.013721,1861,1422,26.3475,-13.897
644,-398,26.2371,13.4156,0.000723222,0.000230511,-0.00038912,0.000937416,1.63177e-05,-0.503193,0.000619576,0.0207111,1868,1422,26.2371,-13.4157
651,-398,26.3054,12.9932,0.000618028,-0.000157157,0.000115561,0.000634888,-0.000174017,0.144879,0.00049164,0.0304982,1875,1422,26.3054,-12.9932
658,-398,26.3018,12.4824,0.000582783,-0.000517963,0.000669209,0.000898869,-0.000834049,0.441266,0.00100073,0.0247807,1882,1422,26.3017,-12.4824
665,-398,26.2627,11.954,0.000631461,-0.000924803,0.00130274,0.00137077,-0.00166411,0.516181,0.00175491,0.0162061,1889,1422,26.2628,-11.954
672,-398,26.2646,11.4778,0.000745658,-0.00138751,0.00205564,0.00199494,-0.0026368,0.546088,0.00268268,0.0132174,1896,1422,26.2646,-11.4778
679,-398,26.2488,11.0056,0.00089083,-0.00200129,0.00298497,0.00276157,-0.00387203,0.559834,0.00384776,0.0118489,1903,1422,26.2487,-11.0056
686,-398,26.249,10.5251,0.000972167,-0.00296355,0.0043125,0.00374457,-0.00573595,0.571352,0.00551369,0.0189562,1910,1422,26.249,-10.5252
693,-398,26.0692,10.3706,0.001071,-0.00412736,0.00582331,0.00484887,-0.00790523,0.575495,0.00743372,0.0489094,1917,1422,26.0692,-10.3706
700,-398,25.8892,10.3264,0,0,0,0,0,0,0,-1,1924,1422,25.8892,-10.3264
707,-398,10.9731,5.479,0,0,0,0,0,0,0,-1,1931,1422,10.9732,-5.47896
714,-398,11.7313,6.17346,0,0,0,0,0,0,0,-1,1938,1422,11.7313,-6.17348
721,-398,13.9371,8.05103,0,0,0,0,0,0,0,-1,1945,1422,13.9372,-8.05102
728,-398,14.786,7.0282,0,0,0,0,0,0,0,-1,1952,1422,14.786,-7.0282
735,-398,0,0,0,0,0,0,0,0,0,-1,1959,1422,0,0
742,-398,0,0,0,0,0,0,0,0,0,-1,1966,1422,0,0
749,-398,0,0,0,0,0,0,0,0,0,-1,1973,1422,0,0
756,-398,0,0,0,0,0,0,0,0,0,-1,1980,1422,0,0
763,-398,0,0,0,0,0,0,0,0,0,-1,1987,1422,0,0
770,-398,0,0,0,0,0,0,0,0,0,-1,1994,1422,0,0
777,-398,0,0,0,0,0,0,0,0,0,-1,2001,1422,0,0
784,-398,0,0,0,0,0,0,0,0,0,-1,2008,1422,0,0
791,-398,0,0,0,0,0,0,0,0,0,-1,2015,1422,0,0
798,-398,0,0,0,0,0,0,0,0,0,-1,2022,1422,0,0
805,-398,0,0,0,0,0,0,0,0,0,-1,2029,1422,0,0
812,-398,0,0,0,0,0,0,0,0,0,-1,2036,1422,0,0
-700,-405,0,0,0,0,0,0,0,0,0,-1,524,1429,0,0
-693,-405,0,0,0,0,0,0,0,0,0,-1,531,1429,0,0
-686,-405,0,0,0,0,0,0,0,0,0,-1,538,1429,0,0
-679,-405,0,0,0,0,0,0,0,0,0,-1,545,1429,0,0
-672,-405,0,0,0,0,0,0,0,0,0,-1,552,1429,0,0
-665,-405,0,0,0,0,0,0,0,0,0,-1,559,1429,0,0
-658,-405,0,0,0,0,0,0,0,0,0,-1,566,1429,0,0
-651,-405,0,0,0,0,0,0,0,0,0,-1,573,1429,0,0
-644,-405,0,0,0,0,0,0,0,0,0,-1,580,1429,0,0
-637,-405,0,0,0,0,0,0,0,0,0,-1,587,1429,0,0
-630,-405,0,0,0,0,0,0,0,0,0,-1,594,1429,0,0
-623,-405,0,0,0,0,0,0,0,0,0,-1,601,1429,0,0
-616,-405,0,0,0,0,0,0,0,0,0,-1,608,1429,0,0
-609,-405,0,0,0,0,0,0,0,0,0,-1,615,1429,0,0
-602,-405,-5.80988,-3.46594,0,0,0,0,0,0,0,-1,622,1429,-5.80987,3.46592
-595,-405,-9.35413,2.01477,0,0,0,0,0,0,0,-1,629,1429,-9.35411,-2.01476
-588,-405,-7.35693,0.507202,0,0,0,0,0,0,0,-1,636,1429,-7.35696,-0.507187
-581,-405,-10.1284,1.62927,0,0,0,0,0,0,0,-1,643,1429,-10.1284,-1.62922
-574,-405,-9.32074,3.05896,0,0,0,0,0,0,0,-1,650,1429,-9.32077,-3.0589
-567,-405,-9.68781,6.92163,0,0,0,0,0,0,0,-1,657,1429,-9.68782,-6.92166
-560,-405,-9.28674,7.20886,0,0,0,0,0,0,0,-1,664,1429,-9.28675,-7.20885
-553,-405,-11.2905,8.34875,0,0,0,0,0,0,0,-1,671,1429,-11.2906,-8.34881
-546,-405,-11.2858,8.93604,0.00419844,0.000519107,0.00114402,0.00452515,0.000192403,0.278171,0.00295472,0.0392804,678,1429,-11.2858,-8.93601
-539,-405,-11.2726,9.52148,0.00293934,0.00049886,0.000821116,0.00318989,0.000248312,0.296158,0.00204884,0.0130787,685,1429,-11.2726,-9.52151
-532,-405,-11.2789,10.0576,0.00204578,0.00037734,0.000545116,0.0022081,0.000215029,0.289395,0.00140588,0.0158962,692,1429,-11.2788,-10.0576
-525,-405,-11.319,10.5945,0.00163661,0.000379008,0.00049518,0.00180818,0.000207437,0.333537,0.0011426,0.0146573,699,1429,-11.319,-10.5945
-518,-405,-11.3386,11.124,0.00170838,0.000635637,0.000748869,0.00209315,0.000250869,0.474626,0.00131978,0.0157489,706,1429,-11.3386,-11.124
-511,-405,-11.364,11.6479,0.00222236,0.00120142,0.00134113,0.00314688,0.000276897,0.603551,0.00201198,0.0153019,713,1429,-11.364,-11.648
-504,-405,-11.3705,12.1974,0.00312982,0.00201815,0.00221067,0.00485346,0.000294511,0.662235,0.00314208,0.0161497,720,1429,-11.3706,-12.1974
-497,-405,-11.371,12.7581,0.00456905,0.0032014,0.00349992,0.00745133,0.000319121,0.688922,0.00486467,0.0148677,727,1429,-11.3709,-12.7581
-490,-405,-11.3897,13.2784,0.00664101,0.00491758,0.00531369,0.0111624,0.000396189,0.705013,0.00731312,0.0133383,734,1429,-11.3897,-13.2785
-483,-405,-11.3108,13.8828,0.00931564,0.00724001,0.00772396,0.0160712,0.00048445,0.718617,0.0105564,0.0234494,741,1429,-11.3108,-13.8828
-476,-405,-11.1169,14.64,0,0,0,0,0,0,0,-1,748,1429,-11.1169,-14.6401
-469,-405,-9.65692,12.8171,0,0,0,0,0,0,0,-1,755,1429,-9.65691,-12.8172
-462,-405,-9.14862,11.3597,0,0,0,0,0,0,0,-1,762,1429,-9.14865,-11.3597
-455,-405,-9.021,9.51111,0,0,0,0,0,0,0,-1,769,1429,-9.021,-9.51109
-448,-405,-8.4649,6.82813,0,0,0,0,0,0,0,-1,776,1429,-8.46492,-6.82817
-441,-405,-6.6712,4.23767,0,0,0,0,0,0,0,-1,783,1429,-6.67121,-4.23764
-434,-405,-9.62549,3.94189,0,0,0,0,0,0,0,-1,790,1429,-9.62546,-3.94191
-427,-405,-10.9764,3.73926,0,0,0,0,0,0,0,-1,797,1429,-10.9764,-3.73923
-420,-405,-12.1187,3.68506,0,0,0,0,0,0,0,-1,804,1429,-12.1187,-3.68512
-413,-405,-13.5353,3.75659,0,0,0,0,0,0,0,-1,811,1429,-13.5353,-3.75655
-406,-405,-14.7374,3.99817,0,0,0,0,0,0,0,-1,818,1429,-14.7374,-3.99814
-399,-405,0,0,0,0,0,0,0,0,0,-1,825,1429,0,0
-392,-405,0,0,0,0,0,0,0,0,0,-1,832,1429,0,0
-385,-405,0,0,0,0,0,0,0,0,0,-1,839,1429,0,0
-378,-405,0,0,0,0,0,0,0,0,0,-1,846,1429,0,0
-371,-405,0,0,0,0,0,0,0,0,0,-1,853,1429,0,0
-364,-405,0,0,0,0,0,0,0,0,0,-1,860,1429,0,0
-357,-405,0,0,0,0,0,0,0,0,0,-1,867,1429,0,0
-350,-405,0,0,0,0,0,0,0,0,0,-1,874,1429,0,0
-343,-405,0,0,0,0,0,0,0,0,0,-1,881,1429,0,0
-336,-405,0,0,0,0,0,0,0,0,0,-1,888,1429,0,0
-329,-405,0,0,0,0,0,0,0,0,0,-1,895,1429,0,0
-322,-405,0,0,0,0,0,0,0,0,0,-1,902,1429,0,0
-315,-405,0,0,0,0,0,0,0,0,0,-1,909,1429,0,0
-308,-405,0,0,0,0,0,0,0,0,0,-1,916,1429,0,0
-301,-405,0,0,0,0,0,0,0,0,0,-1,923,1429,0,0
-294,-405,0,0,0,0,0,0,0,0,0,-1,930,1429,0,0
-287,-405,0,0,0,0,0,0,0,0,0,-1,937,1429,0,0
-280,-405,0,0,0,0,0,0,0,0,0,-1,944,1429,0,0
-273,-405,0,0,0,0,0,0,0,0,0,-1,951,1429,0,0
-266,-405,0,0,0,0,0,0,0,0,0,-1,958,1429,0,0
-259,-405,0,0,0,0,0,0,0,0,0,-1,965,1429,0,0
-252,-405,0,0,0,0,0,0,0,0,0,-1,972,1429,0,0
-245,-405,0,0,0,0,0,0,0,0,0,-1,979,1429,0,0
-238,-405,0,0,0,0,0,0,0,0,0,-1,986,1429,0,0
-231,-405,0,0,0,0,0,0,0,0,0,-1,993,1429,0,0
-224,-405,0,0,0,0,0,0,0,0,0,-1,1000,1429,0,0
-217,-405,0,0,0,0,0,0,0,0,0,-1,1007,1429,0,0
-210,-405,0,0,0,0,0,0,0,0,0,-1,1014,1429,0,0
-203,-405,0,0,0,0,0,0,0,0,0,-1,1021,1429,0,0
-196,-405,0,0,0,0,0,0,0,0,0,-1,1028,1429,0,0
-189,-405,0,0,0,0,0,0,0,0,0,-1,1035,1429,0,0
-182,-405,0,0,0,0,0,0,0,0,0,-1,1042,1429,0,0
-175,-405,0,0,0,0,0,0,0,0,0,-1,1049,1429,0,0
-168,-405,0,0,0,0,0,0,0,0,0,-1,1056,1429,0,0
-161,-405,0,0,0,0,0,0,0,0,0,-1,1063,1429,0,0
-154,-405,0,0,0,0,0,0,0,0,0,-1,1070,1429,0,0
-147,-405,0,0,0,0,0,0,0,0,0,-1,1077,1429,0,0
-140,-405,0,0,0,0,0,0,0,0,0,-1,1084,1429,0,0
-133,-405,0,0,0,0,0,0,0,0,0,-1,1091,1429,0,0
-126,-405,0,0,0,0,0,0,0,0,0,-1,1098,1429,0,0
-119,-405,0,0,0,0,0,0,0,0,0,-1,1105,1429,0,0
-112,-405,0,0,0,0,0,0,0,0,0,-1,1112,1429,0,0
-105,-405,0,0,0,0,0,0,0,0,0,-1,1119,1429,0,0
-98,-405,0,0,0,0,0,0,0,0,0,-1,1126,1429,0,0
-91,-405,0,0,0,0,0,0,0,0,0,-1,1133,1429,0,0
-84,-405,0,0,0,0,0,0,0,0,0,-1,1140,1429,0,0
-77,-405,0,0,0,0,0,0,0,0,0,-1,1147,1429,0,0
-70,-405,0,0,0,0,0,0,0,0,0,-1,1154,1429,0,0
-63,-405,0,0,0,0,0,0,0,0,0,-1,1161,1429,0,0
-56,-405,0,0,0,0,0,0,0,0,0,-1,1168,1429,0,0
-49,-405,0,0,0,0,0,0,0,0,0,-1,1175,1429,0,0
-42,-405,0,0,0,0,0,0,0,0,0,-1,1182,1429,0,0
-35,-405,0,0,0,0,0,0,0,0,0,-1,1189,1429,0,0
-28,-405,0,0,0,0,0,0,0,0,0,-1,1196,1429,0,0
-21,-405,0,0,0,0,0,0,0,0,0,-1,1203,1429,0,0
-14,-405,0,0,0,0,0,0,0,0,0,-1,1210,1429,0,0
-7,-405,0,0,0,0,0,0,0,0,0,-1,1217,1429,0,0
0,-405,0,0,0,0,0,0,0,0,0,-1,1224,1429,0,0
7,-405,0,0,0,0,0,0,0,0,0,-1,1231,1429,0,0
14,-405,0,0,0,0,0,0,0,0,0,-1,1238,1429,0,0
21,-405,0,0,0,0,0,0,0,0,0,-1,1245,1429,0,0
28,-405,0,0,0,0,0,0,0,0,0,-1,1252,1429,0,0
35,-405,0,0,0,0,0,0,0,0,0,-1,1259,1429,0,0
42,-405,0,0,0,0,0,0,0,0,0,-1,1266,1429,0,0
49,-405,0,0,0,0,0,0,0,0,0,-1,1273,1429,0,0
56,-405,0,0,0,0,0,0,0,0,0,-1,1280,1429,0,0
63,-405,0,0,0,0,0,0,0,0,0,-1,1287,1429,0,0
70,-405,0,0,0,0,0,0,0,0,0,-1,1294,1429,0,0
77,-405,0,0,0,0,0,0,0,0,0,-1,1301,1429,0,0
84,-405,0,0,0,0,0,0,0,0,0,-1,1308,1429,0,0
91,-405,0,0,0,0,0,0,0,0,0,-1,1315,1429,0,0
98,-405,0,0,0,0,0,0,0,0,0,-1,1322,1429,0,0
105,-405,0,0,0,0,0,0,0,0,0,-1,1329,1429,0,0
112,-405,0,0,0,0,0,0,0,0,0,-1,1336,1429,0,0
119,-405,0,0,0,0,0,0,0,0,0,-1,1343,1429,0,0
126,-405,0,0,0,0,0,0,0,0,0,-1,1350,1429,0,0
133,-405,0,0,0,0,0,0,0,0,0,-1,1357,1429,0,0
140,-405,0,0,0,0,0,0,0,0,0,-1,1364,1429,0,0
147,-405,0,0,0,0,0,0,0,0,0,-1,1371,1429,0,0
154,-405,0,0,0,0,0,0,0,0,0,-1,1378,1429,0,0
161,-405,0,0,0,0,0,0,0,0,0,-1,1385,1429,0,0
168,-405,0,0,0,0,0,0,0,0,0,-1,1392,1429,0,0
175,-405,0,0,0,0,0,0,0,0,0,-1,1399,1429,0,0
182,-405,0,0,0,0,0,0,0,0,0,-1,1406,1429,0,0
189,-405,0,0,0,0,0,0,0,0,0,-1,1413,1429,0,0
196,-405,0,0,0,0,0,0,0,0,0,-1,1420,1429,0,0
203,-405,0,0,0,0,0,0,0,0,0,-1,1427,1429,0,0
210,-405,0,0,0,0,0,0,0,0,0,-1,1434,1429,0,0
217,-405,0,0,0,0,0,0,0,0,0,-1,1441,1429,0,0
224,-405,0,0,0,0,0,0,0,0,0,-1,1448,1429,0,0
231,-405,0,0,0,0,0,0,0,0,0,-1,1455,1429,0,0
238,-405,0,0,0,0,0,0,0,0,0,-1,1462,1429,0,0
245,-405,0,0,0,0,0,0,0,0,0,-1,1469,1429,0,0
252,-405,0,0,0,0,0,0,0,0,0,-1,1476,1429,0,0
259,-405,0,0,0,0,0,0,0,0,0,-1,1483,1429,0,0
266,-405,0,0,0,0,0,0,0,0,0,-1,1490,1429,0,0
273,-405,0,0,0,0,0,0,0,0,0,-1,1497,1429,0,0
280,-405,0,0,0,0,0,0,0,0,0,-1,1504,1429,0,0
287,-405,0,0,0,0,0,0,0,0,0,-1,1511,1429,0,0
294,-405,0,0,0,0,0,0,0,0,0,-1,1518,1429,0,0
301,-405,0,0,0,0,0,0,0,0,0,-1,1525,1429,0,0
308,-405,0,0,0,0,0,0,0,0,0,-1,1532,1429,0,0
315,-405,0,0,0,0,0,0,0,0,0,-1,1539,1429,0,0
322,-405,0,0,0,0,0,0,0,0,0,-1,1546,1429,0,0
329,-405,0,0,0,0,0,0,0,0,0,-1,1553,1429,0,0
336,-405,0,0,0,0,0,0,0,0,0,-1,1560,1429,0,0
343,-405,0,0,0,0,0,0,0,0,0,-1,1567,1429,0,0
350,-405,0,0,0,0,0,0,0,0,0,-1,1574,1429,0,0
357,-405,0,0,0,0,0,0,0,0,0,-1,1581,1429,0,0
364,-405,0,0,0,0,0,0,0,0,0,-1,1588,1429,0,0
371,-405,0,0,0,0,0,0,0,0,0,-1,1595,1429,0,0
378,-405,0,0,0,0,0,0,0,0,0,-1,1602,1429,0,0
385,-405,0,0,0,0,0,0,0,0,0,-1,1609,1429,0,0
392,-405,0,0,0,0,0,0,0,0,0,-1,1616,1429,0,0
399,-405,0,0,0,0,0,0,0,0,0,-1,1623,1429,0,0
406,-405,0,0,0,0,0,0,0,0,0,-1,1630,1429,0,0
413,-405,0,0,0,0,0,0,0,0,0,-1,1637,1429,0,0
420,-405,0,0,0,0,0,0,0,0,0,-1,1644,1429,0,0
427,-405,0,0,0,0,0,0,0,0,0,-1,1651,1429,0,0
434,-405,0,0,0,0,0,0,0,0,0,-1,1658,1429,0,0
441,-405,0,0,0,0,0,0,0,0,0,-1,1665,1429,0,0
448,-405,0,0,0,0,0,0,0,0,0,-1,1672,1429,0,0
455,-405,0,0,0,0,0,0,0,0,0,-1,1679,1429,0,0
462,-405,0,0,0,0,0,0,0,0,0,-1,1686,1429,0,0
469,-405,0,0,0,0,0,0,0,0,0,-1,1693,1429,0,0
476,-405,0,0,0,0,0,0,0,0,0,-1,1700,1429,0,0
483,-405,0,0,0,0,0,0,0,0,0,-1,1707,1429,0,0
490,-405,0,0,0,0,0,0,0,0,0,-1,1714,1429,0,0
497,-405,0,0,0,0,0,0,0,0,0,-1,1721,1429,0,0
504,-405,0,0,0,0,0,0,0,0,0,-1,1728,1429,0,0
511,-405,0,0,0,0,0,0,0,0,0,-1,1735,1429,0,0
518,-405,0,0,0,0,0,0,0,0,0,-1,1742,1429,0,0
525,-405,31.1563,-1.40942,0,0,0,0,0,0,0,-1,1749,1429,31.1563,1.40937
532,-405,28.156,4.8783,0,0,0,0,0,0,0,-1,1756,1429,28.1561,-4.87833
539,-405,26.5133,3.02454,0,0,0,0,0,0,0,-1,1763,1429,26.5133,-3.0246
546,-405,29.5735,6.53052,0,0,0,0,0,0,0,-1,1770,1429,29.5735,-6.53049
553,-405,28.2911,6.70654,0,0,0,0,0,0,0,-1,1777,1429,28.2912,-6.70656
560,-405,26.9299,7.08472,0,0,0,0,0,0,0,-1,1784,1429,26.9299,-7.08469
567,-405,25.804,7.14661,0,0,0,0,0,0,0,-1,1791,1429,25.8039,-7.14665
574,-405,25.1151,8.07971,0,0,0,0,0,0,0,-1,1798,1429,25.1151,-8.07965
581,-405,23.5055,8.505,0,0,0,0,0,0,0,-1,1805,1429,23.5054,-8.50501
588,-405,21.7491,8.98254,0,0,0,0,0,0,0,-1,1812,1429,21.7491,-8.98254
595,-405,21.6327,10.7795,0,0,0,0,0,0,0,-1,1819,1429,21.6327,-10.7796
602,-405,21.6461,13.9199,0,0,0,0,0,0,0,-1,1826,1429,21.6461,-13.92
609,-405,25.6548,16.2419,0,0,0,0,0,0,0,-1,1833,1429,25.6548,-16.2419
616,-405,25.7784,15.5504,0.00332972,0.0032733,-0.00302468,0.00632632,0.000276698,-0.780736,0.00412841,0.0378208,1840,1429,25.7784,-15.5505
623,-405,25.8219,14.9307,0.00224968,0.00204517,-0.00203126,0.00418126,0.000113588,-0.760249,0.00275042,0.0133911,1847,1429,25.8219,-14.9307
630,-405,25.8457,14.3958,0.00156315,0.00117089,-0.00130793,0.00268957,4.44672e-05,-0.710975,0.00177841,0.0109368,1854,1429,25.8457,-14.3958
637,-405,25.8508,13.9131,0.00109852,0.000530148,-0.000754736,0.0016208,7.86735e-06,-0.60534,0.00107792,0.0110484,1861,1429,25.8509,-13.9131
644,-405,25.7394,13.4623,0.000797048,5.71605e-05,-0.000239875,0.00086801,-1.38022e-05,-0.287628,0.000583329,0.0288925,1868,1429,25.7394,-13.4623
651,-405,25.7067,12.99,0.000640513,-0.000331741,0.00024358,0.000698124,-0.000389352,0.232249,0.000636235,0.0353377,1875,1429,25.7066,-12.99
658,-405,25.7782,12.5037,0.000512187,-0.000692139,0.000802169,0.000913057,-0.00109301,0.463434,0.00115975,0.0251052,1882,1429,25.7782,-12.5037
665,-405,25.7653,11.973,0.000443355,-0.00109358,0.00146495,0.00132916,-0.00197939,0.543844,0.00192245,0.0180495,1889,1429,25.7652,-11.973
672,-405,25.7594,11.4918,0.000386785,-0.00153638,0.00228646,0.00190564,-0.00305523,0.586349,0.00288968,0.022344,1896,1429,25.7595,-11.4918
679,-405,25.7861,11.0229,0.000285206,-0.00219724,0.00337422,0.00263926,-0.00455129,0.609153,0.0042001,0.0225799,1903,1429,25.7861,-11.0229
686,-405,25.6359,10.5918,-2.17682e-05,-0.00331121,0.00505011,0.0036447,-0.00697768,0.627975,0.00623265,0.0405421,1910,1429,25.6359,-10.5918
693,-405,25.3439,10.1884,0,0,0,0,0,0,0,-1,1917,1429,25.3439,-10.1883
700,-405,9.1958,4.02026,0,0,0,0,0,0,0,-1,1924,1429,9.19579,-4.02025
707,-405,7.40308,3.83191,0,0,0,0,0,0,0,-1,1931,1429,7.40311,-3.83194
714,-405,7.33252,3.47388,0,0,0,0,0,0,0,-1,1938,1429,7.33255,-3.47383
721,-405,9.23523,0.993896,0,0,0,0,0,0,0,-1,1945,1429,9.23523,-0.993884
728,-405,0,0,0,0,0,0,0,0,0,-1,1952,1429,0,0
735,-405,0,0,0,0,0,0,0,0,0,-1,1959,1429,0,0
742,-405,0,0,0,0,0,0,0,0,0,-1,1966,1429,0,0
749,-405,0,0,0,0,0,0,0,0,0,-1,1973,1429,0,0
756,-405,0,0,0,0,0,0,0,0,0,-1,1980,1429,0,0
763,-405,0,0,0,0,0,0,0,0,0,-1,1987,1429,0,0
770,-405,0,0,0,0,0,0,0,0,0,-1,1994,1429,0,0
777,-405,0,0,0,0,0,0,0,0,0,-1,2001,1429,0,0
784,-405,0,0,0,0,0,0,0,0,0,-1,2008,1429,0,0
791,-405,0,0,0,0,0,0,0,0,0,-1,2015,1429,0,0
798,-405,0,0,0,0,0,0,0,0,0,-1,2022,1429,0,0
805,-405,0,0,0,0,0,0,0,0,0,-1,2029,1429,0,0
812,-405,0,0,0,0,0,0,0,0,0,-1,2036,1429,0,0
-700,-412,0,0,0,0,0,0,0,0,0,-1,524,1436,0,0
-693,-412,0,0,0,0,0,0,0,0,0,-1,531,1436,0,0
-686,-412,0,0,0,0,0,0,0,0,0,-1,538,1436,0,0
-679,-412,0,0,0,0,0,0,0,0,0,-1,545,1436,0,0
-672,-412,0,0,0,0,0,0,0,0,0,-1,552,1436,0,0
-665,-412,0,0,0,0,0,0,0,0,0,-1,559,1436,0,0
-658,-412,0,0,0,0,0,0,0,0,0,-1,566,1436,0,0
-651,-412,0,0,0,0,0,0,0,0,0,-1,573,1436,0,0
-644,-412,0,0,0,0,0,0,0,0,0,-1,580,1436,0,0
-637,-412,0,0,0,0,0,0,0,0,0,-1,587,1436,0,0
-630,-412,0,0,0,0,0,0,0,0,0,-1,594,1436,0,0
-623,-412,0,0,0,0,0,0,0,0,0,-1,601,1436,0,0
-616,-412,0,0,0,0,0,0,0,0,0,-1,608,1436,0,0
-609,-412,0,0,0,0,0,0,0,0,0,-1,615,1436,0,0
-602,-412,-3.72766,-3.50012,0,0,0,0,0,0,0,-1,622,1436,-3.72764,3.50017
-595,-412,-10.3706,0.65564,0,0,0,0,0,0,0,-1,629,1436,-10.3706,-0.655672
-588,-412,-8.17957,1.94934,0,0,0,0,0,0,0,-1,636,1436,-8.17956,-1.94939
-581,-412,-6.60065,-0.0554199,0,0,0,0,0,0,0,-1,643,1436,-6.60063,0.0554733
-574,-412,-8.34131,5.25012,0,0,0,0,0,0,0,-1,650,1436,-8.34129,-5.25012
-567,-412,-7.50354,3.65454,0,0,0,0,0,0,0,-1,657,1436,-7.50356,-3.65452
-560,-412,-8.52448,7.39014,0,0,0,0,0,0,0,-1,664,1436,-8.52447,-7.39019
-553,-412,-7.36761,6.54651,0,0,0,0,0,0,0,-1,671,1436,-7.36763,-6.54654
-546,-412,-10.7166,8.9696,0,0,0,0,0,0,0,-1,678,1436,-10.7166,-8.96965
-539,-412,-10.7109,9.48218,0.00275029,0.000882557,0.000898085,0.00311206,0.000520792,0.382934,0.00192474,0.0232117,685,1436,-10.7109,-9.48221
-532,-412,-10.7481,10.1104,0.00183871,0.000615376,0.000570395,0.0020634,0.00039069,0.375248,0.00126563,0.0139758,692,1436,-10.7481,-10.1104
-525,-412,-10.7742,10.658,0.00139155,0.000464415,0.000435546,0.00156406,0.000291905,0.377122,0.00096031,0.0148205,699,1436,-10.7743,-10.658
-518,-412,-10.781,11.1581,0.00142599,0.000595566,0.000612063,0.00175039,0.00027117,0.487362,0.00108786,0.0163961,706,1436,-10.781,-11.1581
-511,-412,-10.8185,11.6667,0.00187637,0.00106229,0.00111814,0.00265926,0.000279405,0.61084,0.00168743,0.0189694,713,1436,-10.8185,-11.6668
-504,-412,-10.8506,12.2371,0.00268827,0.00180753,0.00190238,0.00420058,0.00029522,0.671659,0.00270735,0.0188647,720,1436,-10.8507,-12.2371
-497,-412,-10.8469,12.7765,0.00399489,0.00290238,0.00307604,0.0065728,0.000324464,0.697522,0.00427781,0.0154076,727,1436,-10.8469,-12.7765
-490,-412,-10.8597,13.2913,0.00587578,0.00449916,0.00473271,0.00996997,0.00040497,0.713187,0.00651585,0.0125043,734,1436,-10.8597,-13.2913
-483,-412,-10.873,13.801,0.00838206,0.0066048,0.00694565,0.0144957,0.00049116,0.721774,0.00950431,0.00985036,741,1436,-10.873,-13.801
-476,-412,-10.697,14.561,0.011512,0.00933702,0.00977891,0.0202637,0.000585318,0.730022,0.0133183,0.0340992,748,1436,-10.697,-14.561
-469,-412,-10.5726,15.3441,0,0,0,0,0,0,0,-1,755,1436,-10.5725,-15.3441
-462,-412,-8.94659,13.3385,0,0,0,0,0,0,0,-1,762,1436,-8.94657,-13.3385
-455,-412,-8.25006,11.2572,0,0,0,0,0,0,0,-1,769,1436,-8.25007,-11.2572
-448,-412,-7.38086,8.78186,0,0,0,0,0,0,0,-1,776,1436,-7.38088,-8.78183
-441,-412,-8.79523,9.05286,0,0,0,0,0,0,0,-1,783,1436,-8.79521,-9.0529
-434,-412,-10.6305,8.03577,0,0,0,0,0,0,0,-1,790,1436,-10.6305,-8.0358
-427,-412,-10.0004,5.15271,0,0,0,0,0,0,0,-1,797,1436,-10.0004,-5.15266
-420,-412,-10.4468,4.9043,0,0,0,0,0,0,0,-1,804,1436,-10.4468,-4.90429
-413,-412,-11.5704,4.97766,0,0,0,0,0,0,0,-1,811,1436,-11.5704,-4.97771
-406,-412,-13.1968,5.70093,0,0,0,0,0,0,0,-1,818,1436,-13.1968,-5.70096
-399,-412,-10.5506,0.771973,0,0,0,0,0,0,0,-1,825,1436,-10.5506,-0.771954
-392,-412,0,0,0,0,0,0,0,0,0,-1,832,1436,0,0
-385,-412,0,0,0,0,0,0,0,0,0,-1,839,1436,0,0
-378,-412,0,0,0,0,0,0,0,0,0,-1,846,1436,0,0
-371,-412,0,0,0,0,0,0,0,0,0,-1,853,1436,0,0
-364,-412,0,0,0,0,0,0,0,0,0,-1,860,1436,0,0
-357,-412,0,0,0,0,0,0,0,0,0,-1,867,1436,0,0
-350,-412,0,0,0,0,0,0,0,0,0,-1,874,1436,0,0
-343,-412,0,0,0,0,0,0,0,0,0,-1,881,1436,0,0
-336,-412,0,0,0,0,0,0,0,0,0,-1,888,1436,0,0
-329,-412,0,0,0,0,0,0,0,0,0,-1,895,1436,0,0
-322,-412,0,0,0,0,0,0,0,0,0,-1,902,1436,0,0
-315,-412,0,0,0,0,0,0,0,0,0,-1,909,1436,0,0
-308,-412,0,0,0,0,0,0,0,0,0,-1,916,1436,0,0
-301,-412,0,0,0,0,0,0,0,0,0,-1,923,1436,0,0
-294,-412,0,0,0,0,0,0,0,0,0,-1,930,1436,0,0
-287,-412,0,0,0,0,0,0,0,0,0,-1,937,1436,0,0
-280,-412,0,0,0,0,0,0,0,0,0,-1,944,1436,0,0
-273,-412,0,0,0,0,0,0,0,0,0,-1,951,1436,0,0
-266,-412,0,0,0,0,0,0,0,0,0,-1,958,1436,0,0
-259,-412,0,0,0,0,0,0,0,0,0,-1,965,1436,0,0
-252,-412,0,0,0,0,0,0,0,0,0,-1,972,1436,0,0
-245,-412,0,0,0,0,0,0,0,0,0,-1,979,1436,0,0
-238,-412,0,0,0,0,0,0,0,0,0,-1,986,1436,0,0
-231,-412,0,0,0,0,0,0,0,0,0,-1,993,1436,0,0
-224,-412,0,0,0,0,0,0,0,0,0,-1,1000,1436,0,0
-217,-412,0,0,0,0,0,0,0,0,0,-1,1007,1436,0,0
-210,-412,0,0,0,0,0,0,0,0,0,-1,1014,1436,0,0
-203,-412,0,0,0,0,0,0,0,0,0,-1,1021,1436,0,0
-196,-412,0,0,0,0,0,0,0,0,0,-1,1028,1436,0,0
-189,-412,0,0,0,0,0,0,0,0,0,-1,1035,1436,0,0
-182,-412,0,0,0,0,0,0,0,0,0,-1,1042,1436,0,0
-175,-412,0,0,0,0,0,0,0,0,0,-1,1049,1436,0,0
-168,-412,0,0,0,0,0,0,0,0,0,-1,1056,1436,0,0
-161,-412,0,0,0,0,0,0,0,0,0,-1,1063,1436,0,0
-154,-412,0,0,0,0,0,0,0,0,0,-1,1070,1436,0,0
-147,-412,0,0,0,0,0,0,0,0,0,-1,1077,1436,0,0
-140,-412,0,0,0,0,0,0,0,0,0,-1,1084,1436,0,0
-133,-412,0,0,0,0,0,0,0,0,0,-1,1091,1436,0,0
-126,-412,0,0,0,0,0,0,0,0,0,-1,1098,1436,0,0
-119,-412,0,0,0,0,0,0,0,0,0,-1,1105,1436,0,0
-112,-412,0,0,0,0,0,0,0,0,0,-1,1112,1436,0,0
-105,-412,0,0,0,0,0,0,0,0,0,-1,1119,1436,0,0
-98,-412,0,0,0,0,0,0,0,0,0,-1,1126,1436,0,0
-91,-412,0,0,0,0,0,0,0,0,0,-1,1133,1436,0,0
-84,-412,0,0,0,0,0,0,0,0,0,-1,1140,1436,0,0
-77,-412,0,0,0,0,0,0,0,0,0,-1,1147,1436,0,0
-70,-412,0,0,0,0,0,0,0,0,0,-1,1154,1436,0,0
-63,-412,0,0,0,0,0,0,0,0,0,-1,1161,1436,0,0
-56,-412,0,0,0,0,0,0,0,0,0,-1,1168,1436,0,0
-49,-412,0,0,0,0,0,0,0,0,0,-1,1175,1436,0,0
-42,-412,0,0,0,0,0,0,0,0,0,-1,1182,1436,0,0
-35,-412,0,0,0,0,0,0,0,0,0,-1,1189,1436,0,0
-28,-412,0,0,0,0,0,0,0,0,0,-1,1196,1436,0,0
-21,-412,0,0,0,0,0,0,0,0,0,-1,1203,1436,0,0
-14,-412,0,0,0,0,0,0,0,0,0,-1,1210,1436,0,0
-7,-412,0,0,0,0,0,0,0,0,0,-1,1217,1436,0,0
0,-412,0,0,0,0,0,0,0,0,0,-1,1224,1436,0,0
7,-412,0,0,0,0,0,0,0,0,0,-1,1231,1436,0,0
14,-412,0,0,0,0,0,0,0,0,0,-1,1238,1436,0,0
21,-412,0,0,0,0,0,0,0,0,0,-1,1245,1436,0,0
28,-412,0,0,0,0,0,0,0,0,0,-1,1252,1436,0,0
35,-412,0,0,0,0,0,0,0,0,0,-1,1259,1436,0,0
42,-412,0,0,0,0,0,0,0,0,0,-1,1266,1436,0,0
49,-412,0,0,0,0,0,0,0,0,0,-1,1273,1436,0,0
56,-412,0,0,0,0,0,0,0,0,0,-1,1280,1436,0,0
63,-412,0,0,0,0,0,0,0,0,0,-1,1287,1436,0,0
70,-412,0,0,0,0,0,0,0,0,0,-1,1294,1436,0,0
77,-412,0,0,0,0,0,0,0,0,0,-1,1301,1436,0,0
84,-412,0,0,0,0,0,0,0,0,0,-1,1308,1436,0,0
91,-412,0,0,0,0,0,0,0,0,0,-1,1315,1436,0,0
98,-412,0,0,0,0,0,0,0,0,0,-1,1322,1436,0,0
105,-412,0,0,0,0,0,0,0,0,0,-1,1329,1436,0,0
112,-412,0,0,0,0,0,0,0,0,0,-1,1336,1436,0,0
119,-412,0,0,0,0,0,0,0,0,0,-1,1343,1436,0,0
126,-412,0,0,0,0,0,0,0,0,0,-1,1350,1436,0,0
133,-412,0,0,0,0,0,0,0,0,0,-1,1357,1436,0,0
140,-412,0,0,0,0,0,0,0,0,0,-1,1364,1436,0,0
147,-412,0,0,0,0,0,0,0,0,0,-1,1371,1436,0,0
154,-412,0,0,0,0,0,0,0,0,0,-1,1378,1436,0,0
161,-412,0,0,0,0,0,0,0,0,0,-1,1385,1436,0,0
168,-412,0,0,0,0,0,0,0,0,0,-1,1392,1436,0,0
175,-412,0,0,0,0,0,0,0,0,0,-1,1399,1436,0,0
182,-412,0,0,0,0,0,0,0,0,0,-1,1406,1436,0,0
189,-412,0,0,0,0,0,0,0,0,0,-1,1413,1436,0,0
196,-412,0,0,0,0,0,0,0,0,0,-1,1420,1436,0,0
203,-412,0,0,0,0,0,0,0,0,0,-1,1427,1436,0,0
210,-412,0,0,0,0,0,0,0,0,0,-1,1434,1436,0,0
217,-412,0,0,0,0,0,0,0,0,0,-1,1441,1436,0,0
224,-412,0,0,0,0,0,0,0,0,0,-1,1448,1436,0,0
231,-412,0,0,0,0,0,0,0,0,0,-1,1455,1436,0,0
238,-412,0,0,0,0,0,0,0,0,0,-1,1462,1436,0,0
245,-412,0,0,0,0,0,0,0,0,0,-1,1469,1436,0,0
252,-412,0,0,0,0,0,0,0,0,0,-1,1476,1436,0,0
259,-412,0,0,0,0,0,0,0,0,0,-1,1483,1436,0,0
266,-412,0,0,0,0,0,0,0,0,0,-1,1490,1436,0,0
273,-412,0,0,0,0,0,0,0,0,0,-1,1497,1436,0,0
280,-412,0,0,0,0,0,0,0,0,0,-1,1504,1436,0,0
287,-412,0,0,0,0,0,0,0,0,0,-1,1511,1436,0,0
294,-412,0,0,0,0,0,0,0,0,0,-1,1518,1436,0,0
301,-412,0,0,0,0,0,0,0,0,0,-1,1525,1436,0,0
308,-412,0,0,0,0,0,0,0,0,0,-1,1532,1436,0,0
315,-412,0,0,0,0,0,0,0,0,0,-1,1539,1436,0,0
322,-412,0,0,0,0,0,0,0,0,0,-1,1546,1436,0,0
329,-412,0,0,0,0,0,0,0,0,0,-1,1553,1436,0,0
336,-412,0,0,0,0,0,0,0,0,0,-1,1560,1436,0,0
343,-412,0,0,0,0,0,0,0,0,0,-1,1567,1436,0,0
350,-412,0,0,0,0,0,0,0,0,0,-1,1574,1436,0,0
357,-412,0,0,0,0,0,0,0,0,0,-1,1581,1436,0,0
364,-412,0,0,0,0,0,0,0,0,0,-1,1588,1436,0,0
371,-412,0,0,0,0,0,0,0,0,0,-1,1595,1436,0,0
378,-412,0,0,0,0,0,0,0,0,0,-1,1602,1436,0,0
385,-412,0,0,0,0,0,0,0,0,0,-1,1609,1436,0,0
392,-412,0,0,0,0,0,0,0,0,0,-1,1616,1436,0,0
399,-412,0,0,0,0,0,0,0,0,0,-1,1623,1436,0,0
406,-412,0,0,0,0,0,0,0,0,0,-1,1630,1436,0,0
413,-412,0,0,0,0,0,0,0,0,0,-1,1637,1436,0,0
420,-412,0,0,0,0,0,0,0,0,0,-1,1644,1436,0,0
427,-412,0,0,0,0,0,0,0,0,0,-1,1651,1436,0,0
434,-412,0,0,0,0,0,0,0,0,0,-1,1658,1436,0,0
441,-412,0,0,0,0,0,0,0,0,0,-1,1665,1436,0,0
448,-412,0,0,0,0,0,0,0,0,0,-1,1672,1436,0,0
455,-412,0,0,0,0,0,0,0,0,0,-1,1679,1436,0,0
462,-412,0,0,0,0,0,0,0,0,0,-1,1686,1436,0,0
469,-412,0,0,0,0,0,0,0,0,0,-1,1693,1436,0,0
476,-412,0,0,0,0,0,0,0,0,0,-1,1700,1436,0,0
483,-412,0,0,0,0,0,0,0,0,0,-1,1707,1436,0,0
490,-412,0,0,0,0,0,0,0,0,0,-1,1714,1436,0,0
497,-412,0,0,0,0,0,0,0,0,0,-1,1721,1436,0,0
504,-412,0,0,0,0,0,0,0,0,0,-1,1728,1436,0,0
511,-412,0,0,0,0,0,0,0,0,0,-1,1735,1436,0,0
518,-412,30.1038,-2.43384,0,0,0,0,0,0,0,-1,1742,1436,30.1038,2.43383
525,-412,29.5283,-1.42493,0,0,0,0,0,0,0,-1,1749,1436,29.5283,1.42495
532,-412,28.8533,-0.386597,0,0,0,0,0,0,0,-1,1756,1436,28.8533,0.386632
539,-412,25.8654,2.74683,0,0,0,0,0,0,0,-1,1763,1436,25.8654,-2.74685
546,-412,25.4265,2.4342,0,0,0,0,0,0,0,-1,1770,1436,25.4265,-2.4342
553,-412,26.3595,7.49255,0,0,0,0,0,0,0,-1,1777,1436,26.3595,-7.4925
560,-412,24.9116,7.94324,0,0,0,0,0,0,0,-1,1784,1436,24.9116,-7.94327
567,-412,23.668,7.94531,0,0,0,0,0,0,0,-1,1791,1436,23.6679,-7.94534
574,-412,23.0142,9.17236,0,0,0,0,0,0,0,-1,1798,1436,23.0141,-9.17235
581,-412,22.2615,10.0349,0,0,0,0,0,0,0,-1,1805,1436,22.2615,-10.0349
588,-412,21.6893,10.8069,0,0,0,0,0,0,0,-1,1812,1436,21.6893,-10.8069
595,-412,21.5137,14.3157,0,0,0,0,0,0,0,-1,1819,1436,21.5137,-14.3157
602,-412,25.1748,16.7292,0,0,0,0,0,0,0,-1,1826,1436,25.1748,-16.7292
609,-412,25.3325,15.9674,0.00429687,0.00449271,-0.00389573,0.00829175,0.00049783,-0.797963,0.00536959,0.0307978,1833,1436,25.3326,-15.9674
616,-412,25.3821,15.4242,0.00308989,0.00298699,-0.00271979,0.00575872,0.000318161,-0.775941,0.00373761,0.0110957,1840,1436,25.3821,-15.4242
623,-412,25.3441,14.9388,0.00218843,0.00191058,-0.0018741,0.00392875,0.000170257,-0.748401,0.0025643,0.00939075,1847,1436,25.3441,-14.9388
630,-412,25.3468,14.4248,0.00157752,0.00106371,-0.00121696,0.00256439,7.68369e-05,-0.681375,0.00168457,0.0117259,1854,1436,25.3468,-14.4247
637,-412,25.3589,13.9034,0.00109699,0.000406109,-0.000651732,0.00148917,1.39279e-05,-0.541707,0.000988168,0.0133388,1861,1436,25.3589,-13.9034
644,-412,25.3419,13.4387,0.000774254,-0.000113756,-0.000116744,0.000789346,-0.000128847,-0.128557,0.00057402,0.0145742,1868,1436,25.342,-13.4387
651,-412,25.2908,12.957,0.000588159,-0.000515718,0.000358945,0.000694611,-0.00062217,0.288305,0.000760627,0.0262805,1875,1436,25.2907,-12.957
658,-412,25.2773,12.4629,0.000417526,-0.000888903,0.000911199,0.00088546,-0.00135684,0.474418,0.00130409,0.0172417,1882,1436,25.2774,-12.4629
665,-412,25.2758,11.9893,0.00027971,-0.00129694,0.00158631,0.00126278,-0.00228001,0.554795,0.00207335,0.0206158,1889,1436,25.2757,-11.9892
672,-412,25.2841,11.4922,0.000101183,-0.00172312,0.00244088,0.00179478,-0.00341671,0.606584,0.00305704,0.0271007,1896,1436,25.2841,-11.4921
679,-412,25.3413,11.0062,-0.000195334,-0.00244406,0.00363552,0.00248572,-0.00512511,0.635427,0.00448132,0.041783,1903,1436,25.3413,-11.0063
686,-412,25.2811,10.4604,0,0,0,0,0,0,0,-1,1910,1436,25.2811,-10.4604
693,-412,11.9346,6.02344,0,0,0,0,0,0,0,-1,1917,1436,11.9346,-6.02343
700,-412,8.82764,5.8844,0,0,0,0,0,0,0,-1,1924,1436,8.82761,-5.88444
707,-412,6.59998,1.68994,0,0,0,0,0,0,0,-1,1931,1436,6.60002,-1.68995
714,-412,4.77283,-2.39832,0,0,0,0,0,0,0,-1,1938,1436,4.77288,2.39835
721,-412,0,0,0,0,0,0,0,0,0,-1,1945,1436,0,0
728,-412,0,0,0,0,0,0,0,0,0,-1,1952,1436,0,0
735,-412,0,0,0,0,0,0,0,0,0,-1,1959,1436,0,0
742,-412,0,0,0,0,0,0,0,0,0,-1,1966,1436,0,0
749,-412,0,0,0,0,0,0,0,0,0,-1,1973,1436,0,0
756,-412,0,0,0,0,0,0,0,0,0,-1,1980,1436,0,0
763,-412,0,0,0,0,0,0,0,0,0,-1,1987,1436,0,0
770,-412,0,0,0,0,0,0,0,0,0,-1,1994,1436,0,0
777,-412,0,0,0,0,0,0,0,0,0,-1,2001,1436,0,0
784,-412,0,0,0,0,0,0,0,0,0,-1,2008,1436,0,0
791,-412,0,0,0,0,0,0,0,0,0,-1,2015,1436,0,0
798,-412,0,0,0,0,0,0,0,0,0,-1,2022,1436,0,0
805,-412,0,0,0,0,0,0,0,0,0,-1,2029,1436,0,0
812,-412,0,0,0,0,0,0,0,0,0,-1,2036,1436,0,0
-700,-419,0,0,0,0,0,0,0,0,0,-1,524,1443,0,0
-693,-419,0,0,0,0,0,0,0,0,0,-1,531,1443,0,0
-686,-419,0,0,0,0,0,0,0,0,0,-1,538,1443,0,0
-679,-419,0,0,0,0,0,0,0,0,0,-1,545,1443,0,0
-672,-419,0,0,0,0,0,0,0,0,0,-1,552,1443,0,0
-665,-419,0,0,0,0,0,0,0,0,0,-1,559,1443,0,0
-658,-419,0,0,0,0,0,0,0,0,0,-1,566,1443,0,0
-651,-419,0,0,0,0,0,0,0,0,0,-1,573,1443,0,0
-644,-419,0,0,0,0,0,0,0,0,0,-1,580,1443,0,0
-637,-419,0,0,0,0,0,0,0,0,0,-1,587,1443,0,0
-630,-419,0,0,0,0,0,0,0,0,0,-1,594,1443,0,0
-623,-419,0,0,0,0,0,0,0,0,0,-1,601,1443,0,0
-616,-419,0,0,0,0,0,0,0,0,0,-1,608,1443,0,0
-609,-419,0,0,0,0,0,0,0,0,0,-1,615,1443,0,0
-602,-419,0,0,0,0,0,0,0,0,0,-1,622,1443,0,0
-595,-419,-11.4904,-0.622681,0,0,0,0,0,0,0,-1,629,1443,-11.4903,0.622714
-588,-419,-9.09369,0.742432,0,0,0,0,0,0,0,-1,636,1443,-9.09366,-0.742482
-581,-419,-6.39172,2.14673,0,0,0,0,0,0,0,-1,643,1443,-6.39175,-2.14668
-574,-419,-4.09772,3.54773,0,0,0,0,0,0,0,-1,650,1443,-4.09772,-3.54767
-567,-419,-6.14038,3.22498,0,0,0,0,0,0,0,-1,657,1443,-6.14037,-3.22497
-560,-419,-4.52814,5.22253,0,0,0,0,0,0,0,-1,664,1443,-4.52816,-5.22251
-553,-419,-5.08331,6.11829,0,0,0,0,0,0,0,-1,671,1443,-5.08331,-6.1183
-546,-419,-9.72852,9.01746,0,0,0,0,0,0,0,-1,678,1443,-9.72853,-9.01743
-539,-419,-10.1858,9.40698,0,0,0,0,0,0,0,-1,685,1443,-10.1858,-9.40696
-532,-419,-10.2276,10.0839,0.00152931,0.000821059,0.000628842,0.00189688,0.000453487,0.528962,0.00114379,0.0227881,692,1443,-10.2276,-10.0838
-525,-419,-10.2206,10.6753,0.00102254,0.000491908,0.000382239,0.00122252,0.00029193,0.482015,0.00073723,0.0135109,699,1443,-10.2206,-10.6752
-518,-419,-10.2114,11.1792,0.00101412,0.000479876,0.000463337,0.00128182,0.000212175,0.523912,0.000793335,0.0176054,706,1443,-10.2114,-11.1792
-511,-419,-10.2261,11.7153,0.0014004,0.00083,0.000858416,0.00201976,0.000210647,0.625014,0.00128207,0.0198829,713,1443,-10.2261,-11.7153
-504,-419,-10.2843,12.2606,0.00213829,0.00150392,0.00155116,0.00340436,0.000237854,0.684547,0.00219459,0.0203684,720,1443,-10.2843,-12.2606
-497,-419,-10.3176,12.7709,0.00333846,0.00251036,0.00260449,0.0055616,0.000287212,0.706569,0.0036158,0.0142402,727,1443,-10.3176,-12.7708
-490,-419,-10.3192,13.2952,0.0050487,0.00397439,0.00409575,0.00864237,0.000380722,0.720196,0.00563896,0.0105017,734,1443,-10.3192,-13.2951
-483,-419,-10.3414,13.8297,0.00733585,0.00586749,0.00608779,0.0127336,0.00046977,0.725389,0.00833687,0.00946529,741,1443,-10.3414,-13.8297
-476,-419,-10.3152,14.4025,0.0101687,0.00828021,0.00857788,0.0178542,0.000594766,0.730579,0.0117096,0.0145991,748,1443,-10.3152,-14.4025
-469,-419,-10.1879,15.1216,0.0138217,0.011265,0.0117705,0.0243831,0.00070366,0.731305,0.016026,0.0367748,755,1443,-10.1879,-15.1216
-462,-419,-9.83972,15.9315,0,0,0,0,0,0,0,-1,762,1443,-9.83975,-15.9315
-455,-419,-7.35645,11.9451,0,0,0,0,0,0,0,-1,769,1443,-7.35646,-11.9451
-448,-419,-7.49109,9.92444,0,0,0,0,0,0,0,-1,776,1443,-7.49109,-9.92442
-441,-419,-7.65527,8.75574,0,0,0,0,0,0,0,-1,783,1443,-7.65525,-8.75568
-434,-419,-11.3724,12.3643,0,0,0,0,0,0,0,-1,790,1443,-11.3724,-12.3643
-427,-419,-8.23193,7.89404,0,0,0,0,0,0,0,-1,797,1443,-8.23193,-7.89404
-420,-419,-8.74091,6.36597,0,0,0,0,0,0,0,-1,804,1443,-8.74089,-6.366
-413,-419,-9.88391,6.53955,0,0,0,0,0,0,0,-1,811,1443,-9.8839,-6.53955
-406,-419,-10.3372,2.75195,0,0,0,0,0,0,0,-1,818,1443,-10.3372,-2.75201
-399,-419,-11.5999,1.40002,0,0,0,0,0,0,0,-1,825,1443,-11.5999,-1.39998
-392,-419,0,0,0,0,0,0,0,0,0,-1,832,1443,0,0
-385,-419,0,0,0,0,0,0,0,0,0,-1,839,1443,0,0
-378,-419,0,0,0,0,0,0,0,0,0,-1,846,1443,0,0
-371,-419,0,0,0,0,0,0,0,0,0,-1,853,1443,0,0
-364,-419,0,0,0,0,0,0,0,0,0,-1,860,1443,0,0
-357,-419,0,0,0,0,0,0,0,0,0,-1,867,1443,0,0
-350,-419,0,0,0,0,0,0,0,0,0,-1,874,1443,0,0
-343,-419,0,0,0,0,0,0,0,0,0,-1,881,1443,0,0
-336,-419,0,0,0,0,0,0,0,0,0,-1,888,1443,0,0
-329,-419,0,0,0,0,0,0,0,0,0,-1,895,1443,0,0
-322,-419,0,0,0,0,0,0,0,0,0,-1,902,1443,0,0
-315,-419,0,0,0,0,0,0,0,0,0,-1,909,1443,0,0
-308,-419,0,0,0,0,0,0,0,0,0,-1,916,1443,0,0
-301,-419,0,0,0,0,0,0,0,0,0,-1,923,1443,0,0
-294,-419,0,0,0,0,0,0,0,0,0,-1,930,1443,0,0
-287,-419,0,0,0,0,0,0,0,0,0,-1,937,1443,0,0
-280,-419,0,0,0,0,0,0,0,0,0,-1,944,1443,0,0
-273,-419,0,0,0,0,0,0,0,0,0,-1,951,1443,0,0
-266,-419,0,0,0,0,0,0,0,0,0,-1,958,1443,0,0
-259,-419,0,0,0,0,0,0,0,0,0,-1,965,1443,0,0
-252,-419,0,0,0,0,0,0,0,0,0,-1,972,1443,0,0
-245,-419,0,0,0,0,0,0,0,0,0,-1,979,1443,0,0
-238,-419,0,0,0,0,0,0,0,0,0,-1,986,1443,0,0
-231,-419,0,0,0,0,0,0,0,0,0,-1,993,1443,0,0
-224,-419,0,0,0,0,0,0,0,0,0,-1,1000,1443,0,0
-217,-419,0,0,0,0,0,0,0,0,0,-1,1007,1443,0,0
-210,-419,0,0,0,0,0,0,0,0,0,-1,1014,1443,0,0
-203,-419,0,0,0,0,0,0,0,0,0,-1,1021,1443,0,0
-196,-419,0,0,0,0,0,0,0,0,0,-1,1028,1443,0,0
-189,-419,0,0,0,0,0,0,0,0,0,-1,1035,1443,0,0
-182,-419,0,0,0,0,0,0,0,0,0,-1,1042,1443,0,0
-175,-419,0,0,0,0,0,0,0,0,0,-1,1049,1443,0,0
-168,-419,0,0,0,0,0,0,0,0,0,-1,1056,1443,0,0
-161,-419,0,0,0,0,0,0,0,0,0,-1,1063,1443,0,0
-154,-419,0,0,0,0,0,0,0,0,0,-1,1070,1443,0,0
-147,-419,0,0,0,0,0,0,0,0,0,-1,1077,1443,0,0
-140,-419,0,0,0,0,0,0,0,0,0,-1,1084,1443,0,0
-133,-419,0,0,0,0,0,0,0,0,0,-1,1091,1443,0,0
-126,-419,0,0,0,0,0,0,0,0,0,-1,1098,1443,0,0
-119,-419,0,0,0,0,0,0,0,0,0,-1,1105,1443,0,0
-112,-419,0,0,0,0,0,0,0,0,0,-1,1112,1443,0,0
-105,-419,0,0,0,0,0,0,0,0,0,-1,1119,1443,0,0
-98,-419,0,0,0,0,0,0,0,0,0,-1,1126,1443,0,0
-91,-419,0,0,0,0,0,0,0,0,0,-1,1133,1443,0,0
-84,-419,0,0,0,0,0,0,0,0,0,-1,1140,1443,0,0
-77,-419,0,0,0,0,0,0,0,0,0,-1,1147,1443,0,0
-70,-419,0,0,0,0,0,0,0,0,0,-1,1154,1443,0,0
-63,-419,0,0,0,0,0,0,0,0,0,-1,1161,1443,0,0
-56,-419,0,0,0,0,0,0,0,0,0,-1,1168,1443,0,0
-49,-419,0,0,0,0,0,0,0,0,0,-1,1175,1443,0,0
-42,-419,0,0,0,0,0,0,0,0,0,-1,1182,1443,0,0
-35,-419,0,0,0,0,0,0,0,0,0,-1,1189,1443,0,0
-28,-419,0,0,0,0,0,0,0,0,0,-1,1196,1443,0,0
-21,-419,0,0,0,0,0,0,0,0,0,-1,1203,1443,0,0
-14,-419,0,0,0,0,0,0,0,0,0,-1,1210,1443,0,0
-7,-419,0,0,0,0,0,0,0,0,0,-1,1217,1443,0,0
0,-419,0,0,0,0,0,0,0,0,0,-1,1224,1443,0,0
7,-419,0,0,0,0,0,0,0,0,0,-1,1231,1443,0,0
14,-419,0,0,0,0,0,0,0,0,0,-1,1238,1443,0,0
21,-419,0,0,0,0,0,0,0,0,0,-1,1245,1443,0,0
28,-419,0,0,0,0,0,0,0,0,0,-1,1252,1443,0,0
35,-419,0,0,0,0,0,0,0,0,0,-1,1259,1443,0,0
42,-419,0,0,0,0,0,0,0,0,0,-1,1266,1443,0,0
49,-419,0,0,0,0,0,0,0,0,0,-1,1273,1443,0,0
56,-419,0,0,0,0,0,0,0,0,0,-1,1280,1443,0,0
63,-419,0,0,0,0,0,0,0,0,0,-1,1287,1443,0,0
70,-419,0,0,0,0,0,0,0,0,0,-1,1294,1443,0,0
77,-419,0,0,0,0,0,0,0,0,0,-1,1301,1443,0,0
84,-419,0,0,0,0,0,0,0,0,0,-1,1308,1443,0,0
91,-419,0,0,0,0,0,0,0,0,0,-1,1315,1443,0,0
98,-419,0,0,0,0,0,0,0,0,0,-1,1322,1443,0,0
105,-419,0,0,0,0,0,0,0,0,0,-1,1329,1443,0,0
112,-419,0,0,0,0,0,0,0,0,0,-1,1336,1443,0,0
119,-419,0,0,0,0,0,0,0,0,0,-1,1343,1443,0,0
126,-419,0,0,0,0,0,0,0,0,0,-1,1350,1443,0,0
133,-419,0,0,0,0,0,0,0,0,0,-1,1357,1443,0,0
140,-419,0,0,0,0,0,0,0,0,0,-1,1364,1443,0,0
147,-419,0,0,0,0,0,0,0,0,0,-1,1371,1443,0,0
154,-419,0,0,0,0,0,0,0,0,0,-1,1378,1443,0,0
161,-419,0,0,0,0,0,0,0,0,0,-1,1385,1443,0,0
168,-419,0,0,0,0,0,0,0,0,0,-1,1392,1443,0,0
175,-419,0,0,0,0,0,0,0,0,0,-1,1399,1443,0,0
182,-419,0,0,0,0,0,0,0,0,0,-1,1406,1443,0,0
189,-419,0,0,0,0,0,0,0,0,0,-1,1413,1443,0,0
196,-419,0,0,0,0,0,0,0,0,0,-1,1420,1443,0,0
203,-419,0,0,0,0,0,0,0,0,0,-1,1427,1443,0,0
210,-419,0,0,0,0,0,0,0,0,0,-1,1434,1443,0,0
217,-419,0,0,0,0,0,0,0,0,0,-1,1441,1443,0,0
224,-419,0,0,0,0,0,0,0,0,0,-1,1448,1443,0,0
231,-419,0,0,0,0,0,0,0,0,0,-1,1455,1443,0,0
238,-419,0,0,0,0,0,0,0,0,0,-1,1462,1443,0,0
245,-419,0,0,0,0,0,0,0,0,0,-1,1469,1443,0,0
252,-419,0,0,0,0,0,0,0,0,0,-1,1476,1443,0,0
259,-419,0,0,0,0,0,0,0,0,0,-1,1483,1443,0,0
266,-419,0,0,0,0,0,0,0,0,0,-1,1490,1443,0,0
273,-419,0,0,0,0,0,0,0,0,0,-1,1497,1443,0,0
280,-419,0,0,0,0,0,0,0,0,0,-1,1504,1443,0,0
287,-419,0,0,0,0,0,0,0,0,0,-1,1511,1443,0,0
294,-419,0,0,0,0,0,0,0,0,0,-1,1518,1443,0,0
301,-419,0,0,0,0,0,0,0,0,0,-1,1525,1443,0,0
308,-419,0,0,0,0,0,0,0,0,0,-1,1532,1443,0,0
315,-419,0,0,0,0,0,0,0,0,0,-1,1539,1443,0,0
322,-419,0,0,0,0,0,0,0,0,0,-1,1546,1443,0,0
329,-419,0,0,0,0,0,0,0,0,0,-1,1553,1443,0,0
336,-419,0,0,0,0,0,0,0,0,0,-1,1560,1443,0,0
343,-419,0,0,0,0,0,0,0,0,0,-1,1567,1443,0,0
350,-419,0,0,0,0,0,0,0,0,0,-1,1574,1443,0,0
357,-419,0,0,0,0,0,0,0,0,0,-1,1581,1443,0,0
364,-419,0,0,0,0,0,0,0,0,0,-1,1588,1443,0,0
371,-419,0,0,0,0,0,0,0,0,0,-1,1595,1443,0,0
378,-419,0,0,0,0,0,0,0,0,0,-1,1602,1443,0,0
385,-419,0,0,0,0,0,0,0,0,0,-1,1609,1443,0,0
392,-419,0,0,0,0,0,0,0,0,0,-1,1616,1443,0,0
399,-419,0,0,0,0,0,0,0,0,0,-1,1623,1443,0,0
406,-419,0,0,0,0,0,0,0,0,0,-1,1630,1443,0,0
413,-419,0,0,0,0,0,0,0,0,0,-1,1637,1443,0,0
420,-419,0,0,0,0,0,0,0,0,0,-1,1644,1443,0,0
427,-419,0,0,0,0,0,0,0,0,0,-1,1651,1443,0,0
434,-419,0,0,0,0,0,0,0,0,0,-1,1658,1443,0,0
441,-419,0,0,0,0,0,0,0,0,0,-1,1665,1443,0,0
448,-419,0,0,0,0,0,0,0,0,0,-1,1672,1443,0,0
455,-419,0,0,0,0,0,0,0,0,0,-1,1679,1443,0,0
462,-419,0,0,0,0,0,0,0,0,0,-1,1686,1443,0,0
469,-419,0,0,0,0,0,0,0,0,0,-1,1693,1443,0,0
476,-419,0,0,0,0,0,0,0,0,0,-1,1700,1443,0,0
483,-419,0,0,0,0,0,0,0,0,0,-1,1707,1443,0,0
490,-419,0,0,0,0,0,0,0,0,0,-1,1714,1443,0,0
497,-419,0,0,0,0,0,0,0,0,0,-1,1721,1443,0,0
504,-419,0,0,0,0,0,0,0,0,0,-1,1728,1443,0,0
511,-419,20.3005,3.7959,0,0,0,0,0,0,0,-1,1735,1443,20.3005,-3.79584
518,-419,21.3154,2.03027,0,0,0,0,0,0,0,-1,1742,1443,21.3155,-2.03029
525,-419,28.3439,-1.24475,0,0,0,0,0,0,0,-1,1749,1443,28.3438,1.24471
532,-419,27.5902,-0.272583,0,0,0,0,0,0,0,-1,1756,1443,27.5902,0.272526
539,-419,26.5278,1.60583,0,0,0,0,0,0,0,-1,1763,1443,26.5279,-1.60579
546,-419,24.9509,2.77539,0,0,0,0,0,0,0,-1,1770,1443,24.9509,-2.77537
553,-419,24.118,3.75525,0,0,0,0,0,0,0,-1,1777,1443,24.1181,-3.75526
560,-419,11.8199,8.26343,0,0,0,0,0,0,0,-1,1784,1443,11.82,-8.26341
567,-419,21.5143,8.74719,0,0,0,0,0,0,0,-1,1791,1443,21.5143,-8.74722
574,-419,19.5886,6.46155,0,0,0,0,0,0,0,-1,1798,1443,19.5886,-6.46157
581,-419,20.7926,11.4265,0,0,0,0,0,0,0,-1,1805,1443,20.7926,-11.4265
588,-419,19.4242,12.5363,0,0,0,0,0,0,0,-1,1812,1443,19.4242,-12.5362
595,-419,22.9375,16.0151,0,0,0,0,0,0,0,-1,1819,1443,22.9375,-16.0152
602,-419,24.9141,16.4795,0,0,0,0,0,0,0,-1,1826,1443,24.9141,-16.4795
609,-419,24.9137,15.9363,0.00377321,0.00372709,-0.00332773,0.00707797,0.00042234,-0.781933,0.00458435,0.0191676,1833,1443,24.9137,-15.9363
616,-419,24.8955,15.4635,0.00280264,0.0025441,-0.00238878,0.00506564,0.0002811,-0.758367,0.0032874,0.0117247,1840,1443,24.8955,-15.4635
623,-419,24.8749,14.9773,0.00205356,0.0016176,-0.00164406,0.00349403,0.000177128,-0.71949,0.00227261,0.00985223,1847,1443,24.8748,-14.9773
630,-419,24.8815,14.463,0.001526,0.000838357,-0.0010434,0.00228076,8.35937e-05,-0.62624,0.00149342,0.0126314,1854,1443,24.8814,-14.463
637,-419,24.8624,13.9659,0.00106558,0.000207159,-0.000484876,0.00128392,-1.11847e-05,-0.423111,0.000859702,0.0140908,1861,1443,24.8625,-13.966
644,-419,24.8411,13.4933,0.000747374,-0.000313872,4.70825e-05,0.000749458,-0.000315957,0.0442494,0.000631862,0.0125833,1868,1443,24.8411,-13.4933
651,-419,24.8187,13.0256,0.000546841,-0.000704922,0.000505619,0.000725558,-0.000883639,0.339755,0.000930563,0.0122631,1875,1443,24.8187,-13.0256
658,-419,24.7898,12.5065,0.000368413,-0.00107275,0.00103104,0.000905723,-0.00161006,0.48041,0.00147134,0.0130222,1882,1443,24.7898,-12.5065
665,-419,24.7826,12.0134,0.000190456,-0.00146706,0.00169426,0.00124779,-0.00252439,0.557931,0.00221906,0.0190174,1889,1443,24.7826,-12.0134
672,-419,24.8064,11.4755,-9.11199e-05,-0.00184439,0.00254729,0.00172616,-0.00366167,0.619674,0.00317687,0.0282977,1896,1443,24.8064,-11.4754
679,-419,24.837,10.8849,0,0,0,0,0,0,0,-1,1903,1443,24.837,-10.8849
686,-419,17.4127,8.03076,0,0,0,0,0,0,0,-1,1910,1443,17.4127,-8.03071
693,-419,8.76086,5.60535,0,0,0,0,0,0,0,-1,1917,1443,8.76091,-5.6054
700,-419,11.0498,4.85156,0,0,0,0,0,0,0,-1,1924,1443,11.0498,-4.85153
707,-419,9.5752,1.80042,0,0,0,0,0,0,0,-1,1931,1443,9.57523,-1.80037
714,-419,5.77576,-1.25061,0,0,0,0,0,0,0,-1,1938,1443,5.7757,1.25056
721,-419,0,0,0,0,0,0,0,0,0,-1,1945,1443,0,0
728,-419,0,0,0,0,0,0,0,0,0,-1,1952,1443,0,0
735,-419,0,0,0,0,0,0,0,0,0,-1,1959,1443,0,0
742,-419,0,0,0,0,0,0,0,0,0,-1,1966,1443,0,0
749,-419,0,0,0,0,0,0,0,0,0,-1,1973,1443,0,0
756,-419,0,0,0,0,0,0,0,0,0,-1,1980,1443,0,0
763,-419,0,0,0,0,0,0,0,0,0,-1,1987,1443,0,0
770,-419,0,0,0,0,0,0,0,0,0,-1,1994,1443,0,0
777,-419,0,0,0,0,0,0,0,0,0,-1,2001,1443,0,0
784,-419,0,0,0,0,0,0,0,0,0,-1,2008,1443,0,0
791,-419,0,0,0,0,0,0,0,0,0,-1,2015,1443,0,0
798,-419,0,0,0,0,0,0,0,0,0,-1,2022,1443,0,0
805,-419,0,0,0,0,0,0,0,0,0,-1,2029,1443,0,0
812,-419,0,0,0,0,0,0,0,0,0,-1,2036,1443,0,0
-700,-426,0,0,0,0,0,0,0,0,0,-1,524,1450,0,0
-693,-426,0,0,0,0,0,0,0,0,0,-1,531,1450,0,0
-686,-426,0,0,0,0,0,0,0,0,0,-1,538,1450,0,0
-679,-426,0,0,0,0,0,0,0,0,0,-1,545,1450,0,0
-672,-426,0,0,0,0,0,0,0,0,0,-1,552,1450,0,0
-665,-426,0,0,0,0,0,0,0,0,0,-1,559,1450,0,0
-658,-426,0,0,0,0,0,0,0,0,0,-1,566,1450,0,0
-651,-426,0,0,0,0,0,0,0,0,0,-1,573,1450,0,0
-644,-426,0,0,0,0,0,0,0,0,0,-1,580,1450,0,0
-637,-426,0,0,0,0,0,0,0,0,0,-1,587,1450,0,0
-630,-426,0,0,0,0,0,0,0,0,0,-1,594,1450,0,0
-623,-426,0,0,0,0,0,0,0,0,0,-1,601,1450,0,0
-616,-426,0,0,0,0,0,0,0,0,0,-1,608,1450,0,0
-609,-426,0,0,0,0,0,0,0,0,0,-1,615,1450,0,0
-602,-426,0,0,0,0,0,0,0,0,0,-1,622,1450,0,0
-595,-426,0,0,0,0,0,0,0,0,0,-1,629,1450,0,0
-588,-426,-10.184,-0.554321,0,0,0,0,0,0,0,-1,636,1450,-10.184,0.554321
-581,-426,-7.3349,1.48157,0,0,0,0,0,0,0,-1,643,1450,-7.33491,-1.48152
-574,-426,-5.02856,2.89319,0,0,0,0,0,0,0,-1,650,1450,-5.02858,-2.89319
-567,-426,-3.04797,1.72644,0,0,0,0,0,0,0,-1,657,1450,-3.04797,-1.72639
-560,-426,-5.55682,3.44397,0,0,0,0,0,0,0,-1,664,1450,-5.55684,-3.44399
-553,-426,-4.67017,6.66614,0,0,0,0,0,0,0,-1,671,1450,-4.67015,-6.66619
-546,-426,-7.58752,8.28882,0,0,0,0,0,0,0,-1,678,1450,-7.58752,-8.28878
-539,-426,-9.2796,9.68896,0,0,0,0,0,0,0,-1,685,1450,-9.27963,-9.689
-532,-426,-9.56671,10.1365,0.00126129,0.000975244,0.000675533,0.00180877,0.000427758,0.681081,0.00109157,0.0457593,692,1450,-9.56671,-10.1365
-525,-426,-9.71027,10.6237,0.000737856,0.000453318,0.000338331,0.000962614,0.00022856,0.586371,0.000580747,0.0184719,699,1450,-9.71027,-10.6237
-518,-426,-9.69659,11.1993,0.00069584,0.000284672,0.000324638,0.000874514,0.000105997,0.503135,0.000551085,0.0166061,706,1450,-9.6966,-11.1993
-511,-426,-9.72717,11.7507,0.000999023,0.000507714,0.000595615,0.00139765,0.000109084,0.589807,0.00089762,0.0163865,713,1450,-9.72716,-11.7507
-504,-426,-9.7561,12.2603,0.00163755,0.00109502,0.001188,0.00258486,0.000147708,0.673154,0.00167618,0.0160418,720,1450,-9.75608,-12.2603
-497,-426,-9.7702,12.7793,0.0026888,0.00200488,0.00210676,0.00448117,0.000212513,0.704942,0.00291919,0.0122638,727,1450,-9.77018,-12.7793
-490,-426,-9.78467,13.324,0.00419945,0.00333561,0.00342698,0.00722162,0.000313439,0.722711,0.00471341,0.0112495,734,1450,-9.78465,-13.324
-483,-426,-9.80316,13.8528,0.00624106,0.00502918,0.00519079,0.0108612,0.000409084,0.727294,0.00710834,0.0115206,741,1450,-9.80318,-13.8528
-476,-426,-9.81055,14.3832,0.00877102,0.00715333,0.0073737,0.0153801,0.000544247,0.73077,0.0100769,0.00956599,748,1450,-9.81052,-14.3832
-469,-426,-9.82336,14.9048,0.011985,0.00964394,0.010112,0.020994,0.000634979,0.727775,0.0137892,0.00999251,755,1450,-9.82336,-14.9048
-462,-426,-9.58929,15.6842,0.0161072,0.0128287,0.013604,0.0281704,0.000765504,0.725438,0.0185304,0.0442369,762,1450,-9.58932,-15.6842
-455,-426,-9.29816,16.5527,0,0,0,0,0,0,0,-1,769,1450,-9.29815,-16.5527
-448,-426,-6.46545,10.1322,0,0,0,0,0,0,0,-1,776,1450,-6.46543,-10.1322
-441,-426,-10.9547,11.4747,0,0,0,0,0,0,0,-1,783,1450,-10.9546,-11.4748
-434,-426,-10.4998,13.6189,0,0,0,0,0,0,0,-1,790,1450,-10.4997,-13.6189
-427,-426,-9.36627,13.7396,0,0,0,0,0,0,0,-1,797,1450,-9.36628,-13.7396
-420,-426,-5.33765,7.95044,0,0,0,0,0,0,0,-1,804,1450,-5.33766,-7.95041
-413,-426,-10.1148,5.0415,0,0,0,0,0,0,0,-1,811,1450,-10.1148,-5.04152
-406,-426,-11.4199,3.6438,0,0,0,0,0,0,0,-1,818,1450,-11.4198,-3.64382
-399,-426,-12.7595,2.29004,0,0,0,0,0,0,0,-1,825,1450,-12.7595,-2.29003
-392,-426,-12.4147,0.537354,0,0,0,0,0,0,0,-1,832,1450,-12.4147,-0.53731
-385,-426,0,0,0,0,0,0,0,0,0,-1,839,1450,0,0
-378,-426,0,0,0,0,0,0,0,0,0,-1,846,1450,0,0
-371,-426,0,0,0,0,0,0,0,0,0,-1,853,1450,0,0
-364,-426,0,0,0,0,0,0,0,0,0,-1,860,1450,0,0
-357,-426,0,0,0,0,0,0,0,0,0,-1,867,1450,0,0
-350,-426,0,0,0,0,0,0,0,0,0,-1,874,1450,0,0
-343,-426,0,0,0,0,0,0,0,0,0,-1,881,1450,0,0
-336,-426,0,0,0,0,0,0,0,0,0,-1,888,1450,0,0
-329,-426,0,0,0,0,0,0,0,0,0,-1,895,1450,0,0
-322,-426,0,0,0,0,0,0,0,0,0,-1,902,1450,0,0
-315,-426,0,0,0,0,0,0,0,0,0,-1,909,1450,0,0
-308,-426,0,0,0,0,0,0,0,0,0,-1,916,1450,0,0
-301,-426,0,0,0,0,0,0,0,0,0,-1,923,1450,0,0
-294,-426,0,0,0,0,0,0,0,0,0,-1,930,1450,0,0
-287,-426,0,0,0,0,0,0,0,0,0,-1,937,1450,0,0
-280,-426,0,0,0,0,0,0,0,0,0,-1,944,1450,0,0
-273,-426,0,0,0,0,0,0,0,0,0,-1,951,1450,0,0
-266,-426,0,0,0,0,0,0,0,0,0,-1,958,1450,0,0
-259,-426,0,0,0,0,0,0,0,0,0,-1,965,1450,0,0
-252,-426,0,0,0,0,0,0,0,0,0,-1,972,1450,0,0
-245,-426,0,0,0,0,0,0,0,0,0,-1,979,1450,0,0
-238,-426,0,0,0,0,0,0,0,0,0,-1,986,1450,0,0
-231,-426,0,0,0,0,0,0,0,0,0,-1,993,1450,0,0
-224,-426,0,0,0,0,0,0,0,0,0,-1,1000,1450,0,0
-217,-426,0,0,0,0,0,0,0,0,0,-1,1007,1450,0,0
-210,-426,0,0,0,0,0,0,0,0,0,-1,1014,1450,0,0
-203,-426,0,0,0,0,0,0,0,0,0,-1,1021,1450,0,0
-196,-426,0,0,0,0,0,0,0,0,0,-1,1028,1450,0,0
-189,-426,0,0,0,0,0,0,0,0,0,-1,1035,1450,0,0
-182,-426,0,0,0,0,0,0,0,0,0,-1,1042,1450,0,0
-175,-426,0,0,0,0,0,0,0,0,0,-1,1049,1450,0,0
-168,-426,0,0,0,0,0,0,0,0,0,-1,1056,1450,0,0
-161,-426,0,0,0,0,0,0,0,0,0,-1,1063,1450,0,0
-154,-426,0,0,0,0,0,0,0,0,0,-1,1070,1450,0,0
-147,-426,0,0,0,0,0,0,0,0,0,-1,1077,1450,0,0
-140,-426,0,0,0,0,0,0,0,0,0,-1,1084,1450,0,0
-133,-426,0,0,0,0,0,0,0,0,0,-1,1091,1450,0,0
-126,-426,0,0,0,0,0,0,0,0,0,-1,1098,1450,0,0
-119,-426,0,0,0,0,0,0,0,0,0,-1,1105,1450,0,0
-112,-426,0,0,0,0,0,0,0,0,0,-1,1112,1450,0,0
-105,-426,0,0,0,0,0,0,0,0,0,-1,1119,1450,0,0
-98,-426,0,0,0,0,0,0,0,0,0,-1,1126,1450,0,0
-91,-426,0,0,0,0,0,0,0,0,0,-1,1133,1450,0,0
-84,-426,0,0,0,0,0,0,0,0,0,-1,1140,1450,0,0
-77,-426,0,0,0,0,0,0,0,0,0,-1,1147,1450,0,0
-70,-426,0,0,0,0,0,0,0,0,0,-1,1154,1450,0,0
-63,-426,0,0,0,0,0,0,0,0,0,-1,1161,1450,0,0
-56,-426,0,0,0,0,0,0,0,0,0,-1,1168,1450,0,0
-49,-426,0,0,0,0,0,0,0,0,0,-1,1175,1450,0,0
-42,-426,0,0,0,0,0,0,0,0,0,-1,1182,1450,0,0
-35,-426,0,0,0,0,0,0,0,0,0,-1,1189,1450,0,0
-28,-426,0,0,0,0,0,0,0,0,0,-1,1196,1450,0,0
-21,-426,0,0,0,0,0,0,0,0,0,-1,1203,1450,0,0
-14,-426,0,0,0,0,0,0,0,0,0,-1,1210,1450,0,0
-7,-426,0,0,0,0,0,0,0,0,0,-1,1217,1450,0,0
0,-426,0,0,0,0,0,0,0,0,0,-1,1224,1450,0,0
7,-426,0,0,0,0,0,0,0,0,0,-1,1231,1450,0,0
14,-426,0,0,0,0,0,0,0,0,0,-1,1238,1450,0,0
21,-426,0,0,0,0,0,0,0,0,0,-1,1245,1450,0,0
28,-426,0,0,0,0,0,0,0,0,0,-1,1252,1450,0,0
35,-426,0,0,0,0,0,0,0,0,0,-1,1259,1450,0,0
42,-426,0,0,0,0,0,0,0,0,0,-1,1266,1450,0,0
49,-426,0,0,0,0,0,0,0,0,0,-1,1273,1450,0,0
56,-426,0,0,0,0,0,0,0,0,0,-1,1280,1450,0,0
63,-426,0,0,0,0,0,0,0,0,0,-1,1287,1450,0,0
70,-426,0,0,0,0,0,0,0,0,0,-1,1294,1450,0,0
77,-426,0,0,0,0,0,0,0,0,0,-1,1301,1450,0,0
84,-426,0,0,0,0,0,0,0,0,0,-1,1308,1450,0,0
91,-426,0,0,0,0,0,0,0,0,0,-1,1315,1450,0,0
98,-426,0,0,0,0,0,0,0,0,0,-1,1322,1450,0,0
105,-426,0,0,0,0,0,0,0,0,0,-1,1329,1450,0,0
112,-426,0,0,0,0,0,0,0,0,0,-1,1336,1450,0,0
119,-426,0,0,0,0,0,0,0,0,0,-1,1343,1450,0,0
126,-426,0,0,0,0,0,0,0,0,0,-1,1350,1450,0,0
133,-426,0,0,0,0,0,0,0,0,0,-1,1357,1450,0,0
140,-426,0,0,0,0,0,0,0,0,0,-1,1364,1450,0,0
147,-426,0,0,0,0,0,0,0,0,0,-1,1371,1450,0,0
154,-426,0,0,0,0,0,0,0,0,0,-1,1378,1450,0,0
161,-426,0,0,0,0,0,0,0,0,0,-1,1385,1450,0,0
168,-426,0,0,0,0,0,0,0,0,0,-1,1392,1450,0,0
175,-426,0,0,0,0,0,0,0,0,0,-1,1399,1450,0,0
182,-426,0,0,0,0,0,0,0,0,0,-1,1406,1450,0,0
189,-426,0,0,0,0,0,0,0,0,0,-1,1413,1450,0,0
196,-426,0,0,0,0,0,0,0,0,0,-1,1420,1450,0,0
203,-426,0,0,0,0,0,0,0,0,0,-1,1427,1450,0,0
210,-426,0,0,0,0,0,0,0,0,0,-1,1434,1450,0,0
217,-426,0,0,0,0,0,0,0,0,0,-1,1441,1450,0,0
224,-426,0,0,0,0,0,0,0,0,0,-1,1448,1450,0,0
231,-426,0,0,0,0,0,0,0,0,0,-1,1455,1450,0,0
238,-426,0,0,0,0,0,0,0,0,0,-1,1462,1450,0,0
245,-426,0,0,0,0,0,0,0,0,0,-1,1469,1450,0,0
252,-426,0,0,0,0,0,0,0,0,0,-1,1476,1450,0,0
259,-426,0,0,0,0,0,0,0,0,0,-1,1483,1450,0,0
266,-426,0,0,0,0,0,0,0,0,0,-1,1490,1450,0,0
273,-426,0,0,0,0,0,0,0,0,0,-1,1497,1450,0,0
280,-426,0,0,0,0,0,0,0,0,0,-1,1504,1450,0,0
287,-426,0,0,0,0,0,0,0,0,0,-1,1511,1450,0,0
294,-426,0,0,0,0,0,0,0,0,0,-1,1518,1450,0,0
301,-426,0,0,0,0,0,0,0,0,0,-1,1525,1450,0,0
308,-426,0,0,0,0,0,0,0,0,0,-1,1532,1450,0,0
315,-426,0,0,0,0,0,0,0,0,0,-1,1539,1450,0,0
322,-426,0,0,0,0,0,0,0,0,0,-1,1546,1450,0,0
329,-426,0,0,0,0,0,0,0,0,0,-1,1553,1450,0,0
336,-426,0,0,0,0,0,0,0,0,0,-1,1560,1450,0,0
343,-426,0,0,0,0,0,0,0,0,0,-1,1567,1450,0,0
350,-426,0,0,0,0,0,0,0,0,0,-1,1574,1450,0,0
357,-426,0,0,0,0,0,0,0,0,0,-1,1581,1450,0,0
364,-426,0,0,0,0,0,0,0,0,0,-1,1588,1450,0,0
371,-426,0,0,0,0,0,0,0,0,0,-1,1595,1450,0,0
378,-426,0,0,0,0,0,0,0,0,0,-1,1602,1450,0,0
385,-426,0,0,0,0,0,0,0,0,0,-1,1609,1450,0,0
392,-426,0,0,0,0,0,0,0,0,0,-1,1616,1450,0,0
399,-426,0,0,0,0,0,0,0,0,0,-1,1623,1450,0,0
406,-426,0,0,0,0,0,0,0,0,0,-1,1630,1450,0,0
413,-426,0,0,0,0,0,0,0,0,0,-1,1637,1450,0,0
420,-426,0,0,0,0,0,0,0,0,0,-1,1644,1450,0,0
427,-426,0,0,0,0,0,0,0,0,0,-1,1651,1450,0,0
434,-426,0,0,0,0,0,0,0,0,0,-1,1658,1450,0,0
441,-426,0,0,0,0,0,0,0,0,0,-1,1665,1450,0,0
448,-426,0,0,0,0,0,0,0,0,0,-1,1672,1450,0,0
455,-426,0,0,0,0,0,0,0,0,0,-1,1679,1450,0,0
462,-426,0,0,0,0,0,0,0,0,0,-1,1686,1450,0,0
469,-426,0,0,0,0,0,0,0,0,0,-1,1693,1450,0,0
476,-426,0,0,0,0,0,0,0,0,0,-1,1700,1450,0,0
483,-426,0,0,0,0,0,0,0,0,0,-1,1707,1450,0,0
490,-426,0,0,0,0,0,0,0,0,0,-1,1714,1450,0,0
497,-426,0,0,0,0,0,0,0,0,0,-1,1721,1450,0,0
504,-426,20.6873,3.38367,0,0,0,0,0,0,0,-1,1728,1450,20.6873,-3.38361
511,-426,19.6676,3.53748,0,0,0,0,0,0,0,-1,1735,1450,19.6676,-3.53749
518,-426,18.6853,3.32288,0,0,0,0,0,0,0,-1,1742,1450,18.6853,-3.3229
525,-426,18.9552,2.71033,0,0,0,0,0,0,0,-1,1749,1450,18.9552,-2.71034
532,-426,19.4333,2.70764,0,0,0,0,0,0,0,-1,1756,1450,19.4334,-2.70764
539,-426,25.1482,2.56287,0,0,0,0,0,0,0,-1,1763,1450,25.1482,-2.56286
546,-426,24.1136,3.75659,0,0,0,0,0,0,0,-1,1770,1450,24.1136,-3.7566
553,-426,23.0791,4.95032,0,0,0,0,0,0,0,-1,1777,1450,23.0791,-4.95034
560,-426,12.9688,11.8289,0,0,0,0,0,0,0,-1,1784,1450,12.9688,-11.8288
567,-426,13.6388,11.5623,0,0,0,0,0,0,0,-1,1791,1450,13.6388,-11.5623
574,-426,14.3943,11.0286,0,0,0,0,0,0,0,-1,1798,1450,14.3942,-11.0285
581,-426,16.3879,11.4653,0,0,0,0,0,0,0,-1,1805,1450,16.3879,-11.4653
588,-426,18.1212,12.5547,0,0,0,0,0,0,0,-1,1812,1450,18.1212,-12.5547
595,-426,24.2341,16.9591,0,0,0,0,0,0,0,-1,1819,1450,24.2341,-16.9591
602,-426,24.3527,16.4561,0.0043473,0.00421182,-0.00370977,0.00798996,0.000569174,-0.776269,0.00514741,0.0351008,1826,1450,24.3527,-16.4561
609,-426,24.4227,15.9385,0.00345675,0.00311551,-0.00283289,0.00612416,0.000448102,-0.75532,0.0039419,0.0137704,1833,1450,24.4228,-15.9385
616,-426,24.4165,15.4639,0.00258814,0.00211165,-0.00204212,0.00440586,0.000293927,-0.727328,0.00284433,0.0143738,1840,1450,24.4166,-15.4638
623,-426,24.4054,14.9811,0.00194543,0.00127709,-0.00138869,0.00303959,0.000182927,-0.667324,0.00196825,0.0125036,1847,1450,24.4054,-14.9811
630,-426,24.4058,14.4796,0.00149339,0.000543647,-0.000854288,0.00199592,4.11186e-05,-0.53173,0.00131712,0.0134756,1854,1450,24.4058,-14.4796
637,-426,24.3905,14.0101,0.00106443,-6.45556e-05,-0.000332206,0.00115493,-0.000155054,-0.265962,0.000826498,0.0141484,1861,1450,24.3905,-14.0101
644,-426,24.3424,13.5278,0.000754198,-0.000577679,0.000171014,0.000775806,-0.000599287,0.125685,0.000796088,0.0135002,1868,1450,24.3424,-13.5278
651,-426,24.3052,13.0332,0.000532467,-0.000953563,0.000599648,0.000744255,-0.00116535,0.339511,0.00111141,0.0126961,1875,1450,24.3052,-13.0332
658,-426,24.3159,12.499,0.000349541,-0.00131224,0.00108601,0.000886059,-0.00184875,0.458856,0.00161122,0.0118223,1882,1450,24.316,-12.499
665,-426,24.344,11.9529,0.000124466,-0.00167836,0.00173003,0.00117383,-0.00272773,0.545229,0.00231135,0.022099,1889,1450,24.344,-11.9529
672,-426,24.411,11.4684,0,0,0,0,0,0,0,-1,1896,1450,24.411,-11.4683
679,-426,17.1522,8.15784,0,0,0,0,0,0,0,-1,1903,1450,17.1522,-8.15784
686,-426,13.5326,8.03711,0,0,0,0,0,0,0,-1,1910,1450,13.5326,-8.03717
693,-426,11.8607,6.45215,0,0,0,0,0,0,0,-1,1917,1450,11.8607,-6.45215
700,-426,9.24304,2.95447,0,0,0,0,0,0,0,-1,1924,1450,9.24305,-2.95442
707,-426,8.44519,-1.21448,0,0,0,0,0,0,0,-1,1931,1450,8.44514,1.21454
714,-426,0,0,0,0,0,0,0,0,0,-1,1938,1450,0,0
721,-426,0,0,0,0,0,0,0,0,0,-1,1945,1450,0,0
728,-426,0,0,0,0,0,0,0,0,0,-1,1952,1450,0,0
735,-426,0,0,0,0,0,0,0,0,0,-1,1959,1450,0,0
742,-426,0,0,0,0,0,0,0,0,0,-1,1966,1450,0,0
749,-426,0,0,0,0,0,0,0,0,0,-1,1973,1450,0,0
756,-426,0,0,0,0,0,0,0,0,0,-1,1980,1450,0,0
763,-426,0,0,0,0,0,0,0,0,0,-1,1987,1450,0,0
770,-426,0,0,0,0,0,0,0,0,0,-1,1994,1450,0,0
777,-426,0,0,0,0,0,0,0,0,0,-1,2001,1450,0,0
784,-426,0,0,0,0,0,0,0,0,0,-1,2008,1450,0,0
791,-426,0,0,0,0,0,0,0,0,0,-1,2015,1450,0,0
798,-426,0,0,0,0,0,0,0,0,0,-1,2022,1450,0,0
805,-426,0,0,0,0,0,0,0,0,0,-1,2029,1450,0,0
812,-426,0,0,0,0,0,0,0,0,0,-1,2036,1450,0,0
-700,-433,0,0,0,0,0,0,0,0,0,-1,524,1457,0,0
-693,-433,0,0,0,0,0,0,0,0,0,-1,531,1457,0,0
-686,-433,0,0,0,0,0,0,0,0,0,-1,538,1457,0,0
-679,-433,0,0,0,0,0,0,0,0,0,-1,545,1457,0,0
-672,-433,0,0,0,0,0,0,0,0,0,-1,552,1457,0,0
-665,-433,0,0,0,0,0,0,0,0,0,-1,559,1457,0,0
-658,-433,0,0,0,0,0,0,0,0,0,-1,566,1457,0,0
-651,-433,0,0,0,0,0,0,0,0,0,-1,573,1457,0,0
-644,-433,0,0,0,0,0,0,0,0,0,-1,580,1457,0,0
-637,-433,0,0,0,0,0,0,0,0,0,-1,587,1457,0,0
-630,-433,0,0,0,0,0,0,0,0,0,-1,594,1457,0,0
-623,-433,0,0,0,0,0,0,0,0,0,-1,601,1457,0,0
-616,-433,0,0,0,0,0,0,0,0,0,-1,608,1457,0,0
-609,-433,0,0,0,0,0,0,0,0,0,-1,615,1457,0,0
-602,-433,0,0,0,0,0,0,0,0,0,-1,622,1457,0,0
-595,-433,0,0,0,0,0,0,0,0,0,-1,629,1457,0,0
-588,-433,-10.3756,-0.467041,0,0,0,0,0,0,0,-1,636,1457,-10.3756,0.467081
-581,-433,-8.12201,0.884033,0,0,0,0,0,0,0,-1,643,1457,-8.12204,-0.884056
-574,-433,-5.86847,2.23523,0,0,0,0,0,0,0,-1,650,1457,-5.86844,-2.23519
-567,-433,-5.42255,1.16833,0,0,0,0,0,0,0,-1,657,1457,-5.42254,-1.1683
-560,-433,-6.84027,1.86414,0,0,0,0,0,0,0,-1,664,1457,-6.84026,-1.86412
-553,-433,-5.74017,1.79163,0,0,0,0,0,0,0,-1,671,1457,-5.74015,-1.79166
-546,-433,-6.9668,8.25073,0,0,0,0,0,0,0,-1,678,1457,-6.96679,-8.25074
-539,-433,-7.3136,8.75659,0,0,0,0,0,0,0,-1,685,1457,-7.31362,-8.75659
-532,-433,-9.08044,10.0194,0,0,0,0,0,0,0,-1,692,1457,-9.08042,-10.0194
-525,-433,-9.14618,10.7344,0.000479982,0.000448948,0.000435328,0.000900069,2.88604e-05,0.767583,0.000590661,0.0366959,699,1457,-9.1462,-10.7344
-518,-433,-9.18506,11.2241,0.000452239,0.000115057,0.000288223,0.000617557,-5.02608e-05,0.520764,0.00042944,0.0169009,706,1457,-9.18503,-11.2241
-511,-433,-9.23285,11.7428,0.000691926,0.000195885,0.000400117,0.000914658,-2.68466e-05,0.507947,0.000618915,0.0161844,713,1457,-9.23285,-11.7428
-504,-433,-9.22363,12.2347,0.00124009,0.000672378,0.000861317,0.00186312,4.935e-05,0.626221,0.00122596,0.0130055,720,1457,-9.22366,-12.2348
-497,-433,-9.21771,12.7729,0.00212752,0.00146204,0.00162297,0.0034515,0.000138055,0.68429,0.00225639,0.0129319,727,1457,-9.21774,-12.7729
-490,-433,-9.25739,13.3148,0.00342838,0.00263996,0.00276117,0.00582334,0.000245004,0.714492,0.00380319,0.013558,734,1457,-9.25738,-13.3148
-483,-433,-9.2735,13.8611,0.00521802,0.0041273,0.00430208,0.00900917,0.000336142,0.722351,0.00589726,0.0146405,741,1457,-9.27352,-13.8611
-476,-433,-9.28235,14.407,0.0074527,0.00596956,0.00621691,0.0129721,0.000450151,0.726037,0.008502,0.0106805,748,1457,-9.28236,-14.407
-469,-433,-9.30627,14.9254,0.0102721,0.00806149,0.0086177,0.0178551,0.000478514,0.721615,0.0117472,0.0105541,755,1457,-9.30628,-14.9255
-462,-433,-9.34253,15.4657,0.0138174,0.0106673,0.0116127,0.0239614,0.00052331,0.717994,0.0158027,0.0142209,762,1457,-9.34256,-15.4657
-455,-433,-9.08423,16.2921,0,0,0,0,0,0,0,-1,769,1457,-9.08421,-16.2921
-448,-433,-6.94812,14.5563,0,0,0,0,0,0,0,-1,776,1457,-6.94809,-14.5562
-441,-433,-9.97485,14.0258,0,0,0,0,0,0,0,-1,783,1457,-9.97488,-14.0257
-434,-433,-9.41205,14.2297,0,0,0,0,0,0,0,-1,790,1457,-9.41205,-14.2297
-427,-433,-8.67419,13.6827,0,0,0,0,0,0,0,-1,797,1457,-8.67422,-13.6827
-420,-433,-5.74658,9.49121,0,0,0,0,0,0,0,-1,804,1457,-5.7466,-9.49119
-413,-433,-3.63074,5.5813,0,0,0,0,0,0,0,-1,811,1457,-3.63072,-5.58129
-406,-433,-12.3472,4.69373,0,0,0,0,0,0,0,-1,818,1457,-12.3472,-4.69374
-399,-433,-12.055,2.83594,0,0,0,0,0,0,0,-1,825,1457,-12.055,-2.83594
-392,-433,-12.9772,1.6228,0,0,0,0,0,0,0,-1,832,1457,-12.9772,-1.62282
-385,-433,-13.7999,0.514771,0,0,0,0,0,0,0,-1,839,1457,-13.7999,-0.514788
-378,-433,0,0,0,0,0,0,0,0,0,-1,846,1457,0,0
-371,-433,0,0,0,0,0,0,0,0,0,-1,853,1457,0,0
-364,-433,0,0,0,0,0,0,0,0,0,-1,860,1457,0,0
-357,-433,0,0,0,0,0,0,0,0,0,-1,867,1457,0,0
-350,-433,0,0,0,0,0,0,0,0,0,-1,874,1457,0,0
-343,-433,0,0,0,0,0,0,0,0,0,-1,881,1457,0,0
-336,-433,0,0,0,0,0,0,0,0,0,-1,888,1457,0,0
-329,-433,0,0,0,0,0,0,0,0,0,-1,895,1457,0,0
-322,-433,0,0,0,0,0,0,0,0,0,-1,902,1457,0,0
-315,-433,0,0,0,0,0,0,0,0,0,-1,909,1457,0,0
-308,-433,0,0,0,0,0,0,0,0,0,-1,916,1457,0,0
-301,-433,0,0,0,0,0,0,0,0,0,-1,923,1457,0,0
-294,-433,0,0,0,0,0,0,0,0,0,-1,930,1457,0,0
-287,-433,0,0,0,0,0,0,0,0,0,-1,937,1457,0,0
-280,-433,0,0,0,0,0,0,0,0,0,-1,944,1457,0,0
-273,-433,0,0,0,0,0,0,0,0,0,-1,951,1457,0,0
-266,-433,0,0,0,0,0,0,0,0,0,-1,958,1457,0,0
-259,-433,0,0,0,0,0,0,0,0,0,-1,965,1457,0,0
-252,-433,0,0,0,0,0,0,0,0,0,-1,972,1457,0,0
-245,-433,0,0,0,0,0,0,0,0,0,-1,979,1457,0,0
-238,-433,0,0,0,0,0,0,0,0,0,-1,986,1457,0,0
-231,-433,0,0,0,0,0,0,0,0,0,-1,993,1457,0,0
-224,-433,0,0,0,0,0,0,0,0,0,-1,1000,1457,0,0
-217,-433,0,0,0,0,0,0,0,0,0,-1,1007,1457,0,0
-210,-433,0,0,0,0,0,0,0,0,0,-1,1014,1457,0,0
-203,-433,0,0,0,0,0,0,0,0,0,-1,1021,1457,0,0
-196,-433,0,0,0,0,0,0,0,0,0,-1,1028,1457,0,0
-189,-433,0,0,0,0,0,0,0,0,0,-1,1035,1457,0,0
-182,-433,0,0,0,0,0,0,0,0,0,-1,1042,1457,0,0
-175,-433,0,0,0,0,0,0,0,0,0,-1,1049,1457,0,0
-168,-433,0,0,0,0,0,0,0,0,0,-1,1056,1457,0,0
-161,-433,0,0,0,0,0,0,0,0,0,-1,1063,1457,0,0
-154,-433,0,0,0,0,0,0,0,0,0,-1,1070,1457,0,0
-147,-433,0,0,0,0,0,0,0,0,0,-1,1077,1457,0,0
-140,-433,0,0,0,0,0,0,0,0,0,-1,1084,1457,0,0
-133,-433,0,0,0,0,0,0,0,0,0,-1,1091,1457,0,0
-126,-433,0,0,0,0,0,0,0,0,0,-1,1098,1457,0,0
-119,-433,0,0,0,0,0,0,0,0,0,-1,1105,1457,0,0
-112,-433,0,0,0,0,0,0,0,0,0,-1,1112,1457,0,0
-105,-433,0,0,0,0,0,0,0,0,0,-1,1119,1457,0,0
-98,-433,0,0,0,0,0,0,0,0,0,-1,1126,1457,0,0
-91,-433,0,0,0,0,0,0,0,0,0,-1,1133,1457,0,0
-84,-433,0,0,0,0,0,0,0,0,0,-1,1140,1457,0,0
-77,-433,0,0,0,0,0,0,0,0,0,-1,1147,1457,0,0
-70,-433,0,0,0,0,0,0,0,0,0,-1,1154,1457,0,0
-63,-433,0,0,0,0,0,0,0,0,0,-1,1161,1457,0,0
-56,-433,0,0,0,0,0,0,0,0,0,-1,1168,1457,0,0
-49,-433,0,0,0,0,0,0,0,0,0,-1,1175,1457,0,0
-42,-433,0,0,0,0,0,0,0,0,0,-1,1182,1457,0,0
-35,-433,0,0,0,0,0,0,0,0,0,-1,1189,1457,0,0
-28,-433,0,0,0,0,0,0,0,0,0,-1,1196,1457,0,0
-21,-433,0,0,0,0,0,0,0,0,0,-1,1203,1457,0,0
-14,-433,0,0,0,0,0,0,0,0,0,-1,1210,1457,0,0
-7,-433,0,0,0,0,0,0,0,0,0,-1,1217,1457,0,0
0,-433,0,0,0,0,0,0,0,0,0,-1,1224,1457,0,0
7,-433,0,0,0,0,0,0,0,0,0,-1,1231,1457,0,0
14,-433,0,0,0,0,0,0,0,0,0,-1,1238,1457,0,0
21,-433,0,0,0,0,0,0,0,0,0,-1,1245,1457,0,0
28,-433,0,0,0,0,0,0,0,0,0,-1,1252,1457,0,0
35,-433,0,0,0,0,0,0,0,0,0,-1,1259,1457,0,0
42,-433,0,0,0,0,0,0,0,0,0,-1,1266,1457,0,0
49,-433,0,0,0,0,0,0,0,0,0,-1,1273,1457,0,0
56,-433,0,0,0,0,0,0,0,0,0,-1,1280,1457,0,0
63,-433,0,0,0,0,0,0,0,0,0,-1,1287,1457,0,0
70,-433,0,0,0,0,0,0,0,0,0,-1,1294,1457,0,0
77,-433,0,0,0,0,0,0,0,0,0,-1,1301,1457,0,0
84,-433,0,0,0,0,0,0,0,0,0,-1,1308,1457,0,0
91,-433,0,0,0,0,0,0,0,0,0,-1,1315,1457,0,0
98,-433,0,0,0,0,0,0,0,0,0,-1,1322,1457,0,0
105,-433,0,0,0,0,0,0,0,0,0,-1,1329,1457,0,0
112,-433,0,0,0,0,0,0,0,0,0,-1,1336,1457,0,0
119,-433,0,0,0,0,0,0,0,0,0,-1,1343,1457,0,0
126,-433,0,0,0,0,0,0,0,0,0,-1,1350,1457,0,0
133,-433,0,0,0,0,0,0,0,0,0,-1,1357,1457,0,0
140,-433,0,0,0,0,0,0,0,0,0,-1,1364,1457,0,0
147,-433,0,0,0,0,0,0,0,0,0,-1,1371,1457,0,0
154,-433,0,0,0,0,0,0,0,0,0,-1,1378,1457,0,0
161,-433,0,0,0,0,0,0,0,0,0,-1,1385,1457,0,0
168,-433,0,0,0,0,0,0,0,0,0,-1,1392,1457,0,0
175,-433,0,0,0,0,0,0,0,0,0,-1,1399,1457,0,0
182,-433,0,0,0,0,0,0,0,0,0,-1,1406,1457,0,0
189,-433,0,0,0,0,0,0,0,0,0,-1,1413,1457,0,0
196,-433,0,0,0,0,0,0,0,0,0,-1,1420,1457,0,0
203,-433,0,0,0,0,0,0,0,0,0,-1,1427,1457,0,0
210,-433,0,0,0,0,0,0,0,0,0,-1,1434,1457,0,0
217,-433,0,0,0,0,0,0,0,0,0,-1,1441,1457,0,0
224,-433,0,0,0,0,0,0,0,0,0,-1,1448,1457,0,0
231,-433,0,0,0,0,0,0,0,0,0,-1,1455,1457,0,0
238,-433,0,0,0,0,0,0,0,0,0,-1,1462,1457,0,0
245,-433,0,0,0,0,0,0,0,0,0,-1,1469,1457,0,0
252,-433,0,0,0,0,0,0,0,0,0,-1,1476,1457,0,0
259,-433,0,0,0,0,0,0,0,0,0,-1,1483,1457,0,0
266,-433,0,0,0,0,0,0,0,0,0,-1,1490,1457,0,0
273,-433,0,0,0,0,0,0,0,0,0,-1,1497,1457,0,0
280,-433,0,0,0,0,0,0,0,0,0,-1,1504,1457,0,0
287,-433,0,0,0,0,0,0,0,0,0,-1,1511,1457,0,0
294,-433,0,0,0,0,0,0,0,0,0,-1,1518,1457,0,0
301,-433,0,0,0,0,0,0,0,0,0,-1,1525,1457,0,0
308,-433,0,0,0,0,0,0,0,0,0,-1,1532,1457,0,0
315,-433,0,0,0,0,0,0,0,0,0,-1,1539,1457,0,0
322,-433,0,0,0,0,0,0,0,0,0,-1,1546,1457,0,0
329,-433,0,0,0,0,0,0,0,0,0,-1,1553,1457,0,0
336,-433,0,0,0,0,0,0,0,0,0,-1,1560,1457,0,0
343,-433,0,0,0,0,0,0,0,0,0,-1,1567,1457,0,0
350,-433,0,0,0,0,0,0,0,0,0,-1,1574,1457,0,0
357,-433,0,0,0,0,0,0,0,0,0,-1,1581,1457,0,0
364,-433,0,0,0,0,0,0,0,0,0,-1,1588,1457,0,0
371,-433,0,0,0,0,0,0,0,0,0,-1,1595,1457,0,0
378,-433,0,0,0,0,0,0,0,0,0,-1,1602,1457,0,0
385,-433,0,0,0,0,0,0,0,0,0,-1,1609,1457,0,0
392,-433,0,0,0,0,0,0,0,0,0,-1,1616,1457,0,0
399,-433,0,0,0,0,0,0,0,0,0,-1,1623,1457,0,0
406,-433,0,0,0,0,0,0,0,0,0,-1,1630,1457,0,0
413,-433,0,0,0,0,0,0,0,0,0,-1,1637,1457,0,0
420,-433,0,0,0,0,0,0,0,0,0,-1,1644,1457,0,0
427,-433,0,0,0,0,0,0,0,0,0,-1,1651,1457,0,0
434,-433,0,0,0,0,0,0,0,0,0,-1,1658,1457,0,0
441,-433,0,0,0,0,0,0,0,0,0,-1,1665,1457,0,0
448,-433,0,0,0,0,0,0,0,0,0,-1,1672,1457,0,0
455,-433,0,0,0,0,0,0,0,0,0,-1,1679,1457,0,0
462,-433,0,0,0,0,0,0,0,0,0,-1,1686,1457,0,0
469,-433,0,0,0,0,0,0,0,0,0,-1,1693,1457,0,0
476,-433,0,0,0,0,0,0,0,0,0,-1,1700,1457,0,0
483,-433,0,0,0,0,0,0,0,0,0,-1,1707,1457,0,0
490,-433,0,0,0,0,0,0,0,0,0,-1,1714,1457,0,0
497,-433,0,0,0,0,0,0,0,0,0,-1,1721,1457,0,0
504,-433,19.9058,3.03662,0,0,0,0,0,0,0,-1,1728,1457,19.9058,-3.03656
511,-433,19.0145,3.07837,0,0,0,0,0,0,0,-1,1735,1457,19.0146,-3.07834
518,-433,18.071,3.06433,0,0,0,0,0,0,0,-1,1742,1457,18.071,-3.06432
525,-433,17.2048,3.37085,0,0,0,0,0,0,0,-1,1749,1457,17.2049,-3.37083
532,-433,16.5637,3.36646,0,0,0,0,0,0,0,-1,1756,1457,16.5637,-3.36643
539,-433,15.9193,3.30396,0,0,0,0,0,0,0,-1,1763,1457,15.9193,-3.30394
546,-433,23.1903,4.81775,0,0,0,0,0,0,0,-1,1770,1457,23.1903,-4.81775
553,-433,13.9674,11.5781,0,0,0,0,0,0,0,-1,1777,1457,13.9674,-11.5781
560,-433,13.9855,11.7341,0,0,0,0,0,0,0,-1,1784,1457,13.9855,-11.7341
567,-433,13.9264,11.3364,0,0,0,0,0,0,0,-1,1791,1457,13.9263,-11.3364
574,-433,15.5305,12.3673,0,0,0,0,0,0,0,-1,1798,1457,15.5305,-12.3673
581,-433,16.6405,12.1898,0,0,0,0,0,0,0,-1,1805,1457,16.6405,-12.1898
588,-433,23.9633,17.9005,0,0,0,0,0,0,0,-1,1812,1457,23.9632,-17.9005
595,-433,23.8998,17.032,0.0048933,0.0047965,-0.00410668,0.00895186,0.000737938,-0.779506,0.00573777,0.0416135,1819,1457,23.8998,-17.032
602,-433,23.9207,16.4746,0.00385366,0.0035623,-0.00312093,0.00683231,0.000583646,-0.762076,0.00437333,0.0251901,1826,1457,23.9206,-16.4747
609,-433,23.9468,15.9362,0.00304382,0.00253346,-0.00234046,0.00514297,0.000434316,-0.731098,0.00329343,0.0169366,1833,1457,23.9468,-15.9362
616,-433,23.942,15.4677,0.00229086,0.00163365,-0.00165497,0.00364953,0.000274972,-0.687395,0.00234674,0.0140249,1840,1457,23.942,-15.4677
623,-433,23.9022,14.9744,0.00176053,0.000857616,-0.00107278,0.00247298,0.000145175,-0.58623,0.00160245,0.0120887,1847,1457,23.9022,-14.9744
630,-433,23.8995,14.4788,0.00140135,0.000150521,-0.000589407,0.00163532,-8.34499e-05,-0.377883,0.00111907,0.0155573,1854,1457,23.8995,-14.4788
637,-433,23.889,14.0126,0.00104731,-0.000436361,-0.000113888,0.001056,-0.000445052,-0.0761665,0.000890238,0.0153208,1861,1457,23.889,-14.0126
644,-433,23.8577,13.5392,0.000801673,-0.00093897,0.000344336,0.000867314,-0.00100461,0.188372,0.00108173,0.0157864,1868,1457,23.8577,-13.5391
651,-433,23.8279,13.0281,0.000662139,-0.00129467,0.000719468,0.000898194,-0.00153072,0.317029,0.0014181,0.0121871,1875,1457,23.8279,-13.0281
658,-433,23.7856,12.5052,0.000584655,-0.00164296,0.00113816,0.00106332,-0.00212162,0.398106,0.00187236,0.0265833,1882,1457,23.7856,-12.5052
665,-433,23.9775,11.885,0,0,0,0,0,0,0,-1,1889,1457,23.9776,-11.885
672,-433,18.115,8.7207,0,0,0,0,0,0,0,-1,1896,1457,18.115,-8.72074
679,-433,17.2969,9.6355,0,0,0,0,0,0,0,-1,1903,1457,17.2968,-9.63548
686,-433,13.6356,8.61694,0,0,0,0,0,0,0,-1,1910,1457,13.6356,-8.61694
693,-433,13.4081,8.39624,0,0,0,0,0,0,0,-1,1917,1457,13.4081,-8.39624
700,-433,7.16809,-1.5166,0,0,0,0,0,0,0,-1,1924,1457,7.16806,1.51656
707,-433,8.68359,-2.82202,0,0,0,0,0,0,0,-1,1931,1457,8.68359,2.82197
714,-433,0,0,0,0,0,0,0,0,0,-1,1938,1457,0,0
721,-433,0,0,0,0,0,0,0,0,0,-1,1945,1457,0,0
728,-433,0,0,0,0,0,0,0,0,0,-1,1952,1457,0,0
735,-433,0,0,0,0,0,0,0,0,0,-1,1959,1457,0,0
742,-433,0,0,0,0,0,0,0,0,0,-1,1966,1457,0,0
749,-433,0,0,0,0,0,0,0,0,0,-1,1973,1457,0,0
756,-433,0,0,0,0,0,0,0,0,0,-1,1980,1457,0,0
763,-433,0,0,0,0,0,0,0,0,0,-1,1987,1457,0,0
770,-433,0,0,0,0,0,0,0,0,0,-1,1994,1457,0,0
777,-433,0,0,0,0,0,0,0,0,0,-1,2001,1457,0,0
784,-433,0,0,0,0,0,0,0,0,0,-1,2008,1457,0,0
791,-433,0,0,0,0,0,0,0,0,0,-1,2015,1457,0,0
798,-433,0,0,0,0,0,0,0,0,0,-1,2022,1457,0,0
805,-433,0,0,0,0,0,0,0,0,0,-1,2029,1457,0,0
812,-433,0,0,0,0,0,0,0,0,0,-1,2036,1457,0,0
-700,-440,0,0,0,0,0,0,0,0,0,-1,524,1464,0,0
-693,-440,0,0,0,0,0,0,0,0,0,-1,531,1464,0,0
-686,-440,0,0,0,0,0,0,0,0,0,-1,538,1464,0,0
-679,-440,0,0,0,0,0,0,0,0,0,-1,545,1464,0,0
-672,-440,0,0,0,0,0,0,0,0,0,-1,552,1464,0,0
-665,-440,0,0,0,0,0,0,0,0,0,-1,559,1464,0,0
-658,-440,0,0,0,0,0,0,0,0,0,-1,566,1464,0,0
-651,-440,0,0,0,0,0,0,0,0,0,-1,573,1464,0,0
-644,-440,0,0,0,0,0,0,0,0,0,-1,580,1464,0,0
-637,-440,0,0,0,0,0,0,0,0,0,-1,587,1464,0,0
-630,-440,0,0,0,0,0,0,0,0,0,-1,594,1464,0,0
-623,-440,0,0,0,0,0,0,0,0,0,-1,601,1464,0,0
-616,-440,0,0,0,0,0,0,0,0,0,-1,608,1464,0,0
-609,-440,0,0,0,0,0,0,0,0,0,-1,615,1464,0,0
-602,-440,0,0,0,0,0,0,0,0,0,-1,622,1464,0,0
-595,-440,0,0,0,0,0,0,0,0,0,-1,629,1464,0,0
-588,-440,0,0,0,0,0,0,0,0,0,-1,636,1464,0,0
-581,-440,-8.97278,0.254517,0,0,0,0,0,0,0,-1,643,1464,-8.97276,-0.254526
-574,-440,-7.00818,-0.918579,0,0,0,0,0,0,0,-1,650,1464,-7.00817,0.918538
-567,-440,-6.12152,-0.0766602,0,0,0,0,0,0,0,-1,657,1464,-6.12151,0.0767097
-560,-440,-5.46747,0.82251,0,0,0,0,0,0,0,-1,664,1464,-5.46748,-0.822551
-553,-440,-6.84729,0.0831299,0,0,0,0,0,0,0,-1,671,1464,-6.84732,-0.083136
-546,-440,-5.63446,-0.153198,0,0,0,0,0,0,0,-1,678,1464,-5.63447,0.153147
-539,-440,-6.80017,8.58252,0,0,0,0,0,0,0,-1,685,1464,-6.80015,-8.58257
-532,-440,-8.13007,9.89331,0,0,0,0,0,0,0,-1,692,1464,-8.13008,-9.89333
-525,-440,-8.72736,10.5951,0,0,0,0,0,0,0,-1,699,1464,-8.72738,-10.5951
-518,-440,-8.69214,11.172,0.000195784,-0.000349128,0.000232593,0.000281562,-0.000434906,0.353316,0.000416799,0.021115,706,1464,-8.69212,-11.172
-511,-440,-8.66486,11.7528,0.000310169,-0.000384359,0.000175343,0.000351926,-0.000426116,0.233791,0.000449883,0.0157434,713,1464,-8.66488,-11.7528
-504,-440,-8.64227,12.2966,0.000713852,1.88245e-05,0.000498912,0.00097435,-0.000241674,0.481197,0.000743338,0.0194352,720,1464,-8.64226,-12.2967
-497,-440,-8.67596,12.8276,0.00143185,0.000704142,0.00110394,0.00223035,-9.4361e-05,0.626207,0.00151933,0.0217352,727,1464,-8.67599,-12.8276
-490,-440,-8.72113,13.3019,0.00255088,0.00176259,0.00206573,0.00425973,5.37403e-05,0.69113,0.00282207,0.0204458,734,1464,-8.72111,-13.3019
-483,-440,-8.74469,13.8542,0.00414241,0.00310858,0.00340642,0.00707091,0.000180079,0.710098,0.00465507,0.0182429,741,1464,-8.74471,-13.8542
-476,-440,-8.75592,14.3939,0.00615017,0.00475314,0.00508759,0.010587,0.000316339,0.717176,0.00695493,0.0129206,748,1464,-8.75592,-14.3939
-469,-440,-8.78174,14.9259,0.00864716,0.00659982,0.00719353,0.0148895,0.000357484,0.714721,0.00980934,0.011835,755,1464,-8.78175,-14.926
-462,-440,-8.82544,15.4414,0.0117329,0.00882077,0.00976126,0.0201461,0.000407588,0.71136,0.013297,0.0149447,762,1464,-8.82544,-15.4414
-455,-440,-8.67383,16.1084,0.0156668,0.0114398,0.0129935,0.0267176,0.000388998,0.704776,0.0176835,0.036418,769,1464,-8.67381,-16.1084
-448,-440,-8.3017,17.1033,0,0,0,0,0,0,0,-1,776,1464,-8.30168,-17.1033
-441,-440,-7.28583,14.7465,0,0,0,0,0,0,0,-1,783,1464,-7.28584,-14.7464
-434,-440,-8.33636,14.5024,0,0,0,0,0,0,0,-1,790,1464,-8.33638,-14.5025
-427,-440,-8.28094,14.2512,0,0,0,0,0,0,0,-1,797,1464,-8.28094,-14.2512
-420,-440,-6.86603,8.09216,0,0,0,0,0,0,0,-1,804,1464,-6.86602,-8.09222
-413,-440,-3.46796,5.72278,0,0,0,0,0,0,0,-1,811,1464,-3.46797,-5.72276
-406,-440,-5.2887,5.20264,0,0,0,0,0,0,0,-1,818,1464,-5.2887,-5.20261
-399,-440,-12.7318,3.94421,0,0,0,0,0,0,0,-1,825,1464,-12.7318,-3.94419
-392,-440,-13.5565,2.51855,0,0,0,0,0,0,0,-1,832,1464,-13.5565,-2.51861
-385,-440,-14.6741,1.39795,0,0,0,0,0,0,0,-1,839,1464,-14.6741,-1.39801
-378,-440,-15.8063,0.293457,0,0,0,0,0,0,0,-1,846,1464,-15.8063,-0.293412
-371,-440,0,0,0,0,0,0,0,0,0,-1,853,1464,0,0
-364,-440,0,0,0,0,0,0,0,0,0,-1,860,1464,0,0
-357,-440,0,0,0,0,0,0,0,0,0,-1,867,1464,0,0
-350,-440,0,0,0,0,0,0,0,0,0,-1,874,1464,0,0
-343,-440,0,0,0,0,0,0,0,0,0,-1,881,1464,0,0
-336,-440,0,0,0,0,0,0,0,0,0,-1,888,1464,0,0
-329,-440,0,0,0,0,0,0,0,0,0,-1,895,1464,0,0
-322,-440,0,0,0,0,0,0,0,0,0,-1,902,1464,0,0
-315,-440,0,0,0,0,0,0,0,0,0,-1,909,1464,0,0
-308,-440,0,0,0,0,0,0,0,0,0,-1,916,1464,0,0
-301,-440,0,0,0,0,0,0,0,0,0,-1,923,1464,0,0
-294,-440,0,0,0,0,0,0,0,0,0,-1,930,1464,0,0
-287,-440,0,0,0,0,0,0,0,0,0,-1,937,1464,0,0
-280,-440,0,0,0,0,0,0,0,0,0,-1,944,1464,0,0
-273,-440,0,0,0,0,0,0,0,0,0,-1,951,1464,0,0
-266,-440,0,0,0,0,0,0,0,0,0,-1,958,1464,0,0
-259,-440,0,0,0,0,0,0,0,0,0,-1,965,1464,0,0
-252,-440,0,0,0,0,0,0,0,0,0,-1,972,1464,0,0
-245,-440,0,0,0,0,0,0,0,0,0,-1,979,1464,0,0
-238,-440,0,0,0,0,0,0,0,0,0,-1,986,1464,0,0
-231,-440,0,0,0,0,0,0,0,0,0,-1,993,1464,0,0
-224,-440,0,0,0,0,0,0,0,0,0,-1,1000,1464,0,0
-217,-440,0,0,0,0,0,0,0,0,0,-1,1007,1464,0,0
-210,-440,0,0,0,0,0,0,0,0,0,-1,1014,1464,0,0
-203,-440,0,0,0,0,0,0,0,0,0,-1,1021,1464,0,0
-196,-440,0,0,0,0,0,0,0,0,0,-1,1028,1464,0,0
-189,-440,0,0,0,0,0,0,0,0,0,-1,1035,1464,0,0
-182,-440,0,0,0,0,0,0,0,0,0,-1,1042,1464,0,0
-175,-440,0,0,0,0,0,0,0,0,0,-1,1049,1464,0,0
-168,-440,0,0,0,0,0,0,0,0,0,-1,1056,1464,0,0
-161,-440,0,0,0,0,0,0,0,0,0,-1,1063,1464,0,0
-154,-440,0,0,0,0,0,0,0,0,0,-1,1070,1464,0,0
-147,-440,0,0,0,0,0,0,0,0,0,-1,1077,1464,0,0
-140,-440,0,0,0,0,0,0,0,0,0,-1,1084,1464,0,0
-133,-440,0,0,0,0,0,0,0,0,0,-1,1091,1464,0,0
-126,-440,0,0,0,0,0,0,0,0,0,-1,1098,1464,0,0
-119,-440,0,0,0,0,0,0,0,0,0,-1,1105,1464,0,0
-112,-440,0,0,0,0,0,0,0,0,0,-1,1112,1464,0,0
-105,-440,0,0,0,0,0,0,0,0,0,-1,1119,1464,0,0
-98,-440,0,0,0,0,0,0,0,0,0,-1,1126,1464,0,0
-91,-440,0,0,0,0,0,0,0,0,0,-1,1133,1464,0,0
-84,-440,0,0,0,0,0,0,0,0,0,-1,1140,1464,0,0
-77,-440,0,0,0,0,0,0,0,0,0,-1,1147,1464,0,0
-70,-440,0,0,0,0,0,0,0,0,0,-1,1154,1464,0,0
-63,-440,0,0,0,0,0,0,0,0,0,-1,1161,1464,0,0
-56,-440,0,0,0,0,0,0,0,0,0,-1,1168,1464,0,0
-49,-440,0,0,0,0,0,0,0,0,0,-1,1175,1464,0,0
-42,-440,0,0,0,0,0,0,0,0,0,-1,1182,1464,0,0
-35,-440,0,0,0,0,0,0,0,0,0,-1,1189,1464,0,0
-28,-440,0,0,0,0,0,0,0,0,0,-1,1196,1464,0,0
-21,-440,0,0,0,0,0,0,0,0,0,-1,1203,1464,0,0
-14,-440,0,0,0,0,0,0,0,0,0,-1,1210,1464,0,0
-7,-440,0,0,0,0,0,0,0,0,0,-1,1217,1464,0,0
0,-440,0,0,0,0,0,0,0,0,0,-1,1224,1464,0,0
7,-440,0,0,0,0,0,0,0,0,0,-1,1231,1464,0,0
14,-440,0,0,0,0,0,0,0,0,0,-1,1238,1464,0,0
21,-440,0,0,0,0,0,0,0,0,0,-1,1245,1464,0,0
28,-440,0,0,0,0,0,0,0,0,0,-1,1252,1464,0,0
35,-440,0,0,0,0,0,0,0,0,0,-1,1259,1464,0,0
42,-440,0,0,0,0,0,0,0,0,0,-1,1266,1464,0,0
49,-440,0,0,0,0,0,0,0,0,0,-1,1273,1464,0,0
56,-440,0,0,0,0,0,0,0,0,0,-1,1280,1464,0,0
63,-440,0,0,0,0,0,0,0,0,0,-1,1287,1464,0,0
70,-440,0,0,0,0,0,0,0,0,0,-1,1294,1464,0,0
77,-440,0,0,0,0,0,0,0,0,0,-1,1301,1464,0,0
84,-440,0,0,0,0,0,0,0,0,0,-1,1308,1464,0,0
91,-440,0,0,0,0,0,0,0,0,0,-1,1315,1464,0,0
98,-440,0,0,0,0,0,0,0,0,0,-1,1322,1464,0,0
105,-440,0,0,0,0,0,0,0,0,0,-1,1329,1464,0,0
112,-440,0,0,0,0,0,0,0,0,0,-1,1336,1464,0,0
119,-440,0,0,0,0,0,0,0,0,0,-1,1343,1464,0,0
126,-440,0,0,0,0,0,0,0,0,0,-1,1350,1464,0,0
133,-440,0,0,0,0,0,0,0,0,0,-1,1357,1464,0,0
140,-440,0,0,0,0,0,0,0,0,0,-1,1364,1464,0,0
147,-440,0,0,0,0,0,0,0,0,0,-1,1371,1464,0,0
154,-440,0,0,0,0,0,0,0,0,0,-1,1378,1464,0,0
161,-440,0,0,0,0,0,0,0,0,0,-1,1385,1464,0,0
168,-440,0,0,0,0,0,0,0,0,0,-1,1392,1464,0,0
175,-440,0,0,0,0,0,0,0,0,0,-1,1399,1464,0,0
182,-440,0,0,0,0,0,0,0,0,0,-1,1406,1464,0,0
189,-440,0,0,0,0,0,0,0,0,0,-1,1413,1464,0,0
196,-440,0,0,0,0,0,0,0,0,0,-1,1420,1464,0,0
203,-440,0,0,0,0,0,0,0,0,0,-1,1427,1464,0,0
210,-440,0,0,0,0,0,0,0,0,0,-1,1434,1464,0,0
217,-440,0,0,0,0,0,0,0,0,0,-1,1441,1464,0,0
224,-440,0,0,0,0,0,0,0,0,0,-1,1448,1464,0,0
231,-440,0,0,0,0,0,0,0,0,0,-1,1455,1464,0,0
238,-440,0,0,0,0,0,0,0,0,0,-1,1462,1464,0,0
245,-440,0,0,0,0,0,0,0,0,0,-1,1469,1464,0,0
252,-440,0,0,0,0,0,0,0,0,0,-1,1476,1464,0,0
259,-440,0,0,0,0,0,0,0,0,0,-1,1483,1464,0,0
266,-440,0,0,0,0,0,0,0,0,0,-1,1490,1464,0,0
273,-440,0,0,0,0,0,0,0,0,0,-1,1497,1464,0,0
280,-440,0,0,0,0,0,0,0,0,0,-1,1504,1464,0,0
287,-440,0,0,0,0,0,0,0,0,0,-1,1511,1464,0,0
294,-440,0,0,0,0,0,0,0,0,0,-1,1518,1464,0,0
301,-440,0,0,0,0,0,0,0,0,0,-1,1525,1464,0,0
308,-440,0,0,0,0,0,0,0,0,0,-1,1532,1464,0,0
315,-440,0,0,0,0,0,0,0,0,0,-1,1539,1464,0,0
322,-440,0,0,0,0,0,0,0,0,0,-1,1546,1464,0,0
329,-440,0,0,0,0,0,0,0,0,0,-1,1553,1464,0,0
336,-440,0,0,0,0,0,0,0,0,0,-1,1560,1464,0,0
343,-440,0,0,0,0,0,0,0,0,0,-1,1567,1464,0,0
350,-440,0,0,0,0,0,0,0,0,0,-1,1574,1464,0,0
357,-440,0,0,0,0,0,0,0,0,0,-1,1581,1464,0,0
364,-440,0,0,0,0,0,0,0,0,0,-1,1588,1464,0,0
371,-440,0,0,0,0,0,0,0,0,0,-1,1595,1464,0,0
378,-440,0,0,0,0,0,0,0,0,0,-1,1602,1464,0,0
385,-440,0,0,0,0,0,0,0,0,0,-1,1609,1464,0,0
392,-440,0,0,0,0,0,0,0,0,0,-1,1616,1464,0,0
399,-440,0,0,0,0,0,0,0,0,0,-1,1623,1464,0,0
406,-440,0,0,0,0,0,0,0,0,0,-1,1630,1464,0,0
413,-440,0,0,0,0,0,0,0,0,0,-1,1637,1464,0,0
420,-440,0,0,0,0,0,0,0,0,0,-1,1644,1464,0,0
427,-440,0,0,0,0,0,0,0,0,0,-1,1651,1464,0,0
434,-440,0,0,0,0,0,0,0,0,0,-1,1658,1464,0,0
441,-440,0,0,0,0,0,0,0,0,0,-1,1665,1464,0,0
448,-440,0,0,0,0,0,0,0,0,0,-1,1672,1464,0,0
455,-440,0,0,0,0,0,0,0,0,0,-1,1679,1464,0,0
462,-440,0,0,0,0,0,0,0,0,0,-1,1686,1464,0,0
469,-440,0,0,0,0,0,0,0,0,0,-1,1693,1464,0,0
476,-440,0,0,0,0,0,0,0,0,0,-1,1700,1464,0,0
483,-440,0,0,0,0,0,0,0,0,0,-1,1707,1464,0,0
490,-440,0,0,0,0,0,0,0,0,0,-1,1714,1464,0,0
497,-440,16.965,-0.528442,0,0,0,0,0,0,0,-1,1721,1464,16.965,0.528492
504,-440,15.8052,0.670166,0,0,0,0,0,0,0,-1,1728,1464,15.8052,-0.670145
511,-440,17.5754,2.77832,0,0,0,0,0,0,0,-1,1735,1464,17.5754,-2.77826
518,-440,16.9017,3.07861,0,0,0,0,0,0,0,-1,1742,1464,16.9018,-3.07859
525,-440,18.4495,12.0867,0,0,0,0,0,0,0,-1,1749,1464,18.4495,-12.0867
532,-440,15.4319,3.64392,0,0,0,0,0,0,0,-1,1756,1464,15.4318,-3.64391
539,-440,14.8214,3.41321,0,0,0,0,0,0,0,-1,1763,1464,14.8214,-3.4132
546,-440,14.8651,10.7683,0,0,0,0,0,0,0,-1,1770,1464,14.8651,-10.7683
553,-440,15.1213,11.4121,0,0,0,0,0,0,0,-1,1777,1464,15.1213,-11.4121
560,-440,17.4325,12.5394,0,0,0,0,0,0,0,-1,1784,1464,17.4325,-12.5394
567,-440,16.9025,12.4249,0,0,0,0,0,0,0,-1,1791,1464,16.9025,-12.425
574,-440,19.2841,14.8679,0,0,0,0,0,0,0,-1,1798,1464,19.2841,-14.868
581,-440,23.202,18.4846,0,0,0,0,0,0,0,-1,1805,1464,23.202,-18.4847
588,-440,23.3347,17.5647,0,0,0,0,0,0,0,-1,1812,1464,23.3347,-17.5647
595,-440,23.3782,16.9902,0.00436636,0.00387723,-0.00332867,0.00745944,0.000784153,-0.748728,0.00473327,0.0234278,1819,1464,23.3782,-16.9903
602,-440,23.453,16.4518,0.0034838,0.00281879,-0.00254052,0.00571349,0.000589104,-0.720329,0.0036286,0.018839,1826,1464,23.453,-16.4517
609,-440,23.4595,15.965,0.00275498,0.00189086,-0.00186162,0.00423403,0.000411818,-0.671373,0.00269592,0.0166002,1833,1464,23.4595,-15.9649
616,-440,23.41,15.499,0.00210573,0.00111702,-0.00128694,0.00299,0.00023275,-0.602024,0.00192046,0.0174504,1840,1464,23.41,-15.4991
623,-440,23.412,14.999,0.00167132,0.000418126,-0.000782381,0.00204709,4.23549e-05,-0.447757,0.00135083,0.0147962,1847,1464,23.412,-14.999
630,-440,23.403,14.4767,0.00138366,-0.000239578,-0.000351308,0.00145643,-0.000312347,-0.20425,0.00109009,0.0131615,1854,1464,23.4029,-14.4766
637,-440,23.3954,14.0349,0.00109375,-0.000773509,6.56754e-05,0.00109606,-0.000775816,0.0351142,0.00108599,0.01734,1861,1464,23.3954,-14.0349
644,-440,23.3859,13.5692,0.000888434,-0.00123933,0.000470501,0.00098783,-0.00133873,0.208194,0.00134832,0.0150789,1868,1464,23.3859,-13.5692
651,-440,23.3958,13.0321,0.00079338,-0.00156425,0.000799819,0.0010391,-0.00180998,0.298073,0.00166487,0.0184177,1875,1464,23.3958,-13.0321
658,-440,23.193,12.6786,0.000774581,-0.00190274,0.00116395,0.00120984,-0.002338,0.35785,0.00208258,0.0468857,1882,1464,23.193,-12.6786
665,-440,23.0613,12.0668,0,0,0,0,0,0,0,-1,1889,1464,23.0613,-12.0668
672,-440,18.9385,9.6394,0,0,0,0,0,0,0,-1,1896,1464,18.9384,-9.63939
679,-440,16.9508,10.2336,0,0,0,0,0,0,0,-1,1903,1464,16.9508,-10.2337
686,-440,15.2556,8.44177,0,0,0,0,0,0,0,-1,1910,1464,15.2556,-8.44177
693,-440,9.88635,2.89795,0,0,0,0,0,0,0,-1,1917,1464,9.88638,-2.89798
700,-440,7.07825,-2.62061,0,0,0,0,0,0,0,-1,1924,1464,7.07829,2.62057
707,-440,0,0,0,0,0,0,0,0,0,-1,1931,1464,0,0
714,-440,0,0,0,0,0,0,0,0,0,-1,1938,1464,0,0
721,-440,0,0,0,0,0,0,0,0,0,-1,1945,1464,0,0
728,-440,0,0,0,0,0,0,0,0,0,-1,1952,1464,0,0
735,-440,0,0,0,0,0,0,0,0,0,-1,1959,1464,0,0
742,-440,0,0,0,0,0,0,0,0,0,-1,1966,1464,0,0
749,-440,0,0,0,0,0,0,0,0,0,-1,1973,1464,0,0
756,-440,0,0,0,0,0,0,0,0,0,-1,1980,1464,0,0
763,-440,0,0,0,0,0,0,0,0,0,-1,1987,1464,0,0
770,-440,0,0,0,0,0,0,0,0,0,-1,1994,1464,0,0
777,-440,0,0,0,0,0,0,0,0,0,-1,2001,1464,0,0
784,-440,0,0,0,0,0,0,0,0,0,-1,2008,1464,0,0
791,-440,0,0,0,0,0,0,0,0,0,-1,2015,1464,0,0
798,-440,0,0,0,0,0,0,0,0,0,-1,2022,1464,0,0
805,-440,0,0,0,0,0,0,0,0,0,-1,2029,1464,0,0
812,-440,0,0,0,0,0,0,0,0,0,-1,2036,1464,0,0
-700,-447,0,0,0,0,0,0,0,0,0,-1,524,1471,0,0
-693,-447,0,0,0,0,0,0,0,0,0,-1,531,1471,0,0
-686,-447,0,0,0,0,0,0,0,0,0,-1,538,1471,0,0
-679,-447,0,0,0,0,0,0,0,0,0,-1,545,1471,0,0
-672,-447,0,0,0,0,0,0,0,0,0,-1,552,1471,0,0
-665,-447,0,0,0,0,0,0,0,0,0,-1,559,1471,0,0
-658,-447,0,0,0,0,0,0,0,0,0,-1,566,1471,0,0
-651,-447,0,0,0,0,0,0,0,0,0,-1,573,1471,0,0
-644,-447,0,0,0,0,0,0,0,0,0,-1,580,1471,0,0
-637,-447,0,0,0,0,0,0,0,0,0,-1,587,1471,0,0
-630,-447,0,0,0,0,0,0,0,0,0,-1,594,1471,0,0
-623,-447,0,0,0,0,0,0,0,0,0,-1,601,1471,0,0
-616,-447,0,0,0,0,0,0,0,0,0,-1,608,1471,0,0
-609,-447,0,0,0,0,0,0,0,0,0,-1,615,1471,0,0
-602,-447,0,0,0,0,0,0,0,0,0,-1,622,1471,0,0
-595,-447,0,0,0,0,0,0,0,0,0,-1,629,1471,0,0
-588,-447,0,0,0,0,0,0,0,0,0,-1,636,1471,0,0
-581,-447,-7.06482,-1.50476,0,0,0,0,0,0,0,-1,643,1471,-7.0648,1.50474
-574,-447,-6.88092,-0.00585938,0,0,0,0,0,0,0,-1,650,1471,-6.88095,0.00589852
-567,-447,-6.8205,-1.32178,0,0,0,0,0,0,0,-1,657,1471,-6.82047,1.32172
-560,-447,-8.85748,2.80774,0,0,0,0,0,0,0,-1,664,1471,-8.85748,-2.80775
-553,-447,-7.60486,3.26794,0,0,0,0,0,0,0,-1,671,1471,-7.60487,-3.26799
-546,-447,-3.94501,1.8656,0,0,0,0,0,0,0,-1,678,1471,-3.945,-1.86554
-539,-447,-5.35492,4.50024,0,0,0,0,0,0,0,-1,685,1471,-5.35492,-4.50018
-532,-447,-6.12781,8.81091,0,0,0,0,0,0,0,-1,692,1471,-6.12781,-8.81094
-525,-447,-7.91888,10.6069,0,0,0,0,0,0,0,-1,699,1471,-7.91888,-10.6069
-518,-447,-8.18372,11.126,0,0,0,0,0,0,0,-1,706,1471,-8.1837,-11.1259
-511,-447,-8.13361,11.7488,4.48302e-05,-0.00131647,-0.000284714,0.000101978,-0.00137362,-0.19809,0.000951562,0.0206608,713,1471,-8.13362,-11.7488
-504,-447,-8.09851,12.3684,0.000309781,-0.000946686,-7.29851e-05,0.000314006,-0.000950912,-0.0578283,0.000760533,0.0207852,720,1471,-8.09849,-12.3685
-497,-447,-8.15741,12.8888,0.000834998,-0.000328485,0.000395245,0.000956564,-0.000450051,0.298389,0.000829475,0.0246288,727,1471,-8.15743,-12.8887
-490,-447,-8.15454,13.3782,0.00175315,0.000647572,0.0012151,0.0025353,-0.000134573,0.571924,0.0017368,0.0231014,734,1471,-8.15455,-13.3782
-483,-447,-8.22089,13.8807,0.00312752,0.0019143,0.00240718,0.00500334,3.84785e-05,0.661968,0.00332281,0.0208535,741,1471,-8.22088,-13.8807
-476,-447,-8.22913,14.3972,0.00489195,0.00343706,0.00392015,0.00815158,0.000177435,0.693659,0.00537622,0.0140741,748,1471,-8.22914,-14.3973
-469,-447,-8.24634,14.9387,0.00707464,0.005124,0.0057985,0.0119793,0.000219367,0.702077,0.00791407,0.0126133,755,1471,-8.24632,-14.9387
-462,-447,-8.27081,15.4852,0.0097345,0.00707116,0.00802877,0.0165413,0.000264373,0.703215,0.0109405,0.0126717,762,1471,-8.27082,-15.4852
-455,-447,-8.29761,16.03,0.0130355,0.00928934,0.010751,0.0220754,0.000249452,0.699152,0.0146345,0.0206985,769,1471,-8.29764,-16.03
-448,-447,-8.09473,16.7366,0.0170655,0.0117581,0.0140093,0.0286703,0.000153357,0.691795,0.0190626,0.0459782,776,1471,-8.09472,-16.7365
-441,-447,-7.78955,17.6344,0,0,0,0,0,0,0,-1,783,1471,-7.78956,-17.6344
-434,-447,-7.43402,15.6273,0,0,0,0,0,0,0,-1,790,1471,-7.43404,-15.6274
-427,-447,-7.21832,14.691,0,0,0,0,0,0,0,-1,797,1471,-7.21834,-14.6911
-420,-447,-8.0545,12.8055,0,0,0,0,0,0,0,-1,804,1471,-8.05452,-12.8055
-413,-447,-4.27393,6.59705,0,0,0,0,0,0,0,-1,811,1471,-4.27392,-6.59707
-406,-447,-1.04279,6.18591,0,0,0,0,0,0,0,-1,818,1471,-1.04276,-6.18586
-399,-447,0.0134888,0.687622,0,0,0,0,0,0,0,-1,825,1471,0.0134841,-0.68767
-392,-447,-14.0646,3.76147,0,0,0,0,0,0,0,-1,832,1471,-14.0646,-3.7615
-385,-447,-15.1695,2.61865,0,0,0,0,0,0,0,-1,839,1471,-15.1695,-2.61871
-378,-447,-15.9424,1.49316,0,0,0,0,0,0,0,-1,846,1471,-15.9424,-1.49313
-371,-447,-17.3655,0.73291,0,0,0,0,0,0,0,-1,853,1471,-17.3655,-0.732946
-364,-447,0,0,0,0,0,0,0,0,0,-1,860,1471,0,0
-357,-447,0,0,0,0,0,0,0,0,0,-1,867,1471,0,0
-350,-447,0,0,0,0,0,0,0,0,0,-1,874,1471,0,0
-343,-447,0,0,0,0,0,0,0,0,0,-1,881,1471,0,0
-336,-447,0,0,0,0,0,0,0,0,0,-1,888,1471,0,0
-329,-447,0,0,0,0,0,0,0,0,0,-1,895,1471,0,0
-322,-447,0,0,0,0,0,0,0,0,0,-1,902,1471,0,0
-315,-447,0,0,0,0,0,0,0,0,0,-1,909,1471,0,0
-308,-447,0,0,0,0,0,0,0,0,0,-1,916,1471,0,0
-301,-447,0,0,0,0,0,0,0,0,0,-1,923,1471,0,0
-294,-447,0,0,0,0,0,0,0,0,0,-1,930,1471,0,0
-287,-447,0,0,0,0,0,0,0,0,0,-1,937,1471,0,0
-280,-447,0,0,0,0,0,0,0,0,0,-1,944,1471,0,0
-273,-447,0,0,0,0,0,0,0,0,0,-1,951,1471,0,0
-266,-447,0,0,0,0,0,0,0,0,0,-1,958,1471,0,0
-259,-447,0,0,0,0,0,0,0,0,0,-1,965,1471,0,0
-252,-447,0,0,0,0,0,0,0,0,0,-1,972,1471,0,0
-245,-447,0,0,0,0,0,0,0,0,0,-1,979,1471,0,0
-238,-447,0,0,0,0,0,0,0,0,0,-1,986,1471,0,0
-231,-447,0,0,0,0,0,0,0,0,0,-1,993,1471,0,0
-224,-447,0,0,0,0,0,0,0,0,0,-1,1000,1471,0,0
-217,-447,0,0,0,0,0,0,0,0,0,-1,1007,1471,0,0
-210,-447,0,0,0,0,0,0,0,0,0,-1,1014,1471,0,0
-203,-447,0,0,0,0,0,0,0,0,0,-1,1021,1471,0,0
-196,-447,0,0,0,0,0,0,0,0,0,-1,1028,1471,0,0
-189,-447,0,0,0,0,0,0,0,0,0,-1,1035,1471,0,0
-182,-447,0,0,0,0,0,0,0,0,0,-1,1042,1471,0,0
-175,-447,0,0,0,0,0,0,0,0,0,-1,1049,1471,0,0
-168,-447,0,0,0,0,0,0,0,0,0,-1,1056,1471,0,0
-161,-447,0,0,0,0,0,0,0,0,0,-1,1063,1471,0,0
-154,-447,0,0,0,0,0,0,0,0,0,-1,1070,1471,0,0
-147,-447,0,0,0,0,0,0,0,0,0,-1,1077,1471,0,0
-140,-447,0,0,0,0,0,0,0,0,0,-1,1084,1471,0,0
-133,-447,0,0,0,0,0,0,0,0,0,-1,1091,1471,0,0
-126,-447,0,0,0,0,0,0,0,0,0,-1,1098,1471,0,0
-119,-447,0,0,0,0,0,0,0,0,0,-1,1105,1471,0,0
-112,-447,0,0,0,0,0,0,0,0,0,-1,1112,1471,0,0
-105,-447,0,0,0,0,0,0,0,0,0,-1,1119,1471,0,0
-98,-447,0,0,0,0,0,0,0,0,0,-1,1126,1471,0,0
-91,-447,0,0,0,0,0,0,0,0,0,-1,1133,1471,0,0
-84,-447,0,0,0,0,0,0,0,0,0,-1,1140,1471,0,0
-77,-447,0,0,0,0,0,0,0,0,0,-1,1147,1471,0,0
-70,-447,0,0,0,0,0,0,0,0,0,-1,1154,1471,0,0
-63,-447,0,0,0,0,0,0,0,0,0,-1,1161,1471,0,0
-56,-447,0,0,0,0,0,0,0,0,0,-1,1168,1471,0,0
-49,-447,0,0,0,0,0,0,0,0,0,-1,1175,1471,0,0
-42,-447,0,0,0,0,0,0,0,0,0,-1,1182,1471,0,0
-35,-447,0,0,0,0,0,0,0,0,0,-1,1189,1471,0,0
-28,-447,0,0,0,0,0,0,0,0,0,-1,1196,1471,0,0
-21,-447,0,0,0,0,0,0,0,0,0,-1,1203,1471,0,0
-14,-447,0,0,0,0,0,0,0,0,0,-1,1210,1471,0,0
-7,-447,0,0,0,0,0,0,0,0,0,-1,1217,1471,0,0
0,-447,0,0,0,0,0,0,0,0,0,-1,1224,1471,0,0
7,-447,0,0,0,0,0,0,0,0,0,-1,1231,1471,0,0
14,-447,0,0,0,0,0,0,0,0,0,-1,1238,1471,0,0
21,-447,0,0,0,0,0,0,0,0,0,-1,1245,1471,0,0
28,-447,0,0,0,0,0,0,0,0,0,-1,1252,1471,0,0
35,-447,0,0,0,0,0,0,0,0,0,-1,1259,1471,0,0
42,-447,0,0,0,0,0,0,0,0,0,-1,1266,1471,0,0
49,-447,0,0,0,0,0,0,0,0,0,-1,1273,1471,0,0
56,-447,0,0,0,0,0,0,0,0,0,-1,1280,1471,0,0
63,-447,0,0,0,0,0,0,0,0,0,-1,1287,1471,0,0
70,-447,0,0,0,0,0,0,0,0,0,-1,1294,1471,0,0
77,-447,0,0,0,0,0,0,0,0,0,-1,1301,1471,0,0
84,-447,0,0,0,0,0,0,0,0,0,-1,1308,1471,0,0
91,-447,0,0,0,0,0,0,0,0,0,-1,1315,1471,0,0
98,-447,0,0,0,0,0,0,0,0,0,-1,1322,1471,0,0
105,-447,0,0,0,0,0,0,0,0,0,-1,1329,1471,0,0
112,-447,0,0,0,0,0,0,0,0,0,-1,1336,1471,0,0
119,-447,0,0,0,0,0,0,0,0,0,-1,1343,1471,0,0
126,-447,0,0,0,0,0,0,0,0,0,-1,1350,1471,0,0
133,-447,0,0,0,0,0,0,0,0,0,-1,1357,1471,0,0
140,-447,0,0,0,0,0,0,0,0,0,-1,1364,1471,0,0
147,-447,0,0,0,0,0,0,0,0,0,-1,1371,1471,0,0
154,-447,0,0,0,0,0,0,0,0,0,-1,1378,1471,0,0
161,-447,0,0,0,0,0,0,0,0,0,-1,1385,1471,0,0
168,-447,0,0,0,0,0,0,0,0,0,-1,1392,1471,0,0
175,-447,0,0,0,0,0,0,0,0,0,-1,1399,1471,0,0
182,-447,0,0,0,0,0,0,0,0,0,-1,1406,1471,0,0
189,-447,0,0,0,0,0,0,0,0,0,-1,1413,1471,0,0
196,-447,0,0,0,0,0,0,0,0,0,-1,1420,1471,0,0
203,-447,0,0,0,0,0,0,0,0,0,-1,1427,1471,0,0
210,-447,0,0,0,0,0,0,0,0,0,-1,1434,1471,0,0
217,-447,0,0,0,0,0,0,0,0,0,-1,1441,1471,0,0
224,-447,0,0,0,0,0,0,0,0,0,-1,1448,1471,0,0
231,-447,0,0,0,0,0,0,0,0,0,-1,1455,1471,0,0
238,-447,0,0,0,0,0,0,0,0,0,-1,1462,1471,0,0
245,-447,0,0,0,0,0,0,0,0,0,-1,1469,1471,0,0
252,-447,0,0,0,0,0,0,0,0,0,-1,1476,1471,0,0
259,-447,0,0,0,0,0,0,0,0,0,-1,1483,1471,0,0
266,-447,0,0,0,0,0,0,0,0,0,-1,1490,1471,0,0
273,-447,0,0,0,0,0,0,0,0,0,-1,1497,1471,0,0
280,-447,0,0,0,0,0,0,0,0,0,-1,1504,1471,0,0
287,-447,0,0,0,0,0,0,0,0,0,-1,1511,1471,0,0
294,-447,0,0,0,0,0,0,0,0,0,-1,1518,1471,0,0
301,-447,0,0,0,0,0,0,0,0,0,-1,1525,1471,0,0
308,-447,0,0,0,0,0,0,0,0,0,-1,1532,1471,0,0
315,-447,0,0,0,0,0,0,0,0,0,-1,1539,1471,0,0
322,-447,0,0,0,0,0,0,0,0,0,-1,1546,1471,0,0
329,-447,0,0,0,0,0,0,0,0,0,-1,1553,1471,0,0
336,-447,0,0,0,0,0,0,0,0,0,-1,1560,1471,0,0
343,-447,0,0,0,0,0,0,0,0,0,-1,1567,1471,0,0
350,-447,0,0,0,0,0,0,0,0,0,-1,1574,1471,0,0
357,-447,0,0,0,0,0,0,0,0,0,-1,1581,1471,0,0
364,-447,0,0,0,0,0,0,0,0,0,-1,1588,1471,0,0
371,-447,0,0,0,0,0,0,0,0,0,-1,1595,1471,0,0
378,-447,0,0,0,0,0,0,0,0,0,-1,1602,1471,0,0
385,-447,0,0,0,0,0,0,0,0,0,-1,1609,1471,0,0
392,-447,0,0,0,0,0,0,0,0,0,-1,1616,1471,0,0
399,-447,0,0,0,0,0,0,0,0,0,-1,1623,1471,0,0
406,-447,0,0,0,0,0,0,0,0,0,-1,1630,1471,0,0
413,-447,0,0,0,0,0,0,0,0,0,-1,1637,1471,0,0
420,-447,0,0,0,0,0,0,0,0,0,-1,1644,1471,0,0
427,-447,0,0,0,0,0,0,0,0,0,-1,1651,1471,0,0
434,-447,0,0,0,0,0,0,0,0,0,-1,1658,1471,0,0
441,-447,0,0,0,0,0,0,0,0,0,-1,1665,1471,0,0
448,-447,0,0,0,0,0,0,0,0,0,-1,1672,1471,0,0
455,-447,0,0,0,0,0,0,0,0,0,-1,1679,1471,0,0
462,-447,0,0,0,0,0,0,0,0,0,-1,1686,1471,0,0
469,-447,0,0,0,0,0,0,0,0,0,-1,1693,1471,0,0
476,-447,0,0,0,0,0,0,0,0,0,-1,1700,1471,0,0
483,-447,0,0,0,0,0,0,0,0,0,-1,1707,1471,0,0
490,-447,18.2214,-0.810303,0,0,0,0,0,0,0,-1,1714,1471,18.2215,0.810307
497,-447,17.0237,0.352417,0,0,0,0,0,0,0,-1,1721,1471,17.0237,-0.352442
504,-447,15.8998,1.53479,0,0,0,0,0,0,0,-1,1728,1471,15.8997,-1.53478
511,-447,14.7201,2.76111,0,0,0,0,0,0,0,-1,1735,1471,14.7201,-2.76107
518,-447,17.7618,13.2864,0,0,0,0,0,0,0,-1,1742,1471,17.7619,-13.2863
525,-447,17.1191,11.9014,0,0,0,0,0,0,0,-1,1749,1471,17.1191,-11.9013
532,-447,16.3959,10.0455,0,0,0,0,0,0,0,-1,1756,1471,16.3959,-10.0456
539,-447,14.1699,10.0204,0,0,0,0,0,0,0,-1,1763,1471,14.1699,-10.0204
546,-447,16.3715,11.8046,0,0,0,0,0,0,0,-1,1770,1471,16.3714,-11.8046
553,-447,17.5106,13.4012,0,0,0,0,0,0,0,-1,1777,1471,17.5107,-13.4012
560,-447,17.0187,13.168,0,0,0,0,0,0,0,-1,1784,1471,17.0187,-13.168
567,-447,18.9286,15.1703,0,0,0,0,0,0,0,-1,1791,1471,18.9286,-15.1703
574,-447,22.5234,18.7936,0,0,0,0,0,0,0,-1,1798,1471,22.5234,-18.7936
581,-447,22.8513,18.1797,0.00611201,0.00516251,-0.0039883,0.00965372,0.0016208,-0.726159,0.00596935,0.0385704,1805,1471,22.8513,-18.1797
588,-447,22.9586,17.4929,0.00491682,0.00405331,-0.00330325,0.00781641,0.00115371,-0.720413,0.00487212,0.0213357,1812,1471,22.9586,-17.4929
595,-447,22.9686,16.9648,0.0038809,0.0030955,-0.00266215,0.00617916,0.000797238,-0.71217,0.00388109,0.0127137,1819,1471,22.9686,-16.9648
602,-447,22.9718,16.4484,0.00315364,0.00216803,-0.00204899,0.00476825,0.000553417,-0.667384,0.00301136,0.0113374,1826,1471,22.9718,-16.4484
609,-447,22.9563,15.9713,0.00253441,0.00131576,-0.00147254,0.00351871,0.00033146,-0.589229,0.0022435,0.0123603,1833,1471,22.9563,-15.9713
616,-447,22.9292,15.4872,0.00201069,0.000615684,-0.000994519,0.00252792,9.84515e-05,-0.479584,0.00165344,0.0147534,1840,1471,22.9291,-15.4872
623,-447,22.9269,15.0195,0.00168265,-5.12434e-05,-0.000549498,0.00184213,-0.00021072,-0.282462,0.00130401,0.0175562,1847,1471,22.9268,-15.0195
630,-447,22.9142,14.5232,0.00146668,-0.000689801,-0.000147172,0.00147667,-0.000699799,-0.0678274,0.00128299,0.0111232,1854,1471,22.9141,-14.5232
637,-447,22.9095,14.0386,0.00124935,-0.00118971,0.000226203,0.00127015,-0.00121052,0.0916995,0.00143235,0.01119,1861,1471,22.9096,-14.0386
644,-447,22.9117,13.5645,0.00108738,-0.00163466,0.000581447,0.00120638,-0.00175366,0.201873,0.00171868,0.0116961,1868,1471,22.9117,-13.5645
651,-447,22.9772,13.0533,0.00101815,-0.00195231,0.000883211,0.00126092,-0.00219507,0.268243,0.00201947,0.0461926,1875,1471,22.9772,-13.0533
658,-447,23.1797,12.4568,0,0,0,0,0,0,0,-1,1882,1471,23.1797,-12.4568
665,-447,18.4946,9.79919,0,0,0,0,0,0,0,-1,1889,1471,18.4946,-9.79922
672,-447,18.9784,9.66077,0,0,0,0,0,0,0,-1,1896,1471,18.9784,-9.66081
679,-447,14.844,7.4248,0,0,0,0,0,0,0,-1,1903,1471,14.844,-7.42477
686,-447,9.81079,4.30859,0,0,0,0,0,0,0,-1,1910,1471,9.8108,-4.30864
693,-447,10.48,2.08643,0,0,0,0,0,0,0,-1,1917,1471,10.48,-2.08642
700,-447,0,0,0,0,0,0,0,0,0,-1,1924,1471,0,0
707,-447,0,0,0,0,0,0,0,0,0,-1,1931,1471,0,0
714,-447,0,0,0,0,0,0,0,0,0,-1,1938,1471,0,0
721,-447,0,0,0,0,0,0,0,0,0,-1,1945,1471,0,0
728,-447,0,0,0,0,0,0,0,0,0,-1,1952,1471,0,0
735,-447,0,0,0,0,0,0,0,0,0,-1,1959,1471,0,0
742,-447,0,0,0,0,0,0,0,0,0,-1,1966,1471,0,0
749,-447,0,0,0,0,0,0,0,0,0,-1,1973,1471,0,0
756,-447,0,0,0,0,0,0,0,0,0,-1,1980,1471,0,0
763,-447,0,0,0,0,0,0,0,0,0,-1,1987,1471,0,0
770,-447,0,0,0,0,0,0,0,0,0,-1,1994,1471,0,0
777,-447,0,0,0,0,0,0,0,0,0,-1,2001,1471,0,0
784,-447,0,0,0,0,0,0,0,0,0,-1,2008,1471,0,0
791,-447,0,0,0,0,0,0,0,0,0,-1,2015,1471,0,0
798,-447,0,0,0,0,0,0,0,0,0,-1,2022,1471,0,0
805,-447,0,0,0,0,0,0,0,0,0,-1,2029,1471,0,0
812,-447,0,0,0,0,0,0,0,0,0,-1,2036,1471,0,0
-700,-454,0,0,0,0,0,0,0,0,0,-1,524,1478,0,0
-693,-454,0,0,0,0,0,0,0,0,0,-1,531,1478,0,0
-686,-454,0,0,0,0,0,0,0,0,0,-1,538,1478,0,0
-679,-454,0,0,0,0,0,0,0,0,0,-1,545,1478,0,0
-672,-454,0,0,0,0,0,0,0,0,0,-1,552,1478,0,0
-665,-454,0,0,0,0,0,0,0,0,0,-1,559,1478,0,0
-658,-454,0,0,0,0,0,0,0,0,0,-1,566,1478,0,0
-651,-454,0,0,0,0,0,0,0,0,0,-1,573,1478,0,0
-644,-454,0,0,0,0,0,0,0,0,0,-1,580,1478,0,0
-637,-454,0,0,0,0,0,0,0,0,0,-1,587,1478,0,0
-630,-454,0,0,0,0,0,0,0,0,0,-1,594,1478,0,0
-623,-454,0,0,0,0,0,0,0,0,0,-1,601,1478,0,0
-616,-454,0,0,0,0,0,0,0,0,0,-1,608,1478,0,0
-609,-454,0,0,0,0,0,0,0,0,0,-1,615,1478,0,0
-602,-454,0,0,0,0,0,0,0,0,0,-1,622,1478,0,0
-595,-454,0,0,0,0,0,0,0,0,0,-1,629,1478,0,0
-588,-454,0,0,0,0,0,0,0,0,0,-1,636,1478,0,0
-581,-454,0,0,0,0,0,0,0,0,0,-1,643,1478,0,0
-574,-454,-8.4881,-0.465942,0,0,0,0,0,0,0,-1,650,1478,-8.4881,0.465885
-567,-454,-8.10046,0.922974,0,0,0,0,0,0,0,-1,657,1478,-8.10047,-0.923034
-560,-454,-10.656,3.51172,0,0,0,0,0,0,0,-1,664,1478,-10.656,-3.51176
-553,-454,-9.01129,3.95251,0,0,0,0,0,0,0,-1,671,1478,-9.0113,-3.95256
-546,-454,-9.61896,6.05237,0,0,0,0,0,0,0,-1,678,1478,-9.61897,-6.05239
-539,-454,-7.72589,4.96533,0,0,0,0,0,0,0,-1,685,1478,-7.72592,-4.96532
-532,-454,-7.03931,7.59985,0,0,0,0,0,0,0,-1,692,1478,-7.03929,-7.59981
-525,-454,-5.78723,9.677,0,0,0,0,0,0,0,-1,699,1478,-5.78722,-9.67703
-518,-454,-7.53833,11.2206,0,0,0,0,0,0,0,-1,706,1478,-7.53836,-11.2206
-511,-454,-7.70062,11.7052,-0.000654823,-0.00206545,-0.000775972,-0.000311519,-0.00240876,-0.416531,0.00151273,0.0396267,713,1478,-7.7006,-11.7053
-504,-454,-7.62872,12.3445,-0.000508486,-0.0017067,-0.000658572,-0.000217287,-0.0019979,-0.416321,0.00126574,0.0164589,720,1478,-7.62874,-12.3445
-497,-454,-7.63116,12.8955,-0.000143861,-0.00115955,-0.000322353,-5.01933e-05,-0.00125322,-0.282789,0.00081926,0.0186109,727,1478,-7.63115,-12.8956
-490,-454,-7.64655,13.4264,0.000628837,-0.000300757,0.000353068,0.00074773,-0.000419649,0.324814,0.000682801,0.0174994,734,1478,-7.64656,-13.4264
-483,-454,-7.69305,13.934,0.00186848,0.000854857,0.00140178,0.00285225,-0.000128919,0.611936,0.0019459,0.0160786,741,1478,-7.69303,-13.9339
-476,-454,-7.72589,14.4305,0.00350039,0.00222436,0.0027601,0.00569525,2.94931e-05,0.671815,0.00378704,0.0145317,748,1478,-7.72592,-14.4305
-469,-454,-7.73322,14.9678,0.00550469,0.00371448,0.00443646,0.00913544,8.37212e-05,0.685854,0.00606258,0.0108356,755,1478,-7.73324,-14.9678
-462,-454,-7.76166,15.4995,0.00789634,0.00537304,0.00637945,0.0131377,0.00013168,0.687774,0.00871491,0.0106422,762,1478,-7.76163,-15.4996
-455,-454,-7.79077,16.0144,0.0107702,0.00719954,0.00868497,0.0178514,0.000118292,0.684028,0.0118617,0.0126873,769,1478,-7.7908,-16.0144
-448,-454,-7.78436,16.5597,0.0142,0.00924597,0.0114353,0.0234235,2.24235e-05,0.678742,0.0156082,0.0187761,776,1478,-7.78438,-16.5597
-441,-454,-7.46753,17.4175,0.0181828,0.0112648,0.0146041,0.029732,-0.00028437,0.669115,0.0199168,0.0481081,783,1478,-7.46751,-17.4174
-434,-454,-6.96698,18.3387,0,0,0,0,0,0,0,-1,790,1478,-6.96701,-18.3387
-427,-454,-6.00183,15.8636,0,0,0,0,0,0,0,-1,797,1478,-6.00184,-15.8637
-420,-454,-6.28088,15.2135,0,0,0,0,0,0,0,-1,804,1478,-6.28087,-15.2135
-413,-454,-5.4408,13.674,0,0,0,0,0,0,0,-1,811,1478,-5.44079,-13.6739
-406,-454,-2.38208,10.0308,0,0,0,0,0,0,0,-1,818,1478,-2.38209,-10.0308
-399,-454,-1.21033,6.95447,0,0,0,0,0,0,0,-1,825,1478,-1.21035,-6.95452
-392,-454,0.0967407,0.985474,0,0,0,0,0,0,0,-1,832,1478,0.0967364,-0.985529
-385,-454,2.38629,3.297,0,0,0,0,0,0,0,-1,839,1478,2.38629,-3.29702
-378,-454,-15.9756,2.83997,0,0,0,0,0,0,0,-1,846,1478,-15.9756,-2.83994
-371,-454,-17.2753,2.01453,0,0,0,0,0,0,0,-1,853,1478,-17.2753,-2.01455
-364,-454,1.08124,0.819458,0,0,0,0,0,0,0,-1,860,1478,1.08124,-0.819513
-357,-454,0,0,0,0,0,0,0,0,0,-1,867,1478,0,0
-350,-454,0,0,0,0,0,0,0,0,0,-1,874,1478,0,0
-343,-454,0,0,0,0,0,0,0,0,0,-1,881,1478,0,0
-336,-454,0,0,0,0,0,0,0,0,0,-1,888,1478,0,0
-329,-454,0,0,0,0,0,0,0,0,0,-1,895,1478,0,0
-322,-454,0,0,0,0,0,0,0,0,0,-1,902,1478,0,0
-315,-454,0,0,0,0,0,0,0,0,0,-1,909,1478,0,0
-308,-454,0,0,0,0,0,0,0,0,0,-1,916,1478,0,0
-301,-454,0,0,0,0,0,0,0,0,0,-1,923,1478,0,0
-294,-454,0,0,0,0,0,0,0,0,0,-1,930,1478,0,0
-287,-454,0,0,0,0,0,0,0,0,0,-1,937,1478,0,0
-280,-454,0,0,0,0,0,0,0,0,0,-1,944,1478,0,0
-273,-454,0,0,0,0,0,0,0,0,0,-1,951,1478,0,0
-266,-454,0,0,0,0,0,0,0,0,0,-1,958,1478,0,0
-259,-454,0,0,0,0,0,0,0,0,0,-1,965,1478,0,0
-252,-454,0,0,0,0,0,0,0,0,0,-1,972,1478,0,0
-245,-454,0,0,0,0,0,0,0,0,0,-1,979,1478,0,0
-238,-454,0,0,0,0,0,0,0,0,0,-1,986,1478,0,0
-231,-454,0,0,0,0,0,0,0,0,0,-1,993,1478,0,0
-224,-454,0,0,0,0,0,0,0,0,0,-1,1000,1478,0,0
-217,-454,0,0,0,0,0,0,0,0,0,-1,1007,1478,0,0
-210,-454,0,0,0,0,0,0,0,0,0,-1,1014,1478,0,0
-203,-454,0,0,0,0,0,0,0,0,0,-1,1021,1478,0,0
-196,-454,0,0,0,0,0,0,0,0,0,-1,1028,1478,0,0
-189,-454,0,0,0,0,0,0,0,0,0,-1,1035,1478,0,0
-182,-454,0,0,0,0,0,0,0,0,0,-1,1042,1478,0,0
-175,-454,0,0,0,0,0,0,0,0,0,-1,1049,1478,0,0
-168,-454,0,0,0,0,0,0,0,0,0,-1,1056,1478,0,0
-161,-454,0,0,0,0,0,0,0,0,0,-1,1063,1478,0,0
-154,-454,0,0,0,0,0,0,0,0,0,-1,1070,1478,0,0
-147,-454,0,0,0,0,0,0,0,0,0,-1,1077,1478,0,0
-140,-454,0,0,0,0,0,0,0,0,0,-1,1084,1478,0,0
-133,-454,0,0,0,0,0,0,0,0,0,-1,1091,1478,0,0
-126,-454,0,0,0,0,0,0,0,0,0,-1,1098,1478,0,0
-119,-454,0,0,0,0,0,0,0,0,0,-1,1105,1478,0,0
-112,-454,0,0,0,0,0,0,0,0,0,-1,1112,1478,0,0
-105,-454,0,0,0,0,0,0,0,0,0,-1,1119,1478,0,0
-98,-454,0,0,0,0,0,0,0,0,0,-1,1126,1478,0,0
-91,-454,0,0,0,0,0,0,0,0,0,-1,1133,1478,0,0
-84,-454,0,0,0,0,0,0,0,0,0,-1,1140,1478,0,0
-77,-454,0,0,0,0,0,0,0,0,0,-1,1147,1478,0,0
-70,-454,0,0,0,0,0,0,0,0,0,-1,1154,1478,0,0
-63,-454,0,0,0,0,0,0,0,0,0,-1,1161,1478,0,0
-56,-454,0,0,0,0,0,0,0,0,0,-1,1168,1478,0,0
-49,-454,0,0,0,0,0,0,0,0,0,-1,1175,1478,0,0
-42,-454,0,0,0,0,0,0,0,0,0,-1,1182,1478,0,0
-35,-454,0,0,0,0,0,0,0,0,0,-1,1189,1478,0,0
-28,-454,0,0,0,0,0,0,0,0,0,-1,1196,1478,0,0
-21,-454,0,0,0,0,0,0,0,0,0,-1,1203,1478,0,0
-14,-454,0,0,0,0,0,0,0,0,0,-1,1210,1478,0,0
-7,-454,0,0,0,0,0,0,0,0,0,-1,1217,1478,0,0
0,-454,0,0,0,0,0,0,0,0,0,-1,1224,1478,0,0
7,-454,0,0,0,0,0,0,0,0,0,-1,1231,1478,0,0
14,-454,0,0,0,0,0,0,0,0,0,-1,1238,1478,0,0
21,-454,0,0,0,0,0,0,0,0,0,-1,1245,1478,0,0
28,-454,0,0,0,0,0,0,0,0,0,-1,1252,1478,0,0
35,-454,0,0,0,0,0,0,0,0,0,-1,1259,1478,0,0
42,-454,0,0,0,0,0,0,0,0,0,-1,1266,1478,0,0
49,-454,0,0,0,0,0,0,0,0,0,-1,1273,1478,0,0
56,-454,0,0,0,0,0,0,0,0,0,-1,1280,1478,0,0
63,-454,0,0,0,0,0,0,0,0,0,-1,1287,1478,0,0
70,-454,0,0,0,0,0,0,0,0,0,-1,1294,1478,0,0
77,-454,0,0,0,0,0,0,0,0,0,-1,1301,1478,0,0
84,-454,0,0,0,0,0,0,0,0,0,-1,1308,1478,0,0
91,-454,0,0,0,0,0,0,0,0,0,-1,1315,1478,0,0
98,-454,0,0,0,0,0,0,0,0,0,-1,1322,1478,0,0
105,-454,0,0,0,0,0,0,0,0,0,-1,1329,1478,0,0
112,-454,0,0,0,0,0,0,0,0,0,-1,1336,1478,0,0
119,-454,0,0,0,0,0,0,0,0,0,-1,1343,1478,0,0
126,-454,0,0,0,0,0,0,0,0,0,-1,1350,1478,0,0
133,-454,0,0,0,0,0,0,0,0,0,-1,1357,1478,0,0
140,-454,0,0,0,0,0,0,0,0,0,-1,1364,1478,0,0
147,-454,0,0,0,0,0,0,0,0,0,-1,1371,1478,0,0
154,-454,0,0,0,0,0,0,0,0,0,-1,1378,1478,0,0
161,-454,0,0,0,0,0,0,0,0,0,-1,1385,1478,0,0
168,-454,0,0,0,0,0,0,0,0,0,-1,1392,1478,0,0
175,-454,0,0,0,0,0,0,0,0,0,-1,1399,1478,0,0
182,-454,0,0,0,0,0,0,0,0,0,-1,1406,1478,0,0
189,-454,0,0,0,0,0,0,0,0,0,-1,1413,1478,0,0
196,-454,0,0,0,0,0,0,0,0,0,-1,1420,1478,0,0
203,-454,0,0,0,0,0,0,0,0,0,-1,1427,1478,0,0
210,-454,0,0,0,0,0,0,0,0,0,-1,1434,1478,0,0
217,-454,0,0,0,0,0,0,0,0,0,-1,1441,1478,0,0
224,-454,0,0,0,0,0,0,0,0,0,-1,1448,1478,0,0
231,-454,0,0,0,0,0,0,0,0,0,-1,1455,1478,0,0
238,-454,0,0,0,0,0,0,0,0,0,-1,1462,1478,0,0
245,-454,0,0,0,0,0,0,0,0,0,-1,1469,1478,0,0
252,-454,0,0,0,0,0,0,0,0,0,-1,1476,1478,0,0
259,-454,0,0,0,0,0,0,0,0,0,-1,1483,1478,0,0
266,-454,0,0,0,0,0,0,0,0,0,-1,1490,1478,0,0
273,-454,0,0,0,0,0,0,0,0,0,-1,1497,1478,0,0
280,-454,0,0,0,0,0,0,0,0,0,-1,1504,1478,0,0
287,-454,0,0,0,0,0,0,0,0,0,-1,1511,1478,0,0
294,-454,0,0,0,0,0,0,0,0,0,-1,1518,1478,0,0
301,-454,0,0,0,0,0,0,0,0,0,-1,1525,1478,0,0
308,-454,0,0,0,0,0,0,0,0,0,-1,1532,1478,0,0
315,-454,0,0,0,0,0,0,0,0,0,-1,1539,1478,0,0
322,-454,0,0,0,0,0,0,0,0,0,-1,1546,1478,0,0
329,-454,0,0,0,0,0,0,0,0,0,-1,1553,1478,0,0
336,-454,0,0,0,0,0,0,0,0,0,-1,1560,1478,0,0
343,-454,0,0,0,0,0,0,0,0,0,-1,1567,1478,0,0
350,-454,0,0,0,0,0,0,0,0,0,-1,1574,1478,0,0
357,-454,0,0,0,0,0,0,0,0,0,-1,1581,1478,0,0
364,-454,0,0,0,0,0,0,0,0,0,-1,1588,1478,0,0
371,-454,0,0,0,0,0,0,0,0,0,-1,1595,1478,0,0
378,-454,0,0,0,0,0,0,0,0,0,-1,1602,1478,0,0
385,-454,0,0,0,0,0,0,0,0,0,-1,1609,1478,0,0
392,-454,0,0,0,0,0,0,0,0,0,-1,1616,1478,0,0
399,-454,0,0,0,0,0,0,0,0,0,-1,1623,1478,0,0
406,-454,0,0,0,0,0,0,0,0,0,-1,1630,1478,0,0
413,-454,0,0,0,0,0,0,0,0,0,-1,1637,1478,0,0
420,-454,0,0,0,0,0,0,0,0,0,-1,1644,1478,0,0
427,-454,0,0,0,0,0,0,0,0,0,-1,1651,1478,0,0
434,-454,0,0,0,0,0,0,0,0,0,-1,1658,1478,0,0
441,-454,0,0,0,0,0,0,0,0,0,-1,1665,1478,0,0
448,-454,0,0,0,0,0,0,0,0,0,-1,1672,1478,0,0
455,-454,0,0,0,0,0,0,0,0,0,-1,1679,1478,0,0
462,-454,0,0,0,0,0,0,0,0,0,-1,1686,1478,0,0
469,-454,0,0,0,0,0,0,0,0,0,-1,1693,1478,0,0
476,-454,0,0,0,0,0,0,0,0,0,-1,1700,1478,0,0
483,-454,14.2399,3.97498,0,0,0,0,0,0,0,-1,1707,1478,14.2399,-3.97502
490,-454,18.1821,-0.175781,0,0,0,0,0,0,0,-1,1714,1478,18.1821,0.175822
497,-454,16.8854,1.01208,0,0,0,0,0,0,0,-1,1721,1478,16.8854,-1.01209
504,-454,15.587,2.05994,0,0,0,0,0,0,0,-1,1728,1478,15.5871,-2.05998
511,-454,17.0273,14.5258,0,0,0,0,0,0,0,-1,1735,1478,17.0273,-14.5258
518,-454,16.4158,13.1039,0,0,0,0,0,0,0,-1,1742,1478,16.4157,-13.1038
525,-454,15.7842,11.6628,0,0,0,0,0,0,0,-1,1749,1478,15.7841,-11.6629
532,-454,15.1094,10.2476,0,0,0,0,0,0,0,-1,1756,1478,15.1094,-10.2475
539,-454,13.7905,10.9373,0,0,0,0,0,0,0,-1,1763,1478,13.7906,-10.9372
546,-454,16.2002,13.2458,0,0,0,0,0,0,0,-1,1770,1478,16.2002,-13.2459
553,-454,15.6747,12.1868,0,0,0,0,0,0,0,-1,1777,1478,15.6747,-12.1868
560,-454,16.3895,14.0527,0,0,0,0,0,0,0,-1,1784,1478,16.3895,-14.0528
567,-454,22.6348,19.1422,0,0,0,0,0,0,0,-1,1791,1478,22.6347,-19.1423
574,-454,22.5077,18.5066,0.00551787,0.005071,-0.00344627,0.00874794,0.00184093,-0.753027,0.00532546,0.0342234,1798,1478,22.5077,-18.5065
581,-454,22.4755,17.9814,0.00460967,0.00421724,-0.00298213,0.00740203,0.00142487,-0.752547,0.00453497,0.0205391,1805,1478,22.4754,-17.9815
588,-454,22.5378,17.4513,0.00384602,0.00324438,-0.0024924,0.00605568,0.00103471,-0.725342,0.00374023,0.0125615,1812,1478,22.5378,-17.4513
595,-454,22.5073,16.9655,0.00324625,0.00234877,-0.00202935,0.00487588,0.000719136,-0.676586,0.00303937,0.0116626,1819,1478,22.5073,-16.9654
602,-454,22.4883,16.4719,0.00285212,0.00147101,-0.00159579,0.00390036,0.000422764,-0.581197,0.0024714,0.00932147,1826,1478,22.4882,-16.4719
609,-454,22.4791,16.0051,0.0025331,0.000630975,-0.00114976,0.00307418,8.98987e-05,-0.43985,0.00202015,0.010772,1833,1478,22.4791,-16.0051
616,-454,22.4653,15.5223,0.00230571,-7.19227e-05,-0.000783092,0.00254045,-0.000306664,-0.291239,0.00180456,0.0149027,1840,1478,22.4654,-15.5223
623,-454,22.4633,15.0419,0.00223152,-0.000768462,-0.000416368,0.00228823,-0.000825178,-0.135382,0.00186251,0.0144016,1847,1478,22.4632,-15.0419
630,-454,22.4465,14.5577,0.00221182,-0.00142581,-5.93332e-05,0.00221278,-0.00142678,-0.0163052,0.00211757,0.0132408,1854,1478,22.4465,-14.5577
637,-454,22.3867,14.0837,0.00219671,-0.00190424,0.000237084,0.00221038,-0.00191791,0.0575562,0.00238546,0.0112206,1861,1478,22.3868,-14.0837
644,-454,22.4673,13.5662,0.00223284,-0.00232966,0.000481221,0.00228304,-0.00237986,0.103949,0.00269232,0.0226632,1868,1478,22.4673,-13.5662
651,-454,22.6395,12.952,0,0,0,0,0,0,0,-1,1875,1478,22.6396,-12.9521
658,-454,17.2583,10.0765,0,0,0,0,0,0,0,-1,1882,1478,17.2583,-10.0765
665,-454,17.683,9.67566,0,0,0,0,0,0,0,-1,1889,1478,17.683,-9.67572
672,-454,16.5476,6.41931,0,0,0,0,0,0,0,-1,1896,1478,16.5476,-6.41929
679,-454,14.2161,5.45007,0,0,0,0,0,0,0,-1,1903,1478,14.2161,-5.45013
686,-454,10.3767,2.12842,0,0,0,0,0,0,0,-1,1910,1478,10.3767,-2.12839
693,-454,11.1857,1.48486,0,0,0,0,0,0,0,-1,1917,1478,11.1857,-1.48487
700,-454,0,0,0,0,0,0,0,0,0,-1,1924,1478,0,0
707,-454,0,0,0,0,0,0,0,0,0,-1,1931,1478,0,0
714,-454,0,0,0,0,0,0,0,0,0,-1,1938,1478,0,0
721,-454,0,0,0,0,0,0,0,0,0,-1,1945,1478,0,0
728,-454,0,0,0,0,0,0,0,0,0,-1,1952,1478,0,0
735,-454,0,0,0,0,0,0,0,0,0,-1,1959,1478,0,0
742,-454,0,0,0,0,0,0,0,0,0,-1,1966,1478,0,0
749,-454,0,0,0,0,0,0,0,0,0,-1,1973,1478,0,0
756,-454,0,0,0,0,0,0,0,0,0,-1,1980,1478,0,0
763,-454,0,0,0,0,0,0,0,0,0,-1,1987,1478,0,0
770,-454,0,0,0,0,0,0,0,0,0,-1,1994,1478,0,0
777,-454,0,0,0,0,0,0,0,0,0,-1,2001,1478,0,0
784,-454,0,0,0,0,0,0,0,0,0,-1,2008,1478,0,0
791,-454,0,0,0,0,0,0,0,0,0,-1,2015,1478,0,0
798,-454,0,0,0,0,0,0,0,0,0,-1,2022,1478,0,0
805,-454,0,0,0,0,0,0,0,0,0,-1,2029,1478,0,0
812,-454,0,0,0,0,0,0,0,0,0,-1,2036,1478,0,0
-700,-461,0,0,0,0,0,0,0,0,0,-1,524,1485,0,0
-693,-461,0,0,0,0,0,0,0,0,0,-1,531,1485,0,0
-686,-461,0,0,0,0,0,0,0,0,0,-1,538,1485,0,0
-679,-461,0,0,0,0,0,0,0,0,0,-1,545,1485,0,0
-672,-461,0,0,0,0,0,0,0,0,0,-1,552,1485,0,0
-665,-461,0,0,0,0,0,0,0,0,0,-1,559,1485,0,0
-658,-461,0,0,0,0,0,0,0,0,0,-1,566,1485,0,0
-651,-461,0,0,0,0,0,0,0,0,0,-1,573,1485,0,0
-644,-461,0,0,0,0,0,0,0,0,0,-1,580,1485,0,0
-637,-461,0,0,0,0,0,0,0,0,0,-1,587,1485,0,0
-630,-461,0,0,0,0,0,0,0,0,0,-1,594,1485,0,0
-623,-461,0,0,0,0,0,0,0,0,0,-1,601,1485,0,0
-616,-461,0,0,0,0,0,0,0,0,0,-1,608,1485,0,0
-609,-461,0,0,0,0,0,0,0,0,0,-1,615,1485,0,0
-602,-461,0,0,0,0,0,0,0,0,0,-1,622,1485,0,0
-595,-461,0,0,0,0,0,0,0,0,0,-1,629,1485,0,0
-588,-461,0,0,0,0,0,0,0,0,0,-1,636,1485,0,0
-581,-461,0,0,0,0,0,0,0,0,0,-1,643,1485,0,0
-574,-461,0,0,0,0,0,0,0,0,0,-1,650,1485,0,0
-567,-461,-9.69031,0.513306,0,0,0,0,0,0,0,-1,657,1485,-9.69032,-0.513305
-560,-461,-7.28815,1.54004,0,0,0,0,0,0,0,-1,664,1485,-7.28817,-1.54005
-553,-461,-11.9607,5.27783,0,0,0,0,0,0,0,-1,671,1485,-11.9607,-5.27778
-546,-461,-11.4215,4.44666,0,0,0,0,0,0,0,-1,678,1485,-11.4215,-4.4467
-539,-461,-9.36493,5.23438,0,0,0,0,0,0,0,-1,685,1485,-9.3649,-5.23432
-532,-461,-7.82898,6.78357,0,0,0,0,0,0,0,-1,692,1485,-7.829,-6.78363
-525,-461,-6.37878,8.75659,0,0,0,0,0,0,0,-1,699,1485,-6.3788,-8.75659
-518,-461,-6.49695,10.886,0,0,0,0,0,0,0,-1,706,1485,-6.49696,-10.8859
-511,-461,-7.26746,11.7944,0,0,0,0,0,0,0,-1,713,1485,-7.26747,-11.7945
-504,-461,-7.17181,12.2947,-0.00132013,-0.00258777,-0.00121045,-0.000587594,-0.0033203,-0.544215,0.00204599,0.0249141,720,1485,-7.17179,-12.2946
-497,-461,-7.10968,12.9395,-0.00117836,-0.00207569,-0.00102014,-0.000512587,-0.00274147,-0.578226,0.00168301,0.0107722,727,1485,-7.1097,-12.9394
-490,-461,-7.15436,13.446,-0.000602981,-0.00130805,-0.00049931,-0.000344294,-0.00156674,-0.478013,0.000950738,0.0127553,734,1485,-7.15437,-13.4461
-483,-461,-7.18341,13.9434,0.000480953,-0.000220563,0.000404151,0.00066533,-0.00040494,0.428005,0.000623987,0.0128761,741,1485,-7.18342,-13.9434
-476,-461,-7.20526,14.4658,0.00197753,0.00103834,0.00161602,0.0031908,-0.00017493,0.643999,0.00218784,0.0118426,748,1485,-7.20523,-14.4658
-469,-461,-7.21991,14.994,0.00381788,0.002381,0.00310882,0.0062902,-9.13129e-05,0.671843,0.00422423,0.0136039,755,1485,-7.21989,-14.9941
-462,-461,-7.24805,15.5072,0.00597884,0.00382289,0.00480499,0.00982529,-2.35578e-05,0.675053,0.00655806,0.0179447,762,1485,-7.24805,-15.5072
-455,-461,-7.29987,16.0288,0.00849135,0.0053579,0.00676021,0.013864,-1.47559e-05,0.67153,0.00924759,0.0221291,769,1485,-7.29986,-16.0288
-448,-461,-7.28546,16.5496,0.0114415,0.00708049,0.00908388,0.0186029,-8.09412e-05,0.667607,0.012429,0.0189108,776,1485,-7.28547,-16.5496
-441,-461,-7.20392,17.1455,0.0148249,0.00881274,0.0117414,0.0239389,-0.000301329,0.660079,0.0160607,0.0242429,783,1485,-7.2039,-17.1455
-434,-461,-6.86353,17.7488,0.0188022,0.0103702,0.0147369,0.0299144,-0.000741936,0.646076,0.0201948,0.0424792,790,1485,-6.86355,-17.7488
-427,-461,-6.6051,18.6448,0,0,0,0,0,0,0,-1,797,1485,-6.60511,-18.6448
-420,-461,-5.70355,16.6116,0,0,0,0,0,0,0,-1,804,1485,-5.70353,-16.6115
-413,-461,-5.98798,16.0605,0,0,0,0,0,0,0,-1,811,1485,-5.98796,-16.0605
-406,-461,-5.52667,14.839,0,0,0,0,0,0,0,-1,818,1485,-5.52666,-14.839
-399,-461,-1.93439,9.82849,0,0,0,0,0,0,0,-1,825,1485,-1.9344,-9.82846
-392,-461,-0.357544,5.55225,0,0,0,0,0,0,0,-1,832,1485,-0.357536,-5.55228
-385,-461,1.71509,3.35254,0,0,0,0,0,0,0,-1,839,1485,1.71511,-3.35255
-378,-461,1.95996,3.01111,0,0,0,0,0,0,0,-1,846,1485,1.95993,-3.01111
-371,-461,0.702881,2.33459,0,0,0,0,0,0,0,-1,853,1485,0.702859,-2.33459
-364,-461,-1.93097,2.56458,0,0,0,0,0,0,0,-1,860,1485,-1.93095,-2.56456
-357,-461,-2.41516,3.49487,0,0,0,0,0,0,0,-1,867,1485,-2.41517,-3.49487
-350,-461,0,0,0,0,0,0,0,0,0,-1,874,1485,0,0
-343,-461,0,0,0,0,0,0,0,0,0,-1,881,1485,0,0
-336,-461,0,0,0,0,0,0,0,0,0,-1,888,1485,0,0
-329,-461,0,0,0,0,0,0,0,0,0,-1,895,1485,0,0
-322,-461,0,0,0,0,0,0,0,0,0,-1,902,1485,0,0
-315,-461,0,0,0,0,0,0,0,0,0,-1,909,1485,0,0
-308,-461,0,0,0,0,0,0,0,0,0,-1,916,1485,0,0
-301,-461,0,0,0,0,0,0,0,0,0,-1,923,1485,0,0
-294,-461,0,0,0,0,0,0,0,0,0,-1,930,1485,0,0
-287,-461,0,0,0,0,0,0,0,0,0,-1,937,1485,0,0
-280,-461,0,0,0,0,0,0,0,0,0,-1,944,1485,0,0
-273,-461,0,0,0,0,0,0,0,0,0,-1,951,1485,0,0
-266,-461,0,0,0,0,0,0,0,0,0,-1,958,1485,0,0
-259,-461,0,0,0,0,0,0,0,0,0,-1,965,1485,0,0
-252,-461,0,0,0,0,0,0,0,0,0,-1,972,1485,0,0
-245,-461,0,0,0,0,0,0,0,0,0,-1,979,1485,0,0
-238,-461,0,0,0,0,0,0,0,0,0,-1,986,1485,0,0
-231,-461,0,0,0,0,0,0,0,0,0,-1,993,1485,0,0
-224,-461,0,0,0,0,0,0,0,0,0,-1,1000,1485,0,0
-217,-461,0,0,0,0,0,0,0,0,0,-1,1007,1485,0,0
-210,-461,0,0,0,0,0,0,0,0,0,-1,1014,1485,0,0
-203,-461,0,0,0,0,0,0,0,0,0,-1,1021,1485,0,0
-196,-461,0,0,0,0,0,0,0,0,0,-1,1028,1485,0,0
-189,-461,0,0,0,0,0,0,0,0,0,-1,1035,1485,0,0
-182,-461,0,0,0,0,0,0,0,0,0,-1,1042,1485,0,0
-175,-461,0,0,0,0,0,0,0,0,0,-1,1049,1485,0,0
-168,-461,0,0,0,0,0,0,0,0,0,-1,1056,1485,0,0
-161,-461,0,0,0,0,0,0,0,0,0,-1,1063,1485,0,0
-154,-461,0,0,0,0,0,0,0,0,0,-1,1070,1485,0,0
-147,-461,0,0,0,0,0,0,0,0,0,-1,1077,1485,0,0
-140,-461,0,0,0,0,0,0,0,0,0,-1,1084,1485,0,0
-133,-461,0,0,0,0,0,0,0,0,0,-1,1091,1485,0,0
-126,-461,0,0,0,0,0,0,0,0,0,-1,1098,1485,0,0
-119,-461,0,0,0,0,0,0,0,0,0,-1,1105,1485,0,0
-112,-461,0,0,0,0,0,0,0,0,0,-1,1112,1485,0,0
-105,-461,0,0,0,0,0,0,0,0,0,-1,1119,1485,0,0
-98,-461,0,0,0,0,0,0,0,0,0,-1,1126,1485,0,0
-91,-461,0,0,0,0,0,0,0,0,0,-1,1133,1485,0,0
-84,-461,0,0,0,0,0,0,0,0,0,-1,1140,1485,0,0
-77,-461,0,0,0,0,0,0,0,0,0,-1,1147,1485,0,0
-70,-461,0,0,0,0,0,0,0,0,0,-1,1154,1485,0,0
-63,-461,0,0,0,0,0,0,0,0,0,-1,1161,1485,0,0
-56,-461,0,0,0,0,0,0,0,0,0,-1,1168,1485,0,0
-49,-461,0,0,0,0,0,0,0,0,0,-1,1175,1485,0,0
-42,-461,0,0,0,0,0,0,0,0,0,-1,1182,1485,0,0
-35,-461,0,0,0,0,0,0,0,0,0,-1,1189,1485,0,0
-28,-461,0,0,0,0,0,0,0,0,0,-1,1196,1485,0,0
-21,-461,0,0,0,0,0,0,0,0,0,-1,1203,1485,0,0
-14,-461,0,0,0,0,0,0,0,0,0,-1,1210,1485,0,0
-7,-461,0,0,0,0,0,0,0,0,0,-1,1217,1485,0,0
0,-461,0,0,0,0,0,0,0,0,0,-1,1224,1485,0,0
7,-461,0,0,0,0,0,0,0,0,0,-1,1231,1485,0,0
14,-461,0,0,0,0,0,0,0,0,0,-1,1238,1485,0,0
21,-461,0,0,0,0,0,0,0,0,0,-1,1245,1485,0,0
28,-461,0,0,0,0,0,0,0,0,0,-1,1252,1485,0,0
35,-461,0,0,0,0,0,0,0,0,0,-1,1259,1485,0,0
42,-461,0,0,0,0,0,0,0,0,0,-1,1266,1485,0,0
49,-461,0,0,0,0,0,0,0,0,0,-1,1273,1485,0,0
56,-461,0,0,0,0,0,0,0,0,0,-1,1280,1485,0,0
63,-461,0,0,0,0,0,0,0,0,0,-1,1287,1485,0,0
70,-461,0,0,0,0,0,0,0,0,0,-1,1294,1485,0,0
77,-461,0,0,0,0,0,0,0,0,0,-1,1301,1485,0,0
84,-461,0,0,0,0,0,0,0,0,0,-1,1308,1485,0,0
91,-461,0,0,0,0,0,0,0,0,0,-1,1315,1485,0,0
98,-461,0,0,0,0,0,0,0,0,0,-1,1322,1485,0,0
105,-461,0,0,0,0,0,0,0,0,0,-1,1329,1485,0,0
112,-461,0,0,0,0,0,0,0,0,0,-1,1336,1485,0,0
119,-461,0,0,0,0,0,0,0,0,0,-1,1343,1485,0,0
126,-461,0,0,0,0,0,0,0,0,0,-1,1350,1485,0,0
133,-461,0,0,0,0,0,0,0,0,0,-1,1357,1485,0,0
140,-461,0,0,0,0,0,0,0,0,0,-1,1364,1485,0,0
147,-461,0,0,0,0,0,0,0,0,0,-1,1371,1485,0,0
154,-461,0,0,0,0,0,0,0,0,0,-1,1378,1485,0,0
161,-461,0,0,0,0,0,0,0,0,0,-1,1385,1485,0,0
168,-461,0,0,0,0,0,0,0,0,0,-1,1392,1485,0,0
175,-461,0,0,0,0,0,0,0,0,0,-1,1399,1485,0,0
182,-461,0,0,0,0,0,0,0,0,0,-1,1406,1485,0,0
189,-461,0,0,0,0,0,0,0,0,0,-1,1413,1485,0,0
196,-461,0,0,0,0,0,0,0,0,0,-1,1420,1485,0,0
203,-461,0,0,0,0,0,0,0,0,0,-1,1427,1485,0,0
210,-461,0,0,0,0,0,0,0,0,0,-1,1434,1485,0,0
217,-461,0,0,0,0,0,0,0,0,0,-1,1441,1485,0,0
224,-461,0,0,0,0,0,0,0,0,0,-1,1448,1485,0,0
231,-461,0,0,0,0,0,0,0,0,0,-1,1455,1485,0,0
238,-461,0,0,0,0,0,0,0,0,0,-1,1462,1485,0,0
245,-461,0,0,0,0,0,0,0,0,0,-1,1469,1485,0,0
252,-461,0,0,0,0,0,0,0,0,0,-1,1476,1485,0,0
259,-461,0,0,0,0,0,0,0,0,0,-1,1483,1485,0,0
266,-461,0,0,0,0,0,0,0,0,0,-1,1490,1485,0,0
273,-461,0,0,0,0,0,0,0,0,0,-1,1497,1485,0,0
280,-461,0,0,0,0,0,0,0,0,0,-1,1504,1485,0,0
287,-461,0,0,0,0,0,0,0,0,0,-1,1511,1485,0,0
294,-461,0,0,0,0,0,0,0,0,0,-1,1518,1485,0,0
301,-461,0,0,0,0,0,0,0,0,0,-1,1525,1485,0,0
308,-461,0,0,0,0,0,0,0,0,0,-1,1532,1485,0,0
315,-461,0,0,0,0,0,0,0,0,0,-1,1539,1485,0,0
322,-461,0,0,0,0,0,0,0,0,0,-1,1546,1485,0,0
329,-461,0,0,0,0,0,0,0,0,0,-1,1553,1485,0,0
336,-461,0,0,0,0,0,0,0,0,0,-1,1560,1485,0,0
343,-461,0,0,0,0,0,0,0,0,0,-1,1567,1485,0,0
350,-461,0,0,0,0,0,0,0,0,0,-1,1574,1485,0,0
357,-461,0,0,0,0,0,0,0,0,0,-1,1581,1485,0,0
364,-461,0,0,0,0,0,0,0,0,0,-1,1588,1485,0,0
371,-461,0,0,0,0,0,0,0,0,0,-1,1595,1485,0,0
378,-461,0,0,0,0,0,0,0,0,0,-1,1602,1485,0,0
385,-461,0,0,0,0,0,0,0,0,0,-1,1609,1485,0,0
392,-461,0,0,0,0,0,0,0,0,0,-1,1616,1485,0,0
399,-461,0,0,0,0,0,0,0,0,0,-1,1623,1485,0,0
406,-461,0,0,0,0,0,0,0,0,0,-1,1630,1485,0,0
413,-461,0,0,0,0,0,0,0,0,0,-1,1637,1485,0,0
420,-461,0,0,0,0,0,0,0,0,0,-1,1644,1485,0,0
427,-461,0,0,0,0,0,0,0,0,0,-1,1651,1485,0,0
434,-461,0,0,0,0,0,0,0,0,0,-1,1658,1485,0,0
441,-461,0,0,0,0,0,0,0,0,0,-1,1665,1485,0,0
448,-461,0,0,0,0,0,0,0,0,0,-1,1672,1485,0,0
455,-461,0,0,0,0,0,0,0,0,0,-1,1679,1485,0,0
462,-461,0,0,0,0,0,0,0,0,0,-1,1686,1485,0,0
469,-461,0,0,0,0,0,0,0,0,0,-1,1693,1485,0,0
476,-461,14.1906,0.690552,0,0,0,0,0,0,0,-1,1700,1485,14.1906,-0.690525
483,-461,10.6361,3.09106,0,0,0,0,0,0,0,-1,1707,1485,10.6361,-3.091
490,-461,17.9972,0.665894,0,0,0,0,0,0,0,-1,1714,1485,17.9972,-0.665876
497,-461,16.6829,1.87732,0,0,0,0,0,0,0,-1,1721,1485,16.6828,-1.87736
504,-461,15.3884,3.09216,0,0,0,0,0,0,0,-1,1728,1485,15.3885,-3.09212
511,-461,15.4292,14.3512,0,0,0,0,0,0,0,-1,1735,1485,15.4292,-14.3512
518,-461,14.8081,10.0085,0,0,0,0,0,0,0,-1,1742,1485,14.8081,-10.0086
525,-461,14.0022,10.8033,0,0,0,0,0,0,0,-1,1749,1485,14.0022,-10.8033
532,-461,17.1704,14.077,0,0,0,0,0,0,0,-1,1756,1485,17.1704,-14.077
539,-461,17.0229,14.7386,0,0,0,0,0,0,0,-1,1763,1485,17.0229,-14.7387
546,-461,16.2106,14.1372,0,0,0,0,0,0,0,-1,1770,1485,16.2106,-14.1372
553,-461,21.4127,19.7487,0,0,0,0,0,0,0,-1,1777,1485,21.4127,-19.7487
560,-461,22.0104,19.4374,0,0,0,0,0,0,0,-1,1784,1485,22.0103,-19.4374
567,-461,22.0547,18.8469,0.00552269,0.00475774,-0.00292592,0.00809103,0.0021894,-0.720406,0.00483247,0.0319624,1791,1485,22.0547,-18.8469
574,-461,22.0616,18.4307,0.00457814,0.00391488,-0.0025777,0.00684545,0.00164757,-0.721423,0.0041256,0.0261296,1798,1485,22.0616,-18.4307
581,-461,22.0576,17.9279,0.00387051,0.00315657,-0.00223921,0.00578102,0.00124606,-0.706355,0.00351311,0.0159944,1805,1485,22.0576,-17.9279
588,-461,22.0568,17.4738,0.00332918,0.0023129,-0.00187928,0.00476781,0.000874278,-0.65336,0.0029309,0.0100892,1812,1485,22.0568,-17.4738
595,-461,22.0168,17.0022,0.00298811,0.00151333,-0.0015401,0.00395825,0.000543188,-0.562129,0.0024777,0.00843158,1819,1485,22.0168,-17.0021
602,-461,22.0018,16.4994,0.0027976,0.000718187,-0.00123797,0.00337454,0.000141245,-0.436112,0.00220412,0.00922807,1826,1485,22.0018,-16.4994
609,-461,21.9956,16.0164,0.002667,-6.74769e-05,-0.000897608,0.00293532,-0.000335794,-0.29047,0.00207787,0.010988,1833,1485,21.9956,-16.0164
616,-461,21.9841,15.5328,0.00264596,-0.000742093,-0.00061613,0.00275452,-0.00085066,-0.174417,0.00217605,0.0137651,1840,1485,21.9841,-15.5328
623,-461,21.9939,15.0676,0.00276301,-0.0014391,-0.00031557,0.00278657,-0.00146267,-0.0745409,0.00249268,0.0155919,1847,1485,21.9939,-15.0677
630,-461,21.9769,14.6123,0.00291671,-0.00208681,-6.31742e-06,0.00291672,-0.00208682,-0.00126259,0.00290201,0.0152155,1854,1485,21.9769,-14.6122
637,-461,21.9286,14.1241,0.00313961,-0.00250703,0.000200078,0.00314669,-0.00251411,0.0353739,0.00327506,0.0143625,1861,1485,21.9286,-14.1242
644,-461,21.989,13.7112,0.00337496,-0.00294624,0.000405558,0.00340088,-0.00297215,0.0638097,0.00368224,0.0307674,1868,1485,21.989,-13.7111
651,-461,22.0791,13.251,0,0,0,0,0,0,0,-1,1875,1485,22.0792,-13.251
658,-461,16.8987,10.1084,0,0,0,0,0,0,0,-1,1882,1485,16.8986,-10.1084
665,-461,17.2638,9.81384,0,0,0,0,0,0,0,-1,1889,1485,17.2638,-9.81385
672,-461,14.4877,6.89429,0,0,0,0,0,0,0,-1,1896,1485,14.4876,-6.89431
679,-461,10.0535,2.16321,0,0,0,0,0,0,0,-1,1903,1485,10.0535,-2.16317
686,-461,10.8195,1.84192,0,0,0,0,0,0,0,-1,1910,1485,10.8194,-1.84195
693,-461,0,0,0,0,0,0,0,0,0,-1,1917,1485,0,0
700,-461,0,0,0,0,0,0,0,0,0,-1,1924,1485,0,0
707,-461,0,0,0,0,0,0,0,0,0,-1,1931,1485,0,0
714,-461,0,0,0,0,0,0,0,0,0,-1,1938,1485,0,0
721,-461,0,0,0,0,0,0,0,0,0,-1,1945,1485,0,0
728,-461,0,0,0,0,0,0,0,0,0,-1,1952,1485,0,0
735,-461,0,0,0,0,0,0,0,0,0,-1,1959,1485,0,0
742,-461,0,0,0,0,0,0,0,0,0,-1,1966,1485,0,0
749,-461,0,0,0,0,0,0,0,0,0,-1,1973,1485,0,0
756,-461,0,0,0,0,0,0,0,0,0,-1,1980,1485,0,0
763,-461,0,0,0,0,0,0,0,0,0,-1,1987,1485,0,0
770,-461,0,0,0,0,0,0,0,0,0,-1,1994,1485,0,0
777,-461,0,0,0,0,0,0,0,0,0,-1,2001,1485,0,0
784,-461,0,0,0,0,0,0,0,0,0,-1,2008,1485,0,0
791,-461,0,0,0,0,0,0,0,0,0,-1,2015,1485,0,0
798,-461,0,0,0,0,0,0,0,0,0,-1,2022,1485,0,0
805,-461,0,0,0,0,0,0,0,0,0,-1,2029,1485,0,0
812,-461,0,0,0,0,0,0,0,0,0,-1,2036,1485,0,0
-700,-468,0,0,0,0,0,0,0,0,0,-1,524,1492,0,0
-693,-468,0,0,0,0,0,0,0,0,0,-1,531,1492,0,0
-686,-468,0,0,0,0,0,0,0,0,0,-1,538,1492,0,0
-679,-468,0,0,0,0,0,0,0,0,0,-1,545,1492,0,0
-672,-468,0,0,0,0,0,0,0,0,0,-1,552,1492,0,0
-665,-468,0,0,0,0,0,0,0,0,0,-1,559,1492,0,0
-658,-468,0,0,0,0,0,0,0,0,0,-1,566,1492,0,0
-651,-468,0,0,0,0,0,0,0,0,0,-1,573,1492,0,0
-644,-468,0,0,0,0,0,0,0,0,0,-1,580,1492,0,0
-637,-468,0,0,0,0,0,0,0,0,0,-1,587,1492,0,0
-630,-468,0,0,0,0,0,0,0,0,0,-1,594,1492,0,0
-623,-468,0,0,0,0,0,0,0,0,0,-1,601,1492,0,0
-616,-468,0,0,0,0,0,0,0,0,0,-1,608,1492,0,0
-609,-468,0,0,0,0,0,0,0,0,0,-1,615,1492,0,0
-602,-468,0,0,0,0,0,0,0,0,0,-1,622,1492,0,0
-595,-468,0,0,0,0,0,0,0,0,0,-1,629,1492,0,0
-588,-468,0,0,0,0,0,0,0,0,0,-1,636,1492,0,0
-581,-468,0,0,0,0,0,0,0,0,0,-1,643,1492,0,0
-574,-468,0,0,0,0,0,0,0,0,0,-1,650,1492,0,0
-567,-468,-11.2603,1.8042,0,0,0,0,0,0,0,-1,657,1492,-11.2603,-1.80424
-560,-468,-8.77441,2.23694,0,0,0,0,0,0,0,-1,664,1492,-8.77443,-2.23692
-553,-468,-5.94061,9.26318,0,0,0,0,0,0,0,-1,671,1492,-5.94062,-9.26322
-546,-468,-10.47,5.43237,0,0,0,0,0,0,0,-1,678,1492,-10.47,-5.4324
-539,-468,-10.2468,5.45203,0,0,0,0,0,0,0,-1,685,1492,-10.2468,-5.45197
-532,-468,-8.39795,6.02783,0,0,0,0,0,0,0,-1,692,1492,-8.39793,-6.02789
-525,-468,-6.59332,7.15405,0,0,0,0,0,0,0,-1,699,1492,-6.59331,-7.15411
-518,-468,-6.33588,8.65393,0,0,0,0,0,0,0,-1,706,1492,-6.33588,-8.65397
-511,-468,-6.53955,11.7858,0,0,0,0,0,0,0,-1,713,1492,-6.53957,-11.7857
-504,-468,-6.51086,12.3433,-0.00228725,-0.00384111,-0.0013368,-0.001518,-0.00461035,-0.522163,0.00271303,0.0386006,720,1492,-6.51087,-12.3432
-497,-468,-6.61725,12.9038,-0.00238401,-0.00333058,-0.00132349,-0.00145173,-0.00426286,-0.61368,0.00250253,0.0168974,727,1492,-6.61723,-12.9038
-490,-468,-6.6109,13.4741,-0.00199495,-0.00261855,-0.00100042,-0.00125887,-0.00335463,-0.634333,0.00195678,0.00822002,734,1492,-6.6109,-13.4741
-483,-468,-6.63745,13.975,-0.00103759,-0.00153276,-0.000291576,-0.000902666,-0.00166769,-0.433404,0.000963934,0.00854647,741,1492,-6.63747,-13.975
-476,-468,-6.66077,14.4993,0.000352359,-0.000306121,0.000721587,0.000816268,-0.000770031,0.571369,0.00091598,0.0093097,748,1492,-6.66079,-14.4992
-469,-468,-6.67108,15.0339,0.00205827,0.000983526,0.00197553,0.00356822,-0.000526418,0.652604,0.0025723,0.0133507,755,1492,-6.67105,-15.034
-462,-468,-6.66632,15.577,0.00402793,0.00232727,0.00338823,0.00667091,-0.000315704,0.662455,0.00455615,0.0223616,762,1492,-6.6663,-15.577
-455,-468,-6.72418,16.0647,0.00624471,0.00371297,0.00498651,0.0101235,-0.000165838,0.661095,0.00680496,0.0227136,769,1492,-6.72418,-16.0646
-448,-468,-6.74084,16.5505,0.00879344,0.0052564,0.00688993,0.0141382,-8.83653e-05,0.659769,0.00945506,0.0138737,776,1492,-6.74083,-16.5506
-441,-468,-6.75702,17.077,0.0116641,0.00684694,0.00906993,0.0186398,-0.000128772,0.655616,0.0124697,0.0134539,783,1492,-6.75702,-17.077
-434,-468,-6.72571,17.645,0.0149252,0.00837491,0.0115201,0.0236267,-0.000326607,0.646904,0.0158611,0.0209579,790,1492,-6.72572,-17.645
-427,-468,-6.61884,18.2302,0.0184089,0.010362,0.0143503,0.0292891,-0.000518263,0.648721,0.0197011,0.038265,797,1492,-6.61881,-18.2302
-420,-468,-6.35229,18.7643,0,0,0,0,0,0,0,-1,804,1492,-6.35228,-18.7643
-413,-468,-5.30328,17.3519,0,0,0,0,0,0,0,-1,811,1492,-5.30329,-17.352
-406,-468,-2.2356,9.396,0,0,0,0,0,0,0,-1,818,1492,-2.2356,-9.396
-399,-468,-0.940369,8.1936,0,0,0,0,0,0,0,-1,825,1492,-0.940365,-8.19357
-392,-468,-0.35144,8.14673,0,0,0,0,0,0,0,-1,832,1492,-0.351449,-8.14674
-385,-468,0.465759,5.35864,0,0,0,0,0,0,0,-1,839,1492,0.465732,-5.35864
-378,-468,1.99835,3.25391,0,0,0,0,0,0,0,-1,846,1492,1.99837,-3.2539
-371,-468,-0.31842,3.1532,0,0,0,0,0,0,0,-1,853,1492,-0.318441,-3.15324
-364,-468,-0.966736,2.14563,0,0,0,0,0,0,0,-1,860,1492,-0.966735,-2.14557
-357,-468,-3.06787,3.22742,0,0,0,0,0,0,0,-1,867,1492,-3.06784,-3.2274
-350,-468,-3.18658,4.12659,0,0,0,0,0,0,0,-1,874,1492,-3.18659,-4.12658
-343,-468,0,0,0,0,0,0,0,0,0,-1,881,1492,0,0
-336,-468,0,0,0,0,0,0,0,0,0,-1,888,1492,0,0
-329,-468,0,0,0,0,0,0,0,0,0,-1,895,1492,0,0
-322,-468,0,0,0,0,0,0,0,0,0,-1,902,1492,0,0
-315,-468,0,0,0,0,0,0,0,0,0,-1,909,1492,0,0
-308,-468,0,0,0,0,0,0,0,0,0,-1,916,1492,0,0
-301,-468,0,0,0,0,0,0,0,0,0,-1,923,1492,0,0
-294,-468,0,0,0,0,0,0,0,0,0,-1,930,1492,0,0
-287,-468,0,0,0,0,0,0,0,0,0,-1,937,1492,0,0
-280,-468,0,0,0,0,0,0,0,0,0,-1,944,1492,0,0
-273,-468,0,0,0,0,0,0,0,0,0,-1,951,1492,0,0
-266,-468,0,0,0,0,0,0,0,0,0,-1,958,1492,0,0
-259,-468,0,0,0,0,0,0,0,0,0,-1,965,1492,0,0
-252,-468,0,0,0,0,0,0,0,0,0,-1,972,1492,0,0
-245,-468,0,0,0,0,0,0,0,0,0,-1,979,1492,0,0
-238,-468,0,0,0,0,0,0,0,0,0,-1,986,1492,0,0
-231,-468,0,0,0,0,0,0,0,0,0,-1,993,1492,0,0
-224,-468,0,0,0,0,0,0,0,0,0,-1,1000,1492,0,0
-217,-468,0,0,0,0,0,0,0,0,0,-1,1007,1492,0,0
-210,-468,0,0,0,0,0,0,0,0,0,-1,1014,1492,0,0
-203,-468,0,0,0,0,0,0,0,0,0,-1,1021,1492,0,0
-196,-468,0,0,0,0,0,0,0,0,0,-1,1028,1492,0,0
-189,-468,0,0,0,0,0,0,0,0,0,-1,1035,1492,0,0
-182,-468,0,0,0,0,0,0,0,0,0,-1,1042,1492,0,0
-175,-468,0,0,0,0,0,0,0,0,0,-1,1049,1492,0,0
-168,-468,0,0,0,0,0,0,0,0,0,-1,1056,1492,0,0
-161,-468,0,0,0,0,0,0,0,0,0,-1,1063,1492,0,0
-154,-468,0,0,0,0,0,0,0,0,0,-1,1070,1492,0,0
-147,-468,0,0,0,0,0,0,0,0,0,-1,1077,1492,0,0
-140,-468,0,0,0,0,0,0,0,0,0,-1,1084,1492,0,0
-133,-468,0,0,0,0,0,0,0,0,0,-1,1091,1492,0,0
-126,-468,0,0,0,0,0,0,0,0,0,-1,1098,1492,0,0
-119,-468,0,0,0,0,0,0,0,0,0,-1,1105,1492,0,0
-112,-468,0,0,0,0,0,0,0,0,0,-1,1112,1492,0,0
-105,-468,0,0,0,0,0,0,0,0,0,-1,1119,1492,0,0
-98,-468,0,0,0,0,0,0,0,0,0,-1,1126,1492,0,0
-91,-468,0,0,0,0,0,0,0,0,0,-1,1133,1492,0,0
-84,-468,0,0,0,0,0,0,0,0,0,-1,1140,1492,0,0
-77,-468,0,0,0,0,0,0,0,0,0,-1,1147,1492,0,0
-70,-468,0,0,0,0,0,0,0,0,0,-1,1154,1492,0,0
-63,-468,0,0,0,0,0,0,0,0,0,-1,1161,1492,0,0
-56,-468,0,0,0,0,0,0,0,0,0,-1,1168,1492,0,0
-49,-468,0,0,0,0,0,0,0,0,0,-1,1175,1492,0,0
-42,-468,0,0,0,0,0,0,0,0,0,-1,1182,1492,0,0
-35,-468,0,0,0,0,0,0,0,0,0,-1,1189,1492,0,0
-28,-468,0,0,0,0,0,0,0,0,0,-1,1196,1492,0,0
-21,-468,0,0,0,0,0,0,0,0,0,-1,1203,1492,0,0
-14,-468,0,0,0,0,0,0,0,0,0,-1,1210,1492,0,0
-7,-468,0,0,0,0,0,0,0,0,0,-1,1217,1492,0,0
0,-468,0,0,0,0,0,0,0,0,0,-1,1224,1492,0,0
7,-468,0,0,0,0,0,0,0,0,0,-1,1231,1492,0,0
14,-468,0,0,0,0,0,0,0,0,0,-1,1238,1492,0,0
21,-468,0,0,0,0,0,0,0,0,0,-1,1245,1492,0,0
28,-468,0,0,0,0,0,0,0,0,0,-1,1252,1492,0,0
35,-468,0,0,0,0,0,0,0,0,0,-1,1259,1492,0,0
42,-468,0,0,0,0,0,0,0,0,0,-1,1266,1492,0,0
49,-468,0,0,0,0,0,0,0,0,0,-1,1273,1492,0,0
56,-468,0,0,0,0,0,0,0,0,0,-1,1280,1492,0,0
63,-468,0,0,0,0,0,0,0,0,0,-1,1287,1492,0,0
70,-468,0,0,0,0,0,0,0,0,0,-1,1294,1492,0,0
77,-468,0,0,0,0,0,0,0,0,0,-1,1301,1492,0,0
84,-468,0,0,0,0,0,0,0,0,0,-1,1308,1492,0,0
91,-468,0,0,0,0,0,0,0,0,0,-1,1315,1492,0,0
98,-468,0,0,0,0,0,0,0,0,0,-1,1322,1492,0,0
105,-468,0,0,0,0,0,0,0,0,0,-1,1329,1492,0,0
112,-468,0,0,0,0,0,0,0,0,0,-1,1336,1492,0,0
119,-468,0,0,0,0,0,0,0,0,0,-1,1343,1492,0,0
126,-468,0,0,0,0,0,0,0,0,0,-1,1350,1492,0,0
133,-468,0,0,0,0,0,0,0,0,0,-1,1357,1492,0,0
140,-468,0,0,0,0,0,0,0,0,0,-1,1364,1492,0,0
147,-468,0,0,0,0,0,0,0,0,0,-1,1371,1492,0,0
154,-468,0,0,0,0,0,0,0,0,0,-1,1378,1492,0,0
161,-468,0,0,0,0,0,0,0,0,0,-1,1385,1492,0,0
168,-468,0,0,0,0,0,0,0,0,0,-1,1392,1492,0,0
175,-468,0,0,0,0,0,0,0,0,0,-1,1399,1492,0,0
182,-468,0,0,0,0,0,0,0,0,0,-1,1406,1492,0,0
189,-468,0,0,0,0,0,0,0,0,0,-1,1413,1492,0,0
196,-468,0,0,0,0,0,0,0,0,0,-1,1420,1492,0,0
203,-468,0,0,0,0,0,0,0,0,0,-1,1427,1492,0,0
210,-468,0,0,0,0,0,0,0,0,0,-1,1434,1492,0,0
217,-468,0,0,0,0,0,0,0,0,0,-1,1441,1492,0,0
224,-468,0,0,0,0,0,0,0,0,0,-1,1448,1492,0,0
231,-468,0,0,0,0,0,0,0,0,0,-1,1455,1492,0,0
238,-468,0,0,0,0,0,0,0,0,0,-1,1462,1492,0,0
245,-468,0,0,0,0,0,0,0,0,0,-1,1469,1492,0,0
252,-468,0,0,0,0,0,0,0,0,0,-1,1476,1492,0,0
259,-468,0,0,0,0,0,0,0,0,0,-1,1483,1492,0,0
266,-468,0,0,0,0,0,0,0,0,0,-1,1490,1492,0,0
273,-468,0,0,0,0,0,0,0,0,0,-1,1497,1492,0,0
280,-468,0,0,0,0,0,0,0,0,0,-1,1504,1492,0,0
287,-468,0,0,0,0,0,0,0,0,0,-1,1511,1492,0,0
294,-468,0,0,0,0,0,0,0,0,0,-1,1518,1492,0,0
301,-468,0,0,0,0,0,0,0,0,0,-1,1525,1492,0,0
308,-468,0,0,0,0,0,0,0,0,0,-1,1532,1492,0,0
315,-468,0,0,0,0,0,0,0,0,0,-1,1539,1492,0,0
322,-468,0,0,0,0,0,0,0,0,0,-1,1546,1492,0,0
329,-468,0,0,0,0,0,0,0,0,0,-1,1553,1492,0,0
336,-468,0,0,0,0,0,0,0,0,0,-1,1560,1492,0,0
343,-468,0,0,0,0,0,0,0,0,0,-1,1567,1492,0,0
350,-468,0,0,0,0,0,0,0,0,0,-1,1574,1492,0,0
357,-468,0,0,0,0,0,0,0,0,0,-1,1581,1492,0,0
364,-468,0,0,0,0,0,0,0,0,0,-1,1588,1492,0,0
371,-468,0,0,0,0,0,0,0,0,0,-1,1595,1492,0,0
378,-468,0,0,0,0,0,0,0,0,0,-1,1602,1492,0,0
385,-468,0,0,0,0,0,0,0,0,0,-1,1609,1492,0,0
392,-468,0,0,0,0,0,0,0,0,0,-1,1616,1492,0,0
399,-468,0,0,0,0,0,0,0,0,0,-1,1623,1492,0,0
406,-468,0,0,0,0,0,0,0,0,0,-1,1630,1492,0,0
413,-468,0,0,0,0,0,0,0,0,0,-1,1637,1492,0,0
420,-468,0,0,0,0,0,0,0,0,0,-1,1644,1492,0,0
427,-468,0,0,0,0,0,0,0,0,0,-1,1651,1492,0,0
434,-468,0,0,0,0,0,0,0,0,0,-1,1658,1492,0,0
441,-468,0,0,0,0,0,0,0,0,0,-1,1665,1492,0,0
448,-468,0,0,0,0,0,0,0,0,0,-1,1672,1492,0,0
455,-468,0,0,0,0,0,0,0,0,0,-1,1679,1492,0,0
462,-468,0,0,0,0,0,0,0,0,0,-1,1686,1492,0,0
469,-468,15.6879,1.2677,0,0,0,0,0,0,0,-1,1693,1492,15.6879,-1.26772
476,-468,14.9318,1.61865,0,0,0,0,0,0,0,-1,1700,1492,14.9318,-1.61869
483,-468,11.265,4.64795,0,0,0,0,0,0,0,-1,1707,1492,11.265,-4.64798
490,-468,12.1316,3.51624,0,0,0,0,0,0,0,-1,1714,1492,12.1316,-3.51628
497,-468,16.5355,3.14587,0,0,0,0,0,0,0,-1,1721,1492,16.5356,-3.14583
504,-468,15.0642,4.10437,0,0,0,0,0,0,0,-1,1728,1492,15.0643,-4.10431
511,-468,15.6877,9.4801,0,0,0,0,0,0,0,-1,1735,1492,15.6878,-9.48007
518,-468,13.759,11.0887,0,0,0,0,0,0,0,-1,1742,1492,13.759,-11.0887
525,-468,16.6531,14.2238,0,0,0,0,0,0,0,-1,1749,1492,16.653,-14.2237
532,-468,16.9696,15.9641,0,0,0,0,0,0,0,-1,1756,1492,16.9696,-15.9641
539,-468,21.5308,20.7551,0,0,0,0,0,0,0,-1,1763,1492,21.5308,-20.7551
546,-468,21.1711,20.3046,0,0,0,0,0,0,0,-1,1770,1492,21.1711,-20.3046
553,-468,21.4761,19.7815,0,0,0,0,0,0,0,-1,1777,1492,21.4761,-19.7814
560,-468,21.5552,19.3868,0.0070216,0.00425388,-0.00311989,0.00905077,0.00222471,-0.576655,0.00544591,0.0380213,1784,1492,21.5552,-19.3868
567,-468,21.552,18.9432,0.0049019,0.00384358,-0.00239745,0.0068279,0.00191759,-0.676781,0.00406635,0.020967,1791,1492,21.552,-18.9433
574,-468,21.5769,18.4252,0.00405624,0.00304848,-0.00206779,0.00568066,0.00142406,-0.665887,0.00341293,0.0157828,1798,1492,21.5769,-18.4252
581,-468,21.5638,17.9529,0.00344201,0.00232229,-0.00177048,0.00473904,0.00102526,-0.632263,0.00287911,0.0151652,1805,1492,21.5639,-17.9529
588,-468,21.5547,17.4982,0.00305846,0.00156069,-0.00150661,0.00399204,0.0006271,-0.55475,0.00247891,0.011393,1812,1492,21.5547,-17.4982
595,-468,21.5385,17.0133,0.0029305,0.000812012,-0.00126303,0.00351967,0.00022285,-0.436463,0.0022758,0.00961844,1819,1492,21.5385,-17.0133
602,-468,21.5249,16.5114,0.00294534,5.80522e-05,-0.00106296,0.00329446,-0.000291067,-0.31734,0.00229947,0.00839934,1826,1492,21.5249,-16.5114
609,-468,21.5048,16.0269,0.00303377,-0.000704597,-0.000818061,0.00320494,-0.000875775,-0.206271,0.00248063,0.0093788,1833,1492,21.5047,-16.0268
616,-468,21.4979,15.5483,0.00326128,-0.00139884,-0.000608852,0.00333951,-0.00147707,-0.127794,0.00284931,0.00968462,1840,1492,21.4979,-15.5484
623,-468,21.4958,15.0928,0.0036196,-0.00214444,-0.000360496,0.00364205,-0.0021669,-0.0622191,0.00338965,0.0107206,1847,1492,21.4959,-15.0928
630,-468,21.5017,14.613,0.00397471,-0.00283041,-7.96252e-05,0.00397564,-0.00283134,-0.0116987,0.00394848,0.0118619,1854,1492,21.5016,-14.613
637,-468,21.479,14.1112,0.00443387,-0.00325427,8.3514e-05,0.00443478,-0.00325517,0.010861,0.00445717,0.0149237,1861,1492,21.479,-14.1112
644,-468,21.522,13.7224,0.00484562,-0.00378597,0.000314959,0.0048571,-0.00379744,0.0364245,0.00500917,0.0410114,1868,1492,21.522,-13.7224
651,-468,21.7001,13.3096,0,0,0,0,0,0,0,-1,1875,1492,21.7,-13.3096
658,-468,16.4969,10.0774,0,0,0,0,0,0,0,-1,1882,1492,16.497,-10.0774
665,-468,15.4673,8.59546,0,0,0,0,0,0,0,-1,1889,1492,15.4672,-8.59548
672,-468,9.96814,3.61133,0,0,0,0,0,0,0,-1,1896,1492,9.96817,-3.61139
679,-468,11.2191,1.91968,0,0,0,0,0,0,0,-1,1903,1492,11.2191,-1.91965
686,-468,11.9252,1.42285,0,0,0,0,0,0,0,-1,1910,1492,11.9252,-1.42291
693,-468,0,0,0,0,0,0,0,0,0,-1,1917,1492,0,0
700,-468,0,0,0,0,0,0,0,0,0,-1,1924,1492,0,0
707,-468,0,0,0,0,0,0,0,0,0,-1,1931,1492,0,0
714,-468,0,0,0,0,0,0,0,0,0,-1,1938,1492,0,0
721,-468,0,0,0,0,0,0,0,0,0,-1,1945,1492,0,0
728,-468,0,0,0,0,0,0,0,0,0,-1,1952,1492,0,0
735,-468,0,0,0,0,0,0,0,0,0,-1,1959,1492,0,0
742,-468,0,0,0,0,0,0,0,0,0,-1,1966,1492,0,0
749,-468,0,0,0,0,0,0,0,0,0,-1,1973,1492,0,0
756,-468,0,0,0,0,0,0,0,0,0,-1,1980,1492,0,0
763,-468,0,0,0,0,0,0,0,0,0,-1,1987,1492,0,0
770,-468,0,0,0,0,0,0,0,0,0,-1,1994,1492,0,0
777,-468,0,0,0,0,0,0,0,0,0,-1,2001,1492,0,0
784,-468,0,0,0,0,0,0,0,0,0,-1,2008,1492,0,0
791,-468,0,0,0,0,0,0,0,0,0,-1,2015,1492,0,0
798,-468,0,0,0,0,0,0,0,0,0,-1,2022,1492,0,0
805,-468,0,0,0,0,0,0,0,0,0,-1,2029,1492,0,0
812,-468,0,0,0,0,0,0,0,0,0,-1,2036,1492,0,0
-700,-475,0,0,0,0,0,0,0,0,0,-1,524,1499,0,0
-693,-475,0,0,0,0,0,0,0,0,0,-1,531,1499,0,0
-686,-475,0,0,0,0,0,0,0,0,0,-1,538,1499,0,0
-679,-475,0,0,0,0,0,0,0,0,0,-1,545,1499,0,0
-672,-475,0,0,0,0,0,0,0,0,0,-1,552,1499,0,0
-665,-475,0,0,0,0,0,0,0,0,0,-1,559,1499,0,0
-658,-475,0,0,0,0,0,0,0,0,0,-1,566,1499,0,0
-651,-475,0,0,0,0,0,0,0,0,0,-1,573,1499,0,0
-644,-475,0,0,0,0,0,0,0,0,0,-1,580,1499,0,0
-637,-475,0,0,0,0,0,0,0,0,0,-1,587,1499,0,0
-630,-475,0,0,0,0,0,0,0,0,0,-1,594,1499,0,0
-623,-475,0,0,0,0,0,0,0,0,0,-1,601,1499,0,0
-616,-475,0,0,0,0,0,0,0,0,0,-1,608,1499,0,0
-609,-475,0,0,0,0,0,0,0,0,0,-1,615,1499,0,0
-602,-475,0,0,0,0,0,0,0,0,0,-1,622,1499,0,0
-595,-475,0,0,0,0,0,0,0,0,0,-1,629,1499,0,0
-588,-475,0,0,0,0,0,0,0,0,0,-1,636,1499,0,0
-581,-475,0,0,0,0,0,0,0,0,0,-1,643,1499,0,0
-574,-475,0,0,0,0,0,0,0,0,0,-1,650,1499,0,0
-567,-475,0,0,0,0,0,0,0,0,0,-1,657,1499,0,0
-560,-475,-9.42731,9.29517,0,0,0,0,0,0,0,-1,664,1499,-9.42731,-9.29519
-553,-475,-8.15131,8.78369,0,0,0,0,0,0,0,-1,671,1499,-8.15131,-8.78367
-546,-475,-8.41254,8.20654,0,0,0,0,0,0,0,-1,678,1499,-8.41251,-8.20655
-539,-475,-4.7345,4.17419,0,0,0,0,0,0,0,-1,685,1499,-4.73449,-4.17418
-532,-475,-7.07379,4.25024,0,0,0,0,0,0,0,-1,692,1499,-7.07378,-4.2503
-525,-475,-6.13147,5.82166,0,0,0,0,0,0,0,-1,699,1499,-6.1315,-5.8216
-518,-475,-7.28784,9.31506,0,0,0,0,0,0,0,-1,706,1499,-7.28782,-9.315
-511,-475,-6.06476,11.5692,0,0,0,0,0,0,0,-1,713,1499,-6.06478,-11.5692
-504,-475,-6.0838,12.3915,0,0,0,0,0,0,0,-1,720,1499,-6.08383,-12.3915
-497,-475,-6.11456,13.0289,-0.00322978,-0.00527682,-0.000785637,-0.00296302,-0.00554358,-0.32733,0.00320312,0.0321202,727,1499,-6.11458,-13.0289
-490,-475,-6.11615,13.4695,-0.00296185,-0.00455359,-0.00076192,-0.00265594,-0.00485951,-0.381803,0.00280969,0.0117792,734,1499,-6.11618,-13.4695
-483,-475,-6.11047,14.0161,-0.00210778,-0.00340425,-0.000352711,-0.00201804,-0.003494,-0.249155,0.00202534,0.00904144,741,1499,-6.11047,-14.0162
-476,-475,-6.14258,14.5194,-0.000844037,-0.0021101,0.000367204,-0.000745244,-0.0022089,0.262818,0.0012976,0.0105501,748,1499,-6.14256,-14.5194
-469,-475,-6.16254,15.0336,0.000679412,-0.000749414,0.00130269,0.00145072,-0.00152072,0.534585,0.00171572,0.0128611,755,1499,-6.16255,-15.0335
-462,-475,-6.13391,15.5505,0.00240285,0.000639481,0.00237428,0.00405386,-0.00101153,0.607616,0.00309535,0.0176929,762,1499,-6.13392,-15.5506
-455,-475,-6.1601,16.0555,0.00428292,0.00204654,0.00358855,0.00692346,-0.000594,0.634366,0.00482584,0.0158503,769,1499,-6.16012,-16.0556
-448,-475,-6.20703,16.5813,0.00640729,0.0036016,0.00507426,0.010269,-0.000260161,0.650535,0.00693438,0.0135643,776,1499,-6.20704,-16.5813
-441,-475,-6.22699,17.1083,0.00875876,0.00522393,0.00679752,0.0140149,-3.21879e-05,0.65821,0.009354,0.0166557,783,1499,-6.22696,-17.1083
-434,-475,-6.23517,17.6001,0.0113493,0.00687474,0.00876915,0.0181621,6.19655e-05,0.660497,0.0120874,0.0112826,790,1499,-6.23518,-17.6001
-427,-475,-6.16608,18.1951,0.0141371,0.00900249,0.0112415,0.0231008,3.88203e-05,0.673135,0.0153876,0.0272192,797,1499,-6.16605,-18.195
-420,-475,-6.05542,18.7848,0.017149,0.0111663,0.0143585,0.0288245,-0.000509121,0.682701,0.0193882,0.046603,804,1499,-6.05544,-18.7847
-413,-475,-5.77332,19.4962,0,0,0,0,0,0,0,-1,811,1499,-5.77331,-19.4963
-406,-475,-2.56116,12.4956,0,0,0,0,0,0,0,-1,818,1499,-2.56116,-12.4956
-399,-475,-1.39667,6.1615,0,0,0,0,0,0,0,-1,825,1499,-1.39664,-6.16155
-392,-475,0.217163,8.61389,0,0,0,0,0,0,0,-1,832,1499,0.217167,-8.6139
-385,-475,1.18372,2.73999,0,0,0,0,0,0,0,-1,839,1499,1.18372,-2.73995
-378,-475,1.31409,2.90149,0,0,0,0,0,0,0,-1,846,1499,1.31411,-2.90151
-371,-475,2.3476,3.31116,0,0,0,0,0,0,0,-1,853,1499,2.34761,-3.31121
-364,-475,1.04462,9.05823,0,0,0,0,0,0,0,-1,860,1499,1.04461,-9.05825
-357,-475,-0.262756,7.97205,0,0,0,0,0,0,0,-1,867,1499,-0.262784,-7.97205
-350,-475,-2.77173,4.35486,0,0,0,0,0,0,0,-1,874,1499,-2.77175,-4.35491
-343,-475,-6.81641,-1.95203,0,0,0,0,0,0,0,-1,881,1499,-6.81643,1.95198
-336,-475,0,0,0,0,0,0,0,0,0,-1,888,1499,0,0
-329,-475,0,0,0,0,0,0,0,0,0,-1,895,1499,0,0
-322,-475,0,0,0,0,0,0,0,0,0,-1,902,1499,0,0
-315,-475,0,0,0,0,0,0,0,0,0,-1,909,1499,0,0
-308,-475,0,0,0,0,0,0,0,0,0,-1,916,1499,0,0
-301,-475,0,0,0,0,0,0,0,0,0,-1,923,1499,0,0
-294,-475,0,0,0,0,0,0,0,0,0,-1,930,1499,0,0
-287,-475,0,0,0,0,0,0,0,0,0,-1,937,1499,0,0
-280,-475,0,0,0,0,0,0,0,0,0,-1,944,1499,0,0
-273,-475,0,0,0,0,0,0,0,0,0,-1,951,1499,0,0
-266,-475,0,0,0,0,0,0,0,0,0,-1,958,1499,0,0
-259,-475,0,0,0,0,0,0,0,0,0,-1,965,1499,0,0
-252,-475,0,0,0,0,0,0,0,0,0,-1,972,1499,0,0
-245,-475,0,0,0,0,0,0,0,0,0,-1,979,1499,0,0
-238,-475,0,0,0,0,0,0,0,0,0,-1,986,1499,0,0
-231,-475,0,0,0,0,0,0,0,0,0,-1,993,1499,0,0
-224,-475,0,0,0,0,0,0,0,0,0,-1,1000,1499,0,0
-217,-475,0,0,0,0,0,0,0,0,0,-1,1007,1499,0,0
-210,-475,0,0,0,0,0,0,0,0,0,-1,1014,1499,0,0
-203,-475,0,0,0,0,0,0,0,0,0,-1,1021,1499,0,0
-196,-475,0,0,0,0,0,0,0,0,0,-1,1028,1499,0,0
-189,-475,0,0,0,0,0,0,0,0,0,-1,1035,1499,0,0
-182,-475,0,0,0,0,0,0,0,0,0,-1,1042,1499,0,0
-175,-475,0,0,0,0,0,0,0,0,0,-1,1049,1499,0,0
-168,-475,0,0,0,0,0,0,0,0,0,-1,1056,1499,0,0
-161,-475,0,0,0,0,0,0,0,0,0,-1,1063,1499,0,0
-154,-475,0,0,0,0,0,0,0,0,0,-1,1070,1499,0,0
-147,-475,0,0,0,0,0,0,0,0,0,-1,1077,1499,0,0
-140,-475,0,0,0,0,0,0,0,0,0,-1,1084,1499,0,0
-133,-475,0,0,0,0,0,0,0,0,0,-1,1091,1499,0,0
-126,-475,0,0,0,0,0,0,0,0,0,-1,1098,1499,0,0
-119,-475,0,0,0,0,0,0,0,0,0,-1,1105,1499,0,0
-112,-475,0,0,0,0,0,0,0,0,0,-1,1112,1499,0,0
-105,-475,0,0,0,0,0,0,0,0,0,-1,1119,1499,0,0
-98,-475,0,0,0,0,0,0,0,0,0,-1,1126,1499,0,0
-91,-475,0,0,0,0,0,0,0,0,0,-1,1133,1499,0,0
-84,-475,0,0,0,0,0,0,0,0,0,-1,1140,1499,0,0
-77,-475,0,0,0,0,0,0,0,0,0,-1,1147,1499,0,0
-70,-475,0,0,0,0,0,0,0,0,0,-1,1154,1499,0,0
-63,-475,0,0,0,0,0,0,0,0,0,-1,1161,1499,0,0
-56,-475,0,0,0,0,0,0,0,0,0,-1,1168,1499,0,0
-49,-475,0,0,0,0,0,0,0,0,0,-1,1175,1499,0,0
-42,-475,0,0,0,0,0,0,0,0,0,-1,1182,1499,0,0
-35,-475,0,0,0,0,0,0,0,0,0,-1,1189,1499,0,0
-28,-475,0,0,0,0,0,0,0,0,0,-1,1196,1499,0,0
-21,-475,0,0,0,0,0,0,0,0,0,-1,1203,1499,0,0
-14,-475,0,0,0,0,0,0,0,0,0,-1,1210,1499,0,0
-7,-475,0,0,0,0,0,0,0,0,0,-1,1217,1499,0,0
0,-475,0,0,0,0,0,0,0,0,0,-1,1224,1499,0,0
7,-475,0,0,0,0,0,0,0,0,0,-1,1231,1499,0,0
14,-475,0,0,0,0,0,0,0,0,0,-1,1238,1499,0,0
21,-475,0,0,0,0,0,0,0,0,0,-1,1245,1499,0,0
28,-475,0,0,0,0,0,0,0,0,0,-1,1252,1499,0,0
35,-475,0,0,0,0,0,0,0,0,0,-1,1259,1499,0,0
42,-475,0,0,0,0,0,0,0,0,0,-1,1266,1499,0,0
49,-475,0,0,0,0,0,0,0,0,0,-1,1273,1499,0,0
56,-475,0,0,0,0,0,0,0,0,0,-1,1280,1499,0,0
63,-475,0,0,0,0,0,0,0,0,0,-1,1287,1499,0,0
70,-475,0,0,0,0,0,0,0,0,0,-1,1294,1499,0,0
77,-475,0,0,0,0,0,0,0,0,0,-1,1301,1499,0,0
84,-475,0,0,0,0,0,0,0,0,0,-1,1308,1499,0,0
91,-475,0,0,0,0,0,0,0,0,0,-1,1315,1499,0,0
98,-475,0,0,0,0,0,0,0,0,0,-1,1322,1499,0,0
105,-475,0,0,0,0,0,0,0,0,0,-1,1329,1499,0,0
112,-475,0,0,0,0,0,0,0,0,0,-1,1336,1499,0,0
119,-475,0,0,0,0,0,0,0,0,0,-1,1343,1499,0,0
126,-475,0,0,0,0,0,0,0,0,0,-1,1350,1499,0,0
133,-475,0,0,0,0,0,0,0,0,0,-1,1357,1499,0,0
140,-475,0,0,0,0,0,0,0,0,0,-1,1364,1499,0,0
147,-475,0,0,0,0,0,0,0,0,0,-1,1371,1499,0,0
154,-475,0,0,0,0,0,0,0,0,0,-1,1378,1499,0,0
161,-475,0,0,0,0,0,0,0,0,0,-1,1385,1499,0,0
168,-475,0,0,0,0,0,0,0,0,0,-1,1392,1499,0,0
175,-475,0,0,0,0,0,0,0,0,0,-1,1399,1499,0,0
182,-475,0,0,0,0,0,0,0,0,0,-1,1406,1499,0,0
189,-475,0,0,0,0,0,0,0,0,0,-1,1413,1499,0,0
196,-475,0,0,0,0,0,0,0,0,0,-1,1420,1499,0,0
203,-475,0,0,0,0,0,0,0,0,0,-1,1427,1499,0,0
210,-475,0,0,0,0,0,0,0,0,0,-1,1434,1499,0,0
217,-475,0,0,0,0,0,0,0,0,0,-1,1441,1499,0,0
224,-475,0,0,0,0,0,0,0,0,0,-1,1448,1499,0,0
231,-475,0,0,0,0,0,0,0,0,0,-1,1455,1499,0,0
238,-475,0,0,0,0,0,0,0,0,0,-1,1462,1499,0,0
245,-475,0,0,0,0,0,0,0,0,0,-1,1469,1499,0,0
252,-475,0,0,0,0,0,0,0,0,0,-1,1476,1499,0,0
259,-475,0,0,0,0,0,0,0,0,0,-1,1483,1499,0,0
266,-475,0,0,0,0,0,0,0,0,0,-1,1490,1499,0,0
273,-475,0,0,0,0,0,0,0,0,0,-1,1497,1499,0,0
280,-475,0,0,0,0,0,0,0,0,0,-1,1504,1499,0,0
287,-475,0,0,0,0,0,0,0,0,0,-1,1511,1499,0,0
294,-475,0,0,0,0,0,0,0,0,0,-1,1518,1499,0,0
301,-475,0,0,0,0,0,0,0,0,0,-1,1525,1499,0,0
308,-475,0,0,0,0,0,0,0,0,0,-1,1532,1499,0,0
315,-475,0,0,0,0,0,0,0,0,0,-1,1539,1499,0,0
322,-475,0,0,0,0,0,0,0,0,0,-1,1546,1499,0,0
329,-475,0,0,0,0,0,0,0,0,0,-1,1553,1499,0,0
336,-475,0,0,0,0,0,0,0,0,0,-1,1560,1499,0,0
343,-475,0,0,0,0,0,0,0,0,0,-1,1567,1499,0,0
350,-475,0,0,0,0,0,0,0,0,0,-1,1574,1499,0,0
357,-475,0,0,0,0,0,0,0,0,0,-1,1581,1499,0,0
364,-475,0,0,0,0,0,0,0,0,0,-1,1588,1499,0,0
371,-475,0,0,0,0,0,0,0,0,0,-1,1595,1499,0,0
378,-475,0,0,0,0,0,0,0,0,0,-1,1602,1499,0,0
385,-475,0,0,0,0,0,0,0,0,0,-1,1609,1499,0,0
392,-475,0,0,0,0,0,0,0,0,0,-1,1616,1499,0,0
399,-475,0,0,0,0,0,0,0,0,0,-1,1623,1499,0,0
406,-475,0,0,0,0,0,0,0,0,0,-1,1630,1499,0,0
413,-475,0,0,0,0,0,0,0,0,0,-1,1637,1499,0,0
420,-475,0,0,0,0,0,0,0,0,0,-1,1644,1499,0,0
427,-475,0,0,0,0,0,0,0,0,0,-1,1651,1499,0,0
434,-475,0,0,0,0,0,0,0,0,0,-1,1658,1499,0,0
441,-475,0,0,0,0,0,0,0,0,0,-1,1665,1499,0,0
448,-475,0,0,0,0,0,0,0,0,0,-1,1672,1499,0,0
455,-475,0,0,0,0,0,0,0,0,0,-1,1679,1499,0,0
462,-475,12.6372,0.275391,0,0,0,0,0,0,0,-1,1686,1499,12.6372,-0.27536
469,-475,15.6437,2.28296,0,0,0,0,0,0,0,-1,1693,1499,15.6437,-2.28293
476,-475,15.3302,2.71436,0,0,0,0,0,0,0,-1,1700,1499,15.3303,-2.7143
483,-475,10.7461,5.91479,0,0,0,0,0,0,0,-1,1707,1499,10.7461,-5.91476
490,-475,11.9305,4.4364,0,0,0,0,0,0,0,-1,1714,1499,11.9305,-4.43644
497,-475,15.3451,4.3479,0,0,0,0,0,0,0,-1,1721,1499,15.3451,-4.34789
504,-475,16.9646,7.71265,0,0,0,0,0,0,0,-1,1728,1499,16.9646,-7.71265
511,-475,18.941,12.7572,0,0,0,0,0,0,0,-1,1735,1499,18.941,-12.7572
518,-475,17.0021,13.8564,0,0,0,0,0,0,0,-1,1742,1499,17.0021,-13.8564
525,-475,17.5637,15.2103,0,0,0,0,0,0,0,-1,1749,1499,17.5637,-15.2103
532,-475,20.8623,20.8413,0,0,0,0,0,0,0,-1,1756,1499,20.8623,-20.8413
539,-475,20.5494,20.8519,0,0,0,0,0,0,0,-1,1763,1499,20.5494,-20.852
546,-475,20.4524,19.8799,0,0,0,0,0,0,0,-1,1770,1499,20.4524,-19.8798
553,-475,20.8224,20.0931,0,0,0,0,0,0,0,-1,1777,1499,20.8224,-20.0932
560,-475,20.9493,19.5287,0.0060143,0.00349315,-0.00271227,0.00774461,0.00176283,-0.567865,0.0046873,0.0258649,1784,1499,20.9493,-19.5287
567,-475,21.1216,18.9357,0.00430141,0.0030583,-0.00206567,0.00583702,0.0015227,-0.639259,0.00349612,0.0144927,1791,1499,21.1216,-18.9357
574,-475,21.0803,18.4457,0.00365576,0.00233389,-0.00177122,0.00488534,0.00110431,-0.606823,0.00295831,0.0135318,1798,1499,21.0803,-18.4456
581,-475,21.0612,17.9917,0.00322607,0.00164054,-0.00152342,0.00415065,0.000715952,-0.545487,0.00256201,0.0111896,1805,1499,21.0611,-17.9917
588,-475,21.0608,17.5153,0.00304619,0.00094731,-0.00134717,0.00370443,0.000289068,-0.454497,0.00237913,0.00967389,1812,1499,21.0608,-17.5153
595,-475,21.0615,17.0275,0.00314913,0.000231548,-0.00119442,0.00357573,-0.000195052,-0.343041,0.00245143,0.0107906,1819,1499,21.0615,-17.0274
602,-475,21.0507,16.5314,0.00340117,-0.000505344,-0.00109485,0.00368709,-0.00079126,-0.255443,0.00275989,0.0113225,1826,1499,21.0507,-16.5313
609,-475,21.0211,16.0585,0.00375053,-0.00127243,-0.000945434,0.00392259,-0.00144449,-0.180018,0.0032069,0.0106205,1833,1499,21.0211,-16.0584
616,-475,21.0021,15.5962,0.00428111,-0.00204089,-0.000802202,0.00438132,-0.00214109,-0.124267,0.00383904,0.0113206,1840,1499,21.002,-15.5962
623,-475,20.9968,15.1023,0.00493292,-0.00290448,-0.000597328,0.00497818,-0.00294974,-0.0756329,0.00462686,0.0110383,1847,1499,20.9969,-15.1022
630,-475,20.9946,14.618,0.00555506,-0.00369037,-0.000334016,0.00556711,-0.00370242,-0.036065,0.00538774,0.0122033,1854,1499,20.9946,-14.618
637,-475,20.9952,14.0936,0.00632103,-0.0042036,-0.000180368,0.00632412,-0.00420669,-0.017131,0.00612079,0.0248147,1861,1499,20.9953,-14.0936
644,-475,20.9739,13.6088,0,0,0,0,0,0,0,-1,1868,1499,20.9739,-13.6088
651,-475,11.7965,7.57593,0,0,0,0,0,0,0,-1,1875,1499,11.7965,-7.5759
658,-475,14.6708,8.80322,0,0,0,0,0,0,0,-1,1882,1499,14.6708,-8.8032
665,-475,9.33435,5.43335,0,0,0,0,0,0,0,-1,1889,1499,9.33439,-5.43332
672,-475,9.38635,1.10474,0,0,0,0,0,0,0,-1,1896,1499,9.38629,-1.10475
679,-475,12.2594,1.31079,0,0,0,0,0,0,0,-1,1903,1499,12.2594,-1.31077
686,-475,0,0,0,0,0,0,0,0,0,-1,1910,1499,0,0
693,-475,0,0,0,0,0,0,0,0,0,-1,1917,1499,0,0
700,-475,0,0,0,0,0,0,0,0,0,-1,1924,1499,0,0
707,-475,0,0,0,0,0,0,0,0,0,-1,1931,1499,0,0
714,-475,0,0,0,0,0,0,0,0,0,-1,1938,1499,0,0
721,-475,0,0,0,0,0,0,0,0,0,-1,1945,1499,0,0
728,-475,0,0,0,0,0,0,0,0,0,-1,1952,1499,0,0
735,-475,0,0,0,0,0,0,0,0,0,-1,1959,1499,0,0
742,-475,0,0,0,0,0,0,0,0,0,-1,1966,1499,0,0
749,-475,0,0,0,0,0,0,0,0,0,-1,1973,1499,0,0
756,-475,0,0,0,0,0,0,0,0,0,-1,1980,1499,0,0
763,-475,0,0,0,0,0,0,0,0,0,-1,1987,1499,0,0
770,-475,0,0,0,0,0,0,0,0,0,-1,1994,1499,0,0
777,-475,0,0,0,0,0,0,0,0,0,-1,2001,1499,0,0
784,-475,0,0,0,0,0,0,0,0,0,-1,2008,1499,0,0
791,-475,0,0,0,0,0,0,0,0,0,-1,2015,1499,0,0
798,-475,0,0,0,0,0,0,0,0,0,-1,2022,1499,0,0
805,-475,0,0,0,0,0,0,0,0,0,-1,2029,1499,0,0
812,-475,0,0,0,0,0,0,0,0,0,-1,2036,1499,0,0
-700,-482,0,0,0,0,0,0,0,0,0,-1,524,1506,0,0
-693,-482,0,0,0,0,0,0,0,0,0,-1,531,1506,0,0
-686,-482,0,0,0,0,0,0,0,0,0,-1,538,1506,0,0
-679,-482,0,0,0,0,0,0,0,0,0,-1,545,1506,0,0
-672,-482,0,0,0,0,0,0,0,0,0,-1,552,1506,0,0
-665,-482,0,0,0,0,0,0,0,0,0,-1,559,1506,0,0
-658,-482,0,0,0,0,0,0,0,0,0,-1,566,1506,0,0
-651,-482,0,0,0,0,0,0,0,0,0,-1,573,1506,0,0
-644,-482,0,0,0,0,0,0,0,0,0,-1,580,1506,0,0
-637,-482,0,0,0,0,0,0,0,0,0,-1,587,1506,0,0
-630,-482,0,0,0,0,0,0,0,0,0,-1,594,1506,0,0
-623,-482,0,0,0,0,0,0,0,0,0,-1,601,1506,0,0
-616,-482,0,0,0,0,0,0,0,0,0,-1,608,1506,0,0
-609,-482,0,0,0,0,0,0,0,0,0,-1,615,1506,0,0
-602,-482,0,0,0,0,0,0,0,0,0,-1,622,1506,0,0
-595,-482,0,0,0,0,0,0,0,0,0,-1,629,1506,0,0
-588,-482,0,0,0,0,0,0,0,0,0,-1,636,1506,0,0
-581,-482,0,0,0,0,0,0,0,0,0,-1,643,1506,0,0
-574,-482,0,0,0,0,0,0,0,0,0,-1,650,1506,0,0
-567,-482,0,0,0,0,0,0,0,0,0,-1,657,1506,0,0
-560,-482,0,0,0,0,0,0,0,0,0,-1,664,1506,0,0
-553,-482,-9.06055,9.34314,0,0,0,0,0,0,0,-1,671,1506,-9.06056,-9.34312
-546,-482,-4.08624,8.34241,0,0,0,0,0,0,0,-1,678,1506,-4.08624,-8.3424
-539,-482,-4.29877,2.73499,0,0,0,0,0,0,0,-1,685,1506,-4.29879,-2.73494
-532,-482,-3.63611,4.23987,0,0,0,0,0,0,0,-1,692,1506,-3.63609,-4.23983
-525,-482,-6.19116,5.24927,0,0,0,0,0,0,0,-1,699,1506,-6.19117,-5.24927
-518,-482,-5.92957,6.39807,0,0,0,0,0,0,0,-1,706,1506,-5.92958,-6.39806
-511,-482,-6.98798,10.8634,0,0,0,0,0,0,0,-1,713,1506,-6.98796,-10.8634
-504,-482,-6.37579,12.1255,0,0,0,0,0,0,0,-1,720,1506,-6.37579,-12.1254
-497,-482,-5.6911,12.8378,0,0,0,0,0,0,0,-1,727,1506,-5.69113,-12.8378
-490,-482,-5.6521,13.451,-0.00393805,-0.00600011,-0.00106184,-0.00348903,-0.00644912,-0.400061,0.00372758,0.0308593,734,1506,-5.65213,-13.4511
-483,-482,-5.60339,14.0071,-0.00313599,-0.00475799,-0.000902963,-0.00273329,-0.00516069,-0.4195,0.00298127,0.0100928,741,1506,-5.6034,-14.0071
-476,-482,-5.61804,14.5311,-0.00195874,-0.00341525,-0.000398228,-0.00185698,-0.00351702,-0.250201,0.00203162,0.0103891,748,1506,-5.61802,-14.5312
-469,-482,-5.65198,15.0569,-0.00055852,-0.00204094,0.000342175,-0.00048335,-0.00211611,0.216247,0.00128041,0.0118351,755,1506,-5.652,-15.0568
-462,-482,-5.66357,15.5681,0.000987692,-0.000690164,0.001239,0.00164506,-0.00134754,0.487802,0.00173062,0.0130283,762,1506,-5.66358,-15.5681
-455,-482,-5.66351,16.0631,0.00261067,0.000636126,0.00226695,0.00409601,-0.000849206,0.58003,0.00305336,0.0128703,769,1506,-5.66349,-16.0631
-448,-482,-5.66895,16.5934,0.00440175,0.00207644,0.00355641,0.00698073,-0.000502537,0.627415,0.00483005,0.0135442,776,1506,-5.66891,-16.5934
-441,-482,-5.67987,17.1173,0.00633977,0.0035792,0.00507148,0.0102154,-0.000296478,0.652533,0.00691124,0.0137675,783,1506,-5.67985,-17.1173
-434,-482,-5.7226,17.6428,0.00840691,0.00515339,0.00682625,0.0137976,-0.000237258,0.668425,0.00927847,0.0162405,790,1506,-5.72261,-17.6428
-427,-482,-5.74365,18.1741,0.0105791,0.00711174,0.00900486,0.0180157,-0.000324796,0.690297,0.0121202,0.0182231,797,1506,-5.74363,-18.1741
-420,-482,-5.63959,18.9165,0.0128612,0.00910835,0.0116791,0.0228136,-0.000844077,0.705747,0.0154981,0.0459282,804,1506,-5.63956,-18.9165
-413,-482,-5.36951,19.6116,0,0,0,0,0,0,0,-1,811,1506,-5.36952,-19.6116
-406,-482,-2.51373,12.7556,0,0,0,0,0,0,0,-1,818,1506,-2.51376,-12.7556
-399,-482,-1.3822,9.22595,0,0,0,0,0,0,0,-1,825,1506,-1.38221,-9.22598
-392,-482,-1.06836,9.22729,0,0,0,0,0,0,0,-1,832,1506,-1.06835,-9.2273
-385,-482,0.0647583,8.90649,0,0,0,0,0,0,0,-1,839,1506,0.0647778,-8.90644
-378,-482,0.215698,5.96948,0,0,0,0,0,0,0,-1,846,1506,0.215681,-5.9695
-371,-482,-0.10907,8.10437,0,0,0,0,0,0,0,-1,853,1506,-0.109063,-8.10433
-364,-482,-0.154968,10.5032,0,0,0,0,0,0,0,-1,860,1506,-0.154976,-10.5032
-357,-482,2.14807,4.60144,0,0,0,0,0,0,0,-1,867,1506,2.14807,-4.60144
-350,-482,-7.5813,-1.45935,0,0,0,0,0,0,0,-1,874,1506,-7.58133,1.45937
-343,-482,-7.19983,-1.26416,0,0,0,0,0,0,0,-1,881,1506,-7.19981,1.26414
-336,-482,-6.78491,-1.18127,0,0,0,0,0,0,0,-1,888,1506,-6.78488,1.18125
-329,-482,0,0,0,0,0,0,0,0,0,-1,895,1506,0,0
-322,-482,0,0,0,0,0,0,0,0,0,-1,902,1506,0,0
-315,-482,0,0,0,0,0,0,0,0,0,-1,909,1506,0,0
-308,-482,0,0,0,0,0,0,0,0,0,-1,916,1506,0,0
-301,-482,0,0,0,0,0,0,0,0,0,-1,923,1506,0,0
-294,-482,0,0,0,0,0,0,0,0,0,-1,930,1506,0,0
-287,-482,0,0,0,0,0,0,0,0,0,-1,937,1506,0,0
-280,-482,0,0,0,0,0,0,0,0,0,-1,944,1506,0,0
-273,-482,0,0,0,0,0,0,0,0,0,-1,951,1506,0,0
-266,-482,0,0,0,0,0,0,0,0,0,-1,958,1506,0,0
-259,-482,0,0,0,0,0,0,0,0,0,-1,965,1506,0,0
-252,-482,0,0,0,0,0,0,0,0,0,-1,972,1506,0,0
-245,-482,0,0,0,0,0,0,0,0,0,-1,979,1506,0,0
-238,-482,0,0,0,0,0,0,0,0,0,-1,986,1506,0,0
-231,-482,0,0,0,0,0,0,0,0,0,-1,993,1506,0,0
-224,-482,0,0,0,0,0,0,0,0,0,-1,1000,1506,0,0
-217,-482,0,0,0,0,0,0,0,0,0,-1,1007,1506,0,0
-210,-482,0,0,0,0,0,0,0,0,0,-1,1014,1506,0,0
-203,-482,0,0,0,0,0,0,0,0,0,-1,1021,1506,0,0
-196,-482,0,0,0,0,0,0,0,0,0,-1,1028,1506,0,0
-189,-482,0,0,0,0,0,0,0,0,0,-1,1035,1506,0,0
-182,-482,0,0,0,0,0,0,0,0,0,-1,1042,1506,0,0
-175,-482,0,0,0,0,0,0,0,0,0,-1,1049,1506,0,0
-168,-482,0,0,0,0,0,0,0,0,0,-1,1056,1506,0,0
-161,-482,0,0,0,0,0,0,0,0,0,-1,1063,1506,0,0
-154,-482,0,0,0,0,0,0,0,0,0,-1,1070,1506,0,0
-147,-482,0,0,0,0,0,0,0,0,0,-1,1077,1506,0,0
-140,-482,0,0,0,0,0,0,0,0,0,-1,1084,1506,0,0
-133,-482,0,0,0,0,0,0,0,0,0,-1,1091,1506,0,0
-126,-482,0,0,0,0,0,0,0,0,0,-1,1098,1506,0,0
-119,-482,0,0,0,0,0,0,0,0,0,-1,1105,1506,0,0
-112,-482,0,0,0,0,0,0,0,0,0,-1,1112,1506,0,0
-105,-482,0,0,0,0,0,0,0,0,0,-1,1119,1506,0,0
-98,-482,0,0,0,0,0,0,0,0,0,-1,1126,1506,0,0
-91,-482,0,0,0,0,0,0,0,0,0,-1,1133,1506,0,0
-84,-482,0,0,0,0,0,0,0,0,0,-1,1140,1506,0,0
-77,-482,0,0,0,0,0,0,0,0,0,-1,1147,1506,0,0
-70,-482,0,0,0,0,0,0,0,0,0,-1,1154,1506,0,0
-63,-482,0,0,0,0,0,0,0,0,0,-1,1161,1506,0,0
-56,-482,0,0,0,0,0,0,0,0,0,-1,1168,1506,0,0
-49,-482,0,0,0,0,0,0,0,0,0,-1,1175,1506,0,0
-42,-482,0,0,0,0,0,0,0,0,0,-1,1182,1506,0,0
-35,-482,0,0,0,0,0,0,0,0,0,-1,1189,1506,0,0
-28,-482,0,0,0,0,0,0,0,0,0,-1,1196,1506,0,0
-21,-482,0,0,0,0,0,0,0,0,0,-1,1203,1506,0,0
-14,-482,0,0,0,0,0,0,0,0,0,-1,1210,1506,0,0
-7,-482,0,0,0,0,0,0,0,0,0,-1,1217,1506,0,0
0,-482,0,0,0,0,0,0,0,0,0,-1,1224,1506,0,0
7,-482,0,0,0,0,0,0,0,0,0,-1,1231,1506,0,0
14,-482,0,0,0,0,0,0,0,0,0,-1,1238,1506,0,0
21,-482,0,0,0,0,0,0,0,0,0,-1,1245,1506,0,0
28,-482,0,0,0,0,0,0,0,0,0,-1,1252,1506,0,0
35,-482,0,0,0,0,0,0,0,0,0,-1,1259,1506,0,0
42,-482,0,0,0,0,0,0,0,0,0,-1,1266,1506,0,0
49,-482,0,0,0,0,0,0,0,0,0,-1,1273,1506,0,0
56,-482,0,0,0,0,0,0,0,0,0,-1,1280,1506,0,0
63,-482,0,0,0,0,0,0,0,0,0,-1,1287,1506,0,0
70,-482,0,0,0,0,0,0,0,0,0,-1,1294,1506,0,0
77,-482,0,0,0,0,0,0,0,0,0,-1,1301,1506,0,0
84,-482,0,0,0,0,0,0,0,0,0,-1,1308,1506,0,0
91,-482,0,0,0,0,0,0,0,0,0,-1,1315,1506,0,0
98,-482,0,0,0,0,0,0,0,0,0,-1,1322,1506,0,0
105,-482,0,0,0,0,0,0,0,0,0,-1,1329,1506,0,0
112,-482,0,0,0,0,0,0,0,0,0,-1,1336,1506,0,0
119,-482,0,0,0,0,0,0,0,0,0,-1,1343,1506,0,0
126,-482,0,0,0,0,0,0,0,0,0,-1,1350,1506,0,0
133,-482,0,0,0,0,0,0,0,0,0,-1,1357,1506,0,0
140,-482,0,0,0,0,0,0,0,0,0,-1,1364,1506,0,0
147,-482,0,0,0,0,0,0,0,0,0,-1,1371,1506,0,0
154,-482,0,0,0,0,0,0,0,0,0,-1,1378,1506,0,0
161,-482,0,0,0,0,0,0,0,0,0,-1,1385,1506,0,0
168,-482,0,0,0,0,0,0,0,0,0,-1,1392,1506,0,0
175,-482,0,0,0,0,0,0,0,0,0,-1,1399,1506,0,0
182,-482,0,0,0,0,0,0,0,0,0,-1,1406,1506,0,0
189,-482,0,0,0,0,0,0,0,0,0,-1,1413,1506,0,0
196,-482,0,0,0,0,0,0,0,0,0,-1,1420,1506,0,0
203,-482,0,0,0,0,0,0,0,0,0,-1,1427,1506,0,0
210,-482,0,0,0,0,0,0,0,0,0,-1,1434,1506,0,0
217,-482,0,0,0,0,0,0,0,0,0,-1,1441,1506,0,0
224,-482,0,0,0,0,0,0,0,0,0,-1,1448,1506,0,0
231,-482,0,0,0,0,0,0,0,0,0,-1,1455,1506,0,0
238,-482,0,0,0,0,0,0,0,0,0,-1,1462,1506,0,0
245,-482,0,0,0,0,0,0,0,0,0,-1,1469,1506,0,0
252,-482,0,0,0,0,0,0,0,0,0,-1,1476,1506,0,0
259,-482,0,0,0,0,0,0,0,0,0,-1,1483,1506,0,0
266,-482,0,0,0,0,0,0,0,0,0,-1,1490,1506,0,0
273,-482,0,0,0,0,0,0,0,0,0,-1,1497,1506,0,0
280,-482,0,0,0,0,0,0,0,0,0,-1,1504,1506,0,0
287,-482,0,0,0,0,0,0,0,0,0,-1,1511,1506,0,0
294,-482,0,0,0,0,0,0,0,0,0,-1,1518,1506,0,0
301,-482,0,0,0,0,0,0,0,0,0,-1,1525,1506,0,0
308,-482,0,0,0,0,0,0,0,0,0,-1,1532,1506,0,0
315,-482,0,0,0,0,0,0,0,0,0,-1,1539,1506,0,0
322,-482,0,0,0,0,0,0,0,0,0,-1,1546,1506,0,0
329,-482,0,0,0,0,0,0,0,0,0,-1,1553,1506,0,0
336,-482,0,0,0,0,0,0,0,0,0,-1,1560,1506,0,0
343,-482,0,0,0,0,0,0,0,0,0,-1,1567,1506,0,0
350,-482,0,0,0,0,0,0,0,0,0,-1,1574,1506,0,0
357,-482,0,0,0,0,0,0,0,0,0,-1,1581,1506,0,0
364,-482,0,0,0,0,0,0,0,0,0,-1,1588,1506,0,0
371,-482,0,0,0,0,0,0,0,0,0,-1,1595,1506,0,0
378,-482,0,0,0,0,0,0,0,0,0,-1,1602,1506,0,0
385,-482,0,0,0,0,0,0,0,0,0,-1,1609,1506,0,0
392,-482,0,0,0,0,0,0,0,0,0,-1,1616,1506,0,0
399,-482,0,0,0,0,0,0,0,0,0,-1,1623,1506,0,0
406,-482,0,0,0,0,0,0,0,0,0,-1,1630,1506,0,0
413,-482,0,0,0,0,0,0,0,0,0,-1,1637,1506,0,0
420,-482,0,0,0,0,0,0,0,0,0,-1,1644,1506,0,0
427,-482,0,0,0,0,0,0,0,0,0,-1,1651,1506,0,0
434,-482,0,0,0,0,0,0,0,0,0,-1,1658,1506,0,0
441,-482,0,0,0,0,0,0,0,0,0,-1,1665,1506,0,0
448,-482,4.24146,1.55383,0,0,0,0,0,0,0,-1,1672,1506,4.24149,-1.55381
455,-482,12.4122,1.09729,0,0,0,0,0,0,0,-1,1679,1506,12.4122,-1.09734
462,-482,15.0673,3.13135,0,0,0,0,0,0,0,-1,1686,1506,15.0672,-3.13134
469,-482,15.3793,3.46301,0,0,0,0,0,0,0,-1,1693,1506,15.3793,-3.46307
476,-482,8.69751,9.18738,0,0,0,0,0,0,0,-1,1700,1506,8.69753,-9.18739
483,-482,10.0902,7.17432,0,0,0,0,0,0,0,-1,1707,1506,10.0902,-7.1743
490,-482,11.6289,5.4928,0,0,0,0,0,0,0,-1,1714,1506,11.6289,-5.49283
497,-482,15.9539,7.40222,0,0,0,0,0,0,0,-1,1721,1506,15.9538,-7.40219
504,-482,20.4233,12.006,0,0,0,0,0,0,0,-1,1728,1506,20.4233,-12.006
511,-482,18.4937,12.9175,0,0,0,0,0,0,0,-1,1735,1506,18.4936,-12.9174
518,-482,16.6002,13.9679,0,0,0,0,0,0,0,-1,1742,1506,16.6003,-13.9679
525,-482,18.495,15.9618,0,0,0,0,0,0,0,-1,1749,1506,18.495,-15.9618
532,-482,19.9375,21.0775,0,0,0,0,0,0,0,-1,1756,1506,19.9375,-21.0775
539,-482,20.2291,20.5577,0,0,0,0,0,0,0,-1,1763,1506,20.2291,-20.5578
546,-482,20.5536,20.675,0,0,0,0,0,0,0,-1,1770,1506,20.5535,-20.6751
553,-482,20.4465,19.9946,0,0,0,0,0,0,0,-1,1777,1506,20.4465,-19.9946
560,-482,20.5734,19.4376,0.00513546,0.00294411,-0.002381,0.00666078,0.00141878,-0.569756,0.00405127,0.0139842,1784,1506,20.5734,-19.4376
567,-482,20.642,18.9431,0.00381418,0.00244453,-0.00183456,0.00508756,0.00117114,-0.606762,0.00307655,0.0139526,1791,1506,20.6419,-18.9431
574,-482,20.6118,18.4844,0.00336106,0.00177413,-0.00159227,0.00434661,0.000788577,-0.554245,0.00267393,0.0133113,1798,1506,20.6118,-18.4844
581,-482,20.5874,18.0095,0.00313114,0.00110533,-0.00141165,0.00385569,0.000380784,-0.474199,0.0024534,0.00980431,1805,1506,20.5874,-18.0096
588,-482,20.577,17.5225,0.003182,0.000457091,-0.00133223,0.00372509,-8.60007e-05,-0.38709,0.00251255,0.0106344,1812,1506,20.577,-17.5224
595,-482,20.5818,17.0396,0.00355487,-0.000243182,-0.00128258,0.00394742,-0.000635732,-0.297009,0.00286712,0.0163929,1819,1506,20.5817,-17.0395
602,-482,20.5804,16.564,0.00410718,-0.000987316,-0.00130057,0.00442,-0.00130013,-0.236037,0.00346239,0.0191202,1826,1506,20.5804,-16.564
609,-482,20.543,16.0935,0.00480078,-0.00179688,-0.0012732,0.00503796,-0.00203405,-0.184171,0.00420401,0.0146032,1833,1506,20.543,-16.0935
616,-482,20.5088,15.6143,0.00577349,-0.0026962,-0.00121922,0.0059455,-0.00286821,-0.14016,0.00519096,0.0112064,1840,1506,20.5088,-15.6142
623,-482,20.4915,15.1362,0.00688555,-0.00374293,-0.00109134,0.00699645,-0.00385383,-0.101273,0.00635139,0.0148155,1847,1506,20.4915,-15.1362
630,-482,20.5118,14.7166,0.00794289,-0.00471377,-0.000878925,0.00800364,-0.00477452,-0.0690022,0.00745558,0.0289086,1854,1506,20.5119,-14.7165
637,-482,20.595,14.3058,0,0,0,0,0,0,0,-1,1861,1506,20.595,-14.3058
644,-482,17.5909,11.6163,0,0,0,0,0,0,0,-1,1868,1506,17.5909,-11.6163
651,-482,4.03845,7.05273,0,0,0,0,0,0,0,-1,1875,1506,4.03843,-7.05279
658,-482,10.0278,5.87903,0,0,0,0,0,0,0,-1,1882,1506,10.0279,-5.87902
665,-482,8.15198,3.22229,0,0,0,0,0,0,0,-1,1889,1506,8.15199,-3.22232
672,-482,9.87415,1.3147,0,0,0,0,0,0,0,-1,1896,1506,9.87416,-1.31473
679,-482,0,0,0,0,0,0,0,0,0,-1,1903,1506,0,0
686,-482,0,0,0,0,0,0,0,0,0,-1,1910,1506,0,0
693,-482,0,0,0,0,0,0,0,0,0,-1,1917,1506,0,0
700,-482,0,0,0,0,0,0,0,0,0,-1,1924,1506,0,0
707,-482,0,0,0,0,0,0,0,0,0,-1,1931,1506,0,0
714,-482,0,0,0,0,0,0,0,0,0,-1,1938,1506,0,0
721,-482,0,0,0,0,0,0,0,0,0,-1,1945,1506,0,0
728,-482,0,0,0,0,0,0,0,0,0,-1,1952,1506,0,0
735,-482,0,0,0,0,0,0,0,0,0,-1,1959,1506,0,0
742,-482,0,0,0,0,0,0,0,0,0,-1,1966,1506,0,0
749,-482,0,0,0,0,0,0,0,0,0,-1,1973,1506,0,0
756,-482,0,0,0,0,0,0,0,0,0,-1,1980,1506,0,0
763,-482,0,0,0,0,0,0,0,0,0,-1,1987,1506,0,0
770,-482,0,0,0,0,0,0,0,0,0,-1,1994,1506,0,0
777,-482,0,0,0,0,0,0,0,0,0,-1,2001,1506,0,0
784,-482,0,0,0,0,0,0,0,0,0,-1,2008,1506,0,0
791,-482,0,0,0,0,0,0,0,0,0,-1,2015,1506,0,0
798,-482,0,0,0,0,0,0,0,0,0,-1,2022,1506,0,0
805,-482,0,0,0,0,0,0,0,0,0,-1,2029,1506,0,0
812,-482,0,0,0,0,0,0,0,0,0,-1,2036,1506,0,0
-700,-489,0,0,0,0,0,0,0,0,0,-1,524,1513,0,0
-693,-489,0,0,0,0,0,0,0,0,0,-1,531,1513,0,0
-686,-489,0,0,0,0,0,0,0,0,0,-1,538,1513,0,0
-679,-489,0,0,0,0,0,0,0,0,0,-1,545,1513,0,0
-672,-489,0,0,0,0,0,0,0,0,0,-1,552,1513,0,0
-665,-489,0,0,0,0,0,0,0,0,0,-1,559,1513,0,0
-658,-489,0,0,0,0,0,0,0,0,0,-1,566,1513,0,0
-651,-489,0,0,0,0,0,0,0,0,0,-1,573,1513,0,0
-644,-489,0,0,0,0,0,0,0,0,0,-1,580,1513,0,0
-637,-489,0,0,0,0,0,0,0,0,0,-1,587,1513,0,0
-630,-489,0,0,0,0,0,0,0,0,0,-1,594,1513,0,0
-623,-489,0,0,0,0,0,0,0,0,0,-1,601,1513,0,0
-616,-489,0,0,0,0,0,0,0,0,0,-1,608,1513,0,0
-609,-489,0,0,0,0,0,0,0,0,0,-1,615,1513,0,0
-602,-489,0,0,0,0,0,0,0,0,0,-1,622,1513,0,0
-595,-489,0,0,0,0,0,0,0,0,0,-1,629,1513,0,0
-588,-489,0,0,0,0,0,0,0,0,0,-1,636,1513,0,0
-581,-489,0,0,0,0,0,0,0,0,0,-1,643,1513,0,0
-574,-489,0,0,0,0,0,0,0,0,0,-1,650,1513,0,0
-567,-489,0,0,0,0,0,0,0,0,0,-1,657,1513,0,0
-560,-489,0,0,0,0,0,0,0,0,0,-1,664,1513,0,0
-553,-489,-9.42206,8.5116,0,0,0,0,0,0,0,-1,671,1513,-9.42205,-8.51158
-546,-489,-7.80951,8.18506,0,0,0,0,0,0,0,-1,678,1513,-7.8095,-8.18503
-539,-489,-3.06879,2.82349,0,0,0,0,0,0,0,-1,685,1513,-3.06881,-2.82354
-532,-489,-3.14215,2.5835,0,0,0,0,0,0,0,-1,692,1513,-3.14213,-2.58353
-525,-489,-2.604,4.06274,0,0,0,0,0,0,0,-1,699,1513,-2.60399,-4.06274
-518,-489,-5.43774,7.48059,0,0,0,0,0,0,0,-1,706,1513,-5.43777,-7.48058
-511,-489,-7.52856,10.951,0,0,0,0,0,0,0,-1,713,1513,-7.52857,-10.951
-504,-489,-7.00171,11.9862,0,0,0,0,0,0,0,-1,720,1513,-7.00169,-11.9862
-497,-489,-4.74817,13.4094,0,0,0,0,0,0,0,-1,727,1513,-4.74815,-13.4094
-490,-489,-4.95593,13.5551,-0.00567789,-0.00659251,-0.00100198,-0.00503379,-0.00723661,-0.571312,0.0042833,0.0396849,734,1513,-4.95591,-13.555
-483,-489,-5.1087,13.9635,-0.00470759,-0.00513203,-0.0010537,-0.00384496,-0.00599467,-0.686024,0.00350685,0.0169389,741,1513,-5.10871,-13.9635
-476,-489,-5.10736,14.535,-0.00343044,-0.00369476,-0.000737569,-0.00281329,-0.00431192,-0.696746,0.00252776,0.00967059,748,1513,-5.10736,-14.5351
-469,-489,-5.12091,15.0576,-0.00200138,-0.00233473,-0.000201329,-0.00190669,-0.00242942,-0.439651,0.00147654,0.0103643,755,1513,-5.12094,-15.0577
-462,-489,-5.14709,15.6104,-0.00047655,-0.00109126,0.000512305,-0.000186473,-0.00138133,0.51521,0.000865454,0.0156474,762,1513,-5.14707,-15.6104
-455,-489,-5.17249,16.1456,0.00107217,3.76114e-05,0.00133985,0.00199112,-0.000881344,0.601177,0.00169918,0.019367,769,1513,-5.17251,-16.1457
-448,-489,-5.19208,16.6161,0.00272873,0.00120562,0.00240575,0.00449058,-0.00055623,0.632111,0.00319531,0.0170296,776,1513,-5.19208,-16.6161
-441,-489,-5.17578,17.1353,0.00446987,0.00240694,0.00367971,0.00725995,-0.000383138,0.648749,0.0049726,0.0150663,783,1513,-5.1758,-17.1352
-434,-489,-5.22961,17.661,0.00627274,0.00371645,0.00518287,0.0103327,-0.000343551,0.664505,0.00700582,0.0182086,790,1513,-5.22961,-17.661
-427,-489,-5.28882,18.1863,0.00814589,0.00527203,0.00701626,0.0138709,-0.00045293,0.684395,0.00940185,0.0190958,797,1513,-5.28882,-18.1863
-420,-489,-5.31018,18.8257,0.0100704,0.0068371,0.0091997,0.0177944,-0.000886912,0.698422,0.0121694,0.0233598,804,1513,-5.31021,-18.8257
-413,-489,-4.88165,19.4329,0,0,0,0,0,0,0,-1,811,1513,-4.88165,-19.4329
-406,-489,-3.10559,15.8143,0,0,0,0,0,0,0,-1,818,1513,-3.10556,-15.8143
-399,-489,-1.41241,9.10718,0,0,0,0,0,0,0,-1,825,1513,-1.41244,-9.10722
-392,-489,-1.0368,9.30469,0,0,0,0,0,0,0,-1,832,1513,-1.03682,-9.30466
-385,-489,-1.75165,10.6559,0,0,0,0,0,0,0,-1,839,1513,-1.75165,-10.6559
-378,-489,-0.401428,9.87048,0,0,0,0,0,0,0,-1,846,1513,-0.401415,-9.87047
-371,-489,-1.11633,10.6606,0,0,0,0,0,0,0,-1,853,1513,-1.11633,-10.6606
-364,-489,-0.503113,8.98486,0,0,0,0,0,0,0,-1,860,1513,-0.503097,-8.98482
-357,-489,-0.609924,10.9606,0,0,0,0,0,0,0,-1,867,1513,-0.609947,-10.9605
-350,-489,-7.94659,-0.358887,0,0,0,0,0,0,0,-1,874,1513,-7.94657,0.358912
-343,-489,-7.49323,-0.437866,0,0,0,0,0,0,0,-1,881,1513,-7.49322,0.437823
-336,-489,-7.02332,-0.53125,0,0,0,0,0,0,0,-1,888,1513,-7.0233,0.531295
-329,-489,-9.9212,2.92419,0,0,0,0,0,0,0,-1,895,1513,-9.92118,-2.92417
-322,-489,0,0,0,0,0,0,0,0,0,-1,902,1513,0,0
-315,-489,0,0,0,0,0,0,0,0,0,-1,909,1513,0,0
-308,-489,0,0,0,0,0,0,0,0,0,-1,916,1513,0,0
-301,-489,0,0,0,0,0,0,0,0,0,-1,923,1513,0,0
-294,-489,0,0,0,0,0,0,0,0,0,-1,930,1513,0,0
-287,-489,0,0,0,0,0,0,0,0,0,-1,937,1513,0,0
-280,-489,0,0,0,0,0,0,0,0,0,-1,944,1513,0,0
-273,-489,0,0,0,0,0,0,0,0,0,-1,951,1513,0,0
-266,-489,0,0,0,0,0,0,0,0,0,-1,958,1513,0,0
-259,-489,0,0,0,0,0,0,0,0,0,-1,965,1513,0,0
-252,-489,0,0,0,0,0,0,0,0,0,-1,972,1513,0,0
-245,-489,0,0,0,0,0,0,0,0,0,-1,979,1513,0,0
-238,-489,0,0,0,0,0,0,0,0,0,-1,986,1513,0,0
-231,-489,0,0,0,0,0,0,0,0,0,-1,993,1513,0,0
-224,-489,0,0,0,0,0,0,0,0,0,-1,1000,1513,0,0
-217,-489,0,0,0,0,0,0,0,0,0,-1,1007,1513,0,0
-210,-489,0,0,0,0,0,0,0,0,0,-1,1014,1513,0,0
-203,-489,0,0,0,0,0,0,0,0,0,-1,1021,1513,0,0
-196,-489,0,0,0,0,0,0,0,0,0,-1,1028,1513,0,0
-189,-489,0,0,0,0,0,0,0,0,0,-1,1035,1513,0,0
-182,-489,0,0,0,0,0,0,0,0,0,-1,1042,1513,0,0
-175,-489,0,0,0,0,0,0,0,0,0,-1,1049,1513,0,0
-168,-489,0,0,0,0,0,0,0,0,0,-1,1056,1513,0,0
-161,-489,0,0,0,0,0,0,0,0,0,-1,1063,1513,0,0
-154,-489,0,0,0,0,0,0,0,0,0,-1,1070,1513,0,0
-147,-489,0,0,0,0,0,0,0,0,0,-1,1077,1513,0,0
-140,-489,0,0,0,0,0,0,0,0,0,-1,1084,1513,0,0
-133,-489,0,0,0,0,0,0,0,0,0,-1,1091,1513,0,0
-126,-489,0,0,0,0,0,0,0,0,0,-1,1098,1513,0,0
-119,-489,0,0,0,0,0,0,0,0,0,-1,1105,1513,0,0
-112,-489,0,0,0,0,0,0,0,0,0,-1,1112,1513,0,0
-105,-489,0,0,0,0,0,0,0,0,0,-1,1119,1513,0,0
-98,-489,0,0,0,0,0,0,0,0,0,-1,1126,1513,0,0
-91,-489,0,0,0,0,0,0,0,0,0,-1,1133,1513,0,0
-84,-489,0,0,0,0,0,0,0,0,0,-1,1140,1513,0,0
-77,-489,0,0,0,0,0,0,0,0,0,-1,1147,1513,0,0
-70,-489,0,0,0,0,0,0,0,0,0,-1,1154,1513,0,0
-63,-489,0,0,0,0,0,0,0,0,0,-1,1161,1513,0,0
-56,-489,0,0,0,0,0,0,0,0,0,-1,1168,1513,0,0
-49,-489,0,0,0,0,0,0,0,0,0,-1,1175,1513,0,0
-42,-489,0,0,0,0,0,0,0,0,0,-1,1182,1513,0,0
-35,-489,0,0,0,0,0,0,0,0,0,-1,1189,1513,0,0
-28,-489,0,0,0,0,0,0,0,0,0,-1,1196,1513,0,0
-21,-489,0,0,0,0,0,0,0,0,0,-1,1203,1513,0,0
-14,-489,0,0,0,0,0,0,0,0,0,-1,1210,1513,0,0
-7,-489,0,0,0,0,0,0,0,0,0,-1,1217,1513,0,0
0,-489,0,0,0,0,0,0,0,0,0,-1,1224,1513,0,0
7,-489,0,0,0,0,0,0,0,0,0,-1,1231,1513,0,0
14,-489,0,0,0,0,0,0,0,0,0,-1,1238,1513,0,0
21,-489,0,0,0,0,0,0,0,0,0,-1,1245,1513,0,0
28,-489,0,0,0,0,0,0,0,0,0,-1,1252,1513,0,0
35,-489,0,0,0,0,0,0,0,0,0,-1,1259,1513,0,0
42,-489,0,0,0,0,0,0,0,0,0,-1,1266,1513,0,0
49,-489,0,0,0,0,0,0,0,0,0,-1,1273,1513,0,0
56,-489,0,0,0,0,0,0,0,0,0,-1,1280,1513,0,0
63,-489,0,0,0,0,0,0,0,0,0,-1,1287,1513,0,0
70,-489,0,0,0,0,0,0,0,0,0,-1,1294,1513,0,0
77,-489,0,0,0,0,0,0,0,0,0,-1,1301,1513,0,0
84,-489,0,0,0,0,0,0,0,0,0,-1,1308,1513,0,0
91,-489,0,0,0,0,0,0,0,0,0,-1,1315,1513,0,0
98,-489,0,0,0,0,0,0,0,0,0,-1,1322,1513,0,0
105,-489,0,0,0,0,0,0,0,0,0,-1,1329,1513,0,0
112,-489,0,0,0,0,0,0,0,0,0,-1,1336,1513,0,0
119,-489,0,0,0,0,0,0,0,0,0,-1,1343,1513,0,0
126,-489,0,0,0,0,0,0,0,0,0,-1,1350,1513,0,0
133,-489,0,0,0,0,0,0,0,0,0,-1,1357,1513,0,0
140,-489,0,0,0,0,0,0,0,0,0,-1,1364,1513,0,0
147,-489,0,0,0,0,0,0,0,0,0,-1,1371,1513,0,0
154,-489,0,0,0,0,0,0,0,0,0,-1,1378,1513,0,0
161,-489,0,0,0,0,0,0,0,0,0,-1,1385,1513,0,0
168,-489,0,0,0,0,0,0,0,0,0,-1,1392,1513,0,0
175,-489,0,0,0,0,0,0,0,0,0,-1,1399,1513,0,0
182,-489,0,0,0,0,0,0,0,0,0,-1,1406,1513,0,0
189,-489,0,0,0,0,0,0,0,0,0,-1,1413,1513,0,0
196,-489,0,0,0,0,0,0,0,0,0,-1,1420,1513,0,0
203,-489,0,0,0,0,0,0,0,0,0,-1,1427,1513,0,0
210,-489,0,0,0,0,0,0,0,0,0,-1,1434,1513,0,0
217,-489,0,0,0,0,0,0,0,0,0,-1,1441,1513,0,0
224,-489,0,0,0,0,0,0,0,0,0,-1,1448,1513,0,0
231,-489,0,0,0,0,0,0,0,0,0,-1,1455,1513,0,0
238,-489,0,0,0,0,0,0,0,0,0,-1,1462,1513,0,0
245,-489,0,0,0,0,0,0,0,0,0,-1,1469,1513,0,0
252,-489,0,0,0,0,0,0,0,0,0,-1,1476,1513,0,0
259,-489,0,0,0,0,0,0,0,0,0,-1,1483,1513,0,0
266,-489,0,0,0,0,0,0,0,0,0,-1,1490,1513,0,0
273,-489,0,0,0,0,0,0,0,0,0,-1,1497,1513,0,0
280,-489,0,0,0,0,0,0,0,0,0,-1,1504,1513,0,0
287,-489,0,0,0,0,0,0,0,0,0,-1,1511,1513,0,0
294,-489,0,0,0,0,0,0,0,0,0,-1,1518,1513,0,0
301,-489,0,0,0,0,0,0,0,0,0,-1,1525,1513,0,0
308,-489,0,0,0,0,0,0,0,0,0,-1,1532,1513,0,0
315,-489,0,0,0,0,0,0,0,0,0,-1,1539,1513,0,0
322,-489,0,0,0,0,0,0,0,0,0,-1,1546,1513,0,0
329,-489,0,0,0,0,0,0,0,0,0,-1,1553,1513,0,0
336,-489,0,0,0,0,0,0,0,0,0,-1,1560,1513,0,0
343,-489,0,0,0,0,0,0,0,0,0,-1,1567,1513,0,0
350,-489,0,0,0,0,0,0,0,0,0,-1,1574,1513,0,0
357,-489,0,0,0,0,0,0,0,0,0,-1,1581,1513,0,0
364,-489,0,0,0,0,0,0,0,0,0,-1,1588,1513,0,0
371,-489,0,0,0,0,0,0,0,0,0,-1,1595,1513,0,0
378,-489,0,0,0,0,0,0,0,0,0,-1,1602,1513,0,0
385,-489,0,0,0,0,0,0,0,0,0,-1,1609,1513,0,0
392,-489,0,0,0,0,0,0,0,0,0,-1,1616,1513,0,0
399,-489,0,0,0,0,0,0,0,0,0,-1,1623,1513,0,0
406,-489,0,0,0,0,0,0,0,0,0,-1,1630,1513,0,0
413,-489,0,0,0,0,0,0,0,0,0,-1,1637,1513,0,0
420,-489,0,0,0,0,0,0,0,0,0,-1,1644,1513,0,0
427,-489,0,0,0,0,0,0,0,0,0,-1,1651,1513,0,0
434,-489,0,0,0,0,0,0,0,0,0,-1,1658,1513,0,0
441,-489,11.4602,2.56787,0,0,0,0,0,0,0,-1,1665,1513,11.4602,-2.56786
448,-489,12.4425,1.72351,0,0,0,0,0,0,0,-1,1672,1513,12.4425,-1.72349
455,-489,12.5575,1.37463,0,0,0,0,0,0,0,-1,1679,1513,12.5575,-1.37469
462,-489,14.9784,3.84888,0,0,0,0,0,0,0,-1,1686,1513,14.9784,-3.84892
469,-489,15.1367,4.53101,0,0,0,0,0,0,0,-1,1693,1513,15.1368,-4.531
476,-489,15.5536,5.09338,0,0,0,0,0,0,0,-1,1700,1513,15.5536,-5.09339
483,-489,8.96912,8.37805,0,0,0,0,0,0,0,-1,1707,1513,8.96909,-8.37809
490,-489,10.5366,7.49561,0,0,0,0,0,0,0,-1,1714,1513,10.5367,-7.49558
497,-489,14.6051,11.8397,0,0,0,0,0,0,0,-1,1721,1513,14.6051,-11.8397
504,-489,16.7527,14.1735,0,0,0,0,0,0,0,-1,1728,1513,16.7527,-14.1735
511,-489,17.83,17.7993,0,0,0,0,0,0,0,-1,1735,1513,17.83,-17.7993
518,-489,16.4751,14.3682,0,0,0,0,0,0,0,-1,1742,1513,16.4751,-14.3682
525,-489,17.2606,17.4949,0,0,0,0,0,0,0,-1,1749,1513,17.2606,-17.4949
532,-489,19.397,21.0182,0,0,0,0,0,0,0,-1,1756,1513,19.397,-21.0182
539,-489,20.0417,21.1854,0,0,0,0,0,0,0,-1,1763,1513,20.0418,-21.1854
546,-489,20.1276,20.5619,0.00674191,0.00470253,-0.00383026,0.00968589,0.00175855,-0.655305,0.00595822,0.0233415,1770,1513,20.1275,-20.5619
553,-489,20.1177,19.9692,0.00543833,0.00349525,-0.0028637,0.00749081,0.00144277,-0.62186,0.00458918,0.0178047,1777,1513,20.1177,-19.9692
560,-489,20.1632,19.4297,0.00439829,0.00255693,-0.00214083,0.00580803,0.0011472,-0.582325,0.00355192,0.0127532,1784,1513,20.1632,-19.4297
567,-489,20.1836,18.9535,0.00348476,0.00197794,-0.00168984,0.00458154,0.000881165,-0.575702,0.00280712,0.0143736,1791,1513,20.1836,-18.9535
574,-489,20.1285,18.5262,0.00322952,0.00133639,-0.00149675,0.0040539,0.000512006,-0.503442,0.00254913,0.0150792,1798,1513,20.1286,-18.5263
581,-489,20.1239,18.0474,0.00321717,0.00067257,-0.00138465,0.0038253,6.44444e-05,-0.413829,0.00252899,0.010869,1805,1513,20.1239,-18.0474
588,-489,20.1101,17.5496,0.00352218,4.37429e-05,-0.00140781,0.00402055,-0.000454629,-0.340238,0.00284405,0.0132157,1812,1513,20.1101,-17.5495
595,-489,20.0978,17.0957,0.00419595,-0.000657018,-0.00147561,0.00460941,-0.00107047,-0.273187,0.003485,0.0198475,1819,1513,20.0978,-17.0957
602,-489,20.0941,16.6581,0.00511411,-0.0014205,-0.00163116,0.00549865,-0.00180503,-0.231518,0.00439285,0.0243322,1826,1513,20.0941,-16.658
609,-489,20.0696,16.1569,0.00624844,-0.00228906,-0.00177013,0.0066009,-0.00264152,-0.196545,0.00549691,0.0168068,1833,1513,20.0696,-16.1568
616,-489,20.0582,15.6111,0.00782815,-0.00334546,-0.00187437,0.00813419,-0.00365151,-0.161849,0.00696661,0.016553,1840,1513,20.0582,-15.6111
623,-489,20.0326,15.1525,0.00961235,-0.0046106,-0.00189118,0.00985952,-0.00485776,-0.129959,0.00865905,0.0353777,1847,1513,20.0326,-15.1525
630,-489,20.1598,14.7062,0,0,0,0,0,0,0,-1,1854,1513,20.1599,-14.7062
637,-489,17.2048,11.8091,0,0,0,0,0,0,0,-1,1861,1513,17.2048,-11.8091
644,-489,9.67578,8.45874,0,0,0,0,0,0,0,-1,1868,1513,9.67576,-8.45879
651,-489,6.13818,6.85095,0,0,0,0,0,0,0,-1,1875,1513,6.13823,-6.85097
658,-489,5.43848,7.75513,0,0,0,0,0,0,0,-1,1882,1513,5.43844,-7.75509
665,-489,5.48438,8.59912,0,0,0,0,0,0,0,-1,1889,1513,5.48434,-8.59907
672,-489,0,0,0,0,0,0,0,0,0,-1,1896,1513,0,0
679,-489,0,0,0,0,0,0,0,0,0,-1,1903,1513,0,0
686,-489,0,0,0,0,0,0,0,0,0,-1,1910,1513,0,0
693,-489,0,0,0,0,0,0,0,0,0,-1,1917,1513,0,0
700,-489,0,0,0,0,0,0,0,0,0,-1,1924,1513,0,0
707,-489,0,0,0,0,0,0,0,0,0,-1,1931,1513,0,0
714,-489,0,0,0,0,0,0,0,0,0,-1,1938,1513,0,0
721,-489,0,0,0,0,0,0,0,0,0,-1,1945,1513,0,0
728,-489,0,0,0,0,0,0,0,0,0,-1,1952,1513,0,0
735,-489,0,0,0,0,0,0,0,0,0,-1,1959,1513,0,0
742,-489,0,0,0,0,0,0,0,0,0,-1,1966,1513,0,0
749,-489,0,0,0,0,0,0,0,0,0,-1,1973,1513,0,0
756,-489,0,0,0,0,0,0,0,0,0,-1,1980,1513,0,0
763,-489,0,0,0,0,0,0,0,0,0,-1,1987,1513,0,0
770,-489,0,0,0,0,0,0,0,0,0,-1,1994,1513,0,0
777,-489,0,0,0,0,0,0,0,0,0,-1,2001,1513,0,0
784,-489,0,0,0,0,0,0,0,0,0,-1,2008,1513,0,0
791,-489,0,0,0,0,0,0,0,0,0,-1,2015,1513,0,0
798,-489,0,0,0,0,0,0,0,0,0,-1,2022,1513,0,0
805,-489,0,0,0,0,0,0,0,0,0,-1,2029,1513,0,0
812,-489,0,0,0,0,0,0,0,0,0,-1,2036,1513,0,0
-700,-496,0,0,0,0,0,0,0,0,0,-1,524,1520,0,0
-693,-496,0,0,0,0,0,0,0,0,0,-1,531,1520,0,0
-686,-496,0,0,0,0,0,0,0,0,0,-1,538,1520,0,0
-679,-496,0,0,0,0,0,0,0,0,0,-1,545,1520,0,0
-672,-496,0,0,0,0,0,0,0,0,0,-1,552,1520,0,0
-665,-496,0,0,0,0,0,0,0,0,0,-1,559,1520,0,0
-658,-496,0,0,0,0,0,0,0,0,0,-1,566,1520,0,0
-651,-496,0,0,0,0,0,0,0,0,0,-1,573,1520,0,0
-644,-496,0,0,0,0,0,0,0,0,0,-1,580,1520,0,0
-637,-496,0,0,0,0,0,0,0,0,0,-1,587,1520,0,0
-630,-496,0,0,0,0,0,0,0,0,0,-1,594,1520,0,0
-623,-496,0,0,0,0,0,0,0,0,0,-1,601,1520,0,0
-616,-496,0,0,0,0,0,0,0,0,0,-1,608,1520,0,0
-609,-496,0,0,0,0,0,0,0,0,0,-1,615,1520,0,0
-602,-496,0,0,0,0,0,0,0,0,0,-1,622,1520,0,0
-595,-496,0,0,0,0,0,0,0,0,0,-1,629,1520,0,0
-588,-496,0,0,0,0,0,0,0,0,0,-1,636,1520,0,0
-581,-496,0,0,0,0,0,0,0,0,0,-1,643,1520,0,0
-574,-496,0,0,0,0,0,0,0,0,0,-1,650,1520,0,0
-567,-496,0,0,0,0,0,0,0,0,0,-1,657,1520,0,0
-560,-496,0,0,0,0,0,0,0,0,0,-1,664,1520,0,0
-553,-496,0,0,0,0,0,0,0,0,0,-1,671,1520,0,0
-546,-496,-8.09711,7.94836,0,0,0,0,0,0,0,-1,678,1520,-8.09712,-7.94842
-539,-496,-3.20129,1.16052,0,0,0,0,0,0,0,-1,685,1520,-3.20131,-1.16054
-532,-496,-2.98279,2.62146,0,0,0,0,0,0,0,-1,692,1520,-2.98278,-2.62151
-525,-496,-2.75201,4.08032,0,0,0,0,0,0,0,-1,699,1520,-2.75201,-4.08031
-518,-496,-2.6333,5.36072,0,0,0,0,0,0,0,-1,706,1520,-2.63328,-5.36077
-511,-496,-7.92126,9.68604,0,0,0,0,0,0,0,-1,713,1520,-7.92127,-9.68598
-504,-496,-7.51044,11.6274,0,0,0,0,0,0,0,-1,720,1520,-7.51042,-11.6275
-497,-496,-4.65143,13.6544,0,0,0,0,0,0,0,-1,727,1520,-4.65141,-13.6545
-490,-496,-4.50641,13.8862,-0.00729899,-0.00764173,-0.000491713,-0.00694964,-0.00799108,-0.617722,0.0050164,0.0457545,734,1520,-4.50641,-13.8862
-483,-496,-4.50385,14.1316,-0.00608444,-0.00576472,-0.00079713,-0.00511158,-0.00673758,-0.884356,0.00405975,0.0288956,741,1520,-4.50383,-14.1315
-476,-496,-4.61688,14.5592,-0.00469,-0.00408474,-0.000721284,-0.00360517,-0.00516957,-0.984028,0.00306119,0.0139665,748,1520,-4.6169,-14.5592
-469,-496,-4.62671,15.0856,-0.00323909,-0.00260971,-0.00043206,-0.00238988,-0.00345891,-1.10015,0.00204496,0.010135,755,1520,-4.62669,-15.0855
-462,-496,-4.64648,15.625,-0.00174829,-0.00135201,6.7319e-05,-0.00134089,-0.00175941,1.40704,0.00106131,0.0152627,762,1520,-4.64647,-15.6249
-455,-496,-4.66125,16.1649,-0.000292515,-0.000299993,0.000672022,0.000375779,-0.000968286,0.782616,0.000800736,0.0206817,769,1520,-4.66127,-16.1649
-448,-496,-4.66638,16.6675,0.00121172,0.000709975,0.001497,0.00247872,-0.000557026,0.702377,0.00186608,0.0188115,776,1520,-4.66636,-16.6675
-441,-496,-4.65613,17.1635,0.00275468,0.00172013,0.00252326,0.00481314,-0.000338325,0.684298,0.00332728,0.0145362,783,1520,-4.65613,-17.1635
-434,-496,-4.70026,17.6702,0.00432159,0.00286371,0.00378089,0.00744317,-0.000257865,0.690169,0.00505026,0.0143317,790,1520,-4.70028,-17.6701
-427,-496,-4.73529,18.2002,0.00594505,0.00415924,0.00529236,0.0104193,-0.000315009,0.701827,0.00705355,0.0178136,797,1520,-4.73528,-18.2001
-420,-496,-4.75879,18.7117,0.00759218,0.00546637,0.00705908,0.0136679,-0.000609381,0.710673,0.00932172,0.0178977,804,1520,-4.75879,-18.7117
-413,-496,-4.6795,19.2559,0.00946562,0.00708833,0.00916065,0.0175144,-0.000960465,0.720881,0.0120092,0.0279691,811,1520,-4.67948,-19.2558
-406,-496,-4.50928,19.993,0,0,0,0,0,0,0,-1,818,1520,-4.50928,-19.9931
-399,-496,-4.22137,20.7844,0,0,0,0,0,0,0,-1,825,1520,-4.22138,-20.7845
-392,-496,-1.49786,12.387,0,0,0,0,0,0,0,-1,832,1520,-1.49788,-12.387
-385,-496,-1.72437,11.4985,0,0,0,0,0,0,0,-1,839,1520,-1.72436,-11.4985
-378,-496,-1.45532,14.0719,0,0,0,0,0,0,0,-1,846,1520,-1.45533,-14.0719
-371,-496,0.0877075,12.5299,0,0,0,0,0,0,0,-1,853,1520,0.0876896,-12.5299
-364,-496,0.0881348,10.6422,0,0,0,0,0,0,0,-1,860,1520,0.0881368,-10.6423
-357,-496,0.323792,7.56812,0,0,0,0,0,0,0,-1,867,1520,0.323782,-7.56806
-350,-496,2.1535,7.18945,0,0,0,0,0,0,0,-1,874,1520,2.15348,-7.1894
-343,-496,-7.56244,0.335327,0,0,0,0,0,0,0,-1,881,1520,-7.56242,-0.335322
-336,-496,-3.99249,6.02222,0,0,0,0,0,0,0,-1,888,1520,-3.99246,-6.0222
-329,-496,-6.93689,-0.100342,0,0,0,0,0,0,0,-1,895,1520,-6.93686,0.1003
-322,-496,-6.17505,0.494385,0,0,0,0,0,0,0,-1,902,1520,-6.17507,-0.49437
-315,-496,-7.539,5.78638,0,0,0,0,0,0,0,-1,909,1520,-7.53898,-5.78633
-308,-496,0,0,0,0,0,0,0,0,0,-1,916,1520,0,0
-301,-496,0,0,0,0,0,0,0,0,0,-1,923,1520,0,0
-294,-496,0,0,0,0,0,0,0,0,0,-1,930,1520,0,0
-287,-496,0,0,0,0,0,0,0,0,0,-1,937,1520,0,0
-280,-496,0,0,0,0,0,0,0,0,0,-1,944,1520,0,0
-273,-496,0,0,0,0,0,0,0,0,0,-1,951,1520,0,0
-266,-496,0,0,0,0,0,0,0,0,0,-1,958,1520,0,0
-259,-496,0,0,0,0,0,0,0,0,0,-1,965,1520,0,0
-252,-496,0,0,0,0,0,0,0,0,0,-1,972,1520,0,0
-245,-496,0,0,0,0,0,0,0,0,0,-1,979,1520,0,0
-238,-496,0,0,0,0,0,0,0,0,0,-1,986,1520,0,0
-231,-496,0,0,0,0,0,0,0,0,0,-1,993,1520,0,0
-224,-496,0,0,0,0,0,0,0,0,0,-1,1000,1520,0,0
-217,-496,0,0,0,0,0,0,0,0,0,-1,1007,1520,0,0
-210,-496,0,0,0,0,0,0,0,0,0,-1,1014,1520,0,0
-203,-496,0,0,0,0,0,0,0,0,0,-1,1021,1520,0,0
-196,-496,0,0,0,0,0,0,0,0,0,-1,1028,1520,0,0
-189,-496,0,0,0,0,0,0,0,0,0,-1,1035,1520,0,0
-182,-496,0,0,0,0,0,0,0,0,0,-1,1042,1520,0,0
-175,-496,0,0,0,0,0,0,0,0,0,-1,1049,1520,0,0
-168,-496,0,0,0,0,0,0,0,0,0,-1,1056,1520,0,0
-161,-496,0,0,0,0,0,0,0,0,0,-1,1063,1520,0,0
-154,-496,0,0,0,0,0,0,0,0,0,-1,1070,1520,0,0
-147,-496,0,0,0,0,0,0,0,0,0,-1,1077,1520,0,0
-140,-496,0,0,0,0,0,0,0,0,0,-1,1084,1520,0,0
-133,-496,0,0,0,0,0,0,0,0,0,-1,1091,1520,0,0
-126,-496,0,0,0,0,0,0,0,0,0,-1,1098,1520,0,0
-119,-496,0,0,0,0,0,0,0,0,0,-1,1105,1520,0,0
-112,-496,0,0,0,0,0,0,0,0,0,-1,1112,1520,0,0
-105,-496,0,0,0,0,0,0,0,0,0,-1,1119,1520,0,0
-98,-496,0,0,0,0,0,0,0,0,0,-1,1126,1520,0,0
-91,-496,0,0,0,0,0,0,0,0,0,-1,1133,1520,0,0
-84,-496,0,0,0,0,0,0,0,0,0,-1,1140,1520,0,0
-77,-496,0,0,0,0,0,0,0,0,0,-1,1147,1520,0,0
-70,-496,0,0,0,0,0,0,0,0,0,-1,1154,1520,0,0
-63,-496,0,0,0,0,0,0,0,0,0,-1,1161,1520,0,0
-56,-496,0,0,0,0,0,0,0,0,0,-1,1168,1520,0,0
-49,-496,0,0,0,0,0,0,0,0,0,-1,1175,1520,0,0
-42,-496,0,0,0,0,0,0,0,0,0,-1,1182,1520,0,0
-35,-496,0,0,0,0,0,0,0,0,0,-1,1189,1520,0,0
-28,-496,0,0,0,0,0,0,0,0,0,-1,1196,1520,0,0
-21,-496,0,0,0,0,0,0,0,0,0,-1,1203,1520,0,0
-14,-496,0,0,0,0,0,0,0,0,0,-1,1210,1520,0,0
-7,-496,0,0,0,0,0,0,0,0,0,-1,1217,1520,0,0
0,-496,0,0,0,0,0,0,0,0,0,-1,1224,1520,0,0
7,-496,0,0,0,0,0,0,0,0,0,-1,1231,1520,0,0
14,-496,0,0,0,0,0,0,0,0,0,-1,1238,1520,0,0
21,-496,0,0,0,0,0,0,0,0,0,-1,1245,1520,0,0
28,-496,0,0,0,0,0,0,0,0,0,-1,1252,1520,0,0
35,-496,0,0,0,0,0,0,0,0,0,-1,1259,1520,0,0
42,-496,0,0,0,0,0,0,0,0,0,-1,1266,1520,0,0
49,-496,0,0,0,0,0,0,0,0,0,-1,1273,1520,0,0
56,-496,0,0,0,0,0,0,0,0,0,-1,1280,1520,0,0
63,-496,0,0,0,0,0,0,0,0,0,-1,1287,1520,0,0
70,-496,0,0,0,0,0,0,0,0,0,-1,1294,1520,0,0
77,-496,0,0,0,0,0,0,0,0,0,-1,1301,1520,0,0
84,-496,0,0,0,0,0,0,0,0,0,-1,1308,1520,0,0
91,-496,0,0,0,0,0,0,0,0,0,-1,1315,1520,0,0
98,-496,0,0,0,0,0,0,0,0,0,-1,1322,1520,0,0
105,-496,0,0,0,0,0,0,0,0,0,-1,1329,1520,0,0
112,-496,0,0,0,0,0,0,0,0,0,-1,1336,1520,0,0
119,-496,0,0,0,0,0,0,0,0,0,-1,1343,1520,0,0
126,-496,0,0,0,0,0,0,0,0,0,-1,1350,1520,0,0
133,-496,0,0,0,0,0,0,0,0,0,-1,1357,1520,0,0
140,-496,0,0,0,0,0,0,0,0,0,-1,1364,1520,0,0
147,-496,0,0,0,0,0,0,0,0,0,-1,1371,1520,0,0
154,-496,0,0,0,0,0,0,0,0,0,-1,1378,1520,0,0
161,-496,0,0,0,0,0,0,0,0,0,-1,1385,1520,0,0
168,-496,0,0,0,0,0,0,0,0,0,-1,1392,1520,0,0
175,-496,0,0,0,0,0,0,0,0,0,-1,1399,1520,0,0
182,-496,0,0,0,0,0,0,0,0,0,-1,1406,1520,0,0
189,-496,0,0,0,0,0,0,0,0,0,-1,1413,1520,0,0
196,-496,0,0,0,0,0,0,0,0,0,-1,1420,1520,0,0
203,-496,0,0,0,0,0,0,0,0,0,-1,1427,1520,0,0
210,-496,0,0,0,0,0,0,0,0,0,-1,1434,1520,0,0
217,-496,0,0,0,0,0,0,0,0,0,-1,1441,1520,0,0
224,-496,0,0,0,0,0,0,0,0,0,-1,1448,1520,0,0
231,-496,0,0,0,0,0,0,0,0,0,-1,1455,1520,0,0
238,-496,0,0,0,0,0,0,0,0,0,-1,1462,1520,0,0
245,-496,0,0,0,0,0,0,0,0,0,-1,1469,1520,0,0
252,-496,0,0,0,0,0,0,0,0,0,-1,1476,1520,0,0
259,-496,0,0,0,0,0,0,0,0,0,-1,1483,1520,0,0
266,-496,0,0,0,0,0,0,0,0,0,-1,1490,1520,0,0
273,-496,0,0,0,0,0,0,0,0,0,-1,1497,1520,0,0
280,-496,0,0,0,0,0,0,0,0,0,-1,1504,1520,0,0
287,-496,0,0,0,0,0,0,0,0,0,-1,1511,1520,0,0
294,-496,0,0,0,0,0,0,0,0,0,-1,1518,1520,0,0
301,-496,0,0,0,0,0,0,0,0,0,-1,1525,1520,0,0
308,-496,0,0,0,0,0,0,0,0,0,-1,1532,1520,0,0
315,-496,0,0,0,0,0,0,0,0,0,-1,1539,1520,0,0
322,-496,0,0,0,0,0,0,0,0,0,-1,1546,1520,0,0
329,-496,0,0,0,0,0,0,0,0,0,-1,1553,1520,0,0
336,-496,0,0,0,0,0,0,0,0,0,-1,1560,1520,0,0
343,-496,0,0,0,0,0,0,0,0,0,-1,1567,1520,0,0
350,-496,0,0,0,0,0,0,0,0,0,-1,1574,1520,0,0
357,-496,0,0,0,0,0,0,0,0,0,-1,1581,1520,0,0
364,-496,0,0,0,0,0,0,0,0,0,-1,1588,1520,0,0
371,-496,0,0,0,0,0,0,0,0,0,-1,1595,1520,0,0
378,-496,0,0,0,0,0,0,0,0,0,-1,1602,1520,0,0
385,-496,0,0,0,0,0,0,0,0,0,-1,1609,1520,0,0
392,-496,0,0,0,0,0,0,0,0,0,-1,1616,1520,0,0
399,-496,0,0,0,0,0,0,0,0,0,-1,1623,1520,0,0
406,-496,0,0,0,0,0,0,0,0,0,-1,1630,1520,0,0
413,-496,0,0,0,0,0,0,0,0,0,-1,1637,1520,0,0
420,-496,0,0,0,0,0,0,0,0,0,-1,1644,1520,0,0
427,-496,0,0,0,0,0,0,0,0,0,-1,1651,1520,0,0
434,-496,11.0457,3.37732,0,0,0,0,0,0,0,-1,1658,1520,11.0456,-3.37736
441,-496,11.788,2.75488,0,0,0,0,0,0,0,-1,1665,1520,11.7879,-2.75485
448,-496,12.2146,2.18494,0,0,0,0,0,0,0,-1,1672,1520,12.2146,-2.18489
455,-496,12.3489,1.65173,0,0,0,0,0,0,0,-1,1679,1520,12.3489,-1.65178
462,-496,12.1912,1.32361,0,0,0,0,0,0,0,-1,1686,1520,12.1911,-1.32357
469,-496,14.8138,5.77954,0,0,0,0,0,0,0,-1,1693,1520,14.8138,-5.77958
476,-496,15.2449,6.27942,0,0,0,0,0,0,0,-1,1700,1520,15.2449,-6.27936
483,-496,9.19812,6.88367,0,0,0,0,0,0,0,-1,1707,1520,9.19812,-6.88361
490,-496,10.2123,7.97144,0,0,0,0,0,0,0,-1,1714,1520,10.2122,-7.97145
497,-496,13.9297,12.2981,0,0,0,0,0,0,0,-1,1721,1520,13.9297,-12.2982
504,-496,16.3271,16.6501,0,0,0,0,0,0,0,-1,1728,1520,16.3272,-16.6502
511,-496,17.6753,18.0685,0,0,0,0,0,0,0,-1,1735,1520,17.6753,-18.0685
518,-496,17.0537,17.3118,0,0,0,0,0,0,0,-1,1742,1520,17.0538,-17.3118
525,-496,18.2721,19.3259,0,0,0,0,0,0,0,-1,1749,1520,18.2721,-19.3259
532,-496,19.8236,21.1139,0,0,0,0,0,0,0,-1,1756,1520,19.8236,-21.1138
539,-496,19.4741,21.0448,0,0,0,0,0,0,0,-1,1763,1520,19.4741,-21.0448
546,-496,19.6074,20.4619,0.00576109,0.00417245,-0.00346354,0.00852023,0.00141331,-0.672679,0.00527257,0.0144784,1770,1520,19.6074,-20.4619
553,-496,19.6726,19.9166,0.00464177,0.00308451,-0.00258414,0.00656204,0.00116425,-0.639069,0.00404288,0.0134413,1777,1520,19.6726,-19.9167
560,-496,19.7042,19.45,0.0037635,0.00223454,-0.00193935,0.00508361,0.000914434,-0.597652,0.00312912,0.013317,1784,1520,19.7042,-19.45
567,-496,19.6874,18.9711,0.00323809,0.00160131,-0.00160329,0.00421978,0.000619617,-0.549415,0.00263108,0.0118639,1791,1520,19.6874,-18.9711
574,-496,19.6525,18.5145,0.00319016,0.00100058,-0.00148245,0.00393826,0.000252486,-0.467349,0.00254552,0.0126195,1798,1520,19.6525,-18.5145
581,-496,19.6284,18.0635,0.00342605,0.000355808,-0.00146308,0.00401159,-0.000229729,-0.380687,0.00275417,0.0132048,1805,1520,19.6284,-18.0635
588,-496,19.6329,17.5753,0.00402852,-0.000254371,-0.00161003,0.00456625,-0.000792102,-0.32234,0.00333966,0.0161781,1812,1520,19.633,-17.5754
595,-496,19.6221,17.1124,0.00505759,-0.000959568,-0.00182274,0.00556666,-0.00146865,-0.272354,0.00428538,0.0179747,1819,1520,19.622,-17.1125
602,-496,19.6064,16.6577,0.00644319,-0.00174523,-0.00214993,0.00697334,-0.00227538,-0.241768,0.00556465,0.0177923,1826,1520,19.6065,-16.6577
609,-496,19.6053,16.1244,0.00817754,-0.00268402,-0.00250842,0.00872886,-0.00323534,-0.216348,0.00714613,0.0160005,1833,1520,19.6054,-16.1244
616,-496,19.6589,15.5339,0.0105996,-0.0039413,-0.00284109,0.011135,-0.0044767,-0.186263,0.00928265,0.0341133,1840,1520,19.659,-15.5339
623,-496,19.6545,15.0428,0,0,0,0,0,0,0,-1,1847,1520,19.6545,-15.0428
630,-496,18.5656,13.8966,0,0,0,0,0,0,0,-1,1854,1520,18.5655,-13.8967
637,-496,14.6411,10.1016,0,0,0,0,0,0,0,-1,1861,1520,14.6411,-10.1016
644,-496,12.4537,10.087,0,0,0,0,0,0,0,-1,1868,1520,12.4537,-10.0871
651,-496,8.18506,5.47803,0,0,0,0,0,0,0,-1,1875,1520,8.18505,-5.47806
658,-496,7.79993,4.02563,0,0,0,0,0,0,0,-1,1882,1520,7.79997,-4.02568
665,-496,5.47583,7.90625,0,0,0,0,0,0,0,-1,1889,1520,5.47581,-7.90628
672,-496,0,0,0,0,0,0,0,0,0,-1,1896,1520,0,0
679,-496,0,0,0,0,0,0,0,0,0,-1,1903,1520,0,0
686,-496,0,0,0,0,0,0,0,0,0,-1,1910,1520,0,0
693,-496,0,0,0,0,0,0,0,0,0,-1,1917,1520,0,0
700,-496,0,0,0,0,0,0,0,0,0,-1,1924,1520,0,0
707,-496,0,0,0,0,0,0,0,0,0,-1,1931,1520,0,0
714,-496,0,0,0,0,0,0,0,0,0,-1,1938,1520,0,0
721,-496,0,0,0,0,0,0,0,0,0,-1,1945,1520,0,0
728,-496,0,0,0,0,0,0,0,0,0,-1,1952,1520,0,0
735,-496,0,0,0,0,0,0,0,0,0,-1,1959,1520,0,0
742,-496,0,0,0,0,0,0,0,0,0,-1,1966,1520,0,0
749,-496,0,0,0,0,0,0,0,0,0,-1,1973,1520,0,0
756,-496,0,0,0,0,0,0,0,0,0,-1,1980,1520,0,0
763,-496,0,0,0,0,0,0,0,0,0,-1,1987,1520,0,0
770,-496,0,0,0,0,0,0,0,0,0,-1,1994,1520,0,0
777,-496,0,0,0,0,0,0,0,0,0,-1,2001,1520,0,0
784,-496,0,0,0,0,0,0,0,0,0,-1,2008,1520,0,0
791,-496,0,0,0,0,0,0,0,0,0,-1,2015,1520,0,0
798,-496,0,0,0,0,0,0,0,0,0,-1,2022,1520,0,0
805,-496,0,0,0,0,0,0,0,0,0,-1,2029,1520,0,0
812,-496,0,0,0,0,0,0,0,0,0,-1,2036,1520,0,0
-700,-503,0,0,0,0,0,0,0,0,0,-1,524,1527,0,0
-693,-503,0,0,0,0,0,0,0,0,0,-1,531,1527,0,0
-686,-503,0,0,0,0,0,0,0,0,0,-1,538,1527,0,0
-679,-503,0,0,0,0,0,0,0,0,0,-1,545,1527,0,0
-672,-503,0,0,0,0,0,0,0,0,0,-1,552,1527,0,0
-665,-503,0,0,0,0,0,0,0,0,0,-1,559,1527,0,0
-658,-503,0,0,0,0,0,0,0,0,0,-1,566,1527,0,0
-651,-503,0,0,0,0,0,0,0,0,0,-1,573,1527,0,0
-644,-503,0,0,0,0,0,0,0,0,0,-1,580,1527,0,0
-637,-503,0,0,0,0,0,0,0,0,0,-1,587,1527,0,0
-630,-503,0,0,0,0,0,0,0,0,0,-1,594,1527,0,0
-623,-503,0,0,0,0,0,0,0,0,0,-1,601,1527,0,0
-616,-503,0,0,0,0,0,0,0,0,0,-1,608,1527,0,0
-609,-503,0,0,0,0,0,0,0,0,0,-1,615,1527,0,0
-602,-503,0,0,0,0,0,0,0,0,0,-1,622,1527,0,0
-595,-503,0,0,0,0,0,0,0,0,0,-1,629,1527,0,0
-588,-503,0,0,0,0,0,0,0,0,0,-1,636,1527,0,0
-581,-503,0,0,0,0,0,0,0,0,0,-1,643,1527,0,0
-574,-503,0,0,0,0,0,0,0,0,0,-1,650,1527,0,0
-567,-503,0,0,0,0,0,0,0,0,0,-1,657,1527,0,0
-560,-503,0,0,0,0,0,0,0,0,0,-1,664,1527,0,0
-553,-503,0,0,0,0,0,0,0,0,0,-1,671,1527,0,0
-546,-503,0,0,0,0,0,0,0,0,0,-1,678,1527,0,0
-539,-503,3.50177,4.26428,0,0,0,0,0,0,0,-1,685,1527,3.50177,-4.26424
-532,-503,-3.13196,1.05298,0,0,0,0,0,0,0,-1,692,1527,-3.13194,-1.05299
-525,-503,-2.94293,2.59314,0,0,0,0,0,0,0,-1,699,1527,-2.94296,-2.59314
-518,-503,-2.7395,4.05872,0,0,0,0,0,0,0,-1,706,1527,-2.73948,-4.05871
-511,-503,-1.60022,7.23877,0,0,0,0,0,0,0,-1,713,1527,-1.60023,-7.23872
-504,-503,-8.1402,10.1541,0,0,0,0,0,0,0,-1,720,1527,-8.14017,-10.1541
-497,-503,-4.37592,13.5675,0,0,0,0,0,0,0,-1,727,1527,-4.37592,-13.5675
-490,-503,-4.02405,14.1674,0,0,0,0,0,0,0,-1,734,1527,-4.02406,-14.1674
-483,-503,-3.69043,14.0895,-0.00737231,-0.00619362,-0.00019941,-0.0061608,-0.00740513,-1.40766,0.00457869,0.045992,741,1527,-3.69041,-14.0895
-476,-503,-4.0108,14.6632,-0.00585073,-0.00426851,-0.000479574,-0.0041345,-0.00598474,-1.29831,0.00353819,0.0263065,748,1527,-4.01082,-14.6632
-469,-503,-4.12115,15.1211,-0.0043688,-0.00269766,-0.000508244,-0.00255523,-0.00451123,-1.29756,0.00261221,0.0114691,755,1527,-4.12116,-15.1211
-462,-503,-4.1355,15.6437,-0.0029065,-0.00145281,-0.000260672,-0.00140748,-0.00295183,-1.39862,0.00170485,0.0117424,762,1527,-4.13552,-15.6436
-455,-503,-4.1358,16.1875,-0.00151874,-0.000476356,0.000124072,-0.000461792,-0.0015333,1.45394,0.000908284,0.0174487,769,1527,-4.13582,-16.1875
-448,-503,-4.12494,16.7145,-0.000137459,0.000381665,0.000723778,0.000891017,-0.00064681,0.957565,0.000891588,0.0166132,776,1527,-4.12497,-16.7145
-441,-503,-4.11639,17.1752,0.00125236,0.0012187,0.00153526,0.00277088,-0.00029982,0.779918,0.00195487,0.0143603,783,1527,-4.11642,-17.1752
-434,-503,-4.18079,17.6838,0.00264594,0.00221834,0.00259284,0.00503377,-0.0001695,0.744262,0.00341375,0.0124468,790,1527,-4.18081,-17.6838
-427,-503,-4.22015,18.1793,0.00409529,0.00333037,0.00383918,0.00757102,-0.00014535,0.735752,0.00509648,0.0182318,797,1527,-4.22017,-18.1793
-420,-503,-4.21619,18.6641,0.00556561,0.00449902,0.00529443,0.0103535,-0.000288911,0.735204,0.00700065,0.0185771,804,1527,-4.21616,-18.6641
-413,-503,-4.23077,19.2061,0.00716623,0.00595258,0.00702194,0.0136075,-0.000488702,0.742296,0.00923889,0.0158099,811,1527,-4.23076,-19.206
-406,-503,-4.20697,19.7185,0.0088815,0.00850151,0.00885768,0.0175512,-0.000168212,0.774675,0.0117573,0.0244481,818,1527,-4.20694,-19.7186
-399,-503,-4.07715,20.4124,0.0107323,0.0117254,0.0109161,0.0221563,0.000301409,0.808128,0.0146714,0.0397802,825,1527,-4.07714,-20.4124
-392,-503,-3.77686,21.2938,0,0,0,0,0,0,0,-1,832,1527,-3.77685,-21.2938
-385,-503,-2.00403,14.1218,0,0,0,0,0,0,0,-1,839,1527,-2.00403,-14.1218
-378,-503,-2.07043,13.8632,0,0,0,0,0,0,0,-1,846,1527,-2.07043,-13.8631
-371,-503,-1.67285,13.8081,0,0,0,0,0,0,0,-1,853,1527,-1.67285,-13.8081
-364,-503,0.181396,12.3768,0,0,0,0,0,0,0,-1,860,1527,0.18138,-12.3768
-357,-503,0.558533,9.25452,0,0,0,0,0,0,0,-1,867,1527,0.558542,-9.25446
-350,-503,0.219971,6.84827,0,0,0,0,0,0,0,-1,874,1527,0.21996,-6.84831
-343,-503,-3.5802,4.43274,0,0,0,0,0,0,0,-1,881,1527,-3.58018,-4.43276
-336,-503,-3.2384,6.40637,0,0,0,0,0,0,0,-1,888,1527,-3.2384,-6.40643
-329,-503,-1.70691,11.886,0,0,0,0,0,0,0,-1,895,1527,-1.70689,-11.886
-322,-503,-3.31317,8.81519,0,0,0,0,0,0,0,-1,902,1527,-3.31315,-8.81524
-315,-503,-3.90265,7.73853,0,0,0,0,0,0,0,-1,909,1527,-3.90264,-7.73854
-308,-503,-1.70264,7.35413,0,0,0,0,0,0,0,-1,916,1527,-1.70262,-7.35416
-301,-503,0,0,0,0,0,0,0,0,0,-1,923,1527,0,0
-294,-503,0,0,0,0,0,0,0,0,0,-1,930,1527,0,0
-287,-503,0,0,0,0,0,0,0,0,0,-1,937,1527,0,0
-280,-503,0,0,0,0,0,0,0,0,0,-1,944,1527,0,0
-273,-503,0,0,0,0,0,0,0,0,0,-1,951,1527,0,0
-266,-503,0,0,0,0,0,0,0,0,0,-1,958,1527,0,0
-259,-503,0,0,0,0,0,0,0,0,0,-1,965,1527,0,0
-252,-503,0,0,0,0,0,0,0,0,0,-1,972,1527,0,0
-245,-503,0,0,0,0,0,0,0,0,0,-1,979,1527,0,0
-238,-503,0,0,0,0,0,0,0,0,0,-1,986,1527,0,0
-231,-503,0,0,0,0,0,0,0,0,0,-1,993,1527,0,0
-224,-503,0,0,0,0,0,0,0,0,0,-1,1000,1527,0,0
-217,-503,0,0,0,0,0,0,0,0,0,-1,1007,1527,0,0
-210,-503,0,0,0,0,0,0,0,0,0,-1,1014,1527,0,0
-203,-503,0,0,0,0,0,0,0,0,0,-1,1021,1527,0,0
-196,-503,0,0,0,0,0,0,0,0,0,-1,1028,1527,0,0
-189,-503,0,0,0,0,0,0,0,0,0,-1,1035,1527,0,0
-182,-503,0,0,0,0,0,0,0,0,0,-1,1042,1527,0,0
-175,-503,0,0,0,0,0,0,0,0,0,-1,1049,1527,0,0
-168,-503,0,0,0,0,0,0,0,0,0,-1,1056,1527,0,0
-161,-503,0,0,0,0,0,0,0,0,0,-1,1063,1527,0,0
-154,-503,0,0,0,0,0,0,0,0,0,-1,1070,1527,0,0
-147,-503,0,0,0,0,0,0,0,0,0,-1,1077,1527,0,0
-140,-503,0,0,0,0,0,0,0,0,0,-1,1084,1527,0,0
-133,-503,0,0,0,0,0,0,0,0,0,-1,1091,1527,0,0
-126,-503,0,0,0,0,0,0,0,0,0,-1,1098,1527,0,0
-119,-503,0,0,0,0,0,0,0,0,0,-1,1105,1527,0,0
-112,-503,0,0,0,0,0,0,0,0,0,-1,1112,1527,0,0
-105,-503,0,0,0,0,0,0,0,0,0,-1,1119,1527,0,0
-98,-503,0,0,0,0,0,0,0,0,0,-1,1126,1527,0,0
-91,-503,0,0,0,0,0,0,0,0,0,-1,1133,1527,0,0
-84,-503,0,0,0,0,0,0,0,0,0,-1,1140,1527,0,0
-77,-503,0,0,0,0,0,0,0,0,0,-1,1147,1527,0,0
-70,-503,0,0,0,0,0,0,0,0,0,-1,1154,1527,0,0
-63,-503,0,0,0,0,0,0,0,0,0,-1,1161,1527,0,0
-56,-503,0,0,0,0,0,0,0,0,0,-1,1168,1527,0,0
-49,-503,0,0,0,0,0,0,0,0,0,-1,1175,1527,0,0
-42,-503,0,0,0,0,0,0,0,0,0,-1,1182,1527,0,0
-35,-503,0,0,0,0,0,0,0,0,0,-1,1189,1527,0,0
-28,-503,0,0,0,0,0,0,0,0,0,-1,1196,1527,0,0
-21,-503,0,0,0,0,0,0,0,0,0,-1,1203,1527,0,0
-14,-503,0,0,0,0,0,0,0,0,0,-1,1210,1527,0,0
-7,-503,0,0,0,0,0,0,0,0,0,-1,1217,1527,0,0
0,-503,0,0,0,0,0,0,0,0,0,-1,1224,1527,0,0
7,-503,0,0,0,0,0,0,0,0,0,-1,1231,1527,0,0
14,-503,0,0,0,0,0,0,0,0,0,-1,1238,1527,0,0
21,-503,0,0,0,0,0,0,0,0,0,-1,1245,1527,0,0
28,-503,0,0,0,0,0,0,0,0,0,-1,1252,1527,0,0
35,-503,0,0,0,0,0,0,0,0,0,-1,1259,1527,0,0
42,-503,0,0,0,0,0,0,0,0,0,-1,1266,1527,0,0
49,-503,0,0,0,0,0,0,0,0,0,-1,1273,1527,0,0
56,-503,0,0,0,0,0,0,0,0,0,-1,1280,1527,0,0
63,-503,0,0,0,0,0,0,0,0,0,-1,1287,1527,0,0
70,-503,0,0,0,0,0,0,0,0,0,-1,1294,1527,0,0
77,-503,0,0,0,0,0,0,0,0,0,-1,1301,1527,0,0
84,-503,0,0,0,0,0,0,0,0,0,-1,1308,1527,0,0
91,-503,0,0,0,0,0,0,0,0,0,-1,1315,1527,0,0
98,-503,0,0,0,0,0,0,0,0,0,-1,1322,1527,0,0
105,-503,0,0,0,0,0,0,0,0,0,-1,1329,1527,0,0
112,-503,0,0,0,0,0,0,0,0,0,-1,1336,1527,0,0
119,-503,0,0,0,0,0,0,0,0,0,-1,1343,1527,0,0
126,-503,0,0,0,0,0,0,0,0,0,-1,1350,1527,0,0
133,-503,0,0,0,0,0,0,0,0,0,-1,1357,1527,0,0
140,-503,0,0,0,0,0,0,0,0,0,-1,1364,1527,0,0
147,-503,0,0,0,0,0,0,0,0,0,-1,1371,1527,0,0
154,-503,0,0,0,0,0,0,0,0,0,-1,1378,1527,0,0
161,-503,0,0,0,0,0,0,0,0,0,-1,1385,1527,0,0
168,-503,0,0,0,0,0,0,0,0,0,-1,1392,1527,0,0
175,-503,0,0,0,0,0,0,0,0,0,-1,1399,1527,0,0
182,-503,0,0,0,0,0,0,0,0,0,-1,1406,1527,0,0
189,-503,0,0,0,0,0,0,0,0,0,-1,1413,1527,0,0
196,-503,0,0,0,0,0,0,0,0,0,-1,1420,1527,0,0
203,-503,0,0,0,0,0,0,0,0,0,-1,1427,1527,0,0
210,-503,0,0,0,0,0,0,0,0,0,-1,1434,1527,0,0
217,-503,0,0,0,0,0,0,0,0,0,-1,1441,1527,0,0
224,-503,0,0,0,0,0,0,0,0,0,-1,1448,1527,0,0
231,-503,0,0,0,0,0,0,0,0,0,-1,1455,1527,0,0
238,-503,0,0,0,0,0,0,0,0,0,-1,1462,1527,0,0
245,-503,0,0,0,0,0,0,0,0,0,-1,1469,1527,0,0
252,-503,0,0,0,0,0,0,0,0,0,-1,1476,1527,0,0
259,-503,0,0,0,0,0,0,0,0,0,-1,1483,1527,0,0
266,-503,0,0,0,0,0,0,0,0,0,-1,1490,1527,0,0
273,-503,0,0,0,0,0,0,0,0,0,-1,1497,1527,0,0
280,-503,0,0,0,0,0,0,0,0,0,-1,1504,1527,0,0
287,-503,0,0,0,0,0,0,0,0,0,-1,1511,1527,0,0
294,-503,0,0,0,0,0,0,0,0,0,-1,1518,1527,0,0
301,-503,0,0,0,0,0,0,0,0,0,-1,1525,1527,0,0
308,-503,0,0,0,0,0,0,0,0,0,-1,1532,1527,0,0
315,-503,0,0,0,0,0,0,0,0,0,-1,1539,1527,0,0
322,-503,0,0,0,0,0,0,0,0,0,-1,1546,1527,0,0
329,-503,0,0,0,0,0,0,0,0,0,-1,1553,1527,0,0
336,-503,0,0,0,0,0,0,0,0,0,-1,1560,1527,0,0
343,-503,0,0,0,0,0,0,0,0,0,-1,1567,1527,0,0
350,-503,0,0,0,0,0,0,0,0,0,-1,1574,1527,0,0
357,-503,0,0,0,0,0,0,0,0,0,-1,1581,1527,0,0
364,-503,0,0,0,0,0,0,0,0,0,-1,1588,1527,0,0
371,-503,0,0,0,0,0,0,0,0,0,-1,1595,1527,0,0
378,-503,0,0,0,0,0,0,0,0,0,-1,1602,1527,0,0
385,-503,0,0,0,0,0,0,0,0,0,-1,1609,1527,0,0
392,-503,0,0,0,0,0,0,0,0,0,-1,1616,1527,0,0
399,-503,0,0,0,0,0,0,0,0,0,-1,1623,1527,0,0
406,-503,0,0,0,0,0,0,0,0,0,-1,1630,1527,0,0
413,-503,0,0,0,0,0,0,0,0,0,-1,1637,1527,0,0
420,-503,0,0,0,0,0,0,0,0,0,-1,1644,1527,0,0
427,-503,10.5968,4.9856,0,0,0,0,0,0,0,-1,1651,1527,10.5969,-4.98563
434,-503,11.4329,3.97217,0,0,0,0,0,0,0,-1,1658,1527,11.4328,-3.97222
441,-503,12.0957,2.96509,0,0,0,0,0,0,0,-1,1665,1527,12.0957,-2.96512
448,-503,12.3259,2.53894,0,0,0,0,0,0,0,-1,1672,1527,12.326,-2.53895
455,-503,12.1669,2.18762,0,0,0,0,0,0,0,-1,1679,1527,12.1668,-2.18767
462,-503,11.59,2.60791,0,0,0,0,0,0,0,-1,1686,1527,11.5899,-2.60794
469,-503,11.1625,1.61853,0,0,0,0,0,0,0,-1,1693,1527,11.1625,-1.61856
476,-503,9.07703,5.81042,0,0,0,0,0,0,0,-1,1700,1527,9.07699,-5.81047
483,-503,9.74414,6.92432,0,0,0,0,0,0,0,-1,1707,1527,9.74417,-6.9243
490,-503,10.5033,10.1071,0,0,0,0,0,0,0,-1,1714,1527,10.5032,-10.107
497,-503,15.0057,17.9476,0,0,0,0,0,0,0,-1,1721,1527,15.0058,-17.9476
504,-503,16.4764,18.4486,0,0,0,0,0,0,0,-1,1728,1527,16.4764,-18.4486
511,-503,16.8276,18.3271,0,0,0,0,0,0,0,-1,1735,1527,16.8276,-18.3272
518,-503,17.2533,18.2738,0,0,0,0,0,0,0,-1,1742,1527,17.2533,-18.2738
525,-503,19.0686,21.5942,0,0,0,0,0,0,0,-1,1749,1527,19.0686,-21.5942
532,-503,19.141,21.452,0,0,0,0,0,0,0,-1,1756,1527,19.141,-21.4521
539,-503,19.1549,20.942,0.0060577,0.00485311,-0.00401273,0.00951309,0.00139772,-0.710906,0.00593131,0.0191019,1763,1527,19.1549,-20.942
546,-503,19.1998,20.3895,0.00482902,0.00355493,-0.00296274,0.00722243,0.00116152,-0.679501,0.00447827,0.0122661,1770,1527,19.1998,-20.3895
553,-503,19.2292,19.9214,0.00388286,0.00259185,-0.00219473,0.00552504,0.000949671,-0.642373,0.00341116,0.0128132,1777,1527,19.2293,-19.9214
560,-503,19.1858,19.4723,0.00316046,0.00184323,-0.00164099,0.00427007,0.000733617,-0.594563,0.00263642,0.012926,1784,1527,19.1858,-19.4722
567,-503,19.1818,18.9918,0.00299523,0.00119134,-0.00143084,0.00378468,0.000401886,-0.504176,0.0024004,0.0124824,1791,1527,19.1817,-18.9918
574,-503,19.1719,18.5319,0.00316303,0.000663285,-0.00141161,0.00379858,2.77358e-05,-0.423046,0.00252319,0.0126484,1798,1527,19.1719,-18.5319
581,-503,19.1378,18.0819,0.00368048,8.64317e-05,-0.00153195,0.00424484,-0.000477933,-0.352969,0.00300192,0.0142955,1805,1527,19.1379,-18.0819
588,-503,19.1378,17.6077,0.00463879,-0.000454033,-0.00186124,0.00524649,-0.00106174,-0.315592,0.00390005,0.0178027,1812,1527,19.1378,-17.6077
595,-503,19.1445,17.1239,0.00610743,-0.00111214,-0.00230312,0.00677957,-0.00178428,-0.283954,0.00521719,0.0134388,1819,1527,19.1445,-17.1239
602,-503,19.2042,16.6014,0.00807129,-0.00186853,-0.00290589,0.00885848,-0.00265572,-0.264546,0.00696184,0.0251179,1826,1527,19.2042,-16.6014
609,-503,19.1696,16.0778,0,0,0,0,0,0,0,-1,1833,1527,19.1695,-16.0778
616,-503,19.0326,15.9724,0.0140795,-0.00437562,-0.00431456,0.0150384,-0.00533449,-0.218686,0.0121989,0.0475727,1840,1527,19.0326,-15.9725
623,-503,19.7255,14.9178,0,0,0,0,0,0,0,-1,1847,1527,19.7254,-14.9179
630,-503,20.6721,13.9077,0,0,0,0,0,0,0,-1,1854,1527,20.6721,-13.9077
637,-503,14.5564,9.20496,0,0,0,0,0,0,0,-1,1861,1527,14.5564,-9.2049
644,-503,11.4802,7.57214,0,0,0,0,0,0,0,-1,1868,1527,11.4802,-7.57215
651,-503,11.5718,6.5448,0,0,0,0,0,0,0,-1,1875,1527,11.5718,-6.54476
658,-503,8.25635,3.10498,0,0,0,0,0,0,0,-1,1882,1527,8.2563,-3.10493
665,-503,0,0,0,0,0,0,0,0,0,-1,1889,1527,0,0
672,-503,0,0,0,0,0,0,0,0,0,-1,1896,1527,0,0
679,-503,0,0,0,0,0,0,0,0,0,-1,1903,1527,0,0
686,-503,0,0,0,0,0,0,0,0,0,-1,1910,1527,0,0
693,-503,0,0,0,0,0,0,0,0,0,-1,1917,1527,0,0
700,-503,0,0,0,0,0,0,0,0,0,-1,1924,1527,0,0
707,-503,0,0,0,0,0,0,0,0,0,-1,1931,1527,0,0
714,-503,0,0,0,0,0,0,0,0,0,-1,1938,1527,0,0
721,-503,0,0,0,0,0,0,0,0,0,-1,1945,1527,0,0
728,-503,0,0,0,0,0,0,0,0,0,-1,1952,1527,0,0
735,-503,0,0,0,0,0,0,0,0,0,-1,1959,1527,0,0
742,-503,0,0,0,0,0,0,0,0,0,-1,1966,1527,0,0
749,-503,0,0,0,0,0,0,0,0,0,-1,1973,1527,0,0
756,-503,0,0,0,0,0,0,0,0,0,-1,1980,1527,0,0
763,-503,0,0,0,0,0,0,0,0,0,-1,1987,1527,0,0
770,-503,0,0,0,0,0,0,0,0,0,-1,1994,1527,0,0
777,-503,0,0,0,0,0,0,0,0,0,-1,2001,1527,0,0
784,-503,0,0,0,0,0,0,0,0,0,-1,2008,1527,0,0
791,-503,0,0,0,0,0,0,0,0,0,-1,2015,1527,0,0
798,-503,0,0,0,0,0,0,0,0,0,-1,2022,1527,0,0
805,-503,0,0,0,0,0,0,0,0,0,-1,2029,1527,0,0
812,-503,0,0,0,0,0,0,0,0,0,-1,2036,1527,0,0
-700,-510,0,0,0,0,0,0,0,0,0,-1,524,1534,0,0
-693,-510,0,0,0,0,0,0,0,0,0,-1,531,1534,0,0
-686,-510,0,0,0,0,0,0,0,0,0,-1,538,1534,0,0
-679,-510,0,0,0,0,0,0,0,0,0,-1,545,1534,0,0
-672,-510,0,0,0,0,0,0,0,0,0,-1,552,1534,0,0
-665,-510,0,0,0,0,0,0,0,0,0,-1,559,1534,0,0
-658,-510,0,0,0,0,0,0,0,0,0,-1,566,1534,0,0
-651,-510,0,0,0,0,0,0,0,0,0,-1,573,1534,0,0
-644,-510,0,0,0,0,0,0,0,0,0,-1,580,1534,0,0
-637,-510,0,0,0,0,0,0,0,0,0,-1,587,1534,0,0
-630,-510,0,0,0,0,0,0,0,0,0,-1,594,1534,0,0
-623,-510,0,0,0,0,0,0,0,0,0,-1,601,1534,0,0
-616,-510,0,0,0,0,0,0,0,0,0,-1,608,1534,0,0
-609,-510,0,0,0,0,0,0,0,0,0,-1,615,1534,0,0
-602,-510,0,0,0,0,0,0,0,0,0,-1,622,1534,0,0
-595,-510,0,0,0,0,0,0,0,0,0,-1,629,1534,0,0
-588,-510,0,0,0,0,0,0,0,0,0,-1,636,1534,0,0
-581,-510,0,0,0,0,0,0,0,0,0,-1,643,1534,0,0
-574,-510,0,0,0,0,0,0,0,0,0,-1,650,1534,0,0
-567,-510,0,0,0,0,0,0,0,0,0,-1,657,1534,0,0
-560,-510,0,0,0,0,0,0,0,0,0,-1,664,1534,0,0
-553,-510,0,0,0,0,0,0,0,0,0,-1,671,1534,0,0
-546,-510,0,0,0,0,0,0,0,0,0,-1,678,1534,0,0
-539,-510,0,0,0,0,0,0,0,0,0,-1,685,1534,0,0
-532,-510,-3.95129,4.52014,0,0,0,0,0,0,0,-1,692,1534,-3.95131,-4.5202
-525,-510,-2.77411,0.316772,0,0,0,0,0,0,0,-1,699,1534,-2.77409,-0.3168
-518,-510,-2.86847,2.71423,0,0,0,0,0,0,0,-1,706,1534,-2.86849,-2.71424
-511,-510,-2.28571,4.48083,0,0,0,0,0,0,0,-1,713,1534,-2.28571,-4.48086
-504,-510,-4.86731,10.8224,0,0,0,0,0,0,0,-1,720,1534,-4.8673,-10.8224
-497,-510,-2.08142,13.2032,0,0,0,0,0,0,0,-1,727,1534,-2.08143,-13.2033
-490,-510,-2.53528,13.4613,0,0,0,0,0,0,0,-1,734,1534,-2.53527,-13.4612
-483,-510,-2.67218,14.1665,0,0,0,0,0,0,0,-1,741,1534,-2.67219,-14.1665
-476,-510,-3.34198,14.6171,-0.00688138,-0.00392384,7.30042e-05,-0.00392203,-0.00688318,1.54613,0.00398689,0.0376691,748,1534,-3.34198,-14.6171
-469,-510,-3.59406,15.1648,-0.00538156,-0.00230761,-0.000373104,-0.00226297,-0.0054262,-1.45172,0.00314716,0.0149747,755,1534,-3.59405,-15.1648
-462,-510,-3.61517,15.6606,-0.00395721,-0.00114058,-0.000432013,-0.00107581,-0.00402199,-1.42197,0.00240433,0.0117539,762,1534,-3.6152,-15.6606
-455,-510,-3.6366,16.2031,-0.0026424,-0.000307785,-0.000293102,-0.00027155,-0.00267864,-1.44779,0.00170248,0.0141655,769,1534,-3.63661,-16.2031
-448,-510,-3.61676,16.7245,-0.00138481,0.000329553,6.91337e-05,0.000332337,-0.00138759,1.53056,0.00105346,0.0124778,776,1534,-3.61676,-16.7245
-441,-510,-3.65417,17.2136,-0.000137739,0.000933034,0.000669422,0.00125483,-0.000459537,1.1227,0.00102468,0.0143592,783,1534,-3.65421,-17.2137
-434,-510,-3.74451,17.7037,0.00111213,0.00173098,0.00153923,0.00299158,-0.000148467,0.884589,0.00204567,0.0162267,790,1534,-3.74449,-17.7037
-427,-510,-3.76691,18.1586,0.00242933,0.00263735,0.00254313,0.00507859,-1.1913e-05,0.805836,0.00338971,0.0239164,797,1534,-3.76691,-18.1585
-420,-510,-3.7442,18.6614,0.00378107,0.00366055,0.0037435,0.00746479,-2.3172e-05,0.77735,0.00498427,0.0225945,804,1534,-3.74422,-18.6614
-413,-510,-3.73572,19.2257,0.00519952,0.00494992,0.005184,0.0102602,-0.000110786,0.773363,0.00687738,0.0118258,811,1534,-3.73574,-19.2257
-406,-510,-3.74744,19.7015,0.00663259,0.00706754,0.00671926,0.0135728,0.000127283,0.801575,0.00900644,0.0113545,818,1534,-3.74744,-19.7015
-399,-510,-3.7572,20.1957,0.00808805,0.00981051,0.00830391,0.0172977,0.000600828,0.83707,0.0113369,0.0147796,825,1534,-3.75718,-20.1956
-392,-510,-3.59418,20.916,0.00949807,0.0133226,0.00977977,0.0213753,0.00144537,0.881947,0.0137937,0.0422579,832,1534,-3.59417,-20.916
-385,-510,-3.29675,21.689,0,0,0,0,0,0,0,-1,839,1534,-3.29677,-21.6889
-378,-510,-1.78308,13.8044,0,0,0,0,0,0,0,-1,846,1534,-1.78309,-13.8044
-371,-510,-1.74982,13.8027,0,0,0,0,0,0,0,-1,853,1534,-1.74981,-13.8028
-364,-510,-1.3479,13.7771,0,0,0,0,0,0,0,-1,860,1534,-1.34791,-13.7771
-357,-510,-0.254395,8.89575,0,0,0,0,0,0,0,-1,867,1534,-0.254397,-8.89569
-350,-510,0.471191,6.06458,0,0,0,0,0,0,0,-1,874,1534,0.47118,-6.06453
-343,-510,-2.94617,5.00989,0,0,0,0,0,0,0,-1,881,1534,-2.94615,-5.00992
-336,-510,-5.96307,26.6482,0,0,0,0,0,0,0,-1,888,1534,-5.96307,-26.6482
-329,-510,-4.87781,20.6893,0,0,0,0,0,0,0,-1,895,1534,-4.87782,-20.6894
-322,-510,-0.251526,11.973,0,0,0,0,0,0,0,-1,902,1534,-0.251497,-11.9731
-315,-510,-1.73047,10.9796,0,0,0,0,0,0,0,-1,909,1534,-1.73049,-10.9796
-308,-510,-2.05328,9.72034,0,0,0,0,0,0,0,-1,916,1534,-2.05327,-9.72036
-301,-510,-1.85437,11.5869,0,0,0,0,0,0,0,-1,923,1534,-1.85437,-11.5869
-294,-510,0,0,0,0,0,0,0,0,0,-1,930,1534,0,0
-287,-510,0,0,0,0,0,0,0,0,0,-1,937,1534,0,0
-280,-510,0,0,0,0,0,0,0,0,0,-1,944,1534,0,0
-273,-510,0,0,0,0,0,0,0,0,0,-1,951,1534,0,0
-266,-510,0,0,0,0,0,0,0,0,0,-1,958,1534,0,0
-259,-510,0,0,0,0,0,0,0,0,0,-1,965,1534,0,0
-252,-510,0,0,0,0,0,0,0,0,0,-1,972,1534,0,0
-245,-510,0,0,0,0,0,0,0,0,0,-1,979,1534,0,0
-238,-510,0,0,0,0,0,0,0,0,0,-1,986,1534,0,0
-231,-510,0,0,0,0,0,0,0,0,0,-1,993,1534,0,0
-224,-510,0,0,0,0,0,0,0,0,0,-1,1000,1534,0,0
-217,-510,0,0,0,0,0,0,0,0,0,-1,1007,1534,0,0
-210,-510,0,0,0,0,0,0,0,0,0,-1,1014,1534,0,0
-203,-510,0,0,0,0,0,0,0,0,0,-1,1021,1534,0,0
-196,-510,0,0,0,0,0,0,0,0,0,-1,1028,1534,0,0
-189,-510,0,0,0,0,0,0,0,0,0,-1,1035,1534,0,0
-182,-510,0,0,0,0,0,0,0,0,0,-1,1042,1534,0,0
-175,-510,0,0,0,0,0,0,0,0,0,-1,1049,1534,0,0
-168,-510,0,0,0,0,0,0,0,0,0,-1,1056,1534,0,0
-161,-510,0,0,0,0,0,0,0,0,0,-1,1063,1534,0,0
-154,-510,0,0,0,0,0,0,0,0,0,-1,1070,1534,0,0
-147,-510,0,0,0,0,0,0,0,0,0,-1,1077,1534,0,0
-140,-510,0,0,0,0,0,0,0,0,0,-1,1084,1534,0,0
-133,-510,0,0,0,0,0,0,0,0,0,-1,1091,1534,0,0
-126,-510,0,0,0,0,0,0,0,0,0,-1,1098,1534,0,0
-119,-510,0,0,0,0,0,0,0,0,0,-1,1105,1534,0,0
-112,-510,0,0,0,0,0,0,0,0,0,-1,1112,1534,0,0
-105,-510,0,0,0,0,0,0,0,0,0,-1,1119,1534,0,0
-98,-510,0,0,0,0,0,0,0,0,0,-1,1126,1534,0,0
-91,-510,0,0,0,0,0,0,0,0,0,-1,1133,1534,0,0
-84,-510,0,0,0,0,0,0,0,0,0,-1,1140,1534,0,0
-77,-510,0,0,0,0,0,0,0,0,0,-1,1147,1534,0,0
-70,-510,0,0,0,0,0,0,0,0,0,-1,1154,1534,0,0
-63,-510,0,0,0,0,0,0,0,0,0,-1,1161,1534,0,0
-56,-510,0,0,0,0,0,0,0,0,0,-1,1168,1534,0,0
-49,-510,0,0,0,0,0,0,0,0,0,-1,1175,1534,0,0
-42,-510,0,0,0,0,0,0,0,0,0,-1,1182,1534,0,0
-35,-510,0,0,0,0,0,0,0,0,0,-1,1189,1534,0,0
-28,-510,0,0,0,0,0,0,0,0,0,-1,1196,1534,0,0
-21,-510,0,0,0,0,0,0,0,0,0,-1,1203,1534,0,0
-14,-510,0,0,0,0,0,0,0,0,0,-1,1210,1534,0,0
-7,-510,0,0,0,0,0,0,0,0,0,-1,1217,1534,0,0
0,-510,0,0,0,0,0,0,0,0,0,-1,1224,1534,0,0
7,-510,0,0,0,0,0,0,0,0,0,-1,1231,1534,0,0
14,-510,0,0,0,0,0,0,0,0,0,-1,1238,1534,0,0
21,-510,0,0,0,0,0,0,0,0,0,-1,1245,1534,0,0
28,-510,0,0,0,0,0,0,0,0,0,-1,1252,1534,0,0
35,-510,0,0,0,0,0,0,0,0,0,-1,1259,1534,0,0
42,-510,0,0,0,0,0,0,0,0,0,-1,1266,1534,0,0
49,-510,0,0,0,0,0,0,0,0,0,-1,1273,1534,0,0
56,-510,0,0,0,0,0,0,0,0,0,-1,1280,1534,0,0
63,-510,0,0,0,0,0,0,0,0,0,-1,1287,1534,0,0
70,-510,0,0,0,0,0,0,0,0,0,-1,1294,1534,0,0
77,-510,0,0,0,0,0,0,0,0,0,-1,1301,1534,0,0
84,-510,0,0,0,0,0,0,0,0,0,-1,1308,1534,0,0
91,-510,0,0,0,0,0,0,0,0,0,-1,1315,1534,0,0
98,-510,0,0,0,0,0,0,0,0,0,-1,1322,1534,0,0
105,-510,0,0,0,0,0,0,0,0,0,-1,1329,1534,0,0
112,-510,0,0,0,0,0,0,0,0,0,-1,1336,1534,0,0
119,-510,0,0,0,0,0,0,0,0,0,-1,1343,1534,0,0
126,-510,0,0,0,0,0,0,0,0,0,-1,1350,1534,0,0
133,-510,0,0,0,0,0,0,0,0,0,-1,1357,1534,0,0
140,-510,0,0,0,0,0,0,0,0,0,-1,1364,1534,0,0
147,-510,0,0,0,0,0,0,0,0,0,-1,1371,1534,0,0
154,-510,0,0,0,0,0,0,0,0,0,-1,1378,1534,0,0
161,-510,0,0,0,0,0,0,0,0,0,-1,1385,1534,0,0
168,-510,0,0,0,0,0,0,0,0,0,-1,1392,1534,0,0
175,-510,0,0,0,0,0,0,0,0,0,-1,1399,1534,0,0
182,-510,0,0,0,0,0,0,0,0,0,-1,1406,1534,0,0
189,-510,0,0,0,0,0,0,0,0,0,-1,1413,1534,0,0
196,-510,0,0,0,0,0,0,0,0,0,-1,1420,1534,0,0
203,-510,0,0,0,0,0,0,0,0,0,-1,1427,1534,0,0
210,-510,0,0,0,0,0,0,0,0,0,-1,1434,1534,0,0
217,-510,0,0,0,0,0,0,0,0,0,-1,1441,1534,0,0
224,-510,0,0,0,0,0,0,0,0,0,-1,1448,1534,0,0
231,-510,0,0,0,0,0,0,0,0,0,-1,1455,1534,0,0
238,-510,0,0,0,0,0,0,0,0,0,-1,1462,1534,0,0
245,-510,0,0,0,0,0,0,0,0,0,-1,1469,1534,0,0
252,-510,0,0,0,0,0,0,0,0,0,-1,1476,1534,0,0
259,-510,0,0,0,0,0,0,0,0,0,-1,1483,1534,0,0
266,-510,0,0,0,0,0,0,0,0,0,-1,1490,1534,0,0
273,-510,0,0,0,0,0,0,0,0,0,-1,1497,1534,0,0
280,-510,0,0,0,0,0,0,0,0,0,-1,1504,1534,0,0
287,-510,0,0,0,0,0,0,0,0,0,-1,1511,1534,0,0
294,-510,0,0,0,0,0,0,0,0,0,-1,1518,1534,0,0
301,-510,0,0,0,0,0,0,0,0,0,-1,1525,1534,0,0
308,-510,0,0,0,0,0,0,0,0,0,-1,1532,1534,0,0
315,-510,0,0,0,0,0,0,0,0,0,-1,1539,1534,0,0
322,-510,0,0,0,0,0,0,0,0,0,-1,1546,1534,0,0
329,-510,0,0,0,0,0,0,0,0,0,-1,1553,1534,0,0
336,-510,0,0,0,0,0,0,0,0,0,-1,1560,1534,0,0
343,-510,0,0,0,0,0,0,0,0,0,-1,1567,1534,0,0
350,-510,0,0,0,0,0,0,0,0,0,-1,1574,1534,0,0
357,-510,0,0,0,0,0,0,0,0,0,-1,1581,1534,0,0
364,-510,0,0,0,0,0,0,0,0,0,-1,1588,1534,0,0
371,-510,0,0,0,0,0,0,0,0,0,-1,1595,1534,0,0
378,-510,0,0,0,0,0,0,0,0,0,-1,1602,1534,0,0
385,-510,0,0,0,0,0,0,0,0,0,-1,1609,1534,0,0
392,-510,0,0,0,0,0,0,0,0,0,-1,1616,1534,0,0
399,-510,0,0,0,0,0,0,0,0,0,-1,1623,1534,0,0
406,-510,0,0,0,0,0,0,0,0,0,-1,1630,1534,0,0
413,-510,0,0,0,0,0,0,0,0,0,-1,1637,1534,0,0
420,-510,14.1888,6.71936,0,0,0,0,0,0,0,-1,1644,1534,14.1889,-6.71939
427,-510,10.2134,5.59485,0,0,0,0,0,0,0,-1,1651,1534,10.2134,-5.59485
434,-510,11.8219,4.07898,0,0,0,0,0,0,0,-1,1658,1534,11.8219,-4.07895
441,-510,12.6812,3.02991,0,0,0,0,0,0,0,-1,1665,1534,12.6811,-3.0299
448,-510,13.2379,2.2804,0,0,0,0,0,0,0,-1,1672,1534,13.2379,-2.28037
455,-510,9.76892,2.20642,0,0,0,0,0,0,0,-1,1679,1534,9.76894,-2.20647
462,-510,9.84692,2.49182,0,0,0,0,0,0,0,-1,1686,1534,9.84695,-2.49185
469,-510,16.6072,7.26941,0,0,0,0,0,0,0,-1,1693,1534,16.6072,-7.26945
476,-510,15.9199,7.8645,0,0,0,0,0,0,0,-1,1700,1534,15.9199,-7.86455
483,-510,13.0833,8.10938,0,0,0,0,0,0,0,-1,1707,1534,13.0833,-8.10932
490,-510,13.0841,15.3286,0,0,0,0,0,0,0,-1,1714,1534,13.0841,-15.3286
497,-510,15.5652,18.823,0,0,0,0,0,0,0,-1,1721,1534,15.5652,-18.823
504,-510,15.998,18.7478,0,0,0,0,0,0,0,-1,1728,1534,15.998,-18.7478
511,-510,15.9443,18.0476,0,0,0,0,0,0,0,-1,1735,1534,15.9443,-18.0476
518,-510,17.9249,21.9351,0,0,0,0,0,0,0,-1,1742,1534,17.9249,-21.9351
525,-510,18.499,22.0433,0,0,0,0,0,0,0,-1,1749,1534,18.499,-22.0433
532,-510,18.7217,21.4055,0.00630742,0.00555823,-0.00457042,0.0105186,0.00134708,-0.744509,0.00660927,0.0215562,1756,1534,18.7217,-21.4055
539,-510,18.7822,20.8588,0.00505266,0.00416548,-0.00343096,0.00806858,0.00114955,-0.72111,0.00503976,0.0133981,1763,1534,18.7823,-20.8587
546,-510,18.7664,20.4166,0.00406695,0.00299969,-0.00254031,0.00612907,0.000937567,-0.681871,0.00381215,0.0129284,1770,1534,18.7663,-20.4166
553,-510,18.7583,19.9443,0.00329117,0.00212048,-0.00186742,0.00466284,0.000748818,-0.633522,0.00289146,0.0138686,1777,1534,18.7583,-19.9443
560,-510,18.7301,19.4692,0.0027135,0.00144325,-0.00138484,0.00360191,0.000554838,-0.570395,0.00223936,0.0136359,1784,1534,18.7301,-19.4693
567,-510,18.7083,18.9956,0.00285098,0.00077347,-0.00126893,0.00345211,0.000172348,-0.442406,0.00224616,0.0134649,1791,1534,18.7082,-18.9957
574,-510,18.6985,18.5537,0.0032067,0.000305524,-0.00132666,0.00372188,-0.000209654,-0.370403,0.00255401,0.0141572,1798,1534,18.6984,-18.5537
581,-510,18.6897,18.125,0.00399031,-0.000201435,-0.00157277,0.0045148,-0.00072592,-0.321882,0.00327874,0.0124203,1805,1534,18.6896,-18.125
588,-510,18.6791,17.635,0.00529743,-0.000665804,-0.002068,0.0059444,-0.00131278,-0.303203,0.00446532,0.0137279,1812,1534,18.6791,-17.635
595,-510,18.7883,17.0309,0.00720911,-0.00125794,-0.00273093,0.00801351,-0.00206234,-0.286452,0.00614623,0.0252791,1819,1534,18.7884,-17.0309
602,-510,18.8519,16.4711,0,0,0,0,0,0,0,-1,1826,1534,18.8519,-16.4711
609,-510,17.2866,14.8556,0,0,0,0,0,0,0,-1,1833,1534,17.2866,-14.8556
616,-510,18.5813,16.2129,0,0,0,0,0,0,0,-1,1840,1534,18.5813,-16.2128
623,-510,19.6013,14.6211,0,0,0,0,0,0,0,-1,1847,1534,19.6013,-14.6211
630,-510,13.7461,9.30334,0,0,0,0,0,0,0,-1,1854,1534,13.7461,-9.30335
637,-510,11.0155,7.38464,0,0,0,0,0,0,0,-1,1861,1534,11.0155,-7.38463
644,-510,11.5809,7.17126,0,0,0,0,0,0,0,-1,1868,1534,11.5809,-7.17123
651,-510,8.70471,3.5061,0,0,0,0,0,0,0,-1,1875,1534,8.70475,-3.50611
658,-510,0,0,0,0,0,0,0,0,0,-1,1882,1534,0,0
665,-510,0,0,0,0,0,0,0,0,0,-1,1889,1534,0,0
672,-510,0,0,0,0,0,0,0,0,0,-1,1896,1534,0,0
679,-510,0,0,0,0,0,0,0,0,0,-1,1903,1534,0,0
686,-510,0,0,0,0,0,0,0,0,0,-1,1910,1534,0,0
693,-510,0,0,0,0,0,0,0,0,0,-1,1917,1534,0,0
700,-510,0,0,0,0,0,0,0,0,0,-1,1924,1534,0,0
707,-510,0,0,0,0,0,0,0,0,0,-1,1931,1534,0,0
714,-510,0,0,0,0,0,0,0,0,0,-1,1938,1534,0,0
721,-510,0,0,0,0,0,0,0,0,0,-1,1945,1534,0,0
728,-510,0,0,0,0,0,0,0,0,0,-1,1952,1534,0,0
735,-510,0,0,0,0,0,0,0,0,0,-1,1959,1534,0,0
742,-510,0,0,0,0,0,0,0,0,0,-1,1966,1534,0,0
749,-510,0,0,0,0,0,0,0,0,0,-1,1973,1534,0,0
756,-510,0,0,0,0,0,0,0,0,0,-1,1980,1534,0,0
763,-510,0,0,0,0,0,0,0,0,0,-1,1987,1534,0,0
770,-510,0,0,0,0,0,0,0,0,0,-1,1994,1534,0,0
777,-510,0,0,0,0,0,0,0,0,0,-1,2001,1534,0,0
784,-510,0,0,0,0,0,0,0,0,0,-1,2008,1534,0,0
791,-510,0,0,0,0,0,0,0,0,0,-1,2015,1534,0,0
798,-510,0,0,0,0,0,0,0,0,0,-1,2022,1534,0,0
805,-510,0,0,0,0,0,0,0,0,0,-1,2029,1534,0,0
812,-510,0,0,0,0,0,0,0,0,0,-1,2036,1534,0,0
-700,-517,0,0,0,0,0,0,0,0,0,-1,524,1541,0,0
-693,-517,0,0,0,0,0,0,0,0,0,-1,531,1541,0,0
-686,-517,0,0,0,0,0,0,0,0,0,-1,538,1541,0,0
-679,-517,0,0,0,0,0,0,0,0,0,-1,545,1541,0,0
-672,-517,0,0,0,0,0,0,0,0,0,-1,552,1541,0,0
-665,-517,0,0,0,0,0,0,0,0,0,-1,559,1541,0,0
-658,-517,0,0,0,0,0,0,0,0,0,-1,566,1541,0,0
-651,-517,0,0,0,0,0,0,0,0,0,-1,573,1541,0,0
-644,-517,0,0,0,0,0,0,0,0,0,-1,580,1541,0,0
-637,-517,0,0,0,0,0,0,0,0,0,-1,587,1541,0,0
-630,-517,0,0,0,0,0,0,0,0,0,-1,594,1541,0,0
-623,-517,0,0,0,0,0,0,0,0,0,-1,601,1541,0,0
-616,-517,0,0,0,0,0,0,0,0,0,-1,608,1541,0,0
-609,-517,0,0,0,0,0,0,0,0,0,-1,615,1541,0,0
-602,-517,0,0,0,0,0,0,0,0,0,-1,622,1541,0,0
-595,-517,0,0,0,0,0,0,0,0,0,-1,629,1541,0,0
-588,-517,0,0,0,0,0,0,0,0,0,-1,636,1541,0,0
-581,-517,0,0,0,0,0,0,0,0,0,-1,643,1541,0,0
-574,-517,0,0,0,0,0,0,0,0,0,-1,650,1541,0,0
-567,-517,0,0,0,0,0,0,0,0,0,-1,657,1541,0,0
-560,-517,0,0,0,0,0,0,0,0,0,-1,664,1541,0,0
-553,-517,0,0,0,0,0,0,0,0,0,-1,671,1541,0,0
-546,-517,0,0,0,0,0,0,0,0,0,-1,678,1541,0,0
-539,-517,0,0,0,0,0,0,0,0,0,-1,685,1541,0,0
-532,-517,0,0,0,0,0,0,0,0,0,-1,692,1541,0,0
-525,-517,-3.62903,4.3606,0,0,0,0,0,0,0,-1,699,1541,-3.62904,-4.36056
-518,-517,-1.664,2.27209,0,0,0,0,0,0,0,-1,706,1541,-1.66399,-2.27207
-511,-517,-0.999146,5.52063,0,0,0,0,0,0,0,-1,713,1541,-0.999126,-5.52059
-504,-517,-1.06946,8.67432,0,0,0,0,0,0,0,-1,720,1541,-1.06947,-8.6743
-497,-517,-2.00299,12.8037,0,0,0,0,0,0,0,-1,727,1541,-2.003,-12.8038
-490,-517,-2.58722,14.2273,0,0,0,0,0,0,0,-1,734,1541,-2.58719,-14.2273
-483,-517,-2.71045,14.4509,-0.00937194,-0.0049512,0.00249434,-0.00382878,-0.0104944,1.14795,0.00613226,0.041775,741,1541,-2.71047,-14.4509
-476,-517,-2.81061,14.6998,-0.00760806,-0.00259011,0.00102878,-0.00238738,-0.00781079,1.37623,0.00462172,0.0443722,748,1541,-2.81063,-14.6998
-469,-517,-2.9986,15.2017,-0.00611568,-0.00102664,6.95986e-05,-0.00102569,-0.00611663,1.55712,0.0037825,0.020043,755,1541,-2.99859,-15.2017
-462,-517,-3.11505,15.678,-0.00473943,-3.85736e-05,-0.000335319,-1.47752e-05,-0.00476323,-1.49994,0.00317057,0.0190258,762,1541,-3.11507,-15.6779
-455,-517,-3.11646,16.2064,-0.00351287,0.000547451,-0.000462989,0.000599575,-0.003565,-1.45869,0.00259967,0.0146583,769,1541,-3.11647,-16.2064
-448,-517,-3.12756,16.7339,-0.00237567,0.000868201,-0.000337627,0.000902969,-0.00241043,-1.46818,0.00197789,0.0126989,776,1541,-3.12754,-16.7338
-441,-517,-3.17938,17.2303,-0.00126807,0.00114928,5.92667e-05,0.00115073,-0.00126953,1.5463,0.0013979,0.0116712,783,1541,-3.17936,-17.2304
-434,-517,-3.21466,17.7198,-0.000158647,0.00164482,0.000741868,0.00191077,-0.0004246,1.22658,0.00143646,0.0146365,790,1541,-3.21466,-17.7198
-427,-517,-3.22864,18.2146,0.00102195,0.00227071,0.00150918,0.00327958,1.30845e-05,0.981537,0.00218204,0.0143525,797,1541,-3.22867,-18.2146
-420,-517,-3.25989,18.7513,0.00224403,0.00308013,0.00248234,0.00517937,0.000144787,0.86882,0.00340568,0.0204924,804,1541,-3.2599,-18.7514
-413,-517,-3.24005,19.2336,0.00348171,0.00413472,0.00368236,0.00750502,0.000111405,0.829617,0.00496663,0.0112082,811,1541,-3.24004,-19.2336
-406,-517,-3.25806,19.7119,0.00467661,0.00575833,0.00499259,0.0102393,0.000195671,0.839354,0.0067619,0.0114242,818,1541,-3.25808,-19.7119
-399,-517,-3.25635,20.2179,0.00582587,0.00801219,0.00622089,0.0132352,0.00060282,0.872372,0.00862958,0.0109834,825,1541,-3.25635,-20.2178
-392,-517,-3.25824,20.7393,0.00690344,0.0109742,0.00730294,0.0165201,0.00135756,0.921304,0.0105899,0.0158442,832,1541,-3.25825,-20.7393
-385,-517,-3.15509,21.5087,0.00795575,0.0140015,0.00855955,0.0200563,0.00190097,0.95514,0.0127844,0.0364896,839,1541,-3.15507,-21.5087
-378,-517,-3.03418,22.6232,0,0,0,0,0,0,0,-1,846,1541,-3.03415,-22.6232
-371,-517,-1.37585,13.2646,0,0,0,0,0,0,0,-1,853,1541,-1.37586,-13.2647
-364,-517,-1.26245,12.6289,0,0,0,0,0,0,0,-1,860,1541,-1.26243,-12.6289
-357,-517,-1.23889,12.979,0,0,0,0,0,0,0,-1,867,1541,-1.23891,-12.979
-350,-517,0.722412,10.0829,0,0,0,0,0,0,0,-1,874,1541,0.722399,-10.0828
-343,-517,-5.5697,25.4744,0,0,0,0,0,0,0,-1,881,1541,-5.5697,-25.4744
-336,-517,-4.9837,26.3821,0,0,0,0,0,0,0,-1,888,1541,-4.98368,-26.3821
-329,-517,-4.39764,27.2897,0,0,0,0,0,0,0,-1,895,1541,-4.39767,-27.2897
-322,-517,-4.21246,19.5819,0,0,0,0,0,0,0,-1,902,1541,-4.21244,-19.5819
-315,-517,-0.987976,7.29749,0,0,0,0,0,0,0,-1,909,1541,-0.987993,-7.29743
-308,-517,3.27911,17.621,0,0,0,0,0,0,0,-1,916,1541,3.27913,-17.621
-301,-517,-1.69141,8.87488,0,0,0,0,0,0,0,-1,923,1541,-1.69141,-8.87485
-294,-517,-1.72583,9.92566,0,0,0,0,0,0,0,-1,930,1541,-1.72584,-9.92571
-287,-517,-3.09045,12.1472,0,0,0,0,0,0,0,-1,937,1541,-3.09043,-12.1472
-280,-517,0,0,0,0,0,0,0,0,0,-1,944,1541,0,0
-273,-517,0,0,0,0,0,0,0,0,0,-1,951,1541,0,0
-266,-517,0,0,0,0,0,0,0,0,0,-1,958,1541,0,0
-259,-517,0,0,0,0,0,0,0,0,0,-1,965,1541,0,0
-252,-517,0,0,0,0,0,0,0,0,0,-1,972,1541,0,0
-245,-517,0,0,0,0,0,0,0,0,0,-1,979,1541,0,0
-238,-517,0,0,0,0,0,0,0,0,0,-1,986,1541,0,0
-231,-517,0,0,0,0,0,0,0,0,0,-1,993,1541,0,0
-224,-517,0,0,0,0,0,0,0,0,0,-1,1000,1541,0,0
-217,-517,0,0,0,0,0,0,0,0,0,-1,1007,1541,0,0
-210,-517,0,0,0,0,0,0,0,0,0,-1,1014,1541,0,0
-203,-517,0,0,0,0,0,0,0,0,0,-1,1021,1541,0,0
-196,-517,0,0,0,0,0,0,0,0,0,-1,1028,1541,0,0
-189,-517,0,0,0,0,0,0,0,0,0,-1,1035,1541,0,0
-182,-517,0,0,0,0,0,0,0,0,0,-1,1042,1541,0,0
-175,-517,0,0,0,0,0,0,0,0,0,-1,1049,1541,0,0
-168,-517,0,0,0,0,0,0,0,0,0,-1,1056,1541,0,0
-161,-517,0,0,0,0,0,0,0,0,0,-1,1063,1541,0,0
-154,-517,0,0,0,0,0,0,0,0,0,-1,1070,1541,0,0
-147,-517,0,0,0,0,0,0,0,0,0,-1,1077,1541,0,0
-140,-517,0,0,0,0,0,0,0,0,0,-1,1084,1541,0,0
-133,-517,0,0,0,0,0,0,0,0,0,-1,1091,1541,0,0
-126,-517,0,0,0,0,0,0,0,0,0,-1,1098,1541,0,0
-119,-517,0,0,0,0,0,0,0,0,0,-1,1105,1541,0,0
-112,-517,0,0,0,0,0,0,0,0,0,-1,1112,1541,0,0
-105,-517,0,0,0,0,0,0,0,0,0,-1,1119,1541,0,0
-98,-517,0,0,0,0,0,0,0,0,0,-1,1126,1541,0,0
-91,-517,0,0,0,0,0,0,0,0,0,-1,1133,1541,0,0
-84,-517,0,0,0,0,0,0,0,0,0,-1,1140,1541,0,0
-77,-517,0,0,0,0,0,0,0,0,0,-1,1147,1541,0,0
-70,-517,0,0,0,0,0,0,0,0,0,-1,1154,1541,0,0
-63,-517,0,0,0,0,0,0,0,0,0,-1,1161,1541,0,0
-56,-517,0,0,0,0,0,0,0,0,0,-1,1168,1541,0,0
-49,-517,0,0,0,0,0,0,0,0,0,-1,1175,1541,0,0
-42,-517,0,0,0,0,0,0,0,0,0,-1,1182,1541,0,0
-35,-517,0,0,0,0,0,0,0,0,0,-1,1189,1541,0,0
-28,-517,0,0,0,0,0,0,0,0,0,-1,1196,1541,0,0
-21,-517,0,0,0,0,0,0,0,0,0,-1,1203,1541,0,0
-14,-517,0,0,0,0,0,0,0,0,0,-1,1210,1541,0,0
-7,-517,0,0,0,0,0,0,0,0,0,-1,1217,1541,0,0
0,-517,0,0,0,0,0,0,0,0,0,-1,1224,1541,0,0
7,-517,0,0,0,0,0,0,0,0,0,-1,1231,1541,0,0
14,-517,0,0,0,0,0,0,0,0,0,-1,1238,1541,0,0
21,-517,0,0,0,0,0,0,0,0,0,-1,1245,1541,0,0
28,-517,0,0,0,0,0,0,0,0,0,-1,1252,1541,0,0
35,-517,0,0,0,0,0,0,0,0,0,-1,1259,1541,0,0
42,-517,0,0,0,0,0,0,0,0,0,-1,1266,1541,0,0
49,-517,0,0,0,0,0,0,0,0,0,-1,1273,1541,0,0
56,-517,0,0,0,0,0,0,0,0,0,-1,1280,1541,0,0
63,-517,0,0,0,0,0,0,0,0,0,-1,1287,1541,0,0
70,-517,0,0,0,0,0,0,0,0,0,-1,1294,1541,0,0
77,-517,0,0,0,0,0,0,0,0,0,-1,1301,1541,0,0
84,-517,0,0,0,0,0,0,0,0,0,-1,1308,1541,0,0
91,-517,0,0,0,0,0,0,0,0,0,-1,1315,1541,0,0
98,-517,0,0,0,0,0,0,0,0,0,-1,1322,1541,0,0
105,-517,0,0,0,0,0,0,0,0,0,-1,1329,1541,0,0
112,-517,0,0,0,0,0,0,0,0,0,-1,1336,1541,0,0
119,-517,0,0,0,0,0,0,0,0,0,-1,1343,1541,0,0
126,-517,0,0,0,0,0,0,0,0,0,-1,1350,1541,0,0
133,-517,0,0,0,0,0,0,0,0,0,-1,1357,1541,0,0
140,-517,0,0,0,0,0,0,0,0,0,-1,1364,1541,0,0
147,-517,0,0,0,0,0,0,0,0,0,-1,1371,1541,0,0
154,-517,0,0,0,0,0,0,0,0,0,-1,1378,1541,0,0
161,-517,0,0,0,0,0,0,0,0,0,-1,1385,1541,0,0
168,-517,0,0,0,0,0,0,0,0,0,-1,1392,1541,0,0
175,-517,0,0,0,0,0,0,0,0,0,-1,1399,1541,0,0
182,-517,0,0,0,0,0,0,0,0,0,-1,1406,1541,0,0
189,-517,0,0,0,0,0,0,0,0,0,-1,1413,1541,0,0
196,-517,0,0,0,0,0,0,0,0,0,-1,1420,1541,0,0
203,-517,0,0,0,0,0,0,0,0,0,-1,1427,1541,0,0
210,-517,0,0,0,0,0,0,0,0,0,-1,1434,1541,0,0
217,-517,0,0,0,0,0,0,0,0,0,-1,1441,1541,0,0
224,-517,0,0,0,0,0,0,0,0,0,-1,1448,1541,0,0
231,-517,0,0,0,0,0,0,0,0,0,-1,1455,1541,0,0
238,-517,0,0,0,0,0,0,0,0,0,-1,1462,1541,0,0
245,-517,0,0,0,0,0,0,0,0,0,-1,1469,1541,0,0
252,-517,0,0,0,0,0,0,0,0,0,-1,1476,1541,0,0
259,-517,0,0,0,0,0,0,0,0,0,-1,1483,1541,0,0
266,-517,0,0,0,0,0,0,0,0,0,-1,1490,1541,0,0
273,-517,0,0,0,0,0,0,0,0,0,-1,1497,1541,0,0
280,-517,0,0,0,0,0,0,0,0,0,-1,1504,1541,0,0
287,-517,0,0,0,0,0,0,0,0,0,-1,1511,1541,0,0
294,-517,0,0,0,0,0,0,0,0,0,-1,1518,1541,0,0
301,-517,0,0,0,0,0,0,0,0,0,-1,1525,1541,0,0
308,-517,0,0,0,0,0,0,0,0,0,-1,1532,1541,0,0
315,-517,0,0,0,0,0,0,0,0,0,-1,1539,1541,0,0
322,-517,0,0,0,0,0,0,0,0,0,-1,1546,1541,0,0
329,-517,0,0,0,0,0,0,0,0,0,-1,1553,1541,0,0
336,-517,0,0,0,0,0,0,0,0,0,-1,1560,1541,0,0
343,-517,0,0,0,0,0,0,0,0,0,-1,1567,1541,0,0
350,-517,0,0,0,0,0,0,0,0,0,-1,1574,1541,0,0
357,-517,0,0,0,0,0,0,0,0,0,-1,1581,1541,0,0
364,-517,0,0,0,0,0,0,0,0,0,-1,1588,1541,0,0
371,-517,0,0,0,0,0,0,0,0,0,-1,1595,1541,0,0
378,-517,0,0,0,0,0,0,0,0,0,-1,1602,1541,0,0
385,-517,0,0,0,0,0,0,0,0,0,-1,1609,1541,0,0
392,-517,0,0,0,0,0,0,0,0,0,-1,1616,1541,0,0
399,-517,0,0,0,0,0,0,0,0,0,-1,1623,1541,0,0
406,-517,13.1395,7.01978,0,0,0,0,0,0,0,-1,1630,1541,13.1396,-7.01981
413,-517,12.8859,6.31592,0,0,0,0,0,0,0,-1,1637,1541,12.8858,-6.31588
420,-517,12.4789,6.20337,0,0,0,0,0,0,0,-1,1644,1541,12.4789,-6.20333
427,-517,11.647,4.66516,0,0,0,0,0,0,0,-1,1651,1541,11.647,-4.66519
434,-517,12.3719,3.92773,0,0,0,0,0,0,0,-1,1658,1541,12.3719,-3.92776
441,-517,13.146,3.14124,0,0,0,0,0,0,0,-1,1665,1541,13.146,-3.14121
448,-517,13.8861,2.36682,0,0,0,0,0,0,0,-1,1672,1541,13.8861,-2.36684
455,-517,13.6012,4.06335,0,0,0,0,0,0,0,-1,1679,1541,13.6012,-4.06335
462,-517,14.8956,7.0752,0,0,0,0,0,0,0,-1,1686,1541,14.8956,-7.07525
469,-517,13.6292,6.87744,0,0,0,0,0,0,0,-1,1693,1541,13.6292,-6.87739
476,-517,17.1632,14.1487,0,0,0,0,0,0,0,-1,1700,1541,17.1632,-14.1487
483,-517,16.5157,15.0776,0,0,0,0,0,0,0,-1,1707,1541,16.5157,-15.0777
490,-517,15.5439,18.0258,0,0,0,0,0,0,0,-1,1714,1541,15.5439,-18.0258
497,-517,16.0292,18.7786,0,0,0,0,0,0,0,-1,1721,1541,16.0291,-18.7786
504,-517,17.3815,22.3873,0,0,0,0,0,0,0,-1,1728,1541,17.3814,-22.3873
511,-517,16.9674,21.8491,0,0,0,0,0,0,0,-1,1735,1541,16.9674,-21.8491
518,-517,18.0015,22.3754,0,0,0,0,0,0,0,-1,1742,1541,18.0015,-22.3754
525,-517,18.1708,21.8691,0.00678251,0.00648355,-0.00527227,0.0119074,0.00135864,-0.771226,0.00752638,0.0218633,1749,1541,18.1708,-21.8691
532,-517,18.3076,21.3148,0.00536086,0.0049296,-0.0040287,0.0091797,0.00111076,-0.758662,0.0057852,0.0116112,1756,1541,18.3076,-21.3148
539,-517,18.3351,20.8529,0.0042519,0.00362871,-0.00299095,0.00694744,0.000933172,-0.733496,0.00435403,0.012694,1763,1541,18.3351,-20.8529
546,-517,18.3259,20.4159,0.00333528,0.00247718,-0.00211999,0.0050692,0.000743265,-0.685555,0.00316097,0.0137176,1770,1541,18.3259,-20.4159
553,-517,18.2987,19.9609,0.00257716,0.00156707,-0.0014126,0.00357228,0.000571944,-0.613716,0.00221562,0.0184281,1777,1541,18.2987,-19.9609
560,-517,18.2942,19.5002,0.00201797,0.000855163,-0.000887568,0.0024976,0.000375525,-0.495439,0.00155508,0.0166284,1784,1541,18.2942,-19.5002
567,-517,18.2847,19.0413,0.00230614,9.3062e-05,-0.00075236,0.00253769,-0.000138485,-0.298562,0.00173979,0.0134382,1791,1541,18.2847,-19.0413
574,-517,18.2728,18.5719,0.00276406,-0.000403903,-0.000796667,0.00295312,-0.000592963,-0.233003,0.00219328,0.0145017,1798,1541,18.2729,-18.5719
581,-517,18.2545,18.1017,0.00377121,-0.000911838,-0.00110372,0.0040183,-0.00115893,-0.220241,0.00313736,0.0149436,1805,1541,18.2545,-18.1017
588,-517,18.2319,17.6147,0.00543378,-0.00136892,-0.00171326,0.0058409,-0.00177604,-0.233301,0.00460165,0.0161097,1812,1541,18.232,-17.6147
595,-517,18.4609,16.9165,0,0,0,0,0,0,0,-1,1819,1541,18.4609,-16.9165
602,-517,15.8027,13.5498,0,0,0,0,0,0,0,-1,1826,1541,15.8027,-13.5498
609,-517,12.6417,10.8751,0,0,0,0,0,0,0,-1,1833,1541,12.6417,-10.8751
616,-517,14.205,10.3193,0,0,0,0,0,0,0,-1,1840,1541,14.205,-10.3194
623,-517,12.578,10.0779,0,0,0,0,0,0,0,-1,1847,1541,12.578,-10.0779
630,-517,11.7035,7.47815,0,0,0,0,0,0,0,-1,1854,1541,11.7035,-7.47812
637,-517,11.5172,5.79822,0,0,0,0,0,0,0,-1,1861,1541,11.5173,-5.79825
644,-517,11.4232,3.30579,0,0,0,0,0,0,0,-1,1868,1541,11.4232,-3.30574
651,-517,0,0,0,0,0,0,0,0,0,-1,1875,1541,0,0
658,-517,0,0,0,0,0,0,0,0,0,-1,1882,1541,0,0
665,-517,0,0,0,0,0,0,0,0,0,-1,1889,1541,0,0
672,-517,0,0,0,0,0,0,0,0,0,-1,1896,1541,0,0
679,-517,0,0,0,0,0,0,0,0,0,-1,1903,1541,0,0
686,-517,0,0,0,0,0,0,0,0,0,-1,1910,1541,0,0
693,-517,0,0,0,0,0,0,0,0,0,-1,1917,1541,0,0
700,-517,0,0,0,0,0,0,0,0,0,-1,1924,1541,0,0
707,-517,0,0,0,0,0,0,0,0,0,-1,1931,1541,0,0
714,-517,0,0,0,0,0,0,0,0,0,-1,1938,1541,0,0
721,-517,0,0,0,0,0,0,0,0,0,-1,1945,1541,0,0
728,-517,0,0,0,0,0,0,0,0,0,-1,1952,1541,0,0
735,-517,0,0,0,0,0,0,0,0,0,-1,1959,1541,0,0
742,-517,0,0,0,0,0,0,0,0,0,-1,1966,1541,0,0
749,-517,0,0,0,0,0,0,0,0,0,-1,1973,1541,0,0
756,-517,0,0,0,0,0,0,0,0,0,-1,1980,1541,0,0
763,-517,0,0,0,0,0,0,0,0,0,-1,1987,1541,0,0
770,-517,0,0,0,0,0,0,0,0,0,-1,1994,1541,0,0
777,-517,0,0,0,0,0,0,0,0,0,-1,2001,1541,0,0
784,-517,0,0,0,0,0,0,0,0,0,-1,2008,1541,0,0
791,-517,0,0,0,0,0,0,0,0,0,-1,2015,1541,0,0
798,-517,0,0,0,0,0,0,0,0,0,-1,2022,1541,0,0
805,-517,0,0,0,0,0,0,0,0,0,-1,2029,1541,0,0
812,-517,0,0,0,0,0,0,0,0,0,-1,2036,1541,0,0
-700,-524,0,0,0,0,0,0,0,0,0,-1,524,1548,0,0
-693,-524,0,0,0,0,0,0,0,0,0,-1,531,1548,0,0
-686,-524,0,0,0,0,0,0,0,0,0,-1,538,1548,0,0
-679,-524,0,0,0,0,0,0,0,0,0,-1,545,1548,0,0
-672,-524,0,0,0,0,0,0,0,0,0,-1,552,1548,0,0
-665,-524,0,0,0,0,0,0,0,0,0,-1,559,1548,0,0
-658,-524,0,0,0,0,0,0,0,0,0,-1,566,1548,0,0
-651,-524,0,0,0,0,0,0,0,0,0,-1,573,1548,0,0
-644,-524,0,0,0,0,0,0,0,0,0,-1,580,1548,0,0
-637,-524,0,0,0,0,0,0,0,0,0,-1,587,1548,0,0
-630,-524,0,0,0,0,0,0,0,0,0,-1,594,1548,0,0
-623,-524,0,0,0,0,0,0,0,0,0,-1,601,1548,0,0
-616,-524,0,0,0,0,0,0,0,0,0,-1,608,1548,0,0
-609,-524,0,0,0,0,0,0,0,0,0,-1,615,1548,0,0
-602,-524,0,0,0,0,0,0,0,0,0,-1,622,1548,0,0
-595,-524,0,0,0,0,0,0,0,0,0,-1,629,1548,0,0
-588,-524,0,0,0,0,0,0,0,0,0,-1,636,1548,0,0
-581,-524,0,0,0,0,0,0,0,0,0,-1,643,1548,0,0
-574,-524,0,0,0,0,0,0,0,0,0,-1,650,1548,0,0
-567,-524,0,0,0,0,0,0,0,0,0,-1,657,1548,0,0
-560,-524,0,0,0,0,0,0,0,0,0,-1,664,1548,0,0
-553,-524,0,0,0,0,0,0,0,0,0,-1,671,1548,0,0
-546,-524,0,0,0,0,0,0,0,0,0,-1,678,1548,0,0
-539,-524,0,0,0,0,0,0,0,0,0,-1,685,1548,0,0
-532,-524,0,0,0,0,0,0,0,0,0,-1,692,1548,0,0
-525,-524,-0.215515,3.97131,0,0,0,0,0,0,0,-1,699,1548,-0.215501,-3.97136
-518,-524,-0.806274,4.35632,0,0,0,0,0,0,0,-1,706,1548,-0.806259,-4.35633
-511,-524,-1.08301,4.29004,0,0,0,0,0,0,0,-1,713,1548,-1.08301,-4.29006
-504,-524,-1.28821,3.98145,0,0,0,0,0,0,0,-1,720,1548,-1.28822,-3.98151
-497,-524,-0.328491,8.63416,0,0,0,0,0,0,0,-1,727,1548,-0.328487,-8.63411
-490,-524,-2.73645,14.0287,0,0,0,0,0,0,0,-1,734,1548,-2.73646,-14.0287
-483,-524,-2.77466,14.5002,-0.0101337,-0.00234298,0.0045329,-0.000261645,-0.0122151,1.14035,0.00805759,0.0490705,741,1548,-2.77466,-14.5002
-476,-524,-2.77234,15.0599,-0.00828777,5.26334e-05,0.00225393,0.000622766,-0.00885791,1.32304,0.00612342,0.0447759,748,1548,-2.77234,-15.0599
-469,-524,-2.7265,15.515,-0.00681539,0.00133945,0.000679252,0.00139564,-0.00687158,1.48826,0.00511019,0.035817,755,1548,-2.72652,-15.515
-462,-524,-2.54968,15.8464,-0.00546738,0.00195294,-0.000105462,0.00195444,-0.00546888,-1.55659,0.00444308,0.0304068,762,1548,-2.54971,-15.8464
-455,-524,-2.65869,16.2454,-0.00429129,0.00212235,-0.0004891,0.00215943,-0.00432837,-1.49512,0.00381487,0.0230508,769,1548,-2.65869,-16.2453
-448,-524,-2.63684,16.7469,-0.00323959,0.0019669,-0.000586745,0.00203221,-0.00330489,-1.45995,0.00311044,0.0137246,776,1548,-2.63683,-16.7469
-441,-524,-2.66461,17.2449,-0.00221395,0.00180107,-0.000366204,0.00183419,-0.00224708,-1.48058,0.00236034,0.0110943,783,1548,-2.66464,-17.2449
-434,-524,-2.64227,17.7252,-0.00118177,0.00188656,0.000152394,0.00189411,-0.00118932,1.52129,0.00179565,0.0129044,790,1548,-2.64229,-17.7252
-427,-524,-2.66125,18.235,-8.74999e-05,0.00216392,0.000711039,0.00236967,-0.000293255,1.28912,0.00168606,0.0129129,797,1548,-2.66125,-18.2349
-420,-524,-2.71307,18.7607,0.00104793,0.00271393,0.00149807,0.00359502,0.000166845,1.03914,0.00234304,0.0105047,804,1548,-2.71308,-18.7608
-413,-524,-2.7323,19.2445,0.00215897,0.00349407,0.00249971,0.00541383,0.000239209,0.915878,0.00353219,0.0106294,811,1548,-2.7323,-19.2445
-406,-524,-2.7511,19.7386,0.00319923,0.00459432,0.00363269,0.00759583,0.000197727,0.880253,0.00499928,0.0111866,818,1548,-2.75109,-19.7386
-399,-524,-2.76178,20.234,0.00413809,0.00636395,0.00456716,0.00995183,0.000550218,0.904909,0.00645896,0.00878068,825,1548,-2.76175,-20.234
-392,-524,-2.76654,20.7084,0.00498805,0.00880253,0.00533391,0.0125599,0.00123065,0.957099,0.00799471,0.00995138,832,1548,-2.76652,-20.7084
-385,-524,-2.78278,21.2222,0.00584693,0.0112139,0.00620689,0.0152925,0.00176826,0.989433,0.0096597,0.0146282,839,1548,-2.7828,-21.2222
-378,-524,-2.70416,22.0167,0.00657828,0.0139887,0.00689914,0.0181146,0.00245236,1.03182,0.0113476,0.0482154,846,1548,-2.70418,-22.0167
-371,-524,-2.5954,22.7815,0,0,0,0,0,0,0,-1,853,1548,-2.59543,-22.7814
-364,-524,-0.712097,14.9871,0,0,0,0,0,0,0,-1,860,1548,-0.712116,-14.9871
-357,-524,-1.34052,14.7448,0,0,0,0,0,0,0,-1,867,1548,-1.34054,-14.7447
-350,-524,-2.63245,12.7522,0,0,0,0,0,0,0,-1,874,1548,-2.63245,-12.7522
-343,-524,-4.41205,25.2563,0,0,0,0,0,0,0,-1,881,1548,-4.41207,-25.2563
-336,-524,-4.03943,26.0404,0,0,0,0,0,0,0,-1,888,1548,-4.03942,-26.0404
-329,-524,-3.66681,26.8245,0,0,0,0,0,0,0,-1,895,1548,-3.66678,-26.8245
-322,-524,-4.31378,25.6389,0,0,0,0,0,0,0,-1,902,1548,-4.31379,-25.639
-315,-524,-1.90839,19.4824,0,0,0,0,0,0,0,-1,909,1548,-1.90838,-19.4824
-308,-524,-2.36938,19.3059,0,0,0,0,0,0,0,-1,916,1548,-2.3694,-19.3058
-301,-524,2.72394,17.7618,0,0,0,0,0,0,0,-1,923,1548,2.72396,-17.7619
-294,-524,-1.52515,9.05408,0,0,0,0,0,0,0,-1,930,1548,-1.52512,-9.05411
-287,-524,-0.962219,10.3199,0,0,0,0,0,0,0,-1,937,1548,-0.962241,-10.32
-280,-524,-1.36255,10.3859,0,0,0,0,0,0,0,-1,944,1548,-1.36253,-10.3859
-273,-524,0,0,0,0,0,0,0,0,0,-1,951,1548,0,0
-266,-524,0,0,0,0,0,0,0,0,0,-1,958,1548,0,0
-259,-524,0,0,0,0,0,0,0,0,0,-1,965,1548,0,0
-252,-524,0,0,0,0,0,0,0,0,0,-1,972,1548,0,0
-245,-524,0,0,0,0,0,0,0,0,0,-1,979,1548,0,0
-238,-524,0,0,0,0,0,0,0,0,0,-1,986,1548,0,0
-231,-524,0,0,0,0,0,0,0,0,0,-1,993,1548,0,0
-224,-524,0,0,0,0,0,0,0,0,0,-1,1000,1548,0,0
-217,-524,0,0,0,0,0,0,0,0,0,-1,1007,1548,0,0
-210,-524,0,0,0,0,0,0,0,0,0,-1,1014,1548,0,0
-203,-524,0,0,0,0,0,0,0,0,0,-1,1021,1548,0,0
-196,-524,0,0,0,0,0,0,0,0,0,-1,1028,1548,0,0
-189,-524,0,0,0,0,0,0,0,0,0,-1,1035,1548,0,0
-182,-524,0,0,0,0,0,0,0,0,0,-1,1042,1548,0,0
-175,-524,0,0,0,0,0,0,0,0,0,-1,1049,1548,0,0
-168,-524,0,0,0,0,0,0,0,0,0,-1,1056,1548,0,0
-161,-524,0,0,0,0,0,0,0,0,0,-1,1063,1548,0,0
-154,-524,0,0,0,0,0,0,0,0,0,-1,1070,1548,0,0
-147,-524,0,0,0,0,0,0,0,0,0,-1,1077,1548,0,0
-140,-524,0,0,0,0,0,0,0,0,0,-1,1084,1548,0,0
-133,-524,0,0,0,0,0,0,0,0,0,-1,1091,1548,0,0
-126,-524,0,0,0,0,0,0,0,0,0,-1,1098,1548,0,0
-119,-524,0,0,0,0,0,0,0,0,0,-1,1105,1548,0,0
-112,-524,0,0,0,0,0,0,0,0,0,-1,1112,1548,0,0
-105,-524,0,0,0,0,0,0,0,0,0,-1,1119,1548,0,0
-98,-524,0,0,0,0,0,0,0,0,0,-1,1126,1548,0,0
-91,-524,0,0,0,0,0,0,0,0,0,-1,1133,1548,0,0
-84,-524,0,0,0,0,0,0,0,0,0,-1,1140,1548,0,0
-77,-524,0,0,0,0,0,0,0,0,0,-1,1147,1548,0,0
-70,-524,0,0,0,0,0,0,0,0,0,-1,1154,1548,0,0
-63,-524,0,0,0,0,0,0,0,0,0,-1,1161,1548,0,0
-56,-524,0,0,0,0,0,0,0,0,0,-1,1168,1548,0,0
-49,-524,0,0,0,0,0,0,0,0,0,-1,1175,1548,0,0
-42,-524,0,0,0,0,0,0,0,0,0,-1,1182,1548,0,0
-35,-524,0,0,0,0,0,0,0,0,0,-1,1189,1548,0,0
-28,-524,0,0,0,0,0,0,0,0,0,-1,1196,1548,0,0
-21,-524,0,0,0,0,0,0,0,0,0,-1,1203,1548,0,0
-14,-524,0,0,0,0,0,0,0,0,0,-1,1210,1548,0,0
-7,-524,0,0,0,0,0,0,0,0,0,-1,1217,1548,0,0
0,-524,0,0,0,0,0,0,0,0,0,-1,1224,1548,0,0
7,-524,0,0,0,0,0,0,0,0,0,-1,1231,1548,0,0
14,-524,0,0,0,0,0,0,0,0,0,-1,1238,1548,0,0
21,-524,0,0,0,0,0,0,0,0,0,-1,1245,1548,0,0
28,-524,0,0,0,0,0,0,0,0,0,-1,1252,1548,0,0
35,-524,0,0,0,0,0,0,0,0,0,-1,1259,1548,0,0
42,-524,0,0,0,0,0,0,0,0,0,-1,1266,1548,0,0
49,-524,0,0,0,0,0,0,0,0,0,-1,1273,1548,0,0
56,-524,0,0,0,0,0,0,0,0,0,-1,1280,1548,0,0
63,-524,0,0,0,0,0,0,0,0,0,-1,1287,1548,0,0
70,-524,0,0,0,0,0,0,0,0,0,-1,1294,1548,0,0
77,-524,0,0,0,0,0,0,0,0,0,-1,1301,1548,0,0
84,-524,0,0,0,0,0,0,0,0,0,-1,1308,1548,0,0
91,-524,0,0,0,0,0,0,0,0,0,-1,1315,1548,0,0
98,-524,0,0,0,0,0,0,0,0,0,-1,1322,1548,0,0
105,-524,0,0,0,0,0,0,0,0,0,-1,1329,1548,0,0
112,-524,0,0,0,0,0,0,0,0,0,-1,1336,1548,0,0
119,-524,0,0,0,0,0,0,0,0,0,-1,1343,1548,0,0
126,-524,0,0,0,0,0,0,0,0,0,-1,1350,1548,0,0
133,-524,0,0,0,0,0,0,0,0,0,-1,1357,1548,0,0
140,-524,0,0,0,0,0,0,0,0,0,-1,1364,1548,0,0
147,-524,0,0,0,0,0,0,0,0,0,-1,1371,1548,0,0
154,-524,0,0,0,0,0,0,0,0,0,-1,1378,1548,0,0
161,-524,0,0,0,0,0,0,0,0,0,-1,1385,1548,0,0
168,-524,0,0,0,0,0,0,0,0,0,-1,1392,1548,0,0
175,-524,0,0,0,0,0,0,0,0,0,-1,1399,1548,0,0
182,-524,0,0,0,0,0,0,0,0,0,-1,1406,1548,0,0
189,-524,0,0,0,0,0,0,0,0,0,-1,1413,1548,0,0
196,-524,0,0,0,0,0,0,0,0,0,-1,1420,1548,0,0
203,-524,0,0,0,0,0,0,0,0,0,-1,1427,1548,0,0
210,-524,0,0,0,0,0,0,0,0,0,-1,1434,1548,0,0
217,-524,0,0,0,0,0,0,0,0,0,-1,1441,1548,0,0
224,-524,0,0,0,0,0,0,0,0,0,-1,1448,1548,0,0
231,-524,0,0,0,0,0,0,0,0,0,-1,1455,1548,0,0
238,-524,0,0,0,0,0,0,0,0,0,-1,1462,1548,0,0
245,-524,0,0,0,0,0,0,0,0,0,-1,1469,1548,0,0
252,-524,0,0,0,0,0,0,0,0,0,-1,1476,1548,0,0
259,-524,0,0,0,0,0,0,0,0,0,-1,1483,1548,0,0
266,-524,0,0,0,0,0,0,0,0,0,-1,1490,1548,0,0
273,-524,0,0,0,0,0,0,0,0,0,-1,1497,1548,0,0
280,-524,0,0,0,0,0,0,0,0,0,-1,1504,1548,0,0
287,-524,0,0,0,0,0,0,0,0,0,-1,1511,1548,0,0
294,-524,0,0,0,0,0,0,0,0,0,-1,1518,1548,0,0
301,-524,0,0,0,0,0,0,0,0,0,-1,1525,1548,0,0
308,-524,0,0,0,0,0,0,0,0,0,-1,1532,1548,0,0
315,-524,0,0,0,0,0,0,0,0,0,-1,1539,1548,0,0
322,-524,0,0,0,0,0,0,0,0,0,-1,1546,1548,0,0
329,-524,0,0,0,0,0,0,0,0,0,-1,1553,1548,0,0
336,-524,0,0,0,0,0,0,0,0,0,-1,1560,1548,0,0
343,-524,0,0,0,0,0,0,0,0,0,-1,1567,1548,0,0
350,-524,0,0,0,0,0,0,0,0,0,-1,1574,1548,0,0
357,-524,0,0,0,0,0,0,0,0,0,-1,1581,1548,0,0
364,-524,0,0,0,0,0,0,0,0,0,-1,1588,1548,0,0
371,-524,0,0,0,0,0,0,0,0,0,-1,1595,1548,0,0
378,-524,0,0,0,0,0,0,0,0,0,-1,1602,1548,0,0
385,-524,0,0,0,0,0,0,0,0,0,-1,1609,1548,0,0
392,-524,0,0,0,0,0,0,0,0,0,-1,1616,1548,0,0
399,-524,8.81848,5.05774,0,0,0,0,0,0,0,-1,1623,1548,8.81843,-5.05769
406,-524,8.64294,6.06799,0,0,0,0,0,0,0,-1,1630,1548,8.6429,-6.06805
413,-524,11.677,6.41858,0,0,0,0,0,0,0,-1,1637,1548,11.677,-6.41864
420,-524,11.4913,6.36401,0,0,0,0,0,0,0,-1,1644,1548,11.4913,-6.36402
427,-524,7.68335,6.17249,0,0,0,0,0,0,0,-1,1651,1548,7.68341,-6.17245
434,-524,10.432,11.6801,0,0,0,0,0,0,0,-1,1658,1548,10.432,-11.68
441,-524,8.78552,4.12305,0,0,0,0,0,0,0,-1,1665,1548,8.78553,-4.12301
448,-524,14.1854,4.78674,0,0,0,0,0,0,0,-1,1672,1548,14.1854,-4.78674
455,-524,12.4784,3.65576,0,0,0,0,0,0,0,-1,1679,1548,12.4784,-3.65572
462,-524,14.7551,9.29395,0,0,0,0,0,0,0,-1,1686,1548,14.7552,-9.29397
469,-524,16.3314,14.3779,0,0,0,0,0,0,0,-1,1693,1548,16.3314,-14.3779
476,-524,15.9106,15.1875,0,0,0,0,0,0,0,-1,1700,1548,15.9107,-15.1876
483,-524,15.2776,16.2268,0,0,0,0,0,0,0,-1,1707,1548,15.2776,-16.2269
490,-524,15.2563,18.5848,0,0,0,0,0,0,0,-1,1714,1548,15.2564,-18.5848
497,-524,17.5173,22.6123,0,0,0,0,0,0,0,-1,1721,1548,17.5174,-22.6123
504,-524,17.4969,23.5516,0,0,0,0,0,0,0,-1,1728,1548,17.4969,-23.5516
511,-524,17.8798,22.7743,0,0,0,0,0,0,0,-1,1735,1548,17.8797,-22.7743
518,-524,17.8813,22.2781,0.00717122,0.007264,-0.00570314,0.0129209,0.00151428,-0.789465,0.0081562,0.0253524,1742,1548,17.8813,-22.2781
525,-524,17.8781,21.8181,0.00571338,0.00553901,-0.00443046,0.0100575,0.00119487,-0.77556,0.00634434,0.0145866,1749,1548,17.8781,-21.8181
532,-524,17.8616,21.333,0.00436978,0.00408512,-0.00327489,0.00750543,0.000949473,-0.763681,0.00471908,0.0104089,1756,1548,17.8616,-21.333
539,-524,17.8639,20.8639,0.00327741,0.00285046,-0.00228425,0.00535814,0.000769731,-0.738806,0.00334517,0.0109297,1763,1548,17.8638,-20.8639
546,-524,17.8552,20.4338,0.00231823,0.00168995,-0.00138611,0.00342535,0.000582828,-0.673963,0.00211621,0.0143734,1770,1548,17.8552,-20.4339
553,-524,17.8502,19.9928,0.00149496,0.00072845,-0.000608548,0.00183088,0.000392529,-0.50438,0.00111306,0.0242376,1777,1548,17.8502,-19.9928
560,-524,17.8439,19.4888,0.00089358,-3.60804e-05,-1.33461e-05,0.000893772,-3.6272e-05,-0.0143519,0.000608299,0.0311489,1784,1548,17.8439,-19.4888
567,-524,17.8296,19.0492,0.00123754,-0.000892009,0.000183804,0.00125328,-0.000907757,0.0854692,0.00125298,0.0181158,1791,1548,17.8296,-19.0492
574,-524,17.813,18.5728,0.00175742,-0.0014523,0.000187838,0.00176838,-0.00146325,0.0582567,0.00186855,0.0135133,1798,1548,17.813,-18.5727
581,-524,17.8092,18.0901,0.00297938,-0.0019934,-0.000160711,0.00298456,-0.00199859,-0.0322733,0.00289573,0.0140955,1805,1548,17.8092,-18.0901
588,-524,17.8446,17.613,0.00504443,-0.00248752,-0.000873818,0.00514447,-0.00258757,-0.113998,0.00454473,0.0282801,1812,1548,17.8446,-17.613
595,-524,17.8851,16.9276,0,0,0,0,0,0,0,-1,1819,1548,17.8851,-16.9277
602,-524,13.837,12.0682,0,0,0,0,0,0,0,-1,1826,1548,13.837,-12.0683
609,-524,13.0056,10.5138,0,0,0,0,0,0,0,-1,1833,1548,13.0056,-10.5138
616,-524,11.6941,8.65515,0,0,0,0,0,0,0,-1,1840,1548,11.6941,-8.65514
623,-524,9.38452,5.15356,0,0,0,0,0,0,0,-1,1847,1548,9.38456,-5.15359
630,-524,11.0541,3.57434,0,0,0,0,0,0,0,-1,1854,1548,11.0541,-3.57438
637,-524,11.6067,3.20728,0,0,0,0,0,0,0,-1,1861,1548,11.6067,-3.20724
644,-524,12.2134,0.727173,0,0,0,0,0,0,0,-1,1868,1548,12.2134,-0.727222
651,-524,0,0,0,0,0,0,0,0,0,-1,1875,1548,0,0
658,-524,0,0,0,0,0,0,0,0,0,-1,1882,1548,0,0
665,-524,0,0,0,0,0,0,0,0,0,-1,1889,1548,0,0
672,-524,0,0,0,0,0,0,0,0,0,-1,1896,1548,0,0
679,-524,0,0,0,0,0,0,0,0,0,-1,1903,1548,0,0
686,-524,0,0,0,0,0,0,0,0,0,-1,1910,1548,0,0
693,-524,0,0,0,0,0,0,0,0,0,-1,1917,1548,0,0
700,-524,0,0,0,0,0,0,0,0,0,-1,1924,1548,0,0
707,-524,0,0,0,0,0,0,0,0,0,-1,1931,1548,0,0
714,-524,0,0,0,0,0,0,0,0,0,-1,1938,1548,0,0
721,-524,0,0,0,0,0,0,0,0,0,-1,1945,1548,0,0
728,-524,0,0,0,0,0,0,0,0,0,-1,1952,1548,0,0
735,-524,0,0,0,0,0,0,0,0,0,-1,1959,1548,0,0
742,-524,0,0,0,0,0,0,0,0,0,-1,1966,1548,0,0
749,-524,0,0,0,0,0,0,0,0,0,-1,1973,1548,0,0
756,-524,0,0,0,0,0,0,0,0,0,-1,1980,1548,0,0
763,-524,0,0,0,0,0,0,0,0,0,-1,1987,1548,0,0
770,-524,0,0,0,0,0,0,0,0,0,-1,1994,1548,0,0
777,-524,0,0,0,0,0,0,0,0,0,-1,2001,1548,0,0
784,-524,0,0,0,0,0,0,0,0,0,-1,2008,1548,0,0
791,-524,0,0,0,0,0,0,0,0,0,-1,2015,1548,0,0
798,-524,0,0,0,0,0,0,0,0,0,-1,2022,1548,0,0
805,-524,0,0,0,0,0,0,0,0,0,-1,2029,1548,0,0
812,-524,0,0,0,0,0,0,0,0,0,-1,2036,1548,0,0
-700,-531,0,0,0,0,0,0,0,0,0,-1,524,1555,0,0
-693,-531,0,0,0,0,0,0,0,0,0,-1,531,1555,0,0
-686,-531,0,0,0,0,0,0,0,0,0,-1,538,1555,0,0
-679,-531,0,0,0,0,0,0,0,0,0,-1,545,1555,0,0
-672,-531,0,0,0,0,0,0,0,0,0,-1,552,1555,0,0
-665,-531,0,0,0,0,0,0,0,0,0,-1,559,1555,0,0
-658,-531,0,0,0,0,0,0,0,0,0,-1,566,1555,0,0
-651,-531,0,0,0,0,0,0,0,0,0,-1,573,1555,0,0
-644,-531,0,0,0,0,0,0,0,0,0,-1,580,1555,0,0
-637,-531,0,0,0,0,0,0,0,0,0,-1,587,1555,0,0
-630,-531,0,0,0,0,0,0,0,0,0,-1,594,1555,0,0
-623,-531,0,0,0,0,0,0,0,0,0,-1,601,1555,0,0
-616,-531,0,0,0,0,0,0,0,0,0,-1,608,1555,0,0
-609,-531,0,0,0,0,0,0,0,0,0,-1,615,1555,0,0
-602,-531,0,0,0,0,0,0,0,0,0,-1,622,1555,0,0
-595,-531,0,0,0,0,0,0,0,0,0,-1,629,1555,0,0
-588,-531,0,0,0,0,0,0,0,0,0,-1,636,1555,0,0
-581,-531,0,0,0,0,0,0,0,0,0,-1,643,1555,0,0
-574,-531,0,0,0,0,0,0,0,0,0,-1,650,1555,0,0
-567,-531,0,0,0,0,0,0,0,0,0,-1,657,1555,0,0
-560,-531,0,0,0,0,0,0,0,0,0,-1,664,1555,0,0
-553,-531,0,0,0,0,0,0,0,0,0,-1,671,1555,0,0
-546,-531,0,0,0,0,0,0,0,0,0,-1,678,1555,0,0
-539,-531,0,0,0,0,0,0,0,0,0,-1,685,1555,0,0
-532,-531,0,0,0,0,0,0,0,0,0,-1,692,1555,0,0
-525,-531,0,0,0,0,0,0,0,0,0,-1,699,1555,0,0
-518,-531,-1.63983,4.03821,0,0,0,0,0,0,0,-1,706,1555,-1.63982,-4.03821
-511,-531,-2.9682,8.07483,0,0,0,0,0,0,0,-1,713,1555,-2.9682,-8.07479
-504,-531,-2.95978,0.557861,0,0,0,0,0,0,0,-1,720,1555,-2.95978,-0.557917
-497,-531,-2.46039,8.07422,0,0,0,0,0,0,0,-1,727,1555,-2.46039,-8.07423
-490,-531,-0.423462,7.92065,0,0,0,0,0,0,0,-1,734,1555,-0.42344,-7.92066
-483,-531,-2.8222,14.467,0,0,0,0,0,0,0,-1,741,1555,-2.82218,-14.4671
-476,-531,-2.70447,15.4204,0,0,0,0,0,0,0,-1,748,1555,-2.70447,-15.4204
-469,-531,-2.43939,16.1287,0,0,0,0,0,0,0,-1,755,1555,-2.43941,-16.1287
-462,-531,-2.39392,16.4542,-0.00622903,0.00499141,0.000235366,0.00499635,-0.00623396,1.54983,0.00649693,0.0433787,762,1555,-2.39391,-16.4542
-455,-531,-2.19226,16.4718,-0.00510694,0.00446457,-0.000423128,0.00448324,-0.00512561,-1.5267,0.0055518,0.0362234,769,1555,-2.19228,-16.4718
-448,-531,-2.07892,16.7598,-0.00413588,0.00359669,-0.000759083,0.0036705,-0.00420969,-1.47386,0.00455318,0.0177318,776,1555,-2.07891,-16.7598
-441,-531,-2.16699,17.2382,-0.00318058,0.00282806,-0.000729461,0.00291535,-0.00326787,-1.4517,0.00357182,0.0126928,783,1555,-2.16697,-17.2382
-434,-531,-2.172,17.7679,-0.0022082,0.00238959,-0.00037543,0.00242004,-0.00223865,-1.48986,0.00269038,0.012211,790,1555,-2.17199,-17.7679
-427,-531,-2.16333,18.2786,-0.0011833,0.0022532,-8.15939e-06,0.00225322,-0.00118332,-1.56842,0.00201588,0.0128674,797,1555,-2.16334,-18.2785
-420,-531,-2.1958,18.7903,-0.000117912,0.00251438,0.000626614,0.00265593,-0.000259465,1.34862,0.00186314,0.011368,804,1555,-2.19579,-18.7903
-413,-531,-2.23041,19.2731,0.000899349,0.00300703,0.00146892,0.00376104,0.000145344,1.09656,0.00246034,0.0104473,811,1555,-2.23039,-19.2731
-406,-531,-2.25159,19.7593,0.00184851,0.00360117,0.00247808,0.0053533,9.63744e-05,0.955352,0.00353718,0.0119337,818,1555,-2.25157,-19.7593
-399,-531,-2.25647,20.2478,0.00265598,0.00492729,0.00321076,0.00719732,0.000385943,0.955383,0.00467488,0.0125182,825,1555,-2.25647,-20.2479
-392,-531,-2.26788,20.7321,0.00336592,0.00689697,0.00377467,0.00929861,0.000964287,1.00415,0.00590395,0.0157483,832,1555,-2.26788,-20.7321
-385,-531,-2.29834,21.2131,0.00411542,0.00878798,0.00440216,0.0114354,0.00146801,1.02935,0.00718443,0.0138776,839,1555,-2.29836,-21.2131
-378,-531,-2.3241,21.6594,0.00476551,0.0110025,0.00489616,0.0136889,0.00207906,1.06896,0.00851795,0.0164872,846,1555,-2.32412,-21.6595
-371,-531,-2.31439,22.198,0,0,0,0,0,0,0,-1,853,1555,-2.3144,-22.198
-364,-531,-2.16016,22.8374,0,0,0,0,0,0,0,-1,860,1555,-2.16016,-22.8374
-357,-531,-2.19794,23.4092,0,0,0,0,0,0,0,-1,867,1555,-2.19795,-23.4092
-350,-531,-2.89917,24.4083,0,0,0,0,0,0,0,-1,874,1555,-2.89918,-24.4083
-343,-531,-2.79218,24.9858,0,0,0,0,0,0,0,-1,881,1555,-2.79219,-24.9858
-336,-531,-2.97711,25.623,0,0,0,0,0,0,0,-1,888,1555,-2.97709,-25.623
-329,-531,-2.79071,26.1093,0,0,0,0,0,0,0,-1,895,1555,-2.79074,-26.1092
-322,-531,-3.7243,25.0143,0,0,0,0,0,0,0,-1,902,1555,-3.72428,-25.0143
-315,-531,-4.13751,24.7864,0,0,0,0,0,0,0,-1,909,1555,-4.13752,-24.7864
-308,-531,-1.66455,19.0624,0,0,0,0,0,0,0,-1,916,1555,-1.66455,-19.0623
-301,-531,-2.02405,18.8912,0,0,0,0,0,0,0,-1,923,1555,-2.02407,-18.8913
-294,-531,-1.3244,8.1825,0,0,0,0,0,0,0,-1,930,1555,-1.3244,-8.18251
-287,-531,-1.78192,10.1661,0,0,0,0,0,0,0,-1,937,1555,-1.78192,-10.1661
-280,-531,-2.14508,10.3945,0,0,0,0,0,0,0,-1,944,1555,-2.14506,-10.3945
-273,-531,-2.50818,10.6229,0,0,0,0,0,0,0,-1,951,1555,-2.5082,-10.6229
-266,-531,-4.97742,17.9215,0,0,0,0,0,0,0,-1,958,1555,-4.97744,-17.9215
-259,-531,0,0,0,0,0,0,0,0,0,-1,965,1555,0,0
-252,-531,0,0,0,0,0,0,0,0,0,-1,972,1555,0,0
-245,-531,0,0,0,0,0,0,0,0,0,-1,979,1555,0,0
-238,-531,0,0,0,0,0,0,0,0,0,-1,986,1555,0,0
-231,-531,0,0,0,0,0,0,0,0,0,-1,993,1555,0,0
-224,-531,0,0,0,0,0,0,0,0,0,-1,1000,1555,0,0
-217,-531,0,0,0,0,0,0,0,0,0,-1,1007,1555,0,0
-210,-531,0,0,0,0,0,0,0,0,0,-1,1014,1555,0,0
-203,-531,0,0,0,0,0,0,0,0,0,-1,1021,1555,0,0
-196,-531,0,0,0,0,0,0,0,0,0,-1,1028,1555,0,0
-189,-531,0,0,0,0,0,0,0,0,0,-1,1035,1555,0,0
-182,-531,0,0,0,0,0,0,0,0,0,-1,1042,1555,0,0
-175,-531,0,0,0,0,0,0,0,0,0,-1,1049,1555,0,0
-168,-531,0,0,0,0,0,0,0,0,0,-1,1056,1555,0,0
-161,-531,0,0,0,0,0,0,0,0,0,-1,1063,1555,0,0
-154,-531,0,0,0,0,0,0,0,0,0,-1,1070,1555,0,0
-147,-531,0,0,0,0,0,0,0,0,0,-1,1077,1555,0,0
-140,-531,0,0,0,0,0,0,0,0,0,-1,1084,1555,0,0
-133,-531,0,0,0,0,0,0,0,0,0,-1,1091,1555,0,0
-126,-531,0,0,0,0,0,0,0,0,0,-1,1098,1555,0,0
-119,-531,0,0,0,0,0,0,0,0,0,-1,1105,1555,0,0
-112,-531,0,0,0,0,0,0,0,0,0,-1,1112,1555,0,0
-105,-531,0,0,0,0,0,0,0,0,0,-1,1119,1555,0,0
-98,-531,0,0,0,0,0,0,0,0,0,-1,1126,1555,0,0
-91,-531,0,0,0,0,0,0,0,0,0,-1,1133,1555,0,0
-84,-531,0,0,0,0,0,0,0,0,0,-1,1140,1555,0,0
-77,-531,0,0,0,0,0,0,0,0,0,-1,1147,1555,0,0
-70,-531,0,0,0,0,0,0,0,0,0,-1,1154,1555,0,0
-63,-531,0,0,0,0,0,0,0,0,0,-1,1161,1555,0,0
-56,-531,0,0,0,0,0,0,0,0,0,-1,1168,1555,0,0
-49,-531,0,0,0,0,0,0,0,0,0,-1,1175,1555,0,0
-42,-531,0,0,0,0,0,0,0,0,0,-1,1182,1555,0,0
-35,-531,0,0,0,0,0,0,0,0,0,-1,1189,1555,0,0
-28,-531,0,0,0,0,0,0,0,0,0,-1,1196,1555,0,0
-21,-531,0,0,0,0,0,0,0,0,0,-1,1203,1555,0,0
-14,-531,0,0,0,0,0,0,0,0,0,-1,1210,1555,0,0
-7,-531,0,0,0,0,0,0,0,0,0,-1,1217,1555,0,0
0,-531,0,0,0,0,0,0,0,0,0,-1,1224,1555,0,0
7,-531,0,0,0,0,0,0,0,0,0,-1,1231,1555,0,0
14,-531,0,0,0,0,0,0,0,0,0,-1,1238,1555,0,0
21,-531,0,0,0,0,0,0,0,0,0,-1,1245,1555,0,0
28,-531,0,0,0,0,0,0,0,0,0,-1,1252,1555,0,0
35,-531,0,0,0,0,0,0,0,0,0,-1,1259,1555,0,0
42,-531,0,0,0,0,0,0,0,0,0,-1,1266,1555,0,0
49,-531,0,0,0,0,0,0,0,0,0,-1,1273,1555,0,0
56,-531,0,0,0,0,0,0,0,0,0,-1,1280,1555,0,0
63,-531,0,0,0,0,0,0,0,0,0,-1,1287,1555,0,0
70,-531,0,0,0,0,0,0,0,0,0,-1,1294,1555,0,0
77,-531,0,0,0,0,0,0,0,0,0,-1,1301,1555,0,0
84,-531,0,0,0,0,0,0,0,0,0,-1,1308,1555,0,0
91,-531,0,0,0,0,0,0,0,0,0,-1,1315,1555,0,0
98,-531,0,0,0,0,0,0,0,0,0,-1,1322,1555,0,0
105,-531,0,0,0,0,0,0,0,0,0,-1,1329,1555,0,0
112,-531,0,0,0,0,0,0,0,0,0,-1,1336,1555,0,0
119,-531,0,0,0,0,0,0,0,0,0,-1,1343,1555,0,0
126,-531,0,0,0,0,0,0,0,0,0,-1,1350,1555,0,0
133,-531,0,0,0,0,0,0,0,0,0,-1,1357,1555,0,0
140,-531,0,0,0,0,0,0,0,0,0,-1,1364,1555,0,0
147,-531,0,0,0,0,0,0,0,0,0,-1,1371,1555,0,0
154,-531,0,0,0,0,0,0,0,0,0,-1,1378,1555,0,0
161,-531,0,0,0,0,0,0,0,0,0,-1,1385,1555,0,0
168,-531,0,0,0,0,0,0,0,0,0,-1,1392,1555,0,0
175,-531,0,0,0,0,0,0,0,0,0,-1,1399,1555,0,0
182,-531,0,0,0,0,0,0,0,0,0,-1,1406,1555,0,0
189,-531,0,0,0,0,0,0,0,0,0,-1,1413,1555,0,0
196,-531,0,0,0,0,0,0,0,0,0,-1,1420,1555,0,0
203,-531,0,0,0,0,0,0,0,0,0,-1,1427,1555,0,0
210,-531,0,0,0,0,0,0,0,0,0,-1,1434,1555,0,0
217,-531,0,0,0,0,0,0,0,0,0,-1,1441,1555,0,0
224,-531,0,0,0,0,0,0,0,0,0,-1,1448,1555,0,0
231,-531,0,0,0,0,0,0,0,0,0,-1,1455,1555,0,0
238,-531,0,0,0,0,0,0,0,0,0,-1,1462,1555,0,0
245,-531,0,0,0,0,0,0,0,0,0,-1,1469,1555,0,0
252,-531,0,0,0,0,0,0,0,0,0,-1,1476,1555,0,0
259,-531,0,0,0,0,0,0,0,0,0,-1,1483,1555,0,0
266,-531,0,0,0,0,0,0,0,0,0,-1,1490,1555,0,0
273,-531,0,0,0,0,0,0,0,0,0,-1,1497,1555,0,0
280,-531,0,0,0,0,0,0,0,0,0,-1,1504,1555,0,0
287,-531,0,0,0,0,0,0,0,0,0,-1,1511,1555,0,0
294,-531,0,0,0,0,0,0,0,0,0,-1,1518,1555,0,0
301,-531,0,0,0,0,0,0,0,0,0,-1,1525,1555,0,0
308,-531,0,0,0,0,0,0,0,0,0,-1,1532,1555,0,0
315,-531,0,0,0,0,0,0,0,0,0,-1,1539,1555,0,0
322,-531,0,0,0,0,0,0,0,0,0,-1,1546,1555,0,0
329,-531,0,0,0,0,0,0,0,0,0,-1,1553,1555,0,0
336,-531,0,0,0,0,0,0,0,0,0,-1,1560,1555,0,0
343,-531,0,0,0,0,0,0,0,0,0,-1,1567,1555,0,0
350,-531,0,0,0,0,0,0,0,0,0,-1,1574,1555,0,0
357,-531,0,0,0,0,0,0,0,0,0,-1,1581,1555,0,0
364,-531,0,0,0,0,0,0,0,0,0,-1,1588,1555,0,0
371,-531,0,0,0,0,0,0,0,0,0,-1,1595,1555,0,0
378,-531,0,0,0,0,0,0,0,0,0,-1,1602,1555,0,0
385,-531,3.48169,1.78625,0,0,0,0,0,0,0,-1,1609,1555,3.48165,-1.78624
392,-531,10.8781,9.09204,0,0,0,0,0,0,0,-1,1616,1555,10.8781,-9.09205
399,-531,8.26306,5.29602,0,0,0,0,0,0,0,-1,1623,1555,8.26302,-5.29607
406,-531,8.26147,5.42712,0,0,0,0,0,0,0,-1,1630,1555,8.26145,-5.42716
413,-531,8.20618,5.75012,0,0,0,0,0,0,0,-1,1637,1555,8.20619,-5.75017
420,-531,7.64868,7.09558,0,0,0,0,0,0,0,-1,1644,1555,7.64867,-7.09564
427,-531,9.93054,11.8412,0,0,0,0,0,0,0,-1,1651,1555,9.93059,-11.8412
434,-531,10.244,11.7072,0,0,0,0,0,0,0,-1,1658,1555,10.244,-11.7071
441,-531,11.4528,12.9397,0,0,0,0,0,0,0,-1,1665,1555,11.4528,-12.9397
448,-531,11.928,18.8029,0,0,0,0,0,0,0,-1,1672,1555,11.928,-18.8028
455,-531,14.4877,9.67065,0,0,0,0,0,0,0,-1,1679,1555,14.4876,-9.67066
462,-531,13.5253,12.2002,0,0,0,0,0,0,0,-1,1686,1555,13.5252,-12.2002
469,-531,15.5087,15.7894,0,0,0,0,0,0,0,-1,1693,1555,15.5086,-15.7895
476,-531,14.6582,16.2264,0,0,0,0,0,0,0,-1,1700,1555,14.6582,-16.2264
483,-531,14.755,18.5994,0,0,0,0,0,0,0,-1,1707,1555,14.7551,-18.5994
490,-531,15.4741,22.5215,0,0,0,0,0,0,0,-1,1714,1555,15.4741,-22.5214
497,-531,17.1572,23.9835,0,0,0,0,0,0,0,-1,1721,1555,17.1573,-23.9835
504,-531,17.2964,23.3058,0.00757019,0.00934767,-0.00658605,0.0151047,0.00181318,-0.852465,0.0095231,0.0347922,1728,1555,17.2963,-23.3058
511,-531,17.4127,22.7732,0.00660882,0.00760564,-0.00552592,0.0126556,0.00155887,-0.830374,0.00796842,0.016077,1735,1555,17.4127,-22.7732
518,-531,17.4257,22.2933,0.0054024,0.00577628,-0.00427735,0.00987077,0.00130791,-0.807237,0.00619077,0.0152377,1742,1555,17.4257,-22.2934
525,-531,17.4178,21.8397,0.004131,0.00419079,-0.00315259,0.00731363,0.00100816,-0.790139,0.00457686,0.0149235,1749,1555,17.4179,-21.8397
532,-531,17.433,21.3679,0.00295952,0.00284252,-0.0021287,0.00503052,0.000771511,-0.771661,0.00312839,0.0111075,1756,1555,17.433,-21.3679
539,-531,17.4143,20.91,0.00197986,0.00168985,-0.00123355,0.00307689,0.000592811,-0.726891,0.00188499,0.0120212,1763,1555,17.4143,-20.91
546,-531,17.3815,20.4442,0.00107341,0.000552766,-0.000365635,0.00126192,0.000364248,-0.476042,0.000749956,0.0152882,1770,1555,17.3815,-20.4442
553,-531,17.4537,20.0242,0.000279717,-0.000418874,0.000423128,0.000479097,-0.000618253,0.440347,0.000635251,0.0304613,1777,1555,17.4537,-20.0242
560,-531,17.4501,19.5663,-0.000280373,-0.00119067,0.00103624,0.000396273,-0.00186731,0.578468,0.00139584,0.0334488,1784,1555,17.4501,-19.5663
567,-531,17.3116,19.0464,0.000138562,-0.00208217,0.00126985,0.000715034,-0.00265864,0.42615,0.00205271,0.0197491,1791,1555,17.3116,-19.0464
574,-531,17.3037,18.5778,0.000758132,-0.00267678,0.00130632,0.00119848,-0.00311713,0.325129,0.00257239,0.0140636,1798,1555,17.3037,-18.5778
581,-531,17.3521,18.0867,0.00223966,-0.00320247,0.000896278,0.00238347,-0.00334628,0.159096,0.00332361,0.0185128,1805,1555,17.3521,-18.0867
588,-531,17.3988,17.5588,0.00479031,-0.00369657,6.56728e-05,0.00479082,-0.00369708,0.00773754,0.00491403,0.0362351,1812,1555,17.3988,-17.5589
595,-531,17.4034,16.9751,0,0,0,0,0,0,0,-1,1819,1555,17.4035,-16.9751
602,-531,13.701,11.8346,0,0,0,0,0,0,0,-1,1826,1555,13.701,-11.8347
609,-531,10.9072,8.50903,0,0,0,0,0,0,0,-1,1833,1555,10.9073,-8.50902
616,-531,10.5723,7.17859,0,0,0,0,0,0,0,-1,1840,1555,10.5723,-7.17855
623,-531,10.0674,5.08984,0,0,0,0,0,0,0,-1,1847,1555,10.0674,-5.08981
630,-531,11.672,3.18909,0,0,0,0,0,0,0,-1,1854,1555,11.672,-3.18904
637,-531,13.2546,1.38965,0,0,0,0,0,0,0,-1,1861,1555,13.2547,-1.3896
644,-531,0,0,0,0,0,0,0,0,0,-1,1868,1555,0,0
651,-531,0,0,0,0,0,0,0,0,0,-1,1875,1555,0,0
658,-531,0,0,0,0,0,0,0,0,0,-1,1882,1555,0,0
665,-531,0,0,0,0,0,0,0,0,0,-1,1889,1555,0,0
672,-531,0,0,0,0,0,0,0,0,0,-1,1896,1555,0,0
679,-531,0,0,0,0,0,0,0,0,0,-1,1903,1555,0,0
686,-531,0,0,0,0,0,0,0,0,0,-1,1910,1555,0,0
693,-531,0,0,0,0,0,0,0,0,0,-1,1917,1555,0,0
700,-531,0,0,0,0,0,0,0,0,0,-1,1924,1555,0,0
707,-531,0,0,0,0,0,0,0,0,0,-1,1931,1555,0,0
714,-531,0,0,0,0,0,0,0,0,0,-1,1938,1555,0,0
721,-531,0,0,0,0,0,0,0,0,0,-1,1945,1555,0,0
728,-531,0,0,0,0,0,0,0,0,0,-1,1952,1555,0,0
735,-531,0,0,0,0,0,0,0,0,0,-1,1959,1555,0,0
742,-531,0,0,0,0,0,0,0,0,0,-1,1966,1555,0,0
749,-531,0,0,0,0,0,0,0,0,0,-1,1973,1555,0,0
756,-531,0,0,0,0,0,0,0,0,0,-1,1980,1555,0,0
763,-531,0,0,0,0,0,0,0,0,0,-1,1987,1555,0,0
770,-531,0,0,0,0,0,0,0,0,0,-1,1994,1555,0,0
777,-531,0,0,0,0,0,0,0,0,0,-1,2001,1555,0,0
784,-531,0,0,0,0,0,0,0,0,0,-1,2008,1555,0,0
791,-531,0,0,0,0,0,0,0,0,0,-1,2015,1555,0,0
798,-531,0,0,0,0,0,0,0,0,0,-1,2022,1555,0,0
805,-531,0,0,0,0,0,0,0,0,0,-1,2029,1555,0,0
812,-531,0,0,0,0,0,0,0,0,0,-1,2036,1555,0,0
-700,-538,0,0,0,0,0,0,0,0,0,-1,524,1562,0,0
-693,-538,0,0,0,0,0,0,0,0,0,-1,531,1562,0,0
-686,-538,0,0,0,0,0,0,0,0,0,-1,538,1562,0,0
-679,-538,0,0,0,0,0,0,0,0,0,-1,545,1562,0,0
-672,-538,0,0,0,0,0,0,0,0,0,-1,552,1562,0,0
-665,-538,0,0,0,0,0,0,0,0,0,-1,559,1562,0,0
-658,-538,0,0,0,0,0,0,0,0,0,-1,566,1562,0,0
-651,-538,0,0,0,0,0,0,0,0,0,-1,573,1562,0,0
-644,-538,0,0,0,0,0,0,0,0,0,-1,580,1562,0,0
-637,-538,0,0,0,0,0,0,0,0,0,-1,587,1562,0,0
-630,-538,0,0,0,0,0,0,0,0,0,-1,594,1562,0,0
-623,-538,0,0,0,0,0,0,0,0,0,-1,601,1562,0,0
-616,-538,0,0,0,0,0,0,0,0,0,-1,608,1562,0,0
-609,-538,0,0,0,0,0,0,0,0,0,-1,615,1562,0,0
-602,-538,0,0,0,0,0,0,0,0,0,-1,622,1562,0,0
-595,-538,0,0,0,0,0,0,0,0,0,-1,629,1562,0,0
-588,-538,0,0,0,0,0,0,0,0,0,-1,636,1562,0,0
-581,-538,0,0,0,0,0,0,0,0,0,-1,643,1562,0,0
-574,-538,0,0,0,0,0,0,0,0,0,-1,650,1562,0,0
-567,-538,0,0,0,0,0,0,0,0,0,-1,657,1562,0,0
-560,-538,0,0,0,0,0,0,0,0,0,-1,664,1562,0,0
-553,-538,0,0,0,0,0,0,0,0,0,-1,671,1562,0,0
-546,-538,0,0,0,0,0,0,0,0,0,-1,678,1562,0,0
-539,-538,0,0,0,0,0,0,0,0,0,-1,685,1562,0,0
-532,-538,0,0,0,0,0,0,0,0,0,-1,692,1562,0,0
-525,-538,0,0,0,0,0,0,0,0,0,-1,699,1562,0,0
-518,-538,0,0,0,0,0,0,0,0,0,-1,706,1562,0,0
-511,-538,-2.6582,-1.54321,0,0,0,0,0,0,0,-1,713,1562,-2.65821,1.54327
-504,-538,-2.66455,-0.71167,0,0,0,0,0,0,0,-1,720,1562,-2.66456,0.711667
-497,-538,-0.763855,6.77747,0,0,0,0,0,0,0,-1,727,1562,-0.76385,-6.77743
-490,-538,-2.70453,8.01465,0,0,0,0,0,0,0,-1,734,1562,-2.70451,-8.0147
-483,-538,-0.933533,7.84644,0,0,0,0,0,0,0,-1,741,1562,-0.933548,-7.84638
-476,-538,-0.594482,13.5573,0,0,0,0,0,0,0,-1,748,1562,-0.594468,-13.5573
-469,-538,-0.733276,14.5995,0,0,0,0,0,0,0,-1,755,1562,-0.733287,-14.5995
-462,-538,-1.18207,15.4468,-0.00710625,0.00929071,0.000836451,0.00933327,-0.00714881,1.51996,0.00954375,0.0473994,762,1562,-1.18206,-15.4467
-455,-538,-1.59564,16.2516,-0.00604554,0.00767503,-0.000138919,0.00767644,-0.00604695,-1.56067,0.0079418,0.0408982,769,1562,-1.59564,-16.2516
-448,-538,-1.54797,16.8739,-0.00519182,0.00577188,-0.000812198,0.00583173,-0.00525166,-1.49725,0.00640192,0.0192777,776,1562,-1.548,-16.8739
-441,-538,-1.63409,17.3601,-0.00433572,0.00422855,-0.00103963,0.00435295,-0.00446012,-1.45171,0.00508835,0.0223386,783,1562,-1.63409,-17.3601
-434,-538,-1.69037,17.7853,-0.0034197,0.00310908,-0.000896832,0.00323003,-0.00354066,-1.43674,0.00391043,0.012402,790,1562,-1.69037,-17.7853
-427,-538,-1.70276,18.3085,-0.00243987,0.00246414,-0.000731585,0.00257096,-0.00254669,-1.42582,0.00295468,0.0126559,797,1562,-1.70276,-18.3085
-420,-538,-1.71918,18.7942,-0.00141613,0.00238429,-0.000242267,0.00239968,-0.00143151,-1.50739,0.00223535,0.0172845,804,1562,-1.71919,-18.7942
-413,-538,-1.75397,19.2825,-0.000447787,0.00255698,0.000456922,0.00262493,-0.000515733,1.42318,0.00194479,0.0181285,811,1562,-1.75396,-19.2825
-406,-538,-1.7652,19.7866,0.000490476,0.00265269,0.00136912,0.00331608,-0.000172918,1.11959,0.00227056,0.0147941,818,1562,-1.76521,-19.7866
-399,-538,-1.76263,20.2867,0.00127945,0.00355502,0.0019728,0.00469463,0.000139852,1.04697,0.00308419,0.0135277,825,1562,-1.76263,-20.2868
-392,-538,-1.78015,20.7644,0.00197737,0.00508937,0.00243021,0.00641903,0.000647711,1.07015,0.00408062,0.0143345,832,1562,-1.78016,-20.7644
-385,-538,-1.80774,21.2351,0.00274599,0.00653352,0.00293064,0.00812902,0.00115049,1.07225,0.00507947,0.0125959,839,1562,-1.80773,-21.2351
-378,-538,-1.82129,21.7131,0.00346328,0.00829476,0.00336106,0.0100182,0.00173987,1.097,0.00618099,0.0106178,846,1562,-1.82131,-21.7131
-371,-538,-1.85144,22.1644,0.00396476,0.0101349,0.00357621,0.0117728,0.00232681,1.1413,0.00719941,0.0136513,853,1562,-1.85144,-22.1645
-364,-538,-1.7912,22.7079,0.00446777,0.0122901,0.00372396,0.0137794,0.00297846,1.19035,0.00837195,0.0176945,860,1562,-1.79118,-22.7079
-357,-538,-1.74957,23.2869,0.00492409,0.0147727,0.00369503,0.0160048,0.00369193,1.24893,0.00967693,0.038517,867,1562,-1.7496,-23.2869
-350,-538,-2.04437,23.8541,0.00540068,0.0176686,0.00357141,0.0186325,0.00443672,1.30717,0.0112386,0.0449585,874,1562,-2.0444,-23.8541
-343,-538,-2.05121,24.49,0.00569714,0.0209718,0.00302935,0.0215507,0.00511829,1.38199,0.0130013,0.0439119,881,1562,-2.05121,-24.49
-336,-538,-2.10938,25.1318,0,0,0,0,0,0,0,-1,888,1562,-2.10939,-25.1319
-329,-538,-2.16193,25.6169,0,0,0,0,0,0,0,-1,895,1562,-2.16193,-25.6169
-322,-538,-2.42236,25.8157,0,0,0,0,0,0,0,-1,902,1562,-2.42236,-25.8157
-315,-538,-3.80261,24.2098,0,0,0,0,0,0,0,-1,909,1562,-3.80261,-24.2098
-308,-538,-4.33704,23.9226,0,0,0,0,0,0,0,-1,916,1562,-4.33704,-23.9226
-301,-538,-0.452393,18.5101,0,0,0,0,0,0,0,-1,923,1562,-0.452367,-18.5102
-294,-538,1.23138,14.0757,0,0,0,0,0,0,0,-1,930,1562,1.23137,-14.0757
-287,-538,-2.60419,10.2361,0,0,0,0,0,0,0,-1,937,1562,-2.6042,-10.2361
-280,-538,-2.93475,10.5106,0,0,0,0,0,0,0,-1,944,1562,-2.93475,-10.5106
-273,-538,-3.26532,10.785,0,0,0,0,0,0,0,-1,951,1562,-3.26531,-10.785
-266,-538,-5.03412,15.9951,0,0,0,0,0,0,0,-1,958,1562,-5.03409,-15.9951
-259,-538,-5.89642,16.5184,0,0,0,0,0,0,0,-1,965,1562,-5.89644,-16.5184
-252,-538,0,0,0,0,0,0,0,0,0,-1,972,1562,0,0
-245,-538,0,0,0,0,0,0,0,0,0,-1,979,1562,0,0
-238,-538,0,0,0,0,0,0,0,0,0,-1,986,1562,0,0
-231,-538,0,0,0,0,0,0,0,0,0,-1,993,1562,0,0
-224,-538,0,0,0,0,0,0,0,0,0,-1,1000,1562,0,0
-217,-538,0,0,0,0,0,0,0,0,0,-1,1007,1562,0,0
-210,-538,0,0,0,0,0,0,0,0,0,-1,1014,1562,0,0
-203,-538,0,0,0,0,0,0,0,0,0,-1,1021,1562,0,0
-196,-538,0,0,0,0,0,0,0,0,0,-1,1028,1562,0,0
-189,-538,0,0,0,0,0,0,0,0,0,-1,1035,1562,0,0
-182,-538,0,0,0,0,0,0,0,0,0,-1,1042,1562,0,0
-175,-538,0,0,0,0,0,0,0,0,0,-1,1049,1562,0,0
-168,-538,0,0,0,0,0,0,0,0,0,-1,1056,1562,0,0
-161,-538,0,0,0,0,0,0,0,0,0,-1,1063,1562,0,0
-154,-538,0,0,0,0,0,0,0,0,0,-1,1070,1562,0,0
-147,-538,0,0,0,0,0,0,0,0,0,-1,1077,1562,0,0
-140,-538,0,0,0,0,0,0,0,0,0,-1,1084,1562,0,0
-133,-538,0,0,0,0,0,0,0,0,0,-1,1091,1562,0,0
-126,-538,0,0,0,0,0,0,0,0,0,-1,1098,1562,0,0
-119,-538,0,0,0,0,0,0,0,0,0,-1,1105,1562,0,0
-112,-538,0,0,0,0,0,0,0,0,0,-1,1112,1562,0,0
-105,-538,0,0,0,0,0,0,0,0,0,-1,1119,1562,0,0
-98,-538,0,0,0,0,0,0,0,0,0,-1,1126,1562,0,0
-91,-538,0,0,0,0,0,0,0,0,0,-1,1133,1562,0,0
-84,-538,0,0,0,0,0,0,0,0,0,-1,1140,1562,0,0
-77,-538,0,0,0,0,0,0,0,0,0,-1,1147,1562,0,0
-70,-538,0,0,0,0,0,0,0,0,0,-1,1154,1562,0,0
-63,-538,0,0,0,0,0,0,0,0,0,-1,1161,1562,0,0
-56,-538,0,0,0,0,0,0,0,0,0,-1,1168,1562,0,0
-49,-538,0,0,0,0,0,0,0,0,0,-1,1175,1562,0,0
-42,-538,0,0,0,0,0,0,0,0,0,-1,1182,1562,0,0
-35,-538,0,0,0,0,0,0,0,0,0,-1,1189,1562,0,0
-28,-538,0,0,0,0,0,0,0,0,0,-1,1196,1562,0,0
-21,-538,0,0,0,0,0,0,0,0,0,-1,1203,1562,0,0
-14,-538,0,0,0,0,0,0,0,0,0,-1,1210,1562,0,0
-7,-538,0,0,0,0,0,0,0,0,0,-1,1217,1562,0,0
0,-538,0,0,0,0,0,0,0,0,0,-1,1224,1562,0,0
7,-538,0,0,0,0,0,0,0,0,0,-1,1231,1562,0,0
14,-538,0,0,0,0,0,0,0,0,0,-1,1238,1562,0,0
21,-538,0,0,0,0,0,0,0,0,0,-1,1245,1562,0,0
28,-538,0,0,0,0,0,0,0,0,0,-1,1252,1562,0,0
35,-538,0,0,0,0,0,0,0,0,0,-1,1259,1562,0,0
42,-538,0,0,0,0,0,0,0,0,0,-1,1266,1562,0,0
49,-538,0,0,0,0,0,0,0,0,0,-1,1273,1562,0,0
56,-538,0,0,0,0,0,0,0,0,0,-1,1280,1562,0,0
63,-538,0,0,0,0,0,0,0,0,0,-1,1287,1562,0,0
70,-538,0,0,0,0,0,0,0,0,0,-1,1294,1562,0,0
77,-538,0,0,0,0,0,0,0,0,0,-1,1301,1562,0,0
84,-538,0,0,0,0,0,0,0,0,0,-1,1308,1562,0,0
91,-538,0,0,0,0,0,0,0,0,0,-1,1315,1562,0,0
98,-538,0,0,0,0,0,0,0,0,0,-1,1322,1562,0,0
105,-538,0,0,0,0,0,0,0,0,0,-1,1329,1562,0,0
112,-538,0,0,0,0,0,0,0,0,0,-1,1336,1562,0,0
119,-538,0,0,0,0,0,0,0,0,0,-1,1343,1562,0,0
126,-538,0,0,0,0,0,0,0,0,0,-1,1350,1562,0,0
133,-538,0,0,0,0,0,0,0,0,0,-1,1357,1562,0,0
140,-538,0,0,0,0,0,0,0,0,0,-1,1364,1562,0,0
147,-538,0,0,0,0,0,0,0,0,0,-1,1371,1562,0,0
154,-538,0,0,0,0,0,0,0,0,0,-1,1378,1562,0,0
161,-538,0,0,0,0,0,0,0,0,0,-1,1385,1562,0,0
168,-538,0,0,0,0,0,0,0,0,0,-1,1392,1562,0,0
175,-538,0,0,0,0,0,0,0,0,0,-1,1399,1562,0,0
182,-538,0,0,0,0,0,0,0,0,0,-1,1406,1562,0,0
189,-538,0,0,0,0,0,0,0,0,0,-1,1413,1562,0,0
196,-538,0,0,0,0,0,0,0,0,0,-1,1420,1562,0,0
203,-538,0,0,0,0,0,0,0,0,0,-1,1427,1562,0,0
210,-538,0,0,0,0,0,0,0,0,0,-1,1434,1562,0,0
217,-538,0,0,0,0,0,0,0,0,0,-1,1441,1562,0,0
224,-538,0,0,0,0,0,0,0,0,0,-1,1448,1562,0,0
231,-538,0,0,0,0,0,0,0,0,0,-1,1455,1562,0,0
238,-538,0,0,0,0,0,0,0,0,0,-1,1462,1562,0,0
245,-538,0,0,0,0,0,0,0,0,0,-1,1469,1562,0,0
252,-538,0,0,0,0,0,0,0,0,0,-1,1476,1562,0,0
259,-538,0,0,0,0,0,0,0,0,0,-1,1483,1562,0,0
266,-538,0,0,0,0,0,0,0,0,0,-1,1490,1562,0,0
273,-538,0,0,0,0,0,0,0,0,0,-1,1497,1562,0,0
280,-538,0,0,0,0,0,0,0,0,0,-1,1504,1562,0,0
287,-538,0,0,0,0,0,0,0,0,0,-1,1511,1562,0,0
294,-538,0,0,0,0,0,0,0,0,0,-1,1518,1562,0,0
301,-538,0,0,0,0,0,0,0,0,0,-1,1525,1562,0,0
308,-538,0,0,0,0,0,0,0,0,0,-1,1532,1562,0,0
315,-538,0,0,0,0,0,0,0,0,0,-1,1539,1562,0,0
322,-538,0,0,0,0,0,0,0,0,0,-1,1546,1562,0,0
329,-538,0,0,0,0,0,0,0,0,0,-1,1553,1562,0,0
336,-538,0,0,0,0,0,0,0,0,0,-1,1560,1562,0,0
343,-538,0,0,0,0,0,0,0,0,0,-1,1567,1562,0,0
350,-538,0,0,0,0,0,0,0,0,0,-1,1574,1562,0,0
357,-538,0,0,0,0,0,0,0,0,0,-1,1581,1562,0,0
364,-538,0,0,0,0,0,0,0,0,0,-1,1588,1562,0,0
371,-538,0,0,0,0,0,0,0,0,0,-1,1595,1562,0,0
378,-538,9.65479,5.82434,0,0,0,0,0,0,0,-1,1602,1562,9.6548,-5.82439
385,-538,10.5449,7.9502,0,0,0,0,0,0,0,-1,1609,1562,10.5449,-7.95014
392,-538,8.20361,7.07214,0,0,0,0,0,0,0,-1,1616,1562,8.20362,-7.07211
399,-538,7.85425,4.70508,0,0,0,0,0,0,0,-1,1623,1562,7.85425,-4.70512
406,-538,7.77734,4.96094,0,0,0,0,0,0,0,-1,1630,1562,7.77729,-4.96097
413,-538,13.0446,13.1765,0,0,0,0,0,0,0,-1,1637,1562,13.0446,-13.1765
420,-538,9.96216,12.7653,0,0,0,0,0,0,0,-1,1644,1562,9.96221,-12.7653
427,-538,10.1732,14.5863,0,0,0,0,0,0,0,-1,1651,1562,10.1732,-14.5863
434,-538,9.64331,14.7745,0,0,0,0,0,0,0,-1,1658,1562,9.64326,-14.7746
441,-538,11.5039,20.5195,0,0,0,0,0,0,0,-1,1665,1562,11.5039,-20.5195
448,-538,12.8766,22.4932,0,0,0,0,0,0,0,-1,1672,1562,12.8766,-22.4932
455,-538,12.5693,17.4128,0,0,0,0,0,0,0,-1,1679,1562,12.5694,-17.4128
462,-538,12.1389,17.017,0,0,0,0,0,0,0,-1,1686,1562,12.1389,-17.017
469,-538,14.3802,16.6945,0,0,0,0,0,0,0,-1,1693,1562,14.3803,-16.6945
476,-538,13.724,19.0608,0,0,0,0,0,0,0,-1,1700,1562,13.724,-19.0608
483,-538,16.0903,24.2487,0,0,0,0,0,0,0,-1,1707,1562,16.0904,-24.2486
490,-538,16.7672,24.2754,0,0,0,0,0,0,0,-1,1714,1562,16.7672,-24.2754
497,-538,16.9747,23.6483,0,0,0,0,0,0,0,-1,1721,1562,16.9747,-23.6484
504,-538,16.9978,23.178,0.00562877,0.00755695,-0.00495079,0.0116367,0.00154907,-0.881562,0.00729643,0.0154333,1728,1562,16.9978,-23.1779
511,-538,16.9703,22.7214,0.00480875,0.00593328,-0.00401616,0.00942634,0.00131569,-0.854946,0.00589481,0.0100179,1735,1562,16.9704,-22.7215
518,-538,16.9551,22.2721,0.0037914,0.0042491,-0.00294333,0.00697246,0.00106804,-0.824196,0.00433636,0.0114101,1742,1562,16.9551,-22.2721
525,-538,16.9399,21.8345,0.00273449,0.00279162,-0.00195545,0.00471872,0.000807393,-0.792701,0.0029142,0.0125631,1749,1562,16.94,-21.8344
532,-538,16.9458,21.3989,0.00175359,0.0015269,-0.00103935,0.00268576,0.000594732,-0.731087,0.00162886,0.0133041,1756,1562,16.9458,-21.3989
539,-538,16.9484,20.9552,0.000886889,0.000419267,-0.000202957,0.000962689,0.000343467,-0.357437,0.000563358,0.0153357,1763,1562,16.9483,-20.9552
546,-538,16.9192,20.4503,1.56979e-05,-0.000725232,0.000669961,0.000410799,-0.00112033,0.53284,0.000915092,0.016621,1770,1562,16.9192,-20.4503
553,-538,16.949,19.9843,-0.000790044,-0.00174047,0.00150968,0.000317456,-0.00284797,0.63292,0.00201282,0.0278927,1777,1562,16.949,-19.9843
560,-538,16.922,19.6146,-0.00138503,-0.00255647,0.00219748,0.000303444,-0.00424495,0.655155,0.00293635,0.0294829,1784,1562,16.922,-19.6147
567,-538,16.8374,19.0912,-0.00103684,-0.00350905,0.00254937,0.000560295,-0.00510618,0.559664,0.00360543,0.0220723,1791,1562,16.8374,-19.0912
574,-538,16.7946,18.6012,-0.000466455,-0.00417985,0.00270301,0.000956117,-0.00560242,0.484459,0.00409107,0.023739,1798,1562,16.7945,-18.6013
581,-538,16.8738,18.1244,0.00112716,-0.00470059,0.00229386,0.00192172,-0.00549515,0.33345,0.00444471,0.0323561,1805,1562,16.8738,-18.1244
588,-538,16.9073,17.6342,0,0,0,0,0,0,0,-1,1812,1562,16.9074,-17.6342
595,-538,15.9808,16.0894,0,0,0,0,0,0,0,-1,1819,1562,15.9808,-16.0893
602,-538,10.314,8.94238,0,0,0,0,0,0,0,-1,1826,1562,10.314,-8.94238
609,-538,10.1046,7.05713,0,0,0,0,0,0,0,-1,1833,1562,10.1046,-7.05719
616,-538,9.92249,5.43506,0,0,0,0,0,0,0,-1,1840,1562,9.92254,-5.43507
623,-538,11.1711,4.31604,0,0,0,0,0,0,0,-1,1847,1562,11.1711,-4.316
630,-538,12.6112,2.61633,0,0,0,0,0,0,0,-1,1854,1562,12.6112,-2.61637
637,-538,0,0,0,0,0,0,0,0,0,-1,1861,1562,0,0
644,-538,0,0,0,0,0,0,0,0,0,-1,1868,1562,0,0
651,-538,0,0,0,0,0,0,0,0,0,-1,1875,1562,0,0
658,-538,0,0,0,0,0,0,0,0,0,-1,1882,1562,0,0
665,-538,0,0,0,0,0,0,0,0,0,-1,1889,1562,0,0
672,-538,0,0,0,0,0,0,0,0,0,-1,1896,1562,0,0
679,-538,0,0,0,0,0,0,0,0,0,-1,1903,1562,0,0
686,-538,0,0,0,0,0,0,0,0,0,-1,1910,1562,0,0
693,-538,0,0,0,0,0,0,0,0,0,-1,1917,1562,0,0
700,-538,0,0,0,0,0,0,0,0,0,-1,1924,1562,0,0
707,-538,0,0,0,0,0,0,0,0,0,-1,1931,1562,0,0
714,-538,0,0,0,0,0,0,0,0,0,-1,1938,1562,0,0
721,-538,0,0,0,0,0,0,0,0,0,-1,1945,1562,0,0
728,-538,0,0,0,0,0,0,0,0,0,-1,1952,1562,0,0
735,-538,0,0,0,0,0,0,0,0,0,-1,1959,1562,0,0
742,-538,0,0,0,0,0,0,0,0,0,-1,1966,1562,0,0
749,-538,0,0,0,0,0,0,0,0,0,-1,1973,1562,0,0
756,-538,0,0,0,0,0,0,0,0,0,-1,1980,1562,0,0
763,-538,0,0,0,0,0,0,0,0,0,-1,1987,1562,0,0
770,-538,0,0,0,0,0,0,0,0,0,-1,1994,1562,0,0
777,-538,0,0,0,0,0,0,0,0,0,-1,2001,1562,0,0
784,-538,0,0,0,0,0,0,0,0,0,-1,2008,1562,0,0
791,-538,0,0,0,0,0,0,0,0,0,-1,2015,1562,0,0
798,-538,0,0,0,0,0,0,0,0,0,-1,2022,1562,0,0
805,-538,0,0,0,0,0,0,0,0,0,-1,2029,1562,0,0
812,-538,0,0,0,0,0,0,0,0,0,-1,2036,1562,0,0
-700,-545,0,0,0,0,0,0,0,0,0,-1,524,1569,0,0
-693,-545,0,0,0,0,0,0,0,0,0,-1,531,1569,0,0
-686,-545,0,0,0,0,0,0,0,0,0,-1,538,1569,0,0
-679,-545,0,0,0,0,0,0,0,0,0,-1,545,1569,0,0
-672,-545,0,0,0,0,0,0,0,0,0,-1,552,1569,0,0
-665,-545,0,0,0,0,0,0,0,0,0,-1,559,1569,0,0
-658,-545,0,0,0,0,0,0,0,0,0,-1,566,1569,0,0
-651,-545,0,0,0,0,0,0,0,0,0,-1,573,1569,0,0
-644,-545,0,0,0,0,0,0,0,0,0,-1,580,1569,0,0
-637,-545,0,0,0,0,0,0,0,0,0,-1,587,1569,0,0
-630,-545,0,0,0,0,0,0,0,0,0,-1,594,1569,0,0
-623,-545,0,0,0,0,0,0,0,0,0,-1,601,1569,0,0
-616,-545,0,0,0,0,0,0,0,0,0,-1,608,1569,0,0
-609,-545,0,0,0,0,0,0,0,0,0,-1,615,1569,0,0
-602,-545,0,0,0,0,0,0,0,0,0,-1,622,1569,0,0
-595,-545,0,0,0,0,0,0,0,0,0,-1,629,1569,0,0
-588,-545,0,0,0,0,0,0,0,0,0,-1,636,1569,0,0
-581,-545,0,0,0,0,0,0,0,0,0,-1,643,1569,0,0
-574,-545,0,0,0,0,0,0,0,0,0,-1,650,1569,0,0
-567,-545,0,0,0,0,0,0,0,0,0,-1,657,1569,0,0
-560,-545,0,0,0,0,0,0,0,0,0,-1,664,1569,0,0
-553,-545,0,0,0,0,0,0,0,0,0,-1,671,1569,0,0
-546,-545,0,0,0,0,0,0,0,0,0,-1,678,1569,0,0
-539,-545,0,0,0,0,0,0,0,0,0,-1,685,1569,0,0
-532,-545,0,0,0,0,0,0,0,0,0,-1,692,1569,0,0
-525,-545,0,0,0,0,0,0,0,0,0,-1,699,1569,0,0
-518,-545,0,0,0,0,0,0,0,0,0,-1,706,1569,0,0
-511,-545,0,0,0,0,0,0,0,0,0,-1,713,1569,0,0
-504,-545,-3.55237,-2.5354,0,0,0,0,0,0,0,-1,720,1569,-3.55236,2.53545
-497,-545,2.26575,5.69214,0,0,0,0,0,0,0,-1,727,1569,2.26573,-5.6922
-490,-545,-2.17334,7.81396,0,0,0,0,0,0,0,-1,734,1569,-2.17334,-7.81399
-483,-545,-1.88336,5.8446,0,0,0,0,0,0,0,-1,741,1569,-1.88334,-5.84466
-476,-545,-1.13147,6.5741,0,0,0,0,0,0,0,-1,748,1569,-1.13149,-6.57405
-469,-545,-0.784241,13.8481,0,0,0,0,0,0,0,-1,755,1569,-0.784245,-13.8482
-462,-545,-0.885071,15.0874,0,0,0,0,0,0,0,-1,762,1569,-0.885096,-15.0874
-455,-545,-0.94458,15.91,-0.00735504,0.0119037,0.000273455,0.0119075,-0.00735892,1.5566,0.0112264,0.0466514,769,1569,-0.944577,-15.91
-448,-545,-1.00061,16.709,-0.00653848,0.00856613,-0.000749313,0.00860322,-0.00657556,-1.52135,0.0087895,0.0327973,776,1569,-1.00058,-16.709
-441,-545,-1.00562,17.4371,-0.0057816,0.00605061,-0.00119803,0.00617069,-0.00590168,-1.4709,0.00697057,0.0273338,783,1569,-1.00562,-17.4371
-434,-545,-1.24121,17.8561,-0.00492465,0.00409239,-0.00122492,0.00425583,-0.00508809,-1.43815,0.00540184,0.0234838,790,1569,-1.2412,-17.8561
-427,-545,-1.22791,18.3134,-0.00394744,0.00283003,-0.00121878,0.00304254,-0.00415995,-1.39817,0.004175,0.0187728,797,1569,-1.22793,-18.3134
-420,-545,-1.18726,18.7583,-0.00290374,0.00237749,-0.000824639,0.00250326,-0.00302951,-1.41945,0.00319916,0.0240244,804,1569,-1.18727,-18.7584
-413,-545,-1.21106,19.259,-0.00193021,0.00221987,-0.000234828,0.00223311,-0.00194346,-1.51445,0.00241328,0.0236792,811,1569,-1.21106,-19.259
-406,-545,-1.26282,19.7838,-0.000944938,0.00186069,0.000590359,0.00197986,-0.0010641,1.37163,0.00178374,0.0170521,818,1569,-1.26284,-19.7838
-399,-545,-1.27026,20.2839,-0.000114067,0.00239111,0.00108481,0.00279556,-0.000518524,1.21392,0.00205844,0.0118875,825,1569,-1.27025,-20.2839
-392,-545,-1.30627,20.7654,0.000632662,0.00354668,0.00144762,0.00414356,3.57782e-05,1.17971,0.00275053,0.0125609,832,1569,-1.30627,-20.7654
-385,-545,-1.31927,21.2457,0.00146769,0.00464082,0.00182372,0.00547151,0.000637,1.14338,0.00345497,0.0107427,839,1569,-1.31926,-21.2457
-378,-545,-1.34003,21.7328,0.00229897,0.00606037,0.00218178,0.00706016,0.00129918,1.14111,0.00433904,0.0123634,846,1569,-1.34004,-21.7328
-371,-545,-1.34833,22.2362,0.00293912,0.00745306,0.00232802,0.00843855,0.00195363,1.17035,0.00510076,0.0151305,853,1569,-1.34835,-22.2362
-364,-545,-1.35419,22.6737,0.00358827,0.00911782,0.00244706,0.0100452,0.00266088,1.20854,0.00600953,0.0103402,860,1569,-1.35422,-22.6737
-357,-545,-1.28729,23.2367,0.00424451,0.0110143,0.00244583,0.0118055,0.00345333,1.25794,0.0070088,0.0173076,867,1569,-1.28729,-23.2367
-350,-545,-1.23987,23.757,0.00498084,0.0131798,0.00242872,0.0138452,0.00431541,1.30337,0.00818032,0.0261879,874,1569,-1.23984,-23.757
-343,-545,-1.27014,24.161,0.00566344,0.0157088,0.00223007,0.0161816,0.00519062,1.36187,0.00954045,0.0424277,881,1569,-1.27016,-24.161
-336,-545,-1.09064,24.4635,0,0,0,0,0,0,0,-1,888,1569,-1.09061,-24.4635
-329,-545,-1.73706,24.9954,0,0,0,0,0,0,0,-1,895,1569,-1.73705,-24.9953
-322,-545,-2.96466,23.9288,0,0,0,0,0,0,0,-1,902,1569,-2.96467,-23.9288
-315,-545,-3.46771,23.6332,0,0,0,0,0,0,0,-1,909,1569,-3.46769,-23.6332
-308,-545,-1.54358,21.4457,0,0,0,0,0,0,0,-1,916,1569,-1.54357,-21.4457
-301,-545,1.52191,17.5009,0,0,0,0,0,0,0,-1,923,1569,1.52192,-17.5008
-294,-545,-2.69287,8.42102,0,0,0,0,0,0,0,-1,930,1569,-2.69287,-8.42097
-287,-545,-3.47784,9.96021,0,0,0,0,0,0,0,-1,937,1569,-3.47785,-9.96021
-280,-545,-3.7879,10.5448,0,0,0,0,0,0,0,-1,944,1569,-3.78793,-10.5448
-273,-545,-5.10333,12.864,0,0,0,0,0,0,0,-1,951,1569,-5.10331,-12.864
-266,-545,-5.78955,13.3704,0,0,0,0,0,0,0,-1,958,1569,-5.78952,-13.3703
-259,-545,-6.32184,13.8101,0,0,0,0,0,0,0,-1,965,1569,-6.32182,-13.81
-252,-545,0.369263,7.54053,0,0,0,0,0,0,0,-1,972,1569,0.369276,-7.54056
-245,-545,-0.236633,6.65564,0,0,0,0,0,0,0,-1,979,1569,-0.236605,-6.65566
-238,-545,0,0,0,0,0,0,0,0,0,-1,986,1569,0,0
-231,-545,0,0,0,0,0,0,0,0,0,-1,993,1569,0,0
-224,-545,0,0,0,0,0,0,0,0,0,-1,1000,1569,0,0
-217,-545,0,0,0,0,0,0,0,0,0,-1,1007,1569,0,0
-210,-545,0,0,0,0,0,0,0,0,0,-1,1014,1569,0,0
-203,-545,0,0,0,0,0,0,0,0,0,-1,1021,1569,0,0
-196,-545,0,0,0,0,0,0,0,0,0,-1,1028,1569,0,0
-189,-545,0,0,0,0,0,0,0,0,0,-1,1035,1569,0,0
-182,-545,0,0,0,0,0,0,0,0,0,-1,1042,1569,0,0
-175,-545,0,0,0,0,0,0,0,0,0,-1,1049,1569,0,0
-168,-545,0,0,0,0,0,0,0,0,0,-1,1056,1569,0,0
-161,-545,0,0,0,0,0,0,0,0,0,-1,1063,1569,0,0
-154,-545,0,0,0,0,0,0,0,0,0,-1,1070,1569,0,0
-147,-545,0,0,0,0,0,0,0,0,0,-1,1077,1569,0,0
-140,-545,0,0,0,0,0,0,0,0,0,-1,1084,1569,0,0
-133,-545,0,0,0,0,0,0,0,0,0,-1,1091,1569,0,0
-126,-545,0,0,0,0,0,0,0,0,0,-1,1098,1569,0,0
-119,-545,0,0,0,0,0,0,0,0,0,-1,1105,1569,0,0
-112,-545,0,0,0,0,0,0,0,0,0,-1,1112,1569,0,0
-105,-545,0,0,0,0,0,0,0,0,0,-1,1119,1569,0,0
-98,-545,0,0,0,0,0,0,0,0,0,-1,1126,1569,0,0
-91,-545,0,0,0,0,0,0,0,0,0,-1,1133,1569,0,0
-84,-545,0,0,0,0,0,0,0,0,0,-1,1140,1569,0,0
-77,-545,0,0,0,0,0,0,0,0,0,-1,1147,1569,0,0
-70,-545,0,0,0,0,0,0,0,0,0,-1,1154,1569,0,0
-63,-545,0,0,0,0,0,0,0,0,0,-1,1161,1569,0,0
-56,-545,0,0,0,0,0,0,0,0,0,-1,1168,1569,0,0
-49,-545,0,0,0,0,0,0,0,0,0,-1,1175,1569,0,0
-42,-545,0,0,0,0,0,0,0,0,0,-1,1182,1569,0,0
-35,-545,0,0,0,0,0,0,0,0,0,-1,1189,1569,0,0
-28,-545,0,0,0,0,0,0,0,0,0,-1,1196,1569,0,0
-21,-545,0,0,0,0,0,0,0,0,0,-1,1203,1569,0,0
-14,-545,0,0,0,0,0,0,0,0,0,-1,1210,1569,0,0
-7,-545,0,0,0,0,0,0,0,0,0,-1,1217,1569,0,0
0,-545,0,0,0,0,0,0,0,0,0,-1,1224,1569,0,0
7,-545,0,0,0,0,0,0,0,0,0,-1,1231,1569,0,0
14,-545,0,0,0,0,0,0,0,0,0,-1,1238,1569,0,0
21,-545,0,0,0,0,0,0,0,0,0,-1,1245,1569,0,0
28,-545,0,0,0,0,0,0,0,0,0,-1,1252,1569,0,0
35,-545,0,0,0,0,0,0,0,0,0,-1,1259,1569,0,0
42,-545,0,0,0,0,0,0,0,0,0,-1,1266,1569,0,0
49,-545,0,0,0,0,0,0,0,0,0,-1,1273,1569,0,0
56,-545,0,0,0,0,0,0,0,0,0,-1,1280,1569,0,0
63,-545,0,0,0,0,0,0,0,0,0,-1,1287,1569,0,0
70,-545,0,0,0,0,0,0,0,0,0,-1,1294,1569,0,0
77,-545,0,0,0,0,0,0,0,0,0,-1,1301,1569,0,0
84,-545,0,0,0,0,0,0,0,0,0,-1,1308,1569,0,0
91,-545,0,0,0,0,0,0,0,0,0,-1,1315,1569,0,0
98,-545,0,0,0,0,0,0,0,0,0,-1,1322,1569,0,0
105,-545,0,0,0,0,0,0,0,0,0,-1,1329,1569,0,0
112,-545,0,0,0,0,0,0,0,0,0,-1,1336,1569,0,0
119,-545,0,0,0,0,0,0,0,0,0,-1,1343,1569,0,0
126,-545,0,0,0,0,0,0,0,0,0,-1,1350,1569,0,0
133,-545,0,0,0,0,0,0,0,0,0,-1,1357,1569,0,0
140,-545,0,0,0,0,0,0,0,0,0,-1,1364,1569,0,0
147,-545,0,0,0,0,0,0,0,0,0,-1,1371,1569,0,0
154,-545,0,0,0,0,0,0,0,0,0,-1,1378,1569,0,0
161,-545,0,0,0,0,0,0,0,0,0,-1,1385,1569,0,0
168,-545,0,0,0,0,0,0,0,0,0,-1,1392,1569,0,0
175,-545,0,0,0,0,0,0,0,0,0,-1,1399,1569,0,0
182,-545,0,0,0,0,0,0,0,0,0,-1,1406,1569,0,0
189,-545,0,0,0,0,0,0,0,0,0,-1,1413,1569,0,0
196,-545,0,0,0,0,0,0,0,0,0,-1,1420,1569,0,0
203,-545,0,0,0,0,0,0,0,0,0,-1,1427,1569,0,0
210,-545,0,0,0,0,0,0,0,0,0,-1,1434,1569,0,0
217,-545,0,0,0,0,0,0,0,0,0,-1,1441,1569,0,0
224,-545,0,0,0,0,0,0,0,0,0,-1,1448,1569,0,0
231,-545,0,0,0,0,0,0,0,0,0,-1,1455,1569,0,0
238,-545,0,0,0,0,0,0,0,0,0,-1,1462,1569,0,0
245,-545,0,0,0,0,0,0,0,0,0,-1,1469,1569,0,0
252,-545,0,0,0,0,0,0,0,0,0,-1,1476,1569,0,0
259,-545,0,0,0,0,0,0,0,0,0,-1,1483,1569,0,0
266,-545,0,0,0,0,0,0,0,0,0,-1,1490,1569,0,0
273,-545,0,0,0,0,0,0,0,0,0,-1,1497,1569,0,0
280,-545,0,0,0,0,0,0,0,0,0,-1,1504,1569,0,0
287,-545,0,0,0,0,0,0,0,0,0,-1,1511,1569,0,0
294,-545,0,0,0,0,0,0,0,0,0,-1,1518,1569,0,0
301,-545,0,0,0,0,0,0,0,0,0,-1,1525,1569,0,0
308,-545,0,0,0,0,0,0,0,0,0,-1,1532,1569,0,0
315,-545,0,0,0,0,0,0,0,0,0,-1,1539,1569,0,0
322,-545,0,0,0,0,0,0,0,0,0,-1,1546,1569,0,0
329,-545,0,0,0,0,0,0,0,0,0,-1,1553,1569,0,0
336,-545,0,0,0,0,0,0,0,0,0,-1,1560,1569,0,0
343,-545,0,0,0,0,0,0,0,0,0,-1,1567,1569,0,0
350,-545,0,0,0,0,0,0,0,0,0,-1,1574,1569,0,0
357,-545,0,0,0,0,0,0,0,0,0,-1,1581,1569,0,0
364,-545,7.19495,4.88098,0,0,0,0,0,0,0,-1,1588,1569,7.19497,-4.88095
371,-545,7.82324,3.84302,0,0,0,0,0,0,0,-1,1595,1569,7.82324,-3.84307
378,-545,7.65674,5.52673,0,0,0,0,0,0,0,-1,1602,1569,7.6567,-5.52667
385,-545,8.58447,1.16125,0,0,0,0,0,0,0,-1,1609,1569,8.5845,-1.1612
392,-545,12.5654,3.89526,0,0,0,0,0,0,0,-1,1616,1569,12.5655,-3.89532
399,-545,11.5869,5.6333,0,0,0,0,0,0,0,-1,1623,1569,11.5869,-5.63326
406,-545,11.234,6.36414,0,0,0,0,0,0,0,-1,1630,1569,11.234,-6.3641
413,-545,12.1521,13.4817,0,0,0,0,0,0,0,-1,1637,1569,12.1521,-13.4817
420,-545,11.1954,13.6047,0,0,0,0,0,0,0,-1,1644,1569,11.1954,-13.6047
427,-545,9.61072,14.9135,0,0,0,0,0,0,0,-1,1651,1569,9.61076,-14.9134
434,-545,13.1598,23.9921,0,0,0,0,0,0,0,-1,1658,1569,13.1598,-23.992
441,-545,12.2833,22.2238,0,0,0,0,0,0,0,-1,1665,1569,12.2833,-22.2237
448,-545,13.0082,21.941,0,0,0,0,0,0,0,-1,1672,1569,13.0082,-21.941
455,-545,13.733,21.6583,0,0,0,0,0,0,0,-1,1679,1569,13.733,-21.6583
462,-545,12.449,20.7413,0,0,0,0,0,0,0,-1,1686,1569,12.4489,-20.7413
469,-545,12.7837,17.7919,0,0,0,0,0,0,0,-1,1693,1569,12.7837,-17.7919
476,-545,15.7562,24.8708,0,0,0,0,0,0,0,-1,1700,1569,15.7563,-24.8709
483,-545,16.4669,24.6643,0,0,0,0,0,0,0,-1,1707,1569,16.4669,-24.6643
490,-545,16.4757,24.1288,0.0060127,0.0103716,-0.00606911,0.0146407,0.00174358,-0.957781,0.00923433,0.0265496,1714,1569,16.4757,-24.1288
497,-545,16.4911,23.6704,0.00504605,0.0079373,-0.00466642,0.0113769,0.00160647,-0.935606,0.00710986,0.0218423,1721,1569,16.4911,-23.6704
504,-545,16.5776,23.1924,0.00438284,0.00592886,-0.00376579,0.00900016,0.00131154,-0.886628,0.00561422,0.0149003,1728,1569,16.5777,-23.1924
511,-545,16.5533,22.7209,0.00356058,0.00439904,-0.00285684,0.00686725,0.00109237,-0.85825,0.00426097,0.0111364,1735,1569,16.5533,-22.721
518,-545,16.5322,22.266,0.00259064,0.00282615,-0.00185967,0.00457179,0.000844997,-0.817015,0.00280889,0.0140608,1742,1569,16.5322,-22.266
525,-545,16.5065,21.8226,0.00158288,0.00144862,-0.000908284,0.00242651,0.000604992,-0.748511,0.00145846,0.0146409,1749,1569,16.5065,-21.8227
532,-545,16.4858,21.3801,0.000627504,0.000211442,7.02036e-06,0.000627622,0.000211323,0.0168669,0.000368743,0.0141907,1756,1569,16.4859,-21.3801
539,-545,16.4735,20.9515,-0.000278815,-0.000921837,0.000895683,0.000351313,-0.00155197,0.613083,0.00116947,0.0172588,1763,1569,16.4735,-20.9516
546,-545,16.4526,20.4733,-0.00125364,-0.00213884,0.0018781,0.000233309,-0.00362579,0.669678,0.00249859,0.0189816,1770,1569,16.4526,-20.4732
553,-545,16.4514,20.0182,-0.00220554,-0.00327533,0.002871,0.000179969,-0.00566084,0.693299,0.00383529,0.0266454,1777,1569,16.4514,-20.0182
560,-545,16.4484,19.5566,-0.00298447,-0.00423462,0.00375085,0.000193035,-0.00741212,0.702833,0.005007,0.0277818,1784,1569,16.4484,-19.5567
567,-545,16.4998,19.0541,0,0,0,0,0,0,0,-1,1791,1569,16.4998,-19.0541
574,-545,16.4854,18.4756,0,0,0,0,0,0,0,-1,1798,1569,16.4854,-18.4756
581,-545,16.5137,18.0352,0,0,0,0,0,0,0,-1,1805,1569,16.5137,-18.0352
588,-545,15.4786,16.7035,0,0,0,0,0,0,0,-1,1812,1569,15.4786,-16.7035
595,-545,10.2859,9.11218,0,0,0,0,0,0,0,-1,1819,1569,10.2858,-9.11215
602,-545,8.82117,6.32214,0,0,0,0,0,0,0,-1,1826,1569,8.82121,-6.32217
609,-545,10.2406,5.22351,0,0,0,0,0,0,0,-1,1833,1569,10.2406,-5.22353
616,-545,11.701,3.93188,0,0,0,0,0,0,0,-1,1840,1569,11.701,-3.93191
623,-545,13.2139,2.32043,0,0,0,0,0,0,0,-1,1847,1569,13.2139,-2.32042
630,-545,0,0,0,0,0,0,0,0,0,-1,1854,1569,0,0
637,-545,0,0,0,0,0,0,0,0,0,-1,1861,1569,0,0
644,-545,0,0,0,0,0,0,0,0,0,-1,1868,1569,0,0
651,-545,0,0,0,0,0,0,0,0,0,-1,1875,1569,0,0
658,-545,0,0,0,0,0,0,0,0,0,-1,1882,1569,0,0
665,-545,0,0,0,0,0,0,0,0,0,-1,1889,1569,0,0
672,-545,0,0,0,0,0,0,0,0,0,-1,1896,1569,0,0
679,-545,0,0,0,0,0,0,0,0,0,-1,1903,1569,0,0
686,-545,0,0,0,0,0,0,0,0,0,-1,1910,1569,0,0
693,-545,0,0,0,0,0,0,0,0,0,-1,1917,1569,0,0
700,-545,0,0,0,0,0,0,0,0,0,-1,1924,1569,0,0
707,-545,0,0,0,0,0,0,0,0,0,-1,1931,1569,0,0
714,-545,0,0,0,0,0,0,0,0,0,-1,1938,1569,0,0
721,-545,0,0,0,0,0,0,0,0,0,-1,1945,1569,0,0
728,-545,0,0,0,0,0,0,0,0,0,-1,1952,1569,0,0
735,-545,0,0,0,0,0,0,0,0,0,-1,1959,1569,0,0
742,-545,0,0,0,0,0,0,0,0,0,-1,1966,1569,0,0
749,-545,0,0,0,0,0,0,0,0,0,-1,1973,1569,0,0
756,-545,0,0,0,0,0,0,0,0,0,-1,1980,1569,0,0
763,-545,0,0,0,0,0,0,0,0,0,-1,1987,1569,0,0
770,-545,0,0,0,0,0,0,0,0,0,-1,1994,1569,0,0
777,-545,0,0,0,0,0,0,0,0,0,-1,2001,1569,0,0
784,-545,0,0,0,0,0,0,0,0,0,-1,2008,1569,0,0
791,-545,0,0,0,0,0,0,0,0,0,-1,2015,1569,0,0
798,-545,0,0,0,0,0,0,0,0,0,-1,2022,1569,0,0
805,-545,0,0,0,0,0,0,0,0,0,-1,2029,1569,0,0
812,-545,0,0,0,0,0,0,0,0,0,-1,2036,1569,0,0
-700,-552,0,0,0,0,0,0,0,0,0,-1,524,1576,0,0
-693,-552,0,0,0,0,0,0,0,0,0,-1,531,1576,0,0
-686,-552,0,0,0,0,0,0,0,0,0,-1,538,1576,0,0
-679,-552,0,0,0,0,0,0,0,0,0,-1,545,1576,0,0
-672,-552,0,0,0,0,0,0,0,0,0,-1,552,1576,0,0
-665,-552,0,0,0,0,0,0,0,0,0,-1,559,1576,0,0
-658,-552,0,0,0,0,0,0,0,0,0,-1,566,1576,0,0
-651,-552,0,0,0,0,0,0,0,0,0,-1,573,1576,0,0
-644,-552,0,0,0,0,0,0,0,0,0,-1,580,1576,0,0
-637,-552,0,0,0,0,0,0,0,0,0,-1,587,1576,0,0
-630,-552,0,0,0,0,0,0,0,0,0,-1,594,1576,0,0
-623,-552,0,0,0,0,0,0,0,0,0,-1,601,1576,0,0
-616,-552,0,0,0,0,0,0,0,0,0,-1,608,1576,0,0
-609,-552,0,0,0,0,0,0,0,0,0,-1,615,1576,0,0
-602,-552,0,0,0,0,0,0,0,0,0,-1,622,1576,0,0
-595,-552,0,0,0,0,0,0,0,0,0,-1,629,1576,0,0
-588,-552,0,0,0,0,0,0,0,0,0,-1,636,1576,0,0
-581,-552,0,0,0,0,0,0,0,0,0,-1,643,1576,0,0
-574,-552,0,0,0,0,0,0,0,0,0,-1,650,1576,0,0
-567,-552,0,0,0,0,0,0,0,0,0,-1,657,1576,0,0
-560,-552,0,0,0,0,0,0,0,0,0,-1,664,1576,0,0
-553,-552,0,0,0,0,0,0,0,0,0,-1,671,1576,0,0
-546,-552,0,0,0,0,0,0,0,0,0,-1,678,1576,0,0
-539,-552,0,0,0,0,0,0,0,0,0,-1,685,1576,0,0
-532,-552,0,0,0,0,0,0,0,0,0,-1,692,1576,0,0
-525,-552,0,0,0,0,0,0,0,0,0,-1,699,1576,0,0
-518,-552,0,0,0,0,0,0,0,0,0,-1,706,1576,0,0
-511,-552,0,0,0,0,0,0,0,0,0,-1,713,1576,0,0
-504,-552,0,0,0,0,0,0,0,0,0,-1,720,1576,0,0
-497,-552,1.51282,3.96924,0,0,0,0,0,0,0,-1,727,1576,1.5128,-3.96924
-490,-552,-3.82312,6.32104,0,0,0,0,0,0,0,-1,734,1576,-3.82314,-6.3211
-483,-552,-3.50586,6.47986,0,0,0,0,0,0,0,-1,741,1576,-3.50587,-6.47983
-476,-552,-1.95129,4.43054,0,0,0,0,0,0,0,-1,748,1576,-1.95128,-4.43054
-469,-552,-1.40491,7.9895,0,0,0,0,0,0,0,-1,755,1576,-1.40491,-7.98947
-462,-552,-1.99573,11.4446,0,0,0,0,0,0,0,-1,762,1576,-1.99571,-11.4445
-455,-552,-0.369934,15.722,0,0,0,0,0,0,0,-1,769,1576,-0.369951,-15.722
-448,-552,-0.478638,16.4814,0,0,0,0,0,0,0,-1,776,1576,-0.478632,-16.4814
-441,-552,-0.501587,17.2988,-0.00743941,0.00825992,-0.00140658,0.00838495,-0.00756444,-1.48214,0.00921244,0.0457463,783,1576,-0.501573,-17.2988
-434,-552,-0.557434,17.9838,-0.00657973,0.0053393,-0.00149385,0.00552368,-0.0067641,-1.44799,0.00710639,0.0343033,790,1576,-0.557432,-17.9838
-427,-552,-0.784729,18.2556,-0.00555208,0.00334112,-0.00159585,0.00361881,-0.00582977,-1.39851,0.0055047,0.0296068,797,1576,-0.784708,-18.2556
-420,-552,-0.727295,18.816,-0.0044515,0.00250738,-0.00124567,0.00272364,-0.00466775,-1.3989,0.00431635,0.0224785,804,1576,-0.72728,-18.816
-413,-552,-0.723389,19.2877,-0.0034382,0.00204747,-0.000714965,0.00213913,-0.00352985,-1.4433,0.00330565,0.017474,811,1576,-0.723378,-19.2877
-406,-552,-0.770203,19.7889,-0.00237381,0.00130991,5.75198e-05,0.00131081,-0.00237471,1.55519,0.00215718,0.0130306,818,1576,-0.770192,-19.7889
-399,-552,-0.804626,20.2646,-0.00147654,0.00154265,0.000495494,0.00162189,-0.00155578,1.41222,0.00183476,0.0137135,825,1576,-0.804608,-20.2646
-392,-552,-0.828735,20.7589,-0.000673788,0.00238832,0.000814035,0.00259127,-0.000876741,1.32646,0.00208222,0.0153529,832,1576,-0.828722,-20.7589
-385,-552,-0.84436,21.2587,0.000206647,0.00322131,0.00110749,0.00358443,-0.000156473,1.25397,0.00244345,0.0142776,839,1576,-0.844372,-21.2587
-378,-552,-0.877136,21.7172,0.00111282,0.00437029,0.00142102,0.00490306,0.000580058,1.2121,0.00309353,0.0159477,846,1576,-0.877135,-21.7172
-371,-552,-0.882813,22.2122,0.0018458,0.00541296,0.00152405,0.00597541,0.00128334,1.21725,0.0036322,0.0190207,853,1576,-0.882785,-22.2122
-364,-552,-0.888367,22.6827,0.00258569,0.00667141,0.00161574,0.00723314,0.00202396,1.23621,0.00430891,0.0144661,860,1576,-0.888355,-22.6828
-357,-552,-0.864563,23.1348,0.00335799,0.00808537,0.00164577,0.00860189,0.00284147,1.26669,0.00506072,0.00985303,867,1576,-0.864584,-23.1348
-350,-552,-0.848145,23.6487,0.00422954,0.00965508,0.00170131,0.0101444,0.00374019,1.29072,0.00592382,0.0117711,874,1576,-0.848175,-23.6486
-343,-552,-0.859802,24.0967,0.00509591,0.011532,0.00171812,0.011962,0.00466598,1.3256,0.00696166,0.0165705,881,1576,-0.859772,-24.0966
-336,-552,-0.781677,24.465,0.00592308,0.0137923,0.00185577,0.014208,0.0055074,1.35044,0.00827177,0.0314386,888,1576,-0.781651,-24.4649
-329,-552,-0.559265,25.4661,0,0,0,0,0,0,0,-1,895,1576,-0.559284,-25.466
-322,-552,-0.509277,23.9327,0,0,0,0,0,0,0,-1,902,1576,-0.509305,-23.9327
-315,-552,0.154358,26.4829,0,0,0,0,0,0,0,-1,909,1576,0.154341,-26.4829
-308,-552,1.48743,24.9044,0,0,0,0,0,0,0,-1,916,1576,1.48745,-24.9045
-301,-552,1.39453,18.4995,0,0,0,0,0,0,0,-1,923,1576,1.3945,-18.4995
-294,-552,0.842163,13.7863,0,0,0,0,0,0,0,-1,930,1576,0.842149,-13.7863
-287,-552,-0.663757,13.3474,0,0,0,0,0,0,0,-1,937,1576,-0.663744,-13.3474
-280,-552,-5.47241,8.96765,0,0,0,0,0,0,0,-1,944,1576,-5.47239,-8.96766
-273,-552,1.64587,10.6685,0,0,0,0,0,0,0,-1,951,1576,1.6459,-10.6685
-266,-552,-1.32678,8.05688,0,0,0,0,0,0,0,-1,958,1576,-1.32677,-8.05683
-259,-552,-5.54321,8.31213,0,0,0,0,0,0,0,-1,965,1576,-5.54324,-8.31214
-252,-552,-1.93445,7.81543,0,0,0,0,0,0,0,-1,972,1576,-1.93445,-7.81546
-245,-552,-2.53613,6.92212,0,0,0,0,0,0,0,-1,979,1576,-2.53614,-6.92216
-238,-552,-6.5365,2.81885,0,0,0,0,0,0,0,-1,986,1576,-6.53649,-2.8188
-231,-552,-4.32239,4.34583,0,0,0,0,0,0,0,-1,993,1576,-4.32239,-4.34587
-224,-552,0,0,0,0,0,0,0,0,0,-1,1000,1576,0,0
-217,-552,0,0,0,0,0,0,0,0,0,-1,1007,1576,0,0
-210,-552,0,0,0,0,0,0,0,0,0,-1,1014,1576,0,0
-203,-552,0,0,0,0,0,0,0,0,0,-1,1021,1576,0,0
-196,-552,0,0,0,0,0,0,0,0,0,-1,1028,1576,0,0
-189,-552,0,0,0,0,0,0,0,0,0,-1,1035,1576,0,0
-182,-552,0,0,0,0,0,0,0,0,0,-1,1042,1576,0,0
-175,-552,0,0,0,0,0,0,0,0,0,-1,1049,1576,0,0
-168,-552,0,0,0,0,0,0,0,0,0,-1,1056,1576,0,0
-161,-552,0,0,0,0,0,0,0,0,0,-1,1063,1576,0,0
-154,-552,0,0,0,0,0,0,0,0,0,-1,1070,1576,0,0
-147,-552,0,0,0,0,0,0,0,0,0,-1,1077,1576,0,0
-140,-552,0,0,0,0,0,0,0,0,0,-1,1084,1576,0,0
-133,-552,0,0,0,0,0,0,0,0,0,-1,1091,1576,0,0
-126,-552,0,0,0,0,0,0,0,0,0,-1,1098,1576,0,0
-119,-552,0,0,0,0,0,0,0,0,0,-1,1105,1576,0,0
-112,-552,0,0,0,0,0,0,0,0,0,-1,1112,1576,0,0
-105,-552,0,0,0,0,0,0,0,0,0,-1,1119,1576,0,0
-98,-552,0,0,0,0,0,0,0,0,0,-1,1126,1576,0,0
-91,-552,0,0,0,0,0,0,0,0,0,-1,1133,1576,0,0
-84,-552,0,0,0,0,0,0,0,0,0,-1,1140,1576,0,0
-77,-552,0,0,0,0,0,0,0,0,0,-1,1147,1576,0,0
-70,-552,0,0,0,0,0,0,0,0,0,-1,1154,1576,0,0
-63,-552,0,0,0,0,0,0,0,0,0,-1,1161,1576,0,0
-56,-552,0,0,0,0,0,0,0,0,0,-1,1168,1576,0,0
-49,-552,0,0,0,0,0,0,0,0,0,-1,1175,1576,0,0
-42,-552,0,0,0,0,0,0,0,0,0,-1,1182,1576,0,0
-35,-552,0,0,0,0,0,0,0,0,0,-1,1189,1576,0,0
-28,-552,0,0,0,0,0,0,0,0,0,-1,1196,1576,0,0
-21,-552,0,0,0,0,0,0,0,0,0,-1,1203,1576,0,0
-14,-552,0,0,0,0,0,0,0,0,0,-1,1210,1576,0,0
-7,-552,0,0,0,0,0,0,0,0,0,-1,1217,1576,0,0
0,-552,0,0,0,0,0,0,0,0,0,-1,1224,1576,0,0
7,-552,0,0,0,0,0,0,0,0,0,-1,1231,1576,0,0
14,-552,0,0,0,0,0,0,0,0,0,-1,1238,1576,0,0
21,-552,0,0,0,0,0,0,0,0,0,-1,1245,1576,0,0
28,-552,0,0,0,0,0,0,0,0,0,-1,1252,1576,0,0
35,-552,0,0,0,0,0,0,0,0,0,-1,1259,1576,0,0
42,-552,0,0,0,0,0,0,0,0,0,-1,1266,1576,0,0
49,-552,0,0,0,0,0,0,0,0,0,-1,1273,1576,0,0
56,-552,0,0,0,0,0,0,0,0,0,-1,1280,1576,0,0
63,-552,0,0,0,0,0,0,0,0,0,-1,1287,1576,0,0
70,-552,0,0,0,0,0,0,0,0,0,-1,1294,1576,0,0
77,-552,0,0,0,0,0,0,0,0,0,-1,1301,1576,0,0
84,-552,0,0,0,0,0,0,0,0,0,-1,1308,1576,0,0
91,-552,0,0,0,0,0,0,0,0,0,-1,1315,1576,0,0
98,-552,0,0,0,0,0,0,0,0,0,-1,1322,1576,0,0
105,-552,0,0,0,0,0,0,0,0,0,-1,1329,1576,0,0
112,-552,0,0,0,0,0,0,0,0,0,-1,1336,1576,0,0
119,-552,0,0,0,0,0,0,0,0,0,-1,1343,1576,0,0
126,-552,0,0,0,0,0,0,0,0,0,-1,1350,1576,0,0
133,-552,0,0,0,0,0,0,0,0,0,-1,1357,1576,0,0
140,-552,0,0,0,0,0,0,0,0,0,-1,1364,1576,0,0
147,-552,0,0,0,0,0,0,0,0,0,-1,1371,1576,0,0
154,-552,0,0,0,0,0,0,0,0,0,-1,1378,1576,0,0
161,-552,0,0,0,0,0,0,0,0,0,-1,1385,1576,0,0
168,-552,0,0,0,0,0,0,0,0,0,-1,1392,1576,0,0
175,-552,0,0,0,0,0,0,0,0,0,-1,1399,1576,0,0
182,-552,0,0,0,0,0,0,0,0,0,-1,1406,1576,0,0
189,-552,0,0,0,0,0,0,0,0,0,-1,1413,1576,0,0
196,-552,0,0,0,0,0,0,0,0,0,-1,1420,1576,0,0
203,-552,0,0,0,0,0,0,0,0,0,-1,1427,1576,0,0
210,-552,0,0,0,0,0,0,0,0,0,-1,1434,1576,0,0
217,-552,0,0,0,0,0,0,0,0,0,-1,1441,1576,0,0
224,-552,0,0,0,0,0,0,0,0,0,-1,1448,1576,0,0
231,-552,0,0,0,0,0,0,0,0,0,-1,1455,1576,0,0
238,-552,0,0,0,0,0,0,0,0,0,-1,1462,1576,0,0
245,-552,0,0,0,0,0,0,0,0,0,-1,1469,1576,0,0
252,-552,0,0,0,0,0,0,0,0,0,-1,1476,1576,0,0
259,-552,0,0,0,0,0,0,0,0,0,-1,1483,1576,0,0
266,-552,0,0,0,0,0,0,0,0,0,-1,1490,1576,0,0
273,-552,0,0,0,0,0,0,0,0,0,-1,1497,1576,0,0
280,-552,0,0,0,0,0,0,0,0,0,-1,1504,1576,0,0
287,-552,0,0,0,0,0,0,0,0,0,-1,1511,1576,0,0
294,-552,0,0,0,0,0,0,0,0,0,-1,1518,1576,0,0
301,-552,0,0,0,0,0,0,0,0,0,-1,1525,1576,0,0
308,-552,0,0,0,0,0,0,0,0,0,-1,1532,1576,0,0
315,-552,0,0,0,0,0,0,0,0,0,-1,1539,1576,0,0
322,-552,0,0,0,0,0,0,0,0,0,-1,1546,1576,0,0
329,-552,0,0,0,0,0,0,0,0,0,-1,1553,1576,0,0
336,-552,0,0,0,0,0,0,0,0,0,-1,1560,1576,0,0
343,-552,0,0,0,0,0,0,0,0,0,-1,1567,1576,0,0
350,-552,4.97876,4.09888,0,0,0,0,0,0,0,-1,1574,1576,4.97875,-4.09883
357,-552,5.18469,4.10706,0,0,0,0,0,0,0,-1,1581,1576,5.1847,-4.10702
364,-552,5.80872,5.07031,0,0,0,0,0,0,0,-1,1588,1576,5.80874,-5.07037
371,-552,7.10657,5.64783,0,0,0,0,0,0,0,-1,1595,1576,7.10651,-5.64786
378,-552,6.44446,4.91492,0,0,0,0,0,0,0,-1,1602,1576,6.44448,-4.91496
385,-552,12.8276,3.16504,0,0,0,0,0,0,0,-1,1609,1576,12.8276,-3.16503
392,-552,12.1301,4.3363,0,0,0,0,0,0,0,-1,1616,1576,12.1302,-4.33631
399,-552,11.3486,5.6012,0,0,0,0,0,0,0,-1,1623,1576,11.3486,-5.60115
406,-552,10.7863,6.42542,0,0,0,0,0,0,0,-1,1630,1576,10.7863,-6.42536
413,-552,8.39307,10.365,0,0,0,0,0,0,0,-1,1637,1576,8.3931,-10.365
420,-552,10.2306,12.7225,0,0,0,0,0,0,0,-1,1644,1576,10.2305,-12.7226
427,-552,9.73267,14.783,0,0,0,0,0,0,0,-1,1651,1576,9.73269,-14.783
434,-552,12.0377,20.1364,0,0,0,0,0,0,0,-1,1658,1576,12.0377,-20.1364
441,-552,12.4963,21.5277,0,0,0,0,0,0,0,-1,1665,1576,12.4964,-21.5277
448,-552,12.9141,21.5482,0,0,0,0,0,0,0,-1,1672,1576,12.9141,-21.5482
455,-552,13.3318,21.5687,0,0,0,0,0,0,0,-1,1679,1576,13.3317,-21.5687
462,-552,12.745,20.5947,0,0,0,0,0,0,0,-1,1686,1576,12.745,-20.5947
469,-552,15.5592,25.8052,0,0,0,0,0,0,0,-1,1693,1576,15.5592,-25.8051
476,-552,15.9796,25.1089,0,0,0,0,0,0,0,-1,1700,1576,15.9796,-25.1089
483,-552,16.1288,24.4175,0.00578596,0.0115386,-0.00647327,0.0157458,0.00157875,-0.994467,0.0100125,0.0319093,1707,1576,16.1287,-24.4175
490,-552,16.0959,24.0363,0.00490338,0.00853221,-0.00485428,0.0119001,0.00153551,-0.964247,0.00747432,0.0149543,1714,1576,16.0959,-24.0363
497,-552,16.1598,23.6241,0.00402362,0.00638057,-0.00366496,0.00905187,0.00135232,-0.940954,0.00563813,0.0229768,1721,1576,16.1597,-23.6242
504,-552,16.1375,23.1908,0.00329622,0.00450483,-0.00277586,0.00674141,0.00105965,-0.892575,0.004186,0.0237082,1728,1576,16.1374,-23.1908
511,-552,16.1068,22.7083,0.00243064,0.00301454,-0.00186676,0.00461204,0.000833144,-0.862967,0.00283804,0.0167719,1735,1576,16.1068,-22.7082
518,-552,16.0946,22.2675,0.00146557,0.0015066,-0.000912953,0.00239927,0.000572904,-0.796633,0.00144686,0.0154604,1742,1576,16.0946,-22.2675
525,-552,16.0648,21.8289,0.000455137,0.000156047,3.28956e-05,0.000458712,0.000152472,0.108262,0.000269752,0.0153427,1749,1576,16.0648,-21.8288
532,-552,16.0619,21.3647,-0.000531213,-0.00111546,0.000989701,0.000208576,-0.00185525,0.641891,0.0013119,0.0152929,1756,1576,16.0619,-21.3648
539,-552,16.0292,20.9182,-0.00153999,-0.00235415,0.00199193,8.60292e-05,-0.00398018,0.684604,0.00268259,0.0189648,1763,1576,16.0292,-20.9182
546,-552,15.996,20.4832,-0.0026829,-0.0037209,0.00315883,-7.19447e-07,-0.00640308,0.703975,0.00426848,0.0222776,1770,1576,15.996,-20.4831
553,-552,16.032,20.0291,-0.00385333,-0.00508027,0.00440538,-1.89105e-05,-0.00891469,0.716215,0.00593683,0.0250382,1777,1576,16.032,-20.029
560,-552,15.9733,19.6366,-0.00492374,-0.00632209,0.00561536,3.58098e-05,-0.0112816,0.723461,0.00753305,0.0426743,1784,1576,15.9733,-19.6366
567,-552,15.9675,18.9216,0,0,0,0,0,0,0,-1,1791,1576,15.9675,-18.9216
574,-552,12.8835,14.8463,0,0,0,0,0,0,0,-1,1798,1576,12.8836,-14.8463
581,-552,9.74841,9.98645,0,0,0,0,0,0,0,-1,1805,1576,9.74847,-9.9864
588,-552,10.5619,9.34924,0,0,0,0,0,0,0,-1,1812,1576,10.5619,-9.34921
595,-552,5.36194,6.62744,0,0,0,0,0,0,0,-1,1819,1576,5.36193,-6.62742
602,-552,10.6863,4.31616,0,0,0,0,0,0,0,-1,1826,1576,10.6862,-4.31619
609,-552,12.146,3.18286,0,0,0,0,0,0,0,-1,1833,1576,12.1459,-3.18281
616,-552,13.8762,2.08167,0,0,0,0,0,0,0,-1,1840,1576,13.8763,-2.08167
623,-552,0,0,0,0,0,0,0,0,0,-1,1847,1576,0,0
630,-552,0,0,0,0,0,0,0,0,0,-1,1854,1576,0,0
637,-552,0,0,0,0,0,0,0,0,0,-1,1861,1576,0,0
644,-552,0,0,0,0,0,0,0,0,0,-1,1868,1576,0,0
651,-552,0,0,0,0,0,0,0,0,0,-1,1875,1576,0,0
658,-552,0,0,0,0,0,0,0,0,0,-1,1882,1576,0,0
665,-552,0,0,0,0,0,0,0,0,0,-1,1889,1576,0,0
672,-552,0,0,0,0,0,0,0,0,0,-1,1896,1576,0,0
679,-552,0,0,0,0,0,0,0,0,0,-1,1903,1576,0,0
686,-552,0,0,0,0,0,0,0,0,0,-1,1910,1576,0,0
693,-552,0,0,0,0,0,0,0,0,0,-1,1917,1576,0,0
700,-552,0,0,0,0,0,0,0,0,0,-1,1924,1576,0,0
707,-552,0,0,0,0,0,0,0,0,0,-1,1931,1576,0,0
714,-552,0,0,0,0,0,0,0,0,0,-1,1938,1576,0,0
721,-552,0,0,0,0,0,0,0,0,0,-1,1945,1576,0,0
728,-552,0,0,0,0,0,0,0,0,0,-1,1952,1576,0,0
735,-552,0,0,0,0,0,0,0,0,0,-1,1959,1576,0,0
742,-552,0,0,0,0,0,0,0,0,0,-1,1966,1576,0,0
749,-552,0,0,0,0,0,0,0,0,0,-1,1973,1576,0,0
756,-552,0,0,0,0,0,0,0,0,0,-1,1980,1576,0,0
763,-552,0,0,0,0,0,0,0,0,0,-1,1987,1576,0,0
770,-552,0,0,0,0,0,0,0,0,0,-1,1994,1576,0,0
777,-552,0,0,0,0,0,0,0,0,0,-1,2001,1576,0,0
784,-552,0,0,0,0,0,0,0,0,0,-1,2008,1576,0,0
791,-552,0,0,0,0,0,0,0,0,0,-1,2015,1576,0,0
798,-552,0,0,0,0,0,0,0,0,0,-1,2022,1576,0,0
805,-552,0,0,0,0,0,0,0,0,0,-1,2029,1576,0,0
812,-552,0,0,0,0,0,0,0,0,0,-1,2036,1576,0,0
-700,-559,0,0,0,0,0,0,0,0,0,-1,524,1583,0,0
-693,-559,0,0,0,0,0,0,0,0,0,-1,531,1583,0,0
-686,-559,0,0,0,0,0,0,0,0,0,-1,538,1583,0,0
-679,-559,0,0,0,0,0,0,0,0,0,-1,545,1583,0,0
-672,-559,0,0,0,0,0,0,0,0,0,-1,552,1583,0,0
-665,-559,0,0,0,0,0,0,0,0,0,-1,559,1583,0,0
-658,-559,0,0,0,0,0,0,0,0,0,-1,566,1583,0,0
-651,-559,0,0,0,0,0,0,0,0,0,-1,573,1583,0,0
-644,-559,0,0,0,0,0,0,0,0,0,-1,580,1583,0,0
-637,-559,0,0,0,0,0,0,0,0,0,-1,587,1583,0,0
-630,-559,0,0,0,0,0,0,0,0,0,-1,594,1583,0,0
-623,-559,0,0,0,0,0,0,0,0,0,-1,601,1583,0,0
-616,-559,0,0,0,0,0,0,0,0,0,-1,608,1583,0,0
-609,-559,0,0,0,0,0,0,0,0,0,-1,615,1583,0,0
-602,-559,0,0,0,0,0,0,0,0,0,-1,622,1583,0,0
-595,-559,0,0,0,0,0,0,0,0,0,-1,629,1583,0,0
-588,-559,0,0,0,0,0,0,0,0,0,-1,636,1583,0,0
-581,-559,0,0,0,0,0,0,0,0,0,-1,643,1583,0,0
-574,-559,0,0,0,0,0,0,0,0,0,-1,650,1583,0,0
-567,-559,0,0,0,0,0,0,0,0,0,-1,657,1583,0,0
-560,-559,0,0,0,0,0,0,0,0,0,-1,664,1583,0,0
-553,-559,0,0,0,0,0,0,0,0,0,-1,671,1583,0,0
-546,-559,0,0,0,0,0,0,0,0,0,-1,678,1583,0,0
-539,-559,0,0,0,0,0,0,0,0,0,-1,685,1583,0,0
-532,-559,0,0,0,0,0,0,0,0,0,-1,692,1583,0,0
-525,-559,0,0,0,0,0,0,0,0,0,-1,699,1583,0,0
-518,-559,0,0,0,0,0,0,0,0,0,-1,706,1583,0,0
-511,-559,0,0,0,0,0,0,0,0,0,-1,713,1583,0,0
-504,-559,0,0,0,0,0,0,0,0,0,-1,720,1583,0,0
-497,-559,0,0,0,0,0,0,0,0,0,-1,727,1583,0,0
-490,-559,-5.49835,4.47424,0,0,0,0,0,0,0,-1,734,1583,-5.49833,-4.4743
-483,-559,-5.24078,4.74561,0,0,0,0,0,0,0,-1,741,1583,-5.24079,-4.74563
-476,-559,-4.98022,4.99316,0,0,0,0,0,0,0,-1,748,1583,-4.98024,-4.99321
-469,-559,-4.6424,5.38062,0,0,0,0,0,0,0,-1,755,1583,-4.64237,-5.38058
-462,-559,-0.161865,6.49438,0,0,0,0,0,0,0,-1,762,1583,-0.161835,-6.49444
-455,-559,1.08826,7.02527,0,0,0,0,0,0,0,-1,769,1583,1.08823,-7.02529
-448,-559,-0.522766,15.6921,0,0,0,0,0,0,0,-1,776,1583,-0.52276,-15.6921
-441,-559,-0.0799561,17.0858,0,0,0,0,0,0,0,-1,783,1583,-0.0799828,-17.0858
-434,-559,-0.0211182,18.141,-0.00848149,0.00700821,-0.00158227,0.00716818,-0.00864147,-1.47003,0.00914091,0.0468991,790,1583,-0.0211305,-18.141
-427,-559,-0.161438,18.4949,-0.00736501,0.00416898,-0.00181774,0.00444867,-0.0076447,-1.41813,0.00706292,0.038467,797,1583,-0.161421,-18.4949
-420,-559,-0.349854,18.8328,-0.00617674,0.00291662,-0.00153624,0.00316914,-0.00642926,-1.40788,0.00564718,0.0424385,804,1583,-0.349865,-18.8327
-413,-559,-0.281921,19.316,-0.00509672,0.00212312,-0.00107611,0.00228011,-0.0052537,-1.42594,0.00446115,0.0166033,811,1583,-0.281928,-19.316
-406,-559,-0.30072,19.8125,-0.00392179,0.00104169,-0.000374678,0.00106982,-0.00394991,-1.49588,0.00305301,0.00922282,818,1583,-0.300704,-19.8125
-399,-559,-0.312256,20.2928,-0.00292621,0.000989522,2.2459e-05,0.00098965,-0.00292634,1.56506,0.00235126,0.0122066,825,1583,-0.312248,-20.2928
-392,-559,-0.342468,20.7761,-0.00203422,0.00154379,0.000332284,0.00157439,-0.00206482,1.47897,0.00210745,0.0152877,832,1583,-0.342454,-20.7761
-385,-559,-0.369324,21.2719,-0.00108825,0.00215964,0.000587219,0.00226255,-0.00119116,1.39731,0.00202573,0.0158248,839,1583,-0.369331,-21.2718
-378,-559,-0.382446,21.7355,-9.68535e-05,0.00308192,0.000895656,0.00331691,-0.000331843,1.31421,0.00232978,0.0151507,846,1583,-0.382441,-21.7355
-371,-559,-0.399536,22.2223,0.000747428,0.00385888,0.00100108,0.00415314,0.000453172,1.28491,0.00263075,0.0220544,853,1583,-0.399524,-22.2223
-364,-559,-0.385681,22.6809,0.00158482,0.00480561,0.00109869,0.0051447,0.00124574,1.27144,0.00309917,0.0192264,860,1583,-0.385663,-22.6809
-357,-559,-0.401062,23.1421,0.0024559,0.0058774,0.00116293,0.00623524,0.00209805,1.27228,0.00366353,0.0111069,867,1583,-0.401067,-23.1421
-350,-559,-0.408813,23.5964,0.00344717,0.00702788,0.00126798,0.00743141,0.00304364,1.26268,0.00431386,0.0090721,874,1583,-0.408796,-23.5964
-343,-559,-0.41687,24.0684,0.00445482,0.0084758,0.00142629,0.00893034,0.00400027,1.26228,0.00516524,0.0099763,881,1583,-0.41687,-24.0684
-336,-559,-0.462219,24.4751,0.00537824,0.0101365,0.0016381,0.0106459,0.00486883,1.2693,0.00615387,0.0214448,888,1583,-0.462208,-24.475
-329,-559,-0.32019,25.147,0.00646625,0.0119401,0.00219565,0.012712,0.00569438,1.23275,0.00735251,0.0368277,895,1583,-0.320214,-25.147
-322,-559,0.0719604,25.9214,0,0,0,0,0,0,0,-1,902,1583,0.0719831,-25.9214
-315,-559,-0.0228271,25.894,0,0,0,0,0,0,0,-1,909,1583,-0.0228225,-25.894
-308,-559,-0.203369,26.7545,0,0,0,0,0,0,0,-1,916,1583,-0.203399,-26.7545
-301,-559,1.97064,24.717,0,0,0,0,0,0,0,-1,923,1583,1.97066,-24.717
-294,-559,0.945129,18.5165,0,0,0,0,0,0,0,-1,930,1583,0.945117,-18.5165
-287,-559,-0.11792,15.4912,0,0,0,0,0,0,0,-1,937,1583,-0.117939,-15.4912
-280,-559,0.191467,13.5093,0,0,0,0,0,0,0,-1,944,1583,0.191441,-13.5093
-273,-559,2.12836,10.3059,0,0,0,0,0,0,0,-1,951,1583,2.12839,-10.3059
-266,-559,-0.597046,6.68933,0,0,0,0,0,0,0,-1,958,1583,-0.597031,-6.68937
-259,-559,-7.00311,8.62756,0,0,0,0,0,0,0,-1,965,1583,-7.00312,-8.6275
-252,-559,-9.4483,2.87805,0,0,0,0,0,0,0,-1,972,1583,-9.44829,-2.87805
-245,-559,-4.80804,7.1803,0,0,0,0,0,0,0,-1,979,1583,-4.80804,-7.18027
-238,-559,-8.45764,2.54858,0,0,0,0,0,0,0,-1,986,1583,-8.45763,-2.54862
-231,-559,-5.86914,4.34021,0,0,0,0,0,0,0,-1,993,1583,-5.86914,-4.34019
-224,-559,-3.30505,6.22864,0,0,0,0,0,0,0,-1,1000,1583,-3.30505,-6.22859
-217,-559,0,0,0,0,0,0,0,0,0,-1,1007,1583,0,0
-210,-559,0,0,0,0,0,0,0,0,0,-1,1014,1583,0,0
-203,-559,0,0,0,0,0,0,0,0,0,-1,1021,1583,0,0
-196,-559,0,0,0,0,0,0,0,0,0,-1,1028,1583,0,0
-189,-559,0,0,0,0,0,0,0,0,0,-1,1035,1583,0,0
-182,-559,0,0,0,0,0,0,0,0,0,-1,1042,1583,0,0
-175,-559,0,0,0,0,0,0,0,0,0,-1,1049,1583,0,0
-168,-559,0,0,0,0,0,0,0,0,0,-1,1056,1583,0,0
-161,-559,0,0,0,0,0,0,0,0,0,-1,1063,1583,0,0
-154,-559,0,0,0,0,0,0,0,0,0,-1,1070,1583,0,0
-147,-559,0,0,0,0,0,0,0,0,0,-1,1077,1583,0,0
-140,-559,0,0,0,0,0,0,0,0,0,-1,1084,1583,0,0
-133,-559,0,0,0,0,0,0,0,0,0,-1,1091,1583,0,0
-126,-559,0,0,0,0,0,0,0,0,0,-1,1098,1583,0,0
-119,-559,0,0,0,0,0,0,0,0,0,-1,1105,1583,0,0
-112,-559,0,0,0,0,0,0,0,0,0,-1,1112,1583,0,0
-105,-559,0,0,0,0,0,0,0,0,0,-1,1119,1583,0,0
-98,-559,0,0,0,0,0,0,0,0,0,-1,1126,1583,0,0
-91,-559,0,0,0,0,0,0,0,0,0,-1,1133,1583,0,0
-84,-559,0,0,0,0,0,0,0,0,0,-1,1140,1583,0,0
-77,-559,0,0,0,0,0,0,0,0,0,-1,1147,1583,0,0
-70,-559,0,0,0,0,0,0,0,0,0,-1,1154,1583,0,0
-63,-559,0,0,0,0,0,0,0,0,0,-1,1161,1583,0,0
-56,-559,0,0,0,0,0,0,0,0,0,-1,1168,1583,0,0
-49,-559,0,0,0,0,0,0,0,0,0,-1,1175,1583,0,0
-42,-559,0,0,0,0,0,0,0,0,0,-1,1182,1583,0,0
-35,-559,0,0,0,0,0,0,0,0,0,-1,1189,1583,0,0
-28,-559,0,0,0,0,0,0,0,0,0,-1,1196,1583,0,0
-21,-559,0,0,0,0,0,0,0,0,0,-1,1203,1583,0,0
-14,-559,0,0,0,0,0,0,0,0,0,-1,1210,1583,0,0
-7,-559,0,0,0,0,0,0,0,0,0,-1,1217,1583,0,0
0,-559,0,0,0,0,0,0,0,0,0,-1,1224,1583,0,0
7,-559,0,0,0,0,0,0,0,0,0,-1,1231,1583,0,0
14,-559,0,0,0,0,0,0,0,0,0,-1,1238,1583,0,0
21,-559,0,0,0,0,0,0,0,0,0,-1,1245,1583,0,0
28,-559,0,0,0,0,0,0,0,0,0,-1,1252,1583,0,0
35,-559,0,0,0,0,0,0,0,0,0,-1,1259,1583,0,0
42,-559,0,0,0,0,0,0,0,0,0,-1,1266,1583,0,0
49,-559,0,0,0,0,0,0,0,0,0,-1,1273,1583,0,0
56,-559,0,0,0,0,0,0,0,0,0,-1,1280,1583,0,0
63,-559,0,0,0,0,0,0,0,0,0,-1,1287,1583,0,0
70,-559,0,0,0,0,0,0,0,0,0,-1,1294,1583,0,0
77,-559,0,0,0,0,0,0,0,0,0,-1,1301,1583,0,0
84,-559,0,0,0,0,0,0,0,0,0,-1,1308,1583,0,0
91,-559,0,0,0,0,0,0,0,0,0,-1,1315,1583,0,0
98,-559,0,0,0,0,0,0,0,0,0,-1,1322,1583,0,0
105,-559,0,0,0,0,0,0,0,0,0,-1,1329,1583,0,0
112,-559,0,0,0,0,0,0,0,0,0,-1,1336,1583,0,0
119,-559,0,0,0,0,0,0,0,0,0,-1,1343,1583,0,0
126,-559,0,0,0,0,0,0,0,0,0,-1,1350,1583,0,0
133,-559,0,0,0,0,0,0,0,0,0,-1,1357,1583,0,0
140,-559,0,0,0,0,0,0,0,0,0,-1,1364,1583,0,0
147,-559,0,0,0,0,0,0,0,0,0,-1,1371,1583,0,0
154,-559,0,0,0,0,0,0,0,0,0,-1,1378,1583,0,0
161,-559,0,0,0,0,0,0,0,0,0,-1,1385,1583,0,0
168,-559,0,0,0,0,0,0,0,0,0,-1,1392,1583,0,0
175,-559,0,0,0,0,0,0,0,0,0,-1,1399,1583,0,0
182,-559,0,0,0,0,0,0,0,0,0,-1,1406,1583,0,0
189,-559,0,0,0,0,0,0,0,0,0,-1,1413,1583,0,0
196,-559,0,0,0,0,0,0,0,0,0,-1,1420,1583,0,0
203,-559,0,0,0,0,0,0,0,0,0,-1,1427,1583,0,0
210,-559,0,0,0,0,0,0,0,0,0,-1,1434,1583,0,0
217,-559,0,0,0,0,0,0,0,0,0,-1,1441,1583,0,0
224,-559,0,0,0,0,0,0,0,0,0,-1,1448,1583,0,0
231,-559,0,0,0,0,0,0,0,0,0,-1,1455,1583,0,0
238,-559,0,0,0,0,0,0,0,0,0,-1,1462,1583,0,0
245,-559,0,0,0,0,0,0,0,0,0,-1,1469,1583,0,0
252,-559,0,0,0,0,0,0,0,0,0,-1,1476,1583,0,0
259,-559,0,0,0,0,0,0,0,0,0,-1,1483,1583,0,0
266,-559,0,0,0,0,0,0,0,0,0,-1,1490,1583,0,0
273,-559,0,0,0,0,0,0,0,0,0,-1,1497,1583,0,0
280,-559,0,0,0,0,0,0,0,0,0,-1,1504,1583,0,0
287,-559,0,0,0,0,0,0,0,0,0,-1,1511,1583,0,0
294,-559,0,0,0,0,0,0,0,0,0,-1,1518,1583,0,0
301,-559,0,0,0,0,0,0,0,0,0,-1,1525,1583,0,0
308,-559,0,0,0,0,0,0,0,0,0,-1,1532,1583,0,0
315,-559,0,0,0,0,0,0,0,0,0,-1,1539,1583,0,0
322,-559,0,0,0,0,0,0,0,0,0,-1,1546,1583,0,0
329,-559,0,0,0,0,0,0,0,0,0,-1,1553,1583,0,0
336,-559,5.97668,3.09827,0,0,0,0,0,0,0,-1,1560,1583,5.97667,-3.09824
343,-559,5.44824,2.88696,0,0,0,0,0,0,0,-1,1567,1583,5.44819,-2.88693
350,-559,4.69775,3.27051,0,0,0,0,0,0,0,-1,1574,1583,4.69771,-3.27048
357,-559,3.88025,3.60999,0,0,0,0,0,0,0,-1,1581,1583,3.88027,-3.60998
364,-559,5.00928,5.32605,0,0,0,0,0,0,0,-1,1588,1583,5.00928,-5.32607
371,-559,1.84436,2.52441,0,0,0,0,0,0,0,-1,1595,1583,1.84441,-2.52447
378,-559,6.34753,1.53137,0,0,0,0,0,0,0,-1,1602,1583,6.34752,-1.53139
385,-559,6.95911,1.48181,0,0,0,0,0,0,0,-1,1609,1583,6.95916,-1.48175
392,-559,11.6949,4.77734,0,0,0,0,0,0,0,-1,1616,1583,11.6949,-4.77731
399,-559,11.1104,5.56909,0,0,0,0,0,0,0,-1,1623,1583,11.1103,-5.56905
406,-559,10.3385,6.48657,0,0,0,0,0,0,0,-1,1630,1583,10.3385,-6.48661
413,-559,9.76147,6.97571,0,0,0,0,0,0,0,-1,1637,1583,9.76143,-6.97574
420,-559,7.77124,10.5851,0,0,0,0,0,0,0,-1,1644,1583,7.77128,-10.585
427,-559,10.1022,12.5565,0,0,0,0,0,0,0,-1,1651,1583,10.1021,-12.5565
434,-559,9.62769,14.6309,0,0,0,0,0,0,0,-1,1658,1583,9.62771,-14.6309
441,-559,12.6149,21.3678,0,0,0,0,0,0,0,-1,1665,1583,12.6149,-21.3678
448,-559,13.7046,22.6677,0,0,0,0,0,0,0,-1,1672,1583,13.7046,-22.6677
455,-559,13.9427,23.0509,0,0,0,0,0,0,0,-1,1679,1583,13.9427,-23.0509
462,-559,15.4456,26.3518,0,0,0,0,0,0,0,-1,1686,1583,15.4456,-26.3518
469,-559,15.4841,25.6182,0.0047563,0.0161932,-0.00736325,0.0197978,0.00115177,-1.11556,0.0128318,0.0430587,1693,1583,15.4842,-25.6182
476,-559,15.5925,25.0228,0.00470565,0.0126658,-0.00621245,0.0160638,0.00130768,-1.07029,0.010301,0.0201541,1700,1583,15.5925,-25.0228
483,-559,15.67,24.4597,0.00463577,0.00939392,-0.00521573,0.0127475,0.00128214,-0.99937,0.00810485,0.0129963,1707,1583,15.6701,-24.4597
490,-559,15.6582,24.0272,0.00393013,0.0068086,-0.00386654,0.00949509,0.00124365,-0.963567,0.00595892,0.0149907,1714,1583,15.6582,-24.0272
497,-559,15.6649,23.6072,0.00310847,0.00490471,-0.0028216,0.00696768,0.00104551,-0.939479,0.00433881,0.0196483,1721,1583,15.6649,-23.6072
504,-559,15.642,23.1899,0.00230714,0.00314203,-0.0019112,0.00468084,0.00076833,-0.892919,0.0028986,0.0251087,1728,1583,15.642,-23.19
511,-559,15.646,22.7335,0.00139454,0.00167414,-0.000970021,0.00251439,0.000554298,-0.856967,0.00152544,0.0213993,1735,1583,15.646,-22.7335
518,-559,15.6519,22.2808,0.000422904,0.000218358,-2.53745e-05,0.000426005,0.000215257,-0.121597,0.000245959,0.0144938,1742,1583,15.6519,-22.2808
525,-559,15.6136,21.833,-0.000610271,-0.00112662,0.000944651,0.000110849,-0.00184774,0.652004,0.00127039,0.0132988,1749,1583,15.6137,-21.833
532,-559,15.6012,21.3944,-0.00166156,-0.0024661,0.00197886,-4.44937e-05,-0.00408317,0.685123,0.0027074,0.0144011,1756,1583,15.6013,-21.3944
539,-559,15.5695,20.9579,-0.00282782,-0.00387073,0.00314378,-0.000162538,-0.00653601,0.703212,0.00430418,0.0186468,1763,1583,15.5694,-20.9579
546,-559,15.5374,20.4962,-0.00422255,-0.00546033,0.00456147,-0.000238175,-0.00944471,0.717971,0.0062186,0.0164693,1770,1583,15.5373,-20.4962
553,-559,15.6156,20.0004,-0.00573651,-0.0071387,0.00615432,-0.000243479,-0.0126317,0.728683,0.00834118,0.0201048,1777,1583,15.6156,-20.0003
560,-559,15.5525,19.6783,-0.00726644,-0.00880043,0.00781161,-0.000184266,-0.0158826,0.736462,0.0105275,0.0403746,1784,1583,15.5525,-19.6784
567,-559,15.4281,19.1959,0,0,0,0,0,0,0,-1,1791,1583,15.4281,-19.196
574,-559,10.5109,10.7317,0,0,0,0,0,0,0,-1,1798,1583,10.5108,-10.7317
581,-559,5.97095,5.96179,0,0,0,0,0,0,0,-1,1805,1583,5.97093,-5.96181
588,-559,5.79102,5.89954,0,0,0,0,0,0,0,-1,1812,1583,5.79098,-5.89949
595,-559,5.79089,6.24231,0,0,0,0,0,0,0,-1,1819,1583,5.7909,-6.24227
602,-559,12.478,2.35669,0,0,0,0,0,0,0,-1,1826,1583,12.4781,-2.35675
609,-559,14.0479,1.22681,0,0,0,0,0,0,0,-1,1833,1583,14.0479,-1.22681
616,-559,0,0,0,0,0,0,0,0,0,-1,1840,1583,0,0
623,-559,0,0,0,0,0,0,0,0,0,-1,1847,1583,0,0
630,-559,0,0,0,0,0,0,0,0,0,-1,1854,1583,0,0
637,-559,0,0,0,0,0,0,0,0,0,-1,1861,1583,0,0
644,-559,0,0,0,0,0,0,0,0,0,-1,1868,1583,0,0
651,-559,0,0,0,0,0,0,0,0,0,-1,1875,1583,0,0
658,-559,0,0,0,0,0,0,0,0,0,-1,1882,1583,0,0
665,-559,0,0,0,0,0,0,0,0,0,-1,1889,1583,0,0
672,-559,0,0,0,0,0,0,0,0,0,-1,1896,1583,0,0
679,-559,0,0,0,0,0,0,0,0,0,-1,1903,1583,0,0
686,-559,0,0,0,0,0,0,0,0,0,-1,1910,1583,0,0
693,-559,0,0,0,0,0,0,0,0,0,-1,1917,1583,0,0
700,-559,0,0,0,0,0,0,0,0,0,-1,1924,1583,0,0
707,-559,0,0,0,0,0,0,0,0,0,-1,1931,1583,0,0
714,-559,0,0,0,0,0,0,0,0,0,-1,1938,1583,0,0
721,-559,0,0,0,0,0,0,0,0,0,-1,1945,1583,0,0
728,-559,0,0,0,0,0,0,0,0,0,-1,1952,1583,0,0
735,-559,0,0,0,0,0,0,0,0,0,-1,1959,1583,0,0
742,-559,0,0,0,0,0,0,0,0,0,-1,1966,1583,0,0
749,-559,0,0,0,0,0,0,0,0,0,-1,1973,1583,0,0
756,-559,0,0,0,0,0,0,0,0,0,-1,1980,1583,0,0
763,-559,0,0,0,0,0,0,0,0,0,-1,1987,1583,0,0
770,-559,0,0,0,0,0,0,0,0,0,-1,1994,1583,0,0
777,-559,0,0,0,0,0,0,0,0,0,-1,2001,1583,0,0
784,-559,0,0,0,0,0,0,0,0,0,-1,2008,1583,0,0
791,-559,0,0,0,0,0,0,0,0,0,-1,2015,1583,0,0
798,-559,0,0,0,0,0,0,0,0,0,-1,2022,1583,0,0
805,-559,0,0,0,0,0,0,0,0,0,-1,2029,1583,0,0
812,-559,0,0,0,0,0,0,0,0,0,-1,2036,1583,0,0
-700,-566,0,0,0,0,0,0,0,0,0,-1,524,1590,0,0
-693,-566,0,0,0,0,0,0,0,0,0,-1,531,1590,0,0
-686,-566,0,0,0,0,0,0,0,0,0,-1,538,1590,0,0
-679,-566,0,0,0,0,0,0,0,0,0,-1,545,1590,0,0
-672,-566,0,0,0,0,0,0,0,0,0,-1,552,1590,0,0
-665,-566,0,0,0,0,0,0,0,0,0,-1,559,1590,0,0
-658,-566,0,0,0,0,0,0,0,0,0,-1,566,1590,0,0
-651,-566,0,0,0,0,0,0,0,0,0,-1,573,1590,0,0
-644,-566,0,0,0,0,0,0,0,0,0,-1,580,1590,0,0
-637,-566,0,0,0,0,0,0,0,0,0,-1,587,1590,0,0
-630,-566,0,0,0,0,0,0,0,0,0,-1,594,1590,0,0
-623,-566,0,0,0,0,0,0,0,0,0,-1,601,1590,0,0
-616,-566,0,0,0,0,0,0,0,0,0,-1,608,1590,0,0
-609,-566,0,0,0,0,0,0,0,0,0,-1,615,1590,0,0
-602,-566,0,0,0,0,0,0,0,0,0,-1,622,1590,0,0
-595,-566,0,0,0,0,0,0,0,0,0,-1,629,1590,0,0
-588,-566,0,0,0,0,0,0,0,0,0,-1,636,1590,0,0
-581,-566,0,0,0,0,0,0,0,0,0,-1,643,1590,0,0
-574,-566,0,0,0,0,0,0,0,0,0,-1,650,1590,0,0
-567,-566,0,0,0,0,0,0,0,0,0,-1,657,1590,0,0
-560,-566,0,0,0,0,0,0,0,0,0,-1,664,1590,0,0
-553,-566,0,0,0,0,0,0,0,0,0,-1,671,1590,0,0
-546,-566,0,0,0,0,0,0,0,0,0,-1,678,1590,0,0
-539,-566,0,0,0,0,0,0,0,0,0,-1,685,1590,0,0
-532,-566,0,0,0,0,0,0,0,0,0,-1,692,1590,0,0
-525,-566,0,0,0,0,0,0,0,0,0,-1,699,1590,0,0
-518,-566,0,0,0,0,0,0,0,0,0,-1,706,1590,0,0
-511,-566,0,0,0,0,0,0,0,0,0,-1,713,1590,0,0
-504,-566,0,0,0,0,0,0,0,0,0,-1,720,1590,0,0
-497,-566,0,0,0,0,0,0,0,0,0,-1,727,1590,0,0
-490,-566,0,0,0,0,0,0,0,0,0,-1,734,1590,0,0
-483,-566,-7.17084,2.78613,0,0,0,0,0,0,0,-1,741,1590,-7.17083,-2.78618
-476,-566,-7.13971,2.87183,0,0,0,0,0,0,0,-1,748,1590,-7.13971,-2.87184
-469,-566,-6.43829,3.2998,0,0,0,0,0,0,0,-1,755,1590,-6.43829,-3.2998
-462,-566,-0.459106,3.89343,0,0,0,0,0,0,0,-1,762,1590,-0.459095,-3.89341
-455,-566,0.280212,4.74023,0,0,0,0,0,0,0,-1,769,1590,0.280207,-4.74023
-448,-566,0.436951,5.51306,0,0,0,0,0,0,0,-1,776,1590,0.436971,-5.51301
-441,-566,-0.440735,12.4063,0,0,0,0,0,0,0,-1,783,1590,-0.440753,-12.4062
-434,-566,0.344421,18.3589,0,0,0,0,0,0,0,-1,790,1590,0.344403,-18.3589
-427,-566,-0.026123,18.4264,0,0,0,0,0,0,0,-1,797,1590,-0.0261205,-18.4264
-420,-566,0.0598145,18.7616,0,0,0,0,0,0,0,-1,804,1590,0.0598419,-18.7616
-413,-566,0.189575,19.3375,-0.00695359,0.00252272,-0.001228,0.00267926,-0.00711014,-1.444,0.00584171,0.0269488,811,1590,0.18956,-19.3376
-406,-566,0.182434,19.8264,-0.00562246,0.00114151,-0.000601414,0.00119457,-0.00567552,-1.4828,0.00423836,0.0113367,818,1590,0.182444,-19.8264
-399,-566,0.154053,20.3192,-0.00449062,0.00080852,-0.000237779,0.000819168,-0.00450127,-1.52604,0.00330789,0.00951848,825,1590,0.154059,-20.3192
-392,-566,0.13031,20.8058,-0.00346849,0.00106454,7.49505e-05,0.00106577,-0.00346972,1.55427,0.00273843,0.0123792,832,1590,0.130308,-20.8058
-385,-566,0.132629,21.3118,-0.00243185,0.00146889,0.000299045,0.00149168,-0.00245464,1.49472,0.00230091,0.0150595,839,1590,0.13262,-21.3117
-378,-566,0.129639,21.7975,-0.00134544,0.0021574,0.000593976,0.00225538,-0.00144342,1.40731,0.00215258,0.0154784,846,1590,0.129617,-21.7974
-371,-566,0.0985718,22.2605,-0.000379002,0.00269296,0.000702684,0.00284606,-0.000532105,1.35627,0.00209737,0.0216789,853,1590,0.0985875,-22.2605
-364,-566,0.0836182,22.703,0.000557848,0.00336864,0.000805521,0.00358312,0.000343367,1.31057,0.00228292,0.0221357,860,1590,0.0836041,-22.703
-357,-566,0.034729,23.146,0.00151403,0.00417494,0.00089272,0.00444668,0.00124228,1.2753,0.0026493,0.0178505,867,1590,0.0347169,-23.146
-350,-566,0.0326538,23.6256,0.00257746,0.00503172,0.00102194,0.00540153,0.00220765,1.22359,0.00313585,0.0202162,874,1590,0.0326388,-23.6256
-343,-566,0.0490112,24.0902,0.00365235,0.00617054,0.00125596,0.00668985,0.00313303,1.17872,0.00386497,0.0238497,881,1590,0.0489884,-24.0902
-336,-566,-0.0603638,24.5093,0.00464715,0.00743988,0.00152772,0.00811324,0.00397379,1.15565,0.00468451,0.0275073,888,1590,-0.0603717,-24.5092
-329,-566,0.0419312,24.9073,0.00569644,0.0088669,0.00203237,0.00985916,0.00470417,1.11661,0.00569417,0.0233025,895,1590,0.0419511,-24.9074
-322,-566,0.203186,25.5463,0,0,0,0,0,0,0,-1,902,1590,0.203182,-25.5462
-315,-566,0.458618,26.0583,0,0,0,0,0,0,0,-1,909,1590,0.458618,-26.0583
-308,-566,0.50708,26.2681,0,0,0,0,0,0,0,-1,916,1590,0.507082,-26.268
-301,-566,1.14246,27.0635,0,0,0,0,0,0,0,-1,923,1590,1.14247,-27.0634
-294,-566,0.741455,25.3229,0,0,0,0,0,0,0,-1,930,1590,0.741475,-25.3229
-287,-566,1.25391,23.4589,0,0,0,0,0,0,0,-1,937,1590,1.2539,-23.4589
-280,-566,1.59406,17.8762,0,0,0,0,0,0,0,-1,944,1590,1.59405,-17.8762
-273,-566,0.49762,11.2427,0,0,0,0,0,0,0,-1,951,1590,0.497591,-11.2426
-266,-566,0.392151,6.90295,0,0,0,0,0,0,0,-1,958,1590,0.392151,-6.90294
-259,-566,0.343628,6.47437,0,0,0,0,0,0,0,-1,965,1590,0.34363,-6.47438
-252,-566,-7.68311,1.01343,0,0,0,0,0,0,0,-1,972,1590,-7.68308,-1.01348
-245,-566,-11.1835,1.97522,0,0,0,0,0,0,0,-1,979,1590,-11.1835,-1.97527
-238,-566,-10.4883,2.40491,0,0,0,0,0,0,0,-1,986,1590,-10.4883,-2.40487
-231,-566,-7.41827,4.22803,0,0,0,0,0,0,0,-1,993,1590,-7.41827,-4.22803
-224,-566,-4.67188,6.30859,0,0,0,0,0,0,0,-1,1000,1590,-4.67185,-6.30853
-217,-566,-2.82867,7.52527,0,0,0,0,0,0,0,-1,1007,1590,-2.82869,-7.52531
-210,-566,-1.03436,8.67737,0,0,0,0,0,0,0,-1,1014,1590,-1.03439,-8.67733
-203,-566,0,0,0,0,0,0,0,0,0,-1,1021,1590,0,0
-196,-566,0,0,0,0,0,0,0,0,0,-1,1028,1590,0,0
-189,-566,0,0,0,0,0,0,0,0,0,-1,1035,1590,0,0
-182,-566,0,0,0,0,0,0,0,0,0,-1,1042,1590,0,0
-175,-566,0,0,0,0,0,0,0,0,0,-1,1049,1590,0,0
-168,-566,0,0,0,0,0,0,0,0,0,-1,1056,1590,0,0
-161,-566,0,0,0,0,0,0,0,0,0,-1,1063,1590,0,0
-154,-566,0,0,0,0,0,0,0,0,0,-1,1070,1590,0,0
-147,-566,0,0,0,0,0,0,0,0,0,-1,1077,1590,0,0
-140,-566,0,0,0,0,0,0,0,0,0,-1,1084,1590,0,0
-133,-566,0,0,0,0,0,0,0,0,0,-1,1091,1590,0,0
-126,-566,0,0,0,0,0,0,0,0,0,-1,1098,1590,0,0
-119,-566,0,0,0,0,0,0,0,0,0,-1,1105,1590,0,0
-112,-566,0,0,0,0,0,0,0,0,0,-1,1112,1590,0,0
-105,-566,0,0,0,0,0,0,0,0,0,-1,1119,1590,0,0
-98,-566,0,0,0,0,0,0,0,0,0,-1,1126,1590,0,0
-91,-566,0,0,0,0,0,0,0,0,0,-1,1133,1590,0,0
-84,-566,0,0,0,0,0,0,0,0,0,-1,1140,1590,0,0
-77,-566,0,0,0,0,0,0,0,0,0,-1,1147,1590,0,0
-70,-566,0,0,0,0,0,0,0,0,0,-1,1154,1590,0,0
-63,-566,0,0,0,0,0,0,0,0,0,-1,1161,1590,0,0
-56,-566,0,0,0,0,0,0,0,0,0,-1,1168,1590,0,0
-49,-566,0,0,0,0,0,0,0,0,0,-1,1175,1590,0,0
-42,-566,0,0,0,0,0,0,0,0,0,-1,1182,1590,0,0
-35,-566,0,0,0,0,0,0,0,0,0,-1,1189,1590,0,0
-28,-566,0,0,0,0,0,0,0,0,0,-1,1196,1590,0,0
-21,-566,0,0,0,0,0,0,0,0,0,-1,1203,1590,0,0
-14,-566,0,0,0,0,0,0,0,0,0,-1,1210,1590,0,0
-7,-566,0,0,0,0,0,0,0,0,0,-1,1217,1590,0,0
0,-566,0,0,0,0,0,0,0,0,0,-1,1224,1590,0,0
7,-566,0,0,0,0,0,0,0,0,0,-1,1231,1590,0,0
14,-566,0,0,0,0,0,0,0,0,0,-1,1238,1590,0,0
21,-566,0,0,0,0,0,0,0,0,0,-1,1245,1590,0,0
28,-566,0,0,0,0,0,0,0,0,0,-1,1252,1590,0,0
35,-566,0,0,0,0,0,0,0,0,0,-1,1259,1590,0,0
42,-566,0,0,0,0,0,0,0,0,0,-1,1266,1590,0,0
49,-566,0,0,0,0,0,0,0,0,0,-1,1273,1590,0,0
56,-566,0,0,0,0,0,0,0,0,0,-1,1280,1590,0,0
63,-566,0,0,0,0,0,0,0,0,0,-1,1287,1590,0,0
70,-566,0,0,0,0,0,0,0,0,0,-1,1294,1590,0,0
77,-566,0,0,0,0,0,0,0,0,0,-1,1301,1590,0,0
84,-566,0,0,0,0,0,0,0,0,0,-1,1308,1590,0,0
91,-566,0,0,0,0,0,0,0,0,0,-1,1315,1590,0,0
98,-566,0,0,0,0,0,0,0,0,0,-1,1322,1590,0,0
105,-566,0,0,0,0,0,0,0,0,0,-1,1329,1590,0,0
112,-566,0,0,0,0,0,0,0,0,0,-1,1336,1590,0,0
119,-566,0,0,0,0,0,0,0,0,0,-1,1343,1590,0,0
126,-566,0,0,0,0,0,0,0,0,0,-1,1350,1590,0,0
133,-566,0,0,0,0,0,0,0,0,0,-1,1357,1590,0,0
140,-566,0,0,0,0,0,0,0,0,0,-1,1364,1590,0,0
147,-566,0,0,0,0,0,0,0,0,0,-1,1371,1590,0,0
154,-566,0,0,0,0,0,0,0,0,0,-1,1378,1590,0,0
161,-566,0,0,0,0,0,0,0,0,0,-1,1385,1590,0,0
168,-566,0,0,0,0,0,0,0,0,0,-1,1392,1590,0,0
175,-566,0,0,0,0,0,0,0,0,0,-1,1399,1590,0,0
182,-566,0,0,0,0,0,0,0,0,0,-1,1406,1590,0,0
189,-566,0,0,0,0,0,0,0,0,0,-1,1413,1590,0,0
196,-566,0,0,0,0,0,0,0,0,0,-1,1420,1590,0,0
203,-566,0,0,0,0,0,0,0,0,0,-1,1427,1590,0,0
210,-566,0,0,0,0,0,0,0,0,0,-1,1434,1590,0,0
217,-566,0,0,0,0,0,0,0,0,0,-1,1441,1590,0,0
224,-566,0,0,0,0,0,0,0,0,0,-1,1448,1590,0,0
231,-566,0,0,0,0,0,0,0,0,0,-1,1455,1590,0,0
238,-566,0,0,0,0,0,0,0,0,0,-1,1462,1590,0,0
245,-566,0,0,0,0,0,0,0,0,0,-1,1469,1590,0,0
252,-566,0,0,0,0,0,0,0,0,0,-1,1476,1590,0,0
259,-566,0,0,0,0,0,0,0,0,0,-1,1483,1590,0,0
266,-566,0,0,0,0,0,0,0,0,0,-1,1490,1590,0,0
273,-566,0,0,0,0,0,0,0,0,0,-1,1497,1590,0,0
280,-566,0,0,0,0,0,0,0,0,0,-1,1504,1590,0,0
287,-566,0,0,0,0,0,0,0,0,0,-1,1511,1590,0,0
294,-566,0,0,0,0,0,0,0,0,0,-1,1518,1590,0,0
301,-566,0,0,0,0,0,0,0,0,0,-1,1525,1590,0,0
308,-566,0,0,0,0,0,0,0,0,0,-1,1532,1590,0,0
315,-566,0,0,0,0,0,0,0,0,0,-1,1539,1590,0,0
322,-566,6.07983,4.44873,0,0,0,0,0,0,0,-1,1546,1590,6.07983,-4.44873
329,-566,5.77026,3.47534,0,0,0,0,0,0,0,-1,1553,1590,5.77026,-3.47535
336,-566,5.41138,2.62915,0,0,0,0,0,0,0,-1,1560,1590,5.41138,-2.62909
343,-566,4.81873,1.79089,0,0,0,0,0,0,0,-1,1567,1590,4.81878,-1.79095
350,-566,4.41663,2.44214,0,0,0,0,0,0,0,-1,1574,1590,4.41666,-2.44214
357,-566,6.34058,5.18579,0,0,0,0,0,0,0,-1,1581,1590,6.34059,-5.1858
364,-566,6.06262,4.20251,0,0,0,0,0,0,0,-1,1588,1590,6.06259,-4.20246
371,-566,5.78455,3.21912,0,0,0,0,0,0,0,-1,1595,1590,5.7846,-3.21912
378,-566,5.7439,0.695557,0,0,0,0,0,0,0,-1,1602,1590,5.74392,-0.695531
385,-566,5.67615,-0.573975,0,0,0,0,0,0,0,-1,1609,1590,5.67612,0.573956
392,-566,5.78638,1.82434,0,0,0,0,0,0,0,-1,1616,1590,5.78637,-1.82439
399,-566,5.36621,1.7373,0,0,0,0,0,0,0,-1,1623,1590,5.36627,-1.7373
406,-566,4.30359,5.26868,0,0,0,0,0,0,0,-1,1630,1590,4.30364,-5.26867
413,-566,4.27124,5.79492,0,0,0,0,0,0,0,-1,1637,1590,4.27123,-5.7949
420,-566,7.19812,8.25146,0,0,0,0,0,0,0,-1,1644,1590,7.19817,-8.25149
427,-566,17.5582,28.2505,0,0,0,0,0,0,0,-1,1651,1590,17.5582,-28.2505
434,-566,9.18567,14.3304,0,0,0,0,0,0,0,-1,1658,1590,9.18571,-14.3305
441,-566,15.5841,27.5869,0,0,0,0,0,0,0,-1,1665,1590,15.5842,-27.587
448,-566,15.333,27.423,0,0,0,0,0,0,0,-1,1672,1590,15.333,-27.4229
455,-566,15.0063,26.6327,0,0,0,0,0,0,0,-1,1679,1590,15.0064,-26.6327
462,-566,15.0679,26.0654,0.00321006,0.016101,-0.00652078,0.0188242,0.000486855,-1.17519,0.0123904,0.035838,1686,1590,15.0679,-26.0655
469,-566,15.1406,25.3932,0.0035951,0.0130377,-0.00578004,0.0157796,0.000853196,-1.12786,0.0102472,0.0165308,1693,1590,15.1406,-25.3932
476,-566,15.22,24.9098,0.00355047,0.0101467,-0.00487166,0.0127317,0.000965505,-1.08296,0.00818495,0.0106679,1700,1590,15.22,-24.9098
483,-566,15.2303,24.4645,0.00350572,0.00733351,-0.00406634,0.00991384,0.000925388,-1.00535,0.00632338,0.0106123,1707,1590,15.2304,-24.4644
490,-566,15.2015,24.0225,0.00295496,0.00511239,-0.00295407,0.00717854,0.000888812,-0.960458,0.00451865,0.0110617,1714,1590,15.2015,-24.0225
497,-566,15.2095,23.6094,0.00220502,0.00342765,-0.00204105,0.00494697,0.000685697,-0.930901,0.00309484,0.0152312,1721,1590,15.2094,-23.6094
504,-566,15.2142,23.2041,0.00136084,0.00178334,-0.00112504,0.0027168,0.000427388,-0.878203,0.00168688,0.0204417,1728,1590,15.2143,-23.2041
511,-566,15.2141,22.7769,0.000429699,0.000350485,-0.000168112,0.000562807,0.000217378,-0.669708,0.000327728,0.0194631,1735,1590,15.2142,-22.7768
518,-566,15.2028,22.3296,-0.000527982,-0.00103917,0.000763275,2.13563e-05,-0.00158851,0.623833,0.0010662,0.0125386,1742,1590,15.2027,-22.3296
525,-566,15.1729,21.8667,-0.00157472,-0.00237602,0.00176068,-0.000169684,-0.00378106,0.673526,0.00246609,0.0121776,1749,1590,15.1728,-21.8668
532,-566,15.1522,21.4125,-0.00270315,-0.00379793,0.00289311,-0.000306105,-0.00619498,0.691901,0.00403183,0.014059,1756,1590,15.1522,-21.4124
539,-566,15.1349,20.9515,-0.00407249,-0.00541273,0.00426652,-0.000423781,-0.00906143,0.707502,0.00590477,0.0182677,1763,1590,15.1349,-20.9516
546,-566,15.1982,20.4573,-0.00580621,-0.00730241,0.00601672,-0.000491266,-0.0126174,0.723547,0.00825269,0.020707,1770,1590,15.1983,-20.4573
553,-566,15.1702,20.1527,-0.00776908,-0.00937028,0.00804551,-0.000484431,-0.0166549,0.735807,0.0109454,0.0334809,1777,1590,15.1702,-20.1527
560,-566,14.8005,20.0283,-0.00999191,-0.0116251,0.0103472,-0.000429127,-0.0211879,0.746019,0.0139844,0.0424616,1784,1590,14.8006,-20.0283
567,-566,14.5525,19.8097,0,0,0,0,0,0,0,-1,1791,1590,14.5525,-19.8097
574,-566,7.99548,3.14514,0,0,0,0,0,0,0,-1,1798,1590,7.99543,-3.14511
581,-566,2.54102,5.1311,0,0,0,0,0,0,0,-1,1805,1590,2.54099,-5.13111
588,-566,-1.91321,8.39197,0,0,0,0,0,0,0,-1,1812,1590,-1.91316,-8.39199
595,-566,9.0271,4.66467,0,0,0,0,0,0,0,-1,1819,1590,9.02705,-4.66468
602,-566,9.953,3.54895,0,0,0,0,0,0,0,-1,1826,1590,9.953,-3.54898
609,-566,0,0,0,0,0,0,0,0,0,-1,1833,1590,0,0
616,-566,0,0,0,0,0,0,0,0,0,-1,1840,1590,0,0
623,-566,0,0,0,0,0,0,0,0,0,-1,1847,1590,0,0
630,-566,0,0,0,0,0,0,0,0,0,-1,1854,1590,0,0
637,-566,0,0,0,0,0,0,0,0,0,-1,1861,1590,0,0
644,-566,0,0,0,0,0,0,0,0,0,-1,1868,1590,0,0
651,-566,0,0,0,0,0,0,0,0,0,-1,1875,1590,0,0
658,-566,0,0,0,0,0,0,0,0,0,-1,1882,1590,0,0
665,-566,0,0,0,0,0,0,0,0,0,-1,1889,1590,0,0
672,-566,0,0,0,0,0,0,0,0,0,-1,1896,1590,0,0
679,-566,0,0,0,0,0,0,0,0,0,-1,1903,1590,0,0
686,-566,0,0,0,0,0,0,0,0,0,-1,1910,1590,0,0
693,-566,0,0,0,0,0,0,0,0,0,-1,1917,1590,0,0
700,-566,0,0,0,0,0,0,0,0,0,-1,1924,1590,0,0
707,-566,0,0,0,0,0,0,0,0,0,-1,1931,1590,0,0
714,-566,0,0,0,0,0,0,0,0,0,-1,1938,1590,0,0
721,-566,0,0,0,0,0,0,0,0,0,-1,1945,1590,0,0
728,-566,0,0,0,0,0,0,0,0,0,-1,1952,1590,0,0
735,-566,0,0,0,0,0,0,0,0,0,-1,1959,1590,0,0
742,-566,0,0,0,0,0,0,0,0,0,-1,1966,1590,0,0
749,-566,0,0,0,0,0,0,0,0,0,-1,1973,1590,0,0
756,-566,0,0,0,0,0,0,0,0,0,-1,1980,1590,0,0
763,-566,0,0,0,0,0,0,0,0,0,-1,1987,1590,0,0
770,-566,0,0,0,0,0,0,0,0,0,-1,1994,1590,0,0
777,-566,0,0,0,0,0,0,0,0,0,-1,2001,1590,0,0
784,-566,0,0,0,0,0,0,0,0,0,-1,2008,1590,0,0
791,-566,0,0,0,0,0,0,0,0,0,-1,2015,1590,0,0
798,-566,0,0,0,0,0,0,0,0,0,-1,2022,1590,0,0
805,-566,0,0,0,0,0,0,0,0,0,-1,2029,1590,0,0
812,-566,0,0,0,0,0,0,0,0,0,-1,2036,1590,0,0
-700,-573,0,0,0,0,0,0,0,0,0,-1,524,1597,0,0
-693,-573,0,0,0,0,0,0,0,0,0,-1,531,1597,0,0
-686,-573,0,0,0,0,0,0,0,0,0,-1,538,1597,0,0
-679,-573,0,0,0,0,0,0,0,0,0,-1,545,1597,0,0
-672,-573,0,0,0,0,0,0,0,0,0,-1,552,1597,0,0
-665,-573,0,0,0,0,0,0,0,0,0,-1,559,1597,0,0
-658,-573,0,0,0,0,0,0,0,0,0,-1,566,1597,0,0
-651,-573,0,0,0,0,0,0,0,0,0,-1,573,1597,0,0
-644,-573,0,0,0,0,0,0,0,0,0,-1,580,1597,0,0
-637,-573,0,0,0,0,0,0,0,0,0,-1,587,1597,0,0
-630,-573,0,0,0,0,0,0,0,0,0,-1,594,1597,0,0
-623,-573,0,0,0,0,0,0,0,0,0,-1,601,1597,0,0
-616,-573,0,0,0,0,0,0,0,0,0,-1,608,1597,0,0
-609,-573,0,0,0,0,0,0,0,0,0,-1,615,1597,0,0
-602,-573,0,0,0,0,0,0,0,0,0,-1,622,1597,0,0
-595,-573,0,0,0,0,0,0,0,0,0,-1,629,1597,0,0
-588,-573,0,0,0,0,0,0,0,0,0,-1,636,1597,0,0
-581,-573,0,0,0,0,0,0,0,0,0,-1,643,1597,0,0
-574,-573,0,0,0,0,0,0,0,0,0,-1,650,1597,0,0
-567,-573,0,0,0,0,0,0,0,0,0,-1,657,1597,0,0
-560,-573,0,0,0,0,0,0,0,0,0,-1,664,1597,0,0
-553,-573,0,0,0,0,0,0,0,0,0,-1,671,1597,0,0
-546,-573,0,0,0,0,0,0,0,0,0,-1,678,1597,0,0
-539,-573,0,0,0,0,0,0,0,0,0,-1,685,1597,0,0
-532,-573,0,0,0,0,0,0,0,0,0,-1,692,1597,0,0
-525,-573,0,0,0,0,0,0,0,0,0,-1,699,1597,0,0
-518,-573,0,0,0,0,0,0,0,0,0,-1,706,1597,0,0
-511,-573,0,0,0,0,0,0,0,0,0,-1,713,1597,0,0
-504,-573,0,0,0,0,0,0,0,0,0,-1,720,1597,0,0
-497,-573,0,0,0,0,0,0,0,0,0,-1,727,1597,0,0
-490,-573,0,0,0,0,0,0,0,0,0,-1,734,1597,0,0
-483,-573,0,0,0,0,0,0,0,0,0,-1,741,1597,0,0
-476,-573,-9.3327,0.972778,0,0,0,0,0,0,0,-1,748,1597,-9.33268,-0.972776
-469,-573,-1.41681,1.13379,0,0,0,0,0,0,0,-1,755,1597,-1.41681,-1.13382
-462,-573,-0.748535,2.02588,0,0,0,0,0,0,0,-1,762,1597,-0.748533,-2.02584
-455,-573,-0.112976,2.70703,0,0,0,0,0,0,0,-1,769,1597,-0.112988,-2.70697
-448,-573,-1.26172,3.33252,0,0,0,0,0,0,0,-1,776,1597,-1.26173,-3.33248
-441,-573,0.108582,5.06726,0,0,0,0,0,0,0,-1,783,1597,0.108584,-5.06721
-434,-573,1.61768,7.05444,0,0,0,0,0,0,0,-1,790,1597,1.61767,-7.05446
-427,-573,-0.026123,18.3727,0,0,0,0,0,0,0,-1,797,1597,-0.0261126,-18.3727
-420,-573,1.06628,17.4988,0,0,0,0,0,0,0,-1,804,1597,1.06625,-17.4988
-413,-573,0.673462,19.1599,0,0,0,0,0,0,0,-1,811,1597,0.673485,-19.1599
-406,-573,0.680847,19.7729,-0.00763049,0.00171094,-0.000588978,0.00174793,-0.00766748,-1.50808,0.00578303,0.0289229,818,1597,0.680872,-19.7729
-399,-573,0.623413,20.3285,-0.00627031,0.00107304,-0.000237764,0.00108073,-0.006278,-1.53846,0.0045882,0.0132797,825,1597,0.62344,-20.3285
-392,-573,0.61792,20.8318,-0.00502168,0.000995913,8.6846e-05,0.000997166,-0.00502293,1.55637,0.00372576,0.0119331,832,1597,0.617892,-20.8318
-385,-573,0.600342,21.3241,-0.00382934,0.00116849,0.000276814,0.00118377,-0.00384463,1.51563,0.00303562,0.0136959,839,1597,0.600324,-21.3241
-378,-573,0.588501,21.8002,-0.00261518,0.00159045,0.000532381,0.0016568,-0.00268152,1.44681,0.00252791,0.0152136,846,1597,0.588497,-21.8002
-371,-573,0.58313,22.252,-0.00150824,0.00188561,0.000623073,0.00199639,-0.00161901,1.39485,0.00209114,0.0160714,853,1597,0.583158,-22.2519
-364,-573,0.553284,22.6942,-0.00046618,0.00230265,0.000699025,0.00246912,-0.000632649,1.33701,0.00189254,0.018951,860,1597,0.553284,-22.6942
-357,-573,0.556641,23.1561,0.000567282,0.00286964,0.000772352,0.00310473,0.000332192,1.27532,0.00196845,0.0229549,867,1597,0.556659,-23.1562
-350,-573,0.5354,23.6586,0.00167476,0.00347999,0.000885742,0.00384199,0.00131276,1.18281,0.00225493,0.017959,874,1597,0.53539,-23.6586
-343,-573,0.555115,24.0967,0.00276372,0.00435371,0.0011308,0.004941,0.00217642,1.09178,0.00285942,0.0203665,881,1597,0.55509,-24.0967
-336,-573,0.520264,24.5587,0.00375973,0.0052951,0.00137837,0.00610514,0.00294968,1.03948,0.00352547,0.0167578,888,1597,0.520243,-24.5587
-329,-573,0.505127,25.015,0.00475308,0.00645245,0.00180214,0.00759517,0.00361036,1.00569,0.00438685,0.0169204,895,1597,0.505141,-25.015
-322,-573,0.530396,25.4785,0.00579458,0.0075511,0.00230652,0.00914091,0.00420477,0.967309,0.00528314,0.0152818,902,1597,0.530397,-25.4785
-315,-573,0.654175,26.0916,0.0069528,0.00898556,0.00297179,0.01111,0.00482839,0.950167,0.00643261,0.036766,909,1597,0.654176,-26.0915
-308,-573,0.993958,26.8169,0,0,0,0,0,0,0,-1,916,1597,0.993985,-26.8169
-301,-573,0.8172,27.0023,0,0,0,0,0,0,0,-1,923,1597,0.817199,-27.0023
-294,-573,1.00702,24.802,0,0,0,0,0,0,0,-1,930,1597,1.00701,-24.802
-287,-573,1.38068,27.6692,0,0,0,0,0,0,0,-1,937,1597,1.38071,-27.6692
-280,-573,1.19684,26.4906,0,0,0,0,0,0,0,-1,944,1597,1.19685,-26.4906
-273,-573,2.24805,25.4375,0,0,0,0,0,0,0,-1,951,1597,2.24803,-25.4374
-266,-573,1.31116,7.1814,0,0,0,0,0,0,0,-1,958,1597,1.31118,-7.18142
-259,-573,1.2514,6.70959,0,0,0,0,0,0,0,-1,965,1597,1.25137,-6.70965
-252,-573,2.07874,5.27161,0,0,0,0,0,0,0,-1,972,1597,2.07875,-5.27157
-245,-573,-10.2592,1.09827,0,0,0,0,0,0,0,-1,979,1597,-10.2592,-1.09823
-238,-573,-11.5463,4.44141,0,0,0,0,0,0,0,-1,986,1597,-11.5463,-4.44146
-231,-573,-9.23431,4.14539,0,0,0,0,0,0,0,-1,993,1597,-9.23431,-4.14534
-224,-573,-6.70044,7.40857,0,0,0,0,0,0,0,-1,1000,1597,-6.70045,-7.40851
-217,-573,-4.25824,8.59119,0,0,0,0,0,0,0,-1,1007,1597,-4.25824,-8.59122
-210,-573,-2.39661,9.73914,0,0,0,0,0,0,0,-1,1014,1597,-2.39658,-9.73915
-203,-573,-0.557373,10.9005,0,0,0,0,0,0,0,-1,1021,1597,-0.557387,-10.9006
-196,-573,-1.65344,9.02246,0,0,0,0,0,0,0,-1,1028,1597,-1.65349,-9.02241
-189,-573,-6.12915,6.66882,0,0,0,0,0,0,0,-1,1035,1597,-6.12913,-6.66884
-182,-573,0,0,0,0,0,0,0,0,0,-1,1042,1597,0,0
-175,-573,0,0,0,0,0,0,0,0,0,-1,1049,1597,0,0
-168,-573,0,0,0,0,0,0,0,0,0,-1,1056,1597,0,0
-161,-573,0,0,0,0,0,0,0,0,0,-1,1063,1597,0,0
-154,-573,0,0,0,0,0,0,0,0,0,-1,1070,1597,0,0
-147,-573,0,0,0,0,0,0,0,0,0,-1,1077,1597,0,0
-140,-573,0,0,0,0,0,0,0,0,0,-1,1084,1597,0,0
-133,-573,0,0,0,0,0,0,0,0,0,-1,1091,1597,0,0
-126,-573,0,0,0,0,0,0,0,0,0,-1,1098,1597,0,0
-119,-573,0,0,0,0,0,0,0,0,0,-1,1105,1597,0,0
-112,-573,0,0,0,0,0,0,0,0,0,-1,1112,1597,0,0
-105,-573,0,0,0,0,0,0,0,0,0,-1,1119,1597,0,0
-98,-573,0,0,0,0,0,0,0,0,0,-1,1126,1597,0,0
-91,-573,0,0,0,0,0,0,0,0,0,-1,1133,1597,0,0
-84,-573,0,0,0,0,0,0,0,0,0,-1,1140,1597,0,0
-77,-573,0,0,0,0,0,0,0,0,0,-1,1147,1597,0,0
-70,-573,0,0,0,0,0,0,0,0,0,-1,1154,1597,0,0
-63,-573,0,0,0,0,0,0,0,0,0,-1,1161,1597,0,0
-56,-573,0,0,0,0,0,0,0,0,0,-1,1168,1597,0,0
-49,-573,0,0,0,0,0,0,0,0,0,-1,1175,1597,0,0
-42,-573,0,0,0,0,0,0,0,0,0,-1,1182,1597,0,0
-35,-573,0,0,0,0,0,0,0,0,0,-1,1189,1597,0,0
-28,-573,0,0,0,0,0,0,0,0,0,-1,1196,1597,0,0
-21,-573,0,0,0,0,0,0,0,0,0,-1,1203,1597,0,0
-14,-573,0,0,0,0,0,0,0,0,0,-1,1210,1597,0,0
-7,-573,0,0,0,0,0,0,0,0,0,-1,1217,1597,0,0
0,-573,0,0,0,0,0,0,0,0,0,-1,1224,1597,0,0
7,-573,0,0,0,0,0,0,0,0,0,-1,1231,1597,0,0
14,-573,0,0,0,0,0,0,0,0,0,-1,1238,1597,0,0
21,-573,0,0,0,0,0,0,0,0,0,-1,1245,1597,0,0
28,-573,0,0,0,0,0,0,0,0,0,-1,1252,1597,0,0
35,-573,0,0,0,0,0,0,0,0,0,-1,1259,1597,0,0
42,-573,0,0,0,0,0,0,0,0,0,-1,1266,1597,0,0
49,-573,0,0,0,0,0,0,0,0,0,-1,1273,1597,0,0
56,-573,0,0,0,0,0,0,0,0,0,-1,1280,1597,0,0
63,-573,0,0,0,0,0,0,0,0,0,-1,1287,1597,0,0
70,-573,0,0,0,0,0,0,0,0,0,-1,1294,1597,0,0
77,-573,0,0,0,0,0,0,0,0,0,-1,1301,1597,0,0
84,-573,0,0,0,0,0,0,0,0,0,-1,1308,1597,0,0
91,-573,0,0,0,0,0,0,0,0,0,-1,1315,1597,0,0
98,-573,0,0,0,0,0,0,0,0,0,-1,1322,1597,0,0
105,-573,0,0,0,0,0,0,0,0,0,-1,1329,1597,0,0
112,-573,0,0,0,0,0,0,0,0,0,-1,1336,1597,0,0
119,-573,0,0,0,0,0,0,0,0,0,-1,1343,1597,0,0
126,-573,0,0,0,0,0,0,0,0,0,-1,1350,1597,0,0
133,-573,0,0,0,0,0,0,0,0,0,-1,1357,1597,0,0
140,-573,0,0,0,0,0,0,0,0,0,-1,1364,1597,0,0
147,-573,0,0,0,0,0,0,0,0,0,-1,1371,1597,0,0
154,-573,0,0,0,0,0,0,0,0,0,-1,1378,1597,0,0
161,-573,0,0,0,0,0,0,0,0,0,-1,1385,1597,0,0
168,-573,0,0,0,0,0,0,0,0,0,-1,1392,1597,0,0
175,-573,0,0,0,0,0,0,0,0,0,-1,1399,1597,0,0
182,-573,0,0,0,0,0,0,0,0,0,-1,1406,1597,0,0
189,-573,0,0,0,0,0,0,0,0,0,-1,1413,1597,0,0
196,-573,0,0,0,0,0,0,0,0,0,-1,1420,1597,0,0
203,-573,0,0,0,0,0,0,0,0,0,-1,1427,1597,0,0
210,-573,0,0,0,0,0,0,0,0,0,-1,1434,1597,0,0
217,-573,0,0,0,0,0,0,0,0,0,-1,1441,1597,0,0
224,-573,0,0,0,0,0,0,0,0,0,-1,1448,1597,0,0
231,-573,0,0,0,0,0,0,0,0,0,-1,1455,1597,0,0
238,-573,0,0,0,0,0,0,0,0,0,-1,1462,1597,0,0
245,-573,0,0,0,0,0,0,0,0,0,-1,1469,1597,0,0
252,-573,0,0,0,0,0,0,0,0,0,-1,1476,1597,0,0
259,-573,0,0,0,0,0,0,0,0,0,-1,1483,1597,0,0
266,-573,0,0,0,0,0,0,0,0,0,-1,1490,1597,0,0
273,-573,0,0,0,0,0,0,0,0,0,-1,1497,1597,0,0
280,-573,0,0,0,0,0,0,0,0,0,-1,1504,1597,0,0
287,-573,0,0,0,0,0,0,0,0,0,-1,1511,1597,0,0
294,-573,0,0,0,0,0,0,0,0,0,-1,1518,1597,0,0
301,-573,0,0,0,0,0,0,0,0,0,-1,1525,1597,0,0
308,-573,5.93042,9.71143,0,0,0,0,0,0,0,-1,1532,1597,5.93046,-9.71144
315,-573,4.34204,11.719,0,0,0,0,0,0,0,-1,1539,1597,4.34205,-11.719
322,-573,10.3269,7.77563,0,0,0,0,0,0,0,-1,1546,1597,10.327,-7.77565
329,-573,4.99573,3.80273,0,0,0,0,0,0,0,-1,1553,1597,4.9957,-3.80273
336,-573,4.85693,2.53455,0,0,0,0,0,0,0,-1,1560,1597,4.8569,-2.53459
343,-573,5.5946,2.15894,0,0,0,0,0,0,0,-1,1567,1597,5.59456,-2.1589
350,-573,2.53748,1.56433,0,0,0,0,0,0,0,-1,1574,1597,2.53753,-1.5643
357,-573,7.40247,4.03613,0,0,0,0,0,0,0,-1,1581,1597,7.40244,-4.03614
364,-573,7.14551,3.02087,0,0,0,0,0,0,0,-1,1588,1597,7.14556,-3.02084
371,-573,6.88867,2.00549,0,0,0,0,0,0,0,-1,1595,1597,6.88868,-2.00553
378,-573,8.62012,6.09106,0,0,0,0,0,0,0,-1,1602,1597,8.62012,-6.09103
385,-573,6.54346,-0.951904,0,0,0,0,0,0,0,-1,1609,1597,6.54349,0.951901
392,-573,6.41833,-2.18225,0,0,0,0,0,0,0,-1,1616,1597,6.41831,2.18228
399,-573,4.26282,4.73657,0,0,0,0,0,0,0,-1,1623,1597,4.26285,-4.73652
406,-573,6.82715,10.823,0,0,0,0,0,0,0,-1,1630,1597,6.82719,-10.823
413,-573,8.90552,13.1737,0,0,0,0,0,0,0,-1,1637,1597,8.90553,-13.1737
420,-573,16.6012,28.3765,0,0,0,0,0,0,0,-1,1644,1597,16.6012,-28.3765
427,-573,16.2852,28.1266,0,0,0,0,0,0,0,-1,1651,1597,16.2851,-28.1266
434,-573,14.7726,28.184,0,0,0,0,0,0,0,-1,1658,1597,14.7726,-28.184
441,-573,14.6174,27.5062,0,0,0,0,0,0,0,-1,1665,1597,14.6174,-27.5062
448,-573,14.75,26.9294,0.000685893,0.0171139,-0.00507121,0.0185532,-0.000753449,-1.29424,0.0126274,0.0434804,1672,1597,14.75,-26.9295
455,-573,14.7302,26.3254,0.00148872,0.0145774,-0.00503061,0.0162875,-0.000221362,-1.24312,0.0109329,0.0308739,1679,1597,14.7303,-26.3254
462,-573,14.7979,25.7407,0.00222193,0.0124885,-0.00484385,0.0144131,0.000297348,-1.1926,0.00951115,0.0209155,1686,1597,14.7979,-25.7407
469,-573,14.807,25.323,0.00254468,0.0100846,-0.00434533,0.0120674,0.000561866,-1.14271,0.00786436,0.0148514,1693,1597,14.8071,-25.323
476,-573,14.8235,24.9061,0.00247175,0.00772775,-0.00363232,0.00958307,0.000616434,-1.09856,0.00619347,0.0133033,1700,1597,14.8235,-24.9061
483,-573,14.8324,24.4868,0.00242226,0.00534105,-0.00299373,0.00721216,0.000551155,-1.01219,0.00463532,0.0116617,1707,1597,14.8324,-24.4869
490,-573,14.8052,24.059,0.00199691,0.00346176,-0.0021096,0.00496246,0.000496214,-0.952482,0.00315593,0.0117664,1714,1597,14.8052,-24.0589
497,-573,14.8081,23.6105,0.00131611,0.00198487,-0.00133206,0.00302387,0.000277099,-0.90837,0.00193019,0.0182354,1721,1597,14.808,-23.6105
504,-573,14.7916,23.1852,0.00045146,0.000475854,-0.000437041,0.000900868,2.64451e-05,-0.799349,0.000591961,0.0181062,1728,1597,14.7917,-23.1852
511,-573,14.7836,22.7498,-0.000477327,-0.000907542,0.000509569,-0.000139324,-0.00124555,0.585677,0.000788039,0.0180525,1735,1597,14.7836,-22.7497
518,-573,14.7445,22.3331,-0.00140367,-0.0022211,0.00141251,-0.000341929,-0.00328284,0.644569,0.00208396,0.0144833,1742,1597,14.7446,-22.3331
525,-573,14.7421,21.8997,-0.00244246,-0.00355314,0.00242965,-0.000505492,-0.00549011,0.673044,0.00350375,0.0173817,1749,1597,14.742,-21.8997
532,-573,14.7407,21.4382,-0.00362262,-0.0050732,0.00366701,-0.000609865,-0.00808595,0.687764,0.00519928,0.0152493,1756,1597,14.7408,-21.4382
539,-573,14.6932,20.9711,-0.00516894,-0.00694094,0.00526938,-0.000711589,-0.0113983,0.702106,0.00737312,0.0229264,1763,1597,14.6933,-20.971
546,-573,14.7467,20.5983,-0.00720897,-0.00917947,0.00736674,-0.000761891,-0.0156266,0.718921,0.0101733,0.0392595,1770,1597,14.7467,-20.5982
553,-573,14.2336,20.4808,-0.00962119,-0.0117385,0.00989686,-0.000726505,-0.0206331,0.732117,0.0135198,0.0464782,1777,1597,14.2336,-20.4808
560,-573,14.0118,20.3888,0,0,0,0,0,0,0,-1,1784,1597,14.0119,-20.3888
567,-573,11.9315,19.6708,0,0,0,0,0,0,0,-1,1791,1597,11.9315,-19.6708
574,-573,0.83374,5.7041,0,0,0,0,0,0,0,-1,1798,1597,0.833718,-5.70405
581,-573,-0.224854,7.41602,0,0,0,0,0,0,0,-1,1805,1597,-0.224904,-7.41596
588,-573,-0.134033,7.67065,0,0,0,0,0,0,0,-1,1812,1597,-0.134037,-7.67063
595,-573,-0.0825195,8.35083,0,0,0,0,0,0,0,-1,1819,1597,-0.0824684,-8.35088
602,-573,0,0,0,0,0,0,0,0,0,-1,1826,1597,0,0
609,-573,0,0,0,0,0,0,0,0,0,-1,1833,1597,0,0
616,-573,0,0,0,0,0,0,0,0,0,-1,1840,1597,0,0
623,-573,0,0,0,0,0,0,0,0,0,-1,1847,1597,0,0
630,-573,0,0,0,0,0,0,0,0,0,-1,1854,1597,0,0
637,-573,0,0,0,0,0,0,0,0,0,-1,1861,1597,0,0
644,-573,0,0,0,0,0,0,0,0,0,-1,1868,1597,0,0
651,-573,0,0,0,0,0,0,0,0,0,-1,1875,1597,0,0
658,-573,0,0,0,0,0,0,0,0,0,-1,1882,1597,0,0
665,-573,0,0,0,0,0,0,0,0,0,-1,1889,1597,0,0
672,-573,0,0,0,0,0,0,0,0,0,-1,1896,1597,0,0
679,-573,0,0,0,0,0,0,0,0,0,-1,1903,1597,0,0
686,-573,0,0,0,0,0,0,0,0,0,-1,1910,1597,0,0
693,-573,0,0,0,0,0,0,0,0,0,-1,1917,1597,0,0
700,-573,0,0,0,0,0,0,0,0,0,-1,1924,1597,0,0
707,-573,0,0,0,0,0,0,0,0,0,-1,1931,1597,0,0
714,-573,0,0,0,0,0,0,0,0,0,-1,1938,1597,0,0
721,-573,0,0,0,0,0,0,0,0,0,-1,1945,1597,0,0
728,-573,0,0,0,0,0,0,0,0,0,-1,1952,1597,0,0
735,-573,0,0,0,0,0,0,0,0,0,-1,1959,1597,0,0
742,-573,0,0,0,0,0,0,0,0,0,-1,1966,1597,0,0
749,-573,0,0,0,0,0,0,0,0,0,-1,1973,1597,0,0
756,-573,0,0,0,0,0,0,0,0,0,-1,1980,1597,0,0
763,-573,0,0,0,0,0,0,0,0,0,-1,1987,1597,0,0
770,-573,0,0,0,0,0,0,0,0,0,-1,1994,1597,0,0
777,-573,0,0,0,0,0,0,0,0,0,-1,2001,1597,0,0
784,-573,0,0,0,0,0,0,0,0,0,-1,2008,1597,0,0
791,-573,0,0,0,0,0,0,0,0,0,-1,2015,1597,0,0
798,-573,0,0,0,0,0,0,0,0,0,-1,2022,1597,0,0
805,-573,0,0,0,0,0,0,0,0,0,-1,2029,1597,0,0
812,-573,0,0,0,0,0,0,0,0,0,-1,2036,1597,0,0
-700,-580,0,0,0,0,0,0,0,0,0,-1,524,1604,0,0
-693,-580,0,0,0,0,0,0,0,0,0,-1,531,1604,0,0
-686,-580,0,0,0,0,0,0,0,0,0,-1,538,1604,0,0
-679,-580,0,0,0,0,0,0,0,0,0,-1,545,1604,0,0
-672,-580,0,0,0,0,0,0,0,0,0,-1,552,1604,0,0
-665,-580,0,0,0,0,0,0,0,0,0,-1,559,1604,0,0
-658,-580,0,0,0,0,0,0,0,0,0,-1,566,1604,0,0
-651,-580,0,0,0,0,0,0,0,0,0,-1,573,1604,0,0
-644,-580,0,0,0,0,0,0,0,0,0,-1,580,1604,0,0
-637,-580,0,0,0,0,0,0,0,0,0,-1,587,1604,0,0
-630,-580,0,0,0,0,0,0,0,0,0,-1,594,1604,0,0
-623,-580,0,0,0,0,0,0,0,0,0,-1,601,1604,0,0
-616,-580,0,0,0,0,0,0,0,0,0,-1,608,1604,0,0
-609,-580,0,0,0,0,0,0,0,0,0,-1,615,1604,0,0
-602,-580,0,0,0,0,0,0,0,0,0,-1,622,1604,0,0
-595,-580,0,0,0,0,0,0,0,0,0,-1,629,1604,0,0
-588,-580,0,0,0,0,0,0,0,0,0,-1,636,1604,0,0
-581,-580,0,0,0,0,0,0,0,0,0,-1,643,1604,0,0
-574,-580,0,0,0,0,0,0,0,0,0,-1,650,1604,0,0
-567,-580,0,0,0,0,0,0,0,0,0,-1,657,1604,0,0
-560,-580,0,0,0,0,0,0,0,0,0,-1,664,1604,0,0
-553,-580,0,0,0,0,0,0,0,0,0,-1,671,1604,0,0
-546,-580,0,0,0,0,0,0,0,0,0,-1,678,1604,0,0
-539,-580,0,0,0,0,0,0,0,0,0,-1,685,1604,0,0
-532,-580,0,0,0,0,0,0,0,0,0,-1,692,1604,0,0
-525,-580,0,0,0,0,0,0,0,0,0,-1,699,1604,0,0
-518,-580,0,0,0,0,0,0,0,0,0,-1,706,1604,0,0
-511,-580,0,0,0,0,0,0,0,0,0,-1,713,1604,0,0
-504,-580,0,0,0,0,0,0,0,0,0,-1,720,1604,0,0
-497,-580,0,0,0,0,0,0,0,0,0,-1,727,1604,0,0
-490,-580,0,0,0,0,0,0,0,0,0,-1,734,1604,0,0
-483,-580,0,0,0,0,0,0,0,0,0,-1,741,1604,0,0
-476,-580,0,0,0,0,0,0,0,0,0,-1,748,1604,0,0
-469,-580,-1.69189,-0.38916,0,0,0,0,0,0,0,-1,755,1604,-1.69192,0.389188
-462,-580,-0.859863,0.675293,0,0,0,0,0,0,0,-1,762,1604,-0.859834,-0.675245
-455,-580,-0.730164,0.651978,0,0,0,0,0,0,0,-1,769,1604,-0.730153,-0.651957
-448,-580,-3.31891,2.07544,0,0,0,0,0,0,0,-1,776,1604,-3.3189,-2.07539
-441,-580,-1.63843,3.9469,0,0,0,0,0,0,0,-1,783,1604,-1.63842,-3.94695
-434,-580,0.23291,5.97876,0,0,0,0,0,0,0,-1,790,1604,0.232901,-5.97878
-427,-580,1.62756,8.05493,0,0,0,0,0,0,0,-1,797,1604,1.62758,-8.05488
-420,-580,0.986572,11.2383,0,0,0,0,0,0,0,-1,804,1604,0.986544,-11.2382
-413,-580,1.20325,18.5469,0,0,0,0,0,0,0,-1,811,1604,1.20324,-18.5468
-406,-580,1.15448,19.8016,0,0,0,0,0,0,0,-1,818,1604,1.15447,-19.8017
-399,-580,1.12292,20.3348,-0.00841298,0.00189097,1.92176e-05,0.00189101,-0.00841302,1.56893,0.00633382,0.0311318,825,1604,1.12294,-20.3348
-392,-580,1.07672,20.849,-0.00679971,0.0014084,0.000358927,0.00142406,-0.00681538,1.52718,0.00508518,0.0154221,832,1604,1.07675,-20.849
-385,-580,1.07214,21.34,-0.00535329,0.00129584,0.000510944,0.00133487,-0.00539232,1.49455,0.00411269,0.0111524,839,1604,1.07211,-21.3399
-378,-580,1.05432,21.8214,-0.00395587,0.00139709,0.000700887,0.00148734,-0.00404612,1.44274,0.00330664,0.0148654,846,1604,1.05429,-21.8214
-371,-580,1.03497,22.2882,-0.00267741,0.0014368,0.000747495,0.0015684,-0.00280901,1.39653,0.00256091,0.013496,853,1604,1.03496,-22.2882
-364,-580,1.00763,22.7518,-0.00151418,0.00159022,0.000762239,0.00176728,-0.00169124,1.34256,0.00199693,0.0181982,860,1604,1.00761,-22.7519
-357,-580,1.01825,23.1707,-0.000396964,0.00192309,0.000789029,0.002166,-0.000639874,1.27215,0.00169797,0.0144458,867,1604,1.01823,-23.1707
-350,-580,1.00531,23.6682,0.000750139,0.00231713,0.000852974,0.00269183,0.000375433,1.15688,0.00168342,0.011179,874,1604,1.00529,-23.6682
-343,-580,1.01532,24.1261,0.00184726,0.00296213,0.00106932,0.00361058,0.0011988,1.02567,0.00212342,0.0117346,881,1604,1.01535,-24.1261
-336,-580,1.02264,24.5515,0.00283794,0.00362408,0.00124564,0.0045372,0.00192482,0.938232,0.00262956,0.0204403,888,1604,1.02266,-24.5515
-329,-580,0.990417,25.0426,0.00376341,0.00453905,0.00153221,0.00573176,0.0025707,0.909351,0.00331508,0.0180625,895,1604,0.990396,-25.0426
-322,-580,0.976624,25.5026,0.00464604,0.00550127,0.00192988,0.00705034,0.00309697,0.894425,0.00408051,0.01854,902,1604,0.976599,-25.5026
-315,-580,0.989441,25.917,0.00556482,0.00663383,0.00241721,0.00857493,0.00362372,0.89421,0.00497047,0.021071,909,1604,0.989429,-25.917
-308,-580,1.05939,26.4558,0.00645084,0.007839,0.00298698,0.0102115,0.00407836,0.899557,0.00593525,0.0318815,916,1604,1.05939,-26.4558
-301,-580,1.16296,26.7765,0.00724901,0.00951201,0.00383385,0.0123778,0.00438318,0.928891,0.00724704,0.029706,923,1604,1.16298,-26.7765
-294,-580,1.1153,27.2344,0,0,0,0,0,0,0,-1,930,1604,1.11532,-27.2343
-287,-580,1.38251,27.1248,0,0,0,0,0,0,0,-1,937,1604,1.38251,-27.1248
-280,-580,1.79675,28.4565,0,0,0,0,0,0,0,-1,944,1604,1.79676,-28.4566
-273,-580,1.39575,28.6672,0,0,0,0,0,0,0,-1,951,1604,1.39577,-28.6672
-266,-580,1.71777,25.6515,0,0,0,0,0,0,0,-1,958,1604,1.71775,-25.6515
-259,-580,1.31091,9.11536,0,0,0,0,0,0,0,-1,965,1604,1.31092,-9.11539
-252,-580,1.07629,7.74097,0,0,0,0,0,0,0,-1,972,1604,1.07627,-7.74101
-245,-580,3.80304,9.16028,0,0,0,0,0,0,0,-1,979,1604,3.80306,-9.16034
-238,-580,-10.3588,1.57556,0,0,0,0,0,0,0,-1,986,1604,-10.3588,-1.5755
-231,-580,-10.576,6.43787,0,0,0,0,0,0,0,-1,993,1604,-10.576,-6.43783
-224,-580,-8.27435,7.58972,0,0,0,0,0,0,0,-1,1000,1604,-8.27435,-7.5897
-217,-580,-5.85632,9.51221,0,0,0,0,0,0,0,-1,1007,1604,-5.85632,-9.5122
-210,-580,-3.6684,11.1569,0,0,0,0,0,0,0,-1,1014,1604,-3.66839,-11.1569
-203,-580,-1.92474,12.7845,0,0,0,0,0,0,0,-1,1021,1604,-1.92477,-12.7845
-196,-580,-2.28552,10.3289,0,0,0,0,0,0,0,-1,1028,1604,-2.28552,-10.3288
-189,-580,-4.58252,7.59058,0,0,0,0,0,0,0,-1,1035,1604,-4.58256,-7.59057
-182,-580,-5.45874,7.65942,0,0,0,0,0,0,0,-1,1042,1604,-5.45876,-7.65939
-175,-580,-6.38977,7.55005,0,0,0,0,0,0,0,-1,1049,1604,-6.38981,-7.5501
-168,-580,0,0,0,0,0,0,0,0,0,-1,1056,1604,0,0
-161,-580,0,0,0,0,0,0,0,0,0,-1,1063,1604,0,0
-154,-580,0,0,0,0,0,0,0,0,0,-1,1070,1604,0,0
-147,-580,0,0,0,0,0,0,0,0,0,-1,1077,1604,0,0
-140,-580,0,0,0,0,0,0,0,0,0,-1,1084,1604,0,0
-133,-580,0,0,0,0,0,0,0,0,0,-1,1091,1604,0,0
-126,-580,0,0,0,0,0,0,0,0,0,-1,1098,1604,0,0
-119,-580,0,0,0,0,0,0,0,0,0,-1,1105,1604,0,0
-112,-580,0,0,0,0,0,0,0,0,0,-1,1112,1604,0,0
-105,-580,0,0,0,0,0,0,0,0,0,-1,1119,1604,0,0
-98,-580,0,0,0,0,0,0,0,0,0,-1,1126,1604,0,0
-91,-580,0,0,0,0,0,0,0,0,0,-1,1133,1604,0,0
-84,-580,0,0,0,0,0,0,0,0,0,-1,1140,1604,0,0
-77,-580,0,0,0,0,0,0,0,0,0,-1,1147,1604,0,0
-70,-580,0,0,0,0,0,0,0,0,0,-1,1154,1604,0,0
-63,-580,0,0,0,0,0,0,0,0,0,-1,1161,1604,0,0
-56,-580,0,0,0,0,0,0,0,0,0,-1,1168,1604,0,0
-49,-580,0,0,0,0,0,0,0,0,0,-1,1175,1604,0,0
-42,-580,0,0,0,0,0,0,0,0,0,-1,1182,1604,0,0
-35,-580,0,0,0,0,0,0,0,0,0,-1,1189,1604,0,0
-28,-580,0,0,0,0,0,0,0,0,0,-1,1196,1604,0,0
-21,-580,0,0,0,0,0,0,0,0,0,-1,1203,1604,0,0
-14,-580,0,0,0,0,0,0,0,0,0,-1,1210,1604,0,0
-7,-580,0,0,0,0,0,0,0,0,0,-1,1217,1604,0,0
0,-580,0,0,0,0,0,0,0,0,0,-1,1224,1604,0,0
7,-580,0,0,0,0,0,0,0,0,0,-1,1231,1604,0,0
14,-580,0,0,0,0,0,0,0,0,0,-1,1238,1604,0,0
21,-580,0,0,0,0,0,0,0,0,0,-1,1245,1604,0,0
28,-580,0,0,0,0,0,0,0,0,0,-1,1252,1604,0,0
35,-580,0,0,0,0,0,0,0,0,0,-1,1259,1604,0,0
42,-580,0,0,0,0,0,0,0,0,0,-1,1266,1604,0,0
49,-580,0,0,0,0,0,0,0,0,0,-1,1273,1604,0,0
56,-580,0,0,0,0,0,0,0,0,0,-1,1280,1604,0,0
63,-580,0,0,0,0,0,0,0,0,0,-1,1287,1604,0,0
70,-580,0,0,0,0,0,0,0,0,0,-1,1294,1604,0,0
77,-580,0,0,0,0,0,0,0,0,0,-1,1301,1604,0,0
84,-580,0,0,0,0,0,0,0,0,0,-1,1308,1604,0,0
91,-580,0,0,0,0,0,0,0,0,0,-1,1315,1604,0,0
98,-580,0,0,0,0,0,0,0,0,0,-1,1322,1604,0,0
105,-580,0,0,0,0,0,0,0,0,0,-1,1329,1604,0,0
112,-580,0,0,0,0,0,0,0,0,0,-1,1336,1604,0,0
119,-580,0,0,0,0,0,0,0,0,0,-1,1343,1604,0,0
126,-580,0,0,0,0,0,0,0,0,0,-1,1350,1604,0,0
133,-580,0,0,0,0,0,0,0,0,0,-1,1357,1604,0,0
140,-580,0,0,0,0,0,0,0,0,0,-1,1364,1604,0,0
147,-580,0,0,0,0,0,0,0,0,0,-1,1371,1604,0,0
154,-580,0,0,0,0,0,0,0,0,0,-1,1378,1604,0,0
161,-580,0,0,0,0,0,0,0,0,0,-1,1385,1604,0,0
168,-580,0,0,0,0,0,0,0,0,0,-1,1392,1604,0,0
175,-580,0,0,0,0,0,0,0,0,0,-1,1399,1604,0,0
182,-580,0,0,0,0,0,0,0,0,0,-1,1406,1604,0,0
189,-580,0,0,0,0,0,0,0,0,0,-1,1413,1604,0,0
196,-580,0,0,0,0,0,0,0,0,0,-1,1420,1604,0,0
203,-580,0,0,0,0,0,0,0,0,0,-1,1427,1604,0,0
210,-580,0,0,0,0,0,0,0,0,0,-1,1434,1604,0,0
217,-580,0,0,0,0,0,0,0,0,0,-1,1441,1604,0,0
224,-580,0,0,0,0,0,0,0,0,0,-1,1448,1604,0,0
231,-580,0,0,0,0,0,0,0,0,0,-1,1455,1604,0,0
238,-580,0,0,0,0,0,0,0,0,0,-1,1462,1604,0,0
245,-580,0,0,0,0,0,0,0,0,0,-1,1469,1604,0,0
252,-580,0,0,0,0,0,0,0,0,0,-1,1476,1604,0,0
259,-580,0,0,0,0,0,0,0,0,0,-1,1483,1604,0,0
266,-580,0,0,0,0,0,0,0,0,0,-1,1490,1604,0,0
273,-580,0,0,0,0,0,0,0,0,0,-1,1497,1604,0,0
280,-580,0,0,0,0,0,0,0,0,0,-1,1504,1604,0,0
287,-580,0,0,0,0,0,0,0,0,0,-1,1511,1604,0,0
294,-580,4.0437,0.177368,0,0,0,0,0,0,0,-1,1518,1604,4.04369,-0.177371
301,-580,7.55164,8.05798,0,0,0,0,0,0,0,-1,1525,1604,7.55158,-8.05802
308,-580,5.9126,9.99341,0,0,0,0,0,0,0,-1,1532,1604,5.91255,-9.99337
315,-580,4.27356,11.9287,0,0,0,0,0,0,0,-1,1539,1604,4.27352,-11.9287
322,-580,10.2366,7.50281,0,0,0,0,0,0,0,-1,1546,1604,10.2366,-7.50282
329,-580,10.5962,8.69641,0,0,0,0,0,0,0,-1,1553,1604,10.5962,-8.69642
336,-580,3.66431,1.58862,0,0,0,0,0,0,0,-1,1560,1604,3.6643,-1.58864
343,-580,3.32227,1.39636,0,0,0,0,0,0,0,-1,1567,1604,3.32222,-1.39633
350,-580,8.71277,4.0564,0,0,0,0,0,0,0,-1,1574,1604,8.71271,-4.05638
357,-580,8.52332,3.08154,0,0,0,0,0,0,0,-1,1581,1604,8.52332,-3.08157
364,-580,8.25818,2.07605,0,0,0,0,0,0,0,-1,1588,1604,8.25812,-2.07608
371,-580,7.42114,7.14282,0,0,0,0,0,0,0,-1,1595,1604,7.42119,-7.14281
378,-580,7.9718,6.6731,0,0,0,0,0,0,0,-1,1602,1604,7.9718,-6.67307
385,-580,8.52246,6.20337,0,0,0,0,0,0,0,-1,1609,1604,8.52241,-6.20334
392,-580,14.4536,30.236,0,0,0,0,0,0,0,-1,1616,1604,14.4537,-30.2359
399,-580,14.4644,29.4833,0,0,0,0,0,0,0,-1,1623,1604,14.4643,-29.4833
406,-580,14.6366,28.7837,0,0,0,0,0,0,0,-1,1630,1604,14.6366,-28.7837
413,-580,14.5968,28.429,0,0,0,0,0,0,0,-1,1637,1604,14.5969,-28.429
420,-580,14.354,28.2628,0,0,0,0,0,0,0,-1,1644,1604,14.354,-28.2629
427,-580,14.881,28.1937,-0.000505363,0.0182439,-0.00296154,0.0187006,-0.000962032,-1.4178,0.0127998,0.0391778,1651,1604,14.881,-28.1937
434,-580,14.3987,27.6768,-0.000735004,0.0162979,-0.00312525,0.0168532,-0.00129033,-1.39494,0.0116893,0.0311337,1658,1604,14.3987,-27.6767
441,-580,14.2795,27.0675,-9.36718e-05,0.0145594,-0.00343339,0.0153239,-0.000858264,-1.35168,0.0105137,0.0185609,1665,1604,14.2796,-27.0675
448,-580,14.3763,26.5762,0.000320927,0.0128926,-0.00354374,0.0138227,-0.000609179,-1.31412,0.00942476,0.0156246,1672,1604,14.3764,-26.5761
455,-580,14.4233,26.1711,0.000869592,0.0109493,-0.00360159,0.0121039,-0.000285032,-1.26056,0.00816595,0.0197555,1679,1604,14.4233,-26.1711
462,-580,14.3979,25.7363,0.00142576,0.00930017,-0.00352299,0.0106462,7.96812e-05,-1.20583,0.00707109,0.0221351,1686,1604,14.398,-25.7364
469,-580,14.3997,25.3265,0.00168819,0.0074003,-0.00318014,0.00881863,0.000269863,-1.15128,0.00579123,0.0183512,1693,1604,14.3997,-25.3266
476,-580,14.4091,24.9042,0.00161298,0.00547008,-0.00261432,0.00679021,0.000292839,-1.10319,0.00443242,0.0135002,1700,1604,14.409,-24.9042
483,-580,14.3899,24.4911,0.00154958,0.00346299,-0.00208243,0.00479796,0.000214605,-1.00073,0.00312956,0.0125821,1707,1604,14.3899,-24.4911
490,-580,14.3507,24.0881,0.00121882,0.00188867,-0.00137793,0.00297179,0.000135696,-0.904619,0.00193755,0.0159554,1714,1604,14.3507,-24.0881
497,-580,14.3429,23.6501,0.000594364,0.000598679,-0.00070893,0.00130545,-0.000112412,-0.78692,0.000910091,0.0135794,1721,1604,14.3429,-23.6501
504,-580,14.3246,23.2057,-0.000288567,-0.000769586,0.000166414,-0.000236606,-0.000821546,0.302642,0.000488325,0.0183302,1728,1604,14.3246,-23.2057
511,-580,14.3125,22.7726,-0.00122368,-0.00209494,0.00109806,-0.000477998,-0.00284063,0.596558,0.00175624,0.0181091,1735,1604,14.3125,-22.7726
518,-580,14.2904,22.3448,-0.0021419,-0.00333464,0.00197306,-0.000677055,-0.00479948,0.638636,0.00299955,0.0166699,1742,1604,14.2903,-22.3448
525,-580,14.2854,21.9218,-0.00320996,-0.00468182,0.00301125,-0.000846018,-0.00704577,0.665551,0.00444211,0.0177037,1749,1604,14.2854,-21.9218
532,-580,14.2675,21.4778,-0.00451106,-0.00631863,0.00436462,-0.000957636,-0.00987206,0.683306,0.00628652,0.018846,1756,1604,14.2674,-21.4778
539,-580,14.2755,21.0951,-0.00631448,-0.00850866,0.006225,-0.00109063,-0.0137325,0.698174,0.00881398,0.0297527,1763,1604,14.2755,-21.0951
546,-580,14.3364,20.7094,0,0,0,0,0,0,0,-1,1770,1604,14.3364,-20.7093
553,-580,13.2172,20.6869,0,0,0,0,0,0,0,-1,1777,1604,13.2171,-20.6869
560,-580,11.722,20.2501,0,0,0,0,0,0,0,-1,1784,1604,11.7221,-20.2501
567,-580,3.87708,4.0647,0,0,0,0,0,0,0,-1,1791,1604,3.87711,-4.06471
574,-580,2.31653,5.62952,0,0,0,0,0,0,0,-1,1798,1604,2.31654,-5.62947
581,-580,1.60876,6.67664,0,0,0,0,0,0,0,-1,1805,1604,1.60873,-6.67667
588,-580,1.38684,7.14441,0,0,0,0,0,0,0,-1,1812,1604,1.38689,-7.14443
595,-580,0,0,0,0,0,0,0,0,0,-1,1819,1604,0,0
602,-580,0,0,0,0,0,0,0,0,0,-1,1826,1604,0,0
609,-580,0,0,0,0,0,0,0,0,0,-1,1833,1604,0,0
616,-580,0,0,0,0,0,0,0,0,0,-1,1840,1604,0,0
623,-580,0,0,0,0,0,0,0,0,0,-1,1847,1604,0,0
630,-580,0,0,0,0,0,0,0,0,0,-1,1854,1604,0,0
637,-580,0,0,0,0,0,0,0,0,0,-1,1861,1604,0,0
644,-580,0,0,0,0,0,0,0,0,0,-1,1868,1604,0,0
651,-580,0,0,0,0,0,0,0,0,0,-1,1875,1604,0,0
658,-580,0,0,0,0,0,0,0,0,0,-1,1882,1604,0,0
665,-580,0,0,0,0,0,0,0,0,0,-1,1889,1604,0,0
672,-580,0,0,0,0,0,0,0,0,0,-1,1896,1604,0,0
679,-580,0,0,0,0,0,0,0,0,0,-1,1903,1604,0,0
686,-580,0,0,0,0,0,0,0,0,0,-1,1910,1604,0,0
693,-580,0,0,0,0,0,0,0,0,0,-1,1917,1604,0,0
700,-580,0,0,0,0,0,0,0,0,0,-1,1924,1604,0,0
707,-580,0,0,0,0,0,0,0,0,0,-1,1931,1604,0,0
714,-580,0,0,0,0,0,0,0,0,0,-1,1938,1604,0,0
721,-580,0,0,0,0,0,0,0,0,0,-1,1945,1604,0,0
728,-580,0,0,0,0,0,0,0,0,0,-1,1952,1604,0,0
735,-580,0,0,0,0,0,0,0,0,0,-1,1959,1604,0,0
742,-580,0,0,0,0,0,0,0,0,0,-1,1966,1604,0,0
749,-580,0,0,0,0,0,0,0,0,0,-1,1973,1604,0,0
756,-580,0,0,0,0,0,0,0,0,0,-1,1980,1604,0,0
763,-580,0,0,0,0,0,0,0,0,0,-1,1987,1604,0,0
770,-580,0,0,0,0,0,0,0,0,0,-1,1994,1604,0,0
777,-580,0,0,0,0,0,0,0,0,0,-1,2001,1604,0,0
784,-580,0,0,0,0,0,0,0,0,0,-1,2008,1604,0,0
791,-580,0,0,0,0,0,0,0,0,0,-1,2015,1604,0,0
798,-580,0,0,0,0,0,0,0,0,0,-1,2022,1604,0,0
805,-580,0,0,0,0,0,0,0,0,0,-1,2029,1604,0,0
812,-580,0,0,0,0,0,0,0,0,0,-1,2036,1604,0,0
-700,-587,0,0,0,0,0,0,0,0,0,-1,524,1611,0,0
-693,-587,0,0,0,0,0,0,0,0,0,-1,531,1611,0,0
-686,-587,0,0,0,0,0,0,0,0,0,-1,538,1611,0,0
-679,-587,0,0,0,0,0,0,0,0,0,-1,545,1611,0,0
-672,-587,0,0,0,0,0,0,0,0,0,-1,552,1611,0,0
-665,-587,0,0,0,0,0,0,0,0,0,-1,559,1611,0,0
-658,-587,0,0,0,0,0,0,0,0,0,-1,566,1611,0,0
-651,-587,0,0,0,0,0,0,0,0,0,-1,573,1611,0,0
-644,-587,0,0,0,0,0,0,0,0,0,-1,580,1611,0,0
-637,-587,0,0,0,0,0,0,0,0,0,-1,587,1611,0,0
-630,-587,0,0,0,0,0,0,0,0,0,-1,594,1611,0,0
-623,-587,0,0,0,0,0,0,0,0,0,-1,601,1611,0,0
-616,-587,0,0,0,0,0,0,0,0,0,-1,608,1611,0,0
-609,-587,0,0,0,0,0,0,0,0,0,-1,615,1611,0,0
-602,-587,0,0,0,0,0,0,0,0,0,-1,622,1611,0,0
-595,-587,0,0,0,0,0,0,0,0,0,-1,629,1611,0,0
-588,-587,0,0,0,0,0,0,0,0,0,-1,636,1611,0,0
-581,-587,0,0,0,0,0,0,0,0,0,-1,643,1611,0,0
-574,-587,0,0,0,0,0,0,0,0,0,-1,650,1611,0,0
-567,-587,0,0,0,0,0,0,0,0,0,-1,657,1611,0,0
-560,-587,0,0,0,0,0,0,0,0,0,-1,664,1611,0,0
-553,-587,0,0,0,0,0,0,0,0,0,-1,671,1611,0,0
-546,-587,0,0,0,0,0,0,0,0,0,-1,678,1611,0,0
-539,-587,0,0,0,0,0,0,0,0,0,-1,685,1611,0,0
-532,-587,0,0,0,0,0,0,0,0,0,-1,692,1611,0,0
-525,-587,0,0,0,0,0,0,0,0,0,-1,699,1611,0,0
-518,-587,0,0,0,0,0,0,0,0,0,-1,706,1611,0,0
-511,-587,0,0,0,0,0,0,0,0,0,-1,713,1611,0,0
-504,-587,0,0,0,0,0,0,0,0,0,-1,720,1611,0,0
-497,-587,0,0,0,0,0,0,0,0,0,-1,727,1611,0,0
-490,-587,0,0,0,0,0,0,0,0,0,-1,734,1611,0,0
-483,-587,0,0,0,0,0,0,0,0,0,-1,741,1611,0,0
-476,-587,0,0,0,0,0,0,0,0,0,-1,748,1611,0,0
-469,-587,0,0,0,0,0,0,0,0,0,-1,755,1611,0,0
-462,-587,-0.714355,-0.418457,0,0,0,0,0,0,0,-1,762,1611,-0.714359,0.418483
-455,-587,-0.619812,-0.522461,0,0,0,0,0,0,0,-1,769,1611,-0.619802,0.522515
-448,-587,-0.461731,-0.686523,0,0,0,0,0,0,0,-1,776,1611,-0.461739,0.686559
-441,-587,-3.56555,2.72253,0,0,0,0,0,0,0,-1,783,1611,-3.56555,-2.72259
-434,-587,-1.77319,4.76318,0,0,0,0,0,0,0,-1,790,1611,-1.77318,-4.76323
-427,-587,0.0346069,6.92944,0,0,0,0,0,0,0,-1,797,1611,0.034587,-6.92941
-420,-587,-0.647156,10.1157,0,0,0,0,0,0,0,-1,804,1611,-0.647128,-10.1158
-413,-587,2.13971,10.3901,0,0,0,0,0,0,0,-1,811,1611,2.13971,-10.3902
-406,-587,2.2525,19.7814,0,0,0,0,0,0,0,-1,818,1611,2.25253,-19.7814
-399,-587,1.91339,20.3564,-0.0111531,0.00289196,0.000215583,0.00289527,-0.0111564,1.55545,0.00856737,0.0491193,825,1611,1.91342,-20.3564
-392,-587,1.72504,20.7488,-0.00897826,0.0020585,0.000657573,0.00209754,-0.0090173,1.5115,0.00681911,0.0388099,832,1611,1.72503,-20.7488
-385,-587,1.49652,21.2915,-0.00710524,0.00169239,0.000841334,0.00177213,-0.00718498,1.47631,0.00547711,0.0199916,839,1611,1.49651,-21.2915
-378,-587,1.48181,21.8196,-0.00541042,0.0014997,0.00100058,0.00164167,-0.00555239,1.42985,0.00435325,0.0139186,846,1611,1.48183,-21.8196
-371,-587,1.46289,22.3129,-0.00388737,0.0013187,0.00102489,0.0015132,-0.00408187,1.38325,0.00334186,0.0139622,853,1611,1.46288,-22.3129
-364,-587,1.45667,22.7714,-0.00255748,0.00123052,0.000979547,0.00146883,-0.00279579,1.33215,0.0025016,0.0164861,860,1611,1.45666,-22.7714
-357,-587,1.44592,23.186,-0.00132764,0.00134975,0.000951139,0.00165324,-0.00163113,1.26193,0.00189625,0.01686,867,1611,1.44589,-23.1861
-350,-587,1.4397,23.6763,-0.000131503,0.00155857,0.000949912,0.00198491,-0.000557853,1.14892,0.00154321,0.010104,874,1611,1.43967,-23.6762
-343,-587,1.42804,24.135,0.000977598,0.00200243,0.00111269,0.00271502,0.000265004,1.00118,0.00172847,0.0129816,881,1611,1.42806,-24.135
-336,-587,1.40149,24.5652,0.00197092,0.00243651,0.00120163,0.00342769,0.000979741,0.88108,0.00203859,0.013207,888,1611,1.40149,-24.5652
-329,-587,1.38965,25.0212,0.00283153,0.00314474,0.00133279,0.0043301,0.00164618,0.843881,0.0025238,0.0150173,895,1611,1.38965,-25.0212
-322,-587,1.41425,25.4865,0.00356434,0.00397151,0.00159526,0.00537613,0.00215973,0.848865,0.00312383,0.0171246,902,1611,1.41426,-25.4864
-315,-587,1.41187,25.9052,0.0042956,0.0048795,0.00193752,0.00654694,0.00262816,0.860176,0.00380428,0.0140626,909,1611,1.41185,-25.9051
-308,-587,1.40552,26.3192,0.0049977,0.00583541,0.00233717,0.00779097,0.00304215,0.874064,0.00453395,0.0146853,916,1611,1.40552,-26.3192
-301,-587,1.47052,26.7716,0.00559998,0.00720664,0.00296784,0.00947795,0.00332867,0.91757,0.00555228,0.015117,923,1611,1.47053,-26.7716
-294,-587,1.5495,27.2878,0.00603017,0.00902862,0.00399414,0.0117956,0.00326315,0.96494,0.00703307,0.0284069,930,1611,1.54947,-27.2878
-287,-587,1.56195,27.7639,0,0,0,0,0,0,0,-1,937,1611,1.56195,-27.764
-280,-587,1.82507,28.088,0,0,0,0,0,0,0,-1,944,1611,1.82509,-28.088
-273,-587,1.87579,28.6661,0,0,0,0,0,0,0,-1,951,1611,1.87577,-28.6662
-266,-587,1.30524,29.661,0,0,0,0,0,0,0,-1,958,1611,1.30524,-29.661
-259,-587,1.76306,28.5784,0,0,0,0,0,0,0,-1,965,1611,1.76307,-28.5784
-252,-587,1.30188,10.3103,0,0,0,0,0,0,0,-1,972,1611,1.30188,-10.3104
-245,-587,1.52075,27.4791,0,0,0,0,0,0,0,-1,979,1611,1.52076,-27.4791
-238,-587,2.87799,9.53821,0,0,0,0,0,0,0,-1,986,1611,2.87797,-9.53823
-231,-587,2.49548,9.14465,0,0,0,0,0,0,0,-1,993,1611,2.49551,-9.14468
-224,-587,-9.72528,9.21069,0,0,0,0,0,0,0,-1,1000,1611,-9.72529,-9.21072
-217,-587,-7.07495,10.7847,0,0,0,0,0,0,0,-1,1007,1611,-7.07495,-10.7847
-210,-587,-4.72308,12.5889,0,0,0,0,0,0,0,-1,1014,1611,-4.72307,-12.5888
-203,-587,-3.2583,13.7289,0,0,0,0,0,0,0,-1,1021,1611,-3.25828,-13.7289
-196,-587,-1.953,14.8145,0,0,0,0,0,0,0,-1,1028,1611,-1.95302,-14.8144
-189,-587,-3.04138,8.66638,0,0,0,0,0,0,0,-1,1035,1611,-3.04136,-8.66635
-182,-587,-3.97095,9.7146,0,0,0,0,0,0,0,-1,1042,1611,-3.97093,-9.71461
-175,-587,-4.80969,8.37878,0,0,0,0,0,0,0,-1,1049,1611,-4.80964,-8.37883
-168,-587,-5.91394,8.72546,0,0,0,0,0,0,0,-1,1056,1611,-5.91398,-8.72542
-161,-587,-7.06946,8.88501,0,0,0,0,0,0,0,-1,1063,1611,-7.06947,-8.885
-154,-587,-2.24731,6.56519,0,0,0,0,0,0,0,-1,1070,1611,-2.24728,-6.56517
-147,-587,0,0,0,0,0,0,0,0,0,-1,1077,1611,0,0
-140,-587,0,0,0,0,0,0,0,0,0,-1,1084,1611,0,0
-133,-587,0,0,0,0,0,0,0,0,0,-1,1091,1611,0,0
-126,-587,0,0,0,0,0,0,0,0,0,-1,1098,1611,0,0
-119,-587,0,0,0,0,0,0,0,0,0,-1,1105,1611,0,0
-112,-587,0,0,0,0,0,0,0,0,0,-1,1112,1611,0,0
-105,-587,0,0,0,0,0,0,0,0,0,-1,1119,1611,0,0
-98,-587,0,0,0,0,0,0,0,0,0,-1,1126,1611,0,0
-91,-587,0,0,0,0,0,0,0,0,0,-1,1133,1611,0,0
-84,-587,0,0,0,0,0,0,0,0,0,-1,1140,1611,0,0
-77,-587,0,0,0,0,0,0,0,0,0,-1,1147,1611,0,0
-70,-587,0,0,0,0,0,0,0,0,0,-1,1154,1611,0,0
-63,-587,0,0,0,0,0,0,0,0,0,-1,1161,1611,0,0
-56,-587,0,0,0,0,0,0,0,0,0,-1,1168,1611,0,0
-49,-587,0,0,0,0,0,0,0,0,0,-1,1175,1611,0,0
-42,-587,0,0,0,0,0,0,0,0,0,-1,1182,1611,0,0
-35,-587,0,0,0,0,0,0,0,0,0,-1,1189,1611,0,0
-28,-587,0,0,0,0,0,0,0,0,0,-1,1196,1611,0,0
-21,-587,0,0,0,0,0,0,0,0,0,-1,1203,1611,0,0
-14,-587,0,0,0,0,0,0,0,0,0,-1,1210,1611,0,0
-7,-587,0,0,0,0,0,0,0,0,0,-1,1217,1611,0,0
0,-587,0,0,0,0,0,0,0,0,0,-1,1224,1611,0,0
7,-587,0,0,0,0,0,0,0,0,0,-1,1231,1611,0,0
14,-587,0,0,0,0,0,0,0,0,0,-1,1238,1611,0,0
21,-587,0,0,0,0,0,0,0,0,0,-1,1245,1611,0,0
28,-587,0,0,0,0,0,0,0,0,0,-1,1252,1611,0,0
35,-587,0,0,0,0,0,0,0,0,0,-1,1259,1611,0,0
42,-587,0,0,0,0,0,0,0,0,0,-1,1266,1611,0,0
49,-587,0,0,0,0,0,0,0,0,0,-1,1273,1611,0,0
56,-587,0,0,0,0,0,0,0,0,0,-1,1280,1611,0,0
63,-587,0,0,0,0,0,0,0,0,0,-1,1287,1611,0,0
70,-587,0,0,0,0,0,0,0,0,0,-1,1294,1611,0,0
77,-587,0,0,0,0,0,0,0,0,0,-1,1301,1611,0,0
84,-587,0,0,0,0,0,0,0,0,0,-1,1308,1611,0,0
91,-587,0,0,0,0,0,0,0,0,0,-1,1315,1611,0,0
98,-587,0,0,0,0,0,0,0,0,0,-1,1322,1611,0,0
105,-587,0,0,0,0,0,0,0,0,0,-1,1329,1611,0,0
112,-587,0,0,0,0,0,0,0,0,0,-1,1336,1611,0,0
119,-587,0,0,0,0,0,0,0,0,0,-1,1343,1611,0,0
126,-587,0,0,0,0,0,0,0,0,0,-1,1350,1611,0,0
133,-587,0,0,0,0,0,0,0,0,0,-1,1357,1611,0,0
140,-587,0,0,0,0,0,0,0,0,0,-1,1364,1611,0,0
147,-587,0,0,0,0,0,0,0,0,0,-1,1371,1611,0,0
154,-587,0,0,0,0,0,0,0,0,0,-1,1378,1611,0,0
161,-587,0,0,0,0,0,0,0,0,0,-1,1385,1611,0,0
168,-587,0,0,0,0,0,0,0,0,0,-1,1392,1611,0,0
175,-587,0,0,0,0,0,0,0,0,0,-1,1399,1611,0,0
182,-587,0,0,0,0,0,0,0,0,0,-1,1406,1611,0,0
189,-587,0,0,0,0,0,0,0,0,0,-1,1413,1611,0,0
196,-587,0,0,0,0,0,0,0,0,0,-1,1420,1611,0,0
203,-587,0,0,0,0,0,0,0,0,0,-1,1427,1611,0,0
210,-587,0,0,0,0,0,0,0,0,0,-1,1434,1611,0,0
217,-587,0,0,0,0,0,0,0,0,0,-1,1441,1611,0,0
224,-587,0,0,0,0,0,0,0,0,0,-1,1448,1611,0,0
231,-587,0,0,0,0,0,0,0,0,0,-1,1455,1611,0,0
238,-587,0,0,0,0,0,0,0,0,0,-1,1462,1611,0,0
245,-587,0,0,0,0,0,0,0,0,0,-1,1469,1611,0,0
252,-587,0,0,0,0,0,0,0,0,0,-1,1476,1611,0,0
259,-587,0,0,0,0,0,0,0,0,0,-1,1483,1611,0,0
266,-587,0,0,0,0,0,0,0,0,0,-1,1490,1611,0,0
273,-587,10.2936,6.35083,0,0,0,0,0,0,0,-1,1497,1611,10.2936,-6.35087
280,-587,2.09204,1.1217,0,0,0,0,0,0,0,-1,1504,1611,2.092,-1.12176
287,-587,3.2865,0.671509,0,0,0,0,0,0,0,-1,1511,1611,3.28656,-0.671538
294,-587,4.24646,1.58765,0,0,0,0,0,0,0,-1,1518,1611,4.24648,-1.58761
301,-587,7.60474,8.37085,0,0,0,0,0,0,0,-1,1525,1611,7.60478,-8.37084
308,-587,5.99316,10.2291,0,0,0,0,0,0,0,-1,1532,1611,5.99315,-10.2291
315,-587,4.34558,12.3289,0,0,0,0,0,0,0,-1,1539,1611,4.34556,-12.3288
322,-587,10.4526,6.38245,0,0,0,0,0,0,0,-1,1546,1611,10.4526,-6.38245
329,-587,10.7738,8.42444,0,0,0,0,0,0,0,-1,1553,1611,10.7738,-8.42438
336,-587,7.5531,5.96619,0,0,0,0,0,0,0,-1,1560,1611,7.55311,-5.96617
343,-587,9.57495,4.38391,0,0,0,0,0,0,0,-1,1567,1611,9.57494,-4.38397
350,-587,9.50378,3.45093,0,0,0,0,0,0,0,-1,1574,1611,9.50376,-3.4509
357,-587,9.40027,2.50806,0,0,0,0,0,0,0,-1,1581,1611,9.40022,-2.50803
364,-587,9.26477,1.34131,0,0,0,0,0,0,0,-1,1588,1611,9.26479,-1.34126
371,-587,6.98926,7.87561,0,0,0,0,0,0,0,-1,1595,1611,6.98928,-7.87564
378,-587,9.25146,13.8358,0,0,0,0,0,0,0,-1,1602,1611,9.2515,-13.8359
385,-587,13.9305,30.3229,0,0,0,0,0,0,0,-1,1609,1611,13.9305,-30.3228
392,-587,13.8809,30.137,0,0,0,0,0,0,0,-1,1616,1611,13.8809,-30.137
399,-587,14.1641,29.7288,0,0,0,0,0,0,0,-1,1623,1611,14.1641,-29.7288
406,-587,14.1537,28.9215,0.00855666,0.0191334,-0.00508215,0.0211795,0.00651051,-1.18804,0.0125268,0.0422528,1630,1611,14.1537,-28.9215
413,-587,14.11,28.563,0.0046247,0.0171764,-0.00362474,0.018148,0.00365313,-1.30892,0.0110835,0.0350156,1637,1611,14.1099,-28.5629
420,-587,13.9945,28.2338,0.00240349,0.0154658,-0.00296306,0.0161065,0.00176278,-1.35784,0.010201,0.0303262,1644,1611,13.9945,-28.2337
427,-587,13.9695,27.9012,0.000333007,0.0136324,-0.00193362,0.0139078,5.75795e-05,-1.42931,0.00925273,0.0236438,1651,1611,13.9695,-27.9013
434,-587,13.9774,27.3574,-0.000237215,0.0120014,-0.00198726,0.012316,-0.000551815,-1.41379,0.00840062,0.0179378,1658,1611,13.9774,-27.3575
441,-587,13.9727,26.8761,7.08114e-05,0.0106558,-0.00228005,0.011126,-0.00039943,-1.36741,0.00755399,0.0221785,1665,1611,13.9727,-26.8761
448,-587,13.9984,26.587,0.000243629,0.00935572,-0.00240094,0.00994963,-0.000350284,-1.3283,0.00675288,0.016597,1672,1611,13.9984,-26.587
455,-587,13.9974,26.1974,0.000545855,0.00785246,-0.00249353,0.00862232,-0.000223999,-1.27134,0.00582431,0.0148442,1679,1611,13.9975,-26.1974
462,-587,13.9867,25.7813,0.000889305,0.00652558,-0.00246449,0.00745118,-3.6299e-05,-1.21152,0.0049796,0.018248,1686,1611,13.9867,-25.7813
469,-587,13.9629,25.3759,0.001026,0.00499626,-0.00220799,0.0059803,4.19591e-05,-1.15155,0.00397295,0.015649,1693,1611,13.9629,-25.3759
476,-587,13.9633,24.957,0.000880868,0.00340387,-0.00174518,0.00429575,-1.10124e-05,-1.09835,0.00286751,0.0100511,1700,1611,13.9633,-24.9571
483,-587,13.9414,24.52,0.00073126,0.00172076,-0.00127749,0.00259596,-0.000143939,-0.970146,0.00178056,0.0127617,1707,1611,13.9414,-24.52
490,-587,13.9041,24.0824,0.000428491,0.000403696,-0.00071556,0.00113176,-0.000299573,-0.776736,0.000871696,0.0156524,1714,1611,13.904,-24.0825
497,-587,13.8928,23.6583,-0.000168758,-0.00073257,-0.000135186,-0.00013802,-0.000763308,-0.223574,0.000469674,0.0132237,1721,1611,13.8928,-23.6583
504,-587,13.8693,23.2717,-0.00105826,-0.001962,0.00070557,-0.00067227,-0.002348,0.500588,0.00139627,0.0127582,1728,1611,13.8692,-23.2718
511,-587,13.8557,22.8296,-0.00197413,-0.00321973,0.00160022,-0.000879785,-0.00431408,0.59982,0.00263226,0.0147014,1735,1611,13.8557,-22.8295
518,-587,13.8816,22.3795,-0.00285128,-0.00436743,0.00243687,-0.00105729,-0.00616141,0.6346,0.00380447,0.0146568,1742,1611,13.8815,-22.3795
525,-587,13.8718,21.9933,-0.00389354,-0.00570903,0.00348436,-0.00120063,-0.00840194,0.657971,0.00524708,0.0168074,1749,1611,13.8719,-21.9933
532,-587,13.8508,21.5494,-0.00523724,-0.0074223,0.00493666,-0.00127366,-0.0113859,0.676498,0.00720366,0.0275705,1756,1611,13.8508,-21.5494
539,-587,14.0754,21.0544,-0.00724769,-0.00993544,0.00706733,-0.0013976,-0.0157855,0.691443,0.0100901,0.0484255,1763,1611,14.0754,-21.0544
546,-587,14.4557,20.588,0,0,0,0,0,0,0,-1,1770,1611,14.4557,-20.588
553,-587,7.5813,8.45068,0,0,0,0,0,0,0,-1,1777,1611,7.58125,-8.45068
560,-587,4.21179,5.23547,0,0,0,0,0,0,0,-1,1784,1611,4.21185,-5.23553
567,-587,4.03711,5.46387,0,0,0,0,0,0,0,-1,1791,1611,4.03715,-5.46382
574,-587,3.83142,5.68884,0,0,0,0,0,0,0,-1,1798,1611,3.83141,-5.68881
581,-587,3.47168,6.00977,0,0,0,0,0,0,0,-1,1805,1611,3.47167,-6.00983
588,-587,0,0,0,0,0,0,0,0,0,-1,1812,1611,0,0
595,-587,0,0,0,0,0,0,0,0,0,-1,1819,1611,0,0
602,-587,0,0,0,0,0,0,0,0,0,-1,1826,1611,0,0
609,-587,0,0,0,0,0,0,0,0,0,-1,1833,1611,0,0
616,-587,0,0,0,0,0,0,0,0,0,-1,1840,1611,0,0
623,-587,0,0,0,0,0,0,0,0,0,-1,1847,1611,0,0
630,-587,0,0,0,0,0,0,0,0,0,-1,1854,1611,0,0
637,-587,0,0,0,0,0,0,0,0,0,-1,1861,1611,0,0
644,-587,0,0,0,0,0,0,0,0,0,-1,1868,1611,0,0
651,-587,0,0,0,0,0,0,0,0,0,-1,1875,1611,0,0
658,-587,0,0,0,0,0,0,0,0,0,-1,1882,1611,0,0
665,-587,0,0,0,0,0,0,0,0,0,-1,1889,1611,0,0
672,-587,0,0,0,0,0,0,0,0,0,-1,1896,1611,0,0
679,-587,0,0,0,0,0,0,0,0,0,-1,1903,1611,0,0
686,-587,0,0,0,0,0,0,0,0,0,-1,1910,1611,0,0
693,-587,0,0,0,0,0,0,0,0,0,-1,1917,1611,0,0
700,-587,0,0,0,0,0,0,0,0,0,-1,1924,1611,0,0
707,-587,0,0,0,0,0,0,0,0,0,-1,1931,1611,0,0
714,-587,0,0,0,0,0,0,0,0,0,-1,1938,1611,0,0
721,-587,0,0,0,0,0,0,0,0,0,-1,1945,1611,0,0
728,-587,0,0,0,0,0,0,0,0,0,-1,1952,1611,0,0
735,-587,0,0,0,0,0,0,0,0,0,-1,1959,1611,0,0
742,-587,0,0,0,0,0,0,0,0,0,-1,1966,1611,0,0
749,-587,0,0,0,0,0,0,0,0,0,-1,1973,1611,0,0
756,-587,0,0,0,0,0,0,0,0,0,-1,1980,1611,0,0
763,-587,0,0,0,0,0,0,0,0,0,-1,1987,1611,0,0
770,-587,0,0,0,0,0,0,0,0,0,-1,1994,1611,0,0
777,-587,0,0,0,0,0,0,0,0,0,-1,2001,1611,0,0
784,-587,0,0,0,0,0,0,0,0,0,-1,2008,1611,0,0
791,-587,0,0,0,0,0,0,0,0,0,-1,2015,1611,0,0
798,-587,0,0,0,0,0,0,0,0,0,-1,2022,1611,0,0
805,-587,0,0,0,0,0,0,0,0,0,-1,2029,1611,0,0
812,-587,0,0,0,0,0,0,0,0,0,-1,2036,1611,0,0
-700,-594,0,0,0,0,0,0,0,0,0,-1,524,1618,0,0
-693,-594,0,0,0,0,0,0,0,0,0,-1,531,1618,0,0
-686,-594,0,0,0,0,0,0,0,0,0,-1,538,1618,0,0
-679,-594,0,0,0,0,0,0,0,0,0,-1,545,1618,0,0
-672,-594,0,0,0,0,0,0,0,0,0,-1,552,1618,0,0
-665,-594,0,0,0,0,0,0,0,0,0,-1,559,1618,0,0
-658,-594,0,0,0,0,0,0,0,0,0,-1,566,1618,0,0
-651,-594,0,0,0,0,0,0,0,0,0,-1,573,1618,0,0
-644,-594,0,0,0,0,0,0,0,0,0,-1,580,1618,0,0
-637,-594,0,0,0,0,0,0,0,0,0,-1,587,1618,0,0
-630,-594,0,0,0,0,0,0,0,0,0,-1,594,1618,0,0
-623,-594,0,0,0,0,0,0,0,0,0,-1,601,1618,0,0
-616,-594,0,0,0,0,0,0,0,0,0,-1,608,1618,0,0
-609,-594,0,0,0,0,0,0,0,0,0,-1,615,1618,0,0
-602,-594,0,0,0,0,0,0,0,0,0,-1,622,1618,0,0
-595,-594,0,0,0,0,0,0,0,0,0,-1,629,1618,0,0
-588,-594,0,0,0,0,0,0,0,0,0,-1,636,1618,0,0
-581,-594,0,0,0,0,0,0,0,0,0,-1,643,1618,0,0
-574,-594,0,0,0,0,0,0,0,0,0,-1,650,1618,0,0
-567,-594,0,0,0,0,0,0,0,0,0,-1,657,1618,0,0
-560,-594,0,0,0,0,0,0,0,0,0,-1,664,1618,0,0
-553,-594,0,0,0,0,0,0,0,0,0,-1,671,1618,0,0
-546,-594,0,0,0,0,0,0,0,0,0,-1,678,1618,0,0
-539,-594,0,0,0,0,0,0,0,0,0,-1,685,1618,0,0
-532,-594,0,0,0,0,0,0,0,0,0,-1,692,1618,0,0
-525,-594,0,0,0,0,0,0,0,0,0,-1,699,1618,0,0
-518,-594,0,0,0,0,0,0,0,0,0,-1,706,1618,0,0
-511,-594,0,0,0,0,0,0,0,0,0,-1,713,1618,0,0
-504,-594,0,0,0,0,0,0,0,0,0,-1,720,1618,0,0
-497,-594,0,0,0,0,0,0,0,0,0,-1,727,1618,0,0
-490,-594,0,0,0,0,0,0,0,0,0,-1,734,1618,0,0
-483,-594,0,0,0,0,0,0,0,0,0,-1,741,1618,0,0
-476,-594,0,0,0,0,0,0,0,0,0,-1,748,1618,0,0
-469,-594,0,0,0,0,0,0,0,0,0,-1,755,1618,0,0
-462,-594,0,0,0,0,0,0,0,0,0,-1,762,1618,0,0
-455,-594,-0.509216,-1.58411,0,0,0,0,0,0,0,-1,769,1618,-0.509245,1.58415
-448,-594,-7.71887,-0.0559082,0,0,0,0,0,0,0,-1,776,1618,-7.71885,0.055939
-441,-594,-5.78473,1.18298,0,0,0,0,0,0,0,-1,783,1618,-5.78474,-1.18295
-434,-594,-3.93628,3.06213,0,0,0,0,0,0,0,-1,790,1618,-3.93631,-3.06208
-427,-594,-3.97693,6.77759,0,0,0,0,0,0,0,-1,797,1618,-3.97695,-6.77764
-420,-594,-2.53046,7.71606,0,0,0,0,0,0,0,-1,804,1618,-2.53047,-7.71609
-413,-594,-0.860413,8.00391,0,0,0,0,0,0,0,-1,811,1618,-0.860423,-8.00389
-406,-594,2.45746,13.6218,0,0,0,0,0,0,0,-1,818,1618,2.45747,-13.6218
-399,-594,2.65326,20.4106,0,0,0,0,0,0,0,-1,825,1618,2.65328,-20.4106
-392,-594,2.45587,20.625,-0.0118978,0.00324385,0.00114861,0.00333048,-0.0119845,1.49551,0.00930074,0.0487416,832,1618,2.45585,-20.6251
-385,-594,2.13586,21.4077,-0.00936978,0.00256597,0.00132776,0.00271189,-0.0095157,1.46134,0.00741495,0.0354472,839,1618,2.13585,-21.4077
-378,-594,1.89893,21.8339,-0.00722821,0.00200527,0.00139422,0.0022112,-0.00743414,1.42415,0.00583454,0.0162735,846,1618,1.89891,-21.8338
-371,-594,1.92175,22.3411,-0.00535965,0.00157937,0.00138259,0.0018447,-0.00562498,1.38119,0.00449294,0.0123992,853,1618,1.92178,-22.3411
-364,-594,1.92688,22.7917,-0.00377819,0.00122219,0.00125946,0.00152149,-0.0040775,1.33748,0.00334298,0.0106024,860,1618,1.92687,-22.7918
-357,-594,1.91388,23.2407,-0.00236003,0.00110078,0.0011692,0.00145876,-0.00271801,1.27369,0.00244771,0.010879,867,1618,1.91389,-23.2407
-350,-594,1.88672,23.7305,-0.00105606,0.00110042,0.00110401,0.00156538,-0.00152101,1.17219,0.00178199,0.0148249,874,1618,1.88675,-23.7305
-343,-594,1.85144,24.1852,0.000120408,0.0013238,0.0012127,0.00207587,-0.000631661,1.01568,0.00163564,0.0169305,881,1618,1.85144,-24.1851
-336,-594,1.81885,24.5999,0.0011748,0.00153565,0.00122627,0.00259469,0.000115754,0.858441,0.00169253,0.0146861,888,1618,1.81885,-24.5999
-329,-594,1.82471,25.0441,0.00203266,0.00204111,0.00122537,0.00326227,0.000811505,0.787123,0.00196113,0.0147055,895,1618,1.82469,-25.0441
-322,-594,1.86237,25.4923,0.00268945,0.00271317,0.00137204,0.00407341,0.00132922,0.78972,0.00239861,0.0166587,902,1618,1.86238,-25.4923
-315,-594,1.87354,25.9188,0.00330392,0.00340749,0.00158577,0.00494232,0.00176909,0.80172,0.00289158,0.0167167,909,1618,1.87354,-25.9188
-308,-594,1.86871,26.3387,0.00389272,0.00414411,0.00183904,0.00586175,0.00217508,0.81952,0.00342159,0.0146326,916,1618,1.86873,-26.3388
-301,-594,1.84454,26.7363,0.00434782,0.00524756,0.00228334,0.00712493,0.00247045,0.882664,0.00417751,0.0113922,923,1618,1.84455,-26.7363
-294,-594,1.87183,27.1416,0.00463383,0.00679155,0.00298956,0.00889096,0.00253443,0.958564,0.00528894,0.0138014,930,1618,1.87183,-27.1416
-287,-594,1.81,27.5518,0.00505026,0.00855374,0.00377604,0.0109646,0.00263942,1.00258,0.00660803,0.0251447,937,1618,1.81,-27.5518
-280,-594,1.78241,28.1255,0,0,0,0,0,0,0,-1,944,1618,1.78242,-28.1255
-273,-594,1.87354,28.621,0,0,0,0,0,0,0,-1,951,1618,1.87353,-28.621
-266,-594,1.74878,29.1561,0,0,0,0,0,0,0,-1,958,1618,1.7488,-29.1561
-259,-594,1.72034,29.5808,0,0,0,0,0,0,0,-1,965,1618,1.72035,-29.5808
-252,-594,2.05634,30.0056,0,0,0,0,0,0,0,-1,972,1618,2.05632,-30.0056
-245,-594,1.92639,30.6809,0,0,0,0,0,0,0,-1,979,1618,1.9264,-30.6809
-238,-594,2.09015,28.0121,0,0,0,0,0,0,0,-1,986,1618,2.09012,-28.0121
-231,-594,1.93774,9.35388,0,0,0,0,0,0,0,-1,993,1618,1.93776,-9.35393
-224,-594,1.81824,8.62744,0,0,0,0,0,0,0,-1,1000,1618,1.81822,-8.62745
-217,-594,-8.24066,12.0752,0,0,0,0,0,0,0,-1,1007,1618,-8.24068,-12.0751
-210,-594,-5.61438,14.2119,0,0,0,0,0,0,0,-1,1014,1618,-5.6144,-14.212
-203,-594,-3.94507,15.5768,0,0,0,0,0,0,0,-1,1021,1618,-3.94506,-15.5768
-196,-594,2.78613,10.5815,0,0,0,0,0,0,0,-1,1028,1618,2.78612,-10.5815
-189,-594,2.60913,9.48865,0,0,0,0,0,0,0,-1,1035,1618,2.6091,-9.48871
-182,-594,1.2395,9.38806,0,0,0,0,0,0,0,-1,1042,1618,1.23951,-9.38804
-175,-594,0.234863,8.73792,0,0,0,0,0,0,0,-1,1049,1618,0.234812,-8.73786
-168,-594,-0.495483,8.46289,0,0,0,0,0,0,0,-1,1056,1618,-0.495513,-8.46285
-161,-594,-1.39734,8.28699,0,0,0,0,0,0,0,-1,1063,1618,-1.39729,-8.28699
-154,-594,-0.000854492,7.68445,0,0,0,0,0,0,0,-1,1070,1618,-0.000805755,-7.6845
-147,-594,0.348267,9.3385,0,0,0,0,0,0,0,-1,1077,1618,0.348237,-9.33849
-140,-594,0.675171,11.5884,0,0,0,0,0,0,0,-1,1084,1618,0.675204,-11.5884
-133,-594,0,0,0,0,0,0,0,0,0,-1,1091,1618,0,0
-126,-594,0,0,0,0,0,0,0,0,0,-1,1098,1618,0,0
-119,-594,0,0,0,0,0,0,0,0,0,-1,1105,1618,0,0
-112,-594,0,0,0,0,0,0,0,0,0,-1,1112,1618,0,0
-105,-594,0,0,0,0,0,0,0,0,0,-1,1119,1618,0,0
-98,-594,0,0,0,0,0,0,0,0,0,-1,1126,1618,0,0
-91,-594,0,0,0,0,0,0,0,0,0,-1,1133,1618,0,0
-84,-594,0,0,0,0,0,0,0,0,0,-1,1140,1618,0,0
-77,-594,0,0,0,0,0,0,0,0,0,-1,1147,1618,0,0
-70,-594,0,0,0,0,0,0,0,0,0,-1,1154,1618,0,0
-63,-594,0,0,0,0,0,0,0,0,0,-1,1161,1618,0,0
-56,-594,0,0,0,0,0,0,0,0,0,-1,1168,1618,0,0
-49,-594,0,0,0,0,0,0,0,0,0,-1,1175,1618,0,0
-42,-594,0,0,0,0,0,0,0,0,0,-1,1182,1618,0,0
-35,-594,0,0,0,0,0,0,0,0,0,-1,1189,1618,0,0
-28,-594,0,0,0,0,0,0,0,0,0,-1,1196,1618,0,0
-21,-594,0,0,0,0,0,0,0,0,0,-1,1203,1618,0,0
-14,-594,0,0,0,0,0,0,0,0,0,-1,1210,1618,0,0
-7,-594,0,0,0,0,0,0,0,0,0,-1,1217,1618,0,0
0,-594,0,0,0,0,0,0,0,0,0,-1,1224,1618,0,0
7,-594,0,0,0,0,0,0,0,0,0,-1,1231,1618,0,0
14,-594,0,0,0,0,0,0,0,0,0,-1,1238,1618,0,0
21,-594,0,0,0,0,0,0,0,0,0,-1,1245,1618,0,0
28,-594,0,0,0,0,0,0,0,0,0,-1,1252,1618,0,0
35,-594,0,0,0,0,0,0,0,0,0,-1,1259,1618,0,0
42,-594,0,0,0,0,0,0,0,0,0,-1,1266,1618,0,0
49,-594,0,0,0,0,0,0,0,0,0,-1,1273,1618,0,0
56,-594,0,0,0,0,0,0,0,0,0,-1,1280,1618,0,0
63,-594,0,0,0,0,0,0,0,0,0,-1,1287,1618,0,0
70,-594,0,0,0,0,0,0,0,0,0,-1,1294,1618,0,0
77,-594,0,0,0,0,0,0,0,0,0,-1,1301,1618,0,0
84,-594,0,0,0,0,0,0,0,0,0,-1,1308,1618,0,0
91,-594,0,0,0,0,0,0,0,0,0,-1,1315,1618,0,0
98,-594,0,0,0,0,0,0,0,0,0,-1,1322,1618,0,0
105,-594,0,0,0,0,0,0,0,0,0,-1,1329,1618,0,0
112,-594,0,0,0,0,0,0,0,0,0,-1,1336,1618,0,0
119,-594,0,0,0,0,0,0,0,0,0,-1,1343,1618,0,0
126,-594,0,0,0,0,0,0,0,0,0,-1,1350,1618,0,0
133,-594,0,0,0,0,0,0,0,0,0,-1,1357,1618,0,0
140,-594,0,0,0,0,0,0,0,0,0,-1,1364,1618,0,0
147,-594,0,0,0,0,0,0,0,0,0,-1,1371,1618,0,0
154,-594,0,0,0,0,0,0,0,0,0,-1,1378,1618,0,0
161,-594,0,0,0,0,0,0,0,0,0,-1,1385,1618,0,0
168,-594,0,0,0,0,0,0,0,0,0,-1,1392,1618,0,0
175,-594,0,0,0,0,0,0,0,0,0,-1,1399,1618,0,0
182,-594,0,0,0,0,0,0,0,0,0,-1,1406,1618,0,0
189,-594,0,0,0,0,0,0,0,0,0,-1,1413,1618,0,0
196,-594,0,0,0,0,0,0,0,0,0,-1,1420,1618,0,0
203,-594,0,0,0,0,0,0,0,0,0,-1,1427,1618,0,0
210,-594,0,0,0,0,0,0,0,0,0,-1,1434,1618,0,0
217,-594,0,0,0,0,0,0,0,0,0,-1,1441,1618,0,0
224,-594,0,0,0,0,0,0,0,0,0,-1,1448,1618,0,0
231,-594,0,0,0,0,0,0,0,0,0,-1,1455,1618,0,0
238,-594,0,0,0,0,0,0,0,0,0,-1,1462,1618,0,0
245,-594,0,0,0,0,0,0,0,0,0,-1,1469,1618,0,0
252,-594,3.03674,1.20996,0,0,0,0,0,0,0,-1,1476,1618,3.0368,-1.20999
259,-594,4.79834,1.53113,0,0,0,0,0,0,0,-1,1483,1618,4.79837,-1.53118
266,-594,3.71606,2.68152,0,0,0,0,0,0,0,-1,1490,1618,3.71609,-2.68149
273,-594,9.7655,6.33557,0,0,0,0,0,0,0,-1,1497,1618,9.76555,-6.33554
280,-594,3.13281,0.911255,0,0,0,0,0,0,0,-1,1504,1618,3.13277,-0.911207
287,-594,4.42749,1.51563,0,0,0,0,0,0,0,-1,1511,1618,4.42747,-1.51564
294,-594,5.36475,3.34937,0,0,0,0,0,0,0,-1,1518,1618,5.36475,-3.3494
301,-594,7.97144,9.04333,0,0,0,0,0,0,0,-1,1525,1618,7.9714,-9.04328
308,-594,6.30347,10.4633,0,0,0,0,0,0,0,-1,1532,1618,6.30351,-10.4633
315,-594,4.62012,11.934,0,0,0,0,0,0,0,-1,1539,1618,4.62006,-11.934
322,-594,2.91528,13.3134,0,0,0,0,0,0,0,-1,1546,1618,2.91523,-13.3133
329,-594,4.19861,9.77258,0,0,0,0,0,0,0,-1,1553,1618,4.19865,-9.77264
336,-594,10.1353,4.66528,0,0,0,0,0,0,0,-1,1560,1618,10.1353,-4.66533
343,-594,10.5729,3.71228,0,0,0,0,0,0,0,-1,1567,1618,10.5729,-3.71232
350,-594,10.219,2.98792,0,0,0,0,0,0,0,-1,1574,1618,10.219,-2.98797
357,-594,9.83154,1.96326,0,0,0,0,0,0,0,-1,1581,1618,9.8315,-1.96321
364,-594,9.74939,0.700562,0,0,0,0,0,0,0,-1,1588,1618,9.74939,-0.700615
371,-594,8.54297,14.3988,0,0,0,0,0,0,0,-1,1595,1618,8.54296,-14.3989
378,-594,12.8971,31.8892,0,0,0,0,0,0,0,-1,1602,1618,12.8971,-31.8892
385,-594,13.0565,30.1991,0,0,0,0,0,0,0,-1,1609,1618,13.0565,-30.1991
392,-594,13.3575,29.9691,0.0203305,0.0233557,-0.0117447,0.0336848,0.0100014,-0.849441,0.0199755,0.0484494,1616,1618,13.3575,-29.9692
399,-594,13.6177,29.5544,0.0137075,0.0193086,-0.00769388,0.0246958,0.00832034,-0.959941,0.0145087,0.0393074,1623,1618,13.6176,-29.5544
406,-594,13.6536,29.1144,0.00863139,0.0160152,-0.00493767,0.0184886,0.00615802,-1.10641,0.0108709,0.0254821,1630,1618,13.6536,-29.1144
413,-594,13.5818,28.6733,0.00511335,0.0137956,-0.0033539,0.0149402,0.00396867,-1.24189,0.00893603,0.0181154,1637,1618,13.5818,-28.6733
420,-594,13.594,28.261,0.0029613,0.0119594,-0.00247627,0.0125958,0.00232485,-1.31922,0.00773954,0.0143668,1644,1618,13.594,-28.261
427,-594,13.6169,27.8595,0.000874869,0.0101326,-0.0013197,0.0103171,0.00069042,-1.43193,0.00665984,0.0125842,1651,1618,13.617,-27.8595
434,-594,13.574,27.4421,0.000144386,0.00870512,-0.00127715,0.00889159,-4.20869e-05,-1.42581,0.00594181,0.0181421,1658,1618,13.5739,-27.4421
441,-594,13.5676,27.0021,0.000242709,0.00760806,-0.00151775,0.00790856,-5.77876e-05,-1.37534,0.00529174,0.0169537,1665,1618,13.5676,-27.0021
448,-594,13.6007,26.5989,0.000262908,0.00654253,-0.00161503,0.00693355,-0.000128106,-1.33326,0.00466565,0.0169055,1672,1618,13.6007,-26.5988
455,-594,13.5687,26.197,0.000412804,0.00534473,-0.00170817,0.00587857,-0.000121036,-1.26789,0.00396001,0.0126293,1679,1618,13.5687,-26.197
462,-594,13.541,25.8051,0.00058947,0.00422264,-0.00167667,0.00487814,-6.60305e-05,-1.19811,0.00327433,0.0144462,1686,1618,13.5411,-25.805
469,-594,13.5356,25.407,0.000611054,0.00295136,-0.00145404,0.00364762,-8.5205e-05,-1.12422,0.00246064,0.0128777,1693,1618,13.5356,-25.407
476,-594,13.5405,24.9907,0.000391666,0.00160907,-0.00104684,0.00221131,-0.000210576,-1.04874,0.00154918,0.0120975,1700,1618,13.5405,-24.9907
483,-594,13.5537,24.5552,0.000124002,0.000190825,-0.000598646,0.000756992,-0.000442164,-0.813275,0.000700241,0.0144192,1707,1618,13.5537,-24.5551
490,-594,13.5204,24.1017,-0.000210283,-0.000925226,-0.000134582,-0.000185788,-0.000949721,-0.180035,0.000581202,0.013037,1714,1618,13.5203,-24.1017
497,-594,13.4871,23.6787,-0.000820202,-0.00194798,0.000392719,-0.000696923,-0.00207126,0.30417,0.00121697,0.0101116,1721,1618,13.4871,-23.6787
504,-594,13.4716,23.2719,-0.00174347,-0.00305492,0.0012115,-0.00102162,-0.00377677,0.537346,0.00225578,0.0103961,1728,1618,13.4715,-23.2718
511,-594,13.4668,22.8054,-0.00271063,-0.00428605,0.00207435,-0.00127946,-0.00571721,0.603939,0.00346465,0.0154571,1735,1618,13.4668,-22.8054
518,-594,13.4412,22.3628,-0.00364803,-0.00536485,0.00288742,-0.00149412,-0.00751876,0.640912,0.00459615,0.0206147,1742,1618,13.4412,-22.3627
525,-594,13.3994,21.974,-0.00472391,-0.00668404,0.00395526,-0.0016291,-0.00977885,0.663951,0.00604976,0.0318661,1749,1618,13.3994,-21.974
532,-594,13.4335,21.567,0,0,0,0,0,0,0,-1,1756,1618,13.4334,-21.5671
539,-594,13.7986,21.0181,0,0,0,0,0,0,0,-1,1763,1618,13.7985,-21.0181
546,-594,7.48645,8.54785,0,0,0,0,0,0,0,-1,1770,1618,7.48639,-8.54789
553,-594,3.69714,5.68762,0,0,0,0,0,0,0,-1,1777,1618,3.69715,-5.68764
560,-594,6.06616,4.44482,0,0,0,0,0,0,0,-1,1784,1618,6.06621,-4.44477
567,-594,5.97266,4.73303,0,0,0,0,0,0,0,-1,1791,1618,5.97271,-4.73309
574,-594,5.9906,4.96326,0,0,0,0,0,0,0,-1,1798,1618,5.99065,-4.96326
581,-594,0,0,0,0,0,0,0,0,0,-1,1805,1618,0,0
588,-594,0,0,0,0,0,0,0,0,0,-1,1812,1618,0,0
595,-594,0,0,0,0,0,0,0,0,0,-1,1819,1618,0,0
602,-594,0,0,0,0,0,0,0,0,0,-1,1826,1618,0,0
609,-594,0,0,0,0,0,0,0,0,0,-1,1833,1618,0,0
616,-594,0,0,0,0,0,0,0,0,0,-1,1840,1618,0,0
623,-594,0,0,0,0,0,0,0,0,0,-1,1847,1618,0,0
630,-594,0,0,0,0,0,0,0,0,0,-1,1854,1618,0,0
637,-594,0,0,0,0,0,0,0,0,0,-1,1861,1618,0,0
644,-594,0,0,0,0,0,0,0,0,0,-1,1868,1618,0,0
651,-594,0,0,0,0,0,0,0,0,0,-1,1875,1618,0,0
658,-594,0,0,0,0,0,0,0,0,0,-1,1882,1618,0,0
665,-594,0,0,0,0,0,0,0,0,0,-1,1889,1618,0,0
672,-594,0,0,0,0,0,0,0,0,0,-1,1896,1618,0,0
679,-594,0,0,0,0,0,0,0,0,0,-1,1903,1618,0,0
686,-594,0,0,0,0,0,0,0,0,0,-1,1910,1618,0,0
693,-594,0,0,0,0,0,0,0,0,0,-1,1917,1618,0,0
700,-594,0,0,0,0,0,0,0,0,0,-1,1924,1618,0,0
707,-594,0,0,0,0,0,0,0,0,0,-1,1931,1618,0,0
714,-594,0,0,0,0,0,0,0,0,0,-1,1938,1618,0,0
721,-594,0,0,0,0,0,0,0,0,0,-1,1945,1618,0,0
728,-594,0,0,0,0,0,0,0,0,0,-1,1952,1618,0,0
735,-594,0,0,0,0,0,0,0,0,0,-1,1959,1618,0,0
742,-594,0,0,0,0,0,0,0,0,0,-1,1966,1618,0,0
749,-594,0,0,0,0,0,0,0,0,0,-1,1973,1618,0,0
756,-594,0,0,0,0,0,0,0,0,0,-1,1980,1618,0,0
763,-594,0,0,0,0,0,0,0,0,0,-1,1987,1618,0,0
770,-594,0,0,0,0,0,0,0,0,0,-1,1994,1618,0,0
777,-594,0,0,0,0,0,0,0,0,0,-1,2001,1618,0,0
784,-594,0,0,0,0,0,0,0,0,0,-1,2008,1618,0,0
791,-594,0,0,0,0,0,0,0,0,0,-1,2015,1618,0,0
798,-594,0,0,0,0,0,0,0,0,0,-1,2022,1618,0,0
805,-594,0,0,0,0,0,0,0,0,0,-1,2029,1618,0,0
812,-594,0,0,0,0,0,0,0,0,0,-1,2036,1618,0,0
-700,-601,0,0,0,0,0,0,0,0,0,-1,524,1625,0,0
-693,-601,0,0,0,0,0,0,0,0,0,-1,531,1625,0,0
-686,-601,0,0,0,0,0,0,0,0,0,-1,538,1625,0,0
-679,-601,0,0,0,0,0,0,0,0,0,-1,545,1625,0,0
-672,-601,0,0,0,0,0,0,0,0,0,-1,552,1625,0,0
-665,-601,0,0,0,0,0,0,0,0,0,-1,559,1625,0,0
-658,-601,0,0,0,0,0,0,0,0,0,-1,566,1625,0,0
-651,-601,0,0,0,0,0,0,0,0,0,-1,573,1625,0,0
-644,-601,0,0,0,0,0,0,0,0,0,-1,580,1625,0,0
-637,-601,0,0,0,0,0,0,0,0,0,-1,587,1625,0,0
-630,-601,0,0,0,0,0,0,0,0,0,-1,594,1625,0,0
-623,-601,0,0,0,0,0,0,0,0,0,-1,601,1625,0,0
-616,-601,0,0,0,0,0,0,0,0,0,-1,608,1625,0,0
-609,-601,0,0,0,0,0,0,0,0,0,-1,615,1625,0,0
-602,-601,0,0,0,0,0,0,0,0,0,-1,622,1625,0,0
-595,-601,0,0,0,0,0,0,0,0,0,-1,629,1625,0,0
-588,-601,0,0,0,0,0,0,0,0,0,-1,636,1625,0,0
-581,-601,0,0,0,0,0,0,0,0,0,-1,643,1625,0,0
-574,-601,0,0,0,0,0,0,0,0,0,-1,650,1625,0,0
-567,-601,0,0,0,0,0,0,0,0,0,-1,657,1625,0,0
-560,-601,0,0,0,0,0,0,0,0,0,-1,664,1625,0,0
-553,-601,0,0,0,0,0,0,0,0,0,-1,671,1625,0,0
-546,-601,0,0,0,0,0,0,0,0,0,-1,678,1625,0,0
-539,-601,0,0,0,0,0,0,0,0,0,-1,685,1625,0,0
-532,-601,0,0,0,0,0,0,0,0,0,-1,692,1625,0,0
-525,-601,0,0,0,0,0,0,0,0,0,-1,699,1625,0,0
-518,-601,0,0,0,0,0,0,0,0,0,-1,706,1625,0,0
-511,-601,0,0,0,0,0,0,0,0,0,-1,713,1625,0,0
-504,-601,0,0,0,0,0,0,0,0,0,-1,720,1625,0,0
-497,-601,0,0,0,0,0,0,0,0,0,-1,727,1625,0,0
-490,-601,0,0,0,0,0,0,0,0,0,-1,734,1625,0,0
-483,-601,0,0,0,0,0,0,0,0,0,-1,741,1625,0,0
-476,-601,0,0,0,0,0,0,0,0,0,-1,748,1625,0,0
-469,-601,0,0,0,0,0,0,0,0,0,-1,755,1625,0,0
-462,-601,0,0,0,0,0,0,0,0,0,-1,762,1625,0,0
-455,-601,0,0,0,0,0,0,0,0,0,-1,769,1625,0,0
-448,-601,-7.07623,2.7616,0,0,0,0,0,0,0,-1,776,1625,-7.07626,-2.76161
-441,-601,-6.06689,3.33447,0,0,0,0,0,0,0,-1,783,1625,-6.06691,-3.33448
-434,-601,-5.02655,3.8468,0,0,0,0,0,0,0,-1,790,1625,-5.02657,-3.84674
-427,-601,-5.78601,4.2406,0,0,0,0,0,0,0,-1,797,1625,-5.786,-4.24058
-420,-601,-5.5191,5.60364,0,0,0,0,0,0,0,-1,804,1625,-5.51907,-5.60368
-413,-601,-4.30756,5.86047,0,0,0,0,0,0,0,-1,811,1625,-4.30757,-5.86046
-406,-601,-1.67493,7.20422,0,0,0,0,0,0,0,-1,818,1625,-1.67493,-7.20428
-399,-601,1.40094,15.3108,0,0,0,0,0,0,0,-1,825,1625,1.40096,-15.3107
-392,-601,3.12146,20.4391,0,0,0,0,0,0,0,-1,832,1625,3.12147,-20.4391
-385,-601,2.49316,21.3073,-0.0116979,0.00390138,0.00199604,0.00415274,-0.0119493,1.44553,0.00965292,0.048721,839,1625,2.49314,-21.3073
-378,-601,2.37494,21.9825,-0.00904036,0.00284995,0.00188473,0.00314155,-0.00933195,1.4173,0.00749137,0.0407059,846,1625,2.37492,-21.9825
-371,-601,2.35577,22.308,-0.00676684,0.00217588,0.00183037,0.00253601,-0.00712697,1.37652,0.00578501,0.0222222,853,1625,2.35577,-22.308
-364,-601,2.36108,22.788,-0.00489668,0.00158599,0.00162852,0.0019721,-0.00528278,1.338,0.00433155,0.0123836,860,1625,2.36107,-22.7879
-357,-601,2.33447,23.2692,-0.00327454,0.00128412,0.00150577,0.00173659,-0.00372701,1.27889,0.00322343,0.0105843,867,1625,2.33446,-23.2692
-350,-601,2.34186,23.772,-0.00187571,0.00111319,0.00138779,0.00165819,-0.0024207,1.19659,0.00236862,0.0215592,874,1625,2.34185,-23.772
-343,-601,2.28503,24.2299,-0.000642659,0.00114795,0.00144063,0.00194881,-0.00144352,1.06343,0.00196579,0.0237725,881,1625,2.28504,-24.2298
-336,-601,2.23273,24.6575,0.000463818,0.00118874,0.00138598,0.00225887,-0.000606309,0.913294,0.00174352,0.0204149,888,1625,2.23274,-24.6575
-329,-601,2.26477,25.0897,0.00130586,0.00152431,0.00126706,0.00268684,0.000143322,0.828393,0.00174542,0.0166068,895,1625,2.26477,-25.0897
-322,-601,2.27893,25.498,0.00187864,0.00205227,0.0013067,0.00327504,0.000655872,0.818568,0.00200089,0.013532,902,1625,2.27892,-25.498
-315,-601,2.28326,25.9027,0.00236487,0.00254218,0.00139172,0.00384806,0.00105899,0.817205,0.00229531,0.013938,909,1625,2.28326,-25.9027
-308,-601,2.26733,26.3199,0.00282349,0.0030593,0.00148923,0.00443529,0.00144751,0.824902,0.00261168,0.0124729,916,1625,2.26732,-26.3199
-301,-601,2.26794,26.7408,0.00316827,0.00390109,0.00174289,0.00531568,0.00175369,0.889005,0.00312764,0.00984642,923,1625,2.26796,-26.7409
-294,-601,2.26172,27.1573,0.00338168,0.00516317,0.00219634,0.00664252,0.00190233,0.978042,0.00395,0.0097949,930,1625,2.26174,-27.1574
-287,-601,2.22302,27.5956,0.00366837,0.00660492,0.00266837,0.00818231,0.00209098,1.03692,0.00490865,0.0105752,937,1625,2.22299,-27.5956
-280,-601,2.23358,28.051,0.00396604,0.00832584,0.00329833,0.0100995,0.00219233,1.0774,0.00613426,0.0154796,944,1625,2.23357,-28.051
-273,-601,2.23358,28.4875,0.00411986,0.0100265,0.00396989,0.0120211,0.00212524,1.1052,0.00740799,0.0180004,951,1625,2.23361,-28.4876
-266,-601,2.28748,28.9323,0.00422056,0.0123229,0.00490608,0.0146342,0.00190921,1.13052,0.00918612,0.0213126,958,1625,2.28749,-28.9323
-259,-601,2.40796,29.2445,0,0,0,0,0,0,0,-1,965,1625,2.40796,-29.2445
-252,-601,2.3692,29.9015,0.00447162,0.0176035,0.00715778,0.0207507,0.0013244,1.15655,0.0134141,0.0446281,972,1625,2.36921,-29.9014
-245,-601,2.33813,30.5128,0.00444174,0.0205192,0.0084544,0.0241466,0.000814364,1.1655,0.0158333,0.0460618,979,1625,2.33813,-30.5128
-238,-601,2.40741,31.0265,0,0,0,0,0,0,0,-1,986,1625,2.40744,-31.0265
-231,-601,2.66772,13.7051,0,0,0,0,0,0,0,-1,993,1625,2.6677,-13.7051
-224,-601,-0.0305176,9.13684,0,0,0,0,0,0,0,-1,1000,1625,-0.030498,-9.13681
-217,-601,3.39429,10.3898,0,0,0,0,0,0,0,-1,1007,1625,3.39431,-10.3898
-210,-601,-6.53699,15.7931,0,0,0,0,0,0,0,-1,1014,1625,-6.53697,-15.7931
-203,-601,2.69348,15.9099,0,0,0,0,0,0,0,-1,1021,1625,2.69351,-15.91
-196,-601,2.66992,16.1815,0,0,0,0,0,0,0,-1,1028,1625,2.66995,-16.1815
-189,-601,2.849,16.6105,0,0,0,0,0,0,0,-1,1035,1625,2.84902,-16.6104
-182,-601,1.82153,13.9752,0,0,0,0,0,0,0,-1,1042,1625,1.82155,-13.9752
-175,-601,0.544922,9.28687,0,0,0,0,0,0,0,-1,1049,1625,0.544879,-9.28685
-168,-601,-0.247559,8.97461,0,0,0,0,0,0,0,-1,1056,1625,-0.247598,-8.97466
-161,-601,-1.16833,8.80078,0,0,0,0,0,0,0,-1,1063,1625,-1.16837,-8.80081
-154,-601,1.12756,7.94861,0,0,0,0,0,0,0,-1,1070,1625,1.12762,-7.94855
-147,-601,1.35352,9.55432,0,0,0,0,0,0,0,-1,1077,1625,1.35351,-9.55429
-140,-601,1.72437,11.1498,0,0,0,0,0,0,0,-1,1084,1625,1.72432,-11.1498
-133,-601,2.13281,12.8347,0,0,0,0,0,0,0,-1,1091,1625,2.13287,-12.8348
-126,-601,3.09534,15.427,0,0,0,0,0,0,0,-1,1098,1625,3.0953,-15.4271
-119,-601,1.22485,9.43457,0,0,0,0,0,0,0,-1,1105,1625,1.22489,-9.43456
-112,-601,0,0,0,0,0,0,0,0,0,-1,1112,1625,0,0
-105,-601,0,0,0,0,0,0,0,0,0,-1,1119,1625,0,0
-98,-601,0,0,0,0,0,0,0,0,0,-1,1126,1625,0,0
-91,-601,0,0,0,0,0,0,0,0,0,-1,1133,1625,0,0
-84,-601,0,0,0,0,0,0,0,0,0,-1,1140,1625,0,0
-77,-601,0,0,0,0,0,0,0,0,0,-1,1147,1625,0,0
-70,-601,0,0,0,0,0,0,0,0,0,-1,1154,1625,0,0
-63,-601,0,0,0,0,0,0,0,0,0,-1,1161,1625,0,0
-56,-601,0,0,0,0,0,0,0,0,0,-1,1168,1625,0,0
-49,-601,0,0,0,0,0,0,0,0,0,-1,1175,1625,0,0
-42,-601,0,0,0,0,0,0,0,0,0,-1,1182,1625,0,0
-35,-601,0,0,0,0,0,0,0,0,0,-1,1189,1625,0,0
-28,-601,0,0,0,0,0,0,0,0,0,-1,1196,1625,0,0
-21,-601,0,0,0,0,0,0,0,0,0,-1,1203,1625,0,0
-14,-601,0,0,0,0,0,0,0,0,0,-1,1210,1625,0,0
-7,-601,0,0,0,0,0,0,0,0,0,-1,1217,1625,0,0
0,-601,0,0,0,0,0,0,0,0,0,-1,1224,1625,0,0
7,-601,0,0,0,0,0,0,0,0,0,-1,1231,1625,0,0
14,-601,0,0,0,0,0,0,0,0,0,-1,1238,1625,0,0
21,-601,0,0,0,0,0,0,0,0,0,-1,1245,1625,0,0
28,-601,0,0,0,0,0,0,0,0,0,-1,1252,1625,0,0
35,-601,0,0,0,0,0,0,0,0,0,-1,1259,1625,0,0
42,-601,0,0,0,0,0,0,0,0,0,-1,1266,1625,0,0
49,-601,0,0,0,0,0,0,0,0,0,-1,1273,1625,0,0
56,-601,0,0,0,0,0,0,0,0,0,-1,1280,1625,0,0
63,-601,0,0,0,0,0,0,0,0,0,-1,1287,1625,0,0
70,-601,0,0,0,0,0,0,0,0,0,-1,1294,1625,0,0
77,-601,0,0,0,0,0,0,0,0,0,-1,1301,1625,0,0
84,-601,0,0,0,0,0,0,0,0,0,-1,1308,1625,0,0
91,-601,0,0,0,0,0,0,0,0,0,-1,1315,1625,0,0
98,-601,0,0,0,0,0,0,0,0,0,-1,1322,1625,0,0
105,-601,0,0,0,0,0,0,0,0,0,-1,1329,1625,0,0
112,-601,0,0,0,0,0,0,0,0,0,-1,1336,1625,0,0
119,-601,0,0,0,0,0,0,0,0,0,-1,1343,1625,0,0
126,-601,0,0,0,0,0,0,0,0,0,-1,1350,1625,0,0
133,-601,0,0,0,0,0,0,0,0,0,-1,1357,1625,0,0
140,-601,0,0,0,0,0,0,0,0,0,-1,1364,1625,0,0
147,-601,0,0,0,0,0,0,0,0,0,-1,1371,1625,0,0
154,-601,0,0,0,0,0,0,0,0,0,-1,1378,1625,0,0
161,-601,0,0,0,0,0,0,0,0,0,-1,1385,1625,0,0
168,-601,0,0,0,0,0,0,0,0,0,-1,1392,1625,0,0
175,-601,0,0,0,0,0,0,0,0,0,-1,1399,1625,0,0
182,-601,0,0,0,0,0,0,0,0,0,-1,1406,1625,0,0
189,-601,0,0,0,0,0,0,0,0,0,-1,1413,1625,0,0
196,-601,0,0,0,0,0,0,0,0,0,-1,1420,1625,0,0
203,-601,0,0,0,0,0,0,0,0,0,-1,1427,1625,0,0
210,-601,0,0,0,0,0,0,0,0,0,-1,1434,1625,0,0
217,-601,0,0,0,0,0,0,0,0,0,-1,1441,1625,0,0
224,-601,0,0,0,0,0,0,0,0,0,-1,1448,1625,0,0
231,-601,-0.0371094,0.525879,0,0,0,0,0,0,0,-1,1455,1625,-0.0371518,-0.525824
238,-601,2.03369,-1.32861,0,0,0,0,0,0,0,-1,1462,1625,2.03364,1.32858
245,-601,2.71375,2.44983,0,0,0,0,0,0,0,-1,1469,1625,2.71371,-2.44979
252,-601,4.66943,2.28381,0,0,0,0,0,0,0,-1,1476,1625,4.66947,-2.28376
259,-601,6.42712,2.61987,0,0,0,0,0,0,0,-1,1483,1625,6.42711,-2.61985
266,-601,6.75317,1.68701,0,0,0,0,0,0,0,-1,1490,1625,6.75323,-1.687
273,-601,5.4314,2.92053,0,0,0,0,0,0,0,-1,1497,1625,5.43144,-2.92051
280,-601,4.64722,1.17786,0,0,0,0,0,0,0,-1,1504,1625,4.64722,-1.1779
287,-601,5.32532,2.6217,0,0,0,0,0,0,0,-1,1511,1625,5.32535,-2.62171
294,-601,5.97693,4.22693,0,0,0,0,0,0,0,-1,1518,1625,5.97697,-4.22694
301,-601,7.28162,9.50024,0,0,0,0,0,0,0,-1,1525,1625,7.28162,-9.50025
308,-601,6.53528,10.3927,0,0,0,0,0,0,0,-1,1532,1625,6.53529,-10.3927
315,-601,4.88013,11.7184,0,0,0,0,0,0,0,-1,1539,1625,4.88015,-11.7184
322,-601,3.38098,12.7864,0,0,0,0,0,0,0,-1,1546,1625,3.38104,-12.7864
329,-601,1.8772,13.8768,0,0,0,0,0,0,0,-1,1553,1625,1.87716,-13.8768
336,-601,4.67847,9.53308,0,0,0,0,0,0,0,-1,1560,1625,4.67848,-9.53309
343,-601,11.1404,3.14575,0,0,0,0,0,0,0,-1,1567,1625,11.1404,-3.1458
350,-601,10.9462,2.37769,0,0,0,0,0,0,0,-1,1574,1625,10.9461,-2.37764
357,-601,10.7518,1.6095,0,0,0,0,0,0,0,-1,1581,1625,10.7518,-1.60948
364,-601,5.33643,9.74426,0,0,0,0,0,0,0,-1,1588,1625,5.33637,-9.74429
371,-601,11.1296,32.186,0,0,0,0,0,0,0,-1,1595,1625,11.1296,-32.1861
378,-601,12.9127,31.4009,0,0,0,0,0,0,0,-1,1602,1625,12.9127,-31.4009
385,-601,12.993,30.3252,0,0,0,0,0,0,0,-1,1609,1625,12.9931,-30.3252
392,-601,13.0098,29.8997,0.0171845,0.0197794,-0.0102712,0.0288348,0.00812909,-0.848226,0.0171675,0.0407607,1616,1625,13.0097,-29.8997
399,-601,13.1261,29.4299,0.0120984,0.0161788,-0.00692895,0.0213617,0.00691555,-0.928575,0.012586,0.0191773,1623,1625,13.1261,-29.43
406,-601,13.1862,29.0062,0.00803805,0.0132129,-0.00454563,0.0158559,0.00539503,-1.04413,0.00930885,0.0125245,1630,1625,13.1861,-29.0063
413,-601,13.1737,28.6034,0.00506761,0.0110586,-0.00303525,0.0123276,0.00379863,-1.1748,0.00728989,0.0115994,1637,1625,13.1737,-28.6034
420,-601,13.21,28.1906,0.00312187,0.00923829,-0.00209829,0.00988892,0.00247124,-1.27012,0.00594268,0.0107732,1644,1625,13.2099,-28.1906
427,-601,13.2148,27.8097,0.00116924,0.00747107,-0.000932333,0.00760611,0.00103419,-1.42695,0.00476358,0.0159606,1651,1625,13.2148,-27.8097
434,-601,13.1704,27.4146,0.000391516,0.00617811,-0.00082608,0.00629373,0.000275897,-1.43174,0.00410694,0.0168189,1658,1625,13.1704,-27.4146
441,-601,13.1779,27.0024,0.000357039,0.00522238,-0.00101145,0.00542427,0.000155147,-1.37378,0.00356559,0.0179728,1665,1625,13.1778,-27.0025
448,-601,13.1927,26.6139,0.000280209,0.00428255,-0.00107482,0.00455293,9.8336e-06,-1.32436,0.00303201,0.0156657,1672,1625,13.1927,-26.6139
455,-601,13.1866,26.2014,0.00030838,0.0032642,-0.00114666,0.00365686,-8.42833e-05,-1.24087,0.00246648,0.0130144,1679,1625,13.1867,-26.2015
462,-601,13.1593,25.7975,0.000332291,0.00223913,-0.00108349,0.00272896,-0.000157538,-1.14621,0.00187403,0.0114023,1686,1625,13.1593,-25.7974
469,-601,13.1382,25.4166,0.000238259,0.00112514,-0.000863486,0.00165239,-0.000288995,-1.02261,0.00120949,0.0119566,1693,1625,13.1382,-25.4166
476,-601,13.1301,25.0005,-5.91946e-05,-4.62318e-05,-0.000481012,0.000428342,-0.000533769,-0.792135,0.000556585,0.0140865,1700,1625,13.1301,-25.0004
483,-601,13.1151,24.566,-0.000457168,-0.00125162,-2.20507e-05,-0.000456557,-0.00125223,-0.0277274,0.00073176,0.0167703,1707,1625,13.1151,-24.566
490,-601,13.0962,24.132,-0.000852229,-0.00220763,0.000374046,-0.000755857,-0.002304,0.252164,0.00135618,0.0126995,1714,1625,13.0962,-24.1319
497,-601,13.0891,23.6997,-0.0014767,-0.00312019,0.000871209,-0.00110083,-0.00349605,0.407304,0.00206405,0.0104342,1721,1625,13.0891,-23.6997
504,-601,13.1035,23.2552,-0.00240585,-0.00408908,0.00167312,-0.0013746,-0.00512033,0.552367,0.00306006,0.0196203,1728,1625,13.1035,-23.2553
511,-601,13.0054,22.8839,-0.00343893,-0.00528143,0.00249998,-0.00169586,-0.00702449,0.608867,0.00423251,0.0343642,1735,1625,13.0054,-22.884
518,-601,12.9065,22.3881,-0.00446476,-0.00627654,0.00327664,-0.00197109,-0.00877021,0.650533,0.00531308,0.0450571,1742,1625,12.9065,-22.3881
525,-601,12.9048,21.8845,0,0,0,0,0,0,0,-1,1749,1625,12.9048,-21.8845
532,-601,14.173,19.5956,0,0,0,0,0,0,0,-1,1756,1625,14.1729,-19.5956
539,-601,7.77112,11.4299,0,0,0,0,0,0,0,-1,1763,1625,7.77116,-11.4299
546,-601,6.56873,3.62354,0,0,0,0,0,0,0,-1,1770,1625,6.56867,-3.62352
553,-601,7.03015,4.25049,0,0,0,0,0,0,0,-1,1777,1625,7.03011,-4.25048
560,-601,7.50745,4.83374,0,0,0,0,0,0,0,-1,1784,1625,7.50744,-4.83376
567,-601,7.82043,3.83301,0,0,0,0,0,0,0,-1,1791,1625,7.82041,-3.83303
574,-601,0,0,0,0,0,0,0,0,0,-1,1798,1625,0,0
581,-601,0,0,0,0,0,0,0,0,0,-1,1805,1625,0,0
588,-601,0,0,0,0,0,0,0,0,0,-1,1812,1625,0,0
595,-601,0,0,0,0,0,0,0,0,0,-1,1819,1625,0,0
602,-601,0,0,0,0,0,0,0,0,0,-1,1826,1625,0,0
609,-601,0,0,0,0,0,0,0,0,0,-1,1833,1625,0,0
616,-601,0,0,0,0,0,0,0,0,0,-1,1840,1625,0,0
623,-601,0,0,0,0,0,0,0,0,0,-1,1847,1625,0,0
630,-601,0,0,0,0,0,0,0,0,0,-1,1854,1625,0,0
637,-601,0,0,0,0,0,0,0,0,0,-1,1861,1625,0,0
644,-601,0,0,0,0,0,0,0,0,0,-1,1868,1625,0,0
651,-601,0,0,0,0,0,0,0,0,0,-1,1875,1625,0,0
658,-601,0,0,0,0,0,0,0,0,0,-1,1882,1625,0,0
665,-601,0,0,0,0,0,0,0,0,0,-1,1889,1625,0,0
672,-601,0,0,0,0,0,0,0,0,0,-1,1896,1625,0,0
679,-601,0,0,0,0,0,0,0,0,0,-1,1903,1625,0,0
686,-601,0,0,0,0,0,0,0,0,0,-1,1910,1625,0,0
693,-601,0,0,0,0,0,0,0,0,0,-1,1917,1625,0,0
700,-601,0,0,0,0,0,0,0,0,0,-1,1924,1625,0,0
707,-601,0,0,0,0,0,0,0,0,0,-1,1931,1625,0,0
714,-601,0,0,0,0,0,0,0,0,0,-1,1938,1625,0,0
721,-601,0,0,0,0,0,0,0,0,0,-1,1945,1625,0,0
728,-601,0,0,0,0,0,0,0,0,0,-1,1952,1625,0,0
735,-601,0,0,0,0,0,0,0,0,0,-1,1959,1625,0,0
742,-601,0,0,0,0,0,0,0,0,0,-1,1966,1625,0,0
749,-601,0,0,0,0,0,0,0,0,0,-1,1973,1625,0,0
756,-601,0,0,0,0,0,0,0,0,0,-1,1980,1625,0,0
763,-601,0,0,0,0,0,0,0,0,0,-1,1987,1625,0,0
770,-601,0,0,0,0,0,0,0,0,0,-1,1994,1625,0,0
777,-601,0,0,0,0,0,0,0,0,0,-1,2001,1625,0,0
784,-601,0,0,0,0,0,0,0,0,0,-1,2008,1625,0,0
791,-601,0,0,0,0,0,0,0,0,0,-1,2015,1625,0,0
798,-601,0,0,0,0,0,0,0,0,0,-1,2022,1625,0,0
805,-601,0,0,0,0,0,0,0,0,0,-1,2029,1625,0,0
812,-601,0,0,0,0,0,0,0,0,0,-1,2036,1625,0,0
-700,-608,0,0,0,0,0,0,0,0,0,-1,524,1632,0,0
-693,-608,0,0,0,0,0,0,0,0,0,-1,531,1632,0,0
-686,-608,0,0,0,0,0,0,0,0,0,-1,538,1632,0,0
-679,-608,0,0,0,0,0,0,0,0,0,-1,545,1632,0,0
-672,-608,0,0,0,0,0,0,0,0,0,-1,552,1632,0,0
-665,-608,0,0,0,0,0,0,0,0,0,-1,559,1632,0,0
-658,-608,0,0,0,0,0,0,0,0,0,-1,566,1632,0,0
-651,-608,0,0,0,0,0,0,0,0,0,-1,573,1632,0,0
-644,-608,0,0,0,0,0,0,0,0,0,-1,580,1632,0,0
-637,-608,0,0,0,0,0,0,0,0,0,-1,587,1632,0,0
-630,-608,0,0,0,0,0,0,0,0,0,-1,594,1632,0,0
-623,-608,0,0,0,0,0,0,0,0,0,-1,601,1632,0,0
-616,-608,0,0,0,0,0,0,0,0,0,-1,608,1632,0,0
-609,-608,0,0,0,0,0,0,0,0,0,-1,615,1632,0,0
-602,-608,0,0,0,0,0,0,0,0,0,-1,622,1632,0,0
-595,-608,0,0,0,0,0,0,0,0,0,-1,629,1632,0,0
-588,-608,0,0,0,0,0,0,0,0,0,-1,636,1632,0,0
-581,-608,0,0,0,0,0,0,0,0,0,-1,643,1632,0,0
-574,-608,0,0,0,0,0,0,0,0,0,-1,650,1632,0,0
-567,-608,0,0,0,0,0,0,0,0,0,-1,657,1632,0,0
-560,-608,0,0,0,0,0,0,0,0,0,-1,664,1632,0,0
-553,-608,0,0,0,0,0,0,0,0,0,-1,671,1632,0,0
-546,-608,0,0,0,0,0,0,0,0,0,-1,678,1632,0,0
-539,-608,0,0,0,0,0,0,0,0,0,-1,685,1632,0,0
-532,-608,0,0,0,0,0,0,0,0,0,-1,692,1632,0,0
-525,-608,0,0,0,0,0,0,0,0,0,-1,699,1632,0,0
-518,-608,0,0,0,0,0,0,0,0,0,-1,706,1632,0,0
-511,-608,0,0,0,0,0,0,0,0,0,-1,713,1632,0,0
-504,-608,0,0,0,0,0,0,0,0,0,-1,720,1632,0,0
-497,-608,0,0,0,0,0,0,0,0,0,-1,727,1632,0,0
-490,-608,0,0,0,0,0,0,0,0,0,-1,734,1632,0,0
-483,-608,0,0,0,0,0,0,0,0,0,-1,741,1632,0,0
-476,-608,0,0,0,0,0,0,0,0,0,-1,748,1632,0,0
-469,-608,0,0,0,0,0,0,0,0,0,-1,755,1632,0,0
-462,-608,0,0,0,0,0,0,0,0,0,-1,762,1632,0,0
-455,-608,0,0,0,0,0,0,0,0,0,-1,769,1632,0,0
-448,-608,0,0,0,0,0,0,0,0,0,-1,776,1632,0,0
-441,-608,-7.34601,2.78052,0,0,0,0,0,0,0,-1,783,1632,-7.346,-2.78056
-434,-608,-6.34558,3.27405,0,0,0,0,0,0,0,-1,790,1632,-6.34555,-3.27406
-427,-608,-7.74335,4.17688,0,0,0,0,0,0,0,-1,797,1632,-7.74334,-4.17693
-420,-608,-6.82794,4.34839,0,0,0,0,0,0,0,-1,804,1632,-6.82794,-4.34838
-413,-608,-5.41919,5.66138,0,0,0,0,0,0,0,-1,811,1632,-5.41917,-5.66133
-406,-608,-4.79681,4.98999,0,0,0,0,0,0,0,-1,818,1632,-4.79684,-4.98997
-399,-608,-2.60645,6.34167,0,0,0,0,0,0,0,-1,825,1632,-2.60643,-6.34169
-392,-608,2.08356,15.437,0,0,0,0,0,0,0,-1,832,1632,2.08354,-15.437
-385,-608,2.84583,21.2214,0,0,0,0,0,0,0,-1,839,1632,2.84585,-21.2214
-378,-608,2.8327,22.0479,0,0,0,0,0,0,0,-1,846,1632,2.83268,-22.0478
-371,-608,2.9812,22.1051,0,0,0,0,0,0,0,-1,853,1632,2.9812,-22.1051
-364,-608,2.87567,22.6426,-0.00592629,0.00220694,0.00213836,0.00273488,-0.00645423,1.32875,0.00544827,0.0294463,860,1632,2.87564,-22.6426
-357,-608,2.79303,23.2073,-0.00401845,0.0018439,0.00202409,0.00247485,-0.0046494,1.26862,0.00417657,0.0197068,867,1632,2.79304,-23.2073
-350,-608,2.78357,23.7084,-0.00247672,0.00154625,0.00185442,0.00227063,-0.0032011,1.1984,0.00317429,0.0194584,874,1632,2.78355,-23.7084
-343,-608,2.73193,24.1743,-0.00118116,0.00143634,0.00182704,0.00237501,-0.00211983,1.0962,0.00259649,0.0254329,881,1632,2.73196,-24.1743
-336,-608,2.71069,24.678,-1.67324e-05,0.00135831,0.00169913,0.00250374,-0.00116216,0.977644,0.00216324,0.0179641,888,1632,2.71068,-24.678
-329,-608,2.69208,25.1146,0.000819092,0.00155742,0.00148115,0.00271472,-0.000338207,0.90753,0.00193244,0.0153181,895,1632,2.69209,-25.1147
-322,-608,2.67859,25.5146,0.00132924,0.00195243,0.00143471,0.00310899,0.000172682,0.89233,0.00201756,0.0147984,902,1632,2.67858,-25.5147
-315,-608,2.69952,25.9063,0.00171339,0.00225033,0.00141619,0.00342327,0.000540448,0.879074,0.00212506,0.0141052,909,1632,2.69952,-25.9062
-308,-608,2.68536,26.3307,0.00206524,0.00255651,0.00138391,0.00371641,0.000905336,0.873231,0.00223773,0.0146515,916,1632,2.68536,-26.3306
-301,-608,2.68567,26.7539,0.00231433,0.00312998,0.0014723,0.00424989,0.00119442,0.920511,0.00253088,0.0108504,923,1632,2.68565,-26.7539
-294,-608,2.6864,27.1635,0.00247283,0.00409122,0.00173736,0.0051986,0.00136546,1.00334,0.00311208,0.0108207,930,1632,2.68641,-27.1634
-287,-608,2.65991,27.5911,0.00268087,0.0051872,0.00199632,0.00629109,0.00157698,1.06568,0.0037797,0.0102646,937,1632,2.6599,-27.591
-280,-608,2.66156,28.0004,0.00292266,0.00649203,0.00239941,0.00769771,0.00171698,1.10516,0.004666,0.00832256,944,1632,2.66157,-28.0004
-273,-608,2.65094,28.4127,0.00310769,0.00781673,0.00286637,0.00917163,0.00175278,1.12923,0.00562199,0.00983678,951,1632,2.65092,-28.4128
-266,-608,2.6792,28.8535,0.00325488,0.00955876,0.00349964,0.0111166,0.00169702,1.15198,0.00691516,0.0113022,958,1632,2.6792,-28.8535
-259,-608,2.74292,29.2682,0.00344145,0.0115701,0.004215,0.0133611,0.00165043,1.169,0.00841138,0.0149588,965,1632,2.74289,-29.2682
-252,-608,2.82513,29.693,0.00379349,0.013843,0.00519566,0.0160462,0.00159031,1.16974,0.0102087,0.0282616,972,1632,2.82514,-29.6929
-245,-608,2.73499,30.3274,0.00404553,0.0159648,0.00613461,0.0185579,0.00145234,1.17086,0.0119174,0.0391975,979,1632,2.73497,-30.3274
-238,-608,2.78088,30.866,0,0,0,0,0,0,0,-1,986,1632,2.78086,-30.8659
-231,-608,3.26025,27.5262,0,0,0,0,0,0,0,-1,993,1632,3.26023,-27.5263
-224,-608,2.51642,15.3452,0,0,0,0,0,0,0,-1,1000,1632,2.5164,-15.3452
-217,-608,1.04419,12.8451,0,0,0,0,0,0,0,-1,1007,1632,1.04418,-12.8451
-210,-608,2.75903,15.9414,0,0,0,0,0,0,0,-1,1014,1632,2.75903,-15.9414
-203,-608,2.76776,16.217,0,0,0,0,0,0,0,-1,1021,1632,2.76773,-16.217
-196,-608,1.53955,18.6058,0,0,0,0,0,0,0,-1,1028,1632,1.53959,-18.6058
-189,-608,1.37634,19.119,0,0,0,0,0,0,0,-1,1035,1632,1.37634,-19.1191
-182,-608,2.89221,16.7092,0,0,0,0,0,0,0,-1,1042,1632,2.89224,-16.7093
-175,-608,0.219116,15.1643,0,0,0,0,0,0,0,-1,1049,1632,0.219173,-15.1644
-168,-608,0.000366211,9.48645,0,0,0,0,0,0,0,-1,1056,1632,0.000317105,-9.48648
-161,-608,2.27832,15.4423,0,0,0,0,0,0,0,-1,1063,1632,2.27826,-15.4423
-154,-608,1.3999,16.4037,0,0,0,0,0,0,0,-1,1070,1632,1.39987,-16.4037
-147,-608,2.4386,9.50317,0,0,0,0,0,0,0,-1,1077,1632,2.43858,-9.50313
-140,-608,2.60132,10.8401,0,0,0,0,0,0,0,-1,1084,1632,2.60134,-10.8401
-133,-608,3.2312,12.4738,0,0,0,0,0,0,0,-1,1091,1632,3.23116,-12.4738
-126,-608,3.76465,13.9644,0,0,0,0,0,0,0,-1,1098,1632,3.76466,-13.9644
-119,-608,4.28906,15.4196,0,0,0,0,0,0,0,-1,1105,1632,4.28911,-15.4195
-112,-608,0.745117,10.5587,0,0,0,0,0,0,0,-1,1112,1632,0.745145,-10.5587
-105,-608,-0.252319,1.42419,0,0,0,0,0,0,0,-1,1119,1632,-0.252331,-1.42418
-98,-608,-2.8595,3.0863,0,0,0,0,0,0,0,-1,1126,1632,-2.85948,-3.08625
-91,-608,-3.71948,1.73608,0,0,0,0,0,0,0,-1,1133,1632,-3.7195,-1.73607
-84,-608,0,0,0,0,0,0,0,0,0,-1,1140,1632,0,0
-77,-608,0,0,0,0,0,0,0,0,0,-1,1147,1632,0,0
-70,-608,0,0,0,0,0,0,0,0,0,-1,1154,1632,0,0
-63,-608,0,0,0,0,0,0,0,0,0,-1,1161,1632,0,0
-56,-608,0,0,0,0,0,0,0,0,0,-1,1168,1632,0,0
-49,-608,0,0,0,0,0,0,0,0,0,-1,1175,1632,0,0
-42,-608,0,0,0,0,0,0,0,0,0,-1,1182,1632,0,0
-35,-608,0,0,0,0,0,0,0,0,0,-1,1189,1632,0,0
-28,-608,0,0,0,0,0,0,0,0,0,-1,1196,1632,0,0
-21,-608,0,0,0,0,0,0,0,0,0,-1,1203,1632,0,0
-14,-608,0,0,0,0,0,0,0,0,0,-1,1210,1632,0,0
-7,-608,0,0,0,0,0,0,0,0,0,-1,1217,1632,0,0
0,-608,0,0,0,0,0,0,0,0,0,-1,1224,1632,0,0
7,-608,0,0,0,0,0,0,0,0,0,-1,1231,1632,0,0
14,-608,0,0,0,0,0,0,0,0,0,-1,1238,1632,0,0
21,-608,0,0,0,0,0,0,0,0,0,-1,1245,1632,0,0
28,-608,0,0,0,0,0,0,0,0,0,-1,1252,1632,0,0
35,-608,0,0,0,0,0,0,0,0,0,-1,1259,1632,0,0
42,-608,0,0,0,0,0,0,0,0,0,-1,1266,1632,0,0
49,-608,0,0,0,0,0,0,0,0,0,-1,1273,1632,0,0
56,-608,0,0,0,0,0,0,0,0,0,-1,1280,1632,0,0
63,-608,0,0,0,0,0,0,0,0,0,-1,1287,1632,0,0
70,-608,0,0,0,0,0,0,0,0,0,-1,1294,1632,0,0
77,-608,0,0,0,0,0,0,0,0,0,-1,1301,1632,0,0
84,-608,0,0,0,0,0,0,0,0,0,-1,1308,1632,0,0
91,-608,0,0,0,0,0,0,0,0,0,-1,1315,1632,0,0
98,-608,0,0,0,0,0,0,0,0,0,-1,1322,1632,0,0
105,-608,0,0,0,0,0,0,0,0,0,-1,1329,1632,0,0
112,-608,0,0,0,0,0,0,0,0,0,-1,1336,1632,0,0
119,-608,0,0,0,0,0,0,0,0,0,-1,1343,1632,0,0
126,-608,0,0,0,0,0,0,0,0,0,-1,1350,1632,0,0
133,-608,0,0,0,0,0,0,0,0,0,-1,1357,1632,0,0
140,-608,0,0,0,0,0,0,0,0,0,-1,1364,1632,0,0
147,-608,0,0,0,0,0,0,0,0,0,-1,1371,1632,0,0
154,-608,0,0,0,0,0,0,0,0,0,-1,1378,1632,0,0
161,-608,0,0,0,0,0,0,0,0,0,-1,1385,1632,0,0
168,-608,0,0,0,0,0,0,0,0,0,-1,1392,1632,0,0
175,-608,0,0,0,0,0,0,0,0,0,-1,1399,1632,0,0
182,-608,0,0,0,0,0,0,0,0,0,-1,1406,1632,0,0
189,-608,0,0,0,0,0,0,0,0,0,-1,1413,1632,0,0
196,-608,0,0,0,0,0,0,0,0,0,-1,1420,1632,0,0
203,-608,0,0,0,0,0,0,0,0,0,-1,1427,1632,0,0
210,-608,5.7157,-0.333008,0,0,0,0,0,0,0,-1,1434,1632,5.71566,0.333004
217,-608,4.49402,-0.831787,0,0,0,0,0,0,0,-1,1441,1632,4.49396,0.831738
224,-608,4.18018,-1.11792,0,0,0,0,0,0,0,-1,1448,1632,4.1802,1.11796
231,-608,0.361816,0.825195,0,0,0,0,0,0,0,-1,1455,1632,0.36185,-0.825226
238,-608,2.85388,-0.28833,0,0,0,0,0,0,0,-1,1462,1632,2.85391,0.288282
245,-608,3.87537,4.02173,0,0,0,0,0,0,0,-1,1469,1632,3.87538,-4.02168
252,-608,5.66956,3.5282,0,0,0,0,0,0,0,-1,1476,1632,5.6696,-3.52815
259,-608,7.47437,3.07178,0,0,0,0,0,0,0,-1,1483,1632,7.4744,-3.07172
266,-608,9.46936,2.34766,0,0,0,0,0,0,0,-1,1490,1632,9.46932,-2.34764
273,-608,6.03003,3.34241,0,0,0,0,0,0,0,-1,1497,1632,6.02997,-3.34245
280,-608,5.72461,2.0769,0,0,0,0,0,0,0,-1,1504,1632,5.72457,-2.07688
287,-608,6.20581,3.59338,0,0,0,0,0,0,0,-1,1511,1632,6.20585,-3.59341
294,-608,6.94922,5.17151,0,0,0,0,0,0,0,-1,1518,1632,6.94925,-5.17151
301,-608,7.60083,6.68018,0,0,0,0,0,0,0,-1,1525,1632,7.60086,-6.68013
308,-608,7.64746,9.93848,0,0,0,0,0,0,0,-1,1532,1632,7.64745,-9.93842
315,-608,5.30688,11.2054,0,0,0,0,0,0,0,-1,1539,1632,5.30694,-11.2054
322,-608,5.32617,13.7581,0,0,0,0,0,0,0,-1,1546,1632,5.32613,-13.758
329,-608,7.12231,13.9607,0,0,0,0,0,0,0,-1,1553,1632,7.12231,-13.9607
336,-608,5.48633,7.82446,0,0,0,0,0,0,0,-1,1560,1632,5.48634,-7.82446
343,-608,5.47192,5.61047,0,0,0,0,0,0,0,-1,1567,1632,5.47192,-5.61045
350,-608,11.6957,1.71387,0,0,0,0,0,0,0,-1,1574,1632,11.6957,-1.71388
357,-608,3.77002,5.10046,0,0,0,0,0,0,0,-1,1581,1632,3.77002,-5.10043
364,-608,10.8632,32.2816,0,0,0,0,0,0,0,-1,1588,1632,10.8632,-32.2816
371,-608,11.5236,31.7731,0.0295566,0.0272092,-0.0191897,0.0476085,0.00915735,-0.754855,0.0291697,0.0493539,1595,1632,11.5235,-31.7731
378,-608,12.5961,30.9423,0.02366,0.0234806,-0.0150797,0.0386503,0.00849029,-0.782423,0.0234547,0.0418112,1602,1632,12.5961,-30.9422
385,-608,12.7942,30.3055,0.0184701,0.0197694,-0.0116878,0.0308256,0.00741387,-0.813162,0.0185789,0.0370446,1609,1632,12.7942,-30.3056
392,-608,12.7255,29.7744,0.0139519,0.0162464,-0.0086022,0.0237775,0.00642077,-0.851692,0.0142037,0.0230051,1616,1632,12.7254,-29.7744
399,-608,12.7596,29.3354,0.0101322,0.0132003,-0.00597974,0.0178396,0.00549286,-0.910959,0.01055,0.0109019,1623,1632,12.7596,-29.3354
406,-608,12.7896,28.9438,0.00694988,0.0106337,-0.00399667,0.0131924,0.0043911,-1.00132,0.00775724,0.00912283,1630,1632,12.7896,-28.9438
413,-608,12.7959,28.5647,0.00453672,0.00866745,-0.00265426,0.00996524,0.00323893,-1.11603,0.00586969,0.0100286,1637,1632,12.7959,-28.5647
420,-608,12.7804,28.1865,0.00288811,0.006959,-0.00175522,0.00761127,0.00223584,-1.21499,0.00451727,0.0184341,1644,1632,12.7804,-28.1865
427,-608,12.775,27.799,0.00119936,0.0053125,-0.000667835,0.00541821,0.00109364,-1.4138,0.00330841,0.0204771,1651,1632,12.775,-27.799
434,-608,12.7444,27.4194,0.000492701,0.00416045,-0.000530884,0.00423575,0.000417405,-1.4299,0.00269549,0.016088,1658,1632,12.7444,-27.4194
441,-608,12.7596,27.0173,0.000423592,0.0033186,-0.00066604,0.00346448,0.00027771,-1.35517,0.00222287,0.0142603,1665,1632,12.7597,-27.0174
448,-608,12.7888,26.6333,0.000337844,0.00246921,-0.000701711,0.00267949,0.000127565,-1.27965,0.00174536,0.0163842,1672,1632,12.7888,-26.6333
455,-608,12.8059,26.201,0.000321913,0.0015819,-0.000744648,0.0019273,-2.34871e-05,-1.13649,0.00129277,0.0116222,1679,1632,12.8059,-26.201
462,-608,12.7634,25.7944,0.000247909,0.000613164,-0.000640023,0.00109611,-0.000235033,-0.924377,0.000820382,0.0100104,1686,1632,12.7635,-25.7944
469,-608,12.7252,25.427,6.96497e-05,-0.000400983,-0.000405501,0.000303167,-0.0006345,-0.52249,0.000552513,0.00813541,1693,1632,12.7252,-25.427
476,-608,12.7113,25.0144,-0.000295391,-0.00146089,-2.18056e-05,-0.000294984,-0.0014613,-0.0187005,0.000892274,0.00909024,1700,1632,12.7113,-25.0144
483,-608,12.7104,24.5776,-0.000839151,-0.00251455,0.000480211,-0.000711271,-0.00264243,0.260259,0.00157887,0.00892629,1707,1632,12.7105,-24.5776
490,-608,12.7146,24.1511,-0.00135559,-0.00337218,0.000847467,-0.00104675,-0.00368103,0.349475,0.00219013,0.00950764,1714,1632,12.7146,-24.1511
497,-608,12.724,23.7096,-0.00206704,-0.00419089,0.00135386,-0.00140832,-0.00484961,0.452831,0.00288076,0.0205575,1721,1632,12.724,-23.7096
504,-608,12.6298,23.309,-0.00305362,-0.00507254,0.0022091,-0.00163426,-0.00649189,0.571087,0.00389906,0.0477941,1728,1632,12.6298,-23.3089
511,-608,12.4821,23.0143,-0.00424126,-0.00628154,0.00307566,-0.00202097,-0.00850183,0.625267,0.00512872,0.0485636,1735,1632,12.482,-23.0143
518,-608,12.481,22.3481,0,0,0,0,0,0,0,-1,1742,1632,12.481,-22.3482
525,-608,11.2109,16.2579,0,0,0,0,0,0,0,-1,1749,1632,11.2109,-16.2579
532,-608,8.27917,11.6693,0,0,0,0,0,0,0,-1,1756,1632,8.27919,-11.6694
539,-608,9.40796,1.43457,0,0,0,0,0,0,0,-1,1763,1632,9.40801,-1.43463
546,-608,9.94031,2.1134,0,0,0,0,0,0,0,-1,1770,1632,9.94031,-2.11346
553,-608,10.363,2.81335,0,0,0,0,0,0,0,-1,1777,1632,10.3631,-2.81333
560,-608,9.23999,4.5636,0,0,0,0,0,0,0,-1,1784,1632,9.24,-4.56354
567,-608,0,0,0,0,0,0,0,0,0,-1,1791,1632,0,0
574,-608,0,0,0,0,0,0,0,0,0,-1,1798,1632,0,0
581,-608,0,0,0,0,0,0,0,0,0,-1,1805,1632,0,0
588,-608,0,0,0,0,0,0,0,0,0,-1,1812,1632,0,0
595,-608,0,0,0,0,0,0,0,0,0,-1,1819,1632,0,0
602,-608,0,0,0,0,0,0,0,0,0,-1,1826,1632,0,0
609,-608,0,0,0,0,0,0,0,0,0,-1,1833,1632,0,0
616,-608,0,0,0,0,0,0,0,0,0,-1,1840,1632,0,0
623,-608,0,0,0,0,0,0,0,0,0,-1,1847,1632,0,0
630,-608,0,0,0,0,0,0,0,0,0,-1,1854,1632,0,0
637,-608,0,0,0,0,0,0,0,0,0,-1,1861,1632,0,0
644,-608,0,0,0,0,0,0,0,0,0,-1,1868,1632,0,0
651,-608,0,0,0,0,0,0,0,0,0,-1,1875,1632,0,0
658,-608,0,0,0,0,0,0,0,0,0,-1,1882,1632,0,0
665,-608,0,0,0,0,0,0,0,0,0,-1,1889,1632,0,0
672,-608,0,0,0,0,0,0,0,0,0,-1,1896,1632,0,0
679,-608,0,0,0,0,0,0,0,0,0,-1,1903,1632,0,0
686,-608,0,0,0,0,0,0,0,0,0,-1,1910,1632,0,0
693,-608,0,0,0,0,0,0,0,0,0,-1,1917,1632,0,0
700,-608,0,0,0,0,0,0,0,0,0,-1,1924,1632,0,0
707,-608,0,0,0,0,0,0,0,0,0,-1,1931,1632,0,0
714,-608,0,0,0,0,0,0,0,0,0,-1,1938,1632,0,0
721,-608,0,0,0,0,0,0,0,0,0,-1,1945,1632,0,0
728,-608,0,0,0,0,0,0,0,0,0,-1,1952,1632,0,0
735,-608,0,0,0,0,0,0,0,0,0,-1,1959,1632,0,0
742,-608,0,0,0,0,0,0,0,0,0,-1,1966,1632,0,0
749,-608,0,0,0,0,0,0,0,0,0,-1,1973,1632,0,0
756,-608,0,0,0,0,0,0,0,0,0,-1,1980,1632,0,0
763,-608,0,0,0,0,0,0,0,0,0,-1,1987,1632,0,0
770,-608,0,0,0,0,0,0,0,0,0,-1,1994,1632,0,0
777,-608,0,0,0,0,0,0,0,0,0,-1,2001,1632,0,0
784,-608,0,0,0,0,0,0,0,0,0,-1,2008,1632,0,0
791,-608,0,0,0,0,0,0,0,0,0,-1,2015,1632,0,0
798,-608,0,0,0,0,0,0,0,0,0,-1,2022,1632,0,0
805,-608,0,0,0,0,0,0,0,0,0,-1,2029,1632,0,0
812,-608,0,0,0,0,0,0,0,0,0,-1,2036,1632,0,0
-700,-615,0,0,0,0,0,0,0,0,0,-1,524,1639,0,0
-693,-615,0,0,0,0,0,0,0,0,0,-1,531,1639,0,0
-686,-615,0,0,0,0,0,0,0,0,0,-1,538,1639,0,0
-679,-615,0,0,0,0,0,0,0,0,0,-1,545,1639,0,0
-672,-615,0,0,0,0,0,0,0,0,0,-1,552,1639,0,0
-665,-615,0,0,0,0,0,0,0,0,0,-1,559,1639,0,0
-658,-615,0,0,0,0,0,0,0,0,0,-1,566,1639,0,0
-651,-615,0,0,0,0,0,0,0,0,0,-1,573,1639,0,0
-644,-615,0,0,0,0,0,0,0,0,0,-1,580,1639,0,0
-637,-615,0,0,0,0,0,0,0,0,0,-1,587,1639,0,0
-630,-615,0,0,0,0,0,0,0,0,0,-1,594,1639,0,0
-623,-615,0,0,0,0,0,0,0,0,0,-1,601,1639,0,0
-616,-615,0,0,0,0,0,0,0,0,0,-1,608,1639,0,0
-609,-615,0,0,0,0,0,0,0,0,0,-1,615,1639,0,0
-602,-615,0,0,0,0,0,0,0,0,0,-1,622,1639,0,0
-595,-615,0,0,0,0,0,0,0,0,0,-1,629,1639,0,0
-588,-615,0,0,0,0,0,0,0,0,0,-1,636,1639,0,0
-581,-615,0,0,0,0,0,0,0,0,0,-1,643,1639,0,0
-574,-615,0,0,0,0,0,0,0,0,0,-1,650,1639,0,0
-567,-615,0,0,0,0,0,0,0,0,0,-1,657,1639,0,0
-560,-615,0,0,0,0,0,0,0,0,0,-1,664,1639,0,0
-553,-615,0,0,0,0,0,0,0,0,0,-1,671,1639,0,0
-546,-615,0,0,0,0,0,0,0,0,0,-1,678,1639,0,0
-539,-615,0,0,0,0,0,0,0,0,0,-1,685,1639,0,0
-532,-615,0,0,0,0,0,0,0,0,0,-1,692,1639,0,0
-525,-615,0,0,0,0,0,0,0,0,0,-1,699,1639,0,0
-518,-615,0,0,0,0,0,0,0,0,0,-1,706,1639,0,0
-511,-615,0,0,0,0,0,0,0,0,0,-1,713,1639,0,0
-504,-615,0,0,0,0,0,0,0,0,0,-1,720,1639,0,0
-497,-615,0,0,0,0,0,0,0,0,0,-1,727,1639,0,0
-490,-615,0,0,0,0,0,0,0,0,0,-1,734,1639,0,0
-483,-615,0,0,0,0,0,0,0,0,0,-1,741,1639,0,0
-476,-615,0,0,0,0,0,0,0,0,0,-1,748,1639,0,0
-469,-615,0,0,0,0,0,0,0,0,0,-1,755,1639,0,0
-462,-615,0,0,0,0,0,0,0,0,0,-1,762,1639,0,0
-455,-615,0,0,0,0,0,0,0,0,0,-1,769,1639,0,0
-448,-615,0,0,0,0,0,0,0,0,0,-1,776,1639,0,0
-441,-615,0,0,0,0,0,0,0,0,0,-1,783,1639,0,0
-434,-615,-7.64508,2.98596,0,0,0,0,0,0,0,-1,790,1639,-7.64505,-2.98594
-427,-615,-9.0011,2.89404,0,0,0,0,0,0,0,-1,797,1639,-9.00107,-2.89399
-420,-615,-8.07568,3.0752,0,0,0,0,0,0,0,-1,804,1639,-8.07569,-3.07514
-413,-615,-7.09149,3.396,0,0,0,0,0,0,0,-1,811,1639,-7.09147,-3.39599
-406,-615,-6.21368,3.7312,0,0,0,0,0,0,0,-1,818,1639,-6.21366,-3.73114
-399,-615,-4.84875,3.91907,0,0,0,0,0,0,0,-1,825,1639,-4.84877,-3.91901
-392,-615,1.7395,13.3127,0,0,0,0,0,0,0,-1,832,1639,1.73953,-13.3128
-385,-615,3.42297,14.9401,0,0,0,0,0,0,0,-1,839,1639,3.42296,-14.94
-378,-615,2.54102,17.2609,0,0,0,0,0,0,0,-1,846,1639,2.54099,-17.2608
-371,-615,3.40698,22.0358,0,0,0,0,0,0,0,-1,853,1639,3.40696,-22.0358
-364,-615,3.27002,22.8186,0,0,0,0,0,0,0,-1,860,1639,3.27,-22.8187
-357,-615,3.35461,23.2607,0,0,0,0,0,0,0,-1,867,1639,3.35462,-23.2607
-350,-615,3.22754,23.7704,-0.00288955,0.00222135,0.00253547,0.00326575,-0.00393395,1.18006,0.00416271,0.0313184,874,1639,3.22754,-23.7704
-343,-615,3.1496,24.1792,-0.0015559,0.00194467,0.00236123,0.00313358,-0.00274482,1.10434,0.00339637,0.0194479,881,1639,3.1496,-24.1792
-336,-615,3.1571,24.6569,-0.000370472,0.00174612,0.00210646,0.0030452,-0.00166954,1.01818,0.00276041,0.0110867,888,1639,3.15711,-24.6568
-329,-615,3.12939,25.0886,0.000432519,0.00180448,0.00175755,0.00300518,-0.000768173,0.97146,0.00230262,0.0107682,895,1639,3.12942,-25.0886
-322,-615,3.11646,25.5303,0.000877681,0.0020659,0.00160882,0.0031868,-0.000243219,0.962272,0.00221007,0.0115727,902,1639,3.11646,-25.5302
-315,-615,3.12103,25.9572,0.00117695,0.0021962,0.00149166,0.00326289,0.000110258,0.950007,0.00213945,0.0142345,909,1639,3.12103,-25.9572
-308,-615,3.09393,26.3578,0.00145893,0.00234089,0.00136433,0.00333374,0.000466086,0.941709,0.00208457,0.0211364,916,1639,3.09395,-26.3578
-301,-615,3.11206,26.7554,0.00165751,0.0026906,0.0013409,0.003611,0.000737108,0.969249,0.00220313,0.0127944,923,1639,3.11208,-26.7553
-294,-615,3.10876,27.1772,0.00181055,0.00338235,0.00148448,0.00427613,0.000916771,1.02885,0.00259962,0.0104462,930,1639,3.10879,-27.1773
-287,-615,3.07196,27.5964,0.00200029,0.00418615,0.0016309,0.00505646,0.00112997,1.0806,0.00306456,0.0079165,937,1639,3.07197,-27.5964
-280,-615,3.0816,27.9988,0.00223488,0.00515755,0.00191779,0.00610732,0.00128511,1.11096,0.00371796,0.00911004,944,1639,3.08159,-27.9987
-273,-615,3.07129,28.418,0.0024782,0.00617608,0.00228589,0.00726719,0.00138709,1.12545,0.004455,0.0104918,951,1639,3.07131,-28.418
-266,-615,3.05701,28.8267,0.00266606,0.00745304,0.00272141,0.00868375,0.00143534,1.14609,0.00537499,0.0110049,958,1639,3.057,-28.8266
-259,-615,3.08545,29.1952,0.00291136,0.00893505,0.00323486,0.0103431,0.0015033,1.16025,0.00645294,0.0123001,965,1639,3.08544,-29.1952
-252,-615,3.09937,29.6162,0.00326556,0.0106064,0.00390312,0.0122938,0.00157816,1.16274,0.00772377,0.0149977,972,1639,3.09934,-29.6162
-245,-615,3.13745,30.1107,0.00358407,0.0121322,0.00453217,0.0140878,0.00162851,1.16345,0.00889881,0.0225374,979,1639,3.13746,-30.1107
-238,-615,3.13104,30.5654,0.00406078,0.0132884,0.00493718,0.015432,0.00191715,1.16118,0.00971226,0.0349769,986,1639,3.13105,-30.5654
-231,-615,3.41595,30.9879,0,0,0,0,0,0,0,-1,993,1639,3.41597,-30.9879
-224,-615,3.45844,31.1406,0,0,0,0,0,0,0,-1,1000,1639,3.45845,-31.1407
-217,-615,3.99097,27.3737,0,0,0,0,0,0,0,-1,1007,1639,3.99096,-27.3736
-210,-615,2.48901,18.9324,0,0,0,0,0,0,0,-1,1014,1639,2.48902,-18.9323
-203,-615,2.13684,18.6173,0,0,0,0,0,0,0,-1,1021,1639,2.13683,-18.6173
-196,-615,4.27161,21.3264,0,0,0,0,0,0,0,-1,1028,1639,4.27165,-21.3264
-189,-615,1.8269,19.6761,0,0,0,0,0,0,0,-1,1035,1639,1.82691,-19.6761
-182,-615,1.63489,20.2278,0,0,0,0,0,0,0,-1,1042,1639,1.63492,-20.2277
-175,-615,-0.609985,13.8434,0,0,0,0,0,0,0,-1,1049,1639,-0.610016,-13.8434
-168,-615,3.85754,15.472,0,0,0,0,0,0,0,-1,1056,1639,3.85757,-15.472
-161,-615,2.44141,28.2932,0,0,0,0,0,0,0,-1,1063,1639,2.44135,-28.2933
-154,-615,2.42737,24.3593,0,0,0,0,0,0,0,-1,1070,1639,2.42742,-24.3593
-147,-615,1.52502,17.3442,0,0,0,0,0,0,0,-1,1077,1639,1.52501,-17.3442
-140,-615,3.73401,10.2349,0,0,0,0,0,0,0,-1,1084,1639,3.73402,-10.2348
-133,-615,2.6178,17.45,0,0,0,0,0,0,0,-1,1091,1639,2.61776,-17.4499
-126,-615,4.43408,12.5017,0,0,0,0,0,0,0,-1,1098,1639,4.43403,-12.5018
-119,-615,4.82983,13.9279,0,0,0,0,0,0,0,-1,1105,1639,4.82986,-13.9278
-112,-615,3.65698,14.4874,0,0,0,0,0,0,0,-1,1112,1639,3.65695,-14.4875
-105,-615,0.958496,2.45398,0,0,0,0,0,0,0,-1,1119,1639,0.958452,-2.45398
-98,-615,-0.647705,2.12109,0,0,0,0,0,0,0,-1,1126,1639,-0.647756,-2.12105
-91,-615,-3.07983,2.97375,0,0,0,0,0,0,0,-1,1133,1639,-3.07989,-2.97376
-84,-615,-2.46509,0.703247,0,0,0,0,0,0,0,-1,1140,1639,-2.46505,-0.703273
-77,-615,-3.17859,1.23755,0,0,0,0,0,0,0,-1,1147,1639,-3.17865,-1.23752
-70,-615,-4.03943,1.43335,0,0,0,0,0,0,0,-1,1154,1639,-4.03942,-1.43339
-63,-615,-4.8877,1.45544,0,0,0,0,0,0,0,-1,1161,1639,-4.88766,-1.45549
-56,-615,0,0,0,0,0,0,0,0,0,-1,1168,1639,0,0
-49,-615,0,0,0,0,0,0,0,0,0,-1,1175,1639,0,0
-42,-615,0,0,0,0,0,0,0,0,0,-1,1182,1639,0,0
-35,-615,0,0,0,0,0,0,0,0,0,-1,1189,1639,0,0
-28,-615,0,0,0,0,0,0,0,0,0,-1,1196,1639,0,0
-21,-615,0,0,0,0,0,0,0,0,0,-1,1203,1639,0,0
-14,-615,0,0,0,0,0,0,0,0,0,-1,1210,1639,0,0
-7,-615,0,0,0,0,0,0,0,0,0,-1,1217,1639,0,0
0,-615,0,0,0,0,0,0,0,0,0,-1,1224,1639,0,0
7,-615,0,0,0,0,0,0,0,0,0,-1,1231,1639,0,0
14,-615,0,0,0,0,0,0,0,0,0,-1,1238,1639,0,0
21,-615,0,0,0,0,0,0,0,0,0,-1,1245,1639,0,0
28,-615,0,0,0,0,0,0,0,0,0,-1,1252,1639,0,0
35,-615,0,0,0,0,0,0,0,0,0,-1,1259,1639,0,0
42,-615,0,0,0,0,0,0,0,0,0,-1,1266,1639,0,0
49,-615,0,0,0,0,0,0,0,0,0,-1,1273,1639,0,0
56,-615,0,0,0,0,0,0,0,0,0,-1,1280,1639,0,0
63,-615,0,0,0,0,0,0,0,0,0,-1,1287,1639,0,0
70,-615,0,0,0,0,0,0,0,0,0,-1,1294,1639,0,0
77,-615,0,0,0,0,0,0,0,0,0,-1,1301,1639,0,0
84,-615,0,0,0,0,0,0,0,0,0,-1,1308,1639,0,0
91,-615,0,0,0,0,0,0,0,0,0,-1,1315,1639,0,0
98,-615,0,0,0,0,0,0,0,0,0,-1,1322,1639,0,0
105,-615,0,0,0,0,0,0,0,0,0,-1,1329,1639,0,0
112,-615,0,0,0,0,0,0,0,0,0,-1,1336,1639,0,0
119,-615,0,0,0,0,0,0,0,0,0,-1,1343,1639,0,0
126,-615,0,0,0,0,0,0,0,0,0,-1,1350,1639,0,0
133,-615,0,0,0,0,0,0,0,0,0,-1,1357,1639,0,0
140,-615,0,0,0,0,0,0,0,0,0,-1,1364,1639,0,0
147,-615,0,0,0,0,0,0,0,0,0,-1,1371,1639,0,0
154,-615,0,0,0,0,0,0,0,0,0,-1,1378,1639,0,0
161,-615,0,0,0,0,0,0,0,0,0,-1,1385,1639,0,0
168,-615,0,0,0,0,0,0,0,0,0,-1,1392,1639,0,0
175,-615,5.39648,-2.00879,0,0,0,0,0,0,0,-1,1399,1639,5.3965,2.00881
182,-615,5.65393,-1.51025,0,0,0,0,0,0,0,-1,1406,1639,5.65388,1.51028
189,-615,5.58972,-1.35608,0,0,0,0,0,0,0,-1,1413,1639,5.58967,1.35607
196,-615,5.49915,-0.693604,0,0,0,0,0,0,0,-1,1420,1639,5.4991,0.693602
203,-615,5.33411,-0.226685,0,0,0,0,0,0,0,-1,1427,1639,5.33414,0.226689
210,-615,5.60278,0.108276,0,0,0,0,0,0,0,-1,1434,1639,5.60284,-0.10831
217,-615,6.26331,-0.307373,0,0,0,0,0,0,0,-1,1441,1639,6.26331,0.307372
224,-615,5.45422,-0.333984,0,0,0,0,0,0,0,-1,1448,1639,5.45422,0.333992
231,-615,4.92542,1.80298,0,0,0,0,0,0,0,-1,1455,1639,4.92537,-1.80297
238,-615,4.76355,1.96729,0,0,0,0,0,0,0,-1,1462,1639,4.76357,-1.96734
245,-615,4.08643,3.15906,0,0,0,0,0,0,0,-1,1469,1639,4.08638,-3.159
252,-615,6.37805,3.73889,0,0,0,0,0,0,0,-1,1476,1639,6.37806,-3.73891
259,-615,8.35974,3.16443,0,0,0,0,0,0,0,-1,1483,1639,8.35975,-3.16444
266,-615,10.3414,2.58997,0,0,0,0,0,0,0,-1,1490,1639,10.3414,-2.58996
273,-615,6.57043,1.84766,0,0,0,0,0,0,0,-1,1497,1639,6.5704,-1.84771
280,-615,7.10449,3.23438,0,0,0,0,0,0,0,-1,1504,1639,7.10447,-3.23435
287,-615,7.35779,4.68542,0,0,0,0,0,0,0,-1,1511,1639,7.35776,-4.68546
294,-615,7.63733,6.29114,0,0,0,0,0,0,0,-1,1518,1639,7.63735,-6.29109
301,-615,8.47925,11.452,0,0,0,0,0,0,0,-1,1525,1639,8.47922,-11.452
308,-615,6.8114,10.9059,0,0,0,0,0,0,0,-1,1532,1639,6.81137,-10.9058
315,-615,5.1427,14.7251,0,0,0,0,0,0,0,-1,1539,1639,5.14269,-14.7251
322,-615,7.17981,17.6864,0,0,0,0,0,0,0,-1,1546,1639,7.17985,-17.6864
329,-615,7.62134,20.4354,0,0,0,0,0,0,0,-1,1553,1639,7.62139,-20.4354
336,-615,6.45007,14.1138,0,0,0,0,0,0,0,-1,1560,1639,6.45011,-14.1138
343,-615,2.40491,6.50134,0,0,0,0,0,0,0,-1,1567,1639,2.40489,-6.50137
350,-615,6.4458,15.4594,0,0,0,0,0,0,0,-1,1574,1639,6.44578,-15.4593
357,-615,11.8376,32.1808,0,0,0,0,0,0,0,-1,1581,1639,11.8376,-32.1807
364,-615,11.7213,31.9609,0,0,0,0,0,0,0,-1,1588,1639,11.7213,-31.961
371,-615,12.1152,31.3705,0.0216919,0.0212965,-0.0141695,0.0356651,0.00732325,-0.778421,0.0217506,0.0453772,1595,1639,12.1152,-31.3705
378,-615,12.3936,30.4318,0.0178036,0.0186475,-0.011489,0.0297222,0.00672882,-0.803752,0.0179962,0.0227951,1602,1639,12.3935,-30.4317
385,-615,12.3606,30.04,0.0142514,0.01586,-0.00917641,0.0242673,0.0058441,-0.829111,0.0146247,0.0125242,1609,1639,12.3606,-30.04
392,-615,12.3947,29.6803,0.0110317,0.0130683,-0.00695557,0.0190797,0.00502027,-0.858081,0.0114203,0.0107258,1616,1639,12.3947,-29.6803
399,-615,12.4006,29.3148,0.0081747,0.0105009,-0.00493764,0.0144106,0.00426503,-0.901069,0.00854775,0.0118254,1623,1639,12.4007,-29.3148
406,-615,12.3975,28.9501,0.00570538,0.00829512,-0.00332835,0.0105716,0.00342889,-0.97091,0.0062278,0.0113893,1630,1639,12.3975,-28.95
413,-615,12.3975,28.587,0.00379296,0.00653703,-0.0021963,0.00775463,0.00257536,-1.06459,0.0045605,0.0121505,1637,1639,12.3974,-28.587
420,-615,12.3966,28.1989,0.00243991,0.0049575,-0.00138968,0.00557374,0.00182367,-1.15341,0.00328145,0.0137341,1644,1639,12.3966,-28.1988
427,-615,12.3942,27.8004,0.0010617,0.00345587,-0.000451152,0.00353807,0.000979509,-1.39059,0.00210943,0.0152708,1651,1639,12.3942,-27.8004
434,-615,12.3766,27.4255,0.000469401,0.00242356,-0.00031007,0.00247157,0.000421381,-1.41715,0.00152676,0.0144733,1658,1639,12.3766,-27.4255
441,-615,12.3884,27.0205,0.000401592,0.00167548,-0.00040738,0.00179462,0.000282456,-1.28629,0.00111426,0.0146485,1665,1639,12.3884,-27.0206
448,-615,12.385,26.6284,0.000341562,0.000904864,-0.000426129,0.00113401,0.000112417,-1.07742,0.00072146,0.0153408,1672,1639,12.3851,-26.6285
455,-615,12.361,26.2393,0.000319185,0.000138265,-0.000447069,0.000684854,-0.000227404,-0.685575,0.000548321,0.0138859,1679,1639,12.3609,-26.2392
462,-615,12.355,25.8632,0.000196848,-0.000763313,-0.000313361,0.000290067,-0.000856532,-0.289144,0.000688392,0.0132558,1686,1639,12.355,-25.8631
469,-615,12.3274,25.459,-7.75878e-06,-0.00165817,-8.24077e-05,-3.65422e-06,-0.00166227,-0.0497666,0.00110697,0.0113522,1693,1639,12.3274,-25.459
476,-615,12.3207,25.0286,-0.000374118,-0.00259562,0.000282518,-0.000338752,-0.00263098,0.124534,0.00165268,0.0110597,1700,1639,12.3207,-25.0285
483,-615,12.3361,24.552,-0.000997678,-0.00347739,0.000803597,-0.000760032,-0.00371503,0.287533,0.00226623,0.0186057,1707,1639,12.336,-24.552
490,-615,12.3209,24.155,-0.00159148,-0.00422095,0.00113149,-0.00117163,-0.0046408,0.355315,0.00278667,0.0264042,1714,1639,12.3209,-24.1551
497,-615,12.2217,23.8551,-0.00233179,-0.00493302,0.00164585,-0.00153469,-0.00573012,0.451017,0.00342511,0.0382412,1721,1639,12.2217,-23.855
504,-615,11.8909,23.3661,0,0,0,0,0,0,0,-1,1728,1639,11.8908,-23.3661
511,-615,12.0255,23.099,0,0,0,0,0,0,0,-1,1735,1639,12.0255,-23.099
518,-615,13.2416,9.81812,0,0,0,0,0,0,0,-1,1742,1639,13.2416,-9.81813
525,-615,4.37524,3.90491,0,0,0,0,0,0,0,-1,1749,1639,4.37518,-3.90495
532,-615,7.3645,0.848145,0,0,0,0,0,0,0,-1,1756,1639,7.36451,-0.848093
539,-615,12.8112,-0.0476074,0,0,0,0,0,0,0,-1,1763,1639,12.8111,0.0475553
546,-615,8.33813,2.94556,0,0,0,0,0,0,0,-1,1770,1639,8.33813,-2.9455
553,-615,5.82532,-2.04199,0,0,0,0,0,0,0,-1,1777,1639,5.82534,2.04195
560,-615,0,0,0,0,0,0,0,0,0,-1,1784,1639,0,0
567,-615,0,0,0,0,0,0,0,0,0,-1,1791,1639,0,0
574,-615,0,0,0,0,0,0,0,0,0,-1,1798,1639,0,0
581,-615,0,0,0,0,0,0,0,0,0,-1,1805,1639,0,0
588,-615,0,0,0,0,0,0,0,0,0,-1,1812,1639,0,0
595,-615,0,0,0,0,0,0,0,0,0,-1,1819,1639,0,0
602,-615,0,0,0,0,0,0,0,0,0,-1,1826,1639,0,0
609,-615,0,0,0,0,0,0,0,0,0,-1,1833,1639,0,0
616,-615,0,0,0,0,0,0,0,0,0,-1,1840,1639,0,0
623,-615,0,0,0,0,0,0,0,0,0,-1,1847,1639,0,0
630,-615,0,0,0,0,0,0,0,0,0,-1,1854,1639,0,0
637,-615,0,0,0,0,0,0,0,0,0,-1,1861,1639,0,0
644,-615,0,0,0,0,0,0,0,0,0,-1,1868,1639,0,0
651,-615,0,0,0,0,0,0,0,0,0,-1,1875,1639,0,0
658,-615,0,0,0,0,0,0,0,0,0,-1,1882,1639,0,0
665,-615,0,0,0,0,0,0,0,0,0,-1,1889,1639,0,0
672,-615,0,0,0,0,0,0,0,0,0,-1,1896,1639,0,0
679,-615,0,0,0,0,0,0,0,0,0,-1,1903,1639,0,0
686,-615,0,0,0,0,0,0,0,0,0,-1,1910,1639,0,0
693,-615,0,0,0,0,0,0,0,0,0,-1,1917,1639,0,0
700,-615,0,0,0,0,0,0,0,0,0,-1,1924,1639,0,0
707,-615,0,0,0,0,0,0,0,0,0,-1,1931,1639,0,0
714,-615,0,0,0,0,0,0,0,0,0,-1,1938,1639,0,0
721,-615,0,0,0,0,0,0,0,0,0,-1,1945,1639,0,0
728,-615,0,0,0,0,0,0,0,0,0,-1,1952,1639,0,0
735,-615,0,0,0,0,0,0,0,0,0,-1,1959,1639,0,0
742,-615,0,0,0,0,0,0,0,0,0,-1,1966,1639,0,0
749,-615,0,0,0,0,0,0,0,0,0,-1,1973,1639,0,0
756,-615,0,0,0,0,0,0,0,0,0,-1,1980,1639,0,0
763,-615,0,0,0,0,0,0,0,0,0,-1,1987,1639,0,0
770,-615,0,0,0,0,0,0,0,0,0,-1,1994,1639,0,0
777,-615,0,0,0,0,0,0,0,0,0,-1,2001,1639,0,0
784,-615,0,0,0,0,0,0,0,0,0,-1,2008,1639,0,0
791,-615,0,0,0,0,0,0,0,0,0,-1,2015,1639,0,0
798,-615,0,0,0,0,0,0,0,0,0,-1,2022,1639,0,0
805,-615,0,0,0,0,0,0,0,0,0,-1,2029,1639,0,0
812,-615,0,0,0,0,0,0,0,0,0,-1,2036,1639,0,0
-700,-622,0,0,0,0,0,0,0,0,0,-1,524,1646,0,0
-693,-622,0,0,0,0,0,0,0,0,0,-1,531,1646,0,0
-686,-622,0,0,0,0,0,0,0,0,0,-1,538,1646,0,0
-679,-622,0,0,0,0,0,0,0,0,0,-1,545,1646,0,0
-672,-622,0,0,0,0,0,0,0,0,0,-1,552,1646,0,0
-665,-622,0,0,0,0,0,0,0,0,0,-1,559,1646,0,0
-658,-622,0,0,0,0,0,0,0,0,0,-1,566,1646,0,0
-651,-622,0,0,0,0,0,0,0,0,0,-1,573,1646,0,0
-644,-622,0,0,0,0,0,0,0,0,0,-1,580,1646,0,0
-637,-622,0,0,0,0,0,0,0,0,0,-1,587,1646,0,0
-630,-622,0,0,0,0,0,0,0,0,0,-1,594,1646,0,0
-623,-622,0,0,0,0,0,0,0,0,0,-1,601,1646,0,0
-616,-622,0,0,0,0,0,0,0,0,0,-1,608,1646,0,0
-609,-622,0,0,0,0,0,0,0,0,0,-1,615,1646,0,0
-602,-622,0,0,0,0,0,0,0,0,0,-1,622,1646,0,0
-595,-622,0,0,0,0,0,0,0,0,0,-1,629,1646,0,0
-588,-622,0,0,0,0,0,0,0,0,0,-1,636,1646,0,0
-581,-622,0,0,0,0,0,0,0,0,0,-1,643,1646,0,0
-574,-622,0,0,0,0,0,0,0,0,0,-1,650,1646,0,0
-567,-622,0,0,0,0,0,0,0,0,0,-1,657,1646,0,0
-560,-622,0,0,0,0,0,0,0,0,0,-1,664,1646,0,0
-553,-622,0,0,0,0,0,0,0,0,0,-1,671,1646,0,0
-546,-622,0,0,0,0,0,0,0,0,0,-1,678,1646,0,0
-539,-622,0,0,0,0,0,0,0,0,0,-1,685,1646,0,0
-532,-622,0,0,0,0,0,0,0,0,0,-1,692,1646,0,0
-525,-622,0,0,0,0,0,0,0,0,0,-1,699,1646,0,0
-518,-622,0,0,0,0,0,0,0,0,0,-1,706,1646,0,0
-511,-622,0,0,0,0,0,0,0,0,0,-1,713,1646,0,0
-504,-622,0,0,0,0,0,0,0,0,0,-1,720,1646,0,0
-497,-622,0,0,0,0,0,0,0,0,0,-1,727,1646,0,0
-490,-622,0,0,0,0,0,0,0,0,0,-1,734,1646,0,0
-483,-622,0,0,0,0,0,0,0,0,0,-1,741,1646,0,0
-476,-622,0,0,0,0,0,0,0,0,0,-1,748,1646,0,0
-469,-622,0,0,0,0,0,0,0,0,0,-1,755,1646,0,0
-462,-622,0,0,0,0,0,0,0,0,0,-1,762,1646,0,0
-455,-622,0,0,0,0,0,0,0,0,0,-1,769,1646,0,0
-448,-622,0,0,0,0,0,0,0,0,0,-1,776,1646,0,0
-441,-622,0,0,0,0,0,0,0,0,0,-1,783,1646,0,0
-434,-622,0,0,0,0,0,0,0,0,0,-1,790,1646,0,0
-427,-622,-7.62891,3.48096,0,0,0,0,0,0,0,-1,797,1646,-7.62892,-3.48092
-420,-622,-9.35791,1.77185,0,0,0,0,0,0,0,-1,804,1646,-9.35789,-1.77183
-413,-622,-8.46075,1.96777,0,0,0,0,0,0,0,-1,811,1646,-8.46074,-1.96774
-406,-622,-4.44318,2.16858,0,0,0,0,0,0,0,-1,818,1646,-4.44315,-2.16859
-399,-622,-7.06976,1.51001,0,0,0,0,0,0,0,-1,825,1646,-7.06976,-1.51005
-392,-622,3.89551,5.85376,0,0,0,0,0,0,0,-1,832,1646,3.8955,-5.85379
-385,-622,2.00543,14.0448,0,0,0,0,0,0,0,-1,839,1646,2.00544,-14.0448
-378,-622,1.49036,15.3436,0,0,0,0,0,0,0,-1,846,1646,1.49033,-15.3436
-371,-622,3.23883,20.4496,0,0,0,0,0,0,0,-1,853,1646,3.23886,-20.4496
-364,-622,3.43805,22.702,0,0,0,0,0,0,0,-1,860,1646,3.43805,-22.702
-357,-622,3.67535,23.1572,0,0,0,0,0,0,0,-1,867,1646,3.67534,-23.1572
-350,-622,3.65771,23.778,0,0,0,0,0,0,0,-1,874,1646,3.65773,-23.7779
-343,-622,3.58136,24.2053,-0.00168405,0.00274836,0.00301653,0.00427528,-0.00321097,1.10221,0.00433672,0.0252304,881,1646,3.58136,-24.2054
-336,-622,3.58527,24.6625,-0.000465491,0.00264429,0.00273819,0.00423826,-0.00205947,1.04362,0.00370782,0.00922651,888,1646,3.58525,-24.6625
-329,-622,3.552,25.0828,0.000304554,0.00264504,0.00231076,0.00406499,-0.0011154,1.01979,0.00314836,0.00870478,895,1646,3.552,-25.0827
-322,-622,3.53735,25.5197,0.000676311,0.00284978,0.00210149,0.0041289,-0.000602809,1.02402,0.00297397,0.0104092,902,1646,3.53734,-25.5197
-315,-622,3.5332,25.9631,0.000868904,0.00285191,0.00189159,0.0039961,-0.000275283,1.02679,0.00276041,0.0142803,909,1646,3.5332,-25.9632
-308,-622,3.53723,26.361,0.00105022,0.00284195,0.00166042,0.00383277,5.93965e-05,1.03279,0.00253561,0.0141566,916,1646,3.53721,-26.361
-301,-622,3.54047,26.7655,0.00116704,0.00294364,0.00150039,0.00379896,0.00031171,1.05267,0.0024354,0.0130964,923,1646,3.54049,-26.7655
-294,-622,3.51996,27.2019,0.00127989,0.00330954,0.00148722,0.00409518,0.000494242,1.08479,0.00258119,0.010393,930,1646,3.51997,-27.2019
-287,-622,3.49719,27.6021,0.00142704,0.00376117,0.00149237,0.00448862,0.000699581,1.11724,0.00278863,0.0082007,937,1646,3.49721,-27.602
-280,-622,3.48578,27.9935,0.00162528,0.00434156,0.00162085,0.00509806,0.000868778,1.13412,0.00314931,0.00926564,944,1646,3.48578,-27.9936
-273,-622,3.48456,28.3857,0.0018793,0.00495721,0.00183942,0.00581655,0.00101996,1.13375,0.00358639,0.0133196,951,1646,3.48456,-28.3857
-266,-622,3.46716,28.7964,0.00209856,0.00575105,0.00209118,0.00670117,0.00114844,1.14433,0.0041381,0.0126436,958,1646,3.46717,-28.7964
-259,-622,3.46332,29.2028,0.00238344,0.00668952,0.00242275,0.00777767,0.00129529,1.14866,0.00481182,0.0112364,965,1646,3.46329,-29.2027
-252,-622,3.46753,29.5601,0.00273863,0.00779469,0.00283899,0.00906808,0.00146524,1.14916,0.00562099,0.0114772,972,1646,3.46751,-29.5601
-245,-622,3.52301,29.9504,0.00311253,0.00883714,0.00324646,0.0103029,0.00164675,1.1467,0.00639081,0.00995062,979,1646,3.52299,-29.9504
-238,-622,3.52374,30.3414,0.0036544,0.00963022,0.0034957,0.011241,0.00204366,1.13902,0.00691417,0.013844,986,1646,3.52374,-30.3414
-231,-622,3.60492,30.8038,0.00454725,0.0103209,0.00383956,0.0122378,0.00263032,1.10774,0.00743843,0.0256177,993,1646,3.60493,-30.8038
-224,-622,3.68433,31.0796,0.00527712,0.0106273,0.00397225,0.0127412,0.00316317,1.08174,0.00766063,0.0414687,1000,1646,3.68432,-31.0796
-217,-622,3.77155,31.421,0,0,0,0,0,0,0,-1,1007,1646,3.77154,-31.421
-210,-622,3.87927,28.0903,0,0,0,0,0,0,0,-1,1014,1646,3.87925,-28.0903
-203,-622,4.21375,20.9574,0,0,0,0,0,0,0,-1,1021,1646,4.21375,-20.9574
-196,-622,4.18518,21.2491,0,0,0,0,0,0,0,-1,1028,1646,4.18521,-21.2491
-189,-622,4.98254,25.8979,0,0,0,0,0,0,0,-1,1035,1646,4.98255,-25.8979
-182,-622,2.21411,20.6752,0,0,0,0,0,0,0,-1,1042,1646,2.21416,-20.6751
-175,-622,2.56091,11.0195,0,0,0,0,0,0,0,-1,1049,1646,2.56095,-11.0195
-168,-622,3.31055,28.6663,0,0,0,0,0,0,0,-1,1056,1646,3.31055,-28.6663
-161,-622,2.51819,34.0869,0,0,0,0,0,0,0,-1,1063,1646,2.5182,-34.087
-154,-622,2.03955,33.9767,0,0,0,0,0,0,0,-1,1070,1646,2.03955,-33.9767
-147,-622,3.7146,25.5477,0,0,0,0,0,0,0,-1,1077,1646,3.71464,-25.5478
-140,-622,3.27515,16.0353,0,0,0,0,0,0,0,-1,1084,1646,3.27519,-16.0353
-133,-622,3.09644,17.677,0,0,0,0,0,0,0,-1,1091,1646,3.09638,-17.677
-126,-622,3.5061,19.5251,0,0,0,0,0,0,0,-1,1098,1646,3.50616,-19.5252
-119,-622,4.06384,13.1715,0,0,0,0,0,0,0,-1,1105,1646,4.06379,-13.1716
-112,-622,4.33276,14.6605,0,0,0,0,0,0,0,-1,1112,1646,4.33281,-14.6605
-105,-622,0.306519,4.38159,0,0,0,0,0,0,0,-1,1119,1646,0.306536,-4.38159
-98,-622,-0.510376,3.5033,0,0,0,0,0,0,0,-1,1126,1646,-0.510393,-3.50324
-91,-622,-1.146,0.975952,0,0,0,0,0,0,0,-1,1133,1646,-1.14599,-0.97597
-84,-622,-2.04895,1.31787,0,0,0,0,0,0,0,-1,1140,1646,-2.0489,-1.31781
-77,-622,-1.80627,0.332275,0,0,0,0,0,0,0,-1,1147,1646,-1.80622,-0.33223
-70,-622,-3.65588,2.28149,0,0,0,0,0,0,0,-1,1154,1646,-3.65589,-2.28155
-63,-622,-2.49683,1.27087,0,0,0,0,0,0,0,-1,1161,1646,-2.49679,-1.27093
-56,-622,-2.44238,-0.575562,0,0,0,0,0,0,0,-1,1168,1646,-2.44242,0.575508
-49,-622,-2.41089,1.38818,0,0,0,0,0,0,0,-1,1175,1646,-2.41088,-1.38815
-42,-622,-2.71497,2.85242,0,0,0,0,0,0,0,-1,1182,1646,-2.71491,-2.85247
-35,-622,-3.0177,4.25842,0,0,0,0,0,0,0,-1,1189,1646,-3.01773,-4.25838
-28,-622,-0.896606,0.678833,0,0,0,0,0,0,0,-1,1196,1646,-0.89661,-0.678835
-21,-622,16.4141,36.2849,0,0,0,0,0,0,0,-1,1203,1646,16.4141,-36.285
-14,-622,14.2528,41.1599,0,0,0,0,0,0,0,-1,1210,1646,14.2529,-41.16
-7,-622,13.3898,41.3202,0,0,0,0,0,0,0,-1,1217,1646,13.3898,-41.3201
0,-622,0,0,0,0,0,0,0,0,0,-1,1224,1646,0,0
7,-622,0,0,0,0,0,0,0,0,0,-1,1231,1646,0,0
14,-622,0,0,0,0,0,0,0,0,0,-1,1238,1646,0,0
21,-622,0,0,0,0,0,0,0,0,0,-1,1245,1646,0,0
28,-622,0,0,0,0,0,0,0,0,0,-1,1252,1646,0,0
35,-622,0,0,0,0,0,0,0,0,0,-1,1259,1646,0,0
42,-622,0,0,0,0,0,0,0,0,0,-1,1266,1646,0,0
49,-622,0,0,0,0,0,0,0,0,0,-1,1273,1646,0,0
56,-622,0,0,0,0,0,0,0,0,0,-1,1280,1646,0,0
63,-622,0,0,0,0,0,0,0,0,0,-1,1287,1646,0,0
70,-622,0,0,0,0,0,0,0,0,0,-1,1294,1646,0,0
77,-622,0,0,0,0,0,0,0,0,0,-1,1301,1646,0,0
84,-622,0,0,0,0,0,0,0,0,0,-1,1308,1646,0,0
91,-622,0,0,0,0,0,0,0,0,0,-1,1315,1646,0,0
98,-622,0,0,0,0,0,0,0,0,0,-1,1322,1646,0,0
105,-622,0,0,0,0,0,0,0,0,0,-1,1329,1646,0,0
112,-622,0,0,0,0,0,0,0,0,0,-1,1336,1646,0,0
119,-622,0,0,0,0,0,0,0,0,0,-1,1343,1646,0,0
126,-622,-2.60522,62.0603,0,0,0,0,0,0,0,-1,1350,1646,-2.60518,-62.0603
133,-622,-3.48914,63.028,0,0,0,0,0,0,0,-1,1357,1646,-3.48917,-63.0279
140,-622,13.847,38.902,0,0,0,0,0,0,0,-1,1364,1646,13.847,-38.902
147,-622,14.2314,39.2466,0,0,0,0,0,0,0,-1,1371,1646,14.2315,-39.2466
154,-622,3.34119,31.8622,0,0,0,0,0,0,0,-1,1378,1646,3.34117,-31.8622
161,-622,10.6884,6.46448,0,0,0,0,0,0,0,-1,1385,1646,10.6883,-6.46442
168,-622,12.2402,5.18091,0,0,0,0,0,0,0,-1,1392,1646,12.2403,-5.1809
175,-622,5.64355,-1.77075,0,0,0,0,0,0,0,-1,1399,1646,5.64351,1.77077
182,-622,5.88586,-1.32251,0,0,0,0,0,0,0,-1,1406,1646,5.88587,1.32256
189,-622,5.97986,-1.18005,0,0,0,0,0,0,0,-1,1413,1646,5.97986,1.18003
196,-622,5.85022,-0.244507,0,0,0,0,0,0,0,-1,1420,1646,5.85026,0.244478
203,-622,5.25159,0.138794,0,0,0,0,0,0,0,-1,1427,1646,5.25162,-0.138822
210,-622,6.66833,0.0397949,0,0,0,0,0,0,0,-1,1434,1646,6.6684,-0.0398278
217,-622,6.12061,0.0506592,0,0,0,0,0,0,0,-1,1441,1646,6.12058,-0.0507181
224,-622,5.57275,0.0616455,0,0,0,0,0,0,0,-1,1448,1646,5.57276,-0.0616084
231,-622,5.31348,1.3949,0,0,0,0,0,0,0,-1,1455,1646,5.31342,-1.39495
238,-622,3.76477,2.90686,0,0,0,0,0,0,0,-1,1462,1646,3.7648,-2.90686
245,-622,5.13794,2.67993,0,0,0,0,0,0,0,-1,1469,1646,5.13796,-2.67992
252,-622,6.66528,2.53992,0,0,0,0,0,0,0,-1,1476,1646,6.66522,-2.53991
259,-622,8.93787,3.31458,0,0,0,0,0,0,0,-1,1483,1646,8.93791,-3.31454
266,-622,5.72644,3.11926,0,0,0,0,0,0,0,-1,1490,1646,5.72647,-3.1192
273,-622,7.28076,3.61218,0,0,0,0,0,0,0,-1,1497,1646,7.28071,-3.61212
280,-622,8.43127,4.4447,0,0,0,0,0,0,0,-1,1504,1646,8.43123,-4.44467
287,-622,8.60315,5.94617,0,0,0,0,0,0,0,-1,1511,1646,8.60319,-5.94622
294,-622,7.62756,11.5143,0,0,0,0,0,0,0,-1,1518,1646,7.62762,-11.5143
301,-622,7.36548,11.6569,0,0,0,0,0,0,0,-1,1525,1646,7.36549,-11.6569
308,-622,7.10339,11.7994,0,0,0,0,0,0,0,-1,1532,1646,7.10335,-11.7995
315,-622,8.28687,16.5842,0,0,0,0,0,0,0,-1,1539,1646,8.28689,-16.5843
322,-622,7.43689,20.5786,0,0,0,0,0,0,0,-1,1546,1646,7.43685,-20.5786
329,-622,9.76477,26.4202,0,0,0,0,0,0,0,-1,1553,1646,9.7648,-26.4202
336,-622,10.4526,28.8552,0,0,0,0,0,0,0,-1,1560,1646,10.4526,-28.8552
343,-622,11.2021,31.8704,0,0,0,0,0,0,0,-1,1567,1646,11.2021,-31.8703
350,-622,11.8849,31.9005,0,0,0,0,0,0,0,-1,1574,1646,11.8849,-31.9005
357,-622,11.8665,31.7576,0,0,0,0,0,0,0,-1,1581,1646,11.8664,-31.7576
364,-622,12.0015,31.4081,0.0179316,0.01826,-0.0117974,0.0298944,0.00629729,-0.792356,0.0181974,0.039336,1588,1646,12.0015,-31.4081
371,-622,12.0482,30.8151,0.0156849,0.0163483,-0.0102868,0.0263088,0.00572444,-0.801517,0.0159766,0.0244422,1595,1646,12.0482,-30.815
378,-622,12.0306,30.3914,0.0131194,0.0144556,-0.00856701,0.0223805,0.00519446,-0.824311,0.0135255,0.011158,1602,1646,12.0307,-30.3914
385,-622,12.016,30.0292,0.0106954,0.0123311,-0.00700466,0.0185655,0.00446099,-0.843516,0.0111904,0.00922872,1609,1646,12.016,-30.0291
392,-622,12.0087,29.6849,0.00840653,0.01007,-0.00541489,0.0147167,0.00375986,-0.861603,0.00882884,0.0106072,1616,1646,12.0087,-29.6849
399,-622,12.0088,29.3053,0.00627444,0.00788565,-0.00387151,0.0110345,0.0031256,-0.887977,0.00656725,0.010905,1623,1646,12.0088,-29.3053
406,-622,12.0074,28.9227,0.00437939,0.00598698,-0.00257484,0.00788057,0.00248581,-0.936692,0.00465202,0.0130845,1630,1646,12.0074,-28.9227
413,-622,12.0061,28.5573,0.0028921,0.00441467,-0.00162393,0.00544691,0.00185986,-1.00458,0.00319704,0.0145909,1637,1646,12.0061,-28.5573
420,-622,12.0052,28.1998,0.00182887,0.00300343,-0.000934322,0.00351972,0.00131258,-1.06598,0.00205387,0.0148541,1644,1646,12.0052,-28.1999
427,-622,12.0037,27.8104,0.00079756,0.00169195,-0.000194828,0.00173255,0.000756962,-1.36536,0.00100294,0.011854,1651,1646,12.0037,-27.8104
434,-622,12.0033,27.4341,0.00036274,0.00080212,-7.83202e-05,0.000815663,0.000349197,-1.39957,0.000472543,0.013081,1658,1646,12.0033,-27.4341
441,-622,11.9996,27.0354,0.000335601,0.000172873,-0.000160238,0.000433949,7.4526e-05,-0.550476,0.000267935,0.0149786,1665,1646,11.9997,-27.0354
448,-622,11.9705,26.6685,0.000341672,-0.00048043,-0.000188374,0.00038278,-0.000521538,-0.214857,0.000524153,0.0137903,1672,1646,11.9704,-26.6684
455,-622,11.9362,26.249,0.000363676,-0.00108179,-0.000221348,0.000396812,-0.00111492,-0.148598,0.000905029,0.0155174,1679,1646,11.9362,-26.249
462,-622,11.9487,25.8579,0.000260592,-0.00184025,-0.000118512,0.000267257,-0.00184692,-0.056174,0.00132935,0.0160454,1686,1646,11.9488,-25.8579
469,-622,11.939,25.4778,0.000100441,-0.00254385,4.94446e-05,0.000101365,-0.00254478,0.0186899,0.0017313,0.0173729,1693,1646,11.939,-25.4778
476,-622,11.9886,25.0602,-0.000213298,-0.00332947,0.000359804,-0.000172293,-0.00337048,0.113474,0.00219181,0.0231072,1700,1646,11.9886,-25.0601
483,-622,11.8995,24.6591,-0.000873904,-0.00401073,0.000864285,-0.000651533,-0.0042331,0.251827,0.00263191,0.034701,1707,1646,11.8996,-24.6591
490,-622,11.894,24.183,-0.00154286,-0.0046124,0.00111833,-0.00117864,-0.00497663,0.314853,0.00300299,0.0394146,1714,1646,11.894,-24.183
497,-622,11.8507,24.1536,0,0,0,0,0,0,0,-1,1721,1646,11.8508,-24.1535
504,-622,10.8306,19.8021,0,0,0,0,0,0,0,-1,1728,1646,10.8306,-19.8022
511,-622,5.29004,4.14587,0,0,0,0,0,0,0,-1,1735,1646,5.29008,-4.14589
518,-622,5.6001,1.55359,0,0,0,0,0,0,0,-1,1742,1646,5.60015,-1.5536
525,-622,5.83093,2.01807,0,0,0,0,0,0,0,-1,1749,1646,5.83097,-2.01802
532,-622,5.44202,0.57373,0,0,0,0,0,0,0,-1,1756,1646,5.44196,-0.573705
539,-622,9.32129,1.06116,0,0,0,0,0,0,0,-1,1763,1646,9.32131,-1.0612
546,-622,6.50977,-3.45618,0,0,0,0,0,0,0,-1,1770,1646,6.50981,3.4562
553,-622,0,0,0,0,0,0,0,0,0,-1,1777,1646,0,0
560,-622,0,0,0,0,0,0,0,0,0,-1,1784,1646,0,0
567,-622,0,0,0,0,0,0,0,0,0,-1,1791,1646,0,0
574,-622,0,0,0,0,0,0,0,0,0,-1,1798,1646,0,0
581,-622,0,0,0,0,0,0,0,0,0,-1,1805,1646,0,0
588,-622,0,0,0,0,0,0,0,0,0,-1,1812,1646,0,0
595,-622,0,0,0,0,0,0,0,0,0,-1,1819,1646,0,0
602,-622,0,0,0,0,0,0,0,0,0,-1,1826,1646,0,0
609,-622,0,0,0,0,0,0,0,0,0,-1,1833,1646,0,0
616,-622,0,0,0,0,0,0,0,0,0,-1,1840,1646,0,0
623,-622,0,0,0,0,0,0,0,0,0,-1,1847,1646,0,0
630,-622,0,0,0,0,0,0,0,0,0,-1,1854,1646,0,0
637,-622,0,0,0,0,0,0,0,0,0,-1,1861,1646,0,0
644,-622,0,0,0,0,0,0,0,0,0,-1,1868,1646,0,0
651,-622,0,0,0,0,0,0,0,0,0,-1,1875,1646,0,0
658,-622,0,0,0,0,0,0,0,0,0,-1,1882,1646,0,0
665,-622,0,0,0,0,0,0,0,0,0,-1,1889,1646,0,0
672,-622,0,0,0,0,0,0,0,0,0,-1,1896,1646,0,0
679,-622,0,0,0,0,0,0,0,0,0,-1,1903,1646,0,0
686,-622,0,0,0,0,0,0,0,0,0,-1,1910,1646,0,0
693,-622,0,0,0,0,0,0,0,0,0,-1,1917,1646,0,0
700,-622,0,0,0,0,0,0,0,0,0,-1,1924,1646,0,0
707,-622,0,0,0,0,0,0,0,0,0,-1,1931,1646,0,0
714,-622,0,0,0,0,0,0,0,0,0,-1,1938,1646,0,0
721,-622,0,0,0,0,0,0,0,0,0,-1,1945,1646,0,0
728,-622,0,0,0,0,0,0,0,0,0,-1,1952,1646,0,0
735,-622,0,0,0,0,0,0,0,0,0,-1,1959,1646,0,0
742,-622,0,0,0,0,0,0,0,0,0,-1,1966,1646,0,0
749,-622,0,0,0,0,0,0,0,0,0,-1,1973,1646,0,0
756,-622,0,0,0,0,0,0,0,0,0,-1,1980,1646,0,0
763,-622,0,0,0,0,0,0,0,0,0,-1,1987,1646,0,0
770,-622,0,0,0,0,0,0,0,0,0,-1,1994,1646,0,0
777,-622,0,0,0,0,0,0,0,0,0,-1,2001,1646,0,0
784,-622,0,0,0,0,0,0,0,0,0,-1,2008,1646,0,0
791,-622,0,0,0,0,0,0,0,0,0,-1,2015,1646,0,0
798,-622,0,0,0,0,0,0,0,0,0,-1,2022,1646,0,0
805,-622,0,0,0,0,0,0,0,0,0,-1,2029,1646,0,0
812,-622,0,0,0,0,0,0,0,0,0,-1,2036,1646,0,0
-700,-629,0,0,0,0,0,0,0,0,0,-1,524,1653,0,0
-693,-629,0,0,0,0,0,0,0,0,0,-1,531,1653,0,0
-686,-629,0,0,0,0,0,0,0,0,0,-1,538,1653,0,0
-679,-629,0,0,0,0,0,0,0,0,0,-1,545,1653,0,0
-672,-629,0,0,0,0,0,0,0,0,0,-1,552,1653,0,0
-665,-629,0,0,0,0,0,0,0,0,0,-1,559,1653,0,0
-658,-629,0,0,0,0,0,0,0,0,0,-1,566,1653,0,0
-651,-629,0,0,0,0,0,0,0,0,0,-1,573,1653,0,0
-644,-629,0,0,0,0,0,0,0,0,0,-1,580,1653,0,0
-637,-629,0,0,0,0,0,0,0,0,0,-1,587,1653,0,0
-630,-629,0,0,0,0,0,0,0,0,0,-1,594,1653,0,0
-623,-629,0,0,0,0,0,0,0,0,0,-1,601,1653,0,0
-616,-629,0,0,0,0,0,0,0,0,0,-1,608,1653,0,0
-609,-629,0,0,0,0,0,0,0,0,0,-1,615,1653,0,0
-602,-629,0,0,0,0,0,0,0,0,0,-1,622,1653,0,0
-595,-629,0,0,0,0,0,0,0,0,0,-1,629,1653,0,0
-588,-629,0,0,0,0,0,0,0,0,0,-1,636,1653,0,0
-581,-629,0,0,0,0,0,0,0,0,0,-1,643,1653,0,0
-574,-629,0,0,0,0,0,0,0,0,0,-1,650,1653,0,0
-567,-629,0,0,0,0,0,0,0,0,0,-1,657,1653,0,0
-560,-629,0,0,0,0,0,0,0,0,0,-1,664,1653,0,0
-553,-629,0,0,0,0,0,0,0,0,0,-1,671,1653,0,0
-546,-629,0,0,0,0,0,0,0,0,0,-1,678,1653,0,0
-539,-629,0,0,0,0,0,0,0,0,0,-1,685,1653,0,0
-532,-629,0,0,0,0,0,0,0,0,0,-1,692,1653,0,0
-525,-629,0,0,0,0,0,0,0,0,0,-1,699,1653,0,0
-518,-629,0,0,0,0,0,0,0,0,0,-1,706,1653,0,0
-511,-629,0,0,0,0,0,0,0,0,0,-1,713,1653,0,0
-504,-629,0,0,0,0,0,0,0,0,0,-1,720,1653,0,0
-497,-629,0,0,0,0,0,0,0,0,0,-1,727,1653,0,0
-490,-629,0,0,0,0,0,0,0,0,0,-1,734,1653,0,0
-483,-629,0,0,0,0,0,0,0,0,0,-1,741,1653,0,0
-476,-629,0,0,0,0,0,0,0,0,0,-1,748,1653,0,0
-469,-629,0,0,0,0,0,0,0,0,0,-1,755,1653,0,0
-462,-629,0,0,0,0,0,0,0,0,0,-1,762,1653,0,0
-455,-629,0,0,0,0,0,0,0,0,0,-1,769,1653,0,0
-448,-629,0,0,0,0,0,0,0,0,0,-1,776,1653,0,0
-441,-629,0,0,0,0,0,0,0,0,0,-1,783,1653,0,0
-434,-629,0,0,0,0,0,0,0,0,0,-1,790,1653,0,0
-427,-629,0,0,0,0,0,0,0,0,0,-1,797,1653,0,0
-420,-629,-3.87103,3.37634,0,0,0,0,0,0,0,-1,804,1653,-3.87101,-3.37633
-413,-629,-5.69751,1.33582,0,0,0,0,0,0,0,-1,811,1653,-5.69754,-1.3358
-406,-629,2.85406,6.01501,0,0,0,0,0,0,0,-1,818,1653,2.85405,-6.01507
-399,-629,-0.455627,10.8687,0,0,0,0,0,0,0,-1,825,1653,-0.455625,-10.8687
-392,-629,1.15369,11.1295,0,0,0,0,0,0,0,-1,832,1653,1.1537,-11.1295
-385,-629,1.81976,11.6935,0,0,0,0,0,0,0,-1,839,1653,1.81975,-11.6935
-378,-629,2.19452,14.7941,0,0,0,0,0,0,0,-1,846,1653,2.19451,-14.7941
-371,-629,3.60114,14.7299,0,0,0,0,0,0,0,-1,853,1653,3.60113,-14.7299
-364,-629,3.26898,21.0801,0,0,0,0,0,0,0,-1,860,1653,3.26895,-21.08
-357,-629,4.38782,16.3444,0,0,0,0,0,0,0,-1,867,1653,4.38783,-16.3443
-350,-629,4.00629,23.6724,0,0,0,0,0,0,0,-1,874,1653,4.00627,-23.6723
-343,-629,4.00317,24.1959,-0.00141438,0.00403185,0.00403293,0.00617493,-0.00355747,1.08235,0.00568634,0.0413923,881,1653,4.00318,-24.1959
-336,-629,3.97137,24.662,-0.000218841,0.00397561,0.00367518,0.00610985,-0.00235308,1.04468,0.00504399,0.019728,888,1653,3.97139,-24.662
-329,-629,3.9953,25.0991,0.000462834,0.00388073,0.00313462,0.00574198,-0.00139842,1.03497,0.00436937,0.012283,895,1653,3.99528,-25.0992
-322,-629,3.98755,25.533,0.00074596,0.00406241,0.00289527,0.0057407,-0.000932329,1.04546,0.00417277,0.011969,902,1653,3.98757,-25.5329
-315,-629,3.96173,25.9727,0.000803021,0.0039206,0.00259357,0.00538777,-0.000664147,1.05598,0.00383246,0.0152936,909,1653,3.96174,-25.9727
-308,-629,3.95093,26.3817,0.000850297,0.00373893,0.00225244,0.00497034,-0.000381114,1.07049,0.00344763,0.0120434,916,1653,3.95095,-26.3817
-301,-629,3.9519,26.8171,0.000860656,0.00359368,0.00194859,0.00460716,-0.000152827,1.09119,0.00312363,0.0111253,923,1653,3.95192,-26.8172
-294,-629,3.93909,27.2316,0.000900189,0.00365076,0.00177103,0.00451779,3.31639e-05,1.11554,0.00300086,0.0122647,930,1653,3.93911,-27.2316
-287,-629,3.90942,27.6166,0.00097723,0.00378738,0.00162873,0.00453335,0.000231256,1.1413,0.00294817,0.00968084,937,1653,3.90944,-27.6166
-280,-629,3.89227,28.0214,0.00110034,0.00403645,0.00159109,0.00473329,0.000403506,1.158,0.00302999,0.0102858,944,1653,3.89224,-28.0213
-273,-629,3.86572,28.3933,0.00130543,0.00431117,0.00164574,0.00503699,0.00057961,1.15542,0.00318243,0.0132054,951,1653,3.86574,-28.3933
-266,-629,3.86096,28.7924,0.00151095,0.00470687,0.00170551,0.00544605,0.000771769,1.16182,0.00340275,0.0130917,958,1653,3.86095,-28.7923
-259,-629,3.86847,29.2195,0.00178211,0.00520177,0.00185195,0.00601251,0.000971377,1.15816,0.00372698,0.0138298,965,1653,3.86847,-29.2195
-252,-629,3.86853,29.5817,0.00208163,0.0058405,0.0020203,0.00672039,0.00120174,1.16004,0.00413826,0.0108719,972,1653,3.86854,-29.5816
-245,-629,3.90314,29.9629,0.00244728,0.00651007,0.00222878,0.00749431,0.00146305,1.15495,0.00458697,0.00827905,979,1653,3.90312,-29.9629
-238,-629,3.89789,30.3337,0.00299554,0.00701367,0.00235195,0.00809782,0.00191138,1.13887,0.00488763,0.0111158,986,1653,3.89791,-30.3338
-231,-629,3.86108,30.7054,0.00380645,0.0074251,0.00256812,0.00875725,0.00247429,1.09228,0.00521296,0.0158757,993,1653,3.86107,-30.7054
-224,-629,3.95648,31.1765,0.00446713,0.00761569,0.00262844,0.00910524,0.00297758,1.05522,0.00536076,0.0203679,1000,1653,3.95649,-31.1766
-217,-629,3.91132,31.4716,0.00520955,0.00828963,0.00244558,0.00963967,0.0038595,1.06639,0.00560217,0.03567,1007,1653,3.91131,-31.4716
-210,-629,4.11786,31.9425,0,0,0,0,0,0,0,-1,1014,1653,4.11785,-31.9425
-203,-629,3.89575,32.2048,0,0,0,0,0,0,0,-1,1021,1653,3.8958,-32.2049
-196,-629,4.43604,32.7401,0,0,0,0,0,0,0,-1,1028,1653,4.43601,-32.7401
-189,-629,4.30859,32.8713,0,0,0,0,0,0,0,-1,1035,1653,4.30857,-32.8713
-182,-629,4.48901,33.182,0,0,0,0,0,0,0,-1,1042,1653,4.48897,-33.182
-175,-629,4.69446,33.0199,0,0,0,0,0,0,0,-1,1049,1653,4.69444,-33.0199
-168,-629,3.37085,34.36,0,0,0,0,0,0,0,-1,1056,1653,3.37085,-34.36
-161,-629,3.33301,34.2687,0.018857,0.00893174,-0.0178223,0.0323947,-0.00460599,-0.649613,0.0232842,0.047628,1063,1653,3.33296,-34.2687
-154,-629,3.2688,34.254,0,0,0,0,0,0,0,-1,1070,1653,3.26883,-34.254
-147,-629,3.39771,34.4545,0,0,0,0,0,0,0,-1,1077,1653,3.39767,-34.4545
-140,-629,2.34851,19.2911,0,0,0,0,0,0,0,-1,1084,1653,2.34853,-19.2911
-133,-629,3.41248,17.6686,0,0,0,0,0,0,0,-1,1091,1653,3.41243,-17.6686
-126,-629,4.01025,19.5328,0,0,0,0,0,0,0,-1,1098,1653,4.01022,-19.5328
-119,-629,4.94177,13.5525,0,0,0,0,0,0,0,-1,1105,1653,4.94172,-13.5525
-112,-629,5.63123,15.9187,0,0,0,0,0,0,0,-1,1112,1653,5.63118,-15.9187
-105,-629,2.15881,4.38342,0,0,0,0,0,0,0,-1,1119,1653,2.15878,-4.38347
-98,-629,0.825806,4.19385,0,0,0,0,0,0,0,-1,1126,1653,0.825779,-4.1939
-91,-629,-0.452271,3.64465,0,0,0,0,0,0,0,-1,1133,1653,-0.452278,-3.6446
-84,-629,-2.6084,0.466797,0,0,0,0,0,0,0,-1,1140,1653,-2.6084,-0.466786
-77,-629,-3.50903,2.10706,0,0,0,0,0,0,0,-1,1147,1653,-3.509,-2.10707
-70,-629,-1.20886,2.52502,0,0,0,0,0,0,0,-1,1154,1653,-1.20886,-2.525
-63,-629,-0.960693,4.30212,0,0,0,0,0,0,0,-1,1161,1653,-0.960691,-4.30215
-56,-629,-1.31934,5.64343,0,0,0,0,0,0,0,-1,1168,1653,-1.31928,-5.6434
-49,-629,-2.15662,2.57458,0,0,0,0,0,0,0,-1,1175,1653,-2.15656,-2.57459
-42,-629,-2.46326,3.91467,0,0,0,0,0,0,0,-1,1182,1653,-2.4633,-3.91466
-35,-629,-2.67261,5.24292,0,0,0,0,0,0,0,-1,1189,1653,-2.67257,-5.24298
-28,-629,-0.402954,-0.866577,0,0,0,0,0,0,0,-1,1196,1653,-0.402943,0.866612
-21,-629,3.45508,27.0596,0,0,0,0,0,0,0,-1,1203,1653,3.45508,-27.0596
-14,-629,14.4163,41.2482,0,0,0,0,0,0,0,-1,1210,1653,14.4162,-41.2482
-7,-629,7.40393,41.962,0,0,0,0,0,0,0,-1,1217,1653,7.40393,-41.962
0,-629,6.31531,42.0625,0,0,0,0,0,0,0,-1,1224,1653,6.31534,-42.0625
7,-629,4.14136,42.2253,0,0,0,0,0,0,0,-1,1231,1653,4.14142,-42.2253
14,-629,4.87354,41.9215,0.0158005,0.0207021,-0.0178614,0.03628,0.000222571,-0.853577,0.0241128,0.0460543,1238,1653,4.87349,-41.9215
21,-629,5.32605,41.5338,0.0420121,0.0392202,-0.0130249,0.0537156,0.0275166,-0.732014,0.0310158,0.0445214,1245,1653,5.32611,-41.5338
28,-629,5.95154,41.3599,0.0570908,0.069062,-0.00162561,0.0692788,0.056874,-1.4382,0.0426565,0.0460898,1252,1653,5.95152,-41.3599
35,-629,6.30688,40.8085,0.0651031,0.103049,0.00834098,0.104802,0.0633506,1.3637,0.060946,0.0449685,1259,1653,6.30693,-40.8085
42,-629,6.37061,39.9418,0.064236,0.141368,0.0194204,0.145982,0.0596223,1.33755,0.0847527,0.0480969,1266,1653,6.37064,-39.9417
49,-629,6.90979,47.7954,0,0,0,0,0,0,0,-1,1273,1653,6.90985,-47.7954
56,-629,9.39648,47.3793,0,0,0,0,0,0,0,-1,1280,1653,9.39648,-47.3793
63,-629,10.1951,48.5188,0.0274928,0.252136,0.0523796,0.263749,0.0158799,1.35262,0.170785,0.0469171,1287,1653,10.1951,-48.5188
70,-629,10.4719,49.7417,0.00698742,0.279321,0.0628476,0.293124,-0.00681651,1.35459,0.197728,0.045717,1294,1653,10.472,-49.7417
77,-629,10.6122,50.7118,-0.0122428,0.30179,0.0727819,0.317838,-0.028291,1.35377,0.221924,0.042623,1301,1653,10.6122,-50.7118
84,-629,6.77356,49.8555,0,0,0,0,0,0,0,-1,1308,1653,6.77359,-49.8555
91,-629,5.5603,50.1462,0,0,0,0,0,0,0,-1,1315,1653,5.56034,-50.1463
98,-629,4.3269,50.4771,-0.0829504,0.341305,0.0939439,0.361177,-0.102822,1.36234,0.281392,0.0458364,1322,1653,4.32695,-50.4771
105,-629,3.245,51.0313,0,0,0,0,0,0,0,-1,1329,1653,3.24497,-51.0313
112,-629,-0.591553,57.6149,0,0,0,0,0,0,0,-1,1336,1653,-0.59157,-57.6148
119,-629,-1.48462,58.9811,-0.0949396,0.317203,0.101187,0.340705,-0.118442,1.34257,0.275247,0.0449134,1343,1653,-1.48457,-58.9811
126,-629,-2.08569,59.994,-0.0767701,0.311339,0.107134,0.338948,-0.104379,1.31858,0.267632,0.0465671,1350,1653,-2.0857,-59.994
133,-629,-2.95557,61.243,0,0,0,0,0,0,0,-1,1357,1653,-2.95551,-61.243
140,-629,14.0945,38.7534,0,0,0,0,0,0,0,-1,1364,1653,14.0945,-38.7534
147,-629,18.4926,38.0448,0,0,0,0,0,0,0,-1,1371,1653,18.4926,-38.0448
154,-629,11.7258,38.2805,0,0,0,0,0,0,0,-1,1378,1653,11.7258,-38.2805
161,-629,10.5461,6.83752,0,0,0,0,0,0,0,-1,1385,1653,10.5461,-6.83758
168,-629,12.0059,5.56348,0,0,0,0,0,0,0,-1,1392,1653,12.0059,-5.56352
175,-629,5.84485,-1.78845,0,0,0,0,0,0,0,-1,1399,1653,5.84479,1.7884
182,-629,5.99036,-1.27783,0,0,0,0,0,0,0,-1,1406,1653,5.99041,1.27778
189,-629,5.97668,-0.748535,0,0,0,0,0,0,0,-1,1413,1653,5.97671,0.748544
196,-629,4.52869,9.24695,0,0,0,0,0,0,0,-1,1420,1653,4.52869,-9.2469
203,-629,3.75085,6.88037,0,0,0,0,0,0,0,-1,1427,1653,3.75087,-6.88032
210,-629,3.5907,6.52637,0,0,0,0,0,0,0,-1,1434,1653,3.59067,-6.52642
217,-629,2.4585,4.84448,0,0,0,0,0,0,0,-1,1441,1653,2.45855,-4.84448
224,-629,1.31982,3.68481,0,0,0,0,0,0,0,-1,1448,1653,1.31986,-3.68487
231,-629,3.63025,1.73499,0,0,0,0,0,0,0,-1,1455,1653,3.6303,-1.735
238,-629,4.26428,2.11255,0,0,0,0,0,0,0,-1,1462,1653,4.26429,-2.11253
245,-629,5.61816,1.95361,0,0,0,0,0,0,0,-1,1469,1653,5.61815,-1.95359
252,-629,7.27136,2.18982,0,0,0,0,0,0,0,-1,1476,1653,7.27131,-2.18985
259,-629,8.67334,2.18628,0,0,0,0,0,0,0,-1,1483,1653,8.6733,-2.18633
266,-629,6.86475,3.72058,0,0,0,0,0,0,0,-1,1490,1653,6.86479,-3.72063
273,-629,7.9021,3.8717,0,0,0,0,0,0,0,-1,1497,1653,7.90205,-3.87171
280,-629,9.70837,4.39087,0,0,0,0,0,0,0,-1,1504,1653,9.7084,-4.39082
287,-629,9.82947,7.19348,0,0,0,0,0,0,0,-1,1511,1653,9.8295,-7.19347
294,-629,6.56555,11.6359,0,0,0,0,0,0,0,-1,1518,1653,6.5656,-11.6358
301,-629,6.93835,15.6102,0,0,0,0,0,0,0,-1,1525,1653,6.93835,-15.6103
308,-629,6.08264,12.1423,0,0,0,0,0,0,0,-1,1532,1653,6.08263,-12.1423
315,-629,6.82043,18.2764,0,0,0,0,0,0,0,-1,1539,1653,6.82049,-18.2764
322,-629,10.3922,29.9829,0,0,0,0,0,0,0,-1,1546,1653,10.3922,-29.9829
329,-629,11.6686,32.7892,0,0,0,0,0,0,0,-1,1553,1653,11.6686,-32.7892
336,-629,11.7334,32.4652,0,0,0,0,0,0,0,-1,1560,1653,11.7334,-32.4652
343,-629,11.6536,32.1495,0,0,0,0,0,0,0,-1,1567,1653,11.6536,-32.1496
350,-629,11.5355,31.85,0.0150593,0.0152553,-0.0094988,0.0246566,0.00565801,-0.790558,0.0149139,0.0299567,1574,1653,11.5355,-31.8499
357,-629,11.6656,31.4249,0.0139584,0.0145143,-0.00897618,0.0232168,0.00525587,-0.800875,0.0140574,0.0165018,1581,1653,11.6657,-31.4249
364,-629,11.6382,31.0698,0.0126445,0.0133747,-0.00821418,0.0212319,0.00478729,-0.807606,0.0128594,0.0139733,1588,1653,11.6382,-31.0698
371,-629,11.6469,30.7307,0.0111612,0.0120665,-0.00729624,0.0189241,0.00430359,-0.816376,0.0114543,0.0115255,1595,1653,11.6468,-30.7307
378,-629,11.6561,30.3685,0.00941632,0.0106844,-0.00617311,0.016256,0.00384479,-0.836574,0.00981015,0.0102601,1602,1653,11.6561,-30.3686
385,-629,11.6635,30.0396,0.00771269,0.0090311,-0.00508292,0.0134974,0.00324641,-0.849884,0.00813499,0.0116903,1609,1653,11.6634,-30.0396
392,-629,11.6433,29.6925,0.00603502,0.00715684,-0.00391268,0.0105486,0.00264325,-0.856592,0.0063378,0.0104043,1616,1653,11.6434,-29.6925
399,-629,11.6322,29.3066,0.0043997,0.00526164,-0.00270452,0.00756931,0.00209203,-0.86441,0.00451347,0.0103612,1623,1653,11.6322,-29.3066
406,-629,11.642,28.9249,0.00292616,0.00361748,-0.00163943,0.00494729,0.00159634,-0.889297,0.00291559,0.0134755,1630,1653,11.642,-28.9249
413,-629,11.6254,28.572,0.00178585,0.0022499,-0.000862651,0.00291118,0.00112456,-0.916775,0.0016952,0.0219557,1637,1653,11.6254,-28.572
420,-629,11.6003,28.2285,0.000984976,0.00104539,-0.000311596,0.00132824,0.000702126,-0.833718,0.000767278,0.0205222,1644,1653,11.6004,-28.2285
427,-629,11.6252,27.8495,0.000311403,-2.58672e-05,0.000187289,0.00039479,-0.000109253,0.418879,0.000306179,0.0126459,1651,1653,11.6252,-27.8495
434,-629,11.625,27.4636,6.56446e-05,-0.000729799,0.000233763,0.000129255,-0.00079341,0.265683,0.000576872,0.0106363,1658,1653,11.6251,-27.4636
441,-629,11.6044,27.0806,0.000116819,-0.00119032,0.000117606,0.000127316,-0.00120082,0.0890195,0.000846183,0.0152578,1665,1653,11.6044,-27.0806
448,-629,11.5745,26.6759,0.000239955,-0.00165805,1.56675e-05,0.000240085,-0.00165818,0.00825398,0.00119355,0.0151214,1672,1653,11.5744,-26.6759
455,-629,11.5559,26.2561,0.000392214,-0.00202138,-9.21961e-05,0.000395731,-0.0020249,-0.0381247,0.00149935,0.0144652,1679,1653,11.556,-26.2561
462,-629,11.5526,25.8728,0.000419036,-0.00248595,-0.000114758,0.000423562,-0.00249047,-0.0394221,0.00181803,0.0168614,1686,1653,11.5527,-25.8728
469,-629,11.5535,25.4602,0.000344451,-0.00294418,-3.63337e-05,0.000344852,-0.00294458,-0.0110465,0.00208752,0.020426,1693,1653,11.5534,-25.4602
476,-629,11.6786,25.1267,0.000121617,-0.0035363,0.000204392,0.000133002,-0.00354769,0.0556457,0.00241068,0.0369997,1700,1653,11.6786,-25.1267
483,-629,11.7911,24.6742,0,0,0,0,0,0,0,-1,1707,1653,11.7911,-24.6742
490,-629,11.6643,24.0302,0,0,0,0,0,0,0,-1,1714,1653,11.6643,-24.0302
497,-629,10.3662,19.8605,0,0,0,0,0,0,0,-1,1721,1653,10.3662,-19.8605
504,-629,7.89453,15.5316,0,0,0,0,0,0,0,-1,1728,1653,7.89447,-15.5316
511,-629,6.29138,3.40295,0,0,0,0,0,0,0,-1,1735,1653,6.29137,-3.403
518,-629,5.84387,1.41858,0,0,0,0,0,0,0,-1,1742,1653,5.84391,-1.4186
525,-629,6.4729,1.02319,0,0,0,0,0,0,0,-1,1749,1653,6.47284,-1.02316
532,-629,6.86511,0.903687,0,0,0,0,0,0,0,-1,1756,1653,6.86514,-0.903691
539,-629,6.60803,0.746704,0,0,0,0,0,0,0,-1,1763,1653,6.60809,-0.746691
546,-629,0,0,0,0,0,0,0,0,0,-1,1770,1653,0,0
553,-629,0,0,0,0,0,0,0,0,0,-1,1777,1653,0,0
560,-629,0,0,0,0,0,0,0,0,0,-1,1784,1653,0,0
567,-629,0,0,0,0,0,0,0,0,0,-1,1791,1653,0,0
574,-629,0,0,0,0,0,0,0,0,0,-1,1798,1653,0,0
581,-629,0,0,0,0,0,0,0,0,0,-1,1805,1653,0,0
588,-629,0,0,0,0,0,0,0,0,0,-1,1812,1653,0,0
595,-629,0,0,0,0,0,0,0,0,0,-1,1819,1653,0,0
602,-629,0,0,0,0,0,0,0,0,0,-1,1826,1653,0,0
609,-629,0,0,0,0,0,0,0,0,0,-1,1833,1653,0,0
616,-629,0,0,0,0,0,0,0,0,0,-1,1840,1653,0,0
623,-629,0,0,0,0,0,0,0,0,0,-1,1847,1653,0,0
630,-629,0,0,0,0,0,0,0,0,0,-1,1854,1653,0,0
637,-629,0,0,0,0,0,0,0,0,0,-1,1861,1653,0,0
644,-629,0,0,0,0,0,0,0,0,0,-1,1868,1653,0,0
651,-629,0,0,0,0,0,0,0,0,0,-1,1875,1653,0,0
658,-629,0,0,0,0,0,0,0,0,0,-1,1882,1653,0,0
665,-629,0,0,0,0,0,0,0,0,0,-1,1889,1653,0,0
672,-629,0,0,0,0,0,0,0,0,0,-1,1896,1653,0,0
679,-629,0,0,0,0,0,0,0,0,0,-1,1903,1653,0,0
686,-629,0,0,0,0,0,0,0,0,0,-1,1910,1653,0,0
693,-629,0,0,0,0,0,0,0,0,0,-1,1917,1653,0,0
700,-629,0,0,0,0,0,0,0,0,0,-1,1924,1653,0,0
707,-629,0,0,0,0,0,0,0,0,0,-1,1931,1653,0,0
714,-629,0,0,0,0,0,0,0,0,0,-1,1938,1653,0,0
721,-629,0,0,0,0,0,0,0,0,0,-1,1945,1653,0,0
728,-629,0,0,0,0,0,0,0,0,0,-1,1952,1653,0,0
735,-629,0,0,0,0,0,0,0,0,0,-1,1959,1653,0,0
742,-629,0,0,0,0,0,0,0,0,0,-1,1966,1653,0,0
749,-629,0,0,0,0,0,0,0,0,0,-1,1973,1653,0,0
756,-629,0,0,0,0,0,0,0,0,0,-1,1980,1653,0,0
763,-629,0,0,0,0,0,0,0,0,0,-1,1987,1653,0,0
770,-629,0,0,0,0,0,0,0,0,0,-1,1994,1653,0,0
777,-629,0,0,0,0,0,0,0,0,0,-1,2001,1653,0,0
784,-629,0,0,0,0,0,0,0,0,0,-1,2008,1653,0,0
791,-629,0,0,0,0,0,0,0,0,0,-1,2015,1653,0,0
798,-629,0,0,0,0,0,0,0,0,0,-1,2022,1653,0,0
805,-629,0,0,0,0,0,0,0,0,0,-1,2029,1653,0,0
812,-629,0,0,0,0,0,0,0,0,0,-1,2036,1653,0,0
-700,-636,0,0,0,0,0,0,0,0,0,-1,524,1660,0,0
-693,-636,0,0,0,0,0,0,0,0,0,-1,531,1660,0,0
-686,-636,0,0,0,0,0,0,0,0,0,-1,538,1660,0,0
-679,-636,0,0,0,0,0,0,0,0,0,-1,545,1660,0,0
-672,-636,0,0,0,0,0,0,0,0,0,-1,552,1660,0,0
-665,-636,0,0,0,0,0,0,0,0,0,-1,559,1660,0,0
-658,-636,0,0,0,0,0,0,0,0,0,-1,566,1660,0,0
-651,-636,0,0,0,0,0,0,0,0,0,-1,573,1660,0,0
-644,-636,0,0,0,0,0,0,0,0,0,-1,580,1660,0,0
-637,-636,0,0,0,0,0,0,0,0,0,-1,587,1660,0,0
-630,-636,0,0,0,0,0,0,0,0,0,-1,594,1660,0,0
-623,-636,0,0,0,0,0,0,0,0,0,-1,601,1660,0,0
-616,-636,0,0,0,0,0,0,0,0,0,-1,608,1660,0,0
-609,-636,0,0,0,0,0,0,0,0,0,-1,615,1660,0,0
-602,-636,0,0,0,0,0,0,0,0,0,-1,622,1660,0,0
-595,-636,0,0,0,0,0,0,0,0,0,-1,629,1660,0,0
-588,-636,0,0,0,0,0,0,0,0,0,-1,636,1660,0,0
-581,-636,0,0,0,0,0,0,0,0,0,-1,643,1660,0,0
-574,-636,0,0,0,0,0,0,0,0,0,-1,650,1660,0,0
-567,-636,0,0,0,0,0,0,0,0,0,-1,657,1660,0,0
-560,-636,0,0,0,0,0,0,0,0,0,-1,664,1660,0,0
-553,-636,0,0,0,0,0,0,0,0,0,-1,671,1660,0,0
-546,-636,0,0,0,0,0,0,0,0,0,-1,678,1660,0,0
-539,-636,0,0,0,0,0,0,0,0,0,-1,685,1660,0,0
-532,-636,0,0,0,0,0,0,0,0,0,-1,692,1660,0,0
-525,-636,0,0,0,0,0,0,0,0,0,-1,699,1660,0,0
-518,-636,0,0,0,0,0,0,0,0,0,-1,706,1660,0,0
-511,-636,0,0,0,0,0,0,0,0,0,-1,713,1660,0,0
-504,-636,0,0,0,0,0,0,0,0,0,-1,720,1660,0,0
-497,-636,0,0,0,0,0,0,0,0,0,-1,727,1660,0,0
-490,-636,0,0,0,0,0,0,0,0,0,-1,734,1660,0,0
-483,-636,0,0,0,0,0,0,0,0,0,-1,741,1660,0,0
-476,-636,0,0,0,0,0,0,0,0,0,-1,748,1660,0,0
-469,-636,0,0,0,0,0,0,0,0,0,-1,755,1660,0,0
-462,-636,0,0,0,0,0,0,0,0,0,-1,762,1660,0,0
-455,-636,0,0,0,0,0,0,0,0,0,-1,769,1660,0,0
-448,-636,0,0,0,0,0,0,0,0,0,-1,776,1660,0,0
-441,-636,0,0,0,0,0,0,0,0,0,-1,783,1660,0,0
-434,-636,0,0,0,0,0,0,0,0,0,-1,790,1660,0,0
-427,-636,0,0,0,0,0,0,0,0,0,-1,797,1660,0,0
-420,-636,0,0,0,0,0,0,0,0,0,-1,804,1660,0,0
-413,-636,0,0,0,0,0,0,0,0,0,-1,811,1660,0,0
-406,-636,-0.591125,10.6943,0,0,0,0,0,0,0,-1,818,1660,-0.59115,-10.6943
-399,-636,0.0766602,11.2408,0,0,0,0,0,0,0,-1,825,1660,0.076685,-11.2409
-392,-636,0.75946,11.9233,0,0,0,0,0,0,0,-1,832,1660,0.759481,-11.9233
-385,-636,1.68878,12.517,0,0,0,0,0,0,0,-1,839,1660,1.6888,-12.5169
-378,-636,2.22107,13.0013,0,0,0,0,0,0,0,-1,846,1660,2.22107,-13.0014
-371,-636,2.52185,11.9684,0,0,0,0,0,0,0,-1,853,1660,2.52184,-11.9684
-364,-636,4.51947,14.8503,0,0,0,0,0,0,0,-1,860,1660,4.51949,-14.8504
-357,-636,4.55682,15.8809,0,0,0,0,0,0,0,-1,867,1660,4.55681,-15.8808
-350,-636,2.63104,14.4946,0,0,0,0,0,0,0,-1,874,1660,2.63102,-14.4946
-343,-636,4.39508,24.307,0,0,0,0,0,0,0,-1,881,1660,4.39508,-24.307
-336,-636,4.38208,24.6985,0.0004119,0.006123,0.00496424,0.00899439,-0.00245949,1.0464,0.00696243,0.0362041,888,1660,4.38207,-24.6985
-329,-636,4.40906,25.1194,0.000964425,0.00585734,0.00427386,0.00833541,-0.00151365,1.04535,0.00612416,0.0202072,895,1660,4.40909,-25.1193
-322,-636,4.42072,25.5643,0.00129607,0.00607133,0.00417054,0.00848935,-0.00112195,1.04537,0.00606822,0.0119682,902,1660,4.42073,-25.5643
-315,-636,4.36151,25.9773,0.0012765,0.00573634,0.00384147,0.00794821,-0.000935366,1.04837,0.00563652,0.0121652,909,1660,4.36153,-25.9773
-308,-636,4.34369,26.394,0.0011961,0.00533224,0.00340808,0.00725064,-0.000722295,1.05811,0.00509163,0.0110241,916,1660,4.34366,-26.3941
-301,-636,4.34503,26.8256,0.00109942,0.00489809,0.00296666,0.00652133,-0.000523816,1.07014,0.00453226,0.0114139,923,1660,4.34504,-26.8255
-294,-636,4.3111,27.2655,0.00104579,0.00461681,0.00262643,0.00600717,-0.000344576,1.08393,0.00412444,0.0145172,930,1660,4.31111,-27.2655
-287,-636,4.28809,27.6248,0.00102354,0.00442355,0.00232938,0.0056073,-0.000160201,1.10063,0.00379273,0.0127721,937,1660,4.28809,-27.6248
-280,-636,4.2879,28.024,0.00102408,0.00433468,0.00210838,0.00535992,-1.156e-06,1.11819,0.00357367,0.012243,944,1660,4.2879,-28.024
-273,-636,4.25873,28.4043,0.00111016,0.00427878,0.00197034,0.00522276,0.00016618,1.12401,0.00342779,0.0120606,951,1660,4.25875,-28.4042
-266,-636,4.26031,28.7941,0.00120889,0.00429462,0.00180485,0.00512618,0.000377322,1.13905,0.00329888,0.0127515,958,1660,4.26034,-28.7941
-259,-636,4.27643,29.2051,0.00135548,0.00435595,0.0017195,0.00513769,0.000573741,1.1441,0.0032508,0.0140878,965,1660,4.27646,-29.2051
-252,-636,4.26654,29.5834,0.00150736,0.00456853,0.00161819,0.00526533,0.000810563,1.16419,0.00327365,0.0109998,972,1660,4.26654,-29.5834
-245,-636,4.26459,29.9731,0.00177246,0.00490126,0.00161213,0.00558326,0.00109046,1.17058,0.00341718,0.0103321,979,1660,4.26457,-29.9732
-238,-636,4.27655,30.3431,0.00224198,0.00514721,0.00160408,0.00585866,0.00153053,1.15334,0.00350869,0.0113935,986,1660,4.27654,-30.3432
-231,-636,4.27856,30.7147,0.00293194,0.00531558,0.00170719,0.0062058,0.00204172,1.09013,0.0036521,0.0112102,993,1660,4.27854,-30.7148
-224,-636,4.29498,31.0648,0.00350642,0.00539837,0.00171863,0.00641417,0.00249062,1.03698,0.0037339,0.00996597,1000,1660,4.29498,-31.0648
-217,-636,4.28198,31.4664,0.00425283,0.00599011,0.00163705,0.0069747,0.00326824,1.02932,0.0040295,0.0180246,1007,1660,4.28199,-31.4664
-210,-636,4.28058,31.8232,0.00504897,0.00625801,0.000556281,0.00647501,0.00483197,1.19886,0.00388653,0.0308597,1014,1660,4.28055,-31.8233
-203,-636,4.2428,32.2285,0,0,0,0,0,0,0,-1,1021,1660,4.24284,-32.2285
-196,-636,4.46606,32.5012,0.00774569,0.00589477,-0.00176164,0.00881017,0.0048303,-0.543541,0.00509444,0.03728,1028,1660,4.46608,-32.5013
-189,-636,4.48145,32.775,0.00934109,0.00554201,-0.0035912,0.0115042,0.00337892,-0.542132,0.00682778,0.0337879,1035,1660,4.48141,-32.775
-182,-636,4.67981,33.042,0.0108961,0.00550692,-0.00549245,0.0143193,0.00208368,-0.55735,0.00893303,0.0453748,1042,1660,4.67982,-33.0419
-175,-636,4.83533,33.2289,0,0,0,0,0,0,0,-1,1049,1660,4.83529,-33.2289
-168,-636,3.67114,34.0291,0,0,0,0,0,0,0,-1,1056,1660,3.67116,-34.029
-161,-636,3.98669,34.2012,0,0,0,0,0,0,0,-1,1063,1660,3.98674,-34.2011
-154,-636,4.65894,34.1726,0,0,0,0,0,0,0,-1,1070,1660,4.65898,-34.1726
-147,-636,4.32129,31.4845,0,0,0,0,0,0,0,-1,1077,1660,4.32127,-31.4845
-140,-636,3.4729,27.1271,0,0,0,0,0,0,0,-1,1084,1660,3.47287,-27.1271
-133,-636,4.68311,18.0922,0,0,0,0,0,0,0,-1,1091,1660,4.68316,-18.0921
-126,-636,3.79028,18.2225,0,0,0,0,0,0,0,-1,1098,1660,3.79025,-18.2226
-119,-636,1.8667,13.8916,0,0,0,0,0,0,0,-1,1105,1660,1.86668,-13.8916
-112,-636,-1.24963,9.7998,0,0,0,0,0,0,0,-1,1112,1660,-1.24968,-9.79978
-105,-636,3.51624,4.72791,0,0,0,0,0,0,0,-1,1119,1660,3.51618,-4.7279
-98,-636,1.54504,5.11914,0,0,0,0,0,0,0,-1,1126,1660,1.54503,-5.11912
-91,-636,-1.87964,-2.25012,0,0,0,0,0,0,0,-1,1133,1660,-1.87966,2.25016
-84,-636,-2.84143,0.133667,0,0,0,0,0,0,0,-1,1140,1660,-2.84144,-0.133701
-77,-636,-3.57349,2.45935,0,0,0,0,0,0,0,-1,1147,1660,-3.57345,-2.45939
-70,-636,-4.23682,4.82312,0,0,0,0,0,0,0,-1,1154,1660,-4.23681,-4.82307
-63,-636,-2.21033,6.97168,0,0,0,0,0,0,0,-1,1161,1660,-2.21034,-6.97165
-56,-636,-2.51917,8.80359,0,0,0,0,0,0,0,-1,1168,1660,-2.51916,-8.80361
-49,-636,-3.13,10.4113,0,0,0,0,0,0,0,-1,1175,1660,-3.12996,-10.4112
-42,-636,-2.27771,4.90173,0,0,0,0,0,0,0,-1,1182,1660,-2.27775,-4.90173
-35,-636,-2.27698,5.89685,0,0,0,0,0,0,0,-1,1189,1660,-2.27695,-5.89686
-28,-636,-1.70654,4.83936,0,0,0,0,0,0,0,-1,1196,1660,-1.70656,-4.8393
-21,-636,4.24683,27.7834,0,0,0,0,0,0,0,-1,1203,1660,4.24687,-27.7835
-14,-636,8.75024,41.4883,0,0,0,0,0,0,0,-1,1210,1660,8.75021,-41.4883
-7,-636,7.44324,41.5133,-0.0799484,0.0654183,-0.0220906,0.0687012,-0.0832313,-1.42327,0.0878519,0.0499189,1217,1660,7.4432,-41.5133
0,-636,6.07629,41.5638,-0.0447438,0.05401,-0.0205178,0.0581033,-0.0488371,-1.37388,0.0618192,0.0446501,1224,1660,6.07626,-41.5638
7,-636,4.69434,41.7744,-0.0134754,0.045301,-0.0161833,0.0494623,-0.0176366,-1.31912,0.0401658,0.0448201,1231,1660,4.69434,-41.7744
14,-636,5.4353,41.5198,0.0159683,0.0391153,-0.0121798,0.0443434,0.0107402,-1.16534,0.0267119,0.0438231,1238,1660,5.43532,-41.5198
21,-636,5.92969,41.1454,0.0384341,0.0579301,-0.00803217,0.060813,0.0355513,-1.2262,0.0352775,0.0449197,1245,1660,5.92966,-41.1453
28,-636,6.38,40.9004,0.0517658,0.0870576,0.00156739,0.087127,0.0516963,1.5265,0.0505942,0.046642,1252,1660,6.38005,-40.9004
35,-636,6.67896,40.1049,0.0579475,0.119382,0.0101191,0.121006,0.0563236,1.41168,0.0699184,0.0440709,1259,1660,6.67891,-40.1048
42,-636,7.07166,45.4337,0.0557524,0.154517,0.01952,0.158235,0.0520344,1.38258,0.0931239,0.0473391,1266,1660,7.07165,-45.4337
49,-636,7.56543,46.6981,0.0481014,0.185536,0.0281233,0.191069,0.0425692,1.37656,0.115827,0.0486557,1273,1660,7.56549,-46.6981
56,-636,8.1012,47.7639,0,0,0,0,0,0,0,-1,1280,1660,8.10119,-47.7639
63,-636,10.3933,48.0892,0.0191088,0.25538,0.0486125,0.264991,0.00949778,1.37561,0.173581,0.0458797,1287,1660,10.3933,-48.0892
70,-636,11.5889,49.047,-0.00140995,0.278485,0.0584047,0.290183,-0.0131081,1.37312,0.197969,0.0476488,1294,1660,11.5889,-49.047
77,-636,8.21484,48.403,-0.0213473,0.297956,0.0685085,0.312034,-0.0354255,1.36812,0.220781,0.0471515,1301,1660,8.21489,-48.403
84,-636,6.77771,48.6066,-0.0445802,0.312819,0.0768709,0.328651,-0.0604126,1.36768,0.241768,0.0455008,1308,1660,6.77777,-48.6066
91,-636,5.61438,48.8479,-0.0677906,0.320056,0.083362,0.337214,-0.084949,1.3678,0.257834,0.0396857,1315,1660,5.61439,-48.8479
98,-636,4.5293,49.1776,-0.0870715,0.321977,0.088782,0.340416,-0.10551,1.36602,0.269099,0.0448206,1322,1660,4.52932,-49.1777
105,-636,3.50598,49.5314,0,0,0,0,0,0,0,-1,1329,1660,3.50597,-49.5314
112,-636,-0.197632,55.7617,-0.101914,0.291338,0.095985,0.313515,-0.124091,1.34373,0.260423,0.0450687,1336,1660,-0.197578,-55.7617
119,-636,-1.01123,56.9867,-0.0957029,0.285254,0.0980212,0.308996,-0.119444,1.33316,0.255302,0.0467902,1343,1660,-1.01119,-56.9866
126,-636,-1.79968,58.1226,-0.07605,0.27354,0.10277,0.301513,-0.104023,1.30504,0.243215,0.049019,1350,1660,-1.79966,-58.1226
133,-636,-2.64001,59.2581,0,0,0,0,0,0,0,-1,1357,1660,-2.64003,-59.2581
140,-636,14.5134,39.0264,0,0,0,0,0,0,0,-1,1364,1660,14.5134,-39.0264
147,-636,17.6116,39.1437,0,0,0,0,0,0,0,-1,1371,1660,17.6115,-39.1437
154,-636,19.6548,40.0386,0,0,0,0,0,0,0,-1,1378,1660,19.6548,-40.0385
161,-636,10.2961,7.13025,0,0,0,0,0,0,0,-1,1385,1660,10.2961,-7.13021
168,-636,11.7659,5.83899,0,0,0,0,0,0,0,-1,1392,1660,11.7658,-5.83899
175,-636,5.94592,-1.72888,0,0,0,0,0,0,0,-1,1399,1660,5.94598,1.72886
182,-636,5.93994,-1.11938,0,0,0,0,0,0,0,-1,1406,1660,5.93998,1.11936
189,-636,5.32544,11.9595,0,0,0,0,0,0,0,-1,1413,1660,5.32542,-11.9595
196,-636,5.3623,9.38025,0,0,0,0,0,0,0,-1,1420,1660,5.36225,-9.38027
203,-636,5.18542,9.02429,0,0,0,0,0,0,0,-1,1427,1660,5.18547,-9.0243
210,-636,4.09167,7.17041,0,0,0,0,0,0,0,-1,1434,1660,4.09173,-7.17041
217,-636,2.94897,5.28992,0,0,0,0,0,0,0,-1,1441,1660,2.94899,-5.28991
224,-636,1.49194,3.63916,0,0,0,0,0,0,0,-1,1448,1660,1.49197,-3.63918
231,-636,0.17749,2.24854,0,0,0,0,0,0,0,-1,1455,1660,0.177501,-2.24855
238,-636,-0.764648,1.00598,0,0,0,0,0,0,0,-1,1462,1660,-0.764704,-1.00595
245,-636,6.21204,1.18005,0,0,0,0,0,0,0,-1,1469,1660,6.21206,-1.18001
252,-636,7.70251,0.865723,0,0,0,0,0,0,0,-1,1476,1660,7.7025,-0.865692
259,-636,9.03601,0.787231,0,0,0,0,0,0,0,-1,1483,1660,9.03598,-0.787243
266,-636,10.1071,3.24109,0,0,0,0,0,0,0,-1,1490,1660,10.1071,-3.24103
273,-636,8.48535,5.02466,0,0,0,0,0,0,0,-1,1497,1660,8.48533,-5.02472
280,-636,11.908,32.0698,0,0,0,0,0,0,0,-1,1504,1660,11.9079,-32.0698
287,-636,10.7062,34.8733,0,0,0,0,0,0,0,-1,1511,1660,10.7061,-34.8733
294,-636,10.8181,34.7438,0,0,0,0,0,0,0,-1,1518,1660,10.8182,-34.7438
301,-636,8.25903,23.0582,0,0,0,0,0,0,0,-1,1525,1660,8.25903,-23.0583
308,-636,10.9009,34.2501,0,0,0,0,0,0,0,-1,1532,1660,10.9009,-34.2501
315,-636,11.0681,33.7574,0,0,0,0,0,0,0,-1,1539,1660,11.0682,-33.7575
322,-636,11.1056,32.8409,0,0,0,0,0,0,0,-1,1546,1660,11.1056,-32.841
329,-636,11.2941,32.6179,0.011427,0.0115531,-0.00510243,0.0165929,0.00638725,-0.791577,0.0096641,0.0359244,1553,1660,11.2941,-32.6179
336,-636,11.3162,32.3682,0.0110535,0.0116901,-0.00541876,0.0167999,0.00594369,-0.814735,0.00983668,0.0252547,1560,1660,11.3161,-32.3682
343,-636,11.2496,32.1619,0.0106314,0.0111206,-0.00587369,0.0167548,0.00499724,-0.806208,0.00993239,0.0220405,1567,1660,11.2496,-32.1619
350,-636,11.2146,31.7902,0.0101175,0.0104455,-0.00603567,0.0163194,0.00424361,-0.798978,0.00977703,0.0119758,1574,1660,11.2146,-31.7901
357,-636,11.2759,31.4126,0.0094697,0.0100656,-0.00587041,0.0156456,0.00388969,-0.810755,0.00940587,0.0101446,1581,1660,11.2759,-31.4126
364,-636,11.2927,31.0774,0.00861268,0.00930312,-0.00546808,0.0144369,0.00347893,-0.816923,0.00869997,0.0109325,1588,1660,11.2927,-31.0774
371,-636,11.2937,30.7421,0.00759597,0.00838333,-0.0049085,0.0129139,0.00306539,-0.825414,0.00779115,0.0101805,1595,1660,11.2937,-30.7421
378,-636,11.308,30.3865,0.00644973,0.00733505,-0.00418932,0.011105,0.00267975,-0.838035,0.00669142,0.0102263,1602,1660,11.3079,-30.3864
385,-636,11.3187,30.0326,0.00529344,0.00600797,-0.00340926,0.00907863,0.00222277,-0.837604,0.00546433,0.0147654,1609,1660,11.3187,-30.0326
392,-636,11.2892,29.6924,0.00409213,0.0044104,-0.00252391,0.00678019,0.00172234,-0.816881,0.00406938,0.0150091,1616,1660,11.2892,-29.6924
399,-636,11.2604,29.3336,0.00285349,0.00277189,-0.00157974,0.00439295,0.00123242,-0.772488,0.00261644,0.0115181,1623,1660,11.2604,-29.3336
406,-636,11.2776,28.974,0.00173938,0.00136134,-0.000718672,0.00229348,0.000807246,-0.656802,0.00134334,0.014153,1630,1660,11.2776,-28.974
413,-636,11.2859,28.5979,0.000893044,0.000205906,-0.000101785,0.000907804,0.000191146,-0.144009,0.000552619,0.0222865,1637,1660,11.2859,-28.5979
420,-636,11.2351,28.2429,0.000295274,-0.00076612,0.00031496,0.000381699,-0.000852544,0.267807,0.00072967,0.0224864,1644,1660,11.2351,-28.243
427,-636,11.2417,27.879,-9.10392e-05,-0.00154894,0.000573484,0.000107509,-0.00174748,0.333298,0.00120243,0.0135357,1651,1660,11.2416,-27.8791
434,-636,11.2405,27.4896,-0.000211136,-0.00200662,0.000543325,-5.95242e-05,-0.00215823,0.272122,0.00141939,0.0115472,1658,1660,11.2405,-27.4896
441,-636,11.2233,27.0876,-0.00013744,-0.00223761,0.000383389,-6.96405e-05,-0.00230541,0.175033,0.00151426,0.0117794,1665,1660,11.2233,-27.0876
448,-636,11.2032,26.6982,9.44098e-06,-0.00244078,0.000177728,2.22656e-05,-0.00245361,0.072033,0.00164321,0.0142703,1672,1660,11.2033,-26.6982
455,-636,11.1638,26.3113,0.000156161,-0.00249986,8.01201e-06,0.000156185,-0.00249989,0.00301651,0.00172102,0.015813,1679,1660,11.1638,-26.3112
462,-636,11.1793,25.8923,0.000264326,-0.00258215,-0.00012173,0.000269523,-0.00258735,-0.0426614,0.0018214,0.0202787,1686,1660,11.1793,-25.8924
469,-636,11.1907,25.4227,0.000253678,-0.00271503,-0.000103779,0.000257301,-0.00271866,-0.0349009,0.00190401,0.0318005,1693,1660,11.1907,-25.4227
476,-636,11.3145,25.149,0,0,0,0,0,0,0,-1,1700,1660,11.3144,-25.149
483,-636,11.3833,24.3958,0,0,0,0,0,0,0,-1,1707,1660,11.3833,-24.3957
490,-636,10.8951,23.9569,0,0,0,0,0,0,0,-1,1714,1660,10.8951,-23.9569
497,-636,9.55579,18.0111,0,0,0,0,0,0,0,-1,1721,1660,9.55574,-18.0111
504,-636,6.26428,19.4268,0,0,0,0,0,0,0,-1,1728,1660,6.26433,-19.4268
511,-636,5.65466,9.23218,0,0,0,0,0,0,0,-1,1735,1660,5.65461,-9.23216
518,-636,6.72791,1.07605,0,0,0,0,0,0,0,-1,1742,1660,6.7279,-1.0761
525,-636,7.04309,0.93335,0,0,0,0,0,0,0,-1,1749,1660,7.04308,-0.933298
532,-636,0,0,0,0,0,0,0,0,0,-1,1756,1660,0,0
539,-636,0,0,0,0,0,0,0,0,0,-1,1763,1660,0,0
546,-636,0,0,0,0,0,0,0,0,0,-1,1770,1660,0,0
553,-636,0,0,0,0,0,0,0,0,0,-1,1777,1660,0,0
560,-636,0,0,0,0,0,0,0,0,0,-1,1784,1660,0,0
567,-636,0,0,0,0,0,0,0,0,0,-1,1791,1660,0,0
574,-636,0,0,0,0,0,0,0,0,0,-1,1798,1660,0,0
581,-636,0,0,0,0,0,0,0,0,0,-1,1805,1660,0,0
588,-636,0,0,0,0,0,0,0,0,0,-1,1812,1660,0,0
595,-636,0,0,0,0,0,0,0,0,0,-1,1819,1660,0,0
602,-636,0,0,0,0,0,0,0,0,0,-1,1826,1660,0,0
609,-636,0,0,0,0,0,0,0,0,0,-1,1833,1660,0,0
616,-636,0,0,0,0,0,0,0,0,0,-1,1840,1660,0,0
623,-636,0,0,0,0,0,0,0,0,0,-1,1847,1660,0,0
630,-636,0,0,0,0,0,0,0,0,0,-1,1854,1660,0,0
637,-636,0,0,0,0,0,0,0,0,0,-1,1861,1660,0,0
644,-636,0,0,0,0,0,0,0,0,0,-1,1868,1660,0,0
651,-636,0,0,0,0,0,0,0,0,0,-1,1875,1660,0,0
658,-636,0,0,0,0,0,0,0,0,0,-1,1882,1660,0,0
665,-636,0,0,0,0,0,0,0,0,0,-1,1889,1660,0,0
672,-636,0,0,0,0,0,0,0,0,0,-1,1896,1660,0,0
679,-636,0,0,0,0,0,0,0,0,0,-1,1903,1660,0,0
686,-636,0,0,0,0,0,0,0,0,0,-1,1910,1660,0,0
693,-636,0,0,0,0,0,0,0,0,0,-1,1917,1660,0,0
700,-636,0,0,0,0,0,0,0,0,0,-1,1924,1660,0,0
707,-636,0,0,0,0,0,0,0,0,0,-1,1931,1660,0,0
714,-636,0,0,0,0,0,0,0,0,0,-1,1938,1660,0,0
721,-636,0,0,0,0,0,0,0,0,0,-1,1945,1660,0,0
728,-636,0,0,0,0,0,0,0,0,0,-1,1952,1660,0,0
735,-636,0,0,0,0,0,0,0,0,0,-1,1959,1660,0,0
742,-636,0,0,0,0,0,0,0,0,0,-1,1966,1660,0,0
749,-636,0,0,0,0,0,0,0,0,0,-1,1973,1660,0,0
756,-636,0,0,0,0,0,0,0,0,0,-1,1980,1660,0,0
763,-636,0,0,0,0,0,0,0,0,0,-1,1987,1660,0,0
770,-636,0,0,0,0,0,0,0,0,0,-1,1994,1660,0,0
777,-636,0,0,0,0,0,0,0,0,0,-1,2001,1660,0,0
784,-636,0,0,0,0,0,0,0,0,0,-1,2008,1660,0,0
791,-636,0,0,0,0,0,0,0,0,0,-1,2015,1660,0,0
798,-636,0,0,0,0,0,0,0,0,0,-1,2022,1660,0,0
805,-636,0,0,0,0,0,0,0,0,0,-1,2029,1660,0,0
812,-636,0,0,0,0,0,0,0,0,0,-1,2036,1660,0,0
-700,-643,0,0,0,0,0,0,0,0,0,-1,524,1667,0,0
-693,-643,0,0,0,0,0,0,0,0,0,-1,531,1667,0,0
-686,-643,0,0,0,0,0,0,0,0,0,-1,538,1667,0,0
-679,-643,0,0,0,0,0,0,0,0,0,-1,545,1667,0,0
-672,-643,0,0,0,0,0,0,0,0,0,-1,552,1667,0,0
-665,-643,0,0,0,0,0,0,0,0,0,-1,559,1667,0,0
-658,-643,0,0,0,0,0,0,0,0,0,-1,566,1667,0,0
-651,-643,0,0,0,0,0,0,0,0,0,-1,573,1667,0,0
-644,-643,0,0,0,0,0,0,0,0,0,-1,580,1667,0,0
-637,-643,0,0,0,0,0,0,0,0,0,-1,587,1667,0,0
-630,-643,0,0,0,0,0,0,0,0,0,-1,594,1667,0,0
-623,-643,0,0,0,0,0,0,0,0,0,-1,601,1667,0,0
-616,-643,0,0,0,0,0,0,0,0,0,-1,608,1667,0,0
-609,-643,0,0,0,0,0,0,0,0,0,-1,615,1667,0,0
-602,-643,0,0,0,0,0,0,0,0,0,-1,622,1667,0,0
-595,-643,0,0,0,0,0,0,0,0,0,-1,629,1667,0,0
-588,-643,0,0,0,0,0,0,0,0,0,-1,636,1667,0,0
-581,-643,0,0,0,0,0,0,0,0,0,-1,643,1667,0,0
-574,-643,0,0,0,0,0,0,0,0,0,-1,650,1667,0,0
-567,-643,0,0,0,0,0,0,0,0,0,-1,657,1667,0,0
-560,-643,0,0,0,0,0,0,0,0,0,-1,664,1667,0,0
-553,-643,0,0,0,0,0,0,0,0,0,-1,671,1667,0,0
-546,-643,0,0,0,0,0,0,0,0,0,-1,678,1667,0,0
-539,-643,0,0,0,0,0,0,0,0,0,-1,685,1667,0,0
-532,-643,0,0,0,0,0,0,0,0,0,-1,692,1667,0,0
-525,-643,0,0,0,0,0,0,0,0,0,-1,699,1667,0,0
-518,-643,0,0,0,0,0,0,0,0,0,-1,706,1667,0,0
-511,-643,0,0,0,0,0,0,0,0,0,-1,713,1667,0,0
-504,-643,0,0,0,0,0,0,0,0,0,-1,720,1667,0,0
-497,-643,0,0,0,0,0,0,0,0,0,-1,727,1667,0,0
-490,-643,0,0,0,0,0,0,0,0,0,-1,734,1667,0,0
-483,-643,0,0,0,0,0,0,0,0,0,-1,741,1667,0,0
-476,-643,0,0,0,0,0,0,0,0,0,-1,748,1667,0,0
-469,-643,0,0,0,0,0,0,0,0,0,-1,755,1667,0,0
-462,-643,0,0,0,0,0,0,0,0,0,-1,762,1667,0,0
-455,-643,0,0,0,0,0,0,0,0,0,-1,769,1667,0,0
-448,-643,0,0,0,0,0,0,0,0,0,-1,776,1667,0,0
-441,-643,0,0,0,0,0,0,0,0,0,-1,783,1667,0,0
-434,-643,0,0,0,0,0,0,0,0,0,-1,790,1667,0,0
-427,-643,0,0,0,0,0,0,0,0,0,-1,797,1667,0,0
-420,-643,0,0,0,0,0,0,0,0,0,-1,804,1667,0,0
-413,-643,0,0,0,0,0,0,0,0,0,-1,811,1667,0,0
-406,-643,0,0,0,0,0,0,0,0,0,-1,818,1667,0,0
-399,-643,0.589417,11.6465,0,0,0,0,0,0,0,-1,825,1667,0.58939,-11.6465
-392,-643,0.865295,12.6523,0,0,0,0,0,0,0,-1,832,1667,0.865315,-12.6523
-385,-643,1.72968,13.2692,0,0,0,0,0,0,0,-1,839,1667,1.72967,-13.2692
-378,-643,2.66522,13.8193,0,0,0,0,0,0,0,-1,846,1667,2.66524,-13.8193
-371,-643,0.466125,3.35095,0,0,0,0,0,0,0,-1,853,1667,0.466148,-3.351
-364,-643,1.69513,9.922,0,0,0,0,0,0,0,-1,860,1667,1.69511,-9.92205
-357,-643,1.14227,10.8429,0,0,0,0,0,0,0,-1,867,1667,1.14228,-10.8429
-350,-643,2.50061,9.96948,0,0,0,0,0,0,0,-1,874,1667,2.50059,-9.96954
-343,-643,2.61505,6.17407,0,0,0,0,0,0,0,-1,881,1667,2.61504,-6.17412
-336,-643,4.8739,24.7338,0,0,0,0,0,0,0,-1,888,1667,4.87389,-24.7337
-329,-643,4.87708,25.1501,0.00184152,0.00876703,0.00590619,0.0121507,-0.00154216,1.05054,0.00866042,0.0429514,895,1667,4.87708,-25.1501
-322,-643,4.8222,25.6006,0.0021506,0.00897267,0.00587614,0.0123561,-0.00123279,1.04837,0.00867754,0.0276582,902,1667,4.8222,-25.6006
-315,-643,4.74579,25.9791,0.00196734,0.00835173,0.00542362,0.0114528,-0.00113378,1.05139,0.00803985,0.0168942,909,1667,4.74577,-25.9791
-308,-643,4.73846,26.3788,0.0016845,0.00762601,0.00481424,0.0103123,-0.0010018,1.06184,0.00723197,0.0121442,916,1667,4.73843,-26.3788
-301,-643,4.75305,26.8165,0.00142126,0.00680676,0.00416744,0.00907571,-0.000847686,1.07223,0.00635192,0.0138142,923,1667,4.75305,-26.8165
-294,-643,4.7113,27.2274,0.00122705,0.00610166,0.00361745,0.00802628,-0.000697566,1.08185,0.00559788,0.0131194,930,1667,4.71133,-27.2274
-287,-643,4.68994,27.6106,0.00106787,0.00551569,0.00313487,0.00713536,-0.000551804,1.09391,0.0049511,0.0110611,937,1667,4.68991,-27.6106
-280,-643,4.68622,28.0098,0.000923159,0.00504506,0.00273116,0.00640563,-0.000437404,1.10862,0.00442343,0.0144346,944,1667,4.68621,-28.0098
-273,-643,4.66431,28.4011,0.000885372,0.00464386,0.00241806,0.00582706,-0.000297828,1.11573,0.00398769,0.0122402,951,1667,4.66433,-28.4012
-266,-643,4.66132,28.7885,0.000893848,0.00429517,0.00207424,0.00527681,-8.77918e-05,1.12878,0.0035475,0.0120719,958,1667,4.66129,-28.7884
-259,-643,4.67395,29.1906,0.000943401,0.00395888,0.00181588,0.00481137,9.0909e-05,1.13187,0.00317771,0.0116888,965,1667,4.67395,-29.1905
-252,-643,4.64447,29.6003,0.000986011,0.00381081,0.00152228,0.00447499,0.000321825,1.15938,0.00288205,0.0121214,972,1667,4.64447,-29.6003
-245,-643,4.6203,29.9867,0.00118519,0.00389578,0.00138184,0.00447603,0.000604945,1.17325,0.00280421,0.0108984,979,1667,4.62031,-29.9868
-238,-643,4.65601,30.3375,0.00161405,0.0039552,0.00129647,0.00453136,0.00103789,1.1526,0.00274124,0.0140261,986,1667,4.65602,-30.3375
-231,-643,4.65033,30.7007,0.00221649,0.00393156,0.0013088,0.00463874,0.00150931,1.07541,0.00273208,0.01094,993,1667,4.6503,-30.7006
-224,-643,4.65161,31.041,0.00273407,0.00393071,0.0012749,0.00474071,0.00192408,1.00479,0.00275317,0.0100663,1000,1667,4.65162,-31.041
-217,-643,4.64813,31.3589,0.0033505,0.00430059,0.00109849,0.00502235,0.00262874,0.989481,0.00290071,0.00941025,1007,1667,4.64813,-31.3589
-210,-643,4.64734,31.7461,0.00407412,0.00453919,0.0002825,0.00467255,0.00394076,1.12974,0.00290203,0.0119668,1014,1667,4.64731,-31.7461
-203,-643,4.63293,32.1759,0.00526152,0.00443223,-0.000410754,0.00543053,0.00426322,-0.390342,0.00330078,0.0160213,1021,1667,4.63299,-32.1759
-196,-643,4.64282,32.499,0.00629781,0.00440257,-0.00134088,0.00699213,0.00370825,-0.477789,0.00403938,0.016654,1028,1667,4.64282,-32.499
-189,-643,4.76306,32.7866,0.00751907,0.00430103,-0.00255314,0.00892791,0.00289219,-0.504229,0.00525996,0.0155404,1035,1667,4.7631,-32.7866
-182,-643,4.87036,33.1174,0.00874659,0.00439246,-0.00385335,0.0109953,0.0021437,-0.528263,0.00673044,0.0207952,1042,1667,4.87041,-33.1174
-175,-643,4.77319,33.5999,0,0,0,0,0,0,0,-1,1049,1667,4.77322,-33.5999
-168,-643,4.53821,33.8834,0.0111833,0.00543821,-0.00669096,0.0155923,0.00102925,-0.582637,0.0100693,0.0397827,1056,1667,4.53824,-33.8835
-161,-643,4.57788,34.0599,0.0126277,0.00614067,-0.00783469,0.0178638,0.00090464,-0.589142,0.0116194,0.0400865,1063,1667,4.57783,-34.0599
-154,-643,4.95508,34.1494,0.0138121,0.00726922,-0.0088578,0.0199833,0.00109806,-0.608503,0.0129717,0.0451817,1070,1667,4.95509,-34.1494
-147,-643,5.24512,34.3466,0,0,0,0,0,0,0,-1,1077,1667,5.24512,-34.3465
-140,-643,4.30322,22.9166,0,0,0,0,0,0,0,-1,1084,1667,4.30327,-22.9167
-133,-643,3.66748,21.6034,0,0,0,0,0,0,0,-1,1091,1667,3.66743,-21.6034
-126,-643,3.13904,17.689,0,0,0,0,0,0,0,-1,1098,1667,3.13909,-17.689
-119,-643,3.76282,14.1458,0,0,0,0,0,0,0,-1,1105,1667,3.76283,-14.1458
-112,-643,3.81458,16.2069,0,0,0,0,0,0,0,-1,1112,1667,3.81463,-16.2069
-105,-643,-2.23413,10.0996,0,0,0,0,0,0,0,-1,1119,1667,-2.23415,-10.0996
-98,-643,3.11035,4.68066,0,0,0,0,0,0,0,-1,1126,1667,3.11041,-4.68071
-91,-643,-1.74146,-2.5885,0,0,0,0,0,0,0,-1,1133,1667,-1.74146,2.58856
-84,-643,-3.07446,-0.199341,0,0,0,0,0,0,0,-1,1140,1667,-3.07449,0.199383
-77,-643,-3.63794,2.81165,0,0,0,0,0,0,0,-1,1147,1667,-3.63791,-2.8117
-70,-643,-3.36938,4.45203,0,0,0,0,0,0,0,-1,1154,1667,-3.36941,-4.452
-63,-643,-3.67822,6.26855,0,0,0,0,0,0,0,-1,1161,1667,-3.67823,-6.26856
-56,-643,-3.95142,8.1073,0,0,0,0,0,0,0,-1,1168,1667,-3.95139,-8.10732
-49,-643,-4.23535,9.90552,0,0,0,0,0,0,0,-1,1175,1667,-4.23537,-9.90557
-42,-643,-4.25195,10.7059,0,0,0,0,0,0,0,-1,1182,1667,-4.25192,-10.706
-35,-643,-4.10986,11.6588,0,0,0,0,0,0,0,-1,1189,1667,-4.10982,-11.6589
-28,-643,-1.38513,5.604,0,0,0,0,0,0,0,-1,1196,1667,-1.3851,-5.60403
-21,-643,1.61011,23.1276,0,0,0,0,0,0,0,-1,1203,1667,1.61011,-23.1275
-14,-643,8.09436,41.1167,0,0,0,0,0,0,0,-1,1210,1667,8.09435,-41.1167
-7,-643,7.13977,40.9861,-0.0595839,0.0589002,-0.0171034,0.0613197,-0.0620034,-1.43027,0.071201,0.0499967,1217,1667,7.13979,-40.986
0,-643,6.00793,40.9662,-0.031957,0.0532517,-0.0149909,0.0558121,-0.0345174,-1.40163,0.0526326,0.0426184,1224,1667,6.00795,-40.9661
7,-643,5.3374,41.2656,-0.0066614,0.0487268,-0.0112451,0.0509228,-0.00885735,-1.37794,0.0372536,0.043196,1231,1667,5.33746,-41.2657
14,-643,5.59912,41.549,0.0170976,0.0486728,-0.00827097,0.0507082,0.0150623,-1.32951,0.0300696,0.0435156,1238,1667,5.59913,-41.549
21,-643,5.80847,41.8563,0.0352597,0.0666293,-0.00473416,0.0673281,0.0345608,-1.42423,0.0388765,0.0448397,1245,1667,5.80846,-41.8564
28,-643,6.06787,42.1666,0.0462145,0.0932432,0.00327281,0.0934699,0.0459879,1.50165,0.0539672,0.0446811,1252,1667,6.06785,-42.1666
35,-643,6.79504,43.0043,0.0506596,0.122204,0.0104905,0.12371,0.0491531,1.42817,0.0719243,0.0414745,1259,1667,6.79498,-43.0043
42,-643,7.51587,44.1736,0.0476493,0.15272,0.0183498,0.155832,0.0445369,1.40278,0.092681,0.043868,1266,1667,7.5159,-44.1736
49,-643,8.33801,45.3438,0.0399726,0.180658,0.0260604,0.185331,0.0353004,1.3934,0.11363,0.0445148,1273,1667,8.33801,-45.3437
56,-643,9.42151,46.3925,0.0291146,0.208954,0.0351042,0.215563,0.0225052,1.3847,0.136825,0.0455097,1280,1667,9.42155,-46.3925
63,-643,10.5321,47.6367,0.0123122,0.241953,0.0435399,0.249931,0.00433417,1.38957,0.165195,0.0441483,1287,1667,10.5321,-47.6367
70,-643,7.65466,41.8375,-0.00748336,0.261826,0.0523107,0.27163,-0.0172873,1.38553,0.187115,0.0472922,1294,1667,7.65464,-41.8376
77,-643,7.68384,47.4796,-0.027332,0.279179,0.0618576,0.291192,-0.0393448,1.37898,0.208484,0.0442376,1301,1667,7.6838,-47.4796
84,-643,6.55615,47.5912,-0.0489784,0.291039,0.0689566,0.304491,-0.0624308,1.37813,0.226688,0.0442074,1308,1667,6.55609,-47.5912
91,-643,5.49524,47.7212,-0.0698687,0.29566,0.0743061,0.310188,-0.0843965,1.37772,0.239924,0.0440056,1315,1667,5.49526,-47.7212
98,-643,4.41846,48.0706,-0.0864018,0.294873,0.0793754,0.310738,-0.102266,1.37353,0.248368,0.0465649,1322,1667,4.4184,-48.0705
105,-643,3.2854,48.5793,0,0,0,0,0,0,0,-1,1329,1667,3.2854,-48.5794
112,-643,2.04102,49.9504,0,0,0,0,0,0,0,-1,1336,1667,2.04103,-49.9505
119,-643,-0.505371,54.7927,0,0,0,0,0,0,0,-1,1343,1667,-0.505425,-54.7927
126,-643,-1.37097,55.8848,0,0,0,0,0,0,0,-1,1350,1667,-1.37094,-55.8847
133,-643,-2.23645,56.9768,0,0,0,0,0,0,0,-1,1357,1667,-2.23645,-56.9768
140,-643,15.0463,39.8296,0,0,0,0,0,0,0,-1,1364,1667,15.0463,-39.8296
147,-643,16.4388,40.3962,0,0,0,0,0,0,0,-1,1371,1667,16.4388,-40.3963
154,-643,17.9347,41.1332,0,0,0,0,0,0,0,-1,1378,1667,17.9347,-41.1332
161,-643,5.57935,26.2754,0,0,0,0,0,0,0,-1,1385,1667,5.57931,-26.2754
168,-643,10.5563,10.9818,0,0,0,0,0,0,0,-1,1392,1667,10.5562,-10.9819
175,-643,5.88525,-1.1698,0,0,0,0,0,0,0,-1,1399,1667,5.88526,1.16977
182,-643,5.80945,-0.418701,0,0,0,0,0,0,0,-1,1406,1667,5.80949,0.418712
189,-643,5.42297,12.9208,0,0,0,0,0,0,0,-1,1413,1667,5.42298,-12.9208
196,-643,5.51953,11.2415,0,0,0,0,0,0,0,-1,1420,1667,5.51948,-11.2414
203,-643,5.60828,9.82153,0,0,0,0,0,0,0,-1,1427,1667,5.60833,-9.82148
210,-643,4.73218,7.58728,0,0,0,0,0,0,0,-1,1434,1667,4.73222,-7.58728
217,-643,3.8031,5.28955,0,0,0,0,0,0,0,-1,1441,1667,3.80305,-5.28955
224,-643,2.96436,2.97095,0,0,0,0,0,0,0,-1,1448,1667,2.96432,-2.97095
231,-643,2.13403,1.08472,0,0,0,0,0,0,0,-1,1455,1667,2.13403,-1.08467
238,-643,1.18152,-0.261963,0,0,0,0,0,0,0,-1,1462,1667,1.18152,0.26192
245,-643,-0.157471,-1.79016,0,0,0,0,0,0,0,-1,1469,1667,-0.157517,1.7901
252,-643,8.08789,0.0202637,0,0,0,0,0,0,0,-1,1476,1667,8.08791,-0.0203056
259,-643,9.02979,-0.46936,0,0,0,0,0,0,0,-1,1483,1667,9.02974,0.46933
266,-643,4.55066,5.17554,0,0,0,0,0,0,0,-1,1490,1667,4.55063,-5.17556
273,-643,10.74,31.432,0,0,0,0,0,0,0,-1,1497,1667,10.7399,-31.4319
280,-643,10.5354,34.7231,0,0,0,0,0,0,0,-1,1504,1667,10.5354,-34.7232
287,-643,10.5209,34.6779,0.0129984,0.0123632,-0.00269797,0.0153974,0.00996418,-0.726806,0.00901707,0.0480384,1511,1667,10.5209,-34.6778
294,-643,10.6211,34.5864,0.0114103,0.0113223,-0.00221043,0.0135772,0.00915543,-0.775456,0.00799602,0.0489915,1518,1667,10.6211,-34.5864
301,-643,10.6644,33.9595,0,0,0,0,0,0,0,-1,1525,1667,10.6644,-33.9594
308,-643,10.7063,33.8094,0.00876527,0.00858197,-0.00130344,0.00998028,0.00736696,-0.750298,0.00597602,0.0482054,1532,1667,10.7063,-33.8095
315,-643,10.7904,33.4078,0.00746161,0.00784287,-0.00100353,0.00867372,0.00663077,-0.87926,0.00523607,0.0390653,1539,1667,10.7904,-33.4078
322,-643,10.907,32.9135,0.00786779,0.00806816,-0.0023635,0.0103336,0.00560236,-0.80658,0.00597316,0.0263981,1546,1667,10.907,-32.9135
329,-643,10.9392,32.6328,0.00790855,0.00803207,-0.00288605,0.010857,0.0050836,-0.796097,0.00627252,0.0170639,1553,1667,10.9392,-32.6329
336,-643,10.8794,32.4099,0.00750487,0.00801121,-0.00308242,0.0108508,0.00466524,-0.826373,0.0062852,0.0129793,1560,1667,10.8794,-32.4099
343,-643,10.8882,32.1224,0.00710021,0.00754816,-0.00346786,0.0107993,0.0038491,-0.817646,0.00632007,0.0132971,1567,1667,10.8882,-32.1224
350,-643,10.9171,31.7405,0.00670133,0.00699267,-0.00370612,0.010556,0.00313802,-0.805041,0.00625925,0.0126947,1574,1667,10.9171,-31.7405
357,-643,10.9238,31.4056,0.0062895,0.00673982,-0.00372336,0.0102448,0.00278449,-0.815598,0.00611676,0.0107528,1581,1667,10.9238,-31.4056
364,-643,10.9307,31.0723,0.00570746,0.00615273,-0.00353593,0.00947302,0.00238716,-0.816838,0.0056891,0.00976497,1588,1667,10.9306,-31.0723
371,-643,10.9335,30.7583,0.00498423,0.00543089,-0.0031955,0.00841085,0.00200426,-0.820286,0.00507289,0.00856113,1595,1667,10.9335,-30.7583
378,-643,10.9376,30.4332,0.00414314,0.00456943,-0.00269959,0.00706428,0.0016483,-0.824794,0.00426754,0.0102582,1602,1667,10.9377,-30.4332
385,-643,10.9691,30.0508,0.00327853,0.00345345,-0.00209685,0.00546466,0.00126731,-0.806241,0.00330274,0.0158925,1609,1667,10.9691,-30.0507
392,-643,10.9351,29.7051,0.00235189,0.00203666,-0.00138538,0.00358859,0.000799956,-0.728758,0.00217534,0.0158744,1616,1667,10.935,-29.7051
399,-643,10.908,29.3872,0.00134853,0.000590505,-0.000611128,0.00168864,0.000250403,-0.507832,0.00105227,0.0131283,1623,1667,10.908,-29.3872
406,-643,10.9103,28.9905,0.0004645,-0.000648989,0.000122225,0.000477758,-0.000662248,0.108053,0.000661049,0.0133164,1630,1667,10.9103,-28.9904
413,-643,10.9375,28.5974,-0.00018757,-0.0016586,0.000656218,6.26147e-05,-0.00190879,0.364241,0.0012939,0.0194624,1637,1667,10.9375,-28.5974
420,-643,10.8929,28.2365,-0.000646089,-0.00245908,0.0010045,-0.000199533,-0.00290564,0.418318,0.00187412,0.0188132,1644,1667,10.893,-28.2365
427,-643,10.8857,27.892,-0.000769389,-0.00303669,0.00108116,-0.000336489,-0.00346959,0.380853,0.00220945,0.0159624,1651,1667,10.8858,-27.892
434,-643,10.88,27.5106,-0.000727964,-0.00333702,0.00102932,-0.000370776,-0.00369421,0.33401,0.00234899,0.0161276,1658,1667,10.88,-27.5106
441,-643,10.8613,27.0956,-0.000571534,-0.00344243,0.00087957,-0.000323487,-0.00369048,0.274871,0.00235989,0.0154994,1665,1667,10.8613,-27.0956
448,-643,10.7532,26.688,-0.000312841,-0.00349303,0.00062536,-0.000194288,-0.00361158,0.187352,0.00234564,0.0217587,1672,1667,10.7532,-26.688
455,-643,10.7035,26.2167,-4.23773e-05,-0.00336508,0.00044687,1.66729e-05,-0.00342413,0.13138,0.00228833,0.0302509,1679,1667,10.7035,-26.2167
462,-643,10.7928,25.83,0.000327744,-0.00302754,0.000190184,0.000338489,-0.00303829,0.0564409,0.00214727,0.0406093,1686,1667,10.7929,-25.8299
469,-643,10.8066,25.4088,0,0,0,0,0,0,0,-1,1693,1667,10.8066,-25.4089
476,-643,10.5598,24.5066,0,0,0,0,0,0,0,-1,1700,1667,10.5598,-24.5065
483,-643,10.4502,24.3062,0,0,0,0,0,0,0,-1,1707,1667,10.4502,-24.3062
490,-643,10.6885,24.1522,0,0,0,0,0,0,0,-1,1714,1667,10.6884,-24.1522
497,-643,10.9073,23.9465,0,0,0,0,0,0,0,-1,1721,1667,10.9074,-23.9465
504,-643,8.05591,19.0656,0,0,0,0,0,0,0,-1,1728,1667,8.0559,-19.0655
511,-643,7.74719,18.1564,0,0,0,0,0,0,0,-1,1735,1667,7.74724,-18.1563
518,-643,7.40564,0.922607,0,0,0,0,0,0,0,-1,1742,1667,7.4057,-0.922598
525,-643,0,0,0,0,0,0,0,0,0,-1,1749,1667,0,0
532,-643,0,0,0,0,0,0,0,0,0,-1,1756,1667,0,0
539,-643,0,0,0,0,0,0,0,0,0,-1,1763,1667,0,0
546,-643,0,0,0,0,0,0,0,0,0,-1,1770,1667,0,0
553,-643,0,0,0,0,0,0,0,0,0,-1,1777,1667,0,0
560,-643,0,0,0,0,0,0,0,0,0,-1,1784,1667,0,0
567,-643,0,0,0,0,0,0,0,0,0,-1,1791,1667,0,0
574,-643,0,0,0,0,0,0,0,0,0,-1,1798,1667,0,0
581,-643,0,0,0,0,0,0,0,0,0,-1,1805,1667,0,0
588,-643,0,0,0,0,0,0,0,0,0,-1,1812,1667,0,0
595,-643,0,0,0,0,0,0,0,0,0,-1,1819,1667,0,0
602,-643,0,0,0,0,0,0,0,0,0,-1,1826,1667,0,0
609,-643,0,0,0,0,0,0,0,0,0,-1,1833,1667,0,0
616,-643,0,0,0,0,0,0,0,0,0,-1,1840,1667,0,0
623,-643,0,0,0,0,0,0,0,0,0,-1,1847,1667,0,0
630,-643,0,0,0,0,0,0,0,0,0,-1,1854,1667,0,0
637,-643,0,0,0,0,0,0,0,0,0,-1,1861,1667,0,0
644,-643,0,0,0,0,0,0,0,0,0,-1,1868,1667,0,0
651,-643,0,0,0,0,0,0,0,0,0,-1,1875,1667,0,0
658,-643,0,0,0,0,0,0,0,0,0,-1,1882,1667,0,0
665,-643,0,0,0,0,0,0,0,0,0,-1,1889,1667,0,0
672,-643,0,0,0,0,0,0,0,0,0,-1,1896,1667,0,0
679,-643,0,0,0,0,0,0,0,0,0,-1,1903,1667,0,0
686,-643,0,0,0,0,0,0,0,0,0,-1,1910,1667,0,0
693,-643,0,0,0,0,0,0,0,0,0,-1,1917,1667,0,0
700,-643,0,0,0,0,0,0,0,0,0,-1,1924,1667,0,0
707,-643,0,0,0,0,0,0,0,0,0,-1,1931,1667,0,0
714,-643,0,0,0,0,0,0,0,0,0,-1,1938,1667,0,0
721,-643,0,0,0,0,0,0,0,0,0,-1,1945,1667,0,0
728,-643,0,0,0,0,0,0,0,0,0,-1,1952,1667,0,0
735,-643,0,0,0,0,0,0,0,0,0,-1,1959,1667,0,0
742,-643,0,0,0,0,0,0,0,0,0,-1,1966,1667,0,0
749,-643,0,0,0,0,0,0,0,0,0,-1,1973,1667,0,0
756,-643,0,0,0,0,0,0,0,0,0,-1,1980,1667,0,0
763,-643,0,0,0,0,0,0,0,0,0,-1,1987,1667,0,0
770,-643,0,0,0,0,0,0,0,0,0,-1,1994,1667,0,0
777,-643,0,0,0,0,0,0,0,0,0,-1,2001,1667,0,0
784,-643,0,0,0,0,0,0,0,0,0,-1,2008,1667,0,0
791,-643,0,0,0,0,0,0,0,0,0,-1,2015,1667,0,0
798,-643,0,0,0,0,0,0,0,0,0,-1,2022,1667,0,0
805,-643,0,0,0,0,0,0,0,0,0,-1,2029,1667,0,0
812,-643,0,0,0,0,0,0,0,0,0,-1,2036,1667,0,0
-700,-650,0,0,0,0,0,0,0,0,0,-1,524,1674,0,0
-693,-650,0,0,0,0,0,0,0,0,0,-1,531,1674,0,0
-686,-650,0,0,0,0,0,0,0,0,0,-1,538,1674,0,0
-679,-650,0,0,0,0,0,0,0,0,0,-1,545,1674,0,0
-672,-650,0,0,0,0,0,0,0,0,0,-1,552,1674,0,0
-665,-650,0,0,0,0,0,0,0,0,0,-1,559,1674,0,0
-658,-650,0,0,0,0,0,0,0,0,0,-1,566,1674,0,0
-651,-650,0,0,0,0,0,0,0,0,0,-1,573,1674,0,0
-644,-650,0,0,0,0,0,0,0,0,0,-1,580,1674,0,0
-637,-650,0,0,0,0,0,0,0,0,0,-1,587,1674,0,0
-630,-650,0,0,0,0,0,0,0,0,0,-1,594,1674,0,0
-623,-650,0,0,0,0,0,0,0,0,0,-1,601,1674,0,0
-616,-650,0,0,0,0,0,0,0,0,0,-1,608,1674,0,0
-609,-650,0,0,0,0,0,0,0,0,0,-1,615,1674,0,0
-602,-650,0,0,0,0,0,0,0,0,0,-1,622,1674,0,0
-595,-650,0,0,0,0,0,0,0,0,0,-1,629,1674,0,0
-588,-650,0,0,0,0,0,0,0,0,0,-1,636,1674,0,0
-581,-650,0,0,0,0,0,0,0,0,0,-1,643,1674,0,0
-574,-650,0,0,0,0,0,0,0,0,0,-1,650,1674,0,0
-567,-650,0,0,0,0,0,0,0,0,0,-1,657,1674,0,0
-560,-650,0,0,0,0,0,0,0,0,0,-1,664,1674,0,0
-553,-650,0,0,0,0,0,0,0,0,0,-1,671,1674,0,0
-546,-650,0,0,0,0,0,0,0,0,0,-1,678,1674,0,0
-539,-650,0,0,0,0,0,0,0,0,0,-1,685,1674,0,0
-532,-650,0,0,0,0,0,0,0,0,0,-1,692,1674,0,0
-525,-650,0,0,0,0,0,0,0,0,0,-1,699,1674,0,0
-518,-650,0,0,0,0,0,0,0,0,0,-1,706,1674,0,0
-511,-650,0,0,0,0,0,0,0,0,0,-1,713,1674,0,0
-504,-650,0,0,0,0,0,0,0,0,0,-1,720,1674,0,0
-497,-650,0,0,0,0,0,0,0,0,0,-1,727,1674,0,0
-490,-650,0,0,0,0,0,0,0,0,0,-1,734,1674,0,0
-483,-650,0,0,0,0,0,0,0,0,0,-1,741,1674,0,0
-476,-650,0,0,0,0,0,0,0,0,0,-1,748,1674,0,0
-469,-650,0,0,0,0,0,0,0,0,0,-1,755,1674,0,0
-462,-650,0,0,0,0,0,0,0,0,0,-1,762,1674,0,0
-455,-650,0,0,0,0,0,0,0,0,0,-1,769,1674,0,0
-448,-650,0,0,0,0,0,0,0,0,0,-1,776,1674,0,0
-441,-650,0,0,0,0,0,0,0,0,0,-1,783,1674,0,0
-434,-650,0,0,0,0,0,0,0,0,0,-1,790,1674,0,0
-427,-650,0,0,0,0,0,0,0,0,0,-1,797,1674,0,0
-420,-650,0,0,0,0,0,0,0,0,0,-1,804,1674,0,0
-413,-650,0,0,0,0,0,0,0,0,0,-1,811,1674,0,0
-406,-650,0,0,0,0,0,0,0,0,0,-1,818,1674,0,0
-399,-650,0,0,0,0,0,0,0,0,0,-1,825,1674,0,0
-392,-650,5.44415,6.85669,0,0,0,0,0,0,0,-1,832,1674,5.44414,-6.85674
-385,-650,1.74451,14.0183,0,0,0,0,0,0,0,-1,839,1674,1.74453,-14.0183
-378,-650,0.997986,4.11108,0,0,0,0,0,0,0,-1,846,1674,0.998006,-4.11113
-371,-650,-1.80096,3.78625,0,0,0,0,0,0,0,-1,853,1674,-1.80094,-3.78625
-364,-650,-2.95679,2.57507,0,0,0,0,0,0,0,-1,860,1674,-2.95681,-2.57506
-357,-650,1.97833,10.8362,0,0,0,0,0,0,0,-1,867,1674,1.97835,-10.8362
-350,-650,-5.30243,0.159912,0,0,0,0,0,0,0,-1,874,1674,-5.30244,-0.159866
-343,-650,-6.21338,-1.4425,0,0,0,0,0,0,0,-1,881,1674,-6.21341,1.44248
-336,-650,4.59857,24.226,0,0,0,0,0,0,0,-1,888,1674,4.59858,-24.2259
-329,-650,4.9104,25.184,0,0,0,0,0,0,0,-1,895,1674,4.9104,-25.184
-322,-650,4.94489,25.5006,0.00328272,0.0129787,0.00809801,0.017569,-0.00130754,1.05512,0.0121719,0.0470203,902,1674,4.94486,-25.5007
-315,-650,4.99432,25.8218,0.00295797,0.0120038,0.00754396,0.0162768,-0.00131502,1.05544,0.0113151,0.0393177,909,1674,4.99433,-25.8218
-308,-650,5.12964,26.2847,0.0024581,0.0108617,0.00673834,0.0146009,-0.00128116,1.06418,0.0101879,0.0228897,916,1674,5.12961,-26.2847
-301,-650,5.16449,26.8329,0.00202762,0.00956689,0.00586021,0.0127652,-0.00117069,1.07121,0.00892599,0.0135041,923,1674,5.16448,-26.8329
-294,-650,5.11511,27.2183,0.00168362,0.00835815,0.00507466,0.0110946,-0.00105279,1.07626,0.00777111,0.0111696,930,1674,5.11513,-27.2183
-287,-650,5.09698,27.6157,0.00137838,0.00730959,0.00438035,0.00963382,-0.000945844,1.08297,0.00675992,0.013934,937,1674,5.09701,-27.6157
-280,-650,5.07166,28.0049,0.00106881,0.00635057,0.00375445,0.00829991,-0.000880537,1.0919,0.00584892,0.0151201,944,1674,5.07164,-28.0049
-273,-650,5.03967,28.412,0.000880018,0.00553643,0.0032214,0.0071829,-0.000766444,1.09831,0.00506345,0.0140134,951,1674,5.0397,-28.412
-266,-650,5.02905,28.8369,0.000768241,0.0047727,0.00266964,0.00610751,-0.000566577,1.10715,0.00427307,0.0117571,958,1674,5.02906,-28.8369
-259,-650,5.04083,29.2249,0.000686909,0.00399685,0.00221143,0.005104,-0.000420246,1.10663,0.00355105,0.0143485,965,1674,5.04084,-29.2248
-252,-650,5.01904,29.6022,0.000582317,0.00345114,0.00170387,0.00424399,-0.000210535,1.13527,0.00290205,0.0126492,972,1674,5.01903,-29.6021
-245,-650,4.9978,29.9685,0.00066513,0.0032655,0.00140431,0.0038791,5.15321e-05,1.15886,0.00256906,0.0122849,979,1674,4.99777,-29.9685
-238,-650,4.9964,30.3295,0.000996439,0.00312208,0.0012173,0.00367524,0.000443277,1.14427,0.00231658,0.0132273,986,1674,4.99643,-30.3294
-231,-650,4.98132,30.7042,0.00147205,0.00290664,0.00112942,0.0035273,0.000851392,1.06831,0.00212536,0.0176375,993,1674,4.98134,-30.7042
-224,-650,4.987,31.0631,0.00190375,0.00284391,0.00104906,0.0035234,0.00122426,0.996034,0.00206555,0.0153825,1000,1674,4.98702,-31.0631
-217,-650,4.98529,31.3988,0.00236187,0.00301382,0.000764838,0.00351925,0.00185644,0.986844,0.00203287,0.0104366,1007,1674,4.98527,-31.3988
-210,-650,5.00549,31.7474,0.00299709,0.00325604,0.00014804,0.00332324,0.00292989,1.1447,0.00209671,0.00936118,1014,1674,5.00552,-31.7474
-203,-650,5.03015,32.0925,0.00399478,0.00325059,-0.000345144,0.00413021,0.00311517,-0.37392,0.00248521,0.0130372,1021,1674,5.03016,-32.0925
-196,-650,5.03076,32.4048,0.00484193,0.00332619,-0.000980309,0.00532316,0.00284496,-0.456339,0.00307576,0.0130375,1028,1674,5.03073,-32.4048
-189,-650,5.03149,32.7325,0.00580635,0.00336946,-0.00179749,0.00675944,0.00241637,-0.487542,0.00395506,0.0115631,1035,1674,5.03144,-32.7326
-182,-650,5.09802,33.0967,0.00679578,0.00349465,-0.0026823,0.00829468,0.00199575,-0.509582,0.00499914,0.010493,1042,1674,5.09802,-33.0967
-175,-650,5.12988,33.3737,0.00777864,0.00376912,-0.00359992,0.00989437,0.00165339,-0.531339,0.00612002,0.0159872,1049,1674,5.12991,-33.3736
-168,-650,5.10425,33.6622,0.00883244,0.00436925,-0.00446157,0.0115894,0.00161229,-0.553502,0.00724884,0.0196314,1056,1674,5.1042,-33.6623
-161,-650,5.08337,33.9912,0.00997244,0.00504504,-0.0050692,0.0131449,0.00187255,-0.5592,0.00821059,0.0264194,1063,1674,5.08338,-33.9912
-154,-650,5.20044,34.2323,0.0109475,0.00613592,-0.00558314,0.0146211,0.00246228,-0.58197,0.00903913,0.0312056,1070,1674,5.20039,-34.2323
-147,-650,5.17249,34.6232,0,0,0,0,0,0,0,-1,1077,1674,5.1725,-34.6232
-140,-650,4.83044,35.3352,0,0,0,0,0,0,0,-1,1084,1674,4.83044,-35.3352
-133,-650,4.57971,35.736,0,0,0,0,0,0,0,-1,1091,1674,4.57965,-35.7359
-126,-650,4.77869,36.5115,0,0,0,0,0,0,0,-1,1098,1674,4.77864,-36.5115
-119,-650,5.16663,20.6232,0,0,0,0,0,0,0,-1,1105,1674,5.16665,-20.6232
-112,-650,3.86292,14.4513,0,0,0,0,0,0,0,-1,1112,1674,3.8629,-14.4513
-105,-650,4.9259,12.0626,0,0,0,0,0,0,0,-1,1119,1674,4.92591,-12.0626
-98,-650,3.3761,6.78003,0,0,0,0,0,0,0,-1,1126,1674,3.37611,-6.78009
-91,-650,3.66809,7.04443,0,0,0,0,0,0,0,-1,1133,1674,3.66806,-7.04439
-84,-650,-3.82666,-1.59521,0,0,0,0,0,0,0,-1,1140,1674,-3.82661,1.59517
-77,-650,-4.70557,1.90198,0,0,0,0,0,0,0,-1,1147,1674,-4.7056,-1.90194
-70,-650,-4.88171,3.81653,0,0,0,0,0,0,0,-1,1154,1674,-4.88176,-3.81651
-63,-650,-5.14612,5.56543,0,0,0,0,0,0,0,-1,1161,1674,-5.14612,-5.56547
-56,-650,-5.38367,7.41101,0,0,0,0,0,0,0,-1,1168,1674,-5.38361,-7.41102
-49,-650,-5.11316,8.23706,0,0,0,0,0,0,0,-1,1175,1674,-5.11317,-8.23708
-42,-650,-4.99487,9.6792,0,0,0,0,0,0,0,-1,1182,1674,-4.99484,-9.67921
-35,-650,-4.77771,11.3369,0,0,0,0,0,0,0,-1,1189,1674,-4.77769,-11.3369
-28,-650,-4.1936,13.1501,0,0,0,0,0,0,0,-1,1196,1674,-4.19358,-13.1501
-21,-650,14.001,37.6479,0,0,0,0,0,0,0,-1,1203,1674,14.0009,-37.6479
-14,-650,7.27942,38.6459,0,0,0,0,0,0,0,-1,1210,1674,7.27944,-38.6458
-7,-650,5.98059,39.775,0,0,0,0,0,0,0,-1,1217,1674,5.98054,-39.775
0,-650,6.23572,40.3486,-0.0186982,0.0496628,-0.0104462,0.0512234,-0.0202589,-1.42249,0.0425414,0.0439625,1224,1674,6.23575,-40.3486
7,-650,6.18701,40.7555,5.13068e-05,0.0482637,-0.007585,0.0494289,-0.00111384,-1.41838,0.03333,0.0442982,1231,1674,6.18704,-40.7555
14,-650,6.7782,39.8885,0,0,0,0,0,0,0,-1,1238,1674,6.77824,-39.8885
21,-650,6.45557,41.2755,0.0321408,0.0686549,-0.00248974,0.0688239,0.0319718,-1.50303,0.0397688,0.045161,1245,1674,6.45556,-41.2755
28,-650,6.57385,41.5541,0.0406331,0.0917658,0.00411449,0.0920947,0.0403041,1.49101,0.0533086,0.0428173,1252,1674,6.57389,-41.5541
35,-650,6.75659,42.0541,0.0435718,0.116551,0.0101011,0.117924,0.0421995,1.43577,0.0689942,0.0448279,1259,1674,6.75658,-42.0541
42,-650,6.97156,42.713,0,0,0,0,0,0,0,-1,1266,1674,6.97152,-42.713
49,-650,8.71558,44.5374,0.032879,0.166163,0.0233339,0.17013,0.028912,1.4024,0.105116,0.0424277,1273,1674,8.71556,-44.5374
56,-650,9.57629,45.8462,0.0226182,0.189763,0.0313048,0.195433,0.0169475,1.39159,0.125023,0.047444,1280,1674,9.57629,-45.8462
63,-650,8.17151,38.8339,0.00739307,0.219096,0.0379932,0.225708,0.000781126,1.39849,0.150212,0.0449566,1287,1674,8.1715,-38.8338
70,-650,7.34558,41.4407,-0.0107566,0.235946,0.0455205,0.244077,-0.0188879,1.39403,0.169365,0.0484496,1294,1674,7.34562,-41.4407
77,-650,6.84473,43.5807,-0.0292065,0.251196,0.0539822,0.261229,-0.0392399,1.38703,0.188598,0.0449445,1301,1674,6.84472,-43.5807
84,-650,6.51587,45.7888,0,0,0,0,0,0,0,-1,1308,1674,6.5159,-45.7889
91,-650,5.31885,46.4519,-0.0662136,0.264265,0.0637231,0.276127,-0.078075,1.38676,0.21489,0.047951,1315,1674,5.31889,-46.452
98,-650,4.01062,47.0593,-0.0796327,0.262915,0.0679981,0.275919,-0.0926372,1.38183,0.221383,0.0492536,1322,1674,4.01058,-47.0593
105,-650,2.94934,47.6136,-0.0877167,0.253383,0.0708885,0.267529,-0.101862,1.37384,0.220301,0.0476844,1329,1674,2.94933,-47.6136
112,-650,1.75745,48.4337,-0.0882295,0.240053,0.0732932,0.255674,-0.10385,1.36082,0.213651,0.0452983,1336,1674,1.75744,-48.4337
119,-650,0.384033,49.0112,-0.0818213,0.226168,0.0754927,0.243677,-0.0993303,1.3429,0.203797,0.0441421,1343,1674,0.384061,-49.0112
126,-650,-1.16699,53.71,-0.0671094,0.210343,0.0787154,0.23112,-0.0878858,1.31274,0.190266,0.0481649,1350,1674,-1.16701,-53.71
133,-650,-2.25415,55.0621,0,0,0,0,0,0,0,-1,1357,1674,-2.25419,-55.0621
140,-650,14.5367,40.9132,0,0,0,0,0,0,0,-1,1364,1674,14.5367,-40.9133
147,-650,14.9404,41.616,0,0,0,0,0,0,0,-1,1371,1674,14.9404,-41.616
154,-650,15.4779,42.4648,0,0,0,0,0,0,0,-1,1378,1674,15.4779,-42.4649
161,-650,4.09106,30.3021,0,0,0,0,0,0,0,-1,1385,1674,4.09104,-30.3021
168,-650,11.2113,7.87231,0,0,0,0,0,0,0,-1,1392,1674,11.2113,-7.87236
175,-650,5.62537,-0.230713,0,0,0,0,0,0,0,-1,1399,1674,5.62538,0.230745
182,-650,5.56006,0.421631,0,0,0,0,0,0,0,-1,1406,1674,5.56,-0.421652
189,-650,4.81543,11.0654,0,0,0,0,0,0,0,-1,1413,1674,4.81542,-11.0654
196,-650,5.39575,11.9077,0,0,0,0,0,0,0,-1,1420,1674,5.39575,-11.9078
203,-650,3.93628,11.8215,0,0,0,0,0,0,0,-1,1427,1674,3.93624,-11.8216
210,-650,5.40955,8.08594,0,0,0,0,0,0,0,-1,1434,1674,5.40958,-8.086
217,-650,5.12451,4.69739,0,0,0,0,0,0,0,-1,1441,1674,5.12451,-4.69738
224,-650,4.79041,1.45813,0,0,0,0,0,0,0,-1,1448,1674,4.79046,-1.45816
231,-650,4.04102,-0.642212,0,0,0,0,0,0,0,-1,1455,1674,4.04101,0.642209
238,-650,3.23022,-1.43396,0,0,0,0,0,0,0,-1,1462,1674,3.23023,1.43394
245,-650,1.65894,-2.55042,0,0,0,0,0,0,0,-1,1469,1674,1.65889,2.55036
252,-650,8.75342,0.355103,0,0,0,0,0,0,0,-1,1476,1674,8.75337,-0.355147
259,-650,5.61255,3.17566,0,0,0,0,0,0,0,-1,1483,1674,5.61257,-3.17572
266,-650,4.00403,6.10229,0,0,0,0,0,0,0,-1,1490,1674,4.00401,-6.10225
273,-650,10.0178,34.8409,0,0,0,0,0,0,0,-1,1497,1674,10.0178,-34.8409
280,-650,10.1642,34.7185,0.0113598,0.00966685,-0.00260484,0.0132523,0.00777439,-0.6283,0.00768939,0.0498938,1504,1674,10.1642,-34.7185
287,-650,10.3682,34.5454,0.010195,0.00901216,-0.00215568,0.0118389,0.00736823,-0.65152,0.00690309,0.0425706,1511,1674,10.3682,-34.5454
294,-650,10.3998,34.3481,0.00900214,0.00830913,-0.00177246,0.0104616,0.00684962,-0.688869,0.00613569,0.0423604,1518,1674,10.3998,-34.3482
301,-650,10.431,33.9736,0.00795913,0.00738806,-0.0014714,0.00917244,0.00617475,-0.689562,0.00540056,0.0358558,1525,1674,10.431,-33.9737
308,-650,10.5164,33.6101,0.00689112,0.00640474,-0.00105069,0.00772639,0.00556946,-0.671673,0.00460358,0.0208401,1532,1674,10.5163,-33.6101
315,-650,10.5326,33.3223,0.0058656,0.00581241,-0.000782114,0.00662157,0.00505644,-0.768404,0.00399618,0.0167796,1539,1674,10.5326,-33.3223
322,-650,10.5581,33.0187,0.0057476,0.00572522,-0.001426,0.00716245,0.00431037,-0.781475,0.00416371,0.013669,1546,1674,10.5581,-33.0187
329,-650,10.5963,32.6431,0.00554554,0.00550008,-0.00171032,0.00723329,0.00381234,-0.778754,0.00417818,0.0161817,1553,1674,10.5963,-32.643
336,-650,10.5963,32.3751,0.00512635,0.00535468,-0.00180985,0.00705396,0.00342706,-0.816897,0.00407315,0.0146062,1560,1674,10.5963,-32.3751
343,-650,10.5895,32.0966,0.00468567,0.00491378,-0.00208195,0.0068848,0.00271466,-0.812763,0.00400444,0.0137831,1567,1674,10.5895,-32.0966
350,-650,10.5973,31.7441,0.00431665,0.00438497,-0.00230869,0.00665975,0.00204186,-0.792795,0.00393972,0.016223,1574,1674,10.5972,-31.7441
357,-650,10.5938,31.4059,0.00396218,0.00405184,-0.00233786,0.0063453,0.00166872,-0.794984,0.00379818,0.0133197,1581,1674,10.5938,-31.4058
364,-650,10.5845,31.0774,0.003479,0.00345316,-0.00219881,0.00566492,0.00126724,-0.782461,0.00343307,0.00913942,1588,1674,10.5844,-31.0774
371,-650,10.5793,30.7449,0.00288024,0.00275768,-0.00192539,0.00474532,0.000892602,-0.76949,0.00291198,0.0109922,1595,1674,10.5793,-30.7449
378,-650,10.5793,30.415,0.00219427,0.00195538,-0.0014978,0.00357738,0.000572273,-0.745609,0.0022189,0.0117687,1602,1674,10.5793,-30.4151
385,-650,10.6057,30.0721,0.00149217,0.000939934,-0.000942118,0.0021978,0.000234306,-0.642848,0.00139368,0.0135577,1609,1674,10.6057,-30.0722
392,-650,10.5845,29.7235,0.00073234,-0.000393527,-0.000281636,0.000798861,-0.000460048,-0.231944,0.000735554,0.0173163,1616,1674,10.5844,-29.7235
399,-650,10.5616,29.37,-0.000110077,-0.00171892,0.000427519,-3.52907e-06,-0.00182547,0.244249,0.00121581,0.0152699,1623,1674,10.5617,-29.37
406,-650,10.5482,28.999,-0.000810076,-0.00283744,0.00111323,-0.000318159,-0.00332936,0.416084,0.00212149,0.0148944,1630,1674,10.5482,-28.999
413,-650,10.5566,28.6144,-0.00128873,-0.003736,0.00163347,-0.000471413,-0.00455333,0.463935,0.00289125,0.0154035,1637,1674,10.5566,-28.6144
420,-650,10.5232,28.2631,-0.00159998,-0.00436606,0.00195891,-0.000585075,-0.00538096,0.478019,0.00340906,0.0157384,1644,1674,10.5232,-28.263
427,-650,10.4957,27.9159,-0.00144326,-0.00477395,0.00186978,-0.000604714,-0.0056125,0.421582,0.00355727,0.0156219,1651,1674,10.4957,-27.9158
434,-650,10.4785,27.559,-0.00120126,-0.00496347,0.00179464,-0.000482502,-0.00568223,0.380939,0.003638,0.0180832,1658,1674,10.4785,-27.559
441,-650,10.4541,27.2273,-0.000919591,-0.0049961,0.00164049,-0.000341421,-0.00557427,0.338845,0.00360776,0.027324,1665,1674,10.4541,-27.2274
448,-650,10.3344,26.7952,-0.000612117,-0.00496248,0.00129702,-0.000254777,-0.00531982,0.26884,0.00346474,0.0449403,1672,1674,10.3343,-26.7951
455,-650,10.2146,26.4102,0,0,0,0,0,0,0,-1,1679,1674,10.2145,-26.4102
462,-650,10.2341,25.8322,0,0,0,0,0,0,0,-1,1686,1674,10.2342,-25.8321
469,-650,10.3394,25.4606,0,0,0,0,0,0,0,-1,1693,1674,10.3393,-25.4606
476,-650,10.0289,24.4348,0,0,0,0,0,0,0,-1,1700,1674,10.0289,-24.4349
483,-650,10.2426,24.5127,0,0,0,0,0,0,0,-1,1707,1674,10.2425,-24.5127
490,-650,10.4818,24.3475,0,0,0,0,0,0,0,-1,1714,1674,10.4818,-24.3475
497,-650,10.4985,20.1362,0,0,0,0,0,0,0,-1,1721,1674,10.4986,-20.1362
504,-650,9.69458,18.7721,0,0,0,0,0,0,0,-1,1728,1674,9.6946,-18.772
511,-650,9.37158,17.7506,0,0,0,0,0,0,0,-1,1735,1674,9.37159,-17.7506
518,-650,0,0,0,0,0,0,0,0,0,-1,1742,1674,0,0
525,-650,0,0,0,0,0,0,0,0,0,-1,1749,1674,0,0
532,-650,0,0,0,0,0,0,0,0,0,-1,1756,1674,0,0
539,-650,0,0,0,0,0,0,0,0,0,-1,1763,1674,0,0
546,-650,0,0,0,0,0,0,0,0,0,-1,1770,1674,0,0
553,-650,0,0,0,0,0,0,0,0,0,-1,1777,1674,0,0
560,-650,0,0,0,0,0,0,0,0,0,-1,1784,1674,0,0
567,-650,0,0,0,0,0,0,0,0,0,-1,1791,1674,0,0
574,-650,0,0,0,0,0,0,0,0,0,-1,1798,1674,0,0
581,-650,0,0,0,0,0,0,0,0,0,-1,1805,1674,0,0
588,-650,0,0,0,0,0,0,0,0,0,-1,1812,1674,0,0
595,-650,0,0,0,0,0,0,0,0,0,-1,1819,1674,0,0
602,-650,0,0,0,0,0,0,0,0,0,-1,1826,1674,0,0
609,-650,0,0,0,0,0,0,0,0,0,-1,1833,1674,0,0
616,-650,0,0,0,0,0,0,0,0,0,-1,1840,1674,0,0
623,-650,0,0,0,0,0,0,0,0,0,-1,1847,1674,0,0
630,-650,0,0,0,0,0,0,0,0,0,-1,1854,1674,0,0
637,-650,0,0,0,0,0,0,0,0,0,-1,1861,1674,0,0
644,-650,0,0,0,0,0,0,0,0,0,-1,1868,1674,0,0
651,-650,0,0,0,0,0,0,0,0,0,-1,1875,1674,0,0
658,-650,0,0,0,0,0,0,0,0,0,-1,1882,1674,0,0
665,-650,0,0,0,0,0,0,0,0,0,-1,1889,1674,0,0
672,-650,0,0,0,0,0,0,0,0,0,-1,1896,1674,0,0
679,-650,0,0,0,0,0,0,0,0,0,-1,1903,1674,0,0
686,-650,0,0,0,0,0,0,0,0,0,-1,1910,1674,0,0
693,-650,0,0,0,0,0,0,0,0,0,-1,1917,1674,0,0
700,-650,0,0,0,0,0,0,0,0,0,-1,1924,1674,0,0
707,-650,0,0,0,0,0,0,0,0,0,-1,1931,1674,0,0
714,-650,0,0,0,0,0,0,0,0,0,-1,1938,1674,0,0
721,-650,0,0,0,0,0,0,0,0,0,-1,1945,1674,0,0
728,-650,0,0,0,0,0,0,0,0,0,-1,1952,1674,0,0
735,-650,0,0,0,0,0,0,0,0,0,-1,1959,1674,0,0
742,-650,0,0,0,0,0,0,0,0,0,-1,1966,1674,0,0
749,-650,0,0,0,0,0,0,0,0,0,-1,1973,1674,0,0
756,-650,0,0,0,0,0,0,0,0,0,-1,1980,1674,0,0
763,-650,0,0,0,0,0,0,0,0,0,-1,1987,1674,0,0
770,-650,0,0,0,0,0,0,0,0,0,-1,1994,1674,0,0
777,-650,0,0,0,0,0,0,0,0,0,-1,2001,1674,0,0
784,-650,0,0,0,0,0,0,0,0,0,-1,2008,1674,0,0
791,-650,0,0,0,0,0,0,0,0,0,-1,2015,1674,0,0
798,-650,0,0,0,0,0,0,0,0,0,-1,2022,1674,0,0
805,-650,0,0,0,0,0,0,0,0,0,-1,2029,1674,0,0
812,-650,0,0,0,0,0,0,0,0,0,-1,2036,1674,0,0
-700,-657,0,0,0,0,0,0,0,0,0,-1,524,1681,0,0
-693,-657,0,0,0,0,0,0,0,0,0,-1,531,1681,0,0
-686,-657,0,0,0,0,0,0,0,0,0,-1,538,1681,0,0
-679,-657,0,0,0,0,0,0,0,0,0,-1,545,1681,0,0
-672,-657,0,0,0,0,0,0,0,0,0,-1,552,1681,0,0
-665,-657,0,0,0,0,0,0,0,0,0,-1,559,1681,0,0
-658,-657,0,0,0,0,0,0,0,0,0,-1,566,1681,0,0
-651,-657,0,0,0,0,0,0,0,0,0,-1,573,1681,0,0
-644,-657,0,0,0,0,0,0,0,0,0,-1,580,1681,0,0
-637,-657,0,0,0,0,0,0,0,0,0,-1,587,1681,0,0
-630,-657,0,0,0,0,0,0,0,0,0,-1,594,1681,0,0
-623,-657,0,0,0,0,0,0,0,0,0,-1,601,1681,0,0
-616,-657,0,0,0,0,0,0,0,0,0,-1,608,1681,0,0
-609,-657,0,0,0,0,0,0,0,0,0,-1,615,1681,0,0
-602,-657,0,0,0,0,0,0,0,0,0,-1,622,1681,0,0
-595,-657,0,0,0,0,0,0,0,0,0,-1,629,1681,0,0
-588,-657,0,0,0,0,0,0,0,0,0,-1,636,1681,0,0
-581,-657,0,0,0,0,0,0,0,0,0,-1,643,1681,0,0
-574,-657,0,0,0,0,0,0,0,0,0,-1,650,1681,0,0
-567,-657,0,0,0,0,0,0,0,0,0,-1,657,1681,0,0
-560,-657,0,0,0,0,0,0,0,0,0,-1,664,1681,0,0
-553,-657,0,0,0,0,0,0,0,0,0,-1,671,1681,0,0
-546,-657,0,0,0,0,0,0,0,0,0,-1,678,1681,0,0
-539,-657,0,0,0,0,0,0,0,0,0,-1,685,1681,0,0
-532,-657,0,0,0,0,0,0,0,0,0,-1,692,1681,0,0
-525,-657,0,0,0,0,0,0,0,0,0,-1,699,1681,0,0
-518,-657,0,0,0,0,0,0,0,0,0,-1,706,1681,0,0
-511,-657,0,0,0,0,0,0,0,0,0,-1,713,1681,0,0
-504,-657,0,0,0,0,0,0,0,0,0,-1,720,1681,0,0
-497,-657,0,0,0,0,0,0,0,0,0,-1,727,1681,0,0
-490,-657,0,0,0,0,0,0,0,0,0,-1,734,1681,0,0
-483,-657,0,0,0,0,0,0,0,0,0,-1,741,1681,0,0
-476,-657,0,0,0,0,0,0,0,0,0,-1,748,1681,0,0
-469,-657,0,0,0,0,0,0,0,0,0,-1,755,1681,0,0
-462,-657,0,0,0,0,0,0,0,0,0,-1,762,1681,0,0
-455,-657,0,0,0,0,0,0,0,0,0,-1,769,1681,0,0
-448,-657,0,0,0,0,0,0,0,0,0,-1,776,1681,0,0
-441,-657,0,0,0,0,0,0,0,0,0,-1,783,1681,0,0
-434,-657,0,0,0,0,0,0,0,0,0,-1,790,1681,0,0
-427,-657,0,0,0,0,0,0,0,0,0,-1,797,1681,0,0
-420,-657,0,0,0,0,0,0,0,0,0,-1,804,1681,0,0
-413,-657,0,0,0,0,0,0,0,0,0,-1,811,1681,0,0
-406,-657,0,0,0,0,0,0,0,0,0,-1,818,1681,0,0
-399,-657,0,0,0,0,0,0,0,0,0,-1,825,1681,0,0
-392,-657,0,0,0,0,0,0,0,0,0,-1,832,1681,0,0
-385,-657,1.09814,6.18896,0,0,0,0,0,0,0,-1,839,1681,1.09814,-6.18894
-378,-657,0.31488,4.46753,0,0,0,0,0,0,0,-1,846,1681,0.31487,-4.46755
-371,-657,-0.519043,2.69421,0,0,0,0,0,0,0,-1,853,1681,-0.519064,-2.69422
-364,-657,-3.42017,4.18323,0,0,0,0,0,0,0,-1,860,1681,-3.42019,-4.18319
-357,-657,-4.41913,2.97168,0,0,0,0,0,0,0,-1,867,1681,-4.41913,-2.97165
-350,-657,-5.42291,1.70276,0,0,0,0,0,0,0,-1,874,1681,-5.42291,-1.70277
-343,-657,-6.51294,0.397339,0,0,0,0,0,0,0,-1,881,1681,-6.51295,-0.397335
-336,-657,7.12177,22.8324,0,0,0,0,0,0,0,-1,888,1681,7.12179,-22.8324
-329,-657,5.7879,24.8416,0,0,0,0,0,0,0,-1,895,1681,5.78791,-24.8416
-322,-657,5.18066,25.2808,0,0,0,0,0,0,0,-1,902,1681,5.18063,-25.2808
-315,-657,5.23169,25.5927,0.00467006,0.0173823,0.0106319,0.0234131,-0.0013608,1.05481,0.0160816,0.045058,909,1681,5.23172,-25.5927
-308,-657,5.224,25.9647,0.00383021,0.0155864,0.00951828,0.0208954,-0.00147871,1.06201,0.0144484,0.039566,916,1681,5.22398,-25.9647
-301,-657,5.55951,26.8575,0.00314886,0.0136872,0.00834602,0.0182882,-0.00145214,1.06697,0.0127039,0.0337644,923,1681,5.55953,-26.8576
-294,-657,5.50165,27.319,0.00256877,0.0118162,0.00725685,0.0157972,-0.00141221,1.06904,0.0110323,0.0203156,930,1681,5.50163,-27.319
-287,-657,5.45563,27.6779,0.00202614,0.0101,0.00624223,0.0134969,-0.00137079,1.07243,0.00948794,0.0134922,937,1681,5.45563,-27.6779
-280,-657,5.43762,28.0192,0.001473,0.00847176,0.00529392,0.0113183,-0.00137359,1.07744,0.00804262,0.0151127,944,1681,5.43762,-28.0192
-273,-657,5.42438,28.439,0.00106813,0.00708321,0.00444733,0.00944447,-0.00129313,1.0827,0.00676866,0.0112008,951,1681,5.42436,-28.439
-266,-657,5.37622,28.8599,0.000785104,0.00577968,0.00361336,0.00767475,-0.00110997,1.08777,0.00552379,0.0146287,958,1681,5.37624,-28.8599
-259,-657,5.36877,29.2299,0.000543532,0.00446393,0.0029048,0.00600805,-0.00100059,1.08221,0.00437718,0.0183349,965,1681,5.36876,-29.2298
-252,-657,5.37683,29.588,0.000282006,0.00343561,0.00215345,0.00452783,-0.000810206,1.10141,0.00332172,0.0128068,972,1681,5.37682,-29.588
-245,-657,5.37024,29.9529,0.000237953,0.00288558,0.00166732,0.00369072,-0.000567187,1.12093,0.0026697,0.0157312,979,1681,5.37021,-29.9529
-238,-657,5.37512,30.3386,0.000459925,0.00247638,0.00135768,0.00315925,-0.000222952,1.10477,0.00218428,0.020642,986,1681,5.37511,-30.3386
-231,-657,5.38129,30.6932,0.000812495,0.00203371,0.0011603,0.00273426,0.000111947,1.02761,0.00178669,0.0212919,993,1681,5.38126,-30.6932
-224,-657,5.36835,31.0659,0.00115583,0.00187432,0.00102395,0.00260022,0.000429938,0.954111,0.00160943,0.0166796,1000,1681,5.36836,-31.0659
-217,-657,5.35449,31.4414,0.00144558,0.00181348,0.000606869,0.00226367,0.000995397,0.932552,0.00131009,0.0101366,1007,1681,5.3545,-31.4414
-210,-657,5.3573,31.7847,0.00198531,0.00205915,0.000134144,0.00216136,0.0018831,0.919693,0.00135769,0.0108347,1014,1681,5.3573,-31.7847
-203,-657,5.34558,32.1144,0.00281339,0.00215276,-0.000209729,0.00287435,0.0020918,-0.282855,0.00171593,0.0124286,1021,1681,5.34553,-32.1144
-196,-657,5.37061,32.4263,0.00349384,0.00233016,-0.000640373,0.00377722,0.00204678,-0.416628,0.00218333,0.0133338,1028,1681,5.37063,-32.4263
-189,-657,5.38464,32.7477,0.00425055,0.00248301,-0.00120073,0.00485768,0.00187587,-0.468151,0.00282871,0.0103934,1035,1681,5.38468,-32.7477
-182,-657,5.37891,33.072,0.0050484,0.00263058,-0.00183009,0.00603283,0.00164616,-0.493512,0.00360085,0.00820386,1042,1681,5.3789,-33.072
-175,-657,5.41052,33.3817,0.0058644,0.0028974,-0.0024321,0.00722974,0.00153207,-0.51154,0.00439899,0.0107076,1049,1681,5.41051,-33.3817
-168,-657,5.38733,33.6956,0.00671636,0.00341969,-0.00295245,0.00844944,0.00168661,-0.530804,0.00516341,0.0125743,1056,1681,5.3873,-33.6955
-161,-657,5.3894,34,0.00760759,0.0040688,-0.0032637,0.00955067,0.00212572,-0.537003,0.00579011,0.0125458,1063,1681,5.38937,-34
-154,-657,5.45984,34.259,0.00840347,0.00510013,-0.0034772,0.0106013,0.00290227,-0.563674,0.00632608,0.0131889,1070,1681,5.4598,-34.259
-147,-657,5.46289,34.5724,0.00903168,0.00638576,-0.00363223,0.0115744,0.00384306,-0.610752,0.006807,0.0276104,1077,1681,5.46289,-34.5724
-140,-657,5.49829,35.2335,0,0,0,0,0,0,0,-1,1084,1681,5.49835,-35.2336
-133,-657,5.12061,35.313,0,0,0,0,0,0,0,-1,1091,1681,5.12062,-35.3129
-126,-657,5.11792,36.1133,0,0,0,0,0,0,0,-1,1098,1681,5.11791,-36.1133
-119,-657,5.33044,36.6213,0,0,0,0,0,0,0,-1,1105,1681,5.33043,-36.6213
-112,-657,4.6051,21.3439,0,0,0,0,0,0,0,-1,1112,1681,4.60512,-21.3438
-105,-657,7.36963,34.7488,0,0,0,0,0,0,0,-1,1119,1681,7.3696,-34.7488
-98,-657,3.78662,8.16785,0,0,0,0,0,0,0,-1,1126,1681,3.78663,-8.16786
-91,-657,3.6521,16.6017,0,0,0,0,0,0,0,-1,1133,1681,3.65215,-16.6017
-84,-657,4.08008,10.4579,0,0,0,0,0,0,0,-1,1140,1681,4.08006,-10.4579
-77,-657,-5.29846,0.396606,0,0,0,0,0,0,0,-1,1147,1681,-5.29842,-0.396573
-70,-657,-4.14893,2.14575,0,0,0,0,0,0,0,-1,1154,1681,-4.14893,-2.1458
-63,-657,-4.1239,3.177,0,0,0,0,0,0,0,-1,1161,1681,-4.12391,-3.17698
-56,-657,-6.40576,5.73987,0,0,0,0,0,0,0,-1,1168,1681,-6.40577,-5.7399
-49,-657,-5.98462,7.54053,0,0,0,0,0,0,0,-1,1175,1681,-5.98466,-7.5405
-42,-657,-5.71948,9.28955,0,0,0,0,0,0,0,-1,1182,1681,-5.71951,-9.2895
-35,-657,-5.44556,11.015,0,0,0,0,0,0,0,-1,1189,1681,-5.44555,-11.015
-28,-657,-1.3446,8.92847,0,0,0,0,0,0,0,-1,1196,1681,-1.34459,-8.92848
-21,-657,7.06494,38.3046,0,0,0,0,0,0,0,-1,1203,1681,7.06488,-38.3046
-14,-657,5.99023,38.8549,0,0,0,0,0,0,0,-1,1210,1681,5.99018,-38.8548
-7,-657,6.21289,39.3704,0,0,0,0,0,0,0,-1,1217,1681,6.21284,-39.3703
0,-657,6.53394,39.9323,-0.00831802,0.0455386,-0.00690899,0.0464108,-0.00919021,-1.44522,0.0344154,0.0442037,1224,1681,6.5339,-39.9322
7,-657,6.8689,39.8167,0.00532186,0.0457846,-0.00489135,0.0463675,0.00473896,-1.45219,0.0294593,0.0464993,1231,1681,6.86892,-39.8166
14,-657,6.97559,39.5717,0.018667,0.0523226,-0.00350187,0.0526831,0.0183065,-1.46821,0.0308847,0.0471342,1238,1681,6.9756,-39.5717
21,-657,7.17957,39.2961,0,0,0,0,0,0,0,-1,1245,1681,7.17954,-39.2962
28,-657,6.87244,40.1953,0.0352116,0.0855509,0.00435708,0.0859252,0.0348372,1.48509,0.0499038,0.0416873,1252,1681,6.87247,-40.1953
35,-657,6.98267,41.5953,0.0369216,0.105951,0.00923788,0.107166,0.0357067,1.44004,0.0630094,0.0430034,1259,1681,6.98266,-41.5953
42,-657,7.13721,42.319,0.0334784,0.126728,0.0145583,0.128948,0.0312584,1.41947,0.0776718,0.0422118,1266,1681,7.13716,-42.319
49,-657,9.0752,43.7229,0,0,0,0,0,0,0,-1,1273,1681,9.07517,-43.7229
56,-657,9.87744,45.52,0,0,0,0,0,0,0,-1,1280,1681,9.87741,-45.52
63,-657,7.52405,40.955,0,0,0,0,0,0,0,-1,1287,1681,7.52402,-40.955
70,-657,7.23962,40.9402,0,0,0,0,0,0,0,-1,1294,1681,7.23969,-40.9402
77,-657,5.99744,41.9498,0,0,0,0,0,0,0,-1,1301,1681,5.99739,-41.9498
84,-657,6.49475,44.6584,-0.0448641,0.227761,0.0500701,0.236666,-0.0537691,1.39479,0.178422,0.0425022,1308,1681,6.49469,-44.6585
91,-657,5.20923,45.2874,-0.059616,0.230637,0.0528968,0.239976,-0.0689556,1.39604,0.187251,0.0447534,1315,1681,5.20923,-45.2874
98,-657,3.71838,46.1051,-0.0701439,0.229771,0.0562817,0.239985,-0.0803578,1.39127,0.192452,0.0470162,1322,1681,3.71839,-46.1051
105,-657,2.31494,47.5272,-0.0764729,0.223001,0.0584455,0.234004,-0.087475,1.38473,0.191925,0.0440246,1329,1681,2.31496,-47.5272
112,-657,1.21655,49.0684,-0.0765934,0.212367,0.0602812,0.224438,-0.0886646,1.37316,0.186349,0.0421549,1336,1681,1.21654,-49.0683
119,-657,0.105591,50.5814,-0.0713582,0.198011,0.0624074,0.211767,-0.0851142,1.35384,0.176527,0.0472742,1343,1681,0.105553,-50.5814
126,-657,-1.01355,51.9359,-0.060002,0.183068,0.064884,0.199303,-0.0762375,1.32561,0.164287,0.0497451,1350,1681,-1.0136,-51.9359
133,-657,-2.09033,53.3101,0,0,0,0,0,0,0,-1,1357,1681,-2.09033,-53.31
140,-657,5.39087,35.3541,0,0,0,0,0,0,0,-1,1364,1681,5.3909,-35.3541
147,-657,14.2131,42.4073,0,0,0,0,0,0,0,-1,1371,1681,14.2131,-42.4073
154,-657,14.5862,42.9543,0,0,0,0,0,0,0,-1,1378,1681,14.5862,-42.9543
161,-657,4.2926,24.9226,0,0,0,0,0,0,0,-1,1385,1681,4.29264,-24.9226
168,-657,5.21643,0.70105,0,0,0,0,0,0,0,-1,1392,1681,5.21648,-0.7011
175,-657,5.52771,0.649048,0,0,0,0,0,0,0,-1,1399,1681,5.52774,-0.649019
182,-657,5.73999,1.02612,0,0,0,0,0,0,0,-1,1406,1681,5.73995,-1.02611
189,-657,5.92126,1.44116,0,0,0,0,0,0,0,-1,1413,1681,5.92126,-1.44115
196,-657,4.92834,9.59021,0,0,0,0,0,0,0,-1,1420,1681,4.9284,-9.59018
203,-657,6.26343,5.16492,0,0,0,0,0,0,0,-1,1427,1681,6.26345,-5.16488
210,-657,3.9856,5.28088,0,0,0,0,0,0,0,-1,1434,1681,3.98555,-5.28084
217,-657,3.95178,5.2843,0,0,0,0,0,0,0,-1,1441,1681,3.95174,-5.28431
224,-657,6.66736,-0.250244,0,0,0,0,0,0,0,-1,1448,1681,6.66737,0.250229
231,-657,6.85498,-1.70752,0,0,0,0,0,0,0,-1,1455,1681,6.855,1.70758
238,-657,5.34143,-2.89819,0,0,0,0,0,0,0,-1,1462,1681,5.34143,2.89813
245,-657,8.66003,-0.102783,0,0,0,0,0,0,0,-1,1469,1681,8.66,0.102824
252,-657,4.78955,0.623779,0,0,0,0,0,0,0,-1,1476,1681,4.7895,-0.623826
259,-657,2.61523,4.31909,0,0,0,0,0,0,0,-1,1483,1681,2.61523,-4.31908
266,-657,5.35437,11.4742,0,0,0,0,0,0,0,-1,1490,1681,5.35441,-11.4742
273,-657,10.2219,35.1025,0,0,0,0,0,0,0,-1,1497,1681,10.2219,-35.1025
280,-657,10.0554,34.8689,0.0087064,0.00690338,-0.00192052,0.00992648,0.0056833,-0.56596,0.00575112,0.0462424,1504,1681,10.0554,-34.8689
287,-657,10.0344,34.51,0.0078477,0.00633901,-0.00156849,0.00883381,0.00535289,-0.561258,0.00513823,0.0392851,1511,1681,10.0344,-34.51
294,-657,10.1927,34.2035,0.006961,0.00585341,-0.0013296,0.00784753,0.00496688,-0.588068,0.00458383,0.0315239,1518,1681,10.1927,-34.2034
301,-657,10.2172,33.9371,0.00614868,0.00522593,-0.00114358,0.00692044,0.00445417,-0.593661,0.00405009,0.0202096,1525,1681,10.2172,-33.9372
308,-657,10.2164,33.6342,0.00534094,0.00456658,-0.000877865,0.00591322,0.00399431,-0.577705,0.00348338,0.0136784,1532,1681,10.2164,-33.6341
315,-657,10.2239,33.3263,0.0045551,0.00408135,-0.000691554,0.00504922,0.00358723,-0.620399,0.00300001,0.0110666,1539,1681,10.2239,-33.3262
322,-657,10.2695,32.985,0.00424041,0.00388371,-0.000998457,0.00507632,0.0030478,-0.697016,0.00295044,0.0131589,1546,1681,10.2696,-32.985
329,-657,10.2664,32.6716,0.00394319,0.00359209,-0.00116525,0.00494604,0.00258924,-0.710635,0.00285665,0.0207062,1553,1681,10.2664,-32.6716
336,-657,10.2625,32.3755,0.00352554,0.00338088,-0.00120687,0.00466225,0.00224417,-0.755467,0.00269238,0.0187234,1560,1681,10.2625,-32.3755
343,-657,10.2728,32.0968,0.00308199,0.00294515,-0.00135005,0.00436535,0.00166179,-0.760079,0.00254415,0.012585,1567,1681,10.2728,-32.0968
350,-657,10.2678,31.7599,0.00272345,0.00243346,-0.0014921,0.00407759,0.00107932,-0.736963,0.00243955,0.0143498,1574,1681,10.2678,-31.7598
357,-657,10.2675,31.4148,0.00235019,0.0019653,-0.00143607,0.00360665,0.000708836,-0.71879,0.00220644,0.0139635,1581,1681,10.2674,-31.4148
364,-657,10.2756,31.0894,0.00188558,0.00128144,-0.00124438,0.00286403,0.000302988,-0.666326,0.0018168,0.0100426,1588,1681,10.2757,-31.0894
371,-657,10.2532,30.7689,0.0013347,0.000521158,-0.000943463,0.00195535,-9.9487e-05,-0.581865,0.00133796,0.0139703,1595,1681,10.2532,-30.7689
378,-657,10.2256,30.4244,0.00071489,-0.000334467,-0.000488666,0.000907206,-0.000526783,-0.374937,0.000837569,0.013667,1602,1681,10.2256,-30.4244
385,-657,10.217,30.0797,8.21682e-05,-0.00135561,0.000113829,9.11243e-05,-0.00136457,0.0785183,0.000941559,0.012377,1609,1681,10.2171,-30.0797
392,-657,10.1891,29.7089,-0.000591991,-0.00272439,0.000806235,-0.00032148,-0.0029949,0.323721,0.00189854,0.0132591,1616,1681,10.1891,-29.7089
399,-657,10.2032,29.3524,-0.0013528,-0.00402425,0.00150956,-0.000672854,-0.0047042,0.423209,0.00293765,0.0126951,1623,1681,10.2032,-29.3524
406,-657,10.2117,28.9966,-0.00194832,-0.00509317,0.00220383,-0.000813457,-0.00622803,0.475536,0.00390918,0.0142008,1630,1681,10.2117,-28.9966
413,-657,10.1902,28.6183,-0.002309,-0.00594534,0.00277056,-0.000813293,-0.00744104,0.495022,0.00471305,0.0140827,1637,1681,10.1902,-28.6183
420,-657,10.1776,28.2323,-0.00252394,-0.00645163,0.00313595,-0.000787676,-0.0081879,0.505654,0.00521591,0.0153127,1644,1681,10.1776,-28.2323
427,-657,10.1333,27.8519,-0.00213454,-0.00672134,0.00295298,-0.000688992,-0.00816689,0.455232,0.00523008,0.0206625,1651,1681,10.1333,-27.8519
434,-657,10.114,27.5341,-0.00170025,-0.00681579,0.00291831,-0.000377461,-0.00813858,0.425571,0.00530438,0.0295248,1658,1681,10.1141,-27.5341
441,-657,10.1714,27.427,-0.00127228,-0.00677553,0.00280859,-9.20314e-05,-0.00795578,0.397821,0.00527344,0.0475407,1665,1681,10.1714,-27.427
448,-657,10.3302,27.2996,0,0,0,0,0,0,0,-1,1672,1681,10.3302,-27.2995
455,-657,9.24011,25.8131,0,0,0,0,0,0,0,-1,1679,1681,9.24015,-25.8131
462,-657,9.90137,25.7837,0,0,0,0,0,0,0,-1,1686,1681,9.90131,-25.7837
469,-657,9.70483,21.9269,0,0,0,0,0,0,0,-1,1693,1681,9.70488,-21.9269
476,-657,8.9519,20.5712,0,0,0,0,0,0,0,-1,1700,1681,8.95194,-20.5712
483,-657,10.0663,21.8628,0,0,0,0,0,0,0,-1,1707,1681,10.0663,-21.8628
490,-657,11.6039,21.2185,0,0,0,0,0,0,0,-1,1714,1681,11.6038,-21.2185
497,-657,9.20862,17.8127,0,0,0,0,0,0,0,-1,1721,1681,9.2086,-17.8127
504,-657,0,0,0,0,0,0,0,0,0,-1,1728,1681,0,0
511,-657,0,0,0,0,0,0,0,0,0,-1,1735,1681,0,0
518,-657,0,0,0,0,0,0,0,0,0,-1,1742,1681,0,0
525,-657,0,0,0,0,0,0,0,0,0,-1,1749,1681,0,0
532,-657,0,0,0,0,0,0,0,0,0,-1,1756,1681,0,0
539,-657,0,0,0,0,0,0,0,0,0,-1,1763,1681,0,0
546,-657,0,0,0,0,0,0,0,0,0,-1,1770,1681,0,0
553,-657,0,0,0,0,0,0,0,0,0,-1,1777,1681,0,0
560,-657,0,0,0,0,0,0,0,0,0,-1,1784,1681,0,0
567,-657,0,0,0,0,0,0,0,0,0,-1,1791,1681,0,0
574,-657,0,0,0,0,0,0,0,0,0,-1,1798,1681,0,0
581,-657,0,0,0,0,0,0,0,0,0,-1,1805,1681,0,0
588,-657,0,0,0,0,0,0,0,0,0,-1,1812,1681,0,0
595,-657,0,0,0,0,0,0,0,0,0,-1,1819,1681,0,0
602,-657,0,0,0,0,0,0,0,0,0,-1,1826,1681,0,0
609,-657,0,0,0,0,0,0,0,0,0,-1,1833,1681,0,0
616,-657,0,0,0,0,0,0,0,0,0,-1,1840,1681,0,0
623,-657,0,0,0,0,0,0,0,0,0,-1,1847,1681,0,0
630,-657,0,0,0,0,0,0,0,0,0,-1,1854,1681,0,0
637,-657,0,0,0,0,0,0,0,0,0,-1,1861,1681,0,0
644,-657,0,0,0,0,0,0,0,0,0,-1,1868,1681,0,0
651,-657,0,0,0,0,0,0,0,0,0,-1,1875,1681,0,0
658,-657,0,0,0,0,0,0,0,0,0,-1,1882,1681,0,0
665,-657,0,0,0,0,0,0,0,0,0,-1,1889,1681,0,0
672,-657,0,0,0,0,0,0,0,0,0,-1,1896,1681,0,0
679,-657,0,0,0,0,0,0,0,0,0,-1,1903,1681,0,0
686,-657,0,0,0,0,0,0,0,0,0,-1,1910,1681,0,0
693,-657,0,0,0,0,0,0,0,0,0,-1,1917,1681,0,0
700,-657,0,0,0,0,0,0,0,0,0,-1,1924,1681,0,0
707,-657,0,0,0,0,0,0,0,0,0,-1,1931,1681,0,0
714,-657,0,0,0,0,0,0,0,0,0,-1,1938,1681,0,0
721,-657,0,0,0,0,0,0,0,0,0,-1,1945,1681,0,0
728,-657,0,0,0,0,0,0,0,0,0,-1,1952,1681,0,0
735,-657,0,0,0,0,0,0,0,0,0,-1,1959,1681,0,0
742,-657,0,0,0,0,0,0,0,0,0,-1,1966,1681,0,0
749,-657,0,0,0,0,0,0,0,0,0,-1,1973,1681,0,0
756,-657,0,0,0,0,0,0,0,0,0,-1,1980,1681,0,0
763,-657,0,0,0,0,0,0,0,0,0,-1,1987,1681,0,0
770,-657,0,0,0,0,0,0,0,0,0,-1,1994,1681,0,0
777,-657,0,0,0,0,0,0,0,0,0,-1,2001,1681,0,0
784,-657,0,0,0,0,0,0,0,0,0,-1,2008,1681,0,0
791,-657,0,0,0,0,0,0,0,0,0,-1,2015,1681,0,0
798,-657,0,0,0,0,0,0,0,0,0,-1,2022,1681,0,0
805,-657,0,0,0,0,0,0,0,0,0,-1,2029,1681,0,0
812,-657,0,0,0,0,0,0,0,0,0,-1,2036,1681,0,0
-700,-664,0,0,0,0,0,0,0,0,0,-1,524,1688,0,0
-693,-664,0,0,0,0,0,0,0,0,0,-1,531,1688,0,0
-686,-664,0,0,0,0,0,0,0,0,0,-1,538,1688,0,0
-679,-664,0,0,0,0,0,0,0,0,0,-1,545,1688,0,0
-672,-664,0,0,0,0,0,0,0,0,0,-1,552,1688,0,0
-665,-664,0,0,0,0,0,0,0,0,0,-1,559,1688,0,0
-658,-664,0,0,0,0,0,0,0,0,0,-1,566,1688,0,0
-651,-664,0,0,0,0,0,0,0,0,0,-1,573,1688,0,0
-644,-664,0,0,0,0,0,0,0,0,0,-1,580,1688,0,0
-637,-664,0,0,0,0,0,0,0,0,0,-1,587,1688,0,0
-630,-664,0,0,0,0,0,0,0,0,0,-1,594,1688,0,0
-623,-664,0,0,0,0,0,0,0,0,0,-1,601,1688,0,0
-616,-664,0,0,0,0,0,0,0,0,0,-1,608,1688,0,0
-609,-664,0,0,0,0,0,0,0,0,0,-1,615,1688,0,0
-602,-664,0,0,0,0,0,0,0,0,0,-1,622,1688,0,0
-595,-664,0,0,0,0,0,0,0,0,0,-1,629,1688,0,0
-588,-664,0,0,0,0,0,0,0,0,0,-1,636,1688,0,0
-581,-664,0,0,0,0,0,0,0,0,0,-1,643,1688,0,0
-574,-664,0,0,0,0,0,0,0,0,0,-1,650,1688,0,0
-567,-664,0,0,0,0,0,0,0,0,0,-1,657,1688,0,0
-560,-664,0,0,0,0,0,0,0,0,0,-1,664,1688,0,0
-553,-664,0,0,0,0,0,0,0,0,0,-1,671,1688,0,0
-546,-664,0,0,0,0,0,0,0,0,0,-1,678,1688,0,0
-539,-664,0,0,0,0,0,0,0,0,0,-1,685,1688,0,0
-532,-664,0,0,0,0,0,0,0,0,0,-1,692,1688,0,0
-525,-664,0,0,0,0,0,0,0,0,0,-1,699,1688,0,0
-518,-664,0,0,0,0,0,0,0,0,0,-1,706,1688,0,0
-511,-664,0,0,0,0,0,0,0,0,0,-1,713,1688,0,0
-504,-664,0,0,0,0,0,0,0,0,0,-1,720,1688,0,0
-497,-664,0,0,0,0,0,0,0,0,0,-1,727,1688,0,0
-490,-664,0,0,0,0,0,0,0,0,0,-1,734,1688,0,0
-483,-664,0,0,0,0,0,0,0,0,0,-1,741,1688,0,0
-476,-664,0,0,0,0,0,0,0,0,0,-1,748,1688,0,0
-469,-664,0,0,0,0,0,0,0,0,0,-1,755,1688,0,0
-462,-664,0,0,0,0,0,0,0,0,0,-1,762,1688,0,0
-455,-664,0,0,0,0,0,0,0,0,0,-1,769,1688,0,0
-448,-664,0,0,0,0,0,0,0,0,0,-1,776,1688,0,0
-441,-664,0,0,0,0,0,0,0,0,0,-1,783,1688,0,0
-434,-664,0,0,0,0,0,0,0,0,0,-1,790,1688,0,0
-427,-664,0,0,0,0,0,0,0,0,0,-1,797,1688,0,0
-420,-664,0,0,0,0,0,0,0,0,0,-1,804,1688,0,0
-413,-664,0,0,0,0,0,0,0,0,0,-1,811,1688,0,0
-406,-664,0,0,0,0,0,0,0,0,0,-1,818,1688,0,0
-399,-664,0,0,0,0,0,0,0,0,0,-1,825,1688,0,0
-392,-664,0,0,0,0,0,0,0,0,0,-1,832,1688,0,0
-385,-664,0,0,0,0,0,0,0,0,0,-1,839,1688,0,0
-378,-664,0,0,0,0,0,0,0,0,0,-1,846,1688,0,0
-371,-664,-1.61676,5.92737,0,0,0,0,0,0,0,-1,853,1688,-1.61675,-5.92735
-364,-664,-3.901,5.87024,0,0,0,0,0,0,0,-1,860,1688,-3.90097,-5.87027
-357,-664,-4.81012,4.53479,0,0,0,0,0,0,0,-1,867,1688,-4.81012,-4.5348
-350,-664,-5.7193,3.19934,0,0,0,0,0,0,0,-1,874,1688,-5.71927,-3.19932
-343,-664,7.80219,22.6451,0,0,0,0,0,0,0,-1,881,1688,7.80219,-22.6451
-336,-664,7.38434,23.2649,0,0,0,0,0,0,0,-1,888,1688,7.38432,-23.2649
-329,-664,5.74603,23.8534,0,0,0,0,0,0,0,-1,895,1688,5.74601,-23.8534
-322,-664,5.51215,24.9127,0,0,0,0,0,0,0,-1,902,1688,5.51215,-24.9128
-315,-664,5.64734,25.2814,0,0,0,0,0,0,0,-1,909,1688,5.64737,-25.2814
-308,-664,5.35028,25.5314,0,0,0,0,0,0,0,-1,916,1688,5.3503,-25.5314
-301,-664,5.92285,26.8973,0,0,0,0,0,0,0,-1,923,1688,5.92285,-26.8973
-294,-664,5.95825,27.2913,0.00414699,0.0168378,0.0104687,0.0227341,-0.00174927,1.05786,0.0157715,0.0442748,930,1688,5.95823,-27.2913
-287,-664,5.88971,27.7567,0.0032419,0.0142076,0.00899911,0.0192626,-0.00181306,1.059,0.0134868,0.0310931,937,1688,5.88969,-27.7567
-280,-664,5.79022,28.087,0.0023212,0.0116675,0.00759345,0.0159106,-0.00192186,1.06124,0.0113023,0.0222213,944,1688,5.7902,-28.087
-273,-664,5.79028,28.4512,0.00158845,0.00951546,0.00630029,0.0129953,-0.00189137,1.06617,0.0093579,0.0170112,951,1688,5.79029,-28.4512
-266,-664,5.73322,28.8694,0.00104531,0.00752543,0.00507884,0.0103097,-0.00173897,1.06933,0.00752012,0.0222183,958,1688,5.73322,-28.8694
-259,-664,5.73004,29.2395,0.000545441,0.00554096,0.00404664,0.00779863,-0.00171223,1.0619,0.0058539,0.0183011,965,1688,5.73004,-29.2395
-252,-664,5.76532,29.6014,6.73311e-05,0.00392502,0.00302519,0.00558396,-0.00159161,1.0692,0.00435131,0.0155744,972,1688,5.76532,-29.6014
-245,-664,5.69696,29.9877,-0.000137463,0.00287701,0.00232161,0.00413774,-0.0013982,1.07331,0.00332407,0.0196125,979,1688,5.69695,-29.9877
-238,-664,5.74017,30.3788,-4.31538e-05,0.0021174,0.00185184,0.00318103,-0.00110678,1.04944,0.00257031,0.0226876,986,1688,5.74015,-30.3788
-231,-664,5.7594,30.725,0.000192279,0.00137335,0.00151454,0.00240841,-0.000842782,0.971288,0.00194828,0.0200882,993,1688,5.75938,-30.7249
-224,-664,5.72675,31.0868,0.000460372,0.00105345,0.001309,0.00209907,-0.000585256,0.896787,0.00162988,0.0145971,1000,1688,5.72677,-31.0868
-217,-664,5.71216,31.436,0.000601077,0.000695377,0.000738272,0.001388,-9.15489e-05,0.817288,0.000957312,0.0105209,1007,1688,5.71216,-31.4361
-210,-664,5.69727,31.7778,0.00107284,0.000905142,0.000378598,0.00137676,0.000601219,0.676422,0.000796995,0.0117934,1014,1688,5.69724,-31.7778
-203,-664,5.66565,32.1202,0.00178837,0.00106739,0.000154252,0.00181999,0.00103578,0.202159,0.00105411,0.0135577,1021,1688,5.66561,-32.1203
-196,-664,5.6925,32.4202,0.00236133,0.0012941,-0.000143748,0.00238035,0.00127508,-0.13157,0.00137546,0.0140527,1028,1688,5.69252,-32.4202
-189,-664,5.71191,32.7502,0.0029707,0.00151322,-0.000556579,0.00315893,0.00132498,-0.326123,0.00183168,0.0103579,1035,1688,5.71186,-32.7503
-182,-664,5.69604,33.0654,0.00361859,0.00169421,-0.00103663,0.00407075,0.00124204,-0.411311,0.00240902,0.00962333,1042,1688,5.69602,-33.0654
-175,-664,5.71643,33.3535,0.0042896,0.00199519,-0.00146658,0.00500436,0.00128042,-0.453491,0.00300188,0.0126753,1049,1688,5.7164,-33.3536
-168,-664,5.72449,33.6503,0.00496406,0.00250053,-0.00181276,0.00592394,0.00154064,-0.486982,0.00354902,0.013357,1056,1688,5.72453,-33.6502
-161,-664,5.70288,33.9454,0.00564643,0.00316216,-0.00199651,0.00675567,0.00205292,-0.507124,0.00399915,0.0106305,1063,1688,5.70291,-33.9455
-154,-664,5.76245,34.2267,0.00626051,0.00417771,-0.00209054,0.00755467,0.00288355,-0.554315,0.00440221,0.0107778,1070,1688,5.7624,-34.2267
-147,-664,5.77124,34.5173,0.00677239,0.00536081,-0.00213464,0.00831489,0.0038183,-0.625737,0.00480593,0.017286,1077,1688,5.77129,-34.5173
-140,-664,5.78613,34.8561,0.00726793,0.00647986,-0.00206024,0.00897148,0.00477632,-0.690911,0.0051833,0.0230366,1084,1688,5.7861,-34.8561
-133,-664,5.83276,35.0745,0,0,0,0,0,0,0,-1,1091,1688,5.83274,-35.0745
-126,-664,5.84082,35.4907,0,0,0,0,0,0,0,-1,1098,1688,5.84087,-35.4908
-119,-664,5.77539,36.0914,0,0,0,0,0,0,0,-1,1105,1688,5.7754,-36.0914
-112,-664,6.34167,36.0393,0,0,0,0,0,0,0,-1,1112,1688,6.34173,-36.0392
-105,-664,6.78137,35.389,0,0,0,0,0,0,0,-1,1119,1688,6.78142,-35.3891
-98,-664,6.87085,36.1941,0,0,0,0,0,0,0,-1,1126,1688,6.87088,-36.1941
-91,-664,5.41931,25.6302,0,0,0,0,0,0,0,-1,1133,1688,5.41932,-25.6302
-84,-664,3.48389,16.6913,0,0,0,0,0,0,0,-1,1140,1688,3.4839,-16.6913
-77,-664,4.52014,11.2122,0,0,0,0,0,0,0,-1,1147,1688,4.5202,-11.2122
-70,-664,4.20374,8.24524,0,0,0,0,0,0,0,-1,1154,1688,4.20379,-8.24519
-63,-664,-4.677,2.40503,0,0,0,0,0,0,0,-1,1161,1688,-4.67702,-2.40498
-56,-664,-4.66504,3.32727,0,0,0,0,0,0,0,-1,1168,1688,-4.6651,-3.32724
-49,-664,-2.54297,3.31848,0,0,0,0,0,0,0,-1,1175,1688,-2.54297,-3.31852
-42,-664,-0.359253,4.38684,0,0,0,0,0,0,0,-1,1182,1688,-0.359261,-4.38685
-35,-664,-0.705566,3.55017,0,0,0,0,0,0,0,-1,1189,1688,-0.705567,-3.55023
-28,-664,-1.54236,10.2538,0,0,0,0,0,0,0,-1,1196,1688,-1.54236,-10.2538
-21,-664,6.79456,38.1381,0,0,0,0,0,0,0,-1,1203,1688,6.79456,-38.1381
-14,-664,7.16663,38.6992,0,0,0,0,0,0,0,-1,1210,1688,7.1666,-38.6992
-7,-664,6.72888,39.6216,0,0,0,0,0,0,0,-1,1217,1688,6.7289,-39.6216
0,-664,6.88159,39.6221,-0.000861213,0.0410427,-0.0042959,0.0414786,-0.00129708,-1.46968,0.0280947,0.0470303,1224,1688,6.88158,-39.6221
7,-664,7.05493,39.4108,0.00889746,0.0420765,-0.00296649,0.0423397,0.00863432,-1.48232,0.0258339,0.0458224,1231,1688,7.05489,-39.4107
14,-664,7.20105,39.207,0.0184348,0.0495979,-0.00210835,0.0497399,0.0182928,-1.50355,0.0290501,0.0473492,1238,1688,7.20099,-39.2071
21,-664,6.71985,39.688,0,0,0,0,0,0,0,-1,1245,1688,6.71986,-39.688
28,-664,6.9375,40.1565,0.0300414,0.0765763,0.00422921,0.0769576,0.0296601,1.4809,0.0448187,0.0416273,1252,1688,6.93755,-40.1565
35,-664,6.19312,40.6028,0.030817,0.0927677,0.00813604,0.0938184,0.0297663,1.44237,0.0553586,0.0448502,1259,1688,6.19313,-40.6027
42,-664,7.55615,41.4796,0.0275431,0.109146,0.0124215,0.110995,0.0256943,1.42304,0.0670927,0.0438935,1266,1688,7.55613,-41.4796
49,-664,6.95386,38.73,0.0216641,0.125032,0.0171734,0.12781,0.0188856,1.4104,0.0796614,0.0439279,1273,1688,6.95386,-38.73
56,-664,7.52563,39.8958,0,0,0,0,0,0,0,-1,1280,1688,7.52562,-39.8958
63,-664,7.82959,40.3254,0.00173912,0.16313,0.0268916,0.167493,-0.00262373,1.40996,0.112547,0.0491295,1287,1688,7.82954,-40.3254
70,-664,7.21912,40.5717,-0.0119925,0.175033,0.0318715,0.180315,-0.0172746,1.40656,0.126363,0.0470479,1294,1688,7.21915,-40.5717
77,-664,6.29126,41.6451,-0.0260335,0.18682,0.0376788,0.193293,-0.0325065,1.40066,0.140953,0.0447995,1301,1688,6.29121,-41.6451
84,-664,6.33203,43.3961,-0.0396577,0.194125,0.0407557,0.201026,-0.046559,1.40305,0.151934,0.0434848,1308,1688,6.33203,-43.3961
91,-664,4.94946,44.4185,-0.0515298,0.196928,0.0425158,0.204002,-0.0586036,1.40593,0.159174,0.0456402,1315,1688,4.94945,-44.4184
98,-664,4.01819,45.4537,0,0,0,0,0,0,0,-1,1322,1688,4.01824,-45.4537
105,-664,2.67554,45.6078,-0.0644731,0.192573,0.0465387,0.20074,-0.0726396,1.39709,0.16351,0.0487076,1329,1688,2.67552,-45.6078
112,-664,1.7533,46.9879,-0.0644538,0.184544,0.0478265,0.193414,-0.0733241,1.38741,0.159119,0.0437273,1336,1688,1.75326,-46.9879
119,-664,0.626953,48.6366,0,0,0,0,0,0,0,-1,1343,1688,0.626912,-48.6366
126,-664,-0.657227,49.9324,0,0,0,0,0,0,0,-1,1350,1688,-0.657196,-49.9323
133,-664,5.8894,36.2731,0,0,0,0,0,0,0,-1,1357,1688,5.88943,-36.273
140,-664,5.94373,36.0288,0,0,0,0,0,0,0,-1,1364,1688,5.94376,-36.0288
147,-664,6.0459,36.001,0,0,0,0,0,0,0,-1,1371,1688,6.04593,-36.001
154,-664,4.76721,26.2594,0,0,0,0,0,0,0,-1,1378,1688,4.76723,-26.2594
161,-664,4.60132,1.56238,0,0,0,0,0,0,0,-1,1385,1688,4.60134,-1.56233
168,-664,5.172,1.25488,0,0,0,0,0,0,0,-1,1392,1688,5.17203,-1.25484
175,-664,5.58313,1.16467,0,0,0,0,0,0,0,-1,1399,1688,5.58317,-1.16466
182,-664,5.74268,1.41113,0,0,0,0,0,0,0,-1,1406,1688,5.74263,-1.41115
189,-664,5.87744,1.87061,0,0,0,0,0,0,0,-1,1413,1688,5.87745,-1.87065
196,-664,6.7594,5.97473,0,0,0,0,0,0,0,-1,1420,1688,6.75943,-5.97478
203,-664,5.38452,5.22034,0,0,0,0,0,0,0,-1,1427,1688,5.38453,-5.2203
210,-664,5.25549,6.45715,0,0,0,0,0,0,0,-1,1434,1688,5.25549,-6.45721
217,-664,5.72009,6.73975,0,0,0,0,0,0,0,-1,1441,1688,5.72014,-6.73972
224,-664,5.05725,7.42908,0,0,0,0,0,0,0,-1,1448,1688,5.05723,-7.42912
231,-664,5.13318,7.60864,0,0,0,0,0,0,0,-1,1455,1688,5.13313,-7.60862
238,-664,4.23193,6.45471,0,0,0,0,0,0,0,-1,1462,1688,4.23197,-6.45476
245,-664,4.42004,6.80896,0,0,0,0,0,0,0,-1,1469,1688,4.4201,-6.80901
252,-664,3.67346,6.85461,0,0,0,0,0,0,0,-1,1476,1688,3.6734,-6.85462
259,-664,4.55823,11.7435,0,0,0,0,0,0,0,-1,1483,1688,4.55826,-11.7435
266,-664,9.59399,34.8538,0,0,0,0,0,0,0,-1,1490,1688,9.59403,-34.8538
273,-664,9.8418,34.9581,0,0,0,0,0,0,0,-1,1497,1688,9.84181,-34.9581
280,-664,9.84534,34.7225,0.0064705,0.00462912,-0.0013266,0.0071646,0.00393502,-0.482048,0.00414316,0.0289786,1504,1688,9.84533,-34.7226
287,-664,9.81116,34.4196,0.00586214,0.00429286,-0.00110475,0.00643254,0.00372246,-0.476616,0.00372913,0.024886,1511,1688,9.81116,-34.4196
294,-664,9.86877,34.1608,0.00523804,0.00405528,-0.000992176,0.00580171,0.00349161,-0.516646,0.00337269,0.0176473,1518,1688,9.86877,-34.1608
301,-664,9.93311,33.8916,0.00464827,0.00368058,-0.00092462,0.00520799,0.00312086,-0.544346,0.00302651,0.011591,1525,1688,9.9331,-33.8915
308,-664,9.94214,33.5928,0.00405632,0.00328008,-0.000810905,0.0045672,0.0027692,-0.562197,0.00265667,0.0106461,1532,1688,9.94219,-33.5928
315,-664,9.93799,33.3068,0.00347527,0.00290153,-0.000728083,0.00397096,0.00240584,-0.597733,0.0023097,0.0113967,1539,1688,9.93802,-33.3068
322,-664,9.96301,33.0177,0.00298199,0.00262652,-0.000803747,0.00362742,0.00198109,-0.676581,0.00209726,0.0150747,1546,1688,9.96296,-33.0177
329,-664,9.95825,32.7268,0.00255667,0.0022255,-0.000874184,0.00328081,0.00150136,-0.691799,0.00189645,0.0181048,1553,1688,9.9582,-32.7269
336,-664,9.95569,32.4269,0.00208988,0.00188393,-0.000855957,0.00284904,0.00112478,-0.725534,0.00165699,0.0152654,1560,1688,9.95568,-32.4269
343,-664,9.95935,32.12,0.0016074,0.00136642,-0.000865822,0.00236108,0.000612744,-0.71626,0.00141475,0.0110059,1567,1688,9.95938,-32.12
350,-664,9.94629,31.785,0.0012264,0.000785914,-0.000895447,0.00192829,8.40217e-05,-0.664813,0.00125846,0.012789,1574,1688,9.9463,-31.7851
357,-664,9.95007,31.4279,0.000809753,0.000116594,-0.000724529,0.00126633,-0.000339982,-0.562308,0.000977459,0.0123914,1581,1688,9.95013,-31.4278
364,-664,9.96179,31.0983,0.000377245,-0.000696983,-0.000463491,0.000549578,-0.000869316,-0.355976,0.000826103,0.0106652,1588,1688,9.96179,-31.0983
371,-664,9.94214,30.7875,-8.18504e-05,-0.00154121,-0.000125741,-7.10955e-05,-0.00155196,-0.0853242,0.00101178,0.0134363,1595,1688,9.94208,-30.7875
378,-664,9.90308,30.4482,-0.00057409,-0.00248439,0.000361105,-0.000508109,-0.00255037,0.180726,0.00155873,0.0123436,1602,1688,9.90314,-30.4482
385,-664,9.87195,30.0988,-0.00103429,-0.00348559,0.00098143,-0.00068977,-0.0038301,0.337597,0.00235736,0.0130963,1609,1688,9.87199,-30.0987
392,-664,9.81885,29.7542,-0.00151518,-0.00485533,0.00169055,-0.000808893,-0.00556162,0.395745,0.00346969,0.0159746,1616,1688,9.81879,-29.7541
399,-664,9.84253,29.3662,-0.00209167,-0.00611359,0.00238726,-0.000981252,-0.007224,0.435374,0.00452452,0.0131592,1623,1688,9.84255,-29.3662
406,-664,9.87207,29.0049,-0.00250332,-0.00714619,0.00309756,-0.000953846,-0.00869566,0.463826,0.00550676,0.0127274,1630,1688,9.87201,-29.0048
413,-664,9.87183,28.6063,-0.00271196,-0.00799329,0.00375664,-0.000760737,-0.00994451,0.479052,0.00639121,0.0146651,1637,1688,9.87178,-28.6064
420,-664,9.88184,28.2821,-0.00282784,-0.00842164,0.00423307,-0.000551132,-0.0106984,0.493459,0.00695581,0.0357255,1644,1688,9.88178,-28.2821
427,-664,9.91956,27.954,0,0,0,0,0,0,0,-1,1651,1688,9.91957,-27.954
434,-664,9.72656,27.4054,0,0,0,0,0,0,0,-1,1658,1688,9.72656,-27.4054
441,-664,9.59082,27.4238,0,0,0,0,0,0,0,-1,1665,1688,9.59078,-27.4238
448,-664,7.27502,19.7417,0,0,0,0,0,0,0,-1,1672,1688,7.27505,-19.7417
455,-664,7.53198,11.3838,0,0,0,0,0,0,0,-1,1679,1688,7.53195,-11.3838
462,-664,4.3147,4.25439,0,0,0,0,0,0,0,-1,1686,1688,4.31467,-4.25435
469,-664,6.05469,7.49341,0,0,0,0,0,0,0,-1,1693,1688,6.05474,-7.49339
476,-664,10.2377,22.7128,0,0,0,0,0,0,0,-1,1700,1688,10.2377,-22.7128
483,-664,8.41895,10.9768,0,0,0,0,0,0,0,-1,1707,1688,8.41897,-10.9769
490,-664,3.90771,13.2842,0,0,0,0,0,0,0,-1,1714,1688,3.90776,-13.2841
497,-664,0,0,0,0,0,0,0,0,0,-1,1721,1688,0,0
504,-664,0,0,0,0,0,0,0,0,0,-1,1728,1688,0,0
511,-664,0,0,0,0,0,0,0,0,0,-1,1735,1688,0,0
518,-664,0,0,0,0,0,0,0,0,0,-1,1742,1688,0,0
525,-664,0,0,0,0,0,0,0,0,0,-1,1749,1688,0,0
532,-664,0,0,0,0,0,0,0,0,0,-1,1756,1688,0,0
539,-664,0,0,0,0,0,0,0,0,0,-1,1763,1688,0,0
546,-664,0,0,0,0,0,0,0,0,0,-1,1770,1688,0,0
553,-664,0,0,0,0,0,0,0,0,0,-1,1777,1688,0,0
560,-664,0,0,0,0,0,0,0,0,0,-1,1784,1688,0,0
567,-664,0,0,0,0,0,0,0,0,0,-1,1791,1688,0,0
574,-664,0,0,0,0,0,0,0,0,0,-1,1798,1688,0,0
581,-664,0,0,0,0,0,0,0,0,0,-1,1805,1688,0,0
588,-664,0,0,0,0,0,0,0,0,0,-1,1812,1688,0,0
595,-664,0,0,0,0,0,0,0,0,0,-1,1819,1688,0,0
602,-664,0,0,0,0,0,0,0,0,0,-1,1826,1688,0,0
609,-664,0,0,0,0,0,0,0,0,0,-1,1833,1688,0,0
616,-664,0,0,0,0,0,0,0,0,0,-1,1840,1688,0,0
623,-664,0,0,0,0,0,0,0,0,0,-1,1847,1688,0,0
630,-664,0,0,0,0,0,0,0,0,0,-1,1854,1688,0,0
637,-664,0,0,0,0,0,0,0,0,0,-1,1861,1688,0,0
644,-664,0,0,0,0,0,0,0,0,0,-1,1868,1688,0,0
651,-664,0,0,0,0,0,0,0,0,0,-1,1875,1688,0,0
658,-664,0,0,0,0,0,0,0,0,0,-1,1882,1688,0,0
665,-664,0,0,0,0,0,0,0,0,0,-1,1889,1688,0,0
672,-664,0,0,0,0,0,0,0,0,0,-1,1896,1688,0,0
679,-664,0,0,0,0,0,0,0,0,0,-1,1903,1688,0,0
686,-664,0,0,0,0,0,0,0,0,0,-1,1910,1688,0,0
693,-664,0,0,0,0,0,0,0,0,0,-1,1917,1688,0,0
700,-664,0,0,0,0,0,0,0,0,0,-1,1924,1688,0,0
707,-664,0,0,0,0,0,0,0,0,0,-1,1931,1688,0,0
714,-664,0,0,0,0,0,0,0,0,0,-1,1938,1688,0,0
721,-664,0,0,0,0,0,0,0,0,0,-1,1945,1688,0,0
728,-664,0,0,0,0,0,0,0,0,0,-1,1952,1688,0,0
735,-664,0,0,0,0,0,0,0,0,0,-1,1959,1688,0,0
742,-664,0,0,0,0,0,0,0,0,0,-1,1966,1688,0,0
749,-664,0,0,0,0,0,0,0,0,0,-1,1973,1688,0,0
756,-664,0,0,0,0,0,0,0,0,0,-1,1980,1688,0,0
763,-664,0,0,0,0,0,0,0,0,0,-1,1987,1688,0,0
770,-664,0,0,0,0,0,0,0,0,0,-1,1994,1688,0,0
777,-664,0,0,0,0,0,0,0,0,0,-1,2001,1688,0,0
784,-664,0,0,0,0,0,0,0,0,0,-1,2008,1688,0,0
791,-664,0,0,0,0,0,0,0,0,0,-1,2015,1688,0,0
798,-664,0,0,0,0,0,0,0,0,0,-1,2022,1688,0,0
805,-664,0,0,0,0,0,0,0,0,0,-1,2029,1688,0,0
812,-664,0,0,0,0,0,0,0,0,0,-1,2036,1688,0,0
-700,-671,0,0,0,0,0,0,0,0,0,-1,524,1695,0,0
-693,-671,0,0,0,0,0,0,0,0,0,-1,531,1695,0,0
-686,-671,0,0,0,0,0,0,0,0,0,-1,538,1695,0,0
-679,-671,0,0,0,0,0,0,0,0,0,-1,545,1695,0,0
-672,-671,0,0,0,0,0,0,0,0,0,-1,552,1695,0,0
-665,-671,0,0,0,0,0,0,0,0,0,-1,559,1695,0,0
-658,-671,0,0,0,0,0,0,0,0,0,-1,566,1695,0,0
-651,-671,0,0,0,0,0,0,0,0,0,-1,573,1695,0,0
-644,-671,0,0,0,0,0,0,0,0,0,-1,580,1695,0,0
-637,-671,0,0,0,0,0,0,0,0,0,-1,587,1695,0,0
-630,-671,0,0,0,0,0,0,0,0,0,-1,594,1695,0,0
-623,-671,0,0,0,0,0,0,0,0,0,-1,601,1695,0,0
-616,-671,0,0,0,0,0,0,0,0,0,-1,608,1695,0,0
-609,-671,0,0,0,0,0,0,0,0,0,-1,615,1695,0,0
-602,-671,0,0,0,0,0,0,0,0,0,-1,622,1695,0,0
-595,-671,0,0,0,0,0,0,0,0,0,-1,629,1695,0,0
-588,-671,0,0,0,0,0,0,0,0,0,-1,636,1695,0,0
-581,-671,0,0,0,0,0,0,0,0,0,-1,643,1695,0,0
-574,-671,0,0,0,0,0,0,0,0,0,-1,650,1695,0,0
-567,-671,0,0,0,0,0,0,0,0,0,-1,657,1695,0,0
-560,-671,0,0,0,0,0,0,0,0,0,-1,664,1695,0,0
-553,-671,0,0,0,0,0,0,0,0,0,-1,671,1695,0,0
-546,-671,0,0,0,0,0,0,0,0,0,-1,678,1695,0,0
-539,-671,0,0,0,0,0,0,0,0,0,-1,685,1695,0,0
-532,-671,0,0,0,0,0,0,0,0,0,-1,692,1695,0,0
-525,-671,0,0,0,0,0,0,0,0,0,-1,699,1695,0,0
-518,-671,0,0,0,0,0,0,0,0,0,-1,706,1695,0,0
-511,-671,0,0,0,0,0,0,0,0,0,-1,713,1695,0,0
-504,-671,0,0,0,0,0,0,0,0,0,-1,720,1695,0,0
-497,-671,0,0,0,0,0,0,0,0,0,-1,727,1695,0,0
-490,-671,0,0,0,0,0,0,0,0,0,-1,734,1695,0,0
-483,-671,0,0,0,0,0,0,0,0,0,-1,741,1695,0,0
-476,-671,0,0,0,0,0,0,0,0,0,-1,748,1695,0,0
-469,-671,0,0,0,0,0,0,0,0,0,-1,755,1695,0,0
-462,-671,0,0,0,0,0,0,0,0,0,-1,762,1695,0,0
-455,-671,0,0,0,0,0,0,0,0,0,-1,769,1695,0,0
-448,-671,0,0,0,0,0,0,0,0,0,-1,776,1695,0,0
-441,-671,0,0,0,0,0,0,0,0,0,-1,783,1695,0,0
-434,-671,0,0,0,0,0,0,0,0,0,-1,790,1695,0,0
-427,-671,0,0,0,0,0,0,0,0,0,-1,797,1695,0,0
-420,-671,0,0,0,0,0,0,0,0,0,-1,804,1695,0,0
-413,-671,0,0,0,0,0,0,0,0,0,-1,811,1695,0,0
-406,-671,0,0,0,0,0,0,0,0,0,-1,818,1695,0,0
-399,-671,0,0,0,0,0,0,0,0,0,-1,825,1695,0,0
-392,-671,0,0,0,0,0,0,0,0,0,-1,832,1695,0,0
-385,-671,0,0,0,0,0,0,0,0,0,-1,839,1695,0,0
-378,-671,0,0,0,0,0,0,0,0,0,-1,846,1695,0,0
-371,-671,0,0,0,0,0,0,0,0,0,-1,853,1695,0,0
-364,-671,-4.18738,7.51416,0,0,0,0,0,0,0,-1,860,1695,-4.18739,-7.51419
-357,-671,-5.02393,6.07129,0,0,0,0,0,0,0,-1,867,1695,-5.0239,-6.07135
-350,-671,-5.72333,4.58386,0,0,0,0,0,0,0,-1,874,1695,-5.72333,-4.58386
-343,-671,8.04773,23.1034,0,0,0,0,0,0,0,-1,881,1695,8.04774,-23.1034
-336,-671,7.64795,23.7375,0,0,0,0,0,0,0,-1,888,1695,7.64792,-23.7375
-329,-671,7.2774,24.0865,0,0,0,0,0,0,0,-1,895,1695,7.27738,-24.0866
-322,-671,6.13654,23.6582,0,0,0,0,0,0,0,-1,902,1695,6.13652,-23.6582
-315,-671,6.04974,25.005,0,0,0,0,0,0,0,-1,909,1695,6.04977,-25.005
-308,-671,6.21075,27.7742,0,0,0,0,0,0,0,-1,916,1695,6.21077,-27.7741
-301,-671,6.65033,27.1775,0,0,0,0,0,0,0,-1,923,1695,6.65033,-27.1775
-294,-671,6.37286,27.2122,0,0,0,0,0,0,0,-1,930,1695,6.37287,-27.2122
-287,-671,6.4826,27.6356,0.0053121,0.0200565,0.012972,0.0276048,-0.0022362,1.0438,0.019192,0.0451528,937,1695,6.4826,-27.6356
-280,-671,6.43817,28.0118,0.00383798,0.0162298,0.0108848,0.0225587,-0.00249084,1.04414,0.0159344,0.040278,944,1695,6.43816,-28.0118
-273,-671,6.34375,28.4264,0.00261266,0.0130282,0.00893796,0.0181649,-0.00252405,1.04918,0.013033,0.036306,951,1695,6.34374,-28.4264
-266,-671,6.23956,28.9264,0.00167302,0.0101282,0.00716836,0.0142227,-0.00242153,1.05182,0.0103835,0.0258138,958,1695,6.23957,-28.9264
-259,-671,6.11627,29.2502,0.00080794,0.00729213,0.00567822,0.0105886,-0.00248857,1.0448,0.00801839,0.0213877,965,1695,6.11624,-29.2503
-252,-671,6.1001,29.6205,3.4742e-05,0.00494552,0.00428979,0.00743293,-0.00245267,1.04533,0.00594398,0.0161893,972,1695,6.10012,-29.6205
-245,-671,6.07751,30.0129,-0.000404874,0.00326924,0.0032828,0.00519403,-0.00232967,1.04049,0.00444751,0.0190881,979,1695,6.0775,-30.013
-238,-671,6.08179,30.4082,-0.00049901,0.00206255,0.00258619,0.00366773,-0.00210419,1.01531,0.00337293,0.019469,986,1695,6.0818,-30.4082
-231,-671,6.08356,30.762,-0.000469721,0.000917188,0.002075,0.00241154,-0.00196407,0.946661,0.00253066,0.0152702,993,1695,6.08356,-30.762
-224,-671,6.05469,31.0894,-0.000304955,0.00036713,0.00178005,0.00184258,-0.00178041,0.878691,0.00209184,0.0120914,1000,1695,6.05471,-31.0894
-217,-671,6.05768,31.4254,-0.000337858,-0.000344727,0.00104356,0.000702273,-0.00138486,0.783753,0.0012263,0.0116515,1007,1695,6.05769,-31.4254
-210,-671,6.04059,31.7749,9.04325e-05,-0.000222545,0.000802437,0.000751498,-0.00088361,0.689098,0.000945056,0.011846,1014,1695,6.04058,-31.7749
-203,-671,5.99451,32.1101,0.000753447,-3.60831e-05,0.000696917,0.00115964,-0.000442276,0.527708,0.000955278,0.0189174,1021,1695,5.99447,-32.1101
-196,-671,5.98938,32.4182,0.00128518,0.000207064,0.000512229,0.00148973,2.50759e-06,0.379943,0.00099232,0.0157815,1028,1695,5.98932,-32.4182
-189,-671,6.01819,32.7882,0.00183943,0.000461944,0.000199476,0.00186774,0.00043364,0.140954,0.00112873,0.012549,1035,1695,6.01817,-32.7882
-182,-671,6.00977,33.0896,0.00241636,0.000688972,-0.000178299,0.00243457,0.00067076,-0.101789,0.00145205,0.01044,1042,1695,6.00971,-33.0896
-175,-671,6.01733,33.3602,0.0030189,0.00103371,-0.000519692,0.00314671,0.000905894,-0.241163,0.00187046,0.0131658,1049,1695,6.01737,-33.3603
-168,-671,6.00916,33.6476,0.0035908,0.00153387,-0.000798112,0.00386415,0.00126052,-0.329975,0.00227545,0.0132616,1056,1695,6.00914,-33.6476
-161,-671,6.00232,33.9525,0.00413134,0.00220392,-0.000968367,0.00453382,0.00180144,-0.393904,0.00263593,0.00925538,1063,1695,6.00232,-33.9525
-154,-671,6.03748,34.2352,0.00461539,0.00318073,-0.0010828,0.00519691,0.0025992,-0.492849,0.00300044,0.00891465,1070,1695,6.03744,-34.2352
-147,-671,6.03699,34.5338,0.00500086,0.00425218,-0.00117925,0.00586376,0.00338928,-0.63171,0.00339915,0.0106745,1077,1695,6.03702,-34.5338
-140,-671,6.06494,34.7991,0.00534627,0.00521865,-0.00117085,0.00645505,0.00410987,-0.758174,0.00377296,0.0133724,1084,1695,6.06499,-34.7991
-133,-671,6.08838,35.0397,0.00558036,0.0064805,-0.0010836,0.00720378,0.00485707,-0.982231,0.00424245,0.0177326,1091,1695,6.08841,-35.0396
-126,-671,6.14307,35.4087,0.00562972,0.00796021,-0.0010516,0.00836457,0.00522536,-1.20371,0.0048791,0.0250091,1098,1695,6.14302,-35.4087
-119,-671,6.19592,35.8932,0.00581926,0.00928094,-0.000981069,0.00953965,0.00556056,-1.31296,0.00553289,0.0426307,1105,1695,6.19589,-35.8932
-112,-671,6.27295,36.2026,0.00593036,0.0103379,-0.000735458,0.0104574,0.00581088,-1.40974,0.00605004,0.0483154,1112,1695,6.2729,-36.2026
-105,-671,6.43176,36.3767,0,0,0,0,0,0,0,-1,1119,1695,6.43172,-36.3767
-98,-671,6.52014,36.4294,0,0,0,0,0,0,0,-1,1126,1695,6.5201,-36.4294
-91,-671,6.66614,36.5656,0,0,0,0,0,0,0,-1,1133,1695,6.66611,-36.5655
-84,-671,5.4209,26.2415,0,0,0,0,0,0,0,-1,1140,1695,5.42096,-26.2414
-77,-671,4.31763,16.489,0,0,0,0,0,0,0,-1,1147,1695,4.31757,-16.489
-70,-671,3.06067,10.7737,0,0,0,0,0,0,0,-1,1154,1695,3.0607,-10.7737
-63,-671,2.94592,6.90198,0,0,0,0,0,0,0,-1,1161,1695,2.94594,-6.90198
-56,-671,-3.07678,2.87976,0,0,0,0,0,0,0,-1,1168,1695,-3.07675,-2.87979
-49,-671,-1.05957,4.76917,0,0,0,0,0,0,0,-1,1175,1695,-1.05958,-4.76921
-42,-671,0.539307,3.7865,0,0,0,0,0,0,0,-1,1182,1695,0.539266,-3.78648
-35,-671,-0.272461,0.347534,0,0,0,0,0,0,0,-1,1189,1695,-0.272434,-0.347569
-28,-671,-10.4878,17.2009,0,0,0,0,0,0,0,-1,1196,1695,-10.4878,-17.2009
-21,-671,6.33057,38.4155,0,0,0,0,0,0,0,-1,1203,1695,6.33054,-38.4155
-14,-671,7.18713,38.5126,-0.00825629,0.0352774,-0.0039392,0.0356309,-0.00860986,-1.48128,0.027084,0.0438886,1210,1695,7.18714,-38.5126
-7,-671,6.23792,39.4949,0,0,0,0,0,0,0,-1,1217,1695,6.23797,-39.4949
0,-671,6.51672,39.3719,0.0039565,0.0362127,-0.00243992,0.0363962,0.00377298,-1.49572,0.0231094,0.042456,1224,1695,6.51668,-39.372
7,-671,7.03101,39.3319,0.0108209,0.037553,-0.00162533,0.0376515,0.0107224,-1.51029,0.0223993,0.0447812,1231,1695,7.03106,-39.332
14,-671,7.00964,39.2668,0,0,0,0,0,0,0,-1,1238,1695,7.00967,-39.2669
21,-671,6.90027,39.4457,0.0223408,0.0542015,0.000525592,0.0542102,0.0223321,1.55431,0.0314596,0.0465484,1245,1695,6.90025,-39.4457
28,-671,7.10889,39.9252,0.0251739,0.0661303,0.00388473,0.0664955,0.0248087,1.47706,0.0388013,0.0457353,1252,1695,7.10892,-39.9252
35,-671,8.02747,40.2617,0,0,0,0,0,0,0,-1,1259,1695,8.02749,-40.2618
42,-671,6.30615,39.1514,0.0223635,0.0910683,0.0103364,0.0925896,0.0208421,1.42466,0.0560851,0.0454232,1266,1695,6.3061,-39.1513
49,-671,6.97522,39.3307,0.0173813,0.103263,0.0141576,0.105537,0.0151076,1.41156,0.0659017,0.0444695,1273,1695,6.97518,-39.3306
56,-671,7.45044,39.3601,0.0103115,0.115416,0.0190892,0.118776,0.00695189,1.39659,0.0769714,0.044668,1280,1695,7.45048,-39.3601
63,-671,7.9165,39.4713,0.000493313,0.134823,0.0217579,0.13826,-0.00294299,1.41416,0.0931697,0.0448292,1287,1695,7.91649,-39.4714
70,-671,7.63232,40.1349,-0.0108897,0.144699,0.0255741,0.148795,-0.0149855,1.41199,0.10455,0.042928,1294,1695,7.63235,-40.1349
77,-671,6.73853,41.1277,-0.0225004,0.154975,0.0300782,0.159934,-0.0274594,1.4074,0.116856,0.0456621,1301,1695,6.73856,-41.1277
84,-671,6.03406,42.1802,-0.0335286,0.161431,0.0320997,0.16658,-0.0386778,1.41174,0.125942,0.0492073,1308,1695,6.03408,-42.1802
91,-671,5.17029,43.3817,-0.0428546,0.164243,0.0329957,0.169373,-0.0479846,1.41656,0.131853,0.0448389,1315,1695,5.17031,-43.3817
98,-671,8.15039,39.0293,0,0,0,0,0,0,0,-1,1322,1695,8.15044,-39.0293
105,-671,3.28003,43.6959,-0.0525835,0.162571,0.0356693,0.168331,-0.0583428,1.41072,0.135908,0.0453404,1329,1695,3.28004,-43.696
112,-671,2.35046,44.9357,-0.0525155,0.156781,0.0364436,0.162945,-0.0586797,1.40324,0.132591,0.0451483,1336,1695,2.35049,-44.9357
119,-671,8.01221,38.8424,0,0,0,0,0,0,0,-1,1343,1695,8.01221,-38.8424
126,-671,6.59436,36.8578,0,0,0,0,0,0,0,-1,1350,1695,6.59439,-36.8577
133,-671,6.53101,36.7847,-0.0339744,0.121073,0.0396281,0.130614,-0.0435156,1.33452,0.104642,0.0495833,1357,1695,6.53104,-36.7847
140,-671,6.49194,36.7513,-0.023904,0.10965,0.0430976,0.12235,-0.0366038,1.28423,0.0961199,0.0471712,1364,1695,6.49197,-36.7514
147,-671,6.5835,36.7521,0,0,0,0,0,0,0,-1,1371,1695,6.58346,-36.7521
154,-671,14.0531,44.566,0,0,0,0,0,0,0,-1,1378,1695,14.0531,-44.5661
161,-671,4.49292,4.91272,0,0,0,0,0,0,0,-1,1385,1695,4.49297,-4.91273
168,-671,5.17639,6.1416,0,0,0,0,0,0,0,-1,1392,1695,5.1764,-6.14164
175,-671,5.6731,1.64685,0,0,0,0,0,0,0,-1,1399,1695,5.67313,-1.64691
182,-671,5.56812,1.71692,0,0,0,0,0,0,0,-1,1406,1695,5.56809,-1.71686
189,-671,6.98315,6.36169,0,0,0,0,0,0,0,-1,1413,1695,6.98312,-6.36175
196,-671,5.38123,5.69775,0,0,0,0,0,0,0,-1,1420,1695,5.38125,-5.69769
203,-671,5.95117,8.11658,0,0,0,0,0,0,0,-1,1427,1695,5.9512,-8.11662
210,-671,4.73596,8.39624,0,0,0,0,0,0,0,-1,1434,1695,4.736,-8.39618
217,-671,5.37097,11.863,0,0,0,0,0,0,0,-1,1441,1695,5.37094,-11.863
224,-671,5.08167,13.6694,0,0,0,0,0,0,0,-1,1448,1695,5.08165,-13.6695
231,-671,5.66663,15.3348,0,0,0,0,0,0,0,-1,1455,1695,5.66667,-15.3349
238,-671,6.32959,16.2036,0,0,0,0,0,0,0,-1,1462,1695,6.32961,-16.2037
245,-671,9.77417,35.2817,0,0,0,0,0,0,0,-1,1469,1695,9.77414,-35.2818
252,-671,9.51355,35.4333,0,0,0,0,0,0,0,-1,1476,1695,9.51349,-35.4334
259,-671,9.41296,35.1699,0,0,0,0,0,0,0,-1,1483,1695,9.41293,-35.1699
266,-671,9.51611,35.1484,0.0054068,0.00329687,-0.00116747,0.00592535,0.00277832,-0.417989,0.00342321,0.0345338,1490,1695,9.51616,-35.1484
273,-671,9.58105,34.9497,0.00512042,0.00316529,-0.00111649,0.00562683,0.00265888,-0.425822,0.00325029,0.01084,1497,1695,9.58106,-34.9497
280,-671,9.59509,34.7065,0.00473342,0.003118,-0.00105279,0.00525265,0.00259877,-0.458185,0.00303267,0.00880002,1504,1695,9.59508,-34.7065
287,-671,9.59241,34.3689,0.00429489,0.00295195,-0.000927643,0.00476858,0.00247825,-0.472123,0.00275385,0.0114152,1511,1695,9.59238,-34.3689
294,-671,9.5907,34.0824,0.00385391,0.00288526,-0.000892879,0.00438536,0.00235381,-0.536892,0.00253417,0.0117958,1518,1695,9.59072,-34.0824
301,-671,9.62109,33.8505,0.00342979,0.00268186,-0.000899933,0.00403036,0.00208128,-0.58848,0.00232735,0.0104623,1525,1695,9.62104,-33.8505
308,-671,9.63367,33.5936,0.00300176,0.00244916,-0.000893007,0.00366024,0.00179069,-0.635368,0.0021134,0.0106518,1532,1695,9.63367,-33.5937
315,-671,9.6416,33.3086,0.00258179,0.00213073,-0.000887991,0.00327245,0.00144008,-0.661039,0.00189387,0.0121209,1539,1695,9.64164,-33.3086
322,-671,9.64111,33.0361,0.00218153,0.00182498,-0.000908647,0.00292922,0.00107728,-0.68853,0.00171079,0.0148669,1546,1695,9.64113,-33.0362
329,-671,9.60718,32.7679,0.00183809,0.00138525,-0.000969346,0.00260711,0.000616233,-0.670665,0.00157342,0.0144424,1553,1695,9.6072,-32.768
336,-671,9.62598,32.4423,0.00143715,0.000954162,-0.000960437,0.00218599,0.000205323,-0.662231,0.00139393,0.0111758,1560,1695,9.62594,-32.4422
343,-671,9.6665,32.1023,0.00100603,0.000367605,-0.000909394,0.00165061,-0.000276976,-0.616609,0.0012034,0.0111086,1567,1695,9.66648,-32.1023
350,-671,9.64856,31.7957,0.000676747,-0.000275446,-0.000876675,0.00119826,-0.00079696,-0.536644,0.00115968,0.0118573,1574,1695,9.64854,-31.7956
357,-671,9.62524,31.437,0.000249382,-0.00114775,-0.000618708,0.000483979,-0.00138235,-0.362423,0.00111836,0.0107801,1581,1695,9.62528,-31.437
364,-671,9.61865,31.1001,-0.000174327,-0.00210871,-0.000299092,-0.000129138,-0.0021539,-0.149955,0.00139488,0.0124628,1588,1695,9.61861,-31.1002
371,-671,9.58215,30.7976,-0.000629527,-0.00306928,0.000104535,-0.000625057,-0.00307375,0.0427419,0.00187586,0.0147806,1595,1695,9.58211,-30.7976
378,-671,9.57666,30.4575,-0.00113973,-0.00416287,0.000688693,-0.000990229,-0.00431237,0.213756,0.00260827,0.0126427,1602,1695,9.57669,-30.4575
385,-671,9.53333,30.0912,-0.00162369,-0.00523988,0.00142993,-0.0011266,-0.00573698,0.334567,0.00350992,0.0143934,1609,1695,9.53332,-30.0912
392,-671,9.48474,29.7842,-0.00212078,-0.00672708,0.00228396,-0.00118032,-0.00766753,0.390608,0.00476721,0.0180032,1616,1695,9.48478,-29.7842
399,-671,9.50122,29.3965,-0.00272092,-0.00807344,0.00311608,-0.00128959,-0.00950477,0.430592,0.00595339,0.0143741,1623,1695,9.50123,-29.3965
406,-671,9.53711,29.0385,-0.00315478,-0.00921586,0.00399796,-0.00116856,-0.0112021,0.461091,0.00711061,0.0238254,1630,1695,9.53713,-29.0385
413,-671,9.48218,28.8542,-0.00336852,-0.0102178,0.00492942,-0.000790894,-0.0127955,0.481805,0.00827928,0.0427296,1637,1695,9.48213,-28.8543
420,-671,9.55811,28.5217,0,0,0,0,0,0,0,-1,1644,1695,9.55813,-28.5217
427,-671,9.31738,21.7188,0,0,0,0,0,0,0,-1,1651,1695,9.31735,-21.7187
434,-671,9.66528,26.177,0,0,0,0,0,0,0,-1,1658,1695,9.66528,-26.177
441,-671,8.34961,20.6522,0,0,0,0,0,0,0,-1,1665,1695,8.34964,-20.6522
448,-671,7.44873,20.2306,0,0,0,0,0,0,0,-1,1672,1695,7.44872,-20.2306
455,-671,6.62805,19.8612,0,0,0,0,0,0,0,-1,1679,1695,6.62811,-19.8612
462,-671,5.86255,4.47961,0,0,0,0,0,0,0,-1,1686,1695,5.8625,-4.4796
469,-671,3.71301,3.76978,0,0,0,0,0,0,0,-1,1693,1695,3.71297,-3.76974
476,-671,3.75574,3.18848,0,0,0,0,0,0,0,-1,1700,1695,3.7558,-3.18847
483,-671,7.81824,12.1041,0,0,0,0,0,0,0,-1,1707,1695,7.81826,-12.1041
490,-671,0,0,0,0,0,0,0,0,0,-1,1714,1695,0,0
497,-671,0,0,0,0,0,0,0,0,0,-1,1721,1695,0,0
504,-671,0,0,0,0,0,0,0,0,0,-1,1728,1695,0,0
511,-671,0,0,0,0,0,0,0,0,0,-1,1735,1695,0,0
518,-671,0,0,0,0,0,0,0,0,0,-1,1742,1695,0,0
525,-671,0,0,0,0,0,0,0,0,0,-1,1749,1695,0,0
532,-671,0,0,0,0,0,0,0,0,0,-1,1756,1695,0,0
539,-671,0,0,0,0,0,0,0,0,0,-1,1763,1695,0,0
546,-671,0,0,0,0,0,0,0,0,0,-1,1770,1695,0,0
553,-671,0,0,0,0,0,0,0,0,0,-1,1777,1695,0,0
560,-671,0,0,0,0,0,0,0,0,0,-1,1784,1695,0,0
567,-671,0,0,0,0,0,0,0,0,0,-1,1791,1695,0,0
574,-671,0,0,0,0,0,0,0,0,0,-1,1798,1695,0,0
581,-671,0,0,0,0,0,0,0,0,0,-1,1805,1695,0,0
588,-671,0,0,0,0,0,0,0,0,0,-1,1812,1695,0,0
595,-671,0,0,0,0,0,0,0,0,0,-1,1819,1695,0,0
602,-671,0,0,0,0,0,0,0,0,0,-1,1826,1695,0,0
609,-671,0,0,0,0,0,0,0,0,0,-1,1833,1695,0,0
616,-671,0,0,0,0,0,0,0,0,0,-1,1840,1695,0,0
623,-671,0,0,0,0,0,0,0,0,0,-1,1847,1695,0,0
630,-671,0,0,0,0,0,0,0,0,0,-1,1854,1695,0,0
637,-671,0,0,0,0,0,0,0,0,0,-1,1861,1695,0,0
644,-671,0,0,0,0,0,0,0,0,0,-1,1868,1695,0,0
651,-671,0,0,0,0,0,0,0,0,0,-1,1875,1695,0,0
658,-671,0,0,0,0,0,0,0,0,0,-1,1882,1695,0,0
665,-671,0,0,0,0,0,0,0,0,0,-1,1889,1695,0,0
672,-671,0,0,0,0,0,0,0,0,0,-1,1896,1695,0,0
679,-671,0,0,0,0,0,0,0,0,0,-1,1903,1695,0,0
686,-671,0,0,0,0,0,0,0,0,0,-1,1910,1695,0,0
693,-671,0,0,0,0,0,0,0,0,0,-1,1917,1695,0,0
700,-671,0,0,0,0,0,0,0,0,0,-1,1924,1695,0,0
707,-671,0,0,0,0,0,0,0,0,0,-1,1931,1695,0,0
714,-671,0,0,0,0,0,0,0,0,0,-1,1938,1695,0,0
721,-671,0,0,0,0,0,0,0,0,0,-1,1945,1695,0,0
728,-671,0,0,0,0,0,0,0,0,0,-1,1952,1695,0,0
735,-671,0,0,0,0,0,0,0,0,0,-1,1959,1695,0,0
742,-671,0,0,0,0,0,0,0,0,0,-1,1966,1695,0,0
749,-671,0,0,0,0,0,0,0,0,0,-1,1973,1695,0,0
756,-671,0,0,0,0,0,0,0,0,0,-1,1980,1695,0,0
763,-671,0,0,0,0,0,0,0,0,0,-1,1987,1695,0,0
770,-671,0,0,0,0,0,0,0,0,0,-1,1994,1695,0,0
777,-671,0,0,0,0,0,0,0,0,0,-1,2001,1695,0,0
784,-671,0,0,0,0,0,0,0,0,0,-1,2008,1695,0,0
791,-671,0,0,0,0,0,0,0,0,0,-1,2015,1695,0,0
798,-671,0,0,0,0,0,0,0,0,0,-1,2022,1695,0,0
805,-671,0,0,0,0,0,0,0,0,0,-1,2029,1695,0,0
812,-671,0,0,0,0,0,0,0,0,0,-1,2036,1695,0,0
-700,-678,0,0,0,0,0,0,0,0,0,-1,524,1702,0,0
-693,-678,0,0,0,0,0,0,0,0,0,-1,531,1702,0,0
-686,-678,0,0,0,0,0,0,0,0,0,-1,538,1702,0,0
-679,-678,0,0,0,0,0,0,0,0,0,-1,545,1702,0,0
-672,-678,0,0,0,0,0,0,0,0,0,-1,552,1702,0,0
-665,-678,0,0,0,0,0,0,0,0,0,-1,559,1702,0,0
-658,-678,0,0,0,0,0,0,0,0,0,-1,566,1702,0,0
-651,-678,0,0,0,0,0,0,0,0,0,-1,573,1702,0,0
-644,-678,0,0,0,0,0,0,0,0,0,-1,580,1702,0,0
-637,-678,0,0,0,0,0,0,0,0,0,-1,587,1702,0,0
-630,-678,0,0,0,0,0,0,0,0,0,-1,594,1702,0,0
-623,-678,0,0,0,0,0,0,0,0,0,-1,601,1702,0,0
-616,-678,0,0,0,0,0,0,0,0,0,-1,608,1702,0,0
-609,-678,0,0,0,0,0,0,0,0,0,-1,615,1702,0,0
-602,-678,0,0,0,0,0,0,0,0,0,-1,622,1702,0,0
-595,-678,0,0,0,0,0,0,0,0,0,-1,629,1702,0,0
-588,-678,0,0,0,0,0,0,0,0,0,-1,636,1702,0,0
-581,-678,0,0,0,0,0,0,0,0,0,-1,643,1702,0,0
-574,-678,0,0,0,0,0,0,0,0,0,-1,650,1702,0,0
-567,-678,0,0,0,0,0,0,0,0,0,-1,657,1702,0,0
-560,-678,0,0,0,0,0,0,0,0,0,-1,664,1702,0,0
-553,-678,0,0,0,0,0,0,0,0,0,-1,671,1702,0,0
-546,-678,0,0,0,0,0,0,0,0,0,-1,678,1702,0,0
-539,-678,0,0,0,0,0,0,0,0,0,-1,685,1702,0,0
-532,-678,0,0,0,0,0,0,0,0,0,-1,692,1702,0,0
-525,-678,0,0,0,0,0,0,0,0,0,-1,699,1702,0,0
-518,-678,0,0,0,0,0,0,0,0,0,-1,706,1702,0,0
-511,-678,0,0,0,0,0,0,0,0,0,-1,713,1702,0,0
-504,-678,0,0,0,0,0,0,0,0,0,-1,720,1702,0,0
-497,-678,0,0,0,0,0,0,0,0,0,-1,727,1702,0,0
-490,-678,0,0,0,0,0,0,0,0,0,-1,734,1702,0,0
-483,-678,0,0,0,0,0,0,0,0,0,-1,741,1702,0,0
-476,-678,0,0,0,0,0,0,0,0,0,-1,748,1702,0,0
-469,-678,0,0,0,0,0,0,0,0,0,-1,755,1702,0,0
-462,-678,0,0,0,0,0,0,0,0,0,-1,762,1702,0,0
-455,-678,0,0,0,0,0,0,0,0,0,-1,769,1702,0,0
-448,-678,0,0,0,0,0,0,0,0,0,-1,776,1702,0,0
-441,-678,0,0,0,0,0,0,0,0,0,-1,783,1702,0,0
-434,-678,0,0,0,0,0,0,0,0,0,-1,790,1702,0,0
-427,-678,0,0,0,0,0,0,0,0,0,-1,797,1702,0,0
-420,-678,0,0,0,0,0,0,0,0,0,-1,804,1702,0,0
-413,-678,0,0,0,0,0,0,0,0,0,-1,811,1702,0,0
-406,-678,0,0,0,0,0,0,0,0,0,-1,818,1702,0,0
-399,-678,0,0,0,0,0,0,0,0,0,-1,825,1702,0,0
-392,-678,0,0,0,0,0,0,0,0,0,-1,832,1702,0,0
-385,-678,0,0,0,0,0,0,0,0,0,-1,839,1702,0,0
-378,-678,0,0,0,0,0,0,0,0,0,-1,846,1702,0,0
-371,-678,0,0,0,0,0,0,0,0,0,-1,853,1702,0,0
-364,-678,0,0,0,0,0,0,0,0,0,-1,860,1702,0,0
-357,-678,0,0,0,0,0,0,0,0,0,-1,867,1702,0,0
-350,-678,-5.79944,6.11865,0,0,0,0,0,0,0,-1,874,1702,-5.79942,-6.11864
-343,-678,-6.44891,4.52759,0,0,0,0,0,0,0,-1,881,1702,-6.4489,-4.52758
-336,-678,7.92682,24.1683,0,0,0,0,0,0,0,-1,888,1702,7.92682,-24.1684
-329,-678,-7.14575,1.29761,0,0,0,0,0,0,0,-1,895,1702,-7.14577,-1.29755
-322,-678,3.78455,20.3917,0,0,0,0,0,0,0,-1,902,1702,3.78457,-20.3917
-315,-678,4.74176,22.3245,0,0,0,0,0,0,0,-1,909,1702,4.74178,-22.3244
-308,-678,5.5799,27.4917,0,0,0,0,0,0,0,-1,916,1702,5.57988,-27.4917
-301,-678,5.8941,27.4879,0,0,0,0,0,0,0,-1,923,1702,5.89409,-27.4879
-294,-678,6.33466,26.0139,0,0,0,0,0,0,0,-1,930,1702,6.33467,-26.0139
-287,-678,6.31433,26.5931,0,0,0,0,0,0,0,-1,937,1702,6.31433,-26.5931
-280,-678,7.03894,27.9199,0,0,0,0,0,0,0,-1,944,1702,7.03897,-27.9199
-273,-678,6.58752,28.0146,0.00449366,0.0177357,0.012638,0.025382,-0.00315264,1.02669,0.0180642,0.0456448,951,1702,6.58754,-28.0147
-266,-678,6.65863,28.8802,0.00292736,0.0136082,0.0100501,0.0196487,-0.00311311,1.02962,0.0142506,0.0364115,958,1702,6.65863,-28.8803
-259,-678,6.46417,29.35,0.00149709,0.00965625,0.00790658,0.0144737,-0.00332035,1.02357,0.0109254,0.0212883,965,1702,6.46415,-29.3499
-252,-678,6.4538,29.6693,0.000296605,0.00638163,0.00604086,0.0101029,-0.00342467,1.01868,0.0081212,0.0171528,972,1702,6.45378,-29.6693
-245,-678,6.47229,30.0273,-0.000477944,0.00389697,0.00463308,0.00683303,-0.003414,1.00595,0.0060249,0.0181956,979,1702,6.47232,-30.0273
-238,-678,6.45581,30.394,-0.000833223,0.00215045,0.00363215,0.0045852,-0.00326797,0.980259,0.00455524,0.0153077,986,1702,6.45579,-30.394
-231,-678,6.39874,30.7588,-0.00103703,0.000558675,0.00289543,0.00276417,-0.00324253,0.91984,0.00347163,0.0131953,993,1702,6.39875,-30.7588
-224,-678,6.36859,31.0931,-0.000988071,-0.00025882,0.00248079,0.001884,-0.00313089,0.858365,0.00292503,0.0129786,1000,1702,6.36859,-31.0931
-217,-678,6.37549,31.4467,-0.001261,-0.001331,0.00158372,0.000288101,-0.00288011,0.77435,0.00202295,0.0139711,1007,1702,6.37548,-31.4467
-210,-678,6.35236,31.8167,-0.000947835,-0.00132653,0.00148805,0.000362869,-0.00263723,0.722116,0.00189075,0.0151214,1014,1702,6.35236,-31.8166
-203,-678,6.33789,32.1196,-0.000352993,-0.00113571,0.0014981,0.000804028,-0.00229273,0.657636,0.0018555,0.0185289,1021,1702,6.33784,-32.1196
-196,-678,6.31567,32.4354,0.000106149,-0.000897988,0.00139579,0.00108742,-0.00187926,0.612752,0.00173303,0.0174517,1028,1702,6.31566,-32.4354
-189,-678,6.31018,32.7867,0.00058938,-0.00062198,0.00115922,0.00129162,-0.00132422,0.54466,0.00151029,0.0108943,1035,1702,6.31015,-32.7868
-182,-678,6.32312,33.1078,0.00109998,-0.000356575,0.000848426,0.00148983,-0.000746428,0.430728,0.00131467,0.0106914,1042,1702,6.32308,-33.1077
-175,-678,6.31812,33.3898,0.00164635,5.61181e-05,0.000553277,0.0018199,-0.000117438,0.303966,0.00125425,0.0114615,1049,1702,6.31816,-33.3897
-168,-678,6.30225,33.679,0.00216521,0.00056024,0.00027787,0.00221196,0.000513493,0.16667,0.00133676,0.0102909,1056,1702,6.30221,-33.679
-161,-678,6.3053,33.9709,0.00265653,0.00125067,4.83831e-05,0.00265819,0.00124901,0.0343612,0.00153563,0.00841893,1063,1702,6.30533,-33.9709
-154,-678,6.32263,34.2665,0.00313706,0.00219853,-0.000158508,0.0031631,0.00217248,-0.162874,0.00186823,0.00827964,1070,1702,6.32268,-34.2665
-147,-678,6.30933,34.5485,0.00355036,0.00320086,-0.000371162,0.00378585,0.00296537,-0.565383,0.00229972,0.0106538,1077,1702,6.30937,-34.5485
-140,-678,6.33447,34.8092,0.00392478,0.00408619,-0.000485875,0.00449802,0.00351296,-0.867697,0.00273022,0.0108264,1084,1702,6.33448,-34.8092
-133,-678,6.36304,35.0586,0.00421945,0.00511212,-0.000531449,0.0053598,0.00397177,-1.13468,0.0032121,0.0105861,1091,1702,6.36304,-35.0585
-126,-678,6.38916,35.3483,0.0043762,0.00624724,-0.00060149,0.00642392,0.00419952,-1.2851,0.00376683,0.0112355,1098,1702,6.38921,-35.3483
-119,-678,6.46387,35.8378,0.00458744,0.00723842,-0.000641365,0.00738543,0.00444043,-1.34547,0.00429302,0.0304607,1105,1702,6.46385,-35.8377
-112,-678,6.48328,36.1454,0.004619,0.00801807,-0.000524943,0.00809729,0.00453977,-1.42101,0.00468642,0.046378,1112,1702,6.48329,-36.1454
-105,-678,6.47803,36.3882,0.00441811,0.0086188,-9.85865e-05,0.00862111,0.0044158,-1.54734,0.00497789,0.0476732,1119,1702,6.478,-36.3882
-98,-678,6.41321,36.425,0.00400816,0.00947224,-0.000421468,0.00950456,0.00397584,-1.49427,0.00551182,0.0285584,1126,1702,6.41325,-36.425
-91,-678,6.56519,36.4628,0,0,0,0,0,0,0,-1,1133,1702,6.56515,-36.4628
-84,-678,6.58545,36.5073,0,0,0,0,0,0,0,-1,1140,1702,6.58544,-36.5073
-77,-678,5.95154,29.1879,0,0,0,0,0,0,0,-1,1147,1702,5.95156,-29.1878
-70,-678,4.75891,19.6552,0,0,0,0,0,0,0,-1,1154,1702,4.75895,-19.6551
-63,-678,3.41687,11.0365,0,0,0,0,0,0,0,-1,1161,1702,3.41682,-11.0365
-56,-678,1.72388,6.13159,0,0,0,0,0,0,0,-1,1168,1702,1.72388,-6.13157
-49,-678,-0.241699,5.29895,0,0,0,0,0,0,0,-1,1175,1702,-0.241682,-5.29897
-42,-678,0.297119,3.90649,0,0,0,0,0,0,0,-1,1182,1702,0.297139,-3.90655
-35,-678,0.498413,3.64038,0,0,0,0,0,0,0,-1,1189,1702,0.498471,-3.64038
-28,-678,0.132446,3.55994,0,0,0,0,0,0,0,-1,1196,1702,0.132432,-3.55993
-21,-678,6.82678,38.3333,0,0,0,0,0,0,0,-1,1203,1702,6.82683,-38.3332
-14,-678,7.32349,38.3282,0,0,0,0,0,0,0,-1,1210,1702,7.32349,-38.3282
-7,-678,7.56104,38.3245,0,0,0,0,0,0,0,-1,1217,1702,7.56101,-38.3245
0,-678,6.94592,39.0554,0.00658542,0.031086,-0.00119817,0.0311445,0.00652696,-1.52205,0.0189655,0.0451753,1224,1702,6.94598,-39.0555
7,-678,7.24524,39.1486,0.0113254,0.0324693,-0.000727198,0.0324942,0.0113004,-1.53646,0.0190482,0.0443987,1231,1702,7.24529,-39.1486
14,-678,7.23975,39.0721,0.0157694,0.0391798,-0.000437943,0.039188,0.0157612,-1.5521,0.022769,0.0449773,1238,1702,7.23978,-39.0721
21,-678,7.08557,39.1793,0.0189341,0.0462029,0.000867339,0.0462304,0.0189066,1.53903,0.0268382,0.0436621,1245,1702,7.08553,-39.1793
28,-678,7.80798,39.5781,0,0,0,0,0,0,0,-1,1252,1702,7.80804,-39.5781
35,-678,7.92163,39.6919,0.0204011,0.0642936,0.00578195,0.0650425,0.0196522,1.44199,0.0385199,0.0445043,1259,1702,7.92167,-39.6919
42,-678,8.0127,39.7545,0.0178988,0.0735771,0.00839852,0.0748163,0.0166596,1.4243,0.0453559,0.0484387,1266,1702,8.01268,-39.7546
49,-678,7.1593,39.2949,0,0,0,0,0,0,0,-1,1273,1702,7.15936,-39.2949
56,-678,7.85303,38.9791,0.00801267,0.0917813,0.0153632,0.09451,0.00528395,1.39501,0.0613213,0.0452802,1280,1702,7.85299,-38.9791
63,-678,8.01355,39.2698,-1.03984e-05,0.108075,0.0171011,0.110717,-0.00265156,1.41756,0.0747106,0.0449194,1287,1702,8.0135,-39.2698
70,-678,7.92786,39.7236,-0.00913073,0.116126,0.0198852,0.119207,-0.0122118,1.41707,0.0838391,0.0411112,1294,1702,7.92784,-39.7236
77,-678,8.25818,39.8455,0,0,0,0,0,0,0,-1,1301,1702,8.25818,-39.8454
84,-678,6.32642,41.2821,0,0,0,0,0,0,0,-1,1308,1702,6.32645,-41.2821
91,-678,8.29028,39.0507,0,0,0,0,0,0,0,-1,1315,1702,8.29032,-39.0507
98,-678,8.15051,38.8645,0,0,0,0,0,0,0,-1,1322,1702,8.15056,-38.8645
105,-678,8.01074,38.6782,0,0,0,0,0,0,0,-1,1329,1702,8.01079,-38.6783
112,-678,9.27148,39.6152,-0.041203,0.129431,0.0264649,0.133442,-0.0452134,1.4204,0.107257,0.0412366,1336,1702,9.27153,-39.6152
119,-678,8.36084,38.542,-0.0387181,0.119457,0.0272473,0.124019,-0.0432801,1.4049,0.100269,0.0435035,1343,1702,8.36085,-38.542
126,-678,7.52661,37.8633,0,0,0,0,0,0,0,-1,1350,1702,7.52655,-37.8633
133,-678,7.29724,37.2648,-0.0264781,0.0997855,0.0273053,0.105437,-0.03213,1.36669,0.0830986,0.0484418,1357,1702,7.29726,-37.2647
140,-678,7.05688,37.2928,-0.0181795,0.0900103,0.0290756,0.0973292,-0.0254984,1.3242,0.0748476,0.0498913,1364,1702,7.05691,-37.2929
147,-678,9.12463,38.5002,-0.010045,0.0811196,0.0303387,0.090293,-0.0192184,1.27717,0.0675194,0.0438196,1371,1702,9.12468,-38.5002
154,-678,9.65649,38.3108,0,0,0,0,0,0,0,-1,1378,1702,9.65653,-38.3108
161,-678,8.81226,34.8624,0,0,0,0,0,0,0,-1,1385,1702,8.81229,-34.8624
168,-678,4.21863,5.25781,0,0,0,0,0,0,0,-1,1392,1702,4.21865,-5.25781
175,-678,5.21899,5.9635,0,0,0,0,0,0,0,-1,1399,1702,5.21894,-5.96346
182,-678,7.31262,6.75122,0,0,0,0,0,0,0,-1,1406,1702,7.3126,-6.75123
189,-678,5.96021,6.36853,0,0,0,0,0,0,0,-1,1413,1702,5.96018,-6.36851
196,-678,5.01599,8.15771,0,0,0,0,0,0,0,-1,1420,1702,5.01596,-8.15767
203,-678,4.64771,13.0559,0,0,0,0,0,0,0,-1,1427,1702,4.64766,-13.0559
210,-678,5.6532,18.5957,0,0,0,0,0,0,0,-1,1434,1702,5.65318,-18.5958
217,-678,6.88049,23.4835,0,0,0,0,0,0,0,-1,1441,1702,6.88047,-23.4835
224,-678,8.521,32.0977,0,0,0,0,0,0,0,-1,1448,1702,8.52098,-32.0977
231,-678,9.01794,36.5275,0,0,0,0,0,0,0,-1,1455,1702,9.01796,-36.5274
238,-678,9.2572,36.2854,0,0,0,0,0,0,0,-1,1462,1702,9.25726,-36.2854
245,-678,9.25159,35.978,0.00429139,0.00210548,-0.000308415,0.00433407,0.0020628,-0.137517,0.00250324,0.0383766,1469,1702,9.25157,-35.978
252,-678,9.25525,35.6659,0.00406584,0.00213955,-0.000486604,0.00418179,0.00202361,-0.233909,0.00241477,0.0272487,1476,1702,9.2552,-35.6659
259,-678,9.26953,35.4833,0.00393476,0.00228131,-0.00071383,0.00420029,0.00201577,-0.356122,0.00242569,0.0161821,1483,1702,9.26952,-35.4833
266,-678,9.32056,35.2227,0.00379979,0.00232576,-0.000853758,0.00419065,0.0019349,-0.429327,0.00242183,0.0120126,1490,1702,9.32051,-35.2226
273,-678,9.3335,34.9832,0.00360491,0.00221124,-0.000880191,0.00403071,0.00178544,-0.450573,0.00233217,0.0110875,1497,1702,9.33353,-34.9831
280,-678,9.30713,34.7272,0.00334333,0.00214578,-0.000903286,0.00382828,0.00166083,-0.492709,0.0022167,0.0109896,1504,1702,9.3071,-34.7272
287,-678,9.3252,34.4078,0.00305122,0.0020482,-0.000877852,0.00356072,0.0015387,-0.525876,0.00206208,0.0112006,1511,1702,9.32523,-34.4078
294,-678,9.33813,34.1146,0.00276252,0.00206622,-0.000921489,0.00339943,0.0014293,-0.604781,0.00197092,0.0118595,1518,1702,9.33818,-34.1147
301,-678,9.32605,33.8636,0.00248343,0.00196443,-0.00100289,0.00325985,0.00118801,-0.658799,0.00190499,0.0117435,1525,1702,9.326,-33.8637
308,-678,9.32288,33.6079,0.00219462,0.00184095,-0.0010974,0.00312934,0.000906234,-0.705514,0.00185928,0.0130967,1532,1702,9.32283,-33.6079
315,-678,9.32288,33.3251,0.00190647,0.00153978,-0.00116169,0.0028992,0.000547053,-0.707129,0.00177871,0.0141082,1539,1702,9.32287,-33.3251
322,-678,9.31006,33.0685,0.0016347,0.00126123,-0.00123735,0.00269933,0.00019661,-0.710505,0.00173773,0.0174777,1546,1702,9.31008,-33.0685
329,-678,9.30408,32.7562,0.0013925,0.000835544,-0.00134963,0.00249208,-0.000264036,-0.683658,0.00175603,0.0165766,1553,1702,9.3041,-32.7562
336,-678,9.29553,32.415,0.00106804,0.000356931,-0.00139481,0.0021519,-0.000726933,-0.660601,0.00172863,0.0133233,1560,1702,9.29553,-32.4151
343,-678,9.33008,32.0966,0.000704121,-0.000270182,-0.00132772,0.00163123,-0.0011973,-0.609569,0.00163945,0.0129662,1567,1702,9.33008,-32.0966
350,-678,9.32593,31.7849,0.000428711,-0.000931626,-0.00126233,0.00118246,-0.00168537,-0.538289,0.00166421,0.0133578,1574,1702,9.32589,-31.7849
357,-678,9.30017,31.4567,-2.1496e-05,-0.00199996,-0.000918712,0.000339313,-0.00236077,-0.374227,0.00169829,0.0100023,1581,1702,9.30017,-31.4567
364,-678,9.28687,31.121,-0.000449628,-0.00311421,-0.000522775,-0.000350733,-0.0032131,-0.186964,0.00203526,0.0109598,1588,1702,9.28692,-31.121
371,-678,9.24658,30.8021,-0.000937561,-0.00423009,-1.6569e-06,-0.00093756,-0.00423009,-0.000503229,0.0025653,0.0124532,1595,1702,9.24657,-30.8021
378,-678,9.24146,30.451,-0.00153872,-0.00557177,0.000780087,-0.00139309,-0.0057174,0.184558,0.00344251,0.0129315,1602,1702,9.2414,-30.4511
385,-678,9.24622,30.1144,-0.00213481,-0.00682114,0.00176724,-0.00154309,-0.00741287,0.323096,0.00451629,0.0139381,1609,1702,9.24618,-30.1144
392,-678,9.25232,29.8538,-0.00274214,-0.00855671,0.00292216,-0.00152737,-0.00977148,0.393975,0.0060696,0.0237485,1616,1702,9.25237,-29.8538
399,-678,9.15662,29.5778,-0.00346823,-0.0101464,0.00406872,-0.00154385,-0.0120707,0.44179,0.00758509,0.0344333,1623,1702,9.15664,-29.5778
406,-678,8.91272,29.4657,-0.00405105,-0.0115836,0.00533396,-0.0012877,-0.014347,0.477996,0.00916561,0.0457538,1630,1702,8.91268,-29.4657
413,-678,9.13367,29.0397,0,0,0,0,0,0,0,-1,1637,1702,9.13367,-29.0396
420,-678,9.6665,28.3398,0,0,0,0,0,0,0,-1,1644,1702,9.66649,-28.3398
427,-678,4.57483,10.1555,0,0,0,0,0,0,0,-1,1651,1702,4.57485,-10.1555
434,-678,9.48169,21.6665,0,0,0,0,0,0,0,-1,1658,1702,9.48169,-21.6665
441,-678,8.64539,21.1864,0,0,0,0,0,0,0,-1,1665,1702,8.64536,-21.1865
448,-678,7.62244,20.7195,0,0,0,0,0,0,0,-1,1672,1702,7.6224,-20.7195
455,-678,5.44678,5.54297,0,0,0,0,0,0,0,-1,1679,1702,5.44676,-5.54294
462,-678,3.86792,2.87402,0,0,0,0,0,0,0,-1,1686,1702,3.86796,-2.87406
469,-678,2.26587,1.98755,0,0,0,0,0,0,0,-1,1693,1702,2.26592,-1.98755
476,-678,0,0,0,0,0,0,0,0,0,-1,1700,1702,0,0
483,-678,0,0,0,0,0,0,0,0,0,-1,1707,1702,0,0
490,-678,0,0,0,0,0,0,0,0,0,-1,1714,1702,0,0
497,-678,0,0,0,0,0,0,0,0,0,-1,1721,1702,0,0
504,-678,0,0,0,0,0,0,0,0,0,-1,1728,1702,0,0
511,-678,0,0,0,0,0,0,0,0,0,-1,1735,1702,0,0
518,-678,0,0,0,0,0,0,0,0,0,-1,1742,1702,0,0
525,-678,0,0,0,0,0,0,0,0,0,-1,1749,1702,0,0
532,-678,0,0,0,0,0,0,0,0,0,-1,1756,1702,0,0
539,-678,0,0,0,0,0,0,0,0,0,-1,1763,1702,0,0
546,-678,0,0,0,0,0,0,0,0,0,-1,1770,1702,0,0
553,-678,0,0,0,0,0,0,0,0,0,-1,1777,1702,0,0
560,-678,0,0,0,0,0,0,0,0,0,-1,1784,1702,0,0
567,-678,0,0,0,0,0,0,0,0,0,-1,1791,1702,0,0
574,-678,0,0,0,0,0,0,0,0,0,-1,1798,1702,0,0
581,-678,0,0,0,0,0,0,0,0,0,-1,1805,1702,0,0
588,-678,0,0,0,0,0,0,0,0,0,-1,1812,1702,0,0
595,-678,0,0,0,0,0,0,0,0,0,-1,1819,1702,0,0
602,-678,0,0,0,0,0,0,0,0,0,-1,1826,1702,0,0
609,-678,0,0,0,0,0,0,0,0,0,-1,1833,1702,0,0
616,-678,0,0,0,0,0,0,0,0,0,-1,1840,1702,0,0
623,-678,0,0,0,0,0,0,0,0,0,-1,1847,1702,0,0
630,-678,0,0,0,0,0,0,0,0,0,-1,1854,1702,0,0
637,-678,0,0,0,0,0,0,0,0,0,-1,1861,1702,0,0
644,-678,0,0,0,0,0,0,0,0,0,-1,1868,1702,0,0
651,-678,0,0,0,0,0,0,0,0,0,-1,1875,1702,0,0
658,-678,0,0,0,0,0,0,0,0,0,-1,1882,1702,0,0
665,-678,0,0,0,0,0,0,0,0,0,-1,1889,1702,0,0
672,-678,0,0,0,0,0,0,0,0,0,-1,1896,1702,0,0
679,-678,0,0,0,0,0,0,0,0,0,-1,1903,1702,0,0
686,-678,0,0,0,0,0,0,0,0,0,-1,1910,1702,0,0
693,-678,0,0,0,0,0,0,0,0,0,-1,1917,1702,0,0
700,-678,0,0,0,0,0,0,0,0,0,-1,1924,1702,0,0
707,-678,0,0,0,0,0,0,0,0,0,-1,1931,1702,0,0
714,-678,0,0,0,0,0,0,0,0,0,-1,1938,1702,0,0
721,-678,0,0,0,0,0,0,0,0,0,-1,1945,1702,0,0
728,-678,0,0,0,0,0,0,0,0,0,-1,1952,1702,0,0
735,-678,0,0,0,0,0,0,0,0,0,-1,1959,1702,0,0
742,-678,0,0,0,0,0,0,0,0,0,-1,1966,1702,0,0
749,-678,0,0,0,0,0,0,0,0,0,-1,1973,1702,0,0
756,-678,0,0,0,0,0,0,0,0,0,-1,1980,1702,0,0
763,-678,0,0,0,0,0,0,0,0,0,-1,1987,1702,0,0
770,-678,0,0,0,0,0,0,0,0,0,-1,1994,1702,0,0
777,-678,0,0,0,0,0,0,0,0,0,-1,2001,1702,0,0
784,-678,0,0,0,0,0,0,0,0,0,-1,2008,1702,0,0
791,-678,0,0,0,0,0,0,0,0,0,-1,2015,1702,0,0
798,-678,0,0,0,0,0,0,0,0,0,-1,2022,1702,0,0
805,-678,0,0,0,0,0,0,0,0,0,-1,2029,1702,0,0
812,-678,0,0,0,0,0,0,0,0,0,-1,2036,1702,0,0
-700,-685,0,0,0,0,0,0,0,0,0,-1,524,1709,0,0
-693,-685,0,0,0,0,0,0,0,0,0,-1,531,1709,0,0
-686,-685,0,0,0,0,0,0,0,0,0,-1,538,1709,0,0
-679,-685,0,0,0,0,0,0,0,0,0,-1,545,1709,0,0
-672,-685,0,0,0,0,0,0,0,0,0,-1,552,1709,0,0
-665,-685,0,0,0,0,0,0,0,0,0,-1,559,1709,0,0
-658,-685,0,0,0,0,0,0,0,0,0,-1,566,1709,0,0
-651,-685,0,0,0,0,0,0,0,0,0,-1,573,1709,0,0
-644,-685,0,0,0,0,0,0,0,0,0,-1,580,1709,0,0
-637,-685,0,0,0,0,0,0,0,0,0,-1,587,1709,0,0
-630,-685,0,0,0,0,0,0,0,0,0,-1,594,1709,0,0
-623,-685,0,0,0,0,0,0,0,0,0,-1,601,1709,0,0
-616,-685,0,0,0,0,0,0,0,0,0,-1,608,1709,0,0
-609,-685,0,0,0,0,0,0,0,0,0,-1,615,1709,0,0
-602,-685,0,0,0,0,0,0,0,0,0,-1,622,1709,0,0
-595,-685,0,0,0,0,0,0,0,0,0,-1,629,1709,0,0
-588,-685,0,0,0,0,0,0,0,0,0,-1,636,1709,0,0
-581,-685,0,0,0,0,0,0,0,0,0,-1,643,1709,0,0
-574,-685,0,0,0,0,0,0,0,0,0,-1,650,1709,0,0
-567,-685,0,0,0,0,0,0,0,0,0,-1,657,1709,0,0
-560,-685,0,0,0,0,0,0,0,0,0,-1,664,1709,0,0
-553,-685,0,0,0,0,0,0,0,0,0,-1,671,1709,0,0
-546,-685,0,0,0,0,0,0,0,0,0,-1,678,1709,0,0
-539,-685,0,0,0,0,0,0,0,0,0,-1,685,1709,0,0
-532,-685,0,0,0,0,0,0,0,0,0,-1,692,1709,0,0
-525,-685,0,0,0,0,0,0,0,0,0,-1,699,1709,0,0
-518,-685,0,0,0,0,0,0,0,0,0,-1,706,1709,0,0
-511,-685,0,0,0,0,0,0,0,0,0,-1,713,1709,0,0
-504,-685,0,0,0,0,0,0,0,0,0,-1,720,1709,0,0
-497,-685,0,0,0,0,0,0,0,0,0,-1,727,1709,0,0
-490,-685,0,0,0,0,0,0,0,0,0,-1,734,1709,0,0
-483,-685,0,0,0,0,0,0,0,0,0,-1,741,1709,0,0
-476,-685,0,0,0,0,0,0,0,0,0,-1,748,1709,0,0
-469,-685,0,0,0,0,0,0,0,0,0,-1,755,1709,0,0
-462,-685,0,0,0,0,0,0,0,0,0,-1,762,1709,0,0
-455,-685,0,0,0,0,0,0,0,0,0,-1,769,1709,0,0
-448,-685,0,0,0,0,0,0,0,0,0,-1,776,1709,0,0
-441,-685,0,0,0,0,0,0,0,0,0,-1,783,1709,0,0
-434,-685,0,0,0,0,0,0,0,0,0,-1,790,1709,0,0
-427,-685,0,0,0,0,0,0,0,0,0,-1,797,1709,0,0
-420,-685,0,0,0,0,0,0,0,0,0,-1,804,1709,0,0
-413,-685,0,0,0,0,0,0,0,0,0,-1,811,1709,0,0
-406,-685,0,0,0,0,0,0,0,0,0,-1,818,1709,0,0
-399,-685,0,0,0,0,0,0,0,0,0,-1,825,1709,0,0
-392,-685,0,0,0,0,0,0,0,0,0,-1,832,1709,0,0
-385,-685,0,0,0,0,0,0,0,0,0,-1,839,1709,0,0
-378,-685,0,0,0,0,0,0,0,0,0,-1,846,1709,0,0
-371,-685,0,0,0,0,0,0,0,0,0,-1,853,1709,0,0
-364,-685,0,0,0,0,0,0,0,0,0,-1,860,1709,0,0
-357,-685,0,0,0,0,0,0,0,0,0,-1,867,1709,0,0
-350,-685,0,0,0,0,0,0,0,0,0,-1,874,1709,0,0
-343,-685,-5.98505,6.56335,0,0,0,0,0,0,0,-1,881,1709,-5.98505,-6.56329
-336,-685,-6.51312,5.10571,0,0,0,0,0,0,0,-1,888,1709,-6.51311,-5.10575
-329,-685,-6.81384,3.34106,0,0,0,0,0,0,0,-1,895,1709,-6.81385,-3.341
-322,-685,3.83191,16.7219,0,0,0,0,0,0,0,-1,902,1709,3.8319,-16.7219
-315,-685,5.15784,21.4388,0,0,0,0,0,0,0,-1,909,1709,5.15783,-21.4389
-308,-685,6.36969,21.0303,0,0,0,0,0,0,0,-1,916,1709,6.36968,-21.0302
-301,-685,4.6817,27.6464,0,0,0,0,0,0,0,-1,923,1709,4.6817,-27.6464
-294,-685,6.29749,25.3914,0,0,0,0,0,0,0,-1,930,1709,6.29751,-25.3914
-287,-685,6.37677,26.0441,0,0,0,0,0,0,0,-1,937,1709,6.3768,-26.0441
-280,-685,6.45837,26.7557,0,0,0,0,0,0,0,-1,944,1709,6.45838,-26.7558
-273,-685,6.57532,27.4039,0.00903887,0.0219575,0.0127853,0.0298225,0.00117387,1.0193,0.0195021,0.0477142,951,1709,6.57532,-27.4039
-266,-685,7.06219,28.8016,0.00682104,0.0163841,0.00883116,0.0216451,0.00156003,1.03352,0.0139392,0.0473249,958,1709,7.06222,-28.8016
-259,-685,6.95715,29.3844,0.00471732,0.0112175,0.00589815,0.0147017,0.00123307,1.03722,0.00941709,0.0423841,965,1709,6.95713,-29.3844
-252,-685,6.93359,29.7195,0.00328054,0.00685167,0.00385766,0.00931696,0.000815249,1.00215,0.00595818,0.0370315,972,1709,6.93361,-29.7195
-245,-685,6.88599,30.0208,0.00207998,0.00359345,0.00236619,0.00532096,0.000352459,0.940164,0.00343585,0.0348071,979,1709,6.88597,-30.0208
-238,-685,6.84167,30.3995,0.00150224,0.00155249,0.00163058,0.00315814,-0.000103404,0.793102,0.00214073,0.0266313,986,1709,6.84165,-30.3995
-231,-685,6.76831,30.777,0.000905956,-0.000343369,0.0012402,0.00166992,-0.00110734,0.552105,0.00161438,0.017141,993,1709,6.76831,-30.777
-224,-685,6.70349,31.0906,0.000665561,-0.00132365,0.00126313,0.00127866,-0.00193675,0.451888,0.00186934,0.0151561,1000,1709,6.70348,-31.0905
-217,-685,6.69031,31.4509,7.68757e-06,-0.00256717,0.000775502,0.000223214,-0.0027827,0.271078,0.00193384,0.0118006,1007,1709,6.69029,-31.4509
-210,-685,6.67834,31.8149,-1.69694e-05,-0.0025777,0.00125096,0.0004927,-0.00308737,0.38689,0.00224061,0.0158211,1014,1709,6.67835,-31.8149
-203,-685,6.66187,32.1377,0.000274143,-0.00232101,0.00174898,0.00115433,-0.00320119,0.466248,0.00260558,0.0153742,1021,1709,6.6619,-32.1376
-196,-685,6.63867,32.4509,0.000332734,-0.00207363,0.0019578,0.00142752,-0.00316842,0.509871,0.00271618,0.0129051,1028,1709,6.63868,-32.4509
-189,-685,6.62781,32.769,0.000440613,-0.00174932,0.00195485,0.00158627,-0.00289497,0.530105,0.00262377,0.0090378,1035,1709,6.62781,-32.7691
-182,-685,6.63049,33.0865,0.000557579,-0.0014658,0.00186521,0.00166781,-0.00257603,0.536904,0.00246881,0.0136061,1042,1709,6.63053,-33.0866
-175,-685,6.63074,33.4037,0.000785988,-0.000965532,0.00167669,0.00180186,-0.0019814,0.544729,0.00218508,0.0139803,1049,1709,6.63074,-33.4036
-168,-685,6.61316,33.7036,0.00105012,-0.000418982,0.00139646,0.00189343,-0.0012623,0.543279,0.00183407,0.0106661,1056,1709,6.61319,-33.7036
-161,-685,6.61804,33.9908,0.0013411,0.000255025,0.00105487,0.00198451,-0.000388377,0.547692,0.00146967,0.0106078,1063,1709,6.61798,-33.9908
-154,-685,6.62463,34.2793,0.00171108,0.00115173,0.000743283,0.00222556,0.000637247,0.605455,0.00132346,0.00952225,1070,1709,6.62466,-34.2793
-147,-685,6.60767,34.5458,0.00207213,0.00211551,0.000435999,0.00253036,0.00165728,0.810253,0.00148411,0.00869142,1077,1709,6.60767,-34.5457
-140,-685,6.60657,34.7957,0.00245939,0.00299142,0.00026986,0.00310433,0.00234647,1.17451,0.00186888,0.0110428,1084,1709,6.6066,-34.7956
-133,-685,6.62646,35.0728,0.00284557,0.00391243,0.000195721,0.0039472,0.00281079,1.39497,0.00234627,0.0106729,1091,1709,6.62647,-35.0728
-126,-685,6.64648,35.3474,0.00313901,0.0048723,0.000106079,0.00487876,0.00313254,1.5099,0.00285441,0.00950164,1098,1709,6.64645,-35.3474
-119,-685,6.68762,35.5931,0.00341964,0.00568019,2.10107e-05,0.00568039,0.00341944,1.5615,0.00330223,0.0129682,1105,1709,6.68759,-35.5931
-112,-685,6.69324,35.8314,0.00354864,0.00628157,3.59496e-05,0.00628205,0.00354816,1.55765,0.00363708,0.0127779,1112,1709,6.69328,-35.8315
-105,-685,6.66345,36.0425,0.00343924,0.00659528,0.000101426,0.00659854,0.00343598,1.5387,0.00381076,0.0138303,1119,1709,6.66346,-36.0425
-98,-685,6.73267,36.2323,0.00327979,0.00691643,-0.000173344,0.00692468,0.00327155,-1.52327,0.00399999,0.0185792,1126,1709,6.73268,-36.2323
-91,-685,6.73267,36.3734,0.00320373,0.00655732,-0.000736652,0.006712,0.00304905,-1.36383,0.00388058,0.0286956,1133,1709,6.73267,-36.3734
-84,-685,6.75598,36.5775,0,0,0,0,0,0,0,-1,1140,1709,6.756,-36.5775
-77,-685,6.75415,36.9385,0,0,0,0,0,0,0,-1,1147,1709,6.75415,-36.9384
-70,-685,6.84839,37.1699,0,0,0,0,0,0,0,-1,1154,1709,6.84842,-37.1699
-63,-685,6.03015,29.7728,0,0,0,0,0,0,0,-1,1161,1709,6.0302,-29.7728
-56,-685,3.93909,15.8704,0,0,0,0,0,0,0,-1,1168,1709,3.93905,-15.8704
-49,-685,3.07471,9.86011,0,0,0,0,0,0,0,-1,1175,1709,3.07467,-9.86009
-42,-685,2.70618,7.54504,0,0,0,0,0,0,0,-1,1182,1709,2.7062,-7.54504
-35,-685,2.95264,7.91516,0,0,0,0,0,0,0,-1,1189,1709,2.95262,-7.91517
-28,-685,7.0033,38.1748,0,0,0,0,0,0,0,-1,1196,1709,7.00331,-38.1748
-21,-685,7.29077,37.9905,0,0,0,0,0,0,0,-1,1203,1709,7.29079,-37.9905
-14,-685,7.32056,38.1844,0.00104778,0.0234089,-0.000320057,0.0234134,0.00104321,-1.55649,0.0152731,0.0318776,1210,1709,7.32057,-38.1845
-7,-685,7.43042,38.3105,0.00400099,0.0250663,5.07383e-05,0.0250664,0.00400087,1.56839,0.0155498,0.0445691,1217,1709,7.43044,-38.3106
0,-685,7.4292,38.5897,0.0070471,0.0265148,0.000436509,0.0265245,0.00703732,1.54839,0.0158663,0.0469975,1224,1709,7.42922,-38.5897
7,-685,7.37183,38.8607,0.0103817,0.0279944,0.000733248,0.0280248,0.0103513,1.52926,0.0163632,0.0404346,1231,1709,7.37183,-38.8607
14,-685,7.50708,38.9937,0.0134027,0.0340651,0.000872516,0.0341019,0.0133659,1.52867,0.0198414,0.0423679,1238,1709,7.50707,-38.9937
21,-685,7.53479,39.2225,0.0154463,0.0396632,0.00189758,0.039811,0.0152985,1.49307,0.0231892,0.0419027,1245,1709,7.53475,-39.2225
28,-685,7.6781,39.1814,0.0164917,0.0463476,0.0036923,0.0467975,0.0160419,1.44956,0.0274601,0.0450001,1252,1709,7.67805,-39.1814
35,-685,7.80859,39.1445,0.0160641,0.0531872,0.00536177,0.0539461,0.0153052,1.43019,0.0321024,0.043697,1259,1709,7.80862,-39.1446
42,-685,7.93225,39.187,0.0139882,0.0600122,0.00722068,0.0611184,0.012882,1.41877,0.0372026,0.0490495,1266,1709,7.93223,-39.187
49,-685,8.15173,38.5349,0,0,0,0,0,0,0,-1,1273,1709,8.15169,-38.5349
56,-685,7.95154,38.8048,0.00611512,0.073237,0.0123511,0.0754376,0.00391455,1.39448,0.049039,0.0458802,1280,1709,7.9515,-38.8048
63,-685,8.06287,39.1984,-0.000359733,0.0865996,0.0132289,0.0885675,-0.0023277,1.42312,0.059836,0.0445996,1287,1709,8.06283,-39.1984
70,-685,8.11621,39.2843,-0.00753968,0.0926937,0.0149935,0.0948885,-0.00973444,1.42545,0.0667408,0.0448642,1294,1709,8.11617,-39.2844
77,-685,8.13623,39.2682,-0.0147777,0.0996795,0.0172058,0.10221,-0.0173082,1.42477,0.0745819,0.0470148,1301,1709,8.13628,-39.2682
84,-685,7.89551,38.9614,-0.021487,0.104098,0.0176347,0.106527,-0.0239163,1.4339,0.0801882,0.0496608,1308,1709,7.89545,-38.9615
91,-685,8.29883,38.8582,-0.0268652,0.10628,0.0173406,0.108501,-0.0290866,1.44339,0.0837309,0.0475716,1315,1709,8.29877,-38.8581
98,-685,8.20154,38.7196,-0.0299664,0.107047,0.0180131,0.109376,-0.032295,1.44224,0.0857343,0.0425742,1322,1709,8.20157,-38.7196
105,-685,8.49365,38.5471,0,0,0,0,0,0,0,-1,1329,1709,8.49362,-38.5471
112,-685,8.46826,38.533,0,0,0,0,0,0,0,-1,1336,1709,8.46824,-38.533
119,-685,8.49841,38.407,0,0,0,0,0,0,0,-1,1343,1709,8.49844,-38.407
126,-685,8.37512,38.1764,0,0,0,0,0,0,0,-1,1350,1709,8.37516,-38.1764
133,-685,7.97546,37.6798,0,0,0,0,0,0,0,-1,1357,1709,7.97547,-37.6798
140,-685,8.61975,38.5245,0,0,0,0,0,0,0,-1,1364,1709,8.61978,-38.5245
147,-685,8.69763,38.3501,0,0,0,0,0,0,0,-1,1371,1709,8.69764,-38.35
154,-685,8.6626,38.2898,0,0,0,0,0,0,0,-1,1378,1709,8.6626,-38.2898
161,-685,8.91943,38.0649,0,0,0,0,0,0,0,-1,1385,1709,8.91939,-38.0649
168,-685,4.37524,10.8778,0,0,0,0,0,0,0,-1,1392,1709,4.37525,-10.8778
175,-685,3.97522,8.94324,0,0,0,0,0,0,0,-1,1399,1709,3.97519,-8.94328
182,-685,3.98218,9.19739,0,0,0,0,0,0,0,-1,1406,1709,3.98221,-9.1974
189,-685,4.53479,15.2343,0,0,0,0,0,0,0,-1,1413,1709,4.53474,-15.2343
196,-685,8.85242,37.5239,0,0,0,0,0,0,0,-1,1420,1709,8.85241,-37.5239
203,-685,8.86243,37.1936,0,0,0,0,0,0,0,-1,1427,1709,8.86239,-37.1936
210,-685,9.00427,36.9591,0,0,0,0,0,0,0,-1,1434,1709,9.00429,-36.959
217,-685,8.94861,36.679,0,0,0,0,0,0,0,-1,1441,1709,8.94858,-36.6789
224,-685,8.98364,36.6327,0,0,0,0,0,0,0,-1,1448,1709,8.98364,-36.6327
231,-685,8.97803,36.4281,0.00316054,0.000544607,0.000288494,0.00319198,0.000513169,0.108545,0.00197923,0.0380907,1455,1709,8.978,-36.4281
238,-685,9.01099,36.1038,0.00315557,0.000985092,-7.45038e-05,0.00315812,0.000982537,-0.0342722,0.00186621,0.0192058,1462,1709,9.01096,-36.1037
245,-685,8.98206,35.885,0.00303648,0.00147287,-0.000251199,0.00307585,0.0014335,-0.155443,0.0017772,0.0181407,1469,1709,8.98205,-35.8851
252,-685,9.01575,35.6979,0.00285143,0.00152461,-0.000420873,0.00297367,0.00140237,-0.282669,0.00171777,0.0132005,1476,1709,9.0158,-35.6979
259,-685,9.03894,35.4951,0.00274263,0.00159189,-0.000615136,0.00300955,0.00132498,-0.409394,0.00174169,0.0100801,1483,1709,9.03891,-35.4951
266,-685,9.07495,35.2479,0.00263092,0.00157442,-0.000751213,0.00302102,0.00118432,-0.478965,0.00175769,0.0125215,1490,1709,9.07499,-35.2479
273,-685,9.08447,34.9863,0.00248272,0.00149669,-0.000819456,0.00294604,0.00103337,-0.514588,0.00172596,0.014266,1497,1709,9.08445,-34.9863
280,-685,9.05566,34.7203,0.00229032,0.00142337,-0.000895524,0.00285176,0.000861925,-0.559998,0.00168885,0.0152468,1504,1709,9.05566,-34.7203
287,-685,9.05078,34.4393,0.00209212,0.00140783,-0.000951324,0.00276095,0.000738994,-0.612775,0.00165041,0.0116123,1511,1709,9.05077,-34.4393
294,-685,9.06775,34.1703,0.0019025,0.00152161,-0.0010604,0.00278942,0.000634682,-0.696547,0.0016883,0.00964881,1518,1709,9.06773,-34.1702
301,-685,9.0575,33.8983,0.00172035,0.0015193,-0.00120098,0.002825,0.000414646,-0.743644,0.00176146,0.0129337,1525,1709,9.05745,-33.8983
308,-685,9.06567,33.6298,0.00153312,0.00149172,-0.00138843,0.00290101,0.000123832,-0.777945,0.00189408,0.0144049,1532,1709,9.06566,-33.6297
315,-685,9.06482,33.3491,0.00135702,0.00124156,-0.00153682,0.00283719,-0.000238608,-0.766624,0.00197581,0.012844,1539,1709,9.06481,-33.3491
322,-685,9.03247,33.0353,0.00121069,0.00104509,-0.00169686,0.00282677,-0.000570993,-0.761021,0.00210087,0.0202862,1546,1709,9.03249,-33.0353
329,-685,9.02148,32.7361,0.00106817,0.000643449,-0.00187321,0.00274101,-0.0010294,-0.728956,0.00225037,0.0186906,1553,1709,9.02151,-32.7361
336,-685,9.01697,32.4028,0.000827707,0.000126255,-0.00199045,0.00249809,-0.00154413,-0.698191,0.00235534,0.0126203,1560,1709,9.01694,-32.4028
343,-685,9.01123,32.0917,0.000542515,-0.000552777,-0.00192656,0.00199775,-0.00200802,-0.64692,0.00231273,0.0117375,1567,1709,9.01128,-32.0917
350,-685,8.98645,31.7852,0.000340409,-0.00126301,-0.00183543,0.00154158,-0.00246419,-0.579488,0.00233309,0.0127883,1574,1709,8.98646,-31.7852
357,-685,8.9884,31.4791,-0.000105314,-0.00256173,-0.00140472,0.000532415,-0.00319946,-0.426168,0.0023308,0.0100792,1581,1709,8.98836,-31.4792
364,-685,8.97205,31.1655,-0.000517012,-0.00390106,-0.000911674,-0.000287033,-0.00413104,-0.247105,0.00266351,0.00977009,1588,1709,8.97202,-31.1656
371,-685,8.98682,30.8314,-0.00103405,-0.00527532,-0.000221171,-0.00102255,-0.00528682,-0.0519596,0.00323797,0.0154547,1595,1709,8.9868,-30.8315
378,-685,8.98267,30.4681,-0.00175262,-0.0070456,0.00085764,-0.00161712,-0.0071811,0.156694,0.00434974,0.0195707,1602,1709,8.98264,-30.4681
385,-685,8.89978,30.1383,-0.00249273,-0.00863101,0.00221064,-0.00177947,-0.00934427,0.312104,0.00572922,0.0360186,1609,1709,8.89978,-30.1384
392,-685,8.59399,29.9193,-0.00324778,-0.0108222,0.00382247,-0.00165408,-0.0124159,0.395016,0.00778471,0.0385244,1616,1709,8.59394,-29.9193
399,-685,8.77173,29.572,-0.00415879,-0.0128815,0.00546759,-0.00152615,-0.0155141,0.448738,0.00987344,0.0423576,1623,1709,8.77172,-29.572
406,-685,8.53918,29.1799,0,0,0,0,0,0,0,-1,1630,1709,8.53916,-29.18
413,-685,9.14075,29.2178,0,0,0,0,0,0,0,-1,1637,1709,9.14078,-29.2178
420,-685,4.84631,10.3781,0,0,0,0,0,0,0,-1,1644,1709,4.84634,-10.378
427,-685,6.05151,9.21155,0,0,0,0,0,0,0,-1,1651,1709,6.05156,-9.21156
434,-685,4.87769,8.91418,0,0,0,0,0,0,0,-1,1658,1709,4.87768,-8.91413
441,-685,5.62,8.75549,0,0,0,0,0,0,0,-1,1665,1709,5.61996,-8.75545
448,-685,6.4043,8.58972,0,0,0,0,0,0,0,-1,1672,1709,6.40435,-8.58971
455,-685,2.31958,4.09802,0,0,0,0,0,0,0,-1,1679,1709,2.31957,-4.09803
462,-685,0,0,0,0,0,0,0,0,0,-1,1686,1709,0,0
469,-685,0,0,0,0,0,0,0,0,0,-1,1693,1709,0,0
476,-685,0,0,0,0,0,0,0,0,0,-1,1700,1709,0,0
483,-685,0,0,0,0,0,0,0,0,0,-1,1707,1709,0,0
490,-685,0,0,0,0,0,0,0,0,0,-1,1714,1709,0,0
497,-685,0,0,0,0,0,0,0,0,0,-1,1721,1709,0,0
504,-685,0,0,0,0,0,0,0,0,0,-1,1728,1709,0,0
511,-685,0,0,0,0,0,0,0,0,0,-1,1735,1709,0,0
518,-685,0,0,0,0,0,0,0,0,0,-1,1742,1709,0,0
525,-685,0,0,0,0,0,0,0,0,0,-1,1749,1709,0,0
532,-685,0,0,0,0,0,0,0,0,0,-1,1756,1709,0,0
539,-685,0,0,0,0,0,0,0,0,0,-1,1763,1709,0,0
546,-685,0,0,0,0,0,0,0,0,0,-1,1770,1709,0,0
553,-685,0,0,0,0,0,0,0,0,0,-1,1777,1709,0,0
560,-685,0,0,0,0,0,0,0,0,0,-1,1784,1709,0,0
567,-685,0,0,0,0,0,0,0,0,0,-1,1791,1709,0,0
574,-685,0,0,0,0,0,0,0,0,0,-1,1798,1709,0,0
581,-685,0,0,0,0,0,0,0,0,0,-1,1805,1709,0,0
588,-685,0,0,0,0,0,0,0,0,0,-1,1812,1709,0,0
595,-685,0,0,0,0,0,0,0,0,0,-1,1819,1709,0,0
602,-685,0,0,0,0,0,0,0,0,0,-1,1826,1709,0,0
609,-685,0,0,0,0,0,0,0,0,0,-1,1833,1709,0,0
616,-685,0,0,0,0,0,0,0,0,0,-1,1840,1709,0,0
623,-685,0,0,0,0,0,0,0,0,0,-1,1847,1709,0,0
630,-685,0,0,0,0,0,0,0,0,0,-1,1854,1709,0,0
637,-685,0,0,0,0,0,0,0,0,0,-1,1861,1709,0,0
644,-685,0,0,0,0,0,0,0,0,0,-1,1868,1709,0,0
651,-685,0,0,0,0,0,0,0,0,0,-1,1875,1709,0,0
658,-685,0,0,0,0,0,0,0,0,0,-1,1882,1709,0,0
665,-685,0,0,0,0,0,0,0,0,0,-1,1889,1709,0,0
672,-685,0,0,0,0,0,0,0,0,0,-1,1896,1709,0,0
679,-685,0,0,0,0,0,0,0,0,0,-1,1903,1709,0,0
686,-685,0,0,0,0,0,0,0,0,0,-1,1910,1709,0,0
693,-685,0,0,0,0,0,0,0,0,0,-1,1917,1709,0,0
700,-685,0,0,0,0,0,0,0,0,0,-1,1924,1709,0,0
707,-685,0,0,0,0,0,0,0,0,0,-1,1931,1709,0,0
714,-685,0,0,0,0,0,0,0,0,0,-1,1938,1709,0,0
721,-685,0,0,0,0,0,0,0,0,0,-1,1945,1709,0,0
728,-685,0,0,0,0,0,0,0,0,0,-1,1952,1709,0,0
735,-685,0,0,0,0,0,0,0,0,0,-1,1959,1709,0,0
742,-685,0,0,0,0,0,0,0,0,0,-1,1966,1709,0,0
749,-685,0,0,0,0,0,0,0,0,0,-1,1973,1709,0,0
756,-685,0,0,0,0,0,0,0,0,0,-1,1980,1709,0,0
763,-685,0,0,0,0,0,0,0,0,0,-1,1987,1709,0,0
770,-685,0,0,0,0,0,0,0,0,0,-1,1994,1709,0,0
777,-685,0,0,0,0,0,0,0,0,0,-1,2001,1709,0,0
784,-685,0,0,0,0,0,0,0,0,0,-1,2008,1709,0,0
791,-685,0,0,0,0,0,0,0,0,0,-1,2015,1709,0,0
798,-685,0,0,0,0,0,0,0,0,0,-1,2022,1709,0,0
805,-685,0,0,0,0,0,0,0,0,0,-1,2029,1709,0,0
812,-685,0,0,0,0,0,0,0,0,0,-1,2036,1709,0,0
-700,-692,0,0,0,0,0,0,0,0,0,-1,524,1716,0,0
-693,-692,0,0,0,0,0,0,0,0,0,-1,531,1716,0,0
-686,-692,0,0,0,0,0,0,0,0,0,-1,538,1716,0,0
-679,-692,0,0,0,0,0,0,0,0,0,-1,545,1716,0,0
-672,-692,0,0,0,0,0,0,0,0,0,-1,552,1716,0,0
-665,-692,0,0,0,0,0,0,0,0,0,-1,559,1716,0,0
-658,-692,0,0,0,0,0,0,0,0,0,-1,566,1716,0,0
-651,-692,0,0,0,0,0,0,0,0,0,-1,573,1716,0,0
-644,-692,0,0,0,0,0,0,0,0,0,-1,580,1716,0,0
-637,-692,0,0,0,0,0,0,0,0,0,-1,587,1716,0,0
-630,-692,0,0,0,0,0,0,0,0,0,-1,594,1716,0,0
-623,-692,0,0,0,0,0,0,0,0,0,-1,601,1716,0,0
-616,-692,0,0,0,0,0,0,0,0,0,-1,608,1716,0,0
-609,-692,0,0,0,0,0,0,0,0,0,-1,615,1716,0,0
-602,-692,0,0,0,0,0,0,0,0,0,-1,622,1716,0,0
-595,-692,0,0,0,0,0,0,0,0,0,-1,629,1716,0,0
-588,-692,0,0,0,0,0,0,0,0,0,-1,636,1716,0,0
-581,-692,0,0,0,0,0,0,0,0,0,-1,643,1716,0,0
-574,-692,0,0,0,0,0,0,0,0,0,-1,650,1716,0,0
-567,-692,0,0,0,0,0,0,0,0,0,-1,657,1716,0,0
-560,-692,0,0,0,0,0,0,0,0,0,-1,664,1716,0,0
-553,-692,0,0,0,0,0,0,0,0,0,-1,671,1716,0,0
-546,-692,0,0,0,0,0,0,0,0,0,-1,678,1716,0,0
-539,-692,0,0,0,0,0,0,0,0,0,-1,685,1716,0,0
-532,-692,0,0,0,0,0,0,0,0,0,-1,692,1716,0,0
-525,-692,0,0,0,0,0,0,0,0,0,-1,699,1716,0,0
-518,-692,0,0,0,0,0,0,0,0,0,-1,706,1716,0,0
-511,-692,0,0,0,0,0,0,0,0,0,-1,713,1716,0,0
-504,-692,0,0,0,0,0,0,0,0,0,-1,720,1716,0,0
-497,-692,0,0,0,0,0,0,0,0,0,-1,727,1716,0,0
-490,-692,0,0,0,0,0,0,0,0,0,-1,734,1716,0,0
-483,-692,0,0,0,0,0,0,0,0,0,-1,741,1716,0,0
-476,-692,0,0,0,0,0,0,0,0,0,-1,748,1716,0,0
-469,-692,0,0,0,0,0,0,0,0,0,-1,755,1716,0,0
-462,-692,0,0,0,0,0,0,0,0,0,-1,762,1716,0,0
-455,-692,0,0,0,0,0,0,0,0,0,-1,769,1716,0,0
-448,-692,0,0,0,0,0,0,0,0,0,-1,776,1716,0,0
-441,-692,0,0,0,0,0,0,0,0,0,-1,783,1716,0,0
-434,-692,0,0,0,0,0,0,0,0,0,-1,790,1716,0,0
-427,-692,0,0,0,0,0,0,0,0,0,-1,797,1716,0,0
-420,-692,0,0,0,0,0,0,0,0,0,-1,804,1716,0,0
-413,-692,0,0,0,0,0,0,0,0,0,-1,811,1716,0,0
-406,-692,0,0,0,0,0,0,0,0,0,-1,818,1716,0,0
-399,-692,0,0,0,0,0,0,0,0,0,-1,825,1716,0,0
-392,-692,0,0,0,0,0,0,0,0,0,-1,832,1716,0,0
-385,-692,0,0,0,0,0,0,0,0,0,-1,839,1716,0,0
-378,-692,0,0,0,0,0,0,0,0,0,-1,846,1716,0,0
-371,-692,0,0,0,0,0,0,0,0,0,-1,853,1716,0,0
-364,-692,0,0,0,0,0,0,0,0,0,-1,860,1716,0,0
-357,-692,0,0,0,0,0,0,0,0,0,-1,867,1716,0,0
-350,-692,0,0,0,0,0,0,0,0,0,-1,874,1716,0,0
-343,-692,0,0,0,0,0,0,0,0,0,-1,881,1716,0,0
-336,-692,0,0,0,0,0,0,0,0,0,-1,888,1716,0,0
-329,-692,3.03107,4.10266,0,0,0,0,0,0,0,-1,895,1716,3.03105,-4.10267
-322,-692,4.43713,18.5242,0,0,0,0,0,0,0,-1,902,1716,4.43711,-18.5241
-315,-692,5.38965,17.975,0,0,0,0,0,0,0,-1,909,1716,5.38963,-17.975
-308,-692,5.86938,17.4392,0,0,0,0,0,0,0,-1,916,1716,5.86937,-17.4392
-301,-692,8.65558,20.7662,0,0,0,0,0,0,0,-1,923,1716,8.65556,-20.7663
-294,-692,7.04529,27.412,0,0,0,0,0,0,0,-1,930,1716,7.04529,-27.412
-287,-692,6.51239,25.4999,0,0,0,0,0,0,0,-1,937,1716,6.51237,-25.4999
-280,-692,6.59369,26.2999,0,0,0,0,0,0,0,-1,944,1716,6.59366,-26.2999
-273,-692,6.56561,27.0629,0,0,0,0,0,0,0,-1,951,1716,6.56559,-27.0629
-266,-692,7.59137,28.7114,0,0,0,0,0,0,0,-1,958,1716,7.59137,-28.7114
-259,-692,7.47272,29.4414,0,0,0,0,0,0,0,-1,965,1716,7.4727,-29.4414
-252,-692,7.43567,29.7813,0,0,0,0,0,0,0,-1,972,1716,7.43567,-29.7813
-245,-692,7.35938,29.9607,0,0,0,0,0,0,0,-1,979,1716,7.35934,-29.9608
-238,-692,7.32013,30.3452,0.00618766,-0.00165829,-0.00269747,0.00702557,-0.0024962,-0.30118,0.00570095,0.0430642,986,1716,7.32013,-30.3452
-231,-692,7.22583,30.7855,0.00489891,-0.00379604,-0.00246581,0.00554951,-0.00444664,-0.25797,0.00578298,0.036136,993,1716,7.22581,-30.7855
-224,-692,7.03369,31.1036,0.00403155,-0.00488482,-0.00177645,0.00437245,-0.00522572,-0.189593,0.0055488,0.0185904,1000,1716,7.0337,-31.1037
-217,-692,7.00061,31.4576,0.00272564,-0.00607329,-0.00155674,0.00299295,-0.00634059,-0.170049,0.00550305,0.0127732,1007,1716,7.00059,-31.4577
-210,-692,7.00769,31.7997,0.00207246,-0.00589978,-0.000286046,0.00208272,-0.00591003,-0.0358188,0.00478772,0.0140335,1014,1716,7.00772,-31.7997
-203,-692,7.01062,32.1206,0.00179065,-0.00535219,0.000911039,0.00190502,-0.00546655,0.124883,0.00441846,0.015446,1021,1716,7.01067,-32.1206
-196,-692,6.9646,32.4636,0.00123674,-0.00477464,0.00166778,0.00166844,-0.00520634,0.253289,0.00414065,0.0170512,1028,1716,6.96464,-32.4636
-189,-692,6.91614,32.7617,0.000791045,-0.00406608,0.00211172,0.00158075,-0.00485579,0.357863,0.00387317,0.00904205,1035,1716,6.91608,-32.7618
-182,-692,6.92212,33.0707,0.0003041,-0.00349404,0.00247075,0.00152129,-0.00471123,0.457742,0.00375217,0.0133316,1042,1716,6.92207,-33.0707
-175,-692,6.92078,33.3975,9.4935e-05,-0.00261673,0.00256749,0.00164259,-0.00416439,0.54247,0.00345644,0.0149931,1049,1716,6.92075,-33.3975
-168,-692,6.91943,33.7096,2.96201e-05,-0.00172421,0.00238301,0.00169194,-0.00338653,0.609095,0.00298597,0.0116678,1056,1716,6.91939,-33.7096
-161,-692,6.92407,34.0067,6.29173e-05,-0.000824819,0.00197809,0.00164633,-0.00240823,0.67503,0.00235464,0.0128871,1063,1716,6.92401,-34.0067
-154,-692,6.90564,34.2998,0.000285346,0.000145094,0.00152682,0.00174365,-0.00131321,0.76245,0.0017707,0.0133797,1070,1716,6.90566,-34.2997
-147,-692,6.88416,34.5614,0.000517411,0.0011158,0.00103377,0.0018928,-0.000259593,0.926259,0.0013567,0.0118711,1077,1716,6.88411,-34.5615
-140,-692,6.87256,34.8214,0.000877139,0.0019879,0.000747793,0.002364,0.000501048,1.1048,0.00143837,0.00925362,1084,1716,6.8725,-34.8214
-133,-692,6.88391,35.0917,0.00125425,0.00275148,0.000550595,0.00293215,0.00107357,1.25372,0.00171298,0.00912753,1091,1716,6.88386,-35.0916
-126,-692,6.90125,35.3464,0.00167152,0.00357843,0.000392461,0.00365604,0.0015939,1.37555,0.00211658,0.00767863,1098,1716,6.90124,-35.3464
-119,-692,6.89587,35.5809,0.00202191,0.00427836,0.000248935,0.00430549,0.00199478,1.46221,0.00248801,0.0110117,1105,1716,6.89584,-35.5809
-112,-692,6.90955,35.8191,0.00226341,0.00481119,0.000181071,0.00482399,0.0022506,1.5002,0.00278721,0.010717,1112,1716,6.90959,-35.8191
-105,-692,6.95813,36.0553,0.00231084,0.00506007,0.000131373,0.00506634,0.00230457,1.52316,0.00292902,0.0155381,1119,1716,6.9581,-36.0553
-98,-692,6.98035,36.2595,0.00232862,0.00522192,-7.39227e-05,0.0052238,0.00232673,-1.54527,0.00302195,0.0165112,1126,1716,6.98038,-36.2595
-91,-692,6.96729,36.4572,0.00235851,0.00490566,-0.000463468,0.00498736,0.0022768,-1.39629,0.00288308,0.0194585,1133,1716,6.96733,-36.4571
-84,-692,6.97815,36.6349,0.00244662,0.00454465,-0.0008171,0.00482533,0.00216594,-1.23992,0.00279076,0.0227931,1140,1716,6.97809,-36.6349
-77,-692,6.97852,36.9033,0.00283906,0.00442524,-0.00147352,0.00530555,0.00195875,-1.03228,0.00309791,0.0181855,1147,1716,6.97853,-36.9034
-70,-692,7.02783,37.0741,0.00322089,0.00373416,-0.00207789,0.0055712,0.00138385,-0.846841,0.00334953,0.0328439,1154,1716,7.02778,-37.0741
-63,-692,7.0625,37.2228,0,0,0,0,0,0,0,-1,1161,1716,7.06249,-37.2227
-56,-692,7.02515,37.4039,0,0,0,0,0,0,0,-1,1168,1716,7.02511,-37.4039
-49,-692,7.02197,37.6625,0,0,0,0,0,0,0,-1,1175,1716,7.02194,-37.6625
-42,-692,7.15344,37.8114,0,0,0,0,0,0,0,-1,1182,1716,7.15347,-37.8114
-35,-692,7.25122,38.02,0,0,0,0,0,0,0,-1,1189,1716,7.25116,-38.02
-28,-692,7.17175,38.1261,0.00300159,0.0146592,-0.000872198,0.014724,0.0029367,-1.49653,0.00899831,0.0492533,1196,1716,7.17176,-38.126
-21,-692,7.30249,38.0441,0.00360244,0.0162877,-0.000451576,0.0163037,0.00358639,-1.53526,0.00989282,0.0337719,1203,1716,7.30249,-38.0441
-14,-692,7.349,38.1454,0.00474518,0.0180317,0.000301858,0.0180386,0.00473832,1.54809,0.0107985,0.0172148,1210,1716,7.34903,-38.1454
-7,-692,7.35669,38.3174,0.00629572,0.0203614,0.000439042,0.0203751,0.00628202,1.53962,0.0120483,0.0169158,1217,1716,7.35665,-38.3174
0,-692,7.37402,38.4368,0.00791087,0.0218067,0.00058875,0.0218316,0.00788597,1.52853,0.0127653,0.0196798,1224,1716,7.37408,-38.4368
7,-692,7.40991,38.5431,0.00978315,0.0233315,0.000697185,0.0233673,0.00974737,1.51952,0.0135527,0.0226385,1231,1716,7.40992,-38.5431
14,-692,7.53882,38.7448,0.0112701,0.0284797,0.000681909,0.0285067,0.0112431,1.53126,0.0165802,0.0248159,1238,1716,7.53878,-38.7448
21,-692,7.67078,38.8237,0.0121806,0.0322354,0.00133156,0.0323234,0.0120926,1.50479,0.018858,0.0267068,1245,1716,7.67075,-38.8238
28,-692,7.67322,38.7661,0.012612,0.0368291,0.00257008,0.0370989,0.0123422,1.46622,0.0218151,0.0274967,1252,1716,7.67326,-38.7661
35,-692,7.69885,38.8457,0.0121047,0.0414263,0.00371778,0.0418904,0.0116406,1.44662,0.0249682,0.0260561,1259,1716,7.69879,-38.8457
42,-692,7.79309,38.9703,0.010561,0.0459536,0.00504632,0.0466591,0.00985552,1.4319,0.0283968,0.0243334,1266,1716,7.79307,-38.9703
49,-692,7.8822,38.9724,0.0082517,0.0499305,0.00656405,0.0509399,0.00724237,1.41822,0.0318217,0.0299713,1273,1716,7.88225,-38.9724
56,-692,7.84949,38.9182,0.00472259,0.0544027,0.00892673,0.055958,0.00316729,1.3983,0.0362957,0.0371558,1280,1716,7.84944,-38.9182
63,-692,7.83667,38.9264,-1.94515e-05,0.0642927,0.00932872,0.0656186,-0.00134528,1.42962,0.044201,0.0375119,1287,1716,7.8367,-38.9264
70,-692,7.98645,39.0319,-0.00509984,0.0683858,0.010506,0.0698583,-0.00657234,1.43155,0.0489104,0.0332004,1294,1716,7.98648,-39.0318
77,-692,8.06421,39.0165,-0.0102203,0.07337,0.0120285,0.0750664,-0.0119167,1.43068,0.0544529,0.0381508,1301,1716,8.06415,-39.0165
84,-692,7.98376,38.8806,-0.0150086,0.0763293,0.0120808,0.0779002,-0.0165795,1.44149,0.0582518,0.0461426,1308,1716,7.98382,-38.8806
91,-692,8.17505,38.8689,-0.0187052,0.0775585,0.0116137,0.0789398,-0.0200865,1.45241,0.060445,0.0402865,1315,1716,8.17505,-38.8689
98,-692,8.14526,38.764,-0.0206407,0.0777422,0.0119996,0.0791846,-0.0220831,1.45116,0.0614872,0.0317746,1322,1716,8.14525,-38.764
105,-692,8.27405,38.6282,-0.0218266,0.0773605,0.0117362,0.0787302,-0.0231964,1.45461,0.0616902,0.0401206,1329,1716,8.27404,-38.6282
112,-692,8.33398,38.5835,-0.0215761,0.0747752,0.0114456,0.0761161,-0.022917,1.45417,0.0598636,0.0437919,1336,1716,8.33397,-38.5835
119,-692,8.29236,38.509,-0.019533,0.0672645,0.0113276,0.0687185,-0.0209869,1.44314,0.0541802,0.0373707,1343,1716,8.29237,-38.509
126,-692,8.30261,38.3597,-0.0157746,0.061252,0.0105645,0.0626746,-0.0171972,1.43694,0.0485418,0.0366706,1350,1716,8.30259,-38.3598
133,-692,8.36218,38.3217,-0.0110368,0.053074,0.00963391,0.0544904,-0.0124532,1.42482,0.0411116,0.0274214,1357,1716,8.36223,-38.3216
140,-692,8.38586,38.3339,-0.0053103,0.0450311,0.00954752,0.046781,-0.00706021,1.38952,0.0337875,0.032419,1364,1716,8.38584,-38.3339
147,-692,8.48242,38.3132,0.000853468,0.0370415,0.00922981,0.0392596,-0.00136465,1.33495,0.0266396,0.0367512,1371,1716,8.4824,-38.3133
154,-692,8.47424,38.1942,0.00591916,0.02983,0.00896358,0.032817,0.00293209,1.24913,0.0209691,0.030598,1378,1716,8.47428,-38.1943
161,-692,8.63416,38.0405,0.0109361,0.0210997,0.00733117,0.0249381,0.00709763,1.08846,0.0148367,0.0412941,1385,1716,8.6341,-38.0405
168,-692,8.57959,37.9253,0,0,0,0,0,0,0,-1,1392,1716,8.57956,-37.9253
175,-692,8.64893,37.7607,0,0,0,0,0,0,0,-1,1399,1716,8.64896,-37.7608
182,-692,8.62,37.574,0,0,0,0,0,0,0,-1,1406,1716,8.62002,-37.5739
189,-692,8.6377,37.4929,0,0,0,0,0,0,0,-1,1413,1716,8.63767,-37.4929
196,-692,8.65735,37.3177,0.0116094,0.00146239,0.00451165,0.0133252,-0.000253473,0.363424,0.00896918,0.0369944,1420,1716,8.65739,-37.3178
203,-692,8.69299,37.1367,0.00381308,0.00054934,0.00157137,0.00444665,-8.42272e-05,0.383257,0.0029929,0.0236437,1427,1716,8.69294,-37.1367
210,-692,8.74939,36.9656,0.00332702,0.000466736,0.001281,0.00381685,-2.30869e-05,0.365221,0.00255229,0.0192394,1434,1716,8.74933,-36.9656
217,-692,8.73901,36.7415,0.00282863,0.000465744,0.000805291,0.00307698,0.000217397,0.299141,0.00198283,0.0171782,1441,1716,8.73904,-36.7415
224,-692,8.75537,36.5603,0.00249412,0.000597506,0.000563269,0.00264879,0.000442836,0.267988,0.00163832,0.0132983,1448,1716,8.75533,-36.5604
231,-692,8.76111,36.3629,0.00227082,0.000684002,0.000105372,0.00227778,0.000677036,0.0660186,0.00135064,0.0121108,1455,1716,8.76112,-36.3629
238,-692,8.76379,36.0841,0.00220352,0.000933984,-0.000179575,0.00222843,0.000909072,-0.137847,0.00129383,0.0176566,1462,1716,8.76379,-36.0841
245,-692,8.74744,35.8951,0.0020832,0.00115954,-0.000329593,0.00218875,0.00105399,-0.309921,0.00126396,0.0190584,1469,1716,8.74743,-35.8952
252,-692,8.78528,35.7214,0.00191926,0.00113008,-0.000469255,0.00213778,0.00091156,-0.435807,0.0012387,0.0172889,1476,1716,8.78527,-35.7214
259,-692,8.78491,35.4912,0.00180896,0.00108972,-0.000623027,0.00216871,0.000729975,-0.523651,0.0012742,0.0095028,1483,1716,8.78497,-35.4912
266,-692,8.78882,35.2233,0.00170187,0.00099755,-0.000751848,0.00217995,0.000519474,-0.566377,0.0013148,0.0102242,1490,1716,8.78885,-35.2233
273,-692,8.80481,34.9664,0.00159293,0.000967989,-0.000869357,0.00220426,0.000356651,-0.612875,0.00136623,0.0139943,1497,1716,8.80478,-34.9664
280,-692,8.82617,34.7125,0.00146011,0.000909485,-0.00100714,0.00222889,0.000140705,-0.651978,0.00144131,0.0132615,1504,1716,8.82615,-34.7125
287,-692,8.81531,34.4514,0.00134362,0.00100293,-0.00115365,0.00233943,7.11484e-06,-0.712099,0.00155725,0.011075,1511,1716,8.81528,-34.4515
294,-692,8.80151,34.1947,0.00124612,0.0012272,-0.00133125,0.00256795,-9.46289e-05,-0.781847,0.00174436,0.0101655,1518,1716,8.80153,-34.1947
301,-692,8.79102,33.929,0.00117097,0.00133475,-0.00153609,0.00279113,-0.000285409,-0.812029,0.00196282,0.0136563,1525,1716,8.79104,-33.9289
308,-692,8.77393,33.6809,0.00108664,0.00140317,-0.00181512,0.00306691,-0.000577105,-0.828884,0.00226166,0.0166684,1532,1716,8.77397,-33.6809
315,-692,8.78174,33.3828,0.00101473,0.00121566,-0.00204509,0.00316276,-0.000932367,-0.809942,0.00247846,0.0153979,1539,1716,8.78178,-33.3828
322,-692,8.72217,33.0226,0.000988506,0.00110523,-0.00228226,0.00332987,-0.00123614,-0.798181,0.00272701,0.0207188,1546,1716,8.7222,-33.0226
329,-692,8.70593,32.718,0.000938518,0.000729397,-0.00250965,0.00334578,-0.00167787,-0.764579,0.00295321,0.0175475,1553,1716,8.7059,-32.718
336,-692,8.71387,32.4268,0.000780568,0.00016642,-0.00269201,0.00318296,-0.00223597,-0.728609,0.00314451,0.0116013,1560,1716,8.7139,-32.4268
343,-692,8.7002,32.1339,0.000566675,-0.000596261,-0.0026273,0.00267609,-0.00270567,-0.676495,0.00310718,0.0129448,1567,1716,8.70021,-32.1339
350,-692,8.6853,31.8284,0.000426999,-0.00139411,-0.00249516,0.00217255,-0.00313967,-0.610442,0.00308391,0.015708,1574,1716,8.68532,-31.8283
357,-692,8.68481,31.4625,-1.6052e-05,-0.00300667,-0.00195417,0.000949272,-0.00397199,-0.458822,0.00301466,0.0213423,1581,1716,8.6848,-31.4625
364,-692,8.70667,31.1022,-0.000409431,-0.00469127,-0.00133686,-2.63203e-05,-0.00507438,-0.279095,0.00337418,0.02603,1588,1716,8.70668,-31.1022
371,-692,8.74744,30.8427,-0.000975535,-0.00646884,-0.000424861,-0.00094287,-0.0065015,-0.0767336,0.00405673,0.0350774,1595,1716,8.74742,-30.8426
378,-692,8.71338,30.5469,-0.00186976,-0.00891431,0.00105726,-0.00171451,-0.00906956,0.145804,0.00556364,0.0472629,1602,1716,8.71332,-30.5469
385,-692,8.53894,30.1372,0,0,0,0,0,0,0,-1,1609,1716,8.53898,-30.1373
392,-692,7.79309,29.8892,0,0,0,0,0,0,0,-1,1616,1716,7.7931,-29.8892
399,-692,8.45276,29.4971,0,0,0,0,0,0,0,-1,1623,1716,8.4528,-29.4971
406,-692,8.48706,30.1267,0,0,0,0,0,0,0,-1,1630,1716,8.48703,-30.1267
413,-692,4.25085,10.5685,0,0,0,0,0,0,0,-1,1637,1716,4.2508,-10.5685
420,-692,5.48901,10.4845,0,0,0,0,0,0,0,-1,1644,1716,5.48906,-10.4845
427,-692,3.79578,8.60339,0,0,0,0,0,0,0,-1,1651,1716,3.79577,-8.6034
434,-692,4.78516,8.64636,0,0,0,0,0,0,0,-1,1658,1716,4.78512,-8.64634
441,-692,5.8208,8.74036,0,0,0,0,0,0,0,-1,1665,1716,5.82084,-8.7404
448,-692,6.73792,8.51013,0,0,0,0,0,0,0,-1,1672,1716,6.73793,-8.5101
455,-692,0,0,0,0,0,0,0,0,0,-1,1679,1716,0,0
462,-692,0,0,0,0,0,0,0,0,0,-1,1686,1716,0,0
469,-692,0,0,0,0,0,0,0,0,0,-1,1693,1716,0,0
476,-692,0,0,0,0,0,0,0,0,0,-1,1700,1716,0,0
483,-692,0,0,0,0,0,0,0,0,0,-1,1707,1716,0,0
490,-692,0,0,0,0,0,0,0,0,0,-1,1714,1716,0,0
497,-692,0,0,0,0,0,0,0,0,0,-1,1721,1716,0,0
504,-692,0,0,0,0,0,0,0,0,0,-1,1728,1716,0,0
511,-692,0,0,0,0,0,0,0,0,0,-1,1735,1716,0,0
518,-692,0,0,0,0,0,0,0,0,0,-1,1742,1716,0,0
525,-692,0,0,0,0,0,0,0,0,0,-1,1749,1716,0,0
532,-692,0,0,0,0,0,0,0,0,0,-1,1756,1716,0,0
539,-692,0,0,0,0,0,0,0,0,0,-1,1763,1716,0,0
546,-692,0,0,0,0,0,0,0,0,0,-1,1770,1716,0,0
553,-692,0,0,0,0,0,0,0,0,0,-1,1777,1716,0,0
560,-692,0,0,0,0,0,0,0,0,0,-1,1784,1716,0,0
567,-692,0,0,0,0,0,0,0,0,0,-1,1791,1716,0,0
574,-692,0,0,0,0,0,0,0,0,0,-1,1798,1716,0,0
581,-692,0,0,0,0,0,0,0,0,0,-1,1805,1716,0,0
588,-692,0,0,0,0,0,0,0,0,0,-1,1812,1716,0,0
595,-692,0,0,0,0,0,0,0,0,0,-1,1819,1716,0,0
602,-692,0,0,0,0,0,0,0,0,0,-1,1826,1716,0,0
609,-692,0,0,0,0,0,0,0,0,0,-1,1833,1716,0,0
616,-692,0,0,0,0,0,0,0,0,0,-1,1840,1716,0,0
623,-692,0,0,0,0,0,0,0,0,0,-1,1847,1716,0,0
630,-692,0,0,0,0,0,0,0,0,0,-1,1854,1716,0,0
637,-692,0,0,0,0,0,0,0,0,0,-1,1861,1716,0,0
644,-692,0,0,0,0,0,0,0,0,0,-1,1868,1716,0,0
651,-692,0,0,0,0,0,0,0,0,0,-1,1875,1716,0,0
658,-692,0,0,0,0,0,0,0,0,0,-1,1882,1716,0,0
665,-692,0,0,0,0,0,0,0,0,0,-1,1889,1716,0,0
672,-692,0,0,0,0,0,0,0,0,0,-1,1896,1716,0,0
679,-692,0,0,0,0,0,0,0,0,0,-1,1903,1716,0,0
686,-692,0,0,0,0,0,0,0,0,0,-1,1910,1716,0,0
693,-692,0,0,0,0,0,0,0,0,0,-1,1917,1716,0,0
700,-692,0,0,0,0,0,0,0,0,0,-1,1924,1716,0,0
707,-692,0,0,0,0,0,0,0,0,0,-1,1931,1716,0,0
714,-692,0,0,0,0,0,0,0,0,0,-1,1938,1716,0,0
721,-692,0,0,0,0,0,0,0,0,0,-1,1945,1716,0,0
728,-692,0,0,0,0,0,0,0,0,0,-1,1952,1716,0,0
735,-692,0,0,0,0,0,0,0,0,0,-1,1959,1716,0,0
742,-692,0,0,0,0,0,0,0,0,0,-1,1966,1716,0,0
749,-692,0,0,0,0,0,0,0,0,0,-1,1973,1716,0,0
756,-692,0,0,0,0,0,0,0,0,0,-1,1980,1716,0,0
763,-692,0,0,0,0,0,0,0,0,0,-1,1987,1716,0,0
770,-692,0,0,0,0,0,0,0,0,0,-1,1994,1716,0,0
777,-692,0,0,0,0,0,0,0,0,0,-1,2001,1716,0,0
784,-692,0,0,0,0,0,0,0,0,0,-1,2008,1716,0,0
791,-692,0,0,0,0,0,0,0,0,0,-1,2015,1716,0,0
798,-692,0,0,0,0,0,0,0,0,0,-1,2022,1716,0,0
805,-692,0,0,0,0,0,0,0,0,0,-1,2029,1716,0,0
812,-692,0,0,0,0,0,0,0,0,0,-1,2036,1716,0,0
-700,-699,0,0,0,0,0,0,0,0,0,-1,524,1723,0,0
-693,-699,0,0,0,0,0,0,0,0,0,-1,531,1723,0,0
-686,-699,0,0,0,0,0,0,0,0,0,-1,538,1723,0,0
-679,-699,0,0,0,0,0,0,0,0,0,-1,545,1723,0,0
-672,-699,0,0,0,0,0,0,0,0,0,-1,552,1723,0,0
-665,-699,0,0,0,0,0,0,0,0,0,-1,559,1723,0,0
-658,-699,0,0,0,0,0,0,0,0,0,-1,566,1723,0,0
-651,-699,0,0,0,0,0,0,0,0,0,-1,573,1723,0,0
-644,-699,0,0,0,0,0,0,0,0,0,-1,580,1723,0,0
-637,-699,0,0,0,0,0,0,0,0,0,-1,587,1723,0,0
-630,-699,0,0,0,0,0,0,0,0,0,-1,594,1723,0,0
-623,-699,0,0,0,0,0,0,0,0,0,-1,601,1723,0,0
-616,-699,0,0,0,0,0,0,0,0,0,-1,608,1723,0,0
-609,-699,0,0,0,0,0,0,0,0,0,-1,615,1723,0,0
-602,-699,0,0,0,0,0,0,0,0,0,-1,622,1723,0,0
-595,-699,0,0,0,0,0,0,0,0,0,-1,629,1723,0,0
-588,-699,0,0,0,0,0,0,0,0,0,-1,636,1723,0,0
-581,-699,0,0,0,0,0,0,0,0,0,-1,643,1723,0,0
-574,-699,0,0,0,0,0,0,0,0,0,-1,650,1723,0,0
-567,-699,0,0,0,0,0,0,0,0,0,-1,657,1723,0,0
-560,-699,0,0,0,0,0,0,0,0,0,-1,664,1723,0,0
-553,-699,0,0,0,0,0,0,0,0,0,-1,671,1723,0,0
-546,-699,0,0,0,0,0,0,0,0,0,-1,678,1723,0,0
-539,-699,0,0,0,0,0,0,0,0,0,-1,685,1723,0,0
-532,-699,0,0,0,0,0,0,0,0,0,-1,692,1723,0,0
-525,-699,0,0,0,0,0,0,0,0,0,-1,699,1723,0,0
-518,-699,0,0,0,0,0,0,0,0,0,-1,706,1723,0,0
-511,-699,0,0,0,0,0,0,0,0,0,-1,713,1723,0,0
-504,-699,0,0,0,0,0,0,0,0,0,-1,720,1723,0,0
-497,-699,0,0,0,0,0,0,0,0,0,-1,727,1723,0,0
-490,-699,0,0,0,0,0,0,0,0,0,-1,734,1723,0,0
-483,-699,0,0,0,0,0,0,0,0,0,-1,741,1723,0,0
-476,-699,0,0,0,0,0,0,0,0,0,-1,748,1723,0,0
-469,-699,0,0,0,0,0,0,0,0,0,-1,755,1723,0,0
-462,-699,0,0,0,0,0,0,0,0,0,-1,762,1723,0,0
-455,-699,0,0,0,0,0,0,0,0,0,-1,769,1723,0,0
-448,-699,0,0,0,0,0,0,0,0,0,-1,776,1723,0,0
-441,-699,0,0,0,0,0,0,0,0,0,-1,783,1723,0,0
-434,-699,0,0,0,0,0,0,0,0,0,-1,790,1723,0,0
-427,-699,0,0,0,0,0,0,0,0,0,-1,797,1723,0,0
-420,-699,0,0,0,0,0,0,0,0,0,-1,804,1723,0,0
-413,-699,0,0,0,0,0,0,0,0,0,-1,811,1723,0,0
-406,-699,0,0,0,0,0,0,0,0,0,-1,818,1723,0,0
-399,-699,0,0,0,0,0,0,0,0,0,-1,825,1723,0,0
-392,-699,0,0,0,0,0,0,0,0,0,-1,832,1723,0,0
-385,-699,0,0,0,0,0,0,0,0,0,-1,839,1723,0,0
-378,-699,0,0,0,0,0,0,0,0,0,-1,846,1723,0,0
-371,-699,0,0,0,0,0,0,0,0,0,-1,853,1723,0,0
-364,-699,0,0,0,0,0,0,0,0,0,-1,860,1723,0,0
-357,-699,0,0,0,0,0,0,0,0,0,-1,867,1723,0,0
-350,-699,0,0,0,0,0,0,0,0,0,-1,874,1723,0,0
-343,-699,0,0,0,0,0,0,0,0,0,-1,881,1723,0,0
-336,-699,0,0,0,0,0,0,0,0,0,-1,888,1723,0,0
-329,-699,0,0,0,0,0,0,0,0,0,-1,895,1723,0,0
-322,-699,0,0,0,0,0,0,0,0,0,-1,902,1723,0,0
-315,-699,6.20001,19.5193,0,0,0,0,0,0,0,-1,909,1723,6.20001,-19.5193
-308,-699,6.98151,18.9218,0,0,0,0,0,0,0,-1,916,1723,6.98151,-18.9217
-301,-699,4.72729,12.8752,0,0,0,0,0,0,0,-1,923,1723,4.72732,-12.8752
-294,-699,6.90332,19.8601,0,0,0,0,0,0,0,-1,930,1723,6.90332,-19.8601
-287,-699,7.71405,27.0637,0,0,0,0,0,0,0,-1,937,1723,7.71407,-27.0637
-280,-699,7.63812,28.7865,0,0,0,0,0,0,0,-1,944,1723,7.63813,-28.7865
-273,-699,6.48779,28.6891,0,0,0,0,0,0,0,-1,951,1723,6.48782,-28.6891
-266,-699,6.81915,20.8951,0,0,0,0,0,0,0,-1,958,1723,6.81914,-20.8952
-259,-699,5.39758,14.5466,0,0,0,0,0,0,0,-1,965,1723,5.39759,-14.5466
-252,-699,7.9483,28.2317,0,0,0,0,0,0,0,-1,972,1723,7.94833,-28.2317
-245,-699,7.60828,29.9465,0,0,0,0,0,0,0,-1,979,1723,7.60826,-29.9466
-238,-699,7.73486,30.4033,0,0,0,0,0,0,0,-1,986,1723,7.73484,-30.4034
-231,-699,7.42957,30.7603,0.00734718,-0.00865475,-0.00673369,0.00980365,-0.0111112,-0.349801,0.0120831,0.0418572,993,1723,7.42958,-30.7603
-224,-699,7.38098,31.0554,0.00591449,-0.00985849,-0.00534795,0.00755676,-0.0115008,-0.297943,0.0110811,0.0392749,1000,1723,7.38097,-31.0554
-217,-699,7.25305,31.6053,0,0,0,0,0,0,0,-1,1007,1723,7.25307,-31.6054
-210,-699,7.34338,31.8466,0.00307592,-0.0105186,-0.00233942,0.00346723,-0.0109099,-0.165737,0.00866347,0.01868,1014,1723,7.34339,-31.8466
-203,-699,7.32202,32.1169,0.00245463,-0.00961627,-0.000403192,0.00246808,-0.00962972,-0.0333524,0.00738135,0.0213889,1021,1723,7.32208,-32.1169
-196,-699,7.28503,32.455,0.00149149,-0.00860081,0.00095088,0.0015803,-0.00868961,0.0931264,0.00638537,0.0176502,1028,1723,7.28501,-32.455
-189,-699,7.23364,32.7955,0.000674153,-0.00736177,0.00191521,0.00110726,-0.00779488,0.222401,0.00560227,0.00950107,1035,1723,7.23359,-32.7956
-182,-699,7.22864,33.1013,-0.00025768,-0.00635933,0.00279798,0.000831088,-0.0074481,0.371097,0.00526434,0.0125357,1042,1723,7.22868,-33.1013
-175,-699,7.23108,33.4329,-0.000813988,-0.0049609,0.00328771,0.000999493,-0.00677438,0.504066,0.00488363,0.0139614,1049,1723,7.23111,-33.4328
-168,-699,7.22632,33.7264,-0.0011476,-0.00356173,0.00330519,0.00116404,-0.00587336,0.610321,0.00435575,0.014835,1056,1723,7.22637,-33.7265
-161,-699,7.20911,34.0005,-0.00132975,-0.00219785,0.00297316,0.00124088,-0.00476848,0.712916,0.00366335,0.012701,1063,1723,7.20905,-34.0005
-154,-699,7.177,34.3002,-0.00122701,-0.000992785,0.00244148,0.00133439,-0.00355418,0.809364,0.00291779,0.0125597,1070,1723,7.17698,-34.3001
-147,-699,7.15283,34.5706,-0.00112167,8.75055e-05,0.00176368,0.00134734,-0.00238151,0.950521,0.00218028,0.0129898,1077,1723,7.15278,-34.5705
-140,-699,7.13342,34.828,-0.000794447,0.000996526,0.00133279,0.00170672,-0.00150465,1.0812,0.00185531,0.00899394,1084,1723,7.13347,-34.8281
-133,-699,7.15271,35.0999,-0.000449328,0.00163515,0.000988851,0.0020296,-0.000843784,1.19124,0.00170539,0.00848969,1091,1723,7.15274,-35.0999
-126,-699,7.17419,35.3501,0.000100342,0.00241004,0.00074639,0.00263024,-0.000119863,1.28391,0.00179478,0.0104447,1098,1723,7.1742,-35.3501
-119,-699,7.15613,35.5813,0.000551195,0.00305666,0.000534423,0.00316589,0.000441963,1.36918,0.00197978,0.01506,1105,1723,7.15607,-35.5813
-112,-699,7.15076,35.8182,0.000942614,0.00358436,0.000373648,0.00363619,0.000890782,1.43296,0.00218849,0.0110076,1112,1723,7.15078,-35.8183
-105,-699,7.16003,36.0563,0.00116581,0.00384646,0.000201246,0.00386149,0.00115079,1.49628,0.00228926,0.0118807,1119,1723,7.16001,-36.0563
-98,-699,7.18311,36.2738,0.00135189,0.00393224,6.87778e-05,0.00393408,0.00135006,1.54417,0.00230828,0.0137882,1126,1723,7.18315,-36.2738
-91,-699,7.19165,36.499,0.00151816,0.00372539,-0.000139226,0.00373414,0.00150941,-1.50805,0.00216905,0.0198959,1133,1723,7.19167,-36.499
-84,-699,7.18811,36.7285,0.0016622,0.00344315,-0.000375519,0.00351909,0.00158626,-1.37126,0.00203503,0.0244683,1140,1723,7.18805,-36.7285
-77,-699,7.20117,36.8967,0.00199807,0.00331839,-0.000833616,0.00372159,0.00159488,-1.1203,0.00215596,0.0160943,1147,1723,7.20123,-36.8967
-70,-699,7.22229,37.059,0.0023349,0.00279843,-0.00126277,0.00385052,0.0012828,-0.876156,0.00226398,0.016343,1154,1723,7.22229,-37.059
-63,-699,7.24109,37.2491,0.00145353,0.00244557,-0.000657957,0.00277353,0.00112557,-1.10839,0.00161074,0.0145012,1161,1723,7.24106,-37.2492
-56,-699,7.2196,37.413,0.00137367,0.00194373,-0.000134735,0.00197397,0.00134343,-1.35001,0.00116418,0.0106519,1168,1723,7.21963,-37.4129
-49,-699,7.23376,37.6289,0.00267876,0.0038593,-0.000121477,0.00387167,0.00266639,-1.46931,0.00228775,0.0233067,1175,1723,7.23373,-37.6289
-42,-699,7.29541,37.7804,0.00383339,0.00602083,-0.000130179,0.00602855,0.00382567,-1.51156,0.00352237,0.0277996,1182,1723,7.29542,-37.7804
-35,-699,7.31323,37.9263,0.00445665,0.00777179,-0.000349622,0.00780826,0.00442018,-1.46686,0.00452121,0.0262397,1189,1723,7.31325,-37.9262
-28,-699,7.38379,38.0122,0.00497035,0.00932808,-0.00054715,0.00939573,0.0049027,-1.44778,0.00542635,0.0209006,1196,1723,7.38382,-38.0122
-21,-699,7.40222,38.0791,0.00525124,0.0109398,-0.000289661,0.0109545,0.00523653,-1.52005,0.0063266,0.0136578,1203,1723,7.40216,-38.0791
-14,-699,7.41602,38.2036,0.00582527,0.0128793,0.000260081,0.0128889,0.00581569,1.53399,0.0074532,0.0116971,1210,1723,7.41607,-38.2036
-7,-699,7.43835,38.3306,0.00665498,0.0150554,0.00025467,0.0150631,0.00664727,1.54052,0.00871667,0.00929619,1217,1723,7.43833,-38.3305
0,-699,7.47058,38.4224,0.00742423,0.0164028,0.000261385,0.0164104,0.00741663,1.54172,0.00948914,0.0105947,1224,1723,7.4706,-38.4223
7,-699,7.49109,38.5106,0.0083196,0.0178094,0.000247831,0.0178159,0.00831313,1.5447,0.0102937,0.0157574,1231,1723,7.49106,-38.5106
14,-699,7.55994,38.5944,0.00891292,0.0211289,0.000353993,0.0211391,0.00890267,1.54185,0.0122552,0.0175182,1238,1723,7.55999,-38.5943
21,-699,7.625,38.6277,0.00900978,0.0231411,0.000805472,0.0231869,0.00896402,1.51404,0.0135012,0.017047,1245,1723,7.62498,-38.6277
28,-699,7.64355,38.6608,0.00879361,0.0256485,0.0015358,0.0257873,0.00865481,1.48067,0.0151541,0.0159242,1252,1723,7.64351,-38.6608
35,-699,7.67517,38.7706,0.0081092,0.0281295,0.00231458,0.0283936,0.00784509,1.45718,0.0169311,0.0137908,1259,1723,7.67522,-38.7706
42,-699,7.72766,38.8093,0.00680825,0.0305016,0.00322915,0.0309338,0.00637603,1.43774,0.0188599,0.0129122,1266,1723,7.72768,-38.8094
49,-699,7.77356,38.8475,0.00497922,0.0323086,0.0042402,0.0329513,0.00433646,1.42035,0.0206742,0.0147909,1273,1723,7.77351,-38.8476
56,-699,7.83557,38.8875,0.00227091,0.0346674,0.00594905,0.0357253,0.00121301,1.39481,0.023423,0.0152992,1280,1723,7.83557,-38.8875
63,-699,7.88281,38.8612,-0.00120109,0.0420873,0.00594037,0.0428876,-0.00200148,1.43687,0.0292817,0.0129896,1287,1723,7.88276,-38.8612
70,-699,7.92163,38.8472,-0.00471141,0.0449593,0.0066027,0.045822,-0.00557411,1.44087,0.0325655,0.0116669,1294,1723,7.92166,-38.8471
77,-699,7.92017,38.8444,-0.00812174,0.0488282,0.00748454,0.0497955,-0.00908895,1.44228,0.0366047,0.011758,1301,1723,7.92016,-38.8444
84,-699,7.94348,38.8142,-0.0112317,0.0513902,0.00725496,0.0522197,-0.0120612,1.45695,0.0394529,0.0124894,1308,1723,7.94353,-38.8142
91,-699,8.01062,38.7919,-0.013461,0.0528468,0.00666374,0.0535098,-0.0141241,1.47162,0.0411964,0.0117112,1315,1723,8.01059,-38.7919
98,-699,8.0625,38.7761,-0.0143608,0.053773,0.00680481,0.054446,-0.0150338,1.47222,0.0422106,0.0105801,1322,1723,8.06247,-38.7761
105,-699,8.10596,38.7422,-0.0147121,0.0542955,0.00642401,0.0548884,-0.015305,1.47876,0.04262,0.0150776,1329,1723,8.10595,-38.7421
112,-699,8.17773,38.6681,-0.014102,0.0529717,0.00604826,0.0535127,-0.0146431,1.48158,0.0414279,0.0206157,1336,1723,8.17776,-38.6681
119,-699,8.14819,38.574,-0.0122434,0.04848,0.00560704,0.0489934,-0.0127568,1.47949,0.0376421,0.0160135,1343,1723,8.14818,-38.574
126,-699,8.18457,38.4905,-0.00911293,0.0444634,0.00502047,0.0449298,-0.00957932,1.47816,0.0336045,0.0183563,1350,1723,8.18461,-38.4905
133,-699,8.25244,38.4309,-0.00543589,0.0383774,0.00453706,0.0388423,-0.00590079,1.46869,0.0280693,0.0167712,1357,1723,8.25247,-38.4309
140,-699,8.27222,38.3386,-0.0014541,0.0320329,0.00437474,0.032595,-0.00201618,1.44301,0.0224323,0.0180463,1364,1723,8.27225,-38.3386
147,-699,8.32898,38.2643,0.00267908,0.0257938,0.00414527,0.0265147,0.00195817,1.39861,0.0170613,0.0146836,1371,1723,8.329,-38.2643
154,-699,8.33813,38.1542,0.00577349,0.0203414,0.00417623,0.0214537,0.0046612,1.3105,0.0130296,0.0144547,1378,1723,8.33814,-38.1542
161,-699,8.35425,38.0098,0.00883478,0.0139731,0.0033406,0.0156182,0.00718965,1.1132,0.00902664,0.0116475,1385,1723,8.35422,-38.0098
168,-699,8.40662,37.9033,0.0120845,-0.0015656,0.00573115,0.0141717,-0.00365275,0.349248,0.0108719,0.0131173,1392,1723,8.40664,-37.9034
175,-699,8.48206,37.7827,0.0132519,0.000150925,0.00488573,0.0148732,-0.00147045,0.320423,0.0104402,0.0139226,1399,1723,8.482,-37.7827
182,-699,8.4635,37.6147,0.0123674,-0.00179022,0.00228975,0.0127285,-0.00215134,0.156422,0.0092862,0.0144533,1406,1723,8.46346,-37.6148
189,-699,8.43481,37.4854,0.0108671,-0.000216555,0.00289253,0.0115765,-0.000926016,0.240525,0.00804414,0.0167672,1413,1723,8.43486,-37.4854
196,-699,8.45593,37.3107,0.0074369,0.00126917,0.00276771,0.00849676,0.000209311,0.365711,0.00559604,0.0163605,1420,1723,8.45593,-37.3107
203,-699,8.48535,37.1337,0.00272975,0.000719659,0.000960093,0.00311463,0.000334778,0.381263,0.00197431,0.0134528,1427,1723,8.48539,-37.1337
210,-699,8.50525,36.9703,0.00234879,0.000701499,0.000716547,0.00261686,0.000433434,0.357986,0.00161954,0.0138728,1434,1723,8.5053,-36.9703
217,-699,8.5249,36.7826,0.00194887,0.00073867,0.000349687,0.00204264,0.000644894,0.262006,0.00120573,0.0144396,1441,1723,8.52491,-36.7825
224,-699,8.54041,36.569,0.00166592,0.000846165,0.000134333,0.00168737,0.000824713,0.158353,0.000974288,0.0153395,1448,1723,8.54042,-36.569
231,-699,8.55469,36.3566,0.00144245,0.00090606,-0.000186807,0.0015011,0.000847414,-0.304197,0.000869062,0.011849,1455,1723,8.55472,-36.3566
238,-699,8.53357,36.1262,0.00134218,0.000969824,-0.000391071,0.00158913,0.000722875,-0.563237,0.000918727,0.0102408,1462,1723,8.53362,-36.1263
245,-699,8.54272,35.91,0.00124437,0.000932131,-0.000515578,0.00162695,0.000549554,-0.638383,0.000955655,0.0114288,1469,1723,8.5427,-35.91
252,-699,8.55005,35.7133,0.00112061,0.000812387,-0.00063521,0.00162013,0.000312859,-0.666392,0.000992379,0.00972994,1476,1723,8.55011,-35.7133
259,-699,8.54333,35.4645,0.00101638,0.000654674,-0.000744695,0.00160187,6.91863e-05,-0.666277,0.00104561,0.0101238,1483,1723,8.54333,-35.4645
266,-699,8.54114,35.2062,0.000924415,0.000483775,-0.000859958,0.00159183,-0.000183638,-0.659996,0.00112743,0.0128038,1490,1723,8.54116,-35.2062
273,-699,8.53967,34.9637,0.000868181,0.0005164,-0.00102656,0.00173381,-0.000349229,-0.700552,0.00128816,0.0121469,1497,1723,8.53966,-34.9637
280,-699,8.5592,34.7111,0.000802947,0.000483394,-0.00121529,0.00186892,-0.000582582,-0.720037,0.0014789,0.0119726,1504,1723,8.55918,-34.7111
287,-699,8.55615,34.4305,0.000770459,0.000706803,-0.00144094,0.00217992,-0.000702658,-0.774356,0.00173558,0.0105638,1511,1723,8.55613,-34.4306
294,-699,8.53491,34.177,0.000762977,0.00108123,-0.00168279,0.0026124,-0.000768194,-0.832538,0.0020463,0.0108622,1518,1723,8.53493,-34.177
301,-699,8.52429,33.9355,0.000802311,0.00134509,-0.00195318,0.00304565,-0.000898242,-0.85443,0.00238687,0.0119282,1525,1723,8.52425,-33.9355
308,-699,8.51758,33.6809,0.000835177,0.00156039,-0.00232902,0.00355486,-0.0011593,-0.862623,0.00283644,0.0166932,1532,1723,8.51761,-33.6809
315,-699,8.5061,33.3704,0.0008845,0.00149031,-0.00265553,0.00386015,-0.00148534,-0.842186,0.00318613,0.0202317,1539,1723,8.50607,-33.3704
322,-699,8.45447,33.0365,0.00100902,0.00152318,-0.00299475,0.00427187,-0.00173967,-0.828215,0.00357192,0.0217028,1546,1723,8.45451,-33.0365
329,-699,8.42151,32.7489,0.00108218,0.00120274,-0.00329405,0.00443706,-0.00215214,-0.794547,0.00387977,0.0179649,1553,1723,8.42149,-32.7489
336,-699,8.4209,32.4833,0.00104785,0.000600657,-0.0035772,0.00440843,-0.00275992,-0.754186,0.00417497,0.0206357,1560,1723,8.42092,-32.4833
343,-699,8.4751,32.2004,0.000924859,-0.000292701,-0.00354509,0.00391306,-0.0032809,-0.700365,0.00415878,0.0287882,1567,1723,8.47515,-32.2004
350,-699,8.48718,31.8511,0.000856941,-0.00125127,-0.00339294,0.00335575,-0.00375007,-0.634787,0.00410465,0.0389079,1574,1723,8.48715,-31.8511
357,-699,8.61707,31.5985,0.000454734,-0.00327539,-0.00272895,0.00189507,-0.00471572,-0.485637,0.00393084,0.0428162,1581,1723,8.61703,-31.5985
364,-699,8.57117,31.4041,0.000100378,-0.00548284,-0.00193578,0.000705874,-0.00608834,-0.303151,0.00431348,0.0434929,1588,1723,8.57123,-31.404
371,-699,8.43823,30.9948,0,0,0,0,0,0,0,-1,1595,1723,8.43824,-30.9948
378,-699,8.42932,30.6407,0,0,0,0,0,0,0,-1,1602,1723,8.42932,-30.6407
385,-699,6.32727,24.7136,0,0,0,0,0,0,0,-1,1609,1723,6.32725,-24.7136
392,-699,8.46643,29.9736,0,0,0,0,0,0,0,-1,1616,1723,8.46643,-29.9737
399,-699,9.27136,30.5154,0,0,0,0,0,0,0,-1,1623,1723,9.27135,-30.5154
406,-699,5.50757,21.6672,0,0,0,0,0,0,0,-1,1630,1723,5.50755,-21.6672
413,-699,9.31396,23.2781,0,0,0,0,0,0,0,-1,1637,1723,9.31396,-23.278
420,-699,2.15076,7.65527,0,0,0,0,0,0,0,-1,1644,1723,2.15079,-7.65522
427,-699,3.36328,8.2428,0,0,0,0,0,0,0,-1,1651,1723,3.36332,-8.24283
434,-699,4.66455,8.90222,0,0,0,0,0,0,0,-1,1658,1723,4.66456,-8.90223
441,-699,0,0,0,0,0,0,0,0,0,-1,1665,1723,0,0
448,-699,0,0,0,0,0,0,0,0,0,-1,1672,1723,0,0
455,-699,0,0,0,0,0,0,0,0,0,-1,1679,1723,0,0
462,-699,0,0,0,0,0,0,0,0,0,-1,1686,1723,0,0
469,-699,0,0,0,0,0,0,0,0,0,-1,1693,1723,0,0
476,-699,0,0,0,0,0,0,0,0,0,-1,1700,1723,0,0
483,-699,0,0,0,0,0,0,0,0,0,-1,1707,1723,0,0
490,-699,0,0,0,0,0,0,0,0,0,-1,1714,1723,0,0
497,-699,0,0,0,0,0,0,0,0,0,-1,1721,1723,0,0
504,-699,0,0,0,0,0,0,0,0,0,-1,1728,1723,0,0
511,-699,0,0,0,0,0,0,0,0,0,-1,1735,1723,0,0
518,-699,0,0,0,0,0,0,0,0,0,-1,1742,1723,0,0
525,-699,0,0,0,0,0,0,0,0,0,-1,1749,1723,0,0
532,-699,0,0,0,0,0,0,0,0,0,-1,1756,1723,0,0
539,-699,0,0,0,0,0,0,0,0,0,-1,1763,1723,0,0
546,-699,0,0,0,0,0,0,0,0,0,-1,1770,1723,0,0
553,-699,0,0,0,0,0,0,0,0,0,-1,1777,1723,0,0
560,-699,0,0,0,0,0,0,0,0,0,-1,1784,1723,0,0
567,-699,0,0,0,0,0,0,0,0,0,-1,1791,1723,0,0
574,-699,0,0,0,0,0,0,0,0,0,-1,1798,1723,0,0
581,-699,0,0,0,0,0,0,0,0,0,-1,1805,1723,0,0
588,-699,0,0,0,0,0,0,0,0,0,-1,1812,1723,0,0
595,-699,0,0,0,0,0,0,0,0,0,-1,1819,1723,0,0
602,-699,0,0,0,0,0,0,0,0,0,-1,1826,1723,0,0
609,-699,0,0,0,0,0,0,0,0,0,-1,1833,1723,0,0
616,-699,0,0,0,0,0,0,0,0,0,-1,1840,1723,0,0
623,-699,0,0,0,0,0,0,0,0,0,-1,1847,1723,0,0
630,-699,0,0,0,0,0,0,0,0,0,-1,1854,1723,0,0
637,-699,0,0,0,0,0,0,0,0,0,-1,1861,1723,0,0
644,-699,0,0,0,0,0,0,0,0,0,-1,1868,1723,0,0
651,-699,0,0,0,0,0,0,0,0,0,-1,1875,1723,0,0
658,-699,0,0,0,0,0,0,0,0,0,-1,1882,1723,0,0
665,-699,0,0,0,0,0,0,0,0,0,-1,1889,1723,0,0
672,-699,0,0,0,0,0,0,0,0,0,-1,1896,1723,0,0
679,-699,0,0,0,0,0,0,0,0,0,-1,1903,1723,0,0
686,-699,0,0,0,0,0,0,0,0,0,-1,1910,1723,0,0
693,-699,0,0,0,0,0,0,0,0,0,-1,1917,1723,0,0
700,-699,0,0,0,0,0,0,0,0,0,-1,1924,1723,0,0
707,-699,0,0,0,0,0,0,0,0,0,-1,1931,1723,0,0
714,-699,0,0,0,0,0,0,0,0,0,-1,1938,1723,0,0
721,-699,0,0,0,0,0,0,0,0,0,-1,1945,1723,0,0
728,-699,0,0,0,0,0,0,0,0,0,-1,1952,1723,0,0
735,-699,0,0,0,0,0,0,0,0,0,-1,1959,1723,0,0
742,-699,0,0,0,0,0,0,0,0,0,-1,1966,1723,0,0
749,-699,0,0,0,0,0,0,0,0,0,-1,1973,1723,0,0
756,-699,0,0,0,0,0,0,0,0,0,-1,1980,1723,0,0
763,-699,0,0,0,0,0,0,0,0,0,-1,1987,1723,0,0
770,-699,0,0,0,0,0,0,0,0,0,-1,1994,1723,0,0
777,-699,0,0,0,0,0,0,0,0,0,-1,2001,1723,0,0
784,-699,0,0,0,0,0,0,0,0,0,-1,2008,1723,0,0
791,-699,0,0,0,0,0,0,0,0,0,-1,2015,1723,0,0
798,-699,0,0,0,0,0,0,0,0,0,-1,2022,1723,0,0
805,-699,0,0,0,0,0,0,0,0,0,-1,2029,1723,0,0
812,-699,0,0,0,0,0,0,0,0,0,-1,2036,1723,0,0
-700,-706,0,0,0,0,0,0,0,0,0,-1,524,1730,0,0
-693,-706,0,0,0,0,0,0,0,0,0,-1,531,1730,0,0
-686,-706,0,0,0,0,0,0,0,0,0,-1,538,1730,0,0
-679,-706,0,0,0,0,0,0,0,0,0,-1,545,1730,0,0
-672,-706,0,0,0,0,0,0,0,0,0,-1,552,1730,0,0
-665,-706,0,0,0,0,0,0,0,0,0,-1,559,1730,0,0
-658,-706,0,0,0,0,0,0,0,0,0,-1,566,1730,0,0
-651,-706,0,0,0,0,0,0,0,0,0,-1,573,1730,0,0
-644,-706,0,0,0,0,0,0,0,0,0,-1,580,1730,0,0
-637,-706,0,0,0,0,0,0,0,0,0,-1,587,1730,0,0
-630,-706,0,0,0,0,0,0,0,0,0,-1,594,1730,0,0
-623,-706,0,0,0,0,0,0,0,0,0,-1,601,1730,0,0
-616,-706,0,0,0,0,0,0,0,0,0,-1,608,1730,0,0
-609,-706,0,0,0,0,0,0,0,0,0,-1,615,1730,0,0
-602,-706,0,0,0,0,0,0,0,0,0,-1,622,1730,0,0
-595,-706,0,0,0,0,0,0,0,0,0,-1,629,1730,0,0
-588,-706,0,0,0,0,0,0,0,0,0,-1,636,1730,0,0
-581,-706,0,0,0,0,0,0,0,0,0,-1,643,1730,0,0
-574,-706,0,0,0,0,0,0,0,0,0,-1,650,1730,0,0
-567,-706,0,0,0,0,0,0,0,0,0,-1,657,1730,0,0
-560,-706,0,0,0,0,0,0,0,0,0,-1,664,1730,0,0
-553,-706,0,0,0,0,0,0,0,0,0,-1,671,1730,0,0
-546,-706,0,0,0,0,0,0,0,0,0,-1,678,1730,0,0
-539,-706,0,0,0,0,0,0,0,0,0,-1,685,1730,0,0
-532,-706,0,0,0,0,0,0,0,0,0,-1,692,1730,0,0
-525,-706,0,0,0,0,0,0,0,0,0,-1,699,1730,0,0
-518,-706,0,0,0,0,0,0,0,0,0,-1,706,1730,0,0
-511,-706,0,0,0,0,0,0,0,0,0,-1,713,1730,0,0
-504,-706,0,0,0,0,0,0,0,0,0,-1,720,1730,0,0
-497,-706,0,0,0,0,0,0,0,0,0,-1,727,1730,0,0
-490,-706,0,0,0,0,0,0,0,0,0,-1,734,1730,0,0
-483,-706,0,0,0,0,0,0,0,0,0,-1,741,1730,0,0
-476,-706,0,0,0,0,0,0,0,0,0,-1,748,1730,0,0
-469,-706,0,0,0,0,0,0,0,0,0,-1,755,1730,0,0
-462,-706,0,0,0,0,0,0,0,0,0,-1,762,1730,0,0
-455,-706,0,0,0,0,0,0,0,0,0,-1,769,1730,0,0
-448,-706,0,0,0,0,0,0,0,0,0,-1,776,1730,0,0
-441,-706,0,0,0,0,0,0,0,0,0,-1,783,1730,0,0
-434,-706,0,0,0,0,0,0,0,0,0,-1,790,1730,0,0
-427,-706,0,0,0,0,0,0,0,0,0,-1,797,1730,0,0
-420,-706,0,0,0,0,0,0,0,0,0,-1,804,1730,0,0
-413,-706,0,0,0,0,0,0,0,0,0,-1,811,1730,0,0
-406,-706,0,0,0,0,0,0,0,0,0,-1,818,1730,0,0
-399,-706,0,0,0,0,0,0,0,0,0,-1,825,1730,0,0
-392,-706,0,0,0,0,0,0,0,0,0,-1,832,1730,0,0
-385,-706,0,0,0,0,0,0,0,0,0,-1,839,1730,0,0
-378,-706,0,0,0,0,0,0,0,0,0,-1,846,1730,0,0
-371,-706,0,0,0,0,0,0,0,0,0,-1,853,1730,0,0
-364,-706,0,0,0,0,0,0,0,0,0,-1,860,1730,0,0
-357,-706,0,0,0,0,0,0,0,0,0,-1,867,1730,0,0
-350,-706,0,0,0,0,0,0,0,0,0,-1,874,1730,0,0
-343,-706,0,0,0,0,0,0,0,0,0,-1,881,1730,0,0
-336,-706,0,0,0,0,0,0,0,0,0,-1,888,1730,0,0
-329,-706,0,0,0,0,0,0,0,0,0,-1,895,1730,0,0
-322,-706,0,0,0,0,0,0,0,0,0,-1,902,1730,0,0
-315,-706,0,0,0,0,0,0,0,0,0,-1,909,1730,0,0
-308,-706,5.08191,14.6245,0,0,0,0,0,0,0,-1,916,1730,5.08188,-14.6245
-301,-706,7.45007,21.1975,0,0,0,0,0,0,0,-1,923,1730,7.45005,-21.1976
-294,-706,11.8603,21.026,0,0,0,0,0,0,0,-1,930,1730,11.8603,-21.026
-287,-706,10.3292,20.8425,0,0,0,0,0,0,0,-1,937,1730,10.3292,-20.8425
-280,-706,7.9162,21.8951,0,0,0,0,0,0,0,-1,944,1730,7.9162,-21.8952
-273,-706,7.38953,20.6355,0,0,0,0,0,0,0,-1,951,1730,7.38955,-20.6355
-266,-706,9.66724,22.8231,0,0,0,0,0,0,0,-1,958,1730,9.66722,-22.8231
-259,-706,3.47852,20.7363,0,0,0,0,0,0,0,-1,965,1730,3.47851,-20.7364
-252,-706,3.84259,20.1979,0,0,0,0,0,0,0,-1,972,1730,3.84256,-20.1979
-245,-706,4.698,19.2992,0,0,0,0,0,0,0,-1,979,1730,4.69799,-19.2991
-238,-706,7.70691,32.0442,0,0,0,0,0,0,0,-1,986,1730,7.70689,-32.0442
-231,-706,7.81104,31.1429,0,0,0,0,0,0,0,-1,993,1730,7.81101,-31.1429
-224,-706,7.24237,31.4883,0,0,0,0,0,0,0,-1,1000,1730,7.24236,-31.4883
-217,-706,7.33893,31.6066,0,0,0,0,0,0,0,-1,1007,1730,7.33891,-31.6066
-210,-706,7.45288,31.9468,0.00540001,-0.0150804,-0.00482504,0.00647983,-0.0161603,-0.220166,0.0134637,0.0394642,1014,1730,7.45289,-31.9468
-203,-706,7.47583,32.267,0.0042735,-0.0139208,-0.00196685,0.00448369,-0.014131,-0.106464,0.011218,0.0318407,1021,1730,7.47579,-32.2669
-196,-706,7.54968,32.4952,0.00269466,-0.0125474,8.39891e-05,0.00269512,-0.0125478,0.00551014,0.00939336,0.0254173,1028,1730,7.54969,-32.4952
-189,-706,7.5415,32.7808,0.00130941,-0.0108122,0.00164055,0.00152752,-0.0110303,0.132174,0.007912,0.0189517,1035,1730,7.54148,-32.7808
-182,-706,7.51025,33.1312,-0.000298554,-0.00944733,0.00315137,0.000681889,-0.0104278,0.301624,0.00718993,0.0156441,1042,1730,7.51028,-33.1313
-175,-706,7.53198,33.465,-0.00138186,-0.00750962,0.00411897,0.000687803,-0.00957928,0.465622,0.00662736,0.0155047,1049,1730,7.53195,-33.465
-168,-706,7.52112,33.7393,-0.00210796,-0.00551701,0.00435618,0.000865301,-0.00849027,0.598911,0.00596956,0.0158234,1056,1730,7.52114,-33.7393
-161,-706,7.48401,34.0039,-0.00258909,-0.00362648,0.00405344,0.000978705,-0.00719428,0.721762,0.00515349,0.0131905,1063,1730,7.48398,-34.0039
-154,-706,7.44812,34.3046,-0.00264083,-0.00212847,0.0033863,0.00101133,-0.00578062,0.823152,0.00423134,0.0126506,1070,1730,7.44814,-34.3046
-147,-706,7.42249,34.5616,-0.00270753,-0.000891005,0.0024492,0.000812921,-0.00441145,0.962957,0.00324605,0.012454,1077,1730,7.42254,-34.5617
-140,-706,7.42432,34.8298,-0.00239492,7.57162e-05,0.00183417,0.00105178,-0.00337098,1.08176,0.00266794,0.0111833,1084,1730,7.42432,-34.8298
-133,-706,7.43164,35.0879,-0.00210005,0.00059566,0.00131275,0.0011293,-0.00263369,1.18469,0.00222968,0.00829773,1091,1730,7.43167,-35.0879
-126,-706,7.43872,35.3351,-0.00139088,0.00137825,0.000985394,0.00169311,-0.00170573,1.26153,0.00196232,0.0125588,1098,1730,7.43869,-35.3351
-119,-706,7.41028,35.5745,-0.000824063,0.00201474,0.000719018,0.00218647,-0.000995789,1.33635,0.00187966,0.0175347,1105,1730,7.41029,-35.5745
-112,-706,7.39832,35.8276,-0.000268166,0.00256926,0.000515586,0.00266004,-0.000358949,1.39651,0.00190432,0.0124264,1112,1730,7.39836,-35.8277
-105,-706,7.38916,36.0594,9.48982e-05,0.00291754,0.000271324,0.00294339,6.90541e-05,1.47583,0.00193965,0.00903731,1119,1730,7.38912,-36.0595
-98,-706,7.39929,36.2759,0.000352576,0.00303554,0.00024192,0.00305718,0.000330937,1.48159,0.00193725,0.0109443,1126,1730,7.39927,-36.2758
-91,-706,7.40454,36.4954,0.000690064,0.00299989,0.000228265,0.00302223,0.000667722,1.47323,0.00183324,0.0143858,1133,1730,7.40448,-36.4953
-84,-706,7.38806,36.7053,0.000904226,0.0028132,0.000100582,0.00281849,0.000898941,1.5183,0.00166244,0.0168669,1140,1730,7.38806,-36.7053
-77,-706,7.39697,36.8927,0.00120182,0.00269666,-0.000186914,0.00271968,0.00117881,-1.44827,0.00157484,0.0151977,1147,1730,7.39693,-36.8927
-70,-706,7.40332,37.0925,0.00148976,0.00230854,-0.000491294,0.00253865,0.00125964,-1.13275,0.00146571,0.0169668,1154,1730,7.40327,-37.0925
-63,-706,7.39136,37.2686,0.00120054,0.00201686,-0.000259328,0.00209228,0.00112513,-1.28779,0.00120912,0.0135665,1161,1730,7.39131,-37.2685
-56,-706,7.39771,37.4139,0.00131167,0.00166406,-5.79879e-06,0.00166415,0.00131157,-1.55435,0.00101258,0.0134153,1168,1730,7.39769,-37.4139
-49,-706,7.41577,37.5902,0.0020823,0.00246107,-3.91541e-06,0.00246111,0.00208226,-1.56046,0.00153017,0.0130786,1175,1730,7.41577,-37.5902
-42,-706,7.42505,37.7701,0.00286284,0.00345862,7.90856e-05,0.00346894,0.00285252,1.44105,0.00213699,0.0172205,1182,1730,7.42506,-37.7702
-35,-706,7.42737,37.8917,0.00336684,0.00451202,-2.61494e-05,0.00451261,0.00336624,-1.54798,0.0027084,0.0172842,1189,1730,7.42739,-37.8917
-28,-706,7.47668,37.9893,0.00375656,0.00549602,-0.000143883,0.00550784,0.00374474,-1.48882,0.00324783,0.0108523,1196,1730,7.47666,-37.9892
-21,-706,7.50122,38.1111,0.00397968,0.00650597,-5.19617e-06,0.00650598,0.00397967,-1.56874,0.00378734,0.0110984,1203,1730,7.50125,-38.1111
-14,-706,7.53064,38.2209,0.00438686,0.00787755,0.000337143,0.00790981,0.0043546,1.47539,0.0045745,0.0110651,1210,1730,7.53067,-38.221
-7,-706,7.55713,38.34,0.00498797,0.00950358,0.000308146,0.00952451,0.00496704,1.50298,0.00550067,0.00929726,1217,1730,7.55707,-38.34
0,-706,7.59265,38.4406,0.00546408,0.0105536,0.000267024,0.0105676,0.00545011,1.51852,0.0061022,0.0123664,1224,1730,7.5926,-38.4405
7,-706,7.60962,38.5153,0.00594116,0.0116686,0.000418069,0.011699,0.0059108,1.49831,0.00675452,0.0140602,1231,1730,7.60961,-38.5153
14,-706,7.62976,38.5876,0.00620333,0.0128131,0.00070872,0.0128882,0.00612819,1.46517,0.00744398,0.0140401,1238,1730,7.62973,-38.5876
21,-706,7.65405,38.6378,0.00616662,0.0138212,0.00104425,0.0139611,0.00602672,1.43762,0.00808551,0.0120349,1245,1730,7.65404,-38.6378
28,-706,7.68433,38.6979,0.00587847,0.0146284,0.00147701,0.014871,0.00563588,1.408,0.00866919,0.012399,1252,1730,7.68437,-38.6979
35,-706,7.71191,38.7762,0.00527892,0.0155999,0.00201938,0.015981,0.00489788,1.3843,0.00945418,0.0143265,1259,1730,7.71189,-38.7762
42,-706,7.75098,38.8212,0.00439869,0.0163887,0.00260514,0.0169303,0.00385711,1.36583,0.0102461,0.0124166,1266,1730,7.75097,-38.8211
49,-706,7.7749,38.8242,0.00320392,0.0167409,0.00317685,0.0174494,0.00249546,1.35138,0.0108968,0.0142952,1273,1730,7.77488,-38.8242
56,-706,7.83203,38.8558,0.00143986,0.0176497,0.00422532,0.018685,0.000404591,1.33051,0.012324,0.0134083,1280,1730,7.832,-38.8559
63,-706,7.86621,38.8584,-0.000796457,0.0230976,0.00382702,0.0236956,-0.00139445,1.41579,0.0162818,0.0109123,1287,1730,7.86619,-38.8584
70,-706,7.88367,38.8346,-0.00298706,0.0254888,0.00386636,0.0260044,-0.00350268,1.43822,0.018614,0.0118883,1294,1730,7.88366,-38.8346
77,-706,7.89905,38.8346,-0.00507744,0.0286851,0.00378291,0.0291038,-0.0054961,1.46057,0.0214703,0.0109451,1301,1730,7.89911,-38.8346
84,-706,7.93164,38.8267,-0.00693363,0.0313143,0.0030557,0.0315569,-0.00717621,1.49157,0.0237935,0.00836747,1308,1730,7.93162,-38.8267
91,-706,7.98035,38.817,-0.00813465,0.0333172,0.00209813,0.0334231,-0.00824058,1.52035,0.0254771,0.00925631,1315,1730,7.98036,-38.817
98,-706,8.00159,38.8014,-0.00840177,0.0349816,0.00173122,0.0350506,-0.00847075,1.53098,0.0266433,0.0132296,1322,1730,8.00159,-38.8014
105,-706,8.0426,38.7739,-0.00827105,0.0363444,0.00103729,0.0363685,-0.00829515,1.54756,0.027432,0.0156204,1329,1730,8.04257,-38.774
112,-706,8.07251,38.7107,-0.00750804,0.0360865,0.000252402,0.036088,-0.00750951,1.56501,0.0269134,0.0143779,1336,1730,8.07252,-38.7106
119,-706,8.08105,38.649,-0.00596975,0.0343783,-0.000470127,0.0343838,-0.00597523,-1.55915,0.025152,0.012382,1343,1730,8.08107,-38.6491
126,-706,8.10193,38.5656,-0.00369813,0.0311925,-0.000869705,0.0312142,-0.00371979,-1.54589,0.0221537,0.0149148,1350,1730,8.10191,-38.5656
133,-706,8.1355,38.4514,-0.00114068,0.026865,-0.000989289,0.0268999,-0.00117558,-1.53553,0.0183377,0.0130629,1357,1730,8.13549,-38.4515
140,-706,8.17139,38.3375,0.00147028,0.0218326,-0.000989097,0.0218805,0.00142234,-1.52237,0.0141367,0.0125072,1364,1730,8.17144,-38.3376
147,-706,8.2345,38.2397,0.0039187,0.0169862,-0.000831704,0.0170389,0.00386598,-1.50749,0.010315,0.0210867,1371,1730,8.23451,-38.2398
154,-706,8.27295,38.1593,0.00550264,0.0128977,-0.000298357,0.0129097,0.00549062,-1.53054,0.00748108,0.0187579,1378,1730,8.27296,-38.1593
161,-706,8.21448,38.0414,0.00689076,0.00837698,-0.000274666,0.00842612,0.00684162,-1.39378,0.00517081,0.0101641,1385,1730,8.21452,-38.0414
168,-706,8.24365,37.9071,0.00818103,-0.00146373,0.00175179,0.00848935,-0.00177206,0.174221,0.00633344,0.0106523,1392,1730,8.24364,-37.9071
175,-706,8.29163,37.7682,0.008277,-0.000577423,0.00181267,0.00863372,-0.000934139,0.194308,0.00609112,0.0106097,1399,1730,8.29159,-37.7682
182,-706,8.29688,37.6169,0.00735967,-0.000548979,0.00134472,0.00758206,-0.000771371,0.163898,0.00533047,0.0108228,1406,1730,8.29687,-37.6169
189,-706,8.26672,37.4575,0.00626692,0.000395516,0.00154971,0.00665085,1.15884e-05,0.242852,0.00443004,0.0139398,1413,1730,8.26678,-37.4576
196,-706,8.29724,37.2682,0.00422153,0.00123522,0.00135453,0.00474438,0.000712373,0.36838,0.00295423,0.0123177,1420,1730,8.2972,-37.2682
203,-706,8.3147,37.1157,0.00165689,0.00102131,0.000316366,0.00178752,0.000890679,0.391576,0.00103202,0.0131231,1427,1730,8.31468,-37.1157
210,-706,8.30664,36.9567,0.00138684,0.00110059,0.000104859,0.00142114,0.00106629,0.316144,0.000854081,0.0124342,1434,1730,8.30665,-36.9566
217,-706,8.3136,36.7821,0.00109381,0.00116442,-0.000172165,0.00130486,0.000953368,-0.886523,0.000779619,0.013701,1441,1730,8.3136,-36.7821
224,-706,8.32166,36.5802,0.00087082,0.00123424,-0.000358683,0.00145461,0.000650446,-1.01986,0.000841384,0.019676,1448,1730,8.32171,-36.5802
231,-706,8.33313,36.3586,0.000643014,0.00125199,-0.000565621,0.00158987,0.000305132,-1.03232,0.000974265,0.0142208,1455,1730,8.33314,-36.3586
238,-706,8.32556,36.1332,0.000545288,0.00118384,-0.000684231,0.00161962,0.000109508,-1.00369,0.00104516,0.00849347,1462,1730,8.32561,-36.1332
245,-706,8.32458,35.9091,0.000514595,0.000953324,-0.000758985,0.00152401,-5.60906e-05,-0.926076,0.00103521,0.0102119,1469,1730,8.32458,-35.909
252,-706,8.32715,35.7031,0.000457162,0.000745317,-0.000854932,0.00146823,-0.000265748,-0.868876,0.00107837,0.00982531,1476,1730,8.32714,-35.7031
259,-706,8.33984,35.4738,0.000390967,0.000505413,-0.000934621,0.00138456,-0.000488181,-0.815973,0.00112175,0.0114564,1483,1730,8.33978,-35.4738
266,-706,8.31506,35.2319,0.000357267,0.000265259,-0.00105107,0.00136334,-0.000740813,-0.763528,0.00123243,0.0126209,1490,1730,8.31504,-35.2319
273,-706,8.3009,34.9851,0.000396284,0.000345935,-0.00127877,0.00165013,-0.000907906,-0.775556,0.00149746,0.0120905,1497,1730,8.30091,-34.9851
280,-706,8.28845,34.7119,0.000428815,0.000326973,-0.00152745,0.00190619,-0.00115041,-0.768736,0.00178262,0.0102791,1504,1730,8.2884,-34.7119
287,-706,8.2688,34.4373,0.000508207,0.000678127,-0.0018542,0.00244931,-0.00126297,-0.808292,0.00217946,0.0110459,1511,1730,8.26881,-34.4372
294,-706,8.27563,34.1989,0.000614235,0.00121525,-0.00218998,0.00312524,-0.00129576,-0.853581,0.0026243,0.0109182,1518,1730,8.2756,-34.1989
301,-706,8.25879,33.9397,0.000787784,0.00165456,-0.00255164,0.00380935,-0.00136701,-0.869519,0.00309748,0.00982538,1525,1730,8.25879,-33.9397
308,-706,8.25195,33.6617,0.000951956,0.00203807,-0.00304869,0.0045917,-0.00160167,-0.873538,0.00371205,0.0120551,1532,1730,8.25194,-33.6617
315,-706,8.22363,33.3632,0.00113041,0.00211696,-0.00349594,0.00515426,-0.00190689,-0.855485,0.00421801,0.0209738,1539,1730,8.22368,-33.3631
322,-706,8.15649,33.1212,0.00142048,0.00233417,-0.00396271,0.00586628,-0.00211163,-0.842788,0.00477305,0.0301851,1546,1730,8.15653,-33.1212
329,-706,8.22559,32.7396,0.00162164,0.00208284,-0.00434198,0.00620034,-0.00249586,-0.811928,0.00517037,0.0294513,1553,1730,8.22557,-32.7397
336,-706,8.19446,32.2864,0.00167809,0.00146659,-0.00473271,0.00630622,-0.00316155,-0.774228,0.00556582,0.0418029,1560,1730,8.19449,-32.2863
343,-706,8.17468,32.1162,0.00162884,0.00038467,-0.00474576,0.00579311,-0.0037796,-0.720229,0.00556741,0.0430661,1567,1730,8.17474,-32.1162
350,-706,8.2417,31.928,0.00163796,-0.000782532,-0.00454326,0.00512941,-0.00427398,-0.655229,0.00543653,0.0480511,1574,1730,8.2417,-31.928
357,-706,8.56519,31.9022,0,0,0,0,0,0,0,-1,1581,1730,8.56517,-31.9022
364,-706,8.46057,31.7457,0,0,0,0,0,0,0,-1,1588,1730,8.46056,-31.7458
371,-706,6.27881,24.0759,0,0,0,0,0,0,0,-1,1595,1730,6.27883,-24.0759
378,-706,4.80444,25.0989,0,0,0,0,0,0,0,-1,1602,1730,4.80445,-25.0989
385,-706,5.55212,24.9753,0,0,0,0,0,0,0,-1,1609,1730,5.55214,-24.9753
392,-706,6.2998,24.8518,0,0,0,0,0,0,0,-1,1616,1730,6.29983,-24.8518
399,-706,3.9502,25.5428,0,0,0,0,0,0,0,-1,1623,1730,3.95019,-25.5428
406,-706,6.04211,18.8085,0,0,0,0,0,0,0,-1,1630,1730,6.04216,-18.8085
413,-706,6.23413,20.7725,0,0,0,0,0,0,0,-1,1637,1730,6.23413,-20.7725
420,-706,6.51294,21.9171,0,0,0,0,0,0,0,-1,1644,1730,6.51292,-21.9171
427,-706,0,0,0,0,0,0,0,0,0,-1,1651,1730,0,0
434,-706,0,0,0,0,0,0,0,0,0,-1,1658,1730,0,0
441,-706,0,0,0,0,0,0,0,0,0,-1,1665,1730,0,0
448,-706,0,0,0,0,0,0,0,0,0,-1,1672,1730,0,0
455,-706,0,0,0,0,0,0,0,0,0,-1,1679,1730,0,0
462,-706,0,0,0,0,0,0,0,0,0,-1,1686,1730,0,0
469,-706,0,0,0,0,0,0,0,0,0,-1,1693,1730,0,0
476,-706,0,0,0,0,0,0,0,0,0,-1,1700,1730,0,0
483,-706,0,0,0,0,0,0,0,0,0,-1,1707,1730,0,0
490,-706,0,0,0,0,0,0,0,0,0,-1,1714,1730,0,0
497,-706,0,0,0,0,0,0,0,0,0,-1,1721,1730,0,0
504,-706,0,0,0,0,0,0,0,0,0,-1,1728,1730,0,0
511,-706,0,0,0,0,0,0,0,0,0,-1,1735,1730,0,0
518,-706,0,0,0,0,0,0,0,0,0,-1,1742,1730,0,0
525,-706,0,0,0,0,0,0,0,0,0,-1,1749,1730,0,0
532,-706,0,0,0,0,0,0,0,0,0,-1,1756,1730,0,0
539,-706,0,0,0,0,0,0,0,0,0,-1,1763,1730,0,0
546,-706,0,0,0,0,0,0,0,0,0,-1,1770,1730,0,0
553,-706,0,0,0,0,0,0,0,0,0,-1,1777,1730,0,0
560,-706,0,0,0,0,0,0,0,0,0,-1,1784,1730,0,0
567,-706,0,0,0,0,0,0,0,0,0,-1,1791,1730,0,0
574,-706,0,0,0,0,0,0,0,0,0,-1,1798,1730,0,0
581,-706,0,0,0,0,0,0,0,0,0,-1,1805,1730,0,0
588,-706,0,0,0,0,0,0,0,0,0,-1,1812,1730,0,0
595,-706,0,0,0,0,0,0,0,0,0,-1,1819,1730,0,0
602,-706,0,0,0,0,0,0,0,0,0,-1,1826,1730,0,0
609,-706,0,0,0,0,0,0,0,0,0,-1,1833,1730,0,0
616,-706,0,0,0,0,0,0,0,0,0,-1,1840,1730,0,0
623,-706,0,0,0,0,0,0,0,0,0,-1,1847,1730,0,0
630,-706,0,0,0,0,0,0,0,0,0,-1,1854,1730,0,0
637,-706,0,0,0,0,0,0,0,0,0,-1,1861,1730,0,0
644,-706,0,0,0,0,0,0,0,0,0,-1,1868,1730,0,0
651,-706,0,0,0,0,0,0,0,0,0,-1,1875,1730,0,0
658,-706,0,0,0,0,0,0,0,0,0,-1,1882,1730,0,0
665,-706,0,0,0,0,0,0,0,0,0,-1,1889,1730,0,0
672,-706,0,0,0,0,0,0,0,0,0,-1,1896,1730,0,0
679,-706,0,0,0,0,0,0,0,0,0,-1,1903,1730,0,0
686,-706,0,0,0,0,0,0,0,0,0,-1,1910,1730,0,0
693,-706,0,0,0,0,0,0,0,0,0,-1,1917,1730,0,0
700,-706,0,0,0,0,0,0,0,0,0,-1,1924,1730,0,0
707,-706,0,0,0,0,0,0,0,0,0,-1,1931,1730,0,0
714,-706,0,0,0,0,0,0,0,0,0,-1,1938,1730,0,0
721,-706,0,0,0,0,0,0,0,0,0,-1,1945,1730,0,0
728,-706,0,0,0,0,0,0,0,0,0,-1,1952,1730,0,0
735,-706,0,0,0,0,0,0,0,0,0,-1,1959,1730,0,0
742,-706,0,0,0,0,0,0,0,0,0,-1,1966,1730,0,0
749,-706,0,0,0,0,0,0,0,0,0,-1,1973,1730,0,0
756,-706,0,0,0,0,0,0,0,0,0,-1,1980,1730,0,0
763,-706,0,0,0,0,0,0,0,0,0,-1,1987,1730,0,0
770,-706,0,0,0,0,0,0,0,0,0,-1,1994,1730,0,0
777,-706,0,0,0,0,0,0,0,0,0,-1,2001,1730,0,0
784,-706,0,0,0,0,0,0,0,0,0,-1,2008,1730,0,0
791,-706,0,0,0,0,0,0,0,0,0,-1,2015,1730,0,0
798,-706,0,0,0,0,0,0,0,0,0,-1,2022,1730,0,0
805,-706,0,0,0,0,0,0,0,0,0,-1,2029,1730,0,0
812,-706,0,0,0,0,0,0,0,0,0,-1,2036,1730,0,0
-700,-713,0,0,0,0,0,0,0,0,0,-1,524,1737,0,0
-693,-713,0,0,0,0,0,0,0,0,0,-1,531,1737,0,0
-686,-713,0,0,0,0,0,0,0,0,0,-1,538,1737,0,0
-679,-713,0,0,0,0,0,0,0,0,0,-1,545,1737,0,0
-672,-713,0,0,0,0,0,0,0,0,0,-1,552,1737,0,0
-665,-713,0,0,0,0,0,0,0,0,0,-1,559,1737,0,0
-658,-713,0,0,0,0,0,0,0,0,0,-1,566,1737,0,0
-651,-713,0,0,0,0,0,0,0,0,0,-1,573,1737,0,0
-644,-713,0,0,0,0,0,0,0,0,0,-1,580,1737,0,0
-637,-713,0,0,0,0,0,0,0,0,0,-1,587,1737,0,0
-630,-713,0,0,0,0,0,0,0,0,0,-1,594,1737,0,0
-623,-713,0,0,0,0,0,0,0,0,0,-1,601,1737,0,0
-616,-713,0,0,0,0,0,0,0,0,0,-1,608,1737,0,0
-609,-713,0,0,0,0,0,0,0,0,0,-1,615,1737,0,0
-602,-713,0,0,0,0,0,0,0,0,0,-1,622,1737,0,0
-595,-713,0,0,0,0,0,0,0,0,0,-1,629,1737,0,0
-588,-713,0,0,0,0,0,0,0,0,0,-1,636,1737,0,0
-581,-713,0,0,0,0,0,0,0,0,0,-1,643,1737,0,0
-574,-713,0,0,0,0,0,0,0,0,0,-1,650,1737,0,0
-567,-713,0,0,0,0,0,0,0,0,0,-1,657,1737,0,0
-560,-713,0,0,0,0,0,0,0,0,0,-1,664,1737,0,0
-553,-713,0,0,0,0,0,0,0,0,0,-1,671,1737,0,0
-546,-713,0,0,0,0,0,0,0,0,0,-1,678,1737,0,0
-539,-713,0,0,0,0,0,0,0,0,0,-1,685,1737,0,0
-532,-713,0,0,0,0,0,0,0,0,0,-1,692,1737,0,0
-525,-713,0,0,0,0,0,0,0,0,0,-1,699,1737,0,0
-518,-713,0,0,0,0,0,0,0,0,0,-1,706,1737,0,0
-511,-713,0,0,0,0,0,0,0,0,0,-1,713,1737,0,0
-504,-713,0,0,0,0,0,0,0,0,0,-1,720,1737,0,0
-497,-713,0,0,0,0,0,0,0,0,0,-1,727,1737,0,0
-490,-713,0,0,0,0,0,0,0,0,0,-1,734,1737,0,0
-483,-713,0,0,0,0,0,0,0,0,0,-1,741,1737,0,0
-476,-713,0,0,0,0,0,0,0,0,0,-1,748,1737,0,0
-469,-713,0,0,0,0,0,0,0,0,0,-1,755,1737,0,0
-462,-713,0,0,0,0,0,0,0,0,0,-1,762,1737,0,0
-455,-713,0,0,0,0,0,0,0,0,0,-1,769,1737,0,0
-448,-713,0,0,0,0,0,0,0,0,0,-1,776,1737,0,0
-441,-713,0,0,0,0,0,0,0,0,0,-1,783,1737,0,0
-434,-713,0,0,0,0,0,0,0,0,0,-1,790,1737,0,0
-427,-713,0,0,0,0,0,0,0,0,0,-1,797,1737,0,0
-420,-713,0,0,0,0,0,0,0,0,0,-1,804,1737,0,0
-413,-713,0,0,0,0,0,0,0,0,0,-1,811,1737,0,0
-406,-713,0,0,0,0,0,0,0,0,0,-1,818,1737,0,0
-399,-713,0,0,0,0,0,0,0,0,0,-1,825,1737,0,0
-392,-713,0,0,0,0,0,0,0,0,0,-1,832,1737,0,0
-385,-713,0,0,0,0,0,0,0,0,0,-1,839,1737,0,0
-378,-713,0,0,0,0,0,0,0,0,0,-1,846,1737,0,0
-371,-713,0,0,0,0,0,0,0,0,0,-1,853,1737,0,0
-364,-713,0,0,0,0,0,0,0,0,0,-1,860,1737,0,0
-357,-713,0,0,0,0,0,0,0,0,0,-1,867,1737,0,0
-350,-713,0,0,0,0,0,0,0,0,0,-1,874,1737,0,0
-343,-713,0,0,0,0,0,0,0,0,0,-1,881,1737,0,0
-336,-713,0,0,0,0,0,0,0,0,0,-1,888,1737,0,0
-329,-713,0,0,0,0,0,0,0,0,0,-1,895,1737,0,0
-322,-713,0,0,0,0,0,0,0,0,0,-1,902,1737,0,0
-315,-713,0,0,0,0,0,0,0,0,0,-1,909,1737,0,0
-308,-713,0,0,0,0,0,0,0,0,0,-1,916,1737,0,0
-301,-713,0,0,0,0,0,0,0,0,0,-1,923,1737,0,0
-294,-713,7.17883,22.0453,0,0,0,0,0,0,0,-1,930,1737,7.17881,-22.0453
-287,-713,11.8916,21.5834,0,0,0,0,0,0,0,-1,937,1737,11.8916,-21.5833
-280,-713,10.2786,21.3551,0,0,0,0,0,0,0,-1,944,1737,10.2787,-21.3551
-273,-713,11.1981,23.8683,0,0,0,0,0,0,0,-1,951,1737,11.198,-23.8683
-266,-713,3.17981,19.8851,0,0,0,0,0,0,0,-1,958,1737,3.17983,-19.8851
-259,-713,3.5921,19.6868,0,0,0,0,0,0,0,-1,965,1737,3.59207,-19.6868
-252,-713,4.55469,20.5758,0,0,0,0,0,0,0,-1,972,1737,4.55466,-20.5758
-245,-713,3.89014,25.9825,0,0,0,0,0,0,0,-1,979,1737,3.89013,-25.9826
-238,-713,6.62506,30.5463,0,0,0,0,0,0,0,-1,986,1737,6.62509,-30.5462
-231,-713,8.23462,31.5148,0,0,0,0,0,0,0,-1,993,1737,8.23462,-31.5148
-224,-713,7.59491,25.9907,0,0,0,0,0,0,0,-1,1000,1737,7.59488,-25.9908
-217,-713,7.62775,31.7874,0,0,0,0,0,0,0,-1,1007,1737,7.62773,-31.7873
-210,-713,7.55261,32.0105,0.00819916,-0.0205644,-0.00815264,0.0103492,-0.0227144,-0.257853,0.0195292,0.0497776,1014,1737,7.55261,-32.0104
-203,-713,7.42212,32.392,0.00651192,-0.0191988,-0.00424627,0.00719506,-0.0198819,-0.159514,0.0161948,0.0469943,1021,1737,7.42211,-32.3919
-196,-713,7.53894,32.8281,0.00424056,-0.0174842,-0.00142473,0.0043336,-0.0175772,-0.0652086,0.0133984,0.0488095,1028,1737,7.53896,-32.8282
-189,-713,7.65381,32.8253,0.00220053,-0.0151962,0.000825556,0.00223962,-0.0152352,0.0473131,0.0109798,0.0437452,1035,1737,7.65386,-32.8253
-182,-713,7.7356,33.0117,-0.000224829,-0.0134444,0.00312082,0.000474887,-0.0141441,0.220561,0.0095916,0.0284083,1042,1737,7.73565,-33.0117
-175,-713,7.83569,33.5049,0,0,0,0,0,0,0,-1,1049,1737,7.83575,-33.5049
-168,-713,7.82141,33.7524,0,0,0,0,0,0,0,-1,1056,1737,7.82135,-33.7524
-161,-713,7.77002,33.9895,-0.00406117,-0.00534235,0.00523357,0.000570869,-0.00997439,0.724501,0.00684782,0.0181993,1063,1737,7.77,-33.9894
-154,-713,7.70374,34.3035,-0.00429636,-0.00335068,0.00446143,0.000662891,-0.00830994,0.838193,0.00577362,0.0128712,1070,1737,7.70372,-34.3034
-147,-713,7.68237,34.5867,-0.00456379,-0.00184976,0.00322055,0.000287994,-0.00670155,0.984791,0.00456673,0.0198636,1077,1737,7.68233,-34.5867
-140,-713,7.6936,34.858,-0.00422579,-0.000807445,0.00237622,0.000410442,-0.00544368,1.09717,0.00377338,0.0185501,1084,1737,7.69365,-34.8581
-133,-713,7.67371,35.0968,-0.00397446,-0.000399098,0.00163143,0.000233422,-0.00460698,1.20093,0.00315201,0.0107395,1091,1737,7.67376,-35.0968
-126,-713,7.65955,35.332,-0.00303807,0.000456561,0.00120986,0.000834537,-0.00341605,1.26799,0.00260057,0.0171271,1098,1737,7.65958,-35.332
-119,-713,7.64563,35.5557,-0.00229797,0.0011434,0.000888049,0.00135905,-0.00251362,1.33257,0.00226876,0.0267549,1105,1737,7.64567,-35.5557
-112,-713,7.60791,35.8213,-0.00152536,0.00179261,0.000653774,0.00191679,-0.00164954,1.3831,0.00206094,0.0136089,1112,1737,7.60792,-35.8213
-105,-713,7.61218,36.0547,-0.000996015,0.00229872,0.000352665,0.00233605,-0.00103334,1.46535,0.0019932,0.0106918,1119,1737,7.61213,-36.0546
-98,-713,7.61304,36.2803,-0.000665371,0.00251971,0.000432942,0.00257751,-0.000723171,1.43808,0.00200339,0.0100667,1126,1737,7.61301,-36.2803
-91,-713,7.59436,36.4839,-0.000117864,0.00271264,0.000631714,0.00284723,-0.000252451,1.36088,0.00198765,0.010039,1133,1737,7.59436,-36.4839
-84,-713,7.57874,36.6843,0.00018304,0.002632,0.000607983,0.00277463,4.04081e-05,1.34037,0.00183643,0.00951352,1140,1737,7.57874,-36.6843
-77,-713,7.58862,36.8929,0.000458468,0.00252449,0.000466637,0.002625,0.000357962,1.35865,0.00164372,0.0125522,1147,1737,7.58859,-36.893
-70,-713,7.58655,37.0912,0.000696251,0.00221985,0.000248651,0.0022594,0.000656697,1.41305,0.00134204,0.0143117,1154,1737,7.5866,-37.0912
-63,-713,7.57507,37.2706,0.000690798,0.00196095,0.000230882,0.00200162,0.000650132,1.39645,0.00117904,0.0127659,1161,1737,7.57507,-37.2706
-56,-713,7.58289,37.4276,0.000856811,0.00161744,0.000257118,0.0016962,0.000778052,1.27356,0.000980414,0.0126085,1168,1737,7.5829,-37.4276
-49,-713,7.56702,37.5765,0.00118157,0.00170017,0.000239846,0.00179409,0.00108765,1.19758,0.00104358,0.0149852,1175,1737,7.56701,-37.5766
-42,-713,7.5813,37.7335,0.00157837,0.0019287,0.000319582,0.00211798,0.0013891,1.03609,0.00124246,0.0176215,1182,1737,7.58128,-37.7335
-35,-713,7.60901,37.8452,0.00192779,0.00234192,0.000291916,0.00249275,0.00177696,1.09388,0.00148202,0.0144737,1189,1737,7.60898,-37.8452
-28,-713,7.61597,37.9929,0.00218357,0.00287618,0.000208481,0.00293409,0.00212566,1.29984,0.00174998,0.0131845,1196,1737,7.61602,-37.9929
-21,-713,7.60889,38.1277,0.00233704,0.00341607,0.000216873,0.00345803,0.00229509,1.37969,0.00203185,0.00964771,1203,1737,7.60885,-38.1277
-14,-713,7.63196,38.2202,0.00260106,0.00421893,0.000350351,0.00429154,0.00252845,1.36644,0.00249082,0.0110612,1210,1737,7.63194,-38.2202
-7,-713,7.65735,38.3379,0.00299827,0.00517129,0.000263714,0.00520284,0.00296672,1.45174,0.00301372,0.0100939,1217,1737,7.65738,-38.3378
0,-713,7.69055,38.4429,0.00334764,0.00591852,0.00020221,0.00593433,0.00333183,1.49278,0.0034348,0.0151531,1224,1737,7.69061,-38.4429
7,-713,7.70154,38.5076,0.00371405,0.00673467,0.000261956,0.00675722,0.00369151,1.48493,0.00390685,0.0182241,1231,1737,7.70153,-38.5075
14,-713,7.70996,38.5822,0.00395099,0.00761832,0.000411828,0.007664,0.00390531,1.46033,0.00442508,0.0127859,1238,1737,7.70994,-38.5822
21,-713,7.72754,38.6537,0.00398683,0.00843895,0.000586409,0.00851489,0.00391089,1.44201,0.0049215,0.0109529,1245,1737,7.72751,-38.6537
28,-713,7.72791,38.7212,0.00383704,0.00912616,0.000838333,0.00925586,0.00370734,1.41731,0.005379,0.0115331,1252,1737,7.72793,-38.7212
35,-713,7.75183,38.7859,0.00360732,0.00985139,0.00112105,0.0100466,0.00341215,1.39843,0.005899,0.0112141,1259,1737,7.75178,-38.7858
42,-713,7.79846,38.8365,0.00324656,0.0104141,0.00143543,0.0106909,0.00296978,1.38031,0.00637233,0.0111424,1266,1737,7.7985,-38.8366
49,-713,7.82483,38.8204,0.00271277,0.0106338,0.0016984,0.0109826,0.00236396,1.36824,0.00667475,0.01148,1273,1737,7.82477,-38.8205
56,-713,7.84509,38.8325,0.00185643,0.011121,0.00224457,0.0116362,0.00134127,1.34519,0.00735126,0.0119621,1280,1737,7.8451,-38.8325
63,-713,7.84766,38.866,0.000660851,0.0148391,0.00171458,0.0150435,0.000456453,1.45214,0.00988038,0.0125173,1287,1737,7.84762,-38.866
70,-713,7.86108,38.8578,-0.000473202,0.016537,0.00148242,0.0166653,-0.000601426,1.48451,0.011316,0.0120261,1294,1737,7.86103,-38.8578
77,-713,7.88525,38.8507,-0.00150219,0.0185073,0.00113281,0.0185712,-0.00156612,1.51442,0.0129345,0.011825,1301,1737,7.88529,-38.8507
84,-713,7.91663,38.8564,-0.0024877,0.0201901,0.000406204,0.0201974,-0.00249498,1.55289,0.014369,0.0118994,1308,1737,7.91662,-38.8564
91,-713,7.9397,38.8435,-0.00305796,0.0214865,-0.000458571,0.021495,-0.00306652,-1.55212,0.0154539,0.0118779,1315,1737,7.93974,-38.8436
98,-713,7.95667,38.7871,-0.00298221,0.0225074,-0.000908594,0.0225398,-0.00301456,-1.53521,0.0161256,0.0114529,1322,1737,7.95666,-38.7871
105,-713,7.9762,38.7457,-0.00278423,0.023275,-0.00152902,0.0233644,-0.00287363,-1.51239,0.0166172,0.0131712,1329,1737,7.97622,-38.7457
112,-713,7.9906,38.712,-0.00222649,0.0228958,-0.00213035,0.0230751,-0.00240586,-1.4868,0.0162449,0.0132352,1336,1737,7.99066,-38.7121
119,-713,8.0127,38.6595,-0.00119759,0.0214523,-0.0026001,0.021747,-0.00149224,-1.45796,0.0150201,0.0142076,1343,1737,8.01269,-38.6595
126,-713,8.01575,38.5785,0.000232518,0.0189628,-0.00271007,0.019347,-0.000151718,-1.42995,0.0129489,0.014457,1350,1737,8.01569,-38.5785
133,-713,8.03003,38.4711,0.00171359,0.0157606,-0.00251577,0.0161976,0.00127662,-1.39882,0.010399,0.0129356,1357,1737,8.03005,-38.4711
140,-713,8.06921,38.3668,0.00300591,0.0122477,-0.00212247,0.0127119,0.00254178,-1.35551,0.00776722,0.0141842,1364,1737,8.06921,-38.3668
147,-713,8.08215,38.2546,0.00407166,0.00896981,-0.00161789,0.00945596,0.00358551,-1.2789,0.00551227,0.0153135,1371,1737,8.08214,-38.2547
154,-713,8.07727,38.177,0.004524,0.00638742,-0.000898048,0.00674976,0.00416165,-1.18729,0.00393212,0.0136707,1378,1737,8.07728,-38.177
161,-713,8.07813,38.0471,0.00477439,0.00386776,-0.000537317,0.00502407,0.00361808,-0.434996,0.0029929,0.00960374,1385,1737,8.07816,-38.0471
168,-713,8.08936,37.9005,0.00491828,-0.00100026,0.00071711,0.00500393,-0.0010859,0.118872,0.00375069,0.00955853,1392,1737,8.08938,-37.9005
175,-713,8.11511,37.7543,0.00445559,-0.000424618,0.000757876,0.00457058,-0.000539604,0.150573,0.00324192,0.0132087,1399,1737,8.1151,-37.7542
182,-713,8.11951,37.6182,0.00354263,0.000221675,0.000527524,0.00362441,0.000139893,0.153805,0.00237102,0.0118069,1406,1737,8.11956,-37.6181
189,-713,8.12122,37.4501,0.00280384,0.000800537,0.000449739,0.00290017,0.000704203,0.21101,0.00174669,0.0113749,1413,1737,8.12125,-37.4501
196,-713,8.15662,37.2896,0.001744,0.00130713,0.000180043,0.00180864,0.0012425,0.344674,0.00106828,0.0117134,1420,1737,8.15659,-37.2895
203,-713,8.16626,37.1432,0.00061002,0.00143703,-0.000360327,0.00157199,0.000475052,-1.2124,0.000930964,0.0144539,1427,1737,8.16631,-37.1432
210,-713,8.13477,36.9591,0.00044416,0.00166156,-0.000555533,0.00187695,0.000228764,-1.20091,0.00118245,0.0125266,1434,1737,8.1348,-36.9591
217,-713,8.14355,36.7594,0.000261975,0.00174394,-0.000756605,0.00206197,-5.60537e-05,-1.17288,0.00139371,0.0112114,1441,1737,8.14351,-36.7594
224,-713,8.1311,36.5811,0.000107778,0.00176976,-0.000912069,0.00217263,-0.000295093,-1.15486,0.00155614,0.0127606,1448,1737,8.13106,-36.5811
231,-713,8.12793,36.3806,-6.98396e-05,0.0016942,-0.00103081,0.00216884,-0.000544477,-1.13928,0.00165747,0.0118563,1455,1737,8.12795,-36.3806
238,-713,8.12207,36.1523,-0.000122538,0.00149727,-0.00106627,0.00202635,-0.000651618,-1.1102,0.00161261,0.00809259,1462,1737,8.12206,-36.1523
245,-713,8.11377,35.9242,-5.24641e-05,0.00108654,-0.00110276,0.00175817,-0.000724095,-1.02375,0.00147401,0.00952986,1469,1737,8.11381,-35.9243
252,-713,8.11523,35.6942,-6.96103e-06,0.000780915,-0.00119632,0.00164649,-0.000872531,-0.944453,0.00147706,0.0102595,1476,1737,8.11526,-35.6942
259,-713,8.12915,35.4587,-8.4654e-06,0.00045539,-0.00125747,0.00150214,-0.00105521,-0.876594,0.00148398,0.0107632,1483,1737,8.12919,-35.4587
266,-713,8.09338,35.2374,4.06122e-05,0.000139262,-0.00138269,0.0014735,-0.00129363,-0.803227,0.00159873,0.00967431,1490,1737,8.09342,-35.2375
273,-713,8.05933,34.9977,0.000194761,0.000258673,-0.00168108,0.0019081,-0.00145466,-0.794902,0.00194737,0.00820983,1497,1737,8.0593,-34.9977
280,-713,8.03125,34.7393,0.000337345,0.000251376,-0.00199846,0.00229328,-0.00170456,-0.774645,0.00231648,0.00963075,1504,1737,8.03128,-34.7393
287,-713,8.01147,34.4941,0.000540485,0.000744652,-0.0024487,0.00309339,-0.00180826,-0.80623,0.00286221,0.0110924,1511,1737,8.01145,-34.4941
294,-713,8.03357,34.267,0.000764078,0.00148091,-0.00290528,0.0040498,-0.00180481,-0.846772,0.00346201,0.0181036,1518,1737,8.03354,-34.2669
301,-713,8.05933,34.0034,0.0010761,0.00213938,-0.00337593,0.00502528,-0.00180979,-0.863497,0.0040892,0.0207643,1525,1737,8.05938,-34.0034
308,-713,8.04529,33.6852,0.00137724,0.00274015,-0.00400915,0.00612535,-0.00200795,-0.869582,0.00489222,0.0217807,1532,1737,8.04532,-33.6851
315,-713,7.92847,33.272,0.00169534,0.00302993,-0.00459382,0.00700467,-0.0022794,-0.857523,0.00558679,0.030415,1539,1737,7.9285,-33.272
322,-713,8.06262,32.7949,0.00217858,0.00349941,-0.00521003,0.00809071,-0.00241272,-0.848441,0.00635266,0.04209,1546,1737,8.06257,-32.7949
329,-713,8.13,32.6415,0,0,0,0,0,0,0,-1,1553,1737,8.12995,-32.6414
336,-713,8.1637,32.2402,0,0,0,0,0,0,0,-1,1560,1737,8.16373,-32.2402
343,-713,7.66101,32.2767,0,0,0,0,0,0,0,-1,1567,1737,7.66106,-32.2767
350,-713,7.87646,32.097,0,0,0,0,0,0,0,-1,1574,1737,7.87646,-32.097
357,-713,7.04224,30.0194,0,0,0,0,0,0,0,-1,1581,1737,7.0422,-30.0194
364,-713,7.35474,20.9537,0,0,0,0,0,0,0,-1,1588,1737,7.35472,-20.9537
371,-713,3.07507,25.4108,0,0,0,0,0,0,0,-1,1595,1737,3.07502,-25.4107
378,-713,4.21838,25.306,0,0,0,0,0,0,0,-1,1602,1737,4.21837,-25.306
385,-713,5.078,25.3104,0,0,0,0,0,0,0,-1,1609,1737,5.07795,-25.3104
392,-713,5.92114,25.3118,0,0,0,0,0,0,0,-1,1616,1737,5.92112,-25.3118
399,-713,3.14368,25.2808,0,0,0,0,0,0,0,-1,1623,1737,3.14369,-25.2808
406,-713,1.82678,26.7354,0,0,0,0,0,0,0,-1,1630,1737,1.82679,-26.7354
413,-713,3.24731,18.2787,0,0,0,0,0,0,0,-1,1637,1737,3.24726,-18.2787
420,-713,0,0,0,0,0,0,0,0,0,-1,1644,1737,0,0
427,-713,0,0,0,0,0,0,0,0,0,-1,1651,1737,0,0
434,-713,0,0,0,0,0,0,0,0,0,-1,1658,1737,0,0
441,-713,0,0,0,0,0,0,0,0,0,-1,1665,1737,0,0
448,-713,0,0,0,0,0,0,0,0,0,-1,1672,1737,0,0
455,-713,0,0,0,0,0,0,0,0,0,-1,1679,1737,0,0
462,-713,0,0,0,0,0,0,0,0,0,-1,1686,1737,0,0
469,-713,0,0,0,0,0,0,0,0,0,-1,1693,1737,0,0
476,-713,0,0,0,0,0,0,0,0,0,-1,1700,1737,0,0
483,-713,0,0,0,0,0,0,0,0,0,-1,1707,1737,0,0
490,-713,0,0,0,0,0,0,0,0,0,-1,1714,1737,0,0
497,-713,0,0,0,0,0,0,0,0,0,-1,1721,1737,0,0
504,-713,0,0,0,0,0,0,0,0,0,-1,1728,1737,0,0
511,-713,0,0,0,0,0,0,0,0,0,-1,1735,1737,0,0
518,-713,0,0,0,0,0,0,0,0,0,-1,1742,1737,0,0
525,-713,0,0,0,0,0,0,0,0,0,-1,1749,1737,0,0
532,-713,0,0,0,0,0,0,0,0,0,-1,1756,1737,0,0
539,-713,0,0,0,0,0,0,0,0,0,-1,1763,1737,0,0
546,-713,0,0,0,0,0,0,0,0,0,-1,1770,1737,0,0
553,-713,0,0,0,0,0,0,0,0,0,-1,1777,1737,0,0
560,-713,0,0,0,0,0,0,0,0,0,-1,1784,1737,0,0
567,-713,0,0,0,0,0,0,0,0,0,-1,1791,1737,0,0
574,-713,0,0,0,0,0,0,0,0,0,-1,1798,1737,0,0
581,-713,0,0,0,0,0,0,0,0,0,-1,1805,1737,0,0
588,-713,0,0,0,0,0,0,0,0,0,-1,1812,1737,0,0
595,-713,0,0,0,0,0,0,0,0,0,-1,1819,1737,0,0
602,-713,0,0,0,0,0,0,0,0,0,-1,1826,1737,0,0
609,-713,0,0,0,0,0,0,0,0,0,-1,1833,1737,0,0
616,-713,0,0,0,0,0,0,0,0,0,-1,1840,1737,0,0
623,-713,0,0,0,0,0,0,0,0,0,-1,1847,1737,0,0
630,-713,0,0,0,0,0,0,0,0,0,-1,1854,1737,0,0
637,-713,0,0,0,0,0,0,0,0,0,-1,1861,1737,0,0
644,-713,0,0,0,0,0,0,0,0,0,-1,1868,1737,0,0
651,-713,0,0,0,0,0,0,0,0,0,-1,1875,1737,0,0
658,-713,0,0,0,0,0,0,0,0,0,-1,1882,1737,0,0
665,-713,0,0,0,0,0,0,0,0,0,-1,1889,1737,0,0
672,-713,0,0,0,0,0,0,0,0,0,-1,1896,1737,0,0
679,-713,0,0,0,0,0,0,0,0,0,-1,1903,1737,0,0
686,-713,0,0,0,0,0,0,0,0,0,-1,1910,1737,0,0
693,-713,0,0,0,0,0,0,0,0,0,-1,1917,1737,0,0
700,-713,0,0,0,0,0,0,0,0,0,-1,1924,1737,0,0
707,-713,0,0,0,0,0,0,0,0,0,-1,1931,1737,0,0
714,-713,0,0,0,0,0,0,0,0,0,-1,1938,1737,0,0
721,-713,0,0,0,0,0,0,0,0,0,-1,1945,1737,0,0
728,-713,0,0,0,0,0,0,0,0,0,-1,1952,1737,0,0
735,-713,0,0,0,0,0,0,0,0,0,-1,1959,1737,0,0
742,-713,0,0,0,0,0,0,0,0,0,-1,1966,1737,0,0
749,-713,0,0,0,0,0,0,0,0,0,-1,1973,1737,0,0
756,-713,0,0,0,0,0,0,0,0,0,-1,1980,1737,0,0
763,-713,0,0,0,0,0,0,0,0,0,-1,1987,1737,0,0
770,-713,0,0,0,0,0,0,0,0,0,-1,1994,1737,0,0
777,-713,0,0,0,0,0,0,0,0,0,-1,2001,1737,0,0
784,-713,0,0,0,0,0,0,0,0,0,-1,2008,1737,0,0
791,-713,0,0,0,0,0,0,0,0,0,-1,2015,1737,0,0
798,-713,0,0,0,0,0,0,0,0,0,-1,2022,1737,0,0
805,-713,0,0,0,0,0,0,0,0,0,-1,2029,1737,0,0
812,-713,0,0,0,0,0,0,0,0,0,-1,2036,1737,0,0
-700,-720,0,0,0,0,0,0,0,0,0,-1,524,1744,0,0
-693,-720,0,0,0,0,0,0,0,0,0,-1,531,1744,0,0
-686,-720,0,0,0,0,0,0,0,0,0,-1,538,1744,0,0
-679,-720,0,0,0,0,0,0,0,0,0,-1,545,1744,0,0
-672,-720,0,0,0,0,0,0,0,0,0,-1,552,1744,0,0
-665,-720,0,0,0,0,0,0,0,0,0,-1,559,1744,0,0
-658,-720,0,0,0,0,0,0,0,0,0,-1,566,1744,0,0
-651,-720,0,0,0,0,0,0,0,0,0,-1,573,1744,0,0
-644,-720,0,0,0,0,0,0,0,0,0,-1,580,1744,0,0
-637,-720,0,0,0,0,0,0,0,0,0,-1,587,1744,0,0
-630,-720,0,0,0,0,0,0,0,0,0,-1,594,1744,0,0
-623,-720,0,0,0,0,0,0,0,0,0,-1,601,1744,0,0
-616,-720,0,0,0,0,0,0,0,0,0,-1,608,1744,0,0
-609,-720,0,0,0,0,0,0,0,0,0,-1,615,1744,0,0
-602,-720,0,0,0,0,0,0,0,0,0,-1,622,1744,0,0
-595,-720,0,0,0,0,0,0,0,0,0,-1,629,1744,0,0
-588,-720,0,0,0,0,0,0,0,0,0,-1,636,1744,0,0
-581,-720,0,0,0,0,0,0,0,0,0,-1,643,1744,0,0
-574,-720,0,0,0,0,0,0,0,0,0,-1,650,1744,0,0
-567,-720,0,0,0,0,0,0,0,0,0,-1,657,1744,0,0
-560,-720,0,0,0,0,0,0,0,0,0,-1,664,1744,0,0
-553,-720,0,0,0,0,0,0,0,0,0,-1,671,1744,0,0
-546,-720,0,0,0,0,0,0,0,0,0,-1,678,1744,0,0
-539,-720,0,0,0,0,0,0,0,0,0,-1,685,1744,0,0
-532,-720,0,0,0,0,0,0,0,0,0,-1,692,1744,0,0
-525,-720,0,0,0,0,0,0,0,0,0,-1,699,1744,0,0
-518,-720,0,0,0,0,0,0,0,0,0,-1,706,1744,0,0
-511,-720,0,0,0,0,0,0,0,0,0,-1,713,1744,0,0
-504,-720,0,0,0,0,0,0,0,0,0,-1,720,1744,0,0
-497,-720,0,0,0,0,0,0,0,0,0,-1,727,1744,0,0
-490,-720,0,0,0,0,0,0,0,0,0,-1,734,1744,0,0
-483,-720,0,0,0,0,0,0,0,0,0,-1,741,1744,0,0
-476,-720,0,0,0,0,0,0,0,0,0,-1,748,1744,0,0
-469,-720,0,0,0,0,0,0,0,0,0,-1,755,1744,0,0
-462,-720,0,0,0,0,0,0,0,0,0,-1,762,1744,0,0
-455,-720,0,0,0,0,0,0,0,0,0,-1,769,1744,0,0
-448,-720,0,0,0,0,0,0,0,0,0,-1,776,1744,0,0
-441,-720,0,0,0,0,0,0,0,0,0,-1,783,1744,0,0
-434,-720,0,0,0,0,0,0,0,0,0,-1,790,1744,0,0
-427,-720,0,0,0,0,0,0,0,0,0,-1,797,1744,0,0
-420,-720,0,0,0,0,0,0,0,0,0,-1,804,1744,0,0
-413,-720,0,0,0,0,0,0,0,0,0,-1,811,1744,0,0
-406,-720,0,0,0,0,0,0,0,0,0,-1,818,1744,0,0
-399,-720,0,0,0,0,0,0,0,0,0,-1,825,1744,0,0
-392,-720,0,0,0,0,0,0,0,0,0,-1,832,1744,0,0
-385,-720,0,0,0,0,0,0,0,0,0,-1,839,1744,0,0
-378,-720,0,0,0,0,0,0,0,0,0,-1,846,1744,0,0
-371,-720,0,0,0,0,0,0,0,0,0,-1,853,1744,0,0
-364,-720,0,0,0,0,0,0,0,0,0,-1,860,1744,0,0
-357,-720,0,0,0,0,0,0,0,0,0,-1,867,1744,0,0
-350,-720,0,0,0,0,0,0,0,0,0,-1,874,1744,0,0
-343,-720,0,0,0,0,0,0,0,0,0,-1,881,1744,0,0
-336,-720,0,0,0,0,0,0,0,0,0,-1,888,1744,0,0
-329,-720,0,0,0,0,0,0,0,0,0,-1,895,1744,0,0
-322,-720,0,0,0,0,0,0,0,0,0,-1,902,1744,0,0
-315,-720,0,0,0,0,0,0,0,0,0,-1,909,1744,0,0
-308,-720,0,0,0,0,0,0,0,0,0,-1,916,1744,0,0
-301,-720,0,0,0,0,0,0,0,0,0,-1,923,1744,0,0
-294,-720,0,0,0,0,0,0,0,0,0,-1,930,1744,0,0
-287,-720,0,0,0,0,0,0,0,0,0,-1,937,1744,0,0
-280,-720,6.46796,22.6417,0,0,0,0,0,0,0,-1,944,1744,6.46793,-22.6417
-273,-720,8.54633,13.262,0,0,0,0,0,0,0,-1,951,1744,8.54636,-13.2619
-266,-720,7.28027,13.3165,0,0,0,0,0,0,0,-1,958,1744,7.28026,-13.3166
-259,-720,3.70563,18.6372,0,0,0,0,0,0,0,-1,965,1744,3.70564,-18.6372
-252,-720,4.00989,18.5059,0,0,0,0,0,0,0,-1,972,1744,4.00988,-18.5058
-245,-720,7.05634,33.8489,0,0,0,0,0,0,0,-1,979,1744,7.05634,-33.8489
-238,-720,5.02216,24.1455,0,0,0,0,0,0,0,-1,986,1744,5.02217,-24.1455
-231,-720,7.35455,28.3225,0,0,0,0,0,0,0,-1,993,1744,7.35453,-28.3225
-224,-720,7.65991,19.4061,0,0,0,0,0,0,0,-1,1000,1744,7.6599,-19.4061
-217,-720,4.77637,30.7196,0,0,0,0,0,0,0,-1,1007,1744,4.77636,-30.7197
-210,-720,7.53912,32.1326,0,0,0,0,0,0,0,-1,1014,1744,7.5391,-32.1325
-203,-720,7.34473,32.6597,0,0,0,0,0,0,0,-1,1021,1744,7.34469,-32.6596
-196,-720,7.61426,33.1782,0,0,0,0,0,0,0,-1,1028,1744,7.61422,-33.1783
-189,-720,7.93164,32.7111,0,0,0,0,0,0,0,-1,1035,1744,7.93169,-32.7111
-182,-720,8.05334,33.1615,-0.000161,-0.0184654,0.00252534,0.000181014,-0.0188074,0.134614,0.012599,0.0450111,1042,1744,8.05338,-33.1615
-175,-720,7.67297,33.7015,0,0,0,0,0,0,0,-1,1049,1744,7.67296,-33.7016
-168,-720,7.68384,33.8,-0.00449383,-0.0112932,0.00621703,-0.000807653,-0.0149793,0.535194,0.00972819,0.045301,1056,1744,7.68379,-33.8001
-161,-720,7.65051,34.0132,-0.00583657,-0.00746384,0.00644417,-0.000154881,-0.0131455,0.722601,0.00871252,0.0386292,1063,1744,7.65054,-34.0131
-154,-720,7.99609,34.3602,-0.00629283,-0.00469367,0.00565416,0.000217163,-0.0112037,0.855639,0.00754254,0.0319358,1070,1744,7.99607,-34.3603
-147,-720,7.94055,34.7104,-0.00679618,-0.00277724,0.00408356,-0.000235512,-0.00933791,1.01405,0.00614827,0.0280865,1077,1744,7.9406,-34.7105
-140,-720,7.95044,34.9572,-0.00638016,-0.00164301,0.00295498,-0.000224489,-0.00779868,1.12324,0.00512593,0.0204652,1084,1744,7.95046,-34.9572
-133,-720,7.89514,35.1266,-0.00615759,-0.00134127,0.0019325,-0.000661741,-0.00683712,1.23267,0.00435429,0.0132405,1091,1744,7.89516,-35.1266
-126,-720,7.8772,35.3513,-0.00490212,-0.000339168,0.00140872,6.0702e-05,-0.00530199,1.29422,0.00355507,0.0125316,1098,1744,7.8772,-35.3513
-119,-720,7.85645,35.5916,-0.00391443,0.000460771,0.00103007,0.000691155,-0.00414481,1.35076,0.00302007,0.0148389,1105,1744,7.85643,-35.5915
-112,-720,7.82251,35.8051,-0.00286379,0.00128443,0.000777385,0.00142533,-0.00300469,1.3915,0.00261129,0.0136858,1112,1744,7.82256,-35.8051
-105,-720,7.81628,36.0415,-0.00212798,0.00200902,0.000438485,0.00205499,-0.00217395,1.46635,0.0024419,0.0128954,1119,1744,7.81625,-36.0415
-98,-720,7.80713,36.2626,-0.00170038,0.00237911,0.000636746,0.00247619,-0.00179746,1.4195,0.00247774,0.0104426,1126,1744,7.80711,-36.2626
-91,-720,7.78528,36.4775,-0.000897657,0.0028505,0.00106796,0.00313343,-0.00118059,1.31182,0.00257436,0.00994521,1133,1744,7.78531,-36.4776
-84,-720,7.76538,36.6997,-0.00049075,0.00287652,0.00114415,0.00322849,-0.000842725,1.27235,0.0024814,0.0105249,1140,1744,7.76539,-36.6998
-77,-720,7.76306,36.8995,-0.000222458,0.00276379,0.00112679,0.00314125,-0.000599916,1.24756,0.00232014,0.0129798,1147,1744,7.76312,-36.8995
-70,-720,7.76453,37.0812,-3.83654e-05,0.00248029,0.000960879,0.00280501,-0.000363081,1.24491,0.00200204,0.0110281,1154,1744,7.76458,-37.0812
-63,-720,7.75098,37.2607,2.80066e-05,0.00220962,0.000774997,0.0024569,-0.000219275,1.26193,0.0017157,0.010033,1161,1744,7.75099,-37.2607
-56,-720,7.7605,37.4257,0.000171216,0.00174215,0.000604616,0.00194791,-3.45381e-05,1.24278,0.00131027,0.0123928,1168,1744,7.76056,-37.4257
-49,-720,7.7207,37.5776,0.000310869,0.00112319,0.000394068,0.00128294,0.000151119,1.18565,0.000809638,0.0184996,1175,1744,7.72066,-37.5777
-42,-720,7.75635,37.7103,0.000488184,0.000777166,0.000312027,0.000976533,0.000288816,1.00223,0.000579269,0.0192954,1182,1744,7.75634,-37.7103
-35,-720,7.78247,37.8314,0.000718332,0.000629982,0.00023485,0.000913125,0.000435188,0.692435,0.000527386,0.0167383,1189,1744,7.78245,-37.8315
-28,-720,7.75,38.0004,0.000885307,0.000745839,0.000118861,0.00095338,0.000677766,0.52011,0.000566522,0.0108634,1196,1744,7.75,-38.0004
-21,-720,7.74805,38.1384,0.00104111,0.00098472,0.000115813,0.00113211,0.00089372,0.665992,0.000689161,0.00907167,1203,1744,7.7481,-38.1384
-14,-720,7.75415,38.2318,0.00125673,0.00139385,0.000190431,0.00152769,0.00112289,0.958188,0.000913913,0.0111501,1210,1744,7.75412,-38.2319
-7,-720,7.75842,38.3497,0.00154396,0.00175871,0.000152888,0.00183816,0.00146451,1.09153,0.00112183,0.0120041,1217,1744,7.75838,-38.3497
0,-720,7.78198,38.47,0.00185052,0.00229181,0.000211834,0.00237704,0.00176529,1.18828,0.00142523,0.0131775,1224,1744,7.78204,-38.47
7,-720,7.78516,38.5309,0.00215659,0.00293087,0.000316666,0.00304388,0.00204357,1.228,0.00179146,0.0156435,1231,1744,7.78516,-38.5309
14,-720,7.79846,38.5824,0.00244583,0.00360936,0.000478591,0.00378092,0.00227427,1.22659,0.00219786,0.0140337,1238,1744,7.79848,-38.5824
21,-720,7.79773,38.6572,0.00264957,0.00427728,0.000611162,0.00448121,0.00244565,1.24874,0.00259084,0.011368,1245,1744,7.79774,-38.6572
28,-720,7.78735,38.7213,0.00268654,0.00484309,0.00075709,0.00508234,0.00244729,1.26472,0.00293496,0.0111084,1252,1744,7.7874,-38.7213
35,-720,7.80139,38.7855,0.00270572,0.00537617,0.000836317,0.00561646,0.00246543,1.29101,0.00325071,0.0105302,1259,1744,7.80144,-38.7855
42,-720,7.82788,38.8259,0.00269797,0.00576368,0.000913145,0.00601506,0.00244659,1.30217,0.00349287,0.0114075,1266,1744,7.82794,-38.8259
49,-720,7.84595,38.8284,0.00249621,0.00594232,0.000936156,0.00618021,0.00225832,1.32195,0.00361098,0.0117457,1273,1744,7.84591,-38.8283
56,-720,7.84656,38.8516,0.00213503,0.00614906,0.00109769,0.00642963,0.00185446,1.32056,0.00382132,0.0103867,1280,1744,7.8466,-38.8516
63,-720,7.85315,38.8771,0.00154099,0.00841787,0.000459996,0.0084485,0.00151035,1.5043,0.00520248,0.0124827,1287,1744,7.85319,-38.8771
70,-720,7.87744,38.8784,0.000938369,0.00932804,5.52594e-05,0.0093284,0.000938005,1.56421,0.00593104,0.0125632,1294,1744,7.8774,-38.8784
77,-720,7.88428,38.8538,0.00037227,0.0102902,-0.000372713,0.0103042,0.000358284,-1.53329,0.00675321,0.0134312,1301,1744,7.88431,-38.8538
84,-720,7.89746,38.8307,-0.000275707,0.0110101,-0.00100572,0.011099,-0.00036463,-1.48261,0.00752383,0.0135249,1308,1744,7.89746,-38.8307
91,-720,7.91479,38.8076,-0.000637872,0.0115645,-0.00160339,0.0117717,-0.00084504,-1.4423,0.00814412,0.0122818,1315,1744,7.91474,-38.8076
98,-720,7.91577,38.7783,-0.000601734,0.0120205,-0.0018909,0.0122976,-0.000878918,-1.42524,0.00850655,0.0109637,1322,1744,7.91577,-38.7783
105,-720,7.91199,38.7448,-0.000594185,0.0121664,-0.0022328,0.0125458,-0.000973593,-1.40248,0.00870654,0.0111028,1329,1744,7.91194,-38.7447
112,-720,7.92261,38.7017,-0.000391833,0.0116647,-0.00243648,0.0121385,-0.0008656,-1.37875,0.00839575,0.0108713,1336,1744,7.92266,-38.7017
119,-720,7.93701,38.642,2.25677e-05,0.0105825,-0.00250979,0.0111486,-0.000543584,-1.34893,0.00762009,0.0114781,1343,1744,7.93698,-38.642
126,-720,7.94409,38.5592,0.000648146,0.0089078,-0.00228009,0.00949542,6.05299e-05,-1.31857,0.0063102,0.0114943,1350,1744,7.94412,-38.5592
133,-720,7.94763,38.4792,0.00130889,0.00694401,-0.00185278,0.00749861,0.000754287,-1.27995,0.00476758,0.0128798,1357,1744,7.94759,-38.4792
140,-720,7.96033,38.4104,0.00179203,0.00495736,-0.00130494,0.00542596,0.00132343,-1.22604,0.00326678,0.0201009,1364,1744,7.9603,-38.4104
147,-720,7.96021,38.285,0.00207037,0.00317303,-0.000780034,0.0035769,0.0016665,-1.09304,0.00206673,0.0216084,1371,1744,7.96015,-38.285
154,-720,7.93774,38.16,0.00207222,0.00185926,-0.000286319,0.00227122,0.00166026,-0.607379,0.00135713,0.0141695,1378,1744,7.93777,-38.1601
161,-720,7.96814,38.0375,0.00183429,0.000890504,-1.82506e-05,0.00183464,0.000890151,-0.0193281,0.00105938,0.009332,1385,1744,7.96811,-38.0374
168,-720,7.97168,37.903,0.00152896,-0.000392329,0.000337225,0.00158643,-0.0004498,0.1688,0.00123517,0.00938933,1392,1744,7.97171,-37.903
175,-720,7.95972,37.7493,0.00108374,0.000148376,0.000104698,0.00109532,0.0001368,0.110117,0.000689153,0.0152123,1399,1744,7.95967,-37.7493
182,-720,7.96729,37.6155,0.000535199,0.000716175,-0.000191215,0.000837231,0.000414143,-1.0064,0.000483385,0.0151318,1406,1744,7.9673,-37.6155
189,-720,7.99072,37.4612,0.000131564,0.00111418,-0.000469668,0.00130255,-5.68139e-05,-1.18935,0.000887913,0.0131917,1413,1744,7.99067,-37.4612
196,-720,7.9978,37.2955,-0.000215162,0.00148772,-0.000828067,0.00182398,-0.000551428,-1.18505,0.00143555,0.0130886,1420,1744,7.99782,-37.2955
203,-720,7.95386,37.1373,-0.000417357,0.00196375,-0.00106509,0.00237064,-0.00082425,-1.20588,0.00191524,0.0144704,1427,1744,7.95387,-37.1374
210,-720,7.94751,36.9774,-0.000482199,0.00237499,-0.0012606,0.00285165,-0.000958857,-1.20929,0.00228868,0.0131266,1434,1744,7.94745,-36.9774
217,-720,7.95752,36.7689,-0.000547755,0.00247774,-0.00140113,0.00302692,-0.00109694,-1.19724,0.0024663,0.0123521,1441,1744,7.95747,-36.769
224,-720,7.93323,36.557,-0.000623896,0.00246035,-0.00152315,0.00308574,-0.00124929,-1.18119,0.0025766,0.00948454,1448,1744,7.93328,-36.557
231,-720,7.92761,36.3657,-0.000758943,0.00229659,-0.00157988,0.00296657,-0.00142892,-1.16971,0.00258898,0.0103148,1455,1744,7.9276,-36.3657
238,-720,7.92029,36.1464,-0.000755427,0.00197254,-0.00154822,0.00267191,-0.0014548,-1.14651,0.00241685,0.00879501,1462,1744,7.92032,-36.1463
245,-720,7.90405,35.924,-0.00056004,0.00137296,-0.00155375,0.00223628,-0.00142336,-1.06363,0.0021302,0.0102103,1469,1744,7.90409,-35.924
252,-720,7.89673,35.6914,-0.000390169,0.000959357,-0.00165379,0.00207075,-0.00150156,-0.979094,0.00207118,0.0104178,1476,1744,7.89675,-35.6914
259,-720,7.88867,35.4663,-0.000308195,0.000530646,-0.00169763,0.0018599,-0.00163745,-0.906504,0.00202055,0.00938218,1483,1744,7.88866,-35.4663
266,-720,7.8512,35.2427,-0.000148585,0.000121139,-0.00182947,0.00182071,-0.00184816,-0.82219,0.00211824,0.00793204,1490,1744,7.85118,-35.2427
273,-720,7.82397,34.984,0.000147335,0.000255288,-0.00218934,0.00239132,-0.0019887,-0.797723,0.00253236,0.0137022,1497,1744,7.82403,-34.9841
280,-720,7.74976,34.7554,0.000428665,0.000242391,-0.00256231,0.00289953,-0.00222847,-0.767232,0.00296909,0.0198231,1504,1744,7.74975,-34.7554
287,-720,7.68384,34.469,0.000795289,0.0008745,-0.00313777,0.00397292,-0.00230313,-0.791709,0.00366598,0.0359347,1511,1744,7.68383,-34.469
294,-720,7.82275,34.1234,0.00117053,0.00184221,-0.00372537,0.00524685,-0.00223411,-0.830351,0.00443435,0.0390661,1518,1744,7.82278,-34.1234
301,-720,7.80432,33.858,0.00165356,0.00277175,-0.00430663,0.00655543,-0.00213012,-0.849948,0.00522706,0.0391848,1525,1744,7.80432,-33.858
308,-720,7.72937,33.6105,0.00213003,0.00366316,-0.00507671,0.00803085,-0.00223767,-0.86033,0.0062351,0.0381001,1532,1744,7.72939,-33.6105
315,-720,7.74341,33.3336,0.00263262,0.00427624,-0.0058079,0.00932019,-0.00241132,-0.855681,0.007154,0.0401074,1539,1744,7.7434,-33.3336
322,-720,8.08142,32.403,0,0,0,0,0,0,0,-1,1546,1744,8.08147,-32.4029
329,-720,7.79773,28.8168,0,0,0,0,0,0,0,-1,1553,1744,7.79771,-28.8167
336,-720,6.14148,26.5682,0,0,0,0,0,0,0,-1,1560,1744,6.14151,-26.5683
343,-720,6.78552,21.3625,0,0,0,0,0,0,0,-1,1567,1744,6.78551,-21.3625
350,-720,4.0741,11.1836,0,0,0,0,0,0,0,-1,1574,1744,4.07412,-11.1836
357,-720,6.90833,21.4504,0,0,0,0,0,0,0,-1,1581,1744,6.90827,-21.4505
364,-720,5.83777,24.1599,0,0,0,0,0,0,0,-1,1588,1744,5.83773,-24.1599
371,-720,5.46997,23.6176,0,0,0,0,0,0,0,-1,1595,1744,5.47001,-23.6176
378,-720,3.88257,25.5404,0,0,0,0,0,0,0,-1,1602,1744,3.88262,-25.5404
385,-720,4.63611,25.6746,0,0,0,0,0,0,0,-1,1609,1744,4.63612,-25.6746
392,-720,3.49377,23.5042,0,0,0,0,0,0,0,-1,1616,1744,3.4938,-23.5042
399,-720,2.37317,24.7166,0,0,0,0,0,0,0,-1,1623,1744,2.37317,-24.7166
406,-720,0,0,0,0,0,0,0,0,0,-1,1630,1744,0,0
413,-720,0,0,0,0,0,0,0,0,0,-1,1637,1744,0,0
420,-720,0,0,0,0,0,0,0,0,0,-1,1644,1744,0,0
427,-720,0,0,0,0,0,0,0,0,0,-1,1651,1744,0,0
434,-720,0,0,0,0,0,0,0,0,0,-1,1658,1744,0,0
441,-720,0,0,0,0,0,0,0,0,0,-1,1665,1744,0,0
448,-720,0,0,0,0,0,0,0,0,0,-1,1672,1744,0,0
455,-720,0,0,0,0,0,0,0,0,0,-1,1679,1744,0,0
462,-720,0,0,0,0,0,0,0,0,0,-1,1686,1744,0,0
469,-720,0,0,0,0,0,0,0,0,0,-1,1693,1744,0,0
476,-720,0,0,0,0,0,0,0,0,0,-1,1700,1744,0,0
483,-720,0,0,0,0,0,0,0,0,0,-1,1707,1744,0,0
490,-720,0,0,0,0,0,0,0,0,0,-1,1714,1744,0,0
497,-720,0,0,0,0,0,0,0,0,0,-1,1721,1744,0,0
504,-720,0,0,0,0,0,0,0,0,0,-1,1728,1744,0,0
511,-720,0,0,0,0,0,0,0,0,0,-1,1735,1744,0,0
518,-720,0,0,0,0,0,0,0,0,0,-1,1742,1744,0,0
525,-720,0,0,0,0,0,0,0,0,0,-1,1749,1744,0,0
532,-720,0,0,0,0,0,0,0,0,0,-1,1756,1744,0,0
539,-720,0,0,0,0,0,0,0,0,0,-1,1763,1744,0,0
546,-720,0,0,0,0,0,0,0,0,0,-1,1770,1744,0,0
553,-720,0,0,0,0,0,0,0,0,0,-1,1777,1744,0,0
560,-720,0,0,0,0,0,0,0,0,0,-1,1784,1744,0,0
567,-720,0,0,0,0,0,0,0,0,0,-1,1791,1744,0,0
574,-720,0,0,0,0,0,0,0,0,0,-1,1798,1744,0,0
581,-720,0,0,0,0,0,0,0,0,0,-1,1805,1744,0,0
588,-720,0,0,0,0,0,0,0,0,0,-1,1812,1744,0,0
595,-720,0,0,0,0,0,0,0,0,0,-1,1819,1744,0,0
602,-720,0,0,0,0,0,0,0,0,0,-1,1826,1744,0,0
609,-720,0,0,0,0,0,0,0,0,0,-1,1833,1744,0,0
616,-720,0,0,0,0,0,0,0,0,0,-1,1840,1744,0,0
623,-720,0,0,0,0,0,0,0,0,0,-1,1847,1744,0,0
630,-720,0,0,0,0,0,0,0,0,0,-1,1854,1744,0,0
637,-720,0,0,0,0,0,0,0,0,0,-1,1861,1744,0,0
644,-720,0,0,0,0,0,0,0,0,0,-1,1868,1744,0,0
651,-720,0,0,0,0,0,0,0,0,0,-1,1875,1744,0,0
658,-720,0,0,0,0,0,0,0,0,0,-1,1882,1744,0,0
665,-720,0,0,0,0,0,0,0,0,0,-1,1889,1744,0,0
672,-720,0,0,0,0,0,0,0,0,0,-1,1896,1744,0,0
679,-720,0,0,0,0,0,0,0,0,0,-1,1903,1744,0,0
686,-720,0,0,0,0,0,0,0,0,0,-1,1910,1744,0,0
693,-720,0,0,0,0,0,0,0,0,0,-1,1917,1744,0,0
700,-720,0,0,0,0,0,0,0,0,0,-1,1924,1744,0,0
707,-720,0,0,0,0,0,0,0,0,0,-1,1931,1744,0,0
714,-720,0,0,0,0,0,0,0,0,0,-1,1938,1744,0,0
721,-720,0,0,0,0,0,0,0,0,0,-1,1945,1744,0,0
728,-720,0,0,0,0,0,0,0,0,0,-1,1952,1744,0,0
735,-720,0,0,0,0,0,0,0,0,0,-1,1959,1744,0,0
742,-720,0,0,0,0,0,0,0,0,0,-1,1966,1744,0,0
749,-720,0,0,0,0,0,0,0,0,0,-1,1973,1744,0,0
756,-720,0,0,0,0,0,0,0,0,0,-1,1980,1744,0,0
763,-720,0,0,0,0,0,0,0,0,0,-1,1987,1744,0,0
770,-720,0,0,0,0,0,0,0,0,0,-1,1994,1744,0,0
777,-720,0,0,0,0,0,0,0,0,0,-1,2001,1744,0,0
784,-720,0,0,0,0,0,0,0,0,0,-1,2008,1744,0,0
791,-720,0,0,0,0,0,0,0,0,0,-1,2015,1744,0,0
798,-720,0,0,0,0,0,0,0,0,0,-1,2022,1744,0,0
805,-720,0,0,0,0,0,0,0,0,0,-1,2029,1744,0,0
812,-720,0,0,0,0,0,0,0,0,0,-1,2036,1744,0,0
-700,-727,0,0,0,0,0,0,0,0,0,-1,524,1751,0,0
-693,-727,0,0,0,0,0,0,0,0,0,-1,531,1751,0,0
-686,-727,0,0,0,0,0,0,0,0,0,-1,538,1751,0,0
-679,-727,0,0,0,0,0,0,0,0,0,-1,545,1751,0,0
-672,-727,0,0,0,0,0,0,0,0,0,-1,552,1751,0,0
-665,-727,0,0,0,0,0,0,0,0,0,-1,559,1751,0,0
-658,-727,0,0,0,0,0,0,0,0,0,-1,566,1751,0,0
-651,-727,0,0,0,0,0,0,0,0,0,-1,573,1751,0,0
-644,-727,0,0,0,0,0,0,0,0,0,-1,580,1751,0,0
-637,-727,0,0,0,0,0,0,0,0,0,-1,587,1751,0,0
-630,-727,0,0,0,0,0,0,0,0,0,-1,594,1751,0,0
-623,-727,0,0,0,0,0,0,0,0,0,-1,601,1751,0,0
-616,-727,0,0,0,0,0,0,0,0,0,-1,608,1751,0,0
-609,-727,0,0,0,0,0,0,0,0,0,-1,615,1751,0,0
-602,-727,0,0,0,0,0,0,0,0,0,-1,622,1751,0,0
-595,-727,0,0,0,0,0,0,0,0,0,-1,629,1751,0,0
-588,-727,0,0,0,0,0,0,0,0,0,-1,636,1751,0,0
-581,-727,0,0,0,0,0,0,0,0,0,-1,643,1751,0,0
-574,-727,0,0,0,0,0,0,0,0,0,-1,650,1751,0,0
-567,-727,0,0,0,0,0,0,0,0,0,-1,657,1751,0,0
-560,-727,0,0,0,0,0,0,0,0,0,-1,664,1751,0,0
-553,-727,0,0,0,0,0,0,0,0,0,-1,671,1751,0,0
-546,-727,0,0,0,0,0,0,0,0,0,-1,678,1751,0,0
-539,-727,0,0,0,0,0,0,0,0,0,-1,685,1751,0,0
-532,-727,0,0,0,0,0,0,0,0,0,-1,692,1751,0,0
-525,-727,0,0,0,0,0,0,0,0,0,-1,699,1751,0,0
-518,-727,0,0,0,0,0,0,0,0,0,-1,706,1751,0,0
-511,-727,0,0,0,0,0,0,0,0,0,-1,713,1751,0,0
-504,-727,0,0,0,0,0,0,0,0,0,-1,720,1751,0,0
-497,-727,0,0,0,0,0,0,0,0,0,-1,727,1751,0,0
-490,-727,0,0,0,0,0,0,0,0,0,-1,734,1751,0,0
-483,-727,0,0,0,0,0,0,0,0,0,-1,741,1751,0,0
-476,-727,0,0,0,0,0,0,0,0,0,-1,748,1751,0,0
-469,-727,0,0,0,0,0,0,0,0,0,-1,755,1751,0,0
-462,-727,0,0,0,0,0,0,0,0,0,-1,762,1751,0,0
-455,-727,0,0,0,0,0,0,0,0,0,-1,769,1751,0,0
-448,-727,0,0,0,0,0,0,0,0,0,-1,776,1751,0,0
-441,-727,0,0,0,0,0,0,0,0,0,-1,783,1751,0,0
-434,-727,0,0,0,0,0,0,0,0,0,-1,790,1751,0,0
-427,-727,0,0,0,0,0,0,0,0,0,-1,797,1751,0,0
-420,-727,0,0,0,0,0,0,0,0,0,-1,804,1751,0,0
-413,-727,0,0,0,0,0,0,0,0,0,-1,811,1751,0,0
-406,-727,0,0,0,0,0,0,0,0,0,-1,818,1751,0,0
-399,-727,0,0,0,0,0,0,0,0,0,-1,825,1751,0,0
-392,-727,0,0,0,0,0,0,0,0,0,-1,832,1751,0,0
-385,-727,0,0,0,0,0,0,0,0,0,-1,839,1751,0,0
-378,-727,0,0,0,0,0,0,0,0,0,-1,846,1751,0,0
-371,-727,0,0,0,0,0,0,0,0,0,-1,853,1751,0,0
-364,-727,0,0,0,0,0,0,0,0,0,-1,860,1751,0,0
-357,-727,0,0,0,0,0,0,0,0,0,-1,867,1751,0,0
-350,-727,0,0,0,0,0,0,0,0,0,-1,874,1751,0,0
-343,-727,0,0,0,0,0,0,0,0,0,-1,881,1751,0,0
-336,-727,0,0,0,0,0,0,0,0,0,-1,888,1751,0,0
-329,-727,0,0,0,0,0,0,0,0,0,-1,895,1751,0,0
-322,-727,0,0,0,0,0,0,0,0,0,-1,902,1751,0,0
-315,-727,0,0,0,0,0,0,0,0,0,-1,909,1751,0,0
-308,-727,0,0,0,0,0,0,0,0,0,-1,916,1751,0,0
-301,-727,0,0,0,0,0,0,0,0,0,-1,923,1751,0,0
-294,-727,0,0,0,0,0,0,0,0,0,-1,930,1751,0,0
-287,-727,0,0,0,0,0,0,0,0,0,-1,937,1751,0,0
-280,-727,0,0,0,0,0,0,0,0,0,-1,944,1751,0,0
-273,-727,0,0,0,0,0,0,0,0,0,-1,951,1751,0,0
-266,-727,4.24805,7.61145,0,0,0,0,0,0,0,-1,958,1751,4.24802,-7.6115
-259,-727,3.65228,5.4082,0,0,0,0,0,0,0,-1,965,1751,3.65229,-5.40818
-252,-727,5.8797,32.9292,0,0,0,0,0,0,0,-1,972,1751,5.87972,-32.9292
-245,-727,6.59198,32.2588,0,0,0,0,0,0,0,-1,979,1751,6.59195,-32.2587
-238,-727,6.6189,30.4597,0,0,0,0,0,0,0,-1,986,1751,6.61889,-30.4598
-231,-727,6.70105,28.9473,0,0,0,0,0,0,0,-1,993,1751,6.70103,-28.9472
-224,-727,7.0614,27.79,0,0,0,0,0,0,0,-1,1000,1751,7.06139,-27.79
-217,-727,4.72937,32.0111,0,0,0,0,0,0,0,-1,1007,1751,4.72935,-32.0111
-210,-727,5.0921,32.4524,0,0,0,0,0,0,0,-1,1014,1751,5.09209,-32.4523
-203,-727,7.72632,29.3203,0,0,0,0,0,0,0,-1,1021,1751,7.72626,-29.3203
-196,-727,8.28052,30.7444,0,0,0,0,0,0,0,-1,1028,1751,8.28049,-30.7444
-189,-727,8.21594,32.4889,0,0,0,0,0,0,0,-1,1035,1751,8.21595,-32.4889
-182,-727,8.54065,33.3866,0,0,0,0,0,0,0,-1,1042,1751,8.54065,-33.3866
-175,-727,7.60779,34.243,0,0,0,0,0,0,0,-1,1049,1751,7.60784,-34.243
-168,-727,7.69946,33.7594,-0.0060566,-0.0157032,0.0066479,-0.00266656,-0.0190932,0.471568,0.0119396,0.0466044,1056,1751,7.69949,-33.7594
-161,-727,7.30701,34.2406,-0.00796101,-0.0103565,0.00763203,-0.00143331,-0.0168842,0.707564,0.0108101,0.0436674,1063,1751,7.30704,-34.2406
-154,-727,8.71875,34.1604,0,0,0,0,0,0,0,-1,1070,1751,8.71873,-34.1604
-147,-727,8.20007,34.4805,-0.00948927,-0.00379154,0.00516229,-0.000744193,-0.0125366,1.03753,0.00812105,0.0492197,1077,1751,8.2001,-34.4805
-140,-727,8.06055,34.726,-0.00891735,-0.00252305,0.00366303,-0.00085814,-0.0105823,1.14419,0.0067869,0.0322326,1084,1751,8.06052,-34.7259
-133,-727,8.13342,35.0012,-0.00870372,-0.0023161,0.00227984,-0.00158587,-0.00943395,1.26082,0.00583299,0.0220277,1091,1751,8.13348,-35.0012
-126,-727,8.05188,35.3091,-0.00698307,-0.00105044,0.00164579,-0.000624462,-0.00740904,1.31753,0.00474493,0.0141518,1098,1751,8.05187,-35.3091
-119,-727,8.04626,35.5952,-0.00563348,-4.35115e-05,0.00121353,0.000208569,-0.00588556,1.36599,0.00399504,0.0123633,1105,1751,8.04632,-35.5952
-112,-727,8.05164,35.808,-0.00421655,0.00107095,0.000970448,0.00124344,-0.00438904,1.3949,0.00341677,0.0143281,1112,1751,8.05165,-35.808
-105,-727,8.02332,36.0465,-0.00321602,0.00209033,0.000633176,0.00216483,-0.00329053,1.45366,0.00317193,0.0130239,1119,1751,8.02334,-36.0465
-98,-727,8.01379,36.2761,-0.00265809,0.00266057,0.000961945,0.00282921,-0.00282672,1.39726,0.00326545,0.011313,1126,1751,8.01381,-36.2761
-91,-727,7.99158,36.4867,-0.001558,0.00346296,0.00164681,0.0039549,-0.00204994,1.28051,0.00352457,0.0111468,1133,1751,7.9916,-36.4867
-84,-727,7.94873,36.6918,-0.0010381,0.00357933,0.00180587,0.00420171,-0.00166049,1.2389,0.00348893,0.010857,1140,1751,7.94874,-36.6918
-77,-727,7.93396,36.8875,-0.000785382,0.00341572,0.00186014,0.00412096,-0.00149062,1.20841,0.00335639,0.0118281,1147,1751,7.93402,-36.8875
-70,-727,7.9303,37.0782,-0.000684416,0.00305693,0.00167868,0.00369969,-0.00132718,1.20512,0.00300809,0.0125749,1154,1751,7.93035,-37.0782
-63,-727,7.91882,37.274,-0.000911457,0.002755,0.00144849,0.00325819,-0.00141465,1.23645,0.00276696,0.00999791,1161,1751,7.91883,-37.2741
-56,-727,7.89233,37.4514,-0.000886447,0.0020367,0.00110614,0.00240808,-0.00125783,1.24687,0.00215097,0.0106694,1168,1751,7.89237,-37.4514
-49,-727,7.88159,37.6115,-0.000603524,0.000639948,0.000391189,0.000752776,-0.000716352,1.28999,0.000848288,0.0129251,1175,1751,7.88155,-37.6115
-42,-727,7.90381,37.7487,-0.000407212,-0.000346683,4.88615e-05,-0.000319472,-0.000434423,1.06268,0.000259914,0.0147043,1182,1751,7.90379,-37.7486
-35,-727,7.88708,37.859,-0.000293414,-0.000996679,-0.000145043,-0.000264674,-0.00102542,-0.195612,0.000614685,0.0136385,1189,1751,7.88705,-37.8591
-28,-727,7.86621,37.9882,-0.000210751,-0.00123647,-0.000361087,-9.63876e-05,-0.00135084,-0.306724,0.00087021,0.00888885,1196,1751,7.86623,-37.9881
-21,-727,7.87183,38.1273,-0.000135984,-0.00121249,-0.00040666,3.65253e-07,-0.00134884,-0.323512,0.000899349,0.00984488,1203,1751,7.87177,-38.1273
-14,-727,7.87244,38.2438,-1.93015e-05,-0.000913105,-0.000341726,9.63784e-05,-0.00102878,-0.326408,0.000720136,0.0112298,1210,1751,7.87243,-38.2438
-7,-727,7.86462,38.3644,0.000114157,-0.000820847,-0.000361275,0.000237483,-0.000944173,-0.32896,0.000721753,0.0141428,1217,1751,7.86467,-38.3644
0,-727,7.87732,38.4857,0.000226079,-0.000351889,-0.000280645,0.000339927,-0.000465737,-0.38538,0.000467036,0.013975,1224,1751,7.87727,-38.4857
7,-727,7.86719,38.5326,0.00029472,0.000348462,-0.0001177,0.000442319,0.000200863,-0.897626,0.000255731,0.0134184,1231,1751,7.86713,-38.5325
14,-727,7.8606,38.594,0.000382219,0.00128433,0.00018405,0.00132043,0.000346114,1.37708,0.000790588,0.012909,1238,1751,7.86056,-38.594
21,-727,7.84692,38.6749,0.00051011,0.00207711,0.000355132,0.00215384,0.000433383,1.35801,0.00131545,0.0114934,1245,1751,7.84689,-38.6749
28,-727,7.86292,38.7219,0.000564975,0.00278666,0.000516942,0.00290105,0.000450583,1.35302,0.00180271,0.0107513,1252,1751,7.86286,-38.7219
35,-727,7.88171,38.7731,0.000684091,0.00340825,0.000561837,0.00351957,0.000572766,1.37518,0.00218068,0.011491,1259,1751,7.88171,-38.7731
42,-727,7.86316,38.8014,0.000767748,0.00548379,0.00107854,0.00571874,0.000532795,1.3563,0.00364789,0.0123281,1266,1751,7.86315,-38.8014
49,-727,7.85144,38.814,0.000753763,0.00651613,0.00124558,0.00677385,0.000496046,1.36677,0.00435997,0.0109593,1273,1751,7.85148,-38.8139
56,-727,7.84558,38.8798,0.000690066,0.0075078,0.00153918,0.00783917,0.000358687,1.35874,0.00511075,0.00929401,1280,1751,7.84556,-38.8798
63,-727,7.85815,38.8917,0.000527742,0.00935577,0.00130907,0.00954579,0.000337716,1.42664,0.00625433,0.0109019,1287,1751,7.85812,-38.8918
70,-727,7.87939,38.8773,0.000329829,0.0104609,0.00119533,0.0106,0.000190706,1.45493,0.00700397,0.0125793,1294,1751,7.87945,-38.8773
77,-727,7.88538,38.8641,0.000111643,0.0112538,0.00106268,0.0113543,1.11968e-05,1.47655,0.00756579,0.0146985,1301,1751,7.88533,-38.8641
84,-727,7.88708,38.817,-0.000265185,0.0116587,0.000796568,0.0117117,-0.000318164,1.50439,0.00791596,0.0149307,1308,1751,7.88712,-38.817
91,-727,7.8916,38.78,-0.00051149,0.0116384,0.000524723,0.0116611,-0.00053411,1.52772,0.00795805,0.0141606,1315,1751,7.89156,-38.7801
98,-727,7.88818,38.7665,-0.000516626,0.0114261,0.000424384,0.0114411,-0.000531687,1.53532,0.00781069,0.0119027,1322,1751,7.88824,-38.7665
105,-727,7.87573,38.7472,-0.000575497,0.0106744,0.000265808,0.0106807,-0.000581773,1.54719,0.0073221,0.0126067,1329,1751,7.8757,-38.7472
112,-727,7.87988,38.7031,-0.000542664,0.00936957,0.000116937,0.00937095,-0.000544043,1.559,0.00643632,0.0115929,1336,1751,7.87984,-38.7032
119,-727,7.89307,38.6479,-0.00045881,0.00762675,-6.47974e-05,0.00762727,-0.000459329,-1.56278,0.00524466,0.00951638,1343,1751,7.89303,-38.648
126,-727,7.88721,38.5709,-0.000320482,0.00585857,4.46127e-05,0.00585889,-0.000320804,1.56358,0.00401713,0.0107882,1350,1751,7.88726,-38.5709
133,-727,7.87292,38.4778,-0.000155993,0.00409275,0.000194348,0.00410162,-0.000164864,1.52518,0.00279099,0.015094,1357,1751,7.87296,-38.4778
140,-727,7.87122,38.4001,-0.000112312,0.00252478,0.000399409,0.00258395,-0.000171478,1.42373,0.00178254,0.0217585,1364,1751,7.87127,-38.4001
147,-727,7.87524,38.3059,-0.000164173,-5.12356e-05,0.000167429,6.89911e-05,-0.0002844,0.948043,0.000216296,0.0193141,1371,1751,7.87521,-38.3059
154,-727,7.87903,38.1538,-0.000390246,-0.00051889,0.000358452,-9.03905e-05,-0.000818745,0.696621,0.000518334,0.0124599,1378,1751,7.87898,-38.1538
161,-727,7.86572,38.0313,-0.000783594,-0.000754005,0.000336006,-0.000432468,-0.00110513,0.807399,0.000643051,0.00908221,1385,1751,7.86574,-38.0312
168,-727,7.84546,37.9109,-0.00122112,-0.000217446,-1.90865e-05,-0.000217083,-0.00122149,-1.55179,0.000752474,0.0121709,1392,1751,7.84542,-37.9109
175,-727,7.84204,37.7719,-0.00162559,0.000316164,-0.000507233,0.00044068,-0.00175011,-1.33007,0.00133804,0.0183502,1399,1751,7.84202,-37.7718
182,-727,7.85706,37.6296,-0.00189961,0.000895342,-0.000896395,0.00115813,-0.00216239,-1.28563,0.00194611,0.0198705,1406,1751,7.85701,-37.6296
189,-727,7.83472,37.4596,-0.00197402,0.00129911,-0.00127744,0.00173865,-0.00241356,-1.23941,0.00240781,0.0124723,1413,1751,7.83467,-37.4596
196,-727,7.81079,37.3002,-0.00179447,0.00174174,-0.00170802,0.002432,-0.00248472,-1.18674,0.00283872,0.0131984,1420,1751,7.81077,-37.3002
203,-727,7.7771,37.1299,-0.00142858,0.00258022,-0.00178888,0.0032624,-0.00211076,-1.20647,0.00312586,0.0156887,1427,1751,7.77704,-37.1299
210,-727,7.77698,36.9701,-0.00139499,0.00323139,-0.00200628,0.00398023,-0.00214383,-1.21356,0.00358832,0.0156537,1434,1751,7.77701,-36.9701
217,-727,7.75964,36.7782,-0.00132983,0.00335708,-0.00210681,0.00416489,-0.00213763,-1.20466,0.00370098,0.0118154,1441,1751,7.75963,-36.7782
224,-727,7.73657,36.5485,-0.00131249,0.0033013,-0.00219367,0.00417779,-0.00218899,-1.19067,0.00373516,0.011638,1448,1751,7.73657,-36.5485
231,-727,7.72607,36.3496,-0.00139536,0.00304895,-0.00219436,0.0039498,-0.00229621,-1.18124,0.00364802,0.00997026,1455,1751,7.72604,-36.3496
238,-727,7.72974,36.1373,-0.0013231,0.00257952,-0.00210548,0.00349886,-0.00224245,-1.15911,0.0033411,0.0105854,1462,1751,7.72974,-36.1374
245,-727,7.70374,35.9204,-0.000979734,0.00175375,-0.00208249,0.00287794,-0.00210392,-1.0758,0.00288783,0.0101827,1469,1751,7.7037,-35.9204
252,-727,7.67175,35.6908,-0.000652555,0.00118511,-0.00218901,0.0026403,-0.00210775,-0.984105,0.00274703,0.0112654,1476,1751,7.67177,-35.6908
259,-727,7.66882,35.4648,-0.000449905,0.000586879,-0.00220949,0.00233797,-0.002201,-0.900625,0.00262097,0.0146922,1483,1751,7.66877,-35.4649
266,-727,7.66821,35.2811,-0.000132034,7.52651e-06,-0.00233918,0.00227797,-0.00240247,-0.800309,0.00270257,0.019379,1490,1751,7.66822,-35.2812
273,-727,7.70813,35.0592,0.000351076,5.93466e-05,-0.00274257,0.00295165,-0.00254123,-0.75883,0.00317427,0.0359042,1497,1751,7.70816,-35.0592
280,-727,7.43762,34.7961,0,0,0,0,0,0,0,-1,1504,1751,7.43759,-34.7961
287,-727,7.37158,34.4331,0,0,0,0,0,0,0,-1,1511,1751,7.37159,-34.4331
294,-727,7.53931,34.1583,0.00202898,0.00186239,-0.00459997,0.00654642,-0.00265504,-0.776345,0.00546853,0.0497017,1518,1751,7.53928,-34.1583
301,-727,7.61646,33.8151,0.00274478,0.0031027,-0.00529351,0.00822027,-0.00237279,-0.802295,0.006419,0.0496532,1525,1751,7.61651,-33.8151
308,-727,7.39587,33.7448,0,0,0,0,0,0,0,-1,1532,1751,7.39588,-33.7448
315,-727,7.44666,33.358,0,0,0,0,0,0,0,-1,1539,1751,7.44667,-33.358
322,-727,7.59131,32.4875,0,0,0,0,0,0,0,-1,1546,1751,7.59129,-32.4876
329,-727,5.54419,31.0325,0,0,0,0,0,0,0,-1,1553,1751,5.54425,-31.0325
336,-727,5.55823,20.2439,0,0,0,0,0,0,0,-1,1560,1751,5.55829,-20.2438
343,-727,2.41699,8.72095,0,0,0,0,0,0,0,-1,1567,1751,2.41702,-8.72098
350,-727,3.89783,7.50195,0,0,0,0,0,0,0,-1,1574,1751,3.89782,-7.50193
357,-727,4.48462,10.2948,0,0,0,0,0,0,0,-1,1581,1751,4.48464,-10.2948
364,-727,6.96729,17.2365,0,0,0,0,0,0,0,-1,1588,1751,6.96732,-17.2365
371,-727,5.04565,23.2227,0,0,0,0,0,0,0,-1,1595,1751,5.04564,-23.2227
378,-727,4.56726,23.0574,0,0,0,0,0,0,0,-1,1602,1751,4.56727,-23.0574
385,-727,3.52307,22.6431,0,0,0,0,0,0,0,-1,1609,1751,3.52303,-22.643
392,-727,0,0,0,0,0,0,0,0,0,-1,1616,1751,0,0
399,-727,0,0,0,0,0,0,0,0,0,-1,1623,1751,0,0
406,-727,0,0,0,0,0,0,0,0,0,-1,1630,1751,0,0
413,-727,0,0,0,0,0,0,0,0,0,-1,1637,1751,0,0
420,-727,0,0,0,0,0,0,0,0,0,-1,1644,1751,0,0
427,-727,0,0,0,0,0,0,0,0,0,-1,1651,1751,0,0
434,-727,0,0,0,0,0,0,0,0,0,-1,1658,1751,0,0
441,-727,0,0,0,0,0,0,0,0,0,-1,1665,1751,0,0
448,-727,0,0,0,0,0,0,0,0,0,-1,1672,1751,0,0
455,-727,0,0,0,0,0,0,0,0,0,-1,1679,1751,0,0
462,-727,0,0,0,0,0,0,0,0,0,-1,1686,1751,0,0
469,-727,0,0,0,0,0,0,0,0,0,-1,1693,1751,0,0
476,-727,0,0,0,0,0,0,0,0,0,-1,1700,1751,0,0
483,-727,0,0,0,0,0,0,0,0,0,-1,1707,1751,0,0
490,-727,0,0,0,0,0,0,0,0,0,-1,1714,1751,0,0
497,-727,0,0,0,0,0,0,0,0,0,-1,1721,1751,0,0
504,-727,0,0,0,0,0,0,0,0,0,-1,1728,1751,0,0
511,-727,0,0,0,0,0,0,0,0,0,-1,1735,1751,0,0
518,-727,0,0,0,0,0,0,0,0,0,-1,1742,1751,0,0
525,-727,0,0,0,0,0,0,0,0,0,-1,1749,1751,0,0
532,-727,0,0,0,0,0,0,0,0,0,-1,1756,1751,0,0
539,-727,0,0,0,0,0,0,0,0,0,-1,1763,1751,0,0
546,-727,0,0,0,0,0,0,0,0,0,-1,1770,1751,0,0
553,-727,0,0,0,0,0,0,0,0,0,-1,1777,1751,0,0
560,-727,0,0,0,0,0,0,0,0,0,-1,1784,1751,0,0
567,-727,0,0,0,0,0,0,0,0,0,-1,1791,1751,0,0
574,-727,0,0,0,0,0,0,0,0,0,-1,1798,1751,0,0
581,-727,0,0,0,0,0,0,0,0,0,-1,1805,1751,0,0
588,-727,0,0,0,0,0,0,0,0,0,-1,1812,1751,0,0
595,-727,0,0,0,0,0,0,0,0,0,-1,1819,1751,0,0
602,-727,0,0,0,0,0,0,0,0,0,-1,1826,1751,0,0
609,-727,0,0,0,0,0,0,0,0,0,-1,1833,1751,0,0
616,-727,0,0,0,0,0,0,0,0,0,-1,1840,1751,0,0
623,-727,0,0,0,0,0,0,0,0,0,-1,1847,1751,0,0
630,-727,0,0,0,0,0,0,0,0,0,-1,1854,1751,0,0
637,-727,0,0,0,0,0,0,0,0,0,-1,1861,1751,0,0
644,-727,0,0,0,0,0,0,0,0,0,-1,1868,1751,0,0
651,-727,0,0,0,0,0,0,0,0,0,-1,1875,1751,0,0
658,-727,0,0,0,0,0,0,0,0,0,-1,1882,1751,0,0
665,-727,0,0,0,0,0,0,0,0,0,-1,1889,1751,0,0
672,-727,0,0,0,0,0,0,0,0,0,-1,1896,1751,0,0
679,-727,0,0,0,0,0,0,0,0,0,-1,1903,1751,0,0
686,-727,0,0,0,0,0,0,0,0,0,-1,1910,1751,0,0
693,-727,0,0,0,0,0,0,0,0,0,-1,1917,1751,0,0
700,-727,0,0,0,0,0,0,0,0,0,-1,1924,1751,0,0
707,-727,0,0,0,0,0,0,0,0,0,-1,1931,1751,0,0
714,-727,0,0,0,0,0,0,0,0,0,-1,1938,1751,0,0
721,-727,0,0,0,0,0,0,0,0,0,-1,1945,1751,0,0
728,-727,0,0,0,0,0,0,0,0,0,-1,1952,1751,0,0
735,-727,0,0,0,0,0,0,0,0,0,-1,1959,1751,0,0
742,-727,0,0,0,0,0,0,0,0,0,-1,1966,1751,0,0
749,-727,0,0,0,0,0,0,0,0,0,-1,1973,1751,0,0
756,-727,0,0,0,0,0,0,0,0,0,-1,1980,1751,0,0
763,-727,0,0,0,0,0,0,0,0,0,-1,1987,1751,0,0
770,-727,0,0,0,0,0,0,0,0,0,-1,1994,1751,0,0
777,-727,0,0,0,0,0,0,0,0,0,-1,2001,1751,0,0
784,-727,0,0,0,0,0,0,0,0,0,-1,2008,1751,0,0
791,-727,0,0,0,0,0,0,0,0,0,-1,2015,1751,0,0
798,-727,0,0,0,0,0,0,0,0,0,-1,2022,1751,0,0
805,-727,0,0,0,0,0,0,0,0,0,-1,2029,1751,0,0
812,-727,0,0,0,0,0,0,0,0,0,-1,2036,1751,0,0
-700,-734,0,0,0,0,0,0,0,0,0,-1,524,1758,0,0
-693,-734,0,0,0,0,0,0,0,0,0,-1,531,1758,0,0
-686,-734,0,0,0,0,0,0,0,0,0,-1,538,1758,0,0
-679,-734,0,0,0,0,0,0,0,0,0,-1,545,1758,0,0
-672,-734,0,0,0,0,0,0,0,0,0,-1,552,1758,0,0
-665,-734,0,0,0,0,0,0,0,0,0,-1,559,1758,0,0
-658,-734,0,0,0,0,0,0,0,0,0,-1,566,1758,0,0
-651,-734,0,0,0,0,0,0,0,0,0,-1,573,1758,0,0
-644,-734,0,0,0,0,0,0,0,0,0,-1,580,1758,0,0
-637,-734,0,0,0,0,0,0,0,0,0,-1,587,1758,0,0
-630,-734,0,0,0,0,0,0,0,0,0,-1,594,1758,0,0
-623,-734,0,0,0,0,0,0,0,0,0,-1,601,1758,0,0
-616,-734,0,0,0,0,0,0,0,0,0,-1,608,1758,0,0
-609,-734,0,0,0,0,0,0,0,0,0,-1,615,1758,0,0
-602,-734,0,0,0,0,0,0,0,0,0,-1,622,1758,0,0
-595,-734,0,0,0,0,0,0,0,0,0,-1,629,1758,0,0
-588,-734,0,0,0,0,0,0,0,0,0,-1,636,1758,0,0
-581,-734,0,0,0,0,0,0,0,0,0,-1,643,1758,0,0
-574,-734,0,0,0,0,0,0,0,0,0,-1,650,1758,0,0
-567,-734,0,0,0,0,0,0,0,0,0,-1,657,1758,0,0
-560,-734,0,0,0,0,0,0,0,0,0,-1,664,1758,0,0
-553,-734,0,0,0,0,0,0,0,0,0,-1,671,1758,0,0
-546,-734,0,0,0,0,0,0,0,0,0,-1,678,1758,0,0
-539,-734,0,0,0,0,0,0,0,0,0,-1,685,1758,0,0
-532,-734,0,0,0,0,0,0,0,0,0,-1,692,1758,0,0
-525,-734,0,0,0,0,0,0,0,0,0,-1,699,1758,0,0
-518,-734,0,0,0,0,0,0,0,0,0,-1,706,1758,0,0
-511,-734,0,0,0,0,0,0,0,0,0,-1,713,1758,0,0
-504,-734,0,0,0,0,0,0,0,0,0,-1,720,1758,0,0
-497,-734,0,0,0,0,0,0,0,0,0,-1,727,1758,0,0
-490,-734,0,0,0,0,0,0,0,0,0,-1,734,1758,0,0
-483,-734,0,0,0,0,0,0,0,0,0,-1,741,1758,0,0
-476,-734,0,0,0,0,0,0,0,0,0,-1,748,1758,0,0
-469,-734,0,0,0,0,0,0,0,0,0,-1,755,1758,0,0
-462,-734,0,0,0,0,0,0,0,0,0,-1,762,1758,0,0
-455,-734,0,0,0,0,0,0,0,0,0,-1,769,1758,0,0
-448,-734,0,0,0,0,0,0,0,0,0,-1,776,1758,0,0
-441,-734,0,0,0,0,0,0,0,0,0,-1,783,1758,0,0
-434,-734,0,0,0,0,0,0,0,0,0,-1,790,1758,0,0
-427,-734,0,0,0,0,0,0,0,0,0,-1,797,1758,0,0
-420,-734,0,0,0,0,0,0,0,0,0,-1,804,1758,0,0
-413,-734,0,0,0,0,0,0,0,0,0,-1,811,1758,0,0
-406,-734,0,0,0,0,0,0,0,0,0,-1,818,1758,0,0
-399,-734,0,0,0,0,0,0,0,0,0,-1,825,1758,0,0
-392,-734,0,0,0,0,0,0,0,0,0,-1,832,1758,0,0
-385,-734,0,0,0,0,0,0,0,0,0,-1,839,1758,0,0
-378,-734,0,0,0,0,0,0,0,0,0,-1,846,1758,0,0
-371,-734,0,0,0,0,0,0,0,0,0,-1,853,1758,0,0
-364,-734,0,0,0,0,0,0,0,0,0,-1,860,1758,0,0
-357,-734,0,0,0,0,0,0,0,0,0,-1,867,1758,0,0
-350,-734,0,0,0,0,0,0,0,0,0,-1,874,1758,0,0
-343,-734,0,0,0,0,0,0,0,0,0,-1,881,1758,0,0
-336,-734,0,0,0,0,0,0,0,0,0,-1,888,1758,0,0
-329,-734,0,0,0,0,0,0,0,0,0,-1,895,1758,0,0
-322,-734,0,0,0,0,0,0,0,0,0,-1,902,1758,0,0
-315,-734,0,0,0,0,0,0,0,0,0,-1,909,1758,0,0
-308,-734,0,0,0,0,0,0,0,0,0,-1,916,1758,0,0
-301,-734,0,0,0,0,0,0,0,0,0,-1,923,1758,0,0
-294,-734,0,0,0,0,0,0,0,0,0,-1,930,1758,0,0
-287,-734,0,0,0,0,0,0,0,0,0,-1,937,1758,0,0
-280,-734,0,0,0,0,0,0,0,0,0,-1,944,1758,0,0
-273,-734,0,0,0,0,0,0,0,0,0,-1,951,1758,0,0
-266,-734,0,0,0,0,0,0,0,0,0,-1,958,1758,0,0
-259,-734,0,0,0,0,0,0,0,0,0,-1,965,1758,0,0
-252,-734,5.73883,31.5245,0,0,0,0,0,0,0,-1,972,1758,5.73884,-31.5246
-245,-734,6.32513,30.9761,0,0,0,0,0,0,0,-1,979,1758,6.32511,-30.9761
-238,-734,6.82385,30.0449,0.041203,-0.0260086,-0.0563935,0.0732446,-0.0580501,-0.516693,0.075972,0.0463936,986,1758,6.82387,-30.0449
-231,-734,7.1958,29.1666,0.0331653,-0.0343552,-0.0472778,0.0574994,-0.0586892,-0.475341,0.0670827,0.048237,993,1758,7.19578,-29.1666
-224,-734,7.36169,28.5652,0.0265991,-0.0394622,-0.0381657,0.0440426,-0.0569057,-0.428699,0.0584401,0.0479639,1000,1758,7.36172,-28.5651
-217,-734,7.45984,28.4386,0,0,0,0,0,0,0,-1,1007,1758,7.45986,-28.4386
-210,-734,7.45483,28.4388,0,0,0,0,0,0,0,-1,1014,1758,7.45482,-28.4388
-203,-734,7.93079,29.6151,0.01252,-0.0407126,-0.0134416,0.0157216,-0.0439141,-0.233825,0.0356901,0.0493865,1021,1758,7.93076,-29.6151
-196,-734,8.34253,30.8267,0,0,0,0,0,0,0,-1,1028,1758,8.34258,-30.8266
-189,-734,8.72375,32.4082,0.00383073,-0.0345283,-0.0054097,0.00457906,-0.0352766,-0.137457,0.0251833,0.047591,1035,1758,8.7237,-32.4082
-182,-734,9.13208,33.4539,0,0,0,0,0,0,0,-1,1042,1758,9.13203,-33.4539
-175,-734,9.48938,34.4182,0,0,0,0,0,0,0,-1,1049,1758,9.48936,-34.4182
-168,-734,7.47327,33.9916,0,0,0,0,0,0,0,-1,1056,1758,7.47325,-33.9916
-161,-734,9.45959,33.5569,0,0,0,0,0,0,0,-1,1063,1758,9.45965,-33.5569
-154,-734,9.15552,34.3961,0,0,0,0,0,0,0,-1,1070,1758,9.15555,-34.3961
-147,-734,8.81763,34.8975,-0.0130294,-0.00438078,0.00625954,-0.00109709,-0.016313,1.08767,0.0105287,0.044995,1077,1758,8.81757,-34.8975
-140,-734,8.31201,34.7872,-0.0122101,-0.00289556,0.0042866,-0.00122312,-0.0138825,1.19881,0.00887542,0.0487401,1084,1758,8.31196,-34.7872
-133,-734,8.3623,35.0106,-0.0120169,-0.00272304,0.00242609,-0.00212784,-0.0126121,1.33022,0.00779617,0.0454022,1091,1758,8.36236,-35.0106
-126,-734,8.16797,35.2439,-0.00962707,-0.000979849,0.00167956,-0.000665084,-0.00994184,1.38554,0.0064177,0.038344,1098,1758,8.16792,-35.2439
-119,-734,8.27759,35.587,-0.00775502,0.000426653,0.0012038,0.000600097,-0.00792846,1.4277,0.0054966,0.0394376,1105,1758,8.27763,-35.587
-112,-734,8.26294,35.8182,-0.00586027,0.00206397,0.00101265,0.00219133,-0.00598764,1.44568,0.00488874,0.0370235,1112,1758,8.26293,-35.8182
-105,-734,8.21631,36.038,-0.00451952,0.00352379,0.000738982,0.00359112,-0.00458685,1.47993,0.00473321,0.0269242,1119,1758,8.21627,-36.038
-98,-734,8.30322,36.15,-0.00378023,0.00436711,0.00122033,0.00454596,-0.00395909,1.42527,0.00491429,0.0322119,1126,1758,8.30325,-36.1501
-91,-734,8.24768,36.3676,-0.00232452,0.00552912,0.00219537,0.00610114,-0.00289655,1.31591,0.00530351,0.0469313,1133,1758,8.24767,-36.3675
-84,-734,8.13635,36.6711,0,0,0,0,0,0,0,-1,1140,1758,8.13639,-36.6712
-77,-734,8.11121,36.8917,0,0,0,0,0,0,0,-1,1147,1758,8.11121,-36.8917
-70,-734,7.99609,36.7577,0,0,0,0,0,0,0,-1,1154,1758,7.99607,-36.7577
-63,-734,8.0072,37.0289,-0.0018479,0.00371208,0.00198293,0.00434682,-0.00248263,1.261,0.00399165,0.0318454,1161,1758,8.00717,-37.0289
-56,-734,8.04138,37.4193,-0.00193166,0.00244609,0.00148408,0.00290177,-0.00238734,1.27289,0.00305848,0.0165252,1168,1758,8.04144,-37.4193
-49,-734,8.02283,37.6016,-0.00169665,5.25891e-05,0.000187414,7.24434e-05,-0.0017165,1.46525,0.00116923,0.0122133,1175,1758,8.02285,-37.6015
-42,-734,8.00879,37.7708,-0.00177453,-0.00176275,-0.000259622,-0.00150895,-0.00202833,-0.796736,0.00121663,0.0125095,1182,1758,8.00875,-37.7707
-35,-734,7.99976,37.8696,-0.00206497,-0.00288731,-0.000413786,-0.0018928,-0.00305948,-0.394284,0.00178289,0.0133523,1189,1758,7.99977,-37.8697
-28,-734,8.00073,37.9874,-0.00220073,-0.00342347,-0.000613299,-0.00194612,-0.00367807,-0.393485,0.00212474,0.00976112,1196,1758,8.00068,-37.9874
-21,-734,8.03259,38.1165,-0.00221749,-0.00356946,-0.000582851,-0.00200091,-0.00378604,-0.355776,0.00218705,0.0153852,1203,1758,8.03261,-38.1164
-14,-734,7.96899,38.2764,-0.00217706,-0.00330988,-0.000422498,-0.00203684,-0.0034501,-0.320444,0.00200273,0.0155753,1210,1758,7.96899,-38.2764
-7,-734,7.95569,38.3956,-0.0021084,-0.00345654,-0.000374341,-0.00201143,-0.00355351,-0.253468,0.00205758,0.0175154,1217,1758,7.95572,-38.3956
0,-734,7.94678,38.4915,-0.0020406,-0.00309058,-0.000215727,-0.001998,-0.00313318,-0.194939,0.00183166,0.0168027,1224,1758,7.94672,-38.4915
7,-734,7.92554,38.5471,-0.00196787,-0.00233183,3.30186e-06,-0.00196784,-0.00233186,0.00907105,0.00144856,0.0125729,1231,1758,7.92555,-38.5471
14,-734,7.91248,38.62,-0.00183831,-0.00120851,0.000374732,-0.00103393,-0.00201289,1.13483,0.00116228,0.0126829,1238,1758,7.91246,-38.62
21,-734,7.89746,38.6819,-0.00162281,-0.000304561,0.000520863,-0.000123601,-0.00180378,1.23642,0.00116351,0.0111877,1245,1758,7.89741,-38.6818
28,-734,7.90857,38.7273,-0.00159939,0.000455863,0.000627821,0.000632469,-0.001776,1.29658,0.00144183,0.0109201,1252,1758,7.90856,-38.7273
35,-734,7.90576,38.7892,-0.00157261,0.00108951,0.000597543,0.00121748,-0.00170059,1.35982,0.00169243,0.0133381,1259,1758,7.9057,-38.7892
42,-734,7.89771,38.8146,-0.000535695,0.00500159,0.00198481,0.00563953,-0.00117364,1.25981,0.00420585,0.0115561,1266,1758,7.89767,-38.8146
49,-734,7.8783,38.8315,0.00203675,0.00696209,0.00286854,0.00828006,0.000718778,1.14011,0.00529673,0.00992845,1273,1758,7.87826,-38.8315
56,-734,7.85669,38.8839,0.00344291,0.00915646,0.00379278,0.011048,0.00155139,1.10818,0.00690652,0.00929473,1280,1758,7.85665,-38.8839
63,-734,7.86462,38.8896,0.00513697,0.0112166,0.00465955,0.0137402,0.00261333,1.07442,0.00842523,0.0114879,1287,1758,7.86461,-38.8896
70,-734,7.84314,38.8833,0.00704692,0.0131365,0.00554668,0.0164191,0.00376428,1.03641,0.00993203,0.0124139,1294,1758,7.84314,-38.8833
77,-734,7.85095,38.901,0.00878095,0.0145462,0.00640202,0.0186847,0.00464251,0.996938,0.0112334,0.0171627,1301,1758,7.85101,-38.901
84,-734,7.84985,38.8517,0.0101244,0.015348,0.00704979,0.0202542,0.00521815,0.962797,0.0121431,0.0159507,1308,1758,7.84988,-38.8517
91,-734,7.83728,38.8063,0.0110061,0.0154464,0.00747062,0.0210198,0.00543271,0.929835,0.012599,0.0156715,1315,1758,7.83728,-38.8063
98,-734,7.83923,38.7991,0.0113627,0.015111,0.00765488,0.0211178,0.0053559,0.90545,0.0126762,0.0121557,1322,1758,7.83928,-38.799
105,-734,7.84204,38.7675,0.0111202,0.0139282,0.00748805,0.0201427,0.00490567,0.878069,0.0121286,0.0142785,1329,1758,7.842,-38.7675
112,-734,7.84326,38.6953,0.0103036,0.0119882,0.00695923,0.0181559,0.00413591,0.845621,0.0109879,0.0135311,1336,1758,7.8432,-38.6954
119,-734,7.82593,38.616,0.00895604,0.00959628,0.00600037,0.0152851,0.00326725,0.812048,0.0092944,0.0145958,1343,1758,7.82594,-38.616
126,-734,7.81299,38.5365,0.0072159,0.00748909,0.00514316,0.0124975,0.00220752,0.798674,0.00770199,0.0160781,1350,1758,7.81294,-38.5366
133,-734,7.79163,38.4408,0.00553129,0.00564257,0.00416265,0.00974995,0.00142391,0.792082,0.00608116,0.0141087,1357,1758,7.7916,-38.4408
140,-734,7.78101,38.3518,0.00387142,0.00409183,0.00325642,0.00723991,0.000723338,0.802313,0.00460447,0.0183055,1364,1758,7.781,-38.3518
147,-734,7.77515,38.2516,0.00127187,-0.000856833,0.000901951,0.00160264,-0.0011876,0.351496,0.00161688,0.0136894,1371,1758,7.77519,-38.2516
154,-734,7.76953,38.1718,-0.00264112,-0.000801264,0.0001903,-0.000781787,-0.00266059,1.4688,0.00157902,0.00988695,1378,1758,7.76953,-38.1718
161,-734,7.74841,38.0417,-0.00264571,-0.000780153,5.47174e-06,-0.000780137,-0.00264573,1.56786,0.00156978,0.00861609,1385,1758,7.74846,-38.0418
168,-734,7.69519,37.9069,-0.00262875,-0.000572046,-0.000216881,-0.000549425,-0.00265137,-1.46687,0.00161588,0.0139388,1392,1758,7.69521,-37.9069
175,-734,7.70068,37.7844,-0.0025929,4.78843e-05,-0.000738704,0.000240476,-0.00278549,-1.31576,0.00194212,0.0182366,1399,1758,7.70064,-37.7845
182,-734,7.7334,37.6141,-0.00258905,0.000786593,-0.00119009,0.00116397,-0.00296643,-1.26373,0.00245921,0.0166131,1406,1758,7.73338,-37.6142
189,-734,7.68518,37.4495,-0.00239448,0.00140997,-0.0015929,0.00198883,-0.00297334,-1.22223,0.00288364,0.0123199,1413,1758,7.68523,-37.4494
196,-734,7.64343,37.2949,-0.00231924,0.00210919,-0.00221507,0.00302696,-0.00323701,-1.178,0.00361718,0.0140434,1420,1758,7.64345,-37.2949
203,-734,7.66064,37.1045,-0.00243808,0.00328462,-0.00253807,0.00424808,-0.00340153,-1.208,0.00442551,0.0191453,1427,1758,7.66067,-37.1044
210,-734,7.67175,36.9207,-0.00231195,0.00426916,-0.00282006,0.00531225,-0.00335505,-1.21652,0.00504642,0.0282204,1434,1758,7.67171,-36.9207
217,-734,7.61414,36.713,-0.00210438,0.00447087,-0.00292315,0.00558248,-0.00321599,-1.20741,0.00514068,0.031886,1441,1758,7.61418,-36.713
224,-734,7.68445,36.3661,-0.00198913,0.00442701,-0.00298733,0.00560253,-0.00316465,-1.1959,0.00512655,0.0372311,1448,1758,7.6845,-36.3661
231,-734,7.59949,36.2389,-0.00200944,0.00410572,-0.00294397,0.00529264,-0.00319636,-1.18756,0.00495068,0.0311353,1455,1758,7.59945,-36.2388
238,-734,7.4696,36.145,-0.00185196,0.00347009,-0.00280914,0.00467847,-0.00306034,-1.16456,0.00450044,0.0256537,1462,1758,7.46964,-36.145
245,-734,7.48669,35.8842,-0.00133753,0.0023541,-0.00276615,0.00383374,-0.00281716,-1.07961,0.00385482,0.0291137,1469,1758,7.48671,-35.8842
252,-734,7.49756,35.6367,-0.000815084,0.0015395,-0.00288579,0.0034789,-0.00275449,-0.979074,0.00360694,0.0310518,1476,1758,7.4976,-35.6367
259,-734,7.58765,35.4807,-0.000445942,0.000651038,-0.00288178,0.00303606,-0.00283096,-0.879439,0.00338801,0.038031,1483,1758,7.58767,-35.4807
266,-734,7.57434,35.3937,8.90776e-05,-0.000239225,-0.00300747,0.00293687,-0.00308702,-0.758135,0.00347825,0.046696,1490,1758,7.57433,-35.3936
273,-734,7.50549,35.3516,0,0,0,0,0,0,0,-1,1497,1758,7.50553,-35.3515
280,-734,5.95288,32.8356,0,0,0,0,0,0,0,-1,1504,1758,5.95285,-32.8356
287,-734,6.77124,35.8666,0,0,0,0,0,0,0,-1,1511,1758,6.77122,-35.8666
294,-734,7.2627,34.5331,0,0,0,0,0,0,0,-1,1518,1758,7.26264,-34.5331
301,-734,7.75403,33.1997,0,0,0,0,0,0,0,-1,1525,1758,7.75405,-33.1997
308,-734,5.22681,34.1436,0,0,0,0,0,0,0,-1,1532,1758,5.22678,-34.1436
315,-734,7.15259,33.3086,0,0,0,0,0,0,0,-1,1539,1758,7.15253,-33.3086
322,-734,5.74854,28.3324,0,0,0,0,0,0,0,-1,1546,1758,5.74854,-28.3324
329,-734,5.45972,12.4125,0,0,0,0,0,0,0,-1,1553,1758,5.45969,-12.4125
336,-734,5.92188,13.8751,0,0,0,0,0,0,0,-1,1560,1758,5.92183,-13.8751
343,-734,5.54968,5.14221,0,0,0,0,0,0,0,-1,1567,1758,5.54973,-5.14225
350,-734,5.07397,6.73242,0,0,0,0,0,0,0,-1,1574,1758,5.07402,-6.73243
357,-734,5.05542,7.19189,0,0,0,0,0,0,0,-1,1581,1758,5.05541,-7.19184
364,-734,4.43896,10.4904,0,0,0,0,0,0,0,-1,1588,1758,4.43893,-10.4904
371,-734,7.36975,17.4751,0,0,0,0,0,0,0,-1,1595,1758,7.36972,-17.4752
378,-734,0,0,0,0,0,0,0,0,0,-1,1602,1758,0,0
385,-734,0,0,0,0,0,0,0,0,0,-1,1609,1758,0,0
392,-734,0,0,0,0,0,0,0,0,0,-1,1616,1758,0,0
399,-734,0,0,0,0,0,0,0,0,0,-1,1623,1758,0,0
406,-734,0,0,0,0,0,0,0,0,0,-1,1630,1758,0,0
413,-734,0,0,0,0,0,0,0,0,0,-1,1637,1758,0,0
420,-734,0,0,0,0,0,0,0,0,0,-1,1644,1758,0,0
427,-734,0,0,0,0,0,0,0,0,0,-1,1651,1758,0,0
434,-734,0,0,0,0,0,0,0,0,0,-1,1658,1758,0,0
441,-734,0,0,0,0,0,0,0,0,0,-1,1665,1758,0,0
448,-734,0,0,0,0,0,0,0,0,0,-1,1672,1758,0,0
455,-734,0,0,0,0,0,0,0,0,0,-1,1679,1758,0,0
462,-734,0,0,0,0,0,0,0,0,0,-1,1686,1758,0,0
469,-734,0,0,0,0,0,0,0,0,0,-1,1693,1758,0,0
476,-734,0,0,0,0,0,0,0,0,0,-1,1700,1758,0,0
483,-734,0,0,0,0,0,0,0,0,0,-1,1707,1758,0,0
490,-734,0,0,0,0,0,0,0,0,0,-1,1714,1758,0,0
497,-734,0,0,0,0,0,0,0,0,0,-1,1721,1758,0,0
504,-734,0,0,0,0,0,0,0,0,0,-1,1728,1758,0,0
511,-734,0,0,0,0,0,0,0,0,0,-1,1735,1758,0,0
518,-734,0,0,0,0,0,0,0,0,0,-1,1742,1758,0,0
525,-734,0,0,0,0,0,0,0,0,0,-1,1749,1758,0,0
532,-734,0,0,0,0,0,0,0,0,0,-1,1756,1758,0,0
539,-734,0,0,0,0,0,0,0,0,0,-1,1763,1758,0,0
546,-734,0,0,0,0,0,0,0,0,0,-1,1770,1758,0,0
553,-734,0,0,0,0,0,0,0,0,0,-1,1777,1758,0,0
560,-734,0,0,0,0,0,0,0,0,0,-1,1784,1758,0,0
567,-734,0,0,0,0,0,0,0,0,0,-1,1791,1758,0,0
574,-734,0,0,0,0,0,0,0,0,0,-1,1798,1758,0,0
581,-734,0,0,0,0,0,0,0,0,0,-1,1805,1758,0,0
588,-734,0,0,0,0,0,0,0,0,0,-1,1812,1758,0,0
595,-734,0,0,0,0,0,0,0,0,0,-1,1819,1758,0,0
602,-734,0,0,0,0,0,0,0,0,0,-1,1826,1758,0,0
609,-734,0,0,0,0,0,0,0,0,0,-1,1833,1758,0,0
616,-734,0,0,0,0,0,0,0,0,0,-1,1840,1758,0,0
623,-734,0,0,0,0,0,0,0,0,0,-1,1847,1758,0,0
630,-734,0,0,0,0,0,0,0,0,0,-1,1854,1758,0,0
637,-734,0,0,0,0,0,0,0,0,0,-1,1861,1758,0,0
644,-734,0,0,0,0,0,0,0,0,0,-1,1868,1758,0,0
651,-734,0,0,0,0,0,0,0,0,0,-1,1875,1758,0,0
658,-734,0,0,0,0,0,0,0,0,0,-1,1882,1758,0,0
665,-734,0,0,0,0,0,0,0,0,0,-1,1889,1758,0,0
672,-734,0,0,0,0,0,0,0,0,0,-1,1896,1758,0,0
679,-734,0,0,0,0,0,0,0,0,0,-1,1903,1758,0,0
686,-734,0,0,0,0,0,0,0,0,0,-1,1910,1758,0,0
693,-734,0,0,0,0,0,0,0,0,0,-1,1917,1758,0,0
700,-734,0,0,0,0,0,0,0,0,0,-1,1924,1758,0,0
707,-734,0,0,0,0,0,0,0,0,0,-1,1931,1758,0,0
714,-734,0,0,0,0,0,0,0,0,0,-1,1938,1758,0,0
721,-734,0,0,0,0,0,0,0,0,0,-1,1945,1758,0,0
728,-734,0,0,0,0,0,0,0,0,0,-1,1952,1758,0,0
735,-734,0,0,0,0,0,0,0,0,0,-1,1959,1758,0,0
742,-734,0,0,0,0,0,0,0,0,0,-1,1966,1758,0,0
749,-734,0,0,0,0,0,0,0,0,0,-1,1973,1758,0,0
756,-734,0,0,0,0,0,0,0,0,0,-1,1980,1758,0,0
763,-734,0,0,0,0,0,0,0,0,0,-1,1987,1758,0,0
770,-734,0,0,0,0,0,0,0,0,0,-1,1994,1758,0,0
777,-734,0,0,0,0,0,0,0,0,0,-1,2001,1758,0,0
784,-734,0,0,0,0,0,0,0,0,0,-1,2008,1758,0,0
791,-734,0,0,0,0,0,0,0,0,0,-1,2015,1758,0,0
798,-734,0,0,0,0,0,0,0,0,0,-1,2022,1758,0,0
805,-734,0,0,0,0,0,0,0,0,0,-1,2029,1758,0,0
812,-734,0,0,0,0,0,0,0,0,0,-1,2036,1758,0,0
-700,-741,0,0,0,0,0,0,0,0,0,-1,524,1765,0,0
-693,-741,0,0,0,0,0,0,0,0,0,-1,531,1765,0,0
-686,-741,0,0,0,0,0,0,0,0,0,-1,538,1765,0,0
-679,-741,0,0,0,0,0,0,0,0,0,-1,545,1765,0,0
-672,-741,0,0,0,0,0,0,0,0,0,-1,552,1765,0,0
-665,-741,0,0,0,0,0,0,0,0,0,-1,559,1765,0,0
-658,-741,0,0,0,0,0,0,0,0,0,-1,566,1765,0,0
-651,-741,0,0,0,0,0,0,0,0,0,-1,573,1765,0,0
-644,-741,0,0,0,0,0,0,0,0,0,-1,580,1765,0,0
-637,-741,0,0,0,0,0,0,0,0,0,-1,587,1765,0,0
-630,-741,0,0,0,0,0,0,0,0,0,-1,594,1765,0,0
-623,-741,0,0,0,0,0,0,0,0,0,-1,601,1765,0,0
-616,-741,0,0,0,0,0,0,0,0,0,-1,608,1765,0,0
-609,-741,0,0,0,0,0,0,0,0,0,-1,615,1765,0,0
-602,-741,0,0,0,0,0,0,0,0,0,-1,622,1765,0,0
-595,-741,0,0,0,0,0,0,0,0,0,-1,629,1765,0,0
-588,-741,0,0,0,0,0,0,0,0,0,-1,636,1765,0,0
-581,-741,0,0,0,0,0,0,0,0,0,-1,643,1765,0,0
-574,-741,0,0,0,0,0,0,0,0,0,-1,650,1765,0,0
-567,-741,0,0,0,0,0,0,0,0,0,-1,657,1765,0,0
-560,-741,0,0,0,0,0,0,0,0,0,-1,664,1765,0,0
-553,-741,0,0,0,0,0,0,0,0,0,-1,671,1765,0,0
-546,-741,0,0,0,0,0,0,0,0,0,-1,678,1765,0,0
-539,-741,0,0,0,0,0,0,0,0,0,-1,685,1765,0,0
-532,-741,0,0,0,0,0,0,0,0,0,-1,692,1765,0,0
-525,-741,0,0,0,0,0,0,0,0,0,-1,699,1765,0,0
-518,-741,0,0,0,0,0,0,0,0,0,-1,706,1765,0,0
-511,-741,0,0,0,0,0,0,0,0,0,-1,713,1765,0,0
-504,-741,0,0,0,0,0,0,0,0,0,-1,720,1765,0,0
-497,-741,0,0,0,0,0,0,0,0,0,-1,727,1765,0,0
-490,-741,0,0,0,0,0,0,0,0,0,-1,734,1765,0,0
-483,-741,0,0,0,0,0,0,0,0,0,-1,741,1765,0,0
-476,-741,0,0,0,0,0,0,0,0,0,-1,748,1765,0,0
-469,-741,0,0,0,0,0,0,0,0,0,-1,755,1765,0,0
-462,-741,0,0,0,0,0,0,0,0,0,-1,762,1765,0,0
-455,-741,0,0,0,0,0,0,0,0,0,-1,769,1765,0,0
-448,-741,0,0,0,0,0,0,0,0,0,-1,776,1765,0,0
-441,-741,0,0,0,0,0,0,0,0,0,-1,783,1765,0,0
-434,-741,0,0,0,0,0,0,0,0,0,-1,790,1765,0,0
-427,-741,0,0,0,0,0,0,0,0,0,-1,797,1765,0,0
-420,-741,0,0,0,0,0,0,0,0,0,-1,804,1765,0,0
-413,-741,0,0,0,0,0,0,0,0,0,-1,811,1765,0,0
-406,-741,0,0,0,0,0,0,0,0,0,-1,818,1765,0,0
-399,-741,0,0,0,0,0,0,0,0,0,-1,825,1765,0,0
-392,-741,0,0,0,0,0,0,0,0,0,-1,832,1765,0,0
-385,-741,0,0,0,0,0,0,0,0,0,-1,839,1765,0,0
-378,-741,0,0,0,0,0,0,0,0,0,-1,846,1765,0,0
-371,-741,0,0,0,0,0,0,0,0,0,-1,853,1765,0,0
-364,-741,0,0,0,0,0,0,0,0,0,-1,860,1765,0,0
-357,-741,0,0,0,0,0,0,0,0,0,-1,867,1765,0,0
-350,-741,0,0,0,0,0,0,0,0,0,-1,874,1765,0,0
-343,-741,0,0,0,0,0,0,0,0,0,-1,881,1765,0,0
-336,-741,0,0,0,0,0,0,0,0,0,-1,888,1765,0,0
-329,-741,0,0,0,0,0,0,0,0,0,-1,895,1765,0,0
-322,-741,0,0,0,0,0,0,0,0,0,-1,902,1765,0,0
-315,-741,0,0,0,0,0,0,0,0,0,-1,909,1765,0,0
-308,-741,0,0,0,0,0,0,0,0,0,-1,916,1765,0,0
-301,-741,0,0,0,0,0,0,0,0,0,-1,923,1765,0,0
-294,-741,0,0,0,0,0,0,0,0,0,-1,930,1765,0,0
-287,-741,0,0,0,0,0,0,0,0,0,-1,937,1765,0,0
-280,-741,0,0,0,0,0,0,0,0,0,-1,944,1765,0,0
-273,-741,0,0,0,0,0,0,0,0,0,-1,951,1765,0,0
-266,-741,0,0,0,0,0,0,0,0,0,-1,958,1765,0,0
-259,-741,0,0,0,0,0,0,0,0,0,-1,965,1765,0,0
-252,-741,0,0,0,0,0,0,0,0,0,-1,972,1765,0,0
-245,-741,0,0,0,0,0,0,0,0,0,-1,979,1765,0,0
-238,-741,7.13855,29.8348,0.0501441,-0.0264753,-0.0783269,0.0990281,-0.0753593,-0.557953,0.100991,0.0439199,986,1765,7.13856,-29.8348
-231,-741,7.74182,29.3066,0.0392644,-0.0398075,-0.0613092,0.0726798,-0.0732229,-0.499021,0.0842372,0.0452859,993,1765,7.74183,-29.3066
-224,-741,7.80078,29.0964,0.0303349,-0.0476043,-0.0472621,0.0526216,-0.069891,-0.440635,0.0709665,0.0448728,1000,1765,7.80079,-29.0964
-217,-741,8.15863,29.113,0.0229104,-0.0515257,-0.0349597,0.0367547,-0.06537,-0.37706,0.0597283,0.0410018,1007,1765,8.15863,-29.1131
-210,-741,8.37024,29.3896,0.0166882,-0.0520017,-0.0243974,0.0244717,-0.0597852,-0.308824,0.0500497,0.042195,1014,1765,8.37022,-29.3896
-203,-741,8.33801,29.8871,0.0119875,-0.0502454,-0.0159927,0.0158567,-0.0541147,-0.237377,0.0423631,0.0469675,1021,1765,8.33805,-29.8871
-196,-741,8.75513,30.84,0,0,0,0,0,0,0,-1,1028,1765,8.75516,-30.8399
-189,-741,9.16321,31.9888,0,0,0,0,0,0,0,-1,1035,1765,9.16327,-31.9888
-182,-741,9.71594,33.2998,0,0,0,0,0,0,0,-1,1042,1765,9.71593,-33.2998
-175,-741,7.26477,24.616,0,0,0,0,0,0,0,-1,1049,1765,7.26471,-24.616
-168,-741,5.4801,16.3933,0,0,0,0,0,0,0,-1,1056,1765,5.4801,-16.3933
-161,-741,3.73047,14.4974,0,0,0,0,0,0,0,-1,1063,1765,3.73043,-14.4974
-154,-741,9.73071,35.2222,0,0,0,0,0,0,0,-1,1070,1765,9.7307,-35.2221
-147,-741,9.26465,35.5392,0,0,0,0,0,0,0,-1,1077,1765,9.2647,-35.5392
-140,-741,8.54272,34.9917,0,0,0,0,0,0,0,-1,1084,1765,8.54274,-34.9917
-133,-741,8.66821,35.2168,0,0,0,0,0,0,0,-1,1091,1765,8.66822,-35.2168
-126,-741,8.31836,35.3254,0,0,0,0,0,0,0,-1,1098,1765,8.31831,-35.3255
-119,-741,8.52832,35.6704,0,0,0,0,0,0,0,-1,1105,1765,8.52828,-35.6704
-112,-741,8.47925,35.8344,0,0,0,0,0,0,0,-1,1112,1765,8.4793,-35.8343
-105,-741,8.44336,35.9783,0,0,0,0,0,0,0,-1,1119,1765,8.44341,-35.9782
-98,-741,8.58679,36.0819,0,0,0,0,0,0,0,-1,1126,1765,8.58679,-36.0819
-91,-741,8.3678,36.2534,0,0,0,0,0,0,0,-1,1133,1765,8.3678,-36.2535
-84,-741,7.8877,35.0892,0,0,0,0,0,0,0,-1,1140,1765,7.88776,-35.0892
-77,-741,7.73303,34.1174,0,0,0,0,0,0,0,-1,1147,1765,7.73304,-34.1174
-70,-741,7.5437,32.0275,0,0,0,0,0,0,0,-1,1154,1765,7.5437,-32.0275
-63,-741,7.95361,36.6239,0,0,0,0,0,0,0,-1,1161,1765,7.95363,-36.6239
-56,-741,8.22339,37.3286,0,0,0,0,0,0,0,-1,1168,1765,8.22341,-37.3286
-49,-741,8.18701,37.579,0,0,0,0,0,0,0,-1,1175,1765,8.187,-37.579
-42,-741,8.11353,37.7942,0,0,0,0,0,0,0,-1,1182,1765,8.11354,-37.7942
-35,-741,8.11975,37.8685,-0.0048472,-0.00545951,-0.000233532,-0.0047683,-0.00553841,-0.325818,0.00346422,0.0241783,1189,1765,8.11977,-37.8685
-28,-741,8.13818,38.0005,-0.00509029,-0.00614124,-0.000470013,-0.00491075,-0.00632077,-0.364871,0.00383133,0.0139792,1196,1765,8.13819,-38.0005
-21,-741,8.13794,38.121,-0.00508722,-0.00624553,-0.000447716,-0.00493434,-0.00639841,-0.329044,0.003871,0.0181963,1203,1765,8.13789,-38.121
-14,-741,8.0675,38.2567,-0.00500734,-0.00598997,-0.000344933,-0.00489834,-0.00609896,-0.306053,0.00373073,0.0189234,1210,1765,8.06756,-38.2567
-7,-741,8.06116,38.3545,-0.00490834,-0.00630009,-0.000338482,-0.00483039,-0.00637805,-0.226359,0.00384151,0.0160582,1217,1765,8.06121,-38.3545
0,-741,8.02283,38.4448,-0.00484686,-0.00600226,-0.000212488,-0.00480902,-0.0060401,-0.176229,0.00368556,0.0155364,1224,1765,8.02279,-38.4448
7,-741,7.97876,38.5062,-0.00476338,-0.00520008,-4.99413e-05,-0.00475774,-0.00520572,-0.112427,0.00333121,0.0169157,1231,1765,7.9788,-38.5063
14,-741,7.98145,38.5873,-0.00462816,-0.00389668,0.000302727,-0.00378765,-0.00473719,1.22509,0.00289401,0.0156937,1238,1765,7.98142,-38.5872
21,-741,7.96423,38.66,-0.00436722,-0.00285535,0.000360728,-0.00277369,-0.00444888,1.34818,0.00259453,0.0120539,1245,1765,7.96419,-38.66
28,-741,7.94238,38.7378,-0.00448056,-0.00207384,0.000374967,-0.00201677,-0.00453762,1.41976,0.00262518,0.0123413,1252,1765,7.94239,-38.7378
35,-741,7.93701,38.7825,-0.00470405,-0.00149592,0.000261908,-0.00147468,-0.00472529,1.48987,0.00279163,0.0133067,1259,1765,7.93702,-38.7825
42,-741,7.93164,38.8114,-0.00349207,0.00378791,0.00222661,0.00441493,-0.00411908,1.2963,0.0049281,0.0133593,1266,1765,7.93159,-38.8113
49,-741,7.91187,38.8365,0.000189304,0.00648398,0.00358321,0.00810583,-0.00143254,1.14576,0.00593927,0.00981915,1273,1765,7.9119,-38.8366
56,-741,7.86902,38.8621,0.00199694,0.00944639,0.00493582,0.0119052,-0.000461852,1.10863,0.00809513,0.0101337,1280,1765,7.86907,-38.862
63,-741,7.85034,38.8724,0.00424531,0.0122441,0.00626096,0.015674,0.000815392,1.06962,0.0101884,0.0141724,1287,1765,7.85034,-38.8724
70,-741,7.82996,38.8917,0.0068125,0.0148294,0.00764977,0.0194573,0.00218459,1.02673,0.0123081,0.0165112,1294,1765,7.82994,-38.8917
77,-741,7.81506,38.9033,0.00931949,0.0169696,0.00907688,0.0229944,0.00329463,0.984809,0.014358,0.0137519,1301,1765,7.815,-38.9033
84,-741,7.81213,38.8801,0.011417,0.0183606,0.0102328,0.0256945,0.00408313,0.948946,0.0159439,0.0155376,1308,1765,7.81211,-38.8801
91,-741,7.80115,38.8453,0.0129973,0.0189176,0.0110917,0.0274373,0.00447759,0.9158,0.0169968,0.0126873,1315,1765,7.8012,-38.8454
98,-741,7.79382,38.7855,0.0139406,0.01891,0.0115444,0.0282341,0.00461653,0.891397,0.0174882,0.00980853,1322,1765,7.79381,-38.7855
105,-741,7.79578,38.731,0.0140819,0.0176421,0.0114246,0.0274244,0.00429957,0.862683,0.0170316,0.0104786,1329,1765,7.79582,-38.731
112,-741,7.80872,38.6613,0.0133217,0.0152224,0.0107223,0.0250364,0.00350772,0.829601,0.0156533,0.0112828,1336,1765,7.80877,-38.6612
119,-741,7.76221,38.5747,0.0116912,0.0120556,0.00929363,0.0211688,0.00257799,0.795198,0.0133365,0.0142042,1343,1765,7.76216,-38.5747
126,-741,7.73083,38.4802,0.00922241,0.00915891,0.00789663,0.0170873,0.00129397,0.783388,0.0109857,0.0176553,1350,1765,7.73089,-38.4803
133,-741,7.72266,38.3955,0.00703513,0.00677757,0.00636033,0.013268,0.000544722,0.775276,0.00866945,0.0136062,1357,1765,7.72264,-38.3956
140,-741,7.68103,38.3369,0.00482918,0.00477228,0.00493658,0.00973739,-0.000135934,0.782517,0.00653738,0.0107132,1364,1765,7.68107,-38.3369
147,-741,7.67163,38.2504,0.00077869,-0.00311587,0.000999325,0.00102014,-0.00335732,0.237072,0.00264468,0.0105479,1371,1765,7.67165,-38.2504
154,-741,7.66077,38.1738,-0.0061007,-0.0029094,-0.000196427,-0.00289735,-0.00611274,-1.50955,0.00353079,0.00914372,1378,1765,7.66076,-38.1739
161,-741,7.63611,38.0529,-0.00549138,-0.00245984,-0.000322538,-0.00242591,-0.00552532,-1.46597,0.00319793,0.0104479,1385,1765,7.63606,-38.0529
168,-741,7.61328,37.9189,-0.00483015,-0.00165453,-0.000447664,-0.00159263,-0.00489205,-1.43339,0.00288116,0.0251774,1392,1765,7.61326,-37.9189
175,-741,7.53125,37.7908,0,0,0,0,0,0,0,-1,1399,1765,7.5313,-37.7908
182,-741,7.58655,37.6025,0,0,0,0,0,0,0,-1,1406,1765,7.5865,-37.6026
189,-741,7.5116,37.4594,0,0,0,0,0,0,0,-1,1413,1765,7.51161,-37.4594
196,-741,7.47144,37.2991,0,0,0,0,0,0,0,-1,1420,1765,7.47149,-37.2991
203,-741,7.49133,37.0387,0,0,0,0,0,0,0,-1,1427,1765,7.49133,-37.0387
210,-741,7.46533,36.698,0,0,0,0,0,0,0,-1,1434,1765,7.46534,-36.698
217,-741,7.73962,36.4379,0,0,0,0,0,0,0,-1,1441,1765,7.73965,-36.4379
224,-741,7.84253,35.9155,0,0,0,0,0,0,0,-1,1448,1765,7.84254,-35.9155
231,-741,7.45984,36.0808,0,0,0,0,0,0,0,-1,1455,1765,7.45988,-36.0808
238,-741,7.20508,36.1344,0,0,0,0,0,0,0,-1,1462,1765,7.20508,-36.1344
245,-741,7.25427,35.7892,0,0,0,0,0,0,0,-1,1469,1765,7.25422,-35.7891
252,-741,7.61328,35.3558,0,0,0,0,0,0,0,-1,1476,1765,7.6133,-35.3559
259,-741,7.53796,35.5199,0,0,0,0,0,0,0,-1,1483,1765,7.53796,-35.5199
266,-741,7.46265,35.684,0,0,0,0,0,0,0,-1,1490,1765,7.46262,-35.684
273,-741,7.03821,33.8081,0,0,0,0,0,0,0,-1,1497,1765,7.0382,-33.8081
280,-741,16.2363,9.84546,0,0,0,0,0,0,0,-1,1504,1765,16.2363,-9.84547
287,-741,6.86572,34.726,0,0,0,0,0,0,0,-1,1511,1765,6.86572,-34.726
294,-741,6.88074,34.7733,0,0,0,0,0,0,0,-1,1518,1765,6.88076,-34.7733
301,-741,6.42542,31.2136,0,0,0,0,0,0,0,-1,1525,1765,6.42541,-31.2136
308,-741,6.27148,29.2661,0,0,0,0,0,0,0,-1,1532,1765,6.27154,-29.2661
315,-741,4.604,30.1898,0,0,0,0,0,0,0,-1,1539,1765,4.604,-30.1898
322,-741,9.21252,8.54858,0,0,0,0,0,0,0,-1,1546,1765,9.21251,-8.54858
329,-741,8.5603,10.1146,0,0,0,0,0,0,0,-1,1553,1765,8.56033,-10.1146
336,-741,4.74475,14.6453,0,0,0,0,0,0,0,-1,1560,1765,4.7447,-14.6452
343,-741,5.42297,5.93701,0,0,0,0,0,0,0,-1,1567,1765,5.42296,-5.937
350,-741,4.90369,5.44666,0,0,0,0,0,0,0,-1,1574,1765,4.90368,-5.44664
357,-741,4.02063,5.16626,0,0,0,0,0,0,0,-1,1581,1765,4.02058,-5.1662
364,-741,0,0,0,0,0,0,0,0,0,-1,1588,1765,0,0
371,-741,0,0,0,0,0,0,0,0,0,-1,1595,1765,0,0
378,-741,0,0,0,0,0,0,0,0,0,-1,1602,1765,0,0
385,-741,0,0,0,0,0,0,0,0,0,-1,1609,1765,0,0
392,-741,0,0,0,0,0,0,0,0,0,-1,1616,1765,0,0
399,-741,0,0,0,0,0,0,0,0,0,-1,1623,1765,0,0
406,-741,0,0,0,0,0,0,0,0,0,-1,1630,1765,0,0
413,-741,0,0,0,0,0,0,0,0,0,-1,1637,1765,0,0
420,-741,0,0,0,0,0,0,0,0,0,-1,1644,1765,0,0
427,-741,0,0,0,0,0,0,0,0,0,-1,1651,1765,0,0
434,-741,0,0,0,0,0,0,0,0,0,-1,1658,1765,0,0
441,-741,0,0,0,0,0,0,0,0,0,-1,1665,1765,0,0
448,-741,0,0,0,0,0,0,0,0,0,-1,1672,1765,0,0
455,-741,0,0,0,0,0,0,0,0,0,-1,1679,1765,0,0
462,-741,0,0,0,0,0,0,0,0,0,-1,1686,1765,0,0
469,-741,0,0,0,0,0,0,0,0,0,-1,1693,1765,0,0
476,-741,0,0,0,0,0,0,0,0,0,-1,1700,1765,0,0
483,-741,0,0,0,0,0,0,0,0,0,-1,1707,1765,0,0
490,-741,0,0,0,0,0,0,0,0,0,-1,1714,1765,0,0
497,-741,0,0,0,0,0,0,0,0,0,-1,1721,1765,0,0
504,-741,0,0,0,0,0,0,0,0,0,-1,1728,1765,0,0
511,-741,0,0,0,0,0,0,0,0,0,-1,1735,1765,0,0
518,-741,0,0,0,0,0,0,0,0,0,-1,1742,1765,0,0
525,-741,0,0,0,0,0,0,0,0,0,-1,1749,1765,0,0
532,-741,0,0,0,0,0,0,0,0,0,-1,1756,1765,0,0
539,-741,0,0,0,0,0,0,0,0,0,-1,1763,1765,0,0
546,-741,0,0,0,0,0,0,0,0,0,-1,1770,1765,0,0
553,-741,0,0,0,0,0,0,0,0,0,-1,1777,1765,0,0
560,-741,0,0,0,0,0,0,0,0,0,-1,1784,1765,0,0
567,-741,0,0,0,0,0,0,0,0,0,-1,1791,1765,0,0
574,-741,0,0,0,0,0,0,0,0,0,-1,1798,1765,0,0
581,-741,0,0,0,0,0,0,0,0,0,-1,1805,1765,0,0
588,-741,0,0,0,0,0,0,0,0,0,-1,1812,1765,0,0
595,-741,0,0,0,0,0,0,0,0,0,-1,1819,1765,0,0
602,-741,0,0,0,0,0,0,0,0,0,-1,1826,1765,0,0
609,-741,0,0,0,0,0,0,0,0,0,-1,1833,1765,0,0
616,-741,0,0,0,0,0,0,0,0,0,-1,1840,1765,0,0
623,-741,0,0,0,0,0,0,0,0,0,-1,1847,1765,0,0
630,-741,0,0,0,0,0,0,0,0,0,-1,1854,1765,0,0
637,-741,0,0,0,0,0,0,0,0,0,-1,1861,1765,0,0
644,-741,0,0,0,0,0,0,0,0,0,-1,1868,1765,0,0
651,-741,0,0,0,0,0,0,0,0,0,-1,1875,1765,0,0
658,-741,0,0,0,0,0,0,0,0,0,-1,1882,1765,0,0
665,-741,0,0,0,0,0,0,0,0,0,-1,1889,1765,0,0
672,-741,0,0,0,0,0,0,0,0,0,-1,1896,1765,0,0
679,-741,0,0,0,0,0,0,0,0,0,-1,1903,1765,0,0
686,-741,0,0,0,0,0,0,0,0,0,-1,1910,1765,0,0
693,-741,0,0,0,0,0,0,0,0,0,-1,1917,1765,0,0
700,-741,0,0,0,0,0,0,0,0,0,-1,1924,1765,0,0
707,-741,0,0,0,0,0,0,0,0,0,-1,1931,1765,0,0
714,-741,0,0,0,0,0,0,0,0,0,-1,1938,1765,0,0
721,-741,0,0,0,0,0,0,0,0,0,-1,1945,1765,0,0
728,-741,0,0,0,0,0,0,0,0,0,-1,1952,1765,0,0
735,-741,0,0,0,0,0,0,0,0,0,-1,1959,1765,0,0
742,-741,0,0,0,0,0,0,0,0,0,-1,1966,1765,0,0
749,-741,0,0,0,0,0,0,0,0,0,-1,1973,1765,0,0
756,-741,0,0,0,0,0,0,0,0,0,-1,1980,1765,0,0
763,-741,0,0,0,0,0,0,0,0,0,-1,1987,1765,0,0
770,-741,0,0,0,0,0,0,0,0,0,-1,1994,1765,0,0
777,-741,0,0,0,0,0,0,0,0,0,-1,2001,1765,0,0
784,-741,0,0,0,0,0,0,0,0,0,-1,2008,1765,0,0
791,-741,0,0,0,0,0,0,0,0,0,-1,2015,1765,0,0
798,-741,0,0,0,0,0,0,0,0,0,-1,2022,1765,0,0
805,-741,0,0,0,0,0,0,0,0,0,-1,2029,1765,0,0
812,-741,0,0,0,0,0,0,0,0,0,-1,2036,1765,0,0
-700,-748,0,0,0,0,0,0,0,0,0,-1,524,1772,0,0
-693,-748,0,0,0,0,0,0,0,0,0,-1,531,1772,0,0
-686,-748,0,0,0,0,0,0,0,0,0,-1,538,1772,0,0
-679,-748,0,0,0,0,0,0,0,0,0,-1,545,1772,0,0
-672,-748,0,0,0,0,0,0,0,0,0,-1,552,1772,0,0
-665,-748,0,0,0,0,0,0,0,0,0,-1,559,1772,0,0
-658,-748,0,0,0,0,0,0,0,0,0,-1,566,1772,0,0
-651,-748,0,0,0,0,0,0,0,0,0,-1,573,1772,0,0
-644,-748,0,0,0,0,0,0,0,0,0,-1,580,1772,0,0
-637,-748,0,0,0,0,0,0,0,0,0,-1,587,1772,0,0
-630,-748,0,0,0,0,0,0,0,0,0,-1,594,1772,0,0
-623,-748,0,0,0,0,0,0,0,0,0,-1,601,1772,0,0
-616,-748,0,0,0,0,0,0,0,0,0,-1,608,1772,0,0
-609,-748,0,0,0,0,0,0,0,0,0,-1,615,1772,0,0
-602,-748,0,0,0,0,0,0,0,0,0,-1,622,1772,0,0
-595,-748,0,0,0,0,0,0,0,0,0,-1,629,1772,0,0
-588,-748,0,0,0,0,0,0,0,0,0,-1,636,1772,0,0
-581,-748,0,0,0,0,0,0,0,0,0,-1,643,1772,0,0
-574,-748,0,0,0,0,0,0,0,0,0,-1,650,1772,0,0
-567,-748,0,0,0,0,0,0,0,0,0,-1,657,1772,0,0
-560,-748,0,0,0,0,0,0,0,0,0,-1,664,1772,0,0
-553,-748,0,0,0,0,0,0,0,0,0,-1,671,1772,0,0
-546,-748,0,0,0,0,0,0,0,0,0,-1,678,1772,0,0
-539,-748,0,0,0,0,0,0,0,0,0,-1,685,1772,0,0
-532,-748,0,0,0,0,0,0,0,0,0,-1,692,1772,0,0
-525,-748,0,0,0,0,0,0,0,0,0,-1,699,1772,0,0
-518,-748,0,0,0,0,0,0,0,0,0,-1,706,1772,0,0
-511,-748,0,0,0,0,0,0,0,0,0,-1,713,1772,0,0
-504,-748,0,0,0,0,0,0,0,0,0,-1,720,1772,0,0
-497,-748,0,0,0,0,0,0,0,0,0,-1,727,1772,0,0
-490,-748,0,0,0,0,0,0,0,0,0,-1,734,1772,0,0
-483,-748,0,0,0,0,0,0,0,0,0,-1,741,1772,0,0
-476,-748,0,0,0,0,0,0,0,0,0,-1,748,1772,0,0
-469,-748,0,0,0,0,0,0,0,0,0,-1,755,1772,0,0
-462,-748,0,0,0,0,0,0,0,0,0,-1,762,1772,0,0
-455,-748,0,0,0,0,0,0,0,0,0,-1,769,1772,0,0
-448,-748,0,0,0,0,0,0,0,0,0,-1,776,1772,0,0
-441,-748,0,0,0,0,0,0,0,0,0,-1,783,1772,0,0
-434,-748,0,0,0,0,0,0,0,0,0,-1,790,1772,0,0
-427,-748,0,0,0,0,0,0,0,0,0,-1,797,1772,0,0
-420,-748,0,0,0,0,0,0,0,0,0,-1,804,1772,0,0
-413,-748,0,0,0,0,0,0,0,0,0,-1,811,1772,0,0
-406,-748,0,0,0,0,0,0,0,0,0,-1,818,1772,0,0
-399,-748,0,0,0,0,0,0,0,0,0,-1,825,1772,0,0
-392,-748,0,0,0,0,0,0,0,0,0,-1,832,1772,0,0
-385,-748,0,0,0,0,0,0,0,0,0,-1,839,1772,0,0
-378,-748,0,0,0,0,0,0,0,0,0,-1,846,1772,0,0
-371,-748,0,0,0,0,0,0,0,0,0,-1,853,1772,0,0
-364,-748,0,0,0,0,0,0,0,0,0,-1,860,1772,0,0
-357,-748,0,0,0,0,0,0,0,0,0,-1,867,1772,0,0
-350,-748,0,0,0,0,0,0,0,0,0,-1,874,1772,0,0
-343,-748,0,0,0,0,0,0,0,0,0,-1,881,1772,0,0
-336,-748,0,0,0,0,0,0,0,0,0,-1,888,1772,0,0
-329,-748,0,0,0,0,0,0,0,0,0,-1,895,1772,0,0
-322,-748,0,0,0,0,0,0,0,0,0,-1,902,1772,0,0
-315,-748,0,0,0,0,0,0,0,0,0,-1,909,1772,0,0
-308,-748,0,0,0,0,0,0,0,0,0,-1,916,1772,0,0
-301,-748,0,0,0,0,0,0,0,0,0,-1,923,1772,0,0
-294,-748,0,0,0,0,0,0,0,0,0,-1,930,1772,0,0
-287,-748,0,0,0,0,0,0,0,0,0,-1,937,1772,0,0
-280,-748,0,0,0,0,0,0,0,0,0,-1,944,1772,0,0
-273,-748,0,0,0,0,0,0,0,0,0,-1,951,1772,0,0
-266,-748,0,0,0,0,0,0,0,0,0,-1,958,1772,0,0
-259,-748,0,0,0,0,0,0,0,0,0,-1,965,1772,0,0
-252,-748,0,0,0,0,0,0,0,0,0,-1,972,1772,0,0
-245,-748,0,0,0,0,0,0,0,0,0,-1,979,1772,0,0
-238,-748,0,0,0,0,0,0,0,0,0,-1,986,1772,0,0
-231,-748,0,0,0,0,0,0,0,0,0,-1,993,1772,0,0
-224,-748,0,0,0,0,0,0,0,0,0,-1,1000,1772,0,0
-217,-748,8.97742,29.9884,0.0200897,-0.0640237,-0.0383875,0.0349747,-0.0789088,-0.369909,0.0673619,0.0419364,1007,1772,8.97744,-29.9884
-210,-748,8.8941,30.14,0.012213,-0.0642828,-0.0263122,0.0203896,-0.0724594,-0.301293,0.0563462,0.0425417,1014,1772,8.8941,-30.14
-203,-748,8.57703,30.2961,0.00656863,-0.0618188,-0.0169974,0.0105603,-0.0658105,-0.230659,0.0477843,0.0469704,1021,1772,8.57706,-30.2962
-196,-748,8.01953,29.9611,0,0,0,0,0,0,0,-1,1028,1772,8.01957,-29.9611
-189,-748,9.63245,31.4406,0,0,0,0,0,0,0,-1,1035,1772,9.6325,-31.4406
-182,-748,3.94958,20.8662,0,0,0,0,0,0,0,-1,1042,1772,3.94959,-20.8662
-175,-748,3.56726,19.4518,0,0,0,0,0,0,0,-1,1049,1772,3.5673,-19.4518
-168,-748,3.04858,18.0109,0,0,0,0,0,0,0,-1,1056,1772,3.04853,-18.0108
-161,-748,3.50562,13.2729,0,0,0,0,0,0,0,-1,1063,1772,3.5056,-13.2729
-154,-748,-3.38562,10.6989,0,0,0,0,0,0,0,-1,1070,1772,-3.38564,-10.6989
-147,-748,-6.38733,11.0702,0,0,0,0,0,0,0,-1,1077,1772,-6.38731,-11.0702
-140,-748,7.42126,23.8113,0,0,0,0,0,0,0,-1,1084,1772,7.42133,-23.8113
-133,-748,7.44727,22.0308,0,0,0,0,0,0,0,-1,1091,1772,7.44728,-22.0308
-126,-748,5.98035,22.6067,0,0,0,0,0,0,0,-1,1098,1772,5.9803,-22.6067
-119,-748,6.63342,26.309,0,0,0,0,0,0,0,-1,1105,1772,6.6334,-26.3089
-112,-748,6.91333,24.923,0,0,0,0,0,0,0,-1,1112,1772,6.91339,-24.923
-105,-748,6.83313,25.0537,0,0,0,0,0,0,0,-1,1119,1772,6.83311,-25.0537
-98,-748,8.13623,30.8743,0,0,0,0,0,0,0,-1,1126,1772,8.13628,-30.8742
-91,-748,4.85352,15.3033,0,0,0,0,0,0,0,-1,1133,1772,4.85351,-15.3033
-84,-748,-0.192017,7.26196,0,0,0,0,0,0,0,-1,1140,1772,-0.192047,-7.26201
-77,-748,4.42615,13.5537,0,0,0,0,0,0,0,-1,1147,1772,4.4261,-13.5538
-70,-748,4.46191,13.7446,0,0,0,0,0,0,0,-1,1154,1772,4.4619,-13.7446
-63,-748,4.49768,13.9355,0,0,0,0,0,0,0,-1,1161,1772,4.49769,-13.9355
-56,-748,3.05762,7.87817,0,0,0,0,0,0,0,-1,1168,1772,3.05768,-7.87822
-49,-748,3.04102,7.82471,0,0,0,0,0,0,0,-1,1175,1772,3.04096,-7.82468
-42,-748,0.793457,14.9474,0,0,0,0,0,0,0,-1,1182,1772,0.793413,-14.9474
-35,-748,8.28906,37.8129,0,0,0,0,0,0,0,-1,1189,1772,8.28902,-37.8129
-28,-748,8.26416,38.0313,-0.00929209,-0.00901043,7.27991e-06,-0.00901025,-0.00929228,1.54497,0.00610301,0.0497286,1196,1772,8.26412,-38.0313
-21,-748,8.25916,38.1726,-0.0085376,-0.00878358,0.000329214,-0.00830915,-0.00901202,0.606631,0.00578797,0.0233483,1203,1772,8.2591,-38.1726
-14,-748,8.18127,38.2312,-0.00812899,-0.00853393,0.000358604,-0.00791965,-0.00874327,0.528404,0.00557463,0.0174882,1210,1772,8.18129,-38.2312
-7,-748,8.15808,38.3177,-0.00792795,-0.0088873,0.000311566,-0.00783564,-0.00897961,0.288024,0.00564386,0.015633,1217,1772,8.15808,-38.3177
0,-748,8.1156,38.3967,-0.00774213,-0.00857453,0.000386536,-0.00759033,-0.00872634,0.374232,0.00547829,0.015082,1224,1772,8.11556,-38.3967
7,-748,8.07178,38.468,-0.00754234,-0.00772501,0.000441906,-0.00718243,-0.00808492,0.683489,0.00511572,0.0139957,1231,1772,8.07173,-38.4681
14,-748,8.03857,38.5599,-0.00736335,-0.00626438,0.00067776,-0.00594135,-0.00768639,1.12602,0.00465296,0.0148893,1238,1772,8.03864,-38.5599
21,-748,8.02625,38.6442,-0.00714507,-0.00516864,0.00052388,-0.00503837,-0.00727535,1.32707,0.00430297,0.0115283,1245,1772,8.02629,-38.6442
28,-748,7.99487,38.734,-0.00753784,-0.00448045,0.00028641,-0.00445385,-0.00756444,1.47819,0.00439022,0.0113726,1252,1772,7.99485,-38.7341
35,-748,7.98022,38.7844,-0.00815672,-0.00403493,-6.86257e-05,-0.00403379,-0.00815786,-1.55415,0.00471004,0.0116484,1259,1772,7.9802,-38.7844
42,-748,7.98206,38.8032,-0.00694973,0.00260897,0.00238546,0.00317121,-0.00751197,1.33933,0.00633538,0.0128558,1266,1772,7.98202,-38.8033
49,-748,7.94067,38.8153,-0.00214656,0.00598582,0.00415718,0.00773479,-0.00389553,1.17256,0.00683563,0.0101154,1273,1772,7.9407,-38.8153
56,-748,7.88916,38.8464,-0.000112822,0.00953179,0.00586394,0.0123016,-0.00288264,1.12951,0.00931189,0.0100538,1280,1772,7.88919,-38.8464
63,-748,7.87939,38.8518,0.00260906,0.0128859,0.00756626,0.0168936,-0.00139865,1.08369,0.0117564,0.0122853,1287,1772,7.87935,-38.8518
70,-748,7.8656,38.8583,0.00578697,0.0159396,0.00938421,0.0215325,0.000194049,1.03333,0.0142907,0.014007,1294,1772,7.86561,-38.8583
77,-748,7.83508,38.8553,0.00906939,0.0186772,0.0114065,0.0262501,0.00149646,0.984702,0.0170232,0.0122842,1301,1772,7.83504,-38.8553
84,-748,7.80164,38.8585,0.011765,0.0204611,0.0130325,0.0298518,0.00237435,0.946406,0.0191589,0.0134675,1308,1772,7.80161,-38.8585
91,-748,7.77771,38.8325,0.0141085,0.0213402,0.0144183,0.0325891,0.00285958,0.908256,0.0208384,0.0117672,1315,1772,7.77773,-38.8325
98,-748,7.7489,38.7732,0.0158471,0.0214357,0.0152236,0.0341192,0.00316347,0.876164,0.0217684,0.0105856,1322,1772,7.74888,-38.7732
105,-748,7.75183,38.7004,0.0164899,0.019856,0.0152127,0.0334784,0.00286746,0.840492,0.0214272,0.01135,1329,1772,7.75179,-38.7004
112,-748,7.75928,38.6409,0.0158285,0.0167075,0.0143651,0.0306398,0.00189621,0.800691,0.0198247,0.0141885,1336,1772,7.75925,-38.6409
119,-748,7.71484,38.5729,0.0139492,0.0125358,0.012532,0.0257944,0.000690574,0.757232,0.0169708,0.0130157,1343,1772,7.7149,-38.5729
126,-748,7.6748,38.516,0.0108202,0.0087259,0.0106614,0.0204857,-0.000939639,0.736446,0.0139809,0.0148808,1350,1772,7.67486,-38.5161
133,-748,7.6073,38.4323,0.00811988,0.0056741,0.0086414,0.0156245,-0.00183051,0.715107,0.011077,0.00890634,1357,1772,7.60726,-38.4322
140,-748,7.58008,38.3661,0.00514468,0.00294923,0.00668836,0.0108248,-0.00273089,0.704061,0.00827837,0.0114414,1364,1772,7.58009,-38.366
147,-748,7.59448,38.2606,-0.000452725,-0.00822779,0.00100118,-0.000325875,-0.00835464,0.126029,0.00546438,0.0139042,1371,1772,7.5945,-38.2607
154,-748,7.56018,38.1665,-0.0115687,-0.00778182,-0.000844717,-0.00760194,-0.0117486,-1.36098,0.00688013,0.0121894,1378,1772,7.56022,-38.1665
161,-748,7.50842,38.0769,-0.00981121,-0.00634226,-0.000798136,-0.00616744,-0.00998603,-1.35516,0.00581836,0.0175875,1385,1772,7.50846,-38.0769
168,-748,7.47253,37.9852,0,0,0,0,0,0,0,-1,1392,1772,7.47248,-37.9852
175,-748,11.6235,16.8242,0,0,0,0,0,0,0,-1,1399,1772,11.6236,-16.8242
182,-748,7.62476,10.3058,0,0,0,0,0,0,0,-1,1406,1772,7.62476,-10.3058
189,-748,6.15857,6.95898,0,0,0,0,0,0,0,-1,1413,1772,6.15862,-6.95896
196,-748,3.9425,8.46021,0,0,0,0,0,0,0,-1,1420,1772,3.9425,-8.46026
203,-748,3.9668,12.9835,0,0,0,0,0,0,0,-1,1427,1772,3.96678,-12.9836
210,-748,4.71472,16.8318,0,0,0,0,0,0,0,-1,1434,1772,4.71471,-16.8317
217,-748,5.38452,21.5551,0,0,0,0,0,0,0,-1,1441,1772,5.38455,-21.555
224,-748,6.14258,25.2345,0,0,0,0,0,0,0,-1,1448,1772,6.14263,-25.2345
231,-748,6.46045,29.7867,0,0,0,0,0,0,0,-1,1455,1772,6.46049,-29.7867
238,-748,7.41565,32.8574,0,0,0,0,0,0,0,-1,1462,1772,7.41562,-32.8574
245,-748,7.84912,32.0914,0,0,0,0,0,0,0,-1,1469,1772,7.84914,-32.0914
252,-748,6.81824,34.2231,0,0,0,0,0,0,0,-1,1476,1772,6.81823,-34.2232
259,-748,7.401,35.4559,0,0,0,0,0,0,0,-1,1483,1772,7.40096,-35.4559
266,-748,7.0072,32.5728,0,0,0,0,0,0,0,-1,1490,1772,7.00718,-32.5728
273,-748,16.4131,7.57129,0,0,0,0,0,0,0,-1,1497,1772,16.413,-7.57125
280,-748,15.2177,7.24829,0,0,0,0,0,0,0,-1,1504,1772,15.2176,-7.24833
287,-748,14.161,8.32813,0,0,0,0,0,0,0,-1,1511,1772,14.161,-8.32808
294,-748,6.38525,32.4724,0,0,0,0,0,0,0,-1,1518,1772,6.38521,-32.4725
301,-748,6.24658,30.7585,0,0,0,0,0,0,0,-1,1525,1772,6.24657,-30.7586
308,-748,9.92456,7.80225,0,0,0,0,0,0,0,-1,1532,1772,9.92453,-7.80224
315,-748,8.91541,8.29773,0,0,0,0,0,0,0,-1,1539,1772,8.91544,-8.29773
322,-748,7.83618,8.87122,0,0,0,0,0,0,0,-1,1546,1772,7.83613,-8.87124
329,-748,3.48315,14.6533,0,0,0,0,0,0,0,-1,1553,1772,3.48316,-14.6534
336,-748,3.76001,15.8163,0,0,0,0,0,0,0,-1,1560,1772,3.75995,-15.8163
343,-748,0,0,0,0,0,0,0,0,0,-1,1567,1772,0,0
350,-748,0,0,0,0,0,0,0,0,0,-1,1574,1772,0,0
357,-748,0,0,0,0,0,0,0,0,0,-1,1581,1772,0,0
364,-748,0,0,0,0,0,0,0,0,0,-1,1588,1772,0,0
371,-748,0,0,0,0,0,0,0,0,0,-1,1595,1772,0,0
378,-748,0,0,0,0,0,0,0,0,0,-1,1602,1772,0,0
385,-748,0,0,0,0,0,0,0,0,0,-1,1609,1772,0,0
392,-748,0,0,0,0,0,0,0,0,0,-1,1616,1772,0,0
399,-748,0,0,0,0,0,0,0,0,0,-1,1623,1772,0,0
406,-748,0,0,0,0,0,0,0,0,0,-1,1630,1772,0,0
413,-748,0,0,0,0,0,0,0,0,0,-1,1637,1772,0,0
420,-748,0,0,0,0,0,0,0,0,0,-1,1644,1772,0,0
427,-748,0,0,0,0,0,0,0,0,0,-1,1651,1772,0,0
434,-748,0,0,0,0,0,0,0,0,0,-1,1658,1772,0,0
441,-748,0,0,0,0,0,0,0,0,0,-1,1665,1772,0,0
448,-748,0,0,0,0,0,0,0,0,0,-1,1672,1772,0,0
455,-748,0,0,0,0,0,0,0,0,0,-1,1679,1772,0,0
462,-748,0,0,0,0,0,0,0,0,0,-1,1686,1772,0,0
469,-748,0,0,0,0,0,0,0,0,0,-1,1693,1772,0,0
476,-748,0,0,0,0,0,0,0,0,0,-1,1700,1772,0,0
483,-748,0,0,0,0,0,0,0,0,0,-1,1707,1772,0,0
490,-748,0,0,0,0,0,0,0,0,0,-1,1714,1772,0,0
497,-748,0,0,0,0,0,0,0,0,0,-1,1721,1772,0,0
504,-748,0,0,0,0,0,0,0,0,0,-1,1728,1772,0,0
511,-748,0,0,0,0,0,0,0,0,0,-1,1735,1772,0,0
518,-748,0,0,0,0,0,0,0,0,0,-1,1742,1772,0,0
525,-748,0,0,0,0,0,0,0,0,0,-1,1749,1772,0,0
532,-748,0,0,0,0,0,0,0,0,0,-1,1756,1772,0,0
539,-748,0,0,0,0,0,0,0,0,0,-1,1763,1772,0,0
546,-748,0,0,0,0,0,0,0,0,0,-1,1770,1772,0,0
553,-748,0,0,0,0,0,0,0,0,0,-1,1777,1772,0,0
560,-748,0,0,0,0,0,0,0,0,0,-1,1784,1772,0,0
567,-748,0,0,0,0,0,0,0,0,0,-1,1791,1772,0,0
574,-748,0,0,0,0,0,0,0,0,0,-1,1798,1772,0,0
581,-748,0,0,0,0,0,0,0,0,0,-1,1805,1772,0,0
588,-748,0,0,0,0,0,0,0,0,0,-1,1812,1772,0,0
595,-748,0,0,0,0,0,0,0,0,0,-1,1819,1772,0,0
602,-748,0,0,0,0,0,0,0,0,0,-1,1826,1772,0,0
609,-748,0,0,0,0,0,0,0,0,0,-1,1833,1772,0,0
616,-748,0,0,0,0,0,0,0,0,0,-1,1840,1772,0,0
623,-748,0,0,0,0,0,0,0,0,0,-1,1847,1772,0,0
630,-748,0,0,0,0,0,0,0,0,0,-1,1854,1772,0,0
637,-748,0,0,0,0,0,0,0,0,0,-1,1861,1772,0,0
644,-748,0,0,0,0,0,0,0,0,0,-1,1868,1772,0,0
651,-748,0,0,0,0,0,0,0,0,0,-1,1875,1772,0,0
658,-748,0,0,0,0,0,0,0,0,0,-1,1882,1772,0,0
665,-748,0,0,0,0,0,0,0,0,0,-1,1889,1772,0,0
672,-748,0,0,0,0,0,0,0,0,0,-1,1896,1772,0,0
679,-748,0,0,0,0,0,0,0,0,0,-1,1903,1772,0,0
686,-748,0,0,0,0,0,0,0,0,0,-1,1910,1772,0,0
693,-748,0,0,0,0,0,0,0,0,0,-1,1917,1772,0,0
700,-748,0,0,0,0,0,0,0,0,0,-1,1924,1772,0,0
707,-748,0,0,0,0,0,0,0,0,0,-1,1931,1772,0,0
714,-748,0,0,0,0,0,0,0,0,0,-1,1938,1772,0,0
721,-748,0,0,0,0,0,0,0,0,0,-1,1945,1772,0,0
728,-748,0,0,0,0,0,0,0,0,0,-1,1952,1772,0,0
735,-748,0,0,0,0,0,0,0,0,0,-1,1959,1772,0,0
742,-748,0,0,0,0,0,0,0,0,0,-1,1966,1772,0,0
749,-748,0,0,0,0,0,0,0,0,0,-1,1973,1772,0,0
756,-748,0,0,0,0,0,0,0,0,0,-1,1980,1772,0,0
763,-748,0,0,0,0,0,0,0,0,0,-1,1987,1772,0,0
770,-748,0,0,0,0,0,0,0,0,0,-1,1994,1772,0,0
777,-748,0,0,0,0,0,0,0,0,0,-1,2001,1772,0,0
784,-748,0,0,0,0,0,0,0,0,0,-1,2008,1772,0,0
791,-748,0,0,0,0,0,0,0,0,0,-1,2015,1772,0,0
798,-748,0,0,0,0,0,0,0,0,0,-1,2022,1772,0,0
805,-748,0,0,0,0,0,0,0,0,0,-1,2029,1772,0,0
812,-748,0,0,0,0,0,0,0,0,0,-1,2036,1772,0,0
-700,-755,0,0,0,0,0,0,0,0,0,-1,524,1779,0,0
-693,-755,0,0,0,0,0,0,0,0,0,-1,531,1779,0,0
-686,-755,0,0,0,0,0,0,0,0,0,-1,538,1779,0,0
-679,-755,0,0,0,0,0,0,0,0,0,-1,545,1779,0,0
-672,-755,0,0,0,0,0,0,0,0,0,-1,552,1779,0,0
-665,-755,0,0,0,0,0,0,0,0,0,-1,559,1779,0,0
-658,-755,0,0,0,0,0,0,0,0,0,-1,566,1779,0,0
-651,-755,0,0,0,0,0,0,0,0,0,-1,573,1779,0,0
-644,-755,0,0,0,0,0,0,0,0,0,-1,580,1779,0,0
-637,-755,0,0,0,0,0,0,0,0,0,-1,587,1779,0,0
-630,-755,0,0,0,0,0,0,0,0,0,-1,594,1779,0,0
-623,-755,0,0,0,0,0,0,0,0,0,-1,601,1779,0,0
-616,-755,0,0,0,0,0,0,0,0,0,-1,608,1779,0,0
-609,-755,0,0,0,0,0,0,0,0,0,-1,615,1779,0,0
-602,-755,0,0,0,0,0,0,0,0,0,-1,622,1779,0,0
-595,-755,0,0,0,0,0,0,0,0,0,-1,629,1779,0,0
-588,-755,0,0,0,0,0,0,0,0,0,-1,636,1779,0,0
-581,-755,0,0,0,0,0,0,0,0,0,-1,643,1779,0,0
-574,-755,0,0,0,0,0,0,0,0,0,-1,650,1779,0,0
-567,-755,0,0,0,0,0,0,0,0,0,-1,657,1779,0,0
-560,-755,0,0,0,0,0,0,0,0,0,-1,664,1779,0,0
-553,-755,0,0,0,0,0,0,0,0,0,-1,671,1779,0,0
-546,-755,0,0,0,0,0,0,0,0,0,-1,678,1779,0,0
-539,-755,0,0,0,0,0,0,0,0,0,-1,685,1779,0,0
-532,-755,0,0,0,0,0,0,0,0,0,-1,692,1779,0,0
-525,-755,0,0,0,0,0,0,0,0,0,-1,699,1779,0,0
-518,-755,0,0,0,0,0,0,0,0,0,-1,706,1779,0,0
-511,-755,0,0,0,0,0,0,0,0,0,-1,713,1779,0,0
-504,-755,0,0,0,0,0,0,0,0,0,-1,720,1779,0,0
-497,-755,0,0,0,0,0,0,0,0,0,-1,727,1779,0,0
-490,-755,0,0,0,0,0,0,0,0,0,-1,734,1779,0,0
-483,-755,0,0,0,0,0,0,0,0,0,-1,741,1779,0,0
-476,-755,0,0,0,0,0,0,0,0,0,-1,748,1779,0,0
-469,-755,0,0,0,0,0,0,0,0,0,-1,755,1779,0,0
-462,-755,0,0,0,0,0,0,0,0,0,-1,762,1779,0,0
-455,-755,0,0,0,0,0,0,0,0,0,-1,769,1779,0,0
-448,-755,0,0,0,0,0,0,0,0,0,-1,776,1779,0,0
-441,-755,0,0,0,0,0,0,0,0,0,-1,783,1779,0,0
-434,-755,0,0,0,0,0,0,0,0,0,-1,790,1779,0,0
-427,-755,0,0,0,0,0,0,0,0,0,-1,797,1779,0,0
-420,-755,0,0,0,0,0,0,0,0,0,-1,804,1779,0,0
-413,-755,0,0,0,0,0,0,0,0,0,-1,811,1779,0,0
-406,-755,0,0,0,0,0,0,0,0,0,-1,818,1779,0,0
-399,-755,0,0,0,0,0,0,0,0,0,-1,825,1779,0,0
-392,-755,0,0,0,0,0,0,0,0,0,-1,832,1779,0,0
-385,-755,0,0,0,0,0,0,0,0,0,-1,839,1779,0,0
-378,-755,0,0,0,0,0,0,0,0,0,-1,846,1779,0,0
-371,-755,0,0,0,0,0,0,0,0,0,-1,853,1779,0,0
-364,-755,0,0,0,0,0,0,0,0,0,-1,860,1779,0,0
-357,-755,0,0,0,0,0,0,0,0,0,-1,867,1779,0,0
-350,-755,0,0,0,0,0,0,0,0,0,-1,874,1779,0,0
-343,-755,0,0,0,0,0,0,0,0,0,-1,881,1779,0,0
-336,-755,0,0,0,0,0,0,0,0,0,-1,888,1779,0,0
-329,-755,0,0,0,0,0,0,0,0,0,-1,895,1779,0,0
-322,-755,0,0,0,0,0,0,0,0,0,-1,902,1779,0,0
-315,-755,0,0,0,0,0,0,0,0,0,-1,909,1779,0,0
-308,-755,0,0,0,0,0,0,0,0,0,-1,916,1779,0,0
-301,-755,0,0,0,0,0,0,0,0,0,-1,923,1779,0,0
-294,-755,0,0,0,0,0,0,0,0,0,-1,930,1779,0,0
-287,-755,0,0,0,0,0,0,0,0,0,-1,937,1779,0,0
-280,-755,0,0,0,0,0,0,0,0,0,-1,944,1779,0,0
-273,-755,0,0,0,0,0,0,0,0,0,-1,951,1779,0,0
-266,-755,0,0,0,0,0,0,0,0,0,-1,958,1779,0,0
-259,-755,0,0,0,0,0,0,0,0,0,-1,965,1779,0,0
-252,-755,0,0,0,0,0,0,0,0,0,-1,972,1779,0,0
-245,-755,0,0,0,0,0,0,0,0,0,-1,979,1779,0,0
-238,-755,0,0,0,0,0,0,0,0,0,-1,986,1779,0,0
-231,-755,0,0,0,0,0,0,0,0,0,-1,993,1779,0,0
-224,-755,0,0,0,0,0,0,0,0,0,-1,1000,1779,0,0
-217,-755,0,0,0,0,0,0,0,0,0,-1,1007,1779,0,0
-210,-755,0,0,0,0,0,0,0,0,0,-1,1014,1779,0,0
-203,-755,8.97363,30.5414,0,0,0,0,0,0,0,-1,1021,1779,8.97362,-30.5414
-196,-755,8.34436,29.0909,0,0,0,0,0,0,0,-1,1028,1779,8.3443,-29.091
-189,-755,4.8175,22.4788,0,0,0,0,0,0,0,-1,1035,1779,4.81745,-22.4788
-182,-755,4.021,20.8032,0,0,0,0,0,0,0,-1,1042,1779,4.02094,-20.8032
-175,-755,3.79993,18.8242,0,0,0,0,0,0,0,-1,1049,1779,3.79995,-18.8242
-168,-755,3.14294,16.9865,0,0,0,0,0,0,0,-1,1056,1779,3.14291,-16.9864
-161,-755,-2.85889,11.5868,0,0,0,0,0,0,0,-1,1063,1779,-2.85887,-11.5868
-154,-755,-5.39026,8.51416,0,0,0,0,0,0,0,-1,1070,1779,-5.3903,-8.51417
-147,-755,-6.45593,10.2422,0,0,0,0,0,0,0,-1,1077,1779,-6.45594,-10.2422
-140,-755,1.33521,21.3856,0,0,0,0,0,0,0,-1,1084,1779,1.33522,-21.3857
-133,-755,2.89417,21.0964,0,0,0,0,0,0,0,-1,1091,1779,2.89422,-21.0964
-126,-755,3.26404,20.9304,0,0,0,0,0,0,0,-1,1098,1779,3.26399,-20.9305
-119,-755,5.17761,21.9325,0,0,0,0,0,0,0,-1,1105,1779,5.17761,-21.9325
-112,-755,5.40247,24.5646,0,0,0,0,0,0,0,-1,1112,1779,5.40244,-24.5646
-105,-755,7.01294,20.1539,0,0,0,0,0,0,0,-1,1119,1779,7.01295,-20.154
-98,-755,5.50708,16.9628,0,0,0,0,0,0,0,-1,1126,1779,5.5071,-16.9628
-91,-755,5.51025,12.0438,0,0,0,0,0,0,0,-1,1133,1779,5.51022,-12.0439
-84,-755,0.169312,8.66443,0,0,0,0,0,0,0,-1,1140,1779,0.16932,-8.66446
-77,-755,-0.0491943,6.87439,0,0,0,0,0,0,0,-1,1147,1779,-0.0491385,-6.87443
-70,-755,4.5686,13.2169,0,0,0,0,0,0,0,-1,1154,1779,4.56865,-13.2169
-63,-755,-1.36316,7.3147,0,0,0,0,0,0,0,-1,1161,1779,-1.36312,-7.31473
-56,-755,0.0483398,5.06079,0,0,0,0,0,0,0,-1,1168,1779,0.0483138,-5.06084
-49,-755,-1.32263,5.33716,0,0,0,0,0,0,0,-1,1175,1779,-1.32264,-5.33718
-42,-755,-2.03613,4.01672,0,0,0,0,0,0,0,-1,1182,1779,-2.0361,-4.01671
-35,-755,-2.72498,2.37476,0,0,0,0,0,0,0,-1,1189,1779,-2.72502,-2.37473
-28,-755,8.26904,38.1047,0,0,0,0,0,0,0,-1,1196,1779,8.26902,-38.1047
-21,-755,8.33337,38.2861,0,0,0,0,0,0,0,-1,1203,1779,8.3334,-38.2861
-14,-755,8.37012,38.2384,-0.0122831,-0.012257,0.000670672,-0.0115993,-0.0129408,0.795107,0.00821662,0.0349692,1210,1779,8.37011,-38.2384
-7,-755,8.24048,38.3092,-0.0120633,-0.0124554,0.000525591,-0.0116984,-0.0128203,0.606912,0.00819854,0.0232465,1217,1779,8.24042,-38.3092
0,-755,8.21021,38.3888,-0.0118336,-0.0119344,0.000548108,-0.0113336,-0.0124344,0.739523,0.00794812,0.0135563,1224,1779,8.21021,-38.3887
7,-755,8.15723,38.4641,-0.0116433,-0.0109362,0.000460003,-0.0107095,-0.0118699,1.11305,0.00755623,0.0113495,1231,1779,8.15718,-38.4641
14,-755,8.1322,38.5575,-0.0116134,-0.00926953,0.000508787,-0.00916385,-0.0117191,1.366,0.00711558,0.0106,1238,1779,8.13218,-38.5574
21,-755,8.04187,38.6333,-0.0116754,-0.00807982,9.4634e-05,-0.00807733,-0.0116778,1.5445,0.00690538,0.0160254,1245,1779,8.04192,-38.6333
28,-755,8.04187,38.6876,-0.0126017,-0.00753696,-0.000435399,-0.0074998,-0.0126389,-1.48566,0.00733936,0.0191743,1252,1779,8.04186,-38.6877
35,-755,8.05432,38.7952,-0.0138583,-0.00730766,-0.00106959,-0.00713744,-0.0140285,-1.41297,0.00809976,0.0195306,1259,1779,8.0543,-38.7952
42,-755,7.99329,38.8136,-0.012679,0.000733902,0.0019547,0.00101296,-0.0129581,1.42899,0.0089954,0.0140799,1266,1779,7.9933,-38.8136
49,-755,7.95776,38.803,-0.00657679,0.00479994,0.00426592,0.00622182,-0.00799867,1.24907,0.00823154,0.00928869,1273,1779,7.95774,-38.803
56,-755,7.92236,38.8339,-0.00407899,0.00901164,0.00649051,0.0116841,-0.00675147,1.1802,0.01077,0.00913048,1280,1779,7.92241,-38.8339
63,-755,7.90552,38.8541,-0.000541579,0.0130823,0.00880248,0.0174008,-0.00486005,1.1147,0.013515,0.00991788,1287,1779,7.90551,-38.8541
70,-755,7.89185,38.8314,0.00374565,0.0168465,0.0113455,0.0233968,-0.0028046,1.0472,0.0166118,0.0127063,1294,1779,7.89179,-38.8315
77,-755,7.84314,38.8109,0.00848578,0.020477,0.0142953,0.0299831,-0.0010203,0.983962,0.0203374,0.01185,1301,1779,7.84318,-38.8109
84,-755,7.79175,38.8074,0.0126,0.0229637,0.0167553,0.0353201,0.000243578,0.935366,0.0234659,0.0124325,1308,1779,7.79174,-38.8074
91,-755,7.7583,38.772,0.0165302,0.0245095,0.0190136,0.0399476,0.00109214,0.888814,0.0262752,0.0127223,1315,1779,7.75827,-38.772
98,-755,7.71301,38.7388,0.0198075,0.0250046,0.0204836,0.0430539,0.00175825,0.848491,0.0281348,0.0133422,1322,1779,7.71296,-38.7388
105,-755,7.74036,38.7151,0.0215817,0.0232808,0.0208027,0.0432513,0.0016112,0.805807,0.0283124,0.0168143,1329,1779,7.74035,-38.715
112,-755,7.70715,38.6447,0.0214607,0.0194193,0.0199213,0.0403874,0.000492603,0.759801,0.0267622,0.0222772,1336,1779,7.7072,-38.6446
119,-755,7.63513,38.5686,0.0195109,0.0140581,0.0176431,0.034637,-0.00106802,0.708738,0.0234555,0.0227527,1343,1779,7.63513,-38.5685
126,-755,7.59741,38.5696,0.0155722,0.00899825,0.0151044,0.0277432,-0.00317268,0.678259,0.0196386,0.0257151,1350,1779,7.59744,-38.5696
133,-755,7.45203,38.468,0.0121857,0.00503061,0.0124169,0.0215302,-0.00431385,0.645137,0.0159866,0.0253048,1357,1779,7.45199,-38.4681
140,-755,7.35217,38.3986,0.00782398,0.00106703,0.00960269,0.0146252,-0.00573416,0.616248,0.0121223,0.0305066,1364,1779,7.35214,-38.3986
147,-755,7.49255,38.3385,-0.000475683,-0.0149195,0.00132809,-0.000354582,-0.0150406,0.0909327,0.00991098,0.0341045,1371,1779,7.4926,-38.3385
154,-755,7.48462,38.2762,-0.0186817,-0.0144276,-0.00166213,-0.0138552,-0.0192541,-1.23914,0.0114682,0.0339799,1378,1779,7.48465,-38.2763
161,-755,7.39612,38.126,0,0,0,0,0,0,0,-1,1385,1779,7.39611,-38.1259
168,-755,3.98181,7.35901,0,0,0,0,0,0,0,-1,1392,1779,3.98184,-7.35904
175,-755,8.17065,1.34363,0,0,0,0,0,0,0,-1,1399,1779,8.1706,-1.34368
182,-755,8.09216,2.96924,0,0,0,0,0,0,0,-1,1406,1779,8.09213,-2.9693
189,-755,8.04419,4.68042,0,0,0,0,0,0,0,-1,1413,1779,8.04419,-4.68046
196,-755,7.74841,7.4541,0,0,0,0,0,0,0,-1,1420,1779,7.74842,-7.45405
203,-755,4.80554,6.88696,0,0,0,0,0,0,0,-1,1427,1779,4.80554,-6.88697
210,-755,25.1694,7.35693,0,0,0,0,0,0,0,-1,1434,1779,25.1694,-7.35688
217,-755,5.01648,16.411,0,0,0,0,0,0,0,-1,1441,1779,5.01646,-16.411
224,-755,5.18103,22.6283,0,0,0,0,0,0,0,-1,1448,1779,5.18101,-22.6283
231,-755,5.7489,30.15,0,0,0,0,0,0,0,-1,1455,1779,5.74885,-30.15
238,-755,6.56323,29.2726,0,0,0,0,0,0,0,-1,1462,1779,6.56327,-29.2726
245,-755,5.76453,29.2085,0,0,0,0,0,0,0,-1,1469,1779,5.76455,-29.2085
252,-755,5.57678,29.0841,0,0,0,0,0,0,0,-1,1476,1779,5.57682,-29.0841
259,-755,5.37292,29.1577,0,0,0,0,0,0,0,-1,1483,1779,5.37293,-29.1577
266,-755,17.255,7.86096,0,0,0,0,0,0,0,-1,1490,1779,17.255,-7.86092
273,-755,15.7932,7.59778,0,0,0,0,0,0,0,-1,1497,1779,15.7932,-7.59777
280,-755,14.6255,7.34802,0,0,0,0,0,0,0,-1,1504,1779,14.6254,-7.34806
287,-755,13.8279,7.83105,0,0,0,0,0,0,0,-1,1511,1779,13.8279,-7.83104
294,-755,12.5695,7.96814,0,0,0,0,0,0,0,-1,1518,1779,12.5694,-7.9682
301,-755,11.2659,8.27087,0,0,0,0,0,0,0,-1,1525,1779,11.2658,-8.27087
308,-755,9.94434,8.55811,0,0,0,0,0,0,0,-1,1532,1779,9.94428,-8.55806
315,-755,8.64502,9.04492,0,0,0,0,0,0,0,-1,1539,1779,8.64497,-9.04488
322,-755,0,0,0,0,0,0,0,0,0,-1,1546,1779,0,0
329,-755,0,0,0,0,0,0,0,0,0,-1,1553,1779,0,0
336,-755,0,0,0,0,0,0,0,0,0,-1,1560,1779,0,0
343,-755,0,0,0,0,0,0,0,0,0,-1,1567,1779,0,0
350,-755,0,0,0,0,0,0,0,0,0,-1,1574,1779,0,0
357,-755,0,0,0,0,0,0,0,0,0,-1,1581,1779,0,0
364,-755,0,0,0,0,0,0,0,0,0,-1,1588,1779,0,0
371,-755,0,0,0,0,0,0,0,0,0,-1,1595,1779,0,0
378,-755,0,0,0,0,0,0,0,0,0,-1,1602,1779,0,0
385,-755,0,0,0,0,0,0,0,0,0,-1,1609,1779,0,0
392,-755,0,0,0,0,0,0,0,0,0,-1,1616,1779,0,0
399,-755,0,0,0,0,0,0,0,0,0,-1,1623,1779,0,0
406,-755,0,0,0,0,0,0,0,0,0,-1,1630,1779,0,0
413,-755,0,0,0,0,0,0,0,0,0,-1,1637,1779,0,0
420,-755,0,0,0,0,0,0,0,0,0,-1,1644,1779,0,0
427,-755,0,0,0,0,0,0,0,0,0,-1,1651,1779,0,0
434,-755,0,0,0,0,0,0,0,0,0,-1,1658,1779,0,0
441,-755,0,0,0,0,0,0,0,0,0,-1,1665,1779,0,0
448,-755,0,0,0,0,0,0,0,0,0,-1,1672,1779,0,0
455,-755,0,0,0,0,0,0,0,0,0,-1,1679,1779,0,0
462,-755,0,0,0,0,0,0,0,0,0,-1,1686,1779,0,0
469,-755,0,0,0,0,0,0,0,0,0,-1,1693,1779,0,0
476,-755,0,0,0,0,0,0,0,0,0,-1,1700,1779,0,0
483,-755,0,0,0,0,0,0,0,0,0,-1,1707,1779,0,0
490,-755,0,0,0,0,0,0,0,0,0,-1,1714,1779,0,0
497,-755,0,0,0,0,0,0,0,0,0,-1,1721,1779,0,0
504,-755,0,0,0,0,0,0,0,0,0,-1,1728,1779,0,0
511,-755,0,0,0,0,0,0,0,0,0,-1,1735,1779,0,0
518,-755,0,0,0,0,0,0,0,0,0,-1,1742,1779,0,0
525,-755,0,0,0,0,0,0,0,0,0,-1,1749,1779,0,0
532,-755,0,0,0,0,0,0,0,0,0,-1,1756,1779,0,0
539,-755,0,0,0,0,0,0,0,0,0,-1,1763,1779,0,0
546,-755,0,0,0,0,0,0,0,0,0,-1,1770,1779,0,0
553,-755,0,0,0,0,0,0,0,0,0,-1,1777,1779,0,0
560,-755,0,0,0,0,0,0,0,0,0,-1,1784,1779,0,0
567,-755,0,0,0,0,0,0,0,0,0,-1,1791,1779,0,0
574,-755,0,0,0,0,0,0,0,0,0,-1,1798,1779,0,0
581,-755,0,0,0,0,0,0,0,0,0,-1,1805,1779,0,0
588,-755,0,0,0,0,0,0,0,0,0,-1,1812,1779,0,0
595,-755,0,0,0,0,0,0,0,0,0,-1,1819,1779,0,0
602,-755,0,0,0,0,0,0,0,0,0,-1,1826,1779,0,0
609,-755,0,0,0,0,0,0,0,0,0,-1,1833,1779,0,0
616,-755,0,0,0,0,0,0,0,0,0,-1,1840,1779,0,0
623,-755,0,0,0,0,0,0,0,0,0,-1,1847,1779,0,0
630,-755,0,0,0,0,0,0,0,0,0,-1,1854,1779,0,0
637,-755,0,0,0,0,0,0,0,0,0,-1,1861,1779,0,0
644,-755,0,0,0,0,0,0,0,0,0,-1,1868,1779,0,0
651,-755,0,0,0,0,0,0,0,0,0,-1,1875,1779,0,0
658,-755,0,0,0,0,0,0,0,0,0,-1,1882,1779,0,0
665,-755,0,0,0,0,0,0,0,0,0,-1,1889,1779,0,0
672,-755,0,0,0,0,0,0,0,0,0,-1,1896,1779,0,0
679,-755,0,0,0,0,0,0,0,0,0,-1,1903,1779,0,0
686,-755,0,0,0,0,0,0,0,0,0,-1,1910,1779,0,0
693,-755,0,0,0,0,0,0,0,0,0,-1,1917,1779,0,0
700,-755,0,0,0,0,0,0,0,0,0,-1,1924,1779,0,0
707,-755,0,0,0,0,0,0,0,0,0,-1,1931,1779,0,0
714,-755,0,0,0,0,0,0,0,0,0,-1,1938,1779,0,0
721,-755,0,0,0,0,0,0,0,0,0,-1,1945,1779,0,0
728,-755,0,0,0,0,0,0,0,0,0,-1,1952,1779,0,0
735,-755,0,0,0,0,0,0,0,0,0,-1,1959,1779,0,0
742,-755,0,0,0,0,0,0,0,0,0,-1,1966,1779,0,0
749,-755,0,0,0,0,0,0,0,0,0,-1,1973,1779,0,0
756,-755,0,0,0,0,0,0,0,0,0,-1,1980,1779,0,0
763,-755,0,0,0,0,0,0,0,0,0,-1,1987,1779,0,0
770,-755,0,0,0,0,0,0,0,0,0,-1,1994,1779,0,0
777,-755,0,0,0,0,0,0,0,0,0,-1,2001,1779,0,0
784,-755,0,0,0,0,0,0,0,0,0,-1,2008,1779,0,0
791,-755,0,0,0,0,0,0,0,0,0,-1,2015,1779,0,0
798,-755,0,0,0,0,0,0,0,0,0,-1,2022,1779,0,0
805,-755,0,0,0,0,0,0,0,0,0,-1,2029,1779,0,0
812,-755,0,0,0,0,0,0,0,0,0,-1,2036,1779,0,0
-700,-762,0,0,0,0,0,0,0,0,0,-1,524,1786,0,0
-693,-762,0,0,0,0,0,0,0,0,0,-1,531,1786,0,0
-686,-762,0,0,0,0,0,0,0,0,0,-1,538,1786,0,0
-679,-762,0,0,0,0,0,0,0,0,0,-1,545,1786,0,0
-672,-762,0,0,0,0,0,0,0,0,0,-1,552,1786,0,0
-665,-762,0,0,0,0,0,0,0,0,0,-1,559,1786,0,0
-658,-762,0,0,0,0,0,0,0,0,0,-1,566,1786,0,0
-651,-762,0,0,0,0,0,0,0,0,0,-1,573,1786,0,0
-644,-762,0,0,0,0,0,0,0,0,0,-1,580,1786,0,0
-637,-762,0,0,0,0,0,0,0,0,0,-1,587,1786,0,0
-630,-762,0,0,0,0,0,0,0,0,0,-1,594,1786,0,0
-623,-762,0,0,0,0,0,0,0,0,0,-1,601,1786,0,0
-616,-762,0,0,0,0,0,0,0,0,0,-1,608,1786,0,0
-609,-762,0,0,0,0,0,0,0,0,0,-1,615,1786,0,0
-602,-762,0,0,0,0,0,0,0,0,0,-1,622,1786,0,0
-595,-762,0,0,0,0,0,0,0,0,0,-1,629,1786,0,0
-588,-762,0,0,0,0,0,0,0,0,0,-1,636,1786,0,0
-581,-762,0,0,0,0,0,0,0,0,0,-1,643,1786,0,0
-574,-762,0,0,0,0,0,0,0,0,0,-1,650,1786,0,0
-567,-762,0,0,0,0,0,0,0,0,0,-1,657,1786,0,0
-560,-762,0,0,0,0,0,0,0,0,0,-1,664,1786,0,0
-553,-762,0,0,0,0,0,0,0,0,0,-1,671,1786,0,0
-546,-762,0,0,0,0,0,0,0,0,0,-1,678,1786,0,0
-539,-762,0,0,0,0,0,0,0,0,0,-1,685,1786,0,0
-532,-762,0,0,0,0,0,0,0,0,0,-1,692,1786,0,0
-525,-762,0,0,0,0,0,0,0,0,0,-1,699,1786,0,0
-518,-762,0,0,0,0,0,0,0,0,0,-1,706,1786,0,0
-511,-762,0,0,0,0,0,0,0,0,0,-1,713,1786,0,0
-504,-762,0,0,0,0,0,0,0,0,0,-1,720,1786,0,0
-497,-762,0,0,0,0,0,0,0,0,0,-1,727,1786,0,0
-490,-762,0,0,0,0,0,0,0,0,0,-1,734,1786,0,0
-483,-762,0,0,0,0,0,0,0,0,0,-1,741,1786,0,0
-476,-762,0,0,0,0,0,0,0,0,0,-1,748,1786,0,0
-469,-762,0,0,0,0,0,0,0,0,0,-1,755,1786,0,0
-462,-762,0,0,0,0,0,0,0,0,0,-1,762,1786,0,0
-455,-762,0,0,0,0,0,0,0,0,0,-1,769,1786,0,0
-448,-762,0,0,0,0,0,0,0,0,0,-1,776,1786,0,0
-441,-762,0,0,0,0,0,0,0,0,0,-1,783,1786,0,0
-434,-762,0,0,0,0,0,0,0,0,0,-1,790,1786,0,0
-427,-762,0,0,0,0,0,0,0,0,0,-1,797,1786,0,0
-420,-762,0,0,0,0,0,0,0,0,0,-1,804,1786,0,0
-413,-762,0,0,0,0,0,0,0,0,0,-1,811,1786,0,0
-406,-762,0,0,0,0,0,0,0,0,0,-1,818,1786,0,0
-399,-762,0,0,0,0,0,0,0,0,0,-1,825,1786,0,0
-392,-762,0,0,0,0,0,0,0,0,0,-1,832,1786,0,0
-385,-762,0,0,0,0,0,0,0,0,0,-1,839,1786,0,0
-378,-762,0,0,0,0,0,0,0,0,0,-1,846,1786,0,0
-371,-762,0,0,0,0,0,0,0,0,0,-1,853,1786,0,0
-364,-762,0,0,0,0,0,0,0,0,0,-1,860,1786,0,0
-357,-762,0,0,0,0,0,0,0,0,0,-1,867,1786,0,0
-350,-762,0,0,0,0,0,0,0,0,0,-1,874,1786,0,0
-343,-762,0,0,0,0,0,0,0,0,0,-1,881,1786,0,0
-336,-762,0,0,0,0,0,0,0,0,0,-1,888,1786,0,0
-329,-762,0,0,0,0,0,0,0,0,0,-1,895,1786,0,0
-322,-762,0,0,0,0,0,0,0,0,0,-1,902,1786,0,0
-315,-762,0,0,0,0,0,0,0,0,0,-1,909,1786,0,0
-308,-762,0,0,0,0,0,0,0,0,0,-1,916,1786,0,0
-301,-762,0,0,0,0,0,0,0,0,0,-1,923,1786,0,0
-294,-762,0,0,0,0,0,0,0,0,0,-1,930,1786,0,0
-287,-762,0,0,0,0,0,0,0,0,0,-1,937,1786,0,0
-280,-762,0,0,0,0,0,0,0,0,0,-1,944,1786,0,0
-273,-762,0,0,0,0,0,0,0,0,0,-1,951,1786,0,0
-266,-762,0,0,0,0,0,0,0,0,0,-1,958,1786,0,0
-259,-762,0,0,0,0,0,0,0,0,0,-1,965,1786,0,0
-252,-762,0,0,0,0,0,0,0,0,0,-1,972,1786,0,0
-245,-762,0,0,0,0,0,0,0,0,0,-1,979,1786,0,0
-238,-762,0,0,0,0,0,0,0,0,0,-1,986,1786,0,0
-231,-762,0,0,0,0,0,0,0,0,0,-1,993,1786,0,0
-224,-762,0,0,0,0,0,0,0,0,0,-1,1000,1786,0,0
-217,-762,0,0,0,0,0,0,0,0,0,-1,1007,1786,0,0
-210,-762,0,0,0,0,0,0,0,0,0,-1,1014,1786,0,0
-203,-762,0,0,0,0,0,0,0,0,0,-1,1021,1786,0,0
-196,-762,0,0,0,0,0,0,0,0,0,-1,1028,1786,0,0
-189,-762,0,0,0,0,0,0,0,0,0,-1,1035,1786,0,0
-182,-762,4.44226,13.2462,0,0,0,0,0,0,0,-1,1042,1786,4.44227,-13.2462
-175,-762,4.3219,18.3975,0,0,0,0,0,0,0,-1,1049,1786,4.32192,-18.3974
-168,-762,-2.08618,13.0768,0,0,0,0,0,0,0,-1,1056,1786,-2.08623,-13.0768
-161,-762,-3.29077,11.9508,0,0,0,0,0,0,0,-1,1063,1786,-3.29076,-11.9508
-154,-762,-4.55823,11.1176,0,0,0,0,0,0,0,-1,1070,1786,-4.55828,-11.1175
-147,-762,-6.52454,9.41418,0,0,0,0,0,0,0,-1,1077,1786,-6.52458,-9.41419
-140,-762,4.99792,5.28589,0,0,0,0,0,0,0,-1,1084,1786,4.99793,-5.28587
-133,-762,0.689819,19.2172,0,0,0,0,0,0,0,-1,1091,1786,0.689867,-19.2171
-126,-762,1.48743,19.9288,0,0,0,0,0,0,0,-1,1098,1786,1.48738,-19.9289
-119,-762,2.65637,20.208,0,0,0,0,0,0,0,-1,1105,1786,2.65632,-20.208
-112,-762,6.84705,25.5554,0,0,0,0,0,0,0,-1,1112,1786,6.84706,-25.5554
-105,-762,5.57947,21.618,0,0,0,0,0,0,0,-1,1119,1786,5.57948,-21.618
-98,-762,5.0636,17.9901,0,0,0,0,0,0,0,-1,1126,1786,5.06361,-17.9901
-91,-762,4.54773,14.3622,0,0,0,0,0,0,0,-1,1133,1786,4.54774,-14.3622
-84,-762,3.96375,10.4547,0,0,0,0,0,0,0,-1,1140,1786,3.96371,-10.4548
-77,-762,0.305054,8.49365,0,0,0,0,0,0,0,-1,1147,1786,0.305008,-8.49362
-70,-762,0.183716,6.74622,0,0,0,0,0,0,0,-1,1154,1786,0.183696,-6.74621
-63,-762,-0.883057,9.08813,0,0,0,0,0,0,0,-1,1161,1786,-0.88311,-9.08808
-56,-762,-0.578979,5.10254,0,0,0,0,0,0,0,-1,1168,1786,-0.578951,-5.10249
-49,-762,-2.04541,3.66321,0,0,0,0,0,0,0,-1,1175,1786,-2.0454,-3.66319
-42,-762,-2.23462,3.474,0,0,0,0,0,0,0,-1,1182,1786,-2.23459,-3.47399
-35,-762,-3.28992,1.68164,0,0,0,0,0,0,0,-1,1189,1786,-3.28998,-1.68164
-28,-762,-3.75378,1.37769,0,0,0,0,0,0,0,-1,1196,1786,-3.75373,-1.37767
-21,-762,8.84802,37.4856,0,0,0,0,0,0,0,-1,1203,1786,8.84798,-37.4855
-14,-762,8.36133,38.5765,0,0,0,0,0,0,0,-1,1210,1786,8.36132,-38.5766
-7,-762,8.34253,38.5624,-0.0172637,-0.0166369,0.00115949,-0.0157492,-0.0181514,0.917385,0.011385,0.0487956,1217,1786,8.34251,-38.5624
0,-762,8.32922,38.4755,-0.0166511,-0.0156677,0.00121869,-0.0148452,-0.0174735,0.977136,0.0108793,0.0336821,1224,1786,8.32916,-38.4754
7,-762,8.29187,38.5012,-0.0161862,-0.0144243,0.00101195,-0.0139636,-0.016647,1.14355,0.0103205,0.0193946,1231,1786,8.29186,-38.5012
14,-762,8.19226,38.7853,-0.0160999,-0.01248,0.000820242,-0.0123028,-0.0162771,1.35805,0.00979906,0.0331581,1238,1786,8.1923,-38.7853
21,-762,8.00146,38.8197,-0.0162964,-0.0110616,0.000105548,-0.0110594,-0.0162985,1.55064,0.00960786,0.0429771,1245,1786,8.00151,-38.8197
28,-762,7.98816,38.7174,-0.017694,-0.0105828,-0.000766926,-0.010501,-0.0177758,-1.46458,0.010319,0.0437347,1252,1786,7.98811,-38.7174
35,-762,8.01733,38.8463,-0.0196446,-0.0105872,-0.00174101,-0.0102641,-0.0199677,-1.38729,0.0115299,0.0478253,1259,1786,8.0173,-38.8463
42,-762,8.05139,38.869,-0.0183845,-0.000773972,0.00204063,-0.000540605,-0.0186179,1.45693,0.0122357,0.047164,1266,1786,8.05141,-38.869
49,-762,7.99182,38.8481,-0.0103623,0.00420459,0.00511149,0.00581923,-0.011977,1.26483,0.0104777,0.0372315,1273,1786,7.99182,-38.8482
56,-762,8.03271,38.8317,-0.00717454,0.00918185,0.00801095,0.0124517,-0.0104444,1.18326,0.013236,0.0273193,1280,1786,8.03268,-38.8317
63,-762,7.97791,38.8362,-0.00257126,0.0140133,0.0110828,0.0195627,-0.00812062,1.10658,0.0164317,0.0254691,1287,1786,7.97795,-38.8362
70,-762,7.86682,38.8473,0.0030523,0.018431,0.0144791,0.0271359,-0.00565256,1.02949,0.0202396,0.0258925,1294,1786,7.86685,-38.8473
77,-762,7.79614,38.8427,0.00953205,0.0229105,0.0185361,0.0359274,-0.0034849,0.958563,0.0251937,0.0325833,1301,1786,7.79612,-38.8427
84,-762,7.80469,38.8248,0.0152587,0.0259439,0.0219444,0.0431867,-0.00198405,0.904806,0.0294747,0.0392865,1308,1786,7.80465,-38.8248
91,-762,7.80127,38.8002,0.0208823,0.0278605,0.0251234,0.0497359,-0.000993116,0.854396,0.0334932,0.0478981,1315,1786,7.80124,-38.8002
98,-762,7.8241,38.7683,0.0257349,0.0282995,0.0272013,0.0542487,-0.000214372,0.808951,0.0362375,0.0472058,1322,1786,7.82407,-38.7683
105,-762,7.88452,38.7404,0.0284903,0.0258272,0.0276672,0.0548579,-0.00054048,0.761353,0.0367534,0.04427,1329,1786,7.88456,-38.7403
112,-762,7.78271,38.7224,0.0285382,0.020566,0.0264692,0.0513198,-0.00221562,0.710663,0.0349751,0.0450113,1336,1786,7.78269,-38.7225
119,-762,7.56177,38.6718,0.0259669,0.0133005,0.0234332,0.0439076,-0.00464022,0.653418,0.0309347,0.0454541,1343,1786,7.56173,-38.6717
126,-762,7.59375,38.6575,0.0205433,0.00620554,0.0198344,0.0344646,-0.00771583,0.611986,0.0259338,0.0475491,1350,1786,7.59377,-38.6575
133,-762,7.31189,38.4957,0.015889,0.000668068,0.0162045,0.0261812,-0.00962409,0.56586,0.0213962,0.0471977,1357,1786,7.31187,-38.4957
140,-762,7.08508,38.3134,0.00957941,-0.00501463,0.0122622,0.0165516,-0.0119868,0.517001,0.0165467,0.0453095,1364,1786,7.08512,-38.3133
147,-762,6.9386,38.2054,0,0,0,0,0,0,0,-1,1371,1786,6.93863,-38.2054
154,-762,7.36292,38.4397,0,0,0,0,0,0,0,-1,1378,1786,7.36291,-38.4397
161,-762,8.65051,34.8102,0,0,0,0,0,0,0,-1,1385,1786,8.65054,-34.8101
168,-762,8.19287,0.880615,0,0,0,0,0,0,0,-1,1392,1786,8.19291,-0.880603
175,-762,8.33997,1.95947,0,0,0,0,0,0,0,-1,1399,1786,8.33997,-1.95942
182,-762,8.28418,3.56482,0,0,0,0,0,0,0,-1,1406,1786,8.28415,-3.56485
189,-762,8.21179,5.23389,0,0,0,0,0,0,0,-1,1413,1786,8.21183,-5.23383
196,-762,8.05969,6.95483,0,0,0,0,0,0,0,-1,1420,1786,8.05972,-6.9548
203,-762,24.0077,7.10425,0,0,0,0,0,0,0,-1,1427,1786,24.0077,-7.10426
210,-762,23.8073,7.6499,0,0,0,0,0,0,0,-1,1434,1786,23.8073,-7.64987
217,-762,23.3193,8.24426,0,0,0,0,0,0,0,-1,1441,1786,23.3194,-8.2442
224,-762,2.65149,20.6106,0,0,0,0,0,0,0,-1,1448,1786,2.65153,-20.6106
231,-762,5.46655,23.521,0,0,0,0,0,0,0,-1,1455,1786,5.46653,-23.521
238,-762,5.35632,29.7203,0,0,0,0,0,0,0,-1,1462,1786,5.35629,-29.7203
245,-762,5.84509,28.6954,0,0,0,0,0,0,0,-1,1469,1786,5.84509,-28.6954
252,-762,5.82837,27.7246,0,0,0,0,0,0,0,-1,1476,1786,5.82839,-27.7247
259,-762,10.7311,18.3031,0,0,0,0,0,0,0,-1,1483,1786,10.7311,-18.3031
266,-762,16.451,7.67773,0,0,0,0,0,0,0,-1,1490,1786,16.4511,-7.67773
273,-762,15.287,7.5304,0,0,0,0,0,0,0,-1,1497,1786,15.2869,-7.53044
280,-762,14.1501,7.38379,0,0,0,0,0,0,0,-1,1504,1786,14.1502,-7.38376
287,-762,12.6891,7.99133,0,0,0,0,0,0,0,-1,1511,1786,12.6891,-7.99135
294,-762,12.6959,8.30371,0,0,0,0,0,0,0,-1,1518,1786,12.6959,-8.30368
301,-762,11.4222,8.84143,0,0,0,0,0,0,0,-1,1525,1786,11.4223,-8.84149
308,-762,0,0,0,0,0,0,0,0,0,-1,1532,1786,0,0
315,-762,0,0,0,0,0,0,0,0,0,-1,1539,1786,0,0
322,-762,0,0,0,0,0,0,0,0,0,-1,1546,1786,0,0
329,-762,0,0,0,0,0,0,0,0,0,-1,1553,1786,0,0
336,-762,0,0,0,0,0,0,0,0,0,-1,1560,1786,0,0
343,-762,0,0,0,0,0,0,0,0,0,-1,1567,1786,0,0
350,-762,0,0,0,0,0,0,0,0,0,-1,1574,1786,0,0
357,-762,0,0,0,0,0,0,0,0,0,-1,1581,1786,0,0
364,-762,0,0,0,0,0,0,0,0,0,-1,1588,1786,0,0
371,-762,0,0,0,0,0,0,0,0,0,-1,1595,1786,0,0
378,-762,0,0,0,0,0,0,0,0,0,-1,1602,1786,0,0
385,-762,0,0,0,0,0,0,0,0,0,-1,1609,1786,0,0
392,-762,0,0,0,0,0,0,0,0,0,-1,1616,1786,0,0
399,-762,0,0,0,0,0,0,0,0,0,-1,1623,1786,0,0
406,-762,0,0,0,0,0,0,0,0,0,-1,1630,1786,0,0
413,-762,0,0,0,0,0,0,0,0,0,-1,1637,1786,0,0
420,-762,0,0,0,0,0,0,0,0,0,-1,1644,1786,0,0
427,-762,0,0,0,0,0,0,0,0,0,-1,1651,1786,0,0
434,-762,0,0,0,0,0,0,0,0,0,-1,1658,1786,0,0
441,-762,0,0,0,0,0,0,0,0,0,-1,1665,1786,0,0
448,-762,0,0,0,0,0,0,0,0,0,-1,1672,1786,0,0
455,-762,0,0,0,0,0,0,0,0,0,-1,1679,1786,0,0
462,-762,0,0,0,0,0,0,0,0,0,-1,1686,1786,0,0
469,-762,0,0,0,0,0,0,0,0,0,-1,1693,1786,0,0
476,-762,0,0,0,0,0,0,0,0,0,-1,1700,1786,0,0
483,-762,0,0,0,0,0,0,0,0,0,-1,1707,1786,0,0
490,-762,0,0,0,0,0,0,0,0,0,-1,1714,1786,0,0
497,-762,0,0,0,0,0,0,0,0,0,-1,1721,1786,0,0
504,-762,0,0,0,0,0,0,0,0,0,-1,1728,1786,0,0
511,-762,0,0,0,0,0,0,0,0,0,-1,1735,1786,0,0
518,-762,0,0,0,0,0,0,0,0,0,-1,1742,1786,0,0
525,-762,0,0,0,0,0,0,0,0,0,-1,1749,1786,0,0
532,-762,0,0,0,0,0,0,0,0,0,-1,1756,1786,0,0
539,-762,0,0,0,0,0,0,0,0,0,-1,1763,1786,0,0
546,-762,0,0,0,0,0,0,0,0,0,-1,1770,1786,0,0
553,-762,0,0,0,0,0,0,0,0,0,-1,1777,1786,0,0
560,-762,0,0,0,0,0,0,0,0,0,-1,1784,1786,0,0
567,-762,0,0,0,0,0,0,0,0,0,-1,1791,1786,0,0
574,-762,0,0,0,0,0,0,0,0,0,-1,1798,1786,0,0
581,-762,0,0,0,0,0,0,0,0,0,-1,1805,1786,0,0
588,-762,0,0,0,0,0,0,0,0,0,-1,1812,1786,0,0
595,-762,0,0,0,0,0,0,0,0,0,-1,1819,1786,0,0
602,-762,0,0,0,0,0,0,0,0,0,-1,1826,1786,0,0
609,-762,0,0,0,0,0,0,0,0,0,-1,1833,1786,0,0
616,-762,0,0,0,0,0,0,0,0,0,-1,1840,1786,0,0
623,-762,0,0,0,0,0,0,0,0,0,-1,1847,1786,0,0
630,-762,0,0,0,0,0,0,0,0,0,-1,1854,1786,0,0
637,-762,0,0,0,0,0,0,0,0,0,-1,1861,1786,0,0
644,-762,0,0,0,0,0,0,0,0,0,-1,1868,1786,0,0
651,-762,0,0,0,0,0,0,0,0,0,-1,1875,1786,0,0
658,-762,0,0,0,0,0,0,0,0,0,-1,1882,1786,0,0
665,-762,0,0,0,0,0,0,0,0,0,-1,1889,1786,0,0
672,-762,0,0,0,0,0,0,0,0,0,-1,1896,1786,0,0
679,-762,0,0,0,0,0,0,0,0,0,-1,1903,1786,0,0
686,-762,0,0,0,0,0,0,0,0,0,-1,1910,1786,0,0
693,-762,0,0,0,0,0,0,0,0,0,-1,1917,1786,0,0
700,-762,0,0,0,0,0,0,0,0,0,-1,1924,1786,0,0
707,-762,0,0,0,0,0,0,0,0,0,-1,1931,1786,0,0
714,-762,0,0,0,0,0,0,0,0,0,-1,1938,1786,0,0
721,-762,0,0,0,0,0,0,0,0,0,-1,1945,1786,0,0
728,-762,0,0,0,0,0,0,0,0,0,-1,1952,1786,0,0
735,-762,0,0,0,0,0,0,0,0,0,-1,1959,1786,0,0
742,-762,0,0,0,0,0,0,0,0,0,-1,1966,1786,0,0
749,-762,0,0,0,0,0,0,0,0,0,-1,1973,1786,0,0
756,-762,0,0,0,0,0,0,0,0,0,-1,1980,1786,0,0
763,-762,0,0,0,0,0,0,0,0,0,-1,1987,1786,0,0
770,-762,0,0,0,0,0,0,0,0,0,-1,1994,1786,0,0
777,-762,0,0,0,0,0,0,0,0,0,-1,2001,1786,0,0
784,-762,0,0,0,0,0,0,0,0,0,-1,2008,1786,0,0
791,-762,0,0,0,0,0,0,0,0,0,-1,2015,1786,0,0
798,-762,0,0,0,0,0,0,0,0,0,-1,2022,1786,0,0
805,-762,0,0,0,0,0,0,0,0,0,-1,2029,1786,0,0
812,-762,0,0,0,0,0,0,0,0,0,-1,2036,1786,0,0
-700,-769,0,0,0,0,0,0,0,0,0,-1,524,1793,0,0
-693,-769,0,0,0,0,0,0,0,0,0,-1,531,1793,0,0
-686,-769,0,0,0,0,0,0,0,0,0,-1,538,1793,0,0
-679,-769,0,0,0,0,0,0,0,0,0,-1,545,1793,0,0
-672,-769,0,0,0,0,0,0,0,0,0,-1,552,1793,0,0
-665,-769,0,0,0,0,0,0,0,0,0,-1,559,1793,0,0
-658,-769,0,0,0,0,0,0,0,0,0,-1,566,1793,0,0
-651,-769,0,0,0,0,0,0,0,0,0,-1,573,1793,0,0
-644,-769,0,0,0,0,0,0,0,0,0,-1,580,1793,0,0
-637,-769,0,0,0,0,0,0,0,0,0,-1,587,1793,0,0
-630,-769,0,0,0,0,0,0,0,0,0,-1,594,1793,0,0
-623,-769,0,0,0,0,0,0,0,0,0,-1,601,1793,0,0
-616,-769,0,0,0,0,0,0,0,0,0,-1,608,1793,0,0
-609,-769,0,0,0,0,0,0,0,0,0,-1,615,1793,0,0
-602,-769,0,0,0,0,0,0,0,0,0,-1,622,1793,0,0
-595,-769,0,0,0,0,0,0,0,0,0,-1,629,1793,0,0
-588,-769,0,0,0,0,0,0,0,0,0,-1,636,1793,0,0
-581,-769,0,0,0,0,0,0,0,0,0,-1,643,1793,0,0
-574,-769,0,0,0,0,0,0,0,0,0,-1,650,1793,0,0
-567,-769,0,0,0,0,0,0,0,0,0,-1,657,1793,0,0
-560,-769,0,0,0,0,0,0,0,0,0,-1,664,1793,0,0
-553,-769,0,0,0,0,0,0,0,0,0,-1,671,1793,0,0
-546,-769,0,0,0,0,0,0,0,0,0,-1,678,1793,0,0
-539,-769,0,0,0,0,0,0,0,0,0,-1,685,1793,0,0
-532,-769,0,0,0,0,0,0,0,0,0,-1,692,1793,0,0
-525,-769,0,0,0,0,0,0,0,0,0,-1,699,1793,0,0
-518,-769,0,0,0,0,0,0,0,0,0,-1,706,1793,0,0
-511,-769,0,0,0,0,0,0,0,0,0,-1,713,1793,0,0
-504,-769,0,0,0,0,0,0,0,0,0,-1,720,1793,0,0
-497,-769,0,0,0,0,0,0,0,0,0,-1,727,1793,0,0
-490,-769,0,0,0,0,0,0,0,0,0,-1,734,1793,0,0
-483,-769,0,0,0,0,0,0,0,0,0,-1,741,1793,0,0
-476,-769,0,0,0,0,0,0,0,0,0,-1,748,1793,0,0
-469,-769,0,0,0,0,0,0,0,0,0,-1,755,1793,0,0
-462,-769,0,0,0,0,0,0,0,0,0,-1,762,1793,0,0
-455,-769,0,0,0,0,0,0,0,0,0,-1,769,1793,0,0
-448,-769,0,0,0,0,0,0,0,0,0,-1,776,1793,0,0
-441,-769,0,0,0,0,0,0,0,0,0,-1,783,1793,0,0
-434,-769,0,0,0,0,0,0,0,0,0,-1,790,1793,0,0
-427,-769,0,0,0,0,0,0,0,0,0,-1,797,1793,0,0
-420,-769,0,0,0,0,0,0,0,0,0,-1,804,1793,0,0
-413,-769,0,0,0,0,0,0,0,0,0,-1,811,1793,0,0
-406,-769,0,0,0,0,0,0,0,0,0,-1,818,1793,0,0
-399,-769,0,0,0,0,0,0,0,0,0,-1,825,1793,0,0
-392,-769,0,0,0,0,0,0,0,0,0,-1,832,1793,0,0
-385,-769,0,0,0,0,0,0,0,0,0,-1,839,1793,0,0
-378,-769,0,0,0,0,0,0,0,0,0,-1,846,1793,0,0
-371,-769,0,0,0,0,0,0,0,0,0,-1,853,1793,0,0
-364,-769,0,0,0,0,0,0,0,0,0,-1,860,1793,0,0
-357,-769,0,0,0,0,0,0,0,0,0,-1,867,1793,0,0
-350,-769,0,0,0,0,0,0,0,0,0,-1,874,1793,0,0
-343,-769,0,0,0,0,0,0,0,0,0,-1,881,1793,0,0
-336,-769,0,0,0,0,0,0,0,0,0,-1,888,1793,0,0
-329,-769,0,0,0,0,0,0,0,0,0,-1,895,1793,0,0
-322,-769,0,0,0,0,0,0,0,0,0,-1,902,1793,0,0
-315,-769,0,0,0,0,0,0,0,0,0,-1,909,1793,0,0
-308,-769,0,0,0,0,0,0,0,0,0,-1,916,1793,0,0
-301,-769,0,0,0,0,0,0,0,0,0,-1,923,1793,0,0
-294,-769,0,0,0,0,0,0,0,0,0,-1,930,1793,0,0
-287,-769,0,0,0,0,0,0,0,0,0,-1,937,1793,0,0
-280,-769,0,0,0,0,0,0,0,0,0,-1,944,1793,0,0
-273,-769,0,0,0,0,0,0,0,0,0,-1,951,1793,0,0
-266,-769,0,0,0,0,0,0,0,0,0,-1,958,1793,0,0
-259,-769,0,0,0,0,0,0,0,0,0,-1,965,1793,0,0
-252,-769,0,0,0,0,0,0,0,0,0,-1,972,1793,0,0
-245,-769,0,0,0,0,0,0,0,0,0,-1,979,1793,0,0
-238,-769,0,0,0,0,0,0,0,0,0,-1,986,1793,0,0
-231,-769,0,0,0,0,0,0,0,0,0,-1,993,1793,0,0
-224,-769,0,0,0,0,0,0,0,0,0,-1,1000,1793,0,0
-217,-769,0,0,0,0,0,0,0,0,0,-1,1007,1793,0,0
-210,-769,0,0,0,0,0,0,0,0,0,-1,1014,1793,0,0
-203,-769,0,0,0,0,0,0,0,0,0,-1,1021,1793,0,0
-196,-769,0,0,0,0,0,0,0,0,0,-1,1028,1793,0,0
-189,-769,0,0,0,0,0,0,0,0,0,-1,1035,1793,0,0
-182,-769,0,0,0,0,0,0,0,0,0,-1,1042,1793,0,0
-175,-769,0,0,0,0,0,0,0,0,0,-1,1049,1793,0,0
-168,-769,0,0,0,0,0,0,0,0,0,-1,1056,1793,0,0
-161,-769,-3.61145,12.4761,0,0,0,0,0,0,0,-1,1063,1793,-3.6114,-12.476
-154,-769,-0.813232,5.32874,0,0,0,0,0,0,0,-1,1070,1793,-0.813269,-5.32872
-147,-769,4.26587,4.7002,0,0,0,0,0,0,0,-1,1077,1793,4.26593,-4.70022
-140,-769,4.10376,5.28589,0,0,0,0,0,0,0,-1,1084,1793,4.10371,-5.28584
-133,-769,6.422,8.21777,0,0,0,0,0,0,0,-1,1091,1793,6.42198,-8.21773
-126,-769,-0.352295,19.326,0,0,0,0,0,0,0,-1,1098,1793,-0.352235,-19.326
-119,-769,6.01685,16.2577,0,0,0,0,0,0,0,-1,1105,1793,6.01689,-16.2576
-112,-769,5.76416,27.2615,0,0,0,0,0,0,0,-1,1112,1793,5.7642,-27.2615
-105,-769,4.97009,22.8479,0,0,0,0,0,0,0,-1,1119,1793,4.97006,-22.8479
-98,-769,4.69373,18.9142,0,0,0,0,0,0,0,-1,1126,1793,4.69376,-18.9142
-91,-769,4.41748,14.9805,0,0,0,0,0,0,0,-1,1133,1793,4.41746,-14.9805
-84,-769,3.2207,12.4565,0,0,0,0,0,0,0,-1,1140,1793,3.22066,-12.4565
-77,-769,2.48816,8.98486,0,0,0,0,0,0,0,-1,1147,1793,2.48815,-8.98489
-70,-769,1.04944,11.9852,0,0,0,0,0,0,0,-1,1154,1793,1.04947,-11.9852
-63,-769,-2.39709,9.60339,0,0,0,0,0,0,0,-1,1161,1793,-2.39706,-9.6034
-56,-769,-5.84363,7.22156,0,0,0,0,0,0,0,-1,1168,1793,-5.84359,-7.22157
-49,-769,-2.41443,3.95471,0,0,0,0,0,0,0,-1,1175,1793,-2.41446,-3.95471
-42,-769,-3.1991,2.64941,0,0,0,0,0,0,0,-1,1182,1793,-3.19914,-2.64944
-35,-769,-3.50183,1.73389,0,0,0,0,0,0,0,-1,1189,1793,-3.50189,-1.7339
-28,-769,-3.96985,1.14075,0,0,0,0,0,0,0,-1,1196,1793,-3.96985,-1.14078
-21,-769,7.97278,33.8591,0,0,0,0,0,0,0,-1,1203,1793,7.97275,-33.8592
-14,-769,8.88525,37.3433,0,0,0,0,0,0,0,-1,1210,1793,8.88531,-37.3432
-7,-769,8.44922,38.7764,0,0,0,0,0,0,0,-1,1217,1793,8.44917,-38.7764
0,-769,8.32227,39.2318,-0.0227741,-0.0198668,0.00236358,-0.0185456,-0.0240953,1.06109,0.0145703,0.0451261,1224,1793,8.3223,-39.2318
7,-769,8.54907,38.7086,-0.0218153,-0.0184482,0.00193038,-0.0175704,-0.0226932,1.144,0.0137432,0.0447758,1231,1793,8.54907,-38.7086
14,-769,8.41296,39.1609,-0.0216069,-0.0163897,0.00127401,-0.0160952,-0.0219014,1.34364,0.0131016,0.0433191,1238,1793,8.41296,-39.1609
21,-769,8.00305,38.938,0,0,0,0,0,0,0,-1,1245,1793,8.00305,-38.938
28,-769,7.82764,38.5637,-0.0240066,-0.0145602,-0.00128162,-0.0143895,-0.0241774,-1.43831,0.0140429,0.0413516,1252,1793,7.82758,-38.5637
35,-769,7.651,39.1708,-0.0268591,-0.0149712,-0.00272966,-0.0143744,-0.0274559,-1.35554,0.0158575,0.0460476,1259,1793,7.65104,-39.1708
42,-769,8.19019,39.4283,-0.0257314,-0.00379561,0.00166873,-0.00366939,-0.0258576,1.4953,0.0161548,0.044571,1266,1793,8.19015,-39.4284
49,-769,8.52747,39.2306,-0.0157947,0.00195171,0.00552013,0.00352865,-0.0173716,1.29254,0.0129189,0.0421998,1273,1793,8.52752,-39.2306
56,-769,8.30273,38.5082,-0.0119413,0.00747811,0.00911188,0.011084,-0.0155471,1.19397,0.0154473,0.0441796,1280,1793,8.30273,-38.5081
63,-769,8.13,38.5952,-0.0062528,0.0128403,0.012992,0.0194161,-0.0128285,1.10225,0.0187455,0.0468639,1287,1793,8.12998,-38.5952
70,-769,8.41162,38.7797,0.000746888,0.0176533,0.0172946,0.02845,-0.0100498,1.01271,0.0230586,0.0479417,1294,1793,8.4116,-38.7796
77,-769,7.73926,38.839,0,0,0,0,0,0,0,-1,1301,1793,7.73922,-38.839
84,-769,7.82495,38.8877,0,0,0,0,0,0,0,-1,1308,1793,7.82498,-38.8877
91,-769,7.81714,38.8513,0,0,0,0,0,0,0,-1,1315,1793,7.8171,-38.8513
98,-769,7.88818,38.7288,0,0,0,0,0,0,0,-1,1322,1793,7.88816,-38.7287
105,-769,7.9624,38.6595,0.0346725,0.0245571,0.0344334,0.0644177,-0.00518812,0.712478,0.0447748,0.0470661,1329,1793,7.96246,-38.6595
112,-769,7.95984,38.7373,0.0346417,0.0173232,0.032664,0.0597747,-0.00780988,0.655828,0.0426919,0.0490391,1336,1793,7.95978,-38.7374
119,-769,7.94458,38.774,0,0,0,0,0,0,0,-1,1343,1793,7.94459,-38.7741
126,-769,7.31824,38.7186,0,0,0,0,0,0,0,-1,1350,1793,7.3183,-38.7187
133,-769,7.19299,38.4758,0,0,0,0,0,0,0,-1,1357,1793,7.19301,-38.4759
140,-769,6.97412,38.248,0,0,0,0,0,0,0,-1,1364,1793,6.97417,-38.248
147,-769,7.5332,37.9679,0,0,0,0,0,0,0,-1,1371,1793,7.53318,-37.9679
154,-769,7.76904,34.4832,0,0,0,0,0,0,0,-1,1378,1793,7.7691,-34.4832
161,-769,6.57019,1.53223,0,0,0,0,0,0,0,-1,1385,1793,6.57019,-1.53226
168,-769,8.27637,0.756958,0,0,0,0,0,0,0,-1,1392,1793,8.27639,-0.756944
175,-769,8.47144,2.41174,0,0,0,0,0,0,0,-1,1399,1793,8.47147,-2.4118
182,-769,8.41479,4.05994,0,0,0,0,0,0,0,-1,1406,1793,8.41479,-4.05997
189,-769,8.25049,5.68433,0,0,0,0,0,0,0,-1,1413,1793,8.25054,-5.68428
196,-769,7.97729,7.42847,0,0,0,0,0,0,0,-1,1420,1793,7.9773,-7.42848
203,-769,22.0977,6.73889,0,0,0,0,0,0,0,-1,1427,1793,22.0977,-6.7389
210,-769,22.1115,7.77246,0,0,0,0,0,0,0,-1,1434,1793,22.1115,-7.77248
217,-769,22.4723,8.79102,0,0,0,0,0,0,0,-1,1441,1793,22.4723,-8.79099
224,-769,22.1348,9.35278,0,0,0,0,0,0,0,-1,1448,1793,22.1348,-9.35283
231,-769,3.13318,19.7184,0,0,0,0,0,0,0,-1,1455,1793,3.13323,-19.7184
238,-769,5.74512,18.6597,0,0,0,0,0,0,0,-1,1462,1793,5.74512,-18.6596
245,-769,5.80798,22.87,0,0,0,0,0,0,0,-1,1469,1793,5.80796,-22.87
252,-769,8.39099,20.3199,0,0,0,0,0,0,0,-1,1476,1793,8.39098,-20.3199
259,-769,10.974,17.7698,0,0,0,0,0,0,0,-1,1483,1793,10.974,-17.7698
266,-769,15.8488,7.3905,0,0,0,0,0,0,0,-1,1490,1793,15.8488,-7.39046
273,-769,14.8075,7.56152,0,0,0,0,0,0,0,-1,1497,1793,14.8075,-7.56152
280,-769,13.6519,7.43054,0,0,0,0,0,0,0,-1,1504,1793,13.6518,-7.43058
287,-769,0,0,0,0,0,0,0,0,0,-1,1511,1793,0,0
294,-769,0,0,0,0,0,0,0,0,0,-1,1518,1793,0,0
301,-769,0,0,0,0,0,0,0,0,0,-1,1525,1793,0,0
308,-769,0,0,0,0,0,0,0,0,0,-1,1532,1793,0,0
315,-769,0,0,0,0,0,0,0,0,0,-1,1539,1793,0,0
322,-769,0,0,0,0,0,0,0,0,0,-1,1546,1793,0,0
329,-769,0,0,0,0,0,0,0,0,0,-1,1553,1793,0,0
336,-769,0,0,0,0,0,0,0,0,0,-1,1560,1793,0,0
343,-769,0,0,0,0,0,0,0,0,0,-1,1567,1793,0,0
350,-769,0,0,0,0,0,0,0,0,0,-1,1574,1793,0,0
357,-769,0,0,0,0,0,0,0,0,0,-1,1581,1793,0,0
364,-769,0,0,0,0,0,0,0,0,0,-1,1588,1793,0,0
371,-769,0,0,0,0,0,0,0,0,0,-1,1595,1793,0,0
378,-769,0,0,0,0,0,0,0,0,0,-1,1602,1793,0,0
385,-769,0,0,0,0,0,0,0,0,0,-1,1609,1793,0,0
392,-769,0,0,0,0,0,0,0,0,0,-1,1616,1793,0,0
399,-769,0,0,0,0,0,0,0,0,0,-1,1623,1793,0,0
406,-769,0,0,0,0,0,0,0,0,0,-1,1630,1793,0,0
413,-769,0,0,0,0,0,0,0,0,0,-1,1637,1793,0,0
420,-769,0,0,0,0,0,0,0,0,0,-1,1644,1793,0,0
427,-769,0,0,0,0,0,0,0,0,0,-1,1651,1793,0,0
434,-769,0,0,0,0,0,0,0,0,0,-1,1658,1793,0,0
441,-769,0,0,0,0,0,0,0,0,0,-1,1665,1793,0,0
448,-769,0,0,0,0,0,0,0,0,0,-1,1672,1793,0,0
455,-769,0,0,0,0,0,0,0,0,0,-1,1679,1793,0,0
462,-769,0,0,0,0,0,0,0,0,0,-1,1686,1793,0,0
469,-769,0,0,0,0,0,0,0,0,0,-1,1693,1793,0,0
476,-769,0,0,0,0,0,0,0,0,0,-1,1700,1793,0,0
483,-769,0,0,0,0,0,0,0,0,0,-1,1707,1793,0,0
490,-769,0,0,0,0,0,0,0,0,0,-1,1714,1793,0,0
497,-769,0,0,0,0,0,0,0,0,0,-1,1721,1793,0,0
504,-769,0,0,0,0,0,0,0,0,0,-1,1728,1793,0,0
511,-769,0,0,0,0,0,0,0,0,0,-1,1735,1793,0,0
518,-769,0,0,0,0,0,0,0,0,0,-1,1742,1793,0,0
525,-769,0,0,0,0,0,0,0,0,0,-1,1749,1793,0,0
532,-769,0,0,0,0,0,0,0,0,0,-1,1756,1793,0,0
539,-769,0,0,0,0,0,0,0,0,0,-1,1763,1793,0,0
546,-769,0,0,0,0,0,0,0,0,0,-1,1770,1793,0,0
553,-769,0,0,0,0,0,0,0,0,0,-1,1777,1793,0,0
560,-769,0,0,0,0,0,0,0,0,0,-1,1784,1793,0,0
567,-769,0,0,0,0,0,0,0,0,0,-1,1791,1793,0,0
574,-769,0,0,0,0,0,0,0,0,0,-1,1798,1793,0,0
581,-769,0,0,0,0,0,0,0,0,0,-1,1805,1793,0,0
588,-769,0,0,0,0,0,0,0,0,0,-1,1812,1793,0,0
595,-769,0,0,0,0,0,0,0,0,0,-1,1819,1793,0,0
602,-769,0,0,0,0,0,0,0,0,0,-1,1826,1793,0,0
609,-769,0,0,0,0,0,0,0,0,0,-1,1833,1793,0,0
616,-769,0,0,0,0,0,0,0,0,0,-1,1840,1793,0,0
623,-769,0,0,0,0,0,0,0,0,0,-1,1847,1793,0,0
630,-769,0,0,0,0,0,0,0,0,0,-1,1854,1793,0,0
637,-769,0,0,0,0,0,0,0,0,0,-1,1861,1793,0,0
644,-769,0,0,0,0,0,0,0,0,0,-1,1868,1793,0,0
651,-769,0,0,0,0,0,0,0,0,0,-1,1875,1793,0,0
658,-769,0,0,0,0,0,0,0,0,0,-1,1882,1793,0,0
665,-769,0,0,0,0,0,0,0,0,0,-1,1889,1793,0,0
672,-769,0,0,0,0,0,0,0,0,0,-1,1896,1793,0,0
679,-769,0,0,0,0,0,0,0,0,0,-1,1903,1793,0,0
686,-769,0,0,0,0,0,0,0,0,0,-1,1910,1793,0,0
693,-769,0,0,0,0,0,0,0,0,0,-1,1917,1793,0,0
700,-769,0,0,0,0,0,0,0,0,0,-1,1924,1793,0,0
707,-769,0,0,0,0,0,0,0,0,0,-1,1931,1793,0,0
714,-769,0,0,0,0,0,0,0,0,0,-1,1938,1793,0,0
721,-769,0,0,0,0,0,0,0,0,0,-1,1945,1793,0,0
728,-769,0,0,0,0,0,0,0,0,0,-1,1952,1793,0,0
735,-769,0,0,0,0,0,0,0,0,0,-1,1959,1793,0,0
742,-769,0,0,0,0,0,0,0,0,0,-1,1966,1793,0,0
749,-769,0,0,0,0,0,0,0,0,0,-1,1973,1793,0,0
756,-769,0,0,0,0,0,0,0,0,0,-1,1980,1793,0,0
763,-769,0,0,0,0,0,0,0,0,0,-1,1987,1793,0,0
770,-769,0,0,0,0,0,0,0,0,0,-1,1994,1793,0,0
777,-769,0,0,0,0,0,0,0,0,0,-1,2001,1793,0,0
784,-769,0,0,0,0,0,0,0,0,0,-1,2008,1793,0,0
791,-769,0,0,0,0,0,0,0,0,0,-1,2015,1793,0,0
798,-769,0,0,0,0,0,0,0,0,0,-1,2022,1793,0,0
805,-769,0,0,0,0,0,0,0,0,0,-1,2029,1793,0,0
812,-769,0,0,0,0,0,0,0,0,0,-1,2036,1793,0,0
-700,-776,0,0,0,0,0,0,0,0,0,-1,524,1800,0,0
-693,-776,0,0,0,0,0,0,0,0,0,-1,531,1800,0,0
-686,-776,0,0,0,0,0,0,0,0,0,-1,538,1800,0,0
-679,-776,0,0,0,0,0,0,0,0,0,-1,545,1800,0,0
-672,-776,0,0,0,0,0,0,0,0,0,-1,552,1800,0,0
-665,-776,0,0,0,0,0,0,0,0,0,-1,559,1800,0,0
-658,-776,0,0,0,0,0,0,0,0,0,-1,566,1800,0,0
-651,-776,0,0,0,0,0,0,0,0,0,-1,573,1800,0,0
-644,-776,0,0,0,0,0,0,0,0,0,-1,580,1800,0,0
-637,-776,0,0,0,0,0,0,0,0,0,-1,587,1800,0,0
-630,-776,0,0,0,0,0,0,0,0,0,-1,594,1800,0,0
-623,-776,0,0,0,0,0,0,0,0,0,-1,601,1800,0,0
-616,-776,0,0,0,0,0,0,0,0,0,-1,608,1800,0,0
-609,-776,0,0,0,0,0,0,0,0,0,-1,615,1800,0,0
-602,-776,0,0,0,0,0,0,0,0,0,-1,622,1800,0,0
-595,-776,0,0,0,0,0,0,0,0,0,-1,629,1800,0,0
-588,-776,0,0,0,0,0,0,0,0,0,-1,636,1800,0,0
-581,-776,0,0,0,0,0,0,0,0,0,-1,643,1800,0,0
-574,-776,0,0,0,0,0,0,0,0,0,-1,650,1800,0,0
-567,-776,0,0,0,0,0,0,0,0,0,-1,657,1800,0,0
-560,-776,0,0,0,0,0,0,0,0,0,-1,664,1800,0,0
-553,-776,0,0,0,0,0,0,0,0,0,-1,671,1800,0,0
-546,-776,0,0,0,0,0,0,0,0,0,-1,678,1800,0,0
-539,-776,0,0,0,0,0,0,0,0,0,-1,685,1800,0,0
-532,-776,0,0,0,0,0,0,0,0,0,-1,692,1800,0,0
-525,-776,0,0,0,0,0,0,0,0,0,-1,699,1800,0,0
-518,-776,0,0,0,0,0,0,0,0,0,-1,706,1800,0,0
-511,-776,0,0,0,0,0,0,0,0,0,-1,713,1800,0,0
-504,-776,0,0,0,0,0,0,0,0,0,-1,720,1800,0,0
-497,-776,0,0,0,0,0,0,0,0,0,-1,727,1800,0,0
-490,-776,0,0,0,0,0,0,0,0,0,-1,734,1800,0,0
-483,-776,0,0,0,0,0,0,0,0,0,-1,741,1800,0,0
-476,-776,0,0,0,0,0,0,0,0,0,-1,748,1800,0,0
-469,-776,0,0,0,0,0,0,0,0,0,-1,755,1800,0,0
-462,-776,0,0,0,0,0,0,0,0,0,-1,762,1800,0,0
-455,-776,0,0,0,0,0,0,0,0,0,-1,769,1800,0,0
-448,-776,0,0,0,0,0,0,0,0,0,-1,776,1800,0,0
-441,-776,0,0,0,0,0,0,0,0,0,-1,783,1800,0,0
-434,-776,0,0,0,0,0,0,0,0,0,-1,790,1800,0,0
-427,-776,0,0,0,0,0,0,0,0,0,-1,797,1800,0,0
-420,-776,0,0,0,0,0,0,0,0,0,-1,804,1800,0,0
-413,-776,0,0,0,0,0,0,0,0,0,-1,811,1800,0,0
-406,-776,0,0,0,0,0,0,0,0,0,-1,818,1800,0,0
-399,-776,0,0,0,0,0,0,0,0,0,-1,825,1800,0,0
-392,-776,0,0,0,0,0,0,0,0,0,-1,832,1800,0,0
-385,-776,0,0,0,0,0,0,0,0,0,-1,839,1800,0,0
-378,-776,0,0,0,0,0,0,0,0,0,-1,846,1800,0,0
-371,-776,0,0,0,0,0,0,0,0,0,-1,853,1800,0,0
-364,-776,0,0,0,0,0,0,0,0,0,-1,860,1800,0,0
-357,-776,0,0,0,0,0,0,0,0,0,-1,867,1800,0,0
-350,-776,0,0,0,0,0,0,0,0,0,-1,874,1800,0,0
-343,-776,0,0,0,0,0,0,0,0,0,-1,881,1800,0,0
-336,-776,0,0,0,0,0,0,0,0,0,-1,888,1800,0,0
-329,-776,0,0,0,0,0,0,0,0,0,-1,895,1800,0,0
-322,-776,0,0,0,0,0,0,0,0,0,-1,902,1800,0,0
-315,-776,0,0,0,0,0,0,0,0,0,-1,909,1800,0,0
-308,-776,0,0,0,0,0,0,0,0,0,-1,916,1800,0,0
-301,-776,0,0,0,0,0,0,0,0,0,-1,923,1800,0,0
-294,-776,0,0,0,0,0,0,0,0,0,-1,930,1800,0,0
-287,-776,0,0,0,0,0,0,0,0,0,-1,937,1800,0,0
-280,-776,0,0,0,0,0,0,0,0,0,-1,944,1800,0,0
-273,-776,0,0,0,0,0,0,0,0,0,-1,951,1800,0,0
-266,-776,0,0,0,0,0,0,0,0,0,-1,958,1800,0,0
-259,-776,0,0,0,0,0,0,0,0,0,-1,965,1800,0,0
-252,-776,0,0,0,0,0,0,0,0,0,-1,972,1800,0,0
-245,-776,0,0,0,0,0,0,0,0,0,-1,979,1800,0,0
-238,-776,0,0,0,0,0,0,0,0,0,-1,986,1800,0,0
-231,-776,0,0,0,0,0,0,0,0,0,-1,993,1800,0,0
-224,-776,0,0,0,0,0,0,0,0,0,-1,1000,1800,0,0
-217,-776,0,0,0,0,0,0,0,0,0,-1,1007,1800,0,0
-210,-776,0,0,0,0,0,0,0,0,0,-1,1014,1800,0,0
-203,-776,0,0,0,0,0,0,0,0,0,-1,1021,1800,0,0
-196,-776,0,0,0,0,0,0,0,0,0,-1,1028,1800,0,0
-189,-776,0,0,0,0,0,0,0,0,0,-1,1035,1800,0,0
-182,-776,0,0,0,0,0,0,0,0,0,-1,1042,1800,0,0
-175,-776,0,0,0,0,0,0,0,0,0,-1,1049,1800,0,0
-168,-776,0,0,0,0,0,0,0,0,0,-1,1056,1800,0,0
-161,-776,0,0,0,0,0,0,0,0,0,-1,1063,1800,0,0
-154,-776,0,0,0,0,0,0,0,0,0,-1,1070,1800,0,0
-147,-776,0,0,0,0,0,0,0,0,0,-1,1077,1800,0,0
-140,-776,2.98499,5.20911,0,0,0,0,0,0,0,-1,1084,1800,2.98493,-5.2091
-133,-776,6.72363,9.35828,0,0,0,0,0,0,0,-1,1091,1800,6.72358,-9.35824
-126,-776,6.55029,13.7832,0,0,0,0,0,0,0,-1,1098,1800,6.55029,-13.7832
-119,-776,5.72107,13.7787,0,0,0,0,0,0,0,-1,1105,1800,5.72106,-13.7787
-112,-776,6.84998,20.4421,0,0,0,0,0,0,0,-1,1112,1800,6.84993,-20.4421
-105,-776,4.46863,24.6742,0,0,0,0,0,0,0,-1,1119,1800,4.46868,-24.6742
-98,-776,4.31616,19.7659,0,0,0,0,0,0,0,-1,1126,1800,4.31619,-19.7659
-91,-776,3.30225,18.134,0,0,0,0,0,0,0,-1,1133,1800,3.30222,-18.134
-84,-776,2.67932,14.3162,0,0,0,0,0,0,0,-1,1140,1800,2.67926,-14.3161
-77,-776,0.580078,11.1272,0,0,0,0,0,0,0,-1,1147,1800,0.58002,-11.1272
-70,-776,-0.562866,12.3163,0,0,0,0,0,0,0,-1,1154,1800,-0.562897,-12.3163
-63,-776,-3.96106,9.97656,0,0,0,0,0,0,0,-1,1161,1800,-3.961,-9.97654
-56,-776,-7.35913,7.63672,0,0,0,0,0,0,0,-1,1168,1800,-7.3591,-7.63676
-49,-776,-7.62952,3.1908,0,0,0,0,0,0,0,-1,1175,1800,-7.62955,-3.19076
-42,-776,-3.41272,3.0249,0,0,0,0,0,0,0,-1,1182,1800,-3.41269,-3.02488
-35,-776,-3.71753,1.63635,0,0,0,0,0,0,0,-1,1189,1800,-3.71755,-1.63631
-28,-776,-4.03979,0.716064,0,0,0,0,0,0,0,-1,1196,1800,-4.03977,-0.716055
-21,-776,8.56567,36.7518,0,0,0,0,0,0,0,-1,1203,1800,8.56565,-36.7518
-14,-776,8.8363,37.09,0,0,0,0,0,0,0,-1,1210,1800,8.83626,-37.0899
-7,-776,8.2478,39.8802,0,0,0,0,0,0,0,-1,1217,1800,8.24779,-39.8802
0,-776,8.49744,39.8964,-0.0304756,-0.0243462,0.0042015,-0.0222104,-0.0326114,1.1005,0.0192353,0.0450558,1224,1800,8.49749,-39.8964
7,-776,8.74194,38.7854,-0.0287055,-0.022903,0.0033612,-0.0213641,-0.0302444,1.14144,0.0179506,0.046123,1231,1800,8.742,-38.7854
14,-776,8.56274,39.2219,-0.0282851,-0.0210221,0.00191114,-0.0205499,-0.0287573,1.32858,0.0171052,0.0470555,1238,1800,8.5627,-39.2219
21,-776,7.64685,38.5835,-0.0289754,-0.0195124,3.07277e-05,-0.0195123,-0.0289755,1.56755,0.0170611,0.042154,1245,1800,7.64684,-38.5835
28,-776,7.5813,38.3223,-0.0317044,-0.0196365,-0.0020554,-0.0192961,-0.0320449,-1.40664,0.0186294,0.0428712,1252,1800,7.58129,-38.3222
35,-776,7.36108,38.0686,-0.0356645,-0.020663,-0.00414461,-0.0195941,-0.0367335,-1.31839,0.0212239,0.0476216,1259,1800,7.36102,-38.0686
42,-776,7.18176,37.8362,0,0,0,0,0,0,0,-1,1266,1800,7.18179,-37.8362
49,-776,9.01123,39.4568,0,0,0,0,0,0,0,-1,1273,1800,9.01127,-39.4568
56,-776,8.68665,38.0599,-0.0191311,0.00295827,0.00929033,0.00634603,-0.0225188,1.22113,0.0175154,0.0452864,1280,1800,8.68659,-38.06
63,-776,8.40601,38.4362,-0.0124575,0.00848024,0.0139631,0.0154632,-0.0194405,1.10707,0.0201952,0.0451938,1287,1800,8.40606,-38.4362
70,-776,8.89063,38.465,0,0,0,0,0,0,0,-1,1294,1800,8.89058,-38.465
77,-776,2.80493,31.183,0,0,0,0,0,0,0,-1,1301,1800,2.80491,-31.1829
84,-776,7.85022,38.8665,0,0,0,0,0,0,0,-1,1308,1800,7.8502,-38.8665
91,-776,8.92615,37.6609,0.0253193,0.0240918,0.036537,0.0612477,-0.0118365,0.777,0.0452958,0.0436537,1315,1800,8.92614,-37.6609
98,-776,8.3717,38.2111,0.0338239,0.0230808,0.0397463,0.06856,-0.0116553,0.718232,0.0500462,0.0429847,1322,1800,8.37172,-38.2111
105,-776,7.96716,38.5588,0.038385,0.0173913,0.0399967,0.0692393,-0.013463,0.65707,0.0512402,0.0481083,1329,1800,7.96713,-38.5588
112,-776,7.96582,38.6669,0,0,0,0,0,0,0,-1,1336,1800,7.96584,-38.6669
119,-776,6.52917,38.9994,0,0,0,0,0,0,0,-1,1343,1800,6.52921,-38.9994
126,-776,6.87012,38.4741,0,0,0,0,0,0,0,-1,1350,1800,6.87008,-38.4741
133,-776,7.09045,37.8079,0,0,0,0,0,0,0,-1,1357,1800,7.0905,-37.8079
140,-776,7.19897,37.249,0,0,0,0,0,0,0,-1,1364,1800,7.19893,-37.2491
147,-776,4.38184,33.3923,0,0,0,0,0,0,0,-1,1371,1800,4.38185,-33.3923
154,-776,38.4338,21.854,0,0,0,0,0,0,0,-1,1378,1800,38.4339,-21.854
161,-776,6.50293,1.1731,0,0,0,0,0,0,0,-1,1385,1800,6.5029,-1.17313
168,-776,8.44971,1.22913,0,0,0,0,0,0,0,-1,1392,1800,8.44974,-1.22915
175,-776,8.61523,2.87061,0,0,0,0,0,0,0,-1,1399,1800,8.6152,-2.87063
182,-776,8.54065,4.60645,0,0,0,0,0,0,0,-1,1406,1800,8.5407,-4.60643
189,-776,8.35303,6.28223,0,0,0,0,0,0,0,-1,1413,1800,8.35297,-6.28225
196,-776,8.0387,8.21704,0,0,0,0,0,0,0,-1,1420,1800,8.03865,-8.217
203,-776,7.91736,9.79919,0,0,0,0,0,0,0,-1,1427,1800,7.91735,-9.79922
210,-776,20.2479,7.85718,0,0,0,0,0,0,0,-1,1434,1800,20.248,-7.85719
217,-776,21.5171,9.3418,0,0,0,0,0,0,0,-1,1441,1800,21.5171,-9.34182
224,-776,3.09253,14.9313,0,0,0,0,0,0,0,-1,1448,1800,3.09254,-14.9313
231,-776,20.8671,9.21057,0,0,0,0,0,0,0,-1,1455,1800,20.867,-9.21054
238,-776,20.7511,9.05847,0,0,0,0,0,0,0,-1,1462,1800,20.7511,-9.05848
245,-776,3.80823,15.4108,0,0,0,0,0,0,0,-1,1469,1800,3.80826,-15.4108
252,-776,8.57837,20.2009,0,0,0,0,0,0,0,-1,1476,1800,8.57841,-20.2009
259,-776,14.1882,7.69055,0,0,0,0,0,0,0,-1,1483,1800,14.1882,-7.69061
266,-776,0,0,0,0,0,0,0,0,0,-1,1490,1800,0,0
273,-776,0,0,0,0,0,0,0,0,0,-1,1497,1800,0,0
280,-776,0,0,0,0,0,0,0,0,0,-1,1504,1800,0,0
287,-776,0,0,0,0,0,0,0,0,0,-1,1511,1800,0,0
294,-776,0,0,0,0,0,0,0,0,0,-1,1518,1800,0,0
301,-776,0,0,0,0,0,0,0,0,0,-1,1525,1800,0,0
308,-776,0,0,0,0,0,0,0,0,0,-1,1532,1800,0,0
315,-776,0,0,0,0,0,0,0,0,0,-1,1539,1800,0,0
322,-776,0,0,0,0,0,0,0,0,0,-1,1546,1800,0,0
329,-776,0,0,0,0,0,0,0,0,0,-1,1553,1800,0,0
336,-776,0,0,0,0,0,0,0,0,0,-1,1560,1800,0,0
343,-776,0,0,0,0,0,0,0,0,0,-1,1567,1800,0,0
350,-776,0,0,0,0,0,0,0,0,0,-1,1574,1800,0,0
357,-776,0,0,0,0,0,0,0,0,0,-1,1581,1800,0,0
364,-776,0,0,0,0,0,0,0,0,0,-1,1588,1800,0,0
371,-776,0,0,0,0,0,0,0,0,0,-1,1595,1800,0,0
378,-776,0,0,0,0,0,0,0,0,0,-1,1602,1800,0,0
385,-776,0,0,0,0,0,0,0,0,0,-1,1609,1800,0,0
392,-776,0,0,0,0,0,0,0,0,0,-1,1616,1800,0,0
399,-776,0,0,0,0,0,0,0,0,0,-1,1623,1800,0,0
406,-776,0,0,0,0,0,0,0,0,0,-1,1630,1800,0,0
413,-776,0,0,0,0,0,0,0,0,0,-1,1637,1800,0,0
420,-776,0,0,0,0,0,0,0,0,0,-1,1644,1800,0,0
427,-776,0,0,0,0,0,0,0,0,0,-1,1651,1800,0,0
434,-776,0,0,0,0,0,0,0,0,0,-1,1658,1800,0,0
441,-776,0,0,0,0,0,0,0,0,0,-1,1665,1800,0,0
448,-776,0,0,0,0,0,0,0,0,0,-1,1672,1800,0,0
455,-776,0,0,0,0,0,0,0,0,0,-1,1679,1800,0,0
462,-776,0,0,0,0,0,0,0,0,0,-1,1686,1800,0,0
469,-776,0,0,0,0,0,0,0,0,0,-1,1693,1800,0,0
476,-776,0,0,0,0,0,0,0,0,0,-1,1700,1800,0,0
483,-776,0,0,0,0,0,0,0,0,0,-1,1707,1800,0,0
490,-776,0,0,0,0,0,0,0,0,0,-1,1714,1800,0,0
497,-776,0,0,0,0,0,0,0,0,0,-1,1721,1800,0,0
504,-776,0,0,0,0,0,0,0,0,0,-1,1728,1800,0,0
511,-776,0,0,0,0,0,0,0,0,0,-1,1735,1800,0,0
518,-776,0,0,0,0,0,0,0,0,0,-1,1742,1800,0,0
525,-776,0,0,0,0,0,0,0,0,0,-1,1749,1800,0,0
532,-776,0,0,0,0,0,0,0,0,0,-1,1756,1800,0,0
539,-776,0,0,0,0,0,0,0,0,0,-1,1763,1800,0,0
546,-776,0,0,0,0,0,0,0,0,0,-1,1770,1800,0,0
553,-776,0,0,0,0,0,0,0,0,0,-1,1777,1800,0,0
560,-776,0,0,0,0,0,0,0,0,0,-1,1784,1800,0,0
567,-776,0,0,0,0,0,0,0,0,0,-1,1791,1800,0,0
574,-776,0,0,0,0,0,0,0,0,0,-1,1798,1800,0,0
581,-776,0,0,0,0,0,0,0,0,0,-1,1805,1800,0,0
588,-776,0,0,0,0,0,0,0,0,0,-1,1812,1800,0,0
595,-776,0,0,0,0,0,0,0,0,0,-1,1819,1800,0,0
602,-776,0,0,0,0,0,0,0,0,0,-1,1826,1800,0,0
609,-776,0,0,0,0,0,0,0,0,0,-1,1833,1800,0,0
616,-776,0,0,0,0,0,0,0,0,0,-1,1840,1800,0,0
623,-776,0,0,0,0,0,0,0,0,0,-1,1847,1800,0,0
630,-776,0,0,0,0,0,0,0,0,0,-1,1854,1800,0,0
637,-776,0,0,0,0,0,0,0,0,0,-1,1861,1800,0,0
644,-776,0,0,0,0,0,0,0,0,0,-1,1868,1800,0,0
651,-776,0,0,0,0,0,0,0,0,0,-1,1875,1800,0,0
658,-776,0,0,0,0,0,0,0,0,0,-1,1882,1800,0,0
665,-776,0,0,0,0,0,0,0,0,0,-1,1889,1800,0,0
672,-776,0,0,0,0,0,0,0,0,0,-1,1896,1800,0,0
679,-776,0,0,0,0,0,0,0,0,0,-1,1903,1800,0,0
686,-776,0,0,0,0,0,0,0,0,0,-1,1910,1800,0,0
693,-776,0,0,0,0,0,0,0,0,0,-1,1917,1800,0,0
700,-776,0,0,0,0,0,0,0,0,0,-1,1924,1800,0,0
707,-776,0,0,0,0,0,0,0,0,0,-1,1931,1800,0,0
714,-776,0,0,0,0,0,0,0,0,0,-1,1938,1800,0,0
721,-776,0,0,0,0,0,0,0,0,0,-1,1945,1800,0,0
728,-776,0,0,0,0,0,0,0,0,0,-1,1952,1800,0,0
735,-776,0,0,0,0,0,0,0,0,0,-1,1959,1800,0,0
742,-776,0,0,0,0,0,0,0,0,0,-1,1966,1800,0,0
749,-776,0,0,0,0,0,0,0,0,0,-1,1973,1800,0,0
756,-776,0,0,0,0,0,0,0,0,0,-1,1980,1800,0,0
763,-776,0,0,0,0,0,0,0,0,0,-1,1987,1800,0,0
770,-776,0,0,0,0,0,0,0,0,0,-1,1994,1800,0,0
777,-776,0,0,0,0,0,0,0,0,0,-1,2001,1800,0,0
784,-776,0,0,0,0,0,0,0,0,0,-1,2008,1800,0,0
791,-776,0,0,0,0,0,0,0,0,0,-1,2015,1800,0,0
798,-776,0,0,0,0,0,0,0,0,0,-1,2022,1800,0,0
805,-776,0,0,0,0,0,0,0,0,0,-1,2029,1800,0,0
812,-776,0,0,0,0,0,0,0,0,0,-1,2036,1800,0,0
-700,-783,0,0,0,0,0,0,0,0,0,-1,524,1807,0,0
-693,-783,0,0,0,0,0,0,0,0,0,-1,531,1807,0,0
-686,-783,0,0,0,0,0,0,0,0,0,-1,538,1807,0,0
-679,-783,0,0,0,0,0,0,0,0,0,-1,545,1807,0,0
-672,-783,0,0,0,0,0,0,0,0,0,-1,552,1807,0,0
-665,-783,0,0,0,0,0,0,0,0,0,-1,559,1807,0,0
-658,-783,0,0,0,0,0,0,0,0,0,-1,566,1807,0,0
-651,-783,0,0,0,0,0,0,0,0,0,-1,573,1807,0,0
-644,-783,0,0,0,0,0,0,0,0,0,-1,580,1807,0,0
-637,-783,0,0,0,0,0,0,0,0,0,-1,587,1807,0,0
-630,-783,0,0,0,0,0,0,0,0,0,-1,594,1807,0,0
-623,-783,0,0,0,0,0,0,0,0,0,-1,601,1807,0,0
-616,-783,0,0,0,0,0,0,0,0,0,-1,608,1807,0,0
-609,-783,0,0,0,0,0,0,0,0,0,-1,615,1807,0,0
-602,-783,0,0,0,0,0,0,0,0,0,-1,622,1807,0,0
-595,-783,0,0,0,0,0,0,0,0,0,-1,629,1807,0,0
-588,-783,0,0,0,0,0,0,0,0,0,-1,636,1807,0,0
-581,-783,0,0,0,0,0,0,0,0,0,-1,643,1807,0,0
-574,-783,0,0,0,0,0,0,0,0,0,-1,650,1807,0,0
-567,-783,0,0,0,0,0,0,0,0,0,-1,657,1807,0,0
-560,-783,0,0,0,0,0,0,0,0,0,-1,664,1807,0,0
-553,-783,0,0,0,0,0,0,0,0,0,-1,671,1807,0,0
-546,-783,0,0,0,0,0,0,0,0,0,-1,678,1807,0,0
-539,-783,0,0,0,0,0,0,0,0,0,-1,685,1807,0,0
-532,-783,0,0,0,0,0,0,0,0,0,-1,692,1807,0,0
-525,-783,0,0,0,0,0,0,0,0,0,-1,699,1807,0,0
-518,-783,0,0,0,0,0,0,0,0,0,-1,706,1807,0,0
-511,-783,0,0,0,0,0,0,0,0,0,-1,713,1807,0,0
-504,-783,0,0,0,0,0,0,0,0,0,-1,720,1807,0,0
-497,-783,0,0,0,0,0,0,0,0,0,-1,727,1807,0,0
-490,-783,0,0,0,0,0,0,0,0,0,-1,734,1807,0,0
-483,-783,0,0,0,0,0,0,0,0,0,-1,741,1807,0,0
-476,-783,0,0,0,0,0,0,0,0,0,-1,748,1807,0,0
-469,-783,0,0,0,0,0,0,0,0,0,-1,755,1807,0,0
-462,-783,0,0,0,0,0,0,0,0,0,-1,762,1807,0,0
-455,-783,0,0,0,0,0,0,0,0,0,-1,769,1807,0,0
-448,-783,0,0,0,0,0,0,0,0,0,-1,776,1807,0,0
-441,-783,0,0,0,0,0,0,0,0,0,-1,783,1807,0,0
-434,-783,0,0,0,0,0,0,0,0,0,-1,790,1807,0,0
-427,-783,0,0,0,0,0,0,0,0,0,-1,797,1807,0,0
-420,-783,0,0,0,0,0,0,0,0,0,-1,804,1807,0,0
-413,-783,0,0,0,0,0,0,0,0,0,-1,811,1807,0,0
-406,-783,0,0,0,0,0,0,0,0,0,-1,818,1807,0,0
-399,-783,0,0,0,0,0,0,0,0,0,-1,825,1807,0,0
-392,-783,0,0,0,0,0,0,0,0,0,-1,832,1807,0,0
-385,-783,0,0,0,0,0,0,0,0,0,-1,839,1807,0,0
-378,-783,0,0,0,0,0,0,0,0,0,-1,846,1807,0,0
-371,-783,0,0,0,0,0,0,0,0,0,-1,853,1807,0,0
-364,-783,0,0,0,0,0,0,0,0,0,-1,860,1807,0,0
-357,-783,0,0,0,0,0,0,0,0,0,-1,867,1807,0,0
-350,-783,0,0,0,0,0,0,0,0,0,-1,874,1807,0,0
-343,-783,0,0,0,0,0,0,0,0,0,-1,881,1807,0,0
-336,-783,0,0,0,0,0,0,0,0,0,-1,888,1807,0,0
-329,-783,0,0,0,0,0,0,0,0,0,-1,895,1807,0,0
-322,-783,0,0,0,0,0,0,0,0,0,-1,902,1807,0,0
-315,-783,0,0,0,0,0,0,0,0,0,-1,909,1807,0,0
-308,-783,0,0,0,0,0,0,0,0,0,-1,916,1807,0,0
-301,-783,0,0,0,0,0,0,0,0,0,-1,923,1807,0,0
-294,-783,0,0,0,0,0,0,0,0,0,-1,930,1807,0,0
-287,-783,0,0,0,0,0,0,0,0,0,-1,937,1807,0,0
-280,-783,0,0,0,0,0,0,0,0,0,-1,944,1807,0,0
-273,-783,0,0,0,0,0,0,0,0,0,-1,951,1807,0,0
-266,-783,0,0,0,0,0,0,0,0,0,-1,958,1807,0,0
-259,-783,0,0,0,0,0,0,0,0,0,-1,965,1807,0,0
-252,-783,0,0,0,0,0,0,0,0,0,-1,972,1807,0,0
-245,-783,0,0,0,0,0,0,0,0,0,-1,979,1807,0,0
-238,-783,0,0,0,0,0,0,0,0,0,-1,986,1807,0,0
-231,-783,0,0,0,0,0,0,0,0,0,-1,993,1807,0,0
-224,-783,0,0,0,0,0,0,0,0,0,-1,1000,1807,0,0
-217,-783,0,0,0,0,0,0,0,0,0,-1,1007,1807,0,0
-210,-783,0,0,0,0,0,0,0,0,0,-1,1014,1807,0,0
-203,-783,0,0,0,0,0,0,0,0,0,-1,1021,1807,0,0
-196,-783,0,0,0,0,0,0,0,0,0,-1,1028,1807,0,0
-189,-783,0,0,0,0,0,0,0,0,0,-1,1035,1807,0,0
-182,-783,0,0,0,0,0,0,0,0,0,-1,1042,1807,0,0
-175,-783,0,0,0,0,0,0,0,0,0,-1,1049,1807,0,0
-168,-783,0,0,0,0,0,0,0,0,0,-1,1056,1807,0,0
-161,-783,0,0,0,0,0,0,0,0,0,-1,1063,1807,0,0
-154,-783,0,0,0,0,0,0,0,0,0,-1,1070,1807,0,0
-147,-783,0,0,0,0,0,0,0,0,0,-1,1077,1807,0,0
-140,-783,0,0,0,0,0,0,0,0,0,-1,1084,1807,0,0
-133,-783,0,0,0,0,0,0,0,0,0,-1,1091,1807,0,0
-126,-783,0,0,0,0,0,0,0,0,0,-1,1098,1807,0,0
-119,-783,0,0,0,0,0,0,0,0,0,-1,1105,1807,0,0
-112,-783,5.33936,14.7699,0,0,0,0,0,0,0,-1,1112,1807,5.33931,-14.7699
-105,-783,6.44263,21.2224,0,0,0,0,0,0,0,-1,1119,1807,6.44263,-21.2224
-98,-783,5.54773,20.5695,0,0,0,0,0,0,0,-1,1126,1807,5.54772,-20.5695
-91,-783,2.6106,20.2491,0,0,0,0,0,0,0,-1,1133,1807,2.61056,-20.2492
-84,-783,-0.0491943,14.5743,0,0,0,0,0,0,0,-1,1140,1807,-0.0491562,-14.5743
-77,-783,0.332764,12.7788,0,0,0,0,0,0,0,-1,1147,1807,0.332743,-12.7788
-70,-783,-1.93176,5.12817,0,0,0,0,0,0,0,-1,1154,1807,-1.93171,-5.12813
-63,-783,-5.31702,10.54,0,0,0,0,0,0,0,-1,1161,1807,-5.31703,-10.54
-56,-783,-6.26135,6.9679,0,0,0,0,0,0,0,-1,1168,1807,-6.26136,-6.96785
-49,-783,-3.17688,4.59705,0,0,0,0,0,0,0,-1,1175,1807,-3.17685,-4.5971
-42,-783,-3.72876,3.1405,0,0,0,0,0,0,0,-1,1182,1807,-3.72874,-3.14055
-35,-783,-3.97046,1.59399,0,0,0,0,0,0,0,-1,1189,1807,-3.97041,-1.59401
-28,-783,-4.12195,0.270386,0,0,0,0,0,0,0,-1,1196,1807,-4.12197,-0.270408
-21,-783,9.24963,36.745,0,0,0,0,0,0,0,-1,1203,1807,9.24964,-36.745
-14,-783,8.74463,36.8944,0,0,0,0,0,0,0,-1,1210,1807,8.74469,-36.8944
-7,-783,9.24524,39.9935,0,0,0,0,0,0,0,-1,1217,1807,9.24521,-39.9935
0,-783,8.65784,39.7363,-0.0400535,-0.028945,0.00704204,-0.0255304,-0.0434681,1.11931,0.0252236,0.0451066,1224,1807,8.65784,-39.7363
7,-783,8.09351,39.5197,-0.0370539,-0.0276989,0.00548741,-0.0251659,-0.0395869,1.13834,0.0231344,0.0446481,1231,1807,8.09348,-39.5196
14,-783,7.35193,39.1515,-0.0363176,-0.0264263,0.00277296,-0.025702,-0.037042,1.31529,0.0219155,0.0467095,1238,1807,7.35198,-39.1515
21,-783,6.91321,38.5785,-0.0373971,-0.0252365,-0.000118153,-0.0252353,-0.0373982,-1.56108,0.0220272,0.048779,1245,1807,6.91323,-38.5784
28,-783,7.03516,38.359,-0.0409581,-0.0260057,-0.0031787,-0.025358,-0.0416058,-1.36979,0.0242123,0.0441868,1252,1807,7.03514,-38.359
35,-783,7.03503,37.6212,-0.0462016,-0.0278687,-0.00611076,-0.0260186,-0.0480517,-1.2768,0.0277745,0.0471638,1259,1807,7.03504,-37.6213
42,-783,6.75281,37.1416,-0.0466058,-0.0170333,-0.00178138,-0.0169264,-0.0467128,-1.51085,0.0273082,0.0451575,1266,1807,6.75275,-37.1416
49,-783,6.22888,36.7802,-0.034342,-0.0108739,0.00317598,-0.0104517,-0.0347642,1.43863,0.0205961,0.0454978,1273,1807,6.22884,-36.7801
56,-783,5.69482,36.4156,0,0,0,0,0,0,0,-1,1280,1807,5.69483,-36.4156
63,-783,4.56702,35.7025,0,0,0,0,0,0,0,-1,1287,1807,4.56703,-35.7025
70,-783,4.03992,35.3374,0,0,0,0,0,0,0,-1,1294,1807,4.03988,-35.3374
77,-783,2.35815,32.3033,-0.00071796,0.00933353,0.0271279,0.0318973,-0.0232817,0.87699,0.0319868,0.048127,1301,1807,2.35817,-32.3033
84,-783,0.953857,31.7106,0.0106342,0.0122385,0.0337544,0.0452003,-0.0223275,0.797278,0.0397257,0.0463289,1308,1807,0.953836,-31.7106
91,-783,-0.391724,31.1504,0.0222767,0.0133576,0.0399114,0.0579769,-0.0223427,0.729761,0.0478696,0.0445084,1315,1807,-0.391737,-31.1504
98,-783,8.76184,38.2285,0.0325069,0.0105418,0.0434201,0.0663119,-0.0232632,0.661528,0.05367,0.0444398,1322,1807,8.7619,-38.2285
105,-783,8.02051,38.4438,0,0,0,0,0,0,0,-1,1329,1807,8.02051,-38.4439
112,-783,-3.25696,28.5089,0,0,0,0,0,0,0,-1,1336,1807,-3.25699,-28.5089
119,-783,-4.66016,27.2205,0,0,0,0,0,0,0,-1,1343,1807,-4.66018,-27.2205
126,-783,6.68164,38.2815,0,0,0,0,0,0,0,-1,1350,1807,6.68169,-38.2814
133,-783,6.94153,37.4556,0,0,0,0,0,0,0,-1,1357,1807,6.94157,-37.4555
140,-783,18.3468,35.1345,0,0,0,0,0,0,0,-1,1364,1807,18.3468,-35.1345
147,-783,19.5115,35.8862,0,0,0,0,0,0,0,-1,1371,1807,19.5115,-35.8862
154,-783,38.2109,17.545,0,0,0,0,0,0,0,-1,1378,1807,38.2109,-17.545
161,-783,39.5087,17.5449,0,0,0,0,0,0,0,-1,1385,1807,39.5087,-17.545
168,-783,8.62561,1.79944,0,0,0,0,0,0,0,-1,1392,1807,8.62561,-1.79946
175,-783,8.78699,3.40857,0,0,0,0,0,0,0,-1,1399,1807,8.78697,-3.40854
182,-783,8.70984,5.14661,0,0,0,0,0,0,0,-1,1406,1807,8.70989,-5.14666
189,-783,8.55762,6.79871,0,0,0,0,0,0,0,-1,1413,1807,8.55766,-6.79872
196,-783,8.25488,8.66626,0,0,0,0,0,0,0,-1,1420,1807,8.25492,-8.66628
203,-783,7.86755,10.5735,0,0,0,0,0,0,0,-1,1427,1807,7.8676,-10.5734
210,-783,5.6969,8.99231,0,0,0,0,0,0,0,-1,1434,1807,5.69693,-8.99234
217,-783,5.28503,3.80872,0,0,0,0,0,0,0,-1,1441,1807,5.285,-3.80868
224,-783,3.22571,6.62903,0,0,0,0,0,0,0,-1,1448,1807,3.2257,-6.62907
231,-783,4.27942,4.56262,0,0,0,0,0,0,0,-1,1455,1807,4.27948,-4.56267
238,-783,0,0,0,0,0,0,0,0,0,-1,1462,1807,0,0
245,-783,0,0,0,0,0,0,0,0,0,-1,1469,1807,0,0
252,-783,0,0,0,0,0,0,0,0,0,-1,1476,1807,0,0
259,-783,0,0,0,0,0,0,0,0,0,-1,1483,1807,0,0
266,-783,0,0,0,0,0,0,0,0,0,-1,1490,1807,0,0
273,-783,0,0,0,0,0,0,0,0,0,-1,1497,1807,0,0
280,-783,0,0,0,0,0,0,0,0,0,-1,1504,1807,0,0
287,-783,0,0,0,0,0,0,0,0,0,-1,1511,1807,0,0
294,-783,0,0,0,0,0,0,0,0,0,-1,1518,1807,0,0
301,-783,0,0,0,0,0,0,0,0,0,-1,1525,1807,0,0
308,-783,0,0,0,0,0,0,0,0,0,-1,1532,1807,0,0
315,-783,0,0,0,0,0,0,0,0,0,-1,1539,1807,0,0
322,-783,0,0,0,0,0,0,0,0,0,-1,1546,1807,0,0
329,-783,0,0,0,0,0,0,0,0,0,-1,1553,1807,0,0
336,-783,0,0,0,0,0,0,0,0,0,-1,1560,1807,0,0
343,-783,0,0,0,0,0,0,0,0,0,-1,1567,1807,0,0
350,-783,0,0,0,0,0,0,0,0,0,-1,1574,1807,0,0
357,-783,0,0,0,0,0,0,0,0,0,-1,1581,1807,0,0
364,-783,0,0,0,0,0,0,0,0,0,-1,1588,1807,0,0
371,-783,0,0,0,0,0,0,0,0,0,-1,1595,1807,0,0
378,-783,0,0,0,0,0,0,0,0,0,-1,1602,1807,0,0
385,-783,0,0,0,0,0,0,0,0,0,-1,1609,1807,0,0
392,-783,0,0,0,0,0,0,0,0,0,-1,1616,1807,0,0
399,-783,0,0,0,0,0,0,0,0,0,-1,1623,1807,0,0
406,-783,0,0,0,0,0,0,0,0,0,-1,1630,1807,0,0
413,-783,0,0,0,0,0,0,0,0,0,-1,1637,1807,0,0
420,-783,0,0,0,0,0,0,0,0,0,-1,1644,1807,0,0
427,-783,0,0,0,0,0,0,0,0,0,-1,1651,1807,0,0
434,-783,0,0,0,0,0,0,0,0,0,-1,1658,1807,0,0
441,-783,0,0,0,0,0,0,0,0,0,-1,1665,1807,0,0
448,-783,0,0,0,0,0,0,0,0,0,-1,1672,1807,0,0
455,-783,0,0,0,0,0,0,0,0,0,-1,1679,1807,0,0
462,-783,0,0,0,0,0,0,0,0,0,-1,1686,1807,0,0
469,-783,0,0,0,0,0,0,0,0,0,-1,1693,1807,0,0
476,-783,0,0,0,0,0,0,0,0,0,-1,1700,1807,0,0
483,-783,0,0,0,0,0,0,0,0,0,-1,1707,1807,0,0
490,-783,0,0,0,0,0,0,0,0,0,-1,1714,1807,0,0
497,-783,0,0,0,0,0,0,0,0,0,-1,1721,1807,0,0
504,-783,0,0,0,0,0,0,0,0,0,-1,1728,1807,0,0
511,-783,0,0,0,0,0,0,0,0,0,-1,1735,1807,0,0
518,-783,0,0,0,0,0,0,0,0,0,-1,1742,1807,0,0
525,-783,0,0,0,0,0,0,0,0,0,-1,1749,1807,0,0
532,-783,0,0,0,0,0,0,0,0,0,-1,1756,1807,0,0
539,-783,0,0,0,0,0,0,0,0,0,-1,1763,1807,0,0
546,-783,0,0,0,0,0,0,0,0,0,-1,1770,1807,0,0
553,-783,0,0,0,0,0,0,0,0,0,-1,1777,1807,0,0
560,-783,0,0,0,0,0,0,0,0,0,-1,1784,1807,0,0
567,-783,0,0,0,0,0,0,0,0,0,-1,1791,1807,0,0
574,-783,0,0,0,0,0,0,0,0,0,-1,1798,1807,0,0
581,-783,0,0,0,0,0,0,0,0,0,-1,1805,1807,0,0
588,-783,0,0,0,0,0,0,0,0,0,-1,1812,1807,0,0
595,-783,0,0,0,0,0,0,0,0,0,-1,1819,1807,0,0
602,-783,0,0,0,0,0,0,0,0,0,-1,1826,1807,0,0
609,-783,0,0,0,0,0,0,0,0,0,-1,1833,1807,0,0
616,-783,0,0,0,0,0,0,0,0,0,-1,1840,1807,0,0
623,-783,0,0,0,0,0,0,0,0,0,-1,1847,1807,0,0
630,-783,0,0,0,0,0,0,0,0,0,-1,1854,1807,0,0
637,-783,0,0,0,0,0,0,0,0,0,-1,1861,1807,0,0
644,-783,0,0,0,0,0,0,0,0,0,-1,1868,1807,0,0
651,-783,0,0,0,0,0,0,0,0,0,-1,1875,1807,0,0
658,-783,0,0,0,0,0,0,0,0,0,-1,1882,1807,0,0
665,-783,0,0,0,0,0,0,0,0,0,-1,1889,1807,0,0
672,-783,0,0,0,0,0,0,0,0,0,-1,1896,1807,0,0
679,-783,0,0,0,0,0,0,0,0,0,-1,1903,1807,0,0
686,-783,0,0,0,0,0,0,0,0,0,-1,1910,1807,0,0
693,-783,0,0,0,0,0,0,0,0,0,-1,1917,1807,0,0
700,-783,0,0,0,0,0,0,0,0,0,-1,1924,1807,0,0
707,-783,0,0,0,0,0,0,0,0,0,-1,1931,1807,0,0
714,-783,0,0,0,0,0,0,0,0,0,-1,1938,1807,0,0
721,-783,0,0,0,0,0,0,0,0,0,-1,1945,1807,0,0
728,-783,0,0,0,0,0,0,0,0,0,-1,1952,1807,0,0
735,-783,0,0,0,0,0,0,0,0,0,-1,1959,1807,0,0
742,-783,0,0,0,0,0,0,0,0,0,-1,1966,1807,0,0
749,-783,0,0,0,0,0,0,0,0,0,-1,1973,1807,0,0
756,-783,0,0,0,0,0,0,0,0,0,-1,1980,1807,0,0
763,-783,0,0,0,0,0,0,0,0,0,-1,1987,1807,0,0
770,-783,0,0,0,0,0,0,0,0,0,-1,1994,1807,0,0
777,-783,0,0,0,0,0,0,0,0,0,-1,2001,1807,0,0
784,-783,0,0,0,0,0,0,0,0,0,-1,2008,1807,0,0
791,-783,0,0,0,0,0,0,0,0,0,-1,2015,1807,0,0
798,-783,0,0,0,0,0,0,0,0,0,-1,2022,1807,0,0
805,-783,0,0,0,0,0,0,0,0,0,-1,2029,1807,0,0
812,-783,0,0,0,0,0,0,0,0,0,-1,2036,1807,0,0
-700,-790,0,0,0,0,0,0,0,0,0,-1,524,1814,0,0
-693,-790,0,0,0,0,0,0,0,0,0,-1,531,1814,0,0
-686,-790,0,0,0,0,0,0,0,0,0,-1,538,1814,0,0
-679,-790,0,0,0,0,0,0,0,0,0,-1,545,1814,0,0
-672,-790,0,0,0,0,0,0,0,0,0,-1,552,1814,0,0
-665,-790,0,0,0,0,0,0,0,0,0,-1,559,1814,0,0
-658,-790,0,0,0,0,0,0,0,0,0,-1,566,1814,0,0
-651,-790,0,0,0,0,0,0,0,0,0,-1,573,1814,0,0
-644,-790,0,0,0,0,0,0,0,0,0,-1,580,1814,0,0
-637,-790,0,0,0,0,0,0,0,0,0,-1,587,1814,0,0
-630,-790,0,0,0,0,0,0,0,0,0,-1,594,1814,0,0
-623,-790,0,0,0,0,0,0,0,0,0,-1,601,1814,0,0
-616,-790,0,0,0,0,0,0,0,0,0,-1,608,1814,0,0
-609,-790,0,0,0,0,0,0,0,0,0,-1,615,1814,0,0
-602,-790,0,0,0,0,0,0,0,0,0,-1,622,1814,0,0
-595,-790,0,0,0,0,0,0,0,0,0,-1,629,1814,0,0
-588,-790,0,0,0,0,0,0,0,0,0,-1,636,1814,0,0
-581,-790,0,0,0,0,0,0,0,0,0,-1,643,1814,0,0
-574,-790,0,0,0,0,0,0,0,0,0,-1,650,1814,0,0
-567,-790,0,0,0,0,0,0,0,0,0,-1,657,1814,0,0
-560,-790,0,0,0,0,0,0,0,0,0,-1,664,1814,0,0
-553,-790,0,0,0,0,0,0,0,0,0,-1,671,1814,0,0
-546,-790,0,0,0,0,0,0,0,0,0,-1,678,1814,0,0
-539,-790,0,0,0,0,0,0,0,0,0,-1,685,1814,0,0
-532,-790,0,0,0,0,0,0,0,0,0,-1,692,1814,0,0
-525,-790,0,0,0,0,0,0,0,0,0,-1,699,1814,0,0
-518,-790,0,0,0,0,0,0,0,0,0,-1,706,1814,0,0
-511,-790,0,0,0,0,0,0,0,0,0,-1,713,1814,0,0
-504,-790,0,0,0,0,0,0,0,0,0,-1,720,1814,0,0
-497,-790,0,0,0,0,0,0,0,0,0,-1,727,1814,0,0
-490,-790,0,0,0,0,0,0,0,0,0,-1,734,1814,0,0
-483,-790,0,0,0,0,0,0,0,0,0,-1,741,1814,0,0
-476,-790,0,0,0,0,0,0,0,0,0,-1,748,1814,0,0
-469,-790,0,0,0,0,0,0,0,0,0,-1,755,1814,0,0
-462,-790,0,0,0,0,0,0,0,0,0,-1,762,1814,0,0
-455,-790,0,0,0,0,0,0,0,0,0,-1,769,1814,0,0
-448,-790,0,0,0,0,0,0,0,0,0,-1,776,1814,0,0
-441,-790,0,0,0,0,0,0,0,0,0,-1,783,1814,0,0
-434,-790,0,0,0,0,0,0,0,0,0,-1,790,1814,0,0
-427,-790,0,0,0,0,0,0,0,0,0,-1,797,1814,0,0
-420,-790,0,0,0,0,0,0,0,0,0,-1,804,1814,0,0
-413,-790,0,0,0,0,0,0,0,0,0,-1,811,1814,0,0
-406,-790,0,0,0,0,0,0,0,0,0,-1,818,1814,0,0
-399,-790,0,0,0,0,0,0,0,0,0,-1,825,1814,0,0
-392,-790,0,0,0,0,0,0,0,0,0,-1,832,1814,0,0
-385,-790,0,0,0,0,0,0,0,0,0,-1,839,1814,0,0
-378,-790,0,0,0,0,0,0,0,0,0,-1,846,1814,0,0
-371,-790,0,0,0,0,0,0,0,0,0,-1,853,1814,0,0
-364,-790,0,0,0,0,0,0,0,0,0,-1,860,1814,0,0
-357,-790,0,0,0,0,0,0,0,0,0,-1,867,1814,0,0
-350,-790,0,0,0,0,0,0,0,0,0,-1,874,1814,0,0
-343,-790,0,0,0,0,0,0,0,0,0,-1,881,1814,0,0
-336,-790,0,0,0,0,0,0,0,0,0,-1,888,1814,0,0
-329,-790,0,0,0,0,0,0,0,0,0,-1,895,1814,0,0
-322,-790,0,0,0,0,0,0,0,0,0,-1,902,1814,0,0
-315,-790,0,0,0,0,0,0,0,0,0,-1,909,1814,0,0
-308,-790,0,0,0,0,0,0,0,0,0,-1,916,1814,0,0
-301,-790,0,0,0,0,0,0,0,0,0,-1,923,1814,0,0
-294,-790,0,0,0,0,0,0,0,0,0,-1,930,1814,0,0
-287,-790,0,0,0,0,0,0,0,0,0,-1,937,1814,0,0
-280,-790,0,0,0,0,0,0,0,0,0,-1,944,1814,0,0
-273,-790,0,0,0,0,0,0,0,0,0,-1,951,1814,0,0
-266,-790,0,0,0,0,0,0,0,0,0,-1,958,1814,0,0
-259,-790,0,0,0,0,0,0,0,0,0,-1,965,1814,0,0
-252,-790,0,0,0,0,0,0,0,0,0,-1,972,1814,0,0
-245,-790,0,0,0,0,0,0,0,0,0,-1,979,1814,0,0
-238,-790,0,0,0,0,0,0,0,0,0,-1,986,1814,0,0
-231,-790,0,0,0,0,0,0,0,0,0,-1,993,1814,0,0
-224,-790,0,0,0,0,0,0,0,0,0,-1,1000,1814,0,0
-217,-790,0,0,0,0,0,0,0,0,0,-1,1007,1814,0,0
-210,-790,0,0,0,0,0,0,0,0,0,-1,1014,1814,0,0
-203,-790,0,0,0,0,0,0,0,0,0,-1,1021,1814,0,0
-196,-790,0,0,0,0,0,0,0,0,0,-1,1028,1814,0,0
-189,-790,0,0,0,0,0,0,0,0,0,-1,1035,1814,0,0
-182,-790,0,0,0,0,0,0,0,0,0,-1,1042,1814,0,0
-175,-790,0,0,0,0,0,0,0,0,0,-1,1049,1814,0,0
-168,-790,0,0,0,0,0,0,0,0,0,-1,1056,1814,0,0
-161,-790,0,0,0,0,0,0,0,0,0,-1,1063,1814,0,0
-154,-790,0,0,0,0,0,0,0,0,0,-1,1070,1814,0,0
-147,-790,0,0,0,0,0,0,0,0,0,-1,1077,1814,0,0
-140,-790,0,0,0,0,0,0,0,0,0,-1,1084,1814,0,0
-133,-790,0,0,0,0,0,0,0,0,0,-1,1091,1814,0,0
-126,-790,0,0,0,0,0,0,0,0,0,-1,1098,1814,0,0
-119,-790,0,0,0,0,0,0,0,0,0,-1,1105,1814,0,0
-112,-790,0,0,0,0,0,0,0,0,0,-1,1112,1814,0,0
-105,-790,0,0,0,0,0,0,0,0,0,-1,1119,1814,0,0
-98,-790,0,0,0,0,0,0,0,0,0,-1,1126,1814,0,0
-91,-790,0,0,0,0,0,0,0,0,0,-1,1133,1814,0,0
-84,-790,0,0,0,0,0,0,0,0,0,-1,1140,1814,0,0
-77,-790,-0.969238,5.30847,0,0,0,0,0,0,0,-1,1147,1814,-0.969277,-5.3085
-70,-790,-1.23169,4.98914,0,0,0,0,0,0,0,-1,1154,1814,-1.23163,-4.98916
-63,-790,-1.69128,4.32263,0,0,0,0,0,0,0,-1,1161,1814,-1.69128,-4.32258
-56,-790,-2.24756,3.75305,0,0,0,0,0,0,0,-1,1168,1814,-2.24758,-3.75302
-49,-790,-3.11011,3.35779,0,0,0,0,0,0,0,-1,1175,1814,-3.11006,-3.35781
-42,-790,0.593262,1.19165,0,0,0,0,0,0,0,-1,1182,1814,0.593225,-1.19165
-35,-790,0.307129,-0.20105,0,0,0,0,0,0,0,-1,1189,1814,0.307178,0.201006
-28,-790,-2.78467,0.785156,0,0,0,0,0,0,0,-1,1196,1814,-2.78471,-0.785183
-21,-790,7.69214,35.7385,0,0,0,0,0,0,0,-1,1203,1814,7.6921,-35.7385
-14,-790,6.85999,42.3339,0,0,0,0,0,0,0,-1,1210,1814,6.86002,-42.3339
-7,-790,8.59387,40.4867,0,0,0,0,0,0,0,-1,1217,1814,8.59389,-40.4867
0,-790,8.01294,40.2605,-0.0518467,-0.0333333,0.0112463,-0.0280241,-0.0571559,1.12973,0.033001,0.0459343,1224,1814,8.01295,-40.2605
7,-790,7.35168,40.1045,-0.0471069,-0.0326503,0.00848293,-0.0287337,-0.0510235,1.13825,0.0295366,0.0421863,1231,1814,7.35165,-40.1044
14,-790,6.50842,39.4717,-0.0459466,-0.0326298,0.00386585,-0.0315889,-0.0469875,1.30778,0.0276598,0.0449356,1238,1814,6.50847,-39.4717
21,-790,6.23999,38.5869,-0.0475271,-0.0321816,-0.000420724,-0.0321701,-0.0475386,-1.54341,0.028012,0.0485015,1245,1814,6.24002,-38.5869
28,-790,6.67041,38.4056,-0.0519722,-0.033896,-0.00476492,-0.0327169,-0.0531514,-1.32821,0.0309589,0.0437588,1252,1814,6.67044,-38.4057
35,-790,6.43298,37.8962,-0.0586119,-0.0368159,-0.00877632,-0.0337214,-0.0617064,-1.23181,0.0356775,0.0492209,1259,1814,6.43301,-37.8962
42,-790,6.7771,37.7952,-0.0608615,-0.0289068,-0.00576247,-0.0278994,-0.0618689,-1.39772,0.0357773,0.0445985,1266,1814,6.77712,-37.7952
49,-790,5.86267,37.1492,-0.0493227,-0.0235505,-0.000860112,-0.0235218,-0.0493513,-1.53747,0.0285034,0.0474779,1273,1814,5.8627,-37.1492
56,-790,4.92749,36.614,-0.0449142,-0.0191955,0.00407607,-0.018565,-0.0455448,1.41732,0.0264445,0.0479457,1280,1814,4.92751,-36.614
63,-790,4.22717,36.184,-0.0373078,-0.015211,0.00992418,-0.0114083,-0.0411105,1.20487,0.024506,0.0462096,1287,1814,4.22714,-36.1839
70,-790,3.59607,35.6302,0,0,0,0,0,0,0,-1,1294,1814,3.59608,-35.6303
77,-790,1.90076,33.4385,-0.0137696,-0.00778539,0.0254885,0.014886,-0.036441,0.843826,0.0304923,0.0403155,1301,1814,1.90073,-33.4385
84,-790,0.564087,33.057,-0.000815219,-0.00611773,0.033029,0.0296688,-0.0366017,0.745349,0.038331,0.0408597,1308,1814,0.564073,-33.057
91,-790,-0.726685,32.7739,0.0126051,-0.00650512,0.0399119,0.0440897,-0.0379898,0.667907,0.0474322,0.0431,1315,1814,-0.726743,-32.7739
98,-790,9.05737,38.2588,0,0,0,0,0,0,0,-1,1322,1814,9.05739,-38.2587
105,-790,-2.7948,30.8704,0.0288808,-0.0245191,0.0418499,0.0518226,-0.0474609,0.501454,0.0573398,0.0481013,1329,1814,-2.79478,-30.8704
112,-790,-4.12256,29.5337,0.0238889,-0.0433268,0.034894,0.0387277,-0.0581656,0.402086,0.0563154,0.0492615,1336,1814,-4.1226,-29.5337
119,-790,-5.41895,28.2501,0.00809897,-0.0669949,0.0234264,0.0148077,-0.0737036,0.278912,0.0547434,0.0469284,1343,1814,-5.41898,-28.2502
126,-790,-6.73889,26.9662,0,0,0,0,0,0,0,-1,1350,1814,-6.73884,-26.9662
133,-790,15.274,33.887,0,0,0,0,0,0,0,-1,1357,1814,15.274,-33.8869
140,-790,16.0784,33.3459,0,0,0,0,0,0,0,-1,1364,1814,16.0784,-33.346
147,-790,9.01794,33.7303,0,0,0,0,0,0,0,-1,1371,1814,9.0179,-33.7304
154,-790,40.215,13.2396,0,0,0,0,0,0,0,-1,1378,1814,40.2149,-13.2396
161,-790,39.3429,13.0336,0,0,0,0,0,0,0,-1,1385,1814,39.3429,-13.0336
168,-790,7.04077,2.23279,0,0,0,0,0,0,0,-1,1392,1814,7.04082,-2.23275
175,-790,9.03918,3.98535,0,0,0,0,0,0,0,-1,1399,1814,9.0392,-3.98535
182,-790,8.96997,5.67896,0,0,0,0,0,0,0,-1,1406,1814,8.97001,-5.6789
189,-790,8.59729,6.86975,0,0,0,0,0,0,0,-1,1413,1814,8.59728,-6.86972
196,-790,8.21924,9.29053,0,0,0,0,0,0,0,-1,1420,1814,8.21924,-9.29048
203,-790,0,0,0,0,0,0,0,0,0,-1,1427,1814,0,0
210,-790,0,0,0,0,0,0,0,0,0,-1,1434,1814,0,0
217,-790,0,0,0,0,0,0,0,0,0,-1,1441,1814,0,0
224,-790,0,0,0,0,0,0,0,0,0,-1,1448,1814,0,0
231,-790,0,0,0,0,0,0,0,0,0,-1,1455,1814,0,0
238,-790,0,0,0,0,0,0,0,0,0,-1,1462,1814,0,0
245,-790,0,0,0,0,0,0,0,0,0,-1,1469,1814,0,0
252,-790,0,0,0,0,0,0,0,0,0,-1,1476,1814,0,0
259,-790,0,0,0,0,0,0,0,0,0,-1,1483,1814,0,0
266,-790,0,0,0,0,0,0,0,0,0,-1,1490,1814,0,0
273,-790,0,0,0,0,0,0,0,0,0,-1,1497,1814,0,0
280,-790,0,0,0,0,0,0,0,0,0,-1,1504,1814,0,0
287,-790,0,0,0,0,0,0,0,0,0,-1,1511,1814,0,0
294,-790,0,0,0,0,0,0,0,0,0,-1,1518,1814,0,0
301,-790,0,0,0,0,0,0,0,0,0,-1,1525,1814,0,0
308,-790,0,0,0,0,0,0,0,0,0,-1,1532,1814,0,0
315,-790,0,0,0,0,0,0,0,0,0,-1,1539,1814,0,0
322,-790,0,0,0,0,0,0,0,0,0,-1,1546,1814,0,0
329,-790,0,0,0,0,0,0,0,0,0,-1,1553,1814,0,0
336,-790,0,0,0,0,0,0,0,0,0,-1,1560,1814,0,0
343,-790,0,0,0,0,0,0,0,0,0,-1,1567,1814,0,0
350,-790,0,0,0,0,0,0,0,0,0,-1,1574,1814,0,0
357,-790,0,0,0,0,0,0,0,0,0,-1,1581,1814,0,0
364,-790,0,0,0,0,0,0,0,0,0,-1,1588,1814,0,0
371,-790,0,0,0,0,0,0,0,0,0,-1,1595,1814,0,0
378,-790,0,0,0,0,0,0,0,0,0,-1,1602,1814,0,0
385,-790,0,0,0,0,0,0,0,0,0,-1,1609,1814,0,0
392,-790,0,0,0,0,0,0,0,0,0,-1,1616,1814,0,0
399,-790,0,0,0,0,0,0,0,0,0,-1,1623,1814,0,0
406,-790,0,0,0,0,0,0,0,0,0,-1,1630,1814,0,0
413,-790,0,0,0,0,0,0,0,0,0,-1,1637,1814,0,0
420,-790,0,0,0,0,0,0,0,0,0,-1,1644,1814,0,0
427,-790,0,0,0,0,0,0,0,0,0,-1,1651,1814,0,0
434,-790,0,0,0,0,0,0,0,0,0,-1,1658,1814,0,0
441,-790,0,0,0,0,0,0,0,0,0,-1,1665,1814,0,0
448,-790,0,0,0,0,0,0,0,0,0,-1,1672,1814,0,0
455,-790,0,0,0,0,0,0,0,0,0,-1,1679,1814,0,0
462,-790,0,0,0,0,0,0,0,0,0,-1,1686,1814,0,0
469,-790,0,0,0,0,0,0,0,0,0,-1,1693,1814,0,0
476,-790,0,0,0,0,0,0,0,0,0,-1,1700,1814,0,0
483,-790,0,0,0,0,0,0,0,0,0,-1,1707,1814,0,0
490,-790,0,0,0,0,0,0,0,0,0,-1,1714,1814,0,0
497,-790,0,0,0,0,0,0,0,0,0,-1,1721,1814,0,0
504,-790,0,0,0,0,0,0,0,0,0,-1,1728,1814,0,0
511,-790,0,0,0,0,0,0,0,0,0,-1,1735,1814,0,0
518,-790,0,0,0,0,0,0,0,0,0,-1,1742,1814,0,0
525,-790,0,0,0,0,0,0,0,0,0,-1,1749,1814,0,0
532,-790,0,0,0,0,0,0,0,0,0,-1,1756,1814,0,0
539,-790,0,0,0,0,0,0,0,0,0,-1,1763,1814,0,0
546,-790,0,0,0,0,0,0,0,0,0,-1,1770,1814,0,0
553,-790,0,0,0,0,0,0,0,0,0,-1,1777,1814,0,0
560,-790,0,0,0,0,0,0,0,0,0,-1,1784,1814,0,0
567,-790,0,0,0,0,0,0,0,0,0,-1,1791,1814,0,0
574,-790,0,0,0,0,0,0,0,0,0,-1,1798,1814,0,0
581,-790,0,0,0,0,0,0,0,0,0,-1,1805,1814,0,0
588,-790,0,0,0,0,0,0,0,0,0,-1,1812,1814,0,0
595,-790,0,0,0,0,0,0,0,0,0,-1,1819,1814,0,0
602,-790,0,0,0,0,0,0,0,0,0,-1,1826,1814,0,0
609,-790,0,0,0,0,0,0,0,0,0,-1,1833,1814,0,0
616,-790,0,0,0,0,0,0,0,0,0,-1,1840,1814,0,0
623,-790,0,0,0,0,0,0,0,0,0,-1,1847,1814,0,0
630,-790,0,0,0,0,0,0,0,0,0,-1,1854,1814,0,0
637,-790,0,0,0,0,0,0,0,0,0,-1,1861,1814,0,0
644,-790,0,0,0,0,0,0,0,0,0,-1,1868,1814,0,0
651,-790,0,0,0,0,0,0,0,0,0,-1,1875,1814,0,0
658,-790,0,0,0,0,0,0,0,0,0,-1,1882,1814,0,0
665,-790,0,0,0,0,0,0,0,0,0,-1,1889,1814,0,0
672,-790,0,0,0,0,0,0,0,0,0,-1,1896,1814,0,0
679,-790,0,0,0,0,0,0,0,0,0,-1,1903,1814,0,0
686,-790,0,0,0,0,0,0,0,0,0,-1,1910,1814,0,0
693,-790,0,0,0,0,0,0,0,0,0,-1,1917,1814,0,0
700,-790,0,0,0,0,0,0,0,0,0,-1,1924,1814,0,0
707,-790,0,0,0,0,0,0,0,0,0,-1,1931,1814,0,0
714,-790,0,0,0,0,0,0,0,0,0,-1,1938,1814,0,0
721,-790,0,0,0,0,0,0,0,0,0,-1,1945,1814,0,0
728,-790,0,0,0,0,0,0,0,0,0,-1,1952,1814,0,0
735,-790,0,0,0,0,0,0,0,0,0,-1,1959,1814,0,0
742,-790,0,0,0,0,0,0,0,0,0,-1,1966,1814,0,0
749,-790,0,0,0,0,0,0,0,0,0,-1,1973,1814,0,0
756,-790,0,0,0,0,0,0,0,0,0,-1,1980,1814,0,0
763,-790,0,0,0,0,0,0,0,0,0,-1,1987,1814,0,0
770,-790,0,0,0,0,0,0,0,0,0,-1,1994,1814,0,0
777,-790,0,0,0,0,0,0,0,0,0,-1,2001,1814,0,0
784,-790,0,0,0,0,0,0,0,0,0,-1,2008,1814,0,0
791,-790,0,0,0,0,0,0,0,0,0,-1,2015,1814,0,0
798,-790,0,0,0,0,0,0,0,0,0,-1,2022,1814,0,0
805,-790,0,0,0,0,0,0,0,0,0,-1,2029,1814,0,0
812,-790,0,0,0,0,0,0,0,0,0,-1,2036,1814,0,0
-700,-797,0,0,0,0,0,0,0,0,0,-1,524,1821,0,0
-693,-797,0,0,0,0,0,0,0,0,0,-1,531,1821,0,0
-686,-797,0,0,0,0,0,0,0,0,0,-1,538,1821,0,0
-679,-797,0,0,0,0,0,0,0,0,0,-1,545,1821,0,0
-672,-797,0,0,0,0,0,0,0,0,0,-1,552,1821,0,0
-665,-797,0,0,0,0,0,0,0,0,0,-1,559,1821,0,0
-658,-797,0,0,0,0,0,0,0,0,0,-1,566,1821,0,0
-651,-797,0,0,0,0,0,0,0,0,0,-1,573,1821,0,0
-644,-797,0,0,0,0,0,0,0,0,0,-1,580,1821,0,0
-637,-797,0,0,0,0,0,0,0,0,0,-1,587,1821,0,0
-630,-797,0,0,0,0,0,0,0,0,0,-1,594,1821,0,0
-623,-797,0,0,0,0,0,0,0,0,0,-1,601,1821,0,0
-616,-797,0,0,0,0,0,0,0,0,0,-1,608,1821,0,0
-609,-797,0,0,0,0,0,0,0,0,0,-1,615,1821,0,0
-602,-797,0,0,0,0,0,0,0,0,0,-1,622,1821,0,0
-595,-797,0,0,0,0,0,0,0,0,0,-1,629,1821,0,0
-588,-797,0,0,0,0,0,0,0,0,0,-1,636,1821,0,0
-581,-797,0,0,0,0,0,0,0,0,0,-1,643,1821,0,0
-574,-797,0,0,0,0,0,0,0,0,0,-1,650,1821,0,0
-567,-797,0,0,0,0,0,0,0,0,0,-1,657,1821,0,0
-560,-797,0,0,0,0,0,0,0,0,0,-1,664,1821,0,0
-553,-797,0,0,0,0,0,0,0,0,0,-1,671,1821,0,0
-546,-797,0,0,0,0,0,0,0,0,0,-1,678,1821,0,0
-539,-797,0,0,0,0,0,0,0,0,0,-1,685,1821,0,0
-532,-797,0,0,0,0,0,0,0,0,0,-1,692,1821,0,0
-525,-797,0,0,0,0,0,0,0,0,0,-1,699,1821,0,0
-518,-797,0,0,0,0,0,0,0,0,0,-1,706,1821,0,0
-511,-797,0,0,0,0,0,0,0,0,0,-1,713,1821,0,0
-504,-797,0,0,0,0,0,0,0,0,0,-1,720,1821,0,0
-497,-797,0,0,0,0,0,0,0,0,0,-1,727,1821,0,0
-490,-797,0,0,0,0,0,0,0,0,0,-1,734,1821,0,0
-483,-797,0,0,0,0,0,0,0,0,0,-1,741,1821,0,0
-476,-797,0,0,0,0,0,0,0,0,0,-1,748,1821,0,0
-469,-797,0,0,0,0,0,0,0,0,0,-1,755,1821,0,0
-462,-797,0,0,0,0,0,0,0,0,0,-1,762,1821,0,0
-455,-797,0,0,0,0,0,0,0,0,0,-1,769,1821,0,0
-448,-797,0,0,0,0,0,0,0,0,0,-1,776,1821,0,0
-441,-797,0,0,0,0,0,0,0,0,0,-1,783,1821,0,0
-434,-797,0,0,0,0,0,0,0,0,0,-1,790,1821,0,0
-427,-797,0,0,0,0,0,0,0,0,0,-1,797,1821,0,0
-420,-797,0,0,0,0,0,0,0,0,0,-1,804,1821,0,0
-413,-797,0,0,0,0,0,0,0,0,0,-1,811,1821,0,0
-406,-797,0,0,0,0,0,0,0,0,0,-1,818,1821,0,0
-399,-797,0,0,0,0,0,0,0,0,0,-1,825,1821,0,0
-392,-797,0,0,0,0,0,0,0,0,0,-1,832,1821,0,0
-385,-797,0,0,0,0,0,0,0,0,0,-1,839,1821,0,0
-378,-797,0,0,0,0,0,0,0,0,0,-1,846,1821,0,0
-371,-797,0,0,0,0,0,0,0,0,0,-1,853,1821,0,0
-364,-797,0,0,0,0,0,0,0,0,0,-1,860,1821,0,0
-357,-797,0,0,0,0,0,0,0,0,0,-1,867,1821,0,0
-350,-797,0,0,0,0,0,0,0,0,0,-1,874,1821,0,0
-343,-797,0,0,0,0,0,0,0,0,0,-1,881,1821,0,0
-336,-797,0,0,0,0,0,0,0,0,0,-1,888,1821,0,0
-329,-797,0,0,0,0,0,0,0,0,0,-1,895,1821,0,0
-322,-797,0,0,0,0,0,0,0,0,0,-1,902,1821,0,0
-315,-797,0,0,0,0,0,0,0,0,0,-1,909,1821,0,0
-308,-797,0,0,0,0,0,0,0,0,0,-1,916,1821,0,0
-301,-797,0,0,0,0,0,0,0,0,0,-1,923,1821,0,0
-294,-797,0,0,0,0,0,0,0,0,0,-1,930,1821,0,0
-287,-797,0,0,0,0,0,0,0,0,0,-1,937,1821,0,0
-280,-797,0,0,0,0,0,0,0,0,0,-1,944,1821,0,0
-273,-797,0,0,0,0,0,0,0,0,0,-1,951,1821,0,0
-266,-797,0,0,0,0,0,0,0,0,0,-1,958,1821,0,0
-259,-797,0,0,0,0,0,0,0,0,0,-1,965,1821,0,0
-252,-797,0,0,0,0,0,0,0,0,0,-1,972,1821,0,0
-245,-797,0,0,0,0,0,0,0,0,0,-1,979,1821,0,0
-238,-797,0,0,0,0,0,0,0,0,0,-1,986,1821,0,0
-231,-797,0,0,0,0,0,0,0,0,0,-1,993,1821,0,0
-224,-797,0,0,0,0,0,0,0,0,0,-1,1000,1821,0,0
-217,-797,0,0,0,0,0,0,0,0,0,-1,1007,1821,0,0
-210,-797,0,0,0,0,0,0,0,0,0,-1,1014,1821,0,0
-203,-797,0,0,0,0,0,0,0,0,0,-1,1021,1821,0,0
-196,-797,0,0,0,0,0,0,0,0,0,-1,1028,1821,0,0
-189,-797,0,0,0,0,0,0,0,0,0,-1,1035,1821,0,0
-182,-797,0,0,0,0,0,0,0,0,0,-1,1042,1821,0,0
-175,-797,0,0,0,0,0,0,0,0,0,-1,1049,1821,0,0
-168,-797,0,0,0,0,0,0,0,0,0,-1,1056,1821,0,0
-161,-797,0,0,0,0,0,0,0,0,0,-1,1063,1821,0,0
-154,-797,0,0,0,0,0,0,0,0,0,-1,1070,1821,0,0
-147,-797,0,0,0,0,0,0,0,0,0,-1,1077,1821,0,0
-140,-797,0,0,0,0,0,0,0,0,0,-1,1084,1821,0,0
-133,-797,0,0,0,0,0,0,0,0,0,-1,1091,1821,0,0
-126,-797,0,0,0,0,0,0,0,0,0,-1,1098,1821,0,0
-119,-797,0,0,0,0,0,0,0,0,0,-1,1105,1821,0,0
-112,-797,0,0,0,0,0,0,0,0,0,-1,1112,1821,0,0
-105,-797,0,0,0,0,0,0,0,0,0,-1,1119,1821,0,0
-98,-797,0,0,0,0,0,0,0,0,0,-1,1126,1821,0,0
-91,-797,0,0,0,0,0,0,0,0,0,-1,1133,1821,0,0
-84,-797,0,0,0,0,0,0,0,0,0,-1,1140,1821,0,0
-77,-797,0,0,0,0,0,0,0,0,0,-1,1147,1821,0,0
-70,-797,0,0,0,0,0,0,0,0,0,-1,1154,1821,0,0
-63,-797,0,0,0,0,0,0,0,0,0,-1,1161,1821,0,0
-56,-797,0,0,0,0,0,0,0,0,0,-1,1168,1821,0,0
-49,-797,0,0,0,0,0,0,0,0,0,-1,1175,1821,0,0
-42,-797,0.579834,0.692871,0,0,0,0,0,0,0,-1,1182,1821,0.579856,-0.692816
-35,-797,-0.185425,5.55396,0,0,0,0,0,0,0,-1,1189,1821,-0.18542,-5.55396
-28,-797,-0.310181,4.71509,0,0,0,0,0,0,0,-1,1196,1821,-0.310228,-4.71503
-21,-797,7.48779,35.4874,0,0,0,0,0,0,0,-1,1203,1821,7.48781,-35.4875
-14,-797,7.44312,36.4705,0,0,0,0,0,0,0,-1,1210,1821,7.44309,-36.4704
-7,-797,5.8429,40.8226,0,0,0,0,0,0,0,-1,1217,1821,5.84293,-40.8226
0,-797,7.40662,40.8179,0,0,0,0,0,0,0,-1,1224,1821,7.40656,-40.8178
7,-797,6.17273,40.1261,-0.0593058,-0.037361,0.0123789,-0.0317916,-0.0648752,1.14802,0.0374582,0.0459637,1231,1821,6.17267,-40.1261
14,-797,5.26086,39.6765,-0.0575801,-0.0395737,0.00506969,-0.0382445,-0.0589093,1.31437,0.0345124,0.0450946,1238,1821,5.26086,-39.6766
21,-797,5.57568,38.5829,0,0,0,0,0,0,0,-1,1245,1821,5.57566,-38.5829
28,-797,6.18921,37.9233,-0.0650424,-0.0434907,-0.00703748,-0.0413962,-0.0671368,-1.28153,0.0391112,0.0420786,1252,1821,6.1892,-37.9233
35,-797,7.93799,38.9977,-0.0730684,-0.0476615,-0.0123975,-0.0426146,-0.0781153,-1.18419,0.0451622,0.048803,1259,1821,7.938,-38.9977
42,-797,6.96582,38.3168,-0.0783476,-0.045738,-0.012195,-0.041682,-0.0824037,-1.24971,0.0475769,0.0481118,1266,1821,6.96581,-38.3167
49,-797,5.91284,37.6063,-0.0699928,-0.0422954,-0.00814136,-0.0400796,-0.0722086,-1.30507,0.0417738,0.0463267,1273,1821,5.9128,-37.6063
56,-797,4.78479,36.9485,-0.0666379,-0.0400361,-0.00345385,-0.0395949,-0.067079,-1.44377,0.0389379,0.0430584,1280,1821,4.78474,-36.9485
63,-797,3.68237,36.3157,-0.0597184,-0.0383503,0.00247771,-0.0380668,-0.060002,1.45686,0.035057,0.0424415,1287,1821,3.68236,-36.3156
70,-797,2.48816,35.345,-0.0504688,-0.0379576,0.00923846,-0.0330561,-0.0553703,1.083,0.032168,0.040242,1294,1821,2.48817,-35.345
77,-797,1.30505,34.3966,-0.036113,-0.0355572,0.0189275,-0.0169055,-0.0547647,0.79274,0.0323807,0.0402316,1301,1821,1.30504,-34.3966
84,-797,-0.187622,33.9637,0,0,0,0,0,0,0,-1,1308,1821,-0.18767,-33.9637
91,-797,-0.835327,33.8701,-0.00781013,-0.0393511,0.0341465,0.0140317,-0.061193,0.569066,0.0461886,0.0446117,1315,1821,-0.835345,-33.8702
98,-797,-2.23938,33.0358,0,0,0,0,0,0,0,-1,1322,1821,-2.23934,-33.0358
105,-797,-3.72559,32.0437,0.00801409,-0.0661997,0.0337976,0.0210989,-0.0792844,0.36938,0.0611155,0.0465535,1329,1821,-3.72556,-32.0436
112,-797,-5.03357,30.6815,-0.000950303,-0.0908658,0.0234971,0.0048198,-0.0966359,0.240801,0.0660892,0.0454917,1336,1821,-5.0336,-30.6815
119,-797,-6.00439,29.4275,-0.0254282,-0.121665,0.00722161,-0.0248893,-0.122204,0.074484,0.0745706,0.0444285,1343,1821,-6.00437,-29.4275
126,-797,-7.07458,28.1888,0,0,0,0,0,0,0,-1,1350,1821,-7.07457,-28.1888
133,-797,-8.12036,26.9442,0,0,0,0,0,0,0,-1,1357,1821,-8.12031,-26.9443
140,-797,15.7264,35.1793,0,0,0,0,0,0,0,-1,1364,1821,15.7265,-35.1793
147,-797,16.7083,34.7194,0,0,0,0,0,0,0,-1,1371,1821,16.7083,-34.7194
154,-797,40.2623,8.88733,0,0,0,0,0,0,0,-1,1378,1821,40.2623,-8.88731
161,-797,42.2798,8.17371,0,0,0,0,0,0,0,-1,1385,1821,42.2798,-8.17367
168,-797,0,0,0,0,0,0,0,0,0,-1,1392,1821,0,0
175,-797,0,0,0,0,0,0,0,0,0,-1,1399,1821,0,0
182,-797,0,0,0,0,0,0,0,0,0,-1,1406,1821,0,0
189,-797,0,0,0,0,0,0,0,0,0,-1,1413,1821,0,0
196,-797,0,0,0,0,0,0,0,0,0,-1,1420,1821,0,0
203,-797,0,0,0,0,0,0,0,0,0,-1,1427,1821,0,0
210,-797,0,0,0,0,0,0,0,0,0,-1,1434,1821,0,0
217,-797,0,0,0,0,0,0,0,0,0,-1,1441,1821,0,0
224,-797,0,0,0,0,0,0,0,0,0,-1,1448,1821,0,0
231,-797,0,0,0,0,0,0,0,0,0,-1,1455,1821,0,0
238,-797,0,0,0,0,0,0,0,0,0,-1,1462,1821,0,0
245,-797,0,0,0,0,0,0,0,0,0,-1,1469,1821,0,0
252,-797,0,0,0,0,0,0,0,0,0,-1,1476,1821,0,0
259,-797,0,0,0,0,0,0,0,0,0,-1,1483,1821,0,0
266,-797,0,0,0,0,0,0,0,0,0,-1,1490,1821,0,0
273,-797,0,0,0,0,0,0,0,0,0,-1,1497,1821,0,0
280,-797,0,0,0,0,0,0,0,0,0,-1,1504,1821,0,0
287,-797,0,0,0,0,0,0,0,0,0,-1,1511,1821,0,0
294,-797,0,0,0,0,0,0,0,0,0,-1,1518,1821,0,0
301,-797,0,0,0,0,0,0,0,0,0,-1,1525,1821,0,0
308,-797,0,0,0,0,0,0,0,0,0,-1,1532,1821,0,0
315,-797,0,0,0,0,0,0,0,0,0,-1,1539,1821,0,0
322,-797,0,0,0,0,0,0,0,0,0,-1,1546,1821,0,0
329,-797,0,0,0,0,0,0,0,0,0,-1,1553,1821,0,0
336,-797,0,0,0,0,0,0,0,0,0,-1,1560,1821,0,0
343,-797,0,0,0,0,0,0,0,0,0,-1,1567,1821,0,0
350,-797,0,0,0,0,0,0,0,0,0,-1,1574,1821,0,0
357,-797,0,0,0,0,0,0,0,0,0,-1,1581,1821,0,0
364,-797,0,0,0,0,0,0,0,0,0,-1,1588,1821,0,0
371,-797,0,0,0,0,0,0,0,0,0,-1,1595,1821,0,0
378,-797,0,0,0,0,0,0,0,0,0,-1,1602,1821,0,0
385,-797,0,0,0,0,0,0,0,0,0,-1,1609,1821,0,0
392,-797,0,0,0,0,0,0,0,0,0,-1,1616,1821,0,0
399,-797,0,0,0,0,0,0,0,0,0,-1,1623,1821,0,0
406,-797,0,0,0,0,0,0,0,0,0,-1,1630,1821,0,0
413,-797,0,0,0,0,0,0,0,0,0,-1,1637,1821,0,0
420,-797,0,0,0,0,0,0,0,0,0,-1,1644,1821,0,0
427,-797,0,0,0,0,0,0,0,0,0,-1,1651,1821,0,0
434,-797,0,0,0,0,0,0,0,0,0,-1,1658,1821,0,0
441,-797,0,0,0,0,0,0,0,0,0,-1,1665,1821,0,0
448,-797,0,0,0,0,0,0,0,0,0,-1,1672,1821,0,0
455,-797,0,0,0,0,0,0,0,0,0,-1,1679,1821,0,0
462,-797,0,0,0,0,0,0,0,0,0,-1,1686,1821,0,0
469,-797,0,0,0,0,0,0,0,0,0,-1,1693,1821,0,0
476,-797,0,0,0,0,0,0,0,0,0,-1,1700,1821,0,0
483,-797,0,0,0,0,0,0,0,0,0,-1,1707,1821,0,0
490,-797,0,0,0,0,0,0,0,0,0,-1,1714,1821,0,0
497,-797,0,0,0,0,0,0,0,0,0,-1,1721,1821,0,0
504,-797,0,0,0,0,0,0,0,0,0,-1,1728,1821,0,0
511,-797,0,0,0,0,0,0,0,0,0,-1,1735,1821,0,0
518,-797,0,0,0,0,0,0,0,0,0,-1,1742,1821,0,0
525,-797,0,0,0,0,0,0,0,0,0,-1,1749,1821,0,0
532,-797,0,0,0,0,0,0,0,0,0,-1,1756,1821,0,0
539,-797,0,0,0,0,0,0,0,0,0,-1,1763,1821,0,0
546,-797,0,0,0,0,0,0,0,0,0,-1,1770,1821,0,0
553,-797,0,0,0,0,0,0,0,0,0,-1,1777,1821,0,0
560,-797,0,0,0,0,0,0,0,0,0,-1,1784,1821,0,0
567,-797,0,0,0,0,0,0,0,0,0,-1,1791,1821,0,0
574,-797,0,0,0,0,0,0,0,0,0,-1,1798,1821,0,0
581,-797,0,0,0,0,0,0,0,0,0,-1,1805,1821,0,0
588,-797,0,0,0,0,0,0,0,0,0,-1,1812,1821,0,0
595,-797,0,0,0,0,0,0,0,0,0,-1,1819,1821,0,0
602,-797,0,0,0,0,0,0,0,0,0,-1,1826,1821,0,0
609,-797,0,0,0,0,0,0,0,0,0,-1,1833,1821,0,0
616,-797,0,0,0,0,0,0,0,0,0,-1,1840,1821,0,0
623,-797,0,0,0,0,0,0,0,0,0,-1,1847,1821,0,0
630,-797,0,0,0,0,0,0,0,0,0,-1,1854,1821,0,0
637,-797,0,0,0,0,0,0,0,0,0,-1,1861,1821,0,0
644,-797,0,0,0,0,0,0,0,0,0,-1,1868,1821,0,0
651,-797,0,0,0,0,0,0,0,0,0,-1,1875,1821,0,0
658,-797,0,0,0,0,0,0,0,0,0,-1,1882,1821,0,0
665,-797,0,0,0,0,0,0,0,0,0,-1,1889,1821,0,0
672,-797,0,0,0,0,0,0,0,0,0,-1,1896,1821,0,0
679,-797,0,0,0,0,0,0,0,0,0,-1,1903,1821,0,0
686,-797,0,0,0,0,0,0,0,0,0,-1,1910,1821,0,0
693,-797,0,0,0,0,0,0,0,0,0,-1,1917,1821,0,0
700,-797,0,0,0,0,0,0,0,0,0,-1,1924,1821,0,0
707,-797,0,0,0,0,0,0,0,0,0,-1,1931,1821,0,0
714,-797,0,0,0,0,0,0,0,0,0,-1,1938,1821,0,0
721,-797,0,0,0,0,0,0,0,0,0,-1,1945,1821,0,0
728,-797,0,0,0,0,0,0,0,0,0,-1,1952,1821,0,0
735,-797,0,0,0,0,0,0,0,0,0,-1,1959,1821,0,0
742,-797,0,0,0,0,0,0,0,0,0,-1,1966,1821,0,0
749,-797,0,0,0,0,0,0,0,0,0,-1,1973,1821,0,0
756,-797,0,0,0,0,0,0,0,0,0,-1,1980,1821,0,0
763,-797,0,0,0,0,0,0,0,0,0,-1,1987,1821,0,0
770,-797,0,0,0,0,0,0,0,0,0,-1,1994,1821,0,0
777,-797,0,0,0,0,0,0,0,0,0,-1,2001,1821,0,0
784,-797,0,0,0,0,0,0,0,0,0,-1,2008,1821,0,0
791,-797,0,0,0,0,0,0,0,0,0,-1,2015,1821,0,0
798,-797,0,0,0,0,0,0,0,0,0,-1,2022,1821,0,0
805,-797,0,0,0,0,0,0,0,0,0,-1,2029,1821,0,0
812,-797,0,0,0,0,0,0,0,0,0,-1,2036,1821,0,0
-700,-804,0,0,0,0,0,0,0,0,0,-1,524,1828,0,0
-693,-804,0,0,0,0,0,0,0,0,0,-1,531,1828,0,0
-686,-804,0,0,0,0,0,0,0,0,0,-1,538,1828,0,0
-679,-804,0,0,0,0,0,0,0,0,0,-1,545,1828,0,0
-672,-804,0,0,0,0,0,0,0,0,0,-1,552,1828,0,0
-665,-804,0,0,0,0,0,0,0,0,0,-1,559,1828,0,0
-658,-804,0,0,0,0,0,0,0,0,0,-1,566,1828,0,0
-651,-804,0,0,0,0,0,0,0,0,0,-1,573,1828,0,0
-644,-804,0,0,0,0,0,0,0,0,0,-1,580,1828,0,0
-637,-804,0,0,0,0,0,0,0,0,0,-1,587,1828,0,0
-630,-804,0,0,0,0,0,0,0,0,0,-1,594,1828,0,0
-623,-804,0,0,0,0,0,0,0,0,0,-1,601,1828,0,0
-616,-804,0,0,0,0,0,0,0,0,0,-1,608,1828,0,0
-609,-804,0,0,0,0,0,0,0,0,0,-1,615,1828,0,0
-602,-804,0,0,0,0,0,0,0,0,0,-1,622,1828,0,0
-595,-804,0,0,0,0,0,0,0,0,0,-1,629,1828,0,0
-588,-804,0,0,0,0,0,0,0,0,0,-1,636,1828,0,0
-581,-804,0,0,0,0,0,0,0,0,0,-1,643,1828,0,0
-574,-804,0,0,0,0,0,0,0,0,0,-1,650,1828,0,0
-567,-804,0,0,0,0,0,0,0,0,0,-1,657,1828,0,0
-560,-804,0,0,0,0,0,0,0,0,0,-1,664,1828,0,0
-553,-804,0,0,0,0,0,0,0,0,0,-1,671,1828,0,0
-546,-804,0,0,0,0,0,0,0,0,0,-1,678,1828,0,0
-539,-804,0,0,0,0,0,0,0,0,0,-1,685,1828,0,0
-532,-804,0,0,0,0,0,0,0,0,0,-1,692,1828,0,0
-525,-804,0,0,0,0,0,0,0,0,0,-1,699,1828,0,0
-518,-804,0,0,0,0,0,0,0,0,0,-1,706,1828,0,0
-511,-804,0,0,0,0,0,0,0,0,0,-1,713,1828,0,0
-504,-804,0,0,0,0,0,0,0,0,0,-1,720,1828,0,0
-497,-804,0,0,0,0,0,0,0,0,0,-1,727,1828,0,0
-490,-804,0,0,0,0,0,0,0,0,0,-1,734,1828,0,0
-483,-804,0,0,0,0,0,0,0,0,0,-1,741,1828,0,0
-476,-804,0,0,0,0,0,0,0,0,0,-1,748,1828,0,0
-469,-804,0,0,0,0,0,0,0,0,0,-1,755,1828,0,0
-462,-804,0,0,0,0,0,0,0,0,0,-1,762,1828,0,0
-455,-804,0,0,0,0,0,0,0,0,0,-1,769,1828,0,0
-448,-804,0,0,0,0,0,0,0,0,0,-1,776,1828,0,0
-441,-804,0,0,0,0,0,0,0,0,0,-1,783,1828,0,0
-434,-804,0,0,0,0,0,0,0,0,0,-1,790,1828,0,0
-427,-804,0,0,0,0,0,0,0,0,0,-1,797,1828,0,0
-420,-804,0,0,0,0,0,0,0,0,0,-1,804,1828,0,0
-413,-804,0,0,0,0,0,0,0,0,0,-1,811,1828,0,0
-406,-804,0,0,0,0,0,0,0,0,0,-1,818,1828,0,0
-399,-804,0,0,0,0,0,0,0,0,0,-1,825,1828,0,0
-392,-804,0,0,0,0,0,0,0,0,0,-1,832,1828,0,0
-385,-804,0,0,0,0,0,0,0,0,0,-1,839,1828,0,0
-378,-804,0,0,0,0,0,0,0,0,0,-1,846,1828,0,0
-371,-804,0,0,0,0,0,0,0,0,0,-1,853,1828,0,0
-364,-804,0,0,0,0,0,0,0,0,0,-1,860,1828,0,0
-357,-804,0,0,0,0,0,0,0,0,0,-1,867,1828,0,0
-350,-804,0,0,0,0,0,0,0,0,0,-1,874,1828,0,0
-343,-804,0,0,0,0,0,0,0,0,0,-1,881,1828,0,0
-336,-804,0,0,0,0,0,0,0,0,0,-1,888,1828,0,0
-329,-804,0,0,0,0,0,0,0,0,0,-1,895,1828,0,0
-322,-804,0,0,0,0,0,0,0,0,0,-1,902,1828,0,0
-315,-804,0,0,0,0,0,0,0,0,0,-1,909,1828,0,0
-308,-804,0,0,0,0,0,0,0,0,0,-1,916,1828,0,0
-301,-804,0,0,0,0,0,0,0,0,0,-1,923,1828,0,0
-294,-804,0,0,0,0,0,0,0,0,0,-1,930,1828,0,0
-287,-804,0,0,0,0,0,0,0,0,0,-1,937,1828,0,0
-280,-804,0,0,0,0,0,0,0,0,0,-1,944,1828,0,0
-273,-804,0,0,0,0,0,0,0,0,0,-1,951,1828,0,0
-266,-804,0,0,0,0,0,0,0,0,0,-1,958,1828,0,0
-259,-804,0,0,0,0,0,0,0,0,0,-1,965,1828,0,0
-252,-804,0,0,0,0,0,0,0,0,0,-1,972,1828,0,0
-245,-804,0,0,0,0,0,0,0,0,0,-1,979,1828,0,0
-238,-804,0,0,0,0,0,0,0,0,0,-1,986,1828,0,0
-231,-804,0,0,0,0,0,0,0,0,0,-1,993,1828,0,0
-224,-804,0,0,0,0,0,0,0,0,0,-1,1000,1828,0,0
-217,-804,0,0,0,0,0,0,0,0,0,-1,1007,1828,0,0
-210,-804,0,0,0,0,0,0,0,0,0,-1,1014,1828,0,0
-203,-804,0,0,0,0,0,0,0,0,0,-1,1021,1828,0,0
-196,-804,0,0,0,0,0,0,0,0,0,-1,1028,1828,0,0
-189,-804,0,0,0,0,0,0,0,0,0,-1,1035,1828,0,0
-182,-804,0,0,0,0,0,0,0,0,0,-1,1042,1828,0,0
-175,-804,0,0,0,0,0,0,0,0,0,-1,1049,1828,0,0
-168,-804,0,0,0,0,0,0,0,0,0,-1,1056,1828,0,0
-161,-804,0,0,0,0,0,0,0,0,0,-1,1063,1828,0,0
-154,-804,0,0,0,0,0,0,0,0,0,-1,1070,1828,0,0
-147,-804,0,0,0,0,0,0,0,0,0,-1,1077,1828,0,0
-140,-804,0,0,0,0,0,0,0,0,0,-1,1084,1828,0,0
-133,-804,0,0,0,0,0,0,0,0,0,-1,1091,1828,0,0
-126,-804,0,0,0,0,0,0,0,0,0,-1,1098,1828,0,0
-119,-804,0,0,0,0,0,0,0,0,0,-1,1105,1828,0,0
-112,-804,0,0,0,0,0,0,0,0,0,-1,1112,1828,0,0
-105,-804,0,0,0,0,0,0,0,0,0,-1,1119,1828,0,0
-98,-804,0,0,0,0,0,0,0,0,0,-1,1126,1828,0,0
-91,-804,0,0,0,0,0,0,0,0,0,-1,1133,1828,0,0
-84,-804,0,0,0,0,0,0,0,0,0,-1,1140,1828,0,0
-77,-804,0,0,0,0,0,0,0,0,0,-1,1147,1828,0,0
-70,-804,0,0,0,0,0,0,0,0,0,-1,1154,1828,0,0
-63,-804,0,0,0,0,0,0,0,0,0,-1,1161,1828,0,0
-56,-804,0,0,0,0,0,0,0,0,0,-1,1168,1828,0,0
-49,-804,0,0,0,0,0,0,0,0,0,-1,1175,1828,0,0
-42,-804,0,0,0,0,0,0,0,0,0,-1,1182,1828,0,0
-35,-804,0,0,0,0,0,0,0,0,0,-1,1189,1828,0,0
-28,-804,0,0,0,0,0,0,0,0,0,-1,1196,1828,0,0
-21,-804,0,0,0,0,0,0,0,0,0,-1,1203,1828,0,0
-14,-804,0,0,0,0,0,0,0,0,0,-1,1210,1828,0,0
-7,-804,0,0,0,0,0,0,0,0,0,-1,1217,1828,0,0
0,-804,0,0,0,0,0,0,0,0,0,-1,1224,1828,0,0
7,-804,0,0,0,0,0,0,0,0,0,-1,1231,1828,0,0
14,-804,0,0,0,0,0,0,0,0,0,-1,1238,1828,0,0
21,-804,0,0,0,0,0,0,0,0,0,-1,1245,1828,0,0
28,-804,0,0,0,0,0,0,0,0,0,-1,1252,1828,0,0
35,-804,8.05762,39.6764,-0.0897564,-0.0607065,-0.0174289,-0.0525436,-0.0979194,-1.13278,0.0565843,0.0489464,1259,1828,8.05759,-39.6764
42,-804,7.13647,38.9191,-0.0998923,-0.0694403,-0.0224071,-0.0575756,-0.111757,-1.08382,0.0645329,0.0472109,1266,1828,7.13645,-38.9191
49,-804,6.01611,38.0948,-0.0988439,-0.0695672,-0.0205324,-0.0589893,-0.109422,-1.09508,0.0632391,0.0453907,1273,1828,6.01617,-38.0949
56,-804,4.83643,37.3032,-0.0979512,-0.0710017,-0.016907,-0.0628566,-0.106096,-1.12185,0.0616027,0.0452708,1280,1828,4.8364,-37.3032
63,-804,3.5968,36.7653,-0.093363,-0.0734477,-0.0116506,-0.0680792,-0.0987315,-1.13901,0.0583519,0.0449239,1287,1828,3.59685,-36.7653
70,-804,2.25757,36.2256,-0.0865585,-0.0776218,-0.00554688,-0.0749674,-0.0892129,-1.12446,0.0553413,0.0453689,1294,1828,2.25751,-36.2255
77,-804,1.05334,35.5664,-0.0735323,-0.0794622,0.00393073,-0.0715737,-0.0814209,0.462274,0.0513141,0.0446257,1301,1828,1.05328,-35.5664
84,-804,-0.110596,34.9617,0,0,0,0,0,0,0,-1,1308,1828,-0.110561,-34.9617
91,-804,0,0,0,0,0,0,0,0,0,-1,1315,1828,0,0
98,-804,0,0,0,0,0,0,0,0,0,-1,1322,1828,0,0
105,-804,0,0,0,0,0,0,0,0,0,-1,1329,1828,0,0
112,-804,0,0,0,0,0,0,0,0,0,-1,1336,1828,0,0
119,-804,0,0,0,0,0,0,0,0,0,-1,1343,1828,0,0
126,-804,0,0,0,0,0,0,0,0,0,-1,1350,1828,0,0
133,-804,0,0,0,0,0,0,0,0,0,-1,1357,1828,0,0
140,-804,0,0,0,0,0,0,0,0,0,-1,1364,1828,0,0
147,-804,0,0,0,0,0,0,0,0,0,-1,1371,1828,0,0
154,-804,0,0,0,0,0,0,0,0,0,-1,1378,1828,0,0
161,-804,0,0,0,0,0,0,0,0,0,-1,1385,1828,0,0
168,-804,0,0,0,0,0,0,0,0,0,-1,1392,1828,0,0
175,-804,0,0,0,0,0,0,0,0,0,-1,1399,1828,0,0
182,-804,0,0,0,0,0,0,0,0,0,-1,1406,1828,0,0
189,-804,0,0,0,0,0,0,0,0,0,-1,1413,1828,0,0
196,-804,0,0,0,0,0,0,0,0,0,-1,1420,1828,0,0
203,-804,0,0,0,0,0,0,0,0,0,-1,1427,1828,0,0
210,-804,0,0,0,0,0,0,0,0,0,-1,1434,1828,0,0
217,-804,0,0,0,0,0,0,0,0,0,-1,1441,1828,0,0
224,-804,0,0,0,0,0,0,0,0,0,-1,1448,1828,0,0
231,-804,0,0,0,0,0,0,0,0,0,-1,1455,1828,0,0
238,-804,0,0,0,0,0,0,0,0,0,-1,1462,1828,0,0
245,-804,0,0,0,0,0,0,0,0,0,-1,1469,1828,0,0
252,-804,0,0,0,0,0,0,0,0,0,-1,1476,1828,0,0
259,-804,0,0,0,0,0,0,0,0,0,-1,1483,1828,0,0
266,-804,0,0,0,0,0,0,0,0,0,-1,1490,1828,0,0
273,-804,0,0,0,0,0,0,0,0,0,-1,1497,1828,0,0
280,-804,0,0,0,0,0,0,0,0,0,-1,1504,1828,0,0
287,-804,0,0,0,0,0,0,0,0,0,-1,1511,1828,0,0
294,-804,0,0,0,0,0,0,0,0,0,-1,1518,1828,0,0
301,-804,0,0,0,0,0,0,0,0,0,-1,1525,1828,0,0
308,-804,0,0,0,0,0,0,0,0,0,-1,1532,1828,0,0
315,-804,0,0,0,0,0,0,0,0,0,-1,1539,1828,0,0
322,-804,0,0,0,0,0,0,0,0,0,-1,1546,1828,0,0
329,-804,0,0,0,0,0,0,0,0,0,-1,1553,1828,0,0
336,-804,0,0,0,0,0,0,0,0,0,-1,1560,1828,0,0
343,-804,0,0,0,0,0,0,0,0,0,-1,1567,1828,0,0
350,-804,0,0,0,0,0,0,0,0,0,-1,1574,1828,0,0
357,-804,0,0,0,0,0,0,0,0,0,-1,1581,1828,0,0
364,-804,0,0,0,0,0,0,0,0,0,-1,1588,1828,0,0
371,-804,0,0,0,0,0,0,0,0,0,-1,1595,1828,0,0
378,-804,0,0,0,0,0,0,0,0,0,-1,1602,1828,0,0
385,-804,0,0,0,0,0,0,0,0,0,-1,1609,1828,0,0
392,-804,0,0,0,0,0,0,0,0,0,-1,1616,1828,0,0
399,-804,0,0,0,0,0,0,0,0,0,-1,1623,1828,0,0
406,-804,0,0,0,0,0,0,0,0,0,-1,1630,1828,0,0
413,-804,0,0,0,0,0,0,0,0,0,-1,1637,1828,0,0
420,-804,0,0,0,0,0,0,0,0,0,-1,1644,1828,0,0
427,-804,0,0,0,0,0,0,0,0,0,-1,1651,1828,0,0
434,-804,0,0,0,0,0,0,0,0,0,-1,1658,1828,0,0
441,-804,0,0,0,0,0,0,0,0,0,-1,1665,1828,0,0
448,-804,0,0,0,0,0,0,0,0,0,-1,1672,1828,0,0
455,-804,0,0,0,0,0,0,0,0,0,-1,1679,1828,0,0
462,-804,0,0,0,0,0,0,0,0,0,-1,1686,1828,0,0
469,-804,0,0,0,0,0,0,0,0,0,-1,1693,1828,0,0
476,-804,0,0,0,0,0,0,0,0,0,-1,1700,1828,0,0
483,-804,0,0,0,0,0,0,0,0,0,-1,1707,1828,0,0
490,-804,0,0,0,0,0,0,0,0,0,-1,1714,1828,0,0
497,-804,0,0,0,0,0,0,0,0,0,-1,1721,1828,0,0
504,-804,0,0,0,0,0,0,0,0,0,-1,1728,1828,0,0
511,-804,0,0,0,0,0,0,0,0,0,-1,1735,1828,0,0
518,-804,0,0,0,0,0,0,0,0,0,-1,1742,1828,0,0
525,-804,0,0,0,0,0,0,0,0,0,-1,1749,1828,0,0
532,-804,0,0,0,0,0,0,0,0,0,-1,1756,1828,0,0
539,-804,0,0,0,0,0,0,0,0,0,-1,1763,1828,0,0
546,-804,0,0,0,0,0,0,0,0,0,-1,1770,1828,0,0
553,-804,0,0,0,0,0,0,0,0,0,-1,1777,1828,0,0
560,-804,0,0,0,0,0,0,0,0,0,-1,1784,1828,0,0
567,-804,0,0,0,0,0,0,0,0,0,-1,1791,1828,0,0
574,-804,0,0,0,0,0,0,0,0,0,-1,1798,1828,0,0
581,-804,0,0,0,0,0,0,0,0,0,-1,1805,1828,0,0
588,-804,0,0,0,0,0,0,0,0,0,-1,1812,1828,0,0
595,-804,0,0,0,0,0,0,0,0,0,-1,1819,1828,0,0
602,-804,0,0,0,0,0,0,0,0,0,-1,1826,1828,0,0
609,-804,0,0,0,0,0,0,0,0,0,-1,1833,1828,0,0
616,-804,0,0,0,0,0,0,0,0,0,-1,1840,1828,0,0
623,-804,0,0,0,0,0,0,0,0,0,-1,1847,1828,0,0
630,-804,0,0,0,0,0,0,0,0,0,-1,1854,1828,0,0
637,-804,0,0,0,0,0,0,0,0,0,-1,1861,1828,0,0
644,-804,0,0,0,0,0,0,0,0,0,-1,1868,1828,0,0
651,-804,0,0,0,0,0,0,0,0,0,-1,1875,1828,0,0
658,-804,0,0,0,0,0,0,0,0,0,-1,1882,1828,0,0
665,-804,0,0,0,0,0,0,0,0,0,-1,1889,1828,0,0
672,-804,0,0,0,0,0,0,0,0,0,-1,1896,1828,0,0
679,-804,0,0,0,0,0,0,0,0,0,-1,1903,1828,0,0
686,-804,0,0,0,0,0,0,0,0,0,-1,1910,1828,0,0
693,-804,0,0,0,0,0,0,0,0,0,-1,1917,1828,0,0
700,-804,0,0,0,0,0,0,0,0,0,-1,1924,1828,0,0
707,-804,0,0,0,0,0,0,0,0,0,-1,1931,1828,0,0
714,-804,0,0,0,0,0,0,0,0,0,-1,1938,1828,0,0
721,-804,0,0,0,0,0,0,0,0,0,-1,1945,1828,0,0
728,-804,0,0,0,0,0,0,0,0,0,-1,1952,1828,0,0
735,-804,0,0,0,0,0,0,0,0,0,-1,1959,1828,0,0
742,-804,0,0,0,0,0,0,0,0,0,-1,1966,1828,0,0
749,-804,0,0,0,0,0,0,0,0,0,-1,1973,1828,0,0
756,-804,0,0,0,0,0,0,0,0,0,-1,1980,1828,0,0
763,-804,0,0,0,0,0,0,0,0,0,-1,1987,1828,0,0
770,-804,0,0,0,0,0,0,0,0,0,-1,1994,1828,0,0
777,-804,0,0,0,0,0,0,0,0,0,-1,2001,1828,0,0
784,-804,0,0,0,0,0,0,0,0,0,-1,2008,1828,0,0
791,-804,0,0,0,0,0,0,0,0,0,-1,2015,1828,0,0
798,-804,0,0,0,0,0,0,0,0,0,-1,2022,1828,0,0
805,-804,0,0,0,0,0,0,0,0,0,-1,2029,1828,0,0
812,-804,0,0,0,0,0,0,0,0,0,-1,2036,1828,0,0

