 "x_c",  "y_c",  "u_c",  "v_c",  "exx",  "eyy",  "exy",  "e1",  "e2",  "gamma",  "e_vonmises",  "sigma",  "x",  "y",  "u",  "v"
-700,715,0,0,0,0,0,0,0,0,0,-1,524,309,0,0
-693,715,0,0,0,0,0,0,0,0,0,-1,531,309,0,0
-686,715,0,0,0,0,0,0,0,0,0,-1,538,309,0,0
-679,715,0,0,0,0,0,0,0,0,0,-1,545,309,0,0
-672,715,0,0,0,0,0,0,0,0,0,-1,552,309,0,0
-665,715,0,0,0,0,0,0,0,0,0,-1,559,309,0,0
-658,715,0,0,0,0,0,0,0,0,0,-1,566,309,0,0
-651,715,0,0,0,0,0,0,0,0,0,-1,573,309,0,0
-644,715,0,0,0,0,0,0,0,0,0,-1,580,309,0,0
-637,715,0,0,0,0,0,0,0,0,0,-1,587,309,0,0
-630,715,0,0,0,0,0,0,0,0,0,-1,594,309,0,0
-623,715,0,0,0,0,0,0,0,0,0,-1,601,309,0,0
-616,715,0,0,0,0,0,0,0,0,0,-1,608,309,0,0
-609,715,0,0,0,0,0,0,0,0,0,-1,615,309,0,0
-602,715,0,0,0,0,0,0,0,0,0,-1,622,309,0,0
-595,715,0,0,0,0,0,0,0,0,0,-1,629,309,0,0
-588,715,0,0,0,0,0,0,0,0,0,-1,636,309,0,0
-581,715,0,0,0,0,0,0,0,0,0,-1,643,309,0,0
-574,715,0,0,0,0,0,0,0,0,0,-1,650,309,0,0
-567,715,0,0,0,0,0,0,0,0,0,-1,657,309,0,0
-560,715,0,0,0,0,0,0,0,0,0,-1,664,309,0,0
-553,715,0,0,0,0,0,0,0,0,0,-1,671,309,0,0
-546,715,0,0,0,0,0,0,0,0,0,-1,678,309,0,0
-539,715,0,0,0,0,0,0,0,0,0,-1,685,309,0,0
-532,715,0,0,0,0,0,0,0,0,0,-1,692,309,0,0
-525,715,0,0,0,0,0,0,0,0,0,-1,699,309,0,0
-518,715,0,0,0,0,0,0,0,0,0,-1,706,309,0,0
-511,715,0,0,0,0,0,0,0,0,0,-1,713,309,0,0
-504,715,0,0,0,0,0,0,0,0,0,-1,720,309,0,0
-497,715,0,0,0,0,0,0,0,0,0,-1,727,309,0,0
-490,715,0,0,0,0,0,0,0,0,0,-1,734,309,0,0
-483,715,0,0,0,0,0,0,0,0,0,-1,741,309,0,0
-476,715,0,0,0,0,0,0,0,0,0,-1,748,309,0,0
-469,715,0,0,0,0,0,0,0,0,0,-1,755,309,0,0
-462,715,0,0,0,0,0,0,0,0,0,-1,762,309,0,0
-455,715,0,0,0,0,0,0,0,0,0,-1,769,309,0,0
-448,715,0,0,0,0,0,0,0,0,0,-1,776,309,0,0
-441,715,0,0,0,0,0,0,0,0,0,-1,783,309,0,0
-434,715,0,0,0,0,0,0,0,0,0,-1,790,309,0,0
-427,715,0,0,0,0,0,0,0,0,0,-1,797,309,0,0
-420,715,0,0,0,0,0,0,0,0,0,-1,804,309,0,0
-413,715,0,0,0,0,0,0,0,0,0,-1,811,309,0,0
-406,715,0,0,0,0,0,0,0,0,0,-1,818,309,0,0
-399,715,0,0,0,0,0,0,0,0,0,-1,825,309,0,0
-392,715,0,0,0,0,0,0,0,0,0,-1,832,309,0,0
-385,715,0,0,0,0,0,0,0,0,0,-1,839,309,0,0
-378,715,0,0,0,0,0,0,0,0,0,-1,846,309,0,0
-371,715,0,0,0,0,0,0,0,0,0,-1,853,309,0,0
-364,715,0,0,0,0,0,0,0,0,0,-1,860,309,0,0
-357,715,0,0,0,0,0,0,0,0,0,-1,867,309,0,0
-350,715,0,0,0,0,0,0,0,0,0,-1,874,309,0,0
-343,715,0,0,0,0,0,0,0,0,0,-1,881,309,0,0
-336,715,0,0,0,0,0,0,0,0,0,-1,888,309,0,0
-329,715,0,0,0,0,0,0,0,0,0,-1,895,309,0,0
-322,715,0,0,0,0,0,0,0,0,0,-1,902,309,0,0
-315,715,0,0,0,0,0,0,0,0,0,-1,909,309,0,0
-308,715,0,0,0,0,0,0,0,0,0,-1,916,309,0,0
-301,715,0,0,0,0,0,0,0,0,0,-1,923,309,0,0
-294,715,0,0,0,0,0,0,0,0,0,-1,930,309,0,0
-287,715,0,0,0,0,0,0,0,0,0,-1,937,309,0,0
-280,715,0,0,0,0,0,0,0,0,0,-1,944,309,0,0
-273,715,0,0,0,0,0,0,0,0,0,-1,951,309,0,0
-266,715,0,0,0,0,0,0,0,0,0,-1,958,309,0,0
-259,715,0,0,0,0,0,0,0,0,0,-1,965,309,0,0
-252,715,0,0,0,0,0,0,0,0,0,-1,972,309,0,0
-245,715,0,0,0,0,0,0,0,0,0,-1,979,309,0,0
-238,715,0,0,0,0,0,0,0,0,0,-1,986,309,0,0
-231,715,0,0,0,0,0,0,0,0,0,-1,993,309,0,0
-224,715,0,0,0,0,0,0,0,0,0,-1,1000,309,0,0
-217,715,0,0,0,0,0,0,0,0,0,-1,1007,309,0,0
-210,715,0,0,0,0,0,0,0,0,0,-1,1014,309,0,0
-203,715,0,0,0,0,0,0,0,0,0,-1,1021,309,0,0
-196,715,0,0,0,0,0,0,0,0,0,-1,1028,309,0,0
-189,715,0,0,0,0,0,0,0,0,0,-1,1035,309,0,0
-182,715,0,0,0,0,0,0,0,0,0,-1,1042,309,0,0
-175,715,0,0,0,0,0,0,0,0,0,-1,1049,309,0,0
-168,715,0,0,0,0,0,0,0,0,0,-1,1056,309,0,0
-161,715,0,0,0,0,0,0,0,0,0,-1,1063,309,0,0
-154,715,0,0,0,0,0,0,0,0,0,-1,1070,309,0,0
-147,715,0,0,0,0,0,0,0,0,0,-1,1077,309,0,0
-140,715,0,0,0,0,0,0,0,0,0,-1,1084,309,0,0
-133,715,0,0,0,0,0,0,0,0,0,-1,1091,309,0,0
-126,715,0,0,0,0,0,0,0,0,0,-1,1098,309,0,0
-119,715,0,0,0,0,0,0,0,0,0,-1,1105,309,0,0
-112,715,0,0,0,0,0,0,0,0,0,-1,1112,309,0,0
-105,715,0,0,0,0,0,0,0,0,0,-1,1119,309,0,0
-98,715,0,0,0,0,0,0,0,0,0,-1,1126,309,0,0
-91,715,0,0,0,0,0,0,0,0,0,-1,1133,309,0,0
-84,715,0,0,0,0,0,0,0,0,0,-1,1140,309,0,0
-77,715,0,0,0,0,0,0,0,0,0,-1,1147,309,0,0
-70,715,0,0,0,0,0,0,0,0,0,-1,1154,309,0,0
-63,715,0,0,0,0,0,0,0,0,0,-1,1161,309,0,0
-56,715,0,0,0,0,0,0,0,0,0,-1,1168,309,0,0
-49,715,0,0,0,0,0,0,0,0,0,-1,1175,309,0,0
-42,715,0,0,0,0,0,0,0,0,0,-1,1182,309,0,0
-35,715,0,0,0,0,0,0,0,0,0,-1,1189,309,0,0
-28,715,0,0,0,0,0,0,0,0,0,-1,1196,309,0,0
-21,715,0,0,0,0,0,0,0,0,0,-1,1203,309,0,0
-14,715,0,0,0,0,0,0,0,0,0,-1,1210,309,0,0
-7,715,0,0,0,0,0,0,0,0,0,-1,1217,309,0,0
0,715,0,0,0,0,0,0,0,0,0,-1,1224,309,0,0
7,715,0,0,0,0,0,0,0,0,0,-1,1231,309,0,0
14,715,0,0,0,0,0,0,0,0,0,-1,1238,309,0,0
21,715,0,0,0,0,0,0,0,0,0,-1,1245,309,0,0
28,715,0,0,0,0,0,0,0,0,0,-1,1252,309,0,0
35,715,0,0,0,0,0,0,0,0,0,-1,1259,309,0,0
42,715,0,0,0,0,0,0,0,0,0,-1,1266,309,0,0
49,715,0,0,0,0,0,0,0,0,0,-1,1273,309,0,0
56,715,0,0,0,0,0,0,0,0,0,-1,1280,309,0,0
63,715,3.87646,-12.6281,-0.031252,0.0670279,0.0463184,0.0854167,-0.0496408,1.19287,0.0788822,0.0445214,1287,309,3.87651,12.6281
70,715,3.57007,-12.4223,-0.029366,0.0774353,0.0491379,0.096603,-0.0485336,1.19887,0.0853129,0.045941,1294,309,3.57009,12.4223
77,715,0,0,0,0,0,0,0,0,0,-1,1301,309,0,0
84,715,0,0,0,0,0,0,0,0,0,-1,1308,309,0,0
91,715,0,0,0,0,0,0,0,0,0,-1,1315,309,0,0
98,715,0,0,0,0,0,0,0,0,0,-1,1322,309,0,0
105,715,0,0,0,0,0,0,0,0,0,-1,1329,309,0,0
112,715,0,0,0,0,0,0,0,0,0,-1,1336,309,0,0
119,715,0,0,0,0,0,0,0,0,0,-1,1343,309,0,0
126,715,0,0,0,0,0,0,0,0,0,-1,1350,309,0,0
133,715,0,0,0,0,0,0,0,0,0,-1,1357,309,0,0
140,715,0,0,0,0,0,0,0,0,0,-1,1364,309,0,0
147,715,0,0,0,0,0,0,0,0,0,-1,1371,309,0,0
154,715,0,0,0,0,0,0,0,0,0,-1,1378,309,0,0
161,715,0,0,0,0,0,0,0,0,0,-1,1385,309,0,0
168,715,0,0,0,0,0,0,0,0,0,-1,1392,309,0,0
175,715,0,0,0,0,0,0,0,0,0,-1,1399,309,0,0
182,715,0,0,0,0,0,0,0,0,0,-1,1406,309,0,0
189,715,0,0,0,0,0,0,0,0,0,-1,1413,309,0,0
196,715,0,0,0,0,0,0,0,0,0,-1,1420,309,0,0
203,715,0,0,0,0,0,0,0,0,0,-1,1427,309,0,0
210,715,0,0,0,0,0,0,0,0,0,-1,1434,309,0,0
217,715,0,0,0,0,0,0,0,0,0,-1,1441,309,0,0
224,715,0,0,0,0,0,0,0,0,0,-1,1448,309,0,0
231,715,0,0,0,0,0,0,0,0,0,-1,1455,309,0,0
238,715,0,0,0,0,0,0,0,0,0,-1,1462,309,0,0
245,715,0,0,0,0,0,0,0,0,0,-1,1469,309,0,0
252,715,0,0,0,0,0,0,0,0,0,-1,1476,309,0,0
259,715,0,0,0,0,0,0,0,0,0,-1,1483,309,0,0
266,715,0,0,0,0,0,0,0,0,0,-1,1490,309,0,0
273,715,0,0,0,0,0,0,0,0,0,-1,1497,309,0,0
280,715,0,0,0,0,0,0,0,0,0,-1,1504,309,0,0
287,715,0,0,0,0,0,0,0,0,0,-1,1511,309,0,0
294,715,0,0,0,0,0,0,0,0,0,-1,1518,309,0,0
301,715,0,0,0,0,0,0,0,0,0,-1,1525,309,0,0
308,715,0,0,0,0,0,0,0,0,0,-1,1532,309,0,0
315,715,0,0,0,0,0,0,0,0,0,-1,1539,309,0,0
322,715,0,0,0,0,0,0,0,0,0,-1,1546,309,0,0
329,715,0,0,0,0,0,0,0,0,0,-1,1553,309,0,0
336,715,0,0,0,0,0,0,0,0,0,-1,1560,309,0,0
343,715,0,0,0,0,0,0,0,0,0,-1,1567,309,0,0
350,715,0,0,0,0,0,0,0,0,0,-1,1574,309,0,0
357,715,0,0,0,0,0,0,0,0,0,-1,1581,309,0,0
364,715,0,0,0,0,0,0,0,0,0,-1,1588,309,0,0
371,715,0,0,0,0,0,0,0,0,0,-1,1595,309,0,0
378,715,0,0,0,0,0,0,0,0,0,-1,1602,309,0,0
385,715,0,0,0,0,0,0,0,0,0,-1,1609,309,0,0
392,715,0,0,0,0,0,0,0,0,0,-1,1616,309,0,0
399,715,0,0,0,0,0,0,0,0,0,-1,1623,309,0,0
406,715,0,0,0,0,0,0,0,0,0,-1,1630,309,0,0
413,715,0,0,0,0,0,0,0,0,0,-1,1637,309,0,0
420,715,0,0,0,0,0,0,0,0,0,-1,1644,309,0,0
427,715,0,0,0,0,0,0,0,0,0,-1,1651,309,0,0
434,715,0,0,0,0,0,0,0,0,0,-1,1658,309,0,0
441,715,0,0,0,0,0,0,0,0,0,-1,1665,309,0,0
448,715,0,0,0,0,0,0,0,0,0,-1,1672,309,0,0
455,715,0,0,0,0,0,0,0,0,0,-1,1679,309,0,0
462,715,0,0,0,0,0,0,0,0,0,-1,1686,309,0,0
469,715,0,0,0,0,0,0,0,0,0,-1,1693,309,0,0
476,715,0,0,0,0,0,0,0,0,0,-1,1700,309,0,0
483,715,0,0,0,0,0,0,0,0,0,-1,1707,309,0,0
490,715,0,0,0,0,0,0,0,0,0,-1,1714,309,0,0
497,715,0,0,0,0,0,0,0,0,0,-1,1721,309,0,0
504,715,0,0,0,0,0,0,0,0,0,-1,1728,309,0,0
511,715,0,0,0,0,0,0,0,0,0,-1,1735,309,0,0
518,715,0,0,0,0,0,0,0,0,0,-1,1742,309,0,0
525,715,0,0,0,0,0,0,0,0,0,-1,1749,309,0,0
532,715,0,0,0,0,0,0,0,0,0,-1,1756,309,0,0
539,715,0,0,0,0,0,0,0,0,0,-1,1763,309,0,0
546,715,0,0,0,0,0,0,0,0,0,-1,1770,309,0,0
553,715,0,0,0,0,0,0,0,0,0,-1,1777,309,0,0
560,715,0,0,0,0,0,0,0,0,0,-1,1784,309,0,0
567,715,0,0,0,0,0,0,0,0,0,-1,1791,309,0,0
574,715,0,0,0,0,0,0,0,0,0,-1,1798,309,0,0
581,715,0,0,0,0,0,0,0,0,0,-1,1805,309,0,0
588,715,0,0,0,0,0,0,0,0,0,-1,1812,309,0,0
595,715,0,0,0,0,0,0,0,0,0,-1,1819,309,0,0
602,715,0,0,0,0,0,0,0,0,0,-1,1826,309,0,0
609,715,0,0,0,0,0,0,0,0,0,-1,1833,309,0,0
616,715,0,0,0,0,0,0,0,0,0,-1,1840,309,0,0
623,715,0,0,0,0,0,0,0,0,0,-1,1847,309,0,0
630,715,0,0,0,0,0,0,0,0,0,-1,1854,309,0,0
637,715,0,0,0,0,0,0,0,0,0,-1,1861,309,0,0
644,715,0,0,0,0,0,0,0,0,0,-1,1868,309,0,0
651,715,0,0,0,0,0,0,0,0,0,-1,1875,309,0,0
658,715,0,0,0,0,0,0,0,0,0,-1,1882,309,0,0
665,715,0,0,0,0,0,0,0,0,0,-1,1889,309,0,0
672,715,0,0,0,0,0,0,0,0,0,-1,1896,309,0,0
679,715,0,0,0,0,0,0,0,0,0,-1,1903,309,0,0
686,715,0,0,0,0,0,0,0,0,0,-1,1910,309,0,0
693,715,0,0,0,0,0,0,0,0,0,-1,1917,309,0,0
700,715,0,0,0,0,0,0,0,0,0,-1,1924,309,0,0
707,715,0,0,0,0,0,0,0,0,0,-1,1931,309,0,0
714,715,0,0,0,0,0,0,0,0,0,-1,1938,309,0,0
721,715,0,0,0,0,0,0,0,0,0,-1,1945,309,0,0
728,715,0,0,0,0,0,0,0,0,0,-1,1952,309,0,0
735,715,0,0,0,0,0,0,0,0,0,-1,1959,309,0,0
742,715,0,0,0,0,0,0,0,0,0,-1,1966,309,0,0
749,715,0,0,0,0,0,0,0,0,0,-1,1973,309,0,0
756,715,0,0,0,0,0,0,0,0,0,-1,1980,309,0,0
763,715,0,0,0,0,0,0,0,0,0,-1,1987,309,0,0
770,715,0,0,0,0,0,0,0,0,0,-1,1994,309,0,0
777,715,0,0,0,0,0,0,0,0,0,-1,2001,309,0,0
784,715,0,0,0,0,0,0,0,0,0,-1,2008,309,0,0
791,715,0,0,0,0,0,0,0,0,0,-1,2015,309,0,0
798,715,0,0,0,0,0,0,0,0,0,-1,2022,309,0,0
805,715,0,0,0,0,0,0,0,0,0,-1,2029,309,0,0
812,715,0,0,0,0,0,0,0,0,0,-1,2036,309,0,0
-700,708,0,0,0,0,0,0,0,0,0,-1,524,316,0,0
-693,708,0,0,0,0,0,0,0,0,0,-1,531,316,0,0
-686,708,0,0,0,0,0,0,0,0,0,-1,538,316,0,0
-679,708,0,0,0,0,0,0,0,0,0,-1,545,316,0,0
-672,708,0,0,0,0,0,0,0,0,0,-1,552,316,0,0
-665,708,0,0,0,0,0,0,0,0,0,-1,559,316,0,0
-658,708,0,0,0,0,0,0,0,0,0,-1,566,316,0,0
-651,708,0,0,0,0,0,0,0,0,0,-1,573,316,0,0
-644,708,0,0,0,0,0,0,0,0,0,-1,580,316,0,0
-637,708,0,0,0,0,0,0,0,0,0,-1,587,316,0,0
-630,708,0,0,0,0,0,0,0,0,0,-1,594,316,0,0
-623,708,0,0,0,0,0,0,0,0,0,-1,601,316,0,0
-616,708,0,0,0,0,0,0,0,0,0,-1,608,316,0,0
-609,708,0,0,0,0,0,0,0,0,0,-1,615,316,0,0
-602,708,0,0,0,0,0,0,0,0,0,-1,622,316,0,0
-595,708,0,0,0,0,0,0,0,0,0,-1,629,316,0,0
-588,708,0,0,0,0,0,0,0,0,0,-1,636,316,0,0
-581,708,0,0,0,0,0,0,0,0,0,-1,643,316,0,0
-574,708,0,0,0,0,0,0,0,0,0,-1,650,316,0,0
-567,708,0,0,0,0,0,0,0,0,0,-1,657,316,0,0
-560,708,0,0,0,0,0,0,0,0,0,-1,664,316,0,0
-553,708,0,0,0,0,0,0,0,0,0,-1,671,316,0,0
-546,708,0,0,0,0,0,0,0,0,0,-1,678,316,0,0
-539,708,0,0,0,0,0,0,0,0,0,-1,685,316,0,0
-532,708,0,0,0,0,0,0,0,0,0,-1,692,316,0,0
-525,708,0,0,0,0,0,0,0,0,0,-1,699,316,0,0
-518,708,0,0,0,0,0,0,0,0,0,-1,706,316,0,0
-511,708,0,0,0,0,0,0,0,0,0,-1,713,316,0,0
-504,708,0,0,0,0,0,0,0,0,0,-1,720,316,0,0
-497,708,0,0,0,0,0,0,0,0,0,-1,727,316,0,0
-490,708,0,0,0,0,0,0,0,0,0,-1,734,316,0,0
-483,708,0,0,0,0,0,0,0,0,0,-1,741,316,0,0
-476,708,0,0,0,0,0,0,0,0,0,-1,748,316,0,0
-469,708,0,0,0,0,0,0,0,0,0,-1,755,316,0,0
-462,708,0,0,0,0,0,0,0,0,0,-1,762,316,0,0
-455,708,0,0,0,0,0,0,0,0,0,-1,769,316,0,0
-448,708,0,0,0,0,0,0,0,0,0,-1,776,316,0,0
-441,708,0,0,0,0,0,0,0,0,0,-1,783,316,0,0
-434,708,0,0,0,0,0,0,0,0,0,-1,790,316,0,0
-427,708,0,0,0,0,0,0,0,0,0,-1,797,316,0,0
-420,708,0,0,0,0,0,0,0,0,0,-1,804,316,0,0
-413,708,0,0,0,0,0,0,0,0,0,-1,811,316,0,0
-406,708,0,0,0,0,0,0,0,0,0,-1,818,316,0,0
-399,708,0,0,0,0,0,0,0,0,0,-1,825,316,0,0
-392,708,0,0,0,0,0,0,0,0,0,-1,832,316,0,0
-385,708,0,0,0,0,0,0,0,0,0,-1,839,316,0,0
-378,708,0,0,0,0,0,0,0,0,0,-1,846,316,0,0
-371,708,0,0,0,0,0,0,0,0,0,-1,853,316,0,0
-364,708,0,0,0,0,0,0,0,0,0,-1,860,316,0,0
-357,708,0,0,0,0,0,0,0,0,0,-1,867,316,0,0
-350,708,0,0,0,0,0,0,0,0,0,-1,874,316,0,0
-343,708,0,0,0,0,0,0,0,0,0,-1,881,316,0,0
-336,708,0,0,0,0,0,0,0,0,0,-1,888,316,0,0
-329,708,0,0,0,0,0,0,0,0,0,-1,895,316,0,0
-322,708,0,0,0,0,0,0,0,0,0,-1,902,316,0,0
-315,708,0,0,0,0,0,0,0,0,0,-1,909,316,0,0
-308,708,0,0,0,0,0,0,0,0,0,-1,916,316,0,0
-301,708,0,0,0,0,0,0,0,0,0,-1,923,316,0,0
-294,708,0,0,0,0,0,0,0,0,0,-1,930,316,0,0
-287,708,0,0,0,0,0,0,0,0,0,-1,937,316,0,0
-280,708,0,0,0,0,0,0,0,0,0,-1,944,316,0,0
-273,708,0,0,0,0,0,0,0,0,0,-1,951,316,0,0
-266,708,0,0,0,0,0,0,0,0,0,-1,958,316,0,0
-259,708,0,0,0,0,0,0,0,0,0,-1,965,316,0,0
-252,708,0,0,0,0,0,0,0,0,0,-1,972,316,0,0
-245,708,0,0,0,0,0,0,0,0,0,-1,979,316,0,0
-238,708,0,0,0,0,0,0,0,0,0,-1,986,316,0,0
-231,708,0,0,0,0,0,0,0,0,0,-1,993,316,0,0
-224,708,0,0,0,0,0,0,0,0,0,-1,1000,316,0,0
-217,708,0,0,0,0,0,0,0,0,0,-1,1007,316,0,0
-210,708,0,0,0,0,0,0,0,0,0,-1,1014,316,0,0
-203,708,0,0,0,0,0,0,0,0,0,-1,1021,316,0,0
-196,708,0,0,0,0,0,0,0,0,0,-1,1028,316,0,0
-189,708,0,0,0,0,0,0,0,0,0,-1,1035,316,0,0
-182,708,0,0,0,0,0,0,0,0,0,-1,1042,316,0,0
-175,708,0,0,0,0,0,0,0,0,0,-1,1049,316,0,0
-168,708,0,0,0,0,0,0,0,0,0,-1,1056,316,0,0
-161,708,0,0,0,0,0,0,0,0,0,-1,1063,316,0,0
-154,708,0,0,0,0,0,0,0,0,0,-1,1070,316,0,0
-147,708,0,0,0,0,0,0,0,0,0,-1,1077,316,0,0
-140,708,0,0,0,0,0,0,0,0,0,-1,1084,316,0,0
-133,708,0,0,0,0,0,0,0,0,0,-1,1091,316,0,0
-126,708,0,0,0,0,0,0,0,0,0,-1,1098,316,0,0
-119,708,0,0,0,0,0,0,0,0,0,-1,1105,316,0,0
-112,708,0,0,0,0,0,0,0,0,0,-1,1112,316,0,0
-105,708,0,0,0,0,0,0,0,0,0,-1,1119,316,0,0
-98,708,0,0,0,0,0,0,0,0,0,-1,1126,316,0,0
-91,708,0,0,0,0,0,0,0,0,0,-1,1133,316,0,0
-84,708,0,0,0,0,0,0,0,0,0,-1,1140,316,0,0
-77,708,0,0,0,0,0,0,0,0,0,-1,1147,316,0,0
-70,708,0,0,0,0,0,0,0,0,0,-1,1154,316,0,0
-63,708,0,0,0,0,0,0,0,0,0,-1,1161,316,0,0
-56,708,0,0,0,0,0,0,0,0,0,-1,1168,316,0,0
-49,708,0,0,0,0,0,0,0,0,0,-1,1175,316,0,0
-42,708,0,0,0,0,0,0,0,0,0,-1,1182,316,0,0
-35,708,-2.71204,-6.31558,0,0,0,0,0,0,0,-1,1189,316,-2.712,6.3156
-28,708,-2.92371,-5.53253,0,0,0,0,0,0,0,-1,1196,316,-2.92375,5.53254
-21,708,-10.6349,-7.11816,0,0,0,0,0,0,0,-1,1203,316,-10.6349,7.11818
-14,708,4.02112,-12.9223,0,0,0,0,0,0,0,-1,1210,316,4.0211,12.9223
-7,708,4.29883,-13.7271,0,0,0,0,0,0,0,-1,1217,316,4.29888,13.7271
0,708,1.76062,-17.6858,0,0,0,0,0,0,0,-1,1224,316,1.76065,17.6858
7,708,2.4209,-17.4246,0,0,0,0,0,0,0,-1,1231,316,2.42091,17.4246
14,708,5.72522,-11.1459,0,0,0,0,0,0,0,-1,1238,316,5.72526,11.1459
21,708,4.88062,-12.1867,0,0,0,0,0,0,0,-1,1245,316,4.88059,12.1867
28,708,4.78613,-12.3484,-0.0295227,0.0194146,0.0306389,0.0341564,-0.0442645,1.12235,0.0454015,0.0446462,1252,316,4.7861,12.3484
35,708,4.54236,-12.3594,-0.0287099,0.0251854,0.0314347,0.0396421,-0.0431665,1.13974,0.047824,0.0425953,1259,316,4.54241,12.3594
42,708,4.31738,-12.5252,0,0,0,0,0,0,0,-1,1266,316,4.31735,12.5252
49,708,4.03809,-12.7647,-0.0264502,0.041709,0.0347135,0.0562755,-0.0410167,1.17349,0.0564015,0.0444824,1273,316,4.03814,12.7648
56,708,3.86023,-12.9919,0,0,0,0,0,0,0,-1,1280,316,3.86023,12.9918
63,708,3.69312,-12.919,-0.0230452,0.0607633,0.038727,0.0759182,-0.0382001,1.19779,0.0670751,0.0440979,1287,316,3.69307,12.919
70,708,3.39795,-12.8283,-0.0215824,0.0699792,0.0408914,0.0855824,-0.0371855,1.20627,0.0726927,0.0425868,1294,316,3.39799,12.8283
77,708,3.10547,-12.7795,0,0,0,0,0,0,0,-1,1301,316,3.10552,12.7795
84,708,2.85437,-13.2179,-0.0200235,0.0824327,0.0435151,0.0984198,-0.0360106,1.21871,0.0803531,0.0494911,1308,316,2.85431,13.2179
91,708,2.99683,-12.1346,-0.0201711,0.0876892,0.0445591,0.103716,-0.036198,1.22553,0.083856,0.0472142,1315,316,2.99682,12.1346
98,708,1.93188,-11.5078,0,0,0,0,0,0,0,-1,1322,316,1.93185,11.5078
105,708,1.87573,-11.359,0,0,0,0,0,0,0,-1,1329,316,1.87572,11.359
112,708,1.84912,-11.1901,0,0,0,0,0,0,0,-1,1336,316,1.84909,11.1901
119,708,1.79639,-11.0234,0,0,0,0,0,0,0,-1,1343,316,1.79634,11.0234
126,708,4.3877,-11.9107,0,0,0,0,0,0,0,-1,1350,316,4.38771,11.9107
133,708,-1.50354,-11.4536,0,0,0,0,0,0,0,-1,1357,316,-1.50355,11.4535
140,708,-1.71179,-13.0117,0,0,0,0,0,0,0,-1,1364,316,-1.71181,13.0117
147,708,-1.2804,-13.3917,0,0,0,0,0,0,0,-1,1371,316,-1.2804,13.3917
154,708,0,0,0,0,0,0,0,0,0,-1,1378,316,0,0
161,708,0,0,0,0,0,0,0,0,0,-1,1385,316,0,0
168,708,0,0,0,0,0,0,0,0,0,-1,1392,316,0,0
175,708,0,0,0,0,0,0,0,0,0,-1,1399,316,0,0
182,708,0,0,0,0,0,0,0,0,0,-1,1406,316,0,0
189,708,0,0,0,0,0,0,0,0,0,-1,1413,316,0,0
196,708,0,0,0,0,0,0,0,0,0,-1,1420,316,0,0
203,708,0,0,0,0,0,0,0,0,0,-1,1427,316,0,0
210,708,0,0,0,0,0,0,0,0,0,-1,1434,316,0,0
217,708,0,0,0,0,0,0,0,0,0,-1,1441,316,0,0
224,708,0,0,0,0,0,0,0,0,0,-1,1448,316,0,0
231,708,0,0,0,0,0,0,0,0,0,-1,1455,316,0,0
238,708,0,0,0,0,0,0,0,0,0,-1,1462,316,0,0
245,708,0,0,0,0,0,0,0,0,0,-1,1469,316,0,0
252,708,0,0,0,0,0,0,0,0,0,-1,1476,316,0,0
259,708,0,0,0,0,0,0,0,0,0,-1,1483,316,0,0
266,708,0,0,0,0,0,0,0,0,0,-1,1490,316,0,0
273,708,0,0,0,0,0,0,0,0,0,-1,1497,316,0,0
280,708,0,0,0,0,0,0,0,0,0,-1,1504,316,0,0
287,708,0,0,0,0,0,0,0,0,0,-1,1511,316,0,0
294,708,0,0,0,0,0,0,0,0,0,-1,1518,316,0,0
301,708,0,0,0,0,0,0,0,0,0,-1,1525,316,0,0
308,708,0,0,0,0,0,0,0,0,0,-1,1532,316,0,0
315,708,0,0,0,0,0,0,0,0,0,-1,1539,316,0,0
322,708,0,0,0,0,0,0,0,0,0,-1,1546,316,0,0
329,708,0,0,0,0,0,0,0,0,0,-1,1553,316,0,0
336,708,0,0,0,0,0,0,0,0,0,-1,1560,316,0,0
343,708,0,0,0,0,0,0,0,0,0,-1,1567,316,0,0
350,708,0,0,0,0,0,0,0,0,0,-1,1574,316,0,0
357,708,0,0,0,0,0,0,0,0,0,-1,1581,316,0,0
364,708,0,0,0,0,0,0,0,0,0,-1,1588,316,0,0
371,708,0,0,0,0,0,0,0,0,0,-1,1595,316,0,0
378,708,0,0,0,0,0,0,0,0,0,-1,1602,316,0,0
385,708,0,0,0,0,0,0,0,0,0,-1,1609,316,0,0
392,708,0,0,0,0,0,0,0,0,0,-1,1616,316,0,0
399,708,0,0,0,0,0,0,0,0,0,-1,1623,316,0,0
406,708,0,0,0,0,0,0,0,0,0,-1,1630,316,0,0
413,708,0,0,0,0,0,0,0,0,0,-1,1637,316,0,0
420,708,0,0,0,0,0,0,0,0,0,-1,1644,316,0,0
427,708,0,0,0,0,0,0,0,0,0,-1,1651,316,0,0
434,708,0,0,0,0,0,0,0,0,0,-1,1658,316,0,0
441,708,0,0,0,0,0,0,0,0,0,-1,1665,316,0,0
448,708,0,0,0,0,0,0,0,0,0,-1,1672,316,0,0
455,708,0,0,0,0,0,0,0,0,0,-1,1679,316,0,0
462,708,0,0,0,0,0,0,0,0,0,-1,1686,316,0,0
469,708,0,0,0,0,0,0,0,0,0,-1,1693,316,0,0
476,708,0,0,0,0,0,0,0,0,0,-1,1700,316,0,0
483,708,0,0,0,0,0,0,0,0,0,-1,1707,316,0,0
490,708,0,0,0,0,0,0,0,0,0,-1,1714,316,0,0
497,708,0,0,0,0,0,0,0,0,0,-1,1721,316,0,0
504,708,0,0,0,0,0,0,0,0,0,-1,1728,316,0,0
511,708,0,0,0,0,0,0,0,0,0,-1,1735,316,0,0
518,708,0,0,0,0,0,0,0,0,0,-1,1742,316,0,0
525,708,0,0,0,0,0,0,0,0,0,-1,1749,316,0,0
532,708,0,0,0,0,0,0,0,0,0,-1,1756,316,0,0
539,708,0,0,0,0,0,0,0,0,0,-1,1763,316,0,0
546,708,0,0,0,0,0,0,0,0,0,-1,1770,316,0,0
553,708,0,0,0,0,0,0,0,0,0,-1,1777,316,0,0
560,708,0,0,0,0,0,0,0,0,0,-1,1784,316,0,0
567,708,0,0,0,0,0,0,0,0,0,-1,1791,316,0,0
574,708,0,0,0,0,0,0,0,0,0,-1,1798,316,0,0
581,708,0,0,0,0,0,0,0,0,0,-1,1805,316,0,0
588,708,0,0,0,0,0,0,0,0,0,-1,1812,316,0,0
595,708,0,0,0,0,0,0,0,0,0,-1,1819,316,0,0
602,708,0,0,0,0,0,0,0,0,0,-1,1826,316,0,0
609,708,0,0,0,0,0,0,0,0,0,-1,1833,316,0,0
616,708,0,0,0,0,0,0,0,0,0,-1,1840,316,0,0
623,708,0,0,0,0,0,0,0,0,0,-1,1847,316,0,0
630,708,0,0,0,0,0,0,0,0,0,-1,1854,316,0,0
637,708,0,0,0,0,0,0,0,0,0,-1,1861,316,0,0
644,708,0,0,0,0,0,0,0,0,0,-1,1868,316,0,0
651,708,0,0,0,0,0,0,0,0,0,-1,1875,316,0,0
658,708,0,0,0,0,0,0,0,0,0,-1,1882,316,0,0
665,708,0,0,0,0,0,0,0,0,0,-1,1889,316,0,0
672,708,0,0,0,0,0,0,0,0,0,-1,1896,316,0,0
679,708,0,0,0,0,0,0,0,0,0,-1,1903,316,0,0
686,708,0,0,0,0,0,0,0,0,0,-1,1910,316,0,0
693,708,0,0,0,0,0,0,0,0,0,-1,1917,316,0,0
700,708,0,0,0,0,0,0,0,0,0,-1,1924,316,0,0
707,708,0,0,0,0,0,0,0,0,0,-1,1931,316,0,0
714,708,0,0,0,0,0,0,0,0,0,-1,1938,316,0,0
721,708,0,0,0,0,0,0,0,0,0,-1,1945,316,0,0
728,708,0,0,0,0,0,0,0,0,0,-1,1952,316,0,0
735,708,0,0,0,0,0,0,0,0,0,-1,1959,316,0,0
742,708,0,0,0,0,0,0,0,0,0,-1,1966,316,0,0
749,708,0,0,0,0,0,0,0,0,0,-1,1973,316,0,0
756,708,0,0,0,0,0,0,0,0,0,-1,1980,316,0,0
763,708,0,0,0,0,0,0,0,0,0,-1,1987,316,0,0
770,708,0,0,0,0,0,0,0,0,0,-1,1994,316,0,0
777,708,0,0,0,0,0,0,0,0,0,-1,2001,316,0,0
784,708,0,0,0,0,0,0,0,0,0,-1,2008,316,0,0
791,708,0,0,0,0,0,0,0,0,0,-1,2015,316,0,0
798,708,0,0,0,0,0,0,0,0,0,-1,2022,316,0,0
805,708,0,0,0,0,0,0,0,0,0,-1,2029,316,0,0
812,708,0,0,0,0,0,0,0,0,0,-1,2036,316,0,0
-700,701,0,0,0,0,0,0,0,0,0,-1,524,323,0,0
-693,701,0,0,0,0,0,0,0,0,0,-1,531,323,0,0
-686,701,0,0,0,0,0,0,0,0,0,-1,538,323,0,0
-679,701,0,0,0,0,0,0,0,0,0,-1,545,323,0,0
-672,701,0,0,0,0,0,0,0,0,0,-1,552,323,0,0
-665,701,0,0,0,0,0,0,0,0,0,-1,559,323,0,0
-658,701,0,0,0,0,0,0,0,0,0,-1,566,323,0,0
-651,701,0,0,0,0,0,0,0,0,0,-1,573,323,0,0
-644,701,0,0,0,0,0,0,0,0,0,-1,580,323,0,0
-637,701,0,0,0,0,0,0,0,0,0,-1,587,323,0,0
-630,701,0,0,0,0,0,0,0,0,0,-1,594,323,0,0
-623,701,0,0,0,0,0,0,0,0,0,-1,601,323,0,0
-616,701,0,0,0,0,0,0,0,0,0,-1,608,323,0,0
-609,701,0,0,0,0,0,0,0,0,0,-1,615,323,0,0
-602,701,0,0,0,0,0,0,0,0,0,-1,622,323,0,0
-595,701,0,0,0,0,0,0,0,0,0,-1,629,323,0,0
-588,701,0,0,0,0,0,0,0,0,0,-1,636,323,0,0
-581,701,0,0,0,0,0,0,0,0,0,-1,643,323,0,0
-574,701,0,0,0,0,0,0,0,0,0,-1,650,323,0,0
-567,701,0,0,0,0,0,0,0,0,0,-1,657,323,0,0
-560,701,0,0,0,0,0,0,0,0,0,-1,664,323,0,0
-553,701,0,0,0,0,0,0,0,0,0,-1,671,323,0,0
-546,701,0,0,0,0,0,0,0,0,0,-1,678,323,0,0
-539,701,0,0,0,0,0,0,0,0,0,-1,685,323,0,0
-532,701,0,0,0,0,0,0,0,0,0,-1,692,323,0,0
-525,701,0,0,0,0,0,0,0,0,0,-1,699,323,0,0
-518,701,0,0,0,0,0,0,0,0,0,-1,706,323,0,0
-511,701,0,0,0,0,0,0,0,0,0,-1,713,323,0,0
-504,701,0,0,0,0,0,0,0,0,0,-1,720,323,0,0
-497,701,0,0,0,0,0,0,0,0,0,-1,727,323,0,0
-490,701,0,0,0,0,0,0,0,0,0,-1,734,323,0,0
-483,701,0,0,0,0,0,0,0,0,0,-1,741,323,0,0
-476,701,0,0,0,0,0,0,0,0,0,-1,748,323,0,0
-469,701,0,0,0,0,0,0,0,0,0,-1,755,323,0,0
-462,701,0,0,0,0,0,0,0,0,0,-1,762,323,0,0
-455,701,0,0,0,0,0,0,0,0,0,-1,769,323,0,0
-448,701,0,0,0,0,0,0,0,0,0,-1,776,323,0,0
-441,701,0,0,0,0,0,0,0,0,0,-1,783,323,0,0
-434,701,0,0,0,0,0,0,0,0,0,-1,790,323,0,0
-427,701,0,0,0,0,0,0,0,0,0,-1,797,323,0,0
-420,701,0,0,0,0,0,0,0,0,0,-1,804,323,0,0
-413,701,0,0,0,0,0,0,0,0,0,-1,811,323,0,0
-406,701,0,0,0,0,0,0,0,0,0,-1,818,323,0,0
-399,701,0,0,0,0,0,0,0,0,0,-1,825,323,0,0
-392,701,0,0,0,0,0,0,0,0,0,-1,832,323,0,0
-385,701,0,0,0,0,0,0,0,0,0,-1,839,323,0,0
-378,701,0,0,0,0,0,0,0,0,0,-1,846,323,0,0
-371,701,0,0,0,0,0,0,0,0,0,-1,853,323,0,0
-364,701,0,0,0,0,0,0,0,0,0,-1,860,323,0,0
-357,701,0,0,0,0,0,0,0,0,0,-1,867,323,0,0
-350,701,0,0,0,0,0,0,0,0,0,-1,874,323,0,0
-343,701,0,0,0,0,0,0,0,0,0,-1,881,323,0,0
-336,701,0,0,0,0,0,0,0,0,0,-1,888,323,0,0
-329,701,0,0,0,0,0,0,0,0,0,-1,895,323,0,0
-322,701,0,0,0,0,0,0,0,0,0,-1,902,323,0,0
-315,701,0,0,0,0,0,0,0,0,0,-1,909,323,0,0
-308,701,0,0,0,0,0,0,0,0,0,-1,916,323,0,0
-301,701,0,0,0,0,0,0,0,0,0,-1,923,323,0,0
-294,701,0,0,0,0,0,0,0,0,0,-1,930,323,0,0
-287,701,0,0,0,0,0,0,0,0,0,-1,937,323,0,0
-280,701,0,0,0,0,0,0,0,0,0,-1,944,323,0,0
-273,701,0,0,0,0,0,0,0,0,0,-1,951,323,0,0
-266,701,0,0,0,0,0,0,0,0,0,-1,958,323,0,0
-259,701,0,0,0,0,0,0,0,0,0,-1,965,323,0,0
-252,701,0,0,0,0,0,0,0,0,0,-1,972,323,0,0
-245,701,0,0,0,0,0,0,0,0,0,-1,979,323,0,0
-238,701,0,0,0,0,0,0,0,0,0,-1,986,323,0,0
-231,701,0,0,0,0,0,0,0,0,0,-1,993,323,0,0
-224,701,0,0,0,0,0,0,0,0,0,-1,1000,323,0,0
-217,701,0,0,0,0,0,0,0,0,0,-1,1007,323,0,0
-210,701,0,0,0,0,0,0,0,0,0,-1,1014,323,0,0
-203,701,0,0,0,0,0,0,0,0,0,-1,1021,323,0,0
-196,701,0,0,0,0,0,0,0,0,0,-1,1028,323,0,0
-189,701,0,0,0,0,0,0,0,0,0,-1,1035,323,0,0
-182,701,0,0,0,0,0,0,0,0,0,-1,1042,323,0,0
-175,701,0,0,0,0,0,0,0,0,0,-1,1049,323,0,0
-168,701,0,0,0,0,0,0,0,0,0,-1,1056,323,0,0
-161,701,0,0,0,0,0,0,0,0,0,-1,1063,323,0,0
-154,701,0,0,0,0,0,0,0,0,0,-1,1070,323,0,0
-147,701,0,0,0,0,0,0,0,0,0,-1,1077,323,0,0
-140,701,0,0,0,0,0,0,0,0,0,-1,1084,323,0,0
-133,701,0,0,0,0,0,0,0,0,0,-1,1091,323,0,0
-126,701,0,0,0,0,0,0,0,0,0,-1,1098,323,0,0
-119,701,0,0,0,0,0,0,0,0,0,-1,1105,323,0,0
-112,701,0,0,0,0,0,0,0,0,0,-1,1112,323,0,0
-105,701,0,0,0,0,0,0,0,0,0,-1,1119,323,0,0
-98,701,0,0,0,0,0,0,0,0,0,-1,1126,323,0,0
-91,701,0,0,0,0,0,0,0,0,0,-1,1133,323,0,0
-84,701,0,0,0,0,0,0,0,0,0,-1,1140,323,0,0
-77,701,0,0,0,0,0,0,0,0,0,-1,1147,323,0,0
-70,701,-2.36731,-1.49271,0,0,0,0,0,0,0,-1,1154,323,-2.36729,1.4927
-63,701,-2.479,-0.295959,0,0,0,0,0,0,0,-1,1161,323,-2.47895,0.295961
-56,701,-0.420166,-0.101776,0,0,0,0,0,0,0,-1,1168,323,-0.420119,0.101777
-49,701,-1.09021,-0.155762,0,0,0,0,0,0,0,-1,1175,323,-1.09024,0.155768
-42,701,-0.210327,-0.299133,0,0,0,0,0,0,0,-1,1182,323,-0.210379,0.29914
-35,701,-2.9635,-7.98676,0,0,0,0,0,0,0,-1,1189,323,-2.9635,7.98676
-28,701,-6.64417,-5.4917,0,0,0,0,0,0,0,-1,1196,323,-6.64411,5.4917
-21,701,4.16895,-12.4047,0,0,0,0,0,0,0,-1,1203,323,4.16889,12.4047
-14,701,4.20288,-12.92,0,0,0,0,0,0,0,-1,1210,323,4.20286,12.92
-7,701,4.20374,-13.4963,0,0,0,0,0,0,0,-1,1217,323,4.20378,13.4963
0,701,1.94324,-17.2518,0,0,0,0,0,0,0,-1,1224,323,1.94329,17.2518
7,701,5.61267,-10.7956,0,0,0,0,0,0,0,-1,1231,323,5.61272,10.7956
14,701,5.12061,-11.1572,0,0,0,0,0,0,0,-1,1238,323,5.12056,11.1572
21,701,4.59253,-11.574,0,0,0,0,0,0,0,-1,1245,323,4.59248,11.574
28,701,4.37366,-12.0663,-0.0224723,0.0140731,0.023872,0.025863,-0.0342622,1.11206,0.0348261,0.0437008,1252,323,4.3736,12.0663
35,701,4.19128,-12.1659,-0.0215278,0.019815,0.0250286,0.031605,-0.0333177,1.13057,0.0374875,0.0425861,1259,323,4.19124,12.1659
42,701,2.40967,-14.5824,0,0,0,0,0,0,0,-1,1266,323,2.40963,14.5824
49,701,3.71631,-12.4479,0,0,0,0,0,0,0,-1,1273,323,3.71633,12.4479
56,701,3.68689,-13.4167,0,0,0,0,0,0,0,-1,1280,323,3.68692,13.4167
63,701,3.45117,-13.3391,-0.0168369,0.0526685,0.0314762,0.064804,-0.0289723,1.20281,0.0554436,0.0473857,1287,323,3.45114,13.3391
70,701,3.20349,-13.2668,-0.0157233,0.0605339,0.0331579,0.0729349,-0.0281243,1.21291,0.0602281,0.0456409,1294,323,3.20354,13.2668
77,701,2.77661,-13.1373,0,0,0,0,0,0,0,-1,1301,323,2.77661,13.1373
84,701,2.54688,-13.2958,-0.0144196,0.0703294,0.0347815,0.082776,-0.0268662,1.22714,0.0659884,0.0465744,1308,323,2.54691,13.2958
91,701,2.62012,-12.9027,-0.0144225,0.0742985,0.0352779,0.0866159,-0.0267398,1.23488,0.0684217,0.0455568,1315,323,2.62015,12.9027
98,701,1.88184,-12.4161,-0.0147481,0.0757129,0.0353362,0.0878797,-0.0269149,1.2392,0.0693222,0.0456607,1322,323,1.88186,12.4161
105,701,2.07043,-12.2674,0,0,0,0,0,0,0,-1,1329,323,2.07047,12.2674
112,701,1.9115,-11.9382,0,0,0,0,0,0,0,-1,1336,323,1.91155,11.9382
119,701,1.82751,-11.7646,0,0,0,0,0,0,0,-1,1343,323,1.82747,11.7645
126,701,3.67676,-13.084,0,0,0,0,0,0,0,-1,1350,323,3.67681,13.084
133,701,-1.25464,-12.0416,0,0,0,0,0,0,0,-1,1357,323,-1.25466,12.0416
140,701,-1.30542,-13.193,0,0,0,0,0,0,0,-1,1364,323,-1.30544,13.193
147,701,-0.897217,-13.5738,0,0,0,0,0,0,0,-1,1371,323,-0.897212,13.5738
154,701,-0.489014,-13.9547,0,0,0,0,0,0,0,-1,1378,323,-0.488983,13.9546
161,701,2.11853,-12.0428,0,0,0,0,0,0,0,-1,1385,323,2.11854,12.0428
168,701,6.88513,-0.0237427,0,0,0,0,0,0,0,-1,1392,323,6.88517,0.0237498
175,701,6.94556,0.0693054,0,0,0,0,0,0,0,-1,1399,323,6.94555,-0.0692958
182,701,8.80652,5.42807,0,0,0,0,0,0,0,-1,1406,323,8.8065,-5.42808
189,701,8.58081,4.24493,0,0,0,0,0,0,0,-1,1413,323,8.58082,-4.24494
196,701,0,0,0,0,0,0,0,0,0,-1,1420,323,0,0
203,701,0,0,0,0,0,0,0,0,0,-1,1427,323,0,0
210,701,0,0,0,0,0,0,0,0,0,-1,1434,323,0,0
217,701,0,0,0,0,0,0,0,0,0,-1,1441,323,0,0
224,701,0,0,0,0,0,0,0,0,0,-1,1448,323,0,0
231,701,0,0,0,0,0,0,0,0,0,-1,1455,323,0,0
238,701,0,0,0,0,0,0,0,0,0,-1,1462,323,0,0
245,701,0,0,0,0,0,0,0,0,0,-1,1469,323,0,0
252,701,0,0,0,0,0,0,0,0,0,-1,1476,323,0,0
259,701,0,0,0,0,0,0,0,0,0,-1,1483,323,0,0
266,701,0,0,0,0,0,0,0,0,0,-1,1490,323,0,0
273,701,0,0,0,0,0,0,0,0,0,-1,1497,323,0,0
280,701,0,0,0,0,0,0,0,0,0,-1,1504,323,0,0
287,701,0,0,0,0,0,0,0,0,0,-1,1511,323,0,0
294,701,0,0,0,0,0,0,0,0,0,-1,1518,323,0,0
301,701,0,0,0,0,0,0,0,0,0,-1,1525,323,0,0
308,701,0,0,0,0,0,0,0,0,0,-1,1532,323,0,0
315,701,0,0,0,0,0,0,0,0,0,-1,1539,323,0,0
322,701,0,0,0,0,0,0,0,0,0,-1,1546,323,0,0
329,701,0,0,0,0,0,0,0,0,0,-1,1553,323,0,0
336,701,0,0,0,0,0,0,0,0,0,-1,1560,323,0,0
343,701,0,0,0,0,0,0,0,0,0,-1,1567,323,0,0
350,701,0,0,0,0,0,0,0,0,0,-1,1574,323,0,0
357,701,0,0,0,0,0,0,0,0,0,-1,1581,323,0,0
364,701,0,0,0,0,0,0,0,0,0,-1,1588,323,0,0
371,701,0,0,0,0,0,0,0,0,0,-1,1595,323,0,0
378,701,0,0,0,0,0,0,0,0,0,-1,1602,323,0,0
385,701,0,0,0,0,0,0,0,0,0,-1,1609,323,0,0
392,701,0,0,0,0,0,0,0,0,0,-1,1616,323,0,0
399,701,0,0,0,0,0,0,0,0,0,-1,1623,323,0,0
406,701,0,0,0,0,0,0,0,0,0,-1,1630,323,0,0
413,701,0,0,0,0,0,0,0,0,0,-1,1637,323,0,0
420,701,0,0,0,0,0,0,0,0,0,-1,1644,323,0,0
427,701,0,0,0,0,0,0,0,0,0,-1,1651,323,0,0
434,701,0,0,0,0,0,0,0,0,0,-1,1658,323,0,0
441,701,0,0,0,0,0,0,0,0,0,-1,1665,323,0,0
448,701,0,0,0,0,0,0,0,0,0,-1,1672,323,0,0
455,701,0,0,0,0,0,0,0,0,0,-1,1679,323,0,0
462,701,0,0,0,0,0,0,0,0,0,-1,1686,323,0,0
469,701,0,0,0,0,0,0,0,0,0,-1,1693,323,0,0
476,701,0,0,0,0,0,0,0,0,0,-1,1700,323,0,0
483,701,0,0,0,0,0,0,0,0,0,-1,1707,323,0,0
490,701,0,0,0,0,0,0,0,0,0,-1,1714,323,0,0
497,701,0,0,0,0,0,0,0,0,0,-1,1721,323,0,0
504,701,0,0,0,0,0,0,0,0,0,-1,1728,323,0,0
511,701,0,0,0,0,0,0,0,0,0,-1,1735,323,0,0
518,701,0,0,0,0,0,0,0,0,0,-1,1742,323,0,0
525,701,0,0,0,0,0,0,0,0,0,-1,1749,323,0,0
532,701,0,0,0,0,0,0,0,0,0,-1,1756,323,0,0
539,701,0,0,0,0,0,0,0,0,0,-1,1763,323,0,0
546,701,0,0,0,0,0,0,0,0,0,-1,1770,323,0,0
553,701,0,0,0,0,0,0,0,0,0,-1,1777,323,0,0
560,701,0,0,0,0,0,0,0,0,0,-1,1784,323,0,0
567,701,0,0,0,0,0,0,0,0,0,-1,1791,323,0,0
574,701,0,0,0,0,0,0,0,0,0,-1,1798,323,0,0
581,701,0,0,0,0,0,0,0,0,0,-1,1805,323,0,0
588,701,0,0,0,0,0,0,0,0,0,-1,1812,323,0,0
595,701,0,0,0,0,0,0,0,0,0,-1,1819,323,0,0
602,701,0,0,0,0,0,0,0,0,0,-1,1826,323,0,0
609,701,0,0,0,0,0,0,0,0,0,-1,1833,323,0,0
616,701,0,0,0,0,0,0,0,0,0,-1,1840,323,0,0
623,701,0,0,0,0,0,0,0,0,0,-1,1847,323,0,0
630,701,0,0,0,0,0,0,0,0,0,-1,1854,323,0,0
637,701,0,0,0,0,0,0,0,0,0,-1,1861,323,0,0
644,701,0,0,0,0,0,0,0,0,0,-1,1868,323,0,0
651,701,0,0,0,0,0,0,0,0,0,-1,1875,323,0,0
658,701,0,0,0,0,0,0,0,0,0,-1,1882,323,0,0
665,701,0,0,0,0,0,0,0,0,0,-1,1889,323,0,0
672,701,0,0,0,0,0,0,0,0,0,-1,1896,323,0,0
679,701,0,0,0,0,0,0,0,0,0,-1,1903,323,0,0
686,701,0,0,0,0,0,0,0,0,0,-1,1910,323,0,0
693,701,0,0,0,0,0,0,0,0,0,-1,1917,323,0,0
700,701,0,0,0,0,0,0,0,0,0,-1,1924,323,0,0
707,701,0,0,0,0,0,0,0,0,0,-1,1931,323,0,0
714,701,0,0,0,0,0,0,0,0,0,-1,1938,323,0,0
721,701,0,0,0,0,0,0,0,0,0,-1,1945,323,0,0
728,701,0,0,0,0,0,0,0,0,0,-1,1952,323,0,0
735,701,0,0,0,0,0,0,0,0,0,-1,1959,323,0,0
742,701,0,0,0,0,0,0,0,0,0,-1,1966,323,0,0
749,701,0,0,0,0,0,0,0,0,0,-1,1973,323,0,0
756,701,0,0,0,0,0,0,0,0,0,-1,1980,323,0,0
763,701,0,0,0,0,0,0,0,0,0,-1,1987,323,0,0
770,701,0,0,0,0,0,0,0,0,0,-1,1994,323,0,0
777,701,0,0,0,0,0,0,0,0,0,-1,2001,323,0,0
784,701,0,0,0,0,0,0,0,0,0,-1,2008,323,0,0
791,701,0,0,0,0,0,0,0,0,0,-1,2015,323,0,0
798,701,0,0,0,0,0,0,0,0,0,-1,2022,323,0,0
805,701,0,0,0,0,0,0,0,0,0,-1,2029,323,0,0
812,701,0,0,0,0,0,0,0,0,0,-1,2036,323,0,0
-700,694,0,0,0,0,0,0,0,0,0,-1,524,330,0,0
-693,694,0,0,0,0,0,0,0,0,0,-1,531,330,0,0
-686,694,0,0,0,0,0,0,0,0,0,-1,538,330,0,0
-679,694,0,0,0,0,0,0,0,0,0,-1,545,330,0,0
-672,694,0,0,0,0,0,0,0,0,0,-1,552,330,0,0
-665,694,0,0,0,0,0,0,0,0,0,-1,559,330,0,0
-658,694,0,0,0,0,0,0,0,0,0,-1,566,330,0,0
-651,694,0,0,0,0,0,0,0,0,0,-1,573,330,0,0
-644,694,0,0,0,0,0,0,0,0,0,-1,580,330,0,0
-637,694,0,0,0,0,0,0,0,0,0,-1,587,330,0,0
-630,694,0,0,0,0,0,0,0,0,0,-1,594,330,0,0
-623,694,0,0,0,0,0,0,0,0,0,-1,601,330,0,0
-616,694,0,0,0,0,0,0,0,0,0,-1,608,330,0,0
-609,694,0,0,0,0,0,0,0,0,0,-1,615,330,0,0
-602,694,0,0,0,0,0,0,0,0,0,-1,622,330,0,0
-595,694,0,0,0,0,0,0,0,0,0,-1,629,330,0,0
-588,694,0,0,0,0,0,0,0,0,0,-1,636,330,0,0
-581,694,0,0,0,0,0,0,0,0,0,-1,643,330,0,0
-574,694,0,0,0,0,0,0,0,0,0,-1,650,330,0,0
-567,694,0,0,0,0,0,0,0,0,0,-1,657,330,0,0
-560,694,0,0,0,0,0,0,0,0,0,-1,664,330,0,0
-553,694,0,0,0,0,0,0,0,0,0,-1,671,330,0,0
-546,694,0,0,0,0,0,0,0,0,0,-1,678,330,0,0
-539,694,0,0,0,0,0,0,0,0,0,-1,685,330,0,0
-532,694,0,0,0,0,0,0,0,0,0,-1,692,330,0,0
-525,694,0,0,0,0,0,0,0,0,0,-1,699,330,0,0
-518,694,0,0,0,0,0,0,0,0,0,-1,706,330,0,0
-511,694,0,0,0,0,0,0,0,0,0,-1,713,330,0,0
-504,694,0,0,0,0,0,0,0,0,0,-1,720,330,0,0
-497,694,0,0,0,0,0,0,0,0,0,-1,727,330,0,0
-490,694,0,0,0,0,0,0,0,0,0,-1,734,330,0,0
-483,694,0,0,0,0,0,0,0,0,0,-1,741,330,0,0
-476,694,0,0,0,0,0,0,0,0,0,-1,748,330,0,0
-469,694,0,0,0,0,0,0,0,0,0,-1,755,330,0,0
-462,694,0,0,0,0,0,0,0,0,0,-1,762,330,0,0
-455,694,0,0,0,0,0,0,0,0,0,-1,769,330,0,0
-448,694,0,0,0,0,0,0,0,0,0,-1,776,330,0,0
-441,694,0,0,0,0,0,0,0,0,0,-1,783,330,0,0
-434,694,0,0,0,0,0,0,0,0,0,-1,790,330,0,0
-427,694,0,0,0,0,0,0,0,0,0,-1,797,330,0,0
-420,694,0,0,0,0,0,0,0,0,0,-1,804,330,0,0
-413,694,0,0,0,0,0,0,0,0,0,-1,811,330,0,0
-406,694,0,0,0,0,0,0,0,0,0,-1,818,330,0,0
-399,694,0,0,0,0,0,0,0,0,0,-1,825,330,0,0
-392,694,0,0,0,0,0,0,0,0,0,-1,832,330,0,0
-385,694,0,0,0,0,0,0,0,0,0,-1,839,330,0,0
-378,694,0,0,0,0,0,0,0,0,0,-1,846,330,0,0
-371,694,0,0,0,0,0,0,0,0,0,-1,853,330,0,0
-364,694,0,0,0,0,0,0,0,0,0,-1,860,330,0,0
-357,694,0,0,0,0,0,0,0,0,0,-1,867,330,0,0
-350,694,0,0,0,0,0,0,0,0,0,-1,874,330,0,0
-343,694,0,0,0,0,0,0,0,0,0,-1,881,330,0,0
-336,694,0,0,0,0,0,0,0,0,0,-1,888,330,0,0
-329,694,0,0,0,0,0,0,0,0,0,-1,895,330,0,0
-322,694,0,0,0,0,0,0,0,0,0,-1,902,330,0,0
-315,694,0,0,0,0,0,0,0,0,0,-1,909,330,0,0
-308,694,0,0,0,0,0,0,0,0,0,-1,916,330,0,0
-301,694,0,0,0,0,0,0,0,0,0,-1,923,330,0,0
-294,694,0,0,0,0,0,0,0,0,0,-1,930,330,0,0
-287,694,0,0,0,0,0,0,0,0,0,-1,937,330,0,0
-280,694,0,0,0,0,0,0,0,0,0,-1,944,330,0,0
-273,694,0,0,0,0,0,0,0,0,0,-1,951,330,0,0
-266,694,0,0,0,0,0,0,0,0,0,-1,958,330,0,0
-259,694,0,0,0,0,0,0,0,0,0,-1,965,330,0,0
-252,694,0,0,0,0,0,0,0,0,0,-1,972,330,0,0
-245,694,0,0,0,0,0,0,0,0,0,-1,979,330,0,0
-238,694,0,0,0,0,0,0,0,0,0,-1,986,330,0,0
-231,694,0,0,0,0,0,0,0,0,0,-1,993,330,0,0
-224,694,0,0,0,0,0,0,0,0,0,-1,1000,330,0,0
-217,694,0,0,0,0,0,0,0,0,0,-1,1007,330,0,0
-210,694,0,0,0,0,0,0,0,0,0,-1,1014,330,0,0
-203,694,0,0,0,0,0,0,0,0,0,-1,1021,330,0,0
-196,694,0,0,0,0,0,0,0,0,0,-1,1028,330,0,0
-189,694,0,0,0,0,0,0,0,0,0,-1,1035,330,0,0
-182,694,0,0,0,0,0,0,0,0,0,-1,1042,330,0,0
-175,694,0,0,0,0,0,0,0,0,0,-1,1049,330,0,0
-168,694,0,0,0,0,0,0,0,0,0,-1,1056,330,0,0
-161,694,0,0,0,0,0,0,0,0,0,-1,1063,330,0,0
-154,694,0,0,0,0,0,0,0,0,0,-1,1070,330,0,0
-147,694,0,0,0,0,0,0,0,0,0,-1,1077,330,0,0
-140,694,0,0,0,0,0,0,0,0,0,-1,1084,330,0,0
-133,694,0,0,0,0,0,0,0,0,0,-1,1091,330,0,0
-126,694,0,0,0,0,0,0,0,0,0,-1,1098,330,0,0
-119,694,0,0,0,0,0,0,0,0,0,-1,1105,330,0,0
-112,694,0,0,0,0,0,0,0,0,0,-1,1112,330,0,0
-105,694,-1.35962,-7.57141,0,0,0,0,0,0,0,-1,1119,330,-1.3596,7.57142
-98,694,1.34875,-10.1051,0,0,0,0,0,0,0,-1,1126,330,1.34874,10.1051
-91,694,1.35474,-9.22229,0,0,0,0,0,0,0,-1,1133,330,1.35476,9.22229
-84,694,-4.39136,-4.62332,0,0,0,0,0,0,0,-1,1140,330,-4.3914,4.62331
-77,694,-4.93396,-10.2672,0,0,0,0,0,0,0,-1,1147,330,-4.9339,10.2672
-70,694,-6.49402,-10.0714,0,0,0,0,0,0,0,-1,1154,330,-6.49399,10.0714
-63,694,-5.80835,-4.75275,0,0,0,0,0,0,0,-1,1161,330,-5.80834,4.75274
-56,694,-6.50623,-0.649139,0,0,0,0,0,0,0,-1,1168,330,-6.5062,0.649126
-49,694,-1.11426,0.0341797,0,0,0,0,0,0,0,-1,1175,330,-1.11424,-0.0341846
-42,694,-0.346313,-0.709595,0,0,0,0,0,0,0,-1,1182,330,-0.346298,0.709581
-35,694,-0.459106,-1.24713,0,0,0,0,0,0,0,-1,1189,330,-0.459142,1.24714
-28,694,-6.48413,-3.95972,0,0,0,0,0,0,0,-1,1196,330,-6.48414,3.9597
-21,694,4.375,-12.3327,0,0,0,0,0,0,0,-1,1203,330,4.37503,12.3327
-14,694,4.40454,-12.9045,0,0,0,0,0,0,0,-1,1210,330,4.40459,12.9045
-7,694,4.32617,-13.49,0,0,0,0,0,0,0,-1,1217,330,4.32613,13.49
0,694,4.26489,-13.7946,0,0,0,0,0,0,0,-1,1224,330,4.26493,13.7946
7,694,3.46814,-15.0204,0,0,0,0,0,0,0,-1,1231,330,3.46816,15.0204
14,694,4.51587,-11.1684,0,0,0,0,0,0,0,-1,1238,330,4.51586,11.1684
21,694,3.93542,-11.6029,0,0,0,0,0,0,0,-1,1245,330,3.93546,11.6029
28,694,1.30481,-15.6121,0,0,0,0,0,0,0,-1,1252,330,1.30476,15.6121
35,694,2.57764,-14.6842,0,0,0,0,0,0,0,-1,1259,330,2.57765,14.6842
42,694,2.46838,-14.6807,0,0,0,0,0,0,0,-1,1266,330,2.46838,14.6807
49,694,2.42004,-14.6248,0,0,0,0,0,0,0,-1,1273,330,2.42006,14.6248
56,694,2.41785,-14.2591,0,0,0,0,0,0,0,-1,1280,330,2.41786,14.2591
63,694,2.65515,-14.7978,-0.0121193,0.0440537,0.0249094,0.0535082,-0.0215738,1.20804,0.0446365,0.0446541,1287,330,2.65512,14.7978
70,694,2.69324,-13.8296,-0.0112812,0.0505789,0.0262287,0.0602027,-0.020905,1.21913,0.0486252,0.0464997,1294,330,2.69325,13.8296
77,694,2.52356,-13.6454,-0.0106477,0.0556113,0.0271519,0.0653162,-0.0203526,1.22752,0.0516819,0.0479155,1301,330,2.52361,13.6454
84,694,2.54822,-13.5909,-0.0101844,0.0581705,0.0272487,0.0677034,-0.0197173,1.23426,0.0529463,0.0442807,1308,330,2.54818,13.5909
91,694,2.60681,-13.5053,-0.0100975,0.061053,0.0274257,0.0703974,-0.0194419,1.24242,0.0545789,0.045929,1315,330,2.60685,13.5054
98,694,2.39502,-13.2201,-0.0102256,0.0617342,0.0272998,0.0709188,-0.0194102,1.24626,0.0549051,0.0482655,1322,330,2.39505,13.2201
105,694,2.13586,-12.942,-0.0104371,0.0619606,0.0267972,0.0708001,-0.0192765,1.25217,0.0547682,0.0471762,1329,330,2.13586,12.942
112,694,1.96448,-12.6931,0,0,0,0,0,0,0,-1,1336,330,1.96448,12.6931
119,694,1.8418,-12.4842,0,0,0,0,0,0,0,-1,1343,330,1.84179,12.4842
126,694,3.87012,-13.7342,0,0,0,0,0,0,0,-1,1350,330,3.87016,13.7342
133,694,-0.683228,-12.561,0,0,0,0,0,0,0,-1,1357,330,-0.683284,12.561
140,694,-0.46106,-13.2456,0,0,0,0,0,0,0,-1,1364,330,-0.46109,13.2456
147,694,-0.285522,-13.608,0,0,0,0,0,0,0,-1,1371,330,-0.285468,13.608
154,694,-0.109863,-13.9704,0,0,0,0,0,0,0,-1,1378,330,-0.109847,13.9704
161,694,1.87231,-12.4088,0,0,0,0,0,0,0,-1,1385,330,1.87227,12.4088
168,694,6.77161,1.01288,0,0,0,0,0,0,0,-1,1392,330,6.77156,-1.01287
175,694,6.72839,0.473175,0,0,0,0,0,0,0,-1,1399,330,6.72838,-0.473182
182,694,8.29028,5.75238,0,0,0,0,0,0,0,-1,1406,330,8.29034,-5.75237
189,694,7.9801,4.46118,0,0,0,0,0,0,0,-1,1413,330,7.9801,-4.46118
196,694,7.39331,3.32632,0,0,0,0,0,0,0,-1,1420,330,7.39329,-3.32633
203,694,7.04492,2.20529,0,0,0,0,0,0,0,-1,1427,330,7.04496,-2.20529
210,694,6.44714,0.646912,0,0,0,0,0,0,0,-1,1434,330,6.44717,-0.646903
217,694,7.12061,-0.644958,0,0,0,0,0,0,0,-1,1441,330,7.12059,0.644961
224,694,6.74011,-1.70544,0,0,0,0,0,0,0,-1,1448,330,6.74013,1.70546
231,694,0,0,0,0,0,0,0,0,0,-1,1455,330,0,0
238,694,0,0,0,0,0,0,0,0,0,-1,1462,330,0,0
245,694,0,0,0,0,0,0,0,0,0,-1,1469,330,0,0
252,694,0,0,0,0,0,0,0,0,0,-1,1476,330,0,0
259,694,0,0,0,0,0,0,0,0,0,-1,1483,330,0,0
266,694,0,0,0,0,0,0,0,0,0,-1,1490,330,0,0
273,694,0,0,0,0,0,0,0,0,0,-1,1497,330,0,0
280,694,0,0,0,0,0,0,0,0,0,-1,1504,330,0,0
287,694,0,0,0,0,0,0,0,0,0,-1,1511,330,0,0
294,694,0,0,0,0,0,0,0,0,0,-1,1518,330,0,0
301,694,0,0,0,0,0,0,0,0,0,-1,1525,330,0,0
308,694,0,0,0,0,0,0,0,0,0,-1,1532,330,0,0
315,694,0,0,0,0,0,0,0,0,0,-1,1539,330,0,0
322,694,0,0,0,0,0,0,0,0,0,-1,1546,330,0,0
329,694,0,0,0,0,0,0,0,0,0,-1,1553,330,0,0
336,694,0,0,0,0,0,0,0,0,0,-1,1560,330,0,0
343,694,0,0,0,0,0,0,0,0,0,-1,1567,330,0,0
350,694,0,0,0,0,0,0,0,0,0,-1,1574,330,0,0
357,694,0,0,0,0,0,0,0,0,0,-1,1581,330,0,0
364,694,0,0,0,0,0,0,0,0,0,-1,1588,330,0,0
371,694,0,0,0,0,0,0,0,0,0,-1,1595,330,0,0
378,694,0,0,0,0,0,0,0,0,0,-1,1602,330,0,0
385,694,0,0,0,0,0,0,0,0,0,-1,1609,330,0,0
392,694,0,0,0,0,0,0,0,0,0,-1,1616,330,0,0
399,694,0,0,0,0,0,0,0,0,0,-1,1623,330,0,0
406,694,0,0,0,0,0,0,0,0,0,-1,1630,330,0,0
413,694,0,0,0,0,0,0,0,0,0,-1,1637,330,0,0
420,694,0,0,0,0,0,0,0,0,0,-1,1644,330,0,0
427,694,0,0,0,0,0,0,0,0,0,-1,1651,330,0,0
434,694,0,0,0,0,0,0,0,0,0,-1,1658,330,0,0
441,694,0,0,0,0,0,0,0,0,0,-1,1665,330,0,0
448,694,0,0,0,0,0,0,0,0,0,-1,1672,330,0,0
455,694,0,0,0,0,0,0,0,0,0,-1,1679,330,0,0
462,694,0,0,0,0,0,0,0,0,0,-1,1686,330,0,0
469,694,0,0,0,0,0,0,0,0,0,-1,1693,330,0,0
476,694,0,0,0,0,0,0,0,0,0,-1,1700,330,0,0
483,694,0,0,0,0,0,0,0,0,0,-1,1707,330,0,0
490,694,0,0,0,0,0,0,0,0,0,-1,1714,330,0,0
497,694,0,0,0,0,0,0,0,0,0,-1,1721,330,0,0
504,694,0,0,0,0,0,0,0,0,0,-1,1728,330,0,0
511,694,0,0,0,0,0,0,0,0,0,-1,1735,330,0,0
518,694,0,0,0,0,0,0,0,0,0,-1,1742,330,0,0
525,694,0,0,0,0,0,0,0,0,0,-1,1749,330,0,0
532,694,0,0,0,0,0,0,0,0,0,-1,1756,330,0,0
539,694,0,0,0,0,0,0,0,0,0,-1,1763,330,0,0
546,694,0,0,0,0,0,0,0,0,0,-1,1770,330,0,0
553,694,0,0,0,0,0,0,0,0,0,-1,1777,330,0,0
560,694,0,0,0,0,0,0,0,0,0,-1,1784,330,0,0
567,694,0,0,0,0,0,0,0,0,0,-1,1791,330,0,0
574,694,0,0,0,0,0,0,0,0,0,-1,1798,330,0,0
581,694,0,0,0,0,0,0,0,0,0,-1,1805,330,0,0
588,694,0,0,0,0,0,0,0,0,0,-1,1812,330,0,0
595,694,0,0,0,0,0,0,0,0,0,-1,1819,330,0,0
602,694,0,0,0,0,0,0,0,0,0,-1,1826,330,0,0
609,694,0,0,0,0,0,0,0,0,0,-1,1833,330,0,0
616,694,0,0,0,0,0,0,0,0,0,-1,1840,330,0,0
623,694,0,0,0,0,0,0,0,0,0,-1,1847,330,0,0
630,694,0,0,0,0,0,0,0,0,0,-1,1854,330,0,0
637,694,0,0,0,0,0,0,0,0,0,-1,1861,330,0,0
644,694,0,0,0,0,0,0,0,0,0,-1,1868,330,0,0
651,694,0,0,0,0,0,0,0,0,0,-1,1875,330,0,0
658,694,0,0,0,0,0,0,0,0,0,-1,1882,330,0,0
665,694,0,0,0,0,0,0,0,0,0,-1,1889,330,0,0
672,694,0,0,0,0,0,0,0,0,0,-1,1896,330,0,0
679,694,0,0,0,0,0,0,0,0,0,-1,1903,330,0,0
686,694,0,0,0,0,0,0,0,0,0,-1,1910,330,0,0
693,694,0,0,0,0,0,0,0,0,0,-1,1917,330,0,0
700,694,0,0,0,0,0,0,0,0,0,-1,1924,330,0,0
707,694,0,0,0,0,0,0,0,0,0,-1,1931,330,0,0
714,694,0,0,0,0,0,0,0,0,0,-1,1938,330,0,0
721,694,0,0,0,0,0,0,0,0,0,-1,1945,330,0,0
728,694,0,0,0,0,0,0,0,0,0,-1,1952,330,0,0
735,694,0,0,0,0,0,0,0,0,0,-1,1959,330,0,0
742,694,0,0,0,0,0,0,0,0,0,-1,1966,330,0,0
749,694,0,0,0,0,0,0,0,0,0,-1,1973,330,0,0
756,694,0,0,0,0,0,0,0,0,0,-1,1980,330,0,0
763,694,0,0,0,0,0,0,0,0,0,-1,1987,330,0,0
770,694,0,0,0,0,0,0,0,0,0,-1,1994,330,0,0
777,694,0,0,0,0,0,0,0,0,0,-1,2001,330,0,0
784,694,0,0,0,0,0,0,0,0,0,-1,2008,330,0,0
791,694,0,0,0,0,0,0,0,0,0,-1,2015,330,0,0
798,694,0,0,0,0,0,0,0,0,0,-1,2022,330,0,0
805,694,0,0,0,0,0,0,0,0,0,-1,2029,330,0,0
812,694,0,0,0,0,0,0,0,0,0,-1,2036,330,0,0
-700,687,0,0,0,0,0,0,0,0,0,-1,524,337,0,0
-693,687,0,0,0,0,0,0,0,0,0,-1,531,337,0,0
-686,687,0,0,0,0,0,0,0,0,0,-1,538,337,0,0
-679,687,0,0,0,0,0,0,0,0,0,-1,545,337,0,0
-672,687,0,0,0,0,0,0,0,0,0,-1,552,337,0,0
-665,687,0,0,0,0,0,0,0,0,0,-1,559,337,0,0
-658,687,0,0,0,0,0,0,0,0,0,-1,566,337,0,0
-651,687,0,0,0,0,0,0,0,0,0,-1,573,337,0,0
-644,687,0,0,0,0,0,0,0,0,0,-1,580,337,0,0
-637,687,0,0,0,0,0,0,0,0,0,-1,587,337,0,0
-630,687,0,0,0,0,0,0,0,0,0,-1,594,337,0,0
-623,687,0,0,0,0,0,0,0,0,0,-1,601,337,0,0
-616,687,0,0,0,0,0,0,0,0,0,-1,608,337,0,0
-609,687,0,0,0,0,0,0,0,0,0,-1,615,337,0,0
-602,687,0,0,0,0,0,0,0,0,0,-1,622,337,0,0
-595,687,0,0,0,0,0,0,0,0,0,-1,629,337,0,0
-588,687,0,0,0,0,0,0,0,0,0,-1,636,337,0,0
-581,687,0,0,0,0,0,0,0,0,0,-1,643,337,0,0
-574,687,0,0,0,0,0,0,0,0,0,-1,650,337,0,0
-567,687,0,0,0,0,0,0,0,0,0,-1,657,337,0,0
-560,687,0,0,0,0,0,0,0,0,0,-1,664,337,0,0
-553,687,0,0,0,0,0,0,0,0,0,-1,671,337,0,0
-546,687,0,0,0,0,0,0,0,0,0,-1,678,337,0,0
-539,687,0,0,0,0,0,0,0,0,0,-1,685,337,0,0
-532,687,0,0,0,0,0,0,0,0,0,-1,692,337,0,0
-525,687,0,0,0,0,0,0,0,0,0,-1,699,337,0,0
-518,687,0,0,0,0,0,0,0,0,0,-1,706,337,0,0
-511,687,0,0,0,0,0,0,0,0,0,-1,713,337,0,0
-504,687,0,0,0,0,0,0,0,0,0,-1,720,337,0,0
-497,687,0,0,0,0,0,0,0,0,0,-1,727,337,0,0
-490,687,0,0,0,0,0,0,0,0,0,-1,734,337,0,0
-483,687,0,0,0,0,0,0,0,0,0,-1,741,337,0,0
-476,687,0,0,0,0,0,0,0,0,0,-1,748,337,0,0
-469,687,0,0,0,0,0,0,0,0,0,-1,755,337,0,0
-462,687,0,0,0,0,0,0,0,0,0,-1,762,337,0,0
-455,687,0,0,0,0,0,0,0,0,0,-1,769,337,0,0
-448,687,0,0,0,0,0,0,0,0,0,-1,776,337,0,0
-441,687,0,0,0,0,0,0,0,0,0,-1,783,337,0,0
-434,687,0,0,0,0,0,0,0,0,0,-1,790,337,0,0
-427,687,0,0,0,0,0,0,0,0,0,-1,797,337,0,0
-420,687,0,0,0,0,0,0,0,0,0,-1,804,337,0,0
-413,687,0,0,0,0,0,0,0,0,0,-1,811,337,0,0
-406,687,0,0,0,0,0,0,0,0,0,-1,818,337,0,0
-399,687,0,0,0,0,0,0,0,0,0,-1,825,337,0,0
-392,687,0,0,0,0,0,0,0,0,0,-1,832,337,0,0
-385,687,0,0,0,0,0,0,0,0,0,-1,839,337,0,0
-378,687,0,0,0,0,0,0,0,0,0,-1,846,337,0,0
-371,687,0,0,0,0,0,0,0,0,0,-1,853,337,0,0
-364,687,0,0,0,0,0,0,0,0,0,-1,860,337,0,0
-357,687,0,0,0,0,0,0,0,0,0,-1,867,337,0,0
-350,687,0,0,0,0,0,0,0,0,0,-1,874,337,0,0
-343,687,0,0,0,0,0,0,0,0,0,-1,881,337,0,0
-336,687,0,0,0,0,0,0,0,0,0,-1,888,337,0,0
-329,687,0,0,0,0,0,0,0,0,0,-1,895,337,0,0
-322,687,0,0,0,0,0,0,0,0,0,-1,902,337,0,0
-315,687,0,0,0,0,0,0,0,0,0,-1,909,337,0,0
-308,687,0,0,0,0,0,0,0,0,0,-1,916,337,0,0
-301,687,0,0,0,0,0,0,0,0,0,-1,923,337,0,0
-294,687,0,0,0,0,0,0,0,0,0,-1,930,337,0,0
-287,687,0,0,0,0,0,0,0,0,0,-1,937,337,0,0
-280,687,0,0,0,0,0,0,0,0,0,-1,944,337,0,0
-273,687,0,0,0,0,0,0,0,0,0,-1,951,337,0,0
-266,687,0,0,0,0,0,0,0,0,0,-1,958,337,0,0
-259,687,0,0,0,0,0,0,0,0,0,-1,965,337,0,0
-252,687,0,0,0,0,0,0,0,0,0,-1,972,337,0,0
-245,687,0,0,0,0,0,0,0,0,0,-1,979,337,0,0
-238,687,0,0,0,0,0,0,0,0,0,-1,986,337,0,0
-231,687,0,0,0,0,0,0,0,0,0,-1,993,337,0,0
-224,687,0,0,0,0,0,0,0,0,0,-1,1000,337,0,0
-217,687,0,0,0,0,0,0,0,0,0,-1,1007,337,0,0
-210,687,0,0,0,0,0,0,0,0,0,-1,1014,337,0,0
-203,687,0,0,0,0,0,0,0,0,0,-1,1021,337,0,0
-196,687,0,0,0,0,0,0,0,0,0,-1,1028,337,0,0
-189,687,0,0,0,0,0,0,0,0,0,-1,1035,337,0,0
-182,687,0,0,0,0,0,0,0,0,0,-1,1042,337,0,0
-175,687,0,0,0,0,0,0,0,0,0,-1,1049,337,0,0
-168,687,0,0,0,0,0,0,0,0,0,-1,1056,337,0,0
-161,687,0,0,0,0,0,0,0,0,0,-1,1063,337,0,0
-154,687,0,0,0,0,0,0,0,0,0,-1,1070,337,0,0
-147,687,0,0,0,0,0,0,0,0,0,-1,1077,337,0,0
-140,687,0,0,0,0,0,0,0,0,0,-1,1084,337,0,0
-133,687,3.94824,-12.1252,0,0,0,0,0,0,0,-1,1091,337,3.94828,12.1252
-126,687,4.90063,-11.4611,0,0,0,0,0,0,0,-1,1098,337,4.90064,11.4611
-119,687,2.34839,-14.2607,0,0,0,0,0,0,0,-1,1105,337,2.3484,14.2607
-112,687,4.97925,-16.3433,0,0,0,0,0,0,0,-1,1112,337,4.97921,16.3433
-105,687,5.18494,-14.7532,0,0,0,0,0,0,0,-1,1119,337,5.18497,14.7532
-98,687,2.61658,-13.3281,0,0,0,0,0,0,0,-1,1126,337,2.61655,13.3281
-91,687,2.28162,-7.72437,0,0,0,0,0,0,0,-1,1133,337,2.28167,7.72437
-84,687,-0.867676,-5.7392,0,0,0,0,0,0,0,-1,1140,337,-0.867619,5.73919
-77,687,-3.63806,-12.9185,0,0,0,0,0,0,0,-1,1147,337,-3.6381,12.9185
-70,687,-6.24756,-13.2618,0,0,0,0,0,0,0,-1,1154,337,-6.24752,13.2618
-63,687,-8.37585,-12.8959,0,0,0,0,0,0,0,-1,1161,337,-8.3758,12.8959
-56,687,-10.7112,-8.02322,0,0,0,0,0,0,0,-1,1168,337,-10.7112,8.02323
-49,687,-7.44934,-0.550262,0,0,0,0,0,0,0,-1,1175,337,-7.44938,0.550261
-42,687,-4.2019,-0.405609,0,0,0,0,0,0,0,-1,1182,337,-4.20192,0.405614
-35,687,-4.42273,-0.688171,0,0,0,0,0,0,0,-1,1189,337,-4.42276,0.688178
-28,687,-1.14038,-1.39072,0,0,0,0,0,0,0,-1,1196,337,-1.14035,1.3907
-21,687,1.9989,-14.6456,0,0,0,0,0,0,0,-1,1203,337,1.99886,14.6456
-14,687,4.74829,-12.7918,0,0,0,0,0,0,0,-1,1210,337,4.74823,12.7918
-7,687,4.43945,-13.3112,0,0,0,0,0,0,0,-1,1217,337,4.4395,13.3112
0,687,4.31824,-13.8489,0,0,0,0,0,0,0,-1,1224,337,4.31827,13.8489
7,687,2.94763,-15.5111,0,0,0,0,0,0,0,-1,1231,337,2.94768,15.5111
14,687,2.84534,-15.5128,-0.0111631,-0.0030237,0.0117265,0.0053192,-0.019506,0.952421,0.0150928,0.0470776,1238,337,2.8453,15.5128
21,687,2.72913,-15.5279,-0.0120894,0.00177434,0.012523,0.00915602,-0.019471,1.03817,0.0168817,0.0469031,1245,337,2.72918,15.5279
28,687,2.55896,-15.4057,-0.0123682,0.006484,0.0131047,0.0132006,-0.0190848,1.09718,0.0187429,0.0449191,1252,337,2.55895,15.4057
35,687,2.59326,-15.131,-0.0115864,0.0111947,0.0143782,0.0181474,-0.0185391,1.12038,0.0211814,0.0466141,1259,337,2.59321,15.1311
42,687,2.5166,-14.7314,-0.0106843,0.0173844,0.0158851,0.0245468,-0.0178466,1.14721,0.0245775,0.0491433,1266,337,2.51657,14.7314
49,687,2.37732,-14.6918,-0.0102761,0.0238031,0.0169051,0.0307662,-0.0172393,1.18008,0.0280804,0.0497436,1273,337,2.37726,14.6918
56,687,2.49646,-14.4405,-0.00945901,0.0300255,0.0180617,0.0370411,-0.0164746,1.20031,0.0316487,0.0469242,1280,337,2.49649,14.4405
63,687,2.75171,-14.8477,-0.00858059,0.0356453,0.0191954,0.0428146,-0.0157498,1.21335,0.034995,0.0424053,1287,337,2.75174,14.8477
70,687,2.4248,-14.4692,-0.00794836,0.0409182,0.0202303,0.0482064,-0.0152365,1.22501,0.0382419,0.0414136,1294,337,2.42483,14.4692
77,687,2.26917,-14.266,-0.00744093,0.0448773,0.0209104,0.0522076,-0.0147713,1.23362,0.0406339,0.0436432,1301,337,2.26918,14.266
84,687,2.29675,-14.0829,-0.00702046,0.0467011,0.0208846,0.0538649,-0.0141842,1.24036,0.0414549,0.0438069,1308,337,2.29672,14.0829
91,687,2.37292,-13.9895,-0.00689179,0.0487008,0.0208896,0.0556753,-0.0138663,1.24856,0.0424998,0.0477239,1315,337,2.37293,13.9895
98,687,2.37329,-13.8966,0,0,0,0,0,0,0,-1,1322,337,2.37327,13.8966
105,687,2.29541,-13.7318,0,0,0,0,0,0,0,-1,1329,337,2.29545,13.7318
112,687,2.02979,-13.442,0,0,0,0,0,0,0,-1,1336,337,2.02976,13.442
119,687,2.26172,-14.2393,0,0,0,0,0,0,0,-1,1343,337,2.26176,14.2393
126,687,2.2478,-14.3532,0,0,0,0,0,0,0,-1,1350,337,2.24778,14.3532
133,687,2.29285,-14.3282,0,0,0,0,0,0,0,-1,1357,337,2.29279,14.3282
140,687,2.32056,-14.1171,0,0,0,0,0,0,0,-1,1364,337,2.32054,14.1171
147,687,2.66479,-13.3578,0,0,0,0,0,0,0,-1,1371,337,2.66474,13.3578
154,687,0.597412,-13.8249,0,0,0,0,0,0,0,-1,1378,337,0.597388,13.8249
161,687,1.80078,-12.469,0,0,0,0,0,0,0,-1,1385,337,1.80076,12.469
168,687,6.66968,1.37039,0,0,0,0,0,0,0,-1,1392,337,6.6697,-1.37039
175,687,6.64075,0.771606,0,0,0,0,0,0,0,-1,1399,337,6.64073,-0.771595
182,687,6.67249,0.289917,0,0,0,0,0,0,0,-1,1406,337,6.67247,-0.289916
189,687,7.76062,4.53635,0,0,0,0,0,0,0,-1,1413,337,7.76064,-4.53636
196,687,6.99048,3.2966,0,0,0,0,0,0,0,-1,1420,337,6.99046,-3.2966
203,687,6.36499,2.1445,0,0,0,0,0,0,0,-1,1427,337,6.36499,-2.14451
210,687,6.68066,0.674652,0,0,0,0,0,0,0,-1,1434,337,6.68062,-0.674655
217,687,5.99683,-0.630493,0,0,0,0,0,0,0,-1,1441,337,5.99684,0.630497
224,687,5.52917,0.524902,0,0,0,0,0,0,0,-1,1448,337,5.5292,-0.524915
231,687,5.85583,-1.73651,0,0,0,0,0,0,0,-1,1455,337,5.85577,1.73651
238,687,5.96582,-2.96774,0,0,0,0,0,0,0,-1,1462,337,5.96577,2.96773
245,687,1.28259,2.32211,0,0,0,0,0,0,0,-1,1469,337,1.28258,-2.32211
252,687,1.97278,3.88422,0,0,0,0,0,0,0,-1,1476,337,1.97281,-3.88421
259,687,0,0,0,0,0,0,0,0,0,-1,1483,337,0,0
266,687,0,0,0,0,0,0,0,0,0,-1,1490,337,0,0
273,687,0,0,0,0,0,0,0,0,0,-1,1497,337,0,0
280,687,0,0,0,0,0,0,0,0,0,-1,1504,337,0,0
287,687,0,0,0,0,0,0,0,0,0,-1,1511,337,0,0
294,687,0,0,0,0,0,0,0,0,0,-1,1518,337,0,0
301,687,0,0,0,0,0,0,0,0,0,-1,1525,337,0,0
308,687,0,0,0,0,0,0,0,0,0,-1,1532,337,0,0
315,687,0,0,0,0,0,0,0,0,0,-1,1539,337,0,0
322,687,0,0,0,0,0,0,0,0,0,-1,1546,337,0,0
329,687,0,0,0,0,0,0,0,0,0,-1,1553,337,0,0
336,687,0,0,0,0,0,0,0,0,0,-1,1560,337,0,0
343,687,0,0,0,0,0,0,0,0,0,-1,1567,337,0,0
350,687,0,0,0,0,0,0,0,0,0,-1,1574,337,0,0
357,687,0,0,0,0,0,0,0,0,0,-1,1581,337,0,0
364,687,0,0,0,0,0,0,0,0,0,-1,1588,337,0,0
371,687,0,0,0,0,0,0,0,0,0,-1,1595,337,0,0
378,687,0,0,0,0,0,0,0,0,0,-1,1602,337,0,0
385,687,0,0,0,0,0,0,0,0,0,-1,1609,337,0,0
392,687,0,0,0,0,0,0,0,0,0,-1,1616,337,0,0
399,687,0,0,0,0,0,0,0,0,0,-1,1623,337,0,0
406,687,0,0,0,0,0,0,0,0,0,-1,1630,337,0,0
413,687,0,0,0,0,0,0,0,0,0,-1,1637,337,0,0
420,687,0,0,0,0,0,0,0,0,0,-1,1644,337,0,0
427,687,0,0,0,0,0,0,0,0,0,-1,1651,337,0,0
434,687,0,0,0,0,0,0,0,0,0,-1,1658,337,0,0
441,687,0,0,0,0,0,0,0,0,0,-1,1665,337,0,0
448,687,0,0,0,0,0,0,0,0,0,-1,1672,337,0,0
455,687,0,0,0,0,0,0,0,0,0,-1,1679,337,0,0
462,687,0,0,0,0,0,0,0,0,0,-1,1686,337,0,0
469,687,0,0,0,0,0,0,0,0,0,-1,1693,337,0,0
476,687,0,0,0,0,0,0,0,0,0,-1,1700,337,0,0
483,687,0,0,0,0,0,0,0,0,0,-1,1707,337,0,0
490,687,0,0,0,0,0,0,0,0,0,-1,1714,337,0,0
497,687,0,0,0,0,0,0,0,0,0,-1,1721,337,0,0
504,687,0,0,0,0,0,0,0,0,0,-1,1728,337,0,0
511,687,0,0,0,0,0,0,0,0,0,-1,1735,337,0,0
518,687,0,0,0,0,0,0,0,0,0,-1,1742,337,0,0
525,687,0,0,0,0,0,0,0,0,0,-1,1749,337,0,0
532,687,0,0,0,0,0,0,0,0,0,-1,1756,337,0,0
539,687,0,0,0,0,0,0,0,0,0,-1,1763,337,0,0
546,687,0,0,0,0,0,0,0,0,0,-1,1770,337,0,0
553,687,0,0,0,0,0,0,0,0,0,-1,1777,337,0,0
560,687,0,0,0,0,0,0,0,0,0,-1,1784,337,0,0
567,687,0,0,0,0,0,0,0,0,0,-1,1791,337,0,0
574,687,0,0,0,0,0,0,0,0,0,-1,1798,337,0,0
581,687,0,0,0,0,0,0,0,0,0,-1,1805,337,0,0
588,687,0,0,0,0,0,0,0,0,0,-1,1812,337,0,0
595,687,0,0,0,0,0,0,0,0,0,-1,1819,337,0,0
602,687,0,0,0,0,0,0,0,0,0,-1,1826,337,0,0
609,687,0,0,0,0,0,0,0,0,0,-1,1833,337,0,0
616,687,0,0,0,0,0,0,0,0,0,-1,1840,337,0,0
623,687,0,0,0,0,0,0,0,0,0,-1,1847,337,0,0
630,687,0,0,0,0,0,0,0,0,0,-1,1854,337,0,0
637,687,0,0,0,0,0,0,0,0,0,-1,1861,337,0,0
644,687,0,0,0,0,0,0,0,0,0,-1,1868,337,0,0
651,687,0,0,0,0,0,0,0,0,0,-1,1875,337,0,0
658,687,0,0,0,0,0,0,0,0,0,-1,1882,337,0,0
665,687,0,0,0,0,0,0,0,0,0,-1,1889,337,0,0
672,687,0,0,0,0,0,0,0,0,0,-1,1896,337,0,0
679,687,0,0,0,0,0,0,0,0,0,-1,1903,337,0,0
686,687,0,0,0,0,0,0,0,0,0,-1,1910,337,0,0
693,687,0,0,0,0,0,0,0,0,0,-1,1917,337,0,0
700,687,0,0,0,0,0,0,0,0,0,-1,1924,337,0,0
707,687,0,0,0,0,0,0,0,0,0,-1,1931,337,0,0
714,687,0,0,0,0,0,0,0,0,0,-1,1938,337,0,0
721,687,0,0,0,0,0,0,0,0,0,-1,1945,337,0,0
728,687,0,0,0,0,0,0,0,0,0,-1,1952,337,0,0
735,687,0,0,0,0,0,0,0,0,0,-1,1959,337,0,0
742,687,0,0,0,0,0,0,0,0,0,-1,1966,337,0,0
749,687,0,0,0,0,0,0,0,0,0,-1,1973,337,0,0
756,687,0,0,0,0,0,0,0,0,0,-1,1980,337,0,0
763,687,0,0,0,0,0,0,0,0,0,-1,1987,337,0,0
770,687,0,0,0,0,0,0,0,0,0,-1,1994,337,0,0
777,687,0,0,0,0,0,0,0,0,0,-1,2001,337,0,0
784,687,0,0,0,0,0,0,0,0,0,-1,2008,337,0,0
791,687,0,0,0,0,0,0,0,0,0,-1,2015,337,0,0
798,687,0,0,0,0,0,0,0,0,0,-1,2022,337,0,0
805,687,0,0,0,0,0,0,0,0,0,-1,2029,337,0,0
812,687,0,0,0,0,0,0,0,0,0,-1,2036,337,0,0
-700,680,0,0,0,0,0,0,0,0,0,-1,524,344,0,0
-693,680,0,0,0,0,0,0,0,0,0,-1,531,344,0,0
-686,680,0,0,0,0,0,0,0,0,0,-1,538,344,0,0
-679,680,0,0,0,0,0,0,0,0,0,-1,545,344,0,0
-672,680,0,0,0,0,0,0,0,0,0,-1,552,344,0,0
-665,680,0,0,0,0,0,0,0,0,0,-1,559,344,0,0
-658,680,0,0,0,0,0,0,0,0,0,-1,566,344,0,0
-651,680,0,0,0,0,0,0,0,0,0,-1,573,344,0,0
-644,680,0,0,0,0,0,0,0,0,0,-1,580,344,0,0
-637,680,0,0,0,0,0,0,0,0,0,-1,587,344,0,0
-630,680,0,0,0,0,0,0,0,0,0,-1,594,344,0,0
-623,680,0,0,0,0,0,0,0,0,0,-1,601,344,0,0
-616,680,0,0,0,0,0,0,0,0,0,-1,608,344,0,0
-609,680,0,0,0,0,0,0,0,0,0,-1,615,344,0,0
-602,680,0,0,0,0,0,0,0,0,0,-1,622,344,0,0
-595,680,0,0,0,0,0,0,0,0,0,-1,629,344,0,0
-588,680,0,0,0,0,0,0,0,0,0,-1,636,344,0,0
-581,680,0,0,0,0,0,0,0,0,0,-1,643,344,0,0
-574,680,0,0,0,0,0,0,0,0,0,-1,650,344,0,0
-567,680,0,0,0,0,0,0,0,0,0,-1,657,344,0,0
-560,680,0,0,0,0,0,0,0,0,0,-1,664,344,0,0
-553,680,0,0,0,0,0,0,0,0,0,-1,671,344,0,0
-546,680,0,0,0,0,0,0,0,0,0,-1,678,344,0,0
-539,680,0,0,0,0,0,0,0,0,0,-1,685,344,0,0
-532,680,0,0,0,0,0,0,0,0,0,-1,692,344,0,0
-525,680,0,0,0,0,0,0,0,0,0,-1,699,344,0,0
-518,680,0,0,0,0,0,0,0,0,0,-1,706,344,0,0
-511,680,0,0,0,0,0,0,0,0,0,-1,713,344,0,0
-504,680,0,0,0,0,0,0,0,0,0,-1,720,344,0,0
-497,680,0,0,0,0,0,0,0,0,0,-1,727,344,0,0
-490,680,0,0,0,0,0,0,0,0,0,-1,734,344,0,0
-483,680,0,0,0,0,0,0,0,0,0,-1,741,344,0,0
-476,680,0,0,0,0,0,0,0,0,0,-1,748,344,0,0
-469,680,0,0,0,0,0,0,0,0,0,-1,755,344,0,0
-462,680,0,0,0,0,0,0,0,0,0,-1,762,344,0,0
-455,680,0,0,0,0,0,0,0,0,0,-1,769,344,0,0
-448,680,0,0,0,0,0,0,0,0,0,-1,776,344,0,0
-441,680,0,0,0,0,0,0,0,0,0,-1,783,344,0,0
-434,680,0,0,0,0,0,0,0,0,0,-1,790,344,0,0
-427,680,0,0,0,0,0,0,0,0,0,-1,797,344,0,0
-420,680,0,0,0,0,0,0,0,0,0,-1,804,344,0,0
-413,680,0,0,0,0,0,0,0,0,0,-1,811,344,0,0
-406,680,0,0,0,0,0,0,0,0,0,-1,818,344,0,0
-399,680,0,0,0,0,0,0,0,0,0,-1,825,344,0,0
-392,680,0,0,0,0,0,0,0,0,0,-1,832,344,0,0
-385,680,0,0,0,0,0,0,0,0,0,-1,839,344,0,0
-378,680,0,0,0,0,0,0,0,0,0,-1,846,344,0,0
-371,680,0,0,0,0,0,0,0,0,0,-1,853,344,0,0
-364,680,0,0,0,0,0,0,0,0,0,-1,860,344,0,0
-357,680,0,0,0,0,0,0,0,0,0,-1,867,344,0,0
-350,680,0,0,0,0,0,0,0,0,0,-1,874,344,0,0
-343,680,0,0,0,0,0,0,0,0,0,-1,881,344,0,0
-336,680,0,0,0,0,0,0,0,0,0,-1,888,344,0,0
-329,680,0,0,0,0,0,0,0,0,0,-1,895,344,0,0
-322,680,0,0,0,0,0,0,0,0,0,-1,902,344,0,0
-315,680,0,0,0,0,0,0,0,0,0,-1,909,344,0,0
-308,680,0,0,0,0,0,0,0,0,0,-1,916,344,0,0
-301,680,0,0,0,0,0,0,0,0,0,-1,923,344,0,0
-294,680,0,0,0,0,0,0,0,0,0,-1,930,344,0,0
-287,680,0,0,0,0,0,0,0,0,0,-1,937,344,0,0
-280,680,0,0,0,0,0,0,0,0,0,-1,944,344,0,0
-273,680,0,0,0,0,0,0,0,0,0,-1,951,344,0,0
-266,680,0,0,0,0,0,0,0,0,0,-1,958,344,0,0
-259,680,0,0,0,0,0,0,0,0,0,-1,965,344,0,0
-252,680,0,0,0,0,0,0,0,0,0,-1,972,344,0,0
-245,680,0,0,0,0,0,0,0,0,0,-1,979,344,0,0
-238,680,0,0,0,0,0,0,0,0,0,-1,986,344,0,0
-231,680,0,0,0,0,0,0,0,0,0,-1,993,344,0,0
-224,680,0,0,0,0,0,0,0,0,0,-1,1000,344,0,0
-217,680,0,0,0,0,0,0,0,0,0,-1,1007,344,0,0
-210,680,0,0,0,0,0,0,0,0,0,-1,1014,344,0,0
-203,680,0,0,0,0,0,0,0,0,0,-1,1021,344,0,0
-196,680,0,0,0,0,0,0,0,0,0,-1,1028,344,0,0
-189,680,0,0,0,0,0,0,0,0,0,-1,1035,344,0,0
-182,680,0,0,0,0,0,0,0,0,0,-1,1042,344,0,0
-175,680,0,0,0,0,0,0,0,0,0,-1,1049,344,0,0
-168,680,0,0,0,0,0,0,0,0,0,-1,1056,344,0,0
-161,680,0,0,0,0,0,0,0,0,0,-1,1063,344,0,0
-154,680,2.93018,-16.3629,0,0,0,0,0,0,0,-1,1070,344,2.93013,16.3629
-147,680,3.67163,-17.456,0,0,0,0,0,0,0,-1,1077,344,3.67165,17.456
-140,680,5.20984,-17.8335,0,0,0,0,0,0,0,-1,1084,344,5.20978,17.8335
-133,680,4.31287,-11.7563,0,0,0,0,0,0,0,-1,1091,344,4.31291,11.7563
-126,680,4.96155,-14.9674,0,0,0,0,0,0,0,-1,1098,344,4.96152,14.9674
-119,680,4.70776,-14.597,0,0,0,0,0,0,0,-1,1105,344,4.70781,14.5969
-112,680,4.75183,-14.1459,0,0,0,0,0,0,0,-1,1112,344,4.75179,14.1459
-105,680,2.14746,-13.9067,0,0,0,0,0,0,0,-1,1119,344,2.1475,13.9067
-98,680,2.56531,-13.3694,0,0,0,0,0,0,0,-1,1126,344,2.56526,13.3694
-91,680,2.93982,-13.0255,0,0,0,0,0,0,0,-1,1133,344,2.93982,13.0255
-84,680,1.92285,-8.71033,0,0,0,0,0,0,0,-1,1140,344,1.92286,8.71034
-77,680,-0.118652,-5.75586,0,0,0,0,0,0,0,-1,1147,344,-0.118628,5.75586
-70,680,-4.04382,-16.124,0,0,0,0,0,0,0,-1,1154,344,-4.04388,16.124
-63,680,-5.41333,-13.0013,0,0,0,0,0,0,0,-1,1161,344,-5.41332,13.0013
-56,680,-6.96912,-8.83356,0,0,0,0,0,0,0,-1,1168,344,-6.96907,8.83354
-49,680,-6.7677,-2.24063,0,0,0,0,0,0,0,-1,1175,344,-6.76772,2.24063
-42,680,-1.02368,0.618805,0,0,0,0,0,0,0,-1,1182,344,-1.0237,-0.618797
-35,680,-0.947876,-0.942719,0,0,0,0,0,0,0,-1,1189,344,-0.947842,0.942731
-28,680,-1.46118,-1.10574,0,0,0,0,0,0,0,-1,1196,344,-1.4612,1.10575
-21,680,2.20276,-14.4115,0,0,0,0,0,0,0,-1,1203,344,2.2028,14.4115
-14,680,2.72998,-14.8118,0,0,0,0,0,0,0,-1,1210,344,2.72996,14.8118
-7,680,2.78259,-14.7172,0,0,0,0,0,0,0,-1,1217,344,2.7826,14.7172
0,680,3.05591,-14.8659,0,0,0,0,0,0,0,-1,1224,344,3.0559,14.8659
7,680,2.927,-14.7972,0,0,0,0,0,0,0,-1,1231,344,2.92702,14.7972
14,680,2.88599,-14.7273,-0.00796784,-0.0035916,0.00784626,0.00236593,-0.0139254,0.92138,0.0101644,0.0461366,1238,344,2.886,14.7273
21,680,2.89233,-14.7805,-0.00875701,0.00029634,0.00866399,0.00554491,-0.0140056,1.02613,0.0116345,0.0468796,1245,344,2.89235,14.7805
28,680,2.77368,-14.8998,-0.00898714,0.00415492,0.00927527,0.00895091,-0.0137831,1.09358,0.013224,0.0466189,1252,344,2.77373,14.8999
35,680,2.62012,-14.8687,-0.00833824,0.00807566,0.0104107,0.0131253,-0.0133878,1.11919,0.0153076,0.0457635,1259,344,2.62009,14.8686
42,680,2.54651,-14.8067,-0.00758458,0.0132303,0.0116659,0.0184564,-0.0128107,1.14962,0.0181499,0.0445428,1266,344,2.5465,14.8067
49,680,2.48181,-14.7535,-0.00729114,0.0184845,0.0125472,0.0235836,-0.0123902,1.18479,0.021102,0.0419043,1273,344,2.48177,14.7535
56,680,2.55469,-14.6423,-0.00666266,0.0234992,0.0134935,0.0286546,-0.011818,1.20585,0.0240314,0.0398058,1280,344,2.55472,14.6423
63,680,2.68628,-14.7169,-0.00597203,0.027929,0.0143855,0.0332105,-0.0112536,1.21893,0.0266943,0.0394668,1287,344,2.68623,14.7169
70,680,2.56006,-14.7102,-0.00549027,0.0320749,0.0151883,0.0374474,-0.0108628,1.2308,0.0292658,0.0379088,1294,344,2.56008,14.7102
77,680,2.68921,-14.671,0,0,0,0,0,0,0,-1,1301,344,2.6892,14.671
84,680,1.73645,-14.3426,-0.00470755,0.0363938,0.0156225,0.0416577,-0.00997148,1.2458,0.031624,0.0436724,1308,344,1.7364,14.3425
91,680,2.23267,-14.5882,-0.00457318,0.0377086,0.0155482,0.0428105,-0.00967509,1.25373,0.0322528,0.0471416,1315,344,2.23261,14.5882
98,680,2.93213,-14.8391,0,0,0,0,0,0,0,-1,1322,344,2.93217,14.8391
105,680,2.64087,-14.5977,-0.00466947,0.0369499,0.0148918,0.0417294,-0.00944901,1.26023,0.0314461,0.0415206,1329,344,2.64091,14.5977
112,680,2.42114,-14.6435,-0.00477377,0.0351433,0.0141962,0.0396771,-0.00930759,1.26167,0.0300385,0.042796,1336,344,2.42117,14.6435
119,680,2.34985,-14.6015,-0.00428442,0.0327816,0.0131089,0.0369491,-0.00845197,1.26298,0.0278804,0.0440457,1343,344,2.34985,14.6015
126,680,2.26111,-14.5404,-0.00333328,0.0299854,0.0121839,0.0339654,-0.00731326,1.25507,0.0254343,0.0456432,1350,344,2.26114,14.5404
133,680,2.34875,-14.4225,-0.00297375,0.0267338,0.0115192,0.0306771,-0.00691697,1.24098,0.0231048,0.0472473,1357,344,2.34871,14.4225
140,680,2.41052,-14.2967,-0.00330701,0.0245405,0.0101856,0.0278683,-0.00663484,1.25501,0.0211405,0.0479385,1364,344,2.41049,14.2967
147,680,2.55029,-13.951,-0.00286058,0.0194219,0.0088401,0.022503,-0.00594167,1.23543,0.0173256,0.0475664,1371,344,2.55031,13.951
154,680,2.90784,-13.7297,0,0,0,0,0,0,0,-1,1378,344,2.90783,13.7297
161,680,1.83545,-12.9141,0,0,0,0,0,0,0,-1,1385,344,1.83546,12.9141
168,680,6.85046,1.69257,0,0,0,0,0,0,0,-1,1392,344,6.85045,-1.69257
175,680,6.66541,0.942078,0,0,0,0,0,0,0,-1,1399,344,6.66538,-0.942088
182,680,6.52917,0.532379,0,0,0,0,0,0,0,-1,1406,344,6.52922,-0.532385
189,680,7.55884,4.77695,0,0,0,0,0,0,0,-1,1413,344,7.55886,-4.77694
196,680,6.55627,3.35254,0,0,0,0,0,0,0,-1,1420,344,6.55622,-3.35255
203,680,5.7334,1.90753,0,0,0,0,0,0,0,-1,1427,344,5.73341,-1.90754
210,680,5.27515,0.493622,0,0,0,0,0,0,0,-1,1434,344,5.27514,-0.493632
217,680,6.56384,-0.374176,0,0,0,0,0,0,0,-1,1441,344,6.56379,0.374176
224,680,3.9491,-0.640228,0,0,0,0,0,0,0,-1,1448,344,3.94908,0.64024
231,680,4.24866,-1.96881,0,0,0,0,0,0,0,-1,1455,344,4.2486,1.96882
238,680,4.29333,-3.23984,0,0,0,0,0,0,0,-1,1462,344,4.29332,3.23984
245,680,2.44397,0.985382,0,0,0,0,0,0,0,-1,1469,344,2.44402,-0.985394
252,680,3.07349,2.18951,0,0,0,0,0,0,0,-1,1476,344,3.0735,-2.18952
259,680,2.82971,1.30682,0,0,0,0,0,0,0,-1,1483,344,2.82972,-1.30684
266,680,2.67554,1.44067,0,0,0,0,0,0,0,-1,1490,344,2.67551,-1.44066
273,680,2.46411,1.54666,0,0,0,0,0,0,0,-1,1497,344,2.46407,-1.54666
280,680,0,0,0,0,0,0,0,0,0,-1,1504,344,0,0
287,680,0,0,0,0,0,0,0,0,0,-1,1511,344,0,0
294,680,0,0,0,0,0,0,0,0,0,-1,1518,344,0,0
301,680,0,0,0,0,0,0,0,0,0,-1,1525,344,0,0
308,680,0,0,0,0,0,0,0,0,0,-1,1532,344,0,0
315,680,0,0,0,0,0,0,0,0,0,-1,1539,344,0,0
322,680,0,0,0,0,0,0,0,0,0,-1,1546,344,0,0
329,680,0,0,0,0,0,0,0,0,0,-1,1553,344,0,0
336,680,0,0,0,0,0,0,0,0,0,-1,1560,344,0,0
343,680,0,0,0,0,0,0,0,0,0,-1,1567,344,0,0
350,680,0,0,0,0,0,0,0,0,0,-1,1574,344,0,0
357,680,0,0,0,0,0,0,0,0,0,-1,1581,344,0,0
364,680,0,0,0,0,0,0,0,0,0,-1,1588,344,0,0
371,680,0,0,0,0,0,0,0,0,0,-1,1595,344,0,0
378,680,0,0,0,0,0,0,0,0,0,-1,1602,344,0,0
385,680,0,0,0,0,0,0,0,0,0,-1,1609,344,0,0
392,680,0,0,0,0,0,0,0,0,0,-1,1616,344,0,0
399,680,0,0,0,0,0,0,0,0,0,-1,1623,344,0,0
406,680,0,0,0,0,0,0,0,0,0,-1,1630,344,0,0
413,680,0,0,0,0,0,0,0,0,0,-1,1637,344,0,0
420,680,0,0,0,0,0,0,0,0,0,-1,1644,344,0,0
427,680,0,0,0,0,0,0,0,0,0,-1,1651,344,0,0
434,680,0,0,0,0,0,0,0,0,0,-1,1658,344,0,0
441,680,0,0,0,0,0,0,0,0,0,-1,1665,344,0,0
448,680,0,0,0,0,0,0,0,0,0,-1,1672,344,0,0
455,680,0,0,0,0,0,0,0,0,0,-1,1679,344,0,0
462,680,0,0,0,0,0,0,0,0,0,-1,1686,344,0,0
469,680,0,0,0,0,0,0,0,0,0,-1,1693,344,0,0
476,680,0,0,0,0,0,0,0,0,0,-1,1700,344,0,0
483,680,0,0,0,0,0,0,0,0,0,-1,1707,344,0,0
490,680,0,0,0,0,0,0,0,0,0,-1,1714,344,0,0
497,680,0,0,0,0,0,0,0,0,0,-1,1721,344,0,0
504,680,0,0,0,0,0,0,0,0,0,-1,1728,344,0,0
511,680,0,0,0,0,0,0,0,0,0,-1,1735,344,0,0
518,680,0,0,0,0,0,0,0,0,0,-1,1742,344,0,0
525,680,0,0,0,0,0,0,0,0,0,-1,1749,344,0,0
532,680,0,0,0,0,0,0,0,0,0,-1,1756,344,0,0
539,680,0,0,0,0,0,0,0,0,0,-1,1763,344,0,0
546,680,0,0,0,0,0,0,0,0,0,-1,1770,344,0,0
553,680,0,0,0,0,0,0,0,0,0,-1,1777,344,0,0
560,680,0,0,0,0,0,0,0,0,0,-1,1784,344,0,0
567,680,0,0,0,0,0,0,0,0,0,-1,1791,344,0,0
574,680,0,0,0,0,0,0,0,0,0,-1,1798,344,0,0
581,680,0,0,0,0,0,0,0,0,0,-1,1805,344,0,0
588,680,0,0,0,0,0,0,0,0,0,-1,1812,344,0,0
595,680,0,0,0,0,0,0,0,0,0,-1,1819,344,0,0
602,680,0,0,0,0,0,0,0,0,0,-1,1826,344,0,0
609,680,0,0,0,0,0,0,0,0,0,-1,1833,344,0,0
616,680,0,0,0,0,0,0,0,0,0,-1,1840,344,0,0
623,680,0,0,0,0,0,0,0,0,0,-1,1847,344,0,0
630,680,0,0,0,0,0,0,0,0,0,-1,1854,344,0,0
637,680,0,0,0,0,0,0,0,0,0,-1,1861,344,0,0
644,680,0,0,0,0,0,0,0,0,0,-1,1868,344,0,0
651,680,0,0,0,0,0,0,0,0,0,-1,1875,344,0,0
658,680,0,0,0,0,0,0,0,0,0,-1,1882,344,0,0
665,680,0,0,0,0,0,0,0,0,0,-1,1889,344,0,0
672,680,0,0,0,0,0,0,0,0,0,-1,1896,344,0,0
679,680,0,0,0,0,0,0,0,0,0,-1,1903,344,0,0
686,680,0,0,0,0,0,0,0,0,0,-1,1910,344,0,0
693,680,0,0,0,0,0,0,0,0,0,-1,1917,344,0,0
700,680,0,0,0,0,0,0,0,0,0,-1,1924,344,0,0
707,680,0,0,0,0,0,0,0,0,0,-1,1931,344,0,0
714,680,0,0,0,0,0,0,0,0,0,-1,1938,344,0,0
721,680,0,0,0,0,0,0,0,0,0,-1,1945,344,0,0
728,680,0,0,0,0,0,0,0,0,0,-1,1952,344,0,0
735,680,0,0,0,0,0,0,0,0,0,-1,1959,344,0,0
742,680,0,0,0,0,0,0,0,0,0,-1,1966,344,0,0
749,680,0,0,0,0,0,0,0,0,0,-1,1973,344,0,0
756,680,0,0,0,0,0,0,0,0,0,-1,1980,344,0,0
763,680,0,0,0,0,0,0,0,0,0,-1,1987,344,0,0
770,680,0,0,0,0,0,0,0,0,0,-1,1994,344,0,0
777,680,0,0,0,0,0,0,0,0,0,-1,2001,344,0,0
784,680,0,0,0,0,0,0,0,0,0,-1,2008,344,0,0
791,680,0,0,0,0,0,0,0,0,0,-1,2015,344,0,0
798,680,0,0,0,0,0,0,0,0,0,-1,2022,344,0,0
805,680,0,0,0,0,0,0,0,0,0,-1,2029,344,0,0
812,680,0,0,0,0,0,0,0,0,0,-1,2036,344,0,0
-700,673,0,0,0,0,0,0,0,0,0,-1,524,351,0,0
-693,673,0,0,0,0,0,0,0,0,0,-1,531,351,0,0
-686,673,0,0,0,0,0,0,0,0,0,-1,538,351,0,0
-679,673,0,0,0,0,0,0,0,0,0,-1,545,351,0,0
-672,673,0,0,0,0,0,0,0,0,0,-1,552,351,0,0
-665,673,0,0,0,0,0,0,0,0,0,-1,559,351,0,0
-658,673,0,0,0,0,0,0,0,0,0,-1,566,351,0,0
-651,673,0,0,0,0,0,0,0,0,0,-1,573,351,0,0
-644,673,0,0,0,0,0,0,0,0,0,-1,580,351,0,0
-637,673,0,0,0,0,0,0,0,0,0,-1,587,351,0,0
-630,673,0,0,0,0,0,0,0,0,0,-1,594,351,0,0
-623,673,0,0,0,0,0,0,0,0,0,-1,601,351,0,0
-616,673,0,0,0,0,0,0,0,0,0,-1,608,351,0,0
-609,673,0,0,0,0,0,0,0,0,0,-1,615,351,0,0
-602,673,0,0,0,0,0,0,0,0,0,-1,622,351,0,0
-595,673,0,0,0,0,0,0,0,0,0,-1,629,351,0,0
-588,673,0,0,0,0,0,0,0,0,0,-1,636,351,0,0
-581,673,0,0,0,0,0,0,0,0,0,-1,643,351,0,0
-574,673,0,0,0,0,0,0,0,0,0,-1,650,351,0,0
-567,673,0,0,0,0,0,0,0,0,0,-1,657,351,0,0
-560,673,0,0,0,0,0,0,0,0,0,-1,664,351,0,0
-553,673,0,0,0,0,0,0,0,0,0,-1,671,351,0,0
-546,673,0,0,0,0,0,0,0,0,0,-1,678,351,0,0
-539,673,0,0,0,0,0,0,0,0,0,-1,685,351,0,0
-532,673,0,0,0,0,0,0,0,0,0,-1,692,351,0,0
-525,673,0,0,0,0,0,0,0,0,0,-1,699,351,0,0
-518,673,0,0,0,0,0,0,0,0,0,-1,706,351,0,0
-511,673,0,0,0,0,0,0,0,0,0,-1,713,351,0,0
-504,673,0,0,0,0,0,0,0,0,0,-1,720,351,0,0
-497,673,0,0,0,0,0,0,0,0,0,-1,727,351,0,0
-490,673,0,0,0,0,0,0,0,0,0,-1,734,351,0,0
-483,673,0,0,0,0,0,0,0,0,0,-1,741,351,0,0
-476,673,0,0,0,0,0,0,0,0,0,-1,748,351,0,0
-469,673,0,0,0,0,0,0,0,0,0,-1,755,351,0,0
-462,673,0,0,0,0,0,0,0,0,0,-1,762,351,0,0
-455,673,0,0,0,0,0,0,0,0,0,-1,769,351,0,0
-448,673,0,0,0,0,0,0,0,0,0,-1,776,351,0,0
-441,673,0,0,0,0,0,0,0,0,0,-1,783,351,0,0
-434,673,0,0,0,0,0,0,0,0,0,-1,790,351,0,0
-427,673,0,0,0,0,0,0,0,0,0,-1,797,351,0,0
-420,673,0,0,0,0,0,0,0,0,0,-1,804,351,0,0
-413,673,0,0,0,0,0,0,0,0,0,-1,811,351,0,0
-406,673,0,0,0,0,0,0,0,0,0,-1,818,351,0,0
-399,673,0,0,0,0,0,0,0,0,0,-1,825,351,0,0
-392,673,0,0,0,0,0,0,0,0,0,-1,832,351,0,0
-385,673,0,0,0,0,0,0,0,0,0,-1,839,351,0,0
-378,673,0,0,0,0,0,0,0,0,0,-1,846,351,0,0
-371,673,0,0,0,0,0,0,0,0,0,-1,853,351,0,0
-364,673,0,0,0,0,0,0,0,0,0,-1,860,351,0,0
-357,673,0,0,0,0,0,0,0,0,0,-1,867,351,0,0
-350,673,0,0,0,0,0,0,0,0,0,-1,874,351,0,0
-343,673,0,0,0,0,0,0,0,0,0,-1,881,351,0,0
-336,673,0,0,0,0,0,0,0,0,0,-1,888,351,0,0
-329,673,0,0,0,0,0,0,0,0,0,-1,895,351,0,0
-322,673,0,0,0,0,0,0,0,0,0,-1,902,351,0,0
-315,673,0,0,0,0,0,0,0,0,0,-1,909,351,0,0
-308,673,0,0,0,0,0,0,0,0,0,-1,916,351,0,0
-301,673,0,0,0,0,0,0,0,0,0,-1,923,351,0,0
-294,673,0,0,0,0,0,0,0,0,0,-1,930,351,0,0
-287,673,0,0,0,0,0,0,0,0,0,-1,937,351,0,0
-280,673,0,0,0,0,0,0,0,0,0,-1,944,351,0,0
-273,673,0,0,0,0,0,0,0,0,0,-1,951,351,0,0
-266,673,0,0,0,0,0,0,0,0,0,-1,958,351,0,0
-259,673,0,0,0,0,0,0,0,0,0,-1,965,351,0,0
-252,673,0,0,0,0,0,0,0,0,0,-1,972,351,0,0
-245,673,0,0,0,0,0,0,0,0,0,-1,979,351,0,0
-238,673,0,0,0,0,0,0,0,0,0,-1,986,351,0,0
-231,673,0,0,0,0,0,0,0,0,0,-1,993,351,0,0
-224,673,0,0,0,0,0,0,0,0,0,-1,1000,351,0,0
-217,673,0,0,0,0,0,0,0,0,0,-1,1007,351,0,0
-210,673,0,0,0,0,0,0,0,0,0,-1,1014,351,0,0
-203,673,0,0,0,0,0,0,0,0,0,-1,1021,351,0,0
-196,673,0,0,0,0,0,0,0,0,0,-1,1028,351,0,0
-189,673,0,0,0,0,0,0,0,0,0,-1,1035,351,0,0
-182,673,0,0,0,0,0,0,0,0,0,-1,1042,351,0,0
-175,673,0.0117188,-12.6462,0,0,0,0,0,0,0,-1,1049,351,0.0117447,12.6462
-168,673,0.9375,-13.6093,0,0,0,0,0,0,0,-1,1056,351,0.937509,13.6093
-161,673,2.07959,-14.7435,0,0,0,0,0,0,0,-1,1063,351,2.07955,14.7435
-154,673,3.1676,-15.8547,0,0,0,0,0,0,0,-1,1070,351,3.16758,15.8547
-147,673,4.38293,-16.4111,0,0,0,0,0,0,0,-1,1077,351,4.38293,16.4111
-140,673,5.70911,-16.5766,0,0,0,0,0,0,0,-1,1084,351,5.70908,16.5766
-133,673,4.30469,-14.0368,0,0,0,0,0,0,0,-1,1091,351,4.30475,14.0368
-126,673,4.19592,-13.8611,0,0,0,0,0,0,0,-1,1098,351,4.19598,13.8611
-119,673,3.48083,-13.2025,0,0,0,0,0,0,0,-1,1105,351,3.4808,13.2025
-112,673,4.4032,-13.5573,0,0,0,0,0,0,0,-1,1112,351,4.40325,13.5573
-105,673,2.36584,-13.7357,0,0,0,0,0,0,0,-1,1119,351,2.36585,13.7356
-98,673,2.4115,-13.4886,0.0169291,0.0208441,-0.00143566,0.0213142,0.0164591,-1.2544,0.0128993,0.0422987,1126,351,2.41151,13.4886
-91,673,2.62158,-13.1555,0.0129678,0.019768,0.00226257,0.020452,0.0122838,1.27722,0.0118874,0.0441354,1133,351,2.62159,13.1555
-84,673,2.72754,-12.5801,0,0,0,0,0,0,0,-1,1140,351,2.72749,12.5801
-77,673,1.60266,-8.87473,0,0,0,0,0,0,0,-1,1147,351,1.60268,8.87474
-70,673,1.88684,-4.7381,0,0,0,0,0,0,0,-1,1154,351,1.88682,4.73809
-63,673,1.11719,-2.95016,0,0,0,0,0,0,0,-1,1161,351,1.11724,2.95016
-56,673,-6.18872,-9.52338,0,0,0,0,0,0,0,-1,1168,351,-6.18874,9.52336
-49,673,-0.926758,-0.115448,0,0,0,0,0,0,0,-1,1175,351,-0.926732,0.115444
-42,673,-1.15015,0.289917,0,0,0,0,0,0,0,-1,1182,351,-1.15017,-0.289932
-35,673,-0.919556,-1.00711,0,0,0,0,0,0,0,-1,1189,351,-0.919514,1.00711
-28,673,1.03564,-2.58228,0,0,0,0,0,0,0,-1,1196,351,1.0356,2.58229
-21,673,2.59314,-14.7544,0,0,0,0,0,0,0,-1,1203,351,2.59318,14.7544
-14,673,2.68176,-14.7996,-0.00271042,-0.0072132,0.00288646,-0.00130115,-0.00862247,0.45419,0.00536742,0.0458014,1210,351,2.68178,14.7996
-7,673,2.73633,-14.7444,-0.00372092,-0.00694587,0.00356693,-0.00141892,-0.00924786,0.573114,0.00575091,0.0414649,1217,351,2.7363,14.7443
0,673,2.91223,-14.8257,-0.00462725,-0.00670259,0.00402116,-0.00151203,-0.00981781,0.659127,0.00610394,0.0445122,1224,351,2.91224,14.8257
7,673,2.82813,-14.8232,-0.00507364,-0.00587746,0.00429756,-0.00115923,-0.00979187,0.738774,0.00617786,0.045147,1231,351,2.82808,14.8232
14,673,2.8208,-14.8036,-0.00564113,-0.00334538,0.00514557,0.000778794,-0.0097653,0.895142,0.00678471,0.0378925,1238,351,2.82077,14.8036
21,673,2.7804,-14.8325,-0.00626535,-0.000387234,0.00584587,0.00321681,-0.0098694,1.01832,0.00787403,0.0249471,1245,351,2.7804,14.8325
28,673,2.74316,-14.8352,-0.00643614,0.00260503,0.00638809,0.00591027,-0.00974138,1.09332,0.00912627,0.0171797,1252,351,2.74315,14.8352
35,673,2.67969,-14.8422,-0.00592049,0.00570505,0.00732384,0.00924252,-0.00945796,1.12084,0.010797,0.0237034,1259,351,2.6797,14.8421
42,673,2.59436,-14.8468,-0.00531431,0.00980083,0.00831584,0.0134803,-0.00899373,1.15423,0.0130613,0.0258517,1266,351,2.59431,14.8468
49,673,2.60168,-14.8411,-0.0050987,0.0139128,0.0090369,0.0175229,-0.00870878,1.19074,0.0154272,0.0172639,1273,351,2.60171,14.8411
56,673,2.59106,-14.8174,-0.00461924,0.0178099,0.00978128,0.0214762,-0.00828553,1.21218,0.0177366,0.0144792,1280,351,2.59109,14.8174
63,673,2.63135,-14.7953,-0.00408011,0.0211862,0.0104629,0.0249563,-0.00785025,1.22494,0.0197805,0.0170302,1287,351,2.63135,14.7953
70,673,2.58765,-14.747,-0.00371044,0.0243466,0.011072,0.0281895,-0.00755336,1.23672,0.0217524,0.0253218,1294,351,2.58769,14.747
77,673,2.65833,-14.7398,-0.00337513,0.0266194,0.0114444,0.0304873,-0.00724298,1.24488,0.0231205,0.0337574,1301,351,2.65827,14.7398
84,673,2.74976,-14.7449,0,0,0,0,0,0,0,-1,1308,351,2.74974,14.7449
91,673,1.83521,-14.9903,0,0,0,0,0,0,0,-1,1315,351,1.83525,14.9903
98,673,2.58984,-15.3175,0,0,0,0,0,0,0,-1,1322,351,2.58979,15.3175
105,673,2.35693,-14.6852,-0.0030322,0.0272861,0.0107363,0.0307029,-0.00644904,1.26268,0.0229227,0.0415104,1329,351,2.35695,14.6852
112,673,2.4906,-14.7299,-0.00316083,0.0256592,0.0102021,0.0289051,-0.00640672,1.26276,0.0217229,0.0392291,1336,351,2.49063,14.7299
119,673,2.36536,-14.606,-0.0028609,0.0235397,0.00930553,0.0264899,-0.00581117,1.26378,0.0198821,0.0382326,1343,351,2.36538,14.606
126,673,2.28552,-14.5944,-0.00223424,0.0210597,0.00855342,0.0238631,-0.00503763,1.25408,0.0178268,0.0390108,1350,351,2.28554,14.5944
133,673,2.38843,-14.4442,-0.00207159,0.0184873,0.00804041,0.0212584,-0.00484263,1.23891,0.0160321,0.0398907,1357,351,2.38848,14.4442
140,673,2.39893,-14.418,-0.00237977,0.0165632,0.0071716,0.018972,-0.00478856,1.24676,0.01451,0.039902,1364,351,2.39893,14.418
147,673,2.30518,-14.3696,-0.00217955,0.0129937,0.00644876,0.0153641,-0.00455,1.21854,0.0120493,0.0401349,1371,351,2.30516,14.3696
154,673,2.22278,-14.2121,-0.00043204,0.0105708,0.00705389,0.0140149,-0.00387618,1.11658,0.0108683,0.0387947,1378,351,2.22283,14.2121
161,673,2.22949,-14.1184,0,0,0,0,0,0,0,-1,1385,351,2.22949,14.1184
168,673,6.87061,1.83954,0,0,0,0,0,0,0,-1,1392,351,6.87063,-1.83953
175,673,6.6228,1.1459,0,0,0,0,0,0,0,-1,1399,351,6.62276,-1.14591
182,673,6.37244,0.796112,0,0,0,0,0,0,0,-1,1406,351,6.3724,-0.796102
189,673,6.12097,0.265472,0,0,0,0,0,0,0,-1,1413,351,6.121,-0.265482
196,673,6.02173,3.12717,0,0,0,0,0,0,0,-1,1420,351,6.02176,-3.12717
203,673,5.04456,1.6351,0,0,0,0,0,0,0,-1,1427,351,5.04455,-1.63509
210,673,4.79224,0.447479,0,0,0,0,0,0,0,-1,1434,351,4.79229,-0.447469
217,673,2.01648,0.972687,0,0,0,0,0,0,0,-1,1441,351,2.01644,-0.972691
224,673,2.3689,-1.80539,0,0,0,0,0,0,0,-1,1448,351,2.36896,1.80539
231,673,2.65857,-2.18497,0,0,0,0,0,0,0,-1,1455,351,2.65852,2.18496
238,673,3.24146,-1.01593,0,0,0,0,0,0,0,-1,1462,351,3.24142,1.01593
245,673,3.5376,-0.190399,0,0,0,0,0,0,0,-1,1469,351,3.53759,0.1904
252,673,3.80518,0.55603,0,0,0,0,0,0,0,-1,1476,351,3.80519,-0.556022
259,673,3.88562,1.29617,0,0,0,0,0,0,0,-1,1483,351,3.88562,-1.29618
266,673,4.22424,2.04834,0,0,0,0,0,0,0,-1,1490,351,4.22429,-2.04834
273,673,6.07886,0.385895,0,0,0,0,0,0,0,-1,1497,351,6.0789,-0.385906
280,673,6.97534,-0.0820007,0,0,0,0,0,0,0,-1,1504,351,6.97536,0.0820122
287,673,7.66968,-0.348541,0,0,0,0,0,0,0,-1,1511,351,7.66969,0.348534
294,673,8.20996,0.28537,0,0,0,0,0,0,0,-1,1518,351,8.20993,-0.28536
301,673,0,0,0,0,0,0,0,0,0,-1,1525,351,0,0
308,673,0,0,0,0,0,0,0,0,0,-1,1532,351,0,0
315,673,0,0,0,0,0,0,0,0,0,-1,1539,351,0,0
322,673,0,0,0,0,0,0,0,0,0,-1,1546,351,0,0
329,673,0,0,0,0,0,0,0,0,0,-1,1553,351,0,0
336,673,0,0,0,0,0,0,0,0,0,-1,1560,351,0,0
343,673,0,0,0,0,0,0,0,0,0,-1,1567,351,0,0
350,673,0,0,0,0,0,0,0,0,0,-1,1574,351,0,0
357,673,0,0,0,0,0,0,0,0,0,-1,1581,351,0,0
364,673,0,0,0,0,0,0,0,0,0,-1,1588,351,0,0
371,673,0,0,0,0,0,0,0,0,0,-1,1595,351,0,0
378,673,0,0,0,0,0,0,0,0,0,-1,1602,351,0,0
385,673,0,0,0,0,0,0,0,0,0,-1,1609,351,0,0
392,673,0,0,0,0,0,0,0,0,0,-1,1616,351,0,0
399,673,0,0,0,0,0,0,0,0,0,-1,1623,351,0,0
406,673,0,0,0,0,0,0,0,0,0,-1,1630,351,0,0
413,673,0,0,0,0,0,0,0,0,0,-1,1637,351,0,0
420,673,0,0,0,0,0,0,0,0,0,-1,1644,351,0,0
427,673,0,0,0,0,0,0,0,0,0,-1,1651,351,0,0
434,673,0,0,0,0,0,0,0,0,0,-1,1658,351,0,0
441,673,0,0,0,0,0,0,0,0,0,-1,1665,351,0,0
448,673,0,0,0,0,0,0,0,0,0,-1,1672,351,0,0
455,673,0,0,0,0,0,0,0,0,0,-1,1679,351,0,0
462,673,0,0,0,0,0,0,0,0,0,-1,1686,351,0,0
469,673,0,0,0,0,0,0,0,0,0,-1,1693,351,0,0
476,673,0,0,0,0,0,0,0,0,0,-1,1700,351,0,0
483,673,0,0,0,0,0,0,0,0,0,-1,1707,351,0,0
490,673,0,0,0,0,0,0,0,0,0,-1,1714,351,0,0
497,673,0,0,0,0,0,0,0,0,0,-1,1721,351,0,0
504,673,0,0,0,0,0,0,0,0,0,-1,1728,351,0,0
511,673,0,0,0,0,0,0,0,0,0,-1,1735,351,0,0
518,673,0,0,0,0,0,0,0,0,0,-1,1742,351,0,0
525,673,0,0,0,0,0,0,0,0,0,-1,1749,351,0,0
532,673,0,0,0,0,0,0,0,0,0,-1,1756,351,0,0
539,673,0,0,0,0,0,0,0,0,0,-1,1763,351,0,0
546,673,0,0,0,0,0,0,0,0,0,-1,1770,351,0,0
553,673,0,0,0,0,0,0,0,0,0,-1,1777,351,0,0
560,673,0,0,0,0,0,0,0,0,0,-1,1784,351,0,0
567,673,0,0,0,0,0,0,0,0,0,-1,1791,351,0,0
574,673,0,0,0,0,0,0,0,0,0,-1,1798,351,0,0
581,673,0,0,0,0,0,0,0,0,0,-1,1805,351,0,0
588,673,0,0,0,0,0,0,0,0,0,-1,1812,351,0,0
595,673,0,0,0,0,0,0,0,0,0,-1,1819,351,0,0
602,673,0,0,0,0,0,0,0,0,0,-1,1826,351,0,0
609,673,0,0,0,0,0,0,0,0,0,-1,1833,351,0,0
616,673,0,0,0,0,0,0,0,0,0,-1,1840,351,0,0
623,673,0,0,0,0,0,0,0,0,0,-1,1847,351,0,0
630,673,0,0,0,0,0,0,0,0,0,-1,1854,351,0,0
637,673,0,0,0,0,0,0,0,0,0,-1,1861,351,0,0
644,673,0,0,0,0,0,0,0,0,0,-1,1868,351,0,0
651,673,0,0,0,0,0,0,0,0,0,-1,1875,351,0,0
658,673,0,0,0,0,0,0,0,0,0,-1,1882,351,0,0
665,673,0,0,0,0,0,0,0,0,0,-1,1889,351,0,0
672,673,0,0,0,0,0,0,0,0,0,-1,1896,351,0,0
679,673,0,0,0,0,0,0,0,0,0,-1,1903,351,0,0
686,673,0,0,0,0,0,0,0,0,0,-1,1910,351,0,0
693,673,0,0,0,0,0,0,0,0,0,-1,1917,351,0,0
700,673,0,0,0,0,0,0,0,0,0,-1,1924,351,0,0
707,673,0,0,0,0,0,0,0,0,0,-1,1931,351,0,0
714,673,0,0,0,0,0,0,0,0,0,-1,1938,351,0,0
721,673,0,0,0,0,0,0,0,0,0,-1,1945,351,0,0
728,673,0,0,0,0,0,0,0,0,0,-1,1952,351,0,0
735,673,0,0,0,0,0,0,0,0,0,-1,1959,351,0,0
742,673,0,0,0,0,0,0,0,0,0,-1,1966,351,0,0
749,673,0,0,0,0,0,0,0,0,0,-1,1973,351,0,0
756,673,0,0,0,0,0,0,0,0,0,-1,1980,351,0,0
763,673,0,0,0,0,0,0,0,0,0,-1,1987,351,0,0
770,673,0,0,0,0,0,0,0,0,0,-1,1994,351,0,0
777,673,0,0,0,0,0,0,0,0,0,-1,2001,351,0,0
784,673,0,0,0,0,0,0,0,0,0,-1,2008,351,0,0
791,673,0,0,0,0,0,0,0,0,0,-1,2015,351,0,0
798,673,0,0,0,0,0,0,0,0,0,-1,2022,351,0,0
805,673,0,0,0,0,0,0,0,0,0,-1,2029,351,0,0
812,673,0,0,0,0,0,0,0,0,0,-1,2036,351,0,0
-700,666,0,0,0,0,0,0,0,0,0,-1,524,358,0,0
-693,666,0,0,0,0,0,0,0,0,0,-1,531,358,0,0
-686,666,0,0,0,0,0,0,0,0,0,-1,538,358,0,0
-679,666,0,0,0,0,0,0,0,0,0,-1,545,358,0,0
-672,666,0,0,0,0,0,0,0,0,0,-1,552,358,0,0
-665,666,0,0,0,0,0,0,0,0,0,-1,559,358,0,0
-658,666,0,0,0,0,0,0,0,0,0,-1,566,358,0,0
-651,666,0,0,0,0,0,0,0,0,0,-1,573,358,0,0
-644,666,0,0,0,0,0,0,0,0,0,-1,580,358,0,0
-637,666,0,0,0,0,0,0,0,0,0,-1,587,358,0,0
-630,666,0,0,0,0,0,0,0,0,0,-1,594,358,0,0
-623,666,0,0,0,0,0,0,0,0,0,-1,601,358,0,0
-616,666,0,0,0,0,0,0,0,0,0,-1,608,358,0,0
-609,666,0,0,0,0,0,0,0,0,0,-1,615,358,0,0
-602,666,0,0,0,0,0,0,0,0,0,-1,622,358,0,0
-595,666,0,0,0,0,0,0,0,0,0,-1,629,358,0,0
-588,666,0,0,0,0,0,0,0,0,0,-1,636,358,0,0
-581,666,0,0,0,0,0,0,0,0,0,-1,643,358,0,0
-574,666,0,0,0,0,0,0,0,0,0,-1,650,358,0,0
-567,666,0,0,0,0,0,0,0,0,0,-1,657,358,0,0
-560,666,0,0,0,0,0,0,0,0,0,-1,664,358,0,0
-553,666,0,0,0,0,0,0,0,0,0,-1,671,358,0,0
-546,666,0,0,0,0,0,0,0,0,0,-1,678,358,0,0
-539,666,0,0,0,0,0,0,0,0,0,-1,685,358,0,0
-532,666,0,0,0,0,0,0,0,0,0,-1,692,358,0,0
-525,666,0,0,0,0,0,0,0,0,0,-1,699,358,0,0
-518,666,0,0,0,0,0,0,0,0,0,-1,706,358,0,0
-511,666,0,0,0,0,0,0,0,0,0,-1,713,358,0,0
-504,666,0,0,0,0,0,0,0,0,0,-1,720,358,0,0
-497,666,0,0,0,0,0,0,0,0,0,-1,727,358,0,0
-490,666,0,0,0,0,0,0,0,0,0,-1,734,358,0,0
-483,666,0,0,0,0,0,0,0,0,0,-1,741,358,0,0
-476,666,0,0,0,0,0,0,0,0,0,-1,748,358,0,0
-469,666,0,0,0,0,0,0,0,0,0,-1,755,358,0,0
-462,666,0,0,0,0,0,0,0,0,0,-1,762,358,0,0
-455,666,0,0,0,0,0,0,0,0,0,-1,769,358,0,0
-448,666,0,0,0,0,0,0,0,0,0,-1,776,358,0,0
-441,666,0,0,0,0,0,0,0,0,0,-1,783,358,0,0
-434,666,0,0,0,0,0,0,0,0,0,-1,790,358,0,0
-427,666,0,0,0,0,0,0,0,0,0,-1,797,358,0,0
-420,666,0,0,0,0,0,0,0,0,0,-1,804,358,0,0
-413,666,0,0,0,0,0,0,0,0,0,-1,811,358,0,0
-406,666,0,0,0,0,0,0,0,0,0,-1,818,358,0,0
-399,666,0,0,0,0,0,0,0,0,0,-1,825,358,0,0
-392,666,0,0,0,0,0,0,0,0,0,-1,832,358,0,0
-385,666,0,0,0,0,0,0,0,0,0,-1,839,358,0,0
-378,666,0,0,0,0,0,0,0,0,0,-1,846,358,0,0
-371,666,0,0,0,0,0,0,0,0,0,-1,853,358,0,0
-364,666,0,0,0,0,0,0,0,0,0,-1,860,358,0,0
-357,666,0,0,0,0,0,0,0,0,0,-1,867,358,0,0
-350,666,0,0,0,0,0,0,0,0,0,-1,874,358,0,0
-343,666,0,0,0,0,0,0,0,0,0,-1,881,358,0,0
-336,666,0,0,0,0,0,0,0,0,0,-1,888,358,0,0
-329,666,0,0,0,0,0,0,0,0,0,-1,895,358,0,0
-322,666,0,0,0,0,0,0,0,0,0,-1,902,358,0,0
-315,666,0,0,0,0,0,0,0,0,0,-1,909,358,0,0
-308,666,0,0,0,0,0,0,0,0,0,-1,916,358,0,0
-301,666,0,0,0,0,0,0,0,0,0,-1,923,358,0,0
-294,666,0,0,0,0,0,0,0,0,0,-1,930,358,0,0
-287,666,0,0,0,0,0,0,0,0,0,-1,937,358,0,0
-280,666,0,0,0,0,0,0,0,0,0,-1,944,358,0,0
-273,666,0,0,0,0,0,0,0,0,0,-1,951,358,0,0
-266,666,0,0,0,0,0,0,0,0,0,-1,958,358,0,0
-259,666,0,0,0,0,0,0,0,0,0,-1,965,358,0,0
-252,666,0,0,0,0,0,0,0,0,0,-1,972,358,0,0
-245,666,0,0,0,0,0,0,0,0,0,-1,979,358,0,0
-238,666,0,0,0,0,0,0,0,0,0,-1,986,358,0,0
-231,666,0,0,0,0,0,0,0,0,0,-1,993,358,0,0
-224,666,0,0,0,0,0,0,0,0,0,-1,1000,358,0,0
-217,666,0,0,0,0,0,0,0,0,0,-1,1007,358,0,0
-210,666,0,0,0,0,0,0,0,0,0,-1,1014,358,0,0
-203,666,0,0,0,0,0,0,0,0,0,-1,1021,358,0,0
-196,666,1.68958,-9.41406,0,0,0,0,0,0,0,-1,1028,358,1.68961,9.41406
-189,666,5.26538,-13.977,0,0,0,0,0,0,0,-1,1035,358,5.26541,13.977
-182,666,6.17688,-12.7998,0,0,0,0,0,0,0,-1,1042,358,6.17688,12.7998
-175,666,1.07922,-14.7207,0,0,0,0,0,0,0,-1,1049,358,1.07921,14.7207
-168,666,1.52307,-14.8425,0,0,0,0,0,0,0,-1,1056,358,1.52308,14.8425
-161,666,2.2666,-15.1104,0,0,0,0,0,0,0,-1,1063,358,2.26666,15.1104
-154,666,3.35693,-15.1993,0,0,0,0,0,0,0,-1,1070,358,3.35698,15.1993
-147,666,3.96851,-15.5034,0,0,0,0,0,0,0,-1,1077,358,3.96852,15.5035
-140,666,4.33569,-14.0707,0,0,0,0,0,0,0,-1,1084,358,4.33569,14.0707
-133,666,0.986816,-12.2714,0,0,0,0,0,0,0,-1,1091,358,0.986811,12.2714
-126,666,1.40588,-12.2571,0,0,0,0,0,0,0,-1,1098,358,1.40589,12.2571
-119,666,3.24585,-13.2549,0,0,0,0,0,0,0,-1,1105,358,3.24591,13.2549
-112,666,3.302,-13.5647,0,0,0,0,0,0,0,-1,1112,358,3.30196,13.5647
-105,666,2.56433,-14.0251,0.0169323,0.0180028,-0.00700328,0.0244912,0.0104438,-0.823537,0.014191,0.0426046,1119,358,2.56434,14.0251
-98,666,2.47583,-13.6792,0.0126274,0.0171602,-0.00357771,0.019129,0.0106587,-1.06773,0.0110682,0.0438602,1126,358,2.47581,13.6792
-91,666,2.48938,-13.3576,0.00945159,0.016263,-0.000865472,0.0163713,0.00934334,-1.44637,0.00948343,0.043369,1133,358,2.48934,13.3576
-84,666,2.56812,-12.9501,0,0,0,0,0,0,0,-1,1140,358,2.56813,12.9501
-77,666,0.964722,-10.3601,0,0,0,0,0,0,0,-1,1147,358,0.964669,10.3601
-70,666,2.05957,-6.51086,0,0,0,0,0,0,0,-1,1154,358,2.05959,6.51088
-63,666,1.47485,-3.79593,0,0,0,0,0,0,0,-1,1161,358,1.47481,3.79593
-56,666,0.424683,-2.04132,0,0,0,0,0,0,0,-1,1168,358,0.424665,2.04132
-49,666,0.754395,-2.23169,0,0,0,0,0,0,0,-1,1175,358,0.754383,2.23169
-42,666,1.34473,-3.53897,0,0,0,0,0,0,0,-1,1182,358,1.34476,3.53896
-35,666,2.50293,-14.894,0,0,0,0,0,0,0,-1,1189,358,2.50292,14.894
-28,666,2.72644,-14.7867,0,0,0,0,0,0,0,-1,1196,358,2.72648,14.7867
-21,666,2.71472,-14.6844,-0.00113701,-0.00470912,0.0010157,-0.0008684,-0.00497773,0.258536,0.00307023,0.0338405,1203,358,2.71466,14.6844
-14,666,2.70837,-14.7222,-0.00197852,-0.00521805,0.00170257,-0.00124831,-0.00594826,0.405159,0.00362183,0.024238,1210,358,2.70843,14.7222
-7,666,2.72217,-14.7488,-0.0026688,-0.00512427,0.00218242,-0.00139247,-0.00640059,0.529182,0.00388695,0.017165,1217,358,2.72216,14.7488
0,666,2.75549,-14.7682,-0.00327786,-0.00499331,0.00251456,-0.00147876,-0.00679241,0.621035,0.00412468,0.0120234,1224,358,2.75551,14.7682
7,666,2.72583,-14.8235,-0.0035592,-0.00440107,0.00271072,-0.00123692,-0.00672334,0.708371,0.0041321,0.0149765,1231,358,2.7258,14.8235
14,666,2.69727,-14.8394,-0.00394055,-0.0027072,0.00332399,5.68349e-05,-0.00670458,0.877116,0.00448879,0.0145734,1238,358,2.6973,14.8394
21,666,2.68176,-14.8474,-0.00440611,-0.000567903,0.00385947,0.00182327,-0.00679728,1.01612,0.00524597,0.010835,1245,358,2.68182,14.8474
28,666,2.65308,-14.8617,-0.00451886,0.0016393,0.00428937,0.00384031,-0.00671988,1.0967,0.00617202,0.0112559,1252,358,2.65303,14.8617
35,666,2.64722,-14.8506,-0.00412176,0.00396693,0.00500851,0.00636013,-0.00651496,1.12505,0.00743361,0.0104378,1259,358,2.6472,14.8506
42,666,2.62646,-14.8648,-0.00365048,0.00706683,0.0057497,0.00956783,-0.00615148,1.1605,0.00914672,0.0115,1266,358,2.62652,14.8648
49,666,2.61096,-14.8707,-0.00348913,0.0101329,0.00630323,0.012602,-0.00595823,1.19745,0.0109422,0.0104053,1273,358,2.61092,14.8707
56,666,2.60193,-14.8613,-0.00312855,0.013041,0.00686119,0.01556,-0.00564753,1.21894,0.0126822,0.0119261,1280,358,2.60195,14.8613
63,666,2.57947,-14.8743,-0.00271259,0.0155191,0.00736308,0.0181213,-0.00531484,1.23108,0.0141883,0.0131874,1287,358,2.57943,14.8743
70,666,2.55481,-14.8504,-0.00242842,0.017845,0.00781122,0.0205055,-0.0050889,1.24252,0.015645,0.0127535,1294,358,2.55482,14.8504
77,666,2.55725,-14.8148,-0.00215811,0.0194893,0.00808162,0.0221736,-0.00484237,1.25012,0.0166332,0.0156831,1301,358,2.5573,14.8148
84,666,2.54736,-14.8356,-0.00189893,0.0200755,0.00802148,0.0226921,-0.0045155,1.25548,0.0168363,0.0217704,1308,358,2.54735,14.8356
91,666,2.50952,-14.8256,-0.00181114,0.0205415,0.00792819,0.023068,-0.00433761,1.2623,0.0170099,0.0199688,1315,358,2.50947,14.8256
98,666,2.44727,-14.7839,-0.00182355,0.0202438,0.00783636,0.0227435,-0.00432318,1.26202,0.0167899,0.0172543,1322,358,2.44724,14.7839
105,666,2.39941,-14.6992,-0.00191793,0.0195095,0.00752929,0.0218906,-0.00429902,1.26451,0.0162178,0.0199312,1329,358,2.39946,14.6992
112,666,2.396,-14.6535,-0.00204836,0.0181654,0.00714364,0.0204351,-0.00431809,1.26316,0.0152677,0.0227535,1336,358,2.39599,14.6535
119,666,2.41125,-14.6076,-0.00188059,0.0164435,0.00646657,0.0184957,-0.0039328,1.26349,0.0138291,0.0222606,1343,358,2.41126,14.6076
126,666,2.39612,-14.5188,-0.00148886,0.0144645,0.00591108,0.016416,-0.00344034,1.25192,0.0122529,0.0234665,1350,358,2.39616,14.5188
133,666,2.40723,-14.4638,-0.00145077,0.0125764,0.00554172,0.0145016,-0.00337592,1.23645,0.0109676,0.0224809,1357,358,2.40719,14.4638
140,666,2.34473,-14.4492,-0.00172238,0.0110973,0.00499362,0.0128129,-0.00343795,1.23988,0.00988916,0.022355,1364,358,2.34467,14.4492
147,666,2.29443,-14.3541,-0.00166413,0.00870258,0.00460702,0.010454,-0.0034156,1.2075,0.00834426,0.0202505,1371,358,2.29443,14.3541
154,666,2.30115,-14.2718,-0.000668587,0.00719857,0.00491761,0.00956229,-0.00303231,1.12274,0.00759029,0.017758,1378,358,2.30114,14.2718
161,666,2.3407,-14.2203,-0.000220335,0.0055511,0.00509874,0.0085241,-0.00319333,1.04291,0.00699453,0.0253147,1385,358,2.34069,14.2203
168,666,2.36438,-14.1631,0,0,0,0,0,0,0,-1,1392,358,2.36434,14.1631
175,666,2.53931,-14.3424,0,0,0,0,0,0,0,-1,1399,358,2.53926,14.3424
182,666,2.60876,-5.17068,0,0,0,0,0,0,0,-1,1406,358,2.6088,5.17068
189,666,2.46973,-5.49979,0,0,0,0,0,0,0,-1,1413,358,2.46975,5.49979
196,666,2.32458,-5.23651,0,0,0,0,0,0,0,-1,1420,358,2.32461,5.23653
203,666,2.28064,-3.88004,0,0,0,0,0,0,0,-1,1427,358,2.28059,3.88003
210,666,3.02576,-5.83548,0,0,0,0,0,0,0,-1,1434,358,3.02581,5.83547
217,666,2.30444,-5.36011,0,0,0,0,0,0,0,-1,1441,358,2.30447,5.3601
224,666,1.82324,-6.03101,0,0,0,0,0,0,0,-1,1448,358,1.82322,6.031
231,666,2.29797,-10.1093,0,0,0,0,0,0,0,-1,1455,358,2.29801,10.1093
238,666,2.52429,-6.10568,0,0,0,0,0,0,0,-1,1462,358,2.52423,6.10567
245,666,4.53345,-1.38205,0,0,0,0,0,0,0,-1,1469,358,4.53349,1.38204
252,666,4.77405,-0.246979,0,0,0,0,0,0,0,-1,1476,358,4.77405,0.246993
259,666,4.83655,1.14087,0,0,0,0,0,0,0,-1,1483,358,4.83652,-1.14087
266,666,6.14148,0.749512,0,0,0,0,0,0,0,-1,1490,358,6.14144,-0.749519
273,666,2.61304,-1.53772,0,0,0,0,0,0,0,-1,1497,358,2.613,1.53773
280,666,8.70898,-0.836975,0,0,0,0,0,0,0,-1,1504,358,8.70894,0.836988
287,666,2.27039,-4.09058,0,0,0,0,0,0,0,-1,1511,358,2.27042,4.09059
294,666,1.43115,-13.1906,0,0,0,0,0,0,0,-1,1518,358,1.4311,13.1906
301,666,1.97839,-12.681,0,0,0,0,0,0,0,-1,1525,358,1.97839,12.681
308,666,1.08496,-1.87576,0,0,0,0,0,0,0,-1,1532,358,1.08491,1.87575
315,666,1.76294,-0.284027,0,0,0,0,0,0,0,-1,1539,358,1.76291,0.284016
322,666,0,0,0,0,0,0,0,0,0,-1,1546,358,0,0
329,666,0,0,0,0,0,0,0,0,0,-1,1553,358,0,0
336,666,0,0,0,0,0,0,0,0,0,-1,1560,358,0,0
343,666,0,0,0,0,0,0,0,0,0,-1,1567,358,0,0
350,666,0,0,0,0,0,0,0,0,0,-1,1574,358,0,0
357,666,0,0,0,0,0,0,0,0,0,-1,1581,358,0,0
364,666,0,0,0,0,0,0,0,0,0,-1,1588,358,0,0
371,666,0,0,0,0,0,0,0,0,0,-1,1595,358,0,0
378,666,0,0,0,0,0,0,0,0,0,-1,1602,358,0,0
385,666,0,0,0,0,0,0,0,0,0,-1,1609,358,0,0
392,666,0,0,0,0,0,0,0,0,0,-1,1616,358,0,0
399,666,0,0,0,0,0,0,0,0,0,-1,1623,358,0,0
406,666,0,0,0,0,0,0,0,0,0,-1,1630,358,0,0
413,666,0,0,0,0,0,0,0,0,0,-1,1637,358,0,0
420,666,0,0,0,0,0,0,0,0,0,-1,1644,358,0,0
427,666,0,0,0,0,0,0,0,0,0,-1,1651,358,0,0
434,666,0,0,0,0,0,0,0,0,0,-1,1658,358,0,0
441,666,0,0,0,0,0,0,0,0,0,-1,1665,358,0,0
448,666,0,0,0,0,0,0,0,0,0,-1,1672,358,0,0
455,666,0,0,0,0,0,0,0,0,0,-1,1679,358,0,0
462,666,0,0,0,0,0,0,0,0,0,-1,1686,358,0,0
469,666,0,0,0,0,0,0,0,0,0,-1,1693,358,0,0
476,666,0,0,0,0,0,0,0,0,0,-1,1700,358,0,0
483,666,0,0,0,0,0,0,0,0,0,-1,1707,358,0,0
490,666,0,0,0,0,0,0,0,0,0,-1,1714,358,0,0
497,666,0,0,0,0,0,0,0,0,0,-1,1721,358,0,0
504,666,0,0,0,0,0,0,0,0,0,-1,1728,358,0,0
511,666,0,0,0,0,0,0,0,0,0,-1,1735,358,0,0
518,666,0,0,0,0,0,0,0,0,0,-1,1742,358,0,0
525,666,0,0,0,0,0,0,0,0,0,-1,1749,358,0,0
532,666,0,0,0,0,0,0,0,0,0,-1,1756,358,0,0
539,666,0,0,0,0,0,0,0,0,0,-1,1763,358,0,0
546,666,0,0,0,0,0,0,0,0,0,-1,1770,358,0,0
553,666,0,0,0,0,0,0,0,0,0,-1,1777,358,0,0
560,666,0,0,0,0,0,0,0,0,0,-1,1784,358,0,0
567,666,0,0,0,0,0,0,0,0,0,-1,1791,358,0,0
574,666,0,0,0,0,0,0,0,0,0,-1,1798,358,0,0
581,666,0,0,0,0,0,0,0,0,0,-1,1805,358,0,0
588,666,0,0,0,0,0,0,0,0,0,-1,1812,358,0,0
595,666,0,0,0,0,0,0,0,0,0,-1,1819,358,0,0
602,666,0,0,0,0,0,0,0,0,0,-1,1826,358,0,0
609,666,0,0,0,0,0,0,0,0,0,-1,1833,358,0,0
616,666,0,0,0,0,0,0,0,0,0,-1,1840,358,0,0
623,666,0,0,0,0,0,0,0,0,0,-1,1847,358,0,0
630,666,0,0,0,0,0,0,0,0,0,-1,1854,358,0,0
637,666,0,0,0,0,0,0,0,0,0,-1,1861,358,0,0
644,666,0,0,0,0,0,0,0,0,0,-1,1868,358,0,0
651,666,0,0,0,0,0,0,0,0,0,-1,1875,358,0,0
658,666,0,0,0,0,0,0,0,0,0,-1,1882,358,0,0
665,666,0,0,0,0,0,0,0,0,0,-1,1889,358,0,0
672,666,0,0,0,0,0,0,0,0,0,-1,1896,358,0,0
679,666,0,0,0,0,0,0,0,0,0,-1,1903,358,0,0
686,666,0,0,0,0,0,0,0,0,0,-1,1910,358,0,0
693,666,0,0,0,0,0,0,0,0,0,-1,1917,358,0,0
700,666,0,0,0,0,0,0,0,0,0,-1,1924,358,0,0
707,666,0,0,0,0,0,0,0,0,0,-1,1931,358,0,0
714,666,0,0,0,0,0,0,0,0,0,-1,1938,358,0,0
721,666,0,0,0,0,0,0,0,0,0,-1,1945,358,0,0
728,666,0,0,0,0,0,0,0,0,0,-1,1952,358,0,0
735,666,0,0,0,0,0,0,0,0,0,-1,1959,358,0,0
742,666,0,0,0,0,0,0,0,0,0,-1,1966,358,0,0
749,666,0,0,0,0,0,0,0,0,0,-1,1973,358,0,0
756,666,0,0,0,0,0,0,0,0,0,-1,1980,358,0,0
763,666,0,0,0,0,0,0,0,0,0,-1,1987,358,0,0
770,666,0,0,0,0,0,0,0,0,0,-1,1994,358,0,0
777,666,0,0,0,0,0,0,0,0,0,-1,2001,358,0,0
784,666,0,0,0,0,0,0,0,0,0,-1,2008,358,0,0
791,666,0,0,0,0,0,0,0,0,0,-1,2015,358,0,0
798,666,0,0,0,0,0,0,0,0,0,-1,2022,358,0,0
805,666,0,0,0,0,0,0,0,0,0,-1,2029,358,0,0
812,666,0,0,0,0,0,0,0,0,0,-1,2036,358,0,0
-700,659,0,0,0,0,0,0,0,0,0,-1,524,365,0,0
-693,659,0,0,0,0,0,0,0,0,0,-1,531,365,0,0
-686,659,0,0,0,0,0,0,0,0,0,-1,538,365,0,0
-679,659,0,0,0,0,0,0,0,0,0,-1,545,365,0,0
-672,659,0,0,0,0,0,0,0,0,0,-1,552,365,0,0
-665,659,0,0,0,0,0,0,0,0,0,-1,559,365,0,0
-658,659,0,0,0,0,0,0,0,0,0,-1,566,365,0,0
-651,659,0,0,0,0,0,0,0,0,0,-1,573,365,0,0
-644,659,0,0,0,0,0,0,0,0,0,-1,580,365,0,0
-637,659,0,0,0,0,0,0,0,0,0,-1,587,365,0,0
-630,659,0,0,0,0,0,0,0,0,0,-1,594,365,0,0
-623,659,0,0,0,0,0,0,0,0,0,-1,601,365,0,0
-616,659,0,0,0,0,0,0,0,0,0,-1,608,365,0,0
-609,659,0,0,0,0,0,0,0,0,0,-1,615,365,0,0
-602,659,0,0,0,0,0,0,0,0,0,-1,622,365,0,0
-595,659,0,0,0,0,0,0,0,0,0,-1,629,365,0,0
-588,659,0,0,0,0,0,0,0,0,0,-1,636,365,0,0
-581,659,0,0,0,0,0,0,0,0,0,-1,643,365,0,0
-574,659,0,0,0,0,0,0,0,0,0,-1,650,365,0,0
-567,659,0,0,0,0,0,0,0,0,0,-1,657,365,0,0
-560,659,0,0,0,0,0,0,0,0,0,-1,664,365,0,0
-553,659,0,0,0,0,0,0,0,0,0,-1,671,365,0,0
-546,659,0,0,0,0,0,0,0,0,0,-1,678,365,0,0
-539,659,0,0,0,0,0,0,0,0,0,-1,685,365,0,0
-532,659,0,0,0,0,0,0,0,0,0,-1,692,365,0,0
-525,659,0,0,0,0,0,0,0,0,0,-1,699,365,0,0
-518,659,0,0,0,0,0,0,0,0,0,-1,706,365,0,0
-511,659,0,0,0,0,0,0,0,0,0,-1,713,365,0,0
-504,659,0,0,0,0,0,0,0,0,0,-1,720,365,0,0
-497,659,0,0,0,0,0,0,0,0,0,-1,727,365,0,0
-490,659,0,0,0,0,0,0,0,0,0,-1,734,365,0,0
-483,659,0,0,0,0,0,0,0,0,0,-1,741,365,0,0
-476,659,0,0,0,0,0,0,0,0,0,-1,748,365,0,0
-469,659,0,0,0,0,0,0,0,0,0,-1,755,365,0,0
-462,659,0,0,0,0,0,0,0,0,0,-1,762,365,0,0
-455,659,0,0,0,0,0,0,0,0,0,-1,769,365,0,0
-448,659,0,0,0,0,0,0,0,0,0,-1,776,365,0,0
-441,659,0,0,0,0,0,0,0,0,0,-1,783,365,0,0
-434,659,0,0,0,0,0,0,0,0,0,-1,790,365,0,0
-427,659,0,0,0,0,0,0,0,0,0,-1,797,365,0,0
-420,659,0,0,0,0,0,0,0,0,0,-1,804,365,0,0
-413,659,0,0,0,0,0,0,0,0,0,-1,811,365,0,0
-406,659,0,0,0,0,0,0,0,0,0,-1,818,365,0,0
-399,659,0,0,0,0,0,0,0,0,0,-1,825,365,0,0
-392,659,0,0,0,0,0,0,0,0,0,-1,832,365,0,0
-385,659,0,0,0,0,0,0,0,0,0,-1,839,365,0,0
-378,659,0,0,0,0,0,0,0,0,0,-1,846,365,0,0
-371,659,0,0,0,0,0,0,0,0,0,-1,853,365,0,0
-364,659,0,0,0,0,0,0,0,0,0,-1,860,365,0,0
-357,659,0,0,0,0,0,0,0,0,0,-1,867,365,0,0
-350,659,0,0,0,0,0,0,0,0,0,-1,874,365,0,0
-343,659,0,0,0,0,0,0,0,0,0,-1,881,365,0,0
-336,659,0,0,0,0,0,0,0,0,0,-1,888,365,0,0
-329,659,0,0,0,0,0,0,0,0,0,-1,895,365,0,0
-322,659,0,0,0,0,0,0,0,0,0,-1,902,365,0,0
-315,659,0,0,0,0,0,0,0,0,0,-1,909,365,0,0
-308,659,0,0,0,0,0,0,0,0,0,-1,916,365,0,0
-301,659,0,0,0,0,0,0,0,0,0,-1,923,365,0,0
-294,659,0,0,0,0,0,0,0,0,0,-1,930,365,0,0
-287,659,0,0,0,0,0,0,0,0,0,-1,937,365,0,0
-280,659,0,0,0,0,0,0,0,0,0,-1,944,365,0,0
-273,659,0,0,0,0,0,0,0,0,0,-1,951,365,0,0
-266,659,0,0,0,0,0,0,0,0,0,-1,958,365,0,0
-259,659,0,0,0,0,0,0,0,0,0,-1,965,365,0,0
-252,659,0,0,0,0,0,0,0,0,0,-1,972,365,0,0
-245,659,0,0,0,0,0,0,0,0,0,-1,979,365,0,0
-238,659,0,0,0,0,0,0,0,0,0,-1,986,365,0,0
-231,659,0,0,0,0,0,0,0,0,0,-1,993,365,0,0
-224,659,0,0,0,0,0,0,0,0,0,-1,1000,365,0,0
-217,659,1.57928,-8.48126,0,0,0,0,0,0,0,-1,1007,365,1.57926,8.48126
-210,659,2.00287,-9.36227,0,0,0,0,0,0,0,-1,1014,365,2.00284,9.36228
-203,659,2.23798,-10.0347,0,0,0,0,0,0,0,-1,1021,365,2.23795,10.0347
-196,659,3.26367,-12.3659,0,0,0,0,0,0,0,-1,1028,365,3.26361,12.3659
-189,659,4.08716,-12.5415,0,0,0,0,0,0,0,-1,1035,365,4.08715,12.5415
-182,659,1.23779,-13.8358,0,0,0,0,0,0,0,-1,1042,365,1.23778,13.8358
-175,659,1.42932,-13.6959,0,0,0,0,0,0,0,-1,1049,365,1.4293,13.6959
-168,659,1.83704,-13.8517,0,0,0,0,0,0,0,-1,1056,365,1.83705,13.8517
-161,659,2.33862,-14.0818,0,0,0,0,0,0,0,-1,1063,365,2.33862,14.0818
-154,659,3.05579,-14.1869,0,0,0,0,0,0,0,-1,1070,365,3.05577,14.1869
-147,659,3.72083,-14.2569,0,0,0,0,0,0,0,-1,1077,365,3.72077,14.2569
-140,659,1.20837,-12.9063,0,0,0,0,0,0,0,-1,1084,365,1.20831,12.9063
-133,659,1.62708,-12.7015,0.022539,0.0113711,-0.0164002,0.0342798,-0.000369735,-0.621312,0.0229775,0.0428042,1091,365,1.62712,12.7016
-126,659,2.09277,-12.7809,0.0208096,0.0129172,-0.0143317,0.0317285,0.00199834,-0.651054,0.0205187,0.0396774,1098,365,2.09277,12.7809
-119,659,3.05237,-13.3588,0.018282,0.0136855,-0.0118374,0.0280422,0.00392529,-0.689516,0.0175334,0.0436363,1105,365,3.05232,13.3588
-112,659,3.11523,-13.5998,0.0158559,0.0144662,-0.00954694,0.0247332,0.00558884,-0.749072,0.0149776,0.0396374,1112,365,3.11521,13.5998
-105,659,3.02722,-13.5894,0.0124793,0.0143532,-0.00672546,0.0202067,0.00662583,-0.854612,0.0118944,0.0403219,1119,365,3.02724,13.5894
-98,659,2.72449,-13.7293,0.00922978,0.0137366,-0.00426701,0.0163087,0.00665771,-1.02833,0.00946853,0.0398224,1126,365,2.72448,13.7294
-91,659,2.77368,-13.7823,0.00674635,0.0130175,-0.00229113,0.0137654,0.00599849,-1.25528,0.00796927,0.0416505,1133,365,2.77362,13.7824
-84,659,2.86206,-13.7545,0,0,0,0,0,0,0,-1,1140,365,2.862,13.7546
-77,659,2.77979,-13.557,0,0,0,0,0,0,0,-1,1147,365,2.77985,13.557
-70,659,2.9353,-12.7028,0,0,0,0,0,0,0,-1,1154,365,2.93533,12.7028
-63,659,2.11267,-9.7796,0,0,0,0,0,0,0,-1,1161,365,2.11266,9.7796
-56,659,2.11182,-9.91541,0,0,0,0,0,0,0,-1,1168,365,2.11178,9.91541
-49,659,2.77966,-14.4389,0,0,0,0,0,0,0,-1,1175,365,2.77965,14.4389
-42,659,2.77795,-14.5542,0,0,0,0,0,0,0,-1,1182,365,2.77799,14.5542
-35,659,2.71167,-14.7181,-0.000460702,-0.00174552,-0.000238965,-0.000417696,-0.00178852,-0.178062,0.00108038,0.0445936,1189,365,2.71173,14.7181
-28,659,2.75781,-14.7029,-0.000559387,-0.00328417,-0.000185464,-0.000546822,-0.00329673,-0.0676497,0.00204012,0.0169651,1196,365,2.75778,14.7029
-21,659,2.73608,-14.7179,-0.000953703,-0.00301126,0.000551517,-0.000815196,-0.00314977,0.24605,0.00188773,0.0112388,1203,365,2.7361,14.7179
-14,659,2.72021,-14.7617,-0.0014564,-0.00344465,0.0010268,-0.00102133,-0.00387972,0.400782,0.00232215,0.00854046,1210,365,2.72026,14.7617
-7,659,2.71777,-14.7925,-0.00188587,-0.00347558,0.00136097,-0.00110464,-0.00425681,0.521099,0.00255068,0.00869964,1217,365,2.71775,14.7925
0,659,2.70471,-14.8063,-0.00226375,-0.00345653,0.00159129,-0.00116077,-0.00455951,0.606107,0.0027361,0.00802857,1224,365,2.70473,14.8063
7,659,2.68481,-14.8323,-0.00242254,-0.00307933,0.00171486,-0.00100492,-0.00449696,0.690793,0.00272547,0.0074595,1231,365,2.68476,14.8323
14,659,2.68103,-14.8509,-0.00263162,-0.00206314,0.00210395,-0.000224319,-0.00447044,0.852541,0.00290841,0.00971856,1238,365,2.68108,14.8509
21,659,2.66638,-14.8628,-0.00292897,-0.000655468,0.00245669,0.000914718,-0.00449916,1.00209,0.00334628,0.0104699,1245,365,2.66633,14.8628
28,659,2.65112,-14.8759,-0.00297531,0.000861821,0.00275901,0.00230377,-0.00441725,1.08921,0.00394382,0.0102781,1252,365,2.65111,14.8759
35,659,2.62207,-14.8799,-0.00265265,0.00248946,0.0032759,0.00408276,-0.00424595,1.11811,0.00480889,0.0106565,1259,365,2.6221,14.8799
42,659,2.60376,-14.8936,-0.00227347,0.00470849,0.00380122,0.00637854,-0.00394352,1.15684,0.00601446,0.0114081,1266,365,2.60377,14.8936
49,659,2.5979,-14.9043,-0.00213373,0.00688676,0.00420149,0.00854051,-0.00378748,1.19581,0.00729177,0.0117812,1273,365,2.59792,14.9043
56,659,2.58643,-14.8922,-0.00185436,0.00898314,0.00460159,0.0106734,-0.00354458,1.21878,0.00854576,0.0151593,1280,365,2.58642,14.8922
63,659,2.58582,-14.9069,-0.0015297,0.0107539,0.00495814,0.0125054,-0.00328124,1.23121,0.00961909,0.0158002,1287,365,2.58587,14.9069
70,659,2.56458,-14.8947,-0.00130947,0.0124383,0.00527943,0.0142318,-0.00310291,1.24332,0.0106736,0.0162492,1294,365,2.56452,14.8947
77,659,2.52502,-14.87,-0.00109965,0.0136277,0.00547246,0.0154385,-0.00291048,1.25124,0.0113872,0.0164033,1301,365,2.52501,14.87
84,659,2.53406,-14.8415,-0.000905075,0.0140436,0.00542844,0.0158069,-0.00266836,1.25672,0.0115308,0.0117593,1308,365,2.53407,14.8415
91,659,2.51379,-14.816,-0.000865256,0.0143241,0.00535259,0.0160208,-0.00256193,1.26383,0.011629,0.0101864,1315,365,2.51384,14.816
98,659,2.49097,-14.7799,-0.000920391,0.0140687,0.00529891,0.0157527,-0.00260444,1.26308,0.011469,0.00749979,1322,365,2.49093,14.7799
105,659,2.46936,-14.7353,-0.00103551,0.0134588,0.00507916,0.0150615,-0.00263816,1.26515,0.0110261,0.00908177,1329,365,2.46942,14.7353
112,659,2.47266,-14.6827,-0.0011739,0.0124313,0.00481923,0.0139654,-0.00270799,1.26261,0.0103319,0.0103834,1336,365,2.4727,14.6827
119,659,2.48315,-14.6395,-0.00113058,0.0111382,0.00435371,0.0125262,-0.00251852,1.26219,0.0093046,0.0108496,1343,365,2.48318,14.6395
126,659,2.46533,-14.5808,-0.000934324,0.00969397,0.0039867,0.0110232,-0.00226351,1.24898,0.00820798,0.0121302,1350,365,2.46534,14.5808
133,659,2.43494,-14.5337,-0.000967509,0.00838562,0.00373921,0.0096967,-0.0022786,1.23356,0.00734281,0.0114443,1357,365,2.435,14.5337
140,659,2.40039,-14.4715,-0.00119802,0.00733723,0.00341022,0.00853241,-0.0023932,1.2337,0.00663154,0.00966776,1364,365,2.40041,14.4715
147,659,2.38391,-14.394,-0.00121475,0.00578186,0.00321163,0.00703252,-0.00246542,1.19945,0.00569104,0.00827417,1371,365,2.38391,14.394
154,659,2.37769,-14.3176,-0.000664599,0.00489426,0.00337071,0.00648369,-0.00225403,1.13017,0.00523804,0.00874624,1378,365,2.3777,14.3176
161,659,2.38184,-14.2493,-0.000423478,0.00374869,0.00348214,0.0057218,-0.00239658,1.05527,0.00481642,0.0106613,1385,365,2.38184,14.2493
168,659,2.39844,-14.1929,-0.000389142,0.00325281,0.00376223,0.00561159,-0.00274791,1.01079,0.00491985,0.0183626,1392,365,2.39838,14.1929
175,659,2.40491,-14.1493,-0.000447585,0.00292504,0.00401417,0.00559272,-0.00311526,0.98425,0.00509493,0.0421652,1399,365,2.40497,14.1493
182,659,2.28503,-14.0259,0,0,0,0,0,0,0,-1,1406,365,2.28505,14.026
189,659,2.32593,-13.8844,0,0,0,0,0,0,0,-1,1413,365,2.32599,13.8844
196,659,2.41248,-13.4371,0,0,0,0,0,0,0,-1,1420,365,2.41243,13.4371
203,659,2.38623,-12.2163,0,0,0,0,0,0,0,-1,1427,365,2.38617,12.2163
210,659,2.25391,-13.7903,0,0,0,0,0,0,0,-1,1434,365,2.25387,13.7903
217,659,2.37915,-13.0261,0,0,0,0,0,0,0,-1,1441,365,2.3791,13.0261
224,659,2.25708,-13.1362,0,0,0,0,0,0,0,-1,1448,365,2.25712,13.1362
231,659,2.04126,-13.218,0,0,0,0,0,0,0,-1,1455,365,2.04124,13.218
238,659,2.59961,-13.3725,0,0,0,0,0,0,0,-1,1462,365,2.59956,13.3725
245,659,2.28491,-13.4679,0,0,0,0,0,0,0,-1,1469,365,2.28485,13.4679
252,659,1.58765,-13.8208,0,0,0,0,0,0,0,-1,1476,365,1.58765,13.8208
259,659,2.33069,-3.36703,0,0,0,0,0,0,0,-1,1483,365,2.33073,3.36702
266,659,0.630615,-12.3553,0,0,0,0,0,0,0,-1,1490,365,0.630655,12.3553
273,659,0.71582,-12.612,0,0,0,0,0,0,0,-1,1497,365,0.715812,12.612
280,659,1.70947,-9.4129,0,0,0,0,0,0,0,-1,1504,365,1.70952,9.4129
287,659,2.91333,-12.2255,0,0,0,0,0,0,0,-1,1511,365,2.91333,12.2255
294,659,2.5675,-12.4287,0,0,0,0,0,0,0,-1,1518,365,2.56749,12.4288
301,659,1.93909,-12.4453,0,0,0,0,0,0,0,-1,1525,365,1.93911,12.4453
308,659,2.10779,-11.4669,0,0,0,0,0,0,0,-1,1532,365,2.10773,11.4669
315,659,2.02905,-3.83633,0,0,0,0,0,0,0,-1,1539,365,2.0291,3.83632
322,659,0.382813,-2.2424,0,0,0,0,0,0,0,-1,1546,365,0.382801,2.2424
329,659,0.604004,-1.75998,0,0,0,0,0,0,0,-1,1553,365,0.603966,1.75998
336,659,2.09851,-1.17941,0,0,0,0,0,0,0,-1,1560,365,2.09857,1.17942
343,659,0,0,0,0,0,0,0,0,0,-1,1567,365,0,0
350,659,0,0,0,0,0,0,0,0,0,-1,1574,365,0,0
357,659,0,0,0,0,0,0,0,0,0,-1,1581,365,0,0
364,659,0,0,0,0,0,0,0,0,0,-1,1588,365,0,0
371,659,0,0,0,0,0,0,0,0,0,-1,1595,365,0,0
378,659,0,0,0,0,0,0,0,0,0,-1,1602,365,0,0
385,659,0,0,0,0,0,0,0,0,0,-1,1609,365,0,0
392,659,0,0,0,0,0,0,0,0,0,-1,1616,365,0,0
399,659,0,0,0,0,0,0,0,0,0,-1,1623,365,0,0
406,659,0,0,0,0,0,0,0,0,0,-1,1630,365,0,0
413,659,0,0,0,0,0,0,0,0,0,-1,1637,365,0,0
420,659,0,0,0,0,0,0,0,0,0,-1,1644,365,0,0
427,659,0,0,0,0,0,0,0,0,0,-1,1651,365,0,0
434,659,0,0,0,0,0,0,0,0,0,-1,1658,365,0,0
441,659,0,0,0,0,0,0,0,0,0,-1,1665,365,0,0
448,659,0,0,0,0,0,0,0,0,0,-1,1672,365,0,0
455,659,0,0,0,0,0,0,0,0,0,-1,1679,365,0,0
462,659,0,0,0,0,0,0,0,0,0,-1,1686,365,0,0
469,659,0,0,0,0,0,0,0,0,0,-1,1693,365,0,0
476,659,0,0,0,0,0,0,0,0,0,-1,1700,365,0,0
483,659,0,0,0,0,0,0,0,0,0,-1,1707,365,0,0
490,659,0,0,0,0,0,0,0,0,0,-1,1714,365,0,0
497,659,0,0,0,0,0,0,0,0,0,-1,1721,365,0,0
504,659,0,0,0,0,0,0,0,0,0,-1,1728,365,0,0
511,659,0,0,0,0,0,0,0,0,0,-1,1735,365,0,0
518,659,0,0,0,0,0,0,0,0,0,-1,1742,365,0,0
525,659,0,0,0,0,0,0,0,0,0,-1,1749,365,0,0
532,659,0,0,0,0,0,0,0,0,0,-1,1756,365,0,0
539,659,0,0,0,0,0,0,0,0,0,-1,1763,365,0,0
546,659,0,0,0,0,0,0,0,0,0,-1,1770,365,0,0
553,659,0,0,0,0,0,0,0,0,0,-1,1777,365,0,0
560,659,0,0,0,0,0,0,0,0,0,-1,1784,365,0,0
567,659,0,0,0,0,0,0,0,0,0,-1,1791,365,0,0
574,659,0,0,0,0,0,0,0,0,0,-1,1798,365,0,0
581,659,0,0,0,0,0,0,0,0,0,-1,1805,365,0,0
588,659,0,0,0,0,0,0,0,0,0,-1,1812,365,0,0
595,659,0,0,0,0,0,0,0,0,0,-1,1819,365,0,0
602,659,0,0,0,0,0,0,0,0,0,-1,1826,365,0,0
609,659,0,0,0,0,0,0,0,0,0,-1,1833,365,0,0
616,659,0,0,0,0,0,0,0,0,0,-1,1840,365,0,0
623,659,0,0,0,0,0,0,0,0,0,-1,1847,365,0,0
630,659,0,0,0,0,0,0,0,0,0,-1,1854,365,0,0
637,659,0,0,0,0,0,0,0,0,0,-1,1861,365,0,0
644,659,0,0,0,0,0,0,0,0,0,-1,1868,365,0,0
651,659,0,0,0,0,0,0,0,0,0,-1,1875,365,0,0
658,659,0,0,0,0,0,0,0,0,0,-1,1882,365,0,0
665,659,0,0,0,0,0,0,0,0,0,-1,1889,365,0,0
672,659,0,0,0,0,0,0,0,0,0,-1,1896,365,0,0
679,659,0,0,0,0,0,0,0,0,0,-1,1903,365,0,0
686,659,0,0,0,0,0,0,0,0,0,-1,1910,365,0,0
693,659,0,0,0,0,0,0,0,0,0,-1,1917,365,0,0
700,659,0,0,0,0,0,0,0,0,0,-1,1924,365,0,0
707,659,0,0,0,0,0,0,0,0,0,-1,1931,365,0,0
714,659,0,0,0,0,0,0,0,0,0,-1,1938,365,0,0
721,659,0,0,0,0,0,0,0,0,0,-1,1945,365,0,0
728,659,0,0,0,0,0,0,0,0,0,-1,1952,365,0,0
735,659,0,0,0,0,0,0,0,0,0,-1,1959,365,0,0
742,659,0,0,0,0,0,0,0,0,0,-1,1966,365,0,0
749,659,0,0,0,0,0,0,0,0,0,-1,1973,365,0,0
756,659,0,0,0,0,0,0,0,0,0,-1,1980,365,0,0
763,659,0,0,0,0,0,0,0,0,0,-1,1987,365,0,0
770,659,0,0,0,0,0,0,0,0,0,-1,1994,365,0,0
777,659,0,0,0,0,0,0,0,0,0,-1,2001,365,0,0
784,659,0,0,0,0,0,0,0,0,0,-1,2008,365,0,0
791,659,0,0,0,0,0,0,0,0,0,-1,2015,365,0,0
798,659,0,0,0,0,0,0,0,0,0,-1,2022,365,0,0
805,659,0,0,0,0,0,0,0,0,0,-1,2029,365,0,0
812,659,0,0,0,0,0,0,0,0,0,-1,2036,365,0,0
-700,652,0,0,0,0,0,0,0,0,0,-1,524,372,0,0
-693,652,0,0,0,0,0,0,0,0,0,-1,531,372,0,0
-686,652,0,0,0,0,0,0,0,0,0,-1,538,372,0,0
-679,652,0,0,0,0,0,0,0,0,0,-1,545,372,0,0
-672,652,0,0,0,0,0,0,0,0,0,-1,552,372,0,0
-665,652,0,0,0,0,0,0,0,0,0,-1,559,372,0,0
-658,652,0,0,0,0,0,0,0,0,0,-1,566,372,0,0
-651,652,0,0,0,0,0,0,0,0,0,-1,573,372,0,0
-644,652,0,0,0,0,0,0,0,0,0,-1,580,372,0,0
-637,652,0,0,0,0,0,0,0,0,0,-1,587,372,0,0
-630,652,0,0,0,0,0,0,0,0,0,-1,594,372,0,0
-623,652,0,0,0,0,0,0,0,0,0,-1,601,372,0,0
-616,652,0,0,0,0,0,0,0,0,0,-1,608,372,0,0
-609,652,0,0,0,0,0,0,0,0,0,-1,615,372,0,0
-602,652,0,0,0,0,0,0,0,0,0,-1,622,372,0,0
-595,652,0,0,0,0,0,0,0,0,0,-1,629,372,0,0
-588,652,0,0,0,0,0,0,0,0,0,-1,636,372,0,0
-581,652,0,0,0,0,0,0,0,0,0,-1,643,372,0,0
-574,652,0,0,0,0,0,0,0,0,0,-1,650,372,0,0
-567,652,0,0,0,0,0,0,0,0,0,-1,657,372,0,0
-560,652,0,0,0,0,0,0,0,0,0,-1,664,372,0,0
-553,652,0,0,0,0,0,0,0,0,0,-1,671,372,0,0
-546,652,0,0,0,0,0,0,0,0,0,-1,678,372,0,0
-539,652,0,0,0,0,0,0,0,0,0,-1,685,372,0,0
-532,652,0,0,0,0,0,0,0,0,0,-1,692,372,0,0
-525,652,0,0,0,0,0,0,0,0,0,-1,699,372,0,0
-518,652,0,0,0,0,0,0,0,0,0,-1,706,372,0,0
-511,652,0,0,0,0,0,0,0,0,0,-1,713,372,0,0
-504,652,0,0,0,0,0,0,0,0,0,-1,720,372,0,0
-497,652,0,0,0,0,0,0,0,0,0,-1,727,372,0,0
-490,652,0,0,0,0,0,0,0,0,0,-1,734,372,0,0
-483,652,0,0,0,0,0,0,0,0,0,-1,741,372,0,0
-476,652,0,0,0,0,0,0,0,0,0,-1,748,372,0,0
-469,652,0,0,0,0,0,0,0,0,0,-1,755,372,0,0
-462,652,0,0,0,0,0,0,0,0,0,-1,762,372,0,0
-455,652,0,0,0,0,0,0,0,0,0,-1,769,372,0,0
-448,652,0,0,0,0,0,0,0,0,0,-1,776,372,0,0
-441,652,0,0,0,0,0,0,0,0,0,-1,783,372,0,0
-434,652,0,0,0,0,0,0,0,0,0,-1,790,372,0,0
-427,652,0,0,0,0,0,0,0,0,0,-1,797,372,0,0
-420,652,0,0,0,0,0,0,0,0,0,-1,804,372,0,0
-413,652,0,0,0,0,0,0,0,0,0,-1,811,372,0,0
-406,652,0,0,0,0,0,0,0,0,0,-1,818,372,0,0
-399,652,0,0,0,0,0,0,0,0,0,-1,825,372,0,0
-392,652,0,0,0,0,0,0,0,0,0,-1,832,372,0,0
-385,652,0,0,0,0,0,0,0,0,0,-1,839,372,0,0
-378,652,0,0,0,0,0,0,0,0,0,-1,846,372,0,0
-371,652,0,0,0,0,0,0,0,0,0,-1,853,372,0,0
-364,652,0,0,0,0,0,0,0,0,0,-1,860,372,0,0
-357,652,0,0,0,0,0,0,0,0,0,-1,867,372,0,0
-350,652,0,0,0,0,0,0,0,0,0,-1,874,372,0,0
-343,652,0,0,0,0,0,0,0,0,0,-1,881,372,0,0
-336,652,0,0,0,0,0,0,0,0,0,-1,888,372,0,0
-329,652,0,0,0,0,0,0,0,0,0,-1,895,372,0,0
-322,652,0,0,0,0,0,0,0,0,0,-1,902,372,0,0
-315,652,0,0,0,0,0,0,0,0,0,-1,909,372,0,0
-308,652,0,0,0,0,0,0,0,0,0,-1,916,372,0,0
-301,652,0,0,0,0,0,0,0,0,0,-1,923,372,0,0
-294,652,0,0,0,0,0,0,0,0,0,-1,930,372,0,0
-287,652,0,0,0,0,0,0,0,0,0,-1,937,372,0,0
-280,652,0,0,0,0,0,0,0,0,0,-1,944,372,0,0
-273,652,0,0,0,0,0,0,0,0,0,-1,951,372,0,0
-266,652,0,0,0,0,0,0,0,0,0,-1,958,372,0,0
-259,652,0,0,0,0,0,0,0,0,0,-1,965,372,0,0
-252,652,0,0,0,0,0,0,0,0,0,-1,972,372,0,0
-245,652,0,0,0,0,0,0,0,0,0,-1,979,372,0,0
-238,652,0,0,0,0,0,0,0,0,0,-1,986,372,0,0
-231,652,-3.1214,-6.93527,0,0,0,0,0,0,0,-1,993,372,-3.1214,6.93528
-224,652,-3.74396,-5.71695,0,0,0,0,0,0,0,-1,1000,372,-3.74397,5.71694
-217,652,3.08069,-9.83069,0,0,0,0,0,0,0,-1,1007,372,3.08068,9.83069
-210,652,3.51178,-10.4496,0,0,0,0,0,0,0,-1,1014,372,3.51181,10.4496
-203,652,2.26929,-12.32,0,0,0,0,0,0,0,-1,1021,372,2.26929,12.32
-196,652,2.8833,-11.9591,0,0,0,0,0,0,0,-1,1028,372,2.88328,11.9591
-189,652,3.7583,-11.691,0,0,0,0,0,0,0,-1,1035,372,3.75831,11.691
-182,652,1.33374,-12.6816,0,0,0,0,0,0,0,-1,1042,372,1.33379,12.6816
-175,652,1.74902,-12.5601,0,0,0,0,0,0,0,-1,1049,372,1.74905,12.5601
-168,652,3.90173,-13.7021,0,0,0,0,0,0,0,-1,1056,372,3.90177,13.7021
-161,652,2.5896,-13.4221,0,0,0,0,0,0,0,-1,1063,372,2.58954,13.4221
-154,652,3.02686,-13.4386,0,0,0,0,0,0,0,-1,1070,372,3.02691,13.4386
-147,652,3.35352,-13.6876,0,0,0,0,0,0,0,-1,1077,372,3.35351,13.6876
-140,652,3.1759,-13.7568,0,0,0,0,0,0,0,-1,1084,372,3.17584,13.7568
-133,652,2.31201,-13.0791,0.0155781,0.00821394,-0.012383,0.0248149,-0.00102285,-0.640886,0.0168946,0.0409419,1091,372,2.31206,13.0791
-126,652,2.67297,-13.184,0.0145374,0.00952921,-0.0110306,0.0233446,0.00072208,-0.673782,0.015328,0.0393934,1098,372,2.67294,13.184
-119,652,3.00134,-13.4657,0.0128825,0.0102404,-0.00932298,0.0209776,0.00214535,-0.715019,0.0133276,0.0345161,1105,372,3.00134,13.4657
-112,652,2.92163,-13.596,0.0113659,0.0110566,-0.00783573,0.0190485,0.00337399,-0.775533,0.0117371,0.0258887,1112,372,2.92166,13.596
-105,652,2.87744,-13.6901,0.00902726,0.0111215,-0.00586172,0.0160289,0.00411988,-0.873785,0.00961161,0.0223599,1119,372,2.87741,13.6901
-98,652,2.85388,-13.82,0.00662684,0.0106926,-0.00411985,0.0132538,0.00406563,-1.01459,0.0078403,0.023058,1126,372,2.85388,13.82
-91,652,2.88623,-13.9092,0.00473544,0.0101401,-0.00268579,0.0112478,0.00362777,-1.17963,0.00662885,0.0227163,1133,372,2.8862,13.9092
-84,652,2.86755,-14.0154,0.00338133,0.00891836,-0.00161649,0.00935573,0.00294395,-1.30655,0.00552383,0.0269662,1140,372,2.86751,14.0154
-77,652,2.7948,-14.0757,0.00176201,0.00729445,-0.000387134,0.00732141,0.00173506,-1.50127,0.00441766,0.0339279,1147,372,2.7948,14.0757
-70,652,2.77515,-14.2458,0,0,0,0,0,0,0,-1,1154,372,2.77513,14.2458
-63,652,2.79224,-14.3125,0,0,0,0,0,0,0,-1,1161,372,2.79218,14.3125
-56,652,2.77954,-14.3885,0,0,0,0,0,0,0,-1,1168,372,2.77954,14.3885
-49,652,2.76538,-14.4676,0.000119506,0.00334375,0.000220004,0.00335869,0.000104564,1.50298,0.0022051,0.0326095,1175,372,2.76543,14.4676
-42,652,2.73511,-14.528,-0.000106663,0.00196121,4.87076e-05,0.00196236,-0.000107809,1.54726,0.00134561,0.0116065,1182,372,2.73511,14.528
-35,652,2.74036,-14.5855,-0.000599359,-0.000525191,-0.000265135,-0.000294559,-0.000829991,-0.854881,0.000485876,0.00966677,1189,372,2.74037,14.5855
-28,652,2.72571,-14.649,-0.000580487,-0.00154047,-0.000154262,-0.000556308,-0.00156465,-0.15548,0.000915831,0.007824,1196,372,2.72575,14.649
-21,652,2.69727,-14.7018,-0.000693434,-0.00167222,0.000265328,-0.000626136,-0.00173951,0.248402,0.00101736,0.00770305,1203,372,2.69721,14.7018
-14,652,2.69128,-14.7618,-0.000902275,-0.00209615,0.000582425,-0.000665214,-0.00233321,0.386546,0.00138793,0.00957957,1210,372,2.69127,14.7618
-7,652,2.68811,-14.8043,-0.00110688,-0.00225194,0.000803392,-0.000692887,-0.00266593,0.475819,0.00159723,0.0118987,1217,372,2.68809,14.8043
0,652,2.66809,-14.817,-0.0012791,-0.00230623,0.00093839,-0.000722931,-0.00286239,0.53502,0.00171874,0.0114463,1224,372,2.66809,14.817
7,652,2.65063,-14.8365,-0.00133332,-0.00209283,0.000994128,-0.000648881,-0.00277726,0.602952,0.00167758,0.0122744,1231,372,2.65068,14.8365
14,652,2.64209,-14.8687,-0.00142341,-0.001518,0.0012262,-0.000243594,-0.00269781,0.766123,0.00172309,0.00975857,1238,372,2.64209,14.8687
21,652,2.65283,-14.8786,-0.00160689,-0.000624383,0.00144977,0.000415106,-0.00264638,0.948751,0.00191765,0.00980502,1245,372,2.65288,14.8786
28,652,2.63684,-14.8971,-0.00161742,0.000370488,0.00166434,0.00131508,-0.00256202,1.05458,0.00227671,0.00942154,1252,372,2.63681,14.8971
35,652,2.59937,-14.9193,-0.00139124,0.00144061,0.00198424,0.00246231,-0.00241295,1.09529,0.00281478,0.00977957,1259,372,2.59932,14.9193
42,652,2.58728,-14.9192,-0.00114001,0.00289279,0.00227992,0.00392005,-0.00216728,1.14747,0.00356275,0.0113644,1266,372,2.58727,14.9192
49,652,2.60156,-14.9182,-0.00106085,0.00435213,0.00251569,0.00534074,-0.00204946,1.19636,0.00440552,0.013767,1273,372,2.60158,14.9182
56,652,2.59082,-14.9088,-0.000884883,0.0057701,0.00274773,0.00675796,-0.00187274,1.22567,0.00524227,0.0151555,1280,372,2.59079,14.9088
63,652,2.58545,-14.9253,-0.000679077,0.00694325,0.00293345,0.00794147,-0.00167729,1.2428,0.00593297,0.0175592,1287,372,2.5855,14.9253
70,652,2.58508,-14.8941,-0.00055121,0.00808946,0.0030838,0.00907715,-0.0015389,1.26084,0.00662426,0.0157968,1294,372,2.5851,14.8941
77,652,2.53662,-14.8733,-0.000427786,0.00890533,0.00313934,0.00986302,-0.00138548,1.2747,0.00708249,0.0152672,1301,372,2.53657,14.8733
84,652,2.55579,-14.852,-0.000328691,0.00915613,0.00304579,0.01005,-0.00122253,1.28534,0.00714245,0.0129012,1308,372,2.55574,14.852
91,652,2.52405,-14.8497,-0.000351942,0.00930857,0.00294327,0.0101347,-0.00117803,1.29717,0.00718139,0.0154748,1315,372,2.52408,14.8497
98,652,2.53955,-14.7906,-0.00043903,0.00914255,0.00290435,0.00995416,-0.00125064,1.2983,0.00708985,0.0124016,1322,372,2.5396,14.7905
105,652,2.52747,-14.7325,-0.000568383,0.00866793,0.00276489,0.00943234,-0.00133279,1.30107,0.00677632,0.0102773,1329,372,2.52742,14.7324
112,652,2.50549,-14.6936,-0.000683826,0.00797128,0.00262976,0.00870765,-0.0014202,1.29777,0.00633182,0.00910101,1336,372,2.50552,14.6936
119,652,2.51208,-14.6533,-0.00068324,0.00712691,0.0023862,0.00779825,-0.00135458,1.29654,0.00570422,0.00983398,1343,372,2.51206,14.6533
126,652,2.47864,-14.6035,-0.000571618,0.00618103,0.00222954,0.00685075,-0.00124133,1.27899,0.00503224,0.0115586,1350,372,2.47866,14.6035
133,652,2.45215,-14.5471,-0.000617549,0.00533735,0.00215247,0.00603391,-0.00131411,1.25782,0.00452471,0.0120631,1357,372,2.45214,14.5471
140,652,2.44971,-14.4781,-0.000766673,0.00463969,0.00209552,0.00535679,-0.00148378,1.24108,0.00415506,0.00948782,1364,372,2.44967,14.4781
147,652,2.44653,-14.3962,-0.00077806,0.00372712,0.00212097,0.0045685,-0.00161944,1.19314,0.00370539,0.00905191,1371,372,2.4465,14.3962
154,652,2.44263,-14.3186,-0.000480814,0.00320891,0.00221099,0.00424363,-0.00151553,1.13308,0.00344716,0.00873052,1378,372,2.44268,14.3186
161,652,2.4469,-14.2449,-0.000353482,0.00244898,0.00229965,0.00374067,-0.00164518,1.05902,0.00318701,0.010162,1385,372,2.44685,14.2449
168,652,2.42468,-14.1651,-0.000387207,0.00213551,0.00251384,0.0036867,-0.00193839,1.01793,0.00329952,0.0110993,1392,372,2.42464,14.1651
175,652,2.41382,-14.0707,-0.000486071,0.00196576,0.00269987,0.00370501,-0.00222532,0.998512,0.00345922,0.0108993,1399,372,2.41378,14.0707
182,652,2.37891,-14.0025,-0.000538658,0.0018197,0.00274738,0.00363026,-0.00234922,0.98811,0.00347857,0.0164688,1406,372,2.37891,14.0025
189,652,2.38123,-13.9077,-0.000617203,0.00140515,0.00293758,0.00350072,-0.00271277,0.951157,0.00359697,0.0251166,1413,372,2.38121,13.9078
196,652,2.38184,-13.849,-0.00104458,0.000574272,0.0029246,0.00279939,-0.0032697,0.920401,0.0035075,0.0469021,1420,372,2.38181,13.849
203,652,2.36658,-13.6664,0,0,0,0,0,0,0,-1,1427,372,2.36658,13.6665
210,652,2.3241,-13.8242,-0.00252524,-0.00182856,0.00222952,7.96651e-05,-0.00443346,0.862893,0.00298255,0.0455543,1434,372,2.32408,13.8242
217,652,2.36108,-13.4129,-0.00312734,-0.00157735,0.000849036,-0.00120279,-0.0035019,1.15532,0.00205458,0.0443547,1441,372,2.36104,13.4129
224,652,2.33569,-13.1927,-0.00349372,-0.00176416,-0.00120711,-0.00114403,-0.00411385,-1.09622,0.00245187,0.0354644,1448,372,2.33571,13.1927
231,652,2.24048,-13.0831,-0.0036308,-0.00154608,-0.00271874,0.000323275,-0.00550015,-0.968455,0.00377914,0.0384522,1455,372,2.24047,13.0831
238,652,2.44312,-13.0929,-0.0036841,-0.00115311,-0.00448479,0.00224132,-0.00707852,-0.92291,0.0056172,0.0410026,1462,372,2.44315,13.0929
245,652,2.31262,-13.0672,-0.00375427,-0.000680971,-0.00646626,0.00442871,-0.00886396,-0.902055,0.00781563,0.0401597,1469,372,2.31268,13.0672
252,652,1.93787,-13.1028,-0.00342733,0.000110413,-0.00850844,0.0070319,-0.0103488,-0.887886,0.0100955,0.044641,1476,372,1.93791,13.1028
259,652,2.14172,-12.4708,0,0,0,0,0,0,0,-1,1483,372,2.14172,12.4708
266,652,1.48804,-12.2488,-0.00200069,0.00286831,-0.0115563,0.0122437,-0.0113761,-0.889213,0.01364,0.0471635,1490,372,1.48804,12.2489
273,652,1.51245,-12.444,-0.00117573,0.00404167,-0.0123757,0.0140806,-0.0112147,-0.889274,0.0146354,0.0478044,1497,372,1.51246,12.444
280,652,1.48523,-12.628,0,0,0,0,0,0,0,-1,1504,372,1.4852,12.6279
287,652,2.95117,-12.1608,0,0,0,0,0,0,0,-1,1511,372,2.95122,12.1608
294,652,2.67603,-12.2367,0,0,0,0,0,0,0,-1,1518,372,2.67603,12.2367
301,652,2.43213,-12.2303,0,0,0,0,0,0,0,-1,1525,372,2.43215,12.2303
308,652,5.06067,-8.25143,0,0,0,0,0,0,0,-1,1532,372,5.06062,8.25143
315,652,2.02148,-10.9823,0,0,0,0,0,0,0,-1,1539,372,2.02152,10.9823
322,652,5.31433,-2.42712,0,0,0,0,0,0,0,-1,1546,372,5.31435,2.42712
329,652,4.35828,-2.34665,0,0,0,0,0,0,0,-1,1553,372,4.35832,2.34665
336,652,4.60815,-2.13776,0,0,0,0,0,0,0,-1,1560,372,4.6082,2.13775
343,652,4.18225,-6.7092,0,0,0,0,0,0,0,-1,1567,372,4.18231,6.70921
350,652,4.64563,-7.2074,0,0,0,0,0,0,0,-1,1574,372,4.6456,7.2074
357,652,0,0,0,0,0,0,0,0,0,-1,1581,372,0,0
364,652,0,0,0,0,0,0,0,0,0,-1,1588,372,0,0
371,652,0,0,0,0,0,0,0,0,0,-1,1595,372,0,0
378,652,0,0,0,0,0,0,0,0,0,-1,1602,372,0,0
385,652,0,0,0,0,0,0,0,0,0,-1,1609,372,0,0
392,652,0,0,0,0,0,0,0,0,0,-1,1616,372,0,0
399,652,0,0,0,0,0,0,0,0,0,-1,1623,372,0,0
406,652,0,0,0,0,0,0,0,0,0,-1,1630,372,0,0
413,652,0,0,0,0,0,0,0,0,0,-1,1637,372,0,0
420,652,0,0,0,0,0,0,0,0,0,-1,1644,372,0,0
427,652,0,0,0,0,0,0,0,0,0,-1,1651,372,0,0
434,652,0,0,0,0,0,0,0,0,0,-1,1658,372,0,0
441,652,0,0,0,0,0,0,0,0,0,-1,1665,372,0,0
448,652,0,0,0,0,0,0,0,0,0,-1,1672,372,0,0
455,652,0,0,0,0,0,0,0,0,0,-1,1679,372,0,0
462,652,0,0,0,0,0,0,0,0,0,-1,1686,372,0,0
469,652,0,0,0,0,0,0,0,0,0,-1,1693,372,0,0
476,652,0,0,0,0,0,0,0,0,0,-1,1700,372,0,0
483,652,0,0,0,0,0,0,0,0,0,-1,1707,372,0,0
490,652,0,0,0,0,0,0,0,0,0,-1,1714,372,0,0
497,652,0,0,0,0,0,0,0,0,0,-1,1721,372,0,0
504,652,0,0,0,0,0,0,0,0,0,-1,1728,372,0,0
511,652,0,0,0,0,0,0,0,0,0,-1,1735,372,0,0
518,652,0,0,0,0,0,0,0,0,0,-1,1742,372,0,0
525,652,0,0,0,0,0,0,0,0,0,-1,1749,372,0,0
532,652,0,0,0,0,0,0,0,0,0,-1,1756,372,0,0
539,652,0,0,0,0,0,0,0,0,0,-1,1763,372,0,0
546,652,0,0,0,0,0,0,0,0,0,-1,1770,372,0,0
553,652,0,0,0,0,0,0,0,0,0,-1,1777,372,0,0
560,652,0,0,0,0,0,0,0,0,0,-1,1784,372,0,0
567,652,0,0,0,0,0,0,0,0,0,-1,1791,372,0,0
574,652,0,0,0,0,0,0,0,0,0,-1,1798,372,0,0
581,652,0,0,0,0,0,0,0,0,0,-1,1805,372,0,0
588,652,0,0,0,0,0,0,0,0,0,-1,1812,372,0,0
595,652,0,0,0,0,0,0,0,0,0,-1,1819,372,0,0
602,652,0,0,0,0,0,0,0,0,0,-1,1826,372,0,0
609,652,0,0,0,0,0,0,0,0,0,-1,1833,372,0,0
616,652,0,0,0,0,0,0,0,0,0,-1,1840,372,0,0
623,652,0,0,0,0,0,0,0,0,0,-1,1847,372,0,0
630,652,0,0,0,0,0,0,0,0,0,-1,1854,372,0,0
637,652,0,0,0,0,0,0,0,0,0,-1,1861,372,0,0
644,652,0,0,0,0,0,0,0,0,0,-1,1868,372,0,0
651,652,0,0,0,0,0,0,0,0,0,-1,1875,372,0,0
658,652,0,0,0,0,0,0,0,0,0,-1,1882,372,0,0
665,652,0,0,0,0,0,0,0,0,0,-1,1889,372,0,0
672,652,0,0,0,0,0,0,0,0,0,-1,1896,372,0,0
679,652,0,0,0,0,0,0,0,0,0,-1,1903,372,0,0
686,652,0,0,0,0,0,0,0,0,0,-1,1910,372,0,0
693,652,0,0,0,0,0,0,0,0,0,-1,1917,372,0,0
700,652,0,0,0,0,0,0,0,0,0,-1,1924,372,0,0
707,652,0,0,0,0,0,0,0,0,0,-1,1931,372,0,0
714,652,0,0,0,0,0,0,0,0,0,-1,1938,372,0,0
721,652,0,0,0,0,0,0,0,0,0,-1,1945,372,0,0
728,652,0,0,0,0,0,0,0,0,0,-1,1952,372,0,0
735,652,0,0,0,0,0,0,0,0,0,-1,1959,372,0,0
742,652,0,0,0,0,0,0,0,0,0,-1,1966,372,0,0
749,652,0,0,0,0,0,0,0,0,0,-1,1973,372,0,0
756,652,0,0,0,0,0,0,0,0,0,-1,1980,372,0,0
763,652,0,0,0,0,0,0,0,0,0,-1,1987,372,0,0
770,652,0,0,0,0,0,0,0,0,0,-1,1994,372,0,0
777,652,0,0,0,0,0,0,0,0,0,-1,2001,372,0,0
784,652,0,0,0,0,0,0,0,0,0,-1,2008,372,0,0
791,652,0,0,0,0,0,0,0,0,0,-1,2015,372,0,0
798,652,0,0,0,0,0,0,0,0,0,-1,2022,372,0,0
805,652,0,0,0,0,0,0,0,0,0,-1,2029,372,0,0
812,652,0,0,0,0,0,0,0,0,0,-1,2036,372,0,0
-700,645,0,0,0,0,0,0,0,0,0,-1,524,379,0,0
-693,645,0,0,0,0,0,0,0,0,0,-1,531,379,0,0
-686,645,0,0,0,0,0,0,0,0,0,-1,538,379,0,0
-679,645,0,0,0,0,0,0,0,0,0,-1,545,379,0,0
-672,645,0,0,0,0,0,0,0,0,0,-1,552,379,0,0
-665,645,0,0,0,0,0,0,0,0,0,-1,559,379,0,0
-658,645,0,0,0,0,0,0,0,0,0,-1,566,379,0,0
-651,645,0,0,0,0,0,0,0,0,0,-1,573,379,0,0
-644,645,0,0,0,0,0,0,0,0,0,-1,580,379,0,0
-637,645,0,0,0,0,0,0,0,0,0,-1,587,379,0,0
-630,645,0,0,0,0,0,0,0,0,0,-1,594,379,0,0
-623,645,0,0,0,0,0,0,0,0,0,-1,601,379,0,0
-616,645,0,0,0,0,0,0,0,0,0,-1,608,379,0,0
-609,645,0,0,0,0,0,0,0,0,0,-1,615,379,0,0
-602,645,0,0,0,0,0,0,0,0,0,-1,622,379,0,0
-595,645,0,0,0,0,0,0,0,0,0,-1,629,379,0,0
-588,645,0,0,0,0,0,0,0,0,0,-1,636,379,0,0
-581,645,0,0,0,0,0,0,0,0,0,-1,643,379,0,0
-574,645,0,0,0,0,0,0,0,0,0,-1,650,379,0,0
-567,645,0,0,0,0,0,0,0,0,0,-1,657,379,0,0
-560,645,0,0,0,0,0,0,0,0,0,-1,664,379,0,0
-553,645,0,0,0,0,0,0,0,0,0,-1,671,379,0,0
-546,645,0,0,0,0,0,0,0,0,0,-1,678,379,0,0
-539,645,0,0,0,0,0,0,0,0,0,-1,685,379,0,0
-532,645,0,0,0,0,0,0,0,0,0,-1,692,379,0,0
-525,645,0,0,0,0,0,0,0,0,0,-1,699,379,0,0
-518,645,0,0,0,0,0,0,0,0,0,-1,706,379,0,0
-511,645,0,0,0,0,0,0,0,0,0,-1,713,379,0,0
-504,645,0,0,0,0,0,0,0,0,0,-1,720,379,0,0
-497,645,0,0,0,0,0,0,0,0,0,-1,727,379,0,0
-490,645,0,0,0,0,0,0,0,0,0,-1,734,379,0,0
-483,645,0,0,0,0,0,0,0,0,0,-1,741,379,0,0
-476,645,0,0,0,0,0,0,0,0,0,-1,748,379,0,0
-469,645,0,0,0,0,0,0,0,0,0,-1,755,379,0,0
-462,645,0,0,0,0,0,0,0,0,0,-1,762,379,0,0
-455,645,0,0,0,0,0,0,0,0,0,-1,769,379,0,0
-448,645,0,0,0,0,0,0,0,0,0,-1,776,379,0,0
-441,645,0,0,0,0,0,0,0,0,0,-1,783,379,0,0
-434,645,0,0,0,0,0,0,0,0,0,-1,790,379,0,0
-427,645,0,0,0,0,0,0,0,0,0,-1,797,379,0,0
-420,645,0,0,0,0,0,0,0,0,0,-1,804,379,0,0
-413,645,0,0,0,0,0,0,0,0,0,-1,811,379,0,0
-406,645,0,0,0,0,0,0,0,0,0,-1,818,379,0,0
-399,645,0,0,0,0,0,0,0,0,0,-1,825,379,0,0
-392,645,0,0,0,0,0,0,0,0,0,-1,832,379,0,0
-385,645,0,0,0,0,0,0,0,0,0,-1,839,379,0,0
-378,645,0,0,0,0,0,0,0,0,0,-1,846,379,0,0
-371,645,0,0,0,0,0,0,0,0,0,-1,853,379,0,0
-364,645,0,0,0,0,0,0,0,0,0,-1,860,379,0,0
-357,645,0,0,0,0,0,0,0,0,0,-1,867,379,0,0
-350,645,0,0,0,0,0,0,0,0,0,-1,874,379,0,0
-343,645,0,0,0,0,0,0,0,0,0,-1,881,379,0,0
-336,645,0,0,0,0,0,0,0,0,0,-1,888,379,0,0
-329,645,0,0,0,0,0,0,0,0,0,-1,895,379,0,0
-322,645,0,0,0,0,0,0,0,0,0,-1,902,379,0,0
-315,645,0,0,0,0,0,0,0,0,0,-1,909,379,0,0
-308,645,0,0,0,0,0,0,0,0,0,-1,916,379,0,0
-301,645,0,0,0,0,0,0,0,0,0,-1,923,379,0,0
-294,645,0,0,0,0,0,0,0,0,0,-1,930,379,0,0
-287,645,0,0,0,0,0,0,0,0,0,-1,937,379,0,0
-280,645,0,0,0,0,0,0,0,0,0,-1,944,379,0,0
-273,645,0,0,0,0,0,0,0,0,0,-1,951,379,0,0
-266,645,0,0,0,0,0,0,0,0,0,-1,958,379,0,0
-259,645,0,0,0,0,0,0,0,0,0,-1,965,379,0,0
-252,645,10.0122,-9.04193,0,0,0,0,0,0,0,-1,972,379,10.0122,9.04192
-245,645,-3.15631,-11.1812,0,0,0,0,0,0,0,-1,979,379,-3.15633,11.1812
-238,645,-2.591,-10.3983,0,0,0,0,0,0,0,-1,986,379,-2.59098,10.3983
-231,645,-1.71124,-10.0034,0,0,0,0,0,0,0,-1,993,379,-1.71127,10.0033
-224,645,-2.58899,-7.38031,0,0,0,0,0,0,0,-1,1000,379,-2.58896,7.38031
-217,645,-3.33527,-5.9166,0,0,0,0,0,0,0,-1,1007,379,-3.33529,5.91658
-210,645,0.728638,-13.0316,0,0,0,0,0,0,0,-1,1014,379,0.728654,13.0316
-203,645,1.53198,-12.3115,0,0,0,0,0,0,0,-1,1021,379,1.53198,12.3115
-196,645,2.30298,-11.7168,0,0,0,0,0,0,0,-1,1028,379,2.30292,11.7168
-189,645,3.14294,-11.3177,0,0,0,0,0,0,0,-1,1035,379,3.14296,11.3178
-182,645,3.91882,-10.224,0,0,0,0,0,0,0,-1,1042,379,3.91878,10.224
-175,645,2.45874,-12.4063,0,0,0,0,0,0,0,-1,1049,379,2.45878,12.4063
-168,645,3.30164,-13.0822,0.00419387,-0.00225582,-0.00939057,0.0108979,-0.00895985,-0.620001,0.0114831,0.0440042,1056,379,3.30164,13.0822
-161,645,2.64575,-13.1019,0.00695479,-0.00042082,-0.00997162,0.0138987,-0.00736472,-0.608283,0.0124681,0.0446635,1063,379,2.64572,13.1019
-154,645,2.88098,-13.1469,0.00865977,0.000809757,-0.0105806,0.0160199,-0.00655036,-0.607784,0.0134078,0.0413152,1070,379,2.88101,13.1469
-147,645,3.03369,-13.3691,0.0098207,0.00270586,-0.0104381,0.0172909,-0.00476435,-0.621165,0.0134007,0.0399791,1077,379,3.03364,13.3691
-140,645,3.02307,-13.4743,0,0,0,0,0,0,0,-1,1084,379,3.02309,13.4743
-133,645,2.65002,-13.3456,0.0105438,0.00581026,-0.00912868,0.0176075,-0.00125347,-0.658557,0.0121777,0.0291014,1091,379,2.65003,13.3456
-126,645,2.84937,-13.3717,0.00995984,0.00687622,-0.0082576,0.0168183,1.77259e-05,-0.693104,0.0112063,0.024881,1098,379,2.84934,13.3717
-119,645,2.84814,-13.53,0.00893307,0.00754154,-0.00713819,0.0154093,0.00106529,-0.736816,0.00993683,0.017199,1105,379,2.84819,13.53
-112,645,2.81738,-13.6701,0.00801324,0.00832517,-0.00619296,0.0143641,0.00197428,-0.797987,0.00899054,0.0119443,1112,379,2.81742,13.6701
-105,645,2.78979,-13.7761,0.00641845,0.00849558,-0.00482955,0.012397,0.00251706,-0.891307,0.00756649,0.0115562,1119,379,2.78982,13.7761
-98,645,2.75122,-13.8769,0.004681,0.0082169,-0.00361727,0.0104752,0.00242275,-1.0127,0.00633228,0.0123639,1126,379,2.75125,13.8769
-91,645,2.73657,-13.9734,0.00328788,0.00781298,-0.00260027,0.00899724,0.00210362,-1.14343,0.00543441,0.0131717,1133,379,2.73658,13.9734
-84,645,2.73291,-14.0656,0.00227428,0.00683506,-0.00176613,0.00743901,0.00167033,-1.2413,0.00450695,0.0134443,1140,379,2.73293,14.0656
-77,645,2.7124,-14.1813,0.00100928,0.00553947,-0.000739676,0.00565718,0.00089157,-1.41298,0.00351219,0.0115478,1147,379,2.71237,14.1813
-70,645,2.71643,-14.2689,-0.000147911,0.0043063,-5.60565e-05,0.004307,-0.000148616,-1.55821,0.00292214,0.00995014,1154,379,2.71646,14.2689
-63,645,2.70447,-14.3344,-0.000666521,0.0034117,1.30559e-05,0.00341175,-0.000666563,1.5676,0.00252617,0.0108088,1161,379,2.70451,14.3343
-56,645,2.69824,-14.3892,-0.00041905,0.00280559,-0.000163799,0.00281389,-0.000427349,-1.52017,0.0020334,0.0118262,1168,379,2.69819,14.3892
-49,645,2.70593,-14.4507,-9.2753e-05,0.0025487,-6.09201e-05,0.00255011,-9.41573e-05,-1.54775,0.00173231,0.0100497,1175,379,2.70592,14.4507
-42,645,2.70483,-14.5312,-0.00018833,0.00159386,-0.000120886,0.00160202,-0.000196492,-1.50338,0.00113917,0.0100758,1182,379,2.70488,14.5312
-35,645,2.698,-14.5997,-0.000432114,4.86185e-06,-0.000234173,0.000106646,-0.000533898,-1.16078,0.000396293,0.0104106,1189,379,2.69797,14.5997
-28,645,2.66382,-14.653,-0.000345624,-0.000777738,-6.92043e-05,-0.000334811,-0.000788551,-0.15499,0.000456993,0.00828853,1196,379,2.66381,14.653
-21,645,2.64551,-14.6952,-0.000316716,-0.0015689,0.000123302,-0.00030469,-0.00158093,0.0972253,0.0009685,0.00959555,1203,379,2.6455,14.6952
-14,645,2.65149,-14.7537,-0.000354858,-0.00213938,0.000319022,-0.000299541,-0.0021947,0.171689,0.00137421,0.00959884,1210,379,2.65148,14.7537
-7,645,2.66675,-14.8048,-0.000397892,-0.00250787,0.000426167,-0.000315067,-0.00259069,0.191956,0.00163227,0.0121797,1217,379,2.66677,14.8048
0,645,2.66992,-14.8398,-0.000441391,-0.002755,0.000468575,-0.000350094,-0.0028463,0.19243,0.00179227,0.0220465,1224,379,2.66988,14.8398
7,645,2.64709,-14.8686,-0.000429259,-0.00274792,0.000463106,-0.000340185,-0.00283699,0.19002,0.00178875,0.0156638,1231,379,2.64707,14.8685
14,645,2.63428,-14.8956,-0.000448001,-0.00256256,0.000564433,-0.000306771,-0.00270379,0.245182,0.00170947,0.0143602,1238,379,2.63433,14.8956
21,645,2.62268,-14.9143,-0.000552515,-0.0020698,0.000693446,-0.000283342,-0.00233898,0.370264,0.00147398,0.00986459,1245,379,2.62268,14.9143
28,645,2.604,-14.9125,-0.000535057,-0.00145384,0.000864785,-1.52164e-05,-0.00197368,0.541243,0.00131074,0.0086057,1252,379,2.60395,14.9125
35,645,2.58801,-14.9329,-0.000381643,-0.000759016,0.00110373,0.000549409,-0.00169007,0.700739,0.00134771,0.00836462,1259,379,2.58806,14.9329
42,645,2.5896,-14.9454,-0.000203752,0.00019539,0.00133275,0.00134342,-0.00135179,0.859718,0.00155608,0.00885737,1266,379,2.58962,14.9454
49,645,2.61731,-14.9203,-9.73415e-05,0.00117417,0.0015335,0.00219847,-0.00112165,0.981904,0.00195019,0.0117097,1273,379,2.61733,14.9203
56,645,2.61316,-14.9014,5.82236e-05,0.00219917,0.00176682,0.0031945,-0.000937109,1.05776,0.00250125,0.0115467,1280,379,2.61322,14.9014
63,645,2.61279,-14.9064,0.000242262,0.00306279,0.00193822,0.00404951,-0.000744458,1.09991,0.002979,0.0112594,1287,379,2.61273,14.9064
70,645,2.57813,-14.9023,0.000392626,0.00391517,0.00203624,0.00484618,-0.000538382,1.14196,0.00342438,0.0152122,1294,379,2.57809,14.9023
77,645,2.53345,-14.8915,0.000529044,0.00458642,0.00203178,0.00542891,-0.000313452,1.17772,0.00372816,0.0187177,1301,379,2.53348,14.8915
84,645,2.58691,-14.8596,0.000609803,0.0050062,0.0019506,0.00574687,-0.000130861,1.2079,0.0038756,0.0139361,1308,379,2.58694,14.8596
91,645,2.54834,-14.841,0.000564908,0.00517467,0.00180963,0.00580019,-6.06109e-05,1.23799,0.00388716,0.0146406,1315,379,2.54829,14.841
98,645,2.56824,-14.7833,0.000440611,0.00517619,0.00173595,0.00574438,-0.000127576,1.25448,0.00387281,0.0126561,1322,379,2.56821,14.7833
105,645,2.56274,-14.731,0.000283767,0.00494587,0.00160576,0.00544541,-0.000215774,1.26919,0.00370429,0.00939788,1329,379,2.56271,14.731
112,645,2.53662,-14.7001,0.000127473,0.00456005,0.00148975,0.00501421,-0.000326686,1.27489,0.00345685,0.00848471,1336,379,2.53662,14.7001
119,645,2.53979,-14.6554,2.50939e-05,0.00414473,0.00133013,0.00453687,-0.000367046,1.2841,0.00315406,0.00838833,1343,379,2.53982,14.6554
126,645,2.52563,-14.6081,-1.43469e-05,0.00359019,0.00124104,0.00397615,-0.000400311,1.26928,0.00279378,0.0107478,1350,379,2.52561,14.6081
133,645,2.51965,-14.5393,-0.000170565,0.00306548,0.00120831,0.00346687,-0.000571953,1.25008,0.0025236,0.0119693,1357,379,2.51969,14.5393
140,645,2.5033,-14.4673,-0.000353267,0.00261263,0.00122719,0.00305455,-0.000795191,1.22514,0.00234678,0.0115376,1364,379,2.5033,14.4673
147,645,2.49536,-14.4048,-0.000427938,0.00205837,0.00129946,0.00261355,-0.000983126,1.16703,0.00214649,0.0123318,1371,379,2.49541,14.4048
154,645,2.51001,-14.3341,-0.000311319,0.00178346,0.00134115,0.00243775,-0.000965607,1.11691,0.00202528,0.0110022,1378,379,2.51005,14.3341
161,645,2.52612,-14.2428,-0.000185938,0.00128843,0.00138475,0.00211999,-0.0010175,1.03,0.00184834,0.0128887,1385,379,2.52614,14.2428
168,645,2.51941,-14.157,-0.000169837,0.00116264,0.00150823,0.00214523,-0.00115242,0.993379,0.00193245,0.0156309,1392,379,2.51947,14.157
175,645,2.53369,-14.0836,-0.000212722,0.00115894,0.00159378,0.00220819,-0.00126197,0.988582,0.00202817,0.0133209,1399,379,2.53368,14.0835
182,645,2.49548,-13.996,-0.000257079,0.00118405,0.00158769,0.00220704,-0.00128007,0.998421,0.00203686,0.00933606,1406,379,2.49546,13.996
189,645,2.47437,-13.8817,-0.000360008,0.000981332,0.00174567,0.00218074,-0.00155941,0.968799,0.00216929,0.0101217,1413,379,2.47433,13.8816
196,645,2.46301,-13.7819,-0.00072751,0.000465488,0.00182672,0.00179063,-0.00205266,0.943211,0.00222064,0.0111014,1420,379,2.46306,13.7819
203,645,2.44543,-13.6695,-0.00147567,-0.000778213,0.00144045,0.000355123,-0.00260901,0.904161,0.00186899,0.0109282,1427,379,2.44546,13.6695
210,645,2.46924,-13.5608,-0.00195908,-0.00104169,0.00158916,0.000153649,-0.00315443,0.925899,0.00215599,0.0137249,1434,379,2.46927,13.5608
217,645,2.44336,-13.4652,-0.00240876,-0.000799108,0.000659973,-0.000563113,-0.00264476,1.22738,0.00160866,0.0130447,1441,379,2.44341,13.4652
224,645,2.40784,-13.3329,-0.00265334,-0.000843872,-0.000773388,-0.000558365,-0.00293884,-1.21715,0.00180217,0.0129571,1448,379,2.40786,13.3329
231,645,2.38635,-13.162,-0.00266531,-0.00058756,-0.00174542,0.00040476,-0.00365763,-1.05384,0.00258393,0.0147088,1455,379,2.38637,13.162
238,645,2.36719,-13.0343,-0.00261692,-0.000123532,-0.00280175,0.00169638,-0.00443683,-0.994729,0.00365694,0.0109577,1462,379,2.36716,13.0343
245,645,2.37427,-12.9117,-0.00261872,0.00036717,-0.00398348,0.00312828,-0.00537983,-0.964689,0.00496917,0.0115838,1469,379,2.37431,12.9117
252,645,2.38416,-12.7168,-0.00233701,0.00111568,-0.00519093,0.0048598,-0.00608113,-0.94593,0.00632985,0.0178435,1476,379,2.38411,12.7168
259,645,2.33789,-12.5244,-0.00181086,0.00201691,-0.00606484,0.00646268,-0.00625663,-0.938239,0.00734382,0.0276304,1483,379,2.33791,12.5244
266,645,2.32751,-12.3522,-0.00133855,0.00344451,-0.00674343,0.00820792,-0.00610197,-0.955802,0.00829159,0.0260024,1490,379,2.3275,12.3522
273,645,2.36267,-12.2268,-0.000791703,0.00438279,-0.00705609,0.00931101,-0.00571992,-0.961121,0.00876028,0.0275946,1497,379,2.36273,12.2268
280,645,2.47034,-12.095,3.30295e-05,0.00545804,-0.00665305,0.00993029,-0.00443923,-0.978965,0.00849576,0.0478294,1504,379,2.47034,12.095
287,645,2.91028,-11.598,0,0,0,0,0,0,0,-1,1511,379,2.91031,11.598
294,645,2.75757,-11.9307,0,0,0,0,0,0,0,-1,1518,379,2.75761,11.9307
301,645,2.54126,-11.9387,0,0,0,0,0,0,0,-1,1525,379,2.54126,11.9387
308,645,2.776,-11.6742,0,0,0,0,0,0,0,-1,1532,379,2.77596,11.6742
315,645,2.33252,-11.1938,0,0,0,0,0,0,0,-1,1539,379,2.33248,11.1937
322,645,2.66357,-10.354,0,0,0,0,0,0,0,-1,1546,379,2.66354,10.354
329,645,2.42358,-9.06589,0,0,0,0,0,0,0,-1,1553,379,2.4236,9.06589
336,645,0.61792,-6.51047,0,0,0,0,0,0,0,-1,1560,379,0.617879,6.51047
343,645,3.48962,-5.22675,0,0,0,0,0,0,0,-1,1567,379,3.48959,5.22675
350,645,3.93213,-5.72198,0,0,0,0,0,0,0,-1,1574,379,3.9321,5.72198
357,645,1.63928,-6.465,0,0,0,0,0,0,0,-1,1581,379,1.63926,6.46499
364,645,-0.0794678,-3.22021,0,0,0,0,0,0,0,-1,1588,379,-0.0794987,3.22021
371,645,0,0,0,0,0,0,0,0,0,-1,1595,379,0,0
378,645,0,0,0,0,0,0,0,0,0,-1,1602,379,0,0
385,645,0,0,0,0,0,0,0,0,0,-1,1609,379,0,0
392,645,0,0,0,0,0,0,0,0,0,-1,1616,379,0,0
399,645,0,0,0,0,0,0,0,0,0,-1,1623,379,0,0
406,645,0,0,0,0,0,0,0,0,0,-1,1630,379,0,0
413,645,0,0,0,0,0,0,0,0,0,-1,1637,379,0,0
420,645,0,0,0,0,0,0,0,0,0,-1,1644,379,0,0
427,645,0,0,0,0,0,0,0,0,0,-1,1651,379,0,0
434,645,0,0,0,0,0,0,0,0,0,-1,1658,379,0,0
441,645,0,0,0,0,0,0,0,0,0,-1,1665,379,0,0
448,645,0,0,0,0,0,0,0,0,0,-1,1672,379,0,0
455,645,0,0,0,0,0,0,0,0,0,-1,1679,379,0,0
462,645,0,0,0,0,0,0,0,0,0,-1,1686,379,0,0
469,645,0,0,0,0,0,0,0,0,0,-1,1693,379,0,0
476,645,0,0,0,0,0,0,0,0,0,-1,1700,379,0,0
483,645,0,0,0,0,0,0,0,0,0,-1,1707,379,0,0
490,645,0,0,0,0,0,0,0,0,0,-1,1714,379,0,0
497,645,0,0,0,0,0,0,0,0,0,-1,1721,379,0,0
504,645,0,0,0,0,0,0,0,0,0,-1,1728,379,0,0
511,645,0,0,0,0,0,0,0,0,0,-1,1735,379,0,0
518,645,0,0,0,0,0,0,0,0,0,-1,1742,379,0,0
525,645,0,0,0,0,0,0,0,0,0,-1,1749,379,0,0
532,645,0,0,0,0,0,0,0,0,0,-1,1756,379,0,0
539,645,0,0,0,0,0,0,0,0,0,-1,1763,379,0,0
546,645,0,0,0,0,0,0,0,0,0,-1,1770,379,0,0
553,645,0,0,0,0,0,0,0,0,0,-1,1777,379,0,0
560,645,0,0,0,0,0,0,0,0,0,-1,1784,379,0,0
567,645,0,0,0,0,0,0,0,0,0,-1,1791,379,0,0
574,645,0,0,0,0,0,0,0,0,0,-1,1798,379,0,0
581,645,0,0,0,0,0,0,0,0,0,-1,1805,379,0,0
588,645,0,0,0,0,0,0,0,0,0,-1,1812,379,0,0
595,645,0,0,0,0,0,0,0,0,0,-1,1819,379,0,0
602,645,0,0,0,0,0,0,0,0,0,-1,1826,379,0,0
609,645,0,0,0,0,0,0,0,0,0,-1,1833,379,0,0
616,645,0,0,0,0,0,0,0,0,0,-1,1840,379,0,0
623,645,0,0,0,0,0,0,0,0,0,-1,1847,379,0,0
630,645,0,0,0,0,0,0,0,0,0,-1,1854,379,0,0
637,645,0,0,0,0,0,0,0,0,0,-1,1861,379,0,0
644,645,0,0,0,0,0,0,0,0,0,-1,1868,379,0,0
651,645,0,0,0,0,0,0,0,0,0,-1,1875,379,0,0
658,645,0,0,0,0,0,0,0,0,0,-1,1882,379,0,0
665,645,0,0,0,0,0,0,0,0,0,-1,1889,379,0,0
672,645,0,0,0,0,0,0,0,0,0,-1,1896,379,0,0
679,645,0,0,0,0,0,0,0,0,0,-1,1903,379,0,0
686,645,0,0,0,0,0,0,0,0,0,-1,1910,379,0,0
693,645,0,0,0,0,0,0,0,0,0,-1,1917,379,0,0
700,645,0,0,0,0,0,0,0,0,0,-1,1924,379,0,0
707,645,0,0,0,0,0,0,0,0,0,-1,1931,379,0,0
714,645,0,0,0,0,0,0,0,0,0,-1,1938,379,0,0
721,645,0,0,0,0,0,0,0,0,0,-1,1945,379,0,0
728,645,0,0,0,0,0,0,0,0,0,-1,1952,379,0,0
735,645,0,0,0,0,0,0,0,0,0,-1,1959,379,0,0
742,645,0,0,0,0,0,0,0,0,0,-1,1966,379,0,0
749,645,0,0,0,0,0,0,0,0,0,-1,1973,379,0,0
756,645,0,0,0,0,0,0,0,0,0,-1,1980,379,0,0
763,645,0,0,0,0,0,0,0,0,0,-1,1987,379,0,0
770,645,0,0,0,0,0,0,0,0,0,-1,1994,379,0,0
777,645,0,0,0,0,0,0,0,0,0,-1,2001,379,0,0
784,645,0,0,0,0,0,0,0,0,0,-1,2008,379,0,0
791,645,0,0,0,0,0,0,0,0,0,-1,2015,379,0,0
798,645,0,0,0,0,0,0,0,0,0,-1,2022,379,0,0
805,645,0,0,0,0,0,0,0,0,0,-1,2029,379,0,0
812,645,0,0,0,0,0,0,0,0,0,-1,2036,379,0,0
-700,638,0,0,0,0,0,0,0,0,0,-1,524,386,0,0
-693,638,0,0,0,0,0,0,0,0,0,-1,531,386,0,0
-686,638,0,0,0,0,0,0,0,0,0,-1,538,386,0,0
-679,638,0,0,0,0,0,0,0,0,0,-1,545,386,0,0
-672,638,0,0,0,0,0,0,0,0,0,-1,552,386,0,0
-665,638,0,0,0,0,0,0,0,0,0,-1,559,386,0,0
-658,638,0,0,0,0,0,0,0,0,0,-1,566,386,0,0
-651,638,0,0,0,0,0,0,0,0,0,-1,573,386,0,0
-644,638,0,0,0,0,0,0,0,0,0,-1,580,386,0,0
-637,638,0,0,0,0,0,0,0,0,0,-1,587,386,0,0
-630,638,0,0,0,0,0,0,0,0,0,-1,594,386,0,0
-623,638,0,0,0,0,0,0,0,0,0,-1,601,386,0,0
-616,638,0,0,0,0,0,0,0,0,0,-1,608,386,0,0
-609,638,0,0,0,0,0,0,0,0,0,-1,615,386,0,0
-602,638,0,0,0,0,0,0,0,0,0,-1,622,386,0,0
-595,638,0,0,0,0,0,0,0,0,0,-1,629,386,0,0
-588,638,0,0,0,0,0,0,0,0,0,-1,636,386,0,0
-581,638,0,0,0,0,0,0,0,0,0,-1,643,386,0,0
-574,638,0,0,0,0,0,0,0,0,0,-1,650,386,0,0
-567,638,0,0,0,0,0,0,0,0,0,-1,657,386,0,0
-560,638,0,0,0,0,0,0,0,0,0,-1,664,386,0,0
-553,638,0,0,0,0,0,0,0,0,0,-1,671,386,0,0
-546,638,0,0,0,0,0,0,0,0,0,-1,678,386,0,0
-539,638,0,0,0,0,0,0,0,0,0,-1,685,386,0,0
-532,638,0,0,0,0,0,0,0,0,0,-1,692,386,0,0
-525,638,0,0,0,0,0,0,0,0,0,-1,699,386,0,0
-518,638,0,0,0,0,0,0,0,0,0,-1,706,386,0,0
-511,638,0,0,0,0,0,0,0,0,0,-1,713,386,0,0
-504,638,0,0,0,0,0,0,0,0,0,-1,720,386,0,0
-497,638,0,0,0,0,0,0,0,0,0,-1,727,386,0,0
-490,638,0,0,0,0,0,0,0,0,0,-1,734,386,0,0
-483,638,0,0,0,0,0,0,0,0,0,-1,741,386,0,0
-476,638,0,0,0,0,0,0,0,0,0,-1,748,386,0,0
-469,638,0,0,0,0,0,0,0,0,0,-1,755,386,0,0
-462,638,0,0,0,0,0,0,0,0,0,-1,762,386,0,0
-455,638,0,0,0,0,0,0,0,0,0,-1,769,386,0,0
-448,638,0,0,0,0,0,0,0,0,0,-1,776,386,0,0
-441,638,0,0,0,0,0,0,0,0,0,-1,783,386,0,0
-434,638,0,0,0,0,0,0,0,0,0,-1,790,386,0,0
-427,638,0,0,0,0,0,0,0,0,0,-1,797,386,0,0
-420,638,0,0,0,0,0,0,0,0,0,-1,804,386,0,0
-413,638,0,0,0,0,0,0,0,0,0,-1,811,386,0,0
-406,638,0,0,0,0,0,0,0,0,0,-1,818,386,0,0
-399,638,0,0,0,0,0,0,0,0,0,-1,825,386,0,0
-392,638,0,0,0,0,0,0,0,0,0,-1,832,386,0,0
-385,638,0,0,0,0,0,0,0,0,0,-1,839,386,0,0
-378,638,0,0,0,0,0,0,0,0,0,-1,846,386,0,0
-371,638,0,0,0,0,0,0,0,0,0,-1,853,386,0,0
-364,638,0,0,0,0,0,0,0,0,0,-1,860,386,0,0
-357,638,0,0,0,0,0,0,0,0,0,-1,867,386,0,0
-350,638,0,0,0,0,0,0,0,0,0,-1,874,386,0,0
-343,638,0,0,0,0,0,0,0,0,0,-1,881,386,0,0
-336,638,0,0,0,0,0,0,0,0,0,-1,888,386,0,0
-329,638,0,0,0,0,0,0,0,0,0,-1,895,386,0,0
-322,638,0,0,0,0,0,0,0,0,0,-1,902,386,0,0
-315,638,0,0,0,0,0,0,0,0,0,-1,909,386,0,0
-308,638,0,0,0,0,0,0,0,0,0,-1,916,386,0,0
-301,638,0,0,0,0,0,0,0,0,0,-1,923,386,0,0
-294,638,0,0,0,0,0,0,0,0,0,-1,930,386,0,0
-287,638,0,0,0,0,0,0,0,0,0,-1,937,386,0,0
-280,638,0,0,0,0,0,0,0,0,0,-1,944,386,0,0
-273,638,0,0,0,0,0,0,0,0,0,-1,951,386,0,0
-266,638,0.603821,-10.3962,0,0,0,0,0,0,0,-1,958,386,0.603829,10.3962
-259,638,9.24457,-8.64029,0,0,0,0,0,0,0,-1,965,386,9.24457,8.64028
-252,638,8.62463,-8.76974,0,0,0,0,0,0,0,-1,972,386,8.62463,8.76974
-245,638,7.86023,-9.08749,0,0,0,0,0,0,0,-1,979,386,7.86023,9.08748
-238,638,3.05347,-9.05939,0,0,0,0,0,0,0,-1,986,386,3.05344,9.05939
-231,638,-0.0879517,-10.0367,0,0,0,0,0,0,0,-1,993,386,-0.0879783,10.0367
-224,638,-0.990479,-9.01202,0,0,0,0,0,0,0,-1,1000,386,-0.990463,9.01204
-217,638,-0.470337,-14.8554,0,0,0,0,0,0,0,-1,1007,386,-0.470331,14.8554
-210,638,0.0127563,-13.7673,0,0,0,0,0,0,0,-1,1014,386,0.0127578,13.7673
-203,638,0.749573,-12.3973,0,0,0,0,0,0,0,-1,1021,386,0.749547,12.3973
-196,638,2.31567,-11.9454,0,0,0,0,0,0,0,-1,1028,386,2.31571,11.9454
-189,638,2.76831,-11.8178,0,0,0,0,0,0,0,-1,1035,386,2.76826,11.8178
-182,638,2.92395,-12.1538,0,0,0,0,0,0,0,-1,1042,386,2.92391,12.1538
-175,638,2.72729,-12.391,-0.000904338,-0.00132053,-0.00583176,0.00472304,-0.00694791,-0.767564,0.00677891,0.0438802,1049,386,2.72734,12.391
-168,638,2.80762,-12.6171,0.00204268,-0.00108534,-0.0066701,0.00732968,-0.00637235,-0.670238,0.0079173,0.0331718,1056,386,2.80762,12.6171
-161,638,2.77881,-12.7897,0.00397895,-6.96232e-05,-0.00702056,0.00926124,-0.00535191,-0.645037,0.00853695,0.0290477,1063,386,2.7788,12.7897
-154,638,2.80566,-12.9369,0.0053049,0.000729398,-0.00743927,0.0108002,-0.00476595,-0.636226,0.00920949,0.0223115,1070,386,2.80566,12.9369
-147,638,2.7959,-13.0771,0.00623678,0.00193108,-0.00741039,0.0118007,-0.00363284,-0.644031,0.00931723,0.0183301,1077,386,2.79591,13.0771
-140,638,2.77124,-13.187,0.00681541,0.00322893,-0.00707812,0.0123239,-0.00227957,-0.661334,0.00907178,0.0147763,1084,386,2.77119,13.187
-133,638,2.76782,-13.3492,0.00697349,0.00404917,-0.00660258,0.0122739,-0.0012512,-0.67643,0.00862994,0.0113293,1091,386,2.76782,13.3492
-126,638,2.76404,-13.4557,0.006694,0.00490631,-0.00605982,0.0119255,-0.000325236,-0.712174,0.00806096,0.0126773,1098,386,2.76401,13.4557
-119,638,2.75708,-13.5656,0.00608199,0.00550357,-0.00533986,0.0111405,0.000445093,-0.758345,0.00728315,0.0146162,1105,386,2.75709,13.5656
-112,638,2.72607,-13.6937,0.00555195,0.00621585,-0.00475523,0.0106507,0.0011171,-0.820245,0.00675895,0.0137116,1112,386,2.72612,13.6937
-105,638,2.69287,-13.809,0.00449285,0.00644329,-0.00383277,0.00942296,0.00151318,-0.909976,0.00584326,0.0155019,1119,386,2.69292,13.809
-98,638,2.68298,-13.9139,0.00327211,0.00628455,-0.00301287,0.00814672,0.00140994,-1.01719,0.00502751,0.0146094,1126,386,2.68293,13.9139
-91,638,2.65649,-14.0018,0.00228305,0.00600448,-0.00231615,0.00711476,0.00117277,-1.12379,0.0044046,0.0120312,1133,386,2.6565,14.0018
-84,638,2.62,-14.0876,0.00156585,0.00525186,-0.00169114,0.00591018,0.000907536,-1.19957,0.00367515,0.0146023,1140,386,2.61994,14.0876
-77,638,2.63025,-14.181,0.000654449,0.00426271,-0.000894888,0.00447246,0.0004447,-1.34057,0.00284501,0.0117021,1147,386,2.63028,14.181
-70,638,2.65393,-14.2577,-0.000107574,0.00331851,-0.000334894,0.00335093,-0.000140003,-1.47427,0.00228206,0.0100445,1154,386,2.65397,14.2577
-63,638,2.64233,-14.3522,-0.000396615,0.00260787,-0.000213214,0.00262293,-0.000411671,-1.5003,0.00190076,0.0108645,1161,386,2.64237,14.3522
-56,638,2.62585,-14.4478,-0.000176824,0.00205314,-0.000238906,0.00207845,-0.000202132,-1.46526,0.00145769,0.0144892,1168,386,2.62588,14.4478
-49,638,2.62964,-14.4991,7.62605e-05,0.00172231,-9.60408e-05,0.0017279,7.06759e-05,-1.51271,0.00112911,0.0123481,1175,386,2.62965,14.4991
-42,638,2.64905,-14.5584,8.7659e-05,0.000950078,-3.76511e-05,0.000951718,8.60184e-05,-1.52725,0.000607838,0.0114218,1182,386,2.64909,14.5584
-35,638,2.6427,-14.6116,1.91483e-05,-0.000178274,-9.38888e-06,1.95938e-05,-0.00017872,-0.0474146,0.000126186,0.0106597,1189,386,2.64267,14.6116
-28,638,2.62964,-14.6524,0.000139372,-0.000853784,0.000162987,0.000165435,-0.000879848,0.158571,0.00064878,0.00996802,1196,386,2.62962,14.6524
-21,638,2.59814,-14.6938,0.000223464,-0.00154631,0.000328471,0.000282462,-0.0016053,0.177719,0.00117572,0.011316,1203,386,2.59819,14.6938
-14,638,2.58911,-14.7497,0.000257625,-0.00207554,0.000460737,0.000345313,-0.00216323,0.188071,0.00156996,0.0107144,1210,386,2.58916,14.7497
-7,638,2.60437,-14.8256,0.000290747,-0.00241362,0.000490713,0.000377034,-0.00249991,0.174062,0.00180546,0.0151163,1217,386,2.60433,14.8256
0,638,2.62988,-14.8197,0.000293986,-0.00263002,0.000486866,0.000372922,-0.00270895,0.160731,0.00194225,0.0278246,1224,386,2.62991,14.8197
7,638,2.60718,-14.8706,0.000309818,-0.00262943,0.000476923,0.000385267,-0.00270488,0.156899,0.00194444,0.0224437,1231,386,2.60723,14.8706
14,638,2.60706,-14.8961,0.000268056,-0.00256267,0.000506577,0.000355981,-0.0026506,0.171853,0.00189689,0.01278,1238,386,2.60706,14.896
21,638,2.59583,-14.9221,0.000145106,-0.00230427,0.00057993,0.000275475,-0.00243464,0.221126,0.00172227,0.0102944,1245,386,2.59582,14.922
28,638,2.58679,-14.9148,0.000115612,-0.0019815,0.000735099,0.000347618,-0.00221351,0.305717,0.00160415,0.00801722,1252,386,2.58681,14.9148
35,638,2.5835,-14.9253,0.00017563,-0.00160359,0.00096145,0.000595903,-0.00202386,0.412095,0.00158565,0.00964719,1259,386,2.58344,14.9252
42,638,2.58789,-14.938,0.000240386,-0.00109412,0.00117592,0.000925176,-0.00177891,0.527335,0.00158693,0.00932369,1266,386,2.58793,14.9381
49,638,2.61621,-14.9179,0.000289369,-0.000533788,0.0013663,0.00130473,-0.00154915,0.639103,0.00164971,0.00809887,1273,386,2.61618,14.9179
56,638,2.62012,-14.9001,0.000437992,7.96583e-05,0.00161043,0.00187919,-0.00136154,0.729999,0.00187898,0.0108388,1280,386,2.62012,14.9001
63,638,2.62976,-14.9209,0.000635195,0.000669271,0.00178345,0.00243576,-0.0011313,0.790175,0.00210485,0.0127438,1287,386,2.62977,14.9209
70,638,2.57471,-14.9146,0.000871681,0.00125065,0.00184379,0.00291467,-0.00079233,0.836604,0.00225413,0.0162406,1294,386,2.57474,14.9147
77,638,2.54895,-14.8961,0.0011286,0.00174969,0.00177867,0.00324472,-0.000366425,0.871823,0.00229506,0.0174283,1301,386,2.54896,14.8961
84,638,2.61328,-14.8432,0.00130735,0.00212234,0.00165042,0.00341483,1.48598e-05,0.906429,0.00227162,0.0131551,1308,386,2.61333,14.8432
91,638,2.59558,-14.8104,0.00137056,0.00235866,0.00146125,0.00340711,0.000322101,0.948416,0.00217202,0.0134034,1315,386,2.59557,14.8104
98,638,2.58679,-14.7766,0.00132803,0.00249899,0.00132059,0.00335807,0.000468951,0.994051,0.00209992,0.0121191,1322,386,2.58676,14.7766
105,638,2.58423,-14.7394,0.00126682,0.00242559,0.00115972,0.00314259,0.000549814,1.01706,0.00193797,0.00884306,1329,386,2.58418,14.7394
112,638,2.573,-14.706,0.00118906,0.00223945,0.000993431,0.00283797,0.000590541,1.02856,0.00172908,0.00890673,1336,386,2.57305,14.706
119,638,2.58313,-14.6714,0.00110335,0.00207531,0.00083797,0.00255803,0.000620639,1.04817,0.00154072,0.0108237,1343,386,2.58318,14.6714
126,638,2.6012,-14.6,0.000991717,0.00175977,0.000729294,0.00219997,0.000551519,1.02774,0.00132173,0.0140797,1350,386,2.60125,14.6
133,638,2.58276,-14.5215,0.000717287,0.00140192,0.00065937,0.00180254,0.000316671,1.02483,0.00111128,0.0143226,1357,386,2.58281,14.5216
140,638,2.56055,-14.4685,0.000407271,0.00103117,0.000662357,0.00145136,-1.29195e-05,1.00547,0.000971908,0.01491,1364,386,2.56053,14.4685
147,638,2.5708,-14.4233,0.000199059,0.000605299,0.000747076,0.00117638,-0.000372018,0.918133,0.000933307,0.0174995,1371,386,2.57081,14.4233
154,638,2.58093,-14.3593,0.000102205,0.000352514,0.000786054,0.00102331,-0.000568595,0.864345,0.000931504,0.0159056,1378,386,2.58092,14.3593
161,638,2.60291,-14.2526,3.07793e-05,1.25219e-05,0.000809537,0.000831239,-0.000787938,0.77976,0.000934943,0.0175345,1385,386,2.60293,14.2526
168,638,2.6012,-14.174,-6.22759e-05,-3.81197e-05,0.000888741,0.000838625,-0.000939021,0.792193,0.00102687,0.0218175,1392,386,2.60118,14.1739
175,638,2.6261,-14.0966,-0.00016946,8.91588e-05,0.000946007,0.000914653,-0.000994954,0.853322,0.00110284,0.0182162,1399,386,2.62615,14.0966
182,638,2.58081,-13.9971,-0.000218725,0.000257143,0.000943601,0.000992346,-0.000953928,0.908901,0.00112375,0.0126322,1406,386,2.58087,13.9971
189,638,2.54993,-13.8918,-0.000287791,0.000284329,0.00106858,0.00110448,-0.00110794,0.916182,0.00127734,0.011301,1413,386,2.54989,13.8918
196,638,2.56726,-13.7747,-0.000531829,0.000102963,0.00117011,0.000997964,-0.00142683,0.917837,0.00140724,0.0140423,1420,386,2.56727,13.7747
203,638,2.55298,-13.6792,-0.0010374,-0.000539776,0.000982613,0.000225037,-0.00180221,0.9094,0.00128308,0.0195634,1427,386,2.55299,13.6792
210,638,2.54993,-13.5939,-0.00140726,-0.000590054,0.00111939,0.000192982,-0.00219029,0.960395,0.00152859,0.0161538,1434,386,2.54989,13.5939
217,638,2.53857,-13.4831,-0.00173847,-0.000333828,0.000523767,-0.000160029,-0.00191227,1.2504,0.00122499,0.0121435,1441,386,2.53863,13.4831
224,638,2.51672,-13.3445,-0.00191042,-0.000299234,-0.000419332,-0.000196632,-0.00201303,-1.33083,0.00128151,0.0109941,1448,386,2.51673,13.3445
231,638,2.4989,-13.197,-0.00186911,-5.35747e-05,-0.00101394,0.000399584,-0.00232226,-1.1505,0.00169712,0.0110613,1455,386,2.49885,13.197
238,638,2.48865,-13.0723,-0.00178229,0.00039891,-0.00161016,0.00125305,-0.00263643,-1.08307,0.00229245,0.0112407,1462,386,2.48863,13.0723
245,638,2.48376,-12.9374,-0.00175551,0.000846977,-0.00228611,0.00217624,-0.00308477,-1.04413,0.0030525,0.0131809,1469,386,2.48381,12.9374
252,638,2.48279,-12.7876,-0.00152698,0.00149505,-0.00297357,0.00331949,-0.00335142,-1.02047,0.00385147,0.0153178,1476,386,2.48285,12.7876
259,638,2.46912,-12.6417,-0.00115347,0.00222654,-0.00338478,0.00431977,-0.0032467,-1.01694,0.00438312,0.0136956,1483,386,2.46906,12.6417
266,638,2.44373,-12.5062,-0.000856347,0.00331735,-0.00365483,0.00543915,-0.00297814,-1.0448,0.00492848,0.0102446,1490,386,2.44378,12.5062
273,638,2.4386,-12.3726,-0.000512558,0.00400632,-0.00372102,0.00610016,-0.0026064,-1.05825,0.00515987,0.0109798,1497,386,2.43858,12.3726
280,638,2.51062,-12.1338,4.51559e-05,0.00478374,-0.00324531,0.0064326,-0.00160371,-1.10071,0.00491105,0.0233661,1504,386,2.51062,12.1338
287,638,2.79492,-11.7704,0.00032049,0.00563465,-0.00242588,0.00657548,-0.000620345,-1.20082,0.00460439,0.0393201,1511,386,2.79488,11.7704
294,638,2.71155,-11.7433,0.000458173,0.00666618,-0.00146115,0.00699289,0.000131461,-1.35082,0.00461873,0.0480597,1518,386,2.71155,11.7433
301,638,2.49084,-11.4633,0,0,0,0,0,0,0,-1,1525,386,2.49087,11.4632
308,638,2.64856,-11.3931,0,0,0,0,0,0,0,-1,1532,386,2.6485,11.3931
315,638,2.47241,-11.2229,0,0,0,0,0,0,0,-1,1539,386,2.47243,11.2229
322,638,2.33374,-11.0858,0,0,0,0,0,0,0,-1,1546,386,2.33372,11.0858
329,638,2.828,-10.1392,0,0,0,0,0,0,0,-1,1553,386,2.82796,10.1392
336,638,2.20642,-7.77731,0,0,0,0,0,0,0,-1,1560,386,2.20646,7.7773
343,638,1.04028,-10.3387,0,0,0,0,0,0,0,-1,1567,386,1.04031,10.3387
350,638,2.3783,-11.33,0,0,0,0,0,0,0,-1,1574,386,2.37831,11.33
357,638,0.130371,-3.02618,0,0,0,0,0,0,0,-1,1581,386,0.130345,3.0262
364,638,3.78149,-6.45215,0,0,0,0,0,0,0,-1,1588,386,3.78155,6.45216
371,638,4.18604,-6.71164,0,0,0,0,0,0,0,-1,1595,386,4.18598,6.71164
378,638,4.59045,-6.97113,0,0,0,0,0,0,0,-1,1602,386,4.5904,6.97112
385,638,0,0,0,0,0,0,0,0,0,-1,1609,386,0,0
392,638,0,0,0,0,0,0,0,0,0,-1,1616,386,0,0
399,638,0,0,0,0,0,0,0,0,0,-1,1623,386,0,0
406,638,0,0,0,0,0,0,0,0,0,-1,1630,386,0,0
413,638,0,0,0,0,0,0,0,0,0,-1,1637,386,0,0
420,638,0,0,0,0,0,0,0,0,0,-1,1644,386,0,0
427,638,0,0,0,0,0,0,0,0,0,-1,1651,386,0,0
434,638,0,0,0,0,0,0,0,0,0,-1,1658,386,0,0
441,638,0,0,0,0,0,0,0,0,0,-1,1665,386,0,0
448,638,0,0,0,0,0,0,0,0,0,-1,1672,386,0,0
455,638,0,0,0,0,0,0,0,0,0,-1,1679,386,0,0
462,638,0,0,0,0,0,0,0,0,0,-1,1686,386,0,0
469,638,0,0,0,0,0,0,0,0,0,-1,1693,386,0,0
476,638,0,0,0,0,0,0,0,0,0,-1,1700,386,0,0
483,638,0,0,0,0,0,0,0,0,0,-1,1707,386,0,0
490,638,0,0,0,0,0,0,0,0,0,-1,1714,386,0,0
497,638,0,0,0,0,0,0,0,0,0,-1,1721,386,0,0
504,638,0,0,0,0,0,0,0,0,0,-1,1728,386,0,0
511,638,0,0,0,0,0,0,0,0,0,-1,1735,386,0,0
518,638,0,0,0,0,0,0,0,0,0,-1,1742,386,0,0
525,638,0,0,0,0,0,0,0,0,0,-1,1749,386,0,0
532,638,0,0,0,0,0,0,0,0,0,-1,1756,386,0,0
539,638,0,0,0,0,0,0,0,0,0,-1,1763,386,0,0
546,638,0,0,0,0,0,0,0,0,0,-1,1770,386,0,0
553,638,0,0,0,0,0,0,0,0,0,-1,1777,386,0,0
560,638,0,0,0,0,0,0,0,0,0,-1,1784,386,0,0
567,638,0,0,0,0,0,0,0,0,0,-1,1791,386,0,0
574,638,0,0,0,0,0,0,0,0,0,-1,1798,386,0,0
581,638,0,0,0,0,0,0,0,0,0,-1,1805,386,0,0
588,638,0,0,0,0,0,0,0,0,0,-1,1812,386,0,0
595,638,0,0,0,0,0,0,0,0,0,-1,1819,386,0,0
602,638,0,0,0,0,0,0,0,0,0,-1,1826,386,0,0
609,638,0,0,0,0,0,0,0,0,0,-1,1833,386,0,0
616,638,0,0,0,0,0,0,0,0,0,-1,1840,386,0,0
623,638,0,0,0,0,0,0,0,0,0,-1,1847,386,0,0
630,638,0,0,0,0,0,0,0,0,0,-1,1854,386,0,0
637,638,0,0,0,0,0,0,0,0,0,-1,1861,386,0,0
644,638,0,0,0,0,0,0,0,0,0,-1,1868,386,0,0
651,638,0,0,0,0,0,0,0,0,0,-1,1875,386,0,0
658,638,0,0,0,0,0,0,0,0,0,-1,1882,386,0,0
665,638,0,0,0,0,0,0,0,0,0,-1,1889,386,0,0
672,638,0,0,0,0,0,0,0,0,0,-1,1896,386,0,0
679,638,0,0,0,0,0,0,0,0,0,-1,1903,386,0,0
686,638,0,0,0,0,0,0,0,0,0,-1,1910,386,0,0
693,638,0,0,0,0,0,0,0,0,0,-1,1917,386,0,0
700,638,0,0,0,0,0,0,0,0,0,-1,1924,386,0,0
707,638,0,0,0,0,0,0,0,0,0,-1,1931,386,0,0
714,638,0,0,0,0,0,0,0,0,0,-1,1938,386,0,0
721,638,0,0,0,0,0,0,0,0,0,-1,1945,386,0,0
728,638,0,0,0,0,0,0,0,0,0,-1,1952,386,0,0
735,638,0,0,0,0,0,0,0,0,0,-1,1959,386,0,0
742,638,0,0,0,0,0,0,0,0,0,-1,1966,386,0,0
749,638,0,0,0,0,0,0,0,0,0,-1,1973,386,0,0
756,638,0,0,0,0,0,0,0,0,0,-1,1980,386,0,0
763,638,0,0,0,0,0,0,0,0,0,-1,1987,386,0,0
770,638,0,0,0,0,0,0,0,0,0,-1,1994,386,0,0
777,638,0,0,0,0,0,0,0,0,0,-1,2001,386,0,0
784,638,0,0,0,0,0,0,0,0,0,-1,2008,386,0,0
791,638,0,0,0,0,0,0,0,0,0,-1,2015,386,0,0
798,638,0,0,0,0,0,0,0,0,0,-1,2022,386,0,0
805,638,0,0,0,0,0,0,0,0,0,-1,2029,386,0,0
812,638,0,0,0,0,0,0,0,0,0,-1,2036,386,0,0
-700,631,0,0,0,0,0,0,0,0,0,-1,524,393,0,0
-693,631,0,0,0,0,0,0,0,0,0,-1,531,393,0,0
-686,631,0,0,0,0,0,0,0,0,0,-1,538,393,0,0
-679,631,0,0,0,0,0,0,0,0,0,-1,545,393,0,0
-672,631,0,0,0,0,0,0,0,0,0,-1,552,393,0,0
-665,631,0,0,0,0,0,0,0,0,0,-1,559,393,0,0
-658,631,0,0,0,0,0,0,0,0,0,-1,566,393,0,0
-651,631,0,0,0,0,0,0,0,0,0,-1,573,393,0,0
-644,631,0,0,0,0,0,0,0,0,0,-1,580,393,0,0
-637,631,0,0,0,0,0,0,0,0,0,-1,587,393,0,0
-630,631,0,0,0,0,0,0,0,0,0,-1,594,393,0,0
-623,631,0,0,0,0,0,0,0,0,0,-1,601,393,0,0
-616,631,0,0,0,0,0,0,0,0,0,-1,608,393,0,0
-609,631,0,0,0,0,0,0,0,0,0,-1,615,393,0,0
-602,631,0,0,0,0,0,0,0,0,0,-1,622,393,0,0
-595,631,0,0,0,0,0,0,0,0,0,-1,629,393,0,0
-588,631,0,0,0,0,0,0,0,0,0,-1,636,393,0,0
-581,631,0,0,0,0,0,0,0,0,0,-1,643,393,0,0
-574,631,0,0,0,0,0,0,0,0,0,-1,650,393,0,0
-567,631,0,0,0,0,0,0,0,0,0,-1,657,393,0,0
-560,631,0,0,0,0,0,0,0,0,0,-1,664,393,0,0
-553,631,0,0,0,0,0,0,0,0,0,-1,671,393,0,0
-546,631,0,0,0,0,0,0,0,0,0,-1,678,393,0,0
-539,631,0,0,0,0,0,0,0,0,0,-1,685,393,0,0
-532,631,0,0,0,0,0,0,0,0,0,-1,692,393,0,0
-525,631,0,0,0,0,0,0,0,0,0,-1,699,393,0,0
-518,631,0,0,0,0,0,0,0,0,0,-1,706,393,0,0
-511,631,0,0,0,0,0,0,0,0,0,-1,713,393,0,0
-504,631,0,0,0,0,0,0,0,0,0,-1,720,393,0,0
-497,631,0,0,0,0,0,0,0,0,0,-1,727,393,0,0
-490,631,0,0,0,0,0,0,0,0,0,-1,734,393,0,0
-483,631,0,0,0,0,0,0,0,0,0,-1,741,393,0,0
-476,631,0,0,0,0,0,0,0,0,0,-1,748,393,0,0
-469,631,0,0,0,0,0,0,0,0,0,-1,755,393,0,0
-462,631,0,0,0,0,0,0,0,0,0,-1,762,393,0,0
-455,631,0,0,0,0,0,0,0,0,0,-1,769,393,0,0
-448,631,0,0,0,0,0,0,0,0,0,-1,776,393,0,0
-441,631,0,0,0,0,0,0,0,0,0,-1,783,393,0,0
-434,631,0,0,0,0,0,0,0,0,0,-1,790,393,0,0
-427,631,0,0,0,0,0,0,0,0,0,-1,797,393,0,0
-420,631,0,0,0,0,0,0,0,0,0,-1,804,393,0,0
-413,631,0,0,0,0,0,0,0,0,0,-1,811,393,0,0
-406,631,0,0,0,0,0,0,0,0,0,-1,818,393,0,0
-399,631,0,0,0,0,0,0,0,0,0,-1,825,393,0,0
-392,631,0,0,0,0,0,0,0,0,0,-1,832,393,0,0
-385,631,0,0,0,0,0,0,0,0,0,-1,839,393,0,0
-378,631,0,0,0,0,0,0,0,0,0,-1,846,393,0,0
-371,631,0,0,0,0,0,0,0,0,0,-1,853,393,0,0
-364,631,0,0,0,0,0,0,0,0,0,-1,860,393,0,0
-357,631,0,0,0,0,0,0,0,0,0,-1,867,393,0,0
-350,631,0,0,0,0,0,0,0,0,0,-1,874,393,0,0
-343,631,0,0,0,0,0,0,0,0,0,-1,881,393,0,0
-336,631,0,0,0,0,0,0,0,0,0,-1,888,393,0,0
-329,631,0,0,0,0,0,0,0,0,0,-1,895,393,0,0
-322,631,0,0,0,0,0,0,0,0,0,-1,902,393,0,0
-315,631,0,0,0,0,0,0,0,0,0,-1,909,393,0,0
-308,631,0,0,0,0,0,0,0,0,0,-1,916,393,0,0
-301,631,0,0,0,0,0,0,0,0,0,-1,923,393,0,0
-294,631,0,0,0,0,0,0,0,0,0,-1,930,393,0,0
-287,631,0,0,0,0,0,0,0,0,0,-1,937,393,0,0
-280,631,1.38763,-14.3453,0,0,0,0,0,0,0,-1,944,393,1.38762,14.3453
-273,631,2.6192,-11.8094,0,0,0,0,0,0,0,-1,951,393,2.61918,11.8094
-266,631,0.616394,-9.4404,0,0,0,0,0,0,0,-1,958,393,0.616411,9.4404
-259,631,2.33258,-10.2035,0,0,0,0,0,0,0,-1,965,393,2.33256,10.2035
-252,631,1.69513,-10.2877,0,0,0,0,0,0,0,-1,972,393,1.69513,10.2877
-245,631,3.28119,-8.41373,0,0,0,0,0,0,0,-1,979,393,3.28122,8.41373
-238,631,2.68524,-9.32315,0,0,0,0,0,0,0,-1,986,393,2.68523,9.32315
-231,631,2.77863,-9.7507,0,0,0,0,0,0,0,-1,993,393,2.77864,9.7507
-224,631,0.539063,-9.05594,0,0,0,0,0,0,0,-1,1000,393,0.539048,9.05593
-217,631,2.8056,-11.3224,0,0,0,0,0,0,0,-1,1007,393,2.80559,11.3224
-210,631,2.7934,-11.9855,0,0,0,0,0,0,0,-1,1014,393,2.79341,11.9855
-203,631,2.61725,-11.9274,0,0,0,0,0,0,0,-1,1021,393,2.61723,11.9274
-196,631,2.7843,-11.7941,0,0,0,0,0,0,0,-1,1028,393,2.78434,11.7941
-189,631,2.69995,-11.8947,-0.00594226,-0.000150288,-0.000462065,-0.000113658,-0.00597889,-1.49169,0.00394858,0.046924,1035,393,2.69995,11.8947
-182,631,2.77222,-12.2539,-0.00370386,-0.000181191,-0.00264484,0.00123513,-0.00512018,-1.07915,0.00389106,0.0449927,1042,393,2.77221,12.254
-175,631,2.77441,-12.4406,-0.00119499,-9.24323e-05,-0.00420595,0.00359821,-0.00488564,-0.850562,0.00491692,0.034059,1049,393,2.7744,12.4406
-168,631,2.71045,-12.6643,0.000808866,-0.00025665,-0.00473961,0.00504557,-0.00449335,-0.72943,0.00551037,0.0183363,1056,393,2.7104,12.6643
-161,631,2.67993,-12.8357,0.00215302,0.000268308,-0.00493176,0.00623165,-0.00381033,-0.690997,0.00585365,0.00952405,1063,393,2.67992,12.8357
-154,631,2.67053,-12.9782,0.00314523,0.000739549,-0.0051874,0.00726742,-0.00338264,-0.671473,0.00628369,0.00887707,1070,393,2.67054,12.9782
-147,631,2.67554,-13.0964,0.0038619,0.0014295,-0.00517914,0.00796572,-0.00267432,-0.670074,0.00639123,0.00980208,1077,393,2.67551,13.0964
-140,631,2.6593,-13.2342,0.00435044,0.00222674,-0.00500225,0.0084023,-0.00182512,-0.680813,0.00629867,0.00941057,1084,393,2.65931,13.2342
-133,631,2.6416,-13.3696,0.00456725,0.00276476,-0.00469684,0.00844853,-0.00111652,-0.690609,0.00603903,0.00854386,1091,393,2.64161,13.3696
-126,631,2.65417,-13.4729,0.00448512,0.0034294,-0.00437227,0.00836128,-0.000446765,-0.725325,0.00572892,0.0126261,1098,393,2.65414,13.4729
-119,631,2.65332,-13.5574,0.00415736,0.00395711,-0.00393277,0.00799127,0.000123193,-0.772671,0.00528693,0.0147331,1105,393,2.65334,13.5574
-112,631,2.62439,-13.6847,0.00388616,0.00459409,-0.00359297,0.00785049,0.000629761,-0.834498,0.00503688,0.0136793,1112,393,2.62443,13.6847
-105,631,2.61536,-13.8183,0.00321728,0.00486893,-0.00299612,0.00715095,0.000935261,-0.919875,0.00448815,0.0182489,1119,393,2.61538,13.8183
-98,631,2.60596,-13.9137,0.00240242,0.00482927,-0.00247114,0.00636883,0.000862862,-1.01363,0.00398949,0.0151647,1126,393,2.60596,13.9137
-91,631,2.58508,-14.0135,0.00174062,0.0046713,-0.00202295,0.00570387,0.000708052,-1.09884,0.00358991,0.0159615,1133,393,2.58511,14.0135
-84,631,2.57129,-14.1031,0.00127472,0.00413114,-0.0015785,0.00483165,0.000574206,-1.15312,0.00304778,0.0154114,1140,393,2.5713,14.1031
-77,631,2.57178,-14.1827,0.000695615,0.00341793,-0.00100815,0.00375062,0.000362928,-1.25205,0.00238864,0.0104472,1147,393,2.57184,14.1827
-70,631,2.5769,-14.2486,0.000288605,0.00271061,-0.000567132,0.00283683,0.000162384,-1.35181,0.00183948,0.0109917,1154,393,2.5769,14.2486
-63,631,2.573,-14.3392,0.00018741,0.00208736,-0.000397268,0.00216708,0.000107689,-1.37275,0.0014102,0.0115775,1161,393,2.57294,14.3392
-56,631,2.56921,-14.4529,0.000367979,0.00148546,-0.000274632,0.0015493,0.000304133,-1.34238,0.000947897,0.01289,1168,393,2.56925,14.4528
-49,631,2.56909,-14.5041,0.000532069,0.00102047,-5.87166e-05,0.00102743,0.00052511,-1.45281,0.000593237,0.010998,1175,393,2.56907,14.5041
-42,631,2.57617,-14.5538,0.000591984,0.000255888,0.000131657,0.000637416,0.000210455,0.332284,0.000375022,0.00913832,1182,393,2.57621,14.5538
-35,631,2.58154,-14.6051,0.000583547,-0.00054866,0.000363114,0.000689994,-0.000655107,0.285162,0.000776682,0.00957703,1189,393,2.58155,14.6051
-28,631,2.56323,-14.6498,0.00062948,-0.0010615,0.000709175,0.000887522,-0.00131954,0.34897,0.00128236,0.0123425,1196,393,2.5632,14.6498
-21,631,2.54175,-14.7063,0.000621898,-0.00141478,0.00103263,0.00105385,-0.00184673,0.396183,0.00169538,0.011878,1203,393,2.54169,14.7063
-14,631,2.5387,-14.7605,0.000638282,-0.0015285,0.00122746,0.00119208,-0.0020823,0.423831,0.00191361,0.0138359,1210,393,2.53866,14.7605
-7,631,2.5321,-14.8456,0.000675712,-0.00142448,0.00132501,0.00131628,-0.00206505,0.450316,0.0019681,0.0197281,1217,393,2.53216,14.8456
0,631,2.52478,-14.8319,0.000572976,-0.00117421,0.00143782,0.00138179,-0.00198302,0.51241,0.00195298,0.0207099,1224,393,2.52473,14.8319
7,631,2.54285,-14.843,0.000466713,-0.000753792,0.00152241,0.00149663,-0.00178371,0.594781,0.00189632,0.0167204,1231,393,2.5428,14.843
14,631,2.57104,-14.8884,0.000349884,-0.000348719,0.00160543,0.00164357,-0.0016424,0.67828,0.00189716,0.0103478,1238,393,2.57099,14.8884
21,631,2.58545,-14.9067,0.000142479,3.58835e-05,0.00168121,0.00177124,-0.00159287,0.769553,0.00194318,0.0121449,1245,393,2.58548,14.9067
28,631,2.59839,-14.9091,1.44993e-05,0.000299548,0.0017925,0.00195519,-0.00164114,0.82507,0.00207897,0.0135069,1252,393,2.59836,14.9091
35,631,2.59338,-14.9106,-3.07321e-05,0.000466535,0.00196702,0.00220057,-0.00176477,0.848265,0.00229399,0.0131923,1259,393,2.59335,14.9106
42,631,2.58655,-14.9236,-6.62972e-05,0.000548559,0.00208449,0.00234816,-0.0018659,0.858612,0.0024383,0.0113152,1266,393,2.58656,14.9236
49,631,2.60132,-14.9213,-9.01781e-05,0.000654907,0.00217426,0.00248831,-0.00192358,0.870245,0.00255416,0.0102258,1273,393,2.60131,14.9213
56,631,2.61804,-14.9208,2.20826e-05,0.00074905,0.00234622,0.00275978,-0.00198864,0.862249,0.00275353,0.0122698,1280,393,2.61804,14.9208
63,631,2.62085,-14.9342,0.00023236,0.000934903,0.0024793,0.0030877,-0.00192043,0.855771,0.00291751,0.0142107,1287,393,2.62085,14.9342
70,631,2.6123,-14.9191,0.00058697,0.00103667,0.00244454,0.00326668,-0.00164304,0.831259,0.00288583,0.0137239,1294,393,2.61228,14.9191
77,631,2.59729,-14.8893,0.00099029,0.0011965,0.00227008,0.00336581,-0.00117902,0.808093,0.00272333,0.0140125,1301,393,2.59725,14.8893
84,631,2.62085,-14.8577,0.00130143,0.001345,0.0020921,0.00341543,-0.000768997,0.790604,0.00257189,0.0116309,1308,393,2.6209,14.8577
91,631,2.62012,-14.8212,0.00145585,0.00154495,0.00194247,0.00344338,-0.000442576,0.796863,0.00245644,0.0142718,1315,393,2.62008,14.8212
98,631,2.62646,-14.7963,0.00153425,0.00179768,0.00174239,0.00341333,-8.13948e-05,0.823124,0.00230317,0.0129566,1322,393,2.62644,14.7963
105,631,2.61804,-14.7617,0.00171621,0.00181018,0.0014956,0.00325953,0.000266861,0.8011,0.00208975,0.0107272,1329,393,2.61805,14.7617
112,631,2.61499,-14.7039,0.0018465,0.00168764,0.00124491,0.00301452,0.000519626,0.753539,0.00186081,0.0114131,1336,393,2.61497,14.7039
119,631,2.62988,-14.6632,0.00186008,0.00153811,0.00100048,0.00271245,0.000685741,0.70563,0.00162857,0.0119268,1343,393,2.6299,14.6632
126,631,2.64575,-14.582,0.00179677,0.0012302,0.000810293,0.00237187,0.000655098,0.617236,0.00141439,0.0154069,1350,393,2.64571,14.582
133,631,2.65845,-14.5167,0.00152212,0.000795174,0.00066441,0.00191598,0.000401315,0.535105,0.00116679,0.0166285,1357,393,2.65846,14.5167
140,631,2.64111,-14.4768,0.00115657,0.000268794,0.000573247,0.0014377,-1.23349e-05,0.455949,0.000962604,0.0188256,1364,393,2.64112,14.4768
147,631,2.61938,-14.396,0.00087257,-0.000275244,0.000620659,0.001144,-0.00054667,0.412258,0.000996206,0.0227047,1371,393,2.61934,14.396
154,631,2.64575,-14.3541,0.000645888,-0.000778759,0.000628494,0.000883517,-0.00101639,0.361479,0.0010978,0.0206784,1378,393,2.64571,14.3541
161,631,2.68298,-14.2939,0.000432179,-0.00123865,0.000583016,0.000615502,-0.00142197,0.304649,0.00120666,0.0223976,1385,393,2.683,14.2939
168,631,2.68262,-14.1896,0.000220815,-0.00141467,0.000580138,0.000405701,-0.00159955,0.308517,0.00122422,0.0266249,1392,393,2.68265,14.1896
175,631,2.67725,-14.0852,2.90506e-05,-0.00128417,0.000582143,0.000249953,-0.00150507,0.362678,0.00109624,0.0202407,1399,393,2.67729,14.0852
182,631,2.65869,-13.9951,-5.99543e-05,-0.00100969,0.000563224,0.000201873,-0.00127152,0.435153,0.000922364,0.0115615,1406,393,2.65863,13.9951
189,631,2.6593,-13.8987,-7.65726e-05,-0.000771899,0.000609959,0.000277846,-0.00112632,0.526372,0.000858612,0.010904,1413,393,2.65926,13.8987
196,631,2.65881,-13.7952,-0.000208787,-0.00061121,0.000653991,0.000274246,-0.00109424,0.63616,0.00083604,0.0116289,1420,393,2.65881,13.7952
203,631,2.67249,-13.697,-0.000520038,-0.000735572,0.000522559,-9.42488e-05,-0.00116136,0.683709,0.000744815,0.0133176,1427,393,2.67254,13.697
210,631,2.66467,-13.608,-0.000826979,-0.000482589,0.000565775,-6.33851e-05,-0.00124618,0.933121,0.000810486,0.0145389,1434,393,2.66469,13.608
217,631,2.63635,-13.502,-0.00111015,-0.000137451,0.000207487,-9.50412e-05,-0.00115256,1.36917,0.000738732,0.0154606,1441,393,2.63641,13.502
224,631,2.61511,-13.3558,-0.00124742,-1.21522e-05,-0.000347962,7.91205e-05,-0.0013387,-1.31427,0.000919973,0.0126863,1448,393,2.6151,13.3558
231,631,2.61133,-13.2115,-0.00119989,0.000249866,-0.000666359,0.00050961,-0.00145964,-1.19912,0.00118022,0.010291,1455,393,2.61127,13.2115
238,631,2.61511,-13.0721,-0.0011123,0.000691835,-0.000949605,0.00109953,-0.00151999,-1.16526,0.00151886,0.0155876,1462,393,2.61509,13.0721
245,631,2.6167,-12.9553,-0.00107762,0.00110642,-0.00128839,0.00170332,-0.00167453,-1.13694,0.00195023,0.017236,1469,393,2.61665,12.9553
252,631,2.59961,-12.8203,-0.000901003,0.00166043,-0.00163429,0.00245604,-0.00169661,-1.11775,0.00241086,0.0170309,1476,393,2.59966,12.8203
259,631,2.58447,-12.6682,-0.000644161,0.00223452,-0.00176166,0.00307008,-0.00147972,-1.12792,0.00267978,0.0125697,1483,393,2.58452,12.6682
266,631,2.58301,-12.5249,-0.000470306,0.00302768,-0.00179858,0.00378745,-0.00123007,-1.17111,0.00301969,0.0105503,1490,393,2.58298,12.5249
273,631,2.57935,-12.3697,-0.000273744,0.00351804,-0.00171872,0.00418113,-0.000936838,-1.20259,0.00314654,0.0123724,1497,393,2.57932,12.3696
280,631,2.56458,-12.224,9.47398e-05,0.0040266,-0.00125601,0.00439357,-0.000272236,-1.28653,0.00302388,0.0118422,1504,393,2.56454,12.224
287,631,2.58765,-12.037,0.000248704,0.00457219,-0.000594501,0.00465245,0.000168447,-1.43661,0.00304703,0.014191,1511,393,2.58765,12.0369
294,631,2.60583,-11.8064,0.000297031,0.00526986,0.000135768,0.00527357,0.000293327,1.54352,0.00342213,0.0182164,1518,393,2.60584,11.8064
301,631,2.55884,-11.592,0.000444361,0.00600039,0.00103495,0.00618691,0.000257839,1.39249,0.00404141,0.0269254,1525,393,2.55886,11.592
308,631,2.65771,-11.4321,0.000616988,0.00674289,0.00214443,0.00741896,-5.90805e-05,1.26539,0.00496578,0.0329767,1532,393,2.6577,11.4321
315,631,2.54834,-11.2723,0.000371571,0.00669852,0.00290461,0.00782974,-0.000759639,1.19941,0.00549058,0.0351651,1539,393,2.54834,11.2723
322,631,2.41809,-11.2031,0.000211304,0.00651127,0.00446869,0.0088286,-0.00210603,1.0924,0.00669902,0.0396018,1546,393,2.41814,11.2031
329,631,2.74756,-10.9882,0,0,0,0,0,0,0,-1,1553,393,2.74751,10.9882
336,631,2.95667,-10.3798,0,0,0,0,0,0,0,-1,1560,393,2.95664,10.3798
343,631,2.39612,-6.96481,0,0,0,0,0,0,0,-1,1567,393,2.39608,6.96482
350,631,2.1344,-9.23401,0,0,0,0,0,0,0,-1,1574,393,2.13439,9.23401
357,631,2.6449,-9.60303,0,0,0,0,0,0,0,-1,1581,393,2.64491,9.60304
364,631,3.39136,-5.7594,0,0,0,0,0,0,0,-1,1588,393,3.39137,5.75939
371,631,3.72839,-6.0574,0,0,0,0,0,0,0,-1,1595,393,3.72845,6.05742
378,631,4.06555,-6.35544,0,0,0,0,0,0,0,-1,1602,393,4.06553,6.35544
385,631,3.90442,-3.58298,0,0,0,0,0,0,0,-1,1609,393,3.90437,3.58299
392,631,0.352295,-2.21301,0,0,0,0,0,0,0,-1,1616,393,0.352345,2.213
399,631,0,0,0,0,0,0,0,0,0,-1,1623,393,0,0
406,631,0,0,0,0,0,0,0,0,0,-1,1630,393,0,0
413,631,0,0,0,0,0,0,0,0,0,-1,1637,393,0,0
420,631,0,0,0,0,0,0,0,0,0,-1,1644,393,0,0
427,631,0,0,0,0,0,0,0,0,0,-1,1651,393,0,0
434,631,0,0,0,0,0,0,0,0,0,-1,1658,393,0,0
441,631,0,0,0,0,0,0,0,0,0,-1,1665,393,0,0
448,631,0,0,0,0,0,0,0,0,0,-1,1672,393,0,0
455,631,0,0,0,0,0,0,0,0,0,-1,1679,393,0,0
462,631,0,0,0,0,0,0,0,0,0,-1,1686,393,0,0
469,631,0,0,0,0,0,0,0,0,0,-1,1693,393,0,0
476,631,0,0,0,0,0,0,0,0,0,-1,1700,393,0,0
483,631,0,0,0,0,0,0,0,0,0,-1,1707,393,0,0
490,631,0,0,0,0,0,0,0,0,0,-1,1714,393,0,0
497,631,0,0,0,0,0,0,0,0,0,-1,1721,393,0,0
504,631,0,0,0,0,0,0,0,0,0,-1,1728,393,0,0
511,631,0,0,0,0,0,0,0,0,0,-1,1735,393,0,0
518,631,0,0,0,0,0,0,0,0,0,-1,1742,393,0,0
525,631,0,0,0,0,0,0,0,0,0,-1,1749,393,0,0
532,631,0,0,0,0,0,0,0,0,0,-1,1756,393,0,0
539,631,0,0,0,0,0,0,0,0,0,-1,1763,393,0,0
546,631,0,0,0,0,0,0,0,0,0,-1,1770,393,0,0
553,631,0,0,0,0,0,0,0,0,0,-1,1777,393,0,0
560,631,0,0,0,0,0,0,0,0,0,-1,1784,393,0,0
567,631,0,0,0,0,0,0,0,0,0,-1,1791,393,0,0
574,631,0,0,0,0,0,0,0,0,0,-1,1798,393,0,0
581,631,0,0,0,0,0,0,0,0,0,-1,1805,393,0,0
588,631,0,0,0,0,0,0,0,0,0,-1,1812,393,0,0
595,631,0,0,0,0,0,0,0,0,0,-1,1819,393,0,0
602,631,0,0,0,0,0,0,0,0,0,-1,1826,393,0,0
609,631,0,0,0,0,0,0,0,0,0,-1,1833,393,0,0
616,631,0,0,0,0,0,0,0,0,0,-1,1840,393,0,0
623,631,0,0,0,0,0,0,0,0,0,-1,1847,393,0,0
630,631,0,0,0,0,0,0,0,0,0,-1,1854,393,0,0
637,631,0,0,0,0,0,0,0,0,0,-1,1861,393,0,0
644,631,0,0,0,0,0,0,0,0,0,-1,1868,393,0,0
651,631,0,0,0,0,0,0,0,0,0,-1,1875,393,0,0
658,631,0,0,0,0,0,0,0,0,0,-1,1882,393,0,0
665,631,0,0,0,0,0,0,0,0,0,-1,1889,393,0,0
672,631,0,0,0,0,0,0,0,0,0,-1,1896,393,0,0
679,631,0,0,0,0,0,0,0,0,0,-1,1903,393,0,0
686,631,0,0,0,0,0,0,0,0,0,-1,1910,393,0,0
693,631,0,0,0,0,0,0,0,0,0,-1,1917,393,0,0
700,631,0,0,0,0,0,0,0,0,0,-1,1924,393,0,0
707,631,0,0,0,0,0,0,0,0,0,-1,1931,393,0,0
714,631,0,0,0,0,0,0,0,0,0,-1,1938,393,0,0
721,631,0,0,0,0,0,0,0,0,0,-1,1945,393,0,0
728,631,0,0,0,0,0,0,0,0,0,-1,1952,393,0,0
735,631,0,0,0,0,0,0,0,0,0,-1,1959,393,0,0
742,631,0,0,0,0,0,0,0,0,0,-1,1966,393,0,0
749,631,0,0,0,0,0,0,0,0,0,-1,1973,393,0,0
756,631,0,0,0,0,0,0,0,0,0,-1,1980,393,0,0
763,631,0,0,0,0,0,0,0,0,0,-1,1987,393,0,0
770,631,0,0,0,0,0,0,0,0,0,-1,1994,393,0,0
777,631,0,0,0,0,0,0,0,0,0,-1,2001,393,0,0
784,631,0,0,0,0,0,0,0,0,0,-1,2008,393,0,0
791,631,0,0,0,0,0,0,0,0,0,-1,2015,393,0,0
798,631,0,0,0,0,0,0,0,0,0,-1,2022,393,0,0
805,631,0,0,0,0,0,0,0,0,0,-1,2029,393,0,0
812,631,0,0,0,0,0,0,0,0,0,-1,2036,393,0,0
-700,624,0,0,0,0,0,0,0,0,0,-1,524,400,0,0
-693,624,0,0,0,0,0,0,0,0,0,-1,531,400,0,0
-686,624,0,0,0,0,0,0,0,0,0,-1,538,400,0,0
-679,624,0,0,0,0,0,0,0,0,0,-1,545,400,0,0
-672,624,0,0,0,0,0,0,0,0,0,-1,552,400,0,0
-665,624,0,0,0,0,0,0,0,0,0,-1,559,400,0,0
-658,624,0,0,0,0,0,0,0,0,0,-1,566,400,0,0
-651,624,0,0,0,0,0,0,0,0,0,-1,573,400,0,0
-644,624,0,0,0,0,0,0,0,0,0,-1,580,400,0,0
-637,624,0,0,0,0,0,0,0,0,0,-1,587,400,0,0
-630,624,0,0,0,0,0,0,0,0,0,-1,594,400,0,0
-623,624,0,0,0,0,0,0,0,0,0,-1,601,400,0,0
-616,624,0,0,0,0,0,0,0,0,0,-1,608,400,0,0
-609,624,0,0,0,0,0,0,0,0,0,-1,615,400,0,0
-602,624,0,0,0,0,0,0,0,0,0,-1,622,400,0,0
-595,624,0,0,0,0,0,0,0,0,0,-1,629,400,0,0
-588,624,0,0,0,0,0,0,0,0,0,-1,636,400,0,0
-581,624,0,0,0,0,0,0,0,0,0,-1,643,400,0,0
-574,624,0,0,0,0,0,0,0,0,0,-1,650,400,0,0
-567,624,0,0,0,0,0,0,0,0,0,-1,657,400,0,0
-560,624,0,0,0,0,0,0,0,0,0,-1,664,400,0,0
-553,624,0,0,0,0,0,0,0,0,0,-1,671,400,0,0
-546,624,0,0,0,0,0,0,0,0,0,-1,678,400,0,0
-539,624,0,0,0,0,0,0,0,0,0,-1,685,400,0,0
-532,624,0,0,0,0,0,0,0,0,0,-1,692,400,0,0
-525,624,0,0,0,0,0,0,0,0,0,-1,699,400,0,0
-518,624,0,0,0,0,0,0,0,0,0,-1,706,400,0,0
-511,624,0,0,0,0,0,0,0,0,0,-1,713,400,0,0
-504,624,0,0,0,0,0,0,0,0,0,-1,720,400,0,0
-497,624,0,0,0,0,0,0,0,0,0,-1,727,400,0,0
-490,624,0,0,0,0,0,0,0,0,0,-1,734,400,0,0
-483,624,0,0,0,0,0,0,0,0,0,-1,741,400,0,0
-476,624,0,0,0,0,0,0,0,0,0,-1,748,400,0,0
-469,624,0,0,0,0,0,0,0,0,0,-1,755,400,0,0
-462,624,0,0,0,0,0,0,0,0,0,-1,762,400,0,0
-455,624,0,0,0,0,0,0,0,0,0,-1,769,400,0,0
-448,624,0,0,0,0,0,0,0,0,0,-1,776,400,0,0
-441,624,0,0,0,0,0,0,0,0,0,-1,783,400,0,0
-434,624,0,0,0,0,0,0,0,0,0,-1,790,400,0,0
-427,624,0,0,0,0,0,0,0,0,0,-1,797,400,0,0
-420,624,0,0,0,0,0,0,0,0,0,-1,804,400,0,0
-413,624,0,0,0,0,0,0,0,0,0,-1,811,400,0,0
-406,624,0,0,0,0,0,0,0,0,0,-1,818,400,0,0
-399,624,0,0,0,0,0,0,0,0,0,-1,825,400,0,0
-392,624,0,0,0,0,0,0,0,0,0,-1,832,400,0,0
-385,624,0,0,0,0,0,0,0,0,0,-1,839,400,0,0
-378,624,0,0,0,0,0,0,0,0,0,-1,846,400,0,0
-371,624,0,0,0,0,0,0,0,0,0,-1,853,400,0,0
-364,624,0,0,0,0,0,0,0,0,0,-1,860,400,0,0
-357,624,0,0,0,0,0,0,0,0,0,-1,867,400,0,0
-350,624,0,0,0,0,0,0,0,0,0,-1,874,400,0,0
-343,624,0,0,0,0,0,0,0,0,0,-1,881,400,0,0
-336,624,0,0,0,0,0,0,0,0,0,-1,888,400,0,0
-329,624,0,0,0,0,0,0,0,0,0,-1,895,400,0,0
-322,624,0,0,0,0,0,0,0,0,0,-1,902,400,0,0
-315,624,0,0,0,0,0,0,0,0,0,-1,909,400,0,0
-308,624,0,0,0,0,0,0,0,0,0,-1,916,400,0,0
-301,624,0,0,0,0,0,0,0,0,0,-1,923,400,0,0
-294,624,-0.912903,-12.9461,0,0,0,0,0,0,0,-1,930,400,-0.912926,12.9461
-287,624,0.12146,-15.0862,0,0,0,0,0,0,0,-1,937,400,0.121451,15.0862
-280,624,1.44836,-13.0475,0,0,0,0,0,0,0,-1,944,400,1.44835,13.0475
-273,624,2.56573,-11.0646,0,0,0,0,0,0,0,-1,951,400,2.56571,11.0646
-266,624,2.61993,-9.22894,0,0,0,0,0,0,0,-1,958,400,2.61992,9.22893
-259,624,2.33655,-9.63861,0,0,0,0,0,0,0,-1,965,400,2.33654,9.63861
-252,624,1.87445,-10.0717,0,0,0,0,0,0,0,-1,972,400,1.87447,10.0717
-245,624,2.35291,-9.48187,0,0,0,0,0,0,0,-1,979,400,2.35289,9.48186
-238,624,3.77863,-11.2463,0,0,0,0,0,0,0,-1,986,400,3.77865,11.2463
-231,624,3.58014,-10.9142,0,0,0,0,0,0,0,-1,993,400,3.58012,10.9143
-224,624,3.40369,-10.8178,0,0,0,0,0,0,0,-1,1000,400,3.40366,10.8178
-217,624,2.80981,-11.8751,0,0,0,0,0,0,0,-1,1007,400,2.8098,11.8751
-210,624,2.66901,-11.9162,-0.00710694,0.00416884,0.00404614,0.00547048,-0.00840857,1.25955,0.0080727,0.0470152,1014,400,2.669,11.9162
-203,624,2.55487,-11.9275,-0.00600399,0.00323765,0.00212083,0.00370112,-0.00646745,1.35565,0.0059428,0.0384419,1021,400,2.55486,11.9275
-196,624,2.65613,-11.9303,-0.00505651,0.00206519,0.000691979,0.0021318,-0.00512312,1.47483,0.00430568,0.0359991,1028,400,2.65619,11.9303
-189,624,2.62964,-12.0778,-0.00444502,0.00105738,-0.000380209,0.00108353,-0.00447116,-1.50213,0.0034,0.0343119,1035,400,2.62968,12.0778
-182,624,2.57617,-12.3374,-0.00292949,0.000781531,-0.00196347,0.00162752,-0.00377548,-1.16397,0.00320054,0.0289806,1042,400,2.57622,12.3374
-175,624,2.59265,-12.5331,-0.00120398,0.000560011,-0.00304574,0.00284889,-0.00349286,-0.926335,0.0036677,0.0182945,1049,400,2.5926,12.5331
-168,624,2.58423,-12.6775,0.000167253,0.000200955,-0.00337363,0.00355778,-0.00318957,-0.787896,0.00389752,0.0123203,1056,400,2.58419,12.6775
-161,624,2.54761,-12.8352,0.00109873,0.00039977,-0.00344766,0.00421458,-0.00271608,-0.734887,0.00403247,0.0099022,1063,400,2.54757,12.8352
-154,624,2.54761,-12.976,0.00184689,0.000612891,-0.00357824,0.00486094,-0.00240116,-0.700022,0.00427219,0.00881169,1070,400,2.54764,12.976
-147,624,2.54761,-13.1077,0.0023982,0.0009476,-0.00355641,0.00530251,-0.00195671,-0.684807,0.00433696,0.00979398,1077,400,2.5476,13.1077
-140,624,2.52991,-13.239,0.0027893,0.00137352,-0.00345239,0.00560563,-0.00144281,-0.684278,0.00429949,0.00948347,1084,400,2.52995,13.239
-133,624,2.52771,-13.3723,0.00300706,0.00166779,-0.00324485,0.00565065,-0.000975805,-0.683642,0.00413097,0.0115231,1091,400,2.52776,13.3723
-126,624,2.52686,-13.4807,0.00302155,0.0021409,-0.00304764,0.00566051,-0.000498061,-0.713654,0.00395017,0.0136528,1098,400,2.52685,13.4807
-119,624,2.50854,-13.5789,0.0028614,0.00257894,-0.00279398,0.00551772,-7.73801e-05,-0.760145,0.00370454,0.0144221,1105,400,2.50853,13.5789
-112,624,2.50635,-13.6857,0.00273848,0.00312167,-0.00261395,0.00555103,0.000309117,-0.821981,0.00360207,0.0157798,1112,400,2.50629,13.6857
-105,624,2.52771,-13.8113,0.00234563,0.00342757,-0.00226458,0.00521489,0.000558307,-0.902642,0.00330624,0.0121438,1119,400,2.52772,13.8113
-98,624,2.51111,-13.904,0.00185668,0.00350642,-0.0019741,0.00482105,0.000542042,-0.983296,0.00304946,0.0127254,1126,400,2.51109,13.904
-91,624,2.48669,-13.9992,0.00147756,0.00348943,-0.00173537,0.00448934,0.000477653,-1.04806,0.00284706,0.0173469,1133,400,2.48672,13.9992
-84,624,2.50073,-14.095,0.0012383,0.00318652,-0.00146273,0.00396982,0.000455005,-1.07915,0.00250867,0.0157971,1140,400,2.50074,14.095
-77,624,2.51416,-14.2067,0.000975309,0.00277587,-0.00111018,0.00330492,0.00044625,-1.12608,0.00207062,0.0121422,1147,400,2.51421,14.2067
-70,624,2.4834,-14.2906,0.000905967,0.00231185,-0.000770638,0.00265198,0.000565831,-1.15514,0.00161281,0.0131763,1154,400,2.48336,14.2906
-63,624,2.46765,-14.3318,0.000985879,0.00175606,-0.000554418,0.00204601,0.000695934,-1.08894,0.00120122,0.0142276,1161,400,2.46761,14.3318
-56,624,2.4906,-14.4232,0.000993419,0.00103645,-0.00026989,0.00128568,0.00074419,-0.825177,0.000745358,0.0117252,1168,400,2.49055,14.4232
-49,624,2.51355,-14.5007,0.0010028,0.000366252,5.22372e-05,0.00100706,0.000361993,0.0813382,0.000589032,0.00979745,1175,400,2.51351,14.5007
-42,624,2.51672,-14.5565,0.00100416,-0.00054459,0.000388897,0.00109633,-0.000636758,0.232706,0.00101226,0.00953183,1182,400,2.51669,14.5565
-35,624,2.50952,-14.6109,0.000815297,-0.00101651,0.00107405,0.00131094,-0.00151216,0.432352,0.0016313,0.0141776,1189,400,2.50948,14.6109
-28,624,2.47656,-14.6758,0.000609674,-0.00133472,0.00185832,0.00173474,-0.00245978,0.544397,0.00243374,0.0188097,1196,400,2.47659,14.6758
-21,624,2.48145,-14.719,0.000436256,-0.00106678,0.00247615,0.00227243,-0.00290294,0.638065,0.00299538,0.0143706,1203,400,2.48142,14.719
-14,624,2.51685,-14.7416,0.000447168,-0.000530932,0.0028198,0.00282001,-0.00290378,0.699535,0.00330475,0.0161404,1210,400,2.51689,14.7416
-7,624,2.48572,-14.7735,0.000495942,0.000175144,0.0030869,0.0034266,-0.00275552,0.759441,0.00357625,0.0193134,1217,400,2.48575,14.7735
0,624,2.50464,-14.8061,0.000308535,0.00100339,0.00337198,0.00404579,-0.00273386,0.836734,0.00393859,0.0179936,1224,400,2.50465,14.8061
7,624,2.51062,-14.8332,0.000134288,0.00193562,0.00355609,0.00470333,-0.00263342,0.909427,0.0042917,0.0130679,1231,400,2.51065,14.8332
14,624,2.56409,-14.8861,-1.76736e-05,0.00272035,0.0036872,0.00528448,-0.0025818,0.963154,0.00463009,0.0116194,1238,400,2.56411,14.8861
21,624,2.58154,-14.9084,-0.000285293,0.00329312,0.00376354,0.00567111,-0.00266328,1.00729,0.0049152,0.0121246,1245,400,2.58151,14.9084
28,624,2.57825,-14.9131,-0.000500664,0.00354843,0.00382374,0.00585052,-0.00280275,1.02887,0.00509822,0.0114741,1252,400,2.5782,14.9131
35,624,2.5603,-14.9138,-0.000649633,0.00354208,0.00392083,0.00589206,-0.00299962,1.03085,0.00522337,0.0159918,1259,400,2.56031,14.9138
42,624,2.5835,-14.9247,-0.000822089,0.00323939,0.00393223,0.0056343,-0.003217,1.02375,0.00517343,0.0169453,1266,400,2.58351,14.9247
49,624,2.61011,-14.9271,-0.000918875,0.00295158,0.00391195,0.00538081,-0.0033481,1.0151,0.00508498,0.0172934,1273,400,2.61011,14.9271
56,624,2.62744,-14.9197,-0.000896048,0.0025845,0.00400239,0.00520859,-0.00352014,0.990473,0.00507086,0.0169434,1280,400,2.62748,14.9197
63,624,2.63574,-14.9211,-0.000704794,0.00243333,0.00409939,0.00525368,-0.00352514,0.968174,0.0051011,0.0140801,1287,400,2.63577,14.9211
70,624,2.62463,-14.9109,-0.000197571,0.00213692,0.00395171,0.00509017,-0.00315082,0.929004,0.00480165,0.012934,1294,400,2.62469,14.9109
77,624,2.62793,-14.8812,0.000449907,0.00206316,0.00368081,0.00502469,-0.00251162,0.893265,0.004431,0.0127024,1301,400,2.62792,14.8812
84,624,2.6394,-14.8577,0.000964881,0.00198248,0.00346635,0.00497718,-0.00202981,0.858269,0.00416307,0.0108655,1308,400,2.63935,14.8577
91,624,2.65015,-14.8277,0.00134877,0.00213401,0.00331181,0.00507639,-0.00159361,0.844398,0.00402211,0.0120969,1315,400,2.65016,14.8277
98,624,2.66956,-14.8212,0.00165326,0.00251272,0.00307096,0.00518387,-0.00101789,0.854913,0.00384044,0.0130491,1322,400,2.66955,14.8212
105,624,2.66528,-14.7951,0.00211402,0.0026564,0.00286943,0.00526743,-0.000497007,0.832514,0.00368846,0.0135629,1329,400,2.6653,14.7951
112,624,2.67859,-14.7144,0.00250216,0.00257204,0.00262358,0.00516091,-8.67106e-05,0.792057,0.00346987,0.0133583,1336,400,2.67854,14.7144
119,624,2.69739,-14.6548,0.00265398,0.00243068,0.00236743,0.00491239,0.000172263,0.761835,0.00321904,0.0138549,1343,400,2.69735,14.6548
126,624,2.70581,-14.5594,0.00264151,0.00207347,0.00215619,0.0045323,0.000182674,0.719914,0.00296252,0.0170632,1350,400,2.70578,14.5594
133,624,2.74231,-14.4979,0.00232797,0.00150826,0.00198847,0.00394838,-0.00011215,0.683764,0.00267042,0.0183588,1357,400,2.74236,14.4979
140,624,2.74377,-14.4648,0.00181855,0.000776364,0.00184589,0.00321549,-0.000620577,0.647829,0.00237767,0.0185576,1364,400,2.74382,14.4648
147,624,2.69788,-14.3951,0.00137834,1.12376e-05,0.00185441,0.00267117,-0.00128159,0.60882,0.00232866,0.0220672,1371,400,2.69783,14.3951
154,624,2.71545,-14.3512,0.000967462,-0.00084959,0.00178492,0.00206177,-0.0019439,0.549987,0.00231301,0.0226169,1378,400,2.71542,14.3512
161,624,2.78247,-14.2898,0.000593681,-0.00162499,0.00156867,0.00140563,-0.00243695,0.477633,0.00224499,0.0220042,1385,400,2.78242,14.2898
168,624,2.79407,-14.1892,0.00025265,-0.00218056,0.00132045,0.000831514,-0.00275943,0.413153,0.00217054,0.0229649,1392,400,2.79413,14.1892
175,624,2.77844,-14.0979,-5.69166e-05,-0.00228187,0.00106381,0.000369859,-0.00270865,0.38152,0.00194083,0.0175905,1399,400,2.7785,14.0979
182,624,2.76721,-14.0183,-0.000211408,-0.00208746,0.00083414,0.000105827,-0.0024047,0.363422,0.00163955,0.0106664,1406,400,2.76717,14.0183
189,624,2.76758,-13.91,-7.00738e-05,-0.00177059,0.000638179,0.000142783,-0.00198344,0.321934,0.00137237,0.01034,1413,400,2.76759,13.91
196,624,2.75903,-13.813,-1.0537e-05,-0.00135864,0.000456502,0.0001295,-0.00149868,0.297647,0.00104496,0.0114865,1420,400,2.75906,13.813
203,624,2.77673,-13.7032,-4.00735e-05,-0.00109983,0.000159596,-1.65605e-05,-0.00112335,0.146275,0.000743438,0.0142786,1427,400,2.77678,13.7032
210,624,2.77234,-13.611,-0.000244272,-0.000586198,-7.02724e-05,-0.000230393,-0.000600077,-0.194992,0.000349552,0.0169324,1434,400,2.77234,13.611
217,624,2.74207,-13.4857,-0.000518359,-8.42698e-05,-0.000269908,4.50362e-05,-0.000647666,-1.12403,0.000447545,0.0188708,1441,400,2.74206,13.4857
224,624,2.73083,-13.3416,-0.000644511,0.000170742,-0.000507851,0.000414324,-0.000888093,-1.12358,0.000768355,0.0149644,1448,400,2.73089,13.3416
231,624,2.74951,-13.2446,-0.000621533,0.000479374,-0.000614339,0.000753791,-0.00089595,-1.1507,0.000953657,0.0114154,1455,400,2.74946,13.2446
238,624,2.74146,-13.0948,-0.000556968,0.000926811,-0.000675734,0.00118842,-0.000818581,-1.20141,0.00116528,0.0162643,1462,400,2.7414,13.0948
245,624,2.73621,-12.9503,-0.000525753,0.00133002,-0.0007839,0.00161682,-0.000812557,-1.22006,0.00142799,0.0171225,1469,400,2.73618,12.9503
252,624,2.7345,-12.8076,-0.000400611,0.0018177,-0.000906759,0.00214118,-0.000724088,-1.22813,0.00172038,0.0127504,1476,400,2.73447,12.8076
259,624,2.72144,-12.6727,-0.000239223,0.00227463,-0.000870553,0.00254667,-0.000511259,-1.26792,0.00189137,0.00927815,1483,400,2.72146,12.6727
266,624,2.72217,-12.5186,-0.000156283,0.00284852,-0.000788683,0.00304295,-0.000350711,-1.32909,0.00215507,0.0129178,1490,400,2.72219,12.5186
273,624,2.72327,-12.374,-6.36321e-05,0.00320999,-0.000645015,0.0033325,-0.000186138,-1.38311,0.00228624,0.0148817,1497,400,2.7233,12.374
280,624,2.70764,-12.2353,0.000160445,0.00355837,-0.000218844,0.00357241,0.000146409,-1.50674,0.00233434,0.0134807,1504,400,2.70765,12.2353
287,624,2.69897,-12.071,0.000237289,0.00389579,0.000314881,0.00392269,0.000210385,1.48556,0.0025479,0.0106684,1511,400,2.69895,12.0709
294,624,2.68616,-11.8918,0.000238857,0.00433186,0.000869464,0.0045089,6.18175e-05,1.36992,0.00298554,0.00889729,1518,400,2.68611,11.8918
301,624,2.66833,-11.7096,0.00029344,0.00477399,0.00152008,0.00524101,-0.000173582,1.27271,0.00355328,0.0106638,1525,400,2.66829,11.7096
308,624,2.65466,-11.5075,0.000371939,0.00523537,0.00229393,0.00614661,-0.000539298,1.19267,0.00428882,0.0145179,1532,400,2.65472,11.5075
315,624,2.64075,-11.3205,0.000205737,0.00521042,0.00282494,0.00648193,-0.00106578,1.14786,0.00471686,0.0164482,1539,400,2.64069,11.3205
322,624,2.62061,-11.1779,0.00011198,0.00512594,0.00382592,0.00719309,-0.00195517,1.07543,0.00556285,0.0235015,1546,400,2.62063,11.178
329,624,2.77075,-10.9796,4.48741e-05,0.00550828,0.00487653,0.0083661,-0.00281294,1.04071,0.00671441,0.040452,1553,400,2.7707,10.9796
336,624,2.88843,-10.6737,0,0,0,0,0,0,0,-1,1560,400,2.88842,10.6737
343,624,2.96985,-9.65771,0,0,0,0,0,0,0,-1,1567,400,2.96985,9.65773
350,624,1.99194,-7.29742,0,0,0,0,0,0,0,-1,1574,400,1.99198,7.29741
357,624,2.64075,-3.13092,0,0,0,0,0,0,0,-1,1581,400,2.64076,3.13091
364,624,3.16565,-4.9458,0,0,0,0,0,0,0,-1,1588,400,3.16564,4.94579
371,624,3.37561,-5.23529,0,0,0,0,0,0,0,-1,1595,400,3.37563,5.23529
378,624,1.50439,-5.22165,0,0,0,0,0,0,0,-1,1602,400,1.50438,5.22164
385,624,2.11694,-10.9297,0,0,0,0,0,0,0,-1,1609,400,2.117,10.9297
392,624,4.26819,-5.14236,0,0,0,0,0,0,0,-1,1616,400,4.26818,5.14236
399,624,3.86841,-2.36917,0,0,0,0,0,0,0,-1,1623,400,3.86838,2.36916
406,624,4.35376,-2.6962,0,0,0,0,0,0,0,-1,1630,400,4.35373,2.69619
413,624,0,0,0,0,0,0,0,0,0,-1,1637,400,0,0
420,624,0,0,0,0,0,0,0,0,0,-1,1644,400,0,0
427,624,0,0,0,0,0,0,0,0,0,-1,1651,400,0,0
434,624,0,0,0,0,0,0,0,0,0,-1,1658,400,0,0
441,624,0,0,0,0,0,0,0,0,0,-1,1665,400,0,0
448,624,0,0,0,0,0,0,0,0,0,-1,1672,400,0,0
455,624,0,0,0,0,0,0,0,0,0,-1,1679,400,0,0
462,624,0,0,0,0,0,0,0,0,0,-1,1686,400,0,0
469,624,0,0,0,0,0,0,0,0,0,-1,1693,400,0,0
476,624,0,0,0,0,0,0,0,0,0,-1,1700,400,0,0
483,624,0,0,0,0,0,0,0,0,0,-1,1707,400,0,0
490,624,0,0,0,0,0,0,0,0,0,-1,1714,400,0,0
497,624,0,0,0,0,0,0,0,0,0,-1,1721,400,0,0
504,624,0,0,0,0,0,0,0,0,0,-1,1728,400,0,0
511,624,0,0,0,0,0,0,0,0,0,-1,1735,400,0,0
518,624,0,0,0,0,0,0,0,0,0,-1,1742,400,0,0
525,624,0,0,0,0,0,0,0,0,0,-1,1749,400,0,0
532,624,0,0,0,0,0,0,0,0,0,-1,1756,400,0,0
539,624,0,0,0,0,0,0,0,0,0,-1,1763,400,0,0
546,624,0,0,0,0,0,0,0,0,0,-1,1770,400,0,0
553,624,0,0,0,0,0,0,0,0,0,-1,1777,400,0,0
560,624,0,0,0,0,0,0,0,0,0,-1,1784,400,0,0
567,624,0,0,0,0,0,0,0,0,0,-1,1791,400,0,0
574,624,0,0,0,0,0,0,0,0,0,-1,1798,400,0,0
581,624,0,0,0,0,0,0,0,0,0,-1,1805,400,0,0
588,624,0,0,0,0,0,0,0,0,0,-1,1812,400,0,0
595,624,0,0,0,0,0,0,0,0,0,-1,1819,400,0,0
602,624,0,0,0,0,0,0,0,0,0,-1,1826,400,0,0
609,624,0,0,0,0,0,0,0,0,0,-1,1833,400,0,0
616,624,0,0,0,0,0,0,0,0,0,-1,1840,400,0,0
623,624,0,0,0,0,0,0,0,0,0,-1,1847,400,0,0
630,624,0,0,0,0,0,0,0,0,0,-1,1854,400,0,0
637,624,0,0,0,0,0,0,0,0,0,-1,1861,400,0,0
644,624,0,0,0,0,0,0,0,0,0,-1,1868,400,0,0
651,624,0,0,0,0,0,0,0,0,0,-1,1875,400,0,0
658,624,0,0,0,0,0,0,0,0,0,-1,1882,400,0,0
665,624,0,0,0,0,0,0,0,0,0,-1,1889,400,0,0
672,624,0,0,0,0,0,0,0,0,0,-1,1896,400,0,0
679,624,0,0,0,0,0,0,0,0,0,-1,1903,400,0,0
686,624,0,0,0,0,0,0,0,0,0,-1,1910,400,0,0
693,624,0,0,0,0,0,0,0,0,0,-1,1917,400,0,0
700,624,0,0,0,0,0,0,0,0,0,-1,1924,400,0,0
707,624,0,0,0,0,0,0,0,0,0,-1,1931,400,0,0
714,624,0,0,0,0,0,0,0,0,0,-1,1938,400,0,0
721,624,0,0,0,0,0,0,0,0,0,-1,1945,400,0,0
728,624,0,0,0,0,0,0,0,0,0,-1,1952,400,0,0
735,624,0,0,0,0,0,0,0,0,0,-1,1959,400,0,0
742,624,0,0,0,0,0,0,0,0,0,-1,1966,400,0,0
749,624,0,0,0,0,0,0,0,0,0,-1,1973,400,0,0
756,624,0,0,0,0,0,0,0,0,0,-1,1980,400,0,0
763,624,0,0,0,0,0,0,0,0,0,-1,1987,400,0,0
770,624,0,0,0,0,0,0,0,0,0,-1,1994,400,0,0
777,624,0,0,0,0,0,0,0,0,0,-1,2001,400,0,0
784,624,0,0,0,0,0,0,0,0,0,-1,2008,400,0,0
791,624,0,0,0,0,0,0,0,0,0,-1,2015,400,0,0
798,624,0,0,0,0,0,0,0,0,0,-1,2022,400,0,0
805,624,0,0,0,0,0,0,0,0,0,-1,2029,400,0,0
812,624,0,0,0,0,0,0,0,0,0,-1,2036,400,0,0
-700,617,0,0,0,0,0,0,0,0,0,-1,524,407,0,0
-693,617,0,0,0,0,0,0,0,0,0,-1,531,407,0,0
-686,617,0,0,0,0,0,0,0,0,0,-1,538,407,0,0
-679,617,0,0,0,0,0,0,0,0,0,-1,545,407,0,0
-672,617,0,0,0,0,0,0,0,0,0,-1,552,407,0,0
-665,617,0,0,0,0,0,0,0,0,0,-1,559,407,0,0
-658,617,0,0,0,0,0,0,0,0,0,-1,566,407,0,0
-651,617,0,0,0,0,0,0,0,0,0,-1,573,407,0,0
-644,617,0,0,0,0,0,0,0,0,0,-1,580,407,0,0
-637,617,0,0,0,0,0,0,0,0,0,-1,587,407,0,0
-630,617,0,0,0,0,0,0,0,0,0,-1,594,407,0,0
-623,617,0,0,0,0,0,0,0,0,0,-1,601,407,0,0
-616,617,0,0,0,0,0,0,0,0,0,-1,608,407,0,0
-609,617,0,0,0,0,0,0,0,0,0,-1,615,407,0,0
-602,617,0,0,0,0,0,0,0,0,0,-1,622,407,0,0
-595,617,0,0,0,0,0,0,0,0,0,-1,629,407,0,0
-588,617,0,0,0,0,0,0,0,0,0,-1,636,407,0,0
-581,617,0,0,0,0,0,0,0,0,0,-1,643,407,0,0
-574,617,0,0,0,0,0,0,0,0,0,-1,650,407,0,0
-567,617,0,0,0,0,0,0,0,0,0,-1,657,407,0,0
-560,617,0,0,0,0,0,0,0,0,0,-1,664,407,0,0
-553,617,0,0,0,0,0,0,0,0,0,-1,671,407,0,0
-546,617,0,0,0,0,0,0,0,0,0,-1,678,407,0,0
-539,617,0,0,0,0,0,0,0,0,0,-1,685,407,0,0
-532,617,0,0,0,0,0,0,0,0,0,-1,692,407,0,0
-525,617,0,0,0,0,0,0,0,0,0,-1,699,407,0,0
-518,617,0,0,0,0,0,0,0,0,0,-1,706,407,0,0
-511,617,0,0,0,0,0,0,0,0,0,-1,713,407,0,0
-504,617,0,0,0,0,0,0,0,0,0,-1,720,407,0,0
-497,617,0,0,0,0,0,0,0,0,0,-1,727,407,0,0
-490,617,0,0,0,0,0,0,0,0,0,-1,734,407,0,0
-483,617,0,0,0,0,0,0,0,0,0,-1,741,407,0,0
-476,617,0,0,0,0,0,0,0,0,0,-1,748,407,0,0
-469,617,0,0,0,0,0,0,0,0,0,-1,755,407,0,0
-462,617,0,0,0,0,0,0,0,0,0,-1,762,407,0,0
-455,617,0,0,0,0,0,0,0,0,0,-1,769,407,0,0
-448,617,0,0,0,0,0,0,0,0,0,-1,776,407,0,0
-441,617,0,0,0,0,0,0,0,0,0,-1,783,407,0,0
-434,617,0,0,0,0,0,0,0,0,0,-1,790,407,0,0
-427,617,0,0,0,0,0,0,0,0,0,-1,797,407,0,0
-420,617,0,0,0,0,0,0,0,0,0,-1,804,407,0,0
-413,617,0,0,0,0,0,0,0,0,0,-1,811,407,0,0
-406,617,0,0,0,0,0,0,0,0,0,-1,818,407,0,0
-399,617,0,0,0,0,0,0,0,0,0,-1,825,407,0,0
-392,617,0,0,0,0,0,0,0,0,0,-1,832,407,0,0
-385,617,0,0,0,0,0,0,0,0,0,-1,839,407,0,0
-378,617,0,0,0,0,0,0,0,0,0,-1,846,407,0,0
-371,617,0,0,0,0,0,0,0,0,0,-1,853,407,0,0
-364,617,0,0,0,0,0,0,0,0,0,-1,860,407,0,0
-357,617,0,0,0,0,0,0,0,0,0,-1,867,407,0,0
-350,617,0,0,0,0,0,0,0,0,0,-1,874,407,0,0
-343,617,0,0,0,0,0,0,0,0,0,-1,881,407,0,0
-336,617,0,0,0,0,0,0,0,0,0,-1,888,407,0,0
-329,617,0,0,0,0,0,0,0,0,0,-1,895,407,0,0
-322,617,0,0,0,0,0,0,0,0,0,-1,902,407,0,0
-315,617,0,0,0,0,0,0,0,0,0,-1,909,407,0,0
-308,617,0,0,0,0,0,0,0,0,0,-1,916,407,0,0
-301,617,-1.61346,-11.4687,0,0,0,0,0,0,0,-1,923,407,-1.61344,11.4687
-294,617,-0.867493,-11.1655,0,0,0,0,0,0,0,-1,930,407,-0.867487,11.1655
-287,617,-0.212524,-10.7744,0,0,0,0,0,0,0,-1,937,407,-0.212541,10.7743
-280,617,2.19739,-11.6377,0,0,0,0,0,0,0,-1,944,407,2.19737,11.6377
-273,617,2.36188,-10.5736,0,0,0,0,0,0,0,-1,951,407,2.36188,10.5736
-266,617,2.00537,-8.98315,0,0,0,0,0,0,0,-1,958,407,2.00539,8.98315
-259,617,2.03473,-9.50534,0,0,0,0,0,0,0,-1,965,407,2.0347,9.50533
-252,617,2.08514,-9.93616,0,0,0,0,0,0,0,-1,972,407,2.08514,9.93614
-245,617,2.96021,-11.0757,0,0,0,0,0,0,0,-1,979,407,2.9602,11.0757
-238,617,3.12891,-11.1388,-0.00761144,0.00228308,0.0110125,0.00940851,-0.0147369,0.99651,0.014053,0.0445239,986,407,3.1289,11.1388
-231,617,3.08337,-11.0218,-0.00710723,0.00340301,0.0090794,0.00863845,-0.0123427,1.04774,0.0121762,0.0464581,993,407,3.08337,11.0218
-224,617,2.88214,-11.0604,-0.00623478,0.00423893,0.00675365,0.00754821,-0.00954406,1.11518,0.00989063,0.0449814,1000,407,2.88212,11.0604
-217,617,2.67004,-11.6225,-0.00606425,0.00401753,0.00503264,0.00609971,-0.00814642,1.17851,0.00825325,0.0372102,1007,407,2.67005,11.6225
-210,617,2.55505,-11.8079,-0.00539681,0.00354441,0.00315632,0.00454634,-0.00639874,1.26342,0.00634924,0.0235085,1014,407,2.55504,11.8079
-203,617,2.5127,-11.9508,-0.00456066,0.00296294,0.001726,0.00334001,-0.00493773,1.35571,0.00480874,0.0175073,1021,407,2.51272,11.9508
-196,617,2.50903,-12.0763,-0.00378144,0.0021935,0.000591408,0.00225148,-0.00383941,1.47308,0.00355619,0.0149068,1028,407,2.50908,12.0763
-189,617,2.49255,-12.2215,-0.00326915,0.00146396,-0.000277003,0.00148012,-0.00328531,-1.51254,0.00281635,0.0127691,1035,407,2.49253,12.2215
-182,617,2.45703,-12.3807,-0.00224323,0.00113664,-0.00143759,0.00166539,-0.00277197,-1.21835,0.00258833,0.0142195,1042,407,2.45698,12.3807
-175,617,2.46375,-12.5409,-0.00104379,0.00077607,-0.00217781,0.0022264,-0.00249412,-0.983284,0.00272685,0.0127471,1049,407,2.4637,12.5409
-168,617,2.44543,-12.6966,-0.000104544,0.000308654,-0.00234766,0.00245879,-0.00225468,-0.829286,0.00272218,0.0105068,1056,407,2.44543,12.6966
-161,617,2.42725,-12.8524,0.000551151,0.000295169,-0.00232722,0.0027539,-0.00190758,-0.757927,0.00270605,0.0109187,1063,407,2.42719,12.8524
-154,617,2.41919,-12.9911,0.00113868,0.000338273,-0.00234261,0.00311502,-0.00163807,-0.700797,0.00278801,0.0100564,1070,407,2.41918,12.9911
-147,617,2.41687,-13.1027,0.00157209,0.000438466,-0.00229117,0.00336552,-0.00135496,-0.664138,0.00280656,0.0135133,1077,407,2.41688,13.1027
-140,617,2.40344,-13.2361,0.00188385,0.000615275,-0.00223194,0.00356988,-0.00107076,-0.646955,0.00280579,0.0109593,1084,407,2.40346,13.2361
-133,617,2.41113,-13.3691,0.0020978,0.000743324,-0.00209552,0.0036228,-0.000781675,-0.629104,0.00271355,0.0138787,1091,407,2.41112,13.3691
-126,617,2.41089,-13.47,0.00217153,0.00107548,-0.00199455,0.00369197,-0.000444963,-0.651326,0.00262225,0.0138503,1098,407,2.41086,13.47
-119,617,2.37781,-13.5887,0.00212395,0.0014484,-0.00189949,0.00371547,-0.000143114,-0.697406,0.00252603,0.0135108,1105,407,2.37778,13.5887
-112,617,2.37451,-13.6942,0.00209267,0.00191251,-0.00185864,0.00386341,0.000141773,-0.761185,0.00252967,0.0147475,1112,407,2.37447,13.6942
-105,617,2.38867,-13.8061,0.00189776,0.00225428,-0.00172096,0.00380619,0.000345855,-0.837005,0.00243039,0.0146729,1119,407,2.38867,13.8061
-98,617,2.41321,-13.9159,0.00166441,0.00244366,-0.00163018,0.00373013,0.000377942,-0.902702,0.00237084,0.0117539,1126,407,2.41323,13.9159
-91,617,2.41516,-14.0103,0.0015407,0.00256818,-0.00158134,0.00371714,0.000391741,-0.942459,0.00235838,0.0160209,1133,407,2.41511,14.0103
-84,617,2.42712,-14.096,0.00150198,0.0025025,-0.00146958,0.00355463,0.000449846,-0.949452,0.00223495,0.0164073,1140,407,2.42713,14.096
-77,617,2.4386,-14.1989,0.00148546,0.00243116,-0.00129955,0.00334121,0.00057541,-0.95988,0.0020626,0.012699,1147,407,2.43856,14.1989
-70,617,2.41467,-14.2845,0.00174722,0.00219152,-0.00099627,0.00299011,0.000948638,-0.895095,0.00176436,0.0148582,1154,407,2.41462,14.2845
-63,617,2.40503,-14.345,0.00177668,0.00162102,-0.00066959,0.00237295,0.00102475,-0.727543,0.00137426,0.0168854,1161,407,2.40497,14.345
-56,617,2.41968,-14.4167,0.00126015,0.000673402,-0.000175819,0.0013088,0.000624751,-0.269953,0.000755893,0.0126452,1168,407,2.41964,14.4166
-49,617,2.44568,-14.5,0.000885672,-0.000277592,0.000301134,0.000959004,-0.000350924,0.238869,0.000782978,0.00963817,1175,407,2.44573,14.5
-42,617,2.46826,-14.5818,0.000702744,-0.00135481,0.00121762,0.00126801,-0.00192008,0.434633,0.00185343,0.0111057,1182,407,2.46827,14.5818
-35,617,2.4646,-14.636,0.000251469,-0.00117571,0.0029263,0.00254993,-0.00347418,0.665805,0.00349164,0.0161725,1189,407,2.46458,14.636
-28,617,2.44958,-14.6787,-0.000186004,-0.00112485,0.00461006,0.00397847,-0.00528933,0.73466,0.00536858,0.0183815,1196,407,2.44964,14.6787
-21,617,2.48828,-14.7102,-0.000453026,-0.000200317,0.00584373,0.00551842,-0.00617176,0.796208,0.00675284,0.0138765,1203,407,2.48823,14.7102
-14,617,2.4718,-14.721,-0.000275454,0.000907017,0.00655642,0.0068988,-0.00626724,0.830365,0.00760433,0.0154158,1210,407,2.47177,14.721
-7,617,2.45447,-14.7545,4.9382e-05,0.00216118,0.00710641,0.00828971,-0.00607914,0.859151,0.00832852,0.01782,1217,407,2.45449,14.7545
0,617,2.4801,-14.7986,1.01252e-05,0.00343343,0.00759149,0.00950384,-0.00606029,0.896279,0.00905897,0.0149451,1224,407,2.48012,14.7986
7,617,2.50452,-14.8485,-4.96181e-05,0.00467701,0.00778623,0.0104507,-0.00582329,0.932742,0.00952155,0.0101646,1231,407,2.5045,14.8485
14,617,2.53052,-14.8674,-0.000105061,0.00567358,0.007802,0.0111041,-0.00553556,0.962734,0.00978457,0.0123872,1238,407,2.53053,14.8674
21,617,2.55676,-14.8936,-0.000371458,0.00631521,0.00767732,0.0113456,-0.00540184,0.990756,0.00987003,0.0116299,1245,407,2.55681,14.8936
28,617,2.57068,-14.9186,-0.000658492,0.00649658,0.00745773,0.0111905,-0.00535238,1.00904,0.00974726,0.0103176,1252,407,2.57067,14.9186
35,617,2.54663,-14.9289,-0.0009116,0.00635554,0.00729003,0.0108674,-0.00542342,1.01659,0.00957894,0.0139927,1259,407,2.54665,14.9289
42,617,2.60791,-14.9264,-0.00118246,0.00584573,0.00701772,0.01018,-0.00551676,1.01752,0.00919489,0.0206016,1266,407,2.60795,14.9264
49,617,2.61499,-14.9196,-0.00141974,0.0053347,0.00674235,0.00949836,-0.0055834,1.01758,0.0088047,0.0190678,1273,407,2.61504,14.9196
56,617,2.63196,-14.9095,-0.00163289,0.00469184,0.00662059,0.00886656,-0.00580761,1.0082,0.00853328,0.0133419,1280,407,2.6319,14.9095
63,617,2.64075,-14.9077,-0.00162989,0.00442417,0.00651624,0.00858215,-0.00578786,1.00284,0.00834865,0.0101655,1287,407,2.6408,14.9077
70,617,2.64807,-14.91,-0.00108188,0.00394186,0.00620201,0.00812135,-0.00526137,0.977807,0.00778511,0.0148183,1294,407,2.64812,14.91
77,617,2.6637,-14.8789,-0.000210683,0.00390885,0.0058406,0.00804225,-0.00434408,0.954921,0.00725672,0.0123545,1301,407,2.66369,14.8789
84,617,2.67834,-14.8492,0.000499433,0.00385282,0.00562089,0.00804176,-0.00368951,0.930345,0.00692668,0.00970891,1308,407,2.67838,14.8492
91,617,2.70154,-14.8256,0.00110484,0.00413382,0.00551974,0.00834307,-0.00310441,0.919292,0.006836,0.0101455,1315,407,2.7015,14.8256
98,617,2.72424,-14.8102,0.00152024,0.00472958,0.0053372,0.00869812,-0.0024483,0.931428,0.00676419,0.0111664,1322,407,2.72427,14.8103
105,617,2.73291,-14.7672,0.00213108,0.00511064,0.00525716,0.00908504,-0.00184331,0.923469,0.00675548,0.0120204,1329,407,2.73286,14.7672
112,617,2.74487,-14.708,0.00271666,0.00513436,0.00508265,0.00914993,-0.00129891,0.902148,0.00657583,0.015074,1336,407,2.74491,14.708
119,617,2.77612,-14.6491,0.00292066,0.00504109,0.00488033,0.00897504,-0.00101329,0.892357,0.00634814,0.0185027,1343,407,2.77616,14.6491
126,617,2.80078,-14.5739,0.00285364,0.00465324,0.00470625,0.00854493,-0.00103806,0.879855,0.00607229,0.0211562,1350,407,2.80082,14.5739
133,617,2.79846,-14.5073,0.00235414,0.0039684,0.00457288,0.00780484,-0.0014823,0.87275,0.00576124,0.018802,1357,407,2.79849,14.5073
140,617,2.82239,-14.485,0.00152118,0.00300772,0.00440966,0.00673631,-0.00220742,0.868891,0.00537982,0.0156817,1364,407,2.82233,14.485
147,617,2.79541,-14.4281,0.000739905,0.00197372,0.00444205,0.00584149,-0.00312787,0.854396,0.00525687,0.0184327,1371,407,2.79544,14.4281
154,617,2.79761,-14.3615,5.41146e-05,0.000728805,0.00432941,0.00473399,-0.00395107,0.824279,0.00502111,0.0207518,1378,407,2.79757,14.3615
161,617,2.8374,-14.2812,-0.000489588,-0.000447965,0.00393937,0.00347065,-0.00440821,0.78804,0.00455958,0.0221705,1385,407,2.83746,14.2812
168,617,2.88306,-14.2129,-0.000920792,-0.00157054,0.00337333,0.00214328,-0.0046346,0.737393,0.00400036,0.0224982,1392,407,2.88312,14.2129
175,617,2.86182,-14.1429,-0.00131354,-0.00214611,0.00268853,0.00099074,-0.00445039,0.70859,0.00334642,0.0184581,1399,407,2.86185,14.1429
182,617,2.8783,-14.0357,-0.00153314,-0.00234707,0.00206387,0.00016351,-0.00404372,0.688054,0.00275193,0.0112378,1406,407,2.87835,14.0357
189,617,2.85266,-13.9283,-0.000961087,-0.00216144,0.00144193,5.83241e-07,-0.00312311,0.588188,0.00208226,0.0106049,1413,407,2.85267,13.9283
196,617,2.85205,-13.8299,-0.000463921,-0.00171072,0.000823495,-5.44736e-05,-0.00212016,0.461411,0.00139564,0.0148726,1420,407,2.85203,13.8299
203,617,2.86597,-13.7178,0.000165328,-0.00143845,3.18196e-05,0.000165959,-0.00143908,0.0198301,0.00101922,0.015244,1427,407,2.86593,13.7178
210,617,2.87646,-13.6134,0.000342429,-0.000892462,-0.00076614,0.000708959,-0.00125899,-0.446229,0.0011509,0.0147041,1434,407,2.87645,13.6134
217,617,2.86365,-13.4713,4.28194e-05,-0.000161833,-0.000876022,0.000822471,-0.000941485,-0.727258,0.00101919,0.0189173,1441,407,2.86368,13.4713
224,617,2.86536,-13.3439,-8.74e-05,0.000250521,-0.000847295,0.000945538,-0.000782417,-0.883813,0.000999115,0.0178049,1448,407,2.86542,13.3439
231,617,2.88892,-13.2598,-0.00010373,0.000631454,-0.000776608,0.00112307,-0.000595349,-1.00644,0.00100761,0.0136035,1455,407,2.88886,13.2598
238,617,2.88843,-13.1281,-6.56627e-05,0.00109213,-0.000667729,0.00139697,-0.000370499,-1.14253,0.00107628,0.0146676,1462,407,2.88843,13.1281
245,617,2.8938,-12.9832,-3.74368e-05,0.00149173,-0.000603838,0.00170142,-0.000247126,-1.23656,0.00122499,0.0130927,1469,407,2.89376,12.9832
252,617,2.89185,-12.8229,4.09099e-05,0.00191899,-0.000563665,0.00207517,-0.000115273,-1.30049,0.00142343,0.0140937,1476,407,2.89186,12.8229
259,617,2.86267,-12.686,0.000123452,0.00226477,-0.000421188,0.00234464,4.3585e-05,-1.3834,0.00154877,0.0116793,1483,407,2.86272,12.686
266,617,2.86267,-12.5233,0.000137887,0.0026451,-0.000273625,0.00267461,0.000108372,-1.46335,0.00174807,0.0139859,1490,407,2.86266,12.5233
273,617,2.8689,-12.3799,0.000154789,0.00290098,-9.96066e-05,0.00290459,0.000151181,-1.53459,0.00188802,0.0139031,1497,407,2.86889,12.3799
280,617,2.86133,-12.2396,0.000267488,0.00312095,0.000276732,0.00314754,0.000240898,1.475,0.00202285,0.0124095,1504,407,2.86138,12.2396
287,617,2.8335,-12.0593,0.000292771,0.00329376,0.000701171,0.00344951,0.000137027,1.35223,0.00225538,0.0119227,1511,407,2.83348,12.0593
294,617,2.82922,-11.8859,0.000265036,0.00352879,0.00111803,0.00387505,-8.12217e-05,1.27046,0.00261086,0.00904472,1518,407,2.82928,11.8859
301,617,2.82678,-11.7173,0.000255528,0.00375631,0.00158862,0.00436972,-0.000357887,1.2023,0.00303947,0.00716032,1525,407,2.82677,11.7173
308,617,2.82227,-11.5401,0.000270913,0.00403264,0.00213675,0.00499842,-0.00069486,1.14629,0.00358641,0.00806901,1532,407,2.82232,11.5401
315,617,2.81445,-11.3638,0.000145271,0.00402096,0.00252,0.00526205,-0.00109582,1.11317,0.00392464,0.00957811,1539,407,2.81449,11.3638
322,617,2.79333,-11.1879,7.41217e-05,0.00399237,0.00317079,0.00576045,-0.00169396,1.06213,0.00451222,0.011763,1546,407,2.7934,11.1879
329,617,2.7832,-11.0192,3.37911e-05,0.00422269,0.0038439,0.00650572,-0.00224923,1.03485,0.00525003,0.0124471,1553,407,2.78317,11.0192
336,617,2.80518,-10.7968,-0.000196351,0.0038236,0.00376164,0.00607859,-0.00245134,1.03077,0.00507101,0.0262207,1560,407,2.80521,10.7968
343,617,2.88318,-10.4454,0,0,0,0,0,0,0,-1,1567,407,2.88321,10.4454
350,617,2.88098,-10.0063,0,0,0,0,0,0,0,-1,1574,407,2.88098,10.0063
357,617,2.1748,-7.16504,0,0,0,0,0,0,0,-1,1581,407,2.1748,7.16505
364,617,2.30127,-7.60257,0,0,0,0,0,0,0,-1,1588,407,2.30125,7.60258
371,617,2.60266,-6.20667,0,0,0,0,0,0,0,-1,1595,407,2.60261,6.20668
378,617,2.10107,-11.646,0,0,0,0,0,0,0,-1,1602,407,2.10105,11.646
385,617,2.51257,-10.2205,0,0,0,0,0,0,0,-1,1609,407,2.51258,10.2205
392,617,2.92407,-8.79498,0,0,0,0,0,0,0,-1,1616,407,2.9241,8.79499
399,617,3.25,-2.14835,0,0,0,0,0,0,0,-1,1623,407,3.25006,2.14836
406,617,3.02429,-3.19577,0,0,0,0,0,0,0,-1,1630,407,3.02431,3.19577
413,617,2.92786,-3.80649,0,0,0,0,0,0,0,-1,1637,407,2.92788,3.8065
420,617,3.42737,-4.47391,0,0,0,0,0,0,0,-1,1644,407,3.42737,4.47391
427,617,0,0,0,0,0,0,0,0,0,-1,1651,407,0,0
434,617,0,0,0,0,0,0,0,0,0,-1,1658,407,0,0
441,617,0,0,0,0,0,0,0,0,0,-1,1665,407,0,0
448,617,0,0,0,0,0,0,0,0,0,-1,1672,407,0,0
455,617,0,0,0,0,0,0,0,0,0,-1,1679,407,0,0
462,617,0,0,0,0,0,0,0,0,0,-1,1686,407,0,0
469,617,0,0,0,0,0,0,0,0,0,-1,1693,407,0,0
476,617,0,0,0,0,0,0,0,0,0,-1,1700,407,0,0
483,617,0,0,0,0,0,0,0,0,0,-1,1707,407,0,0
490,617,0,0,0,0,0,0,0,0,0,-1,1714,407,0,0
497,617,0,0,0,0,0,0,0,0,0,-1,1721,407,0,0
504,617,0,0,0,0,0,0,0,0,0,-1,1728,407,0,0
511,617,0,0,0,0,0,0,0,0,0,-1,1735,407,0,0
518,617,0,0,0,0,0,0,0,0,0,-1,1742,407,0,0
525,617,0,0,0,0,0,0,0,0,0,-1,1749,407,0,0
532,617,0,0,0,0,0,0,0,0,0,-1,1756,407,0,0
539,617,0,0,0,0,0,0,0,0,0,-1,1763,407,0,0
546,617,0,0,0,0,0,0,0,0,0,-1,1770,407,0,0
553,617,0,0,0,0,0,0,0,0,0,-1,1777,407,0,0
560,617,0,0,0,0,0,0,0,0,0,-1,1784,407,0,0
567,617,0,0,0,0,0,0,0,0,0,-1,1791,407,0,0
574,617,0,0,0,0,0,0,0,0,0,-1,1798,407,0,0
581,617,0,0,0,0,0,0,0,0,0,-1,1805,407,0,0
588,617,0,0,0,0,0,0,0,0,0,-1,1812,407,0,0
595,617,0,0,0,0,0,0,0,0,0,-1,1819,407,0,0
602,617,0,0,0,0,0,0,0,0,0,-1,1826,407,0,0
609,617,0,0,0,0,0,0,0,0,0,-1,1833,407,0,0
616,617,0,0,0,0,0,0,0,0,0,-1,1840,407,0,0
623,617,0,0,0,0,0,0,0,0,0,-1,1847,407,0,0
630,617,0,0,0,0,0,0,0,0,0,-1,1854,407,0,0
637,617,0,0,0,0,0,0,0,0,0,-1,1861,407,0,0
644,617,0,0,0,0,0,0,0,0,0,-1,1868,407,0,0
651,617,0,0,0,0,0,0,0,0,0,-1,1875,407,0,0
658,617,0,0,0,0,0,0,0,0,0,-1,1882,407,0,0
665,617,0,0,0,0,0,0,0,0,0,-1,1889,407,0,0
672,617,0,0,0,0,0,0,0,0,0,-1,1896,407,0,0
679,617,0,0,0,0,0,0,0,0,0,-1,1903,407,0,0
686,617,0,0,0,0,0,0,0,0,0,-1,1910,407,0,0
693,617,0,0,0,0,0,0,0,0,0,-1,1917,407,0,0
700,617,0,0,0,0,0,0,0,0,0,-1,1924,407,0,0
707,617,0,0,0,0,0,0,0,0,0,-1,1931,407,0,0
714,617,0,0,0,0,0,0,0,0,0,-1,1938,407,0,0
721,617,0,0,0,0,0,0,0,0,0,-1,1945,407,0,0
728,617,0,0,0,0,0,0,0,0,0,-1,1952,407,0,0
735,617,0,0,0,0,0,0,0,0,0,-1,1959,407,0,0
742,617,0,0,0,0,0,0,0,0,0,-1,1966,407,0,0
749,617,0,0,0,0,0,0,0,0,0,-1,1973,407,0,0
756,617,0,0,0,0,0,0,0,0,0,-1,1980,407,0,0
763,617,0,0,0,0,0,0,0,0,0,-1,1987,407,0,0
770,617,0,0,0,0,0,0,0,0,0,-1,1994,407,0,0
777,617,0,0,0,0,0,0,0,0,0,-1,2001,407,0,0
784,617,0,0,0,0,0,0,0,0,0,-1,2008,407,0,0
791,617,0,0,0,0,0,0,0,0,0,-1,2015,407,0,0
798,617,0,0,0,0,0,0,0,0,0,-1,2022,407,0,0
805,617,0,0,0,0,0,0,0,0,0,-1,2029,407,0,0
812,617,0,0,0,0,0,0,0,0,0,-1,2036,407,0,0
-700,610,0,0,0,0,0,0,0,0,0,-1,524,414,0,0
-693,610,0,0,0,0,0,0,0,0,0,-1,531,414,0,0
-686,610,0,0,0,0,0,0,0,0,0,-1,538,414,0,0
-679,610,0,0,0,0,0,0,0,0,0,-1,545,414,0,0
-672,610,0,0,0,0,0,0,0,0,0,-1,552,414,0,0
-665,610,0,0,0,0,0,0,0,0,0,-1,559,414,0,0
-658,610,0,0,0,0,0,0,0,0,0,-1,566,414,0,0
-651,610,0,0,0,0,0,0,0,0,0,-1,573,414,0,0
-644,610,0,0,0,0,0,0,0,0,0,-1,580,414,0,0
-637,610,0,0,0,0,0,0,0,0,0,-1,587,414,0,0
-630,610,0,0,0,0,0,0,0,0,0,-1,594,414,0,0
-623,610,0,0,0,0,0,0,0,0,0,-1,601,414,0,0
-616,610,0,0,0,0,0,0,0,0,0,-1,608,414,0,0
-609,610,0,0,0,0,0,0,0,0,0,-1,615,414,0,0
-602,610,0,0,0,0,0,0,0,0,0,-1,622,414,0,0
-595,610,0,0,0,0,0,0,0,0,0,-1,629,414,0,0
-588,610,0,0,0,0,0,0,0,0,0,-1,636,414,0,0
-581,610,0,0,0,0,0,0,0,0,0,-1,643,414,0,0
-574,610,0,0,0,0,0,0,0,0,0,-1,650,414,0,0
-567,610,0,0,0,0,0,0,0,0,0,-1,657,414,0,0
-560,610,0,0,0,0,0,0,0,0,0,-1,664,414,0,0
-553,610,0,0,0,0,0,0,0,0,0,-1,671,414,0,0
-546,610,0,0,0,0,0,0,0,0,0,-1,678,414,0,0
-539,610,0,0,0,0,0,0,0,0,0,-1,685,414,0,0
-532,610,0,0,0,0,0,0,0,0,0,-1,692,414,0,0
-525,610,0,0,0,0,0,0,0,0,0,-1,699,414,0,0
-518,610,0,0,0,0,0,0,0,0,0,-1,706,414,0,0
-511,610,0,0,0,0,0,0,0,0,0,-1,713,414,0,0
-504,610,0,0,0,0,0,0,0,0,0,-1,720,414,0,0
-497,610,0,0,0,0,0,0,0,0,0,-1,727,414,0,0
-490,610,0,0,0,0,0,0,0,0,0,-1,734,414,0,0
-483,610,0,0,0,0,0,0,0,0,0,-1,741,414,0,0
-476,610,0,0,0,0,0,0,0,0,0,-1,748,414,0,0
-469,610,0,0,0,0,0,0,0,0,0,-1,755,414,0,0
-462,610,0,0,0,0,0,0,0,0,0,-1,762,414,0,0
-455,610,0,0,0,0,0,0,0,0,0,-1,769,414,0,0
-448,610,0,0,0,0,0,0,0,0,0,-1,776,414,0,0
-441,610,0,0,0,0,0,0,0,0,0,-1,783,414,0,0
-434,610,0,0,0,0,0,0,0,0,0,-1,790,414,0,0
-427,610,0,0,0,0,0,0,0,0,0,-1,797,414,0,0
-420,610,0,0,0,0,0,0,0,0,0,-1,804,414,0,0
-413,610,0,0,0,0,0,0,0,0,0,-1,811,414,0,0
-406,610,0,0,0,0,0,0,0,0,0,-1,818,414,0,0
-399,610,0,0,0,0,0,0,0,0,0,-1,825,414,0,0
-392,610,0,0,0,0,0,0,0,0,0,-1,832,414,0,0
-385,610,0,0,0,0,0,0,0,0,0,-1,839,414,0,0
-378,610,0,0,0,0,0,0,0,0,0,-1,846,414,0,0
-371,610,0,0,0,0,0,0,0,0,0,-1,853,414,0,0
-364,610,0,0,0,0,0,0,0,0,0,-1,860,414,0,0
-357,610,0,0,0,0,0,0,0,0,0,-1,867,414,0,0
-350,610,0,0,0,0,0,0,0,0,0,-1,874,414,0,0
-343,610,0,0,0,0,0,0,0,0,0,-1,881,414,0,0
-336,610,0,0,0,0,0,0,0,0,0,-1,888,414,0,0
-329,610,0,0,0,0,0,0,0,0,0,-1,895,414,0,0
-322,610,0,0,0,0,0,0,0,0,0,-1,902,414,0,0
-315,610,5.57825,-7.69159,0,0,0,0,0,0,0,-1,909,414,5.57823,7.69159
-308,610,5.54938,-7.44653,0,0,0,0,0,0,0,-1,916,414,5.54937,7.44653
-301,610,-1.54291,-9.7341,0,0,0,0,0,0,0,-1,923,414,-1.54293,9.73409
-294,610,-1.43835,-9.29047,0,0,0,0,0,0,0,-1,930,414,-1.43836,9.29047
-287,610,2.08557,-11.9136,0,0,0,0,0,0,0,-1,937,414,2.08555,11.9136
-280,610,2.25854,-11.0924,0,0,0,0,0,0,0,-1,944,414,2.25856,11.0924
-273,610,2.44586,-10.2559,0,0,0,0,0,0,0,-1,951,414,2.44589,10.2559
-266,610,2.76282,-10.4223,0,0,0,0,0,0,0,-1,958,414,2.76284,10.4223
-259,610,2.66138,-10.6188,0,0,0,0,0,0,0,-1,965,414,2.66136,10.6188
-252,610,2.77014,-11.0904,0,0,0,0,0,0,0,-1,972,414,2.77013,11.0904
-245,610,2.55914,-10.9672,-0.0057659,1.97135e-05,0.00894432,0.0065274,-0.0122736,0.941801,0.0110224,0.0459769,979,414,2.55916,10.9672
-238,610,2.70044,-11.1765,-0.00579287,0.0012645,0.0077735,0.00627273,-0.0108011,0.99846,0.00997248,0.0387167,986,414,2.70044,11.1765
-231,610,2.48932,-11.0392,-0.00545897,0.002169,0.00652639,0.00591414,-0.0092041,1.04983,0.00879714,0.0328584,993,414,2.4893,11.0392
-224,610,2.40411,-11.3354,-0.0048687,0.00288109,0.00494314,0.00528707,-0.00727469,1.11782,0.00728273,0.0242132,1000,414,2.40412,11.3354
-217,610,2.39203,-11.5635,-0.00464632,0.0030013,0.00369193,0.00449274,-0.00613776,1.18687,0.00616197,0.0150991,1007,414,2.39205,11.5635
-210,610,2.38007,-11.7444,-0.00407436,0.00283541,0.00236674,0.00356833,-0.00480728,1.27049,0.00485326,0.0100372,1014,414,2.38006,11.7444
-203,610,2.35443,-11.9174,-0.00336767,0.00254516,0.00133151,0.00283116,-0.00365367,1.35921,0.00375405,0.0121697,1021,414,2.35444,11.9174
-196,610,2.34473,-12.1248,-0.00272678,0.00206658,0.00046285,0.00211086,-0.00277106,1.47541,0.00282716,0.0123418,1028,414,2.34472,12.1248
-189,610,2.35742,-12.2527,-0.00229258,0.00153617,-0.000174533,0.00154411,-0.00230052,-1.52534,0.00223397,0.0101954,1035,414,2.35743,12.2527
-182,610,2.33984,-12.3978,-0.00154206,0.00117626,-0.000984223,0.00149519,-0.001861,-1.25742,0.00194153,0.0119344,1042,414,2.33988,12.3978
-175,610,2.31299,-12.5478,-0.000724559,0.000744096,-0.00146121,0.00164512,-0.00162558,-1.01824,0.00188835,0.0123832,1049,414,2.31302,12.5478
-168,610,2.30322,-12.7005,-0.000133127,0.000211444,-0.0015029,0.0015519,-0.00147358,-0.842467,0.00174696,0.0114106,1056,414,2.30322,12.7005
-161,610,2.30359,-12.8876,0.000259964,3.99485e-05,-0.00140299,0.00155726,-0.00125734,-0.746274,0.00162808,0.0111336,1063,414,2.30354,12.8876
-154,610,2.29163,-13.0115,0.000666787,-1.67736e-05,-0.00131922,0.00168778,-0.00103777,-0.658646,0.00158844,0.0128944,1070,414,2.29162,13.0115
-147,610,2.29468,-13.1013,0.000976776,-4.62156e-05,-0.00121575,0.00178425,-0.000853687,-0.586276,0.00155428,0.0138184,1077,414,2.29467,13.1013
-140,610,2.28882,-13.2252,0.00120815,-9.96634e-06,-0.00115223,0.00190239,-0.000704205,-0.542268,0.00155702,0.0108512,1084,414,2.28878,13.2252
-133,610,2.29285,-13.3503,0.00140983,3.15177e-05,-0.00106065,0.00198556,-0.000544207,-0.497299,0.00153755,0.0126693,1091,414,2.29289,13.3503
-126,610,2.29871,-13.4659,0.00154018,0.000292005,-0.00102263,0.00211411,-0.000281928,-0.511427,0.00151217,0.0113498,1098,414,2.29876,13.466
-119,610,2.26721,-13.5698,0.00161727,0.00064408,-0.00105902,0.00229613,-3.47809e-05,-0.570044,0.00154248,0.00975188,1105,414,2.26725,13.5698
-112,610,2.25342,-13.6812,0.00169843,0.00105864,-0.00112047,0.00254377,0.0002133,-0.646346,0.00162941,0.0175523,1112,414,2.25336,13.6812
-105,610,2.26318,-13.7982,0.00172354,0.00146421,-0.00114265,0.00274386,0.000443888,-0.7289,0.0017007,0.0166323,1119,414,2.26324,13.7982
-98,610,2.29285,-13.925,0.00179879,0.00179133,-0.00122548,0.00302054,0.000569577,-0.783877,0.00185324,0.0112834,1126,414,2.29288,13.9251
-91,610,2.33215,-14.0184,0.00196521,0.00202556,-0.00140861,0.00340431,0.000586451,-0.796107,0.00210151,0.0124218,1133,414,2.33215,14.0184
-84,610,2.33667,-14.0948,0.00211792,0.00213762,-0.00149899,0.00362679,0.000628751,-0.788683,0.00223791,0.0132477,1140,414,2.33661,14.0948
-77,610,2.33008,-14.1837,0.00228748,0.0023968,-0.00150393,0.00384707,0.000837217,-0.803562,0.00233619,0.0102273,1147,414,2.33005,14.1837
-70,610,2.3269,-14.2799,0.00283481,0.00235056,-0.00120241,0.00381923,0.00136613,-0.686043,0.0022346,0.0128461,1154,414,2.32696,14.2799
-63,610,2.32617,-14.373,0.00276265,0.00170108,-0.000757692,0.00315697,0.00130675,-0.479858,0.00183166,0.0134041,1161,414,2.32617,14.373
-56,610,2.34644,-14.4233,0.00156171,0.000442051,-5.17507e-05,0.00156409,0.000439664,-0.0460892,0.00093143,0.0114284,1168,414,2.34644,14.4233
-49,610,2.37085,-14.4788,0.000727441,-0.000835326,0.000599117,0.00093069,-0.00103858,0.327064,0.00113752,0.0112277,1175,414,2.37079,14.4788
-42,610,2.40063,-14.5598,0.000288639,-0.00222619,0.00213989,0.0015132,-0.00345075,0.519769,0.00293781,0.0140485,1182,414,2.40059,14.5597
-35,610,2.38074,-14.6427,-0.000590114,-0.00121167,0.00513943,0.00424792,-0.00604971,0.7552,0.0059756,0.0145529,1189,414,2.38078,14.6427
-28,610,2.40454,-14.6808,-0.00136822,-0.000656191,0.00796689,0.00696264,-0.00898705,0.807727,0.00923325,0.0121456,1196,414,2.40459,14.6808
-21,610,2.44519,-14.7018,-0.00176883,0.00120178,0.00988602,0.00971345,-0.0102805,0.859962,0.0115451,0.010697,1203,414,2.44519,14.7018
-14,610,2.43701,-14.7421,-0.00140121,0.00309764,0.0109019,0.0119797,-0.0102833,0.887137,0.012866,0.011707,1210,414,2.43702,14.7421
-7,610,2.4458,-14.7779,-0.000739533,0.00513732,0.0116283,0.0141927,-0.00979494,0.909155,0.0139267,0.01331,1217,414,2.44586,14.7779
0,610,2.47449,-14.8162,-0.000666107,0.00701558,0.0122305,0.0159941,-0.00964465,0.937541,0.0149531,0.0109581,1224,414,2.47448,14.8162
7,610,2.49084,-14.8402,-0.000626564,0.00872233,0.0123443,0.0172476,-0.00915187,0.966391,0.0154788,0.0104612,1231,414,2.49087,14.8402
14,610,2.49243,-14.8488,-0.000636284,0.0100358,0.0121544,0.017974,-0.00857441,0.992241,0.0156447,0.0122927,1238,414,2.4924,14.8488
21,610,2.53308,-14.8773,-0.00095713,0.0108123,0.0117527,0.0180713,-0.00821608,1.01751,0.0155285,0.011634,1245,414,2.53308,14.8773
28,610,2.5675,-14.9111,-0.00137141,0.0109377,0.0112098,0.0175714,-0.00800507,1.03645,0.0151069,0.0115206,1252,414,2.56753,14.9111
35,610,2.60803,-14.9114,-0.00179013,0.0106458,0.0107677,0.0168619,-0.00800625,1.04724,0.014658,0.0155783,1259,414,2.608,14.9114
42,610,2.61975,-14.9094,-0.00221691,0.00987933,0.0102267,0.0157125,-0.00805008,1.05244,0.0139551,0.0155414,1266,414,2.61979,14.9094
49,610,2.62891,-14.9254,-0.00264281,0.00905043,0.00972459,0.0145506,-0.00814302,1.05606,0.0132751,0.0147053,1273,414,2.62896,14.9254
56,610,2.64587,-14.9109,-0.00307944,0.00798904,0.00942735,0.0133865,-0.00847692,1.05082,0.0127285,0.0129235,1280,414,2.6459,14.9109
63,610,2.63354,-14.8729,-0.003209,0.00749208,0.00920518,0.0127888,-0.00850569,1.04866,0.012377,0.0162218,1287,414,2.6335,14.8729
70,610,2.66614,-14.8687,-0.00256939,0.00673005,0.00877654,0.0120125,-0.00785181,1.029,0.0115522,0.0225516,1294,414,2.66618,14.8686
77,610,2.68433,-14.8405,-0.00142204,0.00659016,0.00834542,0.0118412,-0.0066731,1.00917,0.0108272,0.026525,1301,414,2.68427,14.8405
84,610,2.72729,-14.7853,-0.000459457,0.00643353,0.0081522,0.0118378,-0.00586377,0.985387,0.0104122,0.0274749,1308,414,2.72733,14.7853
91,610,2.77637,-14.7789,0.000445195,0.00674291,0.0081374,0.0123195,-0.00513134,0.970006,0.0103562,0.0249229,1315,414,2.77641,14.7789
98,610,2.80896,-14.7957,0.000874572,0.00750288,0.00801515,0.012862,-0.00448458,0.981437,0.0103971,0.0222138,1322,414,2.80892,14.7958
105,610,2.80872,-14.7458,0.00150271,0.0081837,0.00804018,0.0135497,-0.00386331,0.982286,0.0105592,0.0174184,1329,414,2.80873,14.7458
112,610,2.79224,-14.7061,0.00218933,0.00834056,0.00793318,0.0137735,-0.00324357,0.970323,0.0104329,0.0127176,1336,414,2.79225,14.7062
119,610,2.80859,-14.6603,0.00231976,0.00839165,0.00778626,0.0137129,-0.0030015,0.971287,0.0102894,0.0179332,1343,414,2.80855,14.6603
126,610,2.85083,-14.5916,0.00200147,0.00811495,0.00765889,0.0133046,-0.00318814,0.975268,0.0101015,0.0247752,1350,414,2.85085,14.5916
133,610,2.86169,-14.523,0.00104335,0.0074922,0.00757102,0.0124968,-0.00396128,0.98671,0.00991891,0.0194585,1357,414,2.86175,14.523
140,610,2.87744,-14.4814,-0.000441004,0.00649674,0.0074032,0.0112035,-0.00514773,1.00449,0.00965377,0.0148183,1364,414,2.87749,14.4814
147,610,2.8822,-14.4061,-0.00192263,0.00536001,0.00749632,0.0100526,-0.00661522,1.01149,0.00969114,0.0162282,1371,414,2.88222,14.4061
154,610,2.87952,-14.3271,-0.00316017,0.00390387,0.00739206,0.00856439,-0.00782069,1.00827,0.00946318,0.0213104,1378,414,2.8795,14.3271
161,610,2.92822,-14.2521,-0.00405086,0.00248646,0.00687871,0.00683362,-0.00839802,1.0072,0.00880944,0.0277413,1385,414,2.92824,14.2521
168,610,2.9906,-14.1905,-0.00459788,0.000835645,0.0060017,0.00470684,-0.00846908,0.997932,0.0077098,0.0289158,1392,414,2.99056,14.1905
175,610,2.97668,-14.1071,-0.00493702,-0.000313703,0.00484734,0.00274497,-0.00799569,1.00789,0.00644339,0.0220498,1399,414,2.97664,14.1071
182,610,2.97095,-14.0048,-0.00502287,-0.00107661,0.00377762,0.00121214,-0.00731162,1.02607,0.00532465,0.0151115,1406,414,2.971,14.0048
189,610,2.97559,-13.9182,-0.00358624,-0.0013606,0.00266073,0.000410646,-0.00535749,0.983463,0.00371611,0.0129579,1413,414,2.97561,13.9181
196,610,2.96338,-13.8219,-0.00221718,-0.00120564,0.00152263,-0.000106976,-0.00331584,0.94575,0.00217578,0.0132288,1420,414,2.96341,13.8219
203,610,2.96509,-13.7048,-0.000199607,-0.00146531,6.64499e-05,-0.000196128,-0.00146879,0.0523085,0.000920809,0.0138908,1427,414,2.96505,13.7048
210,610,2.97839,-13.6168,0.000938406,-0.00139045,-0.0015393,0.00170409,-0.00215614,-0.461585,0.00223379,0.0108827,1434,414,2.97834,13.6168
217,610,2.99121,-13.4769,0.000578192,-0.000343706,-0.00163202,0.00181311,-0.00157862,-0.647763,0.00195978,0.0162087,1441,414,2.99121,13.4769
224,610,3.00989,-13.3557,0.000432122,0.000262112,-0.0013763,0.00172604,-0.0010318,-0.754556,0.00160897,0.0191922,1448,414,3.00988,13.3557
231,610,3.01392,-13.264,0.000366995,0.000746703,-0.00115083,0.00172323,-0.000609532,-0.867148,0.00139705,0.015453,1455,414,3.0139,13.264
238,610,3.02112,-13.1267,0.000374164,0.00124556,-0.00090106,0.00181073,-0.000191008,-1.01059,0.0012756,0.0111919,1462,414,3.02115,13.1267
245,610,3.01709,-12.9695,0.000400224,0.00166206,-0.000695363,0.00197007,9.22131e-05,-1.15382,0.00128375,0.0129279,1469,414,3.01709,12.9695
252,610,3.00879,-12.8335,0.000432547,0.00204087,-0.000521301,0.00219505,0.000278361,-1.28322,0.00137997,0.0148414,1476,414,3.00873,12.8335
259,610,3.00659,-12.6887,0.000446297,0.00228288,-0.000299475,0.00233047,0.000398698,-1.41317,0.00143928,0.0121557,1483,414,3.00657,12.6887
266,610,3.01025,-12.5318,0.000409066,0.0024944,-0.000112093,0.00250041,0.000403058,-1.51725,0.00155015,0.0112489,1490,414,3.01026,12.5318
273,610,3.01001,-12.3781,0.00037083,0.00264974,7.90429e-05,0.00265248,0.000368092,1.53617,0.00165929,0.00907249,1497,414,3.01005,12.3781
280,610,3.00391,-12.2296,0.000398011,0.00275465,0.000407767,0.00282321,0.00032945,1.40422,0.0017825,0.00896138,1504,414,3.00389,12.2297
287,610,2.9939,-12.0486,0.000394904,0.00278098,0.000742277,0.00299304,0.000182839,1.29251,0.00193729,0.0120161,1511,414,2.99391,12.0486
294,610,2.99951,-11.8768,0.000357726,0.00284399,0.00104846,0.0032271,-2.53784e-05,1.22047,0.00215991,0.0100823,1518,414,2.99948,11.8768
301,610,3.00464,-11.7451,0.000313922,0.00289615,0.00138247,0.00349664,-0.000286574,1.16102,0.00243225,0.00917534,1525,414,3.00464,11.7451
308,610,3.02161,-11.5686,0.00029948,0.00304828,0.00177238,0.00391671,-0.000568951,1.1152,0.00281999,0.0115029,1532,414,3.02155,11.5686
315,610,3.00598,-11.3753,0.000206032,0.00305053,0.00205614,0.00412838,-0.000871824,1.08797,0.00308421,0.012778,1539,414,3.00603,11.3753
322,610,2.96692,-11.188,0.000144675,0.00306838,0.00248965,0.00449363,-0.00128058,1.05087,0.00350156,0.0122402,1546,414,2.96692,11.188
329,610,2.94507,-10.9952,0.000109764,0.00322528,0.00293759,0.00499258,-0.00165754,1.02919,0.00399715,0.0118998,1553,414,2.94506,10.9952
336,610,2.96472,-10.7826,-5.30404e-05,0.00296095,0.00293089,0.00474958,-0.00184168,1.02286,0.00392697,0.0120234,1560,414,2.96467,10.7826
343,610,2.97278,-10.5751,1.58525e-05,0.0026366,0.00296889,0.00457144,-0.00191898,0.993225,0.00385014,0.0245921,1567,414,2.97282,10.5751
350,610,2.9491,-10.3467,0,0,0,0,0,0,0,-1,1574,414,2.94907,10.3467
357,610,3.01245,-10.0013,0,0,0,0,0,0,0,-1,1581,414,3.01247,10.0013
364,610,3.07104,-9.88971,0,0,0,0,0,0,0,-1,1588,414,3.071,9.88972
371,610,3.08325,-9.63007,0,0,0,0,0,0,0,-1,1595,414,3.08331,9.63005
378,610,3.17285,-9.52567,0,0,0,0,0,0,0,-1,1602,414,3.17285,9.52567
385,610,2.87463,-9.59903,0,0,0,0,0,0,0,-1,1609,414,2.87469,9.59903
392,610,3.01563,-9.42813,0,0,0,0,0,0,0,-1,1616,414,3.01566,9.42814
399,610,3.03833,-2.82547,0,0,0,0,0,0,0,-1,1623,414,3.03827,2.82546
406,610,2.91687,-2.9166,0,0,0,0,0,0,0,-1,1630,414,2.91688,2.91659
413,610,3.01929,-3.20306,0,0,0,0,0,0,0,-1,1637,414,3.01929,3.20306
420,610,4.78149,-3.64041,0,0,0,0,0,0,0,-1,1644,414,4.78152,3.64042
427,610,5.20764,-4.67545,0,0,0,0,0,0,0,-1,1651,414,5.20759,4.67545
434,610,5.39233,-5.45441,0,0,0,0,0,0,0,-1,1658,414,5.39228,5.4544
441,610,0,0,0,0,0,0,0,0,0,-1,1665,414,0,0
448,610,0,0,0,0,0,0,0,0,0,-1,1672,414,0,0
455,610,0,0,0,0,0,0,0,0,0,-1,1679,414,0,0
462,610,0,0,0,0,0,0,0,0,0,-1,1686,414,0,0
469,610,0,0,0,0,0,0,0,0,0,-1,1693,414,0,0
476,610,0,0,0,0,0,0,0,0,0,-1,1700,414,0,0
483,610,0,0,0,0,0,0,0,0,0,-1,1707,414,0,0
490,610,0,0,0,0,0,0,0,0,0,-1,1714,414,0,0
497,610,0,0,0,0,0,0,0,0,0,-1,1721,414,0,0
504,610,0,0,0,0,0,0,0,0,0,-1,1728,414,0,0
511,610,0,0,0,0,0,0,0,0,0,-1,1735,414,0,0
518,610,0,0,0,0,0,0,0,0,0,-1,1742,414,0,0
525,610,0,0,0,0,0,0,0,0,0,-1,1749,414,0,0
532,610,0,0,0,0,0,0,0,0,0,-1,1756,414,0,0
539,610,0,0,0,0,0,0,0,0,0,-1,1763,414,0,0
546,610,0,0,0,0,0,0,0,0,0,-1,1770,414,0,0
553,610,0,0,0,0,0,0,0,0,0,-1,1777,414,0,0
560,610,0,0,0,0,0,0,0,0,0,-1,1784,414,0,0
567,610,0,0,0,0,0,0,0,0,0,-1,1791,414,0,0
574,610,0,0,0,0,0,0,0,0,0,-1,1798,414,0,0
581,610,0,0,0,0,0,0,0,0,0,-1,1805,414,0,0
588,610,0,0,0,0,0,0,0,0,0,-1,1812,414,0,0
595,610,0,0,0,0,0,0,0,0,0,-1,1819,414,0,0
602,610,0,0,0,0,0,0,0,0,0,-1,1826,414,0,0
609,610,0,0,0,0,0,0,0,0,0,-1,1833,414,0,0
616,610,0,0,0,0,0,0,0,0,0,-1,1840,414,0,0
623,610,0,0,0,0,0,0,0,0,0,-1,1847,414,0,0
630,610,0,0,0,0,0,0,0,0,0,-1,1854,414,0,0
637,610,0,0,0,0,0,0,0,0,0,-1,1861,414,0,0
644,610,0,0,0,0,0,0,0,0,0,-1,1868,414,0,0
651,610,0,0,0,0,0,0,0,0,0,-1,1875,414,0,0
658,610,0,0,0,0,0,0,0,0,0,-1,1882,414,0,0
665,610,0,0,0,0,0,0,0,0,0,-1,1889,414,0,0
672,610,0,0,0,0,0,0,0,0,0,-1,1896,414,0,0
679,610,0,0,0,0,0,0,0,0,0,-1,1903,414,0,0
686,610,0,0,0,0,0,0,0,0,0,-1,1910,414,0,0
693,610,0,0,0,0,0,0,0,0,0,-1,1917,414,0,0
700,610,0,0,0,0,0,0,0,0,0,-1,1924,414,0,0
707,610,0,0,0,0,0,0,0,0,0,-1,1931,414,0,0
714,610,0,0,0,0,0,0,0,0,0,-1,1938,414,0,0
721,610,0,0,0,0,0,0,0,0,0,-1,1945,414,0,0
728,610,0,0,0,0,0,0,0,0,0,-1,1952,414,0,0
735,610,0,0,0,0,0,0,0,0,0,-1,1959,414,0,0
742,610,0,0,0,0,0,0,0,0,0,-1,1966,414,0,0
749,610,0,0,0,0,0,0,0,0,0,-1,1973,414,0,0
756,610,0,0,0,0,0,0,0,0,0,-1,1980,414,0,0
763,610,0,0,0,0,0,0,0,0,0,-1,1987,414,0,0
770,610,0,0,0,0,0,0,0,0,0,-1,1994,414,0,0
777,610,0,0,0,0,0,0,0,0,0,-1,2001,414,0,0
784,610,0,0,0,0,0,0,0,0,0,-1,2008,414,0,0
791,610,0,0,0,0,0,0,0,0,0,-1,2015,414,0,0
798,610,0,0,0,0,0,0,0,0,0,-1,2022,414,0,0
805,610,0,0,0,0,0,0,0,0,0,-1,2029,414,0,0
812,610,0,0,0,0,0,0,0,0,0,-1,2036,414,0,0
-700,603,0,0,0,0,0,0,0,0,0,-1,524,421,0,0
-693,603,0,0,0,0,0,0,0,0,0,-1,531,421,0,0
-686,603,0,0,0,0,0,0,0,0,0,-1,538,421,0,0
-679,603,0,0,0,0,0,0,0,0,0,-1,545,421,0,0
-672,603,0,0,0,0,0,0,0,0,0,-1,552,421,0,0
-665,603,0,0,0,0,0,0,0,0,0,-1,559,421,0,0
-658,603,0,0,0,0,0,0,0,0,0,-1,566,421,0,0
-651,603,0,0,0,0,0,0,0,0,0,-1,573,421,0,0
-644,603,0,0,0,0,0,0,0,0,0,-1,580,421,0,0
-637,603,0,0,0,0,0,0,0,0,0,-1,587,421,0,0
-630,603,0,0,0,0,0,0,0,0,0,-1,594,421,0,0
-623,603,0,0,0,0,0,0,0,0,0,-1,601,421,0,0
-616,603,0,0,0,0,0,0,0,0,0,-1,608,421,0,0
-609,603,0,0,0,0,0,0,0,0,0,-1,615,421,0,0
-602,603,0,0,0,0,0,0,0,0,0,-1,622,421,0,0
-595,603,0,0,0,0,0,0,0,0,0,-1,629,421,0,0
-588,603,0,0,0,0,0,0,0,0,0,-1,636,421,0,0
-581,603,0,0,0,0,0,0,0,0,0,-1,643,421,0,0
-574,603,0,0,0,0,0,0,0,0,0,-1,650,421,0,0
-567,603,0,0,0,0,0,0,0,0,0,-1,657,421,0,0
-560,603,0,0,0,0,0,0,0,0,0,-1,664,421,0,0
-553,603,0,0,0,0,0,0,0,0,0,-1,671,421,0,0
-546,603,0,0,0,0,0,0,0,0,0,-1,678,421,0,0
-539,603,0,0,0,0,0,0,0,0,0,-1,685,421,0,0
-532,603,0,0,0,0,0,0,0,0,0,-1,692,421,0,0
-525,603,0,0,0,0,0,0,0,0,0,-1,699,421,0,0
-518,603,0,0,0,0,0,0,0,0,0,-1,706,421,0,0
-511,603,0,0,0,0,0,0,0,0,0,-1,713,421,0,0
-504,603,0,0,0,0,0,0,0,0,0,-1,720,421,0,0
-497,603,0,0,0,0,0,0,0,0,0,-1,727,421,0,0
-490,603,0,0,0,0,0,0,0,0,0,-1,734,421,0,0
-483,603,0,0,0,0,0,0,0,0,0,-1,741,421,0,0
-476,603,0,0,0,0,0,0,0,0,0,-1,748,421,0,0
-469,603,0,0,0,0,0,0,0,0,0,-1,755,421,0,0
-462,603,0,0,0,0,0,0,0,0,0,-1,762,421,0,0
-455,603,0,0,0,0,0,0,0,0,0,-1,769,421,0,0
-448,603,0,0,0,0,0,0,0,0,0,-1,776,421,0,0
-441,603,0,0,0,0,0,0,0,0,0,-1,783,421,0,0
-434,603,0,0,0,0,0,0,0,0,0,-1,790,421,0,0
-427,603,0,0,0,0,0,0,0,0,0,-1,797,421,0,0
-420,603,0,0,0,0,0,0,0,0,0,-1,804,421,0,0
-413,603,0,0,0,0,0,0,0,0,0,-1,811,421,0,0
-406,603,0,0,0,0,0,0,0,0,0,-1,818,421,0,0
-399,603,0,0,0,0,0,0,0,0,0,-1,825,421,0,0
-392,603,0,0,0,0,0,0,0,0,0,-1,832,421,0,0
-385,603,0,0,0,0,0,0,0,0,0,-1,839,421,0,0
-378,603,0,0,0,0,0,0,0,0,0,-1,846,421,0,0
-371,603,0,0,0,0,0,0,0,0,0,-1,853,421,0,0
-364,603,0,0,0,0,0,0,0,0,0,-1,860,421,0,0
-357,603,0,0,0,0,0,0,0,0,0,-1,867,421,0,0
-350,603,0,0,0,0,0,0,0,0,0,-1,874,421,0,0
-343,603,0,0,0,0,0,0,0,0,0,-1,881,421,0,0
-336,603,0,0,0,0,0,0,0,0,0,-1,888,421,0,0
-329,603,4.6095,-8.85309,0,0,0,0,0,0,0,-1,895,421,4.60952,8.8531
-322,603,4.4209,-8.48056,0,0,0,0,0,0,0,-1,902,421,4.42093,8.48056
-315,603,3.94946,-8.08862,0,0,0,0,0,0,0,-1,909,421,3.94948,8.08863
-308,603,3.67664,-7.59,0,0,0,0,0,0,0,-1,916,421,3.67665,7.58999
-301,603,2.20026,-9.97235,0,0,0,0,0,0,0,-1,923,421,2.20025,9.97234
-294,603,1.91156,-9.64136,0,0,0,0,0,0,0,-1,930,421,1.91156,9.64137
-287,603,1.93921,-9.72574,0,0,0,0,0,0,0,-1,937,421,1.93921,9.72574
-280,603,2.37079,-10.1415,0,0,0,0,0,0,0,-1,944,421,2.37081,10.1416
-273,603,2.40717,-10.4227,0,0,0,0,0,0,0,-1,951,421,2.40719,10.4227
-266,603,2.47888,-10.381,5.49095e-05,0.00332235,0.000189362,0.00333329,4.39716e-05,1.5131,0.00220768,0.0491859,958,421,2.47886,10.381
-259,603,2.3717,-10.5596,-0.00195387,-0.000161025,0.00388689,0.00293147,-0.00504636,0.89873,0.00465964,0.0456188,965,421,2.37171,10.5596
-252,603,2.44409,-10.8738,-0.00338904,-0.000740783,0.00571055,0.00379715,-0.00792697,0.899322,0.00690748,0.0434761,972,421,2.44411,10.8738
-245,603,2.33411,-10.9468,-0.00423216,-0.000203328,0.00603225,0.00414196,-0.00857745,0.946547,0.00749091,0.0322197,979,421,2.3341,10.9468
-238,603,2.29089,-11.0206,-0.00429588,0.000721491,0.00532895,0.00410273,-0.00767712,1.00539,0.00690468,0.019153,986,421,2.2909,11.0206
-231,603,2.24994,-11.2055,-0.00401092,0.00141416,0.00454824,0.00399732,-0.00659407,1.05428,0.0061759,0.0125601,993,421,2.24993,11.2055
-224,603,2.21442,-11.4187,-0.00353349,0.00195971,0.00350993,0.00366995,-0.00524373,1.11739,0.00517298,0.0126492,1000,421,2.21444,11.4187
-217,603,2.21625,-11.5764,-0.00329787,0.00218545,0.00265461,0.00326003,-0.00437244,1.18616,0.00442218,0.0117469,1007,421,2.21622,11.5764
-210,603,2.21588,-11.7426,-0.00282743,0.00211342,0.00173142,0.00265975,-0.00337376,1.26514,0.00349157,0.0100565,1014,421,2.21589,11.7426
-203,603,2.20605,-11.9266,-0.00233741,0.00189748,0.00100469,0.00212374,-0.00256367,1.34928,0.00271025,0.0154709,1021,421,2.20608,11.9266
-196,603,2.21326,-12.1427,-0.00195847,0.0015473,0.000427105,0.00159859,-0.00200976,1.4513,0.00208778,0.0153595,1028,421,2.21331,12.1427
-189,603,2.20618,-12.2698,-0.00171334,0.00111819,4.47251e-05,0.0011189,-0.00171405,1.55501,0.00164759,0.0129899,1035,421,2.20615,12.2698
-182,603,2.18665,-12.4303,-0.00127758,0.000655837,-0.000425084,0.000745169,-0.00136692,-1.36366,0.0012369,0.0108655,1042,421,2.18667,12.4303
-175,603,2.16785,-12.5678,-0.000881853,0.000101944,-0.000627357,0.000407253,-0.00118716,-1.11788,0.000956542,0.0115125,1049,421,2.16787,12.5678
-168,603,2.16443,-12.6921,-0.00066189,-0.000530216,-0.000520824,-7.10847e-05,-0.00112102,-0.84827,0.000724816,0.0138626,1056,421,2.16442,12.6921
-161,603,2.15649,-12.8549,-0.000516292,-0.000870398,-0.000335561,-0.000313939,-0.00107275,-0.542644,0.000636858,0.0129576,1063,421,2.1565,12.8549
-154,603,2.15857,-13.0073,-0.000261606,-0.0010718,-0.000155471,-0.000232797,-0.00110061,-0.183226,0.000669765,0.0120156,1070,421,2.1586,13.0073
-147,603,2.16748,-13.1078,-9.15567e-06,-0.00119054,2.99423e-06,-9.14815e-06,-0.00119055,0.00253448,0.000790669,0.0124177,1077,421,2.16753,13.1077
-140,603,2.17932,-13.2201,0.000228641,-0.00121394,7.07777e-05,0.000232105,-0.00121741,0.0489065,0.000899017,0.0103649,1084,421,2.17938,13.2201
-133,603,2.16553,-13.3353,0.000512882,-0.00117915,8.83307e-05,0.00051748,-0.00118375,0.0520155,0.001007,0.0113041,1091,421,2.16556,13.3353
-126,603,2.16016,-13.4523,0.000826982,-0.000897555,3.0172e-05,0.00082751,-0.000898083,0.0174886,0.000996549,0.0102598,1098,421,2.16011,13.4523
-119,603,2.17651,-13.5686,0.00118556,-0.000466752,-0.000198239,0.00120902,-0.000490203,-0.11775,0.00100988,0.0101987,1105,421,2.17655,13.5686
-112,603,2.15723,-13.6723,0.00149734,2.87443e-05,-0.000426942,0.00161244,-8.63535e-05,-0.263326,0.00110487,0.0148905,1112,421,2.15721,13.6723
-105,603,2.16431,-13.8093,0.00186947,0.000669822,-0.000679502,0.00217602,0.000363273,-0.4238,0.00134603,0.0144867,1119,421,2.1643,13.8093
-98,603,2.18396,-13.9053,0.00236316,0.0013177,-0.00104771,0.0030113,0.000669562,-0.554004,0.00182574,0.0117875,1126,421,2.18397,13.9053
-91,603,2.20471,-13.9977,0.00288683,0.00178613,-0.00158201,0.00401149,0.000661475,-0.618005,0.00248337,0.00866999,1133,421,2.20467,13.9977
-84,603,2.22107,-14.0973,0.00323914,0.00216053,-0.00197625,0.00474835,0.000651326,-0.652195,0.00297234,0.00845946,1140,421,2.22101,14.0973
-77,603,2.24353,-14.2116,0.00346385,0.00274964,-0.00215399,0.00529014,0.000923349,-0.703251,0.00326282,0.0108432,1147,421,2.24355,14.2116
-70,603,2.32373,-14.4484,0.00413991,0.0027828,-0.00172669,0.00531659,0.00160612,-0.598178,0.00314866,0.030861,1154,421,2.32377,14.4484
-63,603,2.2323,-14.3871,0,0,0,0,0,0,0,-1,1161,421,2.2323,14.3872
-56,603,2.24316,-14.4368,0,0,0,0,0,0,0,-1,1168,421,2.24315,14.4368
-49,603,2.30811,-14.4663,0,0,0,0,0,0,0,-1,1175,421,2.30814,14.4663
-42,603,2.32886,-14.523,0,0,0,0,0,0,0,-1,1182,421,2.32881,14.523
-35,603,2.22632,-14.6032,-0.00374786,-0.00107025,0.0060846,0.00382109,-0.00863921,0.893688,0.00737105,0.0413193,1189,421,2.22635,14.6032
-28,603,2.28516,-14.6396,-0.00492322,6.9643e-05,0.0100562,0.00793461,-0.0127882,0.907063,0.0120732,0.0235551,1196,421,2.2851,14.6396
-21,603,2.34363,-14.6718,-0.00534434,0.00285379,0.01276,0.012157,-0.0146475,0.940813,0.0154978,0.0194209,1203,421,2.34366,14.6719
-14,603,2.38464,-14.7101,-0.00459769,0.00559264,0.0143625,0.015737,-0.014742,0.95585,0.0176002,0.0195657,1210,421,2.38462,14.7101
-7,603,2.43481,-14.7446,-0.0033329,0.00851362,0.015616,0.019292,-0.0141113,0.966668,0.0193626,0.0217192,1217,421,2.43476,14.7446
0,603,2.47339,-14.7579,-0.00283346,0.0112087,0.0167162,0.0223185,-0.0139433,0.984218,0.021121,0.0271949,1224,421,2.47341,14.7579
7,603,2.43652,-14.7547,-0.00240563,0.0135928,0.0171087,0.02448,-0.0132928,1.00408,0.0221247,0.0307727,1231,421,2.43651,14.7547
14,603,2.52148,-14.7644,-0.0021163,0.0154053,0.0169794,0.0257508,-0.0124619,1.02357,0.0225024,0.0276444,1238,421,2.52144,14.7644
21,603,2.54773,-14.7887,-0.0023258,0.0164598,0.0164746,0.0260311,-0.0118971,1.04449,0.0223989,0.020828,1245,421,2.54779,14.7887
28,603,2.65735,-14.818,-0.00277652,0.0165933,0.0157033,0.0253581,-0.0115413,1.06172,0.0217961,0.0228851,1252,421,2.6574,14.818
35,603,2.69202,-14.7515,-0.00331363,0.0161462,0.0149943,0.0242909,-0.0114583,1.0732,0.0210784,0.0310497,1259,421,2.69201,14.7515
42,603,2.64905,-14.8547,-0.00384041,0.0151882,0.0142565,0.0228136,-0.0114658,1.07964,0.0201495,0.0281508,1266,421,2.64903,14.8547
49,603,2.66602,-14.9307,-0.00446002,0.014015,0.0135163,0.0211489,-0.0115939,1.08516,0.0191705,0.0159483,1273,421,2.66601,14.9307
56,603,2.62134,-14.8614,-0.00522366,0.0123772,0.0129116,0.0192023,-0.0120487,1.08453,0.0181997,0.0295693,1280,421,2.62136,14.8614
63,603,2.67163,-14.6316,-0.00556251,0.0115493,0.0124946,0.0181366,-0.0121499,1.08561,0.0175994,0.0387344,1287,421,2.67168,14.6316
70,603,2.67322,-14.5598,-0.00486442,0.0104358,0.0119267,0.016955,-0.0113837,1.07056,0.0164664,0.0419576,1294,421,2.67316,14.5598
77,603,2.63232,-14.534,-0.00341927,0.0101698,0.0114478,0.0166876,-0.00993704,1.05322,0.0155356,0.0440523,1301,421,2.63237,14.534
84,603,2.72681,-14.57,-0.0021733,0.00991776,0.011334,0.0167177,-0.00897329,1.0304,0.0150557,0.0430314,1308,421,2.72679,14.57
91,603,2.86316,-14.7045,-0.000902747,0.0102936,0.0114754,0.0174635,-0.00807266,1.01233,0.015072,0.0449345,1315,421,2.8632,14.7045
98,603,2.8158,-15.0338,-0.000550731,0.0113354,0.0114546,0.0182969,-0.00751225,1.0247,0.0153284,0.044441,1322,421,2.81583,15.0338
105,603,2.97021,-14.9436,-6.73122e-05,0.0124138,0.0115854,0.0193325,-0.00698601,1.03244,0.0157425,0.0393019,1329,421,2.97016,14.9436
112,603,2.9519,-14.6995,0.000421226,0.0127001,0.0114886,0.0195868,-0.0064655,1.03079,0.0156643,0.0330728,1336,421,2.95188,14.6995
119,603,2.93774,-14.6431,0.000217917,0.012969,0.0113506,0.0196121,-0.00642515,1.04129,0.0156621,0.0332209,1343,421,2.93773,14.6431
126,603,2.98657,-14.6001,-0.000671026,0.0128862,0.011173,0.019176,-0.0069609,1.05806,0.0156299,0.037216,1350,421,2.98657,14.6001
133,603,2.96008,-14.5071,-0.00249788,0.0124421,0.010985,0.0182564,-0.00831217,1.08399,0.0156934,0.0337326,1357,421,2.96004,14.5071
140,603,2.99744,-14.4294,-0.00514532,0.0115082,0.0106538,0.0167033,-0.0103403,1.1171,0.015757,0.0219548,1364,421,2.99738,14.4294
147,603,2.97449,-14.378,-0.00787242,0.010293,0.0106332,0.0151946,-0.012774,1.13886,0.0161678,0.017172,1371,421,2.9745,14.3779
154,603,2.94006,-14.3234,-0.0101596,0.00871898,0.0104013,0.0133256,-0.0147663,1.15387,0.016226,0.0265241,1378,421,2.94007,14.3234
161,603,2.93884,-14.1854,0,0,0,0,0,0,0,-1,1385,421,2.9388,14.1854
168,603,3.04663,-14.1497,-0.0125235,0.00508458,0.00847396,0.00850015,-0.0159391,1.18765,0.0143262,0.0309238,1392,421,3.04667,14.1498
175,603,3.15369,-14.0648,-0.0126735,0.00328983,0.00681695,0.00580472,-0.0151884,1.21737,0.0125175,0.0304771,1399,421,3.15371,14.0648
182,603,3.22729,-13.9448,-0.0124151,0.00180884,0.00530278,0.00356815,-0.0141744,1.25045,0.0108366,0.0356547,1406,421,3.22736,13.9448
189,603,3.19995,-13.8565,-0.00955127,0.000776044,0.00378194,0.00201289,-0.0107881,1.25472,0.00794846,0.0318344,1413,421,3.19993,13.8565
196,603,3.11096,-13.7127,-0.00667353,0.000331566,0.00221435,0.000972833,-0.0073148,1.28891,0.00523105,0.0237368,1420,421,3.11102,13.7127
203,603,3.08264,-13.6743,-0.00230134,-0.00109977,0.000110283,-0.00108973,-0.00231137,1.48002,0.0013352,0.0128416,1427,421,3.08263,13.6742
210,603,3.08569,-13.6154,0.000855249,-0.00214822,-0.00246326,0.00223845,-0.00353143,-0.511655,0.00335901,0.0101608,1434,421,3.08566,13.6154
217,603,3.11389,-13.4786,0.00109413,-0.000609452,-0.00256425,0.00294436,-0.00245968,-0.625042,0.00312421,0.0124264,1441,421,3.11384,13.4786
224,603,3.1311,-13.3571,0.00092243,0.000235923,-0.0021094,0.00271632,-0.00155797,-0.704742,0.00249779,0.0161714,1448,421,3.13106,13.3571
231,603,3.13428,-13.2433,0.000802674,0.000860963,-0.00173905,0.00257112,-0.000907479,-0.793777,0.00208352,0.0145948,1455,421,3.13425,13.2433
238,603,3.13342,-13.1057,0.000780649,0.00142601,-0.00136203,0.00250307,-0.000296406,-0.901709,0.00177578,0.010715,1462,421,3.13345,13.1057
245,603,3.13257,-12.9692,0.000807661,0.00187975,-0.00102917,0.0025041,0.000183305,-1.02549,0.00161178,0.0119662,1469,421,3.13261,12.9692
252,603,3.14429,-12.8376,0.000801722,0.00222471,-0.000733072,0.0025348,0.00049164,-1.17063,0.00155216,0.0110019,1476,421,3.14429,12.8376
259,603,3.15271,-12.691,0.000761646,0.00237379,-0.000437621,0.00248492,0.000650514,-1.32211,0.00148796,0.0103114,1483,421,3.15275,12.691
266,603,3.14368,-12.5351,0.000689095,0.00243483,-0.000210945,0.00245995,0.000663968,-1.45223,0.00146953,0.0109403,1490,421,3.14373,12.5351
273,603,3.14917,-12.3692,0.000597431,0.0024661,-8.57667e-06,0.00246614,0.000597392,-1.56621,0.00148555,0.00955346,1497,421,3.14922,12.3692
280,603,3.16101,-12.2134,0.000543648,0.00245138,0.00028167,0.00249209,0.000502929,1.42723,0.00152171,0.011182,1504,421,3.16101,12.2134
287,603,3.17297,-12.0539,0.000513619,0.00232998,0.000545381,0.00248115,0.000362444,1.30039,0.0015475,0.0110683,1511,421,3.17294,12.0539
294,603,3.16687,-11.889,0.000465681,0.0022319,0.000764599,0.0025169,0.000180675,1.214,0.00162107,0.00935171,1518,421,3.16693,11.889
301,603,3.16687,-11.7486,0.000392036,0.00213066,0.00099542,0.00258292,-6.02283e-05,1.14433,0.00174237,0.0110128,1525,421,3.16683,11.7486
308,603,3.17651,-11.5666,0.000355103,0.00220115,0.00127868,0.00285515,-0.000298896,1.09802,0.00201049,0.0161826,1532,421,3.17655,11.5666
315,603,3.15503,-11.3825,0.000282039,0.00222456,0.00150717,0.00304631,-0.000539715,1.07162,0.00223263,0.0150849,1539,421,3.15505,11.3825
322,603,3.14038,-11.1819,0.000225582,0.00229165,0.00182825,0.00335853,-0.000841301,1.04256,0.00256585,0.0144951,1546,421,3.14038,11.182
329,603,3.11938,-10.9749,0.0001964,0.00242966,0.00217137,0.00375469,-0.00112863,1.02289,0.00295215,0.0109905,1553,421,3.11934,10.9748
336,603,3.12439,-10.8074,8.93101e-05,0.00229655,0.00225486,0.00370339,-0.00131752,1.01298,0.00300594,0.00946676,1560,421,3.12441,10.8074
343,603,3.13879,-10.6209,0.000130141,0.00212456,0.00239843,0.00372482,-0.00147013,0.982414,0.00309204,0.0116571,1567,421,3.13879,10.6209
350,603,3.11609,-10.4045,0.000244805,0.00220601,0.00259881,0.00400307,-0.00155225,0.965803,0.00330977,0.0213585,1574,421,3.11604,10.4045
357,603,3.12964,-10.1329,0.00023992,0.00225731,0.00288696,0.00430672,-0.00180949,0.953467,0.00362798,0.026894,1581,421,3.12959,10.1329
364,603,3.12683,-9.922,0.000223394,0.00233661,0.00313588,0.00458911,-0.0020291,0.947895,0.00391515,0.0259831,1588,421,3.12684,9.922
371,603,3.13708,-9.72391,0.000316345,0.00238199,0.00345653,0.00495671,-0.00225837,0.930577,0.00426163,0.0279495,1595,421,3.1371,9.7239
378,603,3.19727,-9.5914,0.000211634,0.00244026,0.00381939,0.00530457,-0.00265268,0.927334,0.00467839,0.0359121,1602,421,3.19721,9.59139
385,603,3.10925,-9.48355,-0.000186776,0.00236888,0.00369156,0.00499751,-0.00281541,0.952018,0.00456906,0.044106,1609,421,3.10931,9.48356
392,603,3.19971,-9.40237,0,0,0,0,0,0,0,-1,1616,421,3.19973,9.40238
399,603,2.38013,-5.37076,0,0,0,0,0,0,0,-1,1623,421,2.38016,5.37075
406,603,3.01917,-2.37219,0,0,0,0,0,0,0,-1,1630,421,3.01915,2.37219
413,603,2.38928,-2.41275,0,0,0,0,0,0,0,-1,1637,421,2.38926,2.41274
420,603,2.74866,-2.30066,0,0,0,0,0,0,0,-1,1644,421,2.74867,2.30065
427,603,7.11548,-3.35352,0,0,0,0,0,0,0,-1,1651,421,7.11549,3.35351
434,603,7.32153,-4.50525,0,0,0,0,0,0,0,-1,1658,421,7.32149,4.50525
441,603,3.18213,-0.250946,0,0,0,0,0,0,0,-1,1665,421,3.18212,0.250944
448,603,2.95667,-0.066925,0,0,0,0,0,0,0,-1,1672,421,2.95662,0.0669226
455,603,0,0,0,0,0,0,0,0,0,-1,1679,421,0,0
462,603,0,0,0,0,0,0,0,0,0,-1,1686,421,0,0
469,603,0,0,0,0,0,0,0,0,0,-1,1693,421,0,0
476,603,0,0,0,0,0,0,0,0,0,-1,1700,421,0,0
483,603,0,0,0,0,0,0,0,0,0,-1,1707,421,0,0
490,603,0,0,0,0,0,0,0,0,0,-1,1714,421,0,0
497,603,0,0,0,0,0,0,0,0,0,-1,1721,421,0,0
504,603,0,0,0,0,0,0,0,0,0,-1,1728,421,0,0
511,603,0,0,0,0,0,0,0,0,0,-1,1735,421,0,0
518,603,0,0,0,0,0,0,0,0,0,-1,1742,421,0,0
525,603,0,0,0,0,0,0,0,0,0,-1,1749,421,0,0
532,603,0,0,0,0,0,0,0,0,0,-1,1756,421,0,0
539,603,0,0,0,0,0,0,0,0,0,-1,1763,421,0,0
546,603,0,0,0,0,0,0,0,0,0,-1,1770,421,0,0
553,603,0,0,0,0,0,0,0,0,0,-1,1777,421,0,0
560,603,0,0,0,0,0,0,0,0,0,-1,1784,421,0,0
567,603,0,0,0,0,0,0,0,0,0,-1,1791,421,0,0
574,603,0,0,0,0,0,0,0,0,0,-1,1798,421,0,0
581,603,0,0,0,0,0,0,0,0,0,-1,1805,421,0,0
588,603,0,0,0,0,0,0,0,0,0,-1,1812,421,0,0
595,603,0,0,0,0,0,0,0,0,0,-1,1819,421,0,0
602,603,0,0,0,0,0,0,0,0,0,-1,1826,421,0,0
609,603,0,0,0,0,0,0,0,0,0,-1,1833,421,0,0
616,603,0,0,0,0,0,0,0,0,0,-1,1840,421,0,0
623,603,0,0,0,0,0,0,0,0,0,-1,1847,421,0,0
630,603,0,0,0,0,0,0,0,0,0,-1,1854,421,0,0
637,603,0,0,0,0,0,0,0,0,0,-1,1861,421,0,0
644,603,0,0,0,0,0,0,0,0,0,-1,1868,421,0,0
651,603,0,0,0,0,0,0,0,0,0,-1,1875,421,0,0
658,603,0,0,0,0,0,0,0,0,0,-1,1882,421,0,0
665,603,0,0,0,0,0,0,0,0,0,-1,1889,421,0,0
672,603,0,0,0,0,0,0,0,0,0,-1,1896,421,0,0
679,603,0,0,0,0,0,0,0,0,0,-1,1903,421,0,0
686,603,0,0,0,0,0,0,0,0,0,-1,1910,421,0,0
693,603,0,0,0,0,0,0,0,0,0,-1,1917,421,0,0
700,603,0,0,0,0,0,0,0,0,0,-1,1924,421,0,0
707,603,0,0,0,0,0,0,0,0,0,-1,1931,421,0,0
714,603,0,0,0,0,0,0,0,0,0,-1,1938,421,0,0
721,603,0,0,0,0,0,0,0,0,0,-1,1945,421,0,0
728,603,0,0,0,0,0,0,0,0,0,-1,1952,421,0,0
735,603,0,0,0,0,0,0,0,0,0,-1,1959,421,0,0
742,603,0,0,0,0,0,0,0,0,0,-1,1966,421,0,0
749,603,0,0,0,0,0,0,0,0,0,-1,1973,421,0,0
756,603,0,0,0,0,0,0,0,0,0,-1,1980,421,0,0
763,603,0,0,0,0,0,0,0,0,0,-1,1987,421,0,0
770,603,0,0,0,0,0,0,0,0,0,-1,1994,421,0,0
777,603,0,0,0,0,0,0,0,0,0,-1,2001,421,0,0
784,603,0,0,0,0,0,0,0,0,0,-1,2008,421,0,0
791,603,0,0,0,0,0,0,0,0,0,-1,2015,421,0,0
798,603,0,0,0,0,0,0,0,0,0,-1,2022,421,0,0
805,603,0,0,0,0,0,0,0,0,0,-1,2029,421,0,0
812,603,0,0,0,0,0,0,0,0,0,-1,2036,421,0,0
-700,596,0,0,0,0,0,0,0,0,0,-1,524,428,0,0
-693,596,0,0,0,0,0,0,0,0,0,-1,531,428,0,0
-686,596,0,0,0,0,0,0,0,0,0,-1,538,428,0,0
-679,596,0,0,0,0,0,0,0,0,0,-1,545,428,0,0
-672,596,0,0,0,0,0,0,0,0,0,-1,552,428,0,0
-665,596,0,0,0,0,0,0,0,0,0,-1,559,428,0,0
-658,596,0,0,0,0,0,0,0,0,0,-1,566,428,0,0
-651,596,0,0,0,0,0,0,0,0,0,-1,573,428,0,0
-644,596,0,0,0,0,0,0,0,0,0,-1,580,428,0,0
-637,596,0,0,0,0,0,0,0,0,0,-1,587,428,0,0
-630,596,0,0,0,0,0,0,0,0,0,-1,594,428,0,0
-623,596,0,0,0,0,0,0,0,0,0,-1,601,428,0,0
-616,596,0,0,0,0,0,0,0,0,0,-1,608,428,0,0
-609,596,0,0,0,0,0,0,0,0,0,-1,615,428,0,0
-602,596,0,0,0,0,0,0,0,0,0,-1,622,428,0,0
-595,596,0,0,0,0,0,0,0,0,0,-1,629,428,0,0
-588,596,0,0,0,0,0,0,0,0,0,-1,636,428,0,0
-581,596,0,0,0,0,0,0,0,0,0,-1,643,428,0,0
-574,596,0,0,0,0,0,0,0,0,0,-1,650,428,0,0
-567,596,0,0,0,0,0,0,0,0,0,-1,657,428,0,0
-560,596,0,0,0,0,0,0,0,0,0,-1,664,428,0,0
-553,596,0,0,0,0,0,0,0,0,0,-1,671,428,0,0
-546,596,0,0,0,0,0,0,0,0,0,-1,678,428,0,0
-539,596,0,0,0,0,0,0,0,0,0,-1,685,428,0,0
-532,596,0,0,0,0,0,0,0,0,0,-1,692,428,0,0
-525,596,0,0,0,0,0,0,0,0,0,-1,699,428,0,0
-518,596,0,0,0,0,0,0,0,0,0,-1,706,428,0,0
-511,596,0,0,0,0,0,0,0,0,0,-1,713,428,0,0
-504,596,0,0,0,0,0,0,0,0,0,-1,720,428,0,0
-497,596,0,0,0,0,0,0,0,0,0,-1,727,428,0,0
-490,596,0,0,0,0,0,0,0,0,0,-1,734,428,0,0
-483,596,0,0,0,0,0,0,0,0,0,-1,741,428,0,0
-476,596,0,0,0,0,0,0,0,0,0,-1,748,428,0,0
-469,596,0,0,0,0,0,0,0,0,0,-1,755,428,0,0
-462,596,0,0,0,0,0,0,0,0,0,-1,762,428,0,0
-455,596,0,0,0,0,0,0,0,0,0,-1,769,428,0,0
-448,596,0,0,0,0,0,0,0,0,0,-1,776,428,0,0
-441,596,0,0,0,0,0,0,0,0,0,-1,783,428,0,0
-434,596,0,0,0,0,0,0,0,0,0,-1,790,428,0,0
-427,596,0,0,0,0,0,0,0,0,0,-1,797,428,0,0
-420,596,0,0,0,0,0,0,0,0,0,-1,804,428,0,0
-413,596,0,0,0,0,0,0,0,0,0,-1,811,428,0,0
-406,596,0,0,0,0,0,0,0,0,0,-1,818,428,0,0
-399,596,0,0,0,0,0,0,0,0,0,-1,825,428,0,0
-392,596,0,0,0,0,0,0,0,0,0,-1,832,428,0,0
-385,596,0,0,0,0,0,0,0,0,0,-1,839,428,0,0
-378,596,0,0,0,0,0,0,0,0,0,-1,846,428,0,0
-371,596,0,0,0,0,0,0,0,0,0,-1,853,428,0,0
-364,596,0,0,0,0,0,0,0,0,0,-1,860,428,0,0
-357,596,0,0,0,0,0,0,0,0,0,-1,867,428,0,0
-350,596,0,0,0,0,0,0,0,0,0,-1,874,428,0,0
-343,596,0,0,0,0,0,0,0,0,0,-1,881,428,0,0
-336,596,1.89813,-9.66019,0,0,0,0,0,0,0,-1,888,428,1.89813,9.6602
-329,596,1.54865,-9.16202,0,0,0,0,0,0,0,-1,895,428,1.54866,9.16203
-322,596,2.35809,-9.06784,0,0,0,0,0,0,0,-1,902,428,2.35812,9.06783
-315,596,2.86914,-8.61859,0,0,0,0,0,0,0,-1,909,428,2.86912,8.6186
-308,596,2.68317,-10.0679,0,0,0,0,0,0,0,-1,916,428,2.68318,10.0679
-301,596,2.28235,-9.79004,0,0,0,0,0,0,0,-1,923,428,2.28237,9.79005
-294,596,1.87262,-9.54074,0,0,0,0,0,0,0,-1,930,428,1.8726,9.54074
-287,596,2.08307,-9.51724,0,0,0,0,0,0,0,-1,937,428,2.08307,9.51724
-280,596,2.19647,-10.0648,0,0,0,0,0,0,0,-1,944,428,2.1965,10.0647
-273,596,2.20313,-10.2658,0.00278014,0.00576044,-0.00483816,0.00933274,-0.000792149,-0.934788,0.00650198,0.0457638,951,428,2.20311,10.2658
-266,596,2.20728,-10.4026,0.000495421,0.00299369,-0.001342,0.00357794,-8.88309e-05,-1.16018,0.00241545,0.0380326,958,428,2.20729,10.4026
-259,596,2.08685,-10.4894,-0.00112288,1.37201e-06,0.00181786,0.00134204,-0.00246355,0.935346,0.00222873,0.0329742,965,428,2.08688,10.4894
-252,596,2.12354,-10.6748,-0.00228912,-0.000606027,0.0034846,0.0021372,-0.00503235,0.903882,0.00425035,0.0163166,972,428,2.12354,10.6748
-245,596,2.09479,-10.8519,-0.00297896,-0.000303801,0.00390481,0.00248617,-0.00576893,0.950408,0.00489009,0.0118868,979,428,2.09478,10.8519
-238,596,2.07953,-11.0366,-0.00304261,0.000320137,0.00353338,0.0025518,-0.00527427,1.00747,0.00460861,0.01075,986,428,2.07955,11.0366
-231,596,2.05298,-11.2427,-0.00285512,0.000754713,0.00312003,0.00255428,-0.00465469,1.04763,0.00422058,0.0123794,993,428,2.05301,11.2427
-224,596,2.03558,-11.4508,-0.0025643,0.00108859,0.00255207,0.00240045,-0.00387616,1.09598,0.00365704,0.0133773,1000,428,2.0356,11.4508
-217,596,2.05664,-11.594,-0.0023779,0.00127742,0.00203837,0.00218751,-0.00328799,1.15087,0.0031825,0.0144867,1007,428,2.05666,11.594
-210,596,2.06647,-11.7599,-0.00204924,0.00115249,0.00143802,0.00170352,-0.00260027,1.20487,0.00250271,0.0118659,1014,428,2.06645,11.7599
-203,596,2.02789,-11.926,-0.00176755,0.000888814,0.000968679,0.00120453,-0.00208327,1.25573,0.00192068,0.0136489,1021,428,2.02792,11.926
-196,596,2.0437,-12.111,-0.00160965,0.000594756,0.000641171,0.000767681,-0.00178257,1.30736,0.00151075,0.0134812,1028,428,2.04372,12.111
-189,596,2.03931,-12.2539,-0.00151299,0.000248881,0.000480951,0.000371619,-0.00163573,1.32093,0.00123317,0.0110263,1035,428,2.03931,12.2539
-182,596,2.02563,-12.4048,-0.00123595,-0.000229831,0.00025155,-0.000170444,-0.00129533,1.33896,0.00081272,0.0109448,1042,428,2.02562,12.4048
-175,596,2.03918,-12.5533,-0.0010503,-0.000775118,0.000210847,-0.00066094,-0.00116448,1.07449,0.000674356,0.0131384,1049,428,2.03914,12.5533
-168,596,2.04663,-12.6766,-0.000997301,-0.00139869,0.000386565,-0.000762438,-0.00163356,0.545962,0.000943829,0.0155144,1056,428,2.04667,12.6766
-161,596,2.04028,-12.8205,-0.000959179,-0.00180975,0.000603024,-0.000646558,-0.00212237,0.478277,0.00125614,0.0140023,1063,428,2.04029,12.8205
-154,596,2.03723,-12.9795,-0.000752659,-0.0020854,0.000812981,-0.000367846,-0.00247022,0.442089,0.00153892,0.0121904,1070,428,2.03724,12.9795
-147,596,2.05176,-13.1085,-0.000469508,-0.00221557,0.000966981,-3.97583e-05,-0.00264532,0.418207,0.00175044,0.0125701,1077,428,2.05176,13.1085
-140,596,2.06494,-13.2318,-0.000158607,-0.00222257,0.000988115,0.000238173,-0.00261935,0.381844,0.00183079,0.0127707,1084,428,2.06495,13.2319
-133,596,2.05945,-13.3574,0.000236538,-0.00214966,0.000896013,0.000535527,-0.00244865,0.32207,0.00183714,0.0131069,1091,428,2.05941,13.3574
-126,596,2.04919,-13.4525,0.000712305,-0.00184723,0.000741432,0.000911566,-0.00204649,0.262548,0.00174923,0.010605,1098,428,2.04919,13.4525
-119,596,2.07532,-13.5891,0.0013008,-0.00133796,0.000328841,0.00134117,-0.00137832,0.122131,0.00157015,0.0136054,1105,428,2.07529,13.5891
-112,596,2.05884,-13.7135,0.00179117,-0.000744494,-6.25982e-05,0.00179272,-0.000746038,-0.0246671,0.0015067,0.0151314,1112,428,2.05882,13.7135
-105,596,2.06079,-13.8141,0.00243771,0.000171074,-0.000522052,0.00255217,5.6615e-05,-0.215833,0.00168289,0.0143613,1119,428,2.0608,13.8141
-98,596,2.0968,-13.8979,0.0033036,0.00120949,-0.00115275,0.00381383,0.000699253,-0.416703,0.00234449,0.00959492,1126,428,2.09676,13.8979
-91,596,2.10474,-14.0085,0.00417227,0.001986,-0.00205835,0.00540975,0.000748519,-0.5413,0.00338469,0.0101663,1133,428,2.10469,14.0084
-84,596,2.14746,-14.1932,0.00469496,0.00264368,-0.00276913,0.00662228,0.000716353,-0.608039,0.0041965,0.0167941,1140,428,2.14752,14.1932
-77,596,2.16028,-14.3542,0.0048089,0.00358604,-0.00303307,0.00729155,0.00110339,-0.685937,0.00453817,0.0473076,1147,428,2.16024,14.3543
-70,596,2.28357,-14.6726,0,0,0,0,0,0,0,-1,1154,428,2.28363,14.6726
-63,596,1.95569,-12.2758,0,0,0,0,0,0,0,-1,1161,428,1.95563,12.2759
-56,596,1.60107,-10.5827,0,0,0,0,0,0,0,-1,1168,428,1.60108,10.5827
-49,596,1.59473,-10.0393,0,0,0,0,0,0,0,-1,1175,428,1.59472,10.0393
-42,596,1.99585,-6.6246,0,0,0,0,0,0,0,-1,1182,428,1.99586,6.62459
-35,596,1.9303,-14.4563,0,0,0,0,0,0,0,-1,1189,428,1.93033,14.4563
-28,596,2.19763,-14.5669,0,0,0,0,0,0,0,-1,1196,428,2.19762,14.5669
-21,596,2.17737,-14.5698,-0.0114713,0.00425352,0.0138855,0.012348,-0.0195658,1.04301,0.0185819,0.0496905,1203,428,2.17737,14.5698
-14,596,2.30811,-14.403,-0.0101353,0.00776419,0.0164523,0.0175434,-0.0199145,1.0345,0.0216408,0.0443219,1210,428,2.30816,14.403
-7,596,2.3114,-14.3723,-0.00795895,0.0117438,0.0186975,0.0230264,-0.0192416,1.02786,0.0244361,0.0479337,1217,428,2.31146,14.3723
0,596,2.40747,-14.3651,0,0,0,0,0,0,0,-1,1224,428,2.40744,14.3651
7,596,2.41431,-14.6363,-0.00550589,0.0190194,0.0219108,0.0318656,-0.0183521,1.04051,0.0293411,0.0441777,1231,428,2.41435,14.6362
14,596,2.53748,-14.6378,-0.00462129,0.0216609,0.0222147,0.0343303,-0.0172907,1.05249,0.0303398,0.0438936,1238,428,2.53752,14.6378
21,596,2.64563,-14.6598,-0.00447725,0.023245,0.0218508,0.0352602,-0.0164925,1.06805,0.0305273,0.0440929,1245,428,2.6456,14.6598
28,596,2.66577,-14.7289,-0.00478709,0.023554,0.0209787,0.0346996,-0.0159327,1.08244,0.0298944,0.042856,1252,428,2.66573,14.7289
35,596,2.77844,-14.7237,-0.00533361,0.023019,0.02004,0.03339,-0.0157046,1.09324,0.0289513,0.0445046,1259,428,2.77844,14.7237
42,596,2.87134,-14.6998,0,0,0,0,0,0,0,-1,1266,428,2.87135,14.6998
49,596,2.47266,-14.8441,-0.00663872,0.0204582,0.0181901,0.029591,-0.0157715,1.10549,0.0265921,0.0436655,1273,428,2.47263,14.8441
56,596,2.44666,-14.8372,-0.00785565,0.0180263,0.017101,0.0265309,-0.0163602,1.1093,0.0249942,0.0436546,1280,428,2.44662,14.8372
63,596,2.48804,-14.6041,-0.00849566,0.0167377,0.0163783,0.0247954,-0.0165534,1.11359,0.0240303,0.0452239,1287,428,2.48801,14.6041
70,596,2.4292,-14.4152,-0.00775581,0.0151637,0.0156284,0.0230836,-0.0156757,1.10175,0.0225135,0.0432214,1294,428,2.42915,14.4152
77,596,2.66614,-14.1308,-0.00595586,0.0147453,0.0151225,0.0227203,-0.0139308,1.0855,0.0213624,0.0466384,1301,428,2.66618,14.1308
84,596,2.86572,-14.3005,-0.00436825,0.0143847,0.0151608,0.0228343,-0.0128178,1.06234,0.0208528,0.0448336,1308,428,2.86569,14.3005
91,596,2.69885,-14.5021,-0.00264098,0.0148726,0.015566,0.0239759,-0.0117443,1.04161,0.0210222,0.0417056,1315,428,2.69885,14.5021
98,596,2.46936,-14.7188,0,0,0,0,0,0,0,-1,1322,428,2.46938,14.7188
105,596,3.0238,-15.1907,-0.00274493,0.0179509,0.0160202,0.0266746,-0.0114686,1.07215,0.0225978,0.0444773,1329,428,3.02383,15.1907
112,596,3.17712,-14.6774,-0.00286032,0.0183669,0.0159665,0.0269256,-0.011419,1.07873,0.0227337,0.0399185,1336,428,3.17718,14.6774
119,596,3.39075,-14.6343,-0.00379012,0.018953,0.0158672,0.0271027,-0.0119398,1.09631,0.0231009,0.0410126,1343,428,3.39076,14.6343
126,596,3.68884,-14.6744,-0.00570896,0.0191347,0.0156292,0.0266772,-0.0132515,1.12117,0.0234832,0.0418571,1350,428,3.68882,14.6744
133,596,3.3468,-14.5601,-0.00892814,0.018895,0.0153015,0.0256636,-0.0156967,1.15433,0.0241094,0.0450299,1357,428,3.34677,14.5601
140,596,3.20032,-14.3621,-0.0132792,0.0179929,0.0147544,0.0238552,-0.0191415,1.1926,0.0248738,0.0423487,1364,428,3.20033,14.3621
147,596,2.83911,-14.1797,-0.0177231,0.0166109,0.0145546,0.0219504,-0.0230626,1.21918,0.0259909,0.0363185,1371,428,2.83906,14.1797
154,596,2.55957,-14.0158,-0.0215111,0.0149397,0.0141619,0.0197951,-0.0263665,1.2405,0.0267413,0.0421308,1378,428,2.55961,14.0158
161,596,2.57068,-13.9018,-0.0241074,0.0134015,0.0132943,0.0176355,-0.0283414,1.26247,0.0267836,0.0461953,1385,428,2.57063,13.9018
168,596,2.64734,-13.8395,0,0,0,0,0,0,0,-1,1392,428,2.64732,13.8395
175,596,3.3501,-13.9078,0,0,0,0,0,0,0,-1,1399,428,3.35007,13.9078
182,596,3.41833,-13.8301,0,0,0,0,0,0,0,-1,1406,428,3.41838,13.8301
189,596,3.31763,-13.8337,0,0,0,0,0,0,0,-1,1413,428,3.31763,13.8337
196,596,3.25293,-13.5872,0,0,0,0,0,0,0,-1,1420,428,3.25291,13.5872
203,596,3.18103,-13.6776,0,0,0,0,0,0,0,-1,1427,428,3.18097,13.6776
210,596,3.22583,-13.6767,-0.000522917,-0.00352404,-0.00333487,0.00163344,-0.0056804,-0.573988,0.00443289,0.0482671,1434,428,3.22588,13.6767
217,596,3.21216,-13.4897,0.0014713,-0.00121171,-0.00392893,0.00428144,-0.00402185,-0.620883,0.00479469,0.0160652,1441,428,3.21211,13.4897
224,596,3.24133,-13.3702,0.00125887,-3.16111e-05,-0.00338565,0.00406021,-0.00283296,-0.691237,0.00400074,0.0110834,1448,428,3.24128,13.3702
231,596,3.26318,-13.2345,0.00107958,0.000831623,-0.00286565,0.00382393,-0.00191272,-0.76378,0.00337277,0.0115796,1455,428,3.26318,13.2345
238,596,3.26892,-13.0957,0.00105235,0.00153285,-0.0023389,0.00364381,-0.00105861,-0.836578,0.00284842,0.0142369,1462,428,3.26892,13.0957
245,596,3.28137,-12.9688,0.00111367,0.00208046,-0.00183586,0.0034955,-0.000301372,-0.91413,0.00243701,0.0132351,1469,428,3.28137,12.9687
252,596,3.29858,-12.8295,0.00110291,0.00243506,-0.00135435,0.00327826,0.0002597,-1.01393,0.00210429,0.00986613,1476,428,3.29862,12.8295
259,596,3.30701,-12.6803,0.00104806,0.00252795,-0.000908245,0.00295951,0.000616498,-1.12722,0.00180299,0.00855418,1483,428,3.30707,12.6803
266,596,3.29675,-12.5322,0.000978701,0.0024825,-0.00055946,0.0026678,0.000793398,-1.25095,0.00158184,0.00992715,1490,428,3.29676,12.5322
273,596,3.29907,-12.3751,0.000868337,0.00242552,-0.000251348,0.00246508,0.000828771,-1.41466,0.00144845,0.0115018,1497,428,3.29902,12.3751
280,596,3.31335,-12.2091,0.000757678,0.00232606,9.37096e-05,0.00233164,0.000752099,1.51133,0.00137414,0.0127053,1504,428,3.3134,12.2092
287,596,3.32178,-12.0567,0.000707092,0.00207196,0.000348173,0.00215564,0.000623406,1.33491,0.0012809,0.0114652,1511,428,3.32174,12.0567
294,596,3.31763,-11.903,0.0006424,0.00182406,0.000521101,0.00202103,0.000445432,1.20941,0.00122615,0.00897271,1518,428,3.31757,11.903
301,596,3.31641,-11.7339,0.000515888,0.00156895,0.000666509,0.00189181,0.000193026,1.1197,0.00120204,0.010145,1525,428,3.31643,11.7339
308,596,3.35022,-11.5616,0.000425376,0.00153202,0.000834308,0.00197982,-2.24189e-05,1.0782,0.00132741,0.0155453,1532,428,3.35018,11.5616
315,596,3.32471,-11.3828,0.000351217,0.00154139,0.000993979,0.0021048,-0.000212197,1.05513,0.00147902,0.0160761,1539,428,3.3247,11.3828
322,596,3.30615,-11.1763,0.000280388,0.00161865,0.00117877,0.00230496,-0.000405924,1.04355,0.0016883,0.0136463,1546,428,3.30621,11.1763
329,596,3.29663,-10.9977,0.000237826,0.00170155,0.0013978,0.00254749,-0.000608113,1.02657,0.00193318,0.0103427,1553,428,3.2966,10.9977
336,596,3.29114,-10.8259,0.000161034,0.0016631,0.00155119,0.00263551,-0.000811374,1.01085,0.00208088,0.0088542,1560,428,3.29111,10.8259
343,596,3.30212,-10.6364,0.000174153,0.00158872,0.0017697,0.00278724,-0.00102437,0.975506,0.00227774,0.0115633,1567,428,3.30218,10.6363
350,596,3.30164,-10.4084,0.000231593,0.00169837,0.00202163,0.00311553,-0.00118556,0.959402,0.00256521,0.012361,1574,428,3.3017,10.4084
357,596,3.29114,-10.1908,0.000217709,0.00180099,0.00231967,0.00346038,-0.00144169,0.949837,0.0029091,0.00999576,1581,428,3.29115,10.1908
364,596,3.28845,-9.98209,0.000187801,0.00194351,0.0025945,0.00380464,-0.00167333,0.948529,0.00324152,0.00917408,1588,428,3.28843,9.98208
371,596,3.28149,-9.77969,0.000210524,0.00203813,0.00289446,0.0041596,-0.00191095,0.9383,0.00358409,0.00965441,1595,428,3.28153,9.7797
378,596,3.26831,-9.59451,6.70885e-05,0.00212637,0.00316883,0.00442865,-0.00223518,0.942482,0.00391622,0.0134397,1602,428,3.26827,9.59452
385,596,3.3042,-9.3403,-0.000187515,0.0021089,0.00309114,0.0042582,-0.00233681,0.963226,0.00386112,0.0248848,1609,428,3.30423,9.34029
392,596,3.35791,-9.133,0.000204529,0.00219449,0.003169,0.00452104,-0.00212202,0.937511,0.00391785,0.0345226,1616,428,3.35794,9.13298
399,596,3.3313,-8.97559,0,0,0,0,0,0,0,-1,1623,428,3.33128,8.9756
406,596,3.177,-8.54306,0,0,0,0,0,0,0,-1,1630,428,3.17701,8.54306
413,596,3.39124,-2.63528,0,0,0,0,0,0,0,-1,1637,428,3.39122,2.6353
420,596,2.6344,-3.06308,0,0,0,0,0,0,0,-1,1644,428,2.63439,3.06308
427,596,2.99329,-1.90512,0,0,0,0,0,0,0,-1,1651,428,2.99327,1.90512
434,596,3.80896,-0.253998,0,0,0,0,0,0,0,-1,1658,428,3.80902,0.254004
441,596,3.86401,-0.131622,0,0,0,0,0,0,0,-1,1665,428,3.86406,0.131613
448,596,1.0769,0.0083313,0,0,0,0,0,0,0,-1,1672,428,1.07684,-0.00832231
455,596,2.00769,-1.43329,0,0,0,0,0,0,0,-1,1679,428,2.00765,1.4333
462,596,0,0,0,0,0,0,0,0,0,-1,1686,428,0,0
469,596,0,0,0,0,0,0,0,0,0,-1,1693,428,0,0
476,596,0,0,0,0,0,0,0,0,0,-1,1700,428,0,0
483,596,0,0,0,0,0,0,0,0,0,-1,1707,428,0,0
490,596,0,0,0,0,0,0,0,0,0,-1,1714,428,0,0
497,596,0,0,0,0,0,0,0,0,0,-1,1721,428,0,0
504,596,0,0,0,0,0,0,0,0,0,-1,1728,428,0,0
511,596,0,0,0,0,0,0,0,0,0,-1,1735,428,0,0
518,596,0,0,0,0,0,0,0,0,0,-1,1742,428,0,0
525,596,0,0,0,0,0,0,0,0,0,-1,1749,428,0,0
532,596,0,0,0,0,0,0,0,0,0,-1,1756,428,0,0
539,596,0,0,0,0,0,0,0,0,0,-1,1763,428,0,0
546,596,0,0,0,0,0,0,0,0,0,-1,1770,428,0,0
553,596,0,0,0,0,0,0,0,0,0,-1,1777,428,0,0
560,596,0,0,0,0,0,0,0,0,0,-1,1784,428,0,0
567,596,0,0,0,0,0,0,0,0,0,-1,1791,428,0,0
574,596,0,0,0,0,0,0,0,0,0,-1,1798,428,0,0
581,596,0,0,0,0,0,0,0,0,0,-1,1805,428,0,0
588,596,0,0,0,0,0,0,0,0,0,-1,1812,428,0,0
595,596,0,0,0,0,0,0,0,0,0,-1,1819,428,0,0
602,596,0,0,0,0,0,0,0,0,0,-1,1826,428,0,0
609,596,0,0,0,0,0,0,0,0,0,-1,1833,428,0,0
616,596,0,0,0,0,0,0,0,0,0,-1,1840,428,0,0
623,596,0,0,0,0,0,0,0,0,0,-1,1847,428,0,0
630,596,0,0,0,0,0,0,0,0,0,-1,1854,428,0,0
637,596,0,0,0,0,0,0,0,0,0,-1,1861,428,0,0
644,596,0,0,0,0,0,0,0,0,0,-1,1868,428,0,0
651,596,0,0,0,0,0,0,0,0,0,-1,1875,428,0,0
658,596,0,0,0,0,0,0,0,0,0,-1,1882,428,0,0
665,596,0,0,0,0,0,0,0,0,0,-1,1889,428,0,0
672,596,0,0,0,0,0,0,0,0,0,-1,1896,428,0,0
679,596,0,0,0,0,0,0,0,0,0,-1,1903,428,0,0
686,596,0,0,0,0,0,0,0,0,0,-1,1910,428,0,0
693,596,0,0,0,0,0,0,0,0,0,-1,1917,428,0,0
700,596,0,0,0,0,0,0,0,0,0,-1,1924,428,0,0
707,596,0,0,0,0,0,0,0,0,0,-1,1931,428,0,0
714,596,0,0,0,0,0,0,0,0,0,-1,1938,428,0,0
721,596,0,0,0,0,0,0,0,0,0,-1,1945,428,0,0
728,596,0,0,0,0,0,0,0,0,0,-1,1952,428,0,0
735,596,0,0,0,0,0,0,0,0,0,-1,1959,428,0,0
742,596,0,0,0,0,0,0,0,0,0,-1,1966,428,0,0
749,596,0,0,0,0,0,0,0,0,0,-1,1973,428,0,0
756,596,0,0,0,0,0,0,0,0,0,-1,1980,428,0,0
763,596,0,0,0,0,0,0,0,0,0,-1,1987,428,0,0
770,596,0,0,0,0,0,0,0,0,0,-1,1994,428,0,0
777,596,0,0,0,0,0,0,0,0,0,-1,2001,428,0,0
784,596,0,0,0,0,0,0,0,0,0,-1,2008,428,0,0
791,596,0,0,0,0,0,0,0,0,0,-1,2015,428,0,0
798,596,0,0,0,0,0,0,0,0,0,-1,2022,428,0,0
805,596,0,0,0,0,0,0,0,0,0,-1,2029,428,0,0
812,596,0,0,0,0,0,0,0,0,0,-1,2036,428,0,0
-700,589,0,0,0,0,0,0,0,0,0,-1,524,435,0,0
-693,589,0,0,0,0,0,0,0,0,0,-1,531,435,0,0
-686,589,0,0,0,0,0,0,0,0,0,-1,538,435,0,0
-679,589,0,0,0,0,0,0,0,0,0,-1,545,435,0,0
-672,589,0,0,0,0,0,0,0,0,0,-1,552,435,0,0
-665,589,0,0,0,0,0,0,0,0,0,-1,559,435,0,0
-658,589,0,0,0,0,0,0,0,0,0,-1,566,435,0,0
-651,589,0,0,0,0,0,0,0,0,0,-1,573,435,0,0
-644,589,0,0,0,0,0,0,0,0,0,-1,580,435,0,0
-637,589,0,0,0,0,0,0,0,0,0,-1,587,435,0,0
-630,589,0,0,0,0,0,0,0,0,0,-1,594,435,0,0
-623,589,0,0,0,0,0,0,0,0,0,-1,601,435,0,0
-616,589,0,0,0,0,0,0,0,0,0,-1,608,435,0,0
-609,589,0,0,0,0,0,0,0,0,0,-1,615,435,0,0
-602,589,0,0,0,0,0,0,0,0,0,-1,622,435,0,0
-595,589,0,0,0,0,0,0,0,0,0,-1,629,435,0,0
-588,589,0,0,0,0,0,0,0,0,0,-1,636,435,0,0
-581,589,0,0,0,0,0,0,0,0,0,-1,643,435,0,0
-574,589,0,0,0,0,0,0,0,0,0,-1,650,435,0,0
-567,589,0,0,0,0,0,0,0,0,0,-1,657,435,0,0
-560,589,0,0,0,0,0,0,0,0,0,-1,664,435,0,0
-553,589,0,0,0,0,0,0,0,0,0,-1,671,435,0,0
-546,589,0,0,0,0,0,0,0,0,0,-1,678,435,0,0
-539,589,0,0,0,0,0,0,0,0,0,-1,685,435,0,0
-532,589,0,0,0,0,0,0,0,0,0,-1,692,435,0,0
-525,589,0,0,0,0,0,0,0,0,0,-1,699,435,0,0
-518,589,0,0,0,0,0,0,0,0,0,-1,706,435,0,0
-511,589,0,0,0,0,0,0,0,0,0,-1,713,435,0,0
-504,589,0,0,0,0,0,0,0,0,0,-1,720,435,0,0
-497,589,0,0,0,0,0,0,0,0,0,-1,727,435,0,0
-490,589,0,0,0,0,0,0,0,0,0,-1,734,435,0,0
-483,589,0,0,0,0,0,0,0,0,0,-1,741,435,0,0
-476,589,0,0,0,0,0,0,0,0,0,-1,748,435,0,0
-469,589,0,0,0,0,0,0,0,0,0,-1,755,435,0,0
-462,589,0,0,0,0,0,0,0,0,0,-1,762,435,0,0
-455,589,0,0,0,0,0,0,0,0,0,-1,769,435,0,0
-448,589,0,0,0,0,0,0,0,0,0,-1,776,435,0,0
-441,589,0,0,0,0,0,0,0,0,0,-1,783,435,0,0
-434,589,0,0,0,0,0,0,0,0,0,-1,790,435,0,0
-427,589,0,0,0,0,0,0,0,0,0,-1,797,435,0,0
-420,589,0,0,0,0,0,0,0,0,0,-1,804,435,0,0
-413,589,0,0,0,0,0,0,0,0,0,-1,811,435,0,0
-406,589,0,0,0,0,0,0,0,0,0,-1,818,435,0,0
-399,589,0,0,0,0,0,0,0,0,0,-1,825,435,0,0
-392,589,0,0,0,0,0,0,0,0,0,-1,832,435,0,0
-385,589,0,0,0,0,0,0,0,0,0,-1,839,435,0,0
-378,589,0,0,0,0,0,0,0,0,0,-1,846,435,0,0
-371,589,0,0,0,0,0,0,0,0,0,-1,853,435,0,0
-364,589,0,0,0,0,0,0,0,0,0,-1,860,435,0,0
-357,589,0,0,0,0,0,0,0,0,0,-1,867,435,0,0
-350,589,-0.262695,-13.5742,0,0,0,0,0,0,0,-1,874,435,-0.262715,13.5742
-343,589,0.187195,-13.2853,0,0,0,0,0,0,0,-1,881,435,0.187181,13.2853
-336,589,0.677856,-12.7685,0,0,0,0,0,0,0,-1,888,435,0.677838,12.7685
-329,589,0.0882568,-9.79782,0,0,0,0,0,0,0,-1,895,435,0.0882795,9.79781
-322,589,2.30444,-8.12494,0,0,0,0,0,0,0,-1,902,435,2.30443,8.12493
-315,589,0.44104,-7.67535,0,0,0,0,0,0,0,-1,909,435,0.44105,7.67536
-308,589,0.190186,-8.57239,0,0,0,0,0,0,0,-1,916,435,0.190188,8.57238
-301,589,0.947876,-8.91055,0,0,0,0,0,0,0,-1,923,435,0.947885,8.91056
-294,589,1.93274,-9.1821,0,0,0,0,0,0,0,-1,930,435,1.93274,9.18211
-287,589,1.94452,-9.50577,0.00763018,0.0122731,-0.0139993,0.0241421,-0.00423884,-0.867564,0.0176779,0.0395764,937,435,1.94453,9.50575
-280,589,1.97577,-9.76639,0.00488484,0.00802374,-0.00869211,0.015287,-0.00237838,-0.874716,0.0110696,0.0317397,944,435,1.97575,9.76638
-273,589,2.00458,-10.0931,0.00251346,0.00503524,-0.00486198,0.00879717,-0.00124847,-0.912272,0.00632216,0.0190156,951,435,2.00456,10.0931
-266,589,1.97382,-10.2813,0.000748949,0.00274566,-0.0020723,0.00404755,-0.000552946,-1.00987,0.00290031,0.0161691,958,435,1.9738,10.2813
-259,589,1.93707,-10.4406,-0.000514248,0.000205839,0.00054042,0.000495168,-0.000803577,1.07925,0.000756845,0.01425,965,435,1.93709,10.4406
-252,589,1.93774,-10.6531,-0.0014498,-0.000451439,0.0020079,0.0011184,-0.00301964,0.907232,0.00247172,0.00921424,972,435,1.93774,10.6531
-245,589,1.93652,-10.8596,-0.00203041,-0.00038515,0.00248117,0.00140621,-0.00382177,0.94547,0.00312393,0.0102374,979,435,1.93652,10.8596
-238,589,1.92389,-11.0687,-0.00212106,-7.26371e-05,0.00237202,0.00148684,-0.00368054,0.989202,0.0030717,0.0141963,986,435,1.92387,11.0687
-231,589,1.90546,-11.2596,-0.0020326,0.000114216,0.00223443,0.0015197,-0.00343808,1.00932,0.00293293,0.0146568,993,435,1.90545,11.2596
-224,589,1.87842,-11.4655,-0.0019164,0.000238739,0.00203648,0.00146517,-0.00314283,1.02874,0.00271857,0.0146276,1000,435,1.87844,11.4655
-217,589,1.89252,-11.6152,-0.00175532,0.00037202,0.00179719,0.00139672,-0.00278002,1.0526,0.00245513,0.0160124,1007,435,1.89253,11.6152
-210,589,1.89478,-11.7721,-0.00154159,0.000188762,0.00146048,0.00102109,-0.00237392,1.0528,0.00201131,0.0145749,1014,435,1.89478,11.7721
-203,589,1.86481,-11.9297,-0.00145077,-0.000123874,0.00119902,0.000583013,-0.00215766,1.03809,0.00166711,0.0101997,1021,435,1.86482,11.9297
-196,589,1.87292,-12.0811,-0.00150028,-0.000356678,0.00108604,0.00029889,-0.00215585,1.02771,0.00154652,0.0131638,1028,435,1.87291,12.0811
-189,589,1.896,-12.2461,-0.00154167,-0.000614743,0.00112316,0.000136819,-0.00229324,0.981077,0.00157641,0.0165571,1035,435,1.89596,12.2461
-182,589,1.88147,-12.3856,-0.00136179,-0.00107148,0.00107,-0.00013684,-0.00229644,0.852817,0.00148744,0.0121144,1042,435,1.8815,12.3856
-175,589,1.89746,-12.5329,-0.00132592,-0.0015758,0.00113171,-0.000312277,-0.00258945,0.730421,0.0016322,0.0146771,1049,435,1.8975,12.5329
-168,589,1.90637,-12.6787,-0.00140008,-0.00219724,0.00134336,-0.000397419,-0.0031999,0.641181,0.00201391,0.012689,1056,435,1.90642,12.6787
-161,589,1.89355,-12.8097,-0.00145435,-0.00269508,0.00156809,-0.000388371,-0.00376106,0.597037,0.00238846,0.0120465,1063,435,1.8935,12.8097
-154,589,1.88831,-12.9529,-0.00128166,-0.00306318,0.00178216,-0.000180045,-0.00416479,0.553646,0.0027185,0.0120817,1070,435,1.88826,12.9529
-147,589,1.91455,-13.1008,-0.000938226,-0.0032439,0.00191629,0.000145275,-0.0043274,0.514601,0.00293456,0.0125213,1077,435,1.91452,13.1008
-140,589,1.93628,-13.2274,-0.000533736,-0.00328066,0.00187225,0.000414811,-0.00422921,0.468941,0.00296742,0.0139311,1084,435,1.93629,13.2274
-133,589,1.94873,-13.3429,-3.59781e-05,-0.00319544,0.00166803,0.000681653,-0.00391307,0.40629,0.00286311,0.0134862,1091,435,1.94879,13.3429
-126,589,1.953,-13.4622,0.000606967,-0.00291203,0.00145159,0.00112846,-0.00343353,0.3449,0.00274365,0.0104955,1098,435,1.95301,13.4622
-119,589,1.9342,-13.5978,0.00145011,-0.00236654,0.000870201,0.00163915,-0.00255558,0.213918,0.00244102,0.0171644,1105,435,1.93415,13.5978
-112,589,1.93872,-13.7247,0.00217873,-0.00165089,0.000313944,0.0022043,-0.00167645,0.081255,0.00224745,0.0183603,1112,435,1.93876,13.7247
-105,589,1.9502,-13.8354,0.00313585,-0.000381747,-0.000306918,0.00316243,-0.000408325,-0.0863823,0.00225674,0.0166579,1119,435,1.9502,13.8354
-98,589,2.01355,-13.9269,0.00438007,0.00116222,-0.00119228,0.00477369,0.000768603,-0.31887,0.00295971,0.0180956,1126,435,2.01361,13.9269
-91,589,2.08081,-14.0223,0.00561475,0.00234121,-0.00255963,0.00701619,0.000939769,-0.500935,0.0043978,0.0261175,1133,435,2.08078,14.0223
-84,589,2.15698,-14.2015,0.00637504,0.00328291,-0.00371295,0.00885095,0.000807004,-0.588117,0.00565087,0.0453664,1140,435,2.15693,14.2015
-77,589,2.23804,-14.5396,0,0,0,0,0,0,0,-1,1147,435,2.238,14.5396
-70,589,1.48267,-9.90961,0,0,0,0,0,0,0,-1,1154,435,1.48264,9.9096
-63,589,0.880127,-5.50586,0,0,0,0,0,0,0,-1,1161,435,0.880186,5.50587
-56,589,-2.78052,-7.28082,0,0,0,0,0,0,0,-1,1168,435,-2.78053,7.28082
-49,589,-0.525757,-2.76703,0,0,0,0,0,0,0,-1,1175,435,-0.525771,2.76702
-42,589,-2.7738,-2.87921,0,0,0,0,0,0,0,-1,1182,435,-2.77383,2.87922
-35,589,-2.55225,-3.27551,0,0,0,0,0,0,0,-1,1189,435,-2.55223,3.27552
-28,589,-0.0632324,-3.42938,0,0,0,0,0,0,0,-1,1196,435,-0.063241,3.42938
-21,589,2.00452,-14.4565,0,0,0,0,0,0,0,-1,1203,435,2.00454,14.4565
-14,589,2.23193,-14.121,0,0,0,0,0,0,0,-1,1210,435,2.23191,14.121
-7,589,1.98071,-13.9577,0,0,0,0,0,0,0,-1,1217,435,1.98067,13.9577
0,589,1.46777,-14.1008,0,0,0,0,0,0,0,-1,1224,435,1.46783,14.1008
7,589,2.45898,-14.5244,0,0,0,0,0,0,0,-1,1231,435,2.45893,14.5244
14,589,2.60535,-14.5281,0,0,0,0,0,0,0,-1,1238,435,2.60541,14.5281
21,589,2.70288,-14.5781,0,0,0,0,0,0,0,-1,1245,435,2.70289,14.5781
28,589,2.59875,-14.6897,-0.00707976,0.0320931,0.0275001,0.0462688,-0.0212555,1.09484,0.0398668,0.0470637,1252,435,2.59877,14.6897
35,589,2.55774,-14.7195,-0.00768735,0.0314321,0.0261822,0.044554,-0.0208093,1.10621,0.0385586,0.0470379,1259,435,2.55775,14.7195
42,589,2.58569,-14.6394,0,0,0,0,0,0,0,-1,1266,435,2.58572,14.6394
49,589,2.32336,-14.8083,0,0,0,0,0,0,0,-1,1273,435,2.3234,14.8083
56,589,2.25879,-14.9274,-0.0111661,0.0249258,0.021927,0.0352779,-0.0215182,1.1297,0.0331104,0.0451333,1280,435,2.25881,14.9274
63,589,2.2771,-14.7616,-0.0122729,0.023022,0.020766,0.0326264,-0.0218772,1.13759,0.031671,0.0430673,1287,435,2.27713,14.7616
70,589,2.0437,-14.494,-0.0115932,0.0208953,0.0198083,0.0302683,-0.0209663,1.12883,0.0297424,0.0417432,1294,435,2.04371,14.494
77,589,1.87451,-14.4179,-0.00945438,0.020317,0.0193315,0.0298298,-0.0189672,1.11349,0.0284047,0.0414846,1301,435,1.87449,14.4179
84,589,1.83862,-14.4996,-0.00749951,0.0198774,0.0196127,0.0301061,-0.0177282,1.09007,0.0279237,0.0400449,1308,435,1.83861,14.4996
91,589,2.25195,-14.3061,-0.00521564,0.0205523,0.0203868,0.0317852,-0.0164484,1.0672,0.028313,0.0433256,1315,435,2.25193,14.3061
98,589,2.01379,-14.4213,0,0,0,0,0,0,0,-1,1322,435,2.01375,14.4213
105,589,2.96057,-15.4544,-0.00662412,0.0247668,0.0213141,0.0355409,-0.0173982,1.10276,0.031157,0.0475885,1329,435,2.96062,15.4544
112,589,3.28442,-15.195,-0.00736777,0.0253753,0.021323,0.0358868,-0.0178793,1.11279,0.0316168,0.0425935,1336,435,3.2844,15.195
119,589,3.70178,-14.6812,-0.00904053,0.0263911,0.0213047,0.0363834,-0.0190328,1.13224,0.0325131,0.0432704,1343,435,3.70173,14.6812
126,589,4.25098,-14.8985,-0.011974,0.0269511,0.021001,0.0361213,-0.0211442,1.1591,0.033437,0.0458758,1350,435,4.251,14.8985
133,589,3.74353,-14.7389,0,0,0,0,0,0,0,-1,1357,435,3.74351,14.7389
140,589,3.32739,-14.3399,0,0,0,0,0,0,0,-1,1364,435,3.32741,14.3399
147,589,2.92554,-14.1514,0,0,0,0,0,0,0,-1,1371,435,2.92552,14.1514
154,589,2.0531,-13.4588,-0.0346303,0.0227874,0.0183871,0.0281708,-0.0400137,1.28597,0.0395638,0.042153,1378,435,2.05307,13.4588
161,589,2.23877,-13.5825,-0.038373,0.0212954,0.0172766,0.0259368,-0.0430143,1.30835,0.0402139,0.0462922,1385,435,2.23874,13.5825
168,589,2.6106,-13.5811,0,0,0,0,0,0,0,-1,1392,435,2.6106,13.5811
175,589,8.66992,-7.65527,0,0,0,0,0,0,0,-1,1399,435,8.66994,7.65528
182,589,3.8136,-2.45389,0,0,0,0,0,0,0,-1,1406,435,3.81363,2.4539
189,589,3.69983,-3.68149,0,0,0,0,0,0,0,-1,1413,435,3.69987,3.68147
196,589,3.31055,-5.31677,0,0,0,0,0,0,0,-1,1420,435,3.31059,5.31678
203,589,2.72559,-8.84338,0,0,0,0,0,0,0,-1,1427,435,2.72558,8.84338
210,589,3.23376,-13.7556,0,0,0,0,0,0,0,-1,1434,435,3.23373,13.7556
217,589,3.38562,-13.3411,0.00196753,-0.00181938,-0.00564191,0.00602523,-0.00587709,-0.623501,0.00687199,0.0413655,1441,435,3.38566,13.3411
224,589,3.41553,-13.3602,0.00172528,-0.000181309,-0.00495047,0.00581341,-0.00426944,-0.690279,0.00584404,0.0198509,1448,435,3.41553,13.3602
231,589,3.42407,-13.2817,0.00148744,0.000981945,-0.00425167,0.00549387,-0.00302448,-0.75571,0.00498648,0.0191882,1455,435,3.42404,13.2818
238,589,3.41296,-13.1526,0.00143495,0.00183371,-0.00357891,0.00521879,-0.00195013,-0.813224,0.00427999,0.0223576,1462,435,3.41302,13.1526
245,589,3.40735,-12.9391,0.00150631,0.00246623,-0.00292893,0.00495426,-0.00098173,-0.866611,0.00367407,0.0206639,1469,435,3.40736,12.9391
252,589,3.44226,-12.7979,0.00145266,0.00279487,-0.00229062,0.00451068,-0.000263143,-0.9279,0.00309856,0.0134836,1476,435,3.44231,12.7979
259,589,3.45386,-12.6726,0.00135435,0.00278473,-0.00172988,0.00394144,0.000197646,-0.981414,0.00256429,0.00946843,1483,435,3.45383,12.6726
266,589,3.45386,-12.5218,0.00126807,0.00261694,-0.00129551,0.00340306,0.00048195,-1.02539,0.00212634,0.00931654,1490,435,3.45391,12.5218
273,589,3.45984,-12.3871,0.00111584,0.00241298,-0.000911288,0.00288293,0.000645888,-1.09467,0.00174692,0.0119812,1497,435,3.45981,12.387
280,589,3.46973,-12.2315,0.000938303,0.00219989,-0.000511428,0.00238117,0.000757026,-1.23016,0.00140482,0.0129333,1504,435,3.46974,12.2316
287,589,3.47876,-12.0685,0.000856435,0.00179768,-0.0002394,0.00185507,0.000799044,-1.33551,0.00107445,0.0111894,1511,435,3.47874,12.0685
294,589,3.48779,-11.9015,0.000771409,0.00140455,-7.66167e-05,0.00141369,0.00076227,-1.45207,0.00081703,0.010111,1518,435,3.48779,11.9015
301,589,3.49158,-11.7143,0.000616968,0.00101063,3.73568e-05,0.00101415,0.000613454,1.47702,0.000589798,0.0107396,1525,435,3.49153,11.7143
308,589,3.5061,-11.5323,0.000478345,0.000885749,0.000153942,0.000937376,0.000426719,1.24722,0.000541917,0.010678,1532,435,3.50612,11.5323
315,589,3.505,-11.3608,0.000369206,0.000870172,0.000282669,0.00099737,0.000242007,1.14795,0.00060072,0.0105551,1539,435,3.50498,11.3608
322,589,3.49646,-11.1961,0.000264339,0.000946909,0.000431947,0.00115613,5.51214e-05,1.11974,0.00075305,0.0113525,1546,435,3.4965,11.1961
329,589,3.4939,-11.023,0.00019738,0.00101664,0.000614737,0.00134573,-0.000131704,1.07929,0.000944119,0.0102988,1553,435,3.49394,11.023
336,589,3.48254,-10.8372,0.000144341,0.0010803,0.000813274,0.00155063,-0.000325986,1.04648,0.00115781,0.00920237,1560,435,3.48249,10.8371
343,589,3.48633,-10.6465,0.000134131,0.0011044,0.00107362,0.0017974,-0.000558875,0.997601,0.00142166,0.0106979,1567,435,3.48635,10.6465
350,589,3.48364,-10.4294,0.000169406,0.00126121,0.00135656,0.0021776,-0.000746974,0.976692,0.00175455,0.0167511,1574,435,3.48362,10.4294
357,589,3.48364,-10.2063,0.0001814,0.00142588,0.001663,0.00257924,-0.000971953,0.964419,0.00211913,0.0138856,1581,435,3.4837,10.2063
364,589,3.48828,-9.99457,0.000180402,0.00163611,0.00196208,0.00300099,-0.00118447,0.963011,0.00249118,0.0109613,1588,435,3.48825,9.99456
371,589,3.47913,-9.79108,0.000201512,0.00178519,0.00226484,0.00339262,-0.00140592,0.953568,0.00284849,0.0108649,1595,435,3.47917,9.79109
378,589,3.47217,-9.58966,8.70267e-05,0.00192615,0.00251268,0.00368225,-0.00166907,0.960813,0.00316163,0.0119626,1602,435,3.47219,9.58966
385,589,3.47266,-9.37976,-5.49661e-05,0.00195411,0.00248236,0.00362748,-0.00172834,0.977661,0.00315632,0.0149845,1609,435,3.47269,9.37977
392,589,3.45044,-9.11447,0.000321622,0.00202974,0.00255682,0.00387137,-0.00152001,0.946588,0.00320988,0.0168195,1616,435,3.45045,9.11447
399,589,3.4209,-8.79987,0.00096171,0.00205314,0.00269998,0.004262,-0.00124715,0.885114,0.00333569,0.0226772,1623,435,3.42095,8.79986
406,589,3.41272,-8.55298,0.00164902,0.00197482,0.00284004,0.00465663,-0.00103279,0.814045,0.00349985,0.0496634,1630,435,3.41271,8.55297
413,589,3.39783,-8.26877,0,0,0,0,0,0,0,-1,1637,435,3.39782,8.26877
420,589,2.79724,-5.79956,0,0,0,0,0,0,0,-1,1644,435,2.7973,5.79955
427,589,2.87976,-5.28177,0,0,0,0,0,0,0,-1,1651,435,2.87972,5.28177
434,589,2.52734,-2.73029,0,0,0,0,0,0,0,-1,1658,435,2.52736,2.73029
441,589,3.17639,-2.02435,0,0,0,0,0,0,0,-1,1665,435,3.17643,2.02435
448,589,0.453735,-3.2868,0,0,0,0,0,0,0,-1,1672,435,0.453701,3.28681
455,589,0.664307,-3.46848,0,0,0,0,0,0,0,-1,1679,435,0.66425,3.46846
462,589,3.46716,-4.41891,0,0,0,0,0,0,0,-1,1686,435,3.4672,4.41891
469,589,0.0238037,-3.81497,0,0,0,0,0,0,0,-1,1693,435,0.0237965,3.81498
476,589,0,0,0,0,0,0,0,0,0,-1,1700,435,0,0
483,589,0,0,0,0,0,0,0,0,0,-1,1707,435,0,0
490,589,0,0,0,0,0,0,0,0,0,-1,1714,435,0,0
497,589,0,0,0,0,0,0,0,0,0,-1,1721,435,0,0
504,589,0,0,0,0,0,0,0,0,0,-1,1728,435,0,0
511,589,0,0,0,0,0,0,0,0,0,-1,1735,435,0,0
518,589,0,0,0,0,0,0,0,0,0,-1,1742,435,0,0
525,589,0,0,0,0,0,0,0,0,0,-1,1749,435,0,0
532,589,0,0,0,0,0,0,0,0,0,-1,1756,435,0,0
539,589,0,0,0,0,0,0,0,0,0,-1,1763,435,0,0
546,589,0,0,0,0,0,0,0,0,0,-1,1770,435,0,0
553,589,0,0,0,0,0,0,0,0,0,-1,1777,435,0,0
560,589,0,0,0,0,0,0,0,0,0,-1,1784,435,0,0
567,589,0,0,0,0,0,0,0,0,0,-1,1791,435,0,0
574,589,0,0,0,0,0,0,0,0,0,-1,1798,435,0,0
581,589,0,0,0,0,0,0,0,0,0,-1,1805,435,0,0
588,589,0,0,0,0,0,0,0,0,0,-1,1812,435,0,0
595,589,0,0,0,0,0,0,0,0,0,-1,1819,435,0,0
602,589,0,0,0,0,0,0,0,0,0,-1,1826,435,0,0
609,589,0,0,0,0,0,0,0,0,0,-1,1833,435,0,0
616,589,0,0,0,0,0,0,0,0,0,-1,1840,435,0,0
623,589,0,0,0,0,0,0,0,0,0,-1,1847,435,0,0
630,589,0,0,0,0,0,0,0,0,0,-1,1854,435,0,0
637,589,0,0,0,0,0,0,0,0,0,-1,1861,435,0,0
644,589,0,0,0,0,0,0,0,0,0,-1,1868,435,0,0
651,589,0,0,0,0,0,0,0,0,0,-1,1875,435,0,0
658,589,0,0,0,0,0,0,0,0,0,-1,1882,435,0,0
665,589,0,0,0,0,0,0,0,0,0,-1,1889,435,0,0
672,589,0,0,0,0,0,0,0,0,0,-1,1896,435,0,0
679,589,0,0,0,0,0,0,0,0,0,-1,1903,435,0,0
686,589,0,0,0,0,0,0,0,0,0,-1,1910,435,0,0
693,589,0,0,0,0,0,0,0,0,0,-1,1917,435,0,0
700,589,0,0,0,0,0,0,0,0,0,-1,1924,435,0,0
707,589,0,0,0,0,0,0,0,0,0,-1,1931,435,0,0
714,589,0,0,0,0,0,0,0,0,0,-1,1938,435,0,0
721,589,0,0,0,0,0,0,0,0,0,-1,1945,435,0,0
728,589,0,0,0,0,0,0,0,0,0,-1,1952,435,0,0
735,589,0,0,0,0,0,0,0,0,0,-1,1959,435,0,0
742,589,0,0,0,0,0,0,0,0,0,-1,1966,435,0,0
749,589,0,0,0,0,0,0,0,0,0,-1,1973,435,0,0
756,589,0,0,0,0,0,0,0,0,0,-1,1980,435,0,0
763,589,0,0,0,0,0,0,0,0,0,-1,1987,435,0,0
770,589,0,0,0,0,0,0,0,0,0,-1,1994,435,0,0
777,589,0,0,0,0,0,0,0,0,0,-1,2001,435,0,0
784,589,0,0,0,0,0,0,0,0,0,-1,2008,435,0,0
791,589,0,0,0,0,0,0,0,0,0,-1,2015,435,0,0
798,589,0,0,0,0,0,0,0,0,0,-1,2022,435,0,0
805,589,0,0,0,0,0,0,0,0,0,-1,2029,435,0,0
812,589,0,0,0,0,0,0,0,0,0,-1,2036,435,0,0
-700,582,0,0,0,0,0,0,0,0,0,-1,524,442,0,0
-693,582,0,0,0,0,0,0,0,0,0,-1,531,442,0,0
-686,582,0,0,0,0,0,0,0,0,0,-1,538,442,0,0
-679,582,0,0,0,0,0,0,0,0,0,-1,545,442,0,0
-672,582,0,0,0,0,0,0,0,0,0,-1,552,442,0,0
-665,582,0,0,0,0,0,0,0,0,0,-1,559,442,0,0
-658,582,0,0,0,0,0,0,0,0,0,-1,566,442,0,0
-651,582,0,0,0,0,0,0,0,0,0,-1,573,442,0,0
-644,582,0,0,0,0,0,0,0,0,0,-1,580,442,0,0
-637,582,0,0,0,0,0,0,0,0,0,-1,587,442,0,0
-630,582,0,0,0,0,0,0,0,0,0,-1,594,442,0,0
-623,582,0,0,0,0,0,0,0,0,0,-1,601,442,0,0
-616,582,0,0,0,0,0,0,0,0,0,-1,608,442,0,0
-609,582,0,0,0,0,0,0,0,0,0,-1,615,442,0,0
-602,582,0,0,0,0,0,0,0,0,0,-1,622,442,0,0
-595,582,0,0,0,0,0,0,0,0,0,-1,629,442,0,0
-588,582,0,0,0,0,0,0,0,0,0,-1,636,442,0,0
-581,582,0,0,0,0,0,0,0,0,0,-1,643,442,0,0
-574,582,0,0,0,0,0,0,0,0,0,-1,650,442,0,0
-567,582,0,0,0,0,0,0,0,0,0,-1,657,442,0,0
-560,582,0,0,0,0,0,0,0,0,0,-1,664,442,0,0
-553,582,0,0,0,0,0,0,0,0,0,-1,671,442,0,0
-546,582,0,0,0,0,0,0,0,0,0,-1,678,442,0,0
-539,582,0,0,0,0,0,0,0,0,0,-1,685,442,0,0
-532,582,0,0,0,0,0,0,0,0,0,-1,692,442,0,0
-525,582,0,0,0,0,0,0,0,0,0,-1,699,442,0,0
-518,582,0,0,0,0,0,0,0,0,0,-1,706,442,0,0
-511,582,0,0,0,0,0,0,0,0,0,-1,713,442,0,0
-504,582,0,0,0,0,0,0,0,0,0,-1,720,442,0,0
-497,582,0,0,0,0,0,0,0,0,0,-1,727,442,0,0
-490,582,0,0,0,0,0,0,0,0,0,-1,734,442,0,0
-483,582,0,0,0,0,0,0,0,0,0,-1,741,442,0,0
-476,582,0,0,0,0,0,0,0,0,0,-1,748,442,0,0
-469,582,0,0,0,0,0,0,0,0,0,-1,755,442,0,0
-462,582,0,0,0,0,0,0,0,0,0,-1,762,442,0,0
-455,582,0,0,0,0,0,0,0,0,0,-1,769,442,0,0
-448,582,0,0,0,0,0,0,0,0,0,-1,776,442,0,0
-441,582,0,0,0,0,0,0,0,0,0,-1,783,442,0,0
-434,582,0,0,0,0,0,0,0,0,0,-1,790,442,0,0
-427,582,0,0,0,0,0,0,0,0,0,-1,797,442,0,0
-420,582,0,0,0,0,0,0,0,0,0,-1,804,442,0,0
-413,582,0,0,0,0,0,0,0,0,0,-1,811,442,0,0
-406,582,0,0,0,0,0,0,0,0,0,-1,818,442,0,0
-399,582,0,0,0,0,0,0,0,0,0,-1,825,442,0,0
-392,582,0,0,0,0,0,0,0,0,0,-1,832,442,0,0
-385,582,0,0,0,0,0,0,0,0,0,-1,839,442,0,0
-378,582,0,0,0,0,0,0,0,0,0,-1,846,442,0,0
-371,582,0,0,0,0,0,0,0,0,0,-1,853,442,0,0
-364,582,0,0,0,0,0,0,0,0,0,-1,860,442,0,0
-357,582,6.4043,-4.18127,0,0,0,0,0,0,0,-1,867,442,6.40427,4.18126
-350,582,-1.12933,-15.713,0,0,0,0,0,0,0,-1,874,442,-1.12935,15.713
-343,582,-0.551086,-15.4312,0,0,0,0,0,0,0,-1,881,442,-0.5511,15.4311
-336,582,0.0556641,-4.78558,0,0,0,0,0,0,0,-1,888,442,0.0556634,4.78559
-329,582,2.28766,-7.90289,0,0,0,0,0,0,0,-1,895,442,2.28767,7.90291
-322,582,0.833618,-7.27905,0,0,0,0,0,0,0,-1,902,442,0.833638,7.27906
-315,582,0.660095,-7.84076,0.0145313,0.031837,-0.0323037,0.0566267,-0.0102583,-0.916256,0.0415944,0.0473037,909,442,0.660076,7.84077
-308,582,0.656372,-8.60291,0.012465,0.0256207,-0.0265975,0.0464417,-0.00835597,-0.90662,0.0340895,0.0469098,916,442,0.656354,8.6029
-301,582,1.24933,-9.01575,0.010179,0.0195509,-0.021045,0.0364253,-0.00669549,-0.894943,0.0267957,0.0415927,923,442,1.24935,9.01574
-294,582,1.79333,-9.32376,0.00792297,0.0142329,-0.0159218,0.0273093,-0.00515343,-0.883208,0.0201449,0.0398116,930,442,1.79332,9.32376
-287,582,1.78735,-9.56506,0.00589683,0.00991662,-0.0113151,0.019399,-0.00358551,-0.873296,0.0142787,0.0311249,937,442,1.78738,9.56505
-280,582,1.81671,-9.81757,0.0039334,0.00675029,-0.00739391,0.0128687,-0.00218501,-0.879514,0.00939258,0.0157949,944,442,1.81669,9.81756
-273,582,1.81238,-10.0083,0.00217626,0.00433516,-0.00447989,0.00786381,-0.00135239,-0.903622,0.00574663,0.0102018,951,442,1.81237,10.0083
-266,582,1.79364,-10.2454,0.000860565,0.00245608,-0.00230132,0.00409399,-0.000777353,-0.952242,0.00302196,0.00927222,958,442,1.79364,10.2454
-259,582,1.7699,-10.4555,-9.47179e-05,0.000303862,-0.000182764,0.000374978,-0.000165833,-1.19971,0.000319926,0.00821199,965,442,1.76991,10.4555
-252,582,1.75995,-10.6554,-0.000839987,-0.000394861,0.00107346,0.000478871,-0.00171372,0.887616,0.00133113,0.00785195,972,442,1.75996,10.6554
-245,582,1.76526,-10.8554,-0.00135301,-0.000519668,0.00156918,0.000687222,-0.0025599,0.91517,0.00197592,0.0115112,979,442,1.76528,10.8554
-238,582,1.75317,-11.0433,-0.00150061,-0.000482699,0.00165081,0.000735831,-0.00271914,0.934928,0.00210142,0.0166427,986,442,1.75314,11.0433
-231,582,1.75775,-11.2378,-0.00154748,-0.00050431,0.00169502,0.000747558,-0.00279934,0.934658,0.002159,0.0132482,993,442,1.75772,11.2378
-224,582,1.74878,-11.4273,-0.00165511,-0.000559474,0.00177474,0.00075007,-0.00296465,0.935097,0.00226818,0.0109146,1000,442,1.7488,11.4273
-217,582,1.73047,-11.5941,-0.00169144,-0.000551337,0.00177075,0.000738859,-0.00298163,0.941122,0.0022744,0.0133855,1007,442,1.73046,11.594
-210,582,1.73328,-11.7488,-0.00171443,-0.000863956,0.00163903,0.000404106,-0.00298249,0.912321,0.00213581,0.0130861,1014,442,1.73329,11.7489
-203,582,1.71442,-11.9302,-0.00188656,-0.00130677,0.0015462,-2.35304e-05,-0.00316981,0.878067,0.0021054,0.0102534,1021,442,1.71442,11.9302
-196,582,1.72595,-12.0928,-0.00220506,-0.00157662,0.00163073,-0.000230115,-0.00355156,0.880575,0.00229485,0.0160414,1028,442,1.72598,12.0928
-189,582,1.75708,-12.244,-0.00243922,-0.00181927,0.00186001,-0.000243583,-0.00401491,0.867966,0.00259922,0.0211781,1035,442,1.75712,12.244
-182,582,1.76025,-12.4004,-0.00235197,-0.00231557,0.00197564,-0.000358042,-0.0043095,0.790005,0.0027614,0.0145236,1042,442,1.76031,12.4004
-175,582,1.76233,-12.5359,-0.00243012,-0.00282958,0.00214967,-0.000470912,-0.00478878,0.739075,0.0030477,0.0125689,1049,442,1.76233,12.5359
-168,582,1.74829,-12.6858,-0.00257466,-0.00349994,0.0024119,-0.000581435,-0.00549317,0.690641,0.00348451,0.010821,1056,442,1.74834,12.6858
-161,582,1.73975,-12.8171,-0.0026599,-0.00410922,0.00266436,-0.000623409,-0.00614571,0.652618,0.00390596,0.0124896,1063,442,1.73978,12.8171
-154,582,1.74243,-12.9442,-0.00243251,-0.00456754,0.00289207,-0.000417227,-0.00658282,0.608597,0.00425629,0.0123096,1070,442,1.74239,12.9442
-147,582,1.76147,-13.0866,-0.00187451,-0.00478505,0.00303138,3.28163e-05,-0.00669238,0.56161,0.00447256,0.0121001,1077,442,1.76151,13.0867
-140,582,1.78491,-13.2147,-0.00123377,-0.00484295,0.00293064,0.000403328,-0.00648005,0.509432,0.00446056,0.0132945,1084,442,1.78487,13.2147
-133,582,1.81982,-13.3443,-0.000617231,-0.00468597,0.00262599,0.000670219,-0.00597342,0.455835,0.00422345,0.0155585,1091,442,1.81984,13.3443
-126,582,1.83984,-13.4316,0.000218737,-0.00437283,0.00236367,0.00121803,-0.00537213,0.399983,0.00404897,0.0131809,1098,442,1.8399,13.4316
-119,582,1.8136,-13.531,0.00134237,-0.00376863,0.00161896,0.00181204,-0.0042383,0.282352,0.00358556,0.0176189,1105,442,1.81356,13.531
-112,582,1.77124,-13.6693,0.00226532,-0.00289065,0.000894117,0.00241597,-0.0030413,0.166923,0.00315764,0.0256178,1112,442,1.77126,13.6693
-105,582,1.8241,-13.8467,0.00354504,-0.00119097,0.00013742,0.00354903,-0.00119496,0.0289835,0.00284913,0.0338237,1119,442,1.82413,13.8467
-98,582,2.03857,-14.1129,0.00531694,0.000974276,-0.00105339,0.00555897,0.000732248,-0.225842,0.00348761,0.0363056,1126,442,2.03851,14.1129
-91,582,2.104,-14.2241,0.00711273,0.00255272,-0.00309879,0.00867992,0.000985529,-0.468232,0.00548768,0.0429058,1133,442,2.10398,14.2241
-84,582,2.22864,-14.4241,0,0,0,0,0,0,0,-1,1140,442,2.22867,14.4241
-77,582,2.30212,-11.4907,0,0,0,0,0,0,0,-1,1147,442,2.30207,11.4907
-70,582,1.49255,-6.36548,0,0,0,0,0,0,0,-1,1154,442,1.49251,6.36549
-63,582,-4.62915,-4.0347,0,0,0,0,0,0,0,-1,1161,442,-4.6292,4.03471
-56,582,-5.81714,-5.24149,0,0,0,0,0,0,0,-1,1168,442,-5.81718,5.24149
-49,582,-3.88672,-10.1064,0,0,0,0,0,0,0,-1,1175,442,-3.88678,10.1064
-42,582,-0.948975,1.13968,0,0,0,0,0,0,0,-1,1182,442,-0.949003,-1.13969
-35,582,-2.58435,-3.86911,0,0,0,0,0,0,0,-1,1189,442,-2.58437,3.86912
-28,582,-0.825317,-3.45941,0,0,0,0,0,0,0,-1,1196,442,-0.825377,3.45942
-21,582,3.29822,-13.091,0,0,0,0,0,0,0,-1,1203,442,3.29822,13.091
-14,582,2.61206,-13.3051,0,0,0,0,0,0,0,-1,1210,442,2.6121,13.3051
-7,582,1.98328,-13.3708,0,0,0,0,0,0,0,-1,1217,442,1.98324,13.3708
0,582,1.46094,-13.4844,0,0,0,0,0,0,0,-1,1224,442,1.46093,13.4844
7,582,2.43933,-14.4358,0,0,0,0,0,0,0,-1,1231,442,2.43928,14.4358
14,582,4.83801,-18.1024,-0.0110371,0.0372891,0.0353694,0.0559612,-0.0297091,1.08507,0.0502299,0.0446152,1238,442,4.838,18.1024
21,582,4.14587,-17.5227,-0.00993427,0.0404795,0.0355599,0.0588604,-0.0283152,1.09372,0.0513504,0.0431737,1245,442,4.14587,17.5227
28,582,2.52783,-14.6011,-0.00988247,0.0414272,0.0345181,0.0587802,-0.0272354,1.10497,0.0507621,0.0450729,1252,442,2.52783,14.6011
35,582,2.37915,-14.676,-0.0105116,0.0407698,0.0329105,0.056849,-0.0265908,1.11633,0.0492185,0.0452639,1259,442,2.37916,14.676
42,582,3.63171,-16.0807,-0.0111266,0.0399173,0.031825,0.05519,-0.0263993,1.12336,0.0480733,0.0483125,1266,442,3.63172,16.0808
49,582,3.36841,-15.6537,-0.0123529,0.0376393,0.030055,0.0517342,-0.0264478,1.13228,0.0459186,0.0452087,1273,442,3.36844,15.6537
56,582,2.25842,-14.961,-0.0151075,0.0329194,0.0272993,0.0452638,-0.0274519,1.14612,0.0424002,0.0446902,1280,442,2.25848,14.961
63,582,2.32495,-14.9909,-0.0168988,0.0302197,0.0255294,0.0413993,-0.0280784,1.15804,0.040358,0.0416148,1287,442,2.32491,14.9909
70,582,2.0094,-14.6526,-0.0164365,0.0274526,0.0243353,0.0382765,-0.0272604,1.15229,0.0380155,0.0419822,1294,442,2.00938,14.6526
77,582,1.21411,-14.7141,-0.014018,0.0267287,0.0239626,0.0378081,-0.0250975,1.13771,0.0365649,0.0445462,1301,442,1.21406,14.7141
84,582,0.992432,-14.5462,-0.0116864,0.026284,0.0245908,0.0383656,-0.023768,1.11413,0.0362014,0.0438289,1308,442,0.992481,14.5462
91,582,0.842285,-14.3942,0,0,0,0,0,0,0,-1,1315,442,0.842263,14.3942
98,582,1.56921,-14.1776,0,0,0,0,0,0,0,-1,1322,442,1.56916,14.1776
105,582,2.89807,-15.7374,0,0,0,0,0,0,0,-1,1329,442,2.89807,15.7374
112,582,3.60229,-15.7389,-0.0142712,0.0336556,0.0271704,0.0459203,-0.0265359,1.14678,0.0423287,0.0455659,1336,442,3.60229,15.7388
119,582,3.83289,-14.9702,-0.0169587,0.0352154,0.0271881,0.0468076,-0.0285509,1.16777,0.0439318,0.0487689,1343,442,3.83293,14.9702
126,582,3.87524,-14.3174,-0.0210882,0.0362775,0.0267251,0.0467984,-0.0316091,1.19576,0.0455509,0.0488039,1350,442,3.87527,14.3174
133,582,3.65625,-13.812,0,0,0,0,0,0,0,-1,1357,442,3.65621,13.812
140,582,3.40698,-14.2343,0,0,0,0,0,0,0,-1,1364,442,3.40704,14.2343
147,582,3.25366,-14.865,0,0,0,0,0,0,0,-1,1371,442,3.25363,14.865
154,582,1.59705,-12.943,0,0,0,0,0,0,0,-1,1378,442,1.5971,12.943
161,582,1.96716,-13.2283,0,0,0,0,0,0,0,-1,1385,442,1.96713,13.2283
168,582,20.7839,-13.2389,0,0,0,0,0,0,0,-1,1392,442,20.7839,13.2389
175,582,6.50549,-2.00424,0,0,0,0,0,0,0,-1,1399,442,6.50546,2.00425
182,582,5.18958,-2.18652,0,0,0,0,0,0,0,-1,1406,442,5.1896,2.18652
189,582,6.19751,-0.880951,0,0,0,0,0,0,0,-1,1413,442,6.19754,0.88096
196,582,4.87354,-2.22327,0,0,0,0,0,0,0,-1,1420,442,4.87348,2.22325
203,582,3.11401,-4.48257,0,0,0,0,0,0,0,-1,1427,442,3.11404,4.48259
210,582,2.93115,-11.0731,0,0,0,0,0,0,0,-1,1434,442,2.93113,11.0731
217,582,3.58704,-13.1579,0,0,0,0,0,0,0,-1,1441,442,3.58709,13.1579
224,582,3.59949,-13.1865,0.00219762,0.000144348,-0.0068774,0.00812459,-0.00578262,-0.711307,0.0080672,0.0403129,1448,442,3.59952,13.1865
231,582,3.67065,-13.2372,0.0019669,0.00169317,-0.00584737,0.007679,-0.00401894,-0.773697,0.00686312,0.0420587,1455,442,3.67062,13.2372
238,582,3.62646,-13.2161,0.00197123,0.00280245,-0.00486902,0.00727357,-0.00249988,-0.827974,0.00586277,0.0421204,1462,442,3.62648,13.2161
245,582,3.62927,-13.2301,0.00205848,0.00352537,-0.00398394,0.00684281,-0.00125896,-0.876429,0.00503428,0.0415322,1469,442,3.62931,13.2301
252,582,3.66699,-12.9122,0.00196041,0.00377364,-0.00311654,0.00611275,-0.000378701,-0.926943,0.00420709,0.0285274,1476,442,3.66693,12.9122
259,582,3.59375,-12.7625,0.0018197,0.0035848,-0.00240629,0.00526528,0.000139224,-0.961165,0.00346471,0.0225255,1483,442,3.59374,12.7625
266,582,3.57739,-12.6033,0.0017188,0.00322992,-0.00188318,0.00450346,0.000445258,-0.976175,0.00286544,0.0169893,1490,442,3.57738,12.6033
273,582,3.62048,-12.4276,0.00150118,0.0027516,-0.0014589,0.00371362,0.000539163,-0.987833,0.00231703,0.014379,1497,442,3.62054,12.4276
280,582,3.62427,-12.2597,0.00123091,0.00233411,-0.00104142,0.00296099,0.00060403,-1.02894,0.00180663,0.0119322,1504,442,3.62431,12.2597
287,582,3.64453,-12.0752,0.00108893,0.00169803,-0.000807809,0.00225679,0.000530168,-0.965664,0.00136263,0.0108141,1511,442,3.6445,12.0752
294,582,3.66736,-11.9048,0.000956137,0.00110607,-0.000704221,0.0017393,0.000322903,-0.838425,0.00106829,0.00914308,1518,442,3.66732,11.9048
301,582,3.6886,-11.7108,0.000749606,0.000542675,-0.000653695,0.00130797,-1.5692e-05,-0.706911,0.000877259,0.0101562,1525,442,3.68858,11.7108
308,582,3.70044,-11.525,0.000549415,0.000314952,-0.000599194,0.00104274,-0.000178371,-0.688794,0.00076161,0.0130665,1532,442,3.70045,11.525
315,582,3.68481,-11.3573,0.000366392,0.00025098,-0.000514285,0.000826199,-0.000208827,-0.729529,0.000632015,0.0129185,1539,442,3.68484,11.3573
322,582,3.67493,-11.1943,0.000198795,0.000314816,-0.000374315,0.00063559,-0.000121978,-0.862275,0.000469695,0.00988784,1546,442,3.6749,11.1943
329,582,3.67004,-11.023,9.32139e-05,0.000377905,-0.000194816,0.000476839,-5.71992e-06,-1.1009,0.000319816,0.010066,1553,442,3.67008,11.023
336,582,3.66614,-10.8257,4.78203e-05,0.0005346,4.66644e-05,0.000539033,4.33872e-05,1.47608,0.000345801,0.0105694,1560,442,3.66611,10.8257
343,582,3.67676,-10.6068,9.46231e-06,0.000651137,0.000344694,0.000801204,-0.000140605,1.16018,0.000586648,0.012701,1567,442,3.67677,10.6068
350,582,3.67224,-10.417,1.59005e-05,0.000833325,0.000652167,0.00119427,-0.000345042,1.06531,0.000932714,0.0161466,1574,442,3.67219,10.417
357,582,3.6781,-10.1998,4.74443e-05,0.00102181,0.000964024,0.00161476,-0.000545507,1.01936,0.00129716,0.0135466,1581,442,3.67809,10.1998
364,582,3.67419,-9.99124,7.06553e-05,0.00125529,0.00128024,0.0020736,-0.000747649,1.00207,0.00168775,0.010693,1588,442,3.67418,9.99125
371,582,3.66345,-9.78888,0.000101412,0.00141905,0.00159128,0.0024825,-0.000962038,0.981665,0.00205227,0.0146445,1595,442,3.66346,9.78887
378,582,3.65063,-9.59796,2.63748e-05,0.00159033,0.00183847,0.00280622,-0.00118951,0.986479,0.00236904,0.0149332,1602,442,3.65064,9.59796
385,582,3.65259,-9.39661,-4.06035e-05,0.00163675,0.00185171,0.00283086,-0.00123471,0.998038,0.00240681,0.0110135,1609,442,3.65262,9.39659
392,582,3.63184,-9.15732,0.000306618,0.00169164,0.00193828,0.00305741,-0.00105915,0.956972,0.00246827,0.00931867,1616,442,3.63188,9.15733
399,582,3.62561,-8.92062,0.00086466,0.00168151,0.00208466,0.00339738,-0.00085121,0.882132,0.0025956,0.0131978,1623,442,3.62564,8.92061
406,582,3.63513,-8.61823,0.00139971,0.00154935,0.00223124,0.00370702,-0.000757962,0.802159,0.00275893,0.0210884,1630,442,3.63513,8.61824
413,582,3.62488,-8.3465,0.00196819,0.00131003,0.00238293,0.00404465,-0.000766435,0.716783,0.0029849,0.0397266,1637,442,3.62482,8.34649
420,582,3.67224,-8.01285,0,0,0,0,0,0,0,-1,1644,442,3.67224,8.01284
427,582,3.4353,-7.96677,0,0,0,0,0,0,0,-1,1651,442,3.43532,7.96675
434,582,3.17981,-7.74857,0,0,0,0,0,0,0,-1,1658,442,3.17987,7.74856
441,582,3.52258,-7.48688,0,0,0,0,0,0,0,-1,1665,442,3.5226,7.48688
448,582,1.52722,-2.85928,0,0,0,0,0,0,0,-1,1672,442,1.52724,2.85927
455,582,3.6698,-4.4032,0,0,0,0,0,0,0,-1,1679,442,3.66983,4.40319
462,582,1.38074,-3.94418,0,0,0,0,0,0,0,-1,1686,442,1.38074,3.94419
469,582,4.39624,-6.42285,0,0,0,0,0,0,0,-1,1693,442,4.39622,6.42284
476,582,3.03271,-6.75476,0,0,0,0,0,0,0,-1,1700,442,3.03269,6.75475
483,582,0,0,0,0,0,0,0,0,0,-1,1707,442,0,0
490,582,0,0,0,0,0,0,0,0,0,-1,1714,442,0,0
497,582,0,0,0,0,0,0,0,0,0,-1,1721,442,0,0
504,582,0,0,0,0,0,0,0,0,0,-1,1728,442,0,0
511,582,0,0,0,0,0,0,0,0,0,-1,1735,442,0,0
518,582,0,0,0,0,0,0,0,0,0,-1,1742,442,0,0
525,582,0,0,0,0,0,0,0,0,0,-1,1749,442,0,0
532,582,0,0,0,0,0,0,0,0,0,-1,1756,442,0,0
539,582,0,0,0,0,0,0,0,0,0,-1,1763,442,0,0
546,582,0,0,0,0,0,0,0,0,0,-1,1770,442,0,0
553,582,0,0,0,0,0,0,0,0,0,-1,1777,442,0,0
560,582,0,0,0,0,0,0,0,0,0,-1,1784,442,0,0
567,582,0,0,0,0,0,0,0,0,0,-1,1791,442,0,0
574,582,0,0,0,0,0,0,0,0,0,-1,1798,442,0,0
581,582,0,0,0,0,0,0,0,0,0,-1,1805,442,0,0
588,582,0,0,0,0,0,0,0,0,0,-1,1812,442,0,0
595,582,0,0,0,0,0,0,0,0,0,-1,1819,442,0,0
602,582,0,0,0,0,0,0,0,0,0,-1,1826,442,0,0
609,582,0,0,0,0,0,0,0,0,0,-1,1833,442,0,0
616,582,0,0,0,0,0,0,0,0,0,-1,1840,442,0,0
623,582,0,0,0,0,0,0,0,0,0,-1,1847,442,0,0
630,582,0,0,0,0,0,0,0,0,0,-1,1854,442,0,0
637,582,0,0,0,0,0,0,0,0,0,-1,1861,442,0,0
644,582,0,0,0,0,0,0,0,0,0,-1,1868,442,0,0
651,582,0,0,0,0,0,0,0,0,0,-1,1875,442,0,0
658,582,0,0,0,0,0,0,0,0,0,-1,1882,442,0,0
665,582,0,0,0,0,0,0,0,0,0,-1,1889,442,0,0
672,582,0,0,0,0,0,0,0,0,0,-1,1896,442,0,0
679,582,0,0,0,0,0,0,0,0,0,-1,1903,442,0,0
686,582,0,0,0,0,0,0,0,0,0,-1,1910,442,0,0
693,582,0,0,0,0,0,0,0,0,0,-1,1917,442,0,0
700,582,0,0,0,0,0,0,0,0,0,-1,1924,442,0,0
707,582,0,0,0,0,0,0,0,0,0,-1,1931,442,0,0
714,582,0,0,0,0,0,0,0,0,0,-1,1938,442,0,0
721,582,0,0,0,0,0,0,0,0,0,-1,1945,442,0,0
728,582,0,0,0,0,0,0,0,0,0,-1,1952,442,0,0
735,582,0,0,0,0,0,0,0,0,0,-1,1959,442,0,0
742,582,0,0,0,0,0,0,0,0,0,-1,1966,442,0,0
749,582,0,0,0,0,0,0,0,0,0,-1,1973,442,0,0
756,582,0,0,0,0,0,0,0,0,0,-1,1980,442,0,0
763,582,0,0,0,0,0,0,0,0,0,-1,1987,442,0,0
770,582,0,0,0,0,0,0,0,0,0,-1,1994,442,0,0
777,582,0,0,0,0,0,0,0,0,0,-1,2001,442,0,0
784,582,0,0,0,0,0,0,0,0,0,-1,2008,442,0,0
791,582,0,0,0,0,0,0,0,0,0,-1,2015,442,0,0
798,582,0,0,0,0,0,0,0,0,0,-1,2022,442,0,0
805,582,0,0,0,0,0,0,0,0,0,-1,2029,442,0,0
812,582,0,0,0,0,0,0,0,0,0,-1,2036,442,0,0
-700,575,0,0,0,0,0,0,0,0,0,-1,524,449,0,0
-693,575,0,0,0,0,0,0,0,0,0,-1,531,449,0,0
-686,575,0,0,0,0,0,0,0,0,0,-1,538,449,0,0
-679,575,0,0,0,0,0,0,0,0,0,-1,545,449,0,0
-672,575,0,0,0,0,0,0,0,0,0,-1,552,449,0,0
-665,575,0,0,0,0,0,0,0,0,0,-1,559,449,0,0
-658,575,0,0,0,0,0,0,0,0,0,-1,566,449,0,0
-651,575,0,0,0,0,0,0,0,0,0,-1,573,449,0,0
-644,575,0,0,0,0,0,0,0,0,0,-1,580,449,0,0
-637,575,0,0,0,0,0,0,0,0,0,-1,587,449,0,0
-630,575,0,0,0,0,0,0,0,0,0,-1,594,449,0,0
-623,575,0,0,0,0,0,0,0,0,0,-1,601,449,0,0
-616,575,0,0,0,0,0,0,0,0,0,-1,608,449,0,0
-609,575,0,0,0,0,0,0,0,0,0,-1,615,449,0,0
-602,575,0,0,0,0,0,0,0,0,0,-1,622,449,0,0
-595,575,0,0,0,0,0,0,0,0,0,-1,629,449,0,0
-588,575,0,0,0,0,0,0,0,0,0,-1,636,449,0,0
-581,575,0,0,0,0,0,0,0,0,0,-1,643,449,0,0
-574,575,0,0,0,0,0,0,0,0,0,-1,650,449,0,0
-567,575,0,0,0,0,0,0,0,0,0,-1,657,449,0,0
-560,575,0,0,0,0,0,0,0,0,0,-1,664,449,0,0
-553,575,0,0,0,0,0,0,0,0,0,-1,671,449,0,0
-546,575,0,0,0,0,0,0,0,0,0,-1,678,449,0,0
-539,575,0,0,0,0,0,0,0,0,0,-1,685,449,0,0
-532,575,0,0,0,0,0,0,0,0,0,-1,692,449,0,0
-525,575,0,0,0,0,0,0,0,0,0,-1,699,449,0,0
-518,575,0,0,0,0,0,0,0,0,0,-1,706,449,0,0
-511,575,0,0,0,0,0,0,0,0,0,-1,713,449,0,0
-504,575,0,0,0,0,0,0,0,0,0,-1,720,449,0,0
-497,575,0,0,0,0,0,0,0,0,0,-1,727,449,0,0
-490,575,0,0,0,0,0,0,0,0,0,-1,734,449,0,0
-483,575,0,0,0,0,0,0,0,0,0,-1,741,449,0,0
-476,575,0,0,0,0,0,0,0,0,0,-1,748,449,0,0
-469,575,0,0,0,0,0,0,0,0,0,-1,755,449,0,0
-462,575,0,0,0,0,0,0,0,0,0,-1,762,449,0,0
-455,575,0,0,0,0,0,0,0,0,0,-1,769,449,0,0
-448,575,0,0,0,0,0,0,0,0,0,-1,776,449,0,0
-441,575,0,0,0,0,0,0,0,0,0,-1,783,449,0,0
-434,575,0,0,0,0,0,0,0,0,0,-1,790,449,0,0
-427,575,0,0,0,0,0,0,0,0,0,-1,797,449,0,0
-420,575,0,0,0,0,0,0,0,0,0,-1,804,449,0,0
-413,575,0,0,0,0,0,0,0,0,0,-1,811,449,0,0
-406,575,0,0,0,0,0,0,0,0,0,-1,818,449,0,0
-399,575,0,0,0,0,0,0,0,0,0,-1,825,449,0,0
-392,575,0,0,0,0,0,0,0,0,0,-1,832,449,0,0
-385,575,0,0,0,0,0,0,0,0,0,-1,839,449,0,0
-378,575,0,0,0,0,0,0,0,0,0,-1,846,449,0,0
-371,575,0.56897,-3.52304,0,0,0,0,0,0,0,-1,853,449,0.568955,3.52306
-364,575,1.49805,-4.67191,0,0,0,0,0,0,0,-1,860,449,1.49803,4.6719
-357,575,2.87567,-6.9155,0,0,0,0,0,0,0,-1,867,449,2.87569,6.91548
-350,575,2.76715,-7.23752,0,0,0,0,0,0,0,-1,874,449,2.76717,7.2375
-343,575,0.124512,-6.51617,0,0,0,0,0,0,0,-1,881,449,0.124497,6.51618
-336,575,2.29706,-7.61377,0,0,0,0,0,0,0,-1,888,449,2.29708,7.61378
-329,575,1.33661,-8.27951,0,0,0,0,0,0,0,-1,895,449,1.33662,8.27951
-322,575,1.44019,-8.52707,0,0,0,0,0,0,0,-1,902,449,1.44017,8.52708
-315,575,1.47473,-8.92654,0.00988843,0.0221311,-0.0229689,0.0397804,-0.00776086,-0.915624,0.0294501,0.0463985,909,449,1.47474,8.92656
-308,575,1.58801,-9.05997,0.0087128,0.0183091,-0.0193198,0.0334177,-0.00639575,-0.907113,0.0246881,0.0425669,916,449,1.58803,9.05996
-301,575,1.67841,-9.21542,0.00728546,0.0143827,-0.0156111,0.0268434,-0.00517525,-0.897156,0.0198469,0.0305923,923,449,1.67843,9.21543
-294,575,1.63928,-9.42825,0.00579888,0.0107973,-0.0120821,0.020636,-0.00403983,-0.887385,0.015283,0.0216617,930,449,1.63927,9.42824
-287,575,1.62598,-9.64294,0.00449339,0.00777779,-0.00890925,0.0151949,-0.00292374,-0.876538,0.0112321,0.0155197,937,449,1.62596,9.64295
-280,575,1.62476,-9.84604,0.00314554,0.00545862,-0.00607908,0.0104902,-0.00188604,-0.8794,0.00769953,0.0123455,944,449,1.62473,9.84603
-273,575,1.61914,-10.0368,0.00188314,0.00355082,-0.00390318,0.00670824,-0.00127427,-0.890631,0.00495187,0.011672,951,449,1.61912,10.0368
-266,575,1.61047,-10.2562,0.000952337,0.00202859,-0.00223559,0.00378991,-0.000808984,-0.903505,0.00283501,0.0123527,958,449,1.61046,10.2562
-259,575,1.59479,-10.4702,0.000256164,0.000236465,-0.000550504,0.000796907,-0.000304278,-0.776453,0.000656633,0.0119115,965,449,1.59477,10.4703
-252,575,1.54718,-10.6602,-0.000375748,-0.000459604,0.0004884,7.25201e-05,-0.000907873,0.742579,0.000630813,0.0111084,972,449,1.54717,10.6603
-245,575,1.54297,-10.8637,-0.000868608,-0.000707327,0.000988599,0.000203914,-0.00177985,0.826093,0.00126005,0.0132506,979,449,1.54296,10.8637
-238,575,1.55066,-11.0646,-0.00107456,-0.000915158,0.00124128,0.000248979,-0.00223869,0.817458,0.001582,0.0138691,986,449,1.55064,11.0646
-231,575,1.55334,-11.231,-0.00125555,-0.0011373,0.00144773,0.00025251,-0.00264535,0.805807,0.00185348,0.0126362,993,449,1.55333,11.231
-224,575,1.56348,-11.4037,-0.00156399,-0.00138323,0.001773,0.000301692,-0.00324892,0.810864,0.00227319,0.0137348,1000,449,1.56347,11.4037
-217,575,1.57416,-11.571,-0.00177805,-0.00156384,0.00200922,0.000341133,-0.00368302,0.812027,0.0025766,0.0114706,1007,449,1.57417,11.571
-210,575,1.58014,-11.7542,-0.00202623,-0.00208376,0.00207217,1.7368e-05,-0.00412736,0.778458,0.00275738,0.00906542,1014,449,1.58013,11.7542
-203,575,1.55811,-11.9326,-0.00246243,-0.00274233,0.00214508,-0.000452736,-0.00475203,0.752823,0.00302841,0.0115182,1021,449,1.5581,11.9326
-196,575,1.55762,-12.0946,-0.00306452,-0.0031327,0.00243369,-0.00066468,-0.00553254,0.778394,0.00348797,0.014341,1028,449,1.5576,12.0946
-189,575,1.60681,-12.2484,-0.00352424,-0.00341667,0.0028565,-0.000613455,-0.00632746,0.794811,0.00402942,0.0148305,1035,449,1.60683,12.2485
-182,575,1.60608,-12.3955,-0.0035606,-0.0040068,0.00312557,-0.000650175,-0.00691722,0.749769,0.00441076,0.0130513,1042,449,1.60608,12.3955
-175,575,1.61877,-12.5421,-0.00380537,-0.00456179,0.00340173,-0.000760889,-0.00760627,0.730034,0.00483721,0.0111178,1049,449,1.61872,12.5421
-168,575,1.59351,-12.6887,-0.00408898,-0.00529328,0.00371387,-0.000928763,-0.0084535,0.70503,0.00535301,0.0102205,1056,449,1.59351,12.6887
-161,575,1.59644,-12.8292,-0.00428423,-0.00600858,0.00400078,-0.00105378,-0.00923903,0.67927,0.00583987,0.0143065,1063,449,1.59641,12.8292
-154,575,1.62427,-12.9449,-0.00408172,-0.00653292,0.00425238,-0.000881842,-0.0097328,0.645093,0.00621547,0.0162876,1070,449,1.62424,12.9449
-147,575,1.65186,-13.0584,-0.0033719,-0.00675366,0.00441859,-0.000331709,-0.00979385,0.602658,0.00642152,0.0164674,1077,449,1.65184,13.0584
-140,575,1.61365,-13.165,-0.00252771,-0.00680104,0.00427859,0.000118058,-0.00944681,0.55382,0.00633759,0.0273329,1084,449,1.61369,13.165
-133,575,1.74121,-13.2867,-0.00182456,-0.00652212,0.00390037,0.000379644,-0.00872632,0.514383,0.00594814,0.0356812,1091,449,1.74126,13.2867
-126,575,1.77625,-13.2456,-0.000769384,-0.00616586,0.00364677,0.00106883,-0.00800408,0.466896,0.00572568,0.0394721,1098,449,1.77628,13.2456
-119,575,1.61292,-13.2183,0.000735515,-0.00551137,0.00275295,0.00177556,-0.00655141,0.361217,0.0050643,0.0397644,1105,449,1.61292,13.2183
-112,575,1.55737,-13.439,0.0019154,-0.00450575,0.00189894,0.00243494,-0.0050253,0.26706,0.00439286,0.0430746,1112,449,1.55743,13.439
-105,575,1.52808,-13.6589,0,0,0,0,0,0,0,-1,1119,449,1.52803,13.6589
-98,575,2.03455,-14.36,0,0,0,0,0,0,0,-1,1126,449,2.03455,14.36
-91,575,2.10852,-14.3481,0,0,0,0,0,0,0,-1,1133,449,2.10854,14.3481
-84,575,1.16553,-11.9056,0,0,0,0,0,0,0,-1,1140,449,1.16558,11.9056
-77,575,0.205078,-11.2584,0,0,0,0,0,0,0,-1,1147,449,0.205117,11.2584
-70,575,-4.2467,-1.78738,0,0,0,0,0,0,0,-1,1154,449,-4.24674,1.78739
-63,575,-4.52209,-3.48798,0,0,0,0,0,0,0,-1,1161,449,-4.5221,3.48796
-56,575,-5.5968,-5.4928,0,0,0,0,0,0,0,-1,1168,449,-5.59683,5.49281
-49,575,-5.96863,-7.17612,0,0,0,0,0,0,0,-1,1175,449,-5.96868,7.1761
-42,575,-0.830322,0.773499,0,0,0,0,0,0,0,-1,1182,449,-0.83038,-0.77351
-35,575,-0.62085,0.205139,0,0,0,0,0,0,0,-1,1189,449,-0.620855,-0.205126
-28,575,0.49292,-3.87988,0,0,0,0,0,0,0,-1,1196,449,0.492941,3.87989
-21,575,1.146,-12.8181,0,0,0,0,0,0,0,-1,1203,449,1.14602,12.8181
-14,575,2.76355,-12.8764,0,0,0,0,0,0,0,-1,1210,449,2.76359,12.8764
-7,575,1.99878,-12.9814,-0.0285304,0.0190954,0.0245524,0.029486,-0.0389209,1.17045,0.0396198,0.0466175,1217,449,1.99877,12.9814
0,575,1.28125,-12.9131,0,0,0,0,0,0,0,-1,1224,449,1.28123,12.9131
7,575,0.581421,-12.8047,0,0,0,0,0,0,0,-1,1231,449,0.581448,12.8048
14,575,3.56934,-18.9866,-0.0153728,0.0447583,0.0410115,0.0655443,-0.0361588,1.1017,0.0595297,0.0442821,1238,449,3.56937,18.9866
21,575,3.2915,-18.1482,-0.0135848,0.0491589,0.0420657,0.0702629,-0.0346889,1.1058,0.0617433,0.0428247,1245,449,3.29156,18.1482
28,575,3.36206,-17.5229,-0.0132138,0.0507777,0.0414155,0.0711171,-0.0335532,1.11429,0.061715,0.0441583,1252,449,3.36203,17.5229
35,575,3.47522,-16.8568,-0.0138059,0.050344,0.039757,0.0693515,-0.0328134,1.12483,0.0602292,0.0437694,1259,449,3.47527,16.8568
42,575,3.55237,-16.275,-0.0142894,0.0502057,0.0390511,0.0686029,-0.0326866,1.13053,0.0596924,0.0430975,1266,449,3.55239,16.275
49,575,3.36182,-15.7801,-0.0156307,0.0479963,0.0371246,0.0650738,-0.0327082,1.13965,0.0574761,0.0429158,1273,449,3.36177,15.7801
56,575,2.85925,-15.5124,-0.019561,0.0417804,0.0330859,0.0562247,-0.0340053,1.15917,0.0526182,0.0406658,1280,449,2.85923,15.5124
63,575,2.47595,-15.0969,-0.0223196,0.03808,0.0304866,0.0507925,-0.0350321,1.17573,0.0498285,0.0406634,1287,449,2.47591,15.0969
70,575,2.11401,-14.8732,-0.0223068,0.0345876,0.0290183,0.0467766,-0.0344959,1.17313,0.0471009,0.0423473,1294,449,2.11406,14.8732
77,575,1.73792,-14.5761,-0.0197311,0.0337562,0.0288465,0.0463489,-0.0323238,1.15919,0.0456616,0.0453289,1301,449,1.73792,14.5761
84,575,1.3855,-14.251,0,0,0,0,0,0,0,-1,1308,449,1.3855,14.251
91,575,3.98425,-20.5574,0,0,0,0,0,0,0,-1,1315,449,3.98431,20.5574
98,575,3.81091,-19.0435,0,0,0,0,0,0,0,-1,1322,449,3.81095,19.0435
105,575,3.81335,-17.4697,-0.0208575,0.0421422,0.0332763,0.0564633,-0.0351786,1.16439,0.053383,0.0436374,1329,449,3.81341,17.4697
112,575,3.62476,-16.3191,-0.0241462,0.042975,0.0330764,0.0565351,-0.0377063,1.18173,0.0547711,0.0447065,1336,449,3.62477,16.3191
119,575,3.67322,-15.2952,-0.0280927,0.045156,0.0330496,0.0578634,-0.0408001,1.20373,0.0572466,0.0453474,1343,449,3.67325,15.2952
126,575,4.21509,-14.4167,-0.0334473,0.0468254,0.0323317,0.058228,-0.0448499,1.23174,0.0596789,0.049368,1350,449,4.21507,14.4167
133,575,4.77795,-13.5871,0,0,0,0,0,0,0,-1,1357,449,4.77796,13.5871
140,575,3.58508,-15.8184,0,0,0,0,0,0,0,-1,1364,449,3.58507,15.8184
147,575,3.01721,-15.1768,-0.0622017,0.044543,0.0269887,0.0509787,-0.0686374,1.33671,0.0693108,0.0467147,1371,449,3.01717,15.1768
154,575,2.5321,-14.3332,-0.0718923,0.0419952,0.0251374,0.0472968,-0.0771939,1.36294,0.0725623,0.0454348,1378,449,2.53206,14.3332
161,575,2.1637,-13.7724,0,0,0,0,0,0,0,-1,1385,449,2.16374,13.7724
168,575,9.2522,-0.307129,0,0,0,0,0,0,0,-1,1392,449,9.25225,0.307127
175,575,4.32617,1.93634,0,0,0,0,0,0,0,-1,1399,449,4.32612,-1.93634
182,575,6.3147,-2.88345,0,0,0,0,0,0,0,-1,1406,449,6.31466,2.88346
189,575,6.10449,-1.30817,0,0,0,0,0,0,0,-1,1413,449,6.10455,1.30817
196,575,5.79895,0.818359,0,0,0,0,0,0,0,-1,1420,449,5.79895,-0.81837
203,575,3.29724,-1.46378,0,0,0,0,0,0,0,-1,1427,449,3.29722,1.46377
210,575,2.32739,-7.74503,0,0,0,0,0,0,0,-1,1434,449,2.32741,7.74502
217,575,3.33618,-11.5521,0,0,0,0,0,0,0,-1,1441,449,3.3362,11.5521
224,575,3.82043,-13.1091,0,0,0,0,0,0,0,-1,1448,449,3.8204,13.1091
231,575,3.96655,-13.352,0,0,0,0,0,0,0,-1,1455,449,3.9666,13.352
238,575,4.05151,-13.3962,0,0,0,0,0,0,0,-1,1462,449,4.05157,13.3962
245,575,4.02686,-13.6944,0,0,0,0,0,0,0,-1,1469,449,4.02691,13.6944
252,575,3.8916,-13.1682,0,0,0,0,0,0,0,-1,1476,449,3.89161,13.1683
259,575,3.77307,-13.0207,0,0,0,0,0,0,0,-1,1483,449,3.77309,13.0207
266,575,3.70801,-12.7921,0,0,0,0,0,0,0,-1,1490,449,3.708,12.7921
273,575,3.83008,-12.5425,0.00179295,0.00340608,-0.00193108,0.00469227,0.000506757,-0.983223,0.00297369,0.0481446,1497,449,3.83002,12.5425
280,575,3.87122,-12.1667,0.00142192,0.00275682,-0.00146786,0.00370185,0.000476887,-0.998781,0.0023253,0.0315242,1504,449,3.8712,12.1667
287,575,3.77319,-12.1082,0.00122301,0.00183769,-0.00128589,0.00285246,0.000208241,-0.902702,0.00183617,0.0163317,1511,449,3.77319,12.1082
294,575,3.84033,-11.9226,0.00105257,0.00100993,-0.00126222,0.00229365,-0.000231158,-0.776953,0.00161169,0.0100172,1518,449,3.84036,11.9227
301,575,3.86877,-11.7362,0.000806179,0.000246679,-0.0012973,0.00185355,-0.000800695,-0.679204,0.0015721,0.00947436,1525,449,3.86878,11.7362
308,575,3.88354,-11.541,0.000544042,-0.000130887,-0.00133297,0.0015816,-0.00116844,-0.661419,0.0015937,0.0105204,1532,449,3.88349,11.541
315,575,3.86243,-11.3681,0.000302051,-0.000278729,-0.00130452,0.00134811,-0.00132479,-0.675883,0.00154322,0.0106765,1539,449,3.86246,11.3681
322,575,3.86536,-11.1846,9.45105e-05,-0.000252532,-0.00118093,0.0011146,-0.00127262,-0.712452,0.00137927,0.00929428,1546,449,3.86535,11.1846
329,575,3.8667,-11.0171,-3.69282e-05,-0.000210842,-0.00101216,0.000892007,-0.00113978,-0.742547,0.00117595,0.0101547,1553,449,3.86669,11.0171
336,575,3.87305,-10.816,-8.39558e-05,2.1938e-05,-0.000741145,0.000712025,-0.000774042,-0.821057,0.00085823,0.0120577,1560,449,3.87301,10.816
343,575,3.88586,-10.5903,-0.000160121,0.00018598,-0.000427352,0.000473989,-0.00044813,-0.977776,0.000532456,0.0118903,1567,449,3.88591,10.5903
350,575,3.87817,-10.3985,-0.000166968,0.000383055,-9.08489e-05,0.000397672,-0.000181586,-1.41127,0.000342103,0.0111728,1574,449,3.87814,10.3985
357,575,3.88184,-10.1973,-0.000117199,0.000592596,0.00023689,0.000664394,-0.000188997,1.27651,0.000517562,0.0103624,1581,449,3.88186,10.1973
364,575,3.87415,-9.99652,-7.66695e-05,0.000842595,0.000580063,0.00112305,-0.000357128,1.12044,0.000891905,0.00947489,1588,449,3.87419,9.99652
371,575,3.8302,-9.80746,-4.0144e-05,0.00102003,0.000913111,0.00154576,-0.000565881,1.04839,0.00126215,0.0176757,1595,449,3.83017,9.80746
378,575,3.84802,-9.58643,-7.52238e-05,0.00123104,0.00118122,0.00192767,-0.000771854,1.03794,0.00160548,0.0175621,1602,449,3.84806,9.58643
385,575,3.85095,-9.37958,-7.65861e-05,0.00130844,0.00125406,0.0020485,-0.00081664,1.03767,0.00170439,0.011228,1609,449,3.85096,9.37958
392,575,3.83105,-9.14514,0.000251535,0.00136617,0.00137608,0.00229351,-0.000675804,0.977804,0.00179714,0.00874199,1616,449,3.83104,9.14515
399,575,3.849,-8.92746,0.000757693,0.00135012,0.00154228,0.00262437,-0.000516557,0.880275,0.00194477,0.00933728,1623,449,3.84895,8.92747
406,575,3.84534,-8.68591,0.00120875,0.00120916,0.00171062,0.00291958,-0.000501671,0.785459,0.00213336,0.0106462,1630,449,3.84537,8.68591
413,575,3.82202,-8.45197,0.0016591,0.00102386,0.00188598,0.00325402,-0.000571058,0.701975,0.00238262,0.0121594,1637,449,3.82197,8.45198
420,575,3.79199,-8.22821,0.00235106,0.000690585,0.00172028,0.00343097,-0.000389328,0.560576,0.00242752,0.0133632,1644,449,3.79194,8.22822
427,575,3.72571,-8.00858,0.00358824,-0.000527479,0.00153382,0.00409697,-0.00103621,0.320258,0.00313434,0.0196372,1651,449,3.7257,8.00856
434,575,3.62048,-7.84341,0.0049492,-0.00153561,0.00138236,0.00523158,-0.00181799,0.201501,0.00422613,0.0301654,1658,449,3.62052,7.8434
441,575,3.88623,-7.58905,0.00655307,-0.00264883,0.00115806,0.00669658,-0.00279234,0.123289,0.00563088,0.047923,1665,449,3.88629,7.58906
448,575,4.21521,-7.26395,0,0,0,0,0,0,0,-1,1672,449,4.21516,7.26393
455,575,2.88135,-4.53244,0,0,0,0,0,0,0,-1,1679,449,2.8814,4.53243
462,575,4.31079,-6.21469,0,0,0,0,0,0,0,-1,1686,449,4.31079,6.21468
469,575,3.255,-6.53265,0,0,0,0,0,0,0,-1,1693,449,3.255,6.53264
476,575,3.43152,-6.55817,0.0135754,-0.0140036,-0.00233396,0.0137715,-0.0141997,-0.0838336,0.0161498,0.0487266,1700,449,3.43157,6.55816
483,575,3.62512,-6.1293,0,0,0,0,0,0,0,-1,1707,449,3.62514,6.12931
490,575,3.88062,-5.64282,0,0,0,0,0,0,0,-1,1714,449,3.88056,5.64281
497,575,0,0,0,0,0,0,0,0,0,-1,1721,449,0,0
504,575,0,0,0,0,0,0,0,0,0,-1,1728,449,0,0
511,575,0,0,0,0,0,0,0,0,0,-1,1735,449,0,0
518,575,0,0,0,0,0,0,0,0,0,-1,1742,449,0,0
525,575,0,0,0,0,0,0,0,0,0,-1,1749,449,0,0
532,575,0,0,0,0,0,0,0,0,0,-1,1756,449,0,0
539,575,0,0,0,0,0,0,0,0,0,-1,1763,449,0,0
546,575,0,0,0,0,0,0,0,0,0,-1,1770,449,0,0
553,575,0,0,0,0,0,0,0,0,0,-1,1777,449,0,0
560,575,0,0,0,0,0,0,0,0,0,-1,1784,449,0,0
567,575,0,0,0,0,0,0,0,0,0,-1,1791,449,0,0
574,575,0,0,0,0,0,0,0,0,0,-1,1798,449,0,0
581,575,0,0,0,0,0,0,0,0,0,-1,1805,449,0,0
588,575,0,0,0,0,0,0,0,0,0,-1,1812,449,0,0
595,575,0,0,0,0,0,0,0,0,0,-1,1819,449,0,0
602,575,0,0,0,0,0,0,0,0,0,-1,1826,449,0,0
609,575,0,0,0,0,0,0,0,0,0,-1,1833,449,0,0
616,575,0,0,0,0,0,0,0,0,0,-1,1840,449,0,0
623,575,0,0,0,0,0,0,0,0,0,-1,1847,449,0,0
630,575,0,0,0,0,0,0,0,0,0,-1,1854,449,0,0
637,575,0,0,0,0,0,0,0,0,0,-1,1861,449,0,0
644,575,0,0,0,0,0,0,0,0,0,-1,1868,449,0,0
651,575,0,0,0,0,0,0,0,0,0,-1,1875,449,0,0
658,575,0,0,0,0,0,0,0,0,0,-1,1882,449,0,0
665,575,0,0,0,0,0,0,0,0,0,-1,1889,449,0,0
672,575,0,0,0,0,0,0,0,0,0,-1,1896,449,0,0
679,575,0,0,0,0,0,0,0,0,0,-1,1903,449,0,0
686,575,0,0,0,0,0,0,0,0,0,-1,1910,449,0,0
693,575,0,0,0,0,0,0,0,0,0,-1,1917,449,0,0
700,575,0,0,0,0,0,0,0,0,0,-1,1924,449,0,0
707,575,0,0,0,0,0,0,0,0,0,-1,1931,449,0,0
714,575,0,0,0,0,0,0,0,0,0,-1,1938,449,0,0
721,575,0,0,0,0,0,0,0,0,0,-1,1945,449,0,0
728,575,0,0,0,0,0,0,0,0,0,-1,1952,449,0,0
735,575,0,0,0,0,0,0,0,0,0,-1,1959,449,0,0
742,575,0,0,0,0,0,0,0,0,0,-1,1966,449,0,0
749,575,0,0,0,0,0,0,0,0,0,-1,1973,449,0,0
756,575,0,0,0,0,0,0,0,0,0,-1,1980,449,0,0
763,575,0,0,0,0,0,0,0,0,0,-1,1987,449,0,0
770,575,0,0,0,0,0,0,0,0,0,-1,1994,449,0,0
777,575,0,0,0,0,0,0,0,0,0,-1,2001,449,0,0
784,575,0,0,0,0,0,0,0,0,0,-1,2008,449,0,0
791,575,0,0,0,0,0,0,0,0,0,-1,2015,449,0,0
798,575,0,0,0,0,0,0,0,0,0,-1,2022,449,0,0
805,575,0,0,0,0,0,0,0,0,0,-1,2029,449,0,0
812,575,0,0,0,0,0,0,0,0,0,-1,2036,449,0,0
-700,568,0,0,0,0,0,0,0,0,0,-1,524,456,0,0
-693,568,0,0,0,0,0,0,0,0,0,-1,531,456,0,0
-686,568,0,0,0,0,0,0,0,0,0,-1,538,456,0,0
-679,568,0,0,0,0,0,0,0,0,0,-1,545,456,0,0
-672,568,0,0,0,0,0,0,0,0,0,-1,552,456,0,0
-665,568,0,0,0,0,0,0,0,0,0,-1,559,456,0,0
-658,568,0,0,0,0,0,0,0,0,0,-1,566,456,0,0
-651,568,0,0,0,0,0,0,0,0,0,-1,573,456,0,0
-644,568,0,0,0,0,0,0,0,0,0,-1,580,456,0,0
-637,568,0,0,0,0,0,0,0,0,0,-1,587,456,0,0
-630,568,0,0,0,0,0,0,0,0,0,-1,594,456,0,0
-623,568,0,0,0,0,0,0,0,0,0,-1,601,456,0,0
-616,568,0,0,0,0,0,0,0,0,0,-1,608,456,0,0
-609,568,0,0,0,0,0,0,0,0,0,-1,615,456,0,0
-602,568,0,0,0,0,0,0,0,0,0,-1,622,456,0,0
-595,568,0,0,0,0,0,0,0,0,0,-1,629,456,0,0
-588,568,0,0,0,0,0,0,0,0,0,-1,636,456,0,0
-581,568,0,0,0,0,0,0,0,0,0,-1,643,456,0,0
-574,568,0,0,0,0,0,0,0,0,0,-1,650,456,0,0
-567,568,0,0,0,0,0,0,0,0,0,-1,657,456,0,0
-560,568,0,0,0,0,0,0,0,0,0,-1,664,456,0,0
-553,568,0,0,0,0,0,0,0,0,0,-1,671,456,0,0
-546,568,0,0,0,0,0,0,0,0,0,-1,678,456,0,0
-539,568,0,0,0,0,0,0,0,0,0,-1,685,456,0,0
-532,568,0,0,0,0,0,0,0,0,0,-1,692,456,0,0
-525,568,0,0,0,0,0,0,0,0,0,-1,699,456,0,0
-518,568,0,0,0,0,0,0,0,0,0,-1,706,456,0,0
-511,568,0,0,0,0,0,0,0,0,0,-1,713,456,0,0
-504,568,0,0,0,0,0,0,0,0,0,-1,720,456,0,0
-497,568,0,0,0,0,0,0,0,0,0,-1,727,456,0,0
-490,568,0,0,0,0,0,0,0,0,0,-1,734,456,0,0
-483,568,0,0,0,0,0,0,0,0,0,-1,741,456,0,0
-476,568,0,0,0,0,0,0,0,0,0,-1,748,456,0,0
-469,568,0,0,0,0,0,0,0,0,0,-1,755,456,0,0
-462,568,0,0,0,0,0,0,0,0,0,-1,762,456,0,0
-455,568,0,0,0,0,0,0,0,0,0,-1,769,456,0,0
-448,568,0,0,0,0,0,0,0,0,0,-1,776,456,0,0
-441,568,0,0,0,0,0,0,0,0,0,-1,783,456,0,0
-434,568,0,0,0,0,0,0,0,0,0,-1,790,456,0,0
-427,568,0,0,0,0,0,0,0,0,0,-1,797,456,0,0
-420,568,0,0,0,0,0,0,0,0,0,-1,804,456,0,0
-413,568,0,0,0,0,0,0,0,0,0,-1,811,456,0,0
-406,568,0,0,0,0,0,0,0,0,0,-1,818,456,0,0
-399,568,0,0,0,0,0,0,0,0,0,-1,825,456,0,0
-392,568,0,0,0,0,0,0,0,0,0,-1,832,456,0,0
-385,568,0,0,0,0,0,0,0,0,0,-1,839,456,0,0
-378,568,0.321777,-7.29929,0,0,0,0,0,0,0,-1,846,456,0.321806,7.29927
-371,568,1.09595,-7.46707,0,0,0,0,0,0,0,-1,853,456,1.09597,7.46707
-364,568,2.24109,-7.00473,0,0,0,0,0,0,0,-1,860,456,2.24108,7.00473
-357,568,2.29712,-7.2334,0,0,0,0,0,0,0,-1,867,456,2.29713,7.23341
-350,568,1.65741,-7.24301,0,0,0,0,0,0,0,-1,874,456,1.65744,7.24302
-343,568,2.0365,-7.33499,0,0,0,0,0,0,0,-1,881,456,2.0365,7.33498
-336,568,1.26984,-8.28036,0,0,0,0,0,0,0,-1,888,456,1.26984,8.28036
-329,568,1.2666,-8.33081,0.0062898,0.0184965,-0.019512,0.0328374,-0.00805115,-0.936977,0.0250111,0.0446436,895,456,1.26658,8.33082
-322,568,1.40619,-8.53506,0.0067277,0.0170297,-0.0180934,0.030691,-0.00693364,-0.924074,0.0231211,0.0444606,902,456,1.40617,8.53508
-315,568,1.4552,-8.81619,0.00645809,0.0150659,-0.0160361,0.0273656,-0.00584157,-0.916503,0.0204707,0.0402748,909,456,1.45517,8.8162
-308,568,1.46661,-9.0311,0.0058605,0.0127978,-0.0137533,0.0235131,-0.00485478,-0.908925,0.0175193,0.0260906,916,456,1.46661,9.03111
-301,568,1.47394,-9.24023,0.00506961,0.0103402,-0.0113465,0.0193535,-0.00394363,-0.899503,0.014398,0.0137774,923,456,1.47393,9.24023
-294,568,1.44391,-9.42542,0.0041778,0.00797919,-0.00896644,0.0152442,-0.00308718,-0.889841,0.0113329,0.010774,930,456,1.44392,9.42541
-287,568,1.43091,-9.64487,0.00340256,0.00588844,-0.00680087,0.011559,-0.00226801,-0.875782,0.00856273,0.00994463,937,456,1.43094,9.64485
-280,568,1.42609,-9.87088,0.00252344,0.0042081,-0.00477781,0.00821726,-0.00148573,-0.872652,0.00603469,0.0105169,944,456,1.42608,9.87088
-273,568,1.42328,-10.0514,0.00165784,0.00273037,-0.00318024,0.00541924,-0.00103103,-0.868925,0.00400103,0.0122232,951,456,1.42325,10.0514
-266,568,1.4115,-10.2485,0.00105327,0.00152276,-0.00194059,0.00324276,-0.000666723,-0.845589,0.00241495,0.0115056,958,456,1.41149,10.2485
-259,568,1.40216,-10.473,0.000591933,8.71065e-05,-0.000655606,0.00104204,-0.000362998,-0.60164,0.000842185,0.0120211,965,456,1.40214,10.473
-252,568,1.36267,-10.661,3.85198e-05,-0.000574909,0.000157451,7.65729e-05,-0.000612963,0.237135,0.000436411,0.0124232,972,456,1.36265,10.661
-245,568,1.36273,-10.8477,-0.000478547,-0.000911266,0.000646575,-1.3092e-05,-0.00137672,0.623942,0.000913481,0.0136069,979,456,1.36272,10.8477
-238,568,1.38232,-11.0404,-0.000761202,-0.0013284,0.00103503,2.83809e-05,-0.00211798,0.65168,0.00142154,0.0124109,986,456,1.38231,11.0404
-231,568,1.36285,-11.2149,-0.00110591,-0.00173076,0.00137539,-7.91077e-06,-0.00282877,0.673717,0.00188321,0.0110909,993,456,1.36283,11.2149
-224,568,1.37708,-11.4008,-0.00166272,-0.00216175,0.00191966,2.35718e-05,-0.00384805,0.720771,0.00257326,0.0136959,1000,456,1.37707,11.4008
-217,568,1.40955,-11.5786,-0.00211322,-0.00253913,0.00238381,6.71311e-05,-0.00471948,0.74085,0.00316893,0.0122122,1007,456,1.40953,11.5786
-210,568,1.41663,-11.7286,-0.00265245,-0.00328825,0.0026386,-0.000312661,-0.00562803,0.725447,0.00365227,0.0108052,1014,456,1.41662,11.7286
-203,568,1.39655,-11.9187,-0.00343373,-0.00419573,0.00289,-0.000899723,-0.00672973,0.719859,0.00421868,0.00981048,1021,456,1.39653,11.9187
-196,568,1.41919,-12.0766,-0.00439134,-0.00475022,0.00340434,-0.00116172,-0.00797984,0.759068,0.00497805,0.0126847,1028,456,1.41917,12.0766
-189,568,1.43213,-12.221,-0.00516278,-0.00512356,0.00405081,-0.00109231,-0.00919403,0.787818,0.00579964,0.0128888,1035,456,1.43218,12.221
-182,568,1.44287,-12.3776,-0.00541645,-0.00586373,0.00451355,-0.001121,-0.0101592,0.760644,0.00643177,0.0133741,1042,456,1.44282,12.3776
-175,568,1.46497,-12.543,-0.00592026,-0.0065227,0.00494711,-0.00126521,-0.0111778,0.754991,0.00706795,0.0118176,1049,456,1.465,12.543
-168,568,1.46472,-12.6687,-0.00643364,-0.00738873,0.00536567,-0.00152431,-0.0122981,0.741015,0.0077408,0.0161981,1056,456,1.46473,12.6687
-161,568,1.44373,-12.7905,-0.0068334,-0.0082836,0.0057454,-0.00176752,-0.0133495,0.722627,0.0083729,0.0261158,1063,456,1.44375,12.7905
-154,568,1.54407,-13.0462,-0.00669712,-0.00891132,0.00604798,-0.00165574,-0.0139527,0.694874,0.00880195,0.0342812,1070,456,1.54408,13.0462
-147,568,1.61133,-13.1922,-0.0058112,-0.00919762,0.00629128,-0.000989263,-0.0140196,0.653945,0.00903468,0.0405405,1077,456,1.61127,13.1922
-140,568,1.18164,-13.1919,-0.00472099,-0.00934952,0.00612381,-0.000488744,-0.0135818,0.604737,0.00889607,0.0446247,1084,456,1.18161,13.1919
-133,568,1.63879,-13.0196,-0.0039549,-0.0089438,0.00567772,-0.00024784,-0.0126509,0.578421,0.00835252,0.0473085,1091,456,1.63875,13.0196
-126,568,1.85938,-13.0533,0,0,0,0,0,0,0,-1,1098,456,1.85937,13.0532
-119,568,1.29504,-12.7869,0,0,0,0,0,0,0,-1,1105,456,1.29503,12.7869
-112,568,1.40515,-13.0276,0,0,0,0,0,0,0,-1,1112,456,1.40514,13.0276
-105,568,1.65088,-11.8353,0,0,0,0,0,0,0,-1,1119,456,1.65091,11.8353
-98,568,1.82251,-14.3518,0,0,0,0,0,0,0,-1,1126,456,1.82246,14.3518
-91,568,1.11621,-11.1853,0,0,0,0,0,0,0,-1,1133,456,1.11626,11.1853
-84,568,0.461792,-9.7959,0,0,0,0,0,0,0,-1,1140,456,0.461793,9.7959
-77,568,-1.13806,-8.57822,0,0,0,0,0,0,0,-1,1147,456,-1.13807,8.57821
-70,568,-4.09766,-1.42911,0,0,0,0,0,0,0,-1,1154,456,-4.09767,1.4291
-63,568,-5.92273,-3.70752,0,0,0,0,0,0,0,-1,1161,456,-5.92272,3.70751
-56,568,-5.24158,-6.01385,0,0,0,0,0,0,0,-1,1168,456,-5.24161,6.01386
-49,568,-5.24365,-8.33557,0,0,0,0,0,0,0,-1,1175,456,-5.24371,8.33557
-42,568,-0.664795,0.521973,0,0,0,0,0,0,0,-1,1182,456,-0.664829,-0.521984
-35,568,-0.153076,-1.67731,0,0,0,0,0,0,0,-1,1189,456,-0.153068,1.67731
-28,568,1.25439,-4.48798,0,0,0,0,0,0,0,-1,1196,456,1.2544,4.48797
-21,568,3.32849,-13.2409,0,0,0,0,0,0,0,-1,1203,456,3.32853,13.2409
-14,568,2.60278,-13.0547,-0.0442026,0.00619449,0.00972894,0.0080074,-0.0460155,1.38657,0.0336651,0.0475897,1210,456,2.60273,13.0547
-7,568,1.97107,-12.8965,-0.0378964,0.0180672,0.0209854,0.025062,-0.0448913,1.24906,0.0409249,0.0498741,1217,456,1.97112,12.8965
0,568,1.33215,-12.8344,0,0,0,0,0,0,0,-1,1224,456,1.33217,12.8344
7,568,2.49756,-21.43,-0.0249396,0.0424456,0.0397271,0.0608436,-0.0433376,1.13709,0.0604314,0.0455967,1231,456,2.49754,21.43
14,568,2.74854,-19.9484,-0.020379,0.0508741,0.0446376,0.0723594,-0.0418643,1.1222,0.0667259,0.0426386,1238,456,2.7485,19.9484
21,568,2.95544,-18.5309,-0.0178777,0.0565539,0.0469703,0.0792649,-0.0405887,1.12042,0.0703882,0.040561,1245,456,2.95541,18.5309
28,568,3.01282,-17.5219,-0.017134,0.0590298,0.0472068,0.0816004,-0.0397045,1.12481,0.0714142,0.0418047,1252,456,3.01279,17.5219
35,568,2.95203,-16.8168,-0.0176048,0.0591243,0.045932,0.0806061,-0.0390866,1.13333,0.0704769,0.0397611,1259,456,2.95202,16.8168
42,568,3.45422,-16.6581,-0.0176952,0.0604596,0.0463306,0.0819921,-0.0392277,1.13574,0.0714233,0.0414415,1266,456,3.45428,16.6581
49,568,3.23132,-15.5991,0,0,0,0,0,0,0,-1,1273,456,3.23134,15.5991
56,568,2.80371,-15.4089,-0.0243079,0.0511711,0.0390895,0.0677663,-0.0409031,1.16931,0.0633761,0.0433525,1280,456,2.80376,15.4089
63,568,2.43604,-15.3217,-0.0284026,0.0462263,0.0353778,0.0603313,-0.0425076,1.19142,0.0596705,0.0418309,1287,456,2.43599,15.3217
70,568,2.02161,-15.1366,-0.0291797,0.0419172,0.0335779,0.0552683,-0.0425308,1.19235,0.0566237,0.0451943,1294,456,2.02166,15.1366
77,568,1.6073,-14.6581,-0.0266577,0.0410337,0.0337246,0.0549675,-0.0405915,1.17899,0.0553787,0.0451194,1301,456,1.6073,14.6581
84,568,1.4823,-14.3803,-0.0236445,0.0410314,0.0354061,0.0566449,-0.0392579,1.15547,0.055672,0.0464225,1308,456,1.48233,14.3803
91,568,4.24744,-21.2175,0,0,0,0,0,0,0,-1,1315,456,4.24744,21.2175
98,568,4.03857,-19.7256,0,0,0,0,0,0,0,-1,1322,456,4.03852,19.7256
105,568,4.39905,-17.9199,-0.0323022,0.052263,0.0390518,0.0675379,-0.0475771,1.19795,0.0667939,0.0485634,1329,456,4.39903,17.9199
112,568,4.00989,-16.8133,-0.0376331,0.0529343,0.03844,0.0670496,-0.0517484,1.21888,0.0687775,0.0484117,1336,456,4.00992,16.8133
119,568,3.6377,-15.7171,-0.0430237,0.0557795,0.038273,0.0688706,-0.0561148,1.24123,0.0722855,0.0461316,1343,456,3.63769,15.7171
126,568,4.20007,-14.922,-0.0494271,0.0581729,0.0372491,0.0698094,-0.0610636,1.26801,0.0756158,0.0491556,1350,456,4.2001,14.922
133,568,4.77625,-14.0743,0,0,0,0,0,0,0,-1,1357,456,4.77619,14.0743
140,568,3.62756,-16.1322,0,0,0,0,0,0,0,-1,1364,456,3.62759,16.1322
147,568,2.92273,-15.6176,-0.0832308,0.0557984,0.0295266,0.0618093,-0.0892417,1.36997,0.0876874,0.0457098,1371,456,2.92267,15.6176
154,568,1.76807,-14.9991,-0.0951116,0.0522854,0.0268147,0.057012,-0.0998382,1.39632,0.0916758,0.042496,1378,456,1.7681,14.999
161,568,0.520508,-14.0565,0,0,0,0,0,0,0,-1,1385,456,0.520534,14.0566
168,568,-0.458252,-13.0519,0,0,0,0,0,0,0,-1,1392,456,-0.458298,13.0519
175,568,10.5151,0.747498,0,0,0,0,0,0,0,-1,1399,456,10.5152,-0.747501
182,568,6.35095,-3.63361,0,0,0,0,0,0,0,-1,1406,456,6.35093,3.63359
189,568,6.17493,-1.70911,0,0,0,0,0,0,0,-1,1413,456,6.17497,1.70911
196,568,6.04724,0.200836,0,0,0,0,0,0,0,-1,1420,456,6.04724,-0.200835
203,568,5.9281,2.08649,0,0,0,0,0,0,0,-1,1427,456,5.92812,-2.08648
210,568,1.46216,-2.50446,0,0,0,0,0,0,0,-1,1434,456,1.46219,2.50446
217,568,2.62366,-7.86703,0,0,0,0,0,0,0,-1,1441,456,2.62365,7.86704
224,568,3.43494,-12.1555,0,0,0,0,0,0,0,-1,1448,456,3.43492,12.1555
231,568,4.38245,-9.3205,0,0,0,0,0,0,0,-1,1455,456,4.38244,9.32048
238,568,3.88123,-9.43616,0,0,0,0,0,0,0,-1,1462,456,3.88117,9.43617
245,568,3.34387,-10.6774,0,0,0,0,0,0,0,-1,1469,456,3.34389,10.6774
252,568,3.56946,-9.28928,0,0,0,0,0,0,0,-1,1476,456,3.56948,9.28928
259,568,3.38843,-8.73068,0,0,0,0,0,0,0,-1,1483,456,3.38842,8.73068
266,568,3.104,-9.16876,0,0,0,0,0,0,0,-1,1490,456,3.10397,9.16876
273,568,3.85657,-12.8502,0,0,0,0,0,0,0,-1,1497,456,3.85653,12.8502
280,568,3.78772,-12.3799,0,0,0,0,0,0,0,-1,1504,456,3.78771,12.3799
287,568,4.00427,-12.0594,0.00141985,0.0019615,-0.00182237,0.00353306,-0.000151708,-0.859163,0.00240754,0.0437053,1511,456,4.00427,12.0594
294,568,4.08582,-11.9085,0.00121453,0.000914366,-0.00186477,0.00293525,-0.000806353,-0.745243,0.00227379,0.0269752,1518,456,4.08586,11.9085
301,568,4.05701,-11.7307,0.000915043,-2.25209e-05,-0.00197912,0.00248014,-0.00158762,-0.669109,0.00236729,0.0199277,1525,456,4.05697,11.7307
308,568,4.05713,-11.5395,0.000535172,-0.000555893,-0.0021185,0.00217725,-0.00219797,-0.659382,0.00252605,0.012337,1532,456,4.05708,11.5395
315,568,4.047,-11.3617,0.000162909,-0.00077951,-0.0021583,0.00190084,-0.00251744,-0.677922,0.00255916,0.00778617,1539,456,4.04695,11.3617
322,568,4.04456,-11.1907,-0.00013285,-0.000778715,-0.00205203,0.00162151,-0.00253307,-0.707352,0.00241782,0.00910351,1546,456,4.04452,11.1907
329,568,4.0658,-11.0116,-0.00031897,-0.000752055,-0.00189157,0.00136841,-0.00243944,-0.728407,0.00222726,0.0106093,1553,456,4.06575,11.0116
336,568,4.08716,-10.8006,-0.000389579,-0.000454271,-0.00159638,0.00117478,-0.00201863,-0.775268,0.00186505,0.0117391,1560,456,4.08718,10.8006
343,568,4.09741,-10.5953,-0.000550372,-0.000306673,-0.00130807,0.000885211,-0.00174226,-0.83184,0.00154363,0.0114557,1567,456,4.09741,10.5953
350,568,4.08203,-10.4149,-0.000590346,-0.000128453,-0.00096592,0.000633746,-0.00135255,-0.902743,0.00117155,0.0102269,1574,456,4.08203,10.415
357,568,4.0791,-10.2039,-0.000521806,6.41758e-05,-0.000629079,0.000465147,-0.000922778,-1.00333,0.000815709,0.00934395,1581,456,4.07915,10.2039
364,568,4.11426,-10.0016,-0.000449785,0.000308796,-0.000257483,0.000387936,-0.000528926,-1.2726,0.000531433,0.0108051,1588,456,4.11424,10.0016
371,568,4.07141,-9.78412,-0.000370291,0.000491373,0.000111407,0.000505544,-0.000384462,1.44427,0.000515428,0.018717,1595,456,4.07138,9.78412
378,568,4.06543,-9.56772,-0.000316932,0.000753925,0.000436088,0.000909044,-0.000472051,1.22905,0.000810571,0.0187254,1602,456,4.06542,9.56773
385,568,4.06201,-9.36923,-0.000232735,0.000877975,0.000596946,0.00113795,-0.00049271,1.16006,0.000965718,0.00931041,1609,456,4.06203,9.36923
392,568,4.04382,-9.13342,9.19995e-05,0.000965736,0.000788378,0.0014302,-0.000372461,1.0384,0.00109887,0.00988136,1616,456,4.0438,9.13342
399,568,4.04163,-8.93607,0.000572096,0.000979223,0.00101004,0.00180601,-0.000254686,0.884836,0.00129726,0.0161032,1623,456,4.04165,8.93607
406,568,4.05688,-8.71011,0.000990835,0.000881317,0.00123999,0.00217728,-0.000305124,0.763332,0.00156318,0.0146347,1630,456,4.05692,8.71012
413,568,4.03882,-8.45602,0.00139596,0.000790346,0.00148337,0.00260712,-0.000420811,0.684715,0.00189399,0.0113365,1637,456,4.03879,8.45603
420,568,4.02563,-8.21454,0.00197018,0.000552704,0.00143725,0.00286394,-0.000341054,0.556334,0.00203254,0.0104267,1644,456,4.0257,8.21455
427,568,4.01611,-7.96838,0.00290373,-0.00034802,0.00135242,0.00339268,-0.000836974,0.346919,0.00258632,0.0127304,1651,456,4.01606,7.96839
434,568,4.00342,-7.76093,0.00387742,-0.00114431,0.00130375,0.00419572,-0.00146261,0.239462,0.00339149,0.0160698,1658,456,4.00344,7.76091
441,568,3.9917,-7.6199,0.00496217,-0.00207565,0.00117956,0.00515461,-0.00226809,0.161717,0.00439218,0.0233471,1665,456,3.99171,7.6199
448,568,4.27271,-7.32895,0.0059505,-0.00345008,0.000789015,0.00601626,-0.00351585,0.0831573,0.00556612,0.0374053,1672,456,4.27268,7.32894
455,568,4.46143,-7.09528,0,0,0,0,0,0,0,-1,1679,456,4.46147,7.09526
462,568,4.07104,-6.55487,0,0,0,0,0,0,0,-1,1686,456,4.071,6.55486
469,568,3.71387,-6.45139,0.00906692,-0.00870404,-0.000525711,0.00908246,-0.00871958,-0.0295481,0.0102787,0.044997,1693,456,3.71389,6.45138
476,568,3.82361,-6.32642,0.0099143,-0.0105172,-0.0011809,0.00998233,-0.0105852,-0.0575429,0.0118764,0.0450569,1700,456,3.82356,6.32643
483,568,3.90405,-5.9913,0,0,0,0,0,0,0,-1,1707,456,3.90402,5.9913
490,568,4.8728,-4.79684,0,0,0,0,0,0,0,-1,1714,456,4.87274,4.79683
497,568,6.58289,-3.47745,0,0,0,0,0,0,0,-1,1721,456,6.58294,3.47744
504,568,0,0,0,0,0,0,0,0,0,-1,1728,456,0,0
511,568,0,0,0,0,0,0,0,0,0,-1,1735,456,0,0
518,568,0,0,0,0,0,0,0,0,0,-1,1742,456,0,0
525,568,0,0,0,0,0,0,0,0,0,-1,1749,456,0,0
532,568,0,0,0,0,0,0,0,0,0,-1,1756,456,0,0
539,568,0,0,0,0,0,0,0,0,0,-1,1763,456,0,0
546,568,0,0,0,0,0,0,0,0,0,-1,1770,456,0,0
553,568,0,0,0,0,0,0,0,0,0,-1,1777,456,0,0
560,568,0,0,0,0,0,0,0,0,0,-1,1784,456,0,0
567,568,0,0,0,0,0,0,0,0,0,-1,1791,456,0,0
574,568,0,0,0,0,0,0,0,0,0,-1,1798,456,0,0
581,568,0,0,0,0,0,0,0,0,0,-1,1805,456,0,0
588,568,0,0,0,0,0,0,0,0,0,-1,1812,456,0,0
595,568,0,0,0,0,0,0,0,0,0,-1,1819,456,0,0
602,568,0,0,0,0,0,0,0,0,0,-1,1826,456,0,0
609,568,0,0,0,0,0,0,0,0,0,-1,1833,456,0,0
616,568,0,0,0,0,0,0,0,0,0,-1,1840,456,0,0
623,568,0,0,0,0,0,0,0,0,0,-1,1847,456,0,0
630,568,0,0,0,0,0,0,0,0,0,-1,1854,456,0,0
637,568,0,0,0,0,0,0,0,0,0,-1,1861,456,0,0
644,568,0,0,0,0,0,0,0,0,0,-1,1868,456,0,0
651,568,0,0,0,0,0,0,0,0,0,-1,1875,456,0,0
658,568,0,0,0,0,0,0,0,0,0,-1,1882,456,0,0
665,568,0,0,0,0,0,0,0,0,0,-1,1889,456,0,0
672,568,0,0,0,0,0,0,0,0,0,-1,1896,456,0,0
679,568,0,0,0,0,0,0,0,0,0,-1,1903,456,0,0
686,568,0,0,0,0,0,0,0,0,0,-1,1910,456,0,0
693,568,0,0,0,0,0,0,0,0,0,-1,1917,456,0,0
700,568,0,0,0,0,0,0,0,0,0,-1,1924,456,0,0
707,568,0,0,0,0,0,0,0,0,0,-1,1931,456,0,0
714,568,0,0,0,0,0,0,0,0,0,-1,1938,456,0,0
721,568,0,0,0,0,0,0,0,0,0,-1,1945,456,0,0
728,568,0,0,0,0,0,0,0,0,0,-1,1952,456,0,0
735,568,0,0,0,0,0,0,0,0,0,-1,1959,456,0,0
742,568,0,0,0,0,0,0,0,0,0,-1,1966,456,0,0
749,568,0,0,0,0,0,0,0,0,0,-1,1973,456,0,0
756,568,0,0,0,0,0,0,0,0,0,-1,1980,456,0,0
763,568,0,0,0,0,0,0,0,0,0,-1,1987,456,0,0
770,568,0,0,0,0,0,0,0,0,0,-1,1994,456,0,0
777,568,0,0,0,0,0,0,0,0,0,-1,2001,456,0,0
784,568,0,0,0,0,0,0,0,0,0,-1,2008,456,0,0
791,568,0,0,0,0,0,0,0,0,0,-1,2015,456,0,0
798,568,0,0,0,0,0,0,0,0,0,-1,2022,456,0,0
805,568,0,0,0,0,0,0,0,0,0,-1,2029,456,0,0
812,568,0,0,0,0,0,0,0,0,0,-1,2036,456,0,0
-700,561,0,0,0,0,0,0,0,0,0,-1,524,463,0,0
-693,561,0,0,0,0,0,0,0,0,0,-1,531,463,0,0
-686,561,0,0,0,0,0,0,0,0,0,-1,538,463,0,0
-679,561,0,0,0,0,0,0,0,0,0,-1,545,463,0,0
-672,561,0,0,0,0,0,0,0,0,0,-1,552,463,0,0
-665,561,0,0,0,0,0,0,0,0,0,-1,559,463,0,0
-658,561,0,0,0,0,0,0,0,0,0,-1,566,463,0,0
-651,561,0,0,0,0,0,0,0,0,0,-1,573,463,0,0
-644,561,0,0,0,0,0,0,0,0,0,-1,580,463,0,0
-637,561,0,0,0,0,0,0,0,0,0,-1,587,463,0,0
-630,561,0,0,0,0,0,0,0,0,0,-1,594,463,0,0
-623,561,0,0,0,0,0,0,0,0,0,-1,601,463,0,0
-616,561,0,0,0,0,0,0,0,0,0,-1,608,463,0,0
-609,561,0,0,0,0,0,0,0,0,0,-1,615,463,0,0
-602,561,0,0,0,0,0,0,0,0,0,-1,622,463,0,0
-595,561,0,0,0,0,0,0,0,0,0,-1,629,463,0,0
-588,561,0,0,0,0,0,0,0,0,0,-1,636,463,0,0
-581,561,0,0,0,0,0,0,0,0,0,-1,643,463,0,0
-574,561,0,0,0,0,0,0,0,0,0,-1,650,463,0,0
-567,561,0,0,0,0,0,0,0,0,0,-1,657,463,0,0
-560,561,0,0,0,0,0,0,0,0,0,-1,664,463,0,0
-553,561,0,0,0,0,0,0,0,0,0,-1,671,463,0,0
-546,561,0,0,0,0,0,0,0,0,0,-1,678,463,0,0
-539,561,0,0,0,0,0,0,0,0,0,-1,685,463,0,0
-532,561,0,0,0,0,0,0,0,0,0,-1,692,463,0,0
-525,561,0,0,0,0,0,0,0,0,0,-1,699,463,0,0
-518,561,0,0,0,0,0,0,0,0,0,-1,706,463,0,0
-511,561,0,0,0,0,0,0,0,0,0,-1,713,463,0,0
-504,561,0,0,0,0,0,0,0,0,0,-1,720,463,0,0
-497,561,0,0,0,0,0,0,0,0,0,-1,727,463,0,0
-490,561,0,0,0,0,0,0,0,0,0,-1,734,463,0,0
-483,561,0,0,0,0,0,0,0,0,0,-1,741,463,0,0
-476,561,0,0,0,0,0,0,0,0,0,-1,748,463,0,0
-469,561,0,0,0,0,0,0,0,0,0,-1,755,463,0,0
-462,561,0,0,0,0,0,0,0,0,0,-1,762,463,0,0
-455,561,0,0,0,0,0,0,0,0,0,-1,769,463,0,0
-448,561,0,0,0,0,0,0,0,0,0,-1,776,463,0,0
-441,561,0,0,0,0,0,0,0,0,0,-1,783,463,0,0
-434,561,0,0,0,0,0,0,0,0,0,-1,790,463,0,0
-427,561,0,0,0,0,0,0,0,0,0,-1,797,463,0,0
-420,561,0,0,0,0,0,0,0,0,0,-1,804,463,0,0
-413,561,0,0,0,0,0,0,0,0,0,-1,811,463,0,0
-406,561,0,0,0,0,0,0,0,0,0,-1,818,463,0,0
-399,561,0,0,0,0,0,0,0,0,0,-1,825,463,0,0
-392,561,4.92407,-2.54578,0,0,0,0,0,0,0,-1,832,463,4.92408,2.54576
-385,561,5.55634,-1.02338,0,0,0,0,0,0,0,-1,839,463,5.55634,1.02338
-378,561,0.495178,-7.37878,0,0,0,0,0,0,0,-1,846,463,0.495164,7.37879
-371,561,1.06299,-7.56818,0,0,0,0,0,0,0,-1,853,463,1.06297,7.56817
-364,561,1.45264,-7.57684,0,0,0,0,0,0,0,-1,860,463,1.45264,7.57684
-357,561,1.01147,-7.84241,0,0,0,0,0,0,0,-1,867,463,1.01145,7.84241
-350,561,1.34436,-7.7652,0,0,0,0,0,0,0,-1,874,463,1.34436,7.7652
-343,561,1.16571,-8.1066,0,0,0,0,0,0,0,-1,881,463,1.16573,8.10659
-336,561,1.15118,-8.25073,0.00267189,0.0119232,-0.0133228,0.0214005,-0.00680543,-0.952487,0.0169959,0.0476809,888,463,1.15117,8.25074
-329,561,1.1593,-8.44699,0.00348022,0.0117355,-0.0129363,0.0211867,-0.00597099,-0.93983,0.0164794,0.0350099,895,463,1.15929,8.44699
-322,561,1.2511,-8.57364,0.00400784,0.0110846,-0.0122024,0.0202513,-0.0051589,-0.926514,0.0155092,0.0299113,902,463,1.25109,8.57364
-315,561,1.27838,-8.74069,0.00405612,0.0100939,-0.011024,0.0185049,-0.00435486,-0.919046,0.0140156,0.0210418,909,463,1.27841,8.74068
-308,561,1.26752,-8.97333,0.00384696,0.00879576,-0.00962163,0.0162561,-0.00361334,-0.911256,0.0122212,0.0153251,916,463,1.2675,8.97332
-301,561,1.25934,-9.21323,0.00347224,0.00726824,-0.00805563,0.0136464,-0.00290597,-0.901094,0.0102051,0.0116458,923,463,1.25933,9.21322
-294,561,1.2301,-9.41684,0.00299002,0.00571327,-0.0064463,0.0109402,-0.00223689,-0.889481,0.00814216,0.00978768,930,463,1.2301,9.41685
-287,561,1.21588,-9.63553,0.00259032,0.00425365,-0.00500563,0.00849624,-0.00165226,-0.867719,0.00628769,0.00868133,937,463,1.21585,9.63552
-280,561,1.19281,-9.85092,0.00206514,0.00302259,-0.0036171,0.00619251,-0.00110478,-0.851191,0.00454161,0.0109568,944,463,1.1928,9.85091
-273,561,1.1944,-10.0585,0.00153109,0.0018603,-0.00249693,0.00419805,-0.000806655,-0.818312,0.00310273,0.0139697,951,463,1.19439,10.0585
-266,561,1.20355,-10.2541,0.00121865,0.00090576,-0.00162839,0.0026981,-0.000573682,-0.737508,0.00201733,0.00916055,958,463,1.20355,10.2541
-259,561,1.2016,-10.4626,0.000962055,-0.000222586,-0.000710316,0.00129461,-0.00055514,-0.437867,0.00109603,0.00968834,965,463,1.20159,10.4626
-252,561,1.19006,-10.6522,0.000447063,-0.00084948,-0.000114305,0.000457063,-0.00085948,-0.0872646,0.000771852,0.0141207,972,463,1.19006,10.6522
-245,561,1.18347,-10.8466,-0.000139729,-0.00124434,0.000376523,-2.35953e-05,-0.00136047,0.299179,0.00089922,0.0163701,979,463,1.18347,10.8466
-238,561,1.19489,-11.0317,-0.000536708,-0.00184164,0.000908978,-7.02677e-05,-0.00230808,0.474111,0.00151584,0.0126244,986,463,1.19486,11.0317
-231,561,1.18658,-11.2126,-0.00110049,-0.00239225,0.00139683,-0.000207442,-0.00328529,0.568843,0.00212443,0.0101164,993,463,1.18657,11.2127
-224,561,1.19678,-11.408,-0.00198523,-0.00298618,0.00218968,-0.000239562,-0.00473185,0.673048,0.00307782,0.0105683,1000,463,1.19679,11.408
-217,561,1.23187,-11.5745,-0.00277289,-0.00354449,0.00292618,-0.000207187,-0.0061102,0.719854,0.00400619,0.0111544,1007,463,1.2319,11.5745
-210,561,1.242,-11.7335,-0.00372262,-0.00452138,0.00343083,-0.000668009,-0.007576,0.727454,0.00484338,0.0114814,1014,463,1.24203,11.7335
-203,561,1.23199,-11.9218,-0.00498553,-0.00570681,0.00392323,-0.0014064,-0.00928595,0.739565,0.00577916,0.0131412,1021,463,1.232,11.9218
-196,561,1.24365,-12.0875,-0.00644974,-0.00647884,0.00472599,-0.00173828,-0.0111903,0.783859,0.00695358,0.0138263,1028,463,1.24371,12.0875
-189,561,1.23401,-12.2256,-0.0076894,-0.00700596,0.0056519,-0.00168546,-0.0130099,0.815592,0.00816961,0.0166755,1035,463,1.23399,12.2256
-182,561,1.25781,-12.3905,-0.00829232,-0.00797334,0.00633387,-0.00179695,-0.0144687,0.797986,0.00910611,0.0188724,1042,463,1.25786,12.3905
-175,561,1.30627,-12.5481,-0.0091638,-0.00882553,0.00694085,-0.00205175,-0.0159376,0.79758,0.0100115,0.0288435,1049,463,1.30633,12.5481
-168,561,1.43091,-12.6984,-0.00998938,-0.00996517,0.00749862,-0.00247865,-0.0174759,0.786205,0.0109186,0.0432072,1056,463,1.43093,12.6984
-161,561,1.73633,-12.7557,-0.0106877,-0.0111234,0.00802999,-0.00287259,-0.0189385,0.771836,0.0117854,0.0445904,1063,463,1.73627,12.7557
-154,561,1.56116,-13.2134,-0.010691,-0.0119175,0.00841361,-0.00286832,-0.0197402,0.749016,0.0123159,0.0454214,1070,463,1.5611,13.2134
-147,561,0.903198,-13.2853,-0.00960733,-0.0123662,0.00881015,-0.0020693,-0.0199043,0.707741,0.0126364,0.0463238,1077,463,0.90321,13.2853
-140,561,0.705078,-13.333,-0.00821104,-0.0127953,0.00863873,-0.00156552,-0.0194408,0.65572,0.0124715,0.0461212,1084,463,0.705105,13.333
-133,561,1.52722,-12.7263,0,0,0,0,0,0,0,-1,1091,463,1.52718,12.7263
-126,561,1.19836,-12.106,0,0,0,0,0,0,0,-1,1098,463,1.19839,12.106
-119,561,1.06567,-12.5626,0,0,0,0,0,0,0,-1,1105,463,1.06562,12.5626
-112,561,0.836548,-13.0954,0,0,0,0,0,0,0,-1,1112,463,0.836578,13.0954
-105,561,0.530518,-13.5379,0,0,0,0,0,0,0,-1,1119,463,0.530477,13.5379
-98,561,1.5387,-7.54352,0,0,0,0,0,0,0,-1,1126,463,1.53871,7.54351
-91,561,1.29553,-6.57968,0,0,0,0,0,0,0,-1,1133,463,1.29549,6.5797
-84,561,1.23364,-5.84555,0,0,0,0,0,0,0,-1,1140,463,1.23363,5.84556
-77,561,-2.36023,1.00204,0,0,0,0,0,0,0,-1,1147,463,-2.3602,-1.00205
-70,561,-3.90015,-1.41541,0,0,0,0,0,0,0,-1,1154,463,-3.90009,1.4154
-63,561,-6.95691,-4.02756,0,0,0,0,0,0,0,-1,1161,463,-6.95696,4.02756
-56,561,-5.37988,-6.66855,0,0,0,0,0,0,0,-1,1168,463,-5.37988,6.66854
-49,561,-5.7439,-9.11029,0,0,0,0,0,0,0,-1,1175,463,-5.74387,9.1103
-42,561,-1.72644,-5.63065,0,0,0,0,0,0,0,-1,1182,463,-1.72648,5.63064
-35,561,-1.65674,-4.87994,0,0,0,0,0,0,0,-1,1189,463,-1.6567,4.87993
-28,561,-1.91418,-3.86896,0,0,0,0,0,0,0,-1,1196,463,-1.91414,3.86895
-21,561,3.53357,-13.3235,0,0,0,0,0,0,0,-1,1203,463,3.53354,13.3235
-14,561,2.54675,-12.9406,0,0,0,0,0,0,0,-1,1210,463,2.54677,12.9405
-7,561,1.98059,-12.6064,0,0,0,0,0,0,0,-1,1217,463,1.98053,12.6064
0,561,1.48425,-22.8571,0,0,0,0,0,0,0,-1,1224,463,1.48421,22.8571
7,561,1.57605,-21.6552,0,0,0,0,0,0,0,-1,1231,463,1.57601,21.6552
14,561,2.96594,-19.6667,0,0,0,0,0,0,0,-1,1238,463,2.96599,19.6667
21,561,2.77686,-18.6063,0,0,0,0,0,0,0,-1,1245,463,2.77684,18.6063
28,561,2.84924,-17.378,0,0,0,0,0,0,0,-1,1252,463,2.84921,17.378
35,561,3.16711,-17.4907,0,0,0,0,0,0,0,-1,1259,463,3.16715,17.4907
42,561,3.31689,-17.0996,-0.0212145,0.0693586,0.0527858,0.0936221,-0.045478,1.13994,0.0818973,0.0443989,1266,463,3.31693,17.0996
49,561,3.57849,-16.8998,0,0,0,0,0,0,0,-1,1273,463,3.57854,16.8998
56,561,2.75635,-15.2838,0,0,0,0,0,0,0,-1,1280,463,2.7563,15.2838
63,561,2.31494,-15.5336,-0.0348639,0.0539914,0.0397719,0.0691928,-0.0500653,1.20572,0.0691483,0.0416037,1287,463,2.3149,15.5336
70,561,1.93225,-15.3072,-0.036934,0.0487642,0.0375506,0.0628896,-0.0510594,1.211,0.0659065,0.047177,1294,463,1.93219,15.3072
77,561,1.52625,-14.9229,-0.0348246,0.0478988,0.0381621,0.0628145,-0.0497403,1.1982,0.0651295,0.0478743,1301,463,1.52629,14.9229
84,561,1.15417,-14.5986,-0.0315955,0.0484923,0.0405747,0.0654556,-0.0485589,1.17481,0.0660668,0.0472254,1308,463,1.15421,14.5986
91,561,0.767944,-14.2957,0,0,0,0,0,0,0,-1,1315,463,0.767896,14.2957
98,561,2.75171,-10.6918,0,0,0,0,0,0,0,-1,1322,463,2.75171,10.6918
105,561,4.88696,-18.3713,0,0,0,0,0,0,0,-1,1329,463,4.887,18.3713
112,561,4.42957,-17.2728,0,0,0,0,0,0,0,-1,1336,463,4.42962,17.2728
119,561,3.93164,-16.6456,0,0,0,0,0,0,0,-1,1343,463,3.93162,16.6456
126,561,4.49316,-15.7793,0,0,0,0,0,0,0,-1,1350,463,4.49316,15.7793
133,561,5.05469,-14.913,0,0,0,0,0,0,0,-1,1357,463,5.05471,14.913
140,561,4.09766,-16.199,0,0,0,0,0,0,0,-1,1364,463,4.09761,16.199
147,561,2.71619,-16.1415,-0.106703,0.0676503,0.030625,0.0728732,-0.111926,1.40188,0.107485,0.0452525,1371,463,2.71613,16.1415
154,561,1.33362,-16.0751,-0.120765,0.0626011,0.0269702,0.0664857,-0.12465,1.42775,0.112042,0.0448871,1378,463,1.33358,16.0751
161,561,-0.036499,-15.9699,0,0,0,0,0,0,0,-1,1385,463,-0.0364816,15.9699
168,561,-1.68591,-18.2095,0,0,0,0,0,0,0,-1,1392,463,-1.68589,18.2095
175,561,10.4185,0.276398,0,0,0,0,0,0,0,-1,1399,463,10.4185,-0.276394
182,561,6.45703,-4.02127,0,0,0,0,0,0,0,-1,1406,463,6.45704,4.02127
189,561,6.50854,-2.08685,0,0,0,0,0,0,0,-1,1413,463,6.50851,2.08686
196,561,6.44775,-0.27182,0,0,0,0,0,0,0,-1,1420,463,6.44773,0.271814
203,561,6.18591,1.1301,0,0,0,0,0,0,0,-1,1427,463,6.18592,-1.13009
210,561,5.68713,2.68427,0,0,0,0,0,0,0,-1,1434,463,5.6871,-2.68425
217,561,3.61743,-7.33582,0,0,0,0,0,0,0,-1,1441,463,3.61738,7.33581
224,561,4.27466,-8.59171,0,0,0,0,0,0,0,-1,1448,463,4.27466,8.59171
231,561,4.93188,-9.8476,0,0,0,0,0,0,0,-1,1455,463,4.93193,9.84761
238,561,2.18018,-5.18359,0,0,0,0,0,0,0,-1,1462,463,2.18023,5.18359
245,561,3.07568,-3.50238,0,0,0,0,0,0,0,-1,1469,463,3.0757,3.50238
252,561,3.47412,-3.71109,0,0,0,0,0,0,0,-1,1476,463,3.47413,3.71109
259,561,3.42212,-3.2334,0,0,0,0,0,0,0,-1,1483,463,3.42214,3.2334
266,561,4.44373,-5.90027,0,0,0,0,0,0,0,-1,1490,463,4.44372,5.90026
273,561,2.59485,-3.65268,0,0,0,0,0,0,0,-1,1497,463,2.5948,3.65268
280,561,3.10767,-6.38235,0,0,0,0,0,0,0,-1,1504,463,3.10766,6.38235
287,561,4.28162,-11.949,0,0,0,0,0,0,0,-1,1511,463,4.28157,11.949
294,561,4.36401,-11.881,0,0,0,0,0,0,0,-1,1518,463,4.36406,11.8809
301,561,4.26538,-11.7371,0.00080792,-0.000486192,-0.00292047,0.00315216,-0.00283043,-0.67638,0.00345571,0.0407395,1525,463,4.26542,11.7371
308,561,4.24036,-11.5269,0.000295377,-0.00116252,-0.00315242,0.00280203,-0.00366918,-0.671778,0.00374732,0.0325866,1532,463,4.24033,11.5269
315,561,4.2417,-11.4109,-0.000220104,-0.00141436,-0.00323179,0.00246926,-0.00410373,-0.694045,0.00383383,0.0229132,1539,463,4.24168,11.4109
322,561,4.25476,-11.2439,-0.000572861,-0.00138484,-0.00309332,0.002141,-0.0040987,-0.720147,0.00366112,0.0238745,1546,463,4.25478,11.2439
329,561,4.24487,-11.0074,-0.000765929,-0.00133275,-0.00289124,0.00185576,-0.00395444,-0.736542,0.00342668,0.015751,1553,463,4.24485,11.0074
336,561,4.27222,-10.7863,-0.000821573,-0.000950811,-0.00254003,0.00165466,-0.00342704,-0.772681,0.00299281,0.01143,1560,463,4.27221,10.7864
343,561,4.27649,-10.6059,-0.00103236,-0.000807368,-0.00225286,0.00133581,-0.00317553,-0.810344,0.00267584,0.0095347,1567,463,4.2765,10.6059
350,561,4.27026,-10.4093,-0.00107421,-0.000643061,-0.00188302,0.00103669,-0.00275396,-0.842392,0.00226215,0.00920556,1574,463,4.27021,10.4093
357,561,4.27808,-10.1877,-0.00101225,-0.00046192,-0.00158388,0.000870523,-0.00234469,-0.871404,0.00192024,0.00993468,1581,463,4.27803,10.1876
364,561,4.31665,-10.0009,-0.00092331,-0.000215787,-0.00118857,0.000670554,-0.00180965,-0.930041,0.00148143,0.00940686,1588,463,4.31671,10.0008
371,561,4.30432,-9.78912,-0.000804858,-2.54779e-05,-0.000790271,0.00046596,-0.0012963,-1.01446,0.00105441,0.0153389,1595,463,4.30428,9.78911
378,561,4.27783,-9.57565,-0.000684198,0.000288239,-0.000412259,0.000439489,-0.000835448,-1.21916,0.000747824,0.0118227,1602,463,4.27788,9.57566
385,561,4.27917,-9.35626,-0.000552558,0.000447488,-0.00017494,0.000477207,-0.000582278,-1.40252,0.000612696,0.0106141,1609,463,4.27914,9.35626
392,561,4.26843,-9.12244,-0.000248913,0.000553241,8.4373e-05,0.00056202,-0.000257692,1.46713,0.000484011,0.0139942,1616,463,4.26845,9.12242
399,561,4.22424,-8.92133,0.000190821,0.0005818,0.000357331,0.000793621,-2.09995e-05,1.0357,0.000536217,0.0188851,1623,463,4.22425,8.92134
406,561,4.25098,-8.6825,0.000587871,0.000516389,0.000647729,0.00120084,-9.65841e-05,0.757837,0.000834622,0.0176675,1630,463,4.25099,8.68251
413,561,4.25647,-8.42993,0.000979497,0.000496694,0.000964814,0.00173265,-0.00025646,0.662812,0.00124939,0.0157286,1637,463,4.25651,8.42994
420,561,4.24268,-8.19101,0.00148572,0.000339713,0.0010466,0.00210591,-0.000280479,0.534942,0.00150616,0.012503,1644,463,4.24262,8.19101
427,561,4.25696,-7.94019,0.00221297,-0.000294816,0.00107581,0.00261123,-0.000693081,0.354554,0.00201204,0.0102477,1651,463,4.25694,7.94019
434,561,4.26428,-7.71484,0.00293788,-0.000901842,0.00113579,0.00324869,-0.00121265,0.267109,0.00266367,0.0118406,1658,463,4.26425,7.71485
441,561,4.2666,-7.51956,0.00370034,-0.00164378,0.00112303,0.00392675,-0.00187018,0.198935,0.00341635,0.0145069,1665,463,4.26654,7.51956
448,561,4.29199,-7.32324,0.00438943,-0.00264369,0.000938009,0.00451238,-0.00276664,0.130336,0.00424264,0.018092,1672,463,4.29199,7.32325
455,561,4.39893,-7.10175,0.0050972,-0.00383208,0.000729673,0.00515643,-0.00389131,0.0810008,0.00524071,0.0347244,1679,463,4.39889,7.10176
462,561,4.25256,-6.67917,0.00583024,-0.00507749,0.000434794,0.00584754,-0.00509479,0.039777,0.00632254,0.0388842,1686,463,4.25258,6.67917
469,561,4.16797,-6.38281,0.00653869,-0.00640302,8.10853e-05,0.0065392,-0.00640353,0.0062651,0.00747262,0.0242781,1693,463,4.16793,6.3828
476,561,4.04932,-6.07611,0.00729775,-0.00774771,-0.000353616,0.00730606,-0.00775602,-0.0234859,0.00869739,0.0405312,1700,463,4.0493,6.07612
483,561,3.89783,-5.73373,0,0,0,0,0,0,0,-1,1707,463,3.89786,5.73373
490,561,6.13135,-2.58374,0,0,0,0,0,0,0,-1,1714,463,6.13139,2.58373
497,561,7.30652,-2.46649,0,0,0,0,0,0,0,-1,1721,463,7.30649,2.4665
504,561,6.45044,-2.35263,0,0,0,0,0,0,0,-1,1728,463,6.4504,2.35263
511,561,0,0,0,0,0,0,0,0,0,-1,1735,463,0,0
518,561,0,0,0,0,0,0,0,0,0,-1,1742,463,0,0
525,561,0,0,0,0,0,0,0,0,0,-1,1749,463,0,0
532,561,0,0,0,0,0,0,0,0,0,-1,1756,463,0,0
539,561,0,0,0,0,0,0,0,0,0,-1,1763,463,0,0
546,561,0,0,0,0,0,0,0,0,0,-1,1770,463,0,0
553,561,0,0,0,0,0,0,0,0,0,-1,1777,463,0,0
560,561,0,0,0,0,0,0,0,0,0,-1,1784,463,0,0
567,561,0,0,0,0,0,0,0,0,0,-1,1791,463,0,0
574,561,0,0,0,0,0,0,0,0,0,-1,1798,463,0,0
581,561,0,0,0,0,0,0,0,0,0,-1,1805,463,0,0
588,561,0,0,0,0,0,0,0,0,0,-1,1812,463,0,0
595,561,0,0,0,0,0,0,0,0,0,-1,1819,463,0,0
602,561,0,0,0,0,0,0,0,0,0,-1,1826,463,0,0
609,561,0,0,0,0,0,0,0,0,0,-1,1833,463,0,0
616,561,0,0,0,0,0,0,0,0,0,-1,1840,463,0,0
623,561,0,0,0,0,0,0,0,0,0,-1,1847,463,0,0
630,561,0,0,0,0,0,0,0,0,0,-1,1854,463,0,0
637,561,0,0,0,0,0,0,0,0,0,-1,1861,463,0,0
644,561,0,0,0,0,0,0,0,0,0,-1,1868,463,0,0
651,561,0,0,0,0,0,0,0,0,0,-1,1875,463,0,0
658,561,0,0,0,0,0,0,0,0,0,-1,1882,463,0,0
665,561,0,0,0,0,0,0,0,0,0,-1,1889,463,0,0
672,561,0,0,0,0,0,0,0,0,0,-1,1896,463,0,0
679,561,0,0,0,0,0,0,0,0,0,-1,1903,463,0,0
686,561,0,0,0,0,0,0,0,0,0,-1,1910,463,0,0
693,561,0,0,0,0,0,0,0,0,0,-1,1917,463,0,0
700,561,0,0,0,0,0,0,0,0,0,-1,1924,463,0,0
707,561,0,0,0,0,0,0,0,0,0,-1,1931,463,0,0
714,561,0,0,0,0,0,0,0,0,0,-1,1938,463,0,0
721,561,0,0,0,0,0,0,0,0,0,-1,1945,463,0,0
728,561,0,0,0,0,0,0,0,0,0,-1,1952,463,0,0
735,561,0,0,0,0,0,0,0,0,0,-1,1959,463,0,0
742,561,0,0,0,0,0,0,0,0,0,-1,1966,463,0,0
749,561,0,0,0,0,0,0,0,0,0,-1,1973,463,0,0
756,561,0,0,0,0,0,0,0,0,0,-1,1980,463,0,0
763,561,0,0,0,0,0,0,0,0,0,-1,1987,463,0,0
770,561,0,0,0,0,0,0,0,0,0,-1,1994,463,0,0
777,561,0,0,0,0,0,0,0,0,0,-1,2001,463,0,0
784,561,0,0,0,0,0,0,0,0,0,-1,2008,463,0,0
791,561,0,0,0,0,0,0,0,0,0,-1,2015,463,0,0
798,561,0,0,0,0,0,0,0,0,0,-1,2022,463,0,0
805,561,0,0,0,0,0,0,0,0,0,-1,2029,463,0,0
812,561,0,0,0,0,0,0,0,0,0,-1,2036,463,0,0
-700,554,0,0,0,0,0,0,0,0,0,-1,524,470,0,0
-693,554,0,0,0,0,0,0,0,0,0,-1,531,470,0,0
-686,554,0,0,0,0,0,0,0,0,0,-1,538,470,0,0
-679,554,0,0,0,0,0,0,0,0,0,-1,545,470,0,0
-672,554,0,0,0,0,0,0,0,0,0,-1,552,470,0,0
-665,554,0,0,0,0,0,0,0,0,0,-1,559,470,0,0
-658,554,0,0,0,0,0,0,0,0,0,-1,566,470,0,0
-651,554,0,0,0,0,0,0,0,0,0,-1,573,470,0,0
-644,554,0,0,0,0,0,0,0,0,0,-1,580,470,0,0
-637,554,0,0,0,0,0,0,0,0,0,-1,587,470,0,0
-630,554,0,0,0,0,0,0,0,0,0,-1,594,470,0,0
-623,554,0,0,0,0,0,0,0,0,0,-1,601,470,0,0
-616,554,0,0,0,0,0,0,0,0,0,-1,608,470,0,0
-609,554,0,0,0,0,0,0,0,0,0,-1,615,470,0,0
-602,554,0,0,0,0,0,0,0,0,0,-1,622,470,0,0
-595,554,0,0,0,0,0,0,0,0,0,-1,629,470,0,0
-588,554,0,0,0,0,0,0,0,0,0,-1,636,470,0,0
-581,554,0,0,0,0,0,0,0,0,0,-1,643,470,0,0
-574,554,0,0,0,0,0,0,0,0,0,-1,650,470,0,0
-567,554,0,0,0,0,0,0,0,0,0,-1,657,470,0,0
-560,554,0,0,0,0,0,0,0,0,0,-1,664,470,0,0
-553,554,0,0,0,0,0,0,0,0,0,-1,671,470,0,0
-546,554,0,0,0,0,0,0,0,0,0,-1,678,470,0,0
-539,554,0,0,0,0,0,0,0,0,0,-1,685,470,0,0
-532,554,0,0,0,0,0,0,0,0,0,-1,692,470,0,0
-525,554,0,0,0,0,0,0,0,0,0,-1,699,470,0,0
-518,554,0,0,0,0,0,0,0,0,0,-1,706,470,0,0
-511,554,0,0,0,0,0,0,0,0,0,-1,713,470,0,0
-504,554,0,0,0,0,0,0,0,0,0,-1,720,470,0,0
-497,554,0,0,0,0,0,0,0,0,0,-1,727,470,0,0
-490,554,0,0,0,0,0,0,0,0,0,-1,734,470,0,0
-483,554,0,0,0,0,0,0,0,0,0,-1,741,470,0,0
-476,554,0,0,0,0,0,0,0,0,0,-1,748,470,0,0
-469,554,0,0,0,0,0,0,0,0,0,-1,755,470,0,0
-462,554,0,0,0,0,0,0,0,0,0,-1,762,470,0,0
-455,554,0,0,0,0,0,0,0,0,0,-1,769,470,0,0
-448,554,0,0,0,0,0,0,0,0,0,-1,776,470,0,0
-441,554,0,0,0,0,0,0,0,0,0,-1,783,470,0,0
-434,554,0,0,0,0,0,0,0,0,0,-1,790,470,0,0
-427,554,0,0,0,0,0,0,0,0,0,-1,797,470,0,0
-420,554,0,0,0,0,0,0,0,0,0,-1,804,470,0,0
-413,554,0,0,0,0,0,0,0,0,0,-1,811,470,0,0
-406,554,0,0,0,0,0,0,0,0,0,-1,818,470,0,0
-399,554,4.31549,-3.60254,0,0,0,0,0,0,0,-1,825,470,4.31548,3.60254
-392,554,3.92578,-3.02924,0,0,0,0,0,0,0,-1,832,470,3.92577,3.02924
-385,554,4.06689,-2.14221,0,0,0,0,0,0,0,-1,839,470,4.06687,2.14222
-378,554,5.68042,-0.171387,0,0,0,0,0,0,0,-1,846,470,5.68039,0.171378
-371,554,1.24487,-7.94312,0,0,0,0,0,0,0,-1,853,470,1.24484,7.94311
-364,554,1.04883,-7.68756,0,0,0,0,0,0,0,-1,860,470,1.0488,7.68757
-357,554,1.24969,-7.43643,0,0,0,0,0,0,0,-1,867,470,1.24968,7.43644
-350,554,1.66437,-7.81717,0,0,0,0,0,0,0,-1,874,470,1.66438,7.81716
-343,554,1.43158,-7.8689,0.000104967,0.00687712,-0.00853553,0.0126737,-0.00569159,-0.974229,0.0108556,0.04521,881,470,1.43155,7.86889
-336,554,1.10834,-8.08047,0.00103168,0.00728459,-0.00869789,0.0134009,-0.00508459,-0.957933,0.0110267,0.0337382,888,470,1.10832,8.08049
-329,554,1.04535,-8.33221,0.00170376,0.00726912,-0.0085001,0.0134304,-0.00445755,-0.943585,0.010752,0.0160288,895,470,1.04534,8.33221
-322,554,1.03467,-8.55978,0.00222458,0.00703605,-0.0081112,0.0130908,-0.00383013,-0.929563,0.0102454,0.0104127,902,470,1.03467,8.55977
-315,554,1.03101,-8.78561,0.00241931,0.00658373,-0.00741265,0.0122011,-0.00319802,-0.922319,0.0093835,0.010414,909,470,1.03101,8.78561
-308,554,1.03674,-9.00876,0.00243363,0.00585414,-0.00652997,0.0108941,-0.00260633,-0.913476,0.00826957,0.0127899,916,470,1.03677,9.00877
-301,554,1.04895,-9.2175,0.00232647,0.00490742,-0.00549346,0.00925994,-0.00202605,-0.900762,0.00694782,0.0135754,923,470,1.04895,9.2175
-294,554,1.02112,-9.41394,0.00211911,0.00388892,-0.00440409,0.00749612,-0.00148809,-0.884542,0.00556022,0.0114301,930,470,1.02115,9.41395
-287,554,1.0047,-9.63324,0.00197428,0.00286943,-0.00343696,0.00588784,-0.00104413,-0.850146,0.00431558,0.0110493,937,470,1.00471,9.63324
-280,554,0.987,-9.84512,0.00170984,0.00195737,-0.00249348,0.00433015,-0.000662941,-0.810195,0.00313123,0.010526,944,470,0.986978,9.84513
-273,554,0.986755,-10.0545,0.00142928,0.00106849,-0.00173071,0.00298897,-0.000491202,-0.733471,0.00217495,0.0139708,951,470,0.986731,10.0545
-266,554,0.990479,-10.2717,0.00135059,0.000320815,-0.00115764,0.00210268,-0.000431277,-0.576148,0.00156548,0.011697,958,470,0.990451,10.2717
-259,554,0.995605,-10.4412,0.0012589,-0.000545105,-0.000543592,0.00141004,-0.000696241,-0.271183,0.00123912,0.0110796,965,470,0.99563,10.4412
-252,554,0.996643,-10.6211,0.000722588,-0.00114276,-0.000131743,0.000731847,-0.00115201,-0.0701626,0.00109663,0.0135769,972,470,0.996627,10.6211
-245,554,1.00568,-10.8295,-5.74309e-06,-0.00158113,0.000381544,8.17988e-05,-0.00166867,0.225538,0.00114069,0.0153358,979,470,1.00567,10.8295
-238,554,1.008,-11.0298,-0.000574167,-0.0023428,0.00106349,-7.53632e-05,-0.0028416,0.438563,0.00186979,0.0110847,986,470,1.00798,11.0298
-231,554,1.00262,-11.2194,-0.00142362,-0.00303236,0.00169701,-0.00035,-0.00410598,0.564084,0.00262843,0.00937899,993,470,1.00261,11.2194
-224,554,1.02625,-11.3943,-0.00271697,-0.00379127,0.00273365,-0.000468197,-0.00604004,0.688387,0.00388006,0.0099528,1000,470,1.02623,11.3943
-217,554,1.05963,-11.5608,-0.00395609,-0.00454994,0.0037596,-0.000481708,-0.00802432,0.745991,0.00519643,0.0102427,1007,470,1.05964,11.5608
-210,554,1.09332,-11.7527,-0.00545052,-0.005785,0.00454944,-0.00106524,-0.0101703,0.767026,0.00645447,0.0133137,1014,470,1.09332,11.7527
-203,554,1.09882,-11.957,-0.00734814,-0.00730132,0.00533185,-0.00199283,-0.0126566,0.787593,0.00785817,0.020612,1021,470,1.09879,11.957
-196,554,0.998779,-12.0731,-0.00947069,-0.0083671,0.0064755,-0.00241993,-0.0154179,0.827902,0.00957442,0.0268053,1028,470,0.998719,12.073
-189,554,0.978882,-12.1878,-0.0113425,-0.00912241,0.00772503,-0.00242808,-0.0180368,0.856758,0.0113025,0.0345902,1035,470,0.978907,12.1878
-182,554,0.992065,-12.1864,-0.0124299,-0.0104008,0.00865547,-0.00270062,-0.0201301,0.843742,0.0126166,0.04291,1042,470,0.992101,12.1864
-175,554,0.487793,-12.3792,-0.0137859,-0.0115771,0.00948784,-0.00312961,-0.0222334,0.843338,0.013897,0.0493588,1049,470,0.487809,12.3792
-168,554,1.39636,-12.7444,0,0,0,0,0,0,0,-1,1056,470,1.39641,12.7443
-161,554,1.94482,-12.401,-0.0162816,-0.0147121,0.0110122,-0.00445674,-0.026537,0.820968,0.0164088,0.049734,1063,470,1.9448,12.401
-154,554,1.72473,-12.3426,-0.016571,-0.015791,0.0115213,-0.00465315,-0.0277088,0.802316,0.0171334,0.0431046,1070,470,1.72472,12.3426
-147,554,0.393555,-13.5039,0,0,0,0,0,0,0,-1,1077,470,0.393522,13.5039
-140,554,0.180176,-13.7012,0,0,0,0,0,0,0,-1,1084,470,0.180214,13.7012
-133,554,0.0255127,-13.7503,0,0,0,0,0,0,0,-1,1091,470,0.0254952,13.7503
-126,554,-0.195923,-8.76236,0,0,0,0,0,0,0,-1,1098,470,-0.195888,8.76235
-119,554,0.944702,-12.1022,0,0,0,0,0,0,0,-1,1105,470,0.944726,12.1022
-112,554,0.837524,-12.4395,0,0,0,0,0,0,0,-1,1112,470,0.837493,12.4395
-105,554,2.82129,-9.46112,0,0,0,0,0,0,0,-1,1119,470,2.82127,9.46112
-98,554,1.51929,-7.3624,0,0,0,0,0,0,0,-1,1126,470,1.51928,7.36241
-91,554,1.41089,-6.5864,0,0,0,0,0,0,0,-1,1133,470,1.41093,6.58638
-84,554,1.62305,-5.87186,0,0,0,0,0,0,0,-1,1140,470,1.62299,5.87186
-77,554,-2.56958,1.33258,0,0,0,0,0,0,0,-1,1147,470,-2.56959,-1.33257
-70,554,-3.68164,-1.18332,0,0,0,0,0,0,0,-1,1154,470,-3.68158,1.18331
-63,554,-4.86853,-3.88708,0,0,0,0,0,0,0,-1,1161,470,-4.86853,3.88708
-56,554,-5.69958,-6.45422,0,0,0,0,0,0,0,-1,1168,470,-5.69955,6.45422
-49,554,-6.23645,-8.8569,0,0,0,0,0,0,0,-1,1175,470,-6.23643,8.85689
-42,554,-6.62524,-11.5382,0,0,0,0,0,0,0,-1,1182,470,-6.62522,11.5382
-35,554,-2.40173,-4.59482,0,0,0,0,0,0,0,-1,1189,470,-2.40169,4.59481
-28,554,-0.760132,-1.65555,0,0,0,0,0,0,0,-1,1196,470,-0.760095,1.65556
-21,554,4.19897,-12.6041,0,0,0,0,0,0,0,-1,1203,470,4.19894,12.6041
-14,554,3.16394,-12.6633,-0.0672673,-0.00899176,-0.0167518,-0.0045195,-0.0717396,-1.30991,0.0463933,0.0475275,1210,470,3.16391,12.6633
-7,554,2.7428,-12.825,-0.0576107,0.0112494,0.00235582,0.0113299,-0.0576912,1.53664,0.042741,0.0473818,1217,470,2.74282,12.825
0,554,2.10461,-13.0422,0,0,0,0,0,0,0,-1,1224,470,2.10457,13.0422
7,554,3.71021,-19.9857,0,0,0,0,0,0,0,-1,1231,470,3.71016,19.9857
14,554,3.07678,-19.2759,0,0,0,0,0,0,0,-1,1238,470,3.0768,19.2759
21,554,2.42578,-18.6003,0,0,0,0,0,0,0,-1,1245,470,2.42576,18.6003
28,554,1.70703,-17.9315,0,0,0,0,0,0,0,-1,1252,470,1.70707,17.9314
35,554,2.76355,-18.4139,0,0,0,0,0,0,0,-1,1259,470,2.76351,18.4139
42,554,3.06653,-17.9592,0,0,0,0,0,0,0,-1,1266,470,3.06658,17.9592
49,554,3.37134,-17.2201,0,0,0,0,0,0,0,-1,1273,470,3.37139,17.2201
56,554,2.32935,-16.5697,0,0,0,0,0,0,0,-1,1280,470,2.32935,16.5697
63,554,2.09912,-15.9157,-0.0410948,0.0593705,0.0428217,0.0751455,-0.0568698,1.21783,0.0764621,0.0409287,1287,470,2.09918,15.9157
70,554,1.95483,-15.6568,-0.0452673,0.0532109,0.0400532,0.0674442,-0.0595006,1.22935,0.0733395,0.0455951,1294,470,1.95488,15.6568
77,554,1.38159,-15.1089,-0.044196,0.0525191,0.0413262,0.0677722,-0.059449,1.21722,0.0735036,0.0483034,1301,470,1.38163,15.109
84,554,1.02502,-14.775,-0.0409861,0.0541517,0.0446171,0.0718016,-0.0586359,1.1941,0.0754359,0.0477795,1308,470,1.02507,14.775
91,554,0.635376,-14.4588,0,0,0,0,0,0,0,-1,1315,470,0.635397,14.4588
98,554,2.61829,-10.7452,0,0,0,0,0,0,0,-1,1322,470,2.61824,10.7452
105,554,2.20972,-10.2337,0,0,0,0,0,0,0,-1,1329,470,2.20968,10.2337
112,554,1.54004,-9.82416,0,0,0,0,0,0,0,-1,1336,470,1.54005,9.82416
119,554,3.99707,-17.2477,0,0,0,0,0,0,0,-1,1343,470,3.99713,17.2477
126,554,4.52197,-16.3805,0,0,0,0,0,0,0,-1,1350,470,4.52199,16.3805
133,554,5.04724,-15.5044,0,0,0,0,0,0,0,-1,1357,470,5.04721,15.5043
140,554,5.59314,-14.6083,0,0,0,0,0,0,0,-1,1364,470,5.59311,14.6083
147,554,2.65283,-16.8076,-0.132079,0.0802009,0.0293548,0.0841854,-0.136064,1.43589,0.128331,0.0477803,1371,470,2.65282,16.8076
154,554,1.53601,-16.9604,-0.148413,0.0729509,0.024969,0.0757324,-0.151195,1.45986,0.133409,0.0457026,1378,470,1.53605,16.9603
161,554,0.311279,-17.4652,-0.161513,0.0664747,0.0206656,0.0683328,-0.163371,1.48113,0.137474,0.0461665,1385,470,0.31131,17.4653
168,554,-0.891479,-17.9434,0,0,0,0,0,0,0,-1,1392,470,-0.89152,17.9434
175,554,10.663,0.286957,0,0,0,0,0,0,0,-1,1399,470,10.663,-0.286966
182,554,6.71106,-4.50217,0,0,0,0,0,0,0,-1,1406,470,6.71107,4.50215
189,554,6.90479,-2.50348,0,0,0,0,0,0,0,-1,1413,470,6.90477,2.50348
196,554,6.96216,-0.740906,0,0,0,0,0,0,0,-1,1420,470,6.96214,0.740912
203,554,6.43518,0.414154,0,0,0,0,0,0,0,-1,1427,470,6.43523,-0.414141
210,554,6.21167,1.96707,0,0,0,0,0,0,0,-1,1434,470,6.21165,-1.96706
217,554,5.64551,3.4989,0,0,0,0,0,0,0,-1,1441,470,5.64555,-3.49891
224,554,4.85144,-8.85172,0,0,0,0,0,0,0,-1,1448,470,4.85146,8.85173
231,554,3.25073,-5.29642,0,0,0,0,0,0,0,-1,1455,470,3.25078,5.29642
238,554,4.28625,-3.25253,0,0,0,0,0,0,0,-1,1462,470,4.28622,3.25252
245,554,4.0752,-2.90033,0,0,0,0,0,0,0,-1,1469,470,4.07515,2.90032
252,554,3.52112,-0.934998,0,0,0,0,0,0,0,-1,1476,470,3.52113,0.934996
259,554,3.96448,-2.16425,0,0,0,0,0,0,0,-1,1483,470,3.96446,2.16424
266,554,3.0592,-2.71716,0,0,0,0,0,0,0,-1,1490,470,3.05923,2.71718
273,554,2.58521,-3.06876,0,0,0,0,0,0,0,-1,1497,470,2.58524,3.06874
280,554,2.83301,-0.991699,0,0,0,0,0,0,0,-1,1504,470,2.83303,0.991704
287,554,3.54126,-4.12277,0,0,0,0,0,0,0,-1,1511,470,3.54123,4.12277
294,554,3.62036,-8.50146,0,0,0,0,0,0,0,-1,1518,470,3.62031,8.50145
301,554,4.43079,-11.6217,0,0,0,0,0,0,0,-1,1525,470,4.43076,11.6217
308,554,4.4408,-11.5923,0,0,0,0,0,0,0,-1,1532,470,4.44074,11.5923
315,554,4.46179,-11.1929,0,0,0,0,0,0,0,-1,1539,470,4.46178,11.1929
322,554,4.53394,-11.0247,-0.00133992,-0.00211208,-0.00439359,0.00268452,-0.00613653,-0.741574,0.00522121,0.0492348,1546,470,4.53391,11.0247
329,554,4.45471,-10.9375,-0.00149252,-0.00198838,-0.00408275,0.00234982,-0.00583073,-0.755072,0.00486348,0.0286376,1553,470,4.4547,10.9375
336,554,4.45032,-10.7923,-0.00149329,-0.00150103,-0.00363198,0.00213482,-0.00512914,-0.784866,0.00431099,0.0128731,1560,470,4.45034,10.7923
343,554,4.45679,-10.6219,-0.00174338,-0.0013893,-0.00333648,0.00177484,-0.00490751,-0.811905,0.00399688,0.0094886,1567,470,4.45676,10.6219
350,554,4.48303,-10.4184,-0.0017657,-0.00124505,-0.00291823,0.00142445,-0.0044352,-0.829883,0.00352878,0.0089849,1574,470,4.483,10.4184
357,554,4.50012,-10.2096,-0.0016787,-0.00108091,-0.00263175,0.00126887,-0.00402848,-0.841943,0.00319376,0.0105966,1581,470,4.50012,10.2096
364,554,4.50647,-9.99597,-0.00154784,-0.000838047,-0.00219209,0.00102769,-0.00341357,-0.865651,0.00268466,0.00874316,1588,470,4.50649,9.99598
371,554,4.50916,-9.79633,-0.00136871,-0.000633488,-0.00174441,0.000781628,-0.00278383,-0.889247,0.002164,0.00817936,1595,470,4.50916,9.79633
378,554,4.50061,-9.57727,-0.0011626,-0.000263223,-0.00130105,0.000663658,-0.00208948,-0.951788,0.00165906,0.009549,1602,470,4.50063,9.57728
385,554,4.51111,-9.3609,-0.00097394,-5.56657e-05,-0.000981112,0.000568427,-0.00159803,-1.00425,0.00129704,0.00972465,1609,470,4.51105,9.36089
392,554,4.51062,-9.13715,-0.000690963,9.34917e-05,-0.000650222,0.000460627,-0.0010581,-1.05679,0.000899169,0.0134215,1616,470,4.51067,9.13713
399,554,4.49072,-8.89606,-0.000293074,0.000166063,-0.000335329,0.000342878,-0.000469889,-1.08556,0.000471157,0.0168546,1623,470,4.49073,8.89607
406,554,4.49585,-8.67212,8.7881e-05,0.000168744,-3.59603e-06,0.000168904,8.77214e-05,-1.52644,9.7541e-05,0.0158341,1630,470,4.49589,8.67212
413,554,4.49255,-8.42676,0.000476266,0.000246722,0.000364051,0.000743209,-2.02202e-05,0.632698,0.000502348,0.0143427,1637,470,4.49258,8.42676
420,554,4.50024,-8.18164,0.000933013,0.000187884,0.000549691,0.0012245,-0.000103603,0.487573,0.000852967,0.0148629,1644,470,4.50028,8.18163
427,554,4.4967,-7.96292,0.00150779,-0.000217258,0.000675767,0.00174099,-0.000450457,0.332292,0.00133636,0.011008,1651,470,4.49666,7.96292
434,554,4.48706,-7.73633,0.00206368,-0.000657648,0.0008222,0.0022928,-0.00088677,0.271775,0.00189461,0.00980564,1658,470,4.48705,7.73633
441,554,4.49805,-7.49707,0.00262505,-0.0012366,0.000907505,0.00282768,-0.00143923,0.219684,0.0025066,0.0107912,1665,470,4.4981,7.49707
448,554,4.48804,-7.24844,0.0031411,-0.00195882,0.000884319,0.00329009,-0.00210781,0.166909,0.00314129,0.0125761,1672,470,4.48807,7.24844
455,554,4.46594,-7.00998,0.00365492,-0.00282133,0.00080723,0.00375402,-0.00292043,0.122155,0.0038635,0.0143438,1679,470,4.46596,7.00997
462,554,4.43359,-6.741,0.00420702,-0.0037096,0.00070623,0.00426952,-0.00377211,0.0882797,0.0046458,0.0176525,1686,470,4.43357,6.741
469,554,4.4364,-6.44904,0.00473823,-0.00468236,0.000511593,0.00476594,-0.00471006,0.0540937,0.005471,0.0225604,1693,470,4.43645,6.44904
476,554,4.48022,-6.10901,0.00526129,-0.00569161,0.00025421,0.00526719,-0.00569751,0.0231927,0.00633209,0.0474561,1700,470,4.48027,6.10901
483,554,4.50085,-5.78857,0,0,0,0,0,0,0,-1,1707,470,4.50086,5.78856
490,554,7.31543,-3.51794,0,0,0,0,0,0,0,-1,1714,470,7.3154,3.51794
497,554,7.9751,-2.43454,0,0,0,0,0,0,0,-1,1721,470,7.97505,2.43453
504,554,2.13257,-3.81628,0,0,0,0,0,0,0,-1,1728,470,2.1326,3.8163
511,554,1.31396,-4.02713,0,0,0,0,0,0,0,-1,1735,470,1.31398,4.02712
518,554,-1.15686,-2.436,0,0,0,0,0,0,0,-1,1742,470,-1.15691,2.43599
525,554,0,0,0,0,0,0,0,0,0,-1,1749,470,0,0
532,554,0,0,0,0,0,0,0,0,0,-1,1756,470,0,0
539,554,0,0,0,0,0,0,0,0,0,-1,1763,470,0,0
546,554,0,0,0,0,0,0,0,0,0,-1,1770,470,0,0
553,554,0,0,0,0,0,0,0,0,0,-1,1777,470,0,0
560,554,0,0,0,0,0,0,0,0,0,-1,1784,470,0,0
567,554,0,0,0,0,0,0,0,0,0,-1,1791,470,0,0
574,554,0,0,0,0,0,0,0,0,0,-1,1798,470,0,0
581,554,0,0,0,0,0,0,0,0,0,-1,1805,470,0,0
588,554,0,0,0,0,0,0,0,0,0,-1,1812,470,0,0
595,554,0,0,0,0,0,0,0,0,0,-1,1819,470,0,0
602,554,0,0,0,0,0,0,0,0,0,-1,1826,470,0,0
609,554,0,0,0,0,0,0,0,0,0,-1,1833,470,0,0
616,554,0,0,0,0,0,0,0,0,0,-1,1840,470,0,0
623,554,0,0,0,0,0,0,0,0,0,-1,1847,470,0,0
630,554,0,0,0,0,0,0,0,0,0,-1,1854,470,0,0
637,554,0,0,0,0,0,0,0,0,0,-1,1861,470,0,0
644,554,0,0,0,0,0,0,0,0,0,-1,1868,470,0,0
651,554,0,0,0,0,0,0,0,0,0,-1,1875,470,0,0
658,554,0,0,0,0,0,0,0,0,0,-1,1882,470,0,0
665,554,0,0,0,0,0,0,0,0,0,-1,1889,470,0,0
672,554,0,0,0,0,0,0,0,0,0,-1,1896,470,0,0
679,554,0,0,0,0,0,0,0,0,0,-1,1903,470,0,0
686,554,0,0,0,0,0,0,0,0,0,-1,1910,470,0,0
693,554,0,0,0,0,0,0,0,0,0,-1,1917,470,0,0
700,554,0,0,0,0,0,0,0,0,0,-1,1924,470,0,0
707,554,0,0,0,0,0,0,0,0,0,-1,1931,470,0,0
714,554,0,0,0,0,0,0,0,0,0,-1,1938,470,0,0
721,554,0,0,0,0,0,0,0,0,0,-1,1945,470,0,0
728,554,0,0,0,0,0,0,0,0,0,-1,1952,470,0,0
735,554,0,0,0,0,0,0,0,0,0,-1,1959,470,0,0
742,554,0,0,0,0,0,0,0,0,0,-1,1966,470,0,0
749,554,0,0,0,0,0,0,0,0,0,-1,1973,470,0,0
756,554,0,0,0,0,0,0,0,0,0,-1,1980,470,0,0
763,554,0,0,0,0,0,0,0,0,0,-1,1987,470,0,0
770,554,0,0,0,0,0,0,0,0,0,-1,1994,470,0,0
777,554,0,0,0,0,0,0,0,0,0,-1,2001,470,0,0
784,554,0,0,0,0,0,0,0,0,0,-1,2008,470,0,0
791,554,0,0,0,0,0,0,0,0,0,-1,2015,470,0,0
798,554,0,0,0,0,0,0,0,0,0,-1,2022,470,0,0
805,554,0,0,0,0,0,0,0,0,0,-1,2029,470,0,0
812,554,0,0,0,0,0,0,0,0,0,-1,2036,470,0,0
-700,547,0,0,0,0,0,0,0,0,0,-1,524,477,0,0
-693,547,0,0,0,0,0,0,0,0,0,-1,531,477,0,0
-686,547,0,0,0,0,0,0,0,0,0,-1,538,477,0,0
-679,547,0,0,0,0,0,0,0,0,0,-1,545,477,0,0
-672,547,0,0,0,0,0,0,0,0,0,-1,552,477,0,0
-665,547,0,0,0,0,0,0,0,0,0,-1,559,477,0,0
-658,547,0,0,0,0,0,0,0,0,0,-1,566,477,0,0
-651,547,0,0,0,0,0,0,0,0,0,-1,573,477,0,0
-644,547,0,0,0,0,0,0,0,0,0,-1,580,477,0,0
-637,547,0,0,0,0,0,0,0,0,0,-1,587,477,0,0
-630,547,0,0,0,0,0,0,0,0,0,-1,594,477,0,0
-623,547,0,0,0,0,0,0,0,0,0,-1,601,477,0,0
-616,547,0,0,0,0,0,0,0,0,0,-1,608,477,0,0
-609,547,0,0,0,0,0,0,0,0,0,-1,615,477,0,0
-602,547,0,0,0,0,0,0,0,0,0,-1,622,477,0,0
-595,547,0,0,0,0,0,0,0,0,0,-1,629,477,0,0
-588,547,0,0,0,0,0,0,0,0,0,-1,636,477,0,0
-581,547,0,0,0,0,0,0,0,0,0,-1,643,477,0,0
-574,547,0,0,0,0,0,0,0,0,0,-1,650,477,0,0
-567,547,0,0,0,0,0,0,0,0,0,-1,657,477,0,0
-560,547,0,0,0,0,0,0,0,0,0,-1,664,477,0,0
-553,547,0,0,0,0,0,0,0,0,0,-1,671,477,0,0
-546,547,0,0,0,0,0,0,0,0,0,-1,678,477,0,0
-539,547,0,0,0,0,0,0,0,0,0,-1,685,477,0,0
-532,547,0,0,0,0,0,0,0,0,0,-1,692,477,0,0
-525,547,0,0,0,0,0,0,0,0,0,-1,699,477,0,0
-518,547,0,0,0,0,0,0,0,0,0,-1,706,477,0,0
-511,547,0,0,0,0,0,0,0,0,0,-1,713,477,0,0
-504,547,0,0,0,0,0,0,0,0,0,-1,720,477,0,0
-497,547,0,0,0,0,0,0,0,0,0,-1,727,477,0,0
-490,547,0,0,0,0,0,0,0,0,0,-1,734,477,0,0
-483,547,0,0,0,0,0,0,0,0,0,-1,741,477,0,0
-476,547,0,0,0,0,0,0,0,0,0,-1,748,477,0,0
-469,547,0,0,0,0,0,0,0,0,0,-1,755,477,0,0
-462,547,0,0,0,0,0,0,0,0,0,-1,762,477,0,0
-455,547,0,0,0,0,0,0,0,0,0,-1,769,477,0,0
-448,547,0,0,0,0,0,0,0,0,0,-1,776,477,0,0
-441,547,0,0,0,0,0,0,0,0,0,-1,783,477,0,0
-434,547,0,0,0,0,0,0,0,0,0,-1,790,477,0,0
-427,547,0,0,0,0,0,0,0,0,0,-1,797,477,0,0
-420,547,0,0,0,0,0,0,0,0,0,-1,804,477,0,0
-413,547,0,0,0,0,0,0,0,0,0,-1,811,477,0,0
-406,547,3.48145,-4.73053,0,0,0,0,0,0,0,-1,818,477,3.48143,4.73054
-399,547,3.32983,-3.96545,0,0,0,0,0,0,0,-1,825,477,3.32984,3.96546
-392,547,2.92407,-3.52106,0,0,0,0,0,0,0,-1,832,477,2.92407,3.52107
-385,547,2.76971,-3.02631,0,0,0,0,0,0,0,-1,839,477,2.76972,3.0263
-378,547,2.87183,-2.31735,0,0,0,0,0,0,0,-1,846,477,2.87181,2.31736
-371,547,1.20789,-8.06766,0,0,0,0,0,0,0,-1,853,477,1.20791,8.06765
-364,547,0.271729,-4.58582,0,0,0,0,0,0,0,-1,860,477,0.271753,4.5858
-357,547,1.13318,-6.4292,0,0,0,0,0,0,0,-1,867,477,1.1332,6.4292
-350,547,0.908569,-7.70572,0,0,0,0,0,0,0,-1,874,477,0.908545,7.70573
-343,547,0.922363,-7.77039,-0.000625971,0.00398339,-0.00540138,0.00755123,-0.00419381,-0.987046,0.00687273,0.0369551,881,477,0.922357,7.7704
-336,547,0.874573,-8.07071,7.40938e-05,0.00429066,-0.00554407,0.00811379,-0.00374903,-0.967093,0.00700183,0.015397,888,477,0.874586,8.07072
-329,547,0.843262,-8.32434,0.00062106,0.00430865,-0.00543575,0.0082048,-0.00327509,-0.948908,0.00682858,0.0083208,895,477,0.843256,8.32435
-322,547,0.831177,-8.55536,0.00110039,0.00428206,-0.0052382,0.00816567,-0.00278322,-0.932821,0.00657102,0.00956043,902,477,0.831199,8.55536
-315,547,0.822205,-8.79361,0.00138141,0.00414653,-0.00484079,0.00779833,-0.00227038,-0.924498,0.00609822,0.00958386,909,477,0.822209,8.7936
-308,547,0.828308,-9.00491,0.00154536,0.00377421,-0.00429844,0.00710034,-0.00178078,-0.912237,0.00542546,0.0111977,916,477,0.828311,9.0049
-301,547,0.839722,-9.22217,0.0016285,0.00321729,-0.00362368,0.00613263,-0.00128684,-0.893303,0.00457805,0.0111869,923,477,0.839705,9.22218
-294,547,0.819519,-9.42981,0.00163861,0.00254627,-0.00288465,0.00501257,-0.00082769,-0.863422,0.00364903,0.00985091,930,477,0.819505,9.4298
-287,547,0.802429,-9.63116,0.00167271,0.00181122,-0.00221816,0.00396121,-0.000477278,-0.801004,0.00281343,0.0109784,937,477,0.802454,9.63117
-280,547,0.801636,-9.8414,0.00159274,0.00110159,-0.00157466,0.00294086,-0.000246528,-0.708044,0.0020477,0.013125,944,477,0.801654,9.8414
-273,547,0.79425,-10.058,0.00151201,0.000411692,-0.00105618,0.00215273,-0.000229026,-0.545286,0.00151726,0.0130485,951,477,0.794238,10.058
-266,547,0.791748,-10.2715,0.00162525,-0.000201393,-0.000685245,0.00185373,-0.000429876,-0.321839,0.00140127,0.0120163,958,477,0.79174,10.2715
-259,547,0.79071,-10.4565,0.00166636,-0.000876182,-0.00029632,0.00170044,-0.00091026,-0.1145,0.00153013,0.0102613,965,477,0.790705,10.4565
-252,547,0.813416,-10.6466,0.00104556,-0.00148166,-1.73524e-05,0.00104567,-0.00148178,-0.00686579,0.00146645,0.0105852,972,477,0.813427,10.6466
-245,547,0.840698,-10.8454,8.81543e-05,-0.00198247,0.000552249,0.000226235,-0.00212055,0.24501,0.00149483,0.0120476,979,477,0.84069,10.8454
-238,547,0.838745,-11.0337,-0.000722434,-0.00291303,0.00139412,-4.48119e-05,-0.00359066,0.452431,0.00237897,0.00837567,986,477,0.838768,11.0337
-231,547,0.828491,-11.208,-0.00196179,-0.00374286,0.00218032,-0.00049715,-0.0052075,0.591518,0.00331839,0.00777052,993,477,0.828476,11.208
-224,547,0.835144,-11.3719,-0.00380711,-0.00467939,0.00347197,-0.000744001,-0.0077425,0.722917,0.00493241,0.0105666,1000,477,0.835172,11.3719
-217,547,0.870056,-11.5697,-0.00568772,-0.00565967,0.00481976,-0.000853914,-0.0104935,0.786853,0.0067291,0.0140007,1007,477,0.870061,11.5697
-210,547,0.941528,-11.7154,-0.00792535,-0.00717522,0.00593636,-0.00160209,-0.0134985,0.816947,0.00851534,0.0248575,1014,477,0.941556,11.7154
-203,547,0.823303,-11.703,-0.0106857,-0.00904502,0.00707034,-0.00274758,-0.0169831,0.843152,0.0105264,0.0367203,1021,477,0.823318,11.703
-196,547,0.606689,-11.8406,-0.0136796,-0.0104331,0.00860841,-0.00329624,-0.0208165,0.878587,0.0129198,0.0429907,1028,477,0.606699,11.8406
-189,547,0.484375,-11.7464,-0.0163859,-0.0114937,0.0102321,-0.00341943,-0.0244602,0.902728,0.0152949,0.0485558,1035,477,0.484374,11.7464
-182,547,0.621338,-11.6848,0,0,0,0,0,0,0,-1,1042,477,0.621352,11.6848
-175,547,-0.350098,-12.3584,0,0,0,0,0,0,0,-1,1049,477,-0.350098,12.3584
-168,547,1.12463,-8.66785,0,0,0,0,0,0,0,-1,1056,477,1.12461,8.66786
-161,547,1.93481,-12.2681,0,0,0,0,0,0,0,-1,1063,477,1.93484,12.2681
-154,547,1.44983,-12.3081,0,0,0,0,0,0,0,-1,1070,477,1.44977,12.3081
-147,547,-0.48999,-14.0669,0,0,0,0,0,0,0,-1,1077,477,-0.490037,14.0669
-140,547,-0.35791,-14.1449,0,0,0,0,0,0,0,-1,1084,477,-0.357915,14.1449
-133,547,-0.22583,-14.223,0,0,0,0,0,0,0,-1,1091,477,-0.225793,14.223
-126,547,0.784302,-9.76431,0,0,0,0,0,0,0,-1,1098,477,0.78428,9.76432
-119,547,-0.531006,-10.0229,0,0,0,0,0,0,0,-1,1105,477,-0.530984,10.0229
-112,547,4.36194,-9.23029,0,0,0,0,0,0,0,-1,1112,477,4.36195,9.23029
-105,547,4.448,-9.17819,0,0,0,0,0,0,0,-1,1119,477,4.44799,9.1782
-98,547,1.50391,-7.20621,0,0,0,0,0,0,0,-1,1126,477,1.50395,7.20621
-91,547,1.37805,-7.12024,0,0,0,0,0,0,0,-1,1133,477,1.37804,7.12025
-84,547,1.94202,-6.66241,0,0,0,0,0,0,0,-1,1140,477,1.94201,6.66241
-77,547,-2.28357,1.8588,0,0,0,0,0,0,0,-1,1147,477,-2.28356,-1.85879
-70,547,-3.70178,-0.874908,0,0,0,0,0,0,0,-1,1154,477,-3.70182,0.874918
-63,547,-5.12012,-3.60861,0,0,0,0,0,0,0,-1,1161,477,-5.12009,3.60862
-56,547,-6.01917,-6.2399,0,0,0,0,0,0,0,-1,1168,477,-6.01921,6.23991
-49,547,-6.729,-8.60349,0,0,0,0,0,0,0,-1,1175,477,-6.72899,8.60348
-42,547,-2.41736,-5.53012,0,0,0,0,0,0,0,-1,1182,477,-2.41734,5.53011
-35,547,-2.96838,-4.45734,0,0,0,0,0,0,0,-1,1189,477,-2.96839,4.45734
-28,547,-0.869141,-1.29901,0,0,0,0,0,0,0,-1,1196,477,-0.869135,1.29901
-21,547,4.33044,-12.4018,0,0,0,0,0,0,0,-1,1203,477,4.33042,12.4018
-14,547,3.86987,-12.571,-0.0751726,-0.0152053,-0.036135,0.00176591,-0.0921438,-1.13171,0.0620262,0.0458954,1210,477,3.86993,12.571
-7,547,3.41711,-12.6539,-0.0617279,0.00518508,-0.0175786,0.00952202,-0.0660648,-1.32891,0.0475362,0.0457448,1217,477,3.41707,12.6539
0,547,2.53601,-12.8006,0,0,0,0,0,0,0,-1,1224,477,2.53596,12.8006
7,547,1.93506,-12.9909,0,0,0,0,0,0,0,-1,1231,477,1.93508,12.991
14,547,0,0,0,0,0,0,0,0,0,-1,1238,477,0,0
21,547,0,0,0,0,0,0,0,0,0,-1,1245,477,0,0
28,547,0,0,0,0,0,0,0,0,0,-1,1252,477,0,0
35,547,0,0,0,0,0,0,0,0,0,-1,1259,477,0,0
42,547,0,0,0,0,0,0,0,0,0,-1,1266,477,0,0
49,547,0,0,0,0,0,0,0,0,0,-1,1273,477,0,0
56,547,0,0,0,0,0,0,0,0,0,-1,1280,477,0,0
63,547,0,0,0,0,0,0,0,0,0,-1,1287,477,0,0
70,547,0,0,0,0,0,0,0,0,0,-1,1294,477,0,0
77,547,0,0,0,0,0,0,0,0,0,-1,1301,477,0,0
84,547,0,0,0,0,0,0,0,0,0,-1,1308,477,0,0
91,547,0,0,0,0,0,0,0,0,0,-1,1315,477,0,0
98,547,0,0,0,0,0,0,0,0,0,-1,1322,477,0,0
105,547,1.75745,-10.1952,0,0,0,0,0,0,0,-1,1329,477,1.7575,10.1952
112,547,1.22925,-9.33511,0,0,0,0,0,0,0,-1,1336,477,1.22928,9.33511
119,547,0.762573,-8.74765,0,0,0,0,0,0,0,-1,1343,477,0.762612,8.74764
126,547,4.50757,-16.9742,0,0,0,0,0,0,0,-1,1350,477,4.50755,16.9742
133,547,4.99365,-16.0903,0,0,0,0,0,0,0,-1,1357,477,4.99367,16.0903
140,547,3.83667,-17.5775,0,0,0,0,0,0,0,-1,1364,477,3.83666,17.5775
147,547,2.53699,-17.5015,-0.15712,0.0929994,0.0220204,0.0949233,-0.159044,1.48365,0.148177,0.0477131,1371,477,2.53701,17.5015
154,547,1.3335,-17.411,-0.175781,0.0835283,0.0177674,0.08474,-0.176993,1.5027,0.154209,0.0497545,1378,477,1.33345,17.411
161,547,0.0595703,-17.2621,-0.194288,0.0721687,0.0139846,0.0729007,-0.19502,1.5185,0.159951,0.049941,1385,477,0.0596216,17.2621
168,547,-1.09973,-17.3397,0,0,0,0,0,0,0,-1,1392,477,-1.09977,17.3397
175,547,3.35034,-0.26532,0,0,0,0,0,0,0,-1,1399,477,3.3503,0.265306
182,547,4.26038,3.72672,0,0,0,0,0,0,0,-1,1406,477,4.26039,-3.7267
189,547,3.40454,1.28671,0,0,0,0,0,0,0,-1,1413,477,3.40457,-1.28673
196,547,3.53931,1.87793,0,0,0,0,0,0,0,-1,1420,477,3.53928,-1.87794
203,547,6.49414,-0.425842,0,0,0,0,0,0,0,-1,1427,477,6.4941,0.425844
210,547,4.82092,0.53595,0,0,0,0,0,0,0,-1,1434,477,4.82096,-0.535942
217,547,4.68579,0.480072,0,0,0,0,0,0,0,-1,1441,477,4.68577,-0.480069
224,547,4.55615,0.739807,0,0,0,0,0,0,0,-1,1448,477,4.55613,-0.73981
231,547,5.90869,-3.57721,0,0,0,0,0,0,0,-1,1455,477,5.90871,3.57722
238,547,5.50049,-3.15356,0,0,0,0,0,0,0,-1,1462,477,5.50045,3.15356
245,547,5.13708,-2.65213,0,0,0,0,0,0,0,-1,1469,477,5.13708,2.65212
252,547,3.73511,-0.645233,0,0,0,0,0,0,0,-1,1476,477,3.73515,0.645237
259,547,5.86816,-3.20816,0,0,0,0,0,0,0,-1,1483,477,5.86815,3.20816
266,547,5.40222,-2.45731,0,0,0,0,0,0,0,-1,1490,477,5.40221,2.45732
273,547,3.05737,0.495789,0,0,0,0,0,0,0,-1,1497,477,3.05742,-0.49578
280,547,2.0885,1.47797,0,0,0,0,0,0,0,-1,1504,477,2.08848,-1.47795
287,547,2.31177,-2.21716,0,0,0,0,0,0,0,-1,1511,477,2.31174,2.21717
294,547,2.4823,-3.03659,0,0,0,0,0,0,0,-1,1518,477,2.48229,3.0366
301,547,4.72119,-3.93454,0,0,0,0,0,0,0,-1,1525,477,4.72119,3.93453
308,547,4.07471,-5.42175,0,0,0,0,0,0,0,-1,1532,477,4.07468,5.42174
315,547,3.58496,-6.62112,0,0,0,0,0,0,0,-1,1539,477,3.58497,6.62113
322,547,4.75269,-10.9672,0,0,0,0,0,0,0,-1,1546,477,4.75267,10.9672
329,547,4.60754,-10.9568,0,0,0,0,0,0,0,-1,1553,477,4.60758,10.9568
336,547,4.76953,-10.7698,-0.00259803,-0.00210734,-0.00498168,0.00263504,-0.00734041,-0.810003,0.00596908,0.0338454,1560,477,4.76954,10.7698
343,547,4.74756,-10.6855,-0.00287543,-0.00209871,-0.00467994,0.00220896,-0.00718309,-0.826795,0.00567033,0.0268736,1567,477,4.74754,10.6855
350,547,4.74768,-10.4989,-0.00283774,-0.00200295,-0.00418159,0.00178202,-0.00662272,-0.835142,0.00511372,0.0211458,1574,477,4.74766,10.4989
357,547,4.7146,-10.2573,-0.00269822,-0.00186434,-0.0039175,0.00165834,-0.0062209,-0.838413,0.00479658,0.0151186,1581,477,4.71459,10.2573
364,547,4.70032,-9.99878,-0.00248351,-0.00161412,-0.00339771,0.00137659,-0.00547421,-0.849021,0.00418451,0.00970557,1588,477,4.70028,9.99877
371,547,4.71411,-9.78516,-0.00219341,-0.00137305,-0.00287067,0.00111659,-0.00468306,-0.856361,0.00355321,0.00855756,1595,477,4.71413,9.78517
378,547,4.72363,-9.59378,-0.00186801,-0.000924406,-0.00234234,0.000993179,-0.0037856,-0.88478,0.00291181,0.00949917,1602,477,4.72363,9.59378
385,547,4.72461,-9.37274,-0.00160133,-0.000647003,-0.00192271,0.000856867,-0.0031052,-0.907027,0.00240714,0.0102468,1609,477,4.72459,9.37276
392,547,4.71936,-9.14325,-0.00131748,-0.000419002,-0.00150044,0.000698005,-0.00243448,-0.930853,0.00189891,0.0112131,1616,477,4.71936,9.14324
399,547,4.72009,-8.90936,-0.000935457,-0.000273352,-0.00112831,0.000571467,-0.00178028,-0.928097,0.00141631,0.0124991,1623,477,4.72011,8.90937
406,547,4.74255,-8.67361,-0.000535779,-0.000174503,-0.000745373,0.000411809,-0.00112209,-0.904279,0.000916699,0.0126518,1630,477,4.74259,8.67362
413,547,4.74622,-8.44244,-0.000111307,1.62141e-05,-0.000316816,0.000275622,-0.000370715,-0.884699,0.000374507,0.0122475,1637,477,4.74622,8.44243
420,547,4.74695,-8.21964,0.000341042,5.80394e-05,-2.08411e-05,0.000342569,5.65129e-05,-0.073117,0.000212067,0.0139063,1644,477,4.747,8.21962
427,547,4.73816,-7.98398,0.00082759,-0.000156408,0.000204617,0.000868443,-0.000197261,0.197064,0.000654698,0.0136787,1651,477,4.73814,7.98398
434,547,4.71594,-7.73834,0.00128667,-0.000457154,0.000439225,0.00139105,-0.000561535,0.233321,0.00116074,0.0092642,1658,477,4.71594,7.73835
441,547,4.70068,-7.50266,0.00173524,-0.000912084,0.000617576,0.00187222,-0.00104907,0.218273,0.00170878,0.00963498,1665,477,4.70073,7.50265
448,547,4.70361,-7.26328,0.00217951,-0.00141932,0.000735325,0.00232396,-0.00156377,0.193969,0.00225884,0.0104457,1672,477,4.70367,7.26328
455,547,4.70959,-7.02365,0.00260184,-0.00205179,0.000771865,0.00272653,-0.00217648,0.160151,0.00283668,0.0106454,1679,477,4.70954,7.02366
462,547,4.68652,-6.7547,0.00307181,-0.00269182,0.000833195,0.00318984,-0.00280985,0.140723,0.00346624,0.0110037,1686,477,4.68648,6.7547
469,547,4.68018,-6.46722,0.0035063,-0.00341665,0.000769201,0.00359074,-0.00350108,0.109332,0.00409457,0.0191594,1693,477,4.68018,6.46723
476,547,4.75281,-6.14963,0.00386581,-0.00416401,0.000655183,0.00391891,-0.00421712,0.0808809,0.00469839,0.0435046,1700,477,4.75276,6.14963
483,547,4.70996,-6.21628,0,0,0,0,0,0,0,-1,1707,477,4.70996,6.21628
490,547,3.65271,-3.71707,0,0,0,0,0,0,0,-1,1714,477,3.65277,3.71708
497,547,2.55481,-3.81421,0,0,0,0,0,0,0,-1,1721,477,2.55476,3.8142
504,547,4.01953,-2.22714,0,0,0,0,0,0,0,-1,1728,477,4.0195,2.22713
511,547,4.82495,-1.45642,0,0,0,0,0,0,0,-1,1735,477,4.82495,1.45641
518,547,4.69446,-3.75436,0,0,0,0,0,0,0,-1,1742,477,4.69445,3.75438
525,547,0.781616,-3.76355,0,0,0,0,0,0,0,-1,1749,477,0.781645,3.76354
532,547,0,0,0,0,0,0,0,0,0,-1,1756,477,0,0
539,547,0,0,0,0,0,0,0,0,0,-1,1763,477,0,0
546,547,0,0,0,0,0,0,0,0,0,-1,1770,477,0,0
553,547,0,0,0,0,0,0,0,0,0,-1,1777,477,0,0
560,547,0,0,0,0,0,0,0,0,0,-1,1784,477,0,0
567,547,0,0,0,0,0,0,0,0,0,-1,1791,477,0,0
574,547,0,0,0,0,0,0,0,0,0,-1,1798,477,0,0
581,547,0,0,0,0,0,0,0,0,0,-1,1805,477,0,0
588,547,0,0,0,0,0,0,0,0,0,-1,1812,477,0,0
595,547,0,0,0,0,0,0,0,0,0,-1,1819,477,0,0
602,547,0,0,0,0,0,0,0,0,0,-1,1826,477,0,0
609,547,0,0,0,0,0,0,0,0,0,-1,1833,477,0,0
616,547,0,0,0,0,0,0,0,0,0,-1,1840,477,0,0
623,547,0,0,0,0,0,0,0,0,0,-1,1847,477,0,0
630,547,0,0,0,0,0,0,0,0,0,-1,1854,477,0,0
637,547,0,0,0,0,0,0,0,0,0,-1,1861,477,0,0
644,547,0,0,0,0,0,0,0,0,0,-1,1868,477,0,0
651,547,0,0,0,0,0,0,0,0,0,-1,1875,477,0,0
658,547,0,0,0,0,0,0,0,0,0,-1,1882,477,0,0
665,547,0,0,0,0,0,0,0,0,0,-1,1889,477,0,0
672,547,0,0,0,0,0,0,0,0,0,-1,1896,477,0,0
679,547,0,0,0,0,0,0,0,0,0,-1,1903,477,0,0
686,547,0,0,0,0,0,0,0,0,0,-1,1910,477,0,0
693,547,0,0,0,0,0,0,0,0,0,-1,1917,477,0,0
700,547,0,0,0,0,0,0,0,0,0,-1,1924,477,0,0
707,547,0,0,0,0,0,0,0,0,0,-1,1931,477,0,0
714,547,0,0,0,0,0,0,0,0,0,-1,1938,477,0,0
721,547,0,0,0,0,0,0,0,0,0,-1,1945,477,0,0
728,547,0,0,0,0,0,0,0,0,0,-1,1952,477,0,0
735,547,0,0,0,0,0,0,0,0,0,-1,1959,477,0,0
742,547,0,0,0,0,0,0,0,0,0,-1,1966,477,0,0
749,547,0,0,0,0,0,0,0,0,0,-1,1973,477,0,0
756,547,0,0,0,0,0,0,0,0,0,-1,1980,477,0,0
763,547,0,0,0,0,0,0,0,0,0,-1,1987,477,0,0
770,547,0,0,0,0,0,0,0,0,0,-1,1994,477,0,0
777,547,0,0,0,0,0,0,0,0,0,-1,2001,477,0,0
784,547,0,0,0,0,0,0,0,0,0,-1,2008,477,0,0
791,547,0,0,0,0,0,0,0,0,0,-1,2015,477,0,0
798,547,0,0,0,0,0,0,0,0,0,-1,2022,477,0,0
805,547,0,0,0,0,0,0,0,0,0,-1,2029,477,0,0
812,547,0,0,0,0,0,0,0,0,0,-1,2036,477,0,0
-700,540,0,0,0,0,0,0,0,0,0,-1,524,484,0,0
-693,540,0,0,0,0,0,0,0,0,0,-1,531,484,0,0
-686,540,0,0,0,0,0,0,0,0,0,-1,538,484,0,0
-679,540,0,0,0,0,0,0,0,0,0,-1,545,484,0,0
-672,540,0,0,0,0,0,0,0,0,0,-1,552,484,0,0
-665,540,0,0,0,0,0,0,0,0,0,-1,559,484,0,0
-658,540,0,0,0,0,0,0,0,0,0,-1,566,484,0,0
-651,540,0,0,0,0,0,0,0,0,0,-1,573,484,0,0
-644,540,0,0,0,0,0,0,0,0,0,-1,580,484,0,0
-637,540,0,0,0,0,0,0,0,0,0,-1,587,484,0,0
-630,540,0,0,0,0,0,0,0,0,0,-1,594,484,0,0
-623,540,0,0,0,0,0,0,0,0,0,-1,601,484,0,0
-616,540,0,0,0,0,0,0,0,0,0,-1,608,484,0,0
-609,540,0,0,0,0,0,0,0,0,0,-1,615,484,0,0
-602,540,0,0,0,0,0,0,0,0,0,-1,622,484,0,0
-595,540,0,0,0,0,0,0,0,0,0,-1,629,484,0,0
-588,540,0,0,0,0,0,0,0,0,0,-1,636,484,0,0
-581,540,0,0,0,0,0,0,0,0,0,-1,643,484,0,0
-574,540,0,0,0,0,0,0,0,0,0,-1,650,484,0,0
-567,540,0,0,0,0,0,0,0,0,0,-1,657,484,0,0
-560,540,0,0,0,0,0,0,0,0,0,-1,664,484,0,0
-553,540,0,0,0,0,0,0,0,0,0,-1,671,484,0,0
-546,540,0,0,0,0,0,0,0,0,0,-1,678,484,0,0
-539,540,0,0,0,0,0,0,0,0,0,-1,685,484,0,0
-532,540,0,0,0,0,0,0,0,0,0,-1,692,484,0,0
-525,540,0,0,0,0,0,0,0,0,0,-1,699,484,0,0
-518,540,0,0,0,0,0,0,0,0,0,-1,706,484,0,0
-511,540,0,0,0,0,0,0,0,0,0,-1,713,484,0,0
-504,540,0,0,0,0,0,0,0,0,0,-1,720,484,0,0
-497,540,0,0,0,0,0,0,0,0,0,-1,727,484,0,0
-490,540,0,0,0,0,0,0,0,0,0,-1,734,484,0,0
-483,540,0,0,0,0,0,0,0,0,0,-1,741,484,0,0
-476,540,0,0,0,0,0,0,0,0,0,-1,748,484,0,0
-469,540,0,0,0,0,0,0,0,0,0,-1,755,484,0,0
-462,540,0,0,0,0,0,0,0,0,0,-1,762,484,0,0
-455,540,0,0,0,0,0,0,0,0,0,-1,769,484,0,0
-448,540,0,0,0,0,0,0,0,0,0,-1,776,484,0,0
-441,540,0,0,0,0,0,0,0,0,0,-1,783,484,0,0
-434,540,0,0,0,0,0,0,0,0,0,-1,790,484,0,0
-427,540,0,0,0,0,0,0,0,0,0,-1,797,484,0,0
-420,540,3.00336,-6.4053,0,0,0,0,0,0,0,-1,804,484,3.00337,6.4053
-413,540,2.96899,-5.74765,0,0,0,0,0,0,0,-1,811,484,2.96899,5.74765
-406,540,2.73175,-4.89182,0,0,0,0,0,0,0,-1,818,484,2.73173,4.89182
-399,540,2.52014,-4.3764,0,0,0,0,0,0,0,-1,825,484,2.52016,4.37642
-392,540,2.46759,-4.13956,0,0,0,0,0,0,0,-1,832,484,2.46759,4.13956
-385,540,1.2442,-4.01782,0,0,0,0,0,0,0,-1,839,484,1.24422,4.01782
-378,540,-3.828,-3.2016,0,0,0,0,0,0,0,-1,846,484,-3.82798,3.20159
-371,540,-0.0177002,-4.21246,0,0,0,0,0,0,0,-1,853,484,-0.0176722,4.21247
-364,540,0.684143,-7.13104,0,0,0,0,0,0,0,-1,860,484,0.684117,7.13104
-357,540,0.68866,-7.40112,0,0,0,0,0,0,0,-1,867,484,0.688672,7.40112
-350,540,0.675293,-7.64246,-0.00140746,0.00236041,-0.00338554,0.00435089,-0.00339794,-1.03929,0.00448505,0.0316328,874,484,0.675277,7.64246
-343,540,0.640015,-7.83231,-0.000895735,0.00229047,-0.00340062,0.00445265,-0.00305792,-1.00445,0.00436108,0.014103,881,484,0.640043,7.8323
-336,540,0.617859,-8.11188,-0.000362107,0.00246957,-0.00350273,0.00483179,-0.00272433,-0.977463,0.00441872,0.0116734,888,484,0.617875,8.11186
-329,540,0.615662,-8.32071,8.81777e-05,0.00245454,-0.00343357,0.00490306,-0.00236035,-0.951323,0.00427833,0.0094779,895,484,0.615647,8.32072
-322,540,0.604614,-8.53931,0.000521413,0.00252854,-0.00334886,0.00502097,-0.00197102,-0.930976,0.00416288,0.0131818,902,484,0.604597,8.53932
-315,540,0.592407,-8.77487,0.0008283,0.00255608,-0.00311628,0.00492599,-0.00154161,-0.920612,0.00390077,0.0124455,909,484,0.592395,8.77486
-308,540,0.604004,-8.9856,0.00107778,0.00237519,-0.00276949,0.00457093,-0.00111796,-0.900441,0.00348032,0.0120916,916,484,0.604008,8.9856
-301,540,0.599976,-9.19391,0.00127738,0.00203273,-0.00230638,0.00399216,-0.000682043,-0.866554,0.0029155,0.0117108,923,484,0.599964,9.19392
-294,540,0.606506,-9.41931,0.00142406,0.00155457,-0.00177018,0.0032607,-0.000282066,-0.803822,0.00227366,0.0105502,930,484,0.606508,9.41932
-287,540,0.612671,-9.64154,0.00156373,0.00096569,-0.00126733,0.00256683,-3.74153e-05,-0.669545,0.00172383,0.00763695,937,484,0.612685,9.64153
-280,540,0.606323,-9.85092,0.00160972,0.00034853,-0.000814726,0.00200938,-5.11325e-05,-0.456057,0.00135695,0.00980364,944,484,0.606325,9.85093
-273,540,0.607178,-10.0744,0.00168835,-0.000235715,-0.000446529,0.00178693,-0.000334293,-0.21728,0.00131693,0.012734,951,484,0.60716,10.0744
-266,540,0.601379,-10.2935,0.00197192,-0.000801398,-0.000198048,0.00198599,-0.000815469,-0.0709324,0.00166382,0.0131572,958,484,0.601387,10.2936
-259,540,0.595764,-10.4868,0.00213013,-0.00136286,2.42031e-05,0.00213029,-0.00136303,0.0069286,0.00203302,0.0113278,965,484,0.595751,10.4867
-252,540,0.619629,-10.6554,0.00136679,-0.00202293,0.000206473,0.00137932,-0.00203546,0.0606129,0.00198362,0.0114135,972,484,0.619644,10.6554
-245,540,0.654968,-10.8376,0.000114585,-0.00258909,0.000834904,0.000351624,-0.00282613,0.276632,0.00201156,0.0122845,979,484,0.654942,10.8376
-238,540,0.649719,-11.0178,-0.0010053,-0.00368333,0.0018328,-7.44944e-05,-0.00461414,0.469919,0.00305157,0.0088922,986,484,0.649744,11.0178
-231,540,0.633118,-11.1972,-0.00274484,-0.00463178,0.00276448,-0.000767265,-0.00660935,0.620954,0.00417405,0.0104607,993,484,0.63314,11.1972
-224,540,0.635986,-11.3706,-0.00530818,-0.00573091,0.00431273,-0.00120164,-0.00983745,0.760913,0.00619671,0.0152363,1000,484,0.635974,11.3706
-217,540,0.651855,-11.5686,-0.00804175,-0.00688257,0.00599269,-0.00144151,-0.0134828,0.833606,0.00854865,0.0255022,1007,484,0.651878,11.5686
-210,540,0.705383,-11.6255,-0.0112759,-0.00865312,0.00747874,-0.00237167,-0.0175574,0.872191,0.0109999,0.0424981,1014,484,0.705385,11.6255
-203,540,0.529053,-11.599,-0.0151918,-0.0108678,0.0090498,-0.00372528,-0.0223342,0.902651,0.0138162,0.0452247,1021,484,0.529055,11.599
-196,540,0.186279,-11.7287,-0.0193493,-0.0126214,0.0110778,-0.00440809,-0.0275627,0.932807,0.0170962,0.046506,1028,484,0.186246,11.7287
-189,540,0.161743,-11.5169,-0.0232062,-0.0140769,0.0131842,-0.00468953,-0.0325935,0.952052,0.0203468,0.0448841,1035,484,0.161735,11.5169
-182,540,0.282471,-11.3491,0,0,0,0,0,0,0,-1,1042,484,0.282495,11.3491
-175,540,1.73413,-10.728,0,0,0,0,0,0,0,-1,1049,484,1.73414,10.728
-168,540,1.18164,-7.65347,0,0,0,0,0,0,0,-1,1056,484,1.18163,7.65347
-161,540,-1.31653,-9.93869,0,0,0,0,0,0,0,-1,1063,484,-1.31651,9.93868
-154,540,1.10254,-12.3209,0,0,0,0,0,0,0,-1,1070,484,1.10258,12.3209
-147,540,0.852905,-10.892,0,0,0,0,0,0,0,-1,1077,484,0.852844,10.892
-140,540,-0.586792,-14.5267,0,0,0,0,0,0,0,-1,1084,484,-0.586826,14.5267
-133,540,0.733276,-8.80582,0,0,0,0,0,0,0,-1,1091,484,0.733219,8.80582
-126,540,1.06201,-9.57385,0,0,0,0,0,0,0,-1,1098,484,1.06204,9.57385
-119,540,6.18579,-10.4846,0,0,0,0,0,0,0,-1,1105,484,6.18582,10.4846
-112,540,5.8468,-9.65106,0,0,0,0,0,0,0,-1,1112,484,5.84681,9.65106
-105,540,5.50781,-8.81754,0,0,0,0,0,0,0,-1,1119,484,5.5078,8.81753
-98,540,0.73877,-3.08093,0,0,0,0,0,0,0,-1,1126,484,0.738754,3.08092
-91,540,1.56519,-7.48666,0,0,0,0,0,0,0,-1,1133,484,1.56514,7.48667
-84,540,-0.945923,4.43073,0,0,0,0,0,0,0,-1,1140,484,-0.945891,-4.43074
-77,540,-2.28894,2.14368,0,0,0,0,0,0,0,-1,1147,484,-2.28894,-2.14368
-70,540,-3.75244,-0.452576,0,0,0,0,0,0,0,-1,1154,484,-3.75244,0.452576
-63,540,-5.26257,-3.04767,0,0,0,0,0,0,0,-1,1161,484,-5.26262,3.04766
-56,540,-5.19055,-6.12595,0,0,0,0,0,0,0,-1,1168,484,-5.19057,6.12595
-49,540,-5.63867,-8.52298,0,0,0,0,0,0,0,-1,1175,484,-5.63871,8.52298
-42,540,0,0,0,0,0,0,0,0,0,-1,1182,484,0,0
-35,540,0,0,0,0,0,0,0,0,0,-1,1189,484,0,0
-28,540,0,0,0,0,0,0,0,0,0,-1,1196,484,0,0
-21,540,0,0,0,0,0,0,0,0,0,-1,1203,484,0,0
-14,540,0,0,0,0,0,0,0,0,0,-1,1210,484,0,0
-7,540,0,0,0,0,0,0,0,0,0,-1,1217,484,0,0
0,540,0,0,0,0,0,0,0,0,0,-1,1224,484,0,0
7,540,0,0,0,0,0,0,0,0,0,-1,1231,484,0,0
14,540,0,0,0,0,0,0,0,0,0,-1,1238,484,0,0
21,540,0,0,0,0,0,0,0,0,0,-1,1245,484,0,0
28,540,0,0,0,0,0,0,0,0,0,-1,1252,484,0,0
35,540,0,0,0,0,0,0,0,0,0,-1,1259,484,0,0
42,540,0,0,0,0,0,0,0,0,0,-1,1266,484,0,0
49,540,0,0,0,0,0,0,0,0,0,-1,1273,484,0,0
56,540,0,0,0,0,0,0,0,0,0,-1,1280,484,0,0
63,540,0,0,0,0,0,0,0,0,0,-1,1287,484,0,0
70,540,0,0,0,0,0,0,0,0,0,-1,1294,484,0,0
77,540,0,0,0,0,0,0,0,0,0,-1,1301,484,0,0
84,540,0,0,0,0,0,0,0,0,0,-1,1308,484,0,0
91,540,0,0,0,0,0,0,0,0,0,-1,1315,484,0,0
98,540,0,0,0,0,0,0,0,0,0,-1,1322,484,0,0
105,540,0,0,0,0,0,0,0,0,0,-1,1329,484,0,0
112,540,0,0,0,0,0,0,0,0,0,-1,1336,484,0,0
119,540,0,0,0,0,0,0,0,0,0,-1,1343,484,0,0
126,540,0,0,0,0,0,0,0,0,0,-1,1350,484,0,0
133,540,0,0,0,0,0,0,0,0,0,-1,1357,484,0,0
140,540,0,0,0,0,0,0,0,0,0,-1,1364,484,0,0
147,540,0,0,0,0,0,0,0,0,0,-1,1371,484,0,0
154,540,0,0,0,0,0,0,0,0,0,-1,1378,484,0,0
161,540,0,0,0,0,0,0,0,0,0,-1,1385,484,0,0
168,540,3.05078,-0.0010376,0,0,0,0,0,0,0,-1,1392,484,3.05084,0.00102554
175,540,3.37708,0.617035,0,0,0,0,0,0,0,-1,1399,484,3.37707,-0.617046
182,540,3.32678,1.23267,0,0,0,0,0,0,0,-1,1406,484,3.32678,-1.23266
189,540,3.5813,2.15619,0,0,0,0,0,0,0,-1,1413,484,3.58129,-2.1562
196,540,1.84448,-0.801483,0,0,0,0,0,0,0,-1,1420,484,1.84446,0.80148
203,540,4.14648,0.702087,0,0,0,0,0,0,0,-1,1427,484,4.14645,-0.702089
210,540,4.50671,-0.56076,0,0,0,0,0,0,0,-1,1434,484,4.50667,0.560771
217,540,5.00452,-0.278717,0,0,0,0,0,0,0,-1,1441,484,5.00452,0.278709
224,540,6.44458,-2.83527,0,0,0,0,0,0,0,-1,1448,484,6.44457,2.83525
231,540,6.9231,-3.10504,0,0,0,0,0,0,0,-1,1455,484,6.92307,3.10505
238,540,6.4823,-2.58365,0,0,0,0,0,0,0,-1,1462,484,6.48225,2.58363
245,540,6.02087,-1.97916,0,0,0,0,0,0,0,-1,1469,484,6.02088,1.97915
252,540,6.50647,-3.56006,0,0,0,0,0,0,0,-1,1476,484,6.50649,3.56006
259,540,6.01941,-2.798,0,0,0,0,0,0,0,-1,1483,484,6.01941,2.79801
266,540,5.5332,-2.02853,0,0,0,0,0,0,0,-1,1490,484,5.53323,2.02855
273,540,5.06787,-1.28137,0,0,0,0,0,0,0,-1,1497,484,5.06786,1.28136
280,540,1.62903,-2.14609,0,0,0,0,0,0,0,-1,1504,484,1.62906,2.1461
287,540,1.97156,-2.45053,0,0,0,0,0,0,0,-1,1511,484,1.97159,2.45053
294,540,2.44165,-2.6185,0,0,0,0,0,0,0,-1,1518,484,2.44167,2.6185
301,540,4.36169,-2.54272,0,0,0,0,0,0,0,-1,1525,484,4.36165,2.54272
308,540,4.2019,-4.30469,0,0,0,0,0,0,0,-1,1532,484,4.20193,4.3047
315,540,4.45923,-5.32101,0,0,0,0,0,0,0,-1,1539,484,4.45923,5.32103
322,540,4.71655,-6.33737,0,0,0,0,0,0,0,-1,1546,484,4.71653,6.33736
329,540,4.40649,-9.53268,0,0,0,0,0,0,0,-1,1553,484,4.40647,9.53269
336,540,5.11792,-10.853,0,0,0,0,0,0,0,-1,1560,484,5.11794,10.853
343,540,5.05286,-10.8163,0,0,0,0,0,0,0,-1,1567,484,5.05281,10.8163
350,540,4.98315,-10.6313,0,0,0,0,0,0,0,-1,1574,484,4.98311,10.6312
357,540,5.10193,-10.0985,-0.00412099,-0.00288525,-0.00547946,0.00201107,-0.00901731,-0.841542,0.00678202,0.0432518,1581,484,5.10195,10.0985
364,540,4.92493,-9.91803,-0.00377686,-0.00260035,-0.00484151,0.00168851,-0.00806572,-0.845853,0.00601945,0.0242894,1588,484,4.92489,9.91802
371,540,4.89856,-9.78152,-0.00332462,-0.00228933,-0.00420937,0.0014341,-0.00704805,-0.846578,0.00524253,0.0157168,1595,484,4.89856,9.78152
378,540,4.94238,-9.58453,-0.00284152,-0.00173691,-0.00357605,0.00132924,-0.00590767,-0.862015,0.00444823,0.0119737,1602,484,4.94233,9.58453
385,540,4.94214,-9.37036,-0.00252613,-0.00138678,-0.00306998,0.00116593,-0.00507884,-0.877136,0.00383409,0.0135352,1609,484,4.9422,9.37036
392,540,4.92786,-9.14703,-0.00225333,-0.0010442,-0.00255023,0.000972145,-0.00426967,-0.901781,0.00321979,0.0118637,1616,484,4.92791,9.14702
399,540,4.93335,-8.92294,-0.00187346,-0.000803274,-0.00210742,0.000835928,-0.00351266,-0.909725,0.00266449,0.0152341,1623,484,4.93333,8.92294
406,540,4.95874,-8.69034,-0.00142905,-0.000584539,-0.00166338,0.000709339,-0.00272293,-0.9097,0.00209221,0.0174635,1630,484,4.9587,8.69035
413,540,4.9834,-8.45245,-0.00093755,-0.000275104,-0.00116172,0.000601689,-0.00181434,-0.924271,0.00145228,0.013653,1637,484,4.9834,8.45245
420,540,4.97913,-8.20761,-0.000447541,-0.000133754,-0.000743466,0.000469193,-0.00105049,-0.889387,0.000898529,0.0117443,1644,484,4.97914,8.20762
427,540,4.95776,-7.9671,9.74457e-06,-0.000187929,-0.000406336,0.000329092,-0.000507276,-0.666095,0.000486516,0.0120844,1651,484,4.95776,7.9671
434,540,4.94958,-7.72037,0.000447841,-0.000357478,-7.3298e-05,0.000454458,-0.000364095,-0.0900315,0.000473551,0.0145018,1658,484,4.94954,7.72036
441,540,4.97803,-7.46887,0.00088594,-0.000682588,0.000212736,0.000914281,-0.000710929,0.132441,0.000940761,0.0173481,1665,484,4.97798,7.46889
448,540,4.96387,-7.26141,0.00134191,-0.00101536,0.000464761,0.00143023,-0.00110369,0.1878,0.001467,0.010642,1672,484,4.96387,7.26141
455,540,4.94812,-7.0213,0.00175422,-0.00147461,0.000606026,0.00186422,-0.00158461,0.179554,0.00199336,0.00967365,1679,484,4.94817,7.02131
462,540,4.92456,-6.74896,0.002217,-0.001932,0.000804567,0.00236756,-0.00208256,0.184988,0.00257103,0.0101349,1686,484,4.92452,6.74898
469,540,4.91272,-6.49042,0.00262067,-0.00247025,0.000843573,0.00275681,-0.00260639,0.160006,0.00309685,0.0132499,1693,484,4.91266,6.49043
476,540,4.88818,-6.31201,0.00290208,-0.00301792,0.000839918,0.00301894,-0.00313478,0.138244,0.00355306,0.0207451,1700,484,4.88823,6.31202
483,540,4.95251,-6.11404,0.00300713,-0.00343414,0.000748236,0.00309291,-0.00351992,0.114138,0.00382057,0.0386306,1707,484,4.95252,6.11404
490,540,5.16602,-5.81012,0,0,0,0,0,0,0,-1,1714,484,5.16597,5.81012
497,540,4.27393,-2.67752,0,0,0,0,0,0,0,-1,1721,484,4.27395,2.67751
504,540,5.52747,-4.4433,0,0,0,0,0,0,0,-1,1728,484,5.5275,4.44329
511,540,5.62183,-4.42303,0,0,0,0,0,0,0,-1,1735,484,5.62177,4.42303
518,540,4.854,-3.87787,0,0,0,0,0,0,0,-1,1742,484,4.85401,3.87788
525,540,6.24841,-3.39841,0,0,0,0,0,0,0,-1,1749,484,6.24847,3.39839
532,540,2.84265,-1.07925,0,0,0,0,0,0,0,-1,1756,484,2.84269,1.07927
539,540,0,0,0,0,0,0,0,0,0,-1,1763,484,0,0
546,540,0,0,0,0,0,0,0,0,0,-1,1770,484,0,0
553,540,0,0,0,0,0,0,0,0,0,-1,1777,484,0,0
560,540,0,0,0,0,0,0,0,0,0,-1,1784,484,0,0
567,540,0,0,0,0,0,0,0,0,0,-1,1791,484,0,0
574,540,0,0,0,0,0,0,0,0,0,-1,1798,484,0,0
581,540,0,0,0,0,0,0,0,0,0,-1,1805,484,0,0
588,540,0,0,0,0,0,0,0,0,0,-1,1812,484,0,0
595,540,0,0,0,0,0,0,0,0,0,-1,1819,484,0,0
602,540,0,0,0,0,0,0,0,0,0,-1,1826,484,0,0
609,540,0,0,0,0,0,0,0,0,0,-1,1833,484,0,0
616,540,0,0,0,0,0,0,0,0,0,-1,1840,484,0,0
623,540,0,0,0,0,0,0,0,0,0,-1,1847,484,0,0
630,540,0,0,0,0,0,0,0,0,0,-1,1854,484,0,0
637,540,0,0,0,0,0,0,0,0,0,-1,1861,484,0,0
644,540,0,0,0,0,0,0,0,0,0,-1,1868,484,0,0
651,540,0,0,0,0,0,0,0,0,0,-1,1875,484,0,0
658,540,0,0,0,0,0,0,0,0,0,-1,1882,484,0,0
665,540,0,0,0,0,0,0,0,0,0,-1,1889,484,0,0
672,540,0,0,0,0,0,0,0,0,0,-1,1896,484,0,0
679,540,0,0,0,0,0,0,0,0,0,-1,1903,484,0,0
686,540,0,0,0,0,0,0,0,0,0,-1,1910,484,0,0
693,540,0,0,0,0,0,0,0,0,0,-1,1917,484,0,0
700,540,0,0,0,0,0,0,0,0,0,-1,1924,484,0,0
707,540,0,0,0,0,0,0,0,0,0,-1,1931,484,0,0
714,540,0,0,0,0,0,0,0,0,0,-1,1938,484,0,0
721,540,0,0,0,0,0,0,0,0,0,-1,1945,484,0,0
728,540,0,0,0,0,0,0,0,0,0,-1,1952,484,0,0
735,540,0,0,0,0,0,0,0,0,0,-1,1959,484,0,0
742,540,0,0,0,0,0,0,0,0,0,-1,1966,484,0,0
749,540,0,0,0,0,0,0,0,0,0,-1,1973,484,0,0
756,540,0,0,0,0,0,0,0,0,0,-1,1980,484,0,0
763,540,0,0,0,0,0,0,0,0,0,-1,1987,484,0,0
770,540,0,0,0,0,0,0,0,0,0,-1,1994,484,0,0
777,540,0,0,0,0,0,0,0,0,0,-1,2001,484,0,0
784,540,0,0,0,0,0,0,0,0,0,-1,2008,484,0,0
791,540,0,0,0,0,0,0,0,0,0,-1,2015,484,0,0
798,540,0,0,0,0,0,0,0,0,0,-1,2022,484,0,0
805,540,0,0,0,0,0,0,0,0,0,-1,2029,484,0,0
812,540,0,0,0,0,0,0,0,0,0,-1,2036,484,0,0
-700,533,0,0,0,0,0,0,0,0,0,-1,524,491,0,0
-693,533,0,0,0,0,0,0,0,0,0,-1,531,491,0,0
-686,533,0,0,0,0,0,0,0,0,0,-1,538,491,0,0
-679,533,0,0,0,0,0,0,0,0,0,-1,545,491,0,0
-672,533,0,0,0,0,0,0,0,0,0,-1,552,491,0,0
-665,533,0,0,0,0,0,0,0,0,0,-1,559,491,0,0
-658,533,0,0,0,0,0,0,0,0,0,-1,566,491,0,0
-651,533,0,0,0,0,0,0,0,0,0,-1,573,491,0,0
-644,533,0,0,0,0,0,0,0,0,0,-1,580,491,0,0
-637,533,0,0,0,0,0,0,0,0,0,-1,587,491,0,0
-630,533,0,0,0,0,0,0,0,0,0,-1,594,491,0,0
-623,533,0,0,0,0,0,0,0,0,0,-1,601,491,0,0
-616,533,0,0,0,0,0,0,0,0,0,-1,608,491,0,0
-609,533,0,0,0,0,0,0,0,0,0,-1,615,491,0,0
-602,533,0,0,0,0,0,0,0,0,0,-1,622,491,0,0
-595,533,0,0,0,0,0,0,0,0,0,-1,629,491,0,0
-588,533,0,0,0,0,0,0,0,0,0,-1,636,491,0,0
-581,533,0,0,0,0,0,0,0,0,0,-1,643,491,0,0
-574,533,0,0,0,0,0,0,0,0,0,-1,650,491,0,0
-567,533,0,0,0,0,0,0,0,0,0,-1,657,491,0,0
-560,533,0,0,0,0,0,0,0,0,0,-1,664,491,0,0
-553,533,0,0,0,0,0,0,0,0,0,-1,671,491,0,0
-546,533,0,0,0,0,0,0,0,0,0,-1,678,491,0,0
-539,533,0,0,0,0,0,0,0,0,0,-1,685,491,0,0
-532,533,0,0,0,0,0,0,0,0,0,-1,692,491,0,0
-525,533,0,0,0,0,0,0,0,0,0,-1,699,491,0,0
-518,533,0,0,0,0,0,0,0,0,0,-1,706,491,0,0
-511,533,0,0,0,0,0,0,0,0,0,-1,713,491,0,0
-504,533,0,0,0,0,0,0,0,0,0,-1,720,491,0,0
-497,533,0,0,0,0,0,0,0,0,0,-1,727,491,0,0
-490,533,0,0,0,0,0,0,0,0,0,-1,734,491,0,0
-483,533,0,0,0,0,0,0,0,0,0,-1,741,491,0,0
-476,533,0,0,0,0,0,0,0,0,0,-1,748,491,0,0
-469,533,0,0,0,0,0,0,0,0,0,-1,755,491,0,0
-462,533,0,0,0,0,0,0,0,0,0,-1,762,491,0,0
-455,533,0,0,0,0,0,0,0,0,0,-1,769,491,0,0
-448,533,0,0,0,0,0,0,0,0,0,-1,776,491,0,0
-441,533,0,0,0,0,0,0,0,0,0,-1,783,491,0,0
-434,533,0,0,0,0,0,0,0,0,0,-1,790,491,0,0
-427,533,-1.82031,-0.947235,0,0,0,0,0,0,0,-1,797,491,-1.82033,0.947223
-420,533,1.92426,-6.25375,0,0,0,0,0,0,0,-1,804,491,1.92426,6.25375
-413,533,1.8158,-5.65421,0,0,0,0,0,0,0,-1,811,491,1.81577,5.6542
-406,533,1.70117,-5.04184,0,0,0,0,0,0,0,-1,818,491,1.70114,5.04183
-399,533,1.59943,-4.46564,0,0,0,0,0,0,0,-1,825,491,1.59945,4.46563
-392,533,1.62189,-3.91766,0,0,0,0,0,0,0,-1,832,491,1.62189,3.91766
-385,533,0.191895,-4.85858,0,0,0,0,0,0,0,-1,839,491,0.191883,4.85857
-378,533,-0.761414,-5.15549,0,0,0,0,0,0,0,-1,846,491,-0.761387,5.15549
-371,533,0.427429,-6.87402,0,0,0,0,0,0,0,-1,853,491,0.427399,6.87403
-364,533,0.49823,-7.15955,-0.0013992,0.00267246,-0.00256589,0.00391205,-0.00263879,-1.12076,0.00380587,0.0415232,860,491,0.49826,7.15955
-357,533,0.511414,-7.3942,-0.00140675,0.0020062,-0.00235992,0.00321198,-0.00261254,-1.09843,0.00336872,0.027531,867,491,0.511387,7.39419
-350,533,0.448792,-7.59705,-0.001156,0.00146776,-0.00224733,0.00275809,-0.00244633,-1.04959,0.00300657,0.0113472,874,491,0.448804,7.59704
-343,533,0.447754,-7.86017,-0.000799455,0.0012944,-0.00219723,0.00268138,-0.00218643,-1.00772,0.00281527,0.0103661,881,491,0.447773,7.86016
-336,533,0.405945,-8.11902,-0.00041049,0.00138708,-0.00225906,0.00291959,-0.001943,-0.974727,0.00282623,0.0148888,888,491,0.405944,8.11903
-329,533,0.402832,-8.32532,-6.24402e-05,0.00135423,-0.0022078,0.00296454,-0.00167275,-0.940628,0.00271175,0.0137946,895,491,0.402807,8.32532
-322,533,0.38031,-8.53619,0.000291332,0.00146402,-0.00217122,0.00312667,-0.00137132,-0.917279,0.00266202,0.0115313,902,491,0.380313,8.53619
-315,533,0.378723,-8.7681,0.000572023,0.0015697,-0.00201696,0.00314859,-0.00100687,-0.906627,0.00250312,0.0127919,909,491,0.378736,8.76808
-308,533,0.383057,-8.98184,0.00084671,0.00147836,-0.00176596,0.00295651,-0.00063144,-0.873883,0.00221174,0.0120515,916,491,0.383077,8.98184
-301,533,0.371765,-9.20471,0.00110466,0.0012353,-0.00141056,0.00258206,-0.000242094,-0.808535,0.00180748,0.012515,923,491,0.37175,9.2047
-294,533,0.390503,-9.42181,0.00133656,0.000838791,-0.000979439,0.00209824,7.71075e-05,-0.660978,0.00137385,0.0111548,930,491,0.390509,9.42183
-287,533,0.40155,-9.64087,0.00154018,0.000302006,-0.000555021,0.00175255,8.96387e-05,-0.365443,0.00113966,0.00877051,937,491,0.401571,9.64086
-280,533,0.404236,-9.86453,0.0016869,-0.000313115,-0.00022656,0.00171224,-0.000338458,-0.111399,0.00126945,0.00883703,944,491,0.404215,9.86455
-273,533,0.400818,-10.0786,0.00191177,-0.000858961,4.8003e-05,0.00191261,-0.000859792,0.0173181,0.00163866,0.0120681,951,491,0.400798,10.0786
-266,533,0.399902,-10.2823,0.00238757,-0.00144989,0.000225092,0.00240073,-0.00146305,0.0583897,0.00225254,0.0110642,958,491,0.399892,10.2824
-259,533,0.409485,-10.4758,0.00273731,-0.00196402,0.000291119,0.00275526,-0.00198197,0.0616092,0.00274717,0.0113442,965,491,0.409494,10.4758
-252,533,0.433472,-10.6395,0.00179108,-0.00271006,0.000365905,0.00182063,-0.00273961,0.0805866,0.00265062,0.0135265,972,491,0.433499,10.6395
-245,533,0.510803,-10.7965,0.000138963,-0.00336343,0.00105391,0.000431641,-0.00365611,0.27088,0.00259329,0.0189779,979,491,0.51079,10.7965
-238,533,0.503113,-10.9075,-0.0013945,-0.00462086,0.00219785,-0.00028135,-0.00573401,0.468813,0.00373243,0.0208914,986,491,0.503131,10.9075
-231,533,0.591309,-11.1029,-0.0037876,-0.00566383,0.0032613,-0.00133217,-0.00811926,0.645353,0.00502796,0.0291712,993,491,0.591291,11.1029
-224,533,0.459351,-11.3802,-0.00728401,-0.00690514,0.00506237,-0.00202867,-0.0121605,0.804099,0.00752251,0.0353836,1000,491,0.459327,11.3802
-217,533,0.573059,-11.5469,-0.0111564,-0.00816001,0.00709382,-0.0024079,-0.0169085,0.889468,0.0105616,0.0441141,1007,491,0.573069,11.5469
-210,533,0.711853,-11.8487,0,0,0,0,0,0,0,-1,1014,491,0.711829,11.8487
-203,533,0.341125,-11.5852,-0.021232,-0.0125975,0.0111415,-0.00496602,-0.0288635,0.970237,0.0178191,0.048574,1021,491,0.341132,11.5852
-196,533,-0.249878,-11.8279,-0.0269468,-0.014726,0.0137875,-0.00575556,-0.0359173,0.993985,0.0222756,0.048939,1028,491,-0.249919,11.8279
-189,533,-0.0877686,-11.675,0,0,0,0,0,0,0,-1,1035,491,-0.0878084,11.675
-182,533,1.26123,-11.4969,0,0,0,0,0,0,0,-1,1042,491,1.26128,11.4969
-175,533,0.937744,-7.36966,0,0,0,0,0,0,0,-1,1049,491,0.937769,7.36965
-168,533,2.64807,-2.7543,0,0,0,0,0,0,0,-1,1056,491,2.64812,2.7543
-161,533,1.91833,-1.76553,0,0,0,0,0,0,0,-1,1063,491,1.91836,1.76554
-154,533,-1.24805,-5.92294,0,0,0,0,0,0,0,-1,1070,491,-1.24806,5.92295
-147,533,0.212036,-10.6896,0,0,0,0,0,0,0,-1,1077,491,0.212037,10.6896
-140,533,0.481812,-8.27359,0,0,0,0,0,0,0,-1,1084,491,0.481827,8.2736
-133,533,1.23474,-8.92532,0,0,0,0,0,0,0,-1,1091,491,1.2347,8.92532
-126,533,2.89612,-2.59003,0,0,0,0,0,0,0,-1,1098,491,2.89608,2.59003
-119,533,3.00842,-12.8239,0,0,0,0,0,0,0,-1,1105,491,3.00841,12.8239
-112,533,7.05884,-10.21,0,0,0,0,0,0,0,-1,1112,491,7.0588,10.21
-105,533,3.84839,1.12769,0,0,0,0,0,0,0,-1,1119,491,3.84843,-1.12769
-98,533,-1.39392,-5.16367,0,0,0,0,0,0,0,-1,1126,491,-1.39394,5.16367
-91,533,0.367432,4.49753,0,0,0,0,0,0,0,-1,1133,491,0.367468,-4.49754
-84,533,-0.88623,3.03604,0,0,0,0,0,0,0,-1,1140,491,-0.886288,-3.03605
-77,533,0,0,0,0,0,0,0,0,0,-1,1147,491,0,0
-70,533,0,0,0,0,0,0,0,0,0,-1,1154,491,0,0
-63,533,0,0,0,0,0,0,0,0,0,-1,1161,491,0,0
-56,533,0,0,0,0,0,0,0,0,0,-1,1168,491,0,0
-49,533,0,0,0,0,0,0,0,0,0,-1,1175,491,0,0
-42,533,0,0,0,0,0,0,0,0,0,-1,1182,491,0,0
-35,533,0,0,0,0,0,0,0,0,0,-1,1189,491,0,0
-28,533,0,0,0,0,0,0,0,0,0,-1,1196,491,0,0
-21,533,0,0,0,0,0,0,0,0,0,-1,1203,491,0,0
-14,533,0,0,0,0,0,0,0,0,0,-1,1210,491,0,0
-7,533,0,0,0,0,0,0,0,0,0,-1,1217,491,0,0
0,533,0,0,0,0,0,0,0,0,0,-1,1224,491,0,0
7,533,0,0,0,0,0,0,0,0,0,-1,1231,491,0,0
14,533,0,0,0,0,0,0,0,0,0,-1,1238,491,0,0
21,533,0,0,0,0,0,0,0,0,0,-1,1245,491,0,0
28,533,0,0,0,0,0,0,0,0,0,-1,1252,491,0,0
35,533,0,0,0,0,0,0,0,0,0,-1,1259,491,0,0
42,533,0,0,0,0,0,0,0,0,0,-1,1266,491,0,0
49,533,0,0,0,0,0,0,0,0,0,-1,1273,491,0,0
56,533,0,0,0,0,0,0,0,0,0,-1,1280,491,0,0
63,533,0,0,0,0,0,0,0,0,0,-1,1287,491,0,0
70,533,0,0,0,0,0,0,0,0,0,-1,1294,491,0,0
77,533,0,0,0,0,0,0,0,0,0,-1,1301,491,0,0
84,533,0,0,0,0,0,0,0,0,0,-1,1308,491,0,0
91,533,0,0,0,0,0,0,0,0,0,-1,1315,491,0,0
98,533,0,0,0,0,0,0,0,0,0,-1,1322,491,0,0
105,533,0,0,0,0,0,0,0,0,0,-1,1329,491,0,0
112,533,0,0,0,0,0,0,0,0,0,-1,1336,491,0,0
119,533,0,0,0,0,0,0,0,0,0,-1,1343,491,0,0
126,533,0,0,0,0,0,0,0,0,0,-1,1350,491,0,0
133,533,0,0,0,0,0,0,0,0,0,-1,1357,491,0,0
140,533,0,0,0,0,0,0,0,0,0,-1,1364,491,0,0
147,533,0,0,0,0,0,0,0,0,0,-1,1371,491,0,0
154,533,0,0,0,0,0,0,0,0,0,-1,1378,491,0,0
161,533,0,0,0,0,0,0,0,0,0,-1,1385,491,0,0
168,533,0,0,0,0,0,0,0,0,0,-1,1392,491,0,0
175,533,0,0,0,0,0,0,0,0,0,-1,1399,491,0,0
182,533,0,0,0,0,0,0,0,0,0,-1,1406,491,0,0
189,533,0,0,0,0,0,0,0,0,0,-1,1413,491,0,0
196,533,0,0,0,0,0,0,0,0,0,-1,1420,491,0,0
203,533,3.7887,1.16193,0,0,0,0,0,0,0,-1,1427,491,3.78872,-1.16193
210,533,5.09558,-0.216034,0,0,0,0,0,0,0,-1,1434,491,5.09559,0.216028
217,533,6.91614,-2.46814,0,0,0,0,0,0,0,-1,1441,491,6.91618,2.46814
224,533,7.23621,-2.1857,0,0,0,0,0,0,0,-1,1448,491,7.23621,2.1857
231,533,7.23474,-1.92282,0,0,0,0,0,0,0,-1,1455,491,7.2347,1.92282
238,533,7.23535,-1.67258,0,0,0,0,0,0,0,-1,1462,491,7.23539,1.67258
245,533,6.86682,-1.2301,0,0,0,0,0,0,0,-1,1469,491,6.86686,1.23011
252,533,6.63354,-3.07825,0,0,0,0,0,0,0,-1,1476,491,6.6335,3.07824
259,533,6.16431,-2.35037,0,0,0,0,0,0,0,-1,1483,491,6.1643,2.35037
266,533,5.68884,-1.6214,0,0,0,0,0,0,0,-1,1490,491,5.68885,1.6214
273,533,5.21399,-0.864227,0,0,0,0,0,0,0,-1,1497,491,5.21403,0.864227
280,533,1.41089,-1.97946,0,0,0,0,0,0,0,-1,1504,491,1.41087,1.97946
287,533,1.6814,-2.44443,0,0,0,0,0,0,0,-1,1511,491,1.6814,2.44444
294,533,2.2384,-2.57626,0,0,0,0,0,0,0,-1,1518,491,2.23839,2.57625
301,533,3.39941,-4.0817,0,0,0,0,0,0,0,-1,1525,491,3.3994,4.08171
308,533,4.13733,-4.14752,0,0,0,0,0,0,0,-1,1532,491,4.13727,4.14752
315,533,4.80762,-5.29349,0,0,0,0,0,0,0,-1,1539,491,4.80762,5.29347
322,533,5.47803,-6.43942,0,0,0,0,0,0,0,-1,1546,491,5.47798,6.43943
329,533,3.88477,-3.86301,0,0,0,0,0,0,0,-1,1553,491,3.88475,3.86299
336,533,4.35278,-9.26563,0,0,0,0,0,0,0,-1,1560,491,4.35282,9.26561
343,533,5.87952,-6.38858,0,0,0,0,0,0,0,-1,1567,491,5.87953,6.38857
350,533,5.62915,-8.02426,0,0,0,0,0,0,0,-1,1574,491,5.6291,8.02426
357,533,5.41663,-10.0031,0,0,0,0,0,0,0,-1,1581,491,5.41658,10.0031
364,533,5.22095,-9.91663,-0.00583319,-0.00376359,-0.00669689,0.00197798,-0.0115748,-0.862052,0.00845332,0.0473598,1588,491,5.22094,9.91663
371,533,5.05164,-9.80084,-0.00507602,-0.0033106,-0.0058884,0.00176089,-0.0101475,-0.859798,0.00742193,0.0366908,1595,491,5.05169,9.80084
378,533,5.06958,-9.55576,-0.00431089,-0.00262127,-0.00509571,0.00169919,-0.00863135,-0.867545,0.00639631,0.0268563,1602,491,5.06956,9.55575
385,533,5.18433,-9.33969,-0.00383602,-0.0021831,-0.00444957,0.00151612,-0.00753523,-0.877221,0.00559772,0.0235194,1609,491,5.18437,9.33969
392,533,5.17188,-9.142,-0.00347356,-0.00171453,-0.00378748,0.00129422,-0.0064823,-0.899484,0.00481132,0.0140544,1616,491,5.17193,9.14199
399,533,5.18823,-8.93738,-0.00298338,-0.00138159,-0.00323154,0.00114682,-0.0055118,-0.906869,0.00411048,0.0116679,1623,491,5.18828,8.93737
406,533,5.20837,-8.70853,-0.0024002,-0.00104145,-0.00269379,0.00105732,-0.00449897,-0.908923,0.00340689,0.0152928,1630,491,5.20843,8.70854
413,533,5.21155,-8.46085,-0.00177288,-0.000616289,-0.002093,0.000976834,-0.003366,-0.920186,0.00263078,0.0139846,1637,491,5.21153,8.46084
420,533,5.20386,-8.21082,-0.00119209,-0.00038341,-0.00153588,0.00080046,-0.00237596,-0.914109,0.00190762,0.0119982,1644,491,5.20382,8.21082
427,533,5.20764,-7.95197,-0.000715367,-0.000301021,-0.00107748,0.00058902,-0.00160541,-0.880377,0.00131147,0.0118934,1651,491,5.20768,7.95195
434,533,5.19897,-7.71762,-0.000268729,-0.000342343,-0.00064634,0.000341851,-0.000952923,-0.756955,0.000774793,0.0122417,1658,491,5.19892,7.71761
441,533,5.21448,-7.46527,0.000179677,-0.000536856,-0.000255669,0.000261549,-0.000618728,-0.309907,0.000521987,0.0138931,1665,491,5.21451,7.46527
448,533,5.21936,-7.25101,0.000660933,-0.000717975,0.000114582,0.00067039,-0.000727432,0.0823438,0.000807257,0.0146973,1672,491,5.2194,7.25102
455,533,5.18726,-7.01294,0.00106999,-0.00103983,0.000343747,0.00112458,-0.00109443,0.157502,0.00128119,0.0149754,1679,491,5.18724,7.01295
462,533,5.16699,-6.70724,0.00152292,-0.00136625,0.000643003,0.00165957,-0.00150289,0.209391,0.00182659,0.0142385,1686,491,5.16696,6.70724
469,533,5.16492,-6.48465,0.00188531,-0.00177858,0.00074666,0.00203163,-0.0019249,0.193511,0.00228458,0.00920423,1693,491,5.16491,6.48465
476,533,5.16772,-6.23532,0.00207829,-0.00219416,0.000808696,0.00222624,-0.00234211,0.180945,0.00263782,0.0109163,1700,491,5.16777,6.23532
483,533,5.20093,-5.9664,0.0020599,-0.00244312,0.000780938,0.00219149,-0.00257471,0.166933,0.00275473,0.0199751,1707,491,5.20093,5.96639
490,533,5.18762,-5.85284,0.00184237,-0.00282498,0.000787464,0.00197165,-0.00295426,0.162719,0.00286277,0.0443003,1714,491,5.1876,5.85284
497,533,5.17749,-5.73715,0,0,0,0,0,0,0,-1,1721,491,5.17754,5.73714
504,533,5.23083,-4.95361,0,0,0,0,0,0,0,-1,1728,491,5.23079,4.95362
511,533,5.46765,-4.66443,0,0,0,0,0,0,0,-1,1735,491,5.46769,4.66444
518,533,5.56177,-3.57648,0,0,0,0,0,0,0,-1,1742,491,5.56179,3.57647
525,533,5.00793,-3.79895,0,0,0,0,0,0,0,-1,1749,491,5.00799,3.79896
532,533,3.24243,0.0737,0,0,0,0,0,0,0,-1,1756,491,3.24239,-0.0737072
539,533,3.61609,1.62427,0,0,0,0,0,0,0,-1,1763,491,3.61606,-1.62426
546,533,3.59607,1.65799,0,0,0,0,0,0,0,-1,1770,491,3.59605,-1.658
553,533,0,0,0,0,0,0,0,0,0,-1,1777,491,0,0
560,533,0,0,0,0,0,0,0,0,0,-1,1784,491,0,0
567,533,0,0,0,0,0,0,0,0,0,-1,1791,491,0,0
574,533,0,0,0,0,0,0,0,0,0,-1,1798,491,0,0
581,533,0,0,0,0,0,0,0,0,0,-1,1805,491,0,0
588,533,0,0,0,0,0,0,0,0,0,-1,1812,491,0,0
595,533,0,0,0,0,0,0,0,0,0,-1,1819,491,0,0
602,533,0,0,0,0,0,0,0,0,0,-1,1826,491,0,0
609,533,0,0,0,0,0,0,0,0,0,-1,1833,491,0,0
616,533,0,0,0,0,0,0,0,0,0,-1,1840,491,0,0
623,533,0,0,0,0,0,0,0,0,0,-1,1847,491,0,0
630,533,0,0,0,0,0,0,0,0,0,-1,1854,491,0,0
637,533,0,0,0,0,0,0,0,0,0,-1,1861,491,0,0
644,533,0,0,0,0,0,0,0,0,0,-1,1868,491,0,0
651,533,0,0,0,0,0,0,0,0,0,-1,1875,491,0,0
658,533,0,0,0,0,0,0,0,0,0,-1,1882,491,0,0
665,533,0,0,0,0,0,0,0,0,0,-1,1889,491,0,0
672,533,0,0,0,0,0,0,0,0,0,-1,1896,491,0,0
679,533,0,0,0,0,0,0,0,0,0,-1,1903,491,0,0
686,533,0,0,0,0,0,0,0,0,0,-1,1910,491,0,0
693,533,0,0,0,0,0,0,0,0,0,-1,1917,491,0,0
700,533,0,0,0,0,0,0,0,0,0,-1,1924,491,0,0
707,533,0,0,0,0,0,0,0,0,0,-1,1931,491,0,0
714,533,0,0,0,0,0,0,0,0,0,-1,1938,491,0,0
721,533,0,0,0,0,0,0,0,0,0,-1,1945,491,0,0
728,533,0,0,0,0,0,0,0,0,0,-1,1952,491,0,0
735,533,0,0,0,0,0,0,0,0,0,-1,1959,491,0,0
742,533,0,0,0,0,0,0,0,0,0,-1,1966,491,0,0
749,533,0,0,0,0,0,0,0,0,0,-1,1973,491,0,0
756,533,0,0,0,0,0,0,0,0,0,-1,1980,491,0,0
763,533,0,0,0,0,0,0,0,0,0,-1,1987,491,0,0
770,533,0,0,0,0,0,0,0,0,0,-1,1994,491,0,0
777,533,0,0,0,0,0,0,0,0,0,-1,2001,491,0,0
784,533,0,0,0,0,0,0,0,0,0,-1,2008,491,0,0
791,533,0,0,0,0,0,0,0,0,0,-1,2015,491,0,0
798,533,0,0,0,0,0,0,0,0,0,-1,2022,491,0,0
805,533,0,0,0,0,0,0,0,0,0,-1,2029,491,0,0
812,533,0,0,0,0,0,0,0,0,0,-1,2036,491,0,0
-700,526,0,0,0,0,0,0,0,0,0,-1,524,498,0,0
-693,526,0,0,0,0,0,0,0,0,0,-1,531,498,0,0
-686,526,0,0,0,0,0,0,0,0,0,-1,538,498,0,0
-679,526,0,0,0,0,0,0,0,0,0,-1,545,498,0,0
-672,526,0,0,0,0,0,0,0,0,0,-1,552,498,0,0
-665,526,0,0,0,0,0,0,0,0,0,-1,559,498,0,0
-658,526,0,0,0,0,0,0,0,0,0,-1,566,498,0,0
-651,526,0,0,0,0,0,0,0,0,0,-1,573,498,0,0
-644,526,0,0,0,0,0,0,0,0,0,-1,580,498,0,0
-637,526,0,0,0,0,0,0,0,0,0,-1,587,498,0,0
-630,526,0,0,0,0,0,0,0,0,0,-1,594,498,0,0
-623,526,0,0,0,0,0,0,0,0,0,-1,601,498,0,0
-616,526,0,0,0,0,0,0,0,0,0,-1,608,498,0,0
-609,526,0,0,0,0,0,0,0,0,0,-1,615,498,0,0
-602,526,0,0,0,0,0,0,0,0,0,-1,622,498,0,0
-595,526,0,0,0,0,0,0,0,0,0,-1,629,498,0,0
-588,526,0,0,0,0,0,0,0,0,0,-1,636,498,0,0
-581,526,0,0,0,0,0,0,0,0,0,-1,643,498,0,0
-574,526,0,0,0,0,0,0,0,0,0,-1,650,498,0,0
-567,526,0,0,0,0,0,0,0,0,0,-1,657,498,0,0
-560,526,0,0,0,0,0,0,0,0,0,-1,664,498,0,0
-553,526,0,0,0,0,0,0,0,0,0,-1,671,498,0,0
-546,526,0,0,0,0,0,0,0,0,0,-1,678,498,0,0
-539,526,0,0,0,0,0,0,0,0,0,-1,685,498,0,0
-532,526,0,0,0,0,0,0,0,0,0,-1,692,498,0,0
-525,526,0,0,0,0,0,0,0,0,0,-1,699,498,0,0
-518,526,0,0,0,0,0,0,0,0,0,-1,706,498,0,0
-511,526,0,0,0,0,0,0,0,0,0,-1,713,498,0,0
-504,526,0,0,0,0,0,0,0,0,0,-1,720,498,0,0
-497,526,0,0,0,0,0,0,0,0,0,-1,727,498,0,0
-490,526,0,0,0,0,0,0,0,0,0,-1,734,498,0,0
-483,526,0,0,0,0,0,0,0,0,0,-1,741,498,0,0
-476,526,0,0,0,0,0,0,0,0,0,-1,748,498,0,0
-469,526,0,0,0,0,0,0,0,0,0,-1,755,498,0,0
-462,526,0,0,0,0,0,0,0,0,0,-1,762,498,0,0
-455,526,0,0,0,0,0,0,0,0,0,-1,769,498,0,0
-448,526,0,0,0,0,0,0,0,0,0,-1,776,498,0,0
-441,526,0,0,0,0,0,0,0,0,0,-1,783,498,0,0
-434,526,-1.01361,-1.88202,0,0,0,0,0,0,0,-1,790,498,-1.01362,1.88203
-427,526,-1.38489,-2.00546,0,0,0,0,0,0,0,-1,797,498,-1.38489,2.00547
-420,526,1.20618,-5.80945,0,0,0,0,0,0,0,-1,804,498,1.20618,5.80946
-413,526,0.851685,-5.48251,0,0,0,0,0,0,0,-1,811,498,0.851666,5.48252
-406,526,1.56488,-6.63019,0,0,0,0,0,0,0,-1,818,498,1.56486,6.6302
-399,526,0.509583,-4.37289,0,0,0,0,0,0,0,-1,825,498,0.509582,4.3729
-392,526,-0.111877,-5.55533,0,0,0,0,0,0,0,-1,832,498,-0.111896,5.55532
-385,526,-0.0359497,-5.89825,0,0,0,0,0,0,0,-1,839,498,-0.0359285,5.89824
-378,526,0.156494,-6.36923,0,0,0,0,0,0,0,-1,846,498,0.156495,6.36923
-371,526,0.205566,-6.91235,-0.000821291,0.00305857,-0.00264231,0.00439662,-0.00215934,-1.10205,0.00385785,0.0407153,853,498,0.205567,6.91235
-364,526,0.290344,-7.17142,-0.00102833,0.00191233,-0.00189401,0.00283974,-0.00195574,-1.11546,0.00278431,0.0225725,860,498,0.290338,7.17141
-357,526,0.195251,-7.34854,-0.00113855,0.00105045,-0.0013725,0.00171143,-0.00179952,-1.12199,0.00202726,0.0154213,867,498,0.195237,7.34853
-350,526,0.205994,-7.5856,-0.00105084,0.000428236,-0.00110433,0.00101778,-0.00164038,-1.08044,0.00154866,0.0109655,874,498,0.205975,7.5856
-343,526,0.209106,-7.84796,-0.000817406,0.000168888,-0.000973251,0.000766801,-0.00141532,-1.0199,0.00127826,0.0139076,881,498,0.209111,7.84796
-336,526,0.181396,-8.11029,-0.000520931,0.000191665,-0.000975331,0.00087374,-0.00120301,-0.960522,0.00120402,0.0145654,888,498,0.181418,8.1103
-329,526,0.166382,-8.33002,-0.0002292,0.000174424,-0.00094002,0.000934051,-0.000988827,-0.891137,0.00111032,0.0152564,895,498,0.166355,8.33002
-322,526,0.169983,-8.53793,8.70196e-05,0.000350252,-0.000972233,0.00119974,-0.000762466,-0.852677,0.00114222,0.01045,902,498,0.169987,8.53793
-315,526,0.175903,-8.78641,0.000387616,0.000588178,-0.000948572,0.00144175,-0.000465961,-0.838062,0.00114844,0.00919867,909,498,0.175895,8.7864
-308,526,0.180054,-8.99985,0.000746289,0.000673607,-0.000882004,0.0015927,-0.000172804,-0.764809,0.00112384,0.0085314,916,498,0.18004,8.99986
-301,526,0.163574,-9.21475,0.00113786,0.000644433,-0.00075694,0.00168728,9.50154e-05,-0.627859,0.00109456,0.00963587,923,498,0.163551,9.21474
-294,526,0.170593,-9.4256,0.00154054,0.000446221,-0.000562367,0.00177801,0.000208754,-0.399551,0.00112225,0.00922669,930,498,0.170592,9.42559
-287,526,0.17511,-9.63419,0.0018946,7.57422e-05,-0.000340631,0.0019563,1.40427e-05,-0.17919,0.00129954,0.00945683,937,498,0.175106,9.63419
-280,526,0.164001,-9.84616,0.00221905,-0.000468521,-0.000237002,0.00223979,-0.000489261,-0.0872866,0.0016802,0.0124236,944,498,0.163974,9.84615
-273,526,0.182373,-10.0558,0.00267632,-0.000936245,-0.000115327,0.00267999,-0.000939923,-0.0318807,0.00216895,0.0101585,951,498,0.182347,10.0558
-266,526,0.187744,-10.2514,0.0034039,-0.0015715,-6.70296e-06,0.00340391,-0.00157151,-0.00134722,0.00293678,0.0095345,958,498,0.187738,10.2514
-259,526,0.213806,-10.4318,0.00397137,-0.00229981,8.27852e-05,0.00397246,-0.0023009,0.0131978,0.00366453,0.0163178,965,498,0.213813,10.4318
-252,526,0.264465,-10.5714,0.00264994,-0.00331316,0.000296137,0.00266461,-0.00332783,0.0494992,0.00346679,0.0321865,972,498,0.264465,10.5714
-245,526,0.316467,-10.7153,0.00025679,-0.00415912,0.00121084,0.000567007,-0.00446934,0.250806,0.00318543,0.0421217,979,498,0.316442,10.7153
-238,526,0.298828,-10.7081,0,0,0,0,0,0,0,-1,986,498,0.298854,10.7081
-231,526,0.594421,-10.8841,0,0,0,0,0,0,0,-1,993,498,0.594431,10.8841
-224,526,0.253296,-11.3118,0,0,0,0,0,0,0,-1,1000,498,0.253268,11.3118
-217,526,0.463623,-11.4789,0,0,0,0,0,0,0,-1,1007,498,0.463632,11.4789
-210,526,0.171021,-8.39801,0,0,0,0,0,0,0,-1,1014,498,0.170997,8.398
-203,526,0.231567,-11.5324,0,0,0,0,0,0,0,-1,1021,498,0.231557,11.5324
-196,526,-0.634033,-11.9881,0,0,0,0,0,0,0,-1,1028,498,-0.633992,11.9881
-189,526,0.401245,-5.96826,0,0,0,0,0,0,0,-1,1035,498,0.401197,5.96826
-182,526,1.7323,-2.99405,0,0,0,0,0,0,0,-1,1042,498,1.73226,2.99404
-175,526,2.27637,-2.07983,0,0,0,0,0,0,0,-1,1049,498,2.27639,2.07984
-168,526,2.12036,-1.66049,0,0,0,0,0,0,0,-1,1056,498,2.12035,1.66048
-161,526,2.09082,-1.20572,0,0,0,0,0,0,0,-1,1063,498,2.09086,1.2057
-154,526,-1.3446,-5.37799,0,0,0,0,0,0,0,-1,1070,498,-1.34457,5.37799
-147,526,-0.472656,-6.64996,0,0,0,0,0,0,0,-1,1077,498,-0.472659,6.64997
-140,526,0.422852,-8.03339,0,0,0,0,0,0,0,-1,1084,498,0.422844,8.0334
-133,526,1.09583,-9.2215,0,0,0,0,0,0,0,-1,1091,498,1.09581,9.2215
-126,526,3.42529,-2.36053,0,0,0,0,0,0,0,-1,1098,498,3.42523,2.36052
-119,526,2.7771,-0.764099,0,0,0,0,0,0,0,-1,1105,498,2.7771,0.764107
-112,526,2.57715,-1.1893,0,0,0,0,0,0,0,-1,1112,498,2.57718,1.1893
-105,526,0,0,0,0,0,0,0,0,0,-1,1119,498,0,0
-98,526,0,0,0,0,0,0,0,0,0,-1,1126,498,0,0
-91,526,0,0,0,0,0,0,0,0,0,-1,1133,498,0,0
-84,526,0,0,0,0,0,0,0,0,0,-1,1140,498,0,0
-77,526,0,0,0,0,0,0,0,0,0,-1,1147,498,0,0
-70,526,0,0,0,0,0,0,0,0,0,-1,1154,498,0,0
-63,526,0,0,0,0,0,0,0,0,0,-1,1161,498,0,0
-56,526,0,0,0,0,0,0,0,0,0,-1,1168,498,0,0
-49,526,0,0,0,0,0,0,0,0,0,-1,1175,498,0,0
-42,526,0,0,0,0,0,0,0,0,0,-1,1182,498,0,0
-35,526,0,0,0,0,0,0,0,0,0,-1,1189,498,0,0
-28,526,0,0,0,0,0,0,0,0,0,-1,1196,498,0,0
-21,526,0,0,0,0,0,0,0,0,0,-1,1203,498,0,0
-14,526,0,0,0,0,0,0,0,0,0,-1,1210,498,0,0
-7,526,0,0,0,0,0,0,0,0,0,-1,1217,498,0,0
0,526,0,0,0,0,0,0,0,0,0,-1,1224,498,0,0
7,526,0,0,0,0,0,0,0,0,0,-1,1231,498,0,0
14,526,0,0,0,0,0,0,0,0,0,-1,1238,498,0,0
21,526,0,0,0,0,0,0,0,0,0,-1,1245,498,0,0
28,526,0,0,0,0,0,0,0,0,0,-1,1252,498,0,0
35,526,0,0,0,0,0,0,0,0,0,-1,1259,498,0,0
42,526,0,0,0,0,0,0,0,0,0,-1,1266,498,0,0
49,526,0,0,0,0,0,0,0,0,0,-1,1273,498,0,0
56,526,0,0,0,0,0,0,0,0,0,-1,1280,498,0,0
63,526,0,0,0,0,0,0,0,0,0,-1,1287,498,0,0
70,526,0,0,0,0,0,0,0,0,0,-1,1294,498,0,0
77,526,0,0,0,0,0,0,0,0,0,-1,1301,498,0,0
84,526,0,0,0,0,0,0,0,0,0,-1,1308,498,0,0
91,526,0,0,0,0,0,0,0,0,0,-1,1315,498,0,0
98,526,0,0,0,0,0,0,0,0,0,-1,1322,498,0,0
105,526,0,0,0,0,0,0,0,0,0,-1,1329,498,0,0
112,526,0,0,0,0,0,0,0,0,0,-1,1336,498,0,0
119,526,0,0,0,0,0,0,0,0,0,-1,1343,498,0,0
126,526,0,0,0,0,0,0,0,0,0,-1,1350,498,0,0
133,526,0,0,0,0,0,0,0,0,0,-1,1357,498,0,0
140,526,0,0,0,0,0,0,0,0,0,-1,1364,498,0,0
147,526,0,0,0,0,0,0,0,0,0,-1,1371,498,0,0
154,526,0,0,0,0,0,0,0,0,0,-1,1378,498,0,0
161,526,0,0,0,0,0,0,0,0,0,-1,1385,498,0,0
168,526,0,0,0,0,0,0,0,0,0,-1,1392,498,0,0
175,526,0,0,0,0,0,0,0,0,0,-1,1399,498,0,0
182,526,0,0,0,0,0,0,0,0,0,-1,1406,498,0,0
189,526,0,0,0,0,0,0,0,0,0,-1,1413,498,0,0
196,526,0,0,0,0,0,0,0,0,0,-1,1420,498,0,0
203,526,0,0,0,0,0,0,0,0,0,-1,1427,498,0,0
210,526,0,0,0,0,0,0,0,0,0,-1,1434,498,0,0
217,526,0,0,0,0,0,0,0,0,0,-1,1441,498,0,0
224,526,0,0,0,0,0,0,0,0,0,-1,1448,498,0,0
231,526,7.93237,-1.30618,0,0,0,0,0,0,0,-1,1455,498,7.93238,1.30618
238,526,7.97717,-1.08197,0,0,0,0,0,0,0,-1,1462,498,7.97723,1.08196
245,526,7.2793,-0.792938,0,0,0,0,0,0,0,-1,1469,498,7.27931,0.792926
252,526,6.73523,-2.23608,0,0,0,0,0,0,0,-1,1476,498,6.73525,2.23608
259,526,6.22949,-1.84967,0,0,0,0,0,0,0,-1,1483,498,6.22953,1.84968
266,526,5.72375,-1.46329,0,0,0,0,0,0,0,-1,1490,498,5.72381,1.46328
273,526,4.33984,0.49173,0,0,0,0,0,0,0,-1,1497,498,4.33979,-0.491727
280,526,1.4585,-1.59897,0,0,0,0,0,0,0,-1,1504,498,1.45846,1.59895
287,526,1.46411,-2.40134,0,0,0,0,0,0,0,-1,1511,498,1.46406,2.40133
294,526,5.57471,-4.59085,0,0,0,0,0,0,0,-1,1518,498,5.57466,4.59084
301,526,4.42786,-3.99677,0,0,0,0,0,0,0,-1,1525,498,4.42788,3.99676
308,526,5.79529,-4.19366,0,0,0,0,0,0,0,-1,1532,498,5.79528,4.19368
315,526,5.09851,-5.20068,0,0,0,0,0,0,0,-1,1539,498,5.09851,5.20068
322,526,5.50708,-4.72348,0,0,0,0,0,0,0,-1,1546,498,5.50713,4.72347
329,526,3.88672,-4.345,0,0,0,0,0,0,0,-1,1553,498,3.88674,4.34501
336,526,4.97876,-2.23828,0,0,0,0,0,0,0,-1,1560,498,4.97877,2.23828
343,526,3.31665,-2.69696,0,0,0,0,0,0,0,-1,1567,498,3.31667,2.69696
350,526,6.06287,-6.12015,0,0,0,0,0,0,0,-1,1574,498,6.06286,6.12014
357,526,5.79736,-7.7854,0,0,0,0,0,0,0,-1,1581,498,5.79734,7.78539
364,526,5.42432,-10.1455,0,0,0,0,0,0,0,-1,1588,498,5.42431,10.1455
371,526,5.20288,-10.1985,0,0,0,0,0,0,0,-1,1595,498,5.20282,10.1985
378,526,5.15723,-9.93347,0,0,0,0,0,0,0,-1,1602,498,5.15727,9.93346
385,526,5.36951,-9.45328,0,0,0,0,0,0,0,-1,1609,498,5.36952,9.45328
392,526,5.47986,-9.1684,-0.00514229,-0.002439,-0.00532891,0.00170701,-0.00928829,-0.909601,0.00683265,0.032244,1616,498,5.4798,9.1684
399,526,5.40784,-8.93613,-0.00444885,-0.00198023,-0.0045955,0.00154384,-0.00797292,-0.916597,0.00589763,0.0177207,1623,498,5.40783,8.93614
406,526,5.46228,-8.68643,-0.0036512,-0.00150226,-0.00392018,0.00148804,-0.00664149,-0.919157,0.00499806,0.0125277,1630,498,5.46231,8.68643
413,526,5.44666,-8.44977,-0.00282768,-0.000942181,-0.00316892,0.00142125,-0.00519111,-0.929978,0.00401915,0.0129917,1637,498,5.44668,8.44978
420,526,5.42554,-8.20914,-0.00210246,-0.000620329,-0.00243688,0.00118567,-0.00390846,-0.933007,0.00307795,0.0124038,1644,498,5.42552,8.20914
427,526,5.43835,-7.9617,-0.0015466,-0.000418616,-0.00182887,0.000931251,-0.00289646,-0.934963,0.00230498,0.0123205,1651,498,5.43834,7.96169
434,526,5.43323,-7.70001,-0.00103996,-0.000338682,-0.00127774,0.000635662,-0.0020143,-0.919312,0.00159748,0.0117308,1658,498,5.4332,7.70001
441,526,5.41711,-7.45639,-0.00053077,-0.000411968,-0.00076739,0.000298317,-0.00124105,-0.824025,0.000942676,0.0106073,1665,498,5.41709,7.45639
448,526,5.42151,-7.23798,2.27881e-05,-0.00045894,-0.000277187,0.000149141,-0.000585293,-0.427699,0.000448257,0.0100984,1672,498,5.42145,7.23797
455,526,5.4137,-7.0098,0.000473337,-0.000678587,3.83874e-05,0.000474614,-0.000679865,0.0332754,0.000670041,0.0134019,1679,498,5.41374,7.00979
462,526,5.42078,-6.72778,0.000956731,-0.00091182,0.000422609,0.00104787,-0.00100296,0.212398,0.00118414,0.0106685,1686,498,5.4208,6.72779
469,526,5.42688,-6.48187,0.0013142,-0.00122732,0.000571456,0.00143678,-0.0013499,0.2113,0.00160915,0.00754565,1693,498,5.42694,6.48188
476,526,5.41626,-6.2269,0.00146515,-0.00155749,0.000666085,0.00160543,-0.00169776,0.207559,0.00190735,0.00914148,1700,498,5.41623,6.22691
483,526,5.42847,-5.94125,0.0013861,-0.00170931,0.000661666,0.00152161,-0.00184482,0.201999,0.00194659,0.0112576,1707,498,5.42841,5.94127
490,526,5.4729,-5.63116,0.00112479,-0.00199252,0.000683837,0.00126821,-0.00213593,0.206723,0.00198655,0.0213294,1714,498,5.4729,5.63118
497,526,5.37488,-5.4628,0.000642606,-0.00198735,0.000797461,0.000865519,-0.00221027,0.272572,0.00183151,0.0271367,1721,498,5.37491,5.46281
504,526,5.38684,-5.14008,0.00034962,-0.000451964,0.00127041,0.00128096,-0.0013833,0.632598,0.00153859,0.0304235,1728,498,5.38679,5.14006
511,526,5.53918,-4.8342,-7.61802e-05,0.00117914,0.00178012,0.00243901,-0.00133605,0.95489,0.00221032,0.038235,1735,498,5.53917,4.83419
518,526,5.58411,-3.97253,0,0,0,0,0,0,0,-1,1742,498,5.58413,3.97254
525,526,5.61914,-3.28238,0,0,0,0,0,0,0,-1,1749,498,5.6191,3.28238
532,526,3.54285,-2.81274,0,0,0,0,0,0,0,-1,1756,498,3.54284,2.81273
539,526,3.29407,0.932312,0,0,0,0,0,0,0,-1,1763,498,3.2941,-0.93232
546,526,3.36731,1.07721,0,0,0,0,0,0,0,-1,1770,498,3.36735,-1.07719
553,526,3.40796,1.37137,0,0,0,0,0,0,0,-1,1777,498,3.40792,-1.37138
560,526,0,0,0,0,0,0,0,0,0,-1,1784,498,0,0
567,526,0,0,0,0,0,0,0,0,0,-1,1791,498,0,0
574,526,0,0,0,0,0,0,0,0,0,-1,1798,498,0,0
581,526,0,0,0,0,0,0,0,0,0,-1,1805,498,0,0
588,526,0,0,0,0,0,0,0,0,0,-1,1812,498,0,0
595,526,0,0,0,0,0,0,0,0,0,-1,1819,498,0,0
602,526,0,0,0,0,0,0,0,0,0,-1,1826,498,0,0
609,526,0,0,0,0,0,0,0,0,0,-1,1833,498,0,0
616,526,0,0,0,0,0,0,0,0,0,-1,1840,498,0,0
623,526,0,0,0,0,0,0,0,0,0,-1,1847,498,0,0
630,526,0,0,0,0,0,0,0,0,0,-1,1854,498,0,0
637,526,0,0,0,0,0,0,0,0,0,-1,1861,498,0,0
644,526,0,0,0,0,0,0,0,0,0,-1,1868,498,0,0
651,526,0,0,0,0,0,0,0,0,0,-1,1875,498,0,0
658,526,0,0,0,0,0,0,0,0,0,-1,1882,498,0,0
665,526,0,0,0,0,0,0,0,0,0,-1,1889,498,0,0
672,526,0,0,0,0,0,0,0,0,0,-1,1896,498,0,0
679,526,0,0,0,0,0,0,0,0,0,-1,1903,498,0,0
686,526,0,0,0,0,0,0,0,0,0,-1,1910,498,0,0
693,526,0,0,0,0,0,0,0,0,0,-1,1917,498,0,0
700,526,0,0,0,0,0,0,0,0,0,-1,1924,498,0,0
707,526,0,0,0,0,0,0,0,0,0,-1,1931,498,0,0
714,526,0,0,0,0,0,0,0,0,0,-1,1938,498,0,0
721,526,0,0,0,0,0,0,0,0,0,-1,1945,498,0,0
728,526,0,0,0,0,0,0,0,0,0,-1,1952,498,0,0
735,526,0,0,0,0,0,0,0,0,0,-1,1959,498,0,0
742,526,0,0,0,0,0,0,0,0,0,-1,1966,498,0,0
749,526,0,0,0,0,0,0,0,0,0,-1,1973,498,0,0
756,526,0,0,0,0,0,0,0,0,0,-1,1980,498,0,0
763,526,0,0,0,0,0,0,0,0,0,-1,1987,498,0,0
770,526,0,0,0,0,0,0,0,0,0,-1,1994,498,0,0
777,526,0,0,0,0,0,0,0,0,0,-1,2001,498,0,0
784,526,0,0,0,0,0,0,0,0,0,-1,2008,498,0,0
791,526,0,0,0,0,0,0,0,0,0,-1,2015,498,0,0
798,526,0,0,0,0,0,0,0,0,0,-1,2022,498,0,0
805,526,0,0,0,0,0,0,0,0,0,-1,2029,498,0,0
812,526,0,0,0,0,0,0,0,0,0,-1,2036,498,0,0
-700,519,0,0,0,0,0,0,0,0,0,-1,524,505,0,0
-693,519,0,0,0,0,0,0,0,0,0,-1,531,505,0,0
-686,519,0,0,0,0,0,0,0,0,0,-1,538,505,0,0
-679,519,0,0,0,0,0,0,0,0,0,-1,545,505,0,0
-672,519,0,0,0,0,0,0,0,0,0,-1,552,505,0,0
-665,519,0,0,0,0,0,0,0,0,0,-1,559,505,0,0
-658,519,0,0,0,0,0,0,0,0,0,-1,566,505,0,0
-651,519,0,0,0,0,0,0,0,0,0,-1,573,505,0,0
-644,519,0,0,0,0,0,0,0,0,0,-1,580,505,0,0
-637,519,0,0,0,0,0,0,0,0,0,-1,587,505,0,0
-630,519,0,0,0,0,0,0,0,0,0,-1,594,505,0,0
-623,519,0,0,0,0,0,0,0,0,0,-1,601,505,0,0
-616,519,0,0,0,0,0,0,0,0,0,-1,608,505,0,0
-609,519,0,0,0,0,0,0,0,0,0,-1,615,505,0,0
-602,519,0,0,0,0,0,0,0,0,0,-1,622,505,0,0
-595,519,0,0,0,0,0,0,0,0,0,-1,629,505,0,0
-588,519,0,0,0,0,0,0,0,0,0,-1,636,505,0,0
-581,519,0,0,0,0,0,0,0,0,0,-1,643,505,0,0
-574,519,0,0,0,0,0,0,0,0,0,-1,650,505,0,0
-567,519,0,0,0,0,0,0,0,0,0,-1,657,505,0,0
-560,519,0,0,0,0,0,0,0,0,0,-1,664,505,0,0
-553,519,0,0,0,0,0,0,0,0,0,-1,671,505,0,0
-546,519,0,0,0,0,0,0,0,0,0,-1,678,505,0,0
-539,519,0,0,0,0,0,0,0,0,0,-1,685,505,0,0
-532,519,0,0,0,0,0,0,0,0,0,-1,692,505,0,0
-525,519,0,0,0,0,0,0,0,0,0,-1,699,505,0,0
-518,519,0,0,0,0,0,0,0,0,0,-1,706,505,0,0
-511,519,0,0,0,0,0,0,0,0,0,-1,713,505,0,0
-504,519,0,0,0,0,0,0,0,0,0,-1,720,505,0,0
-497,519,0,0,0,0,0,0,0,0,0,-1,727,505,0,0
-490,519,0,0,0,0,0,0,0,0,0,-1,734,505,0,0
-483,519,0,0,0,0,0,0,0,0,0,-1,741,505,0,0
-476,519,0,0,0,0,0,0,0,0,0,-1,748,505,0,0
-469,519,0,0,0,0,0,0,0,0,0,-1,755,505,0,0
-462,519,0,0,0,0,0,0,0,0,0,-1,762,505,0,0
-455,519,0,0,0,0,0,0,0,0,0,-1,769,505,0,0
-448,519,0,0,0,0,0,0,0,0,0,-1,776,505,0,0
-441,519,4.284,-2.99121,0,0,0,0,0,0,0,-1,783,505,4.284,2.99121
-434,519,2.82556,-3.57144,0,0,0,0,0,0,0,-1,790,505,2.82559,3.57145
-427,519,1.48297,-3.94443,0,0,0,0,0,0,0,-1,797,505,1.48294,3.94442
-420,519,0.588867,-5.39984,0,0,0,0,0,0,0,-1,804,505,0.588893,5.39985
-413,519,0.352783,-5.47086,0,0,0,0,0,0,0,-1,811,505,0.352798,5.47085
-406,519,0.623901,-6.12128,0,0,0,0,0,0,0,-1,818,505,0.623875,6.12128
-399,519,-0.279846,-5.80869,0,0,0,0,0,0,0,-1,825,505,-0.279846,5.80869
-392,519,-0.202454,-5.8804,0,0,0,0,0,0,0,-1,832,505,-0.202444,5.88039
-385,519,-0.109802,-6.11536,0.00115183,0.00756217,-0.00567913,0.0108782,-0.00216417,-1.0423,0.00807081,0.0456558,839,505,-0.10978,6.11536
-378,519,-0.00775146,-6.50797,0.000227997,0.00510782,-0.00393011,0.00729381,-0.00195799,-1.06319,0.00562986,0.0349759,846,505,-0.00774742,6.50796
-371,519,0.00714111,-6.83963,-0.000447957,0.00287193,-0.00237354,0.00410838,-0.00168441,-1.09054,0.00344068,0.0193843,853,505,0.00714007,6.83963
-364,519,-0.0255737,-7.09656,-0.000651588,0.00170776,-0.00164849,0.0025552,-0.00149902,-1.09596,0.00236703,0.0123108,860,505,-0.0255985,7.09655
-357,519,-0.0111694,-7.35364,-0.000725493,0.000868662,-0.00114211,0.00146434,-0.00132117,-1.09005,0.00160892,0.00978862,867,505,-0.0111964,7.35366
-350,519,-0.0209351,-7.57855,-0.000613792,0.000267903,-0.000896427,0.000826019,-0.00117191,-1.01392,0.00115925,0.0108715,874,505,-0.0209622,7.57854
-343,519,-0.0462646,-7.81354,-0.000389497,-7.06355e-06,-0.000778889,0.000603737,-0.0010003,-0.905767,0.000935476,0.0131945,881,505,-0.0462701,7.81357
-336,519,-0.0650024,-8.0719,-0.000116506,-1.41058e-05,-0.000786165,0.000722524,-0.000853136,-0.817915,0.000910749,0.0132283,888,505,-0.0649884,8.07191
-329,519,-0.0548706,-8.30066,0.000174681,-4.5441e-06,-0.000794289,0.000884397,-0.00071426,-0.729225,0.000924725,0.012452,895,505,-0.054893,8.30068
-322,519,-0.0425415,-8.53162,0.000486019,0.000202042,-0.000872108,0.00122762,-0.000539561,-0.704701,0.00104574,0.0107434,902,505,-0.0425637,8.53161
-315,519,-0.0314941,-8.7785,0.000808238,0.000499808,-0.000911545,0.00157852,-0.000270475,-0.701602,0.00115313,0.00855766,909,505,-0.0315168,8.77851
-308,519,-0.0268555,-9.01068,0.00121678,0.000672931,-0.000920001,0.0019042,-1.44902e-05,-0.641704,0.00127433,0.00733631,916,505,-0.0268858,9.01067
-301,519,-0.0460815,-9.22852,0.00166863,0.000749331,-0.000880255,0.00220202,0.00021594,-0.544783,0.00140159,0.0117059,923,505,-0.0460896,9.22851
-294,519,-0.0366211,-9.42035,0.0021355,0.000639574,-0.000769939,0.00246096,0.000314105,-0.399938,0.00154661,0.0146564,930,505,-0.0365916,9.42032
-287,519,-0.0611572,-9.64063,0.00250705,0.000359571,-0.000601811,0.0026642,0.00020242,-0.255427,0.00171265,0.0105913,937,505,-0.0611596,9.64063
-280,519,-0.0713501,-9.8559,0.00290237,-0.000198019,-0.000603283,0.00301562,-0.000311271,-0.185566,0.00212179,0.014861,944,505,-0.0713682,9.85588
-273,519,-0.0195923,-10.0657,0.00350225,-0.000655233,-0.000528485,0.00356837,-0.00072136,-0.12448,0.00265227,0.0216452,951,505,-0.0196196,10.0657
-266,519,-0.0101929,-10.2909,0.00445178,-0.00140794,-0.000392838,0.004478,-0.00143416,-0.0666429,0.00356099,0.0281081,958,505,-0.0101724,10.2909
-259,519,0.0909424,-10.3961,0.00523811,-0.00245523,-0.000230134,0.00524499,-0.00246211,-0.0298778,0.00454536,0.0453201,965,505,0.0909541,10.3961
-252,519,0.227356,-10.4645,0,0,0,0,0,0,0,-1,972,505,0.227369,10.4645
-245,519,0.0841064,-10.6396,0,0,0,0,0,0,0,-1,979,505,0.0841002,10.6396
-238,519,0.3797,-10.0718,0,0,0,0,0,0,0,-1,986,505,0.379674,10.0719
-231,519,0.330322,-10.0452,0,0,0,0,0,0,0,-1,993,505,0.330339,10.0452
-224,519,-0.0494995,-7.97394,0,0,0,0,0,0,0,-1,1000,505,-0.0495123,7.97392
-217,519,-2.97125,-4.84393,0,0,0,0,0,0,0,-1,1007,505,-2.97128,4.84393
-210,519,-2.14398,-4.74774,0,0,0,0,0,0,0,-1,1014,505,-2.14397,4.74775
-203,519,-0.513611,-5.39017,0,0,0,0,0,0,0,-1,1021,505,-0.513585,5.39017
-196,519,-0.374023,-5.41635,0,0,0,0,0,0,0,-1,1028,505,-0.374047,5.41635
-189,519,-0.234497,-5.44254,0,0,0,0,0,0,0,-1,1035,505,-0.234508,5.44253
-182,519,2.76697,-1.19659,0,0,0,0,0,0,0,-1,1042,505,2.76696,1.19661
-175,519,2.31323,-0.960938,0,0,0,0,0,0,0,-1,1049,505,2.31319,0.960941
-168,519,2.01074,-0.721405,0,0,0,0,0,0,0,-1,1056,505,2.01072,0.721407
-161,519,2.32056,-0.522339,0,0,0,0,0,0,0,-1,1063,505,2.32057,0.522328
-154,519,2.55566,0.116669,0,0,0,0,0,0,0,-1,1070,505,2.55563,-0.116661
-147,519,-0.55127,-6.14001,0,0,0,0,0,0,0,-1,1077,505,-0.551252,6.14001
-140,519,0.240601,-7.53503,0,0,0,0,0,0,0,-1,1084,505,0.240653,7.53501
-133,519,2.70911,-4.4516,0,0,0,0,0,0,0,-1,1091,505,2.70915,4.45161
-126,519,0,0,0,0,0,0,0,0,0,-1,1098,505,0,0
-119,519,0,0,0,0,0,0,0,0,0,-1,1105,505,0,0
-112,519,0,0,0,0,0,0,0,0,0,-1,1112,505,0,0
-105,519,0,0,0,0,0,0,0,0,0,-1,1119,505,0,0
-98,519,0,0,0,0,0,0,0,0,0,-1,1126,505,0,0
-91,519,0,0,0,0,0,0,0,0,0,-1,1133,505,0,0
-84,519,0,0,0,0,0,0,0,0,0,-1,1140,505,0,0
-77,519,0,0,0,0,0,0,0,0,0,-1,1147,505,0,0
-70,519,0,0,0,0,0,0,0,0,0,-1,1154,505,0,0
-63,519,0,0,0,0,0,0,0,0,0,-1,1161,505,0,0
-56,519,0,0,0,0,0,0,0,0,0,-1,1168,505,0,0
-49,519,0,0,0,0,0,0,0,0,0,-1,1175,505,0,0
-42,519,0,0,0,0,0,0,0,0,0,-1,1182,505,0,0
-35,519,0,0,0,0,0,0,0,0,0,-1,1189,505,0,0
-28,519,0,0,0,0,0,0,0,0,0,-1,1196,505,0,0
-21,519,0,0,0,0,0,0,0,0,0,-1,1203,505,0,0
-14,519,0,0,0,0,0,0,0,0,0,-1,1210,505,0,0
-7,519,0,0,0,0,0,0,0,0,0,-1,1217,505,0,0
0,519,0,0,0,0,0,0,0,0,0,-1,1224,505,0,0
7,519,0,0,0,0,0,0,0,0,0,-1,1231,505,0,0
14,519,0,0,0,0,0,0,0,0,0,-1,1238,505,0,0
21,519,0,0,0,0,0,0,0,0,0,-1,1245,505,0,0
28,519,0,0,0,0,0,0,0,0,0,-1,1252,505,0,0
35,519,0,0,0,0,0,0,0,0,0,-1,1259,505,0,0
42,519,0,0,0,0,0,0,0,0,0,-1,1266,505,0,0
49,519,0,0,0,0,0,0,0,0,0,-1,1273,505,0,0
56,519,0,0,0,0,0,0,0,0,0,-1,1280,505,0,0
63,519,0,0,0,0,0,0,0,0,0,-1,1287,505,0,0
70,519,0,0,0,0,0,0,0,0,0,-1,1294,505,0,0
77,519,0,0,0,0,0,0,0,0,0,-1,1301,505,0,0
84,519,0,0,0,0,0,0,0,0,0,-1,1308,505,0,0
91,519,0,0,0,0,0,0,0,0,0,-1,1315,505,0,0
98,519,0,0,0,0,0,0,0,0,0,-1,1322,505,0,0
105,519,0,0,0,0,0,0,0,0,0,-1,1329,505,0,0
112,519,0,0,0,0,0,0,0,0,0,-1,1336,505,0,0
119,519,0,0,0,0,0,0,0,0,0,-1,1343,505,0,0
126,519,0,0,0,0,0,0,0,0,0,-1,1350,505,0,0
133,519,0,0,0,0,0,0,0,0,0,-1,1357,505,0,0
140,519,0,0,0,0,0,0,0,0,0,-1,1364,505,0,0
147,519,0,0,0,0,0,0,0,0,0,-1,1371,505,0,0
154,519,0,0,0,0,0,0,0,0,0,-1,1378,505,0,0
161,519,0,0,0,0,0,0,0,0,0,-1,1385,505,0,0
168,519,0,0,0,0,0,0,0,0,0,-1,1392,505,0,0
175,519,0,0,0,0,0,0,0,0,0,-1,1399,505,0,0
182,519,0,0,0,0,0,0,0,0,0,-1,1406,505,0,0
189,519,0,0,0,0,0,0,0,0,0,-1,1413,505,0,0
196,519,0,0,0,0,0,0,0,0,0,-1,1420,505,0,0
203,519,0,0,0,0,0,0,0,0,0,-1,1427,505,0,0
210,519,0,0,0,0,0,0,0,0,0,-1,1434,505,0,0
217,519,0,0,0,0,0,0,0,0,0,-1,1441,505,0,0
224,519,0,0,0,0,0,0,0,0,0,-1,1448,505,0,0
231,519,0,0,0,0,0,0,0,0,0,-1,1455,505,0,0
238,519,0,0,0,0,0,0,0,0,0,-1,1462,505,0,0
245,519,0,0,0,0,0,0,0,0,0,-1,1469,505,0,0
252,519,5.26208,0.0938416,0,0,0,0,0,0,0,-1,1476,505,5.26207,-0.0938493
259,519,6.14246,-1.36441,0,0,0,0,0,0,0,-1,1483,505,6.14241,1.36441
266,519,5.31909,-0.400787,0,0,0,0,0,0,0,-1,1490,505,5.31912,0.400773
273,519,4.02393,0.325531,0,0,0,0,0,0,0,-1,1497,505,4.0239,-0.325522
280,519,4.68848,0.53006,0,0,0,0,0,0,0,-1,1504,505,4.68842,-0.530073
287,519,7.9519,-3.80801,0,0,0,0,0,0,0,-1,1511,505,7.95193,3.808
294,519,6.92273,-3.38889,0,0,0,0,0,0,0,-1,1518,505,6.92268,3.38888
301,519,5.35669,-2.92661,0,0,0,0,0,0,0,-1,1525,505,5.35675,2.9266
308,519,7.37549,-5.64529,0,0,0,0,0,0,0,-1,1532,505,7.3755,5.64529
315,519,6.30029,-4.53754,0,0,0,0,0,0,0,-1,1539,505,6.30024,4.53753
322,519,5.84302,-5.45117,0,0,0,0,0,0,0,-1,1546,505,5.84303,5.45116
329,519,4.92407,0.62384,0,0,0,0,0,0,0,-1,1553,505,4.92403,-0.623832
336,519,3.10095,-0.329285,0,0,0,0,0,0,0,-1,1560,505,3.1009,0.329283
343,519,2.49146,-2.31119,0,0,0,0,0,0,0,-1,1567,505,2.49145,2.31119
350,519,3.47729,-2.22516,0,0,0,0,0,0,0,-1,1574,505,3.47726,2.22515
357,519,4.51917,-4.51691,0,0,0,0,0,0,0,-1,1581,505,4.51914,4.51691
364,519,3.54626,-7.20673,0,0,0,0,0,0,0,-1,1588,505,3.54622,7.20675
371,519,5.349,-8.20068,0,0,0,0,0,0,0,-1,1595,505,5.34898,8.20068
378,519,6.44434,-9.54065,0,0,0,0,0,0,0,-1,1602,505,6.44428,9.54065
385,519,6.17456,-9.15991,0,0,0,0,0,0,0,-1,1609,505,6.17459,9.15989
392,519,5.92615,-8.89362,-0.00747382,-0.00356915,-0.00756414,0.00229055,-0.0133335,-0.911694,0.0097427,0.0491305,1616,505,5.92612,8.89362
399,519,5.71106,-8.85065,-0.00638027,-0.00285774,-0.00648302,0.002099,-0.011337,-0.918034,0.00834612,0.0403956,1623,505,5.71101,8.85063
406,519,5.67175,-8.71362,-0.00521596,-0.00213273,-0.00553878,0.00207497,-0.00942367,-0.921128,0.00707625,0.0245213,1630,505,5.67174,8.71365
413,519,5.703,-8.46198,-0.0040916,-0.00136868,-0.00452451,0.00199477,-0.00745505,-0.931543,0.00575145,0.0138821,1637,505,5.70302,8.462
420,519,5.65833,-8.22821,-0.00314968,-0.000914398,-0.0035283,0.00166904,-0.00573313,-0.938781,0.00448322,0.0148555,1644,505,5.65833,8.22822
427,519,5.66431,-8.01184,-0.00242922,-0.000593759,-0.00269862,0.00133891,-0.00436188,-0.949301,0.00344215,0.0131757,1651,505,5.66432,8.01183
434,519,5.67773,-7.73352,-0.00182137,-0.000359346,-0.00197187,0.00101265,-0.00319337,-0.962905,0.00253481,0.0117164,1658,505,5.67768,7.73353
441,519,5.65784,-7.47308,-0.00122725,-0.000288251,-0.00131059,0.000634392,-0.0021499,-0.957395,0.00168502,0.0115658,1665,505,5.65788,7.4731
448,519,5.64539,-7.24347,-0.000588701,-0.00019115,-0.000686869,0.000325128,-0.00110498,-0.926247,0.000865626,0.00942116,1672,505,5.64544,7.24346
455,519,5.64148,-7.01025,-9.39639e-05,-0.000303363,-0.000280047,0.000100316,-0.000497643,-0.606511,0.000369765,0.0109338,1679,505,5.64144,7.01025
462,519,5.65771,-6.74103,0.000415154,-0.000441382,0.000180938,0.000451808,-0.000478035,0.19987,0.000536916,0.0104634,1686,505,5.65775,6.74102
469,519,5.68359,-6.46475,0.000762552,-0.000662189,0.000366589,0.000851343,-0.00075098,0.237631,0.000925706,0.0101902,1693,505,5.68358,6.46477
476,519,5.66785,-6.21146,0.000870198,-0.000904317,0.00048759,0.000995348,-0.00102947,0.251248,0.00116908,0.0123771,1700,505,5.66779,6.21145
483,519,5.65674,-5.94934,0.0007356,-0.000982396,0.000494806,0.000867919,-0.00111472,0.261303,0.00114763,0.0138934,1707,505,5.65679,5.94934
490,519,5.6543,-5.66165,0.000444963,-0.00119873,0.000512944,0.000591901,-0.00134567,0.278989,0.00114652,0.0114434,1714,505,5.6543,5.66166
497,519,5.65381,-5.43246,-2.08848e-05,-0.00115852,0.000612811,0.000246415,-0.00142582,0.411307,0.00104244,0.0139619,1721,505,5.6538,5.43245
504,519,5.63635,-5.17004,-0.000337839,0.000372715,0.00104494,0.00112112,-0.00108624,0.949267,0.00127448,0.0142067,1728,505,5.63634,5.17004
511,519,5.66211,-4.90997,-0.000849328,0.00185496,0.00145407,0.00248842,-0.00148278,1.15994,0.00231715,0.0186046,1735,505,5.66216,4.90998
518,519,5.60645,-4.36859,0,0,0,0,0,0,0,-1,1742,505,5.60647,4.3686
525,519,5.76794,-4.43701,0,0,0,0,0,0,0,-1,1749,505,5.76797,4.43703
532,519,3.5155,-2.86511,0,0,0,0,0,0,0,-1,1756,505,3.51554,2.8651
539,519,3.30005,0.0229797,0,0,0,0,0,0,0,-1,1763,505,3.30008,-0.0229869
546,519,4.62024,-2.89774,0,0,0,0,0,0,0,-1,1770,505,4.62023,2.89775
553,519,4.14136,0.0667419,0,0,0,0,0,0,0,-1,1777,505,4.14141,-0.0667503
560,519,3.77856,0.279724,0,0,0,0,0,0,0,-1,1784,505,3.77861,-0.279731
567,519,0,0,0,0,0,0,0,0,0,-1,1791,505,0,0
574,519,0,0,0,0,0,0,0,0,0,-1,1798,505,0,0
581,519,0,0,0,0,0,0,0,0,0,-1,1805,505,0,0
588,519,0,0,0,0,0,0,0,0,0,-1,1812,505,0,0
595,519,0,0,0,0,0,0,0,0,0,-1,1819,505,0,0
602,519,0,0,0,0,0,0,0,0,0,-1,1826,505,0,0
609,519,0,0,0,0,0,0,0,0,0,-1,1833,505,0,0
616,519,0,0,0,0,0,0,0,0,0,-1,1840,505,0,0
623,519,0,0,0,0,0,0,0,0,0,-1,1847,505,0,0
630,519,0,0,0,0,0,0,0,0,0,-1,1854,505,0,0
637,519,0,0,0,0,0,0,0,0,0,-1,1861,505,0,0
644,519,0,0,0,0,0,0,0,0,0,-1,1868,505,0,0
651,519,0,0,0,0,0,0,0,0,0,-1,1875,505,0,0
658,519,0,0,0,0,0,0,0,0,0,-1,1882,505,0,0
665,519,0,0,0,0,0,0,0,0,0,-1,1889,505,0,0
672,519,0,0,0,0,0,0,0,0,0,-1,1896,505,0,0
679,519,0,0,0,0,0,0,0,0,0,-1,1903,505,0,0
686,519,0,0,0,0,0,0,0,0,0,-1,1910,505,0,0
693,519,0,0,0,0,0,0,0,0,0,-1,1917,505,0,0
700,519,0,0,0,0,0,0,0,0,0,-1,1924,505,0,0
707,519,0,0,0,0,0,0,0,0,0,-1,1931,505,0,0
714,519,0,0,0,0,0,0,0,0,0,-1,1938,505,0,0
721,519,0,0,0,0,0,0,0,0,0,-1,1945,505,0,0
728,519,0,0,0,0,0,0,0,0,0,-1,1952,505,0,0
735,519,0,0,0,0,0,0,0,0,0,-1,1959,505,0,0
742,519,0,0,0,0,0,0,0,0,0,-1,1966,505,0,0
749,519,0,0,0,0,0,0,0,0,0,-1,1973,505,0,0
756,519,0,0,0,0,0,0,0,0,0,-1,1980,505,0,0
763,519,0,0,0,0,0,0,0,0,0,-1,1987,505,0,0
770,519,0,0,0,0,0,0,0,0,0,-1,1994,505,0,0
777,519,0,0,0,0,0,0,0,0,0,-1,2001,505,0,0
784,519,0,0,0,0,0,0,0,0,0,-1,2008,505,0,0
791,519,0,0,0,0,0,0,0,0,0,-1,2015,505,0,0
798,519,0,0,0,0,0,0,0,0,0,-1,2022,505,0,0
805,519,0,0,0,0,0,0,0,0,0,-1,2029,505,0,0
812,519,0,0,0,0,0,0,0,0,0,-1,2036,505,0,0
-700,512,0,0,0,0,0,0,0,0,0,-1,524,512,0,0
-693,512,0,0,0,0,0,0,0,0,0,-1,531,512,0,0
-686,512,0,0,0,0,0,0,0,0,0,-1,538,512,0,0
-679,512,0,0,0,0,0,0,0,0,0,-1,545,512,0,0
-672,512,0,0,0,0,0,0,0,0,0,-1,552,512,0,0
-665,512,0,0,0,0,0,0,0,0,0,-1,559,512,0,0
-658,512,0,0,0,0,0,0,0,0,0,-1,566,512,0,0
-651,512,0,0,0,0,0,0,0,0,0,-1,573,512,0,0
-644,512,0,0,0,0,0,0,0,0,0,-1,580,512,0,0
-637,512,0,0,0,0,0,0,0,0,0,-1,587,512,0,0
-630,512,0,0,0,0,0,0,0,0,0,-1,594,512,0,0
-623,512,0,0,0,0,0,0,0,0,0,-1,601,512,0,0
-616,512,0,0,0,0,0,0,0,0,0,-1,608,512,0,0
-609,512,0,0,0,0,0,0,0,0,0,-1,615,512,0,0
-602,512,0,0,0,0,0,0,0,0,0,-1,622,512,0,0
-595,512,0,0,0,0,0,0,0,0,0,-1,629,512,0,0
-588,512,0,0,0,0,0,0,0,0,0,-1,636,512,0,0
-581,512,0,0,0,0,0,0,0,0,0,-1,643,512,0,0
-574,512,0,0,0,0,0,0,0,0,0,-1,650,512,0,0
-567,512,0,0,0,0,0,0,0,0,0,-1,657,512,0,0
-560,512,0,0,0,0,0,0,0,0,0,-1,664,512,0,0
-553,512,0,0,0,0,0,0,0,0,0,-1,671,512,0,0
-546,512,0,0,0,0,0,0,0,0,0,-1,678,512,0,0
-539,512,0,0,0,0,0,0,0,0,0,-1,685,512,0,0
-532,512,0,0,0,0,0,0,0,0,0,-1,692,512,0,0
-525,512,0,0,0,0,0,0,0,0,0,-1,699,512,0,0
-518,512,0,0,0,0,0,0,0,0,0,-1,706,512,0,0
-511,512,0,0,0,0,0,0,0,0,0,-1,713,512,0,0
-504,512,0,0,0,0,0,0,0,0,0,-1,720,512,0,0
-497,512,0,0,0,0,0,0,0,0,0,-1,727,512,0,0
-490,512,0,0,0,0,0,0,0,0,0,-1,734,512,0,0
-483,512,0,0,0,0,0,0,0,0,0,-1,741,512,0,0
-476,512,0,0,0,0,0,0,0,0,0,-1,748,512,0,0
-469,512,0,0,0,0,0,0,0,0,0,-1,755,512,0,0
-462,512,0,0,0,0,0,0,0,0,0,-1,762,512,0,0
-455,512,0,0,0,0,0,0,0,0,0,-1,769,512,0,0
-448,512,5.08636,-2.19104,0,0,0,0,0,0,0,-1,776,512,5.08634,2.19104
-441,512,3.90833,-3.026,0,0,0,0,0,0,0,-1,783,512,3.90832,3.026
-434,512,2.5174,-3.57007,0,0,0,0,0,0,0,-1,790,512,2.51737,3.57006
-427,512,1.18066,-4.03986,0,0,0,0,0,0,0,-1,797,512,1.18067,4.03988
-420,512,0.217102,-4.72491,0,0,0,0,0,0,0,-1,804,512,0.217102,4.72489
-413,512,-0.207214,-5.28107,0,0,0,0,0,0,0,-1,811,512,-0.207227,5.28108
-406,512,-0.446594,-5.07867,0,0,0,0,0,0,0,-1,818,512,-0.44657,5.07865
-399,512,-0.341797,-5.61761,0,0,0,0,0,0,0,-1,825,512,-0.341825,5.6176
-392,512,-0.292969,-6.20544,0,0,0,0,0,0,0,-1,832,512,-0.292993,6.20546
-385,512,-0.183472,-6.34015,0.0011735,0.00673497,-0.00496217,0.00964243,-0.00173396,-1.04079,0.00707744,0.0179868,839,512,-0.18348,6.34015
-378,512,-0.236084,-6.59009,0.000407888,0.00456828,-0.00346226,0.0065272,-0.00155103,-1.05591,0.00495015,0.0152949,846,512,-0.236093,6.59009
-371,512,-0.258728,-6.85864,-0.000189218,0.00255693,-0.00211022,0.00370147,-0.00133375,-1.07382,0.00301232,0.0119727,853,512,-0.258731,6.85864
-364,512,-0.243835,-7.13556,-0.000341251,0.00155382,-0.00148419,0.00236715,-0.00115458,-1.06949,0.00207305,0.00893176,860,512,-0.243854,7.13557
-357,512,-0.242065,-7.36261,-0.00033075,0.000815103,-0.00106888,0.00145492,-0.000970568,-1.03142,0.00140963,0.0102941,867,512,-0.242087,7.3626
-350,512,-0.248291,-7.5993,-0.000159819,0.000288906,-0.000896186,0.000988388,-0.0008593,-0.908053,0.00106763,0.010774,874,512,-0.24827,7.59929
-343,512,-0.2854,-7.83966,8.86559e-05,4.41832e-05,-0.00082847,0.000895188,-0.000762349,-0.771981,0.000958004,0.0109598,881,512,-0.285425,7.83968
-336,512,-0.285278,-8.07391,0.000376439,4.667e-05,-0.000873914,0.00110089,-0.000677778,-0.692157,0.00103655,0.0109649,888,512,-0.285284,8.07393
-329,512,-0.268188,-8.30066,0.000702717,0.000115544,-0.000954257,0.00140753,-0.000589267,-0.636163,0.00118468,0.0119478,895,512,-0.268211,8.30067
-322,512,-0.268433,-8.54199,0.00104306,0.000357549,-0.0010948,0.0018475,-0.000446897,-0.633694,0.00140454,0.0105092,902,512,-0.268417,8.54202
-315,512,-0.256958,-8.76721,0.00141678,0.000682861,-0.00119993,0.00230461,-0.000204964,-0.637005,0.00160908,0.00990623,909,512,-0.256951,8.76719
-308,512,-0.258911,-8.99536,0.00189574,0.000888267,-0.0012637,0.0027524,3.16036e-05,-0.595741,0.00182449,0.0103821,916,512,-0.258905,8.99534
-301,512,-0.253967,-9.2218,0.00241222,0.000985802,-0.00126234,0.0031489,0.000249126,-0.528258,0.00202135,0.0149233,923,512,-0.253985,9.22178
-294,512,-0.249634,-9.42419,0.00292728,0.000880878,-0.00118323,0.00346836,0.000339795,-0.428901,0.00220771,0.014914,930,512,-0.249629,9.42421
-287,512,-0.334229,-9.59094,0.00329562,0.000644772,-0.00103093,0.00364935,0.000291041,-0.330532,0.00234192,0.0217091,937,512,-0.334253,9.59092
-280,512,-0.261536,-9.87042,0.00375229,-5.75825e-05,-0.00108083,0.00403755,-0.000342846,-0.258046,0.00281296,0.0299695,944,512,-0.261533,9.87043
-273,512,-0.126465,-10.1038,0,0,0,0,0,0,0,-1,951,512,-0.126455,10.1038
-266,512,-0.156738,-10.3972,0,0,0,0,0,0,0,-1,958,512,-0.156756,10.3972
-259,512,-0.0824585,-10.5383,0,0,0,0,0,0,0,-1,965,512,-0.0824825,10.5383
-252,512,1.45941,-3.43475,0,0,0,0,0,0,0,-1,972,512,1.45938,3.43475
-245,512,4.12927,-11.272,0,0,0,0,0,0,0,-1,979,512,4.1293,11.272
-238,512,0.227051,-8.92969,0,0,0,0,0,0,0,-1,986,512,0.227073,8.92968
-231,512,-2.54437,-10.169,0,0,0,0,0,0,0,-1,993,512,-2.54439,10.169
-224,512,-4.84601,-7.52783,0,0,0,0,0,0,0,-1,1000,512,-4.84602,7.52786
-217,512,-7.37274,-3.89563,0,0,0,0,0,0,0,-1,1007,512,-7.37274,3.89561
-210,512,-3.76642,-1.94702,0,0,0,0,0,0,0,-1,1014,512,-3.76641,1.94702
-203,512,-2.48328,-5.19061,0,0,0,0,0,0,0,-1,1021,512,-2.48328,5.19059
-196,512,-1.14929,-4.63202,0,0,0,0,0,0,0,-1,1028,512,-1.14934,4.632
-189,512,0.197998,4.55505,0,0,0,0,0,0,0,-1,1035,512,0.197996,-4.55506
-182,512,2.73938,0.0778503,0,0,0,0,0,0,0,-1,1042,512,2.73944,-0.077852
-175,512,2.29565,0.209808,0,0,0,0,0,0,0,-1,1049,512,2.29565,-0.209813
-168,512,2.09399,-0.302856,0,0,0,0,0,0,0,-1,1056,512,2.09403,0.302826
-161,512,2.76636,0.0921021,0,0,0,0,0,0,0,-1,1063,512,2.76633,-0.0921104
-154,512,3.41382,0.466187,0,0,0,0,0,0,0,-1,1070,512,3.41382,-0.466178
-147,512,0,0,0,0,0,0,0,0,0,-1,1077,512,0,0
-140,512,0,0,0,0,0,0,0,0,0,-1,1084,512,0,0
-133,512,0,0,0,0,0,0,0,0,0,-1,1091,512,0,0
-126,512,0,0,0,0,0,0,0,0,0,-1,1098,512,0,0
-119,512,0,0,0,0,0,0,0,0,0,-1,1105,512,0,0
-112,512,0,0,0,0,0,0,0,0,0,-1,1112,512,0,0
-105,512,0,0,0,0,0,0,0,0,0,-1,1119,512,0,0
-98,512,0,0,0,0,0,0,0,0,0,-1,1126,512,0,0
-91,512,0,0,0,0,0,0,0,0,0,-1,1133,512,0,0
-84,512,0,0,0,0,0,0,0,0,0,-1,1140,512,0,0
-77,512,0,0,0,0,0,0,0,0,0,-1,1147,512,0,0
-70,512,0,0,0,0,0,0,0,0,0,-1,1154,512,0,0
-63,512,0,0,0,0,0,0,0,0,0,-1,1161,512,0,0
-56,512,0,0,0,0,0,0,0,0,0,-1,1168,512,0,0
-49,512,0,0,0,0,0,0,0,0,0,-1,1175,512,0,0
-42,512,0,0,0,0,0,0,0,0,0,-1,1182,512,0,0
-35,512,0,0,0,0,0,0,0,0,0,-1,1189,512,0,0
-28,512,0,0,0,0,0,0,0,0,0,-1,1196,512,0,0
-21,512,0,0,0,0,0,0,0,0,0,-1,1203,512,0,0
-14,512,0,0,0,0,0,0,0,0,0,-1,1210,512,0,0
-7,512,0,0,0,0,0,0,0,0,0,-1,1217,512,0,0
0,512,0,0,0,0,0,0,0,0,0,-1,1224,512,0,0
7,512,0,0,0,0,0,0,0,0,0,-1,1231,512,0,0
14,512,0,0,0,0,0,0,0,0,0,-1,1238,512,0,0
21,512,0,0,0,0,0,0,0,0,0,-1,1245,512,0,0
28,512,0,0,0,0,0,0,0,0,0,-1,1252,512,0,0
35,512,0,0,0,0,0,0,0,0,0,-1,1259,512,0,0
42,512,0,0,0,0,0,0,0,0,0,-1,1266,512,0,0
49,512,0,0,0,0,0,0,0,0,0,-1,1273,512,0,0
56,512,0,0,0,0,0,0,0,0,0,-1,1280,512,0,0
63,512,0,0,0,0,0,0,0,0,0,-1,1287,512,0,0
70,512,0,0,0,0,0,0,0,0,0,-1,1294,512,0,0
77,512,0,0,0,0,0,0,0,0,0,-1,1301,512,0,0
84,512,0,0,0,0,0,0,0,0,0,-1,1308,512,0,0
91,512,0,0,0,0,0,0,0,0,0,-1,1315,512,0,0
98,512,0,0,0,0,0,0,0,0,0,-1,1322,512,0,0
105,512,0,0,0,0,0,0,0,0,0,-1,1329,512,0,0
112,512,0,0,0,0,0,0,0,0,0,-1,1336,512,0,0
119,512,0,0,0,0,0,0,0,0,0,-1,1343,512,0,0
126,512,0,0,0,0,0,0,0,0,0,-1,1350,512,0,0
133,512,0,0,0,0,0,0,0,0,0,-1,1357,512,0,0
140,512,0,0,0,0,0,0,0,0,0,-1,1364,512,0,0
147,512,0,0,0,0,0,0,0,0,0,-1,1371,512,0,0
154,512,0,0,0,0,0,0,0,0,0,-1,1378,512,0,0
161,512,0,0,0,0,0,0,0,0,0,-1,1385,512,0,0
168,512,0,0,0,0,0,0,0,0,0,-1,1392,512,0,0
175,512,0,0,0,0,0,0,0,0,0,-1,1399,512,0,0
182,512,0,0,0,0,0,0,0,0,0,-1,1406,512,0,0
189,512,0,0,0,0,0,0,0,0,0,-1,1413,512,0,0
196,512,0,0,0,0,0,0,0,0,0,-1,1420,512,0,0
203,512,0,0,0,0,0,0,0,0,0,-1,1427,512,0,0
210,512,0,0,0,0,0,0,0,0,0,-1,1434,512,0,0
217,512,0,0,0,0,0,0,0,0,0,-1,1441,512,0,0
224,512,0,0,0,0,0,0,0,0,0,-1,1448,512,0,0
231,512,0,0,0,0,0,0,0,0,0,-1,1455,512,0,0
238,512,0,0,0,0,0,0,0,0,0,-1,1462,512,0,0
245,512,0,0,0,0,0,0,0,0,0,-1,1469,512,0,0
252,512,0,0,0,0,0,0,0,0,0,-1,1476,512,0,0
259,512,0,0,0,0,0,0,0,0,0,-1,1483,512,0,0
266,512,0,0,0,0,0,0,0,0,0,-1,1490,512,0,0
273,512,4.00745,0.618622,0,0,0,0,0,0,0,-1,1497,512,4.00747,-0.618611
280,512,4.49609,0.649841,0,0,0,0,0,0,0,-1,1504,512,4.49612,-0.649834
287,512,4.77234,0.458069,0,0,0,0,0,0,0,-1,1511,512,4.77233,-0.458083
294,512,8.54956,-2.36273,0,0,0,0,0,0,0,-1,1518,512,8.54952,2.36274
301,512,6.302,-1.69092,0,0,0,0,0,0,0,-1,1525,512,6.30196,1.69093
308,512,8.2439,-6.22754,0,0,0,0,0,0,0,-1,1532,512,8.24394,6.22757
315,512,7.53687,-6.04211,0,0,0,0,0,0,0,-1,1539,512,7.53691,6.04211
322,512,6.82983,-5.85663,0,0,0,0,0,0,0,-1,1546,512,6.82988,5.85666
329,512,4.38147,-0.329651,0,0,0,0,0,0,0,-1,1553,512,4.38144,0.329662
336,512,4.41467,-0.741455,0,0,0,0,0,0,0,-1,1560,512,4.41467,0.741442
343,512,4.44727,-1.21667,0,0,0,0,0,0,0,-1,1567,512,4.44732,1.21666
350,512,4.55469,-1.65082,0,0,0,0,0,0,0,-1,1574,512,4.5547,1.65083
357,512,5.79993,-2.67456,0,0,0,0,0,0,0,-1,1581,512,5.79991,2.67454
364,512,5.18298,-6.80133,0,0,0,0,0,0,0,-1,1588,512,5.18296,6.80132
371,512,5.28467,-7.69269,0,0,0,0,0,0,0,-1,1595,512,5.28464,7.69269
378,512,5.58667,-7.75049,0,0,0,0,0,0,0,-1,1602,512,5.58663,7.7505
385,512,6.27417,-8.75549,0,0,0,0,0,0,0,-1,1609,512,6.27418,8.7555
392,512,6.1499,-8.60498,0,0,0,0,0,0,0,-1,1616,512,6.14994,8.60495
399,512,6.02075,-8.64246,0,0,0,0,0,0,0,-1,1623,512,6.02073,8.64247
406,512,6.09827,-8.57776,-0.00709421,-0.00312738,-0.00756292,0.00270788,-0.0129295,-0.913638,0.00964977,0.0431346,1630,512,6.09824,8.57777
413,512,5.85803,-8.52063,-0.00555283,-0.00203891,-0.00617275,0.00262206,-0.0102138,-0.924047,0.00783093,0.0347893,1637,512,5.85808,8.52065
420,512,5.91357,-8.27271,-0.00430168,-0.00139177,-0.00488569,0.00225101,-0.00794446,-0.930116,0.00618473,0.0196626,1644,512,5.91356,8.27273
427,512,5.92371,-8.021,-0.00336078,-0.000926082,-0.00379512,0.00184216,-0.00612902,-0.940597,0.0048189,0.0151518,1651,512,5.92372,8.021
434,512,5.92786,-7.74707,-0.00257354,-0.000450084,-0.00280783,0.00149005,-0.00451368,-0.966154,0.00360981,0.0109124,1658,512,5.92782,7.74704
441,512,5.91138,-7.48071,-0.00183447,-0.000181557,-0.00193294,0.0010942,-0.00311023,-0.987419,0.00251873,0.0122475,1665,512,5.91142,7.48071
448,512,5.87646,-7.24701,-0.00107422,8.54165e-05,-0.00112919,0.000774953,-0.00176375,-1.02258,0.00150232,0.00885139,1672,512,5.87649,7.24703
455,512,5.87781,-6.99023,-0.000503423,8.89581e-05,-0.000586027,0.000449392,-0.000863857,-1.01939,0.000770689,0.00859298,1679,512,5.87786,6.99024
462,512,5.91321,-6.70905,5.99461e-05,3.58262e-05,-1.66737e-05,6.84641e-05,2.73082e-05,-0.472304,3.97964e-05,0.00906338,1686,512,5.91318,6.70907
469,512,5.91565,-6.44434,0.000427138,-0.000112571,0.000239993,0.000518418,-0.000203851,0.363448,0.000429983,0.0107341,1693,512,5.91562,6.44432
476,512,5.89038,-6.19104,0.000532148,-0.000293813,0.000414054,0.00070397,-0.000465635,0.393348,0.000679929,0.0136908,1700,512,5.89044,6.19107
483,512,5.90039,-5.93158,0.00039578,-0.000342923,0.000455329,0.000612726,-0.000559869,0.444639,0.000677227,0.0131379,1707,512,5.90038,5.93161
490,512,5.92249,-5.66534,0.000105572,-0.000537158,0.00048062,0.000362368,-0.000793955,0.490712,0.000682928,0.0108851,1714,512,5.92248,5.66535
497,512,5.9209,-5.40533,-0.000350469,-0.000540251,0.00053615,9.91221e-05,-0.000989843,0.697812,0.000695295,0.01188,1721,512,5.92088,5.40535
504,512,5.90967,-5.12579,-0.000649043,0.000895927,0.000906437,0.00131439,-0.00106751,1.13829,0.00137765,0.0120076,1728,512,5.90968,5.12581
511,512,5.89331,-4.85211,-0.00122424,0.00218122,0.00119485,0.00255862,-0.00160164,1.26486,0.00242302,0.0123562,1735,512,5.89326,4.85212
518,512,5.93884,-4.63904,-0.00190719,0.00425938,0.00170987,0.00470176,-0.00234957,1.31763,0.0041459,0.0206173,1742,512,5.93889,4.63906
525,512,6.05676,-4.39899,0,0,0,0,0,0,0,-1,1749,512,6.05675,4.399
532,512,5.16919,-3.64331,0,0,0,0,0,0,0,-1,1756,512,5.16917,3.64328
539,512,4.39929,-3.11737,0,0,0,0,0,0,0,-1,1763,512,4.3993,3.11735
546,512,2.77551,-0.66449,0,0,0,0,0,0,0,-1,1770,512,2.77548,0.664503
553,512,3.927,-0.448853,0,0,0,0,0,0,0,-1,1777,512,3.92704,0.448843
560,512,3.55762,-0.201233,0,0,0,0,0,0,0,-1,1784,512,3.55768,0.201259
567,512,3.09045,0.191193,0,0,0,0,0,0,0,-1,1791,512,3.09045,-0.191203
574,512,0,0,0,0,0,0,0,0,0,-1,1798,512,0,0
581,512,0,0,0,0,0,0,0,0,0,-1,1805,512,0,0
588,512,0,0,0,0,0,0,0,0,0,-1,1812,512,0,0
595,512,0,0,0,0,0,0,0,0,0,-1,1819,512,0,0
602,512,0,0,0,0,0,0,0,0,0,-1,1826,512,0,0
609,512,0,0,0,0,0,0,0,0,0,-1,1833,512,0,0
616,512,0,0,0,0,0,0,0,0,0,-1,1840,512,0,0
623,512,0,0,0,0,0,0,0,0,0,-1,1847,512,0,0
630,512,0,0,0,0,0,0,0,0,0,-1,1854,512,0,0
637,512,0,0,0,0,0,0,0,0,0,-1,1861,512,0,0
644,512,0,0,0,0,0,0,0,0,0,-1,1868,512,0,0
651,512,0,0,0,0,0,0,0,0,0,-1,1875,512,0,0
658,512,0,0,0,0,0,0,0,0,0,-1,1882,512,0,0
665,512,0,0,0,0,0,0,0,0,0,-1,1889,512,0,0
672,512,0,0,0,0,0,0,0,0,0,-1,1896,512,0,0
679,512,0,0,0,0,0,0,0,0,0,-1,1903,512,0,0
686,512,0,0,0,0,0,0,0,0,0,-1,1910,512,0,0
693,512,0,0,0,0,0,0,0,0,0,-1,1917,512,0,0
700,512,0,0,0,0,0,0,0,0,0,-1,1924,512,0,0
707,512,0,0,0,0,0,0,0,0,0,-1,1931,512,0,0
714,512,0,0,0,0,0,0,0,0,0,-1,1938,512,0,0
721,512,0,0,0,0,0,0,0,0,0,-1,1945,512,0,0
728,512,0,0,0,0,0,0,0,0,0,-1,1952,512,0,0
735,512,0,0,0,0,0,0,0,0,0,-1,1959,512,0,0
742,512,0,0,0,0,0,0,0,0,0,-1,1966,512,0,0
749,512,0,0,0,0,0,0,0,0,0,-1,1973,512,0,0
756,512,0,0,0,0,0,0,0,0,0,-1,1980,512,0,0
763,512,0,0,0,0,0,0,0,0,0,-1,1987,512,0,0
770,512,0,0,0,0,0,0,0,0,0,-1,1994,512,0,0
777,512,0,0,0,0,0,0,0,0,0,-1,2001,512,0,0
784,512,0,0,0,0,0,0,0,0,0,-1,2008,512,0,0
791,512,0,0,0,0,0,0,0,0,0,-1,2015,512,0,0
798,512,0,0,0,0,0,0,0,0,0,-1,2022,512,0,0
805,512,0,0,0,0,0,0,0,0,0,-1,2029,512,0,0
812,512,0,0,0,0,0,0,0,0,0,-1,2036,512,0,0
-700,505,0,0,0,0,0,0,0,0,0,-1,524,519,0,0
-693,505,0,0,0,0,0,0,0,0,0,-1,531,519,0,0
-686,505,0,0,0,0,0,0,0,0,0,-1,538,519,0,0
-679,505,0,0,0,0,0,0,0,0,0,-1,545,519,0,0
-672,505,0,0,0,0,0,0,0,0,0,-1,552,519,0,0
-665,505,0,0,0,0,0,0,0,0,0,-1,559,519,0,0
-658,505,0,0,0,0,0,0,0,0,0,-1,566,519,0,0
-651,505,0,0,0,0,0,0,0,0,0,-1,573,519,0,0
-644,505,0,0,0,0,0,0,0,0,0,-1,580,519,0,0
-637,505,0,0,0,0,0,0,0,0,0,-1,587,519,0,0
-630,505,0,0,0,0,0,0,0,0,0,-1,594,519,0,0
-623,505,0,0,0,0,0,0,0,0,0,-1,601,519,0,0
-616,505,0,0,0,0,0,0,0,0,0,-1,608,519,0,0
-609,505,0,0,0,0,0,0,0,0,0,-1,615,519,0,0
-602,505,0,0,0,0,0,0,0,0,0,-1,622,519,0,0
-595,505,0,0,0,0,0,0,0,0,0,-1,629,519,0,0
-588,505,0,0,0,0,0,0,0,0,0,-1,636,519,0,0
-581,505,0,0,0,0,0,0,0,0,0,-1,643,519,0,0
-574,505,0,0,0,0,0,0,0,0,0,-1,650,519,0,0
-567,505,0,0,0,0,0,0,0,0,0,-1,657,519,0,0
-560,505,0,0,0,0,0,0,0,0,0,-1,664,519,0,0
-553,505,0,0,0,0,0,0,0,0,0,-1,671,519,0,0
-546,505,0,0,0,0,0,0,0,0,0,-1,678,519,0,0
-539,505,0,0,0,0,0,0,0,0,0,-1,685,519,0,0
-532,505,0,0,0,0,0,0,0,0,0,-1,692,519,0,0
-525,505,0,0,0,0,0,0,0,0,0,-1,699,519,0,0
-518,505,0,0,0,0,0,0,0,0,0,-1,706,519,0,0
-511,505,0,0,0,0,0,0,0,0,0,-1,713,519,0,0
-504,505,0,0,0,0,0,0,0,0,0,-1,720,519,0,0
-497,505,0,0,0,0,0,0,0,0,0,-1,727,519,0,0
-490,505,0,0,0,0,0,0,0,0,0,-1,734,519,0,0
-483,505,0,0,0,0,0,0,0,0,0,-1,741,519,0,0
-476,505,0,0,0,0,0,0,0,0,0,-1,748,519,0,0
-469,505,0,0,0,0,0,0,0,0,0,-1,755,519,0,0
-462,505,0,0,0,0,0,0,0,0,0,-1,762,519,0,0
-455,505,5.71539,-0.359924,0,0,0,0,0,0,0,-1,769,519,5.71542,0.359905
-448,505,4.6073,-1.80219,0,0,0,0,0,0,0,-1,776,519,4.60731,1.80221
-441,505,3.53064,-3.04553,0,0,0,0,0,0,0,-1,783,519,3.53065,3.0455
-434,505,2.20184,-3.52917,0,0,0,0,0,0,0,-1,790,519,2.20184,3.5292
-427,505,0.672913,-3.76465,0,0,0,0,0,0,0,-1,797,519,0.672911,3.76467
-420,505,-0.390808,-4.38116,0,0,0,0,0,0,0,-1,804,519,-0.390802,4.38114
-413,505,-0.791016,-5.00757,0,0,0,0,0,0,0,-1,811,519,-0.790997,5.00754
-406,505,-0.406372,-5.23914,0,0,0,0,0,0,0,-1,818,519,-0.406364,5.23915
-399,505,-0.389038,-5.66974,0.00387711,0.0111112,-0.00835133,0.0165951,-0.00160681,-0.989759,0.0116361,0.0397436,825,519,-0.389052,5.66972
-392,505,-0.397095,-6.0976,0.00223232,0.00825161,-0.00598386,0.0119401,-0.00145614,-1.0184,0.00848716,0.0199679,832,519,-0.397123,6.09763
-385,505,-0.454346,-6.35382,0.00125235,0.00590179,-0.00430042,0.00846562,-0.00131148,-1.03319,0.00612787,0.00909262,839,519,-0.454374,6.35381
-378,505,-0.49231,-6.60522,0.000670753,0.00401541,-0.00301398,0.00578993,-0.00110377,-1.03868,0.00427563,0.0116447,846,519,-0.492336,6.6052
-371,505,-0.484009,-6.89471,0.000173045,0.0022143,-0.00184842,0.00330515,-0.00091781,-1.03765,0.00256471,0.0141434,853,519,-0.484028,6.89471
-364,505,-0.473755,-7.14197,6.52958e-05,0.00131861,-0.00130981,0.00214395,-0.000760049,-1.00852,0.00173893,0.0138459,860,519,-0.473741,7.14198
-357,505,-0.466431,-7.36267,0.000150478,0.000641769,-0.000970917,0.00139763,-0.000605386,-0.9093,0.00118621,0.0116637,867,519,-0.466427,7.36269
-350,505,-0.493835,-7.60242,0.000368829,0.000161288,-0.000856139,0.00112746,-0.000597346,-0.725089,0.00101138,0.0111941,874,519,-0.493806,7.60243
-343,505,-0.513245,-7.85248,0.000630587,-8.1629e-05,-0.00083422,0.00118153,-0.000632569,-0.583669,0.00106323,0.00874549,881,519,-0.513272,7.85247
-336,505,-0.500305,-8.07281,0.000924745,-0.00010108,-0.000919077,0.00146434,-0.00064068,-0.530888,0.00124596,0.00994917,888,519,-0.500316,8.07281
-329,505,-0.487671,-8.29388,0.00128108,1.07724e-05,-0.00107884,0.00189785,-0.000606001,-0.51935,0.00150837,0.0131296,895,519,-0.487697,8.29389
-322,505,-0.495544,-8.53918,0.00164738,0.000275379,-0.00129396,0.00242594,-0.000503181,-0.541658,0.00180851,0.0150364,902,519,-0.495567,8.53916
-315,505,-0.495361,-8.76202,0.00207059,0.000617135,-0.00148707,0.00299901,-0.000311286,-0.558116,0.00211077,0.0130491,909,519,-0.495365,8.76202
-308,505,-0.502075,-8.97607,0.00261376,0.00085846,-0.00162662,0.0035844,-0.000112179,-0.538005,0.00242785,0.0124808,916,519,-0.502072,8.9761
-301,505,-0.466858,-9.23291,0.003175,0.0010052,-0.00168034,0.00409024,8.9962e-05,-0.498745,0.00269734,0.0184624,923,519,-0.466832,9.23289
-294,505,-0.470642,-9.42914,0,0,0,0,0,0,0,-1,930,519,-0.470662,9.42914
-287,505,-0.539429,-9.70807,0,0,0,0,0,0,0,-1,937,519,-0.539398,9.70805
-280,505,-0.429871,-10.0899,0,0,0,0,0,0,0,-1,944,519,-0.429864,10.0899
-273,505,-0.0680542,-9.44867,0,0,0,0,0,0,0,-1,951,519,-0.0680462,9.44866
-266,505,-0.036377,-9.07922,0,0,0,0,0,0,0,-1,958,519,-0.0364055,9.0792
-259,505,0.10321,-6.69824,0,0,0,0,0,0,0,-1,965,519,0.103235,6.69826
-252,505,6.82312,-15.6972,0,0,0,0,0,0,0,-1,972,519,6.82314,15.6972
-245,505,4.26727,-12.9861,0,0,0,0,0,0,0,-1,979,519,4.2673,12.9861
-238,505,1.67432,-11.2307,0,0,0,0,0,0,0,-1,986,519,1.67429,11.2307
-231,505,-0.958435,-8.3075,0,0,0,0,0,0,0,-1,993,519,-0.958421,8.30751
-224,505,-3.69653,-5.12732,0,0,0,0,0,0,0,-1,1000,519,-3.69653,5.12733
-217,505,-6.34302,-1.65533,0,0,0,0,0,0,0,-1,1007,519,-6.34299,1.65535
-210,505,-3.06128,-0.396301,0,0,0,0,0,0,0,-1,1014,519,-3.06129,0.396294
-203,505,-4.26465,2.03607,0,0,0,0,0,0,0,-1,1021,519,-4.26462,-2.03606
-196,505,-5.47595,4.27295,0,0,0,0,0,0,0,-1,1028,519,-5.47597,-4.27292
-189,505,1.51526,5.56207,0,0,0,0,0,0,0,-1,1035,519,1.51523,-5.56209
-182,505,2.97815,7.5097,0,0,0,0,0,0,0,-1,1042,519,2.97812,-7.5097
-175,505,-2.38416,-2.17548,0,0,0,0,0,0,0,-1,1049,519,-2.38411,2.1755
-168,505,0,0,0,0,0,0,0,0,0,-1,1056,519,0,0
-161,505,0,0,0,0,0,0,0,0,0,-1,1063,519,0,0
-154,505,0,0,0,0,0,0,0,0,0,-1,1070,519,0,0
-147,505,0,0,0,0,0,0,0,0,0,-1,1077,519,0,0
-140,505,0,0,0,0,0,0,0,0,0,-1,1084,519,0,0
-133,505,0,0,0,0,0,0,0,0,0,-1,1091,519,0,0
-126,505,0,0,0,0,0,0,0,0,0,-1,1098,519,0,0
-119,505,0,0,0,0,0,0,0,0,0,-1,1105,519,0,0
-112,505,0,0,0,0,0,0,0,0,0,-1,1112,519,0,0
-105,505,0,0,0,0,0,0,0,0,0,-1,1119,519,0,0
-98,505,0,0,0,0,0,0,0,0,0,-1,1126,519,0,0
-91,505,0,0,0,0,0,0,0,0,0,-1,1133,519,0,0
-84,505,0,0,0,0,0,0,0,0,0,-1,1140,519,0,0
-77,505,0,0,0,0,0,0,0,0,0,-1,1147,519,0,0
-70,505,0,0,0,0,0,0,0,0,0,-1,1154,519,0,0
-63,505,0,0,0,0,0,0,0,0,0,-1,1161,519,0,0
-56,505,0,0,0,0,0,0,0,0,0,-1,1168,519,0,0
-49,505,0,0,0,0,0,0,0,0,0,-1,1175,519,0,0
-42,505,0,0,0,0,0,0,0,0,0,-1,1182,519,0,0
-35,505,0,0,0,0,0,0,0,0,0,-1,1189,519,0,0
-28,505,0,0,0,0,0,0,0,0,0,-1,1196,519,0,0
-21,505,0,0,0,0,0,0,0,0,0,-1,1203,519,0,0
-14,505,0,0,0,0,0,0,0,0,0,-1,1210,519,0,0
-7,505,0,0,0,0,0,0,0,0,0,-1,1217,519,0,0
0,505,0,0,0,0,0,0,0,0,0,-1,1224,519,0,0
7,505,0,0,0,0,0,0,0,0,0,-1,1231,519,0,0
14,505,0,0,0,0,0,0,0,0,0,-1,1238,519,0,0
21,505,0,0,0,0,0,0,0,0,0,-1,1245,519,0,0
28,505,0,0,0,0,0,0,0,0,0,-1,1252,519,0,0
35,505,0,0,0,0,0,0,0,0,0,-1,1259,519,0,0
42,505,0,0,0,0,0,0,0,0,0,-1,1266,519,0,0
49,505,0,0,0,0,0,0,0,0,0,-1,1273,519,0,0
56,505,0,0,0,0,0,0,0,0,0,-1,1280,519,0,0
63,505,0,0,0,0,0,0,0,0,0,-1,1287,519,0,0
70,505,0,0,0,0,0,0,0,0,0,-1,1294,519,0,0
77,505,0,0,0,0,0,0,0,0,0,-1,1301,519,0,0
84,505,0,0,0,0,0,0,0,0,0,-1,1308,519,0,0
91,505,0,0,0,0,0,0,0,0,0,-1,1315,519,0,0
98,505,0,0,0,0,0,0,0,0,0,-1,1322,519,0,0
105,505,0,0,0,0,0,0,0,0,0,-1,1329,519,0,0
112,505,0,0,0,0,0,0,0,0,0,-1,1336,519,0,0
119,505,0,0,0,0,0,0,0,0,0,-1,1343,519,0,0
126,505,0,0,0,0,0,0,0,0,0,-1,1350,519,0,0
133,505,0,0,0,0,0,0,0,0,0,-1,1357,519,0,0
140,505,0,0,0,0,0,0,0,0,0,-1,1364,519,0,0
147,505,0,0,0,0,0,0,0,0,0,-1,1371,519,0,0
154,505,0,0,0,0,0,0,0,0,0,-1,1378,519,0,0
161,505,0,0,0,0,0,0,0,0,0,-1,1385,519,0,0
168,505,0,0,0,0,0,0,0,0,0,-1,1392,519,0,0
175,505,0,0,0,0,0,0,0,0,0,-1,1399,519,0,0
182,505,0,0,0,0,0,0,0,0,0,-1,1406,519,0,0
189,505,0,0,0,0,0,0,0,0,0,-1,1413,519,0,0
196,505,0,0,0,0,0,0,0,0,0,-1,1420,519,0,0
203,505,0,0,0,0,0,0,0,0,0,-1,1427,519,0,0
210,505,0,0,0,0,0,0,0,0,0,-1,1434,519,0,0
217,505,0,0,0,0,0,0,0,0,0,-1,1441,519,0,0
224,505,0,0,0,0,0,0,0,0,0,-1,1448,519,0,0
231,505,0,0,0,0,0,0,0,0,0,-1,1455,519,0,0
238,505,0,0,0,0,0,0,0,0,0,-1,1462,519,0,0
245,505,0,0,0,0,0,0,0,0,0,-1,1469,519,0,0
252,505,0,0,0,0,0,0,0,0,0,-1,1476,519,0,0
259,505,0,0,0,0,0,0,0,0,0,-1,1483,519,0,0
266,505,0,0,0,0,0,0,0,0,0,-1,1490,519,0,0
273,505,0,0,0,0,0,0,0,0,0,-1,1497,519,0,0
280,505,0,0,0,0,0,0,0,0,0,-1,1504,519,0,0
287,505,4.39478,0.499512,0,0,0,0,0,0,0,-1,1511,519,4.39476,-0.499506
294,505,4.88867,0.0822754,0,0,0,0,0,0,0,-1,1518,519,4.88871,-0.0822748
301,505,4.82153,-0.0704346,0,0,0,0,0,0,0,-1,1525,519,4.82156,0.0704312
308,505,4.67761,-0.29187,0,0,0,0,0,0,0,-1,1532,519,4.67762,0.291845
315,505,8.44055,-6.54352,0,0,0,0,0,0,0,-1,1539,519,8.44059,6.54349
322,505,4.78955,-0.594116,0,0,0,0,0,0,0,-1,1546,519,4.78957,0.594096
329,505,5.16321,0.434631,0,0,0,0,0,0,0,-1,1553,519,5.16316,-0.434614
336,505,4.94495,-0.920471,0,0,0,0,0,0,0,-1,1560,519,4.945,0.920495
343,505,5.01855,-1.4823,0,0,0,0,0,0,0,-1,1567,519,5.01851,1.48227
350,505,5.33154,-1.77838,0,0,0,0,0,0,0,-1,1574,519,5.33152,1.77838
357,505,5.56567,-1.9425,0,0,0,0,0,0,0,-1,1581,519,5.56562,1.94248
364,505,5.85205,-2.6579,0,0,0,0,0,0,0,-1,1588,519,5.85211,2.65788
371,505,5.88477,-7.00922,0,0,0,0,0,0,0,-1,1595,519,5.88473,7.00924
378,505,5.44104,-7.10162,0,0,0,0,0,0,0,-1,1602,519,5.44099,7.10162
385,505,5.71021,-6.69141,0,0,0,0,0,0,0,-1,1609,519,5.71018,6.69143
392,505,6.14124,-7.40881,0,0,0,0,0,0,0,-1,1616,519,6.14127,7.40883
399,505,7.81946,-9.11237,0,0,0,0,0,0,0,-1,1623,519,7.8195,9.11236
406,505,7.16736,-8.65002,0,0,0,0,0,0,0,-1,1630,519,7.16738,8.65003
413,505,6.03479,-8.59277,0,0,0,0,0,0,0,-1,1637,519,6.03483,8.5928
420,505,6.21533,-8.26996,-0.0059767,-0.00211658,-0.0064572,0.00269284,-0.0107861,-0.930622,0.00823642,0.0381653,1644,519,6.21537,8.26996
427,505,6.19702,-7.99731,-0.00469239,-0.00143802,-0.00501583,0.00220796,-0.00833837,-0.942247,0.00642268,0.0145784,1651,519,6.19705,7.99731
434,505,6.18335,-7.72876,-0.00358006,-0.00066384,-0.00371906,0.00187273,-0.00611663,-0.972221,0.00482471,0.00998988,1658,519,6.18337,7.72878
441,505,6.17041,-7.46051,-0.00255935,-0.000165916,-0.00261546,0.0015136,-0.00423887,-0.999958,0.00344319,0.0102933,1665,519,6.17039,7.46051
448,505,6.14624,-7.21832,-0.00156689,0.000288323,-0.00163857,0.00124363,-0.0025222,-1.04296,0.00221558,0.010203,1672,519,6.14618,7.21834
455,505,6.16125,-6.96332,-0.000817402,0.000400764,-0.000977121,0.000943092,-0.00135973,-1.0641,0.00133677,0.010431,1679,519,6.16125,6.96334
462,505,6.16638,-6.70154,-0.000115602,0.00041419,-0.00033379,0.000575423,-0.000276835,-1.12081,0.000502017,0.0107241,1686,519,6.16642,6.70155
469,505,6.15491,-6.44916,0.000348436,0.000319577,-3.27083e-05,0.000369756,0.000298256,-0.57766,0.000226465,0.0108549,1693,519,6.15488,6.44917
476,505,6.14124,-6.18866,0.000530971,0.00018223,0.000175813,0.00060422,0.000108981,0.394759,0.000371848,0.0112808,1700,519,6.14129,6.18865
483,505,6.16846,-5.94208,0.000475229,0.000144367,0.000254665,0.000613478,6.11795e-06,0.49735,0.000406961,0.01271,1707,519,6.16841,5.94206
490,505,6.19177,-5.68402,0.000264981,-2.44554e-05,0.000308471,0.000460994,-0.000220468,0.566067,0.000401528,0.0128101,1714,519,6.19181,5.68399
497,505,6.18787,-5.40002,-0.000132725,-7.54183e-05,0.00033746,0.000234602,-0.000442745,0.827751,0.000397174,0.012818,1721,519,6.18791,5.40004
504,505,6.17688,-5.1181,-0.000403709,0.00122403,0.000649843,0.00145164,-0.000631319,1.2339,0.00123329,0.0124585,1728,519,6.17685,5.11808
511,505,6.16016,-4.87415,-0.000951948,0.00233621,0.000888067,0.00256073,-0.00117647,1.32317,0.00220646,0.0138796,1735,519,6.16011,4.87413
518,505,6.22717,-4.63226,-0.00159103,0.0041334,0.00128315,0.00440787,-0.00186549,1.36007,0.00371975,0.0255277,1742,519,6.22716,4.63226
525,505,5.9353,-4.38477,-0.00218621,0.00685492,0.00193968,0.00725349,-0.00258478,1.36814,0.00588946,0.0372703,1749,519,5.93525,4.38479
532,505,5.71716,-3.97327,-0.0025654,0.0109431,0.00301888,0.0115871,-0.00320936,1.36064,0.0089876,0.0455818,1756,519,5.7172,3.97326
539,505,5.68982,-3.64978,0,0,0,0,0,0,0,-1,1763,519,5.68981,3.64977
546,505,4.69727,-1.47705,0,0,0,0,0,0,0,-1,1770,519,4.69723,1.47703
553,505,2.82837,0.162659,0,0,0,0,0,0,0,-1,1777,519,2.82841,-0.162672
560,505,3.66223,-0.479797,0,0,0,0,0,0,0,-1,1784,519,3.66219,0.47982
567,505,4.65271,-0.950256,0,0,0,0,0,0,0,-1,1791,519,4.65274,0.95028
574,505,5.54443,-1.19977,0,0,0,0,0,0,0,-1,1798,519,5.54443,1.19974
581,505,0,0,0,0,0,0,0,0,0,-1,1805,519,0,0
588,505,0,0,0,0,0,0,0,0,0,-1,1812,519,0,0
595,505,0,0,0,0,0,0,0,0,0,-1,1819,519,0,0
602,505,0,0,0,0,0,0,0,0,0,-1,1826,519,0,0
609,505,0,0,0,0,0,0,0,0,0,-1,1833,519,0,0
616,505,0,0,0,0,0,0,0,0,0,-1,1840,519,0,0
623,505,0,0,0,0,0,0,0,0,0,-1,1847,519,0,0
630,505,0,0,0,0,0,0,0,0,0,-1,1854,519,0,0
637,505,0,0,0,0,0,0,0,0,0,-1,1861,519,0,0
644,505,0,0,0,0,0,0,0,0,0,-1,1868,519,0,0
651,505,0,0,0,0,0,0,0,0,0,-1,1875,519,0,0
658,505,0,0,0,0,0,0,0,0,0,-1,1882,519,0,0
665,505,0,0,0,0,0,0,0,0,0,-1,1889,519,0,0
672,505,0,0,0,0,0,0,0,0,0,-1,1896,519,0,0
679,505,0,0,0,0,0,0,0,0,0,-1,1903,519,0,0
686,505,0,0,0,0,0,0,0,0,0,-1,1910,519,0,0
693,505,0,0,0,0,0,0,0,0,0,-1,1917,519,0,0
700,505,0,0,0,0,0,0,0,0,0,-1,1924,519,0,0
707,505,0,0,0,0,0,0,0,0,0,-1,1931,519,0,0
714,505,0,0,0,0,0,0,0,0,0,-1,1938,519,0,0
721,505,0,0,0,0,0,0,0,0,0,-1,1945,519,0,0
728,505,0,0,0,0,0,0,0,0,0,-1,1952,519,0,0
735,505,0,0,0,0,0,0,0,0,0,-1,1959,519,0,0
742,505,0,0,0,0,0,0,0,0,0,-1,1966,519,0,0
749,505,0,0,0,0,0,0,0,0,0,-1,1973,519,0,0
756,505,0,0,0,0,0,0,0,0,0,-1,1980,519,0,0
763,505,0,0,0,0,0,0,0,0,0,-1,1987,519,0,0
770,505,0,0,0,0,0,0,0,0,0,-1,1994,519,0,0
777,505,0,0,0,0,0,0,0,0,0,-1,2001,519,0,0
784,505,0,0,0,0,0,0,0,0,0,-1,2008,519,0,0
791,505,0,0,0,0,0,0,0,0,0,-1,2015,519,0,0
798,505,0,0,0,0,0,0,0,0,0,-1,2022,519,0,0
805,505,0,0,0,0,0,0,0,0,0,-1,2029,519,0,0
812,505,0,0,0,0,0,0,0,0,0,-1,2036,519,0,0
-700,498,0,0,0,0,0,0,0,0,0,-1,524,526,0,0
-693,498,0,0,0,0,0,0,0,0,0,-1,531,526,0,0
-686,498,0,0,0,0,0,0,0,0,0,-1,538,526,0,0
-679,498,0,0,0,0,0,0,0,0,0,-1,545,526,0,0
-672,498,0,0,0,0,0,0,0,0,0,-1,552,526,0,0
-665,498,0,0,0,0,0,0,0,0,0,-1,559,526,0,0
-658,498,0,0,0,0,0,0,0,0,0,-1,566,526,0,0
-651,498,0,0,0,0,0,0,0,0,0,-1,573,526,0,0
-644,498,0,0,0,0,0,0,0,0,0,-1,580,526,0,0
-637,498,0,0,0,0,0,0,0,0,0,-1,587,526,0,0
-630,498,0,0,0,0,0,0,0,0,0,-1,594,526,0,0
-623,498,0,0,0,0,0,0,0,0,0,-1,601,526,0,0
-616,498,0,0,0,0,0,0,0,0,0,-1,608,526,0,0
-609,498,0,0,0,0,0,0,0,0,0,-1,615,526,0,0
-602,498,0,0,0,0,0,0,0,0,0,-1,622,526,0,0
-595,498,0,0,0,0,0,0,0,0,0,-1,629,526,0,0
-588,498,0,0,0,0,0,0,0,0,0,-1,636,526,0,0
-581,498,0,0,0,0,0,0,0,0,0,-1,643,526,0,0
-574,498,0,0,0,0,0,0,0,0,0,-1,650,526,0,0
-567,498,0,0,0,0,0,0,0,0,0,-1,657,526,0,0
-560,498,0,0,0,0,0,0,0,0,0,-1,664,526,0,0
-553,498,0,0,0,0,0,0,0,0,0,-1,671,526,0,0
-546,498,0,0,0,0,0,0,0,0,0,-1,678,526,0,0
-539,498,0,0,0,0,0,0,0,0,0,-1,685,526,0,0
-532,498,0,0,0,0,0,0,0,0,0,-1,692,526,0,0
-525,498,0,0,0,0,0,0,0,0,0,-1,699,526,0,0
-518,498,0,0,0,0,0,0,0,0,0,-1,706,526,0,0
-511,498,0,0,0,0,0,0,0,0,0,-1,713,526,0,0
-504,498,0,0,0,0,0,0,0,0,0,-1,720,526,0,0
-497,498,0,0,0,0,0,0,0,0,0,-1,727,526,0,0
-490,498,0,0,0,0,0,0,0,0,0,-1,734,526,0,0
-483,498,0,0,0,0,0,0,0,0,0,-1,741,526,0,0
-476,498,0,0,0,0,0,0,0,0,0,-1,748,526,0,0
-469,498,0,0,0,0,0,0,0,0,0,-1,755,526,0,0
-462,498,6.81024,1.15515,0,0,0,0,0,0,0,-1,762,526,6.81026,-1.15514
-455,498,5.67346,-0.137817,0,0,0,0,0,0,0,-1,769,526,5.67348,0.137819
-448,498,4.60333,-1.46698,0,0,0,0,0,0,0,-1,776,526,4.60335,1.46701
-441,498,3.39349,-2.46069,0,0,0,0,0,0,0,-1,783,526,3.39352,2.46072
-434,498,1.83069,-3.46899,0,0,0,0,0,0,0,-1,790,526,1.83072,3.46901
-427,498,0.565247,-4.06635,0,0,0,0,0,0,0,-1,797,526,0.565268,4.06637
-420,498,-1.16351,-4.06134,0,0,0,0,0,0,0,-1,804,526,-1.16351,4.06136
-413,498,-0.669556,-5.00696,0,0,0,0,0,0,0,-1,811,526,-0.669563,5.00695
-406,498,-0.641296,-5.39941,0.00476803,0.0120873,-0.00937822,0.0184946,-0.00163932,-0.971424,0.0129109,0.0434902,818,526,-0.641296,5.3994
-399,498,-0.63916,-5.79584,0.00313131,0.00910658,-0.00691833,0.0136548,-0.00141692,-0.989224,0.0096104,0.0230781,825,526,-0.639178,5.79587
-392,498,-0.685791,-6.10449,0.00200996,0.00678756,-0.00504726,0.00998277,-0.00118526,-1.00642,0.0070834,0.0118659,832,526,-0.6858,6.10451
-385,498,-0.703552,-6.35413,0.00137982,0.00486846,-0.00363154,0.00715288,-0.000904595,-1.00929,0.00509694,0.00896499,839,526,-0.70358,6.35413
-378,498,-0.712524,-6.59143,0.00102508,0.00325009,-0.00254711,0.00491705,-0.000641884,-0.991297,0.0035116,0.0107862,846,526,-0.712553,6.59146
-371,498,-0.696472,-6.86066,0.000695018,0.00167967,-0.00157137,0.00283403,-0.000459346,-0.937209,0.00205962,0.0154712,853,526,-0.696473,6.86065
-364,498,-0.70752,-7.12524,0.000683882,0.000906695,-0.00113363,0.00193438,-0.000343801,-0.834378,0.00141815,0.0147481,860,526,-0.707539,7.12527
-357,498,-0.695496,-7.36768,0.000877528,0.000317476,-0.000889929,0.00153045,-0.000335444,-0.632972,0.00114856,0.010652,867,526,-0.695491,7.36768
-350,498,-0.726257,-7.60242,0.00115844,-8.67783e-05,-0.000848662,0.00158838,-0.000516723,-0.468926,0.00126679,0.010961,874,526,-0.726272,7.6024
-343,498,-0.735901,-7.83698,0.00142644,-0.00029875,-0.00088953,0.00180293,-0.000675241,-0.400385,0.00147933,0.010858,881,526,-0.735916,7.83696
-336,498,-0.704712,-8.07214,0.00168729,-0.000323723,-0.00102461,0.00211736,-0.000753788,-0.397403,0.00171884,0.0140338,888,526,-0.704725,8.07215
-329,498,-0.714355,-8.29871,0.00200724,-0.000156924,-0.00127176,0.00259497,-0.000744651,-0.432902,0.00202437,0.0186374,895,526,-0.714354,8.29873
-322,498,-0.711121,-8.54803,0.00231786,0.000140494,-0.00156858,0.00313855,-0.000680192,-0.482036,0.00235211,0.0184423,902,526,-0.711106,8.54805
-315,498,-0.723206,-8.78009,0.00269838,0.000499796,-0.00186506,0.00376401,-0.000565831,-0.519098,0.00271766,0.0161788,909,526,-0.723232,8.78008
-308,498,-0.735474,-9.00159,0.0031986,0.000775898,-0.00211133,0.0044214,-0.000446904,-0.524956,0.0031073,0.0191696,916,526,-0.735466,9.00157
-301,498,-0.648987,-9.3316,0.00368053,0.00102198,-0.00224581,0.00496097,-0.000258467,-0.518181,0.00339675,0.0341001,923,526,-0.649009,9.33158
-294,498,-0.571655,-9.69427,0,0,0,0,0,0,0,-1,930,526,-0.57165,9.69425
-287,498,-0.220825,-8.51526,0,0,0,0,0,0,0,-1,937,526,-0.220826,8.51525
-280,498,-0.341614,-8.66608,0,0,0,0,0,0,0,-1,944,526,-0.341589,8.66606
-273,498,-0.988892,-8.62921,0,0,0,0,0,0,0,-1,951,526,-0.988906,8.62922
-266,498,0.362488,-6.33545,0,0,0,0,0,0,0,-1,958,526,0.362478,6.33547
-259,498,10.9454,-17.3615,0,0,0,0,0,0,0,-1,965,526,10.9454,17.3614
-252,498,8.56586,-14.6886,0,0,0,0,0,0,0,-1,972,526,8.56584,14.6886
-245,498,5.97382,-11.928,0,0,0,0,0,0,0,-1,979,526,5.97381,11.928
-238,498,3.31403,-9.40442,0,0,0,0,0,0,0,-1,986,526,3.31405,9.40443
-231,498,0.675598,-6.60547,0,0,0,0,0,0,0,-1,993,526,0.675587,6.60545
-224,498,-2.11243,-4.76312,0,0,0,0,0,0,0,-1,1000,526,-2.11245,4.76314
-217,498,-3.82239,-1.42841,0,0,0,0,0,0,0,-1,1007,526,-3.82241,1.42843
-210,498,-1.80591,-0.358215,0,0,0,0,0,0,0,-1,1014,526,-1.8059,0.3582
-203,498,-3.17316,1.06641,0,0,0,0,0,0,0,-1,1021,526,-3.17313,-1.0664
-196,498,-0.103271,5.40527,0,0,0,0,0,0,0,-1,1028,526,-0.103285,-5.40528
-189,498,3.00256,6.47137,0,0,0,0,0,0,0,-1,1035,526,3.00256,-6.47139
-182,498,0,0,0,0,0,0,0,0,0,-1,1042,526,0,0
-175,498,0,0,0,0,0,0,0,0,0,-1,1049,526,0,0
-168,498,0,0,0,0,0,0,0,0,0,-1,1056,526,0,0
-161,498,0,0,0,0,0,0,0,0,0,-1,1063,526,0,0
-154,498,0,0,0,0,0,0,0,0,0,-1,1070,526,0,0
-147,498,0,0,0,0,0,0,0,0,0,-1,1077,526,0,0
-140,498,0,0,0,0,0,0,0,0,0,-1,1084,526,0,0
-133,498,0,0,0,0,0,0,0,0,0,-1,1091,526,0,0
-126,498,0,0,0,0,0,0,0,0,0,-1,1098,526,0,0
-119,498,0,0,0,0,0,0,0,0,0,-1,1105,526,0,0
-112,498,0,0,0,0,0,0,0,0,0,-1,1112,526,0,0
-105,498,0,0,0,0,0,0,0,0,0,-1,1119,526,0,0
-98,498,0,0,0,0,0,0,0,0,0,-1,1126,526,0,0
-91,498,0,0,0,0,0,0,0,0,0,-1,1133,526,0,0
-84,498,0,0,0,0,0,0,0,0,0,-1,1140,526,0,0
-77,498,0,0,0,0,0,0,0,0,0,-1,1147,526,0,0
-70,498,0,0,0,0,0,0,0,0,0,-1,1154,526,0,0
-63,498,0,0,0,0,0,0,0,0,0,-1,1161,526,0,0
-56,498,0,0,0,0,0,0,0,0,0,-1,1168,526,0,0
-49,498,0,0,0,0,0,0,0,0,0,-1,1175,526,0,0
-42,498,0,0,0,0,0,0,0,0,0,-1,1182,526,0,0
-35,498,0,0,0,0,0,0,0,0,0,-1,1189,526,0,0
-28,498,0,0,0,0,0,0,0,0,0,-1,1196,526,0,0
-21,498,0,0,0,0,0,0,0,0,0,-1,1203,526,0,0
-14,498,0,0,0,0,0,0,0,0,0,-1,1210,526,0,0
-7,498,0,0,0,0,0,0,0,0,0,-1,1217,526,0,0
0,498,0,0,0,0,0,0,0,0,0,-1,1224,526,0,0
7,498,0,0,0,0,0,0,0,0,0,-1,1231,526,0,0
14,498,0,0,0,0,0,0,0,0,0,-1,1238,526,0,0
21,498,0,0,0,0,0,0,0,0,0,-1,1245,526,0,0
28,498,0,0,0,0,0,0,0,0,0,-1,1252,526,0,0
35,498,0,0,0,0,0,0,0,0,0,-1,1259,526,0,0
42,498,0,0,0,0,0,0,0,0,0,-1,1266,526,0,0
49,498,0,0,0,0,0,0,0,0,0,-1,1273,526,0,0
56,498,0,0,0,0,0,0,0,0,0,-1,1280,526,0,0
63,498,0,0,0,0,0,0,0,0,0,-1,1287,526,0,0
70,498,0,0,0,0,0,0,0,0,0,-1,1294,526,0,0
77,498,0,0,0,0,0,0,0,0,0,-1,1301,526,0,0
84,498,0,0,0,0,0,0,0,0,0,-1,1308,526,0,0
91,498,0,0,0,0,0,0,0,0,0,-1,1315,526,0,0
98,498,0,0,0,0,0,0,0,0,0,-1,1322,526,0,0
105,498,0,0,0,0,0,0,0,0,0,-1,1329,526,0,0
112,498,0,0,0,0,0,0,0,0,0,-1,1336,526,0,0
119,498,0,0,0,0,0,0,0,0,0,-1,1343,526,0,0
126,498,0,0,0,0,0,0,0,0,0,-1,1350,526,0,0
133,498,0,0,0,0,0,0,0,0,0,-1,1357,526,0,0
140,498,0,0,0,0,0,0,0,0,0,-1,1364,526,0,0
147,498,0,0,0,0,0,0,0,0,0,-1,1371,526,0,0
154,498,0,0,0,0,0,0,0,0,0,-1,1378,526,0,0
161,498,0,0,0,0,0,0,0,0,0,-1,1385,526,0,0
168,498,0,0,0,0,0,0,0,0,0,-1,1392,526,0,0
175,498,0,0,0,0,0,0,0,0,0,-1,1399,526,0,0
182,498,0,0,0,0,0,0,0,0,0,-1,1406,526,0,0
189,498,0,0,0,0,0,0,0,0,0,-1,1413,526,0,0
196,498,0,0,0,0,0,0,0,0,0,-1,1420,526,0,0
203,498,0,0,0,0,0,0,0,0,0,-1,1427,526,0,0
210,498,0,0,0,0,0,0,0,0,0,-1,1434,526,0,0
217,498,0,0,0,0,0,0,0,0,0,-1,1441,526,0,0
224,498,0,0,0,0,0,0,0,0,0,-1,1448,526,0,0
231,498,0,0,0,0,0,0,0,0,0,-1,1455,526,0,0
238,498,0,0,0,0,0,0,0,0,0,-1,1462,526,0,0
245,498,0,0,0,0,0,0,0,0,0,-1,1469,526,0,0
252,498,0,0,0,0,0,0,0,0,0,-1,1476,526,0,0
259,498,0,0,0,0,0,0,0,0,0,-1,1483,526,0,0
266,498,0,0,0,0,0,0,0,0,0,-1,1490,526,0,0
273,498,0,0,0,0,0,0,0,0,0,-1,1497,526,0,0
280,498,0,0,0,0,0,0,0,0,0,-1,1504,526,0,0
287,498,0,0,0,0,0,0,0,0,0,-1,1511,526,0,0
294,498,0,0,0,0,0,0,0,0,0,-1,1518,526,0,0
301,498,0,0,0,0,0,0,0,0,0,-1,1525,526,0,0
308,498,4.77942,-0.293884,0,0,0,0,0,0,0,-1,1532,526,4.77939,0.293899
315,498,4.56091,-0.564148,0,0,0,0,0,0,0,-1,1539,526,4.56097,0.564142
322,498,4.52344,-0.447266,0,0,0,0,0,0,0,-1,1546,526,4.52341,0.447295
329,498,4.63232,-0.156982,0,0,0,0,0,0,0,-1,1553,526,4.63238,0.156991
336,498,5.22644,0.0925903,0,0,0,0,0,0,0,-1,1560,526,5.22648,-0.0926188
343,498,6.22607,-1.67615,0,0,0,0,0,0,0,-1,1567,526,6.22605,1.67617
350,498,6.19373,-1.59906,0,0,0,0,0,0,0,-1,1574,526,6.19367,1.59906
357,498,6.21472,-1.58929,0,0,0,0,0,0,0,-1,1581,526,6.21476,1.58927
364,498,5.73547,-1.2019,0,0,0,0,0,0,0,-1,1588,526,5.73547,1.20192
371,498,3.27087,-4.55334,0,0,0,0,0,0,0,-1,1595,526,3.27089,4.55332
378,498,8.42944,-4.70624,0,0,0,0,0,0,0,-1,1602,526,8.42942,4.70624
385,498,4.7793,-5.15314,0,0,0,0,0,0,0,-1,1609,526,4.77935,5.15311
392,498,9.12439,-8.57953,0,0,0,0,0,0,0,-1,1616,526,9.12443,8.57955
399,498,8.26062,-8.32318,0,0,0,0,0,0,0,-1,1623,526,8.26066,8.32319
406,498,8.14856,-8.74841,0,0,0,0,0,0,0,-1,1630,526,8.14851,8.7484
413,498,6.58472,-7.78693,0,0,0,0,0,0,0,-1,1637,526,6.58472,7.7869
420,498,6.59302,-8.14923,0,0,0,0,0,0,0,-1,1644,526,6.59306,8.14921
427,498,6.59424,-7.95074,-0.00627729,-0.00192534,-0.0064481,0.00270404,-0.0109067,-0.948128,0.00832024,0.0416226,1651,526,6.59426,7.95075
434,498,6.52124,-7.7157,-0.00470785,-0.000797084,-0.00471093,0.00234816,-0.00785309,-0.982115,0.00616892,0.0183659,1658,526,6.52127,7.71568
441,498,6.43945,-7.45099,-0.00333214,-4.85962e-05,-0.0032994,0.00199493,-0.00537567,-1.01626,0.0044021,0.0100559,1665,526,6.4394,7.45099
448,498,6.42444,-7.20831,-0.00207849,0.000582882,-0.00210672,0.00174398,-0.00323959,-1.06708,0.00292014,0.0097719,1672,526,6.42449,7.20832
455,498,6.43237,-6.95697,-0.00112987,0.000788652,-0.00128908,0.00143623,-0.00177745,-1.10527,0.0018589,0.0140981,1679,526,6.43238,6.95694
462,498,6.43628,-6.7132,-0.00029598,0.000847461,-0.00055669,0.00107372,-0.000522237,-1.18476,0.000939583,0.0161736,1686,526,6.43623,6.71319
469,498,6.41003,-6.46185,0.000252456,0.00078628,-0.000196821,0.000851001,0.000187735,-1.2531,0.000516262,0.0134819,1693,526,6.41006,6.46188
476,498,6.41919,-6.19098,0.00050774,0.00067299,5.73013e-05,0.000690915,0.000489815,1.26762,0.000410345,0.0101127,1700,526,6.41922,6.19099
483,498,6.42529,-5.91455,0.000532807,0.000616338,0.00018649,0.000765681,0.000383463,0.895558,0.000442067,0.00856096,1707,526,6.42526,5.91456
490,498,6.41882,-5.66547,0.000401889,0.000456476,0.000276488,0.000707014,0.000151351,0.834597,0.000429868,0.0108216,1714,526,6.41878,5.66549
497,498,6.43103,-5.40125,5.35815e-05,0.000339942,0.000282271,0.00051327,-0.000119747,1.02011,0.0003883,0.0117422,1721,526,6.43099,5.40123
504,498,6.43958,-5.12347,-0.000216001,0.00143032,0.000523602,0.00158273,-0.000368418,1.28753,0.00119701,0.0130767,1728,526,6.43954,5.12348
511,498,6.43298,-4.86646,-0.000731553,0.00234767,0.000704074,0.00250102,-0.000884905,1.35634,0.00202773,0.0152427,1735,526,6.43298,4.86645
518,498,6.46472,-4.58478,-0.00129386,0.0038198,0.000999992,0.0040084,-0.00148245,1.38439,0.00328005,0.0177827,1742,526,6.46469,4.58475
525,498,6.37268,-4.315,-0.00177222,0.00604808,0.00149852,0.0063254,-0.00204953,1.38781,0.00504096,0.0289064,1749,526,6.37273,4.315
532,498,6.19336,-4.11444,-0.00203265,0.00934317,0.00231446,0.00979603,-0.00248551,1.37757,0.0074978,0.0420938,1756,526,6.19333,4.11446
539,498,6.19104,-3.97205,0,0,0,0,0,0,0,-1,1763,526,6.19109,3.97203
546,498,6.15161,-3.2182,0,0,0,0,0,0,0,-1,1770,526,6.1516,3.21817
553,498,6.69531,-2.04956,0,0,0,0,0,0,0,-1,1777,526,6.69533,2.04957
560,498,3.69385,-0.615112,0,0,0,0,0,0,0,-1,1784,526,3.69381,0.615118
567,498,5.12695,-0.581604,0,0,0,0,0,0,0,-1,1791,526,5.12699,0.58159
574,498,3.88,0.0286255,0,0,0,0,0,0,0,-1,1798,526,3.87999,-0.0286535
581,498,10.8722,2.58551,0,0,0,0,0,0,0,-1,1805,526,10.8723,-2.58551
588,498,0,0,0,0,0,0,0,0,0,-1,1812,526,0,0
595,498,0,0,0,0,0,0,0,0,0,-1,1819,526,0,0
602,498,0,0,0,0,0,0,0,0,0,-1,1826,526,0,0
609,498,0,0,0,0,0,0,0,0,0,-1,1833,526,0,0
616,498,0,0,0,0,0,0,0,0,0,-1,1840,526,0,0
623,498,0,0,0,0,0,0,0,0,0,-1,1847,526,0,0
630,498,0,0,0,0,0,0,0,0,0,-1,1854,526,0,0
637,498,0,0,0,0,0,0,0,0,0,-1,1861,526,0,0
644,498,0,0,0,0,0,0,0,0,0,-1,1868,526,0,0
651,498,0,0,0,0,0,0,0,0,0,-1,1875,526,0,0
658,498,0,0,0,0,0,0,0,0,0,-1,1882,526,0,0
665,498,0,0,0,0,0,0,0,0,0,-1,1889,526,0,0
672,498,0,0,0,0,0,0,0,0,0,-1,1896,526,0,0
679,498,0,0,0,0,0,0,0,0,0,-1,1903,526,0,0
686,498,0,0,0,0,0,0,0,0,0,-1,1910,526,0,0
693,498,0,0,0,0,0,0,0,0,0,-1,1917,526,0,0
700,498,0,0,0,0,0,0,0,0,0,-1,1924,526,0,0
707,498,0,0,0,0,0,0,0,0,0,-1,1931,526,0,0
714,498,0,0,0,0,0,0,0,0,0,-1,1938,526,0,0
721,498,0,0,0,0,0,0,0,0,0,-1,1945,526,0,0
728,498,0,0,0,0,0,0,0,0,0,-1,1952,526,0,0
735,498,0,0,0,0,0,0,0,0,0,-1,1959,526,0,0
742,498,0,0,0,0,0,0,0,0,0,-1,1966,526,0,0
749,498,0,0,0,0,0,0,0,0,0,-1,1973,526,0,0
756,498,0,0,0,0,0,0,0,0,0,-1,1980,526,0,0
763,498,0,0,0,0,0,0,0,0,0,-1,1987,526,0,0
770,498,0,0,0,0,0,0,0,0,0,-1,1994,526,0,0
777,498,0,0,0,0,0,0,0,0,0,-1,2001,526,0,0
784,498,0,0,0,0,0,0,0,0,0,-1,2008,526,0,0
791,498,0,0,0,0,0,0,0,0,0,-1,2015,526,0,0
798,498,0,0,0,0,0,0,0,0,0,-1,2022,526,0,0
805,498,0,0,0,0,0,0,0,0,0,-1,2029,526,0,0
812,498,0,0,0,0,0,0,0,0,0,-1,2036,526,0,0
-700,491,0,0,0,0,0,0,0,0,0,-1,524,533,0,0
-693,491,0,0,0,0,0,0,0,0,0,-1,531,533,0,0
-686,491,0,0,0,0,0,0,0,0,0,-1,538,533,0,0
-679,491,0,0,0,0,0,0,0,0,0,-1,545,533,0,0
-672,491,0,0,0,0,0,0,0,0,0,-1,552,533,0,0
-665,491,0,0,0,0,0,0,0,0,0,-1,559,533,0,0
-658,491,0,0,0,0,0,0,0,0,0,-1,566,533,0,0
-651,491,0,0,0,0,0,0,0,0,0,-1,573,533,0,0
-644,491,0,0,0,0,0,0,0,0,0,-1,580,533,0,0
-637,491,0,0,0,0,0,0,0,0,0,-1,587,533,0,0
-630,491,0,0,0,0,0,0,0,0,0,-1,594,533,0,0
-623,491,0,0,0,0,0,0,0,0,0,-1,601,533,0,0
-616,491,0,0,0,0,0,0,0,0,0,-1,608,533,0,0
-609,491,0,0,0,0,0,0,0,0,0,-1,615,533,0,0
-602,491,0,0,0,0,0,0,0,0,0,-1,622,533,0,0
-595,491,0,0,0,0,0,0,0,0,0,-1,629,533,0,0
-588,491,0,0,0,0,0,0,0,0,0,-1,636,533,0,0
-581,491,0,0,0,0,0,0,0,0,0,-1,643,533,0,0
-574,491,0,0,0,0,0,0,0,0,0,-1,650,533,0,0
-567,491,0,0,0,0,0,0,0,0,0,-1,657,533,0,0
-560,491,0,0,0,0,0,0,0,0,0,-1,664,533,0,0
-553,491,0,0,0,0,0,0,0,0,0,-1,671,533,0,0
-546,491,0,0,0,0,0,0,0,0,0,-1,678,533,0,0
-539,491,0,0,0,0,0,0,0,0,0,-1,685,533,0,0
-532,491,0,0,0,0,0,0,0,0,0,-1,692,533,0,0
-525,491,0,0,0,0,0,0,0,0,0,-1,699,533,0,0
-518,491,0,0,0,0,0,0,0,0,0,-1,706,533,0,0
-511,491,0,0,0,0,0,0,0,0,0,-1,713,533,0,0
-504,491,0,0,0,0,0,0,0,0,0,-1,720,533,0,0
-497,491,0,0,0,0,0,0,0,0,0,-1,727,533,0,0
-490,491,0,0,0,0,0,0,0,0,0,-1,734,533,0,0
-483,491,0,0,0,0,0,0,0,0,0,-1,741,533,0,0
-476,491,0,0,0,0,0,0,0,0,0,-1,748,533,0,0
-469,491,-5.85913,4.55011,0,0,0,0,0,0,0,-1,755,533,-5.8591,-4.55009
-462,491,-9.93713,4.90381,0,0,0,0,0,0,0,-1,762,533,-9.93716,-4.9038
-455,491,5.38196,0.226379,0,0,0,0,0,0,0,-1,769,533,5.38195,-0.226378
-448,491,4.34613,-1.11908,0,0,0,0,0,0,0,-1,776,533,4.34615,1.11909
-441,491,3.52155,-2.10022,0,0,0,0,0,0,0,-1,783,533,3.52154,2.10022
-434,491,1.48035,-3.46692,0,0,0,0,0,0,0,-1,790,533,1.48032,3.46693
-427,491,-1.84851,-3.5271,0,0,0,0,0,0,0,-1,797,533,-1.84848,3.52713
-420,491,-1.19257,-4.8371,0,0,0,0,0,0,0,-1,804,533,-1.19259,4.83712
-413,491,-1.04327,-5.24445,0.00556401,0.0125941,-0.0101801,0.0198489,-0.00169079,-0.951634,0.0138307,0.0442392,811,533,-1.04329,5.24444
-406,491,-0.943665,-5.60724,0.00392862,0.00968914,-0.00764154,0.0149752,-0.00135745,-0.965625,0.0104653,0.0228886,818,533,-0.943641,5.60723
-399,491,-0.94458,-5.84412,0.00267025,0.00734292,-0.00566949,0.0111386,-0.00112543,-0.980841,0.00782789,0.0100279,825,533,-0.944602,5.8441
-392,491,-0.964722,-6.09686,0.00185424,0.0054122,-0.00413998,0.00813924,-0.000872796,-0.988323,0.00573926,0.00921597,832,533,-0.964708,6.09686
-385,491,-0.960449,-6.35895,0.00143165,0.00381192,-0.00294127,0.00579471,-0.000551142,-0.977645,0.00405935,0.00940045,839,533,-0.960444,6.35894
-378,491,-0.957886,-6.59882,0.00121977,0.002396,-0.00201772,0.00390958,-0.0002938,-0.927207,0.00270963,0.0133314,846,533,-0.957875,6.59885
-371,491,-0.943665,-6.84515,0.00100619,0.00101985,-0.00120385,0.00221689,-0.000190849,-0.788235,0.00154548,0.0135797,853,533,-0.943685,6.84513
-364,491,-0.950867,-7.10468,0.00105243,0.000328263,-0.000843344,0.00160813,-0.00022744,-0.582626,0.00115539,0.0124136,860,533,-0.950874,7.10465
-357,491,-0.954346,-7.34271,0.00133245,-0.000201625,-0.000679936,0.00159043,-0.000459604,-0.362638,0.00124216,0.0115102,867,533,-0.954315,7.34271
-350,491,-0.971802,-7.58093,0.00168028,-0.000542585,-0.000702903,0.0018839,-0.000746202,-0.281962,0.00156513,0.0143256,874,533,-0.97183,7.58094
-343,491,-0.953247,-7.81696,0.00198674,-0.000721416,-0.000810551,0.0022108,-0.000945477,-0.269695,0.00187045,0.0214587,881,533,-0.953274,7.81697
-336,491,-0.918213,-8.03058,0.0022688,-0.00074314,-0.00100764,0.00257481,-0.00104915,-0.294842,0.00215322,0.0218315,888,533,-0.918219,8.0306
-329,491,-0.936096,-8.24896,0.00262188,-0.000505276,-0.00135888,0.00312986,-0.00101325,-0.357735,0.00249391,0.0229881,895,533,-0.936066,8.24896
-322,491,-0.947144,-8.52173,0.00296306,-0.000148619,-0.00176097,0.00375704,-0.000942599,-0.423583,0.00287094,0.0220925,902,533,-0.947126,8.52174
-315,491,-0.998718,-8.74329,0.00339066,0.000251816,-0.00220782,0.00453003,-0.000887558,-0.476414,0.00335524,0.0197242,909,533,-0.998705,8.74331
-308,491,-0.876831,-9.05731,0.00393751,0.000588455,-0.00264406,0.0053927,-0.000866733,-0.50312,0.00391615,0.0470519,916,533,-0.876842,9.05733
-301,491,-0.53949,-9.47681,0,0,0,0,0,0,0,-1,923,533,-0.539459,9.47679
-294,491,-0.777283,-8.60913,0,0,0,0,0,0,0,-1,930,533,-0.777288,8.6091
-287,491,-0.26123,-8.69055,0,0,0,0,0,0,0,-1,937,533,-0.261204,8.69053
-280,491,0.2948,-5.99219,0,0,0,0,0,0,0,-1,944,533,0.294811,5.99221
-273,491,0.369995,-5.33691,0,0,0,0,0,0,0,-1,951,533,0.369985,5.33693
-266,491,1.1167,-5.0321,0,0,0,0,0,0,0,-1,958,533,1.11668,5.0321
-259,491,12.0862,-16.9615,0,0,0,0,0,0,0,-1,965,533,12.0862,16.9615
-252,491,9.72443,-13.8417,0,0,0,0,0,0,0,-1,972,533,9.72444,13.8418
-245,491,7.36926,-10.7169,0,0,0,0,0,0,0,-1,979,533,7.36924,10.7169
-238,491,4.84167,-7.53986,0,0,0,0,0,0,0,-1,986,533,4.84169,7.53984
-231,491,2.15582,-5.05225,0,0,0,0,0,0,0,-1,993,533,2.1558,5.05223
-224,491,-0.429749,-3.09216,0,0,0,0,0,0,0,-1,1000,533,-0.429743,3.09215
-217,491,-2.92743,-1.0766,0,0,0,0,0,0,0,-1,1007,533,-2.92743,1.07659
-210,491,-0.92395,0.374512,0,0,0,0,0,0,0,-1,1014,533,-0.923959,-0.374531
-203,491,0.417419,4.77161,0,0,0,0,0,0,0,-1,1021,533,0.417446,-4.77162
-196,491,0,0,0,0,0,0,0,0,0,-1,1028,533,0,0
-189,491,0,0,0,0,0,0,0,0,0,-1,1035,533,0,0
-182,491,0,0,0,0,0,0,0,0,0,-1,1042,533,0,0
-175,491,0,0,0,0,0,0,0,0,0,-1,1049,533,0,0
-168,491,0,0,0,0,0,0,0,0,0,-1,1056,533,0,0
-161,491,0,0,0,0,0,0,0,0,0,-1,1063,533,0,0
-154,491,0,0,0,0,0,0,0,0,0,-1,1070,533,0,0
-147,491,0,0,0,0,0,0,0,0,0,-1,1077,533,0,0
-140,491,0,0,0,0,0,0,0,0,0,-1,1084,533,0,0
-133,491,0,0,0,0,0,0,0,0,0,-1,1091,533,0,0
-126,491,0,0,0,0,0,0,0,0,0,-1,1098,533,0,0
-119,491,0,0,0,0,0,0,0,0,0,-1,1105,533,0,0
-112,491,0,0,0,0,0,0,0,0,0,-1,1112,533,0,0
-105,491,0,0,0,0,0,0,0,0,0,-1,1119,533,0,0
-98,491,0,0,0,0,0,0,0,0,0,-1,1126,533,0,0
-91,491,0,0,0,0,0,0,0,0,0,-1,1133,533,0,0
-84,491,0,0,0,0,0,0,0,0,0,-1,1140,533,0,0
-77,491,0,0,0,0,0,0,0,0,0,-1,1147,533,0,0
-70,491,0,0,0,0,0,0,0,0,0,-1,1154,533,0,0
-63,491,0,0,0,0,0,0,0,0,0,-1,1161,533,0,0
-56,491,0,0,0,0,0,0,0,0,0,-1,1168,533,0,0
-49,491,0,0,0,0,0,0,0,0,0,-1,1175,533,0,0
-42,491,0,0,0,0,0,0,0,0,0,-1,1182,533,0,0
-35,491,0,0,0,0,0,0,0,0,0,-1,1189,533,0,0
-28,491,0,0,0,0,0,0,0,0,0,-1,1196,533,0,0
-21,491,0,0,0,0,0,0,0,0,0,-1,1203,533,0,0
-14,491,0,0,0,0,0,0,0,0,0,-1,1210,533,0,0
-7,491,0,0,0,0,0,0,0,0,0,-1,1217,533,0,0
0,491,0,0,0,0,0,0,0,0,0,-1,1224,533,0,0
7,491,0,0,0,0,0,0,0,0,0,-1,1231,533,0,0
14,491,0,0,0,0,0,0,0,0,0,-1,1238,533,0,0
21,491,0,0,0,0,0,0,0,0,0,-1,1245,533,0,0
28,491,0,0,0,0,0,0,0,0,0,-1,1252,533,0,0
35,491,0,0,0,0,0,0,0,0,0,-1,1259,533,0,0
42,491,0,0,0,0,0,0,0,0,0,-1,1266,533,0,0
49,491,0,0,0,0,0,0,0,0,0,-1,1273,533,0,0
56,491,0,0,0,0,0,0,0,0,0,-1,1280,533,0,0
63,491,0,0,0,0,0,0,0,0,0,-1,1287,533,0,0
70,491,0,0,0,0,0,0,0,0,0,-1,1294,533,0,0
77,491,0,0,0,0,0,0,0,0,0,-1,1301,533,0,0
84,491,0,0,0,0,0,0,0,0,0,-1,1308,533,0,0
91,491,0,0,0,0,0,0,0,0,0,-1,1315,533,0,0
98,491,0,0,0,0,0,0,0,0,0,-1,1322,533,0,0
105,491,0,0,0,0,0,0,0,0,0,-1,1329,533,0,0
112,491,0,0,0,0,0,0,0,0,0,-1,1336,533,0,0
119,491,0,0,0,0,0,0,0,0,0,-1,1343,533,0,0
126,491,0,0,0,0,0,0,0,0,0,-1,1350,533,0,0
133,491,0,0,0,0,0,0,0,0,0,-1,1357,533,0,0
140,491,0,0,0,0,0,0,0,0,0,-1,1364,533,0,0
147,491,0,0,0,0,0,0,0,0,0,-1,1371,533,0,0
154,491,0,0,0,0,0,0,0,0,0,-1,1378,533,0,0
161,491,0,0,0,0,0,0,0,0,0,-1,1385,533,0,0
168,491,0,0,0,0,0,0,0,0,0,-1,1392,533,0,0
175,491,0,0,0,0,0,0,0,0,0,-1,1399,533,0,0
182,491,0,0,0,0,0,0,0,0,0,-1,1406,533,0,0
189,491,0,0,0,0,0,0,0,0,0,-1,1413,533,0,0
196,491,0,0,0,0,0,0,0,0,0,-1,1420,533,0,0
203,491,0,0,0,0,0,0,0,0,0,-1,1427,533,0,0
210,491,0,0,0,0,0,0,0,0,0,-1,1434,533,0,0
217,491,0,0,0,0,0,0,0,0,0,-1,1441,533,0,0
224,491,0,0,0,0,0,0,0,0,0,-1,1448,533,0,0
231,491,0,0,0,0,0,0,0,0,0,-1,1455,533,0,0
238,491,0,0,0,0,0,0,0,0,0,-1,1462,533,0,0
245,491,0,0,0,0,0,0,0,0,0,-1,1469,533,0,0
252,491,0,0,0,0,0,0,0,0,0,-1,1476,533,0,0
259,491,0,0,0,0,0,0,0,0,0,-1,1483,533,0,0
266,491,0,0,0,0,0,0,0,0,0,-1,1490,533,0,0
273,491,0,0,0,0,0,0,0,0,0,-1,1497,533,0,0
280,491,0,0,0,0,0,0,0,0,0,-1,1504,533,0,0
287,491,0,0,0,0,0,0,0,0,0,-1,1511,533,0,0
294,491,0,0,0,0,0,0,0,0,0,-1,1518,533,0,0
301,491,0,0,0,0,0,0,0,0,0,-1,1525,533,0,0
308,491,0,0,0,0,0,0,0,0,0,-1,1532,533,0,0
315,491,0,0,0,0,0,0,0,0,0,-1,1539,533,0,0
322,491,4.26331,-0.734314,0,0,0,0,0,0,0,-1,1546,533,4.26326,0.734324
329,491,4.25354,-0.783752,0,0,0,0,0,0,0,-1,1553,533,4.25359,0.783734
336,491,4.81604,-0.722107,0,0,0,0,0,0,0,-1,1560,533,4.81605,0.722115
343,491,6.14478,-1.44281,0,0,0,0,0,0,0,-1,1567,533,6.14474,1.44281
350,491,6.36353,-1.30792,0,0,0,0,0,0,0,-1,1574,533,6.36352,1.3079
357,491,6.69482,-1.06018,0,0,0,0,0,0,0,-1,1581,533,6.69489,1.06018
364,491,8.01086,-1.69604,0,0,0,0,0,0,0,-1,1588,533,8.01087,1.69607
371,491,8.2135,-0.539307,0,0,0,0,0,0,0,-1,1595,533,8.21348,0.53929
378,491,13.3589,2.17267,0,0,0,0,0,0,0,-1,1602,533,13.3589,-2.17264
385,491,8.08228,-4.95471,0,0,0,0,0,0,0,-1,1609,533,8.08227,4.95474
392,491,2.88721,-4.30988,0,0,0,0,0,0,0,-1,1616,533,2.88716,4.30986
399,491,8.95862,-8.55518,0,0,0,0,0,0,0,-1,1623,533,8.95864,8.55516
406,491,8.10132,-8.01874,0,0,0,0,0,0,0,-1,1630,533,8.10135,8.01875
413,491,5.31848,-3.7124,0,0,0,0,0,0,0,-1,1637,533,5.31849,3.7124
420,491,4.86389,-3.95892,0,0,0,0,0,0,0,-1,1644,533,4.86387,3.95893
427,491,7.05688,-7.79913,0,0,0,0,0,0,0,-1,1651,533,7.05688,7.79911
434,491,6.96033,-7.5788,-0.00593966,-0.000769211,-0.00575896,0.00295817,-0.00966704,-0.99637,0.0076245,0.0436394,1658,533,6.96028,7.5788
441,491,6.72998,-7.4801,-0.00409986,0.00028258,-0.003946,0.00260493,-0.00642222,-1.03885,0.00536491,0.0228282,1665,533,6.72994,7.48012
448,491,6.69006,-7.20819,-0.00253458,0.00110971,-0.00249074,0.00237366,-0.00379853,-1.1012,0.00359503,0.0120307,1672,533,6.69012,7.20819
455,491,6.70056,-6.95844,-0.00135777,0.00140002,-0.0014904,0.00205155,-0.0020093,-1.15868,0.00234458,0.0115604,1679,533,6.70052,6.95844
462,491,6.7041,-6.71521,-0.000355497,0.00147834,-0.000651783,0.00168639,-0.00056355,-1.26181,0.00135185,0.0150309,1686,533,6.70405,6.71518
469,491,6.68188,-6.45532,0.000300599,0.00142098,-0.000226373,0.00146499,0.000256589,-1.37878,0.000903357,0.0142556,1693,533,6.68188,6.4553
476,491,6.69458,-6.18024,0.000652795,0.00130217,7.67305e-05,0.00131111,0.000643851,1.45476,0.000757011,0.0102806,1700,533,6.69461,6.18024
483,491,6.6875,-5.90179,0.000784496,0.00118486,0.000261285,0.00131384,0.000655524,1.11228,0.000758544,0.0113898,1707,533,6.68751,5.9018
490,491,6.68494,-5.65961,0.00074817,0.00100837,0.000381667,0.0012815,0.000475038,0.949658,0.000748077,0.00994191,1714,533,6.68493,5.65961
497,491,6.67712,-5.41724,0.000447772,0.000794306,0.000355158,0.00101621,0.00022587,1.01234,0.000616141,0.010601,1721,533,6.67714,5.41726
504,491,6.69568,-5.14258,0.000163189,0.00158891,0.000509504,0.00175227,-1.72178e-07,1.26052,0.00116824,0.012568,1728,533,6.69568,5.14256
511,491,6.69299,-4.86926,-0.000325551,0.00227686,0.000629386,0.00242108,-0.000469774,1.34554,0.0017913,0.01231,1735,533,6.69301,4.86924
518,491,6.67688,-4.59265,-0.000833371,0.00339596,0.000836895,0.00355554,-0.000992953,1.38237,0.00276151,0.00931314,1742,533,6.67693,4.59267
525,491,6.68726,-4.30145,-0.00124289,0.00513721,0.00120515,0.00535726,-0.00146295,1.39019,0.0041461,0.00887122,1749,533,6.6873,4.30145
532,491,6.70215,-4.04602,-0.00145814,0.00771062,0.0018202,0.00805875,-0.00180627,1.38182,0.00606492,0.0179437,1756,533,6.70219,4.04603
539,491,6.62207,-3.82874,-0.00130844,0.011388,0.00281355,0.0119836,-0.00190399,1.3622,0.00869349,0.0271796,1763,533,6.62203,3.82873
546,491,6.44202,-3.36511,-0.000713776,0.0159583,0.00414259,0.0169309,-0.00168636,1.34019,0.0118893,0.0373052,1770,533,6.44197,3.3651
553,491,6.54724,-2.18494,0.00029725,0.0215452,0.00580132,0.023026,-0.00118349,1.32089,0.01576,0.0494387,1777,533,6.54728,2.18495
560,491,6.2887,-1.04779,0,0,0,0,0,0,0,-1,1784,533,6.2887,1.04778
567,491,5.67651,-1.3562,0,0,0,0,0,0,0,-1,1791,533,5.67649,1.3562
574,491,8.0719,1.58325,0,0,0,0,0,0,0,-1,1798,533,8.07195,-1.58326
581,491,9.44812,1.60931,0,0,0,0,0,0,0,-1,1805,533,9.44808,-1.60933
588,491,11.0497,1.54962,0,0,0,0,0,0,0,-1,1812,533,11.0496,-1.54963
595,491,0,0,0,0,0,0,0,0,0,-1,1819,533,0,0
602,491,0,0,0,0,0,0,0,0,0,-1,1826,533,0,0
609,491,0,0,0,0,0,0,0,0,0,-1,1833,533,0,0
616,491,0,0,0,0,0,0,0,0,0,-1,1840,533,0,0
623,491,0,0,0,0,0,0,0,0,0,-1,1847,533,0,0
630,491,0,0,0,0,0,0,0,0,0,-1,1854,533,0,0
637,491,0,0,0,0,0,0,0,0,0,-1,1861,533,0,0
644,491,0,0,0,0,0,0,0,0,0,-1,1868,533,0,0
651,491,0,0,0,0,0,0,0,0,0,-1,1875,533,0,0
658,491,0,0,0,0,0,0,0,0,0,-1,1882,533,0,0
665,491,0,0,0,0,0,0,0,0,0,-1,1889,533,0,0
672,491,0,0,0,0,0,0,0,0,0,-1,1896,533,0,0
679,491,0,0,0,0,0,0,0,0,0,-1,1903,533,0,0
686,491,0,0,0,0,0,0,0,0,0,-1,1910,533,0,0
693,491,0,0,0,0,0,0,0,0,0,-1,1917,533,0,0
700,491,0,0,0,0,0,0,0,0,0,-1,1924,533,0,0
707,491,0,0,0,0,0,0,0,0,0,-1,1931,533,0,0
714,491,0,0,0,0,0,0,0,0,0,-1,1938,533,0,0
721,491,0,0,0,0,0,0,0,0,0,-1,1945,533,0,0
728,491,0,0,0,0,0,0,0,0,0,-1,1952,533,0,0
735,491,0,0,0,0,0,0,0,0,0,-1,1959,533,0,0
742,491,0,0,0,0,0,0,0,0,0,-1,1966,533,0,0
749,491,0,0,0,0,0,0,0,0,0,-1,1973,533,0,0
756,491,0,0,0,0,0,0,0,0,0,-1,1980,533,0,0
763,491,0,0,0,0,0,0,0,0,0,-1,1987,533,0,0
770,491,0,0,0,0,0,0,0,0,0,-1,1994,533,0,0
777,491,0,0,0,0,0,0,0,0,0,-1,2001,533,0,0
784,491,0,0,0,0,0,0,0,0,0,-1,2008,533,0,0
791,491,0,0,0,0,0,0,0,0,0,-1,2015,533,0,0
798,491,0,0,0,0,0,0,0,0,0,-1,2022,533,0,0
805,491,0,0,0,0,0,0,0,0,0,-1,2029,533,0,0
812,491,0,0,0,0,0,0,0,0,0,-1,2036,533,0,0
-700,484,0,0,0,0,0,0,0,0,0,-1,524,540,0,0
-693,484,0,0,0,0,0,0,0,0,0,-1,531,540,0,0
-686,484,0,0,0,0,0,0,0,0,0,-1,538,540,0,0
-679,484,0,0,0,0,0,0,0,0,0,-1,545,540,0,0
-672,484,0,0,0,0,0,0,0,0,0,-1,552,540,0,0
-665,484,0,0,0,0,0,0,0,0,0,-1,559,540,0,0
-658,484,0,0,0,0,0,0,0,0,0,-1,566,540,0,0
-651,484,0,0,0,0,0,0,0,0,0,-1,573,540,0,0
-644,484,0,0,0,0,0,0,0,0,0,-1,580,540,0,0
-637,484,0,0,0,0,0,0,0,0,0,-1,587,540,0,0
-630,484,0,0,0,0,0,0,0,0,0,-1,594,540,0,0
-623,484,0,0,0,0,0,0,0,0,0,-1,601,540,0,0
-616,484,0,0,0,0,0,0,0,0,0,-1,608,540,0,0
-609,484,0,0,0,0,0,0,0,0,0,-1,615,540,0,0
-602,484,0,0,0,0,0,0,0,0,0,-1,622,540,0,0
-595,484,0,0,0,0,0,0,0,0,0,-1,629,540,0,0
-588,484,0,0,0,0,0,0,0,0,0,-1,636,540,0,0
-581,484,0,0,0,0,0,0,0,0,0,-1,643,540,0,0
-574,484,0,0,0,0,0,0,0,0,0,-1,650,540,0,0
-567,484,0,0,0,0,0,0,0,0,0,-1,657,540,0,0
-560,484,0,0,0,0,0,0,0,0,0,-1,664,540,0,0
-553,484,0,0,0,0,0,0,0,0,0,-1,671,540,0,0
-546,484,0,0,0,0,0,0,0,0,0,-1,678,540,0,0
-539,484,0,0,0,0,0,0,0,0,0,-1,685,540,0,0
-532,484,0,0,0,0,0,0,0,0,0,-1,692,540,0,0
-525,484,0,0,0,0,0,0,0,0,0,-1,699,540,0,0
-518,484,0,0,0,0,0,0,0,0,0,-1,706,540,0,0
-511,484,0,0,0,0,0,0,0,0,0,-1,713,540,0,0
-504,484,0,0,0,0,0,0,0,0,0,-1,720,540,0,0
-497,484,0,0,0,0,0,0,0,0,0,-1,727,540,0,0
-490,484,0,0,0,0,0,0,0,0,0,-1,734,540,0,0
-483,484,0,0,0,0,0,0,0,0,0,-1,741,540,0,0
-476,484,-8.46552,1.44702,0,0,0,0,0,0,0,-1,748,540,-8.46554,-1.44702
-469,484,-7.82343,1.70355,0,0,0,0,0,0,0,-1,755,540,-7.82345,-1.70355
-462,484,-8.36987,3.08612,0,0,0,0,0,0,0,-1,762,540,-8.36988,-3.0861
-455,484,-6.77197,2.07092,0,0,0,0,0,0,0,-1,769,540,-6.77197,-2.07094
-448,484,4.11273,-0.538879,0,0,0,0,0,0,0,-1,776,540,4.11275,0.538855
-441,484,-3.39404,-0.489868,0,0,0,0,0,0,0,-1,783,540,-3.39407,0.489893
-434,484,-1.38214,-4.11621,0,0,0,0,0,0,0,-1,790,540,-1.38212,4.11623
-427,484,-1.57526,-4.13977,0.00765879,0.0158068,-0.0131801,0.0255281,-0.00206257,-0.935291,0.0177463,0.0436542,797,540,-1.57527,4.13977
-420,484,-1.19525,-4.97125,0.00602442,0.0127604,-0.0104398,0.020362,-0.00157721,-0.941433,0.0141298,0.0374922,804,540,-1.19522,4.97124
-413,484,-1.15686,-5.28522,0.0045669,0.00998161,-0.00812327,0.0158368,-0.00128829,-0.946251,0.0110125,0.0219654,811,540,-1.15689,5.28519
-406,484,-1.15051,-5.59479,0.00333475,0.00774768,-0.00614225,0.0120677,-0.000985322,-0.957834,0.00839291,0.0126967,818,540,-1.15052,5.59482
-399,484,-1.19177,-5.84741,0.0023468,0.00585971,-0.0045572,0.00898723,-0.000780721,-0.969337,0.00626796,0.014053,825,540,-1.19178,5.84743
-392,484,-1.21533,-6.07275,0.00171904,0.00416732,-0.00326863,0.00643352,-0.00054715,-0.96457,0.00448254,0.0166487,832,540,-1.21534,6.07272
-385,484,-1.2179,-6.33563,0.00140426,0.00276421,-0.00222238,0.00440831,-0.000239843,-0.933859,0.00302199,0.0121668,839,540,-1.2179,6.33565
-378,484,-1.19965,-6.59045,0.0012525,0.00145483,-0.00140048,0.00275779,-5.04607e-05,-0.821453,0.00185558,0.0135002,846,540,-1.19967,6.59047
-371,484,-1.20605,-6.83325,0.00110006,0.000196681,-0.000698878,0.00148051,-0.000183766,-0.49851,0.00105362,0.0155582,853,540,-1.20607,6.83324
-364,484,-1.224,-7.08008,0.00116208,-0.000493985,-0.000369565,0.00124081,-0.000572714,-0.209894,0.00107046,0.0116517,860,540,-1.22398,7.08011
-357,484,-1.22552,-7.32892,0.00149082,-0.00103241,-0.000246862,0.00151474,-0.00105633,-0.096615,0.00149226,0.0131605,867,540,-1.22551,7.32889
-350,484,-1.23029,-7.56384,0.00188438,-0.0013636,-0.000300748,0.001912,-0.00139121,-0.091558,0.00191499,0.0151969,874,540,-1.23031,7.56387
-343,484,-1.19904,-7.79669,0.00222757,-0.00154454,-0.000453462,0.00228132,-0.00159829,-0.117975,0.00225143,0.0206418,881,540,-1.19904,7.79671
-336,484,-1.14545,-8.00812,0.0025419,-0.00158855,-0.000699532,0.00265716,-0.00170381,-0.163295,0.00253778,0.0231629,888,540,-1.14548,8.00811
-329,484,-1.13824,-8.198,0.00294439,-0.00130241,-0.00114768,0.0032347,-0.00159271,-0.247756,0.00284034,0.0307688,895,540,-1.13821,8.19798
-322,484,-1.01685,-8.56799,0.00337798,-0.000890086,-0.00166081,0.00394809,-0.0014602,-0.330669,0.00323073,0.0396619,902,540,-1.01684,8.56799
-315,484,-1.19122,-8.76221,0.00398052,-0.000303687,-0.002326,0.00500052,-0.00132368,-0.413266,0.00385149,0.0456231,909,540,-1.19123,8.76221
-308,484,-1.32623,-8.9317,0,0,0,0,0,0,0,-1,916,540,-1.32626,8.93173
-301,484,-1.33453,-6.52667,0,0,0,0,0,0,0,-1,923,540,-1.33454,6.5267
-294,484,-1.61224,-8.17059,0,0,0,0,0,0,0,-1,930,540,-1.61227,8.17058
-287,484,-0.715759,-5.62103,0,0,0,0,0,0,0,-1,937,540,-0.715772,5.62105
-280,484,2.66742,-1.6795,0,0,0,0,0,0,0,-1,944,540,2.6674,1.67949
-273,484,2.53125,-2.22296,0,0,0,0,0,0,0,-1,951,540,2.53128,2.22295
-266,484,2.6778,-2.72058,0,0,0,0,0,0,0,-1,958,540,2.6778,2.72061
-259,484,2.41718,-2.59894,0,0,0,0,0,0,0,-1,965,540,2.41717,2.59892
-252,484,10.6069,-11.696,0,0,0,0,0,0,0,-1,972,540,10.6069,11.696
-245,484,8.0415,-9.22931,0,0,0,0,0,0,0,-1,979,540,8.0415,9.2293
-238,484,5.56836,-6.82672,0,0,0,0,0,0,0,-1,986,540,5.56834,6.82672
-231,484,3.39185,-3.8576,0,0,0,0,0,0,0,-1,993,540,3.39183,3.85763
-224,484,1.14313,-1.21228,0,0,0,0,0,0,0,-1,1000,540,1.14312,1.21226
-217,484,-0.745056,1.17358,0,0,0,0,0,0,0,-1,1007,540,-0.745043,-1.17359
-210,484,0,0,0,0,0,0,0,0,0,-1,1014,540,0,0
-203,484,0,0,0,0,0,0,0,0,0,-1,1021,540,0,0
-196,484,0,0,0,0,0,0,0,0,0,-1,1028,540,0,0
-189,484,0,0,0,0,0,0,0,0,0,-1,1035,540,0,0
-182,484,0,0,0,0,0,0,0,0,0,-1,1042,540,0,0
-175,484,0,0,0,0,0,0,0,0,0,-1,1049,540,0,0
-168,484,0,0,0,0,0,0,0,0,0,-1,1056,540,0,0
-161,484,0,0,0,0,0,0,0,0,0,-1,1063,540,0,0
-154,484,0,0,0,0,0,0,0,0,0,-1,1070,540,0,0
-147,484,0,0,0,0,0,0,0,0,0,-1,1077,540,0,0
-140,484,0,0,0,0,0,0,0,0,0,-1,1084,540,0,0
-133,484,0,0,0,0,0,0,0,0,0,-1,1091,540,0,0
-126,484,0,0,0,0,0,0,0,0,0,-1,1098,540,0,0
-119,484,0,0,0,0,0,0,0,0,0,-1,1105,540,0,0
-112,484,0,0,0,0,0,0,0,0,0,-1,1112,540,0,0
-105,484,0,0,0,0,0,0,0,0,0,-1,1119,540,0,0
-98,484,0,0,0,0,0,0,0,0,0,-1,1126,540,0,0
-91,484,0,0,0,0,0,0,0,0,0,-1,1133,540,0,0
-84,484,0,0,0,0,0,0,0,0,0,-1,1140,540,0,0
-77,484,0,0,0,0,0,0,0,0,0,-1,1147,540,0,0
-70,484,0,0,0,0,0,0,0,0,0,-1,1154,540,0,0
-63,484,0,0,0,0,0,0,0,0,0,-1,1161,540,0,0
-56,484,0,0,0,0,0,0,0,0,0,-1,1168,540,0,0
-49,484,0,0,0,0,0,0,0,0,0,-1,1175,540,0,0
-42,484,0,0,0,0,0,0,0,0,0,-1,1182,540,0,0
-35,484,0,0,0,0,0,0,0,0,0,-1,1189,540,0,0
-28,484,0,0,0,0,0,0,0,0,0,-1,1196,540,0,0
-21,484,0,0,0,0,0,0,0,0,0,-1,1203,540,0,0
-14,484,0,0,0,0,0,0,0,0,0,-1,1210,540,0,0
-7,484,0,0,0,0,0,0,0,0,0,-1,1217,540,0,0
0,484,0,0,0,0,0,0,0,0,0,-1,1224,540,0,0
7,484,0,0,0,0,0,0,0,0,0,-1,1231,540,0,0
14,484,0,0,0,0,0,0,0,0,0,-1,1238,540,0,0
21,484,0,0,0,0,0,0,0,0,0,-1,1245,540,0,0
28,484,0,0,0,0,0,0,0,0,0,-1,1252,540,0,0
35,484,0,0,0,0,0,0,0,0,0,-1,1259,540,0,0
42,484,0,0,0,0,0,0,0,0,0,-1,1266,540,0,0
49,484,0,0,0,0,0,0,0,0,0,-1,1273,540,0,0
56,484,0,0,0,0,0,0,0,0,0,-1,1280,540,0,0
63,484,0,0,0,0,0,0,0,0,0,-1,1287,540,0,0
70,484,0,0,0,0,0,0,0,0,0,-1,1294,540,0,0
77,484,0,0,0,0,0,0,0,0,0,-1,1301,540,0,0
84,484,0,0,0,0,0,0,0,0,0,-1,1308,540,0,0
91,484,0,0,0,0,0,0,0,0,0,-1,1315,540,0,0
98,484,0,0,0,0,0,0,0,0,0,-1,1322,540,0,0
105,484,0,0,0,0,0,0,0,0,0,-1,1329,540,0,0
112,484,0,0,0,0,0,0,0,0,0,-1,1336,540,0,0
119,484,0,0,0,0,0,0,0,0,0,-1,1343,540,0,0
126,484,0,0,0,0,0,0,0,0,0,-1,1350,540,0,0
133,484,0,0,0,0,0,0,0,0,0,-1,1357,540,0,0
140,484,0,0,0,0,0,0,0,0,0,-1,1364,540,0,0
147,484,0,0,0,0,0,0,0,0,0,-1,1371,540,0,0
154,484,0,0,0,0,0,0,0,0,0,-1,1378,540,0,0
161,484,0,0,0,0,0,0,0,0,0,-1,1385,540,0,0
168,484,0,0,0,0,0,0,0,0,0,-1,1392,540,0,0
175,484,0,0,0,0,0,0,0,0,0,-1,1399,540,0,0
182,484,0,0,0,0,0,0,0,0,0,-1,1406,540,0,0
189,484,0,0,0,0,0,0,0,0,0,-1,1413,540,0,0
196,484,0,0,0,0,0,0,0,0,0,-1,1420,540,0,0
203,484,0,0,0,0,0,0,0,0,0,-1,1427,540,0,0
210,484,0,0,0,0,0,0,0,0,0,-1,1434,540,0,0
217,484,0,0,0,0,0,0,0,0,0,-1,1441,540,0,0
224,484,0,0,0,0,0,0,0,0,0,-1,1448,540,0,0
231,484,0,0,0,0,0,0,0,0,0,-1,1455,540,0,0
238,484,0,0,0,0,0,0,0,0,0,-1,1462,540,0,0
245,484,0,0,0,0,0,0,0,0,0,-1,1469,540,0,0
252,484,0,0,0,0,0,0,0,0,0,-1,1476,540,0,0
259,484,0,0,0,0,0,0,0,0,0,-1,1483,540,0,0
266,484,0,0,0,0,0,0,0,0,0,-1,1490,540,0,0
273,484,0,0,0,0,0,0,0,0,0,-1,1497,540,0,0
280,484,0,0,0,0,0,0,0,0,0,-1,1504,540,0,0
287,484,0,0,0,0,0,0,0,0,0,-1,1511,540,0,0
294,484,0,0,0,0,0,0,0,0,0,-1,1518,540,0,0
301,484,0,0,0,0,0,0,0,0,0,-1,1525,540,0,0
308,484,0,0,0,0,0,0,0,0,0,-1,1532,540,0,0
315,484,0,0,0,0,0,0,0,0,0,-1,1539,540,0,0
322,484,0,0,0,0,0,0,0,0,0,-1,1546,540,0,0
329,484,0,0,0,0,0,0,0,0,0,-1,1553,540,0,0
336,484,4.38708,-1.64136,0,0,0,0,0,0,0,-1,1560,540,4.38704,1.64138
343,484,7.57996,-1.05457,0,0,0,0,0,0,0,-1,1567,540,7.57995,1.05454
350,484,8.10425,-1.18878,0,0,0,0,0,0,0,-1,1574,540,8.1043,1.18877
357,484,7.74902,-3.80286,0,0,0,0,0,0,0,-1,1581,540,7.74901,3.80287
364,484,6.31262,-3.87213,0,0,0,0,0,0,0,-1,1588,540,6.31263,3.87215
371,484,7.21008,0.973511,0,0,0,0,0,0,0,-1,1595,540,7.21014,-0.973541
378,484,11.0563,1.5014,0,0,0,0,0,0,0,-1,1602,540,11.0563,-1.5014
385,484,14.3469,2.5545,0,0,0,0,0,0,0,-1,1609,540,14.3469,-2.55453
392,484,7.39453,-4.95026,0,0,0,0,0,0,0,-1,1616,540,7.39448,4.95023
399,484,7.14417,-2.5639,0,0,0,0,0,0,0,-1,1623,540,7.14417,2.56391
406,484,7.88953,-2.47321,0,0,0,0,0,0,0,-1,1630,540,7.88954,2.47323
413,484,4.4895,-1.08673,0,0,0,0,0,0,0,-1,1637,540,4.48952,1.08674
420,484,4.50012,-2.11255,0,0,0,0,0,0,0,-1,1644,540,4.50012,2.11256
427,484,5.28601,-3.54053,0,0,0,0,0,0,0,-1,1651,540,5.28599,3.54051
434,484,7.52075,-7.42664,0,0,0,0,0,0,0,-1,1658,540,7.52074,7.42665
441,484,7.06885,-7.49835,0,0,0,0,0,0,0,-1,1665,540,7.06885,7.49836
448,484,6.91638,-7.15948,-0.00295276,0.00171732,-0.00288088,0.00309063,-0.00432608,-1.12596,0.0043018,0.0393217,1672,540,6.91634,7.15951
455,484,6.9491,-6.96637,-0.00148528,0.00212235,-0.00163521,0.00275321,-0.00211614,-1.20259,0.00281933,0.0192979,1679,540,6.9491,6.96635
462,484,6.96252,-6.71173,-0.000286605,0.00223084,-0.000659083,0.00239295,-0.000448718,-1.32962,0.001764,0.0144122,1686,540,6.96251,6.71172
469,484,6.95898,-6.44708,0.000486467,0.00217042,-0.000145645,0.00218293,0.000473963,-1.48515,0.00132584,0.0162848,1693,540,6.95893,6.4471
476,484,6.96777,-6.1712,0.000950035,0.00204645,0.00023002,0.00209275,0.000903734,1.37216,0.00121198,0.0157282,1700,540,6.96779,6.17121
483,484,6.96277,-5.92688,0.00119821,0.00184811,0.000485423,0.00210731,0.00093901,1.08035,0.00121905,0.0123578,1707,540,6.96274,5.9269
490,484,6.95654,-5.6767,0.00125522,0.00164771,0.000636935,0.00211795,0.000784981,0.934839,0.00123636,0.0119892,1714,540,6.95657,5.67668
497,484,6.93945,-5.42218,0.000984011,0.00131627,0.000574527,0.00174821,0.000552077,0.92614,0.00103191,0.0130593,1721,540,6.9395,5.42215
504,484,6.95642,-5.16296,0.000652666,0.00173728,0.000626777,0.0020238,0.000366151,1.14203,0.00124522,0.016634,1728,540,6.95638,5.16295
511,484,6.97766,-4.88428,0.000179002,0.00216907,0.000681688,0.00238018,-3.21118e-05,1.27047,0.0015976,0.0188922,1735,540,6.97764,4.88429
518,484,6.96777,-4.59875,-0.000285314,0.00293545,0.000802952,0.00312453,-0.000474394,1.33953,0.00225783,0.0149968,1742,540,6.96777,4.59873
525,484,6.95801,-4.32202,-0.000654956,0.00421544,0.00104668,0.00443085,-0.000870368,1.36783,0.00328271,0.0120616,1749,540,6.958,4.32203
532,484,6.97681,-4.04419,-0.000861777,0.00613638,0.00148027,0.00643661,-0.00116201,1.37069,0.00472627,0.0139559,1756,540,6.97678,4.04417
539,484,6.94275,-3.72351,-0.00076336,0.00875867,0.0021782,0.00923329,-0.00123797,1.35626,0.00660696,0.0214966,1763,540,6.94277,3.72351
546,484,6.84473,-3.49634,-0.000318113,0.0119953,0.00314225,0.0127508,-0.00107362,1.33484,0.00888009,0.0242061,1770,540,6.84472,3.49632
553,484,7.08618,-3.22638,0.000405144,0.0157761,0.00429978,0.0168972,-0.000715891,1.31575,0.0115108,0.0363177,1777,540,7.08615,3.22635
560,484,7.3584,-2.94568,0,0,0,0,0,0,0,-1,1784,540,7.35835,2.94568
567,484,7.78223,-1.38312,0,0,0,0,0,0,0,-1,1791,540,7.78224,1.38311
574,484,5.74463,1.50922,0,0,0,0,0,0,0,-1,1798,540,5.74463,-1.50924
581,484,10.34,2.9491,0,0,0,0,0,0,0,-1,1805,540,10.34,-2.94912
588,484,10.6669,2.88568,0,0,0,0,0,0,0,-1,1812,540,10.6669,-2.88567
595,484,10.7233,1.04767,0,0,0,0,0,0,0,-1,1819,540,10.7233,-1.04766
602,484,0,0,0,0,0,0,0,0,0,-1,1826,540,0,0
609,484,0,0,0,0,0,0,0,0,0,-1,1833,540,0,0
616,484,0,0,0,0,0,0,0,0,0,-1,1840,540,0,0
623,484,0,0,0,0,0,0,0,0,0,-1,1847,540,0,0
630,484,0,0,0,0,0,0,0,0,0,-1,1854,540,0,0
637,484,0,0,0,0,0,0,0,0,0,-1,1861,540,0,0
644,484,0,0,0,0,0,0,0,0,0,-1,1868,540,0,0
651,484,0,0,0,0,0,0,0,0,0,-1,1875,540,0,0
658,484,0,0,0,0,0,0,0,0,0,-1,1882,540,0,0
665,484,0,0,0,0,0,0,0,0,0,-1,1889,540,0,0
672,484,0,0,0,0,0,0,0,0,0,-1,1896,540,0,0
679,484,0,0,0,0,0,0,0,0,0,-1,1903,540,0,0
686,484,0,0,0,0,0,0,0,0,0,-1,1910,540,0,0
693,484,0,0,0,0,0,0,0,0,0,-1,1917,540,0,0
700,484,0,0,0,0,0,0,0,0,0,-1,1924,540,0,0
707,484,0,0,0,0,0,0,0,0,0,-1,1931,540,0,0
714,484,0,0,0,0,0,0,0,0,0,-1,1938,540,0,0
721,484,0,0,0,0,0,0,0,0,0,-1,1945,540,0,0
728,484,0,0,0,0,0,0,0,0,0,-1,1952,540,0,0
735,484,0,0,0,0,0,0,0,0,0,-1,1959,540,0,0
742,484,0,0,0,0,0,0,0,0,0,-1,1966,540,0,0
749,484,0,0,0,0,0,0,0,0,0,-1,1973,540,0,0
756,484,0,0,0,0,0,0,0,0,0,-1,1980,540,0,0
763,484,0,0,0,0,0,0,0,0,0,-1,1987,540,0,0
770,484,0,0,0,0,0,0,0,0,0,-1,1994,540,0,0
777,484,0,0,0,0,0,0,0,0,0,-1,2001,540,0,0
784,484,0,0,0,0,0,0,0,0,0,-1,2008,540,0,0
791,484,0,0,0,0,0,0,0,0,0,-1,2015,540,0,0
798,484,0,0,0,0,0,0,0,0,0,-1,2022,540,0,0
805,484,0,0,0,0,0,0,0,0,0,-1,2029,540,0,0
812,484,0,0,0,0,0,0,0,0,0,-1,2036,540,0,0
-700,477,0,0,0,0,0,0,0,0,0,-1,524,547,0,0
-693,477,0,0,0,0,0,0,0,0,0,-1,531,547,0,0
-686,477,0,0,0,0,0,0,0,0,0,-1,538,547,0,0
-679,477,0,0,0,0,0,0,0,0,0,-1,545,547,0,0
-672,477,0,0,0,0,0,0,0,0,0,-1,552,547,0,0
-665,477,0,0,0,0,0,0,0,0,0,-1,559,547,0,0
-658,477,0,0,0,0,0,0,0,0,0,-1,566,547,0,0
-651,477,0,0,0,0,0,0,0,0,0,-1,573,547,0,0
-644,477,0,0,0,0,0,0,0,0,0,-1,580,547,0,0
-637,477,0,0,0,0,0,0,0,0,0,-1,587,547,0,0
-630,477,0,0,0,0,0,0,0,0,0,-1,594,547,0,0
-623,477,0,0,0,0,0,0,0,0,0,-1,601,547,0,0
-616,477,0,0,0,0,0,0,0,0,0,-1,608,547,0,0
-609,477,0,0,0,0,0,0,0,0,0,-1,615,547,0,0
-602,477,0,0,0,0,0,0,0,0,0,-1,622,547,0,0
-595,477,0,0,0,0,0,0,0,0,0,-1,629,547,0,0
-588,477,0,0,0,0,0,0,0,0,0,-1,636,547,0,0
-581,477,0,0,0,0,0,0,0,0,0,-1,643,547,0,0
-574,477,0,0,0,0,0,0,0,0,0,-1,650,547,0,0
-567,477,0,0,0,0,0,0,0,0,0,-1,657,547,0,0
-560,477,0,0,0,0,0,0,0,0,0,-1,664,547,0,0
-553,477,0,0,0,0,0,0,0,0,0,-1,671,547,0,0
-546,477,0,0,0,0,0,0,0,0,0,-1,678,547,0,0
-539,477,0,0,0,0,0,0,0,0,0,-1,685,547,0,0
-532,477,0,0,0,0,0,0,0,0,0,-1,692,547,0,0
-525,477,0,0,0,0,0,0,0,0,0,-1,699,547,0,0
-518,477,0,0,0,0,0,0,0,0,0,-1,706,547,0,0
-511,477,0,0,0,0,0,0,0,0,0,-1,713,547,0,0
-504,477,0,0,0,0,0,0,0,0,0,-1,720,547,0,0
-497,477,0,0,0,0,0,0,0,0,0,-1,727,547,0,0
-490,477,0,0,0,0,0,0,0,0,0,-1,734,547,0,0
-483,477,-7.73151,-0.224182,0,0,0,0,0,0,0,-1,741,547,-7.73152,0.224176
-476,477,-6.25806,-0.310547,0,0,0,0,0,0,0,-1,748,547,-6.25804,0.310549
-469,477,-7.26617,0.525085,0,0,0,0,0,0,0,-1,755,547,-7.2662,-0.525111
-462,477,-6.65143,1.06042,0,0,0,0,0,0,0,-1,762,547,-6.65143,-1.06043
-455,477,-5.31757,0.429016,0,0,0,0,0,0,0,-1,769,547,-5.31756,-0.42902
-448,477,-3.77142,-0.38324,0,0,0,0,0,0,0,-1,776,547,-3.77141,0.38322
-441,477,-1.41071,-4.15662,0,0,0,0,0,0,0,-1,783,547,-1.4107,4.15661
-434,477,-1.48523,-4.36041,0.00702727,0.0143165,-0.0125269,0.0237182,-0.00237442,-0.926963,0.0166601,0.0443102,790,547,-1.48522,4.36042
-427,477,-1.40057,-4.745,0.00573085,0.0119384,-0.0101166,0.0194166,-0.00174738,-0.93424,0.0135644,0.0248126,797,547,-1.4006,4.74501
-420,477,-1.44727,-4.94672,0.00460061,0.00976563,-0.00808531,0.0156709,-0.00130461,-0.939981,0.0109081,0.0205451,804,547,-1.44726,4.9467
-413,477,-1.43781,-5.28143,0.00355622,0.00768787,-0.00630942,0.0122611,-0.00101696,-0.943607,0.00853324,0.015285,811,547,-1.43781,5.28145
-406,477,-1.4516,-5.57367,0.00267034,0.00598895,-0.0047671,0.00937727,-0.000717987,-0.952877,0.00650407,0.0104447,818,547,-1.45162,5.57369
-399,477,-1.42865,-5.84906,0.00192552,0.00446604,-0.00348309,0.00690327,-0.000511707,-0.96025,0.00478189,0.0173785,825,547,-1.42864,5.84908
-392,477,-1.44818,-6.09601,0.00148504,0.00298405,-0.00239223,0.00474143,-0.000272349,-0.937209,0.00325554,0.0165631,832,547,-1.44821,6.09603
-385,477,-1.45709,-6.30725,0.0013037,0.00176295,-0.00148372,0.00303471,3.19351e-05,-0.862169,0.00201258,0.0146436,839,547,-1.45709,6.30723
-378,477,-1.44897,-6.57843,0.00125364,0.000562942,-0.000759253,0.0017424,7.41867e-05,-0.571956,0.00113768,0.0135564,846,547,-1.44896,6.5784
-371,477,-1.45673,-6.82404,0.00121778,-0.000569117,-0.000174215,0.00123461,-0.000585944,-0.0962873,0.0010731,0.0135444,853,547,-1.45675,6.82404
-364,477,-1.46979,-7.07098,0.00134515,-0.00127942,0.000126413,0.00135122,-0.00128549,0.0480169,0.00152247,0.0136469,860,547,-1.46977,7.07098
-357,477,-1.48969,-7.31647,0.00175264,-0.00186482,0.000221025,0.00176609,-0.00187828,0.060798,0.00210441,0.0115813,867,547,-1.48971,7.31644
-350,477,-1.49231,-7.55634,0.00221175,-0.00224639,0.000157054,0.00221728,-0.00225191,0.0351705,0.00258031,0.0104713,874,547,-1.49233,7.55634
-343,477,-1.44781,-7.82788,0.00260245,-0.00250668,-1.79397e-05,0.00260252,-0.00250674,-0.00351123,0.00295001,0.0172661,881,547,-1.44779,7.82791
-336,477,-1.34802,-8.08685,0.00294688,-0.00265539,-0.000291801,0.00296204,-0.00267055,-0.0518991,0.00325343,0.02714,888,547,-1.34803,8.08685
-329,477,-1.2124,-8.32416,0,0,0,0,0,0,0,-1,895,547,-1.21239,8.32416
-322,477,-1.23529,-8.81262,0,0,0,0,0,0,0,-1,902,547,-1.23526,8.81259
-315,477,-1.67358,-9.15253,0,0,0,0,0,0,0,-1,909,547,-1.67356,9.15253
-308,477,-1.30127,-6.55188,0,0,0,0,0,0,0,-1,916,547,-1.30128,6.55185
-301,477,-1.21185,-6.28351,0,0,0,0,0,0,0,-1,923,547,-1.21184,6.28352
-294,477,-0.352905,3.27142,0,0,0,0,0,0,0,-1,930,547,-0.35292,-3.27144
-287,477,3.54364,2.15399,0,0,0,0,0,0,0,-1,937,547,3.54362,-2.15396
-280,477,1.97308,-0.954163,0,0,0,0,0,0,0,-1,944,547,1.9731,0.954178
-273,477,2.11621,-3.76709,0,0,0,0,0,0,0,-1,951,547,2.11619,3.76706
-266,477,2.04669,-3.42389,0,0,0,0,0,0,0,-1,958,547,2.04671,3.42391
-259,477,-1.33478,-3.41205,0,0,0,0,0,0,0,-1,965,547,-1.3348,3.41206
-252,477,0.597168,-5.32922,0,0,0,0,0,0,0,-1,972,547,0.597144,5.32924
-245,477,2.27161,-7.02875,0,0,0,0,0,0,0,-1,979,547,2.27158,7.02873
-238,477,7.29095,-4.50336,0,0,0,0,0,0,0,-1,986,547,7.29093,4.50335
-231,477,4.88141,-2.23413,0,0,0,0,0,0,0,-1,993,547,4.88143,2.23413
-224,477,0,0,0,0,0,0,0,0,0,-1,1000,547,0,0
-217,477,0,0,0,0,0,0,0,0,0,-1,1007,547,0,0
-210,477,0,0,0,0,0,0,0,0,0,-1,1014,547,0,0
-203,477,0,0,0,0,0,0,0,0,0,-1,1021,547,0,0
-196,477,0,0,0,0,0,0,0,0,0,-1,1028,547,0,0
-189,477,0,0,0,0,0,0,0,0,0,-1,1035,547,0,0
-182,477,0,0,0,0,0,0,0,0,0,-1,1042,547,0,0
-175,477,0,0,0,0,0,0,0,0,0,-1,1049,547,0,0
-168,477,0,0,0,0,0,0,0,0,0,-1,1056,547,0,0
-161,477,0,0,0,0,0,0,0,0,0,-1,1063,547,0,0
-154,477,0,0,0,0,0,0,0,0,0,-1,1070,547,0,0
-147,477,0,0,0,0,0,0,0,0,0,-1,1077,547,0,0
-140,477,0,0,0,0,0,0,0,0,0,-1,1084,547,0,0
-133,477,0,0,0,0,0,0,0,0,0,-1,1091,547,0,0
-126,477,0,0,0,0,0,0,0,0,0,-1,1098,547,0,0
-119,477,0,0,0,0,0,0,0,0,0,-1,1105,547,0,0
-112,477,0,0,0,0,0,0,0,0,0,-1,1112,547,0,0
-105,477,0,0,0,0,0,0,0,0,0,-1,1119,547,0,0
-98,477,0,0,0,0,0,0,0,0,0,-1,1126,547,0,0
-91,477,0,0,0,0,0,0,0,0,0,-1,1133,547,0,0
-84,477,0,0,0,0,0,0,0,0,0,-1,1140,547,0,0
-77,477,0,0,0,0,0,0,0,0,0,-1,1147,547,0,0
-70,477,0,0,0,0,0,0,0,0,0,-1,1154,547,0,0
-63,477,0,0,0,0,0,0,0,0,0,-1,1161,547,0,0
-56,477,0,0,0,0,0,0,0,0,0,-1,1168,547,0,0
-49,477,0,0,0,0,0,0,0,0,0,-1,1175,547,0,0
-42,477,0,0,0,0,0,0,0,0,0,-1,1182,547,0,0
-35,477,0,0,0,0,0,0,0,0,0,-1,1189,547,0,0
-28,477,0,0,0,0,0,0,0,0,0,-1,1196,547,0,0
-21,477,0,0,0,0,0,0,0,0,0,-1,1203,547,0,0
-14,477,0,0,0,0,0,0,0,0,0,-1,1210,547,0,0
-7,477,0,0,0,0,0,0,0,0,0,-1,1217,547,0,0
0,477,0,0,0,0,0,0,0,0,0,-1,1224,547,0,0
7,477,0,0,0,0,0,0,0,0,0,-1,1231,547,0,0
14,477,0,0,0,0,0,0,0,0,0,-1,1238,547,0,0
21,477,0,0,0,0,0,0,0,0,0,-1,1245,547,0,0
28,477,0,0,0,0,0,0,0,0,0,-1,1252,547,0,0
35,477,0,0,0,0,0,0,0,0,0,-1,1259,547,0,0
42,477,0,0,0,0,0,0,0,0,0,-1,1266,547,0,0
49,477,0,0,0,0,0,0,0,0,0,-1,1273,547,0,0
56,477,0,0,0,0,0,0,0,0,0,-1,1280,547,0,0
63,477,0,0,0,0,0,0,0,0,0,-1,1287,547,0,0
70,477,0,0,0,0,0,0,0,0,0,-1,1294,547,0,0
77,477,0,0,0,0,0,0,0,0,0,-1,1301,547,0,0
84,477,0,0,0,0,0,0,0,0,0,-1,1308,547,0,0
91,477,0,0,0,0,0,0,0,0,0,-1,1315,547,0,0
98,477,0,0,0,0,0,0,0,0,0,-1,1322,547,0,0
105,477,0,0,0,0,0,0,0,0,0,-1,1329,547,0,0
112,477,0,0,0,0,0,0,0,0,0,-1,1336,547,0,0
119,477,0,0,0,0,0,0,0,0,0,-1,1343,547,0,0
126,477,0,0,0,0,0,0,0,0,0,-1,1350,547,0,0
133,477,0,0,0,0,0,0,0,0,0,-1,1357,547,0,0
140,477,0,0,0,0,0,0,0,0,0,-1,1364,547,0,0
147,477,0,0,0,0,0,0,0,0,0,-1,1371,547,0,0
154,477,0,0,0,0,0,0,0,0,0,-1,1378,547,0,0
161,477,0,0,0,0,0,0,0,0,0,-1,1385,547,0,0
168,477,0,0,0,0,0,0,0,0,0,-1,1392,547,0,0
175,477,0,0,0,0,0,0,0,0,0,-1,1399,547,0,0
182,477,0,0,0,0,0,0,0,0,0,-1,1406,547,0,0
189,477,0,0,0,0,0,0,0,0,0,-1,1413,547,0,0
196,477,0,0,0,0,0,0,0,0,0,-1,1420,547,0,0
203,477,0,0,0,0,0,0,0,0,0,-1,1427,547,0,0
210,477,0,0,0,0,0,0,0,0,0,-1,1434,547,0,0
217,477,0,0,0,0,0,0,0,0,0,-1,1441,547,0,0
224,477,0,0,0,0,0,0,0,0,0,-1,1448,547,0,0
231,477,0,0,0,0,0,0,0,0,0,-1,1455,547,0,0
238,477,0,0,0,0,0,0,0,0,0,-1,1462,547,0,0
245,477,0,0,0,0,0,0,0,0,0,-1,1469,547,0,0
252,477,0,0,0,0,0,0,0,0,0,-1,1476,547,0,0
259,477,0,0,0,0,0,0,0,0,0,-1,1483,547,0,0
266,477,0,0,0,0,0,0,0,0,0,-1,1490,547,0,0
273,477,0,0,0,0,0,0,0,0,0,-1,1497,547,0,0
280,477,0,0,0,0,0,0,0,0,0,-1,1504,547,0,0
287,477,0,0,0,0,0,0,0,0,0,-1,1511,547,0,0
294,477,0,0,0,0,0,0,0,0,0,-1,1518,547,0,0
301,477,0,0,0,0,0,0,0,0,0,-1,1525,547,0,0
308,477,0,0,0,0,0,0,0,0,0,-1,1532,547,0,0
315,477,0,0,0,0,0,0,0,0,0,-1,1539,547,0,0
322,477,0,0,0,0,0,0,0,0,0,-1,1546,547,0,0
329,477,0,0,0,0,0,0,0,0,0,-1,1553,547,0,0
336,477,0,0,0,0,0,0,0,0,0,-1,1560,547,0,0
343,477,0,0,0,0,0,0,0,0,0,-1,1567,547,0,0
350,477,1.7699,-3.32275,0,0,0,0,0,0,0,-1,1574,547,1.7699,3.32272
357,477,3.073,-4.83313,0,0,0,0,0,0,0,-1,1581,547,3.07303,4.83316
364,477,4.30127,-4.22864,0,0,0,0,0,0,0,-1,1588,547,4.30125,4.22865
371,477,4.57703,0.283264,0,0,0,0,0,0,0,-1,1595,547,4.57706,-0.283262
378,477,8.57947,1.05969,0,0,0,0,0,0,0,-1,1602,547,8.5795,-1.05972
385,477,12.3726,2.02356,0,0,0,0,0,0,0,-1,1609,547,12.3725,-2.02355
392,477,16.4678,2.76843,0,0,0,0,0,0,0,-1,1616,547,16.4678,-2.76845
399,477,8.00037,-2.29523,0,0,0,0,0,0,0,-1,1623,547,8.00031,2.2952
406,477,4.82495,2.7475,0,0,0,0,0,0,0,-1,1630,547,4.825,-2.74752
413,477,4.88171,-0.336426,0,0,0,0,0,0,0,-1,1637,547,4.88169,0.336398
420,477,3.34875,0.102722,0,0,0,0,0,0,0,-1,1644,547,3.34871,-0.1027
427,477,1.66772,-0.373108,0,0,0,0,0,0,0,-1,1651,547,1.66768,0.373104
434,477,3.76978,-2.30798,0,0,0,0,0,0,0,-1,1658,547,3.76974,2.30801
441,477,4.05444,-2.80402,0,0,0,0,0,0,0,-1,1665,547,4.05444,2.804
448,477,7.14404,-7.15778,0,0,0,0,0,0,0,-1,1672,547,7.14405,7.15775
455,477,7.20007,-7.00092,0,0,0,0,0,0,0,-1,1679,547,7.20003,7.00094
462,477,7.26782,-6.7951,-4.94957e-05,0.0029552,-0.000542319,0.00305008,-0.000144383,-1.39758,0.00208319,0.0363952,1686,547,7.26784,6.79513
469,477,7.2356,-6.4447,0.000853071,0.00288991,5.21896e-05,0.00289124,0.000851735,1.5452,0.00171557,0.0238318,1693,547,7.23558,6.44468
476,477,7.21448,-6.19891,0.00145495,0.0027789,0.000527746,0.00296353,0.00127033,1.23427,0.00171679,0.0181851,1700,547,7.21443,6.1989
483,477,7.23462,-5.93903,0.00183719,0.00250257,0.000869916,0.00310124,0.00123851,0.968036,0.00180255,0.0119223,1707,547,7.23468,5.93901
490,477,7.22876,-5.66626,0.00198592,0.0022924,0.00104844,0.00319874,0.00107958,0.857963,0.00187902,0.0117175,1714,547,7.22871,5.66629
497,477,7.20911,-5.38287,0.00171765,0.00184803,0.000947847,0.00273293,0.000832754,0.819735,0.00161748,0.0131418,1721,547,7.20906,5.38286
504,477,7.21191,-5.14441,0.00129822,0.00185084,0.000884302,0.002501,0.000648069,0.936823,0.00149876,0.0189049,1728,547,7.21194,5.14442
511,477,7.26819,-4.88849,0.000806525,0.00202763,0.000862022,0.00247342,0.000360736,1.09353,0.00154282,0.0234334,1735,547,7.26814,4.88847
518,477,7.24854,-4.61237,0.000341559,0.0024696,0.000886302,0.00279038,2.07791e-05,1.22353,0.00185337,0.0197095,1742,547,7.24858,4.61237
525,477,7.22986,-4.33112,-4.6534e-05,0.00333524,0.000999859,0.00360874,-0.000320035,1.30379,0.00251929,0.0164102,1749,547,7.22986,4.33112
532,477,7.20935,-4.08136,-0.000315178,0.004687,0.00125143,0.00498261,-0.000610786,1.33883,0.00354293,0.0180398,1756,547,7.20937,4.08138
539,477,7.2063,-3.72388,-0.000348572,0.00647965,0.00167719,0.00686937,-0.000738293,1.34248,0.00484447,0.0169535,1763,547,7.20633,3.72386
546,477,7.19348,-3.46436,-9.64668e-05,0.00867441,0.00231036,0.00924577,-0.000667825,1.32836,0.00639808,0.0200695,1770,547,7.19343,3.46435
553,477,7.19873,-3.21252,0.000324015,0.0111848,0.00306234,0.0119887,-0.000479938,1.31406,0.00815718,0.021936,1777,547,7.19872,3.21255
560,477,7.24341,-2.79858,0.00102652,0.0138864,0.00396575,0.0150111,-9.80864e-05,1.29447,0.0100402,0.0399637,1784,547,7.24336,2.79856
567,477,7.3335,-2.5506,0,0,0,0,0,0,0,-1,1791,547,7.33344,2.55061
574,477,6.82593,-0.916992,0,0,0,0,0,0,0,-1,1798,547,6.82598,0.916977
581,477,9.29321,-0.557007,0,0,0,0,0,0,0,-1,1805,547,9.29324,0.55703
588,477,9.75195,0.422729,0,0,0,0,0,0,0,-1,1812,547,9.75198,-0.42273
595,477,9.89172,1.21326,0,0,0,0,0,0,0,-1,1819,547,9.89174,-1.21328
602,477,6.5271,-0.964417,0,0,0,0,0,0,0,-1,1826,547,6.52706,0.964427
609,477,0,0,0,0,0,0,0,0,0,-1,1833,547,0,0
616,477,0,0,0,0,0,0,0,0,0,-1,1840,547,0,0
623,477,0,0,0,0,0,0,0,0,0,-1,1847,547,0,0
630,477,0,0,0,0,0,0,0,0,0,-1,1854,547,0,0
637,477,0,0,0,0,0,0,0,0,0,-1,1861,547,0,0
644,477,0,0,0,0,0,0,0,0,0,-1,1868,547,0,0
651,477,0,0,0,0,0,0,0,0,0,-1,1875,547,0,0
658,477,0,0,0,0,0,0,0,0,0,-1,1882,547,0,0
665,477,0,0,0,0,0,0,0,0,0,-1,1889,547,0,0
672,477,0,0,0,0,0,0,0,0,0,-1,1896,547,0,0
679,477,0,0,0,0,0,0,0,0,0,-1,1903,547,0,0
686,477,0,0,0,0,0,0,0,0,0,-1,1910,547,0,0
693,477,0,0,0,0,0,0,0,0,0,-1,1917,547,0,0
700,477,0,0,0,0,0,0,0,0,0,-1,1924,547,0,0
707,477,0,0,0,0,0,0,0,0,0,-1,1931,547,0,0
714,477,0,0,0,0,0,0,0,0,0,-1,1938,547,0,0
721,477,0,0,0,0,0,0,0,0,0,-1,1945,547,0,0
728,477,0,0,0,0,0,0,0,0,0,-1,1952,547,0,0
735,477,0,0,0,0,0,0,0,0,0,-1,1959,547,0,0
742,477,0,0,0,0,0,0,0,0,0,-1,1966,547,0,0
749,477,0,0,0,0,0,0,0,0,0,-1,1973,547,0,0
756,477,0,0,0,0,0,0,0,0,0,-1,1980,547,0,0
763,477,0,0,0,0,0,0,0,0,0,-1,1987,547,0,0
770,477,0,0,0,0,0,0,0,0,0,-1,1994,547,0,0
777,477,0,0,0,0,0,0,0,0,0,-1,2001,547,0,0
784,477,0,0,0,0,0,0,0,0,0,-1,2008,547,0,0
791,477,0,0,0,0,0,0,0,0,0,-1,2015,547,0,0
798,477,0,0,0,0,0,0,0,0,0,-1,2022,547,0,0
805,477,0,0,0,0,0,0,0,0,0,-1,2029,547,0,0
812,477,0,0,0,0,0,0,0,0,0,-1,2036,547,0,0
-700,470,0,0,0,0,0,0,0,0,0,-1,524,554,0,0
-693,470,0,0,0,0,0,0,0,0,0,-1,531,554,0,0
-686,470,0,0,0,0,0,0,0,0,0,-1,538,554,0,0
-679,470,0,0,0,0,0,0,0,0,0,-1,545,554,0,0
-672,470,0,0,0,0,0,0,0,0,0,-1,552,554,0,0
-665,470,0,0,0,0,0,0,0,0,0,-1,559,554,0,0
-658,470,0,0,0,0,0,0,0,0,0,-1,566,554,0,0
-651,470,0,0,0,0,0,0,0,0,0,-1,573,554,0,0
-644,470,0,0,0,0,0,0,0,0,0,-1,580,554,0,0
-637,470,0,0,0,0,0,0,0,0,0,-1,587,554,0,0
-630,470,0,0,0,0,0,0,0,0,0,-1,594,554,0,0
-623,470,0,0,0,0,0,0,0,0,0,-1,601,554,0,0
-616,470,0,0,0,0,0,0,0,0,0,-1,608,554,0,0
-609,470,0,0,0,0,0,0,0,0,0,-1,615,554,0,0
-602,470,0,0,0,0,0,0,0,0,0,-1,622,554,0,0
-595,470,0,0,0,0,0,0,0,0,0,-1,629,554,0,0
-588,470,0,0,0,0,0,0,0,0,0,-1,636,554,0,0
-581,470,0,0,0,0,0,0,0,0,0,-1,643,554,0,0
-574,470,0,0,0,0,0,0,0,0,0,-1,650,554,0,0
-567,470,0,0,0,0,0,0,0,0,0,-1,657,554,0,0
-560,470,0,0,0,0,0,0,0,0,0,-1,664,554,0,0
-553,470,0,0,0,0,0,0,0,0,0,-1,671,554,0,0
-546,470,0,0,0,0,0,0,0,0,0,-1,678,554,0,0
-539,470,0,0,0,0,0,0,0,0,0,-1,685,554,0,0
-532,470,0,0,0,0,0,0,0,0,0,-1,692,554,0,0
-525,470,0,0,0,0,0,0,0,0,0,-1,699,554,0,0
-518,470,0,0,0,0,0,0,0,0,0,-1,706,554,0,0
-511,470,0,0,0,0,0,0,0,0,0,-1,713,554,0,0
-504,470,0,0,0,0,0,0,0,0,0,-1,720,554,0,0
-497,470,0,0,0,0,0,0,0,0,0,-1,727,554,0,0
-490,470,-9.13263,-1.03125,0,0,0,0,0,0,0,-1,734,554,-9.1326,1.03127
-483,470,-7.68677,-1.03955,0,0,0,0,0,0,0,-1,741,554,-7.68678,1.03958
-476,470,-6.17969,-1.03394,0,0,0,0,0,0,0,-1,748,554,-6.17971,1.03395
-469,470,-6.23016,-0.651855,0,0,0,0,0,0,0,-1,755,554,-6.23014,0.651829
-462,470,-4.87915,-1.03705,0,0,0,0,0,0,0,-1,762,554,-4.87914,1.03702
-455,470,-3.55457,-1.53186,0,0,0,0,0,0,0,-1,769,554,-3.55456,1.53187
-448,470,-1.65314,-3.62299,0,0,0,0,0,0,0,-1,776,554,-1.65316,3.62297
-441,470,-1.61389,-4.17493,0.00626113,0.0125022,-0.0118426,0.0216285,-0.0028652,-0.914219,0.0154628,0.0489892,783,554,-1.61392,4.17495
-434,470,-1.60016,-4.53839,0.00522799,0.0105281,-0.00953164,0.0177712,-0.00201511,-0.920988,0.0125731,0.0270691,790,554,-1.60018,4.53837
-427,470,-1.6908,-4.77692,0.00432153,0.0088679,-0.00763158,0.0145576,-0.00136822,-0.930147,0.0101918,0.013677,797,554,-1.69079,4.77692
-420,470,-1.67664,-5.04602,0.00349216,0.00734149,-0.00611433,0.0118269,-0.000993277,-0.937878,0.0082357,0.0126398,804,554,-1.67663,5.04603
-413,470,-1.69232,-5.31049,0.00270158,0.00579221,-0.00472633,0.00921944,-0.00072565,-0.943399,0.0064019,0.0124889,811,554,-1.69234,5.31047
-406,470,-1.71844,-5.55255,0.00204318,0.00449075,-0.0035095,0.00698372,-0.000449789,-0.953159,0.00481275,0.00949482,818,554,-1.71845,5.55254
-399,470,-1.70801,-5.82971,0.00144749,0.00323847,-0.00245304,0.00495436,-0.000268397,-0.96041,0.00339591,0.0128729,825,554,-1.70798,5.82972
-392,470,-1.69202,-6.09894,0.0011157,0.00190572,-0.00150836,0.00306994,-4.85107e-05,-0.913462,0.00206298,0.0138431,832,554,-1.69201,6.09895
-385,470,-1.6842,-6.3172,0.0010068,0.000806093,-0.000698411,0.00161203,0.000200861,-0.714043,0.00101438,0.0113088,839,554,-1.6842,6.31718
-378,470,-1.68939,-6.58911,0.00101509,-0.000330597,-3.54265e-05,0.00101602,-0.000331529,-0.0263017,0.000810774,0.0164586,846,554,-1.68938,6.58913
-371,470,-1.69995,-6.82831,0.00107846,-0.00138183,0.000465387,0.00116355,-0.00146692,0.180839,0.00152207,0.0136232,853,554,-1.69995,6.82834
-364,470,-1.69586,-7.06628,0.00127439,-0.00217605,0.000769412,0.00143819,-0.00233985,0.209753,0.00220186,0.012944,860,554,-1.69585,7.06625
-357,470,-1.71124,-7.31586,0.00176437,-0.00288644,0.000874576,0.00192339,-0.00304547,0.179866,0.00289305,0.0128145,867,554,-1.71122,7.31585
-350,470,-1.71979,-7.56299,0.00230399,-0.00341619,0.000846295,0.00242657,-0.00353877,0.143845,0.00346399,0.0100186,874,554,-1.7198,7.56301
-343,470,-1.61456,-7.83154,0.00277309,-0.00386306,0.000691942,0.00284447,-0.00393444,0.102795,0.00393063,0.0222444,881,554,-1.61457,7.83152
-336,470,-1.50366,-8.20569,0,0,0,0,0,0,0,-1,888,554,-1.50364,8.20571
-329,470,-1.69409,-7.8855,0,0,0,0,0,0,0,-1,895,554,-1.69411,7.88547
-322,470,-1.37006,-8.14398,0,0,0,0,0,0,0,-1,902,554,-1.37004,8.14398
-315,470,-1.04797,-8.29529,0,0,0,0,0,0,0,-1,909,554,-1.04797,8.29526
-308,470,-1.39368,-6.68152,0,0,0,0,0,0,0,-1,916,554,-1.39369,6.68149
-301,470,-0.0340576,3.34888,0,0,0,0,0,0,0,-1,923,554,-0.0340496,-3.3489
-294,470,-1.18378,3.22266,0,0,0,0,0,0,0,-1,930,554,-1.18376,-3.22268
-287,470,-2.15454,3.2204,0,0,0,0,0,0,0,-1,937,554,-2.15452,-3.22037
-280,470,-3.00537,3.099,0,0,0,0,0,0,0,-1,944,554,-3.00536,-3.09898
-273,470,-10.7747,3.25928,0,0,0,0,0,0,0,-1,951,554,-10.7746,-3.2593
-266,470,-7.88147,0.0951538,0,0,0,0,0,0,0,-1,958,554,-7.88148,-0.0951677
-259,470,-5.11902,-3.29401,0,0,0,0,0,0,0,-1,965,554,-5.11899,3.294
-252,470,-0.144348,-5.13593,0,0,0,0,0,0,0,-1,972,554,-0.144336,5.13594
-245,470,1.33221,-6.81122,0,0,0,0,0,0,0,-1,979,554,1.33223,6.8112
-238,470,0,0,0,0,0,0,0,0,0,-1,986,554,0,0
-231,470,0,0,0,0,0,0,0,0,0,-1,993,554,0,0
-224,470,0,0,0,0,0,0,0,0,0,-1,1000,554,0,0
-217,470,0,0,0,0,0,0,0,0,0,-1,1007,554,0,0
-210,470,0,0,0,0,0,0,0,0,0,-1,1014,554,0,0
-203,470,0,0,0,0,0,0,0,0,0,-1,1021,554,0,0
-196,470,0,0,0,0,0,0,0,0,0,-1,1028,554,0,0
-189,470,0,0,0,0,0,0,0,0,0,-1,1035,554,0,0
-182,470,0,0,0,0,0,0,0,0,0,-1,1042,554,0,0
-175,470,0,0,0,0,0,0,0,0,0,-1,1049,554,0,0
-168,470,0,0,0,0,0,0,0,0,0,-1,1056,554,0,0
-161,470,0,0,0,0,0,0,0,0,0,-1,1063,554,0,0
-154,470,0,0,0,0,0,0,0,0,0,-1,1070,554,0,0
-147,470,0,0,0,0,0,0,0,0,0,-1,1077,554,0,0
-140,470,0,0,0,0,0,0,0,0,0,-1,1084,554,0,0
-133,470,0,0,0,0,0,0,0,0,0,-1,1091,554,0,0
-126,470,0,0,0,0,0,0,0,0,0,-1,1098,554,0,0
-119,470,0,0,0,0,0,0,0,0,0,-1,1105,554,0,0
-112,470,0,0,0,0,0,0,0,0,0,-1,1112,554,0,0
-105,470,0,0,0,0,0,0,0,0,0,-1,1119,554,0,0
-98,470,0,0,0,0,0,0,0,0,0,-1,1126,554,0,0
-91,470,0,0,0,0,0,0,0,0,0,-1,1133,554,0,0
-84,470,0,0,0,0,0,0,0,0,0,-1,1140,554,0,0
-77,470,0,0,0,0,0,0,0,0,0,-1,1147,554,0,0
-70,470,0,0,0,0,0,0,0,0,0,-1,1154,554,0,0
-63,470,0,0,0,0,0,0,0,0,0,-1,1161,554,0,0
-56,470,0,0,0,0,0,0,0,0,0,-1,1168,554,0,0
-49,470,0,0,0,0,0,0,0,0,0,-1,1175,554,0,0
-42,470,0,0,0,0,0,0,0,0,0,-1,1182,554,0,0
-35,470,0,0,0,0,0,0,0,0,0,-1,1189,554,0,0
-28,470,0,0,0,0,0,0,0,0,0,-1,1196,554,0,0
-21,470,0,0,0,0,0,0,0,0,0,-1,1203,554,0,0
-14,470,0,0,0,0,0,0,0,0,0,-1,1210,554,0,0
-7,470,0,0,0,0,0,0,0,0,0,-1,1217,554,0,0
0,470,0,0,0,0,0,0,0,0,0,-1,1224,554,0,0
7,470,0,0,0,0,0,0,0,0,0,-1,1231,554,0,0
14,470,0,0,0,0,0,0,0,0,0,-1,1238,554,0,0
21,470,0,0,0,0,0,0,0,0,0,-1,1245,554,0,0
28,470,0,0,0,0,0,0,0,0,0,-1,1252,554,0,0
35,470,0,0,0,0,0,0,0,0,0,-1,1259,554,0,0
42,470,0,0,0,0,0,0,0,0,0,-1,1266,554,0,0
49,470,0,0,0,0,0,0,0,0,0,-1,1273,554,0,0
56,470,0,0,0,0,0,0,0,0,0,-1,1280,554,0,0
63,470,0,0,0,0,0,0,0,0,0,-1,1287,554,0,0
70,470,0,0,0,0,0,0,0,0,0,-1,1294,554,0,0
77,470,0,0,0,0,0,0,0,0,0,-1,1301,554,0,0
84,470,0,0,0,0,0,0,0,0,0,-1,1308,554,0,0
91,470,0,0,0,0,0,0,0,0,0,-1,1315,554,0,0
98,470,0,0,0,0,0,0,0,0,0,-1,1322,554,0,0
105,470,0,0,0,0,0,0,0,0,0,-1,1329,554,0,0
112,470,0,0,0,0,0,0,0,0,0,-1,1336,554,0,0
119,470,0,0,0,0,0,0,0,0,0,-1,1343,554,0,0
126,470,0,0,0,0,0,0,0,0,0,-1,1350,554,0,0
133,470,0,0,0,0,0,0,0,0,0,-1,1357,554,0,0
140,470,0,0,0,0,0,0,0,0,0,-1,1364,554,0,0
147,470,0,0,0,0,0,0,0,0,0,-1,1371,554,0,0
154,470,0,0,0,0,0,0,0,0,0,-1,1378,554,0,0
161,470,0,0,0,0,0,0,0,0,0,-1,1385,554,0,0
168,470,0,0,0,0,0,0,0,0,0,-1,1392,554,0,0
175,470,0,0,0,0,0,0,0,0,0,-1,1399,554,0,0
182,470,0,0,0,0,0,0,0,0,0,-1,1406,554,0,0
189,470,0,0,0,0,0,0,0,0,0,-1,1413,554,0,0
196,470,0,0,0,0,0,0,0,0,0,-1,1420,554,0,0
203,470,0,0,0,0,0,0,0,0,0,-1,1427,554,0,0
210,470,0,0,0,0,0,0,0,0,0,-1,1434,554,0,0
217,470,0,0,0,0,0,0,0,0,0,-1,1441,554,0,0
224,470,0,0,0,0,0,0,0,0,0,-1,1448,554,0,0
231,470,0,0,0,0,0,0,0,0,0,-1,1455,554,0,0
238,470,0,0,0,0,0,0,0,0,0,-1,1462,554,0,0
245,470,0,0,0,0,0,0,0,0,0,-1,1469,554,0,0
252,470,0,0,0,0,0,0,0,0,0,-1,1476,554,0,0
259,470,0,0,0,0,0,0,0,0,0,-1,1483,554,0,0
266,470,0,0,0,0,0,0,0,0,0,-1,1490,554,0,0
273,470,0,0,0,0,0,0,0,0,0,-1,1497,554,0,0
280,470,0,0,0,0,0,0,0,0,0,-1,1504,554,0,0
287,470,0,0,0,0,0,0,0,0,0,-1,1511,554,0,0
294,470,0,0,0,0,0,0,0,0,0,-1,1518,554,0,0
301,470,0,0,0,0,0,0,0,0,0,-1,1525,554,0,0
308,470,0,0,0,0,0,0,0,0,0,-1,1532,554,0,0
315,470,0,0,0,0,0,0,0,0,0,-1,1539,554,0,0
322,470,0,0,0,0,0,0,0,0,0,-1,1546,554,0,0
329,470,0,0,0,0,0,0,0,0,0,-1,1553,554,0,0
336,470,0,0,0,0,0,0,0,0,0,-1,1560,554,0,0
343,470,0,0,0,0,0,0,0,0,0,-1,1567,554,0,0
350,470,0,0,0,0,0,0,0,0,0,-1,1574,554,0,0
357,470,0,0,0,0,0,0,0,0,0,-1,1581,554,0,0
364,470,1.33423,0.293335,0,0,0,0,0,0,0,-1,1588,554,1.33422,-0.293348
371,470,2.22498,-0.0305176,0,0,0,0,0,0,0,-1,1595,554,2.22494,0.0305046
378,470,6.27051,0.710083,0,0,0,0,0,0,0,-1,1602,554,6.27054,-0.710093
385,470,10.3657,1.47296,0,0,0,0,0,0,0,-1,1609,554,10.3657,-1.47299
392,470,15.3881,3.01935,0,0,0,0,0,0,0,-1,1616,554,15.388,-3.01937
399,470,18.4479,2.93793,0,0,0,0,0,0,0,-1,1623,554,18.4479,-2.93792
406,470,15.1896,1.36676,0,0,0,0,0,0,0,-1,1630,554,15.1896,-1.36679
413,470,6.55383,1.99207,0,0,0,0,0,0,0,-1,1637,554,6.5538,-1.99208
420,470,4.47095,0.845703,0,0,0,0,0,0,0,-1,1644,554,4.47098,-0.845718
427,470,3.51038,1.19684,0,0,0,0,0,0,0,-1,1651,554,3.51039,-1.19684
434,470,3.31775,-1.37427,0,0,0,0,0,0,0,-1,1658,554,3.31781,1.37426
441,470,2.55457,-2.05902,0,0,0,0,0,0,0,-1,1665,554,2.55461,2.05904
448,470,3.27258,-2.64032,0,0,0,0,0,0,0,-1,1672,554,3.27257,2.64029
455,470,7.9458,-6.63959,0,0,0,0,0,0,0,-1,1679,554,7.94576,6.63961
462,470,7.60632,-6.83301,0,0,0,0,0,0,0,-1,1686,554,7.60638,6.83302
469,470,7.39685,-6.59167,0,0,0,0,0,0,0,-1,1693,554,7.39686,6.59166
476,470,7.4397,-6.21454,0.00231753,0.00374481,0.00127593,0.00449311,0.00156923,1.04038,0.00263311,0.0327489,1700,554,7.4397,6.21457
483,470,7.49963,-5.92657,0.00282494,0.00327337,0.00160989,0.00467459,0.00142372,0.85459,0.00276674,0.014432,1707,554,7.49969,5.92655
490,470,7.49585,-5.6568,0.00301433,0.00298995,0.00170922,0.0047114,0.00129287,0.781832,0.0028109,0.0113912,1714,554,7.49582,5.65681
497,470,7.49829,-5.39606,0.00265729,0.00236319,0.00147098,0.00398856,0.00103193,0.73558,0.0023905,0.0117338,1721,554,7.49829,5.39606
504,470,7.51038,-5.15802,0.00206002,0.00188077,0.00120472,0.00317845,0.00076234,0.74827,0.00191609,0.0201845,1728,554,7.51033,5.15799
511,470,7.5387,-4.91266,0.00148784,0.00180674,0.00104736,0.00270672,0.000587863,0.860938,0.00164394,0.0269801,1735,554,7.53865,4.91267
518,470,7.54309,-4.63953,0.000969732,0.00197128,0.000947376,0.00254209,0.000398919,1.02853,0.00157864,0.0251136,1742,554,7.54314,4.63955
525,470,7.51721,-4.31714,0.000517498,0.00250181,0.000932532,0.00287126,0.000148041,1.19358,0.00186679,0.0155255,1749,554,7.51722,4.31712
532,470,7.50415,-4.00555,0.000154334,0.00340927,0.00102786,0.00370668,-0.000143074,1.28914,0.00252017,0.0135964,1756,554,7.50409,4.00557
539,470,7.49719,-3.71967,-2.28789e-05,0.00457792,0.00124231,0.00489194,-0.000336898,1.32321,0.00337919,0.0167754,1763,554,7.49715,3.71969
546,470,7.4895,-3.45294,4.88605e-05,0.00603697,0.00164412,0.00645868,-0.000372858,1.31971,0.0044353,0.0145543,1770,554,7.48945,3.45294
553,470,7.49512,-3.18311,0.000222555,0.00763586,0.00210361,0.00819119,-0.00033277,1.3127,0.00557503,0.0122013,1777,554,7.49514,3.18309
560,470,7.49304,-2.90149,0.000586703,0.00927329,0.00265079,0.0100183,-0.000158313,1.29681,0.00673226,0.0167282,1784,554,7.49309,2.90151
567,470,7.47778,-2.59558,0.00117892,0.0108245,0.00330139,0.0118462,0.00015718,1.27066,0.0078456,0.0197544,1791,554,7.47775,2.59557
574,470,7.58655,-2.14532,0,0,0,0,0,0,0,-1,1798,554,7.58657,2.14531
581,470,8.24646,-4.06317,0,0,0,0,0,0,0,-1,1805,554,8.24648,4.06318
588,470,11.1803,1.74927,0,0,0,0,0,0,0,-1,1812,554,11.1803,-1.74926
595,470,4.72192,3.44116,0,0,0,0,0,0,0,-1,1819,554,4.72191,-3.44116
602,470,14.4307,2.76141,0,0,0,0,0,0,0,-1,1826,554,14.4306,-2.76139
609,470,20.9181,4.41058,0,0,0,0,0,0,0,-1,1833,554,20.9181,-4.4106
616,470,0,0,0,0,0,0,0,0,0,-1,1840,554,0,0
623,470,0,0,0,0,0,0,0,0,0,-1,1847,554,0,0
630,470,0,0,0,0,0,0,0,0,0,-1,1854,554,0,0
637,470,0,0,0,0,0,0,0,0,0,-1,1861,554,0,0
644,470,0,0,0,0,0,0,0,0,0,-1,1868,554,0,0
651,470,0,0,0,0,0,0,0,0,0,-1,1875,554,0,0
658,470,0,0,0,0,0,0,0,0,0,-1,1882,554,0,0
665,470,0,0,0,0,0,0,0,0,0,-1,1889,554,0,0
672,470,0,0,0,0,0,0,0,0,0,-1,1896,554,0,0
679,470,0,0,0,0,0,0,0,0,0,-1,1903,554,0,0
686,470,0,0,0,0,0,0,0,0,0,-1,1910,554,0,0
693,470,0,0,0,0,0,0,0,0,0,-1,1917,554,0,0
700,470,0,0,0,0,0,0,0,0,0,-1,1924,554,0,0
707,470,0,0,0,0,0,0,0,0,0,-1,1931,554,0,0
714,470,0,0,0,0,0,0,0,0,0,-1,1938,554,0,0
721,470,0,0,0,0,0,0,0,0,0,-1,1945,554,0,0
728,470,0,0,0,0,0,0,0,0,0,-1,1952,554,0,0
735,470,0,0,0,0,0,0,0,0,0,-1,1959,554,0,0
742,470,0,0,0,0,0,0,0,0,0,-1,1966,554,0,0
749,470,0,0,0,0,0,0,0,0,0,-1,1973,554,0,0
756,470,0,0,0,0,0,0,0,0,0,-1,1980,554,0,0
763,470,0,0,0,0,0,0,0,0,0,-1,1987,554,0,0
770,470,0,0,0,0,0,0,0,0,0,-1,1994,554,0,0
777,470,0,0,0,0,0,0,0,0,0,-1,2001,554,0,0
784,470,0,0,0,0,0,0,0,0,0,-1,2008,554,0,0
791,470,0,0,0,0,0,0,0,0,0,-1,2015,554,0,0
798,470,0,0,0,0,0,0,0,0,0,-1,2022,554,0,0
805,470,0,0,0,0,0,0,0,0,0,-1,2029,554,0,0
812,470,0,0,0,0,0,0,0,0,0,-1,2036,554,0,0
-700,463,0,0,0,0,0,0,0,0,0,-1,524,561,0,0
-693,463,0,0,0,0,0,0,0,0,0,-1,531,561,0,0
-686,463,0,0,0,0,0,0,0,0,0,-1,538,561,0,0
-679,463,0,0,0,0,0,0,0,0,0,-1,545,561,0,0
-672,463,0,0,0,0,0,0,0,0,0,-1,552,561,0,0
-665,463,0,0,0,0,0,0,0,0,0,-1,559,561,0,0
-658,463,0,0,0,0,0,0,0,0,0,-1,566,561,0,0
-651,463,0,0,0,0,0,0,0,0,0,-1,573,561,0,0
-644,463,0,0,0,0,0,0,0,0,0,-1,580,561,0,0
-637,463,0,0,0,0,0,0,0,0,0,-1,587,561,0,0
-630,463,0,0,0,0,0,0,0,0,0,-1,594,561,0,0
-623,463,0,0,0,0,0,0,0,0,0,-1,601,561,0,0
-616,463,0,0,0,0,0,0,0,0,0,-1,608,561,0,0
-609,463,0,0,0,0,0,0,0,0,0,-1,615,561,0,0
-602,463,0,0,0,0,0,0,0,0,0,-1,622,561,0,0
-595,463,0,0,0,0,0,0,0,0,0,-1,629,561,0,0
-588,463,0,0,0,0,0,0,0,0,0,-1,636,561,0,0
-581,463,0,0,0,0,0,0,0,0,0,-1,643,561,0,0
-574,463,0,0,0,0,0,0,0,0,0,-1,650,561,0,0
-567,463,0,0,0,0,0,0,0,0,0,-1,657,561,0,0
-560,463,0,0,0,0,0,0,0,0,0,-1,664,561,0,0
-553,463,0,0,0,0,0,0,0,0,0,-1,671,561,0,0
-546,463,0,0,0,0,0,0,0,0,0,-1,678,561,0,0
-539,463,0,0,0,0,0,0,0,0,0,-1,685,561,0,0
-532,463,0,0,0,0,0,0,0,0,0,-1,692,561,0,0
-525,463,0,0,0,0,0,0,0,0,0,-1,699,561,0,0
-518,463,0,0,0,0,0,0,0,0,0,-1,706,561,0,0
-511,463,0,0,0,0,0,0,0,0,0,-1,713,561,0,0
-504,463,0,0,0,0,0,0,0,0,0,-1,720,561,0,0
-497,463,-9.81451,-1.67126,0,0,0,0,0,0,0,-1,727,561,-9.81452,1.67127
-490,463,-8.57043,-1.58942,0,0,0,0,0,0,0,-1,734,561,-8.57045,1.58944
-483,463,-7.29224,-1.7226,0,0,0,0,0,0,0,-1,741,561,-7.29226,1.72261
-476,463,-5.77704,-1.7312,0,0,0,0,0,0,0,-1,748,561,-5.77703,1.73121
-469,463,-5.14545,-2.138,0,0,0,0,0,0,0,-1,755,561,-5.14546,2.13799
-462,463,-3.13672,-3.07977,0,0,0,0,0,0,0,-1,762,561,-3.13672,3.07974
-455,463,-1.82562,-3.31573,0,0,0,0,0,0,0,-1,769,561,-1.8256,3.31574
-448,463,-1.84344,-3.7453,0.00525364,0.0110158,-0.0112223,0.0197209,-0.00345154,-0.911047,0.014436,0.0457084,776,561,-1.84347,3.7453
-441,463,-1.77979,-4.20801,0.00446898,0.00935145,-0.00898992,0.0162257,-0.00240527,-0.917977,0.0117016,0.0335153,783,561,-1.77976,4.20802
-434,463,-1.92395,-4.52325,0.00379964,0.00764929,-0.0070505,0.013033,-0.00158406,-0.918653,0.00926194,0.0143262,790,561,-1.92397,4.52324
-427,463,-1.93768,-4.78186,0.00315285,0.00643995,-0.00556551,0.0105995,-0.00100672,-0.928972,0.0074247,0.00958404,797,561,-1.93769,4.78188
-420,463,-1.92633,-5.04321,0.00252861,0.00530415,-0.00441986,0.00854898,-0.000716229,-0.937517,0.00595245,0.0103958,804,561,-1.92631,5.0432
-413,463,-1.93787,-5.30231,0.00189989,0.00409445,-0.00331061,0.00648489,-0.000490548,-0.945422,0.0044957,0.00890464,811,561,-1.93789,5.3023
-406,463,-1.9566,-5.54736,0.00139548,0.00305545,-0.0023431,0.00471123,-0.000260294,-0.955614,0.00323108,0.00756335,818,561,-1.95659,5.54738
-399,463,-1.94208,-5.81512,0.000903434,0.00198029,-0.00146937,0.00300677,-0.000123052,-0.961018,0.00204677,0.00895346,825,561,-1.9421,5.81515
-392,463,-1.93823,-6.0802,0.000636384,0.000744224,-0.000642196,0.00133476,4.58483e-05,-0.827281,0.000874958,0.00912975,832,561,-1.93821,6.08022
-385,463,-1.95416,-6.34528,0.000559687,-0.000276202,8.73901e-05,0.000568726,-0.000285241,0.103063,0.000502012,0.0104752,839,561,-1.95413,6.34529
-378,463,-1.95496,-6.59595,0.000593738,-0.00136691,0.000705588,0.000821259,-0.00159443,0.311929,0.00141831,0.0123572,846,561,-1.95494,6.59595
-371,463,-1.94757,-6.84222,0.000737286,-0.00234573,0.0011387,0.00111226,-0.0027207,0.318113,0.00227698,0.0113879,853,561,-1.9476,6.84221
-364,463,-1.93005,-7.06531,0.000996051,-0.00323003,0.00145802,0.00145026,-0.00368423,0.301995,0.0030565,0.0136361,860,561,-1.93004,7.0653
-357,463,-1.94196,-7.30426,0.00155217,-0.00407864,0.00159427,0.00197223,-0.00449869,0.257623,0.00382973,0.0165864,867,561,-1.94194,7.30426
-350,463,-1.89777,-7.60486,0.00216447,-0.00477617,0.00162405,0.00252569,-0.00513739,0.218854,0.00450912,0.0191546,874,561,-1.89777,7.60485
-343,463,-1.77368,-7.72693,0.00272578,-0.00543062,0.00151226,0.00299714,-0.00570198,0.177549,0.00510272,0.034958,881,561,-1.77367,7.7269
-336,463,-1.75684,-7.98865,0,0,0,0,0,0,0,-1,888,561,-1.75682,7.98864
-329,463,-1.51898,-8.34015,0,0,0,0,0,0,0,-1,895,561,-1.51896,8.34017
-322,463,-1.23309,-8.07733,0,0,0,0,0,0,0,-1,902,561,-1.23307,8.0773
-315,463,-0.944763,-5.96234,0,0,0,0,0,0,0,-1,909,561,-0.94479,5.96237
-308,463,-1.1535,-3.17889,0,0,0,0,0,0,0,-1,916,561,-1.15352,3.17889
-301,463,-1.50366,-3.15338,0,0,0,0,0,0,0,-1,923,561,-1.50364,3.15341
-294,463,-2.35889,-3.93463,0,0,0,0,0,0,0,-1,930,561,-2.35886,3.93465
-287,463,-2.80322,2.73999,0,0,0,0,0,0,0,-1,937,561,-2.80322,-2.74
-280,463,-12.1693,5.75903,0,0,0,0,0,0,0,-1,944,561,-12.1693,-5.75903
-273,463,-10.5881,3.25531,0,0,0,0,0,0,0,-1,951,561,-10.5881,-3.25531
-266,463,-7.75842,-0.118652,0,0,0,0,0,0,0,-1,958,561,-7.75842,0.118632
-259,463,-3.98285,-3.73212,0,0,0,0,0,0,0,-1,965,561,-3.98286,3.73209
-252,463,0,0,0,0,0,0,0,0,0,-1,972,561,0,0
-245,463,0,0,0,0,0,0,0,0,0,-1,979,561,0,0
-238,463,0,0,0,0,0,0,0,0,0,-1,986,561,0,0
-231,463,0,0,0,0,0,0,0,0,0,-1,993,561,0,0
-224,463,0,0,0,0,0,0,0,0,0,-1,1000,561,0,0
-217,463,0,0,0,0,0,0,0,0,0,-1,1007,561,0,0
-210,463,0,0,0,0,0,0,0,0,0,-1,1014,561,0,0
-203,463,0,0,0,0,0,0,0,0,0,-1,1021,561,0,0
-196,463,0,0,0,0,0,0,0,0,0,-1,1028,561,0,0
-189,463,0,0,0,0,0,0,0,0,0,-1,1035,561,0,0
-182,463,0,0,0,0,0,0,0,0,0,-1,1042,561,0,0
-175,463,0,0,0,0,0,0,0,0,0,-1,1049,561,0,0
-168,463,0,0,0,0,0,0,0,0,0,-1,1056,561,0,0
-161,463,0,0,0,0,0,0,0,0,0,-1,1063,561,0,0
-154,463,0,0,0,0,0,0,0,0,0,-1,1070,561,0,0
-147,463,0,0,0,0,0,0,0,0,0,-1,1077,561,0,0
-140,463,0,0,0,0,0,0,0,0,0,-1,1084,561,0,0
-133,463,0,0,0,0,0,0,0,0,0,-1,1091,561,0,0
-126,463,0,0,0,0,0,0,0,0,0,-1,1098,561,0,0
-119,463,0,0,0,0,0,0,0,0,0,-1,1105,561,0,0
-112,463,0,0,0,0,0,0,0,0,0,-1,1112,561,0,0
-105,463,0,0,0,0,0,0,0,0,0,-1,1119,561,0,0
-98,463,0,0,0,0,0,0,0,0,0,-1,1126,561,0,0
-91,463,0,0,0,0,0,0,0,0,0,-1,1133,561,0,0
-84,463,0,0,0,0,0,0,0,0,0,-1,1140,561,0,0
-77,463,0,0,0,0,0,0,0,0,0,-1,1147,561,0,0
-70,463,0,0,0,0,0,0,0,0,0,-1,1154,561,0,0
-63,463,0,0,0,0,0,0,0,0,0,-1,1161,561,0,0
-56,463,0,0,0,0,0,0,0,0,0,-1,1168,561,0,0
-49,463,0,0,0,0,0,0,0,0,0,-1,1175,561,0,0
-42,463,0,0,0,0,0,0,0,0,0,-1,1182,561,0,0
-35,463,0,0,0,0,0,0,0,0,0,-1,1189,561,0,0
-28,463,0,0,0,0,0,0,0,0,0,-1,1196,561,0,0
-21,463,0,0,0,0,0,0,0,0,0,-1,1203,561,0,0
-14,463,0,0,0,0,0,0,0,0,0,-1,1210,561,0,0
-7,463,0,0,0,0,0,0,0,0,0,-1,1217,561,0,0
0,463,0,0,0,0,0,0,0,0,0,-1,1224,561,0,0
7,463,0,0,0,0,0,0,0,0,0,-1,1231,561,0,0
14,463,0,0,0,0,0,0,0,0,0,-1,1238,561,0,0
21,463,0,0,0,0,0,0,0,0,0,-1,1245,561,0,0
28,463,0,0,0,0,0,0,0,0,0,-1,1252,561,0,0
35,463,0,0,0,0,0,0,0,0,0,-1,1259,561,0,0
42,463,0,0,0,0,0,0,0,0,0,-1,1266,561,0,0
49,463,0,0,0,0,0,0,0,0,0,-1,1273,561,0,0
56,463,0,0,0,0,0,0,0,0,0,-1,1280,561,0,0
63,463,0,0,0,0,0,0,0,0,0,-1,1287,561,0,0
70,463,0,0,0,0,0,0,0,0,0,-1,1294,561,0,0
77,463,0,0,0,0,0,0,0,0,0,-1,1301,561,0,0
84,463,0,0,0,0,0,0,0,0,0,-1,1308,561,0,0
91,463,0,0,0,0,0,0,0,0,0,-1,1315,561,0,0
98,463,0,0,0,0,0,0,0,0,0,-1,1322,561,0,0
105,463,0,0,0,0,0,0,0,0,0,-1,1329,561,0,0
112,463,0,0,0,0,0,0,0,0,0,-1,1336,561,0,0
119,463,0,0,0,0,0,0,0,0,0,-1,1343,561,0,0
126,463,0,0,0,0,0,0,0,0,0,-1,1350,561,0,0
133,463,0,0,0,0,0,0,0,0,0,-1,1357,561,0,0
140,463,0,0,0,0,0,0,0,0,0,-1,1364,561,0,0
147,463,0,0,0,0,0,0,0,0,0,-1,1371,561,0,0
154,463,0,0,0,0,0,0,0,0,0,-1,1378,561,0,0
161,463,0,0,0,0,0,0,0,0,0,-1,1385,561,0,0
168,463,0,0,0,0,0,0,0,0,0,-1,1392,561,0,0
175,463,0,0,0,0,0,0,0,0,0,-1,1399,561,0,0
182,463,0,0,0,0,0,0,0,0,0,-1,1406,561,0,0
189,463,0,0,0,0,0,0,0,0,0,-1,1413,561,0,0
196,463,0,0,0,0,0,0,0,0,0,-1,1420,561,0,0
203,463,0,0,0,0,0,0,0,0,0,-1,1427,561,0,0
210,463,0,0,0,0,0,0,0,0,0,-1,1434,561,0,0
217,463,0,0,0,0,0,0,0,0,0,-1,1441,561,0,0
224,463,0,0,0,0,0,0,0,0,0,-1,1448,561,0,0
231,463,0,0,0,0,0,0,0,0,0,-1,1455,561,0,0
238,463,0,0,0,0,0,0,0,0,0,-1,1462,561,0,0
245,463,0,0,0,0,0,0,0,0,0,-1,1469,561,0,0
252,463,0,0,0,0,0,0,0,0,0,-1,1476,561,0,0
259,463,0,0,0,0,0,0,0,0,0,-1,1483,561,0,0
266,463,0,0,0,0,0,0,0,0,0,-1,1490,561,0,0
273,463,0,0,0,0,0,0,0,0,0,-1,1497,561,0,0
280,463,0,0,0,0,0,0,0,0,0,-1,1504,561,0,0
287,463,0,0,0,0,0,0,0,0,0,-1,1511,561,0,0
294,463,0,0,0,0,0,0,0,0,0,-1,1518,561,0,0
301,463,0,0,0,0,0,0,0,0,0,-1,1525,561,0,0
308,463,0,0,0,0,0,0,0,0,0,-1,1532,561,0,0
315,463,0,0,0,0,0,0,0,0,0,-1,1539,561,0,0
322,463,0,0,0,0,0,0,0,0,0,-1,1546,561,0,0
329,463,0,0,0,0,0,0,0,0,0,-1,1553,561,0,0
336,463,0,0,0,0,0,0,0,0,0,-1,1560,561,0,0
343,463,0,0,0,0,0,0,0,0,0,-1,1567,561,0,0
350,463,0,0,0,0,0,0,0,0,0,-1,1574,561,0,0
357,463,0,0,0,0,0,0,0,0,0,-1,1581,561,0,0
364,463,0,0,0,0,0,0,0,0,0,-1,1588,561,0,0
371,463,1.75842,0.152588,0,0,0,0,0,0,0,-1,1595,561,1.75844,-0.152558
378,463,4.30493,0.169861,0,0,0,0,0,0,0,-1,1602,561,4.30489,-0.169877
385,463,8.88574,1.65057,0,0,0,0,0,0,0,-1,1609,561,8.88575,-1.65055
392,463,13.4452,2.6582,0,0,0,0,0,0,0,-1,1616,561,13.4452,-2.65821
399,463,19.6376,3.51965,0,0,0,0,0,0,0,-1,1623,561,19.6376,-3.51966
406,463,7.28088,1.38538,0,0,0,0,0,0,0,-1,1630,561,7.28091,-1.38537
413,463,8.05847,1.82239,0,0,0,0,0,0,0,-1,1637,561,8.05851,-1.82241
420,463,8.849,2.26611,0,0,0,0,0,0,0,-1,1644,561,8.84899,-2.26613
427,463,5.12207,1.69183,0,0,0,0,0,0,0,-1,1651,561,5.12206,-1.69184
434,463,4.59814,1.81995,0,0,0,0,0,0,0,-1,1658,561,4.59812,-1.81994
441,463,1.76392,-5.99225,0,0,0,0,0,0,0,-1,1665,561,1.7639,5.99225
448,463,2.49939,-4.30536,0,0,0,0,0,0,0,-1,1672,561,2.49941,4.30536
455,463,4.40295,-3.02557,0,0,0,0,0,0,0,-1,1679,561,4.40299,3.02558
462,463,5.38293,-4.06445,0,0,0,0,0,0,0,-1,1686,561,5.38289,4.06444
469,463,5.94373,-4.50647,0,0,0,0,0,0,0,-1,1693,561,5.94368,4.50646
476,463,7.39734,-6.48218,0,0,0,0,0,0,0,-1,1700,561,7.3973,6.48216
483,463,7.63464,-6.12482,0.0039979,0.0041503,0.00255122,0.00662646,0.00152174,0.800328,0.00400788,0.0404062,1707,561,7.6346,6.12483
490,463,7.77234,-5.73199,0.00420087,0.00379628,0.0025568,0.00656337,0.00143379,0.74592,0.00398459,0.0200346,1714,561,7.77234,5.73198
497,463,7.78076,-5.39862,0.00372189,0.00296,0.00217459,0.00554865,0.00113324,0.698687,0.00338519,0.0121073,1721,561,7.78076,5.39862
504,463,7.79053,-5.13269,0.00291435,0.00196784,0.00170235,0.00420801,0.000674185,0.649821,0.0026098,0.0164841,1728,561,7.79057,5.13268
511,463,7.80579,-4.8924,0.00225323,0.0016591,0.00142181,0.00340868,0.000503653,0.682413,0.00212456,0.0232824,1735,561,7.80583,4.89241
518,463,7.85083,-4.61462,0.00167962,0.0015916,0.00121789,0.0028543,0.000416928,0.767338,0.00178024,0.023323,1742,561,7.85083,4.61462
525,463,7.79932,-4.31427,0.0011624,0.00185575,0.00109597,0.00265857,0.000359588,0.938578,0.00166551,0.0178417,1749,561,7.79934,4.31427
532,463,7.80688,-4.01129,0.000709959,0.00241082,0.0010529,0.00291384,0.000206935,1.12511,0.00187739,0.0152768,1756,561,7.8069,4.01126
539,463,7.79956,-3.71954,0.000399886,0.00310157,0.00107868,0.0034794,2.20524e-05,1.23388,0.00231229,0.0166813,1763,561,7.7996,3.71955
546,463,7.77844,-3.46771,0.000321337,0.00403095,0.00127983,0.00442964,-7.7361e-05,1.2688,0.00297922,0.0130256,1770,561,7.7784,3.46773
553,463,7.77173,-3.15674,0.000316644,0.00498853,0.00150353,0.00543058,-0.000125402,1.28485,0.0036629,0.0104323,1777,561,7.77178,3.15672
560,463,7.77319,-2.82996,0.000423404,0.00591808,0.00176918,0.00643845,-9.69591e-05,1.28474,0.00432498,0.0121778,1784,561,7.77324,2.82998
567,463,7.71204,-2.56647,0.000685629,0.00668114,0.00209588,0.00734115,2.56184e-05,1.26572,0.00488558,0.0186264,1791,561,7.71201,2.56649
574,463,7.75952,-2.27545,0,0,0,0,0,0,0,-1,1798,561,7.75955,2.27545
581,463,7.77832,-2.18085,0,0,0,0,0,0,0,-1,1805,561,7.77828,2.18082
588,463,1.97424,2.16016,0,0,0,0,0,0,0,-1,1812,561,1.97422,-2.16013
595,463,9.98657,2.99854,0,0,0,0,0,0,0,-1,1819,561,9.98662,-2.99856
602,463,17.2202,4.91302,0,0,0,0,0,0,0,-1,1826,561,17.2202,-4.91305
609,463,17.96,4.03131,0,0,0,0,0,0,0,-1,1833,561,17.96,-4.03132
616,463,20.8352,3.15131,0,0,0,0,0,0,0,-1,1840,561,20.8352,-3.1513
623,463,0,0,0,0,0,0,0,0,0,-1,1847,561,0,0
630,463,0,0,0,0,0,0,0,0,0,-1,1854,561,0,0
637,463,0,0,0,0,0,0,0,0,0,-1,1861,561,0,0
644,463,0,0,0,0,0,0,0,0,0,-1,1868,561,0,0
651,463,0,0,0,0,0,0,0,0,0,-1,1875,561,0,0
658,463,0,0,0,0,0,0,0,0,0,-1,1882,561,0,0
665,463,0,0,0,0,0,0,0,0,0,-1,1889,561,0,0
672,463,0,0,0,0,0,0,0,0,0,-1,1896,561,0,0
679,463,0,0,0,0,0,0,0,0,0,-1,1903,561,0,0
686,463,0,0,0,0,0,0,0,0,0,-1,1910,561,0,0
693,463,0,0,0,0,0,0,0,0,0,-1,1917,561,0,0
700,463,0,0,0,0,0,0,0,0,0,-1,1924,561,0,0
707,463,0,0,0,0,0,0,0,0,0,-1,1931,561,0,0
714,463,0,0,0,0,0,0,0,0,0,-1,1938,561,0,0
721,463,0,0,0,0,0,0,0,0,0,-1,1945,561,0,0
728,463,0,0,0,0,0,0,0,0,0,-1,1952,561,0,0
735,463,0,0,0,0,0,0,0,0,0,-1,1959,561,0,0
742,463,0,0,0,0,0,0,0,0,0,-1,1966,561,0,0
749,463,0,0,0,0,0,0,0,0,0,-1,1973,561,0,0
756,463,0,0,0,0,0,0,0,0,0,-1,1980,561,0,0
763,463,0,0,0,0,0,0,0,0,0,-1,1987,561,0,0
770,463,0,0,0,0,0,0,0,0,0,-1,1994,561,0,0
777,463,0,0,0,0,0,0,0,0,0,-1,2001,561,0,0
784,463,0,0,0,0,0,0,0,0,0,-1,2008,561,0,0
791,463,0,0,0,0,0,0,0,0,0,-1,2015,561,0,0
798,463,0,0,0,0,0,0,0,0,0,-1,2022,561,0,0
805,463,0,0,0,0,0,0,0,0,0,-1,2029,561,0,0
812,463,0,0,0,0,0,0,0,0,0,-1,2036,561,0,0
-700,456,0,0,0,0,0,0,0,0,0,-1,524,568,0,0
-693,456,0,0,0,0,0,0,0,0,0,-1,531,568,0,0
-686,456,0,0,0,0,0,0,0,0,0,-1,538,568,0,0
-679,456,0,0,0,0,0,0,0,0,0,-1,545,568,0,0
-672,456,0,0,0,0,0,0,0,0,0,-1,552,568,0,0
-665,456,0,0,0,0,0,0,0,0,0,-1,559,568,0,0
-658,456,0,0,0,0,0,0,0,0,0,-1,566,568,0,0
-651,456,0,0,0,0,0,0,0,0,0,-1,573,568,0,0
-644,456,0,0,0,0,0,0,0,0,0,-1,580,568,0,0
-637,456,0,0,0,0,0,0,0,0,0,-1,587,568,0,0
-630,456,0,0,0,0,0,0,0,0,0,-1,594,568,0,0
-623,456,0,0,0,0,0,0,0,0,0,-1,601,568,0,0
-616,456,0,0,0,0,0,0,0,0,0,-1,608,568,0,0
-609,456,0,0,0,0,0,0,0,0,0,-1,615,568,0,0
-602,456,0,0,0,0,0,0,0,0,0,-1,622,568,0,0
-595,456,0,0,0,0,0,0,0,0,0,-1,629,568,0,0
-588,456,0,0,0,0,0,0,0,0,0,-1,636,568,0,0
-581,456,0,0,0,0,0,0,0,0,0,-1,643,568,0,0
-574,456,0,0,0,0,0,0,0,0,0,-1,650,568,0,0
-567,456,0,0,0,0,0,0,0,0,0,-1,657,568,0,0
-560,456,0,0,0,0,0,0,0,0,0,-1,664,568,0,0
-553,456,0,0,0,0,0,0,0,0,0,-1,671,568,0,0
-546,456,0,0,0,0,0,0,0,0,0,-1,678,568,0,0
-539,456,0,0,0,0,0,0,0,0,0,-1,685,568,0,0
-532,456,0,0,0,0,0,0,0,0,0,-1,692,568,0,0
-525,456,0,0,0,0,0,0,0,0,0,-1,699,568,0,0
-518,456,0,0,0,0,0,0,0,0,0,-1,706,568,0,0
-511,456,0,0,0,0,0,0,0,0,0,-1,713,568,0,0
-504,456,-10.3994,-2.34839,0,0,0,0,0,0,0,-1,720,568,-10.3994,2.3484
-497,456,-9.21375,-2.38068,0,0,0,0,0,0,0,-1,727,568,-9.21372,2.38069
-490,456,-8.09058,-2.31824,0,0,0,0,0,0,0,-1,734,568,-8.09057,2.31821
-483,456,-6.66119,-2.24329,0,0,0,0,0,0,0,-1,741,568,-6.66121,2.24331
-476,456,-5.1499,-2.21185,0,0,0,0,0,0,0,-1,748,568,-5.14992,2.21184
-469,456,-2.81238,-3.51501,0,0,0,0,0,0,0,-1,755,568,-2.81237,3.51501
-462,456,-2.53406,-3.711,0,0,0,0,0,0,0,-1,762,568,-2.53405,3.71102
-455,456,-2.4234,-3.599,0,0,0,0,0,0,0,-1,769,568,-2.42339,3.59903
-448,456,-2.05365,-3.81152,0.00351979,0.00831305,-0.00858667,0.0148313,-0.00299844,-0.92149,0.0110238,0.0345778,776,568,-2.05365,3.81155
-441,456,-2.13214,-4.23218,0.00300735,0.00690676,-0.00672434,0.0119583,-0.00204424,-0.926503,0.00873376,0.0166643,783,568,-2.13213,4.23217
-434,456,-2.18939,-4.52869,0.002633,0.00542686,-0.00514214,0.00935844,-0.00129858,-0.918029,0.00671381,0.00999475,790,568,-2.18942,4.52872
-427,456,-2.19446,-4.78113,0.00222613,0.00451167,-0.00396998,0.00750008,-0.000762286,-0.925536,0.00527255,0.00865753,797,568,-2.19447,4.78113
-420,456,-2.1886,-5.03693,0.00180128,0.00361697,-0.00310126,0.00594054,-0.000522282,-0.927787,0.00414543,0.00946125,804,568,-2.18863,5.03691
-413,456,-2.19666,-5.29651,0.0013432,0.00263466,-0.00220067,0.00428238,-0.000304526,-0.928104,0.00296165,0.00842471,811,568,-2.19664,5.29651
-406,456,-2.21967,-5.5459,0.00100714,0.00177879,-0.00143629,0.00288018,-9.42405e-05,-0.916614,0.00195229,0.00823512,818,568,-2.21968,5.54587
-399,456,-2.20306,-5.80908,0.000634507,0.000824318,-0.000714932,0.00145062,8.20879e-06,-0.851386,0.000964352,0.00956538,825,568,-2.20306,5.80909
-392,456,-2.17505,-6.06134,0.000430232,-0.000348873,1.69869e-05,0.000430602,-0.000349244,0.0217893,0.00045106,0.0091898,832,568,-2.17502,6.06134
-385,456,-2.18555,-6.31799,0.000366317,-0.00133548,0.00068902,0.000610305,-0.00157947,0.34033,0.00130489,0.00962746,839,568,-2.18553,6.31798
-378,456,-2.21448,-6.59064,0.000382672,-0.00241935,0.0012981,0.000891609,-0.00292829,0.373645,0.00230755,0.0109702,846,568,-2.21449,6.59066
-371,456,-2.21588,-6.84534,0.000541773,-0.0033694,0.00171933,0.00119011,-0.00401774,0.360599,0.00315102,0.011855,853,568,-2.21588,6.84534
-364,456,-2.19989,-7.05658,0.000785325,-0.00439614,0.00212216,0.00154354,-0.00515436,0.34315,0.00405001,0.0160247,860,568,-2.19988,7.05656
-357,456,-2.15204,-7.31464,0.00130211,-0.00544584,0.00237452,0.00205391,-0.00619765,0.306628,0.00496023,0.018303,867,568,-2.15205,7.31462
-350,456,-2.03546,-7.44714,0.00186872,-0.00637986,0.00254253,0.00258945,-0.00710059,0.276224,0.00579311,0.0357293,874,568,-2.03548,7.44714
-343,456,-2.11481,-7.47314,0.00236999,-0.00730507,0.00262564,0.00303662,-0.00797169,0.248636,0.00656509,0.0428031,881,568,-2.11483,7.47312
-336,456,-1.98657,-7.34729,0,0,0,0,0,0,0,-1,888,568,-1.98656,7.34731
-329,456,-1.09528,-6.57825,0,0,0,0,0,0,0,-1,895,568,-1.09528,6.57822
-322,456,-0.662537,-7.66632,0,0,0,0,0,0,0,-1,902,568,-0.662564,7.66633
-315,456,-0.675476,-3.38397,0,0,0,0,0,0,0,-1,909,568,-0.675473,3.38399
-308,456,-1.1618,-3.15314,0,0,0,0,0,0,0,-1,916,568,-1.16178,3.15314
-301,456,-1.83551,-3.26447,0,0,0,0,0,0,0,-1,923,568,-1.8355,3.26449
-294,456,-2.93414,-3.35449,0,0,0,0,0,0,0,-1,930,568,-2.93413,3.35451
-287,456,-3.7569,-3.53101,0,0,0,0,0,0,0,-1,937,568,-3.75692,3.53101
-280,456,-11.2036,5.02667,0,0,0,0,0,0,0,-1,944,568,-11.2036,-5.02667
-273,456,-8.4054,1.72223,0,0,0,0,0,0,0,-1,951,568,-8.4054,-1.72225
-266,456,-5.69971,-1.50983,0,0,0,0,0,0,0,-1,958,568,-5.69969,1.5098
-259,456,0,0,0,0,0,0,0,0,0,-1,965,568,0,0
-252,456,0,0,0,0,0,0,0,0,0,-1,972,568,0,0
-245,456,0,0,0,0,0,0,0,0,0,-1,979,568,0,0
-238,456,0,0,0,0,0,0,0,0,0,-1,986,568,0,0
-231,456,0,0,0,0,0,0,0,0,0,-1,993,568,0,0
-224,456,0,0,0,0,0,0,0,0,0,-1,1000,568,0,0
-217,456,0,0,0,0,0,0,0,0,0,-1,1007,568,0,0
-210,456,0,0,0,0,0,0,0,0,0,-1,1014,568,0,0
-203,456,0,0,0,0,0,0,0,0,0,-1,1021,568,0,0
-196,456,0,0,0,0,0,0,0,0,0,-1,1028,568,0,0
-189,456,0,0,0,0,0,0,0,0,0,-1,1035,568,0,0
-182,456,0,0,0,0,0,0,0,0,0,-1,1042,568,0,0
-175,456,0,0,0,0,0,0,0,0,0,-1,1049,568,0,0
-168,456,0,0,0,0,0,0,0,0,0,-1,1056,568,0,0
-161,456,0,0,0,0,0,0,0,0,0,-1,1063,568,0,0
-154,456,0,0,0,0,0,0,0,0,0,-1,1070,568,0,0
-147,456,0,0,0,0,0,0,0,0,0,-1,1077,568,0,0
-140,456,0,0,0,0,0,0,0,0,0,-1,1084,568,0,0
-133,456,0,0,0,0,0,0,0,0,0,-1,1091,568,0,0
-126,456,0,0,0,0,0,0,0,0,0,-1,1098,568,0,0
-119,456,0,0,0,0,0,0,0,0,0,-1,1105,568,0,0
-112,456,0,0,0,0,0,0,0,0,0,-1,1112,568,0,0
-105,456,0,0,0,0,0,0,0,0,0,-1,1119,568,0,0
-98,456,0,0,0,0,0,0,0,0,0,-1,1126,568,0,0
-91,456,0,0,0,0,0,0,0,0,0,-1,1133,568,0,0
-84,456,0,0,0,0,0,0,0,0,0,-1,1140,568,0,0
-77,456,0,0,0,0,0,0,0,0,0,-1,1147,568,0,0
-70,456,0,0,0,0,0,0,0,0,0,-1,1154,568,0,0
-63,456,0,0,0,0,0,0,0,0,0,-1,1161,568,0,0
-56,456,0,0,0,0,0,0,0,0,0,-1,1168,568,0,0
-49,456,0,0,0,0,0,0,0,0,0,-1,1175,568,0,0
-42,456,0,0,0,0,0,0,0,0,0,-1,1182,568,0,0
-35,456,0,0,0,0,0,0,0,0,0,-1,1189,568,0,0
-28,456,0,0,0,0,0,0,0,0,0,-1,1196,568,0,0
-21,456,0,0,0,0,0,0,0,0,0,-1,1203,568,0,0
-14,456,0,0,0,0,0,0,0,0,0,-1,1210,568,0,0
-7,456,0,0,0,0,0,0,0,0,0,-1,1217,568,0,0
0,456,0,0,0,0,0,0,0,0,0,-1,1224,568,0,0
7,456,0,0,0,0,0,0,0,0,0,-1,1231,568,0,0
14,456,0,0,0,0,0,0,0,0,0,-1,1238,568,0,0
21,456,0,0,0,0,0,0,0,0,0,-1,1245,568,0,0
28,456,0,0,0,0,0,0,0,0,0,-1,1252,568,0,0
35,456,0,0,0,0,0,0,0,0,0,-1,1259,568,0,0
42,456,0,0,0,0,0,0,0,0,0,-1,1266,568,0,0
49,456,0,0,0,0,0,0,0,0,0,-1,1273,568,0,0
56,456,0,0,0,0,0,0,0,0,0,-1,1280,568,0,0
63,456,0,0,0,0,0,0,0,0,0,-1,1287,568,0,0
70,456,0,0,0,0,0,0,0,0,0,-1,1294,568,0,0
77,456,0,0,0,0,0,0,0,0,0,-1,1301,568,0,0
84,456,0,0,0,0,0,0,0,0,0,-1,1308,568,0,0
91,456,0,0,0,0,0,0,0,0,0,-1,1315,568,0,0
98,456,0,0,0,0,0,0,0,0,0,-1,1322,568,0,0
105,456,0,0,0,0,0,0,0,0,0,-1,1329,568,0,0
112,456,0,0,0,0,0,0,0,0,0,-1,1336,568,0,0
119,456,0,0,0,0,0,0,0,0,0,-1,1343,568,0,0
126,456,0,0,0,0,0,0,0,0,0,-1,1350,568,0,0
133,456,0,0,0,0,0,0,0,0,0,-1,1357,568,0,0
140,456,0,0,0,0,0,0,0,0,0,-1,1364,568,0,0
147,456,0,0,0,0,0,0,0,0,0,-1,1371,568,0,0
154,456,0,0,0,0,0,0,0,0,0,-1,1378,568,0,0
161,456,0,0,0,0,0,0,0,0,0,-1,1385,568,0,0
168,456,0,0,0,0,0,0,0,0,0,-1,1392,568,0,0
175,456,0,0,0,0,0,0,0,0,0,-1,1399,568,0,0
182,456,0,0,0,0,0,0,0,0,0,-1,1406,568,0,0
189,456,0,0,0,0,0,0,0,0,0,-1,1413,568,0,0
196,456,0,0,0,0,0,0,0,0,0,-1,1420,568,0,0
203,456,0,0,0,0,0,0,0,0,0,-1,1427,568,0,0
210,456,0,0,0,0,0,0,0,0,0,-1,1434,568,0,0
217,456,0,0,0,0,0,0,0,0,0,-1,1441,568,0,0
224,456,0,0,0,0,0,0,0,0,0,-1,1448,568,0,0
231,456,0,0,0,0,0,0,0,0,0,-1,1455,568,0,0
238,456,0,0,0,0,0,0,0,0,0,-1,1462,568,0,0
245,456,0,0,0,0,0,0,0,0,0,-1,1469,568,0,0
252,456,0,0,0,0,0,0,0,0,0,-1,1476,568,0,0
259,456,0,0,0,0,0,0,0,0,0,-1,1483,568,0,0
266,456,0,0,0,0,0,0,0,0,0,-1,1490,568,0,0
273,456,0,0,0,0,0,0,0,0,0,-1,1497,568,0,0
280,456,0,0,0,0,0,0,0,0,0,-1,1504,568,0,0
287,456,0,0,0,0,0,0,0,0,0,-1,1511,568,0,0
294,456,0,0,0,0,0,0,0,0,0,-1,1518,568,0,0
301,456,0,0,0,0,0,0,0,0,0,-1,1525,568,0,0
308,456,0,0,0,0,0,0,0,0,0,-1,1532,568,0,0
315,456,0,0,0,0,0,0,0,0,0,-1,1539,568,0,0
322,456,0,0,0,0,0,0,0,0,0,-1,1546,568,0,0
329,456,0,0,0,0,0,0,0,0,0,-1,1553,568,0,0
336,456,0,0,0,0,0,0,0,0,0,-1,1560,568,0,0
343,456,0,0,0,0,0,0,0,0,0,-1,1567,568,0,0
350,456,0,0,0,0,0,0,0,0,0,-1,1574,568,0,0
357,456,0,0,0,0,0,0,0,0,0,-1,1581,568,0,0
364,456,0,0,0,0,0,0,0,0,0,-1,1588,568,0,0
371,456,0,0,0,0,0,0,0,0,0,-1,1595,568,0,0
378,456,0,0,0,0,0,0,0,0,0,-1,1602,568,0,0
385,456,5.66284,0.660645,0,0,0,0,0,0,0,-1,1609,568,5.66285,-0.660615
392,456,15.1713,4.17755,0,0,0,0,0,0,0,-1,1616,568,15.1713,-4.17755
399,456,18.0848,4.00708,0,0,0,0,0,0,0,-1,1623,568,18.0848,-4.00706
406,456,20.4451,3.73621,0,0,0,0,0,0,0,-1,1630,568,20.445,-3.73619
413,456,9.55115,1.49933,0,0,0,0,0,0,0,-1,1637,568,9.55119,-1.49933
420,456,6.33875,1.88824,0,0,0,0,0,0,0,-1,1644,568,6.33876,-1.88827
427,456,6.21375,2.02905,0,0,0,0,0,0,0,-1,1651,568,6.21372,-2.02904
434,456,3.0719,-4.86285,0,0,0,0,0,0,0,-1,1658,568,3.07184,4.86287
441,456,2.90344,-4.70459,0,0,0,0,0,0,0,-1,1665,568,2.90346,4.7046
448,456,3.06995,-4.93689,0,0,0,0,0,0,0,-1,1672,568,3.06991,4.93687
455,456,3.46582,-3.43701,0,0,0,0,0,0,0,-1,1679,568,3.46585,3.43698
462,456,4.68445,-4.45831,0,0,0,0,0,0,0,-1,1686,568,4.68439,4.45833
469,456,4.93201,-2.289,0,0,0,0,0,0,0,-1,1693,568,4.93197,2.28903
476,456,4.8363,-2.79364,0,0,0,0,0,0,0,-1,1700,568,4.83636,2.79363
483,456,7.63477,-6.53906,0,0,0,0,0,0,0,-1,1707,568,7.6348,6.53909
490,456,8.11682,-5.92267,0,0,0,0,0,0,0,-1,1714,568,8.1168,5.9227
497,456,8.08496,-5.47235,0.00495665,0.00360362,0.00294896,0.0073057,0.00125457,0.672645,0.00451081,0.0377432,1721,568,8.08497,5.47235
504,456,8.04956,-5.12341,0.00385239,0.00208446,0.00223923,0.00537582,0.000561031,0.597407,0.00341228,0.0108301,1728,568,8.04951,5.12342
511,456,8.07556,-4.84027,0.00304757,0.00155668,0.00181783,0.00426686,0.000337387,0.590817,0.00273905,0.0137097,1735,568,8.07555,4.84029
518,456,8.08472,-4.55878,0.00238096,0.00130529,0.00150765,0.00344384,0.000242409,0.614067,0.00221951,0.0165605,1742,568,8.08475,4.55877
525,456,8.06396,-4.29993,0.00177666,0.00137639,0.00129179,0.00288373,0.000269325,0.708546,0.0018393,0.0155355,1749,568,8.06398,4.2999
532,456,8.06299,-4.01294,0.0012309,0.00167043,0.00113725,0.00260895,0.00029238,0.880845,0.0016505,0.014388,1756,568,8.06302,4.01292
539,456,8.06567,-3.72961,0.000801979,0.00202347,0.00101784,0.00259974,0.000225708,1.05562,0.00166304,0.01858,1763,568,8.06568,3.72964
546,456,8.04114,-3.44727,0.000597929,0.00259293,0.00107188,0.00305965,0.000131214,1.16013,0.00199746,0.0210046,1770,568,8.04116,3.44728
553,456,8.0365,-3.12842,0.000460905,0.00314205,0.00114567,0.00356491,3.80449e-05,1.21721,0.00236403,0.0132623,1777,568,8.03646,3.12843
560,456,8.04126,-2.85065,0.000393523,0.00364875,0.00125059,0.00407372,-3.14461e-05,1.24322,0.00272635,0.0102797,1784,568,8.04122,2.85067
567,456,8.04834,-2.55713,0.000457216,0.00402132,0.00142758,0.00452262,-4.40842e-05,1.23309,0.00302988,0.0143597,1791,568,8.04836,2.55711
574,456,8.00476,-2.39709,0.000546585,0.00415288,0.00159834,0.00475931,-5.984e-05,1.20817,0.00319301,0.0406432,1798,568,8.00477,2.39709
581,456,8.01648,-2.17328,0,0,0,0,0,0,0,-1,1805,568,8.01643,2.17331
588,456,5.23901,-0.0901489,0,0,0,0,0,0,0,-1,1812,568,5.23906,0.0901656
595,456,6.90063,3.14886,0,0,0,0,0,0,0,-1,1819,568,6.90066,-3.14887
602,456,16.894,4.10938,0,0,0,0,0,0,0,-1,1826,568,16.8941,-4.1094
609,456,14.9966,3.5708,0,0,0,0,0,0,0,-1,1833,568,14.9966,-3.57083
616,456,17.7407,2.6579,0,0,0,0,0,0,0,-1,1840,568,17.7408,-2.6579
623,456,20.6838,1.7121,0,0,0,0,0,0,0,-1,1847,568,20.6838,-1.71208
630,456,0,0,0,0,0,0,0,0,0,-1,1854,568,0,0
637,456,0,0,0,0,0,0,0,0,0,-1,1861,568,0,0
644,456,0,0,0,0,0,0,0,0,0,-1,1868,568,0,0
651,456,0,0,0,0,0,0,0,0,0,-1,1875,568,0,0
658,456,0,0,0,0,0,0,0,0,0,-1,1882,568,0,0
665,456,0,0,0,0,0,0,0,0,0,-1,1889,568,0,0
672,456,0,0,0,0,0,0,0,0,0,-1,1896,568,0,0
679,456,0,0,0,0,0,0,0,0,0,-1,1903,568,0,0
686,456,0,0,0,0,0,0,0,0,0,-1,1910,568,0,0
693,456,0,0,0,0,0,0,0,0,0,-1,1917,568,0,0
700,456,0,0,0,0,0,0,0,0,0,-1,1924,568,0,0
707,456,0,0,0,0,0,0,0,0,0,-1,1931,568,0,0
714,456,0,0,0,0,0,0,0,0,0,-1,1938,568,0,0
721,456,0,0,0,0,0,0,0,0,0,-1,1945,568,0,0
728,456,0,0,0,0,0,0,0,0,0,-1,1952,568,0,0
735,456,0,0,0,0,0,0,0,0,0,-1,1959,568,0,0
742,456,0,0,0,0,0,0,0,0,0,-1,1966,568,0,0
749,456,0,0,0,0,0,0,0,0,0,-1,1973,568,0,0
756,456,0,0,0,0,0,0,0,0,0,-1,1980,568,0,0
763,456,0,0,0,0,0,0,0,0,0,-1,1987,568,0,0
770,456,0,0,0,0,0,0,0,0,0,-1,1994,568,0,0
777,456,0,0,0,0,0,0,0,0,0,-1,2001,568,0,0
784,456,0,0,0,0,0,0,0,0,0,-1,2008,568,0,0
791,456,0,0,0,0,0,0,0,0,0,-1,2015,568,0,0
798,456,0,0,0,0,0,0,0,0,0,-1,2022,568,0,0
805,456,0,0,0,0,0,0,0,0,0,-1,2029,568,0,0
812,456,0,0,0,0,0,0,0,0,0,-1,2036,568,0,0
-700,449,0,0,0,0,0,0,0,0,0,-1,524,575,0,0
-693,449,0,0,0,0,0,0,0,0,0,-1,531,575,0,0
-686,449,0,0,0,0,0,0,0,0,0,-1,538,575,0,0
-679,449,0,0,0,0,0,0,0,0,0,-1,545,575,0,0
-672,449,0,0,0,0,0,0,0,0,0,-1,552,575,0,0
-665,449,0,0,0,0,0,0,0,0,0,-1,559,575,0,0
-658,449,0,0,0,0,0,0,0,0,0,-1,566,575,0,0
-651,449,0,0,0,0,0,0,0,0,0,-1,573,575,0,0
-644,449,0,0,0,0,0,0,0,0,0,-1,580,575,0,0
-637,449,0,0,0,0,0,0,0,0,0,-1,587,575,0,0
-630,449,0,0,0,0,0,0,0,0,0,-1,594,575,0,0
-623,449,0,0,0,0,0,0,0,0,0,-1,601,575,0,0
-616,449,0,0,0,0,0,0,0,0,0,-1,608,575,0,0
-609,449,0,0,0,0,0,0,0,0,0,-1,615,575,0,0
-602,449,0,0,0,0,0,0,0,0,0,-1,622,575,0,0
-595,449,0,0,0,0,0,0,0,0,0,-1,629,575,0,0
-588,449,0,0,0,0,0,0,0,0,0,-1,636,575,0,0
-581,449,0,0,0,0,0,0,0,0,0,-1,643,575,0,0
-574,449,0,0,0,0,0,0,0,0,0,-1,650,575,0,0
-567,449,0,0,0,0,0,0,0,0,0,-1,657,575,0,0
-560,449,0,0,0,0,0,0,0,0,0,-1,664,575,0,0
-553,449,0,0,0,0,0,0,0,0,0,-1,671,575,0,0
-546,449,0,0,0,0,0,0,0,0,0,-1,678,575,0,0
-539,449,0,0,0,0,0,0,0,0,0,-1,685,575,0,0
-532,449,0,0,0,0,0,0,0,0,0,-1,692,575,0,0
-525,449,0,0,0,0,0,0,0,0,0,-1,699,575,0,0
-518,449,0,0,0,0,0,0,0,0,0,-1,706,575,0,0
-511,449,-0.941345,-4.4519,0,0,0,0,0,0,0,-1,713,575,-0.941356,4.45191
-504,449,-14.1078,0.318237,0,0,0,0,0,0,0,-1,720,575,-14.1078,-0.318231
-497,449,-8.61292,-3.09009,0,0,0,0,0,0,0,-1,727,575,-8.61291,3.09011
-490,449,-7.50995,-2.96252,0,0,0,0,0,0,0,-1,734,575,-7.50995,2.96251
-483,449,-5.77789,-2.50061,0,0,0,0,0,0,0,-1,741,575,-5.77792,2.50059
-476,449,-4.1723,-2.07739,0,0,0,0,0,0,0,-1,748,575,-4.17228,2.0774
-469,449,-2.26245,-2.37378,0,0,0,0,0,0,0,-1,755,575,-2.26244,2.37376
-462,449,-2.91827,-3.72473,0,0,0,0,0,0,0,-1,762,575,-2.91825,3.72472
-455,449,-2.66132,-3.82379,0.00312281,0.00757625,-0.00875605,0.0143843,-0.00368522,-0.909912,0.0110252,0.0496689,769,575,-2.66134,3.82382
-448,449,-2.42682,-3.9563,0.00260903,0.0061684,-0.00671,0.0113307,-0.00255329,-0.915028,0.0085332,0.0241574,776,575,-2.42679,3.95633
-441,449,-2.42639,-4.27502,0.00224588,0.00502246,-0.00515054,0.00896853,-0.00170019,-0.917041,0.00661894,0.0138466,783,575,-2.42638,4.27501
-434,449,-2.46118,-4.53534,0.00193461,0.00369533,-0.00374255,0.00665967,-0.00102973,-0.900913,0.00481983,0.0122055,790,575,-2.46116,4.53532
-427,449,-2.46088,-4.78094,0.00156789,0.00296716,-0.00271854,0.00507465,-0.000539604,-0.911344,0.00357656,0.0124919,797,575,-2.46086,4.78097
-420,449,-2.44623,-5.03278,0.00115905,0.00221737,-0.00197963,0.00373734,-0.00036092,-0.915998,0.00262017,0.0119259,804,575,-2.44621,5.03279
-413,449,-2.4577,-5.29578,0.000710451,0.0013841,-0.00116889,0.00226373,-0.000169175,-0.925677,0.00156859,0.00940695,811,575,-2.4577,5.29576
-406,449,-2.4801,-5.55377,0.00039852,0.000642984,-0.000503883,0.00103925,2.25508e-06,-0.90439,0.000692082,0.00895514,818,575,-2.48008,5.55377
-399,449,-2.48358,-5.81152,3.35421e-05,-0.000239417,0.00014552,9.65688e-05,-0.000302443,0.408723,0.000240374,0.00892474,825,575,-2.48356,5.81152
-392,449,-2.45746,-6.06427,-0.000198563,-0.00137691,0.000839025,0.000237489,-0.00181296,0.479293,0.00129508,0.00988653,832,575,-2.45744,6.06428
-385,449,-2.4425,-6.30951,-0.000327108,-0.00237547,0.00149719,0.000462694,-0.00316527,0.485422,0.00228012,0.0104896,839,575,-2.44251,6.30951
-378,449,-2.46741,-6.56927,-0.000390891,-0.00350511,0.00213285,0.000692767,-0.00458876,0.47009,0.00331432,0.00970305,846,575,-2.46741,6.56927
-371,449,-2.47778,-6.82471,-0.00026625,-0.00450203,0.00258496,0.000957638,-0.00572592,0.442195,0.00417328,0.01105,853,575,-2.47776,6.82472
-364,449,-2.45349,-7.08246,-6.25571e-05,-0.00577224,0.00311059,0.00130467,-0.00713946,0.414122,0.00524886,0.0193398,860,575,-2.45347,7.08245
-357,449,-2.28741,-7.25671,0.000414532,-0.00716038,0.00351721,0.00179579,-0.00854164,0.374209,0.00637786,0.0351165,867,575,-2.28741,7.2567
-350,449,-2.05536,-7.22388,0,0,0,0,0,0,0,-1,874,575,-2.05533,7.22389
-343,449,-2.47681,-7.34363,0,0,0,0,0,0,0,-1,881,575,-2.47681,7.34361
-336,449,-1.33356,-6.31274,0,0,0,0,0,0,0,-1,888,575,-1.33358,6.31272
-329,449,-0.733398,-7.78937,0,0,0,0,0,0,0,-1,895,575,-0.733398,7.78937
-322,449,-0.628845,-3.16669,0,0,0,0,0,0,0,-1,902,575,-0.628861,3.16667
-315,449,-0.540344,-3.21918,0,0,0,0,0,0,0,-1,909,575,-0.540336,3.21917
-308,449,-1.04413,-2.99341,0,0,0,0,0,0,0,-1,916,575,-1.04415,2.99338
-301,449,-1.58691,-2.80725,0,0,0,0,0,0,0,-1,923,575,-1.58692,2.80728
-294,449,-3.71118,-2.76086,0,0,0,0,0,0,0,-1,930,575,-3.71119,2.76087
-287,449,-4.4082,-2.69525,0,0,0,0,0,0,0,-1,937,575,-4.40822,2.69526
-280,449,-5.09955,-2.96295,0,0,0,0,0,0,0,-1,944,575,-5.09953,2.96297
-273,449,0,0,0,0,0,0,0,0,0,-1,951,575,0,0
-266,449,0,0,0,0,0,0,0,0,0,-1,958,575,0,0
-259,449,0,0,0,0,0,0,0,0,0,-1,965,575,0,0
-252,449,0,0,0,0,0,0,0,0,0,-1,972,575,0,0
-245,449,0,0,0,0,0,0,0,0,0,-1,979,575,0,0
-238,449,0,0,0,0,0,0,0,0,0,-1,986,575,0,0
-231,449,0,0,0,0,0,0,0,0,0,-1,993,575,0,0
-224,449,0,0,0,0,0,0,0,0,0,-1,1000,575,0,0
-217,449,0,0,0,0,0,0,0,0,0,-1,1007,575,0,0
-210,449,0,0,0,0,0,0,0,0,0,-1,1014,575,0,0
-203,449,0,0,0,0,0,0,0,0,0,-1,1021,575,0,0
-196,449,0,0,0,0,0,0,0,0,0,-1,1028,575,0,0
-189,449,0,0,0,0,0,0,0,0,0,-1,1035,575,0,0
-182,449,0,0,0,0,0,0,0,0,0,-1,1042,575,0,0
-175,449,0,0,0,0,0,0,0,0,0,-1,1049,575,0,0
-168,449,0,0,0,0,0,0,0,0,0,-1,1056,575,0,0
-161,449,0,0,0,0,0,0,0,0,0,-1,1063,575,0,0
-154,449,0,0,0,0,0,0,0,0,0,-1,1070,575,0,0
-147,449,0,0,0,0,0,0,0,0,0,-1,1077,575,0,0
-140,449,0,0,0,0,0,0,0,0,0,-1,1084,575,0,0
-133,449,0,0,0,0,0,0,0,0,0,-1,1091,575,0,0
-126,449,0,0,0,0,0,0,0,0,0,-1,1098,575,0,0
-119,449,0,0,0,0,0,0,0,0,0,-1,1105,575,0,0
-112,449,0,0,0,0,0,0,0,0,0,-1,1112,575,0,0
-105,449,0,0,0,0,0,0,0,0,0,-1,1119,575,0,0
-98,449,0,0,0,0,0,0,0,0,0,-1,1126,575,0,0
-91,449,0,0,0,0,0,0,0,0,0,-1,1133,575,0,0
-84,449,0,0,0,0,0,0,0,0,0,-1,1140,575,0,0
-77,449,0,0,0,0,0,0,0,0,0,-1,1147,575,0,0
-70,449,0,0,0,0,0,0,0,0,0,-1,1154,575,0,0
-63,449,0,0,0,0,0,0,0,0,0,-1,1161,575,0,0
-56,449,0,0,0,0,0,0,0,0,0,-1,1168,575,0,0
-49,449,0,0,0,0,0,0,0,0,0,-1,1175,575,0,0
-42,449,0,0,0,0,0,0,0,0,0,-1,1182,575,0,0
-35,449,0,0,0,0,0,0,0,0,0,-1,1189,575,0,0
-28,449,0,0,0,0,0,0,0,0,0,-1,1196,575,0,0
-21,449,0,0,0,0,0,0,0,0,0,-1,1203,575,0,0
-14,449,0,0,0,0,0,0,0,0,0,-1,1210,575,0,0
-7,449,0,0,0,0,0,0,0,0,0,-1,1217,575,0,0
0,449,0,0,0,0,0,0,0,0,0,-1,1224,575,0,0
7,449,0,0,0,0,0,0,0,0,0,-1,1231,575,0,0
14,449,0,0,0,0,0,0,0,0,0,-1,1238,575,0,0
21,449,0,0,0,0,0,0,0,0,0,-1,1245,575,0,0
28,449,0,0,0,0,0,0,0,0,0,-1,1252,575,0,0
35,449,0,0,0,0,0,0,0,0,0,-1,1259,575,0,0
42,449,0,0,0,0,0,0,0,0,0,-1,1266,575,0,0
49,449,0,0,0,0,0,0,0,0,0,-1,1273,575,0,0
56,449,0,0,0,0,0,0,0,0,0,-1,1280,575,0,0
63,449,0,0,0,0,0,0,0,0,0,-1,1287,575,0,0
70,449,0,0,0,0,0,0,0,0,0,-1,1294,575,0,0
77,449,0,0,0,0,0,0,0,0,0,-1,1301,575,0,0
84,449,0,0,0,0,0,0,0,0,0,-1,1308,575,0,0
91,449,0,0,0,0,0,0,0,0,0,-1,1315,575,0,0
98,449,0,0,0,0,0,0,0,0,0,-1,1322,575,0,0
105,449,0,0,0,0,0,0,0,0,0,-1,1329,575,0,0
112,449,0,0,0,0,0,0,0,0,0,-1,1336,575,0,0
119,449,0,0,0,0,0,0,0,0,0,-1,1343,575,0,0
126,449,0,0,0,0,0,0,0,0,0,-1,1350,575,0,0
133,449,0,0,0,0,0,0,0,0,0,-1,1357,575,0,0
140,449,0,0,0,0,0,0,0,0,0,-1,1364,575,0,0
147,449,0,0,0,0,0,0,0,0,0,-1,1371,575,0,0
154,449,0,0,0,0,0,0,0,0,0,-1,1378,575,0,0
161,449,0,0,0,0,0,0,0,0,0,-1,1385,575,0,0
168,449,0,0,0,0,0,0,0,0,0,-1,1392,575,0,0
175,449,0,0,0,0,0,0,0,0,0,-1,1399,575,0,0
182,449,0,0,0,0,0,0,0,0,0,-1,1406,575,0,0
189,449,0,0,0,0,0,0,0,0,0,-1,1413,575,0,0
196,449,0,0,0,0,0,0,0,0,0,-1,1420,575,0,0
203,449,0,0,0,0,0,0,0,0,0,-1,1427,575,0,0
210,449,0,0,0,0,0,0,0,0,0,-1,1434,575,0,0
217,449,0,0,0,0,0,0,0,0,0,-1,1441,575,0,0
224,449,0,0,0,0,0,0,0,0,0,-1,1448,575,0,0
231,449,0,0,0,0,0,0,0,0,0,-1,1455,575,0,0
238,449,0,0,0,0,0,0,0,0,0,-1,1462,575,0,0
245,449,0,0,0,0,0,0,0,0,0,-1,1469,575,0,0
252,449,0,0,0,0,0,0,0,0,0,-1,1476,575,0,0
259,449,0,0,0,0,0,0,0,0,0,-1,1483,575,0,0
266,449,0,0,0,0,0,0,0,0,0,-1,1490,575,0,0
273,449,0,0,0,0,0,0,0,0,0,-1,1497,575,0,0
280,449,0,0,0,0,0,0,0,0,0,-1,1504,575,0,0
287,449,0,0,0,0,0,0,0,0,0,-1,1511,575,0,0
294,449,0,0,0,0,0,0,0,0,0,-1,1518,575,0,0
301,449,0,0,0,0,0,0,0,0,0,-1,1525,575,0,0
308,449,0,0,0,0,0,0,0,0,0,-1,1532,575,0,0
315,449,0,0,0,0,0,0,0,0,0,-1,1539,575,0,0
322,449,0,0,0,0,0,0,0,0,0,-1,1546,575,0,0
329,449,0,0,0,0,0,0,0,0,0,-1,1553,575,0,0
336,449,0,0,0,0,0,0,0,0,0,-1,1560,575,0,0
343,449,0,0,0,0,0,0,0,0,0,-1,1567,575,0,0
350,449,0,0,0,0,0,0,0,0,0,-1,1574,575,0,0
357,449,0,0,0,0,0,0,0,0,0,-1,1581,575,0,0
364,449,0,0,0,0,0,0,0,0,0,-1,1588,575,0,0
371,449,0,0,0,0,0,0,0,0,0,-1,1595,575,0,0
378,449,0,0,0,0,0,0,0,0,0,-1,1602,575,0,0
385,449,0,0,0,0,0,0,0,0,0,-1,1609,575,0,0
392,449,7.95471,3.66217,0,0,0,0,0,0,0,-1,1616,575,7.95471,-3.66218
399,449,18.5619,6.24585,0,0,0,0,0,0,0,-1,1623,575,18.5619,-6.24585
406,449,18.3907,3.98096,0,0,0,0,0,0,0,-1,1630,575,18.3908,-3.98097
413,449,18.2196,1.71606,0,0,0,0,0,0,0,-1,1637,575,18.2196,-1.71609
420,449,4.70264,2.21893,0,0,0,0,0,0,0,-1,1644,575,4.70263,-2.21894
427,449,8.96924,-4.53351,0,0,0,0,0,0,0,-1,1651,575,8.96925,4.53353
434,449,4.12927,-7.06952,0,0,0,0,0,0,0,-1,1658,575,4.12932,7.06952
441,449,3.89856,-6.06458,0,0,0,0,0,0,0,-1,1665,575,3.89855,6.06459
448,449,4.03198,-5.18207,0,0,0,0,0,0,0,-1,1672,575,4.03197,5.18207
455,449,4.21948,-4.09467,0,0,0,0,0,0,0,-1,1679,575,4.21952,4.09465
462,449,4.23181,-2.96924,0,0,0,0,0,0,0,-1,1686,575,4.23185,2.96926
469,449,4.51672,-2.95135,0,0,0,0,0,0,0,-1,1693,575,4.51672,2.95135
476,449,4.71838,-1.86688,0,0,0,0,0,0,0,-1,1700,575,4.71842,1.86689
483,449,4.87878,-1.73126,0,0,0,0,0,0,0,-1,1707,575,4.87875,1.73128
490,449,5.73279,-2.74573,0,0,0,0,0,0,0,-1,1714,575,5.73282,2.74575
497,449,8.31042,-5.62109,0,0,0,0,0,0,0,-1,1721,575,8.31039,5.62109
504,449,8.26758,-5.13593,0.00442981,0.00239011,0.00283038,0.00641847,0.000401444,0.612478,0.00415164,0.0400338,1728,575,8.26759,5.13595
511,449,8.33228,-4.83655,0.00357894,0.0016308,0.00224007,0.00504756,0.000162181,0.580311,0.0033123,0.0108411,1735,575,8.33226,4.83656
518,449,8.36548,-4.55194,0.00291825,0.00120879,0.00181822,0.00407262,5.44169e-05,0.565681,0.00269713,0.0129588,1742,575,8.36547,4.55192
525,449,8.34192,-4.28027,0.00231254,0.00112888,0.0015191,0.00335103,9.03896e-05,0.599646,0.00220451,0.0123238,1749,575,8.34198,4.28026
532,449,8.31323,-4.0097,0.00175538,0.00121322,0.00127414,0.00278696,0.000181637,0.680583,0.00180048,0.0104251,1756,575,8.31325,4.00969
539,449,8.2915,-3.70581,0.00128099,0.00131808,0.00104359,0.00234329,0.000255776,0.794281,0.0014843,0.0133369,1763,575,8.29148,3.70582
546,449,8.28979,-3.41589,0.00100608,0.00162478,0.000980604,0.00234367,0.00028719,0.938193,0.00147606,0.0230064,1770,575,8.28982,3.41591
553,449,8.29187,-3.13269,0.000788995,0.00189575,0.000944271,0.00243685,0.000247899,1.05044,0.00154856,0.0168472,1777,575,8.29184,3.13271
560,449,8.32776,-2.86609,0.000603141,0.00213373,0.00093258,0.00257483,0.000162043,1.12899,0.00166517,0.0138359,1784,575,8.32779,2.8661
567,449,8.31189,-2.57965,0.000550274,0.00228638,0.00100393,0.0027455,9.11497e-05,1.14187,0.00180072,0.00975059,1791,575,8.31185,2.57963
574,449,8.32446,-2.25702,0.000610581,0.00228518,0.00114473,0.00286615,2.9613e-05,1.10116,0.00190097,0.0202164,1798,575,8.32446,2.25703
581,449,8.27148,-1.95209,0.000706635,0.00218245,0.00143217,0.00305564,-0.000166552,1.02328,0.00209482,0.0496631,1805,575,8.27145,1.95211
588,449,8.32275,-1.74713,0,0,0,0,0,0,0,-1,1812,575,8.32271,1.74714
595,449,8.62634,-1.24664,0,0,0,0,0,0,0,-1,1819,575,8.6264,1.24661
602,449,9.46167,4.17444,0,0,0,0,0,0,0,-1,1826,575,9.46164,-4.17442
609,449,12.2028,3.18652,0,0,0,0,0,0,0,-1,1833,575,12.2027,-3.18655
616,449,14.9438,2.19867,0,0,0,0,0,0,0,-1,1840,575,14.9438,-2.19867
623,449,9.83789,-0.0820313,0,0,0,0,0,0,0,-1,1847,575,9.83794,0.0820443
630,449,8.90686,4.99329,0,0,0,0,0,0,0,-1,1854,575,8.90685,-4.99327
637,449,0,0,0,0,0,0,0,0,0,-1,1861,575,0,0
644,449,0,0,0,0,0,0,0,0,0,-1,1868,575,0,0
651,449,0,0,0,0,0,0,0,0,0,-1,1875,575,0,0
658,449,0,0,0,0,0,0,0,0,0,-1,1882,575,0,0
665,449,0,0,0,0,0,0,0,0,0,-1,1889,575,0,0
672,449,0,0,0,0,0,0,0,0,0,-1,1896,575,0,0
679,449,0,0,0,0,0,0,0,0,0,-1,1903,575,0,0
686,449,0,0,0,0,0,0,0,0,0,-1,1910,575,0,0
693,449,0,0,0,0,0,0,0,0,0,-1,1917,575,0,0
700,449,0,0,0,0,0,0,0,0,0,-1,1924,575,0,0
707,449,0,0,0,0,0,0,0,0,0,-1,1931,575,0,0
714,449,0,0,0,0,0,0,0,0,0,-1,1938,575,0,0
721,449,0,0,0,0,0,0,0,0,0,-1,1945,575,0,0
728,449,0,0,0,0,0,0,0,0,0,-1,1952,575,0,0
735,449,0,0,0,0,0,0,0,0,0,-1,1959,575,0,0
742,449,0,0,0,0,0,0,0,0,0,-1,1966,575,0,0
749,449,0,0,0,0,0,0,0,0,0,-1,1973,575,0,0
756,449,0,0,0,0,0,0,0,0,0,-1,1980,575,0,0
763,449,0,0,0,0,0,0,0,0,0,-1,1987,575,0,0
770,449,0,0,0,0,0,0,0,0,0,-1,1994,575,0,0
777,449,0,0,0,0,0,0,0,0,0,-1,2001,575,0,0
784,449,0,0,0,0,0,0,0,0,0,-1,2008,575,0,0
791,449,0,0,0,0,0,0,0,0,0,-1,2015,575,0,0
798,449,0,0,0,0,0,0,0,0,0,-1,2022,575,0,0
805,449,0,0,0,0,0,0,0,0,0,-1,2029,575,0,0
812,449,0,0,0,0,0,0,0,0,0,-1,2036,575,0,0
-700,442,0,0,0,0,0,0,0,0,0,-1,524,582,0,0
-693,442,0,0,0,0,0,0,0,0,0,-1,531,582,0,0
-686,442,0,0,0,0,0,0,0,0,0,-1,538,582,0,0
-679,442,0,0,0,0,0,0,0,0,0,-1,545,582,0,0
-672,442,0,0,0,0,0,0,0,0,0,-1,552,582,0,0
-665,442,0,0,0,0,0,0,0,0,0,-1,559,582,0,0
-658,442,0,0,0,0,0,0,0,0,0,-1,566,582,0,0
-651,442,0,0,0,0,0,0,0,0,0,-1,573,582,0,0
-644,442,0,0,0,0,0,0,0,0,0,-1,580,582,0,0
-637,442,0,0,0,0,0,0,0,0,0,-1,587,582,0,0
-630,442,0,0,0,0,0,0,0,0,0,-1,594,582,0,0
-623,442,0,0,0,0,0,0,0,0,0,-1,601,582,0,0
-616,442,0,0,0,0,0,0,0,0,0,-1,608,582,0,0
-609,442,0,0,0,0,0,0,0,0,0,-1,615,582,0,0
-602,442,0,0,0,0,0,0,0,0,0,-1,622,582,0,0
-595,442,0,0,0,0,0,0,0,0,0,-1,629,582,0,0
-588,442,0,0,0,0,0,0,0,0,0,-1,636,582,0,0
-581,442,0,0,0,0,0,0,0,0,0,-1,643,582,0,0
-574,442,0,0,0,0,0,0,0,0,0,-1,650,582,0,0
-567,442,0,0,0,0,0,0,0,0,0,-1,657,582,0,0
-560,442,0,0,0,0,0,0,0,0,0,-1,664,582,0,0
-553,442,0,0,0,0,0,0,0,0,0,-1,671,582,0,0
-546,442,0,0,0,0,0,0,0,0,0,-1,678,582,0,0
-539,442,0,0,0,0,0,0,0,0,0,-1,685,582,0,0
-532,442,0,0,0,0,0,0,0,0,0,-1,692,582,0,0
-525,442,0,0,0,0,0,0,0,0,0,-1,699,582,0,0
-518,442,-0.493774,-5.72943,0,0,0,0,0,0,0,-1,706,582,-0.493791,5.72946
-511,442,-1.68738,-5.91357,0,0,0,0,0,0,0,-1,713,582,-1.68736,5.91359
-504,442,-3.20807,-6.34082,0,0,0,0,0,0,0,-1,720,582,-3.2081,6.34083
-497,442,-13.6886,-0.250122,0,0,0,0,0,0,0,-1,727,582,-13.6886,0.250143
-490,442,-7.30066,-3.28326,0,0,0,0,0,0,0,-1,734,582,-7.30064,3.28329
-483,442,-4.65228,-1.36835,0,0,0,0,0,0,0,-1,741,582,-4.6523,1.36837
-476,442,-2.94043,-2.28052,0,0,0,0,0,0,0,-1,748,582,-2.94043,2.28052
-469,442,-2.59552,-3.18268,0,0,0,0,0,0,0,-1,755,582,-2.59553,3.18267
-462,442,-2.69836,-3.58966,0.00254941,0.00762405,-0.00927154,0.0146992,-0.00452573,-0.918962,0.011606,0.0371101,762,582,-2.69835,3.58966
-455,442,-2.76837,-3.78925,0.00232754,0.00582137,-0.00705067,0.0113383,-0.0031894,-0.906836,0.00881645,0.0271573,769,582,-2.76835,3.78922
-448,442,-2.69537,-3.9942,0.00192652,0.00455604,-0.00525454,0.00865781,-0.00217525,-0.907988,0.00661723,0.0134838,776,582,-2.6954,3.9942
-441,442,-2.71985,-4.24475,0.00161758,0.00357145,-0.00390209,0.00661704,-0.00142801,-0.908058,0.00495641,0.0128364,783,582,-2.71987,4.24477
-434,442,-2.7251,-4.51257,0.00129925,0.00232519,-0.00260426,0.00446652,-0.000842079,-0.88264,0.00329444,0.0127006,790,582,-2.72511,4.51259
-427,442,-2.74231,-4.77795,0.000925382,0.00169686,-0.00167291,0.00302793,-0.000405691,-0.898707,0.00216655,0.0125861,797,582,-2.7423,4.77793
-420,442,-2.71979,-5.04089,0.00049441,0.00101557,-0.00101264,0.00180062,-0.000290643,-0.911329,0.0013081,0.012744,804,582,-2.71976,5.04087
-413,442,-2.70856,-5.2912,2.16034e-05,0.0002671,-0.00025423,0.000426664,-0.00013796,-1.0103,0.000339894,0.0100651,811,582,-2.70855,5.29122
-406,442,-2.72241,-5.54755,-0.000307299,-0.000418301,0.000349004,-9.41075e-06,-0.00071619,0.706545,0.000474354,0.00845334,818,582,-2.72241,5.54753
-399,442,-2.72894,-5.81671,-0.000695493,-0.00127002,0.000955681,1.51646e-05,-0.00198068,0.639401,0.00132554,0.00814741,825,582,-2.72895,5.81669
-392,442,-2.70929,-6.05774,-0.000989905,-0.00238793,0.00163545,8.96555e-05,-0.00346749,0.583442,0.00234212,0.0105742,832,582,-2.70929,6.05772
-385,442,-2.70123,-6.29712,-0.00122858,-0.00342469,0.00230634,0.000227761,-0.00488103,0.563224,0.00333254,0.0122206,839,582,-2.70125,6.2971
-378,442,-2.71533,-6.5614,-0.00143101,-0.00463264,0.00300666,0.000374436,-0.00643809,0.540774,0.00442216,0.0121471,846,582,-2.71535,6.56141
-371,442,-2.71844,-6.84857,-0.00140825,-0.00573109,0.00355279,0.00058894,-0.00772828,0.512122,0.0053593,0.0229092,853,582,-2.71844,6.84855
-364,442,-2.74561,-7.1391,-0.00128205,-0.00731574,0.00426062,0.000921662,-0.00951945,0.477335,0.00667477,0.0359189,860,582,-2.74558,7.13909
-357,442,-2.71991,-7.43909,0,0,0,0,0,0,0,-1,867,582,-2.71988,7.43908
-350,442,-1.75372,-6.27618,0,0,0,0,0,0,0,-1,874,582,-1.75371,6.27618
-343,442,-1.4599,-4.63605,0,0,0,0,0,0,0,-1,881,582,-1.4599,4.63607
-336,442,-1.4054,-2.64313,0,0,0,0,0,0,0,-1,888,582,-1.40539,2.64315
-329,442,-0.952576,-2.76923,0,0,0,0,0,0,0,-1,895,582,-0.952571,2.7692
-322,442,-0.972534,-2.63208,0,0,0,0,0,0,0,-1,902,582,-0.972512,2.6321
-315,442,-0.445557,-2.89764,0,0,0,0,0,0,0,-1,909,582,-0.445582,2.89765
-308,442,-0.654175,-3.07831,0,0,0,0,0,0,0,-1,916,582,-0.654145,3.07832
-301,442,-1.37427,-2.41455,0,0,0,0,0,0,0,-1,923,582,-1.37425,2.41453
-294,442,-2.99963,-2.07855,0,0,0,0,0,0,0,-1,930,582,-2.99964,2.07857
-287,442,-5.62799,-2.76422,0,0,0,0,0,0,0,-1,937,582,-5.628,2.76424
-280,442,0,0,0,0,0,0,0,0,0,-1,944,582,0,0
-273,442,0,0,0,0,0,0,0,0,0,-1,951,582,0,0
-266,442,0,0,0,0,0,0,0,0,0,-1,958,582,0,0
-259,442,0,0,0,0,0,0,0,0,0,-1,965,582,0,0
-252,442,0,0,0,0,0,0,0,0,0,-1,972,582,0,0
-245,442,0,0,0,0,0,0,0,0,0,-1,979,582,0,0
-238,442,0,0,0,0,0,0,0,0,0,-1,986,582,0,0
-231,442,0,0,0,0,0,0,0,0,0,-1,993,582,0,0
-224,442,0,0,0,0,0,0,0,0,0,-1,1000,582,0,0
-217,442,0,0,0,0,0,0,0,0,0,-1,1007,582,0,0
-210,442,0,0,0,0,0,0,0,0,0,-1,1014,582,0,0
-203,442,0,0,0,0,0,0,0,0,0,-1,1021,582,0,0
-196,442,0,0,0,0,0,0,0,0,0,-1,1028,582,0,0
-189,442,0,0,0,0,0,0,0,0,0,-1,1035,582,0,0
-182,442,0,0,0,0,0,0,0,0,0,-1,1042,582,0,0
-175,442,0,0,0,0,0,0,0,0,0,-1,1049,582,0,0
-168,442,0,0,0,0,0,0,0,0,0,-1,1056,582,0,0
-161,442,0,0,0,0,0,0,0,0,0,-1,1063,582,0,0
-154,442,0,0,0,0,0,0,0,0,0,-1,1070,582,0,0
-147,442,0,0,0,0,0,0,0,0,0,-1,1077,582,0,0
-140,442,0,0,0,0,0,0,0,0,0,-1,1084,582,0,0
-133,442,0,0,0,0,0,0,0,0,0,-1,1091,582,0,0
-126,442,0,0,0,0,0,0,0,0,0,-1,1098,582,0,0
-119,442,0,0,0,0,0,0,0,0,0,-1,1105,582,0,0
-112,442,0,0,0,0,0,0,0,0,0,-1,1112,582,0,0
-105,442,0,0,0,0,0,0,0,0,0,-1,1119,582,0,0
-98,442,0,0,0,0,0,0,0,0,0,-1,1126,582,0,0
-91,442,0,0,0,0,0,0,0,0,0,-1,1133,582,0,0
-84,442,0,0,0,0,0,0,0,0,0,-1,1140,582,0,0
-77,442,0,0,0,0,0,0,0,0,0,-1,1147,582,0,0
-70,442,0,0,0,0,0,0,0,0,0,-1,1154,582,0,0
-63,442,0,0,0,0,0,0,0,0,0,-1,1161,582,0,0
-56,442,0,0,0,0,0,0,0,0,0,-1,1168,582,0,0
-49,442,0,0,0,0,0,0,0,0,0,-1,1175,582,0,0
-42,442,0,0,0,0,0,0,0,0,0,-1,1182,582,0,0
-35,442,0,0,0,0,0,0,0,0,0,-1,1189,582,0,0
-28,442,0,0,0,0,0,0,0,0,0,-1,1196,582,0,0
-21,442,0,0,0,0,0,0,0,0,0,-1,1203,582,0,0
-14,442,0,0,0,0,0,0,0,0,0,-1,1210,582,0,0
-7,442,0,0,0,0,0,0,0,0,0,-1,1217,582,0,0
0,442,0,0,0,0,0,0,0,0,0,-1,1224,582,0,0
7,442,0,0,0,0,0,0,0,0,0,-1,1231,582,0,0
14,442,0,0,0,0,0,0,0,0,0,-1,1238,582,0,0
21,442,0,0,0,0,0,0,0,0,0,-1,1245,582,0,0
28,442,0,0,0,0,0,0,0,0,0,-1,1252,582,0,0
35,442,0,0,0,0,0,0,0,0,0,-1,1259,582,0,0
42,442,0,0,0,0,0,0,0,0,0,-1,1266,582,0,0
49,442,0,0,0,0,0,0,0,0,0,-1,1273,582,0,0
56,442,0,0,0,0,0,0,0,0,0,-1,1280,582,0,0
63,442,0,0,0,0,0,0,0,0,0,-1,1287,582,0,0
70,442,0,0,0,0,0,0,0,0,0,-1,1294,582,0,0
77,442,0,0,0,0,0,0,0,0,0,-1,1301,582,0,0
84,442,0,0,0,0,0,0,0,0,0,-1,1308,582,0,0
91,442,0,0,0,0,0,0,0,0,0,-1,1315,582,0,0
98,442,0,0,0,0,0,0,0,0,0,-1,1322,582,0,0
105,442,0,0,0,0,0,0,0,0,0,-1,1329,582,0,0
112,442,0,0,0,0,0,0,0,0,0,-1,1336,582,0,0
119,442,0,0,0,0,0,0,0,0,0,-1,1343,582,0,0
126,442,0,0,0,0,0,0,0,0,0,-1,1350,582,0,0
133,442,0,0,0,0,0,0,0,0,0,-1,1357,582,0,0
140,442,0,0,0,0,0,0,0,0,0,-1,1364,582,0,0
147,442,0,0,0,0,0,0,0,0,0,-1,1371,582,0,0
154,442,0,0,0,0,0,0,0,0,0,-1,1378,582,0,0
161,442,0,0,0,0,0,0,0,0,0,-1,1385,582,0,0
168,442,0,0,0,0,0,0,0,0,0,-1,1392,582,0,0
175,442,0,0,0,0,0,0,0,0,0,-1,1399,582,0,0
182,442,0,0,0,0,0,0,0,0,0,-1,1406,582,0,0
189,442,0,0,0,0,0,0,0,0,0,-1,1413,582,0,0
196,442,0,0,0,0,0,0,0,0,0,-1,1420,582,0,0
203,442,0,0,0,0,0,0,0,0,0,-1,1427,582,0,0
210,442,0,0,0,0,0,0,0,0,0,-1,1434,582,0,0
217,442,0,0,0,0,0,0,0,0,0,-1,1441,582,0,0
224,442,0,0,0,0,0,0,0,0,0,-1,1448,582,0,0
231,442,0,0,0,0,0,0,0,0,0,-1,1455,582,0,0
238,442,0,0,0,0,0,0,0,0,0,-1,1462,582,0,0
245,442,0,0,0,0,0,0,0,0,0,-1,1469,582,0,0
252,442,0,0,0,0,0,0,0,0,0,-1,1476,582,0,0
259,442,0,0,0,0,0,0,0,0,0,-1,1483,582,0,0
266,442,0,0,0,0,0,0,0,0,0,-1,1490,582,0,0
273,442,0,0,0,0,0,0,0,0,0,-1,1497,582,0,0
280,442,0,0,0,0,0,0,0,0,0,-1,1504,582,0,0
287,442,0,0,0,0,0,0,0,0,0,-1,1511,582,0,0
294,442,0,0,0,0,0,0,0,0,0,-1,1518,582,0,0
301,442,0,0,0,0,0,0,0,0,0,-1,1525,582,0,0
308,442,0,0,0,0,0,0,0,0,0,-1,1532,582,0,0
315,442,0,0,0,0,0,0,0,0,0,-1,1539,582,0,0
322,442,0,0,0,0,0,0,0,0,0,-1,1546,582,0,0
329,442,0,0,0,0,0,0,0,0,0,-1,1553,582,0,0
336,442,0,0,0,0,0,0,0,0,0,-1,1560,582,0,0
343,442,0,0,0,0,0,0,0,0,0,-1,1567,582,0,0
350,442,0,0,0,0,0,0,0,0,0,-1,1574,582,0,0
357,442,0,0,0,0,0,0,0,0,0,-1,1581,582,0,0
364,442,0,0,0,0,0,0,0,0,0,-1,1588,582,0,0
371,442,0,0,0,0,0,0,0,0,0,-1,1595,582,0,0
378,442,0,0,0,0,0,0,0,0,0,-1,1602,582,0,0
385,442,0,0,0,0,0,0,0,0,0,-1,1609,582,0,0
392,442,0,0,0,0,0,0,0,0,0,-1,1616,582,0,0
399,442,0,0,0,0,0,0,0,0,0,-1,1623,582,0,0
406,442,16.3365,4.22577,0,0,0,0,0,0,0,-1,1630,582,16.3365,-4.22575
413,442,3.66699,2.87408,0,0,0,0,0,0,0,-1,1637,582,3.66703,-2.87408
420,442,4.69055,3.09448,0,0,0,0,0,0,0,-1,1644,582,4.69054,-3.0945
427,442,2.44519,-1.35358,0,0,0,0,0,0,0,-1,1651,582,2.44514,1.35361
434,442,8.45898,-3.86719,0,0,0,0,0,0,0,-1,1658,582,8.45904,3.86719
441,442,4.89368,-7.42456,0,0,0,0,0,0,0,-1,1665,582,4.89365,7.42457
448,442,4.7749,-5.88562,0,0,0,0,0,0,0,-1,1672,582,4.7749,5.8856
455,442,4.87024,-4.60687,0,0,0,0,0,0,0,-1,1679,582,4.87019,4.60686
462,442,5.02307,-3.72821,0,0,0,0,0,0,0,-1,1686,582,5.02311,3.7282
469,442,5.12976,-2.98834,0,0,0,0,0,0,0,-1,1693,582,5.12971,2.98834
476,442,5.4624,1.76947,0,0,0,0,0,0,0,-1,1700,582,5.46234,-1.76944
483,442,5.98486,1.87042,0,0,0,0,0,0,0,-1,1707,582,5.98492,-1.87045
490,442,5.04407,-2.35834,0,0,0,0,0,0,0,-1,1714,582,5.04411,2.35837
497,442,6.20984,-3.07831,0,0,0,0,0,0,0,-1,1721,582,6.2098,3.07833
504,442,8.39807,-5.23907,0,0,0,0,0,0,0,-1,1728,582,8.39811,5.23909
511,442,8.52747,-4.85419,0.0041971,0.00183341,0.00262078,0.00589019,0.000140319,0.573575,0.00388086,0.0252398,1735,582,8.52752,4.85417
518,442,8.63293,-4.53314,0.0034858,0.0012606,0.00210873,0.00475744,-1.10404e-05,0.54265,0.00317531,0.0113026,1742,582,8.6329,4.53313
525,442,8.61243,-4.27057,0.0028304,0.00107179,0.00175209,0.00391145,-9.25385e-06,0.55283,0.00261072,0.0103456,1749,582,8.61247,4.27058
532,442,8.60107,-4.00226,0.00222977,0.000989969,0.00144686,0.00318393,3.58067e-05,0.583005,0.00211079,0.0108099,1756,582,8.60102,4.00224
539,442,8.59363,-3.68994,0.00168887,0.000923624,0.00113963,0.0025084,0.000104098,0.623439,0.00163867,0.0121263,1763,582,8.59358,3.68992
546,442,8.58826,-3.41321,0.00132527,0.00104947,0.000981231,0.00217824,0.000196496,0.715584,0.0013913,0.0156715,1770,582,8.58828,3.41319
553,442,8.57434,-3.14551,0.00102472,0.00114656,0.000862533,0.00195032,0.000220959,0.820654,0.00123318,0.0172398,1777,582,8.57436,3.14552
560,442,8.59448,-2.86774,0.000738311,0.00123095,0.000767845,0.00179101,0.000178243,0.940608,0.00113925,0.0157088,1784,582,8.59444,2.86771
567,442,8.57983,-2.56885,0.000578915,0.00127747,0.000764621,0.00176881,8.75742e-05,0.999645,0.00115113,0.0104209,1791,582,8.57984,2.56882
574,442,8.5835,-2.27045,0.000590885,0.00125454,0.000887032,0.00186978,-2.43539e-05,0.964383,0.00125472,0.0120863,1798,582,8.58348,2.27044
581,442,8.62524,-1.9538,0.000680343,0.0012275,0.00114713,0.00213322,-0.000225377,0.902457,0.00150292,0.0192469,1805,582,8.62522,1.95378
588,442,8.57092,-1.79559,0.00102426,0.00114937,0.00160608,0.00269411,-0.000520483,0.804863,0.00199236,0.0291299,1812,582,8.57097,1.79556
595,442,8.65845,-1.45807,0.0016682,0.00134066,0.00235624,0.00386636,-0.000857493,0.750701,0.00290589,0.0441111,1819,582,8.65839,1.4581
602,442,8.78784,-1.02539,0,0,0,0,0,0,0,-1,1826,582,8.78787,1.02539
609,442,9.38428,2.86908,0,0,0,0,0,0,0,-1,1833,582,9.38429,-2.86906
616,442,9.78345,-0.103394,0,0,0,0,0,0,0,-1,1840,582,9.78341,0.103424
623,442,9.23828,0.326721,0,0,0,0,0,0,0,-1,1847,582,9.23829,-0.326727
630,442,7.74304,2.3924,0,0,0,0,0,0,0,-1,1854,582,7.7431,-2.39238
637,442,5.87805,1.84027,0,0,0,0,0,0,0,-1,1861,582,5.87807,-1.84025
644,442,0,0,0,0,0,0,0,0,0,-1,1868,582,0,0
651,442,0,0,0,0,0,0,0,0,0,-1,1875,582,0,0
658,442,0,0,0,0,0,0,0,0,0,-1,1882,582,0,0
665,442,0,0,0,0,0,0,0,0,0,-1,1889,582,0,0
672,442,0,0,0,0,0,0,0,0,0,-1,1896,582,0,0
679,442,0,0,0,0,0,0,0,0,0,-1,1903,582,0,0
686,442,0,0,0,0,0,0,0,0,0,-1,1910,582,0,0
693,442,0,0,0,0,0,0,0,0,0,-1,1917,582,0,0
700,442,0,0,0,0,0,0,0,0,0,-1,1924,582,0,0
707,442,0,0,0,0,0,0,0,0,0,-1,1931,582,0,0
714,442,0,0,0,0,0,0,0,0,0,-1,1938,582,0,0
721,442,0,0,0,0,0,0,0,0,0,-1,1945,582,0,0
728,442,0,0,0,0,0,0,0,0,0,-1,1952,582,0,0
735,442,0,0,0,0,0,0,0,0,0,-1,1959,582,0,0
742,442,0,0,0,0,0,0,0,0,0,-1,1966,582,0,0
749,442,0,0,0,0,0,0,0,0,0,-1,1973,582,0,0
756,442,0,0,0,0,0,0,0,0,0,-1,1980,582,0,0
763,442,0,0,0,0,0,0,0,0,0,-1,1987,582,0,0
770,442,0,0,0,0,0,0,0,0,0,-1,1994,582,0,0
777,442,0,0,0,0,0,0,0,0,0,-1,2001,582,0,0
784,442,0,0,0,0,0,0,0,0,0,-1,2008,582,0,0
791,442,0,0,0,0,0,0,0,0,0,-1,2015,582,0,0
798,442,0,0,0,0,0,0,0,0,0,-1,2022,582,0,0
805,442,0,0,0,0,0,0,0,0,0,-1,2029,582,0,0
812,442,0,0,0,0,0,0,0,0,0,-1,2036,582,0,0
-700,435,0,0,0,0,0,0,0,0,0,-1,524,589,0,0
-693,435,0,0,0,0,0,0,0,0,0,-1,531,589,0,0
-686,435,0,0,0,0,0,0,0,0,0,-1,538,589,0,0
-679,435,0,0,0,0,0,0,0,0,0,-1,545,589,0,0
-672,435,0,0,0,0,0,0,0,0,0,-1,552,589,0,0
-665,435,0,0,0,0,0,0,0,0,0,-1,559,589,0,0
-658,435,0,0,0,0,0,0,0,0,0,-1,566,589,0,0
-651,435,0,0,0,0,0,0,0,0,0,-1,573,589,0,0
-644,435,0,0,0,0,0,0,0,0,0,-1,580,589,0,0
-637,435,0,0,0,0,0,0,0,0,0,-1,587,589,0,0
-630,435,0,0,0,0,0,0,0,0,0,-1,594,589,0,0
-623,435,0,0,0,0,0,0,0,0,0,-1,601,589,0,0
-616,435,0,0,0,0,0,0,0,0,0,-1,608,589,0,0
-609,435,0,0,0,0,0,0,0,0,0,-1,615,589,0,0
-602,435,0,0,0,0,0,0,0,0,0,-1,622,589,0,0
-595,435,0,0,0,0,0,0,0,0,0,-1,629,589,0,0
-588,435,0,0,0,0,0,0,0,0,0,-1,636,589,0,0
-581,435,0,0,0,0,0,0,0,0,0,-1,643,589,0,0
-574,435,0,0,0,0,0,0,0,0,0,-1,650,589,0,0
-567,435,0,0,0,0,0,0,0,0,0,-1,657,589,0,0
-560,435,0,0,0,0,0,0,0,0,0,-1,664,589,0,0
-553,435,0,0,0,0,0,0,0,0,0,-1,671,589,0,0
-546,435,0,0,0,0,0,0,0,0,0,-1,678,589,0,0
-539,435,0,0,0,0,0,0,0,0,0,-1,685,589,0,0
-532,435,0,0,0,0,0,0,0,0,0,-1,692,589,0,0
-525,435,-10.0776,10.0547,0,0,0,0,0,0,0,-1,699,589,-10.0776,-10.0547
-518,435,-0.928711,-4.91492,0,0,0,0,0,0,0,-1,706,589,-0.928723,4.91489
-511,435,-2.43555,-5.38599,0,0,0,0,0,0,0,-1,713,589,-2.43553,5.38597
-504,435,-3.89355,-5.72308,0,0,0,0,0,0,0,-1,720,589,-3.89353,5.72309
-497,435,-5.18701,-5.97711,0,0,0,0,0,0,0,-1,727,589,-5.18703,5.97714
-490,435,-5.46594,-1.20123,0,0,0,0,0,0,0,-1,734,589,-5.46594,1.20122
-483,435,-4.67786,-1.65143,0,0,0,0,0,0,0,-1,741,589,-4.67784,1.65144
-476,435,-3.0376,-2.5235,0,0,0,0,0,0,0,-1,748,589,-3.0376,2.52349
-469,435,-2.97198,-2.98285,0.00130016,0.00836653,-0.0097017,0.0151584,-0.00549169,-0.960025,0.0123501,0.0319364,755,589,-2.972,2.98283
-462,435,-2.90173,-3.48578,0.00155926,0.0062099,-0.00743644,0.0116761,-0.00390693,-0.936928,0.00936217,0.0165552,762,589,-2.90175,3.48578
-455,435,-2.96411,-3.70691,0.00151026,0.00453284,-0.00558144,0.00880397,-0.00276088,-0.917614,0.00697421,0.0145366,769,589,-2.96412,3.70692
-448,435,-2.95776,-3.98407,0.00125764,0.00335276,-0.00401209,0.0064518,-0.0018414,-0.913097,0.00502866,0.0114652,776,589,-2.95779,3.98409
-441,435,-2.9682,-4.24799,0.00102301,0.00247937,-0.00285294,0.00469559,-0.00119321,-0.91035,0.00359476,0.00996177,783,589,-2.9682,4.24796
-434,435,-2.97968,-4.48218,0.000704451,0.00129671,-0.00166423,0.00269095,-0.000689792,-0.873445,0.00206271,0.011928,790,589,-2.97967,4.48216
-427,435,-2.99048,-4.76605,0.000332277,0.000722518,-0.000815717,0.00136613,-0.000311332,-0.902793,0.00103033,0.010051,797,589,-2.99049,4.76605
-420,435,-2.98602,-5.04126,-0.000116882,6.02462e-05,-0.000214935,0.000204148,-0.000260784,-0.980824,0.000269092,0.0103123,804,589,-2.98603,5.04129
-413,435,-2.98511,-5.2962,-0.000618383,-0.000653823,0.000503045,-0.000132746,-0.00113946,0.767793,0.000719485,0.0102312,811,589,-2.98509,5.29621
-406,435,-2.97552,-5.55237,-0.000985294,-0.00134451,0.00106435,-8.55022e-05,-0.0022443,0.701811,0.00146853,0.009622,818,589,-2.9755,5.55234
-399,435,-2.96466,-5.80853,-0.00141625,-0.00222367,0.0016455,-0.000125659,-0.00351426,0.665104,0.0023021,0.00878801,825,589,-2.96463,5.80855
-392,435,-2.96918,-6.05457,-0.00179972,-0.00336938,0.00232722,-0.00012855,-0.00504055,0.622767,0.00331835,0.0107765,832,589,-2.9692,6.05457
-385,435,-2.96509,-6.30548,-0.00219543,-0.00451515,0.00303539,-0.000105853,-0.00660473,0.602902,0.0043683,0.0125388,839,589,-2.96511,6.30548
-378,435,-2.95618,-6.56097,-0.00260306,-0.00589056,0.00384481,-6.53653e-05,-0.00842825,0.583395,0.00559717,0.0192943,846,589,-2.95618,6.56095
-371,435,-3.18433,-6.80267,-0.00274165,-0.00719821,0.00455786,0.000103461,-0.0100433,0.558039,0.0067303,0.0393999,853,589,-3.18431,6.8027
-364,435,-3.39728,-6.99866,-0.00278625,-0.00922826,0.00556821,0.000425456,-0.01244,0.523181,0.00843871,0.0488917,860,589,-3.39727,6.99869
-357,435,-3.51727,-7.33698,0,0,0,0,0,0,0,-1,867,589,-3.51727,7.33699
-350,435,-0.86676,-3.69836,0,0,0,0,0,0,0,-1,874,589,-0.866784,3.69834
-343,435,-1.60706,-2.36835,0,0,0,0,0,0,0,-1,881,589,-1.60706,2.36838
-336,435,-2.07263,-1.94012,0,0,0,0,0,0,0,-1,888,589,-2.07265,1.94014
-329,435,-2.55963,-1.5517,0,0,0,0,0,0,0,-1,895,589,-2.5596,1.55168
-322,435,-3.08545,-1.55255,0,0,0,0,0,0,0,-1,902,589,-3.08544,1.55254
-315,435,-0.404297,-2.63763,0,0,0,0,0,0,0,-1,909,589,-0.404276,2.63761
-308,435,-1.70056,-1.90369,0,0,0,0,0,0,0,-1,916,589,-1.70056,1.90367
-301,435,-1.25232,-2.05511,0,0,0,0,0,0,0,-1,923,589,-1.25234,2.05514
-294,435,-1.79974,-1.97321,0,0,0,0,0,0,0,-1,930,589,-1.79973,1.97322
-287,435,0,0,0,0,0,0,0,0,0,-1,937,589,0,0
-280,435,0,0,0,0,0,0,0,0,0,-1,944,589,0,0
-273,435,0,0,0,0,0,0,0,0,0,-1,951,589,0,0
-266,435,0,0,0,0,0,0,0,0,0,-1,958,589,0,0
-259,435,0,0,0,0,0,0,0,0,0,-1,965,589,0,0
-252,435,0,0,0,0,0,0,0,0,0,-1,972,589,0,0
-245,435,0,0,0,0,0,0,0,0,0,-1,979,589,0,0
-238,435,0,0,0,0,0,0,0,0,0,-1,986,589,0,0
-231,435,0,0,0,0,0,0,0,0,0,-1,993,589,0,0
-224,435,0,0,0,0,0,0,0,0,0,-1,1000,589,0,0
-217,435,0,0,0,0,0,0,0,0,0,-1,1007,589,0,0
-210,435,0,0,0,0,0,0,0,0,0,-1,1014,589,0,0
-203,435,0,0,0,0,0,0,0,0,0,-1,1021,589,0,0
-196,435,0,0,0,0,0,0,0,0,0,-1,1028,589,0,0
-189,435,0,0,0,0,0,0,0,0,0,-1,1035,589,0,0
-182,435,0,0,0,0,0,0,0,0,0,-1,1042,589,0,0
-175,435,0,0,0,0,0,0,0,0,0,-1,1049,589,0,0
-168,435,0,0,0,0,0,0,0,0,0,-1,1056,589,0,0
-161,435,0,0,0,0,0,0,0,0,0,-1,1063,589,0,0
-154,435,0,0,0,0,0,0,0,0,0,-1,1070,589,0,0
-147,435,0,0,0,0,0,0,0,0,0,-1,1077,589,0,0
-140,435,0,0,0,0,0,0,0,0,0,-1,1084,589,0,0
-133,435,0,0,0,0,0,0,0,0,0,-1,1091,589,0,0
-126,435,0,0,0,0,0,0,0,0,0,-1,1098,589,0,0
-119,435,0,0,0,0,0,0,0,0,0,-1,1105,589,0,0
-112,435,0,0,0,0,0,0,0,0,0,-1,1112,589,0,0
-105,435,0,0,0,0,0,0,0,0,0,-1,1119,589,0,0
-98,435,0,0,0,0,0,0,0,0,0,-1,1126,589,0,0
-91,435,0,0,0,0,0,0,0,0,0,-1,1133,589,0,0
-84,435,0,0,0,0,0,0,0,0,0,-1,1140,589,0,0
-77,435,0,0,0,0,0,0,0,0,0,-1,1147,589,0,0
-70,435,0,0,0,0,0,0,0,0,0,-1,1154,589,0,0
-63,435,0,0,0,0,0,0,0,0,0,-1,1161,589,0,0
-56,435,0,0,0,0,0,0,0,0,0,-1,1168,589,0,0
-49,435,0,0,0,0,0,0,0,0,0,-1,1175,589,0,0
-42,435,0,0,0,0,0,0,0,0,0,-1,1182,589,0,0
-35,435,0,0,0,0,0,0,0,0,0,-1,1189,589,0,0
-28,435,0,0,0,0,0,0,0,0,0,-1,1196,589,0,0
-21,435,0,0,0,0,0,0,0,0,0,-1,1203,589,0,0
-14,435,0,0,0,0,0,0,0,0,0,-1,1210,589,0,0
-7,435,0,0,0,0,0,0,0,0,0,-1,1217,589,0,0
0,435,0,0,0,0,0,0,0,0,0,-1,1224,589,0,0
7,435,0,0,0,0,0,0,0,0,0,-1,1231,589,0,0
14,435,0,0,0,0,0,0,0,0,0,-1,1238,589,0,0
21,435,0,0,0,0,0,0,0,0,0,-1,1245,589,0,0
28,435,0,0,0,0,0,0,0,0,0,-1,1252,589,0,0
35,435,0,0,0,0,0,0,0,0,0,-1,1259,589,0,0
42,435,0,0,0,0,0,0,0,0,0,-1,1266,589,0,0
49,435,0,0,0,0,0,0,0,0,0,-1,1273,589,0,0
56,435,0,0,0,0,0,0,0,0,0,-1,1280,589,0,0
63,435,0,0,0,0,0,0,0,0,0,-1,1287,589,0,0
70,435,0,0,0,0,0,0,0,0,0,-1,1294,589,0,0
77,435,0,0,0,0,0,0,0,0,0,-1,1301,589,0,0
84,435,0,0,0,0,0,0,0,0,0,-1,1308,589,0,0
91,435,0,0,0,0,0,0,0,0,0,-1,1315,589,0,0
98,435,0,0,0,0,0,0,0,0,0,-1,1322,589,0,0
105,435,0,0,0,0,0,0,0,0,0,-1,1329,589,0,0
112,435,0,0,0,0,0,0,0,0,0,-1,1336,589,0,0
119,435,0,0,0,0,0,0,0,0,0,-1,1343,589,0,0
126,435,0,0,0,0,0,0,0,0,0,-1,1350,589,0,0
133,435,0,0,0,0,0,0,0,0,0,-1,1357,589,0,0
140,435,0,0,0,0,0,0,0,0,0,-1,1364,589,0,0
147,435,0,0,0,0,0,0,0,0,0,-1,1371,589,0,0
154,435,0,0,0,0,0,0,0,0,0,-1,1378,589,0,0
161,435,0,0,0,0,0,0,0,0,0,-1,1385,589,0,0
168,435,0,0,0,0,0,0,0,0,0,-1,1392,589,0,0
175,435,0,0,0,0,0,0,0,0,0,-1,1399,589,0,0
182,435,0,0,0,0,0,0,0,0,0,-1,1406,589,0,0
189,435,0,0,0,0,0,0,0,0,0,-1,1413,589,0,0
196,435,0,0,0,0,0,0,0,0,0,-1,1420,589,0,0
203,435,0,0,0,0,0,0,0,0,0,-1,1427,589,0,0
210,435,0,0,0,0,0,0,0,0,0,-1,1434,589,0,0
217,435,0,0,0,0,0,0,0,0,0,-1,1441,589,0,0
224,435,0,0,0,0,0,0,0,0,0,-1,1448,589,0,0
231,435,0,0,0,0,0,0,0,0,0,-1,1455,589,0,0
238,435,0,0,0,0,0,0,0,0,0,-1,1462,589,0,0
245,435,0,0,0,0,0,0,0,0,0,-1,1469,589,0,0
252,435,0,0,0,0,0,0,0,0,0,-1,1476,589,0,0
259,435,0,0,0,0,0,0,0,0,0,-1,1483,589,0,0
266,435,0,0,0,0,0,0,0,0,0,-1,1490,589,0,0
273,435,0,0,0,0,0,0,0,0,0,-1,1497,589,0,0
280,435,0,0,0,0,0,0,0,0,0,-1,1504,589,0,0
287,435,0,0,0,0,0,0,0,0,0,-1,1511,589,0,0
294,435,0,0,0,0,0,0,0,0,0,-1,1518,589,0,0
301,435,0,0,0,0,0,0,0,0,0,-1,1525,589,0,0
308,435,0,0,0,0,0,0,0,0,0,-1,1532,589,0,0
315,435,0,0,0,0,0,0,0,0,0,-1,1539,589,0,0
322,435,0,0,0,0,0,0,0,0,0,-1,1546,589,0,0
329,435,0,0,0,0,0,0,0,0,0,-1,1553,589,0,0
336,435,0,0,0,0,0,0,0,0,0,-1,1560,589,0,0
343,435,0,0,0,0,0,0,0,0,0,-1,1567,589,0,0
350,435,0,0,0,0,0,0,0,0,0,-1,1574,589,0,0
357,435,0,0,0,0,0,0,0,0,0,-1,1581,589,0,0
364,435,0,0,0,0,0,0,0,0,0,-1,1588,589,0,0
371,435,0,0,0,0,0,0,0,0,0,-1,1595,589,0,0
378,435,0,0,0,0,0,0,0,0,0,-1,1602,589,0,0
385,435,0,0,0,0,0,0,0,0,0,-1,1609,589,0,0
392,435,0,0,0,0,0,0,0,0,0,-1,1616,589,0,0
399,435,0,0,0,0,0,0,0,0,0,-1,1623,589,0,0
406,435,0,0,0,0,0,0,0,0,0,-1,1630,589,0,0
413,435,3.62073,3.42682,0,0,0,0,0,0,0,-1,1637,589,3.62069,-3.4268
420,435,3.6062,3.71564,0,0,0,0,0,0,0,-1,1644,589,3.60616,-3.71562
427,435,3.11963,0.640198,0,0,0,0,0,0,0,-1,1651,589,3.11967,-0.640192
434,435,2.72107,-1.34802,0,0,0,0,0,0,0,-1,1658,589,2.7211,1.34803
441,435,7.33191,-1.57452,0,0,0,0,0,0,0,-1,1665,589,7.33193,1.57452
448,435,7.4585,-0.00292969,0,0,0,0,0,0,0,-1,1672,589,7.45848,0.00294131
455,435,5.49915,-5.047,0,0,0,0,0,0,0,-1,1679,589,5.49914,5.04703
462,435,5.60669,-4.71466,0,0,0,0,0,0,0,-1,1686,589,5.60675,4.71469
469,435,5.87708,1.22351,0,0,0,0,0,0,0,-1,1693,589,5.87703,-1.22351
476,435,6.14136,1.37714,0,0,0,0,0,0,0,-1,1700,589,6.14138,-1.37712
483,435,6.49243,1.36169,0,0,0,0,0,0,0,-1,1707,589,6.49242,-1.36171
490,435,4.38391,-1.36218,0,0,0,0,0,0,0,-1,1714,589,4.38389,1.3622
497,435,7.23499,-3.64551,0,0,0,0,0,0,0,-1,1721,589,7.23495,3.64551
504,435,7.31189,-3.75909,0,0,0,0,0,0,0,-1,1728,589,7.31184,3.75911
511,435,8.74585,-4.9502,0,0,0,0,0,0,0,-1,1735,589,8.74581,4.95022
518,435,8.89795,-4.53259,0.0042138,0.0021976,0.00287073,0.00624829,0.000163104,0.616542,0.00411223,0.0192274,1742,589,8.89798,4.53261
525,435,8.88538,-4.26331,0.0033883,0.00170453,0.00228616,0.00498266,0.000110164,0.608977,0.00328567,0.0117352,1749,589,8.88534,4.26332
532,435,8.88428,-3.99213,0.0026607,0.00125496,0.0017708,0.00386302,5.26353e-05,0.596473,0.00255798,0.013505,1756,589,8.88433,3.9921
539,435,8.90063,-3.70001,0.00199928,0.000853646,0.00126279,0.0028131,3.98232e-05,0.572472,0.00186227,0.0161968,1763,589,8.90065,3.69998
546,435,8.88367,-3.41498,0.00151235,0.000647647,0.000902985,0.00208115,7.88447e-05,0.562125,0.00136192,0.0159466,1770,589,8.88372,3.415
553,435,8.87976,-3.15424,0.0011252,0.000461276,0.00063422,0.00150908,7.73931e-05,0.544295,0.000981276,0.0120028,1777,589,8.87981,3.15422
560,435,8.87231,-2.8692,0.000766396,0.000315337,0.000425693,0.00102261,5.91217e-05,0.541799,0.000662913,0.0106232,1784,589,8.87231,2.8692
567,435,8.87561,-2.56653,0.000545301,0.000214861,0.000345477,0.000763033,-2.87109e-06,0.562355,0.000509648,0.00926433,1791,589,8.87563,2.56653
574,435,8.87537,-2.27814,0.000553085,0.000151294,0.000449006,0.000844089,-0.00013971,0.575044,0.000614612,0.00984992,1798,589,8.87538,2.27816
581,435,8.87451,-2.00452,0.000663755,0.000184572,0.000705567,0.0011693,-0.000320973,0.62172,0.000905686,0.0168211,1805,589,8.87456,2.00453
588,435,8.86646,-1.73859,0.000964359,0.000273548,0.00116112,0.00183036,-0.000592454,0.640828,0.00145841,0.0228508,1812,589,8.86649,1.73857
595,435,8.81445,-1.48682,0.00155675,0.000653361,0.0019261,0.00308341,-0.000873296,0.670223,0.00240026,0.0245753,1819,589,8.81451,1.48679
602,435,8.83997,-1.16962,0.00228216,0.00122883,0.00297472,0.00477648,-0.00126549,0.697783,0.00367942,0.0453104,1826,589,8.83998,1.1696
609,435,8.88257,-0.887573,0,0,0,0,0,0,0,-1,1833,589,8.88257,0.88756
616,435,5.05151,-2.75269,0,0,0,0,0,0,0,-1,1840,589,5.05157,2.7527
623,435,11.7588,3.9704,0,0,0,0,0,0,0,-1,1847,589,11.7587,-3.97043
630,435,4.72742,-0.87561,0,0,0,0,0,0,0,-1,1854,589,4.7274,0.875636
637,435,5.05286,1.48792,0,0,0,0,0,0,0,-1,1861,589,5.05291,-1.48792
644,435,0,0,0,0,0,0,0,0,0,-1,1868,589,0,0
651,435,0,0,0,0,0,0,0,0,0,-1,1875,589,0,0
658,435,0,0,0,0,0,0,0,0,0,-1,1882,589,0,0
665,435,0,0,0,0,0,0,0,0,0,-1,1889,589,0,0
672,435,0,0,0,0,0,0,0,0,0,-1,1896,589,0,0
679,435,0,0,0,0,0,0,0,0,0,-1,1903,589,0,0
686,435,0,0,0,0,0,0,0,0,0,-1,1910,589,0,0
693,435,0,0,0,0,0,0,0,0,0,-1,1917,589,0,0
700,435,0,0,0,0,0,0,0,0,0,-1,1924,589,0,0
707,435,0,0,0,0,0,0,0,0,0,-1,1931,589,0,0
714,435,0,0,0,0,0,0,0,0,0,-1,1938,589,0,0
721,435,0,0,0,0,0,0,0,0,0,-1,1945,589,0,0
728,435,0,0,0,0,0,0,0,0,0,-1,1952,589,0,0
735,435,0,0,0,0,0,0,0,0,0,-1,1959,589,0,0
742,435,0,0,0,0,0,0,0,0,0,-1,1966,589,0,0
749,435,0,0,0,0,0,0,0,0,0,-1,1973,589,0,0
756,435,0,0,0,0,0,0,0,0,0,-1,1980,589,0,0
763,435,0,0,0,0,0,0,0,0,0,-1,1987,589,0,0
770,435,0,0,0,0,0,0,0,0,0,-1,1994,589,0,0
777,435,0,0,0,0,0,0,0,0,0,-1,2001,589,0,0
784,435,0,0,0,0,0,0,0,0,0,-1,2008,589,0,0
791,435,0,0,0,0,0,0,0,0,0,-1,2015,589,0,0
798,435,0,0,0,0,0,0,0,0,0,-1,2022,589,0,0
805,435,0,0,0,0,0,0,0,0,0,-1,2029,589,0,0
812,435,0,0,0,0,0,0,0,0,0,-1,2036,589,0,0
-700,428,0,0,0,0,0,0,0,0,0,-1,524,596,0,0
-693,428,0,0,0,0,0,0,0,0,0,-1,531,596,0,0
-686,428,0,0,0,0,0,0,0,0,0,-1,538,596,0,0
-679,428,0,0,0,0,0,0,0,0,0,-1,545,596,0,0
-672,428,0,0,0,0,0,0,0,0,0,-1,552,596,0,0
-665,428,0,0,0,0,0,0,0,0,0,-1,559,596,0,0
-658,428,0,0,0,0,0,0,0,0,0,-1,566,596,0,0
-651,428,0,0,0,0,0,0,0,0,0,-1,573,596,0,0
-644,428,0,0,0,0,0,0,0,0,0,-1,580,596,0,0
-637,428,0,0,0,0,0,0,0,0,0,-1,587,596,0,0
-630,428,0,0,0,0,0,0,0,0,0,-1,594,596,0,0
-623,428,0,0,0,0,0,0,0,0,0,-1,601,596,0,0
-616,428,0,0,0,0,0,0,0,0,0,-1,608,596,0,0
-609,428,0,0,0,0,0,0,0,0,0,-1,615,596,0,0
-602,428,0,0,0,0,0,0,0,0,0,-1,622,596,0,0
-595,428,0,0,0,0,0,0,0,0,0,-1,629,596,0,0
-588,428,0,0,0,0,0,0,0,0,0,-1,636,596,0,0
-581,428,0,0,0,0,0,0,0,0,0,-1,643,596,0,0
-574,428,0,0,0,0,0,0,0,0,0,-1,650,596,0,0
-567,428,0,0,0,0,0,0,0,0,0,-1,657,596,0,0
-560,428,0,0,0,0,0,0,0,0,0,-1,664,596,0,0
-553,428,0,0,0,0,0,0,0,0,0,-1,671,596,0,0
-546,428,0,0,0,0,0,0,0,0,0,-1,678,596,0,0
-539,428,0,0,0,0,0,0,0,0,0,-1,685,596,0,0
-532,428,0,0,0,0,0,0,0,0,0,-1,692,596,0,0
-525,428,-9.59918,7.58618,0,0,0,0,0,0,0,-1,699,596,-9.59918,-7.5862
-518,428,-1.78259,-8.1123,0,0,0,0,0,0,0,-1,706,596,-1.78261,8.11233
-511,428,-3.32758,-4.85852,0,0,0,0,0,0,0,-1,713,596,-3.32759,4.85853
-504,428,-4.19916,-4.97797,0,0,0,0,0,0,0,-1,720,596,-4.19918,4.97795
-497,428,-2.85516,-3.52179,0,0,0,0,0,0,0,-1,727,596,-2.85517,3.52181
-490,428,-3.92902,-1.2439,0,0,0,0,0,0,0,-1,734,596,-3.92901,1.24387
-483,428,-4.29169,-2.23236,0,0,0,0,0,0,0,-1,741,596,-4.29167,2.23237
-476,428,-3.72839,-2.6543,0,0,0,0,0,0,0,-1,748,596,-3.72837,2.65432
-469,428,-3.16443,-3.11133,0.00033485,0.00662003,-0.00745125,0.0115643,-0.00460941,-0.984957,0.00962136,0.0204566,755,596,-3.16442,3.11132
-462,428,-3.20319,-3.38458,0.000661714,0.00480337,-0.00568102,0.00877922,-0.00331414,-0.960172,0.00721584,0.0181734,762,596,-3.2032,3.38457
-455,428,-3.23608,-3.67987,0.000690895,0.00327515,-0.00411891,0.00629985,-0.0023338,-0.93739,0.00515697,0.012196,769,596,-3.23606,3.67985
-448,428,-3.23688,-3.95557,0.000537622,0.00217781,-0.00275659,0.00423371,-0.00151828,-0.929981,0.00344206,0.00972239,776,596,-3.23691,3.95556
-441,428,-3.24023,-4.22754,0.000358253,0.00141314,-0.00178093,0.00274309,-0.000971699,-0.929363,0.00222453,0.0117881,783,596,-3.24022,4.22754
-434,428,-3.23633,-4.49915,3.3038e-05,0.000318687,-0.000711262,0.000901322,-0.000549597,-0.884483,0.000845854,0.00987868,790,596,-3.23633,4.49915
-427,428,-3.22809,-4.77924,-0.000331093,-0.000199252,4.2993e-05,-0.000186471,-0.000343874,1.28184,0.000198772,0.0109688,797,596,-3.22811,4.77924
-420,428,-3.22314,-5.01941,-0.000781445,-0.000835953,0.000574658,-0.000233395,-0.001384,0.761703,0.000855548,0.0107034,804,596,-3.22317,5.01938
-413,428,-3.23059,-5.27277,-0.00129425,-0.00151276,0.00122708,-0.000171571,-0.00263544,0.740996,0.00170265,0.0126753,811,596,-3.23058,5.27275
-406,428,-3.23315,-5.53473,-0.00169599,-0.00222049,0.00172315,-0.000215242,-0.00370124,0.709882,0.00239896,0.0148536,818,596,-3.23317,5.53473
-399,428,-3.22485,-5.79712,-0.00216319,-0.00313964,0.00224457,-0.000354356,-0.00494847,0.678309,0.00318743,0.0135405,825,596,-3.22484,5.79711
-392,428,-3.21161,-6.05408,-0.00264039,-0.00432442,0.00288755,-0.000474595,-0.00649022,0.643531,0.00417761,0.0138601,832,596,-3.21164,6.05409
-385,428,-3.23871,-6.30566,-0.00322681,-0.00564014,0.00360002,-0.000636618,-0.00823034,0.623691,0.00528748,0.0215226,839,596,-3.2387,6.30569
-378,428,-3.10699,-6.01471,0,0,0,0,0,0,0,-1,846,596,-3.107,6.01471
-371,428,-3.66138,-6.04626,0,0,0,0,0,0,0,-1,853,596,-3.66135,6.04627
-364,428,-3.98547,-6.87183,0,0,0,0,0,0,0,-1,860,596,-3.98547,6.87182
-357,428,-3.20996,-4.70966,0,0,0,0,0,0,0,-1,867,596,-3.20997,4.70965
-350,428,-1.62793,-3.94055,0,0,0,0,0,0,0,-1,874,596,-1.62794,3.94055
-343,428,-0.0567017,-4.80994,0,0,0,0,0,0,0,-1,881,596,-0.0567096,4.80996
-336,428,-3.29175,-1.39569,0,0,0,0,0,0,0,-1,888,596,-3.29172,1.39568
-329,428,-3.71564,-0.791321,0,0,0,0,0,0,0,-1,895,596,-3.71564,0.791299
-322,428,-5.52863,-3.59827,0,0,0,0,0,0,0,-1,902,596,-5.52865,3.59829
-315,428,-4.57172,-1.22052,0,0,0,0,0,0,0,-1,909,596,-4.57171,1.22052
-308,428,-5.26538,-1.1521,0,0,0,0,0,0,0,-1,916,596,-5.26539,1.15209
-301,428,0,0,0,0,0,0,0,0,0,-1,923,596,0,0
-294,428,0,0,0,0,0,0,0,0,0,-1,930,596,0,0
-287,428,0,0,0,0,0,0,0,0,0,-1,937,596,0,0
-280,428,0,0,0,0,0,0,0,0,0,-1,944,596,0,0
-273,428,0,0,0,0,0,0,0,0,0,-1,951,596,0,0
-266,428,0,0,0,0,0,0,0,0,0,-1,958,596,0,0
-259,428,0,0,0,0,0,0,0,0,0,-1,965,596,0,0
-252,428,0,0,0,0,0,0,0,0,0,-1,972,596,0,0
-245,428,0,0,0,0,0,0,0,0,0,-1,979,596,0,0
-238,428,0,0,0,0,0,0,0,0,0,-1,986,596,0,0
-231,428,0,0,0,0,0,0,0,0,0,-1,993,596,0,0
-224,428,0,0,0,0,0,0,0,0,0,-1,1000,596,0,0
-217,428,0,0,0,0,0,0,0,0,0,-1,1007,596,0,0
-210,428,0,0,0,0,0,0,0,0,0,-1,1014,596,0,0
-203,428,0,0,0,0,0,0,0,0,0,-1,1021,596,0,0
-196,428,0,0,0,0,0,0,0,0,0,-1,1028,596,0,0
-189,428,0,0,0,0,0,0,0,0,0,-1,1035,596,0,0
-182,428,0,0,0,0,0,0,0,0,0,-1,1042,596,0,0
-175,428,0,0,0,0,0,0,0,0,0,-1,1049,596,0,0
-168,428,0,0,0,0,0,0,0,0,0,-1,1056,596,0,0
-161,428,0,0,0,0,0,0,0,0,0,-1,1063,596,0,0
-154,428,0,0,0,0,0,0,0,0,0,-1,1070,596,0,0
-147,428,0,0,0,0,0,0,0,0,0,-1,1077,596,0,0
-140,428,0,0,0,0,0,0,0,0,0,-1,1084,596,0,0
-133,428,0,0,0,0,0,0,0,0,0,-1,1091,596,0,0
-126,428,0,0,0,0,0,0,0,0,0,-1,1098,596,0,0
-119,428,0,0,0,0,0,0,0,0,0,-1,1105,596,0,0
-112,428,0,0,0,0,0,0,0,0,0,-1,1112,596,0,0
-105,428,0,0,0,0,0,0,0,0,0,-1,1119,596,0,0
-98,428,0,0,0,0,0,0,0,0,0,-1,1126,596,0,0
-91,428,0,0,0,0,0,0,0,0,0,-1,1133,596,0,0
-84,428,0,0,0,0,0,0,0,0,0,-1,1140,596,0,0
-77,428,0,0,0,0,0,0,0,0,0,-1,1147,596,0,0
-70,428,0,0,0,0,0,0,0,0,0,-1,1154,596,0,0
-63,428,0,0,0,0,0,0,0,0,0,-1,1161,596,0,0
-56,428,0,0,0,0,0,0,0,0,0,-1,1168,596,0,0
-49,428,0,0,0,0,0,0,0,0,0,-1,1175,596,0,0
-42,428,0,0,0,0,0,0,0,0,0,-1,1182,596,0,0
-35,428,0,0,0,0,0,0,0,0,0,-1,1189,596,0,0
-28,428,0,0,0,0,0,0,0,0,0,-1,1196,596,0,0
-21,428,0,0,0,0,0,0,0,0,0,-1,1203,596,0,0
-14,428,0,0,0,0,0,0,0,0,0,-1,1210,596,0,0
-7,428,0,0,0,0,0,0,0,0,0,-1,1217,596,0,0
0,428,0,0,0,0,0,0,0,0,0,-1,1224,596,0,0
7,428,0,0,0,0,0,0,0,0,0,-1,1231,596,0,0
14,428,0,0,0,0,0,0,0,0,0,-1,1238,596,0,0
21,428,0,0,0,0,0,0,0,0,0,-1,1245,596,0,0
28,428,0,0,0,0,0,0,0,0,0,-1,1252,596,0,0
35,428,0,0,0,0,0,0,0,0,0,-1,1259,596,0,0
42,428,0,0,0,0,0,0,0,0,0,-1,1266,596,0,0
49,428,0,0,0,0,0,0,0,0,0,-1,1273,596,0,0
56,428,0,0,0,0,0,0,0,0,0,-1,1280,596,0,0
63,428,0,0,0,0,0,0,0,0,0,-1,1287,596,0,0
70,428,0,0,0,0,0,0,0,0,0,-1,1294,596,0,0
77,428,0,0,0,0,0,0,0,0,0,-1,1301,596,0,0
84,428,0,0,0,0,0,0,0,0,0,-1,1308,596,0,0
91,428,0,0,0,0,0,0,0,0,0,-1,1315,596,0,0
98,428,0,0,0,0,0,0,0,0,0,-1,1322,596,0,0
105,428,0,0,0,0,0,0,0,0,0,-1,1329,596,0,0
112,428,0,0,0,0,0,0,0,0,0,-1,1336,596,0,0
119,428,0,0,0,0,0,0,0,0,0,-1,1343,596,0,0
126,428,0,0,0,0,0,0,0,0,0,-1,1350,596,0,0
133,428,0,0,0,0,0,0,0,0,0,-1,1357,596,0,0
140,428,0,0,0,0,0,0,0,0,0,-1,1364,596,0,0
147,428,0,0,0,0,0,0,0,0,0,-1,1371,596,0,0
154,428,0,0,0,0,0,0,0,0,0,-1,1378,596,0,0
161,428,0,0,0,0,0,0,0,0,0,-1,1385,596,0,0
168,428,0,0,0,0,0,0,0,0,0,-1,1392,596,0,0
175,428,0,0,0,0,0,0,0,0,0,-1,1399,596,0,0
182,428,0,0,0,0,0,0,0,0,0,-1,1406,596,0,0
189,428,0,0,0,0,0,0,0,0,0,-1,1413,596,0,0
196,428,0,0,0,0,0,0,0,0,0,-1,1420,596,0,0
203,428,0,0,0,0,0,0,0,0,0,-1,1427,596,0,0
210,428,0,0,0,0,0,0,0,0,0,-1,1434,596,0,0
217,428,0,0,0,0,0,0,0,0,0,-1,1441,596,0,0
224,428,0,0,0,0,0,0,0,0,0,-1,1448,596,0,0
231,428,0,0,0,0,0,0,0,0,0,-1,1455,596,0,0
238,428,0,0,0,0,0,0,0,0,0,-1,1462,596,0,0
245,428,0,0,0,0,0,0,0,0,0,-1,1469,596,0,0
252,428,0,0,0,0,0,0,0,0,0,-1,1476,596,0,0
259,428,0,0,0,0,0,0,0,0,0,-1,1483,596,0,0
266,428,0,0,0,0,0,0,0,0,0,-1,1490,596,0,0
273,428,0,0,0,0,0,0,0,0,0,-1,1497,596,0,0
280,428,0,0,0,0,0,0,0,0,0,-1,1504,596,0,0
287,428,0,0,0,0,0,0,0,0,0,-1,1511,596,0,0
294,428,0,0,0,0,0,0,0,0,0,-1,1518,596,0,0
301,428,0,0,0,0,0,0,0,0,0,-1,1525,596,0,0
308,428,0,0,0,0,0,0,0,0,0,-1,1532,596,0,0
315,428,0,0,0,0,0,0,0,0,0,-1,1539,596,0,0
322,428,0,0,0,0,0,0,0,0,0,-1,1546,596,0,0
329,428,0,0,0,0,0,0,0,0,0,-1,1553,596,0,0
336,428,0,0,0,0,0,0,0,0,0,-1,1560,596,0,0
343,428,0,0,0,0,0,0,0,0,0,-1,1567,596,0,0
350,428,0,0,0,0,0,0,0,0,0,-1,1574,596,0,0
357,428,0,0,0,0,0,0,0,0,0,-1,1581,596,0,0
364,428,0,0,0,0,0,0,0,0,0,-1,1588,596,0,0
371,428,0,0,0,0,0,0,0,0,0,-1,1595,596,0,0
378,428,0,0,0,0,0,0,0,0,0,-1,1602,596,0,0
385,428,0,0,0,0,0,0,0,0,0,-1,1609,596,0,0
392,428,0,0,0,0,0,0,0,0,0,-1,1616,596,0,0
399,428,0,0,0,0,0,0,0,0,0,-1,1623,596,0,0
406,428,0,0,0,0,0,0,0,0,0,-1,1630,596,0,0
413,428,0,0,0,0,0,0,0,0,0,-1,1637,596,0,0
420,428,2.95886,0.551819,0,0,0,0,0,0,0,-1,1644,596,2.9589,-0.551797
427,428,3.19385,0.384705,0,0,0,0,0,0,0,-1,1651,596,3.19383,-0.384692
434,428,8.18152,1.80432,0,0,0,0,0,0,0,-1,1658,596,8.18148,-1.80434
441,428,8.17993,0.607483,0,0,0,0,0,0,0,-1,1665,596,8.17997,-0.607513
448,428,7.84338,-0.385986,0,0,0,0,0,0,0,-1,1672,596,7.84336,0.385978
455,428,6.64038,2.1123,0,0,0,0,0,0,0,-1,1679,596,6.64037,-2.11229
462,428,4.84106,4.12341,0,0,0,0,0,0,0,-1,1686,596,4.84107,-4.12339
469,428,7.83789,3.10083,0,0,0,0,0,0,0,-1,1693,596,7.83785,-3.10086
476,428,7.61255,1.73956,0,0,0,0,0,0,0,-1,1700,596,7.61252,-1.73958
483,428,7.22766,1.05121,0,0,0,0,0,0,0,-1,1707,596,7.2277,-1.05121
490,428,5.4071,-3.2793,0,0,0,0,0,0,0,-1,1714,596,5.40707,3.27929
497,428,7.84106,-3.65491,0,0,0,0,0,0,0,-1,1721,596,7.84107,3.65491
504,428,6.92139,-2.83356,0,0,0,0,0,0,0,-1,1728,596,6.92137,2.83353
511,428,7.88501,-3.78723,0,0,0,0,0,0,0,-1,1735,596,7.88502,3.78722
518,428,9.15552,-4.59882,0,0,0,0,0,0,0,-1,1742,596,9.15556,4.59883
525,428,9.07825,-4.32404,0.00398675,0.0026714,0.00258987,0.00600114,0.000657002,0.661056,0.00380074,0.0363704,1749,596,9.0782,4.32402
532,428,9.13806,-3.95728,0.00307325,0.0019275,0.00199931,0.00458013,0.00042061,0.645868,0.00292332,0.018244,1756,596,9.13803,3.95728
539,428,9.19458,-3.67529,0.00225879,0.00131066,0.00143731,0.0032982,0.000271259,0.626102,0.00211419,0.0206846,1763,596,9.19461,3.67527
546,428,9.18433,-3.40771,0.00163385,0.000888507,0.00100785,0.00233572,0.000186639,0.608309,0.00149881,0.016192,1770,596,9.18436,3.40774
553,428,9.16565,-3.13678,0.0011683,0.000528939,0.000701682,0.00161969,7.75476e-05,0.57165,0.0010549,0.0111943,1777,596,9.1656,3.13676
560,428,9.17334,-2.84802,0.000763599,0.000245662,0.000473888,0.00104466,-3.54014e-05,0.535332,0.000708537,0.0126791,1784,596,9.17335,2.84803
567,428,9.17615,-2.57458,0.000518705,5.43625e-05,0.000381633,0.000733241,-0.000160174,0.512125,0.000550048,0.0116005,1791,596,9.17618,2.57461
574,428,9.17273,-2.29254,0.000547144,-4.07058e-05,0.000494002,0.000828049,-0.000321611,0.517035,0.000684887,0.0129464,1798,596,9.17268,2.29255
581,428,9.14929,-2.00323,0.000699335,1.57385e-06,0.00074962,0.00117728,-0.000476375,0.567601,0.000982912,0.0111922,1805,596,9.14931,2.00323
588,428,9.14014,-1.70599,0.00100816,0.000154168,0.0011962,0.00185129,-0.000688967,0.613969,0.00151693,0.0141653,1812,596,9.14012,1.70597
595,428,9.12122,-1.41925,0.0015993,0.00059717,0.0019198,0.00308235,-0.00088588,0.657747,0.0024052,0.0100444,1819,596,9.12122,1.41926
602,428,9.0824,-1.12585,0.00238056,0.00129782,0.00289649,0.00478584,-0.00110746,0.693011,0.00361668,0.0202372,1826,596,9.08242,1.12587
609,428,9.05151,-0.752991,0,0,0,0,0,0,0,-1,1833,596,9.05151,0.753002
616,428,5.88977,-0.239319,0,0,0,0,0,0,0,-1,1840,596,5.88983,0.239293
623,428,8.10767,1.20917,0,0,0,0,0,0,0,-1,1847,596,8.10763,-1.20919
630,428,4.94434,0.773193,0,0,0,0,0,0,0,-1,1854,596,4.9443,-0.773171
637,428,3.95435,1.90857,0,0,0,0,0,0,0,-1,1861,596,3.95439,-1.90858
644,428,5.75476,0.888977,0,0,0,0,0,0,0,-1,1868,596,5.75472,-0.888955
651,428,0,0,0,0,0,0,0,0,0,-1,1875,596,0,0
658,428,0,0,0,0,0,0,0,0,0,-1,1882,596,0,0
665,428,0,0,0,0,0,0,0,0,0,-1,1889,596,0,0
672,428,0,0,0,0,0,0,0,0,0,-1,1896,596,0,0
679,428,0,0,0,0,0,0,0,0,0,-1,1903,596,0,0
686,428,0,0,0,0,0,0,0,0,0,-1,1910,596,0,0
693,428,0,0,0,0,0,0,0,0,0,-1,1917,596,0,0
700,428,0,0,0,0,0,0,0,0,0,-1,1924,596,0,0
707,428,0,0,0,0,0,0,0,0,0,-1,1931,596,0,0
714,428,0,0,0,0,0,0,0,0,0,-1,1938,596,0,0
721,428,0,0,0,0,0,0,0,0,0,-1,1945,596,0,0
728,428,0,0,0,0,0,0,0,0,0,-1,1952,596,0,0
735,428,0,0,0,0,0,0,0,0,0,-1,1959,596,0,0
742,428,0,0,0,0,0,0,0,0,0,-1,1966,596,0,0
749,428,0,0,0,0,0,0,0,0,0,-1,1973,596,0,0
756,428,0,0,0,0,0,0,0,0,0,-1,1980,596,0,0
763,428,0,0,0,0,0,0,0,0,0,-1,1987,596,0,0
770,428,0,0,0,0,0,0,0,0,0,-1,1994,596,0,0
777,428,0,0,0,0,0,0,0,0,0,-1,2001,596,0,0
784,428,0,0,0,0,0,0,0,0,0,-1,2008,596,0,0
791,428,0,0,0,0,0,0,0,0,0,-1,2015,596,0,0
798,428,0,0,0,0,0,0,0,0,0,-1,2022,596,0,0
805,428,0,0,0,0,0,0,0,0,0,-1,2029,596,0,0
812,428,0,0,0,0,0,0,0,0,0,-1,2036,596,0,0
-700,421,0,0,0,0,0,0,0,0,0,-1,524,603,0,0
-693,421,0,0,0,0,0,0,0,0,0,-1,531,603,0,0
-686,421,0,0,0,0,0,0,0,0,0,-1,538,603,0,0
-679,421,0,0,0,0,0,0,0,0,0,-1,545,603,0,0
-672,421,0,0,0,0,0,0,0,0,0,-1,552,603,0,0
-665,421,0,0,0,0,0,0,0,0,0,-1,559,603,0,0
-658,421,0,0,0,0,0,0,0,0,0,-1,566,603,0,0
-651,421,0,0,0,0,0,0,0,0,0,-1,573,603,0,0
-644,421,0,0,0,0,0,0,0,0,0,-1,580,603,0,0
-637,421,0,0,0,0,0,0,0,0,0,-1,587,603,0,0
-630,421,0,0,0,0,0,0,0,0,0,-1,594,603,0,0
-623,421,0,0,0,0,0,0,0,0,0,-1,601,603,0,0
-616,421,0,0,0,0,0,0,0,0,0,-1,608,603,0,0
-609,421,0,0,0,0,0,0,0,0,0,-1,615,603,0,0
-602,421,0,0,0,0,0,0,0,0,0,-1,622,603,0,0
-595,421,0,0,0,0,0,0,0,0,0,-1,629,603,0,0
-588,421,0,0,0,0,0,0,0,0,0,-1,636,603,0,0
-581,421,0,0,0,0,0,0,0,0,0,-1,643,603,0,0
-574,421,0,0,0,0,0,0,0,0,0,-1,650,603,0,0
-567,421,0,0,0,0,0,0,0,0,0,-1,657,603,0,0
-560,421,0,0,0,0,0,0,0,0,0,-1,664,603,0,0
-553,421,0,0,0,0,0,0,0,0,0,-1,671,603,0,0
-546,421,0,0,0,0,0,0,0,0,0,-1,678,603,0,0
-539,421,0,0,0,0,0,0,0,0,0,-1,685,603,0,0
-532,421,-8.97382,6.95636,0,0,0,0,0,0,0,-1,692,603,-8.97384,-6.95634
-525,421,-2.11481,-8.04272,0,0,0,0,0,0,0,-1,699,603,-2.11483,8.0427
-518,421,-3.05908,-5.07233,0,0,0,0,0,0,0,-1,706,603,-3.0591,5.07235
-511,421,-1.7608,-6.12946,0,0,0,0,0,0,0,-1,713,603,-1.76081,6.12944
-504,421,-4.97272,-4.38385,0,0,0,0,0,0,0,-1,720,603,-4.9727,4.38383
-497,421,-3.4472,-0.909241,0,0,0,0,0,0,0,-1,727,603,-3.44719,0.909249
-490,421,-3.65887,-1.53906,-0.00185648,0.0134459,-0.011883,0.0199279,-0.00833847,-1.07143,0.0167706,0.0483735,734,603,-3.65888,1.53904
-483,421,-3.65741,-2.44873,-0.00120332,0.0100633,-0.00949807,0.015473,-0.00661299,-1.05306,0.0130889,0.0411605,741,603,-3.65738,2.4487
-476,421,-3.63501,-2.83832,0,0,0,0,0,0,0,-1,748,603,-3.63501,2.83831
-469,421,-3.46893,-3.11823,-0.000168731,0.00519403,-0.00568266,0.00879615,-0.00377085,-1.00584,0.00744642,0.0181643,755,603,-3.46894,3.1182
-462,421,-3.48608,-3.41217,0.00023466,0.00371892,-0.00438129,0.00669174,-0.00273816,-0.974629,0.00560158,0.018519,762,603,-3.48608,3.41214
-455,421,-3.48334,-3.67743,0.000338179,0.00238254,-0.00311521,0.00463898,-0.00191826,-0.943927,0.00389294,0.0192722,769,603,-3.48335,3.67746
-448,421,-3.50317,-3.95599,0.000275305,0.00138157,-0.00196856,0.00287323,-0.00121636,-0.922358,0.00242486,0.0178086,776,603,-3.50319,3.95599
-441,421,-3.51788,-4.24109,0.000138113,0.000715021,-0.00116949,0.00163111,-0.000777975,-0.906309,0.00141966,0.0134894,783,603,-3.51786,4.2411
-434,421,-3.51727,-4.52454,-0.00022374,-0.000284126,-0.000213669,-3.8142e-05,-0.000469725,-0.715209,0.000301242,0.0101781,790,603,-3.51727,4.52455
-427,421,-3.4906,-4.7782,-0.000637096,-0.000785223,0.000481337,-0.000224157,-0.00119816,0.709061,0.00073553,0.00979644,797,603,-3.49059,4.77821
-420,421,-3.47968,-5.00757,-0.00117111,-0.00144735,0.00101736,-0.000282541,-0.00233592,0.717928,0.00147216,0.010635,804,603,-3.47966,5.00756
-413,421,-3.4856,-5.26172,-0.00179485,-0.00214504,0.00168254,-0.000278314,-0.00366157,0.733551,0.00235377,0.0133093,811,603,-3.48558,5.26171
-406,421,-3.51605,-5.56293,-0.00236068,-0.00294984,0.00221412,-0.000421632,-0.0048889,0.719264,0.00312821,0.0185679,818,603,-3.51605,5.56295
-399,421,-3.48199,-5.86572,-0.00299744,-0.00398727,0.00277686,-0.000671742,-0.00631297,0.69721,0.00400356,0.0182487,825,603,-3.48198,5.86574
-392,421,-3.51709,-6.04822,-0.00372423,-0.00528138,0.00348732,-0.000929636,-0.00807598,0.67557,0.00510242,0.0209701,832,603,-3.51709,6.0482
-385,421,-3.68982,-6.24048,-0.00471043,-0.00688451,0.00433072,-0.0013324,-0.0102625,0.662435,0.00644364,0.041717,839,603,-3.68981,6.24051
-378,421,-3.85852,-6.47174,0,0,0,0,0,0,0,-1,846,603,-3.85853,6.47176
-371,421,-3.86743,-5.33679,0,0,0,0,0,0,0,-1,853,603,-3.86741,5.33679
-364,421,-5.06079,-5.61859,0,0,0,0,0,0,0,-1,860,603,-5.0608,5.61861
-357,421,-5.57581,-5.5918,0,0,0,0,0,0,0,-1,867,603,-5.5758,5.59181
-350,421,-5.38019,-3.75024,0,0,0,0,0,0,0,-1,874,603,-5.38017,3.75026
-343,421,-6.22797,-2.57123,0,0,0,0,0,0,0,-1,881,603,-6.22798,2.57121
-336,421,-6.22882,-2.59369,0,0,0,0,0,0,0,-1,888,603,-6.22883,2.5937
-329,421,-4.50134,-1.49469,0,0,0,0,0,0,0,-1,895,603,-4.50137,1.49468
-322,421,-6.30377,-0.285339,0,0,0,0,0,0,0,-1,902,603,-6.30379,0.285355
-315,421,-4.47821,-1.26733,0,0,0,0,0,0,0,-1,909,603,-4.47824,1.26732
-308,421,0,0,0,0,0,0,0,0,0,-1,916,603,0,0
-301,421,0,0,0,0,0,0,0,0,0,-1,923,603,0,0
-294,421,0,0,0,0,0,0,0,0,0,-1,930,603,0,0
-287,421,0,0,0,0,0,0,0,0,0,-1,937,603,0,0
-280,421,0,0,0,0,0,0,0,0,0,-1,944,603,0,0
-273,421,0,0,0,0,0,0,0,0,0,-1,951,603,0,0
-266,421,0,0,0,0,0,0,0,0,0,-1,958,603,0,0
-259,421,0,0,0,0,0,0,0,0,0,-1,965,603,0,0
-252,421,0,0,0,0,0,0,0,0,0,-1,972,603,0,0
-245,421,0,0,0,0,0,0,0,0,0,-1,979,603,0,0
-238,421,0,0,0,0,0,0,0,0,0,-1,986,603,0,0
-231,421,0,0,0,0,0,0,0,0,0,-1,993,603,0,0
-224,421,0,0,0,0,0,0,0,0,0,-1,1000,603,0,0
-217,421,0,0,0,0,0,0,0,0,0,-1,1007,603,0,0
-210,421,0,0,0,0,0,0,0,0,0,-1,1014,603,0,0
-203,421,0,0,0,0,0,0,0,0,0,-1,1021,603,0,0
-196,421,0,0,0,0,0,0,0,0,0,-1,1028,603,0,0
-189,421,0,0,0,0,0,0,0,0,0,-1,1035,603,0,0
-182,421,0,0,0,0,0,0,0,0,0,-1,1042,603,0,0
-175,421,0,0,0,0,0,0,0,0,0,-1,1049,603,0,0
-168,421,0,0,0,0,0,0,0,0,0,-1,1056,603,0,0
-161,421,0,0,0,0,0,0,0,0,0,-1,1063,603,0,0
-154,421,0,0,0,0,0,0,0,0,0,-1,1070,603,0,0
-147,421,0,0,0,0,0,0,0,0,0,-1,1077,603,0,0
-140,421,0,0,0,0,0,0,0,0,0,-1,1084,603,0,0
-133,421,0,0,0,0,0,0,0,0,0,-1,1091,603,0,0
-126,421,0,0,0,0,0,0,0,0,0,-1,1098,603,0,0
-119,421,0,0,0,0,0,0,0,0,0,-1,1105,603,0,0
-112,421,0,0,0,0,0,0,0,0,0,-1,1112,603,0,0
-105,421,0,0,0,0,0,0,0,0,0,-1,1119,603,0,0
-98,421,0,0,0,0,0,0,0,0,0,-1,1126,603,0,0
-91,421,0,0,0,0,0,0,0,0,0,-1,1133,603,0,0
-84,421,0,0,0,0,0,0,0,0,0,-1,1140,603,0,0
-77,421,0,0,0,0,0,0,0,0,0,-1,1147,603,0,0
-70,421,0,0,0,0,0,0,0,0,0,-1,1154,603,0,0
-63,421,0,0,0,0,0,0,0,0,0,-1,1161,603,0,0
-56,421,0,0,0,0,0,0,0,0,0,-1,1168,603,0,0
-49,421,0,0,0,0,0,0,0,0,0,-1,1175,603,0,0
-42,421,0,0,0,0,0,0,0,0,0,-1,1182,603,0,0
-35,421,0,0,0,0,0,0,0,0,0,-1,1189,603,0,0
-28,421,0,0,0,0,0,0,0,0,0,-1,1196,603,0,0
-21,421,0,0,0,0,0,0,0,0,0,-1,1203,603,0,0
-14,421,0,0,0,0,0,0,0,0,0,-1,1210,603,0,0
-7,421,0,0,0,0,0,0,0,0,0,-1,1217,603,0,0
0,421,0,0,0,0,0,0,0,0,0,-1,1224,603,0,0
7,421,0,0,0,0,0,0,0,0,0,-1,1231,603,0,0
14,421,0,0,0,0,0,0,0,0,0,-1,1238,603,0,0
21,421,0,0,0,0,0,0,0,0,0,-1,1245,603,0,0
28,421,0,0,0,0,0,0,0,0,0,-1,1252,603,0,0
35,421,0,0,0,0,0,0,0,0,0,-1,1259,603,0,0
42,421,0,0,0,0,0,0,0,0,0,-1,1266,603,0,0
49,421,0,0,0,0,0,0,0,0,0,-1,1273,603,0,0
56,421,0,0,0,0,0,0,0,0,0,-1,1280,603,0,0
63,421,0,0,0,0,0,0,0,0,0,-1,1287,603,0,0
70,421,0,0,0,0,0,0,0,0,0,-1,1294,603,0,0
77,421,0,0,0,0,0,0,0,0,0,-1,1301,603,0,0
84,421,0,0,0,0,0,0,0,0,0,-1,1308,603,0,0
91,421,0,0,0,0,0,0,0,0,0,-1,1315,603,0,0
98,421,0,0,0,0,0,0,0,0,0,-1,1322,603,0,0
105,421,0,0,0,0,0,0,0,0,0,-1,1329,603,0,0
112,421,0,0,0,0,0,0,0,0,0,-1,1336,603,0,0
119,421,0,0,0,0,0,0,0,0,0,-1,1343,603,0,0
126,421,0,0,0,0,0,0,0,0,0,-1,1350,603,0,0
133,421,0,0,0,0,0,0,0,0,0,-1,1357,603,0,0
140,421,0,0,0,0,0,0,0,0,0,-1,1364,603,0,0
147,421,0,0,0,0,0,0,0,0,0,-1,1371,603,0,0
154,421,0,0,0,0,0,0,0,0,0,-1,1378,603,0,0
161,421,0,0,0,0,0,0,0,0,0,-1,1385,603,0,0
168,421,0,0,0,0,0,0,0,0,0,-1,1392,603,0,0
175,421,0,0,0,0,0,0,0,0,0,-1,1399,603,0,0
182,421,0,0,0,0,0,0,0,0,0,-1,1406,603,0,0
189,421,0,0,0,0,0,0,0,0,0,-1,1413,603,0,0
196,421,0,0,0,0,0,0,0,0,0,-1,1420,603,0,0
203,421,0,0,0,0,0,0,0,0,0,-1,1427,603,0,0
210,421,0,0,0,0,0,0,0,0,0,-1,1434,603,0,0
217,421,0,0,0,0,0,0,0,0,0,-1,1441,603,0,0
224,421,0,0,0,0,0,0,0,0,0,-1,1448,603,0,0
231,421,0,0,0,0,0,0,0,0,0,-1,1455,603,0,0
238,421,0,0,0,0,0,0,0,0,0,-1,1462,603,0,0
245,421,0,0,0,0,0,0,0,0,0,-1,1469,603,0,0
252,421,0,0,0,0,0,0,0,0,0,-1,1476,603,0,0
259,421,0,0,0,0,0,0,0,0,0,-1,1483,603,0,0
266,421,0,0,0,0,0,0,0,0,0,-1,1490,603,0,0
273,421,0,0,0,0,0,0,0,0,0,-1,1497,603,0,0
280,421,0,0,0,0,0,0,0,0,0,-1,1504,603,0,0
287,421,0,0,0,0,0,0,0,0,0,-1,1511,603,0,0
294,421,0,0,0,0,0,0,0,0,0,-1,1518,603,0,0
301,421,0,0,0,0,0,0,0,0,0,-1,1525,603,0,0
308,421,0,0,0,0,0,0,0,0,0,-1,1532,603,0,0
315,421,0,0,0,0,0,0,0,0,0,-1,1539,603,0,0
322,421,0,0,0,0,0,0,0,0,0,-1,1546,603,0,0
329,421,0,0,0,0,0,0,0,0,0,-1,1553,603,0,0
336,421,0,0,0,0,0,0,0,0,0,-1,1560,603,0,0
343,421,0,0,0,0,0,0,0,0,0,-1,1567,603,0,0
350,421,0,0,0,0,0,0,0,0,0,-1,1574,603,0,0
357,421,0,0,0,0,0,0,0,0,0,-1,1581,603,0,0
364,421,0,0,0,0,0,0,0,0,0,-1,1588,603,0,0
371,421,0,0,0,0,0,0,0,0,0,-1,1595,603,0,0
378,421,0,0,0,0,0,0,0,0,0,-1,1602,603,0,0
385,421,0,0,0,0,0,0,0,0,0,-1,1609,603,0,0
392,421,0,0,0,0,0,0,0,0,0,-1,1616,603,0,0
399,421,0,0,0,0,0,0,0,0,0,-1,1623,603,0,0
406,421,0,0,0,0,0,0,0,0,0,-1,1630,603,0,0
413,421,0,0,0,0,0,0,0,0,0,-1,1637,603,0,0
420,421,0,0,0,0,0,0,0,0,0,-1,1644,603,0,0
427,421,0,0,0,0,0,0,0,0,0,-1,1651,603,0,0
434,421,3.68176,-0.0327759,0,0,0,0,0,0,0,-1,1658,603,3.6818,0.0328037
441,421,8.06689,0.527832,0,0,0,0,0,0,0,-1,1665,603,8.06693,-0.527851
448,421,6.93921,0.802246,0,0,0,0,0,0,0,-1,1672,603,6.93923,-0.802251
455,421,7.29456,2.14825,0,0,0,0,0,0,0,-1,1679,603,7.29461,-2.14827
462,421,7.86902,3.53174,0,0,0,0,0,0,0,-1,1686,603,7.869,-3.53173
469,421,8.06604,2.81213,0,0,0,0,0,0,0,-1,1693,603,8.06606,-2.81212
476,421,8.26306,2.09253,0,0,0,0,0,0,0,-1,1700,603,8.26312,-2.09251
483,421,8.05322,0.798096,0,0,0,0,0,0,0,-1,1707,603,8.05323,-0.7981
490,421,7.51233,0.213074,0,0,0,0,0,0,0,-1,1714,603,7.51235,-0.213043
497,421,7.49634,-2.86688,0,0,0,0,0,0,0,-1,1721,603,7.4963,2.86688
504,421,6.90491,-2.18671,0,0,0,0,0,0,0,-1,1728,603,6.90491,2.18669
511,421,6.31348,-1.50653,0,0,0,0,0,0,0,-1,1735,603,6.31353,1.5065
518,421,6.27588,-2.49878,0,0,0,0,0,0,0,-1,1742,603,6.2759,2.4988
525,421,9.23669,-4.40118,0,0,0,0,0,0,0,-1,1749,603,9.23674,4.40116
532,421,9.35266,-3.98297,0.00349357,0.00300477,0.00265034,0.00591075,0.000587583,0.739421,0.00375998,0.0352025,1756,603,9.35269,3.98296
539,421,9.47815,-3.6828,0.00256926,0.00226521,0.00194612,0.00436929,0.000465184,0.74642,0.00277084,0.020624,1763,603,9.47811,3.68281
546,421,9.4635,-3.41492,0.00184734,0.00169033,0.00135752,0.00312862,0.000409046,0.756515,0.00196365,0.0126503,1770,603,9.4635,3.41493
553,421,9.44604,-3.11627,0.00133631,0.00119409,0.000932215,0.00220013,0.00033028,0.747331,0.00136999,0.0114502,1777,603,9.4461,3.11624
560,421,9.44897,-2.8302,0.000903833,0.000777849,0.000610041,0.00145412,0.000227556,0.733951,0.000903171,0.0143101,1784,603,9.44895,2.83019
567,421,9.45886,-2.56732,0.000633268,0.000458847,0.000434373,0.000989099,0.000103016,0.686329,0.000627884,0.0168936,1791,603,9.4589,2.56734
574,421,9.46472,-2.29358,0.000652788,0.000262555,0.000484356,0.000979851,-6.45076e-05,0.593923,0.000675763,0.0183475,1798,603,9.46475,2.29357
581,421,9.45154,-1.99127,0.000803864,0.000217285,0.000676727,0.00124812,-0.000226974,0.580918,0.00091715,0.0150202,1805,603,9.45148,1.99126
588,421,9.42932,-1.72699,0.0010856,0.00030435,0.00105558,0.00182051,-0.000430562,0.608183,0.00137977,0.0108179,1812,603,9.42938,1.72698
595,421,9.43616,-1.41205,0.00165209,0.000676589,0.00168877,0.00292214,-0.000593456,0.644814,0.00217309,0.0139396,1819,603,9.43618,1.41207
602,421,9.41711,-1.14813,0.00242148,0.00131683,0.00255675,0.00448488,-0.000746571,0.67902,0.00326733,0.014435,1826,603,9.41717,1.14813
609,421,9.34753,-0.863281,0,0,0,0,0,0,0,-1,1833,603,9.34757,0.86329
616,421,9.59692,-0.478699,0,0,0,0,0,0,0,-1,1840,603,9.59691,0.478705
623,421,6.19885,0.376648,0,0,0,0,0,0,0,-1,1847,603,6.19881,-0.376624
630,421,6.54993,0.778748,0,0,0,0,0,0,0,-1,1854,603,6.54991,-0.778744
637,421,3.74512,1.65405,0,0,0,0,0,0,0,-1,1861,603,3.74517,-1.65407
644,421,3.58081,0.354675,0,0,0,0,0,0,0,-1,1868,603,3.58082,-0.354704
651,421,3.28687,3.66351,0,0,0,0,0,0,0,-1,1875,603,3.28688,-3.66353
658,421,0,0,0,0,0,0,0,0,0,-1,1882,603,0,0
665,421,0,0,0,0,0,0,0,0,0,-1,1889,603,0,0
672,421,0,0,0,0,0,0,0,0,0,-1,1896,603,0,0
679,421,0,0,0,0,0,0,0,0,0,-1,1903,603,0,0
686,421,0,0,0,0,0,0,0,0,0,-1,1910,603,0,0
693,421,0,0,0,0,0,0,0,0,0,-1,1917,603,0,0
700,421,0,0,0,0,0,0,0,0,0,-1,1924,603,0,0
707,421,0,0,0,0,0,0,0,0,0,-1,1931,603,0,0
714,421,0,0,0,0,0,0,0,0,0,-1,1938,603,0,0
721,421,0,0,0,0,0,0,0,0,0,-1,1945,603,0,0
728,421,0,0,0,0,0,0,0,0,0,-1,1952,603,0,0
735,421,0,0,0,0,0,0,0,0,0,-1,1959,603,0,0
742,421,0,0,0,0,0,0,0,0,0,-1,1966,603,0,0
749,421,0,0,0,0,0,0,0,0,0,-1,1973,603,0,0
756,421,0,0,0,0,0,0,0,0,0,-1,1980,603,0,0
763,421,0,0,0,0,0,0,0,0,0,-1,1987,603,0,0
770,421,0,0,0,0,0,0,0,0,0,-1,1994,603,0,0
777,421,0,0,0,0,0,0,0,0,0,-1,2001,603,0,0
784,421,0,0,0,0,0,0,0,0,0,-1,2008,603,0,0
791,421,0,0,0,0,0,0,0,0,0,-1,2015,603,0,0
798,421,0,0,0,0,0,0,0,0,0,-1,2022,603,0,0
805,421,0,0,0,0,0,0,0,0,0,-1,2029,603,0,0
812,421,0,0,0,0,0,0,0,0,0,-1,2036,603,0,0
-700,414,0,0,0,0,0,0,0,0,0,-1,524,610,0,0
-693,414,0,0,0,0,0,0,0,0,0,-1,531,610,0,0
-686,414,0,0,0,0,0,0,0,0,0,-1,538,610,0,0
-679,414,0,0,0,0,0,0,0,0,0,-1,545,610,0,0
-672,414,0,0,0,0,0,0,0,0,0,-1,552,610,0,0
-665,414,0,0,0,0,0,0,0,0,0,-1,559,610,0,0
-658,414,0,0,0,0,0,0,0,0,0,-1,566,610,0,0
-651,414,0,0,0,0,0,0,0,0,0,-1,573,610,0,0
-644,414,0,0,0,0,0,0,0,0,0,-1,580,610,0,0
-637,414,0,0,0,0,0,0,0,0,0,-1,587,610,0,0
-630,414,0,0,0,0,0,0,0,0,0,-1,594,610,0,0
-623,414,0,0,0,0,0,0,0,0,0,-1,601,610,0,0
-616,414,0,0,0,0,0,0,0,0,0,-1,608,610,0,0
-609,414,0,0,0,0,0,0,0,0,0,-1,615,610,0,0
-602,414,0,0,0,0,0,0,0,0,0,-1,622,610,0,0
-595,414,0,0,0,0,0,0,0,0,0,-1,629,610,0,0
-588,414,0,0,0,0,0,0,0,0,0,-1,636,610,0,0
-581,414,0,0,0,0,0,0,0,0,0,-1,643,610,0,0
-574,414,0,0,0,0,0,0,0,0,0,-1,650,610,0,0
-567,414,0,0,0,0,0,0,0,0,0,-1,657,610,0,0
-560,414,0,0,0,0,0,0,0,0,0,-1,664,610,0,0
-553,414,0,0,0,0,0,0,0,0,0,-1,671,610,0,0
-546,414,0,0,0,0,0,0,0,0,0,-1,678,610,0,0
-539,414,-7.50146,5.65619,0,0,0,0,0,0,0,-1,685,610,-7.50149,-5.65617
-532,414,-8.15204,4.01605,0,0,0,0,0,0,0,-1,692,610,-8.15206,-4.01606
-525,414,-3.47137,-3.27924,0,0,0,0,0,0,0,-1,699,610,-3.47136,3.27922
-518,414,-3.41998,-4.42413,0,0,0,0,0,0,0,-1,706,610,-3.42001,4.4241
-511,414,-3.36865,-5.56897,0,0,0,0,0,0,0,-1,713,610,-3.36867,5.56899
-504,414,-1.62408,-3.64496,0,0,0,0,0,0,0,-1,720,610,-1.62406,3.64499
-497,414,-3.62604,-1.72443,0,0,0,0,0,0,0,-1,727,610,-3.62602,1.72441
-490,414,-3.65497,-2.08752,-0.00246394,0.0103845,-0.00830597,0.0144608,-0.00654018,-1.11457,0.012409,0.0385464,734,610,-3.65495,2.0875
-483,414,-3.67969,-2.56763,-0.00161489,0.00791243,-0.0068783,0.0115156,-0.00521804,-1.08826,0.00988659,0.0184084,741,610,-3.67967,2.56761
-476,414,-3.75031,-2.88293,-0.000930325,0.00585685,-0.00552789,0.00894971,-0.00402318,-1.06069,0.00766781,0.012293,748,610,-3.75032,2.88293
-469,414,-3.7464,-3.14142,-0.000346729,0.00416247,-0.00431184,0.00677359,-0.00295785,-1.02629,0.00576062,0.0119113,755,610,-3.74637,3.14142
-462,414,-3.7486,-3.4502,6.1193e-05,0.00297987,-0.00335878,0.00518264,-0.00214158,-0.990337,0.00434844,0.0212821,762,610,-3.74858,3.45022
-455,414,-3.75903,-3.70947,0.000172574,0.00181917,-0.00231793,0.00345567,-0.00146393,-0.956042,0.0029169,0.0247989,769,610,-3.75903,3.70948
-448,414,-3.77997,-3.948,0.000142767,0.000900442,-0.00134193,0.00191599,-0.000872776,-0.922972,0.00164721,0.0239852,776,610,-3.78,3.94803
-441,414,-3.77924,-4.2215,-2.20381e-06,0.000303567,-0.000679118,0.000846796,-0.000545433,-0.896114,0.000810056,0.0166246,783,610,-3.77927,4.22147
-434,414,-3.77295,-4.51965,-0.000444719,-0.000601328,0.0001741,-0.000332124,-0.000713922,0.574068,0.000412516,0.00958027,790,610,-3.77293,4.51964
-427,414,-3.76288,-4.77863,-0.000956227,-0.00113686,0.000827052,-0.000214575,-0.00187851,0.731012,0.0011873,0.0100363,797,610,-3.76291,4.77866
-420,414,-3.76422,-5.01752,-0.00162569,-0.00189034,0.00140665,-0.000345158,-0.00317088,0.7385,0.00200877,0.00948034,804,610,-3.76423,5.01752
-413,414,-3.77533,-5.28058,-0.00241843,-0.00268374,0.00212074,-0.000426203,-0.00467597,0.754163,0.0029854,0.0106685,811,610,-3.7753,5.28055
-406,414,-3.763,-5.61761,-0.00322425,-0.0036874,0.00273688,-0.000709163,-0.00620248,0.743192,0.00392004,0.0171983,818,610,-3.76298,5.61762
-399,414,-3.76727,-5.81531,-0.00411727,-0.00495578,0.00339443,-0.0011163,-0.00795675,0.723953,0.00497433,0.0259973,825,610,-3.76725,5.81529
-392,414,-3.81677,-5.9223,-0.00520466,-0.00646847,0.00423225,-0.00155741,-0.0101157,0.711292,0.00628929,0.0313014,832,610,-3.81678,5.92229
-385,414,-3.93762,-6.18378,-0.00662725,-0.00840736,0.00523873,-0.0022035,-0.0128311,0.701252,0.00792238,0.0468304,839,610,-3.93763,6.18375
-378,414,-4.03491,-6.45709,0,0,0,0,0,0,0,-1,846,610,-4.03489,6.45706
-371,414,-4.63513,-5.85254,0,0,0,0,0,0,0,-1,853,610,-4.63515,5.85252
-364,414,-3.46417,-5.16553,0,0,0,0,0,0,0,-1,860,610,-3.4642,5.1655
-357,414,-5.95874,-2.51605,0,0,0,0,0,0,0,-1,867,610,-5.95872,2.51603
-350,414,-6.4502,-2.41821,0,0,0,0,0,0,0,-1,874,610,-6.45021,2.41822
-343,414,-6.80249,-2.32117,0,0,0,0,0,0,0,-1,881,610,-6.80252,2.32116
-336,414,-7.11017,-2.52026,0,0,0,0,0,0,0,-1,888,610,-7.11016,2.52026
-329,414,-7.59747,-2.70313,0,0,0,0,0,0,0,-1,895,610,-7.59747,2.70315
-322,414,-4.42236,-1.29163,0,0,0,0,0,0,0,-1,902,610,-4.42238,1.2916
-315,414,0,0,0,0,0,0,0,0,0,-1,909,610,0,0
-308,414,0,0,0,0,0,0,0,0,0,-1,916,610,0,0
-301,414,0,0,0,0,0,0,0,0,0,-1,923,610,0,0
-294,414,0,0,0,0,0,0,0,0,0,-1,930,610,0,0
-287,414,0,0,0,0,0,0,0,0,0,-1,937,610,0,0
-280,414,0,0,0,0,0,0,0,0,0,-1,944,610,0,0
-273,414,0,0,0,0,0,0,0,0,0,-1,951,610,0,0
-266,414,0,0,0,0,0,0,0,0,0,-1,958,610,0,0
-259,414,0,0,0,0,0,0,0,0,0,-1,965,610,0,0
-252,414,0,0,0,0,0,0,0,0,0,-1,972,610,0,0
-245,414,0,0,0,0,0,0,0,0,0,-1,979,610,0,0
-238,414,0,0,0,0,0,0,0,0,0,-1,986,610,0,0
-231,414,0,0,0,0,0,0,0,0,0,-1,993,610,0,0
-224,414,0,0,0,0,0,0,0,0,0,-1,1000,610,0,0
-217,414,0,0,0,0,0,0,0,0,0,-1,1007,610,0,0
-210,414,0,0,0,0,0,0,0,0,0,-1,1014,610,0,0
-203,414,0,0,0,0,0,0,0,0,0,-1,1021,610,0,0
-196,414,0,0,0,0,0,0,0,0,0,-1,1028,610,0,0
-189,414,0,0,0,0,0,0,0,0,0,-1,1035,610,0,0
-182,414,0,0,0,0,0,0,0,0,0,-1,1042,610,0,0
-175,414,0,0,0,0,0,0,0,0,0,-1,1049,610,0,0
-168,414,0,0,0,0,0,0,0,0,0,-1,1056,610,0,0
-161,414,0,0,0,0,0,0,0,0,0,-1,1063,610,0,0
-154,414,0,0,0,0,0,0,0,0,0,-1,1070,610,0,0
-147,414,0,0,0,0,0,0,0,0,0,-1,1077,610,0,0
-140,414,0,0,0,0,0,0,0,0,0,-1,1084,610,0,0
-133,414,0,0,0,0,0,0,0,0,0,-1,1091,610,0,0
-126,414,0,0,0,0,0,0,0,0,0,-1,1098,610,0,0
-119,414,0,0,0,0,0,0,0,0,0,-1,1105,610,0,0
-112,414,0,0,0,0,0,0,0,0,0,-1,1112,610,0,0
-105,414,0,0,0,0,0,0,0,0,0,-1,1119,610,0,0
-98,414,0,0,0,0,0,0,0,0,0,-1,1126,610,0,0
-91,414,0,0,0,0,0,0,0,0,0,-1,1133,610,0,0
-84,414,0,0,0,0,0,0,0,0,0,-1,1140,610,0,0
-77,414,0,0,0,0,0,0,0,0,0,-1,1147,610,0,0
-70,414,0,0,0,0,0,0,0,0,0,-1,1154,610,0,0
-63,414,0,0,0,0,0,0,0,0,0,-1,1161,610,0,0
-56,414,0,0,0,0,0,0,0,0,0,-1,1168,610,0,0
-49,414,0,0,0,0,0,0,0,0,0,-1,1175,610,0,0
-42,414,0,0,0,0,0,0,0,0,0,-1,1182,610,0,0
-35,414,0,0,0,0,0,0,0,0,0,-1,1189,610,0,0
-28,414,0,0,0,0,0,0,0,0,0,-1,1196,610,0,0
-21,414,0,0,0,0,0,0,0,0,0,-1,1203,610,0,0
-14,414,0,0,0,0,0,0,0,0,0,-1,1210,610,0,0
-7,414,0,0,0,0,0,0,0,0,0,-1,1217,610,0,0
0,414,0,0,0,0,0,0,0,0,0,-1,1224,610,0,0
7,414,0,0,0,0,0,0,0,0,0,-1,1231,610,0,0
14,414,0,0,0,0,0,0,0,0,0,-1,1238,610,0,0
21,414,0,0,0,0,0,0,0,0,0,-1,1245,610,0,0
28,414,0,0,0,0,0,0,0,0,0,-1,1252,610,0,0
35,414,0,0,0,0,0,0,0,0,0,-1,1259,610,0,0
42,414,0,0,0,0,0,0,0,0,0,-1,1266,610,0,0
49,414,0,0,0,0,0,0,0,0,0,-1,1273,610,0,0
56,414,0,0,0,0,0,0,0,0,0,-1,1280,610,0,0
63,414,0,0,0,0,0,0,0,0,0,-1,1287,610,0,0
70,414,0,0,0,0,0,0,0,0,0,-1,1294,610,0,0
77,414,0,0,0,0,0,0,0,0,0,-1,1301,610,0,0
84,414,0,0,0,0,0,0,0,0,0,-1,1308,610,0,0
91,414,0,0,0,0,0,0,0,0,0,-1,1315,610,0,0
98,414,0,0,0,0,0,0,0,0,0,-1,1322,610,0,0
105,414,0,0,0,0,0,0,0,0,0,-1,1329,610,0,0
112,414,0,0,0,0,0,0,0,0,0,-1,1336,610,0,0
119,414,0,0,0,0,0,0,0,0,0,-1,1343,610,0,0
126,414,0,0,0,0,0,0,0,0,0,-1,1350,610,0,0
133,414,0,0,0,0,0,0,0,0,0,-1,1357,610,0,0
140,414,0,0,0,0,0,0,0,0,0,-1,1364,610,0,0
147,414,0,0,0,0,0,0,0,0,0,-1,1371,610,0,0
154,414,0,0,0,0,0,0,0,0,0,-1,1378,610,0,0
161,414,0,0,0,0,0,0,0,0,0,-1,1385,610,0,0
168,414,0,0,0,0,0,0,0,0,0,-1,1392,610,0,0
175,414,0,0,0,0,0,0,0,0,0,-1,1399,610,0,0
182,414,0,0,0,0,0,0,0,0,0,-1,1406,610,0,0
189,414,0,0,0,0,0,0,0,0,0,-1,1413,610,0,0
196,414,0,0,0,0,0,0,0,0,0,-1,1420,610,0,0
203,414,0,0,0,0,0,0,0,0,0,-1,1427,610,0,0
210,414,0,0,0,0,0,0,0,0,0,-1,1434,610,0,0
217,414,0,0,0,0,0,0,0,0,0,-1,1441,610,0,0
224,414,0,0,0,0,0,0,0,0,0,-1,1448,610,0,0
231,414,0,0,0,0,0,0,0,0,0,-1,1455,610,0,0
238,414,0,0,0,0,0,0,0,0,0,-1,1462,610,0,0
245,414,0,0,0,0,0,0,0,0,0,-1,1469,610,0,0
252,414,0,0,0,0,0,0,0,0,0,-1,1476,610,0,0
259,414,0,0,0,0,0,0,0,0,0,-1,1483,610,0,0
266,414,0,0,0,0,0,0,0,0,0,-1,1490,610,0,0
273,414,0,0,0,0,0,0,0,0,0,-1,1497,610,0,0
280,414,0,0,0,0,0,0,0,0,0,-1,1504,610,0,0
287,414,0,0,0,0,0,0,0,0,0,-1,1511,610,0,0
294,414,0,0,0,0,0,0,0,0,0,-1,1518,610,0,0
301,414,0,0,0,0,0,0,0,0,0,-1,1525,610,0,0
308,414,0,0,0,0,0,0,0,0,0,-1,1532,610,0,0
315,414,0,0,0,0,0,0,0,0,0,-1,1539,610,0,0
322,414,0,0,0,0,0,0,0,0,0,-1,1546,610,0,0
329,414,0,0,0,0,0,0,0,0,0,-1,1553,610,0,0
336,414,0,0,0,0,0,0,0,0,0,-1,1560,610,0,0
343,414,0,0,0,0,0,0,0,0,0,-1,1567,610,0,0
350,414,0,0,0,0,0,0,0,0,0,-1,1574,610,0,0
357,414,0,0,0,0,0,0,0,0,0,-1,1581,610,0,0
364,414,0,0,0,0,0,0,0,0,0,-1,1588,610,0,0
371,414,0,0,0,0,0,0,0,0,0,-1,1595,610,0,0
378,414,0,0,0,0,0,0,0,0,0,-1,1602,610,0,0
385,414,0,0,0,0,0,0,0,0,0,-1,1609,610,0,0
392,414,0,0,0,0,0,0,0,0,0,-1,1616,610,0,0
399,414,0,0,0,0,0,0,0,0,0,-1,1623,610,0,0
406,414,0,0,0,0,0,0,0,0,0,-1,1630,610,0,0
413,414,0,0,0,0,0,0,0,0,0,-1,1637,610,0,0
420,414,0,0,0,0,0,0,0,0,0,-1,1644,610,0,0
427,414,0,0,0,0,0,0,0,0,0,-1,1651,610,0,0
434,414,0,0,0,0,0,0,0,0,0,-1,1658,610,0,0
441,414,7.84375,0.584412,0,0,0,0,0,0,0,-1,1665,610,7.84379,-0.584394
448,414,7.40808,1.25446,0,0,0,0,0,0,0,-1,1672,610,7.40807,-1.25446
455,414,6.3512,1.73846,0,0,0,0,0,0,0,-1,1679,610,6.3512,-1.73847
462,414,8.18103,3.22113,0,0,0,0,0,0,0,-1,1686,610,8.18108,-3.22112
469,414,8.38513,2.49579,0,0,0,0,0,0,0,-1,1693,610,8.38516,-2.49576
476,414,8.64099,1.71161,0,0,0,0,0,0,0,-1,1700,610,8.64097,-1.71164
483,414,8.62744,0.687622,0,0,0,0,0,0,0,-1,1707,610,8.62749,-0.687615
490,414,8.38831,-0.0302734,0,0,0,0,0,0,0,-1,1714,610,8.38835,0.0302913
497,414,4.71094,-0.110046,0,0,0,0,0,0,0,-1,1721,610,4.71089,0.110024
504,414,7.19568,-1.43835,0,0,0,0,0,0,0,-1,1728,610,7.19563,1.43836
511,414,5.94153,-1.28772,0,0,0,0,0,0,0,-1,1735,610,5.94151,1.28769
518,414,4.53381,-0.0996704,0,0,0,0,0,0,0,-1,1742,610,4.53378,0.0996819
525,414,6.18811,-1.64056,0,0,0,0,0,0,0,-1,1749,610,6.18814,1.64055
532,414,9.56067,-4.2442,0,0,0,0,0,0,0,-1,1756,610,9.56066,4.2442
539,414,9.68518,-3.79071,0.00249717,0.003143,0.00229023,0.00513296,0.000507199,0.855435,0.00326606,0.042844,1763,610,9.68513,3.79073
546,414,9.72302,-3.41791,0.0017142,0.00243301,0.00156336,0.00367774,0.000469465,0.898382,0.00231129,0.0134643,1770,610,9.72297,3.4179
553,414,9.73218,-3.14783,0.00120278,0.00182134,0.00105411,0.0026106,0.000413518,0.928097,0.00162025,0.0123666,1777,610,9.73213,3.14784
560,414,9.72742,-2.85101,0.000789463,0.00130652,0.000681631,0.001777,0.00031898,0.966657,0.00109396,0.0141861,1784,610,9.72738,2.85103
567,414,9.7395,-2.53625,0.000544186,0.000893317,0.00046627,0.00121663,0.000220875,0.964515,0.000748404,0.0230955,1791,610,9.73946,2.53626
574,414,9.73694,-2.26385,0.000603664,0.00063232,0.000491066,0.00110927,0.000126717,0.799983,0.0007011,0.0209639,1798,610,9.73692,2.26385
581,414,9.75317,-1.97394,0.000811411,0.000544195,0.000664623,0.00135572,-1.16008e-07,0.686206,0.000903853,0.0157486,1805,610,9.75316,1.97394
588,414,9.73132,-1.71997,0.00113641,0.000605679,0.00101517,0.00192032,-0.000178235,0.657559,0.00134357,0.0153181,1812,610,9.73129,1.71998
595,414,9.72852,-1.3999,0.00175563,0.000944977,0.00159662,0.00299757,-0.000296965,0.661091,0.00210437,0.0212169,1819,610,9.72855,1.39988
602,414,9.73157,-1.10822,0.00253543,0.00154487,0.00237004,0.00446139,-0.000381087,0.682392,0.00310908,0.0227051,1826,610,9.73152,1.10824
609,414,9.70386,-0.850037,0,0,0,0,0,0,0,-1,1833,610,9.70388,0.850064
616,414,9.96375,-0.357178,0,0,0,0,0,0,0,-1,1840,610,9.96374,0.357169
623,414,9.6969,0.0378418,0,0,0,0,0,0,0,-1,1847,610,9.69685,-0.0378644
630,414,5.47144,0.499329,0,0,0,0,0,0,0,-1,1854,610,5.47142,-0.499303
637,414,6.57898,2.38019,0,0,0,0,0,0,0,-1,1861,610,6.579,-2.38019
644,414,5.87073,1.51422,0,0,0,0,0,0,0,-1,1868,610,5.87076,-1.51424
651,414,3.6377,0.820557,0,0,0,0,0,0,0,-1,1875,610,3.6377,-0.820543
658,414,2.29761,3.87323,0,0,0,0,0,0,0,-1,1882,610,2.29758,-3.87325
665,414,0,0,0,0,0,0,0,0,0,-1,1889,610,0,0
672,414,0,0,0,0,0,0,0,0,0,-1,1896,610,0,0
679,414,0,0,0,0,0,0,0,0,0,-1,1903,610,0,0
686,414,0,0,0,0,0,0,0,0,0,-1,1910,610,0,0
693,414,0,0,0,0,0,0,0,0,0,-1,1917,610,0,0
700,414,0,0,0,0,0,0,0,0,0,-1,1924,610,0,0
707,414,0,0,0,0,0,0,0,0,0,-1,1931,610,0,0
714,414,0,0,0,0,0,0,0,0,0,-1,1938,610,0,0
721,414,0,0,0,0,0,0,0,0,0,-1,1945,610,0,0
728,414,0,0,0,0,0,0,0,0,0,-1,1952,610,0,0
735,414,0,0,0,0,0,0,0,0,0,-1,1959,610,0,0
742,414,0,0,0,0,0,0,0,0,0,-1,1966,610,0,0
749,414,0,0,0,0,0,0,0,0,0,-1,1973,610,0,0
756,414,0,0,0,0,0,0,0,0,0,-1,1980,610,0,0
763,414,0,0,0,0,0,0,0,0,0,-1,1987,610,0,0
770,414,0,0,0,0,0,0,0,0,0,-1,1994,610,0,0
777,414,0,0,0,0,0,0,0,0,0,-1,2001,610,0,0
784,414,0,0,0,0,0,0,0,0,0,-1,2008,610,0,0
791,414,0,0,0,0,0,0,0,0,0,-1,2015,610,0,0
798,414,0,0,0,0,0,0,0,0,0,-1,2022,610,0,0
805,414,0,0,0,0,0,0,0,0,0,-1,2029,610,0,0
812,414,0,0,0,0,0,0,0,0,0,-1,2036,610,0,0
-700,407,0,0,0,0,0,0,0,0,0,-1,524,617,0,0
-693,407,0,0,0,0,0,0,0,0,0,-1,531,617,0,0
-686,407,0,0,0,0,0,0,0,0,0,-1,538,617,0,0
-679,407,0,0,0,0,0,0,0,0,0,-1,545,617,0,0
-672,407,0,0,0,0,0,0,0,0,0,-1,552,617,0,0
-665,407,0,0,0,0,0,0,0,0,0,-1,559,617,0,0
-658,407,0,0,0,0,0,0,0,0,0,-1,566,617,0,0
-651,407,0,0,0,0,0,0,0,0,0,-1,573,617,0,0
-644,407,0,0,0,0,0,0,0,0,0,-1,580,617,0,0
-637,407,0,0,0,0,0,0,0,0,0,-1,587,617,0,0
-630,407,0,0,0,0,0,0,0,0,0,-1,594,617,0,0
-623,407,0,0,0,0,0,0,0,0,0,-1,601,617,0,0
-616,407,0,0,0,0,0,0,0,0,0,-1,608,617,0,0
-609,407,0,0,0,0,0,0,0,0,0,-1,615,617,0,0
-602,407,0,0,0,0,0,0,0,0,0,-1,622,617,0,0
-595,407,0,0,0,0,0,0,0,0,0,-1,629,617,0,0
-588,407,0,0,0,0,0,0,0,0,0,-1,636,617,0,0
-581,407,0,0,0,0,0,0,0,0,0,-1,643,617,0,0
-574,407,0,0,0,0,0,0,0,0,0,-1,650,617,0,0
-567,407,0,0,0,0,0,0,0,0,0,-1,657,617,0,0
-560,407,0,0,0,0,0,0,0,0,0,-1,664,617,0,0
-553,407,0,0,0,0,0,0,0,0,0,-1,671,617,0,0
-546,407,-8.54517,-0.658142,0,0,0,0,0,0,0,-1,678,617,-8.54515,0.658112
-539,407,-6.09442,-1.01154,0,0,0,0,0,0,0,-1,685,617,-6.09441,1.01155
-532,407,-7.75665,1.62152,0,0,0,0,0,0,0,-1,692,617,-7.75667,-1.62154
-525,407,-3.78247,-2.67639,0,0,0,0,0,0,0,-1,699,617,-3.78246,2.67638
-518,407,-3.80524,-3.78967,0,0,0,0,0,0,0,-1,706,617,-3.80525,3.78968
-511,407,-3.82806,-4.90302,0,0,0,0,0,0,0,-1,713,617,-3.82805,4.90299
-504,407,-3.90216,-2.06213,0,0,0,0,0,0,0,-1,720,617,-3.90218,2.06213
-497,407,-3.88568,-2.21716,-0.00315567,0.00977482,-0.00653547,0.0125026,-0.00588345,-1.1754,0.0108421,0.0452476,727,617,-3.88566,2.21719
-490,407,-3.96191,-2.34393,-0.00228011,0.00775285,-0.00565789,0.0102979,-0.00482516,-1.14809,0.00891984,0.0217956,734,617,-3.9619,2.34393
-483,407,-3.98138,-2.58539,-0.00153066,0.0060188,-0.00483134,0.00837518,-0.00388703,-1.11702,0.00723594,0.0129945,741,617,-3.98136,2.58537
-476,407,-4.00446,-2.84479,-0.000947211,0.00452525,-0.00393954,0.00658557,-0.00300753,-1.08893,0.00566554,0.0104868,748,617,-4.00447,2.84477
-469,407,-4.00275,-3.11938,-0.000385293,0.00325706,-0.00315368,0.00507764,-0.00220587,-1.04724,0.00431272,0.0121748,755,617,-4.00277,3.11937
-462,407,-4.01764,-3.42145,-9.0446e-06,0.00232789,-0.0024834,0.00390398,-0.00158514,-1.00529,0.00326204,0.0198906,762,617,-4.01762,3.42147
-455,407,-4.02704,-3.71161,8.18655e-05,0.00133818,-0.00162394,0.00245122,-0.00103118,-0.96994,0.00206553,0.0214121,769,617,-4.02704,3.71158
-448,407,-4.01398,-3.94489,5.5697e-05,0.000508341,-0.000798167,0.00111165,-0.000547614,-0.923548,0.000976254,0.0180284,776,617,-4.01398,3.94488
-441,407,-4.03381,-4.19147,-0.000119483,-2.47784e-05,-0.000247875,0.000180227,-0.000324488,-0.879777,0.000295339,0.0136807,783,617,-4.03384,4.19145
-434,407,-4.04541,-4.47461,-0.00066139,-0.000795569,0.000494445,-0.000229504,-0.00122745,0.717967,0.000753543,0.010278,790,617,-4.0454,4.47462
-427,407,-4.0296,-4.75317,-0.00130015,-0.00137037,0.00109843,-0.000236267,-0.00243425,0.769423,0.00155009,0.0105709,797,617,-4.02959,4.7532
-420,407,-4.01642,-5.01447,-0.0021412,-0.00223691,0.00173792,-0.000450471,-0.00392764,0.771635,0.00248193,0.00955474,804,617,-4.0164,5.01444
-413,407,-4.01074,-5.2738,-0.00315262,-0.00316078,0.00251929,-0.000637407,-0.00567599,0.784589,0.00359043,0.0111303,811,617,-4.01071,5.27379
-406,407,-4.0423,-5.47009,-0.00428069,-0.00443726,0.00325817,-0.00109987,-0.00761808,0.773387,0.00475469,0.0235025,818,617,-4.04231,5.47012
-399,407,-3.98975,-5.58832,-0.00553992,-0.00602886,0.00405794,-0.0017191,-0.00984969,0.755312,0.00607506,0.0397065,825,617,-3.98974,5.5883
-392,407,-3.75146,-6.02692,-0.00709295,-0.007833,0.00507483,-0.00237467,-0.0125513,0.749006,0.00769902,0.0462959,832,617,-3.75145,6.0269
-385,407,-4.16937,-6.14117,0,0,0,0,0,0,0,-1,839,617,-4.16938,6.14115
-378,407,-5.32245,-5.33594,0,0,0,0,0,0,0,-1,846,617,-5.32247,5.33596
-371,407,-4.4549,-5.58197,0,0,0,0,0,0,0,-1,853,617,-4.45492,5.58199
-364,407,-6.26666,-1.91302,0,0,0,0,0,0,0,-1,860,617,-6.26669,1.91305
-357,407,-6.64447,-1.83337,0,0,0,0,0,0,0,-1,867,617,-6.64446,1.8334
-350,407,-7.03351,-1.77551,0,0,0,0,0,0,0,-1,874,617,-7.03349,1.77551
-343,407,-7.40967,-1.95026,0,0,0,0,0,0,0,-1,881,617,-7.40969,1.95026
-336,407,-8.10229,-2.40662,0,0,0,0,0,0,0,-1,888,617,-8.10229,2.40664
-329,407,-8.81232,-2.76331,0,0,0,0,0,0,0,-1,895,617,-8.81235,2.76331
-322,407,0,0,0,0,0,0,0,0,0,-1,902,617,0,0
-315,407,0,0,0,0,0,0,0,0,0,-1,909,617,0,0
-308,407,0,0,0,0,0,0,0,0,0,-1,916,617,0,0
-301,407,0,0,0,0,0,0,0,0,0,-1,923,617,0,0
-294,407,0,0,0,0,0,0,0,0,0,-1,930,617,0,0
-287,407,0,0,0,0,0,0,0,0,0,-1,937,617,0,0
-280,407,0,0,0,0,0,0,0,0,0,-1,944,617,0,0
-273,407,0,0,0,0,0,0,0,0,0,-1,951,617,0,0
-266,407,0,0,0,0,0,0,0,0,0,-1,958,617,0,0
-259,407,0,0,0,0,0,0,0,0,0,-1,965,617,0,0
-252,407,0,0,0,0,0,0,0,0,0,-1,972,617,0,0
-245,407,0,0,0,0,0,0,0,0,0,-1,979,617,0,0
-238,407,0,0,0,0,0,0,0,0,0,-1,986,617,0,0
-231,407,0,0,0,0,0,0,0,0,0,-1,993,617,0,0
-224,407,0,0,0,0,0,0,0,0,0,-1,1000,617,0,0
-217,407,0,0,0,0,0,0,0,0,0,-1,1007,617,0,0
-210,407,0,0,0,0,0,0,0,0,0,-1,1014,617,0,0
-203,407,0,0,0,0,0,0,0,0,0,-1,1021,617,0,0
-196,407,0,0,0,0,0,0,0,0,0,-1,1028,617,0,0
-189,407,0,0,0,0,0,0,0,0,0,-1,1035,617,0,0
-182,407,0,0,0,0,0,0,0,0,0,-1,1042,617,0,0
-175,407,0,0,0,0,0,0,0,0,0,-1,1049,617,0,0
-168,407,0,0,0,0,0,0,0,0,0,-1,1056,617,0,0
-161,407,0,0,0,0,0,0,0,0,0,-1,1063,617,0,0
-154,407,0,0,0,0,0,0,0,0,0,-1,1070,617,0,0
-147,407,0,0,0,0,0,0,0,0,0,-1,1077,617,0,0
-140,407,0,0,0,0,0,0,0,0,0,-1,1084,617,0,0
-133,407,0,0,0,0,0,0,0,0,0,-1,1091,617,0,0
-126,407,0,0,0,0,0,0,0,0,0,-1,1098,617,0,0
-119,407,0,0,0,0,0,0,0,0,0,-1,1105,617,0,0
-112,407,0,0,0,0,0,0,0,0,0,-1,1112,617,0,0
-105,407,0,0,0,0,0,0,0,0,0,-1,1119,617,0,0
-98,407,0,0,0,0,0,0,0,0,0,-1,1126,617,0,0
-91,407,0,0,0,0,0,0,0,0,0,-1,1133,617,0,0
-84,407,0,0,0,0,0,0,0,0,0,-1,1140,617,0,0
-77,407,0,0,0,0,0,0,0,0,0,-1,1147,617,0,0
-70,407,0,0,0,0,0,0,0,0,0,-1,1154,617,0,0
-63,407,0,0,0,0,0,0,0,0,0,-1,1161,617,0,0
-56,407,0,0,0,0,0,0,0,0,0,-1,1168,617,0,0
-49,407,0,0,0,0,0,0,0,0,0,-1,1175,617,0,0
-42,407,0,0,0,0,0,0,0,0,0,-1,1182,617,0,0
-35,407,0,0,0,0,0,0,0,0,0,-1,1189,617,0,0
-28,407,0,0,0,0,0,0,0,0,0,-1,1196,617,0,0
-21,407,0,0,0,0,0,0,0,0,0,-1,1203,617,0,0
-14,407,0,0,0,0,0,0,0,0,0,-1,1210,617,0,0
-7,407,0,0,0,0,0,0,0,0,0,-1,1217,617,0,0
0,407,0,0,0,0,0,0,0,0,0,-1,1224,617,0,0
7,407,0,0,0,0,0,0,0,0,0,-1,1231,617,0,0
14,407,0,0,0,0,0,0,0,0,0,-1,1238,617,0,0
21,407,0,0,0,0,0,0,0,0,0,-1,1245,617,0,0
28,407,0,0,0,0,0,0,0,0,0,-1,1252,617,0,0
35,407,0,0,0,0,0,0,0,0,0,-1,1259,617,0,0
42,407,0,0,0,0,0,0,0,0,0,-1,1266,617,0,0
49,407,0,0,0,0,0,0,0,0,0,-1,1273,617,0,0
56,407,0,0,0,0,0,0,0,0,0,-1,1280,617,0,0
63,407,0,0,0,0,0,0,0,0,0,-1,1287,617,0,0
70,407,0,0,0,0,0,0,0,0,0,-1,1294,617,0,0
77,407,0,0,0,0,0,0,0,0,0,-1,1301,617,0,0
84,407,0,0,0,0,0,0,0,0,0,-1,1308,617,0,0
91,407,0,0,0,0,0,0,0,0,0,-1,1315,617,0,0
98,407,0,0,0,0,0,0,0,0,0,-1,1322,617,0,0
105,407,0,0,0,0,0,0,0,0,0,-1,1329,617,0,0
112,407,0,0,0,0,0,0,0,0,0,-1,1336,617,0,0
119,407,0,0,0,0,0,0,0,0,0,-1,1343,617,0,0
126,407,0,0,0,0,0,0,0,0,0,-1,1350,617,0,0
133,407,0,0,0,0,0,0,0,0,0,-1,1357,617,0,0
140,407,0,0,0,0,0,0,0,0,0,-1,1364,617,0,0
147,407,0,0,0,0,0,0,0,0,0,-1,1371,617,0,0
154,407,0,0,0,0,0,0,0,0,0,-1,1378,617,0,0
161,407,0,0,0,0,0,0,0,0,0,-1,1385,617,0,0
168,407,0,0,0,0,0,0,0,0,0,-1,1392,617,0,0
175,407,0,0,0,0,0,0,0,0,0,-1,1399,617,0,0
182,407,0,0,0,0,0,0,0,0,0,-1,1406,617,0,0
189,407,0,0,0,0,0,0,0,0,0,-1,1413,617,0,0
196,407,0,0,0,0,0,0,0,0,0,-1,1420,617,0,0
203,407,0,0,0,0,0,0,0,0,0,-1,1427,617,0,0
210,407,0,0,0,0,0,0,0,0,0,-1,1434,617,0,0
217,407,0,0,0,0,0,0,0,0,0,-1,1441,617,0,0
224,407,0,0,0,0,0,0,0,0,0,-1,1448,617,0,0
231,407,0,0,0,0,0,0,0,0,0,-1,1455,617,0,0
238,407,0,0,0,0,0,0,0,0,0,-1,1462,617,0,0
245,407,0,0,0,0,0,0,0,0,0,-1,1469,617,0,0
252,407,0,0,0,0,0,0,0,0,0,-1,1476,617,0,0
259,407,0,0,0,0,0,0,0,0,0,-1,1483,617,0,0
266,407,0,0,0,0,0,0,0,0,0,-1,1490,617,0,0
273,407,0,0,0,0,0,0,0,0,0,-1,1497,617,0,0
280,407,0,0,0,0,0,0,0,0,0,-1,1504,617,0,0
287,407,0,0,0,0,0,0,0,0,0,-1,1511,617,0,0
294,407,0,0,0,0,0,0,0,0,0,-1,1518,617,0,0
301,407,0,0,0,0,0,0,0,0,0,-1,1525,617,0,0
308,407,0,0,0,0,0,0,0,0,0,-1,1532,617,0,0
315,407,0,0,0,0,0,0,0,0,0,-1,1539,617,0,0
322,407,0,0,0,0,0,0,0,0,0,-1,1546,617,0,0
329,407,0,0,0,0,0,0,0,0,0,-1,1553,617,0,0
336,407,0,0,0,0,0,0,0,0,0,-1,1560,617,0,0
343,407,0,0,0,0,0,0,0,0,0,-1,1567,617,0,0
350,407,0,0,0,0,0,0,0,0,0,-1,1574,617,0,0
357,407,0,0,0,0,0,0,0,0,0,-1,1581,617,0,0
364,407,0,0,0,0,0,0,0,0,0,-1,1588,617,0,0
371,407,0,0,0,0,0,0,0,0,0,-1,1595,617,0,0
378,407,0,0,0,0,0,0,0,0,0,-1,1602,617,0,0
385,407,0,0,0,0,0,0,0,0,0,-1,1609,617,0,0
392,407,0,0,0,0,0,0,0,0,0,-1,1616,617,0,0
399,407,0,0,0,0,0,0,0,0,0,-1,1623,617,0,0
406,407,0,0,0,0,0,0,0,0,0,-1,1630,617,0,0
413,407,0,0,0,0,0,0,0,0,0,-1,1637,617,0,0
420,407,0,0,0,0,0,0,0,0,0,-1,1644,617,0,0
427,407,0,0,0,0,0,0,0,0,0,-1,1651,617,0,0
434,407,0,0,0,0,0,0,0,0,0,-1,1658,617,0,0
441,407,0,0,0,0,0,0,0,0,0,-1,1665,617,0,0
448,407,7.02893,2.13843,0,0,0,0,0,0,0,-1,1672,617,7.02899,-2.13844
455,407,7.55237,2.29242,0,0,0,0,0,0,0,-1,1679,617,7.55236,-2.29244
462,407,8.2926,2.46173,0,0,0,0,0,0,0,-1,1686,617,8.29261,-2.46174
469,407,8.71509,2.22681,0,0,0,0,0,0,0,-1,1693,617,8.71511,-2.22681
476,407,8.89917,1.47766,0,0,0,0,0,0,0,-1,1700,617,8.89914,-1.47768
483,407,9.02612,0.682983,0,0,0,0,0,0,0,-1,1707,617,9.02608,-0.683004
490,407,9.12659,0.000671387,0,0,0,0,0,0,0,-1,1714,617,9.12653,-0.000675931
497,407,7.76819,0.855835,0,0,0,0,0,0,0,-1,1721,617,7.7682,-0.855865
504,407,4.69336,0.160706,0,0,0,0,0,0,0,-1,1728,617,4.69337,-0.1607
511,407,4.07104,-0.00140381,0,0,0,0,0,0,0,-1,1735,617,4.07109,0.00141425
518,407,6.09534,1.9411,0,0,0,0,0,0,0,-1,1742,617,6.09532,-1.94113
525,407,5.72534,-1.35986,0,0,0,0,0,0,0,-1,1749,617,5.72529,1.35988
532,407,7.31763,-2.34937,0,0,0,0,0,0,0,-1,1756,617,7.31766,2.34937
539,407,9.92896,-3.69257,0,0,0,0,0,0,0,-1,1763,617,9.929,3.69256
546,407,10.004,-3.40686,0.00134622,0.00313539,0.00168938,0.00415243,0.00032918,1.0289,0.00266534,0.0157429,1770,617,10.0041,3.40689
553,407,10.005,-3.14215,0.000874514,0.00235403,0.00108617,0.00292843,0.000300115,1.08435,0.00186034,0.0143337,1777,617,10.005,3.14212
560,407,10.0208,-2.83777,0.000502061,0.00170623,0.000657194,0.00199544,0.000212849,1.15623,0.00126533,0.0151034,1784,617,10.0208,2.83774
567,407,9.98914,-2.57794,0.000293004,0.00117661,0.000398839,0.00133001,0.000139607,1.20363,0.000843994,0.0274388,1791,617,9.98918,2.57794
574,407,10.0081,-2.27924,0.000388898,0.000847698,0.0003948,0.00107491,0.00016169,1.04858,0.00066925,0.0248397,1798,617,10.008,2.27921
581,407,10.0293,-1.96143,0.000651113,0.000736071,0.000558208,0.00125341,0.00013377,0.823374,0.000794781,0.0168223,1805,617,10.0292,1.9614
588,407,10.0066,-1.6936,0.00102257,0.000809138,0.000898043,0.00182022,1.14942e-05,0.726259,0.00120966,0.0119933,1812,617,10.0066,1.69358
595,407,10.0275,-1.41577,0.00168266,0.00115763,0.00145165,0.00289534,-5.50452e-05,0.695945,0.00194883,0.0228141,1819,617,10.0274,1.41577
602,407,10.0156,-1.10614,0.00245858,0.00176442,0.00218272,0.00432164,-9.86469e-05,0.706552,0.00291453,0.019001,1826,617,10.0157,1.10614
609,407,9.98767,-0.812683,0.00313487,0.00236945,0.00293902,0.00571599,-0.000211668,0.720654,0.00388314,0.0166428,1833,617,9.98764,0.812671
616,407,10.0437,-0.402893,0.00377733,0.00360274,0.00393567,0.00762668,-0.000246605,0.77431,0.00516861,0.0277118,1840,617,10.0437,0.402914
623,407,10.2568,0.0940552,0,0,0,0,0,0,0,-1,1847,617,10.2569,-0.0940639
630,407,7.06177,0.814575,0,0,0,0,0,0,0,-1,1854,617,7.06178,-0.814579
637,407,6.27808,1.17114,0,0,0,0,0,0,0,-1,1861,617,6.27803,-1.17116
644,407,5.09766,2.27747,0,0,0,0,0,0,0,-1,1868,617,5.09764,-2.27746
651,407,7.37524,0.0513916,0,0,0,0,0,0,0,-1,1875,617,7.3752,-0.0513923
658,407,3.76685,0.594177,0,0,0,0,0,0,0,-1,1882,617,3.76683,-0.594184
665,407,5.76123,0.375061,0,0,0,0,0,0,0,-1,1889,617,5.76118,-0.37509
672,407,0,0,0,0,0,0,0,0,0,-1,1896,617,0,0
679,407,0,0,0,0,0,0,0,0,0,-1,1903,617,0,0
686,407,0,0,0,0,0,0,0,0,0,-1,1910,617,0,0
693,407,0,0,0,0,0,0,0,0,0,-1,1917,617,0,0
700,407,0,0,0,0,0,0,0,0,0,-1,1924,617,0,0
707,407,0,0,0,0,0,0,0,0,0,-1,1931,617,0,0
714,407,0,0,0,0,0,0,0,0,0,-1,1938,617,0,0
721,407,0,0,0,0,0,0,0,0,0,-1,1945,617,0,0
728,407,0,0,0,0,0,0,0,0,0,-1,1952,617,0,0
735,407,0,0,0,0,0,0,0,0,0,-1,1959,617,0,0
742,407,0,0,0,0,0,0,0,0,0,-1,1966,617,0,0
749,407,0,0,0,0,0,0,0,0,0,-1,1973,617,0,0
756,407,0,0,0,0,0,0,0,0,0,-1,1980,617,0,0
763,407,0,0,0,0,0,0,0,0,0,-1,1987,617,0,0
770,407,0,0,0,0,0,0,0,0,0,-1,1994,617,0,0
777,407,0,0,0,0,0,0,0,0,0,-1,2001,617,0,0
784,407,0,0,0,0,0,0,0,0,0,-1,2008,617,0,0
791,407,0,0,0,0,0,0,0,0,0,-1,2015,617,0,0
798,407,0,0,0,0,0,0,0,0,0,-1,2022,617,0,0
805,407,0,0,0,0,0,0,0,0,0,-1,2029,617,0,0
812,407,0,0,0,0,0,0,0,0,0,-1,2036,617,0,0
-700,400,0,0,0,0,0,0,0,0,0,-1,524,624,0,0
-693,400,0,0,0,0,0,0,0,0,0,-1,531,624,0,0
-686,400,0,0,0,0,0,0,0,0,0,-1,538,624,0,0
-679,400,0,0,0,0,0,0,0,0,0,-1,545,624,0,0
-672,400,0,0,0,0,0,0,0,0,0,-1,552,624,0,0
-665,400,0,0,0,0,0,0,0,0,0,-1,559,624,0,0
-658,400,0,0,0,0,0,0,0,0,0,-1,566,624,0,0
-651,400,0,0,0,0,0,0,0,0,0,-1,573,624,0,0
-644,400,0,0,0,0,0,0,0,0,0,-1,580,624,0,0
-637,400,0,0,0,0,0,0,0,0,0,-1,587,624,0,0
-630,400,0,0,0,0,0,0,0,0,0,-1,594,624,0,0
-623,400,0,0,0,0,0,0,0,0,0,-1,601,624,0,0
-616,400,0,0,0,0,0,0,0,0,0,-1,608,624,0,0
-609,400,0,0,0,0,0,0,0,0,0,-1,615,624,0,0
-602,400,0,0,0,0,0,0,0,0,0,-1,622,624,0,0
-595,400,0,0,0,0,0,0,0,0,0,-1,629,624,0,0
-588,400,0,0,0,0,0,0,0,0,0,-1,636,624,0,0
-581,400,0,0,0,0,0,0,0,0,0,-1,643,624,0,0
-574,400,0,0,0,0,0,0,0,0,0,-1,650,624,0,0
-567,400,0,0,0,0,0,0,0,0,0,-1,657,624,0,0
-560,400,0,0,0,0,0,0,0,0,0,-1,664,624,0,0
-553,400,0,0,0,0,0,0,0,0,0,-1,671,624,0,0
-546,400,-8.41174,-1.4599,0,0,0,0,0,0,0,-1,678,624,-8.41173,1.45989
-539,400,-5.69104,-1.7337,0,0,0,0,0,0,0,-1,685,624,-5.69103,1.7337
-532,400,-3.03632,-2.03912,0,0,0,0,0,0,0,-1,692,624,-3.03632,2.03909
-525,400,-4.15131,-1.84991,0,0,0,0,0,0,0,-1,699,624,-4.15132,1.84992
-518,400,-4.13989,-2.88776,0,0,0,0,0,0,0,-1,706,624,-4.13989,2.88776
-511,400,-4.12848,-3.9256,0,0,0,0,0,0,0,-1,713,624,-4.12847,3.9256
-504,400,-4.36798,-2.03564,0,0,0,0,0,0,0,-1,720,624,-4.36798,2.03564
-497,400,-4.2171,-2.10907,-0.00283594,0.00698002,-0.00417369,0.00851471,-0.00437063,-1.21844,0.00756652,0.0353234,727,624,-4.21708,2.10906
-490,400,-4.25519,-2.30194,-0.00206486,0.0056317,-0.00371973,0.00713558,-0.00356874,-1.18659,0.00629347,0.015917,734,624,-4.25519,2.30191
-483,400,-4.28699,-2.56354,-0.00135412,0.00442542,-0.00326996,0.00589953,-0.00282822,-1.14728,0.00514192,0.0145969,741,624,-4.28697,2.56353
-476,400,-4.27252,-2.84564,-0.000774301,0.00337159,-0.0027216,0.00471978,-0.0021225,-1.11086,0.00404415,0.0136428,748,624,-4.2725,2.84562
-469,400,-4.28094,-3.11707,-0.000216381,0.00246444,-0.00227281,0.00376266,-0.0015146,-1.05183,0.00313763,0.0150237,755,624,-4.28097,3.11705
-462,400,-4.28168,-3.39264,0.000102211,0.00174708,-0.00181703,0.00291913,-0.00106985,-0.997915,0.00238411,0.0201411,762,624,-4.28171,3.39264
-455,400,-4.28699,-3.66473,0.000138893,0.000927705,-0.00110442,0.00170603,-0.000639435,-0.956898,0.00140005,0.0192342,769,624,-4.28702,3.66472
-448,400,-4.28064,-3.91241,7.88116e-05,0.000197651,-0.0004041,0.000546677,-0.000270214,-0.858396,0.000480551,0.014201,776,624,-4.28061,3.9124
-441,400,-4.30383,-4.17578,-0.00016241,-0.00027465,6.85011e-05,-0.000129976,-0.000307084,0.442213,0.00017799,0.013863,783,624,-4.30382,4.17578
-434,400,-4.3252,-4.45648,-0.000835859,-0.000860417,0.000707902,-0.000140129,-0.00155615,0.776726,0.000994019,0.0117653,790,624,-4.32517,4.45649
-427,400,-4.30566,-4.71417,-0.00164582,-0.00145251,0.00127451,-0.000270991,-0.00282734,0.823243,0.00180137,0.0106913,797,624,-4.30567,4.71419
-420,400,-4.25513,-5.01312,-0.00271012,-0.0024198,0.00200622,-0.000553494,-0.00457643,0.821512,0.00288421,0.0130874,804,624,-4.2551,5.01311
-413,400,-4.31885,-5.24249,-0.00401667,-0.00347581,0.00289558,-0.000838056,-0.00665441,0.83196,0.00418499,0.0279657,811,624,-4.31886,5.2425
-406,400,-4.64661,-5.33966,-0.00558236,-0.00506045,0.00382306,-0.00148945,-0.00915335,0.819475,0.00567133,0.0392783,818,624,-4.64663,5.33967
-399,400,-4.8006,-5.48926,0,0,0,0,0,0,0,-1,825,624,-4.80059,5.48925
-392,400,-3.68921,-6.16071,0,0,0,0,0,0,0,-1,832,624,-3.68923,6.16068
-385,400,-3.68738,-5.04205,0,0,0,0,0,0,0,-1,839,624,-3.68736,5.04207
-378,400,-6.84064,-1.28662,0,0,0,0,0,0,0,-1,846,624,-6.84062,1.28662
-371,400,-6.98865,-1.2572,0,0,0,0,0,0,0,-1,853,624,-6.98865,1.25721
-364,400,-6.97247,-1.24133,0,0,0,0,0,0,0,-1,860,624,-6.97249,1.24135
-357,400,-7.18329,-1.23218,0,0,0,0,0,0,0,-1,867,624,-7.18327,1.2322
-350,400,-7.40186,-1.19409,0,0,0,0,0,0,0,-1,874,624,-7.40187,1.19407
-343,400,-8.09357,-1.51147,0,0,0,0,0,0,0,-1,881,624,-8.09355,1.51148
-336,400,0,0,0,0,0,0,0,0,0,-1,888,624,0,0
-329,400,0,0,0,0,0,0,0,0,0,-1,895,624,0,0
-322,400,0,0,0,0,0,0,0,0,0,-1,902,624,0,0
-315,400,0,0,0,0,0,0,0,0,0,-1,909,624,0,0
-308,400,0,0,0,0,0,0,0,0,0,-1,916,624,0,0
-301,400,0,0,0,0,0,0,0,0,0,-1,923,624,0,0
-294,400,0,0,0,0,0,0,0,0,0,-1,930,624,0,0
-287,400,0,0,0,0,0,0,0,0,0,-1,937,624,0,0
-280,400,0,0,0,0,0,0,0,0,0,-1,944,624,0,0
-273,400,0,0,0,0,0,0,0,0,0,-1,951,624,0,0
-266,400,0,0,0,0,0,0,0,0,0,-1,958,624,0,0
-259,400,0,0,0,0,0,0,0,0,0,-1,965,624,0,0
-252,400,0,0,0,0,0,0,0,0,0,-1,972,624,0,0
-245,400,0,0,0,0,0,0,0,0,0,-1,979,624,0,0
-238,400,0,0,0,0,0,0,0,0,0,-1,986,624,0,0
-231,400,0,0,0,0,0,0,0,0,0,-1,993,624,0,0
-224,400,0,0,0,0,0,0,0,0,0,-1,1000,624,0,0
-217,400,0,0,0,0,0,0,0,0,0,-1,1007,624,0,0
-210,400,0,0,0,0,0,0,0,0,0,-1,1014,624,0,0
-203,400,0,0,0,0,0,0,0,0,0,-1,1021,624,0,0
-196,400,0,0,0,0,0,0,0,0,0,-1,1028,624,0,0
-189,400,0,0,0,0,0,0,0,0,0,-1,1035,624,0,0
-182,400,0,0,0,0,0,0,0,0,0,-1,1042,624,0,0
-175,400,0,0,0,0,0,0,0,0,0,-1,1049,624,0,0
-168,400,0,0,0,0,0,0,0,0,0,-1,1056,624,0,0
-161,400,0,0,0,0,0,0,0,0,0,-1,1063,624,0,0
-154,400,0,0,0,0,0,0,0,0,0,-1,1070,624,0,0
-147,400,0,0,0,0,0,0,0,0,0,-1,1077,624,0,0
-140,400,0,0,0,0,0,0,0,0,0,-1,1084,624,0,0
-133,400,0,0,0,0,0,0,0,0,0,-1,1091,624,0,0
-126,400,0,0,0,0,0,0,0,0,0,-1,1098,624,0,0
-119,400,0,0,0,0,0,0,0,0,0,-1,1105,624,0,0
-112,400,0,0,0,0,0,0,0,0,0,-1,1112,624,0,0
-105,400,0,0,0,0,0,0,0,0,0,-1,1119,624,0,0
-98,400,0,0,0,0,0,0,0,0,0,-1,1126,624,0,0
-91,400,0,0,0,0,0,0,0,0,0,-1,1133,624,0,0
-84,400,0,0,0,0,0,0,0,0,0,-1,1140,624,0,0
-77,400,0,0,0,0,0,0,0,0,0,-1,1147,624,0,0
-70,400,0,0,0,0,0,0,0,0,0,-1,1154,624,0,0
-63,400,0,0,0,0,0,0,0,0,0,-1,1161,624,0,0
-56,400,0,0,0,0,0,0,0,0,0,-1,1168,624,0,0
-49,400,0,0,0,0,0,0,0,0,0,-1,1175,624,0,0
-42,400,0,0,0,0,0,0,0,0,0,-1,1182,624,0,0
-35,400,0,0,0,0,0,0,0,0,0,-1,1189,624,0,0
-28,400,0,0,0,0,0,0,0,0,0,-1,1196,624,0,0
-21,400,0,0,0,0,0,0,0,0,0,-1,1203,624,0,0
-14,400,0,0,0,0,0,0,0,0,0,-1,1210,624,0,0
-7,400,0,0,0,0,0,0,0,0,0,-1,1217,624,0,0
0,400,0,0,0,0,0,0,0,0,0,-1,1224,624,0,0
7,400,0,0,0,0,0,0,0,0,0,-1,1231,624,0,0
14,400,0,0,0,0,0,0,0,0,0,-1,1238,624,0,0
21,400,0,0,0,0,0,0,0,0,0,-1,1245,624,0,0
28,400,0,0,0,0,0,0,0,0,0,-1,1252,624,0,0
35,400,0,0,0,0,0,0,0,0,0,-1,1259,624,0,0
42,400,0,0,0,0,0,0,0,0,0,-1,1266,624,0,0
49,400,0,0,0,0,0,0,0,0,0,-1,1273,624,0,0
56,400,0,0,0,0,0,0,0,0,0,-1,1280,624,0,0
63,400,0,0,0,0,0,0,0,0,0,-1,1287,624,0,0
70,400,0,0,0,0,0,0,0,0,0,-1,1294,624,0,0
77,400,0,0,0,0,0,0,0,0,0,-1,1301,624,0,0
84,400,0,0,0,0,0,0,0,0,0,-1,1308,624,0,0
91,400,0,0,0,0,0,0,0,0,0,-1,1315,624,0,0
98,400,0,0,0,0,0,0,0,0,0,-1,1322,624,0,0
105,400,0,0,0,0,0,0,0,0,0,-1,1329,624,0,0
112,400,0,0,0,0,0,0,0,0,0,-1,1336,624,0,0
119,400,0,0,0,0,0,0,0,0,0,-1,1343,624,0,0
126,400,0,0,0,0,0,0,0,0,0,-1,1350,624,0,0
133,400,0,0,0,0,0,0,0,0,0,-1,1357,624,0,0
140,400,0,0,0,0,0,0,0,0,0,-1,1364,624,0,0
147,400,0,0,0,0,0,0,0,0,0,-1,1371,624,0,0
154,400,0,0,0,0,0,0,0,0,0,-1,1378,624,0,0
161,400,0,0,0,0,0,0,0,0,0,-1,1385,624,0,0
168,400,0,0,0,0,0,0,0,0,0,-1,1392,624,0,0
175,400,0,0,0,0,0,0,0,0,0,-1,1399,624,0,0
182,400,0,0,0,0,0,0,0,0,0,-1,1406,624,0,0
189,400,0,0,0,0,0,0,0,0,0,-1,1413,624,0,0
196,400,0,0,0,0,0,0,0,0,0,-1,1420,624,0,0
203,400,0,0,0,0,0,0,0,0,0,-1,1427,624,0,0
210,400,0,0,0,0,0,0,0,0,0,-1,1434,624,0,0
217,400,0,0,0,0,0,0,0,0,0,-1,1441,624,0,0
224,400,0,0,0,0,0,0,0,0,0,-1,1448,624,0,0
231,400,0,0,0,0,0,0,0,0,0,-1,1455,624,0,0
238,400,0,0,0,0,0,0,0,0,0,-1,1462,624,0,0
245,400,0,0,0,0,0,0,0,0,0,-1,1469,624,0,0
252,400,0,0,0,0,0,0,0,0,0,-1,1476,624,0,0
259,400,0,0,0,0,0,0,0,0,0,-1,1483,624,0,0
266,400,0,0,0,0,0,0,0,0,0,-1,1490,624,0,0
273,400,0,0,0,0,0,0,0,0,0,-1,1497,624,0,0
280,400,0,0,0,0,0,0,0,0,0,-1,1504,624,0,0
287,400,0,0,0,0,0,0,0,0,0,-1,1511,624,0,0
294,400,0,0,0,0,0,0,0,0,0,-1,1518,624,0,0
301,400,0,0,0,0,0,0,0,0,0,-1,1525,624,0,0
308,400,0,0,0,0,0,0,0,0,0,-1,1532,624,0,0
315,400,0,0,0,0,0,0,0,0,0,-1,1539,624,0,0
322,400,0,0,0,0,0,0,0,0,0,-1,1546,624,0,0
329,400,0,0,0,0,0,0,0,0,0,-1,1553,624,0,0
336,400,0,0,0,0,0,0,0,0,0,-1,1560,624,0,0
343,400,0,0,0,0,0,0,0,0,0,-1,1567,624,0,0
350,400,0,0,0,0,0,0,0,0,0,-1,1574,624,0,0
357,400,0,0,0,0,0,0,0,0,0,-1,1581,624,0,0
364,400,0,0,0,0,0,0,0,0,0,-1,1588,624,0,0
371,400,0,0,0,0,0,0,0,0,0,-1,1595,624,0,0
378,400,0,0,0,0,0,0,0,0,0,-1,1602,624,0,0
385,400,0,0,0,0,0,0,0,0,0,-1,1609,624,0,0
392,400,0,0,0,0,0,0,0,0,0,-1,1616,624,0,0
399,400,0,0,0,0,0,0,0,0,0,-1,1623,624,0,0
406,400,0,0,0,0,0,0,0,0,0,-1,1630,624,0,0
413,400,0,0,0,0,0,0,0,0,0,-1,1637,624,0,0
420,400,0,0,0,0,0,0,0,0,0,-1,1644,624,0,0
427,400,0,0,0,0,0,0,0,0,0,-1,1651,624,0,0
434,400,0,0,0,0,0,0,0,0,0,-1,1658,624,0,0
441,400,0,0,0,0,0,0,0,0,0,-1,1665,624,0,0
448,400,0,0,0,0,0,0,0,0,0,-1,1672,624,0,0
455,400,8.91309,2.75885,0,0,0,0,0,0,0,-1,1679,624,8.91312,-2.75885
462,400,8.90356,2.37878,0,0,0,0,0,0,0,-1,1686,624,8.90353,-2.37878
469,400,9.14429,1.76849,0,0,0,0,0,0,0,-1,1693,624,9.14432,-1.76847
476,400,9.23254,1.25995,0,0,0,0,0,0,0,-1,1700,624,9.23252,-1.25994
483,400,9.59766,0.562439,0,0,0,0,0,0,0,-1,1707,624,9.59771,-0.56242
490,400,9.92578,-0.213745,0,0,0,0,0,0,0,-1,1714,624,9.92579,0.21376
497,400,9.19141,0.175232,0,0,0,0,0,0,0,-1,1721,624,9.19138,-0.175209
504,400,9.23438,0.00823975,0,0,0,0,0,0,0,-1,1728,624,9.23436,-0.00823766
511,400,6.16687,3.3501,0,0,0,0,0,0,0,-1,1735,624,6.16682,-3.35007
518,400,6.55237,1.74994,0,0,0,0,0,0,0,-1,1742,624,6.55236,-1.74993
525,400,6.99731,1.08783,0,0,0,0,0,0,0,-1,1749,624,6.99736,-1.08785
532,400,6.96582,-1.74982,0,0,0,0,0,0,0,-1,1756,624,6.96585,1.74983
539,400,10.3612,-3.66852,0,0,0,0,0,0,0,-1,1763,624,10.3612,3.6685
546,400,10.3529,-3.42999,0.000206812,0.00365365,0.00131312,0.0040969,-0.000236439,1.24525,0.00281339,0.0274379,1770,624,10.3529,3.43002
553,400,10.2701,-3.11407,-0.000226229,0.0026493,0.000629491,0.00278106,-0.000357995,1.36445,0.00198417,0.0150815,1777,624,10.2702,3.11408
560,400,10.3053,-2.81494,-0.000538139,0.00183547,0.000164132,0.00184676,-0.000549435,1.50208,0.00144946,0.0129187,1784,624,10.3052,2.81496
567,400,10.3241,-2.55048,-0.000672732,0.00117329,-0.000110046,0.00117983,-0.000679269,-1.51146,0.00108624,0.0173929,1791,624,10.3241,2.55046
574,400,10.3207,-2.25409,-0.000478233,0.000779717,-0.000105294,0.000788469,-0.000486985,-1.48786,0.000743209,0.0198418,1798,624,10.3206,2.25411
581,400,10.286,-1.9671,-6.38333e-05,0.000661927,0.000110652,0.000678422,-8.03287e-05,1.42281,0.000481297,0.0184096,1805,624,10.286,1.96713
588,400,10.2952,-1.67871,0.000478436,0.000778571,0.000522885,0.0011725,8.45097e-05,0.925142,0.000755073,0.0150512,1812,624,10.2952,1.6787
595,400,10.3049,-1.39618,0.00130538,0.00117494,0.00114257,0.00238459,9.57295e-05,0.756887,0.0015588,0.0139122,1819,624,10.305,1.3962
602,400,10.302,-1.10712,0.00222262,0.00182137,0.00193113,0.00396352,8.04724e-05,0.733638,0.00261593,0.0130167,1826,624,10.302,1.10713
609,400,10.2494,-0.803528,0.00289738,0.00240625,0.0026638,0.00532691,-2.32796e-05,0.739435,0.00355906,0.0132016,1833,624,10.2494,0.803514
616,400,10.2617,-0.501038,0.00345441,0.00342441,0.00352217,0.00696162,-8.27925e-05,0.783269,0.00466892,0.0159379,1840,624,10.2617,0.501028
623,400,10.5006,-0.067627,0.00413858,0.00442323,0.00432561,0.00860885,-4.70462e-05,0.801843,0.00575498,0.044567,1847,624,10.5006,0.0676406
630,400,10.8234,0.314209,0,0,0,0,0,0,0,-1,1854,624,10.8233,-0.31423
637,400,6.92896,1.01917,0,0,0,0,0,0,0,-1,1861,624,6.92899,-1.01918
644,400,8.65381,1.4599,0,0,0,0,0,0,0,-1,1868,624,8.65379,-1.45991
651,400,7.90601,0.424072,0,0,0,0,0,0,0,-1,1875,624,7.90598,-0.424097
658,400,8.69031,1.0484,0,0,0,0,0,0,0,-1,1882,624,8.6903,-1.0484
665,400,5.98438,0.522522,0,0,0,0,0,0,0,-1,1889,624,5.98442,-0.522552
672,400,0,0,0,0,0,0,0,0,0,-1,1896,624,0,0
679,400,0,0,0,0,0,0,0,0,0,-1,1903,624,0,0
686,400,0,0,0,0,0,0,0,0,0,-1,1910,624,0,0
693,400,0,0,0,0,0,0,0,0,0,-1,1917,624,0,0
700,400,0,0,0,0,0,0,0,0,0,-1,1924,624,0,0
707,400,0,0,0,0,0,0,0,0,0,-1,1931,624,0,0
714,400,0,0,0,0,0,0,0,0,0,-1,1938,624,0,0
721,400,0,0,0,0,0,0,0,0,0,-1,1945,624,0,0
728,400,0,0,0,0,0,0,0,0,0,-1,1952,624,0,0
735,400,0,0,0,0,0,0,0,0,0,-1,1959,624,0,0
742,400,0,0,0,0,0,0,0,0,0,-1,1966,624,0,0
749,400,0,0,0,0,0,0,0,0,0,-1,1973,624,0,0
756,400,0,0,0,0,0,0,0,0,0,-1,1980,624,0,0
763,400,0,0,0,0,0,0,0,0,0,-1,1987,624,0,0
770,400,0,0,0,0,0,0,0,0,0,-1,1994,624,0,0
777,400,0,0,0,0,0,0,0,0,0,-1,2001,624,0,0
784,400,0,0,0,0,0,0,0,0,0,-1,2008,624,0,0
791,400,0,0,0,0,0,0,0,0,0,-1,2015,624,0,0
798,400,0,0,0,0,0,0,0,0,0,-1,2022,624,0,0
805,400,0,0,0,0,0,0,0,0,0,-1,2029,624,0,0
812,400,0,0,0,0,0,0,0,0,0,-1,2036,624,0,0
-700,393,0,0,0,0,0,0,0,0,0,-1,524,631,0,0
-693,393,0,0,0,0,0,0,0,0,0,-1,531,631,0,0
-686,393,0,0,0,0,0,0,0,0,0,-1,538,631,0,0
-679,393,0,0,0,0,0,0,0,0,0,-1,545,631,0,0
-672,393,0,0,0,0,0,0,0,0,0,-1,552,631,0,0
-665,393,0,0,0,0,0,0,0,0,0,-1,559,631,0,0
-658,393,0,0,0,0,0,0,0,0,0,-1,566,631,0,0
-651,393,0,0,0,0,0,0,0,0,0,-1,573,631,0,0
-644,393,0,0,0,0,0,0,0,0,0,-1,580,631,0,0
-637,393,0,0,0,0,0,0,0,0,0,-1,587,631,0,0
-630,393,0,0,0,0,0,0,0,0,0,-1,594,631,0,0
-623,393,0,0,0,0,0,0,0,0,0,-1,601,631,0,0
-616,393,0,0,0,0,0,0,0,0,0,-1,608,631,0,0
-609,393,0,0,0,0,0,0,0,0,0,-1,615,631,0,0
-602,393,0,0,0,0,0,0,0,0,0,-1,622,631,0,0
-595,393,0,0,0,0,0,0,0,0,0,-1,629,631,0,0
-588,393,0,0,0,0,0,0,0,0,0,-1,636,631,0,0
-581,393,0,0,0,0,0,0,0,0,0,-1,643,631,0,0
-574,393,0,0,0,0,0,0,0,0,0,-1,650,631,0,0
-567,393,0,0,0,0,0,0,0,0,0,-1,657,631,0,0
-560,393,0,0,0,0,0,0,0,0,0,-1,664,631,0,0
-553,393,-2.35107,3.92633,0,0,0,0,0,0,0,-1,671,631,-2.35108,-3.92634
-546,393,-1.78778,2.4856,0,0,0,0,0,0,0,-1,678,631,-1.78778,-2.48557
-539,393,-5.2113,-2.20245,0,0,0,0,0,0,0,-1,685,631,-5.21128,2.20247
-532,393,-2.83643,-2.01624,0,0,0,0,0,0,0,-1,692,631,-2.83642,2.01626
-525,393,-4.27673,-1.18488,0,0,0,0,0,0,0,-1,699,631,-4.27673,1.1849
-518,393,-4.1991,-1.8653,0,0,0,0,0,0,0,-1,706,631,-4.19908,1.8653
-511,393,-4.33087,-1.2168,0,0,0,0,0,0,0,-1,713,631,-4.33086,1.21678
-504,393,-4.74658,-1.59277,0,0,0,0,0,0,0,-1,720,631,-4.74656,1.59276
-497,393,-4.57806,-1.9574,-0.00247129,0.00486921,-0.00249913,0.00563927,-0.00324136,-1.2719,0.00518916,0.0252118,727,631,-4.57805,1.95737
-490,393,-4.53925,-2.32172,-0.00183223,0.00401907,-0.0023329,0.00483532,-0.00264849,-1.23422,0.00438184,0.014495,734,631,-4.53927,2.3217
-483,393,-4.54431,-2.58032,-0.00119332,0.00321583,-0.00214922,0.0040901,-0.00206759,-1.18445,0.0036185,0.0195575,741,631,-4.54429,2.58032
-476,393,-4.5387,-2.85376,-0.000639872,0.00251696,-0.00187217,0.00338731,-0.00151022,-1.13563,0.00289599,0.0165649,748,631,-4.53871,2.85373
-469,393,-4.55646,-3.13092,-8.88735e-05,0.00191284,-0.00168656,0.00287315,-0.00104919,-1.05319,0.00234476,0.0129459,755,631,-4.55645,3.13094
-462,393,-4.57043,-3.40894,0.00019348,0.00136928,-0.00138684,0.00228768,-0.000724923,-0.985873,0.00181566,0.0155934,762,631,-4.57042,3.40891
-455,393,-4.56616,-3.66736,0.000212503,0.000716033,-0.000790352,0.00129375,-0.000365215,-0.939591,0.00100657,0.0137289,769,631,-4.56617,3.66737
-448,393,-4.55743,-3.91528,0.000163631,8.52635e-05,-0.000186164,0.00031469,-6.57959e-05,-0.681673,0.000234819,0.0129704,776,631,-4.55741,3.9153
-441,393,-4.56982,-4.18494,-7.77617e-05,-0.00034819,0.00025433,7.50635e-05,-0.000501015,0.541076,0.000361637,0.0126141,783,631,-4.56984,4.18492
-434,393,-4.57861,-4.44525,-0.000801827,-0.000731598,0.000817866,5.19066e-05,-0.00158533,0.806852,0.00107461,0.0120343,790,631,-4.57863,4.44527
-427,393,-4.53076,-4.73682,-0.00171962,-0.0013331,0.00136942,-0.00014337,-0.00290935,0.855498,0.00189359,0.0177632,797,631,-4.53077,4.73682
-420,393,-4.57336,-5.00812,-0.00296957,-0.00240706,0.00223714,-0.000433568,-0.00494307,0.84793,0.00316078,0.0344577,804,631,-4.57335,5.0081
-413,393,-4.85944,-5.0719,-0.00457984,-0.00362261,0.00329319,-0.000773438,-0.00742902,0.857561,0.00471605,0.0478581,811,631,-4.85946,5.07188
-406,393,-5.20197,-5.38629,0,0,0,0,0,0,0,-1,818,631,-5.20197,5.38631
-399,393,-5.07343,-5.92365,0,0,0,0,0,0,0,-1,825,631,-5.07344,5.92364
-392,393,-2.08063,-3.02386,0,0,0,0,0,0,0,-1,832,631,-2.08063,3.02384
-385,393,-3.16931,-0.624756,0,0,0,0,0,0,0,-1,839,631,-3.16928,0.624764
-378,393,-7.33081,-0.872314,0,0,0,0,0,0,0,-1,846,631,-7.33081,0.872325
-371,393,-7.47858,-0.811096,0,0,0,0,0,0,0,-1,853,631,-7.47859,0.811075
-364,393,-7.64917,-0.662415,0,0,0,0,0,0,0,-1,860,631,-7.64917,0.662406
-357,393,-8.09686,-0.726013,0,0,0,0,0,0,0,-1,867,631,-8.09689,0.726029
-350,393,-8.38788,-0.511841,0,0,0,0,0,0,0,-1,874,631,-8.38785,0.511811
-343,393,0,0,0,0,0,0,0,0,0,-1,881,631,0,0
-336,393,0,0,0,0,0,0,0,0,0,-1,888,631,0,0
-329,393,0,0,0,0,0,0,0,0,0,-1,895,631,0,0
-322,393,0,0,0,0,0,0,0,0,0,-1,902,631,0,0
-315,393,0,0,0,0,0,0,0,0,0,-1,909,631,0,0
-308,393,0,0,0,0,0,0,0,0,0,-1,916,631,0,0
-301,393,0,0,0,0,0,0,0,0,0,-1,923,631,0,0
-294,393,0,0,0,0,0,0,0,0,0,-1,930,631,0,0
-287,393,0,0,0,0,0,0,0,0,0,-1,937,631,0,0
-280,393,0,0,0,0,0,0,0,0,0,-1,944,631,0,0
-273,393,0,0,0,0,0,0,0,0,0,-1,951,631,0,0
-266,393,0,0,0,0,0,0,0,0,0,-1,958,631,0,0
-259,393,0,0,0,0,0,0,0,0,0,-1,965,631,0,0
-252,393,0,0,0,0,0,0,0,0,0,-1,972,631,0,0
-245,393,0,0,0,0,0,0,0,0,0,-1,979,631,0,0
-238,393,0,0,0,0,0,0,0,0,0,-1,986,631,0,0
-231,393,0,0,0,0,0,0,0,0,0,-1,993,631,0,0
-224,393,0,0,0,0,0,0,0,0,0,-1,1000,631,0,0
-217,393,0,0,0,0,0,0,0,0,0,-1,1007,631,0,0
-210,393,0,0,0,0,0,0,0,0,0,-1,1014,631,0,0
-203,393,0,0,0,0,0,0,0,0,0,-1,1021,631,0,0
-196,393,0,0,0,0,0,0,0,0,0,-1,1028,631,0,0
-189,393,0,0,0,0,0,0,0,0,0,-1,1035,631,0,0
-182,393,0,0,0,0,0,0,0,0,0,-1,1042,631,0,0
-175,393,0,0,0,0,0,0,0,0,0,-1,1049,631,0,0
-168,393,0,0,0,0,0,0,0,0,0,-1,1056,631,0,0
-161,393,0,0,0,0,0,0,0,0,0,-1,1063,631,0,0
-154,393,0,0,0,0,0,0,0,0,0,-1,1070,631,0,0
-147,393,0,0,0,0,0,0,0,0,0,-1,1077,631,0,0
-140,393,0,0,0,0,0,0,0,0,0,-1,1084,631,0,0
-133,393,0,0,0,0,0,0,0,0,0,-1,1091,631,0,0
-126,393,0,0,0,0,0,0,0,0,0,-1,1098,631,0,0
-119,393,0,0,0,0,0,0,0,0,0,-1,1105,631,0,0
-112,393,0,0,0,0,0,0,0,0,0,-1,1112,631,0,0
-105,393,0,0,0,0,0,0,0,0,0,-1,1119,631,0,0
-98,393,0,0,0,0,0,0,0,0,0,-1,1126,631,0,0
-91,393,0,0,0,0,0,0,0,0,0,-1,1133,631,0,0
-84,393,0,0,0,0,0,0,0,0,0,-1,1140,631,0,0
-77,393,0,0,0,0,0,0,0,0,0,-1,1147,631,0,0
-70,393,0,0,0,0,0,0,0,0,0,-1,1154,631,0,0
-63,393,0,0,0,0,0,0,0,0,0,-1,1161,631,0,0
-56,393,0,0,0,0,0,0,0,0,0,-1,1168,631,0,0
-49,393,0,0,0,0,0,0,0,0,0,-1,1175,631,0,0
-42,393,0,0,0,0,0,0,0,0,0,-1,1182,631,0,0
-35,393,0,0,0,0,0,0,0,0,0,-1,1189,631,0,0
-28,393,0,0,0,0,0,0,0,0,0,-1,1196,631,0,0
-21,393,0,0,0,0,0,0,0,0,0,-1,1203,631,0,0
-14,393,0,0,0,0,0,0,0,0,0,-1,1210,631,0,0
-7,393,0,0,0,0,0,0,0,0,0,-1,1217,631,0,0
0,393,0,0,0,0,0,0,0,0,0,-1,1224,631,0,0
7,393,0,0,0,0,0,0,0,0,0,-1,1231,631,0,0
14,393,0,0,0,0,0,0,0,0,0,-1,1238,631,0,0
21,393,0,0,0,0,0,0,0,0,0,-1,1245,631,0,0
28,393,0,0,0,0,0,0,0,0,0,-1,1252,631,0,0
35,393,0,0,0,0,0,0,0,0,0,-1,1259,631,0,0
42,393,0,0,0,0,0,0,0,0,0,-1,1266,631,0,0
49,393,0,0,0,0,0,0,0,0,0,-1,1273,631,0,0
56,393,0,0,0,0,0,0,0,0,0,-1,1280,631,0,0
63,393,0,0,0,0,0,0,0,0,0,-1,1287,631,0,0
70,393,0,0,0,0,0,0,0,0,0,-1,1294,631,0,0
77,393,0,0,0,0,0,0,0,0,0,-1,1301,631,0,0
84,393,0,0,0,0,0,0,0,0,0,-1,1308,631,0,0
91,393,0,0,0,0,0,0,0,0,0,-1,1315,631,0,0
98,393,0,0,0,0,0,0,0,0,0,-1,1322,631,0,0
105,393,0,0,0,0,0,0,0,0,0,-1,1329,631,0,0
112,393,0,0,0,0,0,0,0,0,0,-1,1336,631,0,0
119,393,0,0,0,0,0,0,0,0,0,-1,1343,631,0,0
126,393,0,0,0,0,0,0,0,0,0,-1,1350,631,0,0
133,393,0,0,0,0,0,0,0,0,0,-1,1357,631,0,0
140,393,0,0,0,0,0,0,0,0,0,-1,1364,631,0,0
147,393,0,0,0,0,0,0,0,0,0,-1,1371,631,0,0
154,393,0,0,0,0,0,0,0,0,0,-1,1378,631,0,0
161,393,0,0,0,0,0,0,0,0,0,-1,1385,631,0,0
168,393,0,0,0,0,0,0,0,0,0,-1,1392,631,0,0
175,393,0,0,0,0,0,0,0,0,0,-1,1399,631,0,0
182,393,0,0,0,0,0,0,0,0,0,-1,1406,631,0,0
189,393,0,0,0,0,0,0,0,0,0,-1,1413,631,0,0
196,393,0,0,0,0,0,0,0,0,0,-1,1420,631,0,0
203,393,0,0,0,0,0,0,0,0,0,-1,1427,631,0,0
210,393,0,0,0,0,0,0,0,0,0,-1,1434,631,0,0
217,393,0,0,0,0,0,0,0,0,0,-1,1441,631,0,0
224,393,0,0,0,0,0,0,0,0,0,-1,1448,631,0,0
231,393,0,0,0,0,0,0,0,0,0,-1,1455,631,0,0
238,393,0,0,0,0,0,0,0,0,0,-1,1462,631,0,0
245,393,0,0,0,0,0,0,0,0,0,-1,1469,631,0,0
252,393,0,0,0,0,0,0,0,0,0,-1,1476,631,0,0
259,393,0,0,0,0,0,0,0,0,0,-1,1483,631,0,0
266,393,0,0,0,0,0,0,0,0,0,-1,1490,631,0,0
273,393,0,0,0,0,0,0,0,0,0,-1,1497,631,0,0
280,393,0,0,0,0,0,0,0,0,0,-1,1504,631,0,0
287,393,0,0,0,0,0,0,0,0,0,-1,1511,631,0,0
294,393,0,0,0,0,0,0,0,0,0,-1,1518,631,0,0
301,393,0,0,0,0,0,0,0,0,0,-1,1525,631,0,0
308,393,0,0,0,0,0,0,0,0,0,-1,1532,631,0,0
315,393,0,0,0,0,0,0,0,0,0,-1,1539,631,0,0
322,393,0,0,0,0,0,0,0,0,0,-1,1546,631,0,0
329,393,0,0,0,0,0,0,0,0,0,-1,1553,631,0,0
336,393,0,0,0,0,0,0,0,0,0,-1,1560,631,0,0
343,393,0,0,0,0,0,0,0,0,0,-1,1567,631,0,0
350,393,0,0,0,0,0,0,0,0,0,-1,1574,631,0,0
357,393,0,0,0,0,0,0,0,0,0,-1,1581,631,0,0
364,393,0,0,0,0,0,0,0,0,0,-1,1588,631,0,0
371,393,0,0,0,0,0,0,0,0,0,-1,1595,631,0,0
378,393,0,0,0,0,0,0,0,0,0,-1,1602,631,0,0
385,393,0,0,0,0,0,0,0,0,0,-1,1609,631,0,0
392,393,0,0,0,0,0,0,0,0,0,-1,1616,631,0,0
399,393,0,0,0,0,0,0,0,0,0,-1,1623,631,0,0
406,393,0,0,0,0,0,0,0,0,0,-1,1630,631,0,0
413,393,0,0,0,0,0,0,0,0,0,-1,1637,631,0,0
420,393,0,0,0,0,0,0,0,0,0,-1,1644,631,0,0
427,393,0,0,0,0,0,0,0,0,0,-1,1651,631,0,0
434,393,0,0,0,0,0,0,0,0,0,-1,1658,631,0,0
441,393,0,0,0,0,0,0,0,0,0,-1,1665,631,0,0
448,393,0,0,0,0,0,0,0,0,0,-1,1672,631,0,0
455,393,0,0,0,0,0,0,0,0,0,-1,1679,631,0,0
462,393,8.51099,1.89502,0,0,0,0,0,0,0,-1,1686,631,8.51103,-1.89504
469,393,9.39465,1.51703,0,0,0,0,0,0,0,-1,1693,631,9.39465,-1.51703
476,393,9.95569,1.185,0,0,0,0,0,0,0,-1,1700,631,9.95575,-1.18497
483,393,10.5267,0.887329,0,0,0,0,0,0,0,-1,1707,631,10.5267,-0.887321
490,393,10.9303,0.761414,0,0,0,0,0,0,0,-1,1714,631,10.9303,-0.761386
497,393,8.32153,1.88104,0,0,0,0,0,0,0,-1,1721,631,8.32148,-1.88103
504,393,9.46985,1.78711,0,0,0,0,0,0,0,-1,1728,631,9.46986,-1.78713
511,393,9.66565,-0.375977,0,0,0,0,0,0,0,-1,1735,631,9.66571,0.375949
518,393,7.01599,1.62482,0,0,0,0,0,0,0,-1,1742,631,7.01597,-1.62483
525,393,7.88245,-1.13422,0,0,0,0,0,0,0,-1,1749,631,7.88246,1.13423
532,393,7.06335,-1.18103,0,0,0,0,0,0,0,-1,1756,631,7.06332,1.18101
539,393,9.91626,-2.46301,0,0,0,0,0,0,0,-1,1763,631,9.91625,2.46302
546,393,10.4675,-3.36133,0,0,0,0,0,0,0,-1,1770,631,10.4675,3.36135
553,393,10.5602,-3.08984,-0.00142118,0.0033489,0.00037481,0.00337817,-0.00145046,1.49286,0.0028609,0.0253073,1777,631,10.5602,3.08982
560,393,10.6024,-2.82385,-0.00164245,0.00224858,-0.000186874,0.00225754,-0.00165141,-1.52292,0.00226586,0.0151389,1784,631,10.6024,2.82383
567,393,10.6074,-2.52399,-0.00169941,0.00134957,-0.000531884,0.0014397,-0.00178953,-1.40295,0.00186804,0.014642,1791,631,10.6074,2.52397
574,393,10.6019,-2.25531,-0.00142983,0.000792649,-0.000583477,0.000936519,-0.0015737,-1.32905,0.00146476,0.0155516,1798,631,10.6019,2.25532
581,393,10.5782,-1.96478,-0.000904223,0.00056915,-0.000378971,0.000660912,-0.000995985,-1.33324,0.000963108,0.015005,1805,631,10.5783,1.96477
588,393,10.5913,-1.66187,-0.000243969,0.000635185,3.65962e-05,0.000636706,-0.00024549,1.52927,0.000525765,0.0168275,1812,631,10.5914,1.66188
595,393,10.6011,-1.38251,0.00067128,0.00098539,0.000646074,0.00149322,0.000163445,0.904631,0.000945721,0.0140906,1819,631,10.6011,1.38251
602,393,10.5803,-1.1095,0.00163432,0.00157867,0.00140894,0.00301571,0.000197286,0.775524,0.00194804,0.0154157,1826,631,10.5803,1.10952
609,393,10.5554,-0.811462,0.00224992,0.00207742,0.00205957,0.00422505,0.00010229,0.764472,0.00278323,0.0149961,1833,631,10.5555,0.811444
616,393,10.5637,-0.522217,0.00269517,0.00284151,0.00271526,0.00548458,5.20961e-05,0.798868,0.00363915,0.0147624,1840,631,10.5637,0.52224
623,393,10.5956,-0.178406,0.00325775,0.00366578,0.00324495,0.00671312,0.000210413,0.816793,0.00440695,0.0221691,1847,631,10.5956,0.178394
630,393,10.7159,0.229248,0.00380673,0.00450346,0.00337996,0.00755296,0.000757235,0.836751,0.00480283,0.0471044,1854,631,10.7159,-0.229242
637,393,10.7573,0.709961,0,0,0,0,0,0,0,-1,1861,631,10.7573,-0.70998
644,393,8.97583,1.30585,0,0,0,0,0,0,0,-1,1868,631,8.97586,-1.30584
651,393,9.58679,0.726563,0,0,0,0,0,0,0,-1,1875,631,9.58684,-0.726583
658,393,9.21338,1.50836,0,0,0,0,0,0,0,-1,1882,631,9.21338,-1.50834
665,393,6.1001,2.32129,0,0,0,0,0,0,0,-1,1889,631,6.10012,-2.3213
672,393,7.14575,2.43225,0,0,0,0,0,0,0,-1,1896,631,7.14572,-2.43222
679,393,0,0,0,0,0,0,0,0,0,-1,1903,631,0,0
686,393,0,0,0,0,0,0,0,0,0,-1,1910,631,0,0
693,393,0,0,0,0,0,0,0,0,0,-1,1917,631,0,0
700,393,0,0,0,0,0,0,0,0,0,-1,1924,631,0,0
707,393,0,0,0,0,0,0,0,0,0,-1,1931,631,0,0
714,393,0,0,0,0,0,0,0,0,0,-1,1938,631,0,0
721,393,0,0,0,0,0,0,0,0,0,-1,1945,631,0,0
728,393,0,0,0,0,0,0,0,0,0,-1,1952,631,0,0
735,393,0,0,0,0,0,0,0,0,0,-1,1959,631,0,0
742,393,0,0,0,0,0,0,0,0,0,-1,1966,631,0,0
749,393,0,0,0,0,0,0,0,0,0,-1,1973,631,0,0
756,393,0,0,0,0,0,0,0,0,0,-1,1980,631,0,0
763,393,0,0,0,0,0,0,0,0,0,-1,1987,631,0,0
770,393,0,0,0,0,0,0,0,0,0,-1,1994,631,0,0
777,393,0,0,0,0,0,0,0,0,0,-1,2001,631,0,0
784,393,0,0,0,0,0,0,0,0,0,-1,2008,631,0,0
791,393,0,0,0,0,0,0,0,0,0,-1,2015,631,0,0
798,393,0,0,0,0,0,0,0,0,0,-1,2022,631,0,0
805,393,0,0,0,0,0,0,0,0,0,-1,2029,631,0,0
812,393,0,0,0,0,0,0,0,0,0,-1,2036,631,0,0
-700,386,0,0,0,0,0,0,0,0,0,-1,524,638,0,0
-693,386,0,0,0,0,0,0,0,0,0,-1,531,638,0,0
-686,386,0,0,0,0,0,0,0,0,0,-1,538,638,0,0
-679,386,0,0,0,0,0,0,0,0,0,-1,545,638,0,0
-672,386,0,0,0,0,0,0,0,0,0,-1,552,638,0,0
-665,386,0,0,0,0,0,0,0,0,0,-1,559,638,0,0
-658,386,0,0,0,0,0,0,0,0,0,-1,566,638,0,0
-651,386,0,0,0,0,0,0,0,0,0,-1,573,638,0,0
-644,386,0,0,0,0,0,0,0,0,0,-1,580,638,0,0
-637,386,0,0,0,0,0,0,0,0,0,-1,587,638,0,0
-630,386,0,0,0,0,0,0,0,0,0,-1,594,638,0,0
-623,386,0,0,0,0,0,0,0,0,0,-1,601,638,0,0
-616,386,0,0,0,0,0,0,0,0,0,-1,608,638,0,0
-609,386,0,0,0,0,0,0,0,0,0,-1,615,638,0,0
-602,386,0,0,0,0,0,0,0,0,0,-1,622,638,0,0
-595,386,0,0,0,0,0,0,0,0,0,-1,629,638,0,0
-588,386,0,0,0,0,0,0,0,0,0,-1,636,638,0,0
-581,386,0,0,0,0,0,0,0,0,0,-1,643,638,0,0
-574,386,0,0,0,0,0,0,0,0,0,-1,650,638,0,0
-567,386,0,0,0,0,0,0,0,0,0,-1,657,638,0,0
-560,386,-3.97229,-5.13898,0,0,0,0,0,0,0,-1,664,638,-3.97232,5.13897
-553,386,-4.94244,-5.54309,0,0,0,0,0,0,0,-1,671,638,-4.94242,5.5431
-546,386,-1.78668,1.72827,0,0,0,0,0,0,0,-1,678,638,-1.78668,-1.72829
-539,386,-0.879456,-2.90009,0,0,0,0,0,0,0,-1,685,638,-0.879442,2.90008
-532,386,-4.83362,1.61053,0,0,0,0,0,0,0,-1,692,638,-4.83361,-1.61051
-525,386,-4.48596,-1.06403,0,0,0,0,0,0,0,-1,699,638,-4.48595,1.06401
-518,386,-4.41125,-1.35822,-0.00282097,0.0058309,-0.00215237,0.00633678,-0.00332684,-1.33995,0.00566879,0.0476197,706,638,-4.41123,1.35822
-511,386,-4.55011,-1.37421,-0.00263932,0.00499835,-0.00175692,0.00538312,-0.00302409,-1.3552,0.00491719,0.0453943,713,638,-4.55012,1.37423
-504,386,-4.75525,-1.76404,-0.0023085,0.00434143,-0.00161078,0.00471106,-0.00267813,-1.34523,0.00431963,0.0286716,720,638,-4.75527,1.76403
-497,386,-4.84644,-2.05054,-0.0018494,0.00356828,-0.00149147,0.00395174,-0.00223286,-1.31915,0.00361636,0.0126742,727,638,-4.84642,2.05055
-490,386,-4.81134,-2.34857,-0.00131367,0.00291134,-0.00142227,0.00334551,-0.00174783,-1.27452,0.00298848,0.0117977,734,638,-4.81135,2.34859
-483,386,-4.78217,-2.63049,-0.000735334,0.00235725,-0.00139278,0.00289203,-0.00127011,-1.20419,0.00246308,0.0159988,741,638,-4.78218,2.6305
-476,386,-4.79187,-2.89093,-0.000209975,0.00189728,-0.00130775,0.00252304,-0.000835736,-1.12449,0.00201911,0.0150944,748,638,-4.7919,2.89092
-469,386,-4.82336,-3.14771,0.000321329,0.00150109,-0.00132351,0.00236023,-0.000537803,-0.995032,0.00178004,0.011356,755,638,-4.82334,3.1477
-462,386,-4.81604,-3.42151,0.00055064,0.00106466,-0.00114256,0.00197876,-0.000363465,-0.896027,0.00145554,0.0109101,762,638,-4.81604,3.42153
-455,386,-4.81494,-3.67786,0.000512366,0.000546077,-0.000651126,0.00118057,-0.000122122,-0.798339,0.000830749,0.0119888,769,638,-4.81495,3.67783
-448,386,-4.81384,-3.92877,0.000413367,-1.45603e-05,-0.000139963,0.000455079,-5.62724e-05,-0.289641,0.000323777,0.0122835,776,638,-4.81384,3.92875
-441,386,-4.84821,-4.18414,0.00011886,-0.000454532,0.00027755,0.000231199,-0.00056687,0.384594,0.000474156,0.0127745,783,638,-4.8482,4.18413
-434,386,-4.80695,-4.50995,-0.000703235,-0.000657596,0.000763583,8.35083e-05,-0.00144434,0.800336,0.000991901,0.0219319,790,638,-4.80697,4.50997
-427,386,-4.72186,-4.82556,0,0,0,0,0,0,0,-1,797,638,-4.72187,4.82555
-420,386,-4.89771,-5.05402,0,0,0,0,0,0,0,-1,804,638,-4.89772,5.05403
-413,386,-5.15802,-5.09473,0,0,0,0,0,0,0,-1,811,638,-5.15805,5.09471
-406,386,-4.51135,-4.10999,0,0,0,0,0,0,0,-1,818,638,-4.51135,4.10996
-399,386,-3.57117,-3.42126,0,0,0,0,0,0,0,-1,825,638,-3.57116,3.42129
-392,386,-4.00977,0.403625,0,0,0,0,0,0,0,-1,832,638,-4.0098,-0.403616
-385,386,-3.2406,-0.118469,0,0,0,0,0,0,0,-1,839,638,-3.24058,0.118485
-378,386,-2.55243,-1.22748,0,0,0,0,0,0,0,-1,846,638,-2.55243,1.22748
-371,386,-7.95807,-0.330261,0,0,0,0,0,0,0,-1,853,638,-7.95806,0.330284
-364,386,-8.90637,-0.665955,0,0,0,0,0,0,0,-1,860,638,-8.90635,0.665951
-357,386,-9.10364,-0.388733,0,0,0,0,0,0,0,-1,867,638,-9.10364,0.388744
-350,386,0,0,0,0,0,0,0,0,0,-1,874,638,0,0
-343,386,0,0,0,0,0,0,0,0,0,-1,881,638,0,0
-336,386,0,0,0,0,0,0,0,0,0,-1,888,638,0,0
-329,386,0,0,0,0,0,0,0,0,0,-1,895,638,0,0
-322,386,0,0,0,0,0,0,0,0,0,-1,902,638,0,0
-315,386,0,0,0,0,0,0,0,0,0,-1,909,638,0,0
-308,386,0,0,0,0,0,0,0,0,0,-1,916,638,0,0
-301,386,0,0,0,0,0,0,0,0,0,-1,923,638,0,0
-294,386,0,0,0,0,0,0,0,0,0,-1,930,638,0,0
-287,386,0,0,0,0,0,0,0,0,0,-1,937,638,0,0
-280,386,0,0,0,0,0,0,0,0,0,-1,944,638,0,0
-273,386,0,0,0,0,0,0,0,0,0,-1,951,638,0,0
-266,386,0,0,0,0,0,0,0,0,0,-1,958,638,0,0
-259,386,0,0,0,0,0,0,0,0,0,-1,965,638,0,0
-252,386,0,0,0,0,0,0,0,0,0,-1,972,638,0,0
-245,386,0,0,0,0,0,0,0,0,0,-1,979,638,0,0
-238,386,0,0,0,0,0,0,0,0,0,-1,986,638,0,0
-231,386,0,0,0,0,0,0,0,0,0,-1,993,638,0,0
-224,386,0,0,0,0,0,0,0,0,0,-1,1000,638,0,0
-217,386,0,0,0,0,0,0,0,0,0,-1,1007,638,0,0
-210,386,0,0,0,0,0,0,0,0,0,-1,1014,638,0,0
-203,386,0,0,0,0,0,0,0,0,0,-1,1021,638,0,0
-196,386,0,0,0,0,0,0,0,0,0,-1,1028,638,0,0
-189,386,0,0,0,0,0,0,0,0,0,-1,1035,638,0,0
-182,386,0,0,0,0,0,0,0,0,0,-1,1042,638,0,0
-175,386,0,0,0,0,0,0,0,0,0,-1,1049,638,0,0
-168,386,0,0,0,0,0,0,0,0,0,-1,1056,638,0,0
-161,386,0,0,0,0,0,0,0,0,0,-1,1063,638,0,0
-154,386,0,0,0,0,0,0,0,0,0,-1,1070,638,0,0
-147,386,0,0,0,0,0,0,0,0,0,-1,1077,638,0,0
-140,386,0,0,0,0,0,0,0,0,0,-1,1084,638,0,0
-133,386,0,0,0,0,0,0,0,0,0,-1,1091,638,0,0
-126,386,0,0,0,0,0,0,0,0,0,-1,1098,638,0,0
-119,386,0,0,0,0,0,0,0,0,0,-1,1105,638,0,0
-112,386,0,0,0,0,0,0,0,0,0,-1,1112,638,0,0
-105,386,0,0,0,0,0,0,0,0,0,-1,1119,638,0,0
-98,386,0,0,0,0,0,0,0,0,0,-1,1126,638,0,0
-91,386,0,0,0,0,0,0,0,0,0,-1,1133,638,0,0
-84,386,0,0,0,0,0,0,0,0,0,-1,1140,638,0,0
-77,386,0,0,0,0,0,0,0,0,0,-1,1147,638,0,0
-70,386,0,0,0,0,0,0,0,0,0,-1,1154,638,0,0
-63,386,0,0,0,0,0,0,0,0,0,-1,1161,638,0,0
-56,386,0,0,0,0,0,0,0,0,0,-1,1168,638,0,0
-49,386,0,0,0,0,0,0,0,0,0,-1,1175,638,0,0
-42,386,0,0,0,0,0,0,0,0,0,-1,1182,638,0,0
-35,386,0,0,0,0,0,0,0,0,0,-1,1189,638,0,0
-28,386,0,0,0,0,0,0,0,0,0,-1,1196,638,0,0
-21,386,0,0,0,0,0,0,0,0,0,-1,1203,638,0,0
-14,386,0,0,0,0,0,0,0,0,0,-1,1210,638,0,0
-7,386,0,0,0,0,0,0,0,0,0,-1,1217,638,0,0
0,386,0,0,0,0,0,0,0,0,0,-1,1224,638,0,0
7,386,0,0,0,0,0,0,0,0,0,-1,1231,638,0,0
14,386,0,0,0,0,0,0,0,0,0,-1,1238,638,0,0
21,386,0,0,0,0,0,0,0,0,0,-1,1245,638,0,0
28,386,0,0,0,0,0,0,0,0,0,-1,1252,638,0,0
35,386,0,0,0,0,0,0,0,0,0,-1,1259,638,0,0
42,386,0,0,0,0,0,0,0,0,0,-1,1266,638,0,0
49,386,0,0,0,0,0,0,0,0,0,-1,1273,638,0,0
56,386,0,0,0,0,0,0,0,0,0,-1,1280,638,0,0
63,386,0,0,0,0,0,0,0,0,0,-1,1287,638,0,0
70,386,0,0,0,0,0,0,0,0,0,-1,1294,638,0,0
77,386,0,0,0,0,0,0,0,0,0,-1,1301,638,0,0
84,386,0,0,0,0,0,0,0,0,0,-1,1308,638,0,0
91,386,0,0,0,0,0,0,0,0,0,-1,1315,638,0,0
98,386,0,0,0,0,0,0,0,0,0,-1,1322,638,0,0
105,386,0,0,0,0,0,0,0,0,0,-1,1329,638,0,0
112,386,0,0,0,0,0,0,0,0,0,-1,1336,638,0,0
119,386,0,0,0,0,0,0,0,0,0,-1,1343,638,0,0
126,386,0,0,0,0,0,0,0,0,0,-1,1350,638,0,0
133,386,0,0,0,0,0,0,0,0,0,-1,1357,638,0,0
140,386,0,0,0,0,0,0,0,0,0,-1,1364,638,0,0
147,386,0,0,0,0,0,0,0,0,0,-1,1371,638,0,0
154,386,0,0,0,0,0,0,0,0,0,-1,1378,638,0,0
161,386,0,0,0,0,0,0,0,0,0,-1,1385,638,0,0
168,386,0,0,0,0,0,0,0,0,0,-1,1392,638,0,0
175,386,0,0,0,0,0,0,0,0,0,-1,1399,638,0,0
182,386,0,0,0,0,0,0,0,0,0,-1,1406,638,0,0
189,386,0,0,0,0,0,0,0,0,0,-1,1413,638,0,0
196,386,0,0,0,0,0,0,0,0,0,-1,1420,638,0,0
203,386,0,0,0,0,0,0,0,0,0,-1,1427,638,0,0
210,386,0,0,0,0,0,0,0,0,0,-1,1434,638,0,0
217,386,0,0,0,0,0,0,0,0,0,-1,1441,638,0,0
224,386,0,0,0,0,0,0,0,0,0,-1,1448,638,0,0
231,386,0,0,0,0,0,0,0,0,0,-1,1455,638,0,0
238,386,0,0,0,0,0,0,0,0,0,-1,1462,638,0,0
245,386,0,0,0,0,0,0,0,0,0,-1,1469,638,0,0
252,386,0,0,0,0,0,0,0,0,0,-1,1476,638,0,0
259,386,0,0,0,0,0,0,0,0,0,-1,1483,638,0,0
266,386,0,0,0,0,0,0,0,0,0,-1,1490,638,0,0
273,386,0,0,0,0,0,0,0,0,0,-1,1497,638,0,0
280,386,0,0,0,0,0,0,0,0,0,-1,1504,638,0,0
287,386,0,0,0,0,0,0,0,0,0,-1,1511,638,0,0
294,386,0,0,0,0,0,0,0,0,0,-1,1518,638,0,0
301,386,0,0,0,0,0,0,0,0,0,-1,1525,638,0,0
308,386,0,0,0,0,0,0,0,0,0,-1,1532,638,0,0
315,386,0,0,0,0,0,0,0,0,0,-1,1539,638,0,0
322,386,0,0,0,0,0,0,0,0,0,-1,1546,638,0,0
329,386,0,0,0,0,0,0,0,0,0,-1,1553,638,0,0
336,386,0,0,0,0,0,0,0,0,0,-1,1560,638,0,0
343,386,0,0,0,0,0,0,0,0,0,-1,1567,638,0,0
350,386,0,0,0,0,0,0,0,0,0,-1,1574,638,0,0
357,386,0,0,0,0,0,0,0,0,0,-1,1581,638,0,0
364,386,0,0,0,0,0,0,0,0,0,-1,1588,638,0,0
371,386,0,0,0,0,0,0,0,0,0,-1,1595,638,0,0
378,386,0,0,0,0,0,0,0,0,0,-1,1602,638,0,0
385,386,0,0,0,0,0,0,0,0,0,-1,1609,638,0,0
392,386,0,0,0,0,0,0,0,0,0,-1,1616,638,0,0
399,386,0,0,0,0,0,0,0,0,0,-1,1623,638,0,0
406,386,0,0,0,0,0,0,0,0,0,-1,1630,638,0,0
413,386,0,0,0,0,0,0,0,0,0,-1,1637,638,0,0
420,386,0,0,0,0,0,0,0,0,0,-1,1644,638,0,0
427,386,0,0,0,0,0,0,0,0,0,-1,1651,638,0,0
434,386,0,0,0,0,0,0,0,0,0,-1,1658,638,0,0
441,386,0,0,0,0,0,0,0,0,0,-1,1665,638,0,0
448,386,0,0,0,0,0,0,0,0,0,-1,1672,638,0,0
455,386,0,0,0,0,0,0,0,0,0,-1,1679,638,0,0
462,386,0,0,0,0,0,0,0,0,0,-1,1686,638,0,0
469,386,9.84692,1.55804,0,0,0,0,0,0,0,-1,1693,638,9.84691,-1.55807
476,386,10.6145,0.986511,0,0,0,0,0,0,0,-1,1700,638,10.6145,-0.986529
483,386,11.4113,0.732971,0,0,0,0,0,0,0,-1,1707,638,11.4112,-0.732958
490,386,7.79785,1.79572,0,0,0,0,0,0,0,-1,1714,638,7.79788,-1.7957
497,386,8.96362,1.77081,0,0,0,0,0,0,0,-1,1721,638,8.96357,-1.77081
504,386,10.0555,1.69427,0,0,0,0,0,0,0,-1,1728,638,10.0555,-1.69426
511,386,11.2172,1.534,0,0,0,0,0,0,0,-1,1735,638,11.2172,-1.53398
518,386,7.41553,1.75238,0,0,0,0,0,0,0,-1,1742,638,7.41547,-1.75238
525,386,8.82422,-1.1449,0,0,0,0,0,0,0,-1,1749,638,8.82426,1.14492
532,386,10.6432,0.617371,0,0,0,0,0,0,0,-1,1756,638,10.6432,-0.617359
539,386,9.62061,-0.393616,0,0,0,0,0,0,0,-1,1763,638,9.62059,0.393634
546,386,10.5787,-2.72552,0,0,0,0,0,0,0,-1,1770,638,10.5787,2.72551
553,386,10.8895,-3.12817,0,0,0,0,0,0,0,-1,1777,638,10.8895,3.12815
560,386,10.9161,-2.70215,-0.00316956,0.00268787,-0.000658918,0.00276108,-0.00324277,-1.46015,0.00347004,0.0316583,1784,638,10.9161,2.70214
567,386,10.8513,-2.51337,-0.00309263,0.00146608,-0.00107472,0.00170674,-0.00333329,-1.3505,0.00295994,0.0199448,1791,638,10.8514,2.51336
574,386,10.8679,-2.24982,-0.00270761,0.000701515,-0.0011773,0.00106857,-0.00307466,-1.26858,0.0024838,0.0135431,1798,638,10.868,2.24982
581,386,10.8536,-1.97223,-0.00202747,0.000349687,-0.000971687,0.000696327,-0.00237411,-1.22813,0.00185884,0.0131511,1805,638,10.8536,1.97223
588,386,10.8881,-1.66876,-0.00120843,0.000361375,-0.00053934,0.000528816,-0.00137587,-1.26977,0.00113534,0.0124109,1812,638,10.888,1.66878
595,386,10.8827,-1.39203,-0.000187791,0.000666386,6.85722e-05,0.000671856,-0.000193261,1.4912,0.000524334,0.0132175,1819,638,10.8827,1.39202
602,386,10.8574,-1.13141,0.000830849,0.00120944,0.000804627,0.00184674,0.000193549,0.900925,0.00117198,0.0147063,1826,638,10.8575,1.13142
609,386,10.8622,-0.837463,0.00141796,0.00163384,0.00137579,0.00290591,0.000145887,0.824546,0.00189052,0.0147164,1833,638,10.8622,0.837451
616,386,10.8748,-0.52948,0.00178144,0.00216341,0.00184309,0.00382538,0.000119469,0.837026,0.00251138,0.0116208,1840,638,10.8748,0.529473
623,386,10.8633,-0.23175,0.00219833,0.00281091,0.00215592,0.00468219,0.000327055,0.855961,0.00301835,0.00988625,1847,638,10.8632,0.231766
630,386,10.9294,0.0546875,0.00260139,0.00336245,0.00212347,0.00513922,0.000824627,0.874058,0.00318703,0.0219531,1854,638,10.9294,-0.0546881
637,386,10.8577,0.366577,0.00178947,0.00298012,0.00124499,0.0037648,0.00100479,1.00842,0.00225097,0.0451745,1861,638,10.8576,-0.366591
644,386,10.7948,0.788208,0,0,0,0,0,0,0,-1,1868,638,10.7948,-0.788187
651,386,9.3866,1.31097,0,0,0,0,0,0,0,-1,1875,638,9.3866,-1.31095
658,386,12.6449,-0.269226,0,0,0,0,0,0,0,-1,1882,638,12.6449,0.269219
665,386,6.33167,1.78601,0,0,0,0,0,0,0,-1,1889,638,6.33171,-1.78601
672,386,7.23352,2.14435,0,0,0,0,0,0,0,-1,1896,638,7.23353,-2.14433
679,386,8.07764,2.57104,0,0,0,0,0,0,0,-1,1903,638,8.07758,-2.57103
686,386,0,0,0,0,0,0,0,0,0,-1,1910,638,0,0
693,386,0,0,0,0,0,0,0,0,0,-1,1917,638,0,0
700,386,0,0,0,0,0,0,0,0,0,-1,1924,638,0,0
707,386,0,0,0,0,0,0,0,0,0,-1,1931,638,0,0
714,386,0,0,0,0,0,0,0,0,0,-1,1938,638,0,0
721,386,0,0,0,0,0,0,0,0,0,-1,1945,638,0,0
728,386,0,0,0,0,0,0,0,0,0,-1,1952,638,0,0
735,386,0,0,0,0,0,0,0,0,0,-1,1959,638,0,0
742,386,0,0,0,0,0,0,0,0,0,-1,1966,638,0,0
749,386,0,0,0,0,0,0,0,0,0,-1,1973,638,0,0
756,386,0,0,0,0,0,0,0,0,0,-1,1980,638,0,0
763,386,0,0,0,0,0,0,0,0,0,-1,1987,638,0,0
770,386,0,0,0,0,0,0,0,0,0,-1,1994,638,0,0
777,386,0,0,0,0,0,0,0,0,0,-1,2001,638,0,0
784,386,0,0,0,0,0,0,0,0,0,-1,2008,638,0,0
791,386,0,0,0,0,0,0,0,0,0,-1,2015,638,0,0
798,386,0,0,0,0,0,0,0,0,0,-1,2022,638,0,0
805,386,0,0,0,0,0,0,0,0,0,-1,2029,638,0,0
812,386,0,0,0,0,0,0,0,0,0,-1,2036,638,0,0
-700,379,0,0,0,0,0,0,0,0,0,-1,524,645,0,0
-693,379,0,0,0,0,0,0,0,0,0,-1,531,645,0,0
-686,379,0,0,0,0,0,0,0,0,0,-1,538,645,0,0
-679,379,0,0,0,0,0,0,0,0,0,-1,545,645,0,0
-672,379,0,0,0,0,0,0,0,0,0,-1,552,645,0,0
-665,379,0,0,0,0,0,0,0,0,0,-1,559,645,0,0
-658,379,0,0,0,0,0,0,0,0,0,-1,566,645,0,0
-651,379,0,0,0,0,0,0,0,0,0,-1,573,645,0,0
-644,379,0,0,0,0,0,0,0,0,0,-1,580,645,0,0
-637,379,0,0,0,0,0,0,0,0,0,-1,587,645,0,0
-630,379,0,0,0,0,0,0,0,0,0,-1,594,645,0,0
-623,379,0,0,0,0,0,0,0,0,0,-1,601,645,0,0
-616,379,0,0,0,0,0,0,0,0,0,-1,608,645,0,0
-609,379,0,0,0,0,0,0,0,0,0,-1,615,645,0,0
-602,379,0,0,0,0,0,0,0,0,0,-1,622,645,0,0
-595,379,0,0,0,0,0,0,0,0,0,-1,629,645,0,0
-588,379,0,0,0,0,0,0,0,0,0,-1,636,645,0,0
-581,379,0,0,0,0,0,0,0,0,0,-1,643,645,0,0
-574,379,0,0,0,0,0,0,0,0,0,-1,650,645,0,0
-567,379,-3.06555,-3.93073,0,0,0,0,0,0,0,-1,657,645,-3.06553,3.93073
-560,379,-4.68494,3.55707,0,0,0,0,0,0,0,-1,664,645,-4.68492,-3.55704
-553,379,-5.17108,-4.53119,0,0,0,0,0,0,0,-1,671,645,-5.17106,4.53117
-546,379,-6.23053,-4.92102,0,0,0,0,0,0,0,-1,678,645,-6.23054,4.92105
-539,379,-0.71698,-2.19427,0,0,0,0,0,0,0,-1,685,645,-0.716959,2.19427
-532,379,-5.2735,-0.0756836,0,0,0,0,0,0,0,-1,692,645,-5.27352,0.0757052
-525,379,-4.98907,-0.552185,0,0,0,0,0,0,0,-1,699,645,-4.98907,0.552155
-518,379,-4.88043,-1.16858,-0.00181274,0.00541343,-0.00195716,0.00590946,-0.00230878,-1.32258,0.00489425,0.0452615,706,645,-4.88045,1.1686
-511,379,-4.89526,-1.58905,-0.00184039,0.00424483,-0.00131871,0.00451831,-0.00211387,-1.36631,0.00391207,0.0325679,713,645,-4.89527,1.58903
-504,379,-5.02484,-1.83386,-0.0016527,0.00342415,-0.00100962,0.00361756,-0.00184611,-1.38152,0.00320925,0.0180354,720,645,-5.02487,1.83384
-497,379,-5.07819,-2.05548,-0.00130523,0.00255062,-0.000821957,0.00271853,-0.00147313,-1.36929,0.00245541,0.0100943,727,645,-5.07816,2.05548
-490,379,-5.06909,-2.32367,-0.000815905,0.00198877,-0.000793299,0.0021976,-0.00102474,-1.31339,0.00190105,0.0101967,734,645,-5.06909,2.3237
-483,379,-5.05762,-2.60632,-0.000243737,0.00157736,-0.000850351,0.00191268,-0.00057906,-1.19518,0.00150572,0.0117019,741,645,-5.0576,2.60635
-476,379,-5.06287,-2.85327,0.000308407,0.0012685,-0.000899184,0.00180775,-0.000230849,-1.03058,0.00128903,0.0120669,748,645,-5.06285,2.85327
-469,379,-5.09161,-3.10272,0.000881786,0.00101615,-0.00107555,0.00202661,-0.000128675,-0.816589,0.00139594,0.01108,755,645,-5.09159,3.10275
-462,379,-5.09375,-3.38733,0.0011302,0.000652899,-0.00100436,0.00192387,-0.000140775,-0.668754,0.00133199,0.00877985,762,645,-5.09377,3.38733
-455,379,-5.07916,-3.64996,0.00109711,0.00026977,-0.000639287,0.0014449,-7.80124e-05,-0.498237,0.000990293,0.00929429,769,645,-5.07916,3.64995
-448,379,-5.06708,-3.91138,0.000992219,-0.000211451,-0.000256016,0.00104441,-0.000263642,-0.201102,0.00079879,0.0121126,776,645,-5.06706,3.91138
-441,379,-5.06067,-4.20459,0.000694998,-0.000658862,0.000100122,0.000702362,-0.000666227,0.0734205,0.000790247,0.016985,783,645,-5.06069,4.20459
-434,379,-4.98566,-4.60779,0,0,0,0,0,0,0,-1,790,645,-4.98566,4.60781
-427,379,-4.16113,-4.13452,0,0,0,0,0,0,0,-1,797,645,-4.16116,4.1345
-420,379,-4.63953,-3.46869,0,0,0,0,0,0,0,-1,804,645,-4.63953,3.46872
-413,379,-4.62543,-3.7912,0,0,0,0,0,0,0,-1,811,645,-4.62541,3.79123
-406,379,-4.64063,-4.38489,0,0,0,0,0,0,0,-1,818,645,-4.64065,4.3849
-399,379,-2.93536,-1.40118,0,0,0,0,0,0,0,-1,825,645,-2.93534,1.40119
-392,379,-4.16711,-0.466003,0,0,0,0,0,0,0,-1,832,645,-4.16714,0.465992
-385,379,-3.51862,0.441101,0,0,0,0,0,0,0,-1,839,645,-3.51859,-0.441072
-378,379,-5.3504,0.212219,0,0,0,0,0,0,0,-1,846,645,-5.35038,-0.212241
-371,379,-4.32092,-0.186707,0,0,0,0,0,0,0,-1,853,645,-4.3209,0.186707
-364,379,-3.40887,-0.549805,0,0,0,0,0,0,0,-1,860,645,-3.4089,0.549802
-357,379,0,0,0,0,0,0,0,0,0,-1,867,645,0,0
-350,379,0,0,0,0,0,0,0,0,0,-1,874,645,0,0
-343,379,0,0,0,0,0,0,0,0,0,-1,881,645,0,0
-336,379,0,0,0,0,0,0,0,0,0,-1,888,645,0,0
-329,379,0,0,0,0,0,0,0,0,0,-1,895,645,0,0
-322,379,0,0,0,0,0,0,0,0,0,-1,902,645,0,0
-315,379,0,0,0,0,0,0,0,0,0,-1,909,645,0,0
-308,379,0,0,0,0,0,0,0,0,0,-1,916,645,0,0
-301,379,0,0,0,0,0,0,0,0,0,-1,923,645,0,0
-294,379,0,0,0,0,0,0,0,0,0,-1,930,645,0,0
-287,379,0,0,0,0,0,0,0,0,0,-1,937,645,0,0
-280,379,0,0,0,0,0,0,0,0,0,-1,944,645,0,0
-273,379,0,0,0,0,0,0,0,0,0,-1,951,645,0,0
-266,379,0,0,0,0,0,0,0,0,0,-1,958,645,0,0
-259,379,0,0,0,0,0,0,0,0,0,-1,965,645,0,0
-252,379,0,0,0,0,0,0,0,0,0,-1,972,645,0,0
-245,379,0,0,0,0,0,0,0,0,0,-1,979,645,0,0
-238,379,0,0,0,0,0,0,0,0,0,-1,986,645,0,0
-231,379,0,0,0,0,0,0,0,0,0,-1,993,645,0,0
-224,379,0,0,0,0,0,0,0,0,0,-1,1000,645,0,0
-217,379,0,0,0,0,0,0,0,0,0,-1,1007,645,0,0
-210,379,0,0,0,0,0,0,0,0,0,-1,1014,645,0,0
-203,379,0,0,0,0,0,0,0,0,0,-1,1021,645,0,0
-196,379,0,0,0,0,0,0,0,0,0,-1,1028,645,0,0
-189,379,0,0,0,0,0,0,0,0,0,-1,1035,645,0,0
-182,379,0,0,0,0,0,0,0,0,0,-1,1042,645,0,0
-175,379,0,0,0,0,0,0,0,0,0,-1,1049,645,0,0
-168,379,0,0,0,0,0,0,0,0,0,-1,1056,645,0,0
-161,379,0,0,0,0,0,0,0,0,0,-1,1063,645,0,0
-154,379,0,0,0,0,0,0,0,0,0,-1,1070,645,0,0
-147,379,0,0,0,0,0,0,0,0,0,-1,1077,645,0,0
-140,379,0,0,0,0,0,0,0,0,0,-1,1084,645,0,0
-133,379,0,0,0,0,0,0,0,0,0,-1,1091,645,0,0
-126,379,0,0,0,0,0,0,0,0,0,-1,1098,645,0,0
-119,379,0,0,0,0,0,0,0,0,0,-1,1105,645,0,0
-112,379,0,0,0,0,0,0,0,0,0,-1,1112,645,0,0
-105,379,0,0,0,0,0,0,0,0,0,-1,1119,645,0,0
-98,379,0,0,0,0,0,0,0,0,0,-1,1126,645,0,0
-91,379,0,0,0,0,0,0,0,0,0,-1,1133,645,0,0
-84,379,0,0,0,0,0,0,0,0,0,-1,1140,645,0,0
-77,379,0,0,0,0,0,0,0,0,0,-1,1147,645,0,0
-70,379,0,0,0,0,0,0,0,0,0,-1,1154,645,0,0
-63,379,0,0,0,0,0,0,0,0,0,-1,1161,645,0,0
-56,379,0,0,0,0,0,0,0,0,0,-1,1168,645,0,0
-49,379,0,0,0,0,0,0,0,0,0,-1,1175,645,0,0
-42,379,0,0,0,0,0,0,0,0,0,-1,1182,645,0,0
-35,379,0,0,0,0,0,0,0,0,0,-1,1189,645,0,0
-28,379,0,0,0,0,0,0,0,0,0,-1,1196,645,0,0
-21,379,0,0,0,0,0,0,0,0,0,-1,1203,645,0,0
-14,379,0,0,0,0,0,0,0,0,0,-1,1210,645,0,0
-7,379,0,0,0,0,0,0,0,0,0,-1,1217,645,0,0
0,379,0,0,0,0,0,0,0,0,0,-1,1224,645,0,0
7,379,0,0,0,0,0,0,0,0,0,-1,1231,645,0,0
14,379,0,0,0,0,0,0,0,0,0,-1,1238,645,0,0
21,379,0,0,0,0,0,0,0,0,0,-1,1245,645,0,0
28,379,0,0,0,0,0,0,0,0,0,-1,1252,645,0,0
35,379,0,0,0,0,0,0,0,0,0,-1,1259,645,0,0
42,379,0,0,0,0,0,0,0,0,0,-1,1266,645,0,0
49,379,0,0,0,0,0,0,0,0,0,-1,1273,645,0,0
56,379,0,0,0,0,0,0,0,0,0,-1,1280,645,0,0
63,379,0,0,0,0,0,0,0,0,0,-1,1287,645,0,0
70,379,0,0,0,0,0,0,0,0,0,-1,1294,645,0,0
77,379,0,0,0,0,0,0,0,0,0,-1,1301,645,0,0
84,379,0,0,0,0,0,0,0,0,0,-1,1308,645,0,0
91,379,0,0,0,0,0,0,0,0,0,-1,1315,645,0,0
98,379,0,0,0,0,0,0,0,0,0,-1,1322,645,0,0
105,379,0,0,0,0,0,0,0,0,0,-1,1329,645,0,0
112,379,0,0,0,0,0,0,0,0,0,-1,1336,645,0,0
119,379,0,0,0,0,0,0,0,0,0,-1,1343,645,0,0
126,379,0,0,0,0,0,0,0,0,0,-1,1350,645,0,0
133,379,0,0,0,0,0,0,0,0,0,-1,1357,645,0,0
140,379,0,0,0,0,0,0,0,0,0,-1,1364,645,0,0
147,379,0,0,0,0,0,0,0,0,0,-1,1371,645,0,0
154,379,0,0,0,0,0,0,0,0,0,-1,1378,645,0,0
161,379,0,0,0,0,0,0,0,0,0,-1,1385,645,0,0
168,379,0,0,0,0,0,0,0,0,0,-1,1392,645,0,0
175,379,0,0,0,0,0,0,0,0,0,-1,1399,645,0,0
182,379,0,0,0,0,0,0,0,0,0,-1,1406,645,0,0
189,379,0,0,0,0,0,0,0,0,0,-1,1413,645,0,0
196,379,0,0,0,0,0,0,0,0,0,-1,1420,645,0,0
203,379,0,0,0,0,0,0,0,0,0,-1,1427,645,0,0
210,379,0,0,0,0,0,0,0,0,0,-1,1434,645,0,0
217,379,0,0,0,0,0,0,0,0,0,-1,1441,645,0,0
224,379,0,0,0,0,0,0,0,0,0,-1,1448,645,0,0
231,379,0,0,0,0,0,0,0,0,0,-1,1455,645,0,0
238,379,0,0,0,0,0,0,0,0,0,-1,1462,645,0,0
245,379,0,0,0,0,0,0,0,0,0,-1,1469,645,0,0
252,379,0,0,0,0,0,0,0,0,0,-1,1476,645,0,0
259,379,0,0,0,0,0,0,0,0,0,-1,1483,645,0,0
266,379,0,0,0,0,0,0,0,0,0,-1,1490,645,0,0
273,379,0,0,0,0,0,0,0,0,0,-1,1497,645,0,0
280,379,0,0,0,0,0,0,0,0,0,-1,1504,645,0,0
287,379,0,0,0,0,0,0,0,0,0,-1,1511,645,0,0
294,379,0,0,0,0,0,0,0,0,0,-1,1518,645,0,0
301,379,0,0,0,0,0,0,0,0,0,-1,1525,645,0,0
308,379,0,0,0,0,0,0,0,0,0,-1,1532,645,0,0
315,379,0,0,0,0,0,0,0,0,0,-1,1539,645,0,0
322,379,0,0,0,0,0,0,0,0,0,-1,1546,645,0,0
329,379,0,0,0,0,0,0,0,0,0,-1,1553,645,0,0
336,379,0,0,0,0,0,0,0,0,0,-1,1560,645,0,0
343,379,0,0,0,0,0,0,0,0,0,-1,1567,645,0,0
350,379,0,0,0,0,0,0,0,0,0,-1,1574,645,0,0
357,379,0,0,0,0,0,0,0,0,0,-1,1581,645,0,0
364,379,0,0,0,0,0,0,0,0,0,-1,1588,645,0,0
371,379,0,0,0,0,0,0,0,0,0,-1,1595,645,0,0
378,379,0,0,0,0,0,0,0,0,0,-1,1602,645,0,0
385,379,0,0,0,0,0,0,0,0,0,-1,1609,645,0,0
392,379,0,0,0,0,0,0,0,0,0,-1,1616,645,0,0
399,379,0,0,0,0,0,0,0,0,0,-1,1623,645,0,0
406,379,0,0,0,0,0,0,0,0,0,-1,1630,645,0,0
413,379,0,0,0,0,0,0,0,0,0,-1,1637,645,0,0
420,379,0,0,0,0,0,0,0,0,0,-1,1644,645,0,0
427,379,0,0,0,0,0,0,0,0,0,-1,1651,645,0,0
434,379,0,0,0,0,0,0,0,0,0,-1,1658,645,0,0
441,379,0,0,0,0,0,0,0,0,0,-1,1665,645,0,0
448,379,0,0,0,0,0,0,0,0,0,-1,1672,645,0,0
455,379,0,0,0,0,0,0,0,0,0,-1,1679,645,0,0
462,379,0,0,0,0,0,0,0,0,0,-1,1686,645,0,0
469,379,0,0,0,0,0,0,0,0,0,-1,1693,645,0,0
476,379,11.1787,0.830383,0,0,0,0,0,0,0,-1,1700,645,11.1787,-0.830365
483,379,7.4231,1.54321,0,0,0,0,0,0,0,-1,1707,645,7.42314,-1.54324
490,379,8.52881,1.56677,0,0,0,0,0,0,0,-1,1714,645,8.52878,-1.56677
497,379,9.63599,1.49573,0,0,0,0,0,0,0,-1,1721,645,9.63604,-1.4957
504,379,10.0833,1.35229,0,0,0,0,0,0,0,-1,1728,645,10.0832,-1.35227
511,379,8.14343,1.59912,0,0,0,0,0,0,0,-1,1735,645,8.14347,-1.59912
518,379,12.7955,-0.324097,0,0,0,0,0,0,0,-1,1742,645,12.7955,0.324101
525,379,6.03711,1.10352,0,0,0,0,0,0,0,-1,1749,645,6.03711,-1.10351
532,379,8.70947,0.887817,0,0,0,0,0,0,0,-1,1756,645,8.70953,-0.887808
539,379,9.87097,0.111389,0,0,0,0,0,0,0,-1,1763,645,9.87095,-0.111395
546,379,8.42383,-0.730652,0,0,0,0,0,0,0,-1,1770,645,8.42378,0.730638
553,379,11.3024,-3.15265,0,0,0,0,0,0,0,-1,1777,645,11.3024,3.15266
560,379,11.2122,-2.72345,-0.00537636,0.00299373,-0.00141728,0.0032272,-0.00560983,-1.40753,0.00516351,0.0380279,1784,645,11.2122,2.72342
567,379,11.0653,-2.45074,-0.00504207,0.00140242,-0.00189362,0.00191764,-0.00555729,-1.30514,0.00448294,0.0233765,1791,645,11.0652,2.45073
574,379,11.1761,-2.24304,-0.00440615,0.000418971,-0.00201014,0.00114665,-0.00513383,-1.22347,0.00386193,0.0127103,1798,645,11.1761,2.24303
581,379,11.1578,-1.95288,-0.00343104,-4.94385e-05,-0.00175427,0.000696206,-0.00417668,-1.16889,0.00304319,0.0144198,1805,645,11.1578,1.95286
588,379,11.1553,-1.6496,-0.00233742,-6.78647e-05,-0.001258,0.000491548,-0.00289683,-1.15237,0.0021142,0.0169252,1812,645,11.1553,1.64958
595,379,11.1377,-1.38531,-0.00113447,0.000217927,-0.000610721,0.000452895,-0.00136944,-1.20351,0.00109559,0.0139675,1819,645,11.1377,1.38533
602,379,11.1295,-1.12756,1.4908e-06,0.000740269,0.000135568,0.000764361,-2.26006e-05,1.39492,0.000517272,0.0143264,1826,645,11.1296,1.12756
609,379,11.1255,-0.845459,0.000625823,0.00112955,0.000678266,0.00160121,0.000154167,0.963174,0.00101997,0.0158854,1833,645,11.1255,0.845482
616,379,11.1379,-0.535095,0.000957284,0.00146759,0.00101943,0.00226331,0.000161562,0.908024,0.00145801,0.0127345,1840,645,11.138,0.53511
623,379,11.152,-0.217102,0.00126319,0.0019862,0.0011916,0.00286993,0.000379468,0.932674,0.00180018,0.0107232,1847,645,11.152,0.217128
630,379,11.1454,0.0574341,0.00155944,0.00234426,0.00106543,0.00308725,0.000816452,0.961845,0.00184717,0.0122171,1854,645,11.1454,-0.0574124
637,379,11.1409,0.348633,0.000825309,0.00205615,0.000234681,0.00209937,0.000782081,1.38864,0.00122513,0.0203724,1861,645,11.1408,-0.348614
644,379,11.1454,0.751953,-5.28906e-05,0.00174209,-0.000952975,0.00215366,-0.000464465,-1.16311,0.00161304,0.0350894,1868,645,11.1454,-0.751961
651,379,11.4937,1.16516,0,0,0,0,0,0,0,-1,1875,645,11.4936,-1.16515
658,379,12.1533,0.0554199,0,0,0,0,0,0,0,-1,1882,645,12.1533,-0.0554255
665,379,12.1384,0.0682373,0,0,0,0,0,0,0,-1,1889,645,12.1384,-0.0682143
672,379,7.57605,2.15326,0,0,0,0,0,0,0,-1,1896,645,7.57599,-2.15326
679,379,8.55078,2.50409,0,0,0,0,0,0,0,-1,1903,645,8.55073,-2.50406
686,379,0,0,0,0,0,0,0,0,0,-1,1910,645,0,0
693,379,0,0,0,0,0,0,0,0,0,-1,1917,645,0,0
700,379,0,0,0,0,0,0,0,0,0,-1,1924,645,0,0
707,379,0,0,0,0,0,0,0,0,0,-1,1931,645,0,0
714,379,0,0,0,0,0,0,0,0,0,-1,1938,645,0,0
721,379,0,0,0,0,0,0,0,0,0,-1,1945,645,0,0
728,379,0,0,0,0,0,0,0,0,0,-1,1952,645,0,0
735,379,0,0,0,0,0,0,0,0,0,-1,1959,645,0,0
742,379,0,0,0,0,0,0,0,0,0,-1,1966,645,0,0
749,379,0,0,0,0,0,0,0,0,0,-1,1973,645,0,0
756,379,0,0,0,0,0,0,0,0,0,-1,1980,645,0,0
763,379,0,0,0,0,0,0,0,0,0,-1,1987,645,0,0
770,379,0,0,0,0,0,0,0,0,0,-1,1994,645,0,0
777,379,0,0,0,0,0,0,0,0,0,-1,2001,645,0,0
784,379,0,0,0,0,0,0,0,0,0,-1,2008,645,0,0
791,379,0,0,0,0,0,0,0,0,0,-1,2015,645,0,0
798,379,0,0,0,0,0,0,0,0,0,-1,2022,645,0,0
805,379,0,0,0,0,0,0,0,0,0,-1,2029,645,0,0
812,379,0,0,0,0,0,0,0,0,0,-1,2036,645,0,0
-700,372,0,0,0,0,0,0,0,0,0,-1,524,652,0,0
-693,372,0,0,0,0,0,0,0,0,0,-1,531,652,0,0
-686,372,0,0,0,0,0,0,0,0,0,-1,538,652,0,0
-679,372,0,0,0,0,0,0,0,0,0,-1,545,652,0,0
-672,372,0,0,0,0,0,0,0,0,0,-1,552,652,0,0
-665,372,0,0,0,0,0,0,0,0,0,-1,559,652,0,0
-658,372,0,0,0,0,0,0,0,0,0,-1,566,652,0,0
-651,372,0,0,0,0,0,0,0,0,0,-1,573,652,0,0
-644,372,0,0,0,0,0,0,0,0,0,-1,580,652,0,0
-637,372,0,0,0,0,0,0,0,0,0,-1,587,652,0,0
-630,372,0,0,0,0,0,0,0,0,0,-1,594,652,0,0
-623,372,0,0,0,0,0,0,0,0,0,-1,601,652,0,0
-616,372,0,0,0,0,0,0,0,0,0,-1,608,652,0,0
-609,372,0,0,0,0,0,0,0,0,0,-1,615,652,0,0
-602,372,0,0,0,0,0,0,0,0,0,-1,622,652,0,0
-595,372,0,0,0,0,0,0,0,0,0,-1,629,652,0,0
-588,372,0,0,0,0,0,0,0,0,0,-1,636,652,0,0
-581,372,0,0,0,0,0,0,0,0,0,-1,643,652,0,0
-574,372,0,0,0,0,0,0,0,0,0,-1,650,652,0,0
-567,372,-4.91943,3.42969,0,0,0,0,0,0,0,-1,657,652,-4.91941,-3.42967
-560,372,-4.89691,2.97308,0,0,0,0,0,0,0,-1,664,652,-4.89691,-2.97308
-553,372,-4.87439,2.51648,0,0,0,0,0,0,0,-1,671,652,-4.8744,-2.51648
-546,372,-4.2403,-3.75372,0,0,0,0,0,0,0,-1,678,652,-4.24028,3.75369
-539,372,-5.83679,1.67175,0,0,0,0,0,0,0,-1,685,652,-5.83681,-1.67178
-532,372,-5.6864,-0.0475464,0,0,0,0,0,0,0,-1,692,652,-5.68641,0.0475526
-525,372,-5.50684,-0.475952,0,0,0,0,0,0,0,-1,699,652,-5.50686,0.475974
-518,372,-5.28943,-1.16809,-0.000916926,0.00488773,-0.00178939,0.00539501,-0.00142421,-1.29455,0.00415361,0.0314046,706,652,-5.28944,1.16807
-511,372,-5.32294,-1.55994,-0.00104276,0.00356174,-0.0010858,0.00380494,-0.00128596,-1.35045,0.00305682,0.0198204,713,652,-5.32291,1.55994
-504,372,-5.34332,-1.79688,-0.000932967,0.00266622,-0.000717712,0.00280406,-0.00107081,-1.38105,0.00231055,0.0119515,720,652,-5.34331,1.79689
-497,372,-5.33759,-2.07684,-0.000645449,0.00174382,-0.000524367,0.00185383,-0.000755465,-1.36399,0.00155033,0.0114069,727,652,-5.33756,2.07685
-490,372,-5.33807,-2.32574,-0.000185607,0.00128985,-0.000543046,0.00146817,-0.000363925,-1.25352,0.00111998,0.011851,734,652,-5.33805,2.32574
-483,372,-5.32568,-2.58362,0.000376661,0.00100678,-0.000668084,0.00143037,-4.69251e-05,-1.00573,0.000969601,0.0112861,741,652,-5.32567,2.58365
-476,372,-5.3172,-2.82098,0.000956086,0.000833906,-0.000834466,0.00173169,5.82969e-05,-0.748859,0.00113553,0.0120575,748,652,-5.31717,2.82096
-469,372,-5.3429,-3.06665,0.0015674,0.000715441,-0.00113871,0.0023572,-7.4355e-05,-0.606411,0.00159683,0.0102594,755,652,-5.34291,3.06666
-462,372,-5.34521,-3.36261,0.00183544,0.000436514,-0.00115019,0.00248215,-0.000210194,-0.51221,0.00172909,0.00913988,762,652,-5.34524,3.36264
-455,372,-5.3446,-3.63184,0.00180209,0.000217962,-0.00089151,0.00220257,-0.000182515,-0.422199,0.00153285,0.00921204,769,652,-5.34458,3.63182
-448,372,-5.32758,-3.90399,0.00167061,-0.000157506,-0.000611586,0.00185634,-0.000343239,-0.294839,0.00136642,0.011297,776,652,-5.3276,3.90398
-441,372,-5.19012,-4.32544,0.00136791,-0.000580957,-0.000293949,0.00141129,-0.000624328,-0.14649,0.00120418,0.0349792,783,652,-5.19012,4.32542
-434,372,-5.11163,-4.84326,0,0,0,0,0,0,0,-1,790,652,-5.11163,4.84329
-427,372,-4.54248,-3.56268,0,0,0,0,0,0,0,-1,797,652,-4.54247,3.56266
-420,372,-4.66168,-2.93597,0,0,0,0,0,0,0,-1,804,652,-4.66166,2.93599
-413,372,-4.74762,-3.29541,0,0,0,0,0,0,0,-1,811,652,-4.74763,3.29542
-406,372,-0.885437,-0.583923,0,0,0,0,0,0,0,-1,818,652,-0.885437,0.5839
-399,372,-3.97357,-0.825012,0,0,0,0,0,0,0,-1,825,652,-3.97359,0.825037
-392,372,-7.64337,0.173035,0,0,0,0,0,0,0,-1,832,652,-7.64337,-0.173019
-385,372,-6.48871,-0.0271606,0,0,0,0,0,0,0,-1,839,652,-6.48874,0.0271353
-378,372,-5.33044,-0.242432,0,0,0,0,0,0,0,-1,846,652,-5.33042,0.242457
-371,372,-4.40802,-0.495667,0,0,0,0,0,0,0,-1,853,652,-4.40802,0.495661
-364,372,0,0,0,0,0,0,0,0,0,-1,860,652,0,0
-357,372,0,0,0,0,0,0,0,0,0,-1,867,652,0,0
-350,372,0,0,0,0,0,0,0,0,0,-1,874,652,0,0
-343,372,0,0,0,0,0,0,0,0,0,-1,881,652,0,0
-336,372,0,0,0,0,0,0,0,0,0,-1,888,652,0,0
-329,372,0,0,0,0,0,0,0,0,0,-1,895,652,0,0
-322,372,0,0,0,0,0,0,0,0,0,-1,902,652,0,0
-315,372,0,0,0,0,0,0,0,0,0,-1,909,652,0,0
-308,372,0,0,0,0,0,0,0,0,0,-1,916,652,0,0
-301,372,0,0,0,0,0,0,0,0,0,-1,923,652,0,0
-294,372,0,0,0,0,0,0,0,0,0,-1,930,652,0,0
-287,372,0,0,0,0,0,0,0,0,0,-1,937,652,0,0
-280,372,0,0,0,0,0,0,0,0,0,-1,944,652,0,0
-273,372,0,0,0,0,0,0,0,0,0,-1,951,652,0,0
-266,372,0,0,0,0,0,0,0,0,0,-1,958,652,0,0
-259,372,0,0,0,0,0,0,0,0,0,-1,965,652,0,0
-252,372,0,0,0,0,0,0,0,0,0,-1,972,652,0,0
-245,372,0,0,0,0,0,0,0,0,0,-1,979,652,0,0
-238,372,0,0,0,0,0,0,0,0,0,-1,986,652,0,0
-231,372,0,0,0,0,0,0,0,0,0,-1,993,652,0,0
-224,372,0,0,0,0,0,0,0,0,0,-1,1000,652,0,0
-217,372,0,0,0,0,0,0,0,0,0,-1,1007,652,0,0
-210,372,0,0,0,0,0,0,0,0,0,-1,1014,652,0,0
-203,372,0,0,0,0,0,0,0,0,0,-1,1021,652,0,0
-196,372,0,0,0,0,0,0,0,0,0,-1,1028,652,0,0
-189,372,0,0,0,0,0,0,0,0,0,-1,1035,652,0,0
-182,372,0,0,0,0,0,0,0,0,0,-1,1042,652,0,0
-175,372,0,0,0,0,0,0,0,0,0,-1,1049,652,0,0
-168,372,0,0,0,0,0,0,0,0,0,-1,1056,652,0,0
-161,372,0,0,0,0,0,0,0,0,0,-1,1063,652,0,0
-154,372,0,0,0,0,0,0,0,0,0,-1,1070,652,0,0
-147,372,0,0,0,0,0,0,0,0,0,-1,1077,652,0,0
-140,372,0,0,0,0,0,0,0,0,0,-1,1084,652,0,0
-133,372,0,0,0,0,0,0,0,0,0,-1,1091,652,0,0
-126,372,0,0,0,0,0,0,0,0,0,-1,1098,652,0,0
-119,372,0,0,0,0,0,0,0,0,0,-1,1105,652,0,0
-112,372,0,0,0,0,0,0,0,0,0,-1,1112,652,0,0
-105,372,0,0,0,0,0,0,0,0,0,-1,1119,652,0,0
-98,372,0,0,0,0,0,0,0,0,0,-1,1126,652,0,0
-91,372,0,0,0,0,0,0,0,0,0,-1,1133,652,0,0
-84,372,0,0,0,0,0,0,0,0,0,-1,1140,652,0,0
-77,372,0,0,0,0,0,0,0,0,0,-1,1147,652,0,0
-70,372,0,0,0,0,0,0,0,0,0,-1,1154,652,0,0
-63,372,0,0,0,0,0,0,0,0,0,-1,1161,652,0,0
-56,372,0,0,0,0,0,0,0,0,0,-1,1168,652,0,0
-49,372,0,0,0,0,0,0,0,0,0,-1,1175,652,0,0
-42,372,0,0,0,0,0,0,0,0,0,-1,1182,652,0,0
-35,372,0,0,0,0,0,0,0,0,0,-1,1189,652,0,0
-28,372,0,0,0,0,0,0,0,0,0,-1,1196,652,0,0
-21,372,0,0,0,0,0,0,0,0,0,-1,1203,652,0,0
-14,372,0,0,0,0,0,0,0,0,0,-1,1210,652,0,0
-7,372,0,0,0,0,0,0,0,0,0,-1,1217,652,0,0
0,372,0,0,0,0,0,0,0,0,0,-1,1224,652,0,0
7,372,0,0,0,0,0,0,0,0,0,-1,1231,652,0,0
14,372,0,0,0,0,0,0,0,0,0,-1,1238,652,0,0
21,372,0,0,0,0,0,0,0,0,0,-1,1245,652,0,0
28,372,0,0,0,0,0,0,0,0,0,-1,1252,652,0,0
35,372,0,0,0,0,0,0,0,0,0,-1,1259,652,0,0
42,372,0,0,0,0,0,0,0,0,0,-1,1266,652,0,0
49,372,0,0,0,0,0,0,0,0,0,-1,1273,652,0,0
56,372,0,0,0,0,0,0,0,0,0,-1,1280,652,0,0
63,372,0,0,0,0,0,0,0,0,0,-1,1287,652,0,0
70,372,0,0,0,0,0,0,0,0,0,-1,1294,652,0,0
77,372,0,0,0,0,0,0,0,0,0,-1,1301,652,0,0
84,372,0,0,0,0,0,0,0,0,0,-1,1308,652,0,0
91,372,0,0,0,0,0,0,0,0,0,-1,1315,652,0,0
98,372,0,0,0,0,0,0,0,0,0,-1,1322,652,0,0
105,372,0,0,0,0,0,0,0,0,0,-1,1329,652,0,0
112,372,0,0,0,0,0,0,0,0,0,-1,1336,652,0,0
119,372,0,0,0,0,0,0,0,0,0,-1,1343,652,0,0
126,372,0,0,0,0,0,0,0,0,0,-1,1350,652,0,0
133,372,0,0,0,0,0,0,0,0,0,-1,1357,652,0,0
140,372,0,0,0,0,0,0,0,0,0,-1,1364,652,0,0
147,372,0,0,0,0,0,0,0,0,0,-1,1371,652,0,0
154,372,0,0,0,0,0,0,0,0,0,-1,1378,652,0,0
161,372,0,0,0,0,0,0,0,0,0,-1,1385,652,0,0
168,372,0,0,0,0,0,0,0,0,0,-1,1392,652,0,0
175,372,0,0,0,0,0,0,0,0,0,-1,1399,652,0,0
182,372,0,0,0,0,0,0,0,0,0,-1,1406,652,0,0
189,372,0,0,0,0,0,0,0,0,0,-1,1413,652,0,0
196,372,0,0,0,0,0,0,0,0,0,-1,1420,652,0,0
203,372,0,0,0,0,0,0,0,0,0,-1,1427,652,0,0
210,372,0,0,0,0,0,0,0,0,0,-1,1434,652,0,0
217,372,0,0,0,0,0,0,0,0,0,-1,1441,652,0,0
224,372,0,0,0,0,0,0,0,0,0,-1,1448,652,0,0
231,372,0,0,0,0,0,0,0,0,0,-1,1455,652,0,0
238,372,0,0,0,0,0,0,0,0,0,-1,1462,652,0,0
245,372,0,0,0,0,0,0,0,0,0,-1,1469,652,0,0
252,372,0,0,0,0,0,0,0,0,0,-1,1476,652,0,0
259,372,0,0,0,0,0,0,0,0,0,-1,1483,652,0,0
266,372,0,0,0,0,0,0,0,0,0,-1,1490,652,0,0
273,372,0,0,0,0,0,0,0,0,0,-1,1497,652,0,0
280,372,0,0,0,0,0,0,0,0,0,-1,1504,652,0,0
287,372,0,0,0,0,0,0,0,0,0,-1,1511,652,0,0
294,372,0,0,0,0,0,0,0,0,0,-1,1518,652,0,0
301,372,0,0,0,0,0,0,0,0,0,-1,1525,652,0,0
308,372,0,0,0,0,0,0,0,0,0,-1,1532,652,0,0
315,372,0,0,0,0,0,0,0,0,0,-1,1539,652,0,0
322,372,0,0,0,0,0,0,0,0,0,-1,1546,652,0,0
329,372,0,0,0,0,0,0,0,0,0,-1,1553,652,0,0
336,372,0,0,0,0,0,0,0,0,0,-1,1560,652,0,0
343,372,0,0,0,0,0,0,0,0,0,-1,1567,652,0,0
350,372,0,0,0,0,0,0,0,0,0,-1,1574,652,0,0
357,372,0,0,0,0,0,0,0,0,0,-1,1581,652,0,0
364,372,0,0,0,0,0,0,0,0,0,-1,1588,652,0,0
371,372,0,0,0,0,0,0,0,0,0,-1,1595,652,0,0
378,372,0,0,0,0,0,0,0,0,0,-1,1602,652,0,0
385,372,0,0,0,0,0,0,0,0,0,-1,1609,652,0,0
392,372,0,0,0,0,0,0,0,0,0,-1,1616,652,0,0
399,372,0,0,0,0,0,0,0,0,0,-1,1623,652,0,0
406,372,0,0,0,0,0,0,0,0,0,-1,1630,652,0,0
413,372,0,0,0,0,0,0,0,0,0,-1,1637,652,0,0
420,372,0,0,0,0,0,0,0,0,0,-1,1644,652,0,0
427,372,0,0,0,0,0,0,0,0,0,-1,1651,652,0,0
434,372,0,0,0,0,0,0,0,0,0,-1,1658,652,0,0
441,372,0,0,0,0,0,0,0,0,0,-1,1665,652,0,0
448,372,0,0,0,0,0,0,0,0,0,-1,1672,652,0,0
455,372,0,0,0,0,0,0,0,0,0,-1,1679,652,0,0
462,372,0,0,0,0,0,0,0,0,0,-1,1686,652,0,0
469,372,0,0,0,0,0,0,0,0,0,-1,1693,652,0,0
476,372,0,0,0,0,0,0,0,0,0,-1,1700,652,0,0
483,372,8.74182,1.53125,0,0,0,0,0,0,0,-1,1707,652,8.74186,-1.53126
490,372,9.78455,1.67096,0,0,0,0,0,0,0,-1,1714,652,9.7846,-1.67093
497,372,9.97644,1.46069,0,0,0,0,0,0,0,-1,1721,652,9.97647,-1.46071
504,372,10.1216,1.28375,0,0,0,0,0,0,0,-1,1728,652,10.1216,-1.28376
511,372,11.7367,-0.0272217,0,0,0,0,0,0,0,-1,1735,652,11.7367,0.0272326
518,372,12.0657,-0.0995483,0,0,0,0,0,0,0,-1,1742,652,12.0657,0.0995285
525,372,12.3947,-0.171814,0,0,0,0,0,0,0,-1,1749,652,12.3946,0.171824
532,372,9.36597,1.72034,0,0,0,0,0,0,0,-1,1756,652,9.36597,-1.72036
539,372,7.82886,-0.0865479,0,0,0,0,0,0,0,-1,1763,652,7.82882,0.0865771
546,372,10.953,-0.187195,0,0,0,0,0,0,0,-1,1770,652,10.953,0.187181
553,372,11.2965,-3.73212,0,0,0,0,0,0,0,-1,1777,652,11.2965,3.73212
560,372,11.4036,-3.11096,-0.00869971,0.00297193,-0.00277589,0.00359849,-0.00932627,-1.3488,0.00770249,0.0437052,1784,652,11.4035,3.11096
567,372,11.3967,-2.50812,-0.00783421,0.00101159,-0.00318882,0.00204126,-0.00886388,-1.25846,0.00669423,0.0263194,1791,652,11.3967,2.5081
574,372,11.4926,-2.20068,-0.00673481,-0.000159957,-0.00320949,0.00114696,-0.00804173,-1.18409,0.00578152,0.0178778,1798,652,11.4926,2.20068
581,372,11.4639,-1.94922,-0.00528706,-0.000711191,-0.00280411,0.000619945,-0.0066182,-1.12759,0.00463263,0.0163687,1805,652,11.4639,1.94921
588,372,11.4138,-1.65479,-0.00378853,-0.000723418,-0.00216656,0.000397838,-0.00490979,-1.09323,0.00341354,0.0165337,1812,652,11.4139,1.6548
595,372,11.3883,-1.37054,-0.00231667,-0.000433806,-0.00142176,0.00032996,-0.00308043,-1.07784,0.00217198,0.0135927,1819,652,11.3883,1.37057
602,372,11.4207,-1.10815,-0.000982202,9.29668e-05,-0.000612115,0.000370049,-0.00125928,-1.14573,0.00098629,0.0138746,1826,652,11.4207,1.10816
609,372,11.4183,-0.825928,-0.000210944,0.000493543,-2.76298e-05,0.000494625,-0.000212026,-1.53166,0.000418719,0.0154012,1833,652,11.4183,0.825948
616,372,11.4258,-0.522949,0.000189625,0.000698872,0.000262647,0.000810058,7.84385e-05,1.17034,0.000515884,0.0153439,1840,652,11.4258,0.522945
623,372,11.4388,-0.216858,0.000482457,0.00113905,0.000373244,0.00130783,0.000313671,1.1461,0.000788412,0.0117949,1847,652,11.4389,0.216834
630,372,11.4213,0.074707,0.000766219,0.00137214,0.000214275,0.00144026,0.000698101,1.263,0.000831665,0.0162201,1854,652,11.4213,-0.0747047
637,372,11.4285,0.334961,0.000208052,0.00121883,-0.000522588,0.00144043,-1.35499e-05,-1.16973,0.000964837,0.0216947,1861,652,11.4284,-0.334963
644,372,11.49,0.684692,-0.000558639,0.000878805,-0.00169496,0.00200113,-0.00168096,-0.985925,0.00212853,0.0251179,1868,652,11.49,-0.684686
651,372,11.7103,1.07135,0,0,0,0,0,0,0,-1,1875,652,11.7104,-1.07134
658,372,11.4659,0.433594,0,0,0,0,0,0,0,-1,1882,652,11.466,-0.433575
665,372,11.236,0.52124,0,0,0,0,0,0,0,-1,1889,652,11.2359,-0.52125
672,372,9.34106,1.48444,0,0,0,0,0,0,0,-1,1896,652,9.34109,-1.48444
679,372,10.7308,2.32391,0,0,0,0,0,0,0,-1,1903,652,10.7309,-2.3239
686,372,11.6295,2.52997,0,0,0,0,0,0,0,-1,1910,652,11.6296,-2.52996
693,372,0,0,0,0,0,0,0,0,0,-1,1917,652,0,0
700,372,0,0,0,0,0,0,0,0,0,-1,1924,652,0,0
707,372,0,0,0,0,0,0,0,0,0,-1,1931,652,0,0
714,372,0,0,0,0,0,0,0,0,0,-1,1938,652,0,0
721,372,0,0,0,0,0,0,0,0,0,-1,1945,652,0,0
728,372,0,0,0,0,0,0,0,0,0,-1,1952,652,0,0
735,372,0,0,0,0,0,0,0,0,0,-1,1959,652,0,0
742,372,0,0,0,0,0,0,0,0,0,-1,1966,652,0,0
749,372,0,0,0,0,0,0,0,0,0,-1,1973,652,0,0
756,372,0,0,0,0,0,0,0,0,0,-1,1980,652,0,0
763,372,0,0,0,0,0,0,0,0,0,-1,1987,652,0,0
770,372,0,0,0,0,0,0,0,0,0,-1,1994,652,0,0
777,372,0,0,0,0,0,0,0,0,0,-1,2001,652,0,0
784,372,0,0,0,0,0,0,0,0,0,-1,2008,652,0,0
791,372,0,0,0,0,0,0,0,0,0,-1,2015,652,0,0
798,372,0,0,0,0,0,0,0,0,0,-1,2022,652,0,0
805,372,0,0,0,0,0,0,0,0,0,-1,2029,652,0,0
812,372,0,0,0,0,0,0,0,0,0,-1,2036,652,0,0
-700,365,0,0,0,0,0,0,0,0,0,-1,524,659,0,0
-693,365,0,0,0,0,0,0,0,0,0,-1,531,659,0,0
-686,365,0,0,0,0,0,0,0,0,0,-1,538,659,0,0
-679,365,0,0,0,0,0,0,0,0,0,-1,545,659,0,0
-672,365,0,0,0,0,0,0,0,0,0,-1,552,659,0,0
-665,365,0,0,0,0,0,0,0,0,0,-1,559,659,0,0
-658,365,0,0,0,0,0,0,0,0,0,-1,566,659,0,0
-651,365,0,0,0,0,0,0,0,0,0,-1,573,659,0,0
-644,365,0,0,0,0,0,0,0,0,0,-1,580,659,0,0
-637,365,0,0,0,0,0,0,0,0,0,-1,587,659,0,0
-630,365,0,0,0,0,0,0,0,0,0,-1,594,659,0,0
-623,365,0,0,0,0,0,0,0,0,0,-1,601,659,0,0
-616,365,0,0,0,0,0,0,0,0,0,-1,608,659,0,0
-609,365,0,0,0,0,0,0,0,0,0,-1,615,659,0,0
-602,365,0,0,0,0,0,0,0,0,0,-1,622,659,0,0
-595,365,0,0,0,0,0,0,0,0,0,-1,629,659,0,0
-588,365,0,0,0,0,0,0,0,0,0,-1,636,659,0,0
-581,365,0,0,0,0,0,0,0,0,0,-1,643,659,0,0
-574,365,-2.66309,-0.84613,0,0,0,0,0,0,0,-1,650,659,-2.6631,0.846132
-567,365,-5.1438,2.92212,0,0,0,0,0,0,0,-1,657,659,-5.14379,-2.92214
-560,365,-5.15991,2.43304,0,0,0,0,0,0,0,-1,664,659,-5.15991,-2.43304
-553,365,-5.0979,0.902771,0,0,0,0,0,0,0,-1,671,659,-5.0979,-0.902772
-546,365,-5.95624,2.06677,0,0,0,0,0,0,0,-1,678,659,-5.95625,-2.06679
-539,365,-5.82782,1.22565,0,0,0,0,0,0,0,-1,685,659,-5.82781,-1.22565
-532,365,-5.61572,-0.673584,0,0,0,0,0,0,0,-1,692,659,-5.61575,0.673555
-525,365,-5.49915,-0.927795,0,0,0,0,0,0,0,-1,699,659,-5.49912,0.927816
-518,365,-5.62097,-1.2359,0,0,0,0,0,0,0,-1,706,659,-5.62098,1.23592
-511,365,-5.61456,-1.5321,-0.00046813,0.00271083,-0.000544851,0.00280162,-0.000558921,-1.40568,0.00207925,0.0209049,713,659,-5.61458,1.53208
-504,365,-5.61017,-1.79285,-0.000373738,0.0017975,-0.000175655,0.00181162,-0.000387857,-1.49059,0.00135565,0.0123701,720,659,-5.61017,1.79283
-497,365,-5.61011,-2.08014,-8.74862e-05,0.000901405,-3.76061e-05,0.000902833,-8.89142e-05,-1.53284,0.00063361,0.0126561,727,659,-5.61008,2.08011
-490,365,-5.60345,-2.33417,0.000387418,0.00057327,-0.000169704,0.000673825,0.000286863,-1.03589,0.000390461,0.0131773,734,659,-5.60346,2.3342
-483,365,-5.60364,-2.58295,0.00098344,0.000448413,-0.000452394,0.0012415,0.000190357,-0.518389,0.000772074,0.0125588,741,659,-5.60365,2.58297
-476,365,-5.586,-2.8241,0.00164602,0.000453178,-0.000857563,0.00209418,5.02751e-06,-0.481553,0.00139444,0.0128502,748,659,-5.58599,2.82412
-469,365,-5.59753,-3.08215,0.00235148,0.000519926,-0.00141645,0.00312241,-0.000251007,-0.498433,0.00217012,0.0123109,755,659,-5.59754,3.08216
-462,365,-5.60114,-3.36511,0.00271065,0.000411417,-0.00166644,0.00358554,-0.000463473,-0.483452,0.00255888,0.013034,762,659,-5.60115,3.3651
-455,365,-5.60852,-3.62299,0.0027512,0.000455489,-0.0016835,0.00364092,-0.000434234,-0.486185,0.00258422,0.0138446,769,659,-5.60855,3.62301
-448,365,-5.54272,-3.9472,0.00265428,0.00028989,-0.00166968,0.00351791,-0.000573741,-0.477348,0.00255806,0.0214052,776,659,-5.54274,3.94718
-441,365,-5.38928,-4.349,0,0,0,0,0,0,0,-1,783,659,-5.3893,4.34897
-434,365,-5.45056,-3.98041,0,0,0,0,0,0,0,-1,790,659,-5.45055,3.98042
-427,365,-5.05377,-4.74689,0,0,0,0,0,0,0,-1,797,659,-5.05376,4.7469
-420,365,-4.58813,-3.16376,0,0,0,0,0,0,0,-1,804,659,-4.58816,3.16374
-413,365,0.141357,0.672729,0,0,0,0,0,0,0,-1,811,659,0.141365,-0.672714
-406,365,-1.75067,-0.934448,0,0,0,0,0,0,0,-1,818,659,-1.7507,0.934424
-399,365,-4.10242,-1.25439,0,0,0,0,0,0,0,-1,825,659,-4.10244,1.25438
-392,365,-7.46545,-0.779724,0,0,0,0,0,0,0,-1,832,659,-7.46543,0.779744
-385,365,-6.27875,-0.887573,0,0,0,0,0,0,0,-1,839,659,-6.27874,0.887545
-378,365,-5.34503,-0.263306,0,0,0,0,0,0,0,-1,846,659,-5.34504,0.263275
-371,365,0,0,0,0,0,0,0,0,0,-1,853,659,0,0
-364,365,0,0,0,0,0,0,0,0,0,-1,860,659,0,0
-357,365,0,0,0,0,0,0,0,0,0,-1,867,659,0,0
-350,365,0,0,0,0,0,0,0,0,0,-1,874,659,0,0
-343,365,0,0,0,0,0,0,0,0,0,-1,881,659,0,0
-336,365,0,0,0,0,0,0,0,0,0,-1,888,659,0,0
-329,365,0,0,0,0,0,0,0,0,0,-1,895,659,0,0
-322,365,0,0,0,0,0,0,0,0,0,-1,902,659,0,0
-315,365,0,0,0,0,0,0,0,0,0,-1,909,659,0,0
-308,365,0,0,0,0,0,0,0,0,0,-1,916,659,0,0
-301,365,0,0,0,0,0,0,0,0,0,-1,923,659,0,0
-294,365,0,0,0,0,0,0,0,0,0,-1,930,659,0,0
-287,365,0,0,0,0,0,0,0,0,0,-1,937,659,0,0
-280,365,0,0,0,0,0,0,0,0,0,-1,944,659,0,0
-273,365,0,0,0,0,0,0,0,0,0,-1,951,659,0,0
-266,365,0,0,0,0,0,0,0,0,0,-1,958,659,0,0
-259,365,0,0,0,0,0,0,0,0,0,-1,965,659,0,0
-252,365,0,0,0,0,0,0,0,0,0,-1,972,659,0,0
-245,365,0,0,0,0,0,0,0,0,0,-1,979,659,0,0
-238,365,0,0,0,0,0,0,0,0,0,-1,986,659,0,0
-231,365,0,0,0,0,0,0,0,0,0,-1,993,659,0,0
-224,365,0,0,0,0,0,0,0,0,0,-1,1000,659,0,0
-217,365,0,0,0,0,0,0,0,0,0,-1,1007,659,0,0
-210,365,0,0,0,0,0,0,0,0,0,-1,1014,659,0,0
-203,365,0,0,0,0,0,0,0,0,0,-1,1021,659,0,0
-196,365,0,0,0,0,0,0,0,0,0,-1,1028,659,0,0
-189,365,0,0,0,0,0,0,0,0,0,-1,1035,659,0,0
-182,365,0,0,0,0,0,0,0,0,0,-1,1042,659,0,0
-175,365,0,0,0,0,0,0,0,0,0,-1,1049,659,0,0
-168,365,0,0,0,0,0,0,0,0,0,-1,1056,659,0,0
-161,365,0,0,0,0,0,0,0,0,0,-1,1063,659,0,0
-154,365,0,0,0,0,0,0,0,0,0,-1,1070,659,0,0
-147,365,0,0,0,0,0,0,0,0,0,-1,1077,659,0,0
-140,365,0,0,0,0,0,0,0,0,0,-1,1084,659,0,0
-133,365,0,0,0,0,0,0,0,0,0,-1,1091,659,0,0
-126,365,0,0,0,0,0,0,0,0,0,-1,1098,659,0,0
-119,365,0,0,0,0,0,0,0,0,0,-1,1105,659,0,0
-112,365,0,0,0,0,0,0,0,0,0,-1,1112,659,0,0
-105,365,0,0,0,0,0,0,0,0,0,-1,1119,659,0,0
-98,365,0,0,0,0,0,0,0,0,0,-1,1126,659,0,0
-91,365,0,0,0,0,0,0,0,0,0,-1,1133,659,0,0
-84,365,0,0,0,0,0,0,0,0,0,-1,1140,659,0,0
-77,365,0,0,0,0,0,0,0,0,0,-1,1147,659,0,0
-70,365,0,0,0,0,0,0,0,0,0,-1,1154,659,0,0
-63,365,0,0,0,0,0,0,0,0,0,-1,1161,659,0,0
-56,365,0,0,0,0,0,0,0,0,0,-1,1168,659,0,0
-49,365,0,0,0,0,0,0,0,0,0,-1,1175,659,0,0
-42,365,0,0,0,0,0,0,0,0,0,-1,1182,659,0,0
-35,365,0,0,0,0,0,0,0,0,0,-1,1189,659,0,0
-28,365,0,0,0,0,0,0,0,0,0,-1,1196,659,0,0
-21,365,0,0,0,0,0,0,0,0,0,-1,1203,659,0,0
-14,365,0,0,0,0,0,0,0,0,0,-1,1210,659,0,0
-7,365,0,0,0,0,0,0,0,0,0,-1,1217,659,0,0
0,365,0,0,0,0,0,0,0,0,0,-1,1224,659,0,0
7,365,0,0,0,0,0,0,0,0,0,-1,1231,659,0,0
14,365,0,0,0,0,0,0,0,0,0,-1,1238,659,0,0
21,365,0,0,0,0,0,0,0,0,0,-1,1245,659,0,0
28,365,0,0,0,0,0,0,0,0,0,-1,1252,659,0,0
35,365,0,0,0,0,0,0,0,0,0,-1,1259,659,0,0
42,365,0,0,0,0,0,0,0,0,0,-1,1266,659,0,0
49,365,0,0,0,0,0,0,0,0,0,-1,1273,659,0,0
56,365,0,0,0,0,0,0,0,0,0,-1,1280,659,0,0
63,365,0,0,0,0,0,0,0,0,0,-1,1287,659,0,0
70,365,0,0,0,0,0,0,0,0,0,-1,1294,659,0,0
77,365,0,0,0,0,0,0,0,0,0,-1,1301,659,0,0
84,365,0,0,0,0,0,0,0,0,0,-1,1308,659,0,0
91,365,0,0,0,0,0,0,0,0,0,-1,1315,659,0,0
98,365,0,0,0,0,0,0,0,0,0,-1,1322,659,0,0
105,365,0,0,0,0,0,0,0,0,0,-1,1329,659,0,0
112,365,0,0,0,0,0,0,0,0,0,-1,1336,659,0,0
119,365,0,0,0,0,0,0,0,0,0,-1,1343,659,0,0
126,365,0,0,0,0,0,0,0,0,0,-1,1350,659,0,0
133,365,0,0,0,0,0,0,0,0,0,-1,1357,659,0,0
140,365,0,0,0,0,0,0,0,0,0,-1,1364,659,0,0
147,365,0,0,0,0,0,0,0,0,0,-1,1371,659,0,0
154,365,0,0,0,0,0,0,0,0,0,-1,1378,659,0,0
161,365,0,0,0,0,0,0,0,0,0,-1,1385,659,0,0
168,365,0,0,0,0,0,0,0,0,0,-1,1392,659,0,0
175,365,0,0,0,0,0,0,0,0,0,-1,1399,659,0,0
182,365,0,0,0,0,0,0,0,0,0,-1,1406,659,0,0
189,365,0,0,0,0,0,0,0,0,0,-1,1413,659,0,0
196,365,0,0,0,0,0,0,0,0,0,-1,1420,659,0,0
203,365,0,0,0,0,0,0,0,0,0,-1,1427,659,0,0
210,365,0,0,0,0,0,0,0,0,0,-1,1434,659,0,0
217,365,0,0,0,0,0,0,0,0,0,-1,1441,659,0,0
224,365,0,0,0,0,0,0,0,0,0,-1,1448,659,0,0
231,365,0,0,0,0,0,0,0,0,0,-1,1455,659,0,0
238,365,0,0,0,0,0,0,0,0,0,-1,1462,659,0,0
245,365,0,0,0,0,0,0,0,0,0,-1,1469,659,0,0
252,365,0,0,0,0,0,0,0,0,0,-1,1476,659,0,0
259,365,0,0,0,0,0,0,0,0,0,-1,1483,659,0,0
266,365,0,0,0,0,0,0,0,0,0,-1,1490,659,0,0
273,365,0,0,0,0,0,0,0,0,0,-1,1497,659,0,0
280,365,0,0,0,0,0,0,0,0,0,-1,1504,659,0,0
287,365,0,0,0,0,0,0,0,0,0,-1,1511,659,0,0
294,365,0,0,0,0,0,0,0,0,0,-1,1518,659,0,0
301,365,0,0,0,0,0,0,0,0,0,-1,1525,659,0,0
308,365,0,0,0,0,0,0,0,0,0,-1,1532,659,0,0
315,365,0,0,0,0,0,0,0,0,0,-1,1539,659,0,0
322,365,0,0,0,0,0,0,0,0,0,-1,1546,659,0,0
329,365,0,0,0,0,0,0,0,0,0,-1,1553,659,0,0
336,365,0,0,0,0,0,0,0,0,0,-1,1560,659,0,0
343,365,0,0,0,0,0,0,0,0,0,-1,1567,659,0,0
350,365,0,0,0,0,0,0,0,0,0,-1,1574,659,0,0
357,365,0,0,0,0,0,0,0,0,0,-1,1581,659,0,0
364,365,0,0,0,0,0,0,0,0,0,-1,1588,659,0,0
371,365,0,0,0,0,0,0,0,0,0,-1,1595,659,0,0
378,365,0,0,0,0,0,0,0,0,0,-1,1602,659,0,0
385,365,0,0,0,0,0,0,0,0,0,-1,1609,659,0,0
392,365,0,0,0,0,0,0,0,0,0,-1,1616,659,0,0
399,365,0,0,0,0,0,0,0,0,0,-1,1623,659,0,0
406,365,0,0,0,0,0,0,0,0,0,-1,1630,659,0,0
413,365,0,0,0,0,0,0,0,0,0,-1,1637,659,0,0
420,365,0,0,0,0,0,0,0,0,0,-1,1644,659,0,0
427,365,0,0,0,0,0,0,0,0,0,-1,1651,659,0,0
434,365,0,0,0,0,0,0,0,0,0,-1,1658,659,0,0
441,365,0,0,0,0,0,0,0,0,0,-1,1665,659,0,0
448,365,0,0,0,0,0,0,0,0,0,-1,1672,659,0,0
455,365,0,0,0,0,0,0,0,0,0,-1,1679,659,0,0
462,365,0,0,0,0,0,0,0,0,0,-1,1686,659,0,0
469,365,0,0,0,0,0,0,0,0,0,-1,1693,659,0,0
476,365,0,0,0,0,0,0,0,0,0,-1,1700,659,0,0
483,365,0,0,0,0,0,0,0,0,0,-1,1707,659,0,0
490,365,8.39551,0.471252,0,0,0,0,0,0,0,-1,1714,659,8.39551,-0.471241
497,365,9.89233,1.35394,0,0,0,0,0,0,0,-1,1721,659,9.89237,-1.35396
504,365,10.1414,1.18005,0,0,0,0,0,0,0,-1,1728,659,10.1413,-1.18004
511,365,10.5151,0.993896,0,0,0,0,0,0,0,-1,1735,659,10.5152,-0.993894
518,365,11.2029,0.398132,0,0,0,0,0,0,0,-1,1742,659,11.2029,-0.398136
525,365,15.5748,3.85303,0,0,0,0,0,0,0,-1,1749,659,15.5748,-3.85303
532,365,11.2446,1.00629,0,0,0,0,0,0,0,-1,1756,659,11.2446,-1.00631
539,365,12.6301,1.03204,0,0,0,0,0,0,0,-1,1763,659,12.6302,-1.03204
546,365,11.647,0.84198,0,0,0,0,0,0,0,-1,1770,659,11.6469,-0.841955
553,365,12.028,-0.558899,0,0,0,0,0,0,0,-1,1777,659,12.028,0.558873
560,365,11.7889,-3.67474,0,0,0,0,0,0,0,-1,1784,659,11.7889,3.67472
567,365,11.8125,-2.7066,0,0,0,0,0,0,0,-1,1791,659,11.8125,2.70662
574,365,11.9243,-2.29291,-0.00955015,-0.00109476,-0.0047382,0.00102765,-0.0116726,-1.14966,0.0081459,0.0471688,1798,659,11.9244,2.29293
581,365,11.7286,-1.99854,-0.00745677,-0.00163754,-0.00407835,0.000462722,-0.00955703,-1.09524,0.00653106,0.0225749,1805,659,11.7286,1.99852
588,365,11.6897,-1.68292,-0.00540947,-0.00155653,-0.00319816,0.000250571,-0.00721657,-1.05648,0.00489671,0.0131696,1812,659,11.6897,1.68291
595,365,11.7004,-1.35492,-0.00359217,-0.00120359,-0.00228302,0.000178654,-0.00497442,-1.02638,0.00337741,0.0121558,1819,659,11.7005,1.3549
602,365,11.71,-1.07428,-0.00199723,-0.000628932,-0.00135736,0.000206946,-0.00283311,-1.01883,0.00196136,0.0132642,1826,659,11.71,1.07426
609,365,11.6892,-0.796082,-0.000990741,-0.000150809,-0.000666271,0.00021681,-0.00135836,-1.06661,0.000985822,0.0147402,1833,659,11.6892,0.796093
616,365,11.7223,-0.502502,-0.000455947,-1.25616e-06,-0.000359796,0.000197002,-0.000654206,-1.06716,0.000514533,0.0169642,1840,659,11.7223,0.502521
623,365,11.7473,-0.220642,-0.000133114,0.000397453,-0.000254484,0.00049978,-0.000235441,-1.18848,0.000433529,0.0114584,1847,659,11.7473,0.220618
630,365,11.7155,0.0631104,0.000161632,0.000554813,-0.000398487,0.000802564,-8.61195e-05,-1.01455,0.000565938,0.0154245,1854,659,11.7155,-0.063111
637,365,11.703,0.332397,-0.000198853,0.000552431,-0.000990325,0.00123596,-0.000882386,-0.966671,0.00122869,0.0215665,1861,659,11.703,-0.332386
644,365,11.7241,0.609253,-0.000832046,0.000224177,-0.00208127,0.00184329,-0.00245116,-0.909648,0.00248767,0.0159722,1868,659,11.7241,-0.609237
651,365,11.8795,0.92865,-0.00129316,-0.000143781,-0.00350244,0.00283081,-0.00426774,-0.866715,0.00412624,0.0305883,1875,659,11.8795,-0.928637
658,365,11.5134,0.788147,-0.0014418,-0.000532129,-0.00534333,0.00437569,-0.00634961,-0.827857,0.00622712,0.0419284,1882,659,11.5134,-0.78817
665,365,10.9902,1.08405,0,0,0,0,0,0,0,-1,1889,659,10.9902,-1.08404
672,365,10.0579,2.15088,0,0,0,0,0,0,0,-1,1896,659,10.0579,-2.15088
679,365,10.9718,2.19208,0,0,0,0,0,0,0,-1,1903,659,10.9718,-2.19211
686,365,12.2134,2.17108,0,0,0,0,0,0,0,-1,1910,659,12.2134,-2.17109
693,365,13.7141,1.98279,0,0,0,0,0,0,0,-1,1917,659,13.7141,-1.98278
700,365,0,0,0,0,0,0,0,0,0,-1,1924,659,0,0
707,365,0,0,0,0,0,0,0,0,0,-1,1931,659,0,0
714,365,0,0,0,0,0,0,0,0,0,-1,1938,659,0,0
721,365,0,0,0,0,0,0,0,0,0,-1,1945,659,0,0
728,365,0,0,0,0,0,0,0,0,0,-1,1952,659,0,0
735,365,0,0,0,0,0,0,0,0,0,-1,1959,659,0,0
742,365,0,0,0,0,0,0,0,0,0,-1,1966,659,0,0
749,365,0,0,0,0,0,0,0,0,0,-1,1973,659,0,0
756,365,0,0,0,0,0,0,0,0,0,-1,1980,659,0,0
763,365,0,0,0,0,0,0,0,0,0,-1,1987,659,0,0
770,365,0,0,0,0,0,0,0,0,0,-1,1994,659,0,0
777,365,0,0,0,0,0,0,0,0,0,-1,2001,659,0,0
784,365,0,0,0,0,0,0,0,0,0,-1,2008,659,0,0
791,365,0,0,0,0,0,0,0,0,0,-1,2015,659,0,0
798,365,0,0,0,0,0,0,0,0,0,-1,2022,659,0,0
805,365,0,0,0,0,0,0,0,0,0,-1,2029,659,0,0
812,365,0,0,0,0,0,0,0,0,0,-1,2036,659,0,0
-700,358,0,0,0,0,0,0,0,0,0,-1,524,666,0,0
-693,358,0,0,0,0,0,0,0,0,0,-1,531,666,0,0
-686,358,0,0,0,0,0,0,0,0,0,-1,538,666,0,0
-679,358,0,0,0,0,0,0,0,0,0,-1,545,666,0,0
-672,358,0,0,0,0,0,0,0,0,0,-1,552,666,0,0
-665,358,0,0,0,0,0,0,0,0,0,-1,559,666,0,0
-658,358,0,0,0,0,0,0,0,0,0,-1,566,666,0,0
-651,358,0,0,0,0,0,0,0,0,0,-1,573,666,0,0
-644,358,0,0,0,0,0,0,0,0,0,-1,580,666,0,0
-637,358,0,0,0,0,0,0,0,0,0,-1,587,666,0,0
-630,358,0,0,0,0,0,0,0,0,0,-1,594,666,0,0
-623,358,0,0,0,0,0,0,0,0,0,-1,601,666,0,0
-616,358,0,0,0,0,0,0,0,0,0,-1,608,666,0,0
-609,358,0,0,0,0,0,0,0,0,0,-1,615,666,0,0
-602,358,0,0,0,0,0,0,0,0,0,-1,622,666,0,0
-595,358,0,0,0,0,0,0,0,0,0,-1,629,666,0,0
-588,358,0,0,0,0,0,0,0,0,0,-1,636,666,0,0
-581,358,-3.12964,0.277771,0,0,0,0,0,0,0,-1,643,666,-3.12965,-0.277791
-574,358,-3.58069,-0.14679,0,0,0,0,0,0,0,-1,650,666,-3.58067,0.146818
-567,358,-5.35767,2.41486,0,0,0,0,0,0,0,-1,657,666,-5.35765,-2.41485
-560,358,-5.47229,1.78088,0,0,0,0,0,0,0,-1,664,666,-5.47226,-1.7809
-553,358,-5.46954,0.854248,0,0,0,0,0,0,0,-1,671,666,-5.46952,-0.854246
-546,358,-4.82397,0.340149,0,0,0,0,0,0,0,-1,678,666,-4.82396,-0.34015
-539,358,-6.41034,-0.180115,0,0,0,0,0,0,0,-1,685,666,-6.41034,0.180097
-532,358,-6.23315,-0.722839,0.00165518,0.00929964,-0.00439886,0.0113049,-0.000350066,-1.14308,0.00765594,0.0426748,692,666,-6.23313,0.72286
-525,358,-5.82739,-1.11249,0.000760611,0.0059711,-0.00262586,0.00706484,-0.000333125,-1.17613,0.00482477,0.0325152,699,666,-5.82741,1.11249
-518,358,-5.78894,-1.19806,0.00027887,0.00388771,-0.00140608,0.00437087,-0.000204283,-1.23982,0.00298434,0.0276728,706,666,-5.78894,1.19808
-511,358,-5.86346,-1.50824,0.000146521,0.00240433,-0.000673271,0.00258986,-3.90013e-05,-1.30192,0.00173972,0.0152649,713,666,-5.86346,1.50821
-504,358,-5.86682,-1.76959,0.000246042,0.00142792,-0.000285751,0.00149338,0.00018058,-1.34559,0.000941188,0.0117151,720,666,-5.8668,1.76958
-497,358,-5.86914,-2.05615,0.000535042,0.000506449,-0.00014743,0.000668867,0.000372624,-0.737064,0.000387009,0.0111674,727,666,-5.86915,2.05613
-490,358,-5.85504,-2.31683,0.00102005,0.000221019,-0.000303689,0.00112237,0.000118698,-0.324982,0.000711984,0.0104562,734,666,-5.85503,2.3168
-483,358,-5.86938,-2.56927,0.00163871,0.000170517,-0.000638857,0.00187777,-6.85432e-05,-0.35807,0.00127531,0.0103053,741,666,-5.8694,2.56926
-476,358,-5.85712,-2.81854,0.00238196,0.00025894,-0.00117266,0.0029022,-0.000261298,-0.417553,0.00202752,0.0111333,748,666,-5.85713,2.81856
-469,358,-5.85834,-3.08185,0.00317626,0.000411106,-0.00184975,0.00410303,-0.000515665,-0.464467,0.00292245,0.0128227,755,666,-5.85835,3.08183
-462,358,-5.87122,-3.35712,0.00363202,0.000409718,-0.00222487,0.00476784,-0.000726103,-0.472021,0.00344619,0.0162092,762,666,-5.8712,3.35713
-455,358,-5.84094,-3.64252,0.00377107,0.00068683,-0.00244451,0.00511924,-0.000661338,-0.504001,0.00365328,0.0231639,769,666,-5.84092,3.64249
-448,358,-5.7345,-3.98083,0,0,0,0,0,0,0,-1,776,666,-5.73452,3.98082
-441,358,-5.56293,-3.98041,0,0,0,0,0,0,0,-1,783,666,-5.56291,3.98043
-434,358,-5.21558,-4.43127,0,0,0,0,0,0,0,-1,790,666,-5.21559,4.43125
-427,358,-3.56189,-3.15729,0,0,0,0,0,0,0,-1,797,666,-3.56192,3.15729
-420,358,0.200195,1.08234,0,0,0,0,0,0,0,-1,804,666,0.200174,-1.08231
-413,358,0.0325317,0.161072,0,0,0,0,0,0,0,-1,811,666,0.0325501,-0.161098
-406,358,-3.85846,0.753113,0,0,0,0,0,0,0,-1,818,666,-3.85846,-0.753129
-399,358,-1.31213,0.190735,0,0,0,0,0,0,0,-1,825,666,-1.31215,-0.190763
-392,358,-3.73914,-0.832214,0,0,0,0,0,0,0,-1,832,666,-3.73915,0.832202
-385,358,-5.95178,-1.69141,0,0,0,0,0,0,0,-1,839,666,-5.9518,1.69143
-378,358,0,0,0,0,0,0,0,0,0,-1,846,666,0,0
-371,358,0,0,0,0,0,0,0,0,0,-1,853,666,0,0
-364,358,0,0,0,0,0,0,0,0,0,-1,860,666,0,0
-357,358,0,0,0,0,0,0,0,0,0,-1,867,666,0,0
-350,358,0,0,0,0,0,0,0,0,0,-1,874,666,0,0
-343,358,0,0,0,0,0,0,0,0,0,-1,881,666,0,0
-336,358,0,0,0,0,0,0,0,0,0,-1,888,666,0,0
-329,358,0,0,0,0,0,0,0,0,0,-1,895,666,0,0
-322,358,0,0,0,0,0,0,0,0,0,-1,902,666,0,0
-315,358,0,0,0,0,0,0,0,0,0,-1,909,666,0,0
-308,358,0,0,0,0,0,0,0,0,0,-1,916,666,0,0
-301,358,0,0,0,0,0,0,0,0,0,-1,923,666,0,0
-294,358,0,0,0,0,0,0,0,0,0,-1,930,666,0,0
-287,358,0,0,0,0,0,0,0,0,0,-1,937,666,0,0
-280,358,0,0,0,0,0,0,0,0,0,-1,944,666,0,0
-273,358,0,0,0,0,0,0,0,0,0,-1,951,666,0,0
-266,358,0,0,0,0,0,0,0,0,0,-1,958,666,0,0
-259,358,0,0,0,0,0,0,0,0,0,-1,965,666,0,0
-252,358,0,0,0,0,0,0,0,0,0,-1,972,666,0,0
-245,358,0,0,0,0,0,0,0,0,0,-1,979,666,0,0
-238,358,0,0,0,0,0,0,0,0,0,-1,986,666,0,0
-231,358,0,0,0,0,0,0,0,0,0,-1,993,666,0,0
-224,358,0,0,0,0,0,0,0,0,0,-1,1000,666,0,0
-217,358,0,0,0,0,0,0,0,0,0,-1,1007,666,0,0
-210,358,0,0,0,0,0,0,0,0,0,-1,1014,666,0,0
-203,358,0,0,0,0,0,0,0,0,0,-1,1021,666,0,0
-196,358,0,0,0,0,0,0,0,0,0,-1,1028,666,0,0
-189,358,0,0,0,0,0,0,0,0,0,-1,1035,666,0,0
-182,358,0,0,0,0,0,0,0,0,0,-1,1042,666,0,0
-175,358,0,0,0,0,0,0,0,0,0,-1,1049,666,0,0
-168,358,0,0,0,0,0,0,0,0,0,-1,1056,666,0,0
-161,358,0,0,0,0,0,0,0,0,0,-1,1063,666,0,0
-154,358,0,0,0,0,0,0,0,0,0,-1,1070,666,0,0
-147,358,0,0,0,0,0,0,0,0,0,-1,1077,666,0,0
-140,358,0,0,0,0,0,0,0,0,0,-1,1084,666,0,0
-133,358,0,0,0,0,0,0,0,0,0,-1,1091,666,0,0
-126,358,0,0,0,0,0,0,0,0,0,-1,1098,666,0,0
-119,358,0,0,0,0,0,0,0,0,0,-1,1105,666,0,0
-112,358,0,0,0,0,0,0,0,0,0,-1,1112,666,0,0
-105,358,0,0,0,0,0,0,0,0,0,-1,1119,666,0,0
-98,358,0,0,0,0,0,0,0,0,0,-1,1126,666,0,0
-91,358,0,0,0,0,0,0,0,0,0,-1,1133,666,0,0
-84,358,0,0,0,0,0,0,0,0,0,-1,1140,666,0,0
-77,358,0,0,0,0,0,0,0,0,0,-1,1147,666,0,0
-70,358,0,0,0,0,0,0,0,0,0,-1,1154,666,0,0
-63,358,0,0,0,0,0,0,0,0,0,-1,1161,666,0,0
-56,358,0,0,0,0,0,0,0,0,0,-1,1168,666,0,0
-49,358,0,0,0,0,0,0,0,0,0,-1,1175,666,0,0
-42,358,0,0,0,0,0,0,0,0,0,-1,1182,666,0,0
-35,358,0,0,0,0,0,0,0,0,0,-1,1189,666,0,0
-28,358,0,0,0,0,0,0,0,0,0,-1,1196,666,0,0
-21,358,0,0,0,0,0,0,0,0,0,-1,1203,666,0,0
-14,358,0,0,0,0,0,0,0,0,0,-1,1210,666,0,0
-7,358,0,0,0,0,0,0,0,0,0,-1,1217,666,0,0
0,358,0,0,0,0,0,0,0,0,0,-1,1224,666,0,0
7,358,0,0,0,0,0,0,0,0,0,-1,1231,666,0,0
14,358,0,0,0,0,0,0,0,0,0,-1,1238,666,0,0
21,358,0,0,0,0,0,0,0,0,0,-1,1245,666,0,0
28,358,0,0,0,0,0,0,0,0,0,-1,1252,666,0,0
35,358,0,0,0,0,0,0,0,0,0,-1,1259,666,0,0
42,358,0,0,0,0,0,0,0,0,0,-1,1266,666,0,0
49,358,0,0,0,0,0,0,0,0,0,-1,1273,666,0,0
56,358,0,0,0,0,0,0,0,0,0,-1,1280,666,0,0
63,358,0,0,0,0,0,0,0,0,0,-1,1287,666,0,0
70,358,0,0,0,0,0,0,0,0,0,-1,1294,666,0,0
77,358,0,0,0,0,0,0,0,0,0,-1,1301,666,0,0
84,358,0,0,0,0,0,0,0,0,0,-1,1308,666,0,0
91,358,0,0,0,0,0,0,0,0,0,-1,1315,666,0,0
98,358,0,0,0,0,0,0,0,0,0,-1,1322,666,0,0
105,358,0,0,0,0,0,0,0,0,0,-1,1329,666,0,0
112,358,0,0,0,0,0,0,0,0,0,-1,1336,666,0,0
119,358,0,0,0,0,0,0,0,0,0,-1,1343,666,0,0
126,358,0,0,0,0,0,0,0,0,0,-1,1350,666,0,0
133,358,0,0,0,0,0,0,0,0,0,-1,1357,666,0,0
140,358,0,0,0,0,0,0,0,0,0,-1,1364,666,0,0
147,358,0,0,0,0,0,0,0,0,0,-1,1371,666,0,0
154,358,0,0,0,0,0,0,0,0,0,-1,1378,666,0,0
161,358,0,0,0,0,0,0,0,0,0,-1,1385,666,0,0
168,358,0,0,0,0,0,0,0,0,0,-1,1392,666,0,0
175,358,0,0,0,0,0,0,0,0,0,-1,1399,666,0,0
182,358,0,0,0,0,0,0,0,0,0,-1,1406,666,0,0
189,358,0,0,0,0,0,0,0,0,0,-1,1413,666,0,0
196,358,0,0,0,0,0,0,0,0,0,-1,1420,666,0,0
203,358,0,0,0,0,0,0,0,0,0,-1,1427,666,0,0
210,358,0,0,0,0,0,0,0,0,0,-1,1434,666,0,0
217,358,0,0,0,0,0,0,0,0,0,-1,1441,666,0,0
224,358,0,0,0,0,0,0,0,0,0,-1,1448,666,0,0
231,358,0,0,0,0,0,0,0,0,0,-1,1455,666,0,0
238,358,0,0,0,0,0,0,0,0,0,-1,1462,666,0,0
245,358,0,0,0,0,0,0,0,0,0,-1,1469,666,0,0
252,358,0,0,0,0,0,0,0,0,0,-1,1476,666,0,0
259,358,0,0,0,0,0,0,0,0,0,-1,1483,666,0,0
266,358,0,0,0,0,0,0,0,0,0,-1,1490,666,0,0
273,358,0,0,0,0,0,0,0,0,0,-1,1497,666,0,0
280,358,0,0,0,0,0,0,0,0,0,-1,1504,666,0,0
287,358,0,0,0,0,0,0,0,0,0,-1,1511,666,0,0
294,358,0,0,0,0,0,0,0,0,0,-1,1518,666,0,0
301,358,0,0,0,0,0,0,0,0,0,-1,1525,666,0,0
308,358,0,0,0,0,0,0,0,0,0,-1,1532,666,0,0
315,358,0,0,0,0,0,0,0,0,0,-1,1539,666,0,0
322,358,0,0,0,0,0,0,0,0,0,-1,1546,666,0,0
329,358,0,0,0,0,0,0,0,0,0,-1,1553,666,0,0
336,358,0,0,0,0,0,0,0,0,0,-1,1560,666,0,0
343,358,0,0,0,0,0,0,0,0,0,-1,1567,666,0,0
350,358,0,0,0,0,0,0,0,0,0,-1,1574,666,0,0
357,358,0,0,0,0,0,0,0,0,0,-1,1581,666,0,0
364,358,0,0,0,0,0,0,0,0,0,-1,1588,666,0,0
371,358,0,0,0,0,0,0,0,0,0,-1,1595,666,0,0
378,358,0,0,0,0,0,0,0,0,0,-1,1602,666,0,0
385,358,0,0,0,0,0,0,0,0,0,-1,1609,666,0,0
392,358,0,0,0,0,0,0,0,0,0,-1,1616,666,0,0
399,358,0,0,0,0,0,0,0,0,0,-1,1623,666,0,0
406,358,0,0,0,0,0,0,0,0,0,-1,1630,666,0,0
413,358,0,0,0,0,0,0,0,0,0,-1,1637,666,0,0
420,358,0,0,0,0,0,0,0,0,0,-1,1644,666,0,0
427,358,0,0,0,0,0,0,0,0,0,-1,1651,666,0,0
434,358,0,0,0,0,0,0,0,0,0,-1,1658,666,0,0
441,358,0,0,0,0,0,0,0,0,0,-1,1665,666,0,0
448,358,0,0,0,0,0,0,0,0,0,-1,1672,666,0,0
455,358,0,0,0,0,0,0,0,0,0,-1,1679,666,0,0
462,358,0,0,0,0,0,0,0,0,0,-1,1686,666,0,0
469,358,0,0,0,0,0,0,0,0,0,-1,1693,666,0,0
476,358,0,0,0,0,0,0,0,0,0,-1,1700,666,0,0
483,358,0,0,0,0,0,0,0,0,0,-1,1707,666,0,0
490,358,0,0,0,0,0,0,0,0,0,-1,1714,666,0,0
497,358,8.57239,1.1322,0,0,0,0,0,0,0,-1,1721,666,8.57234,-1.13219
504,358,10.5972,0.832947,0,0,0,0,0,0,0,-1,1728,666,10.5972,-0.832968
511,358,10.6873,0.868469,0,0,0,0,0,0,0,-1,1735,666,10.6872,-0.868484
518,358,16.5884,2.34894,0,0,0,0,0,0,0,-1,1742,666,16.5884,-2.34894
525,358,15.7626,3.65344,0,0,0,0,0,0,0,-1,1749,666,15.7626,-3.65342
532,358,14.9368,4.95789,0,0,0,0,0,0,0,-1,1756,666,14.9367,-4.9579
539,358,15.1597,3.42694,0,0,0,0,0,0,0,-1,1763,666,15.1597,-3.42692
546,358,12.3792,1.53558,0,0,0,0,0,0,0,-1,1770,666,12.3792,-1.5356
553,358,11.6584,1.26172,0,0,0,0,0,0,0,-1,1777,666,11.6585,-1.26175
560,358,10.8234,1.43042,0,0,0,0,0,0,0,-1,1784,666,10.8233,-1.43041
567,358,10.1333,-0.955139,0,0,0,0,0,0,0,-1,1791,666,10.1333,0.955132
574,358,12.4172,-2.17157,0,0,0,0,0,0,0,-1,1798,666,12.4172,2.17159
581,358,12.1428,-1.88495,-0.0041875,-0.00337061,-0.00285671,-0.000893301,-0.00666482,-0.856406,0.0041774,0.0344621,1805,666,12.1428,1.88497
588,358,11.9578,-1.66803,-0.00327915,-0.00289482,-0.00247226,-0.000607271,-0.00556671,-0.824185,0.00352619,0.0172385,1812,666,11.9577,1.66801
595,358,12.0156,-1.33936,-0.00234444,-0.00225347,-0.00193109,-0.000367328,-0.00423058,-0.797172,0.00270627,0.0112764,1819,666,12.0156,1.33933
602,358,11.9896,-1.05188,-0.00138049,-0.00148949,-0.00129872,-0.000135127,-0.00273485,-0.764429,0.0017799,0.0118564,1826,666,11.9897,1.05188
609,358,11.9454,-0.813843,-0.000744363,-0.000820942,-0.000776582,-5.12693e-06,-0.00156018,-0.760766,0.00103841,0.0149037,1833,666,11.9454,0.813866
616,358,11.978,-0.503052,-0.000455164,-0.000599722,-0.000596391,7.3312e-05,-0.0011282,-0.725096,0.000777722,0.0148303,1840,666,11.978,0.503056
623,358,12.0273,-0.216064,-0.00035164,-0.000165737,-0.000583646,0.000332313,-0.00084969,-0.864365,0.000703884,0.0141914,1847,666,12.0274,0.216075
630,358,12.0189,0.045166,-0.000186116,-2.312e-05,-0.000737567,0.000637438,-0.000846674,-0.840423,0.000859686,0.017453,1854,666,12.0189,-0.0451526
637,358,11.9919,0.331177,-0.000383738,0.000142866,-0.00116795,0.00107683,-0.0013177,-0.896264,0.00138481,0.0241855,1861,666,11.9919,-0.331194
644,358,11.9851,0.593018,-0.000931499,-8.909e-05,-0.00212882,0.00165979,-0.00268038,-0.883066,0.00252879,0.019425,1868,666,11.9851,-0.593008
651,358,12.0743,0.929382,-0.00137609,-0.000357627,-0.00336817,0.00253959,-0.00427331,-0.860424,0.00397566,0.0209481,1875,666,12.0744,-0.929382
658,358,11.8173,1.11743,-0.00152901,-0.000560382,-0.00488616,0.00386541,-0.0059548,-0.834797,0.00571232,0.0354423,1882,666,11.8172,-1.11743
665,358,11.4404,1.16498,-6.69442e-05,0.000552212,-0.00575502,0.00600598,-0.00552071,-0.812269,0.0066569,0.0458572,1889,666,11.4404,-1.165
672,358,11.1783,1.33667,0,0,0,0,0,0,0,-1,1896,666,11.1783,-1.33669
679,358,12.1294,2.19702,0,0,0,0,0,0,0,-1,1903,666,12.1294,-2.19703
686,358,11.9557,2.2002,0,0,0,0,0,0,0,-1,1910,666,11.9557,-2.20021
693,358,13.188,2.52203,0,0,0,0,0,0,0,-1,1917,666,13.188,-2.52202
700,358,0,0,0,0,0,0,0,0,0,-1,1924,666,0,0
707,358,0,0,0,0,0,0,0,0,0,-1,1931,666,0,0
714,358,0,0,0,0,0,0,0,0,0,-1,1938,666,0,0
721,358,0,0,0,0,0,0,0,0,0,-1,1945,666,0,0
728,358,0,0,0,0,0,0,0,0,0,-1,1952,666,0,0
735,358,0,0,0,0,0,0,0,0,0,-1,1959,666,0,0
742,358,0,0,0,0,0,0,0,0,0,-1,1966,666,0,0
749,358,0,0,0,0,0,0,0,0,0,-1,1973,666,0,0
756,358,0,0,0,0,0,0,0,0,0,-1,1980,666,0,0
763,358,0,0,0,0,0,0,0,0,0,-1,1987,666,0,0
770,358,0,0,0,0,0,0,0,0,0,-1,1994,666,0,0
777,358,0,0,0,0,0,0,0,0,0,-1,2001,666,0,0
784,358,0,0,0,0,0,0,0,0,0,-1,2008,666,0,0
791,358,0,0,0,0,0,0,0,0,0,-1,2015,666,0,0
798,358,0,0,0,0,0,0,0,0,0,-1,2022,666,0,0
805,358,0,0,0,0,0,0,0,0,0,-1,2029,666,0,0
812,358,0,0,0,0,0,0,0,0,0,-1,2036,666,0,0
-700,351,0,0,0,0,0,0,0,0,0,-1,524,673,0,0
-693,351,0,0,0,0,0,0,0,0,0,-1,531,673,0,0
-686,351,0,0,0,0,0,0,0,0,0,-1,538,673,0,0
-679,351,0,0,0,0,0,0,0,0,0,-1,545,673,0,0
-672,351,0,0,0,0,0,0,0,0,0,-1,552,673,0,0
-665,351,0,0,0,0,0,0,0,0,0,-1,559,673,0,0
-658,351,0,0,0,0,0,0,0,0,0,-1,566,673,0,0
-651,351,0,0,0,0,0,0,0,0,0,-1,573,673,0,0
-644,351,0,0,0,0,0,0,0,0,0,-1,580,673,0,0
-637,351,0,0,0,0,0,0,0,0,0,-1,587,673,0,0
-630,351,0,0,0,0,0,0,0,0,0,-1,594,673,0,0
-623,351,0,0,0,0,0,0,0,0,0,-1,601,673,0,0
-616,351,0,0,0,0,0,0,0,0,0,-1,608,673,0,0
-609,351,0,0,0,0,0,0,0,0,0,-1,615,673,0,0
-602,351,0,0,0,0,0,0,0,0,0,-1,622,673,0,0
-595,351,0,0,0,0,0,0,0,0,0,-1,629,673,0,0
-588,351,0,0,0,0,0,0,0,0,0,-1,636,673,0,0
-581,351,-4.08875,0.467529,0,0,0,0,0,0,0,-1,643,673,-4.08874,-0.467548
-574,351,-4.07184,0.444153,0,0,0,0,0,0,0,-1,650,673,-4.07181,-0.444158
-567,351,-4.36963,-0.291565,0,0,0,0,0,0,0,-1,657,673,-4.36964,0.291565
-560,351,-6.08575,0.773071,0,0,0,0,0,0,0,-1,664,673,-6.08577,-0.773096
-553,351,-5.5719,0.566406,0,0,0,0,0,0,0,-1,671,673,-5.57187,-0.566423
-546,351,-5.69189,0.167114,0,0,0,0,0,0,0,-1,678,673,-5.69188,-0.167109
-539,351,-6.05762,-0.236389,0.00121254,0.0142122,-0.00582235,0.0164386,-0.00101388,-1.20556,0.0113122,0.0450858,685,673,-6.05765,0.236413
-532,351,-6.02417,-0.674316,0.000774462,0.00939253,-0.00394681,0.0109269,-0.000759882,-1.20002,0.00755063,0.0322913,692,673,-6.02415,0.674309
-525,351,-6.09119,-1.04315,0.000487821,0.00609556,-0.00255035,0.00708194,-0.000498556,-1.20175,0.00489595,0.0222852,699,673,-6.09121,1.04318
-518,351,-6.13635,-1.21942,0.000380863,0.00387327,-0.00157533,0.00447885,-0.00022472,-1.2038,0.00306356,0.0126788,706,673,-6.13637,1.21942
-511,351,-6.11951,-1.47772,0.000522959,0.002342,-0.000949776,0.00274751,0.000117449,-1.16727,0.0017938,0.0119529,713,673,-6.11952,1.47772
-504,351,-6.13123,-1.75641,0.00081642,0.00133809,-0.000569902,0.00170401,0.000450499,-1.00001,0.00101958,0.0108108,720,673,-6.13125,1.75644
-497,351,-6.13672,-2.02057,0.00114858,0.000377428,-0.000424396,0.0013364,0.000189609,-0.416644,0.000834937,0.0104446,727,673,-6.1367,2.02055
-490,351,-6.12732,-2.27771,0.00168038,7.63662e-05,-0.000572548,0.00186378,-0.000107034,-0.309995,0.00127969,0.00988866,734,673,-6.1273,2.27773
-483,351,-6.13104,-2.54901,0.0023548,2.17487e-05,-0.000915372,0.00267107,-0.000294522,-0.33267,0.00188657,0.0116697,741,673,-6.13104,2.54902
-476,351,-6.13751,-2.8194,0.00321333,9.19645e-05,-0.00152525,0.00383487,-0.00052958,-0.386958,0.00275016,0.0109802,748,673,-6.1375,2.8194
-469,351,-6.12671,-3.07056,0.00412634,0.000208396,-0.00223637,0.0051404,-0.000805668,-0.425712,0.00372465,0.0127503,755,673,-6.12671,3.07055
-462,351,-6.12006,-3.35699,0.0047288,0.000213294,-0.00266615,0.00596473,-0.00102264,-0.434076,0.00435755,0.0184136,762,673,-6.12005,3.35698
-455,351,-6.10596,-3.65924,0,0,0,0,0,0,0,-1,769,673,-6.10597,3.65925
-448,351,-5.53693,-3.57275,0,0,0,0,0,0,0,-1,776,673,-5.53694,3.57273
-441,351,-4.31567,-2.3009,0,0,0,0,0,0,0,-1,783,673,-4.31565,2.30089
-434,351,-3.81708,-2.28003,0,0,0,0,0,0,0,-1,790,673,-3.81706,2.28006
-427,351,-2.05157,-2.7785,0,0,0,0,0,0,0,-1,797,673,-2.05157,2.77848
-420,351,-1.06989,-2.43665,0,0,0,0,0,0,0,-1,804,673,-1.06991,2.43663
-413,351,-0.392334,-2.06671,0,0,0,0,0,0,0,-1,811,673,-0.392363,2.06672
-406,351,-1.86316,-2.58105,0,0,0,0,0,0,0,-1,818,673,-1.86313,2.58106
-399,351,1.00952,-1.53455,0,0,0,0,0,0,0,-1,825,673,1.00954,1.53457
-392,351,-1.02197,0.877136,0,0,0,0,0,0,0,-1,832,673,-1.02195,-0.877143
-385,351,-1.47205,1.04437,0,0,0,0,0,0,0,-1,839,673,-1.47207,-1.04435
-378,351,0,0,0,0,0,0,0,0,0,-1,846,673,0,0
-371,351,0,0,0,0,0,0,0,0,0,-1,853,673,0,0
-364,351,0,0,0,0,0,0,0,0,0,-1,860,673,0,0
-357,351,0,0,0,0,0,0,0,0,0,-1,867,673,0,0
-350,351,0,0,0,0,0,0,0,0,0,-1,874,673,0,0
-343,351,0,0,0,0,0,0,0,0,0,-1,881,673,0,0
-336,351,0,0,0,0,0,0,0,0,0,-1,888,673,0,0
-329,351,0,0,0,0,0,0,0,0,0,-1,895,673,0,0
-322,351,0,0,0,0,0,0,0,0,0,-1,902,673,0,0
-315,351,0,0,0,0,0,0,0,0,0,-1,909,673,0,0
-308,351,0,0,0,0,0,0,0,0,0,-1,916,673,0,0
-301,351,0,0,0,0,0,0,0,0,0,-1,923,673,0,0
-294,351,0,0,0,0,0,0,0,0,0,-1,930,673,0,0
-287,351,0,0,0,0,0,0,0,0,0,-1,937,673,0,0
-280,351,0,0,0,0,0,0,0,0,0,-1,944,673,0,0
-273,351,0,0,0,0,0,0,0,0,0,-1,951,673,0,0
-266,351,0,0,0,0,0,0,0,0,0,-1,958,673,0,0
-259,351,0,0,0,0,0,0,0,0,0,-1,965,673,0,0
-252,351,0,0,0,0,0,0,0,0,0,-1,972,673,0,0
-245,351,0,0,0,0,0,0,0,0,0,-1,979,673,0,0
-238,351,0,0,0,0,0,0,0,0,0,-1,986,673,0,0
-231,351,0,0,0,0,0,0,0,0,0,-1,993,673,0,0
-224,351,0,0,0,0,0,0,0,0,0,-1,1000,673,0,0
-217,351,0,0,0,0,0,0,0,0,0,-1,1007,673,0,0
-210,351,0,0,0,0,0,0,0,0,0,-1,1014,673,0,0
-203,351,0,0,0,0,0,0,0,0,0,-1,1021,673,0,0
-196,351,0,0,0,0,0,0,0,0,0,-1,1028,673,0,0
-189,351,0,0,0,0,0,0,0,0,0,-1,1035,673,0,0
-182,351,0,0,0,0,0,0,0,0,0,-1,1042,673,0,0
-175,351,0,0,0,0,0,0,0,0,0,-1,1049,673,0,0
-168,351,0,0,0,0,0,0,0,0,0,-1,1056,673,0,0
-161,351,0,0,0,0,0,0,0,0,0,-1,1063,673,0,0
-154,351,0,0,0,0,0,0,0,0,0,-1,1070,673,0,0
-147,351,0,0,0,0,0,0,0,0,0,-1,1077,673,0,0
-140,351,0,0,0,0,0,0,0,0,0,-1,1084,673,0,0
-133,351,0,0,0,0,0,0,0,0,0,-1,1091,673,0,0
-126,351,0,0,0,0,0,0,0,0,0,-1,1098,673,0,0
-119,351,0,0,0,0,0,0,0,0,0,-1,1105,673,0,0
-112,351,0,0,0,0,0,0,0,0,0,-1,1112,673,0,0
-105,351,0,0,0,0,0,0,0,0,0,-1,1119,673,0,0
-98,351,0,0,0,0,0,0,0,0,0,-1,1126,673,0,0
-91,351,0,0,0,0,0,0,0,0,0,-1,1133,673,0,0
-84,351,0,0,0,0,0,0,0,0,0,-1,1140,673,0,0
-77,351,0,0,0,0,0,0,0,0,0,-1,1147,673,0,0
-70,351,0,0,0,0,0,0,0,0,0,-1,1154,673,0,0
-63,351,0,0,0,0,0,0,0,0,0,-1,1161,673,0,0
-56,351,0,0,0,0,0,0,0,0,0,-1,1168,673,0,0
-49,351,0,0,0,0,0,0,0,0,0,-1,1175,673,0,0
-42,351,0,0,0,0,0,0,0,0,0,-1,1182,673,0,0
-35,351,0,0,0,0,0,0,0,0,0,-1,1189,673,0,0
-28,351,0,0,0,0,0,0,0,0,0,-1,1196,673,0,0
-21,351,0,0,0,0,0,0,0,0,0,-1,1203,673,0,0
-14,351,0,0,0,0,0,0,0,0,0,-1,1210,673,0,0
-7,351,0,0,0,0,0,0,0,0,0,-1,1217,673,0,0
0,351,0,0,0,0,0,0,0,0,0,-1,1224,673,0,0
7,351,0,0,0,0,0,0,0,0,0,-1,1231,673,0,0
14,351,0,0,0,0,0,0,0,0,0,-1,1238,673,0,0
21,351,0,0,0,0,0,0,0,0,0,-1,1245,673,0,0
28,351,0,0,0,0,0,0,0,0,0,-1,1252,673,0,0
35,351,0,0,0,0,0,0,0,0,0,-1,1259,673,0,0
42,351,0,0,0,0,0,0,0,0,0,-1,1266,673,0,0
49,351,0,0,0,0,0,0,0,0,0,-1,1273,673,0,0
56,351,0,0,0,0,0,0,0,0,0,-1,1280,673,0,0
63,351,0,0,0,0,0,0,0,0,0,-1,1287,673,0,0
70,351,0,0,0,0,0,0,0,0,0,-1,1294,673,0,0
77,351,0,0,0,0,0,0,0,0,0,-1,1301,673,0,0
84,351,0,0,0,0,0,0,0,0,0,-1,1308,673,0,0
91,351,0,0,0,0,0,0,0,0,0,-1,1315,673,0,0
98,351,0,0,0,0,0,0,0,0,0,-1,1322,673,0,0
105,351,0,0,0,0,0,0,0,0,0,-1,1329,673,0,0
112,351,0,0,0,0,0,0,0,0,0,-1,1336,673,0,0
119,351,0,0,0,0,0,0,0,0,0,-1,1343,673,0,0
126,351,0,0,0,0,0,0,0,0,0,-1,1350,673,0,0
133,351,0,0,0,0,0,0,0,0,0,-1,1357,673,0,0
140,351,0,0,0,0,0,0,0,0,0,-1,1364,673,0,0
147,351,0,0,0,0,0,0,0,0,0,-1,1371,673,0,0
154,351,0,0,0,0,0,0,0,0,0,-1,1378,673,0,0
161,351,0,0,0,0,0,0,0,0,0,-1,1385,673,0,0
168,351,0,0,0,0,0,0,0,0,0,-1,1392,673,0,0
175,351,0,0,0,0,0,0,0,0,0,-1,1399,673,0,0
182,351,0,0,0,0,0,0,0,0,0,-1,1406,673,0,0
189,351,0,0,0,0,0,0,0,0,0,-1,1413,673,0,0
196,351,0,0,0,0,0,0,0,0,0,-1,1420,673,0,0
203,351,0,0,0,0,0,0,0,0,0,-1,1427,673,0,0
210,351,0,0,0,0,0,0,0,0,0,-1,1434,673,0,0
217,351,0,0,0,0,0,0,0,0,0,-1,1441,673,0,0
224,351,0,0,0,0,0,0,0,0,0,-1,1448,673,0,0
231,351,0,0,0,0,0,0,0,0,0,-1,1455,673,0,0
238,351,0,0,0,0,0,0,0,0,0,-1,1462,673,0,0
245,351,0,0,0,0,0,0,0,0,0,-1,1469,673,0,0
252,351,0,0,0,0,0,0,0,0,0,-1,1476,673,0,0
259,351,0,0,0,0,0,0,0,0,0,-1,1483,673,0,0
266,351,0,0,0,0,0,0,0,0,0,-1,1490,673,0,0
273,351,0,0,0,0,0,0,0,0,0,-1,1497,673,0,0
280,351,0,0,0,0,0,0,0,0,0,-1,1504,673,0,0
287,351,0,0,0,0,0,0,0,0,0,-1,1511,673,0,0
294,351,0,0,0,0,0,0,0,0,0,-1,1518,673,0,0
301,351,0,0,0,0,0,0,0,0,0,-1,1525,673,0,0
308,351,0,0,0,0,0,0,0,0,0,-1,1532,673,0,0
315,351,0,0,0,0,0,0,0,0,0,-1,1539,673,0,0
322,351,0,0,0,0,0,0,0,0,0,-1,1546,673,0,0
329,351,0,0,0,0,0,0,0,0,0,-1,1553,673,0,0
336,351,0,0,0,0,0,0,0,0,0,-1,1560,673,0,0
343,351,0,0,0,0,0,0,0,0,0,-1,1567,673,0,0
350,351,0,0,0,0,0,0,0,0,0,-1,1574,673,0,0
357,351,0,0,0,0,0,0,0,0,0,-1,1581,673,0,0
364,351,0,0,0,0,0,0,0,0,0,-1,1588,673,0,0
371,351,0,0,0,0,0,0,0,0,0,-1,1595,673,0,0
378,351,0,0,0,0,0,0,0,0,0,-1,1602,673,0,0
385,351,0,0,0,0,0,0,0,0,0,-1,1609,673,0,0
392,351,0,0,0,0,0,0,0,0,0,-1,1616,673,0,0
399,351,0,0,0,0,0,0,0,0,0,-1,1623,673,0,0
406,351,0,0,0,0,0,0,0,0,0,-1,1630,673,0,0
413,351,0,0,0,0,0,0,0,0,0,-1,1637,673,0,0
420,351,0,0,0,0,0,0,0,0,0,-1,1644,673,0,0
427,351,0,0,0,0,0,0,0,0,0,-1,1651,673,0,0
434,351,0,0,0,0,0,0,0,0,0,-1,1658,673,0,0
441,351,0,0,0,0,0,0,0,0,0,-1,1665,673,0,0
448,351,0,0,0,0,0,0,0,0,0,-1,1672,673,0,0
455,351,0,0,0,0,0,0,0,0,0,-1,1679,673,0,0
462,351,0,0,0,0,0,0,0,0,0,-1,1686,673,0,0
469,351,0,0,0,0,0,0,0,0,0,-1,1693,673,0,0
476,351,0,0,0,0,0,0,0,0,0,-1,1700,673,0,0
483,351,0,0,0,0,0,0,0,0,0,-1,1707,673,0,0
490,351,0,0,0,0,0,0,0,0,0,-1,1714,673,0,0
497,351,0,0,0,0,0,0,0,0,0,-1,1721,673,0,0
504,351,10.8842,1.61615,0,0,0,0,0,0,0,-1,1728,673,10.8842,-1.61618
511,351,15.4548,0.0236816,0,0,0,0,0,0,0,-1,1735,673,15.4549,-0.0236664
518,351,16.7448,2.49268,0,0,0,0,0,0,0,-1,1742,673,16.7448,-2.49269
525,351,16.0701,3.43225,0,0,0,0,0,0,0,-1,1749,673,16.07,-3.43227
532,351,16.4181,3.33472,0,0,0,0,0,0,0,-1,1756,673,16.4181,-3.33473
539,351,15.3387,3.54486,0,0,0,0,0,0,0,-1,1763,673,15.3387,-3.54485
546,351,13.9387,4.59357,0,0,0,0,0,0,0,-1,1770,673,13.9388,-4.59359
553,351,12.0682,2.02832,0,0,0,0,0,0,0,-1,1777,673,12.0683,-2.02831
560,351,12.0173,0.55304,0,0,0,0,0,0,0,-1,1784,673,12.0174,-0.553028
567,351,10.7827,0.130188,0,0,0,0,0,0,0,-1,1791,673,10.7827,-0.130183
574,351,13.405,-1.09204,0,0,0,0,0,0,0,-1,1798,673,13.405,1.09207
581,351,12.8734,-1.30939,0.00278224,-0.00305028,0.00194395,0.00337077,-0.00363881,0.293975,0.00404797,0.0487228,1805,673,12.8734,1.30937
588,351,12.2648,-1.58722,0.00192513,-0.0025909,0.00122599,0.00223649,-0.00290226,0.248707,0.00297515,0.0351097,1812,673,12.2647,1.58721
595,351,12.275,-1.38928,0.00132123,-0.00204365,0.000751437,0.00148141,-0.00220383,0.210027,0.00214126,0.0201727,1819,673,12.275,1.38926
602,351,12.2581,-1.06274,0.00104901,-0.00141696,0.000504315,0.00114816,-0.00151611,0.194128,0.0015431,0.0187285,1826,673,12.2581,1.06275
609,351,12.2953,-0.808655,0.00079287,-0.000848509,0.000348515,0.000863805,-0.000919444,0.200792,0.00102973,0.0172987,1833,673,12.2952,0.808646
616,351,12.2848,-0.521912,0.000450405,-0.000730378,3.17098e-05,0.000451255,-0.000731228,0.0268292,0.000689056,0.0143613,1840,673,12.2848,0.521899
623,351,12.3284,-0.216675,4.02626e-05,-0.000386082,-0.000323566,0.000214566,-0.000560386,-0.494122,0.00046203,0.0154904,1847,673,12.3284,0.21667
630,351,12.318,0.0571289,-0.000143562,-0.000339673,-0.000680159,0.000445573,-0.000928808,-0.713809,0.000809683,0.0248799,1854,673,12.318,-0.0571344
637,351,12.3099,0.361938,-0.000395983,-9.79972e-05,-0.00113069,0.000893471,-0.00138745,-0.850907,0.00132715,0.0278391,1861,673,12.31,-0.361932
644,351,12.267,0.637634,-0.000883467,-0.000246446,-0.0019877,0.0014481,-0.00257802,-0.864843,0.0023548,0.0206061,1868,673,12.267,-0.637606
651,351,12.2992,0.927734,-0.00131508,-0.000405484,-0.00305508,0.00222846,-0.00394903,-0.859289,0.0036124,0.0153028,1875,673,12.2992,-0.927716
658,351,12.271,1.22058,-0.00149683,-0.000429504,-0.00429479,0.00336466,-0.00529099,-0.847211,0.00503842,0.0247768,1882,673,12.271,-1.22058
665,351,11.9637,1.3222,0.000205935,0.00130414,-0.00456533,0.00535327,-0.0038432,-0.845249,0.00533339,0.0327796,1889,673,11.9638,-1.32219
672,351,11.9874,1.81201,0.00438565,0.00631068,-0.00368495,0.00915675,0.00153959,-0.913145,0.00566152,0.0462287,1896,673,11.9875,-1.81202
679,351,12.5099,1.96259,0.0102035,0.012713,-0.00220571,0.0139958,0.0089206,-1.044,0.00818154,0.0499068,1903,673,12.5099,-1.96259
686,351,13.0294,2.1189,0,0,0,0,0,0,0,-1,1910,673,13.0294,-2.11892
693,351,13.5187,2.34595,0,0,0,0,0,0,0,-1,1917,673,13.5187,-2.34596
700,351,14.5629,-2.40173,0,0,0,0,0,0,0,-1,1924,673,14.5629,2.40172
707,351,0,0,0,0,0,0,0,0,0,-1,1931,673,0,0
714,351,0,0,0,0,0,0,0,0,0,-1,1938,673,0,0
721,351,0,0,0,0,0,0,0,0,0,-1,1945,673,0,0
728,351,0,0,0,0,0,0,0,0,0,-1,1952,673,0,0
735,351,0,0,0,0,0,0,0,0,0,-1,1959,673,0,0
742,351,0,0,0,0,0,0,0,0,0,-1,1966,673,0,0
749,351,0,0,0,0,0,0,0,0,0,-1,1973,673,0,0
756,351,0,0,0,0,0,0,0,0,0,-1,1980,673,0,0
763,351,0,0,0,0,0,0,0,0,0,-1,1987,673,0,0
770,351,0,0,0,0,0,0,0,0,0,-1,1994,673,0,0
777,351,0,0,0,0,0,0,0,0,0,-1,2001,673,0,0
784,351,0,0,0,0,0,0,0,0,0,-1,2008,673,0,0
791,351,0,0,0,0,0,0,0,0,0,-1,2015,673,0,0
798,351,0,0,0,0,0,0,0,0,0,-1,2022,673,0,0
805,351,0,0,0,0,0,0,0,0,0,-1,2029,673,0,0
812,351,0,0,0,0,0,0,0,0,0,-1,2036,673,0,0
-700,344,0,0,0,0,0,0,0,0,0,-1,524,680,0,0
-693,344,0,0,0,0,0,0,0,0,0,-1,531,680,0,0
-686,344,0,0,0,0,0,0,0,0,0,-1,538,680,0,0
-679,344,0,0,0,0,0,0,0,0,0,-1,545,680,0,0
-672,344,0,0,0,0,0,0,0,0,0,-1,552,680,0,0
-665,344,0,0,0,0,0,0,0,0,0,-1,559,680,0,0
-658,344,0,0,0,0,0,0,0,0,0,-1,566,680,0,0
-651,344,0,0,0,0,0,0,0,0,0,-1,573,680,0,0
-644,344,0,0,0,0,0,0,0,0,0,-1,580,680,0,0
-637,344,0,0,0,0,0,0,0,0,0,-1,587,680,0,0
-630,344,0,0,0,0,0,0,0,0,0,-1,594,680,0,0
-623,344,0,0,0,0,0,0,0,0,0,-1,601,680,0,0
-616,344,0,0,0,0,0,0,0,0,0,-1,608,680,0,0
-609,344,0,0,0,0,0,0,0,0,0,-1,615,680,0,0
-602,344,0,0,0,0,0,0,0,0,0,-1,622,680,0,0
-595,344,0,0,0,0,0,0,0,0,0,-1,629,680,0,0
-588,344,-7.89941,5.00134,0,0,0,0,0,0,0,-1,636,680,-7.89941,-5.00132
-581,344,-7.30463,3.9386,0,0,0,0,0,0,0,-1,643,680,-7.30465,-3.93857
-574,344,-4.55396,3.9068,0,0,0,0,0,0,0,-1,650,680,-4.55396,-3.90678
-567,344,-6.51556,0.601196,0,0,0,0,0,0,0,-1,657,680,-6.51555,-0.60121
-560,344,-6.36719,0.63855,0,0,0,0,0,0,0,-1,664,680,-6.36719,-0.638533
-553,344,-6.18866,1.01392,0,0,0,0,0,0,0,-1,671,680,-6.18868,-1.01392
-546,344,-6.36743,0.423218,0,0,0,0,0,0,0,-1,678,680,-6.36745,-0.423208
-539,344,-6.29785,-0.319763,-0.000166373,0.0134126,-0.0042146,0.0146144,-0.00136813,-1.29303,0.0102295,0.0371368,685,680,-6.29786,0.319743
-532,344,-6.27692,-0.699036,5.43392e-05,0.00900661,-0.00305533,0.00994996,-0.000889011,-1.27133,0.00694863,0.0218267,692,680,-6.27693,0.699042
-525,344,-6.39606,-0.955322,0.000220273,0.00590462,-0.0021092,0.00660175,-0.000476859,-1.25158,0.00456842,0.0185605,699,680,-6.39609,0.955315
-518,344,-6.41772,-1.25775,0.000432916,0.00368014,-0.0014617,0.00424118,-0.000128116,-1.20431,0.00287111,0.0198935,706,680,-6.4177,1.25774
-511,344,-6.4248,-1.5119,0.000792835,0.00216867,-0.00101112,0.0027037,0.000257809,-1.08411,0.00172297,0.0170606,713,680,-6.42481,1.51193
-504,344,-6.39648,-1.77448,0.00122617,0.00116555,-0.000698537,0.00189506,0.000496667,-0.763716,0.00113465,0.0164579,720,680,-6.3965,1.77448
-497,344,-6.38916,-2.02496,0.00162188,0.000212699,-0.000589494,0.00183596,-1.37859e-06,-0.348346,0.00122443,0.0138456,727,680,-6.38915,2.02494
-490,344,-6.41168,-2.28851,0.00222257,-9.84194e-05,-0.000764436,0.00245172,-0.000327568,-0.291239,0.0017539,0.0129733,734,680,-6.41171,2.28849
-483,344,-6.39197,-2.54681,0.00298444,-0.000174757,-0.00115288,0.00336042,-0.000550733,-0.315243,0.00244462,0.0133461,741,680,-6.39195,2.54679
-476,344,-6.38074,-2.81042,0.00399919,-0.000164964,-0.00187874,0.00472152,-0.000887296,-0.367053,0.00348135,0.0136443,748,680,-6.38076,2.81043
-469,344,-6.39142,-3.09637,0.00508663,-0.00013985,-0.00265543,0.00619903,-0.00125224,-0.396703,0.00460718,0.0128141,755,680,-6.3914,3.0964
-462,344,-6.37866,-3.40137,0.00599865,-0.000137494,-0.00322854,0.0073844,-0.00152325,-0.405439,0.00550143,0.0255312,762,680,-6.37868,3.40137
-455,344,-6.28833,-3.64282,0,0,0,0,0,0,0,-1,769,680,-6.28833,3.64285
-448,344,-5.67657,-2.72864,0,0,0,0,0,0,0,-1,776,680,-5.6766,2.72863
-441,344,-5.09229,-2.34167,0,0,0,0,0,0,0,-1,783,680,-5.09229,2.34168
-434,344,-4.28778,-2.08807,0,0,0,0,0,0,0,-1,790,680,-4.28778,2.08809
-427,344,-3.06506,-1.45404,0,0,0,0,0,0,0,-1,797,680,-3.06505,1.45402
-420,344,-1.96582,-1.57574,0,0,0,0,0,0,0,-1,804,680,-1.96579,1.57574
-413,344,-0.817993,-1.4751,0,0,0,0,0,0,0,-1,811,680,-0.818017,1.47511
-406,344,-0.00714111,-1.25189,0,0,0,0,0,0,0,-1,818,680,-0.00714956,1.25191
-399,344,0.240051,-1.75769,0,0,0,0,0,0,0,-1,825,680,0.240079,1.75767
-392,344,1.11353,-2.05615,0,0,0,0,0,0,0,-1,832,680,1.11351,2.05616
-385,344,0,0,0,0,0,0,0,0,0,-1,839,680,0,0
-378,344,0,0,0,0,0,0,0,0,0,-1,846,680,0,0
-371,344,0,0,0,0,0,0,0,0,0,-1,853,680,0,0
-364,344,0,0,0,0,0,0,0,0,0,-1,860,680,0,0
-357,344,0,0,0,0,0,0,0,0,0,-1,867,680,0,0
-350,344,0,0,0,0,0,0,0,0,0,-1,874,680,0,0
-343,344,0,0,0,0,0,0,0,0,0,-1,881,680,0,0
-336,344,0,0,0,0,0,0,0,0,0,-1,888,680,0,0
-329,344,0,0,0,0,0,0,0,0,0,-1,895,680,0,0
-322,344,0,0,0,0,0,0,0,0,0,-1,902,680,0,0
-315,344,0,0,0,0,0,0,0,0,0,-1,909,680,0,0
-308,344,0,0,0,0,0,0,0,0,0,-1,916,680,0,0
-301,344,0,0,0,0,0,0,0,0,0,-1,923,680,0,0
-294,344,0,0,0,0,0,0,0,0,0,-1,930,680,0,0
-287,344,0,0,0,0,0,0,0,0,0,-1,937,680,0,0
-280,344,0,0,0,0,0,0,0,0,0,-1,944,680,0,0
-273,344,0,0,0,0,0,0,0,0,0,-1,951,680,0,0
-266,344,0,0,0,0,0,0,0,0,0,-1,958,680,0,0
-259,344,0,0,0,0,0,0,0,0,0,-1,965,680,0,0
-252,344,0,0,0,0,0,0,0,0,0,-1,972,680,0,0
-245,344,0,0,0,0,0,0,0,0,0,-1,979,680,0,0
-238,344,0,0,0,0,0,0,0,0,0,-1,986,680,0,0
-231,344,0,0,0,0,0,0,0,0,0,-1,993,680,0,0
-224,344,0,0,0,0,0,0,0,0,0,-1,1000,680,0,0
-217,344,0,0,0,0,0,0,0,0,0,-1,1007,680,0,0
-210,344,0,0,0,0,0,0,0,0,0,-1,1014,680,0,0
-203,344,0,0,0,0,0,0,0,0,0,-1,1021,680,0,0
-196,344,0,0,0,0,0,0,0,0,0,-1,1028,680,0,0
-189,344,0,0,0,0,0,0,0,0,0,-1,1035,680,0,0
-182,344,0,0,0,0,0,0,0,0,0,-1,1042,680,0,0
-175,344,0,0,0,0,0,0,0,0,0,-1,1049,680,0,0
-168,344,0,0,0,0,0,0,0,0,0,-1,1056,680,0,0
-161,344,0,0,0,0,0,0,0,0,0,-1,1063,680,0,0
-154,344,0,0,0,0,0,0,0,0,0,-1,1070,680,0,0
-147,344,0,0,0,0,0,0,0,0,0,-1,1077,680,0,0
-140,344,0,0,0,0,0,0,0,0,0,-1,1084,680,0,0
-133,344,0,0,0,0,0,0,0,0,0,-1,1091,680,0,0
-126,344,0,0,0,0,0,0,0,0,0,-1,1098,680,0,0
-119,344,0,0,0,0,0,0,0,0,0,-1,1105,680,0,0
-112,344,0,0,0,0,0,0,0,0,0,-1,1112,680,0,0
-105,344,0,0,0,0,0,0,0,0,0,-1,1119,680,0,0
-98,344,0,0,0,0,0,0,0,0,0,-1,1126,680,0,0
-91,344,0,0,0,0,0,0,0,0,0,-1,1133,680,0,0
-84,344,0,0,0,0,0,0,0,0,0,-1,1140,680,0,0
-77,344,0,0,0,0,0,0,0,0,0,-1,1147,680,0,0
-70,344,0,0,0,0,0,0,0,0,0,-1,1154,680,0,0
-63,344,0,0,0,0,0,0,0,0,0,-1,1161,680,0,0
-56,344,0,0,0,0,0,0,0,0,0,-1,1168,680,0,0
-49,344,0,0,0,0,0,0,0,0,0,-1,1175,680,0,0
-42,344,0,0,0,0,0,0,0,0,0,-1,1182,680,0,0
-35,344,0,0,0,0,0,0,0,0,0,-1,1189,680,0,0
-28,344,0,0,0,0,0,0,0,0,0,-1,1196,680,0,0
-21,344,0,0,0,0,0,0,0,0,0,-1,1203,680,0,0
-14,344,0,0,0,0,0,0,0,0,0,-1,1210,680,0,0
-7,344,0,0,0,0,0,0,0,0,0,-1,1217,680,0,0
0,344,0,0,0,0,0,0,0,0,0,-1,1224,680,0,0
7,344,0,0,0,0,0,0,0,0,0,-1,1231,680,0,0
14,344,0,0,0,0,0,0,0,0,0,-1,1238,680,0,0
21,344,0,0,0,0,0,0,0,0,0,-1,1245,680,0,0
28,344,0,0,0,0,0,0,0,0,0,-1,1252,680,0,0
35,344,0,0,0,0,0,0,0,0,0,-1,1259,680,0,0
42,344,0,0,0,0,0,0,0,0,0,-1,1266,680,0,0
49,344,0,0,0,0,0,0,0,0,0,-1,1273,680,0,0
56,344,0,0,0,0,0,0,0,0,0,-1,1280,680,0,0
63,344,0,0,0,0,0,0,0,0,0,-1,1287,680,0,0
70,344,0,0,0,0,0,0,0,0,0,-1,1294,680,0,0
77,344,0,0,0,0,0,0,0,0,0,-1,1301,680,0,0
84,344,0,0,0,0,0,0,0,0,0,-1,1308,680,0,0
91,344,0,0,0,0,0,0,0,0,0,-1,1315,680,0,0
98,344,0,0,0,0,0,0,0,0,0,-1,1322,680,0,0
105,344,0,0,0,0,0,0,0,0,0,-1,1329,680,0,0
112,344,0,0,0,0,0,0,0,0,0,-1,1336,680,0,0
119,344,0,0,0,0,0,0,0,0,0,-1,1343,680,0,0
126,344,0,0,0,0,0,0,0,0,0,-1,1350,680,0,0
133,344,0,0,0,0,0,0,0,0,0,-1,1357,680,0,0
140,344,0,0,0,0,0,0,0,0,0,-1,1364,680,0,0
147,344,0,0,0,0,0,0,0,0,0,-1,1371,680,0,0
154,344,0,0,0,0,0,0,0,0,0,-1,1378,680,0,0
161,344,0,0,0,0,0,0,0,0,0,-1,1385,680,0,0
168,344,0,0,0,0,0,0,0,0,0,-1,1392,680,0,0
175,344,0,0,0,0,0,0,0,0,0,-1,1399,680,0,0
182,344,0,0,0,0,0,0,0,0,0,-1,1406,680,0,0
189,344,0,0,0,0,0,0,0,0,0,-1,1413,680,0,0
196,344,0,0,0,0,0,0,0,0,0,-1,1420,680,0,0
203,344,0,0,0,0,0,0,0,0,0,-1,1427,680,0,0
210,344,0,0,0,0,0,0,0,0,0,-1,1434,680,0,0
217,344,0,0,0,0,0,0,0,0,0,-1,1441,680,0,0
224,344,0,0,0,0,0,0,0,0,0,-1,1448,680,0,0
231,344,0,0,0,0,0,0,0,0,0,-1,1455,680,0,0
238,344,0,0,0,0,0,0,0,0,0,-1,1462,680,0,0
245,344,0,0,0,0,0,0,0,0,0,-1,1469,680,0,0
252,344,0,0,0,0,0,0,0,0,0,-1,1476,680,0,0
259,344,0,0,0,0,0,0,0,0,0,-1,1483,680,0,0
266,344,0,0,0,0,0,0,0,0,0,-1,1490,680,0,0
273,344,0,0,0,0,0,0,0,0,0,-1,1497,680,0,0
280,344,0,0,0,0,0,0,0,0,0,-1,1504,680,0,0
287,344,0,0,0,0,0,0,0,0,0,-1,1511,680,0,0
294,344,0,0,0,0,0,0,0,0,0,-1,1518,680,0,0
301,344,0,0,0,0,0,0,0,0,0,-1,1525,680,0,0
308,344,0,0,0,0,0,0,0,0,0,-1,1532,680,0,0
315,344,0,0,0,0,0,0,0,0,0,-1,1539,680,0,0
322,344,0,0,0,0,0,0,0,0,0,-1,1546,680,0,0
329,344,0,0,0,0,0,0,0,0,0,-1,1553,680,0,0
336,344,0,0,0,0,0,0,0,0,0,-1,1560,680,0,0
343,344,0,0,0,0,0,0,0,0,0,-1,1567,680,0,0
350,344,0,0,0,0,0,0,0,0,0,-1,1574,680,0,0
357,344,0,0,0,0,0,0,0,0,0,-1,1581,680,0,0
364,344,0,0,0,0,0,0,0,0,0,-1,1588,680,0,0
371,344,0,0,0,0,0,0,0,0,0,-1,1595,680,0,0
378,344,0,0,0,0,0,0,0,0,0,-1,1602,680,0,0
385,344,0,0,0,0,0,0,0,0,0,-1,1609,680,0,0
392,344,0,0,0,0,0,0,0,0,0,-1,1616,680,0,0
399,344,0,0,0,0,0,0,0,0,0,-1,1623,680,0,0
406,344,0,0,0,0,0,0,0,0,0,-1,1630,680,0,0
413,344,0,0,0,0,0,0,0,0,0,-1,1637,680,0,0
420,344,0,0,0,0,0,0,0,0,0,-1,1644,680,0,0
427,344,0,0,0,0,0,0,0,0,0,-1,1651,680,0,0
434,344,0,0,0,0,0,0,0,0,0,-1,1658,680,0,0
441,344,0,0,0,0,0,0,0,0,0,-1,1665,680,0,0
448,344,0,0,0,0,0,0,0,0,0,-1,1672,680,0,0
455,344,0,0,0,0,0,0,0,0,0,-1,1679,680,0,0
462,344,0,0,0,0,0,0,0,0,0,-1,1686,680,0,0
469,344,0,0,0,0,0,0,0,0,0,-1,1693,680,0,0
476,344,0,0,0,0,0,0,0,0,0,-1,1700,680,0,0
483,344,0,0,0,0,0,0,0,0,0,-1,1707,680,0,0
490,344,0,0,0,0,0,0,0,0,0,-1,1714,680,0,0
497,344,0,0,0,0,0,0,0,0,0,-1,1721,680,0,0
504,344,0,0,0,0,0,0,0,0,0,-1,1728,680,0,0
511,344,15.4819,0.452637,0,0,0,0,0,0,0,-1,1735,680,15.4819,-0.452656
518,344,17.1357,2.31207,0,0,0,0,0,0,0,-1,1742,680,17.1358,-2.31207
525,344,16.4807,2.83368,0,0,0,0,0,0,0,-1,1749,680,16.4807,-2.83368
532,344,15.8599,3.37219,0,0,0,0,0,0,0,-1,1756,680,15.8598,-3.3722
539,344,15.3691,3.78113,0,0,0,0,0,0,0,-1,1763,680,15.3691,-3.78113
546,344,14.6722,4.30243,0,0,0,0,0,0,0,-1,1770,680,14.6722,-4.30241
553,344,14.8136,4.35681,0,0,0,0,0,0,0,-1,1777,680,14.8136,-4.35679
560,344,11.9363,2.14185,0,0,0,0,0,0,0,-1,1784,680,11.9362,-2.14182
567,344,11.397,0.925842,0,0,0,0,0,0,0,-1,1791,680,11.397,-0.92583
574,344,10.0004,0.504639,0,0,0,0,0,0,0,-1,1798,680,10.0004,-0.504645
581,344,13.6709,-0.969604,0,0,0,0,0,0,0,-1,1805,680,13.6709,0.969629
588,344,12.6603,-1.67084,0,0,0,0,0,0,0,-1,1812,680,12.6603,1.67084
595,344,12.4656,-1.43707,0,0,0,0,0,0,0,-1,1819,680,12.4656,1.43705
602,344,12.6727,-1.00696,0.00577277,0.00125569,0.00389494,0.00801662,-0.000988162,0.522657,0.00570241,0.032496,1826,680,12.6727,1.00693
609,344,12.6134,-0.780273,0.00415865,0.00108905,0.00277669,0.00579649,-0.000548792,0.532925,0.00405964,0.0148707,1833,680,12.6134,0.780277
616,344,12.587,-0.497131,0.00271668,0.00057413,0.0016816,0.00363925,-0.00034844,0.501788,0.00255026,0.0211538,1840,680,12.5871,0.497125
623,344,12.6421,-0.199646,0.00141444,0.000395052,0.000726117,0.0017919,1.75976e-05,0.479382,0.00118878,0.0190537,1847,680,12.6421,0.199618
630,344,12.6024,0.0466919,0.00051429,1.48526e-05,-5.16924e-05,0.000519584,9.55851e-06,-0.10206,0.000343248,0.0250422,1854,680,12.6024,-0.0466808
637,344,12.5875,0.353455,-0.000166263,1.73748e-05,-0.000774694,0.000705672,-0.000854561,-0.844384,0.000902167,0.0238351,1861,680,12.5876,-0.353425
644,344,12.5936,0.638062,-0.000812445,-0.000296268,-0.00169447,0.00115965,-0.00226837,-0.860974,0.00201338,0.0159949,1868,680,12.5936,-0.638084
651,344,12.5823,0.939514,-0.0011813,-0.000385418,-0.00258129,0.00182843,-0.00339515,-0.861878,0.00306071,0.0113466,1875,680,12.5823,-0.939502
658,344,12.5693,1.26801,-0.00117728,-0.000225015,-0.00348571,0.00281693,-0.00421922,-0.853276,0.00408913,0.018343,1882,680,12.5694,-1.26798
665,344,12.4828,1.51556,0.00092781,0.00208481,-0.00328693,0.00484375,-0.00183114,-0.872506,0.00398244,0.0280486,1889,680,12.4828,-1.51558
672,344,12.5304,1.68719,0.00558714,0.00802935,-0.00186027,0.00903349,0.004583,-1.07583,0.00521567,0.022116,1896,680,12.5304,-1.68718
679,344,12.7904,1.78326,0.0117506,0.0152469,0.000229843,0.015262,0.0117356,1.50543,0.00922662,0.0418698,1903,680,12.7904,-1.78328
686,344,13.1451,1.95044,0,0,0,0,0,0,0,-1,1910,680,13.1451,-1.95041
693,344,12.4362,-1.42346,0,0,0,0,0,0,0,-1,1917,680,12.4361,1.42348
700,344,17.5396,2.61206,0,0,0,0,0,0,0,-1,1924,680,17.5396,-2.61204
707,344,18.5829,3.29352,0,0,0,0,0,0,0,-1,1931,680,18.5828,-3.2935
714,344,0,0,0,0,0,0,0,0,0,-1,1938,680,0,0
721,344,0,0,0,0,0,0,0,0,0,-1,1945,680,0,0
728,344,0,0,0,0,0,0,0,0,0,-1,1952,680,0,0
735,344,0,0,0,0,0,0,0,0,0,-1,1959,680,0,0
742,344,0,0,0,0,0,0,0,0,0,-1,1966,680,0,0
749,344,0,0,0,0,0,0,0,0,0,-1,1973,680,0,0
756,344,0,0,0,0,0,0,0,0,0,-1,1980,680,0,0
763,344,0,0,0,0,0,0,0,0,0,-1,1987,680,0,0
770,344,0,0,0,0,0,0,0,0,0,-1,1994,680,0,0
777,344,0,0,0,0,0,0,0,0,0,-1,2001,680,0,0
784,344,0,0,0,0,0,0,0,0,0,-1,2008,680,0,0
791,344,0,0,0,0,0,0,0,0,0,-1,2015,680,0,0
798,344,0,0,0,0,0,0,0,0,0,-1,2022,680,0,0
805,344,0,0,0,0,0,0,0,0,0,-1,2029,680,0,0
812,344,0,0,0,0,0,0,0,0,0,-1,2036,680,0,0
-700,337,0,0,0,0,0,0,0,0,0,-1,524,687,0,0
-693,337,0,0,0,0,0,0,0,0,0,-1,531,687,0,0
-686,337,0,0,0,0,0,0,0,0,0,-1,538,687,0,0
-679,337,0,0,0,0,0,0,0,0,0,-1,545,687,0,0
-672,337,0,0,0,0,0,0,0,0,0,-1,552,687,0,0
-665,337,0,0,0,0,0,0,0,0,0,-1,559,687,0,0
-658,337,0,0,0,0,0,0,0,0,0,-1,566,687,0,0
-651,337,0,0,0,0,0,0,0,0,0,-1,573,687,0,0
-644,337,0,0,0,0,0,0,0,0,0,-1,580,687,0,0
-637,337,0,0,0,0,0,0,0,0,0,-1,587,687,0,0
-630,337,0,0,0,0,0,0,0,0,0,-1,594,687,0,0
-623,337,0,0,0,0,0,0,0,0,0,-1,601,687,0,0
-616,337,0,0,0,0,0,0,0,0,0,-1,608,687,0,0
-609,337,0,0,0,0,0,0,0,0,0,-1,615,687,0,0
-602,337,0,0,0,0,0,0,0,0,0,-1,622,687,0,0
-595,337,0,0,0,0,0,0,0,0,0,-1,629,687,0,0
-588,337,-8.20203,3.8374,0,0,0,0,0,0,0,-1,636,687,-8.20205,-3.8374
-581,337,-7.54236,2.87201,0,0,0,0,0,0,0,-1,643,687,-7.54236,-2.87198
-574,337,-5.24377,3.62292,0,0,0,0,0,0,0,-1,650,687,-5.24378,-3.6229
-567,337,-6.77637,0.62915,0,0,0,0,0,0,0,-1,657,687,-6.77636,-0.629169
-560,337,-6.78021,1.03589,0,0,0,0,0,0,0,-1,664,687,-6.78022,-1.03588
-553,337,-6.51733,0.750366,-0.002507,0.0238639,-0.00396595,0.0244474,-0.00309053,-1.42471,0.0174201,0.0468307,671,687,-6.51731,-0.75036
-546,337,-6.58667,0.177917,-0.00214436,0.0170842,-0.0031666,0.0175923,-0.00265242,-1.41171,0.012705,0.0384539,678,687,-6.5867,-0.177947
-539,337,-6.56268,-0.388306,-0.00119961,0.011986,-0.00270577,0.0125197,-0.00173325,-1.37607,0.00898013,0.0249658,685,687,-6.56268,0.388306
-532,337,-6.64429,-0.717773,-0.000554196,0.00813226,-0.00211072,0.00861798,-0.00103992,-1.34461,0.00612147,0.0147336,692,687,-6.64431,0.717766
-525,337,-6.68677,-0.993958,-6.11621e-05,0.00534144,-0.00154783,0.00575347,-0.000473189,-1.31063,0.00400271,0.0142859,699,687,-6.68678,0.993971
-518,337,-6.70807,-1.27881,0.000391037,0.00322853,-0.00119116,0.00366227,-4.2701e-05,-1.22159,0.00245587,0.0223138,706,687,-6.70805,1.27879
-511,337,-6.69409,-1.51581,0.000951525,0.00182129,-0.000873908,0.00236254,0.000410273,-1.01627,0.00145764,0.0228134,713,687,-6.69411,1.51578
-504,337,-6.64197,-1.77209,0.00154922,0.000895942,-0.000559087,0.00187009,0.000575068,-0.521026,0.00110605,0.022314,720,687,-6.64199,1.77211
-497,337,-6.64178,-2.0368,0.00206686,7.24652e-05,-0.000374964,0.00213503,4.29875e-06,-0.179831,0.00142192,0.0153777,727,687,-6.64181,2.03679
-490,337,-6.67822,-2.29871,0.0028173,-0.000123623,-0.000385907,0.0028671,-0.000173418,-0.128326,0.00197175,0.0130686,734,687,-6.67821,2.29868
-483,337,-6.66772,-2.56323,0.00377408,-7.24437e-05,-0.000512986,0.00384132,-0.000139682,-0.130329,0.00260869,0.0142114,741,687,-6.66771,2.56323
-476,337,-6.65002,-2.83429,0.00508274,8.07671e-05,-0.000873432,0.00523087,-6.7363e-05,-0.167997,0.00350991,0.0126327,748,687,-6.65005,2.83426
-469,337,-6.65302,-3.15918,0.00659369,0.000294955,-0.00106778,0.00676978,0.000118864,-0.163442,0.00447409,0.022346,755,687,-6.65299,3.1592
-462,337,-6.5553,-3.43457,0,0,0,0,0,0,0,-1,762,687,-6.55533,3.4346
-455,337,-6.00574,-3.12933,0,0,0,0,0,0,0,-1,769,687,-6.00576,3.12934
-448,337,-5.30627,-2.07202,0,0,0,0,0,0,0,-1,776,687,-5.30628,2.07205
-441,337,-4.24762,-1.49597,0,0,0,0,0,0,0,-1,783,687,-4.24762,1.49598
-434,337,-6.86908,1.37531,0,0,0,0,0,0,0,-1,790,687,-6.86908,-1.3753
-427,337,-9.92004,2.487,0,0,0,0,0,0,0,-1,797,687,-9.92002,-2.48701
-420,337,-2.95996,-1.76697,0,0,0,0,0,0,0,-1,804,687,-2.95998,1.76696
-413,337,-1.29169,-1.99487,0,0,0,0,0,0,0,-1,811,687,-1.29171,1.9949
-406,337,-1.02356,-1.89563,0,0,0,0,0,0,0,-1,818,687,-1.02357,1.89564
-399,337,-0.472839,-2.21338,0,0,0,0,0,0,0,-1,825,687,-0.472837,2.2134
-392,337,0,0,0,0,0,0,0,0,0,-1,832,687,0,0
-385,337,0,0,0,0,0,0,0,0,0,-1,839,687,0,0
-378,337,0,0,0,0,0,0,0,0,0,-1,846,687,0,0
-371,337,0,0,0,0,0,0,0,0,0,-1,853,687,0,0
-364,337,0,0,0,0,0,0,0,0,0,-1,860,687,0,0
-357,337,0,0,0,0,0,0,0,0,0,-1,867,687,0,0
-350,337,0,0,0,0,0,0,0,0,0,-1,874,687,0,0
-343,337,0,0,0,0,0,0,0,0,0,-1,881,687,0,0
-336,337,0,0,0,0,0,0,0,0,0,-1,888,687,0,0
-329,337,0,0,0,0,0,0,0,0,0,-1,895,687,0,0
-322,337,0,0,0,0,0,0,0,0,0,-1,902,687,0,0
-315,337,0,0,0,0,0,0,0,0,0,-1,909,687,0,0
-308,337,0,0,0,0,0,0,0,0,0,-1,916,687,0,0
-301,337,0,0,0,0,0,0,0,0,0,-1,923,687,0,0
-294,337,0,0,0,0,0,0,0,0,0,-1,930,687,0,0
-287,337,0,0,0,0,0,0,0,0,0,-1,937,687,0,0
-280,337,0,0,0,0,0,0,0,0,0,-1,944,687,0,0
-273,337,0,0,0,0,0,0,0,0,0,-1,951,687,0,0
-266,337,0,0,0,0,0,0,0,0,0,-1,958,687,0,0
-259,337,0,0,0,0,0,0,0,0,0,-1,965,687,0,0
-252,337,0,0,0,0,0,0,0,0,0,-1,972,687,0,0
-245,337,0,0,0,0,0,0,0,0,0,-1,979,687,0,0
-238,337,0,0,0,0,0,0,0,0,0,-1,986,687,0,0
-231,337,0,0,0,0,0,0,0,0,0,-1,993,687,0,0
-224,337,0,0,0,0,0,0,0,0,0,-1,1000,687,0,0
-217,337,0,0,0,0,0,0,0,0,0,-1,1007,687,0,0
-210,337,0,0,0,0,0,0,0,0,0,-1,1014,687,0,0
-203,337,0,0,0,0,0,0,0,0,0,-1,1021,687,0,0
-196,337,0,0,0,0,0,0,0,0,0,-1,1028,687,0,0
-189,337,0,0,0,0,0,0,0,0,0,-1,1035,687,0,0
-182,337,0,0,0,0,0,0,0,0,0,-1,1042,687,0,0
-175,337,0,0,0,0,0,0,0,0,0,-1,1049,687,0,0
-168,337,0,0,0,0,0,0,0,0,0,-1,1056,687,0,0
-161,337,0,0,0,0,0,0,0,0,0,-1,1063,687,0,0
-154,337,0,0,0,0,0,0,0,0,0,-1,1070,687,0,0
-147,337,0,0,0,0,0,0,0,0,0,-1,1077,687,0,0
-140,337,0,0,0,0,0,0,0,0,0,-1,1084,687,0,0
-133,337,0,0,0,0,0,0,0,0,0,-1,1091,687,0,0
-126,337,0,0,0,0,0,0,0,0,0,-1,1098,687,0,0
-119,337,0,0,0,0,0,0,0,0,0,-1,1105,687,0,0
-112,337,0,0,0,0,0,0,0,0,0,-1,1112,687,0,0
-105,337,0,0,0,0,0,0,0,0,0,-1,1119,687,0,0
-98,337,0,0,0,0,0,0,0,0,0,-1,1126,687,0,0
-91,337,0,0,0,0,0,0,0,0,0,-1,1133,687,0,0
-84,337,0,0,0,0,0,0,0,0,0,-1,1140,687,0,0
-77,337,0,0,0,0,0,0,0,0,0,-1,1147,687,0,0
-70,337,0,0,0,0,0,0,0,0,0,-1,1154,687,0,0
-63,337,0,0,0,0,0,0,0,0,0,-1,1161,687,0,0
-56,337,0,0,0,0,0,0,0,0,0,-1,1168,687,0,0
-49,337,0,0,0,0,0,0,0,0,0,-1,1175,687,0,0
-42,337,0,0,0,0,0,0,0,0,0,-1,1182,687,0,0
-35,337,0,0,0,0,0,0,0,0,0,-1,1189,687,0,0
-28,337,0,0,0,0,0,0,0,0,0,-1,1196,687,0,0
-21,337,0,0,0,0,0,0,0,0,0,-1,1203,687,0,0
-14,337,0,0,0,0,0,0,0,0,0,-1,1210,687,0,0
-7,337,0,0,0,0,0,0,0,0,0,-1,1217,687,0,0
0,337,0,0,0,0,0,0,0,0,0,-1,1224,687,0,0
7,337,0,0,0,0,0,0,0,0,0,-1,1231,687,0,0
14,337,0,0,0,0,0,0,0,0,0,-1,1238,687,0,0
21,337,0,0,0,0,0,0,0,0,0,-1,1245,687,0,0
28,337,0,0,0,0,0,0,0,0,0,-1,1252,687,0,0
35,337,0,0,0,0,0,0,0,0,0,-1,1259,687,0,0
42,337,0,0,0,0,0,0,0,0,0,-1,1266,687,0,0
49,337,0,0,0,0,0,0,0,0,0,-1,1273,687,0,0
56,337,0,0,0,0,0,0,0,0,0,-1,1280,687,0,0
63,337,0,0,0,0,0,0,0,0,0,-1,1287,687,0,0
70,337,0,0,0,0,0,0,0,0,0,-1,1294,687,0,0
77,337,0,0,0,0,0,0,0,0,0,-1,1301,687,0,0
84,337,0,0,0,0,0,0,0,0,0,-1,1308,687,0,0
91,337,0,0,0,0,0,0,0,0,0,-1,1315,687,0,0
98,337,0,0,0,0,0,0,0,0,0,-1,1322,687,0,0
105,337,0,0,0,0,0,0,0,0,0,-1,1329,687,0,0
112,337,0,0,0,0,0,0,0,0,0,-1,1336,687,0,0
119,337,0,0,0,0,0,0,0,0,0,-1,1343,687,0,0
126,337,0,0,0,0,0,0,0,0,0,-1,1350,687,0,0
133,337,0,0,0,0,0,0,0,0,0,-1,1357,687,0,0
140,337,0,0,0,0,0,0,0,0,0,-1,1364,687,0,0
147,337,0,0,0,0,0,0,0,0,0,-1,1371,687,0,0
154,337,0,0,0,0,0,0,0,0,0,-1,1378,687,0,0
161,337,0,0,0,0,0,0,0,0,0,-1,1385,687,0,0
168,337,0,0,0,0,0,0,0,0,0,-1,1392,687,0,0
175,337,0,0,0,0,0,0,0,0,0,-1,1399,687,0,0
182,337,0,0,0,0,0,0,0,0,0,-1,1406,687,0,0
189,337,0,0,0,0,0,0,0,0,0,-1,1413,687,0,0
196,337,0,0,0,0,0,0,0,0,0,-1,1420,687,0,0
203,337,0,0,0,0,0,0,0,0,0,-1,1427,687,0,0
210,337,0,0,0,0,0,0,0,0,0,-1,1434,687,0,0
217,337,0,0,0,0,0,0,0,0,0,-1,1441,687,0,0
224,337,0,0,0,0,0,0,0,0,0,-1,1448,687,0,0
231,337,0,0,0,0,0,0,0,0,0,-1,1455,687,0,0
238,337,0,0,0,0,0,0,0,0,0,-1,1462,687,0,0
245,337,0,0,0,0,0,0,0,0,0,-1,1469,687,0,0
252,337,0,0,0,0,0,0,0,0,0,-1,1476,687,0,0
259,337,0,0,0,0,0,0,0,0,0,-1,1483,687,0,0
266,337,0,0,0,0,0,0,0,0,0,-1,1490,687,0,0
273,337,0,0,0,0,0,0,0,0,0,-1,1497,687,0,0
280,337,0,0,0,0,0,0,0,0,0,-1,1504,687,0,0
287,337,0,0,0,0,0,0,0,0,0,-1,1511,687,0,0
294,337,0,0,0,0,0,0,0,0,0,-1,1518,687,0,0
301,337,0,0,0,0,0,0,0,0,0,-1,1525,687,0,0
308,337,0,0,0,0,0,0,0,0,0,-1,1532,687,0,0
315,337,0,0,0,0,0,0,0,0,0,-1,1539,687,0,0
322,337,0,0,0,0,0,0,0,0,0,-1,1546,687,0,0
329,337,0,0,0,0,0,0,0,0,0,-1,1553,687,0,0
336,337,0,0,0,0,0,0,0,0,0,-1,1560,687,0,0
343,337,0,0,0,0,0,0,0,0,0,-1,1567,687,0,0
350,337,0,0,0,0,0,0,0,0,0,-1,1574,687,0,0
357,337,0,0,0,0,0,0,0,0,0,-1,1581,687,0,0
364,337,0,0,0,0,0,0,0,0,0,-1,1588,687,0,0
371,337,0,0,0,0,0,0,0,0,0,-1,1595,687,0,0
378,337,0,0,0,0,0,0,0,0,0,-1,1602,687,0,0
385,337,0,0,0,0,0,0,0,0,0,-1,1609,687,0,0
392,337,0,0,0,0,0,0,0,0,0,-1,1616,687,0,0
399,337,0,0,0,0,0,0,0,0,0,-1,1623,687,0,0
406,337,0,0,0,0,0,0,0,0,0,-1,1630,687,0,0
413,337,0,0,0,0,0,0,0,0,0,-1,1637,687,0,0
420,337,0,0,0,0,0,0,0,0,0,-1,1644,687,0,0
427,337,0,0,0,0,0,0,0,0,0,-1,1651,687,0,0
434,337,0,0,0,0,0,0,0,0,0,-1,1658,687,0,0
441,337,0,0,0,0,0,0,0,0,0,-1,1665,687,0,0
448,337,0,0,0,0,0,0,0,0,0,-1,1672,687,0,0
455,337,0,0,0,0,0,0,0,0,0,-1,1679,687,0,0
462,337,0,0,0,0,0,0,0,0,0,-1,1686,687,0,0
469,337,0,0,0,0,0,0,0,0,0,-1,1693,687,0,0
476,337,0,0,0,0,0,0,0,0,0,-1,1700,687,0,0
483,337,0,0,0,0,0,0,0,0,0,-1,1707,687,0,0
490,337,0,0,0,0,0,0,0,0,0,-1,1714,687,0,0
497,337,0,0,0,0,0,0,0,0,0,-1,1721,687,0,0
504,337,0,0,0,0,0,0,0,0,0,-1,1728,687,0,0
511,337,0,0,0,0,0,0,0,0,0,-1,1735,687,0,0
518,337,18.0369,1.64581,0,0,0,0,0,0,0,-1,1742,687,18.0368,-1.64581
525,337,16.9935,2.33093,0,0,0,0,0,0,0,-1,1749,687,16.9935,-2.33094
532,337,16.3579,2.91357,0,0,0,0,0,0,0,-1,1756,687,16.3579,-2.91358
539,337,15.7062,3.49115,0,0,0,0,0,0,0,-1,1763,687,15.7062,-3.49114
546,337,15.0701,4.06219,0,0,0,0,0,0,0,-1,1770,687,15.0701,-4.06219
553,337,19.068,3.61273,0,0,0,0,0,0,0,-1,1777,687,19.068,-3.6127
560,337,18.4053,3.62793,0,0,0,0,0,0,0,-1,1784,687,18.4052,-3.6279
567,337,11.9288,1.38776,0,0,0,0,0,0,0,-1,1791,687,11.9288,-1.38777
574,337,10.704,1.19476,0,0,0,0,0,0,0,-1,1798,687,10.704,-1.19478
581,337,8.50427,0.561768,0,0,0,0,0,0,0,-1,1805,687,8.5043,-0.561754
588,337,8.5885,-0.0536499,0,0,0,0,0,0,0,-1,1812,687,8.58844,0.0536788
595,337,12.5646,-1.57062,0,0,0,0,0,0,0,-1,1819,687,12.5646,1.57064
602,337,12.8529,-1.05316,0.0107144,0.0039561,0.00694586,0.0150595,-0.000388979,0.559005,0.0101718,0.0473928,1826,687,12.8529,1.05313
609,337,12.8815,-0.743896,0.00792617,0.00322153,0.00512523,0.0112131,-6.54217e-05,0.570254,0.00749731,0.0230736,1833,687,12.8815,0.743874
616,337,12.8779,-0.478027,0.00545277,0.00216747,0.00342332,0.00760715,1.30958e-05,0.561702,0.00506707,0.0171013,1840,687,12.8779,0.478022
623,337,12.8867,-0.20343,0.00329389,0.00153853,0.00198737,0.00458876,0.00024366,0.577462,0.00298128,0.0144251,1847,687,12.8867,0.203455
630,337,12.8577,0.0631714,0.00163922,0.000746841,0.000834826,0.00213961,0.000246447,0.539977,0.00135177,0.0190877,1854,687,12.8577,-0.063159
637,337,12.8774,0.339417,0.000424445,0.0004433,-0.000199839,0.000633933,0.000233812,-0.808968,0.000370176,0.0174055,1861,687,12.8775,-0.339425
644,337,12.8772,0.655029,-0.000522651,-0.000136718,-0.00123633,0.00092161,-0.00158098,-0.862814,0.00146149,0.0111649,1868,687,12.8772,-0.655033
651,337,12.8489,0.941895,-0.000985653,-0.000295154,-0.00203723,0.00142588,-0.00270668,-0.869336,0.00242383,0.009737,1875,687,12.8489,-0.941889
658,337,12.8573,1.22284,-0.000953159,9.12758e-07,-0.00268737,0.00225325,-0.0032055,-0.873238,0.00316756,0.0113794,1882,687,12.8573,-1.22282
665,337,12.8809,1.48016,0.00121089,0.00256741,-0.00217845,0.00417075,-0.000392446,-0.936317,0.00292012,0.0143676,1889,687,12.8808,-1.48018
672,337,12.8755,1.71777,0.00581073,0.00877594,-0.000431009,0.00883732,0.00574935,-1.42934,0.00517878,0.0185988,1896,687,12.8755,-1.71775
679,337,12.7843,1.99933,0.0116679,0.0160461,0.00196539,0.016799,0.010915,1.205,0.00984281,0.0375397,1903,687,12.7843,-1.99933
686,337,12.7653,2.36603,0,0,0,0,0,0,0,-1,1910,687,12.7653,-2.36604
693,337,13.7977,3.25104,0,0,0,0,0,0,0,-1,1917,687,13.7977,-3.25103
700,337,17.2661,2.44379,0,0,0,0,0,0,0,-1,1924,687,17.2661,-2.44378
707,337,17.3544,5.61853,0,0,0,0,0,0,0,-1,1931,687,17.3543,-5.61851
714,337,0,0,0,0,0,0,0,0,0,-1,1938,687,0,0
721,337,0,0,0,0,0,0,0,0,0,-1,1945,687,0,0
728,337,0,0,0,0,0,0,0,0,0,-1,1952,687,0,0
735,337,0,0,0,0,0,0,0,0,0,-1,1959,687,0,0
742,337,0,0,0,0,0,0,0,0,0,-1,1966,687,0,0
749,337,0,0,0,0,0,0,0,0,0,-1,1973,687,0,0
756,337,0,0,0,0,0,0,0,0,0,-1,1980,687,0,0
763,337,0,0,0,0,0,0,0,0,0,-1,1987,687,0,0
770,337,0,0,0,0,0,0,0,0,0,-1,1994,687,0,0
777,337,0,0,0,0,0,0,0,0,0,-1,2001,687,0,0
784,337,0,0,0,0,0,0,0,0,0,-1,2008,687,0,0
791,337,0,0,0,0,0,0,0,0,0,-1,2015,687,0,0
798,337,0,0,0,0,0,0,0,0,0,-1,2022,687,0,0
805,337,0,0,0,0,0,0,0,0,0,-1,2029,687,0,0
812,337,0,0,0,0,0,0,0,0,0,-1,2036,687,0,0
-700,330,0,0,0,0,0,0,0,0,0,-1,524,694,0,0
-693,330,0,0,0,0,0,0,0,0,0,-1,531,694,0,0
-686,330,0,0,0,0,0,0,0,0,0,-1,538,694,0,0
-679,330,0,0,0,0,0,0,0,0,0,-1,545,694,0,0
-672,330,0,0,0,0,0,0,0,0,0,-1,552,694,0,0
-665,330,0,0,0,0,0,0,0,0,0,-1,559,694,0,0
-658,330,0,0,0,0,0,0,0,0,0,-1,566,694,0,0
-651,330,0,0,0,0,0,0,0,0,0,-1,573,694,0,0
-644,330,0,0,0,0,0,0,0,0,0,-1,580,694,0,0
-637,330,0,0,0,0,0,0,0,0,0,-1,587,694,0,0
-630,330,0,0,0,0,0,0,0,0,0,-1,594,694,0,0
-623,330,0,0,0,0,0,0,0,0,0,-1,601,694,0,0
-616,330,0,0,0,0,0,0,0,0,0,-1,608,694,0,0
-609,330,0,0,0,0,0,0,0,0,0,-1,615,694,0,0
-602,330,0,0,0,0,0,0,0,0,0,-1,622,694,0,0
-595,330,-4.67883,1.65515,0,0,0,0,0,0,0,-1,629,694,-4.67881,-1.65515
-588,330,-8.5047,2.67346,0,0,0,0,0,0,0,-1,636,694,-8.50469,-2.67348
-581,330,-7.78009,1.80542,0,0,0,0,0,0,0,-1,643,694,-7.78008,-1.80539
-574,330,-6.66821,1.24548,0,0,0,0,0,0,0,-1,650,694,-6.66821,-1.24549
-567,330,-7.12598,1.52954,0,0,0,0,0,0,0,-1,657,694,-7.12597,-1.52955
-560,330,-7.15948,0.970032,0,0,0,0,0,0,0,-1,664,694,-7.15949,-0.970055
-553,330,-6.90747,0.267578,-0.00291258,0.0195043,-0.00198136,0.0196781,-0.00308636,-1.48331,0.0142593,0.0410268,671,694,-6.90745,-0.267587
-546,330,-6.82019,-0.185547,-0.00298502,0.0142729,-0.00154277,0.0144097,-0.00312185,-1.48234,0.0107986,0.0259817,678,694,-6.82019,0.185575
-539,330,-6.87445,-0.477173,-0.0017314,0.0101955,-0.00161282,0.0104098,-0.00194565,-1.43873,0.0076711,0.0120144,685,694,-6.87445,0.477148
-532,330,-6.94946,-0.724487,-0.000802209,0.0069953,-0.00142716,0.0072483,-0.00105521,-1.39534,0.00521962,0.0100489,692,694,-6.94946,0.724505
-525,330,-6.95447,-1.00476,-9.10518e-05,0.00464274,-0.00114781,0.00490637,-0.000354683,-1.34503,0.00339532,0.0102216,699,694,-6.95446,1.00475
-518,330,-6.94647,-1.24609,0.000532264,0.0026971,-0.000994934,0.00308489,0.000144469,-1.19914,0.00201017,0.0139315,706,694,-6.94649,1.24611
-511,330,-6.95526,-1.49786,0.00123521,0.00144302,-0.000725881,0.0020724,0.000605837,-0.856486,0.00123042,0.0195369,713,694,-6.95525,1.49787
-504,330,-6.91486,-1.77521,0.00191791,0.000620857,-0.000385638,0.00202391,0.000514861,-0.268233,0.00121459,0.0182835,720,694,-6.91487,1.77522
-497,330,-6.92603,-2.03156,0.00249498,-2.76447e-05,-0.000122876,0.00250095,-3.36157e-05,-0.0485563,0.00167862,0.0133158,727,694,-6.92602,2.03155
-490,330,-6.92712,-2.29523,0.00332555,-8.56192e-05,1.35659e-05,0.0033256,-8.56732e-05,0.00397682,0.00224617,0.0130255,734,694,-6.92714,2.29525
-483,330,-6.9248,-2.55841,0.00440514,9.52799e-05,0.00011484,0.0044082,9.22221e-05,0.0266206,0.00290855,0.0129786,741,694,-6.92478,2.55842
-476,330,-6.94666,-2.78723,0.0059288,0.000386186,6.32065e-05,0.00592952,0.000385465,0.0114018,0.00383099,0.0220211,748,694,-6.94664,2.78723
-469,330,-6.76434,-2.91779,0.00771708,0.000747134,0.000435729,0.00774421,0.00072,0.0621926,0.00494033,0.0429014,755,694,-6.76433,2.91778
-462,330,-6.43774,-3.25079,0,0,0,0,0,0,0,-1,762,694,-6.43775,3.25076
-455,330,-5.04254,-1.79303,0,0,0,0,0,0,0,-1,769,694,-5.04252,1.79305
-448,330,-4.89886,-1.66156,0,0,0,0,0,0,0,-1,776,694,-4.89886,1.66157
-441,330,-5.30676,-2.34045,0,0,0,0,0,0,0,-1,783,694,-5.30679,2.34048
-434,330,-7.20428,1.00024,0,0,0,0,0,0,0,-1,790,694,-7.20431,-1.00027
-427,330,-16.0428,2.89258,0,0,0,0,0,0,0,-1,797,694,-16.0428,-2.89259
-420,330,-15.2923,3.32672,0,0,0,0,0,0,0,-1,804,694,-15.2923,-3.32675
-413,330,-10.4567,2.56183,0,0,0,0,0,0,0,-1,811,694,-10.4567,-2.56182
-406,330,-1.65375,-1.74371,0,0,0,0,0,0,0,-1,818,694,-1.65375,1.74371
-399,330,0,0,0,0,0,0,0,0,0,-1,825,694,0,0
-392,330,0,0,0,0,0,0,0,0,0,-1,832,694,0,0
-385,330,0,0,0,0,0,0,0,0,0,-1,839,694,0,0
-378,330,0,0,0,0,0,0,0,0,0,-1,846,694,0,0
-371,330,0,0,0,0,0,0,0,0,0,-1,853,694,0,0
-364,330,0,0,0,0,0,0,0,0,0,-1,860,694,0,0
-357,330,0,0,0,0,0,0,0,0,0,-1,867,694,0,0
-350,330,0,0,0,0,0,0,0,0,0,-1,874,694,0,0
-343,330,0,0,0,0,0,0,0,0,0,-1,881,694,0,0
-336,330,0,0,0,0,0,0,0,0,0,-1,888,694,0,0
-329,330,0,0,0,0,0,0,0,0,0,-1,895,694,0,0
-322,330,0,0,0,0,0,0,0,0,0,-1,902,694,0,0
-315,330,0,0,0,0,0,0,0,0,0,-1,909,694,0,0
-308,330,0,0,0,0,0,0,0,0,0,-1,916,694,0,0
-301,330,0,0,0,0,0,0,0,0,0,-1,923,694,0,0
-294,330,0,0,0,0,0,0,0,0,0,-1,930,694,0,0
-287,330,0,0,0,0,0,0,0,0,0,-1,937,694,0,0
-280,330,0,0,0,0,0,0,0,0,0,-1,944,694,0,0
-273,330,0,0,0,0,0,0,0,0,0,-1,951,694,0,0
-266,330,0,0,0,0,0,0,0,0,0,-1,958,694,0,0
-259,330,0,0,0,0,0,0,0,0,0,-1,965,694,0,0
-252,330,0,0,0,0,0,0,0,0,0,-1,972,694,0,0
-245,330,0,0,0,0,0,0,0,0,0,-1,979,694,0,0
-238,330,0,0,0,0,0,0,0,0,0,-1,986,694,0,0
-231,330,0,0,0,0,0,0,0,0,0,-1,993,694,0,0
-224,330,0,0,0,0,0,0,0,0,0,-1,1000,694,0,0
-217,330,0,0,0,0,0,0,0,0,0,-1,1007,694,0,0
-210,330,0,0,0,0,0,0,0,0,0,-1,1014,694,0,0
-203,330,0,0,0,0,0,0,0,0,0,-1,1021,694,0,0
-196,330,0,0,0,0,0,0,0,0,0,-1,1028,694,0,0
-189,330,0,0,0,0,0,0,0,0,0,-1,1035,694,0,0
-182,330,0,0,0,0,0,0,0,0,0,-1,1042,694,0,0
-175,330,0,0,0,0,0,0,0,0,0,-1,1049,694,0,0
-168,330,0,0,0,0,0,0,0,0,0,-1,1056,694,0,0
-161,330,0,0,0,0,0,0,0,0,0,-1,1063,694,0,0
-154,330,0,0,0,0,0,0,0,0,0,-1,1070,694,0,0
-147,330,0,0,0,0,0,0,0,0,0,-1,1077,694,0,0
-140,330,0,0,0,0,0,0,0,0,0,-1,1084,694,0,0
-133,330,0,0,0,0,0,0,0,0,0,-1,1091,694,0,0
-126,330,0,0,0,0,0,0,0,0,0,-1,1098,694,0,0
-119,330,0,0,0,0,0,0,0,0,0,-1,1105,694,0,0
-112,330,0,0,0,0,0,0,0,0,0,-1,1112,694,0,0
-105,330,0,0,0,0,0,0,0,0,0,-1,1119,694,0,0
-98,330,0,0,0,0,0,0,0,0,0,-1,1126,694,0,0
-91,330,0,0,0,0,0,0,0,0,0,-1,1133,694,0,0
-84,330,0,0,0,0,0,0,0,0,0,-1,1140,694,0,0
-77,330,0,0,0,0,0,0,0,0,0,-1,1147,694,0,0
-70,330,0,0,0,0,0,0,0,0,0,-1,1154,694,0,0
-63,330,0,0,0,0,0,0,0,0,0,-1,1161,694,0,0
-56,330,0,0,0,0,0,0,0,0,0,-1,1168,694,0,0
-49,330,0,0,0,0,0,0,0,0,0,-1,1175,694,0,0
-42,330,0,0,0,0,0,0,0,0,0,-1,1182,694,0,0
-35,330,0,0,0,0,0,0,0,0,0,-1,1189,694,0,0
-28,330,0,0,0,0,0,0,0,0,0,-1,1196,694,0,0
-21,330,0,0,0,0,0,0,0,0,0,-1,1203,694,0,0
-14,330,0,0,0,0,0,0,0,0,0,-1,1210,694,0,0
-7,330,0,0,0,0,0,0,0,0,0,-1,1217,694,0,0
0,330,0,0,0,0,0,0,0,0,0,-1,1224,694,0,0
7,330,0,0,0,0,0,0,0,0,0,-1,1231,694,0,0
14,330,0,0,0,0,0,0,0,0,0,-1,1238,694,0,0
21,330,0,0,0,0,0,0,0,0,0,-1,1245,694,0,0
28,330,0,0,0,0,0,0,0,0,0,-1,1252,694,0,0
35,330,0,0,0,0,0,0,0,0,0,-1,1259,694,0,0
42,330,0,0,0,0,0,0,0,0,0,-1,1266,694,0,0
49,330,0,0,0,0,0,0,0,0,0,-1,1273,694,0,0
56,330,0,0,0,0,0,0,0,0,0,-1,1280,694,0,0
63,330,0,0,0,0,0,0,0,0,0,-1,1287,694,0,0
70,330,0,0,0,0,0,0,0,0,0,-1,1294,694,0,0
77,330,0,0,0,0,0,0,0,0,0,-1,1301,694,0,0
84,330,0,0,0,0,0,0,0,0,0,-1,1308,694,0,0
91,330,0,0,0,0,0,0,0,0,0,-1,1315,694,0,0
98,330,0,0,0,0,0,0,0,0,0,-1,1322,694,0,0
105,330,0,0,0,0,0,0,0,0,0,-1,1329,694,0,0
112,330,0,0,0,0,0,0,0,0,0,-1,1336,694,0,0
119,330,0,0,0,0,0,0,0,0,0,-1,1343,694,0,0
126,330,0,0,0,0,0,0,0,0,0,-1,1350,694,0,0
133,330,0,0,0,0,0,0,0,0,0,-1,1357,694,0,0
140,330,0,0,0,0,0,0,0,0,0,-1,1364,694,0,0
147,330,0,0,0,0,0,0,0,0,0,-1,1371,694,0,0
154,330,0,0,0,0,0,0,0,0,0,-1,1378,694,0,0
161,330,0,0,0,0,0,0,0,0,0,-1,1385,694,0,0
168,330,0,0,0,0,0,0,0,0,0,-1,1392,694,0,0
175,330,0,0,0,0,0,0,0,0,0,-1,1399,694,0,0
182,330,0,0,0,0,0,0,0,0,0,-1,1406,694,0,0
189,330,0,0,0,0,0,0,0,0,0,-1,1413,694,0,0
196,330,0,0,0,0,0,0,0,0,0,-1,1420,694,0,0
203,330,0,0,0,0,0,0,0,0,0,-1,1427,694,0,0
210,330,0,0,0,0,0,0,0,0,0,-1,1434,694,0,0
217,330,0,0,0,0,0,0,0,0,0,-1,1441,694,0,0
224,330,0,0,0,0,0,0,0,0,0,-1,1448,694,0,0
231,330,0,0,0,0,0,0,0,0,0,-1,1455,694,0,0
238,330,0,0,0,0,0,0,0,0,0,-1,1462,694,0,0
245,330,0,0,0,0,0,0,0,0,0,-1,1469,694,0,0
252,330,0,0,0,0,0,0,0,0,0,-1,1476,694,0,0
259,330,0,0,0,0,0,0,0,0,0,-1,1483,694,0,0
266,330,0,0,0,0,0,0,0,0,0,-1,1490,694,0,0
273,330,0,0,0,0,0,0,0,0,0,-1,1497,694,0,0
280,330,0,0,0,0,0,0,0,0,0,-1,1504,694,0,0
287,330,0,0,0,0,0,0,0,0,0,-1,1511,694,0,0
294,330,0,0,0,0,0,0,0,0,0,-1,1518,694,0,0
301,330,0,0,0,0,0,0,0,0,0,-1,1525,694,0,0
308,330,0,0,0,0,0,0,0,0,0,-1,1532,694,0,0
315,330,0,0,0,0,0,0,0,0,0,-1,1539,694,0,0
322,330,0,0,0,0,0,0,0,0,0,-1,1546,694,0,0
329,330,0,0,0,0,0,0,0,0,0,-1,1553,694,0,0
336,330,0,0,0,0,0,0,0,0,0,-1,1560,694,0,0
343,330,0,0,0,0,0,0,0,0,0,-1,1567,694,0,0
350,330,0,0,0,0,0,0,0,0,0,-1,1574,694,0,0
357,330,0,0,0,0,0,0,0,0,0,-1,1581,694,0,0
364,330,0,0,0,0,0,0,0,0,0,-1,1588,694,0,0
371,330,0,0,0,0,0,0,0,0,0,-1,1595,694,0,0
378,330,0,0,0,0,0,0,0,0,0,-1,1602,694,0,0
385,330,0,0,0,0,0,0,0,0,0,-1,1609,694,0,0
392,330,0,0,0,0,0,0,0,0,0,-1,1616,694,0,0
399,330,0,0,0,0,0,0,0,0,0,-1,1623,694,0,0
406,330,0,0,0,0,0,0,0,0,0,-1,1630,694,0,0
413,330,0,0,0,0,0,0,0,0,0,-1,1637,694,0,0
420,330,0,0,0,0,0,0,0,0,0,-1,1644,694,0,0
427,330,0,0,0,0,0,0,0,0,0,-1,1651,694,0,0
434,330,0,0,0,0,0,0,0,0,0,-1,1658,694,0,0
441,330,0,0,0,0,0,0,0,0,0,-1,1665,694,0,0
448,330,0,0,0,0,0,0,0,0,0,-1,1672,694,0,0
455,330,0,0,0,0,0,0,0,0,0,-1,1679,694,0,0
462,330,0,0,0,0,0,0,0,0,0,-1,1686,694,0,0
469,330,0,0,0,0,0,0,0,0,0,-1,1693,694,0,0
476,330,0,0,0,0,0,0,0,0,0,-1,1700,694,0,0
483,330,0,0,0,0,0,0,0,0,0,-1,1707,694,0,0
490,330,0,0,0,0,0,0,0,0,0,-1,1714,694,0,0
497,330,0,0,0,0,0,0,0,0,0,-1,1721,694,0,0
504,330,0,0,0,0,0,0,0,0,0,-1,1728,694,0,0
511,330,0,0,0,0,0,0,0,0,0,-1,1735,694,0,0
518,330,0,0,0,0,0,0,0,0,0,-1,1742,694,0,0
525,330,17.5052,1.86627,0,0,0,0,0,0,0,-1,1749,694,17.5052,-1.86629
532,330,16.8772,2.56702,0,0,0,0,0,0,0,-1,1756,694,16.8772,-2.567
539,330,16.1982,5.49628,0,0,0,0,0,0,0,-1,1763,694,16.1983,-5.49626
546,330,20.1758,3.75854,0,0,0,0,0,0,0,-1,1770,694,20.1758,-3.75856
553,330,19.3512,3.78687,0,0,0,0,0,0,0,-1,1777,694,19.3512,-3.78684
560,330,18.6956,3.84155,0,0,0,0,0,0,0,-1,1784,694,18.6956,-3.84155
567,330,18.0321,3.98578,0,0,0,0,0,0,0,-1,1791,694,18.0321,-3.98576
574,330,12.0454,2.1662,0,0,0,0,0,0,0,-1,1798,694,12.0455,-2.16618
581,330,11.4215,4.50836,0,0,0,0,0,0,0,-1,1805,694,11.4215,-4.50837
588,330,6.45667,-0.0630493,0,0,0,0,0,0,0,-1,1812,694,6.45661,0.0630695
595,330,8.23193,-0.258484,0,0,0,0,0,0,0,-1,1819,694,8.23188,0.258459
602,330,12.7814,-1.36688,0,0,0,0,0,0,0,-1,1826,694,12.7814,1.3669
609,330,13.0426,-0.80481,0.0122614,0.00433285,0.00578627,0.0153111,0.00128312,0.485064,0.00980775,0.0349462,1833,694,13.0426,0.804783
616,330,13.1537,-0.483459,0.0089506,0.00321054,0.00425758,0.0112152,0.000945976,0.488833,0.00718224,0.0121025,1840,694,13.1536,0.483433
623,330,13.1561,-0.197449,0.00598723,0.00249961,0.00283769,0.00757409,0.000912754,0.509885,0.00477431,0.0123472,1847,694,13.1561,0.197423
630,330,13.1566,0.0897217,0.00343103,0.00159397,0.00163243,0.0043856,0.000639395,0.529135,0.00273563,0.0129221,1854,694,13.1566,-0.0897107
637,330,13.1727,0.368408,0.00139855,0.00106275,0.000370572,0.00163748,0.000823813,0.572688,0.000945407,0.0124858,1861,694,13.1728,-0.368414
644,330,13.1438,0.652832,-3.94145e-05,0.000220068,-0.00076369,0.00086496,-0.000684306,-0.869539,0.000896493,0.00829166,1868,694,13.1438,-0.65281
651,330,13.1318,0.921509,-0.000703864,-9.4964e-05,-0.00149575,0.00112701,-0.00192583,-0.885798,0.00178256,0.0112989,1875,694,13.1318,-0.921534
658,330,13.1276,1.1958,-0.000675001,0.000261292,-0.00194555,0.00179423,-0.00220794,-0.903466,0.00231476,0.0115613,1882,694,13.1276,-1.19577
665,330,13.1306,1.48047,0.00147557,0.00294328,-0.00123974,0.00365008,0.000768767,-1.05263,0.00222191,0.0108109,1889,694,13.1306,-1.48047
672,330,13.1432,1.776,0.00592941,0.00918004,0.000652806,0.00930624,0.00580321,1.37983,0.00542739,0.0143565,1896,694,13.1432,-1.77602
679,330,12.9926,2.04163,0.0114211,0.0162522,0.0031196,0.0177821,0.00989114,1.11484,0.0102881,0.0266659,1903,694,12.9926,-2.0416
686,330,13.0063,2.60028,0.0200031,0.0271708,0.00728193,0.031703,0.0154709,1.01408,0.0183055,0.0446251,1910,694,13.0063,-2.60028
693,330,13.0443,2.99237,0,0,0,0,0,0,0,-1,1917,694,13.0443,-2.99234
700,330,17.1072,4.13,0,0,0,0,0,0,0,-1,1924,694,17.1071,-4.13002
707,330,16.663,4.88672,0,0,0,0,0,0,0,-1,1931,694,16.6629,-4.88673
714,330,16.5454,5.80896,0,0,0,0,0,0,0,-1,1938,694,16.5454,-5.80899
721,330,0,0,0,0,0,0,0,0,0,-1,1945,694,0,0
728,330,0,0,0,0,0,0,0,0,0,-1,1952,694,0,0
735,330,0,0,0,0,0,0,0,0,0,-1,1959,694,0,0
742,330,0,0,0,0,0,0,0,0,0,-1,1966,694,0,0
749,330,0,0,0,0,0,0,0,0,0,-1,1973,694,0,0
756,330,0,0,0,0,0,0,0,0,0,-1,1980,694,0,0
763,330,0,0,0,0,0,0,0,0,0,-1,1987,694,0,0
770,330,0,0,0,0,0,0,0,0,0,-1,1994,694,0,0
777,330,0,0,0,0,0,0,0,0,0,-1,2001,694,0,0
784,330,0,0,0,0,0,0,0,0,0,-1,2008,694,0,0
791,330,0,0,0,0,0,0,0,0,0,-1,2015,694,0,0
798,330,0,0,0,0,0,0,0,0,0,-1,2022,694,0,0
805,330,0,0,0,0,0,0,0,0,0,-1,2029,694,0,0
812,330,0,0,0,0,0,0,0,0,0,-1,2036,694,0,0
-700,323,0,0,0,0,0,0,0,0,0,-1,524,701,0,0
-693,323,0,0,0,0,0,0,0,0,0,-1,531,701,0,0
-686,323,0,0,0,0,0,0,0,0,0,-1,538,701,0,0
-679,323,0,0,0,0,0,0,0,0,0,-1,545,701,0,0
-672,323,0,0,0,0,0,0,0,0,0,-1,552,701,0,0
-665,323,0,0,0,0,0,0,0,0,0,-1,559,701,0,0
-658,323,0,0,0,0,0,0,0,0,0,-1,566,701,0,0
-651,323,0,0,0,0,0,0,0,0,0,-1,573,701,0,0
-644,323,0,0,0,0,0,0,0,0,0,-1,580,701,0,0
-637,323,0,0,0,0,0,0,0,0,0,-1,587,701,0,0
-630,323,0,0,0,0,0,0,0,0,0,-1,594,701,0,0
-623,323,0,0,0,0,0,0,0,0,0,-1,601,701,0,0
-616,323,0,0,0,0,0,0,0,0,0,-1,608,701,0,0
-609,323,0,0,0,0,0,0,0,0,0,-1,615,701,0,0
-602,323,-4.15833,2.12256,0,0,0,0,0,0,0,-1,622,701,-4.1583,-2.12257
-595,323,-4.052,1.79156,0,0,0,0,0,0,0,-1,629,701,-4.05198,-1.79158
-588,323,-4.07019,1.94543,0,0,0,0,0,0,0,-1,636,701,-4.07019,-1.94542
-581,323,-6.63727,0.562805,0,0,0,0,0,0,0,-1,643,701,-6.63728,-0.56279
-574,323,-6.15887,0.426697,0,0,0,0,0,0,0,-1,650,701,-6.15887,-0.426727
-567,323,-6.8894,-0.0759888,0,0,0,0,0,0,0,-1,657,701,-6.88942,0.0759632
-560,323,-6.49347,-0.42511,0,0,0,0,0,0,0,-1,664,701,-6.49348,0.425085
-553,323,-7.21387,-0.0127563,-0.0037494,0.01555,-0.000217276,0.0155524,-0.00375185,-1.55954,0.0118191,0.0323944,671,701,-7.21385,0.0127601
-546,323,-7.17664,-0.234985,-0.00401794,0.0115413,7.39235e-06,0.0115413,-0.00401795,1.57032,0.00932664,0.012347,678,701,-7.17661,0.23498
-539,323,-7.18091,-0.454285,-0.00248233,0.00835774,-0.000457037,0.00837697,-0.00250156,-1.52873,0.00657899,0.0110953,685,701,-7.18093,0.454283
-532,323,-7.1958,-0.724182,-0.00128395,0.00578672,-0.000621038,0.00584086,-0.00133808,-1.48385,0.00440816,0.00919164,692,701,-7.1958,0.724196
-525,323,-7.20081,-0.983276,-0.000335014,0.00388282,-0.000614734,0.00397059,-0.000422783,-1.42898,0.00279865,0.00727751,699,701,-7.20081,0.983257
-518,323,-7.20581,-1.22192,0.000511698,0.00217738,-0.000670514,0.00241375,0.000275328,-1.23188,0.00152569,0.00956287,706,701,-7.2058,1.22193
-511,323,-7.22278,-1.48212,0.00145678,0.00128438,-0.000393564,0.00177348,0.00096769,-0.677589,0.00102534,0.0139162,713,701,-7.22276,1.48209
-504,323,-7.22095,-1.75385,0.00234956,0.000790576,3.13274e-05,0.00235019,0.000789947,0.020084,0.00138096,0.0148338,720,701,-7.22093,1.75387
-497,323,-7.21399,-2.01294,0.00317654,0.000647473,0.000513659,0.00327688,0.000547129,0.192922,0.00202698,0.0117946,727,701,-7.21397,2.01293
-490,323,-7.21649,-2.28137,0.00433348,0.00119201,0.00106542,0.00466072,0.000864765,0.298004,0.00286277,0.0134261,734,701,-7.2165,2.28135
-483,323,-7.21228,-2.53308,0.00584164,0.00223904,0.00184042,0.00661557,0.00146511,0.39807,0.00401219,0.0180018,741,701,-7.21228,2.53305
-476,323,-7.09814,-2.83075,0.00790641,0.0037808,0.00283883,0.00935275,0.00233446,0.471207,0.005621,0.0398317,748,701,-7.09813,2.83073
-469,323,-6.57336,-2.69006,0,0,0,0,0,0,0,-1,755,701,-6.57339,2.69007
-462,323,-5.29431,-1.45697,0,0,0,0,0,0,0,-1,762,701,-5.29431,1.45699
-455,323,-5.0658,-1.36639,0,0,0,0,0,0,0,-1,769,701,-5.06578,1.3664
-448,323,-4.91608,-1.59601,0,0,0,0,0,0,0,-1,776,701,-4.91606,1.59604
-441,323,-11.7404,3.01556,0,0,0,0,0,0,0,-1,783,701,-11.7404,-3.01556
-434,323,-15.3158,2.479,0,0,0,0,0,0,0,-1,790,701,-15.3158,-2.47898
-427,323,-15.4075,2.98248,0,0,0,0,0,0,0,-1,797,701,-15.4075,-2.98248
-420,323,-14.8839,3.49579,0,0,0,0,0,0,0,-1,804,701,-14.8839,-3.49579
-413,323,-14.0645,4.22607,0,0,0,0,0,0,0,-1,811,701,-14.0645,-4.22605
-406,323,0,0,0,0,0,0,0,0,0,-1,818,701,0,0
-399,323,0,0,0,0,0,0,0,0,0,-1,825,701,0,0
-392,323,0,0,0,0,0,0,0,0,0,-1,832,701,0,0
-385,323,0,0,0,0,0,0,0,0,0,-1,839,701,0,0
-378,323,0,0,0,0,0,0,0,0,0,-1,846,701,0,0
-371,323,0,0,0,0,0,0,0,0,0,-1,853,701,0,0
-364,323,0,0,0,0,0,0,0,0,0,-1,860,701,0,0
-357,323,0,0,0,0,0,0,0,0,0,-1,867,701,0,0
-350,323,0,0,0,0,0,0,0,0,0,-1,874,701,0,0
-343,323,0,0,0,0,0,0,0,0,0,-1,881,701,0,0
-336,323,0,0,0,0,0,0,0,0,0,-1,888,701,0,0
-329,323,0,0,0,0,0,0,0,0,0,-1,895,701,0,0
-322,323,0,0,0,0,0,0,0,0,0,-1,902,701,0,0
-315,323,0,0,0,0,0,0,0,0,0,-1,909,701,0,0
-308,323,0,0,0,0,0,0,0,0,0,-1,916,701,0,0
-301,323,0,0,0,0,0,0,0,0,0,-1,923,701,0,0
-294,323,0,0,0,0,0,0,0,0,0,-1,930,701,0,0
-287,323,0,0,0,0,0,0,0,0,0,-1,937,701,0,0
-280,323,0,0,0,0,0,0,0,0,0,-1,944,701,0,0
-273,323,0,0,0,0,0,0,0,0,0,-1,951,701,0,0
-266,323,0,0,0,0,0,0,0,0,0,-1,958,701,0,0
-259,323,0,0,0,0,0,0,0,0,0,-1,965,701,0,0
-252,323,0,0,0,0,0,0,0,0,0,-1,972,701,0,0
-245,323,0,0,0,0,0,0,0,0,0,-1,979,701,0,0
-238,323,0,0,0,0,0,0,0,0,0,-1,986,701,0,0
-231,323,0,0,0,0,0,0,0,0,0,-1,993,701,0,0
-224,323,0,0,0,0,0,0,0,0,0,-1,1000,701,0,0
-217,323,0,0,0,0,0,0,0,0,0,-1,1007,701,0,0
-210,323,0,0,0,0,0,0,0,0,0,-1,1014,701,0,0
-203,323,0,0,0,0,0,0,0,0,0,-1,1021,701,0,0
-196,323,0,0,0,0,0,0,0,0,0,-1,1028,701,0,0
-189,323,0,0,0,0,0,0,0,0,0,-1,1035,701,0,0
-182,323,0,0,0,0,0,0,0,0,0,-1,1042,701,0,0
-175,323,0,0,0,0,0,0,0,0,0,-1,1049,701,0,0
-168,323,0,0,0,0,0,0,0,0,0,-1,1056,701,0,0
-161,323,0,0,0,0,0,0,0,0,0,-1,1063,701,0,0
-154,323,0,0,0,0,0,0,0,0,0,-1,1070,701,0,0
-147,323,0,0,0,0,0,0,0,0,0,-1,1077,701,0,0
-140,323,0,0,0,0,0,0,0,0,0,-1,1084,701,0,0
-133,323,0,0,0,0,0,0,0,0,0,-1,1091,701,0,0
-126,323,0,0,0,0,0,0,0,0,0,-1,1098,701,0,0
-119,323,0,0,0,0,0,0,0,0,0,-1,1105,701,0,0
-112,323,0,0,0,0,0,0,0,0,0,-1,1112,701,0,0
-105,323,0,0,0,0,0,0,0,0,0,-1,1119,701,0,0
-98,323,0,0,0,0,0,0,0,0,0,-1,1126,701,0,0
-91,323,0,0,0,0,0,0,0,0,0,-1,1133,701,0,0
-84,323,0,0,0,0,0,0,0,0,0,-1,1140,701,0,0
-77,323,0,0,0,0,0,0,0,0,0,-1,1147,701,0,0
-70,323,0,0,0,0,0,0,0,0,0,-1,1154,701,0,0
-63,323,0,0,0,0,0,0,0,0,0,-1,1161,701,0,0
-56,323,0,0,0,0,0,0,0,0,0,-1,1168,701,0,0
-49,323,0,0,0,0,0,0,0,0,0,-1,1175,701,0,0
-42,323,0,0,0,0,0,0,0,0,0,-1,1182,701,0,0
-35,323,0,0,0,0,0,0,0,0,0,-1,1189,701,0,0
-28,323,0,0,0,0,0,0,0,0,0,-1,1196,701,0,0
-21,323,0,0,0,0,0,0,0,0,0,-1,1203,701,0,0
-14,323,0,0,0,0,0,0,0,0,0,-1,1210,701,0,0
-7,323,0,0,0,0,0,0,0,0,0,-1,1217,701,0,0
0,323,0,0,0,0,0,0,0,0,0,-1,1224,701,0,0
7,323,0,0,0,0,0,0,0,0,0,-1,1231,701,0,0
14,323,0,0,0,0,0,0,0,0,0,-1,1238,701,0,0
21,323,0,0,0,0,0,0,0,0,0,-1,1245,701,0,0
28,323,0,0,0,0,0,0,0,0,0,-1,1252,701,0,0
35,323,0,0,0,0,0,0,0,0,0,-1,1259,701,0,0
42,323,0,0,0,0,0,0,0,0,0,-1,1266,701,0,0
49,323,0,0,0,0,0,0,0,0,0,-1,1273,701,0,0
56,323,0,0,0,0,0,0,0,0,0,-1,1280,701,0,0
63,323,0,0,0,0,0,0,0,0,0,-1,1287,701,0,0
70,323,0,0,0,0,0,0,0,0,0,-1,1294,701,0,0
77,323,0,0,0,0,0,0,0,0,0,-1,1301,701,0,0
84,323,0,0,0,0,0,0,0,0,0,-1,1308,701,0,0
91,323,0,0,0,0,0,0,0,0,0,-1,1315,701,0,0
98,323,0,0,0,0,0,0,0,0,0,-1,1322,701,0,0
105,323,0,0,0,0,0,0,0,0,0,-1,1329,701,0,0
112,323,0,0,0,0,0,0,0,0,0,-1,1336,701,0,0
119,323,0,0,0,0,0,0,0,0,0,-1,1343,701,0,0
126,323,0,0,0,0,0,0,0,0,0,-1,1350,701,0,0
133,323,0,0,0,0,0,0,0,0,0,-1,1357,701,0,0
140,323,0,0,0,0,0,0,0,0,0,-1,1364,701,0,0
147,323,0,0,0,0,0,0,0,0,0,-1,1371,701,0,0
154,323,0,0,0,0,0,0,0,0,0,-1,1378,701,0,0
161,323,0,0,0,0,0,0,0,0,0,-1,1385,701,0,0
168,323,0,0,0,0,0,0,0,0,0,-1,1392,701,0,0
175,323,0,0,0,0,0,0,0,0,0,-1,1399,701,0,0
182,323,0,0,0,0,0,0,0,0,0,-1,1406,701,0,0
189,323,0,0,0,0,0,0,0,0,0,-1,1413,701,0,0
196,323,0,0,0,0,0,0,0,0,0,-1,1420,701,0,0
203,323,0,0,0,0,0,0,0,0,0,-1,1427,701,0,0
210,323,0,0,0,0,0,0,0,0,0,-1,1434,701,0,0
217,323,0,0,0,0,0,0,0,0,0,-1,1441,701,0,0
224,323,0,0,0,0,0,0,0,0,0,-1,1448,701,0,0
231,323,0,0,0,0,0,0,0,0,0,-1,1455,701,0,0
238,323,0,0,0,0,0,0,0,0,0,-1,1462,701,0,0
245,323,0,0,0,0,0,0,0,0,0,-1,1469,701,0,0
252,323,0,0,0,0,0,0,0,0,0,-1,1476,701,0,0
259,323,0,0,0,0,0,0,0,0,0,-1,1483,701,0,0
266,323,0,0,0,0,0,0,0,0,0,-1,1490,701,0,0
273,323,0,0,0,0,0,0,0,0,0,-1,1497,701,0,0
280,323,0,0,0,0,0,0,0,0,0,-1,1504,701,0,0
287,323,0,0,0,0,0,0,0,0,0,-1,1511,701,0,0
294,323,0,0,0,0,0,0,0,0,0,-1,1518,701,0,0
301,323,0,0,0,0,0,0,0,0,0,-1,1525,701,0,0
308,323,0,0,0,0,0,0,0,0,0,-1,1532,701,0,0
315,323,0,0,0,0,0,0,0,0,0,-1,1539,701,0,0
322,323,0,0,0,0,0,0,0,0,0,-1,1546,701,0,0
329,323,0,0,0,0,0,0,0,0,0,-1,1553,701,0,0
336,323,0,0,0,0,0,0,0,0,0,-1,1560,701,0,0
343,323,0,0,0,0,0,0,0,0,0,-1,1567,701,0,0
350,323,0,0,0,0,0,0,0,0,0,-1,1574,701,0,0
357,323,0,0,0,0,0,0,0,0,0,-1,1581,701,0,0
364,323,0,0,0,0,0,0,0,0,0,-1,1588,701,0,0
371,323,0,0,0,0,0,0,0,0,0,-1,1595,701,0,0
378,323,0,0,0,0,0,0,0,0,0,-1,1602,701,0,0
385,323,0,0,0,0,0,0,0,0,0,-1,1609,701,0,0
392,323,0,0,0,0,0,0,0,0,0,-1,1616,701,0,0
399,323,0,0,0,0,0,0,0,0,0,-1,1623,701,0,0
406,323,0,0,0,0,0,0,0,0,0,-1,1630,701,0,0
413,323,0,0,0,0,0,0,0,0,0,-1,1637,701,0,0
420,323,0,0,0,0,0,0,0,0,0,-1,1644,701,0,0
427,323,0,0,0,0,0,0,0,0,0,-1,1651,701,0,0
434,323,0,0,0,0,0,0,0,0,0,-1,1658,701,0,0
441,323,0,0,0,0,0,0,0,0,0,-1,1665,701,0,0
448,323,0,0,0,0,0,0,0,0,0,-1,1672,701,0,0
455,323,0,0,0,0,0,0,0,0,0,-1,1679,701,0,0
462,323,0,0,0,0,0,0,0,0,0,-1,1686,701,0,0
469,323,0,0,0,0,0,0,0,0,0,-1,1693,701,0,0
476,323,0,0,0,0,0,0,0,0,0,-1,1700,701,0,0
483,323,0,0,0,0,0,0,0,0,0,-1,1707,701,0,0
490,323,0,0,0,0,0,0,0,0,0,-1,1714,701,0,0
497,323,0,0,0,0,0,0,0,0,0,-1,1721,701,0,0
504,323,0,0,0,0,0,0,0,0,0,-1,1728,701,0,0
511,323,0,0,0,0,0,0,0,0,0,-1,1735,701,0,0
518,323,0,0,0,0,0,0,0,0,0,-1,1742,701,0,0
525,323,0,0,0,0,0,0,0,0,0,-1,1749,701,0,0
532,323,16.1195,3.75397,0,0,0,0,0,0,0,-1,1756,701,16.1196,-3.75396
539,323,15.8151,4.36414,0,0,0,0,0,0,0,-1,1763,701,15.8151,-4.36415
546,323,14.9697,4.06653,0,0,0,0,0,0,0,-1,1770,701,14.9697,-4.06654
553,323,19.7142,3.41541,0,0,0,0,0,0,0,-1,1777,701,19.7142,-3.41542
560,323,19.1747,3.96667,0,0,0,0,0,0,0,-1,1784,701,19.1747,-3.96669
567,323,18.6687,4.57452,0,0,0,0,0,0,0,-1,1791,701,18.6686,-4.57453
574,323,12.514,5.89685,0,0,0,0,0,0,0,-1,1798,701,12.5141,-5.89683
581,323,11.821,5.3476,0,0,0,0,0,0,0,-1,1805,701,11.821,-5.34762
588,323,11.7933,7.00818,0,0,0,0,0,0,0,-1,1812,701,11.7933,-7.00819
595,323,6.67847,0.06604,0,0,0,0,0,0,0,-1,1819,701,6.67841,-0.0660418
602,323,11.2856,-0.595459,0,0,0,0,0,0,0,-1,1826,701,11.2856,0.595433
609,323,13.3752,-0.771118,0,0,0,0,0,0,0,-1,1833,701,13.3753,0.771139
616,323,13.4171,-0.479736,0.0124974,0.00394771,0.00506535,0.0148507,0.00159443,0.434915,0.0094141,0.015139,1840,701,13.4171,0.479727
623,323,13.4331,-0.184753,0.00897556,0.00330077,0.00372415,0.0108201,0.00145628,0.459864,0.00678028,0.012904,1847,701,13.433,0.184777
630,323,13.4415,0.116882,0.00556721,0.00242905,0.00252407,0.00697016,0.00102611,0.507306,0.00434531,0.0143494,1854,701,13.4416,-0.11688
637,323,13.4585,0.396667,0.00260364,0.00172297,0.00100066,0.00325656,0.00107005,0.578124,0.00191666,0.011292,1861,701,13.4585,-0.396685
644,323,13.4357,0.666992,0.000511298,0.00060032,-0.000300402,0.000859491,0.000252127,-0.858949,0.00051016,0.00826206,1868,701,13.4356,-0.666997
651,323,13.4229,0.932434,-0.00047524,7.65325e-05,-0.00102995,0.000866909,-0.00126562,-0.916258,0.00123837,0.00978201,1875,701,13.4228,-0.932459
658,323,13.3955,1.20807,-0.000453932,0.000467163,-0.00134206,0.0014255,-0.00141227,-0.950684,0.00163839,0.012372,1882,701,13.3955,-1.20808
665,323,13.3832,1.49341,0.00161781,0.00315993,-0.000555143,0.00333899,0.00143876,-1.25879,0.00193389,0.0113281,1889,701,13.3832,-1.49343
672,323,13.39,1.79272,0.00585446,0.00923275,0.00133577,0.00969709,0.00539012,1.23625,0.00561024,0.0099693,1896,701,13.39,-1.79269
679,323,13.3429,2.07574,0.0109605,0.0159617,0.00372418,0.0179469,0.00897524,1.08105,0.0103616,0.0192555,1903,701,13.3429,-2.07573
686,323,13.2838,2.29547,0.0188599,0.0261787,0.00761068,0.0309641,0.0140746,1.00949,0.0179017,0.0420887,1910,701,13.2838,-2.29544
693,323,13.2701,2.53125,0,0,0,0,0,0,0,-1,1917,701,13.2701,-2.53125
700,323,10.7705,0.828613,0,0,0,0,0,0,0,-1,1924,701,10.7705,-0.828591
707,323,16.9005,4.79193,0,0,0,0,0,0,0,-1,1931,701,16.9005,-4.7919
714,323,16.2346,6.25958,0,0,0,0,0,0,0,-1,1938,701,16.2346,-6.25956
721,323,0,0,0,0,0,0,0,0,0,-1,1945,701,0,0
728,323,0,0,0,0,0,0,0,0,0,-1,1952,701,0,0
735,323,0,0,0,0,0,0,0,0,0,-1,1959,701,0,0
742,323,0,0,0,0,0,0,0,0,0,-1,1966,701,0,0
749,323,0,0,0,0,0,0,0,0,0,-1,1973,701,0,0
756,323,0,0,0,0,0,0,0,0,0,-1,1980,701,0,0
763,323,0,0,0,0,0,0,0,0,0,-1,1987,701,0,0
770,323,0,0,0,0,0,0,0,0,0,-1,1994,701,0,0
777,323,0,0,0,0,0,0,0,0,0,-1,2001,701,0,0
784,323,0,0,0,0,0,0,0,0,0,-1,2008,701,0,0
791,323,0,0,0,0,0,0,0,0,0,-1,2015,701,0,0
798,323,0,0,0,0,0,0,0,0,0,-1,2022,701,0,0
805,323,0,0,0,0,0,0,0,0,0,-1,2029,701,0,0
812,323,0,0,0,0,0,0,0,0,0,-1,2036,701,0,0
-700,316,0,0,0,0,0,0,0,0,0,-1,524,708,0,0
-693,316,0,0,0,0,0,0,0,0,0,-1,531,708,0,0
-686,316,0,0,0,0,0,0,0,0,0,-1,538,708,0,0
-679,316,0,0,0,0,0,0,0,0,0,-1,545,708,0,0
-672,316,0,0,0,0,0,0,0,0,0,-1,552,708,0,0
-665,316,0,0,0,0,0,0,0,0,0,-1,559,708,0,0
-658,316,0,0,0,0,0,0,0,0,0,-1,566,708,0,0
-651,316,0,0,0,0,0,0,0,0,0,-1,573,708,0,0
-644,316,0,0,0,0,0,0,0,0,0,-1,580,708,0,0
-637,316,0,0,0,0,0,0,0,0,0,-1,587,708,0,0
-630,316,0,0,0,0,0,0,0,0,0,-1,594,708,0,0
-623,316,0,0,0,0,0,0,0,0,0,-1,601,708,0,0
-616,316,0,0,0,0,0,0,0,0,0,-1,608,708,0,0
-609,316,0,0,0,0,0,0,0,0,0,-1,615,708,0,0
-602,316,-0.451782,-0.0494995,0,0,0,0,0,0,0,-1,622,708,-0.451768,0.0495022
-595,316,-3.3761,2.17188,0,0,0,0,0,0,0,-1,629,708,-3.37609,-2.17189
-588,316,-5.00177,2.60675,0,0,0,0,0,0,0,-1,636,708,-5.00175,-2.60676
-581,316,-3.94653,0.393433,0,0,0,0,0,0,0,-1,643,708,-3.94655,-0.39342
-574,316,-6.59229,0.232666,0,0,0,0,0,0,0,-1,650,708,-6.59229,-0.232646
-567,316,-6.16937,-0.359253,0,0,0,0,0,0,0,-1,657,708,-6.16934,0.359227
-560,316,-6.70667,-0.272095,0,0,0,0,0,0,0,-1,664,708,-6.70669,0.272074
-553,316,-7.24402,-0.184937,0,0,0,0,0,0,0,-1,671,708,-7.24404,0.184921
-546,316,-7.46979,-0.156555,-0.00472203,0.00907973,0.00115732,0.0091761,-0.0048184,1.48772,0.00820926,0.0180813,678,708,-7.46977,0.156527
-539,316,-7.43585,-0.444153,-0.0030244,0.00659476,0.000442489,0.00661507,-0.00304471,1.52492,0.00570265,0.0131541,685,708,-7.43585,0.444129
-532,316,-7.46167,-0.720337,-0.00164345,0.0045447,3.17018e-05,0.00454486,-0.00164361,1.56567,0.00370148,0.0103425,692,708,-7.46168,0.720352
-525,316,-7.46704,-0.965759,-0.000528948,0.00303961,-0.000156065,0.00304642,-0.000535761,-1.52717,0.00223108,0.00837047,699,708,-7.46706,0.965748
-518,316,-7.45416,-1.2113,0.000453779,0.00156914,-0.000370961,0.00168125,0.000341669,-1.27731,0.00102609,0.00912742,706,708,-7.45417,1.2113
-511,316,-7.45953,-1.47491,0.00155832,0.00101625,-3.25901e-05,0.00156027,0.0010143,-0.0598341,0.000914251,0.0115757,713,708,-7.45954,1.47492
-504,316,-7.47845,-1.74927,0.00257434,0.000771797,0.000483458,0.00269582,0.000650316,0.246178,0.00162443,0.0152898,720,708,-7.47845,1.74924
-497,316,-7.46655,-1.9903,0.00359999,0.00103909,0.00119143,0.00406856,0.000570526,0.3747,0.00254361,0.012714,727,708,-7.46655,1.99028
-490,316,-7.47083,-2.26672,0.00502051,0.00202847,0.00218675,0.00617401,0.000874964,0.485401,0.00385757,0.0145709,734,708,-7.47081,2.26675
-483,316,-7.35236,-2.61005,0.0069031,0.00371975,0.00368693,0.00932725,0.0012956,0.581629,0.00583445,0.0415924,741,708,-7.35237,2.61002
-476,316,-7.20374,-2.9574,0,0,0,0,0,0,0,-1,748,708,-7.20375,2.95738
-469,316,-6.24194,-1.42725,0,0,0,0,0,0,0,-1,755,708,-6.24192,1.42725
-462,316,-5.74237,-1.40039,0,0,0,0,0,0,0,-1,762,708,-5.74238,1.40039
-455,316,-5.44745,-1.21899,0,0,0,0,0,0,0,-1,769,708,-5.44746,1.21898
-448,316,-9.22021,3.96765,0,0,0,0,0,0,0,-1,776,708,-9.22019,-3.96764
-441,316,-9.29224,3.77203,0,0,0,0,0,0,0,-1,783,708,-9.29225,-3.77201
-434,316,-15.0129,2.83905,0,0,0,0,0,0,0,-1,790,708,-15.0129,-2.83908
-427,316,-14.6848,3.17792,0,0,0,0,0,0,0,-1,797,708,-14.6848,-3.1779
-420,316,-13.5587,2.737,0,0,0,0,0,0,0,-1,804,708,-13.5587,-2.73703
-413,316,0,0,0,0,0,0,0,0,0,-1,811,708,0,0
-406,316,0,0,0,0,0,0,0,0,0,-1,818,708,0,0
-399,316,0,0,0,0,0,0,0,0,0,-1,825,708,0,0
-392,316,0,0,0,0,0,0,0,0,0,-1,832,708,0,0
-385,316,0,0,0,0,0,0,0,0,0,-1,839,708,0,0
-378,316,0,0,0,0,0,0,0,0,0,-1,846,708,0,0
-371,316,0,0,0,0,0,0,0,0,0,-1,853,708,0,0
-364,316,0,0,0,0,0,0,0,0,0,-1,860,708,0,0
-357,316,0,0,0,0,0,0,0,0,0,-1,867,708,0,0
-350,316,0,0,0,0,0,0,0,0,0,-1,874,708,0,0
-343,316,0,0,0,0,0,0,0,0,0,-1,881,708,0,0
-336,316,0,0,0,0,0,0,0,0,0,-1,888,708,0,0
-329,316,0,0,0,0,0,0,0,0,0,-1,895,708,0,0
-322,316,0,0,0,0,0,0,0,0,0,-1,902,708,0,0
-315,316,0,0,0,0,0,0,0,0,0,-1,909,708,0,0
-308,316,0,0,0,0,0,0,0,0,0,-1,916,708,0,0
-301,316,0,0,0,0,0,0,0,0,0,-1,923,708,0,0
-294,316,0,0,0,0,0,0,0,0,0,-1,930,708,0,0
-287,316,0,0,0,0,0,0,0,0,0,-1,937,708,0,0
-280,316,0,0,0,0,0,0,0,0,0,-1,944,708,0,0
-273,316,0,0,0,0,0,0,0,0,0,-1,951,708,0,0
-266,316,0,0,0,0,0,0,0,0,0,-1,958,708,0,0
-259,316,0,0,0,0,0,0,0,0,0,-1,965,708,0,0
-252,316,0,0,0,0,0,0,0,0,0,-1,972,708,0,0
-245,316,0,0,0,0,0,0,0,0,0,-1,979,708,0,0
-238,316,0,0,0,0,0,0,0,0,0,-1,986,708,0,0
-231,316,0,0,0,0,0,0,0,0,0,-1,993,708,0,0
-224,316,0,0,0,0,0,0,0,0,0,-1,1000,708,0,0
-217,316,0,0,0,0,0,0,0,0,0,-1,1007,708,0,0
-210,316,0,0,0,0,0,0,0,0,0,-1,1014,708,0,0
-203,316,0,0,0,0,0,0,0,0,0,-1,1021,708,0,0
-196,316,0,0,0,0,0,0,0,0,0,-1,1028,708,0,0
-189,316,0,0,0,0,0,0,0,0,0,-1,1035,708,0,0
-182,316,0,0,0,0,0,0,0,0,0,-1,1042,708,0,0
-175,316,0,0,0,0,0,0,0,0,0,-1,1049,708,0,0
-168,316,0,0,0,0,0,0,0,0,0,-1,1056,708,0,0
-161,316,0,0,0,0,0,0,0,0,0,-1,1063,708,0,0
-154,316,0,0,0,0,0,0,0,0,0,-1,1070,708,0,0
-147,316,0,0,0,0,0,0,0,0,0,-1,1077,708,0,0
-140,316,0,0,0,0,0,0,0,0,0,-1,1084,708,0,0
-133,316,0,0,0,0,0,0,0,0,0,-1,1091,708,0,0
-126,316,0,0,0,0,0,0,0,0,0,-1,1098,708,0,0
-119,316,0,0,0,0,0,0,0,0,0,-1,1105,708,0,0
-112,316,0,0,0,0,0,0,0,0,0,-1,1112,708,0,0
-105,316,0,0,0,0,0,0,0,0,0,-1,1119,708,0,0
-98,316,0,0,0,0,0,0,0,0,0,-1,1126,708,0,0
-91,316,0,0,0,0,0,0,0,0,0,-1,1133,708,0,0
-84,316,0,0,0,0,0,0,0,0,0,-1,1140,708,0,0
-77,316,0,0,0,0,0,0,0,0,0,-1,1147,708,0,0
-70,316,0,0,0,0,0,0,0,0,0,-1,1154,708,0,0
-63,316,0,0,0,0,0,0,0,0,0,-1,1161,708,0,0
-56,316,0,0,0,0,0,0,0,0,0,-1,1168,708,0,0
-49,316,0,0,0,0,0,0,0,0,0,-1,1175,708,0,0
-42,316,0,0,0,0,0,0,0,0,0,-1,1182,708,0,0
-35,316,0,0,0,0,0,0,0,0,0,-1,1189,708,0,0
-28,316,0,0,0,0,0,0,0,0,0,-1,1196,708,0,0
-21,316,0,0,0,0,0,0,0,0,0,-1,1203,708,0,0
-14,316,0,0,0,0,0,0,0,0,0,-1,1210,708,0,0
-7,316,0,0,0,0,0,0,0,0,0,-1,1217,708,0,0
0,316,0,0,0,0,0,0,0,0,0,-1,1224,708,0,0
7,316,0,0,0,0,0,0,0,0,0,-1,1231,708,0,0
14,316,0,0,0,0,0,0,0,0,0,-1,1238,708,0,0
21,316,0,0,0,0,0,0,0,0,0,-1,1245,708,0,0
28,316,0,0,0,0,0,0,0,0,0,-1,1252,708,0,0
35,316,0,0,0,0,0,0,0,0,0,-1,1259,708,0,0
42,316,0,0,0,0,0,0,0,0,0,-1,1266,708,0,0
49,316,0,0,0,0,0,0,0,0,0,-1,1273,708,0,0
56,316,0,0,0,0,0,0,0,0,0,-1,1280,708,0,0
63,316,0,0,0,0,0,0,0,0,0,-1,1287,708,0,0
70,316,0,0,0,0,0,0,0,0,0,-1,1294,708,0,0
77,316,0,0,0,0,0,0,0,0,0,-1,1301,708,0,0
84,316,0,0,0,0,0,0,0,0,0,-1,1308,708,0,0
91,316,0,0,0,0,0,0,0,0,0,-1,1315,708,0,0
98,316,0,0,0,0,0,0,0,0,0,-1,1322,708,0,0
105,316,0,0,0,0,0,0,0,0,0,-1,1329,708,0,0
112,316,0,0,0,0,0,0,0,0,0,-1,1336,708,0,0
119,316,0,0,0,0,0,0,0,0,0,-1,1343,708,0,0
126,316,0,0,0,0,0,0,0,0,0,-1,1350,708,0,0
133,316,0,0,0,0,0,0,0,0,0,-1,1357,708,0,0
140,316,0,0,0,0,0,0,0,0,0,-1,1364,708,0,0
147,316,0,0,0,0,0,0,0,0,0,-1,1371,708,0,0
154,316,0,0,0,0,0,0,0,0,0,-1,1378,708,0,0
161,316,0,0,0,0,0,0,0,0,0,-1,1385,708,0,0
168,316,0,0,0,0,0,0,0,0,0,-1,1392,708,0,0
175,316,0,0,0,0,0,0,0,0,0,-1,1399,708,0,0
182,316,0,0,0,0,0,0,0,0,0,-1,1406,708,0,0
189,316,0,0,0,0,0,0,0,0,0,-1,1413,708,0,0
196,316,0,0,0,0,0,0,0,0,0,-1,1420,708,0,0
203,316,0,0,0,0,0,0,0,0,0,-1,1427,708,0,0
210,316,0,0,0,0,0,0,0,0,0,-1,1434,708,0,0
217,316,0,0,0,0,0,0,0,0,0,-1,1441,708,0,0
224,316,0,0,0,0,0,0,0,0,0,-1,1448,708,0,0
231,316,0,0,0,0,0,0,0,0,0,-1,1455,708,0,0
238,316,0,0,0,0,0,0,0,0,0,-1,1462,708,0,0
245,316,0,0,0,0,0,0,0,0,0,-1,1469,708,0,0
252,316,0,0,0,0,0,0,0,0,0,-1,1476,708,0,0
259,316,0,0,0,0,0,0,0,0,0,-1,1483,708,0,0
266,316,0,0,0,0,0,0,0,0,0,-1,1490,708,0,0
273,316,0,0,0,0,0,0,0,0,0,-1,1497,708,0,0
280,316,0,0,0,0,0,0,0,0,0,-1,1504,708,0,0
287,316,0,0,0,0,0,0,0,0,0,-1,1511,708,0,0
294,316,0,0,0,0,0,0,0,0,0,-1,1518,708,0,0
301,316,0,0,0,0,0,0,0,0,0,-1,1525,708,0,0
308,316,0,0,0,0,0,0,0,0,0,-1,1532,708,0,0
315,316,0,0,0,0,0,0,0,0,0,-1,1539,708,0,0
322,316,0,0,0,0,0,0,0,0,0,-1,1546,708,0,0
329,316,0,0,0,0,0,0,0,0,0,-1,1553,708,0,0
336,316,0,0,0,0,0,0,0,0,0,-1,1560,708,0,0
343,316,0,0,0,0,0,0,0,0,0,-1,1567,708,0,0
350,316,0,0,0,0,0,0,0,0,0,-1,1574,708,0,0
357,316,0,0,0,0,0,0,0,0,0,-1,1581,708,0,0
364,316,0,0,0,0,0,0,0,0,0,-1,1588,708,0,0
371,316,0,0,0,0,0,0,0,0,0,-1,1595,708,0,0
378,316,0,0,0,0,0,0,0,0,0,-1,1602,708,0,0
385,316,0,0,0,0,0,0,0,0,0,-1,1609,708,0,0
392,316,0,0,0,0,0,0,0,0,0,-1,1616,708,0,0
399,316,0,0,0,0,0,0,0,0,0,-1,1623,708,0,0
406,316,0,0,0,0,0,0,0,0,0,-1,1630,708,0,0
413,316,0,0,0,0,0,0,0,0,0,-1,1637,708,0,0
420,316,0,0,0,0,0,0,0,0,0,-1,1644,708,0,0
427,316,0,0,0,0,0,0,0,0,0,-1,1651,708,0,0
434,316,0,0,0,0,0,0,0,0,0,-1,1658,708,0,0
441,316,0,0,0,0,0,0,0,0,0,-1,1665,708,0,0
448,316,0,0,0,0,0,0,0,0,0,-1,1672,708,0,0
455,316,0,0,0,0,0,0,0,0,0,-1,1679,708,0,0
462,316,0,0,0,0,0,0,0,0,0,-1,1686,708,0,0
469,316,0,0,0,0,0,0,0,0,0,-1,1693,708,0,0
476,316,0,0,0,0,0,0,0,0,0,-1,1700,708,0,0
483,316,0,0,0,0,0,0,0,0,0,-1,1707,708,0,0
490,316,0,0,0,0,0,0,0,0,0,-1,1714,708,0,0
497,316,0,0,0,0,0,0,0,0,0,-1,1721,708,0,0
504,316,0,0,0,0,0,0,0,0,0,-1,1728,708,0,0
511,316,0,0,0,0,0,0,0,0,0,-1,1735,708,0,0
518,316,0,0,0,0,0,0,0,0,0,-1,1742,708,0,0
525,316,0,0,0,0,0,0,0,0,0,-1,1749,708,0,0
532,316,15.6722,2.51886,0,0,0,0,0,0,0,-1,1756,708,15.6722,-2.51888
539,316,19.1591,2.70428,0,0,0,0,0,0,0,-1,1763,708,19.159,-2.70428
546,316,19.3698,3.4729,0,0,0,0,0,0,0,-1,1770,708,19.3697,-3.47291
553,316,19.9391,3.10297,0,0,0,0,0,0,0,-1,1777,708,19.9391,-3.10297
560,316,19.39,3.67322,0,0,0,0,0,0,0,-1,1784,708,19.39,-3.67322
567,316,22.5708,1.27942,0,0,0,0,0,0,0,-1,1791,708,22.5707,-1.27944
574,316,22.9047,1.6745,0,0,0,0,0,0,0,-1,1798,708,22.9047,-1.67449
581,316,23.7242,2.23938,0,0,0,0,0,0,0,-1,1805,708,23.7243,-2.23941
588,316,19.7659,2.90198,0,0,0,0,0,0,0,-1,1812,708,19.7659,-2.902
595,316,12.5363,1.50702,0,0,0,0,0,0,0,-1,1819,708,12.5363,-1.50701
602,316,7.79919,0.0422363,0,0,0,0,0,0,0,-1,1826,708,7.79923,-0.0422066
609,316,13.6036,-0.788574,0,0,0,0,0,0,0,-1,1833,708,13.6037,0.78857
616,316,13.6895,-0.470947,0.0162096,0.00320855,0.00641216,0.0188399,0.000578205,0.389279,0.0123717,0.0187488,1840,708,13.6895,0.470946
623,316,13.708,-0.182678,0.0124317,0.00273574,0.00517196,0.0146726,0.000494842,0.408861,0.00962101,0.0114723,1847,708,13.7081,0.182703
630,316,13.6998,0.0888062,0.00835061,0.00216646,0.00393307,0.0102615,0.000255534,0.452272,0.00675746,0.0135527,1854,708,13.6999,-0.0887921
637,316,13.7134,0.415283,0.00441056,0.00160412,0.00208135,0.00551753,0.000497148,0.488803,0.00352435,0.0130119,1861,708,13.7134,-0.415265
644,316,13.7349,0.700562,0.00145767,0.000507195,0.000467234,0.00164889,0.00031598,0.388453,0.00101053,0.0125765,1868,708,13.7349,-0.70056
651,316,13.7153,0.959656,-0.000110302,-1.56575e-05,-0.000451706,0.000391199,-0.000517158,-0.83759,0.000526118,0.0128653,1875,708,13.7153,-0.959664
658,316,13.6931,1.23639,-0.000221489,0.000538311,-0.000797413,0.0010417,-0.000724873,-1.0077,0.00102538,0.0200911,1882,708,13.6932,-1.23637
665,316,13.6606,1.52277,0.00168133,0.00319978,-5.92247e-05,0.00320209,0.00167903,-1.53187,0.00184946,0.0156622,1889,708,13.6607,-1.52275
672,316,13.6703,1.79926,0.00560179,0.00889428,0.00171585,0.00962591,0.00487017,1.16775,0.00555765,0.0111399,1896,708,13.6703,-1.79923
679,316,13.6722,2.10638,0.0102679,0.0151102,0.00391607,0.0172931,0.00808494,1.06227,0.00999119,0.0170363,1903,708,13.6722,-2.10638
686,316,13.5591,2.32068,0.0174065,0.0243932,0.00740054,0.0290835,0.0127162,1.00591,0.0168354,0.0327487,1910,708,13.5591,-2.32068
693,316,13.4143,2.55212,0,0,0,0,0,0,0,-1,1917,708,13.4143,-2.55213
700,316,12.8749,2.89136,0,0,0,0,0,0,0,-1,1924,708,12.8748,-2.89137
707,316,15.7089,5.41486,0,0,0,0,0,0,0,-1,1931,708,15.7088,-5.41487
714,316,16.1727,5.52045,0.0792759,0.104512,0.0394247,0.133288,0.0504992,0.940273,0.0777032,0.0484722,1938,708,16.1728,-5.52042
721,316,16.7094,6.53351,0.103343,0.136604,0.0523791,0.174929,0.0650175,0.939115,0.102098,0.0444701,1945,708,16.7094,-6.5335
728,316,0,0,0,0,0,0,0,0,0,-1,1952,708,0,0
735,316,0,0,0,0,0,0,0,0,0,-1,1959,708,0,0
742,316,0,0,0,0,0,0,0,0,0,-1,1966,708,0,0
749,316,0,0,0,0,0,0,0,0,0,-1,1973,708,0,0
756,316,0,0,0,0,0,0,0,0,0,-1,1980,708,0,0
763,316,0,0,0,0,0,0,0,0,0,-1,1987,708,0,0
770,316,0,0,0,0,0,0,0,0,0,-1,1994,708,0,0
777,316,0,0,0,0,0,0,0,0,0,-1,2001,708,0,0
784,316,0,0,0,0,0,0,0,0,0,-1,2008,708,0,0
791,316,0,0,0,0,0,0,0,0,0,-1,2015,708,0,0
798,316,0,0,0,0,0,0,0,0,0,-1,2022,708,0,0
805,316,0,0,0,0,0,0,0,0,0,-1,2029,708,0,0
812,316,0,0,0,0,0,0,0,0,0,-1,2036,708,0,0
-700,309,0,0,0,0,0,0,0,0,0,-1,524,715,0,0
-693,309,0,0,0,0,0,0,0,0,0,-1,531,715,0,0
-686,309,0,0,0,0,0,0,0,0,0,-1,538,715,0,0
-679,309,0,0,0,0,0,0,0,0,0,-1,545,715,0,0
-672,309,0,0,0,0,0,0,0,0,0,-1,552,715,0,0
-665,309,0,0,0,0,0,0,0,0,0,-1,559,715,0,0
-658,309,0,0,0,0,0,0,0,0,0,-1,566,715,0,0
-651,309,0,0,0,0,0,0,0,0,0,-1,573,715,0,0
-644,309,0,0,0,0,0,0,0,0,0,-1,580,715,0,0
-637,309,0,0,0,0,0,0,0,0,0,-1,587,715,0,0
-630,309,0,0,0,0,0,0,0,0,0,-1,594,715,0,0
-623,309,0,0,0,0,0,0,0,0,0,-1,601,715,0,0
-616,309,0,0,0,0,0,0,0,0,0,-1,608,715,0,0
-609,309,-5.95392,-3.93689,0,0,0,0,0,0,0,-1,615,715,-5.95392,3.93686
-602,309,-4.99786,-3.31287,0,0,0,0,0,0,0,-1,622,715,-4.99786,3.31284
-595,309,-6.80847,2.4046,0,0,0,0,0,0,0,-1,629,715,-6.80845,-2.40458
-588,309,-6.08795,2.19324,0,0,0,0,0,0,0,-1,636,715,-6.08793,-2.19325
-581,309,-5.97552,1.3277,0,0,0,0,0,0,0,-1,643,715,-5.97552,-1.32769
-574,309,-5.7384,1.5177,0,0,0,0,0,0,0,-1,650,715,-5.73842,-1.51771
-567,309,-6.63763,-0.0458374,0,0,0,0,0,0,0,-1,657,715,-6.63766,0.0458071
-560,309,-7.11957,-0.126526,0,0,0,0,0,0,0,-1,664,715,-7.11955,0.1265
-553,309,-7.60144,-0.207214,0,0,0,0,0,0,0,-1,671,715,-7.60144,0.207193
-546,309,-7.73669,-0.169861,-0.00493158,0.00687417,0.00194457,0.00718622,-0.00524363,1.41168,0.00720553,0.0164932,678,715,-7.73672,0.169854
-539,309,-7.72632,-0.449524,-0.00323529,0.00495588,0.00109808,0.00510053,-0.00337994,1.43982,0.00492968,0.0151018,685,715,-7.72635,0.449535
-532,309,-7.71954,-0.712585,-0.00181737,0.00333206,0.000535736,0.00338721,-0.00187252,1.46822,0.00307839,0.0119781,692,715,-7.71953,0.712599
-525,309,-7.73169,-0.965149,-0.000552526,0.00216479,0.000201305,0.00217962,-0.000567358,1.49725,0.00167455,0.0140925,699,715,-7.73167,0.965155
-518,309,-7.72247,-1.22107,0.000638102,0.00086627,-0.000175603,0.000961594,0.000542778,-1.07347,0.000556712,0.0142371,706,715,-7.72245,1.22108
-511,309,-7.71429,-1.47205,0.00203766,0.000569596,0.000198307,0.00206397,0.00054328,0.131931,0.00123537,0.0127684,713,715,-7.71432,1.47206
-504,309,-7.71777,-1.73718,0.00340832,0.000407409,0.000700603,0.00356383,0.000251902,0.21842,0.00229653,0.0107169,720,715,-7.71775,1.73717
-497,309,-7.7157,-1.98309,0.00497971,0.000771495,0.00146027,0.00543679,0.00031442,0.303347,0.0035244,0.0142514,727,715,-7.71568,1.98308
-490,309,-7.68982,-2.24811,0.00712171,0.00179587,0.00258331,0.00816886,0.000748724,0.385112,0.00521428,0.0279177,734,715,-7.68981,2.24811
-483,309,-7.38342,-2.74994,0,0,0,0,0,0,0,-1,741,715,-7.38344,2.74993
-476,309,-5.29486,-1.2262,0,0,0,0,0,0,0,-1,748,715,-5.29484,1.22622
-469,309,-4.22717,-0.592896,0,0,0,0,0,0,0,-1,755,715,-4.2272,0.592905
-462,309,-10.428,2.46948,0,0,0,0,0,0,0,-1,762,715,-10.428,-2.46947
-455,309,-11.8719,1.70447,0,0,0,0,0,0,0,-1,769,715,-11.8719,-1.70447
-448,309,-10.3397,2.80481,0,0,0,0,0,0,0,-1,776,715,-10.3397,-2.80481
-441,309,-10.1426,2.83881,0,0,0,0,0,0,0,-1,783,715,-10.1426,-2.83881
-434,309,-9.8681,2.92401,0,0,0,0,0,0,0,-1,790,715,-9.8681,-2.92399
-427,309,-14.1808,3.20197,0,0,0,0,0,0,0,-1,797,715,-14.1808,-3.20199
-420,309,-13.3781,3.26843,0,0,0,0,0,0,0,-1,804,715,-13.3781,-3.26842
-413,309,0,0,0,0,0,0,0,0,0,-1,811,715,0,0
-406,309,0,0,0,0,0,0,0,0,0,-1,818,715,0,0
-399,309,0,0,0,0,0,0,0,0,0,-1,825,715,0,0
-392,309,0,0,0,0,0,0,0,0,0,-1,832,715,0,0
-385,309,0,0,0,0,0,0,0,0,0,-1,839,715,0,0
-378,309,0,0,0,0,0,0,0,0,0,-1,846,715,0,0
-371,309,0,0,0,0,0,0,0,0,0,-1,853,715,0,0
-364,309,0,0,0,0,0,0,0,0,0,-1,860,715,0,0
-357,309,0,0,0,0,0,0,0,0,0,-1,867,715,0,0
-350,309,0,0,0,0,0,0,0,0,0,-1,874,715,0,0
-343,309,0,0,0,0,0,0,0,0,0,-1,881,715,0,0
-336,309,0,0,0,0,0,0,0,0,0,-1,888,715,0,0
-329,309,0,0,0,0,0,0,0,0,0,-1,895,715,0,0
-322,309,0,0,0,0,0,0,0,0,0,-1,902,715,0,0
-315,309,0,0,0,0,0,0,0,0,0,-1,909,715,0,0
-308,309,0,0,0,0,0,0,0,0,0,-1,916,715,0,0
-301,309,0,0,0,0,0,0,0,0,0,-1,923,715,0,0
-294,309,0,0,0,0,0,0,0,0,0,-1,930,715,0,0
-287,309,0,0,0,0,0,0,0,0,0,-1,937,715,0,0
-280,309,0,0,0,0,0,0,0,0,0,-1,944,715,0,0
-273,309,0,0,0,0,0,0,0,0,0,-1,951,715,0,0
-266,309,0,0,0,0,0,0,0,0,0,-1,958,715,0,0
-259,309,0,0,0,0,0,0,0,0,0,-1,965,715,0,0
-252,309,0,0,0,0,0,0,0,0,0,-1,972,715,0,0
-245,309,0,0,0,0,0,0,0,0,0,-1,979,715,0,0
-238,309,0,0,0,0,0,0,0,0,0,-1,986,715,0,0
-231,309,0,0,0,0,0,0,0,0,0,-1,993,715,0,0
-224,309,0,0,0,0,0,0,0,0,0,-1,1000,715,0,0
-217,309,0,0,0,0,0,0,0,0,0,-1,1007,715,0,0
-210,309,0,0,0,0,0,0,0,0,0,-1,1014,715,0,0
-203,309,0,0,0,0,0,0,0,0,0,-1,1021,715,0,0
-196,309,0,0,0,0,0,0,0,0,0,-1,1028,715,0,0
-189,309,0,0,0,0,0,0,0,0,0,-1,1035,715,0,0
-182,309,0,0,0,0,0,0,0,0,0,-1,1042,715,0,0
-175,309,0,0,0,0,0,0,0,0,0,-1,1049,715,0,0
-168,309,0,0,0,0,0,0,0,0,0,-1,1056,715,0,0
-161,309,0,0,0,0,0,0,0,0,0,-1,1063,715,0,0
-154,309,0,0,0,0,0,0,0,0,0,-1,1070,715,0,0
-147,309,0,0,0,0,0,0,0,0,0,-1,1077,715,0,0
-140,309,0,0,0,0,0,0,0,0,0,-1,1084,715,0,0
-133,309,0,0,0,0,0,0,0,0,0,-1,1091,715,0,0
-126,309,0,0,0,0,0,0,0,0,0,-1,1098,715,0,0
-119,309,0,0,0,0,0,0,0,0,0,-1,1105,715,0,0
-112,309,0,0,0,0,0,0,0,0,0,-1,1112,715,0,0
-105,309,0,0,0,0,0,0,0,0,0,-1,1119,715,0,0
-98,309,0,0,0,0,0,0,0,0,0,-1,1126,715,0,0
-91,309,0,0,0,0,0,0,0,0,0,-1,1133,715,0,0
-84,309,0,0,0,0,0,0,0,0,0,-1,1140,715,0,0
-77,309,0,0,0,0,0,0,0,0,0,-1,1147,715,0,0
-70,309,0,0,0,0,0,0,0,0,0,-1,1154,715,0,0
-63,309,0,0,0,0,0,0,0,0,0,-1,1161,715,0,0
-56,309,0,0,0,0,0,0,0,0,0,-1,1168,715,0,0
-49,309,0,0,0,0,0,0,0,0,0,-1,1175,715,0,0
-42,309,0,0,0,0,0,0,0,0,0,-1,1182,715,0,0
-35,309,0,0,0,0,0,0,0,0,0,-1,1189,715,0,0
-28,309,0,0,0,0,0,0,0,0,0,-1,1196,715,0,0
-21,309,0,0,0,0,0,0,0,0,0,-1,1203,715,0,0
-14,309,0,0,0,0,0,0,0,0,0,-1,1210,715,0,0
-7,309,0,0,0,0,0,0,0,0,0,-1,1217,715,0,0
0,309,0,0,0,0,0,0,0,0,0,-1,1224,715,0,0
7,309,0,0,0,0,0,0,0,0,0,-1,1231,715,0,0
14,309,0,0,0,0,0,0,0,0,0,-1,1238,715,0,0
21,309,0,0,0,0,0,0,0,0,0,-1,1245,715,0,0
28,309,0,0,0,0,0,0,0,0,0,-1,1252,715,0,0
35,309,0,0,0,0,0,0,0,0,0,-1,1259,715,0,0
42,309,0,0,0,0,0,0,0,0,0,-1,1266,715,0,0
49,309,0,0,0,0,0,0,0,0,0,-1,1273,715,0,0
56,309,0,0,0,0,0,0,0,0,0,-1,1280,715,0,0
63,309,0,0,0,0,0,0,0,0,0,-1,1287,715,0,0
70,309,0,0,0,0,0,0,0,0,0,-1,1294,715,0,0
77,309,0,0,0,0,0,0,0,0,0,-1,1301,715,0,0
84,309,0,0,0,0,0,0,0,0,0,-1,1308,715,0,0
91,309,0,0,0,0,0,0,0,0,0,-1,1315,715,0,0
98,309,0,0,0,0,0,0,0,0,0,-1,1322,715,0,0
105,309,0,0,0,0,0,0,0,0,0,-1,1329,715,0,0
112,309,0,0,0,0,0,0,0,0,0,-1,1336,715,0,0
119,309,0,0,0,0,0,0,0,0,0,-1,1343,715,0,0
126,309,0,0,0,0,0,0,0,0,0,-1,1350,715,0,0
133,309,0,0,0,0,0,0,0,0,0,-1,1357,715,0,0
140,309,0,0,0,0,0,0,0,0,0,-1,1364,715,0,0
147,309,0,0,0,0,0,0,0,0,0,-1,1371,715,0,0
154,309,0,0,0,0,0,0,0,0,0,-1,1378,715,0,0
161,309,0,0,0,0,0,0,0,0,0,-1,1385,715,0,0
168,309,0,0,0,0,0,0,0,0,0,-1,1392,715,0,0
175,309,0,0,0,0,0,0,0,0,0,-1,1399,715,0,0
182,309,0,0,0,0,0,0,0,0,0,-1,1406,715,0,0
189,309,0,0,0,0,0,0,0,0,0,-1,1413,715,0,0
196,309,0,0,0,0,0,0,0,0,0,-1,1420,715,0,0
203,309,0,0,0,0,0,0,0,0,0,-1,1427,715,0,0
210,309,0,0,0,0,0,0,0,0,0,-1,1434,715,0,0
217,309,0,0,0,0,0,0,0,0,0,-1,1441,715,0,0
224,309,0,0,0,0,0,0,0,0,0,-1,1448,715,0,0
231,309,0,0,0,0,0,0,0,0,0,-1,1455,715,0,0
238,309,0,0,0,0,0,0,0,0,0,-1,1462,715,0,0
245,309,0,0,0,0,0,0,0,0,0,-1,1469,715,0,0
252,309,0,0,0,0,0,0,0,0,0,-1,1476,715,0,0
259,309,0,0,0,0,0,0,0,0,0,-1,1483,715,0,0
266,309,0,0,0,0,0,0,0,0,0,-1,1490,715,0,0
273,309,0,0,0,0,0,0,0,0,0,-1,1497,715,0,0
280,309,0,0,0,0,0,0,0,0,0,-1,1504,715,0,0
287,309,0,0,0,0,0,0,0,0,0,-1,1511,715,0,0
294,309,0,0,0,0,0,0,0,0,0,-1,1518,715,0,0
301,309,0,0,0,0,0,0,0,0,0,-1,1525,715,0,0
308,309,0,0,0,0,0,0,0,0,0,-1,1532,715,0,0
315,309,0,0,0,0,0,0,0,0,0,-1,1539,715,0,0
322,309,0,0,0,0,0,0,0,0,0,-1,1546,715,0,0
329,309,0,0,0,0,0,0,0,0,0,-1,1553,715,0,0
336,309,0,0,0,0,0,0,0,0,0,-1,1560,715,0,0
343,309,0,0,0,0,0,0,0,0,0,-1,1567,715,0,0
350,309,0,0,0,0,0,0,0,0,0,-1,1574,715,0,0
357,309,0,0,0,0,0,0,0,0,0,-1,1581,715,0,0
364,309,0,0,0,0,0,0,0,0,0,-1,1588,715,0,0
371,309,0,0,0,0,0,0,0,0,0,-1,1595,715,0,0
378,309,0,0,0,0,0,0,0,0,0,-1,1602,715,0,0
385,309,0,0,0,0,0,0,0,0,0,-1,1609,715,0,0
392,309,0,0,0,0,0,0,0,0,0,-1,1616,715,0,0
399,309,0,0,0,0,0,0,0,0,0,-1,1623,715,0,0
406,309,0,0,0,0,0,0,0,0,0,-1,1630,715,0,0
413,309,0,0,0,0,0,0,0,0,0,-1,1637,715,0,0
420,309,0,0,0,0,0,0,0,0,0,-1,1644,715,0,0
427,309,0,0,0,0,0,0,0,0,0,-1,1651,715,0,0
434,309,0,0,0,0,0,0,0,0,0,-1,1658,715,0,0
441,309,0,0,0,0,0,0,0,0,0,-1,1665,715,0,0
448,309,0,0,0,0,0,0,0,0,0,-1,1672,715,0,0
455,309,0,0,0,0,0,0,0,0,0,-1,1679,715,0,0
462,309,0,0,0,0,0,0,0,0,0,-1,1686,715,0,0
469,309,0,0,0,0,0,0,0,0,0,-1,1693,715,0,0
476,309,0,0,0,0,0,0,0,0,0,-1,1700,715,0,0
483,309,0,0,0,0,0,0,0,0,0,-1,1707,715,0,0
490,309,0,0,0,0,0,0,0,0,0,-1,1714,715,0,0
497,309,0,0,0,0,0,0,0,0,0,-1,1721,715,0,0
504,309,0,0,0,0,0,0,0,0,0,-1,1728,715,0,0
511,309,0,0,0,0,0,0,0,0,0,-1,1735,715,0,0
518,309,0,0,0,0,0,0,0,0,0,-1,1742,715,0,0
525,309,0,0,0,0,0,0,0,0,0,-1,1749,715,0,0
532,309,0,0,0,0,0,0,0,0,0,-1,1756,715,0,0
539,309,19.4202,2.61884,0,0,0,0,0,0,0,-1,1763,715,19.4202,-2.61883
546,309,19.571,3.34857,0,0,0,0,0,0,0,-1,1770,715,19.571,-3.3486
553,309,20.3191,3.7149,0,0,0,0,0,0,0,-1,1777,715,20.3191,-3.71488
560,309,22.454,0.763,0,0,0,0,0,0,0,-1,1784,715,22.454,-0.763017
567,309,22.6428,1.30878,0.0225457,-0.0035356,-0.00140623,0.0226213,-0.0036112,-0.0537098,0.0164175,0.0452936,1791,715,22.6429,-1.30878
574,309,22.7496,1.63983,0.0309687,0.00129094,0.0050693,0.0318107,0.000448938,0.164596,0.0210591,0.0468624,1798,715,22.7497,-1.63981
581,309,23.4667,2.21063,0.0337169,0.00379348,0.00854129,0.0359833,0.00152712,0.259365,0.0234964,0.0489269,1805,715,23.4667,-2.21066
588,309,24.2113,3.86719,0,0,0,0,0,0,0,-1,1812,715,24.2113,-3.86717
595,309,19.585,3.71558,0,0,0,0,0,0,0,-1,1819,715,19.5849,-3.71555
602,309,11.0811,3.47772,0,0,0,0,0,0,0,-1,1826,715,11.0811,-3.47772
609,309,13.9288,-0.771423,0,0,0,0,0,0,0,-1,1833,715,13.9288,0.771451
616,309,13.9846,-0.463196,0.0183157,0.00245977,0.00784022,0.0215377,-0.000762221,0.389916,0.0146192,0.0270062,1840,715,13.9846,0.463218
623,309,14.0065,-0.17804,0.0144991,0.00199884,0.00671247,0.0174207,-0.0009228,0.410526,0.0119333,0.0112705,1847,715,14.0065,0.178015
630,309,13.9719,0.111267,0.0102121,0.00163731,0.00553282,0.0129242,-0.00107486,0.455774,0.00899588,0.0107382,1854,715,13.972,-0.111282
637,309,13.9562,0.419556,0.00573572,0.00120951,0.00343495,0.00758608,-0.000640843,0.494114,0.00528397,0.0138145,1861,715,13.9562,-0.419544
644,309,13.9697,0.704163,0.00223495,0.000206168,0.00149267,0.00302529,-0.000584169,0.486953,0.00223715,0.0145249,1868,715,13.9697,-0.704187
651,309,13.9823,0.966553,0.000278845,-0.00025197,0.000307041,0.000419289,-0.000392413,0.429,0.000468722,0.0133445,1875,715,13.9823,-0.966575
658,309,13.9825,1.23346,0.000142166,0.000509292,-0.00021461,0.000608134,4.33237e-05,-1.13919,0.000391781,0.0181031,1882,715,13.9825,-1.23344
665,309,13.9901,1.50531,0.00184409,0.003119,0.000330488,0.00319958,0.00176352,1.33165,0.0018505,0.015897,1889,715,13.9901,-1.50531
672,309,13.976,1.78857,0.0053955,0.00829918,0.001933,0.00926485,0.00442983,1.1075,0.00535077,0.013842,1896,715,13.9759,-1.78858
679,309,13.9749,2.10022,0.0096001,0.0139117,0.00389599,0.0162085,0.00730323,1.0381,0.00937323,0.0146815,1903,715,13.9749,-2.10024
686,309,13.9264,2.37567,0.0159498,0.0221571,0.00693228,0.0266488,0.0114581,0.995872,0.0154359,0.0226433,1910,715,13.9264,-2.37569
693,309,13.6624,2.66479,0.0248977,0.033601,0.0112979,0.0413563,0.0171424,0.969228,0.0239932,0.0388394,1917,715,13.6623,-2.66476
700,309,13.5406,3.03552,0,0,0,0,0,0,0,-1,1924,715,13.5407,-3.03554
707,309,15.6318,4.58655,0,0,0,0,0,0,0,-1,1931,715,15.6318,-4.58657
714,309,16.1973,4.76227,0.0717013,0.0936139,0.0344465,0.118805,0.0465107,0.939372,0.0691282,0.0498314,1938,715,16.1973,-4.76226
721,309,16.8337,5.4458,0.094031,0.122886,0.0456017,0.156288,0.0606289,0.938605,0.0909852,0.0460807,1945,715,16.8338,-5.44582
728,309,0,0,0,0,0,0,0,0,0,-1,1952,715,0,0
735,309,0,0,0,0,0,0,0,0,0,-1,1959,715,0,0
742,309,0,0,0,0,0,0,0,0,0,-1,1966,715,0,0
749,309,0,0,0,0,0,0,0,0,0,-1,1973,715,0,0
756,309,0,0,0,0,0,0,0,0,0,-1,1980,715,0,0
763,309,0,0,0,0,0,0,0,0,0,-1,1987,715,0,0
770,309,0,0,0,0,0,0,0,0,0,-1,1994,715,0,0
777,309,0,0,0,0,0,0,0,0,0,-1,2001,715,0,0
784,309,0,0,0,0,0,0,0,0,0,-1,2008,715,0,0
791,309,0,0,0,0,0,0,0,0,0,-1,2015,715,0,0
798,309,0,0,0,0,0,0,0,0,0,-1,2022,715,0,0
805,309,0,0,0,0,0,0,0,0,0,-1,2029,715,0,0
812,309,0,0,0,0,0,0,0,0,0,-1,2036,715,0,0
-700,302,0,0,0,0,0,0,0,0,0,-1,524,722,0,0
-693,302,0,0,0,0,0,0,0,0,0,-1,531,722,0,0
-686,302,0,0,0,0,0,0,0,0,0,-1,538,722,0,0
-679,302,0,0,0,0,0,0,0,0,0,-1,545,722,0,0
-672,302,0,0,0,0,0,0,0,0,0,-1,552,722,0,0
-665,302,0,0,0,0,0,0,0,0,0,-1,559,722,0,0
-658,302,0,0,0,0,0,0,0,0,0,-1,566,722,0,0
-651,302,0,0,0,0,0,0,0,0,0,-1,573,722,0,0
-644,302,0,0,0,0,0,0,0,0,0,-1,580,722,0,0
-637,302,0,0,0,0,0,0,0,0,0,-1,587,722,0,0
-630,302,0,0,0,0,0,0,0,0,0,-1,594,722,0,0
-623,302,0,0,0,0,0,0,0,0,0,-1,601,722,0,0
-616,302,0,0,0,0,0,0,0,0,0,-1,608,722,0,0
-609,302,-7.79266,-3.71649,0,0,0,0,0,0,0,-1,615,722,-7.79267,3.7165
-602,302,0.92865,-1.99158,0,0,0,0,0,0,0,-1,622,722,0.928637,1.99157
-595,302,-7.89941,2.13641,0,0,0,0,0,0,0,-1,629,722,-7.89939,-2.13639
-588,302,-7.10895,1.79163,0,0,0,0,0,0,0,-1,636,722,-7.10896,-1.79163
-581,302,-6.79132,1.21143,0,0,0,0,0,0,0,-1,643,722,-6.79134,-1.21145
-574,302,-6.82611,1.02429,0.0113044,0.0216236,-0.00207071,0.0220236,0.0109044,-1.37997,0.0127155,0.046771,650,722,-6.82613,-1.02429
-567,302,-6.80292,0.539978,0.00306332,0.015447,-0.000306459,0.0154546,0.00305574,-1.54607,0.00945063,0.044069,657,722,-6.80293,-0.540008
-560,302,-7.64844,0.0780029,-0.000964183,0.0109844,0.000839109,0.011043,-0.00102282,1.50103,0.00772555,0.0426441,664,722,-7.64844,-0.0780022
-553,302,-8.04102,0.0961914,0,0,0,0,0,0,0,-1,671,722,-8.04104,-0.0962076
-546,302,-7.9859,-0.207092,-0.00493919,0.00519793,0.00243568,0.00575279,-0.00549405,1.34681,0.00649394,0.0151067,678,722,-7.98587,0.207105
-539,302,-7.99652,-0.444214,-0.00345386,0.00366548,0.00157966,0.00400024,-0.00378862,1.36197,0.00449745,0.0143999,685,722,-7.9965,0.444206
-532,302,-7.98901,-0.692383,-0.00205972,0.00232698,0.00091098,0.00250864,-0.00224138,1.37397,0.00274387,0.0137408,692,722,-7.989,0.692411
-525,302,-7.97382,-0.969055,-0.000688058,0.00142454,0.000437566,0.00151159,-0.000775101,1.37443,0.00134285,0.0186846,699,722,-7.97383,0.969035
-518,302,-7.9776,-1.2287,0.000634067,0.000269761,-0.000106328,0.00066283,0.000240999,-0.264185,0.000387403,0.0188133,706,722,-7.97758,1.22871
-511,302,-7.97174,-1.46649,0.00220246,0.000229323,0.000239182,0.00223104,0.000200744,0.118924,0.00142517,0.0104055,713,722,-7.97171,1.4665
-504,302,-7.97559,-1.7323,0.00378446,0.000177466,0.000616896,0.00388705,7.48781e-05,0.16479,0.00256677,0.0101311,720,722,-7.97562,1.73227
-497,302,-7.98199,-1.98346,0.00565882,0.000652928,0.00125238,0.00595466,0.000357091,0.231968,0.00385626,0.0145458,727,722,-7.98198,1.98346
-490,302,-7.88086,-2.17914,0.00810959,0.00174208,0.00226195,0.00883131,0.00102037,0.308858,0.00557861,0.0397399,734,722,-7.88089,2.17913
-483,302,-7.54504,-2.18756,0,0,0,0,0,0,0,-1,741,722,-7.54506,2.18759
-476,302,-4.29749,-0.203491,0,0,0,0,0,0,0,-1,748,722,-4.29751,0.203464
-469,302,-12.369,1.42859,0,0,0,0,0,0,0,-1,755,722,-12.3689,-1.42857
-462,302,-11.623,2.56793,0,0,0,0,0,0,0,-1,762,722,-11.623,-2.56794
-455,302,-10.8771,3.70734,0,0,0,0,0,0,0,-1,769,722,-10.8771,-3.70732
-448,302,-11.4836,1.28436,0,0,0,0,0,0,0,-1,776,722,-11.4836,-1.28437
-441,302,-10.6285,1.82928,0,0,0,0,0,0,0,-1,783,722,-10.6285,-1.82929
-434,302,-10.0271,2.41241,0,0,0,0,0,0,0,-1,790,722,-10.0271,-2.41243
-427,302,-13.8761,3.5506,0,0,0,0,0,0,0,-1,797,722,-13.8761,-3.55061
-420,302,0,0,0,0,0,0,0,0,0,-1,804,722,0,0
-413,302,0,0,0,0,0,0,0,0,0,-1,811,722,0,0
-406,302,0,0,0,0,0,0,0,0,0,-1,818,722,0,0
-399,302,0,0,0,0,0,0,0,0,0,-1,825,722,0,0
-392,302,0,0,0,0,0,0,0,0,0,-1,832,722,0,0
-385,302,0,0,0,0,0,0,0,0,0,-1,839,722,0,0
-378,302,0,0,0,0,0,0,0,0,0,-1,846,722,0,0
-371,302,0,0,0,0,0,0,0,0,0,-1,853,722,0,0
-364,302,0,0,0,0,0,0,0,0,0,-1,860,722,0,0
-357,302,0,0,0,0,0,0,0,0,0,-1,867,722,0,0
-350,302,0,0,0,0,0,0,0,0,0,-1,874,722,0,0
-343,302,0,0,0,0,0,0,0,0,0,-1,881,722,0,0
-336,302,0,0,0,0,0,0,0,0,0,-1,888,722,0,0
-329,302,0,0,0,0,0,0,0,0,0,-1,895,722,0,0
-322,302,0,0,0,0,0,0,0,0,0,-1,902,722,0,0
-315,302,0,0,0,0,0,0,0,0,0,-1,909,722,0,0
-308,302,0,0,0,0,0,0,0,0,0,-1,916,722,0,0
-301,302,0,0,0,0,0,0,0,0,0,-1,923,722,0,0
-294,302,0,0,0,0,0,0,0,0,0,-1,930,722,0,0
-287,302,0,0,0,0,0,0,0,0,0,-1,937,722,0,0
-280,302,0,0,0,0,0,0,0,0,0,-1,944,722,0,0
-273,302,0,0,0,0,0,0,0,0,0,-1,951,722,0,0
-266,302,0,0,0,0,0,0,0,0,0,-1,958,722,0,0
-259,302,0,0,0,0,0,0,0,0,0,-1,965,722,0,0
-252,302,0,0,0,0,0,0,0,0,0,-1,972,722,0,0
-245,302,0,0,0,0,0,0,0,0,0,-1,979,722,0,0
-238,302,0,0,0,0,0,0,0,0,0,-1,986,722,0,0
-231,302,0,0,0,0,0,0,0,0,0,-1,993,722,0,0
-224,302,0,0,0,0,0,0,0,0,0,-1,1000,722,0,0
-217,302,0,0,0,0,0,0,0,0,0,-1,1007,722,0,0
-210,302,0,0,0,0,0,0,0,0,0,-1,1014,722,0,0
-203,302,0,0,0,0,0,0,0,0,0,-1,1021,722,0,0
-196,302,0,0,0,0,0,0,0,0,0,-1,1028,722,0,0
-189,302,0,0,0,0,0,0,0,0,0,-1,1035,722,0,0
-182,302,0,0,0,0,0,0,0,0,0,-1,1042,722,0,0
-175,302,0,0,0,0,0,0,0,0,0,-1,1049,722,0,0
-168,302,0,0,0,0,0,0,0,0,0,-1,1056,722,0,0
-161,302,0,0,0,0,0,0,0,0,0,-1,1063,722,0,0
-154,302,0,0,0,0,0,0,0,0,0,-1,1070,722,0,0
-147,302,0,0,0,0,0,0,0,0,0,-1,1077,722,0,0
-140,302,0,0,0,0,0,0,0,0,0,-1,1084,722,0,0
-133,302,0,0,0,0,0,0,0,0,0,-1,1091,722,0,0
-126,302,0,0,0,0,0,0,0,0,0,-1,1098,722,0,0
-119,302,0,0,0,0,0,0,0,0,0,-1,1105,722,0,0
-112,302,0,0,0,0,0,0,0,0,0,-1,1112,722,0,0
-105,302,0,0,0,0,0,0,0,0,0,-1,1119,722,0,0
-98,302,0,0,0,0,0,0,0,0,0,-1,1126,722,0,0
-91,302,0,0,0,0,0,0,0,0,0,-1,1133,722,0,0
-84,302,0,0,0,0,0,0,0,0,0,-1,1140,722,0,0
-77,302,0,0,0,0,0,0,0,0,0,-1,1147,722,0,0
-70,302,0,0,0,0,0,0,0,0,0,-1,1154,722,0,0
-63,302,0,0,0,0,0,0,0,0,0,-1,1161,722,0,0
-56,302,0,0,0,0,0,0,0,0,0,-1,1168,722,0,0
-49,302,0,0,0,0,0,0,0,0,0,-1,1175,722,0,0
-42,302,0,0,0,0,0,0,0,0,0,-1,1182,722,0,0
-35,302,0,0,0,0,0,0,0,0,0,-1,1189,722,0,0
-28,302,0,0,0,0,0,0,0,0,0,-1,1196,722,0,0
-21,302,0,0,0,0,0,0,0,0,0,-1,1203,722,0,0
-14,302,0,0,0,0,0,0,0,0,0,-1,1210,722,0,0
-7,302,0,0,0,0,0,0,0,0,0,-1,1217,722,0,0
0,302,0,0,0,0,0,0,0,0,0,-1,1224,722,0,0
7,302,0,0,0,0,0,0,0,0,0,-1,1231,722,0,0
14,302,0,0,0,0,0,0,0,0,0,-1,1238,722,0,0
21,302,0,0,0,0,0,0,0,0,0,-1,1245,722,0,0
28,302,0,0,0,0,0,0,0,0,0,-1,1252,722,0,0
35,302,0,0,0,0,0,0,0,0,0,-1,1259,722,0,0
42,302,0,0,0,0,0,0,0,0,0,-1,1266,722,0,0
49,302,0,0,0,0,0,0,0,0,0,-1,1273,722,0,0
56,302,0,0,0,0,0,0,0,0,0,-1,1280,722,0,0
63,302,0,0,0,0,0,0,0,0,0,-1,1287,722,0,0
70,302,0,0,0,0,0,0,0,0,0,-1,1294,722,0,0
77,302,0,0,0,0,0,0,0,0,0,-1,1301,722,0,0
84,302,0,0,0,0,0,0,0,0,0,-1,1308,722,0,0
91,302,0,0,0,0,0,0,0,0,0,-1,1315,722,0,0
98,302,0,0,0,0,0,0,0,0,0,-1,1322,722,0,0
105,302,0,0,0,0,0,0,0,0,0,-1,1329,722,0,0
112,302,0,0,0,0,0,0,0,0,0,-1,1336,722,0,0
119,302,0,0,0,0,0,0,0,0,0,-1,1343,722,0,0
126,302,0,0,0,0,0,0,0,0,0,-1,1350,722,0,0
133,302,0,0,0,0,0,0,0,0,0,-1,1357,722,0,0
140,302,0,0,0,0,0,0,0,0,0,-1,1364,722,0,0
147,302,0,0,0,0,0,0,0,0,0,-1,1371,722,0,0
154,302,0,0,0,0,0,0,0,0,0,-1,1378,722,0,0
161,302,0,0,0,0,0,0,0,0,0,-1,1385,722,0,0
168,302,0,0,0,0,0,0,0,0,0,-1,1392,722,0,0
175,302,0,0,0,0,0,0,0,0,0,-1,1399,722,0,0
182,302,0,0,0,0,0,0,0,0,0,-1,1406,722,0,0
189,302,0,0,0,0,0,0,0,0,0,-1,1413,722,0,0
196,302,0,0,0,0,0,0,0,0,0,-1,1420,722,0,0
203,302,0,0,0,0,0,0,0,0,0,-1,1427,722,0,0
210,302,0,0,0,0,0,0,0,0,0,-1,1434,722,0,0
217,302,0,0,0,0,0,0,0,0,0,-1,1441,722,0,0
224,302,0,0,0,0,0,0,0,0,0,-1,1448,722,0,0
231,302,0,0,0,0,0,0,0,0,0,-1,1455,722,0,0
238,302,0,0,0,0,0,0,0,0,0,-1,1462,722,0,0
245,302,0,0,0,0,0,0,0,0,0,-1,1469,722,0,0
252,302,0,0,0,0,0,0,0,0,0,-1,1476,722,0,0
259,302,0,0,0,0,0,0,0,0,0,-1,1483,722,0,0
266,302,0,0,0,0,0,0,0,0,0,-1,1490,722,0,0
273,302,0,0,0,0,0,0,0,0,0,-1,1497,722,0,0
280,302,0,0,0,0,0,0,0,0,0,-1,1504,722,0,0
287,302,0,0,0,0,0,0,0,0,0,-1,1511,722,0,0
294,302,0,0,0,0,0,0,0,0,0,-1,1518,722,0,0
301,302,0,0,0,0,0,0,0,0,0,-1,1525,722,0,0
308,302,0,0,0,0,0,0,0,0,0,-1,1532,722,0,0
315,302,0,0,0,0,0,0,0,0,0,-1,1539,722,0,0
322,302,0,0,0,0,0,0,0,0,0,-1,1546,722,0,0
329,302,0,0,0,0,0,0,0,0,0,-1,1553,722,0,0
336,302,0,0,0,0,0,0,0,0,0,-1,1560,722,0,0
343,302,0,0,0,0,0,0,0,0,0,-1,1567,722,0,0
350,302,0,0,0,0,0,0,0,0,0,-1,1574,722,0,0
357,302,0,0,0,0,0,0,0,0,0,-1,1581,722,0,0
364,302,0,0,0,0,0,0,0,0,0,-1,1588,722,0,0
371,302,0,0,0,0,0,0,0,0,0,-1,1595,722,0,0
378,302,0,0,0,0,0,0,0,0,0,-1,1602,722,0,0
385,302,0,0,0,0,0,0,0,0,0,-1,1609,722,0,0
392,302,0,0,0,0,0,0,0,0,0,-1,1616,722,0,0
399,302,0,0,0,0,0,0,0,0,0,-1,1623,722,0,0
406,302,0,0,0,0,0,0,0,0,0,-1,1630,722,0,0
413,302,0,0,0,0,0,0,0,0,0,-1,1637,722,0,0
420,302,0,0,0,0,0,0,0,0,0,-1,1644,722,0,0
427,302,0,0,0,0,0,0,0,0,0,-1,1651,722,0,0
434,302,0,0,0,0,0,0,0,0,0,-1,1658,722,0,0
441,302,0,0,0,0,0,0,0,0,0,-1,1665,722,0,0
448,302,0,0,0,0,0,0,0,0,0,-1,1672,722,0,0
455,302,0,0,0,0,0,0,0,0,0,-1,1679,722,0,0
462,302,0,0,0,0,0,0,0,0,0,-1,1686,722,0,0
469,302,0,0,0,0,0,0,0,0,0,-1,1693,722,0,0
476,302,0,0,0,0,0,0,0,0,0,-1,1700,722,0,0
483,302,0,0,0,0,0,0,0,0,0,-1,1707,722,0,0
490,302,0,0,0,0,0,0,0,0,0,-1,1714,722,0,0
497,302,0,0,0,0,0,0,0,0,0,-1,1721,722,0,0
504,302,0,0,0,0,0,0,0,0,0,-1,1728,722,0,0
511,302,0,0,0,0,0,0,0,0,0,-1,1735,722,0,0
518,302,0,0,0,0,0,0,0,0,0,-1,1742,722,0,0
525,302,0,0,0,0,0,0,0,0,0,-1,1749,722,0,0
532,302,0,0,0,0,0,0,0,0,0,-1,1756,722,0,0
539,302,0,0,0,0,0,0,0,0,0,-1,1763,722,0,0
546,302,15.8817,5.34479,0,0,0,0,0,0,0,-1,1770,722,15.8818,-5.34477
553,302,16.7661,4.97906,0,0,0,0,0,0,0,-1,1777,722,16.7661,-4.97906
560,302,22.2942,1.12573,0,0,0,0,0,0,0,-1,1784,722,22.2941,-1.12572
567,302,22.7115,1.50317,0.0314098,0.00333622,-0.00032787,0.0314137,0.00333239,-0.0116768,0.0199248,0.04457,1791,722,22.7116,-1.50319
574,302,23.0157,1.74164,0.0379694,0.00553662,0.00612888,0.039089,0.00441708,0.180674,0.0247188,0.0433895,1798,722,23.0158,-1.74164
581,302,23.3127,2.31232,0.0387351,0.00650191,0.0094421,0.0412973,0.0039397,0.264979,0.0263168,0.0440723,1805,722,23.3128,-2.31234
588,302,23.9078,3.19592,0.036357,0.00644674,0.0106454,0.0397589,0.00304485,0.309308,0.0255515,0.049194,1812,722,23.9079,-3.19592
595,302,24.4933,4.84674,0,0,0,0,0,0,0,-1,1819,722,24.4933,-4.84673
602,302,14.7349,5.21246,0,0,0,0,0,0,0,-1,1826,722,14.7349,-5.21247
609,302,11.1578,-0.125854,0,0,0,0,0,0,0,-1,1833,722,11.1579,0.125839
616,302,14.3,-0.495911,0,0,0,0,0,0,0,-1,1840,722,14.3001,0.495896
623,302,14.2854,-0.173218,0.0153518,0.00217642,0.00748692,0.0187367,-0.00120842,0.4246,0.0129128,0.0143421,1847,722,14.2853,0.173208
630,302,14.2444,0.141113,0.0111701,0.00189173,0.00649827,0.0145152,-0.00145342,0.475398,0.0101959,0.0110729,1854,722,14.2444,-0.141107
637,302,14.2042,0.431641,0.00651365,0.00147023,0.00436725,0.00903495,-0.00105107,0.523575,0.00640248,0.0145645,1861,722,14.2043,-0.431628
644,302,14.2313,0.702637,0.00272514,0.000423677,0.00227564,0.00412445,-0.000975639,0.55131,0.00312602,0.0147017,1868,722,14.2313,-0.702665
651,302,14.259,0.973999,0.000534509,-0.000175021,0.000922435,0.00116805,-0.00080856,0.60182,0.00114747,0.0137294,1875,722,14.259,-0.973998
658,302,14.2626,1.23212,0.00044789,0.000575367,0.000241042,0.000760955,0.000262302,0.914654,0.000446345,0.0149567,1882,722,14.2625,-1.23209
665,302,14.2555,1.4978,0.00195224,0.00292756,0.000530691,0.00316063,0.00171917,1.15698,0.00182714,0.0143436,1889,722,14.2555,-1.49777
672,302,14.2469,1.76343,0.00512849,0.00740337,0.0019402,0.00851496,0.0040169,1.05052,0.00491873,0.011329,1896,722,14.247,-1.76342
679,302,14.2367,2.05707,0.00889458,0.0123444,0.00372598,0.0147253,0.0065136,1.00218,0.00852051,0.00896357,1903,722,14.2367,-2.05707
686,302,14.2456,2.32263,0.0144609,0.0193777,0.00643433,0.0238073,0.0100313,0.967878,0.0138017,0.0134796,1910,722,14.2456,-2.32263
693,302,14.0736,2.46393,0.0222343,0.0291292,0.0102151,0.0364629,0.0149005,0.948139,0.0211687,0.030876,1917,722,14.0736,-2.46391
700,302,14.0609,2.47992,0,0,0,0,0,0,0,-1,1924,722,14.0609,-2.4799
707,302,15.2213,3.89166,0,0,0,0,0,0,0,-1,1931,722,15.2213,-3.89167
714,302,15.9742,4.26898,0.0632766,0.0803381,0.0304466,0.103426,0.0401882,0.921989,0.0602056,0.0458036,1938,722,15.9743,-4.269
721,302,16.6334,4.65686,0.08312,0.105448,0.0404744,0.13627,0.0522982,0.919968,0.0793808,0.0465892,1945,722,16.6334,-4.65688
728,302,17.2798,4.81702,0,0,0,0,0,0,0,-1,1952,722,17.2798,-4.81703
735,302,0,0,0,0,0,0,0,0,0,-1,1959,722,0,0
742,302,0,0,0,0,0,0,0,0,0,-1,1966,722,0,0
749,302,0,0,0,0,0,0,0,0,0,-1,1973,722,0,0
756,302,0,0,0,0,0,0,0,0,0,-1,1980,722,0,0
763,302,0,0,0,0,0,0,0,0,0,-1,1987,722,0,0
770,302,0,0,0,0,0,0,0,0,0,-1,1994,722,0,0
777,302,0,0,0,0,0,0,0,0,0,-1,2001,722,0,0
784,302,0,0,0,0,0,0,0,0,0,-1,2008,722,0,0
791,302,0,0,0,0,0,0,0,0,0,-1,2015,722,0,0
798,302,0,0,0,0,0,0,0,0,0,-1,2022,722,0,0
805,302,0,0,0,0,0,0,0,0,0,-1,2029,722,0,0
812,302,0,0,0,0,0,0,0,0,0,-1,2036,722,0,0
-700,295,0,0,0,0,0,0,0,0,0,-1,524,729,0,0
-693,295,0,0,0,0,0,0,0,0,0,-1,531,729,0,0
-686,295,0,0,0,0,0,0,0,0,0,-1,538,729,0,0
-679,295,0,0,0,0,0,0,0,0,0,-1,545,729,0,0
-672,295,0,0,0,0,0,0,0,0,0,-1,552,729,0,0
-665,295,0,0,0,0,0,0,0,0,0,-1,559,729,0,0
-658,295,0,0,0,0,0,0,0,0,0,-1,566,729,0,0
-651,295,0,0,0,0,0,0,0,0,0,-1,573,729,0,0
-644,295,0,0,0,0,0,0,0,0,0,-1,580,729,0,0
-637,295,0,0,0,0,0,0,0,0,0,-1,587,729,0,0
-630,295,0,0,0,0,0,0,0,0,0,-1,594,729,0,0
-623,295,0,0,0,0,0,0,0,0,0,-1,601,729,0,0
-616,295,-13.4911,1.31738,0,0,0,0,0,0,0,-1,608,729,-13.4911,-1.3174
-609,295,-8.79529,4.61145,0,0,0,0,0,0,0,-1,615,729,-8.7953,-4.61143
-602,295,-8.20691,3.56006,0,0,0,0,0,0,0,-1,622,729,-8.20694,-3.56006
-595,295,-0.615479,-1.95447,0,0,0,0,0,0,0,-1,629,729,-0.615481,1.95445
-588,295,-7.98999,1.56903,0,0,0,0,0,0,0,-1,636,729,-7.98997,-1.56905
-581,295,-7.49188,0.897888,0,0,0,0,0,0,0,-1,643,729,-7.4919,-0.89786
-574,295,-7.59888,0.675781,0.0114868,0.0180546,-0.000785491,0.0181472,0.0113942,-1.4534,0.0105909,0.0452932,650,729,-7.5989,-0.675759
-567,295,-7.77075,0.420837,0.0037709,0.0124307,0.000266076,0.0124388,0.00376273,1.54011,0.00736596,0.0427575,657,729,-7.77075,-0.420835
-560,295,-8.1756,0.26123,-0.000236614,0.0085275,0.00105261,0.00865215,-0.000361264,1.45292,0.00589222,0.0250756,664,729,-8.17557,-0.261202
-553,295,-8.18469,0.0438843,-0.00332321,0.00517263,0.00236641,0.00578729,-0.00393788,1.31667,0.00564857,0.0174376,671,729,-8.18472,-0.0438969
-546,295,-8.21912,-0.21637,-0.00434334,0.00370524,0.00258283,0.00446278,-0.00510088,1.2855,0.00552568,0.0213776,678,729,-8.21913,0.216397
-539,295,-8.23578,-0.446472,-0.00311796,0.00243372,0.00185497,0.00299647,-0.00368071,1.27624,0.00386182,0.0181441,685,729,-8.23578,0.446476
-532,295,-8.24603,-0.701172,-0.00180886,0.00129658,0.00121211,0.00171367,-0.00222595,1.23939,0.00228094,0.0153632,692,729,-8.24601,0.701162
-525,295,-8.23889,-0.947754,-0.000413018,0.000613363,0.000748196,0.00100745,-0.00080711,1.086,0.00104977,0.0148548,699,729,-8.23891,0.947768
-518,295,-8.22119,-1.19586,0.000939884,-0.000376304,0.000185939,0.000965648,-0.000402068,0.137682,0.00081169,0.0104957,706,729,-8.22117,1.19589
-511,295,-8.21405,-1.45569,0.00256089,-0.000132335,0.000586544,0.00268309,-0.000254532,0.205395,0.00187932,0.00869147,713,729,-8.21404,1.45567
-504,295,-8.22809,-1.72876,0.00423498,3.74653e-05,0.000911399,0.00442433,-0.000151884,0.204842,0.00300146,0.0106991,720,729,-8.22809,1.72878
-497,295,-8.2547,-1.96594,0.00622911,0.000742841,0.00146694,0.00659671,0.000375234,0.245537,0.00427822,0.0162045,727,729,-8.25468,1.96593
-490,295,-8.27325,-2.19385,0,0,0,0,0,0,0,-1,734,729,-8.27323,2.19382
-483,295,-6.84503,-0.454651,0,0,0,0,0,0,0,-1,741,729,-6.84505,0.454639
-476,295,-13.1738,-0.836243,0,0,0,0,0,0,0,-1,748,729,-13.1738,0.836223
-469,295,-12.9013,1.63989,0,0,0,0,0,0,0,-1,755,729,-12.9013,-1.63986
-462,295,-12.6668,2.51343,0,0,0,0,0,0,0,-1,762,729,-12.6668,-2.51343
-455,295,-12.3074,3.88104,0,0,0,0,0,0,0,-1,769,729,-12.3074,-3.88104
-448,295,-12.0941,3.25238,0,0,0,0,0,0,0,-1,776,729,-12.0941,-3.25236
-441,295,-11.0433,1.04706,0,0,0,0,0,0,0,-1,783,729,-11.0434,-1.04704
-434,295,-9.90332,1.16724,0,0,0,0,0,0,0,-1,790,729,-9.90334,-1.16725
-427,295,0,0,0,0,0,0,0,0,0,-1,797,729,0,0
-420,295,0,0,0,0,0,0,0,0,0,-1,804,729,0,0
-413,295,0,0,0,0,0,0,0,0,0,-1,811,729,0,0
-406,295,0,0,0,0,0,0,0,0,0,-1,818,729,0,0
-399,295,0,0,0,0,0,0,0,0,0,-1,825,729,0,0
-392,295,0,0,0,0,0,0,0,0,0,-1,832,729,0,0
-385,295,0,0,0,0,0,0,0,0,0,-1,839,729,0,0
-378,295,0,0,0,0,0,0,0,0,0,-1,846,729,0,0
-371,295,0,0,0,0,0,0,0,0,0,-1,853,729,0,0
-364,295,0,0,0,0,0,0,0,0,0,-1,860,729,0,0
-357,295,0,0,0,0,0,0,0,0,0,-1,867,729,0,0
-350,295,0,0,0,0,0,0,0,0,0,-1,874,729,0,0
-343,295,0,0,0,0,0,0,0,0,0,-1,881,729,0,0
-336,295,0,0,0,0,0,0,0,0,0,-1,888,729,0,0
-329,295,0,0,0,0,0,0,0,0,0,-1,895,729,0,0
-322,295,0,0,0,0,0,0,0,0,0,-1,902,729,0,0
-315,295,0,0,0,0,0,0,0,0,0,-1,909,729,0,0
-308,295,0,0,0,0,0,0,0,0,0,-1,916,729,0,0
-301,295,0,0,0,0,0,0,0,0,0,-1,923,729,0,0
-294,295,0,0,0,0,0,0,0,0,0,-1,930,729,0,0
-287,295,0,0,0,0,0,0,0,0,0,-1,937,729,0,0
-280,295,0,0,0,0,0,0,0,0,0,-1,944,729,0,0
-273,295,0,0,0,0,0,0,0,0,0,-1,951,729,0,0
-266,295,0,0,0,0,0,0,0,0,0,-1,958,729,0,0
-259,295,0,0,0,0,0,0,0,0,0,-1,965,729,0,0
-252,295,0,0,0,0,0,0,0,0,0,-1,972,729,0,0
-245,295,0,0,0,0,0,0,0,0,0,-1,979,729,0,0
-238,295,0,0,0,0,0,0,0,0,0,-1,986,729,0,0
-231,295,0,0,0,0,0,0,0,0,0,-1,993,729,0,0
-224,295,0,0,0,0,0,0,0,0,0,-1,1000,729,0,0
-217,295,0,0,0,0,0,0,0,0,0,-1,1007,729,0,0
-210,295,0,0,0,0,0,0,0,0,0,-1,1014,729,0,0
-203,295,0,0,0,0,0,0,0,0,0,-1,1021,729,0,0
-196,295,0,0,0,0,0,0,0,0,0,-1,1028,729,0,0
-189,295,0,0,0,0,0,0,0,0,0,-1,1035,729,0,0
-182,295,0,0,0,0,0,0,0,0,0,-1,1042,729,0,0
-175,295,0,0,0,0,0,0,0,0,0,-1,1049,729,0,0
-168,295,0,0,0,0,0,0,0,0,0,-1,1056,729,0,0
-161,295,0,0,0,0,0,0,0,0,0,-1,1063,729,0,0
-154,295,0,0,0,0,0,0,0,0,0,-1,1070,729,0,0
-147,295,0,0,0,0,0,0,0,0,0,-1,1077,729,0,0
-140,295,0,0,0,0,0,0,0,0,0,-1,1084,729,0,0
-133,295,0,0,0,0,0,0,0,0,0,-1,1091,729,0,0
-126,295,0,0,0,0,0,0,0,0,0,-1,1098,729,0,0
-119,295,0,0,0,0,0,0,0,0,0,-1,1105,729,0,0
-112,295,0,0,0,0,0,0,0,0,0,-1,1112,729,0,0
-105,295,0,0,0,0,0,0,0,0,0,-1,1119,729,0,0
-98,295,0,0,0,0,0,0,0,0,0,-1,1126,729,0,0
-91,295,0,0,0,0,0,0,0,0,0,-1,1133,729,0,0
-84,295,0,0,0,0,0,0,0,0,0,-1,1140,729,0,0
-77,295,0,0,0,0,0,0,0,0,0,-1,1147,729,0,0
-70,295,0,0,0,0,0,0,0,0,0,-1,1154,729,0,0
-63,295,0,0,0,0,0,0,0,0,0,-1,1161,729,0,0
-56,295,0,0,0,0,0,0,0,0,0,-1,1168,729,0,0
-49,295,0,0,0,0,0,0,0,0,0,-1,1175,729,0,0
-42,295,0,0,0,0,0,0,0,0,0,-1,1182,729,0,0
-35,295,0,0,0,0,0,0,0,0,0,-1,1189,729,0,0
-28,295,0,0,0,0,0,0,0,0,0,-1,1196,729,0,0
-21,295,0,0,0,0,0,0,0,0,0,-1,1203,729,0,0
-14,295,0,0,0,0,0,0,0,0,0,-1,1210,729,0,0
-7,295,0,0,0,0,0,0,0,0,0,-1,1217,729,0,0
0,295,0,0,0,0,0,0,0,0,0,-1,1224,729,0,0
7,295,0,0,0,0,0,0,0,0,0,-1,1231,729,0,0
14,295,0,0,0,0,0,0,0,0,0,-1,1238,729,0,0
21,295,0,0,0,0,0,0,0,0,0,-1,1245,729,0,0
28,295,0,0,0,0,0,0,0,0,0,-1,1252,729,0,0
35,295,0,0,0,0,0,0,0,0,0,-1,1259,729,0,0
42,295,0,0,0,0,0,0,0,0,0,-1,1266,729,0,0
49,295,0,0,0,0,0,0,0,0,0,-1,1273,729,0,0
56,295,0,0,0,0,0,0,0,0,0,-1,1280,729,0,0
63,295,0,0,0,0,0,0,0,0,0,-1,1287,729,0,0
70,295,0,0,0,0,0,0,0,0,0,-1,1294,729,0,0
77,295,0,0,0,0,0,0,0,0,0,-1,1301,729,0,0
84,295,0,0,0,0,0,0,0,0,0,-1,1308,729,0,0
91,295,0,0,0,0,0,0,0,0,0,-1,1315,729,0,0
98,295,0,0,0,0,0,0,0,0,0,-1,1322,729,0,0
105,295,0,0,0,0,0,0,0,0,0,-1,1329,729,0,0
112,295,0,0,0,0,0,0,0,0,0,-1,1336,729,0,0
119,295,0,0,0,0,0,0,0,0,0,-1,1343,729,0,0
126,295,0,0,0,0,0,0,0,0,0,-1,1350,729,0,0
133,295,0,0,0,0,0,0,0,0,0,-1,1357,729,0,0
140,295,0,0,0,0,0,0,0,0,0,-1,1364,729,0,0
147,295,0,0,0,0,0,0,0,0,0,-1,1371,729,0,0
154,295,0,0,0,0,0,0,0,0,0,-1,1378,729,0,0
161,295,0,0,0,0,0,0,0,0,0,-1,1385,729,0,0
168,295,0,0,0,0,0,0,0,0,0,-1,1392,729,0,0
175,295,0,0,0,0,0,0,0,0,0,-1,1399,729,0,0
182,295,0,0,0,0,0,0,0,0,0,-1,1406,729,0,0
189,295,0,0,0,0,0,0,0,0,0,-1,1413,729,0,0
196,295,0,0,0,0,0,0,0,0,0,-1,1420,729,0,0
203,295,0,0,0,0,0,0,0,0,0,-1,1427,729,0,0
210,295,0,0,0,0,0,0,0,0,0,-1,1434,729,0,0
217,295,0,0,0,0,0,0,0,0,0,-1,1441,729,0,0
224,295,0,0,0,0,0,0,0,0,0,-1,1448,729,0,0
231,295,0,0,0,0,0,0,0,0,0,-1,1455,729,0,0
238,295,0,0,0,0,0,0,0,0,0,-1,1462,729,0,0
245,295,0,0,0,0,0,0,0,0,0,-1,1469,729,0,0
252,295,0,0,0,0,0,0,0,0,0,-1,1476,729,0,0
259,295,0,0,0,0,0,0,0,0,0,-1,1483,729,0,0
266,295,0,0,0,0,0,0,0,0,0,-1,1490,729,0,0
273,295,0,0,0,0,0,0,0,0,0,-1,1497,729,0,0
280,295,0,0,0,0,0,0,0,0,0,-1,1504,729,0,0
287,295,0,0,0,0,0,0,0,0,0,-1,1511,729,0,0
294,295,0,0,0,0,0,0,0,0,0,-1,1518,729,0,0
301,295,0,0,0,0,0,0,0,0,0,-1,1525,729,0,0
308,295,0,0,0,0,0,0,0,0,0,-1,1532,729,0,0
315,295,0,0,0,0,0,0,0,0,0,-1,1539,729,0,0
322,295,0,0,0,0,0,0,0,0,0,-1,1546,729,0,0
329,295,0,0,0,0,0,0,0,0,0,-1,1553,729,0,0
336,295,0,0,0,0,0,0,0,0,0,-1,1560,729,0,0
343,295,0,0,0,0,0,0,0,0,0,-1,1567,729,0,0
350,295,0,0,0,0,0,0,0,0,0,-1,1574,729,0,0
357,295,0,0,0,0,0,0,0,0,0,-1,1581,729,0,0
364,295,0,0,0,0,0,0,0,0,0,-1,1588,729,0,0
371,295,0,0,0,0,0,0,0,0,0,-1,1595,729,0,0
378,295,0,0,0,0,0,0,0,0,0,-1,1602,729,0,0
385,295,0,0,0,0,0,0,0,0,0,-1,1609,729,0,0
392,295,0,0,0,0,0,0,0,0,0,-1,1616,729,0,0
399,295,0,0,0,0,0,0,0,0,0,-1,1623,729,0,0
406,295,0,0,0,0,0,0,0,0,0,-1,1630,729,0,0
413,295,0,0,0,0,0,0,0,0,0,-1,1637,729,0,0
420,295,0,0,0,0,0,0,0,0,0,-1,1644,729,0,0
427,295,0,0,0,0,0,0,0,0,0,-1,1651,729,0,0
434,295,0,0,0,0,0,0,0,0,0,-1,1658,729,0,0
441,295,0,0,0,0,0,0,0,0,0,-1,1665,729,0,0
448,295,0,0,0,0,0,0,0,0,0,-1,1672,729,0,0
455,295,0,0,0,0,0,0,0,0,0,-1,1679,729,0,0
462,295,0,0,0,0,0,0,0,0,0,-1,1686,729,0,0
469,295,0,0,0,0,0,0,0,0,0,-1,1693,729,0,0
476,295,0,0,0,0,0,0,0,0,0,-1,1700,729,0,0
483,295,0,0,0,0,0,0,0,0,0,-1,1707,729,0,0
490,295,0,0,0,0,0,0,0,0,0,-1,1714,729,0,0
497,295,0,0,0,0,0,0,0,0,0,-1,1721,729,0,0
504,295,0,0,0,0,0,0,0,0,0,-1,1728,729,0,0
511,295,0,0,0,0,0,0,0,0,0,-1,1735,729,0,0
518,295,0,0,0,0,0,0,0,0,0,-1,1742,729,0,0
525,295,0,0,0,0,0,0,0,0,0,-1,1749,729,0,0
532,295,0,0,0,0,0,0,0,0,0,-1,1756,729,0,0
539,295,0,0,0,0,0,0,0,0,0,-1,1763,729,0,0
546,295,16.4219,5.28088,0,0,0,0,0,0,0,-1,1770,729,16.4219,-5.28089
553,295,17.2222,4.76135,0,0,0,0,0,0,0,-1,1777,729,17.2222,-4.76137
560,295,18.548,4.12823,0,0,0,0,0,0,0,-1,1784,729,18.5479,-4.12822
567,295,22.1567,3.45642,0,0,0,0,0,0,0,-1,1791,729,22.1568,-3.45641
574,295,22.3258,1.49298,0,0,0,0,0,0,0,-1,1798,729,22.3258,-1.49298
581,295,22.8427,2.10187,0.0436897,0.00791304,0.0103223,0.0464543,0.00514845,0.261684,0.029404,0.0467103,1805,729,22.8427,-2.10189
588,295,23.4209,2.65088,0.0400983,0.00729517,0.0115609,0.0437633,0.00363021,0.306992,0.0280439,0.0458016,1812,729,23.4209,-2.6509
595,295,24.2026,3.16528,0.0349828,0.00624506,0.0116546,0.0391151,0.00211273,0.340737,0.0254018,0.0494939,1819,729,24.2026,-3.16531
602,295,24.8396,3.80621,0,0,0,0,0,0,0,-1,1826,729,24.8396,-3.80622
609,295,11.7737,2.19989,0,0,0,0,0,0,0,-1,1833,729,11.7736,-2.19988
616,295,14.5236,-0.480774,0,0,0,0,0,0,0,-1,1840,729,14.5235,0.48075
623,295,14.5232,-0.164673,0.0154457,0.00266135,0.00823119,0.0194753,-0.00136821,0.45525,0.0134628,0.0302537,1847,729,14.5231,0.164692
630,295,14.5264,0.148926,0.0112354,0.00251983,0.00736901,0.0154387,-0.0016835,0.518375,0.0108971,0.0116165,1854,729,14.5263,-0.148903
637,295,14.51,0.44043,0.00651316,0.00218423,0.00529583,0.0100698,-0.00137239,0.591401,0.00721429,0.012642,1861,729,14.5101,-0.440457
644,295,14.5186,0.721558,0.00256949,0.00114992,0.00314169,0.00508058,-0.00136117,0.674301,0.00392035,0.0120107,1868,729,14.5185,-0.721561
651,295,14.5212,0.995239,0.0002072,0.000327113,0.00161465,0.00188292,-0.00134861,0.803956,0.0018742,0.012094,1875,729,14.5212,-0.99527
658,295,14.5111,1.24512,0.000155947,0.000823272,0.000689349,0.00125546,-0.000276245,1.01079,0.000942648,0.0120586,1882,729,14.5111,-1.2451
665,295,14.4998,1.49738,0.00143717,0.00272168,0.00064027,0.00298631,0.00117255,1.17887,0.00173734,0.0114243,1889,729,14.4998,-1.49739
672,295,14.4934,1.76459,0.00418299,0.00629604,0.0018159,0.0073404,0.00313863,1.04887,0.00425277,0.0125699,1896,729,14.4934,-1.76461
679,295,14.4873,2.05609,0.00747316,0.0104639,0.00341399,0.0126956,0.0052414,0.991817,0.00736685,0.00935546,1903,729,14.4873,-2.05611
686,295,14.5099,2.31702,0.0122662,0.0163275,0.00588608,0.0205234,0.00807036,0.951503,0.0119389,0.00882333,1910,729,14.5099,-2.317
693,295,14.5079,2.52521,0.0188852,0.024354,0.00929503,0.0313085,0.0119307,0.928454,0.0182456,0.0247001,1917,729,14.508,-2.5252
700,295,14.5903,2.81177,0.0278815,0.035123,0.013888,0.0458545,0.01715,0.912914,0.0267528,0.0394288,1924,729,14.5904,-2.8118
707,295,15.1688,3.40509,0.0395553,0.0489865,0.0199343,0.0647553,0.0237865,0.901541,0.0378227,0.0458206,1931,729,15.1688,-3.40509
714,295,15.9446,3.36725,0.053968,0.0660296,0.0276067,0.0882565,0.031741,0.892936,0.0516198,0.0458757,1938,729,15.9446,-3.36725
721,295,16.7319,3.56104,0.0710723,0.0861636,0.0371908,0.116567,0.0406694,0.885485,0.0683165,0.0487564,1945,729,16.732,-3.56103
728,295,17.379,3.74866,0,0,0,0,0,0,0,-1,1952,729,17.379,-3.74863
735,295,0,0,0,0,0,0,0,0,0,-1,1959,729,0,0
742,295,0,0,0,0,0,0,0,0,0,-1,1966,729,0,0
749,295,0,0,0,0,0,0,0,0,0,-1,1973,729,0,0
756,295,0,0,0,0,0,0,0,0,0,-1,1980,729,0,0
763,295,0,0,0,0,0,0,0,0,0,-1,1987,729,0,0
770,295,0,0,0,0,0,0,0,0,0,-1,1994,729,0,0
777,295,0,0,0,0,0,0,0,0,0,-1,2001,729,0,0
784,295,0,0,0,0,0,0,0,0,0,-1,2008,729,0,0
791,295,0,0,0,0,0,0,0,0,0,-1,2015,729,0,0
798,295,0,0,0,0,0,0,0,0,0,-1,2022,729,0,0
805,295,0,0,0,0,0,0,0,0,0,-1,2029,729,0,0
812,295,0,0,0,0,0,0,0,0,0,-1,2036,729,0,0
-700,288,0,0,0,0,0,0,0,0,0,-1,524,736,0,0
-693,288,0,0,0,0,0,0,0,0,0,-1,531,736,0,0
-686,288,0,0,0,0,0,0,0,0,0,-1,538,736,0,0
-679,288,0,0,0,0,0,0,0,0,0,-1,545,736,0,0
-672,288,0,0,0,0,0,0,0,0,0,-1,552,736,0,0
-665,288,0,0,0,0,0,0,0,0,0,-1,559,736,0,0
-658,288,0,0,0,0,0,0,0,0,0,-1,566,736,0,0
-651,288,0,0,0,0,0,0,0,0,0,-1,573,736,0,0
-644,288,0,0,0,0,0,0,0,0,0,-1,580,736,0,0
-637,288,0,0,0,0,0,0,0,0,0,-1,587,736,0,0
-630,288,0,0,0,0,0,0,0,0,0,-1,594,736,0,0
-623,288,0,0,0,0,0,0,0,0,0,-1,601,736,0,0
-616,288,-9.47015,5.08246,0,0,0,0,0,0,0,-1,608,736,-9.47015,-5.08247
-609,288,-8.95984,4.01184,0.0796446,0.0537171,-0.0152498,0.0866962,0.0466655,-0.433125,0.0501029,0.0441832,615,736,-8.95984,-4.01184
-602,288,-8.32208,2.85992,0.060688,0.0451117,-0.0101572,0.0656992,0.0401005,-0.458327,0.0382382,0.048876,622,736,-8.32211,-2.85995
-595,288,-7.63208,1.81769,0,0,0,0,0,0,0,-1,629,736,-7.63205,-1.81766
-588,288,-8.19269,1.50598,0,0,0,0,0,0,0,-1,636,736,-8.19268,-1.50601
-581,288,-8.50317,0.820313,0,0,0,0,0,0,0,-1,643,736,-8.50316,-0.820339
-574,288,-8.31903,0.69458,0.0116243,0.0151137,1.30224e-05,0.0151137,0.0116243,1.56706,0.00913752,0.0417843,650,736,-8.31905,-0.694588
-567,288,-8.3269,0.479614,0.00457709,0.00995684,0.00050091,0.0100031,0.00453085,1.47874,0.0057838,0.0261271,657,736,-8.32693,-0.47964
-560,288,-8.47107,0.260071,0.000558188,0.0064983,0.00101412,0.00666666,0.000389825,1.40628,0.00432037,0.0135025,664,736,-8.47107,-0.26008
-553,288,-8.44525,0.0475464,-0.00247417,0.00356532,0.00215679,0.00425646,-0.0031653,1.26069,0.00430036,0.017257,671,736,-8.44525,-0.0475581
-546,288,-8.44666,-0.193359,-0.00362187,0.0023503,0.00248748,0.00325063,-0.0045222,1.22352,0.00450762,0.0194943,678,736,-8.44668,0.193357
-539,288,-8.45953,-0.444397,-0.00271929,0.00123976,0.00197758,0.00205833,-0.00353786,1.17834,0.00326839,0.0163121,685,736,-8.45956,0.444407
-532,288,-8.45245,-0.701172,-0.0015707,0.000170288,0.00143455,0.000977794,-0.00237821,1.0581,0.00199303,0.0130893,692,736,-8.45247,0.701155
-525,288,-8.46033,-0.930664,-0.000219512,-0.000401579,0.00105674,0.000750113,-0.0013712,0.742432,0.00124212,0.0126816,699,736,-8.46034,0.930659
-518,288,-8.48059,-1.18726,0.00109466,-0.00130844,0.000542424,0.00121143,-0.0014252,0.212023,0.00152393,0.011362,706,736,-8.48057,1.18725
-511,288,-8.48376,-1.45422,0.00270358,-0.000846621,0.00100987,0.00297074,-0.00111378,0.258623,0.00243808,0.00850256,713,736,-8.48374,1.45422
-504,288,-8.48676,-1.73077,0.00444899,-0.000505337,0.00128965,0.0047646,-0.00082094,0.240002,0.00348245,0.010176,720,736,-8.48673,1.73078
-497,288,-8.49298,-1.91235,0.00655454,0.000410608,0.00175971,0.00702285,-5.77027e-05,0.260101,0.00470125,0.0211092,727,736,-8.49298,1.91237
-490,288,-8.43463,-2.06372,0,0,0,0,0,0,0,-1,734,736,-8.43464,2.06372
-483,288,-9.62158,0.626892,0,0,0,0,0,0,0,-1,741,736,-9.62161,-0.626875
-476,288,-13.4426,0.893005,0,0,0,0,0,0,0,-1,748,736,-13.4425,-0.893003
-469,288,-13.3106,1.60577,0,0,0,0,0,0,0,-1,755,736,-13.3106,-1.60578
-462,288,-13.2786,2.42426,0.0227612,0.0192789,0.0155172,0.0366346,0.0054055,0.729528,0.0228355,0.0493174,762,736,-13.2786,-2.42424
-455,288,-13.0875,2.9826,0,0,0,0,0,0,0,-1,769,736,-13.0875,-2.98259
-448,288,-12.7959,3.26221,0,0,0,0,0,0,0,-1,776,736,-12.7959,-3.2622
-441,288,-12.592,3.57495,0,0,0,0,0,0,0,-1,783,736,-12.592,-3.57494
-434,288,-12.8195,1.03143,0,0,0,0,0,0,0,-1,790,736,-12.8195,-1.03145
-427,288,0,0,0,0,0,0,0,0,0,-1,797,736,0,0
-420,288,0,0,0,0,0,0,0,0,0,-1,804,736,0,0
-413,288,0,0,0,0,0,0,0,0,0,-1,811,736,0,0
-406,288,0,0,0,0,0,0,0,0,0,-1,818,736,0,0
-399,288,0,0,0,0,0,0,0,0,0,-1,825,736,0,0
-392,288,0,0,0,0,0,0,0,0,0,-1,832,736,0,0
-385,288,0,0,0,0,0,0,0,0,0,-1,839,736,0,0
-378,288,0,0,0,0,0,0,0,0,0,-1,846,736,0,0
-371,288,0,0,0,0,0,0,0,0,0,-1,853,736,0,0
-364,288,0,0,0,0,0,0,0,0,0,-1,860,736,0,0
-357,288,0,0,0,0,0,0,0,0,0,-1,867,736,0,0
-350,288,0,0,0,0,0,0,0,0,0,-1,874,736,0,0
-343,288,0,0,0,0,0,0,0,0,0,-1,881,736,0,0
-336,288,0,0,0,0,0,0,0,0,0,-1,888,736,0,0
-329,288,0,0,0,0,0,0,0,0,0,-1,895,736,0,0
-322,288,0,0,0,0,0,0,0,0,0,-1,902,736,0,0
-315,288,0,0,0,0,0,0,0,0,0,-1,909,736,0,0
-308,288,0,0,0,0,0,0,0,0,0,-1,916,736,0,0
-301,288,0,0,0,0,0,0,0,0,0,-1,923,736,0,0
-294,288,0,0,0,0,0,0,0,0,0,-1,930,736,0,0
-287,288,0,0,0,0,0,0,0,0,0,-1,937,736,0,0
-280,288,0,0,0,0,0,0,0,0,0,-1,944,736,0,0
-273,288,0,0,0,0,0,0,0,0,0,-1,951,736,0,0
-266,288,0,0,0,0,0,0,0,0,0,-1,958,736,0,0
-259,288,0,0,0,0,0,0,0,0,0,-1,965,736,0,0
-252,288,0,0,0,0,0,0,0,0,0,-1,972,736,0,0
-245,288,0,0,0,0,0,0,0,0,0,-1,979,736,0,0
-238,288,0,0,0,0,0,0,0,0,0,-1,986,736,0,0
-231,288,0,0,0,0,0,0,0,0,0,-1,993,736,0,0
-224,288,0,0,0,0,0,0,0,0,0,-1,1000,736,0,0
-217,288,0,0,0,0,0,0,0,0,0,-1,1007,736,0,0
-210,288,0,0,0,0,0,0,0,0,0,-1,1014,736,0,0
-203,288,0,0,0,0,0,0,0,0,0,-1,1021,736,0,0
-196,288,0,0,0,0,0,0,0,0,0,-1,1028,736,0,0
-189,288,0,0,0,0,0,0,0,0,0,-1,1035,736,0,0
-182,288,0,0,0,0,0,0,0,0,0,-1,1042,736,0,0
-175,288,0,0,0,0,0,0,0,0,0,-1,1049,736,0,0
-168,288,0,0,0,0,0,0,0,0,0,-1,1056,736,0,0
-161,288,0,0,0,0,0,0,0,0,0,-1,1063,736,0,0
-154,288,0,0,0,0,0,0,0,0,0,-1,1070,736,0,0
-147,288,0,0,0,0,0,0,0,0,0,-1,1077,736,0,0
-140,288,0,0,0,0,0,0,0,0,0,-1,1084,736,0,0
-133,288,0,0,0,0,0,0,0,0,0,-1,1091,736,0,0
-126,288,0,0,0,0,0,0,0,0,0,-1,1098,736,0,0
-119,288,0,0,0,0,0,0,0,0,0,-1,1105,736,0,0
-112,288,0,0,0,0,0,0,0,0,0,-1,1112,736,0,0
-105,288,0,0,0,0,0,0,0,0,0,-1,1119,736,0,0
-98,288,0,0,0,0,0,0,0,0,0,-1,1126,736,0,0
-91,288,0,0,0,0,0,0,0,0,0,-1,1133,736,0,0
-84,288,0,0,0,0,0,0,0,0,0,-1,1140,736,0,0
-77,288,0,0,0,0,0,0,0,0,0,-1,1147,736,0,0
-70,288,0,0,0,0,0,0,0,0,0,-1,1154,736,0,0
-63,288,0,0,0,0,0,0,0,0,0,-1,1161,736,0,0
-56,288,0,0,0,0,0,0,0,0,0,-1,1168,736,0,0
-49,288,0,0,0,0,0,0,0,0,0,-1,1175,736,0,0
-42,288,0,0,0,0,0,0,0,0,0,-1,1182,736,0,0
-35,288,0,0,0,0,0,0,0,0,0,-1,1189,736,0,0
-28,288,0,0,0,0,0,0,0,0,0,-1,1196,736,0,0
-21,288,0,0,0,0,0,0,0,0,0,-1,1203,736,0,0
-14,288,0,0,0,0,0,0,0,0,0,-1,1210,736,0,0
-7,288,0,0,0,0,0,0,0,0,0,-1,1217,736,0,0
0,288,0,0,0,0,0,0,0,0,0,-1,1224,736,0,0
7,288,0,0,0,0,0,0,0,0,0,-1,1231,736,0,0
14,288,0,0,0,0,0,0,0,0,0,-1,1238,736,0,0
21,288,0,0,0,0,0,0,0,0,0,-1,1245,736,0,0
28,288,0,0,0,0,0,0,0,0,0,-1,1252,736,0,0
35,288,0,0,0,0,0,0,0,0,0,-1,1259,736,0,0
42,288,0,0,0,0,0,0,0,0,0,-1,1266,736,0,0
49,288,0,0,0,0,0,0,0,0,0,-1,1273,736,0,0
56,288,0,0,0,0,0,0,0,0,0,-1,1280,736,0,0
63,288,0,0,0,0,0,0,0,0,0,-1,1287,736,0,0
70,288,0,0,0,0,0,0,0,0,0,-1,1294,736,0,0
77,288,0,0,0,0,0,0,0,0,0,-1,1301,736,0,0
84,288,0,0,0,0,0,0,0,0,0,-1,1308,736,0,0
91,288,0,0,0,0,0,0,0,0,0,-1,1315,736,0,0
98,288,0,0,0,0,0,0,0,0,0,-1,1322,736,0,0
105,288,0,0,0,0,0,0,0,0,0,-1,1329,736,0,0
112,288,0,0,0,0,0,0,0,0,0,-1,1336,736,0,0
119,288,0,0,0,0,0,0,0,0,0,-1,1343,736,0,0
126,288,0,0,0,0,0,0,0,0,0,-1,1350,736,0,0
133,288,0,0,0,0,0,0,0,0,0,-1,1357,736,0,0
140,288,0,0,0,0,0,0,0,0,0,-1,1364,736,0,0
147,288,0,0,0,0,0,0,0,0,0,-1,1371,736,0,0
154,288,0,0,0,0,0,0,0,0,0,-1,1378,736,0,0
161,288,0,0,0,0,0,0,0,0,0,-1,1385,736,0,0
168,288,0,0,0,0,0,0,0,0,0,-1,1392,736,0,0
175,288,0,0,0,0,0,0,0,0,0,-1,1399,736,0,0
182,288,0,0,0,0,0,0,0,0,0,-1,1406,736,0,0
189,288,0,0,0,0,0,0,0,0,0,-1,1413,736,0,0
196,288,0,0,0,0,0,0,0,0,0,-1,1420,736,0,0
203,288,0,0,0,0,0,0,0,0,0,-1,1427,736,0,0
210,288,0,0,0,0,0,0,0,0,0,-1,1434,736,0,0
217,288,0,0,0,0,0,0,0,0,0,-1,1441,736,0,0
224,288,0,0,0,0,0,0,0,0,0,-1,1448,736,0,0
231,288,0,0,0,0,0,0,0,0,0,-1,1455,736,0,0
238,288,0,0,0,0,0,0,0,0,0,-1,1462,736,0,0
245,288,0,0,0,0,0,0,0,0,0,-1,1469,736,0,0
252,288,0,0,0,0,0,0,0,0,0,-1,1476,736,0,0
259,288,0,0,0,0,0,0,0,0,0,-1,1483,736,0,0
266,288,0,0,0,0,0,0,0,0,0,-1,1490,736,0,0
273,288,0,0,0,0,0,0,0,0,0,-1,1497,736,0,0
280,288,0,0,0,0,0,0,0,0,0,-1,1504,736,0,0
287,288,0,0,0,0,0,0,0,0,0,-1,1511,736,0,0
294,288,0,0,0,0,0,0,0,0,0,-1,1518,736,0,0
301,288,0,0,0,0,0,0,0,0,0,-1,1525,736,0,0
308,288,0,0,0,0,0,0,0,0,0,-1,1532,736,0,0
315,288,0,0,0,0,0,0,0,0,0,-1,1539,736,0,0
322,288,0,0,0,0,0,0,0,0,0,-1,1546,736,0,0
329,288,0,0,0,0,0,0,0,0,0,-1,1553,736,0,0
336,288,0,0,0,0,0,0,0,0,0,-1,1560,736,0,0
343,288,0,0,0,0,0,0,0,0,0,-1,1567,736,0,0
350,288,0,0,0,0,0,0,0,0,0,-1,1574,736,0,0
357,288,0,0,0,0,0,0,0,0,0,-1,1581,736,0,0
364,288,0,0,0,0,0,0,0,0,0,-1,1588,736,0,0
371,288,0,0,0,0,0,0,0,0,0,-1,1595,736,0,0
378,288,0,0,0,0,0,0,0,0,0,-1,1602,736,0,0
385,288,0,0,0,0,0,0,0,0,0,-1,1609,736,0,0
392,288,0,0,0,0,0,0,0,0,0,-1,1616,736,0,0
399,288,0,0,0,0,0,0,0,0,0,-1,1623,736,0,0
406,288,0,0,0,0,0,0,0,0,0,-1,1630,736,0,0
413,288,0,0,0,0,0,0,0,0,0,-1,1637,736,0,0
420,288,0,0,0,0,0,0,0,0,0,-1,1644,736,0,0
427,288,0,0,0,0,0,0,0,0,0,-1,1651,736,0,0
434,288,0,0,0,0,0,0,0,0,0,-1,1658,736,0,0
441,288,0,0,0,0,0,0,0,0,0,-1,1665,736,0,0
448,288,0,0,0,0,0,0,0,0,0,-1,1672,736,0,0
455,288,0,0,0,0,0,0,0,0,0,-1,1679,736,0,0
462,288,0,0,0,0,0,0,0,0,0,-1,1686,736,0,0
469,288,0,0,0,0,0,0,0,0,0,-1,1693,736,0,0
476,288,0,0,0,0,0,0,0,0,0,-1,1700,736,0,0
483,288,0,0,0,0,0,0,0,0,0,-1,1707,736,0,0
490,288,0,0,0,0,0,0,0,0,0,-1,1714,736,0,0
497,288,0,0,0,0,0,0,0,0,0,-1,1721,736,0,0
504,288,0,0,0,0,0,0,0,0,0,-1,1728,736,0,0
511,288,0,0,0,0,0,0,0,0,0,-1,1735,736,0,0
518,288,0,0,0,0,0,0,0,0,0,-1,1742,736,0,0
525,288,0,0,0,0,0,0,0,0,0,-1,1749,736,0,0
532,288,0,0,0,0,0,0,0,0,0,-1,1756,736,0,0
539,288,0,0,0,0,0,0,0,0,0,-1,1763,736,0,0
546,288,0,0,0,0,0,0,0,0,0,-1,1770,736,0,0
553,288,17.7463,4.54291,0,0,0,0,0,0,0,-1,1777,736,17.7464,-4.54293
560,288,22.3173,3.36536,0,0,0,0,0,0,0,-1,1784,736,22.3172,-3.36535
567,288,22.3562,3.32324,0,0,0,0,0,0,0,-1,1791,736,22.3561,-3.32322
574,288,22.3951,3.28107,0,0,0,0,0,0,0,-1,1798,736,22.3951,-3.28109
581,288,22.5408,2.10822,0,0,0,0,0,0,0,-1,1805,736,22.5407,-2.10822
588,288,23.1581,1.94434,0.038645,0.0056547,0.0101724,0.0415294,0.0027703,0.2763,0.0268106,0.0486747,1812,736,23.1581,-1.94431
595,288,23.5935,2.1217,0.0337776,0.00488905,0.0108747,0.0374136,0.00125306,0.322668,0.0245354,0.0460406,1819,736,23.5935,-2.12171
602,288,24.0774,2.448,0,0,0,0,0,0,0,-1,1826,736,24.0774,-2.44798
609,288,17.5223,4.86414,0,0,0,0,0,0,0,-1,1833,736,17.5223,-4.86412
616,288,13.4886,0.801331,0,0,0,0,0,0,0,-1,1840,736,13.4886,-0.80132
623,288,14.7605,-0.128357,0,0,0,0,0,0,0,-1,1847,736,14.7606,0.128386
630,288,14.786,0.150818,0.010579,0.00241095,0.00758582,0.0151103,-0.00212034,0.53846,0.0108496,0.0202314,1854,736,14.786,-0.150793
637,288,14.8142,0.429199,0.00611623,0.00234147,0.00575671,0.0102871,-0.00182937,0.626991,0.00754215,0.00919746,1861,736,14.8142,-0.429212
644,288,14.8175,0.712219,0.00222633,0.00150126,0.00368548,0.00556706,-0.00183947,0.736371,0.00445303,0.00924418,1868,736,14.8175,-0.712196
651,288,14.7953,0.988953,-0.000214349,0.000625884,0.00206028,0.00230845,-0.00189691,0.885975,0.00243184,0.0104129,1875,736,14.7953,-0.988941
658,288,14.7814,1.24908,-0.000204232,0.000959717,0.000896303,0.00144641,-0.000690927,1.07334,0.00125943,0.0154316,1882,736,14.7814,-1.24909
665,288,14.7719,1.50049,0.000910149,0.00246808,0.000505059,0.00261748,0.000760744,1.28318,0.00155474,0.0161507,1889,736,14.7719,-1.5005
672,288,14.7863,1.76752,0.00331075,0.00514438,0.00146825,0.00595855,0.00249658,1.06449,0.00345519,0.013963,1896,736,14.7862,-1.76752
679,288,14.795,2.06299,0.00622745,0.00853043,0.00290798,0.0105066,0.00425127,0.973915,0.00610266,0.0117778,1903,736,14.7951,-2.06298
686,288,14.7769,2.30231,0.0103466,0.0134254,0.00521573,0.0173242,0.00644784,0.928899,0.0101105,0.00946648,1910,736,14.7769,-2.30231
693,288,14.7985,2.57281,0.015907,0.0199632,0.00837146,0.0265487,0.00932149,0.90424,0.0155528,0.0129802,1917,736,14.7985,-2.57279
700,288,14.7734,2.87518,0.0233796,0.0286614,0.0125283,0.0388241,0.0132168,0.889274,0.0227925,0.0259652,1924,736,14.7735,-2.87521
707,288,14.9089,3.14374,0.0331382,0.0398158,0.0180866,0.0548691,0.0180848,0.876671,0.0322861,0.0403548,1931,736,14.909,-3.14376
714,288,15.0393,3.41748,0,0,0,0,0,0,0,-1,1938,736,15.0393,-3.41747
721,288,16.8481,2.54071,0,0,0,0,0,0,0,-1,1945,736,16.8481,-2.54069
728,288,16.871,4.44733,0,0,0,0,0,0,0,-1,1952,736,16.8709,-4.4473
735,288,16.448,3.76532,0,0,0,0,0,0,0,-1,1959,736,16.448,-3.76532
742,288,0,0,0,0,0,0,0,0,0,-1,1966,736,0,0
749,288,0,0,0,0,0,0,0,0,0,-1,1973,736,0,0
756,288,0,0,0,0,0,0,0,0,0,-1,1980,736,0,0
763,288,0,0,0,0,0,0,0,0,0,-1,1987,736,0,0
770,288,0,0,0,0,0,0,0,0,0,-1,1994,736,0,0
777,288,0,0,0,0,0,0,0,0,0,-1,2001,736,0,0
784,288,0,0,0,0,0,0,0,0,0,-1,2008,736,0,0
791,288,0,0,0,0,0,0,0,0,0,-1,2015,736,0,0
798,288,0,0,0,0,0,0,0,0,0,-1,2022,736,0,0
805,288,0,0,0,0,0,0,0,0,0,-1,2029,736,0,0
812,288,0,0,0,0,0,0,0,0,0,-1,2036,736,0,0
-700,281,0,0,0,0,0,0,0,0,0,-1,524,743,0,0
-693,281,0,0,0,0,0,0,0,0,0,-1,531,743,0,0
-686,281,0,0,0,0,0,0,0,0,0,-1,538,743,0,0
-679,281,0,0,0,0,0,0,0,0,0,-1,545,743,0,0
-672,281,0,0,0,0,0,0,0,0,0,-1,552,743,0,0
-665,281,0,0,0,0,0,0,0,0,0,-1,559,743,0,0
-658,281,0,0,0,0,0,0,0,0,0,-1,566,743,0,0
-651,281,0,0,0,0,0,0,0,0,0,-1,573,743,0,0
-644,281,0,0,0,0,0,0,0,0,0,-1,580,743,0,0
-637,281,0,0,0,0,0,0,0,0,0,-1,587,743,0,0
-630,281,0,0,0,0,0,0,0,0,0,-1,594,743,0,0
-623,281,-13.3923,-0.436707,0,0,0,0,0,0,0,-1,601,743,-13.3923,0.436709
-616,281,-9.12335,4.03656,0,0,0,0,0,0,0,-1,608,743,-9.12336,-4.03659
-609,281,-8.97797,3.35852,0.074316,0.0507963,-0.00681166,0.0761463,0.048966,-0.262504,0.0445588,0.0491361,615,743,-8.97796,-3.35855
-602,281,-8.45721,2.72839,0.0573525,0.0410465,-0.00458988,0.0585557,0.0398433,-0.256372,0.0345331,0.0496461,622,743,-8.45722,-2.72839
-595,281,-7.63336,2.21735,0,0,0,0,0,0,0,-1,629,743,-7.63336,-2.21734
-588,281,-8.7536,0.813538,0,0,0,0,0,0,0,-1,636,743,-8.7536,-0.813548
-581,281,-8.70642,0.755493,0.0202697,0.0179657,0.000286847,0.0203049,0.0179305,0.122016,0.0128187,0.0480218,643,743,-8.70644,-0.755487
-574,281,-8.6474,0.696899,0.0118566,0.012448,0.000617856,0.0128373,0.0114674,1.00858,0.00814006,0.0283353,650,743,-8.64742,-0.696896
-567,281,-8.71326,0.533936,0.00522757,0.00765328,0.000752216,0.00786761,0.00501324,1.29323,0.00459901,0.0130507,657,743,-8.71325,-0.533934
-560,281,-8.73499,0.286865,0.00124661,0.00450024,0.00106574,0.00481824,0.000928605,1.28082,0.00295173,0.00812402,664,743,-8.73497,-0.286865
-553,281,-8.71796,0.0455933,-0.00168843,0.00188244,0.00208262,0.00284019,-0.00264618,1.13976,0.00316822,0.0125198,671,743,-8.71797,-0.0455651
-546,281,-8.69336,-0.185669,-0.00292811,0.000851007,0.00248993,0.00208717,-0.00416428,1.10998,0.00367509,0.0142151,678,743,-8.69337,0.185671
-539,281,-8.7016,-0.436584,-0.00233828,-0.000115401,0.00216417,0.00120605,-0.00365973,1.02262,0.0029259,0.0124034,685,743,-8.70159,0.436565
-532,281,-8.71436,-0.679443,-0.00136239,-0.00109564,0.00166786,0.000444164,-0.0029022,0.825298,0.00209858,0.0116229,692,743,-8.71438,0.679436
-525,281,-8.72986,-0.926453,-9.00587e-05,-0.00150408,0.00130438,0.0006866,-0.00228073,0.537048,0.00179371,0.0135575,699,743,-8.72986,0.926449
-518,281,-8.72992,-1.1864,0.00113637,-0.00221765,0.000767321,0.00130358,-0.00238486,0.214559,0.00215981,0.0116269,706,743,-8.72994,1.18642
-511,281,-8.73242,-1.45355,0.00268679,-0.00150852,0.00114955,0.00298113,-0.00180285,0.250659,0.00278982,0.0108438,713,743,-8.73242,1.45356
-504,281,-8.75482,-1.7262,0.00444674,-0.000886284,0.00125425,0.00472699,-0.00116654,0.219832,0.00360367,0.0134644,720,743,-8.7548,1.7262
-497,281,-8.65509,-2.00897,0.00657255,0.000342172,0.00151294,0.00692051,-5.78421e-06,0.226057,0.0046156,0.0357052,727,743,-8.65508,2.00895
-490,281,-8.84424,-1.64014,0,0,0,0,0,0,0,-1,734,743,-8.84422,1.64014
-483,281,-9.0686,-1.27118,0,0,0,0,0,0,0,-1,741,743,-9.06858,1.27118
-476,281,-15.1666,1.46741,0,0,0,0,0,0,0,-1,748,743,-15.1666,-1.46739
-469,281,-14.8806,1.6004,0,0,0,0,0,0,0,-1,755,743,-14.8806,-1.60042
-462,281,-13.9684,2.21362,0,0,0,0,0,0,0,-1,762,743,-13.9685,-2.21364
-455,281,-14.0255,3.10974,0,0,0,0,0,0,0,-1,769,743,-14.0255,-3.10972
-448,281,-14.108,3.42859,0,0,0,0,0,0,0,-1,776,743,-14.108,-3.42857
-441,281,-14.7452,3.46503,0,0,0,0,0,0,0,-1,783,743,-14.7452,-3.465
-434,281,0,0,0,0,0,0,0,0,0,-1,790,743,0,0
-427,281,0,0,0,0,0,0,0,0,0,-1,797,743,0,0
-420,281,0,0,0,0,0,0,0,0,0,-1,804,743,0,0
-413,281,0,0,0,0,0,0,0,0,0,-1,811,743,0,0
-406,281,0,0,0,0,0,0,0,0,0,-1,818,743,0,0
-399,281,0,0,0,0,0,0,0,0,0,-1,825,743,0,0
-392,281,0,0,0,0,0,0,0,0,0,-1,832,743,0,0
-385,281,0,0,0,0,0,0,0,0,0,-1,839,743,0,0
-378,281,0,0,0,0,0,0,0,0,0,-1,846,743,0,0
-371,281,0,0,0,0,0,0,0,0,0,-1,853,743,0,0
-364,281,0,0,0,0,0,0,0,0,0,-1,860,743,0,0
-357,281,0,0,0,0,0,0,0,0,0,-1,867,743,0,0
-350,281,0,0,0,0,0,0,0,0,0,-1,874,743,0,0
-343,281,0,0,0,0,0,0,0,0,0,-1,881,743,0,0
-336,281,0,0,0,0,0,0,0,0,0,-1,888,743,0,0
-329,281,0,0,0,0,0,0,0,0,0,-1,895,743,0,0
-322,281,0,0,0,0,0,0,0,0,0,-1,902,743,0,0
-315,281,0,0,0,0,0,0,0,0,0,-1,909,743,0,0
-308,281,0,0,0,0,0,0,0,0,0,-1,916,743,0,0
-301,281,0,0,0,0,0,0,0,0,0,-1,923,743,0,0
-294,281,0,0,0,0,0,0,0,0,0,-1,930,743,0,0
-287,281,0,0,0,0,0,0,0,0,0,-1,937,743,0,0
-280,281,0,0,0,0,0,0,0,0,0,-1,944,743,0,0
-273,281,0,0,0,0,0,0,0,0,0,-1,951,743,0,0
-266,281,0,0,0,0,0,0,0,0,0,-1,958,743,0,0
-259,281,0,0,0,0,0,0,0,0,0,-1,965,743,0,0
-252,281,0,0,0,0,0,0,0,0,0,-1,972,743,0,0
-245,281,0,0,0,0,0,0,0,0,0,-1,979,743,0,0
-238,281,0,0,0,0,0,0,0,0,0,-1,986,743,0,0
-231,281,0,0,0,0,0,0,0,0,0,-1,993,743,0,0
-224,281,0,0,0,0,0,0,0,0,0,-1,1000,743,0,0
-217,281,0,0,0,0,0,0,0,0,0,-1,1007,743,0,0
-210,281,0,0,0,0,0,0,0,0,0,-1,1014,743,0,0
-203,281,0,0,0,0,0,0,0,0,0,-1,1021,743,0,0
-196,281,0,0,0,0,0,0,0,0,0,-1,1028,743,0,0
-189,281,0,0,0,0,0,0,0,0,0,-1,1035,743,0,0
-182,281,0,0,0,0,0,0,0,0,0,-1,1042,743,0,0
-175,281,0,0,0,0,0,0,0,0,0,-1,1049,743,0,0
-168,281,0,0,0,0,0,0,0,0,0,-1,1056,743,0,0
-161,281,0,0,0,0,0,0,0,0,0,-1,1063,743,0,0
-154,281,0,0,0,0,0,0,0,0,0,-1,1070,743,0,0
-147,281,0,0,0,0,0,0,0,0,0,-1,1077,743,0,0
-140,281,0,0,0,0,0,0,0,0,0,-1,1084,743,0,0
-133,281,0,0,0,0,0,0,0,0,0,-1,1091,743,0,0
-126,281,0,0,0,0,0,0,0,0,0,-1,1098,743,0,0
-119,281,0,0,0,0,0,0,0,0,0,-1,1105,743,0,0
-112,281,0,0,0,0,0,0,0,0,0,-1,1112,743,0,0
-105,281,0,0,0,0,0,0,0,0,0,-1,1119,743,0,0
-98,281,0,0,0,0,0,0,0,0,0,-1,1126,743,0,0
-91,281,0,0,0,0,0,0,0,0,0,-1,1133,743,0,0
-84,281,0,0,0,0,0,0,0,0,0,-1,1140,743,0,0
-77,281,0,0,0,0,0,0,0,0,0,-1,1147,743,0,0
-70,281,0,0,0,0,0,0,0,0,0,-1,1154,743,0,0
-63,281,0,0,0,0,0,0,0,0,0,-1,1161,743,0,0
-56,281,0,0,0,0,0,0,0,0,0,-1,1168,743,0,0
-49,281,0,0,0,0,0,0,0,0,0,-1,1175,743,0,0
-42,281,0,0,0,0,0,0,0,0,0,-1,1182,743,0,0
-35,281,0,0,0,0,0,0,0,0,0,-1,1189,743,0,0
-28,281,0,0,0,0,0,0,0,0,0,-1,1196,743,0,0
-21,281,0,0,0,0,0,0,0,0,0,-1,1203,743,0,0
-14,281,0,0,0,0,0,0,0,0,0,-1,1210,743,0,0
-7,281,0,0,0,0,0,0,0,0,0,-1,1217,743,0,0
0,281,0,0,0,0,0,0,0,0,0,-1,1224,743,0,0
7,281,0,0,0,0,0,0,0,0,0,-1,1231,743,0,0
14,281,0,0,0,0,0,0,0,0,0,-1,1238,743,0,0
21,281,0,0,0,0,0,0,0,0,0,-1,1245,743,0,0
28,281,0,0,0,0,0,0,0,0,0,-1,1252,743,0,0
35,281,0,0,0,0,0,0,0,0,0,-1,1259,743,0,0
42,281,0,0,0,0,0,0,0,0,0,-1,1266,743,0,0
49,281,0,0,0,0,0,0,0,0,0,-1,1273,743,0,0
56,281,0,0,0,0,0,0,0,0,0,-1,1280,743,0,0
63,281,0,0,0,0,0,0,0,0,0,-1,1287,743,0,0
70,281,0,0,0,0,0,0,0,0,0,-1,1294,743,0,0
77,281,0,0,0,0,0,0,0,0,0,-1,1301,743,0,0
84,281,0,0,0,0,0,0,0,0,0,-1,1308,743,0,0
91,281,0,0,0,0,0,0,0,0,0,-1,1315,743,0,0
98,281,0,0,0,0,0,0,0,0,0,-1,1322,743,0,0
105,281,0,0,0,0,0,0,0,0,0,-1,1329,743,0,0
112,281,0,0,0,0,0,0,0,0,0,-1,1336,743,0,0
119,281,0,0,0,0,0,0,0,0,0,-1,1343,743,0,0
126,281,0,0,0,0,0,0,0,0,0,-1,1350,743,0,0
133,281,0,0,0,0,0,0,0,0,0,-1,1357,743,0,0
140,281,0,0,0,0,0,0,0,0,0,-1,1364,743,0,0
147,281,0,0,0,0,0,0,0,0,0,-1,1371,743,0,0
154,281,0,0,0,0,0,0,0,0,0,-1,1378,743,0,0
161,281,0,0,0,0,0,0,0,0,0,-1,1385,743,0,0
168,281,0,0,0,0,0,0,0,0,0,-1,1392,743,0,0
175,281,0,0,0,0,0,0,0,0,0,-1,1399,743,0,0
182,281,0,0,0,0,0,0,0,0,0,-1,1406,743,0,0
189,281,0,0,0,0,0,0,0,0,0,-1,1413,743,0,0
196,281,0,0,0,0,0,0,0,0,0,-1,1420,743,0,0
203,281,0,0,0,0,0,0,0,0,0,-1,1427,743,0,0
210,281,0,0,0,0,0,0,0,0,0,-1,1434,743,0,0
217,281,0,0,0,0,0,0,0,0,0,-1,1441,743,0,0
224,281,0,0,0,0,0,0,0,0,0,-1,1448,743,0,0
231,281,0,0,0,0,0,0,0,0,0,-1,1455,743,0,0
238,281,0,0,0,0,0,0,0,0,0,-1,1462,743,0,0
245,281,0,0,0,0,0,0,0,0,0,-1,1469,743,0,0
252,281,0,0,0,0,0,0,0,0,0,-1,1476,743,0,0
259,281,0,0,0,0,0,0,0,0,0,-1,1483,743,0,0
266,281,0,0,0,0,0,0,0,0,0,-1,1490,743,0,0
273,281,0,0,0,0,0,0,0,0,0,-1,1497,743,0,0
280,281,0,0,0,0,0,0,0,0,0,-1,1504,743,0,0
287,281,0,0,0,0,0,0,0,0,0,-1,1511,743,0,0
294,281,0,0,0,0,0,0,0,0,0,-1,1518,743,0,0
301,281,0,0,0,0,0,0,0,0,0,-1,1525,743,0,0
308,281,0,0,0,0,0,0,0,0,0,-1,1532,743,0,0
315,281,0,0,0,0,0,0,0,0,0,-1,1539,743,0,0
322,281,0,0,0,0,0,0,0,0,0,-1,1546,743,0,0
329,281,0,0,0,0,0,0,0,0,0,-1,1553,743,0,0
336,281,0,0,0,0,0,0,0,0,0,-1,1560,743,0,0
343,281,0,0,0,0,0,0,0,0,0,-1,1567,743,0,0
350,281,0,0,0,0,0,0,0,0,0,-1,1574,743,0,0
357,281,0,0,0,0,0,0,0,0,0,-1,1581,743,0,0
364,281,0,0,0,0,0,0,0,0,0,-1,1588,743,0,0
371,281,0,0,0,0,0,0,0,0,0,-1,1595,743,0,0
378,281,0,0,0,0,0,0,0,0,0,-1,1602,743,0,0
385,281,0,0,0,0,0,0,0,0,0,-1,1609,743,0,0
392,281,0,0,0,0,0,0,0,0,0,-1,1616,743,0,0
399,281,0,0,0,0,0,0,0,0,0,-1,1623,743,0,0
406,281,0,0,0,0,0,0,0,0,0,-1,1630,743,0,0
413,281,0,0,0,0,0,0,0,0,0,-1,1637,743,0,0
420,281,0,0,0,0,0,0,0,0,0,-1,1644,743,0,0
427,281,0,0,0,0,0,0,0,0,0,-1,1651,743,0,0
434,281,0,0,0,0,0,0,0,0,0,-1,1658,743,0,0
441,281,0,0,0,0,0,0,0,0,0,-1,1665,743,0,0
448,281,0,0,0,0,0,0,0,0,0,-1,1672,743,0,0
455,281,0,0,0,0,0,0,0,0,0,-1,1679,743,0,0
462,281,0,0,0,0,0,0,0,0,0,-1,1686,743,0,0
469,281,0,0,0,0,0,0,0,0,0,-1,1693,743,0,0
476,281,0,0,0,0,0,0,0,0,0,-1,1700,743,0,0
483,281,0,0,0,0,0,0,0,0,0,-1,1707,743,0,0
490,281,0,0,0,0,0,0,0,0,0,-1,1714,743,0,0
497,281,0,0,0,0,0,0,0,0,0,-1,1721,743,0,0
504,281,0,0,0,0,0,0,0,0,0,-1,1728,743,0,0
511,281,0,0,0,0,0,0,0,0,0,-1,1735,743,0,0
518,281,0,0,0,0,0,0,0,0,0,-1,1742,743,0,0
525,281,0,0,0,0,0,0,0,0,0,-1,1749,743,0,0
532,281,0,0,0,0,0,0,0,0,0,-1,1756,743,0,0
539,281,0,0,0,0,0,0,0,0,0,-1,1763,743,0,0
546,281,0,0,0,0,0,0,0,0,0,-1,1770,743,0,0
553,281,0,0,0,0,0,0,0,0,0,-1,1777,743,0,0
560,281,22.5023,3.20538,0.00198521,0.00556821,-0.0309494,0.0347779,-0.0272245,-0.814308,0.0358855,0.048103,1784,743,22.5023,-3.20538
567,281,22.5229,3.17157,0.0222657,0.00393615,-0.0144821,0.0302394,-0.0040375,-0.503292,0.0216314,0.0422072,1791,743,22.523,-3.17157
574,281,22.1533,2.4917,0.034375,0.00359527,-0.00217819,0.0345284,0.00344189,-0.0703,0.0219617,0.0470149,1798,743,22.1533,-2.49172
581,281,22.5665,2.33893,0.0375327,0.00364513,0.00494859,0.0382405,0.00293728,0.142078,0.0245732,0.0451996,1805,743,22.5665,-2.33892
588,281,23.2078,2.1192,0.0355128,0.00371319,0.00844808,0.0376178,0.00160817,0.244199,0.02456,0.0442418,1812,743,23.2077,-2.11923
595,281,23.7567,1.9281,0.0312177,0.00345875,0.00983516,0.0343491,0.000327339,0.308241,0.0227911,0.0494129,1819,743,23.7567,-1.92812
602,281,24.2727,1.93567,0,0,0,0,0,0,0,-1,1826,743,24.2726,-1.93567
609,281,27.4218,1.47601,0,0,0,0,0,0,0,-1,1833,743,27.4218,-1.47602
616,281,18.5924,-0.0979004,0,0,0,0,0,0,0,-1,1840,743,18.5924,0.0979003
623,281,15.0042,-0.0673828,0,0,0,0,0,0,0,-1,1847,743,15.0041,0.0673749
630,281,15.04,0.168579,0.00902517,0.00232841,0.00731716,0.0137237,-0.0023701,0.570817,0.0100329,0.0371239,1854,743,15.04,-0.168557
637,281,15.0547,0.432129,0.0048154,0.00242094,0.00567385,0.00941696,-0.00218062,0.68142,0.00711709,0.0126764,1861,743,15.0547,-0.432144
644,281,15.0751,0.710327,0.00107958,0.00175896,0.00374832,0.00518295,-0.00234441,0.830587,0.00444773,0.0101365,1868,743,15.0751,-0.710323
651,281,15.0844,0.976807,-0.00133908,0.00089271,0.00210121,0.00215596,-0.00260233,1.0295,0.00275122,0.0109368,1875,743,15.0844,-0.976835
658,281,15.0538,1.22119,-0.00121045,0.00105643,0.000741697,0.00127754,-0.00143155,1.28107,0.00156494,0.01914,1882,743,15.0538,-1.22119
665,281,15.0618,1.46265,-9.78835e-05,0.00219029,3.1824e-05,0.00219074,-9.83259e-05,1.55689,0.00149434,0.0205442,1889,743,15.0617,-1.46262
672,281,15.0457,1.77881,0.00215815,0.00397374,0.000817312,0.00428745,0.00184443,1.2043,0.00248339,0.0122341,1896,743,15.0457,-1.77879
679,281,15.0659,2.0329,0.00491629,0.00658771,0.00210844,0.00802002,0.00348398,0.974082,0.00464362,0.0179561,1903,743,15.0659,-2.03288
686,281,15.0366,2.276,0.00863388,0.0106294,0.00421625,0.0139644,0.00529895,0.901585,0.00814005,0.0144265,1910,743,15.0366,-2.27602
693,281,15.0359,2.54987,0.0133993,0.0159371,0.0070884,0.0218693,0.00746715,0.873965,0.0128361,0.0109089,1917,743,15.0359,-2.54985
700,281,15.04,2.83936,0.0196417,0.0229045,0.0107747,0.0321706,0.0103756,0.860533,0.0189598,0.0193411,1924,743,15.04,-2.83936
707,281,15.0519,3.11072,0.0276871,0.031763,0.0157001,0.0455569,0.0138933,0.849941,0.026961,0.0407255,1931,743,15.0518,-3.11072
714,281,15.0895,3.38135,0,0,0,0,0,0,0,-1,1938,743,15.0895,-3.38133
721,281,15.7628,2.48218,0,0,0,0,0,0,0,-1,1945,743,15.7628,-2.48217
728,281,15.5081,3.70825,0,0,0,0,0,0,0,-1,1952,743,15.508,-3.70822
735,281,16.7875,2.70435,0,0,0,0,0,0,0,-1,1959,743,16.7875,-2.70433
742,281,0,0,0,0,0,0,0,0,0,-1,1966,743,0,0
749,281,0,0,0,0,0,0,0,0,0,-1,1973,743,0,0
756,281,0,0,0,0,0,0,0,0,0,-1,1980,743,0,0
763,281,0,0,0,0,0,0,0,0,0,-1,1987,743,0,0
770,281,0,0,0,0,0,0,0,0,0,-1,1994,743,0,0
777,281,0,0,0,0,0,0,0,0,0,-1,2001,743,0,0
784,281,0,0,0,0,0,0,0,0,0,-1,2008,743,0,0
791,281,0,0,0,0,0,0,0,0,0,-1,2015,743,0,0
798,281,0,0,0,0,0,0,0,0,0,-1,2022,743,0,0
805,281,0,0,0,0,0,0,0,0,0,-1,2029,743,0,0
812,281,0,0,0,0,0,0,0,0,0,-1,2036,743,0,0
-700,274,0,0,0,0,0,0,0,0,0,-1,524,750,0,0
-693,274,0,0,0,0,0,0,0,0,0,-1,531,750,0,0
-686,274,0,0,0,0,0,0,0,0,0,-1,538,750,0,0
-679,274,0,0,0,0,0,0,0,0,0,-1,545,750,0,0
-672,274,0,0,0,0,0,0,0,0,0,-1,552,750,0,0
-665,274,0,0,0,0,0,0,0,0,0,-1,559,750,0,0
-658,274,0,0,0,0,0,0,0,0,0,-1,566,750,0,0
-651,274,0,0,0,0,0,0,0,0,0,-1,573,750,0,0
-644,274,0,0,0,0,0,0,0,0,0,-1,580,750,0,0
-637,274,0,0,0,0,0,0,0,0,0,-1,587,750,0,0
-630,274,0,0,0,0,0,0,0,0,0,-1,594,750,0,0
-623,274,-9.60577,3.80621,0,0,0,0,0,0,0,-1,601,750,-9.60575,-3.80624
-616,274,-9.31042,3.64789,0,0,0,0,0,0,0,-1,608,750,-9.31045,-3.6479
-609,274,-9.10272,3.16614,0.0679723,0.0472564,0.000596005,0.0679894,0.0472392,0.0287387,0.0402345,0.0493425,615,750,-9.10271,-3.16611
-602,274,-8.78772,2.7301,0.0532361,0.0377173,0.000423734,0.0532477,0.0377057,0.0272774,0.0316178,0.0479796,622,750,-8.7877,-2.7301
-595,274,-8.33185,2.57648,0,0,0,0,0,0,0,-1,629,750,-8.33186,-2.5765
-588,274,-8.66852,1.25024,0,0,0,0,0,0,0,-1,636,750,-8.6685,-1.25023
-581,274,-8.77155,1.00842,0.0196947,0.0159177,0.00127626,0.0200855,0.0155269,0.297153,0.0121591,0.0366228,643,750,-8.77153,-1.00843
-574,274,-8.87872,0.775818,0.0120852,0.0107948,0.00101542,0.0126431,0.0102369,0.502369,0.00775216,0.0187399,650,750,-8.87871,-0.775828
-567,274,-8.97455,0.516235,0.00588053,0.00625432,0.000790058,0.00687929,0.00525556,0.901541,0.00415216,0.0170602,657,750,-8.97452,-0.516234
-560,274,-8.96552,0.285461,0.0019041,0.00320235,0.000929438,0.0036869,0.00141955,1.09022,0.00214731,0.0134371,664,750,-8.96551,-0.285437
-553,274,-8.97052,0.0285034,-0.000963437,0.000789116,0.00183786,0.00194891,-0.00212323,1.00785,0.00235177,0.00861309,671,750,-8.97051,-0.028508
-546,274,-8.96643,-0.209045,-0.00233364,-0.000153572,0.00235297,0.00134959,-0.0038368,1.00231,0.00310702,0.0101257,678,750,-8.96644,0.209063
-539,274,-8.97504,-0.447388,-0.00211066,-0.00107195,0.00227895,0.000746075,-0.00392868,0.89743,0.00289998,0.0106147,685,750,-8.97506,0.447397
-532,274,-8.98303,-0.686218,-0.00132773,-0.00202587,0.0018948,0.000249884,-0.00360348,0.694306,0.0024898,0.0112637,692,750,-8.98306,0.68623
-525,274,-8.97516,-0.936401,-0.000167381,-0.00232131,0.00158676,0.000673376,-0.00316207,0.487248,0.00236468,0.0114032,699,750,-8.97516,0.936375
-518,274,-8.97815,-1.19244,0.00090441,-0.00284079,0.00104798,0.00117771,-0.00311409,0.255106,0.00256056,0.0109653,706,750,-8.97817,1.19245
-511,274,-8.98041,-1.45337,0.00234139,-0.00196366,0.00129321,0.00269999,-0.00232226,0.2705,0.00290233,0.0117076,713,750,-8.98044,1.45338
-504,274,-8.99414,-1.73248,0.00403794,-0.00111805,0.00117824,0.00429443,-0.00137454,0.214346,0.00341463,0.0223353,720,750,-8.99416,1.73248
-497,274,-8.96326,-2.0755,0.00608576,0.000367676,0.001144,0.00630614,0.000147291,0.190312,0.00415587,0.046045,727,750,-8.96324,2.0755
-490,274,-9.02136,-1.84882,0,0,0,0,0,0,0,-1,734,750,-9.02137,1.84883
-483,274,-15.5585,1.23657,0,0,0,0,0,0,0,-1,741,750,-15.5585,-1.23655
-476,274,-15.2927,1.34222,0.015041,0.0104631,0.00389927,0.0172735,0.00823062,0.519987,0.00997656,0.0474485,748,750,-15.2927,-1.34224
-469,274,-14.9945,1.43201,0,0,0,0,0,0,0,-1,755,750,-14.9945,-1.43203
-462,274,-14.5925,1.5481,0.0223476,0.0243058,0.0137023,0.0370639,0.00958948,0.821066,0.0222138,0.0420422,762,750,-14.5925,-1.54811
-455,274,-14.391,2.07306,0,0,0,0,0,0,0,-1,769,750,-14.391,-2.07308
-448,274,-14.5825,2.4054,0,0,0,0,0,0,0,-1,776,750,-14.5824,-2.4054
-441,274,0,0,0,0,0,0,0,0,0,-1,783,750,0,0
-434,274,0,0,0,0,0,0,0,0,0,-1,790,750,0,0
-427,274,0,0,0,0,0,0,0,0,0,-1,797,750,0,0
-420,274,0,0,0,0,0,0,0,0,0,-1,804,750,0,0
-413,274,0,0,0,0,0,0,0,0,0,-1,811,750,0,0
-406,274,0,0,0,0,0,0,0,0,0,-1,818,750,0,0
-399,274,0,0,0,0,0,0,0,0,0,-1,825,750,0,0
-392,274,0,0,0,0,0,0,0,0,0,-1,832,750,0,0
-385,274,0,0,0,0,0,0,0,0,0,-1,839,750,0,0
-378,274,0,0,0,0,0,0,0,0,0,-1,846,750,0,0
-371,274,0,0,0,0,0,0,0,0,0,-1,853,750,0,0
-364,274,0,0,0,0,0,0,0,0,0,-1,860,750,0,0
-357,274,0,0,0,0,0,0,0,0,0,-1,867,750,0,0
-350,274,0,0,0,0,0,0,0,0,0,-1,874,750,0,0
-343,274,0,0,0,0,0,0,0,0,0,-1,881,750,0,0
-336,274,0,0,0,0,0,0,0,0,0,-1,888,750,0,0
-329,274,0,0,0,0,0,0,0,0,0,-1,895,750,0,0
-322,274,0,0,0,0,0,0,0,0,0,-1,902,750,0,0
-315,274,0,0,0,0,0,0,0,0,0,-1,909,750,0,0
-308,274,0,0,0,0,0,0,0,0,0,-1,916,750,0,0
-301,274,0,0,0,0,0,0,0,0,0,-1,923,750,0,0
-294,274,0,0,0,0,0,0,0,0,0,-1,930,750,0,0
-287,274,0,0,0,0,0,0,0,0,0,-1,937,750,0,0
-280,274,0,0,0,0,0,0,0,0,0,-1,944,750,0,0
-273,274,0,0,0,0,0,0,0,0,0,-1,951,750,0,0
-266,274,0,0,0,0,0,0,0,0,0,-1,958,750,0,0
-259,274,0,0,0,0,0,0,0,0,0,-1,965,750,0,0
-252,274,0,0,0,0,0,0,0,0,0,-1,972,750,0,0
-245,274,0,0,0,0,0,0,0,0,0,-1,979,750,0,0
-238,274,0,0,0,0,0,0,0,0,0,-1,986,750,0,0
-231,274,0,0,0,0,0,0,0,0,0,-1,993,750,0,0
-224,274,0,0,0,0,0,0,0,0,0,-1,1000,750,0,0
-217,274,0,0,0,0,0,0,0,0,0,-1,1007,750,0,0
-210,274,0,0,0,0,0,0,0,0,0,-1,1014,750,0,0
-203,274,0,0,0,0,0,0,0,0,0,-1,1021,750,0,0
-196,274,0,0,0,0,0,0,0,0,0,-1,1028,750,0,0
-189,274,0,0,0,0,0,0,0,0,0,-1,1035,750,0,0
-182,274,0,0,0,0,0,0,0,0,0,-1,1042,750,0,0
-175,274,0,0,0,0,0,0,0,0,0,-1,1049,750,0,0
-168,274,0,0,0,0,0,0,0,0,0,-1,1056,750,0,0
-161,274,0,0,0,0,0,0,0,0,0,-1,1063,750,0,0
-154,274,0,0,0,0,0,0,0,0,0,-1,1070,750,0,0
-147,274,0,0,0,0,0,0,0,0,0,-1,1077,750,0,0
-140,274,0,0,0,0,0,0,0,0,0,-1,1084,750,0,0
-133,274,0,0,0,0,0,0,0,0,0,-1,1091,750,0,0
-126,274,0,0,0,0,0,0,0,0,0,-1,1098,750,0,0
-119,274,0,0,0,0,0,0,0,0,0,-1,1105,750,0,0
-112,274,0,0,0,0,0,0,0,0,0,-1,1112,750,0,0
-105,274,0,0,0,0,0,0,0,0,0,-1,1119,750,0,0
-98,274,0,0,0,0,0,0,0,0,0,-1,1126,750,0,0
-91,274,0,0,0,0,0,0,0,0,0,-1,1133,750,0,0
-84,274,0,0,0,0,0,0,0,0,0,-1,1140,750,0,0
-77,274,0,0,0,0,0,0,0,0,0,-1,1147,750,0,0
-70,274,0,0,0,0,0,0,0,0,0,-1,1154,750,0,0
-63,274,0,0,0,0,0,0,0,0,0,-1,1161,750,0,0
-56,274,0,0,0,0,0,0,0,0,0,-1,1168,750,0,0
-49,274,0,0,0,0,0,0,0,0,0,-1,1175,750,0,0
-42,274,0,0,0,0,0,0,0,0,0,-1,1182,750,0,0
-35,274,0,0,0,0,0,0,0,0,0,-1,1189,750,0,0
-28,274,0,0,0,0,0,0,0,0,0,-1,1196,750,0,0
-21,274,0,0,0,0,0,0,0,0,0,-1,1203,750,0,0
-14,274,0,0,0,0,0,0,0,0,0,-1,1210,750,0,0
-7,274,0,0,0,0,0,0,0,0,0,-1,1217,750,0,0
0,274,0,0,0,0,0,0,0,0,0,-1,1224,750,0,0
7,274,0,0,0,0,0,0,0,0,0,-1,1231,750,0,0
14,274,0,0,0,0,0,0,0,0,0,-1,1238,750,0,0
21,274,0,0,0,0,0,0,0,0,0,-1,1245,750,0,0
28,274,0,0,0,0,0,0,0,0,0,-1,1252,750,0,0
35,274,0,0,0,0,0,0,0,0,0,-1,1259,750,0,0
42,274,0,0,0,0,0,0,0,0,0,-1,1266,750,0,0
49,274,0,0,0,0,0,0,0,0,0,-1,1273,750,0,0
56,274,0,0,0,0,0,0,0,0,0,-1,1280,750,0,0
63,274,0,0,0,0,0,0,0,0,0,-1,1287,750,0,0
70,274,0,0,0,0,0,0,0,0,0,-1,1294,750,0,0
77,274,0,0,0,0,0,0,0,0,0,-1,1301,750,0,0
84,274,0,0,0,0,0,0,0,0,0,-1,1308,750,0,0
91,274,0,0,0,0,0,0,0,0,0,-1,1315,750,0,0
98,274,0,0,0,0,0,0,0,0,0,-1,1322,750,0,0
105,274,0,0,0,0,0,0,0,0,0,-1,1329,750,0,0
112,274,0,0,0,0,0,0,0,0,0,-1,1336,750,0,0
119,274,0,0,0,0,0,0,0,0,0,-1,1343,750,0,0
126,274,0,0,0,0,0,0,0,0,0,-1,1350,750,0,0
133,274,0,0,0,0,0,0,0,0,0,-1,1357,750,0,0
140,274,0,0,0,0,0,0,0,0,0,-1,1364,750,0,0
147,274,0,0,0,0,0,0,0,0,0,-1,1371,750,0,0
154,274,0,0,0,0,0,0,0,0,0,-1,1378,750,0,0
161,274,0,0,0,0,0,0,0,0,0,-1,1385,750,0,0
168,274,0,0,0,0,0,0,0,0,0,-1,1392,750,0,0
175,274,0,0,0,0,0,0,0,0,0,-1,1399,750,0,0
182,274,0,0,0,0,0,0,0,0,0,-1,1406,750,0,0
189,274,0,0,0,0,0,0,0,0,0,-1,1413,750,0,0
196,274,0,0,0,0,0,0,0,0,0,-1,1420,750,0,0
203,274,0,0,0,0,0,0,0,0,0,-1,1427,750,0,0
210,274,0,0,0,0,0,0,0,0,0,-1,1434,750,0,0
217,274,0,0,0,0,0,0,0,0,0,-1,1441,750,0,0
224,274,0,0,0,0,0,0,0,0,0,-1,1448,750,0,0
231,274,0,0,0,0,0,0,0,0,0,-1,1455,750,0,0
238,274,0,0,0,0,0,0,0,0,0,-1,1462,750,0,0
245,274,0,0,0,0,0,0,0,0,0,-1,1469,750,0,0
252,274,0,0,0,0,0,0,0,0,0,-1,1476,750,0,0
259,274,0,0,0,0,0,0,0,0,0,-1,1483,750,0,0
266,274,0,0,0,0,0,0,0,0,0,-1,1490,750,0,0
273,274,0,0,0,0,0,0,0,0,0,-1,1497,750,0,0
280,274,0,0,0,0,0,0,0,0,0,-1,1504,750,0,0
287,274,0,0,0,0,0,0,0,0,0,-1,1511,750,0,0
294,274,0,0,0,0,0,0,0,0,0,-1,1518,750,0,0
301,274,0,0,0,0,0,0,0,0,0,-1,1525,750,0,0
308,274,0,0,0,0,0,0,0,0,0,-1,1532,750,0,0
315,274,0,0,0,0,0,0,0,0,0,-1,1539,750,0,0
322,274,0,0,0,0,0,0,0,0,0,-1,1546,750,0,0
329,274,0,0,0,0,0,0,0,0,0,-1,1553,750,0,0
336,274,0,0,0,0,0,0,0,0,0,-1,1560,750,0,0
343,274,0,0,0,0,0,0,0,0,0,-1,1567,750,0,0
350,274,0,0,0,0,0,0,0,0,0,-1,1574,750,0,0
357,274,0,0,0,0,0,0,0,0,0,-1,1581,750,0,0
364,274,0,0,0,0,0,0,0,0,0,-1,1588,750,0,0
371,274,0,0,0,0,0,0,0,0,0,-1,1595,750,0,0
378,274,0,0,0,0,0,0,0,0,0,-1,1602,750,0,0
385,274,0,0,0,0,0,0,0,0,0,-1,1609,750,0,0
392,274,0,0,0,0,0,0,0,0,0,-1,1616,750,0,0
399,274,0,0,0,0,0,0,0,0,0,-1,1623,750,0,0
406,274,0,0,0,0,0,0,0,0,0,-1,1630,750,0,0
413,274,0,0,0,0,0,0,0,0,0,-1,1637,750,0,0
420,274,0,0,0,0,0,0,0,0,0,-1,1644,750,0,0
427,274,0,0,0,0,0,0,0,0,0,-1,1651,750,0,0
434,274,0,0,0,0,0,0,0,0,0,-1,1658,750,0,0
441,274,0,0,0,0,0,0,0,0,0,-1,1665,750,0,0
448,274,0,0,0,0,0,0,0,0,0,-1,1672,750,0,0
455,274,0,0,0,0,0,0,0,0,0,-1,1679,750,0,0
462,274,0,0,0,0,0,0,0,0,0,-1,1686,750,0,0
469,274,0,0,0,0,0,0,0,0,0,-1,1693,750,0,0
476,274,0,0,0,0,0,0,0,0,0,-1,1700,750,0,0
483,274,0,0,0,0,0,0,0,0,0,-1,1707,750,0,0
490,274,0,0,0,0,0,0,0,0,0,-1,1714,750,0,0
497,274,0,0,0,0,0,0,0,0,0,-1,1721,750,0,0
504,274,0,0,0,0,0,0,0,0,0,-1,1728,750,0,0
511,274,0,0,0,0,0,0,0,0,0,-1,1735,750,0,0
518,274,0,0,0,0,0,0,0,0,0,-1,1742,750,0,0
525,274,0,0,0,0,0,0,0,0,0,-1,1749,750,0,0
532,274,0,0,0,0,0,0,0,0,0,-1,1756,750,0,0
539,274,0,0,0,0,0,0,0,0,0,-1,1763,750,0,0
546,274,0,0,0,0,0,0,0,0,0,-1,1770,750,0,0
553,274,0,0,0,0,0,0,0,0,0,-1,1777,750,0,0
560,274,22.832,2.98157,-0.00705613,0.00595164,-0.037203,0.037215,-0.0383195,-0.871934,0.0436114,0.0443848,1784,750,22.832,-2.98157
567,274,22.6809,3.08051,0.0127082,0.00229702,-0.0210847,0.0292205,-0.0142152,-0.664373,0.0255715,0.0410174,1791,750,22.6809,-3.0805
574,274,22.7177,2.8075,0.0266061,0.00106456,-0.00730339,0.0285469,-0.000876304,-0.259745,0.01933,0.0455372,1798,750,22.7177,-2.80748
581,274,22.9133,2.50635,0.0316233,0.00123695,0.00163729,0.0317113,0.00114898,0.0536752,0.0207685,0.0416941,1805,750,22.9133,-2.50636
588,274,23.1838,2.30206,0.0308983,0.00184214,0.00647721,0.0322768,0.000463642,0.209695,0.021365,0.0432151,1812,750,23.1839,-2.30207
595,274,23.6558,2.08752,0.027473,0.00213322,0.00867304,0.0301572,-0.00055097,0.300137,0.0202909,0.0495223,1819,750,23.6558,-2.08751
602,274,24.095,1.90332,0,0,0,0,0,0,0,-1,1826,750,24.095,-1.90332
609,274,25.9462,1.54193,0,0,0,0,0,0,0,-1,1833,750,25.9461,-1.54191
616,274,26.1747,1.10742,0,0,0,0,0,0,0,-1,1840,750,26.1747,-1.10745
623,274,16.2163,-0.517395,0,0,0,0,0,0,0,-1,1847,750,16.2163,0.517368
630,274,15.7477,-0.0452271,0,0,0,0,0,0,0,-1,1854,750,15.7477,0.0452527
637,274,15.2791,0.42688,0,0,0,0,0,0,0,-1,1861,750,15.279,-0.426863
644,274,15.3209,0.713867,-7.66074e-05,0.0017542,0.00349313,0.00444988,-0.00277229,0.913546,0.00420705,0.0118817,1868,750,15.3209,-0.713857
651,274,15.3359,0.97052,-0.00242114,0.000958147,0.0018728,0.00179086,-0.00325385,1.15241,0.00295311,0.0125501,1875,750,15.3359,-0.970536
658,274,15.3318,1.2243,-0.0023051,0.000979131,0.000372828,0.00102092,-0.0023469,1.45917,0.00199401,0.0156956,1882,750,15.3318,-1.22432
665,274,15.3312,1.50153,-0.00126099,0.00180316,-0.000586339,0.00191152,-0.00136935,-1.38804,0.00190282,0.0175502,1889,750,15.3311,-1.50151
672,274,15.3075,1.79572,0.000842432,0.00280856,5.63286e-05,0.00281017,0.000840819,1.54218,0.00166549,0.0151065,1896,750,15.3074,-1.79571
679,274,15.3186,2.04779,0.00346286,0.00470516,0.00123242,0.00546411,0.00270391,1.01882,0.00315476,0.0147224,1903,750,15.3186,-2.04781
686,274,15.3204,2.2973,0.00687839,0.00789314,0.00322016,0.0106457,0.00412588,0.863537,0.00619785,0.0148346,1910,750,15.3205,-2.29727
693,274,15.3052,2.57263,0.0110171,0.012092,0.00591689,0.0174958,0.00561328,0.830691,0.0103151,0.0121273,1917,750,15.3052,-2.57266
700,274,15.3019,2.85938,0.0162861,0.0175169,0.00927877,0.0262006,0.00760234,0.818512,0.0155647,0.0145241,1924,750,15.3019,-2.8594
707,274,15.2992,3.1413,0.0229432,0.0242706,0.0137496,0.0373725,0.00984135,0.809515,0.0223682,0.0221931,1931,750,15.2992,-3.1413
714,274,15.2926,3.46985,0.0312557,0.032613,0.0197792,0.0517252,0.0121435,0.802547,0.0312327,0.0407518,1938,750,15.2926,-3.46985
721,274,15.2633,3.72119,0,0,0,0,0,0,0,-1,1945,750,15.2633,-3.7212
728,274,15.7922,2.94958,0,0,0,0,0,0,0,-1,1952,750,15.7923,-2.94961
735,274,16.1566,2.53204,0,0,0,0,0,0,0,-1,1959,750,16.1566,-2.53207
742,274,11.7815,-0.740234,0,0,0,0,0,0,0,-1,1966,750,11.7815,0.740253
749,274,0,0,0,0,0,0,0,0,0,-1,1973,750,0,0
756,274,0,0,0,0,0,0,0,0,0,-1,1980,750,0,0
763,274,0,0,0,0,0,0,0,0,0,-1,1987,750,0,0
770,274,0,0,0,0,0,0,0,0,0,-1,1994,750,0,0
777,274,0,0,0,0,0,0,0,0,0,-1,2001,750,0,0
784,274,0,0,0,0,0,0,0,0,0,-1,2008,750,0,0
791,274,0,0,0,0,0,0,0,0,0,-1,2015,750,0,0
798,274,0,0,0,0,0,0,0,0,0,-1,2022,750,0,0
805,274,0,0,0,0,0,0,0,0,0,-1,2029,750,0,0
812,274,0,0,0,0,0,0,0,0,0,-1,2036,750,0,0
-700,267,0,0,0,0,0,0,0,0,0,-1,524,757,0,0
-693,267,0,0,0,0,0,0,0,0,0,-1,531,757,0,0
-686,267,0,0,0,0,0,0,0,0,0,-1,538,757,0,0
-679,267,0,0,0,0,0,0,0,0,0,-1,545,757,0,0
-672,267,0,0,0,0,0,0,0,0,0,-1,552,757,0,0
-665,267,0,0,0,0,0,0,0,0,0,-1,559,757,0,0
-658,267,0,0,0,0,0,0,0,0,0,-1,566,757,0,0
-651,267,0,0,0,0,0,0,0,0,0,-1,573,757,0,0
-644,267,0,0,0,0,0,0,0,0,0,-1,580,757,0,0
-637,267,0,0,0,0,0,0,0,0,0,-1,587,757,0,0
-630,267,-11.3185,3.24921,0.102449,0.0703878,0.0207914,0.112672,0.0601647,0.456988,0.0651014,0.0458231,594,757,-11.3186,-3.2492
-623,267,-10.2512,3.18756,0.0894337,0.0615818,0.0141479,0.0953596,0.0556559,0.396652,0.0553121,0.0478929,601,757,-10.2511,-3.18757
-616,267,-9.59698,3.49133,0,0,0,0,0,0,0,-1,608,757,-9.59696,-3.49133
-609,267,-9.32709,3.02484,0.0613009,0.0425612,0.00703446,0.0636476,0.0402145,0.321992,0.0371703,0.0476214,615,757,-9.32708,-3.02484
-602,267,-9.02863,2.66016,0.04867,0.0339653,0.00495174,0.050182,0.0324533,0.296356,0.0293854,0.0475259,622,757,-9.02863,-2.66013
-595,267,-8.80927,2.15613,0,0,0,0,0,0,0,-1,629,757,-8.80924,-2.15616
-588,267,-8.87,1.55469,0.0274021,0.0201175,0.00275312,0.0283255,0.019194,0.323626,0.0166942,0.0452933,636,757,-8.87001,-1.55471
-581,267,-9.10541,1.04871,0.0188872,0.0143058,0.00205804,0.019676,0.0135171,0.365974,0.0116217,0.0288868,643,757,-9.10544,-1.04871
-574,267,-9.18091,0.765442,0.0120883,0.00969208,0.00130055,0.0126585,0.0091219,0.413184,0.00754181,0.0148249,650,757,-9.18089,-0.765462
-567,267,-9.22705,0.563965,0.00631361,0.00535001,0.000757304,0.00672939,0.00493424,0.50209,0.00402365,0.0205978,657,757,-9.22707,-0.563976
-560,267,-9.18915,0.311096,0.00239844,0.0023068,0.000743429,0.00309746,0.00160778,0.75462,0.00178875,0.0201549,664,757,-9.18917,-0.311072
-553,267,-9.19452,0.057373,-0.000348199,4.04763e-05,0.00157066,0.00142877,-0.0017365,0.84695,0.00183034,0.0169664,671,757,-9.19454,-0.057391
-546,267,-9.22443,-0.192139,-0.00177858,-0.000899522,0.00218553,0.000890233,-0.00356834,0.884629,0.00272456,0.0112311,678,757,-9.22444,0.192147
-539,267,-9.22986,-0.439453,-0.00188588,-0.0018365,0.00235323,0.000492168,-0.00421455,0.790643,0.0029873,0.00991583,685,757,-9.22989,0.439444
-532,267,-9.22394,-0.673706,-0.00128976,-0.00281997,0.0020731,0.000154915,-0.00426464,0.60862,0.00289612,0.00968181,692,757,-9.22396,0.673734
-525,267,-9.22363,-0.918579,-0.000243986,-0.003076,0.00182655,0.000651148,-0.00397114,0.45567,0.00288904,0.00943798,699,757,-9.22364,0.918578
-518,267,-9.22235,-1.17426,0.00070663,-0.00351196,0.00131644,0.00108373,-0.00388905,0.278981,0.00301948,0.00985293,706,757,-9.22234,1.17425
-511,267,-9.22595,-1.43561,0.00201643,-0.00263123,0.00142629,0.00241922,-0.00303403,0.27524,0.0031551,0.0149282,713,757,-9.22596,1.43563
-504,267,-9.29028,-1.67834,0.0036324,-0.00175348,0.00114101,0.00386415,-0.00198523,0.200387,0.00343473,0.0298585,720,757,-9.29031,1.67832
-497,267,-9.3772,-1.90887,0,0,0,0,0,0,0,-1,727,757,-9.37722,1.90889
-490,267,-9.46594,-0.438232,0,0,0,0,0,0,0,-1,734,757,-9.46596,0.438253
-483,267,-15.7339,1.13062,0,0,0,0,0,0,0,-1,741,757,-15.7339,-1.13064
-476,267,-15.4724,1.23895,0,0,0,0,0,0,0,-1,748,757,-15.4724,-1.23894
-469,267,-15.2108,1.34723,0,0,0,0,0,0,0,-1,755,757,-15.2108,-1.34724
-462,267,-14.8635,0.692139,0,0,0,0,0,0,0,-1,762,757,-14.8634,-0.692144
-455,267,-14.5426,1.04431,0,0,0,0,0,0,0,-1,769,757,-14.5426,-1.04429
-448,267,-15.3152,1.27563,0,0,0,0,0,0,0,-1,776,757,-15.3152,-1.27564
-441,267,0,0,0,0,0,0,0,0,0,-1,783,757,0,0
-434,267,0,0,0,0,0,0,0,0,0,-1,790,757,0,0
-427,267,0,0,0,0,0,0,0,0,0,-1,797,757,0,0
-420,267,0,0,0,0,0,0,0,0,0,-1,804,757,0,0
-413,267,0,0,0,0,0,0,0,0,0,-1,811,757,0,0
-406,267,0,0,0,0,0,0,0,0,0,-1,818,757,0,0
-399,267,0,0,0,0,0,0,0,0,0,-1,825,757,0,0
-392,267,0,0,0,0,0,0,0,0,0,-1,832,757,0,0
-385,267,0,0,0,0,0,0,0,0,0,-1,839,757,0,0
-378,267,0,0,0,0,0,0,0,0,0,-1,846,757,0,0
-371,267,0,0,0,0,0,0,0,0,0,-1,853,757,0,0
-364,267,0,0,0,0,0,0,0,0,0,-1,860,757,0,0
-357,267,0,0,0,0,0,0,0,0,0,-1,867,757,0,0
-350,267,0,0,0,0,0,0,0,0,0,-1,874,757,0,0
-343,267,0,0,0,0,0,0,0,0,0,-1,881,757,0,0
-336,267,0,0,0,0,0,0,0,0,0,-1,888,757,0,0
-329,267,0,0,0,0,0,0,0,0,0,-1,895,757,0,0
-322,267,0,0,0,0,0,0,0,0,0,-1,902,757,0,0
-315,267,0,0,0,0,0,0,0,0,0,-1,909,757,0,0
-308,267,0,0,0,0,0,0,0,0,0,-1,916,757,0,0
-301,267,0,0,0,0,0,0,0,0,0,-1,923,757,0,0
-294,267,0,0,0,0,0,0,0,0,0,-1,930,757,0,0
-287,267,0,0,0,0,0,0,0,0,0,-1,937,757,0,0
-280,267,0,0,0,0,0,0,0,0,0,-1,944,757,0,0
-273,267,0,0,0,0,0,0,0,0,0,-1,951,757,0,0
-266,267,0,0,0,0,0,0,0,0,0,-1,958,757,0,0
-259,267,0,0,0,0,0,0,0,0,0,-1,965,757,0,0
-252,267,0,0,0,0,0,0,0,0,0,-1,972,757,0,0
-245,267,0,0,0,0,0,0,0,0,0,-1,979,757,0,0
-238,267,0,0,0,0,0,0,0,0,0,-1,986,757,0,0
-231,267,0,0,0,0,0,0,0,0,0,-1,993,757,0,0
-224,267,0,0,0,0,0,0,0,0,0,-1,1000,757,0,0
-217,267,0,0,0,0,0,0,0,0,0,-1,1007,757,0,0
-210,267,0,0,0,0,0,0,0,0,0,-1,1014,757,0,0
-203,267,0,0,0,0,0,0,0,0,0,-1,1021,757,0,0
-196,267,0,0,0,0,0,0,0,0,0,-1,1028,757,0,0
-189,267,0,0,0,0,0,0,0,0,0,-1,1035,757,0,0
-182,267,0,0,0,0,0,0,0,0,0,-1,1042,757,0,0
-175,267,0,0,0,0,0,0,0,0,0,-1,1049,757,0,0
-168,267,0,0,0,0,0,0,0,0,0,-1,1056,757,0,0
-161,267,0,0,0,0,0,0,0,0,0,-1,1063,757,0,0
-154,267,0,0,0,0,0,0,0,0,0,-1,1070,757,0,0
-147,267,0,0,0,0,0,0,0,0,0,-1,1077,757,0,0
-140,267,0,0,0,0,0,0,0,0,0,-1,1084,757,0,0
-133,267,0,0,0,0,0,0,0,0,0,-1,1091,757,0,0
-126,267,0,0,0,0,0,0,0,0,0,-1,1098,757,0,0
-119,267,0,0,0,0,0,0,0,0,0,-1,1105,757,0,0
-112,267,0,0,0,0,0,0,0,0,0,-1,1112,757,0,0
-105,267,0,0,0,0,0,0,0,0,0,-1,1119,757,0,0
-98,267,0,0,0,0,0,0,0,0,0,-1,1126,757,0,0
-91,267,0,0,0,0,0,0,0,0,0,-1,1133,757,0,0
-84,267,0,0,0,0,0,0,0,0,0,-1,1140,757,0,0
-77,267,0,0,0,0,0,0,0,0,0,-1,1147,757,0,0
-70,267,0,0,0,0,0,0,0,0,0,-1,1154,757,0,0
-63,267,0,0,0,0,0,0,0,0,0,-1,1161,757,0,0
-56,267,0,0,0,0,0,0,0,0,0,-1,1168,757,0,0
-49,267,0,0,0,0,0,0,0,0,0,-1,1175,757,0,0
-42,267,0,0,0,0,0,0,0,0,0,-1,1182,757,0,0
-35,267,0,0,0,0,0,0,0,0,0,-1,1189,757,0,0
-28,267,0,0,0,0,0,0,0,0,0,-1,1196,757,0,0
-21,267,0,0,0,0,0,0,0,0,0,-1,1203,757,0,0
-14,267,0,0,0,0,0,0,0,0,0,-1,1210,757,0,0
-7,267,0,0,0,0,0,0,0,0,0,-1,1217,757,0,0
0,267,0,0,0,0,0,0,0,0,0,-1,1224,757,0,0
7,267,0,0,0,0,0,0,0,0,0,-1,1231,757,0,0
14,267,0,0,0,0,0,0,0,0,0,-1,1238,757,0,0
21,267,0,0,0,0,0,0,0,0,0,-1,1245,757,0,0
28,267,0,0,0,0,0,0,0,0,0,-1,1252,757,0,0
35,267,0,0,0,0,0,0,0,0,0,-1,1259,757,0,0
42,267,0,0,0,0,0,0,0,0,0,-1,1266,757,0,0
49,267,0,0,0,0,0,0,0,0,0,-1,1273,757,0,0
56,267,0,0,0,0,0,0,0,0,0,-1,1280,757,0,0
63,267,0,0,0,0,0,0,0,0,0,-1,1287,757,0,0
70,267,0,0,0,0,0,0,0,0,0,-1,1294,757,0,0
77,267,0,0,0,0,0,0,0,0,0,-1,1301,757,0,0
84,267,0,0,0,0,0,0,0,0,0,-1,1308,757,0,0
91,267,0,0,0,0,0,0,0,0,0,-1,1315,757,0,0
98,267,0,0,0,0,0,0,0,0,0,-1,1322,757,0,0
105,267,0,0,0,0,0,0,0,0,0,-1,1329,757,0,0
112,267,0,0,0,0,0,0,0,0,0,-1,1336,757,0,0
119,267,0,0,0,0,0,0,0,0,0,-1,1343,757,0,0
126,267,0,0,0,0,0,0,0,0,0,-1,1350,757,0,0
133,267,0,0,0,0,0,0,0,0,0,-1,1357,757,0,0
140,267,0,0,0,0,0,0,0,0,0,-1,1364,757,0,0
147,267,0,0,0,0,0,0,0,0,0,-1,1371,757,0,0
154,267,0,0,0,0,0,0,0,0,0,-1,1378,757,0,0
161,267,0,0,0,0,0,0,0,0,0,-1,1385,757,0,0
168,267,0,0,0,0,0,0,0,0,0,-1,1392,757,0,0
175,267,0,0,0,0,0,0,0,0,0,-1,1399,757,0,0
182,267,0,0,0,0,0,0,0,0,0,-1,1406,757,0,0
189,267,0,0,0,0,0,0,0,0,0,-1,1413,757,0,0
196,267,0,0,0,0,0,0,0,0,0,-1,1420,757,0,0
203,267,0,0,0,0,0,0,0,0,0,-1,1427,757,0,0
210,267,0,0,0,0,0,0,0,0,0,-1,1434,757,0,0
217,267,0,0,0,0,0,0,0,0,0,-1,1441,757,0,0
224,267,0,0,0,0,0,0,0,0,0,-1,1448,757,0,0
231,267,0,0,0,0,0,0,0,0,0,-1,1455,757,0,0
238,267,0,0,0,0,0,0,0,0,0,-1,1462,757,0,0
245,267,0,0,0,0,0,0,0,0,0,-1,1469,757,0,0
252,267,0,0,0,0,0,0,0,0,0,-1,1476,757,0,0
259,267,0,0,0,0,0,0,0,0,0,-1,1483,757,0,0
266,267,0,0,0,0,0,0,0,0,0,-1,1490,757,0,0
273,267,0,0,0,0,0,0,0,0,0,-1,1497,757,0,0
280,267,0,0,0,0,0,0,0,0,0,-1,1504,757,0,0
287,267,0,0,0,0,0,0,0,0,0,-1,1511,757,0,0
294,267,0,0,0,0,0,0,0,0,0,-1,1518,757,0,0
301,267,0,0,0,0,0,0,0,0,0,-1,1525,757,0,0
308,267,0,0,0,0,0,0,0,0,0,-1,1532,757,0,0
315,267,0,0,0,0,0,0,0,0,0,-1,1539,757,0,0
322,267,0,0,0,0,0,0,0,0,0,-1,1546,757,0,0
329,267,0,0,0,0,0,0,0,0,0,-1,1553,757,0,0
336,267,0,0,0,0,0,0,0,0,0,-1,1560,757,0,0
343,267,0,0,0,0,0,0,0,0,0,-1,1567,757,0,0
350,267,0,0,0,0,0,0,0,0,0,-1,1574,757,0,0
357,267,0,0,0,0,0,0,0,0,0,-1,1581,757,0,0
364,267,0,0,0,0,0,0,0,0,0,-1,1588,757,0,0
371,267,0,0,0,0,0,0,0,0,0,-1,1595,757,0,0
378,267,0,0,0,0,0,0,0,0,0,-1,1602,757,0,0
385,267,0,0,0,0,0,0,0,0,0,-1,1609,757,0,0
392,267,0,0,0,0,0,0,0,0,0,-1,1616,757,0,0
399,267,0,0,0,0,0,0,0,0,0,-1,1623,757,0,0
406,267,0,0,0,0,0,0,0,0,0,-1,1630,757,0,0
413,267,0,0,0,0,0,0,0,0,0,-1,1637,757,0,0
420,267,0,0,0,0,0,0,0,0,0,-1,1644,757,0,0
427,267,0,0,0,0,0,0,0,0,0,-1,1651,757,0,0
434,267,0,0,0,0,0,0,0,0,0,-1,1658,757,0,0
441,267,0,0,0,0,0,0,0,0,0,-1,1665,757,0,0
448,267,0,0,0,0,0,0,0,0,0,-1,1672,757,0,0
455,267,0,0,0,0,0,0,0,0,0,-1,1679,757,0,0
462,267,0,0,0,0,0,0,0,0,0,-1,1686,757,0,0
469,267,0,0,0,0,0,0,0,0,0,-1,1693,757,0,0
476,267,0,0,0,0,0,0,0,0,0,-1,1700,757,0,0
483,267,0,0,0,0,0,0,0,0,0,-1,1707,757,0,0
490,267,0,0,0,0,0,0,0,0,0,-1,1714,757,0,0
497,267,0,0,0,0,0,0,0,0,0,-1,1721,757,0,0
504,267,0,0,0,0,0,0,0,0,0,-1,1728,757,0,0
511,267,0,0,0,0,0,0,0,0,0,-1,1735,757,0,0
518,267,0,0,0,0,0,0,0,0,0,-1,1742,757,0,0
525,267,0,0,0,0,0,0,0,0,0,-1,1749,757,0,0
532,267,0,0,0,0,0,0,0,0,0,-1,1756,757,0,0
539,267,0,0,0,0,0,0,0,0,0,-1,1763,757,0,0
546,267,0,0,0,0,0,0,0,0,0,-1,1770,757,0,0
553,267,0,0,0,0,0,0,0,0,0,-1,1777,757,0,0
560,267,0,0,0,0,0,0,0,0,0,-1,1784,757,0,0
567,267,22.8865,2.95673,0.00401545,0.00137652,-0.0262037,0.0289329,-0.0235409,-0.760242,0.0303491,0.037227,1791,757,22.8865,-2.9567
574,267,22.8907,2.98602,0.0184844,-0.000996716,-0.0120388,0.0242296,-0.00674197,-0.445266,0.0188076,0.0397515,1798,757,22.8907,-2.98605
581,267,22.9752,2.82526,0.0249602,-0.00096332,-0.00177679,0.0250814,-0.00108453,-0.068115,0.0170939,0.0399978,1805,757,22.9752,-2.82524
588,267,23.1167,2.56134,0.025512,8.582e-05,0.00431174,0.0262233,-0.00062546,0.163491,0.0176944,0.0445057,1812,757,23.1167,-2.56134
595,267,23.4215,2.34875,0.0230337,0.000924355,0.00744937,0.0253094,-0.00135135,0.296486,0.0173409,0.0487854,1819,757,23.4216,-2.34877
602,267,24.2344,2.14557,0.0190814,0.0012806,0.00827698,0.0223353,-0.00197324,0.37456,0.0155896,0.044004,1826,757,24.2344,-2.14554
609,267,24.6451,1.77612,0.0148147,0.00153148,0.00802418,0.0185893,-0.00224317,0.439696,0.0132043,0.0407697,1833,757,24.6452,-1.77615
616,267,24.7648,1.3941,0,0,0,0,0,0,0,-1,1840,757,24.7647,-1.39413
623,267,16.8667,-0.635315,0,0,0,0,0,0,0,-1,1847,757,16.8667,0.635286
630,267,16.3779,-0.043335,0,0,0,0,0,0,0,-1,1854,757,16.3779,0.0433179
637,267,15.889,0.548645,0,0,0,0,0,0,0,-1,1861,757,15.889,-0.54865
644,267,15.5807,0.716431,-0.00181895,0.00158568,0.00291787,0.00326151,-0.00349478,1.04946,0.00390152,0.0119463,1868,757,15.5807,-0.716439
651,267,15.5796,0.984192,-0.00401832,0.000887386,0.00131928,0.00121967,-0.00435061,1.32406,0.0033811,0.0138205,1875,757,15.5796,-0.984201
658,267,15.59,1.23608,-0.00394783,0.000808407,-0.000277748,0.000824572,-0.003964,-1.51266,0.00295611,0.0147912,1882,757,15.5899,-1.23606
665,267,15.6056,1.51135,-0.00295685,0.00139374,-0.00139664,0.00180351,-0.00336661,-1.28541,0.0030301,0.0163798,1889,757,15.6056,-1.51138
672,267,15.5894,1.78778,-0.000899963,0.00178987,-0.000819054,0.00201965,-0.00112974,-1.29729,0.00184234,0.0148747,1896,757,15.5894,-1.7878
679,267,15.5782,2.0481,0.00171227,0.00309433,0.000329928,0.00316905,0.00163754,1.34808,0.00183,0.013645,1903,757,15.5783,-2.04808
686,267,15.5956,2.31403,0.00498058,0.00559263,0.00230485,0.00761168,0.00296153,0.851399,0.00443051,0.0134101,1910,757,15.5956,-2.31401
693,267,15.5872,2.55804,0.00868341,0.00891388,0.00494945,0.0137494,0.00384786,0.797037,0.0081907,0.0136247,1917,757,15.5872,-2.55802
700,267,15.5701,2.8252,0.0132172,0.013049,0.00816106,0.0212946,0.0049716,0.780245,0.0128635,0.0157,1924,757,15.5701,-2.82521
707,267,15.5682,3.07422,0.0187613,0.0179526,0.0123756,0.0307392,0.00597471,0.769068,0.01882,0.0144898,1931,757,15.5682,-3.07422
714,267,15.5948,3.35474,0.025579,0.0238411,0.0180449,0.0427758,0.00664423,0.761339,0.0265807,0.0264494,1938,757,15.5948,-3.35474
721,267,15.5962,3.69446,0.0339773,0.0307631,0.0256981,0.0581185,0.00662197,0.75417,0.0367378,0.0458241,1945,757,15.5961,-3.69449
728,267,15.5626,3.9884,0,0,0,0,0,0,0,-1,1952,757,15.5627,-3.98837
735,267,16.7356,5.51239,0,0,0,0,0,0,0,-1,1959,757,16.7355,-5.5124
742,267,16.1127,4.81091,0,0,0,0,0,0,0,-1,1966,757,16.1127,-4.81091
749,267,0,0,0,0,0,0,0,0,0,-1,1973,757,0,0
756,267,0,0,0,0,0,0,0,0,0,-1,1980,757,0,0
763,267,0,0,0,0,0,0,0,0,0,-1,1987,757,0,0
770,267,0,0,0,0,0,0,0,0,0,-1,1994,757,0,0
777,267,0,0,0,0,0,0,0,0,0,-1,2001,757,0,0
784,267,0,0,0,0,0,0,0,0,0,-1,2008,757,0,0
791,267,0,0,0,0,0,0,0,0,0,-1,2015,757,0,0
798,267,0,0,0,0,0,0,0,0,0,-1,2022,757,0,0
805,267,0,0,0,0,0,0,0,0,0,-1,2029,757,0,0
812,267,0,0,0,0,0,0,0,0,0,-1,2036,757,0,0
-700,260,0,0,0,0,0,0,0,0,0,-1,524,764,0,0
-693,260,0,0,0,0,0,0,0,0,0,-1,531,764,0,0
-686,260,0,0,0,0,0,0,0,0,0,-1,538,764,0,0
-679,260,0,0,0,0,0,0,0,0,0,-1,545,764,0,0
-672,260,0,0,0,0,0,0,0,0,0,-1,552,764,0,0
-665,260,0,0,0,0,0,0,0,0,0,-1,559,764,0,0
-658,260,0,0,0,0,0,0,0,0,0,-1,566,764,0,0
-651,260,0,0,0,0,0,0,0,0,0,-1,573,764,0,0
-644,260,0,0,0,0,0,0,0,0,0,-1,580,764,0,0
-637,260,0,0,0,0,0,0,0,0,0,-1,587,764,0,0
-630,260,-11.3803,2.68481,0.0884541,0.0578323,0.0305755,0.107338,0.0389483,0.553272,0.0627439,0.0458303,594,764,-11.3803,-2.68482
-623,260,-10.8138,2.81281,0.0781852,0.0516965,0.022668,0.0911944,0.0386872,0.52101,0.0528523,0.0410746,601,764,-10.8139,-2.8128
-616,260,-10.0543,2.81726,0.0667622,0.0443566,0.0168318,0.0757785,0.0353403,0.491775,0.0437837,0.0464363,608,764,-10.0543,-2.81728
-609,260,-9.51874,2.61432,0.0552315,0.0367346,0.0123248,0.061392,0.0305742,0.463523,0.0354448,0.0472136,615,764,-9.51871,-2.61431
-602,260,-10.422,2.03748,0,0,0,0,0,0,0,-1,622,764,-10.422,-2.03746
-595,260,-10.0441,1.85358,0,0,0,0,0,0,0,-1,629,764,-10.0441,-1.8536
-588,260,-9.44574,1.45618,0.0258843,0.0178582,0.00430288,0.027755,0.0159874,0.410117,0.016086,0.0430354,636,764,-9.44574,-1.4562
-581,260,-9.42633,1.01166,0.0181306,0.0128207,0.00285546,0.0193746,0.0115766,0.410884,0.0112566,0.0237143,643,764,-9.42632,-1.01165
-574,260,-9.45709,0.780823,0.0118981,0.00873541,0.00162982,0.0125877,0.00804585,0.400247,0.00736075,0.0150692,650,764,-9.45708,-0.780802
-567,260,-9.48737,0.570862,0.00655209,0.00460943,0.000852493,0.00687313,0.00428839,0.360166,0.00400863,0.0155572,657,764,-9.48738,-0.570863
-560,260,-9.44672,0.332092,0.00273557,0.00159065,0.000736356,0.00309581,0.00123041,0.454986,0.00179986,0.0181449,664,764,-9.44669,-0.332101
-553,260,-9.4483,0.0805054,0.000131007,-0.000559223,0.00147965,0.00130525,-0.00173347,0.670826,0.0017602,0.0172267,671,764,-9.44828,-0.0805255
-546,260,-9.46356,-0.174622,-0.00132058,-0.00155729,0.00216407,0.000728371,-0.00360624,0.75808,0.00268015,0.0113774,678,764,-9.46355,0.174647
-539,260,-9.45709,-0.416992,-0.00170748,-0.00253741,0.00253828,0.000449526,-0.00469442,0.704374,0.00328971,0.0107219,685,764,-9.45711,0.417021
-532,260,-9.45563,-0.638428,-0.00127904,-0.00355842,0.00234646,0.000189868,-0.00502732,0.559325,0.0034166,0.0119312,692,764,-9.45565,0.638442
-525,260,-9.46265,-0.888977,-0.000339011,-0.00380296,0.00213992,0.000682011,-0.00482398,0.445186,0.00346576,0.0115268,699,764,-9.46266,0.888966
-518,260,-9.45801,-1.14648,0.000476552,-0.00416401,0.00167583,0.00101845,-0.00470591,0.312752,0.00352613,0.0128051,706,764,-9.458,1.14646
-511,260,-9.46716,-1.40845,0.00162033,-0.00336343,0.00164602,0.00211489,-0.003858,0.291879,0.00349705,0.0223049,713,764,-9.46717,1.40848
-504,260,-9.56323,-1.61237,0.00309187,-0.00252723,0.00122012,0.00334536,-0.00278073,0.204851,0.0035419,0.0431107,720,764,-9.56324,1.61234
-497,260,-9.70105,-1.87341,0,0,0,0,0,0,0,-1,727,764,-9.70104,1.87342
-490,260,-16.943,1.20612,0,0,0,0,0,0,0,-1,734,764,-16.943,-1.20613
-483,260,-16.1204,1.1203,0.00986163,0.00402161,0.000213222,0.0098694,0.00401384,0.0364458,0.00573108,0.0403621,741,764,-16.1204,-1.12032
-476,260,-15.5583,1.23175,0.0128961,0.00799427,0.000801262,0.0130238,0.00786662,0.157985,0.00757332,0.0445446,748,764,-15.5583,-1.23177
-469,260,-15.4028,0.809692,0.0159069,0.0129334,0.00274692,0.0175436,0.0112967,0.537351,0.0102677,0.0449839,755,764,-15.4028,-0.809688
-462,260,-15.3339,0.60144,0,0,0,0,0,0,0,-1,762,764,-15.3339,-0.601415
-455,260,-15.8997,0.722046,0,0,0,0,0,0,0,-1,769,764,-15.8997,-0.722062
-448,260,0,0,0,0,0,0,0,0,0,-1,776,764,0,0
-441,260,0,0,0,0,0,0,0,0,0,-1,783,764,0,0
-434,260,0,0,0,0,0,0,0,0,0,-1,790,764,0,0
-427,260,0,0,0,0,0,0,0,0,0,-1,797,764,0,0
-420,260,0,0,0,0,0,0,0,0,0,-1,804,764,0,0
-413,260,0,0,0,0,0,0,0,0,0,-1,811,764,0,0
-406,260,0,0,0,0,0,0,0,0,0,-1,818,764,0,0
-399,260,0,0,0,0,0,0,0,0,0,-1,825,764,0,0
-392,260,0,0,0,0,0,0,0,0,0,-1,832,764,0,0
-385,260,0,0,0,0,0,0,0,0,0,-1,839,764,0,0
-378,260,0,0,0,0,0,0,0,0,0,-1,846,764,0,0
-371,260,0,0,0,0,0,0,0,0,0,-1,853,764,0,0
-364,260,0,0,0,0,0,0,0,0,0,-1,860,764,0,0
-357,260,0,0,0,0,0,0,0,0,0,-1,867,764,0,0
-350,260,0,0,0,0,0,0,0,0,0,-1,874,764,0,0
-343,260,0,0,0,0,0,0,0,0,0,-1,881,764,0,0
-336,260,0,0,0,0,0,0,0,0,0,-1,888,764,0,0
-329,260,0,0,0,0,0,0,0,0,0,-1,895,764,0,0
-322,260,0,0,0,0,0,0,0,0,0,-1,902,764,0,0
-315,260,0,0,0,0,0,0,0,0,0,-1,909,764,0,0
-308,260,0,0,0,0,0,0,0,0,0,-1,916,764,0,0
-301,260,0,0,0,0,0,0,0,0,0,-1,923,764,0,0
-294,260,0,0,0,0,0,0,0,0,0,-1,930,764,0,0
-287,260,0,0,0,0,0,0,0,0,0,-1,937,764,0,0
-280,260,0,0,0,0,0,0,0,0,0,-1,944,764,0,0
-273,260,0,0,0,0,0,0,0,0,0,-1,951,764,0,0
-266,260,0,0,0,0,0,0,0,0,0,-1,958,764,0,0
-259,260,0,0,0,0,0,0,0,0,0,-1,965,764,0,0
-252,260,0,0,0,0,0,0,0,0,0,-1,972,764,0,0
-245,260,0,0,0,0,0,0,0,0,0,-1,979,764,0,0
-238,260,0,0,0,0,0,0,0,0,0,-1,986,764,0,0
-231,260,0,0,0,0,0,0,0,0,0,-1,993,764,0,0
-224,260,0,0,0,0,0,0,0,0,0,-1,1000,764,0,0
-217,260,0,0,0,0,0,0,0,0,0,-1,1007,764,0,0
-210,260,0,0,0,0,0,0,0,0,0,-1,1014,764,0,0
-203,260,0,0,0,0,0,0,0,0,0,-1,1021,764,0,0
-196,260,0,0,0,0,0,0,0,0,0,-1,1028,764,0,0
-189,260,0,0,0,0,0,0,0,0,0,-1,1035,764,0,0
-182,260,0,0,0,0,0,0,0,0,0,-1,1042,764,0,0
-175,260,0,0,0,0,0,0,0,0,0,-1,1049,764,0,0
-168,260,0,0,0,0,0,0,0,0,0,-1,1056,764,0,0
-161,260,0,0,0,0,0,0,0,0,0,-1,1063,764,0,0
-154,260,0,0,0,0,0,0,0,0,0,-1,1070,764,0,0
-147,260,0,0,0,0,0,0,0,0,0,-1,1077,764,0,0
-140,260,0,0,0,0,0,0,0,0,0,-1,1084,764,0,0
-133,260,0,0,0,0,0,0,0,0,0,-1,1091,764,0,0
-126,260,0,0,0,0,0,0,0,0,0,-1,1098,764,0,0
-119,260,0,0,0,0,0,0,0,0,0,-1,1105,764,0,0
-112,260,0,0,0,0,0,0,0,0,0,-1,1112,764,0,0
-105,260,0,0,0,0,0,0,0,0,0,-1,1119,764,0,0
-98,260,0,0,0,0,0,0,0,0,0,-1,1126,764,0,0
-91,260,0,0,0,0,0,0,0,0,0,-1,1133,764,0,0
-84,260,0,0,0,0,0,0,0,0,0,-1,1140,764,0,0
-77,260,0,0,0,0,0,0,0,0,0,-1,1147,764,0,0
-70,260,0,0,0,0,0,0,0,0,0,-1,1154,764,0,0
-63,260,0,0,0,0,0,0,0,0,0,-1,1161,764,0,0
-56,260,0,0,0,0,0,0,0,0,0,-1,1168,764,0,0
-49,260,0,0,0,0,0,0,0,0,0,-1,1175,764,0,0
-42,260,0,0,0,0,0,0,0,0,0,-1,1182,764,0,0
-35,260,0,0,0,0,0,0,0,0,0,-1,1189,764,0,0
-28,260,0,0,0,0,0,0,0,0,0,-1,1196,764,0,0
-21,260,0,0,0,0,0,0,0,0,0,-1,1203,764,0,0
-14,260,0,0,0,0,0,0,0,0,0,-1,1210,764,0,0
-7,260,0,0,0,0,0,0,0,0,0,-1,1217,764,0,0
0,260,0,0,0,0,0,0,0,0,0,-1,1224,764,0,0
7,260,0,0,0,0,0,0,0,0,0,-1,1231,764,0,0
14,260,0,0,0,0,0,0,0,0,0,-1,1238,764,0,0
21,260,0,0,0,0,0,0,0,0,0,-1,1245,764,0,0
28,260,0,0,0,0,0,0,0,0,0,-1,1252,764,0,0
35,260,0,0,0,0,0,0,0,0,0,-1,1259,764,0,0
42,260,0,0,0,0,0,0,0,0,0,-1,1266,764,0,0
49,260,0,0,0,0,0,0,0,0,0,-1,1273,764,0,0
56,260,0,0,0,0,0,0,0,0,0,-1,1280,764,0,0
63,260,0,0,0,0,0,0,0,0,0,-1,1287,764,0,0
70,260,0,0,0,0,0,0,0,0,0,-1,1294,764,0,0
77,260,0,0,0,0,0,0,0,0,0,-1,1301,764,0,0
84,260,0,0,0,0,0,0,0,0,0,-1,1308,764,0,0
91,260,0,0,0,0,0,0,0,0,0,-1,1315,764,0,0
98,260,0,0,0,0,0,0,0,0,0,-1,1322,764,0,0
105,260,0,0,0,0,0,0,0,0,0,-1,1329,764,0,0
112,260,0,0,0,0,0,0,0,0,0,-1,1336,764,0,0
119,260,0,0,0,0,0,0,0,0,0,-1,1343,764,0,0
126,260,0,0,0,0,0,0,0,0,0,-1,1350,764,0,0
133,260,0,0,0,0,0,0,0,0,0,-1,1357,764,0,0
140,260,0,0,0,0,0,0,0,0,0,-1,1364,764,0,0
147,260,0,0,0,0,0,0,0,0,0,-1,1371,764,0,0
154,260,0,0,0,0,0,0,0,0,0,-1,1378,764,0,0
161,260,0,0,0,0,0,0,0,0,0,-1,1385,764,0,0
168,260,0,0,0,0,0,0,0,0,0,-1,1392,764,0,0
175,260,0,0,0,0,0,0,0,0,0,-1,1399,764,0,0
182,260,0,0,0,0,0,0,0,0,0,-1,1406,764,0,0
189,260,0,0,0,0,0,0,0,0,0,-1,1413,764,0,0
196,260,0,0,0,0,0,0,0,0,0,-1,1420,764,0,0
203,260,0,0,0,0,0,0,0,0,0,-1,1427,764,0,0
210,260,0,0,0,0,0,0,0,0,0,-1,1434,764,0,0
217,260,0,0,0,0,0,0,0,0,0,-1,1441,764,0,0
224,260,0,0,0,0,0,0,0,0,0,-1,1448,764,0,0
231,260,0,0,0,0,0,0,0,0,0,-1,1455,764,0,0
238,260,0,0,0,0,0,0,0,0,0,-1,1462,764,0,0
245,260,0,0,0,0,0,0,0,0,0,-1,1469,764,0,0
252,260,0,0,0,0,0,0,0,0,0,-1,1476,764,0,0
259,260,0,0,0,0,0,0,0,0,0,-1,1483,764,0,0
266,260,0,0,0,0,0,0,0,0,0,-1,1490,764,0,0
273,260,0,0,0,0,0,0,0,0,0,-1,1497,764,0,0
280,260,0,0,0,0,0,0,0,0,0,-1,1504,764,0,0
287,260,0,0,0,0,0,0,0,0,0,-1,1511,764,0,0
294,260,0,0,0,0,0,0,0,0,0,-1,1518,764,0,0
301,260,0,0,0,0,0,0,0,0,0,-1,1525,764,0,0
308,260,0,0,0,0,0,0,0,0,0,-1,1532,764,0,0
315,260,0,0,0,0,0,0,0,0,0,-1,1539,764,0,0
322,260,0,0,0,0,0,0,0,0,0,-1,1546,764,0,0
329,260,0,0,0,0,0,0,0,0,0,-1,1553,764,0,0
336,260,0,0,0,0,0,0,0,0,0,-1,1560,764,0,0
343,260,0,0,0,0,0,0,0,0,0,-1,1567,764,0,0
350,260,0,0,0,0,0,0,0,0,0,-1,1574,764,0,0
357,260,0,0,0,0,0,0,0,0,0,-1,1581,764,0,0
364,260,0,0,0,0,0,0,0,0,0,-1,1588,764,0,0
371,260,0,0,0,0,0,0,0,0,0,-1,1595,764,0,0
378,260,0,0,0,0,0,0,0,0,0,-1,1602,764,0,0
385,260,0,0,0,0,0,0,0,0,0,-1,1609,764,0,0
392,260,0,0,0,0,0,0,0,0,0,-1,1616,764,0,0
399,260,0,0,0,0,0,0,0,0,0,-1,1623,764,0,0
406,260,0,0,0,0,0,0,0,0,0,-1,1630,764,0,0
413,260,0,0,0,0,0,0,0,0,0,-1,1637,764,0,0
420,260,0,0,0,0,0,0,0,0,0,-1,1644,764,0,0
427,260,0,0,0,0,0,0,0,0,0,-1,1651,764,0,0
434,260,0,0,0,0,0,0,0,0,0,-1,1658,764,0,0
441,260,0,0,0,0,0,0,0,0,0,-1,1665,764,0,0
448,260,0,0,0,0,0,0,0,0,0,-1,1672,764,0,0
455,260,0,0,0,0,0,0,0,0,0,-1,1679,764,0,0
462,260,0,0,0,0,0,0,0,0,0,-1,1686,764,0,0
469,260,0,0,0,0,0,0,0,0,0,-1,1693,764,0,0
476,260,0,0,0,0,0,0,0,0,0,-1,1700,764,0,0
483,260,0,0,0,0,0,0,0,0,0,-1,1707,764,0,0
490,260,0,0,0,0,0,0,0,0,0,-1,1714,764,0,0
497,260,0,0,0,0,0,0,0,0,0,-1,1721,764,0,0
504,260,0,0,0,0,0,0,0,0,0,-1,1728,764,0,0
511,260,0,0,0,0,0,0,0,0,0,-1,1735,764,0,0
518,260,0,0,0,0,0,0,0,0,0,-1,1742,764,0,0
525,260,0,0,0,0,0,0,0,0,0,-1,1749,764,0,0
532,260,0,0,0,0,0,0,0,0,0,-1,1756,764,0,0
539,260,0,0,0,0,0,0,0,0,0,-1,1763,764,0,0
546,260,0,0,0,0,0,0,0,0,0,-1,1770,764,0,0
553,260,0,0,0,0,0,0,0,0,0,-1,1777,764,0,0
560,260,0,0,0,0,0,0,0,0,0,-1,1784,764,0,0
567,260,0,0,0,0,0,0,0,0,0,-1,1791,764,0,0
574,260,22.9366,2.81006,0.0109475,-0.00241875,-0.0160013,0.0216052,-0.0130765,-0.58758,0.0202243,0.0345248,1798,764,22.9366,-2.81005
581,260,23.0482,2.77777,0.0183745,-0.00278585,-0.00499179,0.019493,-0.0039043,-0.220419,0.0144734,0.0391173,1805,764,23.0482,-2.77775
588,260,23.2251,2.72943,0.019947,-0.00139454,0.00200107,0.020133,-0.00158055,0.0926878,0.0139786,0.0452898,1812,764,23.2251,-2.72943
595,260,23.2893,2.73322,0.0184511,-5.3841e-06,0.0060478,0.0202563,-0.00181056,0.290066,0.0141464,0.0480135,1819,764,23.2893,-2.7332
602,260,23.189,2.2475,0.0150981,0.000705285,0.0072875,0.0181436,-0.00234017,0.395843,0.0129465,0.0428942,1826,764,23.1889,-2.24748
609,260,22.9562,3.34424,0.0112788,0.0012213,0.00719631,0.0150293,-0.0025292,0.48044,0.0109603,0.0388809,1833,764,22.9562,-3.34425
616,260,22.5604,3.96338,0,0,0,0,0,0,0,-1,1840,764,22.5604,-3.96339
623,260,22.5354,4.1969,0,0,0,0,0,0,0,-1,1847,764,22.5354,-4.19692
630,260,17.028,0.0987549,0,0,0,0,0,0,0,-1,1854,764,17.028,-0.0987783
637,260,15.8262,0.53009,0,0,0,0,0,0,0,-1,1861,764,15.8262,-0.530063
644,260,15.8304,0.76709,-0.00324302,0.00161667,0.00230426,0.00253552,-0.00416187,1.19136,0.00390456,0.0232185,1868,764,15.8304,-0.767106
651,260,15.8478,0.99823,-0.00513699,0.00102376,0.000801738,0.00112639,-0.00523962,1.44348,0.00392282,0.0137603,1875,764,15.8478,-0.998251
658,260,15.8605,1.25928,-0.00510949,0.000847324,-0.000802828,0.000953628,-0.00521579,-1.43915,0.0038348,0.0159083,1882,764,15.8605,-1.2593
665,260,15.8549,1.5304,-0.0042592,0.00115907,-0.00203721,0.00183958,-0.0049397,-1.24841,0.00404814,0.0160035,1889,764,15.8548,-1.53042
672,260,15.8425,1.79352,-0.00237247,0.000948012,-0.00159204,0.00158798,-0.00301244,-1.18858,0.00269817,0.0139225,1896,764,15.8426,-1.79351
679,260,15.8287,2.05396,0.000114757,0.00163827,-0.000561686,0.00182296,-6.99344e-05,-1.25312,0.00123928,0.0127933,1903,764,15.8288,-2.05397
686,260,15.8447,2.3125,0.00315308,0.00344446,0.00128433,0.00459134,0.00200621,0.841876,0.00265782,0.015394,1910,764,15.8447,-2.31252
693,260,15.8419,2.54095,0.00638762,0.00591291,0.00373985,0.00989764,0.00240289,0.753707,0.00596114,0.0154941,1917,764,15.8419,-2.54097
700,260,15.8162,2.82227,0.0102485,0.00886653,0.00666125,0.0162545,0.00286053,0.733717,0.0100199,0.0137418,1924,764,15.8161,-2.82225
707,260,15.8142,3.06903,0.0148799,0.0121503,0.0104866,0.0240901,0.00294006,0.720688,0.0151753,0.0132639,1931,764,15.8142,-3.06904
714,260,15.8507,3.31311,0.0205096,0.0158748,0.0156151,0.0339783,0.00240606,0.711733,0.0218943,0.0214889,1938,764,15.8507,-3.3131
721,260,15.908,3.64465,0.0273444,0.0201045,0.022445,0.0464595,0.000989329,0.705446,0.0306486,0.0408658,1945,764,15.9079,-3.64467
728,260,15.9612,3.95471,0,0,0,0,0,0,0,-1,1952,764,15.9612,-3.95472
735,260,16.6827,5.37225,0,0,0,0,0,0,0,-1,1959,764,16.6828,-5.37225
742,260,16.9983,6.15887,0,0,0,0,0,0,0,-1,1966,764,16.9982,-6.15886
749,260,16.0095,4.91089,0,0,0,0,0,0,0,-1,1973,764,16.0095,-4.9109
756,260,0,0,0,0,0,0,0,0,0,-1,1980,764,0,0
763,260,0,0,0,0,0,0,0,0,0,-1,1987,764,0,0
770,260,0,0,0,0,0,0,0,0,0,-1,1994,764,0,0
777,260,0,0,0,0,0,0,0,0,0,-1,2001,764,0,0
784,260,0,0,0,0,0,0,0,0,0,-1,2008,764,0,0
791,260,0,0,0,0,0,0,0,0,0,-1,2015,764,0,0
798,260,0,0,0,0,0,0,0,0,0,-1,2022,764,0,0
805,260,0,0,0,0,0,0,0,0,0,-1,2029,764,0,0
812,260,0,0,0,0,0,0,0,0,0,-1,2036,764,0,0
-700,253,0,0,0,0,0,0,0,0,0,-1,524,771,0,0
-693,253,0,0,0,0,0,0,0,0,0,-1,531,771,0,0
-686,253,0,0,0,0,0,0,0,0,0,-1,538,771,0,0
-679,253,0,0,0,0,0,0,0,0,0,-1,545,771,0,0
-672,253,0,0,0,0,0,0,0,0,0,-1,552,771,0,0
-665,253,0,0,0,0,0,0,0,0,0,-1,559,771,0,0
-658,253,0,0,0,0,0,0,0,0,0,-1,566,771,0,0
-651,253,0,0,0,0,0,0,0,0,0,-1,573,771,0,0
-644,253,0,0,0,0,0,0,0,0,0,-1,580,771,0,0
-637,253,-12.6042,3.14124,0.0825895,0.0436435,0.0481945,0.115096,0.0111367,0.593402,0.0733012,0.0488328,587,771,-12.6042,-3.14124
-630,253,-11.9557,2.42297,0.0766036,0.0440601,0.0373749,0.101095,0.0195685,0.580089,0.0619135,0.0497594,594,771,-11.9558,-2.42298
-623,253,-11.3155,2.3078,0.068189,0.0408286,0.028603,0.0862149,0.0228027,0.562338,0.051584,0.0424536,601,771,-11.3155,-2.30778
-616,253,-10.7612,2.2464,0.0587352,0.035919,0.0216696,0.0718162,0.022838,0.543104,0.0423688,0.0427257,608,771,-10.7612,-2.24638
-609,253,-10.8538,2.42035,0,0,0,0,0,0,0,-1,615,771,-10.8538,-2.42035
-602,253,-10.6212,2.01898,0.0398734,0.0247191,0.0117005,0.046236,0.0183566,0.498058,0.0268824,0.047312,622,771,-10.6212,-2.01896
-595,253,-10.2178,1.69391,0.0312679,0.0194247,0.00833477,0.0355705,0.0151221,0.476539,0.0206132,0.0449921,629,771,-10.2178,-1.69393
-588,253,-9.75323,1.22437,0.0237165,0.015343,0.00553132,0.0264669,0.0125926,0.461442,0.0152866,0.0389738,636,771,-9.75324,-1.22435
-581,253,-9.68762,0.974243,0.0167961,0.0111797,0.00355234,0.0185162,0.00945963,0.450931,0.0106912,0.0235645,643,771,-9.68763,-0.974253
-574,253,-9.71985,0.786743,0.0112427,0.00766768,0.00199774,0.0121359,0.0067745,0.420438,0.0070225,0.0187168,650,771,-9.71983,-0.786758
-567,253,-9.73181,0.553833,0.00639611,0.00388231,0.00103951,0.00677028,0.00350814,0.345507,0.00390968,0.015176,657,771,-9.7318,-0.553861
-560,253,-9.69751,0.325012,0.00274519,0.000981902,0.00082454,0.00307067,0.000656416,0.375971,0.00186718,0.0121566,664,771,-9.69748,-0.325022
-553,253,-9.6875,0.0843506,0.000276758,-0.00102913,0.00148321,0.00124438,-0.00199675,0.578051,0.001888,0.0119096,671,771,-9.68747,-0.0843437
-546,253,-9.69727,-0.155273,-0.00122507,-0.0020323,0.00219112,0.000599304,-0.00385667,0.694317,0.0027924,0.0102798,678,771,-9.69728,0.155271
-539,253,-9.71472,-0.403137,-0.00188438,-0.00294846,0.00268718,0.000322921,-0.00515577,0.687667,0.00354972,0.0109585,685,771,-9.71474,0.403128
-532,253,-9.71326,-0.649719,-0.00164074,-0.00387291,0.00253901,1.66625e-05,-0.00553032,0.578323,0.00369244,0.013912,692,771,-9.71325,0.649721
-525,253,-9.70538,-0.904541,-0.000853156,-0.00407084,0.0023444,0.000381343,-0.00530534,0.484679,0.00367062,0.0116153,699,771,-9.7054,0.90457
-518,253,-9.71527,-1.13104,-0.000185098,-0.00433592,0.0019274,0.000571839,-0.00509286,0.374219,0.00360102,0.0152195,706,771,-9.71527,1.13104
-511,253,-9.84412,-1.35956,0.000790326,-0.00365231,0.00177483,0.0014123,-0.00427428,0.337065,0.00341894,0.0355187,713,771,-9.84414,1.35953
-504,253,-10.0151,-1.5993,0,0,0,0,0,0,0,-1,720,771,-10.0152,1.59928
-497,253,-9.47443,-0.45752,0,0,0,0,0,0,0,-1,727,771,-9.47442,0.457533
-490,253,-15.6527,1.66833,0,0,0,0,0,0,0,-1,734,771,-15.6527,-1.66834
-483,253,-15.6762,1.60303,0.0084288,0.00283944,-0.000720119,0.00852009,0.00274815,-0.126094,0.00502128,0.0476786,741,771,-15.6762,-1.60303
-476,253,-15.5568,1.15704,0.0111476,0.00623019,-0.000912552,0.0113115,0.0060663,-0.177697,0.00653641,0.0471812,748,771,-15.5568,-1.15706
-469,253,-15.4951,1.13898,0.0136439,0.0103158,-0.000166077,0.0136522,0.0103075,-0.0497365,0.00821671,0.0428622,755,771,-15.4951,-1.13895
-462,253,-15.632,0.961792,0.0150725,0.0150964,0.00149579,0.0165803,0.0135886,0.789396,0.0102036,0.0428245,762,771,-15.6319,-0.961796
-455,253,-15.6436,0.928345,0,0,0,0,0,0,0,-1,769,771,-15.6436,-0.92836
-448,253,0,0,0,0,0,0,0,0,0,-1,776,771,0,0
-441,253,0,0,0,0,0,0,0,0,0,-1,783,771,0,0
-434,253,0,0,0,0,0,0,0,0,0,-1,790,771,0,0
-427,253,0,0,0,0,0,0,0,0,0,-1,797,771,0,0
-420,253,0,0,0,0,0,0,0,0,0,-1,804,771,0,0
-413,253,0,0,0,0,0,0,0,0,0,-1,811,771,0,0
-406,253,0,0,0,0,0,0,0,0,0,-1,818,771,0,0
-399,253,0,0,0,0,0,0,0,0,0,-1,825,771,0,0
-392,253,0,0,0,0,0,0,0,0,0,-1,832,771,0,0
-385,253,0,0,0,0,0,0,0,0,0,-1,839,771,0,0
-378,253,0,0,0,0,0,0,0,0,0,-1,846,771,0,0
-371,253,0,0,0,0,0,0,0,0,0,-1,853,771,0,0
-364,253,0,0,0,0,0,0,0,0,0,-1,860,771,0,0
-357,253,0,0,0,0,0,0,0,0,0,-1,867,771,0,0
-350,253,0,0,0,0,0,0,0,0,0,-1,874,771,0,0
-343,253,0,0,0,0,0,0,0,0,0,-1,881,771,0,0
-336,253,0,0,0,0,0,0,0,0,0,-1,888,771,0,0
-329,253,0,0,0,0,0,0,0,0,0,-1,895,771,0,0
-322,253,0,0,0,0,0,0,0,0,0,-1,902,771,0,0
-315,253,0,0,0,0,0,0,0,0,0,-1,909,771,0,0
-308,253,0,0,0,0,0,0,0,0,0,-1,916,771,0,0
-301,253,0,0,0,0,0,0,0,0,0,-1,923,771,0,0
-294,253,0,0,0,0,0,0,0,0,0,-1,930,771,0,0
-287,253,0,0,0,0,0,0,0,0,0,-1,937,771,0,0
-280,253,0,0,0,0,0,0,0,0,0,-1,944,771,0,0
-273,253,0,0,0,0,0,0,0,0,0,-1,951,771,0,0
-266,253,0,0,0,0,0,0,0,0,0,-1,958,771,0,0
-259,253,0,0,0,0,0,0,0,0,0,-1,965,771,0,0
-252,253,0,0,0,0,0,0,0,0,0,-1,972,771,0,0
-245,253,0,0,0,0,0,0,0,0,0,-1,979,771,0,0
-238,253,0,0,0,0,0,0,0,0,0,-1,986,771,0,0
-231,253,0,0,0,0,0,0,0,0,0,-1,993,771,0,0
-224,253,0,0,0,0,0,0,0,0,0,-1,1000,771,0,0
-217,253,0,0,0,0,0,0,0,0,0,-1,1007,771,0,0
-210,253,0,0,0,0,0,0,0,0,0,-1,1014,771,0,0
-203,253,0,0,0,0,0,0,0,0,0,-1,1021,771,0,0
-196,253,0,0,0,0,0,0,0,0,0,-1,1028,771,0,0
-189,253,0,0,0,0,0,0,0,0,0,-1,1035,771,0,0
-182,253,0,0,0,0,0,0,0,0,0,-1,1042,771,0,0
-175,253,0,0,0,0,0,0,0,0,0,-1,1049,771,0,0
-168,253,0,0,0,0,0,0,0,0,0,-1,1056,771,0,0
-161,253,0,0,0,0,0,0,0,0,0,-1,1063,771,0,0
-154,253,0,0,0,0,0,0,0,0,0,-1,1070,771,0,0
-147,253,0,0,0,0,0,0,0,0,0,-1,1077,771,0,0
-140,253,0,0,0,0,0,0,0,0,0,-1,1084,771,0,0
-133,253,0,0,0,0,0,0,0,0,0,-1,1091,771,0,0
-126,253,0,0,0,0,0,0,0,0,0,-1,1098,771,0,0
-119,253,0,0,0,0,0,0,0,0,0,-1,1105,771,0,0
-112,253,0,0,0,0,0,0,0,0,0,-1,1112,771,0,0
-105,253,0,0,0,0,0,0,0,0,0,-1,1119,771,0,0
-98,253,0,0,0,0,0,0,0,0,0,-1,1126,771,0,0
-91,253,0,0,0,0,0,0,0,0,0,-1,1133,771,0,0
-84,253,0,0,0,0,0,0,0,0,0,-1,1140,771,0,0
-77,253,0,0,0,0,0,0,0,0,0,-1,1147,771,0,0
-70,253,0,0,0,0,0,0,0,0,0,-1,1154,771,0,0
-63,253,0,0,0,0,0,0,0,0,0,-1,1161,771,0,0
-56,253,0,0,0,0,0,0,0,0,0,-1,1168,771,0,0
-49,253,0,0,0,0,0,0,0,0,0,-1,1175,771,0,0
-42,253,0,0,0,0,0,0,0,0,0,-1,1182,771,0,0
-35,253,0,0,0,0,0,0,0,0,0,-1,1189,771,0,0
-28,253,0,0,0,0,0,0,0,0,0,-1,1196,771,0,0
-21,253,0,0,0,0,0,0,0,0,0,-1,1203,771,0,0
-14,253,0,0,0,0,0,0,0,0,0,-1,1210,771,0,0
-7,253,0,0,0,0,0,0,0,0,0,-1,1217,771,0,0
0,253,0,0,0,0,0,0,0,0,0,-1,1224,771,0,0
7,253,0,0,0,0,0,0,0,0,0,-1,1231,771,0,0
14,253,0,0,0,0,0,0,0,0,0,-1,1238,771,0,0
21,253,0,0,0,0,0,0,0,0,0,-1,1245,771,0,0
28,253,0,0,0,0,0,0,0,0,0,-1,1252,771,0,0
35,253,0,0,0,0,0,0,0,0,0,-1,1259,771,0,0
42,253,0,0,0,0,0,0,0,0,0,-1,1266,771,0,0
49,253,0,0,0,0,0,0,0,0,0,-1,1273,771,0,0
56,253,0,0,0,0,0,0,0,0,0,-1,1280,771,0,0
63,253,0,0,0,0,0,0,0,0,0,-1,1287,771,0,0
70,253,0,0,0,0,0,0,0,0,0,-1,1294,771,0,0
77,253,0,0,0,0,0,0,0,0,0,-1,1301,771,0,0
84,253,0,0,0,0,0,0,0,0,0,-1,1308,771,0,0
91,253,0,0,0,0,0,0,0,0,0,-1,1315,771,0,0
98,253,0,0,0,0,0,0,0,0,0,-1,1322,771,0,0
105,253,0,0,0,0,0,0,0,0,0,-1,1329,771,0,0
112,253,0,0,0,0,0,0,0,0,0,-1,1336,771,0,0
119,253,0,0,0,0,0,0,0,0,0,-1,1343,771,0,0
126,253,0,0,0,0,0,0,0,0,0,-1,1350,771,0,0
133,253,0,0,0,0,0,0,0,0,0,-1,1357,771,0,0
140,253,0,0,0,0,0,0,0,0,0,-1,1364,771,0,0
147,253,0,0,0,0,0,0,0,0,0,-1,1371,771,0,0
154,253,0,0,0,0,0,0,0,0,0,-1,1378,771,0,0
161,253,0,0,0,0,0,0,0,0,0,-1,1385,771,0,0
168,253,0,0,0,0,0,0,0,0,0,-1,1392,771,0,0
175,253,0,0,0,0,0,0,0,0,0,-1,1399,771,0,0
182,253,0,0,0,0,0,0,0,0,0,-1,1406,771,0,0
189,253,0,0,0,0,0,0,0,0,0,-1,1413,771,0,0
196,253,0,0,0,0,0,0,0,0,0,-1,1420,771,0,0
203,253,0,0,0,0,0,0,0,0,0,-1,1427,771,0,0
210,253,0,0,0,0,0,0,0,0,0,-1,1434,771,0,0
217,253,0,0,0,0,0,0,0,0,0,-1,1441,771,0,0
224,253,0,0,0,0,0,0,0,0,0,-1,1448,771,0,0
231,253,0,0,0,0,0,0,0,0,0,-1,1455,771,0,0
238,253,0,0,0,0,0,0,0,0,0,-1,1462,771,0,0
245,253,0,0,0,0,0,0,0,0,0,-1,1469,771,0,0
252,253,0,0,0,0,0,0,0,0,0,-1,1476,771,0,0
259,253,0,0,0,0,0,0,0,0,0,-1,1483,771,0,0
266,253,0,0,0,0,0,0,0,0,0,-1,1490,771,0,0
273,253,0,0,0,0,0,0,0,0,0,-1,1497,771,0,0
280,253,0,0,0,0,0,0,0,0,0,-1,1504,771,0,0
287,253,0,0,0,0,0,0,0,0,0,-1,1511,771,0,0
294,253,0,0,0,0,0,0,0,0,0,-1,1518,771,0,0
301,253,0,0,0,0,0,0,0,0,0,-1,1525,771,0,0
308,253,0,0,0,0,0,0,0,0,0,-1,1532,771,0,0
315,253,0,0,0,0,0,0,0,0,0,-1,1539,771,0,0
322,253,0,0,0,0,0,0,0,0,0,-1,1546,771,0,0
329,253,0,0,0,0,0,0,0,0,0,-1,1553,771,0,0
336,253,0,0,0,0,0,0,0,0,0,-1,1560,771,0,0
343,253,0,0,0,0,0,0,0,0,0,-1,1567,771,0,0
350,253,0,0,0,0,0,0,0,0,0,-1,1574,771,0,0
357,253,0,0,0,0,0,0,0,0,0,-1,1581,771,0,0
364,253,0,0,0,0,0,0,0,0,0,-1,1588,771,0,0
371,253,0,0,0,0,0,0,0,0,0,-1,1595,771,0,0
378,253,0,0,0,0,0,0,0,0,0,-1,1602,771,0,0
385,253,0,0,0,0,0,0,0,0,0,-1,1609,771,0,0
392,253,0,0,0,0,0,0,0,0,0,-1,1616,771,0,0
399,253,0,0,0,0,0,0,0,0,0,-1,1623,771,0,0
406,253,0,0,0,0,0,0,0,0,0,-1,1630,771,0,0
413,253,0,0,0,0,0,0,0,0,0,-1,1637,771,0,0
420,253,0,0,0,0,0,0,0,0,0,-1,1644,771,0,0
427,253,0,0,0,0,0,0,0,0,0,-1,1651,771,0,0
434,253,0,0,0,0,0,0,0,0,0,-1,1658,771,0,0
441,253,0,0,0,0,0,0,0,0,0,-1,1665,771,0,0
448,253,0,0,0,0,0,0,0,0,0,-1,1672,771,0,0
455,253,0,0,0,0,0,0,0,0,0,-1,1679,771,0,0
462,253,0,0,0,0,0,0,0,0,0,-1,1686,771,0,0
469,253,0,0,0,0,0,0,0,0,0,-1,1693,771,0,0
476,253,0,0,0,0,0,0,0,0,0,-1,1700,771,0,0
483,253,0,0,0,0,0,0,0,0,0,-1,1707,771,0,0
490,253,0,0,0,0,0,0,0,0,0,-1,1714,771,0,0
497,253,0,0,0,0,0,0,0,0,0,-1,1721,771,0,0
504,253,0,0,0,0,0,0,0,0,0,-1,1728,771,0,0
511,253,0,0,0,0,0,0,0,0,0,-1,1735,771,0,0
518,253,0,0,0,0,0,0,0,0,0,-1,1742,771,0,0
525,253,0,0,0,0,0,0,0,0,0,-1,1749,771,0,0
532,253,0,0,0,0,0,0,0,0,0,-1,1756,771,0,0
539,253,0,0,0,0,0,0,0,0,0,-1,1763,771,0,0
546,253,0,0,0,0,0,0,0,0,0,-1,1770,771,0,0
553,253,0,0,0,0,0,0,0,0,0,-1,1777,771,0,0
560,253,0,0,0,0,0,0,0,0,0,-1,1784,771,0,0
567,253,0,0,0,0,0,0,0,0,0,-1,1791,771,0,0
574,253,23.0125,2.71228,0.00508962,-0.00318151,-0.0191965,0.0205909,-0.0186828,-0.679303,0.0226836,0.0344042,1798,771,23.0124,-2.71225
581,253,23.0667,2.66742,0.0127635,-0.00410462,-0.00805073,0.0159891,-0.00733023,-0.381075,0.0137693,0.0389115,1805,771,23.0666,-2.66744
588,253,23.1488,2.75085,0.0147786,-0.00244851,-0.00063014,0.0148016,-0.00247153,-0.0365134,0.0107864,0.0415601,1812,771,23.1488,-2.75084
595,253,23.292,2.89392,0.0140846,-0.000561874,0.00423922,0.0152231,-0.00170036,0.262369,0.0107604,0.0446313,1819,771,23.2919,-2.89393
602,253,23.0441,2.78851,0.0113179,0.000500053,0.00598891,0.0139789,-0.00216093,0.418119,0.0101168,0.0445774,1826,771,23.044,-2.78851
609,253,22.8844,3.19513,0.00788772,0.00122221,0.0061068,0.011512,-0.00240206,0.535613,0.00858806,0.0416307,1833,771,22.8844,-3.19515
616,253,22.8104,3.54102,0.00485287,0.00148696,0.00562742,0.0090436,-0.00270377,0.640099,0.00710396,0.0437024,1840,771,22.8104,-3.541
623,253,22.6833,3.78888,0.00228129,0.00162539,0.00484731,0.00681173,-0.00290505,0.751622,0.00575915,0.0469585,1847,771,22.6833,-3.78885
630,253,22.575,4.09515,0,0,0,0,0,0,0,-1,1854,771,22.575,-4.09518
637,253,16.0911,0.623779,0,0,0,0,0,0,0,-1,1861,771,16.0911,-0.623775
644,253,16.0939,0.82959,-0.00458082,0.00157506,0.00142561,0.00188918,-0.00489494,1.35392,0.00404293,0.0414657,1868,771,16.0938,-0.829585
651,253,16.0831,1.03326,-0.00611975,0.00102272,3.82237e-05,0.00102292,-0.00611995,1.56544,0.00446022,0.0233385,1875,771,16.0831,-1.03324
658,253,16.1455,1.29907,-0.00611511,0.000746014,-0.00149321,0.0010569,-0.006426,-1.36553,0.00467628,0.0190996,1882,771,16.1455,-1.29905
665,253,16.0867,1.55145,-0.00537645,0.000837955,-0.00271013,0.0018538,-0.00639229,-1.21217,0.00499546,0.0219106,1889,771,16.0866,-1.55144
672,253,16.054,1.79089,-0.00362306,0.000244715,-0.0023228,0.0013333,-0.00471164,-1.13254,0.00366723,0.0173967,1896,771,16.0539,-1.79092
679,253,16.1056,2.07483,-0.00121932,0.000489819,-0.00135063,0.00123353,-0.00196303,-1.06746,0.00186148,0.0130661,1903,771,16.1056,-2.07482
686,253,16.0939,2.34082,0.00166042,0.00179549,0.000419165,0.00215252,0.00130338,0.865269,0.00125195,0.0183017,1910,771,16.0939,-2.34085
693,253,16.0594,2.5929,0.00455047,0.00368657,0.00274915,0.0069014,0.00133564,0.707475,0.00422666,0.0174055,1917,771,16.0595,-2.59291
700,253,16.0643,2.83295,0.0079103,0.00580175,0.00548024,0.0124368,0.00127529,0.69037,0.00790046,0.0150568,1924,771,16.0643,-2.83296
707,253,16.08,3.08337,0.011837,0.00798996,0.00902976,0.0191458,0.000681118,0.680457,0.012543,0.0149825,1931,771,16.08,-3.08335
714,253,16.0835,3.30579,0.0163891,0.0102116,0.0136606,0.0273058,-0.000705092,0.674214,0.0184434,0.0186542,1938,771,16.0834,-3.30577
721,253,16.188,3.55084,0.0217651,0.012598,0.0197,0.0374078,-0.00304466,0.671098,0.0260129,0.0318888,1945,771,16.1879,-3.55081
728,253,16.4485,4.28436,0.0284154,0.0148223,0.0278632,0.050299,-0.00706135,0.665772,0.0361173,0.0422189,1952,771,16.4485,-4.28434
735,253,16.6589,5.20306,0.0363483,0.0163821,0.0384754,0.0661146,-0.0133842,0.658463,0.0491491,0.0457625,1959,771,16.6589,-5.20306
742,253,16.946,6.04767,0,0,0,0,0,0,0,-1,1966,771,16.9461,-6.04768
749,253,17.9119,4.74463,0,0,0,0,0,0,0,-1,1973,771,17.9118,-4.74463
756,253,0,0,0,0,0,0,0,0,0,-1,1980,771,0,0
763,253,0,0,0,0,0,0,0,0,0,-1,1987,771,0,0
770,253,0,0,0,0,0,0,0,0,0,-1,1994,771,0,0
777,253,0,0,0,0,0,0,0,0,0,-1,2001,771,0,0
784,253,0,0,0,0,0,0,0,0,0,-1,2008,771,0,0
791,253,0,0,0,0,0,0,0,0,0,-1,2015,771,0,0
798,253,0,0,0,0,0,0,0,0,0,-1,2022,771,0,0
805,253,0,0,0,0,0,0,0,0,0,-1,2029,771,0,0
812,253,0,0,0,0,0,0,0,0,0,-1,2036,771,0,0
-700,246,0,0,0,0,0,0,0,0,0,-1,524,778,0,0
-693,246,0,0,0,0,0,0,0,0,0,-1,531,778,0,0
-686,246,0,0,0,0,0,0,0,0,0,-1,538,778,0,0
-679,246,0,0,0,0,0,0,0,0,0,-1,545,778,0,0
-672,246,0,0,0,0,0,0,0,0,0,-1,552,778,0,0
-665,246,0,0,0,0,0,0,0,0,0,-1,559,778,0,0
-658,246,0,0,0,0,0,0,0,0,0,-1,566,778,0,0
-651,246,0,0,0,0,0,0,0,0,0,-1,573,778,0,0
-644,246,0,0,0,0,0,0,0,0,0,-1,580,778,0,0
-637,246,-13.4358,2.23181,0,0,0,0,0,0,0,-1,587,778,-13.4358,-2.23181
-630,246,-8.17371,-0.275818,0,0,0,0,0,0,0,-1,594,778,-8.17371,0.275794
-623,246,-11.8073,1.26978,0.0607586,0.0298406,0.0326297,0.0814061,0.0091931,0.564175,0.0514807,0.0465495,601,778,-11.8073,-1.26976
-616,246,-11.1909,1.54266,0.0525669,0.0272334,0.0249915,0.0679184,0.0118819,0.550845,0.0418839,0.0442075,608,778,-11.1908,-1.54268
-609,246,-10.7819,2.33899,0,0,0,0,0,0,0,-1,615,778,-10.7819,-2.339
-602,246,-10.7352,1.95996,0.0362267,0.0196205,0.0136676,0.0439157,0.0119316,0.512439,0.026221,0.0455962,622,778,-10.7352,-1.95998
-595,246,-10.3484,1.53638,0.0286802,0.0156211,0.00970681,0.0338492,0.010452,0.489322,0.0200136,0.0433371,629,778,-10.3485,-1.5364
-588,246,-9.91101,1.19513,0.0220072,0.0126359,0.00636858,0.0252282,0.00941496,0.468239,0.0147208,0.029304,636,778,-9.911,-1.19516
-581,246,-9.95001,0.981445,0.0157315,0.00932526,0.00397236,0.0176313,0.00742548,0.446096,0.0102215,0.0163832,643,778,-9.95002,-0.981447
-574,246,-9.935,0.752197,0.0107036,0.00641923,0.00221327,0.0116416,0.00548124,0.400857,0.00672511,0.0175375,650,778,-9.93497,-0.752184
-567,246,-9.94086,0.515442,0.00633074,0.0030891,0.00116587,0.0067065,0.00271335,0.311783,0.00389543,0.0177885,657,778,-9.94086,-0.515434
-560,246,-9.92786,0.294189,0.00287818,0.000413625,0.000896761,0.00316994,0.000121866,0.314547,0.00207386,0.013931,664,778,-9.92787,-0.294184
-553,246,-9.93634,0.0864258,0.000509933,-0.00144297,0.00147683,0.00130393,-0.00223696,0.493301,0.00206785,0.0129413,671,778,-9.93633,-0.0864166
-546,246,-9.93378,-0.148193,-0.00106741,-0.00243998,0.00215313,0.000506156,-0.00401355,0.631119,0.00285939,0.0108616,678,778,-9.93375,0.148188
-539,246,-9.94305,-0.398438,-0.00196157,-0.00325882,0.00267554,0.000142843,-0.00536323,0.666478,0.00362404,0.0105221,685,778,-9.94306,0.398417
-532,246,-9.96039,-0.65802,-0.00189729,-0.00405327,0.00252884,-0.000226262,-0.0057243,0.583922,0.00374306,0.0115616,692,778,-9.96037,0.658006
-525,246,-9.95129,-0.889404,-0.00130279,-0.00424428,0.00231767,-2.86002e-05,-0.00551847,0.502668,0.00366949,0.0122699,699,778,-9.95128,0.889428
-518,246,-9.96692,-1.05243,-0.000823176,-0.00444019,0.00193931,2.00388e-05,-0.0052834,0.410143,0.00352897,0.0187697,706,778,-9.96693,1.05245
-511,246,-10.1107,-1.07166,-7.21958e-05,-0.003906,0.00169029,0.000566602,-0.0045448,0.36133,0.00323531,0.0397533,713,778,-10.1107,1.07167
-504,246,-9.90137,-0.889343,0.00102793,-0.00327865,0.001102,0.00129354,-0.00354425,0.236512,0.0028921,0.0447905,720,778,-9.90137,0.889333
-497,246,-9.5451,-0.771179,0,0,0,0,0,0,0,-1,727,778,-9.5451,0.7712
-490,246,-15.5461,1.45728,0.00442938,-0.000454216,-0.000545074,0.00448948,-0.000514314,-0.109813,0.00317833,0.0475765,734,778,-15.5461,-1.45725
-483,246,-15.5332,1.43494,0.00666355,0.00190489,-0.00145707,0.00707425,0.00149419,-0.274739,0.00430541,0.0486344,741,778,-15.5332,-1.43492
-476,246,-15.5634,1.09583,0.00901042,0.00497032,-0.00218308,0.00996467,0.00401608,-0.412083,0.00578906,0.046591,748,778,-15.5634,-1.0958
-469,246,-15.4947,1.09119,0.0109755,0.0085933,-0.0022521,0.0123321,0.00723673,-0.54215,0.00715564,0.0423549,755,778,-15.4947,-1.09116
-462,246,-15.498,1.05554,0.0116707,0.0129883,-0.00168403,0.0141378,0.0105212,-0.97186,0.00848074,0.0474897,762,778,-15.498,-1.05552
-455,246,0,0,0,0,0,0,0,0,0,-1,769,778,0,0
-448,246,0,0,0,0,0,0,0,0,0,-1,776,778,0,0
-441,246,0,0,0,0,0,0,0,0,0,-1,783,778,0,0
-434,246,0,0,0,0,0,0,0,0,0,-1,790,778,0,0
-427,246,0,0,0,0,0,0,0,0,0,-1,797,778,0,0
-420,246,0,0,0,0,0,0,0,0,0,-1,804,778,0,0
-413,246,0,0,0,0,0,0,0,0,0,-1,811,778,0,0
-406,246,0,0,0,0,0,0,0,0,0,-1,818,778,0,0
-399,246,0,0,0,0,0,0,0,0,0,-1,825,778,0,0
-392,246,0,0,0,0,0,0,0,0,0,-1,832,778,0,0
-385,246,0,0,0,0,0,0,0,0,0,-1,839,778,0,0
-378,246,0,0,0,0,0,0,0,0,0,-1,846,778,0,0
-371,246,0,0,0,0,0,0,0,0,0,-1,853,778,0,0
-364,246,0,0,0,0,0,0,0,0,0,-1,860,778,0,0
-357,246,0,0,0,0,0,0,0,0,0,-1,867,778,0,0
-350,246,0,0,0,0,0,0,0,0,0,-1,874,778,0,0
-343,246,0,0,0,0,0,0,0,0,0,-1,881,778,0,0
-336,246,0,0,0,0,0,0,0,0,0,-1,888,778,0,0
-329,246,0,0,0,0,0,0,0,0,0,-1,895,778,0,0
-322,246,0,0,0,0,0,0,0,0,0,-1,902,778,0,0
-315,246,0,0,0,0,0,0,0,0,0,-1,909,778,0,0
-308,246,0,0,0,0,0,0,0,0,0,-1,916,778,0,0
-301,246,0,0,0,0,0,0,0,0,0,-1,923,778,0,0
-294,246,0,0,0,0,0,0,0,0,0,-1,930,778,0,0
-287,246,0,0,0,0,0,0,0,0,0,-1,937,778,0,0
-280,246,0,0,0,0,0,0,0,0,0,-1,944,778,0,0
-273,246,0,0,0,0,0,0,0,0,0,-1,951,778,0,0
-266,246,0,0,0,0,0,0,0,0,0,-1,958,778,0,0
-259,246,0,0,0,0,0,0,0,0,0,-1,965,778,0,0
-252,246,0,0,0,0,0,0,0,0,0,-1,972,778,0,0
-245,246,0,0,0,0,0,0,0,0,0,-1,979,778,0,0
-238,246,0,0,0,0,0,0,0,0,0,-1,986,778,0,0
-231,246,0,0,0,0,0,0,0,0,0,-1,993,778,0,0
-224,246,0,0,0,0,0,0,0,0,0,-1,1000,778,0,0
-217,246,0,0,0,0,0,0,0,0,0,-1,1007,778,0,0
-210,246,0,0,0,0,0,0,0,0,0,-1,1014,778,0,0
-203,246,0,0,0,0,0,0,0,0,0,-1,1021,778,0,0
-196,246,0,0,0,0,0,0,0,0,0,-1,1028,778,0,0
-189,246,0,0,0,0,0,0,0,0,0,-1,1035,778,0,0
-182,246,0,0,0,0,0,0,0,0,0,-1,1042,778,0,0
-175,246,0,0,0,0,0,0,0,0,0,-1,1049,778,0,0
-168,246,0,0,0,0,0,0,0,0,0,-1,1056,778,0,0
-161,246,0,0,0,0,0,0,0,0,0,-1,1063,778,0,0
-154,246,0,0,0,0,0,0,0,0,0,-1,1070,778,0,0
-147,246,0,0,0,0,0,0,0,0,0,-1,1077,778,0,0
-140,246,0,0,0,0,0,0,0,0,0,-1,1084,778,0,0
-133,246,0,0,0,0,0,0,0,0,0,-1,1091,778,0,0
-126,246,0,0,0,0,0,0,0,0,0,-1,1098,778,0,0
-119,246,0,0,0,0,0,0,0,0,0,-1,1105,778,0,0
-112,246,0,0,0,0,0,0,0,0,0,-1,1112,778,0,0
-105,246,0,0,0,0,0,0,0,0,0,-1,1119,778,0,0
-98,246,0,0,0,0,0,0,0,0,0,-1,1126,778,0,0
-91,246,0,0,0,0,0,0,0,0,0,-1,1133,778,0,0
-84,246,0,0,0,0,0,0,0,0,0,-1,1140,778,0,0
-77,246,0,0,0,0,0,0,0,0,0,-1,1147,778,0,0
-70,246,0,0,0,0,0,0,0,0,0,-1,1154,778,0,0
-63,246,0,0,0,0,0,0,0,0,0,-1,1161,778,0,0
-56,246,0,0,0,0,0,0,0,0,0,-1,1168,778,0,0
-49,246,0,0,0,0,0,0,0,0,0,-1,1175,778,0,0
-42,246,0,0,0,0,0,0,0,0,0,-1,1182,778,0,0
-35,246,0,0,0,0,0,0,0,0,0,-1,1189,778,0,0
-28,246,0,0,0,0,0,0,0,0,0,-1,1196,778,0,0
-21,246,0,0,0,0,0,0,0,0,0,-1,1203,778,0,0
-14,246,0,0,0,0,0,0,0,0,0,-1,1210,778,0,0
-7,246,0,0,0,0,0,0,0,0,0,-1,1217,778,0,0
0,246,0,0,0,0,0,0,0,0,0,-1,1224,778,0,0
7,246,0,0,0,0,0,0,0,0,0,-1,1231,778,0,0
14,246,0,0,0,0,0,0,0,0,0,-1,1238,778,0,0
21,246,0,0,0,0,0,0,0,0,0,-1,1245,778,0,0
28,246,0,0,0,0,0,0,0,0,0,-1,1252,778,0,0
35,246,0,0,0,0,0,0,0,0,0,-1,1259,778,0,0
42,246,0,0,0,0,0,0,0,0,0,-1,1266,778,0,0
49,246,0,0,0,0,0,0,0,0,0,-1,1273,778,0,0
56,246,0,0,0,0,0,0,0,0,0,-1,1280,778,0,0
63,246,0,0,0,0,0,0,0,0,0,-1,1287,778,0,0
70,246,0,0,0,0,0,0,0,0,0,-1,1294,778,0,0
77,246,0,0,0,0,0,0,0,0,0,-1,1301,778,0,0
84,246,0,0,0,0,0,0,0,0,0,-1,1308,778,0,0
91,246,0,0,0,0,0,0,0,0,0,-1,1315,778,0,0
98,246,0,0,0,0,0,0,0,0,0,-1,1322,778,0,0
105,246,0,0,0,0,0,0,0,0,0,-1,1329,778,0,0
112,246,0,0,0,0,0,0,0,0,0,-1,1336,778,0,0
119,246,0,0,0,0,0,0,0,0,0,-1,1343,778,0,0
126,246,0,0,0,0,0,0,0,0,0,-1,1350,778,0,0
133,246,0,0,0,0,0,0,0,0,0,-1,1357,778,0,0
140,246,0,0,0,0,0,0,0,0,0,-1,1364,778,0,0
147,246,0,0,0,0,0,0,0,0,0,-1,1371,778,0,0
154,246,0,0,0,0,0,0,0,0,0,-1,1378,778,0,0
161,246,0,0,0,0,0,0,0,0,0,-1,1385,778,0,0
168,246,0,0,0,0,0,0,0,0,0,-1,1392,778,0,0
175,246,0,0,0,0,0,0,0,0,0,-1,1399,778,0,0
182,246,0,0,0,0,0,0,0,0,0,-1,1406,778,0,0
189,246,0,0,0,0,0,0,0,0,0,-1,1413,778,0,0
196,246,0,0,0,0,0,0,0,0,0,-1,1420,778,0,0
203,246,0,0,0,0,0,0,0,0,0,-1,1427,778,0,0
210,246,0,0,0,0,0,0,0,0,0,-1,1434,778,0,0
217,246,0,0,0,0,0,0,0,0,0,-1,1441,778,0,0
224,246,0,0,0,0,0,0,0,0,0,-1,1448,778,0,0
231,246,0,0,0,0,0,0,0,0,0,-1,1455,778,0,0
238,246,0,0,0,0,0,0,0,0,0,-1,1462,778,0,0
245,246,0,0,0,0,0,0,0,0,0,-1,1469,778,0,0
252,246,0,0,0,0,0,0,0,0,0,-1,1476,778,0,0
259,246,0,0,0,0,0,0,0,0,0,-1,1483,778,0,0
266,246,0,0,0,0,0,0,0,0,0,-1,1490,778,0,0
273,246,0,0,0,0,0,0,0,0,0,-1,1497,778,0,0
280,246,0,0,0,0,0,0,0,0,0,-1,1504,778,0,0
287,246,0,0,0,0,0,0,0,0,0,-1,1511,778,0,0
294,246,0,0,0,0,0,0,0,0,0,-1,1518,778,0,0
301,246,0,0,0,0,0,0,0,0,0,-1,1525,778,0,0
308,246,0,0,0,0,0,0,0,0,0,-1,1532,778,0,0
315,246,0,0,0,0,0,0,0,0,0,-1,1539,778,0,0
322,246,0,0,0,0,0,0,0,0,0,-1,1546,778,0,0
329,246,0,0,0,0,0,0,0,0,0,-1,1553,778,0,0
336,246,0,0,0,0,0,0,0,0,0,-1,1560,778,0,0
343,246,0,0,0,0,0,0,0,0,0,-1,1567,778,0,0
350,246,0,0,0,0,0,0,0,0,0,-1,1574,778,0,0
357,246,0,0,0,0,0,0,0,0,0,-1,1581,778,0,0
364,246,0,0,0,0,0,0,0,0,0,-1,1588,778,0,0
371,246,0,0,0,0,0,0,0,0,0,-1,1595,778,0,0
378,246,0,0,0,0,0,0,0,0,0,-1,1602,778,0,0
385,246,0,0,0,0,0,0,0,0,0,-1,1609,778,0,0
392,246,0,0,0,0,0,0,0,0,0,-1,1616,778,0,0
399,246,0,0,0,0,0,0,0,0,0,-1,1623,778,0,0
406,246,0,0,0,0,0,0,0,0,0,-1,1630,778,0,0
413,246,0,0,0,0,0,0,0,0,0,-1,1637,778,0,0
420,246,0,0,0,0,0,0,0,0,0,-1,1644,778,0,0
427,246,0,0,0,0,0,0,0,0,0,-1,1651,778,0,0
434,246,0,0,0,0,0,0,0,0,0,-1,1658,778,0,0
441,246,0,0,0,0,0,0,0,0,0,-1,1665,778,0,0
448,246,0,0,0,0,0,0,0,0,0,-1,1672,778,0,0
455,246,0,0,0,0,0,0,0,0,0,-1,1679,778,0,0
462,246,0,0,0,0,0,0,0,0,0,-1,1686,778,0,0
469,246,0,0,0,0,0,0,0,0,0,-1,1693,778,0,0
476,246,0,0,0,0,0,0,0,0,0,-1,1700,778,0,0
483,246,0,0,0,0,0,0,0,0,0,-1,1707,778,0,0
490,246,0,0,0,0,0,0,0,0,0,-1,1714,778,0,0
497,246,0,0,0,0,0,0,0,0,0,-1,1721,778,0,0
504,246,0,0,0,0,0,0,0,0,0,-1,1728,778,0,0
511,246,0,0,0,0,0,0,0,0,0,-1,1735,778,0,0
518,246,0,0,0,0,0,0,0,0,0,-1,1742,778,0,0
525,246,0,0,0,0,0,0,0,0,0,-1,1749,778,0,0
532,246,0,0,0,0,0,0,0,0,0,-1,1756,778,0,0
539,246,0,0,0,0,0,0,0,0,0,-1,1763,778,0,0
546,246,0,0,0,0,0,0,0,0,0,-1,1770,778,0,0
553,246,0,0,0,0,0,0,0,0,0,-1,1777,778,0,0
560,246,0,0,0,0,0,0,0,0,0,-1,1784,778,0,0
567,246,0,0,0,0,0,0,0,0,0,-1,1791,778,0,0
574,246,0,0,0,0,0,0,0,0,0,-1,1798,778,0,0
581,246,22.9171,2.82391,0.00825058,-0.00524036,-0.010286,0.0138057,-0.0107954,-0.495181,0.0142388,0.0361531,1805,778,22.9171,-2.82393
588,246,22.9248,2.70703,0.0100769,-0.00358952,-0.0032927,0.0108288,-0.00434148,-0.224519,0.00902156,0.03848,1812,778,22.9248,-2.70704
595,246,23.1163,2.74036,0.00986181,-0.00133855,0.00198258,0.0102024,-0.00167913,0.170126,0.00742487,0.0390199,1819,778,23.1163,-2.74038
602,246,23.1544,2.85962,0.00763811,0.000144318,0.00424676,0.00955462,-0.0017722,0.423925,0.00703528,0.0416721,1826,778,23.1545,-2.85961
609,246,23.1433,2.88739,0.00454327,0.00111018,0.00460903,0.00774503,-0.00209158,0.60714,0.00598367,0.0461421,1833,778,23.1433,-2.8874
616,246,23.0383,3.0954,0.00175085,0.00153262,0.00422019,0.00586333,-0.00257986,0.772474,0.00499604,0.0475263,1840,778,23.0383,-3.09537
623,246,22.8673,3.31201,-0.000549796,0.00169048,0.00345862,0.00420582,-0.00306514,0.942002,0.00421508,0.0432674,1847,778,22.8673,-3.31199
630,246,22.3994,3.71417,-0.00251335,0.00173273,0.00264274,0.00299959,-0.0037802,1.12379,0.00392295,0.0466413,1854,778,22.3994,-3.71419
637,246,21.6157,4.01868,0,0,0,0,0,0,0,-1,1861,778,21.6158,-4.01868
644,246,16.3514,0.903625,0,0,0,0,0,0,0,-1,1868,778,16.3514,-0.903598
651,246,16.337,1.03241,-0.00715795,0.000871799,-0.000834648,0.000957638,-0.00724379,-1.46831,0.00517801,0.0315158,1875,778,16.3371,-1.0324
658,246,16.3898,1.30579,-0.00712614,0.000491644,-0.00221087,0.0010868,-0.00772129,-1.30784,0.00554541,0.0208088,1882,778,16.3897,-1.30577
665,246,16.3536,1.55994,-0.00647103,0.000384257,-0.00331372,0.00172416,-0.00781094,-1.18655,0.00586707,0.0228199,1889,778,16.3536,-1.55994
672,246,16.3406,1.81708,-0.00484659,-0.00042039,-0.00295262,0.00105647,-0.00632345,-1.107,0.00460833,0.02215,1896,778,16.3406,-1.81705
679,246,16.3496,2.07062,-0.00254113,-0.000481041,-0.00203387,0.000768742,-0.00379091,-1.01979,0.00281868,0.0205549,1903,778,16.3496,-2.07059
686,246,16.3702,2.33405,0.000206404,0.000480797,-0.000347734,0.000717421,-3.02197e-05,-0.973296,0.000488665,0.0214559,1910,778,16.3703,-2.33402
693,246,16.3608,2.59729,0.00284283,0.00201025,0.00185759,0.00433021,0.000522873,0.675168,0.00272926,0.0166757,1917,778,16.3609,-2.59729
700,246,16.3525,2.8255,0.00586105,0.00354727,0.00444891,0.00930103,0.0001073,0.658196,0.00616523,0.0145639,1924,778,16.3525,-2.82553
707,246,16.3551,3.0611,0.00937563,0.00502824,0.00780634,0.0153053,-0.00090139,0.649611,0.0105169,0.0144589,1931,778,16.3551,-3.06112
714,246,16.34,3.3172,0.0132217,0.00621155,0.0119752,0.0221942,-0.00276099,0.643028,0.0157971,0.0128732,1938,778,16.34,-3.3172
721,246,16.3408,3.54034,0.0174355,0.00724565,0.0170647,0.0301497,-0.0054685,0.640328,0.0221488,0.0178901,1945,778,16.3408,-3.54034
728,246,16.3259,3.98541,0.0226092,0.00790135,0.0239297,0.0402895,-0.00977893,0.636322,0.0306439,0.0363125,1952,778,16.326,-3.98541
735,246,16.6869,5.40216,0.0286783,0.00766977,0.0327457,0.0525633,-0.0162152,0.630191,0.0415166,0.043853,1959,778,16.6869,-5.40215
742,246,16.7531,6.66437,0.0353514,0.00607625,0.0437011,0.0668012,-0.0253736,0.623797,0.0549796,0.0430082,1966,778,16.753,-6.66439
749,246,16.7953,7.92981,0,0,0,0,0,0,0,-1,1973,778,16.7953,-7.92982
756,246,19.0327,6.3269,0,0,0,0,0,0,0,-1,1980,778,19.0327,-6.3269
763,246,0,0,0,0,0,0,0,0,0,-1,1987,778,0,0
770,246,0,0,0,0,0,0,0,0,0,-1,1994,778,0,0
777,246,0,0,0,0,0,0,0,0,0,-1,2001,778,0,0
784,246,0,0,0,0,0,0,0,0,0,-1,2008,778,0,0
791,246,0,0,0,0,0,0,0,0,0,-1,2015,778,0,0
798,246,0,0,0,0,0,0,0,0,0,-1,2022,778,0,0
805,246,0,0,0,0,0,0,0,0,0,-1,2029,778,0,0
812,246,0,0,0,0,0,0,0,0,0,-1,2036,778,0,0
-700,239,0,0,0,0,0,0,0,0,0,-1,524,785,0,0
-693,239,0,0,0,0,0,0,0,0,0,-1,531,785,0,0
-686,239,0,0,0,0,0,0,0,0,0,-1,538,785,0,0
-679,239,0,0,0,0,0,0,0,0,0,-1,545,785,0,0
-672,239,0,0,0,0,0,0,0,0,0,-1,552,785,0,0
-665,239,0,0,0,0,0,0,0,0,0,-1,559,785,0,0
-658,239,0,0,0,0,0,0,0,0,0,-1,566,785,0,0
-651,239,0,0,0,0,0,0,0,0,0,-1,573,785,0,0
-644,239,0,0,0,0,0,0,0,0,0,-1,580,785,0,0
-637,239,-10.5008,-0.892944,0,0,0,0,0,0,0,-1,587,785,-10.5008,0.892958
-630,239,-9.44775,-0.0762939,0.06321,0.0179484,0.0438614,0.0899348,-0.00877642,0.547231,0.0630858,0.0493206,594,785,-9.44774,0.0762944
-623,239,-11.8732,0.77948,0.0558417,0.0194012,0.0345414,0.0766738,-0.00143085,0.5427,0.0515994,0.0417375,601,785,-11.8732,-0.779503
-616,239,-11.2196,1.13947,0.0480857,0.0188123,0.0266607,0.0638633,0.00303478,0.534361,0.0416008,0.0439504,608,785,-11.2196,-1.13945
-609,239,-10.7252,1.4859,0.0403934,0.017017,0.0200806,0.0519397,0.00547064,0.521834,0.0329546,0.048026,615,785,-10.7252,-1.48592
-602,239,-10.6002,1.72119,0,0,0,0,0,0,0,-1,622,785,-10.6002,-1.72122
-595,239,-10.3609,1.46381,0.026159,0.0118636,0.0104436,0.0316667,0.00635597,0.485306,0.0193437,0.0423314,629,785,-10.3609,-1.4638
-588,239,-10.1317,1.21948,0.020059,0.0099197,0.00678939,0.0234627,0.00651602,0.464705,0.0139853,0.0182228,636,785,-10.1316,-1.21949
-581,239,-10.171,0.975037,0.014237,0.00748882,0.00415019,0.0162116,0.00551422,0.444091,0.00951789,0.0108902,643,785,-10.171,-0.975021
-574,239,-10.1782,0.730408,0.00957391,0.00519738,0.00232635,0.0105795,0.00419183,0.407987,0.00615175,0.0121002,650,785,-10.1782,-0.730423
-567,239,-10.1597,0.49646,0.00566268,0.00242532,0.00125218,0.00609048,0.00199752,0.329212,0.00358504,0.0141664,657,785,-10.1597,-0.496452
-560,239,-10.1658,0.286438,0.00251442,0.00010252,0.000981321,0.00286323,-0.0002463,0.34153,0.00199599,0.0138817,664,785,-10.1658,-0.28641
-553,239,-10.1871,0.0794678,0.000329517,-0.00153855,0.00152201,0.00118124,-0.00239028,0.510188,0.00210103,0.0139153,671,785,-10.187,-0.07944
-546,239,-10.1912,-0.153992,-0.00119043,-0.00252611,0.00215346,0.000396365,-0.00411291,0.635038,0.00288316,0.015188,678,785,-10.1912,0.153986
-539,239,-10.1912,-0.410461,-0.00213235,-0.00321689,0.00268333,6.29579e-05,-0.0054122,0.685697,0.0036293,0.0163486,685,785,-10.1912,0.410466
-532,239,-10.1713,-0.645447,-0.00214132,-0.00388209,0.00257003,-0.000298287,-0.00572512,0.622127,0.00372131,0.013266,692,785,-10.1712,0.645458
-525,239,-10.1769,-0.852783,-0.00167612,-0.00409741,0.00237551,-0.000220545,-0.00555299,0.549735,0.00363071,0.0154326,699,785,-10.1769,0.852754
-518,239,-10.2,-0.863831,-0.00134566,-0.00426931,0.00206765,-0.000275271,-0.00533971,0.477695,0.00347169,0.0365288,706,785,-10.2,0.863837
-511,239,-10.3104,-0.752563,-0.000775707,-0.00392081,0.0017747,2.29182e-05,-0.00471944,0.422859,0.00315396,0.0408964,713,785,-10.3104,0.752536
-504,239,-10.394,-0.648254,0.000127032,-0.00346214,0.0011667,0.000472942,-0.00380805,0.28823,0.00271014,0.0454131,720,785,-10.394,0.64824
-497,239,-10.4745,-0.558594,0,0,0,0,0,0,0,-1,727,785,-10.4746,0.558573
-490,239,-15.7149,1.31378,0,0,0,0,0,0,0,-1,734,785,-15.7149,-1.3138
-483,239,-15.5601,1.45471,0,0,0,0,0,0,0,-1,741,785,-15.5601,-1.45472
-476,239,-15.5909,1.01605,0.00689766,0.00391722,-0.00306334,0.00881402,0.00200086,-0.559016,0.00533562,0.0415546,748,785,-15.5909,-1.01603
-469,239,-15.5098,1.01965,0.00832991,0.00727319,-0.00372337,0.0115622,0.00404087,-0.714917,0.00677551,0.0427794,755,785,-15.5098,-1.01967
-462,239,-15.5376,1.00092,0.00823547,0.011573,-0.00389394,0.0141407,0.00566778,-0.987836,0.0082175,0.0441968,762,785,-15.5376,-1.00093
-455,239,0,0,0,0,0,0,0,0,0,-1,769,785,0,0
-448,239,0,0,0,0,0,0,0,0,0,-1,776,785,0,0
-441,239,0,0,0,0,0,0,0,0,0,-1,783,785,0,0
-434,239,0,0,0,0,0,0,0,0,0,-1,790,785,0,0
-427,239,0,0,0,0,0,0,0,0,0,-1,797,785,0,0
-420,239,0,0,0,0,0,0,0,0,0,-1,804,785,0,0
-413,239,0,0,0,0,0,0,0,0,0,-1,811,785,0,0
-406,239,0,0,0,0,0,0,0,0,0,-1,818,785,0,0
-399,239,0,0,0,0,0,0,0,0,0,-1,825,785,0,0
-392,239,0,0,0,0,0,0,0,0,0,-1,832,785,0,0
-385,239,0,0,0,0,0,0,0,0,0,-1,839,785,0,0
-378,239,0,0,0,0,0,0,0,0,0,-1,846,785,0,0
-371,239,0,0,0,0,0,0,0,0,0,-1,853,785,0,0
-364,239,0,0,0,0,0,0,0,0,0,-1,860,785,0,0
-357,239,0,0,0,0,0,0,0,0,0,-1,867,785,0,0
-350,239,0,0,0,0,0,0,0,0,0,-1,874,785,0,0
-343,239,0,0,0,0,0,0,0,0,0,-1,881,785,0,0
-336,239,0,0,0,0,0,0,0,0,0,-1,888,785,0,0
-329,239,0,0,0,0,0,0,0,0,0,-1,895,785,0,0
-322,239,0,0,0,0,0,0,0,0,0,-1,902,785,0,0
-315,239,0,0,0,0,0,0,0,0,0,-1,909,785,0,0
-308,239,0,0,0,0,0,0,0,0,0,-1,916,785,0,0
-301,239,0,0,0,0,0,0,0,0,0,-1,923,785,0,0
-294,239,0,0,0,0,0,0,0,0,0,-1,930,785,0,0
-287,239,0,0,0,0,0,0,0,0,0,-1,937,785,0,0
-280,239,0,0,0,0,0,0,0,0,0,-1,944,785,0,0
-273,239,0,0,0,0,0,0,0,0,0,-1,951,785,0,0
-266,239,0,0,0,0,0,0,0,0,0,-1,958,785,0,0
-259,239,0,0,0,0,0,0,0,0,0,-1,965,785,0,0
-252,239,0,0,0,0,0,0,0,0,0,-1,972,785,0,0
-245,239,0,0,0,0,0,0,0,0,0,-1,979,785,0,0
-238,239,0,0,0,0,0,0,0,0,0,-1,986,785,0,0
-231,239,0,0,0,0,0,0,0,0,0,-1,993,785,0,0
-224,239,0,0,0,0,0,0,0,0,0,-1,1000,785,0,0
-217,239,0,0,0,0,0,0,0,0,0,-1,1007,785,0,0
-210,239,0,0,0,0,0,0,0,0,0,-1,1014,785,0,0
-203,239,0,0,0,0,0,0,0,0,0,-1,1021,785,0,0
-196,239,0,0,0,0,0,0,0,0,0,-1,1028,785,0,0
-189,239,0,0,0,0,0,0,0,0,0,-1,1035,785,0,0
-182,239,0,0,0,0,0,0,0,0,0,-1,1042,785,0,0
-175,239,0,0,0,0,0,0,0,0,0,-1,1049,785,0,0
-168,239,0,0,0,0,0,0,0,0,0,-1,1056,785,0,0
-161,239,0,0,0,0,0,0,0,0,0,-1,1063,785,0,0
-154,239,0,0,0,0,0,0,0,0,0,-1,1070,785,0,0
-147,239,0,0,0,0,0,0,0,0,0,-1,1077,785,0,0
-140,239,0,0,0,0,0,0,0,0,0,-1,1084,785,0,0
-133,239,0,0,0,0,0,0,0,0,0,-1,1091,785,0,0
-126,239,0,0,0,0,0,0,0,0,0,-1,1098,785,0,0
-119,239,0,0,0,0,0,0,0,0,0,-1,1105,785,0,0
-112,239,0,0,0,0,0,0,0,0,0,-1,1112,785,0,0
-105,239,0,0,0,0,0,0,0,0,0,-1,1119,785,0,0
-98,239,0,0,0,0,0,0,0,0,0,-1,1126,785,0,0
-91,239,0,0,0,0,0,0,0,0,0,-1,1133,785,0,0
-84,239,0,0,0,0,0,0,0,0,0,-1,1140,785,0,0
-77,239,0,0,0,0,0,0,0,0,0,-1,1147,785,0,0
-70,239,0,0,0,0,0,0,0,0,0,-1,1154,785,0,0
-63,239,0,0,0,0,0,0,0,0,0,-1,1161,785,0,0
-56,239,0,0,0,0,0,0,0,0,0,-1,1168,785,0,0
-49,239,0,0,0,0,0,0,0,0,0,-1,1175,785,0,0
-42,239,0,0,0,0,0,0,0,0,0,-1,1182,785,0,0
-35,239,0,0,0,0,0,0,0,0,0,-1,1189,785,0,0
-28,239,0,0,0,0,0,0,0,0,0,-1,1196,785,0,0
-21,239,0,0,0,0,0,0,0,0,0,-1,1203,785,0,0
-14,239,0,0,0,0,0,0,0,0,0,-1,1210,785,0,0
-7,239,0,0,0,0,0,0,0,0,0,-1,1217,785,0,0
0,239,0,0,0,0,0,0,0,0,0,-1,1224,785,0,0
7,239,0,0,0,0,0,0,0,0,0,-1,1231,785,0,0
14,239,0,0,0,0,0,0,0,0,0,-1,1238,785,0,0
21,239,0,0,0,0,0,0,0,0,0,-1,1245,785,0,0
28,239,0,0,0,0,0,0,0,0,0,-1,1252,785,0,0
35,239,0,0,0,0,0,0,0,0,0,-1,1259,785,0,0
42,239,0,0,0,0,0,0,0,0,0,-1,1266,785,0,0
49,239,0,0,0,0,0,0,0,0,0,-1,1273,785,0,0
56,239,0,0,0,0,0,0,0,0,0,-1,1280,785,0,0
63,239,0,0,0,0,0,0,0,0,0,-1,1287,785,0,0
70,239,0,0,0,0,0,0,0,0,0,-1,1294,785,0,0
77,239,0,0,0,0,0,0,0,0,0,-1,1301,785,0,0
84,239,0,0,0,0,0,0,0,0,0,-1,1308,785,0,0
91,239,0,0,0,0,0,0,0,0,0,-1,1315,785,0,0
98,239,0,0,0,0,0,0,0,0,0,-1,1322,785,0,0
105,239,0,0,0,0,0,0,0,0,0,-1,1329,785,0,0
112,239,0,0,0,0,0,0,0,0,0,-1,1336,785,0,0
119,239,0,0,0,0,0,0,0,0,0,-1,1343,785,0,0
126,239,0,0,0,0,0,0,0,0,0,-1,1350,785,0,0
133,239,0,0,0,0,0,0,0,0,0,-1,1357,785,0,0
140,239,0,0,0,0,0,0,0,0,0,-1,1364,785,0,0
147,239,0,0,0,0,0,0,0,0,0,-1,1371,785,0,0
154,239,0,0,0,0,0,0,0,0,0,-1,1378,785,0,0
161,239,0,0,0,0,0,0,0,0,0,-1,1385,785,0,0
168,239,0,0,0,0,0,0,0,0,0,-1,1392,785,0,0
175,239,0,0,0,0,0,0,0,0,0,-1,1399,785,0,0
182,239,0,0,0,0,0,0,0,0,0,-1,1406,785,0,0
189,239,0,0,0,0,0,0,0,0,0,-1,1413,785,0,0
196,239,0,0,0,0,0,0,0,0,0,-1,1420,785,0,0
203,239,0,0,0,0,0,0,0,0,0,-1,1427,785,0,0
210,239,0,0,0,0,0,0,0,0,0,-1,1434,785,0,0
217,239,0,0,0,0,0,0,0,0,0,-1,1441,785,0,0
224,239,0,0,0,0,0,0,0,0,0,-1,1448,785,0,0
231,239,0,0,0,0,0,0,0,0,0,-1,1455,785,0,0
238,239,0,0,0,0,0,0,0,0,0,-1,1462,785,0,0
245,239,0,0,0,0,0,0,0,0,0,-1,1469,785,0,0
252,239,0,0,0,0,0,0,0,0,0,-1,1476,785,0,0
259,239,0,0,0,0,0,0,0,0,0,-1,1483,785,0,0
266,239,0,0,0,0,0,0,0,0,0,-1,1490,785,0,0
273,239,0,0,0,0,0,0,0,0,0,-1,1497,785,0,0
280,239,0,0,0,0,0,0,0,0,0,-1,1504,785,0,0
287,239,0,0,0,0,0,0,0,0,0,-1,1511,785,0,0
294,239,0,0,0,0,0,0,0,0,0,-1,1518,785,0,0
301,239,0,0,0,0,0,0,0,0,0,-1,1525,785,0,0
308,239,0,0,0,0,0,0,0,0,0,-1,1532,785,0,0
315,239,0,0,0,0,0,0,0,0,0,-1,1539,785,0,0
322,239,0,0,0,0,0,0,0,0,0,-1,1546,785,0,0
329,239,0,0,0,0,0,0,0,0,0,-1,1553,785,0,0
336,239,0,0,0,0,0,0,0,0,0,-1,1560,785,0,0
343,239,0,0,0,0,0,0,0,0,0,-1,1567,785,0,0
350,239,0,0,0,0,0,0,0,0,0,-1,1574,785,0,0
357,239,0,0,0,0,0,0,0,0,0,-1,1581,785,0,0
364,239,0,0,0,0,0,0,0,0,0,-1,1588,785,0,0
371,239,0,0,0,0,0,0,0,0,0,-1,1595,785,0,0
378,239,0,0,0,0,0,0,0,0,0,-1,1602,785,0,0
385,239,0,0,0,0,0,0,0,0,0,-1,1609,785,0,0
392,239,0,0,0,0,0,0,0,0,0,-1,1616,785,0,0
399,239,0,0,0,0,0,0,0,0,0,-1,1623,785,0,0
406,239,0,0,0,0,0,0,0,0,0,-1,1630,785,0,0
413,239,0,0,0,0,0,0,0,0,0,-1,1637,785,0,0
420,239,0,0,0,0,0,0,0,0,0,-1,1644,785,0,0
427,239,0,0,0,0,0,0,0,0,0,-1,1651,785,0,0
434,239,0,0,0,0,0,0,0,0,0,-1,1658,785,0,0
441,239,0,0,0,0,0,0,0,0,0,-1,1665,785,0,0
448,239,0,0,0,0,0,0,0,0,0,-1,1672,785,0,0
455,239,0,0,0,0,0,0,0,0,0,-1,1679,785,0,0
462,239,0,0,0,0,0,0,0,0,0,-1,1686,785,0,0
469,239,0,0,0,0,0,0,0,0,0,-1,1693,785,0,0
476,239,0,0,0,0,0,0,0,0,0,-1,1700,785,0,0
483,239,0,0,0,0,0,0,0,0,0,-1,1707,785,0,0
490,239,0,0,0,0,0,0,0,0,0,-1,1714,785,0,0
497,239,0,0,0,0,0,0,0,0,0,-1,1721,785,0,0
504,239,0,0,0,0,0,0,0,0,0,-1,1728,785,0,0
511,239,0,0,0,0,0,0,0,0,0,-1,1735,785,0,0
518,239,0,0,0,0,0,0,0,0,0,-1,1742,785,0,0
525,239,0,0,0,0,0,0,0,0,0,-1,1749,785,0,0
532,239,0,0,0,0,0,0,0,0,0,-1,1756,785,0,0
539,239,0,0,0,0,0,0,0,0,0,-1,1763,785,0,0
546,239,0,0,0,0,0,0,0,0,0,-1,1770,785,0,0
553,239,0,0,0,0,0,0,0,0,0,-1,1777,785,0,0
560,239,0,0,0,0,0,0,0,0,0,-1,1784,785,0,0
567,239,0,0,0,0,0,0,0,0,0,-1,1791,785,0,0
574,239,0,0,0,0,0,0,0,0,0,-1,1798,785,0,0
581,239,22.8148,3.01843,0.00634658,-0.00567067,-0.0113651,0.0131937,-0.0125178,-0.54223,0.0148462,0.0366531,1805,785,22.8148,-3.01845
588,239,22.845,2.88037,0.00715841,-0.00465054,-0.00531153,0.00919592,-0.00668806,-0.366291,0.00920864,0.0359877,1812,785,22.845,-2.88037
595,239,22.8788,2.7356,0.00670484,-0.00259002,-0.000123404,0.00670648,-0.00259166,-0.0132735,0.00554074,0.0332635,1819,785,22.8788,-2.73562
602,239,22.9834,2.79199,0.00478283,-0.000780142,0.00256134,0.0057825,-0.00177981,0.372109,0.00456542,0.0373494,1826,785,22.9834,-2.79201
609,239,23.1677,2.83679,0.00190854,0.000378873,0.00310067,0.00433731,-0.0020499,0.664479,0.00376566,0.0486065,1833,785,23.1677,-2.83681
616,239,22.918,3.05554,0,0,0,0,0,0,0,-1,1840,785,22.918,-3.05552
623,239,22.8687,3.11798,-0.0028425,0.00124272,0.00204262,0.00208881,-0.00368858,1.1781,0.00337793,0.0453596,1847,785,22.8687,-3.11801
630,239,22.4481,3.11346,-0.00452509,0.00126101,0.00123558,0.00151381,-0.0047779,1.36898,0.00379197,0.0445356,1854,785,22.4481,-3.11346
637,239,21.9532,3.2984,0,0,0,0,0,0,0,-1,1861,785,21.9532,-3.29843
644,239,16.6399,0.652527,0,0,0,0,0,0,0,-1,1868,785,16.6399,-0.652497
651,239,16.6284,0.985168,-0.0078664,0.000516612,-0.00172666,0.000858326,-0.00820811,-1.37542,0.00577947,0.0449401,1875,785,16.6284,-0.985175
658,239,16.6273,1.30487,-0.0078254,8.92065e-05,-0.00290888,0.0010433,-0.00877949,-1.25386,0.00622995,0.0187463,1882,785,16.6273,-1.30489
665,239,16.6527,1.59058,-0.0072918,-0.000122052,-0.00382747,0.0015372,-0.00895105,-1.16174,0.00654026,0.0138344,1889,785,16.6527,-1.59058
672,239,16.6141,1.83618,-0.00588269,-0.00097027,-0.00349506,0.000845338,-0.0076983,-1.09169,0.00543593,0.019696,1896,785,16.6142,-1.83616
679,239,16.6189,2.09387,-0.00376914,-0.00119932,-0.00265537,0.000465684,-0.00543414,-1.01074,0.00378754,0.0213239,1903,785,16.6189,-2.09384
686,239,16.6296,2.37714,-0.00125166,-0.000485342,-0.00110255,0.000298727,-0.00203573,-0.952632,0.00146691,0.023405,1910,785,16.6296,-2.37715
693,239,16.6427,2.6109,0.00106079,0.000768866,0.00092434,0.00185062,-2.09667e-05,0.707091,0.00124079,0.0150308,1917,785,16.6427,-2.6109
700,239,16.6346,2.82422,0.00369188,0.00185141,0.00335159,0.00624727,-0.000703984,0.651416,0.00441824,0.0115256,1924,785,16.6346,-2.82422
707,239,16.613,3.05865,0.00684447,0.00284986,0.00654638,0.0116915,-0.00199713,0.637333,0.00853823,0.0114067,1931,785,16.613,-3.05864
714,239,16.6128,3.30334,0.0101853,0.00332761,0.0103848,0.0176927,-0.00417974,0.625943,0.0134073,0.0105567,1938,785,16.6128,-3.30332
721,239,16.5847,3.50397,0.0137403,0.00345027,0.014677,0.024148,-0.00695743,0.616817,0.0188507,0.0202555,1945,785,16.5847,-3.50394
728,239,16.6512,3.68658,0.0181603,0.00296127,0.0202167,0.0321586,-0.0110371,0.605617,0.0259138,0.0361067,1952,785,16.6513,-3.68658
735,239,16.8589,5.62695,0.023327,0.00153372,0.0273376,0.0418596,-0.0169989,0.595751,0.0349778,0.0455193,1959,785,16.8588,-5.62695
742,239,16.9066,6.90015,0.0291998,-0.00125418,0.0359152,0.0529825,-0.0250369,0.584899,0.0459977,0.0458195,1966,785,16.9066,-6.90018
749,239,16.9574,8.12115,0,0,0,0,0,0,0,-1,1973,785,16.9574,-8.12114
756,239,16.9913,9.33911,0,0,0,0,0,0,0,-1,1980,785,16.9914,-9.3391
763,239,0,0,0,0,0,0,0,0,0,-1,1987,785,0,0
770,239,0,0,0,0,0,0,0,0,0,-1,1994,785,0,0
777,239,0,0,0,0,0,0,0,0,0,-1,2001,785,0,0
784,239,0,0,0,0,0,0,0,0,0,-1,2008,785,0,0
791,239,0,0,0,0,0,0,0,0,0,-1,2015,785,0,0
798,239,0,0,0,0,0,0,0,0,0,-1,2022,785,0,0
805,239,0,0,0,0,0,0,0,0,0,-1,2029,785,0,0
812,239,0,0,0,0,0,0,0,0,0,-1,2036,785,0,0
-700,232,0,0,0,0,0,0,0,0,0,-1,524,792,0,0
-693,232,0,0,0,0,0,0,0,0,0,-1,531,792,0,0
-686,232,0,0,0,0,0,0,0,0,0,-1,538,792,0,0
-679,232,0,0,0,0,0,0,0,0,0,-1,545,792,0,0
-672,232,0,0,0,0,0,0,0,0,0,-1,552,792,0,0
-665,232,0,0,0,0,0,0,0,0,0,-1,559,792,0,0
-658,232,0,0,0,0,0,0,0,0,0,-1,566,792,0,0
-651,232,0,0,0,0,0,0,0,0,0,-1,573,792,0,0
-644,232,-11.8576,-1.28107,0.0724914,-0.00588999,0.064092,0.108425,-0.0418238,0.510991,0.0895421,0.0443327,580,792,-11.8576,1.28105
-637,232,-11.3901,-0.57782,0.0660122,0.0028505,0.0536327,0.0966713,-0.0278087,0.519313,0.0754453,0.0442257,587,792,-11.3901,0.577792
-630,232,-10.75,0.0447998,0.0587809,0.00816412,0.0438412,0.0840943,-0.0171492,0.523627,0.0625676,0.0462469,594,792,-10.75,-0.0448278
-623,232,-11.0427,0.699097,0,0,0,0,0,0,0,-1,601,792,-11.0428,-0.699082
-616,232,-11.2203,1.18207,0.0434167,0.0115561,0.0275217,0.0592861,-0.00431326,0.523046,0.0410375,0.0452176,608,792,-11.2203,-1.18206
-609,232,-11.0533,1.23621,0.0360839,0.0111331,0.0210326,0.0480626,-0.000845613,0.517715,0.0323273,0.048991,615,792,-11.0533,-1.23619
-602,232,-10.4714,1.80334,0,0,0,0,0,0,0,-1,622,792,-10.4714,-1.80332
-595,232,-10.4152,1.51807,0.0229753,0.00834942,0.0112611,0.0290896,0.00223513,0.497421,0.0186926,0.0371216,629,792,-10.4152,-1.51809
-588,232,-10.387,1.23212,0.0174189,0.00729399,0.00738177,0.0213073,0.00340551,0.484831,0.0132168,0.012336,636,792,-10.3869,-1.23211
-581,232,-10.3986,0.98468,0.0121191,0.0056657,0.00454453,0.0144659,0.00331886,0.47669,0.00875004,0.00824249,643,792,-10.3986,-0.984708
-574,232,-10.3942,0.754456,0.00792075,0.00394615,0.00265237,0.00924772,0.00261917,0.463887,0.0055039,0.00840082,650,792,-10.3941,-0.754453
-567,232,-10.4183,0.529968,0.00457986,0.00176948,0.00147443,0.00521145,0.00113788,0.40472,0.00316397,0.00967835,657,792,-10.4183,-0.529955
-560,232,-10.4257,0.301208,0.00188854,-0.000101363,0.00113685,0.00240434,-0.000617162,0.425933,0.00184338,0.0120524,664,792,-10.4257,-0.301193
-553,232,-10.4288,0.0689087,8.89654e-05,-0.00141114,0.00162095,0.00112499,-0.00244716,0.568706,0.00210895,0.013108,671,792,-10.4288,-0.0688815
-546,232,-10.4641,-0.151794,-0.00123431,-0.00228715,0.0021686,0.000470848,-0.0039923,0.666328,0.00283156,0.0216224,678,792,-10.4641,0.151767
-539,232,-10.4712,-0.394287,-0.00208675,-0.00276037,0.00269513,0.000292538,-0.00513965,0.723236,0.00352799,0.026425,685,792,-10.4712,0.394289
-532,232,-10.4312,-0.630859,-0.0020848,-0.00320571,0.00266056,7.36918e-05,-0.0053642,0.681589,0.00360095,0.0166311,692,792,-10.4312,0.63085
-525,232,-10.4632,-0.795288,-0.00169441,-0.00336105,0.00253759,0.000143188,-0.00519865,0.62675,0.00351447,0.0268542,699,792,-10.4632,0.795309
-518,232,-10.7759,-0.105042,0,0,0,0,0,0,0,-1,706,792,-10.776,0.105023
-511,232,-10.4755,-0.237793,-0.00101627,-0.00318279,0.00202856,0.00020015,-0.00439921,0.540158,0.00300175,0.0445893,713,792,-10.4754,0.237814
-504,232,-10.5359,-0.517578,-0.000282575,-0.00282333,0.0014358,0.000364177,-0.00347009,0.423225,0.00244384,0.048929,720,792,-10.5359,0.517548
-497,232,-10.5571,-0.532532,0,0,0,0,0,0,0,-1,727,792,-10.5571,0.532523
-490,232,-15.5963,1.16962,0.00208768,-0.000870967,-0.00066029,0.00222835,-0.00101164,-0.209906,0.00191407,0.0461689,734,792,-15.5962,-1.16964
-483,232,-15.6314,1.09436,0.00368015,0.00096642,-0.00221413,0.0049201,-0.000273534,-0.510502,0.00337494,0.0428747,741,792,-15.6314,-1.09439
-476,232,-15.5712,0.93573,0.00524051,0.00347616,-0.00392205,0.00837837,0.000338297,-0.674776,0.0054763,0.0369812,748,792,-15.5711,-0.935735
-469,232,-15.5977,0.918457,0.00612766,0.00638692,-0.00521597,0.0114749,0.00103971,-0.797822,0.00732797,0.0347978,755,792,-15.5976,-0.918444
-462,232,0,0,0,0,0,0,0,0,0,-1,762,792,0,0
-455,232,0,0,0,0,0,0,0,0,0,-1,769,792,0,0
-448,232,0,0,0,0,0,0,0,0,0,-1,776,792,0,0
-441,232,0,0,0,0,0,0,0,0,0,-1,783,792,0,0
-434,232,0,0,0,0,0,0,0,0,0,-1,790,792,0,0
-427,232,0,0,0,0,0,0,0,0,0,-1,797,792,0,0
-420,232,0,0,0,0,0,0,0,0,0,-1,804,792,0,0
-413,232,0,0,0,0,0,0,0,0,0,-1,811,792,0,0
-406,232,0,0,0,0,0,0,0,0,0,-1,818,792,0,0
-399,232,0,0,0,0,0,0,0,0,0,-1,825,792,0,0
-392,232,0,0,0,0,0,0,0,0,0,-1,832,792,0,0
-385,232,0,0,0,0,0,0,0,0,0,-1,839,792,0,0
-378,232,0,0,0,0,0,0,0,0,0,-1,846,792,0,0
-371,232,0,0,0,0,0,0,0,0,0,-1,853,792,0,0
-364,232,0,0,0,0,0,0,0,0,0,-1,860,792,0,0
-357,232,0,0,0,0,0,0,0,0,0,-1,867,792,0,0
-350,232,0,0,0,0,0,0,0,0,0,-1,874,792,0,0
-343,232,0,0,0,0,0,0,0,0,0,-1,881,792,0,0
-336,232,0,0,0,0,0,0,0,0,0,-1,888,792,0,0
-329,232,0,0,0,0,0,0,0,0,0,-1,895,792,0,0
-322,232,0,0,0,0,0,0,0,0,0,-1,902,792,0,0
-315,232,0,0,0,0,0,0,0,0,0,-1,909,792,0,0
-308,232,0,0,0,0,0,0,0,0,0,-1,916,792,0,0
-301,232,0,0,0,0,0,0,0,0,0,-1,923,792,0,0
-294,232,0,0,0,0,0,0,0,0,0,-1,930,792,0,0
-287,232,0,0,0,0,0,0,0,0,0,-1,937,792,0,0
-280,232,0,0,0,0,0,0,0,0,0,-1,944,792,0,0
-273,232,0,0,0,0,0,0,0,0,0,-1,951,792,0,0
-266,232,0,0,0,0,0,0,0,0,0,-1,958,792,0,0
-259,232,0,0,0,0,0,0,0,0,0,-1,965,792,0,0
-252,232,0,0,0,0,0,0,0,0,0,-1,972,792,0,0
-245,232,0,0,0,0,0,0,0,0,0,-1,979,792,0,0
-238,232,0,0,0,0,0,0,0,0,0,-1,986,792,0,0
-231,232,0,0,0,0,0,0,0,0,0,-1,993,792,0,0
-224,232,0,0,0,0,0,0,0,0,0,-1,1000,792,0,0
-217,232,0,0,0,0,0,0,0,0,0,-1,1007,792,0,0
-210,232,0,0,0,0,0,0,0,0,0,-1,1014,792,0,0
-203,232,0,0,0,0,0,0,0,0,0,-1,1021,792,0,0
-196,232,0,0,0,0,0,0,0,0,0,-1,1028,792,0,0
-189,232,0,0,0,0,0,0,0,0,0,-1,1035,792,0,0
-182,232,0,0,0,0,0,0,0,0,0,-1,1042,792,0,0
-175,232,0,0,0,0,0,0,0,0,0,-1,1049,792,0,0
-168,232,0,0,0,0,0,0,0,0,0,-1,1056,792,0,0
-161,232,0,0,0,0,0,0,0,0,0,-1,1063,792,0,0
-154,232,0,0,0,0,0,0,0,0,0,-1,1070,792,0,0
-147,232,0,0,0,0,0,0,0,0,0,-1,1077,792,0,0
-140,232,0,0,0,0,0,0,0,0,0,-1,1084,792,0,0
-133,232,0,0,0,0,0,0,0,0,0,-1,1091,792,0,0
-126,232,0,0,0,0,0,0,0,0,0,-1,1098,792,0,0
-119,232,0,0,0,0,0,0,0,0,0,-1,1105,792,0,0
-112,232,0,0,0,0,0,0,0,0,0,-1,1112,792,0,0
-105,232,0,0,0,0,0,0,0,0,0,-1,1119,792,0,0
-98,232,0,0,0,0,0,0,0,0,0,-1,1126,792,0,0
-91,232,0,0,0,0,0,0,0,0,0,-1,1133,792,0,0
-84,232,0,0,0,0,0,0,0,0,0,-1,1140,792,0,0
-77,232,0,0,0,0,0,0,0,0,0,-1,1147,792,0,0
-70,232,0,0,0,0,0,0,0,0,0,-1,1154,792,0,0
-63,232,0,0,0,0,0,0,0,0,0,-1,1161,792,0,0
-56,232,0,0,0,0,0,0,0,0,0,-1,1168,792,0,0
-49,232,0,0,0,0,0,0,0,0,0,-1,1175,792,0,0
-42,232,0,0,0,0,0,0,0,0,0,-1,1182,792,0,0
-35,232,0,0,0,0,0,0,0,0,0,-1,1189,792,0,0
-28,232,0,0,0,0,0,0,0,0,0,-1,1196,792,0,0
-21,232,0,0,0,0,0,0,0,0,0,-1,1203,792,0,0
-14,232,0,0,0,0,0,0,0,0,0,-1,1210,792,0,0
-7,232,0,0,0,0,0,0,0,0,0,-1,1217,792,0,0
0,232,0,0,0,0,0,0,0,0,0,-1,1224,792,0,0
7,232,0,0,0,0,0,0,0,0,0,-1,1231,792,0,0
14,232,0,0,0,0,0,0,0,0,0,-1,1238,792,0,0
21,232,0,0,0,0,0,0,0,0,0,-1,1245,792,0,0
28,232,0,0,0,0,0,0,0,0,0,-1,1252,792,0,0
35,232,0,0,0,0,0,0,0,0,0,-1,1259,792,0,0
42,232,0,0,0,0,0,0,0,0,0,-1,1266,792,0,0
49,232,0,0,0,0,0,0,0,0,0,-1,1273,792,0,0
56,232,0,0,0,0,0,0,0,0,0,-1,1280,792,0,0
63,232,0,0,0,0,0,0,0,0,0,-1,1287,792,0,0
70,232,0,0,0,0,0,0,0,0,0,-1,1294,792,0,0
77,232,0,0,0,0,0,0,0,0,0,-1,1301,792,0,0
84,232,0,0,0,0,0,0,0,0,0,-1,1308,792,0,0
91,232,0,0,0,0,0,0,0,0,0,-1,1315,792,0,0
98,232,0,0,0,0,0,0,0,0,0,-1,1322,792,0,0
105,232,0,0,0,0,0,0,0,0,0,-1,1329,792,0,0
112,232,0,0,0,0,0,0,0,0,0,-1,1336,792,0,0
119,232,0,0,0,0,0,0,0,0,0,-1,1343,792,0,0
126,232,0,0,0,0,0,0,0,0,0,-1,1350,792,0,0
133,232,0,0,0,0,0,0,0,0,0,-1,1357,792,0,0
140,232,0,0,0,0,0,0,0,0,0,-1,1364,792,0,0
147,232,0,0,0,0,0,0,0,0,0,-1,1371,792,0,0
154,232,0,0,0,0,0,0,0,0,0,-1,1378,792,0,0
161,232,0,0,0,0,0,0,0,0,0,-1,1385,792,0,0
168,232,0,0,0,0,0,0,0,0,0,-1,1392,792,0,0
175,232,0,0,0,0,0,0,0,0,0,-1,1399,792,0,0
182,232,0,0,0,0,0,0,0,0,0,-1,1406,792,0,0
189,232,0,0,0,0,0,0,0,0,0,-1,1413,792,0,0
196,232,0,0,0,0,0,0,0,0,0,-1,1420,792,0,0
203,232,0,0,0,0,0,0,0,0,0,-1,1427,792,0,0
210,232,0,0,0,0,0,0,0,0,0,-1,1434,792,0,0
217,232,0,0,0,0,0,0,0,0,0,-1,1441,792,0,0
224,232,0,0,0,0,0,0,0,0,0,-1,1448,792,0,0
231,232,0,0,0,0,0,0,0,0,0,-1,1455,792,0,0
238,232,0,0,0,0,0,0,0,0,0,-1,1462,792,0,0
245,232,0,0,0,0,0,0,0,0,0,-1,1469,792,0,0
252,232,0,0,0,0,0,0,0,0,0,-1,1476,792,0,0
259,232,0,0,0,0,0,0,0,0,0,-1,1483,792,0,0
266,232,0,0,0,0,0,0,0,0,0,-1,1490,792,0,0
273,232,0,0,0,0,0,0,0,0,0,-1,1497,792,0,0
280,232,0,0,0,0,0,0,0,0,0,-1,1504,792,0,0
287,232,0,0,0,0,0,0,0,0,0,-1,1511,792,0,0
294,232,0,0,0,0,0,0,0,0,0,-1,1518,792,0,0
301,232,0,0,0,0,0,0,0,0,0,-1,1525,792,0,0
308,232,0,0,0,0,0,0,0,0,0,-1,1532,792,0,0
315,232,0,0,0,0,0,0,0,0,0,-1,1539,792,0,0
322,232,0,0,0,0,0,0,0,0,0,-1,1546,792,0,0
329,232,0,0,0,0,0,0,0,0,0,-1,1553,792,0,0
336,232,0,0,0,0,0,0,0,0,0,-1,1560,792,0,0
343,232,0,0,0,0,0,0,0,0,0,-1,1567,792,0,0
350,232,0,0,0,0,0,0,0,0,0,-1,1574,792,0,0
357,232,0,0,0,0,0,0,0,0,0,-1,1581,792,0,0
364,232,0,0,0,0,0,0,0,0,0,-1,1588,792,0,0
371,232,0,0,0,0,0,0,0,0,0,-1,1595,792,0,0
378,232,0,0,0,0,0,0,0,0,0,-1,1602,792,0,0
385,232,0,0,0,0,0,0,0,0,0,-1,1609,792,0,0
392,232,0,0,0,0,0,0,0,0,0,-1,1616,792,0,0
399,232,0,0,0,0,0,0,0,0,0,-1,1623,792,0,0
406,232,0,0,0,0,0,0,0,0,0,-1,1630,792,0,0
413,232,0,0,0,0,0,0,0,0,0,-1,1637,792,0,0
420,232,0,0,0,0,0,0,0,0,0,-1,1644,792,0,0
427,232,0,0,0,0,0,0,0,0,0,-1,1651,792,0,0
434,232,0,0,0,0,0,0,0,0,0,-1,1658,792,0,0
441,232,0,0,0,0,0,0,0,0,0,-1,1665,792,0,0
448,232,0,0,0,0,0,0,0,0,0,-1,1672,792,0,0
455,232,0,0,0,0,0,0,0,0,0,-1,1679,792,0,0
462,232,0,0,0,0,0,0,0,0,0,-1,1686,792,0,0
469,232,0,0,0,0,0,0,0,0,0,-1,1693,792,0,0
476,232,0,0,0,0,0,0,0,0,0,-1,1700,792,0,0
483,232,0,0,0,0,0,0,0,0,0,-1,1707,792,0,0
490,232,0,0,0,0,0,0,0,0,0,-1,1714,792,0,0
497,232,0,0,0,0,0,0,0,0,0,-1,1721,792,0,0
504,232,0,0,0,0,0,0,0,0,0,-1,1728,792,0,0
511,232,0,0,0,0,0,0,0,0,0,-1,1735,792,0,0
518,232,0,0,0,0,0,0,0,0,0,-1,1742,792,0,0
525,232,0,0,0,0,0,0,0,0,0,-1,1749,792,0,0
532,232,0,0,0,0,0,0,0,0,0,-1,1756,792,0,0
539,232,0,0,0,0,0,0,0,0,0,-1,1763,792,0,0
546,232,0,0,0,0,0,0,0,0,0,-1,1770,792,0,0
553,232,0,0,0,0,0,0,0,0,0,-1,1777,792,0,0
560,232,0,0,0,0,0,0,0,0,0,-1,1784,792,0,0
567,232,0,0,0,0,0,0,0,0,0,-1,1791,792,0,0
574,232,0,0,0,0,0,0,0,0,0,-1,1798,792,0,0
581,232,0,0,0,0,0,0,0,0,0,-1,1805,792,0,0
588,232,22.8413,2.98096,0.006037,-0.00571628,-0.00685174,0.00918705,-0.00886634,-0.430928,0.0104237,0.0376494,1812,792,22.8413,-2.98098
595,232,22.7463,2.71271,0.00523246,-0.00363275,-0.00172305,0.00555558,-0.00395587,-0.185373,0.00551726,0.0350667,1819,792,22.7463,-2.71268
602,232,22.833,2.71466,0.00361864,-0.00130492,0.00150612,0.00404282,-0.0017291,0.274525,0.0034205,0.0342958,1826,792,22.8331,-2.71463
609,232,23.0278,2.72687,0.000832496,-3.33773e-05,0.00219563,0.00263747,-0.00183835,0.688056,0.00259781,0.0403629,1833,792,23.0278,-2.72686
616,232,22.9617,2.88965,-0.00187635,0.00062745,0.00184347,0.00160392,-0.00285282,1.08368,0.00260656,0.0477277,1840,792,22.9617,-2.88966
623,232,22.9004,2.96466,-0.00398756,0.000867219,0.0010418,0.00108134,-0.00420168,1.36809,0.00322262,0.0453401,1847,792,22.9004,-2.96464
630,232,22.6913,3.03558,-0.00556461,0.000773335,0.000166653,0.000777713,-0.00556899,1.54453,0.0039972,0.0478474,1854,792,22.6913,-3.03559
637,232,22.6661,3.01221,0,0,0,0,0,0,0,-1,1861,792,22.6662,-3.01223
644,232,18.5032,1.63782,0,0,0,0,0,0,0,-1,1868,792,18.5032,-1.6378
651,232,17.7822,1.56317,-0.00806195,-0.00013641,-0.00250744,0.000590257,-0.00878861,-1.28872,0.00606541,0.0413556,1875,792,17.7822,-1.56317
658,232,16.9219,1.38043,-0.00795196,-0.000539716,-0.00345597,0.000821611,-0.00931329,-1.19555,0.00650006,0.0245581,1882,792,16.9219,-1.38044
665,232,16.8865,1.59271,-0.00744604,-0.000727552,-0.00414342,0.00124728,-0.00942088,-1.12603,0.00673495,0.0116333,1889,792,16.8865,-1.59271
672,232,16.8689,1.85413,-0.00617134,-0.00141054,-0.00383166,0.000719924,-0.00830181,-1.06335,0.00578945,0.0174154,1896,792,16.8689,-1.85415
679,232,16.8853,2.11328,-0.00422029,-0.00161393,-0.00310912,0.000454078,-0.0062883,-0.98385,0.00435147,0.0194474,1903,792,16.8852,-2.11327
686,232,16.8969,2.38708,-0.00185849,-0.000973309,-0.00174558,0.000384915,-0.00321672,-0.909557,0.00228362,0.0192772,1910,792,16.8969,-2.38711
693,232,16.887,2.61145,0.000279813,0.000228642,2.99342e-05,0.000293606,0.000214849,0.43178,0.000175479,0.0104117,1917,792,16.8869,-2.61147
700,232,16.8887,2.83252,0.0027129,0.00117371,0.00221119,0.00428459,-0.000397979,0.617932,0.00299787,0.0117134,1924,792,16.8886,-2.83252
707,232,16.8831,3.07343,0.00572499,0.00208615,0.0051357,0.00935403,-0.00154289,0.615162,0.00680884,0.0123558,1931,792,16.8831,-3.07345
714,232,16.8708,3.32361,0.00883655,0.0023401,0.0085286,0.0147146,-0.0035379,0.603448,0.0111772,0.0133685,1938,792,16.8708,-3.32362
721,232,16.8573,3.50043,0.0120697,0.00212615,0.0119208,0.020014,-0.00581809,0.587831,0.0156468,0.0185912,1945,792,16.8573,-3.50044
728,232,16.9004,3.6778,0.0160881,0.00112859,0.0160899,0.0263518,-0.00913513,0.567821,0.021277,0.0334387,1952,792,16.9004,-3.67778
735,232,17.3855,3.7851,0.0207186,-0.00074195,0.0214587,0.0339804,-0.0140037,0.553557,0.0284926,0.0484547,1959,792,17.3855,-3.7851
742,232,17.5989,3.81104,0,0,0,0,0,0,0,-1,1966,792,17.5989,-3.81105
749,232,17.072,8.28888,0,0,0,0,0,0,0,-1,1973,792,17.072,-8.28888
756,232,19.6747,3.70209,0,0,0,0,0,0,0,-1,1980,792,19.6747,-3.70206
763,232,19.9003,4.22015,0,0,0,0,0,0,0,-1,1987,792,19.9003,-4.22018
770,232,0,0,0,0,0,0,0,0,0,-1,1994,792,0,0
777,232,0,0,0,0,0,0,0,0,0,-1,2001,792,0,0
784,232,0,0,0,0,0,0,0,0,0,-1,2008,792,0,0
791,232,0,0,0,0,0,0,0,0,0,-1,2015,792,0,0
798,232,0,0,0,0,0,0,0,0,0,-1,2022,792,0,0
805,232,0,0,0,0,0,0,0,0,0,-1,2029,792,0,0
812,232,0,0,0,0,0,0,0,0,0,-1,2036,792,0,0
-700,225,0,0,0,0,0,0,0,0,0,-1,524,799,0,0
-693,225,0,0,0,0,0,0,0,0,0,-1,531,799,0,0
-686,225,0,0,0,0,0,0,0,0,0,-1,538,799,0,0
-679,225,0,0,0,0,0,0,0,0,0,-1,545,799,0,0
-672,225,0,0,0,0,0,0,0,0,0,-1,552,799,0,0
-665,225,0,0,0,0,0,0,0,0,0,-1,559,799,0,0
-658,225,0,0,0,0,0,0,0,0,0,-1,566,799,0,0
-651,225,0,0,0,0,0,0,0,0,0,-1,573,799,0,0
-644,225,-12.3164,-0.846069,0.0725062,-0.0133515,0.0603803,0.103663,-0.0445081,0.476371,0.0877896,0.0465146,580,799,-12.3164,0.846082
-637,225,-12.0039,-0.307373,0.0641602,-0.00537082,0.0510631,0.0911691,-0.0323797,0.486525,0.0739738,0.0450306,587,799,-12.0039,0.307353
-630,225,-11.9162,0.0236816,0,0,0,0,0,0,0,-1,594,799,-11.9162,-0.0236534
-623,225,-11.6266,0.559692,0.0475173,0.00362772,0.0340838,0.0661098,-0.0149648,0.499379,0.0498165,0.0499045,601,799,-11.6266,-0.559673
-616,225,-11.5566,0.890747,0.0397359,0.00551152,0.026933,0.0545332,-0.00928578,0.502391,0.0398133,0.0487526,608,799,-11.5566,-0.890729
-609,225,-11.3737,0.946594,0.03255,0.00621711,0.0207479,0.0439565,-0.00518946,0.502665,0.0311785,0.048717,615,799,-11.3737,-0.946621
-602,225,-11.022,1.18329,0.0260073,0.0060533,0.0155751,0.034527,-0.00246632,0.500538,0.0238826,0.0482402,622,799,-11.0221,-1.18329
-595,225,-10.6812,1.44409,0.0201997,0.00539332,0.0112994,0.0263051,-0.000712139,0.495393,0.0177789,0.0296214,629,799,-10.6811,-1.44412
-588,225,-10.6513,1.2027,0.015054,0.00505798,0.00741025,0.0189942,0.00111776,0.488705,0.0123071,0.0119533,636,799,-10.6513,-1.20272
-581,225,-10.6341,0.979797,0.0101974,0.00411418,0.00457766,0.0126518,0.00165977,0.492165,0.00793935,0.0097284,643,799,-10.6341,-0.979805
-574,225,-10.6213,0.760193,0.00640102,0.00287745,0.00273793,0.00789502,0.00138345,0.499511,0.00486817,0.00768466,650,799,-10.6213,-0.760215
-567,225,-10.6437,0.538269,0.00354254,0.00124887,0.00153746,0.00431378,0.000477634,0.464953,0.0027306,0.00979971,657,799,-10.6438,-0.538257
-560,225,-10.6588,0.309814,0.00125732,-0.00019062,0.00117355,0.00191225,-0.000845544,0.509018,0.00163143,0.0104843,664,799,-10.6588,-0.309842
-553,225,-10.6616,0.0548706,-0.000232888,-0.0011746,0.00163572,0.000998395,-0.00240588,0.645257,0.00202068,0.0108583,671,799,-10.6616,-0.0548899
-546,225,-10.6947,-0.158813,-0.0014096,-0.00182773,0.0020865,0.000478286,-0.00371562,0.735465,0.00265093,0.0204736,678,799,-10.6947,0.15879
-539,225,-10.682,-0.37915,-0.00219694,-0.00204998,0.00256363,0.000441218,-0.00468814,0.799726,0.0032824,0.0253546,685,799,-10.682,0.379137
-532,225,-10.6816,-0.595276,-0.00221107,-0.00224157,0.00259319,0.000366909,-0.00481956,0.782458,0.00334206,0.0182771,692,799,-10.6816,0.595253
-525,225,-10.845,-0.609131,-0.00190026,-0.00228037,0.00253783,0.000454616,-0.00463525,0.748023,0.00325232,0.0401761,699,799,-10.845,0.609126
-518,225,-11.1599,-0.168213,0,0,0,0,0,0,0,-1,706,799,-11.1599,0.168218
-511,225,-11.285,0.384033,0,0,0,0,0,0,0,-1,713,799,-11.285,-0.384022
-504,225,-11.3168,0.88324,0,0,0,0,0,0,0,-1,720,799,-11.3168,-0.883226
-497,225,-15.4845,0.982361,0.000257991,-0.000732601,0.00100433,0.000882518,-0.00135713,0.556318,0.0013027,0.0427755,727,799,-15.4845,-0.982348
-490,225,-15.5317,0.998474,0.00150385,0.000411582,-9.94018e-05,0.00151282,0.00040261,-0.0900195,0.000904717,0.0378664,734,799,-15.5317,-0.99849
-483,225,-15.5679,0.938232,0.00301666,0.00212853,-0.00159428,0.00422756,0.000917622,-0.649574,0.00256775,0.0337866,741,799,-15.5679,-0.938231
-476,225,-15.5075,0.859802,0.00445759,0.00449657,-0.00322403,0.00770116,0.001253,-0.78842,0.0047716,0.0322194,748,799,-15.5075,-0.859819
-469,225,-15.6537,0.828613,0.00508062,0.00712591,-0.00429214,0.0105155,0.00169098,-0.902348,0.00652021,0.0368116,755,799,-15.6538,-0.8286
-462,225,0,0,0,0,0,0,0,0,0,-1,762,799,0,0
-455,225,0,0,0,0,0,0,0,0,0,-1,769,799,0,0
-448,225,0,0,0,0,0,0,0,0,0,-1,776,799,0,0
-441,225,0,0,0,0,0,0,0,0,0,-1,783,799,0,0
-434,225,0,0,0,0,0,0,0,0,0,-1,790,799,0,0
-427,225,0,0,0,0,0,0,0,0,0,-1,797,799,0,0
-420,225,0,0,0,0,0,0,0,0,0,-1,804,799,0,0
-413,225,0,0,0,0,0,0,0,0,0,-1,811,799,0,0
-406,225,0,0,0,0,0,0,0,0,0,-1,818,799,0,0
-399,225,0,0,0,0,0,0,0,0,0,-1,825,799,0,0
-392,225,0,0,0,0,0,0,0,0,0,-1,832,799,0,0
-385,225,0,0,0,0,0,0,0,0,0,-1,839,799,0,0
-378,225,0,0,0,0,0,0,0,0,0,-1,846,799,0,0
-371,225,0,0,0,0,0,0,0,0,0,-1,853,799,0,0
-364,225,0,0,0,0,0,0,0,0,0,-1,860,799,0,0
-357,225,0,0,0,0,0,0,0,0,0,-1,867,799,0,0
-350,225,0,0,0,0,0,0,0,0,0,-1,874,799,0,0
-343,225,0,0,0,0,0,0,0,0,0,-1,881,799,0,0
-336,225,0,0,0,0,0,0,0,0,0,-1,888,799,0,0
-329,225,0,0,0,0,0,0,0,0,0,-1,895,799,0,0
-322,225,0,0,0,0,0,0,0,0,0,-1,902,799,0,0
-315,225,0,0,0,0,0,0,0,0,0,-1,909,799,0,0
-308,225,0,0,0,0,0,0,0,0,0,-1,916,799,0,0
-301,225,0,0,0,0,0,0,0,0,0,-1,923,799,0,0
-294,225,0,0,0,0,0,0,0,0,0,-1,930,799,0,0
-287,225,0,0,0,0,0,0,0,0,0,-1,937,799,0,0
-280,225,0,0,0,0,0,0,0,0,0,-1,944,799,0,0
-273,225,0,0,0,0,0,0,0,0,0,-1,951,799,0,0
-266,225,0,0,0,0,0,0,0,0,0,-1,958,799,0,0
-259,225,0,0,0,0,0,0,0,0,0,-1,965,799,0,0
-252,225,0,0,0,0,0,0,0,0,0,-1,972,799,0,0
-245,225,0,0,0,0,0,0,0,0,0,-1,979,799,0,0
-238,225,0,0,0,0,0,0,0,0,0,-1,986,799,0,0
-231,225,0,0,0,0,0,0,0,0,0,-1,993,799,0,0
-224,225,0,0,0,0,0,0,0,0,0,-1,1000,799,0,0
-217,225,0,0,0,0,0,0,0,0,0,-1,1007,799,0,0
-210,225,0,0,0,0,0,0,0,0,0,-1,1014,799,0,0
-203,225,0,0,0,0,0,0,0,0,0,-1,1021,799,0,0
-196,225,0,0,0,0,0,0,0,0,0,-1,1028,799,0,0
-189,225,0,0,0,0,0,0,0,0,0,-1,1035,799,0,0
-182,225,0,0,0,0,0,0,0,0,0,-1,1042,799,0,0
-175,225,0,0,0,0,0,0,0,0,0,-1,1049,799,0,0
-168,225,0,0,0,0,0,0,0,0,0,-1,1056,799,0,0
-161,225,0,0,0,0,0,0,0,0,0,-1,1063,799,0,0
-154,225,0,0,0,0,0,0,0,0,0,-1,1070,799,0,0
-147,225,0,0,0,0,0,0,0,0,0,-1,1077,799,0,0
-140,225,0,0,0,0,0,0,0,0,0,-1,1084,799,0,0
-133,225,0,0,0,0,0,0,0,0,0,-1,1091,799,0,0
-126,225,0,0,0,0,0,0,0,0,0,-1,1098,799,0,0
-119,225,0,0,0,0,0,0,0,0,0,-1,1105,799,0,0
-112,225,0,0,0,0,0,0,0,0,0,-1,1112,799,0,0
-105,225,0,0,0,0,0,0,0,0,0,-1,1119,799,0,0
-98,225,0,0,0,0,0,0,0,0,0,-1,1126,799,0,0
-91,225,0,0,0,0,0,0,0,0,0,-1,1133,799,0,0
-84,225,0,0,0,0,0,0,0,0,0,-1,1140,799,0,0
-77,225,0,0,0,0,0,0,0,0,0,-1,1147,799,0,0
-70,225,0,0,0,0,0,0,0,0,0,-1,1154,799,0,0
-63,225,0,0,0,0,0,0,0,0,0,-1,1161,799,0,0
-56,225,0,0,0,0,0,0,0,0,0,-1,1168,799,0,0
-49,225,0,0,0,0,0,0,0,0,0,-1,1175,799,0,0
-42,225,0,0,0,0,0,0,0,0,0,-1,1182,799,0,0
-35,225,0,0,0,0,0,0,0,0,0,-1,1189,799,0,0
-28,225,0,0,0,0,0,0,0,0,0,-1,1196,799,0,0
-21,225,0,0,0,0,0,0,0,0,0,-1,1203,799,0,0
-14,225,0,0,0,0,0,0,0,0,0,-1,1210,799,0,0
-7,225,0,0,0,0,0,0,0,0,0,-1,1217,799,0,0
0,225,0,0,0,0,0,0,0,0,0,-1,1224,799,0,0
7,225,0,0,0,0,0,0,0,0,0,-1,1231,799,0,0
14,225,0,0,0,0,0,0,0,0,0,-1,1238,799,0,0
21,225,0,0,0,0,0,0,0,0,0,-1,1245,799,0,0
28,225,0,0,0,0,0,0,0,0,0,-1,1252,799,0,0
35,225,0,0,0,0,0,0,0,0,0,-1,1259,799,0,0
42,225,0,0,0,0,0,0,0,0,0,-1,1266,799,0,0
49,225,0,0,0,0,0,0,0,0,0,-1,1273,799,0,0
56,225,0,0,0,0,0,0,0,0,0,-1,1280,799,0,0
63,225,0,0,0,0,0,0,0,0,0,-1,1287,799,0,0
70,225,0,0,0,0,0,0,0,0,0,-1,1294,799,0,0
77,225,0,0,0,0,0,0,0,0,0,-1,1301,799,0,0
84,225,0,0,0,0,0,0,0,0,0,-1,1308,799,0,0
91,225,0,0,0,0,0,0,0,0,0,-1,1315,799,0,0
98,225,0,0,0,0,0,0,0,0,0,-1,1322,799,0,0
105,225,0,0,0,0,0,0,0,0,0,-1,1329,799,0,0
112,225,0,0,0,0,0,0,0,0,0,-1,1336,799,0,0
119,225,0,0,0,0,0,0,0,0,0,-1,1343,799,0,0
126,225,0,0,0,0,0,0,0,0,0,-1,1350,799,0,0
133,225,0,0,0,0,0,0,0,0,0,-1,1357,799,0,0
140,225,0,0,0,0,0,0,0,0,0,-1,1364,799,0,0
147,225,0,0,0,0,0,0,0,0,0,-1,1371,799,0,0
154,225,0,0,0,0,0,0,0,0,0,-1,1378,799,0,0
161,225,0,0,0,0,0,0,0,0,0,-1,1385,799,0,0
168,225,0,0,0,0,0,0,0,0,0,-1,1392,799,0,0
175,225,0,0,0,0,0,0,0,0,0,-1,1399,799,0,0
182,225,0,0,0,0,0,0,0,0,0,-1,1406,799,0,0
189,225,0,0,0,0,0,0,0,0,0,-1,1413,799,0,0
196,225,0,0,0,0,0,0,0,0,0,-1,1420,799,0,0
203,225,0,0,0,0,0,0,0,0,0,-1,1427,799,0,0
210,225,0,0,0,0,0,0,0,0,0,-1,1434,799,0,0
217,225,0,0,0,0,0,0,0,0,0,-1,1441,799,0,0
224,225,0,0,0,0,0,0,0,0,0,-1,1448,799,0,0
231,225,0,0,0,0,0,0,0,0,0,-1,1455,799,0,0
238,225,0,0,0,0,0,0,0,0,0,-1,1462,799,0,0
245,225,0,0,0,0,0,0,0,0,0,-1,1469,799,0,0
252,225,0,0,0,0,0,0,0,0,0,-1,1476,799,0,0
259,225,0,0,0,0,0,0,0,0,0,-1,1483,799,0,0
266,225,0,0,0,0,0,0,0,0,0,-1,1490,799,0,0
273,225,0,0,0,0,0,0,0,0,0,-1,1497,799,0,0
280,225,0,0,0,0,0,0,0,0,0,-1,1504,799,0,0
287,225,0,0,0,0,0,0,0,0,0,-1,1511,799,0,0
294,225,0,0,0,0,0,0,0,0,0,-1,1518,799,0,0
301,225,0,0,0,0,0,0,0,0,0,-1,1525,799,0,0
308,225,0,0,0,0,0,0,0,0,0,-1,1532,799,0,0
315,225,0,0,0,0,0,0,0,0,0,-1,1539,799,0,0
322,225,0,0,0,0,0,0,0,0,0,-1,1546,799,0,0
329,225,0,0,0,0,0,0,0,0,0,-1,1553,799,0,0
336,225,0,0,0,0,0,0,0,0,0,-1,1560,799,0,0
343,225,0,0,0,0,0,0,0,0,0,-1,1567,799,0,0
350,225,0,0,0,0,0,0,0,0,0,-1,1574,799,0,0
357,225,0,0,0,0,0,0,0,0,0,-1,1581,799,0,0
364,225,0,0,0,0,0,0,0,0,0,-1,1588,799,0,0
371,225,0,0,0,0,0,0,0,0,0,-1,1595,799,0,0
378,225,0,0,0,0,0,0,0,0,0,-1,1602,799,0,0
385,225,0,0,0,0,0,0,0,0,0,-1,1609,799,0,0
392,225,0,0,0,0,0,0,0,0,0,-1,1616,799,0,0
399,225,0,0,0,0,0,0,0,0,0,-1,1623,799,0,0
406,225,0,0,0,0,0,0,0,0,0,-1,1630,799,0,0
413,225,0,0,0,0,0,0,0,0,0,-1,1637,799,0,0
420,225,0,0,0,0,0,0,0,0,0,-1,1644,799,0,0
427,225,0,0,0,0,0,0,0,0,0,-1,1651,799,0,0
434,225,0,0,0,0,0,0,0,0,0,-1,1658,799,0,0
441,225,0,0,0,0,0,0,0,0,0,-1,1665,799,0,0
448,225,0,0,0,0,0,0,0,0,0,-1,1672,799,0,0
455,225,0,0,0,0,0,0,0,0,0,-1,1679,799,0,0
462,225,0,0,0,0,0,0,0,0,0,-1,1686,799,0,0
469,225,0,0,0,0,0,0,0,0,0,-1,1693,799,0,0
476,225,0,0,0,0,0,0,0,0,0,-1,1700,799,0,0
483,225,0,0,0,0,0,0,0,0,0,-1,1707,799,0,0
490,225,0,0,0,0,0,0,0,0,0,-1,1714,799,0,0
497,225,0,0,0,0,0,0,0,0,0,-1,1721,799,0,0
504,225,0,0,0,0,0,0,0,0,0,-1,1728,799,0,0
511,225,0,0,0,0,0,0,0,0,0,-1,1735,799,0,0
518,225,0,0,0,0,0,0,0,0,0,-1,1742,799,0,0
525,225,0,0,0,0,0,0,0,0,0,-1,1749,799,0,0
532,225,0,0,0,0,0,0,0,0,0,-1,1756,799,0,0
539,225,0,0,0,0,0,0,0,0,0,-1,1763,799,0,0
546,225,0,0,0,0,0,0,0,0,0,-1,1770,799,0,0
553,225,0,0,0,0,0,0,0,0,0,-1,1777,799,0,0
560,225,0,0,0,0,0,0,0,0,0,-1,1784,799,0,0
567,225,0,0,0,0,0,0,0,0,0,-1,1791,799,0,0
574,225,0,0,0,0,0,0,0,0,0,-1,1798,799,0,0
581,225,0,0,0,0,0,0,0,0,0,-1,1805,799,0,0
588,225,22.8618,2.77551,0.00571183,-0.00726733,-0.00770554,0.00929647,-0.010852,-0.435425,0.0116443,0.0374912,1812,799,22.8619,-2.77549
595,225,22.9043,2.70056,0.00428393,-0.00469561,-0.00270467,0.00503566,-0.00544734,-0.271094,0.00605392,0.0340949,1819,799,22.9043,-2.70056
602,225,22.9191,2.66895,0.00305075,-0.0014801,0.00111394,0.00330981,-0.00173916,0.228499,0.00296167,0.0328351,1826,799,22.9191,-2.66898
609,225,22.9047,2.67596,0.000430752,-7.93782e-05,0.00191519,0.00210779,-0.00175642,0.719198,0.00223407,0.0323481,1833,799,22.9046,-2.67595
616,225,22.9879,2.71472,-0.00230133,0.00058208,0.00143049,0.00117134,-0.00289059,1.18005,0.00241416,0.0383267,1840,799,22.9879,-2.71471
623,225,22.9363,2.82263,-0.00443542,0.000711415,0.000458612,0.000751961,-0.00447597,1.48262,0.00326364,0.0407117,1847,799,22.9363,-2.82265
630,225,22.9801,2.81873,-0.00594396,0.000425329,-0.000577613,0.000477287,-0.00599592,-1.48108,0.0041655,0.043284,1854,799,22.9801,-2.81871
637,225,23.213,2.60254,-0.00697097,0.000131369,-0.00156999,0.000462941,-0.00730254,-1.36266,0.00502978,0.0429354,1861,799,23.213,-2.60256
644,225,18.6151,1.87787,0,0,0,0,0,0,0,-1,1868,799,18.6151,-1.87785
651,225,18.1277,1.82947,-0.00778144,-0.000800191,-0.00309435,0.000373886,-0.00895552,-1.20815,0.0060988,0.0403678,1875,799,18.1276,-1.82949
658,225,17.4646,1.64056,-0.00762469,-0.00114264,-0.00381261,0.000620353,-0.00938769,-1.13767,0.00647516,0.0372489,1882,799,17.4646,-1.64054
665,225,17.1443,1.57849,-0.00715045,-0.00129374,-0.00426169,0.000948714,-0.0093929,-1.08642,0.00660094,0.0138706,1889,799,17.1443,-1.57851
672,225,17.1199,1.85046,-0.00603618,-0.00179307,-0.00396676,0.000583839,-0.00841309,-1.03096,0.00581312,0.0158811,1896,799,17.1199,-1.85045
679,225,17.1392,2.13538,-0.00433079,-0.00195727,-0.00337568,0.000434186,-0.00672224,-0.954431,0.00463301,0.0170217,1903,799,17.1391,-2.13541
686,225,17.1503,2.37897,-0.00226036,-0.0013838,-0.00223168,0.00045223,-0.00409639,-0.882358,0.00289348,0.0111991,1910,799,17.1503,-2.37899
693,225,17.1151,2.61261,-0.000390152,-0.000262401,-0.000737983,0.000414466,-0.00106702,-0.828568,0.000882561,0.0100588,1917,799,17.1151,-2.61259
700,225,17.1149,2.83795,0.00177286,0.000549502,0.00115512,0.00246826,-0.000145901,0.541901,0.00169623,0.0112131,1924,799,17.1149,-2.83797
707,225,17.1079,3.07813,0.00455444,0.00140498,0.00377239,0.00706758,-0.00110816,0.587675,0.00512123,0.0117022,1931,799,17.1079,-3.07811
714,225,17.1055,3.32947,0.00737093,0.00147747,0.00670801,0.0117509,-0.00290251,0.578445,0.00895955,0.012854,1938,799,17.1055,-3.32947
721,225,17.1324,3.54706,0.0102156,0.00101056,0.00933494,0.0160209,-0.00479483,0.556366,0.0125871,0.0138735,1945,799,17.1324,-3.54708
728,225,17.134,3.74127,0.0137198,-0.000308229,0.0124173,0.0209671,-0.00755555,0.528309,0.0170636,0.0230619,1952,799,17.134,-3.74128
735,225,17.5371,3.82349,0.0176497,-0.00245575,0.0163439,0.026785,-0.0115911,0.509683,0.0227279,0.0417942,1959,799,17.5371,-3.82351
742,225,17.8615,3.83539,0,0,0,0,0,0,0,-1,1966,799,17.8615,-3.8354
749,225,18.8561,3.33984,0,0,0,0,0,0,0,-1,1973,799,18.8561,-3.33986
756,225,19.0583,3.59186,0,0,0,0,0,0,0,-1,1980,799,19.0583,-3.59184
763,225,19.4047,4.13232,0,0,0,0,0,0,0,-1,1987,799,19.4047,-4.13232
770,225,0,0,0,0,0,0,0,0,0,-1,1994,799,0,0
777,225,0,0,0,0,0,0,0,0,0,-1,2001,799,0,0
784,225,0,0,0,0,0,0,0,0,0,-1,2008,799,0,0
791,225,0,0,0,0,0,0,0,0,0,-1,2015,799,0,0
798,225,0,0,0,0,0,0,0,0,0,-1,2022,799,0,0
805,225,0,0,0,0,0,0,0,0,0,-1,2029,799,0,0
812,225,0,0,0,0,0,0,0,0,0,-1,2036,799,0,0
-700,218,0,0,0,0,0,0,0,0,0,-1,524,806,0,0
-693,218,0,0,0,0,0,0,0,0,0,-1,531,806,0,0
-686,218,0,0,0,0,0,0,0,0,0,-1,538,806,0,0
-679,218,0,0,0,0,0,0,0,0,0,-1,545,806,0,0
-672,218,0,0,0,0,0,0,0,0,0,-1,552,806,0,0
-665,218,0,0,0,0,0,0,0,0,0,-1,559,806,0,0
-658,218,0,0,0,0,0,0,0,0,0,-1,566,806,0,0
-651,218,-12.8875,-0.703308,0,0,0,0,0,0,0,-1,573,806,-12.8874,0.703331
-644,218,-12.5683,-0.223267,0.0730868,-0.0196547,0.0561837,0.0995642,-0.0461321,0.440397,0.0859827,0.0433075,580,806,-12.5683,0.223239
-637,218,-12.4645,0.111633,0.0631839,-0.0121341,0.0476646,0.0862712,-0.0352214,0.451066,0.0721784,0.0458546,587,806,-12.4645,-0.111637
-630,218,-12.4461,0.424438,0.0537532,-0.00638644,0.039498,0.073325,-0.0259582,0.460051,0.0594559,0.0495379,594,806,-12.4461,-0.424439
-623,218,-12.278,0.579529,0.04493,-0.00228178,0.0320381,0.0611196,-0.0184714,0.467897,0.0481006,0.0499002,601,806,-12.278,-0.579515
-616,218,-12.3024,0.546448,0.036915,0.000437925,0.0254114,0.0499556,-0.0126027,0.474135,0.0382039,0.0491622,608,806,-12.3024,-0.546426
-609,218,-11.6703,0.695984,0,0,0,0,0,0,0,-1,615,806,-11.6704,-0.696014
-602,218,-10.9233,1.41296,0.02342,0.00270614,0.0148431,0.0311623,-0.00503616,0.480787,0.0226411,0.0414882,622,806,-10.9233,-1.41295
-595,218,-10.8958,1.3941,0.01793,0.00281624,0.0108244,0.0235744,-0.00282814,0.480661,0.0167388,0.0172733,629,806,-10.8958,-1.39413
-588,218,-10.8818,1.19281,0.0130782,0.00306281,0.00707757,0.0167405,-0.000599492,0.477511,0.0113655,0.010491,636,806,-10.8818,-1.19278
-581,218,-10.8735,0.985962,0.00862189,0.00272245,0.00439645,0.0109665,0.000377863,0.489923,0.00718834,0.00980726,643,806,-10.8735,-0.985932
-574,218,-10.8725,0.775513,0.00518821,0.00195434,0.00271331,0.00672985,0.000412705,0.516688,0.00435552,0.00914037,650,806,-10.8725,-0.77552
-567,218,-10.8586,0.548279,0.0027605,0.000889304,0.00154342,0.00362975,2.00474e-05,0.512921,0.00241318,0.0153451,657,806,-10.8586,-0.548258
-560,218,-10.8762,0.321045,0.000867167,-0.000104839,0.00115727,0.00163635,-0.000874017,0.586603,0.00147147,0.0161478,664,806,-10.8762,-0.321044
-553,218,-10.8596,0.0913696,-0.000331187,-0.000798497,0.00158922,0.00104146,-0.00217115,0.712409,0.00189264,0.0163765,671,806,-10.8596,-0.0913754
-546,218,-10.8708,-0.174561,-0.00138323,-0.00129155,0.00193053,0.000593681,-0.00326847,0.797268,0.00240146,0.0153428,678,806,-10.8708,0.174586
-539,218,-10.8837,-0.411133,-0.00211315,-0.00135731,0.00233435,0.000629519,-0.00409997,0.865649,0.00296551,0.0208665,685,806,-10.8837,0.411118
-532,218,-10.9452,-0.541626,-0.00216142,-0.00139801,0.00240982,0.000660151,-0.00421958,0.863943,0.00305696,0.0230614,692,806,-10.9452,0.541596
-525,218,-11.1085,-0.641235,0,0,0,0,0,0,0,-1,699,806,-11.1085,0.641234
-518,218,-11.5438,-0.231384,0,0,0,0,0,0,0,-1,706,806,-11.5438,0.231413
-511,218,-11.5313,0.595154,0,0,0,0,0,0,0,-1,713,806,-11.5313,-0.595182
-504,218,-12.6764,2.37982,0,0,0,0,0,0,0,-1,720,806,-12.6764,-2.37984
-497,218,-15.4891,0.978516,-0.000141067,-5.05058e-06,0.00113581,0.00106479,-0.0012109,0.815301,0.00131477,0.0444445,727,806,-15.4891,-0.978542
-490,218,-15.5103,0.912598,0.00108875,0.000993717,7.79451e-05,0.00113252,0.000949948,0.511663,0.000702114,0.0367066,734,806,-15.5103,-0.912617
-483,218,-15.5215,0.898865,0.00264975,0.00252346,-0.00140187,0.0039899,0.00118332,-0.762893,0.00236626,0.0334333,741,806,-15.5215,-0.898848
-476,218,-15.4687,0.945129,0.0041736,0.00467988,-0.00291555,0.00735326,0.00150022,-0.828701,0.0044865,0.0351064,748,806,-15.4687,-0.94514
-469,218,0,0,0,0,0,0,0,0,0,-1,755,806,0,0
-462,218,0,0,0,0,0,0,0,0,0,-1,762,806,0,0
-455,218,0,0,0,0,0,0,0,0,0,-1,769,806,0,0
-448,218,0,0,0,0,0,0,0,0,0,-1,776,806,0,0
-441,218,0,0,0,0,0,0,0,0,0,-1,783,806,0,0
-434,218,0,0,0,0,0,0,0,0,0,-1,790,806,0,0
-427,218,0,0,0,0,0,0,0,0,0,-1,797,806,0,0
-420,218,0,0,0,0,0,0,0,0,0,-1,804,806,0,0
-413,218,0,0,0,0,0,0,0,0,0,-1,811,806,0,0
-406,218,0,0,0,0,0,0,0,0,0,-1,818,806,0,0
-399,218,0,0,0,0,0,0,0,0,0,-1,825,806,0,0
-392,218,0,0,0,0,0,0,0,0,0,-1,832,806,0,0
-385,218,0,0,0,0,0,0,0,0,0,-1,839,806,0,0
-378,218,0,0,0,0,0,0,0,0,0,-1,846,806,0,0
-371,218,0,0,0,0,0,0,0,0,0,-1,853,806,0,0
-364,218,0,0,0,0,0,0,0,0,0,-1,860,806,0,0
-357,218,0,0,0,0,0,0,0,0,0,-1,867,806,0,0
-350,218,0,0,0,0,0,0,0,0,0,-1,874,806,0,0
-343,218,0,0,0,0,0,0,0,0,0,-1,881,806,0,0
-336,218,0,0,0,0,0,0,0,0,0,-1,888,806,0,0
-329,218,0,0,0,0,0,0,0,0,0,-1,895,806,0,0
-322,218,0,0,0,0,0,0,0,0,0,-1,902,806,0,0
-315,218,0,0,0,0,0,0,0,0,0,-1,909,806,0,0
-308,218,0,0,0,0,0,0,0,0,0,-1,916,806,0,0
-301,218,0,0,0,0,0,0,0,0,0,-1,923,806,0,0
-294,218,0,0,0,0,0,0,0,0,0,-1,930,806,0,0
-287,218,0,0,0,0,0,0,0,0,0,-1,937,806,0,0
-280,218,0,0,0,0,0,0,0,0,0,-1,944,806,0,0
-273,218,0,0,0,0,0,0,0,0,0,-1,951,806,0,0
-266,218,0,0,0,0,0,0,0,0,0,-1,958,806,0,0
-259,218,0,0,0,0,0,0,0,0,0,-1,965,806,0,0
-252,218,0,0,0,0,0,0,0,0,0,-1,972,806,0,0
-245,218,0,0,0,0,0,0,0,0,0,-1,979,806,0,0
-238,218,0,0,0,0,0,0,0,0,0,-1,986,806,0,0
-231,218,0,0,0,0,0,0,0,0,0,-1,993,806,0,0
-224,218,0,0,0,0,0,0,0,0,0,-1,1000,806,0,0
-217,218,0,0,0,0,0,0,0,0,0,-1,1007,806,0,0
-210,218,0,0,0,0,0,0,0,0,0,-1,1014,806,0,0
-203,218,0,0,0,0,0,0,0,0,0,-1,1021,806,0,0
-196,218,0,0,0,0,0,0,0,0,0,-1,1028,806,0,0
-189,218,0,0,0,0,0,0,0,0,0,-1,1035,806,0,0
-182,218,0,0,0,0,0,0,0,0,0,-1,1042,806,0,0
-175,218,0,0,0,0,0,0,0,0,0,-1,1049,806,0,0
-168,218,0,0,0,0,0,0,0,0,0,-1,1056,806,0,0
-161,218,0,0,0,0,0,0,0,0,0,-1,1063,806,0,0
-154,218,0,0,0,0,0,0,0,0,0,-1,1070,806,0,0
-147,218,0,0,0,0,0,0,0,0,0,-1,1077,806,0,0
-140,218,0,0,0,0,0,0,0,0,0,-1,1084,806,0,0
-133,218,0,0,0,0,0,0,0,0,0,-1,1091,806,0,0
-126,218,0,0,0,0,0,0,0,0,0,-1,1098,806,0,0
-119,218,0,0,0,0,0,0,0,0,0,-1,1105,806,0,0
-112,218,0,0,0,0,0,0,0,0,0,-1,1112,806,0,0
-105,218,0,0,0,0,0,0,0,0,0,-1,1119,806,0,0
-98,218,0,0,0,0,0,0,0,0,0,-1,1126,806,0,0
-91,218,0,0,0,0,0,0,0,0,0,-1,1133,806,0,0
-84,218,0,0,0,0,0,0,0,0,0,-1,1140,806,0,0
-77,218,0,0,0,0,0,0,0,0,0,-1,1147,806,0,0
-70,218,0,0,0,0,0,0,0,0,0,-1,1154,806,0,0
-63,218,0,0,0,0,0,0,0,0,0,-1,1161,806,0,0
-56,218,0,0,0,0,0,0,0,0,0,-1,1168,806,0,0
-49,218,0,0,0,0,0,0,0,0,0,-1,1175,806,0,0
-42,218,0,0,0,0,0,0,0,0,0,-1,1182,806,0,0
-35,218,0,0,0,0,0,0,0,0,0,-1,1189,806,0,0
-28,218,0,0,0,0,0,0,0,0,0,-1,1196,806,0,0
-21,218,0,0,0,0,0,0,0,0,0,-1,1203,806,0,0
-14,218,0,0,0,0,0,0,0,0,0,-1,1210,806,0,0
-7,218,0,0,0,0,0,0,0,0,0,-1,1217,806,0,0
0,218,0,0,0,0,0,0,0,0,0,-1,1224,806,0,0
7,218,0,0,0,0,0,0,0,0,0,-1,1231,806,0,0
14,218,0,0,0,0,0,0,0,0,0,-1,1238,806,0,0
21,218,0,0,0,0,0,0,0,0,0,-1,1245,806,0,0
28,218,0,0,0,0,0,0,0,0,0,-1,1252,806,0,0
35,218,0,0,0,0,0,0,0,0,0,-1,1259,806,0,0
42,218,0,0,0,0,0,0,0,0,0,-1,1266,806,0,0
49,218,0,0,0,0,0,0,0,0,0,-1,1273,806,0,0
56,218,0,0,0,0,0,0,0,0,0,-1,1280,806,0,0
63,218,0,0,0,0,0,0,0,0,0,-1,1287,806,0,0
70,218,0,0,0,0,0,0,0,0,0,-1,1294,806,0,0
77,218,0,0,0,0,0,0,0,0,0,-1,1301,806,0,0
84,218,0,0,0,0,0,0,0,0,0,-1,1308,806,0,0
91,218,0,0,0,0,0,0,0,0,0,-1,1315,806,0,0
98,218,0,0,0,0,0,0,0,0,0,-1,1322,806,0,0
105,218,0,0,0,0,0,0,0,0,0,-1,1329,806,0,0
112,218,0,0,0,0,0,0,0,0,0,-1,1336,806,0,0
119,218,0,0,0,0,0,0,0,0,0,-1,1343,806,0,0
126,218,0,0,0,0,0,0,0,0,0,-1,1350,806,0,0
133,218,0,0,0,0,0,0,0,0,0,-1,1357,806,0,0
140,218,0,0,0,0,0,0,0,0,0,-1,1364,806,0,0
147,218,0,0,0,0,0,0,0,0,0,-1,1371,806,0,0
154,218,0,0,0,0,0,0,0,0,0,-1,1378,806,0,0
161,218,0,0,0,0,0,0,0,0,0,-1,1385,806,0,0
168,218,0,0,0,0,0,0,0,0,0,-1,1392,806,0,0
175,218,0,0,0,0,0,0,0,0,0,-1,1399,806,0,0
182,218,0,0,0,0,0,0,0,0,0,-1,1406,806,0,0
189,218,0,0,0,0,0,0,0,0,0,-1,1413,806,0,0
196,218,0,0,0,0,0,0,0,0,0,-1,1420,806,0,0
203,218,0,0,0,0,0,0,0,0,0,-1,1427,806,0,0
210,218,0,0,0,0,0,0,0,0,0,-1,1434,806,0,0
217,218,0,0,0,0,0,0,0,0,0,-1,1441,806,0,0
224,218,0,0,0,0,0,0,0,0,0,-1,1448,806,0,0
231,218,0,0,0,0,0,0,0,0,0,-1,1455,806,0,0
238,218,0,0,0,0,0,0,0,0,0,-1,1462,806,0,0
245,218,0,0,0,0,0,0,0,0,0,-1,1469,806,0,0
252,218,0,0,0,0,0,0,0,0,0,-1,1476,806,0,0
259,218,0,0,0,0,0,0,0,0,0,-1,1483,806,0,0
266,218,0,0,0,0,0,0,0,0,0,-1,1490,806,0,0
273,218,0,0,0,0,0,0,0,0,0,-1,1497,806,0,0
280,218,0,0,0,0,0,0,0,0,0,-1,1504,806,0,0
287,218,0,0,0,0,0,0,0,0,0,-1,1511,806,0,0
294,218,0,0,0,0,0,0,0,0,0,-1,1518,806,0,0
301,218,0,0,0,0,0,0,0,0,0,-1,1525,806,0,0
308,218,0,0,0,0,0,0,0,0,0,-1,1532,806,0,0
315,218,0,0,0,0,0,0,0,0,0,-1,1539,806,0,0
322,218,0,0,0,0,0,0,0,0,0,-1,1546,806,0,0
329,218,0,0,0,0,0,0,0,0,0,-1,1553,806,0,0
336,218,0,0,0,0,0,0,0,0,0,-1,1560,806,0,0
343,218,0,0,0,0,0,0,0,0,0,-1,1567,806,0,0
350,218,0,0,0,0,0,0,0,0,0,-1,1574,806,0,0
357,218,0,0,0,0,0,0,0,0,0,-1,1581,806,0,0
364,218,0,0,0,0,0,0,0,0,0,-1,1588,806,0,0
371,218,0,0,0,0,0,0,0,0,0,-1,1595,806,0,0
378,218,0,0,0,0,0,0,0,0,0,-1,1602,806,0,0
385,218,0,0,0,0,0,0,0,0,0,-1,1609,806,0,0
392,218,0,0,0,0,0,0,0,0,0,-1,1616,806,0,0
399,218,0,0,0,0,0,0,0,0,0,-1,1623,806,0,0
406,218,0,0,0,0,0,0,0,0,0,-1,1630,806,0,0
413,218,0,0,0,0,0,0,0,0,0,-1,1637,806,0,0
420,218,0,0,0,0,0,0,0,0,0,-1,1644,806,0,0
427,218,0,0,0,0,0,0,0,0,0,-1,1651,806,0,0
434,218,0,0,0,0,0,0,0,0,0,-1,1658,806,0,0
441,218,0,0,0,0,0,0,0,0,0,-1,1665,806,0,0
448,218,0,0,0,0,0,0,0,0,0,-1,1672,806,0,0
455,218,0,0,0,0,0,0,0,0,0,-1,1679,806,0,0
462,218,0,0,0,0,0,0,0,0,0,-1,1686,806,0,0
469,218,0,0,0,0,0,0,0,0,0,-1,1693,806,0,0
476,218,0,0,0,0,0,0,0,0,0,-1,1700,806,0,0
483,218,0,0,0,0,0,0,0,0,0,-1,1707,806,0,0
490,218,0,0,0,0,0,0,0,0,0,-1,1714,806,0,0
497,218,0,0,0,0,0,0,0,0,0,-1,1721,806,0,0
504,218,0,0,0,0,0,0,0,0,0,-1,1728,806,0,0
511,218,0,0,0,0,0,0,0,0,0,-1,1735,806,0,0
518,218,0,0,0,0,0,0,0,0,0,-1,1742,806,0,0
525,218,0,0,0,0,0,0,0,0,0,-1,1749,806,0,0
532,218,0,0,0,0,0,0,0,0,0,-1,1756,806,0,0
539,218,0,0,0,0,0,0,0,0,0,-1,1763,806,0,0
546,218,0,0,0,0,0,0,0,0,0,-1,1770,806,0,0
553,218,0,0,0,0,0,0,0,0,0,-1,1777,806,0,0
560,218,0,0,0,0,0,0,0,0,0,-1,1784,806,0,0
567,218,0,0,0,0,0,0,0,0,0,-1,1791,806,0,0
574,218,0,0,0,0,0,0,0,0,0,-1,1798,806,0,0
581,218,0,0,0,0,0,0,0,0,0,-1,1805,806,0,0
588,218,0,0,0,0,0,0,0,0,0,-1,1812,806,0,0
595,218,22.9973,2.73779,0.0035223,-0.00586909,-0.00348311,0.0046731,-0.00701989,-0.319105,0.00679613,0.0362654,1819,806,22.9973,-2.7378
602,218,22.9231,2.74774,0.00296756,-0.00171284,0.000659704,0.00305877,-0.00180405,0.137385,0.00283853,0.0321006,1826,806,22.9231,-2.74774
609,218,22.8912,2.76288,0.000750299,-0.00015656,0.00154547,0.00190748,-0.00131375,0.642706,0.00187028,0.0289092,1833,806,22.8913,-2.7629
616,218,22.9293,2.72961,-0.00185504,0.000549925,0.00100015,0.000911498,-0.00221661,1.2239,0.00185767,0.030835,1840,806,22.9293,-2.72961
623,218,22.87,2.76392,-0.00395967,0.000623922,-5.51973e-05,0.000624587,-0.00396033,-1.55876,0.00287115,0.0353571,1847,806,22.8699,-2.76392
630,218,22.8523,2.82623,-0.00542411,0.000227787,-0.001163,0.000457743,-0.00565406,-1.37559,0.00393085,0.0381602,1854,806,22.8523,-2.82626
637,218,22.8762,2.88263,-0.00636052,-0.000176233,-0.00213628,0.000489956,-0.00702671,-1.26851,0.00485604,0.0434576,1861,806,22.8762,-2.88264
644,218,19.1086,2.47717,0,0,0,0,0,0,0,-1,1868,806,19.1086,-2.47714
651,218,18.7644,2.42657,-0.00690955,-0.00114487,-0.00342101,0.000446174,-0.00850059,-1.13547,0.00582149,0.045629,1875,806,18.7644,-2.42657
658,218,17.8363,1.54248,-0.00674273,-0.00141383,-0.00393187,0.000671342,-0.0088279,-1.08318,0.00612133,0.044962,1882,806,17.8363,-1.54249
665,218,17.4834,1.60059,-0.00631333,-0.00151626,-0.00416752,0.000893654,-0.00872324,-1.04651,0.00613511,0.0316823,1889,806,17.4834,-1.6006
672,218,17.3871,1.83997,-0.00536963,-0.00185788,-0.00387981,0.000644883,-0.0078724,-0.997892,0.0054759,0.0117906,1896,806,17.387,-1.83995
679,218,17.387,2.10596,-0.00395824,-0.00201084,-0.00340134,0.000553423,-0.00652251,-0.924804,0.00454406,0.0116047,1903,806,17.3869,-2.10599
686,218,17.3882,2.35156,-0.00226333,-0.00156268,-0.00248113,0.000592729,-0.00441874,-0.855533,0.00316198,0.011739,1910,806,17.3882,-2.35158
693,218,17.364,2.60651,-0.000750484,-0.000611095,-0.00129262,0.000613704,-0.00197528,-0.812331,0.00156214,0.0113486,1917,806,17.364,-2.60653
700,218,17.3477,2.83624,0.00102834,1.8886e-05,0.000282111,0.00110183,-5.46052e-05,0.25484,0.000753416,0.00950277,1924,806,17.3477,-2.83624
707,218,17.3323,3.0614,0.00341742,0.000767286,0.00253464,0.00495246,-0.000767756,0.544545,0.00358507,0.00790171,1931,806,17.3323,-3.0614
714,218,17.3466,3.31531,0.00580993,0.000658178,0.00498895,0.00884875,-0.00238064,0.547091,0.00683239,0.00979796,1938,806,17.3466,-3.31534
721,218,17.394,3.54724,0.00821085,-3.85676e-05,0.00689233,0.0121184,-0.00394614,0.515759,0.00966664,0.0122765,1945,806,17.3941,-3.54722
728,218,17.4047,3.77484,0.0113328,-0.00163933,0.00894573,0.0158964,-0.00620294,0.47173,0.0131618,0.0175159,1952,806,17.4047,-3.77485
735,218,17.4749,3.98584,0.0148597,-0.00396783,0.0114918,0.0203013,-0.00940941,0.442238,0.0175335,0.0332516,1959,806,17.4749,-3.98586
742,218,17.6812,4.00562,0,0,0,0,0,0,0,-1,1966,806,17.6812,-4.00561
749,218,18.3682,3.52625,0.0244879,-0.0128436,0.0168529,0.0309704,-0.0193261,0.367202,0.0292969,0.049318,1973,806,18.3682,-3.52627
756,218,18.48,3.74384,0.0312854,-0.0199721,0.0189825,0.0375497,-0.0262364,0.318752,0.0370195,0.0492033,1980,806,18.48,-3.74382
763,218,18.8926,4.20642,0.039994,-0.0292024,0.0202034,0.0454609,-0.0346693,0.264265,0.0464029,0.0449189,1987,806,18.8925,-4.20643
770,218,0,0,0,0,0,0,0,0,0,-1,1994,806,0,0
777,218,0,0,0,0,0,0,0,0,0,-1,2001,806,0,0
784,218,0,0,0,0,0,0,0,0,0,-1,2008,806,0,0
791,218,0,0,0,0,0,0,0,0,0,-1,2015,806,0,0
798,218,0,0,0,0,0,0,0,0,0,-1,2022,806,0,0
805,218,0,0,0,0,0,0,0,0,0,-1,2029,806,0,0
812,218,0,0,0,0,0,0,0,0,0,-1,2036,806,0,0
-700,211,0,0,0,0,0,0,0,0,0,-1,524,813,0,0
-693,211,0,0,0,0,0,0,0,0,0,-1,531,813,0,0
-686,211,0,0,0,0,0,0,0,0,0,-1,538,813,0,0
-679,211,0,0,0,0,0,0,0,0,0,-1,545,813,0,0
-672,211,0,0,0,0,0,0,0,0,0,-1,552,813,0,0
-665,211,0,0,0,0,0,0,0,0,0,-1,559,813,0,0
-658,211,0,0,0,0,0,0,0,0,0,-1,566,813,0,0
-651,211,-13.6908,-0.547729,0,0,0,0,0,0,0,-1,573,813,-13.6908,0.54776
-644,211,-13.2245,0.0776978,0.0727767,-0.0235754,0.051584,0.0951828,-0.0459814,0.409773,0.083135,0.0441215,580,813,-13.2245,-0.0776847
-637,211,-13.1722,0.406677,0.0614557,-0.0169523,0.0437958,0.0810311,-0.0365278,0.420332,0.0694749,0.0449797,587,813,-13.1722,-0.406661
-630,211,-11.6111,1.53296,0.0511389,-0.0113922,0.0363263,0.0678018,-0.0280551,0.430065,0.0569068,0.0448911,594,813,-11.6111,-1.53297
-623,211,-11.2028,1.25128,0,0,0,0,0,0,0,-1,601,813,-11.2028,-1.25128
-616,211,-11.2216,1.46692,0,0,0,0,0,0,0,-1,608,813,-11.2216,-1.46689
-609,211,-11.3355,1.54498,0.0266766,-0.00157891,0.018148,0.0355476,-0.0104499,0.454659,0.0278433,0.0381009,615,813,-11.3355,-1.545
-602,211,-11.0654,1.5564,0.0206095,-0.000268248,0.0137446,0.0274299,-0.0070887,0.460625,0.0210512,0.019622,622,813,-11.0654,-1.55638
-595,211,-11.0959,1.40186,0.0154716,0.000474319,0.0100466,0.0205095,-0.00456352,0.464805,0.0154209,0.0103323,629,813,-11.096,-1.40184
-588,211,-11.1065,1.20135,0.0109338,0.0012084,0.00652132,0.0142058,-0.00206362,0.46504,0.010228,0.00989217,636,813,-11.1065,-1.20135
-581,211,-11.0978,0.991455,0.00692611,0.00140139,0.00408026,0.00909114,-0.000763644,0.487835,0.00633068,0.0105845,643,813,-11.0978,-0.991477
-574,211,-11.1131,0.771484,0.003929,0.00109211,0.00260924,0.00548042,-0.000459317,0.53643,0.00381595,0.0123362,650,813,-11.1131,-0.771501
-567,211,-11.1124,0.565125,0.00189944,0.000580304,0.00152574,0.00290207,-0.000422325,0.581382,0.00208976,0.018922,657,813,-11.1124,-0.565097
-560,211,-11.1061,0.352722,0.000331279,2.03792e-05,0.00115417,0.00134042,-0.000988762,0.718458,0.00134985,0.0217933,664,813,-11.1061,-0.352733
-553,211,-11.072,0.113708,-0.000587206,-0.000403396,0.00158528,0.00109264,-0.00208325,0.814353,0.00186309,0.0179719,671,813,-11.072,-0.113726
-546,211,-11.1137,-0.0515137,-0.00145775,-0.000790331,0.00183183,0.000737936,-0.00298602,0.875497,0.00227687,0.0244986,678,813,-11.1137,0.0514977
-539,211,-11.1076,-0.317017,-0.00208595,-0.00075927,0.00217759,0.000853776,-0.003699,0.933243,0.00279441,0.018479,685,813,-11.1076,0.317026
-532,211,-11.1748,-0.443481,0,0,0,0,0,0,0,-1,692,813,-11.1748,0.443473
-525,211,-14.3009,2.3233,0,0,0,0,0,0,0,-1,699,813,-14.3009,-2.3233
-518,211,-14.5928,1.95898,0,0,0,0,0,0,0,-1,706,813,-14.5928,-1.95899
-511,211,-11.9662,1.03168,0,0,0,0,0,0,0,-1,713,813,-11.9663,-1.0317
-504,211,-15.5117,0.954468,0,0,0,0,0,0,0,-1,720,813,-15.5117,-0.954464
-497,211,-15.5325,0.898743,0.000200066,0.000660688,0.0015392,0.00198671,-0.00112596,0.859662,0.00181986,0.0430144,727,813,-15.5325,-0.898727
-490,211,-15.5352,0.89856,0.00163719,0.0015976,0.000663878,0.00228157,0.000953224,0.770492,0.00132319,0.0337307,734,813,-15.5352,-0.898567
-483,211,-15.4966,0.982483,0.00352404,0.00304069,-0.000580838,0.00391148,0.00265326,-0.588252,0.00230567,0.0320655,741,813,-15.4966,-0.982468
-476,211,-15.395,1.08734,0.00542825,0.00503298,-0.00165125,0.00689365,0.00356759,-0.725838,0.00398086,0.03572,748,813,-15.395,-1.08733
-469,211,0,0,0,0,0,0,0,0,0,-1,755,813,0,0
-462,211,0,0,0,0,0,0,0,0,0,-1,762,813,0,0
-455,211,0,0,0,0,0,0,0,0,0,-1,769,813,0,0
-448,211,0,0,0,0,0,0,0,0,0,-1,776,813,0,0
-441,211,0,0,0,0,0,0,0,0,0,-1,783,813,0,0
-434,211,0,0,0,0,0,0,0,0,0,-1,790,813,0,0
-427,211,0,0,0,0,0,0,0,0,0,-1,797,813,0,0
-420,211,0,0,0,0,0,0,0,0,0,-1,804,813,0,0
-413,211,0,0,0,0,0,0,0,0,0,-1,811,813,0,0
-406,211,0,0,0,0,0,0,0,0,0,-1,818,813,0,0
-399,211,0,0,0,0,0,0,0,0,0,-1,825,813,0,0
-392,211,0,0,0,0,0,0,0,0,0,-1,832,813,0,0
-385,211,0,0,0,0,0,0,0,0,0,-1,839,813,0,0
-378,211,0,0,0,0,0,0,0,0,0,-1,846,813,0,0
-371,211,0,0,0,0,0,0,0,0,0,-1,853,813,0,0
-364,211,0,0,0,0,0,0,0,0,0,-1,860,813,0,0
-357,211,0,0,0,0,0,0,0,0,0,-1,867,813,0,0
-350,211,0,0,0,0,0,0,0,0,0,-1,874,813,0,0
-343,211,0,0,0,0,0,0,0,0,0,-1,881,813,0,0
-336,211,0,0,0,0,0,0,0,0,0,-1,888,813,0,0
-329,211,0,0,0,0,0,0,0,0,0,-1,895,813,0,0
-322,211,0,0,0,0,0,0,0,0,0,-1,902,813,0,0
-315,211,0,0,0,0,0,0,0,0,0,-1,909,813,0,0
-308,211,0,0,0,0,0,0,0,0,0,-1,916,813,0,0
-301,211,0,0,0,0,0,0,0,0,0,-1,923,813,0,0
-294,211,0,0,0,0,0,0,0,0,0,-1,930,813,0,0
-287,211,0,0,0,0,0,0,0,0,0,-1,937,813,0,0
-280,211,0,0,0,0,0,0,0,0,0,-1,944,813,0,0
-273,211,0,0,0,0,0,0,0,0,0,-1,951,813,0,0
-266,211,0,0,0,0,0,0,0,0,0,-1,958,813,0,0
-259,211,0,0,0,0,0,0,0,0,0,-1,965,813,0,0
-252,211,0,0,0,0,0,0,0,0,0,-1,972,813,0,0
-245,211,0,0,0,0,0,0,0,0,0,-1,979,813,0,0
-238,211,0,0,0,0,0,0,0,0,0,-1,986,813,0,0
-231,211,0,0,0,0,0,0,0,0,0,-1,993,813,0,0
-224,211,0,0,0,0,0,0,0,0,0,-1,1000,813,0,0
-217,211,0,0,0,0,0,0,0,0,0,-1,1007,813,0,0
-210,211,0,0,0,0,0,0,0,0,0,-1,1014,813,0,0
-203,211,0,0,0,0,0,0,0,0,0,-1,1021,813,0,0
-196,211,0,0,0,0,0,0,0,0,0,-1,1028,813,0,0
-189,211,0,0,0,0,0,0,0,0,0,-1,1035,813,0,0
-182,211,0,0,0,0,0,0,0,0,0,-1,1042,813,0,0
-175,211,0,0,0,0,0,0,0,0,0,-1,1049,813,0,0
-168,211,0,0,0,0,0,0,0,0,0,-1,1056,813,0,0
-161,211,0,0,0,0,0,0,0,0,0,-1,1063,813,0,0
-154,211,0,0,0,0,0,0,0,0,0,-1,1070,813,0,0
-147,211,0,0,0,0,0,0,0,0,0,-1,1077,813,0,0
-140,211,0,0,0,0,0,0,0,0,0,-1,1084,813,0,0
-133,211,0,0,0,0,0,0,0,0,0,-1,1091,813,0,0
-126,211,0,0,0,0,0,0,0,0,0,-1,1098,813,0,0
-119,211,0,0,0,0,0,0,0,0,0,-1,1105,813,0,0
-112,211,0,0,0,0,0,0,0,0,0,-1,1112,813,0,0
-105,211,0,0,0,0,0,0,0,0,0,-1,1119,813,0,0
-98,211,0,0,0,0,0,0,0,0,0,-1,1126,813,0,0
-91,211,0,0,0,0,0,0,0,0,0,-1,1133,813,0,0
-84,211,0,0,0,0,0,0,0,0,0,-1,1140,813,0,0
-77,211,0,0,0,0,0,0,0,0,0,-1,1147,813,0,0
-70,211,0,0,0,0,0,0,0,0,0,-1,1154,813,0,0
-63,211,0,0,0,0,0,0,0,0,0,-1,1161,813,0,0
-56,211,0,0,0,0,0,0,0,0,0,-1,1168,813,0,0
-49,211,0,0,0,0,0,0,0,0,0,-1,1175,813,0,0
-42,211,0,0,0,0,0,0,0,0,0,-1,1182,813,0,0
-35,211,0,0,0,0,0,0,0,0,0,-1,1189,813,0,0
-28,211,0,0,0,0,0,0,0,0,0,-1,1196,813,0,0
-21,211,0,0,0,0,0,0,0,0,0,-1,1203,813,0,0
-14,211,0,0,0,0,0,0,0,0,0,-1,1210,813,0,0
-7,211,0,0,0,0,0,0,0,0,0,-1,1217,813,0,0
0,211,0,0,0,0,0,0,0,0,0,-1,1224,813,0,0
7,211,0,0,0,0,0,0,0,0,0,-1,1231,813,0,0
14,211,0,0,0,0,0,0,0,0,0,-1,1238,813,0,0
21,211,0,0,0,0,0,0,0,0,0,-1,1245,813,0,0
28,211,0,0,0,0,0,0,0,0,0,-1,1252,813,0,0
35,211,0,0,0,0,0,0,0,0,0,-1,1259,813,0,0
42,211,0,0,0,0,0,0,0,0,0,-1,1266,813,0,0
49,211,0,0,0,0,0,0,0,0,0,-1,1273,813,0,0
56,211,0,0,0,0,0,0,0,0,0,-1,1280,813,0,0
63,211,0,0,0,0,0,0,0,0,0,-1,1287,813,0,0
70,211,0,0,0,0,0,0,0,0,0,-1,1294,813,0,0
77,211,0,0,0,0,0,0,0,0,0,-1,1301,813,0,0
84,211,0,0,0,0,0,0,0,0,0,-1,1308,813,0,0
91,211,0,0,0,0,0,0,0,0,0,-1,1315,813,0,0
98,211,0,0,0,0,0,0,0,0,0,-1,1322,813,0,0
105,211,0,0,0,0,0,0,0,0,0,-1,1329,813,0,0
112,211,0,0,0,0,0,0,0,0,0,-1,1336,813,0,0
119,211,0,0,0,0,0,0,0,0,0,-1,1343,813,0,0
126,211,0,0,0,0,0,0,0,0,0,-1,1350,813,0,0
133,211,0,0,0,0,0,0,0,0,0,-1,1357,813,0,0
140,211,0,0,0,0,0,0,0,0,0,-1,1364,813,0,0
147,211,0,0,0,0,0,0,0,0,0,-1,1371,813,0,0
154,211,0,0,0,0,0,0,0,0,0,-1,1378,813,0,0
161,211,0,0,0,0,0,0,0,0,0,-1,1385,813,0,0
168,211,0,0,0,0,0,0,0,0,0,-1,1392,813,0,0
175,211,0,0,0,0,0,0,0,0,0,-1,1399,813,0,0
182,211,0,0,0,0,0,0,0,0,0,-1,1406,813,0,0
189,211,0,0,0,0,0,0,0,0,0,-1,1413,813,0,0
196,211,0,0,0,0,0,0,0,0,0,-1,1420,813,0,0
203,211,0,0,0,0,0,0,0,0,0,-1,1427,813,0,0
210,211,0,0,0,0,0,0,0,0,0,-1,1434,813,0,0
217,211,0,0,0,0,0,0,0,0,0,-1,1441,813,0,0
224,211,0,0,0,0,0,0,0,0,0,-1,1448,813,0,0
231,211,0,0,0,0,0,0,0,0,0,-1,1455,813,0,0
238,211,0,0,0,0,0,0,0,0,0,-1,1462,813,0,0
245,211,0,0,0,0,0,0,0,0,0,-1,1469,813,0,0
252,211,0,0,0,0,0,0,0,0,0,-1,1476,813,0,0
259,211,0,0,0,0,0,0,0,0,0,-1,1483,813,0,0
266,211,0,0,0,0,0,0,0,0,0,-1,1490,813,0,0
273,211,0,0,0,0,0,0,0,0,0,-1,1497,813,0,0
280,211,0,0,0,0,0,0,0,0,0,-1,1504,813,0,0
287,211,0,0,0,0,0,0,0,0,0,-1,1511,813,0,0
294,211,0,0,0,0,0,0,0,0,0,-1,1518,813,0,0
301,211,0,0,0,0,0,0,0,0,0,-1,1525,813,0,0
308,211,0,0,0,0,0,0,0,0,0,-1,1532,813,0,0
315,211,0,0,0,0,0,0,0,0,0,-1,1539,813,0,0
322,211,0,0,0,0,0,0,0,0,0,-1,1546,813,0,0
329,211,0,0,0,0,0,0,0,0,0,-1,1553,813,0,0
336,211,0,0,0,0,0,0,0,0,0,-1,1560,813,0,0
343,211,0,0,0,0,0,0,0,0,0,-1,1567,813,0,0
350,211,0,0,0,0,0,0,0,0,0,-1,1574,813,0,0
357,211,0,0,0,0,0,0,0,0,0,-1,1581,813,0,0
364,211,0,0,0,0,0,0,0,0,0,-1,1588,813,0,0
371,211,0,0,0,0,0,0,0,0,0,-1,1595,813,0,0
378,211,0,0,0,0,0,0,0,0,0,-1,1602,813,0,0
385,211,0,0,0,0,0,0,0,0,0,-1,1609,813,0,0
392,211,0,0,0,0,0,0,0,0,0,-1,1616,813,0,0
399,211,0,0,0,0,0,0,0,0,0,-1,1623,813,0,0
406,211,0,0,0,0,0,0,0,0,0,-1,1630,813,0,0
413,211,0,0,0,0,0,0,0,0,0,-1,1637,813,0,0
420,211,0,0,0,0,0,0,0,0,0,-1,1644,813,0,0
427,211,0,0,0,0,0,0,0,0,0,-1,1651,813,0,0
434,211,0,0,0,0,0,0,0,0,0,-1,1658,813,0,0
441,211,0,0,0,0,0,0,0,0,0,-1,1665,813,0,0
448,211,0,0,0,0,0,0,0,0,0,-1,1672,813,0,0
455,211,0,0,0,0,0,0,0,0,0,-1,1679,813,0,0
462,211,0,0,0,0,0,0,0,0,0,-1,1686,813,0,0
469,211,0,0,0,0,0,0,0,0,0,-1,1693,813,0,0
476,211,0,0,0,0,0,0,0,0,0,-1,1700,813,0,0
483,211,0,0,0,0,0,0,0,0,0,-1,1707,813,0,0
490,211,0,0,0,0,0,0,0,0,0,-1,1714,813,0,0
497,211,0,0,0,0,0,0,0,0,0,-1,1721,813,0,0
504,211,0,0,0,0,0,0,0,0,0,-1,1728,813,0,0
511,211,0,0,0,0,0,0,0,0,0,-1,1735,813,0,0
518,211,0,0,0,0,0,0,0,0,0,-1,1742,813,0,0
525,211,0,0,0,0,0,0,0,0,0,-1,1749,813,0,0
532,211,0,0,0,0,0,0,0,0,0,-1,1756,813,0,0
539,211,0,0,0,0,0,0,0,0,0,-1,1763,813,0,0
546,211,0,0,0,0,0,0,0,0,0,-1,1770,813,0,0
553,211,0,0,0,0,0,0,0,0,0,-1,1777,813,0,0
560,211,0,0,0,0,0,0,0,0,0,-1,1784,813,0,0
567,211,0,0,0,0,0,0,0,0,0,-1,1791,813,0,0
574,211,0,0,0,0,0,0,0,0,0,-1,1798,813,0,0
581,211,0,0,0,0,0,0,0,0,0,-1,1805,813,0,0
588,211,0,0,0,0,0,0,0,0,0,-1,1812,813,0,0
595,211,23.0203,2.79578,0.00280675,-0.00786903,-0.00374587,0.00398995,-0.00905223,-0.30595,0.00771667,0.0383113,1819,813,23.0202,-2.79575
602,211,22.8578,2.84106,0.00275246,-0.00237956,0.000272922,0.00276693,-0.00239403,0.0529812,0.00298227,0.0353063,1826,813,22.8578,-2.84108
609,211,22.9182,2.91321,0.000945008,-0.000432776,0.00107545,0.00153329,-0.00102106,0.500542,0.0014846,0.0356381,1833,813,22.9182,-2.91321
616,211,22.9271,2.78558,-0.00137924,0.000441693,0.000493774,0.000566969,-0.00150452,1.32233,0.00123613,0.0313189,1840,813,22.9272,-2.78556
623,211,22.8448,2.80914,-0.00332709,0.000545196,-0.000569948,0.000627342,-0.00340924,-1.42765,0.00250823,0.030849,1847,813,22.8448,-2.80913
630,211,22.804,2.83246,-0.00466068,0.000104312,-0.0016394,0.00061386,-0.00517022,-1.26945,0.0036686,0.0336053,1854,813,22.8039,-2.83245
637,211,22.8221,2.86572,-0.005483,-0.000377576,-0.00252839,0.000662635,-0.00652321,-1.18049,0.00458567,0.0405929,1861,813,22.8222,-2.86573
644,211,22.9225,2.81885,-0.00586199,-0.000974335,-0.0031396,0.000560453,-0.00739678,-1.11611,0.00512822,0.0416978,1868,813,22.9225,-2.81882
651,211,19.2166,2.85089,0,0,0,0,0,0,0,-1,1875,813,19.2166,-2.85092
658,211,17.8284,1.56555,0,0,0,0,0,0,0,-1,1882,813,17.8283,-1.56558
665,211,17.8431,1.62402,0,0,0,0,0,0,0,-1,1889,813,17.8432,-1.62404
672,211,17.5768,1.88666,-0.00448911,-0.00194558,-0.00363478,0.000633498,-0.00706819,-0.953686,0.00493686,0.0196311,1896,813,17.5768,-1.88668
679,211,17.608,2.10645,-0.00339543,-0.0020508,-0.0032781,0.000623217,-0.00606945,-0.886542,0.00426923,0.0135049,1903,813,17.608,-2.10645
686,211,17.6106,2.37207,-0.00209492,-0.00169078,-0.00257904,0.000694093,-0.00447979,-0.824494,0.00324275,0.0117509,1910,813,17.6106,-2.37207
693,211,17.6095,2.60742,-0.000962264,-0.000921078,-0.00167904,0.000737494,-0.00262084,-0.79153,0.00203803,0.0117383,1917,813,17.6095,-2.6074
700,211,17.5852,2.81781,0.000404802,-0.000458542,-0.000411737,0.000569677,-0.000623417,-0.380883,0.000689066,0.0136181,1924,813,17.5853,-2.81781
707,211,17.5964,3.07495,0.00234847,0.000164862,0.00146451,0.00308336,-0.000570031,0.465088,0.00226957,0.0199755,1931,813,17.5964,-3.07494
714,211,17.6084,3.33508,0.00433521,-9.0764e-05,0.00347356,0.00624084,-0.00199639,0.501773,0.00496175,0.0208943,1938,813,17.6084,-3.33508
721,211,17.6383,3.53943,0.00634994,-0.000959805,0.00475101,0.00868924,-0.00329911,0.457534,0.00715088,0.0158834,1945,813,17.6383,-3.53943
728,211,17.6442,3.75281,0.00925711,-0.00276761,0.00594339,0.0116989,-0.00520938,0.389815,0.00999879,0.0150151,1952,813,17.6442,-3.7528
735,211,17.6486,3.95746,0.0126306,-0.00519423,0.0073794,0.0152891,-0.00785276,0.345789,0.013589,0.0246899,1959,813,17.6485,-3.95745
742,211,17.8049,4.03619,0.0166945,-0.00885442,0.00875026,0.0194041,-0.0115639,0.300287,0.0180694,0.0447215,1966,813,17.8049,-4.0362
749,211,17.911,3.81183,0.0220344,-0.0139925,0.00972722,0.0244929,-0.016451,0.247566,0.0237905,0.0464278,1973,813,17.911,-3.81184
756,211,17.8735,3.98907,0.0290883,-0.0208336,0.00992035,0.0309874,-0.0227327,0.189147,0.0311371,0.0445079,1980,813,17.8735,-3.98906
763,211,18.3602,4.3692,0.0383967,-0.0295484,0.00889069,0.0395408,-0.0306925,0.127981,0.0406564,0.0463797,1987,813,18.3602,-4.36921
770,211,18.8988,4.84351,0,0,0,0,0,0,0,-1,1994,813,18.8988,-4.8435
777,211,0,0,0,0,0,0,0,0,0,-1,2001,813,0,0
784,211,0,0,0,0,0,0,0,0,0,-1,2008,813,0,0
791,211,0,0,0,0,0,0,0,0,0,-1,2015,813,0,0
798,211,0,0,0,0,0,0,0,0,0,-1,2022,813,0,0
805,211,0,0,0,0,0,0,0,0,0,-1,2029,813,0,0
812,211,0,0,0,0,0,0,0,0,0,-1,2036,813,0,0
-700,204,0,0,0,0,0,0,0,0,0,-1,524,820,0,0
-693,204,0,0,0,0,0,0,0,0,0,-1,531,820,0,0
-686,204,0,0,0,0,0,0,0,0,0,-1,538,820,0,0
-679,204,0,0,0,0,0,0,0,0,0,-1,545,820,0,0
-672,204,0,0,0,0,0,0,0,0,0,-1,552,820,0,0
-665,204,0,0,0,0,0,0,0,0,0,-1,559,820,0,0
-658,204,0,0,0,0,0,0,0,0,0,-1,566,820,0,0
-651,204,-14.6135,-0.204468,0,0,0,0,0,0,0,-1,573,820,-14.6135,0.204476
-644,204,-14.163,0.298401,0,0,0,0,0,0,0,-1,580,820,-14.163,-0.298408
-637,204,-11.738,1.81909,0.0590625,-0.0153845,0.040158,0.0765953,-0.0329174,0.411651,0.0648818,0.047656,587,820,-11.738,-1.8191
-630,204,-11.5816,1.6333,0.0484348,-0.0121338,0.0329328,0.062891,-0.0265899,0.413634,0.05306,0.0422109,594,820,-11.5816,-1.63327
-623,204,-11.4129,1.47247,0.0389272,-0.00894877,0.0265105,0.050708,-0.0207296,0.418174,0.0424378,0.047007,601,820,-11.4129,-1.47246
-616,204,-11.3696,1.51117,0.0306985,-0.00617722,0.0209107,0.0401392,-0.0156179,0.42408,0.0332128,0.0493582,608,820,-11.3696,-1.51115
-609,204,-11.348,1.65466,0.0237791,-0.0041335,0.0160676,0.0311053,-0.0114597,0.427802,0.0254325,0.0322598,615,820,-11.348,-1.65467
-602,204,-11.2899,1.57312,0.0179206,-0.00265762,0.0121064,0.0235195,-0.00825657,0.433183,0.0190383,0.0135554,622,820,-11.2899,-1.57314
-595,204,-11.2985,1.40314,0.0130535,-0.00146059,0.00883006,0.017226,-0.0056331,0.441435,0.0137518,0.0137962,629,820,-11.2985,-1.40311
-588,204,-11.3264,1.185,0.0088388,-0.000376558,0.00565992,0.0115294,-0.00306719,0.443762,0.00888691,0.0111591,636,820,-11.3264,-1.185
-581,204,-11.3214,0.974731,0.00534375,0.000226789,0.00357514,0.00718157,-0.00161103,0.474828,0.00540535,0.0114315,643,820,-11.3213,-0.974727
-574,204,-11.322,0.754944,0.00283556,0.000280098,0.00238865,0.00426674,-0.00115109,0.539803,0.00329589,0.0135735,650,820,-11.322,-0.754964
-567,204,-11.3113,0.549194,0.0012114,0.000223352,0.00142528,0.00222584,-0.000791094,0.61857,0.00180629,0.0138973,657,820,-11.3113,-0.549199
-560,204,-11.3036,0.319885,2.2573e-05,5.35776e-05,0.00109127,0.00112946,-0.00105331,0.792501,0.00126048,0.0136501,664,820,-11.3036,-0.319901
-553,204,-11.3044,0.116516,-0.000600695,-0.000124014,0.00151075,0.00116708,-0.00189179,0.863635,0.00178249,0.010554,671,820,-11.3044,-0.116497
-546,204,-11.3208,-0.0432739,-0.00133687,-0.000372897,0.00169102,0.000903487,-0.00261326,0.92423,0.00210886,0.0174628,678,820,-11.3208,0.0432565
-539,204,-11.3449,-0.288513,-0.0018868,-0.00023192,0.00198598,0.0010921,-0.00321082,0.982782,0.00258273,0.0313513,685,820,-11.3449,0.288525
-532,204,-11.2998,-0.606995,0,0,0,0,0,0,0,-1,692,820,-11.2998,0.606979
-525,204,-14.4346,2.21301,0,0,0,0,0,0,0,-1,699,820,-14.4346,-2.213
-518,204,-14.7305,1.84369,-0.00186742,0.000359575,0.00240338,0.00189487,-0.00340272,1.00233,0.00309959,0.0484815,706,820,-14.7305,-1.84367
-511,204,-15.0403,1.48065,-0.00154506,0.000662132,0.00242691,0.00222458,-0.00310751,0.99879,0.00309252,0.0481678,713,820,-15.0403,-1.48067
-504,204,-15.3238,1.08881,0,0,0,0,0,0,0,-1,720,820,-15.3238,-1.0888
-497,204,-15.4412,0.903931,0.000184383,0.00166565,0.00199622,0.00305421,-0.00120417,0.963036,0.00253474,0.0374628,727,820,-15.4412,-0.90391
-490,204,-15.5045,0.862061,0.00188306,0.00251756,0.00134194,0.00357924,0.000821382,0.901473,0.00216495,0.0333934,734,820,-15.5045,-0.862048
-483,204,-15.4468,1.01868,0.00429828,0.00371097,0.000391086,0.00449369,0.00351557,0.463371,0.00272882,0.0396869,741,820,-15.4468,-1.01865
-476,204,0,0,0,0,0,0,0,0,0,-1,748,820,0,0
-469,204,0,0,0,0,0,0,0,0,0,-1,755,820,0,0
-462,204,0,0,0,0,0,0,0,0,0,-1,762,820,0,0
-455,204,0,0,0,0,0,0,0,0,0,-1,769,820,0,0
-448,204,0,0,0,0,0,0,0,0,0,-1,776,820,0,0
-441,204,0,0,0,0,0,0,0,0,0,-1,783,820,0,0
-434,204,0,0,0,0,0,0,0,0,0,-1,790,820,0,0
-427,204,0,0,0,0,0,0,0,0,0,-1,797,820,0,0
-420,204,0,0,0,0,0,0,0,0,0,-1,804,820,0,0
-413,204,0,0,0,0,0,0,0,0,0,-1,811,820,0,0
-406,204,0,0,0,0,0,0,0,0,0,-1,818,820,0,0
-399,204,0,0,0,0,0,0,0,0,0,-1,825,820,0,0
-392,204,0,0,0,0,0,0,0,0,0,-1,832,820,0,0
-385,204,0,0,0,0,0,0,0,0,0,-1,839,820,0,0
-378,204,0,0,0,0,0,0,0,0,0,-1,846,820,0,0
-371,204,0,0,0,0,0,0,0,0,0,-1,853,820,0,0
-364,204,0,0,0,0,0,0,0,0,0,-1,860,820,0,0
-357,204,0,0,0,0,0,0,0,0,0,-1,867,820,0,0
-350,204,0,0,0,0,0,0,0,0,0,-1,874,820,0,0
-343,204,0,0,0,0,0,0,0,0,0,-1,881,820,0,0
-336,204,0,0,0,0,0,0,0,0,0,-1,888,820,0,0
-329,204,0,0,0,0,0,0,0,0,0,-1,895,820,0,0
-322,204,0,0,0,0,0,0,0,0,0,-1,902,820,0,0
-315,204,0,0,0,0,0,0,0,0,0,-1,909,820,0,0
-308,204,0,0,0,0,0,0,0,0,0,-1,916,820,0,0
-301,204,0,0,0,0,0,0,0,0,0,-1,923,820,0,0
-294,204,0,0,0,0,0,0,0,0,0,-1,930,820,0,0
-287,204,0,0,0,0,0,0,0,0,0,-1,937,820,0,0
-280,204,0,0,0,0,0,0,0,0,0,-1,944,820,0,0
-273,204,0,0,0,0,0,0,0,0,0,-1,951,820,0,0
-266,204,0,0,0,0,0,0,0,0,0,-1,958,820,0,0
-259,204,0,0,0,0,0,0,0,0,0,-1,965,820,0,0
-252,204,0,0,0,0,0,0,0,0,0,-1,972,820,0,0
-245,204,0,0,0,0,0,0,0,0,0,-1,979,820,0,0
-238,204,0,0,0,0,0,0,0,0,0,-1,986,820,0,0
-231,204,0,0,0,0,0,0,0,0,0,-1,993,820,0,0
-224,204,0,0,0,0,0,0,0,0,0,-1,1000,820,0,0
-217,204,0,0,0,0,0,0,0,0,0,-1,1007,820,0,0
-210,204,0,0,0,0,0,0,0,0,0,-1,1014,820,0,0
-203,204,0,0,0,0,0,0,0,0,0,-1,1021,820,0,0
-196,204,0,0,0,0,0,0,0,0,0,-1,1028,820,0,0
-189,204,0,0,0,0,0,0,0,0,0,-1,1035,820,0,0
-182,204,0,0,0,0,0,0,0,0,0,-1,1042,820,0,0
-175,204,0,0,0,0,0,0,0,0,0,-1,1049,820,0,0
-168,204,0,0,0,0,0,0,0,0,0,-1,1056,820,0,0
-161,204,0,0,0,0,0,0,0,0,0,-1,1063,820,0,0
-154,204,0,0,0,0,0,0,0,0,0,-1,1070,820,0,0
-147,204,0,0,0,0,0,0,0,0,0,-1,1077,820,0,0
-140,204,0,0,0,0,0,0,0,0,0,-1,1084,820,0,0
-133,204,0,0,0,0,0,0,0,0,0,-1,1091,820,0,0
-126,204,0,0,0,0,0,0,0,0,0,-1,1098,820,0,0
-119,204,0,0,0,0,0,0,0,0,0,-1,1105,820,0,0
-112,204,0,0,0,0,0,0,0,0,0,-1,1112,820,0,0
-105,204,0,0,0,0,0,0,0,0,0,-1,1119,820,0,0
-98,204,0,0,0,0,0,0,0,0,0,-1,1126,820,0,0
-91,204,0,0,0,0,0,0,0,0,0,-1,1133,820,0,0
-84,204,0,0,0,0,0,0,0,0,0,-1,1140,820,0,0
-77,204,0,0,0,0,0,0,0,0,0,-1,1147,820,0,0
-70,204,0,0,0,0,0,0,0,0,0,-1,1154,820,0,0
-63,204,0,0,0,0,0,0,0,0,0,-1,1161,820,0,0
-56,204,0,0,0,0,0,0,0,0,0,-1,1168,820,0,0
-49,204,0,0,0,0,0,0,0,0,0,-1,1175,820,0,0
-42,204,0,0,0,0,0,0,0,0,0,-1,1182,820,0,0
-35,204,0,0,0,0,0,0,0,0,0,-1,1189,820,0,0
-28,204,0,0,0,0,0,0,0,0,0,-1,1196,820,0,0
-21,204,0,0,0,0,0,0,0,0,0,-1,1203,820,0,0
-14,204,0,0,0,0,0,0,0,0,0,-1,1210,820,0,0
-7,204,0,0,0,0,0,0,0,0,0,-1,1217,820,0,0
0,204,0,0,0,0,0,0,0,0,0,-1,1224,820,0,0
7,204,0,0,0,0,0,0,0,0,0,-1,1231,820,0,0
14,204,0,0,0,0,0,0,0,0,0,-1,1238,820,0,0
21,204,0,0,0,0,0,0,0,0,0,-1,1245,820,0,0
28,204,0,0,0,0,0,0,0,0,0,-1,1252,820,0,0
35,204,0,0,0,0,0,0,0,0,0,-1,1259,820,0,0
42,204,0,0,0,0,0,0,0,0,0,-1,1266,820,0,0
49,204,0,0,0,0,0,0,0,0,0,-1,1273,820,0,0
56,204,0,0,0,0,0,0,0,0,0,-1,1280,820,0,0
63,204,0,0,0,0,0,0,0,0,0,-1,1287,820,0,0
70,204,0,0,0,0,0,0,0,0,0,-1,1294,820,0,0
77,204,0,0,0,0,0,0,0,0,0,-1,1301,820,0,0
84,204,0,0,0,0,0,0,0,0,0,-1,1308,820,0,0
91,204,0,0,0,0,0,0,0,0,0,-1,1315,820,0,0
98,204,0,0,0,0,0,0,0,0,0,-1,1322,820,0,0
105,204,0,0,0,0,0,0,0,0,0,-1,1329,820,0,0
112,204,0,0,0,0,0,0,0,0,0,-1,1336,820,0,0
119,204,0,0,0,0,0,0,0,0,0,-1,1343,820,0,0
126,204,0,0,0,0,0,0,0,0,0,-1,1350,820,0,0
133,204,0,0,0,0,0,0,0,0,0,-1,1357,820,0,0
140,204,0,0,0,0,0,0,0,0,0,-1,1364,820,0,0
147,204,0,0,0,0,0,0,0,0,0,-1,1371,820,0,0
154,204,0,0,0,0,0,0,0,0,0,-1,1378,820,0,0
161,204,0,0,0,0,0,0,0,0,0,-1,1385,820,0,0
168,204,0,0,0,0,0,0,0,0,0,-1,1392,820,0,0
175,204,0,0,0,0,0,0,0,0,0,-1,1399,820,0,0
182,204,0,0,0,0,0,0,0,0,0,-1,1406,820,0,0
189,204,0,0,0,0,0,0,0,0,0,-1,1413,820,0,0
196,204,0,0,0,0,0,0,0,0,0,-1,1420,820,0,0
203,204,0,0,0,0,0,0,0,0,0,-1,1427,820,0,0
210,204,0,0,0,0,0,0,0,0,0,-1,1434,820,0,0
217,204,0,0,0,0,0,0,0,0,0,-1,1441,820,0,0
224,204,0,0,0,0,0,0,0,0,0,-1,1448,820,0,0
231,204,0,0,0,0,0,0,0,0,0,-1,1455,820,0,0
238,204,0,0,0,0,0,0,0,0,0,-1,1462,820,0,0
245,204,0,0,0,0,0,0,0,0,0,-1,1469,820,0,0
252,204,0,0,0,0,0,0,0,0,0,-1,1476,820,0,0
259,204,0,0,0,0,0,0,0,0,0,-1,1483,820,0,0
266,204,0,0,0,0,0,0,0,0,0,-1,1490,820,0,0
273,204,0,0,0,0,0,0,0,0,0,-1,1497,820,0,0
280,204,0,0,0,0,0,0,0,0,0,-1,1504,820,0,0
287,204,0,0,0,0,0,0,0,0,0,-1,1511,820,0,0
294,204,0,0,0,0,0,0,0,0,0,-1,1518,820,0,0
301,204,0,0,0,0,0,0,0,0,0,-1,1525,820,0,0
308,204,0,0,0,0,0,0,0,0,0,-1,1532,820,0,0
315,204,0,0,0,0,0,0,0,0,0,-1,1539,820,0,0
322,204,0,0,0,0,0,0,0,0,0,-1,1546,820,0,0
329,204,0,0,0,0,0,0,0,0,0,-1,1553,820,0,0
336,204,0,0,0,0,0,0,0,0,0,-1,1560,820,0,0
343,204,0,0,0,0,0,0,0,0,0,-1,1567,820,0,0
350,204,0,0,0,0,0,0,0,0,0,-1,1574,820,0,0
357,204,0,0,0,0,0,0,0,0,0,-1,1581,820,0,0
364,204,0,0,0,0,0,0,0,0,0,-1,1588,820,0,0
371,204,0,0,0,0,0,0,0,0,0,-1,1595,820,0,0
378,204,0,0,0,0,0,0,0,0,0,-1,1602,820,0,0
385,204,0,0,0,0,0,0,0,0,0,-1,1609,820,0,0
392,204,0,0,0,0,0,0,0,0,0,-1,1616,820,0,0
399,204,0,0,0,0,0,0,0,0,0,-1,1623,820,0,0
406,204,0,0,0,0,0,0,0,0,0,-1,1630,820,0,0
413,204,0,0,0,0,0,0,0,0,0,-1,1637,820,0,0
420,204,0,0,0,0,0,0,0,0,0,-1,1644,820,0,0
427,204,0,0,0,0,0,0,0,0,0,-1,1651,820,0,0
434,204,0,0,0,0,0,0,0,0,0,-1,1658,820,0,0
441,204,0,0,0,0,0,0,0,0,0,-1,1665,820,0,0
448,204,0,0,0,0,0,0,0,0,0,-1,1672,820,0,0
455,204,0,0,0,0,0,0,0,0,0,-1,1679,820,0,0
462,204,0,0,0,0,0,0,0,0,0,-1,1686,820,0,0
469,204,0,0,0,0,0,0,0,0,0,-1,1693,820,0,0
476,204,0,0,0,0,0,0,0,0,0,-1,1700,820,0,0
483,204,0,0,0,0,0,0,0,0,0,-1,1707,820,0,0
490,204,0,0,0,0,0,0,0,0,0,-1,1714,820,0,0
497,204,0,0,0,0,0,0,0,0,0,-1,1721,820,0,0
504,204,0,0,0,0,0,0,0,0,0,-1,1728,820,0,0
511,204,0,0,0,0,0,0,0,0,0,-1,1735,820,0,0
518,204,0,0,0,0,0,0,0,0,0,-1,1742,820,0,0
525,204,0,0,0,0,0,0,0,0,0,-1,1749,820,0,0
532,204,0,0,0,0,0,0,0,0,0,-1,1756,820,0,0
539,204,0,0,0,0,0,0,0,0,0,-1,1763,820,0,0
546,204,0,0,0,0,0,0,0,0,0,-1,1770,820,0,0
553,204,0,0,0,0,0,0,0,0,0,-1,1777,820,0,0
560,204,0,0,0,0,0,0,0,0,0,-1,1784,820,0,0
567,204,0,0,0,0,0,0,0,0,0,-1,1791,820,0,0
574,204,0,0,0,0,0,0,0,0,0,-1,1798,820,0,0
581,204,0,0,0,0,0,0,0,0,0,-1,1805,820,0,0
588,204,0,0,0,0,0,0,0,0,0,-1,1812,820,0,0
595,204,0,0,0,0,0,0,0,0,0,-1,1819,820,0,0
602,204,22.8683,2.89667,0.00215594,-0.00315878,-7.58784e-05,0.00215703,-0.00315986,-0.0142731,0.00308785,0.0381455,1826,820,22.8682,-2.89665
609,204,22.9423,3.03534,0.00129049,-0.00112762,0.000704985,0.00148101,-0.00131815,0.263946,0.001617,0.0415552,1833,820,22.9422,-3.03531
616,204,22.944,2.86694,-0.0004166,-0.000177692,0.000169179,-9.00452e-05,-0.000504248,1.0928,0.000310533,0.0372093,1840,820,22.944,-2.86695
623,204,22.8684,2.79926,-0.00207389,-8.4974e-06,-0.000798217,0.000264032,-0.00234641,-1.24178,0.0016593,0.027139,1847,820,22.8683,-2.79925
630,204,22.8523,2.80035,-0.00326684,-0.000388602,-0.00176918,0.000452862,-0.00410831,-1.12684,0.00290163,0.025636,1854,820,22.8523,-2.80034
637,204,22.9144,2.75879,-0.00402943,-0.000844995,-0.00255098,0.000569889,-0.00544432,-1.0644,0.00383365,0.0326517,1861,820,22.9145,-2.75879
644,204,22.9794,2.68323,-0.00438422,-0.00137882,-0.0030476,0.000516409,-0.00627946,-1.01445,0.00436863,0.0404732,1868,820,22.9793,-2.68322
651,204,23.0104,2.62415,-0.00436707,-0.00172834,-0.00335614,0.000558452,-0.00665386,-0.972678,0.00463329,0.0443866,1875,820,23.0104,-2.62417
658,204,23.0118,2.59473,0,0,0,0,0,0,0,-1,1882,820,23.0119,-2.59471
665,204,17.8278,1.75317,0,0,0,0,0,0,0,-1,1889,820,17.8277,-1.75319
672,204,17.7587,1.823,-0.0033833,-0.00206702,-0.00321682,0.000558297,-0.00600862,-0.886302,0.00420422,0.0402556,1896,820,17.7587,-1.82301
679,204,17.8214,2.03925,-0.00257766,-0.00211453,-0.00298075,0.000643639,-0.00533582,-0.824163,0.00379002,0.0221164,1903,820,17.8214,-2.03922
686,204,17.8337,2.37134,-0.00165708,-0.00180568,-0.00249203,0.000761759,-0.00422452,-0.770494,0.00310161,0.0116873,1910,820,17.8337,-2.37134
693,204,17.8232,2.60608,-0.000902631,-0.0011881,-0.00185829,0.000818398,-0.00290913,-0.747069,0.00226211,0.0165761,1917,820,17.8232,-2.60606
700,204,17.8693,2.84778,2.25416e-05,-0.000855274,-0.000897354,0.000582575,-0.00141531,-0.557948,0.00118641,0.0172049,1924,820,17.8692,-2.84781
707,204,17.8372,3.08514,0.0014464,-0.000335236,0.000586795,0.0016223,-0.000511135,0.291239,0.00128622,0.0147003,1931,820,17.8372,-3.08514
714,204,17.8558,3.3255,0.00291567,-0.000676212,0.00211055,0.00389098,-0.00165152,0.432879,0.00328588,0.0229068,1938,820,17.8558,-3.32551
721,204,17.8727,3.51239,0.00448391,-0.00163431,0.00281585,0.00558258,-0.00273298,0.372008,0.00489405,0.0207944,1945,820,17.8727,-3.51241
728,204,17.8328,3.7489,0.00705864,-0.0035581,0.00328094,0.00799073,-0.00449019,0.2768,0.00729973,0.0131022,1952,820,17.8328,-3.74893
735,204,17.8228,3.966,0.0101234,-0.00600955,0.00381401,0.0109797,-0.00686578,0.220835,0.0103939,0.0149906,1959,820,17.8228,-3.96599
742,204,17.8805,4.1073,0.0138218,-0.00962512,0.00405212,0.0145023,-0.0103057,0.166394,0.014391,0.0284732,1966,820,17.8805,-4.10729
749,204,17.9977,4.05841,0.0189192,-0.0146284,0.00367352,0.0193167,-0.015026,0.1078,0.0198793,0.0422958,1973,820,17.9977,-4.05838
756,204,17.8569,4.36194,0.0259471,-0.0212214,0.00228441,0.0260575,-0.0213317,0.0482804,0.0274055,0.0467731,1980,820,17.8569,-4.36196
763,204,17.7244,4.44293,0.0355305,-0.0295562,-0.000565115,0.0355354,-0.0295611,-0.00868163,0.0376362,0.0467364,1987,820,17.7243,-4.44295
770,204,18.2705,4.9292,0,0,0,0,0,0,0,-1,1994,820,18.2706,-4.92917
777,204,0,0,0,0,0,0,0,0,0,-1,2001,820,0,0
784,204,0,0,0,0,0,0,0,0,0,-1,2008,820,0,0
791,204,0,0,0,0,0,0,0,0,0,-1,2015,820,0,0
798,204,0,0,0,0,0,0,0,0,0,-1,2022,820,0,0
805,204,0,0,0,0,0,0,0,0,0,-1,2029,820,0,0
812,204,0,0,0,0,0,0,0,0,0,-1,2036,820,0,0
-700,197,0,0,0,0,0,0,0,0,0,-1,524,827,0,0
-693,197,0,0,0,0,0,0,0,0,0,-1,531,827,0,0
-686,197,0,0,0,0,0,0,0,0,0,-1,538,827,0,0
-679,197,0,0,0,0,0,0,0,0,0,-1,545,827,0,0
-672,197,0,0,0,0,0,0,0,0,0,-1,552,827,0,0
-665,197,0,0,0,0,0,0,0,0,0,-1,559,827,0,0
-658,197,-11.9308,2.12848,0,0,0,0,0,0,0,-1,566,827,-11.9308,-2.12849
-651,197,-14.795,1.13702,0,0,0,0,0,0,0,-1,573,827,-14.7951,-1.13703
-644,197,-13.8878,1.37897,0.0669474,-0.0109599,0.0460919,0.0883415,-0.0323541,0.434568,0.0721394,0.0454898,580,827,-13.8878,-1.37894
-637,197,-13.1611,1.66467,0.0556333,-0.0118521,0.0376152,0.0724225,-0.0286413,0.419807,0.0601466,0.045346,587,827,-13.1611,-1.6647
-630,197,-12.2372,1.89447,0.0450493,-0.0109994,0.030274,0.0582787,-0.0242289,0.411983,0.0489693,0.042289,594,827,-12.2373,-1.89445
-623,197,-11.6613,1.61011,0.0355776,-0.00925407,0.0240142,0.0460122,-0.0196887,0.409905,0.038934,0.0474162,601,827,-11.6613,-1.61011
-616,197,-11.5069,1.57318,0.0274486,-0.00722813,0.0187319,0.0356348,-0.0154143,0.412006,0.0302341,0.0476326,608,827,-11.5069,-1.57316
-609,197,-11.4929,1.61102,0.0207771,-0.00567466,0.014171,0.0269353,-0.0118329,0.409942,0.0229419,0.0308338,615,827,-11.4929,-1.61105
-602,197,-11.5098,1.55829,0.0151683,-0.00428253,0.0105579,0.0197974,-0.00891166,0.413209,0.0169677,0.0152785,622,827,-11.5098,-1.55827
-595,197,-11.5184,1.37445,0.0105959,-0.00278811,0.00767734,0.0140884,-0.00628062,0.426931,0.0120446,0.0171207,629,827,-11.5184,-1.37444
-588,197,-11.5294,1.16589,0.00675004,-0.00149721,0.00486899,0.00900696,-0.00375413,0.434048,0.00757282,0.0171091,636,827,-11.5294,-1.16592
-581,197,-11.5378,0.967834,0.00383108,-0.000583277,0.00313103,0.00545469,-0.00220689,0.478382,0.00455397,0.0101003,643,827,-11.5378,-0.967848
-574,197,-11.5355,0.761719,0.00183033,-0.000292343,0.002185,0.00319812,-0.00166014,0.559312,0.00285138,0.0125361,650,827,-11.5355,-0.761702
-567,197,-11.5417,0.548279,0.000574944,2.10168e-05,0.00130845,0.00163542,-0.00103946,0.681101,0.00155706,0.014591,657,827,-11.5418,-0.548291
-560,197,-11.5491,0.340332,-0.000240144,0.000202802,0.000984885,0.000990808,-0.00102815,0.895994,0.00116571,0.0145992,664,827,-11.5491,-0.340329
-553,197,-11.5744,0.149536,-0.000558034,0.00027989,0.00137873,0.00130191,-0.00158006,0.932902,0.00166649,0.0144561,671,827,-11.5744,-0.149564
-546,197,-11.5096,-0.0395508,-0.00110005,0.000222439,0.00150104,0.00120143,-0.00207904,0.992871,0.00191644,0.0255448,678,827,-11.5096,0.0395408
-539,197,-11.5856,-0.215149,0,0,0,0,0,0,0,-1,685,827,-11.5856,0.215147
-532,197,-12.957,1.23853,0,0,0,0,0,0,0,-1,692,827,-12.957,-1.23854
-525,197,-15.0448,1.9743,0,0,0,0,0,0,0,-1,699,827,-15.0448,-1.97432
-518,197,-15.129,1.61664,-0.00135929,0.00145506,0.002387,0.00281879,-0.00272302,1.05174,0.00319972,0.0470446,706,827,-15.129,-1.61666
-511,197,-15.2033,1.25275,-0.000939021,0.0018204,0.00255966,0.00334852,-0.00246714,1.03259,0.0033705,0.044972,713,827,-15.2033,-1.25275
-504,197,-15.3523,1.159,-0.000147865,0.00220538,0.00264403,0.00392277,-0.00186526,0.994747,0.00341137,0.038835,720,827,-15.3523,-1.15902
-497,197,-15.4874,1.04395,0.00123972,0.00267383,0.00252238,0.0045791,-0.000665547,0.923884,0.00329705,0.0391646,727,827,-15.4874,-1.04392
-490,197,-15.5855,0.830078,0.00348264,0.00326281,0.00211162,0.0054872,0.00125825,0.759395,0.00331919,0.0394702,734,827,-15.5855,-0.830063
-483,197,-15.4728,0.896667,0.00664776,0.00397881,0.00144889,0.00728308,0.00334349,0.413241,0.00420958,0.0426855,741,827,-15.4728,-0.896674
-476,197,0,0,0,0,0,0,0,0,0,-1,748,827,0,0
-469,197,0,0,0,0,0,0,0,0,0,-1,755,827,0,0
-462,197,0,0,0,0,0,0,0,0,0,-1,762,827,0,0
-455,197,0,0,0,0,0,0,0,0,0,-1,769,827,0,0
-448,197,0,0,0,0,0,0,0,0,0,-1,776,827,0,0
-441,197,0,0,0,0,0,0,0,0,0,-1,783,827,0,0
-434,197,0,0,0,0,0,0,0,0,0,-1,790,827,0,0
-427,197,0,0,0,0,0,0,0,0,0,-1,797,827,0,0
-420,197,0,0,0,0,0,0,0,0,0,-1,804,827,0,0
-413,197,0,0,0,0,0,0,0,0,0,-1,811,827,0,0
-406,197,0,0,0,0,0,0,0,0,0,-1,818,827,0,0
-399,197,0,0,0,0,0,0,0,0,0,-1,825,827,0,0
-392,197,0,0,0,0,0,0,0,0,0,-1,832,827,0,0
-385,197,0,0,0,0,0,0,0,0,0,-1,839,827,0,0
-378,197,0,0,0,0,0,0,0,0,0,-1,846,827,0,0
-371,197,0,0,0,0,0,0,0,0,0,-1,853,827,0,0
-364,197,0,0,0,0,0,0,0,0,0,-1,860,827,0,0
-357,197,0,0,0,0,0,0,0,0,0,-1,867,827,0,0
-350,197,0,0,0,0,0,0,0,0,0,-1,874,827,0,0
-343,197,0,0,0,0,0,0,0,0,0,-1,881,827,0,0
-336,197,0,0,0,0,0,0,0,0,0,-1,888,827,0,0
-329,197,0,0,0,0,0,0,0,0,0,-1,895,827,0,0
-322,197,0,0,0,0,0,0,0,0,0,-1,902,827,0,0
-315,197,0,0,0,0,0,0,0,0,0,-1,909,827,0,0
-308,197,0,0,0,0,0,0,0,0,0,-1,916,827,0,0
-301,197,0,0,0,0,0,0,0,0,0,-1,923,827,0,0
-294,197,0,0,0,0,0,0,0,0,0,-1,930,827,0,0
-287,197,0,0,0,0,0,0,0,0,0,-1,937,827,0,0
-280,197,0,0,0,0,0,0,0,0,0,-1,944,827,0,0
-273,197,0,0,0,0,0,0,0,0,0,-1,951,827,0,0
-266,197,0,0,0,0,0,0,0,0,0,-1,958,827,0,0
-259,197,0,0,0,0,0,0,0,0,0,-1,965,827,0,0
-252,197,0,0,0,0,0,0,0,0,0,-1,972,827,0,0
-245,197,0,0,0,0,0,0,0,0,0,-1,979,827,0,0
-238,197,0,0,0,0,0,0,0,0,0,-1,986,827,0,0
-231,197,0,0,0,0,0,0,0,0,0,-1,993,827,0,0
-224,197,0,0,0,0,0,0,0,0,0,-1,1000,827,0,0
-217,197,0,0,0,0,0,0,0,0,0,-1,1007,827,0,0
-210,197,0,0,0,0,0,0,0,0,0,-1,1014,827,0,0
-203,197,0,0,0,0,0,0,0,0,0,-1,1021,827,0,0
-196,197,0,0,0,0,0,0,0,0,0,-1,1028,827,0,0
-189,197,0,0,0,0,0,0,0,0,0,-1,1035,827,0,0
-182,197,0,0,0,0,0,0,0,0,0,-1,1042,827,0,0
-175,197,0,0,0,0,0,0,0,0,0,-1,1049,827,0,0
-168,197,0,0,0,0,0,0,0,0,0,-1,1056,827,0,0
-161,197,0,0,0,0,0,0,0,0,0,-1,1063,827,0,0
-154,197,0,0,0,0,0,0,0,0,0,-1,1070,827,0,0
-147,197,0,0,0,0,0,0,0,0,0,-1,1077,827,0,0
-140,197,0,0,0,0,0,0,0,0,0,-1,1084,827,0,0
-133,197,0,0,0,0,0,0,0,0,0,-1,1091,827,0,0
-126,197,0,0,0,0,0,0,0,0,0,-1,1098,827,0,0
-119,197,0,0,0,0,0,0,0,0,0,-1,1105,827,0,0
-112,197,0,0,0,0,0,0,0,0,0,-1,1112,827,0,0
-105,197,0,0,0,0,0,0,0,0,0,-1,1119,827,0,0
-98,197,0,0,0,0,0,0,0,0,0,-1,1126,827,0,0
-91,197,0,0,0,0,0,0,0,0,0,-1,1133,827,0,0
-84,197,0,0,0,0,0,0,0,0,0,-1,1140,827,0,0
-77,197,0,0,0,0,0,0,0,0,0,-1,1147,827,0,0
-70,197,0,0,0,0,0,0,0,0,0,-1,1154,827,0,0
-63,197,0,0,0,0,0,0,0,0,0,-1,1161,827,0,0
-56,197,0,0,0,0,0,0,0,0,0,-1,1168,827,0,0
-49,197,0,0,0,0,0,0,0,0,0,-1,1175,827,0,0
-42,197,0,0,0,0,0,0,0,0,0,-1,1182,827,0,0
-35,197,0,0,0,0,0,0,0,0,0,-1,1189,827,0,0
-28,197,0,0,0,0,0,0,0,0,0,-1,1196,827,0,0
-21,197,0,0,0,0,0,0,0,0,0,-1,1203,827,0,0
-14,197,0,0,0,0,0,0,0,0,0,-1,1210,827,0,0
-7,197,0,0,0,0,0,0,0,0,0,-1,1217,827,0,0
0,197,0,0,0,0,0,0,0,0,0,-1,1224,827,0,0
7,197,0,0,0,0,0,0,0,0,0,-1,1231,827,0,0
14,197,0,0,0,0,0,0,0,0,0,-1,1238,827,0,0
21,197,0,0,0,0,0,0,0,0,0,-1,1245,827,0,0
28,197,0,0,0,0,0,0,0,0,0,-1,1252,827,0,0
35,197,0,0,0,0,0,0,0,0,0,-1,1259,827,0,0
42,197,0,0,0,0,0,0,0,0,0,-1,1266,827,0,0
49,197,0,0,0,0,0,0,0,0,0,-1,1273,827,0,0
56,197,0,0,0,0,0,0,0,0,0,-1,1280,827,0,0
63,197,0,0,0,0,0,0,0,0,0,-1,1287,827,0,0
70,197,0,0,0,0,0,0,0,0,0,-1,1294,827,0,0
77,197,0,0,0,0,0,0,0,0,0,-1,1301,827,0,0
84,197,0,0,0,0,0,0,0,0,0,-1,1308,827,0,0
91,197,0,0,0,0,0,0,0,0,0,-1,1315,827,0,0
98,197,0,0,0,0,0,0,0,0,0,-1,1322,827,0,0
105,197,0,0,0,0,0,0,0,0,0,-1,1329,827,0,0
112,197,0,0,0,0,0,0,0,0,0,-1,1336,827,0,0
119,197,0,0,0,0,0,0,0,0,0,-1,1343,827,0,0
126,197,0,0,0,0,0,0,0,0,0,-1,1350,827,0,0
133,197,0,0,0,0,0,0,0,0,0,-1,1357,827,0,0
140,197,0,0,0,0,0,0,0,0,0,-1,1364,827,0,0
147,197,0,0,0,0,0,0,0,0,0,-1,1371,827,0,0
154,197,0,0,0,0,0,0,0,0,0,-1,1378,827,0,0
161,197,0,0,0,0,0,0,0,0,0,-1,1385,827,0,0
168,197,0,0,0,0,0,0,0,0,0,-1,1392,827,0,0
175,197,0,0,0,0,0,0,0,0,0,-1,1399,827,0,0
182,197,0,0,0,0,0,0,0,0,0,-1,1406,827,0,0
189,197,0,0,0,0,0,0,0,0,0,-1,1413,827,0,0
196,197,0,0,0,0,0,0,0,0,0,-1,1420,827,0,0
203,197,0,0,0,0,0,0,0,0,0,-1,1427,827,0,0
210,197,0,0,0,0,0,0,0,0,0,-1,1434,827,0,0
217,197,0,0,0,0,0,0,0,0,0,-1,1441,827,0,0
224,197,0,0,0,0,0,0,0,0,0,-1,1448,827,0,0
231,197,0,0,0,0,0,0,0,0,0,-1,1455,827,0,0
238,197,0,0,0,0,0,0,0,0,0,-1,1462,827,0,0
245,197,0,0,0,0,0,0,0,0,0,-1,1469,827,0,0
252,197,0,0,0,0,0,0,0,0,0,-1,1476,827,0,0
259,197,0,0,0,0,0,0,0,0,0,-1,1483,827,0,0
266,197,0,0,0,0,0,0,0,0,0,-1,1490,827,0,0
273,197,0,0,0,0,0,0,0,0,0,-1,1497,827,0,0
280,197,0,0,0,0,0,0,0,0,0,-1,1504,827,0,0
287,197,0,0,0,0,0,0,0,0,0,-1,1511,827,0,0
294,197,0,0,0,0,0,0,0,0,0,-1,1518,827,0,0
301,197,0,0,0,0,0,0,0,0,0,-1,1525,827,0,0
308,197,0,0,0,0,0,0,0,0,0,-1,1532,827,0,0
315,197,0,0,0,0,0,0,0,0,0,-1,1539,827,0,0
322,197,0,0,0,0,0,0,0,0,0,-1,1546,827,0,0
329,197,0,0,0,0,0,0,0,0,0,-1,1553,827,0,0
336,197,0,0,0,0,0,0,0,0,0,-1,1560,827,0,0
343,197,0,0,0,0,0,0,0,0,0,-1,1567,827,0,0
350,197,0,0,0,0,0,0,0,0,0,-1,1574,827,0,0
357,197,0,0,0,0,0,0,0,0,0,-1,1581,827,0,0
364,197,0,0,0,0,0,0,0,0,0,-1,1588,827,0,0
371,197,0,0,0,0,0,0,0,0,0,-1,1595,827,0,0
378,197,0,0,0,0,0,0,0,0,0,-1,1602,827,0,0
385,197,0,0,0,0,0,0,0,0,0,-1,1609,827,0,0
392,197,0,0,0,0,0,0,0,0,0,-1,1616,827,0,0
399,197,0,0,0,0,0,0,0,0,0,-1,1623,827,0,0
406,197,0,0,0,0,0,0,0,0,0,-1,1630,827,0,0
413,197,0,0,0,0,0,0,0,0,0,-1,1637,827,0,0
420,197,0,0,0,0,0,0,0,0,0,-1,1644,827,0,0
427,197,0,0,0,0,0,0,0,0,0,-1,1651,827,0,0
434,197,0,0,0,0,0,0,0,0,0,-1,1658,827,0,0
441,197,0,0,0,0,0,0,0,0,0,-1,1665,827,0,0
448,197,0,0,0,0,0,0,0,0,0,-1,1672,827,0,0
455,197,0,0,0,0,0,0,0,0,0,-1,1679,827,0,0
462,197,0,0,0,0,0,0,0,0,0,-1,1686,827,0,0
469,197,0,0,0,0,0,0,0,0,0,-1,1693,827,0,0
476,197,0,0,0,0,0,0,0,0,0,-1,1700,827,0,0
483,197,0,0,0,0,0,0,0,0,0,-1,1707,827,0,0
490,197,0,0,0,0,0,0,0,0,0,-1,1714,827,0,0
497,197,0,0,0,0,0,0,0,0,0,-1,1721,827,0,0
504,197,0,0,0,0,0,0,0,0,0,-1,1728,827,0,0
511,197,0,0,0,0,0,0,0,0,0,-1,1735,827,0,0
518,197,0,0,0,0,0,0,0,0,0,-1,1742,827,0,0
525,197,0,0,0,0,0,0,0,0,0,-1,1749,827,0,0
532,197,0,0,0,0,0,0,0,0,0,-1,1756,827,0,0
539,197,0,0,0,0,0,0,0,0,0,-1,1763,827,0,0
546,197,0,0,0,0,0,0,0,0,0,-1,1770,827,0,0
553,197,0,0,0,0,0,0,0,0,0,-1,1777,827,0,0
560,197,0,0,0,0,0,0,0,0,0,-1,1784,827,0,0
567,197,0,0,0,0,0,0,0,0,0,-1,1791,827,0,0
574,197,0,0,0,0,0,0,0,0,0,-1,1798,827,0,0
581,197,0,0,0,0,0,0,0,0,0,-1,1805,827,0,0
588,197,0,0,0,0,0,0,0,0,0,-1,1812,827,0,0
595,197,0,0,0,0,0,0,0,0,0,-1,1819,827,0,0
602,197,22.7928,2.87708,0,0,0,0,0,0,0,-1,1826,827,22.7929,-2.87711
609,197,22.7704,2.72638,0,0,0,0,0,0,0,-1,1833,827,22.7704,-2.7264
616,197,22.8984,2.61853,0,0,0,0,0,0,0,-1,1840,827,22.8985,-2.6185
623,197,22.9087,2.59814,-0.00100834,-0.000947064,-0.000689178,-0.000287845,-0.00166756,-0.807612,0.00102927,0.0326595,1847,827,22.9087,-2.59816
630,197,22.9216,2.6557,-0.00194151,-0.00120477,-0.00154181,1.20613e-05,-0.00315834,-0.90266,0.00210959,0.0290816,1854,827,22.9216,-2.65573
637,197,22.8926,2.75037,-0.00258202,-0.00153863,-0.00223929,0.000238932,-0.00435958,-0.899844,0.00298922,0.0271952,1861,827,22.8926,-2.75034
644,197,22.8734,2.73981,-0.00287946,-0.00190161,-0.00265962,0.000313656,-0.00509472,-0.876299,0.00350571,0.033432,1868,827,22.8734,-2.73984
651,197,22.9832,2.6684,-0.00287501,-0.00210673,-0.00291303,0.000447376,-0.00542911,-0.850955,0.00377738,0.0436535,1875,827,22.9832,-2.66839
658,197,23.0585,2.72546,0,0,0,0,0,0,0,-1,1882,827,23.0585,-2.72544
665,197,14.0618,1.80304,0,0,0,0,0,0,0,-1,1889,827,14.0617,-1.80303
672,197,18.1946,1.72119,0,0,0,0,0,0,0,-1,1896,827,18.1945,-1.72118
679,197,18.136,2.1203,-0.00166862,-0.00207037,-0.00260044,0.000738695,-0.00447769,-0.746851,0.00325938,0.0273956,1903,827,18.136,-2.12031
686,197,18.0746,2.38959,-0.00109096,-0.00180043,-0.00231075,0.000892128,-0.00378352,-0.709236,0.00286638,0.016076,1910,827,18.0745,-2.38958
693,197,18.0463,2.64703,-0.000679761,-0.00131561,-0.00190721,0.000935843,-0.00293121,-0.70281,0.00232961,0.0157123,1917,827,18.0463,-2.64704
700,197,18.0754,2.90375,-0.00017816,-0.00109046,-0.00123571,0.000682903,-0.00195152,-0.608587,0.00157868,0.0201274,1924,827,18.0754,-2.90375
707,197,18.1112,3.10223,0.000698647,-0.000676787,-0.00015842,0.000716657,-0.000694798,-0.113204,0.000814936,0.00841982,1931,827,18.1112,-3.10221
714,197,18.0825,3.3078,0.00163507,-0.00106612,0.000893274,0.00190375,-0.0013348,0.292171,0.00187937,0.0107884,1938,827,18.0825,-3.30782
721,197,18.0645,3.52155,0.00274254,-0.00204807,0.00108499,0.00297681,-0.00228234,0.212658,0.00304519,0.011745,1945,827,18.0645,-3.52153
728,197,18.0432,3.74274,0.00515142,-0.00399238,0.000951979,0.00524948,-0.00409044,0.102645,0.00540623,0.0106504,1952,827,18.0432,-3.74276
735,197,18.0326,3.95685,0.00825073,-0.00633292,0.000839329,0.00829887,-0.00638107,0.0573006,0.00849954,0.0112012,1959,827,18.0326,-3.95685
742,197,18.0475,4.15027,0.0119555,-0.00973714,0.000324402,0.0119603,-0.00974199,0.01495,0.0125516,0.0195863,1966,827,18.0475,-4.15029
749,197,18.0562,4.33081,0.0173006,-0.0143751,-0.000868518,0.0173244,-0.0143989,-0.0273916,0.0183414,0.0406547,1973,827,18.0562,-4.33082
756,197,18.0729,4.51727,0.0249205,-0.0204096,-0.00307579,0.0251282,-0.0206174,-0.0674411,0.026454,0.0476193,1980,827,18.0729,-4.5173
763,197,18.095,4.71667,0.0354975,-0.027942,-0.00668506,0.0361943,-0.0286388,-0.103857,0.037516,0.04933,1987,827,18.0949,-4.71667
770,197,17.7017,4.16229,0.0498458,-0.036964,-0.012089,0.0514978,-0.038616,-0.135817,0.0522042,0.0469319,1994,827,17.7017,-4.16228
777,197,0,0,0,0,0,0,0,0,0,-1,2001,827,0,0
784,197,0,0,0,0,0,0,0,0,0,-1,2008,827,0,0
791,197,0,0,0,0,0,0,0,0,0,-1,2015,827,0,0
798,197,0,0,0,0,0,0,0,0,0,-1,2022,827,0,0
805,197,0,0,0,0,0,0,0,0,0,-1,2029,827,0,0
812,197,0,0,0,0,0,0,0,0,0,-1,2036,827,0,0
-700,190,0,0,0,0,0,0,0,0,0,-1,524,834,0,0
-693,190,0,0,0,0,0,0,0,0,0,-1,531,834,0,0
-686,190,0,0,0,0,0,0,0,0,0,-1,538,834,0,0
-679,190,0,0,0,0,0,0,0,0,0,-1,545,834,0,0
-672,190,0,0,0,0,0,0,0,0,0,-1,552,834,0,0
-665,190,0,0,0,0,0,0,0,0,0,-1,559,834,0,0
-658,190,-15.928,1.50739,0,0,0,0,0,0,0,-1,566,834,-15.928,-1.50739
-651,190,-15.4865,1.51111,0,0,0,0,0,0,0,-1,573,834,-15.4864,-1.5111
-644,190,-14.5498,1.65753,0.0629126,0.000645743,0.0443752,0.0859866,-0.0224283,0.4795,0.0660816,0.0474946,580,834,-14.5498,-1.65751
-637,190,-13.5961,1.83789,0.0517955,-0.00404654,0.0352452,0.068839,-0.0210901,0.450417,0.0543054,0.0496279,587,834,-13.5961,-1.83791
-630,190,-12.5249,2.07751,0.0413844,-0.00618037,0.0276674,0.0540861,-0.0188821,0.430383,0.043732,0.0470089,594,834,-12.5249,-2.0775
-623,190,-11.4843,2.08832,0.0321181,-0.0065723,0.0214825,0.0416819,-0.0161361,0.418849,0.0344502,0.047281,601,834,-11.4843,-2.08833
-616,190,-11.6777,1.63379,0.0242449,-0.00595553,0.0164838,0.0314994,-0.01321,0.414589,0.0265231,0.045521,608,834,-11.6777,-1.63379
-609,190,-11.7144,1.67621,0.017899,-0.00550342,0.0121526,0.023068,-0.0106724,0.402159,0.0199134,0.0242889,615,834,-11.7144,-1.67622
-602,190,-11.7306,1.55023,0.0125824,-0.00465739,0.00887949,0.0163378,-0.00841278,0.400115,0.0145319,0.0148378,622,834,-11.7306,-1.55024
-595,190,-11.7356,1.37067,0.00837457,-0.00318304,0.00646228,0.011265,-0.00607347,0.420587,0.0101588,0.0170107,629,834,-11.7356,-1.37066
-588,190,-11.7487,1.16205,0.00496725,-0.0019305,0.00409322,0.00687087,-0.00383411,0.435312,0.00626287,0.0145015,636,834,-11.7487,-1.16206
-581,190,-11.7504,0.973755,0.00261527,-0.000968213,0.00273998,0.00409734,-0.00245028,0.495833,0.00381993,0.0102356,643,834,-11.7503,-0.973763
-574,190,-11.7311,0.77356,0.00107684,-0.000546336,0.00201673,0.00243916,-0.00190866,0.5941,0.00251643,0.0102335,650,834,-11.7311,-0.77358
-567,190,-11.7322,0.538879,0.000135761,5.20206e-05,0.00121635,0.00131096,-0.00112318,0.768193,0.00140674,0.0126494,657,834,-11.7323,-0.53885
-560,190,-11.7833,0.325928,-0.000377391,0.000530853,0.000883229,0.00106987,-0.000916406,1.02285,0.00114792,0.0211475,664,834,-11.7833,-0.325949
-553,190,-11.8043,0.151672,-0.0004807,0.000883317,0.00119833,0.00158013,-0.00117751,1.0441,0.00159777,0.0185661,671,834,-11.8043,-0.151655
-546,190,-11.7529,-0.031189,-0.000862246,0.00104189,0.00124811,0.00165961,-0.00147996,1.11122,0.00181362,0.0356355,678,834,-11.7529,0.031203
-539,190,-11.8116,-0.17749,0,0,0,0,0,0,0,-1,685,834,-11.8116,0.17749
-532,190,-12.0945,-0.293518,0,0,0,0,0,0,0,-1,692,834,-12.0945,0.293535
-525,190,-15.6787,0.772461,0,0,0,0,0,0,0,-1,699,834,-15.6787,-0.772439
-518,190,-15.2905,1.25488,-0.000856527,0.00277449,0.0021048,0.0037386,-0.00182063,1.14127,0.00327268,0.049709,706,834,-15.2906,-1.25485
-511,190,-15.3961,0.914734,-0.000308517,0.00315007,0.00239294,0.00437317,-0.00153162,1.09829,0.00353827,0.0437539,713,834,-15.3961,-0.914709
-504,190,-15.1635,1.57666,0.000721779,0.00341261,0.00266735,0.00505465,-0.000920261,1.01898,0.00371472,0.0440531,720,834,-15.1635,-1.57667
-497,190,-15.1734,1.75427,0.00256828,0.00356216,0.00287648,0.0059843,0.000146131,0.870934,0.00394173,0.0463129,727,834,-15.1734,-1.75425
-490,190,-14.9042,2.51837,0,0,0,0,0,0,0,-1,734,834,-14.9042,-2.51835
-483,190,0,0,0,0,0,0,0,0,0,-1,741,834,0,0
-476,190,0,0,0,0,0,0,0,0,0,-1,748,834,0,0
-469,190,0,0,0,0,0,0,0,0,0,-1,755,834,0,0
-462,190,0,0,0,0,0,0,0,0,0,-1,762,834,0,0
-455,190,0,0,0,0,0,0,0,0,0,-1,769,834,0,0
-448,190,0,0,0,0,0,0,0,0,0,-1,776,834,0,0
-441,190,0,0,0,0,0,0,0,0,0,-1,783,834,0,0
-434,190,0,0,0,0,0,0,0,0,0,-1,790,834,0,0
-427,190,0,0,0,0,0,0,0,0,0,-1,797,834,0,0
-420,190,0,0,0,0,0,0,0,0,0,-1,804,834,0,0
-413,190,0,0,0,0,0,0,0,0,0,-1,811,834,0,0
-406,190,0,0,0,0,0,0,0,0,0,-1,818,834,0,0
-399,190,0,0,0,0,0,0,0,0,0,-1,825,834,0,0
-392,190,0,0,0,0,0,0,0,0,0,-1,832,834,0,0
-385,190,0,0,0,0,0,0,0,0,0,-1,839,834,0,0
-378,190,0,0,0,0,0,0,0,0,0,-1,846,834,0,0
-371,190,0,0,0,0,0,0,0,0,0,-1,853,834,0,0
-364,190,0,0,0,0,0,0,0,0,0,-1,860,834,0,0
-357,190,0,0,0,0,0,0,0,0,0,-1,867,834,0,0
-350,190,0,0,0,0,0,0,0,0,0,-1,874,834,0,0
-343,190,0,0,0,0,0,0,0,0,0,-1,881,834,0,0
-336,190,0,0,0,0,0,0,0,0,0,-1,888,834,0,0
-329,190,0,0,0,0,0,0,0,0,0,-1,895,834,0,0
-322,190,0,0,0,0,0,0,0,0,0,-1,902,834,0,0
-315,190,0,0,0,0,0,0,0,0,0,-1,909,834,0,0
-308,190,0,0,0,0,0,0,0,0,0,-1,916,834,0,0
-301,190,0,0,0,0,0,0,0,0,0,-1,923,834,0,0
-294,190,0,0,0,0,0,0,0,0,0,-1,930,834,0,0
-287,190,0,0,0,0,0,0,0,0,0,-1,937,834,0,0
-280,190,0,0,0,0,0,0,0,0,0,-1,944,834,0,0
-273,190,0,0,0,0,0,0,0,0,0,-1,951,834,0,0
-266,190,0,0,0,0,0,0,0,0,0,-1,958,834,0,0
-259,190,0,0,0,0,0,0,0,0,0,-1,965,834,0,0
-252,190,0,0,0,0,0,0,0,0,0,-1,972,834,0,0
-245,190,0,0,0,0,0,0,0,0,0,-1,979,834,0,0
-238,190,0,0,0,0,0,0,0,0,0,-1,986,834,0,0
-231,190,0,0,0,0,0,0,0,0,0,-1,993,834,0,0
-224,190,0,0,0,0,0,0,0,0,0,-1,1000,834,0,0
-217,190,0,0,0,0,0,0,0,0,0,-1,1007,834,0,0
-210,190,0,0,0,0,0,0,0,0,0,-1,1014,834,0,0
-203,190,0,0,0,0,0,0,0,0,0,-1,1021,834,0,0
-196,190,0,0,0,0,0,0,0,0,0,-1,1028,834,0,0
-189,190,0,0,0,0,0,0,0,0,0,-1,1035,834,0,0
-182,190,0,0,0,0,0,0,0,0,0,-1,1042,834,0,0
-175,190,0,0,0,0,0,0,0,0,0,-1,1049,834,0,0
-168,190,0,0,0,0,0,0,0,0,0,-1,1056,834,0,0
-161,190,0,0,0,0,0,0,0,0,0,-1,1063,834,0,0
-154,190,0,0,0,0,0,0,0,0,0,-1,1070,834,0,0
-147,190,0,0,0,0,0,0,0,0,0,-1,1077,834,0,0
-140,190,0,0,0,0,0,0,0,0,0,-1,1084,834,0,0
-133,190,0,0,0,0,0,0,0,0,0,-1,1091,834,0,0
-126,190,0,0,0,0,0,0,0,0,0,-1,1098,834,0,0
-119,190,0,0,0,0,0,0,0,0,0,-1,1105,834,0,0
-112,190,0,0,0,0,0,0,0,0,0,-1,1112,834,0,0
-105,190,0,0,0,0,0,0,0,0,0,-1,1119,834,0,0
-98,190,0,0,0,0,0,0,0,0,0,-1,1126,834,0,0
-91,190,0,0,0,0,0,0,0,0,0,-1,1133,834,0,0
-84,190,0,0,0,0,0,0,0,0,0,-1,1140,834,0,0
-77,190,0,0,0,0,0,0,0,0,0,-1,1147,834,0,0
-70,190,0,0,0,0,0,0,0,0,0,-1,1154,834,0,0
-63,190,0,0,0,0,0,0,0,0,0,-1,1161,834,0,0
-56,190,0,0,0,0,0,0,0,0,0,-1,1168,834,0,0
-49,190,0,0,0,0,0,0,0,0,0,-1,1175,834,0,0
-42,190,0,0,0,0,0,0,0,0,0,-1,1182,834,0,0
-35,190,0,0,0,0,0,0,0,0,0,-1,1189,834,0,0
-28,190,0,0,0,0,0,0,0,0,0,-1,1196,834,0,0
-21,190,0,0,0,0,0,0,0,0,0,-1,1203,834,0,0
-14,190,0,0,0,0,0,0,0,0,0,-1,1210,834,0,0
-7,190,0,0,0,0,0,0,0,0,0,-1,1217,834,0,0
0,190,0,0,0,0,0,0,0,0,0,-1,1224,834,0,0
7,190,0,0,0,0,0,0,0,0,0,-1,1231,834,0,0
14,190,0,0,0,0,0,0,0,0,0,-1,1238,834,0,0
21,190,0,0,0,0,0,0,0,0,0,-1,1245,834,0,0
28,190,0,0,0,0,0,0,0,0,0,-1,1252,834,0,0
35,190,0,0,0,0,0,0,0,0,0,-1,1259,834,0,0
42,190,0,0,0,0,0,0,0,0,0,-1,1266,834,0,0
49,190,0,0,0,0,0,0,0,0,0,-1,1273,834,0,0
56,190,0,0,0,0,0,0,0,0,0,-1,1280,834,0,0
63,190,0,0,0,0,0,0,0,0,0,-1,1287,834,0,0
70,190,0,0,0,0,0,0,0,0,0,-1,1294,834,0,0
77,190,0,0,0,0,0,0,0,0,0,-1,1301,834,0,0
84,190,0,0,0,0,0,0,0,0,0,-1,1308,834,0,0
91,190,0,0,0,0,0,0,0,0,0,-1,1315,834,0,0
98,190,0,0,0,0,0,0,0,0,0,-1,1322,834,0,0
105,190,0,0,0,0,0,0,0,0,0,-1,1329,834,0,0
112,190,0,0,0,0,0,0,0,0,0,-1,1336,834,0,0
119,190,0,0,0,0,0,0,0,0,0,-1,1343,834,0,0
126,190,0,0,0,0,0,0,0,0,0,-1,1350,834,0,0
133,190,0,0,0,0,0,0,0,0,0,-1,1357,834,0,0
140,190,0,0,0,0,0,0,0,0,0,-1,1364,834,0,0
147,190,0,0,0,0,0,0,0,0,0,-1,1371,834,0,0
154,190,0,0,0,0,0,0,0,0,0,-1,1378,834,0,0
161,190,0,0,0,0,0,0,0,0,0,-1,1385,834,0,0
168,190,0,0,0,0,0,0,0,0,0,-1,1392,834,0,0
175,190,0,0,0,0,0,0,0,0,0,-1,1399,834,0,0
182,190,0,0,0,0,0,0,0,0,0,-1,1406,834,0,0
189,190,0,0,0,0,0,0,0,0,0,-1,1413,834,0,0
196,190,0,0,0,0,0,0,0,0,0,-1,1420,834,0,0
203,190,0,0,0,0,0,0,0,0,0,-1,1427,834,0,0
210,190,0,0,0,0,0,0,0,0,0,-1,1434,834,0,0
217,190,0,0,0,0,0,0,0,0,0,-1,1441,834,0,0
224,190,0,0,0,0,0,0,0,0,0,-1,1448,834,0,0
231,190,0,0,0,0,0,0,0,0,0,-1,1455,834,0,0
238,190,0,0,0,0,0,0,0,0,0,-1,1462,834,0,0
245,190,0,0,0,0,0,0,0,0,0,-1,1469,834,0,0
252,190,0,0,0,0,0,0,0,0,0,-1,1476,834,0,0
259,190,0,0,0,0,0,0,0,0,0,-1,1483,834,0,0
266,190,0,0,0,0,0,0,0,0,0,-1,1490,834,0,0
273,190,0,0,0,0,0,0,0,0,0,-1,1497,834,0,0
280,190,0,0,0,0,0,0,0,0,0,-1,1504,834,0,0
287,190,0,0,0,0,0,0,0,0,0,-1,1511,834,0,0
294,190,0,0,0,0,0,0,0,0,0,-1,1518,834,0,0
301,190,0,0,0,0,0,0,0,0,0,-1,1525,834,0,0
308,190,0,0,0,0,0,0,0,0,0,-1,1532,834,0,0
315,190,0,0,0,0,0,0,0,0,0,-1,1539,834,0,0
322,190,0,0,0,0,0,0,0,0,0,-1,1546,834,0,0
329,190,0,0,0,0,0,0,0,0,0,-1,1553,834,0,0
336,190,0,0,0,0,0,0,0,0,0,-1,1560,834,0,0
343,190,0,0,0,0,0,0,0,0,0,-1,1567,834,0,0
350,190,0,0,0,0,0,0,0,0,0,-1,1574,834,0,0
357,190,0,0,0,0,0,0,0,0,0,-1,1581,834,0,0
364,190,0,0,0,0,0,0,0,0,0,-1,1588,834,0,0
371,190,0,0,0,0,0,0,0,0,0,-1,1595,834,0,0
378,190,0,0,0,0,0,0,0,0,0,-1,1602,834,0,0
385,190,0,0,0,0,0,0,0,0,0,-1,1609,834,0,0
392,190,0,0,0,0,0,0,0,0,0,-1,1616,834,0,0
399,190,0,0,0,0,0,0,0,0,0,-1,1623,834,0,0
406,190,0,0,0,0,0,0,0,0,0,-1,1630,834,0,0
413,190,0,0,0,0,0,0,0,0,0,-1,1637,834,0,0
420,190,0,0,0,0,0,0,0,0,0,-1,1644,834,0,0
427,190,0,0,0,0,0,0,0,0,0,-1,1651,834,0,0
434,190,0,0,0,0,0,0,0,0,0,-1,1658,834,0,0
441,190,0,0,0,0,0,0,0,0,0,-1,1665,834,0,0
448,190,0,0,0,0,0,0,0,0,0,-1,1672,834,0,0
455,190,0,0,0,0,0,0,0,0,0,-1,1679,834,0,0
462,190,0,0,0,0,0,0,0,0,0,-1,1686,834,0,0
469,190,0,0,0,0,0,0,0,0,0,-1,1693,834,0,0
476,190,0,0,0,0,0,0,0,0,0,-1,1700,834,0,0
483,190,0,0,0,0,0,0,0,0,0,-1,1707,834,0,0
490,190,0,0,0,0,0,0,0,0,0,-1,1714,834,0,0
497,190,0,0,0,0,0,0,0,0,0,-1,1721,834,0,0
504,190,0,0,0,0,0,0,0,0,0,-1,1728,834,0,0
511,190,0,0,0,0,0,0,0,0,0,-1,1735,834,0,0
518,190,0,0,0,0,0,0,0,0,0,-1,1742,834,0,0
525,190,0,0,0,0,0,0,0,0,0,-1,1749,834,0,0
532,190,0,0,0,0,0,0,0,0,0,-1,1756,834,0,0
539,190,0,0,0,0,0,0,0,0,0,-1,1763,834,0,0
546,190,0,0,0,0,0,0,0,0,0,-1,1770,834,0,0
553,190,0,0,0,0,0,0,0,0,0,-1,1777,834,0,0
560,190,0,0,0,0,0,0,0,0,0,-1,1784,834,0,0
567,190,0,0,0,0,0,0,0,0,0,-1,1791,834,0,0
574,190,0,0,0,0,0,0,0,0,0,-1,1798,834,0,0
581,190,0,0,0,0,0,0,0,0,0,-1,1805,834,0,0
588,190,0,0,0,0,0,0,0,0,0,-1,1812,834,0,0
595,190,0,0,0,0,0,0,0,0,0,-1,1819,834,0,0
602,190,22.8062,2.90387,0,0,0,0,0,0,0,-1,1826,834,22.8062,-2.90388
609,190,22.8002,2.95135,-0.000263928,-0.0016622,2.23677e-05,-0.00026357,-0.00166256,0.0159911,0.0010318,0.042195,1833,834,22.8002,-2.95134
616,190,22.825,2.6701,-0.000126901,-0.00152216,-4.75635e-05,-0.000125281,-0.00152378,-0.0340366,0.000976776,0.0382271,1840,834,22.825,-2.6701
623,190,22.9268,2.39886,-0.000492046,-0.00161341,-0.00063073,-0.000208818,-0.00189664,-0.422062,0.00120089,0.0365087,1847,834,22.9268,-2.39889
630,190,22.9088,2.64539,-0.000894304,-0.00184543,-0.0013367,4.89084e-05,-0.00278864,-0.614493,0.00187561,0.0407839,1854,834,22.9088,-2.64539
637,190,22.8781,2.73187,-0.0012599,-0.00209669,-0.001945,0.000311195,-0.00366779,-0.679456,0.00255525,0.0354788,1861,834,22.8781,-2.73189
644,190,22.8652,2.77826,-0.00143831,-0.00231792,-0.00230111,0.000464653,-0.00422088,-0.690974,0.0029809,0.0282057,1868,834,22.8652,-2.77823
651,190,22.8512,2.83191,-0.00142408,-0.00238808,-0.00249958,0.000639546,-0.00445171,-0.69015,0.00320235,0.0379426,1875,834,22.8512,-2.83193
658,190,23.0283,2.68939,-0.00141019,-0.00235779,-0.00260262,0.000761412,-0.00452939,-0.695361,0.00330278,0.0476726,1882,834,23.0283,-2.68938
665,190,23.1741,2.56665,0,0,0,0,0,0,0,-1,1889,834,23.174,-2.56666
672,190,18.5902,2.06525,0,0,0,0,0,0,0,-1,1896,834,18.5902,-2.06525
679,190,18.3928,2.31616,-0.000760963,-0.00197331,-0.00220706,0.000921653,-0.00365593,-0.651377,0.00279561,0.0333661,1903,834,18.3929,-2.31619
686,190,18.2688,2.43176,-0.000489509,-0.00167617,-0.00204399,0.00104552,-0.0032112,-0.64414,0.00256145,0.0144955,1910,834,18.2688,-2.43177
693,190,18.2889,2.63354,-0.000351182,-0.0012921,-0.00182056,0.00105872,-0.002702,-0.658956,0.00223928,0.0124084,1917,834,18.289,-2.63354
700,190,18.2871,2.86072,-0.000201678,-0.00112374,-0.00136807,0.000780953,-0.00210637,-0.622877,0.00172455,0.0103539,1924,834,18.2872,-2.86072
707,190,18.3075,3.0816,0.000188391,-0.000778565,-0.000644334,0.000510467,-0.00110064,-0.463535,0.000950749,0.0116875,1931,834,18.3075,-3.08163
714,190,18.325,3.30304,0.000696131,-0.00113706,-7.47775e-06,0.000696162,-0.00113709,-0.004079,0.00106858,0.0112826,1938,834,18.325,-3.30302
721,190,18.3102,3.52405,0.00151298,-0.00199002,-0.000201789,0.00152457,-0.0020016,-0.0573517,0.00204204,0.0110682,1945,834,18.3102,-3.52407
728,190,18.2765,3.73181,0.0038863,-0.00380344,-0.000794887,0.00396761,-0.00388475,-0.101934,0.00453365,0.0132652,1952,834,18.2765,-3.73179
735,190,18.2732,3.93628,0.00715401,-0.00591721,-0.00137391,0.00729686,-0.00606006,-0.103601,0.00772263,0.0119441,1959,834,18.2732,-3.9363
742,190,18.2465,4.18713,0.0110982,-0.00899524,-0.0022826,0.0113542,-0.00925127,-0.111703,0.0119172,0.0156151,1966,834,18.2464,-4.18712
749,190,18.2308,4.3576,0.0168262,-0.013119,-0.0038557,0.0173146,-0.0136075,-0.126021,0.0178956,0.0379562,1973,834,18.2309,-4.35761
756,190,18.2854,4.61414,0,0,0,0,0,0,0,-1,1980,834,18.2854,-4.61411
763,190,17.5251,5.09387,0,0,0,0,0,0,0,-1,1987,834,17.5252,-5.09385
770,190,18.2133,4.60248,0.0516776,-0.0331112,-0.0146784,0.0541468,-0.0355804,-0.166658,0.0521724,0.0446782,1994,834,18.2132,-4.60246
777,190,18.7622,4.05487,0.0716487,-0.0425109,-0.0212034,0.0754597,-0.0463219,-0.177836,0.0709783,0.0432256,2001,834,18.7622,-4.05489
784,190,0,0,0,0,0,0,0,0,0,-1,2008,834,0,0
791,190,0,0,0,0,0,0,0,0,0,-1,2015,834,0,0
798,190,0,0,0,0,0,0,0,0,0,-1,2022,834,0,0
805,190,0,0,0,0,0,0,0,0,0,-1,2029,834,0,0
812,190,0,0,0,0,0,0,0,0,0,-1,2036,834,0,0
-700,183,0,0,0,0,0,0,0,0,0,-1,524,841,0,0
-693,183,0,0,0,0,0,0,0,0,0,-1,531,841,0,0
-686,183,0,0,0,0,0,0,0,0,0,-1,538,841,0,0
-679,183,0,0,0,0,0,0,0,0,0,-1,545,841,0,0
-672,183,0,0,0,0,0,0,0,0,0,-1,552,841,0,0
-665,183,0,0,0,0,0,0,0,0,0,-1,559,841,0,0
-658,183,-16.1708,1.45514,0.0799006,0.0380036,0.0674597,0.12959,-0.0116854,0.634852,0.0905399,0.0487346,566,841,-16.1708,-1.45515
-651,183,-15.6804,1.49799,0.0696686,0.0228081,0.0538882,0.105,-0.0125231,0.58033,0.0745258,0.0455124,573,841,-15.6803,-1.49799
-644,183,-15.1185,1.49438,0.0590286,0.0113113,0.0423485,0.0837769,-0.013437,0.528866,0.060827,0.0444941,580,841,-15.1186,-1.49438
-637,183,-11.8042,2.25653,0,0,0,0,0,0,0,-1,587,841,-11.8042,-2.25655
-630,183,-11.8066,2.15387,0.0385151,-0.0010416,0.0249665,0.0505881,-0.0131146,0.450416,0.0388421,0.0457236,594,841,-11.8066,-2.15385
-623,183,-11.7518,2.04791,0.029604,-0.00331082,0.0188213,0.0381484,-0.0118552,0.426152,0.0301706,0.0448152,601,841,-11.7518,-2.04794
-616,183,-11.8762,1.88843,0.0220349,-0.0040042,0.0140587,0.0281767,-0.010146,0.411878,0.0229274,0.0376435,608,841,-11.8762,-1.88845
-609,183,-11.9437,1.74994,0.015962,-0.00460773,0.00993996,0.0199803,-0.00862605,0.384173,0.016944,0.0165575,615,841,-11.9437,-1.74992
-602,183,-11.9455,1.57428,0.010844,-0.00434381,0.00699868,0.0135772,-0.00707701,0.372316,0.0121199,0.0107332,622,841,-11.9455,-1.5743
-595,183,-11.9477,1.362,0.0068837,-0.00300891,0.00506218,0.00901494,-0.00514015,0.398488,0.00827388,0.00983065,629,841,-11.9477,-1.36201
-588,183,-11.9598,1.15851,0.00383355,-0.00189549,0.00317988,0.00524888,-0.00331082,0.418762,0.00498399,0.00982934,636,841,-11.9598,-1.15849
-581,183,-11.9698,0.968872,0.0019218,-0.000988077,0.00223303,0.00313206,-0.00219834,0.496665,0.00309321,0.010762,643,841,-11.9698,-0.968871
-574,183,-11.9454,0.787354,0.000654619,-0.000534175,0.00175259,0.00191086,-0.00179042,0.621908,0.00213731,0.0109022,650,841,-11.9454,-0.787378
-567,183,-11.9003,0.559326,-0.000102201,0.000158793,0.00104029,0.00107674,-0.00102015,0.847794,0.00121078,0.019075,657,841,-11.9002,-0.559299
-560,183,-12.0135,0.39386,-0.000364178,0.000776811,0.000704479,0.00111282,-0.00070019,1.12575,0.00105574,0.0228762,664,841,-12.0135,-0.393853
-553,183,-11.9413,0.123413,-0.000266277,0.00128885,0.000975561,0.00175881,-0.00073624,1.12187,0.0014803,0.0187319,671,841,-11.9413,-0.123435
-546,183,-11.8314,-0.0654297,-0.00051307,0.0015795,0.000979392,0.00196636,-0.000899936,1.1946,0.00169261,0.0443146,678,841,-11.8314,0.0654466
-539,183,-11.4786,-0.264343,0,0,0,0,0,0,0,-1,685,841,-11.4786,0.264374
-532,183,-15.341,1.29077,0,0,0,0,0,0,0,-1,692,841,-15.341,-1.29079
-525,183,-15.4036,1.0946,-0.00039186,0.00319393,0.00145342,0.00370904,-0.000906975,1.23019,0.00282399,0.0483905,699,841,-15.4035,-1.09458
-518,183,-15.5064,0.825745,-0.000117946,0.00370635,0.00173785,0.00437808,-0.000789678,1.20196,0.00321444,0.0466745,706,841,-15.5064,-0.825727
-511,183,-15.5806,0.48822,0.000599817,0.00406909,0.00211589,0.0050705,-0.00040159,1.12875,0.00352184,0.0424791,713,841,-15.5806,-0.488222
-504,183,-15.1526,1.57703,0.00192488,0.00417456,0.00256707,0.00585242,0.000247017,0.991888,0.00382193,0.0422339,720,841,-15.1526,-1.57703
-497,183,-15.0578,2.12225,0,0,0,0,0,0,0,-1,727,841,-15.0578,-2.12226
-490,183,-15.1708,1.91772,0,0,0,0,0,0,0,-1,734,841,-15.1708,-1.91771
-483,183,0,0,0,0,0,0,0,0,0,-1,741,841,0,0
-476,183,0,0,0,0,0,0,0,0,0,-1,748,841,0,0
-469,183,0,0,0,0,0,0,0,0,0,-1,755,841,0,0
-462,183,0,0,0,0,0,0,0,0,0,-1,762,841,0,0
-455,183,0,0,0,0,0,0,0,0,0,-1,769,841,0,0
-448,183,0,0,0,0,0,0,0,0,0,-1,776,841,0,0
-441,183,0,0,0,0,0,0,0,0,0,-1,783,841,0,0
-434,183,0,0,0,0,0,0,0,0,0,-1,790,841,0,0
-427,183,0,0,0,0,0,0,0,0,0,-1,797,841,0,0
-420,183,0,0,0,0,0,0,0,0,0,-1,804,841,0,0
-413,183,0,0,0,0,0,0,0,0,0,-1,811,841,0,0
-406,183,0,0,0,0,0,0,0,0,0,-1,818,841,0,0
-399,183,0,0,0,0,0,0,0,0,0,-1,825,841,0,0
-392,183,0,0,0,0,0,0,0,0,0,-1,832,841,0,0
-385,183,0,0,0,0,0,0,0,0,0,-1,839,841,0,0
-378,183,0,0,0,0,0,0,0,0,0,-1,846,841,0,0
-371,183,0,0,0,0,0,0,0,0,0,-1,853,841,0,0
-364,183,0,0,0,0,0,0,0,0,0,-1,860,841,0,0
-357,183,0,0,0,0,0,0,0,0,0,-1,867,841,0,0
-350,183,0,0,0,0,0,0,0,0,0,-1,874,841,0,0
-343,183,0,0,0,0,0,0,0,0,0,-1,881,841,0,0
-336,183,0,0,0,0,0,0,0,0,0,-1,888,841,0,0
-329,183,0,0,0,0,0,0,0,0,0,-1,895,841,0,0
-322,183,0,0,0,0,0,0,0,0,0,-1,902,841,0,0
-315,183,0,0,0,0,0,0,0,0,0,-1,909,841,0,0
-308,183,0,0,0,0,0,0,0,0,0,-1,916,841,0,0
-301,183,0,0,0,0,0,0,0,0,0,-1,923,841,0,0
-294,183,0,0,0,0,0,0,0,0,0,-1,930,841,0,0
-287,183,0,0,0,0,0,0,0,0,0,-1,937,841,0,0
-280,183,0,0,0,0,0,0,0,0,0,-1,944,841,0,0
-273,183,0,0,0,0,0,0,0,0,0,-1,951,841,0,0
-266,183,0,0,0,0,0,0,0,0,0,-1,958,841,0,0
-259,183,0,0,0,0,0,0,0,0,0,-1,965,841,0,0
-252,183,0,0,0,0,0,0,0,0,0,-1,972,841,0,0
-245,183,0,0,0,0,0,0,0,0,0,-1,979,841,0,0
-238,183,0,0,0,0,0,0,0,0,0,-1,986,841,0,0
-231,183,0,0,0,0,0,0,0,0,0,-1,993,841,0,0
-224,183,0,0,0,0,0,0,0,0,0,-1,1000,841,0,0
-217,183,0,0,0,0,0,0,0,0,0,-1,1007,841,0,0
-210,183,0,0,0,0,0,0,0,0,0,-1,1014,841,0,0
-203,183,0,0,0,0,0,0,0,0,0,-1,1021,841,0,0
-196,183,0,0,0,0,0,0,0,0,0,-1,1028,841,0,0
-189,183,0,0,0,0,0,0,0,0,0,-1,1035,841,0,0
-182,183,0,0,0,0,0,0,0,0,0,-1,1042,841,0,0
-175,183,0,0,0,0,0,0,0,0,0,-1,1049,841,0,0
-168,183,0,0,0,0,0,0,0,0,0,-1,1056,841,0,0
-161,183,0,0,0,0,0,0,0,0,0,-1,1063,841,0,0
-154,183,0,0,0,0,0,0,0,0,0,-1,1070,841,0,0
-147,183,0,0,0,0,0,0,0,0,0,-1,1077,841,0,0
-140,183,0,0,0,0,0,0,0,0,0,-1,1084,841,0,0
-133,183,0,0,0,0,0,0,0,0,0,-1,1091,841,0,0
-126,183,0,0,0,0,0,0,0,0,0,-1,1098,841,0,0
-119,183,0,0,0,0,0,0,0,0,0,-1,1105,841,0,0
-112,183,0,0,0,0,0,0,0,0,0,-1,1112,841,0,0
-105,183,0,0,0,0,0,0,0,0,0,-1,1119,841,0,0
-98,183,0,0,0,0,0,0,0,0,0,-1,1126,841,0,0
-91,183,0,0,0,0,0,0,0,0,0,-1,1133,841,0,0
-84,183,0,0,0,0,0,0,0,0,0,-1,1140,841,0,0
-77,183,0,0,0,0,0,0,0,0,0,-1,1147,841,0,0
-70,183,0,0,0,0,0,0,0,0,0,-1,1154,841,0,0
-63,183,0,0,0,0,0,0,0,0,0,-1,1161,841,0,0
-56,183,0,0,0,0,0,0,0,0,0,-1,1168,841,0,0
-49,183,0,0,0,0,0,0,0,0,0,-1,1175,841,0,0
-42,183,0,0,0,0,0,0,0,0,0,-1,1182,841,0,0
-35,183,0,0,0,0,0,0,0,0,0,-1,1189,841,0,0
-28,183,0,0,0,0,0,0,0,0,0,-1,1196,841,0,0
-21,183,0,0,0,0,0,0,0,0,0,-1,1203,841,0,0
-14,183,0,0,0,0,0,0,0,0,0,-1,1210,841,0,0
-7,183,0,0,0,0,0,0,0,0,0,-1,1217,841,0,0
0,183,0,0,0,0,0,0,0,0,0,-1,1224,841,0,0
7,183,0,0,0,0,0,0,0,0,0,-1,1231,841,0,0
14,183,0,0,0,0,0,0,0,0,0,-1,1238,841,0,0
21,183,0,0,0,0,0,0,0,0,0,-1,1245,841,0,0
28,183,0,0,0,0,0,0,0,0,0,-1,1252,841,0,0
35,183,0,0,0,0,0,0,0,0,0,-1,1259,841,0,0
42,183,0,0,0,0,0,0,0,0,0,-1,1266,841,0,0
49,183,0,0,0,0,0,0,0,0,0,-1,1273,841,0,0
56,183,0,0,0,0,0,0,0,0,0,-1,1280,841,0,0
63,183,0,0,0,0,0,0,0,0,0,-1,1287,841,0,0
70,183,0,0,0,0,0,0,0,0,0,-1,1294,841,0,0
77,183,0,0,0,0,0,0,0,0,0,-1,1301,841,0,0
84,183,0,0,0,0,0,0,0,0,0,-1,1308,841,0,0
91,183,0,0,0,0,0,0,0,0,0,-1,1315,841,0,0
98,183,0,0,0,0,0,0,0,0,0,-1,1322,841,0,0
105,183,0,0,0,0,0,0,0,0,0,-1,1329,841,0,0
112,183,0,0,0,0,0,0,0,0,0,-1,1336,841,0,0
119,183,0,0,0,0,0,0,0,0,0,-1,1343,841,0,0
126,183,0,0,0,0,0,0,0,0,0,-1,1350,841,0,0
133,183,0,0,0,0,0,0,0,0,0,-1,1357,841,0,0
140,183,0,0,0,0,0,0,0,0,0,-1,1364,841,0,0
147,183,0,0,0,0,0,0,0,0,0,-1,1371,841,0,0
154,183,0,0,0,0,0,0,0,0,0,-1,1378,841,0,0
161,183,0,0,0,0,0,0,0,0,0,-1,1385,841,0,0
168,183,0,0,0,0,0,0,0,0,0,-1,1392,841,0,0
175,183,0,0,0,0,0,0,0,0,0,-1,1399,841,0,0
182,183,0,0,0,0,0,0,0,0,0,-1,1406,841,0,0
189,183,0,0,0,0,0,0,0,0,0,-1,1413,841,0,0
196,183,0,0,0,0,0,0,0,0,0,-1,1420,841,0,0
203,183,0,0,0,0,0,0,0,0,0,-1,1427,841,0,0
210,183,0,0,0,0,0,0,0,0,0,-1,1434,841,0,0
217,183,0,0,0,0,0,0,0,0,0,-1,1441,841,0,0
224,183,0,0,0,0,0,0,0,0,0,-1,1448,841,0,0
231,183,0,0,0,0,0,0,0,0,0,-1,1455,841,0,0
238,183,0,0,0,0,0,0,0,0,0,-1,1462,841,0,0
245,183,0,0,0,0,0,0,0,0,0,-1,1469,841,0,0
252,183,0,0,0,0,0,0,0,0,0,-1,1476,841,0,0
259,183,0,0,0,0,0,0,0,0,0,-1,1483,841,0,0
266,183,0,0,0,0,0,0,0,0,0,-1,1490,841,0,0
273,183,0,0,0,0,0,0,0,0,0,-1,1497,841,0,0
280,183,0,0,0,0,0,0,0,0,0,-1,1504,841,0,0
287,183,0,0,0,0,0,0,0,0,0,-1,1511,841,0,0
294,183,0,0,0,0,0,0,0,0,0,-1,1518,841,0,0
301,183,0,0,0,0,0,0,0,0,0,-1,1525,841,0,0
308,183,0,0,0,0,0,0,0,0,0,-1,1532,841,0,0
315,183,0,0,0,0,0,0,0,0,0,-1,1539,841,0,0
322,183,0,0,0,0,0,0,0,0,0,-1,1546,841,0,0
329,183,0,0,0,0,0,0,0,0,0,-1,1553,841,0,0
336,183,0,0,0,0,0,0,0,0,0,-1,1560,841,0,0
343,183,0,0,0,0,0,0,0,0,0,-1,1567,841,0,0
350,183,0,0,0,0,0,0,0,0,0,-1,1574,841,0,0
357,183,0,0,0,0,0,0,0,0,0,-1,1581,841,0,0
364,183,0,0,0,0,0,0,0,0,0,-1,1588,841,0,0
371,183,0,0,0,0,0,0,0,0,0,-1,1595,841,0,0
378,183,0,0,0,0,0,0,0,0,0,-1,1602,841,0,0
385,183,0,0,0,0,0,0,0,0,0,-1,1609,841,0,0
392,183,0,0,0,0,0,0,0,0,0,-1,1616,841,0,0
399,183,0,0,0,0,0,0,0,0,0,-1,1623,841,0,0
406,183,0,0,0,0,0,0,0,0,0,-1,1630,841,0,0
413,183,0,0,0,0,0,0,0,0,0,-1,1637,841,0,0
420,183,0,0,0,0,0,0,0,0,0,-1,1644,841,0,0
427,183,0,0,0,0,0,0,0,0,0,-1,1651,841,0,0
434,183,0,0,0,0,0,0,0,0,0,-1,1658,841,0,0
441,183,0,0,0,0,0,0,0,0,0,-1,1665,841,0,0
448,183,0,0,0,0,0,0,0,0,0,-1,1672,841,0,0
455,183,0,0,0,0,0,0,0,0,0,-1,1679,841,0,0
462,183,0,0,0,0,0,0,0,0,0,-1,1686,841,0,0
469,183,0,0,0,0,0,0,0,0,0,-1,1693,841,0,0
476,183,0,0,0,0,0,0,0,0,0,-1,1700,841,0,0
483,183,0,0,0,0,0,0,0,0,0,-1,1707,841,0,0
490,183,0,0,0,0,0,0,0,0,0,-1,1714,841,0,0
497,183,0,0,0,0,0,0,0,0,0,-1,1721,841,0,0
504,183,0,0,0,0,0,0,0,0,0,-1,1728,841,0,0
511,183,0,0,0,0,0,0,0,0,0,-1,1735,841,0,0
518,183,0,0,0,0,0,0,0,0,0,-1,1742,841,0,0
525,183,0,0,0,0,0,0,0,0,0,-1,1749,841,0,0
532,183,0,0,0,0,0,0,0,0,0,-1,1756,841,0,0
539,183,0,0,0,0,0,0,0,0,0,-1,1763,841,0,0
546,183,0,0,0,0,0,0,0,0,0,-1,1770,841,0,0
553,183,0,0,0,0,0,0,0,0,0,-1,1777,841,0,0
560,183,0,0,0,0,0,0,0,0,0,-1,1784,841,0,0
567,183,0,0,0,0,0,0,0,0,0,-1,1791,841,0,0
574,183,0,0,0,0,0,0,0,0,0,-1,1798,841,0,0
581,183,0,0,0,0,0,0,0,0,0,-1,1805,841,0,0
588,183,0,0,0,0,0,0,0,0,0,-1,1812,841,0,0
595,183,0,0,0,0,0,0,0,0,0,-1,1819,841,0,0
602,183,0,0,0,0,0,0,0,0,0,-1,1826,841,0,0
609,183,22.7078,3.03094,-0.00235904,-0.00107206,-0.000589885,-0.000842596,-0.0025885,-1.19982,0.0015245,0.0425488,1833,841,22.7078,-3.03096
616,183,22.6746,2.7453,-0.00117934,-0.00124958,-0.000312258,-0.000900235,-0.00152869,-0.729402,0.000887225,0.0387021,1840,841,22.6745,-2.74532
623,183,22.8129,2.56036,-0.000624285,-0.0014849,-0.000551757,-0.000354878,-0.00175431,-0.454219,0.00107103,0.0405741,1847,841,22.8129,-2.56036
630,183,22.8657,2.6413,-0.000336917,-0.00172115,-0.00100195,0.000188723,-0.00224679,-0.483147,0.00156456,0.0424407,1854,841,22.8658,-2.64129
637,183,22.7922,2.73999,-0.000297909,-0.00196792,-0.00147088,0.000558449,-0.00282427,-0.527236,0.00209397,0.03841,1861,841,22.7923,-2.73997
644,183,22.8068,2.79352,-0.000286506,-0.00215409,-0.00176224,0.000774058,-0.00321465,-0.541762,0.00244235,0.030472,1868,841,22.8068,-2.7935
651,183,22.8495,2.7887,-0.000238765,-0.00220373,-0.00193563,0.000949455,-0.00339195,-0.550553,0.00263543,0.0255964,1875,841,22.8495,-2.78872
658,183,22.9901,2.66925,-0.000260901,-0.00215661,-0.0020257,0.00102774,-0.00344524,-0.566572,0.00270528,0.041741,1882,841,22.9902,-2.66922
665,183,23.1193,2.56732,0,0,0,0,0,0,0,-1,1889,841,23.1193,-2.56731
672,183,18.4945,2.2644,0,0,0,0,0,0,0,-1,1896,841,18.4946,-2.26443
679,183,18.5363,2.34064,-2.73933e-06,-0.00177848,-0.0017577,0.00107861,-0.00285983,-0.551526,0.0023501,0.0402354,1903,841,18.5362,-2.34063
686,183,18.5514,2.43671,3.21119e-05,-0.00157117,-0.00172203,0.00112994,-0.002669,-0.567555,0.00225252,0.0172619,1910,841,18.5514,-2.43671
693,183,18.5475,2.64667,-3.02396e-05,-0.0013055,-0.00163073,0.00108309,-0.00241883,-0.599033,0.00207028,0.013329,1917,841,18.5475,-2.64667
700,183,18.5348,2.8714,-0.000133278,-0.0012052,-0.0013438,0.000777499,-0.00211598,-0.595645,0.0017291,0.0140733,1924,841,18.5348,-2.87138
707,183,18.5142,3.07941,-0.000133358,-0.000953568,-0.000919558,0.0004634,-0.00155033,-0.575645,0.00121777,0.0125421,1931,841,18.5141,-3.07938
714,183,18.5348,3.28259,3.30167e-05,-0.00127103,-0.000600522,0.000267425,-0.00150543,-0.372153,0.00110362,0.0169946,1938,841,18.5348,-3.2826
721,183,18.5264,3.51819,0.000600929,-0.0019849,-0.00104024,0.000967448,-0.00235142,-0.33876,0.0019709,0.0154059,1945,841,18.5263,-3.51821
728,183,18.4963,3.74902,0.0028824,-0.00364422,-0.00192526,0.003408,-0.00416982,-0.266506,0.00438242,0.0136705,1952,841,18.4963,-3.74905
735,183,18.5085,3.93896,0.00624491,-0.00556156,-0.00277787,0.00686584,-0.00618249,-0.219912,0.0075369,0.0123485,1959,841,18.5086,-3.93894
742,183,18.5116,4.14777,0.0102902,-0.00834343,-0.00384821,0.0110536,-0.00910688,-0.195848,0.0116578,0.0111932,1966,841,18.5115,-4.14778
749,183,18.3638,4.41376,0.0161877,-0.0119651,-0.00552581,0.0172334,-0.0130109,-0.187038,0.0175182,0.0310441,1973,841,18.3637,-4.41377
756,183,18.0038,4.3717,0.0246642,-0.0166556,-0.00785076,0.0261055,-0.018097,-0.181573,0.0256596,0.0431538,1980,841,18.0038,-4.37168
763,183,17.9082,4.76758,0,0,0,0,0,0,0,-1,1987,841,17.9082,-4.76758
770,183,18.7318,4.8446,0.0517318,-0.0295901,-0.0149743,0.0544014,-0.0322598,-0.17643,0.0505753,0.0481214,1994,841,18.7318,-4.84463
777,183,19.3723,4.64606,0.0715943,-0.0380331,-0.0200146,0.075134,-0.0415728,-0.175049,0.0683031,0.0458029,2001,841,19.3723,-4.64605
784,183,0,0,0,0,0,0,0,0,0,-1,2008,841,0,0
791,183,0,0,0,0,0,0,0,0,0,-1,2015,841,0,0
798,183,0,0,0,0,0,0,0,0,0,-1,2022,841,0,0
805,183,0,0,0,0,0,0,0,0,0,-1,2029,841,0,0
812,183,0,0,0,0,0,0,0,0,0,-1,2036,841,0,0
-700,176,0,0,0,0,0,0,0,0,0,-1,524,848,0,0
-693,176,0,0,0,0,0,0,0,0,0,-1,531,848,0,0
-686,176,0,0,0,0,0,0,0,0,0,-1,538,848,0,0
-679,176,0,0,0,0,0,0,0,0,0,-1,545,848,0,0
-672,176,0,0,0,0,0,0,0,0,0,-1,552,848,0,0
-665,176,-12.8094,10.9185,0,0,0,0,0,0,0,-1,559,848,-12.8094,-10.9185
-658,176,-16.4106,1.3952,0.0710669,0.0551913,0.0678212,0.131413,-0.00515505,0.727143,0.0893768,0.047524,566,848,-16.4106,-1.39518
-651,176,-15.8181,1.50153,0.061436,0.0366419,0.0533628,0.103823,-0.00574494,0.671264,0.0712074,0.0420878,573,848,-15.818,-1.50155
-644,176,-11.6985,2.02319,0,0,0,0,0,0,0,-1,580,848,-11.6985,-2.02318
-637,176,-11.7655,1.89795,0,0,0,0,0,0,0,-1,587,848,-11.7655,-1.89794
-630,176,-11.8195,1.82574,0.0327711,0.00482381,0.0228165,0.0455529,-0.00795799,0.510641,0.0333394,0.0436346,594,848,-11.8195,-1.82576
-623,176,-12.0723,1.98431,0.0247134,0.000717853,0.0166088,0.0332046,-0.00777338,0.472606,0.0251315,0.0393319,601,848,-12.0722,-1.98434
-616,176,-12.1215,1.8869,0.01797,-0.00134003,0.011986,0.023706,-0.007076,0.446347,0.0186164,0.0264226,608,848,-12.1215,-1.88692
-609,176,-12.1366,1.74609,0.0126539,-0.00311592,0.00798828,0.0159933,-0.00645528,0.395955,0.013345,0.0114661,615,848,-12.1366,-1.7461
-602,176,-12.1556,1.56238,0.00818872,-0.0035718,0.00531976,0.010238,-0.00562106,0.367697,0.00928466,0.012022,622,848,-12.1555,-1.56237
-595,176,-12.175,1.36078,0.00489865,-0.00252933,0.00383442,0.00652287,-0.00415355,0.400675,0.00621442,0.0107289,629,848,-12.1751,-1.36081
-588,176,-12.1636,1.15826,0.00253471,-0.0017012,0.00243095,0.00364092,-0.00280741,0.427048,0.0037333,0.0106336,636,848,-12.1636,-1.15828
-581,176,-12.1726,0.978455,0.00123081,-0.000970329,0.0018365,0.00227126,-0.00201078,0.515455,0.00247376,0.0104653,643,848,-12.1726,-0.978452
-574,176,-12.1606,0.789063,0.000370373,-0.000581528,0.00155363,0.00151932,-0.00173048,0.636763,0.00187759,0.0125077,650,848,-12.1607,-0.789069
-567,176,-12.0999,0.649048,-0.000186399,7.35207e-06,0.000936134,0.00085161,-0.00103066,0.836957,0.00108837,0.0253445,657,848,-12.0999,-0.64903
-560,176,-12.2259,0.416016,-0.000207577,0.000575453,0.000590532,0.000892466,-0.00052459,1.07812,0.000827277,0.0201442,664,848,-12.2259,-0.416007
-553,176,-12.1076,0.13623,4.31652e-05,0.00113245,0.00083805,0.00158729,-0.000411674,1.07355,0.00121882,0.0345159,671,848,-12.1076,-0.136233
-546,176,-11.9098,-0.0408936,0,0,0,0,0,0,0,-1,678,848,-11.9098,0.0408907
-539,176,-15.1359,1.04205,0,0,0,0,0,0,0,-1,685,848,-15.1359,-1.04204
-532,176,-15.1681,1.15247,0.000150441,0.00264593,0.00107879,0.00304763,-0.000251255,1.21434,0.00212047,0.0407641,692,848,-15.1681,-1.15249
-525,176,-15.2319,1.271,0.000454686,0.00311893,0.00128139,0.00363519,-6.15731e-05,1.1878,0.00244424,0.0453586,699,848,-15.2319,-1.27101
-518,176,-15.5048,0.820862,0.00092692,0.00358331,0.00159509,0.00433078,0.000179444,1.13257,0.00282927,0.040205,706,848,-15.5048,-0.820884
-511,176,-15.7233,0.341553,0.00193029,0.00380849,0.00203737,0.00511278,0.000626007,1.00135,0.0032202,0.0396389,713,848,-15.7232,-0.341575
-504,176,-15.3842,0.976196,0.00372672,0.00358721,0.00257003,0.00622794,0.00108599,0.771831,0.00384148,0.0394515,720,848,-15.3842,-0.976216
-497,176,-15.2878,1.39075,0.00677654,0.00253299,0.00327822,0.00855972,0.000749811,0.498184,0.00547369,0.0422021,727,848,-15.2878,-1.39075
-490,176,-15.4096,1.36688,0,0,0,0,0,0,0,-1,734,848,-15.4096,-1.36688
-483,176,0,0,0,0,0,0,0,0,0,-1,741,848,0,0
-476,176,0,0,0,0,0,0,0,0,0,-1,748,848,0,0
-469,176,0,0,0,0,0,0,0,0,0,-1,755,848,0,0
-462,176,0,0,0,0,0,0,0,0,0,-1,762,848,0,0
-455,176,0,0,0,0,0,0,0,0,0,-1,769,848,0,0
-448,176,0,0,0,0,0,0,0,0,0,-1,776,848,0,0
-441,176,0,0,0,0,0,0,0,0,0,-1,783,848,0,0
-434,176,0,0,0,0,0,0,0,0,0,-1,790,848,0,0
-427,176,0,0,0,0,0,0,0,0,0,-1,797,848,0,0
-420,176,0,0,0,0,0,0,0,0,0,-1,804,848,0,0
-413,176,0,0,0,0,0,0,0,0,0,-1,811,848,0,0
-406,176,0,0,0,0,0,0,0,0,0,-1,818,848,0,0
-399,176,0,0,0,0,0,0,0,0,0,-1,825,848,0,0
-392,176,0,0,0,0,0,0,0,0,0,-1,832,848,0,0
-385,176,0,0,0,0,0,0,0,0,0,-1,839,848,0,0
-378,176,0,0,0,0,0,0,0,0,0,-1,846,848,0,0
-371,176,0,0,0,0,0,0,0,0,0,-1,853,848,0,0
-364,176,0,0,0,0,0,0,0,0,0,-1,860,848,0,0
-357,176,0,0,0,0,0,0,0,0,0,-1,867,848,0,0
-350,176,0,0,0,0,0,0,0,0,0,-1,874,848,0,0
-343,176,0,0,0,0,0,0,0,0,0,-1,881,848,0,0
-336,176,0,0,0,0,0,0,0,0,0,-1,888,848,0,0
-329,176,0,0,0,0,0,0,0,0,0,-1,895,848,0,0
-322,176,0,0,0,0,0,0,0,0,0,-1,902,848,0,0
-315,176,0,0,0,0,0,0,0,0,0,-1,909,848,0,0
-308,176,0,0,0,0,0,0,0,0,0,-1,916,848,0,0
-301,176,0,0,0,0,0,0,0,0,0,-1,923,848,0,0
-294,176,0,0,0,0,0,0,0,0,0,-1,930,848,0,0
-287,176,0,0,0,0,0,0,0,0,0,-1,937,848,0,0
-280,176,0,0,0,0,0,0,0,0,0,-1,944,848,0,0
-273,176,0,0,0,0,0,0,0,0,0,-1,951,848,0,0
-266,176,0,0,0,0,0,0,0,0,0,-1,958,848,0,0
-259,176,0,0,0,0,0,0,0,0,0,-1,965,848,0,0
-252,176,0,0,0,0,0,0,0,0,0,-1,972,848,0,0
-245,176,0,0,0,0,0,0,0,0,0,-1,979,848,0,0
-238,176,0,0,0,0,0,0,0,0,0,-1,986,848,0,0
-231,176,0,0,0,0,0,0,0,0,0,-1,993,848,0,0
-224,176,0,0,0,0,0,0,0,0,0,-1,1000,848,0,0
-217,176,0,0,0,0,0,0,0,0,0,-1,1007,848,0,0
-210,176,0,0,0,0,0,0,0,0,0,-1,1014,848,0,0
-203,176,0,0,0,0,0,0,0,0,0,-1,1021,848,0,0
-196,176,0,0,0,0,0,0,0,0,0,-1,1028,848,0,0
-189,176,0,0,0,0,0,0,0,0,0,-1,1035,848,0,0
-182,176,0,0,0,0,0,0,0,0,0,-1,1042,848,0,0
-175,176,0,0,0,0,0,0,0,0,0,-1,1049,848,0,0
-168,176,0,0,0,0,0,0,0,0,0,-1,1056,848,0,0
-161,176,0,0,0,0,0,0,0,0,0,-1,1063,848,0,0
-154,176,0,0,0,0,0,0,0,0,0,-1,1070,848,0,0
-147,176,0,0,0,0,0,0,0,0,0,-1,1077,848,0,0
-140,176,0,0,0,0,0,0,0,0,0,-1,1084,848,0,0
-133,176,0,0,0,0,0,0,0,0,0,-1,1091,848,0,0
-126,176,0,0,0,0,0,0,0,0,0,-1,1098,848,0,0
-119,176,0,0,0,0,0,0,0,0,0,-1,1105,848,0,0
-112,176,0,0,0,0,0,0,0,0,0,-1,1112,848,0,0
-105,176,0,0,0,0,0,0,0,0,0,-1,1119,848,0,0
-98,176,0,0,0,0,0,0,0,0,0,-1,1126,848,0,0
-91,176,0,0,0,0,0,0,0,0,0,-1,1133,848,0,0
-84,176,0,0,0,0,0,0,0,0,0,-1,1140,848,0,0
-77,176,0,0,0,0,0,0,0,0,0,-1,1147,848,0,0
-70,176,0,0,0,0,0,0,0,0,0,-1,1154,848,0,0
-63,176,0,0,0,0,0,0,0,0,0,-1,1161,848,0,0
-56,176,0,0,0,0,0,0,0,0,0,-1,1168,848,0,0
-49,176,0,0,0,0,0,0,0,0,0,-1,1175,848,0,0
-42,176,0,0,0,0,0,0,0,0,0,-1,1182,848,0,0
-35,176,0,0,0,0,0,0,0,0,0,-1,1189,848,0,0
-28,176,0,0,0,0,0,0,0,0,0,-1,1196,848,0,0
-21,176,0,0,0,0,0,0,0,0,0,-1,1203,848,0,0
-14,176,0,0,0,0,0,0,0,0,0,-1,1210,848,0,0
-7,176,0,0,0,0,0,0,0,0,0,-1,1217,848,0,0
0,176,0,0,0,0,0,0,0,0,0,-1,1224,848,0,0
7,176,0,0,0,0,0,0,0,0,0,-1,1231,848,0,0
14,176,0,0,0,0,0,0,0,0,0,-1,1238,848,0,0
21,176,0,0,0,0,0,0,0,0,0,-1,1245,848,0,0
28,176,0,0,0,0,0,0,0,0,0,-1,1252,848,0,0
35,176,0,0,0,0,0,0,0,0,0,-1,1259,848,0,0
42,176,0,0,0,0,0,0,0,0,0,-1,1266,848,0,0
49,176,0,0,0,0,0,0,0,0,0,-1,1273,848,0,0
56,176,0,0,0,0,0,0,0,0,0,-1,1280,848,0,0
63,176,0,0,0,0,0,0,0,0,0,-1,1287,848,0,0
70,176,0,0,0,0,0,0,0,0,0,-1,1294,848,0,0
77,176,0,0,0,0,0,0,0,0,0,-1,1301,848,0,0
84,176,0,0,0,0,0,0,0,0,0,-1,1308,848,0,0
91,176,0,0,0,0,0,0,0,0,0,-1,1315,848,0,0
98,176,0,0,0,0,0,0,0,0,0,-1,1322,848,0,0
105,176,0,0,0,0,0,0,0,0,0,-1,1329,848,0,0
112,176,0,0,0,0,0,0,0,0,0,-1,1336,848,0,0
119,176,0,0,0,0,0,0,0,0,0,-1,1343,848,0,0
126,176,0,0,0,0,0,0,0,0,0,-1,1350,848,0,0
133,176,0,0,0,0,0,0,0,0,0,-1,1357,848,0,0
140,176,0,0,0,0,0,0,0,0,0,-1,1364,848,0,0
147,176,0,0,0,0,0,0,0,0,0,-1,1371,848,0,0
154,176,0,0,0,0,0,0,0,0,0,-1,1378,848,0,0
161,176,0,0,0,0,0,0,0,0,0,-1,1385,848,0,0
168,176,0,0,0,0,0,0,0,0,0,-1,1392,848,0,0
175,176,0,0,0,0,0,0,0,0,0,-1,1399,848,0,0
182,176,0,0,0,0,0,0,0,0,0,-1,1406,848,0,0
189,176,0,0,0,0,0,0,0,0,0,-1,1413,848,0,0
196,176,0,0,0,0,0,0,0,0,0,-1,1420,848,0,0
203,176,0,0,0,0,0,0,0,0,0,-1,1427,848,0,0
210,176,0,0,0,0,0,0,0,0,0,-1,1434,848,0,0
217,176,0,0,0,0,0,0,0,0,0,-1,1441,848,0,0
224,176,0,0,0,0,0,0,0,0,0,-1,1448,848,0,0
231,176,0,0,0,0,0,0,0,0,0,-1,1455,848,0,0
238,176,0,0,0,0,0,0,0,0,0,-1,1462,848,0,0
245,176,0,0,0,0,0,0,0,0,0,-1,1469,848,0,0
252,176,0,0,0,0,0,0,0,0,0,-1,1476,848,0,0
259,176,0,0,0,0,0,0,0,0,0,-1,1483,848,0,0
266,176,0,0,0,0,0,0,0,0,0,-1,1490,848,0,0
273,176,0,0,0,0,0,0,0,0,0,-1,1497,848,0,0
280,176,0,0,0,0,0,0,0,0,0,-1,1504,848,0,0
287,176,0,0,0,0,0,0,0,0,0,-1,1511,848,0,0
294,176,0,0,0,0,0,0,0,0,0,-1,1518,848,0,0
301,176,0,0,0,0,0,0,0,0,0,-1,1525,848,0,0
308,176,0,0,0,0,0,0,0,0,0,-1,1532,848,0,0
315,176,0,0,0,0,0,0,0,0,0,-1,1539,848,0,0
322,176,0,0,0,0,0,0,0,0,0,-1,1546,848,0,0
329,176,0,0,0,0,0,0,0,0,0,-1,1553,848,0,0
336,176,0,0,0,0,0,0,0,0,0,-1,1560,848,0,0
343,176,0,0,0,0,0,0,0,0,0,-1,1567,848,0,0
350,176,0,0,0,0,0,0,0,0,0,-1,1574,848,0,0
357,176,0,0,0,0,0,0,0,0,0,-1,1581,848,0,0
364,176,0,0,0,0,0,0,0,0,0,-1,1588,848,0,0
371,176,0,0,0,0,0,0,0,0,0,-1,1595,848,0,0
378,176,0,0,0,0,0,0,0,0,0,-1,1602,848,0,0
385,176,0,0,0,0,0,0,0,0,0,-1,1609,848,0,0
392,176,0,0,0,0,0,0,0,0,0,-1,1616,848,0,0
399,176,0,0,0,0,0,0,0,0,0,-1,1623,848,0,0
406,176,0,0,0,0,0,0,0,0,0,-1,1630,848,0,0
413,176,0,0,0,0,0,0,0,0,0,-1,1637,848,0,0
420,176,0,0,0,0,0,0,0,0,0,-1,1644,848,0,0
427,176,0,0,0,0,0,0,0,0,0,-1,1651,848,0,0
434,176,0,0,0,0,0,0,0,0,0,-1,1658,848,0,0
441,176,0,0,0,0,0,0,0,0,0,-1,1665,848,0,0
448,176,0,0,0,0,0,0,0,0,0,-1,1672,848,0,0
455,176,0,0,0,0,0,0,0,0,0,-1,1679,848,0,0
462,176,0,0,0,0,0,0,0,0,0,-1,1686,848,0,0
469,176,0,0,0,0,0,0,0,0,0,-1,1693,848,0,0
476,176,0,0,0,0,0,0,0,0,0,-1,1700,848,0,0
483,176,0,0,0,0,0,0,0,0,0,-1,1707,848,0,0
490,176,0,0,0,0,0,0,0,0,0,-1,1714,848,0,0
497,176,0,0,0,0,0,0,0,0,0,-1,1721,848,0,0
504,176,0,0,0,0,0,0,0,0,0,-1,1728,848,0,0
511,176,0,0,0,0,0,0,0,0,0,-1,1735,848,0,0
518,176,0,0,0,0,0,0,0,0,0,-1,1742,848,0,0
525,176,0,0,0,0,0,0,0,0,0,-1,1749,848,0,0
532,176,0,0,0,0,0,0,0,0,0,-1,1756,848,0,0
539,176,0,0,0,0,0,0,0,0,0,-1,1763,848,0,0
546,176,0,0,0,0,0,0,0,0,0,-1,1770,848,0,0
553,176,0,0,0,0,0,0,0,0,0,-1,1777,848,0,0
560,176,0,0,0,0,0,0,0,0,0,-1,1784,848,0,0
567,176,0,0,0,0,0,0,0,0,0,-1,1791,848,0,0
574,176,0,0,0,0,0,0,0,0,0,-1,1798,848,0,0
581,176,0,0,0,0,0,0,0,0,0,-1,1805,848,0,0
588,176,0,0,0,0,0,0,0,0,0,-1,1812,848,0,0
595,176,0,0,0,0,0,0,0,0,0,-1,1819,848,0,0
602,176,0,0,0,0,0,0,0,0,0,-1,1826,848,0,0
609,176,22.8011,2.8775,-0.00504929,-0.00156559,-0.00122859,-0.0011759,-0.00543898,-1.26365,0.00330451,0.0403258,1833,848,22.8012,-2.87752
616,176,22.698,2.70142,-0.00293057,-0.00168472,-0.000667906,-0.00139434,-0.00322096,-1.16068,0.00186519,0.0395644,1840,848,22.698,-2.70139
623,176,22.4672,2.92133,-0.00139031,-0.00180594,-0.000552858,-0.0010075,-0.00218875,-0.605622,0.001265,0.042416,1847,848,22.4671,-2.92131
630,176,22.5925,2.98016,-0.000215913,-0.00188837,-0.000687152,3.01965e-05,-0.00213448,-0.343925,0.00143316,0.0420905,1854,848,22.5926,-2.98014
637,176,22.8663,2.91803,0.000365266,-0.00202527,-0.000954541,0.000699643,-0.00235965,-0.336943,0.00185093,0.0364274,1861,848,22.8663,-2.91803
644,176,22.7599,2.85822,0.000651141,-0.00212964,-0.00115513,0.00106838,-0.00254687,-0.346619,0.00214466,0.0335928,1868,848,22.7599,-2.85824
651,176,22.7878,2.80701,0.000756526,-0.00214668,-0.00131808,0.00126566,-0.00265581,-0.368613,0.00231099,0.0316508,1875,848,22.7878,-2.80702
658,176,22.8912,2.70056,0.000683615,-0.00209492,-0.00142139,0.00128191,-0.00269321,-0.398413,0.00234276,0.0356529,1882,848,22.8913,-2.70059
665,176,23.0072,2.61102,0,0,0,0,0,0,0,-1,1889,848,23.0072,-2.611
672,176,16.9304,2.80719,0,0,0,0,0,0,0,-1,1896,848,16.9305,-2.80719
679,176,18.8813,2.31342,0,0,0,0,0,0,0,-1,1903,848,18.8813,-2.31344
686,176,18.86,2.48718,0.00031395,-0.00159836,-0.00132587,0.000992468,-0.00227688,-0.473006,0.00193551,0.0242694,1910,848,18.86,-2.48717
693,176,18.7985,2.70642,7.49412e-05,-0.00140642,-0.00130197,0.000832173,-0.00216365,-0.526783,0.00178568,0.0125709,1917,848,18.7984,-2.7064
700,176,18.7598,2.89771,-0.000219328,-0.00132825,-0.0011267,0.000481951,-0.00202953,-0.556741,0.00153903,0.0153962,1924,848,18.7598,-2.89769
707,176,18.754,3.10327,-0.000548795,-0.00114436,-0.000906872,0.000107934,-0.00180109,-0.626764,0.00123827,0.0142082,1931,848,18.7541,-3.10329
714,176,18.7631,3.32806,-0.000608845,-0.00138499,-0.000746803,-0.000155304,-0.00183853,-0.545778,0.00117734,0.0122963,1938,848,18.763,-3.32804
721,176,18.7634,3.52991,-0.000143055,-0.00189144,-0.00120861,0.00047438,-0.00250887,-0.472301,0.00185108,0.0122609,1945,848,18.7635,-3.52988
728,176,18.7429,3.74957,0.00212323,-0.00328153,-0.00212542,0.00285891,-0.00401721,-0.333227,0.00398866,0.0151853,1952,848,18.7429,-3.74955
735,176,18.7457,3.92255,0.00562599,-0.00491348,-0.00297362,0.00640709,-0.00569457,-0.256871,0.00699093,0.0143207,1959,848,18.7457,-3.92253
742,176,18.7671,4.112,0.00980574,-0.00699987,-0.0038117,0.0106299,-0.00782399,-0.212931,0.0106953,0.0167325,1966,848,18.7671,-4.11201
749,176,18.6637,4.29395,0.0158299,-0.00981958,-0.00524254,0.0168601,-0.0108497,-0.194027,0.0161232,0.0271044,1973,848,18.6637,-4.29393
756,176,18.4055,4.487,0.0244159,-0.013403,-0.00708283,0.0256988,-0.014686,-0.179195,0.0236034,0.0440498,1980,848,18.4055,-4.48702
763,176,18.2257,4.72119,0,0,0,0,0,0,0,-1,1987,848,18.2257,-4.72117
770,176,19.1847,5.52954,0,0,0,0,0,0,0,-1,1994,848,19.1846,-5.52954
777,176,19.7323,5.42035,0,0,0,0,0,0,0,-1,2001,848,19.7324,-5.42038
784,176,0,0,0,0,0,0,0,0,0,-1,2008,848,0,0
791,176,0,0,0,0,0,0,0,0,0,-1,2015,848,0,0
798,176,0,0,0,0,0,0,0,0,0,-1,2022,848,0,0
805,176,0,0,0,0,0,0,0,0,0,-1,2029,848,0,0
812,176,0,0,0,0,0,0,0,0,0,-1,2036,848,0,0
-700,169,0,0,0,0,0,0,0,0,0,-1,524,855,0,0
-693,169,0,0,0,0,0,0,0,0,0,-1,531,855,0,0
-686,169,0,0,0,0,0,0,0,0,0,-1,538,855,0,0
-679,169,0,0,0,0,0,0,0,0,0,-1,545,855,0,0
-672,169,0,0,0,0,0,0,0,0,0,-1,552,855,0,0
-665,169,-12.7441,9.51801,0,0,0,0,0,0,0,-1,559,855,-12.7441,-9.51803
-658,169,-13.4838,10.2595,0,0,0,0,0,0,0,-1,566,855,-13.4838,-10.2595
-651,169,-15.9948,1.44263,0,0,0,0,0,0,0,-1,573,855,-15.9948,-1.44263
-644,169,-15.37,1.55518,0,0,0,0,0,0,0,-1,580,855,-15.37,-1.55516
-637,169,-12.3578,2.22729,0,0,0,0,0,0,0,-1,587,855,-12.3578,-2.22732
-630,169,-12.3956,2.10028,0.0268538,0.0106701,0.0217446,0.0419634,-0.00443943,0.607271,0.0295667,0.0485073,594,855,-12.3956,-2.10026
-623,169,-12.3914,1.97394,0.019875,0.00484743,0.0152643,0.0293746,-0.0046522,0.556686,0.0213038,0.0365381,601,855,-12.3914,-1.97391
-616,169,-12.3547,1.86951,0.0141277,0.00134611,0.0104991,0.0200281,-0.00455426,0.512002,0.0151008,0.0203348,608,855,-12.3547,-1.86953
-609,169,-12.35,1.73468,0.00959458,-0.00164309,0.00640377,0.0124951,-0.00454362,0.425297,0.0101881,0.0129184,615,855,-12.35,-1.73468
-602,169,-12.3648,1.55212,0.00576406,-0.00277299,0.003888,0.00726934,-0.00427827,0.369389,0.00674115,0.0129074,622,855,-12.3648,-1.55212
-595,169,-12.3776,1.35468,0.00313253,-0.00204378,0.00274012,0.00431356,-0.00322481,0.406956,0.00436739,0.0114381,629,855,-12.3776,-1.35466
-588,169,-12.3615,1.17139,0.00141774,-0.00151768,0.00170559,0.00220019,-0.00230012,0.43011,0.00259847,0.00938764,636,855,-12.3615,-1.17138
-581,169,-12.3681,0.97699,0.000616277,-0.000951544,0.00135855,0.00140086,-0.00173613,0.523722,0.00181458,0.0103047,643,855,-12.3681,-0.977
-574,169,-12.4368,0.786865,6.42865e-05,-0.000587318,0.00119747,0.000979485,-0.00150252,0.652576,0.00144355,0.0133597,650,855,-12.4368,-0.786878
-567,169,-12.3478,0.665222,-0.000300572,-4.39285e-05,0.000722036,0.0005611,-0.000905601,0.873341,0.000854551,0.0232272,657,855,-12.3478,-0.665198
-560,169,-12.4108,0.496887,-0.000131092,0.000346279,0.000458667,0.000624648,-0.000409462,1.02531,0.000601337,0.0239492,664,855,-12.4108,-0.496868
-553,169,-12.331,0.199768,0.000228843,0.00087554,0.000686919,0.00131141,-0.000207027,1.00537,0.000950825,0.0335347,671,855,-12.331,-0.199778
-546,169,-12.0312,-0.144226,0,0,0,0,0,0,0,-1,678,855,-12.0312,0.144198
-539,169,-15.4886,0.876465,0,0,0,0,0,0,0,-1,685,855,-15.4887,-0.876467
-532,169,-15.3448,1.07965,0.000726433,0.00227246,0.000963148,0.00273444,0.000264455,1.12356,0.00174151,0.0349747,692,855,-15.3448,-1.07967
-525,169,-15.2427,1.22687,0.00114758,0.00271146,0.00119773,0.0033599,0.000499137,1.07459,0.00209348,0.0424501,699,855,-15.2427,-1.22689
-518,169,-15.3743,1.099,0.0018242,0.00306523,0.00157232,0.00413505,0.00075438,0.973341,0.00254282,0.0409269,706,855,-15.3743,-1.09898
-511,169,-15.4694,0.605225,0.00312609,0.00309519,0.00212369,0.00523439,0.000986892,0.781761,0.00321158,0.0394111,713,855,-15.4694,-0.605207
-504,169,-15.4515,0.716309,0.00541369,0.00252583,0.00282593,0.00714322,0.000796308,0.54921,0.00452015,0.0406287,720,855,-15.4515,-0.716306
-497,169,-15.4822,0.791809,0.00909555,0.000736273,0.00389845,0.0106314,-0.000799619,0.375302,0.00736864,0.0425932,727,855,-15.4822,-0.791837
-490,169,0,0,0,0,0,0,0,0,0,-1,734,855,0,0
-483,169,0,0,0,0,0,0,0,0,0,-1,741,855,0,0
-476,169,0,0,0,0,0,0,0,0,0,-1,748,855,0,0
-469,169,0,0,0,0,0,0,0,0,0,-1,755,855,0,0
-462,169,0,0,0,0,0,0,0,0,0,-1,762,855,0,0
-455,169,0,0,0,0,0,0,0,0,0,-1,769,855,0,0
-448,169,0,0,0,0,0,0,0,0,0,-1,776,855,0,0
-441,169,0,0,0,0,0,0,0,0,0,-1,783,855,0,0
-434,169,0,0,0,0,0,0,0,0,0,-1,790,855,0,0
-427,169,0,0,0,0,0,0,0,0,0,-1,797,855,0,0
-420,169,0,0,0,0,0,0,0,0,0,-1,804,855,0,0
-413,169,0,0,0,0,0,0,0,0,0,-1,811,855,0,0
-406,169,0,0,0,0,0,0,0,0,0,-1,818,855,0,0
-399,169,0,0,0,0,0,0,0,0,0,-1,825,855,0,0
-392,169,0,0,0,0,0,0,0,0,0,-1,832,855,0,0
-385,169,0,0,0,0,0,0,0,0,0,-1,839,855,0,0
-378,169,0,0,0,0,0,0,0,0,0,-1,846,855,0,0
-371,169,0,0,0,0,0,0,0,0,0,-1,853,855,0,0
-364,169,0,0,0,0,0,0,0,0,0,-1,860,855,0,0
-357,169,0,0,0,0,0,0,0,0,0,-1,867,855,0,0
-350,169,0,0,0,0,0,0,0,0,0,-1,874,855,0,0
-343,169,0,0,0,0,0,0,0,0,0,-1,881,855,0,0
-336,169,0,0,0,0,0,0,0,0,0,-1,888,855,0,0
-329,169,0,0,0,0,0,0,0,0,0,-1,895,855,0,0
-322,169,0,0,0,0,0,0,0,0,0,-1,902,855,0,0
-315,169,0,0,0,0,0,0,0,0,0,-1,909,855,0,0
-308,169,0,0,0,0,0,0,0,0,0,-1,916,855,0,0
-301,169,0,0,0,0,0,0,0,0,0,-1,923,855,0,0
-294,169,0,0,0,0,0,0,0,0,0,-1,930,855,0,0
-287,169,0,0,0,0,0,0,0,0,0,-1,937,855,0,0
-280,169,0,0,0,0,0,0,0,0,0,-1,944,855,0,0
-273,169,0,0,0,0,0,0,0,0,0,-1,951,855,0,0
-266,169,0,0,0,0,0,0,0,0,0,-1,958,855,0,0
-259,169,0,0,0,0,0,0,0,0,0,-1,965,855,0,0
-252,169,0,0,0,0,0,0,0,0,0,-1,972,855,0,0
-245,169,0,0,0,0,0,0,0,0,0,-1,979,855,0,0
-238,169,0,0,0,0,0,0,0,0,0,-1,986,855,0,0
-231,169,0,0,0,0,0,0,0,0,0,-1,993,855,0,0
-224,169,0,0,0,0,0,0,0,0,0,-1,1000,855,0,0
-217,169,0,0,0,0,0,0,0,0,0,-1,1007,855,0,0
-210,169,0,0,0,0,0,0,0,0,0,-1,1014,855,0,0
-203,169,0,0,0,0,0,0,0,0,0,-1,1021,855,0,0
-196,169,0,0,0,0,0,0,0,0,0,-1,1028,855,0,0
-189,169,0,0,0,0,0,0,0,0,0,-1,1035,855,0,0
-182,169,0,0,0,0,0,0,0,0,0,-1,1042,855,0,0
-175,169,0,0,0,0,0,0,0,0,0,-1,1049,855,0,0
-168,169,0,0,0,0,0,0,0,0,0,-1,1056,855,0,0
-161,169,0,0,0,0,0,0,0,0,0,-1,1063,855,0,0
-154,169,0,0,0,0,0,0,0,0,0,-1,1070,855,0,0
-147,169,0,0,0,0,0,0,0,0,0,-1,1077,855,0,0
-140,169,0,0,0,0,0,0,0,0,0,-1,1084,855,0,0
-133,169,0,0,0,0,0,0,0,0,0,-1,1091,855,0,0
-126,169,0,0,0,0,0,0,0,0,0,-1,1098,855,0,0
-119,169,0,0,0,0,0,0,0,0,0,-1,1105,855,0,0
-112,169,0,0,0,0,0,0,0,0,0,-1,1112,855,0,0
-105,169,0,0,0,0,0,0,0,0,0,-1,1119,855,0,0
-98,169,0,0,0,0,0,0,0,0,0,-1,1126,855,0,0
-91,169,0,0,0,0,0,0,0,0,0,-1,1133,855,0,0
-84,169,0,0,0,0,0,0,0,0,0,-1,1140,855,0,0
-77,169,0,0,0,0,0,0,0,0,0,-1,1147,855,0,0
-70,169,0,0,0,0,0,0,0,0,0,-1,1154,855,0,0
-63,169,0,0,0,0,0,0,0,0,0,-1,1161,855,0,0
-56,169,0,0,0,0,0,0,0,0,0,-1,1168,855,0,0
-49,169,0,0,0,0,0,0,0,0,0,-1,1175,855,0,0
-42,169,0,0,0,0,0,0,0,0,0,-1,1182,855,0,0
-35,169,0,0,0,0,0,0,0,0,0,-1,1189,855,0,0
-28,169,0,0,0,0,0,0,0,0,0,-1,1196,855,0,0
-21,169,0,0,0,0,0,0,0,0,0,-1,1203,855,0,0
-14,169,0,0,0,0,0,0,0,0,0,-1,1210,855,0,0
-7,169,0,0,0,0,0,0,0,0,0,-1,1217,855,0,0
0,169,0,0,0,0,0,0,0,0,0,-1,1224,855,0,0
7,169,0,0,0,0,0,0,0,0,0,-1,1231,855,0,0
14,169,0,0,0,0,0,0,0,0,0,-1,1238,855,0,0
21,169,0,0,0,0,0,0,0,0,0,-1,1245,855,0,0
28,169,0,0,0,0,0,0,0,0,0,-1,1252,855,0,0
35,169,0,0,0,0,0,0,0,0,0,-1,1259,855,0,0
42,169,0,0,0,0,0,0,0,0,0,-1,1266,855,0,0
49,169,0,0,0,0,0,0,0,0,0,-1,1273,855,0,0
56,169,0,0,0,0,0,0,0,0,0,-1,1280,855,0,0
63,169,0,0,0,0,0,0,0,0,0,-1,1287,855,0,0
70,169,0,0,0,0,0,0,0,0,0,-1,1294,855,0,0
77,169,0,0,0,0,0,0,0,0,0,-1,1301,855,0,0
84,169,0,0,0,0,0,0,0,0,0,-1,1308,855,0,0
91,169,0,0,0,0,0,0,0,0,0,-1,1315,855,0,0
98,169,0,0,0,0,0,0,0,0,0,-1,1322,855,0,0
105,169,0,0,0,0,0,0,0,0,0,-1,1329,855,0,0
112,169,0,0,0,0,0,0,0,0,0,-1,1336,855,0,0
119,169,0,0,0,0,0,0,0,0,0,-1,1343,855,0,0
126,169,0,0,0,0,0,0,0,0,0,-1,1350,855,0,0
133,169,0,0,0,0,0,0,0,0,0,-1,1357,855,0,0
140,169,0,0,0,0,0,0,0,0,0,-1,1364,855,0,0
147,169,0,0,0,0,0,0,0,0,0,-1,1371,855,0,0
154,169,0,0,0,0,0,0,0,0,0,-1,1378,855,0,0
161,169,0,0,0,0,0,0,0,0,0,-1,1385,855,0,0
168,169,0,0,0,0,0,0,0,0,0,-1,1392,855,0,0
175,169,0,0,0,0,0,0,0,0,0,-1,1399,855,0,0
182,169,0,0,0,0,0,0,0,0,0,-1,1406,855,0,0
189,169,0,0,0,0,0,0,0,0,0,-1,1413,855,0,0
196,169,0,0,0,0,0,0,0,0,0,-1,1420,855,0,0
203,169,0,0,0,0,0,0,0,0,0,-1,1427,855,0,0
210,169,0,0,0,0,0,0,0,0,0,-1,1434,855,0,0
217,169,0,0,0,0,0,0,0,0,0,-1,1441,855,0,0
224,169,0,0,0,0,0,0,0,0,0,-1,1448,855,0,0
231,169,0,0,0,0,0,0,0,0,0,-1,1455,855,0,0
238,169,0,0,0,0,0,0,0,0,0,-1,1462,855,0,0
245,169,0,0,0,0,0,0,0,0,0,-1,1469,855,0,0
252,169,0,0,0,0,0,0,0,0,0,-1,1476,855,0,0
259,169,0,0,0,0,0,0,0,0,0,-1,1483,855,0,0
266,169,0,0,0,0,0,0,0,0,0,-1,1490,855,0,0
273,169,0,0,0,0,0,0,0,0,0,-1,1497,855,0,0
280,169,0,0,0,0,0,0,0,0,0,-1,1504,855,0,0
287,169,0,0,0,0,0,0,0,0,0,-1,1511,855,0,0
294,169,0,0,0,0,0,0,0,0,0,-1,1518,855,0,0
301,169,0,0,0,0,0,0,0,0,0,-1,1525,855,0,0
308,169,0,0,0,0,0,0,0,0,0,-1,1532,855,0,0
315,169,0,0,0,0,0,0,0,0,0,-1,1539,855,0,0
322,169,0,0,0,0,0,0,0,0,0,-1,1546,855,0,0
329,169,0,0,0,0,0,0,0,0,0,-1,1553,855,0,0
336,169,0,0,0,0,0,0,0,0,0,-1,1560,855,0,0
343,169,0,0,0,0,0,0,0,0,0,-1,1567,855,0,0
350,169,0,0,0,0,0,0,0,0,0,-1,1574,855,0,0
357,169,0,0,0,0,0,0,0,0,0,-1,1581,855,0,0
364,169,0,0,0,0,0,0,0,0,0,-1,1588,855,0,0
371,169,0,0,0,0,0,0,0,0,0,-1,1595,855,0,0
378,169,0,0,0,0,0,0,0,0,0,-1,1602,855,0,0
385,169,0,0,0,0,0,0,0,0,0,-1,1609,855,0,0
392,169,0,0,0,0,0,0,0,0,0,-1,1616,855,0,0
399,169,0,0,0,0,0,0,0,0,0,-1,1623,855,0,0
406,169,0,0,0,0,0,0,0,0,0,-1,1630,855,0,0
413,169,0,0,0,0,0,0,0,0,0,-1,1637,855,0,0
420,169,0,0,0,0,0,0,0,0,0,-1,1644,855,0,0
427,169,0,0,0,0,0,0,0,0,0,-1,1651,855,0,0
434,169,0,0,0,0,0,0,0,0,0,-1,1658,855,0,0
441,169,0,0,0,0,0,0,0,0,0,-1,1665,855,0,0
448,169,0,0,0,0,0,0,0,0,0,-1,1672,855,0,0
455,169,0,0,0,0,0,0,0,0,0,-1,1679,855,0,0
462,169,0,0,0,0,0,0,0,0,0,-1,1686,855,0,0
469,169,0,0,0,0,0,0,0,0,0,-1,1693,855,0,0
476,169,0,0,0,0,0,0,0,0,0,-1,1700,855,0,0
483,169,0,0,0,0,0,0,0,0,0,-1,1707,855,0,0
490,169,0,0,0,0,0,0,0,0,0,-1,1714,855,0,0
497,169,0,0,0,0,0,0,0,0,0,-1,1721,855,0,0
504,169,0,0,0,0,0,0,0,0,0,-1,1728,855,0,0
511,169,0,0,0,0,0,0,0,0,0,-1,1735,855,0,0
518,169,0,0,0,0,0,0,0,0,0,-1,1742,855,0,0
525,169,0,0,0,0,0,0,0,0,0,-1,1749,855,0,0
532,169,0,0,0,0,0,0,0,0,0,-1,1756,855,0,0
539,169,0,0,0,0,0,0,0,0,0,-1,1763,855,0,0
546,169,0,0,0,0,0,0,0,0,0,-1,1770,855,0,0
553,169,0,0,0,0,0,0,0,0,0,-1,1777,855,0,0
560,169,0,0,0,0,0,0,0,0,0,-1,1784,855,0,0
567,169,0,0,0,0,0,0,0,0,0,-1,1791,855,0,0
574,169,0,0,0,0,0,0,0,0,0,-1,1798,855,0,0
581,169,0,0,0,0,0,0,0,0,0,-1,1805,855,0,0
588,169,0,0,0,0,0,0,0,0,0,-1,1812,855,0,0
595,169,0,0,0,0,0,0,0,0,0,-1,1819,855,0,0
602,169,0,0,0,0,0,0,0,0,0,-1,1826,855,0,0
609,169,0,0,0,0,0,0,0,0,0,-1,1833,855,0,0
616,169,22.8334,2.66882,-0.00507018,-0.00228535,-0.000811821,-0.00206597,-0.00528956,-1.30687,0.00307821,0.0418059,1840,855,22.8334,-2.66881
623,169,22.6466,2.66541,-0.00277003,-0.00213512,-0.000479225,-0.00187774,-0.00302741,-1.07793,0.00176464,0.0444882,1847,855,22.6466,-2.66544
630,169,22.7118,2.74487,-0.000814042,-0.00197993,-0.000407592,-0.00068568,-0.00210829,-0.305093,0.00124176,0.0441234,1854,855,22.7118,-2.7449
637,169,22.8644,2.92975,0.00039619,-0.00195963,-0.000537419,0.000512997,-0.00207644,-0.214019,0.00158324,0.0379047,1861,855,22.8644,-2.92975
644,169,22.8152,2.91937,0.00107528,-0.00196233,-0.000677691,0.00121961,-0.00210667,-0.209844,0.00194306,0.0357381,1868,855,22.8152,-2.91936
651,169,22.7633,2.86505,0.0013019,-0.00195004,-0.000860322,0.00151548,-0.00216362,-0.243333,0.00213509,0.0353386,1875,855,22.7633,-2.86502
658,169,22.8545,2.68396,0.00123106,-0.00191652,-0.000993325,0.00151832,-0.00220378,-0.281511,0.00216107,0.0339306,1882,855,22.8545,-2.68398
665,169,22.9521,2.72449,0.0010713,-0.00185176,-0.00093137,0.00134284,-0.0021233,-0.283682,0.00201801,0.044563,1889,855,22.9522,-2.7245
672,169,22.9973,2.87927,0,0,0,0,0,0,0,-1,1896,855,22.9973,-2.8793
679,169,18.9513,2.26282,0,0,0,0,0,0,0,-1,1903,855,18.9513,-2.26283
686,169,18.9821,2.48969,0.000459938,-0.0014736,-0.00112004,0.000972737,-0.0019864,-0.429356,0.00174155,0.0245806,1910,855,18.982,-2.48966
693,169,19.0121,2.71735,8.90659e-05,-0.00132086,-0.00114606,0.000729623,-0.00196141,-0.509667,0.00160701,0.0124575,1917,855,19.0121,-2.71733
700,169,19.0188,2.93195,-0.000366371,-0.00122782,-0.00105947,0.000346579,-0.00194077,-0.592329,0.00142351,0.0125205,1924,855,19.0188,-2.93195
707,169,18.985,3.11792,-0.000939104,-0.00107416,-0.000985251,-1.9068e-05,-0.00199419,-0.751184,0.00132315,0.0141661,1931,855,18.985,-3.11793
714,169,18.9711,3.32336,-0.00115722,-0.00122148,-0.000941359,-0.000247447,-0.00213126,-0.768338,0.00134596,0.0130532,1938,855,18.9711,-3.32335
721,169,18.9713,3.53644,-0.000754643,-0.00148239,-0.00137389,0.000302744,-0.00253978,-0.655946,0.00180259,0.0158364,1945,855,18.9713,-3.53644
728,169,18.9689,3.73999,0.00150835,-0.00252152,-0.00223565,0.00250308,-0.00351625,-0.418638,0.00349163,0.0132225,1952,855,18.9689,-3.73997
735,169,18.9679,3.9306,0.00488025,-0.00379715,-0.00315139,0.00590397,-0.00482088,-0.314094,0.00620251,0.0184215,1959,855,18.9678,-3.93061
742,169,18.9691,4.12225,0.00878329,-0.00505779,-0.00388825,0.00980078,-0.00607528,-0.255945,0.00924979,0.0144789,1966,855,18.9691,-4.12223
749,169,18.9259,4.2514,0.0142021,-0.0069737,-0.00516886,0.0153964,-0.00816802,-0.227076,0.0138167,0.0244452,1973,855,18.9259,-4.25139
756,169,18.5046,4.19775,0.0218674,-0.00936426,-0.00674539,0.023262,-0.0107589,-0.203875,0.0200792,0.0457259,1980,855,18.5046,-4.19776
763,169,18.1678,4.19354,0,0,0,0,0,0,0,-1,1987,855,18.1679,-4.19354
770,169,19.4686,6.12567,0,0,0,0,0,0,0,-1,1994,855,19.4686,-6.12565
777,169,20.0847,5.90063,0.0608646,-0.0190824,-0.0126262,0.0628113,-0.0210291,-0.152973,0.0503691,0.0473986,2001,855,20.0848,-5.90066
784,169,20.8949,5.77045,0.0797745,-0.0228496,-0.0146051,0.0818126,-0.0248877,-0.13865,0.0644595,0.0494391,2008,855,20.8949,-5.77047
791,169,0,0,0,0,0,0,0,0,0,-1,2015,855,0,0
798,169,0,0,0,0,0,0,0,0,0,-1,2022,855,0,0
805,169,0,0,0,0,0,0,0,0,0,-1,2029,855,0,0
812,169,0,0,0,0,0,0,0,0,0,-1,2036,855,0,0
-700,162,0,0,0,0,0,0,0,0,0,-1,524,862,0,0
-693,162,0,0,0,0,0,0,0,0,0,-1,531,862,0,0
-686,162,0,0,0,0,0,0,0,0,0,-1,538,862,0,0
-679,162,0,0,0,0,0,0,0,0,0,-1,545,862,0,0
-672,162,0,0,0,0,0,0,0,0,0,-1,552,862,0,0
-665,162,-12.8253,8.21027,0,0,0,0,0,0,0,-1,559,862,-12.8253,-8.21025
-658,162,-12.9355,9.67145,0,0,0,0,0,0,0,-1,566,862,-12.9355,-9.67142
-651,162,-16.2018,1.4447,0,0,0,0,0,0,0,-1,573,862,-16.2018,-1.44467
-644,162,-15.0736,1.34967,0,0,0,0,0,0,0,-1,580,862,-15.0736,-1.3497
-637,162,-12.3382,2.46765,0,0,0,0,0,0,0,-1,587,862,-12.3382,-2.46762
-630,162,-12.4584,2.26489,0.0213517,0.0157429,0.0210889,0.0398218,-0.00272726,0.719296,0.0275021,0.0432304,594,862,-12.4584,-2.26487
-623,162,-12.4991,2.08441,0.0154793,0.00871426,0.0144662,0.0269532,-0.00275967,0.670551,0.0189558,0.0300141,601,862,-12.4991,-2.08439
-616,162,-12.5507,1.90051,0.0107641,0.00403246,0.00956309,0.0175364,-0.00273984,0.616188,0.0127031,0.0169231,608,862,-12.5506,-1.90054
-609,162,-12.5591,1.72736,0.00702734,-1.40405e-05,0.00533321,0.00989714,-0.00288385,0.493661,0.00774057,0.0121917,615,862,-12.5591,-1.72736
-602,162,-12.567,1.54718,0.00386878,-0.00173442,0.00292372,0.00511651,-0.00298215,0.403363,0.00472958,0.0109029,622,862,-12.5669,-1.54715
-595,162,-12.5714,1.36108,0.00191641,-0.00132614,0.00202003,0.00288532,-0.00229506,0.447237,0.00299736,0.0102274,629,862,-12.5714,-1.3611
-588,162,-12.5658,1.17383,0.000807027,-0.00107822,0.0012287,0.00141303,-0.00168422,0.458198,0.00179048,0.0108511,636,862,-12.5658,-1.17383
-581,162,-12.6088,0.967102,0.000375683,-0.000643864,0.000994914,0.00098382,-0.001252,0.548647,0.00129394,0.0132328,643,862,-12.6088,-0.967108
-574,162,-12.7125,0.767273,4.2436e-06,-0.000301108,0.000905496,0.000769845,-0.00106671,0.701879,0.00106494,0.0181757,650,862,-12.7125,-0.767295
-567,162,-12.662,0.627747,-0.000223953,0.000254227,0.000544548,0.000609861,-0.000579587,0.992259,0.000686802,0.0282532,657,862,-12.662,-0.627741
-560,162,-12.6049,0.354065,5.06391e-05,0.000561887,0.000326496,0.000720923,-0.000108397,1.11752,0.000520524,0.0251503,664,862,-12.6048,-0.354055
-553,162,-12.4954,0.0939941,0.000422958,0.00107948,0.000501183,0.00135034,0.000152104,1.07533,0.000854049,0.0311276,671,862,-12.4954,-0.0939784
-546,162,-13.8082,0.488831,0,0,0,0,0,0,0,-1,678,862,-13.8082,-0.488817
-539,162,-15.0523,0.781799,0,0,0,0,0,0,0,-1,685,862,-15.0523,-0.781822
-532,162,-15.3653,0.973511,0.00112995,0.00250537,0.000767603,0.00284828,0.000787052,1.15068,0.00169842,0.0364706,692,862,-15.3653,-0.973532
-525,162,-15.2558,1.12115,0.00163488,0.00296623,0.00099148,0.00349477,0.00110634,1.08103,0.00206247,0.037776,699,862,-15.2558,-1.12114
-518,162,-15.3391,1.13849,0.00248896,0.00329582,0.00134237,0.00429406,0.00149071,0.931372,0.00251749,0.0399675,706,862,-15.3391,-1.13846
-511,162,-15.4814,1.05017,0.00410427,0.00327488,0.00185569,0.00559104,0.00178811,0.675469,0.00329711,0.0428296,713,862,-15.4814,-1.05014
-504,162,-15.604,0.963562,0.00689231,0.00265814,0.00246588,0.00802525,0.00152521,0.43068,0.00492119,0.0429894,720,862,-15.604,-0.963536
-497,162,-15.3991,1.01093,0.0110902,0.000719431,0.00350712,0.0121648,-0.000355228,0.297338,0.00823086,0.0434901,727,862,-15.3991,-1.0109
-490,162,0,0,0,0,0,0,0,0,0,-1,734,862,0,0
-483,162,0,0,0,0,0,0,0,0,0,-1,741,862,0,0
-476,162,0,0,0,0,0,0,0,0,0,-1,748,862,0,0
-469,162,0,0,0,0,0,0,0,0,0,-1,755,862,0,0
-462,162,0,0,0,0,0,0,0,0,0,-1,762,862,0,0
-455,162,0,0,0,0,0,0,0,0,0,-1,769,862,0,0
-448,162,0,0,0,0,0,0,0,0,0,-1,776,862,0,0
-441,162,0,0,0,0,0,0,0,0,0,-1,783,862,0,0
-434,162,0,0,0,0,0,0,0,0,0,-1,790,862,0,0
-427,162,0,0,0,0,0,0,0,0,0,-1,797,862,0,0
-420,162,0,0,0,0,0,0,0,0,0,-1,804,862,0,0
-413,162,0,0,0,0,0,0,0,0,0,-1,811,862,0,0
-406,162,0,0,0,0,0,0,0,0,0,-1,818,862,0,0
-399,162,0,0,0,0,0,0,0,0,0,-1,825,862,0,0
-392,162,0,0,0,0,0,0,0,0,0,-1,832,862,0,0
-385,162,0,0,0,0,0,0,0,0,0,-1,839,862,0,0
-378,162,0,0,0,0,0,0,0,0,0,-1,846,862,0,0
-371,162,0,0,0,0,0,0,0,0,0,-1,853,862,0,0
-364,162,0,0,0,0,0,0,0,0,0,-1,860,862,0,0
-357,162,0,0,0,0,0,0,0,0,0,-1,867,862,0,0
-350,162,0,0,0,0,0,0,0,0,0,-1,874,862,0,0
-343,162,0,0,0,0,0,0,0,0,0,-1,881,862,0,0
-336,162,0,0,0,0,0,0,0,0,0,-1,888,862,0,0
-329,162,0,0,0,0,0,0,0,0,0,-1,895,862,0,0
-322,162,0,0,0,0,0,0,0,0,0,-1,902,862,0,0
-315,162,0,0,0,0,0,0,0,0,0,-1,909,862,0,0
-308,162,0,0,0,0,0,0,0,0,0,-1,916,862,0,0
-301,162,0,0,0,0,0,0,0,0,0,-1,923,862,0,0
-294,162,0,0,0,0,0,0,0,0,0,-1,930,862,0,0
-287,162,0,0,0,0,0,0,0,0,0,-1,937,862,0,0
-280,162,0,0,0,0,0,0,0,0,0,-1,944,862,0,0
-273,162,0,0,0,0,0,0,0,0,0,-1,951,862,0,0
-266,162,0,0,0,0,0,0,0,0,0,-1,958,862,0,0
-259,162,0,0,0,0,0,0,0,0,0,-1,965,862,0,0
-252,162,0,0,0,0,0,0,0,0,0,-1,972,862,0,0
-245,162,0,0,0,0,0,0,0,0,0,-1,979,862,0,0
-238,162,0,0,0,0,0,0,0,0,0,-1,986,862,0,0
-231,162,0,0,0,0,0,0,0,0,0,-1,993,862,0,0
-224,162,0,0,0,0,0,0,0,0,0,-1,1000,862,0,0
-217,162,0,0,0,0,0,0,0,0,0,-1,1007,862,0,0
-210,162,0,0,0,0,0,0,0,0,0,-1,1014,862,0,0
-203,162,0,0,0,0,0,0,0,0,0,-1,1021,862,0,0
-196,162,0,0,0,0,0,0,0,0,0,-1,1028,862,0,0
-189,162,0,0,0,0,0,0,0,0,0,-1,1035,862,0,0
-182,162,0,0,0,0,0,0,0,0,0,-1,1042,862,0,0
-175,162,0,0,0,0,0,0,0,0,0,-1,1049,862,0,0
-168,162,0,0,0,0,0,0,0,0,0,-1,1056,862,0,0
-161,162,0,0,0,0,0,0,0,0,0,-1,1063,862,0,0
-154,162,0,0,0,0,0,0,0,0,0,-1,1070,862,0,0
-147,162,0,0,0,0,0,0,0,0,0,-1,1077,862,0,0
-140,162,0,0,0,0,0,0,0,0,0,-1,1084,862,0,0
-133,162,0,0,0,0,0,0,0,0,0,-1,1091,862,0,0
-126,162,0,0,0,0,0,0,0,0,0,-1,1098,862,0,0
-119,162,0,0,0,0,0,0,0,0,0,-1,1105,862,0,0
-112,162,0,0,0,0,0,0,0,0,0,-1,1112,862,0,0
-105,162,0,0,0,0,0,0,0,0,0,-1,1119,862,0,0
-98,162,0,0,0,0,0,0,0,0,0,-1,1126,862,0,0
-91,162,0,0,0,0,0,0,0,0,0,-1,1133,862,0,0
-84,162,0,0,0,0,0,0,0,0,0,-1,1140,862,0,0
-77,162,0,0,0,0,0,0,0,0,0,-1,1147,862,0,0
-70,162,0,0,0,0,0,0,0,0,0,-1,1154,862,0,0
-63,162,0,0,0,0,0,0,0,0,0,-1,1161,862,0,0
-56,162,0,0,0,0,0,0,0,0,0,-1,1168,862,0,0
-49,162,0,0,0,0,0,0,0,0,0,-1,1175,862,0,0
-42,162,0,0,0,0,0,0,0,0,0,-1,1182,862,0,0
-35,162,0,0,0,0,0,0,0,0,0,-1,1189,862,0,0
-28,162,0,0,0,0,0,0,0,0,0,-1,1196,862,0,0
-21,162,0,0,0,0,0,0,0,0,0,-1,1203,862,0,0
-14,162,0,0,0,0,0,0,0,0,0,-1,1210,862,0,0
-7,162,0,0,0,0,0,0,0,0,0,-1,1217,862,0,0
0,162,0,0,0,0,0,0,0,0,0,-1,1224,862,0,0
7,162,0,0,0,0,0,0,0,0,0,-1,1231,862,0,0
14,162,0,0,0,0,0,0,0,0,0,-1,1238,862,0,0
21,162,0,0,0,0,0,0,0,0,0,-1,1245,862,0,0
28,162,0,0,0,0,0,0,0,0,0,-1,1252,862,0,0
35,162,0,0,0,0,0,0,0,0,0,-1,1259,862,0,0
42,162,0,0,0,0,0,0,0,0,0,-1,1266,862,0,0
49,162,0,0,0,0,0,0,0,0,0,-1,1273,862,0,0
56,162,0,0,0,0,0,0,0,0,0,-1,1280,862,0,0
63,162,0,0,0,0,0,0,0,0,0,-1,1287,862,0,0
70,162,0,0,0,0,0,0,0,0,0,-1,1294,862,0,0
77,162,0,0,0,0,0,0,0,0,0,-1,1301,862,0,0
84,162,0,0,0,0,0,0,0,0,0,-1,1308,862,0,0
91,162,0,0,0,0,0,0,0,0,0,-1,1315,862,0,0
98,162,0,0,0,0,0,0,0,0,0,-1,1322,862,0,0
105,162,0,0,0,0,0,0,0,0,0,-1,1329,862,0,0
112,162,0,0,0,0,0,0,0,0,0,-1,1336,862,0,0
119,162,0,0,0,0,0,0,0,0,0,-1,1343,862,0,0
126,162,0,0,0,0,0,0,0,0,0,-1,1350,862,0,0
133,162,0,0,0,0,0,0,0,0,0,-1,1357,862,0,0
140,162,0,0,0,0,0,0,0,0,0,-1,1364,862,0,0
147,162,0,0,0,0,0,0,0,0,0,-1,1371,862,0,0
154,162,0,0,0,0,0,0,0,0,0,-1,1378,862,0,0
161,162,0,0,0,0,0,0,0,0,0,-1,1385,862,0,0
168,162,0,0,0,0,0,0,0,0,0,-1,1392,862,0,0
175,162,0,0,0,0,0,0,0,0,0,-1,1399,862,0,0
182,162,0,0,0,0,0,0,0,0,0,-1,1406,862,0,0
189,162,0,0,0,0,0,0,0,0,0,-1,1413,862,0,0
196,162,0,0,0,0,0,0,0,0,0,-1,1420,862,0,0
203,162,0,0,0,0,0,0,0,0,0,-1,1427,862,0,0
210,162,0,0,0,0,0,0,0,0,0,-1,1434,862,0,0
217,162,0,0,0,0,0,0,0,0,0,-1,1441,862,0,0
224,162,0,0,0,0,0,0,0,0,0,-1,1448,862,0,0
231,162,0,0,0,0,0,0,0,0,0,-1,1455,862,0,0
238,162,0,0,0,0,0,0,0,0,0,-1,1462,862,0,0
245,162,0,0,0,0,0,0,0,0,0,-1,1469,862,0,0
252,162,0,0,0,0,0,0,0,0,0,-1,1476,862,0,0
259,162,0,0,0,0,0,0,0,0,0,-1,1483,862,0,0
266,162,0,0,0,0,0,0,0,0,0,-1,1490,862,0,0
273,162,0,0,0,0,0,0,0,0,0,-1,1497,862,0,0
280,162,0,0,0,0,0,0,0,0,0,-1,1504,862,0,0
287,162,0,0,0,0,0,0,0,0,0,-1,1511,862,0,0
294,162,0,0,0,0,0,0,0,0,0,-1,1518,862,0,0
301,162,0,0,0,0,0,0,0,0,0,-1,1525,862,0,0
308,162,0,0,0,0,0,0,0,0,0,-1,1532,862,0,0
315,162,0,0,0,0,0,0,0,0,0,-1,1539,862,0,0
322,162,0,0,0,0,0,0,0,0,0,-1,1546,862,0,0
329,162,0,0,0,0,0,0,0,0,0,-1,1553,862,0,0
336,162,0,0,0,0,0,0,0,0,0,-1,1560,862,0,0
343,162,0,0,0,0,0,0,0,0,0,-1,1567,862,0,0
350,162,0,0,0,0,0,0,0,0,0,-1,1574,862,0,0
357,162,0,0,0,0,0,0,0,0,0,-1,1581,862,0,0
364,162,0,0,0,0,0,0,0,0,0,-1,1588,862,0,0
371,162,0,0,0,0,0,0,0,0,0,-1,1595,862,0,0
378,162,0,0,0,0,0,0,0,0,0,-1,1602,862,0,0
385,162,0,0,0,0,0,0,0,0,0,-1,1609,862,0,0
392,162,0,0,0,0,0,0,0,0,0,-1,1616,862,0,0
399,162,0,0,0,0,0,0,0,0,0,-1,1623,862,0,0
406,162,0,0,0,0,0,0,0,0,0,-1,1630,862,0,0
413,162,0,0,0,0,0,0,0,0,0,-1,1637,862,0,0
420,162,0,0,0,0,0,0,0,0,0,-1,1644,862,0,0
427,162,0,0,0,0,0,0,0,0,0,-1,1651,862,0,0
434,162,0,0,0,0,0,0,0,0,0,-1,1658,862,0,0
441,162,0,0,0,0,0,0,0,0,0,-1,1665,862,0,0
448,162,0,0,0,0,0,0,0,0,0,-1,1672,862,0,0
455,162,0,0,0,0,0,0,0,0,0,-1,1679,862,0,0
462,162,0,0,0,0,0,0,0,0,0,-1,1686,862,0,0
469,162,0,0,0,0,0,0,0,0,0,-1,1693,862,0,0
476,162,0,0,0,0,0,0,0,0,0,-1,1700,862,0,0
483,162,0,0,0,0,0,0,0,0,0,-1,1707,862,0,0
490,162,0,0,0,0,0,0,0,0,0,-1,1714,862,0,0
497,162,0,0,0,0,0,0,0,0,0,-1,1721,862,0,0
504,162,0,0,0,0,0,0,0,0,0,-1,1728,862,0,0
511,162,0,0,0,0,0,0,0,0,0,-1,1735,862,0,0
518,162,0,0,0,0,0,0,0,0,0,-1,1742,862,0,0
525,162,0,0,0,0,0,0,0,0,0,-1,1749,862,0,0
532,162,0,0,0,0,0,0,0,0,0,-1,1756,862,0,0
539,162,0,0,0,0,0,0,0,0,0,-1,1763,862,0,0
546,162,0,0,0,0,0,0,0,0,0,-1,1770,862,0,0
553,162,0,0,0,0,0,0,0,0,0,-1,1777,862,0,0
560,162,0,0,0,0,0,0,0,0,0,-1,1784,862,0,0
567,162,0,0,0,0,0,0,0,0,0,-1,1791,862,0,0
574,162,0,0,0,0,0,0,0,0,0,-1,1798,862,0,0
581,162,0,0,0,0,0,0,0,0,0,-1,1805,862,0,0
588,162,0,0,0,0,0,0,0,0,0,-1,1812,862,0,0
595,162,0,0,0,0,0,0,0,0,0,-1,1819,862,0,0
602,162,0,0,0,0,0,0,0,0,0,-1,1826,862,0,0
609,162,0,0,0,0,0,0,0,0,0,-1,1833,862,0,0
616,162,22.8141,2.73291,-0.00699299,-0.00194044,-0.00130619,-0.00162274,-0.0073107,-1.3322,0.00443302,0.0443068,1840,862,22.8141,-2.73294
623,162,22.7837,2.77899,-0.00406523,-0.00173164,-0.000722673,-0.00152596,-0.0042709,-1.29353,0.00249906,0.0449299,1847,862,22.7837,-2.77901
630,162,22.7734,2.72491,-0.00143548,-0.00149806,-0.000395844,-0.00106969,-0.00186385,-0.745956,0.00108001,0.042279,1854,862,22.7734,-2.72491
637,162,22.7932,2.79236,0.000385873,-0.00141805,-0.000316095,0.000439658,-0.00147183,-0.168539,0.00115599,0.0383422,1861,862,22.7932,-2.79236
644,162,22.8478,2.84949,0.00137622,-0.00139651,-0.000323074,0.00141336,-0.00143366,-0.114476,0.00164374,0.0363193,1868,862,22.8478,-2.84951
651,162,22.8447,2.78156,0.00156406,-0.00139071,-0.000466432,0.00163594,-0.00146259,-0.152906,0.00178987,0.032861,1875,862,22.8448,-2.78153
658,162,22.9061,2.62616,0.00140514,-0.00139749,-0.000589652,0.00152414,-0.00151649,-0.199148,0.00175551,0.0320357,1882,862,22.9061,-2.62619
665,162,22.9344,2.62701,0.00110718,-0.00138615,-0.0005626,0.00122824,-0.00150722,-0.211961,0.00158206,0.0379666,1889,862,22.9345,-2.62704
672,162,22.9287,2.67407,0,0,0,0,0,0,0,-1,1896,862,22.9287,-2.67405
679,162,19.4335,2.34882,0,0,0,0,0,0,0,-1,1903,862,19.4334,-2.34884
686,162,19.2675,2.53467,-1.72709e-05,-0.00111464,-0.000864084,0.000457614,-0.00158953,-0.502522,0.00124068,0.032614,1910,862,19.2674,-2.53465
693,162,19.1862,2.74152,-0.000558881,-0.00100299,-0.000926057,0.000171371,-0.00173324,-0.667727,0.00121665,0.0159785,1917,862,19.1861,-2.7415
700,162,19.2263,2.92664,-0.00114404,-0.000925394,-0.000922213,-0.000106047,-0.00196339,-0.844395,0.00127505,0.0148791,1924,862,19.2263,-2.92662
707,162,19.2144,3.09424,-0.00186419,-0.000810546,-0.00103776,-0.000173544,-0.00250119,-1.02027,0.00161273,0.011204,1931,862,19.2143,-3.09421
714,162,19.1882,3.30389,-0.00211579,-0.000913351,-0.00114373,-0.000222451,-0.00280669,-1.02738,0.00180156,0.0148139,1938,862,19.1882,-3.30387
721,162,19.1199,3.58807,-0.00162131,-0.000997585,-0.00158319,0.000304167,-0.00292306,-0.882645,0.0020576,0.0288108,1945,862,19.1199,-3.58809
728,162,19.1288,3.76825,0.000735593,-0.00174463,-0.00242281,0.00221723,-0.00322626,-0.548858,0.00316074,0.0227063,1952,862,19.1287,-3.76828
735,162,19.1544,3.93311,0.00416053,-0.00271275,-0.00336543,0.00553394,-0.00408616,-0.387465,0.0055751,0.0109962,1959,862,19.1544,-3.93311
742,162,19.1765,4.13116,0.00788621,-0.00342051,-0.00401572,0.00916729,-0.00470159,-0.308811,0.00814439,0.0120413,1966,862,19.1765,-4.13114
749,162,19.1731,4.30481,0.0127378,-0.00468969,-0.0051777,0.01416,-0.00611191,-0.268071,0.0120075,0.0163179,1973,862,19.173,-4.30484
756,162,19.1364,4.43225,0.019525,-0.00628865,-0.00649404,0.0210667,-0.00783031,-0.233081,0.0172572,0.0373848,1980,862,19.1364,-4.43227
763,162,18.7784,4.19818,0.0282725,-0.0081535,-0.00790173,0.0299127,-0.00979373,-0.204672,0.0238853,0.0445581,1987,862,18.7785,-4.19817
770,162,19.6863,6.27374,0,0,0,0,0,0,0,-1,1994,862,19.6863,-6.27377
777,162,20.3606,6.10339,0.0521496,-0.0123153,-0.0104114,0.0537894,-0.0139551,-0.156216,0.0413047,0.045016,2001,862,20.3606,-6.10339
784,162,21.2872,5.9187,0.0670055,-0.0143135,-0.0111746,0.0685132,-0.0158211,-0.134105,0.0517615,0.0445713,2008,862,21.2872,-5.91868
791,162,0,0,0,0,0,0,0,0,0,-1,2015,862,0,0
798,162,0,0,0,0,0,0,0,0,0,-1,2022,862,0,0
805,162,0,0,0,0,0,0,0,0,0,-1,2029,862,0,0
812,162,0,0,0,0,0,0,0,0,0,-1,2036,862,0,0
-700,155,0,0,0,0,0,0,0,0,0,-1,524,869,0,0
-693,155,0,0,0,0,0,0,0,0,0,-1,531,869,0,0
-686,155,0,0,0,0,0,0,0,0,0,-1,538,869,0,0
-679,155,0,0,0,0,0,0,0,0,0,-1,545,869,0,0
-672,155,0,0,0,0,0,0,0,0,0,-1,552,869,0,0
-665,155,-12.7981,7.16742,0.043592,0.111819,0.0870855,0.171234,-0.0158232,0.972074,0.119779,0.0467648,559,869,-12.7981,-7.16745
-658,155,-12.8995,8.48273,0.037886,0.0857012,0.0688552,0.134681,-0.011094,0.952494,0.0937046,0.0492694,566,869,-12.8994,-8.48274
-651,155,-13.1236,9.39856,0,0,0,0,0,0,0,-1,573,869,-13.1236,-9.39856
-644,155,-15.3254,1.29846,0,0,0,0,0,0,0,-1,580,869,-15.3255,-1.29846
-637,155,-12.4969,2.66534,0,0,0,0,0,0,0,-1,587,869,-12.4969,-2.66532
-630,155,-12.5791,2.41211,0.0142539,0.0197345,0.0199744,0.0371557,-0.00316728,0.853569,0.0258909,0.0416989,594,869,-12.5791,-2.41212
-623,155,-12.6553,2.13074,0.0097281,0.011794,0.0134385,0.0242392,-0.00271714,0.823755,0.0171371,0.0233449,601,869,-12.6553,-2.13076
-616,155,-12.7357,1.90692,0.00627886,0.006246,0.00861216,0.0148746,-0.00234975,0.784444,0.0107853,0.0134867,608,869,-12.7356,-1.90693
-609,155,-12.7519,1.70917,0.00356421,0.00144068,0.00442935,0.00705727,-0.00205238,0.667762,0.00551771,0.0124328,615,869,-12.7519,-1.70917
-602,155,-12.7581,1.53784,0.0013156,-0.000734676,0.00219542,0.00271343,-0.00213251,0.566971,0.0028045,0.0113231,622,869,-12.7581,-1.53785
-595,155,-12.7689,1.36176,0.000205041,-0.000646474,0.00151936,0.00135717,-0.00179861,0.648791,0.00182792,0.0103262,629,869,-12.7688,-1.36178
-588,155,-12.7528,1.18121,-0.000263389,-0.00060336,0.000924608,0.000506729,-0.00137348,0.69449,0.00112333,0.011567,636,869,-12.7528,-1.18119
-581,155,-12.8305,1.02649,-0.000341282,-0.000275355,0.000737612,0.00043003,-0.00104667,0.807728,0.000876999,0.0172695,643,869,-12.8305,-1.02646
-574,155,-12.9021,0.859436,-0.000506534,2.62438e-05,0.000719587,0.000527168,-0.00100746,0.962675,0.000900364,0.0232968,650,869,-12.9021,-0.859415
-567,155,-12.8501,0.599609,-0.000587089,0.000509877,0.00044193,0.000665763,-0.000742975,1.23168,0.000813742,0.0240788,657,869,-12.8501,-0.599618
-560,155,-12.7916,0.357483,-0.000175935,0.000671692,0.000245793,0.00073781,-0.000242052,1.30802,0.000589365,0.0227662,664,869,-12.7916,-0.357494
-553,155,-12.7929,0.22644,0.000255637,0.00112574,0.000362589,0.00125702,0.000124348,1.22339,0.000799796,0.046874,671,869,-12.7929,-0.226429
-546,155,-12.8406,0.176819,0,0,0,0,0,0,0,-1,678,869,-12.8407,-0.176808
-539,155,-15.4449,0.883362,0.000821273,0.00190385,0.000461373,0.0020738,0.000651324,1.21786,0.00122459,0.0463984,685,869,-15.4449,-0.883378
-532,155,-15.3531,1.06226,0.0013338,0.00235457,0.000589482,0.00262392,0.00106446,1.1422,0.00152388,0.0352511,692,869,-15.3531,-1.06228
-525,155,-15.2915,1.15051,0.00200139,0.00271492,0.000772484,0.00320905,0.00150727,1.00173,0.00185388,0.034884,699,869,-15.2915,-1.15052
-518,155,-15.3687,1.18927,0.00313834,0.00288317,0.001046,0.0040645,0.00195701,0.72471,0.00234718,0.0393712,706,869,-15.3686,-1.18925
-511,155,-15.4821,1.17792,0.00511919,0.00265708,0.00143305,0.00577735,0.00199892,0.430537,0.00338789,0.0417194,713,869,-15.4821,-1.17793
-504,155,-15.5435,1.07385,0.00838102,0.00184016,0.00181208,0.00884949,0.00137169,0.252985,0.00549974,0.0405209,720,869,-15.5435,-1.07387
-497,155,0,0,0,0,0,0,0,0,0,-1,727,869,0,0
-490,155,0,0,0,0,0,0,0,0,0,-1,734,869,0,0
-483,155,0,0,0,0,0,0,0,0,0,-1,741,869,0,0
-476,155,0,0,0,0,0,0,0,0,0,-1,748,869,0,0
-469,155,0,0,0,0,0,0,0,0,0,-1,755,869,0,0
-462,155,0,0,0,0,0,0,0,0,0,-1,762,869,0,0
-455,155,0,0,0,0,0,0,0,0,0,-1,769,869,0,0
-448,155,0,0,0,0,0,0,0,0,0,-1,776,869,0,0
-441,155,0,0,0,0,0,0,0,0,0,-1,783,869,0,0
-434,155,0,0,0,0,0,0,0,0,0,-1,790,869,0,0
-427,155,0,0,0,0,0,0,0,0,0,-1,797,869,0,0
-420,155,0,0,0,0,0,0,0,0,0,-1,804,869,0,0
-413,155,0,0,0,0,0,0,0,0,0,-1,811,869,0,0
-406,155,0,0,0,0,0,0,0,0,0,-1,818,869,0,0
-399,155,0,0,0,0,0,0,0,0,0,-1,825,869,0,0
-392,155,0,0,0,0,0,0,0,0,0,-1,832,869,0,0
-385,155,0,0,0,0,0,0,0,0,0,-1,839,869,0,0
-378,155,0,0,0,0,0,0,0,0,0,-1,846,869,0,0
-371,155,0,0,0,0,0,0,0,0,0,-1,853,869,0,0
-364,155,0,0,0,0,0,0,0,0,0,-1,860,869,0,0
-357,155,0,0,0,0,0,0,0,0,0,-1,867,869,0,0
-350,155,0,0,0,0,0,0,0,0,0,-1,874,869,0,0
-343,155,0,0,0,0,0,0,0,0,0,-1,881,869,0,0
-336,155,0,0,0,0,0,0,0,0,0,-1,888,869,0,0
-329,155,0,0,0,0,0,0,0,0,0,-1,895,869,0,0
-322,155,0,0,0,0,0,0,0,0,0,-1,902,869,0,0
-315,155,0,0,0,0,0,0,0,0,0,-1,909,869,0,0
-308,155,0,0,0,0,0,0,0,0,0,-1,916,869,0,0
-301,155,0,0,0,0,0,0,0,0,0,-1,923,869,0,0
-294,155,0,0,0,0,0,0,0,0,0,-1,930,869,0,0
-287,155,0,0,0,0,0,0,0,0,0,-1,937,869,0,0
-280,155,0,0,0,0,0,0,0,0,0,-1,944,869,0,0
-273,155,0,0,0,0,0,0,0,0,0,-1,951,869,0,0
-266,155,0,0,0,0,0,0,0,0,0,-1,958,869,0,0
-259,155,0,0,0,0,0,0,0,0,0,-1,965,869,0,0
-252,155,0,0,0,0,0,0,0,0,0,-1,972,869,0,0
-245,155,0,0,0,0,0,0,0,0,0,-1,979,869,0,0
-238,155,0,0,0,0,0,0,0,0,0,-1,986,869,0,0
-231,155,0,0,0,0,0,0,0,0,0,-1,993,869,0,0
-224,155,0,0,0,0,0,0,0,0,0,-1,1000,869,0,0
-217,155,0,0,0,0,0,0,0,0,0,-1,1007,869,0,0
-210,155,0,0,0,0,0,0,0,0,0,-1,1014,869,0,0
-203,155,0,0,0,0,0,0,0,0,0,-1,1021,869,0,0
-196,155,0,0,0,0,0,0,0,0,0,-1,1028,869,0,0
-189,155,0,0,0,0,0,0,0,0,0,-1,1035,869,0,0
-182,155,0,0,0,0,0,0,0,0,0,-1,1042,869,0,0
-175,155,0,0,0,0,0,0,0,0,0,-1,1049,869,0,0
-168,155,0,0,0,0,0,0,0,0,0,-1,1056,869,0,0
-161,155,0,0,0,0,0,0,0,0,0,-1,1063,869,0,0
-154,155,0,0,0,0,0,0,0,0,0,-1,1070,869,0,0
-147,155,0,0,0,0,0,0,0,0,0,-1,1077,869,0,0
-140,155,0,0,0,0,0,0,0,0,0,-1,1084,869,0,0
-133,155,0,0,0,0,0,0,0,0,0,-1,1091,869,0,0
-126,155,0,0,0,0,0,0,0,0,0,-1,1098,869,0,0
-119,155,0,0,0,0,0,0,0,0,0,-1,1105,869,0,0
-112,155,0,0,0,0,0,0,0,0,0,-1,1112,869,0,0
-105,155,0,0,0,0,0,0,0,0,0,-1,1119,869,0,0
-98,155,0,0,0,0,0,0,0,0,0,-1,1126,869,0,0
-91,155,0,0,0,0,0,0,0,0,0,-1,1133,869,0,0
-84,155,0,0,0,0,0,0,0,0,0,-1,1140,869,0,0
-77,155,0,0,0,0,0,0,0,0,0,-1,1147,869,0,0
-70,155,0,0,0,0,0,0,0,0,0,-1,1154,869,0,0
-63,155,0,0,0,0,0,0,0,0,0,-1,1161,869,0,0
-56,155,0,0,0,0,0,0,0,0,0,-1,1168,869,0,0
-49,155,0,0,0,0,0,0,0,0,0,-1,1175,869,0,0
-42,155,0,0,0,0,0,0,0,0,0,-1,1182,869,0,0
-35,155,0,0,0,0,0,0,0,0,0,-1,1189,869,0,0
-28,155,0,0,0,0,0,0,0,0,0,-1,1196,869,0,0
-21,155,0,0,0,0,0,0,0,0,0,-1,1203,869,0,0
-14,155,0,0,0,0,0,0,0,0,0,-1,1210,869,0,0
-7,155,0,0,0,0,0,0,0,0,0,-1,1217,869,0,0
0,155,0,0,0,0,0,0,0,0,0,-1,1224,869,0,0
7,155,0,0,0,0,0,0,0,0,0,-1,1231,869,0,0
14,155,0,0,0,0,0,0,0,0,0,-1,1238,869,0,0
21,155,0,0,0,0,0,0,0,0,0,-1,1245,869,0,0
28,155,0,0,0,0,0,0,0,0,0,-1,1252,869,0,0
35,155,0,0,0,0,0,0,0,0,0,-1,1259,869,0,0
42,155,0,0,0,0,0,0,0,0,0,-1,1266,869,0,0
49,155,0,0,0,0,0,0,0,0,0,-1,1273,869,0,0
56,155,0,0,0,0,0,0,0,0,0,-1,1280,869,0,0
63,155,0,0,0,0,0,0,0,0,0,-1,1287,869,0,0
70,155,0,0,0,0,0,0,0,0,0,-1,1294,869,0,0
77,155,0,0,0,0,0,0,0,0,0,-1,1301,869,0,0
84,155,0,0,0,0,0,0,0,0,0,-1,1308,869,0,0
91,155,0,0,0,0,0,0,0,0,0,-1,1315,869,0,0
98,155,0,0,0,0,0,0,0,0,0,-1,1322,869,0,0
105,155,0,0,0,0,0,0,0,0,0,-1,1329,869,0,0
112,155,0,0,0,0,0,0,0,0,0,-1,1336,869,0,0
119,155,0,0,0,0,0,0,0,0,0,-1,1343,869,0,0
126,155,0,0,0,0,0,0,0,0,0,-1,1350,869,0,0
133,155,0,0,0,0,0,0,0,0,0,-1,1357,869,0,0
140,155,0,0,0,0,0,0,0,0,0,-1,1364,869,0,0
147,155,0,0,0,0,0,0,0,0,0,-1,1371,869,0,0
154,155,0,0,0,0,0,0,0,0,0,-1,1378,869,0,0
161,155,0,0,0,0,0,0,0,0,0,-1,1385,869,0,0
168,155,0,0,0,0,0,0,0,0,0,-1,1392,869,0,0
175,155,0,0,0,0,0,0,0,0,0,-1,1399,869,0,0
182,155,0,0,0,0,0,0,0,0,0,-1,1406,869,0,0
189,155,0,0,0,0,0,0,0,0,0,-1,1413,869,0,0
196,155,0,0,0,0,0,0,0,0,0,-1,1420,869,0,0
203,155,0,0,0,0,0,0,0,0,0,-1,1427,869,0,0
210,155,0,0,0,0,0,0,0,0,0,-1,1434,869,0,0
217,155,0,0,0,0,0,0,0,0,0,-1,1441,869,0,0
224,155,0,0,0,0,0,0,0,0,0,-1,1448,869,0,0
231,155,0,0,0,0,0,0,0,0,0,-1,1455,869,0,0
238,155,0,0,0,0,0,0,0,0,0,-1,1462,869,0,0
245,155,0,0,0,0,0,0,0,0,0,-1,1469,869,0,0
252,155,0,0,0,0,0,0,0,0,0,-1,1476,869,0,0
259,155,0,0,0,0,0,0,0,0,0,-1,1483,869,0,0
266,155,0,0,0,0,0,0,0,0,0,-1,1490,869,0,0
273,155,0,0,0,0,0,0,0,0,0,-1,1497,869,0,0
280,155,0,0,0,0,0,0,0,0,0,-1,1504,869,0,0
287,155,0,0,0,0,0,0,0,0,0,-1,1511,869,0,0
294,155,0,0,0,0,0,0,0,0,0,-1,1518,869,0,0
301,155,0,0,0,0,0,0,0,0,0,-1,1525,869,0,0
308,155,0,0,0,0,0,0,0,0,0,-1,1532,869,0,0
315,155,0,0,0,0,0,0,0,0,0,-1,1539,869,0,0
322,155,0,0,0,0,0,0,0,0,0,-1,1546,869,0,0
329,155,0,0,0,0,0,0,0,0,0,-1,1553,869,0,0
336,155,0,0,0,0,0,0,0,0,0,-1,1560,869,0,0
343,155,0,0,0,0,0,0,0,0,0,-1,1567,869,0,0
350,155,0,0,0,0,0,0,0,0,0,-1,1574,869,0,0
357,155,0,0,0,0,0,0,0,0,0,-1,1581,869,0,0
364,155,0,0,0,0,0,0,0,0,0,-1,1588,869,0,0
371,155,0,0,0,0,0,0,0,0,0,-1,1595,869,0,0
378,155,0,0,0,0,0,0,0,0,0,-1,1602,869,0,0
385,155,0,0,0,0,0,0,0,0,0,-1,1609,869,0,0
392,155,0,0,0,0,0,0,0,0,0,-1,1616,869,0,0
399,155,0,0,0,0,0,0,0,0,0,-1,1623,869,0,0
406,155,0,0,0,0,0,0,0,0,0,-1,1630,869,0,0
413,155,0,0,0,0,0,0,0,0,0,-1,1637,869,0,0
420,155,0,0,0,0,0,0,0,0,0,-1,1644,869,0,0
427,155,0,0,0,0,0,0,0,0,0,-1,1651,869,0,0
434,155,0,0,0,0,0,0,0,0,0,-1,1658,869,0,0
441,155,0,0,0,0,0,0,0,0,0,-1,1665,869,0,0
448,155,0,0,0,0,0,0,0,0,0,-1,1672,869,0,0
455,155,0,0,0,0,0,0,0,0,0,-1,1679,869,0,0
462,155,0,0,0,0,0,0,0,0,0,-1,1686,869,0,0
469,155,0,0,0,0,0,0,0,0,0,-1,1693,869,0,0
476,155,0,0,0,0,0,0,0,0,0,-1,1700,869,0,0
483,155,0,0,0,0,0,0,0,0,0,-1,1707,869,0,0
490,155,0,0,0,0,0,0,0,0,0,-1,1714,869,0,0
497,155,0,0,0,0,0,0,0,0,0,-1,1721,869,0,0
504,155,0,0,0,0,0,0,0,0,0,-1,1728,869,0,0
511,155,0,0,0,0,0,0,0,0,0,-1,1735,869,0,0
518,155,0,0,0,0,0,0,0,0,0,-1,1742,869,0,0
525,155,0,0,0,0,0,0,0,0,0,-1,1749,869,0,0
532,155,0,0,0,0,0,0,0,0,0,-1,1756,869,0,0
539,155,0,0,0,0,0,0,0,0,0,-1,1763,869,0,0
546,155,0,0,0,0,0,0,0,0,0,-1,1770,869,0,0
553,155,0,0,0,0,0,0,0,0,0,-1,1777,869,0,0
560,155,0,0,0,0,0,0,0,0,0,-1,1784,869,0,0
567,155,0,0,0,0,0,0,0,0,0,-1,1791,869,0,0
574,155,0,0,0,0,0,0,0,0,0,-1,1798,869,0,0
581,155,0,0,0,0,0,0,0,0,0,-1,1805,869,0,0
588,155,0,0,0,0,0,0,0,0,0,-1,1812,869,0,0
595,155,0,0,0,0,0,0,0,0,0,-1,1819,869,0,0
602,155,0,0,0,0,0,0,0,0,0,-1,1826,869,0,0
609,155,0,0,0,0,0,0,0,0,0,-1,1833,869,0,0
616,155,22.8318,2.83844,-0.00766969,-0.000790127,-0.00122182,-0.000579574,-0.00788024,-1.40015,0.00507135,0.0466879,1840,869,22.8317,-2.83847
623,155,22.694,2.94385,-0.00479741,-0.00080919,-0.000655025,-0.000704364,-0.00490224,-1.41211,0.00306051,0.0450848,1847,869,22.6939,-2.94382
630,155,22.6863,2.92944,-0.00222399,-0.000789301,-0.000360828,-0.000703664,-0.00230963,-1.33777,0.00136697,0.0426563,1854,869,22.6863,-2.92946
637,155,22.7258,2.8338,-0.000319595,-0.000877888,-0.00030322,-0.000186595,-0.00101089,-0.413356,0.000621141,0.0396538,1861,869,22.7258,-2.83382
644,155,22.8103,2.8866,0.000718402,-0.000981815,-0.000335955,0.000782378,-0.00104579,-0.188177,0.00105914,0.0373823,1868,869,22.8103,-2.88659
651,155,22.8787,2.73444,0.000851237,-0.00105628,-0.000505142,0.000976748,-0.00118179,-0.243536,0.00124811,0.0331516,1875,869,22.8787,-2.73446
658,155,22.8695,2.70996,0.000644836,-0.00112519,-0.000639084,0.000851462,-0.00133181,-0.312709,0.00127064,0.0264483,1882,869,22.8695,-2.70995
665,155,22.8464,2.69824,0.000317658,-0.00116792,-0.000640402,0.000555609,-0.00140587,-0.355755,0.00116739,0.0313607,1889,869,22.8465,-2.69824
672,155,22.8724,2.68207,1.52898e-05,-0.00108401,-0.000682753,0.000342148,-0.00141087,-0.446492,0.00107297,0.0425141,1896,869,22.8725,-2.68205
679,155,22.9397,2.65143,0,0,0,0,0,0,0,-1,1903,869,22.9397,-2.65145
686,155,19.475,2.61664,0,0,0,0,0,0,0,-1,1910,869,19.475,-2.61661
693,155,19.3693,2.76099,-0.0013599,-0.000875267,-0.00096625,-0.000121414,-0.00211376,-0.908256,0.00137049,0.0223148,1917,869,19.3693,-2.76096
700,155,19.438,2.96362,-0.00188621,-0.000783316,-0.000961023,-0.000226765,-0.00244276,-1.04587,0.00155843,0.0162602,1924,869,19.438,-2.96362
707,155,19.4968,3.1875,-0.00251013,-0.000624401,-0.00110633,-0.000113663,-0.00302087,-1.1383,0.00197711,0.0122783,1931,869,19.4969,-3.18751
714,155,19.4312,3.33344,-0.00265989,-0.000688034,-0.00124392,-8.67037e-05,-0.00326122,-1.1205,0.00214583,0.0222285,1938,869,19.4312,-3.33345
721,155,19.3408,3.55927,-0.00207907,-0.000611759,-0.00159515,0.000410361,-0.00310119,-1.00094,0.00221694,0.0262122,1945,869,19.3409,-3.55925
728,155,19.3303,3.75287,0.000215951,-0.00107585,-0.0022984,0.00195748,-0.00281738,-0.648421,0.00277163,0.0194456,1952,869,19.3303,-3.75285
735,155,19.3444,3.92139,0.00348101,-0.0017375,-0.0031325,0.00494861,-0.0032051,-0.438138,0.00474329,0.0159529,1959,869,19.3443,-3.92136
742,155,19.39,4.1496,0.00694434,-0.00188444,-0.00355799,0.0081997,-0.00313981,-0.339193,0.00676064,0.0166346,1966,869,19.39,-4.14961
749,155,19.391,4.34229,0.0112455,-0.00254981,-0.00446665,0.0125654,-0.00386974,-0.287329,0.00992169,0.0129694,1973,869,19.391,-4.34226
756,155,19.3623,4.53851,0.017219,-0.00338667,-0.00539321,0.0185453,-0.0047129,-0.241123,0.0141977,0.0225728,1980,869,19.3624,-4.53854
763,155,19.2632,4.37714,0.0246889,-0.00427697,-0.00625816,0.0259832,-0.00557123,-0.203937,0.019447,0.0384967,1987,869,19.2632,-4.37715
770,155,19.1312,4.24725,0,0,0,0,0,0,0,-1,1994,869,19.1313,-4.24723
777,155,20.1483,5.60553,0,0,0,0,0,0,0,-1,2001,869,20.1483,-5.60555
784,155,21.3546,6.19824,0,0,0,0,0,0,0,-1,2008,869,21.3546,-6.19822
791,155,0,0,0,0,0,0,0,0,0,-1,2015,869,0,0
798,155,0,0,0,0,0,0,0,0,0,-1,2022,869,0,0
805,155,0,0,0,0,0,0,0,0,0,-1,2029,869,0,0
812,155,0,0,0,0,0,0,0,0,0,-1,2036,869,0,0
-700,148,0,0,0,0,0,0,0,0,0,-1,524,876,0,0
-693,148,0,0,0,0,0,0,0,0,0,-1,531,876,0,0
-686,148,0,0,0,0,0,0,0,0,0,-1,538,876,0,0
-679,148,0,0,0,0,0,0,0,0,0,-1,545,876,0,0
-672,148,-13.0306,4.65448,0,0,0,0,0,0,0,-1,552,876,-13.0306,-4.65448
-665,148,-12.7411,5.97858,0.0315508,0.113433,0.0854772,0.167268,-0.0222842,1.00874,0.119634,0.0442773,559,876,-12.7411,-5.97856
-658,148,-12.7737,7.38763,0.026901,0.0876382,0.0674873,0.131275,-0.0167357,0.996821,0.0935952,0.0468373,566,876,-12.7737,-7.38764
-651,148,-12.6668,8.61938,0,0,0,0,0,0,0,-1,573,876,-12.6668,-8.61937
-644,148,-13.0835,2.58447,0,0,0,0,0,0,0,-1,580,876,-13.0835,-2.5845
-637,148,-12.7258,2.90485,0,0,0,0,0,0,0,-1,587,876,-12.7258,-2.90486
-630,148,-12.7753,2.54175,0.00866399,0.0217758,0.0193982,0.035696,-0.00525616,0.948355,0.025729,0.0431754,594,876,-12.7753,-2.54176
-623,148,-12.796,2.1427,0.00544911,0.0135324,0.0129608,0.0230671,-0.00408558,0.936538,0.0169053,0.0220564,601,876,-12.796,-2.14267
-616,148,-12.8983,1.90753,0.00308934,0.00755494,0.00814721,0.0137698,-0.00312549,0.919143,0.0103797,0.0125277,608,876,-12.8983,-1.9075
-609,148,-12.9416,1.71515,0.00120794,0.00234398,0.00395181,0.00576839,-0.00221646,0.856777,0.00475967,0.0110473,615,876,-12.9416,-1.71514
-602,148,-12.9516,1.52496,-0.000350284,-0.000102369,0.00177713,0.00155512,-0.00200778,0.820217,0.00206257,0.0114352,622,876,-12.9516,-1.52497
-595,148,-12.9528,1.34949,-0.00092101,-0.000286527,0.00116707,0.000605648,-0.00181318,0.918106,0.00145336,0.0101231,629,876,-12.9528,-1.34946
-588,148,-12.9657,1.15698,-0.00101419,-0.000398107,0.000631687,-3.35422e-06,-0.00140894,1.01226,0.000938176,0.0140449,636,876,-12.9657,-1.15697
-581,148,-13.0327,1.008,-0.000959081,-0.00013146,0.00045073,6.66088e-05,-0.00115715,1.15676,0.000794568,0.022243,643,876,-13.0327,-1.00797
-574,148,-12.9155,0.850769,-0.00106848,0.000114745,0.000480249,0.000285133,-0.00123887,1.22986,0.000935554,0.0265444,650,876,-12.9155,-0.850791
-567,148,-12.9814,0.638672,-0.000980336,0.000460054,0.000278153,0.000511902,-0.00103218,1.38651,0.000908191,0.0330599,657,876,-12.9814,-0.638652
-560,148,-12.9719,0.378845,-0.000420127,0.000454748,0.000124167,0.000472029,-0.000437408,1.43251,0.00052519,0.0316091,664,876,-12.9719,-0.378825
-553,148,-13.0567,0.365234,0,0,0,0,0,0,0,-1,671,876,-13.0567,-0.365245
-546,148,-15.4467,0.899475,0,0,0,0,0,0,0,-1,678,876,-15.4466,-0.899445
-539,148,-15.4305,0.917969,0.000961402,0.00141944,0.000321739,0.00158535,0.000795497,1.09471,0.000915303,0.0360818,685,876,-15.4305,-0.917975
-532,148,-15.3973,0.998108,0.00168315,0.00170314,0.000439756,0.00213301,0.00125327,0.796759,0.00123777,0.033826,692,876,-15.3973,-0.998114
-525,148,-15.3476,1.1095,0.00262607,0.0018419,0.000593941,0.00294567,0.00152229,0.493662,0.001701,0.0360667,699,876,-15.3476,-1.10951
-518,148,-15.3517,1.13007,0.00415444,0.00170608,0.000784174,0.00438406,0.00147646,0.284859,0.0025757,0.0417465,706,876,-15.3517,-1.13004
-511,148,-15.3242,1.11426,0.00652583,0.0010779,0.000992274,0.00670094,0.000902801,0.174668,0.00419883,0.0405237,713,876,-15.3242,-1.11428
-504,148,-15.2101,1.06616,0.0101883,-0.000203929,0.00101356,0.0102863,-0.000301858,0.0963207,0.00696031,0.0420764,720,876,-15.2101,-1.06618
-497,148,0,0,0,0,0,0,0,0,0,-1,727,876,0,0
-490,148,0,0,0,0,0,0,0,0,0,-1,734,876,0,0
-483,148,0,0,0,0,0,0,0,0,0,-1,741,876,0,0
-476,148,0,0,0,0,0,0,0,0,0,-1,748,876,0,0
-469,148,0,0,0,0,0,0,0,0,0,-1,755,876,0,0
-462,148,0,0,0,0,0,0,0,0,0,-1,762,876,0,0
-455,148,0,0,0,0,0,0,0,0,0,-1,769,876,0,0
-448,148,0,0,0,0,0,0,0,0,0,-1,776,876,0,0
-441,148,0,0,0,0,0,0,0,0,0,-1,783,876,0,0
-434,148,0,0,0,0,0,0,0,0,0,-1,790,876,0,0
-427,148,0,0,0,0,0,0,0,0,0,-1,797,876,0,0
-420,148,0,0,0,0,0,0,0,0,0,-1,804,876,0,0
-413,148,0,0,0,0,0,0,0,0,0,-1,811,876,0,0
-406,148,0,0,0,0,0,0,0,0,0,-1,818,876,0,0
-399,148,0,0,0,0,0,0,0,0,0,-1,825,876,0,0
-392,148,0,0,0,0,0,0,0,0,0,-1,832,876,0,0
-385,148,0,0,0,0,0,0,0,0,0,-1,839,876,0,0
-378,148,0,0,0,0,0,0,0,0,0,-1,846,876,0,0
-371,148,0,0,0,0,0,0,0,0,0,-1,853,876,0,0
-364,148,0,0,0,0,0,0,0,0,0,-1,860,876,0,0
-357,148,0,0,0,0,0,0,0,0,0,-1,867,876,0,0
-350,148,0,0,0,0,0,0,0,0,0,-1,874,876,0,0
-343,148,0,0,0,0,0,0,0,0,0,-1,881,876,0,0
-336,148,0,0,0,0,0,0,0,0,0,-1,888,876,0,0
-329,148,0,0,0,0,0,0,0,0,0,-1,895,876,0,0
-322,148,0,0,0,0,0,0,0,0,0,-1,902,876,0,0
-315,148,0,0,0,0,0,0,0,0,0,-1,909,876,0,0
-308,148,0,0,0,0,0,0,0,0,0,-1,916,876,0,0
-301,148,0,0,0,0,0,0,0,0,0,-1,923,876,0,0
-294,148,0,0,0,0,0,0,0,0,0,-1,930,876,0,0
-287,148,0,0,0,0,0,0,0,0,0,-1,937,876,0,0
-280,148,0,0,0,0,0,0,0,0,0,-1,944,876,0,0
-273,148,0,0,0,0,0,0,0,0,0,-1,951,876,0,0
-266,148,0,0,0,0,0,0,0,0,0,-1,958,876,0,0
-259,148,0,0,0,0,0,0,0,0,0,-1,965,876,0,0
-252,148,0,0,0,0,0,0,0,0,0,-1,972,876,0,0
-245,148,0,0,0,0,0,0,0,0,0,-1,979,876,0,0
-238,148,0,0,0,0,0,0,0,0,0,-1,986,876,0,0
-231,148,0,0,0,0,0,0,0,0,0,-1,993,876,0,0
-224,148,0,0,0,0,0,0,0,0,0,-1,1000,876,0,0
-217,148,0,0,0,0,0,0,0,0,0,-1,1007,876,0,0
-210,148,0,0,0,0,0,0,0,0,0,-1,1014,876,0,0
-203,148,0,0,0,0,0,0,0,0,0,-1,1021,876,0,0
-196,148,0,0,0,0,0,0,0,0,0,-1,1028,876,0,0
-189,148,0,0,0,0,0,0,0,0,0,-1,1035,876,0,0
-182,148,0,0,0,0,0,0,0,0,0,-1,1042,876,0,0
-175,148,0,0,0,0,0,0,0,0,0,-1,1049,876,0,0
-168,148,0,0,0,0,0,0,0,0,0,-1,1056,876,0,0
-161,148,0,0,0,0,0,0,0,0,0,-1,1063,876,0,0
-154,148,0,0,0,0,0,0,0,0,0,-1,1070,876,0,0
-147,148,0,0,0,0,0,0,0,0,0,-1,1077,876,0,0
-140,148,0,0,0,0,0,0,0,0,0,-1,1084,876,0,0
-133,148,0,0,0,0,0,0,0,0,0,-1,1091,876,0,0
-126,148,0,0,0,0,0,0,0,0,0,-1,1098,876,0,0
-119,148,0,0,0,0,0,0,0,0,0,-1,1105,876,0,0
-112,148,0,0,0,0,0,0,0,0,0,-1,1112,876,0,0
-105,148,0,0,0,0,0,0,0,0,0,-1,1119,876,0,0
-98,148,0,0,0,0,0,0,0,0,0,-1,1126,876,0,0
-91,148,0,0,0,0,0,0,0,0,0,-1,1133,876,0,0
-84,148,0,0,0,0,0,0,0,0,0,-1,1140,876,0,0
-77,148,0,0,0,0,0,0,0,0,0,-1,1147,876,0,0
-70,148,0,0,0,0,0,0,0,0,0,-1,1154,876,0,0
-63,148,0,0,0,0,0,0,0,0,0,-1,1161,876,0,0
-56,148,0,0,0,0,0,0,0,0,0,-1,1168,876,0,0
-49,148,0,0,0,0,0,0,0,0,0,-1,1175,876,0,0
-42,148,0,0,0,0,0,0,0,0,0,-1,1182,876,0,0
-35,148,0,0,0,0,0,0,0,0,0,-1,1189,876,0,0
-28,148,0,0,0,0,0,0,0,0,0,-1,1196,876,0,0
-21,148,0,0,0,0,0,0,0,0,0,-1,1203,876,0,0
-14,148,0,0,0,0,0,0,0,0,0,-1,1210,876,0,0
-7,148,0,0,0,0,0,0,0,0,0,-1,1217,876,0,0
0,148,0,0,0,0,0,0,0,0,0,-1,1224,876,0,0
7,148,0,0,0,0,0,0,0,0,0,-1,1231,876,0,0
14,148,0,0,0,0,0,0,0,0,0,-1,1238,876,0,0
21,148,0,0,0,0,0,0,0,0,0,-1,1245,876,0,0
28,148,0,0,0,0,0,0,0,0,0,-1,1252,876,0,0
35,148,0,0,0,0,0,0,0,0,0,-1,1259,876,0,0
42,148,0,0,0,0,0,0,0,0,0,-1,1266,876,0,0
49,148,0,0,0,0,0,0,0,0,0,-1,1273,876,0,0
56,148,0,0,0,0,0,0,0,0,0,-1,1280,876,0,0
63,148,0,0,0,0,0,0,0,0,0,-1,1287,876,0,0
70,148,0,0,0,0,0,0,0,0,0,-1,1294,876,0,0
77,148,0,0,0,0,0,0,0,0,0,-1,1301,876,0,0
84,148,0,0,0,0,0,0,0,0,0,-1,1308,876,0,0
91,148,0,0,0,0,0,0,0,0,0,-1,1315,876,0,0
98,148,0,0,0,0,0,0,0,0,0,-1,1322,876,0,0
105,148,0,0,0,0,0,0,0,0,0,-1,1329,876,0,0
112,148,0,0,0,0,0,0,0,0,0,-1,1336,876,0,0
119,148,0,0,0,0,0,0,0,0,0,-1,1343,876,0,0
126,148,0,0,0,0,0,0,0,0,0,-1,1350,876,0,0
133,148,0,0,0,0,0,0,0,0,0,-1,1357,876,0,0
140,148,0,0,0,0,0,0,0,0,0,-1,1364,876,0,0
147,148,0,0,0,0,0,0,0,0,0,-1,1371,876,0,0
154,148,0,0,0,0,0,0,0,0,0,-1,1378,876,0,0
161,148,0,0,0,0,0,0,0,0,0,-1,1385,876,0,0
168,148,0,0,0,0,0,0,0,0,0,-1,1392,876,0,0
175,148,0,0,0,0,0,0,0,0,0,-1,1399,876,0,0
182,148,0,0,0,0,0,0,0,0,0,-1,1406,876,0,0
189,148,0,0,0,0,0,0,0,0,0,-1,1413,876,0,0
196,148,0,0,0,0,0,0,0,0,0,-1,1420,876,0,0
203,148,0,0,0,0,0,0,0,0,0,-1,1427,876,0,0
210,148,0,0,0,0,0,0,0,0,0,-1,1434,876,0,0
217,148,0,0,0,0,0,0,0,0,0,-1,1441,876,0,0
224,148,0,0,0,0,0,0,0,0,0,-1,1448,876,0,0
231,148,0,0,0,0,0,0,0,0,0,-1,1455,876,0,0
238,148,0,0,0,0,0,0,0,0,0,-1,1462,876,0,0
245,148,0,0,0,0,0,0,0,0,0,-1,1469,876,0,0
252,148,0,0,0,0,0,0,0,0,0,-1,1476,876,0,0
259,148,0,0,0,0,0,0,0,0,0,-1,1483,876,0,0
266,148,0,0,0,0,0,0,0,0,0,-1,1490,876,0,0
273,148,0,0,0,0,0,0,0,0,0,-1,1497,876,0,0
280,148,0,0,0,0,0,0,0,0,0,-1,1504,876,0,0
287,148,0,0,0,0,0,0,0,0,0,-1,1511,876,0,0
294,148,0,0,0,0,0,0,0,0,0,-1,1518,876,0,0
301,148,0,0,0,0,0,0,0,0,0,-1,1525,876,0,0
308,148,0,0,0,0,0,0,0,0,0,-1,1532,876,0,0
315,148,0,0,0,0,0,0,0,0,0,-1,1539,876,0,0
322,148,0,0,0,0,0,0,0,0,0,-1,1546,876,0,0
329,148,0,0,0,0,0,0,0,0,0,-1,1553,876,0,0
336,148,0,0,0,0,0,0,0,0,0,-1,1560,876,0,0
343,148,0,0,0,0,0,0,0,0,0,-1,1567,876,0,0
350,148,0,0,0,0,0,0,0,0,0,-1,1574,876,0,0
357,148,0,0,0,0,0,0,0,0,0,-1,1581,876,0,0
364,148,0,0,0,0,0,0,0,0,0,-1,1588,876,0,0
371,148,0,0,0,0,0,0,0,0,0,-1,1595,876,0,0
378,148,0,0,0,0,0,0,0,0,0,-1,1602,876,0,0
385,148,0,0,0,0,0,0,0,0,0,-1,1609,876,0,0
392,148,0,0,0,0,0,0,0,0,0,-1,1616,876,0,0
399,148,0,0,0,0,0,0,0,0,0,-1,1623,876,0,0
406,148,0,0,0,0,0,0,0,0,0,-1,1630,876,0,0
413,148,0,0,0,0,0,0,0,0,0,-1,1637,876,0,0
420,148,0,0,0,0,0,0,0,0,0,-1,1644,876,0,0
427,148,0,0,0,0,0,0,0,0,0,-1,1651,876,0,0
434,148,0,0,0,0,0,0,0,0,0,-1,1658,876,0,0
441,148,0,0,0,0,0,0,0,0,0,-1,1665,876,0,0
448,148,0,0,0,0,0,0,0,0,0,-1,1672,876,0,0
455,148,0,0,0,0,0,0,0,0,0,-1,1679,876,0,0
462,148,0,0,0,0,0,0,0,0,0,-1,1686,876,0,0
469,148,0,0,0,0,0,0,0,0,0,-1,1693,876,0,0
476,148,0,0,0,0,0,0,0,0,0,-1,1700,876,0,0
483,148,0,0,0,0,0,0,0,0,0,-1,1707,876,0,0
490,148,0,0,0,0,0,0,0,0,0,-1,1714,876,0,0
497,148,0,0,0,0,0,0,0,0,0,-1,1721,876,0,0
504,148,0,0,0,0,0,0,0,0,0,-1,1728,876,0,0
511,148,0,0,0,0,0,0,0,0,0,-1,1735,876,0,0
518,148,0,0,0,0,0,0,0,0,0,-1,1742,876,0,0
525,148,0,0,0,0,0,0,0,0,0,-1,1749,876,0,0
532,148,0,0,0,0,0,0,0,0,0,-1,1756,876,0,0
539,148,0,0,0,0,0,0,0,0,0,-1,1763,876,0,0
546,148,0,0,0,0,0,0,0,0,0,-1,1770,876,0,0
553,148,0,0,0,0,0,0,0,0,0,-1,1777,876,0,0
560,148,0,0,0,0,0,0,0,0,0,-1,1784,876,0,0
567,148,0,0,0,0,0,0,0,0,0,-1,1791,876,0,0
574,148,0,0,0,0,0,0,0,0,0,-1,1798,876,0,0
581,148,0,0,0,0,0,0,0,0,0,-1,1805,876,0,0
588,148,0,0,0,0,0,0,0,0,0,-1,1812,876,0,0
595,148,0,0,0,0,0,0,0,0,0,-1,1819,876,0,0
602,148,0,0,0,0,0,0,0,0,0,-1,1826,876,0,0
609,148,0,0,0,0,0,0,0,0,0,-1,1833,876,0,0
616,148,0,0,0,0,0,0,0,0,0,-1,1840,876,0,0
623,148,22.7661,2.91571,-0.0054879,-0.000318571,-0.000467681,-0.000276599,-0.00552987,-1.48129,0.00359793,0.0435054,1847,876,22.7661,-2.91573
630,148,22.6464,2.95062,-0.00290193,-0.000423528,-0.000222839,-0.000403652,-0.0029218,-1.48183,0.00182823,0.0405291,1854,876,22.6464,-2.9506
637,148,22.7168,2.92822,-0.000900612,-0.000596784,-0.000198734,-0.000498552,-0.000998845,-1.11173,0.000576683,0.0360078,1861,876,22.7168,-2.92819
644,148,22.7772,2.8172,0.000152896,-0.000782451,-0.000271925,0.000226205,-0.00085576,-0.263331,0.000658979,0.0380756,1868,876,22.7772,-2.81721
651,148,22.8112,2.65204,0.000216976,-0.000898333,-0.000476807,0.000393027,-0.00107438,-0.353702,0.000877125,0.0388973,1875,876,22.8112,-2.65202
658,148,22.7942,2.82794,-8.54821e-05,-0.000999699,-0.000636079,0.0002407,-0.00132588,-0.473836,0.000974118,0.0325657,1882,876,22.7942,-2.82793
665,148,22.7733,2.81055,-0.000498484,-0.00107935,-0.00067822,-5.11283e-05,-0.00152671,-0.583096,0.0010012,0.0247707,1889,876,22.7734,-2.81052
672,148,22.8009,2.72992,-0.000871238,-0.00102813,-0.000747691,-0.000197889,-0.00170148,-0.733131,0.00107445,0.0286882,1896,876,22.8009,-2.72991
679,148,22.8669,2.64447,0,0,0,0,0,0,0,-1,1903,876,22.867,-2.64444
686,148,19.4896,2.46118,0,0,0,0,0,0,0,-1,1910,876,19.4896,-2.46121
693,148,19.5228,2.72687,-0.00227382,-0.000853781,-0.00101453,-0.000325495,-0.00280211,-1.09071,0.00176958,0.0378359,1917,876,19.5229,-2.72687
700,148,19.6487,3.0199,-0.00274337,-0.000754647,-0.00101405,-0.000328779,-0.00316924,-1.1732,0.00201221,0.0175227,1924,876,19.6487,-3.01991
707,148,19.7339,3.27179,-0.00323955,-0.00055016,-0.0011691,-0.000113004,-0.00367671,-1.21297,0.00241435,0.0148481,1931,876,19.7339,-3.27181
714,148,19.6793,3.39093,-0.00322708,-0.000567143,-0.00128577,-4.72383e-05,-0.00374699,-1.18654,0.0024824,0.0146095,1938,876,19.6793,-3.39093
721,148,19.5647,3.54846,-0.00247345,-0.000367269,-0.00151307,0.000423108,-0.00326383,-1.08942,0.00232976,0.0162691,1945,876,19.5648,-3.54844
728,148,19.5422,3.74097,-0.000169434,-0.000564109,-0.00202911,0.00167191,-0.00240546,-0.736924,0.00236674,0.0194174,1952,876,19.5422,-3.74094
735,148,19.569,3.93439,0.00295483,-0.000937742,-0.00267923,0.00432008,-0.002303,-0.471274,0.0038825,0.0186862,1959,876,19.5689,-3.93438
742,148,19.5868,4.16229,0.0062419,-0.000570997,-0.00282317,0.00725972,-0.00158882,-0.34602,0.00544721,0.0198143,1966,876,19.5868,-4.16228
749,148,19.5879,4.34503,0.0100924,-0.000700591,-0.00341509,0.0110822,-0.00169041,-0.282108,0.00801126,0.0151319,1973,876,19.5879,-4.34506
756,148,19.5714,4.54944,0.0153192,-0.000870956,-0.00391423,0.0162159,-0.00176762,-0.225193,0.0114454,0.0191587,1980,876,19.5714,-4.54945
763,148,19.5924,4.83478,0.0215257,-0.000936217,-0.00426736,0.0223091,-0.00171962,-0.181558,0.0154778,0.042135,1987,876,19.5924,-4.83479
770,148,19.6113,5.10052,0,0,0,0,0,0,0,-1,1994,876,19.6113,-5.10051
777,148,20.7449,5.54871,0.0369301,-0.00026625,-0.00374881,0.0373042,-0.00064031,-0.0994517,0.0250856,0.0454622,2001,876,20.7449,-5.5487
784,148,21.6968,6.25769,0.0453257,0.000875588,-0.00246434,0.0454619,0.000739383,-0.0552149,0.0300645,0.0437664,2008,876,21.6968,-6.25772
791,148,22.8687,6.93005,0,0,0,0,0,0,0,-1,2015,876,22.8687,-6.93007
798,148,0,0,0,0,0,0,0,0,0,-1,2022,876,0,0
805,148,0,0,0,0,0,0,0,0,0,-1,2029,876,0,0
812,148,0,0,0,0,0,0,0,0,0,-1,2036,876,0,0
-700,141,0,0,0,0,0,0,0,0,0,-1,524,883,0,0
-693,141,0,0,0,0,0,0,0,0,0,-1,531,883,0,0
-686,141,0,0,0,0,0,0,0,0,0,-1,538,883,0,0
-679,141,0,0,0,0,0,0,0,0,0,-1,545,883,0,0
-672,141,-13.3361,3.62231,0,0,0,0,0,0,0,-1,552,883,-13.3361,-3.62234
-665,141,-13.0007,5.07001,0.0184698,0.116511,0.0832657,0.164115,-0.0291336,1.05144,0.120303,0.0476495,559,883,-13.0008,-5.07002
-658,141,-12.7285,6.47107,0.0145762,0.090353,0.0655187,0.12815,-0.0232205,1.04755,0.0941328,0.0487635,566,883,-12.7284,-6.47106
-651,141,-12.4876,7.74323,0,0,0,0,0,0,0,-1,573,883,-12.4876,-7.74325
-644,141,-12.3078,1.43719,0,0,0,0,0,0,0,-1,580,883,-12.3078,-1.43721
-637,141,-12.7981,2.60223,0,0,0,0,0,0,0,-1,587,883,-12.7981,-2.60225
-630,141,-12.8872,2.35938,0.00212537,0.0234219,0.0184373,0.0340649,-0.00851767,1.04727,0.0260181,0.0399831,594,883,-12.8872,-2.35938
-623,141,-12.9525,2.07031,0.000458893,0.0148854,0.0121997,0.0218448,-0.00650049,1.05238,0.0171458,0.0218299,601,883,-12.9524,-2.07031
-616,141,-13.0782,1.88098,-0.000589126,0.0082654,0.00741303,0.0124726,-0.00479631,1.05459,0.0102933,0.0119289,608,883,-13.0783,-1.88099
-609,141,-13.1289,1.71216,-0.00147668,0.00289267,0.00336232,0.00471774,-0.00330174,1.0735,0.00465405,0.0125237,615,883,-13.1289,-1.71219
-602,141,-13.1324,1.52679,-0.0022292,0.000342192,0.0013437,0.00091621,-0.00280321,1.16707,0.00223764,0.0117178,622,883,-13.1324,-1.52677
-595,141,-13.129,1.35016,-0.00223955,-3.09741e-05,0.000813788,0.000236489,-0.00250702,1.25325,0.00175549,0.0106347,629,883,-13.129,-1.35015
-588,141,-13.2385,1.19031,-0.00198203,-0.00028362,0.000342454,-0.00021717,-0.00204848,1.37914,0.00129933,0.0170139,636,883,-13.2385,-1.19032
-581,141,-13.2307,1.0542,-0.00183848,-6.48578e-05,0.000180189,-4.6737e-05,-0.0018566,1.47057,0.00122245,0.0233487,643,883,-13.2306,-1.05417
-574,141,-13.0493,0.925293,-0.00188908,0.000137443,0.000244786,0.000166592,-0.00191823,1.45228,0.00133781,0.0268771,650,883,-13.0493,-0.925284
-567,141,-13.0809,0.790405,-0.00167173,0.000390925,0.000115272,0.000397347,-0.00167816,1.51514,0.00127208,0.0314356,657,883,-13.0809,-0.790424
-560,141,-13.0593,0.716064,0,0,0,0,0,0,0,-1,664,883,-13.0593,-0.716077
-553,141,-14.4395,0.897888,0,0,0,0,0,0,0,-1,671,883,-14.4395,-0.897892
-546,141,-15.3717,1.00482,1.42175e-05,0.000906747,0.000155694,0.000933126,-1.21623e-05,1.40296,0.000626178,0.0376625,678,883,-15.3717,-1.00479
-539,141,-15.369,0.918579,0.000728426,0.00117629,0.000271317,0.00130415,0.000600566,1.1304,0.000753736,0.0298793,685,883,-15.369,-0.918588
-532,141,-15.4152,0.897156,0.00170244,0.00137323,0.000449276,0.00201631,0.00105935,0.609804,0.00116462,0.0290668,692,883,-15.4152,-0.897144
-525,141,-15.4449,0.890259,0.00301228,0.00138886,0.000670541,0.00325342,0.00114772,0.345224,0.00190531,0.0391056,699,883,-15.4449,-0.890277
-518,141,-15.4227,0.863403,0.00506325,0.00105253,0.000920553,0.00526445,0.000851339,0.215176,0.00326308,0.0425888,706,883,-15.4227,-0.863387
-511,141,-15.2233,0.859497,0.00791493,0.000143035,0.00116221,0.00808501,-2.7041e-05,0.145306,0.00539904,0.0384689,713,883,-15.2233,-0.859515
-504,141,-15.123,0.87384,0.0120966,-0.00146657,0.00112194,0.0121888,-0.00155875,0.0819774,0.00869214,0.0409366,720,883,-15.123,-0.87385
-497,141,0,0,0,0,0,0,0,0,0,-1,727,883,0,0
-490,141,0,0,0,0,0,0,0,0,0,-1,734,883,0,0
-483,141,0,0,0,0,0,0,0,0,0,-1,741,883,0,0
-476,141,0,0,0,0,0,0,0,0,0,-1,748,883,0,0
-469,141,0,0,0,0,0,0,0,0,0,-1,755,883,0,0
-462,141,0,0,0,0,0,0,0,0,0,-1,762,883,0,0
-455,141,0,0,0,0,0,0,0,0,0,-1,769,883,0,0
-448,141,0,0,0,0,0,0,0,0,0,-1,776,883,0,0
-441,141,0,0,0,0,0,0,0,0,0,-1,783,883,0,0
-434,141,0,0,0,0,0,0,0,0,0,-1,790,883,0,0
-427,141,0,0,0,0,0,0,0,0,0,-1,797,883,0,0
-420,141,0,0,0,0,0,0,0,0,0,-1,804,883,0,0
-413,141,0,0,0,0,0,0,0,0,0,-1,811,883,0,0
-406,141,0,0,0,0,0,0,0,0,0,-1,818,883,0,0
-399,141,0,0,0,0,0,0,0,0,0,-1,825,883,0,0
-392,141,0,0,0,0,0,0,0,0,0,-1,832,883,0,0
-385,141,0,0,0,0,0,0,0,0,0,-1,839,883,0,0
-378,141,0,0,0,0,0,0,0,0,0,-1,846,883,0,0
-371,141,0,0,0,0,0,0,0,0,0,-1,853,883,0,0
-364,141,0,0,0,0,0,0,0,0,0,-1,860,883,0,0
-357,141,0,0,0,0,0,0,0,0,0,-1,867,883,0,0
-350,141,0,0,0,0,0,0,0,0,0,-1,874,883,0,0
-343,141,0,0,0,0,0,0,0,0,0,-1,881,883,0,0
-336,141,0,0,0,0,0,0,0,0,0,-1,888,883,0,0
-329,141,0,0,0,0,0,0,0,0,0,-1,895,883,0,0
-322,141,0,0,0,0,0,0,0,0,0,-1,902,883,0,0
-315,141,0,0,0,0,0,0,0,0,0,-1,909,883,0,0
-308,141,0,0,0,0,0,0,0,0,0,-1,916,883,0,0
-301,141,0,0,0,0,0,0,0,0,0,-1,923,883,0,0
-294,141,0,0,0,0,0,0,0,0,0,-1,930,883,0,0
-287,141,0,0,0,0,0,0,0,0,0,-1,937,883,0,0
-280,141,0,0,0,0,0,0,0,0,0,-1,944,883,0,0
-273,141,0,0,0,0,0,0,0,0,0,-1,951,883,0,0
-266,141,0,0,0,0,0,0,0,0,0,-1,958,883,0,0
-259,141,0,0,0,0,0,0,0,0,0,-1,965,883,0,0
-252,141,0,0,0,0,0,0,0,0,0,-1,972,883,0,0
-245,141,0,0,0,0,0,0,0,0,0,-1,979,883,0,0
-238,141,0,0,0,0,0,0,0,0,0,-1,986,883,0,0
-231,141,0,0,0,0,0,0,0,0,0,-1,993,883,0,0
-224,141,0,0,0,0,0,0,0,0,0,-1,1000,883,0,0
-217,141,0,0,0,0,0,0,0,0,0,-1,1007,883,0,0
-210,141,0,0,0,0,0,0,0,0,0,-1,1014,883,0,0
-203,141,0,0,0,0,0,0,0,0,0,-1,1021,883,0,0
-196,141,0,0,0,0,0,0,0,0,0,-1,1028,883,0,0
-189,141,0,0,0,0,0,0,0,0,0,-1,1035,883,0,0
-182,141,0,0,0,0,0,0,0,0,0,-1,1042,883,0,0
-175,141,0,0,0,0,0,0,0,0,0,-1,1049,883,0,0
-168,141,0,0,0,0,0,0,0,0,0,-1,1056,883,0,0
-161,141,0,0,0,0,0,0,0,0,0,-1,1063,883,0,0
-154,141,0,0,0,0,0,0,0,0,0,-1,1070,883,0,0
-147,141,0,0,0,0,0,0,0,0,0,-1,1077,883,0,0
-140,141,0,0,0,0,0,0,0,0,0,-1,1084,883,0,0
-133,141,0,0,0,0,0,0,0,0,0,-1,1091,883,0,0
-126,141,0,0,0,0,0,0,0,0,0,-1,1098,883,0,0
-119,141,0,0,0,0,0,0,0,0,0,-1,1105,883,0,0
-112,141,0,0,0,0,0,0,0,0,0,-1,1112,883,0,0
-105,141,0,0,0,0,0,0,0,0,0,-1,1119,883,0,0
-98,141,0,0,0,0,0,0,0,0,0,-1,1126,883,0,0
-91,141,0,0,0,0,0,0,0,0,0,-1,1133,883,0,0
-84,141,0,0,0,0,0,0,0,0,0,-1,1140,883,0,0
-77,141,0,0,0,0,0,0,0,0,0,-1,1147,883,0,0
-70,141,0,0,0,0,0,0,0,0,0,-1,1154,883,0,0
-63,141,0,0,0,0,0,0,0,0,0,-1,1161,883,0,0
-56,141,0,0,0,0,0,0,0,0,0,-1,1168,883,0,0
-49,141,0,0,0,0,0,0,0,0,0,-1,1175,883,0,0
-42,141,0,0,0,0,0,0,0,0,0,-1,1182,883,0,0
-35,141,0,0,0,0,0,0,0,0,0,-1,1189,883,0,0
-28,141,0,0,0,0,0,0,0,0,0,-1,1196,883,0,0
-21,141,0,0,0,0,0,0,0,0,0,-1,1203,883,0,0
-14,141,0,0,0,0,0,0,0,0,0,-1,1210,883,0,0
-7,141,0,0,0,0,0,0,0,0,0,-1,1217,883,0,0
0,141,0,0,0,0,0,0,0,0,0,-1,1224,883,0,0
7,141,0,0,0,0,0,0,0,0,0,-1,1231,883,0,0
14,141,0,0,0,0,0,0,0,0,0,-1,1238,883,0,0
21,141,0,0,0,0,0,0,0,0,0,-1,1245,883,0,0
28,141,0,0,0,0,0,0,0,0,0,-1,1252,883,0,0
35,141,0,0,0,0,0,0,0,0,0,-1,1259,883,0,0
42,141,0,0,0,0,0,0,0,0,0,-1,1266,883,0,0
49,141,0,0,0,0,0,0,0,0,0,-1,1273,883,0,0
56,141,0,0,0,0,0,0,0,0,0,-1,1280,883,0,0
63,141,0,0,0,0,0,0,0,0,0,-1,1287,883,0,0
70,141,0,0,0,0,0,0,0,0,0,-1,1294,883,0,0
77,141,0,0,0,0,0,0,0,0,0,-1,1301,883,0,0
84,141,0,0,0,0,0,0,0,0,0,-1,1308,883,0,0
91,141,0,0,0,0,0,0,0,0,0,-1,1315,883,0,0
98,141,0,0,0,0,0,0,0,0,0,-1,1322,883,0,0
105,141,0,0,0,0,0,0,0,0,0,-1,1329,883,0,0
112,141,0,0,0,0,0,0,0,0,0,-1,1336,883,0,0
119,141,0,0,0,0,0,0,0,0,0,-1,1343,883,0,0
126,141,0,0,0,0,0,0,0,0,0,-1,1350,883,0,0
133,141,0,0,0,0,0,0,0,0,0,-1,1357,883,0,0
140,141,0,0,0,0,0,0,0,0,0,-1,1364,883,0,0
147,141,0,0,0,0,0,0,0,0,0,-1,1371,883,0,0
154,141,0,0,0,0,0,0,0,0,0,-1,1378,883,0,0
161,141,0,0,0,0,0,0,0,0,0,-1,1385,883,0,0
168,141,0,0,0,0,0,0,0,0,0,-1,1392,883,0,0
175,141,0,0,0,0,0,0,0,0,0,-1,1399,883,0,0
182,141,0,0,0,0,0,0,0,0,0,-1,1406,883,0,0
189,141,0,0,0,0,0,0,0,0,0,-1,1413,883,0,0
196,141,0,0,0,0,0,0,0,0,0,-1,1420,883,0,0
203,141,0,0,0,0,0,0,0,0,0,-1,1427,883,0,0
210,141,0,0,0,0,0,0,0,0,0,-1,1434,883,0,0
217,141,0,0,0,0,0,0,0,0,0,-1,1441,883,0,0
224,141,0,0,0,0,0,0,0,0,0,-1,1448,883,0,0
231,141,0,0,0,0,0,0,0,0,0,-1,1455,883,0,0
238,141,0,0,0,0,0,0,0,0,0,-1,1462,883,0,0
245,141,0,0,0,0,0,0,0,0,0,-1,1469,883,0,0
252,141,0,0,0,0,0,0,0,0,0,-1,1476,883,0,0
259,141,0,0,0,0,0,0,0,0,0,-1,1483,883,0,0
266,141,0,0,0,0,0,0,0,0,0,-1,1490,883,0,0
273,141,0,0,0,0,0,0,0,0,0,-1,1497,883,0,0
280,141,0,0,0,0,0,0,0,0,0,-1,1504,883,0,0
287,141,0,0,0,0,0,0,0,0,0,-1,1511,883,0,0
294,141,0,0,0,0,0,0,0,0,0,-1,1518,883,0,0
301,141,0,0,0,0,0,0,0,0,0,-1,1525,883,0,0
308,141,0,0,0,0,0,0,0,0,0,-1,1532,883,0,0
315,141,0,0,0,0,0,0,0,0,0,-1,1539,883,0,0
322,141,0,0,0,0,0,0,0,0,0,-1,1546,883,0,0
329,141,0,0,0,0,0,0,0,0,0,-1,1553,883,0,0
336,141,0,0,0,0,0,0,0,0,0,-1,1560,883,0,0
343,141,0,0,0,0,0,0,0,0,0,-1,1567,883,0,0
350,141,0,0,0,0,0,0,0,0,0,-1,1574,883,0,0
357,141,0,0,0,0,0,0,0,0,0,-1,1581,883,0,0
364,141,0,0,0,0,0,0,0,0,0,-1,1588,883,0,0
371,141,0,0,0,0,0,0,0,0,0,-1,1595,883,0,0
378,141,0,0,0,0,0,0,0,0,0,-1,1602,883,0,0
385,141,0,0,0,0,0,0,0,0,0,-1,1609,883,0,0
392,141,0,0,0,0,0,0,0,0,0,-1,1616,883,0,0
399,141,0,0,0,0,0,0,0,0,0,-1,1623,883,0,0
406,141,0,0,0,0,0,0,0,0,0,-1,1630,883,0,0
413,141,0,0,0,0,0,0,0,0,0,-1,1637,883,0,0
420,141,0,0,0,0,0,0,0,0,0,-1,1644,883,0,0
427,141,0,0,0,0,0,0,0,0,0,-1,1651,883,0,0
434,141,0,0,0,0,0,0,0,0,0,-1,1658,883,0,0
441,141,0,0,0,0,0,0,0,0,0,-1,1665,883,0,0
448,141,0,0,0,0,0,0,0,0,0,-1,1672,883,0,0
455,141,0,0,0,0,0,0,0,0,0,-1,1679,883,0,0
462,141,0,0,0,0,0,0,0,0,0,-1,1686,883,0,0
469,141,0,0,0,0,0,0,0,0,0,-1,1693,883,0,0
476,141,0,0,0,0,0,0,0,0,0,-1,1700,883,0,0
483,141,0,0,0,0,0,0,0,0,0,-1,1707,883,0,0
490,141,0,0,0,0,0,0,0,0,0,-1,1714,883,0,0
497,141,0,0,0,0,0,0,0,0,0,-1,1721,883,0,0
504,141,0,0,0,0,0,0,0,0,0,-1,1728,883,0,0
511,141,0,0,0,0,0,0,0,0,0,-1,1735,883,0,0
518,141,0,0,0,0,0,0,0,0,0,-1,1742,883,0,0
525,141,0,0,0,0,0,0,0,0,0,-1,1749,883,0,0
532,141,0,0,0,0,0,0,0,0,0,-1,1756,883,0,0
539,141,0,0,0,0,0,0,0,0,0,-1,1763,883,0,0
546,141,0,0,0,0,0,0,0,0,0,-1,1770,883,0,0
553,141,0,0,0,0,0,0,0,0,0,-1,1777,883,0,0
560,141,0,0,0,0,0,0,0,0,0,-1,1784,883,0,0
567,141,0,0,0,0,0,0,0,0,0,-1,1791,883,0,0
574,141,0,0,0,0,0,0,0,0,0,-1,1798,883,0,0
581,141,0,0,0,0,0,0,0,0,0,-1,1805,883,0,0
588,141,0,0,0,0,0,0,0,0,0,-1,1812,883,0,0
595,141,0,0,0,0,0,0,0,0,0,-1,1819,883,0,0
602,141,0,0,0,0,0,0,0,0,0,-1,1826,883,0,0
609,141,0,0,0,0,0,0,0,0,0,-1,1833,883,0,0
616,141,0,0,0,0,0,0,0,0,0,-1,1840,883,0,0
623,141,22.8564,2.86322,-0.00551601,-0.000145237,-0.000423256,-0.000112086,-0.00554916,-1.49263,0.00366265,0.0449906,1847,883,22.8565,-2.86325
630,141,22.7085,2.93311,-0.00308783,-0.000279186,-0.000274597,-0.000252591,-0.00311443,-1.47425,0.00199742,0.0426763,1854,883,22.7085,-2.93308
637,141,22.6741,2.95355,-0.00111638,-0.000396776,-0.000289031,-0.000295063,-0.00121809,-1.23242,0.000733758,0.0409221,1861,883,22.6741,-2.95354
644,141,22.6788,2.82025,-0.000130492,-0.000545029,-0.000379794,9.49097e-05,-0.000770431,-0.535615,0.000548004,0.0403106,1868,883,22.6789,-2.82023
651,141,22.8135,2.67444,-0.00017197,-0.000617408,-0.000583612,0.000229976,-0.00101935,-0.603117,0.000767796,0.0392631,1875,883,22.8135,-2.67444
658,141,22.8248,2.7066,-0.000615604,-0.000697065,-0.000747048,9.1823e-05,-0.00140449,-0.758164,0.000968388,0.0364851,1882,883,22.8249,-2.70661
665,141,22.7787,2.79822,-0.00113258,-0.000784576,-0.000802281,-0.000137645,-0.00177951,-0.892186,0.00114322,0.0281283,1889,883,22.7787,-2.79823
672,141,22.8024,2.77429,-0.0015942,-0.000760533,-0.000872316,-0.000210574,-0.00214416,-1.00828,0.00136467,0.0211257,1896,883,22.8024,-2.7743
679,141,22.8422,2.70032,-0.0020217,-0.000784317,-0.000975005,-0.000248274,-0.00255775,-1.06812,0.00162873,0.0251719,1903,883,22.8422,-2.70033
686,141,22.8726,2.60516,0,0,0,0,0,0,0,-1,1910,883,22.8725,-2.60518
693,141,19.6466,2.75879,0,0,0,0,0,0,0,-1,1917,883,19.6466,-2.75882
700,141,19.8278,2.99274,-0.0034588,-0.000625541,-0.00106426,-0.000270311,-0.00381403,-1.24864,0.00245754,0.0183573,1924,883,19.8278,-2.99277
707,141,19.8385,3.18182,-0.00383197,-0.000429747,-0.00121577,-3.99537e-05,-0.00422177,-1.26054,0.00280129,0.0156738,1931,883,19.8385,-3.18184
714,141,19.756,3.3382,-0.00370982,-0.000432454,-0.00129734,1.89301e-05,-0.0041612,-1.23597,0.00278046,0.0154382,1938,883,19.756,-3.33821
721,141,19.7743,3.54309,-0.00280439,-0.000177241,-0.00137759,0.000412665,-0.0033943,-1.16621,0.00241222,0.0119871,1945,883,19.7743,-3.5431
728,141,19.7894,3.70569,-0.000575208,-0.00020758,-0.00169287,0.00131143,-0.00209421,-0.839477,0.00198348,0.0148746,1952,883,19.7894,-3.7057
735,141,19.7802,3.95013,0.00229507,-0.000383498,-0.0021653,0.0035018,-0.00159024,-0.508436,0.00300815,0.0153398,1959,883,19.7802,-3.95013
742,141,19.7723,4.13861,0.00529315,0.000399667,-0.00207046,0.00605162,-0.000358798,-0.351145,0.00415917,0.0156834,1966,883,19.7723,-4.13864
749,141,19.7629,4.31317,0.00860597,0.000720225,-0.00237687,0.00926698,5.92126e-05,-0.271248,0.00615834,0.0124894,1973,883,19.7629,-4.31314
756,141,19.7528,4.54517,0.0130353,0.00109785,-0.00252146,0.0135461,0.000587111,-0.199852,0.0088415,0.0187225,1980,883,19.7528,-4.54514
763,141,19.8173,4.84656,0.0179686,0.00168685,-0.00251315,0.0183477,0.00130777,-0.149713,0.01182,0.0424115,1987,883,19.8173,-4.84656
770,141,20.3629,5.17242,0.0235168,0.00256913,-0.00214482,0.0237342,0.00235178,-0.100993,0.0151,0.0466142,1994,883,20.3629,-5.17243
777,141,21.2186,5.56238,0.029382,0.0039322,-0.00124846,0.0294431,0.00387111,-0.0488994,0.018474,0.0431291,2001,883,21.2186,-5.56238
784,141,21.9434,6.13885,0.0349548,0.00597506,0.000360167,0.0349592,0.00597059,0.0124257,0.0215929,0.0450979,2008,883,21.9433,-6.13883
791,141,22.3469,6.73877,0.0393345,0.00905735,0.00298282,0.0396255,0.00876628,0.0972715,0.0240339,0.0470705,2015,883,22.3469,-6.73874
798,141,0,0,0,0,0,0,0,0,0,-1,2022,883,0,0
805,141,0,0,0,0,0,0,0,0,0,-1,2029,883,0,0
812,141,0,0,0,0,0,0,0,0,0,-1,2036,883,0,0
-700,134,0,0,0,0,0,0,0,0,0,-1,524,890,0,0
-693,134,0,0,0,0,0,0,0,0,0,-1,531,890,0,0
-686,134,0,0,0,0,0,0,0,0,0,-1,538,890,0,0
-679,134,0,0,0,0,0,0,0,0,0,-1,545,890,0,0
-672,134,-13.0313,2.79004,0,0,0,0,0,0,0,-1,552,890,-13.0313,-2.79002
-665,134,-12.8776,4.02075,0,0,0,0,0,0,0,-1,559,890,-12.8776,-4.02076
-658,134,-12.7239,5.25153,0,0,0,0,0,0,0,-1,566,890,-12.724,-5.25151
-651,134,-12.4819,1.57837,0,0,0,0,0,0,0,-1,573,890,-12.4818,-1.57836
-644,134,-12.5518,0.696411,0,0,0,0,0,0,0,-1,580,890,-12.5518,-0.696432
-637,134,-12.9926,2.19659,0,0,0,0,0,0,0,-1,587,890,-12.9926,-2.19658
-630,134,-13.1294,2.20093,-0.00296957,0.0237993,0.0186162,0.0333431,-0.0125134,1.09707,0.0273706,0.0392442,594,890,-13.1294,-2.20094
-623,134,-13.1691,2.05688,-0.00347035,0.0153581,0.0123169,0.0214466,-0.00955885,1.1117,0.0183343,0.0197443,601,890,-13.1691,-2.0569
-616,134,-13.288,1.87592,-0.00368912,0.00852573,0.00726126,0.0119065,-0.00706992,1.13505,0.011074,0.0112604,608,890,-13.288,-1.87593
-609,134,-13.317,1.70947,-0.00376615,0.00317353,0.00320394,0.00442651,-0.00501912,1.19801,0.00545701,0.0111114,615,890,-13.317,-1.70946
-602,134,-13.3121,1.53113,-0.00377299,0.000706595,0.00123555,0.00102478,-0.00409117,1.31875,0.00312555,0.0112719,622,890,-13.3121,-1.53112
-595,134,-13.2918,1.38629,-0.00332613,0.000239656,0.000673449,0.000362607,-0.00344908,1.39022,0.00242929,0.0117107,629,890,-13.2918,-1.38627
-588,134,-13.4405,1.26654,-0.00281479,-0.000107793,0.000218536,-9.02644e-05,-0.00283231,1.49076,0.00185885,0.0213786,636,890,-13.4405,-1.26654
-581,134,-13.3916,0.992615,-0.00260665,3.32114e-05,2.02998e-05,3.33675e-05,-0.0026068,1.56311,0.0017491,0.0275429,643,890,-13.3916,-0.992611
-574,134,-13.3712,0.831543,-0.00260713,0.000158681,7.16058e-05,0.000160534,-0.00260898,1.54493,0.00179523,0.0291464,650,890,-13.3712,-0.831527
-567,134,-13.2429,0.713989,-0.00229129,0.000360375,-1.72264e-05,0.000360487,-0.0022914,-1.5643,0.00166085,0.0239085,657,890,-13.2429,-0.713968
-560,134,-13.1803,0.612732,0,0,0,0,0,0,0,-1,664,890,-13.1803,-0.612748
-553,134,-15.3333,0.949951,0,0,0,0,0,0,0,-1,671,890,-15.3332,-0.949943
-546,134,-15.3312,0.917053,-0.000503881,0.000666716,-2.86831e-05,0.000667418,-0.000504583,-1.54631,0.000678829,0.0282119,678,890,-15.3312,-0.917049
-539,134,-15.3556,0.868042,0.000349204,0.00085965,8.56727e-05,0.000873645,0.000335209,1.40887,0.000508928,0.0187657,685,890,-15.3556,-0.868023
-532,134,-15.3848,0.864624,0.0015138,0.000956075,0.00026908,0.00162245,0.000847422,0.383773,0.000937035,0.0226782,692,890,-15.3848,-0.864623
-525,134,-15.5461,0.731323,0.00311476,0.000841087,0.000487108,0.00321472,0.000741124,0.202406,0.00194379,0.0347089,699,890,-15.5461,-0.731314
-518,134,-15.5266,0.596619,0.00554839,0.000332704,0.000720853,0.00564619,0.00023491,0.134842,0.00368832,0.0411609,706,890,-15.5266,-0.59661
-511,134,-15.337,0.576843,0.00861481,-0.000704577,0.000926988,0.00870612,-0.000795889,0.0981868,0.00608675,0.0419532,713,890,-15.337,-0.576861
-504,134,0,0,0,0,0,0,0,0,0,-1,720,890,0,0
-497,134,0,0,0,0,0,0,0,0,0,-1,727,890,0,0
-490,134,0,0,0,0,0,0,0,0,0,-1,734,890,0,0
-483,134,0,0,0,0,0,0,0,0,0,-1,741,890,0,0
-476,134,0,0,0,0,0,0,0,0,0,-1,748,890,0,0
-469,134,0,0,0,0,0,0,0,0,0,-1,755,890,0,0
-462,134,0,0,0,0,0,0,0,0,0,-1,762,890,0,0
-455,134,0,0,0,0,0,0,0,0,0,-1,769,890,0,0
-448,134,0,0,0,0,0,0,0,0,0,-1,776,890,0,0
-441,134,0,0,0,0,0,0,0,0,0,-1,783,890,0,0
-434,134,0,0,0,0,0,0,0,0,0,-1,790,890,0,0
-427,134,0,0,0,0,0,0,0,0,0,-1,797,890,0,0
-420,134,0,0,0,0,0,0,0,0,0,-1,804,890,0,0
-413,134,0,0,0,0,0,0,0,0,0,-1,811,890,0,0
-406,134,0,0,0,0,0,0,0,0,0,-1,818,890,0,0
-399,134,0,0,0,0,0,0,0,0,0,-1,825,890,0,0
-392,134,0,0,0,0,0,0,0,0,0,-1,832,890,0,0
-385,134,0,0,0,0,0,0,0,0,0,-1,839,890,0,0
-378,134,0,0,0,0,0,0,0,0,0,-1,846,890,0,0
-371,134,0,0,0,0,0,0,0,0,0,-1,853,890,0,0
-364,134,0,0,0,0,0,0,0,0,0,-1,860,890,0,0
-357,134,0,0,0,0,0,0,0,0,0,-1,867,890,0,0
-350,134,0,0,0,0,0,0,0,0,0,-1,874,890,0,0
-343,134,0,0,0,0,0,0,0,0,0,-1,881,890,0,0
-336,134,0,0,0,0,0,0,0,0,0,-1,888,890,0,0
-329,134,0,0,0,0,0,0,0,0,0,-1,895,890,0,0
-322,134,0,0,0,0,0,0,0,0,0,-1,902,890,0,0
-315,134,0,0,0,0,0,0,0,0,0,-1,909,890,0,0
-308,134,0,0,0,0,0,0,0,0,0,-1,916,890,0,0
-301,134,0,0,0,0,0,0,0,0,0,-1,923,890,0,0
-294,134,0,0,0,0,0,0,0,0,0,-1,930,890,0,0
-287,134,0,0,0,0,0,0,0,0,0,-1,937,890,0,0
-280,134,0,0,0,0,0,0,0,0,0,-1,944,890,0,0
-273,134,0,0,0,0,0,0,0,0,0,-1,951,890,0,0
-266,134,0,0,0,0,0,0,0,0,0,-1,958,890,0,0
-259,134,0,0,0,0,0,0,0,0,0,-1,965,890,0,0
-252,134,0,0,0,0,0,0,0,0,0,-1,972,890,0,0
-245,134,0,0,0,0,0,0,0,0,0,-1,979,890,0,0
-238,134,0,0,0,0,0,0,0,0,0,-1,986,890,0,0
-231,134,0,0,0,0,0,0,0,0,0,-1,993,890,0,0
-224,134,0,0,0,0,0,0,0,0,0,-1,1000,890,0,0
-217,134,0,0,0,0,0,0,0,0,0,-1,1007,890,0,0
-210,134,0,0,0,0,0,0,0,0,0,-1,1014,890,0,0
-203,134,0,0,0,0,0,0,0,0,0,-1,1021,890,0,0
-196,134,0,0,0,0,0,0,0,0,0,-1,1028,890,0,0
-189,134,0,0,0,0,0,0,0,0,0,-1,1035,890,0,0
-182,134,0,0,0,0,0,0,0,0,0,-1,1042,890,0,0
-175,134,0,0,0,0,0,0,0,0,0,-1,1049,890,0,0
-168,134,0,0,0,0,0,0,0,0,0,-1,1056,890,0,0
-161,134,0,0,0,0,0,0,0,0,0,-1,1063,890,0,0
-154,134,0,0,0,0,0,0,0,0,0,-1,1070,890,0,0
-147,134,0,0,0,0,0,0,0,0,0,-1,1077,890,0,0
-140,134,0,0,0,0,0,0,0,0,0,-1,1084,890,0,0
-133,134,0,0,0,0,0,0,0,0,0,-1,1091,890,0,0
-126,134,0,0,0,0,0,0,0,0,0,-1,1098,890,0,0
-119,134,0,0,0,0,0,0,0,0,0,-1,1105,890,0,0
-112,134,0,0,0,0,0,0,0,0,0,-1,1112,890,0,0
-105,134,0,0,0,0,0,0,0,0,0,-1,1119,890,0,0
-98,134,0,0,0,0,0,0,0,0,0,-1,1126,890,0,0
-91,134,0,0,0,0,0,0,0,0,0,-1,1133,890,0,0
-84,134,0,0,0,0,0,0,0,0,0,-1,1140,890,0,0
-77,134,0,0,0,0,0,0,0,0,0,-1,1147,890,0,0
-70,134,0,0,0,0,0,0,0,0,0,-1,1154,890,0,0
-63,134,0,0,0,0,0,0,0,0,0,-1,1161,890,0,0
-56,134,0,0,0,0,0,0,0,0,0,-1,1168,890,0,0
-49,134,0,0,0,0,0,0,0,0,0,-1,1175,890,0,0
-42,134,0,0,0,0,0,0,0,0,0,-1,1182,890,0,0
-35,134,0,0,0,0,0,0,0,0,0,-1,1189,890,0,0
-28,134,0,0,0,0,0,0,0,0,0,-1,1196,890,0,0
-21,134,0,0,0,0,0,0,0,0,0,-1,1203,890,0,0
-14,134,0,0,0,0,0,0,0,0,0,-1,1210,890,0,0
-7,134,0,0,0,0,0,0,0,0,0,-1,1217,890,0,0
0,134,0,0,0,0,0,0,0,0,0,-1,1224,890,0,0
7,134,0,0,0,0,0,0,0,0,0,-1,1231,890,0,0
14,134,0,0,0,0,0,0,0,0,0,-1,1238,890,0,0
21,134,0,0,0,0,0,0,0,0,0,-1,1245,890,0,0
28,134,0,0,0,0,0,0,0,0,0,-1,1252,890,0,0
35,134,0,0,0,0,0,0,0,0,0,-1,1259,890,0,0
42,134,0,0,0,0,0,0,0,0,0,-1,1266,890,0,0
49,134,0,0,0,0,0,0,0,0,0,-1,1273,890,0,0
56,134,0,0,0,0,0,0,0,0,0,-1,1280,890,0,0
63,134,0,0,0,0,0,0,0,0,0,-1,1287,890,0,0
70,134,0,0,0,0,0,0,0,0,0,-1,1294,890,0,0
77,134,0,0,0,0,0,0,0,0,0,-1,1301,890,0,0
84,134,0,0,0,0,0,0,0,0,0,-1,1308,890,0,0
91,134,0,0,0,0,0,0,0,0,0,-1,1315,890,0,0
98,134,0,0,0,0,0,0,0,0,0,-1,1322,890,0,0
105,134,0,0,0,0,0,0,0,0,0,-1,1329,890,0,0
112,134,0,0,0,0,0,0,0,0,0,-1,1336,890,0,0
119,134,0,0,0,0,0,0,0,0,0,-1,1343,890,0,0
126,134,0,0,0,0,0,0,0,0,0,-1,1350,890,0,0
133,134,0,0,0,0,0,0,0,0,0,-1,1357,890,0,0
140,134,0,0,0,0,0,0,0,0,0,-1,1364,890,0,0
147,134,0,0,0,0,0,0,0,0,0,-1,1371,890,0,0
154,134,0,0,0,0,0,0,0,0,0,-1,1378,890,0,0
161,134,0,0,0,0,0,0,0,0,0,-1,1385,890,0,0
168,134,0,0,0,0,0,0,0,0,0,-1,1392,890,0,0
175,134,0,0,0,0,0,0,0,0,0,-1,1399,890,0,0
182,134,0,0,0,0,0,0,0,0,0,-1,1406,890,0,0
189,134,0,0,0,0,0,0,0,0,0,-1,1413,890,0,0
196,134,0,0,0,0,0,0,0,0,0,-1,1420,890,0,0
203,134,0,0,0,0,0,0,0,0,0,-1,1427,890,0,0
210,134,0,0,0,0,0,0,0,0,0,-1,1434,890,0,0
217,134,0,0,0,0,0,0,0,0,0,-1,1441,890,0,0
224,134,0,0,0,0,0,0,0,0,0,-1,1448,890,0,0
231,134,0,0,0,0,0,0,0,0,0,-1,1455,890,0,0
238,134,0,0,0,0,0,0,0,0,0,-1,1462,890,0,0
245,134,0,0,0,0,0,0,0,0,0,-1,1469,890,0,0
252,134,0,0,0,0,0,0,0,0,0,-1,1476,890,0,0
259,134,0,0,0,0,0,0,0,0,0,-1,1483,890,0,0
266,134,0,0,0,0,0,0,0,0,0,-1,1490,890,0,0
273,134,0,0,0,0,0,0,0,0,0,-1,1497,890,0,0
280,134,0,0,0,0,0,0,0,0,0,-1,1504,890,0,0
287,134,0,0,0,0,0,0,0,0,0,-1,1511,890,0,0
294,134,0,0,0,0,0,0,0,0,0,-1,1518,890,0,0
301,134,0,0,0,0,0,0,0,0,0,-1,1525,890,0,0
308,134,0,0,0,0,0,0,0,0,0,-1,1532,890,0,0
315,134,0,0,0,0,0,0,0,0,0,-1,1539,890,0,0
322,134,0,0,0,0,0,0,0,0,0,-1,1546,890,0,0
329,134,0,0,0,0,0,0,0,0,0,-1,1553,890,0,0
336,134,0,0,0,0,0,0,0,0,0,-1,1560,890,0,0
343,134,0,0,0,0,0,0,0,0,0,-1,1567,890,0,0
350,134,0,0,0,0,0,0,0,0,0,-1,1574,890,0,0
357,134,0,0,0,0,0,0,0,0,0,-1,1581,890,0,0
364,134,0,0,0,0,0,0,0,0,0,-1,1588,890,0,0
371,134,0,0,0,0,0,0,0,0,0,-1,1595,890,0,0
378,134,0,0,0,0,0,0,0,0,0,-1,1602,890,0,0
385,134,0,0,0,0,0,0,0,0,0,-1,1609,890,0,0
392,134,0,0,0,0,0,0,0,0,0,-1,1616,890,0,0
399,134,0,0,0,0,0,0,0,0,0,-1,1623,890,0,0
406,134,0,0,0,0,0,0,0,0,0,-1,1630,890,0,0
413,134,0,0,0,0,0,0,0,0,0,-1,1637,890,0,0
420,134,0,0,0,0,0,0,0,0,0,-1,1644,890,0,0
427,134,0,0,0,0,0,0,0,0,0,-1,1651,890,0,0
434,134,0,0,0,0,0,0,0,0,0,-1,1658,890,0,0
441,134,0,0,0,0,0,0,0,0,0,-1,1665,890,0,0
448,134,0,0,0,0,0,0,0,0,0,-1,1672,890,0,0
455,134,0,0,0,0,0,0,0,0,0,-1,1679,890,0,0
462,134,0,0,0,0,0,0,0,0,0,-1,1686,890,0,0
469,134,0,0,0,0,0,0,0,0,0,-1,1693,890,0,0
476,134,0,0,0,0,0,0,0,0,0,-1,1700,890,0,0
483,134,0,0,0,0,0,0,0,0,0,-1,1707,890,0,0
490,134,0,0,0,0,0,0,0,0,0,-1,1714,890,0,0
497,134,0,0,0,0,0,0,0,0,0,-1,1721,890,0,0
504,134,0,0,0,0,0,0,0,0,0,-1,1728,890,0,0
511,134,0,0,0,0,0,0,0,0,0,-1,1735,890,0,0
518,134,0,0,0,0,0,0,0,0,0,-1,1742,890,0,0
525,134,0,0,0,0,0,0,0,0,0,-1,1749,890,0,0
532,134,0,0,0,0,0,0,0,0,0,-1,1756,890,0,0
539,134,0,0,0,0,0,0,0,0,0,-1,1763,890,0,0
546,134,0,0,0,0,0,0,0,0,0,-1,1770,890,0,0
553,134,0,0,0,0,0,0,0,0,0,-1,1777,890,0,0
560,134,0,0,0,0,0,0,0,0,0,-1,1784,890,0,0
567,134,0,0,0,0,0,0,0,0,0,-1,1791,890,0,0
574,134,0,0,0,0,0,0,0,0,0,-1,1798,890,0,0
581,134,0,0,0,0,0,0,0,0,0,-1,1805,890,0,0
588,134,0,0,0,0,0,0,0,0,0,-1,1812,890,0,0
595,134,0,0,0,0,0,0,0,0,0,-1,1819,890,0,0
602,134,0,0,0,0,0,0,0,0,0,-1,1826,890,0,0
609,134,0,0,0,0,0,0,0,0,0,-1,1833,890,0,0
616,134,0,0,0,0,0,0,0,0,0,-1,1840,890,0,0
623,134,22.8083,2.75092,-0.00589516,0.000733639,-0.000214591,0.000740579,-0.0059021,-1.53847,0.00420339,0.0450469,1847,890,22.8083,-2.75089
630,134,22.7997,2.75275,-0.00354441,0.000543313,-0.00024402,0.000557829,-0.00355892,-1.51138,0.00257875,0.0461356,1854,890,22.7997,-2.75275
637,134,22.7758,2.71893,-0.00151114,0.000427568,-0.000352476,0.000489662,-0.00157323,-1.39642,0.00124458,0.0442779,1861,890,22.7757,-2.71893
644,134,22.7867,2.75549,-0.000529172,0.000257518,-0.000486888,0.000490097,-0.000761751,-1.12516,0.000728405,0.0386214,1868,890,22.7867,-2.75547
651,134,22.7386,2.84302,-0.000572306,0.000160555,-0.000686009,0.000571865,-0.000983616,-1.03069,0.000908485,0.0396371,1875,890,22.7386,-2.84301
658,134,22.7286,2.86584,-0.0011189,5.13348e-05,-0.000860397,0.000506719,-0.00157429,-1.08401,0.00125306,0.0376677,1882,890,22.7286,-2.86584
665,134,22.8041,2.79559,-0.00174466,-9.23692e-05,-0.00093763,0.000331152,-0.00216818,-1.14654,0.00156754,0.0328469,1889,890,22.8041,-2.79562
672,134,22.8013,2.73468,-0.00230333,-0.000147507,-0.001001,0.000245599,-0.00269643,-1.19659,0.00188483,0.0218995,1896,890,22.8013,-2.73469
679,134,22.824,2.6908,-0.00279488,-0.000256982,-0.00107831,0.000139297,-0.00319116,-1.21862,0.00217536,0.0167985,1903,890,22.8239,-2.69079
686,134,22.7836,2.67554,0,0,0,0,0,0,0,-1,1910,890,22.7835,-2.67554
693,134,19.9385,2.86792,0,0,0,0,0,0,0,-1,1917,890,19.9385,-2.86794
700,134,19.9348,2.95154,-0.00413346,-0.000317997,-0.00111224,-1.74451e-05,-0.00443401,-1.30688,0.00295021,0.0223021,1924,890,19.9348,-2.95155
707,134,19.7917,3.02472,-0.00437955,-0.000179141,-0.00125741,0.000168498,-0.00472719,-1.30106,0.0032091,0.0196745,1931,890,19.7918,-3.02471
714,134,19.8296,3.28027,-0.00417226,-0.000217843,-0.0013321,0.000189032,-0.00457914,-1.27436,0.00311768,0.0181184,1938,890,19.8295,-3.28028
721,134,19.9656,3.5257,-0.00327024,-4.95152e-05,-0.00127854,0.000396318,-0.00371608,-1.23528,0.0026195,0.0152512,1945,890,19.9656,-3.52569
728,134,19.9967,3.70947,-0.00129012,2.72434e-05,-0.00139941,0.00091524,-0.00217811,-1.00536,0.00183489,0.015389,1952,890,19.9967,-3.70948
735,134,19.9799,3.92688,0.00116369,6.25818e-06,-0.00174271,0.00242126,-0.00125131,-0.625088,0.00215593,0.0205256,1959,890,19.9799,-3.92689
742,134,19.9434,4.11096,0.00371762,0.00108803,-0.00148684,0.00438761,0.000418034,-0.423365,0.00279616,0.0138404,1966,890,19.9433,-4.11094
749,134,19.9482,4.28418,0.00629824,0.00178161,-0.00155585,0.0067823,0.00129754,-0.301634,0.00415708,0.0114201,1973,890,19.9482,-4.28419
756,134,19.9465,4.487,0.00973379,0.00263197,-0.00140657,0.0100022,0.00236353,-0.188577,0.00603657,0.0154265,1980,890,19.9465,-4.487
763,134,19.9949,4.67682,0.0132104,0.00381244,-0.0011128,0.0133403,0.00368247,-0.116267,0.00795543,0.0352592,1987,890,19.9949,-4.6768
770,134,20.2501,4.71088,0.0168438,0.00538635,-0.000461569,0.0168623,0.00536778,-0.0401988,0.00994737,0.0447396,1994,890,20.2501,-4.71088
777,134,20.7335,4.66022,0,0,0,0,0,0,0,-1,2001,890,20.7336,-4.66022
784,134,22.205,6.41498,0.0232217,0.010448,0.00249597,0.0236921,0.00997758,0.186274,0.0137352,0.0459645,2008,890,22.2049,-6.41496
791,134,22.3085,7.13574,0.024481,0.0144502,0.00513635,0.0266445,0.0122867,0.398656,0.0153987,0.0441327,2015,890,22.3084,-7.13577
798,134,0,0,0,0,0,0,0,0,0,-1,2022,890,0,0
805,134,0,0,0,0,0,0,0,0,0,-1,2029,890,0,0
812,134,0,0,0,0,0,0,0,0,0,-1,2036,890,0,0
-700,127,0,0,0,0,0,0,0,0,0,-1,524,897,0,0
-693,127,0,0,0,0,0,0,0,0,0,-1,531,897,0,0
-686,127,0,0,0,0,0,0,0,0,0,-1,538,897,0,0
-679,127,-12.8329,3.61676,0,0,0,0,0,0,0,-1,545,897,-12.8329,-3.61675
-672,127,-11.9554,2.13916,0,0,0,0,0,0,0,-1,552,897,-11.9554,-2.13917
-665,127,-12.4991,3.11719,0,0,0,0,0,0,0,-1,559,897,-12.4991,-3.11719
-658,127,-12.3546,4.28302,0,0,0,0,0,0,0,-1,566,897,-12.3546,-4.28299
-651,127,-14.3109,2.0871,0,0,0,0,0,0,0,-1,573,897,-14.3109,-2.08709
-644,127,-13.4605,2.04858,0,0,0,0,0,0,0,-1,580,897,-13.4605,-2.04859
-637,127,-13.3394,2.10748,-0.00539707,0.0325295,0.0273358,0.0468356,-0.0197032,1.08865,0.0394664,0.0494549,587,897,-13.3394,-2.10747
-630,127,-13.3138,2.05688,-0.00571305,0.0219829,0.0189486,0.0316044,-0.0153345,1.10095,0.0276376,0.0324287,594,897,-13.3138,-2.05686
-623,127,-13.4143,1.96869,-0.00554614,0.0143429,0.0126515,0.0204904,-0.0116937,1.11848,0.0188114,0.0129212,601,897,-13.4143,-1.96872
-616,127,-13.4669,1.85364,-0.00530165,0.0078744,0.00746285,0.0112411,-0.00866833,1.14701,0.0115267,0.00984926,608,897,-13.4668,-1.85362
-609,127,-13.4611,1.69434,-0.00492576,0.00291469,0.00337218,0.00416551,-0.00617659,1.2156,0.00600853,0.0131417,615,897,-13.4611,-1.69432
-602,127,-13.4599,1.52496,-0.00457383,0.000738044,0.00133081,0.00105281,-0.0048886,1.33855,0.00366081,0.0140501,622,897,-13.4599,-1.52493
-595,127,-13.4501,1.39404,-0.00402797,0.000302523,0.0006835,0.000407841,-0.00413329,1.41791,0.00290105,0.0145772,629,897,-13.4501,-1.39407
-588,127,-13.5216,1.27423,-0.00351189,-6.26947e-05,0.00022551,-4.80133e-05,-0.00352657,1.50578,0.00233521,0.0200231,636,897,-13.5216,-1.27422
-581,127,-13.5894,1.00531,-0.00339436,3.55019e-05,1.61137e-06,3.55025e-05,-0.00339436,1.57033,0.00227484,0.0295936,643,897,-13.5894,-1.00531
-574,127,-13.5649,0.838562,-0.00341789,0.000123232,3.68525e-05,0.000123615,-0.00341828,1.56039,0.00232115,0.0296602,650,897,-13.565,-0.838546
-567,127,-13.2126,0.610046,0,0,0,0,0,0,0,-1,657,897,-13.2126,-0.610027
-560,127,-15.3881,0.786255,0,0,0,0,0,0,0,-1,664,897,-15.388,-0.786255
-553,127,-15.4056,0.850769,-0.00186746,0.00027153,-0.000258991,0.000302442,-0.00189838,-1.452,0.00137751,0.0425219,671,897,-15.4056,-0.850768
-546,127,-15.373,0.879395,-0.00116483,0.000464491,-0.000244891,0.000500503,-0.00120084,-1.42479,0.00100963,0.023864,678,897,-15.373,-0.879398
-539,127,-15.3753,0.870056,-0.000159559,0.000574508,-0.000228055,0.000639589,-0.00022464,-1.29281,0.000517779,0.0209187,685,897,-15.3753,-0.87004
-532,127,-15.3563,0.849854,0.00120452,0.000548632,-0.000192733,0.00125696,0.00049619,-0.265664,0.000731044,0.0163987,692,897,-15.3563,-0.849871
-525,127,-15.494,0.944519,0.00308704,0.00024497,-0.000216253,0.0031034,0.000228609,-0.0755107,0.0019971,0.0315925,699,897,-15.4939,-0.944545
-518,127,-15.5967,1.24194,0.00576879,-0.000558426,-0.000360419,0.00578925,-0.000578891,-0.0567188,0.00406622,0.040203,706,897,-15.5967,-1.24196
-511,127,-15.1332,0.631531,0.00871031,-0.00188932,-0.000710197,0.00875768,-0.00193669,-0.0666053,0.00657972,0.0413172,713,897,-15.1332,-0.631538
-504,127,0,0,0,0,0,0,0,0,0,-1,720,897,0,0
-497,127,0,0,0,0,0,0,0,0,0,-1,727,897,0,0
-490,127,0,0,0,0,0,0,0,0,0,-1,734,897,0,0
-483,127,0,0,0,0,0,0,0,0,0,-1,741,897,0,0
-476,127,0,0,0,0,0,0,0,0,0,-1,748,897,0,0
-469,127,0,0,0,0,0,0,0,0,0,-1,755,897,0,0
-462,127,0,0,0,0,0,0,0,0,0,-1,762,897,0,0
-455,127,0,0,0,0,0,0,0,0,0,-1,769,897,0,0
-448,127,0,0,0,0,0,0,0,0,0,-1,776,897,0,0
-441,127,0,0,0,0,0,0,0,0,0,-1,783,897,0,0
-434,127,0,0,0,0,0,0,0,0,0,-1,790,897,0,0
-427,127,0,0,0,0,0,0,0,0,0,-1,797,897,0,0
-420,127,0,0,0,0,0,0,0,0,0,-1,804,897,0,0
-413,127,0,0,0,0,0,0,0,0,0,-1,811,897,0,0
-406,127,0,0,0,0,0,0,0,0,0,-1,818,897,0,0
-399,127,0,0,0,0,0,0,0,0,0,-1,825,897,0,0
-392,127,0,0,0,0,0,0,0,0,0,-1,832,897,0,0
-385,127,0,0,0,0,0,0,0,0,0,-1,839,897,0,0
-378,127,0,0,0,0,0,0,0,0,0,-1,846,897,0,0
-371,127,0,0,0,0,0,0,0,0,0,-1,853,897,0,0
-364,127,0,0,0,0,0,0,0,0,0,-1,860,897,0,0
-357,127,0,0,0,0,0,0,0,0,0,-1,867,897,0,0
-350,127,0,0,0,0,0,0,0,0,0,-1,874,897,0,0
-343,127,0,0,0,0,0,0,0,0,0,-1,881,897,0,0
-336,127,0,0,0,0,0,0,0,0,0,-1,888,897,0,0
-329,127,0,0,0,0,0,0,0,0,0,-1,895,897,0,0
-322,127,0,0,0,0,0,0,0,0,0,-1,902,897,0,0
-315,127,0,0,0,0,0,0,0,0,0,-1,909,897,0,0
-308,127,0,0,0,0,0,0,0,0,0,-1,916,897,0,0
-301,127,0,0,0,0,0,0,0,0,0,-1,923,897,0,0
-294,127,0,0,0,0,0,0,0,0,0,-1,930,897,0,0
-287,127,0,0,0,0,0,0,0,0,0,-1,937,897,0,0
-280,127,0,0,0,0,0,0,0,0,0,-1,944,897,0,0
-273,127,0,0,0,0,0,0,0,0,0,-1,951,897,0,0
-266,127,0,0,0,0,0,0,0,0,0,-1,958,897,0,0
-259,127,0,0,0,0,0,0,0,0,0,-1,965,897,0,0
-252,127,0,0,0,0,0,0,0,0,0,-1,972,897,0,0
-245,127,0,0,0,0,0,0,0,0,0,-1,979,897,0,0
-238,127,0,0,0,0,0,0,0,0,0,-1,986,897,0,0
-231,127,0,0,0,0,0,0,0,0,0,-1,993,897,0,0
-224,127,0,0,0,0,0,0,0,0,0,-1,1000,897,0,0
-217,127,0,0,0,0,0,0,0,0,0,-1,1007,897,0,0
-210,127,0,0,0,0,0,0,0,0,0,-1,1014,897,0,0
-203,127,0,0,0,0,0,0,0,0,0,-1,1021,897,0,0
-196,127,0,0,0,0,0,0,0,0,0,-1,1028,897,0,0
-189,127,0,0,0,0,0,0,0,0,0,-1,1035,897,0,0
-182,127,0,0,0,0,0,0,0,0,0,-1,1042,897,0,0
-175,127,0,0,0,0,0,0,0,0,0,-1,1049,897,0,0
-168,127,0,0,0,0,0,0,0,0,0,-1,1056,897,0,0
-161,127,0,0,0,0,0,0,0,0,0,-1,1063,897,0,0
-154,127,0,0,0,0,0,0,0,0,0,-1,1070,897,0,0
-147,127,0,0,0,0,0,0,0,0,0,-1,1077,897,0,0
-140,127,0,0,0,0,0,0,0,0,0,-1,1084,897,0,0
-133,127,0,0,0,0,0,0,0,0,0,-1,1091,897,0,0
-126,127,0,0,0,0,0,0,0,0,0,-1,1098,897,0,0
-119,127,0,0,0,0,0,0,0,0,0,-1,1105,897,0,0
-112,127,0,0,0,0,0,0,0,0,0,-1,1112,897,0,0
-105,127,0,0,0,0,0,0,0,0,0,-1,1119,897,0,0
-98,127,0,0,0,0,0,0,0,0,0,-1,1126,897,0,0
-91,127,0,0,0,0,0,0,0,0,0,-1,1133,897,0,0
-84,127,0,0,0,0,0,0,0,0,0,-1,1140,897,0,0
-77,127,0,0,0,0,0,0,0,0,0,-1,1147,897,0,0
-70,127,0,0,0,0,0,0,0,0,0,-1,1154,897,0,0
-63,127,0,0,0,0,0,0,0,0,0,-1,1161,897,0,0
-56,127,0,0,0,0,0,0,0,0,0,-1,1168,897,0,0
-49,127,0,0,0,0,0,0,0,0,0,-1,1175,897,0,0
-42,127,0,0,0,0,0,0,0,0,0,-1,1182,897,0,0
-35,127,0,0,0,0,0,0,0,0,0,-1,1189,897,0,0
-28,127,0,0,0,0,0,0,0,0,0,-1,1196,897,0,0
-21,127,0,0,0,0,0,0,0,0,0,-1,1203,897,0,0
-14,127,0,0,0,0,0,0,0,0,0,-1,1210,897,0,0
-7,127,0,0,0,0,0,0,0,0,0,-1,1217,897,0,0
0,127,0,0,0,0,0,0,0,0,0,-1,1224,897,0,0
7,127,0,0,0,0,0,0,0,0,0,-1,1231,897,0,0
14,127,0,0,0,0,0,0,0,0,0,-1,1238,897,0,0
21,127,0,0,0,0,0,0,0,0,0,-1,1245,897,0,0
28,127,0,0,0,0,0,0,0,0,0,-1,1252,897,0,0
35,127,0,0,0,0,0,0,0,0,0,-1,1259,897,0,0
42,127,0,0,0,0,0,0,0,0,0,-1,1266,897,0,0
49,127,0,0,0,0,0,0,0,0,0,-1,1273,897,0,0
56,127,0,0,0,0,0,0,0,0,0,-1,1280,897,0,0
63,127,0,0,0,0,0,0,0,0,0,-1,1287,897,0,0
70,127,0,0,0,0,0,0,0,0,0,-1,1294,897,0,0
77,127,0,0,0,0,0,0,0,0,0,-1,1301,897,0,0
84,127,0,0,0,0,0,0,0,0,0,-1,1308,897,0,0
91,127,0,0,0,0,0,0,0,0,0,-1,1315,897,0,0
98,127,0,0,0,0,0,0,0,0,0,-1,1322,897,0,0
105,127,0,0,0,0,0,0,0,0,0,-1,1329,897,0,0
112,127,0,0,0,0,0,0,0,0,0,-1,1336,897,0,0
119,127,0,0,0,0,0,0,0,0,0,-1,1343,897,0,0
126,127,0,0,0,0,0,0,0,0,0,-1,1350,897,0,0
133,127,0,0,0,0,0,0,0,0,0,-1,1357,897,0,0
140,127,0,0,0,0,0,0,0,0,0,-1,1364,897,0,0
147,127,0,0,0,0,0,0,0,0,0,-1,1371,897,0,0
154,127,0,0,0,0,0,0,0,0,0,-1,1378,897,0,0
161,127,0,0,0,0,0,0,0,0,0,-1,1385,897,0,0
168,127,0,0,0,0,0,0,0,0,0,-1,1392,897,0,0
175,127,0,0,0,0,0,0,0,0,0,-1,1399,897,0,0
182,127,0,0,0,0,0,0,0,0,0,-1,1406,897,0,0
189,127,0,0,0,0,0,0,0,0,0,-1,1413,897,0,0
196,127,0,0,0,0,0,0,0,0,0,-1,1420,897,0,0
203,127,0,0,0,0,0,0,0,0,0,-1,1427,897,0,0
210,127,0,0,0,0,0,0,0,0,0,-1,1434,897,0,0
217,127,0,0,0,0,0,0,0,0,0,-1,1441,897,0,0
224,127,0,0,0,0,0,0,0,0,0,-1,1448,897,0,0
231,127,0,0,0,0,0,0,0,0,0,-1,1455,897,0,0
238,127,0,0,0,0,0,0,0,0,0,-1,1462,897,0,0
245,127,0,0,0,0,0,0,0,0,0,-1,1469,897,0,0
252,127,0,0,0,0,0,0,0,0,0,-1,1476,897,0,0
259,127,0,0,0,0,0,0,0,0,0,-1,1483,897,0,0
266,127,0,0,0,0,0,0,0,0,0,-1,1490,897,0,0
273,127,0,0,0,0,0,0,0,0,0,-1,1497,897,0,0
280,127,0,0,0,0,0,0,0,0,0,-1,1504,897,0,0
287,127,0,0,0,0,0,0,0,0,0,-1,1511,897,0,0
294,127,0,0,0,0,0,0,0,0,0,-1,1518,897,0,0
301,127,0,0,0,0,0,0,0,0,0,-1,1525,897,0,0
308,127,0,0,0,0,0,0,0,0,0,-1,1532,897,0,0
315,127,0,0,0,0,0,0,0,0,0,-1,1539,897,0,0
322,127,0,0,0,0,0,0,0,0,0,-1,1546,897,0,0
329,127,0,0,0,0,0,0,0,0,0,-1,1553,897,0,0
336,127,0,0,0,0,0,0,0,0,0,-1,1560,897,0,0
343,127,0,0,0,0,0,0,0,0,0,-1,1567,897,0,0
350,127,0,0,0,0,0,0,0,0,0,-1,1574,897,0,0
357,127,0,0,0,0,0,0,0,0,0,-1,1581,897,0,0
364,127,0,0,0,0,0,0,0,0,0,-1,1588,897,0,0
371,127,0,0,0,0,0,0,0,0,0,-1,1595,897,0,0
378,127,0,0,0,0,0,0,0,0,0,-1,1602,897,0,0
385,127,0,0,0,0,0,0,0,0,0,-1,1609,897,0,0
392,127,0,0,0,0,0,0,0,0,0,-1,1616,897,0,0
399,127,0,0,0,0,0,0,0,0,0,-1,1623,897,0,0
406,127,0,0,0,0,0,0,0,0,0,-1,1630,897,0,0
413,127,0,0,0,0,0,0,0,0,0,-1,1637,897,0,0
420,127,0,0,0,0,0,0,0,0,0,-1,1644,897,0,0
427,127,0,0,0,0,0,0,0,0,0,-1,1651,897,0,0
434,127,0,0,0,0,0,0,0,0,0,-1,1658,897,0,0
441,127,0,0,0,0,0,0,0,0,0,-1,1665,897,0,0
448,127,0,0,0,0,0,0,0,0,0,-1,1672,897,0,0
455,127,0,0,0,0,0,0,0,0,0,-1,1679,897,0,0
462,127,0,0,0,0,0,0,0,0,0,-1,1686,897,0,0
469,127,0,0,0,0,0,0,0,0,0,-1,1693,897,0,0
476,127,0,0,0,0,0,0,0,0,0,-1,1700,897,0,0
483,127,0,0,0,0,0,0,0,0,0,-1,1707,897,0,0
490,127,0,0,0,0,0,0,0,0,0,-1,1714,897,0,0
497,127,0,0,0,0,0,0,0,0,0,-1,1721,897,0,0
504,127,0,0,0,0,0,0,0,0,0,-1,1728,897,0,0
511,127,0,0,0,0,0,0,0,0,0,-1,1735,897,0,0
518,127,0,0,0,0,0,0,0,0,0,-1,1742,897,0,0
525,127,0,0,0,0,0,0,0,0,0,-1,1749,897,0,0
532,127,0,0,0,0,0,0,0,0,0,-1,1756,897,0,0
539,127,0,0,0,0,0,0,0,0,0,-1,1763,897,0,0
546,127,0,0,0,0,0,0,0,0,0,-1,1770,897,0,0
553,127,0,0,0,0,0,0,0,0,0,-1,1777,897,0,0
560,127,0,0,0,0,0,0,0,0,0,-1,1784,897,0,0
567,127,0,0,0,0,0,0,0,0,0,-1,1791,897,0,0
574,127,0,0,0,0,0,0,0,0,0,-1,1798,897,0,0
581,127,0,0,0,0,0,0,0,0,0,-1,1805,897,0,0
588,127,0,0,0,0,0,0,0,0,0,-1,1812,897,0,0
595,127,0,0,0,0,0,0,0,0,0,-1,1819,897,0,0
602,127,0,0,0,0,0,0,0,0,0,-1,1826,897,0,0
609,127,0,0,0,0,0,0,0,0,0,-1,1833,897,0,0
616,127,0,0,0,0,0,0,0,0,0,-1,1840,897,0,0
623,127,0,0,0,0,0,0,0,0,0,-1,1847,897,0,0
630,127,22.9141,2.69574,-0.003728,0.00167778,-0.00016556,0.00168285,-0.00373307,-1.54021,0.00320069,0.0421071,1854,897,22.9141,-2.69576
637,127,22.9235,2.57983,-0.00169135,0.00153739,-0.000399863,0.00158617,-0.00174013,-1.44939,0.00192113,0.0401118,1861,897,22.9234,-2.57985
644,127,22.8979,2.64453,-0.000772293,0.00128531,-0.000587548,0.00144126,-0.000928247,-1.31135,0.00137868,0.0382889,1868,897,22.898,-2.64455
651,127,22.7031,2.95361,-0.000834585,0.0010849,-0.000763121,0.00135131,-0.001101,-1.23491,0.0014183,0.0417307,1875,897,22.7031,-2.95361
658,127,22.6123,3.10883,-0.00153654,0.000891635,-0.000916557,0.00119876,-0.00184366,-1.24747,0.00176965,0.0407258,1882,897,22.6123,-3.10885
665,127,22.7297,2.82391,-0.00232117,0.000659197,-0.000991721,0.00095903,-0.002621,-1.2772,0.00213989,0.0362405,1889,897,22.7297,-2.82394
672,127,22.7306,2.66864,-0.0030046,0.000497549,-0.00102702,0.000776508,-0.00328356,-1.30558,0.00248859,0.0310186,1896,897,22.7306,-2.66865
679,127,22.8191,2.68109,-0.00357875,0.00027518,-0.00105753,0.000546296,-0.00384987,-1.31983,0.00276671,0.0242088,1903,897,22.8191,-2.6811
686,127,22.8156,2.66003,-0.00412307,0.000151987,-0.0010824,0.000410419,-0.0043815,-1.33643,0.00306697,0.0292356,1910,897,22.8156,-2.66006
693,127,21.3745,2.82074,0,0,0,0,0,0,0,-1,1917,897,21.3746,-2.82077
700,127,20.1753,2.97668,-0.00480349,-1.44456e-05,-0.001011,0.000190235,-0.00500817,-1.37104,0.00340397,0.0304135,1924,897,20.1752,-2.97671
707,127,20.0023,3.08398,-0.00490567,7.7105e-05,-0.00113735,0.000324437,-0.005153,-1.35667,0.00354843,0.0237848,1931,897,20.0023,-3.084
714,127,20.0431,3.29565,-0.00462241,6.71832e-06,-0.0011859,0.00029284,-0.00490853,-1.33405,0.00337421,0.0197811,1938,897,20.0431,-3.29564
721,127,20.2006,3.57642,-0.00371005,9.63394e-05,-0.00105989,0.000371567,-0.00398528,-1.31673,0.00278897,0.0145069,1945,897,20.2006,-3.57644
728,127,20.1975,3.71918,-0.00192995,0.000258056,-0.001108,0.000721133,-0.00239303,-1.17492,0.00188235,0.0135684,1952,897,20.1975,-3.71917
735,127,20.1683,3.90521,0.000152172,0.00034328,-0.00142326,0.00167419,-0.00117873,-0.818917,0.00165539,0.0185078,1959,897,20.1683,-3.90519
742,127,20.1425,4.08484,0.00223274,0.00155271,-0.00115562,0.00309733,0.000688122,-0.642321,0.00187802,0.0168518,1966,897,20.1425,-4.08484
749,127,20.1428,4.25458,0.00406367,0.00237456,-0.00122661,0.00470836,0.00172988,-0.483905,0.00275005,0.0121549,1973,897,20.1428,-4.25455
756,127,20.1364,4.41577,0.00652227,0.00344903,-0.00104542,0.00684417,0.00312713,-0.298705,0.00395638,0.0141931,1980,897,20.1364,-4.41579
763,127,20.1315,4.53448,0.0085725,0.00490231,-0.000785686,0.00873362,0.00474119,-0.202266,0.00504853,0.022069,1987,897,20.1315,-4.53451
770,127,20.2467,4.38013,0.010376,0.00673565,-0.000260512,0.0103945,0.0067171,-0.0710797,0.00608622,0.0406845,1994,897,20.2467,-4.38012
777,127,20.7079,4.00195,0,0,0,0,0,0,0,-1,2001,897,20.7079,-4.00194
784,127,22.3826,6.68176,0.0120793,0.0121606,0.0020037,0.0141241,0.0101158,0.795537,0.00840483,0.0468101,2008,897,22.3826,-6.68175
791,127,22.4604,7.5307,0.0106133,0.0161415,0.00390815,0.0181642,0.00859051,1.09319,0.0104922,0.0435568,2015,897,22.4605,-7.5307
798,127,0,0,0,0,0,0,0,0,0,-1,2022,897,0,0
805,127,0,0,0,0,0,0,0,0,0,-1,2029,897,0,0
812,127,0,0,0,0,0,0,0,0,0,-1,2036,897,0,0
-700,120,0,0,0,0,0,0,0,0,0,-1,524,904,0,0
-693,120,0,0,0,0,0,0,0,0,0,-1,531,904,0,0
-686,120,0,0,0,0,0,0,0,0,0,-1,538,904,0,0
-679,120,-11.5245,0.601807,0,0,0,0,0,0,0,-1,545,904,-11.5246,-0.601815
-672,120,-11.8934,1.38397,0.00640736,0.125737,0.101472,0.183786,-0.0516414,1.05117,0.142883,0.0452412,552,904,-11.8934,-1.38398
-665,120,-12.1144,2.31598,-2.13694e-05,0.0999555,0.0817319,0.145774,-0.0458398,1.05986,0.115535,0.0443793,559,904,-12.1144,-2.31595
-658,120,-12.1158,3.38647,0,0,0,0,0,0,0,-1,566,904,-12.1158,-3.3865
-651,120,-13.6208,2.18829,0,0,0,0,0,0,0,-1,573,904,-13.6208,-2.18829
-644,120,-13.5751,2.15833,-0.00776168,0.0424049,0.0367814,0.0618417,-0.0271985,1.08465,0.0526884,0.0449392,580,904,-13.5751,-2.15831
-637,120,-13.5969,2.1095,-0.00800558,0.0297232,0.0264601,0.043355,-0.0216374,1.09508,0.0382153,0.0427826,587,904,-13.5969,-2.10948
-630,120,-13.5916,2.04224,-0.00750803,0.0200257,0.0183479,0.0291973,-0.0166796,1.10725,0.0268137,0.0230906,594,904,-13.5915,-2.04224
-623,120,-13.6207,1.94092,-0.00681396,0.0131049,0.0122833,0.0189591,-0.0126681,1.12605,0.01838,0.0105057,601,904,-13.6206,-1.94095
-616,120,-13.6194,1.82404,-0.00632935,0.00700224,0.0071517,0.0101129,-0.00944004,1.16052,0.0112911,0.00992957,608,904,-13.6194,-1.82404
-609,120,-13.6188,1.6864,-0.00571583,0.00255666,0.00325213,0.00368205,-0.00684123,1.23765,0.0061662,0.0125887,615,904,-13.6188,-1.68642
-602,120,-13.6423,1.5376,-0.00522416,0.000694727,0.00128649,0.000962258,-0.00549169,1.36576,0.00402045,0.0129962,622,904,-13.6423,-1.53758
-595,120,-13.6052,1.41937,-0.00471728,0.000279162,0.000594598,0.000348947,-0.00478706,1.45397,0.00331382,0.0184259,629,904,-13.6052,-1.41938
-588,120,-13.6416,1.237,-0.00428495,-0.000123362,0.000133592,-0.000119078,-0.00428923,1.53874,0.00282063,0.0242862,636,904,-13.6416,-1.237
-581,120,-13.7825,1.08746,-0.00424713,-6.09235e-05,-0.000116311,-5.76943e-05,-0.00425036,-1.54304,0.00281454,0.0296363,643,904,-13.7825,-1.08746
-574,120,-13.6642,0.832947,-0.00428826,-1.98724e-05,-8.69677e-05,-1.81014e-05,-0.00429003,-1.55043,0.00285401,0.024465,650,904,-13.6642,-0.832934
-567,120,-13.4628,0.458496,0,0,0,0,0,0,0,-1,657,904,-13.4628,-0.45852
-560,120,-15.3555,0.919861,0,0,0,0,0,0,0,-1,664,904,-15.3554,-0.919879
-553,120,-15.3463,1.00403,-0.00256797,0.000132132,-0.000345191,0.000175564,-0.0026114,-1.44563,0.00180231,0.0360438,671,904,-15.3463,-1.00401
-546,120,-15.3156,1.00024,-0.00166909,0.000228295,-0.000347385,0.000289897,-0.00173069,-1.39529,0.00126158,0.031038,678,904,-15.3156,-1.00023
-539,120,-15.3264,0.921997,-0.000398355,0.000260099,-0.000329197,0.000396448,-0.000534704,-1.17812,0.000539573,0.0253615,685,904,-15.3263,-0.922012
-532,120,-15.3459,0.889709,0.00130391,0.000100966,-0.000303031,0.00137594,2.89425e-05,-0.233347,0.000907798,0.027813,692,904,-15.3459,-0.889712
-525,120,-15.5859,1.11511,0.00361094,-0.000441986,-0.000375059,0.00364536,-0.000476402,-0.0915047,0.00260361,0.033699,699,904,-15.5859,-1.11514
-518,120,-15.7193,1.51813,0.00657499,-0.00167983,-0.000629268,0.00662268,-0.00172752,-0.0756479,0.00508964,0.0384422,706,904,-15.7193,-1.51812
-511,120,-15.5783,1.50354,0.00923477,-0.00357006,-0.00121,0.00934811,-0.0036834,-0.093394,0.00775707,0.0400648,713,904,-15.5783,-1.50355
-504,120,0,0,0,0,0,0,0,0,0,-1,720,904,0,0
-497,120,0,0,0,0,0,0,0,0,0,-1,727,904,0,0
-490,120,0,0,0,0,0,0,0,0,0,-1,734,904,0,0
-483,120,0,0,0,0,0,0,0,0,0,-1,741,904,0,0
-476,120,0,0,0,0,0,0,0,0,0,-1,748,904,0,0
-469,120,0,0,0,0,0,0,0,0,0,-1,755,904,0,0
-462,120,0,0,0,0,0,0,0,0,0,-1,762,904,0,0
-455,120,0,0,0,0,0,0,0,0,0,-1,769,904,0,0
-448,120,0,0,0,0,0,0,0,0,0,-1,776,904,0,0
-441,120,0,0,0,0,0,0,0,0,0,-1,783,904,0,0
-434,120,0,0,0,0,0,0,0,0,0,-1,790,904,0,0
-427,120,0,0,0,0,0,0,0,0,0,-1,797,904,0,0
-420,120,0,0,0,0,0,0,0,0,0,-1,804,904,0,0
-413,120,0,0,0,0,0,0,0,0,0,-1,811,904,0,0
-406,120,0,0,0,0,0,0,0,0,0,-1,818,904,0,0
-399,120,0,0,0,0,0,0,0,0,0,-1,825,904,0,0
-392,120,0,0,0,0,0,0,0,0,0,-1,832,904,0,0
-385,120,0,0,0,0,0,0,0,0,0,-1,839,904,0,0
-378,120,0,0,0,0,0,0,0,0,0,-1,846,904,0,0
-371,120,0,0,0,0,0,0,0,0,0,-1,853,904,0,0
-364,120,0,0,0,0,0,0,0,0,0,-1,860,904,0,0
-357,120,0,0,0,0,0,0,0,0,0,-1,867,904,0,0
-350,120,0,0,0,0,0,0,0,0,0,-1,874,904,0,0
-343,120,0,0,0,0,0,0,0,0,0,-1,881,904,0,0
-336,120,0,0,0,0,0,0,0,0,0,-1,888,904,0,0
-329,120,0,0,0,0,0,0,0,0,0,-1,895,904,0,0
-322,120,0,0,0,0,0,0,0,0,0,-1,902,904,0,0
-315,120,0,0,0,0,0,0,0,0,0,-1,909,904,0,0
-308,120,0,0,0,0,0,0,0,0,0,-1,916,904,0,0
-301,120,0,0,0,0,0,0,0,0,0,-1,923,904,0,0
-294,120,0,0,0,0,0,0,0,0,0,-1,930,904,0,0
-287,120,0,0,0,0,0,0,0,0,0,-1,937,904,0,0
-280,120,0,0,0,0,0,0,0,0,0,-1,944,904,0,0
-273,120,0,0,0,0,0,0,0,0,0,-1,951,904,0,0
-266,120,0,0,0,0,0,0,0,0,0,-1,958,904,0,0
-259,120,0,0,0,0,0,0,0,0,0,-1,965,904,0,0
-252,120,0,0,0,0,0,0,0,0,0,-1,972,904,0,0
-245,120,0,0,0,0,0,0,0,0,0,-1,979,904,0,0
-238,120,0,0,0,0,0,0,0,0,0,-1,986,904,0,0
-231,120,0,0,0,0,0,0,0,0,0,-1,993,904,0,0
-224,120,0,0,0,0,0,0,0,0,0,-1,1000,904,0,0
-217,120,0,0,0,0,0,0,0,0,0,-1,1007,904,0,0
-210,120,0,0,0,0,0,0,0,0,0,-1,1014,904,0,0
-203,120,0,0,0,0,0,0,0,0,0,-1,1021,904,0,0
-196,120,0,0,0,0,0,0,0,0,0,-1,1028,904,0,0
-189,120,0,0,0,0,0,0,0,0,0,-1,1035,904,0,0
-182,120,0,0,0,0,0,0,0,0,0,-1,1042,904,0,0
-175,120,0,0,0,0,0,0,0,0,0,-1,1049,904,0,0
-168,120,0,0,0,0,0,0,0,0,0,-1,1056,904,0,0
-161,120,0,0,0,0,0,0,0,0,0,-1,1063,904,0,0
-154,120,0,0,0,0,0,0,0,0,0,-1,1070,904,0,0
-147,120,0,0,0,0,0,0,0,0,0,-1,1077,904,0,0
-140,120,0,0,0,0,0,0,0,0,0,-1,1084,904,0,0
-133,120,0,0,0,0,0,0,0,0,0,-1,1091,904,0,0
-126,120,0,0,0,0,0,0,0,0,0,-1,1098,904,0,0
-119,120,0,0,0,0,0,0,0,0,0,-1,1105,904,0,0
-112,120,0,0,0,0,0,0,0,0,0,-1,1112,904,0,0
-105,120,0,0,0,0,0,0,0,0,0,-1,1119,904,0,0
-98,120,0,0,0,0,0,0,0,0,0,-1,1126,904,0,0
-91,120,0,0,0,0,0,0,0,0,0,-1,1133,904,0,0
-84,120,0,0,0,0,0,0,0,0,0,-1,1140,904,0,0
-77,120,0,0,0,0,0,0,0,0,0,-1,1147,904,0,0
-70,120,0,0,0,0,0,0,0,0,0,-1,1154,904,0,0
-63,120,0,0,0,0,0,0,0,0,0,-1,1161,904,0,0
-56,120,0,0,0,0,0,0,0,0,0,-1,1168,904,0,0
-49,120,0,0,0,0,0,0,0,0,0,-1,1175,904,0,0
-42,120,0,0,0,0,0,0,0,0,0,-1,1182,904,0,0
-35,120,0,0,0,0,0,0,0,0,0,-1,1189,904,0,0
-28,120,0,0,0,0,0,0,0,0,0,-1,1196,904,0,0
-21,120,0,0,0,0,0,0,0,0,0,-1,1203,904,0,0
-14,120,0,0,0,0,0,0,0,0,0,-1,1210,904,0,0
-7,120,0,0,0,0,0,0,0,0,0,-1,1217,904,0,0
0,120,0,0,0,0,0,0,0,0,0,-1,1224,904,0,0
7,120,0,0,0,0,0,0,0,0,0,-1,1231,904,0,0
14,120,0,0,0,0,0,0,0,0,0,-1,1238,904,0,0
21,120,0,0,0,0,0,0,0,0,0,-1,1245,904,0,0
28,120,0,0,0,0,0,0,0,0,0,-1,1252,904,0,0
35,120,0,0,0,0,0,0,0,0,0,-1,1259,904,0,0
42,120,0,0,0,0,0,0,0,0,0,-1,1266,904,0,0
49,120,0,0,0,0,0,0,0,0,0,-1,1273,904,0,0
56,120,0,0,0,0,0,0,0,0,0,-1,1280,904,0,0
63,120,0,0,0,0,0,0,0,0,0,-1,1287,904,0,0
70,120,0,0,0,0,0,0,0,0,0,-1,1294,904,0,0
77,120,0,0,0,0,0,0,0,0,0,-1,1301,904,0,0
84,120,0,0,0,0,0,0,0,0,0,-1,1308,904,0,0
91,120,0,0,0,0,0,0,0,0,0,-1,1315,904,0,0
98,120,0,0,0,0,0,0,0,0,0,-1,1322,904,0,0
105,120,0,0,0,0,0,0,0,0,0,-1,1329,904,0,0
112,120,0,0,0,0,0,0,0,0,0,-1,1336,904,0,0
119,120,0,0,0,0,0,0,0,0,0,-1,1343,904,0,0
126,120,0,0,0,0,0,0,0,0,0,-1,1350,904,0,0
133,120,0,0,0,0,0,0,0,0,0,-1,1357,904,0,0
140,120,0,0,0,0,0,0,0,0,0,-1,1364,904,0,0
147,120,0,0,0,0,0,0,0,0,0,-1,1371,904,0,0
154,120,0,0,0,0,0,0,0,0,0,-1,1378,904,0,0
161,120,0,0,0,0,0,0,0,0,0,-1,1385,904,0,0
168,120,0,0,0,0,0,0,0,0,0,-1,1392,904,0,0
175,120,0,0,0,0,0,0,0,0,0,-1,1399,904,0,0
182,120,0,0,0,0,0,0,0,0,0,-1,1406,904,0,0
189,120,0,0,0,0,0,0,0,0,0,-1,1413,904,0,0
196,120,0,0,0,0,0,0,0,0,0,-1,1420,904,0,0
203,120,0,0,0,0,0,0,0,0,0,-1,1427,904,0,0
210,120,0,0,0,0,0,0,0,0,0,-1,1434,904,0,0
217,120,0,0,0,0,0,0,0,0,0,-1,1441,904,0,0
224,120,0,0,0,0,0,0,0,0,0,-1,1448,904,0,0
231,120,0,0,0,0,0,0,0,0,0,-1,1455,904,0,0
238,120,0,0,0,0,0,0,0,0,0,-1,1462,904,0,0
245,120,0,0,0,0,0,0,0,0,0,-1,1469,904,0,0
252,120,0,0,0,0,0,0,0,0,0,-1,1476,904,0,0
259,120,0,0,0,0,0,0,0,0,0,-1,1483,904,0,0
266,120,0,0,0,0,0,0,0,0,0,-1,1490,904,0,0
273,120,0,0,0,0,0,0,0,0,0,-1,1497,904,0,0
280,120,0,0,0,0,0,0,0,0,0,-1,1504,904,0,0
287,120,0,0,0,0,0,0,0,0,0,-1,1511,904,0,0
294,120,0,0,0,0,0,0,0,0,0,-1,1518,904,0,0
301,120,0,0,0,0,0,0,0,0,0,-1,1525,904,0,0
308,120,0,0,0,0,0,0,0,0,0,-1,1532,904,0,0
315,120,0,0,0,0,0,0,0,0,0,-1,1539,904,0,0
322,120,0,0,0,0,0,0,0,0,0,-1,1546,904,0,0
329,120,0,0,0,0,0,0,0,0,0,-1,1553,904,0,0
336,120,0,0,0,0,0,0,0,0,0,-1,1560,904,0,0
343,120,0,0,0,0,0,0,0,0,0,-1,1567,904,0,0
350,120,0,0,0,0,0,0,0,0,0,-1,1574,904,0,0
357,120,0,0,0,0,0,0,0,0,0,-1,1581,904,0,0
364,120,0,0,0,0,0,0,0,0,0,-1,1588,904,0,0
371,120,0,0,0,0,0,0,0,0,0,-1,1595,904,0,0
378,120,0,0,0,0,0,0,0,0,0,-1,1602,904,0,0
385,120,0,0,0,0,0,0,0,0,0,-1,1609,904,0,0
392,120,0,0,0,0,0,0,0,0,0,-1,1616,904,0,0
399,120,0,0,0,0,0,0,0,0,0,-1,1623,904,0,0
406,120,0,0,0,0,0,0,0,0,0,-1,1630,904,0,0
413,120,0,0,0,0,0,0,0,0,0,-1,1637,904,0,0
420,120,0,0,0,0,0,0,0,0,0,-1,1644,904,0,0
427,120,0,0,0,0,0,0,0,0,0,-1,1651,904,0,0
434,120,0,0,0,0,0,0,0,0,0,-1,1658,904,0,0
441,120,0,0,0,0,0,0,0,0,0,-1,1665,904,0,0
448,120,0,0,0,0,0,0,0,0,0,-1,1672,904,0,0
455,120,0,0,0,0,0,0,0,0,0,-1,1679,904,0,0
462,120,0,0,0,0,0,0,0,0,0,-1,1686,904,0,0
469,120,0,0,0,0,0,0,0,0,0,-1,1693,904,0,0
476,120,0,0,0,0,0,0,0,0,0,-1,1700,904,0,0
483,120,0,0,0,0,0,0,0,0,0,-1,1707,904,0,0
490,120,0,0,0,0,0,0,0,0,0,-1,1714,904,0,0
497,120,0,0,0,0,0,0,0,0,0,-1,1721,904,0,0
504,120,0,0,0,0,0,0,0,0,0,-1,1728,904,0,0
511,120,0,0,0,0,0,0,0,0,0,-1,1735,904,0,0
518,120,0,0,0,0,0,0,0,0,0,-1,1742,904,0,0
525,120,0,0,0,0,0,0,0,0,0,-1,1749,904,0,0
532,120,0,0,0,0,0,0,0,0,0,-1,1756,904,0,0
539,120,0,0,0,0,0,0,0,0,0,-1,1763,904,0,0
546,120,0,0,0,0,0,0,0,0,0,-1,1770,904,0,0
553,120,0,0,0,0,0,0,0,0,0,-1,1777,904,0,0
560,120,0,0,0,0,0,0,0,0,0,-1,1784,904,0,0
567,120,0,0,0,0,0,0,0,0,0,-1,1791,904,0,0
574,120,0,0,0,0,0,0,0,0,0,-1,1798,904,0,0
581,120,0,0,0,0,0,0,0,0,0,-1,1805,904,0,0
588,120,0,0,0,0,0,0,0,0,0,-1,1812,904,0,0
595,120,0,0,0,0,0,0,0,0,0,-1,1819,904,0,0
602,120,0,0,0,0,0,0,0,0,0,-1,1826,904,0,0
609,120,0,0,0,0,0,0,0,0,0,-1,1833,904,0,0
616,120,0,0,0,0,0,0,0,0,0,-1,1840,904,0,0
623,120,0,0,0,0,0,0,0,0,0,-1,1847,904,0,0
630,120,22.8842,2.78851,-0.00349503,0.00214149,-0.00019323,0.0021481,-0.00350164,-1.53657,0.00329294,0.0382265,1854,904,22.8842,-2.78849
637,120,22.8572,2.92273,-0.00159976,0.00209285,-0.000421851,0.00214043,-0.00164734,-1.45848,0.00219304,0.0397737,1861,904,22.8571,-2.9227
644,120,22.8097,3.04456,-0.000791149,0.00186397,-0.000605626,0.00199559,-0.000922766,-1.3568,0.00172244,0.0403065,1868,904,22.8096,-3.04453
651,120,22.609,3.27655,0,0,0,0,0,0,0,-1,1875,904,22.609,-3.27655
658,120,22.6095,3.03204,-0.00167833,0.00142093,-0.000875706,0.00165125,-0.00190865,-1.31361,0.0020571,0.043573,1882,904,22.6095,-3.03204
665,120,22.6794,2.89111,-0.00261266,0.00115653,-0.000958686,0.00138636,-0.00284249,-1.33551,0.0024893,0.0369931,1889,904,22.6795,-2.89114
672,120,22.7429,2.77069,-0.00343727,0.000927548,-0.00098243,0.00113848,-0.00364821,-1.3593,0.00288744,0.0359384,1896,904,22.7429,-2.77072
679,120,22.8116,2.71259,-0.00410837,0.000639855,-0.000983439,0.000835483,-0.00430399,-1.37444,0.00318457,0.0321499,1903,904,22.8116,-2.71256
686,120,22.8201,2.71027,-0.00465859,0.000459601,-0.000997208,0.000647029,-0.00484602,-1.38501,0.00346654,0.0193727,1910,904,22.8201,-2.71026
693,120,22.8518,2.69031,0,0,0,0,0,0,0,-1,1917,904,22.8518,-2.69028
700,120,20.8204,2.97717,-0.00524031,0.000187533,-0.00089207,0.000330386,-0.00538316,-1.41201,0.00370382,0.0352118,1924,904,20.8205,-2.9772
707,120,20.2891,3.22327,-0.00524658,0.000222817,-0.00100928,0.000403118,-0.00542688,-1.39402,0.0037595,0.0215477,1931,904,20.289,-3.22324
714,120,20.3734,3.40442,-0.00492963,0.0001401,-0.00104752,0.000348016,-0.00513754,-1.37486,0.00354673,0.0177269,1938,904,20.3734,-3.4044
721,120,20.3763,3.58197,-0.00402729,0.000158934,-0.00090363,0.000345661,-0.00421402,-1.36702,0.00293137,0.0143922,1945,904,20.3764,-3.58196
728,120,20.3796,3.77838,-0.00246331,0.000339403,-0.000935188,0.000622795,-0.0027467,-1.27656,0.0020702,0.0101604,1952,904,20.3796,-3.77841
735,120,20.3583,3.92487,-0.000737614,0.000444476,-0.00126155,0.00124657,-0.00153971,-1.00447,0.00161162,0.0119392,1959,904,20.3582,-3.92488
742,120,20.3434,4.09894,0.000983741,0.0015423,-0.00109303,0.00239117,0.000134872,-0.910476,0.00155111,0.013149,1966,904,20.3434,-4.09895
749,120,20.3405,4.24548,0.00233798,0.00221832,-0.00132457,0.00360407,0.000952236,-0.76283,0.00215655,0.0110032,1973,904,20.3404,-4.24545
756,120,20.3367,4.37805,0.00415475,0.0031809,-0.00131805,0.00507294,0.00226271,-0.60846,0.00293455,0.0126955,1980,904,20.3366,-4.37804
763,120,20.2899,4.52032,0.00526215,0.00449156,-0.0013342,0.00626557,0.00348814,-0.64483,0.00362518,0.022195,1987,904,20.2899,-4.52035
770,120,20.2833,4.5434,0.00590496,0.00609147,-0.00120668,0.0072085,0.00478793,-0.823962,0.00423598,0.0430337,1994,904,20.2833,-4.54342
777,120,20.3546,4.51953,0,0,0,0,0,0,0,-1,2001,904,20.3547,-4.51954
784,120,22.7502,6.62592,0.00487402,0.0106044,-0.000305857,0.0106206,0.00485774,-1.51762,0.00613925,0.0480684,2008,904,22.7502,-6.62589
791,120,20.3502,4.67615,0.00207673,0.0138002,0.000517164,0.0138229,0.00205396,1.5268,0.00861267,0.0415453,2015,904,20.3503,-4.67617
798,120,19.6088,4.41809,-0.0034837,0.0179423,0.0016689,0.0180715,-0.00361292,1.49353,0.0134151,0.0438926,2022,904,19.6087,-4.41806
805,120,0,0,0,0,0,0,0,0,0,-1,2029,904,0,0
812,120,0,0,0,0,0,0,0,0,0,-1,2036,904,0,0
-700,113,0,0,0,0,0,0,0,0,0,-1,524,911,0,0
-693,113,0,0,0,0,0,0,0,0,0,-1,531,911,0,0
-686,113,0,0,0,0,0,0,0,0,0,-1,538,911,0,0
-679,113,-11.8274,-0.281128,0,0,0,0,0,0,0,-1,545,911,-11.8274,0.281101
-672,113,-12.0215,0.635071,0.00615702,0.103332,0.0944447,0.160955,-0.0514654,1.02297,0.127956,0.0491861,552,911,-12.0215,-0.635042
-665,113,-12.21,1.53198,-0.00123985,0.0830295,0.0765025,0.128233,-0.0464434,1.03711,0.10447,0.0443786,559,911,-12.21,-1.53198
-658,113,-13.6833,1.96552,0,0,0,0,0,0,0,-1,566,911,-13.6833,-1.9655
-651,113,-13.5638,1.92004,-0.00815367,0.0490625,0.0465858,0.075123,-0.0342142,1.06076,0.0645819,0.0494871,573,911,-13.5638,-1.92004
-644,113,-13.5972,1.99164,-0.00913069,0.0359405,0.0348329,0.0548921,-0.0280823,1.07252,0.0487317,0.0435387,580,911,-13.5973,-1.99164
-637,113,-13.7985,2.0871,-0.00907868,0.0254263,0.0252236,0.0387332,-0.0223856,1.08534,0.0357053,0.0336688,587,911,-13.7985,-2.08713
-630,113,-13.7709,2.05652,-0.00835556,0.017463,0.017668,0.0264353,-0.0173279,1.1009,0.0254485,0.0155023,594,911,-13.7709,-2.05652
-623,113,-13.7924,1.935,-0.0075931,0.0117215,0.0119664,0.0174414,-0.013313,1.12491,0.0178093,0.0103061,601,911,-13.7924,-1.93499
-616,113,-13.7859,1.80682,-0.00712636,0.00617586,0.00695118,0.00914536,-0.0100959,1.16707,0.0111134,0.00948065,608,911,-13.7859,-1.80681
-609,113,-13.7836,1.68219,-0.00643071,0.00230942,0.00325604,0.00338906,-0.00751035,1.25062,0.00644098,0.0106584,615,911,-13.7836,-1.68216
-602,113,-13.801,1.54248,-0.00592127,0.000730964,0.00133121,0.000987468,-0.00617777,1.38044,0.00448406,0.0144123,622,911,-13.801,-1.54245
-595,113,-13.8001,1.43774,-0.00548411,0.000333082,0.000566097,0.00038766,-0.00553869,1.47468,0.00382823,0.0185188,629,911,-13.8001,-1.43776
-588,113,-13.7968,1.27081,-0.00511679,-8.55632e-05,9.16061e-05,-8.38956e-05,-0.00511846,1.5526,0.00338469,0.0199014,636,911,-13.7968,-1.27082
-581,113,-13.7833,1.10376,-0.00515228,-3.43202e-05,-0.000173225,-2.84638e-05,-0.00515814,-1.537,0.00342931,0.021189,643,911,-13.7833,-1.10374
-574,113,-13.6866,0.8797,-0.00521424,-4.06373e-05,-0.000173957,-3.47949e-05,-0.00522008,-1.53722,0.00346851,0.0209933,650,911,-13.6866,-0.879676
-567,113,-13.8051,0.651367,0,0,0,0,0,0,0,-1,657,911,-13.8051,-0.651383
-560,113,-15.2924,1.05518,0,0,0,0,0,0,0,-1,664,911,-15.2924,-1.0552
-553,113,-15.339,1.07184,-0.00339846,0.000307727,-0.000374682,0.000345226,-0.00343596,-1.47104,0.00241396,0.0372729,671,911,-15.339,-1.07181
-546,113,-15.2765,1.00256,-0.00231235,0.000474403,-0.000348681,0.000517367,-0.00235532,-1.44819,0.00176808,0.0346161,678,911,-15.2765,-1.00257
-539,113,-15.1674,0.881653,-0.000778102,0.000605572,-0.000283095,0.000661252,-0.000833782,-1.37659,0.000865072,0.0360619,685,911,-15.1674,-0.881624
-532,113,-15.2388,0.717651,0.00128393,0.000570974,-0.000199856,0.00133613,0.000518772,-0.255489,0.000777808,0.0390203,692,911,-15.2388,-0.717666
-525,113,-15.4962,0.720581,0.00404326,0.000168621,-0.000217957,0.00405548,0.000156399,-0.0560167,0.00265306,0.0378803,699,911,-15.4962,-0.720556
-518,113,-15.4896,0.925171,0.00726508,-0.000921169,-0.000418023,0.00728638,-0.000942459,-0.0508876,0.00520028,0.0390533,706,911,-15.4896,-0.925167
-511,113,-15.6504,1.85876,0,0,0,0,0,0,0,-1,713,911,-15.6504,-1.85874
-504,113,0,0,0,0,0,0,0,0,0,-1,720,911,0,0
-497,113,0,0,0,0,0,0,0,0,0,-1,727,911,0,0
-490,113,0,0,0,0,0,0,0,0,0,-1,734,911,0,0
-483,113,0,0,0,0,0,0,0,0,0,-1,741,911,0,0
-476,113,0,0,0,0,0,0,0,0,0,-1,748,911,0,0
-469,113,0,0,0,0,0,0,0,0,0,-1,755,911,0,0
-462,113,0,0,0,0,0,0,0,0,0,-1,762,911,0,0
-455,113,0,0,0,0,0,0,0,0,0,-1,769,911,0,0
-448,113,0,0,0,0,0,0,0,0,0,-1,776,911,0,0
-441,113,0,0,0,0,0,0,0,0,0,-1,783,911,0,0
-434,113,0,0,0,0,0,0,0,0,0,-1,790,911,0,0
-427,113,0,0,0,0,0,0,0,0,0,-1,797,911,0,0
-420,113,0,0,0,0,0,0,0,0,0,-1,804,911,0,0
-413,113,0,0,0,0,0,0,0,0,0,-1,811,911,0,0
-406,113,0,0,0,0,0,0,0,0,0,-1,818,911,0,0
-399,113,0,0,0,0,0,0,0,0,0,-1,825,911,0,0
-392,113,0,0,0,0,0,0,0,0,0,-1,832,911,0,0
-385,113,0,0,0,0,0,0,0,0,0,-1,839,911,0,0
-378,113,0,0,0,0,0,0,0,0,0,-1,846,911,0,0
-371,113,0,0,0,0,0,0,0,0,0,-1,853,911,0,0
-364,113,0,0,0,0,0,0,0,0,0,-1,860,911,0,0
-357,113,0,0,0,0,0,0,0,0,0,-1,867,911,0,0
-350,113,0,0,0,0,0,0,0,0,0,-1,874,911,0,0
-343,113,0,0,0,0,0,0,0,0,0,-1,881,911,0,0
-336,113,0,0,0,0,0,0,0,0,0,-1,888,911,0,0
-329,113,0,0,0,0,0,0,0,0,0,-1,895,911,0,0
-322,113,0,0,0,0,0,0,0,0,0,-1,902,911,0,0
-315,113,0,0,0,0,0,0,0,0,0,-1,909,911,0,0
-308,113,0,0,0,0,0,0,0,0,0,-1,916,911,0,0
-301,113,0,0,0,0,0,0,0,0,0,-1,923,911,0,0
-294,113,0,0,0,0,0,0,0,0,0,-1,930,911,0,0
-287,113,0,0,0,0,0,0,0,0,0,-1,937,911,0,0
-280,113,0,0,0,0,0,0,0,0,0,-1,944,911,0,0
-273,113,0,0,0,0,0,0,0,0,0,-1,951,911,0,0
-266,113,0,0,0,0,0,0,0,0,0,-1,958,911,0,0
-259,113,0,0,0,0,0,0,0,0,0,-1,965,911,0,0
-252,113,0,0,0,0,0,0,0,0,0,-1,972,911,0,0
-245,113,0,0,0,0,0,0,0,0,0,-1,979,911,0,0
-238,113,0,0,0,0,0,0,0,0,0,-1,986,911,0,0
-231,113,0,0,0,0,0,0,0,0,0,-1,993,911,0,0
-224,113,0,0,0,0,0,0,0,0,0,-1,1000,911,0,0
-217,113,0,0,0,0,0,0,0,0,0,-1,1007,911,0,0
-210,113,0,0,0,0,0,0,0,0,0,-1,1014,911,0,0
-203,113,0,0,0,0,0,0,0,0,0,-1,1021,911,0,0
-196,113,0,0,0,0,0,0,0,0,0,-1,1028,911,0,0
-189,113,0,0,0,0,0,0,0,0,0,-1,1035,911,0,0
-182,113,0,0,0,0,0,0,0,0,0,-1,1042,911,0,0
-175,113,0,0,0,0,0,0,0,0,0,-1,1049,911,0,0
-168,113,0,0,0,0,0,0,0,0,0,-1,1056,911,0,0
-161,113,0,0,0,0,0,0,0,0,0,-1,1063,911,0,0
-154,113,0,0,0,0,0,0,0,0,0,-1,1070,911,0,0
-147,113,0,0,0,0,0,0,0,0,0,-1,1077,911,0,0
-140,113,0,0,0,0,0,0,0,0,0,-1,1084,911,0,0
-133,113,0,0,0,0,0,0,0,0,0,-1,1091,911,0,0
-126,113,0,0,0,0,0,0,0,0,0,-1,1098,911,0,0
-119,113,0,0,0,0,0,0,0,0,0,-1,1105,911,0,0
-112,113,0,0,0,0,0,0,0,0,0,-1,1112,911,0,0
-105,113,0,0,0,0,0,0,0,0,0,-1,1119,911,0,0
-98,113,0,0,0,0,0,0,0,0,0,-1,1126,911,0,0
-91,113,0,0,0,0,0,0,0,0,0,-1,1133,911,0,0
-84,113,0,0,0,0,0,0,0,0,0,-1,1140,911,0,0
-77,113,0,0,0,0,0,0,0,0,0,-1,1147,911,0,0
-70,113,0,0,0,0,0,0,0,0,0,-1,1154,911,0,0
-63,113,0,0,0,0,0,0,0,0,0,-1,1161,911,0,0
-56,113,0,0,0,0,0,0,0,0,0,-1,1168,911,0,0
-49,113,0,0,0,0,0,0,0,0,0,-1,1175,911,0,0
-42,113,0,0,0,0,0,0,0,0,0,-1,1182,911,0,0
-35,113,0,0,0,0,0,0,0,0,0,-1,1189,911,0,0
-28,113,0,0,0,0,0,0,0,0,0,-1,1196,911,0,0
-21,113,0,0,0,0,0,0,0,0,0,-1,1203,911,0,0
-14,113,0,0,0,0,0,0,0,0,0,-1,1210,911,0,0
-7,113,0,0,0,0,0,0,0,0,0,-1,1217,911,0,0
0,113,0,0,0,0,0,0,0,0,0,-1,1224,911,0,0
7,113,0,0,0,0,0,0,0,0,0,-1,1231,911,0,0
14,113,0,0,0,0,0,0,0,0,0,-1,1238,911,0,0
21,113,0,0,0,0,0,0,0,0,0,-1,1245,911,0,0
28,113,0,0,0,0,0,0,0,0,0,-1,1252,911,0,0
35,113,0,0,0,0,0,0,0,0,0,-1,1259,911,0,0
42,113,0,0,0,0,0,0,0,0,0,-1,1266,911,0,0
49,113,0,0,0,0,0,0,0,0,0,-1,1273,911,0,0
56,113,0,0,0,0,0,0,0,0,0,-1,1280,911,0,0
63,113,0,0,0,0,0,0,0,0,0,-1,1287,911,0,0
70,113,0,0,0,0,0,0,0,0,0,-1,1294,911,0,0
77,113,0,0,0,0,0,0,0,0,0,-1,1301,911,0,0
84,113,0,0,0,0,0,0,0,0,0,-1,1308,911,0,0
91,113,0,0,0,0,0,0,0,0,0,-1,1315,911,0,0
98,113,0,0,0,0,0,0,0,0,0,-1,1322,911,0,0
105,113,0,0,0,0,0,0,0,0,0,-1,1329,911,0,0
112,113,0,0,0,0,0,0,0,0,0,-1,1336,911,0,0
119,113,0,0,0,0,0,0,0,0,0,-1,1343,911,0,0
126,113,0,0,0,0,0,0,0,0,0,-1,1350,911,0,0
133,113,0,0,0,0,0,0,0,0,0,-1,1357,911,0,0
140,113,0,0,0,0,0,0,0,0,0,-1,1364,911,0,0
147,113,0,0,0,0,0,0,0,0,0,-1,1371,911,0,0
154,113,0,0,0,0,0,0,0,0,0,-1,1378,911,0,0
161,113,0,0,0,0,0,0,0,0,0,-1,1385,911,0,0
168,113,0,0,0,0,0,0,0,0,0,-1,1392,911,0,0
175,113,0,0,0,0,0,0,0,0,0,-1,1399,911,0,0
182,113,0,0,0,0,0,0,0,0,0,-1,1406,911,0,0
189,113,0,0,0,0,0,0,0,0,0,-1,1413,911,0,0
196,113,0,0,0,0,0,0,0,0,0,-1,1420,911,0,0
203,113,0,0,0,0,0,0,0,0,0,-1,1427,911,0,0
210,113,0,0,0,0,0,0,0,0,0,-1,1434,911,0,0
217,113,0,0,0,0,0,0,0,0,0,-1,1441,911,0,0
224,113,0,0,0,0,0,0,0,0,0,-1,1448,911,0,0
231,113,0,0,0,0,0,0,0,0,0,-1,1455,911,0,0
238,113,0,0,0,0,0,0,0,0,0,-1,1462,911,0,0
245,113,0,0,0,0,0,0,0,0,0,-1,1469,911,0,0
252,113,0,0,0,0,0,0,0,0,0,-1,1476,911,0,0
259,113,0,0,0,0,0,0,0,0,0,-1,1483,911,0,0
266,113,0,0,0,0,0,0,0,0,0,-1,1490,911,0,0
273,113,0,0,0,0,0,0,0,0,0,-1,1497,911,0,0
280,113,0,0,0,0,0,0,0,0,0,-1,1504,911,0,0
287,113,0,0,0,0,0,0,0,0,0,-1,1511,911,0,0
294,113,0,0,0,0,0,0,0,0,0,-1,1518,911,0,0
301,113,0,0,0,0,0,0,0,0,0,-1,1525,911,0,0
308,113,0,0,0,0,0,0,0,0,0,-1,1532,911,0,0
315,113,0,0,0,0,0,0,0,0,0,-1,1539,911,0,0
322,113,0,0,0,0,0,0,0,0,0,-1,1546,911,0,0
329,113,0,0,0,0,0,0,0,0,0,-1,1553,911,0,0
336,113,0,0,0,0,0,0,0,0,0,-1,1560,911,0,0
343,113,0,0,0,0,0,0,0,0,0,-1,1567,911,0,0
350,113,0,0,0,0,0,0,0,0,0,-1,1574,911,0,0
357,113,0,0,0,0,0,0,0,0,0,-1,1581,911,0,0
364,113,0,0,0,0,0,0,0,0,0,-1,1588,911,0,0
371,113,0,0,0,0,0,0,0,0,0,-1,1595,911,0,0
378,113,0,0,0,0,0,0,0,0,0,-1,1602,911,0,0
385,113,0,0,0,0,0,0,0,0,0,-1,1609,911,0,0
392,113,0,0,0,0,0,0,0,0,0,-1,1616,911,0,0
399,113,0,0,0,0,0,0,0,0,0,-1,1623,911,0,0
406,113,0,0,0,0,0,0,0,0,0,-1,1630,911,0,0
413,113,0,0,0,0,0,0,0,0,0,-1,1637,911,0,0
420,113,0,0,0,0,0,0,0,0,0,-1,1644,911,0,0
427,113,0,0,0,0,0,0,0,0,0,-1,1651,911,0,0
434,113,0,0,0,0,0,0,0,0,0,-1,1658,911,0,0
441,113,0,0,0,0,0,0,0,0,0,-1,1665,911,0,0
448,113,0,0,0,0,0,0,0,0,0,-1,1672,911,0,0
455,113,0,0,0,0,0,0,0,0,0,-1,1679,911,0,0
462,113,0,0,0,0,0,0,0,0,0,-1,1686,911,0,0
469,113,0,0,0,0,0,0,0,0,0,-1,1693,911,0,0
476,113,0,0,0,0,0,0,0,0,0,-1,1700,911,0,0
483,113,0,0,0,0,0,0,0,0,0,-1,1707,911,0,0
490,113,0,0,0,0,0,0,0,0,0,-1,1714,911,0,0
497,113,0,0,0,0,0,0,0,0,0,-1,1721,911,0,0
504,113,0,0,0,0,0,0,0,0,0,-1,1728,911,0,0
511,113,0,0,0,0,0,0,0,0,0,-1,1735,911,0,0
518,113,0,0,0,0,0,0,0,0,0,-1,1742,911,0,0
525,113,0,0,0,0,0,0,0,0,0,-1,1749,911,0,0
532,113,0,0,0,0,0,0,0,0,0,-1,1756,911,0,0
539,113,0,0,0,0,0,0,0,0,0,-1,1763,911,0,0
546,113,0,0,0,0,0,0,0,0,0,-1,1770,911,0,0
553,113,0,0,0,0,0,0,0,0,0,-1,1777,911,0,0
560,113,0,0,0,0,0,0,0,0,0,-1,1784,911,0,0
567,113,0,0,0,0,0,0,0,0,0,-1,1791,911,0,0
574,113,0,0,0,0,0,0,0,0,0,-1,1798,911,0,0
581,113,0,0,0,0,0,0,0,0,0,-1,1805,911,0,0
588,113,0,0,0,0,0,0,0,0,0,-1,1812,911,0,0
595,113,0,0,0,0,0,0,0,0,0,-1,1819,911,0,0
602,113,0,0,0,0,0,0,0,0,0,-1,1826,911,0,0
609,113,0,0,0,0,0,0,0,0,0,-1,1833,911,0,0
616,113,0,0,0,0,0,0,0,0,0,-1,1840,911,0,0
623,113,0,0,0,0,0,0,0,0,0,-1,1847,911,0,0
630,113,22.7969,2.92401,-0.00303362,0.00230395,-0.000293,0.00231999,-0.00304965,-1.51612,0.00310969,0.0393154,1854,911,22.7969,-2.924
637,113,22.8322,3.12262,-0.00128923,0.00230678,-0.000486034,0.00237132,-0.00135377,-1.43879,0.00217726,0.0384244,1861,911,22.8321,-3.12261
644,113,22.8354,2.98022,-0.000593536,0.00214194,-0.000669676,0.00229709,-0.000748681,-1.34314,0.00183266,0.0386579,1868,911,22.8355,-2.98022
651,113,22.7952,2.72546,0,0,0,0,0,0,0,-1,1875,911,22.7951,-2.72549
658,113,22.7363,2.59003,-0.00160932,0.00178832,-0.000901481,0.00201269,-0.00183369,-1.32686,0.00222151,0.0428628,1882,911,22.7363,-2.59004
665,113,22.7788,2.77209,-0.00269101,0.00155195,-0.000978147,0.00176659,-0.00290565,-1.35479,0.00272411,0.038098,1889,911,22.7788,-2.77212
672,113,22.7762,2.75665,-0.00366752,0.00131716,-0.00098621,0.00150519,-0.00385555,-1.3824,0.00319264,0.0369142,1896,911,22.7763,-2.75667
679,113,22.7755,2.68298,-0.00444032,0.00101589,-0.00096193,0.00118051,-0.00460494,-1.4013,0.00352989,0.031474,1903,911,22.7756,-2.68299
686,113,22.7903,2.68298,-0.005013,0.000809875,-0.000955969,0.000962805,-0.00516593,-1.41217,0.00380571,0.0269705,1910,911,22.7903,-2.68298
693,113,22.8505,2.61359,-0.0053805,0.000640705,-0.000861914,0.000761655,-0.00550145,-1.43138,0.0039461,0.0385336,1917,911,22.8505,-2.61358
700,113,21.4961,2.97394,-0.00551471,0.000480876,-0.000787256,0.000582523,-0.00561636,-1.44239,0.00395275,0.0476326,1924,911,21.496,-2.97391
707,113,20.5459,3.26624,0,0,0,0,0,0,0,-1,1931,911,20.5458,-3.26626
714,113,20.5283,3.36279,-0.00509911,0.000377581,-0.000894889,0.000520096,-0.00524163,-1.41287,0.00368006,0.0175031,1938,911,20.5283,-3.36277
721,113,20.5161,3.54602,-0.00423494,0.000306914,-0.00072109,0.00041865,-0.00434668,-1.41707,0.00304694,0.0164152,1945,911,20.5161,-3.54602
728,113,20.5315,3.78247,-0.0029378,0.000484161,-0.000720954,0.000629852,-0.00308349,-1.3714,0.00229461,0.0163255,1952,911,20.5315,-3.78245
735,113,20.5276,3.95593,-0.00158423,0.000607261,-0.00103482,0.00101867,-0.00199563,-1.19239,0.00177051,0.0149484,1959,911,20.5276,-3.95592
742,113,20.5117,4.10046,-0.000220125,0.00158167,-0.00095845,0.00199616,-0.000634614,-1.16263,0.00158523,0.0117395,1966,911,20.5117,-4.10046
749,113,20.5283,4.25714,0.000682232,0.00215282,-0.00131899,0.00292763,-9.25717e-05,-1.03968,0.00198333,0.00951215,1973,911,20.5284,-4.25716
756,113,20.5326,4.40271,0.00187062,0.00303251,-0.00146901,0.00403127,0.000871851,-0.973695,0.00244918,0.0109727,1980,911,20.5326,-4.40273
763,113,20.4658,4.56488,0.00212502,0.00422357,-0.00171408,0.00518403,0.00116456,-1.06005,0.00314065,0.0192633,1987,911,20.4658,-4.56489
770,113,20.41,4.75293,0.00178362,0.00562241,-0.00190362,0.00640632,0.000999716,-1.18016,0.00397972,0.0407904,1994,911,20.41,-4.75295
777,113,20.384,4.99475,0.000732881,0.00727232,-0.00205115,0.00786242,0.000142772,-1.29066,0.00519468,0.0497716,2001,911,20.3841,-4.99474
784,113,20.1885,5.28094,0,0,0,0,0,0,0,-1,2008,911,20.1885,-5.28096
791,113,19.9257,4.78143,-0.00512739,0.0116212,-0.00226482,0.011922,-0.00542825,-1.43873,0.0102484,0.0421956,2015,911,19.9257,-4.78145
798,113,19.1171,4.20062,-0.0112078,0.0145287,-0.00241894,0.0147541,-0.0114332,-1.47789,0.0151597,0.0427151,2022,911,19.1171,-4.20065
805,113,0,0,0,0,0,0,0,0,0,-1,2029,911,0,0
812,113,0,0,0,0,0,0,0,0,0,-1,2036,911,0,0
-700,106,0,0,0,0,0,0,0,0,0,-1,524,918,0,0
-693,106,0,0,0,0,0,0,0,0,0,-1,531,918,0,0
-686,106,0,0,0,0,0,0,0,0,0,-1,538,918,0,0
-679,106,-14.227,1.35931,0,0,0,0,0,0,0,-1,545,918,-14.227,-1.35932
-672,106,-12.0717,0.296326,0,0,0,0,0,0,0,-1,552,918,-12.0716,-0.296342
-665,106,-12.3255,0.822998,0,0,0,0,0,0,0,-1,559,918,-12.3255,-0.822988
-658,106,-12.5596,1.31903,0,0,0,0,0,0,0,-1,566,918,-12.5596,-1.31903
-651,106,-13.3393,1.98059,-0.0086279,0.0393119,0.0438829,0.0653446,-0.0346606,1.03537,0.058637,0.0444048,573,918,-13.3393,-1.9806
-644,106,-13.4758,1.97168,-0.00966916,0.0291319,0.0330269,0.0480349,-0.0285721,1.05096,0.0447023,0.0397911,580,918,-13.4759,-1.9717
-637,106,-13.8716,2.16016,-0.00953893,0.0208811,0.0241085,0.0341766,-0.0228344,1.06681,0.0331318,0.0265139,587,918,-13.8717,-2.16014
-630,106,-13.9046,2.10297,-0.00880654,0.0147197,0.0170741,0.0236905,-0.0177773,1.08703,0.0240225,0.0112418,594,918,-13.9046,-2.10296
-623,106,-13.9392,1.93866,-0.0081352,0.0102286,0.0117076,0.0159254,-0.013832,1.11794,0.0171946,0.00959515,601,918,-13.9392,-1.93866
-616,106,-13.9348,1.79236,-0.00779074,0.00539778,0.00683593,0.00830163,-0.0106946,1.1691,0.0109964,0.00983738,608,918,-13.9348,-1.79237
-609,106,-13.9374,1.66815,-0.00705103,0.00210847,0.00332131,0.00318603,-0.0081286,1.25707,0.00673706,0.0107757,615,918,-13.9374,-1.66815
-602,106,-13.953,1.53656,-0.00646517,0.000824041,0.00140318,0.00108482,-0.00672596,1.38704,0.00488589,0.0129023,622,918,-13.953,-1.53655
-595,106,-14.0002,1.39929,-0.00607806,0.000499666,0.000557598,0.000546599,-0.00612499,1.48682,0.00427719,0.0157191,629,918,-14.0002,-1.39926
-588,106,-13.9673,1.2301,-0.00577614,0.000125062,5.91499e-05,0.000125655,-0.00577674,1.56077,0.00389372,0.0175408,636,918,-13.9673,-1.23009
-581,106,-13.8754,1.07227,-0.00584364,0.000215108,-0.000223888,0.00022337,-0.0058519,-1.53391,0.00397781,0.0150042,643,918,-13.8755,-1.07228
-574,106,-13.9108,0.932495,-0.00587625,0.000215469,-0.000282139,0.000228509,-0.00588929,-1.52461,0.00400454,0.0238378,650,918,-13.9108,-0.932491
-567,106,-14.597,0.849243,-0.0054921,0.000603602,-0.0004127,0.000631417,-0.00551991,-1.5035,0.00390746,0.0423906,657,918,-14.597,-0.849243
-560,106,-15.4257,0.788086,0,0,0,0,0,0,0,-1,664,918,-15.4257,-0.788089
-553,106,-15.433,0.867737,-0.00390063,0.000875261,-0.000532888,0.000933998,-0.00395937,-1.46102,0.00299978,0.0356381,671,918,-15.433,-0.867712
-546,106,-15.4201,0.685059,-0.00261913,0.00121999,-0.000503701,0.00128497,-0.00268412,-1.44249,0.00233853,0.0380283,678,918,-15.4201,-0.685075
-539,106,-15.295,0.662781,-0.000811625,0.0015592,-0.000425525,0.00163326,-0.000885686,-1.39848,0.00147551,0.0417579,685,918,-15.295,-0.662805
-532,106,-15.0692,0.703857,0,0,0,0,0,0,0,-1,692,918,-15.0692,-0.703858
-525,106,-15.3739,0.539429,0.0047109,0.00181127,-0.000319661,0.00474573,0.00177644,-0.108506,0.00276865,0.0395011,699,918,-15.3739,-0.539444
-518,106,-15.417,0.639648,0.00792378,0.00133825,-0.000469082,0.00795703,0.00130501,-0.0707532,0.00492762,0.038858,706,918,-15.417,-0.639628
-511,106,0,0,0,0,0,0,0,0,0,-1,713,918,0,0
-504,106,0,0,0,0,0,0,0,0,0,-1,720,918,0,0
-497,106,0,0,0,0,0,0,0,0,0,-1,727,918,0,0
-490,106,0,0,0,0,0,0,0,0,0,-1,734,918,0,0
-483,106,0,0,0,0,0,0,0,0,0,-1,741,918,0,0
-476,106,0,0,0,0,0,0,0,0,0,-1,748,918,0,0
-469,106,0,0,0,0,0,0,0,0,0,-1,755,918,0,0
-462,106,0,0,0,0,0,0,0,0,0,-1,762,918,0,0
-455,106,0,0,0,0,0,0,0,0,0,-1,769,918,0,0
-448,106,0,0,0,0,0,0,0,0,0,-1,776,918,0,0
-441,106,0,0,0,0,0,0,0,0,0,-1,783,918,0,0
-434,106,0,0,0,0,0,0,0,0,0,-1,790,918,0,0
-427,106,0,0,0,0,0,0,0,0,0,-1,797,918,0,0
-420,106,0,0,0,0,0,0,0,0,0,-1,804,918,0,0
-413,106,0,0,0,0,0,0,0,0,0,-1,811,918,0,0
-406,106,0,0,0,0,0,0,0,0,0,-1,818,918,0,0
-399,106,0,0,0,0,0,0,0,0,0,-1,825,918,0,0
-392,106,0,0,0,0,0,0,0,0,0,-1,832,918,0,0
-385,106,0,0,0,0,0,0,0,0,0,-1,839,918,0,0
-378,106,0,0,0,0,0,0,0,0,0,-1,846,918,0,0
-371,106,0,0,0,0,0,0,0,0,0,-1,853,918,0,0
-364,106,0,0,0,0,0,0,0,0,0,-1,860,918,0,0
-357,106,0,0,0,0,0,0,0,0,0,-1,867,918,0,0
-350,106,0,0,0,0,0,0,0,0,0,-1,874,918,0,0
-343,106,0,0,0,0,0,0,0,0,0,-1,881,918,0,0
-336,106,0,0,0,0,0,0,0,0,0,-1,888,918,0,0
-329,106,0,0,0,0,0,0,0,0,0,-1,895,918,0,0
-322,106,0,0,0,0,0,0,0,0,0,-1,902,918,0,0
-315,106,0,0,0,0,0,0,0,0,0,-1,909,918,0,0
-308,106,0,0,0,0,0,0,0,0,0,-1,916,918,0,0
-301,106,0,0,0,0,0,0,0,0,0,-1,923,918,0,0
-294,106,0,0,0,0,0,0,0,0,0,-1,930,918,0,0
-287,106,0,0,0,0,0,0,0,0,0,-1,937,918,0,0
-280,106,0,0,0,0,0,0,0,0,0,-1,944,918,0,0
-273,106,0,0,0,0,0,0,0,0,0,-1,951,918,0,0
-266,106,0,0,0,0,0,0,0,0,0,-1,958,918,0,0
-259,106,0,0,0,0,0,0,0,0,0,-1,965,918,0,0
-252,106,0,0,0,0,0,0,0,0,0,-1,972,918,0,0
-245,106,0,0,0,0,0,0,0,0,0,-1,979,918,0,0
-238,106,0,0,0,0,0,0,0,0,0,-1,986,918,0,0
-231,106,0,0,0,0,0,0,0,0,0,-1,993,918,0,0
-224,106,0,0,0,0,0,0,0,0,0,-1,1000,918,0,0
-217,106,0,0,0,0,0,0,0,0,0,-1,1007,918,0,0
-210,106,0,0,0,0,0,0,0,0,0,-1,1014,918,0,0
-203,106,0,0,0,0,0,0,0,0,0,-1,1021,918,0,0
-196,106,0,0,0,0,0,0,0,0,0,-1,1028,918,0,0
-189,106,0,0,0,0,0,0,0,0,0,-1,1035,918,0,0
-182,106,0,0,0,0,0,0,0,0,0,-1,1042,918,0,0
-175,106,0,0,0,0,0,0,0,0,0,-1,1049,918,0,0
-168,106,0,0,0,0,0,0,0,0,0,-1,1056,918,0,0
-161,106,0,0,0,0,0,0,0,0,0,-1,1063,918,0,0
-154,106,0,0,0,0,0,0,0,0,0,-1,1070,918,0,0
-147,106,0,0,0,0,0,0,0,0,0,-1,1077,918,0,0
-140,106,0,0,0,0,0,0,0,0,0,-1,1084,918,0,0
-133,106,0,0,0,0,0,0,0,0,0,-1,1091,918,0,0
-126,106,0,0,0,0,0,0,0,0,0,-1,1098,918,0,0
-119,106,0,0,0,0,0,0,0,0,0,-1,1105,918,0,0
-112,106,0,0,0,0,0,0,0,0,0,-1,1112,918,0,0
-105,106,0,0,0,0,0,0,0,0,0,-1,1119,918,0,0
-98,106,0,0,0,0,0,0,0,0,0,-1,1126,918,0,0
-91,106,0,0,0,0,0,0,0,0,0,-1,1133,918,0,0
-84,106,0,0,0,0,0,0,0,0,0,-1,1140,918,0,0
-77,106,0,0,0,0,0,0,0,0,0,-1,1147,918,0,0
-70,106,0,0,0,0,0,0,0,0,0,-1,1154,918,0,0
-63,106,0,0,0,0,0,0,0,0,0,-1,1161,918,0,0
-56,106,0,0,0,0,0,0,0,0,0,-1,1168,918,0,0
-49,106,0,0,0,0,0,0,0,0,0,-1,1175,918,0,0
-42,106,0,0,0,0,0,0,0,0,0,-1,1182,918,0,0
-35,106,0,0,0,0,0,0,0,0,0,-1,1189,918,0,0
-28,106,0,0,0,0,0,0,0,0,0,-1,1196,918,0,0
-21,106,0,0,0,0,0,0,0,0,0,-1,1203,918,0,0
-14,106,0,0,0,0,0,0,0,0,0,-1,1210,918,0,0
-7,106,0,0,0,0,0,0,0,0,0,-1,1217,918,0,0
0,106,0,0,0,0,0,0,0,0,0,-1,1224,918,0,0
7,106,0,0,0,0,0,0,0,0,0,-1,1231,918,0,0
14,106,0,0,0,0,0,0,0,0,0,-1,1238,918,0,0
21,106,0,0,0,0,0,0,0,0,0,-1,1245,918,0,0
28,106,0,0,0,0,0,0,0,0,0,-1,1252,918,0,0
35,106,0,0,0,0,0,0,0,0,0,-1,1259,918,0,0
42,106,0,0,0,0,0,0,0,0,0,-1,1266,918,0,0
49,106,0,0,0,0,0,0,0,0,0,-1,1273,918,0,0
56,106,0,0,0,0,0,0,0,0,0,-1,1280,918,0,0
63,106,0,0,0,0,0,0,0,0,0,-1,1287,918,0,0
70,106,0,0,0,0,0,0,0,0,0,-1,1294,918,0,0
77,106,0,0,0,0,0,0,0,0,0,-1,1301,918,0,0
84,106,0,0,0,0,0,0,0,0,0,-1,1308,918,0,0
91,106,0,0,0,0,0,0,0,0,0,-1,1315,918,0,0
98,106,0,0,0,0,0,0,0,0,0,-1,1322,918,0,0
105,106,0,0,0,0,0,0,0,0,0,-1,1329,918,0,0
112,106,0,0,0,0,0,0,0,0,0,-1,1336,918,0,0
119,106,0,0,0,0,0,0,0,0,0,-1,1343,918,0,0
126,106,0,0,0,0,0,0,0,0,0,-1,1350,918,0,0
133,106,0,0,0,0,0,0,0,0,0,-1,1357,918,0,0
140,106,0,0,0,0,0,0,0,0,0,-1,1364,918,0,0
147,106,0,0,0,0,0,0,0,0,0,-1,1371,918,0,0
154,106,0,0,0,0,0,0,0,0,0,-1,1378,918,0,0
161,106,0,0,0,0,0,0,0,0,0,-1,1385,918,0,0
168,106,0,0,0,0,0,0,0,0,0,-1,1392,918,0,0
175,106,0,0,0,0,0,0,0,0,0,-1,1399,918,0,0
182,106,0,0,0,0,0,0,0,0,0,-1,1406,918,0,0
189,106,0,0,0,0,0,0,0,0,0,-1,1413,918,0,0
196,106,0,0,0,0,0,0,0,0,0,-1,1420,918,0,0
203,106,0,0,0,0,0,0,0,0,0,-1,1427,918,0,0
210,106,0,0,0,0,0,0,0,0,0,-1,1434,918,0,0
217,106,0,0,0,0,0,0,0,0,0,-1,1441,918,0,0
224,106,0,0,0,0,0,0,0,0,0,-1,1448,918,0,0
231,106,0,0,0,0,0,0,0,0,0,-1,1455,918,0,0
238,106,0,0,0,0,0,0,0,0,0,-1,1462,918,0,0
245,106,0,0,0,0,0,0,0,0,0,-1,1469,918,0,0
252,106,0,0,0,0,0,0,0,0,0,-1,1476,918,0,0
259,106,0,0,0,0,0,0,0,0,0,-1,1483,918,0,0
266,106,0,0,0,0,0,0,0,0,0,-1,1490,918,0,0
273,106,0,0,0,0,0,0,0,0,0,-1,1497,918,0,0
280,106,0,0,0,0,0,0,0,0,0,-1,1504,918,0,0
287,106,0,0,0,0,0,0,0,0,0,-1,1511,918,0,0
294,106,0,0,0,0,0,0,0,0,0,-1,1518,918,0,0
301,106,0,0,0,0,0,0,0,0,0,-1,1525,918,0,0
308,106,0,0,0,0,0,0,0,0,0,-1,1532,918,0,0
315,106,0,0,0,0,0,0,0,0,0,-1,1539,918,0,0
322,106,0,0,0,0,0,0,0,0,0,-1,1546,918,0,0
329,106,0,0,0,0,0,0,0,0,0,-1,1553,918,0,0
336,106,0,0,0,0,0,0,0,0,0,-1,1560,918,0,0
343,106,0,0,0,0,0,0,0,0,0,-1,1567,918,0,0
350,106,0,0,0,0,0,0,0,0,0,-1,1574,918,0,0
357,106,0,0,0,0,0,0,0,0,0,-1,1581,918,0,0
364,106,0,0,0,0,0,0,0,0,0,-1,1588,918,0,0
371,106,0,0,0,0,0,0,0,0,0,-1,1595,918,0,0
378,106,0,0,0,0,0,0,0,0,0,-1,1602,918,0,0
385,106,0,0,0,0,0,0,0,0,0,-1,1609,918,0,0
392,106,0,0,0,0,0,0,0,0,0,-1,1616,918,0,0
399,106,0,0,0,0,0,0,0,0,0,-1,1623,918,0,0
406,106,0,0,0,0,0,0,0,0,0,-1,1630,918,0,0
413,106,0,0,0,0,0,0,0,0,0,-1,1637,918,0,0
420,106,0,0,0,0,0,0,0,0,0,-1,1644,918,0,0
427,106,0,0,0,0,0,0,0,0,0,-1,1651,918,0,0
434,106,0,0,0,0,0,0,0,0,0,-1,1658,918,0,0
441,106,0,0,0,0,0,0,0,0,0,-1,1665,918,0,0
448,106,0,0,0,0,0,0,0,0,0,-1,1672,918,0,0
455,106,0,0,0,0,0,0,0,0,0,-1,1679,918,0,0
462,106,0,0,0,0,0,0,0,0,0,-1,1686,918,0,0
469,106,0,0,0,0,0,0,0,0,0,-1,1693,918,0,0
476,106,0,0,0,0,0,0,0,0,0,-1,1700,918,0,0
483,106,0,0,0,0,0,0,0,0,0,-1,1707,918,0,0
490,106,0,0,0,0,0,0,0,0,0,-1,1714,918,0,0
497,106,0,0,0,0,0,0,0,0,0,-1,1721,918,0,0
504,106,0,0,0,0,0,0,0,0,0,-1,1728,918,0,0
511,106,0,0,0,0,0,0,0,0,0,-1,1735,918,0,0
518,106,0,0,0,0,0,0,0,0,0,-1,1742,918,0,0
525,106,0,0,0,0,0,0,0,0,0,-1,1749,918,0,0
532,106,0,0,0,0,0,0,0,0,0,-1,1756,918,0,0
539,106,0,0,0,0,0,0,0,0,0,-1,1763,918,0,0
546,106,0,0,0,0,0,0,0,0,0,-1,1770,918,0,0
553,106,0,0,0,0,0,0,0,0,0,-1,1777,918,0,0
560,106,0,0,0,0,0,0,0,0,0,-1,1784,918,0,0
567,106,0,0,0,0,0,0,0,0,0,-1,1791,918,0,0
574,106,0,0,0,0,0,0,0,0,0,-1,1798,918,0,0
581,106,0,0,0,0,0,0,0,0,0,-1,1805,918,0,0
588,106,0,0,0,0,0,0,0,0,0,-1,1812,918,0,0
595,106,0,0,0,0,0,0,0,0,0,-1,1819,918,0,0
602,106,0,0,0,0,0,0,0,0,0,-1,1826,918,0,0
609,106,0,0,0,0,0,0,0,0,0,-1,1833,918,0,0
616,106,0,0,0,0,0,0,0,0,0,-1,1840,918,0,0
623,106,0,0,0,0,0,0,0,0,0,-1,1847,918,0,0
630,106,22.9261,2.86285,-0.0026769,0.00274351,-0.000703408,0.0028333,-0.00276669,-1.44383,0.00323324,0.0429319,1854,918,22.9262,-2.86287
637,106,22.9109,3.01697,-0.00102306,0.00277126,-0.000821721,0.00294158,-0.00119337,-1.36643,0.00245741,0.0396716,1861,918,22.9108,-3.01698
644,106,22.8966,2.80664,-0.000360093,0.00267688,-0.000962163,0.00295605,-0.000639261,-1.2884,0.00221476,0.0366474,1868,918,22.8966,-2.80666
651,106,22.9149,2.72986,0,0,0,0,0,0,0,-1,1875,918,22.9149,-2.72986
658,106,23.0057,2.31268,-0.00134285,0.0024154,-0.00106268,0.00269507,-0.00162252,-1.31346,0.00251827,0.0404179,1882,918,23.0058,-2.31269
665,106,22.8771,2.5033,-0.00251489,0.00220984,-0.00107491,0.00244289,-0.00274794,-1.35729,0.00299865,0.0411367,1889,918,22.877,-2.50331
672,106,22.8024,2.67926,-0.00359002,0.00195832,-0.00101448,0.00213799,-0.00376969,-1.39551,0.0034539,0.0395442,1896,918,22.8024,-2.67925
679,106,22.8082,2.74628,-0.00443709,0.00162005,-0.00092088,0.00175696,-0.004574,-1.42321,0.00377387,0.0335363,1903,918,22.8082,-2.7463
686,106,22.7751,2.73694,-0.00503304,0.0013576,-0.000867359,0.00147323,-0.00514867,-1.43827,0.00401466,0.0324425,1910,918,22.7752,-2.73693
693,106,22.8348,2.55487,-0.00537408,0.00113188,-0.000725406,0.00121179,-0.00545398,-1.46109,0.00410005,0.0272547,1917,918,22.8348,-2.55485
700,106,23.0146,2.23462,0,0,0,0,0,0,0,-1,1924,918,23.0147,-2.23462
707,106,20.6399,3.22577,0,0,0,0,0,0,0,-1,1931,918,20.6399,-3.22578
714,106,20.7069,3.38184,-0.00511853,0.000768459,-0.000692532,0.00084883,-0.00519891,-1.45526,0.00378078,0.0184053,1938,918,20.7069,-3.38186
721,106,20.7069,3.55737,-0.00437183,0.000581153,-0.000507201,0.000632558,-0.00442324,-1.46979,0.00318072,0.0174759,1945,918,20.7069,-3.55738
728,106,20.7229,3.76996,-0.00336636,0.000727965,-0.000506198,0.000789619,-0.00342801,-1.44959,0.002589,0.0164398,1952,918,20.7229,-3.76999
735,106,20.7194,3.93628,-0.00235866,0.00084913,-0.000839992,0.00105578,-0.00256531,-1.32957,0.00215034,0.0149561,1959,918,20.7193,-3.9363
742,106,20.6986,4.08441,-0.0011746,0.00166648,-0.000830574,0.00189148,-0.00139959,-1.30625,0.00190716,0.0104252,1966,918,20.6986,-4.08442
749,106,20.6998,4.23901,-0.000466608,0.00212074,-0.00124076,0.00261957,-0.000965438,-1.18854,0.00214199,0.00865545,1973,918,20.6999,-4.23904
756,106,20.6934,4.38116,0.000410725,0.00289102,-0.00138976,0.0035135,-0.000211758,-1.14968,0.00241601,0.00962113,1980,918,20.6934,-4.38114
763,106,20.6628,4.55725,0.000365165,0.00390175,-0.0016562,0.00455623,-0.000289318,-1.19446,0.00313838,0.0163985,1987,918,20.6629,-4.55723
770,106,20.6433,4.83466,-0.00018685,0.00504013,-0.00182704,0.00561543,-0.000762153,-1.26574,0.00402182,0.0355082,1994,918,20.6434,-4.83463
777,106,20.5791,5.18518,-0.00125277,0.00626136,-0.00194388,0.00673445,-0.00172586,-1.33206,0.005162,0.0443927,2001,918,20.5791,-5.18515
784,106,20.0454,5.25067,0,0,0,0,0,0,0,-1,2008,918,20.0454,-5.25065
791,106,19.58,4.98389,0,0,0,0,0,0,0,-1,2015,918,19.58,-4.98391
798,106,19.1414,4.77557,0,0,0,0,0,0,0,-1,2022,918,19.1413,-4.77558
805,106,0,0,0,0,0,0,0,0,0,-1,2029,918,0,0
812,106,0,0,0,0,0,0,0,0,0,-1,2036,918,0,0
-700,99,0,0,0,0,0,0,0,0,0,-1,524,925,0,0
-693,99,0,0,0,0,0,0,0,0,0,-1,531,925,0,0
-686,99,0,0,0,0,0,0,0,0,0,-1,538,925,0,0
-679,99,-11.6057,-0.280945,0,0,0,0,0,0,0,-1,545,925,-11.6057,0.280918
-672,99,-12.0717,0.11377,0,0,0,0,0,0,0,-1,552,925,-12.0716,-0.113742
-665,99,-12.3527,0.572754,0.00109127,0.0458989,0.0650698,0.0923137,-0.0453236,0.951194,0.0809939,0.0482627,559,925,-12.3527,-0.572771
-658,99,-12.6357,1.03485,-0.00468361,0.0367686,0.0522368,0.0722409,-0.0401559,0.974258,0.0657677,0.0435743,566,925,-12.6357,-1.03485
-651,99,-12.8144,1.28833,-0.00788319,0.028537,0.0407777,0.0549859,-0.0343321,0.995397,0.0520253,0.0446922,573,925,-12.8144,-1.28836
-644,99,-13.2903,1.71454,-0.00921565,0.021466,0.0309268,0.0406478,-0.0283974,1.01563,0.0400718,0.0422412,580,925,-13.2903,-1.71451
-637,99,-13.9652,2.14612,-0.00930262,0.0157394,0.02281,0.0292389,-0.0228022,1.03641,0.0301225,0.0280261,587,925,-13.9652,-2.14613
-630,99,-14.039,2.09753,-0.00876891,0.0114858,0.0163028,0.0205508,-0.0178339,1.06333,0.0221799,0.0125817,594,925,-14.039,-2.09754
-623,99,-14.0947,1.94983,-0.00829415,0.00828886,0.0112592,0.0139802,-0.0139855,1.10277,0.016146,0.00713515,601,925,-14.0947,-1.94982
-616,99,-14.1029,1.80817,-0.00817027,0.00434756,0.00657545,0.00716667,-0.0109894,1.16577,0.0105596,0.00819136,608,925,-14.1029,-1.80819
-609,99,-14.102,1.67133,-0.0074956,0.0017911,0.00327925,0.0028323,-0.0085368,1.26335,0.00683383,0.0105132,615,925,-14.102,-1.67136
-602,99,-14.1039,1.55762,-0.00692347,0.000878052,0.00141347,0.00112625,-0.00717167,1.39698,0.00519736,0.0109635,622,925,-14.1039,-1.55759
-595,99,-14.1592,1.42273,-0.00661158,0.000627724,0.000508335,0.000663245,-0.0066471,1.50103,0.00466821,0.0137915,629,925,-14.1592,-1.42276
-588,99,-14.136,1.26367,-0.00641873,0.000287848,-1.20819e-05,0.00028787,-0.00641876,-1.56899,0.00437828,0.0138234,636,925,-14.136,-1.26367
-581,99,-14.0392,1.10052,-0.0065446,0.000391285,-0.00029048,0.000403429,-0.00655674,-1.52901,0.00451165,0.0113579,643,925,-14.0392,-1.10053
-574,99,-14.1677,0.951599,-0.00657538,0.000390504,-0.000374797,0.000410612,-0.00659549,-1.5172,0.00454006,0.0202348,650,925,-14.1677,-0.9516
-567,99,-14.7082,0.733154,-0.00622277,0.000826702,-0.000543147,0.000868304,-0.00626437,-1.49435,0.00449373,0.0444504,657,925,-14.7082,-0.733137
-560,99,-15.1901,0.522949,0,0,0,0,0,0,0,-1,664,925,-15.1901,-0.522964
-553,99,-15.4196,0.793213,-0.00448012,0.0012256,-0.00063266,0.00129491,-0.00454943,-1.46168,0.00354434,0.0366374,671,925,-15.4195,-0.793225
-546,99,-15.4517,0.65686,-0.00297539,0.00164114,-0.000585112,0.00171414,-0.00304839,-1.44667,0.00278539,0.0396664,678,925,-15.4517,-0.656866
-539,99,-15.4215,0.663574,-0.000855694,0.00208011,-0.000477144,0.00215571,-0.000931296,-1.41366,0.00182842,0.0390905,685,925,-15.4215,-0.663571
-532,99,-15.3246,0.931091,0.00196304,0.00247895,-0.000333875,0.00264291,0.00179908,-1.11431,0.00155876,0.0420428,692,925,-15.3246,-0.931119
-525,99,-15.3041,1.13812,0.00548938,0.00273362,-0.000284502,0.00551845,0.00270456,-0.101808,0.00318629,0.0409551,699,925,-15.3041,-1.1381
-518,99,-15.2657,1.06158,0.00878113,0.00270914,-0.000312577,0.00879718,0.00269309,-0.0512977,0.00520476,0.0398958,706,925,-15.2657,-1.06157
-511,99,0,0,0,0,0,0,0,0,0,-1,713,925,0,0
-504,99,0,0,0,0,0,0,0,0,0,-1,720,925,0,0
-497,99,0,0,0,0,0,0,0,0,0,-1,727,925,0,0
-490,99,0,0,0,0,0,0,0,0,0,-1,734,925,0,0
-483,99,0,0,0,0,0,0,0,0,0,-1,741,925,0,0
-476,99,0,0,0,0,0,0,0,0,0,-1,748,925,0,0
-469,99,0,0,0,0,0,0,0,0,0,-1,755,925,0,0
-462,99,0,0,0,0,0,0,0,0,0,-1,762,925,0,0
-455,99,0,0,0,0,0,0,0,0,0,-1,769,925,0,0
-448,99,0,0,0,0,0,0,0,0,0,-1,776,925,0,0
-441,99,0,0,0,0,0,0,0,0,0,-1,783,925,0,0
-434,99,0,0,0,0,0,0,0,0,0,-1,790,925,0,0
-427,99,0,0,0,0,0,0,0,0,0,-1,797,925,0,0
-420,99,0,0,0,0,0,0,0,0,0,-1,804,925,0,0
-413,99,0,0,0,0,0,0,0,0,0,-1,811,925,0,0
-406,99,0,0,0,0,0,0,0,0,0,-1,818,925,0,0
-399,99,0,0,0,0,0,0,0,0,0,-1,825,925,0,0
-392,99,0,0,0,0,0,0,0,0,0,-1,832,925,0,0
-385,99,0,0,0,0,0,0,0,0,0,-1,839,925,0,0
-378,99,0,0,0,0,0,0,0,0,0,-1,846,925,0,0
-371,99,0,0,0,0,0,0,0,0,0,-1,853,925,0,0
-364,99,0,0,0,0,0,0,0,0,0,-1,860,925,0,0
-357,99,0,0,0,0,0,0,0,0,0,-1,867,925,0,0
-350,99,0,0,0,0,0,0,0,0,0,-1,874,925,0,0
-343,99,0,0,0,0,0,0,0,0,0,-1,881,925,0,0
-336,99,0,0,0,0,0,0,0,0,0,-1,888,925,0,0
-329,99,0,0,0,0,0,0,0,0,0,-1,895,925,0,0
-322,99,0,0,0,0,0,0,0,0,0,-1,902,925,0,0
-315,99,0,0,0,0,0,0,0,0,0,-1,909,925,0,0
-308,99,0,0,0,0,0,0,0,0,0,-1,916,925,0,0
-301,99,0,0,0,0,0,0,0,0,0,-1,923,925,0,0
-294,99,0,0,0,0,0,0,0,0,0,-1,930,925,0,0
-287,99,0,0,0,0,0,0,0,0,0,-1,937,925,0,0
-280,99,0,0,0,0,0,0,0,0,0,-1,944,925,0,0
-273,99,0,0,0,0,0,0,0,0,0,-1,951,925,0,0
-266,99,0,0,0,0,0,0,0,0,0,-1,958,925,0,0
-259,99,0,0,0,0,0,0,0,0,0,-1,965,925,0,0
-252,99,0,0,0,0,0,0,0,0,0,-1,972,925,0,0
-245,99,0,0,0,0,0,0,0,0,0,-1,979,925,0,0
-238,99,0,0,0,0,0,0,0,0,0,-1,986,925,0,0
-231,99,0,0,0,0,0,0,0,0,0,-1,993,925,0,0
-224,99,0,0,0,0,0,0,0,0,0,-1,1000,925,0,0
-217,99,0,0,0,0,0,0,0,0,0,-1,1007,925,0,0
-210,99,0,0,0,0,0,0,0,0,0,-1,1014,925,0,0
-203,99,0,0,0,0,0,0,0,0,0,-1,1021,925,0,0
-196,99,0,0,0,0,0,0,0,0,0,-1,1028,925,0,0
-189,99,0,0,0,0,0,0,0,0,0,-1,1035,925,0,0
-182,99,0,0,0,0,0,0,0,0,0,-1,1042,925,0,0
-175,99,0,0,0,0,0,0,0,0,0,-1,1049,925,0,0
-168,99,0,0,0,0,0,0,0,0,0,-1,1056,925,0,0
-161,99,0,0,0,0,0,0,0,0,0,-1,1063,925,0,0
-154,99,0,0,0,0,0,0,0,0,0,-1,1070,925,0,0
-147,99,0,0,0,0,0,0,0,0,0,-1,1077,925,0,0
-140,99,0,0,0,0,0,0,0,0,0,-1,1084,925,0,0
-133,99,0,0,0,0,0,0,0,0,0,-1,1091,925,0,0
-126,99,0,0,0,0,0,0,0,0,0,-1,1098,925,0,0
-119,99,0,0,0,0,0,0,0,0,0,-1,1105,925,0,0
-112,99,0,0,0,0,0,0,0,0,0,-1,1112,925,0,0
-105,99,0,0,0,0,0,0,0,0,0,-1,1119,925,0,0
-98,99,0,0,0,0,0,0,0,0,0,-1,1126,925,0,0
-91,99,0,0,0,0,0,0,0,0,0,-1,1133,925,0,0
-84,99,0,0,0,0,0,0,0,0,0,-1,1140,925,0,0
-77,99,0,0,0,0,0,0,0,0,0,-1,1147,925,0,0
-70,99,0,0,0,0,0,0,0,0,0,-1,1154,925,0,0
-63,99,0,0,0,0,0,0,0,0,0,-1,1161,925,0,0
-56,99,0,0,0,0,0,0,0,0,0,-1,1168,925,0,0
-49,99,0,0,0,0,0,0,0,0,0,-1,1175,925,0,0
-42,99,0,0,0,0,0,0,0,0,0,-1,1182,925,0,0
-35,99,0,0,0,0,0,0,0,0,0,-1,1189,925,0,0
-28,99,0,0,0,0,0,0,0,0,0,-1,1196,925,0,0
-21,99,0,0,0,0,0,0,0,0,0,-1,1203,925,0,0
-14,99,0,0,0,0,0,0,0,0,0,-1,1210,925,0,0
-7,99,0,0,0,0,0,0,0,0,0,-1,1217,925,0,0
0,99,0,0,0,0,0,0,0,0,0,-1,1224,925,0,0
7,99,0,0,0,0,0,0,0,0,0,-1,1231,925,0,0
14,99,0,0,0,0,0,0,0,0,0,-1,1238,925,0,0
21,99,0,0,0,0,0,0,0,0,0,-1,1245,925,0,0
28,99,0,0,0,0,0,0,0,0,0,-1,1252,925,0,0
35,99,0,0,0,0,0,0,0,0,0,-1,1259,925,0,0
42,99,0,0,0,0,0,0,0,0,0,-1,1266,925,0,0
49,99,0,0,0,0,0,0,0,0,0,-1,1273,925,0,0
56,99,0,0,0,0,0,0,0,0,0,-1,1280,925,0,0
63,99,0,0,0,0,0,0,0,0,0,-1,1287,925,0,0
70,99,0,0,0,0,0,0,0,0,0,-1,1294,925,0,0
77,99,0,0,0,0,0,0,0,0,0,-1,1301,925,0,0
84,99,0,0,0,0,0,0,0,0,0,-1,1308,925,0,0
91,99,0,0,0,0,0,0,0,0,0,-1,1315,925,0,0
98,99,0,0,0,0,0,0,0,0,0,-1,1322,925,0,0
105,99,0,0,0,0,0,0,0,0,0,-1,1329,925,0,0
112,99,0,0,0,0,0,0,0,0,0,-1,1336,925,0,0
119,99,0,0,0,0,0,0,0,0,0,-1,1343,925,0,0
126,99,0,0,0,0,0,0,0,0,0,-1,1350,925,0,0
133,99,0,0,0,0,0,0,0,0,0,-1,1357,925,0,0
140,99,0,0,0,0,0,0,0,0,0,-1,1364,925,0,0
147,99,0,0,0,0,0,0,0,0,0,-1,1371,925,0,0
154,99,0,0,0,0,0,0,0,0,0,-1,1378,925,0,0
161,99,0,0,0,0,0,0,0,0,0,-1,1385,925,0,0
168,99,0,0,0,0,0,0,0,0,0,-1,1392,925,0,0
175,99,0,0,0,0,0,0,0,0,0,-1,1399,925,0,0
182,99,0,0,0,0,0,0,0,0,0,-1,1406,925,0,0
189,99,0,0,0,0,0,0,0,0,0,-1,1413,925,0,0
196,99,0,0,0,0,0,0,0,0,0,-1,1420,925,0,0
203,99,0,0,0,0,0,0,0,0,0,-1,1427,925,0,0
210,99,0,0,0,0,0,0,0,0,0,-1,1434,925,0,0
217,99,0,0,0,0,0,0,0,0,0,-1,1441,925,0,0
224,99,0,0,0,0,0,0,0,0,0,-1,1448,925,0,0
231,99,0,0,0,0,0,0,0,0,0,-1,1455,925,0,0
238,99,0,0,0,0,0,0,0,0,0,-1,1462,925,0,0
245,99,0,0,0,0,0,0,0,0,0,-1,1469,925,0,0
252,99,0,0,0,0,0,0,0,0,0,-1,1476,925,0,0
259,99,0,0,0,0,0,0,0,0,0,-1,1483,925,0,0
266,99,0,0,0,0,0,0,0,0,0,-1,1490,925,0,0
273,99,0,0,0,0,0,0,0,0,0,-1,1497,925,0,0
280,99,0,0,0,0,0,0,0,0,0,-1,1504,925,0,0
287,99,0,0,0,0,0,0,0,0,0,-1,1511,925,0,0
294,99,0,0,0,0,0,0,0,0,0,-1,1518,925,0,0
301,99,0,0,0,0,0,0,0,0,0,-1,1525,925,0,0
308,99,0,0,0,0,0,0,0,0,0,-1,1532,925,0,0
315,99,0,0,0,0,0,0,0,0,0,-1,1539,925,0,0
322,99,0,0,0,0,0,0,0,0,0,-1,1546,925,0,0
329,99,0,0,0,0,0,0,0,0,0,-1,1553,925,0,0
336,99,0,0,0,0,0,0,0,0,0,-1,1560,925,0,0
343,99,0,0,0,0,0,0,0,0,0,-1,1567,925,0,0
350,99,0,0,0,0,0,0,0,0,0,-1,1574,925,0,0
357,99,0,0,0,0,0,0,0,0,0,-1,1581,925,0,0
364,99,0,0,0,0,0,0,0,0,0,-1,1588,925,0,0
371,99,0,0,0,0,0,0,0,0,0,-1,1595,925,0,0
378,99,0,0,0,0,0,0,0,0,0,-1,1602,925,0,0
385,99,0,0,0,0,0,0,0,0,0,-1,1609,925,0,0
392,99,0,0,0,0,0,0,0,0,0,-1,1616,925,0,0
399,99,0,0,0,0,0,0,0,0,0,-1,1623,925,0,0
406,99,0,0,0,0,0,0,0,0,0,-1,1630,925,0,0
413,99,0,0,0,0,0,0,0,0,0,-1,1637,925,0,0
420,99,0,0,0,0,0,0,0,0,0,-1,1644,925,0,0
427,99,0,0,0,0,0,0,0,0,0,-1,1651,925,0,0
434,99,0,0,0,0,0,0,0,0,0,-1,1658,925,0,0
441,99,0,0,0,0,0,0,0,0,0,-1,1665,925,0,0
448,99,0,0,0,0,0,0,0,0,0,-1,1672,925,0,0
455,99,0,0,0,0,0,0,0,0,0,-1,1679,925,0,0
462,99,0,0,0,0,0,0,0,0,0,-1,1686,925,0,0
469,99,0,0,0,0,0,0,0,0,0,-1,1693,925,0,0
476,99,0,0,0,0,0,0,0,0,0,-1,1700,925,0,0
483,99,0,0,0,0,0,0,0,0,0,-1,1707,925,0,0
490,99,0,0,0,0,0,0,0,0,0,-1,1714,925,0,0
497,99,0,0,0,0,0,0,0,0,0,-1,1721,925,0,0
504,99,0,0,0,0,0,0,0,0,0,-1,1728,925,0,0
511,99,0,0,0,0,0,0,0,0,0,-1,1735,925,0,0
518,99,0,0,0,0,0,0,0,0,0,-1,1742,925,0,0
525,99,0,0,0,0,0,0,0,0,0,-1,1749,925,0,0
532,99,0,0,0,0,0,0,0,0,0,-1,1756,925,0,0
539,99,0,0,0,0,0,0,0,0,0,-1,1763,925,0,0
546,99,0,0,0,0,0,0,0,0,0,-1,1770,925,0,0
553,99,0,0,0,0,0,0,0,0,0,-1,1777,925,0,0
560,99,0,0,0,0,0,0,0,0,0,-1,1784,925,0,0
567,99,0,0,0,0,0,0,0,0,0,-1,1791,925,0,0
574,99,0,0,0,0,0,0,0,0,0,-1,1798,925,0,0
581,99,0,0,0,0,0,0,0,0,0,-1,1805,925,0,0
588,99,0,0,0,0,0,0,0,0,0,-1,1812,925,0,0
595,99,0,0,0,0,0,0,0,0,0,-1,1819,925,0,0
602,99,0,0,0,0,0,0,0,0,0,-1,1826,925,0,0
609,99,0,0,0,0,0,0,0,0,0,-1,1833,925,0,0
616,99,0,0,0,0,0,0,0,0,0,-1,1840,925,0,0
623,99,0,0,0,0,0,0,0,0,0,-1,1847,925,0,0
630,99,0,0,0,0,0,0,0,0,0,-1,1854,925,0,0
637,99,22.807,2.83258,-0.000639448,0.00312318,-0.0010714,0.00340687,-0.00092314,-1.31195,0.00263346,0.043507,1861,925,22.8071,-2.83258
644,99,22.8325,2.65692,-4.71962e-05,0.00316023,-0.0011926,0.00355507,-0.000442029,-1.25108,0.00253029,0.0384552,1868,925,22.8325,-2.65693
651,99,22.8115,2.75055,8.17981e-06,0.00307503,-0.00120162,0.00348975,-0.000406542,-1.23846,0.00247318,0.0401553,1875,925,22.8115,-2.75057
658,99,23.1116,2.42957,-0.00101791,0.00302059,-0.00120332,0.00335195,-0.00134926,-1.30209,0.00279513,0.0402996,1882,925,23.1116,-2.42959
665,99,23.002,2.44366,-0.00225548,0.00285157,-0.00113388,0.003092,-0.00249591,-1.36185,0.00323229,0.0412538,1889,925,23.0019,-2.44364
672,99,22.818,2.742,-0.00340867,0.00258273,-0.000982161,0.00273963,-0.00356556,-1.41239,0.0036507,0.0392283,1896,925,22.818,-2.74201
679,99,22.8441,2.88141,-0.00430155,0.00221241,-0.000802569,0.00230984,-0.00439898,-1.45,0.00393544,0.0353559,1903,925,22.8441,-2.8814
686,99,22.7887,2.81085,-0.00490189,0.00188914,-0.000686492,0.00195784,-0.00497059,-1.47105,0.00412426,0.031437,1910,925,22.7887,-2.81085
693,99,22.7535,2.67682,-0.00521061,0.00159336,-0.000496736,0.00162944,-0.00524669,-1.4983,0.004149,0.0276255,1917,925,22.7535,-2.6768
700,99,22.8698,2.55444,0,0,0,0,0,0,0,-1,1924,925,22.8698,-2.55443
707,99,20.9314,3.2149,0,0,0,0,0,0,0,-1,1931,925,20.9314,-3.21488
714,99,20.9297,3.40076,-0.00497169,0.00112122,-0.000393451,0.00114652,-0.00499699,-1.50658,0.00377203,0.0182157,1938,925,20.9297,-3.40077
721,99,20.8689,3.56183,-0.00433992,0.00082397,-0.000210253,0.000832516,-0.00434847,-1.53017,0.00321264,0.0197081,1945,925,20.8689,-3.56181
728,99,20.8831,3.73895,-0.00349118,0.000930298,-0.000237842,0.000943055,-0.00350394,-1.51721,0.00270566,0.0160957,1952,925,20.8831,-3.73898
735,99,20.892,3.91455,-0.00264615,0.00103127,-0.000606751,0.00112879,-0.00274368,-1.41143,0.00229966,0.0138287,1959,925,20.892,-3.91458
742,99,20.8892,4.06921,-0.00151668,0.00164533,-0.000673504,0.00178281,-0.00165416,-1.36944,0.0019848,0.010771,1966,925,20.8891,-4.0692
749,99,20.8549,4.20673,-0.00078073,0.00194055,-0.00110789,0.00233456,-0.00117473,-1.22911,0.00206264,0.00907515,1973,925,20.8549,-4.20671
756,99,20.8373,4.3277,4.55652e-05,0.00255512,-0.00123228,0.00305903,-0.000458346,-1.18262,0.00220805,0.00998915,1980,925,20.8373,-4.32771
763,99,20.8494,4.46436,9.4953e-05,0.00329903,-0.00148626,0.00388229,-0.000488302,-1.19683,0.00276537,0.0125629,1987,925,20.8494,-4.46433
770,99,20.8438,4.73865,-0.000267397,0.00412835,-0.0015785,0.00463646,-0.000775501,-1.25938,0.00337926,0.0254355,1994,925,20.8438,-4.73866
777,99,20.9,4.85919,0,0,0,0,0,0,0,-1,2001,925,20.9,-4.8592
784,99,20.7246,4.19531,0,0,0,0,0,0,0,-1,2008,925,20.7246,-4.1953
791,99,20.8436,4.07269,-0.00422714,0.00652307,-0.00097047,0.00660998,-0.00431404,-1.48148,0.00635325,0.0467027,2015,925,20.8437,-4.07269
798,99,21.2775,4.15942,-0.00745041,0.00743176,-0.000198202,0.0074344,-0.00745305,-1.55748,0.00859528,0.0448637,2022,925,21.2775,-4.15942
805,99,0,0,0,0,0,0,0,0,0,-1,2029,925,0,0
812,99,0,0,0,0,0,0,0,0,0,-1,2036,925,0,0
-700,92,0,0,0,0,0,0,0,0,0,-1,524,932,0,0
-693,92,0,0,0,0,0,0,0,0,0,-1,531,932,0,0
-686,92,-11.4313,-1.16827,0,0,0,0,0,0,0,-1,538,932,-11.4313,1.16826
-679,92,-11.7419,-0.677734,0,0,0,0,0,0,0,-1,545,932,-11.7419,0.677714
-672,92,-12.0759,-0.223572,0.0122854,0.0324113,0.0699542,0.0930226,-0.048326,0.856833,0.0829565,0.0473996,552,932,-12.0759,0.2236
-665,92,-12.4008,0.267151,0.00292624,0.0278385,0.0585364,0.0752294,-0.0444646,0.890231,0.0698621,0.0492703,559,932,-12.4008,-0.267145
-658,92,-12.7523,0.828613,-0.00320066,0.0230725,0.0475525,0.0592696,-0.0393978,0.920164,0.0573495,0.0472458,566,932,-12.7523,-0.82859
-651,92,-13.0529,1.27594,-0.00677637,0.0184982,0.0375194,0.0454514,-0.0337296,0.947841,0.0458818,0.046534,573,932,-13.0529,-1.27596
-644,92,-13.611,1.6759,-0.00841532,0.0143569,0.0287371,0.0338813,-0.0279398,0.974018,0.0357473,0.0443419,580,932,-13.611,-1.67591
-637,92,-14.0477,2.06781,0,0,0,0,0,0,0,-1,587,932,-14.0477,-2.06782
-630,92,-14.1936,2.0481,-0.00854742,0.00849849,0.0154794,0.0176462,-0.0176951,1.03705,0.0204044,0.011976,594,932,-14.1936,-2.04812
-623,92,-14.2242,1.93195,-0.00831923,0.00646442,0.0107296,0.0121019,-0.0139567,1.08702,0.0150576,0.00814633,601,932,-14.2242,-1.93194
-616,92,-14.2422,1.79724,-0.00840961,0.00341713,0.00627222,0.00612401,-0.0111165,1.16338,0.010092,0.00795373,608,932,-14.2422,-1.79723
-609,92,-14.249,1.65485,-0.00781085,0.00149143,0.0031447,0.00245476,-0.00877418,1.27354,0.00681666,0.00885757,615,932,-14.249,-1.65486
-602,92,-14.2267,1.52686,-0.00724582,0.000858979,0.00134242,0.00107554,-0.00746239,1.41085,0.00536946,0.0090383,622,932,-14.2267,-1.52684
-595,92,-14.2081,1.38898,-0.00698101,0.00070006,0.000392728,0.000720088,-0.00700104,1.51984,0.00492497,0.0150157,629,932,-14.2081,-1.38898
-588,92,-14.2137,1.26923,-0.00687492,0.000386298,-0.000120974,0.000388313,-0.00687694,-1.55414,0.00471939,0.0168625,636,932,-14.2137,-1.26923
-581,92,-14.196,1.14319,-0.0070442,0.000475735,-0.000369733,0.000493869,-0.00706234,-1.52179,0.00488118,0.0146237,643,932,-14.196,-1.14317
-574,92,-14.4424,1.04999,-0.00706628,0.000485941,-0.000459484,0.000513794,-0.00709413,-1.51025,0.00490966,0.024964,650,932,-14.4425,-1.05
-567,92,-14.9798,0.837891,-0.00674955,0.000937707,-0.000642132,0.000990977,-0.00680282,-1.48803,0.00489906,0.0447874,657,932,-14.9798,-0.837904
-560,92,-15.2209,0.852539,-0.00600946,0.00100217,-0.000682361,0.00106796,-0.00607525,-1.47468,0.00444909,0.0330272,664,932,-15.221,-0.852537
-553,92,-15.3375,0.889038,-0.0049135,0.00139028,-0.000674383,0.00146162,-0.00498484,-1.4654,0.00390276,0.0362003,671,932,-15.3375,-0.889064
-546,92,-15.384,0.880737,-0.00323338,0.00184374,-0.000607552,0.00191543,-0.00330507,-1.45334,0.00304944,0.0407337,678,932,-15.384,-0.88073
-539,92,-15.3277,0.677917,-0.00088771,0.00235843,-0.000489269,0.00243057,-0.000959851,-1.4244,0.00201792,0.0372679,685,932,-15.3277,-0.677895
-532,92,-15.3488,0.794189,0.00218729,0.00290052,-0.000361723,0.00305186,0.00203595,-1.17454,0.0017945,0.0385246,692,932,-15.3487,-0.794219
-525,92,-15.2757,1.05402,0.00582074,0.00344637,-0.000372985,0.00587795,0.00338916,-0.152206,0.00340688,0.0372011,699,932,-15.2757,-1.05404
-518,92,-15.1992,1.29822,0.00876166,0.00397726,-0.000471118,0.00880761,0.00393131,-0.0972252,0.00509482,0.0388224,706,932,-15.1992,-1.29822
-511,92,0,0,0,0,0,0,0,0,0,-1,713,932,0,0
-504,92,0,0,0,0,0,0,0,0,0,-1,720,932,0,0
-497,92,0,0,0,0,0,0,0,0,0,-1,727,932,0,0
-490,92,0,0,0,0,0,0,0,0,0,-1,734,932,0,0
-483,92,0,0,0,0,0,0,0,0,0,-1,741,932,0,0
-476,92,0,0,0,0,0,0,0,0,0,-1,748,932,0,0
-469,92,0,0,0,0,0,0,0,0,0,-1,755,932,0,0
-462,92,0,0,0,0,0,0,0,0,0,-1,762,932,0,0
-455,92,0,0,0,0,0,0,0,0,0,-1,769,932,0,0
-448,92,0,0,0,0,0,0,0,0,0,-1,776,932,0,0
-441,92,0,0,0,0,0,0,0,0,0,-1,783,932,0,0
-434,92,0,0,0,0,0,0,0,0,0,-1,790,932,0,0
-427,92,0,0,0,0,0,0,0,0,0,-1,797,932,0,0
-420,92,0,0,0,0,0,0,0,0,0,-1,804,932,0,0
-413,92,0,0,0,0,0,0,0,0,0,-1,811,932,0,0
-406,92,0,0,0,0,0,0,0,0,0,-1,818,932,0,0
-399,92,0,0,0,0,0,0,0,0,0,-1,825,932,0,0
-392,92,0,0,0,0,0,0,0,0,0,-1,832,932,0,0
-385,92,0,0,0,0,0,0,0,0,0,-1,839,932,0,0
-378,92,0,0,0,0,0,0,0,0,0,-1,846,932,0,0
-371,92,0,0,0,0,0,0,0,0,0,-1,853,932,0,0
-364,92,0,0,0,0,0,0,0,0,0,-1,860,932,0,0
-357,92,0,0,0,0,0,0,0,0,0,-1,867,932,0,0
-350,92,0,0,0,0,0,0,0,0,0,-1,874,932,0,0
-343,92,0,0,0,0,0,0,0,0,0,-1,881,932,0,0
-336,92,0,0,0,0,0,0,0,0,0,-1,888,932,0,0
-329,92,0,0,0,0,0,0,0,0,0,-1,895,932,0,0
-322,92,0,0,0,0,0,0,0,0,0,-1,902,932,0,0
-315,92,0,0,0,0,0,0,0,0,0,-1,909,932,0,0
-308,92,0,0,0,0,0,0,0,0,0,-1,916,932,0,0
-301,92,0,0,0,0,0,0,0,0,0,-1,923,932,0,0
-294,92,0,0,0,0,0,0,0,0,0,-1,930,932,0,0
-287,92,0,0,0,0,0,0,0,0,0,-1,937,932,0,0
-280,92,0,0,0,0,0,0,0,0,0,-1,944,932,0,0
-273,92,0,0,0,0,0,0,0,0,0,-1,951,932,0,0
-266,92,0,0,0,0,0,0,0,0,0,-1,958,932,0,0
-259,92,0,0,0,0,0,0,0,0,0,-1,965,932,0,0
-252,92,0,0,0,0,0,0,0,0,0,-1,972,932,0,0
-245,92,0,0,0,0,0,0,0,0,0,-1,979,932,0,0
-238,92,0,0,0,0,0,0,0,0,0,-1,986,932,0,0
-231,92,0,0,0,0,0,0,0,0,0,-1,993,932,0,0
-224,92,0,0,0,0,0,0,0,0,0,-1,1000,932,0,0
-217,92,0,0,0,0,0,0,0,0,0,-1,1007,932,0,0
-210,92,0,0,0,0,0,0,0,0,0,-1,1014,932,0,0
-203,92,0,0,0,0,0,0,0,0,0,-1,1021,932,0,0
-196,92,0,0,0,0,0,0,0,0,0,-1,1028,932,0,0
-189,92,0,0,0,0,0,0,0,0,0,-1,1035,932,0,0
-182,92,0,0,0,0,0,0,0,0,0,-1,1042,932,0,0
-175,92,0,0,0,0,0,0,0,0,0,-1,1049,932,0,0
-168,92,0,0,0,0,0,0,0,0,0,-1,1056,932,0,0
-161,92,0,0,0,0,0,0,0,0,0,-1,1063,932,0,0
-154,92,0,0,0,0,0,0,0,0,0,-1,1070,932,0,0
-147,92,0,0,0,0,0,0,0,0,0,-1,1077,932,0,0
-140,92,0,0,0,0,0,0,0,0,0,-1,1084,932,0,0
-133,92,0,0,0,0,0,0,0,0,0,-1,1091,932,0,0
-126,92,0,0,0,0,0,0,0,0,0,-1,1098,932,0,0
-119,92,0,0,0,0,0,0,0,0,0,-1,1105,932,0,0
-112,92,0,0,0,0,0,0,0,0,0,-1,1112,932,0,0
-105,92,0,0,0,0,0,0,0,0,0,-1,1119,932,0,0
-98,92,0,0,0,0,0,0,0,0,0,-1,1126,932,0,0
-91,92,0,0,0,0,0,0,0,0,0,-1,1133,932,0,0
-84,92,0,0,0,0,0,0,0,0,0,-1,1140,932,0,0
-77,92,0,0,0,0,0,0,0,0,0,-1,1147,932,0,0
-70,92,0,0,0,0,0,0,0,0,0,-1,1154,932,0,0
-63,92,0,0,0,0,0,0,0,0,0,-1,1161,932,0,0
-56,92,0,0,0,0,0,0,0,0,0,-1,1168,932,0,0
-49,92,0,0,0,0,0,0,0,0,0,-1,1175,932,0,0
-42,92,0,0,0,0,0,0,0,0,0,-1,1182,932,0,0
-35,92,0,0,0,0,0,0,0,0,0,-1,1189,932,0,0
-28,92,0,0,0,0,0,0,0,0,0,-1,1196,932,0,0
-21,92,0,0,0,0,0,0,0,0,0,-1,1203,932,0,0
-14,92,0,0,0,0,0,0,0,0,0,-1,1210,932,0,0
-7,92,0,0,0,0,0,0,0,0,0,-1,1217,932,0,0
0,92,0,0,0,0,0,0,0,0,0,-1,1224,932,0,0
7,92,0,0,0,0,0,0,0,0,0,-1,1231,932,0,0
14,92,0,0,0,0,0,0,0,0,0,-1,1238,932,0,0
21,92,0,0,0,0,0,0,0,0,0,-1,1245,932,0,0
28,92,0,0,0,0,0,0,0,0,0,-1,1252,932,0,0
35,92,0,0,0,0,0,0,0,0,0,-1,1259,932,0,0
42,92,0,0,0,0,0,0,0,0,0,-1,1266,932,0,0
49,92,0,0,0,0,0,0,0,0,0,-1,1273,932,0,0
56,92,0,0,0,0,0,0,0,0,0,-1,1280,932,0,0
63,92,0,0,0,0,0,0,0,0,0,-1,1287,932,0,0
70,92,0,0,0,0,0,0,0,0,0,-1,1294,932,0,0
77,92,0,0,0,0,0,0,0,0,0,-1,1301,932,0,0
84,92,0,0,0,0,0,0,0,0,0,-1,1308,932,0,0
91,92,0,0,0,0,0,0,0,0,0,-1,1315,932,0,0
98,92,0,0,0,0,0,0,0,0,0,-1,1322,932,0,0
105,92,0,0,0,0,0,0,0,0,0,-1,1329,932,0,0
112,92,0,0,0,0,0,0,0,0,0,-1,1336,932,0,0
119,92,0,0,0,0,0,0,0,0,0,-1,1343,932,0,0
126,92,0,0,0,0,0,0,0,0,0,-1,1350,932,0,0
133,92,0,0,0,0,0,0,0,0,0,-1,1357,932,0,0
140,92,0,0,0,0,0,0,0,0,0,-1,1364,932,0,0
147,92,0,0,0,0,0,0,0,0,0,-1,1371,932,0,0
154,92,0,0,0,0,0,0,0,0,0,-1,1378,932,0,0
161,92,0,0,0,0,0,0,0,0,0,-1,1385,932,0,0
168,92,0,0,0,0,0,0,0,0,0,-1,1392,932,0,0
175,92,0,0,0,0,0,0,0,0,0,-1,1399,932,0,0
182,92,0,0,0,0,0,0,0,0,0,-1,1406,932,0,0
189,92,0,0,0,0,0,0,0,0,0,-1,1413,932,0,0
196,92,0,0,0,0,0,0,0,0,0,-1,1420,932,0,0
203,92,0,0,0,0,0,0,0,0,0,-1,1427,932,0,0
210,92,0,0,0,0,0,0,0,0,0,-1,1434,932,0,0
217,92,0,0,0,0,0,0,0,0,0,-1,1441,932,0,0
224,92,0,0,0,0,0,0,0,0,0,-1,1448,932,0,0
231,92,0,0,0,0,0,0,0,0,0,-1,1455,932,0,0
238,92,0,0,0,0,0,0,0,0,0,-1,1462,932,0,0
245,92,0,0,0,0,0,0,0,0,0,-1,1469,932,0,0
252,92,0,0,0,0,0,0,0,0,0,-1,1476,932,0,0
259,92,0,0,0,0,0,0,0,0,0,-1,1483,932,0,0
266,92,0,0,0,0,0,0,0,0,0,-1,1490,932,0,0
273,92,0,0,0,0,0,0,0,0,0,-1,1497,932,0,0
280,92,0,0,0,0,0,0,0,0,0,-1,1504,932,0,0
287,92,0,0,0,0,0,0,0,0,0,-1,1511,932,0,0
294,92,0,0,0,0,0,0,0,0,0,-1,1518,932,0,0
301,92,0,0,0,0,0,0,0,0,0,-1,1525,932,0,0
308,92,0,0,0,0,0,0,0,0,0,-1,1532,932,0,0
315,92,0,0,0,0,0,0,0,0,0,-1,1539,932,0,0
322,92,0,0,0,0,0,0,0,0,0,-1,1546,932,0,0
329,92,0,0,0,0,0,0,0,0,0,-1,1553,932,0,0
336,92,0,0,0,0,0,0,0,0,0,-1,1560,932,0,0
343,92,0,0,0,0,0,0,0,0,0,-1,1567,932,0,0
350,92,0,0,0,0,0,0,0,0,0,-1,1574,932,0,0
357,92,0,0,0,0,0,0,0,0,0,-1,1581,932,0,0
364,92,0,0,0,0,0,0,0,0,0,-1,1588,932,0,0
371,92,0,0,0,0,0,0,0,0,0,-1,1595,932,0,0
378,92,0,0,0,0,0,0,0,0,0,-1,1602,932,0,0
385,92,0,0,0,0,0,0,0,0,0,-1,1609,932,0,0
392,92,0,0,0,0,0,0,0,0,0,-1,1616,932,0,0
399,92,0,0,0,0,0,0,0,0,0,-1,1623,932,0,0
406,92,0,0,0,0,0,0,0,0,0,-1,1630,932,0,0
413,92,0,0,0,0,0,0,0,0,0,-1,1637,932,0,0
420,92,0,0,0,0,0,0,0,0,0,-1,1644,932,0,0
427,92,0,0,0,0,0,0,0,0,0,-1,1651,932,0,0
434,92,0,0,0,0,0,0,0,0,0,-1,1658,932,0,0
441,92,0,0,0,0,0,0,0,0,0,-1,1665,932,0,0
448,92,0,0,0,0,0,0,0,0,0,-1,1672,932,0,0
455,92,0,0,0,0,0,0,0,0,0,-1,1679,932,0,0
462,92,0,0,0,0,0,0,0,0,0,-1,1686,932,0,0
469,92,0,0,0,0,0,0,0,0,0,-1,1693,932,0,0
476,92,0,0,0,0,0,0,0,0,0,-1,1700,932,0,0
483,92,0,0,0,0,0,0,0,0,0,-1,1707,932,0,0
490,92,0,0,0,0,0,0,0,0,0,-1,1714,932,0,0
497,92,0,0,0,0,0,0,0,0,0,-1,1721,932,0,0
504,92,0,0,0,0,0,0,0,0,0,-1,1728,932,0,0
511,92,0,0,0,0,0,0,0,0,0,-1,1735,932,0,0
518,92,0,0,0,0,0,0,0,0,0,-1,1742,932,0,0
525,92,0,0,0,0,0,0,0,0,0,-1,1749,932,0,0
532,92,0,0,0,0,0,0,0,0,0,-1,1756,932,0,0
539,92,0,0,0,0,0,0,0,0,0,-1,1763,932,0,0
546,92,0,0,0,0,0,0,0,0,0,-1,1770,932,0,0
553,92,0,0,0,0,0,0,0,0,0,-1,1777,932,0,0
560,92,0,0,0,0,0,0,0,0,0,-1,1784,932,0,0
567,92,0,0,0,0,0,0,0,0,0,-1,1791,932,0,0
574,92,0,0,0,0,0,0,0,0,0,-1,1798,932,0,0
581,92,0,0,0,0,0,0,0,0,0,-1,1805,932,0,0
588,92,0,0,0,0,0,0,0,0,0,-1,1812,932,0,0
595,92,0,0,0,0,0,0,0,0,0,-1,1819,932,0,0
602,92,0,0,0,0,0,0,0,0,0,-1,1826,932,0,0
609,92,0,0,0,0,0,0,0,0,0,-1,1833,932,0,0
616,92,0,0,0,0,0,0,0,0,0,-1,1840,932,0,0
623,92,0,0,0,0,0,0,0,0,0,-1,1847,932,0,0
630,92,0,0,0,0,0,0,0,0,0,-1,1854,932,0,0
637,92,22.6704,2.99487,0.000202876,0.00295314,-0.00131148,0.00347826,-0.000322243,-1.18994,0.00243338,0.0445643,1861,932,22.6704,-2.99488
644,92,22.7343,2.77087,0.00063467,0.00314019,-0.00140354,0.00376875,6.11576e-06,-1.14975,0.00251046,0.0388522,1868,932,22.7343,-2.77087
651,92,22.6672,2.802,0.000614222,0.00312769,-0.00138528,0.00374135,5.61238e-07,-1.15379,0.00249404,0.0416698,1875,932,22.6672,-2.80199
658,92,22.9126,2.6062,-0.000465922,0.0031189,-0.00132426,0.00355503,-0.000902054,-1.25264,0.00272101,0.0451186,1882,932,22.9126,-2.60617
665,92,23.2959,2.56927,0,0,0,0,0,0,0,-1,1889,932,23.2959,-2.56927
672,92,22.8588,2.86078,-0.00302741,0.00272565,-0.000885488,0.00285886,-0.00316062,-1.42148,0.0034768,0.0395996,1896,932,22.8587,-2.86076
679,92,22.8396,2.78973,-0.00399361,0.00235252,-0.000608508,0.00241034,-0.00405143,-1.47606,0.0037706,0.0360077,1903,932,22.8396,-2.78974
686,92,22.7797,2.77026,-0.00462566,0.00200348,-0.000416444,0.00202954,-0.00465172,-1.5083,0.00395521,0.0301026,1910,932,22.7797,-2.77025
693,92,22.7429,2.79657,-0.00493242,0.00166609,-0.000179514,0.00167097,-0.0049373,-1.54362,0.0039676,0.0245079,1917,932,22.7429,-2.79657
700,92,22.7408,2.82501,-0.00504657,0.00142799,-8.60967e-06,0.001428,-0.00504659,-1.56947,0.00392789,0.0420384,1924,932,22.7409,-2.82502
707,92,21.3127,3.34637,0,0,0,0,0,0,0,-1,1931,932,21.3127,-3.34638
714,92,21.0272,3.50238,-0.00482508,0.00117405,-4.13087e-05,0.00117434,-0.00482536,-1.56391,0.0036715,0.0380059,1938,932,21.0273,-3.50237
721,92,21.0944,3.64221,-0.00431818,0.000854837,0.000109085,0.000857136,-0.00432048,1.54972,0.00320447,0.0236969,1945,932,21.0944,-3.64222
728,92,21.0366,3.83514,-0.00366127,0.000964524,1.79151e-05,0.000964593,-0.00366134,1.56692,0.002818,0.0181173,1952,932,21.0367,-3.83517
735,92,21.0253,3.95221,-0.00302972,0.00105994,-0.000409219,0.00110048,-0.00307026,-1.47204,0.00249589,0.0148422,1959,932,21.0253,-3.95221
742,92,21.0652,4.06238,-0.00202104,0.00151932,-0.000570367,0.00160894,-0.00211066,-1.41494,0.00215402,0.0154136,1966,932,21.0652,-4.06237
749,92,21.0226,4.19513,-0.00140462,0.00170945,-0.00104782,0.00202919,-0.00172436,-1.27462,0.00216949,0.0133502,1973,932,21.0226,-4.19511
756,92,20.9735,4.32751,-0.000825745,0.00226842,-0.00118017,0.00266717,-0.00122449,-1.24496,0.00229774,0.0127107,1980,932,20.9735,-4.32751
763,92,21.0074,4.46429,-0.000881133,0.00284206,-0.00142958,0.00332764,-0.00136671,-1.24336,0.00278799,0.0145041,1987,932,21.0074,-4.46428
770,92,21.0172,4.6756,-0.00131506,0.00350869,-0.0014332,0.00390238,-0.00170876,-1.30271,0.00332109,0.0227222,1994,932,21.0173,-4.67558
777,92,21.0248,4.87592,-0.00197875,0.00410805,-0.0012394,0.00435074,-0.00222144,-1.37743,0.00386026,0.0408567,2001,932,21.0247,-4.87591
784,92,21.0321,4.65399,-0.00304786,0.00469832,-0.000756712,0.00477155,-0.00312109,-1.47432,0.00458991,0.0447644,2008,932,21.0321,-4.65401
791,92,21.2753,4.38544,-0.00470725,0.00534183,9.5651e-05,0.00534274,-0.00470816,1.56128,0.00580674,0.0444625,2015,932,21.2753,-4.38545
798,92,21.5133,4.3584,-0.00731323,0.00617675,0.0015574,0.00635421,-0.0074907,1.45734,0.00800234,0.0428716,2022,932,21.5133,-4.35842
805,92,0,0,0,0,0,0,0,0,0,-1,2029,932,0,0
812,92,0,0,0,0,0,0,0,0,0,-1,2036,932,0,0
-700,85,0,0,0,0,0,0,0,0,0,-1,524,939,0,0
-693,85,0,0,0,0,0,0,0,0,0,-1,531,939,0,0
-686,85,-16.8694,2.58527,0,0,0,0,0,0,0,-1,538,939,-16.8694,-2.58529
-679,85,-13.7466,-2.33386,0,0,0,0,0,0,0,-1,545,939,-13.7466,2.33384
-672,85,-13.3276,-2.27625,0.0143445,0.0121483,0.0625498,0.0758058,-0.049313,0.776621,0.0727752,0.0459115,552,939,-13.3275,2.27624
-665,85,-12.5157,-0.0288696,0.00497406,0.0122462,0.0528575,0.0615926,-0.0443723,0.819739,0.0614476,0.0444447,559,939,-12.5157,0.0288537
-658,85,-12.8596,0.96521,-0.00141169,0.0114827,0.0433205,0.0488331,-0.0387621,0.859269,0.0506844,0.0478112,566,939,-12.8596,-0.965183
-651,85,-13.3818,1.5022,-0.00532044,0.0101618,0.0344346,0.0377147,-0.0328733,0.895963,0.040786,0.0439855,573,939,-13.3817,-1.50219
-644,85,-13.9923,1.83105,0,0,0,0,0,0,0,-1,580,939,-13.9923,-1.83104
-637,85,-14.3114,2.1192,-0.007925,0.00714934,0.0199413,0.0209303,-0.021706,0.966083,0.0246174,0.0176645,587,939,-14.3114,-2.1192
-630,85,-14.3495,2.00946,-0.00802144,0.0060921,0.0143968,0.0150686,-0.016998,1.01327,0.0185248,0.0106386,594,939,-14.3496,-2.00949
-623,85,-14.3704,1.89215,-0.00805245,0.00502294,0.00992204,0.0103675,-0.013397,1.0767,0.0137576,0.00925836,601,939,-14.3704,-1.89215
-616,85,-14.3918,1.7713,-0.00832713,0.00273743,0.00571506,0.00515927,-0.010749,1.16997,0.00937171,0.00921917,608,939,-14.3918,-1.77128
-609,85,-14.4006,1.64105,-0.00782006,0.00129484,0.00277464,0.00207302,-0.00859824,1.29736,0.00653373,0.0113527,615,939,-14.4006,-1.64107
-602,85,-14.3823,1.52643,-0.00728146,0.00086181,0.00105798,0.000997019,-0.00741667,1.44369,0.00530809,0.0146857,622,939,-14.3823,-1.5264
-595,85,-14.34,1.41296,-0.00709411,0.000791301,0.000100157,0.000792573,-0.00709538,1.5581,0.00501536,0.0163826,629,939,-14.34,-1.41297
-588,85,-14.3456,1.28424,-0.00708131,0.000510487,-0.000385328,0.000529994,-0.00710082,-1.52021,0.00492007,0.0157253,636,939,-14.3456,-1.28427
-581,85,-14.3351,1.18378,-0.0072795,0.000585006,-0.000597394,0.000630126,-0.00732462,-1.49541,0.0051061,0.0168959,643,939,-14.3351,-1.18375
-574,85,-14.6091,1.11078,-0.00728875,0.000611096,-0.00068237,0.000669604,-0.00734726,-1.48526,0.00513594,0.0297797,650,939,-14.6091,-1.11079
-567,85,-15.085,1.07355,0,0,0,0,0,0,0,-1,657,939,-15.085,-1.07355
-560,85,-15.1498,0.92688,-0.00626185,0.00116898,-0.000875134,0.00127065,-0.00636352,-1.45513,0.00472322,0.0345605,664,939,-15.1499,-0.926872
-553,85,-15.1744,0.847168,-0.00507514,0.00154378,-0.000846683,0.00165037,-0.00518173,-1.44556,0.00411641,0.0399113,671,939,-15.1744,-0.847189
-546,85,-15.2701,0.609802,-0.00325852,0.00201135,-0.000784575,0.00212568,-0.00337284,-1.4261,0.00320168,0.0427178,678,939,-15.2701,-0.609779
-539,85,-15.3035,0.836243,-0.000760292,0.00256439,-0.000711686,0.00271033,-0.00090623,-1.36854,0.0021729,0.0391852,685,939,-15.3034,-0.836265
-532,85,-15.2296,0.897644,0.00244117,0.0031968,-0.000714056,0.00362683,0.00201114,-1.02873,0.0020981,0.0396463,692,939,-15.2296,-0.897615
-525,85,-15.2668,1.0014,0.00595725,0.00394965,-0.00098995,0.00636328,0.00354362,-0.389226,0.00368176,0.0387815,699,939,-15.2668,-1.0014
-518,85,-15.2373,0.994995,0.00833259,0.00488,-0.00154364,0.00892209,0.0042905,-0.364798,0.00515243,0.0375409,706,939,-15.2373,-0.995015
-511,85,0,0,0,0,0,0,0,0,0,-1,713,939,0,0
-504,85,0,0,0,0,0,0,0,0,0,-1,720,939,0,0
-497,85,0,0,0,0,0,0,0,0,0,-1,727,939,0,0
-490,85,0,0,0,0,0,0,0,0,0,-1,734,939,0,0
-483,85,0,0,0,0,0,0,0,0,0,-1,741,939,0,0
-476,85,0,0,0,0,0,0,0,0,0,-1,748,939,0,0
-469,85,0,0,0,0,0,0,0,0,0,-1,755,939,0,0
-462,85,0,0,0,0,0,0,0,0,0,-1,762,939,0,0
-455,85,0,0,0,0,0,0,0,0,0,-1,769,939,0,0
-448,85,0,0,0,0,0,0,0,0,0,-1,776,939,0,0
-441,85,0,0,0,0,0,0,0,0,0,-1,783,939,0,0
-434,85,0,0,0,0,0,0,0,0,0,-1,790,939,0,0
-427,85,0,0,0,0,0,0,0,0,0,-1,797,939,0,0
-420,85,0,0,0,0,0,0,0,0,0,-1,804,939,0,0
-413,85,0,0,0,0,0,0,0,0,0,-1,811,939,0,0
-406,85,0,0,0,0,0,0,0,0,0,-1,818,939,0,0
-399,85,0,0,0,0,0,0,0,0,0,-1,825,939,0,0
-392,85,0,0,0,0,0,0,0,0,0,-1,832,939,0,0
-385,85,0,0,0,0,0,0,0,0,0,-1,839,939,0,0
-378,85,0,0,0,0,0,0,0,0,0,-1,846,939,0,0
-371,85,0,0,0,0,0,0,0,0,0,-1,853,939,0,0
-364,85,0,0,0,0,0,0,0,0,0,-1,860,939,0,0
-357,85,0,0,0,0,0,0,0,0,0,-1,867,939,0,0
-350,85,0,0,0,0,0,0,0,0,0,-1,874,939,0,0
-343,85,0,0,0,0,0,0,0,0,0,-1,881,939,0,0
-336,85,0,0,0,0,0,0,0,0,0,-1,888,939,0,0
-329,85,0,0,0,0,0,0,0,0,0,-1,895,939,0,0
-322,85,0,0,0,0,0,0,0,0,0,-1,902,939,0,0
-315,85,0,0,0,0,0,0,0,0,0,-1,909,939,0,0
-308,85,0,0,0,0,0,0,0,0,0,-1,916,939,0,0
-301,85,0,0,0,0,0,0,0,0,0,-1,923,939,0,0
-294,85,0,0,0,0,0,0,0,0,0,-1,930,939,0,0
-287,85,0,0,0,0,0,0,0,0,0,-1,937,939,0,0
-280,85,0,0,0,0,0,0,0,0,0,-1,944,939,0,0
-273,85,0,0,0,0,0,0,0,0,0,-1,951,939,0,0
-266,85,0,0,0,0,0,0,0,0,0,-1,958,939,0,0
-259,85,0,0,0,0,0,0,0,0,0,-1,965,939,0,0
-252,85,0,0,0,0,0,0,0,0,0,-1,972,939,0,0
-245,85,0,0,0,0,0,0,0,0,0,-1,979,939,0,0
-238,85,0,0,0,0,0,0,0,0,0,-1,986,939,0,0
-231,85,0,0,0,0,0,0,0,0,0,-1,993,939,0,0
-224,85,0,0,0,0,0,0,0,0,0,-1,1000,939,0,0
-217,85,0,0,0,0,0,0,0,0,0,-1,1007,939,0,0
-210,85,0,0,0,0,0,0,0,0,0,-1,1014,939,0,0
-203,85,0,0,0,0,0,0,0,0,0,-1,1021,939,0,0
-196,85,0,0,0,0,0,0,0,0,0,-1,1028,939,0,0
-189,85,0,0,0,0,0,0,0,0,0,-1,1035,939,0,0
-182,85,0,0,0,0,0,0,0,0,0,-1,1042,939,0,0
-175,85,0,0,0,0,0,0,0,0,0,-1,1049,939,0,0
-168,85,0,0,0,0,0,0,0,0,0,-1,1056,939,0,0
-161,85,0,0,0,0,0,0,0,0,0,-1,1063,939,0,0
-154,85,0,0,0,0,0,0,0,0,0,-1,1070,939,0,0
-147,85,0,0,0,0,0,0,0,0,0,-1,1077,939,0,0
-140,85,0,0,0,0,0,0,0,0,0,-1,1084,939,0,0
-133,85,0,0,0,0,0,0,0,0,0,-1,1091,939,0,0
-126,85,0,0,0,0,0,0,0,0,0,-1,1098,939,0,0
-119,85,0,0,0,0,0,0,0,0,0,-1,1105,939,0,0
-112,85,0,0,0,0,0,0,0,0,0,-1,1112,939,0,0
-105,85,0,0,0,0,0,0,0,0,0,-1,1119,939,0,0
-98,85,0,0,0,0,0,0,0,0,0,-1,1126,939,0,0
-91,85,0,0,0,0,0,0,0,0,0,-1,1133,939,0,0
-84,85,0,0,0,0,0,0,0,0,0,-1,1140,939,0,0
-77,85,0,0,0,0,0,0,0,0,0,-1,1147,939,0,0
-70,85,0,0,0,0,0,0,0,0,0,-1,1154,939,0,0
-63,85,0,0,0,0,0,0,0,0,0,-1,1161,939,0,0
-56,85,0,0,0,0,0,0,0,0,0,-1,1168,939,0,0
-49,85,0,0,0,0,0,0,0,0,0,-1,1175,939,0,0
-42,85,0,0,0,0,0,0,0,0,0,-1,1182,939,0,0
-35,85,0,0,0,0,0,0,0,0,0,-1,1189,939,0,0
-28,85,0,0,0,0,0,0,0,0,0,-1,1196,939,0,0
-21,85,0,0,0,0,0,0,0,0,0,-1,1203,939,0,0
-14,85,0,0,0,0,0,0,0,0,0,-1,1210,939,0,0
-7,85,0,0,0,0,0,0,0,0,0,-1,1217,939,0,0
0,85,0,0,0,0,0,0,0,0,0,-1,1224,939,0,0
7,85,0,0,0,0,0,0,0,0,0,-1,1231,939,0,0
14,85,0,0,0,0,0,0,0,0,0,-1,1238,939,0,0
21,85,0,0,0,0,0,0,0,0,0,-1,1245,939,0,0
28,85,0,0,0,0,0,0,0,0,0,-1,1252,939,0,0
35,85,0,0,0,0,0,0,0,0,0,-1,1259,939,0,0
42,85,0,0,0,0,0,0,0,0,0,-1,1266,939,0,0
49,85,0,0,0,0,0,0,0,0,0,-1,1273,939,0,0
56,85,0,0,0,0,0,0,0,0,0,-1,1280,939,0,0
63,85,0,0,0,0,0,0,0,0,0,-1,1287,939,0,0
70,85,0,0,0,0,0,0,0,0,0,-1,1294,939,0,0
77,85,0,0,0,0,0,0,0,0,0,-1,1301,939,0,0
84,85,0,0,0,0,0,0,0,0,0,-1,1308,939,0,0
91,85,0,0,0,0,0,0,0,0,0,-1,1315,939,0,0
98,85,0,0,0,0,0,0,0,0,0,-1,1322,939,0,0
105,85,0,0,0,0,0,0,0,0,0,-1,1329,939,0,0
112,85,0,0,0,0,0,0,0,0,0,-1,1336,939,0,0
119,85,0,0,0,0,0,0,0,0,0,-1,1343,939,0,0
126,85,0,0,0,0,0,0,0,0,0,-1,1350,939,0,0
133,85,0,0,0,0,0,0,0,0,0,-1,1357,939,0,0
140,85,0,0,0,0,0,0,0,0,0,-1,1364,939,0,0
147,85,0,0,0,0,0,0,0,0,0,-1,1371,939,0,0
154,85,0,0,0,0,0,0,0,0,0,-1,1378,939,0,0
161,85,0,0,0,0,0,0,0,0,0,-1,1385,939,0,0
168,85,0,0,0,0,0,0,0,0,0,-1,1392,939,0,0
175,85,0,0,0,0,0,0,0,0,0,-1,1399,939,0,0
182,85,0,0,0,0,0,0,0,0,0,-1,1406,939,0,0
189,85,0,0,0,0,0,0,0,0,0,-1,1413,939,0,0
196,85,0,0,0,0,0,0,0,0,0,-1,1420,939,0,0
203,85,0,0,0,0,0,0,0,0,0,-1,1427,939,0,0
210,85,0,0,0,0,0,0,0,0,0,-1,1434,939,0,0
217,85,0,0,0,0,0,0,0,0,0,-1,1441,939,0,0
224,85,0,0,0,0,0,0,0,0,0,-1,1448,939,0,0
231,85,0,0,0,0,0,0,0,0,0,-1,1455,939,0,0
238,85,0,0,0,0,0,0,0,0,0,-1,1462,939,0,0
245,85,0,0,0,0,0,0,0,0,0,-1,1469,939,0,0
252,85,0,0,0,0,0,0,0,0,0,-1,1476,939,0,0
259,85,0,0,0,0,0,0,0,0,0,-1,1483,939,0,0
266,85,0,0,0,0,0,0,0,0,0,-1,1490,939,0,0
273,85,0,0,0,0,0,0,0,0,0,-1,1497,939,0,0
280,85,0,0,0,0,0,0,0,0,0,-1,1504,939,0,0
287,85,0,0,0,0,0,0,0,0,0,-1,1511,939,0,0
294,85,0,0,0,0,0,0,0,0,0,-1,1518,939,0,0
301,85,0,0,0,0,0,0,0,0,0,-1,1525,939,0,0
308,85,0,0,0,0,0,0,0,0,0,-1,1532,939,0,0
315,85,0,0,0,0,0,0,0,0,0,-1,1539,939,0,0
322,85,0,0,0,0,0,0,0,0,0,-1,1546,939,0,0
329,85,0,0,0,0,0,0,0,0,0,-1,1553,939,0,0
336,85,0,0,0,0,0,0,0,0,0,-1,1560,939,0,0
343,85,0,0,0,0,0,0,0,0,0,-1,1567,939,0,0
350,85,0,0,0,0,0,0,0,0,0,-1,1574,939,0,0
357,85,0,0,0,0,0,0,0,0,0,-1,1581,939,0,0
364,85,0,0,0,0,0,0,0,0,0,-1,1588,939,0,0
371,85,0,0,0,0,0,0,0,0,0,-1,1595,939,0,0
378,85,0,0,0,0,0,0,0,0,0,-1,1602,939,0,0
385,85,0,0,0,0,0,0,0,0,0,-1,1609,939,0,0
392,85,0,0,0,0,0,0,0,0,0,-1,1616,939,0,0
399,85,0,0,0,0,0,0,0,0,0,-1,1623,939,0,0
406,85,0,0,0,0,0,0,0,0,0,-1,1630,939,0,0
413,85,0,0,0,0,0,0,0,0,0,-1,1637,939,0,0
420,85,0,0,0,0,0,0,0,0,0,-1,1644,939,0,0
427,85,0,0,0,0,0,0,0,0,0,-1,1651,939,0,0
434,85,0,0,0,0,0,0,0,0,0,-1,1658,939,0,0
441,85,0,0,0,0,0,0,0,0,0,-1,1665,939,0,0
448,85,0,0,0,0,0,0,0,0,0,-1,1672,939,0,0
455,85,0,0,0,0,0,0,0,0,0,-1,1679,939,0,0
462,85,0,0,0,0,0,0,0,0,0,-1,1686,939,0,0
469,85,0,0,0,0,0,0,0,0,0,-1,1693,939,0,0
476,85,0,0,0,0,0,0,0,0,0,-1,1700,939,0,0
483,85,0,0,0,0,0,0,0,0,0,-1,1707,939,0,0
490,85,0,0,0,0,0,0,0,0,0,-1,1714,939,0,0
497,85,0,0,0,0,0,0,0,0,0,-1,1721,939,0,0
504,85,0,0,0,0,0,0,0,0,0,-1,1728,939,0,0
511,85,0,0,0,0,0,0,0,0,0,-1,1735,939,0,0
518,85,0,0,0,0,0,0,0,0,0,-1,1742,939,0,0
525,85,0,0,0,0,0,0,0,0,0,-1,1749,939,0,0
532,85,0,0,0,0,0,0,0,0,0,-1,1756,939,0,0
539,85,0,0,0,0,0,0,0,0,0,-1,1763,939,0,0
546,85,0,0,0,0,0,0,0,0,0,-1,1770,939,0,0
553,85,0,0,0,0,0,0,0,0,0,-1,1777,939,0,0
560,85,0,0,0,0,0,0,0,0,0,-1,1784,939,0,0
567,85,0,0,0,0,0,0,0,0,0,-1,1791,939,0,0
574,85,0,0,0,0,0,0,0,0,0,-1,1798,939,0,0
581,85,0,0,0,0,0,0,0,0,0,-1,1805,939,0,0
588,85,0,0,0,0,0,0,0,0,0,-1,1812,939,0,0
595,85,0,0,0,0,0,0,0,0,0,-1,1819,939,0,0
602,85,0,0,0,0,0,0,0,0,0,-1,1826,939,0,0
609,85,0,0,0,0,0,0,0,0,0,-1,1833,939,0,0
616,85,0,0,0,0,0,0,0,0,0,-1,1840,939,0,0
623,85,0,0,0,0,0,0,0,0,0,-1,1847,939,0,0
630,85,0,0,0,0,0,0,0,0,0,-1,1854,939,0,0
637,85,22.8448,2.75958,0.00131119,0.00248904,-0.0015402,0.00354907,0.000251168,-0.968007,0.00228693,0.0457569,1861,939,22.8448,-2.75959
644,85,22.7599,2.70447,0.00145094,0.00277924,-0.00156491,0.0038151,0.00041508,-0.986079,0.00241695,0.0425983,1868,939,22.7599,-2.70449
651,85,22.6162,2.81653,0.00127318,0.00280968,-0.00150836,0.00373416,0.000348695,-1.02094,0.00238173,0.0443665,1875,939,22.6162,-2.81653
658,85,22.4855,3.03748,0.000151588,0.00281679,-0.00137642,0.00340001,-0.000431629,-1.17001,0.0024234,0.0464788,1882,939,22.4854,-3.03748
665,85,22.6246,3.15155,-0.00121294,0.00271401,-0.00109322,0.00299784,-0.00149677,-1.31678,0.00264276,0.0452599,1889,939,22.6246,-3.15158
672,85,22.8923,2.63403,-0.00249023,0.00246461,-0.000731472,0.00257034,-0.00259596,-1.42725,0.00298278,0.0402583,1896,939,22.8923,-2.63403
679,85,22.863,2.56409,-0.00350513,0.00211276,-0.000366917,0.00213662,-0.00352899,-1.50585,0.0033038,0.0370429,1903,939,22.8631,-2.56411
686,85,22.7815,2.71942,-0.00416159,0.00177151,-0.000112143,0.00177363,-0.00416371,-1.5519,0.00351929,0.0338183,1910,939,22.7815,-2.71943
693,85,22.751,2.81207,-0.00447652,0.00143277,0.00015423,0.00143679,-0.00448054,1.54472,0.00356384,0.0279954,1917,939,22.751,-2.8121
700,85,22.7596,2.75604,-0.00462764,0.00120281,0.000339602,0.00122252,-0.00464735,1.51281,0.00357609,0.0319978,1924,939,22.7597,-2.75606
707,85,22.5234,3.13104,0,0,0,0,0,0,0,-1,1931,939,22.5235,-3.13106
714,85,21.2483,3.44592,0,0,0,0,0,0,0,-1,1938,939,21.2483,-3.44591
721,85,21.2352,3.65356,-0.0042614,0.000671548,0.00036047,0.00069775,-0.0042876,1.49824,0.00311712,0.0244455,1945,939,21.2353,-3.65359
728,85,21.1948,3.87524,-0.00379375,0.000804885,0.000220302,0.000815414,-0.00380428,1.52304,0.00284718,0.0192086,1952,939,21.1948,-3.87527
735,85,21.1764,3.95673,-0.00333559,0.000904063,-0.000234764,0.000917023,-0.00334855,-1.51565,0.00259267,0.0167551,1959,939,21.1764,-3.9567
742,85,21.2157,4.05475,-0.00247642,0.00127901,-0.000456983,0.00133382,-0.00253123,-1.45143,0.0022669,0.0147719,1966,939,21.2156,-4.05477
749,85,21.1774,4.19507,-0.00199074,0.00145778,-0.000907033,0.0016818,-0.00221476,-1.32866,0.00225668,0.0131886,1973,939,21.1774,-4.19505
756,85,21.1439,4.3349,-0.00159858,0.00200845,-0.000997683,0.00226601,-0.00185614,-1.31815,0.00238384,0.0124129,1980,939,21.1439,-4.33488
763,85,21.1555,4.47607,-0.00165472,0.00252825,-0.00115234,0.00282469,-0.00195116,-1.319,0.00277267,0.012502,1987,939,21.1555,-4.47609
770,85,21.14,4.58606,-0.00203093,0.00318305,-0.000971049,0.00335803,-0.0022059,-1.39252,0.00323521,0.0175245,1994,939,21.1401,-4.58603
777,85,21.0897,4.77777,-0.00252021,0.0038047,-0.000491391,0.00384265,-0.00255816,-1.49372,0.00372023,0.038233,2001,939,21.0897,-4.77779
784,85,21.266,4.84576,-0.00327756,0.00446713,0.000402896,0.00448803,-0.00329846,1.51896,0.00451299,0.0474645,2008,939,21.266,-4.84576
791,85,21.7485,4.69745,-0.00442925,0.00524925,0.00183824,0.00558662,-0.00476663,1.38928,0.0059837,0.0474578,2015,939,21.7486,-4.69748
798,85,20.5835,4.15289,0,0,0,0,0,0,0,-1,2022,939,20.5835,-4.15289
805,85,21.8118,3.4942,0,0,0,0,0,0,0,-1,2029,939,21.8116,-3.49421
812,85,0,0,0,0,0,0,0,0,0,-1,2036,939,0,0
-700,78,0,0,0,0,0,0,0,0,0,-1,524,946,0,0
-693,78,0,0,0,0,0,0,0,0,0,-1,531,946,0,0
-686,78,-14.5728,-1.70892,0,0,0,0,0,0,0,-1,538,946,-14.5727,1.70893
-679,78,-14.0071,-1.61041,0.0306233,-0.00271599,0.0567032,0.0730564,-0.0451491,0.642435,0.068877,0.0478412,545,946,-14.0071,1.61042
-672,78,-13.3583,-1.32343,0.018277,0.000966154,0.0506554,0.0610112,-0.041768,0.700781,0.0596852,0.0459334,552,946,-13.3584,1.32341
-665,78,-13.0451,-1.30035,0.00890268,0.00334551,0.0437326,0.0499449,-0.0376967,0.753673,0.0507643,0.0463542,559,946,-13.0451,1.30035
-658,78,-13.6682,0.866638,0.00215279,0.00467457,0.0365525,0.0399879,-0.0331605,0.802639,0.0422935,0.0435496,566,946,-13.6682,-0.866623
-651,78,-13.8701,1.9306,-0.00230337,0.00516031,0.0295658,0.0312288,-0.0283719,0.848177,0.0344237,0.0436925,573,946,-13.8701,-1.93058
-644,78,-14.3546,2.17938,-0.00483644,0.00501327,0.0231153,0.0237225,-0.0235457,0.890357,0.0272903,0.0265131,580,946,-14.3546,-2.17935
-637,78,-14.4308,2.08527,-0.00613729,0.00463033,0.0177954,0.0178385,-0.0193455,0.93229,0.0214741,0.0129507,587,946,-14.4309,-2.08529
-630,78,-14.4838,1.97229,-0.00680829,0.00451939,0.0129659,0.0130046,-0.0152935,0.99132,0.0163557,0.0118323,594,946,-14.4838,-1.97229
-623,78,-14.5049,1.86115,-0.00724879,0.00411988,0.00885134,0.00895495,-0.0120839,1.07083,0.0121915,0.0115659,601,946,-14.5049,-1.86115
-616,78,-14.5183,1.75769,-0.00784173,0.00243926,0.00503623,0.00449517,-0.00989765,1.18322,0.00850259,0.010472,608,946,-14.5183,-1.75768
-609,78,-14.4951,1.64111,-0.00757979,0.00125905,0.00229068,0.00181743,-0.00813817,1.3317,0.00612185,0.0108972,615,946,-14.4951,-1.64111
-602,78,-14.5056,1.52948,-0.00712248,0.000871394,0.000652289,0.00092427,-0.00717536,1.48991,0.00511955,0.0141521,622,946,-14.5055,-1.52948
-595,78,-14.4798,1.38782,-0.00699786,0.000852285,-0.000277917,0.000862112,-0.00700768,-1.53545,0.00498408,0.0145814,629,946,-14.4798,-1.38784
-588,78,-14.4727,1.31757,-0.00706176,0.000597286,-0.000722565,0.000664858,-0.00712933,-1.47755,0.0049893,0.0119678,636,946,-14.4727,-1.31754
-581,78,-14.5182,1.22571,-0.00726251,0.000647597,-0.000887273,0.0007459,-0.00736081,-1.46045,0.00517379,0.0200268,643,946,-14.5182,-1.22573
-574,78,-14.8496,1.06805,-0.00723327,0.00067803,-0.00094424,0.000789166,-0.00734441,-1.45364,0.00517941,0.0263046,650,946,-14.8496,-1.06806
-567,78,-15.2407,0.965393,0,0,0,0,0,0,0,-1,657,946,-15.2407,-0.965391
-560,78,-15.3011,0.802734,-0.00618053,0.00132697,-0.00105268,0.00147178,-0.00632534,-1.43409,0.00478357,0.033076,664,946,-15.3012,-0.802763
-553,78,-15.3362,0.72345,-0.00489444,0.00174505,-0.000977351,0.00188593,-0.00503532,-1.42764,0.00413158,0.0414608,671,946,-15.3363,-0.72347
-546,78,-15.3982,0.881958,-0.00295878,0.00227946,-0.00087947,0.00242317,-0.00310249,-1.40882,0.00319827,0.0437376,678,946,-15.3982,-0.881942
-539,78,-15.2585,1.0874,-0.000343115,0.00293657,-0.000801278,0.00312187,-0.000528411,-1.34354,0.00227791,0.0412095,685,946,-15.2585,-1.08742
-532,78,-15.1509,1.27966,0.00291723,0.00374504,-0.000871593,0.00429602,0.00236626,-1.00707,0.00248457,0.0411164,692,946,-15.1509,-1.27963
-525,78,-15.1,1.26343,0.00624379,0.00481291,-0.00133529,0.00704323,0.00401347,-0.539464,0.00407961,0.0406694,699,946,-15.1,-1.26345
-518,78,-15.2009,0.481873,0.00811462,0.00627283,-0.00226947,0.00964292,0.00474454,-0.59266,0.00556758,0.0415713,706,946,-15.2009,-0.481899
-511,78,0,0,0,0,0,0,0,0,0,-1,713,946,0,0
-504,78,0,0,0,0,0,0,0,0,0,-1,720,946,0,0
-497,78,0,0,0,0,0,0,0,0,0,-1,727,946,0,0
-490,78,0,0,0,0,0,0,0,0,0,-1,734,946,0,0
-483,78,0,0,0,0,0,0,0,0,0,-1,741,946,0,0
-476,78,0,0,0,0,0,0,0,0,0,-1,748,946,0,0
-469,78,0,0,0,0,0,0,0,0,0,-1,755,946,0,0
-462,78,0,0,0,0,0,0,0,0,0,-1,762,946,0,0
-455,78,0,0,0,0,0,0,0,0,0,-1,769,946,0,0
-448,78,0,0,0,0,0,0,0,0,0,-1,776,946,0,0
-441,78,0,0,0,0,0,0,0,0,0,-1,783,946,0,0
-434,78,0,0,0,0,0,0,0,0,0,-1,790,946,0,0
-427,78,0,0,0,0,0,0,0,0,0,-1,797,946,0,0
-420,78,0,0,0,0,0,0,0,0,0,-1,804,946,0,0
-413,78,0,0,0,0,0,0,0,0,0,-1,811,946,0,0
-406,78,0,0,0,0,0,0,0,0,0,-1,818,946,0,0
-399,78,0,0,0,0,0,0,0,0,0,-1,825,946,0,0
-392,78,0,0,0,0,0,0,0,0,0,-1,832,946,0,0
-385,78,0,0,0,0,0,0,0,0,0,-1,839,946,0,0
-378,78,0,0,0,0,0,0,0,0,0,-1,846,946,0,0
-371,78,0,0,0,0,0,0,0,0,0,-1,853,946,0,0
-364,78,0,0,0,0,0,0,0,0,0,-1,860,946,0,0
-357,78,0,0,0,0,0,0,0,0,0,-1,867,946,0,0
-350,78,0,0,0,0,0,0,0,0,0,-1,874,946,0,0
-343,78,0,0,0,0,0,0,0,0,0,-1,881,946,0,0
-336,78,0,0,0,0,0,0,0,0,0,-1,888,946,0,0
-329,78,0,0,0,0,0,0,0,0,0,-1,895,946,0,0
-322,78,0,0,0,0,0,0,0,0,0,-1,902,946,0,0
-315,78,0,0,0,0,0,0,0,0,0,-1,909,946,0,0
-308,78,0,0,0,0,0,0,0,0,0,-1,916,946,0,0
-301,78,0,0,0,0,0,0,0,0,0,-1,923,946,0,0
-294,78,0,0,0,0,0,0,0,0,0,-1,930,946,0,0
-287,78,0,0,0,0,0,0,0,0,0,-1,937,946,0,0
-280,78,0,0,0,0,0,0,0,0,0,-1,944,946,0,0
-273,78,0,0,0,0,0,0,0,0,0,-1,951,946,0,0
-266,78,0,0,0,0,0,0,0,0,0,-1,958,946,0,0
-259,78,0,0,0,0,0,0,0,0,0,-1,965,946,0,0
-252,78,0,0,0,0,0,0,0,0,0,-1,972,946,0,0
-245,78,0,0,0,0,0,0,0,0,0,-1,979,946,0,0
-238,78,0,0,0,0,0,0,0,0,0,-1,986,946,0,0
-231,78,0,0,0,0,0,0,0,0,0,-1,993,946,0,0
-224,78,0,0,0,0,0,0,0,0,0,-1,1000,946,0,0
-217,78,0,0,0,0,0,0,0,0,0,-1,1007,946,0,0
-210,78,0,0,0,0,0,0,0,0,0,-1,1014,946,0,0
-203,78,0,0,0,0,0,0,0,0,0,-1,1021,946,0,0
-196,78,0,0,0,0,0,0,0,0,0,-1,1028,946,0,0
-189,78,0,0,0,0,0,0,0,0,0,-1,1035,946,0,0
-182,78,0,0,0,0,0,0,0,0,0,-1,1042,946,0,0
-175,78,0,0,0,0,0,0,0,0,0,-1,1049,946,0,0
-168,78,0,0,0,0,0,0,0,0,0,-1,1056,946,0,0
-161,78,0,0,0,0,0,0,0,0,0,-1,1063,946,0,0
-154,78,0,0,0,0,0,0,0,0,0,-1,1070,946,0,0
-147,78,0,0,0,0,0,0,0,0,0,-1,1077,946,0,0
-140,78,0,0,0,0,0,0,0,0,0,-1,1084,946,0,0
-133,78,0,0,0,0,0,0,0,0,0,-1,1091,946,0,0
-126,78,0,0,0,0,0,0,0,0,0,-1,1098,946,0,0
-119,78,0,0,0,0,0,0,0,0,0,-1,1105,946,0,0
-112,78,0,0,0,0,0,0,0,0,0,-1,1112,946,0,0
-105,78,0,0,0,0,0,0,0,0,0,-1,1119,946,0,0
-98,78,0,0,0,0,0,0,0,0,0,-1,1126,946,0,0
-91,78,0,0,0,0,0,0,0,0,0,-1,1133,946,0,0
-84,78,0,0,0,0,0,0,0,0,0,-1,1140,946,0,0
-77,78,0,0,0,0,0,0,0,0,0,-1,1147,946,0,0
-70,78,0,0,0,0,0,0,0,0,0,-1,1154,946,0,0
-63,78,0,0,0,0,0,0,0,0,0,-1,1161,946,0,0
-56,78,0,0,0,0,0,0,0,0,0,-1,1168,946,0,0
-49,78,0,0,0,0,0,0,0,0,0,-1,1175,946,0,0
-42,78,0,0,0,0,0,0,0,0,0,-1,1182,946,0,0
-35,78,0,0,0,0,0,0,0,0,0,-1,1189,946,0,0
-28,78,0,0,0,0,0,0,0,0,0,-1,1196,946,0,0
-21,78,0,0,0,0,0,0,0,0,0,-1,1203,946,0,0
-14,78,0,0,0,0,0,0,0,0,0,-1,1210,946,0,0
-7,78,0,0,0,0,0,0,0,0,0,-1,1217,946,0,0
0,78,0,0,0,0,0,0,0,0,0,-1,1224,946,0,0
7,78,0,0,0,0,0,0,0,0,0,-1,1231,946,0,0
14,78,0,0,0,0,0,0,0,0,0,-1,1238,946,0,0
21,78,0,0,0,0,0,0,0,0,0,-1,1245,946,0,0
28,78,0,0,0,0,0,0,0,0,0,-1,1252,946,0,0
35,78,0,0,0,0,0,0,0,0,0,-1,1259,946,0,0
42,78,0,0,0,0,0,0,0,0,0,-1,1266,946,0,0
49,78,0,0,0,0,0,0,0,0,0,-1,1273,946,0,0
56,78,0,0,0,0,0,0,0,0,0,-1,1280,946,0,0
63,78,0,0,0,0,0,0,0,0,0,-1,1287,946,0,0
70,78,0,0,0,0,0,0,0,0,0,-1,1294,946,0,0
77,78,0,0,0,0,0,0,0,0,0,-1,1301,946,0,0
84,78,0,0,0,0,0,0,0,0,0,-1,1308,946,0,0
91,78,0,0,0,0,0,0,0,0,0,-1,1315,946,0,0
98,78,0,0,0,0,0,0,0,0,0,-1,1322,946,0,0
105,78,0,0,0,0,0,0,0,0,0,-1,1329,946,0,0
112,78,0,0,0,0,0,0,0,0,0,-1,1336,946,0,0
119,78,0,0,0,0,0,0,0,0,0,-1,1343,946,0,0
126,78,0,0,0,0,0,0,0,0,0,-1,1350,946,0,0
133,78,0,0,0,0,0,0,0,0,0,-1,1357,946,0,0
140,78,0,0,0,0,0,0,0,0,0,-1,1364,946,0,0
147,78,0,0,0,0,0,0,0,0,0,-1,1371,946,0,0
154,78,0,0,0,0,0,0,0,0,0,-1,1378,946,0,0
161,78,0,0,0,0,0,0,0,0,0,-1,1385,946,0,0
168,78,0,0,0,0,0,0,0,0,0,-1,1392,946,0,0
175,78,0,0,0,0,0,0,0,0,0,-1,1399,946,0,0
182,78,0,0,0,0,0,0,0,0,0,-1,1406,946,0,0
189,78,0,0,0,0,0,0,0,0,0,-1,1413,946,0,0
196,78,0,0,0,0,0,0,0,0,0,-1,1420,946,0,0
203,78,0,0,0,0,0,0,0,0,0,-1,1427,946,0,0
210,78,0,0,0,0,0,0,0,0,0,-1,1434,946,0,0
217,78,0,0,0,0,0,0,0,0,0,-1,1441,946,0,0
224,78,0,0,0,0,0,0,0,0,0,-1,1448,946,0,0
231,78,0,0,0,0,0,0,0,0,0,-1,1455,946,0,0
238,78,0,0,0,0,0,0,0,0,0,-1,1462,946,0,0
245,78,0,0,0,0,0,0,0,0,0,-1,1469,946,0,0
252,78,0,0,0,0,0,0,0,0,0,-1,1476,946,0,0
259,78,0,0,0,0,0,0,0,0,0,-1,1483,946,0,0
266,78,0,0,0,0,0,0,0,0,0,-1,1490,946,0,0
273,78,0,0,0,0,0,0,0,0,0,-1,1497,946,0,0
280,78,0,0,0,0,0,0,0,0,0,-1,1504,946,0,0
287,78,0,0,0,0,0,0,0,0,0,-1,1511,946,0,0
294,78,0,0,0,0,0,0,0,0,0,-1,1518,946,0,0
301,78,0,0,0,0,0,0,0,0,0,-1,1525,946,0,0
308,78,0,0,0,0,0,0,0,0,0,-1,1532,946,0,0
315,78,0,0,0,0,0,0,0,0,0,-1,1539,946,0,0
322,78,0,0,0,0,0,0,0,0,0,-1,1546,946,0,0
329,78,0,0,0,0,0,0,0,0,0,-1,1553,946,0,0
336,78,0,0,0,0,0,0,0,0,0,-1,1560,946,0,0
343,78,0,0,0,0,0,0,0,0,0,-1,1567,946,0,0
350,78,0,0,0,0,0,0,0,0,0,-1,1574,946,0,0
357,78,0,0,0,0,0,0,0,0,0,-1,1581,946,0,0
364,78,0,0,0,0,0,0,0,0,0,-1,1588,946,0,0
371,78,0,0,0,0,0,0,0,0,0,-1,1595,946,0,0
378,78,0,0,0,0,0,0,0,0,0,-1,1602,946,0,0
385,78,0,0,0,0,0,0,0,0,0,-1,1609,946,0,0
392,78,0,0,0,0,0,0,0,0,0,-1,1616,946,0,0
399,78,0,0,0,0,0,0,0,0,0,-1,1623,946,0,0
406,78,0,0,0,0,0,0,0,0,0,-1,1630,946,0,0
413,78,0,0,0,0,0,0,0,0,0,-1,1637,946,0,0
420,78,0,0,0,0,0,0,0,0,0,-1,1644,946,0,0
427,78,0,0,0,0,0,0,0,0,0,-1,1651,946,0,0
434,78,0,0,0,0,0,0,0,0,0,-1,1658,946,0,0
441,78,0,0,0,0,0,0,0,0,0,-1,1665,946,0,0
448,78,0,0,0,0,0,0,0,0,0,-1,1672,946,0,0
455,78,0,0,0,0,0,0,0,0,0,-1,1679,946,0,0
462,78,0,0,0,0,0,0,0,0,0,-1,1686,946,0,0
469,78,0,0,0,0,0,0,0,0,0,-1,1693,946,0,0
476,78,0,0,0,0,0,0,0,0,0,-1,1700,946,0,0
483,78,0,0,0,0,0,0,0,0,0,-1,1707,946,0,0
490,78,0,0,0,0,0,0,0,0,0,-1,1714,946,0,0
497,78,0,0,0,0,0,0,0,0,0,-1,1721,946,0,0
504,78,0,0,0,0,0,0,0,0,0,-1,1728,946,0,0
511,78,0,0,0,0,0,0,0,0,0,-1,1735,946,0,0
518,78,0,0,0,0,0,0,0,0,0,-1,1742,946,0,0
525,78,0,0,0,0,0,0,0,0,0,-1,1749,946,0,0
532,78,0,0,0,0,0,0,0,0,0,-1,1756,946,0,0
539,78,0,0,0,0,0,0,0,0,0,-1,1763,946,0,0
546,78,0,0,0,0,0,0,0,0,0,-1,1770,946,0,0
553,78,0,0,0,0,0,0,0,0,0,-1,1777,946,0,0
560,78,0,0,0,0,0,0,0,0,0,-1,1784,946,0,0
567,78,0,0,0,0,0,0,0,0,0,-1,1791,946,0,0
574,78,0,0,0,0,0,0,0,0,0,-1,1798,946,0,0
581,78,0,0,0,0,0,0,0,0,0,-1,1805,946,0,0
588,78,0,0,0,0,0,0,0,0,0,-1,1812,946,0,0
595,78,0,0,0,0,0,0,0,0,0,-1,1819,946,0,0
602,78,0,0,0,0,0,0,0,0,0,-1,1826,946,0,0
609,78,0,0,0,0,0,0,0,0,0,-1,1833,946,0,0
616,78,0,0,0,0,0,0,0,0,0,-1,1840,946,0,0
623,78,0,0,0,0,0,0,0,0,0,-1,1847,946,0,0
630,78,0,0,0,0,0,0,0,0,0,-1,1854,946,0,0
637,78,22.8856,2.61267,0.00229402,0.00186076,-0.00162256,0.00371434,0.000440433,-0.719035,0.00234325,0.0441842,1861,946,22.8856,-2.61269
644,78,22.8286,2.60522,0.00219886,0.00237044,-0.0016257,0.0039126,0.000656688,-0.81176,0.0024194,0.0428966,1868,946,22.8286,-2.60521
651,78,22.7814,2.78613,0.00186077,0.00250757,-0.00157624,0.00379324,0.000575099,-0.88658,0.00236059,0.0417594,1875,946,22.7813,-2.78612
658,78,22.6642,3.02026,0.000738521,0.00256356,-0.00139886,0.00332122,-1.91423e-05,-1.0744,0.00222056,0.0408526,1882,946,22.6641,-3.02026
665,78,22.825,2.68768,-0.000619953,0.00253624,-0.00101619,0.00283511,-0.000918829,-1.28475,0.00225951,0.0431431,1889,946,22.8249,-2.68767
672,78,22.8644,2.48645,-0.00191109,0.00234115,-0.00054675,0.00241032,-0.00198027,-1.44494,0.00253896,0.0421166,1896,946,22.8644,-2.48645
679,78,22.8228,2.58484,-0.00295185,0.0020432,-8.40398e-05,0.00204461,-0.00295326,-1.55398,0.00290138,0.0388115,1903,946,22.8228,-2.58483
686,78,22.7639,2.69281,-0.0036299,0.00172663,0.000245288,0.00173784,-0.00364111,1.52513,0.00316968,0.0377166,1910,946,22.764,-2.69284
693,78,22.7816,2.71698,-0.00396369,0.00140507,0.000548075,0.00146045,-0.00401907,1.47009,0.00327655,0.0318945,1917,946,22.7816,-2.71698
700,78,22.73,2.73181,-0.00417032,0.00119041,0.000756642,0.00129516,-0.00427507,1.43323,0.00336588,0.0265119,1924,946,22.73,-2.73182
707,78,22.5264,3.12848,-0.00422974,0.00102382,0.000737771,0.00112546,-0.00433138,1.43389,0.00332682,0.042938,1931,946,22.5263,-3.1285
714,78,21.2841,3.50537,0,0,0,0,0,0,0,-1,1938,946,21.2841,-3.50536
721,78,21.3413,3.65381,-0.00408965,0.000657689,0.000711908,0.000762148,-0.00419411,1.42511,0.0030817,0.0219041,1945,946,21.3413,-3.65381
728,78,21.3837,3.86633,-0.00371027,0.000793874,0.00054775,0.000859529,-0.00377593,1.4515,0.00284737,0.020465,1952,946,21.3837,-3.86631
735,78,21.3589,3.94458,-0.00331537,0.000900935,8.69181e-05,0.000902726,-0.00331717,1.55019,0.00256584,0.0142479,1959,946,21.3589,-3.9446
742,78,21.3567,4.05896,-0.00250253,0.00120786,-0.000170324,0.00121566,-0.00251033,-1.52502,0.00219406,0.0135454,1966,946,21.3567,-4.05897
749,78,21.3318,4.19769,-0.0020529,0.00144802,-0.00056883,0.00153812,-0.00214301,-1.4137,0.00213484,0.0132464,1973,946,21.3318,-4.19769
756,78,21.3193,4.31781,-0.00170198,0.00210144,-0.000593445,0.00219188,-0.00179242,-1.41956,0.00230419,0.0137667,1980,946,21.3193,-4.31783
763,78,21.324,4.43683,-0.00157122,0.00270924,-0.00061696,0.00279639,-0.00165837,-1.43047,0.00259978,0.0126498,1987,946,21.324,-4.43686
770,78,21.3026,4.53302,-0.00169564,0.00355475,-0.000205175,0.00356276,-0.00170364,-1.5318,0.00310307,0.0158014,1994,946,21.3026,-4.53303
777,78,21.2147,4.5766,-0.00190443,0.00446458,0.000588392,0.00451848,-0.00195833,1.47944,0.00383553,0.0351454,2001,946,21.2148,-4.57657
784,78,21.4166,4.47589,-0.00234638,0.0055441,0.00189483,0.00597554,-0.00277782,1.34692,0.00516494,0.0458566,2008,946,21.4166,-4.47588
791,78,21.105,4.56018,-0.00314112,0.00689364,0.00385983,0.00820654,-0.00445401,1.24293,0.00741582,0.0454552,2015,946,21.1049,-4.5602
798,78,20.522,4.2843,-0.00456864,0.00873,0.00678545,0.011581,-0.00741962,1.17303,0.0110574,0.0475446,2022,946,20.522,-4.28427
805,78,19.9553,4.06427,0,0,0,0,0,0,0,-1,2029,946,19.9554,-4.06426
812,78,0,0,0,0,0,0,0,0,0,-1,2036,946,0,0
-700,71,0,0,0,0,0,0,0,0,0,-1,524,953,0,0
-693,71,0,0,0,0,0,0,0,0,0,-1,531,953,0,0
-686,71,-14.7944,-0.969849,0,0,0,0,0,0,0,-1,538,953,-14.7944,0.969822
-679,71,-14.2759,-0.890137,0,0,0,0,0,0,0,-1,545,953,-14.2759,0.890129
-672,71,-13.7574,-0.810425,0,0,0,0,0,0,0,-1,552,953,-13.7574,0.810436
-665,71,-13.2026,-0.218567,0,0,0,0,0,0,0,-1,559,953,-13.2026,0.218567
-658,71,-14.5879,2.40778,0,0,0,0,0,0,0,-1,566,953,-14.5879,-2.40775
-651,71,-14.4647,2.46216,-0.000124923,0.00186464,0.0240295,0.0249199,-0.0231802,0.806086,0.0277767,0.0417921,573,953,-14.4647,-2.46214
-644,71,-14.4853,2.24402,-0.00294465,0.00259271,0.0191145,0.019138,-0.01949,0.857321,0.0223022,0.0306279,580,953,-14.4853,-2.24404
-637,71,-14.5674,2.07123,-0.00461444,0.00273991,0.015145,0.0146478,-0.0165223,0.904492,0.0180069,0.0134964,587,953,-14.5674,-2.07123
-630,71,-14.6081,1.96344,-0.00569385,0.00330672,0.011132,0.0108137,-0.0132009,0.977487,0.0138876,0.0122745,594,953,-14.6081,-1.96346
-623,71,-14.632,1.85345,-0.00643932,0.00343672,0.00746977,0.00745311,-0.0104557,1.07746,0.010388,0.0119592,601,953,-14.632,-1.85343
-616,71,-14.6351,1.74573,-0.0072485,0.00229003,0.00414594,0.00384016,-0.00879863,1.213,0.00748186,0.0120451,608,953,-14.6351,-1.74573
-609,71,-14.6025,1.66461,-0.00716625,0.00131582,0.00165603,0.00162767,-0.0074781,1.38466,0.00560727,0.0134252,615,953,-14.6026,-1.66462
-602,71,-14.5893,1.53717,-0.00675345,0.000948517,0.000134819,0.000950876,-0.00675581,1.5533,0.00485199,0.0145501,622,953,-14.5893,-1.53717
-595,71,-14.5963,1.43146,-0.00665234,0.000951897,-0.000753493,0.00102584,-0.00672628,-1.47298,0.00486234,0.0151768,629,953,-14.5963,-1.43145
-588,71,-14.5912,1.3443,-0.00676658,0.000724371,-0.00115717,0.000899052,-0.00694126,-1.42097,0.00495446,0.0156635,636,953,-14.5912,-1.34433
-581,71,-14.7278,1.16833,-0.00694756,0.000756754,-0.00127305,0.000961661,-0.00715247,-1.41121,0.00511906,0.024786,643,953,-14.7278,-1.16832
-574,71,-15.1107,0.994629,-0.00687337,0.000811715,-0.00130625,0.00102767,-0.00708932,-1.40695,0.00510338,0.0304509,650,953,-15.1107,-0.99462
-567,71,-15.2883,0.835632,-0.00657778,0.00130495,-0.00140295,0.0015472,-0.00682002,-1.39981,0.00514062,0.0205257,657,953,-15.2883,-0.835657
-560,71,-15.3071,0.820984,-0.00584194,0.00160342,-0.00129674,0.00182281,-0.00606133,-1.4032,0.00476613,0.02931,664,953,-15.3072,-0.820971
-553,71,-15.3328,0.884521,-0.00453548,0.00211533,-0.00115321,0.00230962,-0.00472976,-1.40389,0.00414348,0.0415079,671,953,-15.3328,-0.884544
-546,71,-15.3011,1.04272,-0.00260118,0.00279621,-0.000984228,0.00297009,-0.00277506,-1.39594,0.0033176,0.0424578,678,953,-15.3011,-1.04274
-539,71,-15.2243,1.13269,-2.45701e-05,0.00368283,-0.000845569,0.00386657,-0.000208318,-1.35682,0.00264989,0.0418701,685,953,-15.2243,-1.13271
-532,71,-15.2217,1.12988,0.00309695,0.00487005,-0.00090039,0.0052471,0.00271991,-1.17423,0.0030301,0.0431807,692,953,-15.2217,-1.12988
-525,71,-15.1835,0.966125,0.00603255,0.00658657,-0.00142112,0.00775743,0.00486169,-0.881654,0.00452644,0.0446732,699,953,-15.1836,-0.966123
-518,71,0,0,0,0,0,0,0,0,0,-1,706,953,0,0
-511,71,0,0,0,0,0,0,0,0,0,-1,713,953,0,0
-504,71,0,0,0,0,0,0,0,0,0,-1,720,953,0,0
-497,71,0,0,0,0,0,0,0,0,0,-1,727,953,0,0
-490,71,0,0,0,0,0,0,0,0,0,-1,734,953,0,0
-483,71,0,0,0,0,0,0,0,0,0,-1,741,953,0,0
-476,71,0,0,0,0,0,0,0,0,0,-1,748,953,0,0
-469,71,0,0,0,0,0,0,0,0,0,-1,755,953,0,0
-462,71,0,0,0,0,0,0,0,0,0,-1,762,953,0,0
-455,71,0,0,0,0,0,0,0,0,0,-1,769,953,0,0
-448,71,0,0,0,0,0,0,0,0,0,-1,776,953,0,0
-441,71,0,0,0,0,0,0,0,0,0,-1,783,953,0,0
-434,71,0,0,0,0,0,0,0,0,0,-1,790,953,0,0
-427,71,0,0,0,0,0,0,0,0,0,-1,797,953,0,0
-420,71,0,0,0,0,0,0,0,0,0,-1,804,953,0,0
-413,71,0,0,0,0,0,0,0,0,0,-1,811,953,0,0
-406,71,0,0,0,0,0,0,0,0,0,-1,818,953,0,0
-399,71,0,0,0,0,0,0,0,0,0,-1,825,953,0,0
-392,71,0,0,0,0,0,0,0,0,0,-1,832,953,0,0
-385,71,0,0,0,0,0,0,0,0,0,-1,839,953,0,0
-378,71,0,0,0,0,0,0,0,0,0,-1,846,953,0,0
-371,71,0,0,0,0,0,0,0,0,0,-1,853,953,0,0
-364,71,0,0,0,0,0,0,0,0,0,-1,860,953,0,0
-357,71,0,0,0,0,0,0,0,0,0,-1,867,953,0,0
-350,71,0,0,0,0,0,0,0,0,0,-1,874,953,0,0
-343,71,0,0,0,0,0,0,0,0,0,-1,881,953,0,0
-336,71,0,0,0,0,0,0,0,0,0,-1,888,953,0,0
-329,71,0,0,0,0,0,0,0,0,0,-1,895,953,0,0
-322,71,0,0,0,0,0,0,0,0,0,-1,902,953,0,0
-315,71,0,0,0,0,0,0,0,0,0,-1,909,953,0,0
-308,71,0,0,0,0,0,0,0,0,0,-1,916,953,0,0
-301,71,0,0,0,0,0,0,0,0,0,-1,923,953,0,0
-294,71,0,0,0,0,0,0,0,0,0,-1,930,953,0,0
-287,71,0,0,0,0,0,0,0,0,0,-1,937,953,0,0
-280,71,0,0,0,0,0,0,0,0,0,-1,944,953,0,0
-273,71,0,0,0,0,0,0,0,0,0,-1,951,953,0,0
-266,71,0,0,0,0,0,0,0,0,0,-1,958,953,0,0
-259,71,0,0,0,0,0,0,0,0,0,-1,965,953,0,0
-252,71,0,0,0,0,0,0,0,0,0,-1,972,953,0,0
-245,71,0,0,0,0,0,0,0,0,0,-1,979,953,0,0
-238,71,0,0,0,0,0,0,0,0,0,-1,986,953,0,0
-231,71,0,0,0,0,0,0,0,0,0,-1,993,953,0,0
-224,71,0,0,0,0,0,0,0,0,0,-1,1000,953,0,0
-217,71,0,0,0,0,0,0,0,0,0,-1,1007,953,0,0
-210,71,0,0,0,0,0,0,0,0,0,-1,1014,953,0,0
-203,71,0,0,0,0,0,0,0,0,0,-1,1021,953,0,0
-196,71,0,0,0,0,0,0,0,0,0,-1,1028,953,0,0
-189,71,0,0,0,0,0,0,0,0,0,-1,1035,953,0,0
-182,71,0,0,0,0,0,0,0,0,0,-1,1042,953,0,0
-175,71,0,0,0,0,0,0,0,0,0,-1,1049,953,0,0
-168,71,0,0,0,0,0,0,0,0,0,-1,1056,953,0,0
-161,71,0,0,0,0,0,0,0,0,0,-1,1063,953,0,0
-154,71,0,0,0,0,0,0,0,0,0,-1,1070,953,0,0
-147,71,0,0,0,0,0,0,0,0,0,-1,1077,953,0,0
-140,71,0,0,0,0,0,0,0,0,0,-1,1084,953,0,0
-133,71,0,0,0,0,0,0,0,0,0,-1,1091,953,0,0
-126,71,0,0,0,0,0,0,0,0,0,-1,1098,953,0,0
-119,71,0,0,0,0,0,0,0,0,0,-1,1105,953,0,0
-112,71,0,0,0,0,0,0,0,0,0,-1,1112,953,0,0
-105,71,0,0,0,0,0,0,0,0,0,-1,1119,953,0,0
-98,71,0,0,0,0,0,0,0,0,0,-1,1126,953,0,0
-91,71,0,0,0,0,0,0,0,0,0,-1,1133,953,0,0
-84,71,0,0,0,0,0,0,0,0,0,-1,1140,953,0,0
-77,71,0,0,0,0,0,0,0,0,0,-1,1147,953,0,0
-70,71,0,0,0,0,0,0,0,0,0,-1,1154,953,0,0
-63,71,0,0,0,0,0,0,0,0,0,-1,1161,953,0,0
-56,71,0,0,0,0,0,0,0,0,0,-1,1168,953,0,0
-49,71,0,0,0,0,0,0,0,0,0,-1,1175,953,0,0
-42,71,0,0,0,0,0,0,0,0,0,-1,1182,953,0,0
-35,71,0,0,0,0,0,0,0,0,0,-1,1189,953,0,0
-28,71,0,0,0,0,0,0,0,0,0,-1,1196,953,0,0
-21,71,0,0,0,0,0,0,0,0,0,-1,1203,953,0,0
-14,71,0,0,0,0,0,0,0,0,0,-1,1210,953,0,0
-7,71,0,0,0,0,0,0,0,0,0,-1,1217,953,0,0
0,71,0,0,0,0,0,0,0,0,0,-1,1224,953,0,0
7,71,0,0,0,0,0,0,0,0,0,-1,1231,953,0,0
14,71,0,0,0,0,0,0,0,0,0,-1,1238,953,0,0
21,71,0,0,0,0,0,0,0,0,0,-1,1245,953,0,0
28,71,0,0,0,0,0,0,0,0,0,-1,1252,953,0,0
35,71,0,0,0,0,0,0,0,0,0,-1,1259,953,0,0
42,71,0,0,0,0,0,0,0,0,0,-1,1266,953,0,0
49,71,0,0,0,0,0,0,0,0,0,-1,1273,953,0,0
56,71,0,0,0,0,0,0,0,0,0,-1,1280,953,0,0
63,71,0,0,0,0,0,0,0,0,0,-1,1287,953,0,0
70,71,0,0,0,0,0,0,0,0,0,-1,1294,953,0,0
77,71,0,0,0,0,0,0,0,0,0,-1,1301,953,0,0
84,71,0,0,0,0,0,0,0,0,0,-1,1308,953,0,0
91,71,0,0,0,0,0,0,0,0,0,-1,1315,953,0,0
98,71,0,0,0,0,0,0,0,0,0,-1,1322,953,0,0
105,71,0,0,0,0,0,0,0,0,0,-1,1329,953,0,0
112,71,0,0,0,0,0,0,0,0,0,-1,1336,953,0,0
119,71,0,0,0,0,0,0,0,0,0,-1,1343,953,0,0
126,71,0,0,0,0,0,0,0,0,0,-1,1350,953,0,0
133,71,0,0,0,0,0,0,0,0,0,-1,1357,953,0,0
140,71,0,0,0,0,0,0,0,0,0,-1,1364,953,0,0
147,71,0,0,0,0,0,0,0,0,0,-1,1371,953,0,0
154,71,0,0,0,0,0,0,0,0,0,-1,1378,953,0,0
161,71,0,0,0,0,0,0,0,0,0,-1,1385,953,0,0
168,71,0,0,0,0,0,0,0,0,0,-1,1392,953,0,0
175,71,0,0,0,0,0,0,0,0,0,-1,1399,953,0,0
182,71,0,0,0,0,0,0,0,0,0,-1,1406,953,0,0
189,71,0,0,0,0,0,0,0,0,0,-1,1413,953,0,0
196,71,0,0,0,0,0,0,0,0,0,-1,1420,953,0,0
203,71,0,0,0,0,0,0,0,0,0,-1,1427,953,0,0
210,71,0,0,0,0,0,0,0,0,0,-1,1434,953,0,0
217,71,0,0,0,0,0,0,0,0,0,-1,1441,953,0,0
224,71,0,0,0,0,0,0,0,0,0,-1,1448,953,0,0
231,71,0,0,0,0,0,0,0,0,0,-1,1455,953,0,0
238,71,0,0,0,0,0,0,0,0,0,-1,1462,953,0,0
245,71,0,0,0,0,0,0,0,0,0,-1,1469,953,0,0
252,71,0,0,0,0,0,0,0,0,0,-1,1476,953,0,0
259,71,0,0,0,0,0,0,0,0,0,-1,1483,953,0,0
266,71,0,0,0,0,0,0,0,0,0,-1,1490,953,0,0
273,71,0,0,0,0,0,0,0,0,0,-1,1497,953,0,0
280,71,0,0,0,0,0,0,0,0,0,-1,1504,953,0,0
287,71,0,0,0,0,0,0,0,0,0,-1,1511,953,0,0
294,71,0,0,0,0,0,0,0,0,0,-1,1518,953,0,0
301,71,0,0,0,0,0,0,0,0,0,-1,1525,953,0,0
308,71,0,0,0,0,0,0,0,0,0,-1,1532,953,0,0
315,71,0,0,0,0,0,0,0,0,0,-1,1539,953,0,0
322,71,0,0,0,0,0,0,0,0,0,-1,1546,953,0,0
329,71,0,0,0,0,0,0,0,0,0,-1,1553,953,0,0
336,71,0,0,0,0,0,0,0,0,0,-1,1560,953,0,0
343,71,0,0,0,0,0,0,0,0,0,-1,1567,953,0,0
350,71,0,0,0,0,0,0,0,0,0,-1,1574,953,0,0
357,71,0,0,0,0,0,0,0,0,0,-1,1581,953,0,0
364,71,0,0,0,0,0,0,0,0,0,-1,1588,953,0,0
371,71,0,0,0,0,0,0,0,0,0,-1,1595,953,0,0
378,71,0,0,0,0,0,0,0,0,0,-1,1602,953,0,0
385,71,0,0,0,0,0,0,0,0,0,-1,1609,953,0,0
392,71,0,0,0,0,0,0,0,0,0,-1,1616,953,0,0
399,71,0,0,0,0,0,0,0,0,0,-1,1623,953,0,0
406,71,0,0,0,0,0,0,0,0,0,-1,1630,953,0,0
413,71,0,0,0,0,0,0,0,0,0,-1,1637,953,0,0
420,71,0,0,0,0,0,0,0,0,0,-1,1644,953,0,0
427,71,0,0,0,0,0,0,0,0,0,-1,1651,953,0,0
434,71,0,0,0,0,0,0,0,0,0,-1,1658,953,0,0
441,71,0,0,0,0,0,0,0,0,0,-1,1665,953,0,0
448,71,0,0,0,0,0,0,0,0,0,-1,1672,953,0,0
455,71,0,0,0,0,0,0,0,0,0,-1,1679,953,0,0
462,71,0,0,0,0,0,0,0,0,0,-1,1686,953,0,0
469,71,0,0,0,0,0,0,0,0,0,-1,1693,953,0,0
476,71,0,0,0,0,0,0,0,0,0,-1,1700,953,0,0
483,71,0,0,0,0,0,0,0,0,0,-1,1707,953,0,0
490,71,0,0,0,0,0,0,0,0,0,-1,1714,953,0,0
497,71,0,0,0,0,0,0,0,0,0,-1,1721,953,0,0
504,71,0,0,0,0,0,0,0,0,0,-1,1728,953,0,0
511,71,0,0,0,0,0,0,0,0,0,-1,1735,953,0,0
518,71,0,0,0,0,0,0,0,0,0,-1,1742,953,0,0
525,71,0,0,0,0,0,0,0,0,0,-1,1749,953,0,0
532,71,0,0,0,0,0,0,0,0,0,-1,1756,953,0,0
539,71,0,0,0,0,0,0,0,0,0,-1,1763,953,0,0
546,71,0,0,0,0,0,0,0,0,0,-1,1770,953,0,0
553,71,0,0,0,0,0,0,0,0,0,-1,1777,953,0,0
560,71,0,0,0,0,0,0,0,0,0,-1,1784,953,0,0
567,71,0,0,0,0,0,0,0,0,0,-1,1791,953,0,0
574,71,0,0,0,0,0,0,0,0,0,-1,1798,953,0,0
581,71,0,0,0,0,0,0,0,0,0,-1,1805,953,0,0
588,71,0,0,0,0,0,0,0,0,0,-1,1812,953,0,0
595,71,0,0,0,0,0,0,0,0,0,-1,1819,953,0,0
602,71,0,0,0,0,0,0,0,0,0,-1,1826,953,0,0
609,71,0,0,0,0,0,0,0,0,0,-1,1833,953,0,0
616,71,0,0,0,0,0,0,0,0,0,-1,1840,953,0,0
623,71,0,0,0,0,0,0,0,0,0,-1,1847,953,0,0
630,71,0,0,0,0,0,0,0,0,0,-1,1854,953,0,0
637,71,22.8157,2.64984,0.00340055,0.00174646,-0.00173774,0.00449802,0.000648991,-0.563295,0.00280747,0.0410171,1861,953,22.8156,-2.64986
644,71,22.7561,2.42871,0.00306331,0.00238179,-0.00169699,0.00445342,0.000991685,-0.686314,0.00269979,0.0427537,1868,953,22.7561,-2.42872
651,71,22.8875,2.48627,0.00253511,0.0025534,-0.00164224,0.00418651,0.00090199,-0.788183,0.00254421,0.0412593,1875,953,22.8875,-2.48629
658,71,22.8167,2.75177,0.00140665,0.00259527,-0.0014109,0.00353193,0.000469996,-0.984733,0.00221464,0.039192,1882,953,22.8166,-2.75175
665,71,22.7219,2.84552,7.81847e-05,0.00261087,-0.000925089,0.00291278,-0.000223724,-1.25534,0.00202056,0.040587,1889,953,22.7219,-2.84551
672,71,22.7439,2.95868,-0.00120088,0.00246054,-0.000340977,0.00249203,-0.00123236,-1.47872,0.00219089,0.0419531,1896,953,22.7439,-2.95865
679,71,22.7134,2.87402,-0.00224718,0.00220459,0.000217791,0.00221522,-0.00225781,1.52203,0.00258254,0.0432116,1903,953,22.7134,-2.87402
686,71,22.7257,2.62994,-0.00293522,0.00190423,0.000623417,0.00198325,-0.00301423,1.44472,0.00290569,0.039449,1910,953,22.7257,-2.62997
693,71,22.7855,2.5257,-0.00329081,0.00158857,0.000963133,0.0017718,-0.00347404,1.3828,0.00308138,0.0339917,1917,953,22.7856,-2.52572
700,71,22.7223,2.64056,-0.00356372,0.00138603,0.00119504,0.00165945,-0.00383714,1.34587,0.00325542,0.0329379,1924,953,22.7223,-2.64057
707,71,22.6481,2.98315,-0.00370587,0.00121878,0.00117749,0.00148584,-0.00397293,1.34777,0.00325884,0.033311,1931,953,22.648,-2.98315
714,71,21.7065,3.57159,0,0,0,0,0,0,0,-1,1938,953,21.7065,-3.57159
721,71,21.5858,3.68304,-0.00376336,0.000858606,0.00108932,0.00110248,-0.00400723,1.35056,0.00310492,0.0297823,1945,953,21.5859,-3.68304
728,71,21.4882,3.86469,-0.0034626,0.000976454,0.000904352,0.00115362,-0.00363977,1.37734,0.00288888,0.0178601,1952,953,21.4882,-3.86469
735,71,21.49,3.94983,-0.00314122,0.00107973,0.000459767,0.00112923,-0.00319072,1.46355,0.00258706,0.0122252,1959,953,21.49,-3.94982
742,71,21.4939,4.04938,-0.00246353,0.00122524,0.000153739,0.00123164,-0.00246993,1.52921,0.0021766,0.0131205,1966,953,21.4939,-4.04935
749,71,21.5063,4.18317,-0.00213607,0.00146414,-0.000214122,0.00147683,-0.00214876,-1.5116,0.00210519,0.0157542,1973,953,21.5063,-4.18319
756,71,21.4797,4.30084,-0.00193943,0.00213233,-0.000201525,0.00214228,-0.00194938,-1.52146,0.0023632,0.0158984,1980,953,21.4797,-4.30084
763,71,21.4557,4.41968,-0.00182174,0.00273389,-0.000166658,0.00273997,-0.00182782,-1.53428,0.00265469,0.0138181,1987,953,21.4557,-4.41969
770,71,21.438,4.53833,-0.00192676,0.00359523,0.000373475,0.00362038,-0.0019519,1.50357,0.00326488,0.0146561,1994,953,21.438,-4.53834
777,71,21.3541,4.55518,-0.00214642,0.0045744,0.00132885,0.0048276,-0.00239963,1.38251,0.0042504,0.0317922,2001,953,21.3541,-4.55515
784,71,21.155,4.6806,-0.00263455,0.00579948,0.0028119,0.006651,-0.00348606,1.27675,0.00594696,0.0452086,2008,953,21.155,-4.68063
791,71,21.1962,4.80811,-0.00351067,0.00738623,0.0049613,0.00930664,-0.00543108,1.20148,0.00860634,0.0456267,2015,953,21.1962,-4.80811
798,71,21.3154,4.78973,-0.00504425,0.00959348,0.00803278,0.0131416,-0.00859237,1.15486,0.0126394,0.0459168,2022,953,21.3155,-4.78971
805,71,24.2678,6.68335,0,0,0,0,0,0,0,-1,2029,953,24.2679,-6.68336
812,71,0,0,0,0,0,0,0,0,0,-1,2036,953,0,0
-700,64,0,0,0,0,0,0,0,0,0,-1,524,960,0,0
-693,64,0,0,0,0,0,0,0,0,0,-1,531,960,0,0
-686,64,-14.9273,-0.164917,0.0451795,-0.0260965,0.0279763,0.0548487,-0.0357656,0.332768,0.0527015,0.0423111,538,960,-14.9273,0.164907
-679,64,-14.6685,-0.110229,0.0324141,-0.0183159,0.0286479,0.0453125,-0.0312143,0.423052,0.044432,0.0430003,545,960,-14.6685,0.110203
-672,64,-14.5506,0.152466,0,0,0,0,0,0,0,-1,552,960,-14.5506,-0.152471
-665,64,-14.3772,2.34662,0,0,0,0,0,0,0,-1,559,960,-14.3772,-2.34664
-658,64,-14.5698,2.43933,0.00663497,-0.00392404,0.0223912,0.0243607,-0.0216498,0.669621,0.0265795,0.0430083,566,960,-14.5697,-2.43933
-651,64,-14.6456,2.43176,0.00185118,-0.00141118,0.0189476,0.0192377,-0.0187977,0.742459,0.0219602,0.0407084,573,960,-14.6456,-2.43174
-644,64,-14.6493,2.20538,-0.00126011,0.000202674,0.0153398,0.0148285,-0.015886,0.80922,0.0177365,0.0302113,580,960,-14.6493,-2.20537
-637,64,-14.691,2.03937,-0.00327479,0.000964303,0.0124917,0.011515,-0.0138255,0.869436,0.0146506,0.0152238,587,960,-14.691,-2.03939
-630,64,-14.7324,1.94714,-0.00467656,0.00215923,0.00919211,0.00854832,-0.0110657,0.963392,0.0113552,0.0123883,594,960,-14.7324,-1.94714
-623,64,-14.741,1.85126,-0.00562784,0.00275469,0.00598295,0.00586838,-0.00874153,1.09094,0.00848923,0.0121532,601,960,-14.741,-1.85123
-616,64,-14.7432,1.74463,-0.00657483,0.00214601,0.00315299,0.00316654,-0.00759536,1.25777,0.00638636,0.0152575,608,960,-14.7432,-1.74462
-609,64,-14.7115,1.66547,-0.00663896,0.00137679,0.000965324,0.00149141,-0.00675357,1.45262,0.00507313,0.0151926,615,960,-14.7115,-1.66545
-602,64,-14.698,1.56006,-0.00624898,0.000991883,-0.000442565,0.00101883,-0.00627593,-1.50998,0.00456165,0.0152767,622,960,-14.698,-1.56008
-595,64,-14.7113,1.46924,-0.00614774,0.000958239,-0.00129035,0.00118529,-0.0063748,-1.39662,0.0046951,0.0163124,629,960,-14.7113,-1.46926
-588,64,-14.7144,1.4209,-0.00629524,0.000717371,-0.00165826,0.00108972,-0.0066676,-1.34991,0.00484929,0.0228261,636,960,-14.7144,-1.42092
-581,64,-14.8943,1.19684,-0.00645282,0.00068095,-0.0017332,0.00107975,-0.00685162,-1.34464,0.00496694,0.0296114,643,960,-14.8943,-1.19682
-574,64,-15.1871,1.00189,-0.00632985,0.000673891,-0.00174026,0.00108247,-0.00673843,-1.34019,0.00489318,0.0330577,650,960,-15.1872,-1.00187
-567,64,-15.2625,0.845032,-0.00600807,0.00103339,-0.00178697,0.00146093,-0.0064356,-1.33596,0.00485126,0.0252596,657,960,-15.2625,-0.845052
-560,64,-15.2904,0.782837,-0.00525516,0.00133648,-0.00165344,0.00172797,-0.00564666,-1.3383,0.00445361,0.0340899,664,960,-15.2904,-0.782853
-553,64,-15.1223,0.973083,-0.00393578,0.00180509,-0.0014765,0.00216257,-0.00429326,-1.33325,0.00379434,0.0395102,671,960,-15.1222,-0.973094
-546,64,-15.0935,1.25452,-0.00201078,0.00248144,-0.00129855,0.00282979,-0.00235913,-1.3087,0.00299993,0.0415131,678,960,-15.0935,-1.25452
-539,64,-15.3376,1.24207,0.000528104,0.00343483,-0.00120757,0.00387104,9.18909e-05,-1.22415,0.00255062,0.0409537,685,960,-15.3376,-1.24209
-532,64,-15.4283,1.0387,0.00353597,0.0048476,-0.00142717,0.00576242,0.00262115,-1.00077,0.00333145,0.0419676,692,960,-15.4283,-1.03869
-525,64,-15.4171,1.08722,0.00619625,0.0070566,-0.00226369,0.00893062,0.00432223,-0.879295,0.00515698,0.04436,699,960,-15.4171,-1.08721
-518,64,0,0,0,0,0,0,0,0,0,-1,706,960,0,0
-511,64,0,0,0,0,0,0,0,0,0,-1,713,960,0,0
-504,64,0,0,0,0,0,0,0,0,0,-1,720,960,0,0
-497,64,0,0,0,0,0,0,0,0,0,-1,727,960,0,0
-490,64,0,0,0,0,0,0,0,0,0,-1,734,960,0,0
-483,64,0,0,0,0,0,0,0,0,0,-1,741,960,0,0
-476,64,0,0,0,0,0,0,0,0,0,-1,748,960,0,0
-469,64,0,0,0,0,0,0,0,0,0,-1,755,960,0,0
-462,64,0,0,0,0,0,0,0,0,0,-1,762,960,0,0
-455,64,0,0,0,0,0,0,0,0,0,-1,769,960,0,0
-448,64,0,0,0,0,0,0,0,0,0,-1,776,960,0,0
-441,64,0,0,0,0,0,0,0,0,0,-1,783,960,0,0
-434,64,0,0,0,0,0,0,0,0,0,-1,790,960,0,0
-427,64,0,0,0,0,0,0,0,0,0,-1,797,960,0,0
-420,64,0,0,0,0,0,0,0,0,0,-1,804,960,0,0
-413,64,0,0,0,0,0,0,0,0,0,-1,811,960,0,0
-406,64,0,0,0,0,0,0,0,0,0,-1,818,960,0,0
-399,64,0,0,0,0,0,0,0,0,0,-1,825,960,0,0
-392,64,0,0,0,0,0,0,0,0,0,-1,832,960,0,0
-385,64,0,0,0,0,0,0,0,0,0,-1,839,960,0,0
-378,64,0,0,0,0,0,0,0,0,0,-1,846,960,0,0
-371,64,0,0,0,0,0,0,0,0,0,-1,853,960,0,0
-364,64,0,0,0,0,0,0,0,0,0,-1,860,960,0,0
-357,64,0,0,0,0,0,0,0,0,0,-1,867,960,0,0
-350,64,0,0,0,0,0,0,0,0,0,-1,874,960,0,0
-343,64,0,0,0,0,0,0,0,0,0,-1,881,960,0,0
-336,64,0,0,0,0,0,0,0,0,0,-1,888,960,0,0
-329,64,0,0,0,0,0,0,0,0,0,-1,895,960,0,0
-322,64,0,0,0,0,0,0,0,0,0,-1,902,960,0,0
-315,64,0,0,0,0,0,0,0,0,0,-1,909,960,0,0
-308,64,0,0,0,0,0,0,0,0,0,-1,916,960,0,0
-301,64,0,0,0,0,0,0,0,0,0,-1,923,960,0,0
-294,64,0,0,0,0,0,0,0,0,0,-1,930,960,0,0
-287,64,0,0,0,0,0,0,0,0,0,-1,937,960,0,0
-280,64,0,0,0,0,0,0,0,0,0,-1,944,960,0,0
-273,64,0,0,0,0,0,0,0,0,0,-1,951,960,0,0
-266,64,0,0,0,0,0,0,0,0,0,-1,958,960,0,0
-259,64,0,0,0,0,0,0,0,0,0,-1,965,960,0,0
-252,64,0,0,0,0,0,0,0,0,0,-1,972,960,0,0
-245,64,0,0,0,0,0,0,0,0,0,-1,979,960,0,0
-238,64,0,0,0,0,0,0,0,0,0,-1,986,960,0,0
-231,64,0,0,0,0,0,0,0,0,0,-1,993,960,0,0
-224,64,0,0,0,0,0,0,0,0,0,-1,1000,960,0,0
-217,64,0,0,0,0,0,0,0,0,0,-1,1007,960,0,0
-210,64,0,0,0,0,0,0,0,0,0,-1,1014,960,0,0
-203,64,0,0,0,0,0,0,0,0,0,-1,1021,960,0,0
-196,64,0,0,0,0,0,0,0,0,0,-1,1028,960,0,0
-189,64,0,0,0,0,0,0,0,0,0,-1,1035,960,0,0
-182,64,0,0,0,0,0,0,0,0,0,-1,1042,960,0,0
-175,64,0,0,0,0,0,0,0,0,0,-1,1049,960,0,0
-168,64,0,0,0,0,0,0,0,0,0,-1,1056,960,0,0
-161,64,0,0,0,0,0,0,0,0,0,-1,1063,960,0,0
-154,64,0,0,0,0,0,0,0,0,0,-1,1070,960,0,0
-147,64,0,0,0,0,0,0,0,0,0,-1,1077,960,0,0
-140,64,0,0,0,0,0,0,0,0,0,-1,1084,960,0,0
-133,64,0,0,0,0,0,0,0,0,0,-1,1091,960,0,0
-126,64,0,0,0,0,0,0,0,0,0,-1,1098,960,0,0
-119,64,0,0,0,0,0,0,0,0,0,-1,1105,960,0,0
-112,64,0,0,0,0,0,0,0,0,0,-1,1112,960,0,0
-105,64,0,0,0,0,0,0,0,0,0,-1,1119,960,0,0
-98,64,0,0,0,0,0,0,0,0,0,-1,1126,960,0,0
-91,64,0,0,0,0,0,0,0,0,0,-1,1133,960,0,0
-84,64,0,0,0,0,0,0,0,0,0,-1,1140,960,0,0
-77,64,0,0,0,0,0,0,0,0,0,-1,1147,960,0,0
-70,64,0,0,0,0,0,0,0,0,0,-1,1154,960,0,0
-63,64,0,0,0,0,0,0,0,0,0,-1,1161,960,0,0
-56,64,0,0,0,0,0,0,0,0,0,-1,1168,960,0,0
-49,64,0,0,0,0,0,0,0,0,0,-1,1175,960,0,0
-42,64,0,0,0,0,0,0,0,0,0,-1,1182,960,0,0
-35,64,0,0,0,0,0,0,0,0,0,-1,1189,960,0,0
-28,64,0,0,0,0,0,0,0,0,0,-1,1196,960,0,0
-21,64,0,0,0,0,0,0,0,0,0,-1,1203,960,0,0
-14,64,0,0,0,0,0,0,0,0,0,-1,1210,960,0,0
-7,64,0,0,0,0,0,0,0,0,0,-1,1217,960,0,0
0,64,0,0,0,0,0,0,0,0,0,-1,1224,960,0,0
7,64,0,0,0,0,0,0,0,0,0,-1,1231,960,0,0
14,64,0,0,0,0,0,0,0,0,0,-1,1238,960,0,0
21,64,0,0,0,0,0,0,0,0,0,-1,1245,960,0,0
28,64,0,0,0,0,0,0,0,0,0,-1,1252,960,0,0
35,64,0,0,0,0,0,0,0,0,0,-1,1259,960,0,0
42,64,0,0,0,0,0,0,0,0,0,-1,1266,960,0,0
49,64,0,0,0,0,0,0,0,0,0,-1,1273,960,0,0
56,64,0,0,0,0,0,0,0,0,0,-1,1280,960,0,0
63,64,0,0,0,0,0,0,0,0,0,-1,1287,960,0,0
70,64,0,0,0,0,0,0,0,0,0,-1,1294,960,0,0
77,64,0,0,0,0,0,0,0,0,0,-1,1301,960,0,0
84,64,0,0,0,0,0,0,0,0,0,-1,1308,960,0,0
91,64,0,0,0,0,0,0,0,0,0,-1,1315,960,0,0
98,64,0,0,0,0,0,0,0,0,0,-1,1322,960,0,0
105,64,0,0,0,0,0,0,0,0,0,-1,1329,960,0,0
112,64,0,0,0,0,0,0,0,0,0,-1,1336,960,0,0
119,64,0,0,0,0,0,0,0,0,0,-1,1343,960,0,0
126,64,0,0,0,0,0,0,0,0,0,-1,1350,960,0,0
133,64,0,0,0,0,0,0,0,0,0,-1,1357,960,0,0
140,64,0,0,0,0,0,0,0,0,0,-1,1364,960,0,0
147,64,0,0,0,0,0,0,0,0,0,-1,1371,960,0,0
154,64,0,0,0,0,0,0,0,0,0,-1,1378,960,0,0
161,64,0,0,0,0,0,0,0,0,0,-1,1385,960,0,0
168,64,0,0,0,0,0,0,0,0,0,-1,1392,960,0,0
175,64,0,0,0,0,0,0,0,0,0,-1,1399,960,0,0
182,64,0,0,0,0,0,0,0,0,0,-1,1406,960,0,0
189,64,0,0,0,0,0,0,0,0,0,-1,1413,960,0,0
196,64,0,0,0,0,0,0,0,0,0,-1,1420,960,0,0
203,64,0,0,0,0,0,0,0,0,0,-1,1427,960,0,0
210,64,0,0,0,0,0,0,0,0,0,-1,1434,960,0,0
217,64,0,0,0,0,0,0,0,0,0,-1,1441,960,0,0
224,64,0,0,0,0,0,0,0,0,0,-1,1448,960,0,0
231,64,0,0,0,0,0,0,0,0,0,-1,1455,960,0,0
238,64,0,0,0,0,0,0,0,0,0,-1,1462,960,0,0
245,64,0,0,0,0,0,0,0,0,0,-1,1469,960,0,0
252,64,0,0,0,0,0,0,0,0,0,-1,1476,960,0,0
259,64,0,0,0,0,0,0,0,0,0,-1,1483,960,0,0
266,64,0,0,0,0,0,0,0,0,0,-1,1490,960,0,0
273,64,0,0,0,0,0,0,0,0,0,-1,1497,960,0,0
280,64,0,0,0,0,0,0,0,0,0,-1,1504,960,0,0
287,64,0,0,0,0,0,0,0,0,0,-1,1511,960,0,0
294,64,0,0,0,0,0,0,0,0,0,-1,1518,960,0,0
301,64,0,0,0,0,0,0,0,0,0,-1,1525,960,0,0
308,64,0,0,0,0,0,0,0,0,0,-1,1532,960,0,0
315,64,0,0,0,0,0,0,0,0,0,-1,1539,960,0,0
322,64,0,0,0,0,0,0,0,0,0,-1,1546,960,0,0
329,64,0,0,0,0,0,0,0,0,0,-1,1553,960,0,0
336,64,0,0,0,0,0,0,0,0,0,-1,1560,960,0,0
343,64,0,0,0,0,0,0,0,0,0,-1,1567,960,0,0
350,64,0,0,0,0,0,0,0,0,0,-1,1574,960,0,0
357,64,0,0,0,0,0,0,0,0,0,-1,1581,960,0,0
364,64,0,0,0,0,0,0,0,0,0,-1,1588,960,0,0
371,64,0,0,0,0,0,0,0,0,0,-1,1595,960,0,0
378,64,0,0,0,0,0,0,0,0,0,-1,1602,960,0,0
385,64,0,0,0,0,0,0,0,0,0,-1,1609,960,0,0
392,64,0,0,0,0,0,0,0,0,0,-1,1616,960,0,0
399,64,0,0,0,0,0,0,0,0,0,-1,1623,960,0,0
406,64,0,0,0,0,0,0,0,0,0,-1,1630,960,0,0
413,64,0,0,0,0,0,0,0,0,0,-1,1637,960,0,0
420,64,0,0,0,0,0,0,0,0,0,-1,1644,960,0,0
427,64,0,0,0,0,0,0,0,0,0,-1,1651,960,0,0
434,64,0,0,0,0,0,0,0,0,0,-1,1658,960,0,0
441,64,0,0,0,0,0,0,0,0,0,-1,1665,960,0,0
448,64,0,0,0,0,0,0,0,0,0,-1,1672,960,0,0
455,64,0,0,0,0,0,0,0,0,0,-1,1679,960,0,0
462,64,0,0,0,0,0,0,0,0,0,-1,1686,960,0,0
469,64,0,0,0,0,0,0,0,0,0,-1,1693,960,0,0
476,64,0,0,0,0,0,0,0,0,0,-1,1700,960,0,0
483,64,0,0,0,0,0,0,0,0,0,-1,1707,960,0,0
490,64,0,0,0,0,0,0,0,0,0,-1,1714,960,0,0
497,64,0,0,0,0,0,0,0,0,0,-1,1721,960,0,0
504,64,0,0,0,0,0,0,0,0,0,-1,1728,960,0,0
511,64,0,0,0,0,0,0,0,0,0,-1,1735,960,0,0
518,64,0,0,0,0,0,0,0,0,0,-1,1742,960,0,0
525,64,0,0,0,0,0,0,0,0,0,-1,1749,960,0,0
532,64,0,0,0,0,0,0,0,0,0,-1,1756,960,0,0
539,64,0,0,0,0,0,0,0,0,0,-1,1763,960,0,0
546,64,0,0,0,0,0,0,0,0,0,-1,1770,960,0,0
553,64,0,0,0,0,0,0,0,0,0,-1,1777,960,0,0
560,64,0,0,0,0,0,0,0,0,0,-1,1784,960,0,0
567,64,0,0,0,0,0,0,0,0,0,-1,1791,960,0,0
574,64,0,0,0,0,0,0,0,0,0,-1,1798,960,0,0
581,64,0,0,0,0,0,0,0,0,0,-1,1805,960,0,0
588,64,0,0,0,0,0,0,0,0,0,-1,1812,960,0,0
595,64,0,0,0,0,0,0,0,0,0,-1,1819,960,0,0
602,64,0,0,0,0,0,0,0,0,0,-1,1826,960,0,0
609,64,0,0,0,0,0,0,0,0,0,-1,1833,960,0,0
616,64,0,0,0,0,0,0,0,0,0,-1,1840,960,0,0
623,64,0,0,0,0,0,0,0,0,0,-1,1847,960,0,0
630,64,0,0,0,0,0,0,0,0,0,-1,1854,960,0,0
637,64,0,0,0,0,0,0,0,0,0,-1,1861,960,0,0
644,64,22.7909,2.6131,0.00372925,0.00216502,-0.00202152,0.00511468,0.000779585,-0.600819,0.00318192,0.0435046,1868,960,22.7909,-2.61309
651,64,22.8992,2.47009,0.00290396,0.00234273,-0.00179848,0.00444358,0.000803105,-0.708008,0.00273429,0.0413928,1875,960,22.8992,-2.47011
658,64,22.7939,2.68799,0.00173514,0.00236141,-0.00143231,0.00351441,0.000582138,-0.893017,0.00217502,0.0362906,1882,960,22.794,-2.68798
665,64,22.751,2.93256,0.000445563,0.0024162,-0.000817352,0.00271108,0.000150679,-1.22455,0.00175931,0.0390116,1889,960,22.7509,-2.93253
672,64,22.7385,3.14404,-0.000770266,0.00233893,-0.000107577,0.00234264,-0.000773984,-1.53625,0.00187382,0.0449386,1896,960,22.7386,-3.14402
679,64,22.6667,3.04608,-0.00176977,0.00215615,0.000542175,0.00222965,-0.00184326,1.43605,0.00235502,0.0422708,1903,960,22.6668,-3.04606
686,64,22.739,2.53815,-0.00241828,0.00190504,0.00102621,0.00213626,-0.0026495,1.34918,0.00276835,0.0376944,1910,960,22.739,-2.53815
693,64,22.7946,2.47552,-0.00275249,0.00162667,0.00139988,0.00203592,-0.00316174,1.28637,0.00302425,0.033235,1917,960,22.7946,-2.4755
700,64,22.7769,2.64087,-0.0030368,0.0014776,0.00164964,0.00201616,-0.00357536,1.25524,0.00326984,0.0296999,1924,960,22.7768,-2.64085
707,64,22.7135,2.88654,-0.00320596,0.0013483,0.00162881,0.00187088,-0.00372853,1.26034,0.00329159,0.0373959,1931,960,22.7135,-2.88653
714,64,22.359,3.39575,0,0,0,0,0,0,0,-1,1938,960,22.3591,-3.39575
721,64,21.6006,3.74152,0,0,0,0,0,0,0,-1,1945,960,21.6005,-3.74152
728,64,21.5822,3.86346,-0.00312521,0.00119566,0.00125503,0.00153374,-0.00346329,1.30766,0.00295586,0.0143018,1952,960,21.5822,-3.86349
735,64,21.5885,3.97235,-0.00275593,0.00131378,0.000911043,0.00150841,-0.00295056,1.36032,0.00261889,0.0173729,1959,960,21.5885,-3.97232
742,64,21.625,4.04968,-0.00202041,0.00140528,0.000690967,0.0015394,-0.00215453,1.37908,0.00214252,0.0159653,1966,960,21.625,-4.04967
749,64,21.6216,4.16193,-0.00168379,0.00172349,0.000461098,0.00178478,-0.00174509,1.43864,0.00203801,0.0137139,1973,960,21.6216,-4.16194
756,64,21.6062,4.27863,-0.00147181,0.0024976,0.000673803,0.00260886,-0.00158307,1.40715,0.00244424,0.0147706,1980,960,21.6062,-4.27864
763,64,21.5813,4.39124,-0.00109695,0.00319091,0.00101151,0.00341754,-0.00132359,1.35038,0.00282488,0.013527,1987,960,21.5813,-4.39122
770,64,21.5526,4.50385,-0.000787841,0.00419466,0.00201652,0.00490851,-0.00150169,1.23056,0.00387124,0.0132143,1994,960,21.5526,-4.50387
777,64,21.4677,4.58392,-0.00051782,0.0053642,0.00357031,0.00704884,-0.00220246,1.12992,0.00558019,0.0291351,2001,960,21.4677,-4.58393
784,64,21.4702,4.62439,-0.000468566,0.00684488,0.00575063,0.0100029,-0.00362664,1.06859,0.00815103,0.0430617,2008,960,21.4702,-4.62439
791,64,21.5028,4.71613,0,0,0,0,0,0,0,-1,2015,960,21.5029,-4.71614
798,64,23.5968,6.16583,0,0,0,0,0,0,0,-1,2022,960,23.5969,-6.16584
805,64,23.6077,6.54272,0,0,0,0,0,0,0,-1,2029,960,23.6076,-6.54275
812,64,0,0,0,0,0,0,0,0,0,-1,2036,960,0,0
-700,57,0,0,0,0,0,0,0,0,0,-1,524,967,0,0
-693,57,0,0,0,0,0,0,0,0,0,-1,531,967,0,0
-686,57,-15.3383,0.644714,0.0430737,-0.025872,0.0119962,0.0451013,-0.0278997,0.167442,0.0425354,0.0412138,538,967,-15.3383,-0.644706
-679,57,-14.9964,0.712036,0.0317608,-0.0189119,0.0154985,0.0361252,-0.0232763,0.274493,0.0345619,0.0434466,545,967,-14.9964,-0.712063
-672,57,-14.6235,0.778625,0.0221205,-0.0132493,0.0169261,0.0289151,-0.0200439,0.381738,0.0284208,0.046716,552,967,-14.6235,-0.778612
-665,57,-14.2029,2.27515,0,0,0,0,0,0,0,-1,559,967,-14.2029,-2.27515
-658,57,-14.3549,2.27679,0.00785608,-0.00516164,0.0157296,0.0183703,-0.0156759,0.589227,0.0196771,0.0485919,566,967,-14.3548,-2.2768
-651,57,-14.7487,2.32782,0.00319053,-0.00254534,0.0138595,0.0144757,-0.0138306,0.683374,0.0163441,0.0443622,573,967,-14.7487,-2.32785
-644,57,-14.7664,2.12177,4.72075e-05,-0.000757493,0.0115282,0.0111801,-0.0118904,0.767955,0.0133218,0.0294497,580,967,-14.7664,-2.12175
-637,57,-14.7897,1.99457,-0.00212421,8.88947e-05,0.00976264,0.00880749,-0.0108428,0.84183,0.0113654,0.0151178,587,967,-14.7897,-1.99456
-630,57,-14.8377,1.91119,-0.00368153,0.00143672,0.00723947,0.00655607,-0.00880088,0.955291,0.00889786,0.0119736,594,967,-14.8377,-1.91118
-623,57,-14.8422,1.83459,-0.00475424,0.00226269,0.00448613,0.00444937,-0.00694092,1.11725,0.00662842,0.0113616,601,967,-14.8422,-1.83459
-616,57,-14.8403,1.74335,-0.0057995,0.00199496,0.00216491,0.00255589,-0.00636044,1.31727,0.00530176,0.0134678,608,967,-14.8403,-1.74335
-609,57,-14.833,1.63147,-0.00596833,0.00138002,0.00027486,0.00139029,-0.0059786,1.53346,0.00452099,0.0143457,615,967,-14.833,-1.63149
-602,57,-14.8298,1.55212,-0.00560353,0.000961186,-0.00100756,0.00111235,-0.00575469,-1.42188,0.00425598,0.0107455,622,967,-14.8298,-1.55214
-595,57,-14.821,1.48425,-0.00551593,0.000847492,-0.00181297,0.00132777,-0.00599621,-1.31183,0.00450575,0.0122157,629,967,-14.821,-1.48427
-588,57,-14.8421,1.46277,-0.00568312,0.00055157,-0.00215079,0.00122154,-0.00635308,-1.26882,0.00469583,0.018019,636,967,-14.8421,-1.46275
-581,57,-15.0364,1.16595,-0.00580248,0.000410217,-0.00219775,0.00110906,-0.00650133,-1.26292,0.00474729,0.0259026,643,967,-15.0363,-1.16593
-574,57,-15.2146,0.874207,-0.005641,0.000295579,-0.00217484,0.00100705,-0.00635247,-1.25463,0.0046075,0.0282272,650,967,-15.2146,-0.874231
-567,57,-15.2102,0.827148,-0.00530139,0.000455989,-0.00215531,0.00117344,-0.00601884,-1.24946,0.00445551,0.0310105,657,967,-15.2102,-0.827144
-560,57,-15.2257,0.745605,-0.00453286,0.000579558,-0.00195693,0.00124263,-0.00519594,-1.2441,0.00394397,0.0387093,664,967,-15.2257,-0.745608
-553,57,-15.1021,0.731628,-0.00322623,0.000839553,-0.00171402,0.00146571,-0.00385238,-1.22055,0.00317179,0.0388122,671,967,-15.102,-0.731647
-546,57,-15.1075,0.772339,-0.00134378,0.001278,-0.00147612,0.00194129,-0.00200707,-1.14849,0.00227969,0.0431231,678,967,-15.1075,-0.772347
-539,57,-15.5281,0.793457,0.00112795,0.00196103,-0.00135995,0.0029668,0.000122184,-0.934008,0.00193842,0.0454701,685,967,-15.5281,-0.793477
-532,57,-15.5823,0.685425,0.00398813,0.00310396,-0.00162923,0.00523419,0.0018579,-0.652914,0.00306405,0.0424709,692,967,-15.5824,-0.685398
-525,57,-15.2784,0.739685,0.00638955,0.00504037,-0.00256434,0.00836655,0.00306337,-0.656779,0.00488779,0.0441482,699,967,-15.2784,-0.739662
-518,57,0,0,0,0,0,0,0,0,0,-1,706,967,0,0
-511,57,0,0,0,0,0,0,0,0,0,-1,713,967,0,0
-504,57,0,0,0,0,0,0,0,0,0,-1,720,967,0,0
-497,57,0,0,0,0,0,0,0,0,0,-1,727,967,0,0
-490,57,0,0,0,0,0,0,0,0,0,-1,734,967,0,0
-483,57,0,0,0,0,0,0,0,0,0,-1,741,967,0,0
-476,57,0,0,0,0,0,0,0,0,0,-1,748,967,0,0
-469,57,0,0,0,0,0,0,0,0,0,-1,755,967,0,0
-462,57,0,0,0,0,0,0,0,0,0,-1,762,967,0,0
-455,57,0,0,0,0,0,0,0,0,0,-1,769,967,0,0
-448,57,0,0,0,0,0,0,0,0,0,-1,776,967,0,0
-441,57,0,0,0,0,0,0,0,0,0,-1,783,967,0,0
-434,57,0,0,0,0,0,0,0,0,0,-1,790,967,0,0
-427,57,0,0,0,0,0,0,0,0,0,-1,797,967,0,0
-420,57,0,0,0,0,0,0,0,0,0,-1,804,967,0,0
-413,57,0,0,0,0,0,0,0,0,0,-1,811,967,0,0
-406,57,0,0,0,0,0,0,0,0,0,-1,818,967,0,0
-399,57,0,0,0,0,0,0,0,0,0,-1,825,967,0,0
-392,57,0,0,0,0,0,0,0,0,0,-1,832,967,0,0
-385,57,0,0,0,0,0,0,0,0,0,-1,839,967,0,0
-378,57,0,0,0,0,0,0,0,0,0,-1,846,967,0,0
-371,57,0,0,0,0,0,0,0,0,0,-1,853,967,0,0
-364,57,0,0,0,0,0,0,0,0,0,-1,860,967,0,0
-357,57,0,0,0,0,0,0,0,0,0,-1,867,967,0,0
-350,57,0,0,0,0,0,0,0,0,0,-1,874,967,0,0
-343,57,0,0,0,0,0,0,0,0,0,-1,881,967,0,0
-336,57,0,0,0,0,0,0,0,0,0,-1,888,967,0,0
-329,57,0,0,0,0,0,0,0,0,0,-1,895,967,0,0
-322,57,0,0,0,0,0,0,0,0,0,-1,902,967,0,0
-315,57,0,0,0,0,0,0,0,0,0,-1,909,967,0,0
-308,57,0,0,0,0,0,0,0,0,0,-1,916,967,0,0
-301,57,0,0,0,0,0,0,0,0,0,-1,923,967,0,0
-294,57,0,0,0,0,0,0,0,0,0,-1,930,967,0,0
-287,57,0,0,0,0,0,0,0,0,0,-1,937,967,0,0
-280,57,0,0,0,0,0,0,0,0,0,-1,944,967,0,0
-273,57,0,0,0,0,0,0,0,0,0,-1,951,967,0,0
-266,57,0,0,0,0,0,0,0,0,0,-1,958,967,0,0
-259,57,0,0,0,0,0,0,0,0,0,-1,965,967,0,0
-252,57,0,0,0,0,0,0,0,0,0,-1,972,967,0,0
-245,57,0,0,0,0,0,0,0,0,0,-1,979,967,0,0
-238,57,0,0,0,0,0,0,0,0,0,-1,986,967,0,0
-231,57,0,0,0,0,0,0,0,0,0,-1,993,967,0,0
-224,57,0,0,0,0,0,0,0,0,0,-1,1000,967,0,0
-217,57,0,0,0,0,0,0,0,0,0,-1,1007,967,0,0
-210,57,0,0,0,0,0,0,0,0,0,-1,1014,967,0,0
-203,57,0,0,0,0,0,0,0,0,0,-1,1021,967,0,0
-196,57,0,0,0,0,0,0,0,0,0,-1,1028,967,0,0
-189,57,0,0,0,0,0,0,0,0,0,-1,1035,967,0,0
-182,57,0,0,0,0,0,0,0,0,0,-1,1042,967,0,0
-175,57,0,0,0,0,0,0,0,0,0,-1,1049,967,0,0
-168,57,0,0,0,0,0,0,0,0,0,-1,1056,967,0,0
-161,57,0,0,0,0,0,0,0,0,0,-1,1063,967,0,0
-154,57,0,0,0,0,0,0,0,0,0,-1,1070,967,0,0
-147,57,0,0,0,0,0,0,0,0,0,-1,1077,967,0,0
-140,57,0,0,0,0,0,0,0,0,0,-1,1084,967,0,0
-133,57,0,0,0,0,0,0,0,0,0,-1,1091,967,0,0
-126,57,0,0,0,0,0,0,0,0,0,-1,1098,967,0,0
-119,57,0,0,0,0,0,0,0,0,0,-1,1105,967,0,0
-112,57,0,0,0,0,0,0,0,0,0,-1,1112,967,0,0
-105,57,0,0,0,0,0,0,0,0,0,-1,1119,967,0,0
-98,57,0,0,0,0,0,0,0,0,0,-1,1126,967,0,0
-91,57,0,0,0,0,0,0,0,0,0,-1,1133,967,0,0
-84,57,0,0,0,0,0,0,0,0,0,-1,1140,967,0,0
-77,57,0,0,0,0,0,0,0,0,0,-1,1147,967,0,0
-70,57,0,0,0,0,0,0,0,0,0,-1,1154,967,0,0
-63,57,0,0,0,0,0,0,0,0,0,-1,1161,967,0,0
-56,57,0,0,0,0,0,0,0,0,0,-1,1168,967,0,0
-49,57,0,0,0,0,0,0,0,0,0,-1,1175,967,0,0
-42,57,0,0,0,0,0,0,0,0,0,-1,1182,967,0,0
-35,57,0,0,0,0,0,0,0,0,0,-1,1189,967,0,0
-28,57,0,0,0,0,0,0,0,0,0,-1,1196,967,0,0
-21,57,0,0,0,0,0,0,0,0,0,-1,1203,967,0,0
-14,57,0,0,0,0,0,0,0,0,0,-1,1210,967,0,0
-7,57,0,0,0,0,0,0,0,0,0,-1,1217,967,0,0
0,57,0,0,0,0,0,0,0,0,0,-1,1224,967,0,0
7,57,0,0,0,0,0,0,0,0,0,-1,1231,967,0,0
14,57,0,0,0,0,0,0,0,0,0,-1,1238,967,0,0
21,57,0,0,0,0,0,0,0,0,0,-1,1245,967,0,0
28,57,0,0,0,0,0,0,0,0,0,-1,1252,967,0,0
35,57,0,0,0,0,0,0,0,0,0,-1,1259,967,0,0
42,57,0,0,0,0,0,0,0,0,0,-1,1266,967,0,0
49,57,0,0,0,0,0,0,0,0,0,-1,1273,967,0,0
56,57,0,0,0,0,0,0,0,0,0,-1,1280,967,0,0
63,57,0,0,0,0,0,0,0,0,0,-1,1287,967,0,0
70,57,0,0,0,0,0,0,0,0,0,-1,1294,967,0,0
77,57,0,0,0,0,0,0,0,0,0,-1,1301,967,0,0
84,57,0,0,0,0,0,0,0,0,0,-1,1308,967,0,0
91,57,0,0,0,0,0,0,0,0,0,-1,1315,967,0,0
98,57,0,0,0,0,0,0,0,0,0,-1,1322,967,0,0
105,57,0,0,0,0,0,0,0,0,0,-1,1329,967,0,0
112,57,0,0,0,0,0,0,0,0,0,-1,1336,967,0,0
119,57,0,0,0,0,0,0,0,0,0,-1,1343,967,0,0
126,57,0,0,0,0,0,0,0,0,0,-1,1350,967,0,0
133,57,0,0,0,0,0,0,0,0,0,-1,1357,967,0,0
140,57,0,0,0,0,0,0,0,0,0,-1,1364,967,0,0
147,57,0,0,0,0,0,0,0,0,0,-1,1371,967,0,0
154,57,0,0,0,0,0,0,0,0,0,-1,1378,967,0,0
161,57,0,0,0,0,0,0,0,0,0,-1,1385,967,0,0
168,57,0,0,0,0,0,0,0,0,0,-1,1392,967,0,0
175,57,0,0,0,0,0,0,0,0,0,-1,1399,967,0,0
182,57,0,0,0,0,0,0,0,0,0,-1,1406,967,0,0
189,57,0,0,0,0,0,0,0,0,0,-1,1413,967,0,0
196,57,0,0,0,0,0,0,0,0,0,-1,1420,967,0,0
203,57,0,0,0,0,0,0,0,0,0,-1,1427,967,0,0
210,57,0,0,0,0,0,0,0,0,0,-1,1434,967,0,0
217,57,0,0,0,0,0,0,0,0,0,-1,1441,967,0,0
224,57,0,0,0,0,0,0,0,0,0,-1,1448,967,0,0
231,57,0,0,0,0,0,0,0,0,0,-1,1455,967,0,0
238,57,0,0,0,0,0,0,0,0,0,-1,1462,967,0,0
245,57,0,0,0,0,0,0,0,0,0,-1,1469,967,0,0
252,57,0,0,0,0,0,0,0,0,0,-1,1476,967,0,0
259,57,0,0,0,0,0,0,0,0,0,-1,1483,967,0,0
266,57,0,0,0,0,0,0,0,0,0,-1,1490,967,0,0
273,57,0,0,0,0,0,0,0,0,0,-1,1497,967,0,0
280,57,0,0,0,0,0,0,0,0,0,-1,1504,967,0,0
287,57,0,0,0,0,0,0,0,0,0,-1,1511,967,0,0
294,57,0,0,0,0,0,0,0,0,0,-1,1518,967,0,0
301,57,0,0,0,0,0,0,0,0,0,-1,1525,967,0,0
308,57,0,0,0,0,0,0,0,0,0,-1,1532,967,0,0
315,57,0,0,0,0,0,0,0,0,0,-1,1539,967,0,0
322,57,0,0,0,0,0,0,0,0,0,-1,1546,967,0,0
329,57,0,0,0,0,0,0,0,0,0,-1,1553,967,0,0
336,57,0,0,0,0,0,0,0,0,0,-1,1560,967,0,0
343,57,0,0,0,0,0,0,0,0,0,-1,1567,967,0,0
350,57,0,0,0,0,0,0,0,0,0,-1,1574,967,0,0
357,57,0,0,0,0,0,0,0,0,0,-1,1581,967,0,0
364,57,0,0,0,0,0,0,0,0,0,-1,1588,967,0,0
371,57,0,0,0,0,0,0,0,0,0,-1,1595,967,0,0
378,57,0,0,0,0,0,0,0,0,0,-1,1602,967,0,0
385,57,0,0,0,0,0,0,0,0,0,-1,1609,967,0,0
392,57,0,0,0,0,0,0,0,0,0,-1,1616,967,0,0
399,57,0,0,0,0,0,0,0,0,0,-1,1623,967,0,0
406,57,0,0,0,0,0,0,0,0,0,-1,1630,967,0,0
413,57,0,0,0,0,0,0,0,0,0,-1,1637,967,0,0
420,57,0,0,0,0,0,0,0,0,0,-1,1644,967,0,0
427,57,0,0,0,0,0,0,0,0,0,-1,1651,967,0,0
434,57,0,0,0,0,0,0,0,0,0,-1,1658,967,0,0
441,57,0,0,0,0,0,0,0,0,0,-1,1665,967,0,0
448,57,0,0,0,0,0,0,0,0,0,-1,1672,967,0,0
455,57,0,0,0,0,0,0,0,0,0,-1,1679,967,0,0
462,57,0,0,0,0,0,0,0,0,0,-1,1686,967,0,0
469,57,0,0,0,0,0,0,0,0,0,-1,1693,967,0,0
476,57,0,0,0,0,0,0,0,0,0,-1,1700,967,0,0
483,57,0,0,0,0,0,0,0,0,0,-1,1707,967,0,0
490,57,0,0,0,0,0,0,0,0,0,-1,1714,967,0,0
497,57,0,0,0,0,0,0,0,0,0,-1,1721,967,0,0
504,57,0,0,0,0,0,0,0,0,0,-1,1728,967,0,0
511,57,0,0,0,0,0,0,0,0,0,-1,1735,967,0,0
518,57,0,0,0,0,0,0,0,0,0,-1,1742,967,0,0
525,57,0,0,0,0,0,0,0,0,0,-1,1749,967,0,0
532,57,0,0,0,0,0,0,0,0,0,-1,1756,967,0,0
539,57,0,0,0,0,0,0,0,0,0,-1,1763,967,0,0
546,57,0,0,0,0,0,0,0,0,0,-1,1770,967,0,0
553,57,0,0,0,0,0,0,0,0,0,-1,1777,967,0,0
560,57,0,0,0,0,0,0,0,0,0,-1,1784,967,0,0
567,57,0,0,0,0,0,0,0,0,0,-1,1791,967,0,0
574,57,0,0,0,0,0,0,0,0,0,-1,1798,967,0,0
581,57,0,0,0,0,0,0,0,0,0,-1,1805,967,0,0
588,57,0,0,0,0,0,0,0,0,0,-1,1812,967,0,0
595,57,0,0,0,0,0,0,0,0,0,-1,1819,967,0,0
602,57,0,0,0,0,0,0,0,0,0,-1,1826,967,0,0
609,57,0,0,0,0,0,0,0,0,0,-1,1833,967,0,0
616,57,0,0,0,0,0,0,0,0,0,-1,1840,967,0,0
623,57,0,0,0,0,0,0,0,0,0,-1,1847,967,0,0
630,57,0,0,0,0,0,0,0,0,0,-1,1854,967,0,0
637,57,0,0,0,0,0,0,0,0,0,-1,1861,967,0,0
644,57,22.8121,2.81122,0.00390863,0.00132502,-0.00267045,0.00558332,-0.000349664,-0.560121,0.00384407,0.042535,1868,967,22.8121,-2.81123
651,57,22.8528,2.6026,0.00293675,0.00166534,-0.00222307,0.00461322,-1.11384e-05,-0.646136,0.0030792,0.035052,1875,967,22.8528,-2.60262
658,57,22.8859,2.71619,0.00191574,0.00178048,-0.00169996,0.00354942,0.000146808,-0.765517,0.00231889,0.0320593,1882,967,22.8859,-2.71617
665,57,23.0043,2.85181,0.000818956,0.00192222,-0.000955826,0.00247417,0.000267002,-1.04711,0.00156804,0.0384706,1889,967,23.0042,-2.85178
672,57,22.9507,2.85419,-0.000205521,0.00194551,-0.000128085,0.00195311,-0.000213121,-1.51153,0.00137861,0.0445475,1896,967,22.9507,-2.85419
679,57,22.8235,2.63159,-0.00108248,0.00185264,0.000612016,0.00197514,-0.00120498,1.37325,0.00185391,0.0418585,1903,967,22.8235,-2.6316
686,57,22.7843,2.45605,-0.00165272,0.00166488,0.00117072,0.00203641,-0.00202424,1.2635,0.00234442,0.03591,1910,967,22.7843,-2.45608
693,57,22.7889,2.50574,-0.00195729,0.00144159,0.00157869,0.00206171,-0.00257741,1.19651,0.00268391,0.0319475,1917,967,22.7889,-2.50571
700,57,22.7928,2.6521,-0.00226222,0.00136868,0.00185569,0.00214928,-0.00304282,1.17262,0.00301242,0.0245259,1924,967,22.7929,-2.65209
707,57,22.7379,2.85046,-0.00248049,0.00126374,0.00185796,0.0020292,-0.00324596,1.17999,0.0030725,0.0407951,1931,967,22.738,-2.85048
714,57,22.7059,3.15417,0,0,0,0,0,0,0,-1,1938,967,22.706,-3.1542
721,57,21.7214,3.72675,0,0,0,0,0,0,0,-1,1945,967,21.7214,-3.72674
728,57,21.7053,3.85052,-0.00268062,0.00125361,0.00143604,0.00172201,-0.00314903,1.2555,0.00285224,0.0192933,1952,967,21.7053,-3.85055
735,57,21.7361,3.97809,-0.00245581,0.00141244,0.0011074,0.00170704,-0.0027504,1.3108,0.0025969,0.0201933,1959,967,21.7361,-3.97807
742,57,21.762,4.07397,-0.00187209,0.0016708,0.000915304,0.0018933,-0.00209458,1.33234,0.00230338,0.0161268,1966,967,21.762,-4.074
749,57,21.7415,4.18481,-0.00178046,0.00225189,0.00077481,0.00239564,-0.00192422,1.38735,0.00249902,0.0138313,1973,967,21.7415,-4.18479
756,57,21.6952,4.27026,-0.00186256,0.00334458,0.00105642,0.00355075,-0.00206872,1.37807,0.0032818,0.0110893,1980,967,21.6952,-4.27023
763,57,21.671,4.36169,-0.00165582,0.00447049,0.00149324,0.00481508,-0.0020004,1.344,0.00404522,0.0114015,1987,967,21.671,-4.36167
770,57,21.6621,4.45422,-0.00154263,0.00609647,0.00269946,0.0069541,-0.00240026,1.26318,0.00561001,0.0111628,1994,967,21.6622,-4.4542
777,57,21.6466,4.54095,-0.00148471,0.00805351,0.0045646,0.00988591,-0.00331712,1.18905,0.00793102,0.026238,2001,967,21.6466,-4.54095
784,57,21.694,4.58038,0,0,0,0,0,0,0,-1,2008,967,21.694,-4.5804
791,57,21.7554,4.65393,-0.00225118,0.0136068,0.0105948,0.018911,-0.0075554,1.10663,0.0157422,0.0486854,2015,967,21.7554,-4.65395
798,57,23.0446,5.93243,-0.00334327,0.0176549,0.0152415,0.0256635,-0.0113518,1.087,0.0218968,0.0497026,2022,967,23.0446,-5.93244
805,57,22.8662,6.29309,-0.00564855,0.0230856,0.0214479,0.0345338,-0.0170967,1.0805,0.0303702,0.0474018,2029,967,22.8663,-6.29307
812,57,0,0,0,0,0,0,0,0,0,-1,2036,967,0,0
-700,50,0,0,0,0,0,0,0,0,0,-1,524,974,0,0
-693,50,-16.2325,1.5199,0.049726,-0.0216685,-0.0137209,0.0522721,-0.0242146,-0.183479,0.0451391,0.0431481,531,974,-16.2326,-1.51988
-686,50,-15.8683,1.28876,0.0395908,-0.0174247,-0.00339382,0.0397921,-0.017626,-0.0592458,0.0339638,0.04232,538,974,-15.8683,-1.28875
-679,50,-15.0528,1.62183,0,0,0,0,0,0,0,-1,545,974,-15.0528,-1.6218
-672,50,-14.7125,1.39111,0.0216222,-0.00978093,0.00731942,0.0232444,-0.0114031,0.218105,0.0203894,0.0452356,552,974,-14.7125,-1.39113
-665,50,-14.3176,1.48706,0.0144669,-0.00660076,0.00937247,0.0180329,-0.0101667,0.363562,0.0164908,0.0463315,559,974,-14.3176,-1.48707
-658,50,-14.1805,1.90234,0,0,0,0,0,0,0,-1,566,974,-14.1805,-1.90232
-651,50,-14.8589,2.18286,0,0,0,0,0,0,0,-1,573,974,-14.8589,-2.18284
-644,50,-14.8605,1.97455,0.00121719,-0.000530283,0.00826341,0.00865293,-0.00796602,0.732726,0.00959769,0.0259082,580,974,-14.8605,-1.97452
-637,50,-14.9031,1.93579,-0.00100994,-5.51216e-06,0.00742203,0.00693127,-0.00794673,0.819179,0.00859648,0.0134303,587,974,-14.9031,-1.9358
-630,50,-14.9149,1.88293,-0.00264117,0.00121531,0.00552674,0.00514052,-0.00656639,0.953242,0.00677568,0.00924148,594,974,-14.9149,-1.88295
-623,50,-14.9154,1.82568,-0.00375216,0.0020422,0.00314863,0.00342374,-0.0051337,1.15731,0.00497342,0.0101191,601,974,-14.9154,-1.82569
-616,50,-14.926,1.75232,-0.0047948,0.00189481,0.00121105,0.0021073,-0.00500729,1.3971,0.00421983,0.0108326,608,974,-14.926,-1.75234
-609,50,-14.9304,1.65082,-0.00503619,0.00137362,-0.000443117,0.00140411,-0.00506668,-1.5021,0.00393034,0.0109089,615,974,-14.9304,-1.65085
-602,50,-14.934,1.55951,-0.0046884,0.000967447,-0.00161454,0.00139588,-0.00511684,-1.31141,0.00395941,0.011105,622,974,-14.934,-1.55952
-595,50,-14.9122,1.48877,-0.00457846,0.000825273,-0.00239696,0.00173526,-0.00548845,-1.20796,0.00435421,0.0113457,629,974,-14.9122,-1.48879
-588,50,-14.9457,1.41107,-0.00471549,0.000510058,-0.00273125,0.001677,-0.00588244,-1.16701,0.00458405,0.0127215,636,974,-14.9457,-1.41107
-581,50,-15.1351,1.07623,-0.00476555,0.000309471,-0.00277203,0.00153003,-0.00598611,-1.15603,0.00458662,0.0196632,643,974,-15.1351,-1.07626
-574,50,-15.2255,0.807678,-0.00456953,0.000149661,-0.00273229,0.00140021,-0.00582007,-1.14156,0.00442132,0.0252945,650,974,-15.2255,-0.807708
-567,50,-15.2338,0.73877,-0.00422418,0.000209432,-0.00264657,0.00144495,-0.0054597,-1.13403,0.00420504,0.0336657,657,974,-15.2338,-0.7388
-560,50,-15.2244,0.66687,-0.00349017,0.000237763,-0.00238264,0.00139891,-0.00465132,-1.11733,0.00365748,0.0386504,664,974,-15.2244,-0.666857
-553,50,-15.1812,0.642639,-0.00228853,0.000388722,-0.0020641,0.00151027,-0.00341008,-1.07307,0.00291049,0.0382209,671,974,-15.1811,-0.642665
-546,50,-15.1079,0.762634,-0.000582227,0.000704366,-0.00174575,0.00192157,-0.00179943,-0.961925,0.00214871,0.0411763,678,974,-15.1079,-0.762605
-539,50,-15.2961,0.489197,0.00165045,0.00124916,-0.00156959,0.00303217,-0.000132559,-0.721828,0.00206705,0.0450012,685,974,-15.2961,-0.489178
-532,50,-15.418,0.537109,0.00416414,0.00229205,-0.00185034,0.00530173,0.00115447,-0.551229,0.00321942,0.0446335,692,974,-15.418,-0.537107
-525,50,-15.2594,0.819092,0.00613856,0.00415378,-0.00283873,0.00815336,0.00213897,-0.617244,0.00488138,0.0447293,699,974,-15.2594,-0.819069
-518,50,0,0,0,0,0,0,0,0,0,-1,706,974,0,0
-511,50,0,0,0,0,0,0,0,0,0,-1,713,974,0,0
-504,50,0,0,0,0,0,0,0,0,0,-1,720,974,0,0
-497,50,0,0,0,0,0,0,0,0,0,-1,727,974,0,0
-490,50,0,0,0,0,0,0,0,0,0,-1,734,974,0,0
-483,50,0,0,0,0,0,0,0,0,0,-1,741,974,0,0
-476,50,0,0,0,0,0,0,0,0,0,-1,748,974,0,0
-469,50,0,0,0,0,0,0,0,0,0,-1,755,974,0,0
-462,50,0,0,0,0,0,0,0,0,0,-1,762,974,0,0
-455,50,0,0,0,0,0,0,0,0,0,-1,769,974,0,0
-448,50,0,0,0,0,0,0,0,0,0,-1,776,974,0,0
-441,50,0,0,0,0,0,0,0,0,0,-1,783,974,0,0
-434,50,0,0,0,0,0,0,0,0,0,-1,790,974,0,0
-427,50,0,0,0,0,0,0,0,0,0,-1,797,974,0,0
-420,50,0,0,0,0,0,0,0,0,0,-1,804,974,0,0
-413,50,0,0,0,0,0,0,0,0,0,-1,811,974,0,0
-406,50,0,0,0,0,0,0,0,0,0,-1,818,974,0,0
-399,50,0,0,0,0,0,0,0,0,0,-1,825,974,0,0
-392,50,0,0,0,0,0,0,0,0,0,-1,832,974,0,0
-385,50,0,0,0,0,0,0,0,0,0,-1,839,974,0,0
-378,50,0,0,0,0,0,0,0,0,0,-1,846,974,0,0
-371,50,0,0,0,0,0,0,0,0,0,-1,853,974,0,0
-364,50,0,0,0,0,0,0,0,0,0,-1,860,974,0,0
-357,50,0,0,0,0,0,0,0,0,0,-1,867,974,0,0
-350,50,0,0,0,0,0,0,0,0,0,-1,874,974,0,0
-343,50,0,0,0,0,0,0,0,0,0,-1,881,974,0,0
-336,50,0,0,0,0,0,0,0,0,0,-1,888,974,0,0
-329,50,0,0,0,0,0,0,0,0,0,-1,895,974,0,0
-322,50,0,0,0,0,0,0,0,0,0,-1,902,974,0,0
-315,50,0,0,0,0,0,0,0,0,0,-1,909,974,0,0
-308,50,0,0,0,0,0,0,0,0,0,-1,916,974,0,0
-301,50,0,0,0,0,0,0,0,0,0,-1,923,974,0,0
-294,50,0,0,0,0,0,0,0,0,0,-1,930,974,0,0
-287,50,0,0,0,0,0,0,0,0,0,-1,937,974,0,0
-280,50,0,0,0,0,0,0,0,0,0,-1,944,974,0,0
-273,50,0,0,0,0,0,0,0,0,0,-1,951,974,0,0
-266,50,0,0,0,0,0,0,0,0,0,-1,958,974,0,0
-259,50,0,0,0,0,0,0,0,0,0,-1,965,974,0,0
-252,50,0,0,0,0,0,0,0,0,0,-1,972,974,0,0
-245,50,0,0,0,0,0,0,0,0,0,-1,979,974,0,0
-238,50,0,0,0,0,0,0,0,0,0,-1,986,974,0,0
-231,50,0,0,0,0,0,0,0,0,0,-1,993,974,0,0
-224,50,0,0,0,0,0,0,0,0,0,-1,1000,974,0,0
-217,50,0,0,0,0,0,0,0,0,0,-1,1007,974,0,0
-210,50,0,0,0,0,0,0,0,0,0,-1,1014,974,0,0
-203,50,0,0,0,0,0,0,0,0,0,-1,1021,974,0,0
-196,50,0,0,0,0,0,0,0,0,0,-1,1028,974,0,0
-189,50,0,0,0,0,0,0,0,0,0,-1,1035,974,0,0
-182,50,0,0,0,0,0,0,0,0,0,-1,1042,974,0,0
-175,50,0,0,0,0,0,0,0,0,0,-1,1049,974,0,0
-168,50,0,0,0,0,0,0,0,0,0,-1,1056,974,0,0
-161,50,0,0,0,0,0,0,0,0,0,-1,1063,974,0,0
-154,50,0,0,0,0,0,0,0,0,0,-1,1070,974,0,0
-147,50,0,0,0,0,0,0,0,0,0,-1,1077,974,0,0
-140,50,0,0,0,0,0,0,0,0,0,-1,1084,974,0,0
-133,50,0,0,0,0,0,0,0,0,0,-1,1091,974,0,0
-126,50,0,0,0,0,0,0,0,0,0,-1,1098,974,0,0
-119,50,0,0,0,0,0,0,0,0,0,-1,1105,974,0,0
-112,50,0,0,0,0,0,0,0,0,0,-1,1112,974,0,0
-105,50,0,0,0,0,0,0,0,0,0,-1,1119,974,0,0
-98,50,0,0,0,0,0,0,0,0,0,-1,1126,974,0,0
-91,50,0,0,0,0,0,0,0,0,0,-1,1133,974,0,0
-84,50,0,0,0,0,0,0,0,0,0,-1,1140,974,0,0
-77,50,0,0,0,0,0,0,0,0,0,-1,1147,974,0,0
-70,50,0,0,0,0,0,0,0,0,0,-1,1154,974,0,0
-63,50,0,0,0,0,0,0,0,0,0,-1,1161,974,0,0
-56,50,0,0,0,0,0,0,0,0,0,-1,1168,974,0,0
-49,50,0,0,0,0,0,0,0,0,0,-1,1175,974,0,0
-42,50,0,0,0,0,0,0,0,0,0,-1,1182,974,0,0
-35,50,0,0,0,0,0,0,0,0,0,-1,1189,974,0,0
-28,50,0,0,0,0,0,0,0,0,0,-1,1196,974,0,0
-21,50,0,0,0,0,0,0,0,0,0,-1,1203,974,0,0
-14,50,0,0,0,0,0,0,0,0,0,-1,1210,974,0,0
-7,50,0,0,0,0,0,0,0,0,0,-1,1217,974,0,0
0,50,0,0,0,0,0,0,0,0,0,-1,1224,974,0,0
7,50,0,0,0,0,0,0,0,0,0,-1,1231,974,0,0
14,50,0,0,0,0,0,0,0,0,0,-1,1238,974,0,0
21,50,0,0,0,0,0,0,0,0,0,-1,1245,974,0,0
28,50,0,0,0,0,0,0,0,0,0,-1,1252,974,0,0
35,50,0,0,0,0,0,0,0,0,0,-1,1259,974,0,0
42,50,0,0,0,0,0,0,0,0,0,-1,1266,974,0,0
49,50,0,0,0,0,0,0,0,0,0,-1,1273,974,0,0
56,50,0,0,0,0,0,0,0,0,0,-1,1280,974,0,0
63,50,0,0,0,0,0,0,0,0,0,-1,1287,974,0,0
70,50,0,0,0,0,0,0,0,0,0,-1,1294,974,0,0
77,50,0,0,0,0,0,0,0,0,0,-1,1301,974,0,0
84,50,0,0,0,0,0,0,0,0,0,-1,1308,974,0,0
91,50,0,0,0,0,0,0,0,0,0,-1,1315,974,0,0
98,50,0,0,0,0,0,0,0,0,0,-1,1322,974,0,0
105,50,0,0,0,0,0,0,0,0,0,-1,1329,974,0,0
112,50,0,0,0,0,0,0,0,0,0,-1,1336,974,0,0
119,50,0,0,0,0,0,0,0,0,0,-1,1343,974,0,0
126,50,0,0,0,0,0,0,0,0,0,-1,1350,974,0,0
133,50,0,0,0,0,0,0,0,0,0,-1,1357,974,0,0
140,50,0,0,0,0,0,0,0,0,0,-1,1364,974,0,0
147,50,0,0,0,0,0,0,0,0,0,-1,1371,974,0,0
154,50,0,0,0,0,0,0,0,0,0,-1,1378,974,0,0
161,50,0,0,0,0,0,0,0,0,0,-1,1385,974,0,0
168,50,0,0,0,0,0,0,0,0,0,-1,1392,974,0,0
175,50,0,0,0,0,0,0,0,0,0,-1,1399,974,0,0
182,50,0,0,0,0,0,0,0,0,0,-1,1406,974,0,0
189,50,0,0,0,0,0,0,0,0,0,-1,1413,974,0,0
196,50,0,0,0,0,0,0,0,0,0,-1,1420,974,0,0
203,50,0,0,0,0,0,0,0,0,0,-1,1427,974,0,0
210,50,0,0,0,0,0,0,0,0,0,-1,1434,974,0,0
217,50,0,0,0,0,0,0,0,0,0,-1,1441,974,0,0
224,50,0,0,0,0,0,0,0,0,0,-1,1448,974,0,0
231,50,0,0,0,0,0,0,0,0,0,-1,1455,974,0,0
238,50,0,0,0,0,0,0,0,0,0,-1,1462,974,0,0
245,50,0,0,0,0,0,0,0,0,0,-1,1469,974,0,0
252,50,0,0,0,0,0,0,0,0,0,-1,1476,974,0,0
259,50,0,0,0,0,0,0,0,0,0,-1,1483,974,0,0
266,50,0,0,0,0,0,0,0,0,0,-1,1490,974,0,0
273,50,0,0,0,0,0,0,0,0,0,-1,1497,974,0,0
280,50,0,0,0,0,0,0,0,0,0,-1,1504,974,0,0
287,50,0,0,0,0,0,0,0,0,0,-1,1511,974,0,0
294,50,0,0,0,0,0,0,0,0,0,-1,1518,974,0,0
301,50,0,0,0,0,0,0,0,0,0,-1,1525,974,0,0
308,50,0,0,0,0,0,0,0,0,0,-1,1532,974,0,0
315,50,0,0,0,0,0,0,0,0,0,-1,1539,974,0,0
322,50,0,0,0,0,0,0,0,0,0,-1,1546,974,0,0
329,50,0,0,0,0,0,0,0,0,0,-1,1553,974,0,0
336,50,0,0,0,0,0,0,0,0,0,-1,1560,974,0,0
343,50,0,0,0,0,0,0,0,0,0,-1,1567,974,0,0
350,50,0,0,0,0,0,0,0,0,0,-1,1574,974,0,0
357,50,0,0,0,0,0,0,0,0,0,-1,1581,974,0,0
364,50,0,0,0,0,0,0,0,0,0,-1,1588,974,0,0
371,50,0,0,0,0,0,0,0,0,0,-1,1595,974,0,0
378,50,0,0,0,0,0,0,0,0,0,-1,1602,974,0,0
385,50,0,0,0,0,0,0,0,0,0,-1,1609,974,0,0
392,50,0,0,0,0,0,0,0,0,0,-1,1616,974,0,0
399,50,0,0,0,0,0,0,0,0,0,-1,1623,974,0,0
406,50,0,0,0,0,0,0,0,0,0,-1,1630,974,0,0
413,50,0,0,0,0,0,0,0,0,0,-1,1637,974,0,0
420,50,0,0,0,0,0,0,0,0,0,-1,1644,974,0,0
427,50,0,0,0,0,0,0,0,0,0,-1,1651,974,0,0
434,50,0,0,0,0,0,0,0,0,0,-1,1658,974,0,0
441,50,0,0,0,0,0,0,0,0,0,-1,1665,974,0,0
448,50,0,0,0,0,0,0,0,0,0,-1,1672,974,0,0
455,50,0,0,0,0,0,0,0,0,0,-1,1679,974,0,0
462,50,0,0,0,0,0,0,0,0,0,-1,1686,974,0,0
469,50,0,0,0,0,0,0,0,0,0,-1,1693,974,0,0
476,50,0,0,0,0,0,0,0,0,0,-1,1700,974,0,0
483,50,0,0,0,0,0,0,0,0,0,-1,1707,974,0,0
490,50,0,0,0,0,0,0,0,0,0,-1,1714,974,0,0
497,50,0,0,0,0,0,0,0,0,0,-1,1721,974,0,0
504,50,0,0,0,0,0,0,0,0,0,-1,1728,974,0,0
511,50,0,0,0,0,0,0,0,0,0,-1,1735,974,0,0
518,50,0,0,0,0,0,0,0,0,0,-1,1742,974,0,0
525,50,0,0,0,0,0,0,0,0,0,-1,1749,974,0,0
532,50,0,0,0,0,0,0,0,0,0,-1,1756,974,0,0
539,50,0,0,0,0,0,0,0,0,0,-1,1763,974,0,0
546,50,0,0,0,0,0,0,0,0,0,-1,1770,974,0,0
553,50,0,0,0,0,0,0,0,0,0,-1,1777,974,0,0
560,50,0,0,0,0,0,0,0,0,0,-1,1784,974,0,0
567,50,0,0,0,0,0,0,0,0,0,-1,1791,974,0,0
574,50,0,0,0,0,0,0,0,0,0,-1,1798,974,0,0
581,50,0,0,0,0,0,0,0,0,0,-1,1805,974,0,0
588,50,0,0,0,0,0,0,0,0,0,-1,1812,974,0,0
595,50,0,0,0,0,0,0,0,0,0,-1,1819,974,0,0
602,50,0,0,0,0,0,0,0,0,0,-1,1826,974,0,0
609,50,0,0,0,0,0,0,0,0,0,-1,1833,974,0,0
616,50,0,0,0,0,0,0,0,0,0,-1,1840,974,0,0
623,50,0,0,0,0,0,0,0,0,0,-1,1847,974,0,0
630,50,0,0,0,0,0,0,0,0,0,-1,1854,974,0,0
637,50,0,0,0,0,0,0,0,0,0,-1,1861,974,0,0
644,50,22.8226,2.84479,0.00448127,0.000318205,-0.00290487,0.0059734,-0.00117393,-0.474519,0.00442578,0.0404241,1868,974,22.8226,-2.84481
651,50,22.76,2.76782,0.00338132,0.0009631,-0.00229226,0.00476381,-0.000419391,-0.542705,0.0033245,0.0332496,1875,974,22.7601,-2.76784
658,50,22.908,2.75208,0.00226294,0.00125306,-0.00168634,0.00351831,-2.30817e-06,-0.639931,0.00234631,0.0350481,1882,974,22.9079,-2.75208
665,50,23.1666,2.61981,0.00110813,0.00151575,-0.000890415,0.00222538,0.000398499,-0.897906,0.00137021,0.0406318,1889,974,23.1666,-2.61981
672,50,22.9969,2.5741,8.05258e-06,0.0016449,2.66605e-05,0.00164533,7.61845e-06,1.55451,0.00109436,0.0428746,1896,974,22.997,-2.57408
679,50,22.7493,2.54681,-0.000979364,0.00161746,0.000871935,0.00188307,-0.00124497,1.27511,0.00181845,0.0414573,1903,974,22.7493,-2.54679
686,50,22.7931,2.48468,-0.00164745,0.00147277,0.00152065,0.00209126,-0.00226595,1.1845,0.00251631,0.0390348,1910,974,22.7931,-2.48467
693,50,22.744,2.57855,-0.00203111,0.0012828,0.00198877,0.00221442,-0.00296273,1.13271,0.00299942,0.0379758,1917,974,22.744,-2.57856
700,50,22.7197,2.69427,-0.00239045,0.00123621,0.00231502,0.00236354,-0.00351778,1.11763,0.00341731,0.0221996,1924,974,22.7197,-2.69428
707,50,22.7397,2.763,-0.0026439,0.00112744,0.00235898,0.00226179,-0.00377825,1.12257,0.00352366,0.0335893,1931,974,22.7398,-2.763
714,50,22.6412,3.1745,0,0,0,0,0,0,0,-1,1938,974,22.6413,-3.17451
721,50,21.8164,3.65894,0,0,0,0,0,0,0,-1,1945,974,21.8163,-3.65893
728,50,21.829,3.84509,-0.00292629,0.0011536,0.00191415,0.00191104,-0.00368373,1.194,0.00328374,0.0208892,1952,974,21.829,-3.84512
735,50,21.8639,3.9538,-0.00274888,0.00134133,0.00156471,0.00187126,-0.00327881,1.24425,0.00301018,0.019179,1959,974,21.8639,-3.95378
742,50,21.8667,4.05988,-0.0022705,0.00171517,0.00133029,0.00211838,-0.00267371,1.27649,0.00277291,0.0156886,1966,974,21.8667,-4.05989
749,50,21.8611,4.16046,-0.00233391,0.00251235,0.00118402,0.00278615,-0.00260771,1.34354,0.00311472,0.0160424,1973,974,21.8611,-4.16044
756,50,21.816,4.2525,-0.0026117,0.00385938,0.00143227,0.00416221,-0.00291453,1.36243,0.00410687,0.0118796,1980,974,21.816,-4.25248
763,50,21.7811,4.34869,-0.00272662,0.00536868,0.00181692,0.00575777,-0.00311571,1.35983,0.00519826,0.0114637,1987,974,21.7812,-4.34867
770,50,21.7625,4.4259,-0.00308847,0.00756885,0.00299628,0.00835348,-0.00387309,1.31468,0.00721527,0.0108032,1994,974,21.7624,-4.42587
777,50,21.765,4.48785,-0.00365733,0.0103049,0.00492339,0.0118664,-0.0052188,1.26368,0.0101099,0.021392,2001,974,21.7651,-4.48785
784,50,21.7833,4.54449,-0.0046843,0.0137137,0.00758671,0.0164386,-0.00740921,1.22598,0.0140937,0.0402401,2008,974,21.7833,-4.54451
791,50,21.8136,4.60596,-0.00628252,0.0180658,0.0111985,0.0224329,-0.0106497,1.19896,0.0194999,0.0458442,2015,974,21.8135,-4.60593
798,50,22.5731,5.73651,-0.00863532,0.0236884,0.0159926,0.0302635,-0.0152104,1.18073,0.0267296,0.0447165,2022,974,22.5731,-5.73653
805,50,22.0005,6.21277,-0.0123584,0.031066,0.022323,0.0404944,-0.0217868,1.17116,0.0364948,0.0443423,2029,974,22.0004,-6.21277
812,50,0,0,0,0,0,0,0,0,0,-1,2036,974,0,0
-700,43,0,0,0,0,0,0,0,0,0,-1,524,981,0,0
-693,43,-16.5348,2.14252,0.0424148,0.000981841,-0.0276395,0.0562398,-0.0128432,-0.4638,0.0424273,0.0459788,531,981,-16.5348,-2.14252
-686,43,-16.3218,1.81085,0.0348019,-0.0012443,-0.0153031,0.0404223,-0.00686477,-0.351981,0.0295039,0.0455881,538,981,-16.3218,-1.81087
-679,43,-15.1274,2.28632,0,0,0,0,0,0,0,-1,545,981,-15.1274,-2.28629
-672,43,-14.7626,2.0426,0.0202463,-0.00187706,-0.00115485,0.0203064,-0.00193718,-0.052012,0.0142273,0.0468395,552,981,-14.7626,-2.04259
-665,43,-14.4973,1.79694,0.0141283,-0.0012817,0.00239825,0.0144929,-0.00164632,0.150878,0.0102548,0.0479026,559,981,-14.4973,-1.79692
-658,43,-14.4154,1.82056,0,0,0,0,0,0,0,-1,566,981,-14.4154,-1.82054
-651,43,-14.6616,1.92145,0.00505137,0.000186498,0.00505659,0.00823016,-0.0029923,0.561215,0.0067104,0.0402586,573,981,-14.6616,-1.92143
-644,43,-14.9755,1.95685,0.00219763,0.000718581,0.00482507,0.00633952,-0.00342331,0.709356,0.00571978,0.0189869,580,981,-14.9755,-1.95685
-637,43,-15.0034,1.91187,2.63049e-05,0.000461278,0.00483995,0.00508862,-0.00460104,0.807851,0.00559669,0.0120066,587,981,-15.0034,-1.91189
-630,43,-14.9841,1.86365,-0.00160353,0.00120688,0.00361806,0.00368304,-0.00407969,0.970626,0.00448376,0.0114235,594,981,-14.9841,-1.86364
-623,43,-14.9732,1.79858,-0.0027189,0.00195809,0.00164921,0.00248114,-0.00324195,1.26368,0.00331394,0.0104744,601,981,-14.9732,-1.79857
-616,43,-14.9756,1.72729,-0.00375732,0.00186503,0.000117968,0.0018675,-0.0037598,1.54983,0.00330959,0.00961698,608,981,-14.9756,-1.72729
-609,43,-14.9905,1.66235,-0.00407612,0.00138708,-0.0012528,0.00166067,-0.0043497,-1.35579,0.00358398,0.0119553,615,981,-14.9905,-1.66238
-602,43,-14.9802,1.59821,-0.00376777,0.000987186,-0.00229288,0.00191269,-0.00469328,-1.18715,0.00392497,0.0151517,622,981,-14.9802,-1.59822
-595,43,-14.9691,1.52466,-0.00365702,0.00081745,-0.00301496,0.00233457,-0.00517414,-1.10459,0.00443728,0.0142792,629,981,-14.9691,-1.52465
-588,43,-14.9928,1.34851,-0.00377141,0.000496482,-0.00332187,0.00231077,-0.00558569,-1.0709,0.0046879,0.0136299,636,981,-14.9928,-1.3485
-581,43,-15.1421,1.0481,-0.00376965,0.000244407,-0.00334524,0.0021385,-0.00566374,-1.0556,0.00465537,0.019321,643,981,-15.1421,-1.04812
-574,43,-15.2121,0.826599,-0.00355025,3.28533e-05,-0.00328089,0.00197947,-0.00549687,-1.0353,0.00447287,0.0268286,650,981,-15.2121,-0.826608
-567,43,-15.1893,0.731567,-0.00320547,4.05349e-06,-0.00311683,0.00190499,-0.0051064,-1.02313,0.00418633,0.0368221,657,981,-15.1893,-0.731554
-560,43,-15.1817,0.67572,-0.00251381,-5.49431e-05,-0.00277774,0.00175327,-0.00432203,-0.993741,0.00361058,0.0405219,664,981,-15.1817,-0.675727
-553,43,-15.159,0.692139,-0.00142759,-7.8296e-07,-0.00237123,0.00176203,-0.00319041,-0.93152,0.00289866,0.0400578,671,981,-15.159,-0.692115
-546,43,-15.3044,0.970093,8.42359e-05,0.000211437,-0.00195439,0.00210326,-0.00180759,-0.801664,0.00226008,0.0417146,678,981,-15.3044,-0.97007
-539,43,-15.2521,0.660339,0.00204666,0.000649825,-0.00169657,0.00318294,-0.000486459,-0.590137,0.00230132,0.0443844,685,981,-15.2521,-0.66032
-532,43,-15.3055,0.646851,0.00416703,0.00165654,-0.00196399,0.00524264,0.000580928,-0.50105,0.00331845,0.044893,692,981,-15.3056,-0.646848
-525,43,-15.279,0.812195,0.00568428,0.00353339,-0.0029426,0.0077418,0.00147586,-0.610202,0.00474636,0.0452588,699,981,-15.279,-0.812189
-518,43,0,0,0,0,0,0,0,0,0,-1,706,981,0,0
-511,43,0,0,0,0,0,0,0,0,0,-1,713,981,0,0
-504,43,0,0,0,0,0,0,0,0,0,-1,720,981,0,0
-497,43,0,0,0,0,0,0,0,0,0,-1,727,981,0,0
-490,43,0,0,0,0,0,0,0,0,0,-1,734,981,0,0
-483,43,0,0,0,0,0,0,0,0,0,-1,741,981,0,0
-476,43,0,0,0,0,0,0,0,0,0,-1,748,981,0,0
-469,43,0,0,0,0,0,0,0,0,0,-1,755,981,0,0
-462,43,0,0,0,0,0,0,0,0,0,-1,762,981,0,0
-455,43,0,0,0,0,0,0,0,0,0,-1,769,981,0,0
-448,43,0,0,0,0,0,0,0,0,0,-1,776,981,0,0
-441,43,0,0,0,0,0,0,0,0,0,-1,783,981,0,0
-434,43,0,0,0,0,0,0,0,0,0,-1,790,981,0,0
-427,43,0,0,0,0,0,0,0,0,0,-1,797,981,0,0
-420,43,0,0,0,0,0,0,0,0,0,-1,804,981,0,0
-413,43,0,0,0,0,0,0,0,0,0,-1,811,981,0,0
-406,43,0,0,0,0,0,0,0,0,0,-1,818,981,0,0
-399,43,0,0,0,0,0,0,0,0,0,-1,825,981,0,0
-392,43,0,0,0,0,0,0,0,0,0,-1,832,981,0,0
-385,43,0,0,0,0,0,0,0,0,0,-1,839,981,0,0
-378,43,0,0,0,0,0,0,0,0,0,-1,846,981,0,0
-371,43,0,0,0,0,0,0,0,0,0,-1,853,981,0,0
-364,43,0,0,0,0,0,0,0,0,0,-1,860,981,0,0
-357,43,0,0,0,0,0,0,0,0,0,-1,867,981,0,0
-350,43,0,0,0,0,0,0,0,0,0,-1,874,981,0,0
-343,43,0,0,0,0,0,0,0,0,0,-1,881,981,0,0
-336,43,0,0,0,0,0,0,0,0,0,-1,888,981,0,0
-329,43,0,0,0,0,0,0,0,0,0,-1,895,981,0,0
-322,43,0,0,0,0,0,0,0,0,0,-1,902,981,0,0
-315,43,0,0,0,0,0,0,0,0,0,-1,909,981,0,0
-308,43,0,0,0,0,0,0,0,0,0,-1,916,981,0,0
-301,43,0,0,0,0,0,0,0,0,0,-1,923,981,0,0
-294,43,0,0,0,0,0,0,0,0,0,-1,930,981,0,0
-287,43,0,0,0,0,0,0,0,0,0,-1,937,981,0,0
-280,43,0,0,0,0,0,0,0,0,0,-1,944,981,0,0
-273,43,0,0,0,0,0,0,0,0,0,-1,951,981,0,0
-266,43,0,0,0,0,0,0,0,0,0,-1,958,981,0,0
-259,43,0,0,0,0,0,0,0,0,0,-1,965,981,0,0
-252,43,0,0,0,0,0,0,0,0,0,-1,972,981,0,0
-245,43,0,0,0,0,0,0,0,0,0,-1,979,981,0,0
-238,43,0,0,0,0,0,0,0,0,0,-1,986,981,0,0
-231,43,0,0,0,0,0,0,0,0,0,-1,993,981,0,0
-224,43,0,0,0,0,0,0,0,0,0,-1,1000,981,0,0
-217,43,0,0,0,0,0,0,0,0,0,-1,1007,981,0,0
-210,43,0,0,0,0,0,0,0,0,0,-1,1014,981,0,0
-203,43,0,0,0,0,0,0,0,0,0,-1,1021,981,0,0
-196,43,0,0,0,0,0,0,0,0,0,-1,1028,981,0,0
-189,43,0,0,0,0,0,0,0,0,0,-1,1035,981,0,0
-182,43,0,0,0,0,0,0,0,0,0,-1,1042,981,0,0
-175,43,0,0,0,0,0,0,0,0,0,-1,1049,981,0,0
-168,43,0,0,0,0,0,0,0,0,0,-1,1056,981,0,0
-161,43,0,0,0,0,0,0,0,0,0,-1,1063,981,0,0
-154,43,0,0,0,0,0,0,0,0,0,-1,1070,981,0,0
-147,43,0,0,0,0,0,0,0,0,0,-1,1077,981,0,0
-140,43,0,0,0,0,0,0,0,0,0,-1,1084,981,0,0
-133,43,0,0,0,0,0,0,0,0,0,-1,1091,981,0,0
-126,43,0,0,0,0,0,0,0,0,0,-1,1098,981,0,0
-119,43,0,0,0,0,0,0,0,0,0,-1,1105,981,0,0
-112,43,0,0,0,0,0,0,0,0,0,-1,1112,981,0,0
-105,43,0,0,0,0,0,0,0,0,0,-1,1119,981,0,0
-98,43,0,0,0,0,0,0,0,0,0,-1,1126,981,0,0
-91,43,0,0,0,0,0,0,0,0,0,-1,1133,981,0,0
-84,43,0,0,0,0,0,0,0,0,0,-1,1140,981,0,0
-77,43,0,0,0,0,0,0,0,0,0,-1,1147,981,0,0
-70,43,0,0,0,0,0,0,0,0,0,-1,1154,981,0,0
-63,43,0,0,0,0,0,0,0,0,0,-1,1161,981,0,0
-56,43,0,0,0,0,0,0,0,0,0,-1,1168,981,0,0
-49,43,0,0,0,0,0,0,0,0,0,-1,1175,981,0,0
-42,43,0,0,0,0,0,0,0,0,0,-1,1182,981,0,0
-35,43,0,0,0,0,0,0,0,0,0,-1,1189,981,0,0
-28,43,0,0,0,0,0,0,0,0,0,-1,1196,981,0,0
-21,43,0,0,0,0,0,0,0,0,0,-1,1203,981,0,0
-14,43,0,0,0,0,0,0,0,0,0,-1,1210,981,0,0
-7,43,0,0,0,0,0,0,0,0,0,-1,1217,981,0,0
0,43,0,0,0,0,0,0,0,0,0,-1,1224,981,0,0
7,43,0,0,0,0,0,0,0,0,0,-1,1231,981,0,0
14,43,0,0,0,0,0,0,0,0,0,-1,1238,981,0,0
21,43,0,0,0,0,0,0,0,0,0,-1,1245,981,0,0
28,43,0,0,0,0,0,0,0,0,0,-1,1252,981,0,0
35,43,0,0,0,0,0,0,0,0,0,-1,1259,981,0,0
42,43,0,0,0,0,0,0,0,0,0,-1,1266,981,0,0
49,43,0,0,0,0,0,0,0,0,0,-1,1273,981,0,0
56,43,0,0,0,0,0,0,0,0,0,-1,1280,981,0,0
63,43,0,0,0,0,0,0,0,0,0,-1,1287,981,0,0
70,43,0,0,0,0,0,0,0,0,0,-1,1294,981,0,0
77,43,0,0,0,0,0,0,0,0,0,-1,1301,981,0,0
84,43,0,0,0,0,0,0,0,0,0,-1,1308,981,0,0
91,43,0,0,0,0,0,0,0,0,0,-1,1315,981,0,0
98,43,0,0,0,0,0,0,0,0,0,-1,1322,981,0,0
105,43,0,0,0,0,0,0,0,0,0,-1,1329,981,0,0
112,43,0,0,0,0,0,0,0,0,0,-1,1336,981,0,0
119,43,0,0,0,0,0,0,0,0,0,-1,1343,981,0,0
126,43,0,0,0,0,0,0,0,0,0,-1,1350,981,0,0
133,43,0,0,0,0,0,0,0,0,0,-1,1357,981,0,0
140,43,0,0,0,0,0,0,0,0,0,-1,1364,981,0,0
147,43,0,0,0,0,0,0,0,0,0,-1,1371,981,0,0
154,43,0,0,0,0,0,0,0,0,0,-1,1378,981,0,0
161,43,0,0,0,0,0,0,0,0,0,-1,1385,981,0,0
168,43,0,0,0,0,0,0,0,0,0,-1,1392,981,0,0
175,43,0,0,0,0,0,0,0,0,0,-1,1399,981,0,0
182,43,0,0,0,0,0,0,0,0,0,-1,1406,981,0,0
189,43,0,0,0,0,0,0,0,0,0,-1,1413,981,0,0
196,43,0,0,0,0,0,0,0,0,0,-1,1420,981,0,0
203,43,0,0,0,0,0,0,0,0,0,-1,1427,981,0,0
210,43,0,0,0,0,0,0,0,0,0,-1,1434,981,0,0
217,43,0,0,0,0,0,0,0,0,0,-1,1441,981,0,0
224,43,0,0,0,0,0,0,0,0,0,-1,1448,981,0,0
231,43,0,0,0,0,0,0,0,0,0,-1,1455,981,0,0
238,43,0,0,0,0,0,0,0,0,0,-1,1462,981,0,0
245,43,0,0,0,0,0,0,0,0,0,-1,1469,981,0,0
252,43,0,0,0,0,0,0,0,0,0,-1,1476,981,0,0
259,43,0,0,0,0,0,0,0,0,0,-1,1483,981,0,0
266,43,0,0,0,0,0,0,0,0,0,-1,1490,981,0,0
273,43,0,0,0,0,0,0,0,0,0,-1,1497,981,0,0
280,43,0,0,0,0,0,0,0,0,0,-1,1504,981,0,0
287,43,0,0,0,0,0,0,0,0,0,-1,1511,981,0,0
294,43,0,0,0,0,0,0,0,0,0,-1,1518,981,0,0
301,43,0,0,0,0,0,0,0,0,0,-1,1525,981,0,0
308,43,0,0,0,0,0,0,0,0,0,-1,1532,981,0,0
315,43,0,0,0,0,0,0,0,0,0,-1,1539,981,0,0
322,43,0,0,0,0,0,0,0,0,0,-1,1546,981,0,0
329,43,0,0,0,0,0,0,0,0,0,-1,1553,981,0,0
336,43,0,0,0,0,0,0,0,0,0,-1,1560,981,0,0
343,43,0,0,0,0,0,0,0,0,0,-1,1567,981,0,0
350,43,0,0,0,0,0,0,0,0,0,-1,1574,981,0,0
357,43,0,0,0,0,0,0,0,0,0,-1,1581,981,0,0
364,43,0,0,0,0,0,0,0,0,0,-1,1588,981,0,0
371,43,0,0,0,0,0,0,0,0,0,-1,1595,981,0,0
378,43,0,0,0,0,0,0,0,0,0,-1,1602,981,0,0
385,43,0,0,0,0,0,0,0,0,0,-1,1609,981,0,0
392,43,0,0,0,0,0,0,0,0,0,-1,1616,981,0,0
399,43,0,0,0,0,0,0,0,0,0,-1,1623,981,0,0
406,43,0,0,0,0,0,0,0,0,0,-1,1630,981,0,0
413,43,0,0,0,0,0,0,0,0,0,-1,1637,981,0,0
420,43,0,0,0,0,0,0,0,0,0,-1,1644,981,0,0
427,43,0,0,0,0,0,0,0,0,0,-1,1651,981,0,0
434,43,0,0,0,0,0,0,0,0,0,-1,1658,981,0,0
441,43,0,0,0,0,0,0,0,0,0,-1,1665,981,0,0
448,43,0,0,0,0,0,0,0,0,0,-1,1672,981,0,0
455,43,0,0,0,0,0,0,0,0,0,-1,1679,981,0,0
462,43,0,0,0,0,0,0,0,0,0,-1,1686,981,0,0
469,43,0,0,0,0,0,0,0,0,0,-1,1693,981,0,0
476,43,0,0,0,0,0,0,0,0,0,-1,1700,981,0,0
483,43,0,0,0,0,0,0,0,0,0,-1,1707,981,0,0
490,43,0,0,0,0,0,0,0,0,0,-1,1714,981,0,0
497,43,0,0,0,0,0,0,0,0,0,-1,1721,981,0,0
504,43,0,0,0,0,0,0,0,0,0,-1,1728,981,0,0
511,43,0,0,0,0,0,0,0,0,0,-1,1735,981,0,0
518,43,0,0,0,0,0,0,0,0,0,-1,1742,981,0,0
525,43,0,0,0,0,0,0,0,0,0,-1,1749,981,0,0
532,43,0,0,0,0,0,0,0,0,0,-1,1756,981,0,0
539,43,0,0,0,0,0,0,0,0,0,-1,1763,981,0,0
546,43,0,0,0,0,0,0,0,0,0,-1,1770,981,0,0
553,43,0,0,0,0,0,0,0,0,0,-1,1777,981,0,0
560,43,0,0,0,0,0,0,0,0,0,-1,1784,981,0,0
567,43,0,0,0,0,0,0,0,0,0,-1,1791,981,0,0
574,43,0,0,0,0,0,0,0,0,0,-1,1798,981,0,0
581,43,0,0,0,0,0,0,0,0,0,-1,1805,981,0,0
588,43,0,0,0,0,0,0,0,0,0,-1,1812,981,0,0
595,43,0,0,0,0,0,0,0,0,0,-1,1819,981,0,0
602,43,0,0,0,0,0,0,0,0,0,-1,1826,981,0,0
609,43,0,0,0,0,0,0,0,0,0,-1,1833,981,0,0
616,43,0,0,0,0,0,0,0,0,0,-1,1840,981,0,0
623,43,0,0,0,0,0,0,0,0,0,-1,1847,981,0,0
630,43,0,0,0,0,0,0,0,0,0,-1,1854,981,0,0
637,43,0,0,0,0,0,0,0,0,0,-1,1861,981,0,0
644,43,22.5806,2.94586,0.00436636,-0.000759964,-0.00327686,0.00596344,-0.00235705,-0.453502,0.00495197,0.0377113,1868,981,22.5806,-2.94585
651,43,22.705,2.79974,0.00329673,0.000210739,-0.00242696,0.00462966,-0.00112219,-0.502243,0.00352064,0.0365459,1875,981,22.7049,-2.79973
658,43,22.9121,2.7002,0.002217,0.000699765,-0.00169759,0.00331777,-0.000401007,-0.575271,0.00235691,0.0367511,1882,981,22.9121,-2.70019
665,43,23.1017,2.40851,0.00112893,0.00109035,-0.000842214,0.00195207,0.000267204,-0.773947,0.00122209,0.0387682,1889,981,23.1017,-2.40851
672,43,23.0032,2.414,7.75074e-05,0.00131702,0.000168739,0.00133958,5.49471e-05,1.43788,0.000875314,0.0384309,1896,981,23.0032,-2.41402
679,43,22.7205,2.5694,-0.000923145,0.00134477,0.00113283,0.00181368,-0.00139205,1.17834,0.00185616,0.0392889,1903,981,22.7204,-2.56942
686,43,22.7031,2.65594,-0.00162088,0.00123394,0.00187455,0.00216267,-0.00254962,1.1108,0.0027237,0.0416817,1910,981,22.7031,-2.65594
693,43,22.6602,2.68744,-0.00204539,0.00106534,0.00241533,0.00238277,-0.00336283,1.07146,0.00333327,0.0382086,1917,981,22.6601,-2.68746
700,43,22.6895,2.71301,-0.00243274,0.00103559,0.00280762,0.00260143,-0.00399858,1.06205,0.00383887,0.0324765,1924,981,22.6894,-2.71299
707,43,22.743,2.70953,-0.00270016,0.000944858,0.00290389,0.00255077,-0.00430608,1.06564,0.00400181,0.0295868,1931,981,22.743,-2.70953
714,43,22.7562,2.85846,-0.00293889,0.000885971,0.00280225,0.00236618,-0.0044191,1.08483,0.0039768,0.0365804,1938,981,22.7562,-2.85844
721,43,22.4363,3.47498,0,0,0,0,0,0,0,-1,1945,981,22.4362,-3.47496
728,43,22.0493,3.8399,-0.003098,0.0009761,0.00245362,0.00212807,-0.00424996,1.13185,0.00374967,0.0208122,1952,981,22.0493,-3.83989
735,43,21.9688,3.97095,-0.00299228,0.00120058,0.00206895,0.00204958,-0.00384128,1.1814,0.00345313,0.0145445,1959,981,21.9688,-3.97097
742,43,21.969,4.0509,-0.0027207,0.00166322,0.00174557,0.00227335,-0.00333083,1.23454,0.00325472,0.0166045,1966,981,21.969,-4.05089
749,43,21.9393,4.14819,-0.00302384,0.00263437,0.00153969,0.00302621,-0.00341568,1.32159,0.00372149,0.018042,1973,981,21.9394,-4.14819
756,43,21.9213,4.22833,-0.00354831,0.00416395,0.00167185,0.00451077,-0.00389514,1.36625,0.00485749,0.016285,1980,981,21.9212,-4.22831
763,43,21.9172,4.29297,-0.00407334,0.00597583,0.00189251,0.00632042,-0.00441793,1.39069,0.00623214,0.0176431,1987,981,21.9173,-4.29296
770,43,21.8732,4.39746,-0.00503006,0.00862242,0.00286064,0.00919758,-0.00560522,1.37238,0.00862989,0.0145417,1994,981,21.8731,-4.39745
777,43,21.8457,4.47784,-0.00635593,0.0119966,0.0046115,0.0130902,-0.00744951,1.33796,0.0120068,0.0196994,2001,981,21.8456,-4.47782
784,43,21.8165,4.57623,-0.0083017,0.0161846,0.0071311,0.01811,-0.0102271,1.30709,0.0165701,0.0419358,2008,981,21.8166,-4.57626
791,43,21.7932,4.677,0,0,0,0,0,0,0,-1,2015,981,21.7932,-4.67701
798,43,21.9611,5.40271,-0.01465,0.0284805,0.0151602,0.033276,-0.0194456,1.26443,0.030786,0.0436915,2022,981,21.9611,-5.40272
805,43,21.4885,5.50366,-0.0197361,0.037513,0.0212116,0.0445156,-0.0267387,1.25193,0.0415633,0.04663,2029,981,21.4885,-5.50366
812,43,21.0322,5.59283,0,0,0,0,0,0,0,-1,2036,981,21.0322,-5.59286
-700,36,0,0,0,0,0,0,0,0,0,-1,524,988,0,0
-693,36,-16.4355,3.26788,0,0,0,0,0,0,0,-1,531,988,-16.4355,-3.26786
-686,36,-16.7552,2.41357,0,0,0,0,0,0,0,-1,538,988,-16.7552,-2.41357
-679,36,-15.5944,3.28241,0,0,0,0,0,0,0,-1,545,988,-15.5944,-3.28243
-672,36,-16.3569,2.77875,0,0,0,0,0,0,0,-1,552,988,-16.357,-2.77875
-665,36,-16.1113,2.61652,0,0,0,0,0,0,0,-1,559,988,-16.1112,-2.61649
-658,36,-15.101,2.10095,0,0,0,0,0,0,0,-1,566,988,-15.101,-2.10096
-651,36,-15.0719,1.99634,0.00561937,0.00301187,0.000832416,0.00586245,0.00276879,0.284117,0.00338642,0.038031,573,988,-15.0719,-1.99633
-644,36,-15.0878,1.91077,0.00287344,0.00256434,0.00154201,0.00426862,0.00116916,0.735452,0.0025471,0.0197065,580,988,-15.0878,-1.91077
-637,36,-15.0838,1.90253,0.000706022,0.00141055,0.00234966,0.00343421,-0.00131764,0.859804,0.00283274,0.0139741,587,988,-15.0838,-1.90253
-630,36,-15.0553,1.86536,-0.000898781,0.00150299,0.00178818,0.00245611,-0.0018519,1.08109,0.00249537,0.0122902,594,988,-15.0553,-1.86536
-623,36,-15.0344,1.7807,-0.00194962,0.00207804,0.00023064,0.0020912,-0.00196278,1.51378,0.00234096,0.0112904,601,988,-15.0344,-1.78072
-616,36,-15.0347,1.70935,-0.00293939,0.00204956,-0.000889939,0.00220355,-0.00309339,-1.39945,0.00307254,0.00977231,608,988,-15.0348,-1.70935
-609,36,-15.0326,1.67078,-0.00325965,0.00146259,-0.00200847,0.00220129,-0.00399834,-1.21836,0.00362913,0.0141387,615,988,-15.0326,-1.6708
-602,36,-15.0302,1.60443,-0.00295707,0.000998701,-0.0029425,0.00256628,-0.00452465,-1.0813,0.00414567,0.0180068,622,988,-15.0301,-1.60441
-595,36,-15.0214,1.54083,-0.00282899,0.000745202,-0.00359789,0.00297539,-0.00505917,-1.0159,0.00469047,0.0198316,629,988,-15.0214,-1.54085
-588,36,-15.0643,1.28094,-0.00288757,0.000397079,-0.00386361,0.00295293,-0.00544342,-0.986365,0.00491821,0.0192865,636,988,-15.0643,-1.28096
-581,36,-15.1556,0.961121,-0.00280597,9.68834e-05,-0.00385512,0.00276475,-0.00547384,-0.965438,0.00484151,0.0230249,643,988,-15.1556,-0.96111
-574,36,-15.1927,0.846008,-0.00257468,-0.000191995,-0.00375616,0.00255723,-0.0053239,-0.938965,0.00464268,0.0278899,650,988,-15.1927,-0.845979
-567,36,-15.1843,0.779907,-0.00224127,-0.000345037,-0.00351582,0.00234826,-0.00493457,-0.917101,0.00429221,0.0367175,657,988,-15.1843,-0.779893
-560,36,-15.1538,0.718933,-0.00160534,-0.000523418,-0.00309383,0.00207639,-0.00420515,-0.871949,0.00369542,0.0421178,664,988,-15.1538,-0.718948
-553,36,-15.2753,0.662903,-0.000642985,-0.000620766,-0.00259447,0.00196262,-0.00322637,-0.787539,0.00302533,0.0436168,671,988,-15.2753,-0.662901
-546,36,-15.3211,0.841187,0.000668787,-0.000602634,-0.00208048,0.00220851,-0.00214236,-0.637124,0.00251208,0.0455306,678,988,-15.3211,-0.841208
-539,36,-15.2122,0.80072,0.00235521,-0.000411943,-0.00176586,0.00321496,-0.0012717,-0.453094,0.00267014,0.0446716,685,988,-15.2122,-0.800744
-532,36,-15.1097,0.713074,0.00408877,0.000352472,-0.00207824,0.00501509,-0.000573849,-0.419292,0.00355017,0.0447383,692,988,-15.1098,-0.713094
-525,36,-15.2048,0.530273,0.00517698,0.00190774,-0.00311305,0.00705848,2.62409e-05,-0.543641,0.00469693,0.0457359,699,988,-15.2048,-0.530246
-518,36,0,0,0,0,0,0,0,0,0,-1,706,988,0,0
-511,36,0,0,0,0,0,0,0,0,0,-1,713,988,0,0
-504,36,0,0,0,0,0,0,0,0,0,-1,720,988,0,0
-497,36,0,0,0,0,0,0,0,0,0,-1,727,988,0,0
-490,36,0,0,0,0,0,0,0,0,0,-1,734,988,0,0
-483,36,0,0,0,0,0,0,0,0,0,-1,741,988,0,0
-476,36,0,0,0,0,0,0,0,0,0,-1,748,988,0,0
-469,36,0,0,0,0,0,0,0,0,0,-1,755,988,0,0
-462,36,0,0,0,0,0,0,0,0,0,-1,762,988,0,0
-455,36,0,0,0,0,0,0,0,0,0,-1,769,988,0,0
-448,36,0,0,0,0,0,0,0,0,0,-1,776,988,0,0
-441,36,0,0,0,0,0,0,0,0,0,-1,783,988,0,0
-434,36,0,0,0,0,0,0,0,0,0,-1,790,988,0,0
-427,36,0,0,0,0,0,0,0,0,0,-1,797,988,0,0
-420,36,0,0,0,0,0,0,0,0,0,-1,804,988,0,0
-413,36,0,0,0,0,0,0,0,0,0,-1,811,988,0,0
-406,36,0,0,0,0,0,0,0,0,0,-1,818,988,0,0
-399,36,0,0,0,0,0,0,0,0,0,-1,825,988,0,0
-392,36,0,0,0,0,0,0,0,0,0,-1,832,988,0,0
-385,36,0,0,0,0,0,0,0,0,0,-1,839,988,0,0
-378,36,0,0,0,0,0,0,0,0,0,-1,846,988,0,0
-371,36,0,0,0,0,0,0,0,0,0,-1,853,988,0,0
-364,36,0,0,0,0,0,0,0,0,0,-1,860,988,0,0
-357,36,0,0,0,0,0,0,0,0,0,-1,867,988,0,0
-350,36,0,0,0,0,0,0,0,0,0,-1,874,988,0,0
-343,36,0,0,0,0,0,0,0,0,0,-1,881,988,0,0
-336,36,0,0,0,0,0,0,0,0,0,-1,888,988,0,0
-329,36,0,0,0,0,0,0,0,0,0,-1,895,988,0,0
-322,36,0,0,0,0,0,0,0,0,0,-1,902,988,0,0
-315,36,0,0,0,0,0,0,0,0,0,-1,909,988,0,0
-308,36,0,0,0,0,0,0,0,0,0,-1,916,988,0,0
-301,36,0,0,0,0,0,0,0,0,0,-1,923,988,0,0
-294,36,0,0,0,0,0,0,0,0,0,-1,930,988,0,0
-287,36,0,0,0,0,0,0,0,0,0,-1,937,988,0,0
-280,36,0,0,0,0,0,0,0,0,0,-1,944,988,0,0
-273,36,0,0,0,0,0,0,0,0,0,-1,951,988,0,0
-266,36,0,0,0,0,0,0,0,0,0,-1,958,988,0,0
-259,36,0,0,0,0,0,0,0,0,0,-1,965,988,0,0
-252,36,0,0,0,0,0,0,0,0,0,-1,972,988,0,0
-245,36,0,0,0,0,0,0,0,0,0,-1,979,988,0,0
-238,36,0,0,0,0,0,0,0,0,0,-1,986,988,0,0
-231,36,0,0,0,0,0,0,0,0,0,-1,993,988,0,0
-224,36,0,0,0,0,0,0,0,0,0,-1,1000,988,0,0
-217,36,0,0,0,0,0,0,0,0,0,-1,1007,988,0,0
-210,36,0,0,0,0,0,0,0,0,0,-1,1014,988,0,0
-203,36,0,0,0,0,0,0,0,0,0,-1,1021,988,0,0
-196,36,0,0,0,0,0,0,0,0,0,-1,1028,988,0,0
-189,36,0,0,0,0,0,0,0,0,0,-1,1035,988,0,0
-182,36,0,0,0,0,0,0,0,0,0,-1,1042,988,0,0
-175,36,0,0,0,0,0,0,0,0,0,-1,1049,988,0,0
-168,36,0,0,0,0,0,0,0,0,0,-1,1056,988,0,0
-161,36,0,0,0,0,0,0,0,0,0,-1,1063,988,0,0
-154,36,0,0,0,0,0,0,0,0,0,-1,1070,988,0,0
-147,36,0,0,0,0,0,0,0,0,0,-1,1077,988,0,0
-140,36,0,0,0,0,0,0,0,0,0,-1,1084,988,0,0
-133,36,0,0,0,0,0,0,0,0,0,-1,1091,988,0,0
-126,36,0,0,0,0,0,0,0,0,0,-1,1098,988,0,0
-119,36,0,0,0,0,0,0,0,0,0,-1,1105,988,0,0
-112,36,0,0,0,0,0,0,0,0,0,-1,1112,988,0,0
-105,36,0,0,0,0,0,0,0,0,0,-1,1119,988,0,0
-98,36,0,0,0,0,0,0,0,0,0,-1,1126,988,0,0
-91,36,0,0,0,0,0,0,0,0,0,-1,1133,988,0,0
-84,36,0,0,0,0,0,0,0,0,0,-1,1140,988,0,0
-77,36,0,0,0,0,0,0,0,0,0,-1,1147,988,0,0
-70,36,0,0,0,0,0,0,0,0,0,-1,1154,988,0,0
-63,36,0,0,0,0,0,0,0,0,0,-1,1161,988,0,0
-56,36,0,0,0,0,0,0,0,0,0,-1,1168,988,0,0
-49,36,0,0,0,0,0,0,0,0,0,-1,1175,988,0,0
-42,36,0,0,0,0,0,0,0,0,0,-1,1182,988,0,0
-35,36,0,0,0,0,0,0,0,0,0,-1,1189,988,0,0
-28,36,0,0,0,0,0,0,0,0,0,-1,1196,988,0,0
-21,36,0,0,0,0,0,0,0,0,0,-1,1203,988,0,0
-14,36,0,0,0,0,0,0,0,0,0,-1,1210,988,0,0
-7,36,0,0,0,0,0,0,0,0,0,-1,1217,988,0,0
0,36,0,0,0,0,0,0,0,0,0,-1,1224,988,0,0
7,36,0,0,0,0,0,0,0,0,0,-1,1231,988,0,0
14,36,0,0,0,0,0,0,0,0,0,-1,1238,988,0,0
21,36,0,0,0,0,0,0,0,0,0,-1,1245,988,0,0
28,36,0,0,0,0,0,0,0,0,0,-1,1252,988,0,0
35,36,0,0,0,0,0,0,0,0,0,-1,1259,988,0,0
42,36,0,0,0,0,0,0,0,0,0,-1,1266,988,0,0
49,36,0,0,0,0,0,0,0,0,0,-1,1273,988,0,0
56,36,0,0,0,0,0,0,0,0,0,-1,1280,988,0,0
63,36,0,0,0,0,0,0,0,0,0,-1,1287,988,0,0
70,36,0,0,0,0,0,0,0,0,0,-1,1294,988,0,0
77,36,0,0,0,0,0,0,0,0,0,-1,1301,988,0,0
84,36,0,0,0,0,0,0,0,0,0,-1,1308,988,0,0
91,36,0,0,0,0,0,0,0,0,0,-1,1315,988,0,0
98,36,0,0,0,0,0,0,0,0,0,-1,1322,988,0,0
105,36,0,0,0,0,0,0,0,0,0,-1,1329,988,0,0
112,36,0,0,0,0,0,0,0,0,0,-1,1336,988,0,0
119,36,0,0,0,0,0,0,0,0,0,-1,1343,988,0,0
126,36,0,0,0,0,0,0,0,0,0,-1,1350,988,0,0
133,36,0,0,0,0,0,0,0,0,0,-1,1357,988,0,0
140,36,0,0,0,0,0,0,0,0,0,-1,1364,988,0,0
147,36,0,0,0,0,0,0,0,0,0,-1,1371,988,0,0
154,36,0,0,0,0,0,0,0,0,0,-1,1378,988,0,0
161,36,0,0,0,0,0,0,0,0,0,-1,1385,988,0,0
168,36,0,0,0,0,0,0,0,0,0,-1,1392,988,0,0
175,36,0,0,0,0,0,0,0,0,0,-1,1399,988,0,0
182,36,0,0,0,0,0,0,0,0,0,-1,1406,988,0,0
189,36,0,0,0,0,0,0,0,0,0,-1,1413,988,0,0
196,36,0,0,0,0,0,0,0,0,0,-1,1420,988,0,0
203,36,0,0,0,0,0,0,0,0,0,-1,1427,988,0,0
210,36,0,0,0,0,0,0,0,0,0,-1,1434,988,0,0
217,36,0,0,0,0,0,0,0,0,0,-1,1441,988,0,0
224,36,0,0,0,0,0,0,0,0,0,-1,1448,988,0,0
231,36,0,0,0,0,0,0,0,0,0,-1,1455,988,0,0
238,36,0,0,0,0,0,0,0,0,0,-1,1462,988,0,0
245,36,0,0,0,0,0,0,0,0,0,-1,1469,988,0,0
252,36,0,0,0,0,0,0,0,0,0,-1,1476,988,0,0
259,36,0,0,0,0,0,0,0,0,0,-1,1483,988,0,0
266,36,0,0,0,0,0,0,0,0,0,-1,1490,988,0,0
273,36,0,0,0,0,0,0,0,0,0,-1,1497,988,0,0
280,36,0,0,0,0,0,0,0,0,0,-1,1504,988,0,0
287,36,0,0,0,0,0,0,0,0,0,-1,1511,988,0,0
294,36,0,0,0,0,0,0,0,0,0,-1,1518,988,0,0
301,36,0,0,0,0,0,0,0,0,0,-1,1525,988,0,0
308,36,0,0,0,0,0,0,0,0,0,-1,1532,988,0,0
315,36,0,0,0,0,0,0,0,0,0,-1,1539,988,0,0
322,36,0,0,0,0,0,0,0,0,0,-1,1546,988,0,0
329,36,0,0,0,0,0,0,0,0,0,-1,1553,988,0,0
336,36,0,0,0,0,0,0,0,0,0,-1,1560,988,0,0
343,36,0,0,0,0,0,0,0,0,0,-1,1567,988,0,0
350,36,0,0,0,0,0,0,0,0,0,-1,1574,988,0,0
357,36,0,0,0,0,0,0,0,0,0,-1,1581,988,0,0
364,36,0,0,0,0,0,0,0,0,0,-1,1588,988,0,0
371,36,0,0,0,0,0,0,0,0,0,-1,1595,988,0,0
378,36,0,0,0,0,0,0,0,0,0,-1,1602,988,0,0
385,36,0,0,0,0,0,0,0,0,0,-1,1609,988,0,0
392,36,0,0,0,0,0,0,0,0,0,-1,1616,988,0,0
399,36,0,0,0,0,0,0,0,0,0,-1,1623,988,0,0
406,36,0,0,0,0,0,0,0,0,0,-1,1630,988,0,0
413,36,0,0,0,0,0,0,0,0,0,-1,1637,988,0,0
420,36,0,0,0,0,0,0,0,0,0,-1,1644,988,0,0
427,36,0,0,0,0,0,0,0,0,0,-1,1651,988,0,0
434,36,0,0,0,0,0,0,0,0,0,-1,1658,988,0,0
441,36,0,0,0,0,0,0,0,0,0,-1,1665,988,0,0
448,36,0,0,0,0,0,0,0,0,0,-1,1672,988,0,0
455,36,0,0,0,0,0,0,0,0,0,-1,1679,988,0,0
462,36,0,0,0,0,0,0,0,0,0,-1,1686,988,0,0
469,36,0,0,0,0,0,0,0,0,0,-1,1693,988,0,0
476,36,0,0,0,0,0,0,0,0,0,-1,1700,988,0,0
483,36,0,0,0,0,0,0,0,0,0,-1,1707,988,0,0
490,36,0,0,0,0,0,0,0,0,0,-1,1714,988,0,0
497,36,0,0,0,0,0,0,0,0,0,-1,1721,988,0,0
504,36,0,0,0,0,0,0,0,0,0,-1,1728,988,0,0
511,36,0,0,0,0,0,0,0,0,0,-1,1735,988,0,0
518,36,0,0,0,0,0,0,0,0,0,-1,1742,988,0,0
525,36,0,0,0,0,0,0,0,0,0,-1,1749,988,0,0
532,36,0,0,0,0,0,0,0,0,0,-1,1756,988,0,0
539,36,0,0,0,0,0,0,0,0,0,-1,1763,988,0,0
546,36,0,0,0,0,0,0,0,0,0,-1,1770,988,0,0
553,36,0,0,0,0,0,0,0,0,0,-1,1777,988,0,0
560,36,0,0,0,0,0,0,0,0,0,-1,1784,988,0,0
567,36,0,0,0,0,0,0,0,0,0,-1,1791,988,0,0
574,36,0,0,0,0,0,0,0,0,0,-1,1798,988,0,0
581,36,0,0,0,0,0,0,0,0,0,-1,1805,988,0,0
588,36,0,0,0,0,0,0,0,0,0,-1,1812,988,0,0
595,36,0,0,0,0,0,0,0,0,0,-1,1819,988,0,0
602,36,0,0,0,0,0,0,0,0,0,-1,1826,988,0,0
609,36,0,0,0,0,0,0,0,0,0,-1,1833,988,0,0
616,36,0,0,0,0,0,0,0,0,0,-1,1840,988,0,0
623,36,0,0,0,0,0,0,0,0,0,-1,1847,988,0,0
630,36,0,0,0,0,0,0,0,0,0,-1,1854,988,0,0
637,36,0,0,0,0,0,0,0,0,0,-1,1861,988,0,0
644,36,22.6025,2.85077,0.00389934,-0.00173885,-0.00386042,0.00586043,-0.00369993,-0.470026,0.00556646,0.0391583,1868,988,22.6025,-2.85078
651,36,22.6675,2.7547,0.00295842,-0.000511506,-0.00273478,0.00446214,-0.00201523,-0.50273,0.00382763,0.0392499,1875,988,22.6675,-2.75467
658,36,22.8022,2.70178,0.00198358,0.000131815,-0.00185577,0.00313162,-0.00101622,-0.554006,0.00249641,0.0364839,1882,988,22.8023,-2.70181
665,36,22.944,2.81909,0.00101102,0.00060755,-0.000928043,0.001759,-0.000140429,-0.678374,0.00122217,0.0358752,1889,988,22.944,-2.81906
672,36,22.9626,2.66528,3.68608e-05,0.000915358,0.000179168,0.000950494,1.72522e-06,1.37715,0.000633088,0.0357985,1896,988,22.9626,-2.66527
679,36,22.8123,2.68829,-0.000958457,0.00102219,0.00126369,0.00163737,-0.00157364,1.11775,0.001854,0.0381083,1903,988,22.8122,-2.68831
686,36,22.6793,2.93402,-0.00168168,0.000976654,0.00210264,0.00213502,-0.00284004,1.06726,0.00288195,0.0400617,1910,988,22.6793,-2.93401
693,36,22.6864,2.79517,-0.00215068,0.000867206,0.00272,0.00246878,-0.00375225,1.03864,0.0036171,0.0394043,1917,988,22.6865,-2.79514
700,36,22.7131,2.77911,-0.00256265,0.000889582,0.00317899,0.00278085,-0.00445392,1.03412,0.00421406,0.0350205,1924,988,22.7131,-2.77914
707,36,22.7356,2.74158,-0.00284129,0.000852504,0.00334422,0.00282592,-0.00481471,1.03769,0.00446086,0.0260596,1931,988,22.7355,-2.74159
714,36,22.7765,2.87207,-0.00308338,0.000810105,0.00328666,0.0026833,-0.00495657,1.05277,0.0044755,0.032233,1938,988,22.7765,-2.87208
721,36,22.4115,3.75891,0,0,0,0,0,0,0,-1,1945,988,22.4116,-3.75892
728,36,22.2294,3.89001,-0.00333328,0.00096661,0.00292884,0.0024499,-0.00481657,1.10201,0.00426883,0.0226521,1952,988,22.2294,-3.89001
735,36,22.0508,3.99951,-0.00329443,0.00124654,0.00253591,0.00237987,-0.00442776,1.15051,0.00398922,0.0173022,1959,988,22.0507,-3.99951
742,36,22.051,4.05664,-0.00316719,0.00175965,0.00215318,0.00256802,-0.00397556,1.21165,0.00380696,0.0138748,1966,988,22.051,-4.05661
749,36,22.0208,4.13776,-0.00362242,0.00284017,0.00188748,0.00335105,-0.00413329,1.30646,0.00432895,0.0155051,1973,988,22.0207,-4.13775
756,36,21.9886,4.21161,-0.00429683,0.00446569,0.00189177,0.00485666,-0.0046878,1.36699,0.00551079,0.0146626,1980,988,21.9886,-4.21161
763,36,21.9941,4.26886,-0.0051012,0.0064554,0.00192994,0.00676918,-0.00541498,1.40962,0.00704899,0.0159111,1987,988,21.9941,-4.26884
770,36,21.9877,4.34344,-0.00647073,0.00935874,0.00261701,0.00978018,-0.00689217,1.41113,0.0096738,0.0133528,1994,988,21.9877,-4.34343
777,36,21.9152,4.47681,-0.00834844,0.0131309,0.00404698,0.0138681,-0.00908564,1.39061,0.0133479,0.0206667,2001,988,21.9152,-4.47682
784,36,21.8145,4.68671,-0.0109822,0.0178302,0.00622704,0.0191184,-0.0122704,1.3668,0.0182655,0.0419565,2008,988,21.8144,-4.68672
791,36,21.7493,4.94653,-0.0145349,0.0238604,0.00920696,0.025954,-0.0166285,1.3472,0.0247808,0.0459272,2015,988,21.7493,-4.94655
798,36,21.5004,5.08136,-0.0191386,0.0316461,0.0131452,0.0348468,-0.0223394,1.33195,0.0332787,0.0450168,2022,988,21.5004,-5.08134
805,36,21.2561,5.1828,0,0,0,0,0,0,0,-1,2029,988,21.256,-5.18281
812,36,21.1946,4.04529,0,0,0,0,0,0,0,-1,2036,988,21.1945,-4.04529
-700,29,0,0,0,0,0,0,0,0,0,-1,524,995,0,0
-693,29,-15.8892,4.37006,0.0316243,0.0512835,-0.0484714,0.0909119,-0.00800411,-0.885438,0.0634445,0.0414293,531,995,-15.8891,-4.37004
-686,29,-15.594,3.1842,0.0268781,0.0356711,-0.0343748,0.0659294,-0.00338026,-0.849002,0.0451219,0.0458292,538,995,-15.594,-3.18419
-679,29,-15.7805,2.87097,0,0,0,0,0,0,0,-1,545,995,-15.7805,-2.87098
-672,29,-15.9564,2.53125,0.0164704,0.0177561,-0.0157619,0.0328882,0.00133822,-0.805779,0.0214933,0.0432314,552,995,-15.9563,-2.53127
-665,29,-15.6912,2.36798,0.011809,0.0127524,-0.00983582,0.0221278,0.00243353,-0.809359,0.0140113,0.0425596,559,995,-15.6912,-2.36798
-658,29,-15.3902,2.25616,0,0,0,0,0,0,0,-1,566,995,-15.3902,-2.25614
-651,29,-15.0665,1.92108,0.00463523,0.00696202,-0.00278708,0.00881877,0.00277848,-0.983117,0.00520632,0.0351305,573,995,-15.0665,-1.92108
-644,29,-15.0709,1.84277,0.00232201,0.0052535,-0.00122537,0.00569824,0.00187727,-1.22264,0.00335307,0.0185819,580,995,-15.0709,-1.8428
-637,29,-15.1242,1.84918,0.000465525,0.00305186,0.000231869,0.00307248,0.000444902,1.48209,0.0019173,0.0133571,587,995,-15.1242,-1.84917
-630,29,-15.1234,1.84155,-0.000860491,0.00233407,0.000226165,0.00235,-0.000876423,1.50047,0.00192645,0.0109856,594,995,-15.1234,-1.84154
-623,29,-15.1063,1.78424,-0.00166906,0.00250045,-0.000958917,0.00271042,-0.00187902,-1.35524,0.00266417,0.0103917,601,995,-15.1062,-1.78423
-616,29,-15.0786,1.71484,-0.00242012,0.00222543,-0.00171645,0.00279081,-0.00298551,-1.2526,0.00333559,0.0126698,608,995,-15.0786,-1.71485
-609,29,-15.0872,1.67102,-0.00266305,0.00147977,-0.00261497,0.00274435,-0.00392763,-1.12036,0.00387221,0.0189039,615,995,-15.0872,-1.67104
-602,29,-15.0845,1.61749,-0.00235723,0.000917231,-0.00350836,0.00315158,-0.00459158,-1.00371,0.00449621,0.019816,622,995,-15.0845,-1.61751
-595,29,-15.0637,1.51965,-0.00221032,0.000585957,-0.0041416,0.00355905,-0.00518342,-0.948184,0.00507643,0.0185696,629,995,-15.0637,-1.51967
-588,29,-15.1068,1.19293,-0.00220024,0.000224334,-0.00440839,0.00358409,-0.00555999,-0.919579,0.00532026,0.0230835,636,995,-15.1068,-1.19296
-581,29,-15.1653,0.946472,-0.00206372,-0.00010737,-0.00437005,0.00339264,-0.00556373,-0.895501,0.00522136,0.034953,643,995,-15.1653,-0.946493
-574,29,-15.1875,0.828125,-0.00183451,-0.000429651,-0.0042322,0.00315802,-0.00542217,-0.867635,0.00501094,0.0321031,650,995,-15.1875,-0.828147
-567,29,-15.2161,0.747681,-0.00151732,-0.000674893,-0.00390904,0.00283557,-0.00502778,-0.839068,0.00459833,0.0337997,657,995,-15.216,-0.747674
-560,29,-15.3685,0.725769,-0.000936348,-0.000918357,-0.00339738,0.00247004,-0.00432474,-0.786722,0.00397139,0.0383286,664,995,-15.3685,-0.725784
-553,29,-15.4026,0.749573,-7.95132e-05,-0.00110633,-0.00278681,0.00224078,-0.00342663,-0.694305,0.00329587,0.0405558,671,995,-15.4026,-0.749565
-546,29,-15.2457,0.751831,0.00107259,-0.00122336,-0.00213861,0.00235186,-0.00250263,-0.539078,0.00280319,0.0429442,678,995,-15.2457,-0.751841
-539,29,-15.0952,0.840942,0.00254741,-0.00124048,-0.00171228,0.00320668,-0.00189976,-0.367532,0.00298022,0.0436741,685,995,-15.0952,-0.840959
-532,29,-14.9803,0.915161,0.00399883,-0.000718165,-0.00197605,0.00471723,-0.00143656,-0.348697,0.00371738,0.045842,692,995,-14.9804,-0.915188
-525,29,-15.0315,0.853088,0.00482662,0.000414226,-0.00286508,0.0062365,-0.000995654,-0.4573,0.0045262,0.0454553,699,995,-15.0315,-0.853066
-518,29,0,0,0,0,0,0,0,0,0,-1,706,995,0,0
-511,29,0,0,0,0,0,0,0,0,0,-1,713,995,0,0
-504,29,0,0,0,0,0,0,0,0,0,-1,720,995,0,0
-497,29,0,0,0,0,0,0,0,0,0,-1,727,995,0,0
-490,29,0,0,0,0,0,0,0,0,0,-1,734,995,0,0
-483,29,0,0,0,0,0,0,0,0,0,-1,741,995,0,0
-476,29,0,0,0,0,0,0,0,0,0,-1,748,995,0,0
-469,29,0,0,0,0,0,0,0,0,0,-1,755,995,0,0
-462,29,0,0,0,0,0,0,0,0,0,-1,762,995,0,0
-455,29,0,0,0,0,0,0,0,0,0,-1,769,995,0,0
-448,29,0,0,0,0,0,0,0,0,0,-1,776,995,0,0
-441,29,0,0,0,0,0,0,0,0,0,-1,783,995,0,0
-434,29,0,0,0,0,0,0,0,0,0,-1,790,995,0,0
-427,29,0,0,0,0,0,0,0,0,0,-1,797,995,0,0
-420,29,0,0,0,0,0,0,0,0,0,-1,804,995,0,0
-413,29,0,0,0,0,0,0,0,0,0,-1,811,995,0,0
-406,29,0,0,0,0,0,0,0,0,0,-1,818,995,0,0
-399,29,0,0,0,0,0,0,0,0,0,-1,825,995,0,0
-392,29,0,0,0,0,0,0,0,0,0,-1,832,995,0,0
-385,29,0,0,0,0,0,0,0,0,0,-1,839,995,0,0
-378,29,0,0,0,0,0,0,0,0,0,-1,846,995,0,0
-371,29,0,0,0,0,0,0,0,0,0,-1,853,995,0,0
-364,29,0,0,0,0,0,0,0,0,0,-1,860,995,0,0
-357,29,0,0,0,0,0,0,0,0,0,-1,867,995,0,0
-350,29,0,0,0,0,0,0,0,0,0,-1,874,995,0,0
-343,29,0,0,0,0,0,0,0,0,0,-1,881,995,0,0
-336,29,0,0,0,0,0,0,0,0,0,-1,888,995,0,0
-329,29,0,0,0,0,0,0,0,0,0,-1,895,995,0,0
-322,29,0,0,0,0,0,0,0,0,0,-1,902,995,0,0
-315,29,0,0,0,0,0,0,0,0,0,-1,909,995,0,0
-308,29,0,0,0,0,0,0,0,0,0,-1,916,995,0,0
-301,29,0,0,0,0,0,0,0,0,0,-1,923,995,0,0
-294,29,0,0,0,0,0,0,0,0,0,-1,930,995,0,0
-287,29,0,0,0,0,0,0,0,0,0,-1,937,995,0,0
-280,29,0,0,0,0,0,0,0,0,0,-1,944,995,0,0
-273,29,0,0,0,0,0,0,0,0,0,-1,951,995,0,0
-266,29,0,0,0,0,0,0,0,0,0,-1,958,995,0,0
-259,29,0,0,0,0,0,0,0,0,0,-1,965,995,0,0
-252,29,0,0,0,0,0,0,0,0,0,-1,972,995,0,0
-245,29,0,0,0,0,0,0,0,0,0,-1,979,995,0,0
-238,29,0,0,0,0,0,0,0,0,0,-1,986,995,0,0
-231,29,0,0,0,0,0,0,0,0,0,-1,993,995,0,0
-224,29,0,0,0,0,0,0,0,0,0,-1,1000,995,0,0
-217,29,0,0,0,0,0,0,0,0,0,-1,1007,995,0,0
-210,29,0,0,0,0,0,0,0,0,0,-1,1014,995,0,0
-203,29,0,0,0,0,0,0,0,0,0,-1,1021,995,0,0
-196,29,0,0,0,0,0,0,0,0,0,-1,1028,995,0,0
-189,29,0,0,0,0,0,0,0,0,0,-1,1035,995,0,0
-182,29,0,0,0,0,0,0,0,0,0,-1,1042,995,0,0
-175,29,0,0,0,0,0,0,0,0,0,-1,1049,995,0,0
-168,29,0,0,0,0,0,0,0,0,0,-1,1056,995,0,0
-161,29,0,0,0,0,0,0,0,0,0,-1,1063,995,0,0
-154,29,0,0,0,0,0,0,0,0,0,-1,1070,995,0,0
-147,29,0,0,0,0,0,0,0,0,0,-1,1077,995,0,0
-140,29,0,0,0,0,0,0,0,0,0,-1,1084,995,0,0
-133,29,0,0,0,0,0,0,0,0,0,-1,1091,995,0,0
-126,29,0,0,0,0,0,0,0,0,0,-1,1098,995,0,0
-119,29,0,0,0,0,0,0,0,0,0,-1,1105,995,0,0
-112,29,0,0,0,0,0,0,0,0,0,-1,1112,995,0,0
-105,29,0,0,0,0,0,0,0,0,0,-1,1119,995,0,0
-98,29,0,0,0,0,0,0,0,0,0,-1,1126,995,0,0
-91,29,0,0,0,0,0,0,0,0,0,-1,1133,995,0,0
-84,29,0,0,0,0,0,0,0,0,0,-1,1140,995,0,0
-77,29,0,0,0,0,0,0,0,0,0,-1,1147,995,0,0
-70,29,0,0,0,0,0,0,0,0,0,-1,1154,995,0,0
-63,29,0,0,0,0,0,0,0,0,0,-1,1161,995,0,0
-56,29,0,0,0,0,0,0,0,0,0,-1,1168,995,0,0
-49,29,0,0,0,0,0,0,0,0,0,-1,1175,995,0,0
-42,29,0,0,0,0,0,0,0,0,0,-1,1182,995,0,0
-35,29,0,0,0,0,0,0,0,0,0,-1,1189,995,0,0
-28,29,0,0,0,0,0,0,0,0,0,-1,1196,995,0,0
-21,29,0,0,0,0,0,0,0,0,0,-1,1203,995,0,0
-14,29,0,0,0,0,0,0,0,0,0,-1,1210,995,0,0
-7,29,0,0,0,0,0,0,0,0,0,-1,1217,995,0,0
0,29,0,0,0,0,0,0,0,0,0,-1,1224,995,0,0
7,29,0,0,0,0,0,0,0,0,0,-1,1231,995,0,0
14,29,0,0,0,0,0,0,0,0,0,-1,1238,995,0,0
21,29,0,0,0,0,0,0,0,0,0,-1,1245,995,0,0
28,29,0,0,0,0,0,0,0,0,0,-1,1252,995,0,0
35,29,0,0,0,0,0,0,0,0,0,-1,1259,995,0,0
42,29,0,0,0,0,0,0,0,0,0,-1,1266,995,0,0
49,29,0,0,0,0,0,0,0,0,0,-1,1273,995,0,0
56,29,0,0,0,0,0,0,0,0,0,-1,1280,995,0,0
63,29,0,0,0,0,0,0,0,0,0,-1,1287,995,0,0
70,29,0,0,0,0,0,0,0,0,0,-1,1294,995,0,0
77,29,0,0,0,0,0,0,0,0,0,-1,1301,995,0,0
84,29,0,0,0,0,0,0,0,0,0,-1,1308,995,0,0
91,29,0,0,0,0,0,0,0,0,0,-1,1315,995,0,0
98,29,0,0,0,0,0,0,0,0,0,-1,1322,995,0,0
105,29,0,0,0,0,0,0,0,0,0,-1,1329,995,0,0
112,29,0,0,0,0,0,0,0,0,0,-1,1336,995,0,0
119,29,0,0,0,0,0,0,0,0,0,-1,1343,995,0,0
126,29,0,0,0,0,0,0,0,0,0,-1,1350,995,0,0
133,29,0,0,0,0,0,0,0,0,0,-1,1357,995,0,0
140,29,0,0,0,0,0,0,0,0,0,-1,1364,995,0,0
147,29,0,0,0,0,0,0,0,0,0,-1,1371,995,0,0
154,29,0,0,0,0,0,0,0,0,0,-1,1378,995,0,0
161,29,0,0,0,0,0,0,0,0,0,-1,1385,995,0,0
168,29,0,0,0,0,0,0,0,0,0,-1,1392,995,0,0
175,29,0,0,0,0,0,0,0,0,0,-1,1399,995,0,0
182,29,0,0,0,0,0,0,0,0,0,-1,1406,995,0,0
189,29,0,0,0,0,0,0,0,0,0,-1,1413,995,0,0
196,29,0,0,0,0,0,0,0,0,0,-1,1420,995,0,0
203,29,0,0,0,0,0,0,0,0,0,-1,1427,995,0,0
210,29,0,0,0,0,0,0,0,0,0,-1,1434,995,0,0
217,29,0,0,0,0,0,0,0,0,0,-1,1441,995,0,0
224,29,0,0,0,0,0,0,0,0,0,-1,1448,995,0,0
231,29,0,0,0,0,0,0,0,0,0,-1,1455,995,0,0
238,29,0,0,0,0,0,0,0,0,0,-1,1462,995,0,0
245,29,0,0,0,0,0,0,0,0,0,-1,1469,995,0,0
252,29,0,0,0,0,0,0,0,0,0,-1,1476,995,0,0
259,29,0,0,0,0,0,0,0,0,0,-1,1483,995,0,0
266,29,0,0,0,0,0,0,0,0,0,-1,1490,995,0,0
273,29,0,0,0,0,0,0,0,0,0,-1,1497,995,0,0
280,29,0,0,0,0,0,0,0,0,0,-1,1504,995,0,0
287,29,0,0,0,0,0,0,0,0,0,-1,1511,995,0,0
294,29,0,0,0,0,0,0,0,0,0,-1,1518,995,0,0
301,29,0,0,0,0,0,0,0,0,0,-1,1525,995,0,0
308,29,0,0,0,0,0,0,0,0,0,-1,1532,995,0,0
315,29,0,0,0,0,0,0,0,0,0,-1,1539,995,0,0
322,29,0,0,0,0,0,0,0,0,0,-1,1546,995,0,0
329,29,0,0,0,0,0,0,0,0,0,-1,1553,995,0,0
336,29,0,0,0,0,0,0,0,0,0,-1,1560,995,0,0
343,29,0,0,0,0,0,0,0,0,0,-1,1567,995,0,0
350,29,0,0,0,0,0,0,0,0,0,-1,1574,995,0,0
357,29,0,0,0,0,0,0,0,0,0,-1,1581,995,0,0
364,29,0,0,0,0,0,0,0,0,0,-1,1588,995,0,0
371,29,0,0,0,0,0,0,0,0,0,-1,1595,995,0,0
378,29,0,0,0,0,0,0,0,0,0,-1,1602,995,0,0
385,29,0,0,0,0,0,0,0,0,0,-1,1609,995,0,0
392,29,0,0,0,0,0,0,0,0,0,-1,1616,995,0,0
399,29,0,0,0,0,0,0,0,0,0,-1,1623,995,0,0
406,29,0,0,0,0,0,0,0,0,0,-1,1630,995,0,0
413,29,0,0,0,0,0,0,0,0,0,-1,1637,995,0,0
420,29,0,0,0,0,0,0,0,0,0,-1,1644,995,0,0
427,29,0,0,0,0,0,0,0,0,0,-1,1651,995,0,0
434,29,0,0,0,0,0,0,0,0,0,-1,1658,995,0,0
441,29,0,0,0,0,0,0,0,0,0,-1,1665,995,0,0
448,29,0,0,0,0,0,0,0,0,0,-1,1672,995,0,0
455,29,0,0,0,0,0,0,0,0,0,-1,1679,995,0,0
462,29,0,0,0,0,0,0,0,0,0,-1,1686,995,0,0
469,29,0,0,0,0,0,0,0,0,0,-1,1693,995,0,0
476,29,0,0,0,0,0,0,0,0,0,-1,1700,995,0,0
483,29,0,0,0,0,0,0,0,0,0,-1,1707,995,0,0
490,29,0,0,0,0,0,0,0,0,0,-1,1714,995,0,0
497,29,0,0,0,0,0,0,0,0,0,-1,1721,995,0,0
504,29,0,0,0,0,0,0,0,0,0,-1,1728,995,0,0
511,29,0,0,0,0,0,0,0,0,0,-1,1735,995,0,0
518,29,0,0,0,0,0,0,0,0,0,-1,1742,995,0,0
525,29,0,0,0,0,0,0,0,0,0,-1,1749,995,0,0
532,29,0,0,0,0,0,0,0,0,0,-1,1756,995,0,0
539,29,0,0,0,0,0,0,0,0,0,-1,1763,995,0,0
546,29,0,0,0,0,0,0,0,0,0,-1,1770,995,0,0
553,29,0,0,0,0,0,0,0,0,0,-1,1777,995,0,0
560,29,0,0,0,0,0,0,0,0,0,-1,1784,995,0,0
567,29,0,0,0,0,0,0,0,0,0,-1,1791,995,0,0
574,29,0,0,0,0,0,0,0,0,0,-1,1798,995,0,0
581,29,0,0,0,0,0,0,0,0,0,-1,1805,995,0,0
588,29,0,0,0,0,0,0,0,0,0,-1,1812,995,0,0
595,29,0,0,0,0,0,0,0,0,0,-1,1819,995,0,0
602,29,0,0,0,0,0,0,0,0,0,-1,1826,995,0,0
609,29,0,0,0,0,0,0,0,0,0,-1,1833,995,0,0
616,29,0,0,0,0,0,0,0,0,0,-1,1840,995,0,0
623,29,0,0,0,0,0,0,0,0,0,-1,1847,995,0,0
630,29,0,0,0,0,0,0,0,0,0,-1,1854,995,0,0
637,29,0,0,0,0,0,0,0,0,0,-1,1861,995,0,0
644,29,22.6488,2.68408,0.0039546,-0.0029794,-0.00493041,0.00651496,-0.00553976,-0.478967,0.00696738,0.0430387,1868,995,22.6488,-2.68408
651,29,22.6931,2.6817,0.00304477,-0.0015211,-0.00335591,0.00482064,-0.00329698,-0.486716,0.00471415,0.043006,1875,995,22.6932,-2.68171
658,29,22.7317,2.76007,0.00207567,-0.000692478,-0.00220117,0.00329175,-0.00190856,-0.504738,0.00303759,0.0407992,1882,995,22.7317,-2.76008
665,29,22.7446,3.15094,0.00113043,-8.5579e-05,-0.00111885,0.0017958,-0.000750953,-0.53651,0.00151105,0.0391926,1889,995,22.7447,-3.15096
672,29,22.8168,2.85559,0.000176442,0.00037824,0.000133762,0.000444891,0.000109791,1.10853,0.000267613,0.0380247,1896,995,22.8167,-2.85559
679,29,22.8623,2.7392,-0.000862813,0.000671172,0.00138868,0.0014906,-0.00168224,1.03771,0.00183295,0.0408391,1903,995,22.8623,-2.7392
686,29,22.7257,2.94537,-0.00165811,0.00077944,0.00237057,0.00222619,-0.00310486,1.02284,0.00309178,0.0398533,1910,995,22.7258,-2.94537
693,29,22.6672,2.9245,-0.00220869,0.000807755,0.00310012,0.00274706,-0.004148,1.01179,0.00400816,0.0384316,1917,995,22.6673,-2.92452
700,29,22.6736,2.84369,-0.00266647,0.00092978,0.00364841,0.00319911,-0.0049358,1.01435,0.00473223,0.0335346,1924,995,22.6735,-2.84371
707,29,22.6887,2.7395,-0.00298315,0.000960395,0.0039079,0.00336578,-0.00538854,1.01904,0.00509908,0.0223741,1931,995,22.6887,-2.73948
714,29,22.7461,2.9303,-0.00324424,0.000968139,0.00391527,0.00330778,-0.00558388,1.03217,0.00518936,0.0279569,1938,995,22.7461,-2.93031
721,29,22.4814,3.66486,0,0,0,0,0,0,0,-1,1945,995,22.4814,-3.66484
728,29,22.2411,3.87549,-0.00356031,0.00122219,0.00353365,0.00309764,-0.00543576,1.08286,0.00498803,0.0230344,1952,995,22.2411,-3.87549
735,29,22.1102,4.0097,-0.00359551,0.00150221,0.00311128,0.00297538,-0.00506869,1.12858,0.00469637,0.0135054,1959,995,22.1102,-4.00973
742,29,22.1173,4.06213,-0.00361046,0.00197903,0.00262906,0.00302128,-0.00465271,1.19337,0.00446383,0.0115636,1966,995,22.1173,-4.06216
749,29,22.1084,4.14441,-0.00416858,0.00305358,0.0022374,0.00369054,-0.00480554,1.29345,0.00491928,0.0126306,1973,995,22.1084,-4.14441
756,29,22.0809,4.22119,-0.00493886,0.00463453,0.00202938,0.00504695,-0.00535128,1.3703,0.00600428,0.0121384,1980,995,22.0809,-4.22117
763,29,22.1017,4.25616,-0.00595221,0.0066152,0.00176807,0.00685921,-0.00619621,1.43365,0.00754079,0.0115949,1987,995,22.1017,-4.25614
770,29,22.0577,4.3045,-0.00762382,0.00949758,0.00198218,0.00972407,-0.00785031,1.45703,0.0101658,0.0123926,1994,995,22.0578,-4.30453
777,29,22.0171,4.42291,-0.00989926,0.0133184,0.0028293,0.0136582,-0.0102391,1.45127,0.0138441,0.0194473,2001,995,22.0171,-4.4229
784,29,21.949,4.58405,-0.0130458,0.0181608,0.00436483,0.0187598,-0.0136448,1.43441,0.0187863,0.0387415,2008,995,21.949,-4.58406
791,29,21.8517,4.72467,-0.0172136,0.024397,0.00651527,0.0253933,-0.0182099,1.41906,0.0252879,0.0459436,2015,995,21.8517,-4.72469
798,29,20.8932,4.4646,-0.0224929,0.0324735,0.00933875,0.0340168,-0.0240362,1.40702,0.0336816,0.0426081,2022,995,20.8931,-4.46457
805,29,20.8057,3.89642,-0.0292979,0.04301,0.0129574,0.0452618,-0.0315497,1.39873,0.0445821,0.0473292,2029,995,20.8058,-3.89642
812,29,20.739,3.39038,0,0,0,0,0,0,0,-1,2036,995,20.7391,-3.39036
-700,22,0,0,0,0,0,0,0,0,0,-1,524,1002,0,0
-693,22,-14.6318,2.99084,0.026599,0.0791928,-0.0531155,0.112165,-0.00637285,-1.01525,0.0769887,0.0460711,531,1002,-14.6318,-2.99082
-686,22,-14.9186,2.5885,0.0227737,0.0577822,-0.0387884,0.0828331,-0.00227718,-0.997355,0.0559966,0.0481043,538,1002,-14.9186,-2.58853
-679,22,-15.6207,2.51843,0,0,0,0,0,0,0,-1,545,1002,-15.6207,-2.51845
-672,22,-15.4714,2.33966,0.0139922,0.0310733,-0.0191769,0.0435255,0.00154004,-0.994892,0.0285175,0.0450648,552,1002,-15.4714,-2.33965
-665,22,-15.3236,2.16315,0.0100106,0.0228135,-0.0126852,0.030621,0.00220312,-1.01907,0.0197207,0.04356,559,1002,-15.3236,-2.16315
-658,22,-15.0067,2.04285,0,0,0,0,0,0,0,-1,566,1002,-15.0066,-2.04284
-651,22,-14.9381,1.92285,0.00387686,0.0122825,-0.0045854,0.0142998,0.00185959,-1.15635,0.00897776,0.0358587,573,1002,-14.9381,-1.92285
-644,22,-15.0705,1.8476,0.00192247,0.0089343,-0.0026179,0.00980387,0.0010529,-1.2501,0.00621475,0.0188011,580,1002,-15.0705,-1.84759
-637,22,-15.1263,1.83344,0.000333116,0.00542515,-0.000899876,0.0055795,0.000178767,-1.40093,0.00366153,0.0139823,587,1002,-15.1263,-1.83347
-630,22,-15.1637,1.8031,-0.000751945,0.00365831,-0.000639142,0.00374907,-0.000842703,-1.42974,0.00282253,0.0112689,594,1002,-15.1637,-1.80309
-623,22,-15.1633,1.75885,-0.00131614,0.00316775,-0.00166927,0.00372094,-0.00186932,-1.25079,0.00328602,0.00996915,601,1002,-15.1633,-1.75884
-616,22,-15.1395,1.70752,-0.00192094,0.00244245,-0.0023474,0.00346546,-0.00294394,-1.15981,0.00370455,0.015663,608,1002,-15.1395,-1.70754
-609,22,-15.1757,1.67236,-0.00210189,0.00145597,-0.00315556,0.00329949,-0.00394541,-1.04207,0.00418838,0.0250152,615,1002,-15.1757,-1.67234
-602,22,-15.1663,1.6181,-0.00178109,0.000822967,-0.00404963,0.00377474,-0.00473286,-0.940938,0.00492224,0.0253087,622,1002,-15.1663,-1.61813
-595,22,-15.1645,1.50586,-0.00162793,0.000456461,-0.00467761,0.00420657,-0.00537804,-0.89501,0.00554744,0.0212309,629,1002,-15.1645,-1.50587
-588,22,-15.1653,1.13708,-0.0015906,0.000124311,-0.00492365,0.00426461,-0.0057309,-0.871609,0.00579157,0.0273153,636,1002,-15.1653,-1.13711
-581,22,-15.2007,0.913391,-0.00143287,-0.000173263,-0.00482153,0.00405942,-0.00566556,-0.850342,0.00564019,0.0392821,643,1002,-15.2008,-0.913395
-574,22,-15.1994,0.837646,-0.00123902,-0.00046553,-0.00460202,0.00376597,-0.00547052,-0.827319,0.00536287,0.0347454,650,1002,-15.1994,-0.837666
-567,22,-15.2354,0.819763,-0.000975902,-0.000707357,-0.00411373,0.00327429,-0.00495755,-0.801712,0.00478566,0.0329509,657,1002,-15.2354,-0.819754
-560,22,-15.3527,0.878235,-0.000501601,-0.000913949,-0.00341278,0.00271123,-0.00412678,-0.755229,0.00397602,0.0376389,664,1002,-15.3527,-0.87822
-553,22,-15.3392,0.984314,0.000188434,-0.00108357,-0.00254706,0.00217769,-0.00307283,-0.66305,0.00304604,0.0385052,671,1002,-15.3392,-0.984318
-546,22,-15.1845,0.870972,0.00111545,-0.00122308,-0.00155906,0.00189499,-0.00200262,-0.463654,0.00225057,0.0398946,678,1002,-15.1845,-0.870973
-539,22,-15.2311,0.82251,0.0023159,-0.00134187,-0.000733715,0.00245759,-0.00148356,-0.190762,0.00229847,0.0423047,685,1002,-15.2311,-0.822488
-532,22,-15.1803,0.934998,0.0034557,-0.000970619,-0.00056114,0.00352573,-0.00104065,-0.124157,0.00276347,0.0444429,692,1002,-15.1803,-0.934989
-525,22,0,0,0,0,0,0,0,0,0,-1,699,1002,0,0
-518,22,0,0,0,0,0,0,0,0,0,-1,706,1002,0,0
-511,22,0,0,0,0,0,0,0,0,0,-1,713,1002,0,0
-504,22,0,0,0,0,0,0,0,0,0,-1,720,1002,0,0
-497,22,0,0,0,0,0,0,0,0,0,-1,727,1002,0,0
-490,22,0,0,0,0,0,0,0,0,0,-1,734,1002,0,0
-483,22,0,0,0,0,0,0,0,0,0,-1,741,1002,0,0
-476,22,0,0,0,0,0,0,0,0,0,-1,748,1002,0,0
-469,22,0,0,0,0,0,0,0,0,0,-1,755,1002,0,0
-462,22,0,0,0,0,0,0,0,0,0,-1,762,1002,0,0
-455,22,0,0,0,0,0,0,0,0,0,-1,769,1002,0,0
-448,22,0,0,0,0,0,0,0,0,0,-1,776,1002,0,0
-441,22,0,0,0,0,0,0,0,0,0,-1,783,1002,0,0
-434,22,0,0,0,0,0,0,0,0,0,-1,790,1002,0,0
-427,22,0,0,0,0,0,0,0,0,0,-1,797,1002,0,0
-420,22,0,0,0,0,0,0,0,0,0,-1,804,1002,0,0
-413,22,0,0,0,0,0,0,0,0,0,-1,811,1002,0,0
-406,22,0,0,0,0,0,0,0,0,0,-1,818,1002,0,0
-399,22,0,0,0,0,0,0,0,0,0,-1,825,1002,0,0
-392,22,0,0,0,0,0,0,0,0,0,-1,832,1002,0,0
-385,22,0,0,0,0,0,0,0,0,0,-1,839,1002,0,0
-378,22,0,0,0,0,0,0,0,0,0,-1,846,1002,0,0
-371,22,0,0,0,0,0,0,0,0,0,-1,853,1002,0,0
-364,22,0,0,0,0,0,0,0,0,0,-1,860,1002,0,0
-357,22,0,0,0,0,0,0,0,0,0,-1,867,1002,0,0
-350,22,0,0,0,0,0,0,0,0,0,-1,874,1002,0,0
-343,22,0,0,0,0,0,0,0,0,0,-1,881,1002,0,0
-336,22,0,0,0,0,0,0,0,0,0,-1,888,1002,0,0
-329,22,0,0,0,0,0,0,0,0,0,-1,895,1002,0,0
-322,22,0,0,0,0,0,0,0,0,0,-1,902,1002,0,0
-315,22,0,0,0,0,0,0,0,0,0,-1,909,1002,0,0
-308,22,0,0,0,0,0,0,0,0,0,-1,916,1002,0,0
-301,22,0,0,0,0,0,0,0,0,0,-1,923,1002,0,0
-294,22,0,0,0,0,0,0,0,0,0,-1,930,1002,0,0
-287,22,0,0,0,0,0,0,0,0,0,-1,937,1002,0,0
-280,22,0,0,0,0,0,0,0,0,0,-1,944,1002,0,0
-273,22,0,0,0,0,0,0,0,0,0,-1,951,1002,0,0
-266,22,0,0,0,0,0,0,0,0,0,-1,958,1002,0,0
-259,22,0,0,0,0,0,0,0,0,0,-1,965,1002,0,0
-252,22,0,0,0,0,0,0,0,0,0,-1,972,1002,0,0
-245,22,0,0,0,0,0,0,0,0,0,-1,979,1002,0,0
-238,22,0,0,0,0,0,0,0,0,0,-1,986,1002,0,0
-231,22,0,0,0,0,0,0,0,0,0,-1,993,1002,0,0
-224,22,0,0,0,0,0,0,0,0,0,-1,1000,1002,0,0
-217,22,0,0,0,0,0,0,0,0,0,-1,1007,1002,0,0
-210,22,0,0,0,0,0,0,0,0,0,-1,1014,1002,0,0
-203,22,0,0,0,0,0,0,0,0,0,-1,1021,1002,0,0
-196,22,0,0,0,0,0,0,0,0,0,-1,1028,1002,0,0
-189,22,0,0,0,0,0,0,0,0,0,-1,1035,1002,0,0
-182,22,0,0,0,0,0,0,0,0,0,-1,1042,1002,0,0
-175,22,0,0,0,0,0,0,0,0,0,-1,1049,1002,0,0
-168,22,0,0,0,0,0,0,0,0,0,-1,1056,1002,0,0
-161,22,0,0,0,0,0,0,0,0,0,-1,1063,1002,0,0
-154,22,0,0,0,0,0,0,0,0,0,-1,1070,1002,0,0
-147,22,0,0,0,0,0,0,0,0,0,-1,1077,1002,0,0
-140,22,0,0,0,0,0,0,0,0,0,-1,1084,1002,0,0
-133,22,0,0,0,0,0,0,0,0,0,-1,1091,1002,0,0
-126,22,0,0,0,0,0,0,0,0,0,-1,1098,1002,0,0
-119,22,0,0,0,0,0,0,0,0,0,-1,1105,1002,0,0
-112,22,0,0,0,0,0,0,0,0,0,-1,1112,1002,0,0
-105,22,0,0,0,0,0,0,0,0,0,-1,1119,1002,0,0
-98,22,0,0,0,0,0,0,0,0,0,-1,1126,1002,0,0
-91,22,0,0,0,0,0,0,0,0,0,-1,1133,1002,0,0
-84,22,0,0,0,0,0,0,0,0,0,-1,1140,1002,0,0
-77,22,0,0,0,0,0,0,0,0,0,-1,1147,1002,0,0
-70,22,0,0,0,0,0,0,0,0,0,-1,1154,1002,0,0
-63,22,0,0,0,0,0,0,0,0,0,-1,1161,1002,0,0
-56,22,0,0,0,0,0,0,0,0,0,-1,1168,1002,0,0
-49,22,0,0,0,0,0,0,0,0,0,-1,1175,1002,0,0
-42,22,0,0,0,0,0,0,0,0,0,-1,1182,1002,0,0
-35,22,0,0,0,0,0,0,0,0,0,-1,1189,1002,0,0
-28,22,0,0,0,0,0,0,0,0,0,-1,1196,1002,0,0
-21,22,0,0,0,0,0,0,0,0,0,-1,1203,1002,0,0
-14,22,0,0,0,0,0,0,0,0,0,-1,1210,1002,0,0
-7,22,0,0,0,0,0,0,0,0,0,-1,1217,1002,0,0
0,22,0,0,0,0,0,0,0,0,0,-1,1224,1002,0,0
7,22,0,0,0,0,0,0,0,0,0,-1,1231,1002,0,0
14,22,0,0,0,0,0,0,0,0,0,-1,1238,1002,0,0
21,22,0,0,0,0,0,0,0,0,0,-1,1245,1002,0,0
28,22,0,0,0,0,0,0,0,0,0,-1,1252,1002,0,0
35,22,0,0,0,0,0,0,0,0,0,-1,1259,1002,0,0
42,22,0,0,0,0,0,0,0,0,0,-1,1266,1002,0,0
49,22,0,0,0,0,0,0,0,0,0,-1,1273,1002,0,0
56,22,0,0,0,0,0,0,0,0,0,-1,1280,1002,0,0
63,22,0,0,0,0,0,0,0,0,0,-1,1287,1002,0,0
70,22,0,0,0,0,0,0,0,0,0,-1,1294,1002,0,0
77,22,0,0,0,0,0,0,0,0,0,-1,1301,1002,0,0
84,22,0,0,0,0,0,0,0,0,0,-1,1308,1002,0,0
91,22,0,0,0,0,0,0,0,0,0,-1,1315,1002,0,0
98,22,0,0,0,0,0,0,0,0,0,-1,1322,1002,0,0
105,22,0,0,0,0,0,0,0,0,0,-1,1329,1002,0,0
112,22,0,0,0,0,0,0,0,0,0,-1,1336,1002,0,0
119,22,0,0,0,0,0,0,0,0,0,-1,1343,1002,0,0
126,22,0,0,0,0,0,0,0,0,0,-1,1350,1002,0,0
133,22,0,0,0,0,0,0,0,0,0,-1,1357,1002,0,0
140,22,0,0,0,0,0,0,0,0,0,-1,1364,1002,0,0
147,22,0,0,0,0,0,0,0,0,0,-1,1371,1002,0,0
154,22,0,0,0,0,0,0,0,0,0,-1,1378,1002,0,0
161,22,0,0,0,0,0,0,0,0,0,-1,1385,1002,0,0
168,22,0,0,0,0,0,0,0,0,0,-1,1392,1002,0,0
175,22,0,0,0,0,0,0,0,0,0,-1,1399,1002,0,0
182,22,0,0,0,0,0,0,0,0,0,-1,1406,1002,0,0
189,22,0,0,0,0,0,0,0,0,0,-1,1413,1002,0,0
196,22,0,0,0,0,0,0,0,0,0,-1,1420,1002,0,0
203,22,0,0,0,0,0,0,0,0,0,-1,1427,1002,0,0
210,22,0,0,0,0,0,0,0,0,0,-1,1434,1002,0,0
217,22,0,0,0,0,0,0,0,0,0,-1,1441,1002,0,0
224,22,0,0,0,0,0,0,0,0,0,-1,1448,1002,0,0
231,22,0,0,0,0,0,0,0,0,0,-1,1455,1002,0,0
238,22,0,0,0,0,0,0,0,0,0,-1,1462,1002,0,0
245,22,0,0,0,0,0,0,0,0,0,-1,1469,1002,0,0
252,22,0,0,0,0,0,0,0,0,0,-1,1476,1002,0,0
259,22,0,0,0,0,0,0,0,0,0,-1,1483,1002,0,0
266,22,0,0,0,0,0,0,0,0,0,-1,1490,1002,0,0
273,22,0,0,0,0,0,0,0,0,0,-1,1497,1002,0,0
280,22,0,0,0,0,0,0,0,0,0,-1,1504,1002,0,0
287,22,0,0,0,0,0,0,0,0,0,-1,1511,1002,0,0
294,22,0,0,0,0,0,0,0,0,0,-1,1518,1002,0,0
301,22,0,0,0,0,0,0,0,0,0,-1,1525,1002,0,0
308,22,0,0,0,0,0,0,0,0,0,-1,1532,1002,0,0
315,22,0,0,0,0,0,0,0,0,0,-1,1539,1002,0,0
322,22,0,0,0,0,0,0,0,0,0,-1,1546,1002,0,0
329,22,0,0,0,0,0,0,0,0,0,-1,1553,1002,0,0
336,22,0,0,0,0,0,0,0,0,0,-1,1560,1002,0,0
343,22,0,0,0,0,0,0,0,0,0,-1,1567,1002,0,0
350,22,0,0,0,0,0,0,0,0,0,-1,1574,1002,0,0
357,22,0,0,0,0,0,0,0,0,0,-1,1581,1002,0,0
364,22,0,0,0,0,0,0,0,0,0,-1,1588,1002,0,0
371,22,0,0,0,0,0,0,0,0,0,-1,1595,1002,0,0
378,22,0,0,0,0,0,0,0,0,0,-1,1602,1002,0,0
385,22,0,0,0,0,0,0,0,0,0,-1,1609,1002,0,0
392,22,0,0,0,0,0,0,0,0,0,-1,1616,1002,0,0
399,22,0,0,0,0,0,0,0,0,0,-1,1623,1002,0,0
406,22,0,0,0,0,0,0,0,0,0,-1,1630,1002,0,0
413,22,0,0,0,0,0,0,0,0,0,-1,1637,1002,0,0
420,22,0,0,0,0,0,0,0,0,0,-1,1644,1002,0,0
427,22,0,0,0,0,0,0,0,0,0,-1,1651,1002,0,0
434,22,0,0,0,0,0,0,0,0,0,-1,1658,1002,0,0
441,22,0,0,0,0,0,0,0,0,0,-1,1665,1002,0,0
448,22,0,0,0,0,0,0,0,0,0,-1,1672,1002,0,0
455,22,0,0,0,0,0,0,0,0,0,-1,1679,1002,0,0
462,22,0,0,0,0,0,0,0,0,0,-1,1686,1002,0,0
469,22,0,0,0,0,0,0,0,0,0,-1,1693,1002,0,0
476,22,0,0,0,0,0,0,0,0,0,-1,1700,1002,0,0
483,22,0,0,0,0,0,0,0,0,0,-1,1707,1002,0,0
490,22,0,0,0,0,0,0,0,0,0,-1,1714,1002,0,0
497,22,0,0,0,0,0,0,0,0,0,-1,1721,1002,0,0
504,22,0,0,0,0,0,0,0,0,0,-1,1728,1002,0,0
511,22,0,0,0,0,0,0,0,0,0,-1,1735,1002,0,0
518,22,0,0,0,0,0,0,0,0,0,-1,1742,1002,0,0
525,22,0,0,0,0,0,0,0,0,0,-1,1749,1002,0,0
532,22,0,0,0,0,0,0,0,0,0,-1,1756,1002,0,0
539,22,0,0,0,0,0,0,0,0,0,-1,1763,1002,0,0
546,22,0,0,0,0,0,0,0,0,0,-1,1770,1002,0,0
553,22,0,0,0,0,0,0,0,0,0,-1,1777,1002,0,0
560,22,0,0,0,0,0,0,0,0,0,-1,1784,1002,0,0
567,22,0,0,0,0,0,0,0,0,0,-1,1791,1002,0,0
574,22,0,0,0,0,0,0,0,0,0,-1,1798,1002,0,0
581,22,0,0,0,0,0,0,0,0,0,-1,1805,1002,0,0
588,22,0,0,0,0,0,0,0,0,0,-1,1812,1002,0,0
595,22,0,0,0,0,0,0,0,0,0,-1,1819,1002,0,0
602,22,0,0,0,0,0,0,0,0,0,-1,1826,1002,0,0
609,22,0,0,0,0,0,0,0,0,0,-1,1833,1002,0,0
616,22,0,0,0,0,0,0,0,0,0,-1,1840,1002,0,0
623,22,0,0,0,0,0,0,0,0,0,-1,1847,1002,0,0
630,22,0,0,0,0,0,0,0,0,0,-1,1854,1002,0,0
637,22,0,0,0,0,0,0,0,0,0,-1,1861,1002,0,0
644,22,22.7056,2.66626,0.00341965,-0.00435725,-0.00587341,0.00657513,-0.00751273,-0.493001,0.00813963,0.041257,1868,1002,22.7055,-2.66624
651,22,22.7552,2.70544,0.00272742,-0.00252637,-0.00388769,0.00479251,-0.00459146,-0.488285,0.00541825,0.0435968,1875,1002,22.7553,-2.70545
658,22,22.7994,2.89136,0.00191293,-0.00138938,-0.00250605,0.00326287,-0.00273932,-0.494106,0.00346976,0.0420661,1882,1002,22.7994,-2.89138
665,22,22.8158,2.74182,0.00111639,-0.000586358,-0.00132453,0.00183957,-0.00130954,-0.499759,0.0018267,0.04095,1889,1002,22.8158,-2.74184
672,22,22.7473,2.711,0.000281932,4.61101e-05,1.16013e-05,0.000282501,4.55407e-05,0.0490374,0.000175139,0.0415691,1896,1002,22.7474,-2.71101
679,22,22.822,2.74658,-0.000722023,0.000483072,0.00139214,0.00139746,-0.00163642,0.989637,0.00175342,0.0406398,1903,1002,22.822,-2.74656
686,22,22.783,2.90558,-0.0015309,0.000681796,0.00248264,0.00229344,-0.00314255,0.995007,0.00315121,0.0401362,1910,1002,22.783,-2.90557
693,22,22.6716,2.85614,-0.00212529,0.000767756,0.00331032,0.0029338,-0.00429133,0.991383,0.0041959,0.0368049,1917,1002,22.6716,-2.85612
700,22,22.6775,2.74188,-0.00260693,0.000924091,0.00393835,0.00347455,-0.00515739,0.996113,0.00501512,0.031026,1924,1002,22.6775,-2.74188
707,22,22.6417,2.65906,-0.00294809,0.000967274,0.00427935,0.00371548,-0.0056963,0.999923,0.00547386,0.0294017,1931,1002,22.6417,-2.65904
714,22,22.6996,2.79382,-0.00322412,0.000996357,0.00434011,0.00371205,-0.00593982,1.01168,0.00562177,0.0298533,1938,1002,22.6995,-2.79381
721,22,22.795,2.97852,0,0,0,0,0,0,0,-1,1945,1002,22.7951,-2.97854
728,22,22.1553,3.96613,0,0,0,0,0,0,0,-1,1952,1002,22.1552,-3.9661
735,22,22.1863,4.06018,-0.00371475,0.0015042,0.00356668,0.00331407,-0.00552462,1.10122,0.00515594,0.014271,1959,1002,22.1863,-4.0602
742,22,22.196,4.09955,-0.00379589,0.00194123,0.00299476,0.00321963,-0.00507428,1.16734,0.00482824,0.0148507,1966,1002,22.196,-4.09952
749,22,22.1649,4.14899,-0.00433379,0.00301255,0.00251588,0.00379155,-0.00511279,1.27052,0.00515975,0.011476,1973,1002,22.1649,-4.14901
756,22,22.1487,4.17999,-0.0050327,0.00452409,0.00214851,0.00498489,-0.0054935,1.35952,0.00605208,0.0154059,1980,1002,22.1487,-4.18
763,22,22.1344,4.24048,-0.0059695,0.0064352,0.0017301,0.00667198,-0.00620628,1.43478,0.00743689,0.0169362,1987,1002,22.1344,-4.24046
770,22,22.1422,4.276,-0.00752007,0.00916882,0.00165983,0.0093323,-0.00768355,1.47262,0.00983946,0.011448,1994,1002,22.1422,-4.27599
777,22,22.0984,4.36218,-0.00960169,0.0127867,0.00220978,0.0130027,-0.00981772,1.47335,0.0132181,0.01934,2001,1002,22.0984,-4.36216
784,22,22.0623,4.47485,-0.0124709,0.0173342,0.00351386,0.0177428,-0.0128795,1.45502,0.017754,0.0416289,2008,1002,22.0623,-4.47486
791,22,22.0387,4.60461,-0.0161411,0.0230752,0.00546689,0.0238231,-0.016889,1.43485,0.0236185,0.0489076,2015,1002,22.0387,-4.60464
798,22,20.574,3.90009,-0.0205461,0.0303421,0.00816321,0.0316196,-0.0218236,1.41557,0.0310277,0.0444128,2022,1002,20.574,-3.90009
805,22,20.4512,3.54974,-0.0258483,0.0395601,0.0118167,0.0416294,-0.0279177,1.39743,0.0404123,0.0454539,2029,1002,20.4512,-3.54972
812,22,20.2822,3.11908,-0.0318572,0.0512783,0.0166315,0.0544821,-0.0350609,1.3805,0.0521014,0.0449184,2036,1002,20.2823,-3.11908
-700,15,0,0,0,0,0,0,0,0,0,-1,524,1009,0,0
-693,15,-14.0209,2.35614,0,0,0,0,0,0,0,-1,531,1009,-14.0209,-2.35614
-686,15,-14.3071,1.92926,0,0,0,0,0,0,0,-1,538,1009,-14.307,-1.92925
-679,15,-14.5674,1.5459,0,0,0,0,0,0,0,-1,545,1009,-14.5674,-1.54588
-672,15,-14.9827,2.11194,0,0,0,0,0,0,0,-1,552,1009,-14.9827,-2.11197
-665,15,-14.8431,1.72205,0.00862037,0.032028,-0.0127583,0.0376376,0.00301076,-1.15656,0.0241508,0.0424823,559,1009,-14.8431,-1.72202
-658,15,-14.7224,1.45038,0.0055856,0.0233118,-0.00779867,0.0262544,0.00264304,-1.21,0.0166918,0.0452741,566,1009,-14.7223,-1.45038
-651,15,-15.0383,1.74597,0.0032052,0.0167905,-0.00440051,0.0180913,0.00190435,-1.28337,0.0114789,0.0376775,573,1009,-15.0383,-1.74599
-644,15,-15.1523,1.81232,0.0015253,0.0119158,-0.00246611,0.0124714,0.000969694,-1.3492,0.00801065,0.0204582,580,1009,-15.1523,-1.8123
-637,15,-15.1257,1.84424,0.00016467,0.00724992,-0.000904031,0.00736345,5.11413e-05,-1.44587,0.00489201,0.0154536,587,1009,-15.1257,-1.84422
-630,15,-15.1591,1.78894,-0.000710892,0.00454767,-0.000674169,0.00463272,-0.000795947,-1.4453,0.00338513,0.0108407,594,1009,-15.159,-1.78892
-623,15,-15.1918,1.75269,-0.00110678,0.00361073,-0.00181004,0.00422519,-0.00172123,-1.24353,0.00353317,0.0094253,601,1009,-15.1918,-1.7527
-616,15,-15.2172,1.71844,-0.00155809,0.00258509,-0.00258869,0.00382905,-0.00280204,-1.12284,0.00384373,0.0147977,608,1009,-15.2172,-1.71843
-609,15,-15.2115,1.69366,-0.00163099,0.00137545,-0.00347218,0.00365584,-0.00391138,-0.989684,0.00436977,0.021,615,1009,-15.2115,-1.69367
-602,15,-15.1719,1.64557,-0.001268,0.000651803,-0.00447271,0.00426646,-0.00488265,-0.891101,0.00528623,0.0201236,622,1009,-15.172,-1.64558
-595,15,-15.1638,1.3302,-0.00108831,0.000238936,-0.00511765,0.00473581,-0.00558518,-0.849875,0.00596555,0.0240077,629,1009,-15.1638,-1.33019
-588,15,-15.1826,0.995361,-0.00100773,-0.0001103,-0.00534182,0.00480162,-0.00591964,-0.8273,0.00620113,0.0296277,636,1009,-15.1825,-0.995366
-581,15,-15.1838,0.803528,-0.000833469,-0.000413916,-0.00517981,0.00456037,-0.00580775,-0.805637,0.00600046,0.0363295,643,1009,-15.1838,-0.803548
-574,15,-15.1799,0.957764,-0.000678872,-0.000735781,-0.00489927,0.00419203,-0.00560668,-0.782494,0.00567691,0.0324827,650,1009,-15.1799,-0.957744
-567,15,-15.2352,1.02386,-0.000482243,-0.000985603,-0.00431674,0.00359014,-0.00505799,-0.756279,0.00501692,0.0340965,657,1009,-15.2352,-1.02384
-560,15,-15.2997,1.14923,-0.00013072,-0.00118882,-0.00349094,0.00287103,-0.00419056,-0.710196,0.00410067,0.0382558,664,1009,-15.2998,-1.14925
-553,15,-15.1698,1.23993,0.000370352,-0.001344,-0.00246945,0.00212716,-0.00310081,-0.618348,0.00303577,0.0389801,671,1009,-15.1698,-1.23993
-546,15,-15.0527,0.97583,0.00103742,-0.00145487,-0.00129644,0.0015895,-0.00200696,-0.402588,0.00208107,0.0398125,678,1009,-15.0527,-0.975845
-539,15,-15.1826,0.754333,0.00190887,-0.00153287,-0.000313045,0.00193711,-0.00156111,-0.0899714,0.00202359,0.0401252,685,1009,-15.1826,-0.754332
-532,15,-15.2736,0.895691,0.00266334,-0.00104345,-8.11584e-05,0.00266512,-0.00104523,-0.0218805,0.00220917,0.0428985,692,1009,-15.2736,-0.895696
-525,15,0,0,0,0,0,0,0,0,0,-1,699,1009,0,0
-518,15,0,0,0,0,0,0,0,0,0,-1,706,1009,0,0
-511,15,0,0,0,0,0,0,0,0,0,-1,713,1009,0,0
-504,15,0,0,0,0,0,0,0,0,0,-1,720,1009,0,0
-497,15,0,0,0,0,0,0,0,0,0,-1,727,1009,0,0
-490,15,0,0,0,0,0,0,0,0,0,-1,734,1009,0,0
-483,15,0,0,0,0,0,0,0,0,0,-1,741,1009,0,0
-476,15,0,0,0,0,0,0,0,0,0,-1,748,1009,0,0
-469,15,0,0,0,0,0,0,0,0,0,-1,755,1009,0,0
-462,15,0,0,0,0,0,0,0,0,0,-1,762,1009,0,0
-455,15,0,0,0,0,0,0,0,0,0,-1,769,1009,0,0
-448,15,0,0,0,0,0,0,0,0,0,-1,776,1009,0,0
-441,15,0,0,0,0,0,0,0,0,0,-1,783,1009,0,0
-434,15,0,0,0,0,0,0,0,0,0,-1,790,1009,0,0
-427,15,0,0,0,0,0,0,0,0,0,-1,797,1009,0,0
-420,15,0,0,0,0,0,0,0,0,0,-1,804,1009,0,0
-413,15,0,0,0,0,0,0,0,0,0,-1,811,1009,0,0
-406,15,0,0,0,0,0,0,0,0,0,-1,818,1009,0,0
-399,15,0,0,0,0,0,0,0,0,0,-1,825,1009,0,0
-392,15,0,0,0,0,0,0,0,0,0,-1,832,1009,0,0
-385,15,0,0,0,0,0,0,0,0,0,-1,839,1009,0,0
-378,15,0,0,0,0,0,0,0,0,0,-1,846,1009,0,0
-371,15,0,0,0,0,0,0,0,0,0,-1,853,1009,0,0
-364,15,0,0,0,0,0,0,0,0,0,-1,860,1009,0,0
-357,15,0,0,0,0,0,0,0,0,0,-1,867,1009,0,0
-350,15,0,0,0,0,0,0,0,0,0,-1,874,1009,0,0
-343,15,0,0,0,0,0,0,0,0,0,-1,881,1009,0,0
-336,15,0,0,0,0,0,0,0,0,0,-1,888,1009,0,0
-329,15,0,0,0,0,0,0,0,0,0,-1,895,1009,0,0
-322,15,0,0,0,0,0,0,0,0,0,-1,902,1009,0,0
-315,15,0,0,0,0,0,0,0,0,0,-1,909,1009,0,0
-308,15,0,0,0,0,0,0,0,0,0,-1,916,1009,0,0
-301,15,0,0,0,0,0,0,0,0,0,-1,923,1009,0,0
-294,15,0,0,0,0,0,0,0,0,0,-1,930,1009,0,0
-287,15,0,0,0,0,0,0,0,0,0,-1,937,1009,0,0
-280,15,0,0,0,0,0,0,0,0,0,-1,944,1009,0,0
-273,15,0,0,0,0,0,0,0,0,0,-1,951,1009,0,0
-266,15,0,0,0,0,0,0,0,0,0,-1,958,1009,0,0
-259,15,0,0,0,0,0,0,0,0,0,-1,965,1009,0,0
-252,15,0,0,0,0,0,0,0,0,0,-1,972,1009,0,0
-245,15,0,0,0,0,0,0,0,0,0,-1,979,1009,0,0
-238,15,0,0,0,0,0,0,0,0,0,-1,986,1009,0,0
-231,15,0,0,0,0,0,0,0,0,0,-1,993,1009,0,0
-224,15,0,0,0,0,0,0,0,0,0,-1,1000,1009,0,0
-217,15,0,0,0,0,0,0,0,0,0,-1,1007,1009,0,0
-210,15,0,0,0,0,0,0,0,0,0,-1,1014,1009,0,0
-203,15,0,0,0,0,0,0,0,0,0,-1,1021,1009,0,0
-196,15,0,0,0,0,0,0,0,0,0,-1,1028,1009,0,0
-189,15,0,0,0,0,0,0,0,0,0,-1,1035,1009,0,0
-182,15,0,0,0,0,0,0,0,0,0,-1,1042,1009,0,0
-175,15,0,0,0,0,0,0,0,0,0,-1,1049,1009,0,0
-168,15,0,0,0,0,0,0,0,0,0,-1,1056,1009,0,0
-161,15,0,0,0,0,0,0,0,0,0,-1,1063,1009,0,0
-154,15,0,0,0,0,0,0,0,0,0,-1,1070,1009,0,0
-147,15,0,0,0,0,0,0,0,0,0,-1,1077,1009,0,0
-140,15,0,0,0,0,0,0,0,0,0,-1,1084,1009,0,0
-133,15,0,0,0,0,0,0,0,0,0,-1,1091,1009,0,0
-126,15,0,0,0,0,0,0,0,0,0,-1,1098,1009,0,0
-119,15,0,0,0,0,0,0,0,0,0,-1,1105,1009,0,0
-112,15,0,0,0,0,0,0,0,0,0,-1,1112,1009,0,0
-105,15,0,0,0,0,0,0,0,0,0,-1,1119,1009,0,0
-98,15,0,0,0,0,0,0,0,0,0,-1,1126,1009,0,0
-91,15,0,0,0,0,0,0,0,0,0,-1,1133,1009,0,0
-84,15,0,0,0,0,0,0,0,0,0,-1,1140,1009,0,0
-77,15,0,0,0,0,0,0,0,0,0,-1,1147,1009,0,0
-70,15,0,0,0,0,0,0,0,0,0,-1,1154,1009,0,0
-63,15,0,0,0,0,0,0,0,0,0,-1,1161,1009,0,0
-56,15,0,0,0,0,0,0,0,0,0,-1,1168,1009,0,0
-49,15,0,0,0,0,0,0,0,0,0,-1,1175,1009,0,0
-42,15,0,0,0,0,0,0,0,0,0,-1,1182,1009,0,0
-35,15,0,0,0,0,0,0,0,0,0,-1,1189,1009,0,0
-28,15,0,0,0,0,0,0,0,0,0,-1,1196,1009,0,0
-21,15,0,0,0,0,0,0,0,0,0,-1,1203,1009,0,0
-14,15,0,0,0,0,0,0,0,0,0,-1,1210,1009,0,0
-7,15,0,0,0,0,0,0,0,0,0,-1,1217,1009,0,0
0,15,0,0,0,0,0,0,0,0,0,-1,1224,1009,0,0
7,15,0,0,0,0,0,0,0,0,0,-1,1231,1009,0,0
14,15,0,0,0,0,0,0,0,0,0,-1,1238,1009,0,0
21,15,0,0,0,0,0,0,0,0,0,-1,1245,1009,0,0
28,15,0,0,0,0,0,0,0,0,0,-1,1252,1009,0,0
35,15,0,0,0,0,0,0,0,0,0,-1,1259,1009,0,0
42,15,0,0,0,0,0,0,0,0,0,-1,1266,1009,0,0
49,15,0,0,0,0,0,0,0,0,0,-1,1273,1009,0,0
56,15,0,0,0,0,0,0,0,0,0,-1,1280,1009,0,0
63,15,0,0,0,0,0,0,0,0,0,-1,1287,1009,0,0
70,15,0,0,0,0,0,0,0,0,0,-1,1294,1009,0,0
77,15,0,0,0,0,0,0,0,0,0,-1,1301,1009,0,0
84,15,0,0,0,0,0,0,0,0,0,-1,1308,1009,0,0
91,15,0,0,0,0,0,0,0,0,0,-1,1315,1009,0,0
98,15,0,0,0,0,0,0,0,0,0,-1,1322,1009,0,0
105,15,0,0,0,0,0,0,0,0,0,-1,1329,1009,0,0
112,15,0,0,0,0,0,0,0,0,0,-1,1336,1009,0,0
119,15,0,0,0,0,0,0,0,0,0,-1,1343,1009,0,0
126,15,0,0,0,0,0,0,0,0,0,-1,1350,1009,0,0
133,15,0,0,0,0,0,0,0,0,0,-1,1357,1009,0,0
140,15,0,0,0,0,0,0,0,0,0,-1,1364,1009,0,0
147,15,0,0,0,0,0,0,0,0,0,-1,1371,1009,0,0
154,15,0,0,0,0,0,0,0,0,0,-1,1378,1009,0,0
161,15,0,0,0,0,0,0,0,0,0,-1,1385,1009,0,0
168,15,0,0,0,0,0,0,0,0,0,-1,1392,1009,0,0
175,15,0,0,0,0,0,0,0,0,0,-1,1399,1009,0,0
182,15,0,0,0,0,0,0,0,0,0,-1,1406,1009,0,0
189,15,0,0,0,0,0,0,0,0,0,-1,1413,1009,0,0
196,15,0,0,0,0,0,0,0,0,0,-1,1420,1009,0,0
203,15,0,0,0,0,0,0,0,0,0,-1,1427,1009,0,0
210,15,0,0,0,0,0,0,0,0,0,-1,1434,1009,0,0
217,15,0,0,0,0,0,0,0,0,0,-1,1441,1009,0,0
224,15,0,0,0,0,0,0,0,0,0,-1,1448,1009,0,0
231,15,0,0,0,0,0,0,0,0,0,-1,1455,1009,0,0
238,15,0,0,0,0,0,0,0,0,0,-1,1462,1009,0,0
245,15,0,0,0,0,0,0,0,0,0,-1,1469,1009,0,0
252,15,0,0,0,0,0,0,0,0,0,-1,1476,1009,0,0
259,15,0,0,0,0,0,0,0,0,0,-1,1483,1009,0,0
266,15,0,0,0,0,0,0,0,0,0,-1,1490,1009,0,0
273,15,0,0,0,0,0,0,0,0,0,-1,1497,1009,0,0
280,15,0,0,0,0,0,0,0,0,0,-1,1504,1009,0,0
287,15,0,0,0,0,0,0,0,0,0,-1,1511,1009,0,0
294,15,0,0,0,0,0,0,0,0,0,-1,1518,1009,0,0
301,15,0,0,0,0,0,0,0,0,0,-1,1525,1009,0,0
308,15,0,0,0,0,0,0,0,0,0,-1,1532,1009,0,0
315,15,0,0,0,0,0,0,0,0,0,-1,1539,1009,0,0
322,15,0,0,0,0,0,0,0,0,0,-1,1546,1009,0,0
329,15,0,0,0,0,0,0,0,0,0,-1,1553,1009,0,0
336,15,0,0,0,0,0,0,0,0,0,-1,1560,1009,0,0
343,15,0,0,0,0,0,0,0,0,0,-1,1567,1009,0,0
350,15,0,0,0,0,0,0,0,0,0,-1,1574,1009,0,0
357,15,0,0,0,0,0,0,0,0,0,-1,1581,1009,0,0
364,15,0,0,0,0,0,0,0,0,0,-1,1588,1009,0,0
371,15,0,0,0,0,0,0,0,0,0,-1,1595,1009,0,0
378,15,0,0,0,0,0,0,0,0,0,-1,1602,1009,0,0
385,15,0,0,0,0,0,0,0,0,0,-1,1609,1009,0,0
392,15,0,0,0,0,0,0,0,0,0,-1,1616,1009,0,0
399,15,0,0,0,0,0,0,0,0,0,-1,1623,1009,0,0
406,15,0,0,0,0,0,0,0,0,0,-1,1630,1009,0,0
413,15,0,0,0,0,0,0,0,0,0,-1,1637,1009,0,0
420,15,0,0,0,0,0,0,0,0,0,-1,1644,1009,0,0
427,15,0,0,0,0,0,0,0,0,0,-1,1651,1009,0,0
434,15,0,0,0,0,0,0,0,0,0,-1,1658,1009,0,0
441,15,0,0,0,0,0,0,0,0,0,-1,1665,1009,0,0
448,15,0,0,0,0,0,0,0,0,0,-1,1672,1009,0,0
455,15,0,0,0,0,0,0,0,0,0,-1,1679,1009,0,0
462,15,0,0,0,0,0,0,0,0,0,-1,1686,1009,0,0
469,15,0,0,0,0,0,0,0,0,0,-1,1693,1009,0,0
476,15,0,0,0,0,0,0,0,0,0,-1,1700,1009,0,0
483,15,0,0,0,0,0,0,0,0,0,-1,1707,1009,0,0
490,15,0,0,0,0,0,0,0,0,0,-1,1714,1009,0,0
497,15,0,0,0,0,0,0,0,0,0,-1,1721,1009,0,0
504,15,0,0,0,0,0,0,0,0,0,-1,1728,1009,0,0
511,15,0,0,0,0,0,0,0,0,0,-1,1735,1009,0,0
518,15,0,0,0,0,0,0,0,0,0,-1,1742,1009,0,0
525,15,0,0,0,0,0,0,0,0,0,-1,1749,1009,0,0
532,15,0,0,0,0,0,0,0,0,0,-1,1756,1009,0,0
539,15,0,0,0,0,0,0,0,0,0,-1,1763,1009,0,0
546,15,0,0,0,0,0,0,0,0,0,-1,1770,1009,0,0
553,15,0,0,0,0,0,0,0,0,0,-1,1777,1009,0,0
560,15,0,0,0,0,0,0,0,0,0,-1,1784,1009,0,0
567,15,0,0,0,0,0,0,0,0,0,-1,1791,1009,0,0
574,15,0,0,0,0,0,0,0,0,0,-1,1798,1009,0,0
581,15,0,0,0,0,0,0,0,0,0,-1,1805,1009,0,0
588,15,0,0,0,0,0,0,0,0,0,-1,1812,1009,0,0
595,15,0,0,0,0,0,0,0,0,0,-1,1819,1009,0,0
602,15,0,0,0,0,0,0,0,0,0,-1,1826,1009,0,0
609,15,0,0,0,0,0,0,0,0,0,-1,1833,1009,0,0
616,15,0,0,0,0,0,0,0,0,0,-1,1840,1009,0,0
623,15,0,0,0,0,0,0,0,0,0,-1,1847,1009,0,0
630,15,0,0,0,0,0,0,0,0,0,-1,1854,1009,0,0
637,15,0,0,0,0,0,0,0,0,0,-1,1861,1009,0,0
644,15,22.819,2.8136,0.00231402,-0.00523951,-0.00655879,0.00610573,-0.00903121,-0.524168,0.00879355,0.0405357,1868,1009,22.819,-2.81361
651,15,22.7599,2.76831,0.00207365,-0.00302951,-0.0043421,0.00455837,-0.00551424,-0.519758,0.00582415,0.0391374,1875,1009,22.7599,-2.76832
658,15,22.6575,2.74756,0.00154703,-0.00159223,-0.00282343,0.0032078,-0.003253,-0.531705,0.00373017,0.0404073,1882,1009,22.6574,-2.74754
665,15,22.5441,2.60046,0.000955802,-0.000616245,-0.00157817,0.00193286,-0.00159331,-0.554352,0.00203898,0.041656,1889,1009,22.544,-2.60048
672,15,22.6548,2.59814,0.000275956,0.000144209,-0.000160992,0.000384031,3.61347e-05,-0.591204,0.000244866,0.0403732,1896,1009,22.6548,-2.59813
679,15,22.8186,2.65869,-0.000665018,0.000682058,0.00137114,0.00153616,-0.00151912,1.0137,0.00176397,0.0380143,1903,1009,22.8185,-2.6587
686,15,22.7894,2.78247,-0.00148002,0.000925728,0.00260514,0.00259229,-0.00314658,1.00168,0.00331849,0.0424188,1910,1009,22.7895,-2.7825
693,15,22.7046,2.77582,-0.00211294,0.00101721,0.00356386,0.00334451,-0.00444024,0.992296,0.00450934,0.0393008,1917,1009,22.7046,-2.77582
700,15,22.7374,2.70874,-0.00260887,0.00115791,0.00429457,0.00396393,-0.00541488,0.992044,0.00543642,0.0296024,1924,1009,22.7375,-2.70871
707,15,22.6996,2.71356,-0.00295285,0.00117696,0.00473012,0.00427325,-0.00604914,0.991202,0.00598896,0.0283295,1931,1009,22.6996,-2.71358
714,15,22.6932,2.72076,-0.00323608,0.00118832,0.00486045,0.00431632,-0.00636408,0.99896,0.006204,0.0325005,1938,1009,22.6933,-2.72074
721,15,22.7255,3.11182,-0.00349959,0.00123028,0.00479407,0.004211,-0.00648031,1.01454,0.00621881,0.0359664,1945,1009,22.7254,-3.1118
728,15,22.2435,3.98938,0,0,0,0,0,0,0,-1,1952,1009,22.2435,-3.98941
735,15,22.2212,4.06158,-0.00381355,0.00158603,0.00409724,0.00379299,-0.00602051,1.07671,0.00571427,0.0162908,1959,1009,22.2212,-4.06158
742,15,22.236,4.11346,-0.00395203,0.00195385,0.00342125,0.0035203,-0.00551847,1.14143,0.00526087,0.0176265,1966,1009,22.2359,-4.11348
749,15,22.2047,4.14001,-0.00445325,0.00303239,0.00283344,0.00398394,-0.0054048,1.2468,0.00544124,0.0109108,1973,1009,22.2047,-4.14002
756,15,22.2056,4.16382,-0.00503475,0.00450066,0.00231222,0.00503177,-0.00556585,1.34502,0.00612113,0.0119824,1980,1009,22.2056,-4.16382
763,15,22.2001,4.21124,-0.00587589,0.00634155,0.00179157,0.00659885,-0.00613319,1.42816,0.00735248,0.0117884,1987,1009,22.2001,-4.21123
770,15,22.1885,4.23816,-0.00728932,0.00895312,0.00152792,0.0090956,-0.00743179,1.47781,0.0095582,0.0111791,1994,1009,22.1885,-4.23815
777,15,22.132,4.29449,-0.00913882,0.0123941,0.00193555,0.0125667,-0.00931142,1.48186,0.0126779,0.0200182,2001,1009,22.132,-4.29449
784,15,22.0449,4.35956,-0.0116801,0.0166933,0.00326092,0.0170632,-0.01205,1.45783,0.0168914,0.0406386,2008,1009,22.0449,-4.35958
791,15,22.1162,4.56628,-0.014794,0.0220185,0.00539358,0.0227925,-0.015568,1.42827,0.022278,0.0476199,2015,1009,22.1162,-4.56629
798,15,21.8453,4.60522,-0.0182769,0.0286032,0.00852203,0.0301043,-0.019778,1.39644,0.0290045,0.0448971,2022,1009,21.8454,-4.60524
805,15,20.1128,3.04065,0,0,0,0,0,0,0,-1,2029,1009,20.1127,-3.04065
812,15,19.7847,2.61963,0,0,0,0,0,0,0,-1,2036,1009,19.7846,-2.61961
-700,8,0,0,0,0,0,0,0,0,0,-1,524,1016,0,0
-693,8,-13.4857,1.49432,0,0,0,0,0,0,0,-1,531,1016,-13.4857,-1.4943
-686,8,-13.7115,1.24518,0.0325423,0.0856036,-0.0397177,0.106837,0.0113093,-1.07985,0.0677699,0.0478804,538,1016,-13.7115,-1.24516
-679,8,-13.8669,0.964783,0,0,0,0,0,0,0,-1,545,1016,-13.867,-0.964803
-672,8,-14.9371,2.13416,0.0177606,0.0508727,-0.0191989,0.0596682,0.00896506,-1.14121,0.0371527,0.0453981,552,1016,-14.9371,-2.13417
-665,8,-14.7475,1.48444,0.01223,0.0381542,-0.012286,0.0430516,0.00733261,-1.19148,0.026596,0.0459552,559,1016,-14.7475,-1.48447
-658,8,-15.1619,1.55188,0.0078762,0.028086,-0.00725838,0.0304226,0.0055395,-1.25934,0.0187106,0.0361926,566,1016,-15.1619,-1.55189
-651,8,-15.1056,1.66779,0.00464004,0.0202784,-0.00386082,0.0211797,0.00373882,-1.34147,0.0130532,0.0203454,573,1016,-15.1056,-1.66781
-644,8,-15.0911,1.72833,0.00221675,0.0143476,-0.0019582,0.0146558,0.00190848,-1.41465,0.00920061,0.0214451,580,1016,-15.0911,-1.72833
-637,8,-15.1124,1.77893,0.000504792,0.00886204,-0.000639414,0.00891068,0.000456153,-1.49488,0.00579439,0.0181559,587,1016,-15.1124,-1.77896
-630,8,-15.1854,1.77484,-0.000352513,0.00529317,-0.000545158,0.00534533,-0.000404672,-1.47541,0.00370582,0.0133161,594,1016,-15.1854,-1.77486
-623,8,-15.1948,1.77393,-0.000813059,0.00392217,-0.00182671,0.00454494,-0.00143584,-1.24222,0.00360518,0.0133214,601,1016,-15.1948,-1.77392
-616,8,-15.1922,1.73535,-0.00125065,0.00264426,-0.00274751,0.0040645,-0.0026709,-1.0937,0.00391633,0.013327,608,1016,-15.1922,-1.73532
-609,8,-15.1923,1.70197,-0.00124267,0.00123669,-0.00374919,0.00394584,-0.00395181,-0.945066,0.00455971,0.0152216,615,1016,-15.1923,-1.70194
-602,8,-15.1755,1.70313,-0.000882807,0.000417054,-0.00489186,0.00470197,-0.00516772,-0.851441,0.00570038,0.0200304,622,1016,-15.1755,-1.70312
-595,8,-15.1036,1.33301,-0.000697105,-8.6857e-05,-0.00556596,0.00518233,-0.0059663,-0.812781,0.00644197,0.0294894,629,1016,-15.1036,-1.333
-588,8,-15.1683,0.825562,0,0,0,0,0,0,0,-1,636,1016,-15.1683,-0.825543
-581,8,-15.1398,0.897522,-0.00040068,-0.000883803,-0.0055407,0.00490372,-0.00618821,-0.763613,0.00641823,0.0269681,643,1016,-15.1398,-0.8975
-574,8,-15.1951,1.0921,-0.000278447,-0.001302,-0.00519232,0.00442726,-0.0060077,-0.736275,0.00604762,0.0334909,650,1016,-15.1951,-1.09211
-567,8,-15.2611,1.21381,-0.00013322,-0.00165773,-0.00450813,0.00367664,-0.00546759,-0.701648,0.00531307,0.0392196,657,1016,-15.2611,-1.21382
-560,8,-15.2457,1.4165,0.000125828,-0.00197876,-0.00355,0.00277621,-0.00462914,-0.641313,0.00431987,0.0398512,664,1016,-15.2457,-1.41651
-553,8,-15.1046,1.54553,0.000489873,-0.00226258,-0.00236641,0.00185115,-0.00362385,-0.522021,0.00321575,0.0405164,671,1016,-15.1046,-1.54555
-546,8,-15.0977,1.1358,0.000970669,-0.00250998,-0.00100646,0.00124074,-0.00278005,-0.262163,0.00237744,0.0394523,678,1016,-15.0976,-1.13577
-539,8,-15.1553,0.871399,0.00160667,-0.00273658,0.00012704,0.00161038,-0.00274029,0.0292166,0.00253994,0.0387602,685,1016,-15.1553,-0.871414
-532,8,-15.1082,0.899292,0.00210367,-0.00235921,0.000375673,0.00213507,-0.00239061,0.0833954,0.00261429,0.0419069,692,1016,-15.1082,-0.899315
-525,8,0,0,0,0,0,0,0,0,0,-1,699,1016,0,0
-518,8,0,0,0,0,0,0,0,0,0,-1,706,1016,0,0
-511,8,0,0,0,0,0,0,0,0,0,-1,713,1016,0,0
-504,8,0,0,0,0,0,0,0,0,0,-1,720,1016,0,0
-497,8,0,0,0,0,0,0,0,0,0,-1,727,1016,0,0
-490,8,0,0,0,0,0,0,0,0,0,-1,734,1016,0,0
-483,8,0,0,0,0,0,0,0,0,0,-1,741,1016,0,0
-476,8,0,0,0,0,0,0,0,0,0,-1,748,1016,0,0
-469,8,0,0,0,0,0,0,0,0,0,-1,755,1016,0,0
-462,8,0,0,0,0,0,0,0,0,0,-1,762,1016,0,0
-455,8,0,0,0,0,0,0,0,0,0,-1,769,1016,0,0
-448,8,0,0,0,0,0,0,0,0,0,-1,776,1016,0,0
-441,8,0,0,0,0,0,0,0,0,0,-1,783,1016,0,0
-434,8,0,0,0,0,0,0,0,0,0,-1,790,1016,0,0
-427,8,0,0,0,0,0,0,0,0,0,-1,797,1016,0,0
-420,8,0,0,0,0,0,0,0,0,0,-1,804,1016,0,0
-413,8,0,0,0,0,0,0,0,0,0,-1,811,1016,0,0
-406,8,0,0,0,0,0,0,0,0,0,-1,818,1016,0,0
-399,8,0,0,0,0,0,0,0,0,0,-1,825,1016,0,0
-392,8,0,0,0,0,0,0,0,0,0,-1,832,1016,0,0
-385,8,0,0,0,0,0,0,0,0,0,-1,839,1016,0,0
-378,8,0,0,0,0,0,0,0,0,0,-1,846,1016,0,0
-371,8,0,0,0,0,0,0,0,0,0,-1,853,1016,0,0
-364,8,0,0,0,0,0,0,0,0,0,-1,860,1016,0,0
-357,8,0,0,0,0,0,0,0,0,0,-1,867,1016,0,0
-350,8,0,0,0,0,0,0,0,0,0,-1,874,1016,0,0
-343,8,0,0,0,0,0,0,0,0,0,-1,881,1016,0,0
-336,8,0,0,0,0,0,0,0,0,0,-1,888,1016,0,0
-329,8,0,0,0,0,0,0,0,0,0,-1,895,1016,0,0
-322,8,0,0,0,0,0,0,0,0,0,-1,902,1016,0,0
-315,8,0,0,0,0,0,0,0,0,0,-1,909,1016,0,0
-308,8,0,0,0,0,0,0,0,0,0,-1,916,1016,0,0
-301,8,0,0,0,0,0,0,0,0,0,-1,923,1016,0,0
-294,8,0,0,0,0,0,0,0,0,0,-1,930,1016,0,0
-287,8,0,0,0,0,0,0,0,0,0,-1,937,1016,0,0
-280,8,0,0,0,0,0,0,0,0,0,-1,944,1016,0,0
-273,8,0,0,0,0,0,0,0,0,0,-1,951,1016,0,0
-266,8,0,0,0,0,0,0,0,0,0,-1,958,1016,0,0
-259,8,0,0,0,0,0,0,0,0,0,-1,965,1016,0,0
-252,8,0,0,0,0,0,0,0,0,0,-1,972,1016,0,0
-245,8,0,0,0,0,0,0,0,0,0,-1,979,1016,0,0
-238,8,0,0,0,0,0,0,0,0,0,-1,986,1016,0,0
-231,8,0,0,0,0,0,0,0,0,0,-1,993,1016,0,0
-224,8,0,0,0,0,0,0,0,0,0,-1,1000,1016,0,0
-217,8,0,0,0,0,0,0,0,0,0,-1,1007,1016,0,0
-210,8,0,0,0,0,0,0,0,0,0,-1,1014,1016,0,0
-203,8,0,0,0,0,0,0,0,0,0,-1,1021,1016,0,0
-196,8,0,0,0,0,0,0,0,0,0,-1,1028,1016,0,0
-189,8,0,0,0,0,0,0,0,0,0,-1,1035,1016,0,0
-182,8,0,0,0,0,0,0,0,0,0,-1,1042,1016,0,0
-175,8,0,0,0,0,0,0,0,0,0,-1,1049,1016,0,0
-168,8,0,0,0,0,0,0,0,0,0,-1,1056,1016,0,0
-161,8,0,0,0,0,0,0,0,0,0,-1,1063,1016,0,0
-154,8,0,0,0,0,0,0,0,0,0,-1,1070,1016,0,0
-147,8,0,0,0,0,0,0,0,0,0,-1,1077,1016,0,0
-140,8,0,0,0,0,0,0,0,0,0,-1,1084,1016,0,0
-133,8,0,0,0,0,0,0,0,0,0,-1,1091,1016,0,0
-126,8,0,0,0,0,0,0,0,0,0,-1,1098,1016,0,0
-119,8,0,0,0,0,0,0,0,0,0,-1,1105,1016,0,0
-112,8,0,0,0,0,0,0,0,0,0,-1,1112,1016,0,0
-105,8,0,0,0,0,0,0,0,0,0,-1,1119,1016,0,0
-98,8,0,0,0,0,0,0,0,0,0,-1,1126,1016,0,0
-91,8,0,0,0,0,0,0,0,0,0,-1,1133,1016,0,0
-84,8,0,0,0,0,0,0,0,0,0,-1,1140,1016,0,0
-77,8,0,0,0,0,0,0,0,0,0,-1,1147,1016,0,0
-70,8,0,0,0,0,0,0,0,0,0,-1,1154,1016,0,0
-63,8,0,0,0,0,0,0,0,0,0,-1,1161,1016,0,0
-56,8,0,0,0,0,0,0,0,0,0,-1,1168,1016,0,0
-49,8,0,0,0,0,0,0,0,0,0,-1,1175,1016,0,0
-42,8,0,0,0,0,0,0,0,0,0,-1,1182,1016,0,0
-35,8,0,0,0,0,0,0,0,0,0,-1,1189,1016,0,0
-28,8,0,0,0,0,0,0,0,0,0,-1,1196,1016,0,0
-21,8,0,0,0,0,0,0,0,0,0,-1,1203,1016,0,0
-14,8,0,0,0,0,0,0,0,0,0,-1,1210,1016,0,0
-7,8,0,0,0,0,0,0,0,0,0,-1,1217,1016,0,0
0,8,0,0,0,0,0,0,0,0,0,-1,1224,1016,0,0
7,8,0,0,0,0,0,0,0,0,0,-1,1231,1016,0,0
14,8,0,0,0,0,0,0,0,0,0,-1,1238,1016,0,0
21,8,0,0,0,0,0,0,0,0,0,-1,1245,1016,0,0
28,8,0,0,0,0,0,0,0,0,0,-1,1252,1016,0,0
35,8,0,0,0,0,0,0,0,0,0,-1,1259,1016,0,0
42,8,0,0,0,0,0,0,0,0,0,-1,1266,1016,0,0
49,8,0,0,0,0,0,0,0,0,0,-1,1273,1016,0,0
56,8,0,0,0,0,0,0,0,0,0,-1,1280,1016,0,0
63,8,0,0,0,0,0,0,0,0,0,-1,1287,1016,0,0
70,8,0,0,0,0,0,0,0,0,0,-1,1294,1016,0,0
77,8,0,0,0,0,0,0,0,0,0,-1,1301,1016,0,0
84,8,0,0,0,0,0,0,0,0,0,-1,1308,1016,0,0
91,8,0,0,0,0,0,0,0,0,0,-1,1315,1016,0,0
98,8,0,0,0,0,0,0,0,0,0,-1,1322,1016,0,0
105,8,0,0,0,0,0,0,0,0,0,-1,1329,1016,0,0
112,8,0,0,0,0,0,0,0,0,0,-1,1336,1016,0,0
119,8,0,0,0,0,0,0,0,0,0,-1,1343,1016,0,0
126,8,0,0,0,0,0,0,0,0,0,-1,1350,1016,0,0
133,8,0,0,0,0,0,0,0,0,0,-1,1357,1016,0,0
140,8,0,0,0,0,0,0,0,0,0,-1,1364,1016,0,0
147,8,0,0,0,0,0,0,0,0,0,-1,1371,1016,0,0
154,8,0,0,0,0,0,0,0,0,0,-1,1378,1016,0,0
161,8,0,0,0,0,0,0,0,0,0,-1,1385,1016,0,0
168,8,0,0,0,0,0,0,0,0,0,-1,1392,1016,0,0
175,8,0,0,0,0,0,0,0,0,0,-1,1399,1016,0,0
182,8,0,0,0,0,0,0,0,0,0,-1,1406,1016,0,0
189,8,0,0,0,0,0,0,0,0,0,-1,1413,1016,0,0
196,8,0,0,0,0,0,0,0,0,0,-1,1420,1016,0,0
203,8,0,0,0,0,0,0,0,0,0,-1,1427,1016,0,0
210,8,0,0,0,0,0,0,0,0,0,-1,1434,1016,0,0
217,8,0,0,0,0,0,0,0,0,0,-1,1441,1016,0,0
224,8,0,0,0,0,0,0,0,0,0,-1,1448,1016,0,0
231,8,0,0,0,0,0,0,0,0,0,-1,1455,1016,0,0
238,8,0,0,0,0,0,0,0,0,0,-1,1462,1016,0,0
245,8,0,0,0,0,0,0,0,0,0,-1,1469,1016,0,0
252,8,0,0,0,0,0,0,0,0,0,-1,1476,1016,0,0
259,8,0,0,0,0,0,0,0,0,0,-1,1483,1016,0,0
266,8,0,0,0,0,0,0,0,0,0,-1,1490,1016,0,0
273,8,0,0,0,0,0,0,0,0,0,-1,1497,1016,0,0
280,8,0,0,0,0,0,0,0,0,0,-1,1504,1016,0,0
287,8,0,0,0,0,0,0,0,0,0,-1,1511,1016,0,0
294,8,0,0,0,0,0,0,0,0,0,-1,1518,1016,0,0
301,8,0,0,0,0,0,0,0,0,0,-1,1525,1016,0,0
308,8,0,0,0,0,0,0,0,0,0,-1,1532,1016,0,0
315,8,0,0,0,0,0,0,0,0,0,-1,1539,1016,0,0
322,8,0,0,0,0,0,0,0,0,0,-1,1546,1016,0,0
329,8,0,0,0,0,0,0,0,0,0,-1,1553,1016,0,0
336,8,0,0,0,0,0,0,0,0,0,-1,1560,1016,0,0
343,8,0,0,0,0,0,0,0,0,0,-1,1567,1016,0,0
350,8,0,0,0,0,0,0,0,0,0,-1,1574,1016,0,0
357,8,0,0,0,0,0,0,0,0,0,-1,1581,1016,0,0
364,8,0,0,0,0,0,0,0,0,0,-1,1588,1016,0,0
371,8,0,0,0,0,0,0,0,0,0,-1,1595,1016,0,0
378,8,0,0,0,0,0,0,0,0,0,-1,1602,1016,0,0
385,8,0,0,0,0,0,0,0,0,0,-1,1609,1016,0,0
392,8,0,0,0,0,0,0,0,0,0,-1,1616,1016,0,0
399,8,0,0,0,0,0,0,0,0,0,-1,1623,1016,0,0
406,8,0,0,0,0,0,0,0,0,0,-1,1630,1016,0,0
413,8,0,0,0,0,0,0,0,0,0,-1,1637,1016,0,0
420,8,0,0,0,0,0,0,0,0,0,-1,1644,1016,0,0
427,8,0,0,0,0,0,0,0,0,0,-1,1651,1016,0,0
434,8,0,0,0,0,0,0,0,0,0,-1,1658,1016,0,0
441,8,0,0,0,0,0,0,0,0,0,-1,1665,1016,0,0
448,8,0,0,0,0,0,0,0,0,0,-1,1672,1016,0,0
455,8,0,0,0,0,0,0,0,0,0,-1,1679,1016,0,0
462,8,0,0,0,0,0,0,0,0,0,-1,1686,1016,0,0
469,8,0,0,0,0,0,0,0,0,0,-1,1693,1016,0,0
476,8,0,0,0,0,0,0,0,0,0,-1,1700,1016,0,0
483,8,0,0,0,0,0,0,0,0,0,-1,1707,1016,0,0
490,8,0,0,0,0,0,0,0,0,0,-1,1714,1016,0,0
497,8,0,0,0,0,0,0,0,0,0,-1,1721,1016,0,0
504,8,0,0,0,0,0,0,0,0,0,-1,1728,1016,0,0
511,8,0,0,0,0,0,0,0,0,0,-1,1735,1016,0,0
518,8,0,0,0,0,0,0,0,0,0,-1,1742,1016,0,0
525,8,0,0,0,0,0,0,0,0,0,-1,1749,1016,0,0
532,8,0,0,0,0,0,0,0,0,0,-1,1756,1016,0,0
539,8,0,0,0,0,0,0,0,0,0,-1,1763,1016,0,0
546,8,0,0,0,0,0,0,0,0,0,-1,1770,1016,0,0
553,8,0,0,0,0,0,0,0,0,0,-1,1777,1016,0,0
560,8,0,0,0,0,0,0,0,0,0,-1,1784,1016,0,0
567,8,0,0,0,0,0,0,0,0,0,-1,1791,1016,0,0
574,8,0,0,0,0,0,0,0,0,0,-1,1798,1016,0,0
581,8,0,0,0,0,0,0,0,0,0,-1,1805,1016,0,0
588,8,0,0,0,0,0,0,0,0,0,-1,1812,1016,0,0
595,8,0,0,0,0,0,0,0,0,0,-1,1819,1016,0,0
602,8,0,0,0,0,0,0,0,0,0,-1,1826,1016,0,0
609,8,0,0,0,0,0,0,0,0,0,-1,1833,1016,0,0
616,8,0,0,0,0,0,0,0,0,0,-1,1840,1016,0,0
623,8,0,0,0,0,0,0,0,0,0,-1,1847,1016,0,0
630,8,0,0,0,0,0,0,0,0,0,-1,1854,1016,0,0
637,8,0,0,0,0,0,0,0,0,0,-1,1861,1016,0,0
644,8,22.8917,3.12964,0.000852138,-0.00549991,-0.00684667,0.00522357,-0.00987134,-0.568231,0.00885168,0.0472066,1868,1016,22.8917,-3.12966
651,8,22.7838,2.72186,0.00126926,-0.003284,-0.00456534,0.00409414,-0.00610888,-0.554104,0.00592888,0.0392602,1875,1016,22.7838,-2.72188
658,8,22.6488,2.5141,0.00113185,-0.00179331,-0.00301226,0.00301783,-0.00367929,-0.559391,0.00387287,0.03859,1882,1016,22.6488,-2.51411
665,8,22.5161,2.5434,0.000809156,-0.000780845,-0.00177788,0.00196168,-0.00193337,-0.575152,0.00224883,0.0415526,1889,1016,22.5161,-2.5434
672,8,22.6592,2.57861,0.000325414,1.95622e-05,-0.000338519,0.000543947,-0.000198971,-0.573244,0.00044407,0.0394053,1896,1016,22.6592,-2.57863
679,8,22.8435,2.50714,-0.000525135,0.000622058,0.00130179,0.00147102,-0.0013741,0.992911,0.00164295,0.0364463,1903,1016,22.8435,-2.50712
686,8,22.8463,2.58246,-0.00133841,0.000915022,0.00266109,0.0026781,-0.00310149,0.985657,0.00333983,0.0412275,1910,1016,22.8463,-2.58246
693,8,22.8212,2.67194,-0.00200708,0.00104043,0.00375106,0.00356541,-0.00453206,0.978327,0.00468617,0.0404176,1917,1016,22.8212,-2.67195
700,8,22.7783,2.69818,-0.00252541,0.0011889,0.00459258,0.00428562,-0.00562213,0.977537,0.00573756,0.0299508,1924,1016,22.7783,-2.69815
707,8,22.7207,2.7735,-0.00288358,0.00120462,0.00512563,0.00467871,-0.00635768,0.975134,0.00639639,0.024332,1931,1016,22.7207,-2.77349
714,8,22.7896,2.05463,0,0,0,0,0,0,0,-1,1938,1016,22.7895,-2.05461
721,8,22.8014,3.02417,0,0,0,0,0,0,0,-1,1945,1016,22.8014,-3.02415
728,8,22.2393,4.03052,0,0,0,0,0,0,0,-1,1952,1016,22.2393,-4.03053
735,8,22.2124,4.05261,-0.00389472,0.00162058,0.004614,0.00423821,-0.00651235,1.05475,0.00625296,0.0171828,1959,1016,22.2124,-4.05261
742,8,22.2432,4.06787,-0.00406031,0.00187718,0.00385085,0.00377079,-0.00595392,1.11378,0.00566152,0.0165914,1966,1016,22.2432,-4.0679
749,8,22.2405,4.12653,-0.00444943,0.00291335,0.00309855,0.00404379,-0.00557987,1.22097,0.00557976,0.0120351,1973,1016,22.2405,-4.12654
756,8,22.2429,4.13422,-0.00478959,0.00432831,0.00243962,0.00494002,-0.00540131,1.32512,0.00597255,0.013084,1980,1016,22.243,-4.13424
763,8,22.2484,4.18054,-0.00540141,0.00606228,0.00178987,0.00633524,-0.00567437,1.41946,0.00693725,0.013196,1987,1016,22.2484,-4.18052
770,8,22.2417,4.21686,-0.00645525,0.00852901,0.00131293,0.00864318,-0.00656942,1.48406,0.00881016,0.014411,1994,1016,22.2417,-4.21685
777,8,22.1855,4.24811,-0.00777284,0.0117889,0.0015376,0.011909,-0.00789296,1.49283,0.0115108,0.0179784,2001,1016,22.1856,-4.2481
784,8,22.0776,4.05444,-0.00961373,0.015875,0.00281618,0.0161824,-0.00992117,1.46206,0.0152147,0.0356609,2008,1016,22.0777,-4.05446
791,8,22.0575,4.14038,-0.0117368,0.0209227,0.00502599,0.0216787,-0.0124928,1.42151,0.0199651,0.0454811,2015,1016,22.0575,-4.14036
798,8,21.6526,3.94641,-0.0138225,0.0271381,0.00843014,0.0288052,-0.0154897,1.37555,0.025956,0.0453711,2022,1016,21.6526,-3.9464
805,8,21.4653,3.62201,0,0,0,0,0,0,0,-1,2029,1016,21.4653,-3.62202
812,8,19.5259,2.11951,0,0,0,0,0,0,0,-1,2036,1016,19.5258,-2.11952
-700,1,0,0,0,0,0,0,0,0,0,-1,524,1023,0,0
-693,1,-12.9462,0.879028,0,0,0,0,0,0,0,-1,531,1023,-12.9462,-0.879048
-686,1,-13.2552,0.641907,0,0,0,0,0,0,0,-1,538,1023,-13.2553,-0.641908
-679,1,-15.4147,1.57819,0,0,0,0,0,0,0,-1,545,1023,-15.4146,-1.57822
-672,1,-15.3724,1.58875,0.0242893,0.0551269,-0.017895,0.0633295,0.0160867,-1.141,0.0380096,0.0480939,552,1023,-15.3724,-1.58877
-665,1,-15.308,1.63458,0.0168269,0.0421742,-0.0111314,0.0463685,0.0126326,-1.21045,0.0276797,0.0459691,559,1023,-15.308,-1.6346
-658,1,-15.2236,1.67175,0.0110128,0.0314691,-0.00623937,0.0332219,0.00925989,-1.29692,0.0197969,0.0327044,566,1023,-15.2236,-1.67177
-651,1,-15.1479,1.72699,0.00672408,0.02289,-0.00299237,0.0234261,0.00618796,-1.39352,0.0140177,0.0153093,573,1023,-15.1479,-1.727
-644,1,-15.0853,1.79187,0.00335373,0.0162688,-0.00122028,0.0163831,0.00323944,-1.47741,0.0100184,0.0207838,580,1023,-15.0853,-1.79188
-637,1,-15.1463,1.73956,0.00111555,0.0102329,-0.000230182,0.0102387,0.00110975,-1.54557,0.00648762,0.0179496,587,1023,-15.1463,-1.73957
-630,1,-15.2239,1.72156,0.000157947,0.00595682,-0.000351331,0.00597803,0.000136739,-1.5105,0.00394057,0.0173315,594,1023,-15.2239,-1.72153
-623,1,-15.1959,1.75348,-0.000489214,0.00417961,-0.0017878,0.00478556,-0.00109516,-1.24401,0.00361121,0.0135164,601,1023,-15.1958,-1.75348
-616,1,-15.2023,1.71942,-0.00096251,0.00262325,-0.00286607,0.00421102,-0.00255028,-1.0649,0.00394269,0.0157287,608,1023,-15.2023,-1.71945
-609,1,-15.1751,1.70288,-0.000905956,0.00103239,-0.00400691,0.00418567,-0.00405923,-0.904057,0.00476038,0.0154043,615,1023,-15.1751,-1.70287
-602,1,-15.1793,1.71899,-0.000581069,0.000109122,-0.00528246,0.00505775,-0.0055297,-0.818016,0.00611469,0.0121545,622,1023,-15.1793,-1.71898
-595,1,-15.1584,1.67816,-0.000404409,-0.000467044,-0.00599372,0.00555807,-0.00642953,-0.782786,0.00692714,0.0173224,629,1023,-15.1585,-1.67814
-588,1,-15.1396,1.28888,-0.000268347,-0.000915383,-0.00614252,0.00555917,-0.0067429,-0.759088,0.00711356,0.024088,636,1023,-15.1396,-1.28889
-581,1,-15.166,0.963745,-9.98478e-05,-0.00132056,-0.00583066,0.00515232,-0.00657272,-0.733248,0.00678599,0.0250049,643,1023,-15.1659,-0.963753
-574,1,-15.2156,1.0451,-3.13319e-05,-0.00176403,-0.00537467,0.00454636,-0.00634173,-0.70549,0.00631466,0.033883,650,1023,-15.2156,-1.04508
-567,1,-15.1446,0.830383,4.71898e-05,-0.00213141,-0.0045372,0.00362402,-0.00570824,-0.667587,0.00543259,0.041367,657,1023,-15.1446,-0.830379
-560,1,-14.9896,1.20642,0.000190001,-0.0024502,-0.00337612,0.00249494,-0.00475513,-0.599032,0.00425309,0.0424776,664,1023,-14.9896,-1.2064
-553,1,-15.1458,1.35077,0.00037791,-0.00271587,-0.0019363,0.00130935,-0.00364732,-0.448367,0.00296595,0.0415672,671,1023,-15.1458,-1.35075
-546,1,-15.2767,1.11896,0.000605026,-0.00292768,-0.00026601,0.000624944,-0.00294759,-0.0747377,0.00220312,0.0416366,678,1023,-15.2767,-1.11894
-539,1,-15.1675,1.052,0.000890489,-0.00311287,0.00117713,0.00121095,-0.00343333,0.265801,0.00278183,0.0421185,685,1023,-15.1675,-1.05199
-532,1,-15.0445,1.02606,0.000957705,-0.00269321,0.00160873,0.00156542,-0.00330092,0.361187,0.00286852,0.0436655,692,1023,-15.0445,-1.02604
-525,1,0,0,0,0,0,0,0,0,0,-1,699,1023,0,0
-518,1,0,0,0,0,0,0,0,0,0,-1,706,1023,0,0
-511,1,0,0,0,0,0,0,0,0,0,-1,713,1023,0,0
-504,1,0,0,0,0,0,0,0,0,0,-1,720,1023,0,0
-497,1,0,0,0,0,0,0,0,0,0,-1,727,1023,0,0
-490,1,0,0,0,0,0,0,0,0,0,-1,734,1023,0,0
-483,1,0,0,0,0,0,0,0,0,0,-1,741,1023,0,0
-476,1,0,0,0,0,0,0,0,0,0,-1,748,1023,0,0
-469,1,0,0,0,0,0,0,0,0,0,-1,755,1023,0,0
-462,1,0,0,0,0,0,0,0,0,0,-1,762,1023,0,0
-455,1,0,0,0,0,0,0,0,0,0,-1,769,1023,0,0
-448,1,0,0,0,0,0,0,0,0,0,-1,776,1023,0,0
-441,1,0,0,0,0,0,0,0,0,0,-1,783,1023,0,0
-434,1,0,0,0,0,0,0,0,0,0,-1,790,1023,0,0
-427,1,0,0,0,0,0,0,0,0,0,-1,797,1023,0,0
-420,1,0,0,0,0,0,0,0,0,0,-1,804,1023,0,0
-413,1,0,0,0,0,0,0,0,0,0,-1,811,1023,0,0
-406,1,0,0,0,0,0,0,0,0,0,-1,818,1023,0,0
-399,1,0,0,0,0,0,0,0,0,0,-1,825,1023,0,0
-392,1,0,0,0,0,0,0,0,0,0,-1,832,1023,0,0
-385,1,0,0,0,0,0,0,0,0,0,-1,839,1023,0,0
-378,1,0,0,0,0,0,0,0,0,0,-1,846,1023,0,0
-371,1,0,0,0,0,0,0,0,0,0,-1,853,1023,0,0
-364,1,0,0,0,0,0,0,0,0,0,-1,860,1023,0,0
-357,1,0,0,0,0,0,0,0,0,0,-1,867,1023,0,0
-350,1,0,0,0,0,0,0,0,0,0,-1,874,1023,0,0
-343,1,0,0,0,0,0,0,0,0,0,-1,881,1023,0,0
-336,1,0,0,0,0,0,0,0,0,0,-1,888,1023,0,0
-329,1,0,0,0,0,0,0,0,0,0,-1,895,1023,0,0
-322,1,0,0,0,0,0,0,0,0,0,-1,902,1023,0,0
-315,1,0,0,0,0,0,0,0,0,0,-1,909,1023,0,0
-308,1,0,0,0,0,0,0,0,0,0,-1,916,1023,0,0
-301,1,0,0,0,0,0,0,0,0,0,-1,923,1023,0,0
-294,1,0,0,0,0,0,0,0,0,0,-1,930,1023,0,0
-287,1,0,0,0,0,0,0,0,0,0,-1,937,1023,0,0
-280,1,0,0,0,0,0,0,0,0,0,-1,944,1023,0,0
-273,1,0,0,0,0,0,0,0,0,0,-1,951,1023,0,0
-266,1,0,0,0,0,0,0,0,0,0,-1,958,1023,0,0
-259,1,0,0,0,0,0,0,0,0,0,-1,965,1023,0,0
-252,1,0,0,0,0,0,0,0,0,0,-1,972,1023,0,0
-245,1,0,0,0,0,0,0,0,0,0,-1,979,1023,0,0
-238,1,0,0,0,0,0,0,0,0,0,-1,986,1023,0,0
-231,1,0,0,0,0,0,0,0,0,0,-1,993,1023,0,0
-224,1,0,0,0,0,0,0,0,0,0,-1,1000,1023,0,0
-217,1,0,0,0,0,0,0,0,0,0,-1,1007,1023,0,0
-210,1,0,0,0,0,0,0,0,0,0,-1,1014,1023,0,0
-203,1,0,0,0,0,0,0,0,0,0,-1,1021,1023,0,0
-196,1,0,0,0,0,0,0,0,0,0,-1,1028,1023,0,0
-189,1,0,0,0,0,0,0,0,0,0,-1,1035,1023,0,0
-182,1,0,0,0,0,0,0,0,0,0,-1,1042,1023,0,0
-175,1,0,0,0,0,0,0,0,0,0,-1,1049,1023,0,0
-168,1,0,0,0,0,0,0,0,0,0,-1,1056,1023,0,0
-161,1,0,0,0,0,0,0,0,0,0,-1,1063,1023,0,0
-154,1,0,0,0,0,0,0,0,0,0,-1,1070,1023,0,0
-147,1,0,0,0,0,0,0,0,0,0,-1,1077,1023,0,0
-140,1,0,0,0,0,0,0,0,0,0,-1,1084,1023,0,0
-133,1,0,0,0,0,0,0,0,0,0,-1,1091,1023,0,0
-126,1,0,0,0,0,0,0,0,0,0,-1,1098,1023,0,0
-119,1,0,0,0,0,0,0,0,0,0,-1,1105,1023,0,0
-112,1,0,0,0,0,0,0,0,0,0,-1,1112,1023,0,0
-105,1,0,0,0,0,0,0,0,0,0,-1,1119,1023,0,0
-98,1,0,0,0,0,0,0,0,0,0,-1,1126,1023,0,0
-91,1,0,0,0,0,0,0,0,0,0,-1,1133,1023,0,0
-84,1,0,0,0,0,0,0,0,0,0,-1,1140,1023,0,0
-77,1,0,0,0,0,0,0,0,0,0,-1,1147,1023,0,0
-70,1,0,0,0,0,0,0,0,0,0,-1,1154,1023,0,0
-63,1,0,0,0,0,0,0,0,0,0,-1,1161,1023,0,0
-56,1,0,0,0,0,0,0,0,0,0,-1,1168,1023,0,0
-49,1,0,0,0,0,0,0,0,0,0,-1,1175,1023,0,0
-42,1,0,0,0,0,0,0,0,0,0,-1,1182,1023,0,0
-35,1,0,0,0,0,0,0,0,0,0,-1,1189,1023,0,0
-28,1,0,0,0,0,0,0,0,0,0,-1,1196,1023,0,0
-21,1,0,0,0,0,0,0,0,0,0,-1,1203,1023,0,0
-14,1,0,0,0,0,0,0,0,0,0,-1,1210,1023,0,0
-7,1,0,0,0,0,0,0,0,0,0,-1,1217,1023,0,0
0,1,0,0,0,0,0,0,0,0,0,-1,1224,1023,0,0
7,1,0,0,0,0,0,0,0,0,0,-1,1231,1023,0,0
14,1,0,0,0,0,0,0,0,0,0,-1,1238,1023,0,0
21,1,0,0,0,0,0,0,0,0,0,-1,1245,1023,0,0
28,1,0,0,0,0,0,0,0,0,0,-1,1252,1023,0,0
35,1,0,0,0,0,0,0,0,0,0,-1,1259,1023,0,0
42,1,0,0,0,0,0,0,0,0,0,-1,1266,1023,0,0
49,1,0,0,0,0,0,0,0,0,0,-1,1273,1023,0,0
56,1,0,0,0,0,0,0,0,0,0,-1,1280,1023,0,0
63,1,0,0,0,0,0,0,0,0,0,-1,1287,1023,0,0
70,1,0,0,0,0,0,0,0,0,0,-1,1294,1023,0,0
77,1,0,0,0,0,0,0,0,0,0,-1,1301,1023,0,0
84,1,0,0,0,0,0,0,0,0,0,-1,1308,1023,0,0
91,1,0,0,0,0,0,0,0,0,0,-1,1315,1023,0,0
98,1,0,0,0,0,0,0,0,0,0,-1,1322,1023,0,0
105,1,0,0,0,0,0,0,0,0,0,-1,1329,1023,0,0
112,1,0,0,0,0,0,0,0,0,0,-1,1336,1023,0,0
119,1,0,0,0,0,0,0,0,0,0,-1,1343,1023,0,0
126,1,0,0,0,0,0,0,0,0,0,-1,1350,1023,0,0
133,1,0,0,0,0,0,0,0,0,0,-1,1357,1023,0,0
140,1,0,0,0,0,0,0,0,0,0,-1,1364,1023,0,0
147,1,0,0,0,0,0,0,0,0,0,-1,1371,1023,0,0
154,1,0,0,0,0,0,0,0,0,0,-1,1378,1023,0,0
161,1,0,0,0,0,0,0,0,0,0,-1,1385,1023,0,0
168,1,0,0,0,0,0,0,0,0,0,-1,1392,1023,0,0
175,1,0,0,0,0,0,0,0,0,0,-1,1399,1023,0,0
182,1,0,0,0,0,0,0,0,0,0,-1,1406,1023,0,0
189,1,0,0,0,0,0,0,0,0,0,-1,1413,1023,0,0
196,1,0,0,0,0,0,0,0,0,0,-1,1420,1023,0,0
203,1,0,0,0,0,0,0,0,0,0,-1,1427,1023,0,0
210,1,0,0,0,0,0,0,0,0,0,-1,1434,1023,0,0
217,1,0,0,0,0,0,0,0,0,0,-1,1441,1023,0,0
224,1,0,0,0,0,0,0,0,0,0,-1,1448,1023,0,0
231,1,0,0,0,0,0,0,0,0,0,-1,1455,1023,0,0
238,1,0,0,0,0,0,0,0,0,0,-1,1462,1023,0,0
245,1,0,0,0,0,0,0,0,0,0,-1,1469,1023,0,0
252,1,0,0,0,0,0,0,0,0,0,-1,1476,1023,0,0
259,1,0,0,0,0,0,0,0,0,0,-1,1483,1023,0,0
266,1,0,0,0,0,0,0,0,0,0,-1,1490,1023,0,0
273,1,0,0,0,0,0,0,0,0,0,-1,1497,1023,0,0
280,1,0,0,0,0,0,0,0,0,0,-1,1504,1023,0,0
287,1,0,0,0,0,0,0,0,0,0,-1,1511,1023,0,0
294,1,0,0,0,0,0,0,0,0,0,-1,1518,1023,0,0
301,1,0,0,0,0,0,0,0,0,0,-1,1525,1023,0,0
308,1,0,0,0,0,0,0,0,0,0,-1,1532,1023,0,0
315,1,0,0,0,0,0,0,0,0,0,-1,1539,1023,0,0
322,1,0,0,0,0,0,0,0,0,0,-1,1546,1023,0,0
329,1,0,0,0,0,0,0,0,0,0,-1,1553,1023,0,0
336,1,0,0,0,0,0,0,0,0,0,-1,1560,1023,0,0
343,1,0,0,0,0,0,0,0,0,0,-1,1567,1023,0,0
350,1,0,0,0,0,0,0,0,0,0,-1,1574,1023,0,0
357,1,0,0,0,0,0,0,0,0,0,-1,1581,1023,0,0
364,1,0,0,0,0,0,0,0,0,0,-1,1588,1023,0,0
371,1,0,0,0,0,0,0,0,0,0,-1,1595,1023,0,0
378,1,0,0,0,0,0,0,0,0,0,-1,1602,1023,0,0
385,1,0,0,0,0,0,0,0,0,0,-1,1609,1023,0,0
392,1,0,0,0,0,0,0,0,0,0,-1,1616,1023,0,0
399,1,0,0,0,0,0,0,0,0,0,-1,1623,1023,0,0
406,1,0,0,0,0,0,0,0,0,0,-1,1630,1023,0,0
413,1,0,0,0,0,0,0,0,0,0,-1,1637,1023,0,0
420,1,0,0,0,0,0,0,0,0,0,-1,1644,1023,0,0
427,1,0,0,0,0,0,0,0,0,0,-1,1651,1023,0,0
434,1,0,0,0,0,0,0,0,0,0,-1,1658,1023,0,0
441,1,0,0,0,0,0,0,0,0,0,-1,1665,1023,0,0
448,1,0,0,0,0,0,0,0,0,0,-1,1672,1023,0,0
455,1,0,0,0,0,0,0,0,0,0,-1,1679,1023,0,0
462,1,0,0,0,0,0,0,0,0,0,-1,1686,1023,0,0
469,1,0,0,0,0,0,0,0,0,0,-1,1693,1023,0,0
476,1,0,0,0,0,0,0,0,0,0,-1,1700,1023,0,0
483,1,0,0,0,0,0,0,0,0,0,-1,1707,1023,0,0
490,1,0,0,0,0,0,0,0,0,0,-1,1714,1023,0,0
497,1,0,0,0,0,0,0,0,0,0,-1,1721,1023,0,0
504,1,0,0,0,0,0,0,0,0,0,-1,1728,1023,0,0
511,1,0,0,0,0,0,0,0,0,0,-1,1735,1023,0,0
518,1,0,0,0,0,0,0,0,0,0,-1,1742,1023,0,0
525,1,0,0,0,0,0,0,0,0,0,-1,1749,1023,0,0
532,1,0,0,0,0,0,0,0,0,0,-1,1756,1023,0,0
539,1,0,0,0,0,0,0,0,0,0,-1,1763,1023,0,0
546,1,0,0,0,0,0,0,0,0,0,-1,1770,1023,0,0
553,1,0,0,0,0,0,0,0,0,0,-1,1777,1023,0,0
560,1,0,0,0,0,0,0,0,0,0,-1,1784,1023,0,0
567,1,0,0,0,0,0,0,0,0,0,-1,1791,1023,0,0
574,1,0,0,0,0,0,0,0,0,0,-1,1798,1023,0,0
581,1,0,0,0,0,0,0,0,0,0,-1,1805,1023,0,0
588,1,0,0,0,0,0,0,0,0,0,-1,1812,1023,0,0
595,1,0,0,0,0,0,0,0,0,0,-1,1819,1023,0,0
602,1,0,0,0,0,0,0,0,0,0,-1,1826,1023,0,0
609,1,0,0,0,0,0,0,0,0,0,-1,1833,1023,0,0
616,1,0,0,0,0,0,0,0,0,0,-1,1840,1023,0,0
623,1,0,0,0,0,0,0,0,0,0,-1,1847,1023,0,0
630,1,0,0,0,0,0,0,0,0,0,-1,1854,1023,0,0
637,1,0,0,0,0,0,0,0,0,0,-1,1861,1023,0,0
644,1,0,0,0,0,0,0,0,0,0,-1,1868,1023,0,0
651,1,22.8068,2.33813,0.000273425,-0.00381986,-0.00455127,0.00321706,-0.00676349,-0.574102,0.00588228,0.0404834,1875,1023,22.8068,-2.33813
658,1,22.7659,2.31921,0.000632982,-0.00239851,-0.00304951,0.00252268,-0.0042882,-0.554758,0.00397606,0.0402142,1882,1023,22.7659,-2.3192
665,1,22.6942,2.61078,0.000626692,-0.00141143,-0.00186117,0.00172953,-0.00251426,-0.534923,0.00246407,0.0414912,1889,1023,22.6943,-2.61079
672,1,22.7297,2.59698,0.000366617,-0.000605215,-0.000409108,0.000515904,-0.000754502,-0.349895,0.000737769,0.0395311,1896,1023,22.7297,-2.597
679,1,22.8503,2.51733,-0.000375609,5.57209e-05,0.00134652,0.00120373,-0.00152362,0.864806,0.00157824,0.0381451,1903,1023,22.8503,-2.51734
686,1,22.9287,2.50275,-0.00118853,0.000421866,0.00284865,0.00257693,-0.0033436,0.923135,0.00342776,0.0397462,1910,1023,22.9288,-2.50274
693,1,22.896,2.672,-0.00189903,0.000623578,0.00408108,0.00363382,-0.00490927,0.935273,0.00495064,0.0375491,1917,1023,22.896,-2.67197
700,1,22.7441,2.7085,-0.00245377,0.000833983,0.00503677,0.00448835,-0.00610813,0.943136,0.00614166,0.029347,1924,1023,22.7441,-2.70849
707,1,22.7084,2.74408,-0.00282771,0.000892166,0.0056623,0.00499218,-0.00692772,0.944085,0.00691213,0.0259608,1931,1023,22.7084,-2.74407
714,1,22.7751,2.16125,0,0,0,0,0,0,0,-1,1938,1023,22.7751,-2.16127
721,1,22.703,3.11957,-0.00347092,0.00107335,0.00594803,0.00516844,-0.00756602,0.967844,0.00739555,0.0359184,1945,1023,22.703,-3.11959
728,1,22.3374,3.87378,-0.00379513,0.00126917,0.00574652,0.0050167,-0.00754266,0.99292,0.00729987,0.0282096,1952,1023,22.3374,-3.87379
735,1,22.2539,4.07214,-0.00398597,0.00150635,0.00522847,0.00466597,-0.0071456,1.02721,0.00686932,0.0154354,1959,1023,22.2539,-4.07215
742,1,22.2671,4.08838,-0.00422126,0.00170128,0.00430441,0.00396466,-0.00648465,1.0867,0.00609111,0.0156612,1966,1023,22.2671,-4.08837
749,1,22.2526,4.12207,-0.00451795,0.00263242,0.00331459,0.00393253,-0.00581806,1.197,0.00566448,0.0136283,1973,1023,22.2526,-4.12205
756,1,22.2688,4.13092,-0.00467235,0.00395284,0.00245553,0.00460292,-0.00532242,1.31199,0.00573542,0.0123224,1980,1023,22.2689,-4.13091
763,1,22.2795,4.16376,-0.00511539,0.00548983,0.00162137,0.00573218,-0.00535773,1.42243,0.00640398,0.0135018,1987,1023,22.2796,-4.16375
770,1,22.2756,4.19452,-0.00594828,0.00769056,0.000870495,0.00774589,-0.00600362,1.50731,0.0079595,0.0136552,1994,1023,22.2756,-4.1945
777,1,22.218,4.18524,-0.00696191,0.0106125,0.000864269,0.0106549,-0.00700431,1.52178,0.0102679,0.0149978,2001,1023,22.218,-4.18523
784,1,22.1061,3.96594,-0.00842037,0.0142975,0.00203413,0.0144782,-0.00860107,1.4822,0.013468,0.0339057,2008,1023,22.1061,-3.96596
791,1,21.9806,3.67896,0,0,0,0,0,0,0,-1,2015,1023,21.9806,-3.67898
798,1,21.4757,3.8573,0,0,0,0,0,0,0,-1,2022,1023,21.4757,-3.85733
805,1,21.3711,3.9942,0,0,0,0,0,0,0,-1,2029,1023,21.371,-3.99418
812,1,20.0029,3.18469,0,0,0,0,0,0,0,-1,2036,1023,20.003,-3.18468
-700,-6,0,0,0,0,0,0,0,0,0,-1,524,1030,0,0
-693,-6,-12.8171,-0.0991211,0.0691597,0.110633,-0.049344,0.14342,0.0363721,-0.984315,0.0860899,0.0417576,531,1030,-12.8171,0.0991543
-686,-6,-12.882,-0.168823,0.0543179,0.0918621,-0.0356152,0.11335,0.0328304,-1.02794,0.0673454,0.0423266,538,1030,-12.882,0.168844
-679,-6,-12.6775,-0.578735,0,0,0,0,0,0,0,-1,545,1030,-12.6775,0.578718
-672,-6,-15.0593,1.55969,0,0,0,0,0,0,0,-1,552,1030,-15.0593,-1.55974
-665,-6,-15.0787,1.599,0.0204845,0.0454628,-0.00926563,0.0485246,0.0174228,-1.25165,0.0283843,0.0470986,559,1030,-15.0787,-1.59894
-658,-6,-15.1654,1.6283,0.0133431,0.0340865,-0.00462893,0.0350726,0.0123571,-1.36091,0.0205414,0.0387407,566,1030,-15.1654,-1.62827
-651,-6,-15.1825,1.6377,0.00812658,0.0248572,-0.00167417,0.0250231,0.00796069,-1.47203,0.0147622,0.0329029,573,1030,-15.1825,-1.63764
-644,-6,-15.1288,1.70544,0.00397739,0.017708,-0.000147188,0.0177096,0.00397581,-1.56008,0.0107295,0.0350265,580,1030,-15.1288,-1.70546
-637,-6,-15.1831,1.7616,0.0013557,0.0112386,0.000406857,0.0112554,0.00133898,1.52972,0.00709947,0.0209885,587,1030,-15.1831,-1.76158
-630,-6,-15.2097,1.71313,0.000341902,0.0064757,-5.47312e-05,0.00647619,0.000341413,-1.56187,0.00420828,0.0145712,594,1030,-15.2097,-1.71318
-623,-6,-15.1908,1.71167,-0.000410425,0.0044245,-0.00168146,0.00495177,-0.000937693,-1.26693,0.00365407,0.0139222,601,1030,-15.1908,-1.71168
-616,-6,-15.1907,1.71179,-0.000856227,0.00263432,-0.00293922,0.00430738,-0.00252928,-1.05332,0.0039914,0.0147354,608,1030,-15.1908,-1.71184
-609,-6,-15.1627,1.71045,-0.000706972,0.00086155,-0.00422937,0.00437876,-0.00422418,-0.877073,0.00496718,0.0159215,615,1030,-15.1627,-1.71042
-602,-6,-15.1703,1.74341,-0.000387458,-0.000167871,-0.00562409,0.0053475,-0.00590283,-0.795158,0.00649802,0.012382,622,1030,-15.1704,-1.74335
-595,-6,-15.1161,1.7417,-0.000240465,-0.000780721,-0.00637641,0.00587153,-0.00689272,-0.764229,0.0073773,0.0144005,629,1030,-15.1161,-1.74169
-588,-6,-15.1182,1.22791,-0.000123999,-0.00120322,-0.0064927,0.00585148,-0.00717869,-0.743938,0.00753597,0.0166134,636,1030,-15.1182,-1.22793
-581,-6,-15.181,0.896606,1.42326e-05,-0.00153457,-0.00611804,0.00540669,-0.00692702,-0.722445,0.00713888,0.0218473,643,1030,-15.181,-0.89656
-574,-6,-15.2169,0.873413,2.96304e-05,-0.0018918,-0.00558845,0.00473934,-0.00660151,-0.700275,0.006577,0.0294156,650,1030,-15.2169,-0.873388
-567,-6,-15.1801,0.831299,3.29764e-05,-0.00213533,-0.00463515,0.00370908,-0.00581143,-0.670514,0.00554116,0.0389304,657,1030,-15.1801,-0.831334
-560,-6,-14.8376,1.19055,0,0,0,0,0,0,0,-1,664,1030,-14.8376,-1.19051
-553,-6,-15.1425,1.15417,0,0,0,0,0,0,0,-1,671,1030,-15.1425,-1.15421
-546,-6,-15.1393,0.968872,9.65198e-05,-0.00226374,0.000222792,0.000117366,-0.00228458,0.093295,0.00156365,0.0421281,678,1030,-15.1393,-0.968871
-539,-6,-15.1332,0.929199,9.75235e-05,-0.0021199,0.00188348,0.00117439,-0.00319676,0.519382,0.00261217,0.0433502,685,1030,-15.1332,-0.929233
-532,-6,-15.0544,0.981934,-0.000160101,-0.00137597,0.00235124,0.00166053,-0.00319659,0.65889,0.00285062,0.0432786,692,1030,-15.0544,-0.981943
-525,-6,0,0,0,0,0,0,0,0,0,-1,699,1030,0,0
-518,-6,0,0,0,0,0,0,0,0,0,-1,706,1030,0,0
-511,-6,0,0,0,0,0,0,0,0,0,-1,713,1030,0,0
-504,-6,0,0,0,0,0,0,0,0,0,-1,720,1030,0,0
-497,-6,0,0,0,0,0,0,0,0,0,-1,727,1030,0,0
-490,-6,0,0,0,0,0,0,0,0,0,-1,734,1030,0,0
-483,-6,0,0,0,0,0,0,0,0,0,-1,741,1030,0,0
-476,-6,0,0,0,0,0,0,0,0,0,-1,748,1030,0,0
-469,-6,0,0,0,0,0,0,0,0,0,-1,755,1030,0,0
-462,-6,0,0,0,0,0,0,0,0,0,-1,762,1030,0,0
-455,-6,0,0,0,0,0,0,0,0,0,-1,769,1030,0,0
-448,-6,0,0,0,0,0,0,0,0,0,-1,776,1030,0,0
-441,-6,0,0,0,0,0,0,0,0,0,-1,783,1030,0,0
-434,-6,0,0,0,0,0,0,0,0,0,-1,790,1030,0,0
-427,-6,0,0,0,0,0,0,0,0,0,-1,797,1030,0,0
-420,-6,0,0,0,0,0,0,0,0,0,-1,804,1030,0,0
-413,-6,0,0,0,0,0,0,0,0,0,-1,811,1030,0,0
-406,-6,0,0,0,0,0,0,0,0,0,-1,818,1030,0,0
-399,-6,0,0,0,0,0,0,0,0,0,-1,825,1030,0,0
-392,-6,0,0,0,0,0,0,0,0,0,-1,832,1030,0,0
-385,-6,0,0,0,0,0,0,0,0,0,-1,839,1030,0,0
-378,-6,0,0,0,0,0,0,0,0,0,-1,846,1030,0,0
-371,-6,0,0,0,0,0,0,0,0,0,-1,853,1030,0,0
-364,-6,0,0,0,0,0,0,0,0,0,-1,860,1030,0,0
-357,-6,0,0,0,0,0,0,0,0,0,-1,867,1030,0,0
-350,-6,0,0,0,0,0,0,0,0,0,-1,874,1030,0,0
-343,-6,0,0,0,0,0,0,0,0,0,-1,881,1030,0,0
-336,-6,0,0,0,0,0,0,0,0,0,-1,888,1030,0,0
-329,-6,0,0,0,0,0,0,0,0,0,-1,895,1030,0,0
-322,-6,0,0,0,0,0,0,0,0,0,-1,902,1030,0,0
-315,-6,0,0,0,0,0,0,0,0,0,-1,909,1030,0,0
-308,-6,0,0,0,0,0,0,0,0,0,-1,916,1030,0,0
-301,-6,0,0,0,0,0,0,0,0,0,-1,923,1030,0,0
-294,-6,0,0,0,0,0,0,0,0,0,-1,930,1030,0,0
-287,-6,0,0,0,0,0,0,0,0,0,-1,937,1030,0,0
-280,-6,0,0,0,0,0,0,0,0,0,-1,944,1030,0,0
-273,-6,0,0,0,0,0,0,0,0,0,-1,951,1030,0,0
-266,-6,0,0,0,0,0,0,0,0,0,-1,958,1030,0,0
-259,-6,0,0,0,0,0,0,0,0,0,-1,965,1030,0,0
-252,-6,0,0,0,0,0,0,0,0,0,-1,972,1030,0,0
-245,-6,0,0,0,0,0,0,0,0,0,-1,979,1030,0,0
-238,-6,0,0,0,0,0,0,0,0,0,-1,986,1030,0,0
-231,-6,0,0,0,0,0,0,0,0,0,-1,993,1030,0,0
-224,-6,0,0,0,0,0,0,0,0,0,-1,1000,1030,0,0
-217,-6,0,0,0,0,0,0,0,0,0,-1,1007,1030,0,0
-210,-6,0,0,0,0,0,0,0,0,0,-1,1014,1030,0,0
-203,-6,0,0,0,0,0,0,0,0,0,-1,1021,1030,0,0
-196,-6,0,0,0,0,0,0,0,0,0,-1,1028,1030,0,0
-189,-6,0,0,0,0,0,0,0,0,0,-1,1035,1030,0,0
-182,-6,0,0,0,0,0,0,0,0,0,-1,1042,1030,0,0
-175,-6,0,0,0,0,0,0,0,0,0,-1,1049,1030,0,0
-168,-6,0,0,0,0,0,0,0,0,0,-1,1056,1030,0,0
-161,-6,0,0,0,0,0,0,0,0,0,-1,1063,1030,0,0
-154,-6,0,0,0,0,0,0,0,0,0,-1,1070,1030,0,0
-147,-6,0,0,0,0,0,0,0,0,0,-1,1077,1030,0,0
-140,-6,0,0,0,0,0,0,0,0,0,-1,1084,1030,0,0
-133,-6,0,0,0,0,0,0,0,0,0,-1,1091,1030,0,0
-126,-6,0,0,0,0,0,0,0,0,0,-1,1098,1030,0,0
-119,-6,0,0,0,0,0,0,0,0,0,-1,1105,1030,0,0
-112,-6,0,0,0,0,0,0,0,0,0,-1,1112,1030,0,0
-105,-6,0,0,0,0,0,0,0,0,0,-1,1119,1030,0,0
-98,-6,0,0,0,0,0,0,0,0,0,-1,1126,1030,0,0
-91,-6,0,0,0,0,0,0,0,0,0,-1,1133,1030,0,0
-84,-6,0,0,0,0,0,0,0,0,0,-1,1140,1030,0,0
-77,-6,0,0,0,0,0,0,0,0,0,-1,1147,1030,0,0
-70,-6,0,0,0,0,0,0,0,0,0,-1,1154,1030,0,0
-63,-6,0,0,0,0,0,0,0,0,0,-1,1161,1030,0,0
-56,-6,0,0,0,0,0,0,0,0,0,-1,1168,1030,0,0
-49,-6,0,0,0,0,0,0,0,0,0,-1,1175,1030,0,0
-42,-6,0,0,0,0,0,0,0,0,0,-1,1182,1030,0,0
-35,-6,0,0,0,0,0,0,0,0,0,-1,1189,1030,0,0
-28,-6,0,0,0,0,0,0,0,0,0,-1,1196,1030,0,0
-21,-6,0,0,0,0,0,0,0,0,0,-1,1203,1030,0,0
-14,-6,0,0,0,0,0,0,0,0,0,-1,1210,1030,0,0
-7,-6,0,0,0,0,0,0,0,0,0,-1,1217,1030,0,0
0,-6,0,0,0,0,0,0,0,0,0,-1,1224,1030,0,0
7,-6,0,0,0,0,0,0,0,0,0,-1,1231,1030,0,0
14,-6,0,0,0,0,0,0,0,0,0,-1,1238,1030,0,0
21,-6,0,0,0,0,0,0,0,0,0,-1,1245,1030,0,0
28,-6,0,0,0,0,0,0,0,0,0,-1,1252,1030,0,0
35,-6,0,0,0,0,0,0,0,0,0,-1,1259,1030,0,0
42,-6,0,0,0,0,0,0,0,0,0,-1,1266,1030,0,0
49,-6,0,0,0,0,0,0,0,0,0,-1,1273,1030,0,0
56,-6,0,0,0,0,0,0,0,0,0,-1,1280,1030,0,0
63,-6,0,0,0,0,0,0,0,0,0,-1,1287,1030,0,0
70,-6,0,0,0,0,0,0,0,0,0,-1,1294,1030,0,0
77,-6,0,0,0,0,0,0,0,0,0,-1,1301,1030,0,0
84,-6,0,0,0,0,0,0,0,0,0,-1,1308,1030,0,0
91,-6,0,0,0,0,0,0,0,0,0,-1,1315,1030,0,0
98,-6,0,0,0,0,0,0,0,0,0,-1,1322,1030,0,0
105,-6,0,0,0,0,0,0,0,0,0,-1,1329,1030,0,0
112,-6,0,0,0,0,0,0,0,0,0,-1,1336,1030,0,0
119,-6,0,0,0,0,0,0,0,0,0,-1,1343,1030,0,0
126,-6,0,0,0,0,0,0,0,0,0,-1,1350,1030,0,0
133,-6,0,0,0,0,0,0,0,0,0,-1,1357,1030,0,0
140,-6,0,0,0,0,0,0,0,0,0,-1,1364,1030,0,0
147,-6,0,0,0,0,0,0,0,0,0,-1,1371,1030,0,0
154,-6,0,0,0,0,0,0,0,0,0,-1,1378,1030,0,0
161,-6,0,0,0,0,0,0,0,0,0,-1,1385,1030,0,0
168,-6,0,0,0,0,0,0,0,0,0,-1,1392,1030,0,0
175,-6,0,0,0,0,0,0,0,0,0,-1,1399,1030,0,0
182,-6,0,0,0,0,0,0,0,0,0,-1,1406,1030,0,0
189,-6,0,0,0,0,0,0,0,0,0,-1,1413,1030,0,0
196,-6,0,0,0,0,0,0,0,0,0,-1,1420,1030,0,0
203,-6,0,0,0,0,0,0,0,0,0,-1,1427,1030,0,0
210,-6,0,0,0,0,0,0,0,0,0,-1,1434,1030,0,0
217,-6,0,0,0,0,0,0,0,0,0,-1,1441,1030,0,0
224,-6,0,0,0,0,0,0,0,0,0,-1,1448,1030,0,0
231,-6,0,0,0,0,0,0,0,0,0,-1,1455,1030,0,0
238,-6,0,0,0,0,0,0,0,0,0,-1,1462,1030,0,0
245,-6,0,0,0,0,0,0,0,0,0,-1,1469,1030,0,0
252,-6,0,0,0,0,0,0,0,0,0,-1,1476,1030,0,0
259,-6,0,0,0,0,0,0,0,0,0,-1,1483,1030,0,0
266,-6,0,0,0,0,0,0,0,0,0,-1,1490,1030,0,0
273,-6,0,0,0,0,0,0,0,0,0,-1,1497,1030,0,0
280,-6,0,0,0,0,0,0,0,0,0,-1,1504,1030,0,0
287,-6,0,0,0,0,0,0,0,0,0,-1,1511,1030,0,0
294,-6,0,0,0,0,0,0,0,0,0,-1,1518,1030,0,0
301,-6,0,0,0,0,0,0,0,0,0,-1,1525,1030,0,0
308,-6,0,0,0,0,0,0,0,0,0,-1,1532,1030,0,0
315,-6,0,0,0,0,0,0,0,0,0,-1,1539,1030,0,0
322,-6,0,0,0,0,0,0,0,0,0,-1,1546,1030,0,0
329,-6,0,0,0,0,0,0,0,0,0,-1,1553,1030,0,0
336,-6,0,0,0,0,0,0,0,0,0,-1,1560,1030,0,0
343,-6,0,0,0,0,0,0,0,0,0,-1,1567,1030,0,0
350,-6,0,0,0,0,0,0,0,0,0,-1,1574,1030,0,0
357,-6,0,0,0,0,0,0,0,0,0,-1,1581,1030,0,0
364,-6,0,0,0,0,0,0,0,0,0,-1,1588,1030,0,0
371,-6,0,0,0,0,0,0,0,0,0,-1,1595,1030,0,0
378,-6,0,0,0,0,0,0,0,0,0,-1,1602,1030,0,0
385,-6,0,0,0,0,0,0,0,0,0,-1,1609,1030,0,0
392,-6,0,0,0,0,0,0,0,0,0,-1,1616,1030,0,0
399,-6,0,0,0,0,0,0,0,0,0,-1,1623,1030,0,0
406,-6,0,0,0,0,0,0,0,0,0,-1,1630,1030,0,0
413,-6,0,0,0,0,0,0,0,0,0,-1,1637,1030,0,0
420,-6,0,0,0,0,0,0,0,0,0,-1,1644,1030,0,0
427,-6,0,0,0,0,0,0,0,0,0,-1,1651,1030,0,0
434,-6,0,0,0,0,0,0,0,0,0,-1,1658,1030,0,0
441,-6,0,0,0,0,0,0,0,0,0,-1,1665,1030,0,0
448,-6,0,0,0,0,0,0,0,0,0,-1,1672,1030,0,0
455,-6,0,0,0,0,0,0,0,0,0,-1,1679,1030,0,0
462,-6,0,0,0,0,0,0,0,0,0,-1,1686,1030,0,0
469,-6,0,0,0,0,0,0,0,0,0,-1,1693,1030,0,0
476,-6,0,0,0,0,0,0,0,0,0,-1,1700,1030,0,0
483,-6,0,0,0,0,0,0,0,0,0,-1,1707,1030,0,0
490,-6,0,0,0,0,0,0,0,0,0,-1,1714,1030,0,0
497,-6,0,0,0,0,0,0,0,0,0,-1,1721,1030,0,0
504,-6,0,0,0,0,0,0,0,0,0,-1,1728,1030,0,0
511,-6,0,0,0,0,0,0,0,0,0,-1,1735,1030,0,0
518,-6,0,0,0,0,0,0,0,0,0,-1,1742,1030,0,0
525,-6,0,0,0,0,0,0,0,0,0,-1,1749,1030,0,0
532,-6,0,0,0,0,0,0,0,0,0,-1,1756,1030,0,0
539,-6,0,0,0,0,0,0,0,0,0,-1,1763,1030,0,0
546,-6,0,0,0,0,0,0,0,0,0,-1,1770,1030,0,0
553,-6,0,0,0,0,0,0,0,0,0,-1,1777,1030,0,0
560,-6,0,0,0,0,0,0,0,0,0,-1,1784,1030,0,0
567,-6,0,0,0,0,0,0,0,0,0,-1,1791,1030,0,0
574,-6,0,0,0,0,0,0,0,0,0,-1,1798,1030,0,0
581,-6,0,0,0,0,0,0,0,0,0,-1,1805,1030,0,0
588,-6,0,0,0,0,0,0,0,0,0,-1,1812,1030,0,0
595,-6,0,0,0,0,0,0,0,0,0,-1,1819,1030,0,0
602,-6,0,0,0,0,0,0,0,0,0,-1,1826,1030,0,0
609,-6,0,0,0,0,0,0,0,0,0,-1,1833,1030,0,0
616,-6,0,0,0,0,0,0,0,0,0,-1,1840,1030,0,0
623,-6,0,0,0,0,0,0,0,0,0,-1,1847,1030,0,0
630,-6,0,0,0,0,0,0,0,0,0,-1,1854,1030,0,0
637,-6,0,0,0,0,0,0,0,0,0,-1,1861,1030,0,0
644,-6,0,0,0,0,0,0,0,0,0,-1,1868,1030,0,0
651,-6,22.7798,2.64978,-0.000550891,-0.00417033,-0.00440314,0.00239993,-0.00712115,-0.590419,0.00571783,0.0370363,1875,1030,22.7798,-2.64981
658,-6,22.7245,2.54956,0.000225423,-0.00277112,-0.00310305,0.00217298,-0.00471868,-0.560486,0.00406838,0.0388676,1882,1030,22.7245,-2.54952
665,-6,22.7728,2.51575,0.000470023,-0.00177856,-0.00203892,0.00167409,-0.00298262,-0.533434,0.0027237,0.0409267,1889,1030,22.7728,-2.51578
672,-6,22.7281,2.63147,0.000396891,-0.000943897,-0.000619382,0.000639219,-0.00118623,-0.372934,0.00106958,0.0386132,1896,1030,22.7282,-2.63151
679,-6,22.6158,2.56921,-0.000242436,-0.000222135,0.00123335,0.00100111,-0.00146568,0.789513,0.0014326,0.0408893,1903,1030,22.6159,-2.56923
686,-6,22.6886,2.61487,-0.00103935,0.000209393,0.00288219,0.00253406,-0.00336402,0.892065,0.00341648,0.0388851,1910,1030,22.6885,-2.61485
693,-6,22.8123,2.69507,-0.00176701,0.000467002,0.00426986,0.00376354,-0.00506355,0.913332,0.00511471,0.0356077,1917,1030,22.8123,-2.69506
700,-6,22.7386,2.72009,-0.00234547,0.000713583,0.00536167,0.00475962,-0.00639151,0.924343,0.00646105,0.029408,1924,1030,22.7386,-2.72012
707,-6,22.6859,2.73438,-0.00272407,0.000793531,0.00608384,0.0053677,-0.00729823,0.926109,0.00734094,0.0283486,1931,1030,22.6859,-2.73435
714,-6,22.657,2.1571,0,0,0,0,0,0,0,-1,1938,1030,22.657,-2.15705
721,-6,22.593,3.18323,-0.00339168,0.00103656,0.00650629,0.00569515,-0.00805026,0.949404,0.00797465,0.0440363,1945,1030,22.593,-3.18321
728,-6,22.2911,4.03357,-0.0037604,0.00124989,0.00633988,0.00556162,-0.00807213,0.973553,0.00791581,0.0353533,1952,1030,22.2911,-4.03351
735,-6,22.2772,4.06665,-0.00396237,0.00146661,0.00581739,0.00517166,-0.00766741,1.00369,0.00745918,0.0165756,1959,1030,22.2773,-4.0667
742,-6,22.3048,4.08716,-0.00417575,0.00156293,0.0048258,0.00430799,-0.00692081,1.05361,0.00654119,0.0139395,1966,1030,22.3049,-4.08719
749,-6,22.3,4.11621,-0.00428477,0.0023505,0.00368178,0.00398889,-0.00592316,1.15211,0.00575893,0.0127789,1973,1030,22.3,-4.11624
756,-6,22.3207,4.12109,-0.00410819,0.00347859,0.00271524,0.00435021,-0.00497981,1.26018,0.00539077,0.0128907,1980,1030,22.3206,-4.12107
763,-6,22.2993,4.12048,-0.00421769,0.00465006,0.00184479,0.00501853,-0.00458616,1.37366,0.00554714,0.0128459,1987,1030,22.2994,-4.12044
770,-6,22.271,4.14185,-0.00457316,0.00636913,0.00100459,0.0064606,-0.00466462,1.48,0.00645099,0.0118353,1994,1030,22.2709,-4.14179
777,-6,22.2286,4.15186,-0.00495247,0.0086345,0.000948321,0.00870037,-0.00501834,1.50145,0.00801503,0.0141636,2001,1030,22.2286,-4.15189
784,-6,22.181,3.88623,-0.0056072,0.0114586,0.00215097,0.0117256,-0.00587413,1.44733,0.0103467,0.0330062,2008,1030,22.181,-3.88627
791,-6,21.9924,3.45984,-0.00621385,0.0148537,0.00442751,0.0157463,-0.00710651,1.37185,0.0135047,0.0443848,2015,1030,21.9925,-3.45988
798,-6,21.8201,3.23962,0,0,0,0,0,0,0,-1,2022,1030,21.82,-3.23956
805,-6,20.9116,5.52356,0,0,0,0,0,0,0,-1,2029,1030,20.9116,-5.52361
812,-6,19.981,2.79431,0,0,0,0,0,0,0,-1,2036,1030,19.9809,-2.79431
-700,-13,0,0,0,0,0,0,0,0,0,-1,524,1037,0,0
-693,-13,-12.9648,-1.12524,0.0833464,0.107768,-0.0426935,0.139963,0.0511519,-0.924687,0.0817768,0.0480588,531,1037,-12.9649,1.12525
-686,-13,-12.5287,-1.45117,0.0662199,0.0893709,-0.0301109,0.110055,0.0455362,-0.968904,0.0638544,0.0442155,538,1037,-12.5287,1.45117
-679,-13,-12.5149,-1.81616,0,0,0,0,0,0,0,-1,545,1037,-12.5149,1.81614
-672,-13,-15.0486,0.998047,0,0,0,0,0,0,0,-1,552,1037,-15.0487,-0.99805
-665,-13,-14.9744,1.18213,0.0255718,0.0447512,-0.00654196,0.0467701,0.0235529,-1.27146,0.0270029,0.0487654,559,1037,-14.9744,-1.18209
-658,-13,-15.0344,1.46899,0.0167781,0.0337248,-0.002568,0.0341054,0.0163975,-1.42366,0.0196956,0.0486643,566,1037,-15.0344,-1.46898
-651,-13,-15.1107,1.56982,0.0103336,0.024711,-0.000157503,0.0247127,0.0103318,-1.55984,0.0143316,0.0413917,573,1037,-15.1107,-1.56982
-644,-13,-15.1227,1.66443,0.00504002,0.0177201,0.000941602,0.0177896,0.00497048,1.49708,0.0105988,0.0273824,580,1037,-15.1227,-1.66438
-637,-13,-15.1614,1.69312,0.00184046,0.0113253,0.00104053,0.0114381,0.00172765,1.4628,0.00711973,0.0204644,587,1037,-15.1614,-1.69316
-630,-13,-15.1896,1.67712,0.00065324,0.00645897,0.000206623,0.00646631,0.000645895,1.53527,0.00411252,0.0135385,594,1037,-15.1896,-1.67711
-623,-13,-15.1747,1.70081,-0.000304274,0.00434105,-0.00160172,0.00483978,-0.000803008,-1.26894,0.00352481,0.0117601,601,1037,-15.1747,-1.70078
-616,-13,-15.1573,1.71094,-0.000809172,0.0024673,-0.00305661,0.00429701,-0.00263888,-1.0314,0.00404241,0.0118248,608,1037,-15.1573,-1.71088
-609,-13,-15.1369,1.70703,-0.000603019,0.000698882,-0.00449205,0.0045869,-0.00449104,-0.857353,0.00524125,0.017091,615,1037,-15.1369,-1.70698
-602,-13,-15.1504,1.73975,-0.000297626,-0.000421494,-0.00601154,0.0056523,-0.00637142,-0.780247,0.00694603,0.0119818,622,1037,-15.1504,-1.73976
-595,-13,-15.1069,1.72644,-0.000209527,-0.0010808,-0.00679971,0.00616849,-0.00745881,-0.753408,0.00787947,0.0175825,629,1037,-15.1069,-1.7264
-588,-13,-15.0421,1.14502,-0.000132372,-0.00146788,-0.00690737,0.00613945,-0.00773969,-0.737212,0.00803086,0.0206811,636,1037,-15.042,-1.14499
-581,-13,-15.151,0.813599,-2.59464e-05,-0.00172044,-0.00650014,0.00568193,-0.00742832,-0.720592,0.00759156,0.0185871,643,1037,-15.151,-0.813641
-574,-13,-15.2025,0.884766,-3.89055e-05,-0.00199823,-0.00591601,0.00497801,-0.00701514,-0.703345,0.00695747,0.031398,650,1037,-15.2025,-0.884716
-567,-13,-15.2554,0.97168,-8.35876e-05,-0.0021212,-0.00487235,0.00387534,-0.00608012,-0.682334,0.00579458,0.0404423,657,1037,-15.2554,-0.971715
-560,-13,-15.1407,0.932129,-0.000130346,-0.00211057,-0.00342452,0.00244432,-0.00468524,-0.644673,0.00418348,0.0426561,664,1037,-15.1407,-0.932146
-553,-13,-15.0171,0.664307,-0.000208163,-0.00195579,-0.00161619,0.000755314,-0.00291927,-0.537576,0.00224079,0.0404867,671,1037,-15.0171,-0.664334
-546,-13,-15.1923,0.799438,-0.000347073,-0.00164434,0.000509624,-0.000170818,-0.0018206,0.332976,0.00116099,0.0392749,678,1037,-15.1922,-0.79944
-539,-13,-15.2347,0.828735,-0.000547774,-0.0012212,0.00239531,0.00153437,-0.00330335,0.71557,0.00285462,0.0397562,685,1037,-15.2347,-0.828728
-532,-13,-15.1346,0.894043,-0.00105526,-0.000272339,0.00292156,0.00228387,-0.00361147,0.851997,0.00343232,0.0415465,692,1037,-15.1347,-0.894077
-525,-13,0,0,0,0,0,0,0,0,0,-1,699,1037,0,0
-518,-13,0,0,0,0,0,0,0,0,0,-1,706,1037,0,0
-511,-13,0,0,0,0,0,0,0,0,0,-1,713,1037,0,0
-504,-13,0,0,0,0,0,0,0,0,0,-1,720,1037,0,0
-497,-13,0,0,0,0,0,0,0,0,0,-1,727,1037,0,0
-490,-13,0,0,0,0,0,0,0,0,0,-1,734,1037,0,0
-483,-13,0,0,0,0,0,0,0,0,0,-1,741,1037,0,0
-476,-13,0,0,0,0,0,0,0,0,0,-1,748,1037,0,0
-469,-13,0,0,0,0,0,0,0,0,0,-1,755,1037,0,0
-462,-13,0,0,0,0,0,0,0,0,0,-1,762,1037,0,0
-455,-13,0,0,0,0,0,0,0,0,0,-1,769,1037,0,0
-448,-13,0,0,0,0,0,0,0,0,0,-1,776,1037,0,0
-441,-13,0,0,0,0,0,0,0,0,0,-1,783,1037,0,0
-434,-13,0,0,0,0,0,0,0,0,0,-1,790,1037,0,0
-427,-13,0,0,0,0,0,0,0,0,0,-1,797,1037,0,0
-420,-13,0,0,0,0,0,0,0,0,0,-1,804,1037,0,0
-413,-13,0,0,0,0,0,0,0,0,0,-1,811,1037,0,0
-406,-13,0,0,0,0,0,0,0,0,0,-1,818,1037,0,0
-399,-13,0,0,0,0,0,0,0,0,0,-1,825,1037,0,0
-392,-13,0,0,0,0,0,0,0,0,0,-1,832,1037,0,0
-385,-13,0,0,0,0,0,0,0,0,0,-1,839,1037,0,0
-378,-13,0,0,0,0,0,0,0,0,0,-1,846,1037,0,0
-371,-13,0,0,0,0,0,0,0,0,0,-1,853,1037,0,0
-364,-13,0,0,0,0,0,0,0,0,0,-1,860,1037,0,0
-357,-13,0,0,0,0,0,0,0,0,0,-1,867,1037,0,0
-350,-13,0,0,0,0,0,0,0,0,0,-1,874,1037,0,0
-343,-13,0,0,0,0,0,0,0,0,0,-1,881,1037,0,0
-336,-13,0,0,0,0,0,0,0,0,0,-1,888,1037,0,0
-329,-13,0,0,0,0,0,0,0,0,0,-1,895,1037,0,0
-322,-13,0,0,0,0,0,0,0,0,0,-1,902,1037,0,0
-315,-13,0,0,0,0,0,0,0,0,0,-1,909,1037,0,0
-308,-13,0,0,0,0,0,0,0,0,0,-1,916,1037,0,0
-301,-13,0,0,0,0,0,0,0,0,0,-1,923,1037,0,0
-294,-13,0,0,0,0,0,0,0,0,0,-1,930,1037,0,0
-287,-13,0,0,0,0,0,0,0,0,0,-1,937,1037,0,0
-280,-13,0,0,0,0,0,0,0,0,0,-1,944,1037,0,0
-273,-13,0,0,0,0,0,0,0,0,0,-1,951,1037,0,0
-266,-13,0,0,0,0,0,0,0,0,0,-1,958,1037,0,0
-259,-13,0,0,0,0,0,0,0,0,0,-1,965,1037,0,0
-252,-13,0,0,0,0,0,0,0,0,0,-1,972,1037,0,0
-245,-13,0,0,0,0,0,0,0,0,0,-1,979,1037,0,0
-238,-13,0,0,0,0,0,0,0,0,0,-1,986,1037,0,0
-231,-13,0,0,0,0,0,0,0,0,0,-1,993,1037,0,0
-224,-13,0,0,0,0,0,0,0,0,0,-1,1000,1037,0,0
-217,-13,0,0,0,0,0,0,0,0,0,-1,1007,1037,0,0
-210,-13,0,0,0,0,0,0,0,0,0,-1,1014,1037,0,0
-203,-13,0,0,0,0,0,0,0,0,0,-1,1021,1037,0,0
-196,-13,0,0,0,0,0,0,0,0,0,-1,1028,1037,0,0
-189,-13,0,0,0,0,0,0,0,0,0,-1,1035,1037,0,0
-182,-13,0,0,0,0,0,0,0,0,0,-1,1042,1037,0,0
-175,-13,0,0,0,0,0,0,0,0,0,-1,1049,1037,0,0
-168,-13,0,0,0,0,0,0,0,0,0,-1,1056,1037,0,0
-161,-13,0,0,0,0,0,0,0,0,0,-1,1063,1037,0,0
-154,-13,0,0,0,0,0,0,0,0,0,-1,1070,1037,0,0
-147,-13,0,0,0,0,0,0,0,0,0,-1,1077,1037,0,0
-140,-13,0,0,0,0,0,0,0,0,0,-1,1084,1037,0,0
-133,-13,0,0,0,0,0,0,0,0,0,-1,1091,1037,0,0
-126,-13,0,0,0,0,0,0,0,0,0,-1,1098,1037,0,0
-119,-13,0,0,0,0,0,0,0,0,0,-1,1105,1037,0,0
-112,-13,0,0,0,0,0,0,0,0,0,-1,1112,1037,0,0
-105,-13,0,0,0,0,0,0,0,0,0,-1,1119,1037,0,0
-98,-13,0,0,0,0,0,0,0,0,0,-1,1126,1037,0,0
-91,-13,0,0,0,0,0,0,0,0,0,-1,1133,1037,0,0
-84,-13,0,0,0,0,0,0,0,0,0,-1,1140,1037,0,0
-77,-13,0,0,0,0,0,0,0,0,0,-1,1147,1037,0,0
-70,-13,0,0,0,0,0,0,0,0,0,-1,1154,1037,0,0
-63,-13,0,0,0,0,0,0,0,0,0,-1,1161,1037,0,0
-56,-13,0,0,0,0,0,0,0,0,0,-1,1168,1037,0,0
-49,-13,0,0,0,0,0,0,0,0,0,-1,1175,1037,0,0
-42,-13,0,0,0,0,0,0,0,0,0,-1,1182,1037,0,0
-35,-13,0,0,0,0,0,0,0,0,0,-1,1189,1037,0,0
-28,-13,0,0,0,0,0,0,0,0,0,-1,1196,1037,0,0
-21,-13,0,0,0,0,0,0,0,0,0,-1,1203,1037,0,0
-14,-13,0,0,0,0,0,0,0,0,0,-1,1210,1037,0,0
-7,-13,0,0,0,0,0,0,0,0,0,-1,1217,1037,0,0
0,-13,0,0,0,0,0,0,0,0,0,-1,1224,1037,0,0
7,-13,0,0,0,0,0,0,0,0,0,-1,1231,1037,0,0
14,-13,0,0,0,0,0,0,0,0,0,-1,1238,1037,0,0
21,-13,0,0,0,0,0,0,0,0,0,-1,1245,1037,0,0
28,-13,0,0,0,0,0,0,0,0,0,-1,1252,1037,0,0
35,-13,0,0,0,0,0,0,0,0,0,-1,1259,1037,0,0
42,-13,0,0,0,0,0,0,0,0,0,-1,1266,1037,0,0
49,-13,0,0,0,0,0,0,0,0,0,-1,1273,1037,0,0
56,-13,0,0,0,0,0,0,0,0,0,-1,1280,1037,0,0
63,-13,0,0,0,0,0,0,0,0,0,-1,1287,1037,0,0
70,-13,0,0,0,0,0,0,0,0,0,-1,1294,1037,0,0
77,-13,0,0,0,0,0,0,0,0,0,-1,1301,1037,0,0
84,-13,0,0,0,0,0,0,0,0,0,-1,1308,1037,0,0
91,-13,0,0,0,0,0,0,0,0,0,-1,1315,1037,0,0
98,-13,0,0,0,0,0,0,0,0,0,-1,1322,1037,0,0
105,-13,0,0,0,0,0,0,0,0,0,-1,1329,1037,0,0
112,-13,0,0,0,0,0,0,0,0,0,-1,1336,1037,0,0
119,-13,0,0,0,0,0,0,0,0,0,-1,1343,1037,0,0
126,-13,0,0,0,0,0,0,0,0,0,-1,1350,1037,0,0
133,-13,0,0,0,0,0,0,0,0,0,-1,1357,1037,0,0
140,-13,0,0,0,0,0,0,0,0,0,-1,1364,1037,0,0
147,-13,0,0,0,0,0,0,0,0,0,-1,1371,1037,0,0
154,-13,0,0,0,0,0,0,0,0,0,-1,1378,1037,0,0
161,-13,0,0,0,0,0,0,0,0,0,-1,1385,1037,0,0
168,-13,0,0,0,0,0,0,0,0,0,-1,1392,1037,0,0
175,-13,0,0,0,0,0,0,0,0,0,-1,1399,1037,0,0
182,-13,0,0,0,0,0,0,0,0,0,-1,1406,1037,0,0
189,-13,0,0,0,0,0,0,0,0,0,-1,1413,1037,0,0
196,-13,0,0,0,0,0,0,0,0,0,-1,1420,1037,0,0
203,-13,0,0,0,0,0,0,0,0,0,-1,1427,1037,0,0
210,-13,0,0,0,0,0,0,0,0,0,-1,1434,1037,0,0
217,-13,0,0,0,0,0,0,0,0,0,-1,1441,1037,0,0
224,-13,0,0,0,0,0,0,0,0,0,-1,1448,1037,0,0
231,-13,0,0,0,0,0,0,0,0,0,-1,1455,1037,0,0
238,-13,0,0,0,0,0,0,0,0,0,-1,1462,1037,0,0
245,-13,0,0,0,0,0,0,0,0,0,-1,1469,1037,0,0
252,-13,0,0,0,0,0,0,0,0,0,-1,1476,1037,0,0
259,-13,0,0,0,0,0,0,0,0,0,-1,1483,1037,0,0
266,-13,0,0,0,0,0,0,0,0,0,-1,1490,1037,0,0
273,-13,0,0,0,0,0,0,0,0,0,-1,1497,1037,0,0
280,-13,0,0,0,0,0,0,0,0,0,-1,1504,1037,0,0
287,-13,0,0,0,0,0,0,0,0,0,-1,1511,1037,0,0
294,-13,0,0,0,0,0,0,0,0,0,-1,1518,1037,0,0
301,-13,0,0,0,0,0,0,0,0,0,-1,1525,1037,0,0
308,-13,0,0,0,0,0,0,0,0,0,-1,1532,1037,0,0
315,-13,0,0,0,0,0,0,0,0,0,-1,1539,1037,0,0
322,-13,0,0,0,0,0,0,0,0,0,-1,1546,1037,0,0
329,-13,0,0,0,0,0,0,0,0,0,-1,1553,1037,0,0
336,-13,0,0,0,0,0,0,0,0,0,-1,1560,1037,0,0
343,-13,0,0,0,0,0,0,0,0,0,-1,1567,1037,0,0
350,-13,0,0,0,0,0,0,0,0,0,-1,1574,1037,0,0
357,-13,0,0,0,0,0,0,0,0,0,-1,1581,1037,0,0
364,-13,0,0,0,0,0,0,0,0,0,-1,1588,1037,0,0
371,-13,0,0,0,0,0,0,0,0,0,-1,1595,1037,0,0
378,-13,0,0,0,0,0,0,0,0,0,-1,1602,1037,0,0
385,-13,0,0,0,0,0,0,0,0,0,-1,1609,1037,0,0
392,-13,0,0,0,0,0,0,0,0,0,-1,1616,1037,0,0
399,-13,0,0,0,0,0,0,0,0,0,-1,1623,1037,0,0
406,-13,0,0,0,0,0,0,0,0,0,-1,1630,1037,0,0
413,-13,0,0,0,0,0,0,0,0,0,-1,1637,1037,0,0
420,-13,0,0,0,0,0,0,0,0,0,-1,1644,1037,0,0
427,-13,0,0,0,0,0,0,0,0,0,-1,1651,1037,0,0
434,-13,0,0,0,0,0,0,0,0,0,-1,1658,1037,0,0
441,-13,0,0,0,0,0,0,0,0,0,-1,1665,1037,0,0
448,-13,0,0,0,0,0,0,0,0,0,-1,1672,1037,0,0
455,-13,0,0,0,0,0,0,0,0,0,-1,1679,1037,0,0
462,-13,0,0,0,0,0,0,0,0,0,-1,1686,1037,0,0
469,-13,0,0,0,0,0,0,0,0,0,-1,1693,1037,0,0
476,-13,0,0,0,0,0,0,0,0,0,-1,1700,1037,0,0
483,-13,0,0,0,0,0,0,0,0,0,-1,1707,1037,0,0
490,-13,0,0,0,0,0,0,0,0,0,-1,1714,1037,0,0
497,-13,0,0,0,0,0,0,0,0,0,-1,1721,1037,0,0
504,-13,0,0,0,0,0,0,0,0,0,-1,1728,1037,0,0
511,-13,0,0,0,0,0,0,0,0,0,-1,1735,1037,0,0
518,-13,0,0,0,0,0,0,0,0,0,-1,1742,1037,0,0
525,-13,0,0,0,0,0,0,0,0,0,-1,1749,1037,0,0
532,-13,0,0,0,0,0,0,0,0,0,-1,1756,1037,0,0
539,-13,0,0,0,0,0,0,0,0,0,-1,1763,1037,0,0
546,-13,0,0,0,0,0,0,0,0,0,-1,1770,1037,0,0
553,-13,0,0,0,0,0,0,0,0,0,-1,1777,1037,0,0
560,-13,0,0,0,0,0,0,0,0,0,-1,1784,1037,0,0
567,-13,0,0,0,0,0,0,0,0,0,-1,1791,1037,0,0
574,-13,0,0,0,0,0,0,0,0,0,-1,1798,1037,0,0
581,-13,0,0,0,0,0,0,0,0,0,-1,1805,1037,0,0
588,-13,0,0,0,0,0,0,0,0,0,-1,1812,1037,0,0
595,-13,0,0,0,0,0,0,0,0,0,-1,1819,1037,0,0
602,-13,0,0,0,0,0,0,0,0,0,-1,1826,1037,0,0
609,-13,0,0,0,0,0,0,0,0,0,-1,1833,1037,0,0
616,-13,0,0,0,0,0,0,0,0,0,-1,1840,1037,0,0
623,-13,0,0,0,0,0,0,0,0,0,-1,1847,1037,0,0
630,-13,0,0,0,0,0,0,0,0,0,-1,1854,1037,0,0
637,-13,0,0,0,0,0,0,0,0,0,-1,1861,1037,0,0
644,-13,0,0,0,0,0,0,0,0,0,-1,1868,1037,0,0
651,-13,22.6753,3.07141,-0.00135653,-0.00416416,-0.00381264,0.00130252,-0.00682321,-0.609,0.00503941,0.0405063,1875,1037,22.6753,-3.07142
658,-13,22.6005,2.70825,-0.000160731,-0.00276408,-0.00287788,0.00169616,-0.00462098,-0.573014,0.00377526,0.0413268,1882,1037,22.6005,-2.7082
665,-13,22.7124,2.56738,0.000323146,-0.00176493,-0.00204846,0.00157829,-0.00302007,-0.549722,0.00269801,0.0410505,1889,1037,22.7124,-2.56739
672,-13,22.7347,2.66577,0.000447229,-0.000917094,-0.000740724,0.000772051,-0.00124192,-0.413266,0.00117327,0.0346902,1896,1037,22.7347,-2.66578
679,-13,22.6539,2.63696,-5.1742e-05,-0.000172947,0.0011524,0.00104164,-0.00126633,0.759128,0.00133461,0.037129,1903,1037,22.6539,-2.63692
686,-13,22.7808,2.68384,-0.000785108,0.000278555,0.00290959,0.00270452,-0.00321107,0.875793,0.00341954,0.038869,1910,1037,22.7807,-2.68389
693,-13,22.7953,2.7439,-0.00148458,0.000545917,0.00442503,0.00407067,-0.00500933,0.898163,0.00525167,0.0375255,1917,1037,22.7953,-2.74384
700,-13,22.7256,2.69604,-0.00204465,0.000786928,0.00563316,0.00517949,-0.00643722,0.908514,0.00672,0.0343862,1924,1037,22.7256,-2.69606
707,-13,22.7047,2.7478,-0.00240286,0.000858289,0.00643191,0.00586309,-0.00740767,0.90954,0.00767916,0.0299727,1931,1037,22.7048,-2.74778
714,-13,22.7014,2.87683,0,0,0,0,0,0,0,-1,1938,1037,22.7014,-2.87684
721,-13,22.5599,3.54431,-0.00308736,0.00107753,0.0069699,0.00626943,-0.00827926,0.930565,0.00842636,0.0403339,1945,1037,22.5599,-3.54429
728,-13,22.3219,4.10413,-0.00348778,0.00127132,0.00684485,0.00613844,-0.0083549,0.952684,0.00840029,0.0315738,1952,1037,22.3219,-4.1041
735,-13,22.2925,4.09619,-0.00370954,0.00145244,0.00634655,0.00572274,-0.00797984,0.978522,0.00794688,0.0182812,1959,1037,22.2925,-4.09617
742,-13,22.2845,4.1084,-0.00386756,0.00147169,0.00533624,0.00476884,-0.00716471,1.01733,0.00693597,0.0102772,1966,1037,22.2845,-4.10834
749,-13,22.3048,4.08582,-0.0037297,0.00217101,0.00410336,0.00427458,-0.00583326,1.09708,0.00585885,0.0148232,1973,1037,22.3048,-4.08582
756,-13,22.3268,4.0979,-0.00318932,0.00310184,0.00315355,0.00441042,-0.0044979,1.17746,0.00514331,0.013186,1980,1037,22.3268,-4.09789
763,-13,22.3107,4.11682,-0.00285551,0.0039389,0.00236136,0.00467896,-0.00359558,1.26709,0.00479094,0.0133426,1987,1037,22.3107,-4.11686
770,-13,22.2814,4.12891,-0.00256728,0.00523045,0.00160132,0.00554648,-0.00288332,1.37594,0.00494724,0.0122618,1994,1037,22.2813,-4.12885
777,-13,22.243,4.10828,-0.00204432,0.0068973,0.00166956,0.00719887,-0.00234589,1.3921,0.00574319,0.011643,2001,1037,22.243,-4.10831
784,-13,22.2493,4.00781,-0.00151151,0.00889811,0.00311003,0.0097565,-0.00236989,1.3015,0.00742152,0.0262733,2008,1037,22.2493,-4.00782
791,-13,22.2821,3.86658,-0.000654113,0.0111653,0.00568069,0.0134528,-0.00294166,1.18797,0.010093,0.0430375,2015,1037,22.2821,-3.86657
798,-13,22.5378,3.89502,0,0,0,0,0,0,0,-1,2022,1037,22.5379,-3.89496
805,-13,22.8171,3.74084,0,0,0,0,0,0,0,-1,2029,1037,22.8171,-3.74085
812,-13,21.4592,5.56628,0,0,0,0,0,0,0,-1,2036,1037,21.4592,-5.56634
-700,-20,-13.5783,-1.4137,0,0,0,0,0,0,0,-1,524,1044,-13.5783,1.4137
-693,-20,-12.8663,-1.99536,0,0,0,0,0,0,0,-1,531,1044,-12.8662,1.9953
-686,-20,-12.121,-2.62256,0,0,0,0,0,0,0,-1,538,1044,-12.121,2.62256
-679,-20,-10.895,-3.35278,0,0,0,0,0,0,0,-1,545,1044,-10.895,3.35281
-672,-20,-15.1341,0.472778,0,0,0,0,0,0,0,-1,552,1044,-15.1341,-0.472801
-665,-20,-15.0201,0.643066,0.0308843,0.0396297,-0.00431637,0.0414012,0.0291128,-1.18134,0.0245521,0.047198,559,1044,-15.0201,-0.643064
-658,-20,-14.8109,0.978638,0.0202667,0.0302235,-0.000988972,0.0303207,0.0201695,-1.47275,0.0178214,0.0474721,566,1044,-14.8109,-0.978648
-651,-20,-15.0259,1.49695,0.0125098,0.022413,0.000949613,0.0225032,0.0124195,1.47606,0.0130155,0.0378954,573,1044,-15.0259,-1.49696
-644,-20,-15.0829,1.57336,0.00609259,0.0162703,0.00174271,0.0165604,0.00580246,1.40583,0.0097028,0.023533,580,1044,-15.0829,-1.57336
-637,-20,-15.121,1.59729,0.00225317,0.0106228,0.00147375,0.0108747,0.00200125,1.40149,0.00668335,0.0169815,587,1044,-15.121,-1.59729
-630,-20,-15.1285,1.64868,0.000846668,0.00607725,0.000314027,0.00609603,0.000827882,1.51105,0.0038181,0.0142773,594,1044,-15.1285,-1.64872
-623,-20,-15.1158,1.6803,-0.000324494,0.00404526,-0.00161163,0.00457535,-0.000854583,-1.25303,0.00337139,0.0130552,601,1044,-15.1159,-1.68033
-616,-20,-15.1129,1.69849,-0.000909081,0.00224445,-0.00320342,0.00423813,-0.00290276,-1.0141,0.00414675,0.0129135,608,1044,-15.1129,-1.69847
-609,-20,-15.1143,1.7251,-0.000659867,0.000554982,-0.00473946,0.00472578,-0.00483067,-0.849132,0.00551753,0.0149749,615,1044,-15.1143,-1.72513
-602,-20,-15.1235,1.73975,-0.000360811,-0.000592115,-0.00635394,0.00587853,-0.00683146,-0.776298,0.00734499,0.0112996,622,1044,-15.1235,-1.73972
-595,-20,-15.1302,1.71265,-0.000293975,-0.00130384,-0.0072047,0.00642346,-0.00802128,-0.750413,0.00835666,0.014339,629,1044,-15.1303,-1.71263
-588,-20,-15.1292,1.21826,-0.000239338,-0.00166789,-0.00731526,0.00639643,-0.00830366,-0.736732,0.00851088,0.0174011,636,1044,-15.1292,-1.21827
-581,-20,-15.155,0.86084,-0.000156448,-0.00185739,-0.00688282,0.00592825,-0.00794208,-0.723928,0.00803613,0.0242567,643,1044,-15.155,-0.860788
-574,-20,-15.2044,0.886963,-0.000171848,-0.00205801,-0.00622765,0.00518372,-0.00741358,-0.710252,0.00731094,0.038338,650,1044,-15.2044,-0.886999
-567,-20,-15.2853,1.00391,-0.000232025,-0.00208595,-0.00508301,0.00400785,-0.00632583,-0.695207,0.00601598,0.0468762,657,1044,-15.2853,-1.00395
-560,-20,-15.1234,1.12036,-0.000307734,-0.00195156,-0.00348548,0.00245143,-0.00471073,-0.669608,0.00420309,0.0461211,664,1044,-15.1233,-1.12041
-553,-20,-14.9103,0.508789,-0.000432984,-0.00164188,-0.00147474,0.00055637,-0.00263123,-0.590906,0.00196603,0.0419253,671,1044,-14.9103,-0.508775
-546,-20,-15.0784,0.676392,-0.000647398,-0.00113807,0.000918012,5.74967e-05,-0.00184296,0.654827,0.00124825,0.0393361,678,1044,-15.0784,-0.676336
-539,-20,-15.2669,0.943359,-0.000969507,-0.000482657,0.00311579,0.0023992,-0.00385137,0.824382,0.00364109,0.0410236,685,1044,-15.2669,-0.943396
-532,-20,-15.2411,0.992065,-0.0016633,0.000632093,0.003845,0.00349703,-0.00452823,0.930434,0.00464612,0.0427997,692,1044,-15.2411,-0.992096
-525,-20,0,0,0,0,0,0,0,0,0,-1,699,1044,0,0
-518,-20,0,0,0,0,0,0,0,0,0,-1,706,1044,0,0
-511,-20,0,0,0,0,0,0,0,0,0,-1,713,1044,0,0
-504,-20,0,0,0,0,0,0,0,0,0,-1,720,1044,0,0
-497,-20,0,0,0,0,0,0,0,0,0,-1,727,1044,0,0
-490,-20,0,0,0,0,0,0,0,0,0,-1,734,1044,0,0
-483,-20,0,0,0,0,0,0,0,0,0,-1,741,1044,0,0
-476,-20,0,0,0,0,0,0,0,0,0,-1,748,1044,0,0
-469,-20,0,0,0,0,0,0,0,0,0,-1,755,1044,0,0
-462,-20,0,0,0,0,0,0,0,0,0,-1,762,1044,0,0
-455,-20,0,0,0,0,0,0,0,0,0,-1,769,1044,0,0
-448,-20,0,0,0,0,0,0,0,0,0,-1,776,1044,0,0
-441,-20,0,0,0,0,0,0,0,0,0,-1,783,1044,0,0
-434,-20,0,0,0,0,0,0,0,0,0,-1,790,1044,0,0
-427,-20,0,0,0,0,0,0,0,0,0,-1,797,1044,0,0
-420,-20,0,0,0,0,0,0,0,0,0,-1,804,1044,0,0
-413,-20,0,0,0,0,0,0,0,0,0,-1,811,1044,0,0
-406,-20,0,0,0,0,0,0,0,0,0,-1,818,1044,0,0
-399,-20,0,0,0,0,0,0,0,0,0,-1,825,1044,0,0
-392,-20,0,0,0,0,0,0,0,0,0,-1,832,1044,0,0
-385,-20,0,0,0,0,0,0,0,0,0,-1,839,1044,0,0
-378,-20,0,0,0,0,0,0,0,0,0,-1,846,1044,0,0
-371,-20,0,0,0,0,0,0,0,0,0,-1,853,1044,0,0
-364,-20,0,0,0,0,0,0,0,0,0,-1,860,1044,0,0
-357,-20,0,0,0,0,0,0,0,0,0,-1,867,1044,0,0
-350,-20,0,0,0,0,0,0,0,0,0,-1,874,1044,0,0
-343,-20,0,0,0,0,0,0,0,0,0,-1,881,1044,0,0
-336,-20,0,0,0,0,0,0,0,0,0,-1,888,1044,0,0
-329,-20,0,0,0,0,0,0,0,0,0,-1,895,1044,0,0
-322,-20,0,0,0,0,0,0,0,0,0,-1,902,1044,0,0
-315,-20,0,0,0,0,0,0,0,0,0,-1,909,1044,0,0
-308,-20,0,0,0,0,0,0,0,0,0,-1,916,1044,0,0
-301,-20,0,0,0,0,0,0,0,0,0,-1,923,1044,0,0
-294,-20,0,0,0,0,0,0,0,0,0,-1,930,1044,0,0
-287,-20,0,0,0,0,0,0,0,0,0,-1,937,1044,0,0
-280,-20,0,0,0,0,0,0,0,0,0,-1,944,1044,0,0
-273,-20,0,0,0,0,0,0,0,0,0,-1,951,1044,0,0
-266,-20,0,0,0,0,0,0,0,0,0,-1,958,1044,0,0
-259,-20,0,0,0,0,0,0,0,0,0,-1,965,1044,0,0
-252,-20,0,0,0,0,0,0,0,0,0,-1,972,1044,0,0
-245,-20,0,0,0,0,0,0,0,0,0,-1,979,1044,0,0
-238,-20,0,0,0,0,0,0,0,0,0,-1,986,1044,0,0
-231,-20,0,0,0,0,0,0,0,0,0,-1,993,1044,0,0
-224,-20,0,0,0,0,0,0,0,0,0,-1,1000,1044,0,0
-217,-20,0,0,0,0,0,0,0,0,0,-1,1007,1044,0,0
-210,-20,0,0,0,0,0,0,0,0,0,-1,1014,1044,0,0
-203,-20,0,0,0,0,0,0,0,0,0,-1,1021,1044,0,0
-196,-20,0,0,0,0,0,0,0,0,0,-1,1028,1044,0,0
-189,-20,0,0,0,0,0,0,0,0,0,-1,1035,1044,0,0
-182,-20,0,0,0,0,0,0,0,0,0,-1,1042,1044,0,0
-175,-20,0,0,0,0,0,0,0,0,0,-1,1049,1044,0,0
-168,-20,0,0,0,0,0,0,0,0,0,-1,1056,1044,0,0
-161,-20,0,0,0,0,0,0,0,0,0,-1,1063,1044,0,0
-154,-20,0,0,0,0,0,0,0,0,0,-1,1070,1044,0,0
-147,-20,0,0,0,0,0,0,0,0,0,-1,1077,1044,0,0
-140,-20,0,0,0,0,0,0,0,0,0,-1,1084,1044,0,0
-133,-20,0,0,0,0,0,0,0,0,0,-1,1091,1044,0,0
-126,-20,0,0,0,0,0,0,0,0,0,-1,1098,1044,0,0
-119,-20,0,0,0,0,0,0,0,0,0,-1,1105,1044,0,0
-112,-20,0,0,0,0,0,0,0,0,0,-1,1112,1044,0,0
-105,-20,0,0,0,0,0,0,0,0,0,-1,1119,1044,0,0
-98,-20,0,0,0,0,0,0,0,0,0,-1,1126,1044,0,0
-91,-20,0,0,0,0,0,0,0,0,0,-1,1133,1044,0,0
-84,-20,0,0,0,0,0,0,0,0,0,-1,1140,1044,0,0
-77,-20,0,0,0,0,0,0,0,0,0,-1,1147,1044,0,0
-70,-20,0,0,0,0,0,0,0,0,0,-1,1154,1044,0,0
-63,-20,0,0,0,0,0,0,0,0,0,-1,1161,1044,0,0
-56,-20,0,0,0,0,0,0,0,0,0,-1,1168,1044,0,0
-49,-20,0,0,0,0,0,0,0,0,0,-1,1175,1044,0,0
-42,-20,0,0,0,0,0,0,0,0,0,-1,1182,1044,0,0
-35,-20,0,0,0,0,0,0,0,0,0,-1,1189,1044,0,0
-28,-20,0,0,0,0,0,0,0,0,0,-1,1196,1044,0,0
-21,-20,0,0,0,0,0,0,0,0,0,-1,1203,1044,0,0
-14,-20,0,0,0,0,0,0,0,0,0,-1,1210,1044,0,0
-7,-20,0,0,0,0,0,0,0,0,0,-1,1217,1044,0,0
0,-20,0,0,0,0,0,0,0,0,0,-1,1224,1044,0,0
7,-20,0,0,0,0,0,0,0,0,0,-1,1231,1044,0,0
14,-20,0,0,0,0,0,0,0,0,0,-1,1238,1044,0,0
21,-20,0,0,0,0,0,0,0,0,0,-1,1245,1044,0,0
28,-20,0,0,0,0,0,0,0,0,0,-1,1252,1044,0,0
35,-20,0,0,0,0,0,0,0,0,0,-1,1259,1044,0,0
42,-20,0,0,0,0,0,0,0,0,0,-1,1266,1044,0,0
49,-20,0,0,0,0,0,0,0,0,0,-1,1273,1044,0,0
56,-20,0,0,0,0,0,0,0,0,0,-1,1280,1044,0,0
63,-20,0,0,0,0,0,0,0,0,0,-1,1287,1044,0,0
70,-20,0,0,0,0,0,0,0,0,0,-1,1294,1044,0,0
77,-20,0,0,0,0,0,0,0,0,0,-1,1301,1044,0,0
84,-20,0,0,0,0,0,0,0,0,0,-1,1308,1044,0,0
91,-20,0,0,0,0,0,0,0,0,0,-1,1315,1044,0,0
98,-20,0,0,0,0,0,0,0,0,0,-1,1322,1044,0,0
105,-20,0,0,0,0,0,0,0,0,0,-1,1329,1044,0,0
112,-20,0,0,0,0,0,0,0,0,0,-1,1336,1044,0,0
119,-20,0,0,0,0,0,0,0,0,0,-1,1343,1044,0,0
126,-20,0,0,0,0,0,0,0,0,0,-1,1350,1044,0,0
133,-20,0,0,0,0,0,0,0,0,0,-1,1357,1044,0,0
140,-20,0,0,0,0,0,0,0,0,0,-1,1364,1044,0,0
147,-20,0,0,0,0,0,0,0,0,0,-1,1371,1044,0,0
154,-20,0,0,0,0,0,0,0,0,0,-1,1378,1044,0,0
161,-20,0,0,0,0,0,0,0,0,0,-1,1385,1044,0,0
168,-20,0,0,0,0,0,0,0,0,0,-1,1392,1044,0,0
175,-20,0,0,0,0,0,0,0,0,0,-1,1399,1044,0,0
182,-20,0,0,0,0,0,0,0,0,0,-1,1406,1044,0,0
189,-20,0,0,0,0,0,0,0,0,0,-1,1413,1044,0,0
196,-20,0,0,0,0,0,0,0,0,0,-1,1420,1044,0,0
203,-20,0,0,0,0,0,0,0,0,0,-1,1427,1044,0,0
210,-20,0,0,0,0,0,0,0,0,0,-1,1434,1044,0,0
217,-20,0,0,0,0,0,0,0,0,0,-1,1441,1044,0,0
224,-20,0,0,0,0,0,0,0,0,0,-1,1448,1044,0,0
231,-20,0,0,0,0,0,0,0,0,0,-1,1455,1044,0,0
238,-20,0,0,0,0,0,0,0,0,0,-1,1462,1044,0,0
245,-20,0,0,0,0,0,0,0,0,0,-1,1469,1044,0,0
252,-20,0,0,0,0,0,0,0,0,0,-1,1476,1044,0,0
259,-20,0,0,0,0,0,0,0,0,0,-1,1483,1044,0,0
266,-20,0,0,0,0,0,0,0,0,0,-1,1490,1044,0,0
273,-20,0,0,0,0,0,0,0,0,0,-1,1497,1044,0,0
280,-20,0,0,0,0,0,0,0,0,0,-1,1504,1044,0,0
287,-20,0,0,0,0,0,0,0,0,0,-1,1511,1044,0,0
294,-20,0,0,0,0,0,0,0,0,0,-1,1518,1044,0,0
301,-20,0,0,0,0,0,0,0,0,0,-1,1525,1044,0,0
308,-20,0,0,0,0,0,0,0,0,0,-1,1532,1044,0,0
315,-20,0,0,0,0,0,0,0,0,0,-1,1539,1044,0,0
322,-20,0,0,0,0,0,0,0,0,0,-1,1546,1044,0,0
329,-20,0,0,0,0,0,0,0,0,0,-1,1553,1044,0,0
336,-20,0,0,0,0,0,0,0,0,0,-1,1560,1044,0,0
343,-20,0,0,0,0,0,0,0,0,0,-1,1567,1044,0,0
350,-20,0,0,0,0,0,0,0,0,0,-1,1574,1044,0,0
357,-20,0,0,0,0,0,0,0,0,0,-1,1581,1044,0,0
364,-20,0,0,0,0,0,0,0,0,0,-1,1588,1044,0,0
371,-20,0,0,0,0,0,0,0,0,0,-1,1595,1044,0,0
378,-20,0,0,0,0,0,0,0,0,0,-1,1602,1044,0,0
385,-20,0,0,0,0,0,0,0,0,0,-1,1609,1044,0,0
392,-20,0,0,0,0,0,0,0,0,0,-1,1616,1044,0,0
399,-20,0,0,0,0,0,0,0,0,0,-1,1623,1044,0,0
406,-20,0,0,0,0,0,0,0,0,0,-1,1630,1044,0,0
413,-20,0,0,0,0,0,0,0,0,0,-1,1637,1044,0,0
420,-20,0,0,0,0,0,0,0,0,0,-1,1644,1044,0,0
427,-20,0,0,0,0,0,0,0,0,0,-1,1651,1044,0,0
434,-20,0,0,0,0,0,0,0,0,0,-1,1658,1044,0,0
441,-20,0,0,0,0,0,0,0,0,0,-1,1665,1044,0,0
448,-20,0,0,0,0,0,0,0,0,0,-1,1672,1044,0,0
455,-20,0,0,0,0,0,0,0,0,0,-1,1679,1044,0,0
462,-20,0,0,0,0,0,0,0,0,0,-1,1686,1044,0,0
469,-20,0,0,0,0,0,0,0,0,0,-1,1693,1044,0,0
476,-20,0,0,0,0,0,0,0,0,0,-1,1700,1044,0,0
483,-20,0,0,0,0,0,0,0,0,0,-1,1707,1044,0,0
490,-20,0,0,0,0,0,0,0,0,0,-1,1714,1044,0,0
497,-20,0,0,0,0,0,0,0,0,0,-1,1721,1044,0,0
504,-20,0,0,0,0,0,0,0,0,0,-1,1728,1044,0,0
511,-20,0,0,0,0,0,0,0,0,0,-1,1735,1044,0,0
518,-20,0,0,0,0,0,0,0,0,0,-1,1742,1044,0,0
525,-20,0,0,0,0,0,0,0,0,0,-1,1749,1044,0,0
532,-20,0,0,0,0,0,0,0,0,0,-1,1756,1044,0,0
539,-20,0,0,0,0,0,0,0,0,0,-1,1763,1044,0,0
546,-20,0,0,0,0,0,0,0,0,0,-1,1770,1044,0,0
553,-20,0,0,0,0,0,0,0,0,0,-1,1777,1044,0,0
560,-20,0,0,0,0,0,0,0,0,0,-1,1784,1044,0,0
567,-20,0,0,0,0,0,0,0,0,0,-1,1791,1044,0,0
574,-20,0,0,0,0,0,0,0,0,0,-1,1798,1044,0,0
581,-20,0,0,0,0,0,0,0,0,0,-1,1805,1044,0,0
588,-20,0,0,0,0,0,0,0,0,0,-1,1812,1044,0,0
595,-20,0,0,0,0,0,0,0,0,0,-1,1819,1044,0,0
602,-20,0,0,0,0,0,0,0,0,0,-1,1826,1044,0,0
609,-20,0,0,0,0,0,0,0,0,0,-1,1833,1044,0,0
616,-20,0,0,0,0,0,0,0,0,0,-1,1840,1044,0,0
623,-20,0,0,0,0,0,0,0,0,0,-1,1847,1044,0,0
630,-20,0,0,0,0,0,0,0,0,0,-1,1854,1044,0,0
637,-20,0,0,0,0,0,0,0,0,0,-1,1861,1044,0,0
644,-20,0,0,0,0,0,0,0,0,0,-1,1868,1044,0,0
651,-20,22.5729,3.06531,-0.00150137,-0.00395205,-0.00306855,0.00057745,-0.00603087,-0.595438,0.00422623,0.0415229,1875,1044,22.5729,-3.06536
658,-20,22.6483,2.69189,-8.36658e-05,-0.00260005,-0.00255374,0.00150501,-0.00418873,-0.556508,0.00340683,0.0403528,1882,1044,22.6484,-2.69195
665,-20,22.6713,2.64795,0.000502358,-0.00165521,-0.00200392,0.00169942,-0.00285227,-0.538476,0.00265587,0.0376001,1889,1044,22.6712,-2.64798
672,-20,22.743,2.69446,0.000701112,-0.000856334,-0.000853832,0.001078,-0.00123322,-0.415686,0.00133539,0.0244243,1896,1044,22.7431,-2.69451
679,-20,22.7083,2.65942,0.000250393,-0.00016495,0.00102697,0.00109048,-0.00100503,0.685634,0.00121018,0.0277357,1903,1044,22.7082,-2.65939
686,-20,22.8698,2.72278,-0.00048272,0.000251961,0.0028503,0.00275849,-0.00298925,0.849484,0.00331935,0.0378712,1910,1044,22.8697,-2.72277
693,-20,22.7806,2.78992,-0.00119817,0.000493138,0.0044533,0.00418037,-0.0048854,0.879228,0.00523939,0.0400555,1917,1044,22.7806,-2.78989
700,-20,22.7114,2.69958,-0.00177385,0.000709405,0.0057478,0.00534815,-0.0064126,0.891773,0.00679934,0.0365023,1924,1044,22.7114,-2.69956
707,-20,22.6873,2.70032,-0.00213661,0.000767333,0.006599,0.00607222,-0.00744149,0.893687,0.00781548,0.0300367,1931,1044,22.6873,-2.7003
714,-20,22.6949,2.83337,-0.00246461,0.000868126,0.0070815,0.00647668,-0.00807316,0.900952,0.00841719,0.0263361,1938,1044,22.6949,-2.83341
721,-20,22.7106,3.05359,-0.0028673,0.000957506,0.00723219,0.00652587,-0.00843566,0.914654,0.00866147,0.0243763,1945,1044,22.7106,-3.05364
728,-20,22.5028,3.75537,-0.00327771,0.00113036,0.00714233,0.00640099,-0.00854834,0.935056,0.00866063,0.0224543,1952,1044,22.5028,-3.75531
735,-20,22.2621,4.06726,-0.00350107,0.00130576,0.00666601,0.00598839,-0.00818371,0.958418,0.00821492,0.0158285,1959,1044,22.2621,-4.06723
742,-20,22.2617,4.08862,-0.0035803,0.00131611,0.00563389,0.00501074,-0.00727493,0.990364,0.00713317,0.0138121,1966,1044,22.2618,-4.08868
749,-20,22.2925,4.08765,-0.00319983,0.00194956,0.00434772,0.00442776,-0.00567803,1.05273,0.00584944,0.0156752,1973,1044,22.2924,-4.08761
756,-20,22.3123,4.10046,-0.00232671,0.00280158,0.00348233,0.00456195,-0.00408708,1.10275,0.00499603,0.012902,1980,1044,22.3122,-4.10051
763,-20,22.296,4.099,-0.00156046,0.00341927,0.00280736,0.00468183,-0.00282302,1.14816,0.00437701,0.0145828,1987,1044,22.296,-4.099
770,-20,22.2767,4.13745,-0.000662176,0.00444505,0.00216913,0.00524197,-0.00145909,1.21871,0.00406916,0.0136014,1994,1044,22.2768,-4.13747
777,-20,22.2451,4.10791,0.000684076,0.00573907,0.00238653,0.00668774,-0.000264596,1.19244,0.00454926,0.0127161,2001,1044,22.2451,-4.10788
784,-20,22.2539,4.08447,0.0022766,0.00720625,0.00408462,0.00951212,-2.92608e-05,1.05687,0.00635119,0.0179256,2008,1044,22.2539,-4.08447
791,-20,22.3909,4.06287,0.00438281,0.00876004,0.00698271,0.0138891,-0.00074624,0.937266,0.0095179,0.035424,2015,1044,22.3909,-4.06282
798,-20,22.8578,4.10474,0,0,0,0,0,0,0,-1,2022,1044,22.8578,-4.10479
805,-20,22.4573,4.30188,0,0,0,0,0,0,0,-1,2029,1044,22.4573,-4.30188
812,-20,22.8091,5.47961,0,0,0,0,0,0,0,-1,2036,1044,22.809,-5.47966
-700,-27,-20.7783,1.26379,0,0,0,0,0,0,0,-1,524,1051,-20.7783,-1.26385
-693,-27,-12.502,-3.02234,0,0,0,0,0,0,0,-1,531,1051,-12.502,3.02236
-686,-27,-11.7857,-3.7804,0,0,0,0,0,0,0,-1,538,1051,-11.7857,3.78041
-679,-27,-11.2201,-4.31396,0,0,0,0,0,0,0,-1,545,1051,-11.2201,4.314
-672,-27,-15.0507,-0.0515137,0,0,0,0,0,0,0,-1,552,1051,-15.0507,0.0515594
-665,-27,-14.903,0.120972,0.0342202,0.0356231,-0.000942607,0.0360966,0.0337466,-1.10527,0.0233206,0.0448726,559,1051,-14.9029,-0.120937
-658,-27,-14.9272,0.721558,0.0224708,0.0274727,0.00145636,0.0278659,0.0220776,1.30714,0.0169799,0.0430854,566,1051,-14.9272,-0.721518
-651,-27,-14.9702,1.41406,0.0138837,0.0205932,0.00267832,0.0215312,0.0129457,1.23392,0.0125157,0.03231,573,1051,-14.9702,-1.41407
-644,-27,-15.0595,1.5238,0.00667095,0.0151065,0.00298522,0.016056,0.0057214,1.26283,0.00939662,0.0149788,580,1051,-15.0595,-1.5238
-637,-27,-15.0837,1.55005,0.00240991,0.0101734,0.00214698,0.0107276,0.00185573,1.31819,0.00662044,0.0126926,587,1051,-15.0837,-1.55
-630,-27,-15.0958,1.6355,0.00087531,0.00583573,0.000556647,0.00589743,0.000813611,1.46041,0.00369043,0.017588,594,1051,-15.0958,-1.63554
-623,-27,-15.0565,1.67041,-0.000481977,0.00375763,-0.0015144,0.004243,-0.000967355,-1.26063,0.00320023,0.0151713,601,1051,-15.0565,-1.67044
-616,-27,-15.0484,1.70911,-0.00111909,0.00202292,-0.00329934,0.00410619,-0.00320236,-1.00759,0.00423034,0.0128777,608,1051,-15.0484,-1.70912
-609,-27,-15.0724,1.76025,-0.000812222,0.000402909,-0.00497161,0.00480394,-0.00521325,-0.8462,0.00578504,0.0134349,615,1051,-15.0724,-1.76022
-602,-27,-15.0633,1.80237,-0.000540972,-0.000745704,-0.00666819,0.00602564,-0.00731232,-0.777723,0.00771261,0.0115054,622,1051,-15.0633,-1.80233
-595,-27,-15.1099,1.80933,-0.000516856,-0.00150231,-0.00757373,0.00658015,-0.00859932,-0.752915,0.00878968,0.0104651,629,1051,-15.1099,-1.80931
-588,-27,-15.1243,1.31592,-0.000486407,-0.00186518,-0.00769097,0.00654601,-0.00889759,-0.7407,0.00895076,0.0149901,636,1051,-15.1243,-1.31595
-581,-27,-15.1218,0.838501,-0.000417326,-0.00200486,-0.00725302,0.00608523,-0.00850741,-0.730895,0.00846367,0.0205591,643,1051,-15.1218,-0.838543
-574,-27,-15.158,0.736328,-0.000427278,-0.00212384,-0.00654181,0.00532102,-0.00787214,-0.720922,0.0076644,0.0366164,650,1051,-15.1579,-0.736329
-567,-27,-15.1456,0.892456,-0.000477401,-0.00207328,-0.005315,0.00409922,-0.00664991,-0.71089,0.00626399,0.04684,657,1051,-15.1456,-0.892464
-560,-27,-15.0842,1.06494,0,0,0,0,0,0,0,-1,664,1051,-15.0842,-1.06497
-553,-27,-14.7252,0.0361328,0,0,0,0,0,0,0,-1,671,1051,-14.7252,-0.0361634
-546,-27,-14.9305,0.379272,-0.000892823,-0.000727376,0.00112558,0.000318514,-0.00193871,0.822079,0.00141068,0.0412312,678,1051,-14.9305,-0.379241
-539,-27,-15.0475,0.709717,-0.00126681,0.000153154,0.00350546,0.00301981,-0.00413346,0.885315,0.00414659,0.0426633,685,1051,-15.0475,-0.709725
-532,-27,-15.1717,1.2417,-0.0021058,0.00147979,0.00423899,0.00428951,-0.00491552,0.985456,0.00531862,0.0447179,692,1051,-15.1717,-1.24175
-525,-27,0,0,0,0,0,0,0,0,0,-1,699,1051,0,0
-518,-27,0,0,0,0,0,0,0,0,0,-1,706,1051,0,0
-511,-27,0,0,0,0,0,0,0,0,0,-1,713,1051,0,0
-504,-27,0,0,0,0,0,0,0,0,0,-1,720,1051,0,0
-497,-27,0,0,0,0,0,0,0,0,0,-1,727,1051,0,0
-490,-27,0,0,0,0,0,0,0,0,0,-1,734,1051,0,0
-483,-27,0,0,0,0,0,0,0,0,0,-1,741,1051,0,0
-476,-27,0,0,0,0,0,0,0,0,0,-1,748,1051,0,0
-469,-27,0,0,0,0,0,0,0,0,0,-1,755,1051,0,0
-462,-27,0,0,0,0,0,0,0,0,0,-1,762,1051,0,0
-455,-27,0,0,0,0,0,0,0,0,0,-1,769,1051,0,0
-448,-27,0,0,0,0,0,0,0,0,0,-1,776,1051,0,0
-441,-27,0,0,0,0,0,0,0,0,0,-1,783,1051,0,0
-434,-27,0,0,0,0,0,0,0,0,0,-1,790,1051,0,0
-427,-27,0,0,0,0,0,0,0,0,0,-1,797,1051,0,0
-420,-27,0,0,0,0,0,0,0,0,0,-1,804,1051,0,0
-413,-27,0,0,0,0,0,0,0,0,0,-1,811,1051,0,0
-406,-27,0,0,0,0,0,0,0,0,0,-1,818,1051,0,0
-399,-27,0,0,0,0,0,0,0,0,0,-1,825,1051,0,0
-392,-27,0,0,0,0,0,0,0,0,0,-1,832,1051,0,0
-385,-27,0,0,0,0,0,0,0,0,0,-1,839,1051,0,0
-378,-27,0,0,0,0,0,0,0,0,0,-1,846,1051,0,0
-371,-27,0,0,0,0,0,0,0,0,0,-1,853,1051,0,0
-364,-27,0,0,0,0,0,0,0,0,0,-1,860,1051,0,0
-357,-27,0,0,0,0,0,0,0,0,0,-1,867,1051,0,0
-350,-27,0,0,0,0,0,0,0,0,0,-1,874,1051,0,0
-343,-27,0,0,0,0,0,0,0,0,0,-1,881,1051,0,0
-336,-27,0,0,0,0,0,0,0,0,0,-1,888,1051,0,0
-329,-27,0,0,0,0,0,0,0,0,0,-1,895,1051,0,0
-322,-27,0,0,0,0,0,0,0,0,0,-1,902,1051,0,0
-315,-27,0,0,0,0,0,0,0,0,0,-1,909,1051,0,0
-308,-27,0,0,0,0,0,0,0,0,0,-1,916,1051,0,0
-301,-27,0,0,0,0,0,0,0,0,0,-1,923,1051,0,0
-294,-27,0,0,0,0,0,0,0,0,0,-1,930,1051,0,0
-287,-27,0,0,0,0,0,0,0,0,0,-1,937,1051,0,0
-280,-27,0,0,0,0,0,0,0,0,0,-1,944,1051,0,0
-273,-27,0,0,0,0,0,0,0,0,0,-1,951,1051,0,0
-266,-27,0,0,0,0,0,0,0,0,0,-1,958,1051,0,0
-259,-27,0,0,0,0,0,0,0,0,0,-1,965,1051,0,0
-252,-27,0,0,0,0,0,0,0,0,0,-1,972,1051,0,0
-245,-27,0,0,0,0,0,0,0,0,0,-1,979,1051,0,0
-238,-27,0,0,0,0,0,0,0,0,0,-1,986,1051,0,0
-231,-27,0,0,0,0,0,0,0,0,0,-1,993,1051,0,0
-224,-27,0,0,0,0,0,0,0,0,0,-1,1000,1051,0,0
-217,-27,0,0,0,0,0,0,0,0,0,-1,1007,1051,0,0
-210,-27,0,0,0,0,0,0,0,0,0,-1,1014,1051,0,0
-203,-27,0,0,0,0,0,0,0,0,0,-1,1021,1051,0,0
-196,-27,0,0,0,0,0,0,0,0,0,-1,1028,1051,0,0
-189,-27,0,0,0,0,0,0,0,0,0,-1,1035,1051,0,0
-182,-27,0,0,0,0,0,0,0,0,0,-1,1042,1051,0,0
-175,-27,0,0,0,0,0,0,0,0,0,-1,1049,1051,0,0
-168,-27,0,0,0,0,0,0,0,0,0,-1,1056,1051,0,0
-161,-27,0,0,0,0,0,0,0,0,0,-1,1063,1051,0,0
-154,-27,0,0,0,0,0,0,0,0,0,-1,1070,1051,0,0
-147,-27,0,0,0,0,0,0,0,0,0,-1,1077,1051,0,0
-140,-27,0,0,0,0,0,0,0,0,0,-1,1084,1051,0,0
-133,-27,0,0,0,0,0,0,0,0,0,-1,1091,1051,0,0
-126,-27,0,0,0,0,0,0,0,0,0,-1,1098,1051,0,0
-119,-27,0,0,0,0,0,0,0,0,0,-1,1105,1051,0,0
-112,-27,0,0,0,0,0,0,0,0,0,-1,1112,1051,0,0
-105,-27,0,0,0,0,0,0,0,0,0,-1,1119,1051,0,0
-98,-27,0,0,0,0,0,0,0,0,0,-1,1126,1051,0,0
-91,-27,0,0,0,0,0,0,0,0,0,-1,1133,1051,0,0
-84,-27,0,0,0,0,0,0,0,0,0,-1,1140,1051,0,0
-77,-27,0,0,0,0,0,0,0,0,0,-1,1147,1051,0,0
-70,-27,0,0,0,0,0,0,0,0,0,-1,1154,1051,0,0
-63,-27,0,0,0,0,0,0,0,0,0,-1,1161,1051,0,0
-56,-27,0,0,0,0,0,0,0,0,0,-1,1168,1051,0,0
-49,-27,0,0,0,0,0,0,0,0,0,-1,1175,1051,0,0
-42,-27,0,0,0,0,0,0,0,0,0,-1,1182,1051,0,0
-35,-27,0,0,0,0,0,0,0,0,0,-1,1189,1051,0,0
-28,-27,0,0,0,0,0,0,0,0,0,-1,1196,1051,0,0
-21,-27,0,0,0,0,0,0,0,0,0,-1,1203,1051,0,0
-14,-27,0,0,0,0,0,0,0,0,0,-1,1210,1051,0,0
-7,-27,0,0,0,0,0,0,0,0,0,-1,1217,1051,0,0
0,-27,0,0,0,0,0,0,0,0,0,-1,1224,1051,0,0
7,-27,0,0,0,0,0,0,0,0,0,-1,1231,1051,0,0
14,-27,0,0,0,0,0,0,0,0,0,-1,1238,1051,0,0
21,-27,0,0,0,0,0,0,0,0,0,-1,1245,1051,0,0
28,-27,0,0,0,0,0,0,0,0,0,-1,1252,1051,0,0
35,-27,0,0,0,0,0,0,0,0,0,-1,1259,1051,0,0
42,-27,0,0,0,0,0,0,0,0,0,-1,1266,1051,0,0
49,-27,0,0,0,0,0,0,0,0,0,-1,1273,1051,0,0
56,-27,0,0,0,0,0,0,0,0,0,-1,1280,1051,0,0
63,-27,0,0,0,0,0,0,0,0,0,-1,1287,1051,0,0
70,-27,0,0,0,0,0,0,0,0,0,-1,1294,1051,0,0
77,-27,0,0,0,0,0,0,0,0,0,-1,1301,1051,0,0
84,-27,0,0,0,0,0,0,0,0,0,-1,1308,1051,0,0
91,-27,0,0,0,0,0,0,0,0,0,-1,1315,1051,0,0
98,-27,0,0,0,0,0,0,0,0,0,-1,1322,1051,0,0
105,-27,0,0,0,0,0,0,0,0,0,-1,1329,1051,0,0
112,-27,0,0,0,0,0,0,0,0,0,-1,1336,1051,0,0
119,-27,0,0,0,0,0,0,0,0,0,-1,1343,1051,0,0
126,-27,0,0,0,0,0,0,0,0,0,-1,1350,1051,0,0
133,-27,0,0,0,0,0,0,0,0,0,-1,1357,1051,0,0
140,-27,0,0,0,0,0,0,0,0,0,-1,1364,1051,0,0
147,-27,0,0,0,0,0,0,0,0,0,-1,1371,1051,0,0
154,-27,0,0,0,0,0,0,0,0,0,-1,1378,1051,0,0
161,-27,0,0,0,0,0,0,0,0,0,-1,1385,1051,0,0
168,-27,0,0,0,0,0,0,0,0,0,-1,1392,1051,0,0
175,-27,0,0,0,0,0,0,0,0,0,-1,1399,1051,0,0
182,-27,0,0,0,0,0,0,0,0,0,-1,1406,1051,0,0
189,-27,0,0,0,0,0,0,0,0,0,-1,1413,1051,0,0
196,-27,0,0,0,0,0,0,0,0,0,-1,1420,1051,0,0
203,-27,0,0,0,0,0,0,0,0,0,-1,1427,1051,0,0
210,-27,0,0,0,0,0,0,0,0,0,-1,1434,1051,0,0
217,-27,0,0,0,0,0,0,0,0,0,-1,1441,1051,0,0
224,-27,0,0,0,0,0,0,0,0,0,-1,1448,1051,0,0
231,-27,0,0,0,0,0,0,0,0,0,-1,1455,1051,0,0
238,-27,0,0,0,0,0,0,0,0,0,-1,1462,1051,0,0
245,-27,0,0,0,0,0,0,0,0,0,-1,1469,1051,0,0
252,-27,0,0,0,0,0,0,0,0,0,-1,1476,1051,0,0
259,-27,0,0,0,0,0,0,0,0,0,-1,1483,1051,0,0
266,-27,0,0,0,0,0,0,0,0,0,-1,1490,1051,0,0
273,-27,0,0,0,0,0,0,0,0,0,-1,1497,1051,0,0
280,-27,0,0,0,0,0,0,0,0,0,-1,1504,1051,0,0
287,-27,0,0,0,0,0,0,0,0,0,-1,1511,1051,0,0
294,-27,0,0,0,0,0,0,0,0,0,-1,1518,1051,0,0
301,-27,0,0,0,0,0,0,0,0,0,-1,1525,1051,0,0
308,-27,0,0,0,0,0,0,0,0,0,-1,1532,1051,0,0
315,-27,0,0,0,0,0,0,0,0,0,-1,1539,1051,0,0
322,-27,0,0,0,0,0,0,0,0,0,-1,1546,1051,0,0
329,-27,0,0,0,0,0,0,0,0,0,-1,1553,1051,0,0
336,-27,0,0,0,0,0,0,0,0,0,-1,1560,1051,0,0
343,-27,0,0,0,0,0,0,0,0,0,-1,1567,1051,0,0
350,-27,0,0,0,0,0,0,0,0,0,-1,1574,1051,0,0
357,-27,0,0,0,0,0,0,0,0,0,-1,1581,1051,0,0
364,-27,0,0,0,0,0,0,0,0,0,-1,1588,1051,0,0
371,-27,0,0,0,0,0,0,0,0,0,-1,1595,1051,0,0
378,-27,0,0,0,0,0,0,0,0,0,-1,1602,1051,0,0
385,-27,0,0,0,0,0,0,0,0,0,-1,1609,1051,0,0
392,-27,0,0,0,0,0,0,0,0,0,-1,1616,1051,0,0
399,-27,0,0,0,0,0,0,0,0,0,-1,1623,1051,0,0
406,-27,0,0,0,0,0,0,0,0,0,-1,1630,1051,0,0
413,-27,0,0,0,0,0,0,0,0,0,-1,1637,1051,0,0
420,-27,0,0,0,0,0,0,0,0,0,-1,1644,1051,0,0
427,-27,0,0,0,0,0,0,0,0,0,-1,1651,1051,0,0
434,-27,0,0,0,0,0,0,0,0,0,-1,1658,1051,0,0
441,-27,0,0,0,0,0,0,0,0,0,-1,1665,1051,0,0
448,-27,0,0,0,0,0,0,0,0,0,-1,1672,1051,0,0
455,-27,0,0,0,0,0,0,0,0,0,-1,1679,1051,0,0
462,-27,0,0,0,0,0,0,0,0,0,-1,1686,1051,0,0
469,-27,0,0,0,0,0,0,0,0,0,-1,1693,1051,0,0
476,-27,0,0,0,0,0,0,0,0,0,-1,1700,1051,0,0
483,-27,0,0,0,0,0,0,0,0,0,-1,1707,1051,0,0
490,-27,0,0,0,0,0,0,0,0,0,-1,1714,1051,0,0
497,-27,0,0,0,0,0,0,0,0,0,-1,1721,1051,0,0
504,-27,0,0,0,0,0,0,0,0,0,-1,1728,1051,0,0
511,-27,0,0,0,0,0,0,0,0,0,-1,1735,1051,0,0
518,-27,0,0,0,0,0,0,0,0,0,-1,1742,1051,0,0
525,-27,0,0,0,0,0,0,0,0,0,-1,1749,1051,0,0
532,-27,0,0,0,0,0,0,0,0,0,-1,1756,1051,0,0
539,-27,0,0,0,0,0,0,0,0,0,-1,1763,1051,0,0
546,-27,0,0,0,0,0,0,0,0,0,-1,1770,1051,0,0
553,-27,0,0,0,0,0,0,0,0,0,-1,1777,1051,0,0
560,-27,0,0,0,0,0,0,0,0,0,-1,1784,1051,0,0
567,-27,0,0,0,0,0,0,0,0,0,-1,1791,1051,0,0
574,-27,0,0,0,0,0,0,0,0,0,-1,1798,1051,0,0
581,-27,0,0,0,0,0,0,0,0,0,-1,1805,1051,0,0
588,-27,0,0,0,0,0,0,0,0,0,-1,1812,1051,0,0
595,-27,0,0,0,0,0,0,0,0,0,-1,1819,1051,0,0
602,-27,0,0,0,0,0,0,0,0,0,-1,1826,1051,0,0
609,-27,0,0,0,0,0,0,0,0,0,-1,1833,1051,0,0
616,-27,0,0,0,0,0,0,0,0,0,-1,1840,1051,0,0
623,-27,0,0,0,0,0,0,0,0,0,-1,1847,1051,0,0
630,-27,0,0,0,0,0,0,0,0,0,-1,1854,1051,0,0
637,-27,0,0,0,0,0,0,0,0,0,-1,1861,1051,0,0
644,-27,0,0,0,0,0,0,0,0,0,-1,1868,1051,0,0
651,-27,22.6487,2.82605,-0.00130581,-0.00333529,-0.00219129,9.42901e-05,-0.00473539,-0.56856,0.00318882,0.0401574,1875,1051,22.6487,-2.82607
658,-27,22.7349,2.89929,0.000207753,-0.00233312,-0.00210559,0.00139649,-0.00352186,-0.513953,0.00292665,0.0396291,1882,1051,22.7349,-2.89928
665,-27,22.6932,2.73547,0.000815563,-0.00163242,-0.00185461,0.00181367,-0.00263053,-0.493722,0.00258027,0.0366903,1889,1051,22.6932,-2.73549
672,-27,22.6462,2.83679,0.00102211,-0.00102044,-0.000881653,0.00135003,-0.00134836,-0.356078,0.00155791,0.0294832,1896,1051,22.6463,-2.83675
679,-27,22.5414,2.70007,0.000578345,-0.000481305,0.00094483,0.00113176,-0.00103472,0.529864,0.00125124,0.0291598,1903,1051,22.5414,-2.7001
686,-27,22.7242,2.57129,-0.000173019,-0.000146048,0.00278655,0.00262705,-0.00294612,0.787818,0.00321943,0.0409178,1910,1051,22.7243,-2.57131
693,-27,22.6674,2.60034,-0.000908093,5.95317e-05,0.00443411,0.00403615,-0.00488471,0.839739,0.00515822,0.0417158,1917,1051,22.6673,-2.6004
700,-27,22.665,2.70789,-0.00150643,0.000256812,0.00577895,0.005221,-0.00647062,0.861093,0.006763,0.0376912,1924,1051,22.665,-2.70793
707,-27,22.6444,2.70032,-0.00187965,0.000325867,0.00665335,0.00596722,-0.00752101,0.867524,0.00780464,0.0256397,1931,1051,22.6444,-2.70026
714,-27,22.688,2.79236,-0.00223866,0.000454094,0.0071675,0.00640057,-0.00818514,0.878239,0.00844205,0.0228108,1938,1051,22.688,-2.79239
721,-27,22.7262,2.91833,0,0,0,0,0,0,0,-1,1945,1051,22.7262,-2.91833
728,-27,22.2648,4.09558,0,0,0,0,0,0,0,-1,1952,1051,22.2647,-4.09555
735,-27,22.2561,4.11389,-0.00328072,0.00100589,0.00686216,0.00605167,-0.00832651,0.936766,0.00833581,0.0167323,1959,1051,22.2561,-4.11387
742,-27,22.2494,4.11975,-0.00324493,0.00106659,0.0058458,0.00514146,-0.0073198,0.962048,0.00723106,0.0160291,1966,1051,22.2494,-4.1198
749,-27,22.2756,4.12329,-0.00259404,0.0016665,0.00459606,0.00460198,-0.00552952,1.00241,0.00585759,0.0124463,1973,1051,22.2756,-4.12333
756,-27,22.2854,4.13135,-0.00136002,0.00250113,0.00390761,0.00492905,-0.00378794,1.01484,0.00504711,0.0119567,1980,1051,22.2854,-4.13139
763,-27,22.2877,4.08862,-0.000130146,0.00295888,0.00343133,0.00517729,-0.00234855,0.996875,0.00444618,0.012642,1987,1051,22.2877,-4.08864
770,-27,22.2611,4.05359,0.00141768,0.00379389,0.00303746,0.00586734,-0.00065578,0.971825,0.00414747,0.0143787,1994,1051,22.2611,-4.05363
777,-27,22.2491,4.08118,0.00361855,0.00480175,0.00356183,0.00782077,0.000599527,0.867694,0.00502594,0.0162542,2001,1051,22.2491,-4.08117
784,-27,22.2125,4.08704,0.00629208,0.00584447,0.00570731,0.01178,0.000356577,0.765801,0.00773719,0.024379,2008,1051,22.2125,-4.08708
791,-27,22.1904,4.08142,0.00962815,0.00684599,0.00915022,0.0174924,-0.00101829,0.709962,0.0120154,0.0430564,2015,1051,22.1904,-4.08138
798,-27,22.2926,4.20496,0.0141407,0.00763671,0.0142209,0.0254766,-0.00369926,0.672993,0.0183423,0.0468793,2022,1051,22.2926,-4.205
805,-27,22.4526,4.83289,0.0201323,0.00805729,0.0214944,0.036421,-0.00823142,0.648483,0.0274392,0.0436679,2029,1051,22.4526,-4.83294
812,-27,22.7346,5.75354,0.0276384,0.00777804,0.0317161,0.0509425,-0.0155261,0.633684,0.0401505,0.0439105,2036,1051,22.7347,-5.75355
-700,-34,-20.445,1.14673,0,0,0,0,0,0,0,-1,524,1058,-20.445,-1.14676
-693,-34,-18.7578,0.275146,0,0,0,0,0,0,0,-1,531,1058,-18.7578,-0.275169
-686,-34,-11.8487,-4.69861,0,0,0,0,0,0,0,-1,538,1058,-11.8487,4.69859
-679,-34,-17.2092,0.558838,0,0,0,0,0,0,0,-1,545,1058,-17.2092,-0.558781
-672,-34,-16.2142,0.741089,0,0,0,0,0,0,0,-1,552,1058,-16.2142,-0.741145
-665,-34,-14.799,-0.40686,0,0,0,0,0,0,0,-1,559,1058,-14.799,0.406856
-658,-34,-15.1088,0.629272,0,0,0,0,0,0,0,-1,566,1058,-15.1088,-0.629287
-651,-34,-15.0762,1.177,0,0,0,0,0,0,0,-1,573,1058,-15.0762,-1.17695
-644,-34,-15.0367,1.49438,0.00729327,0.0140658,0.00376308,0.0157419,0.00561716,1.15177,0.00921195,0.0110827,580,1058,-15.0367,-1.49436
-637,-34,-15.0574,1.53552,0.00260645,0.00960573,0.00259332,0.0104619,0.00175031,1.25193,0.00647054,0.011901,587,1058,-15.0573,-1.5355
-630,-34,-15.0717,1.62305,0.000897209,0.00544715,0.000699135,0.00555215,0.000792205,1.42172,0.00346766,0.0145969,594,1058,-15.0717,-1.6231
-623,-34,-15.047,1.67529,-0.000649544,0.00327571,-0.00145504,0.00375624,-0.00113008,-1.25182,0.00295381,0.0122977,601,1058,-15.047,-1.67535
-616,-34,-15.0163,1.74353,-0.00138746,0.00163686,-0.00340534,0.00385068,-0.00360129,-0.994348,0.0043032,0.0189019,608,1058,-15.0163,-1.74353
-609,-34,-15.0267,1.78552,-0.00107975,0.000154303,-0.00518022,0.00475411,-0.00567956,-0.844675,0.00603177,0.0182404,615,1058,-15.0267,-1.78554
-602,-34,-15.0198,1.82202,-0.000861103,-0.00100075,-0.00693314,0.00600257,-0.00786442,-0.780363,0.00803013,0.0146457,622,1058,-15.0198,-1.82206
-595,-34,-15.055,1.84607,-0.000893391,-0.0018069,-0.00788641,0.00654948,-0.00924977,-0.756472,0.009166,0.0125142,629,1058,-15.055,-1.84606
-588,-34,-15.1013,1.34302,-0.000885351,-0.00218143,-0.00802583,0.00651856,-0.00958534,-0.745114,0.00935362,0.0198476,636,1058,-15.1013,-1.34304
-581,-34,-15.1108,0.688843,0,0,0,0,0,0,0,-1,643,1058,-15.1109,-0.688893
-574,-34,-15.0956,0.77771,-0.000814831,-0.00237919,-0.00685365,0.00530113,-0.00849515,-0.728581,0.00803613,0.0344732,650,1058,-15.0956,-0.777712
-567,-34,-15.0362,0.777466,-0.000815371,-0.00228642,-0.00555967,0.00405722,-0.00715901,-0.719632,0.00655771,0.0403447,657,1058,-15.0362,-0.777415
-560,-34,-14.9735,0.680054,-0.000818418,-0.00200383,-0.0037545,0.00238987,-0.00521212,-0.707111,0.0044887,0.0420217,664,1058,-14.9735,-0.680083
-553,-34,-14.9579,0.486084,-0.000869537,-0.00151676,-0.00149414,0.000335634,-0.00272194,-0.678751,0.00193622,0.043144,671,1058,-14.9579,-0.486074
-546,-34,-14.9642,0.434814,-0.00102839,-0.00080069,0.00117652,0.000267477,-0.00209656,0.833632,0.00149486,0.0441264,678,1058,-14.9642,-0.434816
-539,-34,-14.9932,0.466919,-0.00138027,0.000106544,0.00361508,0.00305387,-0.00432759,0.886804,0.00428278,0.0431396,685,1058,-14.9932,-0.466978
-532,-34,-15.1271,0.587891,-0.00234835,0.00133498,0.00417263,0.0040543,-0.00506767,0.993224,0.00527739,0.043191,692,1058,-15.1271,-0.587874
-525,-34,0,0,0,0,0,0,0,0,0,-1,699,1058,0,0
-518,-34,0,0,0,0,0,0,0,0,0,-1,706,1058,0,0
-511,-34,0,0,0,0,0,0,0,0,0,-1,713,1058,0,0
-504,-34,0,0,0,0,0,0,0,0,0,-1,720,1058,0,0
-497,-34,0,0,0,0,0,0,0,0,0,-1,727,1058,0,0
-490,-34,0,0,0,0,0,0,0,0,0,-1,734,1058,0,0
-483,-34,0,0,0,0,0,0,0,0,0,-1,741,1058,0,0
-476,-34,0,0,0,0,0,0,0,0,0,-1,748,1058,0,0
-469,-34,0,0,0,0,0,0,0,0,0,-1,755,1058,0,0
-462,-34,0,0,0,0,0,0,0,0,0,-1,762,1058,0,0
-455,-34,0,0,0,0,0,0,0,0,0,-1,769,1058,0,0
-448,-34,0,0,0,0,0,0,0,0,0,-1,776,1058,0,0
-441,-34,0,0,0,0,0,0,0,0,0,-1,783,1058,0,0
-434,-34,0,0,0,0,0,0,0,0,0,-1,790,1058,0,0
-427,-34,0,0,0,0,0,0,0,0,0,-1,797,1058,0,0
-420,-34,0,0,0,0,0,0,0,0,0,-1,804,1058,0,0
-413,-34,0,0,0,0,0,0,0,0,0,-1,811,1058,0,0
-406,-34,0,0,0,0,0,0,0,0,0,-1,818,1058,0,0
-399,-34,0,0,0,0,0,0,0,0,0,-1,825,1058,0,0
-392,-34,0,0,0,0,0,0,0,0,0,-1,832,1058,0,0
-385,-34,0,0,0,0,0,0,0,0,0,-1,839,1058,0,0
-378,-34,0,0,0,0,0,0,0,0,0,-1,846,1058,0,0
-371,-34,0,0,0,0,0,0,0,0,0,-1,853,1058,0,0
-364,-34,0,0,0,0,0,0,0,0,0,-1,860,1058,0,0
-357,-34,0,0,0,0,0,0,0,0,0,-1,867,1058,0,0
-350,-34,0,0,0,0,0,0,0,0,0,-1,874,1058,0,0
-343,-34,0,0,0,0,0,0,0,0,0,-1,881,1058,0,0
-336,-34,0,0,0,0,0,0,0,0,0,-1,888,1058,0,0
-329,-34,0,0,0,0,0,0,0,0,0,-1,895,1058,0,0
-322,-34,0,0,0,0,0,0,0,0,0,-1,902,1058,0,0
-315,-34,0,0,0,0,0,0,0,0,0,-1,909,1058,0,0
-308,-34,0,0,0,0,0,0,0,0,0,-1,916,1058,0,0
-301,-34,0,0,0,0,0,0,0,0,0,-1,923,1058,0,0
-294,-34,0,0,0,0,0,0,0,0,0,-1,930,1058,0,0
-287,-34,0,0,0,0,0,0,0,0,0,-1,937,1058,0,0
-280,-34,0,0,0,0,0,0,0,0,0,-1,944,1058,0,0
-273,-34,0,0,0,0,0,0,0,0,0,-1,951,1058,0,0
-266,-34,0,0,0,0,0,0,0,0,0,-1,958,1058,0,0
-259,-34,0,0,0,0,0,0,0,0,0,-1,965,1058,0,0
-252,-34,0,0,0,0,0,0,0,0,0,-1,972,1058,0,0
-245,-34,0,0,0,0,0,0,0,0,0,-1,979,1058,0,0
-238,-34,0,0,0,0,0,0,0,0,0,-1,986,1058,0,0
-231,-34,0,0,0,0,0,0,0,0,0,-1,993,1058,0,0
-224,-34,0,0,0,0,0,0,0,0,0,-1,1000,1058,0,0
-217,-34,0,0,0,0,0,0,0,0,0,-1,1007,1058,0,0
-210,-34,0,0,0,0,0,0,0,0,0,-1,1014,1058,0,0
-203,-34,0,0,0,0,0,0,0,0,0,-1,1021,1058,0,0
-196,-34,0,0,0,0,0,0,0,0,0,-1,1028,1058,0,0
-189,-34,0,0,0,0,0,0,0,0,0,-1,1035,1058,0,0
-182,-34,0,0,0,0,0,0,0,0,0,-1,1042,1058,0,0
-175,-34,0,0,0,0,0,0,0,0,0,-1,1049,1058,0,0
-168,-34,0,0,0,0,0,0,0,0,0,-1,1056,1058,0,0
-161,-34,0,0,0,0,0,0,0,0,0,-1,1063,1058,0,0
-154,-34,0,0,0,0,0,0,0,0,0,-1,1070,1058,0,0
-147,-34,0,0,0,0,0,0,0,0,0,-1,1077,1058,0,0
-140,-34,0,0,0,0,0,0,0,0,0,-1,1084,1058,0,0
-133,-34,0,0,0,0,0,0,0,0,0,-1,1091,1058,0,0
-126,-34,0,0,0,0,0,0,0,0,0,-1,1098,1058,0,0
-119,-34,0,0,0,0,0,0,0,0,0,-1,1105,1058,0,0
-112,-34,0,0,0,0,0,0,0,0,0,-1,1112,1058,0,0
-105,-34,0,0,0,0,0,0,0,0,0,-1,1119,1058,0,0
-98,-34,0,0,0,0,0,0,0,0,0,-1,1126,1058,0,0
-91,-34,0,0,0,0,0,0,0,0,0,-1,1133,1058,0,0
-84,-34,0,0,0,0,0,0,0,0,0,-1,1140,1058,0,0
-77,-34,0,0,0,0,0,0,0,0,0,-1,1147,1058,0,0
-70,-34,0,0,0,0,0,0,0,0,0,-1,1154,1058,0,0
-63,-34,0,0,0,0,0,0,0,0,0,-1,1161,1058,0,0
-56,-34,0,0,0,0,0,0,0,0,0,-1,1168,1058,0,0
-49,-34,0,0,0,0,0,0,0,0,0,-1,1175,1058,0,0
-42,-34,0,0,0,0,0,0,0,0,0,-1,1182,1058,0,0
-35,-34,0,0,0,0,0,0,0,0,0,-1,1189,1058,0,0
-28,-34,0,0,0,0,0,0,0,0,0,-1,1196,1058,0,0
-21,-34,0,0,0,0,0,0,0,0,0,-1,1203,1058,0,0
-14,-34,0,0,0,0,0,0,0,0,0,-1,1210,1058,0,0
-7,-34,0,0,0,0,0,0,0,0,0,-1,1217,1058,0,0
0,-34,0,0,0,0,0,0,0,0,0,-1,1224,1058,0,0
7,-34,0,0,0,0,0,0,0,0,0,-1,1231,1058,0,0
14,-34,0,0,0,0,0,0,0,0,0,-1,1238,1058,0,0
21,-34,0,0,0,0,0,0,0,0,0,-1,1245,1058,0,0
28,-34,0,0,0,0,0,0,0,0,0,-1,1252,1058,0,0
35,-34,0,0,0,0,0,0,0,0,0,-1,1259,1058,0,0
42,-34,0,0,0,0,0,0,0,0,0,-1,1266,1058,0,0
49,-34,0,0,0,0,0,0,0,0,0,-1,1273,1058,0,0
56,-34,0,0,0,0,0,0,0,0,0,-1,1280,1058,0,0
63,-34,0,0,0,0,0,0,0,0,0,-1,1287,1058,0,0
70,-34,0,0,0,0,0,0,0,0,0,-1,1294,1058,0,0
77,-34,0,0,0,0,0,0,0,0,0,-1,1301,1058,0,0
84,-34,0,0,0,0,0,0,0,0,0,-1,1308,1058,0,0
91,-34,0,0,0,0,0,0,0,0,0,-1,1315,1058,0,0
98,-34,0,0,0,0,0,0,0,0,0,-1,1322,1058,0,0
105,-34,0,0,0,0,0,0,0,0,0,-1,1329,1058,0,0
112,-34,0,0,0,0,0,0,0,0,0,-1,1336,1058,0,0
119,-34,0,0,0,0,0,0,0,0,0,-1,1343,1058,0,0
126,-34,0,0,0,0,0,0,0,0,0,-1,1350,1058,0,0
133,-34,0,0,0,0,0,0,0,0,0,-1,1357,1058,0,0
140,-34,0,0,0,0,0,0,0,0,0,-1,1364,1058,0,0
147,-34,0,0,0,0,0,0,0,0,0,-1,1371,1058,0,0
154,-34,0,0,0,0,0,0,0,0,0,-1,1378,1058,0,0
161,-34,0,0,0,0,0,0,0,0,0,-1,1385,1058,0,0
168,-34,0,0,0,0,0,0,0,0,0,-1,1392,1058,0,0
175,-34,0,0,0,0,0,0,0,0,0,-1,1399,1058,0,0
182,-34,0,0,0,0,0,0,0,0,0,-1,1406,1058,0,0
189,-34,0,0,0,0,0,0,0,0,0,-1,1413,1058,0,0
196,-34,0,0,0,0,0,0,0,0,0,-1,1420,1058,0,0
203,-34,0,0,0,0,0,0,0,0,0,-1,1427,1058,0,0
210,-34,0,0,0,0,0,0,0,0,0,-1,1434,1058,0,0
217,-34,0,0,0,0,0,0,0,0,0,-1,1441,1058,0,0
224,-34,0,0,0,0,0,0,0,0,0,-1,1448,1058,0,0
231,-34,0,0,0,0,0,0,0,0,0,-1,1455,1058,0,0
238,-34,0,0,0,0,0,0,0,0,0,-1,1462,1058,0,0
245,-34,0,0,0,0,0,0,0,0,0,-1,1469,1058,0,0
252,-34,0,0,0,0,0,0,0,0,0,-1,1476,1058,0,0
259,-34,0,0,0,0,0,0,0,0,0,-1,1483,1058,0,0
266,-34,0,0,0,0,0,0,0,0,0,-1,1490,1058,0,0
273,-34,0,0,0,0,0,0,0,0,0,-1,1497,1058,0,0
280,-34,0,0,0,0,0,0,0,0,0,-1,1504,1058,0,0
287,-34,0,0,0,0,0,0,0,0,0,-1,1511,1058,0,0
294,-34,0,0,0,0,0,0,0,0,0,-1,1518,1058,0,0
301,-34,0,0,0,0,0,0,0,0,0,-1,1525,1058,0,0
308,-34,0,0,0,0,0,0,0,0,0,-1,1532,1058,0,0
315,-34,0,0,0,0,0,0,0,0,0,-1,1539,1058,0,0
322,-34,0,0,0,0,0,0,0,0,0,-1,1546,1058,0,0
329,-34,0,0,0,0,0,0,0,0,0,-1,1553,1058,0,0
336,-34,0,0,0,0,0,0,0,0,0,-1,1560,1058,0,0
343,-34,0,0,0,0,0,0,0,0,0,-1,1567,1058,0,0
350,-34,0,0,0,0,0,0,0,0,0,-1,1574,1058,0,0
357,-34,0,0,0,0,0,0,0,0,0,-1,1581,1058,0,0
364,-34,0,0,0,0,0,0,0,0,0,-1,1588,1058,0,0
371,-34,0,0,0,0,0,0,0,0,0,-1,1595,1058,0,0
378,-34,0,0,0,0,0,0,0,0,0,-1,1602,1058,0,0
385,-34,0,0,0,0,0,0,0,0,0,-1,1609,1058,0,0
392,-34,0,0,0,0,0,0,0,0,0,-1,1616,1058,0,0
399,-34,0,0,0,0,0,0,0,0,0,-1,1623,1058,0,0
406,-34,0,0,0,0,0,0,0,0,0,-1,1630,1058,0,0
413,-34,0,0,0,0,0,0,0,0,0,-1,1637,1058,0,0
420,-34,0,0,0,0,0,0,0,0,0,-1,1644,1058,0,0
427,-34,0,0,0,0,0,0,0,0,0,-1,1651,1058,0,0
434,-34,0,0,0,0,0,0,0,0,0,-1,1658,1058,0,0
441,-34,0,0,0,0,0,0,0,0,0,-1,1665,1058,0,0
448,-34,0,0,0,0,0,0,0,0,0,-1,1672,1058,0,0
455,-34,0,0,0,0,0,0,0,0,0,-1,1679,1058,0,0
462,-34,0,0,0,0,0,0,0,0,0,-1,1686,1058,0,0
469,-34,0,0,0,0,0,0,0,0,0,-1,1693,1058,0,0
476,-34,0,0,0,0,0,0,0,0,0,-1,1700,1058,0,0
483,-34,0,0,0,0,0,0,0,0,0,-1,1707,1058,0,0
490,-34,0,0,0,0,0,0,0,0,0,-1,1714,1058,0,0
497,-34,0,0,0,0,0,0,0,0,0,-1,1721,1058,0,0
504,-34,0,0,0,0,0,0,0,0,0,-1,1728,1058,0,0
511,-34,0,0,0,0,0,0,0,0,0,-1,1735,1058,0,0
518,-34,0,0,0,0,0,0,0,0,0,-1,1742,1058,0,0
525,-34,0,0,0,0,0,0,0,0,0,-1,1749,1058,0,0
532,-34,0,0,0,0,0,0,0,0,0,-1,1756,1058,0,0
539,-34,0,0,0,0,0,0,0,0,0,-1,1763,1058,0,0
546,-34,0,0,0,0,0,0,0,0,0,-1,1770,1058,0,0
553,-34,0,0,0,0,0,0,0,0,0,-1,1777,1058,0,0
560,-34,0,0,0,0,0,0,0,0,0,-1,1784,1058,0,0
567,-34,0,0,0,0,0,0,0,0,0,-1,1791,1058,0,0
574,-34,0,0,0,0,0,0,0,0,0,-1,1798,1058,0,0
581,-34,0,0,0,0,0,0,0,0,0,-1,1805,1058,0,0
588,-34,0,0,0,0,0,0,0,0,0,-1,1812,1058,0,0
595,-34,0,0,0,0,0,0,0,0,0,-1,1819,1058,0,0
602,-34,0,0,0,0,0,0,0,0,0,-1,1826,1058,0,0
609,-34,0,0,0,0,0,0,0,0,0,-1,1833,1058,0,0
616,-34,0,0,0,0,0,0,0,0,0,-1,1840,1058,0,0
623,-34,0,0,0,0,0,0,0,0,0,-1,1847,1058,0,0
630,-34,0,0,0,0,0,0,0,0,0,-1,1854,1058,0,0
637,-34,0,0,0,0,0,0,0,0,0,-1,1861,1058,0,0
644,-34,0,0,0,0,0,0,0,0,0,-1,1868,1058,0,0
651,-34,22.7354,2.79846,-0.00120244,-0.0021664,-0.00117535,-0.00041409,-0.00295475,-0.590818,0.00184734,0.0417415,1875,1058,22.7353,-2.79848
658,-34,22.6803,2.8833,0.000421614,-0.00172886,-0.00154137,0.00122573,-0.00253297,-0.480846,0.0022134,0.0445226,1882,1058,22.6803,-2.88331
665,-34,22.5906,2.87756,0.00108303,-0.00140437,-0.00160551,0.0018702,-0.00219154,-0.455853,0.00234749,0.0428625,1889,1058,22.5906,-2.87755
672,-34,22.6727,2.74487,0.00131752,-0.00110086,-0.000797236,0.00155668,-0.00134002,-0.291447,0.00167397,0.0375381,1896,1058,22.6727,-2.7449
679,-34,22.7063,2.57568,0.000915134,-0.000813792,0.000948357,0.0013339,-0.00123256,0.415822,0.00148213,0.0381017,1903,1058,22.7063,-2.57573
686,-34,22.7673,2.57397,0.000179273,-0.000634338,0.00277346,0.00257561,-0.00303067,0.712579,0.00324034,0.0457762,1910,1058,22.7674,-2.57398
693,-34,22.7485,2.60168,-0.000548058,-0.000511342,0.00443785,0.00390819,-0.00496759,0.787467,0.00513658,0.0458836,1917,1058,22.7486,-2.60172
700,-34,22.6754,2.67761,-0.00114999,-0.000361894,0.00580418,0.0050616,-0.00657348,0.819291,0.00673639,0.0411087,1924,1058,22.6755,-2.67758
707,-34,22.6216,2.75818,-0.00152523,-0.000295194,0.00668877,0.00580677,-0.0076272,0.831243,0.00777981,0.0273611,1931,1058,22.6216,-2.75818
714,-34,22.6544,2.79895,-0.00190994,-0.000144768,0.00721369,0.00624013,-0.00829484,0.84627,0.00841967,0.0207361,1938,1058,22.6544,-2.7989
721,-34,22.771,3.13123,-0.00237504,4.72957e-05,0.00741669,0.00635106,-0.00867881,0.866335,0.00871212,0.0298607,1945,1058,22.7711,-3.13127
728,-34,22.5321,3.86792,0,0,0,0,0,0,0,-1,1952,1058,22.5321,-3.86791
735,-34,22.2473,4.16711,-0.00299396,0.000581832,0.00700007,0.00601873,-0.00843086,0.910431,0.00838113,0.0144635,1959,1058,22.2474,-4.16714
742,-34,22.2129,4.12964,-0.00288346,0.000754439,0.00600937,0.00521411,-0.00734314,0.932358,0.00728458,0.0149154,1966,1058,22.2129,-4.1296
749,-34,22.2477,4.13135,-0.00206573,0.00142077,0.00481816,0.00480135,-0.0054463,0.958976,0.00592039,0.0134898,1973,1058,22.2477,-4.1313
756,-34,22.2677,4.12109,-0.000482037,0.00232792,0.00434281,0.00548737,-0.00364148,0.941844,0.00530634,0.0107654,1980,1058,22.2677,-4.12111
763,-34,22.265,4.08374,0.0013861,0.00270342,0.00411832,0.00621541,-0.00212589,0.864694,0.00500507,0.01038,1987,1058,22.265,-4.08375
770,-34,22.2532,4.03345,0.00368507,0.00348623,0.00402213,0.007609,-0.00043771,0.773041,0.00522469,0.015297,1994,1058,22.2531,-4.03345
777,-34,22.2177,4.04285,0.00695376,0.00435874,0.00494133,0.0107651,0.000547403,0.657005,0.0070014,0.0175496,2001,1058,22.2176,-4.04287
784,-34,22.1558,4.06873,0.0110918,0.00514054,0.007624,0.0163003,-6.794e-05,0.599341,0.0108896,0.0333036,2008,1058,22.1558,-4.06868
791,-34,22.0886,4.08594,0.0162616,0.00575869,0.0117151,0.0238484,-0.00182809,0.574692,0.016542,0.0464884,2015,1058,22.0886,-4.08588
798,-34,22.1776,4.32239,0.0230858,0.00596665,0.01759,0.0340883,-0.00503582,0.558956,0.0245767,0.0497453,2022,1058,22.1776,-4.3224
805,-34,22.696,4.87085,0.0319363,0.00550736,0.0258461,0.0477501,-0.0103065,0.549085,0.0357673,0.0470606,2029,1058,22.6961,-4.8708
812,-34,22.6331,5.96741,0.0429444,0.00391194,0.037267,0.0654961,-0.0186398,0.54419,0.0510251,0.0498727,2036,1058,22.6331,-5.96739
-700,-41,-20.1387,0.981567,0.1549,0.0735035,-0.0224871,0.160699,0.0677042,-0.252393,0.0931619,0.04781,524,1065,-20.1387,-0.98152
-693,-41,-18.6076,0.385254,0.123953,0.066704,-0.0157626,0.128006,0.0626509,-0.251678,0.0739099,0.0467248,531,1065,-18.6076,-0.385282
-686,-41,-17.9084,0.38916,0,0,0,0,0,0,0,-1,538,1065,-17.9085,-0.389137
-679,-41,-17.0031,0.550903,0.0735571,0.0492134,-0.0052906,0.0746572,0.0481133,-0.205011,0.0436989,0.045331,545,1065,-17.003,-0.550959
-672,-41,-16.0388,0.688477,0.0537168,0.0403634,-0.00159954,0.0539057,0.0401744,-0.11757,0.0323466,0.0437772,552,1065,-16.0388,-0.688474
-665,-41,-15.0322,0.379517,0,0,0,0,0,0,0,-1,559,1065,-15.0322,-0.379499
-658,-41,-14.9919,0.845581,0.0248265,0.0247603,0.00273957,0.0275331,0.0220536,0.779359,0.0168289,0.0384417,566,1065,-14.9919,-0.84556
-651,-41,-14.916,1.41455,0.0155019,0.0185091,0.00350112,0.0208158,0.0131952,0.988219,0.0121608,0.025861,573,1065,-14.916,-1.41459
-644,-41,-15.0032,1.47668,0.00747764,0.0135232,0.00352343,0.0151428,0.00585804,1.13993,0.00881702,0.0112798,580,1065,-15.0032,-1.47664
-637,-41,-14.9993,1.52197,0.00263373,0.00910473,0.00242702,0.00991384,0.00182462,1.24901,0.00609278,0.0117592,587,1065,-14.9993,-1.52201
-630,-41,-14.9974,1.59058,0.000769582,0.00498535,0.000517038,0.00504783,0.000707096,1.45053,0.00315604,0.0113212,594,1065,-14.9974,-1.59053
-623,-41,-15.006,1.66638,-0.000975737,0.0026608,-0.00156679,0.00324273,-0.00155766,-1.21517,0.00282785,0.0108412,601,1065,-15.006,-1.66637
-616,-41,-14.9919,1.73865,-0.00181613,0.00116166,-0.00359337,0.00356238,-0.00421685,-0.981804,0.00449664,0.0150613,608,1065,-14.992,-1.73865
-609,-41,-14.9659,1.79993,-0.0015439,-0.000122623,-0.00541679,0.00462995,-0.00629647,-0.850621,0.00633278,0.020622,615,1065,-14.9659,-1.79992
-602,-41,-14.9766,1.84692,-0.00139338,-0.00123903,-0.00719119,0.0058754,-0.00850781,-0.790764,0.00835038,0.0121973,622,1065,-14.9766,-1.84696
-595,-41,-15.0064,1.87537,-0.00148616,-0.00205103,-0.00819489,0.00643116,-0.00996835,-0.768173,0.00954139,0.0141838,629,1065,-15.0064,-1.8754
-588,-41,-15.0878,1.35474,-0.00148952,-0.00241106,-0.00837146,0.00643385,-0.0103344,-0.757906,0.00976808,0.0235976,636,1065,-15.0878,-1.35471
-581,-41,-15.0834,0.752075,-0.00140839,-0.00249731,-0.0079773,0.00604301,-0.00994871,-0.751325,0.00932416,0.0333308,643,1065,-15.0834,-0.752119
-574,-41,-15.0143,0.49585,-0.00133142,-0.0025394,-0.0072183,0.00530811,-0.00917894,-0.743658,0.00846304,0.0371861,650,1065,-15.0143,-0.495865
-567,-41,-15.0241,0.834473,-0.00121047,-0.00239134,-0.00588361,0.00411226,-0.00771406,-0.735389,0.00693268,0.0429235,657,1065,-15.0241,-0.834459
-560,-41,-15.0657,1.05408,-0.00103955,-0.00204925,-0.00401483,0.00250204,-0.00559084,-0.722854,0.00478453,0.0437573,664,1065,-15.0657,-1.05405
-553,-41,-15.0554,0.969238,-0.00086855,-0.00150933,-0.00167933,0.000520676,-0.00289855,-0.691139,0.00212728,0.0436994,671,1065,-15.0554,-0.969215
-546,-41,-15.0394,0.858032,-0.000765189,-0.000759604,0.00106669,0.0003043,-0.00182909,0.786707,0.00133246,0.0410002,678,1065,-15.0394,-0.858022
-539,-41,-15.0673,0.765625,-0.000843947,0.000147099,0.00355943,0.00324533,-0.00394218,0.854561,0.0041562,0.0403038,685,1065,-15.0673,-0.765667
-532,-41,-15.1134,0.72998,-0.00167688,0.00115996,0.00393264,0.00392216,-0.00443908,0.958476,0.00483044,0.0394912,692,1065,-15.1134,-0.729987
-525,-41,0,0,0,0,0,0,0,0,0,-1,699,1065,0,0
-518,-41,0,0,0,0,0,0,0,0,0,-1,706,1065,0,0
-511,-41,0,0,0,0,0,0,0,0,0,-1,713,1065,0,0
-504,-41,0,0,0,0,0,0,0,0,0,-1,720,1065,0,0
-497,-41,0,0,0,0,0,0,0,0,0,-1,727,1065,0,0
-490,-41,0,0,0,0,0,0,0,0,0,-1,734,1065,0,0
-483,-41,0,0,0,0,0,0,0,0,0,-1,741,1065,0,0
-476,-41,0,0,0,0,0,0,0,0,0,-1,748,1065,0,0
-469,-41,0,0,0,0,0,0,0,0,0,-1,755,1065,0,0
-462,-41,0,0,0,0,0,0,0,0,0,-1,762,1065,0,0
-455,-41,0,0,0,0,0,0,0,0,0,-1,769,1065,0,0
-448,-41,0,0,0,0,0,0,0,0,0,-1,776,1065,0,0
-441,-41,0,0,0,0,0,0,0,0,0,-1,783,1065,0,0
-434,-41,0,0,0,0,0,0,0,0,0,-1,790,1065,0,0
-427,-41,0,0,0,0,0,0,0,0,0,-1,797,1065,0,0
-420,-41,0,0,0,0,0,0,0,0,0,-1,804,1065,0,0
-413,-41,0,0,0,0,0,0,0,0,0,-1,811,1065,0,0
-406,-41,0,0,0,0,0,0,0,0,0,-1,818,1065,0,0
-399,-41,0,0,0,0,0,0,0,0,0,-1,825,1065,0,0
-392,-41,0,0,0,0,0,0,0,0,0,-1,832,1065,0,0
-385,-41,0,0,0,0,0,0,0,0,0,-1,839,1065,0,0
-378,-41,0,0,0,0,0,0,0,0,0,-1,846,1065,0,0
-371,-41,0,0,0,0,0,0,0,0,0,-1,853,1065,0,0
-364,-41,0,0,0,0,0,0,0,0,0,-1,860,1065,0,0
-357,-41,0,0,0,0,0,0,0,0,0,-1,867,1065,0,0
-350,-41,0,0,0,0,0,0,0,0,0,-1,874,1065,0,0
-343,-41,0,0,0,0,0,0,0,0,0,-1,881,1065,0,0
-336,-41,0,0,0,0,0,0,0,0,0,-1,888,1065,0,0
-329,-41,0,0,0,0,0,0,0,0,0,-1,895,1065,0,0
-322,-41,0,0,0,0,0,0,0,0,0,-1,902,1065,0,0
-315,-41,0,0,0,0,0,0,0,0,0,-1,909,1065,0,0
-308,-41,0,0,0,0,0,0,0,0,0,-1,916,1065,0,0
-301,-41,0,0,0,0,0,0,0,0,0,-1,923,1065,0,0
-294,-41,0,0,0,0,0,0,0,0,0,-1,930,1065,0,0
-287,-41,0,0,0,0,0,0,0,0,0,-1,937,1065,0,0
-280,-41,0,0,0,0,0,0,0,0,0,-1,944,1065,0,0
-273,-41,0,0,0,0,0,0,0,0,0,-1,951,1065,0,0
-266,-41,0,0,0,0,0,0,0,0,0,-1,958,1065,0,0
-259,-41,0,0,0,0,0,0,0,0,0,-1,965,1065,0,0
-252,-41,0,0,0,0,0,0,0,0,0,-1,972,1065,0,0
-245,-41,0,0,0,0,0,0,0,0,0,-1,979,1065,0,0
-238,-41,0,0,0,0,0,0,0,0,0,-1,986,1065,0,0
-231,-41,0,0,0,0,0,0,0,0,0,-1,993,1065,0,0
-224,-41,0,0,0,0,0,0,0,0,0,-1,1000,1065,0,0
-217,-41,0,0,0,0,0,0,0,0,0,-1,1007,1065,0,0
-210,-41,0,0,0,0,0,0,0,0,0,-1,1014,1065,0,0
-203,-41,0,0,0,0,0,0,0,0,0,-1,1021,1065,0,0
-196,-41,0,0,0,0,0,0,0,0,0,-1,1028,1065,0,0
-189,-41,0,0,0,0,0,0,0,0,0,-1,1035,1065,0,0
-182,-41,0,0,0,0,0,0,0,0,0,-1,1042,1065,0,0
-175,-41,0,0,0,0,0,0,0,0,0,-1,1049,1065,0,0
-168,-41,0,0,0,0,0,0,0,0,0,-1,1056,1065,0,0
-161,-41,0,0,0,0,0,0,0,0,0,-1,1063,1065,0,0
-154,-41,0,0,0,0,0,0,0,0,0,-1,1070,1065,0,0
-147,-41,0,0,0,0,0,0,0,0,0,-1,1077,1065,0,0
-140,-41,0,0,0,0,0,0,0,0,0,-1,1084,1065,0,0
-133,-41,0,0,0,0,0,0,0,0,0,-1,1091,1065,0,0
-126,-41,0,0,0,0,0,0,0,0,0,-1,1098,1065,0,0
-119,-41,0,0,0,0,0,0,0,0,0,-1,1105,1065,0,0
-112,-41,0,0,0,0,0,0,0,0,0,-1,1112,1065,0,0
-105,-41,0,0,0,0,0,0,0,0,0,-1,1119,1065,0,0
-98,-41,0,0,0,0,0,0,0,0,0,-1,1126,1065,0,0
-91,-41,0,0,0,0,0,0,0,0,0,-1,1133,1065,0,0
-84,-41,0,0,0,0,0,0,0,0,0,-1,1140,1065,0,0
-77,-41,0,0,0,0,0,0,0,0,0,-1,1147,1065,0,0
-70,-41,0,0,0,0,0,0,0,0,0,-1,1154,1065,0,0
-63,-41,0,0,0,0,0,0,0,0,0,-1,1161,1065,0,0
-56,-41,0,0,0,0,0,0,0,0,0,-1,1168,1065,0,0
-49,-41,0,0,0,0,0,0,0,0,0,-1,1175,1065,0,0
-42,-41,0,0,0,0,0,0,0,0,0,-1,1182,1065,0,0
-35,-41,0,0,0,0,0,0,0,0,0,-1,1189,1065,0,0
-28,-41,0,0,0,0,0,0,0,0,0,-1,1196,1065,0,0
-21,-41,0,0,0,0,0,0,0,0,0,-1,1203,1065,0,0
-14,-41,0,0,0,0,0,0,0,0,0,-1,1210,1065,0,0
-7,-41,0,0,0,0,0,0,0,0,0,-1,1217,1065,0,0
0,-41,0,0,0,0,0,0,0,0,0,-1,1224,1065,0,0
7,-41,0,0,0,0,0,0,0,0,0,-1,1231,1065,0,0
14,-41,0,0,0,0,0,0,0,0,0,-1,1238,1065,0,0
21,-41,0,0,0,0,0,0,0,0,0,-1,1245,1065,0,0
28,-41,0,0,0,0,0,0,0,0,0,-1,1252,1065,0,0
35,-41,0,0,0,0,0,0,0,0,0,-1,1259,1065,0,0
42,-41,0,0,0,0,0,0,0,0,0,-1,1266,1065,0,0
49,-41,0,0,0,0,0,0,0,0,0,-1,1273,1065,0,0
56,-41,0,0,0,0,0,0,0,0,0,-1,1280,1065,0,0
63,-41,0,0,0,0,0,0,0,0,0,-1,1287,1065,0,0
70,-41,0,0,0,0,0,0,0,0,0,-1,1294,1065,0,0
77,-41,0,0,0,0,0,0,0,0,0,-1,1301,1065,0,0
84,-41,0,0,0,0,0,0,0,0,0,-1,1308,1065,0,0
91,-41,0,0,0,0,0,0,0,0,0,-1,1315,1065,0,0
98,-41,0,0,0,0,0,0,0,0,0,-1,1322,1065,0,0
105,-41,0,0,0,0,0,0,0,0,0,-1,1329,1065,0,0
112,-41,0,0,0,0,0,0,0,0,0,-1,1336,1065,0,0
119,-41,0,0,0,0,0,0,0,0,0,-1,1343,1065,0,0
126,-41,0,0,0,0,0,0,0,0,0,-1,1350,1065,0,0
133,-41,0,0,0,0,0,0,0,0,0,-1,1357,1065,0,0
140,-41,0,0,0,0,0,0,0,0,0,-1,1364,1065,0,0
147,-41,0,0,0,0,0,0,0,0,0,-1,1371,1065,0,0
154,-41,0,0,0,0,0,0,0,0,0,-1,1378,1065,0,0
161,-41,0,0,0,0,0,0,0,0,0,-1,1385,1065,0,0
168,-41,0,0,0,0,0,0,0,0,0,-1,1392,1065,0,0
175,-41,0,0,0,0,0,0,0,0,0,-1,1399,1065,0,0
182,-41,0,0,0,0,0,0,0,0,0,-1,1406,1065,0,0
189,-41,0,0,0,0,0,0,0,0,0,-1,1413,1065,0,0
196,-41,0,0,0,0,0,0,0,0,0,-1,1420,1065,0,0
203,-41,0,0,0,0,0,0,0,0,0,-1,1427,1065,0,0
210,-41,0,0,0,0,0,0,0,0,0,-1,1434,1065,0,0
217,-41,0,0,0,0,0,0,0,0,0,-1,1441,1065,0,0
224,-41,0,0,0,0,0,0,0,0,0,-1,1448,1065,0,0
231,-41,0,0,0,0,0,0,0,0,0,-1,1455,1065,0,0
238,-41,0,0,0,0,0,0,0,0,0,-1,1462,1065,0,0
245,-41,0,0,0,0,0,0,0,0,0,-1,1469,1065,0,0
252,-41,0,0,0,0,0,0,0,0,0,-1,1476,1065,0,0
259,-41,0,0,0,0,0,0,0,0,0,-1,1483,1065,0,0
266,-41,0,0,0,0,0,0,0,0,0,-1,1490,1065,0,0
273,-41,0,0,0,0,0,0,0,0,0,-1,1497,1065,0,0
280,-41,0,0,0,0,0,0,0,0,0,-1,1504,1065,0,0
287,-41,0,0,0,0,0,0,0,0,0,-1,1511,1065,0,0
294,-41,0,0,0,0,0,0,0,0,0,-1,1518,1065,0,0
301,-41,0,0,0,0,0,0,0,0,0,-1,1525,1065,0,0
308,-41,0,0,0,0,0,0,0,0,0,-1,1532,1065,0,0
315,-41,0,0,0,0,0,0,0,0,0,-1,1539,1065,0,0
322,-41,0,0,0,0,0,0,0,0,0,-1,1546,1065,0,0
329,-41,0,0,0,0,0,0,0,0,0,-1,1553,1065,0,0
336,-41,0,0,0,0,0,0,0,0,0,-1,1560,1065,0,0
343,-41,0,0,0,0,0,0,0,0,0,-1,1567,1065,0,0
350,-41,0,0,0,0,0,0,0,0,0,-1,1574,1065,0,0
357,-41,0,0,0,0,0,0,0,0,0,-1,1581,1065,0,0
364,-41,0,0,0,0,0,0,0,0,0,-1,1588,1065,0,0
371,-41,0,0,0,0,0,0,0,0,0,-1,1595,1065,0,0
378,-41,0,0,0,0,0,0,0,0,0,-1,1602,1065,0,0
385,-41,0,0,0,0,0,0,0,0,0,-1,1609,1065,0,0
392,-41,0,0,0,0,0,0,0,0,0,-1,1616,1065,0,0
399,-41,0,0,0,0,0,0,0,0,0,-1,1623,1065,0,0
406,-41,0,0,0,0,0,0,0,0,0,-1,1630,1065,0,0
413,-41,0,0,0,0,0,0,0,0,0,-1,1637,1065,0,0
420,-41,0,0,0,0,0,0,0,0,0,-1,1644,1065,0,0
427,-41,0,0,0,0,0,0,0,0,0,-1,1651,1065,0,0
434,-41,0,0,0,0,0,0,0,0,0,-1,1658,1065,0,0
441,-41,0,0,0,0,0,0,0,0,0,-1,1665,1065,0,0
448,-41,0,0,0,0,0,0,0,0,0,-1,1672,1065,0,0
455,-41,0,0,0,0,0,0,0,0,0,-1,1679,1065,0,0
462,-41,0,0,0,0,0,0,0,0,0,-1,1686,1065,0,0
469,-41,0,0,0,0,0,0,0,0,0,-1,1693,1065,0,0
476,-41,0,0,0,0,0,0,0,0,0,-1,1700,1065,0,0
483,-41,0,0,0,0,0,0,0,0,0,-1,1707,1065,0,0
490,-41,0,0,0,0,0,0,0,0,0,-1,1714,1065,0,0
497,-41,0,0,0,0,0,0,0,0,0,-1,1721,1065,0,0
504,-41,0,0,0,0,0,0,0,0,0,-1,1728,1065,0,0
511,-41,0,0,0,0,0,0,0,0,0,-1,1735,1065,0,0
518,-41,0,0,0,0,0,0,0,0,0,-1,1742,1065,0,0
525,-41,0,0,0,0,0,0,0,0,0,-1,1749,1065,0,0
532,-41,0,0,0,0,0,0,0,0,0,-1,1756,1065,0,0
539,-41,0,0,0,0,0,0,0,0,0,-1,1763,1065,0,0
546,-41,0,0,0,0,0,0,0,0,0,-1,1770,1065,0,0
553,-41,0,0,0,0,0,0,0,0,0,-1,1777,1065,0,0
560,-41,0,0,0,0,0,0,0,0,0,-1,1784,1065,0,0
567,-41,0,0,0,0,0,0,0,0,0,-1,1791,1065,0,0
574,-41,0,0,0,0,0,0,0,0,0,-1,1798,1065,0,0
581,-41,0,0,0,0,0,0,0,0,0,-1,1805,1065,0,0
588,-41,0,0,0,0,0,0,0,0,0,-1,1812,1065,0,0
595,-41,0,0,0,0,0,0,0,0,0,-1,1819,1065,0,0
602,-41,0,0,0,0,0,0,0,0,0,-1,1826,1065,0,0
609,-41,0,0,0,0,0,0,0,0,0,-1,1833,1065,0,0
616,-41,0,0,0,0,0,0,0,0,0,-1,1840,1065,0,0
623,-41,0,0,0,0,0,0,0,0,0,-1,1847,1065,0,0
630,-41,0,0,0,0,0,0,0,0,0,-1,1854,1065,0,0
637,-41,0,0,0,0,0,0,0,0,0,-1,1861,1065,0,0
644,-41,0,0,0,0,0,0,0,0,0,-1,1868,1065,0,0
651,-41,22.6198,2.66296,-0.000446827,-0.000965352,-0.000448615,-0.000187946,-0.00122423,-0.523386,0.000761279,0.0371405,1875,1065,22.6198,-2.66294
658,-41,22.5226,2.81958,0.00100762,-0.00106317,-0.00110297,0.00148503,-0.00154058,-0.408494,0.00174693,0.0421898,1882,1065,22.5226,-2.81958
665,-41,22.4447,2.86182,0.00155417,-0.00110421,-0.00138581,0.00214519,-0.00169523,-0.403125,0.00222233,0.0442416,1889,1065,22.4447,-2.86182
672,-41,22.5725,2.69971,0.00169892,-0.00108654,-0.000693296,0.00186194,-0.00124956,-0.230942,0.00180798,0.0429947,1896,1065,22.5725,-2.69973
679,-41,22.8344,2.51062,0.00125567,-0.00104247,0.000959772,0.00160377,-0.00139057,0.347936,0.00173025,0.0410465,1903,1065,22.8344,-2.51068
686,-41,22.8364,1.9187,0.000491759,-0.00102784,0.00272087,0.00255692,-0.00309301,0.649242,0.00326688,0.0456894,1910,1065,22.8365,-1.91871
693,-41,22.9877,2.09338,0,0,0,0,0,0,0,-1,1917,1065,22.9877,-2.09339
700,-41,22.7338,2.66577,-0.000849954,-0.000920539,0.00566293,0.0047778,-0.00654829,0.782282,0.0065657,0.0419567,1924,1065,22.7337,-2.66582
707,-41,22.6493,2.74475,-0.00122758,-0.000864439,0.00650972,0.00546624,-0.00755826,0.799341,0.00755196,0.0306455,1931,1065,22.6492,-2.74477
714,-41,22.6451,2.73804,-0.00163426,-0.000700744,0.00701125,0.00585927,-0.00819427,0.818635,0.00815106,0.0175433,1938,1065,22.6451,-2.7381
721,-41,22.7338,3.2533,-0.00212094,-0.000492805,0.00722502,0.00596387,-0.00857761,0.841498,0.00844061,0.0340853,1945,1065,22.7338,-3.25329
728,-41,22.3323,4.17603,0,0,0,0,0,0,0,-1,1952,1065,22.3322,-4.17599
735,-41,22.24,4.16626,-0.00274398,0.000161065,0.00689294,0.00575286,-0.00833578,0.889242,0.00817952,0.0162376,1959,1065,22.24,-4.16622
742,-41,22.1885,4.14612,-0.00263216,0.000492505,0.00594146,0.00507361,-0.00721327,0.913965,0.00712959,0.0142985,1966,1065,22.1885,-4.14609
749,-41,22.2201,4.13782,-0.00175167,0.00123104,0.00482662,0.00479146,-0.00531209,0.935238,0.00583586,0.0135409,1973,1065,22.2201,-4.13788
756,-41,22.2438,4.11475,-2.04815e-05,0.00219339,0.00448293,0.00570403,-0.00353112,0.906438,0.00538089,0.0130815,1980,1065,22.2437,-4.11473
763,-41,22.2195,4.06433,0.00211129,0.00258844,0.00437753,0.00673389,-0.00203416,0.812621,0.0052991,0.0104574,1987,1065,22.2195,-4.06436
770,-41,22.2095,4.026,0.00471591,0.00340895,0.00440705,0.00851767,-0.000392809,0.711794,0.00581381,0.0119183,1994,1065,22.2094,-4.02595
777,-41,22.177,4.00281,0.0084505,0.00429406,0.00545342,0.0122083,0.000536284,0.60335,0.00796611,0.0136362,2001,1065,22.177,-4.00278
784,-41,22.1381,3.98022,0.0132555,0.00500998,0.00826389,0.0183679,-0.000102461,0.554019,0.0122796,0.0239471,2008,1065,22.1381,-3.98028
791,-41,22.1857,3.84839,0.0192482,0.00551093,0.0124207,0.0265729,-0.0018138,0.532827,0.0183498,0.0427442,2015,1065,22.1857,-3.84839
798,-41,22.014,3.28101,0.0271132,0.00552998,0.0182841,0.0375528,-0.00490968,0.5188,0.026822,0.0468305,2022,1065,22.0141,-3.28104
805,-41,22.5781,4.18909,0.0372774,0.00479157,0.0263812,0.0520152,-0.00994617,0.509456,0.0384237,0.0451624,2029,1065,22.5781,-4.18908
812,-41,22.3987,6.18689,0,0,0,0,0,0,0,-1,2036,1065,22.3986,-6.18695
-700,-48,-19.8994,0.785767,0.153009,0.0733849,-0.0188316,0.157238,0.0691557,-0.220914,0.0910004,0.0471266,524,1072,-19.8995,-0.785755
-693,-48,-18.7839,0.679077,0.122356,0.0665898,-0.0133417,0.125384,0.0635623,-0.223144,0.0723928,0.0454415,531,1072,-18.7839,-0.679074
-686,-48,-17.6735,0.498901,0,0,0,0,0,0,0,-1,538,1072,-17.6734,-0.498899
-679,-48,-16.7701,0.452271,0.0725617,0.0490117,-0.00442469,0.0733656,0.0482078,-0.179723,0.0430489,0.0465193,545,1072,-16.7701,-0.45221
-672,-48,-15.8044,0.565674,0.0529992,0.0400583,-0.00121281,0.0531119,0.0399456,-0.0926442,0.031937,0.0439174,552,1072,-15.8044,-0.565613
-665,-48,-15.1243,0.690918,0,0,0,0,0,0,0,-1,559,1072,-15.1243,-0.690949
-658,-48,-14.8841,0.761719,0.0244665,0.0242535,0.00264308,0.0270052,0.0217148,0.765269,0.0165247,0.0432804,566,1072,-14.8841,-0.761768
-651,-48,-14.8226,1.17517,0.0152323,0.0179583,0.00334379,0.0202063,0.0129844,0.978928,0.0118232,0.0297308,573,1072,-14.8225,-1.17519
-644,-48,-14.8972,1.46375,0.00722275,0.0129939,0.00334073,0.0145228,0.00569392,1.14161,0.00844959,0.0139393,580,1072,-14.8972,-1.46374
-637,-48,-14.917,1.51025,0.00239514,0.00855667,0.00230909,0.00932597,0.00162584,1.2492,0.00575247,0.0140804,587,1072,-14.917,-1.51031
-630,-48,-14.911,1.5874,0.000435125,0.00449959,0.000329998,0.00452621,0.000408506,1.49031,0.00289094,0.015717,594,1072,-14.911,-1.58743
-623,-48,-14.914,1.64673,-0.00142457,0.00211631,-0.00173433,0.00282425,-0.00213251,-1.18325,0.00287106,0.0105821,601,1072,-14.914,-1.64675
-616,-48,-14.9099,1.72253,-0.00235178,0.000767056,-0.00384437,0.00335625,-0.00494097,-0.978076,0.00481944,0.0096302,608,1072,-14.9098,-1.72248
-609,-48,-14.8943,1.79382,-0.00217294,-0.00037024,-0.00568303,0.00448248,-0.00702566,-0.864045,0.00669809,0.0109573,615,1072,-14.8943,-1.79387
-602,-48,-14.9132,1.8656,-0.00211811,-0.00144332,-0.00748043,0.00570732,-0.00926874,-0.807935,0.00872755,0.0112564,622,1072,-14.9132,-1.86559
-595,-48,-14.9308,1.91626,-0.00228096,-0.0022694,-0.00854616,0.00627098,-0.0108213,-0.785736,0.00998414,0.0158412,629,1072,-14.9308,-1.91621
-588,-48,-15.024,1.4491,-0.0023174,-0.0026408,-0.00876505,0.00628744,-0.0112456,-0.776175,0.0102568,0.0296264,636,1072,-15.024,-1.44912
-581,-48,-15.0579,0.736206,-0.00222191,-0.00273185,-0.00839535,0.00592234,-0.0108761,-0.770218,0.00983815,0.0383402,643,1072,-15.0579,-0.736223
-574,-48,-14.9197,0.576782,-0.00207802,-0.00276522,-0.00762033,0.00520645,-0.0100497,-0.762868,0.00895486,0.0406903,650,1072,-14.9197,-0.576819
-567,-48,-14.9289,0.960693,-0.00181324,-0.00259355,-0.00623615,0.00404495,-0.00845173,-0.754157,0.00736298,0.0428192,657,1072,-14.9289,-0.960718
-560,-48,-15.1013,1.18713,-0.0014285,-0.00221339,-0.0042864,0.00248338,-0.00612527,-0.739748,0.00511631,0.0440576,664,1072,-15.1013,-1.18719
-553,-48,-15.0028,1.09143,-0.000976963,-0.00162477,-0.00184513,0.000572477,-0.00317421,-0.698511,0.00233052,0.0431864,671,1072,-15.0028,-1.09141
-546,-48,-14.9196,0.96875,0,0,0,0,0,0,0,-1,678,1072,-14.9196,-0.968757
-539,-48,-15.0422,0.875,-0.000225732,0.000166861,0.00363988,0.00361573,-0.0036746,0.812337,0.00420912,0.0389709,685,1072,-15.0421,-0.875012
-532,-48,-15.0944,1.10461,-0.000816107,0.00111445,0.00393648,0.00420227,-0.00390393,0.905633,0.00468117,0.0392241,692,1072,-15.0943,-1.10465
-525,-48,0,0,0,0,0,0,0,0,0,-1,699,1072,0,0
-518,-48,0,0,0,0,0,0,0,0,0,-1,706,1072,0,0
-511,-48,0,0,0,0,0,0,0,0,0,-1,713,1072,0,0
-504,-48,0,0,0,0,0,0,0,0,0,-1,720,1072,0,0
-497,-48,0,0,0,0,0,0,0,0,0,-1,727,1072,0,0
-490,-48,0,0,0,0,0,0,0,0,0,-1,734,1072,0,0
-483,-48,0,0,0,0,0,0,0,0,0,-1,741,1072,0,0
-476,-48,0,0,0,0,0,0,0,0,0,-1,748,1072,0,0
-469,-48,0,0,0,0,0,0,0,0,0,-1,755,1072,0,0
-462,-48,0,0,0,0,0,0,0,0,0,-1,762,1072,0,0
-455,-48,0,0,0,0,0,0,0,0,0,-1,769,1072,0,0
-448,-48,0,0,0,0,0,0,0,0,0,-1,776,1072,0,0
-441,-48,0,0,0,0,0,0,0,0,0,-1,783,1072,0,0
-434,-48,0,0,0,0,0,0,0,0,0,-1,790,1072,0,0
-427,-48,0,0,0,0,0,0,0,0,0,-1,797,1072,0,0
-420,-48,0,0,0,0,0,0,0,0,0,-1,804,1072,0,0
-413,-48,0,0,0,0,0,0,0,0,0,-1,811,1072,0,0
-406,-48,0,0,0,0,0,0,0,0,0,-1,818,1072,0,0
-399,-48,0,0,0,0,0,0,0,0,0,-1,825,1072,0,0
-392,-48,0,0,0,0,0,0,0,0,0,-1,832,1072,0,0
-385,-48,0,0,0,0,0,0,0,0,0,-1,839,1072,0,0
-378,-48,0,0,0,0,0,0,0,0,0,-1,846,1072,0,0
-371,-48,0,0,0,0,0,0,0,0,0,-1,853,1072,0,0
-364,-48,0,0,0,0,0,0,0,0,0,-1,860,1072,0,0
-357,-48,0,0,0,0,0,0,0,0,0,-1,867,1072,0,0
-350,-48,0,0,0,0,0,0,0,0,0,-1,874,1072,0,0
-343,-48,0,0,0,0,0,0,0,0,0,-1,881,1072,0,0
-336,-48,0,0,0,0,0,0,0,0,0,-1,888,1072,0,0
-329,-48,0,0,0,0,0,0,0,0,0,-1,895,1072,0,0
-322,-48,0,0,0,0,0,0,0,0,0,-1,902,1072,0,0
-315,-48,0,0,0,0,0,0,0,0,0,-1,909,1072,0,0
-308,-48,0,0,0,0,0,0,0,0,0,-1,916,1072,0,0
-301,-48,0,0,0,0,0,0,0,0,0,-1,923,1072,0,0
-294,-48,0,0,0,0,0,0,0,0,0,-1,930,1072,0,0
-287,-48,0,0,0,0,0,0,0,0,0,-1,937,1072,0,0
-280,-48,0,0,0,0,0,0,0,0,0,-1,944,1072,0,0
-273,-48,0,0,0,0,0,0,0,0,0,-1,951,1072,0,0
-266,-48,0,0,0,0,0,0,0,0,0,-1,958,1072,0,0
-259,-48,0,0,0,0,0,0,0,0,0,-1,965,1072,0,0
-252,-48,0,0,0,0,0,0,0,0,0,-1,972,1072,0,0
-245,-48,0,0,0,0,0,0,0,0,0,-1,979,1072,0,0
-238,-48,0,0,0,0,0,0,0,0,0,-1,986,1072,0,0
-231,-48,0,0,0,0,0,0,0,0,0,-1,993,1072,0,0
-224,-48,0,0,0,0,0,0,0,0,0,-1,1000,1072,0,0
-217,-48,0,0,0,0,0,0,0,0,0,-1,1007,1072,0,0
-210,-48,0,0,0,0,0,0,0,0,0,-1,1014,1072,0,0
-203,-48,0,0,0,0,0,0,0,0,0,-1,1021,1072,0,0
-196,-48,0,0,0,0,0,0,0,0,0,-1,1028,1072,0,0
-189,-48,0,0,0,0,0,0,0,0,0,-1,1035,1072,0,0
-182,-48,0,0,0,0,0,0,0,0,0,-1,1042,1072,0,0
-175,-48,0,0,0,0,0,0,0,0,0,-1,1049,1072,0,0
-168,-48,0,0,0,0,0,0,0,0,0,-1,1056,1072,0,0
-161,-48,0,0,0,0,0,0,0,0,0,-1,1063,1072,0,0
-154,-48,0,0,0,0,0,0,0,0,0,-1,1070,1072,0,0
-147,-48,0,0,0,0,0,0,0,0,0,-1,1077,1072,0,0
-140,-48,0,0,0,0,0,0,0,0,0,-1,1084,1072,0,0
-133,-48,0,0,0,0,0,0,0,0,0,-1,1091,1072,0,0
-126,-48,0,0,0,0,0,0,0,0,0,-1,1098,1072,0,0
-119,-48,0,0,0,0,0,0,0,0,0,-1,1105,1072,0,0
-112,-48,0,0,0,0,0,0,0,0,0,-1,1112,1072,0,0
-105,-48,0,0,0,0,0,0,0,0,0,-1,1119,1072,0,0
-98,-48,0,0,0,0,0,0,0,0,0,-1,1126,1072,0,0
-91,-48,0,0,0,0,0,0,0,0,0,-1,1133,1072,0,0
-84,-48,0,0,0,0,0,0,0,0,0,-1,1140,1072,0,0
-77,-48,0,0,0,0,0,0,0,0,0,-1,1147,1072,0,0
-70,-48,0,0,0,0,0,0,0,0,0,-1,1154,1072,0,0
-63,-48,0,0,0,0,0,0,0,0,0,-1,1161,1072,0,0
-56,-48,0,0,0,0,0,0,0,0,0,-1,1168,1072,0,0
-49,-48,0,0,0,0,0,0,0,0,0,-1,1175,1072,0,0
-42,-48,0,0,0,0,0,0,0,0,0,-1,1182,1072,0,0
-35,-48,0,0,0,0,0,0,0,0,0,-1,1189,1072,0,0
-28,-48,0,0,0,0,0,0,0,0,0,-1,1196,1072,0,0
-21,-48,0,0,0,0,0,0,0,0,0,-1,1203,1072,0,0
-14,-48,0,0,0,0,0,0,0,0,0,-1,1210,1072,0,0
-7,-48,0,0,0,0,0,0,0,0,0,-1,1217,1072,0,0
0,-48,0,0,0,0,0,0,0,0,0,-1,1224,1072,0,0
7,-48,0,0,0,0,0,0,0,0,0,-1,1231,1072,0,0
14,-48,0,0,0,0,0,0,0,0,0,-1,1238,1072,0,0
21,-48,0,0,0,0,0,0,0,0,0,-1,1245,1072,0,0
28,-48,0,0,0,0,0,0,0,0,0,-1,1252,1072,0,0
35,-48,0,0,0,0,0,0,0,0,0,-1,1259,1072,0,0
42,-48,0,0,0,0,0,0,0,0,0,-1,1266,1072,0,0
49,-48,0,0,0,0,0,0,0,0,0,-1,1273,1072,0,0
56,-48,0,0,0,0,0,0,0,0,0,-1,1280,1072,0,0
63,-48,0,0,0,0,0,0,0,0,0,-1,1287,1072,0,0
70,-48,0,0,0,0,0,0,0,0,0,-1,1294,1072,0,0
77,-48,0,0,0,0,0,0,0,0,0,-1,1301,1072,0,0
84,-48,0,0,0,0,0,0,0,0,0,-1,1308,1072,0,0
91,-48,0,0,0,0,0,0,0,0,0,-1,1315,1072,0,0
98,-48,0,0,0,0,0,0,0,0,0,-1,1322,1072,0,0
105,-48,0,0,0,0,0,0,0,0,0,-1,1329,1072,0,0
112,-48,0,0,0,0,0,0,0,0,0,-1,1336,1072,0,0
119,-48,0,0,0,0,0,0,0,0,0,-1,1343,1072,0,0
126,-48,0,0,0,0,0,0,0,0,0,-1,1350,1072,0,0
133,-48,0,0,0,0,0,0,0,0,0,-1,1357,1072,0,0
140,-48,0,0,0,0,0,0,0,0,0,-1,1364,1072,0,0
147,-48,0,0,0,0,0,0,0,0,0,-1,1371,1072,0,0
154,-48,0,0,0,0,0,0,0,0,0,-1,1378,1072,0,0
161,-48,0,0,0,0,0,0,0,0,0,-1,1385,1072,0,0
168,-48,0,0,0,0,0,0,0,0,0,-1,1392,1072,0,0
175,-48,0,0,0,0,0,0,0,0,0,-1,1399,1072,0,0
182,-48,0,0,0,0,0,0,0,0,0,-1,1406,1072,0,0
189,-48,0,0,0,0,0,0,0,0,0,-1,1413,1072,0,0
196,-48,0,0,0,0,0,0,0,0,0,-1,1420,1072,0,0
203,-48,0,0,0,0,0,0,0,0,0,-1,1427,1072,0,0
210,-48,0,0,0,0,0,0,0,0,0,-1,1434,1072,0,0
217,-48,0,0,0,0,0,0,0,0,0,-1,1441,1072,0,0
224,-48,0,0,0,0,0,0,0,0,0,-1,1448,1072,0,0
231,-48,0,0,0,0,0,0,0,0,0,-1,1455,1072,0,0
238,-48,0,0,0,0,0,0,0,0,0,-1,1462,1072,0,0
245,-48,0,0,0,0,0,0,0,0,0,-1,1469,1072,0,0
252,-48,0,0,0,0,0,0,0,0,0,-1,1476,1072,0,0
259,-48,0,0,0,0,0,0,0,0,0,-1,1483,1072,0,0
266,-48,0,0,0,0,0,0,0,0,0,-1,1490,1072,0,0
273,-48,0,0,0,0,0,0,0,0,0,-1,1497,1072,0,0
280,-48,0,0,0,0,0,0,0,0,0,-1,1504,1072,0,0
287,-48,0,0,0,0,0,0,0,0,0,-1,1511,1072,0,0
294,-48,0,0,0,0,0,0,0,0,0,-1,1518,1072,0,0
301,-48,0,0,0,0,0,0,0,0,0,-1,1525,1072,0,0
308,-48,0,0,0,0,0,0,0,0,0,-1,1532,1072,0,0
315,-48,0,0,0,0,0,0,0,0,0,-1,1539,1072,0,0
322,-48,0,0,0,0,0,0,0,0,0,-1,1546,1072,0,0
329,-48,0,0,0,0,0,0,0,0,0,-1,1553,1072,0,0
336,-48,0,0,0,0,0,0,0,0,0,-1,1560,1072,0,0
343,-48,0,0,0,0,0,0,0,0,0,-1,1567,1072,0,0
350,-48,0,0,0,0,0,0,0,0,0,-1,1574,1072,0,0
357,-48,0,0,0,0,0,0,0,0,0,-1,1581,1072,0,0
364,-48,0,0,0,0,0,0,0,0,0,-1,1588,1072,0,0
371,-48,0,0,0,0,0,0,0,0,0,-1,1595,1072,0,0
378,-48,0,0,0,0,0,0,0,0,0,-1,1602,1072,0,0
385,-48,0,0,0,0,0,0,0,0,0,-1,1609,1072,0,0
392,-48,0,0,0,0,0,0,0,0,0,-1,1616,1072,0,0
399,-48,0,0,0,0,0,0,0,0,0,-1,1623,1072,0,0
406,-48,0,0,0,0,0,0,0,0,0,-1,1630,1072,0,0
413,-48,0,0,0,0,0,0,0,0,0,-1,1637,1072,0,0
420,-48,0,0,0,0,0,0,0,0,0,-1,1644,1072,0,0
427,-48,0,0,0,0,0,0,0,0,0,-1,1651,1072,0,0
434,-48,0,0,0,0,0,0,0,0,0,-1,1658,1072,0,0
441,-48,0,0,0,0,0,0,0,0,0,-1,1665,1072,0,0
448,-48,0,0,0,0,0,0,0,0,0,-1,1672,1072,0,0
455,-48,0,0,0,0,0,0,0,0,0,-1,1679,1072,0,0
462,-48,0,0,0,0,0,0,0,0,0,-1,1686,1072,0,0
469,-48,0,0,0,0,0,0,0,0,0,-1,1693,1072,0,0
476,-48,0,0,0,0,0,0,0,0,0,-1,1700,1072,0,0
483,-48,0,0,0,0,0,0,0,0,0,-1,1707,1072,0,0
490,-48,0,0,0,0,0,0,0,0,0,-1,1714,1072,0,0
497,-48,0,0,0,0,0,0,0,0,0,-1,1721,1072,0,0
504,-48,0,0,0,0,0,0,0,0,0,-1,1728,1072,0,0
511,-48,0,0,0,0,0,0,0,0,0,-1,1735,1072,0,0
518,-48,0,0,0,0,0,0,0,0,0,-1,1742,1072,0,0
525,-48,0,0,0,0,0,0,0,0,0,-1,1749,1072,0,0
532,-48,0,0,0,0,0,0,0,0,0,-1,1756,1072,0,0
539,-48,0,0,0,0,0,0,0,0,0,-1,1763,1072,0,0
546,-48,0,0,0,0,0,0,0,0,0,-1,1770,1072,0,0
553,-48,0,0,0,0,0,0,0,0,0,-1,1777,1072,0,0
560,-48,0,0,0,0,0,0,0,0,0,-1,1784,1072,0,0
567,-48,0,0,0,0,0,0,0,0,0,-1,1791,1072,0,0
574,-48,0,0,0,0,0,0,0,0,0,-1,1798,1072,0,0
581,-48,0,0,0,0,0,0,0,0,0,-1,1805,1072,0,0
588,-48,0,0,0,0,0,0,0,0,0,-1,1812,1072,0,0
595,-48,0,0,0,0,0,0,0,0,0,-1,1819,1072,0,0
602,-48,0,0,0,0,0,0,0,0,0,-1,1826,1072,0,0
609,-48,0,0,0,0,0,0,0,0,0,-1,1833,1072,0,0
616,-48,0,0,0,0,0,0,0,0,0,-1,1840,1072,0,0
623,-48,0,0,0,0,0,0,0,0,0,-1,1847,1072,0,0
630,-48,0,0,0,0,0,0,0,0,0,-1,1854,1072,0,0
637,-48,0,0,0,0,0,0,0,0,0,-1,1861,1072,0,0
644,-48,0,0,0,0,0,0,0,0,0,-1,1868,1072,0,0
651,-48,22.6359,2.67786,0.000468431,-0.000377477,0.000609678,0.000787499,-0.000696545,0.482144,0.00085735,0.0326823,1875,1072,22.6359,-2.67789
658,-48,22.4833,2.91101,0.00162175,-0.000724007,-0.000338761,0.00166969,-0.00077195,-0.140588,0.0014411,0.0391914,1882,1072,22.4833,-2.91097
665,-48,22.1301,2.97766,0,0,0,0,0,0,0,-1,1889,1072,22.1301,-2.9776
672,-48,22.4707,2.88867,0.00202993,-0.00109638,-0.000331761,0.00206475,-0.0011312,-0.104567,0.00187124,0.0447279,1896,1072,22.4708,-2.88865
679,-48,22.6899,2.54407,0.00154918,-0.00120248,0.0011493,0.00196606,-0.00161936,0.347963,0.00207326,0.0404507,1903,1072,22.69,-2.54412
686,-48,22.7156,2.27319,0.000776614,-0.00129657,0.00276086,0.00268907,-0.00320902,0.605811,0.00340967,0.0404991,1910,1072,22.7156,-2.27319
693,-48,22.8224,2.45093,5.85532e-05,-0.00134374,0.00425017,0.00366502,-0.00495021,0.70365,0.00499242,0.0411598,1917,1072,22.8224,-2.45095
700,-48,22.7562,2.75256,-0.00054687,-0.00131293,0.00546029,0.00454381,-0.00640361,0.750381,0.00635082,0.0351896,1924,1072,22.7563,-2.75252
707,-48,22.6842,2.72571,-0.000916871,-0.00124946,0.00622693,0.00514598,-0.00731231,0.772048,0.00722895,0.0294294,1931,1072,22.6842,-2.72572
714,-48,22.6469,2.81213,-0.00133836,-0.00109064,0.0066829,0.00546954,-0.00789854,0.794664,0.00776042,0.0270167,1938,1072,22.6468,-2.81211
721,-48,22.5258,3.6449,-0.00184274,-0.000893496,0.00689081,0.00553902,-0.00827526,0.819783,0.00802766,0.0423958,1945,1072,22.5257,-3.64494
728,-48,22.2478,4.23328,0,0,0,0,0,0,0,-1,1952,1072,22.2478,-4.23326
735,-48,22.1927,4.21631,-0.00245352,-0.00014037,0.00660896,0.00541246,-0.00800634,0.872021,0.00779545,0.0174185,1959,1072,22.1927,-4.21629
742,-48,22.1467,4.17627,-0.00234309,0.000347872,0.00569662,0.00485575,-0.00685097,0.901367,0.00679152,0.0141913,1966,1072,22.1468,-4.17627
749,-48,22.2017,4.12573,-0.00144403,0.00111194,0.00464943,0.00465582,-0.00498792,0.919521,0.00556892,0.013037,1973,1072,22.2017,-4.12573
756,-48,22.2023,4.09363,0.000395887,0.00210935,0.00441944,0.00575433,-0.00324909,0.881138,0.00526478,0.0121774,1980,1072,22.2022,-4.09364
763,-48,22.1865,4.05859,0.00280554,0.0025277,0.00439586,0.00706467,-0.00173143,0.769602,0.0053806,0.0123265,1987,1072,22.1865,-4.05862
770,-48,22.1949,4.01038,0.00570423,0.00336624,0.00449455,0.00917932,-0.000108857,0.658171,0.00615615,0.0123484,1994,1072,22.1949,-4.01033
777,-48,22.1367,3.96069,0.00989153,0.00425198,0.00561304,0.0133533,0.000790248,0.552631,0.0086508,0.01041,2001,1072,22.1367,-3.96067
784,-48,22.1239,3.87805,0.0153622,0.00492589,0.00845099,0.0200762,0.000211854,0.508818,0.0133141,0.0217833,2008,1072,22.1239,-3.87806
791,-48,22.1478,3.74524,0.0222004,0.00533674,0.0125572,0.028894,-0.00135689,0.489737,0.0197305,0.0404414,2015,1072,22.1479,-3.74524
798,-48,22.4664,2.64795,0.0311512,0.00522019,0.0182749,0.0405928,-0.00422133,0.47687,0.0285731,0.0440829,2022,1072,22.4664,-2.64794
805,-48,22.3252,3.63916,0.042707,0.00429061,0.0260658,0.0558775,-0.00887993,0.467863,0.0405371,0.0436542,2029,1072,22.3252,-3.6391
812,-48,22.3728,4.43103,0,0,0,0,0,0,0,-1,2036,1072,22.3728,-4.43099
-700,-55,-19.782,0.813232,0,0,0,0,0,0,0,-1,524,1079,-19.782,-0.813251
-693,-55,-18.6655,0.779663,0,0,0,0,0,0,0,-1,531,1079,-18.6655,-0.779708
-686,-55,-17.612,0.605103,0,0,0,0,0,0,0,-1,538,1079,-17.612,-0.605042
-679,-55,-16.5426,0.327515,0,0,0,0,0,0,0,-1,545,1079,-16.5426,-0.327457
-672,-55,-15.5747,0.469971,0,0,0,0,0,0,0,-1,552,1079,-15.5747,-0.469994
-665,-55,-14.709,0.359375,0,0,0,0,0,0,0,-1,559,1079,-14.709,-0.359398
-658,-55,-14.7708,0.650391,0.022216,0.0246304,0.00183944,0.0256234,0.021223,1.07578,0.0158208,0.0496969,566,1079,-14.7707,-0.650416
-651,-55,-14.8105,1.04053,0.0136304,0.0180271,0.0026549,0.0192757,0.0123818,1.1312,0.0112782,0.0356726,573,1079,-14.8105,-1.04057
-644,-55,-14.8139,1.41711,0.00613444,0.0128809,0.00274141,0.0138544,0.00516095,1.22958,0.00808505,0.0162634,580,1079,-14.8139,-1.41711
-637,-55,-14.8395,1.48486,0.00164703,0.00822951,0.00189418,0.00873567,0.00114088,1.30968,0.00548319,0.0133197,587,1079,-14.8395,-1.4849
-630,-55,-14.8312,1.57861,-0.000200012,0.00405297,6.57449e-05,0.00405398,-0.000201028,1.55534,0.00277209,0.0151176,594,1079,-14.8313,-1.57866
-623,-55,-14.8384,1.65674,-0.00200077,0.00156325,-0.00189652,0.00238362,-0.00282114,-1.16254,0.0030085,0.0147419,601,1079,-14.8384,-1.65679
-616,-55,-14.8364,1.71826,-0.00290458,0.000330341,-0.00400177,0.00302917,-0.00560341,-0.977453,0.00505735,0.0133412,608,1079,-14.8364,-1.71821
-609,-55,-14.828,1.79614,-0.00275215,-0.000696596,-0.00579502,0.00416108,-0.00760983,-0.873163,0.00689248,0.012659,615,1079,-14.828,-1.79612
-602,-55,-14.8466,1.86658,-0.00270018,-0.00171499,-0.0075538,0.00536227,-0.00977743,-0.817958,0.00886394,0.0126564,622,1079,-14.8465,-1.86661
-595,-55,-14.8183,1.9447,-0.00289995,-0.00255688,-0.00863811,0.0059114,-0.0113682,-0.795326,0.0101409,0.0162617,629,1079,-14.8183,-1.94473
-588,-55,-14.859,1.45654,-0.00295668,-0.00296497,-0.00888562,0.0059248,-0.0118464,-0.785165,0.0104484,0.0299254,636,1079,-14.859,-1.4565
-581,-55,-15.0269,0.772583,-0.00283566,-0.00309494,-0.00855355,0.00558923,-0.0115198,-0.777821,0.0100738,0.0379067,643,1079,-15.0268,-0.772617
-574,-55,-15.0022,0.88623,-0.00262404,-0.00316164,-0.0078016,0.00491338,-0.0106991,-0.768178,0.00921786,0.0389576,650,1079,-15.0022,-0.88626
-567,-55,-14.9688,0.966675,-0.00221874,-0.00301861,-0.00644648,0.0038402,-0.00907755,-0.754418,0.00765967,0.0403756,657,1079,-14.9688,-0.96665
-560,-55,-15.0341,0.955078,-0.00163557,-0.00266827,-0.00451914,0.00239663,-0.00670046,-0.728516,0.00544461,0.044865,664,1079,-15.034,-0.955081
-553,-55,-14.9091,1.06018,-0.000938984,-0.0021145,-0.00209047,0.000644779,-0.00369826,-0.648355,0.00270616,0.0448575,671,1079,-14.909,-1.06018
-546,-55,-14.9456,0.885254,-0.000207171,-0.00135538,0.000773757,0.000182206,-0.00174475,0.466228,0.00122842,0.0405997,678,1079,-14.9455,-0.885226
-539,-55,-15.1102,0.738159,0.000380384,-0.00041465,0.00343881,0.00344457,-0.00347884,0.727855,0.00399725,0.0380266,685,1079,-15.1102,-0.738146
-532,-55,-15.1194,0.756592,-0.000142734,0.000329389,0.00371466,0.00381548,-0.00362882,0.81713,0.00429842,0.0359114,692,1079,-15.1194,-0.756539
-525,-55,0,0,0,0,0,0,0,0,0,-1,699,1079,0,0
-518,-55,0,0,0,0,0,0,0,0,0,-1,706,1079,0,0
-511,-55,0,0,0,0,0,0,0,0,0,-1,713,1079,0,0
-504,-55,0,0,0,0,0,0,0,0,0,-1,720,1079,0,0
-497,-55,0,0,0,0,0,0,0,0,0,-1,727,1079,0,0
-490,-55,0,0,0,0,0,0,0,0,0,-1,734,1079,0,0
-483,-55,0,0,0,0,0,0,0,0,0,-1,741,1079,0,0
-476,-55,0,0,0,0,0,0,0,0,0,-1,748,1079,0,0
-469,-55,0,0,0,0,0,0,0,0,0,-1,755,1079,0,0
-462,-55,0,0,0,0,0,0,0,0,0,-1,762,1079,0,0
-455,-55,0,0,0,0,0,0,0,0,0,-1,769,1079,0,0
-448,-55,0,0,0,0,0,0,0,0,0,-1,776,1079,0,0
-441,-55,0,0,0,0,0,0,0,0,0,-1,783,1079,0,0
-434,-55,0,0,0,0,0,0,0,0,0,-1,790,1079,0,0
-427,-55,0,0,0,0,0,0,0,0,0,-1,797,1079,0,0
-420,-55,0,0,0,0,0,0,0,0,0,-1,804,1079,0,0
-413,-55,0,0,0,0,0,0,0,0,0,-1,811,1079,0,0
-406,-55,0,0,0,0,0,0,0,0,0,-1,818,1079,0,0
-399,-55,0,0,0,0,0,0,0,0,0,-1,825,1079,0,0
-392,-55,0,0,0,0,0,0,0,0,0,-1,832,1079,0,0
-385,-55,0,0,0,0,0,0,0,0,0,-1,839,1079,0,0
-378,-55,0,0,0,0,0,0,0,0,0,-1,846,1079,0,0
-371,-55,0,0,0,0,0,0,0,0,0,-1,853,1079,0,0
-364,-55,0,0,0,0,0,0,0,0,0,-1,860,1079,0,0
-357,-55,0,0,0,0,0,0,0,0,0,-1,867,1079,0,0
-350,-55,0,0,0,0,0,0,0,0,0,-1,874,1079,0,0
-343,-55,0,0,0,0,0,0,0,0,0,-1,881,1079,0,0
-336,-55,0,0,0,0,0,0,0,0,0,-1,888,1079,0,0
-329,-55,0,0,0,0,0,0,0,0,0,-1,895,1079,0,0
-322,-55,0,0,0,0,0,0,0,0,0,-1,902,1079,0,0
-315,-55,0,0,0,0,0,0,0,0,0,-1,909,1079,0,0
-308,-55,0,0,0,0,0,0,0,0,0,-1,916,1079,0,0
-301,-55,0,0,0,0,0,0,0,0,0,-1,923,1079,0,0
-294,-55,0,0,0,0,0,0,0,0,0,-1,930,1079,0,0
-287,-55,0,0,0,0,0,0,0,0,0,-1,937,1079,0,0
-280,-55,0,0,0,0,0,0,0,0,0,-1,944,1079,0,0
-273,-55,0,0,0,0,0,0,0,0,0,-1,951,1079,0,0
-266,-55,0,0,0,0,0,0,0,0,0,-1,958,1079,0,0
-259,-55,0,0,0,0,0,0,0,0,0,-1,965,1079,0,0
-252,-55,0,0,0,0,0,0,0,0,0,-1,972,1079,0,0
-245,-55,0,0,0,0,0,0,0,0,0,-1,979,1079,0,0
-238,-55,0,0,0,0,0,0,0,0,0,-1,986,1079,0,0
-231,-55,0,0,0,0,0,0,0,0,0,-1,993,1079,0,0
-224,-55,0,0,0,0,0,0,0,0,0,-1,1000,1079,0,0
-217,-55,0,0,0,0,0,0,0,0,0,-1,1007,1079,0,0
-210,-55,0,0,0,0,0,0,0,0,0,-1,1014,1079,0,0
-203,-55,0,0,0,0,0,0,0,0,0,-1,1021,1079,0,0
-196,-55,0,0,0,0,0,0,0,0,0,-1,1028,1079,0,0
-189,-55,0,0,0,0,0,0,0,0,0,-1,1035,1079,0,0
-182,-55,0,0,0,0,0,0,0,0,0,-1,1042,1079,0,0
-175,-55,0,0,0,0,0,0,0,0,0,-1,1049,1079,0,0
-168,-55,0,0,0,0,0,0,0,0,0,-1,1056,1079,0,0
-161,-55,0,0,0,0,0,0,0,0,0,-1,1063,1079,0,0
-154,-55,0,0,0,0,0,0,0,0,0,-1,1070,1079,0,0
-147,-55,0,0,0,0,0,0,0,0,0,-1,1077,1079,0,0
-140,-55,0,0,0,0,0,0,0,0,0,-1,1084,1079,0,0
-133,-55,0,0,0,0,0,0,0,0,0,-1,1091,1079,0,0
-126,-55,0,0,0,0,0,0,0,0,0,-1,1098,1079,0,0
-119,-55,0,0,0,0,0,0,0,0,0,-1,1105,1079,0,0
-112,-55,0,0,0,0,0,0,0,0,0,-1,1112,1079,0,0
-105,-55,0,0,0,0,0,0,0,0,0,-1,1119,1079,0,0
-98,-55,0,0,0,0,0,0,0,0,0,-1,1126,1079,0,0
-91,-55,0,0,0,0,0,0,0,0,0,-1,1133,1079,0,0
-84,-55,0,0,0,0,0,0,0,0,0,-1,1140,1079,0,0
-77,-55,0,0,0,0,0,0,0,0,0,-1,1147,1079,0,0
-70,-55,0,0,0,0,0,0,0,0,0,-1,1154,1079,0,0
-63,-55,0,0,0,0,0,0,0,0,0,-1,1161,1079,0,0
-56,-55,0,0,0,0,0,0,0,0,0,-1,1168,1079,0,0
-49,-55,0,0,0,0,0,0,0,0,0,-1,1175,1079,0,0
-42,-55,0,0,0,0,0,0,0,0,0,-1,1182,1079,0,0
-35,-55,0,0,0,0,0,0,0,0,0,-1,1189,1079,0,0
-28,-55,0,0,0,0,0,0,0,0,0,-1,1196,1079,0,0
-21,-55,0,0,0,0,0,0,0,0,0,-1,1203,1079,0,0
-14,-55,0,0,0,0,0,0,0,0,0,-1,1210,1079,0,0
-7,-55,0,0,0,0,0,0,0,0,0,-1,1217,1079,0,0
0,-55,0,0,0,0,0,0,0,0,0,-1,1224,1079,0,0
7,-55,0,0,0,0,0,0,0,0,0,-1,1231,1079,0,0
14,-55,0,0,0,0,0,0,0,0,0,-1,1238,1079,0,0
21,-55,0,0,0,0,0,0,0,0,0,-1,1245,1079,0,0
28,-55,0,0,0,0,0,0,0,0,0,-1,1252,1079,0,0
35,-55,0,0,0,0,0,0,0,0,0,-1,1259,1079,0,0
42,-55,0,0,0,0,0,0,0,0,0,-1,1266,1079,0,0
49,-55,0,0,0,0,0,0,0,0,0,-1,1273,1079,0,0
56,-55,0,0,0,0,0,0,0,0,0,-1,1280,1079,0,0
63,-55,0,0,0,0,0,0,0,0,0,-1,1287,1079,0,0
70,-55,0,0,0,0,0,0,0,0,0,-1,1294,1079,0,0
77,-55,0,0,0,0,0,0,0,0,0,-1,1301,1079,0,0
84,-55,0,0,0,0,0,0,0,0,0,-1,1308,1079,0,0
91,-55,0,0,0,0,0,0,0,0,0,-1,1315,1079,0,0
98,-55,0,0,0,0,0,0,0,0,0,-1,1322,1079,0,0
105,-55,0,0,0,0,0,0,0,0,0,-1,1329,1079,0,0
112,-55,0,0,0,0,0,0,0,0,0,-1,1336,1079,0,0
119,-55,0,0,0,0,0,0,0,0,0,-1,1343,1079,0,0
126,-55,0,0,0,0,0,0,0,0,0,-1,1350,1079,0,0
133,-55,0,0,0,0,0,0,0,0,0,-1,1357,1079,0,0
140,-55,0,0,0,0,0,0,0,0,0,-1,1364,1079,0,0
147,-55,0,0,0,0,0,0,0,0,0,-1,1371,1079,0,0
154,-55,0,0,0,0,0,0,0,0,0,-1,1378,1079,0,0
161,-55,0,0,0,0,0,0,0,0,0,-1,1385,1079,0,0
168,-55,0,0,0,0,0,0,0,0,0,-1,1392,1079,0,0
175,-55,0,0,0,0,0,0,0,0,0,-1,1399,1079,0,0
182,-55,0,0,0,0,0,0,0,0,0,-1,1406,1079,0,0
189,-55,0,0,0,0,0,0,0,0,0,-1,1413,1079,0,0
196,-55,0,0,0,0,0,0,0,0,0,-1,1420,1079,0,0
203,-55,0,0,0,0,0,0,0,0,0,-1,1427,1079,0,0
210,-55,0,0,0,0,0,0,0,0,0,-1,1434,1079,0,0
217,-55,0,0,0,0,0,0,0,0,0,-1,1441,1079,0,0
224,-55,0,0,0,0,0,0,0,0,0,-1,1448,1079,0,0
231,-55,0,0,0,0,0,0,0,0,0,-1,1455,1079,0,0
238,-55,0,0,0,0,0,0,0,0,0,-1,1462,1079,0,0
245,-55,0,0,0,0,0,0,0,0,0,-1,1469,1079,0,0
252,-55,0,0,0,0,0,0,0,0,0,-1,1476,1079,0,0
259,-55,0,0,0,0,0,0,0,0,0,-1,1483,1079,0,0
266,-55,0,0,0,0,0,0,0,0,0,-1,1490,1079,0,0
273,-55,0,0,0,0,0,0,0,0,0,-1,1497,1079,0,0
280,-55,0,0,0,0,0,0,0,0,0,-1,1504,1079,0,0
287,-55,0,0,0,0,0,0,0,0,0,-1,1511,1079,0,0
294,-55,0,0,0,0,0,0,0,0,0,-1,1518,1079,0,0
301,-55,0,0,0,0,0,0,0,0,0,-1,1525,1079,0,0
308,-55,0,0,0,0,0,0,0,0,0,-1,1532,1079,0,0
315,-55,0,0,0,0,0,0,0,0,0,-1,1539,1079,0,0
322,-55,0,0,0,0,0,0,0,0,0,-1,1546,1079,0,0
329,-55,0,0,0,0,0,0,0,0,0,-1,1553,1079,0,0
336,-55,0,0,0,0,0,0,0,0,0,-1,1560,1079,0,0
343,-55,0,0,0,0,0,0,0,0,0,-1,1567,1079,0,0
350,-55,0,0,0,0,0,0,0,0,0,-1,1574,1079,0,0
357,-55,0,0,0,0,0,0,0,0,0,-1,1581,1079,0,0
364,-55,0,0,0,0,0,0,0,0,0,-1,1588,1079,0,0
371,-55,0,0,0,0,0,0,0,0,0,-1,1595,1079,0,0
378,-55,0,0,0,0,0,0,0,0,0,-1,1602,1079,0,0
385,-55,0,0,0,0,0,0,0,0,0,-1,1609,1079,0,0
392,-55,0,0,0,0,0,0,0,0,0,-1,1616,1079,0,0
399,-55,0,0,0,0,0,0,0,0,0,-1,1623,1079,0,0
406,-55,0,0,0,0,0,0,0,0,0,-1,1630,1079,0,0
413,-55,0,0,0,0,0,0,0,0,0,-1,1637,1079,0,0
420,-55,0,0,0,0,0,0,0,0,0,-1,1644,1079,0,0
427,-55,0,0,0,0,0,0,0,0,0,-1,1651,1079,0,0
434,-55,0,0,0,0,0,0,0,0,0,-1,1658,1079,0,0
441,-55,0,0,0,0,0,0,0,0,0,-1,1665,1079,0,0
448,-55,0,0,0,0,0,0,0,0,0,-1,1672,1079,0,0
455,-55,0,0,0,0,0,0,0,0,0,-1,1679,1079,0,0
462,-55,0,0,0,0,0,0,0,0,0,-1,1686,1079,0,0
469,-55,0,0,0,0,0,0,0,0,0,-1,1693,1079,0,0
476,-55,0,0,0,0,0,0,0,0,0,-1,1700,1079,0,0
483,-55,0,0,0,0,0,0,0,0,0,-1,1707,1079,0,0
490,-55,0,0,0,0,0,0,0,0,0,-1,1714,1079,0,0
497,-55,0,0,0,0,0,0,0,0,0,-1,1721,1079,0,0
504,-55,0,0,0,0,0,0,0,0,0,-1,1728,1079,0,0
511,-55,0,0,0,0,0,0,0,0,0,-1,1735,1079,0,0
518,-55,0,0,0,0,0,0,0,0,0,-1,1742,1079,0,0
525,-55,0,0,0,0,0,0,0,0,0,-1,1749,1079,0,0
532,-55,0,0,0,0,0,0,0,0,0,-1,1756,1079,0,0
539,-55,0,0,0,0,0,0,0,0,0,-1,1763,1079,0,0
546,-55,0,0,0,0,0,0,0,0,0,-1,1770,1079,0,0
553,-55,0,0,0,0,0,0,0,0,0,-1,1777,1079,0,0
560,-55,0,0,0,0,0,0,0,0,0,-1,1784,1079,0,0
567,-55,0,0,0,0,0,0,0,0,0,-1,1791,1079,0,0
574,-55,0,0,0,0,0,0,0,0,0,-1,1798,1079,0,0
581,-55,0,0,0,0,0,0,0,0,0,-1,1805,1079,0,0
588,-55,0,0,0,0,0,0,0,0,0,-1,1812,1079,0,0
595,-55,0,0,0,0,0,0,0,0,0,-1,1819,1079,0,0
602,-55,0,0,0,0,0,0,0,0,0,-1,1826,1079,0,0
609,-55,0,0,0,0,0,0,0,0,0,-1,1833,1079,0,0
616,-55,0,0,0,0,0,0,0,0,0,-1,1840,1079,0,0
623,-55,0,0,0,0,0,0,0,0,0,-1,1847,1079,0,0
630,-55,0,0,0,0,0,0,0,0,0,-1,1854,1079,0,0
637,-55,0,0,0,0,0,0,0,0,0,-1,1861,1079,0,0
644,-55,0,0,0,0,0,0,0,0,0,-1,1868,1079,0,0
651,-55,22.7045,2.75098,0.00128478,6.65778e-05,0.000861074,0.00173041,-0.00037905,0.47757,0.00129853,0.0358975,1875,1079,22.7045,-2.75102
658,-55,22.6267,2.95203,0.00212599,-0.000280701,-0.000117012,0.00213167,-0.000286377,-0.0484669,0.00152556,0.0365532,1882,1079,22.6268,-2.95203
665,-55,22.5559,2.93188,0.00236698,-0.00056782,-0.000712148,0.00253066,-0.000731498,-0.225914,0.00197659,0.0413524,1889,1079,22.556,-2.93184
672,-55,22.7467,2.85803,0.00225653,-0.000818359,-0.000166874,0.00226556,-0.000827389,-0.0540583,0.00184894,0.0404157,1896,1079,22.7466,-2.85799
679,-55,22.6964,2.61877,0.00168941,-0.00105163,0.00123578,0.00216428,-0.0015265,0.366873,0.00214145,0.0365886,1903,1079,22.6964,-2.61878
686,-55,22.6293,2.5282,0.000869371,-0.00125427,0.0027524,0.00275767,-0.00314256,0.601305,0.00340891,0.0378354,1910,1079,22.6293,-2.52822
693,-55,22.6853,2.69409,0.000130945,-0.00138305,0.00414757,0.00359004,-0.00484214,0.695134,0.00488618,0.0383194,1917,1079,22.6853,-2.69407
700,-55,22.7013,2.79797,-0.000496674,-0.00140227,0.00526306,0.00433303,-0.00623197,0.742487,0.00613246,0.0333386,1924,1079,22.7013,-2.79797
707,-55,22.6782,2.74341,-0.000878721,-0.00136262,0.00596706,0.0048513,-0.00709264,0.765135,0.00693619,0.027894,1931,1079,22.6782,-2.74343
714,-55,22.6597,2.84131,-0.00131405,-0.00124765,0.00639613,0.00511536,-0.00767707,0.787994,0.00743491,0.0324621,1938,1079,22.6597,-2.84132
721,-55,22.5397,3.68542,-0.0018103,-0.00108157,0.00658594,0.00515007,-0.00804195,0.813032,0.00767718,0.041592,1945,1079,22.5397,-3.68546
728,-55,22.1854,4.24268,0,0,0,0,0,0,0,-1,1952,1079,22.1854,-4.24269
735,-55,22.1185,4.21106,-0.00233117,-0.000303564,0.00629394,0.0050577,-0.00769243,0.86525,0.0074135,0.0161666,1959,1079,22.1185,-4.21105
742,-55,22.1113,4.17505,-0.00216982,0.000282207,0.00540675,0.00460021,-0.00648782,0.896891,0.00643252,0.0159276,1966,1079,22.1113,-4.17509
749,-55,22.1686,4.10999,-0.0012617,0.00107069,0.00441045,0.00446652,-0.00465753,0.914648,0.00526816,0.0120883,1973,1079,22.1686,-4.10997
756,-55,22.1371,4.06812,0.000662758,0.00210048,0.00422898,0.00567127,-0.00290803,0.869586,0.00503817,0.0112439,1980,1079,22.1371,-4.06808
763,-55,22.1083,4.04846,0.00335106,0.00259468,0.00421979,0.00720957,-0.00126383,0.740706,0.00527834,0.0148931,1987,1079,22.1083,-4.04847
770,-55,22.1091,3.98962,0.0065477,0.00351755,0.00429825,0.00959008,0.000475166,0.615954,0.00624103,0.0153934,1994,1079,22.1091,-3.98967
777,-55,22.0898,3.9303,0.0111148,0.00449598,0.00544494,0.0141772,0.00143362,0.512331,0.00901168,0.0122526,2001,1079,22.0898,-3.9303
784,-55,22.1117,3.82715,0.0171231,0.00528723,0.00819434,0.021313,0.00109728,0.472664,0.0138574,0.0288222,2008,1079,22.1117,-3.82712
791,-55,22.1237,3.71521,0.02468,0.00583093,0.0121105,0.030601,-9.00775e-05,0.454741,0.0204308,0.0431055,2015,1079,22.1236,-3.7152
798,-55,21.4923,4.29077,0.0345989,0.00588992,0.0175264,0.0428989,-0.0024101,0.442282,0.0294355,0.0451267,2022,1079,21.4922,-4.2908
805,-55,22.3438,3.27405,0.0474689,0.00518331,0.0248577,0.0589592,-0.00630704,0.432991,0.0415683,0.0455631,2029,1079,22.3436,-3.27399
812,-55,22.1992,4.23254,0.0637858,0.00325844,0.0346386,0.0795191,-0.0124749,0.426353,0.0576229,0.0468641,2036,1079,22.1993,-4.23254
-700,-62,-19.0443,0.755859,0.135426,0.081546,-0.0148816,0.139263,0.077709,-0.252343,0.0805835,0.0492096,524,1086,-19.0443,-0.755912
-693,-62,-18.2467,0.983154,0,0,0,0,0,0,0,-1,531,1086,-18.2467,-0.983163
-686,-62,-17.4839,-0.0211182,0,0,0,0,0,0,0,-1,538,1086,-17.4839,0.0210918
-679,-62,-16.399,0.219116,0,0,0,0,0,0,0,-1,545,1086,-16.3991,-0.219097
-672,-62,-15.2967,0.461426,0,0,0,0,0,0,0,-1,552,1086,-15.2967,-0.46141
-665,-62,-14.4232,0.0065918,0.0307233,0.0328103,6.06804e-05,0.032812,0.0307215,1.54175,0.0212122,0.0488158,559,1086,-14.4232,-0.00655805
-658,-62,-14.6689,0.544922,0.019864,0.0246418,0.00149819,0.0250727,0.0194331,1.29072,0.0151884,0.0483029,566,1086,-14.6689,-0.544907
-651,-62,-14.8774,1.07043,0,0,0,0,0,0,0,-1,573,1086,-14.8774,-1.07042
-644,-62,-14.7484,1.36829,0.00507845,0.0125516,0.00240089,0.0132565,0.0043736,1.28524,0.00779982,0.0114953,580,1086,-14.7483,-1.36834
-637,-62,-14.7513,1.46375,0.000967945,0.00780876,0.00165325,0.00818736,0.00058935,1.34568,0.00527278,0.010369,587,1086,-14.7513,-1.4637
-630,-62,-14.7597,1.55945,-0.000782631,0.00363817,-0.000105513,0.00364069,-0.000785148,-1.54695,0.00272679,0.0119862,594,1086,-14.7597,-1.5595
-623,-62,-14.7649,1.65503,-0.00250229,0.00102506,-0.00197901,0.00191224,-0.00338947,-1.14936,0.00310029,0.0136626,601,1086,-14.7649,-1.65503
-616,-62,-14.7489,1.72705,-0.00337087,-9.41098e-05,-0.004073,0.00265768,-0.00612266,-0.976622,0.00519925,0.0132803,608,1086,-14.7489,-1.72705
-609,-62,-14.7468,1.81006,-0.00328185,-0.000972793,-0.00579899,0.00378548,-0.00804012,-0.883659,0.00697326,0.0128074,615,1086,-14.7468,-1.8101
-602,-62,-14.7451,1.8866,-0.00327552,-0.00185905,-0.00748997,0.0049561,-0.0100907,-0.832537,0.00885424,0.0137351,622,1086,-14.7451,-1.88656
-595,-62,-14.6965,1.96228,-0.00351904,-0.00265423,-0.008573,0.00549726,-0.0116705,-0.810596,0.0101232,0.0178612,629,1086,-14.6964,-1.96231
-588,-62,-14.7897,1.57117,-0.00359605,-0.0030727,-0.00885175,0.00552124,-0.01219,-0.800175,0.0104644,0.0285141,636,1086,-14.7896,-1.57115
-581,-62,-14.9864,1.01221,-0.00344166,-0.00323866,-0.0085755,0.00523594,-0.0119163,-0.791316,0.0101501,0.0339728,643,1086,-14.9864,-1.01224
-574,-62,-15.0677,0.853027,-0.00315972,-0.00330226,-0.00788475,0.00465408,-0.0111161,-0.780879,0.00935621,0.0346735,650,1086,-15.0677,-0.853005
-567,-62,-15.1526,0.926758,0,0,0,0,0,0,0,-1,657,1086,-15.1527,-0.926747
-560,-62,-14.9792,0.94458,-0.00184053,-0.00287978,-0.00476001,0.00242813,-0.00714844,-0.731031,0.00574856,0.042195,664,1086,-14.9792,-0.944597
-553,-62,-14.843,1.14014,-0.0008871,-0.00241648,-0.0024003,0.000867373,-0.00417096,-0.63119,0.00311034,0.0384381,671,1086,-14.8429,-1.14009
-546,-62,-15.0118,0.82019,0.000161519,-0.00180891,0.000411952,0.000244177,-0.00189157,0.198021,0.00134982,0.0323664,678,1086,-15.0118,-0.820179
-539,-62,-15.0028,0.70813,0.00111142,-0.00110356,0.00309868,0.00329458,-0.00328671,0.613769,0.00379971,0.0362004,685,1086,-15.0028,-0.708116
-532,-62,-14.9952,0.645142,0.000782006,-0.000809822,0.0033799,0.00345844,-0.00348626,0.669763,0.00400954,0.037195,692,1086,-14.9952,-0.645132
-525,-62,0,0,0,0,0,0,0,0,0,-1,699,1086,0,0
-518,-62,0,0,0,0,0,0,0,0,0,-1,706,1086,0,0
-511,-62,0,0,0,0,0,0,0,0,0,-1,713,1086,0,0
-504,-62,0,0,0,0,0,0,0,0,0,-1,720,1086,0,0
-497,-62,0,0,0,0,0,0,0,0,0,-1,727,1086,0,0
-490,-62,0,0,0,0,0,0,0,0,0,-1,734,1086,0,0
-483,-62,0,0,0,0,0,0,0,0,0,-1,741,1086,0,0
-476,-62,0,0,0,0,0,0,0,0,0,-1,748,1086,0,0
-469,-62,0,0,0,0,0,0,0,0,0,-1,755,1086,0,0
-462,-62,0,0,0,0,0,0,0,0,0,-1,762,1086,0,0
-455,-62,0,0,0,0,0,0,0,0,0,-1,769,1086,0,0
-448,-62,0,0,0,0,0,0,0,0,0,-1,776,1086,0,0
-441,-62,0,0,0,0,0,0,0,0,0,-1,783,1086,0,0
-434,-62,0,0,0,0,0,0,0,0,0,-1,790,1086,0,0
-427,-62,0,0,0,0,0,0,0,0,0,-1,797,1086,0,0
-420,-62,0,0,0,0,0,0,0,0,0,-1,804,1086,0,0
-413,-62,0,0,0,0,0,0,0,0,0,-1,811,1086,0,0
-406,-62,0,0,0,0,0,0,0,0,0,-1,818,1086,0,0
-399,-62,0,0,0,0,0,0,0,0,0,-1,825,1086,0,0
-392,-62,0,0,0,0,0,0,0,0,0,-1,832,1086,0,0
-385,-62,0,0,0,0,0,0,0,0,0,-1,839,1086,0,0
-378,-62,0,0,0,0,0,0,0,0,0,-1,846,1086,0,0
-371,-62,0,0,0,0,0,0,0,0,0,-1,853,1086,0,0
-364,-62,0,0,0,0,0,0,0,0,0,-1,860,1086,0,0
-357,-62,0,0,0,0,0,0,0,0,0,-1,867,1086,0,0
-350,-62,0,0,0,0,0,0,0,0,0,-1,874,1086,0,0
-343,-62,0,0,0,0,0,0,0,0,0,-1,881,1086,0,0
-336,-62,0,0,0,0,0,0,0,0,0,-1,888,1086,0,0
-329,-62,0,0,0,0,0,0,0,0,0,-1,895,1086,0,0
-322,-62,0,0,0,0,0,0,0,0,0,-1,902,1086,0,0
-315,-62,0,0,0,0,0,0,0,0,0,-1,909,1086,0,0
-308,-62,0,0,0,0,0,0,0,0,0,-1,916,1086,0,0
-301,-62,0,0,0,0,0,0,0,0,0,-1,923,1086,0,0
-294,-62,0,0,0,0,0,0,0,0,0,-1,930,1086,0,0
-287,-62,0,0,0,0,0,0,0,0,0,-1,937,1086,0,0
-280,-62,0,0,0,0,0,0,0,0,0,-1,944,1086,0,0
-273,-62,0,0,0,0,0,0,0,0,0,-1,951,1086,0,0
-266,-62,0,0,0,0,0,0,0,0,0,-1,958,1086,0,0
-259,-62,0,0,0,0,0,0,0,0,0,-1,965,1086,0,0
-252,-62,0,0,0,0,0,0,0,0,0,-1,972,1086,0,0
-245,-62,0,0,0,0,0,0,0,0,0,-1,979,1086,0,0
-238,-62,0,0,0,0,0,0,0,0,0,-1,986,1086,0,0
-231,-62,0,0,0,0,0,0,0,0,0,-1,993,1086,0,0
-224,-62,0,0,0,0,0,0,0,0,0,-1,1000,1086,0,0
-217,-62,0,0,0,0,0,0,0,0,0,-1,1007,1086,0,0
-210,-62,0,0,0,0,0,0,0,0,0,-1,1014,1086,0,0
-203,-62,0,0,0,0,0,0,0,0,0,-1,1021,1086,0,0
-196,-62,0,0,0,0,0,0,0,0,0,-1,1028,1086,0,0
-189,-62,0,0,0,0,0,0,0,0,0,-1,1035,1086,0,0
-182,-62,0,0,0,0,0,0,0,0,0,-1,1042,1086,0,0
-175,-62,0,0,0,0,0,0,0,0,0,-1,1049,1086,0,0
-168,-62,0,0,0,0,0,0,0,0,0,-1,1056,1086,0,0
-161,-62,0,0,0,0,0,0,0,0,0,-1,1063,1086,0,0
-154,-62,0,0,0,0,0,0,0,0,0,-1,1070,1086,0,0
-147,-62,0,0,0,0,0,0,0,0,0,-1,1077,1086,0,0
-140,-62,0,0,0,0,0,0,0,0,0,-1,1084,1086,0,0
-133,-62,0,0,0,0,0,0,0,0,0,-1,1091,1086,0,0
-126,-62,0,0,0,0,0,0,0,0,0,-1,1098,1086,0,0
-119,-62,0,0,0,0,0,0,0,0,0,-1,1105,1086,0,0
-112,-62,0,0,0,0,0,0,0,0,0,-1,1112,1086,0,0
-105,-62,0,0,0,0,0,0,0,0,0,-1,1119,1086,0,0
-98,-62,0,0,0,0,0,0,0,0,0,-1,1126,1086,0,0
-91,-62,0,0,0,0,0,0,0,0,0,-1,1133,1086,0,0
-84,-62,0,0,0,0,0,0,0,0,0,-1,1140,1086,0,0
-77,-62,0,0,0,0,0,0,0,0,0,-1,1147,1086,0,0
-70,-62,0,0,0,0,0,0,0,0,0,-1,1154,1086,0,0
-63,-62,0,0,0,0,0,0,0,0,0,-1,1161,1086,0,0
-56,-62,0,0,0,0,0,0,0,0,0,-1,1168,1086,0,0
-49,-62,0,0,0,0,0,0,0,0,0,-1,1175,1086,0,0
-42,-62,0,0,0,0,0,0,0,0,0,-1,1182,1086,0,0
-35,-62,0,0,0,0,0,0,0,0,0,-1,1189,1086,0,0
-28,-62,0,0,0,0,0,0,0,0,0,-1,1196,1086,0,0
-21,-62,0,0,0,0,0,0,0,0,0,-1,1203,1086,0,0
-14,-62,0,0,0,0,0,0,0,0,0,-1,1210,1086,0,0
-7,-62,0,0,0,0,0,0,0,0,0,-1,1217,1086,0,0
0,-62,0,0,0,0,0,0,0,0,0,-1,1224,1086,0,0
7,-62,0,0,0,0,0,0,0,0,0,-1,1231,1086,0,0
14,-62,0,0,0,0,0,0,0,0,0,-1,1238,1086,0,0
21,-62,0,0,0,0,0,0,0,0,0,-1,1245,1086,0,0
28,-62,0,0,0,0,0,0,0,0,0,-1,1252,1086,0,0
35,-62,0,0,0,0,0,0,0,0,0,-1,1259,1086,0,0
42,-62,0,0,0,0,0,0,0,0,0,-1,1266,1086,0,0
49,-62,0,0,0,0,0,0,0,0,0,-1,1273,1086,0,0
56,-62,0,0,0,0,0,0,0,0,0,-1,1280,1086,0,0
63,-62,0,0,0,0,0,0,0,0,0,-1,1287,1086,0,0
70,-62,0,0,0,0,0,0,0,0,0,-1,1294,1086,0,0
77,-62,0,0,0,0,0,0,0,0,0,-1,1301,1086,0,0
84,-62,0,0,0,0,0,0,0,0,0,-1,1308,1086,0,0
91,-62,0,0,0,0,0,0,0,0,0,-1,1315,1086,0,0
98,-62,0,0,0,0,0,0,0,0,0,-1,1322,1086,0,0
105,-62,0,0,0,0,0,0,0,0,0,-1,1329,1086,0,0
112,-62,0,0,0,0,0,0,0,0,0,-1,1336,1086,0,0
119,-62,0,0,0,0,0,0,0,0,0,-1,1343,1086,0,0
126,-62,0,0,0,0,0,0,0,0,0,-1,1350,1086,0,0
133,-62,0,0,0,0,0,0,0,0,0,-1,1357,1086,0,0
140,-62,0,0,0,0,0,0,0,0,0,-1,1364,1086,0,0
147,-62,0,0,0,0,0,0,0,0,0,-1,1371,1086,0,0
154,-62,0,0,0,0,0,0,0,0,0,-1,1378,1086,0,0
161,-62,0,0,0,0,0,0,0,0,0,-1,1385,1086,0,0
168,-62,0,0,0,0,0,0,0,0,0,-1,1392,1086,0,0
175,-62,0,0,0,0,0,0,0,0,0,-1,1399,1086,0,0
182,-62,0,0,0,0,0,0,0,0,0,-1,1406,1086,0,0
189,-62,0,0,0,0,0,0,0,0,0,-1,1413,1086,0,0
196,-62,0,0,0,0,0,0,0,0,0,-1,1420,1086,0,0
203,-62,0,0,0,0,0,0,0,0,0,-1,1427,1086,0,0
210,-62,0,0,0,0,0,0,0,0,0,-1,1434,1086,0,0
217,-62,0,0,0,0,0,0,0,0,0,-1,1441,1086,0,0
224,-62,0,0,0,0,0,0,0,0,0,-1,1448,1086,0,0
231,-62,0,0,0,0,0,0,0,0,0,-1,1455,1086,0,0
238,-62,0,0,0,0,0,0,0,0,0,-1,1462,1086,0,0
245,-62,0,0,0,0,0,0,0,0,0,-1,1469,1086,0,0
252,-62,0,0,0,0,0,0,0,0,0,-1,1476,1086,0,0
259,-62,0,0,0,0,0,0,0,0,0,-1,1483,1086,0,0
266,-62,0,0,0,0,0,0,0,0,0,-1,1490,1086,0,0
273,-62,0,0,0,0,0,0,0,0,0,-1,1497,1086,0,0
280,-62,0,0,0,0,0,0,0,0,0,-1,1504,1086,0,0
287,-62,0,0,0,0,0,0,0,0,0,-1,1511,1086,0,0
294,-62,0,0,0,0,0,0,0,0,0,-1,1518,1086,0,0
301,-62,0,0,0,0,0,0,0,0,0,-1,1525,1086,0,0
308,-62,0,0,0,0,0,0,0,0,0,-1,1532,1086,0,0
315,-62,0,0,0,0,0,0,0,0,0,-1,1539,1086,0,0
322,-62,0,0,0,0,0,0,0,0,0,-1,1546,1086,0,0
329,-62,0,0,0,0,0,0,0,0,0,-1,1553,1086,0,0
336,-62,0,0,0,0,0,0,0,0,0,-1,1560,1086,0,0
343,-62,0,0,0,0,0,0,0,0,0,-1,1567,1086,0,0
350,-62,0,0,0,0,0,0,0,0,0,-1,1574,1086,0,0
357,-62,0,0,0,0,0,0,0,0,0,-1,1581,1086,0,0
364,-62,0,0,0,0,0,0,0,0,0,-1,1588,1086,0,0
371,-62,0,0,0,0,0,0,0,0,0,-1,1595,1086,0,0
378,-62,0,0,0,0,0,0,0,0,0,-1,1602,1086,0,0
385,-62,0,0,0,0,0,0,0,0,0,-1,1609,1086,0,0
392,-62,0,0,0,0,0,0,0,0,0,-1,1616,1086,0,0
399,-62,0,0,0,0,0,0,0,0,0,-1,1623,1086,0,0
406,-62,0,0,0,0,0,0,0,0,0,-1,1630,1086,0,0
413,-62,0,0,0,0,0,0,0,0,0,-1,1637,1086,0,0
420,-62,0,0,0,0,0,0,0,0,0,-1,1644,1086,0,0
427,-62,0,0,0,0,0,0,0,0,0,-1,1651,1086,0,0
434,-62,0,0,0,0,0,0,0,0,0,-1,1658,1086,0,0
441,-62,0,0,0,0,0,0,0,0,0,-1,1665,1086,0,0
448,-62,0,0,0,0,0,0,0,0,0,-1,1672,1086,0,0
455,-62,0,0,0,0,0,0,0,0,0,-1,1679,1086,0,0
462,-62,0,0,0,0,0,0,0,0,0,-1,1686,1086,0,0
469,-62,0,0,0,0,0,0,0,0,0,-1,1693,1086,0,0
476,-62,0,0,0,0,0,0,0,0,0,-1,1700,1086,0,0
483,-62,0,0,0,0,0,0,0,0,0,-1,1707,1086,0,0
490,-62,0,0,0,0,0,0,0,0,0,-1,1714,1086,0,0
497,-62,0,0,0,0,0,0,0,0,0,-1,1721,1086,0,0
504,-62,0,0,0,0,0,0,0,0,0,-1,1728,1086,0,0
511,-62,0,0,0,0,0,0,0,0,0,-1,1735,1086,0,0
518,-62,0,0,0,0,0,0,0,0,0,-1,1742,1086,0,0
525,-62,0,0,0,0,0,0,0,0,0,-1,1749,1086,0,0
532,-62,0,0,0,0,0,0,0,0,0,-1,1756,1086,0,0
539,-62,0,0,0,0,0,0,0,0,0,-1,1763,1086,0,0
546,-62,0,0,0,0,0,0,0,0,0,-1,1770,1086,0,0
553,-62,0,0,0,0,0,0,0,0,0,-1,1777,1086,0,0
560,-62,0,0,0,0,0,0,0,0,0,-1,1784,1086,0,0
567,-62,0,0,0,0,0,0,0,0,0,-1,1791,1086,0,0
574,-62,0,0,0,0,0,0,0,0,0,-1,1798,1086,0,0
581,-62,0,0,0,0,0,0,0,0,0,-1,1805,1086,0,0
588,-62,0,0,0,0,0,0,0,0,0,-1,1812,1086,0,0
595,-62,0,0,0,0,0,0,0,0,0,-1,1819,1086,0,0
602,-62,0,0,0,0,0,0,0,0,0,-1,1826,1086,0,0
609,-62,0,0,0,0,0,0,0,0,0,-1,1833,1086,0,0
616,-62,0,0,0,0,0,0,0,0,0,-1,1840,1086,0,0
623,-62,0,0,0,0,0,0,0,0,0,-1,1847,1086,0,0
630,-62,0,0,0,0,0,0,0,0,0,-1,1854,1086,0,0
637,-62,0,0,0,0,0,0,0,0,0,-1,1861,1086,0,0
644,-62,0,0,0,0,0,0,0,0,0,-1,1868,1086,0,0
651,-62,22.5769,2.76465,0.00253887,0.0010615,0.000702387,0.0028195,0.000780868,0.380107,0.00168096,0.0390246,1875,1086,22.5769,-2.76469
658,-62,22.5212,2.74744,0.00292839,0.000525451,-0.000137438,0.00293622,0.000517615,-0.0569486,0.00180979,0.0404893,1882,1086,22.5212,-2.74747
665,-62,22.661,2.91211,0.00293336,5.63682e-05,-0.000675961,0.00308426,-9.45367e-05,-0.219643,0.0020884,0.0406172,1889,1086,22.661,-2.91216
672,-62,22.8096,2.92639,0.00257826,-0.0004066,-5.05907e-05,0.00257911,-0.000407457,-0.0169427,0.00187008,0.0389252,1896,1086,22.8095,-2.92635
679,-62,22.8208,2.5957,0.00181599,-0.000830736,0.00131271,0.00235663,-0.00137137,0.390679,0.00217727,0.036271,1903,1086,22.8208,-2.59565
686,-62,22.6564,2.4408,0.00086909,-0.00117647,0.00275589,0.00278587,-0.00309325,0.607714,0.00339586,0.0377563,1910,1086,22.6564,-2.44075
693,-62,22.6333,2.65259,5.34857e-05,-0.0014069,0.00406331,0.00345169,-0.0048051,0.696495,0.00478836,0.0382978,1917,1086,22.6333,-2.65262
700,-62,22.6635,2.76355,-0.000639012,-0.00148744,0.00508933,0.00404375,-0.0061702,0.743818,0.00593947,0.0334646,1924,1086,22.6635,-2.76355
707,-62,22.6357,2.69287,-0.00106794,-0.00150335,0.00573881,0.00445729,-0.00702858,0.766439,0.00668653,0.0253326,1931,1086,22.6357,-2.6929
714,-62,22.6835,2.72632,-0.00152341,-0.00143166,0.00613825,0.00466089,-0.00761596,0.789135,0.00715615,0.0275757,1938,1086,22.6835,-2.72635
721,-62,22.7045,3.64819,-0.00199449,-0.00128524,0.00630287,0.00467297,-0.00795271,0.813501,0.00737096,0.0392403,1945,1086,22.7044,-3.64824
728,-62,22.1215,4.27454,0,0,0,0,0,0,0,-1,1952,1086,22.1215,-4.27458
735,-62,22.0837,4.2124,-0.00244158,-0.000487127,0.00599358,0.00460837,-0.00753708,0.86621,0.00707981,0.0164243,1959,1086,22.0838,-4.21241
742,-62,22.066,4.19177,-0.00223253,0.00014958,0.00518272,0.00427635,-0.0063593,0.898343,0.00617962,0.0144096,1966,1086,22.0661,-4.19177
749,-62,22.0653,4.104,-0.00132597,0.000942074,0.00426373,0.00422001,-0.0046039,0.915374,0.0050961,0.0127974,1973,1086,22.0653,-4.10396
756,-62,22.0345,4.08728,0.000646669,0.00199343,0.00413626,0.00551076,-0.00287066,0.86609,0.00491839,0.013505,1980,1086,22.0345,-4.08727
763,-62,22.0364,4.02966,0.00360243,0.00256354,0.00416382,0.00727908,-0.00111311,0.723343,0.00526314,0.0143432,1987,1086,22.0364,-4.02968
770,-62,22.0347,3.95398,0.00708072,0.00356119,0.00426934,0.00993875,0.000703161,0.589914,0.00640433,0.0118212,1994,1086,22.0346,-3.95393
777,-62,22.0133,3.85352,0.0119873,0.00459387,0.00549804,0.0149158,0.00166532,0.489428,0.00943789,0.0131679,2001,1086,22.0133,-3.85346
784,-62,22.0122,3.78516,0.0184423,0.00547804,0.00818055,0.0223976,0.00152277,0.450358,0.0144509,0.0277156,2008,1086,22.0122,-3.7852
791,-62,21.7048,4.04883,0.0266882,0.00613668,0.0119497,0.0321728,0.000652134,0.430287,0.0212345,0.0415028,2015,1086,21.7048,-4.04887
798,-62,21.7662,3.97339,0.0376172,0.00637117,0.0171006,0.0451568,-0.00116846,0.41526,0.0305015,0.0449258,2022,1086,21.7663,-3.97338
805,-62,22.4353,4.28052,0.0519447,0.00592108,0.0239973,0.0621806,-0.00431485,0.403179,0.0429643,0.0448696,2029,1086,22.4354,-4.2805
812,-62,22.8132,4.80859,0.0703719,0.00437864,0.0331025,0.0841144,-0.00936391,0.3935,0.059444,0.0489598,2036,1086,22.8132,-4.80858
-700,-69,-19.8033,0.533447,0,0,0,0,0,0,0,-1,524,1093,-19.8033,-0.533412
-693,-69,-15.3636,0.770264,0,0,0,0,0,0,0,-1,531,1093,-15.3636,-0.770299
-686,-69,-14.4142,1.1355,0,0,0,0,0,0,0,-1,538,1093,-14.4142,-1.13544
-679,-69,-15.9606,0.0863037,0,0,0,0,0,0,0,-1,545,1093,-15.9606,-0.0862769
-672,-69,-14.9411,0.335449,0,0,0,0,0,0,0,-1,552,1093,-14.9411,-0.335507
-665,-69,-14.2456,1.55469,0.0257068,0.0339331,2.28953e-05,0.0339332,0.0257067,1.56801,0.0204395,0.0451332,559,1093,-14.2456,-1.55475
-658,-69,-14.4241,0.49231,0.0163598,0.025184,0.00127576,0.0253647,0.016179,1.43006,0.0148287,0.0472769,566,1093,-14.4241,-0.492317
-651,-69,-14.6556,1.26135,0.00961703,0.017961,0.00201183,0.0184208,0.00915729,1.34613,0.0106353,0.0304026,573,1093,-14.6556,-1.26141
-644,-69,-14.6573,1.35779,0.00372582,0.0124162,0.00207915,0.012888,0.00325401,1.34765,0.00773885,0.00910767,580,1093,-14.6573,-1.35774
-637,-69,-14.6684,1.47058,0.000234245,0.00744097,0.00140876,0.00770657,-3.13509e-05,1.38445,0.00514819,0.0116088,587,1093,-14.6684,-1.47062
-630,-69,-14.663,1.5415,-0.00136274,0.00324591,-0.000282496,0.00326317,-0.00137999,-1.5098,0.00275324,0.0136522,594,1093,-14.663,-1.54145
-623,-69,-14.6541,1.6261,-0.00296407,0.000546142,-0.00205824,0.00149599,-0.00391391,-1.13843,0.00322572,0.0130571,601,1093,-14.654,-1.62609
-616,-69,-14.6301,1.70117,-0.00378624,-0.00044108,-0.00411378,0.00232714,-0.00655446,-0.978481,0.00531788,0.0136902,608,1093,-14.6301,-1.70113
-609,-69,-14.6379,1.77014,-0.00377266,-0.00117535,-0.00575653,0.00342719,-0.0083752,-0.89634,0.00701088,0.0127893,615,1093,-14.638,-1.7701
-602,-69,-14.6373,1.89771,-0.00380159,-0.00193973,-0.00734899,0.00453706,-0.0102784,-0.8484,0.00876518,0.016481,622,1093,-14.6373,-1.89765
-595,-69,-14.5984,1.97693,-0.00408591,-0.0026828,-0.008378,0.00502297,-0.0117917,-0.82717,0.00996668,0.0193852,629,1093,-14.5984,-1.97698
-588,-69,-14.7408,1.71887,-0.00418103,-0.00311313,-0.0086478,0.00501719,-0.0123114,-0.816231,0.0102958,0.0263508,636,1093,-14.7408,-1.71886
-581,-69,-14.9465,1.13,-0.00397435,-0.00332168,-0.00840798,0.00476629,-0.0120623,-0.804795,0.0100158,0.0314998,643,1093,-14.9465,-1.13006
-574,-69,-15.0647,0.779785,-0.00359483,-0.00338297,-0.00779343,0.00430525,-0.011283,-0.792194,0.00929561,0.0309073,650,1093,-15.0647,-0.779763
-567,-69,-15.0089,0.787354,-0.00292434,-0.00329955,-0.00661465,0.00350536,-0.00972925,-0.771221,0.00791764,0.0364038,657,1093,-15.0088,-0.78733
-560,-69,-14.8407,0.893555,-0.00195174,-0.00305576,-0.00488643,0.00241376,-0.00742126,-0.729153,0.0059185,0.0391254,664,1093,-14.8407,-0.893565
-553,-69,-14.8746,0.869873,-0.000743815,-0.00267143,-0.00266525,0.00112654,-0.00454179,-0.611903,0.00346496,0.037078,671,1093,-14.8746,-0.869816
-546,-69,-14.9899,0.763916,0.000635535,-0.00216625,-9.39085e-06,0.000635567,-0.00216628,-0.00335168,0.00169621,0.0330542,678,1093,-14.9898,-0.763874
-539,-69,-14.8902,0.693604,0.00199956,-0.00158926,0.0025566,0.00332863,-0.00291832,0.479407,0.00360927,0.0362563,685,1093,-14.8902,-0.693543
-532,-69,-14.8117,0.622803,0.00199495,-0.00151803,0.0026544,0.0034214,-0.00294448,0.49311,0.00367878,0.0391805,692,1093,-14.8117,-0.622779
-525,-69,0,0,0,0,0,0,0,0,0,-1,699,1093,0,0
-518,-69,0,0,0,0,0,0,0,0,0,-1,706,1093,0,0
-511,-69,0,0,0,0,0,0,0,0,0,-1,713,1093,0,0
-504,-69,0,0,0,0,0,0,0,0,0,-1,720,1093,0,0
-497,-69,0,0,0,0,0,0,0,0,0,-1,727,1093,0,0
-490,-69,0,0,0,0,0,0,0,0,0,-1,734,1093,0,0
-483,-69,0,0,0,0,0,0,0,0,0,-1,741,1093,0,0
-476,-69,0,0,0,0,0,0,0,0,0,-1,748,1093,0,0
-469,-69,0,0,0,0,0,0,0,0,0,-1,755,1093,0,0
-462,-69,0,0,0,0,0,0,0,0,0,-1,762,1093,0,0
-455,-69,0,0,0,0,0,0,0,0,0,-1,769,1093,0,0
-448,-69,0,0,0,0,0,0,0,0,0,-1,776,1093,0,0
-441,-69,0,0,0,0,0,0,0,0,0,-1,783,1093,0,0
-434,-69,0,0,0,0,0,0,0,0,0,-1,790,1093,0,0
-427,-69,0,0,0,0,0,0,0,0,0,-1,797,1093,0,0
-420,-69,0,0,0,0,0,0,0,0,0,-1,804,1093,0,0
-413,-69,0,0,0,0,0,0,0,0,0,-1,811,1093,0,0
-406,-69,0,0,0,0,0,0,0,0,0,-1,818,1093,0,0
-399,-69,0,0,0,0,0,0,0,0,0,-1,825,1093,0,0
-392,-69,0,0,0,0,0,0,0,0,0,-1,832,1093,0,0
-385,-69,0,0,0,0,0,0,0,0,0,-1,839,1093,0,0
-378,-69,0,0,0,0,0,0,0,0,0,-1,846,1093,0,0
-371,-69,0,0,0,0,0,0,0,0,0,-1,853,1093,0,0
-364,-69,0,0,0,0,0,0,0,0,0,-1,860,1093,0,0
-357,-69,0,0,0,0,0,0,0,0,0,-1,867,1093,0,0
-350,-69,0,0,0,0,0,0,0,0,0,-1,874,1093,0,0
-343,-69,0,0,0,0,0,0,0,0,0,-1,881,1093,0,0
-336,-69,0,0,0,0,0,0,0,0,0,-1,888,1093,0,0
-329,-69,0,0,0,0,0,0,0,0,0,-1,895,1093,0,0
-322,-69,0,0,0,0,0,0,0,0,0,-1,902,1093,0,0
-315,-69,0,0,0,0,0,0,0,0,0,-1,909,1093,0,0
-308,-69,0,0,0,0,0,0,0,0,0,-1,916,1093,0,0
-301,-69,0,0,0,0,0,0,0,0,0,-1,923,1093,0,0
-294,-69,0,0,0,0,0,0,0,0,0,-1,930,1093,0,0
-287,-69,0,0,0,0,0,0,0,0,0,-1,937,1093,0,0
-280,-69,0,0,0,0,0,0,0,0,0,-1,944,1093,0,0
-273,-69,0,0,0,0,0,0,0,0,0,-1,951,1093,0,0
-266,-69,0,0,0,0,0,0,0,0,0,-1,958,1093,0,0
-259,-69,0,0,0,0,0,0,0,0,0,-1,965,1093,0,0
-252,-69,0,0,0,0,0,0,0,0,0,-1,972,1093,0,0
-245,-69,0,0,0,0,0,0,0,0,0,-1,979,1093,0,0
-238,-69,0,0,0,0,0,0,0,0,0,-1,986,1093,0,0
-231,-69,0,0,0,0,0,0,0,0,0,-1,993,1093,0,0
-224,-69,0,0,0,0,0,0,0,0,0,-1,1000,1093,0,0
-217,-69,0,0,0,0,0,0,0,0,0,-1,1007,1093,0,0
-210,-69,0,0,0,0,0,0,0,0,0,-1,1014,1093,0,0
-203,-69,0,0,0,0,0,0,0,0,0,-1,1021,1093,0,0
-196,-69,0,0,0,0,0,0,0,0,0,-1,1028,1093,0,0
-189,-69,0,0,0,0,0,0,0,0,0,-1,1035,1093,0,0
-182,-69,0,0,0,0,0,0,0,0,0,-1,1042,1093,0,0
-175,-69,0,0,0,0,0,0,0,0,0,-1,1049,1093,0,0
-168,-69,0,0,0,0,0,0,0,0,0,-1,1056,1093,0,0
-161,-69,0,0,0,0,0,0,0,0,0,-1,1063,1093,0,0
-154,-69,0,0,0,0,0,0,0,0,0,-1,1070,1093,0,0
-147,-69,0,0,0,0,0,0,0,0,0,-1,1077,1093,0,0
-140,-69,0,0,0,0,0,0,0,0,0,-1,1084,1093,0,0
-133,-69,0,0,0,0,0,0,0,0,0,-1,1091,1093,0,0
-126,-69,0,0,0,0,0,0,0,0,0,-1,1098,1093,0,0
-119,-69,0,0,0,0,0,0,0,0,0,-1,1105,1093,0,0
-112,-69,0,0,0,0,0,0,0,0,0,-1,1112,1093,0,0
-105,-69,0,0,0,0,0,0,0,0,0,-1,1119,1093,0,0
-98,-69,0,0,0,0,0,0,0,0,0,-1,1126,1093,0,0
-91,-69,0,0,0,0,0,0,0,0,0,-1,1133,1093,0,0
-84,-69,0,0,0,0,0,0,0,0,0,-1,1140,1093,0,0
-77,-69,0,0,0,0,0,0,0,0,0,-1,1147,1093,0,0
-70,-69,0,0,0,0,0,0,0,0,0,-1,1154,1093,0,0
-63,-69,0,0,0,0,0,0,0,0,0,-1,1161,1093,0,0
-56,-69,0,0,0,0,0,0,0,0,0,-1,1168,1093,0,0
-49,-69,0,0,0,0,0,0,0,0,0,-1,1175,1093,0,0
-42,-69,0,0,0,0,0,0,0,0,0,-1,1182,1093,0,0
-35,-69,0,0,0,0,0,0,0,0,0,-1,1189,1093,0,0
-28,-69,0,0,0,0,0,0,0,0,0,-1,1196,1093,0,0
-21,-69,0,0,0,0,0,0,0,0,0,-1,1203,1093,0,0
-14,-69,0,0,0,0,0,0,0,0,0,-1,1210,1093,0,0
-7,-69,0,0,0,0,0,0,0,0,0,-1,1217,1093,0,0
0,-69,0,0,0,0,0,0,0,0,0,-1,1224,1093,0,0
7,-69,0,0,0,0,0,0,0,0,0,-1,1231,1093,0,0
14,-69,0,0,0,0,0,0,0,0,0,-1,1238,1093,0,0
21,-69,0,0,0,0,0,0,0,0,0,-1,1245,1093,0,0
28,-69,0,0,0,0,0,0,0,0,0,-1,1252,1093,0,0
35,-69,0,0,0,0,0,0,0,0,0,-1,1259,1093,0,0
42,-69,0,0,0,0,0,0,0,0,0,-1,1266,1093,0,0
49,-69,0,0,0,0,0,0,0,0,0,-1,1273,1093,0,0
56,-69,0,0,0,0,0,0,0,0,0,-1,1280,1093,0,0
63,-69,0,0,0,0,0,0,0,0,0,-1,1287,1093,0,0
70,-69,0,0,0,0,0,0,0,0,0,-1,1294,1093,0,0
77,-69,0,0,0,0,0,0,0,0,0,-1,1301,1093,0,0
84,-69,0,0,0,0,0,0,0,0,0,-1,1308,1093,0,0
91,-69,0,0,0,0,0,0,0,0,0,-1,1315,1093,0,0
98,-69,0,0,0,0,0,0,0,0,0,-1,1322,1093,0,0
105,-69,0,0,0,0,0,0,0,0,0,-1,1329,1093,0,0
112,-69,0,0,0,0,0,0,0,0,0,-1,1336,1093,0,0
119,-69,0,0,0,0,0,0,0,0,0,-1,1343,1093,0,0
126,-69,0,0,0,0,0,0,0,0,0,-1,1350,1093,0,0
133,-69,0,0,0,0,0,0,0,0,0,-1,1357,1093,0,0
140,-69,0,0,0,0,0,0,0,0,0,-1,1364,1093,0,0
147,-69,0,0,0,0,0,0,0,0,0,-1,1371,1093,0,0
154,-69,0,0,0,0,0,0,0,0,0,-1,1378,1093,0,0
161,-69,0,0,0,0,0,0,0,0,0,-1,1385,1093,0,0
168,-69,0,0,0,0,0,0,0,0,0,-1,1392,1093,0,0
175,-69,0,0,0,0,0,0,0,0,0,-1,1399,1093,0,0
182,-69,0,0,0,0,0,0,0,0,0,-1,1406,1093,0,0
189,-69,0,0,0,0,0,0,0,0,0,-1,1413,1093,0,0
196,-69,0,0,0,0,0,0,0,0,0,-1,1420,1093,0,0
203,-69,0,0,0,0,0,0,0,0,0,-1,1427,1093,0,0
210,-69,0,0,0,0,0,0,0,0,0,-1,1434,1093,0,0
217,-69,0,0,0,0,0,0,0,0,0,-1,1441,1093,0,0
224,-69,0,0,0,0,0,0,0,0,0,-1,1448,1093,0,0
231,-69,0,0,0,0,0,0,0,0,0,-1,1455,1093,0,0
238,-69,0,0,0,0,0,0,0,0,0,-1,1462,1093,0,0
245,-69,0,0,0,0,0,0,0,0,0,-1,1469,1093,0,0
252,-69,0,0,0,0,0,0,0,0,0,-1,1476,1093,0,0
259,-69,0,0,0,0,0,0,0,0,0,-1,1483,1093,0,0
266,-69,0,0,0,0,0,0,0,0,0,-1,1490,1093,0,0
273,-69,0,0,0,0,0,0,0,0,0,-1,1497,1093,0,0
280,-69,0,0,0,0,0,0,0,0,0,-1,1504,1093,0,0
287,-69,0,0,0,0,0,0,0,0,0,-1,1511,1093,0,0
294,-69,0,0,0,0,0,0,0,0,0,-1,1518,1093,0,0
301,-69,0,0,0,0,0,0,0,0,0,-1,1525,1093,0,0
308,-69,0,0,0,0,0,0,0,0,0,-1,1532,1093,0,0
315,-69,0,0,0,0,0,0,0,0,0,-1,1539,1093,0,0
322,-69,0,0,0,0,0,0,0,0,0,-1,1546,1093,0,0
329,-69,0,0,0,0,0,0,0,0,0,-1,1553,1093,0,0
336,-69,0,0,0,0,0,0,0,0,0,-1,1560,1093,0,0
343,-69,0,0,0,0,0,0,0,0,0,-1,1567,1093,0,0
350,-69,0,0,0,0,0,0,0,0,0,-1,1574,1093,0,0
357,-69,0,0,0,0,0,0,0,0,0,-1,1581,1093,0,0
364,-69,0,0,0,0,0,0,0,0,0,-1,1588,1093,0,0
371,-69,0,0,0,0,0,0,0,0,0,-1,1595,1093,0,0
378,-69,0,0,0,0,0,0,0,0,0,-1,1602,1093,0,0
385,-69,0,0,0,0,0,0,0,0,0,-1,1609,1093,0,0
392,-69,0,0,0,0,0,0,0,0,0,-1,1616,1093,0,0
399,-69,0,0,0,0,0,0,0,0,0,-1,1623,1093,0,0
406,-69,0,0,0,0,0,0,0,0,0,-1,1630,1093,0,0
413,-69,0,0,0,0,0,0,0,0,0,-1,1637,1093,0,0
420,-69,0,0,0,0,0,0,0,0,0,-1,1644,1093,0,0
427,-69,0,0,0,0,0,0,0,0,0,-1,1651,1093,0,0
434,-69,0,0,0,0,0,0,0,0,0,-1,1658,1093,0,0
441,-69,0,0,0,0,0,0,0,0,0,-1,1665,1093,0,0
448,-69,0,0,0,0,0,0,0,0,0,-1,1672,1093,0,0
455,-69,0,0,0,0,0,0,0,0,0,-1,1679,1093,0,0
462,-69,0,0,0,0,0,0,0,0,0,-1,1686,1093,0,0
469,-69,0,0,0,0,0,0,0,0,0,-1,1693,1093,0,0
476,-69,0,0,0,0,0,0,0,0,0,-1,1700,1093,0,0
483,-69,0,0,0,0,0,0,0,0,0,-1,1707,1093,0,0
490,-69,0,0,0,0,0,0,0,0,0,-1,1714,1093,0,0
497,-69,0,0,0,0,0,0,0,0,0,-1,1721,1093,0,0
504,-69,0,0,0,0,0,0,0,0,0,-1,1728,1093,0,0
511,-69,0,0,0,0,0,0,0,0,0,-1,1735,1093,0,0
518,-69,0,0,0,0,0,0,0,0,0,-1,1742,1093,0,0
525,-69,0,0,0,0,0,0,0,0,0,-1,1749,1093,0,0
532,-69,0,0,0,0,0,0,0,0,0,-1,1756,1093,0,0
539,-69,0,0,0,0,0,0,0,0,0,-1,1763,1093,0,0
546,-69,0,0,0,0,0,0,0,0,0,-1,1770,1093,0,0
553,-69,0,0,0,0,0,0,0,0,0,-1,1777,1093,0,0
560,-69,0,0,0,0,0,0,0,0,0,-1,1784,1093,0,0
567,-69,0,0,0,0,0,0,0,0,0,-1,1791,1093,0,0
574,-69,0,0,0,0,0,0,0,0,0,-1,1798,1093,0,0
581,-69,0,0,0,0,0,0,0,0,0,-1,1805,1093,0,0
588,-69,0,0,0,0,0,0,0,0,0,-1,1812,1093,0,0
595,-69,0,0,0,0,0,0,0,0,0,-1,1819,1093,0,0
602,-69,0,0,0,0,0,0,0,0,0,-1,1826,1093,0,0
609,-69,0,0,0,0,0,0,0,0,0,-1,1833,1093,0,0
616,-69,0,0,0,0,0,0,0,0,0,-1,1840,1093,0,0
623,-69,0,0,0,0,0,0,0,0,0,-1,1847,1093,0,0
630,-69,0,0,0,0,0,0,0,0,0,-1,1854,1093,0,0
637,-69,0,0,0,0,0,0,0,0,0,-1,1861,1093,0,0
644,-69,0,0,0,0,0,0,0,0,0,-1,1868,1093,0,0
651,-69,22.0928,2.64856,0,0,0,0,0,0,0,-1,1875,1093,22.0927,-2.6485
658,-69,22.4817,2.74744,0.00358702,0.000644791,-0.000285599,0.00361449,0.000617324,-0.0958762,0.00223252,0.0435659,1882,1093,22.4817,-2.7475
665,-69,22.7028,2.85364,0.00336512,0.000149492,-0.000640764,0.00348809,2.65128e-05,-0.18962,0.00231661,0.0431004,1889,1093,22.7028,-2.85358
672,-69,22.683,2.83447,0.00273345,-0.000425861,0.000131635,0.00273893,-0.000431336,0.0415697,0.00198541,0.0391037,1896,1093,22.683,-2.83443
679,-69,22.7242,2.56897,0.00173107,-0.000979459,0.0014993,0.00239686,-0.00164525,0.417908,0.00234712,0.0375626,1903,1093,22.7243,-2.56898
686,-69,22.6798,2.59534,0.000630249,-0.00142758,0.00288632,0.00266556,-0.00346289,0.61418,0.00354823,0.0380913,1910,1093,22.6798,-2.59529
693,-69,22.6215,2.73132,-0.000280989,-0.00173591,0.00411144,0.00316686,-0.00518375,0.697837,0.00486787,0.0373656,1917,1093,22.6215,-2.73127
700,-69,22.6354,2.73853,-0.00105844,-0.00186392,0.00506074,0.00361556,-0.00653792,0.745691,0.0059425,0.0302955,1924,1093,22.6354,-2.73848
707,-69,22.6343,2.66064,-0.00154035,-0.0019152,0.00565533,0.00393066,-0.00738621,0.768833,0.00663456,0.0237262,1931,1093,22.6342,-2.66067
714,-69,22.6946,2.66846,-0.00200723,-0.00186508,0.00600883,0.0040731,-0.00794541,0.791312,0.00705792,0.0262571,1938,1093,22.6946,-2.66848
721,-69,22.6958,4.17749,0,0,0,0,0,0,0,-1,1945,1093,22.6957,-4.17747
728,-69,22.2361,4.22839,-0.00273684,-0.00140884,0.00605808,0.00402152,-0.0081672,0.839983,0.00717156,0.031537,1952,1093,22.2361,-4.22835
735,-69,22.0342,4.26929,-0.00277699,-0.000884275,0.00573733,0.00398422,-0.00764549,0.867136,0.00682442,0.0191369,1959,1093,22.0342,-4.26934
742,-69,22.0128,4.20044,-0.00252417,-0.000162565,0.00493111,0.00372715,-0.00641389,0.902915,0.00592303,0.014983,1966,1093,22.0128,-4.20046
749,-69,21.9473,4.12268,-0.00162712,0.000673824,0.00404021,0.00372418,-0.00467747,0.924104,0.00486109,0.0159859,1973,1093,21.9472,-4.1227
756,-69,21.9678,4.09448,0.000371667,0.00180039,0.00388957,0.00504066,-0.0028686,0.876217,0.00462345,0.0143473,1980,1093,21.9678,-4.09443
763,-69,21.9745,4.01367,0.00358741,0.00251508,0.00387526,0.00696342,-0.000860929,0.716657,0.00495425,0.0139837,1987,1093,21.9745,-4.01372
770,-69,21.9536,3.93323,0.00733479,0.00365916,0.00392594,0.00983179,0.00116217,0.566488,0.00620353,0.0135272,1994,1093,21.9536,-3.93321
777,-69,21.937,3.8269,0.0125159,0.00478925,0.00515272,0.0150927,0.0022124,0.463724,0.00941144,0.0179883,2001,1093,21.937,-3.82695
784,-69,21.9585,3.69348,0.01931,0.00579189,0.00769972,0.0227964,0.00230542,0.425183,0.0144904,0.0301783,2008,1093,21.9585,-3.69344
791,-69,21.9375,3.58972,0.0281905,0.00658053,0.011303,0.0330222,0.00174884,0.40396,0.0214556,0.0408555,2015,1093,21.9375,-3.5897
798,-69,22.1753,3.92859,0.040135,0.0070003,0.0162282,0.0467588,0.000376437,0.387529,0.0310478,0.0438173,2022,1093,22.1752,-3.92857
805,-69,22.6465,4.45886,0.0559963,0.00681042,0.0228284,0.0649585,-0.00215179,0.374103,0.0440404,0.0466155,2029,1093,22.6464,-4.45885
812,-69,23.1172,4.92749,0.0767153,0.00564356,0.031539,0.0886927,-0.00633379,0.36294,0.0613488,0.0475207,2036,1093,23.1172,-4.92744
-700,-76,0,0,0,0,0,0,0,0,0,-1,524,1100,0,0
-693,-76,-14.8347,0.644531,0,0,0,0,0,0,0,-1,531,1100,-14.8347,-0.644592
-686,-76,-14.6282,0.831421,0.0567256,0.0764201,-0.00777636,0.0791204,0.0540253,-1.23658,0.046687,0.047631,538,1100,-14.6282,-0.831433
-679,-76,-14.5936,0.98877,0.0416755,0.0622027,-0.00556137,0.0636126,0.0402656,-1.32251,0.0371572,0.0462497,545,1100,-14.5935,-0.988738
-672,-76,-14.3656,0.943848,0,0,0,0,0,0,0,-1,552,1100,-14.3656,-0.94382
-665,-76,-14.2226,0.790771,0.0195747,0.0373318,-0.00168363,0.03749,0.0194164,-1.47709,0.0216495,0.0469475,559,1100,-14.2226,-0.790766
-658,-76,-14.442,0.810669,0.0121133,0.0273222,-0.000254781,0.0273264,0.0121091,-1.55405,0.0158109,0.0453923,566,1100,-14.4419,-0.81073
-651,-76,-14.4943,1.10156,0.00678776,0.0191953,0.000730743,0.0192382,0.00674487,1.51217,0.0112713,0.027376,573,1100,-14.4943,-1.10154
-644,-76,-14.4998,1.35022,0.00211628,0.0130413,0.00104034,0.0131395,0.00201809,1.4767,0.00817049,0.00999298,580,1100,-14.4998,-1.35023
-637,-76,-14.5391,1.44385,-0.000674026,0.00751545,0.000679717,0.00757149,-0.000730058,1.48855,0.00530777,0.0132197,587,1100,-14.539,-1.44384
-630,-76,-14.5469,1.51294,-0.00205287,0.00305519,-0.000706578,0.00315113,-0.00214881,-1.43585,0.00307811,0.0146428,594,1100,-14.547,-1.51288
-623,-76,-14.5399,1.61682,-0.00342438,0.000279625,-0.00228256,0.00136701,-0.00451176,-1.12622,0.0035523,0.0137708,601,1100,-14.5399,-1.61684
-616,-76,-14.5298,1.70764,-0.00410338,-0.000640864,-0.0041576,0.00213153,-0.00687577,-0.982683,0.0054355,0.0120255,608,1100,-14.5299,-1.70764
-609,-76,-14.5351,1.78003,-0.00416856,-0.00130492,-0.00560554,0.00304877,-0.00852225,-0.910439,0.00692519,0.012353,615,1100,-14.5351,-1.78008
-602,-76,-14.5325,1.91638,-0.00423938,-0.00196874,-0.00703243,0.00401943,-0.0102275,-0.865428,0.00848181,0.0171628,622,1100,-14.5325,-1.91643
-595,-76,-14.5092,2.00293,-0.00455427,-0.00264895,-0.00794724,0.00440253,-0.0116057,-0.84505,0.00954918,0.0207578,629,1100,-14.5092,-2.00296
-588,-76,-14.6469,1.73816,-0.00466144,-0.00306898,-0.00817398,0.00434745,-0.0120779,-0.83395,0.00982702,0.0282131,636,1100,-14.6468,-1.7381
-581,-76,-14.8966,1.05359,-0.00440062,-0.00328881,-0.00795556,0.00413025,-0.0118197,-0.82028,0.00955875,0.0309584,643,1100,-14.8966,-1.0536
-574,-76,-15.1012,0.668823,-0.00393341,-0.00335276,-0.00741913,0.00378172,-0.0110679,-0.804954,0.0089108,0.0334783,650,1100,-15.1012,-0.668826
-567,-76,-15.0712,0.732422,-0.00315845,-0.00329349,-0.00635611,0.0031305,-0.00958244,-0.780087,0.00764841,0.0389806,657,1100,-15.0711,-0.73244
-560,-76,-14.9724,0.808472,-0.00201477,-0.00308297,-0.00478449,0.00226534,-0.00736308,-0.729813,0.00581288,0.0396153,664,1100,-14.9724,-0.808411
-553,-76,-14.9154,0.657959,-0.000548866,-0.0027364,-0.00275563,0.00132213,-0.00460739,-0.596474,0.0035943,0.0411314,671,1100,-14.9154,-0.657971
-546,-76,-14.997,0.754272,0.00120487,-0.00226744,-0.000325507,0.00123512,-0.00229769,-0.092668,0.00207019,0.0386092,678,1100,-14.997,-0.754289
-539,-76,-14.9784,0.858276,0.00311731,-0.00171805,0.00204093,0.00386358,-0.00246431,0.350549,0.00368306,0.0374358,685,1100,-14.9784,-0.858221
-532,-76,-14.8148,0.72876,0.00367218,-0.00170507,0.00190017,0.00427587,-0.00230876,0.307619,0.00385777,0.0387539,692,1100,-14.8148,-0.728772
-525,-76,0,0,0,0,0,0,0,0,0,-1,699,1100,0,0
-518,-76,0,0,0,0,0,0,0,0,0,-1,706,1100,0,0
-511,-76,0,0,0,0,0,0,0,0,0,-1,713,1100,0,0
-504,-76,0,0,0,0,0,0,0,0,0,-1,720,1100,0,0
-497,-76,0,0,0,0,0,0,0,0,0,-1,727,1100,0,0
-490,-76,0,0,0,0,0,0,0,0,0,-1,734,1100,0,0
-483,-76,0,0,0,0,0,0,0,0,0,-1,741,1100,0,0
-476,-76,0,0,0,0,0,0,0,0,0,-1,748,1100,0,0
-469,-76,0,0,0,0,0,0,0,0,0,-1,755,1100,0,0
-462,-76,0,0,0,0,0,0,0,0,0,-1,762,1100,0,0
-455,-76,0,0,0,0,0,0,0,0,0,-1,769,1100,0,0
-448,-76,0,0,0,0,0,0,0,0,0,-1,776,1100,0,0
-441,-76,0,0,0,0,0,0,0,0,0,-1,783,1100,0,0
-434,-76,0,0,0,0,0,0,0,0,0,-1,790,1100,0,0
-427,-76,0,0,0,0,0,0,0,0,0,-1,797,1100,0,0
-420,-76,0,0,0,0,0,0,0,0,0,-1,804,1100,0,0
-413,-76,0,0,0,0,0,0,0,0,0,-1,811,1100,0,0
-406,-76,0,0,0,0,0,0,0,0,0,-1,818,1100,0,0
-399,-76,0,0,0,0,0,0,0,0,0,-1,825,1100,0,0
-392,-76,0,0,0,0,0,0,0,0,0,-1,832,1100,0,0
-385,-76,0,0,0,0,0,0,0,0,0,-1,839,1100,0,0
-378,-76,0,0,0,0,0,0,0,0,0,-1,846,1100,0,0
-371,-76,0,0,0,0,0,0,0,0,0,-1,853,1100,0,0
-364,-76,0,0,0,0,0,0,0,0,0,-1,860,1100,0,0
-357,-76,0,0,0,0,0,0,0,0,0,-1,867,1100,0,0
-350,-76,0,0,0,0,0,0,0,0,0,-1,874,1100,0,0
-343,-76,0,0,0,0,0,0,0,0,0,-1,881,1100,0,0
-336,-76,0,0,0,0,0,0,0,0,0,-1,888,1100,0,0
-329,-76,0,0,0,0,0,0,0,0,0,-1,895,1100,0,0
-322,-76,0,0,0,0,0,0,0,0,0,-1,902,1100,0,0
-315,-76,0,0,0,0,0,0,0,0,0,-1,909,1100,0,0
-308,-76,0,0,0,0,0,0,0,0,0,-1,916,1100,0,0
-301,-76,0,0,0,0,0,0,0,0,0,-1,923,1100,0,0
-294,-76,0,0,0,0,0,0,0,0,0,-1,930,1100,0,0
-287,-76,0,0,0,0,0,0,0,0,0,-1,937,1100,0,0
-280,-76,0,0,0,0,0,0,0,0,0,-1,944,1100,0,0
-273,-76,0,0,0,0,0,0,0,0,0,-1,951,1100,0,0
-266,-76,0,0,0,0,0,0,0,0,0,-1,958,1100,0,0
-259,-76,0,0,0,0,0,0,0,0,0,-1,965,1100,0,0
-252,-76,0,0,0,0,0,0,0,0,0,-1,972,1100,0,0
-245,-76,0,0,0,0,0,0,0,0,0,-1,979,1100,0,0
-238,-76,0,0,0,0,0,0,0,0,0,-1,986,1100,0,0
-231,-76,0,0,0,0,0,0,0,0,0,-1,993,1100,0,0
-224,-76,0,0,0,0,0,0,0,0,0,-1,1000,1100,0,0
-217,-76,0,0,0,0,0,0,0,0,0,-1,1007,1100,0,0
-210,-76,0,0,0,0,0,0,0,0,0,-1,1014,1100,0,0
-203,-76,0,0,0,0,0,0,0,0,0,-1,1021,1100,0,0
-196,-76,0,0,0,0,0,0,0,0,0,-1,1028,1100,0,0
-189,-76,0,0,0,0,0,0,0,0,0,-1,1035,1100,0,0
-182,-76,0,0,0,0,0,0,0,0,0,-1,1042,1100,0,0
-175,-76,0,0,0,0,0,0,0,0,0,-1,1049,1100,0,0
-168,-76,0,0,0,0,0,0,0,0,0,-1,1056,1100,0,0
-161,-76,0,0,0,0,0,0,0,0,0,-1,1063,1100,0,0
-154,-76,0,0,0,0,0,0,0,0,0,-1,1070,1100,0,0
-147,-76,0,0,0,0,0,0,0,0,0,-1,1077,1100,0,0
-140,-76,0,0,0,0,0,0,0,0,0,-1,1084,1100,0,0
-133,-76,0,0,0,0,0,0,0,0,0,-1,1091,1100,0,0
-126,-76,0,0,0,0,0,0,0,0,0,-1,1098,1100,0,0
-119,-76,0,0,0,0,0,0,0,0,0,-1,1105,1100,0,0
-112,-76,0,0,0,0,0,0,0,0,0,-1,1112,1100,0,0
-105,-76,0,0,0,0,0,0,0,0,0,-1,1119,1100,0,0
-98,-76,0,0,0,0,0,0,0,0,0,-1,1126,1100,0,0
-91,-76,0,0,0,0,0,0,0,0,0,-1,1133,1100,0,0
-84,-76,0,0,0,0,0,0,0,0,0,-1,1140,1100,0,0
-77,-76,0,0,0,0,0,0,0,0,0,-1,1147,1100,0,0
-70,-76,0,0,0,0,0,0,0,0,0,-1,1154,1100,0,0
-63,-76,0,0,0,0,0,0,0,0,0,-1,1161,1100,0,0
-56,-76,0,0,0,0,0,0,0,0,0,-1,1168,1100,0,0
-49,-76,0,0,0,0,0,0,0,0,0,-1,1175,1100,0,0
-42,-76,0,0,0,0,0,0,0,0,0,-1,1182,1100,0,0
-35,-76,0,0,0,0,0,0,0,0,0,-1,1189,1100,0,0
-28,-76,0,0,0,0,0,0,0,0,0,-1,1196,1100,0,0
-21,-76,0,0,0,0,0,0,0,0,0,-1,1203,1100,0,0
-14,-76,0,0,0,0,0,0,0,0,0,-1,1210,1100,0,0
-7,-76,0,0,0,0,0,0,0,0,0,-1,1217,1100,0,0
0,-76,0,0,0,0,0,0,0,0,0,-1,1224,1100,0,0
7,-76,0,0,0,0,0,0,0,0,0,-1,1231,1100,0,0
14,-76,0,0,0,0,0,0,0,0,0,-1,1238,1100,0,0
21,-76,0,0,0,0,0,0,0,0,0,-1,1245,1100,0,0
28,-76,0,0,0,0,0,0,0,0,0,-1,1252,1100,0,0
35,-76,0,0,0,0,0,0,0,0,0,-1,1259,1100,0,0
42,-76,0,0,0,0,0,0,0,0,0,-1,1266,1100,0,0
49,-76,0,0,0,0,0,0,0,0,0,-1,1273,1100,0,0
56,-76,0,0,0,0,0,0,0,0,0,-1,1280,1100,0,0
63,-76,0,0,0,0,0,0,0,0,0,-1,1287,1100,0,0
70,-76,0,0,0,0,0,0,0,0,0,-1,1294,1100,0,0
77,-76,0,0,0,0,0,0,0,0,0,-1,1301,1100,0,0
84,-76,0,0,0,0,0,0,0,0,0,-1,1308,1100,0,0
91,-76,0,0,0,0,0,0,0,0,0,-1,1315,1100,0,0
98,-76,0,0,0,0,0,0,0,0,0,-1,1322,1100,0,0
105,-76,0,0,0,0,0,0,0,0,0,-1,1329,1100,0,0
112,-76,0,0,0,0,0,0,0,0,0,-1,1336,1100,0,0
119,-76,0,0,0,0,0,0,0,0,0,-1,1343,1100,0,0
126,-76,0,0,0,0,0,0,0,0,0,-1,1350,1100,0,0
133,-76,0,0,0,0,0,0,0,0,0,-1,1357,1100,0,0
140,-76,0,0,0,0,0,0,0,0,0,-1,1364,1100,0,0
147,-76,0,0,0,0,0,0,0,0,0,-1,1371,1100,0,0
154,-76,0,0,0,0,0,0,0,0,0,-1,1378,1100,0,0
161,-76,0,0,0,0,0,0,0,0,0,-1,1385,1100,0,0
168,-76,0,0,0,0,0,0,0,0,0,-1,1392,1100,0,0
175,-76,0,0,0,0,0,0,0,0,0,-1,1399,1100,0,0
182,-76,0,0,0,0,0,0,0,0,0,-1,1406,1100,0,0
189,-76,0,0,0,0,0,0,0,0,0,-1,1413,1100,0,0
196,-76,0,0,0,0,0,0,0,0,0,-1,1420,1100,0,0
203,-76,0,0,0,0,0,0,0,0,0,-1,1427,1100,0,0
210,-76,0,0,0,0,0,0,0,0,0,-1,1434,1100,0,0
217,-76,0,0,0,0,0,0,0,0,0,-1,1441,1100,0,0
224,-76,0,0,0,0,0,0,0,0,0,-1,1448,1100,0,0
231,-76,0,0,0,0,0,0,0,0,0,-1,1455,1100,0,0
238,-76,0,0,0,0,0,0,0,0,0,-1,1462,1100,0,0
245,-76,0,0,0,0,0,0,0,0,0,-1,1469,1100,0,0
252,-76,0,0,0,0,0,0,0,0,0,-1,1476,1100,0,0
259,-76,0,0,0,0,0,0,0,0,0,-1,1483,1100,0,0
266,-76,0,0,0,0,0,0,0,0,0,-1,1490,1100,0,0
273,-76,0,0,0,0,0,0,0,0,0,-1,1497,1100,0,0
280,-76,0,0,0,0,0,0,0,0,0,-1,1504,1100,0,0
287,-76,0,0,0,0,0,0,0,0,0,-1,1511,1100,0,0
294,-76,0,0,0,0,0,0,0,0,0,-1,1518,1100,0,0
301,-76,0,0,0,0,0,0,0,0,0,-1,1525,1100,0,0
308,-76,0,0,0,0,0,0,0,0,0,-1,1532,1100,0,0
315,-76,0,0,0,0,0,0,0,0,0,-1,1539,1100,0,0
322,-76,0,0,0,0,0,0,0,0,0,-1,1546,1100,0,0
329,-76,0,0,0,0,0,0,0,0,0,-1,1553,1100,0,0
336,-76,0,0,0,0,0,0,0,0,0,-1,1560,1100,0,0
343,-76,0,0,0,0,0,0,0,0,0,-1,1567,1100,0,0
350,-76,0,0,0,0,0,0,0,0,0,-1,1574,1100,0,0
357,-76,0,0,0,0,0,0,0,0,0,-1,1581,1100,0,0
364,-76,0,0,0,0,0,0,0,0,0,-1,1588,1100,0,0
371,-76,0,0,0,0,0,0,0,0,0,-1,1595,1100,0,0
378,-76,0,0,0,0,0,0,0,0,0,-1,1602,1100,0,0
385,-76,0,0,0,0,0,0,0,0,0,-1,1609,1100,0,0
392,-76,0,0,0,0,0,0,0,0,0,-1,1616,1100,0,0
399,-76,0,0,0,0,0,0,0,0,0,-1,1623,1100,0,0
406,-76,0,0,0,0,0,0,0,0,0,-1,1630,1100,0,0
413,-76,0,0,0,0,0,0,0,0,0,-1,1637,1100,0,0
420,-76,0,0,0,0,0,0,0,0,0,-1,1644,1100,0,0
427,-76,0,0,0,0,0,0,0,0,0,-1,1651,1100,0,0
434,-76,0,0,0,0,0,0,0,0,0,-1,1658,1100,0,0
441,-76,0,0,0,0,0,0,0,0,0,-1,1665,1100,0,0
448,-76,0,0,0,0,0,0,0,0,0,-1,1672,1100,0,0
455,-76,0,0,0,0,0,0,0,0,0,-1,1679,1100,0,0
462,-76,0,0,0,0,0,0,0,0,0,-1,1686,1100,0,0
469,-76,0,0,0,0,0,0,0,0,0,-1,1693,1100,0,0
476,-76,0,0,0,0,0,0,0,0,0,-1,1700,1100,0,0
483,-76,0,0,0,0,0,0,0,0,0,-1,1707,1100,0,0
490,-76,0,0,0,0,0,0,0,0,0,-1,1714,1100,0,0
497,-76,0,0,0,0,0,0,0,0,0,-1,1721,1100,0,0
504,-76,0,0,0,0,0,0,0,0,0,-1,1728,1100,0,0
511,-76,0,0,0,0,0,0,0,0,0,-1,1735,1100,0,0
518,-76,0,0,0,0,0,0,0,0,0,-1,1742,1100,0,0
525,-76,0,0,0,0,0,0,0,0,0,-1,1749,1100,0,0
532,-76,0,0,0,0,0,0,0,0,0,-1,1756,1100,0,0
539,-76,0,0,0,0,0,0,0,0,0,-1,1763,1100,0,0
546,-76,0,0,0,0,0,0,0,0,0,-1,1770,1100,0,0
553,-76,0,0,0,0,0,0,0,0,0,-1,1777,1100,0,0
560,-76,0,0,0,0,0,0,0,0,0,-1,1784,1100,0,0
567,-76,0,0,0,0,0,0,0,0,0,-1,1791,1100,0,0
574,-76,0,0,0,0,0,0,0,0,0,-1,1798,1100,0,0
581,-76,0,0,0,0,0,0,0,0,0,-1,1805,1100,0,0
588,-76,0,0,0,0,0,0,0,0,0,-1,1812,1100,0,0
595,-76,0,0,0,0,0,0,0,0,0,-1,1819,1100,0,0
602,-76,0,0,0,0,0,0,0,0,0,-1,1826,1100,0,0
609,-76,0,0,0,0,0,0,0,0,0,-1,1833,1100,0,0
616,-76,0,0,0,0,0,0,0,0,0,-1,1840,1100,0,0
623,-76,0,0,0,0,0,0,0,0,0,-1,1847,1100,0,0
630,-76,0,0,0,0,0,0,0,0,0,-1,1854,1100,0,0
637,-76,0,0,0,0,0,0,0,0,0,-1,1861,1100,0,0
644,-76,0,0,0,0,0,0,0,0,0,-1,1868,1100,0,0
651,-76,22.4377,2.71826,0.00379777,0.000958871,-0.000330553,0.00383576,0.000920891,-0.114398,0.00231217,0.0414729,1875,1100,22.4377,-2.7183
658,-76,22.4526,2.84106,0.0035313,0.000510365,-0.000515012,0.00361669,0.000424979,-0.1643,0.00228269,0.0436058,1882,1100,22.4527,-2.84102
665,-76,22.6696,2.70044,0.00326138,7.31007e-05,-0.000663461,0.00339393,-5.94505e-05,-0.197191,0.0022827,0.0402364,1889,1100,22.6696,-2.70042
672,-76,22.6481,2.71643,0.0024554,-0.000568406,0.000266059,0.00247863,-0.000591637,0.0870964,0.00188091,0.0376753,1896,1100,22.6481,-2.71638
679,-76,22.7159,2.72095,0.00129629,-0.00123356,0.00163666,0.00209986,-0.00203713,0.456409,0.00238859,0.0372308,1903,1100,22.7159,-2.72097
686,-76,22.7057,2.74597,0.000107622,-0.00177368,0.00295953,0.00227239,-0.00393845,0.631528,0.00362858,0.0376024,1910,1100,22.7057,-2.74603
693,-76,22.6583,2.7301,-0.000857335,-0.00215714,0.00410047,0.00264441,-0.00565889,0.706804,0.00489809,0.0394236,1917,1100,22.6583,-2.73012
700,-76,22.6508,2.68811,-0.00168471,-0.0023329,0.00497548,0.00297722,-0.00699483,0.752875,0.00591107,0.0329588,1924,1100,22.6508,-2.68813
707,-76,22.6602,2.71252,-0.00218632,-0.00240681,0.00551535,0.00321988,-0.00781301,0.775405,0.00655126,0.0246789,1931,1100,22.6601,-2.71246
714,-76,22.6573,3.14771,0,0,0,0,0,0,0,-1,1938,1100,22.6574,-3.14776
721,-76,22.418,3.77625,0,0,0,0,0,0,0,-1,1945,1100,22.4179,-3.77626
728,-76,22.0665,4.29248,-0.00324577,-0.00193941,0.0057799,0.0032241,-0.00840928,0.841664,0.00693536,0.0249596,1952,1100,22.0665,-4.29254
735,-76,21.8396,4.26807,-0.00323163,-0.00137967,0.00541893,0.00319183,-0.00780313,0.87002,0.00653139,0.0211572,1959,1100,21.8396,-4.26804
742,-76,21.9332,4.19775,-0.00292445,-0.000592021,0.00461541,0.00300224,-0.0065187,0.909147,0.0056205,0.015026,1966,1100,21.9332,-4.1977
749,-76,21.8848,4.12891,-0.00203059,0.000303976,0.00375043,0.00306458,-0.00479119,0.936266,0.0045719,0.0152581,1973,1100,21.8847,-4.12893
756,-76,21.9006,4.08032,-2.21604e-05,0.00150958,0.00355104,0.0043764,-0.00288898,0.891609,0.00422387,0.0145713,1980,1100,21.9007,-4.08033
763,-76,21.9143,3.9668,0.00342532,0.00237843,0.00347927,0.0064203,-0.000616544,0.710735,0.00449982,0.0142114,1987,1100,21.9143,-3.96685
770,-76,21.8781,3.8916,0.00741221,0.00366243,0.00347604,0.00948675,0.00158788,0.538073,0.00586727,0.0130301,1994,1100,21.8781,-3.89165
777,-76,21.8792,3.83423,0.0127645,0.00486098,0.00469805,0.0149518,0.00267366,0.435733,0.00920695,0.0165913,2001,1100,21.8791,-3.83423
784,-76,21.9469,3.68445,0.0197622,0.00594214,0.00712081,0.0227746,0.00292975,0.40021,0.0143068,0.0299508,2008,1100,21.947,-3.68446
791,-76,22.3108,3.62793,0.0291702,0.00685202,0.0105894,0.033395,0.00262731,0.379605,0.0214413,0.0399126,2015,1100,22.3108,-3.62794
798,-76,22.6346,3.91162,0.0420491,0.00747833,0.015369,0.0478936,0.00163383,0.36339,0.0313986,0.0427441,2022,1100,22.6347,-3.91161
805,-76,23.1323,4.28113,0.0594097,0.00762103,0.0218298,0.0673836,-0.000352852,0.350218,0.0450405,0.0472225,2029,1100,23.1324,-4.28109
812,-76,23.5171,4.89404,0.0824734,0.00697644,0.0304136,0.093201,-0.00375117,0.3391,0.0634214,0.0464102,2036,1100,23.5172,-4.89399
-700,-83,0,0,0,0,0,0,0,0,0,-1,524,1107,0,0
-693,-83,-14.7218,0.0450439,0.0525527,0.0996942,-0.0101978,0.101806,0.0504413,-1.36663,0.0587783,0.0478549,531,1107,-14.7218,-0.0450531
-686,-83,-14.5106,0.167725,0.0377736,0.0826987,-0.00846399,0.0842404,0.0362319,-1.39062,0.0487944,0.0480442,538,1107,-14.5106,-0.167772
-679,-83,-14.4464,0.187622,0.0261367,0.0668153,-0.00654063,0.0678411,0.0251109,-1.41523,0.0396059,0.0448168,545,1107,-14.4464,-0.18766
-672,-83,-14.2007,0.343628,0,0,0,0,0,0,0,-1,552,1107,-14.2007,-0.343627
-665,-83,-14.1802,0.307129,0.0101804,0.0397006,-0.00286628,0.0399763,0.00990468,-1.47489,0.0240394,0.0456126,559,1107,-14.1803,-0.307187
-658,-83,-14.3668,0.55481,0.00524443,0.0289486,-0.00138733,0.0290295,0.00516351,-1.51253,0.0178821,0.0410875,566,1107,-14.3668,-0.554791
-651,-83,-14.376,0.983154,0.00199229,0.0202596,-0.000275158,0.0202637,0.00198815,-1.55574,0.0128976,0.0290236,573,1107,-14.376,-0.983187
-644,-83,-14.3768,1.29321,-0.000864329,0.0136856,0.000201899,0.0136884,-0.000867131,1.55692,0.00942793,0.0140461,580,1107,-14.3768,-1.29316
-637,-83,-14.3923,1.42371,-0.00252492,0.00774919,8.06852e-05,0.00774983,-0.00252555,1.56294,0.0061828,0.0116591,587,1107,-14.3923,-1.42368
-630,-83,-14.4279,1.53247,-0.00331877,0.00306351,-0.0010603,0.00323504,-0.00349031,-1.4104,0.00388382,0.0172034,594,1107,-14.4279,-1.53249
-623,-83,-14.426,1.63135,-0.00404065,0.000192678,-0.00245155,0.00131489,-0.00516286,-1.14151,0.00395377,0.0155617,601,1107,-14.426,-1.63134
-616,-83,-14.4269,1.72742,-0.004398,-0.000756734,-0.00413525,0.00194093,-0.00709567,-0.992765,0.00549294,0.0113981,608,1107,-14.4269,-1.72736
-609,-83,-14.4304,1.81714,-0.00454379,-0.0014651,-0.00540945,0.00261977,-0.00862865,-0.924017,0.00679614,0.0110323,615,1107,-14.4304,-1.81709
-602,-83,-14.442,1.95532,-0.00468873,-0.00209248,-0.00668673,0.00342097,-0.0102022,-0.881273,0.00818369,0.0137975,622,1107,-14.442,-1.95538
-595,-83,-14.4154,2.08374,-0.00504257,-0.00272355,-0.00751756,0.0037234,-0.0114895,-0.861915,0.00915673,0.0171772,629,1107,-14.4154,-2.08373
-588,-83,-14.5735,1.75122,-0.00516892,-0.00311608,-0.00773756,0.00366285,-0.0119478,-0.85134,0.00942646,0.0322435,636,1107,-14.5736,-1.75121
-581,-83,-14.9285,1.04456,-0.00488244,-0.00333532,-0.00755797,0.00348858,-0.0117063,-0.836396,0.0091905,0.0358686,643,1107,-14.9285,-1.04452
-574,-83,-15.116,0.717529,-0.00438713,-0.00336023,-0.00709709,0.00324195,-0.0109893,-0.821509,0.00861271,0.0345413,650,1107,-15.116,-0.717497
-567,-83,-15.1975,0.702148,-0.00355425,-0.00327308,-0.0061685,0.00275644,-0.00958377,-0.796792,0.00747926,0.038094,657,1107,-15.1975,-0.70218
-560,-83,-15.1324,0.775391,-0.00228665,-0.00302941,-0.00477786,0.00213424,-0.0074503,-0.746611,0.00581044,0.0399844,664,1107,-15.1325,-0.775434
-553,-83,-14.9662,0.726807,-0.000605254,-0.00264424,-0.00297142,0.0015167,-0.00476619,-0.620141,0.00378569,0.0397954,671,1107,-14.9663,-0.726776
-546,-83,-14.9736,0.942139,0.00147468,-0.00214341,-0.000802812,0.00164481,-0.00231354,-0.208834,0.0022962,0.0389554,678,1107,-14.9736,-0.94219
-539,-83,-15.1326,1.15637,0,0,0,0,0,0,0,-1,685,1107,-15.1326,-1.15635
-532,-83,-14.8445,0.64563,0,0,0,0,0,0,0,-1,692,1107,-14.8445,-0.645599
-525,-83,0,0,0,0,0,0,0,0,0,-1,699,1107,0,0
-518,-83,0,0,0,0,0,0,0,0,0,-1,706,1107,0,0
-511,-83,0,0,0,0,0,0,0,0,0,-1,713,1107,0,0
-504,-83,0,0,0,0,0,0,0,0,0,-1,720,1107,0,0
-497,-83,0,0,0,0,0,0,0,0,0,-1,727,1107,0,0
-490,-83,0,0,0,0,0,0,0,0,0,-1,734,1107,0,0
-483,-83,0,0,0,0,0,0,0,0,0,-1,741,1107,0,0
-476,-83,0,0,0,0,0,0,0,0,0,-1,748,1107,0,0
-469,-83,0,0,0,0,0,0,0,0,0,-1,755,1107,0,0
-462,-83,0,0,0,0,0,0,0,0,0,-1,762,1107,0,0
-455,-83,0,0,0,0,0,0,0,0,0,-1,769,1107,0,0
-448,-83,0,0,0,0,0,0,0,0,0,-1,776,1107,0,0
-441,-83,0,0,0,0,0,0,0,0,0,-1,783,1107,0,0
-434,-83,0,0,0,0,0,0,0,0,0,-1,790,1107,0,0
-427,-83,0,0,0,0,0,0,0,0,0,-1,797,1107,0,0
-420,-83,0,0,0,0,0,0,0,0,0,-1,804,1107,0,0
-413,-83,0,0,0,0,0,0,0,0,0,-1,811,1107,0,0
-406,-83,0,0,0,0,0,0,0,0,0,-1,818,1107,0,0
-399,-83,0,0,0,0,0,0,0,0,0,-1,825,1107,0,0
-392,-83,0,0,0,0,0,0,0,0,0,-1,832,1107,0,0
-385,-83,0,0,0,0,0,0,0,0,0,-1,839,1107,0,0
-378,-83,0,0,0,0,0,0,0,0,0,-1,846,1107,0,0
-371,-83,0,0,0,0,0,0,0,0,0,-1,853,1107,0,0
-364,-83,0,0,0,0,0,0,0,0,0,-1,860,1107,0,0
-357,-83,0,0,0,0,0,0,0,0,0,-1,867,1107,0,0
-350,-83,0,0,0,0,0,0,0,0,0,-1,874,1107,0,0
-343,-83,0,0,0,0,0,0,0,0,0,-1,881,1107,0,0
-336,-83,0,0,0,0,0,0,0,0,0,-1,888,1107,0,0
-329,-83,0,0,0,0,0,0,0,0,0,-1,895,1107,0,0
-322,-83,0,0,0,0,0,0,0,0,0,-1,902,1107,0,0
-315,-83,0,0,0,0,0,0,0,0,0,-1,909,1107,0,0
-308,-83,0,0,0,0,0,0,0,0,0,-1,916,1107,0,0
-301,-83,0,0,0,0,0,0,0,0,0,-1,923,1107,0,0
-294,-83,0,0,0,0,0,0,0,0,0,-1,930,1107,0,0
-287,-83,0,0,0,0,0,0,0,0,0,-1,937,1107,0,0
-280,-83,0,0,0,0,0,0,0,0,0,-1,944,1107,0,0
-273,-83,0,0,0,0,0,0,0,0,0,-1,951,1107,0,0
-266,-83,0,0,0,0,0,0,0,0,0,-1,958,1107,0,0
-259,-83,0,0,0,0,0,0,0,0,0,-1,965,1107,0,0
-252,-83,0,0,0,0,0,0,0,0,0,-1,972,1107,0,0
-245,-83,0,0,0,0,0,0,0,0,0,-1,979,1107,0,0
-238,-83,0,0,0,0,0,0,0,0,0,-1,986,1107,0,0
-231,-83,0,0,0,0,0,0,0,0,0,-1,993,1107,0,0
-224,-83,0,0,0,0,0,0,0,0,0,-1,1000,1107,0,0
-217,-83,0,0,0,0,0,0,0,0,0,-1,1007,1107,0,0
-210,-83,0,0,0,0,0,0,0,0,0,-1,1014,1107,0,0
-203,-83,0,0,0,0,0,0,0,0,0,-1,1021,1107,0,0
-196,-83,0,0,0,0,0,0,0,0,0,-1,1028,1107,0,0
-189,-83,0,0,0,0,0,0,0,0,0,-1,1035,1107,0,0
-182,-83,0,0,0,0,0,0,0,0,0,-1,1042,1107,0,0
-175,-83,0,0,0,0,0,0,0,0,0,-1,1049,1107,0,0
-168,-83,0,0,0,0,0,0,0,0,0,-1,1056,1107,0,0
-161,-83,0,0,0,0,0,0,0,0,0,-1,1063,1107,0,0
-154,-83,0,0,0,0,0,0,0,0,0,-1,1070,1107,0,0
-147,-83,0,0,0,0,0,0,0,0,0,-1,1077,1107,0,0
-140,-83,0,0,0,0,0,0,0,0,0,-1,1084,1107,0,0
-133,-83,0,0,0,0,0,0,0,0,0,-1,1091,1107,0,0
-126,-83,0,0,0,0,0,0,0,0,0,-1,1098,1107,0,0
-119,-83,0,0,0,0,0,0,0,0,0,-1,1105,1107,0,0
-112,-83,0,0,0,0,0,0,0,0,0,-1,1112,1107,0,0
-105,-83,0,0,0,0,0,0,0,0,0,-1,1119,1107,0,0
-98,-83,0,0,0,0,0,0,0,0,0,-1,1126,1107,0,0
-91,-83,0,0,0,0,0,0,0,0,0,-1,1133,1107,0,0
-84,-83,0,0,0,0,0,0,0,0,0,-1,1140,1107,0,0
-77,-83,0,0,0,0,0,0,0,0,0,-1,1147,1107,0,0
-70,-83,0,0,0,0,0,0,0,0,0,-1,1154,1107,0,0
-63,-83,0,0,0,0,0,0,0,0,0,-1,1161,1107,0,0
-56,-83,0,0,0,0,0,0,0,0,0,-1,1168,1107,0,0
-49,-83,0,0,0,0,0,0,0,0,0,-1,1175,1107,0,0
-42,-83,0,0,0,0,0,0,0,0,0,-1,1182,1107,0,0
-35,-83,0,0,0,0,0,0,0,0,0,-1,1189,1107,0,0
-28,-83,0,0,0,0,0,0,0,0,0,-1,1196,1107,0,0
-21,-83,0,0,0,0,0,0,0,0,0,-1,1203,1107,0,0
-14,-83,0,0,0,0,0,0,0,0,0,-1,1210,1107,0,0
-7,-83,0,0,0,0,0,0,0,0,0,-1,1217,1107,0,0
0,-83,0,0,0,0,0,0,0,0,0,-1,1224,1107,0,0
7,-83,0,0,0,0,0,0,0,0,0,-1,1231,1107,0,0
14,-83,0,0,0,0,0,0,0,0,0,-1,1238,1107,0,0
21,-83,0,0,0,0,0,0,0,0,0,-1,1245,1107,0,0
28,-83,0,0,0,0,0,0,0,0,0,-1,1252,1107,0,0
35,-83,0,0,0,0,0,0,0,0,0,-1,1259,1107,0,0
42,-83,0,0,0,0,0,0,0,0,0,-1,1266,1107,0,0
49,-83,0,0,0,0,0,0,0,0,0,-1,1273,1107,0,0
56,-83,0,0,0,0,0,0,0,0,0,-1,1280,1107,0,0
63,-83,0,0,0,0,0,0,0,0,0,-1,1287,1107,0,0
70,-83,0,0,0,0,0,0,0,0,0,-1,1294,1107,0,0
77,-83,0,0,0,0,0,0,0,0,0,-1,1301,1107,0,0
84,-83,0,0,0,0,0,0,0,0,0,-1,1308,1107,0,0
91,-83,0,0,0,0,0,0,0,0,0,-1,1315,1107,0,0
98,-83,0,0,0,0,0,0,0,0,0,-1,1322,1107,0,0
105,-83,0,0,0,0,0,0,0,0,0,-1,1329,1107,0,0
112,-83,0,0,0,0,0,0,0,0,0,-1,1336,1107,0,0
119,-83,0,0,0,0,0,0,0,0,0,-1,1343,1107,0,0
126,-83,0,0,0,0,0,0,0,0,0,-1,1350,1107,0,0
133,-83,0,0,0,0,0,0,0,0,0,-1,1357,1107,0,0
140,-83,0,0,0,0,0,0,0,0,0,-1,1364,1107,0,0
147,-83,0,0,0,0,0,0,0,0,0,-1,1371,1107,0,0
154,-83,0,0,0,0,0,0,0,0,0,-1,1378,1107,0,0
161,-83,0,0,0,0,0,0,0,0,0,-1,1385,1107,0,0
168,-83,0,0,0,0,0,0,0,0,0,-1,1392,1107,0,0
175,-83,0,0,0,0,0,0,0,0,0,-1,1399,1107,0,0
182,-83,0,0,0,0,0,0,0,0,0,-1,1406,1107,0,0
189,-83,0,0,0,0,0,0,0,0,0,-1,1413,1107,0,0
196,-83,0,0,0,0,0,0,0,0,0,-1,1420,1107,0,0
203,-83,0,0,0,0,0,0,0,0,0,-1,1427,1107,0,0
210,-83,0,0,0,0,0,0,0,0,0,-1,1434,1107,0,0
217,-83,0,0,0,0,0,0,0,0,0,-1,1441,1107,0,0
224,-83,0,0,0,0,0,0,0,0,0,-1,1448,1107,0,0
231,-83,0,0,0,0,0,0,0,0,0,-1,1455,1107,0,0
238,-83,0,0,0,0,0,0,0,0,0,-1,1462,1107,0,0
245,-83,0,0,0,0,0,0,0,0,0,-1,1469,1107,0,0
252,-83,0,0,0,0,0,0,0,0,0,-1,1476,1107,0,0
259,-83,0,0,0,0,0,0,0,0,0,-1,1483,1107,0,0
266,-83,0,0,0,0,0,0,0,0,0,-1,1490,1107,0,0
273,-83,0,0,0,0,0,0,0,0,0,-1,1497,1107,0,0
280,-83,0,0,0,0,0,0,0,0,0,-1,1504,1107,0,0
287,-83,0,0,0,0,0,0,0,0,0,-1,1511,1107,0,0
294,-83,0,0,0,0,0,0,0,0,0,-1,1518,1107,0,0
301,-83,0,0,0,0,0,0,0,0,0,-1,1525,1107,0,0
308,-83,0,0,0,0,0,0,0,0,0,-1,1532,1107,0,0
315,-83,0,0,0,0,0,0,0,0,0,-1,1539,1107,0,0
322,-83,0,0,0,0,0,0,0,0,0,-1,1546,1107,0,0
329,-83,0,0,0,0,0,0,0,0,0,-1,1553,1107,0,0
336,-83,0,0,0,0,0,0,0,0,0,-1,1560,1107,0,0
343,-83,0,0,0,0,0,0,0,0,0,-1,1567,1107,0,0
350,-83,0,0,0,0,0,0,0,0,0,-1,1574,1107,0,0
357,-83,0,0,0,0,0,0,0,0,0,-1,1581,1107,0,0
364,-83,0,0,0,0,0,0,0,0,0,-1,1588,1107,0,0
371,-83,0,0,0,0,0,0,0,0,0,-1,1595,1107,0,0
378,-83,0,0,0,0,0,0,0,0,0,-1,1602,1107,0,0
385,-83,0,0,0,0,0,0,0,0,0,-1,1609,1107,0,0
392,-83,0,0,0,0,0,0,0,0,0,-1,1616,1107,0,0
399,-83,0,0,0,0,0,0,0,0,0,-1,1623,1107,0,0
406,-83,0,0,0,0,0,0,0,0,0,-1,1630,1107,0,0
413,-83,0,0,0,0,0,0,0,0,0,-1,1637,1107,0,0
420,-83,0,0,0,0,0,0,0,0,0,-1,1644,1107,0,0
427,-83,0,0,0,0,0,0,0,0,0,-1,1651,1107,0,0
434,-83,0,0,0,0,0,0,0,0,0,-1,1658,1107,0,0
441,-83,0,0,0,0,0,0,0,0,0,-1,1665,1107,0,0
448,-83,0,0,0,0,0,0,0,0,0,-1,1672,1107,0,0
455,-83,0,0,0,0,0,0,0,0,0,-1,1679,1107,0,0
462,-83,0,0,0,0,0,0,0,0,0,-1,1686,1107,0,0
469,-83,0,0,0,0,0,0,0,0,0,-1,1693,1107,0,0
476,-83,0,0,0,0,0,0,0,0,0,-1,1700,1107,0,0
483,-83,0,0,0,0,0,0,0,0,0,-1,1707,1107,0,0
490,-83,0,0,0,0,0,0,0,0,0,-1,1714,1107,0,0
497,-83,0,0,0,0,0,0,0,0,0,-1,1721,1107,0,0
504,-83,0,0,0,0,0,0,0,0,0,-1,1728,1107,0,0
511,-83,0,0,0,0,0,0,0,0,0,-1,1735,1107,0,0
518,-83,0,0,0,0,0,0,0,0,0,-1,1742,1107,0,0
525,-83,0,0,0,0,0,0,0,0,0,-1,1749,1107,0,0
532,-83,0,0,0,0,0,0,0,0,0,-1,1756,1107,0,0
539,-83,0,0,0,0,0,0,0,0,0,-1,1763,1107,0,0
546,-83,0,0,0,0,0,0,0,0,0,-1,1770,1107,0,0
553,-83,0,0,0,0,0,0,0,0,0,-1,1777,1107,0,0
560,-83,0,0,0,0,0,0,0,0,0,-1,1784,1107,0,0
567,-83,0,0,0,0,0,0,0,0,0,-1,1791,1107,0,0
574,-83,0,0,0,0,0,0,0,0,0,-1,1798,1107,0,0
581,-83,0,0,0,0,0,0,0,0,0,-1,1805,1107,0,0
588,-83,0,0,0,0,0,0,0,0,0,-1,1812,1107,0,0
595,-83,0,0,0,0,0,0,0,0,0,-1,1819,1107,0,0
602,-83,0,0,0,0,0,0,0,0,0,-1,1826,1107,0,0
609,-83,0,0,0,0,0,0,0,0,0,-1,1833,1107,0,0
616,-83,0,0,0,0,0,0,0,0,0,-1,1840,1107,0,0
623,-83,0,0,0,0,0,0,0,0,0,-1,1847,1107,0,0
630,-83,0,0,0,0,0,0,0,0,0,-1,1854,1107,0,0
637,-83,0,0,0,0,0,0,0,0,0,-1,1861,1107,0,0
644,-83,22.5731,2.66614,0.00471434,0.00116086,-0.00157791,0.00531386,0.00056134,-0.363098,0.00337107,0.0352702,1868,1107,22.5731,-2.66612
651,-83,22.5741,2.73254,0.00413323,0.000842836,-0.00110223,0.00446833,0.000507731,-0.295143,0.00282489,0.0412557,1875,1107,22.5741,-2.73249
658,-83,22.5054,2.7345,0.00361594,0.000449781,-0.000922705,0.00386522,0.000200506,-0.263858,0.00251265,0.044345,1882,1107,22.5053,-2.73447
665,-83,22.4977,2.69019,0.00321918,5.37041e-05,-0.000799523,0.00340966,-0.000136775,-0.23388,0.00232004,0.0402487,1889,1107,22.4977,-2.69022
672,-83,22.5236,2.7417,0.00218751,-0.000616997,0.000332854,0.00222648,-0.000655961,0.116529,0.00174457,0.0368275,1896,1107,22.5236,-2.74168
679,-83,22.6829,2.77417,0.000848734,-0.00130177,0.00174571,0.00182377,-0.00227681,0.50937,0.00237228,0.0375891,1903,1107,22.6829,-2.77413
686,-83,22.771,2.79712,-0.000450177,-0.00185231,0.0030476,0.00197596,-0.00427844,0.672346,0.00369164,0.036884,1910,1107,22.771,-2.79709
693,-83,22.7065,2.77625,-0.00148954,-0.00224037,0.00414149,0.00229352,-0.00602343,0.740198,0.00496014,0.0373724,1917,1107,22.7065,-2.7762
700,-83,22.6676,2.72168,-0.0023882,-0.00241772,0.00497049,0.00256755,-0.00737347,0.783913,0.00595882,0.032029,1924,1107,22.6677,-2.72162
707,-83,22.6459,2.71667,-0.00293438,-0.00249014,0.00549129,0.00278352,-0.00820804,0.805612,0.00659856,0.0237216,1931,1107,22.6459,-2.71662
714,-83,22.6895,3.06201,-0.00337312,-0.00247427,0.00578981,0.00288353,-0.00873093,0.824132,0.00698315,0.0395547,1938,1107,22.6895,-3.06196
721,-83,21.8315,4.42249,0,0,0,0,0,0,0,-1,1945,1107,21.8315,-4.4225
728,-83,21.8083,4.34619,-0.00388937,-0.00201197,0.00565252,0.00277926,-0.00868061,0.867681,0.00690259,0.0210904,1952,1107,21.8083,-4.34616
735,-83,21.7363,4.23254,-0.00381954,-0.00144091,0.00523372,0.00273693,-0.00799737,0.897121,0.00644074,0.0217201,1959,1107,21.7363,-4.23249
742,-83,21.8195,4.17786,-0.00344006,-0.000660284,0.00441124,0.00257485,-0.00667519,0.938015,0.00551264,0.0133626,1966,1107,21.8194,-4.1778
749,-83,21.8253,4.13037,-0.00253356,0.000237121,0.003534,0.00264761,-0.00494406,0.972195,0.00444939,0.0114762,1973,1107,21.8253,-4.13041
756,-83,21.8463,4.05627,-0.000524392,0.0014626,0.00322883,0.00384732,-0.00290912,0.934649,0.00391335,0.0137079,1980,1107,21.8463,-4.05631
763,-83,21.845,3.94543,0.00311199,0.00242438,0.00301599,0.0058037,-0.00026734,0.728646,0.00396126,0.0113311,1987,1107,21.845,-3.94548
770,-83,21.8103,3.87219,0.00723745,0.00377426,0.00289843,0.00888214,0.00212957,0.516136,0.00535464,0.0130296,1994,1107,21.8103,-3.87218
777,-83,21.7997,3.81311,0.0126102,0.00499056,0.00403907,0.0143528,0.00324801,0.407298,0.00869058,0.0140863,2001,1107,21.7997,-3.81308
784,-83,21.8575,3.77112,0.0196734,0.00616243,0.00628986,0.0221482,0.00368758,0.374861,0.0137027,0.0238781,2008,1107,21.8575,-3.77107
791,-83,21.6422,4.00037,0,0,0,0,0,0,0,-1,2015,1107,21.6422,-4.00036
798,-83,21.949,3.94507,0.043092,0.00814546,0.014259,0.0481716,0.00306584,0.342223,0.0311428,0.0474705,2022,1107,21.949,-3.94509
805,-83,21.656,3.22314,0.0617905,0.00870126,0.0206798,0.0688951,0.00159665,0.33092,0.0454072,0.0427974,2029,1107,21.656,-3.22311
812,-83,23.8154,4.84387,0.0870863,0.00867566,0.0293663,0.096865,-0.00110306,0.321443,0.0649475,0.0464571,2036,1107,23.8155,-4.84393
-700,-90,0,0,0,0,0,0,0,0,0,-1,524,1114,0,0
-693,-90,-14.6475,-0.810913,0.0288432,0.102224,-0.0082732,0.103146,0.027922,-1.45991,0.0616031,0.0491531,531,1114,-14.6474,0.810928
-686,-90,-14.4474,-0.725342,0.0168395,0.0849974,-0.00719863,0.0857494,0.0160875,-1.46671,0.0526299,0.0457231,538,1114,-14.4475,0.725295
-679,-90,-13.9908,-1.16833,0.00845847,0.0688408,-0.00579085,0.0693911,0.00790813,-1.47604,0.043863,0.0436017,545,1114,-13.9908,1.16836
-672,-90,-13.6769,0.526489,0,0,0,0,0,0,0,-1,552,1114,-13.6769,-0.526533
-665,-90,-13.9603,0.435913,-0.000930791,0.04119,-0.00282158,0.0413782,-0.00111896,-1.50421,0.0279659,0.0446836,559,1114,-13.9603,-0.435909
-658,-90,-14.0885,0.648071,-0.00297294,0.0301695,-0.00154026,0.0302409,-0.00304437,-1.52446,0.0212482,0.0446476,566,1114,-14.0885,-0.648116
-651,-90,-14.2079,0.976563,-0.00378159,0.0212068,-0.000529027,0.021218,-0.00379279,-1.54964,0.0155644,0.0302545,573,1114,-14.2079,-0.976546
-644,-90,-14.3016,1.24658,-0.00448539,0.0143573,-4.43009e-05,0.0143574,-0.00448549,-1.56845,0.0113658,0.0128045,580,1114,-14.3016,-1.24658
-637,-90,-14.309,1.41016,-0.00471602,0.00817009,-9.76773e-05,0.00817083,-0.00471676,-1.56322,0.0075292,0.0115547,587,1114,-14.309,-1.4102
-630,-90,-14.31,1.52747,-0.00469502,0.00329894,-0.00111606,0.00345183,-0.00484791,-1.43465,0.0048144,0.011581,594,1114,-14.31,-1.5275
-623,-90,-14.312,1.63306,-0.00454756,0.000224959,-0.00241632,0.0012347,-0.00555731,-1.17497,0.00417771,0.00933044,601,1114,-14.312,-1.63306
-616,-90,-14.3165,1.76184,-0.00447849,-0.000831255,-0.00387448,0.00162732,-0.00693706,-1.00535,0.00525187,0.00835969,608,1114,-14.3165,-1.76183
-609,-90,-14.3143,1.86902,-0.00467556,-0.00163229,-0.00498797,0.00206098,-0.00836883,-0.933445,0.00637819,0.0115265,615,1114,-14.3143,-1.86898
-602,-90,-14.3505,1.98145,-0.00489442,-0.00222267,-0.00616697,0.00275145,-0.00986854,-0.892059,0.00766264,0.0115369,622,1114,-14.3505,-1.98143
-595,-90,-14.2995,2.12231,-0.00529344,-0.0027802,-0.00690415,0.00298075,-0.0110544,-0.875417,0.00853841,0.0126507,629,1114,-14.2995,-2.12234
-588,-90,-14.4035,1.96875,-0.00545338,-0.00312989,-0.00708262,0.00288563,-0.0114689,-0.866688,0.00876756,0.0286174,636,1114,-14.4035,-1.96877
-581,-90,-14.9475,1.21545,-0.00516725,-0.00332892,-0.0068853,0.0026983,-0.0111945,-0.851754,0.00850629,0.0373525,643,1114,-14.9475,-1.21546
-574,-90,-15.2363,0.482666,0,0,0,0,0,0,0,-1,650,1114,-15.2363,-0.482673
-567,-90,-15.0915,0.774292,-0.00388699,-0.00307085,-0.00564363,0.00217944,-0.00913728,-0.821489,0.00693314,0.0330908,657,1114,-15.0915,-0.774275
-560,-90,-15.1308,0.835327,-0.00262929,-0.00270841,-0.0044003,0.00173162,-0.00706933,-0.780903,0.00538373,0.0384929,664,1114,-15.1308,-0.835287
-553,-90,-14.9732,0.937866,-0.000909966,-0.00217042,-0.00277801,0.00130841,-0.00438879,-0.673855,0.00344582,0.0394362,671,1114,-14.9732,-0.937846
-546,-90,-14.8807,1.06152,0.00127601,-0.00149077,-0.000820552,0.00150106,-0.00171582,-0.267682,0.00185865,0.0418038,678,1114,-14.8808,-1.06156
-539,-90,-14.9625,0.741089,0.0039676,-0.000732522,0.00119152,0.0042524,-0.00101732,0.234623,0.00322793,0.0420651,685,1114,-14.9624,-0.741122
-532,-90,-14.9221,0.578735,0.00545961,-0.000530873,0.00109984,0.00565515,-0.00072642,0.175956,0.0040341,0.0418947,692,1114,-14.9221,-0.578723
-525,-90,0,0,0,0,0,0,0,0,0,-1,699,1114,0,0
-518,-90,0,0,0,0,0,0,0,0,0,-1,706,1114,0,0
-511,-90,0,0,0,0,0,0,0,0,0,-1,713,1114,0,0
-504,-90,0,0,0,0,0,0,0,0,0,-1,720,1114,0,0
-497,-90,0,0,0,0,0,0,0,0,0,-1,727,1114,0,0
-490,-90,0,0,0,0,0,0,0,0,0,-1,734,1114,0,0
-483,-90,0,0,0,0,0,0,0,0,0,-1,741,1114,0,0
-476,-90,0,0,0,0,0,0,0,0,0,-1,748,1114,0,0
-469,-90,0,0,0,0,0,0,0,0,0,-1,755,1114,0,0
-462,-90,0,0,0,0,0,0,0,0,0,-1,762,1114,0,0
-455,-90,0,0,0,0,0,0,0,0,0,-1,769,1114,0,0
-448,-90,0,0,0,0,0,0,0,0,0,-1,776,1114,0,0
-441,-90,0,0,0,0,0,0,0,0,0,-1,783,1114,0,0
-434,-90,0,0,0,0,0,0,0,0,0,-1,790,1114,0,0
-427,-90,0,0,0,0,0,0,0,0,0,-1,797,1114,0,0
-420,-90,0,0,0,0,0,0,0,0,0,-1,804,1114,0,0
-413,-90,0,0,0,0,0,0,0,0,0,-1,811,1114,0,0
-406,-90,0,0,0,0,0,0,0,0,0,-1,818,1114,0,0
-399,-90,0,0,0,0,0,0,0,0,0,-1,825,1114,0,0
-392,-90,0,0,0,0,0,0,0,0,0,-1,832,1114,0,0
-385,-90,0,0,0,0,0,0,0,0,0,-1,839,1114,0,0
-378,-90,0,0,0,0,0,0,0,0,0,-1,846,1114,0,0
-371,-90,0,0,0,0,0,0,0,0,0,-1,853,1114,0,0
-364,-90,0,0,0,0,0,0,0,0,0,-1,860,1114,0,0
-357,-90,0,0,0,0,0,0,0,0,0,-1,867,1114,0,0
-350,-90,0,0,0,0,0,0,0,0,0,-1,874,1114,0,0
-343,-90,0,0,0,0,0,0,0,0,0,-1,881,1114,0,0
-336,-90,0,0,0,0,0,0,0,0,0,-1,888,1114,0,0
-329,-90,0,0,0,0,0,0,0,0,0,-1,895,1114,0,0
-322,-90,0,0,0,0,0,0,0,0,0,-1,902,1114,0,0
-315,-90,0,0,0,0,0,0,0,0,0,-1,909,1114,0,0
-308,-90,0,0,0,0,0,0,0,0,0,-1,916,1114,0,0
-301,-90,0,0,0,0,0,0,0,0,0,-1,923,1114,0,0
-294,-90,0,0,0,0,0,0,0,0,0,-1,930,1114,0,0
-287,-90,0,0,0,0,0,0,0,0,0,-1,937,1114,0,0
-280,-90,0,0,0,0,0,0,0,0,0,-1,944,1114,0,0
-273,-90,0,0,0,0,0,0,0,0,0,-1,951,1114,0,0
-266,-90,0,0,0,0,0,0,0,0,0,-1,958,1114,0,0
-259,-90,0,0,0,0,0,0,0,0,0,-1,965,1114,0,0
-252,-90,0,0,0,0,0,0,0,0,0,-1,972,1114,0,0
-245,-90,0,0,0,0,0,0,0,0,0,-1,979,1114,0,0
-238,-90,0,0,0,0,0,0,0,0,0,-1,986,1114,0,0
-231,-90,0,0,0,0,0,0,0,0,0,-1,993,1114,0,0
-224,-90,0,0,0,0,0,0,0,0,0,-1,1000,1114,0,0
-217,-90,0,0,0,0,0,0,0,0,0,-1,1007,1114,0,0
-210,-90,0,0,0,0,0,0,0,0,0,-1,1014,1114,0,0
-203,-90,0,0,0,0,0,0,0,0,0,-1,1021,1114,0,0
-196,-90,0,0,0,0,0,0,0,0,0,-1,1028,1114,0,0
-189,-90,0,0,0,0,0,0,0,0,0,-1,1035,1114,0,0
-182,-90,0,0,0,0,0,0,0,0,0,-1,1042,1114,0,0
-175,-90,0,0,0,0,0,0,0,0,0,-1,1049,1114,0,0
-168,-90,0,0,0,0,0,0,0,0,0,-1,1056,1114,0,0
-161,-90,0,0,0,0,0,0,0,0,0,-1,1063,1114,0,0
-154,-90,0,0,0,0,0,0,0,0,0,-1,1070,1114,0,0
-147,-90,0,0,0,0,0,0,0,0,0,-1,1077,1114,0,0
-140,-90,0,0,0,0,0,0,0,0,0,-1,1084,1114,0,0
-133,-90,0,0,0,0,0,0,0,0,0,-1,1091,1114,0,0
-126,-90,0,0,0,0,0,0,0,0,0,-1,1098,1114,0,0
-119,-90,0,0,0,0,0,0,0,0,0,-1,1105,1114,0,0
-112,-90,0,0,0,0,0,0,0,0,0,-1,1112,1114,0,0
-105,-90,0,0,0,0,0,0,0,0,0,-1,1119,1114,0,0
-98,-90,0,0,0,0,0,0,0,0,0,-1,1126,1114,0,0
-91,-90,0,0,0,0,0,0,0,0,0,-1,1133,1114,0,0
-84,-90,0,0,0,0,0,0,0,0,0,-1,1140,1114,0,0
-77,-90,0,0,0,0,0,0,0,0,0,-1,1147,1114,0,0
-70,-90,0,0,0,0,0,0,0,0,0,-1,1154,1114,0,0
-63,-90,0,0,0,0,0,0,0,0,0,-1,1161,1114,0,0
-56,-90,0,0,0,0,0,0,0,0,0,-1,1168,1114,0,0
-49,-90,0,0,0,0,0,0,0,0,0,-1,1175,1114,0,0
-42,-90,0,0,0,0,0,0,0,0,0,-1,1182,1114,0,0
-35,-90,0,0,0,0,0,0,0,0,0,-1,1189,1114,0,0
-28,-90,0,0,0,0,0,0,0,0,0,-1,1196,1114,0,0
-21,-90,0,0,0,0,0,0,0,0,0,-1,1203,1114,0,0
-14,-90,0,0,0,0,0,0,0,0,0,-1,1210,1114,0,0
-7,-90,0,0,0,0,0,0,0,0,0,-1,1217,1114,0,0
0,-90,0,0,0,0,0,0,0,0,0,-1,1224,1114,0,0
7,-90,0,0,0,0,0,0,0,0,0,-1,1231,1114,0,0
14,-90,0,0,0,0,0,0,0,0,0,-1,1238,1114,0,0
21,-90,0,0,0,0,0,0,0,0,0,-1,1245,1114,0,0
28,-90,0,0,0,0,0,0,0,0,0,-1,1252,1114,0,0
35,-90,0,0,0,0,0,0,0,0,0,-1,1259,1114,0,0
42,-90,0,0,0,0,0,0,0,0,0,-1,1266,1114,0,0
49,-90,0,0,0,0,0,0,0,0,0,-1,1273,1114,0,0
56,-90,0,0,0,0,0,0,0,0,0,-1,1280,1114,0,0
63,-90,0,0,0,0,0,0,0,0,0,-1,1287,1114,0,0
70,-90,0,0,0,0,0,0,0,0,0,-1,1294,1114,0,0
77,-90,0,0,0,0,0,0,0,0,0,-1,1301,1114,0,0
84,-90,0,0,0,0,0,0,0,0,0,-1,1308,1114,0,0
91,-90,0,0,0,0,0,0,0,0,0,-1,1315,1114,0,0
98,-90,0,0,0,0,0,0,0,0,0,-1,1322,1114,0,0
105,-90,0,0,0,0,0,0,0,0,0,-1,1329,1114,0,0
112,-90,0,0,0,0,0,0,0,0,0,-1,1336,1114,0,0
119,-90,0,0,0,0,0,0,0,0,0,-1,1343,1114,0,0
126,-90,0,0,0,0,0,0,0,0,0,-1,1350,1114,0,0
133,-90,0,0,0,0,0,0,0,0,0,-1,1357,1114,0,0
140,-90,0,0,0,0,0,0,0,0,0,-1,1364,1114,0,0
147,-90,0,0,0,0,0,0,0,0,0,-1,1371,1114,0,0
154,-90,0,0,0,0,0,0,0,0,0,-1,1378,1114,0,0
161,-90,0,0,0,0,0,0,0,0,0,-1,1385,1114,0,0
168,-90,0,0,0,0,0,0,0,0,0,-1,1392,1114,0,0
175,-90,0,0,0,0,0,0,0,0,0,-1,1399,1114,0,0
182,-90,0,0,0,0,0,0,0,0,0,-1,1406,1114,0,0
189,-90,0,0,0,0,0,0,0,0,0,-1,1413,1114,0,0
196,-90,0,0,0,0,0,0,0,0,0,-1,1420,1114,0,0
203,-90,0,0,0,0,0,0,0,0,0,-1,1427,1114,0,0
210,-90,0,0,0,0,0,0,0,0,0,-1,1434,1114,0,0
217,-90,0,0,0,0,0,0,0,0,0,-1,1441,1114,0,0
224,-90,0,0,0,0,0,0,0,0,0,-1,1448,1114,0,0
231,-90,0,0,0,0,0,0,0,0,0,-1,1455,1114,0,0
238,-90,0,0,0,0,0,0,0,0,0,-1,1462,1114,0,0
245,-90,0,0,0,0,0,0,0,0,0,-1,1469,1114,0,0
252,-90,0,0,0,0,0,0,0,0,0,-1,1476,1114,0,0
259,-90,0,0,0,0,0,0,0,0,0,-1,1483,1114,0,0
266,-90,0,0,0,0,0,0,0,0,0,-1,1490,1114,0,0
273,-90,0,0,0,0,0,0,0,0,0,-1,1497,1114,0,0
280,-90,0,0,0,0,0,0,0,0,0,-1,1504,1114,0,0
287,-90,0,0,0,0,0,0,0,0,0,-1,1511,1114,0,0
294,-90,0,0,0,0,0,0,0,0,0,-1,1518,1114,0,0
301,-90,0,0,0,0,0,0,0,0,0,-1,1525,1114,0,0
308,-90,0,0,0,0,0,0,0,0,0,-1,1532,1114,0,0
315,-90,0,0,0,0,0,0,0,0,0,-1,1539,1114,0,0
322,-90,0,0,0,0,0,0,0,0,0,-1,1546,1114,0,0
329,-90,0,0,0,0,0,0,0,0,0,-1,1553,1114,0,0
336,-90,0,0,0,0,0,0,0,0,0,-1,1560,1114,0,0
343,-90,0,0,0,0,0,0,0,0,0,-1,1567,1114,0,0
350,-90,0,0,0,0,0,0,0,0,0,-1,1574,1114,0,0
357,-90,0,0,0,0,0,0,0,0,0,-1,1581,1114,0,0
364,-90,0,0,0,0,0,0,0,0,0,-1,1588,1114,0,0
371,-90,0,0,0,0,0,0,0,0,0,-1,1595,1114,0,0
378,-90,0,0,0,0,0,0,0,0,0,-1,1602,1114,0,0
385,-90,0,0,0,0,0,0,0,0,0,-1,1609,1114,0,0
392,-90,0,0,0,0,0,0,0,0,0,-1,1616,1114,0,0
399,-90,0,0,0,0,0,0,0,0,0,-1,1623,1114,0,0
406,-90,0,0,0,0,0,0,0,0,0,-1,1630,1114,0,0
413,-90,0,0,0,0,0,0,0,0,0,-1,1637,1114,0,0
420,-90,0,0,0,0,0,0,0,0,0,-1,1644,1114,0,0
427,-90,0,0,0,0,0,0,0,0,0,-1,1651,1114,0,0
434,-90,0,0,0,0,0,0,0,0,0,-1,1658,1114,0,0
441,-90,0,0,0,0,0,0,0,0,0,-1,1665,1114,0,0
448,-90,0,0,0,0,0,0,0,0,0,-1,1672,1114,0,0
455,-90,0,0,0,0,0,0,0,0,0,-1,1679,1114,0,0
462,-90,0,0,0,0,0,0,0,0,0,-1,1686,1114,0,0
469,-90,0,0,0,0,0,0,0,0,0,-1,1693,1114,0,0
476,-90,0,0,0,0,0,0,0,0,0,-1,1700,1114,0,0
483,-90,0,0,0,0,0,0,0,0,0,-1,1707,1114,0,0
490,-90,0,0,0,0,0,0,0,0,0,-1,1714,1114,0,0
497,-90,0,0,0,0,0,0,0,0,0,-1,1721,1114,0,0
504,-90,0,0,0,0,0,0,0,0,0,-1,1728,1114,0,0
511,-90,0,0,0,0,0,0,0,0,0,-1,1735,1114,0,0
518,-90,0,0,0,0,0,0,0,0,0,-1,1742,1114,0,0
525,-90,0,0,0,0,0,0,0,0,0,-1,1749,1114,0,0
532,-90,0,0,0,0,0,0,0,0,0,-1,1756,1114,0,0
539,-90,0,0,0,0,0,0,0,0,0,-1,1763,1114,0,0
546,-90,0,0,0,0,0,0,0,0,0,-1,1770,1114,0,0
553,-90,0,0,0,0,0,0,0,0,0,-1,1777,1114,0,0
560,-90,0,0,0,0,0,0,0,0,0,-1,1784,1114,0,0
567,-90,0,0,0,0,0,0,0,0,0,-1,1791,1114,0,0
574,-90,0,0,0,0,0,0,0,0,0,-1,1798,1114,0,0
581,-90,0,0,0,0,0,0,0,0,0,-1,1805,1114,0,0
588,-90,0,0,0,0,0,0,0,0,0,-1,1812,1114,0,0
595,-90,0,0,0,0,0,0,0,0,0,-1,1819,1114,0,0
602,-90,0,0,0,0,0,0,0,0,0,-1,1826,1114,0,0
609,-90,0,0,0,0,0,0,0,0,0,-1,1833,1114,0,0
616,-90,0,0,0,0,0,0,0,0,0,-1,1840,1114,0,0
623,-90,0,0,0,0,0,0,0,0,0,-1,1847,1114,0,0
630,-90,0,0,0,0,0,0,0,0,0,-1,1854,1114,0,0
637,-90,0,0,0,0,0,0,0,0,0,-1,1861,1114,0,0
644,-90,22.574,2.72644,0.00567841,0.000695155,-0.00295557,0.00705247,-0.00067891,-0.435182,0.00494352,0.036719,1868,1114,22.5739,-2.72644
651,-90,22.6171,2.61267,0.00448391,0.000435815,-0.00192943,0.00525619,-0.000336469,-0.380735,0.0036215,0.0407861,1875,1114,22.6171,-2.6127
658,-90,22.5449,2.6106,0.00376339,0.000115762,-0.00145838,0.00427477,-0.000395623,-0.337258,0.00299046,0.0428096,1882,1114,22.5449,-2.61062
665,-90,22.5692,2.52625,0.00308546,-0.000242726,-0.000989434,0.00335739,-0.000514656,-0.268212,0.00242806,0.041052,1889,1114,22.5692,-2.52628
672,-90,22.6281,2.59985,0.00169793,-0.000905746,0.000396006,0.00175683,-0.000964644,0.147648,0.00159328,0.0410439,1896,1114,22.6281,-2.5999
679,-90,22.7285,2.80371,0.000105022,-0.00156908,0.00189463,0.00133928,-0.00280333,0.577391,0.00244101,0.0392682,1903,1114,22.7285,-2.80373
686,-90,22.8215,2.88635,-0.00134831,-0.00209953,0.0032153,0.00151325,-0.00496109,0.727252,0.00391065,0.0372881,1910,1114,22.8216,-2.88638
693,-90,22.7455,2.76892,-0.0024811,-0.00246769,0.00429033,0.00181594,-0.00676473,0.78618,0.00522148,0.0365743,1917,1114,22.7455,-2.76887
700,-90,22.6901,2.72498,-0.00344958,-0.00263283,0.00509652,0.00207165,-0.00815406,0.825377,0.00624225,0.0312188,1924,1114,22.6901,-2.725
707,-90,22.676,2.46606,0,0,0,0,0,0,0,-1,1931,1114,22.676,-2.4661
714,-90,22.599,3.24084,0,0,0,0,0,0,0,-1,1938,1114,22.599,-3.24088
721,-90,21.7543,4.42517,0,0,0,0,0,0,0,-1,1945,1114,21.7543,-4.42516
728,-90,21.7155,4.39526,-0.00476657,-0.00214078,0.00562743,0.00232488,-0.00923222,0.9,0.00705857,0.0184197,1952,1114,21.7154,-4.39528
735,-90,21.6783,4.30164,-0.00459368,-0.00156598,0.00512599,0.00226503,-0.0084247,0.928981,0.00650429,0.0199355,1959,1114,21.6783,-4.30164
742,-90,21.7219,4.20178,-0.0040987,-0.000805204,0.00426739,0.00212215,-0.00702605,0.969541,0.00552888,0.0167293,1966,1114,21.722,-4.20183
749,-90,21.7914,4.09521,-0.00313922,3.68446e-05,0.00335173,0.00215772,-0.00526009,1.00663,0.00440576,0.0126028,1973,1114,21.7914,-4.09526
756,-90,21.7875,4.01794,-0.00111104,0.0012271,0.00289532,0.00318046,-0.0030644,0.977279,0.00360568,0.0124587,1980,1114,21.7875,-4.01788
763,-90,21.7618,3.93115,0.0026846,0.00221747,0.00247599,0.00493801,-3.59491e-05,0.738371,0.00330406,0.0106997,1987,1114,21.7619,-3.93112
770,-90,21.7362,3.84583,0.00681433,0.00352079,0.00223581,0.00794437,0.00239075,0.467982,0.00470629,0.0130121,1994,1114,21.7362,-3.84577
777,-90,21.7156,3.79224,0.012029,0.00465084,0.00326157,0.0132641,0.00341578,0.361985,0.00795251,0.0124366,2001,1114,21.7155,-3.79222
784,-90,21.7054,3.74377,0.0189976,0.00579606,0.00530251,0.0208636,0.00393002,0.33838,0.0128018,0.0257885,2008,1114,21.7054,-3.74375
791,-90,21.4785,3.63892,0.0289197,0.00694152,0.00841628,0.0317724,0.00408887,0.326792,0.0199587,0.0440259,2015,1114,21.4785,-3.6389
798,-90,21.3242,3.73132,0.0431035,0.00803029,0.0129364,0.0473587,0.00377507,0.317785,0.0303924,0.0475725,2022,1114,21.3242,-3.73128
805,-90,21.4282,3.28857,0.0628933,0.00897577,0.0193647,0.0691275,0.00274165,0.311454,0.0451988,0.0439605,2029,1114,21.4283,-3.28853
812,-90,21.8069,2.80188,0,0,0,0,0,0,0,-1,2036,1114,21.8068,-2.80188
-700,-97,0,0,0,0,0,0,0,0,0,-1,524,1121,0,0
-693,-97,-14.5303,-1.65283,0.000507248,0.105401,-0.00403708,0.105556,0.000352103,-1.53238,0.0702538,0.0478976,531,1121,-14.5303,1.65282
-686,-97,-14.5058,-1.81677,-0.00789521,0.0874998,-0.00414218,0.0876793,-0.00807473,-1.52748,0.0613219,0.0475341,538,1121,-14.5058,1.81677
-679,-97,-14.3672,-1.89233,0,0,0,0,0,0,0,-1,545,1121,-14.3672,1.89233
-672,-97,-13.3945,1.00208,0,0,0,0,0,0,0,-1,552,1121,-13.3945,-1.00203
-665,-97,-14.0234,0.501099,0,0,0,0,0,0,0,-1,559,1121,-14.0234,-0.501044
-658,-97,-14.1248,0.787109,-0.0129493,0.0312549,-0.00125584,0.0312906,-0.012985,-1.54242,0.0262807,0.0458474,566,1121,-14.1248,-0.787122
-651,-97,-14.2037,1.06824,-0.0109198,0.0220518,-0.000545207,0.0220608,-0.0109288,-1.55427,0.0194046,0.0308635,573,1121,-14.2037,-1.06828
-644,-97,-14.2046,1.24585,-0.00903477,0.0149425,-0.000228379,0.0149447,-0.00903695,-1.56127,0.0139852,0.0100863,580,1121,-14.2046,-1.24582
-637,-97,-14.2018,1.38147,-0.00746586,0.00856754,-0.00028902,0.00857275,-0.00747107,-1.55278,0.00927018,0.0110437,587,1121,-14.2019,-1.38152
-630,-97,-14.189,1.49854,-0.00626933,0.00360649,-0.00116315,0.00374163,-0.00640447,-1.45513,0.00592472,0.00931982,594,1121,-14.189,-1.49854
-623,-97,-14.18,1.63416,-0.00499952,0.000264701,-0.00241284,0.00120328,-0.00593809,-1.19982,0.00441482,0.0109317,601,1121,-14.18,-1.6341
-616,-97,-14.1891,1.7655,-0.00443605,-0.000837623,-0.00357327,0.00136385,-0.00663751,-1.01863,0.00494275,0.0123233,608,1121,-14.1891,-1.76548
-609,-97,-14.2092,1.8949,-0.00459395,-0.00169455,-0.00447732,0.00156192,-0.00785042,-0.941966,0.00582448,0.0149533,615,1121,-14.2091,-1.89493
-602,-97,-14.2258,1.9707,-0.00484323,-0.00226836,-0.00550756,0.00210023,-0.00921182,-0.900216,0.00694792,0.0135545,622,1121,-14.2258,-1.97072
-595,-97,-14.1705,2.07983,-0.00523431,-0.00277161,-0.00611676,0.00223651,-0.0102424,-0.884724,0.00768307,0.0161949,629,1121,-14.1706,-2.07986
-588,-97,-14.1988,2.12561,-0.00538407,-0.00309916,-0.00624871,0.00211068,-0.0105939,-0.875815,0.00786119,0.0281369,636,1121,-14.1988,-2.1256
-581,-97,-14.8394,1.31201,-0.00508849,-0.00328777,-0.00605506,0.0019335,-0.0103098,-0.859205,0.00760011,0.0408269,643,1121,-14.8394,-1.312
-574,-97,-15.2525,0.532593,0,0,0,0,0,0,0,-1,650,1121,-15.2525,-0.532595
-567,-97,-15.0273,0.757446,-0.00388487,-0.00296986,-0.00500549,0.00159898,-0.00845372,-0.830972,0.0062375,0.0341356,657,1121,-15.0273,-0.757388
-560,-97,-15.1108,0.973022,-0.00270123,-0.00255336,-0.00393988,0.00131328,-0.00656787,-0.79478,0.00487566,0.0393694,664,1121,-15.1109,-0.973067
-553,-97,-15.0836,0.826904,-0.00104563,-0.0019092,-0.00254975,0.00110864,-0.00406347,-0.701522,0.00314436,0.043715,671,1121,-15.0835,-0.826906
-546,-97,-15.0613,0.693604,0.00110566,-0.00103968,-0.000873702,0.00141645,-0.00135047,-0.341764,0.00159764,0.044497,678,1121,-15.0613,-0.693557
-539,-97,-15.0856,0.681274,0.00386717,4.15498e-05,0.000886205,0.00406249,-0.000153767,0.216929,0.00276101,0.0421884,685,1121,-15.0855,-0.681324
-532,-97,-15.0201,0.729248,0.00570419,0.000740067,0.000863441,0.00585009,0.000594171,0.167389,0.00371786,0.0390646,692,1121,-15.0201,-0.729241
-525,-97,0,0,0,0,0,0,0,0,0,-1,699,1121,0,0
-518,-97,0,0,0,0,0,0,0,0,0,-1,706,1121,0,0
-511,-97,0,0,0,0,0,0,0,0,0,-1,713,1121,0,0
-504,-97,0,0,0,0,0,0,0,0,0,-1,720,1121,0,0
-497,-97,0,0,0,0,0,0,0,0,0,-1,727,1121,0,0
-490,-97,0,0,0,0,0,0,0,0,0,-1,734,1121,0,0
-483,-97,0,0,0,0,0,0,0,0,0,-1,741,1121,0,0
-476,-97,0,0,0,0,0,0,0,0,0,-1,748,1121,0,0
-469,-97,0,0,0,0,0,0,0,0,0,-1,755,1121,0,0
-462,-97,0,0,0,0,0,0,0,0,0,-1,762,1121,0,0
-455,-97,0,0,0,0,0,0,0,0,0,-1,769,1121,0,0
-448,-97,0,0,0,0,0,0,0,0,0,-1,776,1121,0,0
-441,-97,0,0,0,0,0,0,0,0,0,-1,783,1121,0,0
-434,-97,0,0,0,0,0,0,0,0,0,-1,790,1121,0,0
-427,-97,0,0,0,0,0,0,0,0,0,-1,797,1121,0,0
-420,-97,0,0,0,0,0,0,0,0,0,-1,804,1121,0,0
-413,-97,0,0,0,0,0,0,0,0,0,-1,811,1121,0,0
-406,-97,0,0,0,0,0,0,0,0,0,-1,818,1121,0,0
-399,-97,0,0,0,0,0,0,0,0,0,-1,825,1121,0,0
-392,-97,0,0,0,0,0,0,0,0,0,-1,832,1121,0,0
-385,-97,0,0,0,0,0,0,0,0,0,-1,839,1121,0,0
-378,-97,0,0,0,0,0,0,0,0,0,-1,846,1121,0,0
-371,-97,0,0,0,0,0,0,0,0,0,-1,853,1121,0,0
-364,-97,0,0,0,0,0,0,0,0,0,-1,860,1121,0,0
-357,-97,0,0,0,0,0,0,0,0,0,-1,867,1121,0,0
-350,-97,0,0,0,0,0,0,0,0,0,-1,874,1121,0,0
-343,-97,0,0,0,0,0,0,0,0,0,-1,881,1121,0,0
-336,-97,0,0,0,0,0,0,0,0,0,-1,888,1121,0,0
-329,-97,0,0,0,0,0,0,0,0,0,-1,895,1121,0,0
-322,-97,0,0,0,0,0,0,0,0,0,-1,902,1121,0,0
-315,-97,0,0,0,0,0,0,0,0,0,-1,909,1121,0,0
-308,-97,0,0,0,0,0,0,0,0,0,-1,916,1121,0,0
-301,-97,0,0,0,0,0,0,0,0,0,-1,923,1121,0,0
-294,-97,0,0,0,0,0,0,0,0,0,-1,930,1121,0,0
-287,-97,0,0,0,0,0,0,0,0,0,-1,937,1121,0,0
-280,-97,0,0,0,0,0,0,0,0,0,-1,944,1121,0,0
-273,-97,0,0,0,0,0,0,0,0,0,-1,951,1121,0,0
-266,-97,0,0,0,0,0,0,0,0,0,-1,958,1121,0,0
-259,-97,0,0,0,0,0,0,0,0,0,-1,965,1121,0,0
-252,-97,0,0,0,0,0,0,0,0,0,-1,972,1121,0,0
-245,-97,0,0,0,0,0,0,0,0,0,-1,979,1121,0,0
-238,-97,0,0,0,0,0,0,0,0,0,-1,986,1121,0,0
-231,-97,0,0,0,0,0,0,0,0,0,-1,993,1121,0,0
-224,-97,0,0,0,0,0,0,0,0,0,-1,1000,1121,0,0
-217,-97,0,0,0,0,0,0,0,0,0,-1,1007,1121,0,0
-210,-97,0,0,0,0,0,0,0,0,0,-1,1014,1121,0,0
-203,-97,0,0,0,0,0,0,0,0,0,-1,1021,1121,0,0
-196,-97,0,0,0,0,0,0,0,0,0,-1,1028,1121,0,0
-189,-97,0,0,0,0,0,0,0,0,0,-1,1035,1121,0,0
-182,-97,0,0,0,0,0,0,0,0,0,-1,1042,1121,0,0
-175,-97,0,0,0,0,0,0,0,0,0,-1,1049,1121,0,0
-168,-97,0,0,0,0,0,0,0,0,0,-1,1056,1121,0,0
-161,-97,0,0,0,0,0,0,0,0,0,-1,1063,1121,0,0
-154,-97,0,0,0,0,0,0,0,0,0,-1,1070,1121,0,0
-147,-97,0,0,0,0,0,0,0,0,0,-1,1077,1121,0,0
-140,-97,0,0,0,0,0,0,0,0,0,-1,1084,1121,0,0
-133,-97,0,0,0,0,0,0,0,0,0,-1,1091,1121,0,0
-126,-97,0,0,0,0,0,0,0,0,0,-1,1098,1121,0,0
-119,-97,0,0,0,0,0,0,0,0,0,-1,1105,1121,0,0
-112,-97,0,0,0,0,0,0,0,0,0,-1,1112,1121,0,0
-105,-97,0,0,0,0,0,0,0,0,0,-1,1119,1121,0,0
-98,-97,0,0,0,0,0,0,0,0,0,-1,1126,1121,0,0
-91,-97,0,0,0,0,0,0,0,0,0,-1,1133,1121,0,0
-84,-97,0,0,0,0,0,0,0,0,0,-1,1140,1121,0,0
-77,-97,0,0,0,0,0,0,0,0,0,-1,1147,1121,0,0
-70,-97,0,0,0,0,0,0,0,0,0,-1,1154,1121,0,0
-63,-97,0,0,0,0,0,0,0,0,0,-1,1161,1121,0,0
-56,-97,0,0,0,0,0,0,0,0,0,-1,1168,1121,0,0
-49,-97,0,0,0,0,0,0,0,0,0,-1,1175,1121,0,0
-42,-97,0,0,0,0,0,0,0,0,0,-1,1182,1121,0,0
-35,-97,0,0,0,0,0,0,0,0,0,-1,1189,1121,0,0
-28,-97,0,0,0,0,0,0,0,0,0,-1,1196,1121,0,0
-21,-97,0,0,0,0,0,0,0,0,0,-1,1203,1121,0,0
-14,-97,0,0,0,0,0,0,0,0,0,-1,1210,1121,0,0
-7,-97,0,0,0,0,0,0,0,0,0,-1,1217,1121,0,0
0,-97,0,0,0,0,0,0,0,0,0,-1,1224,1121,0,0
7,-97,0,0,0,0,0,0,0,0,0,-1,1231,1121,0,0
14,-97,0,0,0,0,0,0,0,0,0,-1,1238,1121,0,0
21,-97,0,0,0,0,0,0,0,0,0,-1,1245,1121,0,0
28,-97,0,0,0,0,0,0,0,0,0,-1,1252,1121,0,0
35,-97,0,0,0,0,0,0,0,0,0,-1,1259,1121,0,0
42,-97,0,0,0,0,0,0,0,0,0,-1,1266,1121,0,0
49,-97,0,0,0,0,0,0,0,0,0,-1,1273,1121,0,0
56,-97,0,0,0,0,0,0,0,0,0,-1,1280,1121,0,0
63,-97,0,0,0,0,0,0,0,0,0,-1,1287,1121,0,0
70,-97,0,0,0,0,0,0,0,0,0,-1,1294,1121,0,0
77,-97,0,0,0,0,0,0,0,0,0,-1,1301,1121,0,0
84,-97,0,0,0,0,0,0,0,0,0,-1,1308,1121,0,0
91,-97,0,0,0,0,0,0,0,0,0,-1,1315,1121,0,0
98,-97,0,0,0,0,0,0,0,0,0,-1,1322,1121,0,0
105,-97,0,0,0,0,0,0,0,0,0,-1,1329,1121,0,0
112,-97,0,0,0,0,0,0,0,0,0,-1,1336,1121,0,0
119,-97,0,0,0,0,0,0,0,0,0,-1,1343,1121,0,0
126,-97,0,0,0,0,0,0,0,0,0,-1,1350,1121,0,0
133,-97,0,0,0,0,0,0,0,0,0,-1,1357,1121,0,0
140,-97,0,0,0,0,0,0,0,0,0,-1,1364,1121,0,0
147,-97,0,0,0,0,0,0,0,0,0,-1,1371,1121,0,0
154,-97,0,0,0,0,0,0,0,0,0,-1,1378,1121,0,0
161,-97,0,0,0,0,0,0,0,0,0,-1,1385,1121,0,0
168,-97,0,0,0,0,0,0,0,0,0,-1,1392,1121,0,0
175,-97,0,0,0,0,0,0,0,0,0,-1,1399,1121,0,0
182,-97,0,0,0,0,0,0,0,0,0,-1,1406,1121,0,0
189,-97,0,0,0,0,0,0,0,0,0,-1,1413,1121,0,0
196,-97,0,0,0,0,0,0,0,0,0,-1,1420,1121,0,0
203,-97,0,0,0,0,0,0,0,0,0,-1,1427,1121,0,0
210,-97,0,0,0,0,0,0,0,0,0,-1,1434,1121,0,0
217,-97,0,0,0,0,0,0,0,0,0,-1,1441,1121,0,0
224,-97,0,0,0,0,0,0,0,0,0,-1,1448,1121,0,0
231,-97,0,0,0,0,0,0,0,0,0,-1,1455,1121,0,0
238,-97,0,0,0,0,0,0,0,0,0,-1,1462,1121,0,0
245,-97,0,0,0,0,0,0,0,0,0,-1,1469,1121,0,0
252,-97,0,0,0,0,0,0,0,0,0,-1,1476,1121,0,0
259,-97,0,0,0,0,0,0,0,0,0,-1,1483,1121,0,0
266,-97,0,0,0,0,0,0,0,0,0,-1,1490,1121,0,0
273,-97,0,0,0,0,0,0,0,0,0,-1,1497,1121,0,0
280,-97,0,0,0,0,0,0,0,0,0,-1,1504,1121,0,0
287,-97,0,0,0,0,0,0,0,0,0,-1,1511,1121,0,0
294,-97,0,0,0,0,0,0,0,0,0,-1,1518,1121,0,0
301,-97,0,0,0,0,0,0,0,0,0,-1,1525,1121,0,0
308,-97,0,0,0,0,0,0,0,0,0,-1,1532,1121,0,0
315,-97,0,0,0,0,0,0,0,0,0,-1,1539,1121,0,0
322,-97,0,0,0,0,0,0,0,0,0,-1,1546,1121,0,0
329,-97,0,0,0,0,0,0,0,0,0,-1,1553,1121,0,0
336,-97,0,0,0,0,0,0,0,0,0,-1,1560,1121,0,0
343,-97,0,0,0,0,0,0,0,0,0,-1,1567,1121,0,0
350,-97,0,0,0,0,0,0,0,0,0,-1,1574,1121,0,0
357,-97,0,0,0,0,0,0,0,0,0,-1,1581,1121,0,0
364,-97,0,0,0,0,0,0,0,0,0,-1,1588,1121,0,0
371,-97,0,0,0,0,0,0,0,0,0,-1,1595,1121,0,0
378,-97,0,0,0,0,0,0,0,0,0,-1,1602,1121,0,0
385,-97,0,0,0,0,0,0,0,0,0,-1,1609,1121,0,0
392,-97,0,0,0,0,0,0,0,0,0,-1,1616,1121,0,0
399,-97,0,0,0,0,0,0,0,0,0,-1,1623,1121,0,0
406,-97,0,0,0,0,0,0,0,0,0,-1,1630,1121,0,0
413,-97,0,0,0,0,0,0,0,0,0,-1,1637,1121,0,0
420,-97,0,0,0,0,0,0,0,0,0,-1,1644,1121,0,0
427,-97,0,0,0,0,0,0,0,0,0,-1,1651,1121,0,0
434,-97,0,0,0,0,0,0,0,0,0,-1,1658,1121,0,0
441,-97,0,0,0,0,0,0,0,0,0,-1,1665,1121,0,0
448,-97,0,0,0,0,0,0,0,0,0,-1,1672,1121,0,0
455,-97,0,0,0,0,0,0,0,0,0,-1,1679,1121,0,0
462,-97,0,0,0,0,0,0,0,0,0,-1,1686,1121,0,0
469,-97,0,0,0,0,0,0,0,0,0,-1,1693,1121,0,0
476,-97,0,0,0,0,0,0,0,0,0,-1,1700,1121,0,0
483,-97,0,0,0,0,0,0,0,0,0,-1,1707,1121,0,0
490,-97,0,0,0,0,0,0,0,0,0,-1,1714,1121,0,0
497,-97,0,0,0,0,0,0,0,0,0,-1,1721,1121,0,0
504,-97,0,0,0,0,0,0,0,0,0,-1,1728,1121,0,0
511,-97,0,0,0,0,0,0,0,0,0,-1,1735,1121,0,0
518,-97,0,0,0,0,0,0,0,0,0,-1,1742,1121,0,0
525,-97,0,0,0,0,0,0,0,0,0,-1,1749,1121,0,0
532,-97,0,0,0,0,0,0,0,0,0,-1,1756,1121,0,0
539,-97,0,0,0,0,0,0,0,0,0,-1,1763,1121,0,0
546,-97,0,0,0,0,0,0,0,0,0,-1,1770,1121,0,0
553,-97,0,0,0,0,0,0,0,0,0,-1,1777,1121,0,0
560,-97,0,0,0,0,0,0,0,0,0,-1,1784,1121,0,0
567,-97,0,0,0,0,0,0,0,0,0,-1,1791,1121,0,0
574,-97,0,0,0,0,0,0,0,0,0,-1,1798,1121,0,0
581,-97,0,0,0,0,0,0,0,0,0,-1,1805,1121,0,0
588,-97,0,0,0,0,0,0,0,0,0,-1,1812,1121,0,0
595,-97,0,0,0,0,0,0,0,0,0,-1,1819,1121,0,0
602,-97,0,0,0,0,0,0,0,0,0,-1,1826,1121,0,0
609,-97,0,0,0,0,0,0,0,0,0,-1,1833,1121,0,0
616,-97,0,0,0,0,0,0,0,0,0,-1,1840,1121,0,0
623,-97,0,0,0,0,0,0,0,0,0,-1,1847,1121,0,0
630,-97,0,0,0,0,0,0,0,0,0,-1,1854,1121,0,0
637,-97,0,0,0,0,0,0,0,0,0,-1,1861,1121,0,0
644,-97,22.6359,2.75818,0.0059735,6.19873e-05,-0.00351245,0.00760837,-0.00157287,-0.435626,0.00566973,0.0387063,1868,1121,22.6359,-2.75816
651,-97,22.7416,2.66125,0.00437926,-2.29362e-05,-0.00220556,0.00529415,-0.00093782,-0.393206,0.00388,0.0385542,1875,1121,22.7415,-2.66126
658,-97,22.6241,2.70862,0.00355733,-0.000189703,-0.00158767,0.00413958,-0.000771945,-0.351499,0.00304977,0.0394802,1882,1121,22.6241,-2.70856
665,-97,22.671,2.52026,0.00263386,-0.000471928,-0.000846074,0.00284939,-0.000687458,-0.249436,0.00216543,0.0410491,1889,1121,22.671,-2.52024
672,-97,22.7026,2.67346,0.000945233,-0.00106343,0.00070215,0.00116634,-0.00128454,0.305068,0.00141556,0.0429659,1896,1121,22.7026,-2.6735
679,-97,22.6255,2.9408,-0.000840444,-0.00165809,0.00222099,0.00100904,-0.00350757,0.694381,0.00273744,0.0423629,1903,1121,22.6255,-2.94077
686,-97,22.637,2.99353,-0.00241506,-0.00214566,0.00352107,0.00124329,-0.00580401,0.804517,0.00434349,0.037868,1910,1121,22.637,-2.99351
693,-97,22.673,2.83081,-0.00361861,-0.00247865,0.00454213,0.00152913,-0.00762638,0.847816,0.0056632,0.0346714,1917,1121,22.673,-2.83084
700,-97,22.6816,2.68555,-0.00463499,-0.0026457,0.00530925,0.00176127,-0.00904196,0.877996,0.00669276,0.0279101,1924,1121,22.6816,-2.6856
707,-97,22.6837,2.61096,0,0,0,0,0,0,0,-1,1931,1121,22.6837,-2.61095
714,-97,22.4579,3.51331,0,0,0,0,0,0,0,-1,1938,1121,22.4579,-3.5133
721,-97,21.6786,4.45361,0,0,0,0,0,0,0,-1,1945,1121,21.6786,-4.4536
728,-97,21.6663,4.4342,-0.00570716,-0.00213084,0.00563174,0.00198981,-0.00982781,0.939121,0.00730603,0.0183658,1952,1121,21.6662,-4.43415
735,-97,21.6426,4.32764,-0.00536614,-0.00160203,0.00504782,0.00190318,-0.00887134,0.963838,0.00664017,0.0179353,1959,1121,21.6426,-4.32768
742,-97,21.6427,4.21985,-0.00465806,-0.000948298,0.00416142,0.00175291,-0.00735927,0.995048,0.00558298,0.0141442,1966,1121,21.6427,-4.2198
749,-97,21.6709,4.10974,-0.00354477,-0.00022669,0.00324545,0.00175918,-0.00553064,1.02168,0.00439252,0.0156884,1973,1121,21.6709,-4.1097
756,-97,21.6732,4.01013,-0.00140262,0.000825386,0.00264332,0.00257985,-0.00315709,0.984825,0.00331781,0.0131422,1980,1121,21.6732,-4.01018
763,-97,21.6598,3.93555,0.00257706,0.00168621,0.00209307,0.00427157,-8.30553e-06,0.680557,0.00285049,0.0102574,1987,1121,21.6598,-3.9356
770,-97,21.6549,3.85278,0.00674988,0.00273706,0.00180512,0.00744238,0.00204456,0.366318,0.00443986,0.0089553,1994,1121,21.6549,-3.85284
777,-97,21.6516,3.75891,0.0118463,0.00356996,0.00275065,0.0126771,0.00273917,0.293321,0.00770242,0.0126249,2001,1121,21.6517,-3.7589
784,-97,21.6271,3.5686,0.0187691,0.00441488,0.00462409,0.0201297,0.00305424,0.286173,0.0125265,0.0325556,2008,1121,21.6271,-3.56859
791,-97,21.52,3.22766,0.0288168,0.00528206,0.0075491,0.0310301,0.00306874,0.285198,0.0197435,0.0437044,2015,1121,21.52,-3.22769
798,-97,21.4238,3.16223,0,0,0,0,0,0,0,-1,2022,1121,21.4238,-3.16219
805,-97,21.3284,3.31384,0,0,0,0,0,0,0,-1,2029,1121,21.3283,-3.31387
812,-97,21.5679,2.68384,0,0,0,0,0,0,0,-1,2036,1121,21.5678,-2.68384
-700,-104,0,0,0,0,0,0,0,0,0,-1,524,1128,0,0
-693,-104,-14.3123,-2.48328,-0.0239393,0.106225,-0.00206556,0.106257,-0.0239721,-1.55493,0.0800347,0.0485486,531,1128,-14.3123,2.48331
-686,-104,-14.2789,-2.67017,-0.0291602,0.0877073,-0.00310545,0.0877897,-0.0292427,-1.54425,0.0703306,0.049917,538,1128,-14.2789,2.67022
-679,-104,-14.2136,-2.82935,0,0,0,0,0,0,0,-1,545,1128,-14.2136,2.82939
-672,-104,-12.6953,0.680054,0,0,0,0,0,0,0,-1,552,1128,-12.6953,-0.680087
-665,-104,-13.2426,0.715576,0,0,0,0,0,0,0,-1,559,1128,-13.2426,-0.715578
-658,-104,-13.7722,0.752075,-0.0216007,0.0311157,-0.0018248,0.0311788,-0.0216638,-1.53624,0.0306731,0.0431942,566,1128,-13.7721,-0.752113
-651,-104,-14.1198,1.0708,-0.0171892,0.0219981,-0.0011815,0.0220337,-0.0172248,-1.54068,0.0227225,0.0362557,573,1128,-14.1197,-1.07081
-644,-104,-14.081,1.22461,-0.0131546,0.0149211,-0.000809094,0.0149444,-0.0131779,-1.54201,0.0162471,0.0141408,580,1128,-14.081,-1.22457
-637,-104,-14.0571,1.36292,-0.0100582,0.00863693,-0.000747672,0.00866678,-0.010088,-1.53089,0.0108384,0.0101862,587,1128,-14.0571,-1.36291
-630,-104,-14.0582,1.46838,-0.00783345,0.00378601,-0.00143747,0.0039612,-0.00800864,-1.44952,0.00704126,0.0121321,594,1128,-14.0582,-1.46843
-623,-104,-14.0656,1.62073,-0.00560118,0.000413324,-0.0025795,0.00136806,-0.00655592,-1.21631,0.00489083,0.014373,601,1128,-14.0656,-1.62068
-616,-104,-14.1155,1.77625,-0.00458027,-0.00070401,-0.00347468,0.00133652,-0.0066208,-1.0398,0.00492026,0.0151635,608,1128,-14.1155,-1.77624
-609,-104,-14.1616,1.87683,-0.0047488,-0.00162987,-0.00420275,0.00129342,-0.00767209,-0.963053,0.00559591,0.0177838,615,1128,-14.1615,-1.87689
-602,-104,-14.0896,1.99744,-0.00512256,-0.00223448,-0.00514739,0.00166759,-0.00902463,-0.922152,0.00664243,0.0149375,622,1128,-14.0896,-1.99747
-595,-104,-14.0354,2.13867,-0.00557305,-0.00275051,-0.0056894,0.00170004,-0.0100236,-0.90697,0.00731523,0.015157,629,1128,-14.0354,-2.13867
-588,-104,-14.1513,2.16687,0,0,0,0,0,0,0,-1,636,1128,-14.1513,-2.16688
-581,-104,-14.6205,1.39612,0,0,0,0,0,0,0,-1,643,1128,-14.6205,-1.39612
-574,-104,-15.0896,0.625366,0,0,0,0,0,0,0,-1,650,1128,-15.0896,-0.625354
-567,-104,-14.973,0.901123,0,0,0,0,0,0,0,-1,657,1128,-14.973,-0.901092
-560,-104,-14.9079,0.818848,0,0,0,0,0,0,0,-1,664,1128,-14.9079,-0.818905
-553,-104,-15.2321,0.73877,-0.00147518,-0.00227444,-0.00258909,0.000744937,-0.00449456,-0.708826,0.00327306,0.045815,671,1128,-15.2321,-0.738819
-546,-104,-15.1544,0.632813,0.000785535,-0.00148066,-0.0010996,0.00123137,-0.0019265,-0.385198,0.00183786,0.0443545,678,1128,-15.1544,-0.632786
-539,-104,-15.1165,0.744141,0.00379267,-0.000425322,0.000487353,0.00384824,-0.000480899,0.113548,0.0027399,0.0403017,685,1128,-15.1165,-0.744088
-532,-104,-15.0363,0.842651,0.00626184,0.000428115,0.000617394,0.00632646,0.000363491,0.104293,0.00410185,0.04011,692,1128,-15.0363,-0.842651
-525,-104,-15.1583,1.01343,0.00614512,0.000285502,-0.00253943,0.00709249,-0.000661861,-0.35707,0.00496368,0.0381669,699,1128,-15.1583,-1.01337
-518,-104,0,0,0,0,0,0,0,0,0,-1,706,1128,0,0
-511,-104,0,0,0,0,0,0,0,0,0,-1,713,1128,0,0
-504,-104,0,0,0,0,0,0,0,0,0,-1,720,1128,0,0
-497,-104,0,0,0,0,0,0,0,0,0,-1,727,1128,0,0
-490,-104,0,0,0,0,0,0,0,0,0,-1,734,1128,0,0
-483,-104,0,0,0,0,0,0,0,0,0,-1,741,1128,0,0
-476,-104,0,0,0,0,0,0,0,0,0,-1,748,1128,0,0
-469,-104,0,0,0,0,0,0,0,0,0,-1,755,1128,0,0
-462,-104,0,0,0,0,0,0,0,0,0,-1,762,1128,0,0
-455,-104,0,0,0,0,0,0,0,0,0,-1,769,1128,0,0
-448,-104,0,0,0,0,0,0,0,0,0,-1,776,1128,0,0
-441,-104,0,0,0,0,0,0,0,0,0,-1,783,1128,0,0
-434,-104,0,0,0,0,0,0,0,0,0,-1,790,1128,0,0
-427,-104,0,0,0,0,0,0,0,0,0,-1,797,1128,0,0
-420,-104,0,0,0,0,0,0,0,0,0,-1,804,1128,0,0
-413,-104,0,0,0,0,0,0,0,0,0,-1,811,1128,0,0
-406,-104,0,0,0,0,0,0,0,0,0,-1,818,1128,0,0
-399,-104,0,0,0,0,0,0,0,0,0,-1,825,1128,0,0
-392,-104,0,0,0,0,0,0,0,0,0,-1,832,1128,0,0
-385,-104,0,0,0,0,0,0,0,0,0,-1,839,1128,0,0
-378,-104,0,0,0,0,0,0,0,0,0,-1,846,1128,0,0
-371,-104,0,0,0,0,0,0,0,0,0,-1,853,1128,0,0
-364,-104,0,0,0,0,0,0,0,0,0,-1,860,1128,0,0
-357,-104,0,0,0,0,0,0,0,0,0,-1,867,1128,0,0
-350,-104,0,0,0,0,0,0,0,0,0,-1,874,1128,0,0
-343,-104,0,0,0,0,0,0,0,0,0,-1,881,1128,0,0
-336,-104,0,0,0,0,0,0,0,0,0,-1,888,1128,0,0
-329,-104,0,0,0,0,0,0,0,0,0,-1,895,1128,0,0
-322,-104,0,0,0,0,0,0,0,0,0,-1,902,1128,0,0
-315,-104,0,0,0,0,0,0,0,0,0,-1,909,1128,0,0
-308,-104,0,0,0,0,0,0,0,0,0,-1,916,1128,0,0
-301,-104,0,0,0,0,0,0,0,0,0,-1,923,1128,0,0
-294,-104,0,0,0,0,0,0,0,0,0,-1,930,1128,0,0
-287,-104,0,0,0,0,0,0,0,0,0,-1,937,1128,0,0
-280,-104,0,0,0,0,0,0,0,0,0,-1,944,1128,0,0
-273,-104,0,0,0,0,0,0,0,0,0,-1,951,1128,0,0
-266,-104,0,0,0,0,0,0,0,0,0,-1,958,1128,0,0
-259,-104,0,0,0,0,0,0,0,0,0,-1,965,1128,0,0
-252,-104,0,0,0,0,0,0,0,0,0,-1,972,1128,0,0
-245,-104,0,0,0,0,0,0,0,0,0,-1,979,1128,0,0
-238,-104,0,0,0,0,0,0,0,0,0,-1,986,1128,0,0
-231,-104,0,0,0,0,0,0,0,0,0,-1,993,1128,0,0
-224,-104,0,0,0,0,0,0,0,0,0,-1,1000,1128,0,0
-217,-104,0,0,0,0,0,0,0,0,0,-1,1007,1128,0,0
-210,-104,0,0,0,0,0,0,0,0,0,-1,1014,1128,0,0
-203,-104,0,0,0,0,0,0,0,0,0,-1,1021,1128,0,0
-196,-104,0,0,0,0,0,0,0,0,0,-1,1028,1128,0,0
-189,-104,0,0,0,0,0,0,0,0,0,-1,1035,1128,0,0
-182,-104,0,0,0,0,0,0,0,0,0,-1,1042,1128,0,0
-175,-104,0,0,0,0,0,0,0,0,0,-1,1049,1128,0,0
-168,-104,0,0,0,0,0,0,0,0,0,-1,1056,1128,0,0
-161,-104,0,0,0,0,0,0,0,0,0,-1,1063,1128,0,0
-154,-104,0,0,0,0,0,0,0,0,0,-1,1070,1128,0,0
-147,-104,0,0,0,0,0,0,0,0,0,-1,1077,1128,0,0
-140,-104,0,0,0,0,0,0,0,0,0,-1,1084,1128,0,0
-133,-104,0,0,0,0,0,0,0,0,0,-1,1091,1128,0,0
-126,-104,0,0,0,0,0,0,0,0,0,-1,1098,1128,0,0
-119,-104,0,0,0,0,0,0,0,0,0,-1,1105,1128,0,0
-112,-104,0,0,0,0,0,0,0,0,0,-1,1112,1128,0,0
-105,-104,0,0,0,0,0,0,0,0,0,-1,1119,1128,0,0
-98,-104,0,0,0,0,0,0,0,0,0,-1,1126,1128,0,0
-91,-104,0,0,0,0,0,0,0,0,0,-1,1133,1128,0,0
-84,-104,0,0,0,0,0,0,0,0,0,-1,1140,1128,0,0
-77,-104,0,0,0,0,0,0,0,0,0,-1,1147,1128,0,0
-70,-104,0,0,0,0,0,0,0,0,0,-1,1154,1128,0,0
-63,-104,0,0,0,0,0,0,0,0,0,-1,1161,1128,0,0
-56,-104,0,0,0,0,0,0,0,0,0,-1,1168,1128,0,0
-49,-104,0,0,0,0,0,0,0,0,0,-1,1175,1128,0,0
-42,-104,0,0,0,0,0,0,0,0,0,-1,1182,1128,0,0
-35,-104,0,0,0,0,0,0,0,0,0,-1,1189,1128,0,0
-28,-104,0,0,0,0,0,0,0,0,0,-1,1196,1128,0,0
-21,-104,0,0,0,0,0,0,0,0,0,-1,1203,1128,0,0
-14,-104,0,0,0,0,0,0,0,0,0,-1,1210,1128,0,0
-7,-104,0,0,0,0,0,0,0,0,0,-1,1217,1128,0,0
0,-104,0,0,0,0,0,0,0,0,0,-1,1224,1128,0,0
7,-104,0,0,0,0,0,0,0,0,0,-1,1231,1128,0,0
14,-104,0,0,0,0,0,0,0,0,0,-1,1238,1128,0,0
21,-104,0,0,0,0,0,0,0,0,0,-1,1245,1128,0,0
28,-104,0,0,0,0,0,0,0,0,0,-1,1252,1128,0,0
35,-104,0,0,0,0,0,0,0,0,0,-1,1259,1128,0,0
42,-104,0,0,0,0,0,0,0,0,0,-1,1266,1128,0,0
49,-104,0,0,0,0,0,0,0,0,0,-1,1273,1128,0,0
56,-104,0,0,0,0,0,0,0,0,0,-1,1280,1128,0,0
63,-104,0,0,0,0,0,0,0,0,0,-1,1287,1128,0,0
70,-104,0,0,0,0,0,0,0,0,0,-1,1294,1128,0,0
77,-104,0,0,0,0,0,0,0,0,0,-1,1301,1128,0,0
84,-104,0,0,0,0,0,0,0,0,0,-1,1308,1128,0,0
91,-104,0,0,0,0,0,0,0,0,0,-1,1315,1128,0,0
98,-104,0,0,0,0,0,0,0,0,0,-1,1322,1128,0,0
105,-104,0,0,0,0,0,0,0,0,0,-1,1329,1128,0,0
112,-104,0,0,0,0,0,0,0,0,0,-1,1336,1128,0,0
119,-104,0,0,0,0,0,0,0,0,0,-1,1343,1128,0,0
126,-104,0,0,0,0,0,0,0,0,0,-1,1350,1128,0,0
133,-104,0,0,0,0,0,0,0,0,0,-1,1357,1128,0,0
140,-104,0,0,0,0,0,0,0,0,0,-1,1364,1128,0,0
147,-104,0,0,0,0,0,0,0,0,0,-1,1371,1128,0,0
154,-104,0,0,0,0,0,0,0,0,0,-1,1378,1128,0,0
161,-104,0,0,0,0,0,0,0,0,0,-1,1385,1128,0,0
168,-104,0,0,0,0,0,0,0,0,0,-1,1392,1128,0,0
175,-104,0,0,0,0,0,0,0,0,0,-1,1399,1128,0,0
182,-104,0,0,0,0,0,0,0,0,0,-1,1406,1128,0,0
189,-104,0,0,0,0,0,0,0,0,0,-1,1413,1128,0,0
196,-104,0,0,0,0,0,0,0,0,0,-1,1420,1128,0,0
203,-104,0,0,0,0,0,0,0,0,0,-1,1427,1128,0,0
210,-104,0,0,0,0,0,0,0,0,0,-1,1434,1128,0,0
217,-104,0,0,0,0,0,0,0,0,0,-1,1441,1128,0,0
224,-104,0,0,0,0,0,0,0,0,0,-1,1448,1128,0,0
231,-104,0,0,0,0,0,0,0,0,0,-1,1455,1128,0,0
238,-104,0,0,0,0,0,0,0,0,0,-1,1462,1128,0,0
245,-104,0,0,0,0,0,0,0,0,0,-1,1469,1128,0,0
252,-104,0,0,0,0,0,0,0,0,0,-1,1476,1128,0,0
259,-104,0,0,0,0,0,0,0,0,0,-1,1483,1128,0,0
266,-104,0,0,0,0,0,0,0,0,0,-1,1490,1128,0,0
273,-104,0,0,0,0,0,0,0,0,0,-1,1497,1128,0,0
280,-104,0,0,0,0,0,0,0,0,0,-1,1504,1128,0,0
287,-104,0,0,0,0,0,0,0,0,0,-1,1511,1128,0,0
294,-104,0,0,0,0,0,0,0,0,0,-1,1518,1128,0,0
301,-104,0,0,0,0,0,0,0,0,0,-1,1525,1128,0,0
308,-104,0,0,0,0,0,0,0,0,0,-1,1532,1128,0,0
315,-104,0,0,0,0,0,0,0,0,0,-1,1539,1128,0,0
322,-104,0,0,0,0,0,0,0,0,0,-1,1546,1128,0,0
329,-104,0,0,0,0,0,0,0,0,0,-1,1553,1128,0,0
336,-104,0,0,0,0,0,0,0,0,0,-1,1560,1128,0,0
343,-104,0,0,0,0,0,0,0,0,0,-1,1567,1128,0,0
350,-104,0,0,0,0,0,0,0,0,0,-1,1574,1128,0,0
357,-104,0,0,0,0,0,0,0,0,0,-1,1581,1128,0,0
364,-104,0,0,0,0,0,0,0,0,0,-1,1588,1128,0,0
371,-104,0,0,0,0,0,0,0,0,0,-1,1595,1128,0,0
378,-104,0,0,0,0,0,0,0,0,0,-1,1602,1128,0,0
385,-104,0,0,0,0,0,0,0,0,0,-1,1609,1128,0,0
392,-104,0,0,0,0,0,0,0,0,0,-1,1616,1128,0,0
399,-104,0,0,0,0,0,0,0,0,0,-1,1623,1128,0,0
406,-104,0,0,0,0,0,0,0,0,0,-1,1630,1128,0,0
413,-104,0,0,0,0,0,0,0,0,0,-1,1637,1128,0,0
420,-104,0,0,0,0,0,0,0,0,0,-1,1644,1128,0,0
427,-104,0,0,0,0,0,0,0,0,0,-1,1651,1128,0,0
434,-104,0,0,0,0,0,0,0,0,0,-1,1658,1128,0,0
441,-104,0,0,0,0,0,0,0,0,0,-1,1665,1128,0,0
448,-104,0,0,0,0,0,0,0,0,0,-1,1672,1128,0,0
455,-104,0,0,0,0,0,0,0,0,0,-1,1679,1128,0,0
462,-104,0,0,0,0,0,0,0,0,0,-1,1686,1128,0,0
469,-104,0,0,0,0,0,0,0,0,0,-1,1693,1128,0,0
476,-104,0,0,0,0,0,0,0,0,0,-1,1700,1128,0,0
483,-104,0,0,0,0,0,0,0,0,0,-1,1707,1128,0,0
490,-104,0,0,0,0,0,0,0,0,0,-1,1714,1128,0,0
497,-104,0,0,0,0,0,0,0,0,0,-1,1721,1128,0,0
504,-104,0,0,0,0,0,0,0,0,0,-1,1728,1128,0,0
511,-104,0,0,0,0,0,0,0,0,0,-1,1735,1128,0,0
518,-104,0,0,0,0,0,0,0,0,0,-1,1742,1128,0,0
525,-104,0,0,0,0,0,0,0,0,0,-1,1749,1128,0,0
532,-104,0,0,0,0,0,0,0,0,0,-1,1756,1128,0,0
539,-104,0,0,0,0,0,0,0,0,0,-1,1763,1128,0,0
546,-104,0,0,0,0,0,0,0,0,0,-1,1770,1128,0,0
553,-104,0,0,0,0,0,0,0,0,0,-1,1777,1128,0,0
560,-104,0,0,0,0,0,0,0,0,0,-1,1784,1128,0,0
567,-104,0,0,0,0,0,0,0,0,0,-1,1791,1128,0,0
574,-104,0,0,0,0,0,0,0,0,0,-1,1798,1128,0,0
581,-104,0,0,0,0,0,0,0,0,0,-1,1805,1128,0,0
588,-104,0,0,0,0,0,0,0,0,0,-1,1812,1128,0,0
595,-104,0,0,0,0,0,0,0,0,0,-1,1819,1128,0,0
602,-104,0,0,0,0,0,0,0,0,0,-1,1826,1128,0,0
609,-104,0,0,0,0,0,0,0,0,0,-1,1833,1128,0,0
616,-104,0,0,0,0,0,0,0,0,0,-1,1840,1128,0,0
623,-104,0,0,0,0,0,0,0,0,0,-1,1847,1128,0,0
630,-104,0,0,0,0,0,0,0,0,0,-1,1854,1128,0,0
637,-104,0,0,0,0,0,0,0,0,0,-1,1861,1128,0,0
644,-104,22.5507,2.76135,0.00599931,-0.000510796,-0.00351219,0.00753287,-0.00204436,-0.411689,0.00582422,0.0373617,1868,1128,22.5506,-2.76135
651,-104,22.662,2.86633,0.00416096,-0.000319517,-0.00215183,0.00502702,-0.00118557,-0.382636,0.00380855,0.0387498,1875,1128,22.6619,-2.86628
658,-104,22.7775,2.6969,0.00329971,-0.000279217,-0.00152797,0.0038633,-0.000842812,-0.353369,0.00289762,0.0428441,1882,1128,22.7775,-2.69688
665,-104,22.7883,2.4906,0.00212185,-0.000441619,-0.000632741,0.00226952,-0.000589291,-0.229281,0.00174297,0.0450502,1889,1128,22.7884,-2.49055
672,-104,22.5992,2.70752,0.000172533,-0.000921264,0.000954724,0.000725905,-0.00147464,0.525296,0.00129476,0.0447338,1896,1128,22.5993,-2.70757
679,-104,22.5061,2.8407,-0.00176524,-0.0014343,0.00242379,0.000829658,-0.0040292,0.819479,0.00300116,0.0432464,1903,1128,22.5061,-2.84076
686,-104,22.5382,2.88171,-0.00344333,-0.00188463,0.00367055,0.0010884,-0.00641635,0.890007,0.00468272,0.0392244,1910,1128,22.5383,-2.88174
693,-104,22.6085,2.81226,-0.00471133,-0.00219769,0.00463105,0.00134406,-0.00825308,0.917902,0.00600046,0.0330952,1917,1128,22.6085,-2.8123
700,-104,22.6659,2.66516,-0.00576699,-0.0023882,0.00536918,0.00155109,-0.00970629,0.937818,0.00704504,0.0261078,1924,1128,22.6659,-2.6652
707,-104,22.6478,2.77502,0,0,0,0,0,0,0,-1,1931,1128,22.6479,-2.77506
714,-104,22.2119,3.66748,-0.00672834,-0.00246797,0.00600764,0.00177597,-0.0109723,0.955772,0.00797305,0.0418507,1938,1128,22.2119,-3.66745
721,-104,21.6265,4.53052,-0.00681571,-0.00229059,0.00592743,0.00179142,-0.0108977,0.967719,0.00793003,0.0242704,1945,1128,21.6265,-4.53052
728,-104,21.6409,4.41528,-0.00662128,-0.00198647,0.0055525,0.00171282,-0.0103206,0.98309,0.00751666,0.0228344,1952,1128,21.6409,-4.41531
735,-104,21.6191,4.29541,-0.00611657,-0.00153825,0.00494696,0.00162352,-0.00927834,1.0021,0.00679173,0.0208415,1959,1128,21.6192,-4.29542
742,-104,21.5515,4.21228,-0.00518807,-0.00104573,0.00410184,0.00147818,-0.00771199,1.01919,0.00569833,0.0138389,1966,1128,21.5515,-4.21228
749,-104,21.5459,4.11218,-0.00388324,-0.000370607,0.00320072,0.001524,-0.00577785,1.03633,0.0044478,0.0152727,1973,1128,21.5459,-4.1122
756,-104,21.5433,4.01245,-0.0015393,0.000591119,0.00248707,0.0022315,-0.00317967,0.987728,0.00314009,0.0152496,1980,1128,21.5433,-4.01245
763,-104,21.5488,3.93567,0.00261384,0.00136131,0.00184918,0.00393992,3.52291e-05,0.622125,0.00261495,0.0132638,1987,1128,21.5488,-3.93573
770,-104,21.5508,3.84863,0.00682355,0.00220758,0.00157992,0.00731252,0.00171861,0.30014,0.00441508,0.0112176,1994,1128,21.5507,-3.84867
777,-104,21.5369,3.73926,0.0118583,0.00280285,0.00247797,0.012492,0.00216911,0.25038,0.0077074,0.0181847,2001,1128,21.5368,-3.73921
784,-104,21.5615,3.48218,0.018858,0.00336107,0.0042184,0.0199319,0.0022872,0.249274,0.0125949,0.0371114,2008,1128,21.5616,-3.48221
791,-104,21.827,2.93372,0.0291651,0.00386242,0.00698287,0.0309643,0.00206327,0.252168,0.0199906,0.0444255,2015,1128,21.827,-2.93371
798,-104,21.9778,2.35291,0,0,0,0,0,0,0,-1,2022,1128,21.9778,-2.35293
805,-104,21.5674,2.93164,0,0,0,0,0,0,0,-1,2029,1128,21.5675,-2.93159
812,-104,21.2129,2.27905,0,0,0,0,0,0,0,-1,2036,1128,21.2129,-2.27904
-700,-111,0,0,0,0,0,0,0,0,0,-1,524,1135,0,0
-693,-111,-14.3917,-2.94336,0,0,0,0,0,0,0,-1,531,1135,-14.3917,2.94337
-686,-111,-3.599,2.17773,0,0,0,0,0,0,0,-1,538,1135,-3.59901,-2.17773
-679,-111,-3.96014,2.39404,0,0,0,0,0,0,0,-1,545,1135,-3.96015,-2.39404
-672,-111,-13.3301,1.43787,0,0,0,0,0,0,0,-1,552,1135,-13.3301,-1.43782
-665,-111,-13.5615,0.453613,0,0,0,0,0,0,0,-1,559,1135,-13.5615,-0.453664
-658,-111,-14.0046,0.846924,0,0,0,0,0,0,0,-1,566,1135,-14.0047,-0.846911
-651,-111,-13.9333,1.00134,-0.0226771,0.0208114,-0.00207655,0.0209103,-0.022776,-1.52319,0.02523,0.0393362,573,1135,-13.9334,-1.00132
-644,-111,-13.9054,1.22229,-0.0170367,0.0142864,-0.00158411,0.0143663,-0.0171166,-1.52039,0.0181998,0.0244214,580,1135,-13.9054,-1.22233
-637,-111,-13.9155,1.36426,-0.0126743,0.00848468,-0.00138428,0.00857486,-0.0127644,-1.50574,0.0123991,0.00928409,587,1135,-13.9155,-1.36431
-630,-111,-13.935,1.4668,-0.00936305,0.00393598,-0.00185524,0.00418994,-0.00961702,-1.43475,0.00817414,0.0147476,594,1135,-13.935,-1.46678
-623,-111,-13.9596,1.6001,-0.0061516,0.000578818,-0.00286542,0.00163348,-0.00720626,-1.21812,0.00543117,0.0134689,601,1135,-13.9596,-1.60007
-616,-111,-13.9849,1.73767,-0.00464421,-0.000560243,-0.00347715,0.00143017,-0.00663462,-1.0509,0.0049689,0.0132694,608,1135,-13.9849,-1.73769
-609,-111,-14.0322,1.88306,-0.00472093,-0.00153234,-0.0040465,0.00122261,-0.00747588,-0.973057,0.00543747,0.0160208,615,1135,-14.0322,-1.883
-602,-111,-14.003,2.00525,-0.00516692,-0.00215735,-0.00496011,0.00152121,-0.00884547,-0.932675,0.006464,0.01592,622,1135,-14.003,-2.00521
-595,-111,-13.9475,2.16565,-0.00564739,-0.00267077,-0.0055023,0.00154095,-0.00985911,-0.917482,0.00714202,0.0123957,629,1135,-13.9475,-2.16559
-588,-111,-13.8196,2.30334,0,0,0,0,0,0,0,-1,636,1135,-13.8196,-2.30329
-581,-111,-14.3359,1.41028,0,0,0,0,0,0,0,-1,643,1135,-14.3359,-1.41027
-574,-111,-14.8523,0.517212,0,0,0,0,0,0,0,-1,650,1135,-14.8523,-0.517244
-567,-111,-14.9786,0.924927,-0.00446312,-0.00312959,-0.00477304,0.00102303,-0.00861574,-0.854796,0.00611343,0.0388924,657,1135,-14.9786,-0.924943
-560,-111,-14.9413,0.879761,-0.00335863,-0.00286613,-0.00389785,0.00079324,-0.007018,-0.816944,0.00496425,0.0415889,664,1135,-14.9413,-0.879751
-553,-111,-15.1271,0.600464,-0.00172465,-0.00238431,-0.00272589,0.000691297,-0.00480025,-0.725192,0.00345374,0.042534,671,1135,-15.1271,-0.600447
-546,-111,-14.9705,0.631104,0.00048776,-0.00166371,-0.00129296,0.00109397,-0.00226992,-0.438423,0.00198131,0.038246,678,1135,-14.9705,-0.6311
-539,-111,-15.0248,0.830322,0.00347283,-0.000674253,0.000303494,0.00349492,-0.000696346,0.0726667,0.00259341,0.0393206,685,1135,-15.0248,-0.830379
-532,-111,-15.0979,0.978271,0.00626769,0.000256891,0.00083291,0.00638097,0.000143611,0.135176,0.00420692,0.0413729,692,1135,-15.0979,-0.978315
-525,-111,-15.0801,1.06909,0.00687564,0.000216658,-0.00167638,0.00727385,-0.000181553,-0.23322,0.00491087,0.0387237,699,1135,-15.0801,-1.06905
-518,-111,0,0,0,0,0,0,0,0,0,-1,706,1135,0,0
-511,-111,0,0,0,0,0,0,0,0,0,-1,713,1135,0,0
-504,-111,0,0,0,0,0,0,0,0,0,-1,720,1135,0,0
-497,-111,0,0,0,0,0,0,0,0,0,-1,727,1135,0,0
-490,-111,0,0,0,0,0,0,0,0,0,-1,734,1135,0,0
-483,-111,0,0,0,0,0,0,0,0,0,-1,741,1135,0,0
-476,-111,0,0,0,0,0,0,0,0,0,-1,748,1135,0,0
-469,-111,0,0,0,0,0,0,0,0,0,-1,755,1135,0,0
-462,-111,0,0,0,0,0,0,0,0,0,-1,762,1135,0,0
-455,-111,0,0,0,0,0,0,0,0,0,-1,769,1135,0,0
-448,-111,0,0,0,0,0,0,0,0,0,-1,776,1135,0,0
-441,-111,0,0,0,0,0,0,0,0,0,-1,783,1135,0,0
-434,-111,0,0,0,0,0,0,0,0,0,-1,790,1135,0,0
-427,-111,0,0,0,0,0,0,0,0,0,-1,797,1135,0,0
-420,-111,0,0,0,0,0,0,0,0,0,-1,804,1135,0,0
-413,-111,0,0,0,0,0,0,0,0,0,-1,811,1135,0,0
-406,-111,0,0,0,0,0,0,0,0,0,-1,818,1135,0,0
-399,-111,0,0,0,0,0,0,0,0,0,-1,825,1135,0,0
-392,-111,0,0,0,0,0,0,0,0,0,-1,832,1135,0,0
-385,-111,0,0,0,0,0,0,0,0,0,-1,839,1135,0,0
-378,-111,0,0,0,0,0,0,0,0,0,-1,846,1135,0,0
-371,-111,0,0,0,0,0,0,0,0,0,-1,853,1135,0,0
-364,-111,0,0,0,0,0,0,0,0,0,-1,860,1135,0,0
-357,-111,0,0,0,0,0,0,0,0,0,-1,867,1135,0,0
-350,-111,0,0,0,0,0,0,0,0,0,-1,874,1135,0,0
-343,-111,0,0,0,0,0,0,0,0,0,-1,881,1135,0,0
-336,-111,0,0,0,0,0,0,0,0,0,-1,888,1135,0,0
-329,-111,0,0,0,0,0,0,0,0,0,-1,895,1135,0,0
-322,-111,0,0,0,0,0,0,0,0,0,-1,902,1135,0,0
-315,-111,0,0,0,0,0,0,0,0,0,-1,909,1135,0,0
-308,-111,0,0,0,0,0,0,0,0,0,-1,916,1135,0,0
-301,-111,0,0,0,0,0,0,0,0,0,-1,923,1135,0,0
-294,-111,0,0,0,0,0,0,0,0,0,-1,930,1135,0,0
-287,-111,0,0,0,0,0,0,0,0,0,-1,937,1135,0,0
-280,-111,0,0,0,0,0,0,0,0,0,-1,944,1135,0,0
-273,-111,0,0,0,0,0,0,0,0,0,-1,951,1135,0,0
-266,-111,0,0,0,0,0,0,0,0,0,-1,958,1135,0,0
-259,-111,0,0,0,0,0,0,0,0,0,-1,965,1135,0,0
-252,-111,0,0,0,0,0,0,0,0,0,-1,972,1135,0,0
-245,-111,0,0,0,0,0,0,0,0,0,-1,979,1135,0,0
-238,-111,0,0,0,0,0,0,0,0,0,-1,986,1135,0,0
-231,-111,0,0,0,0,0,0,0,0,0,-1,993,1135,0,0
-224,-111,0,0,0,0,0,0,0,0,0,-1,1000,1135,0,0
-217,-111,0,0,0,0,0,0,0,0,0,-1,1007,1135,0,0
-210,-111,0,0,0,0,0,0,0,0,0,-1,1014,1135,0,0
-203,-111,0,0,0,0,0,0,0,0,0,-1,1021,1135,0,0
-196,-111,0,0,0,0,0,0,0,0,0,-1,1028,1135,0,0
-189,-111,0,0,0,0,0,0,0,0,0,-1,1035,1135,0,0
-182,-111,0,0,0,0,0,0,0,0,0,-1,1042,1135,0,0
-175,-111,0,0,0,0,0,0,0,0,0,-1,1049,1135,0,0
-168,-111,0,0,0,0,0,0,0,0,0,-1,1056,1135,0,0
-161,-111,0,0,0,0,0,0,0,0,0,-1,1063,1135,0,0
-154,-111,0,0,0,0,0,0,0,0,0,-1,1070,1135,0,0
-147,-111,0,0,0,0,0,0,0,0,0,-1,1077,1135,0,0
-140,-111,0,0,0,0,0,0,0,0,0,-1,1084,1135,0,0
-133,-111,0,0,0,0,0,0,0,0,0,-1,1091,1135,0,0
-126,-111,0,0,0,0,0,0,0,0,0,-1,1098,1135,0,0
-119,-111,0,0,0,0,0,0,0,0,0,-1,1105,1135,0,0
-112,-111,0,0,0,0,0,0,0,0,0,-1,1112,1135,0,0
-105,-111,0,0,0,0,0,0,0,0,0,-1,1119,1135,0,0
-98,-111,0,0,0,0,0,0,0,0,0,-1,1126,1135,0,0
-91,-111,0,0,0,0,0,0,0,0,0,-1,1133,1135,0,0
-84,-111,0,0,0,0,0,0,0,0,0,-1,1140,1135,0,0
-77,-111,0,0,0,0,0,0,0,0,0,-1,1147,1135,0,0
-70,-111,0,0,0,0,0,0,0,0,0,-1,1154,1135,0,0
-63,-111,0,0,0,0,0,0,0,0,0,-1,1161,1135,0,0
-56,-111,0,0,0,0,0,0,0,0,0,-1,1168,1135,0,0
-49,-111,0,0,0,0,0,0,0,0,0,-1,1175,1135,0,0
-42,-111,0,0,0,0,0,0,0,0,0,-1,1182,1135,0,0
-35,-111,0,0,0,0,0,0,0,0,0,-1,1189,1135,0,0
-28,-111,0,0,0,0,0,0,0,0,0,-1,1196,1135,0,0
-21,-111,0,0,0,0,0,0,0,0,0,-1,1203,1135,0,0
-14,-111,0,0,0,0,0,0,0,0,0,-1,1210,1135,0,0
-7,-111,0,0,0,0,0,0,0,0,0,-1,1217,1135,0,0
0,-111,0,0,0,0,0,0,0,0,0,-1,1224,1135,0,0
7,-111,0,0,0,0,0,0,0,0,0,-1,1231,1135,0,0
14,-111,0,0,0,0,0,0,0,0,0,-1,1238,1135,0,0
21,-111,0,0,0,0,0,0,0,0,0,-1,1245,1135,0,0
28,-111,0,0,0,0,0,0,0,0,0,-1,1252,1135,0,0
35,-111,0,0,0,0,0,0,0,0,0,-1,1259,1135,0,0
42,-111,0,0,0,0,0,0,0,0,0,-1,1266,1135,0,0
49,-111,0,0,0,0,0,0,0,0,0,-1,1273,1135,0,0
56,-111,0,0,0,0,0,0,0,0,0,-1,1280,1135,0,0
63,-111,0,0,0,0,0,0,0,0,0,-1,1287,1135,0,0
70,-111,0,0,0,0,0,0,0,0,0,-1,1294,1135,0,0
77,-111,0,0,0,0,0,0,0,0,0,-1,1301,1135,0,0
84,-111,0,0,0,0,0,0,0,0,0,-1,1308,1135,0,0
91,-111,0,0,0,0,0,0,0,0,0,-1,1315,1135,0,0
98,-111,0,0,0,0,0,0,0,0,0,-1,1322,1135,0,0
105,-111,0,0,0,0,0,0,0,0,0,-1,1329,1135,0,0
112,-111,0,0,0,0,0,0,0,0,0,-1,1336,1135,0,0
119,-111,0,0,0,0,0,0,0,0,0,-1,1343,1135,0,0
126,-111,0,0,0,0,0,0,0,0,0,-1,1350,1135,0,0
133,-111,0,0,0,0,0,0,0,0,0,-1,1357,1135,0,0
140,-111,0,0,0,0,0,0,0,0,0,-1,1364,1135,0,0
147,-111,0,0,0,0,0,0,0,0,0,-1,1371,1135,0,0
154,-111,0,0,0,0,0,0,0,0,0,-1,1378,1135,0,0
161,-111,0,0,0,0,0,0,0,0,0,-1,1385,1135,0,0
168,-111,0,0,0,0,0,0,0,0,0,-1,1392,1135,0,0
175,-111,0,0,0,0,0,0,0,0,0,-1,1399,1135,0,0
182,-111,0,0,0,0,0,0,0,0,0,-1,1406,1135,0,0
189,-111,0,0,0,0,0,0,0,0,0,-1,1413,1135,0,0
196,-111,0,0,0,0,0,0,0,0,0,-1,1420,1135,0,0
203,-111,0,0,0,0,0,0,0,0,0,-1,1427,1135,0,0
210,-111,0,0,0,0,0,0,0,0,0,-1,1434,1135,0,0
217,-111,0,0,0,0,0,0,0,0,0,-1,1441,1135,0,0
224,-111,0,0,0,0,0,0,0,0,0,-1,1448,1135,0,0
231,-111,0,0,0,0,0,0,0,0,0,-1,1455,1135,0,0
238,-111,0,0,0,0,0,0,0,0,0,-1,1462,1135,0,0
245,-111,0,0,0,0,0,0,0,0,0,-1,1469,1135,0,0
252,-111,0,0,0,0,0,0,0,0,0,-1,1476,1135,0,0
259,-111,0,0,0,0,0,0,0,0,0,-1,1483,1135,0,0
266,-111,0,0,0,0,0,0,0,0,0,-1,1490,1135,0,0
273,-111,0,0,0,0,0,0,0,0,0,-1,1497,1135,0,0
280,-111,0,0,0,0,0,0,0,0,0,-1,1504,1135,0,0
287,-111,0,0,0,0,0,0,0,0,0,-1,1511,1135,0,0
294,-111,0,0,0,0,0,0,0,0,0,-1,1518,1135,0,0
301,-111,0,0,0,0,0,0,0,0,0,-1,1525,1135,0,0
308,-111,0,0,0,0,0,0,0,0,0,-1,1532,1135,0,0
315,-111,0,0,0,0,0,0,0,0,0,-1,1539,1135,0,0
322,-111,0,0,0,0,0,0,0,0,0,-1,1546,1135,0,0
329,-111,0,0,0,0,0,0,0,0,0,-1,1553,1135,0,0
336,-111,0,0,0,0,0,0,0,0,0,-1,1560,1135,0,0
343,-111,0,0,0,0,0,0,0,0,0,-1,1567,1135,0,0
350,-111,0,0,0,0,0,0,0,0,0,-1,1574,1135,0,0
357,-111,0,0,0,0,0,0,0,0,0,-1,1581,1135,0,0
364,-111,0,0,0,0,0,0,0,0,0,-1,1588,1135,0,0
371,-111,0,0,0,0,0,0,0,0,0,-1,1595,1135,0,0
378,-111,0,0,0,0,0,0,0,0,0,-1,1602,1135,0,0
385,-111,0,0,0,0,0,0,0,0,0,-1,1609,1135,0,0
392,-111,0,0,0,0,0,0,0,0,0,-1,1616,1135,0,0
399,-111,0,0,0,0,0,0,0,0,0,-1,1623,1135,0,0
406,-111,0,0,0,0,0,0,0,0,0,-1,1630,1135,0,0
413,-111,0,0,0,0,0,0,0,0,0,-1,1637,1135,0,0
420,-111,0,0,0,0,0,0,0,0,0,-1,1644,1135,0,0
427,-111,0,0,0,0,0,0,0,0,0,-1,1651,1135,0,0
434,-111,0,0,0,0,0,0,0,0,0,-1,1658,1135,0,0
441,-111,0,0,0,0,0,0,0,0,0,-1,1665,1135,0,0
448,-111,0,0,0,0,0,0,0,0,0,-1,1672,1135,0,0
455,-111,0,0,0,0,0,0,0,0,0,-1,1679,1135,0,0
462,-111,0,0,0,0,0,0,0,0,0,-1,1686,1135,0,0
469,-111,0,0,0,0,0,0,0,0,0,-1,1693,1135,0,0
476,-111,0,0,0,0,0,0,0,0,0,-1,1700,1135,0,0
483,-111,0,0,0,0,0,0,0,0,0,-1,1707,1135,0,0
490,-111,0,0,0,0,0,0,0,0,0,-1,1714,1135,0,0
497,-111,0,0,0,0,0,0,0,0,0,-1,1721,1135,0,0
504,-111,0,0,0,0,0,0,0,0,0,-1,1728,1135,0,0
511,-111,0,0,0,0,0,0,0,0,0,-1,1735,1135,0,0
518,-111,0,0,0,0,0,0,0,0,0,-1,1742,1135,0,0
525,-111,0,0,0,0,0,0,0,0,0,-1,1749,1135,0,0
532,-111,0,0,0,0,0,0,0,0,0,-1,1756,1135,0,0
539,-111,0,0,0,0,0,0,0,0,0,-1,1763,1135,0,0
546,-111,0,0,0,0,0,0,0,0,0,-1,1770,1135,0,0
553,-111,0,0,0,0,0,0,0,0,0,-1,1777,1135,0,0
560,-111,0,0,0,0,0,0,0,0,0,-1,1784,1135,0,0
567,-111,0,0,0,0,0,0,0,0,0,-1,1791,1135,0,0
574,-111,0,0,0,0,0,0,0,0,0,-1,1798,1135,0,0
581,-111,0,0,0,0,0,0,0,0,0,-1,1805,1135,0,0
588,-111,0,0,0,0,0,0,0,0,0,-1,1812,1135,0,0
595,-111,0,0,0,0,0,0,0,0,0,-1,1819,1135,0,0
602,-111,0,0,0,0,0,0,0,0,0,-1,1826,1135,0,0
609,-111,0,0,0,0,0,0,0,0,0,-1,1833,1135,0,0
616,-111,0,0,0,0,0,0,0,0,0,-1,1840,1135,0,0
623,-111,0,0,0,0,0,0,0,0,0,-1,1847,1135,0,0
630,-111,0,0,0,0,0,0,0,0,0,-1,1854,1135,0,0
637,-111,0,0,0,0,0,0,0,0,0,-1,1861,1135,0,0
644,-111,22.3458,2.88123,0.00550781,-0.00089375,-0.00336458,0.00695089,-0.00233683,-0.405171,0.00557847,0.040657,1868,1135,22.3458,-2.88121
651,-111,22.463,2.82068,0.00369167,-0.00056282,-0.00203785,0.00451027,-0.00138142,-0.38197,0.00355787,0.0425804,1875,1135,22.4631,-2.82069
658,-111,22.8568,2.60022,0.00289533,-0.000410277,-0.0014228,0.00342338,-0.000938329,-0.355378,0.00265097,0.0460077,1882,1135,22.8568,-2.60018
665,-111,22.7714,2.48975,0.00159141,-0.00052786,-0.0004272,0.00167428,-0.000610734,-0.191613,0.00136606,0.0469229,1889,1135,22.7713,-2.48972
672,-111,22.5707,2.69055,-0.000485768,-0.00097335,0.00114548,0.000441579,-0.0019007,0.680548,0.00143712,0.0453836,1896,1135,22.5707,-2.69061
679,-111,22.5292,2.771,-0.00248823,-0.00146533,0.002551,0.00062499,-0.00457855,0.884332,0.0032806,0.0412141,1903,1135,22.5292,-2.77103
686,-111,22.563,2.80493,-0.00422461,-0.00191728,0.00374007,0.000843013,-0.0069849,0.934999,0.00496154,0.0373375,1910,1135,22.563,-2.80492
693,-111,22.5818,2.7782,-0.00553706,-0.00222988,0.00464424,0.00104638,-0.00881332,0.956426,0.00625358,0.0331417,1917,1135,22.5817,-2.77823
700,-111,22.6552,2.67371,-0.00662833,-0.00244387,0.00536022,0.00121797,-0.0102902,0.971467,0.00730005,0.0266214,1924,1135,22.6551,-2.67374
707,-111,22.5505,2.97791,0,0,0,0,0,0,0,-1,1931,1135,22.5505,-2.97786
714,-111,21.9568,3.79944,-0.00759809,-0.002549,0.00593756,0.00137842,-0.0115255,0.986411,0.00818195,0.0293282,1938,1135,21.9568,-3.79938
721,-111,21.496,4.51611,-0.00763399,-0.00236561,0.00583185,0.00139937,-0.011399,0.997527,0.00810613,0.0132659,1945,1135,21.4959,-4.51615
728,-111,21.491,4.39233,-0.00737008,-0.00207594,0.00545181,0.00133745,-0.0107835,1.0114,0.00767375,0.0172868,1952,1135,21.4909,-4.39227
735,-111,21.4877,4.28345,-0.00675832,-0.00165749,0.00484265,0.00126529,-0.0096811,1.02777,0.00691453,0.0160307,1959,1135,21.4877,-4.28342
742,-111,21.4685,4.22363,-0.00562928,-0.00122904,0.00400088,0.00113676,-0.00799507,1.03678,0.00574657,0.0108755,1966,1135,21.4684,-4.22368
749,-111,21.4458,4.1416,-0.00414974,-0.000535236,0.00308565,0.00123346,-0.00591843,1.05032,0.00441459,0.0129229,1973,1135,21.4458,-4.14158
756,-111,21.4283,4.01868,-0.00168755,0.000445324,0.00229053,0.00190551,-0.00314774,1.00327,0.00294673,0.0143167,1980,1135,21.4284,-4.01869
763,-111,21.4501,3.91687,0.0024738,0.00127359,0.00157906,0.00356294,0.000184443,0.603808,0.00231626,0.0125018,1987,1135,21.4501,-3.91687
770,-111,21.4399,3.82666,0.00652019,0.00206932,0.0013629,0.00690436,0.00168515,0.27475,0.00415666,0.0104764,1994,1135,21.44,-3.82667
777,-111,21.3883,3.70667,0.0113097,0.00265389,0.00222835,0.0118497,0.00211391,0.23774,0.00729793,0.0229565,2001,1135,21.3883,-3.70672
784,-111,21.3306,3.63599,0.0181798,0.00322493,0.00387899,0.019126,0.00227867,0.239271,0.0120631,0.0411074,2008,1135,21.3305,-3.63593
791,-111,21.2504,3.6449,0.0284844,0.00375362,0.00658286,0.0301275,0.00211055,0.2446,0.0194198,0.0471407,2015,1135,21.2503,-3.64484
798,-111,21.1292,3.62219,0,0,0,0,0,0,0,-1,2022,1135,21.1291,-3.62216
805,-111,21.1426,3.57202,0,0,0,0,0,0,0,-1,2029,1135,21.1427,-3.57202
812,-111,19.7305,2.88745,0,0,0,0,0,0,0,-1,2036,1135,19.7304,-2.88747
-700,-118,0,0,0,0,0,0,0,0,0,-1,524,1142,0,0
-693,-118,-4.53082,2.79919,0,0,0,0,0,0,0,-1,531,1142,-4.53083,-2.79923
-686,-118,-4.42755,2.27136,-0.0636061,0.0732191,-0.00270269,0.0732725,-0.0636594,-1.55105,0.0791226,0.0478307,538,1142,-4.42758,-2.27142
-679,-118,-4.32971,2.33362,0,0,0,0,0,0,0,-1,545,1142,-4.32969,-2.33365
-672,-118,-4.37427,2.1665,0,0,0,0,0,0,0,-1,552,1142,-4.37429,-2.16653
-665,-118,-14.6117,2.40149,0,0,0,0,0,0,0,-1,559,1142,-14.6117,-2.4015
-658,-118,-13.977,0.69458,0,0,0,0,0,0,0,-1,566,1142,-13.977,-0.694627
-651,-118,-13.8394,0.899414,-0.0278852,0.0196643,-0.00275878,0.0198238,-0.0280447,-1.51304,0.0277724,0.039498,573,1142,-13.8394,-0.899445
-644,-118,-13.7234,1.14294,-0.0206816,0.0136181,-0.00212986,0.0137498,-0.0208133,-1.50902,0.0200935,0.0267062,580,1142,-13.7235,-1.14296
-637,-118,-13.7604,1.3501,-0.0151646,0.00832894,-0.00185695,0.00847481,-0.0153105,-1.4924,0.0139202,0.0144934,587,1142,-13.7604,-1.35008
-630,-118,-13.7943,1.46045,-0.0108358,0.00411869,-0.00215267,0.00442239,-0.0111395,-1.43064,0.00925948,0.0181744,594,1142,-13.7943,-1.46047
-623,-118,-13.8023,1.58215,-0.00669142,0.000779301,-0.00302265,0.00184908,-0.0077612,-1.23063,0.00588808,0.0159532,601,1142,-13.8023,-1.58212
-616,-118,-13.8066,1.71094,-0.00482735,-0.00041894,-0.00337261,0.00140588,-0.00665217,-1.07483,0.00497013,0.0132754,608,1142,-13.8066,-1.71089
-609,-118,-13.8241,1.83313,-0.00491542,-0.00144834,-0.00380246,0.0009971,-0.00736086,-0.999272,0.00527114,0.0154475,615,1142,-13.8241,-1.83316
-602,-118,-13.8329,2.01282,-0.00547648,-0.00206328,-0.00465945,0.00119227,-0.00873203,-0.960944,0.00625676,0.0156922,622,1142,-13.8329,-2.01287
-595,-118,-13.879,2.13062,-0.00604824,-0.00255507,-0.00520254,0.00118623,-0.00978955,-0.947346,0.00695558,0.0139389,629,1142,-13.8789,-2.13059
-588,-118,-13.5832,2.35754,0,0,0,0,0,0,0,-1,636,1142,-13.5832,-2.35749
-581,-118,-14.162,1.44641,0,0,0,0,0,0,0,-1,643,1142,-14.162,-1.44647
-574,-118,-14.7408,0.5354,0,0,0,0,0,0,0,-1,650,1142,-14.7408,-0.535449
-567,-118,-15.0002,0.866821,-0.00519193,-0.00288454,-0.00471008,0.000811078,-0.00888755,-0.905505,0.00621306,0.0423469,657,1142,-15.0002,-0.866833
-560,-118,-14.9649,0.96167,-0.00418111,-0.00259251,-0.00394753,0.000639845,-0.00741346,-0.88468,0.0051688,0.0379805,664,1142,-14.9649,-0.961646
-553,-118,-14.8115,0.661133,-0.00257994,-0.00206484,-0.00289639,0.000585429,-0.00523021,-0.829742,0.00369743,0.0387935,671,1142,-14.8114,-0.661085
-546,-118,-14.8773,0.794189,-0.000309195,-0.00127077,-0.00158272,0.000864149,-0.00244411,-0.637941,0.0019813,0.0380845,678,1142,-14.8773,-0.794215
-539,-118,-15.0497,1.06116,0.00286094,-0.000151959,-6.1035e-05,0.00286218,-0.000153195,-0.0202468,0.00196118,0.0406007,685,1142,-15.0497,-1.0611
-532,-118,-15.1986,1.12622,0.00629549,0.00107679,0.000758108,0.00640339,0.000968896,0.141376,0.00398541,0.0414059,692,1142,-15.1986,-1.12628
-525,-118,-14.9814,0.818604,0.00816193,0.00143542,-0.00103464,0.00831748,0.00127988,-0.149221,0.00517143,0.0417444,699,1142,-14.9815,-0.818641
-518,-118,0,0,0,0,0,0,0,0,0,-1,706,1142,0,0
-511,-118,0,0,0,0,0,0,0,0,0,-1,713,1142,0,0
-504,-118,0,0,0,0,0,0,0,0,0,-1,720,1142,0,0
-497,-118,0,0,0,0,0,0,0,0,0,-1,727,1142,0,0
-490,-118,0,0,0,0,0,0,0,0,0,-1,734,1142,0,0
-483,-118,0,0,0,0,0,0,0,0,0,-1,741,1142,0,0
-476,-118,0,0,0,0,0,0,0,0,0,-1,748,1142,0,0
-469,-118,0,0,0,0,0,0,0,0,0,-1,755,1142,0,0
-462,-118,0,0,0,0,0,0,0,0,0,-1,762,1142,0,0
-455,-118,0,0,0,0,0,0,0,0,0,-1,769,1142,0,0
-448,-118,0,0,0,0,0,0,0,0,0,-1,776,1142,0,0
-441,-118,0,0,0,0,0,0,0,0,0,-1,783,1142,0,0
-434,-118,0,0,0,0,0,0,0,0,0,-1,790,1142,0,0
-427,-118,0,0,0,0,0,0,0,0,0,-1,797,1142,0,0
-420,-118,0,0,0,0,0,0,0,0,0,-1,804,1142,0,0
-413,-118,0,0,0,0,0,0,0,0,0,-1,811,1142,0,0
-406,-118,0,0,0,0,0,0,0,0,0,-1,818,1142,0,0
-399,-118,0,0,0,0,0,0,0,0,0,-1,825,1142,0,0
-392,-118,0,0,0,0,0,0,0,0,0,-1,832,1142,0,0
-385,-118,0,0,0,0,0,0,0,0,0,-1,839,1142,0,0
-378,-118,0,0,0,0,0,0,0,0,0,-1,846,1142,0,0
-371,-118,0,0,0,0,0,0,0,0,0,-1,853,1142,0,0
-364,-118,0,0,0,0,0,0,0,0,0,-1,860,1142,0,0
-357,-118,0,0,0,0,0,0,0,0,0,-1,867,1142,0,0
-350,-118,0,0,0,0,0,0,0,0,0,-1,874,1142,0,0
-343,-118,0,0,0,0,0,0,0,0,0,-1,881,1142,0,0
-336,-118,0,0,0,0,0,0,0,0,0,-1,888,1142,0,0
-329,-118,0,0,0,0,0,0,0,0,0,-1,895,1142,0,0
-322,-118,0,0,0,0,0,0,0,0,0,-1,902,1142,0,0
-315,-118,0,0,0,0,0,0,0,0,0,-1,909,1142,0,0
-308,-118,0,0,0,0,0,0,0,0,0,-1,916,1142,0,0
-301,-118,0,0,0,0,0,0,0,0,0,-1,923,1142,0,0
-294,-118,0,0,0,0,0,0,0,0,0,-1,930,1142,0,0
-287,-118,0,0,0,0,0,0,0,0,0,-1,937,1142,0,0
-280,-118,0,0,0,0,0,0,0,0,0,-1,944,1142,0,0
-273,-118,0,0,0,0,0,0,0,0,0,-1,951,1142,0,0
-266,-118,0,0,0,0,0,0,0,0,0,-1,958,1142,0,0
-259,-118,0,0,0,0,0,0,0,0,0,-1,965,1142,0,0
-252,-118,0,0,0,0,0,0,0,0,0,-1,972,1142,0,0
-245,-118,0,0,0,0,0,0,0,0,0,-1,979,1142,0,0
-238,-118,0,0,0,0,0,0,0,0,0,-1,986,1142,0,0
-231,-118,0,0,0,0,0,0,0,0,0,-1,993,1142,0,0
-224,-118,0,0,0,0,0,0,0,0,0,-1,1000,1142,0,0
-217,-118,0,0,0,0,0,0,0,0,0,-1,1007,1142,0,0
-210,-118,0,0,0,0,0,0,0,0,0,-1,1014,1142,0,0
-203,-118,0,0,0,0,0,0,0,0,0,-1,1021,1142,0,0
-196,-118,0,0,0,0,0,0,0,0,0,-1,1028,1142,0,0
-189,-118,0,0,0,0,0,0,0,0,0,-1,1035,1142,0,0
-182,-118,0,0,0,0,0,0,0,0,0,-1,1042,1142,0,0
-175,-118,0,0,0,0,0,0,0,0,0,-1,1049,1142,0,0
-168,-118,0,0,0,0,0,0,0,0,0,-1,1056,1142,0,0
-161,-118,0,0,0,0,0,0,0,0,0,-1,1063,1142,0,0
-154,-118,0,0,0,0,0,0,0,0,0,-1,1070,1142,0,0
-147,-118,0,0,0,0,0,0,0,0,0,-1,1077,1142,0,0
-140,-118,0,0,0,0,0,0,0,0,0,-1,1084,1142,0,0
-133,-118,0,0,0,0,0,0,0,0,0,-1,1091,1142,0,0
-126,-118,0,0,0,0,0,0,0,0,0,-1,1098,1142,0,0
-119,-118,0,0,0,0,0,0,0,0,0,-1,1105,1142,0,0
-112,-118,0,0,0,0,0,0,0,0,0,-1,1112,1142,0,0
-105,-118,0,0,0,0,0,0,0,0,0,-1,1119,1142,0,0
-98,-118,0,0,0,0,0,0,0,0,0,-1,1126,1142,0,0
-91,-118,0,0,0,0,0,0,0,0,0,-1,1133,1142,0,0
-84,-118,0,0,0,0,0,0,0,0,0,-1,1140,1142,0,0
-77,-118,0,0,0,0,0,0,0,0,0,-1,1147,1142,0,0
-70,-118,0,0,0,0,0,0,0,0,0,-1,1154,1142,0,0
-63,-118,0,0,0,0,0,0,0,0,0,-1,1161,1142,0,0
-56,-118,0,0,0,0,0,0,0,0,0,-1,1168,1142,0,0
-49,-118,0,0,0,0,0,0,0,0,0,-1,1175,1142,0,0
-42,-118,0,0,0,0,0,0,0,0,0,-1,1182,1142,0,0
-35,-118,0,0,0,0,0,0,0,0,0,-1,1189,1142,0,0
-28,-118,0,0,0,0,0,0,0,0,0,-1,1196,1142,0,0
-21,-118,0,0,0,0,0,0,0,0,0,-1,1203,1142,0,0
-14,-118,0,0,0,0,0,0,0,0,0,-1,1210,1142,0,0
-7,-118,0,0,0,0,0,0,0,0,0,-1,1217,1142,0,0
0,-118,0,0,0,0,0,0,0,0,0,-1,1224,1142,0,0
7,-118,0,0,0,0,0,0,0,0,0,-1,1231,1142,0,0
14,-118,0,0,0,0,0,0,0,0,0,-1,1238,1142,0,0
21,-118,0,0,0,0,0,0,0,0,0,-1,1245,1142,0,0
28,-118,0,0,0,0,0,0,0,0,0,-1,1252,1142,0,0
35,-118,0,0,0,0,0,0,0,0,0,-1,1259,1142,0,0
42,-118,0,0,0,0,0,0,0,0,0,-1,1266,1142,0,0
49,-118,0,0,0,0,0,0,0,0,0,-1,1273,1142,0,0
56,-118,0,0,0,0,0,0,0,0,0,-1,1280,1142,0,0
63,-118,0,0,0,0,0,0,0,0,0,-1,1287,1142,0,0
70,-118,0,0,0,0,0,0,0,0,0,-1,1294,1142,0,0
77,-118,0,0,0,0,0,0,0,0,0,-1,1301,1142,0,0
84,-118,0,0,0,0,0,0,0,0,0,-1,1308,1142,0,0
91,-118,0,0,0,0,0,0,0,0,0,-1,1315,1142,0,0
98,-118,0,0,0,0,0,0,0,0,0,-1,1322,1142,0,0
105,-118,0,0,0,0,0,0,0,0,0,-1,1329,1142,0,0
112,-118,0,0,0,0,0,0,0,0,0,-1,1336,1142,0,0
119,-118,0,0,0,0,0,0,0,0,0,-1,1343,1142,0,0
126,-118,0,0,0,0,0,0,0,0,0,-1,1350,1142,0,0
133,-118,0,0,0,0,0,0,0,0,0,-1,1357,1142,0,0
140,-118,0,0,0,0,0,0,0,0,0,-1,1364,1142,0,0
147,-118,0,0,0,0,0,0,0,0,0,-1,1371,1142,0,0
154,-118,0,0,0,0,0,0,0,0,0,-1,1378,1142,0,0
161,-118,0,0,0,0,0,0,0,0,0,-1,1385,1142,0,0
168,-118,0,0,0,0,0,0,0,0,0,-1,1392,1142,0,0
175,-118,0,0,0,0,0,0,0,0,0,-1,1399,1142,0,0
182,-118,0,0,0,0,0,0,0,0,0,-1,1406,1142,0,0
189,-118,0,0,0,0,0,0,0,0,0,-1,1413,1142,0,0
196,-118,0,0,0,0,0,0,0,0,0,-1,1420,1142,0,0
203,-118,0,0,0,0,0,0,0,0,0,-1,1427,1142,0,0
210,-118,0,0,0,0,0,0,0,0,0,-1,1434,1142,0,0
217,-118,0,0,0,0,0,0,0,0,0,-1,1441,1142,0,0
224,-118,0,0,0,0,0,0,0,0,0,-1,1448,1142,0,0
231,-118,0,0,0,0,0,0,0,0,0,-1,1455,1142,0,0
238,-118,0,0,0,0,0,0,0,0,0,-1,1462,1142,0,0
245,-118,0,0,0,0,0,0,0,0,0,-1,1469,1142,0,0
252,-118,0,0,0,0,0,0,0,0,0,-1,1476,1142,0,0
259,-118,0,0,0,0,0,0,0,0,0,-1,1483,1142,0,0
266,-118,0,0,0,0,0,0,0,0,0,-1,1490,1142,0,0
273,-118,0,0,0,0,0,0,0,0,0,-1,1497,1142,0,0
280,-118,0,0,0,0,0,0,0,0,0,-1,1504,1142,0,0
287,-118,0,0,0,0,0,0,0,0,0,-1,1511,1142,0,0
294,-118,0,0,0,0,0,0,0,0,0,-1,1518,1142,0,0
301,-118,0,0,0,0,0,0,0,0,0,-1,1525,1142,0,0
308,-118,0,0,0,0,0,0,0,0,0,-1,1532,1142,0,0
315,-118,0,0,0,0,0,0,0,0,0,-1,1539,1142,0,0
322,-118,0,0,0,0,0,0,0,0,0,-1,1546,1142,0,0
329,-118,0,0,0,0,0,0,0,0,0,-1,1553,1142,0,0
336,-118,0,0,0,0,0,0,0,0,0,-1,1560,1142,0,0
343,-118,0,0,0,0,0,0,0,0,0,-1,1567,1142,0,0
350,-118,0,0,0,0,0,0,0,0,0,-1,1574,1142,0,0
357,-118,0,0,0,0,0,0,0,0,0,-1,1581,1142,0,0
364,-118,0,0,0,0,0,0,0,0,0,-1,1588,1142,0,0
371,-118,0,0,0,0,0,0,0,0,0,-1,1595,1142,0,0
378,-118,0,0,0,0,0,0,0,0,0,-1,1602,1142,0,0
385,-118,0,0,0,0,0,0,0,0,0,-1,1609,1142,0,0
392,-118,0,0,0,0,0,0,0,0,0,-1,1616,1142,0,0
399,-118,0,0,0,0,0,0,0,0,0,-1,1623,1142,0,0
406,-118,0,0,0,0,0,0,0,0,0,-1,1630,1142,0,0
413,-118,0,0,0,0,0,0,0,0,0,-1,1637,1142,0,0
420,-118,0,0,0,0,0,0,0,0,0,-1,1644,1142,0,0
427,-118,0,0,0,0,0,0,0,0,0,-1,1651,1142,0,0
434,-118,0,0,0,0,0,0,0,0,0,-1,1658,1142,0,0
441,-118,0,0,0,0,0,0,0,0,0,-1,1665,1142,0,0
448,-118,0,0,0,0,0,0,0,0,0,-1,1672,1142,0,0
455,-118,0,0,0,0,0,0,0,0,0,-1,1679,1142,0,0
462,-118,0,0,0,0,0,0,0,0,0,-1,1686,1142,0,0
469,-118,0,0,0,0,0,0,0,0,0,-1,1693,1142,0,0
476,-118,0,0,0,0,0,0,0,0,0,-1,1700,1142,0,0
483,-118,0,0,0,0,0,0,0,0,0,-1,1707,1142,0,0
490,-118,0,0,0,0,0,0,0,0,0,-1,1714,1142,0,0
497,-118,0,0,0,0,0,0,0,0,0,-1,1721,1142,0,0
504,-118,0,0,0,0,0,0,0,0,0,-1,1728,1142,0,0
511,-118,0,0,0,0,0,0,0,0,0,-1,1735,1142,0,0
518,-118,0,0,0,0,0,0,0,0,0,-1,1742,1142,0,0
525,-118,0,0,0,0,0,0,0,0,0,-1,1749,1142,0,0
532,-118,0,0,0,0,0,0,0,0,0,-1,1756,1142,0,0
539,-118,0,0,0,0,0,0,0,0,0,-1,1763,1142,0,0
546,-118,0,0,0,0,0,0,0,0,0,-1,1770,1142,0,0
553,-118,0,0,0,0,0,0,0,0,0,-1,1777,1142,0,0
560,-118,0,0,0,0,0,0,0,0,0,-1,1784,1142,0,0
567,-118,0,0,0,0,0,0,0,0,0,-1,1791,1142,0,0
574,-118,0,0,0,0,0,0,0,0,0,-1,1798,1142,0,0
581,-118,0,0,0,0,0,0,0,0,0,-1,1805,1142,0,0
588,-118,0,0,0,0,0,0,0,0,0,-1,1812,1142,0,0
595,-118,0,0,0,0,0,0,0,0,0,-1,1819,1142,0,0
602,-118,0,0,0,0,0,0,0,0,0,-1,1826,1142,0,0
609,-118,0,0,0,0,0,0,0,0,0,-1,1833,1142,0,0
616,-118,0,0,0,0,0,0,0,0,0,-1,1840,1142,0,0
623,-118,0,0,0,0,0,0,0,0,0,-1,1847,1142,0,0
630,-118,0,0,0,0,0,0,0,0,0,-1,1854,1142,0,0
637,-118,0,0,0,0,0,0,0,0,0,-1,1861,1142,0,0
644,-118,22.4619,2.86865,0.00490046,-0.00164224,-0.00285762,0.00597281,-0.00271459,-0.358999,0.00513191,0.0433288,1868,1142,22.4619,-2.86868
651,-118,22.6039,2.67542,0.00314285,-0.00107994,-0.00172423,0.00375743,-0.00169452,-0.342399,0.00322192,0.0427863,1875,1142,22.6039,-2.67542
658,-118,22.6967,2.68665,0.00240017,-0.0007565,-0.00118731,0.00279689,-0.00115322,-0.322472,0.00234549,0.0412344,1882,1142,22.6966,-2.68664
665,-118,22.7257,2.72192,0.00100871,-0.000779656,-0.000167085,0.00102419,-0.000795133,-0.0923638,0.00105316,0.0434376,1889,1142,22.7257,-2.72191
672,-118,22.6449,2.81506,-0.00111031,-0.00114304,0.00132011,0.000193531,-0.00244689,0.779199,0.00169944,0.045717,1896,1142,22.645,-2.81506
679,-118,22.5648,2.81421,-0.00310774,-0.00157892,0.00263,0.000395507,-0.00508216,0.926827,0.00352734,0.0391032,1903,1142,22.5649,-2.81423
686,-118,22.5825,2.78955,-0.00485093,-0.00200279,0.00374575,0.00058046,-0.00743418,0.967052,0.0051605,0.0332326,1910,1142,22.5825,-2.78949
693,-118,22.5834,2.78394,-0.00617544,-0.00228277,0.00458351,0.000750529,-0.00920874,0.98618,0.00640402,0.0322146,1917,1142,22.5834,-2.78392
700,-118,22.6613,2.73572,-0.00728014,-0.00250881,0.00527755,0.000897241,-0.0106862,0.997673,0.00744126,0.0214944,1924,1142,22.6612,-2.73569
707,-118,22.614,3.38733,0,0,0,0,0,0,0,-1,1931,1142,22.614,-3.38736
714,-118,21.9581,4.01245,-0.00825025,-0.00261855,0.00580591,0.00101832,-0.0118871,1.01119,0.00828507,0.0414903,1938,1142,21.9581,-4.01249
721,-118,21.399,4.53381,-0.00825161,-0.00243117,0.00569472,0.00105386,-0.0117366,1.02162,0.00819833,0.0107413,1945,1142,21.3991,-4.53383
728,-118,21.3806,4.4209,-0.00793049,-0.00215479,0.00533084,0.00102016,-0.0111054,1.03363,0.00776605,0.0141664,1952,1142,21.3806,-4.42091
735,-118,21.3589,4.32434,-0.00720214,-0.00175636,0.00471689,0.000967142,-0.00992564,1.04717,0.0069619,0.0131709,1959,1142,21.3588,-4.32432
742,-118,21.4053,4.26807,-0.0058919,-0.00139881,0.00388944,0.000846272,-0.00813698,1.04729,0.00572762,0.0184987,1966,1142,21.4053,-4.26804
749,-118,21.3788,4.15698,-0.0042318,-0.000766318,0.00296971,0.000939192,-0.00593731,1.04949,0.00430555,0.0183118,1973,1142,21.3788,-4.15695
756,-118,21.3318,4.03674,-0.00166073,0.00014981,0.0021003,0.00153163,-0.00304255,0.988877,0.0026885,0.0156066,1980,1142,21.3318,-4.03672
763,-118,21.3579,3.90051,0.00235482,0.000877819,0.00135246,0.00315727,7.53646e-05,0.535499,0.00208018,0.00892064,1987,1142,21.3579,-3.90056
770,-118,21.3456,3.82385,0.00613551,0.00146551,0.00118231,0.00641777,0.00118324,0.234355,0.00394372,0.0112605,1994,1142,21.3456,-3.82385
777,-118,21.3055,3.70129,0.0105619,0.00186408,0.00197683,0.0109901,0.00143587,0.213318,0.00689813,0.0245932,2001,1142,21.3056,-3.70131
784,-118,21.2351,3.57861,0.0170855,0.00224526,0.00349068,0.0178655,0.0014652,0.219859,0.0114532,0.0424852,2008,1142,21.2351,-3.57857
791,-118,21.168,3.49475,0,0,0,0,0,0,0,-1,2015,1142,21.168,-3.49469
798,-118,20.9402,3.56091,0,0,0,0,0,0,0,-1,2022,1142,20.9401,-3.56091
805,-118,19.6541,4.17944,0,0,0,0,0,0,0,-1,2029,1142,19.6542,-4.17947
812,-118,19.512,2.82117,0,0,0,0,0,0,0,-1,2036,1142,19.5119,-2.82112
-700,-125,0,0,0,0,0,0,0,0,0,-1,524,1149,0,0
-693,-125,-5.44226,2.96667,0,0,0,0,0,0,0,-1,531,1149,-5.44229,-2.96669
-686,-125,-5.32556,2.50037,0,0,0,0,0,0,0,-1,538,1149,-5.32556,-2.50038
-679,-125,-5.23712,2.01917,0,0,0,0,0,0,0,-1,545,1149,-5.23715,-2.01911
-672,-125,-13.4498,2.3363,-0.062007,0.0419523,-0.0032919,0.0420564,-0.0621111,-1.53917,0.0605116,0.0453529,552,1149,-13.4498,-2.33625
-665,-125,-14.1008,2.15466,-0.0519134,0.0325572,-0.00343742,0.0326969,-0.052053,-1.53019,0.0493539,0.0476043,559,1149,-14.1007,-2.15467
-658,-125,-13.8581,0.479126,0,0,0,0,0,0,0,-1,566,1149,-13.8581,-0.479078
-651,-125,-13.6672,0.791504,-0.0323803,0.0177475,-0.0027757,0.0179007,-0.0325335,-1.51565,0.0295239,0.0364314,573,1149,-13.6672,-0.791564
-644,-125,-13.5947,1.17078,-0.0240008,0.0123702,-0.00225825,0.0125099,-0.0241405,-1.50902,0.0215123,0.024276,580,1149,-13.5947,-1.17075
-637,-125,-13.6086,1.32617,-0.0174371,0.00771991,-0.00201699,0.0078806,-0.0175978,-1.4913,0.0150624,0.0128361,587,1149,-13.6087,-1.3262
-630,-125,-13.6276,1.4574,-0.0121957,0.00395377,-0.00223975,0.00425864,-0.0125006,-1.43551,0.0100584,0.0142558,594,1149,-13.6276,-1.45739
-623,-125,-13.6438,1.59668,-0.00728544,0.000749969,-0.00312173,0.00182021,-0.00835568,-1.24052,0.00626594,0.0133785,601,1149,-13.6438,-1.59668
-616,-125,-13.6178,1.72937,-0.00510908,-0.000451819,-0.00338209,0.00132577,-0.00688667,-1.08689,0.00509091,0.0125987,608,1149,-13.6178,-1.72934
-609,-125,-13.6516,1.8479,-0.00526792,-0.00149344,-0.00386039,0.000916321,-0.00767769,-1.01275,0.00544964,0.0163354,615,1149,-13.6516,-1.84793
-602,-125,-13.7077,2.01855,-0.00603433,-0.00214527,-0.00476568,0.00105732,-0.00923692,-0.979102,0.00653894,0.0152581,622,1149,-13.7077,-2.01859
-595,-125,-13.7075,2.172,-0.00675756,-0.00263523,-0.00538382,0.00106849,-0.0104613,-0.968213,0.00735626,0.0146656,629,1149,-13.7075,-2.17204
-588,-125,-13.4003,2.5332,0,0,0,0,0,0,0,-1,636,1149,-13.4003,-2.53323
-581,-125,-14.0635,1.68481,0,0,0,0,0,0,0,-1,643,1149,-14.0635,-1.68483
-574,-125,-14.7267,0.836426,0,0,0,0,0,0,0,-1,650,1149,-14.7267,-0.836425
-567,-125,-15.0033,0.834595,-0.00628508,-0.00293175,-0.00529895,0.000949472,-0.0101663,-0.938622,0.00711517,0.0403015,657,1149,-15.0033,-0.834592
-560,-125,-15.0739,0.925171,-0.00534845,-0.00260534,-0.0046549,0.000875863,-0.00882965,-0.928668,0.00619905,0.0398509,664,1149,-15.0739,-0.925182
-553,-125,-15.0718,1.03186,-0.00373339,-0.00200693,-0.00369664,0.000925936,-0.00666625,-0.900102,0.00478278,0.0391356,671,1149,-15.0718,-1.03188
-546,-125,-15.0446,1.0957,-0.00131803,-0.00109328,-0.00243416,0.0012311,-0.00364241,-0.808465,0.00292627,0.0398428,678,1149,-15.0446,-1.09566
-539,-125,-15.0994,1.14807,0.00216362,0.000216454,-0.000885495,0.00250608,-0.000126005,-0.369025,0.00171426,0.0416557,685,1149,-15.0995,-1.14801
-532,-125,-15.1118,0.993774,0.00638788,0.00179075,0.000320597,0.00641013,0.0017685,0.0692914,0.0038228,0.0395542,692,1149,-15.1118,-0.993825
-525,-125,-14.8961,0.698364,0.00964424,0.00261113,-0.000598842,0.00969486,0.0025605,-0.0843371,0.00580126,0.0431921,699,1149,-14.896,-0.698313
-518,-125,0,0,0,0,0,0,0,0,0,-1,706,1149,0,0
-511,-125,0,0,0,0,0,0,0,0,0,-1,713,1149,0,0
-504,-125,0,0,0,0,0,0,0,0,0,-1,720,1149,0,0
-497,-125,0,0,0,0,0,0,0,0,0,-1,727,1149,0,0
-490,-125,0,0,0,0,0,0,0,0,0,-1,734,1149,0,0
-483,-125,0,0,0,0,0,0,0,0,0,-1,741,1149,0,0
-476,-125,0,0,0,0,0,0,0,0,0,-1,748,1149,0,0
-469,-125,0,0,0,0,0,0,0,0,0,-1,755,1149,0,0
-462,-125,0,0,0,0,0,0,0,0,0,-1,762,1149,0,0
-455,-125,0,0,0,0,0,0,0,0,0,-1,769,1149,0,0
-448,-125,0,0,0,0,0,0,0,0,0,-1,776,1149,0,0
-441,-125,0,0,0,0,0,0,0,0,0,-1,783,1149,0,0
-434,-125,0,0,0,0,0,0,0,0,0,-1,790,1149,0,0
-427,-125,0,0,0,0,0,0,0,0,0,-1,797,1149,0,0
-420,-125,0,0,0,0,0,0,0,0,0,-1,804,1149,0,0
-413,-125,0,0,0,0,0,0,0,0,0,-1,811,1149,0,0
-406,-125,0,0,0,0,0,0,0,0,0,-1,818,1149,0,0
-399,-125,0,0,0,0,0,0,0,0,0,-1,825,1149,0,0
-392,-125,0,0,0,0,0,0,0,0,0,-1,832,1149,0,0
-385,-125,0,0,0,0,0,0,0,0,0,-1,839,1149,0,0
-378,-125,0,0,0,0,0,0,0,0,0,-1,846,1149,0,0
-371,-125,0,0,0,0,0,0,0,0,0,-1,853,1149,0,0
-364,-125,0,0,0,0,0,0,0,0,0,-1,860,1149,0,0
-357,-125,0,0,0,0,0,0,0,0,0,-1,867,1149,0,0
-350,-125,0,0,0,0,0,0,0,0,0,-1,874,1149,0,0
-343,-125,0,0,0,0,0,0,0,0,0,-1,881,1149,0,0
-336,-125,0,0,0,0,0,0,0,0,0,-1,888,1149,0,0
-329,-125,0,0,0,0,0,0,0,0,0,-1,895,1149,0,0
-322,-125,0,0,0,0,0,0,0,0,0,-1,902,1149,0,0
-315,-125,0,0,0,0,0,0,0,0,0,-1,909,1149,0,0
-308,-125,0,0,0,0,0,0,0,0,0,-1,916,1149,0,0
-301,-125,0,0,0,0,0,0,0,0,0,-1,923,1149,0,0
-294,-125,0,0,0,0,0,0,0,0,0,-1,930,1149,0,0
-287,-125,0,0,0,0,0,0,0,0,0,-1,937,1149,0,0
-280,-125,0,0,0,0,0,0,0,0,0,-1,944,1149,0,0
-273,-125,0,0,0,0,0,0,0,0,0,-1,951,1149,0,0
-266,-125,0,0,0,0,0,0,0,0,0,-1,958,1149,0,0
-259,-125,0,0,0,0,0,0,0,0,0,-1,965,1149,0,0
-252,-125,0,0,0,0,0,0,0,0,0,-1,972,1149,0,0
-245,-125,0,0,0,0,0,0,0,0,0,-1,979,1149,0,0
-238,-125,0,0,0,0,0,0,0,0,0,-1,986,1149,0,0
-231,-125,0,0,0,0,0,0,0,0,0,-1,993,1149,0,0
-224,-125,0,0,0,0,0,0,0,0,0,-1,1000,1149,0,0
-217,-125,0,0,0,0,0,0,0,0,0,-1,1007,1149,0,0
-210,-125,0,0,0,0,0,0,0,0,0,-1,1014,1149,0,0
-203,-125,0,0,0,0,0,0,0,0,0,-1,1021,1149,0,0
-196,-125,0,0,0,0,0,0,0,0,0,-1,1028,1149,0,0
-189,-125,0,0,0,0,0,0,0,0,0,-1,1035,1149,0,0
-182,-125,0,0,0,0,0,0,0,0,0,-1,1042,1149,0,0
-175,-125,0,0,0,0,0,0,0,0,0,-1,1049,1149,0,0
-168,-125,0,0,0,0,0,0,0,0,0,-1,1056,1149,0,0
-161,-125,0,0,0,0,0,0,0,0,0,-1,1063,1149,0,0
-154,-125,0,0,0,0,0,0,0,0,0,-1,1070,1149,0,0
-147,-125,0,0,0,0,0,0,0,0,0,-1,1077,1149,0,0
-140,-125,0,0,0,0,0,0,0,0,0,-1,1084,1149,0,0
-133,-125,0,0,0,0,0,0,0,0,0,-1,1091,1149,0,0
-126,-125,0,0,0,0,0,0,0,0,0,-1,1098,1149,0,0
-119,-125,0,0,0,0,0,0,0,0,0,-1,1105,1149,0,0
-112,-125,0,0,0,0,0,0,0,0,0,-1,1112,1149,0,0
-105,-125,0,0,0,0,0,0,0,0,0,-1,1119,1149,0,0
-98,-125,0,0,0,0,0,0,0,0,0,-1,1126,1149,0,0
-91,-125,0,0,0,0,0,0,0,0,0,-1,1133,1149,0,0
-84,-125,0,0,0,0,0,0,0,0,0,-1,1140,1149,0,0
-77,-125,0,0,0,0,0,0,0,0,0,-1,1147,1149,0,0
-70,-125,0,0,0,0,0,0,0,0,0,-1,1154,1149,0,0
-63,-125,0,0,0,0,0,0,0,0,0,-1,1161,1149,0,0
-56,-125,0,0,0,0,0,0,0,0,0,-1,1168,1149,0,0
-49,-125,0,0,0,0,0,0,0,0,0,-1,1175,1149,0,0
-42,-125,0,0,0,0,0,0,0,0,0,-1,1182,1149,0,0
-35,-125,0,0,0,0,0,0,0,0,0,-1,1189,1149,0,0
-28,-125,0,0,0,0,0,0,0,0,0,-1,1196,1149,0,0
-21,-125,0,0,0,0,0,0,0,0,0,-1,1203,1149,0,0
-14,-125,0,0,0,0,0,0,0,0,0,-1,1210,1149,0,0
-7,-125,0,0,0,0,0,0,0,0,0,-1,1217,1149,0,0
0,-125,0,0,0,0,0,0,0,0,0,-1,1224,1149,0,0
7,-125,0,0,0,0,0,0,0,0,0,-1,1231,1149,0,0
14,-125,0,0,0,0,0,0,0,0,0,-1,1238,1149,0,0
21,-125,0,0,0,0,0,0,0,0,0,-1,1245,1149,0,0
28,-125,0,0,0,0,0,0,0,0,0,-1,1252,1149,0,0
35,-125,0,0,0,0,0,0,0,0,0,-1,1259,1149,0,0
42,-125,0,0,0,0,0,0,0,0,0,-1,1266,1149,0,0
49,-125,0,0,0,0,0,0,0,0,0,-1,1273,1149,0,0
56,-125,0,0,0,0,0,0,0,0,0,-1,1280,1149,0,0
63,-125,0,0,0,0,0,0,0,0,0,-1,1287,1149,0,0
70,-125,0,0,0,0,0,0,0,0,0,-1,1294,1149,0,0
77,-125,0,0,0,0,0,0,0,0,0,-1,1301,1149,0,0
84,-125,0,0,0,0,0,0,0,0,0,-1,1308,1149,0,0
91,-125,0,0,0,0,0,0,0,0,0,-1,1315,1149,0,0
98,-125,0,0,0,0,0,0,0,0,0,-1,1322,1149,0,0
105,-125,0,0,0,0,0,0,0,0,0,-1,1329,1149,0,0
112,-125,0,0,0,0,0,0,0,0,0,-1,1336,1149,0,0
119,-125,0,0,0,0,0,0,0,0,0,-1,1343,1149,0,0
126,-125,0,0,0,0,0,0,0,0,0,-1,1350,1149,0,0
133,-125,0,0,0,0,0,0,0,0,0,-1,1357,1149,0,0
140,-125,0,0,0,0,0,0,0,0,0,-1,1364,1149,0,0
147,-125,0,0,0,0,0,0,0,0,0,-1,1371,1149,0,0
154,-125,0,0,0,0,0,0,0,0,0,-1,1378,1149,0,0
161,-125,0,0,0,0,0,0,0,0,0,-1,1385,1149,0,0
168,-125,0,0,0,0,0,0,0,0,0,-1,1392,1149,0,0
175,-125,0,0,0,0,0,0,0,0,0,-1,1399,1149,0,0
182,-125,0,0,0,0,0,0,0,0,0,-1,1406,1149,0,0
189,-125,0,0,0,0,0,0,0,0,0,-1,1413,1149,0,0
196,-125,0,0,0,0,0,0,0,0,0,-1,1420,1149,0,0
203,-125,0,0,0,0,0,0,0,0,0,-1,1427,1149,0,0
210,-125,0,0,0,0,0,0,0,0,0,-1,1434,1149,0,0
217,-125,0,0,0,0,0,0,0,0,0,-1,1441,1149,0,0
224,-125,0,0,0,0,0,0,0,0,0,-1,1448,1149,0,0
231,-125,0,0,0,0,0,0,0,0,0,-1,1455,1149,0,0
238,-125,0,0,0,0,0,0,0,0,0,-1,1462,1149,0,0
245,-125,0,0,0,0,0,0,0,0,0,-1,1469,1149,0,0
252,-125,0,0,0,0,0,0,0,0,0,-1,1476,1149,0,0
259,-125,0,0,0,0,0,0,0,0,0,-1,1483,1149,0,0
266,-125,0,0,0,0,0,0,0,0,0,-1,1490,1149,0,0
273,-125,0,0,0,0,0,0,0,0,0,-1,1497,1149,0,0
280,-125,0,0,0,0,0,0,0,0,0,-1,1504,1149,0,0
287,-125,0,0,0,0,0,0,0,0,0,-1,1511,1149,0,0
294,-125,0,0,0,0,0,0,0,0,0,-1,1518,1149,0,0
301,-125,0,0,0,0,0,0,0,0,0,-1,1525,1149,0,0
308,-125,0,0,0,0,0,0,0,0,0,-1,1532,1149,0,0
315,-125,0,0,0,0,0,0,0,0,0,-1,1539,1149,0,0
322,-125,0,0,0,0,0,0,0,0,0,-1,1546,1149,0,0
329,-125,0,0,0,0,0,0,0,0,0,-1,1553,1149,0,0
336,-125,0,0,0,0,0,0,0,0,0,-1,1560,1149,0,0
343,-125,0,0,0,0,0,0,0,0,0,-1,1567,1149,0,0
350,-125,0,0,0,0,0,0,0,0,0,-1,1574,1149,0,0
357,-125,0,0,0,0,0,0,0,0,0,-1,1581,1149,0,0
364,-125,0,0,0,0,0,0,0,0,0,-1,1588,1149,0,0
371,-125,0,0,0,0,0,0,0,0,0,-1,1595,1149,0,0
378,-125,0,0,0,0,0,0,0,0,0,-1,1602,1149,0,0
385,-125,0,0,0,0,0,0,0,0,0,-1,1609,1149,0,0
392,-125,0,0,0,0,0,0,0,0,0,-1,1616,1149,0,0
399,-125,0,0,0,0,0,0,0,0,0,-1,1623,1149,0,0
406,-125,0,0,0,0,0,0,0,0,0,-1,1630,1149,0,0
413,-125,0,0,0,0,0,0,0,0,0,-1,1637,1149,0,0
420,-125,0,0,0,0,0,0,0,0,0,-1,1644,1149,0,0
427,-125,0,0,0,0,0,0,0,0,0,-1,1651,1149,0,0
434,-125,0,0,0,0,0,0,0,0,0,-1,1658,1149,0,0
441,-125,0,0,0,0,0,0,0,0,0,-1,1665,1149,0,0
448,-125,0,0,0,0,0,0,0,0,0,-1,1672,1149,0,0
455,-125,0,0,0,0,0,0,0,0,0,-1,1679,1149,0,0
462,-125,0,0,0,0,0,0,0,0,0,-1,1686,1149,0,0
469,-125,0,0,0,0,0,0,0,0,0,-1,1693,1149,0,0
476,-125,0,0,0,0,0,0,0,0,0,-1,1700,1149,0,0
483,-125,0,0,0,0,0,0,0,0,0,-1,1707,1149,0,0
490,-125,0,0,0,0,0,0,0,0,0,-1,1714,1149,0,0
497,-125,0,0,0,0,0,0,0,0,0,-1,1721,1149,0,0
504,-125,0,0,0,0,0,0,0,0,0,-1,1728,1149,0,0
511,-125,0,0,0,0,0,0,0,0,0,-1,1735,1149,0,0
518,-125,0,0,0,0,0,0,0,0,0,-1,1742,1149,0,0
525,-125,0,0,0,0,0,0,0,0,0,-1,1749,1149,0,0
532,-125,0,0,0,0,0,0,0,0,0,-1,1756,1149,0,0
539,-125,0,0,0,0,0,0,0,0,0,-1,1763,1149,0,0
546,-125,0,0,0,0,0,0,0,0,0,-1,1770,1149,0,0
553,-125,0,0,0,0,0,0,0,0,0,-1,1777,1149,0,0
560,-125,0,0,0,0,0,0,0,0,0,-1,1784,1149,0,0
567,-125,0,0,0,0,0,0,0,0,0,-1,1791,1149,0,0
574,-125,0,0,0,0,0,0,0,0,0,-1,1798,1149,0,0
581,-125,0,0,0,0,0,0,0,0,0,-1,1805,1149,0,0
588,-125,0,0,0,0,0,0,0,0,0,-1,1812,1149,0,0
595,-125,0,0,0,0,0,0,0,0,0,-1,1819,1149,0,0
602,-125,0,0,0,0,0,0,0,0,0,-1,1826,1149,0,0
609,-125,0,0,0,0,0,0,0,0,0,-1,1833,1149,0,0
616,-125,0,0,0,0,0,0,0,0,0,-1,1840,1149,0,0
623,-125,0,0,0,0,0,0,0,0,0,-1,1847,1149,0,0
630,-125,0,0,0,0,0,0,0,0,0,-1,1854,1149,0,0
637,-125,0,0,0,0,0,0,0,0,0,-1,1861,1149,0,0
644,-125,22.9572,2.93701,0.00402861,-0.00267649,-0.00215179,0.00465975,-0.00330763,-0.285308,0.00462199,0.0432976,1868,1149,22.9571,-2.93704
651,-125,22.9332,2.75952,0.00241081,-0.0018026,-0.001301,0.00278015,-0.00217194,-0.276614,0.00286627,0.0409487,1875,1149,22.9332,-2.75949
658,-125,22.6619,2.82056,0.00175476,-0.00124268,-0.000890929,0.00199957,-0.00148749,-0.268169,0.00202048,0.0400075,1882,1149,22.6619,-2.8206
665,-125,22.5186,2.87769,0.000310691,-0.00110446,0.000109989,0.000319189,-0.00111296,0.0771051,0.000868154,0.0428761,1889,1149,22.5185,-2.87772
672,-125,22.5405,2.79956,-0.00176901,-0.00130818,0.00149946,-2.15331e-05,-0.00305566,0.861634,0.00202996,0.0442507,1896,1149,22.5406,-2.79958
679,-125,22.5581,2.7948,-0.00369345,-0.00162368,0.0027243,0.000255672,-0.00557281,0.966915,0.0038033,0.0376968,1903,1149,22.5581,-2.79484
686,-125,22.5864,2.80188,-0.00537691,-0.00196616,0.00377991,0.000475272,-0.00781835,0.99731,0.00537766,0.0343828,1910,1149,22.5864,-2.80193
693,-125,22.5979,2.76611,-0.00665309,-0.00216879,0.00456301,0.000673189,-0.00949507,1.01376,0.00656595,0.0322813,1917,1149,22.598,-2.76613
700,-125,22.6597,2.79846,-0.00773207,-0.00237738,0.00524953,0.000838125,-0.0109476,1.02121,0.00759319,0.016377,1924,1149,22.6597,-2.79849
707,-125,22.4965,4.05835,0,0,0,0,0,0,0,-1,1931,1149,22.4965,-4.05838
714,-125,21.7822,4.36292,-0.00862899,-0.00248437,0.00576571,0.000976505,-0.0120899,1.03019,0.00840434,0.040576,1938,1149,21.7822,-4.36291
721,-125,21.2123,4.56348,-0.00859096,-0.00229982,0.00566329,0.00103283,-0.0119236,1.0389,0.00831477,0.0193422,1945,1149,21.2123,-4.56352
728,-125,21.2411,4.45837,-0.00821428,-0.00204798,0.00533088,0.00102712,-0.0112894,1.04758,0.00789094,0.0137122,1952,1149,21.2411,-4.4584
735,-125,21.2428,4.3457,-0.00737203,-0.00169125,0.00473427,0.000989326,-0.0100526,1.05559,0.00705468,0.0156139,1959,1149,21.2427,-4.34564
742,-125,21.297,4.24561,-0.00587775,-0.00142931,0.00392121,0.000854577,-0.00816164,1.04339,0.00574717,0.0218889,1966,1149,21.297,-4.24563
749,-125,21.2802,4.16016,-0.00405208,-0.000879773,0.00298329,0.000912816,-0.00584466,1.02973,0.00423364,0.0241513,1973,1149,21.2802,-4.16016
756,-125,21.2244,4.02087,-0.00138515,-0.000138819,0.00206235,0.00139246,-0.00291643,0.932118,0.00253907,0.01891,1980,1149,21.2243,-4.02092
763,-125,21.2274,3.89844,0.00243068,0.000354606,0.00130392,0.00305929,-0.000274009,0.449222,0.00213673,0.0113526,1987,1149,21.2274,-3.89843
770,-125,21.236,3.78979,0.00593002,0.000584506,0.00119868,0.0061865,0.000328019,0.210795,0.00401946,0.0138734,1994,1149,21.2359,-3.78982
777,-125,21.2202,3.67725,0.010017,0.000569038,0.00194682,0.0104024,0.000183607,0.195453,0.00687458,0.0235727,2001,1149,21.2202,-3.6772
784,-125,21.2007,3.59448,0.0161763,0.000415503,0.00331269,0.0168443,-0.000252466,0.198972,0.0113146,0.042294,2008,1149,21.2007,-3.59444
791,-125,21.1923,3.5166,0,0,0,0,0,0,0,-1,2015,1149,21.1922,-3.51665
798,-125,20.3397,4.25269,0,0,0,0,0,0,0,-1,2022,1149,20.3397,-4.25274
805,-125,20.7703,4.14014,0,0,0,0,0,0,0,-1,2029,1149,20.7703,-4.14015
812,-125,21.0972,4.28223,0,0,0,0,0,0,0,-1,2036,1149,21.0972,-4.28218
-700,-132,0,0,0,0,0,0,0,0,0,-1,524,1156,0,0
-693,-132,-5.24634,3.19958,0,0,0,0,0,0,0,-1,531,1156,-5.24631,-3.19955
-686,-132,-5.98047,2.73267,-0.0943307,0.0544525,-0.000183218,0.0544527,-0.094331,-1.56956,0.0869227,0.0472983,538,1156,-5.98049,-2.73271
-679,-132,-6.22595,1.96509,-0.0841689,0.0448169,-0.0023717,0.0448605,-0.0842125,-1.55242,0.075666,0.0486877,545,1156,-6.22593,-1.96506
-672,-132,-12.9567,2.05798,-0.072391,0.0358797,-0.00346915,0.0359907,-0.072502,-1.5388,0.0638097,0.0440831,552,1156,-12.9567,-2.05795
-665,-132,-13.5809,1.92603,-0.0601202,0.0279263,-0.00384944,0.0280943,-0.0602882,-1.52719,0.0521438,0.0457798,559,1156,-13.581,-1.926
-658,-132,-14.1987,1.79089,0,0,0,0,0,0,0,-1,566,1156,-14.1987,-1.79089
-651,-132,-13.5838,0.800049,-0.0371063,0.015382,-0.00336939,0.0155974,-0.0373217,-1.50695,0.0313993,0.038688,573,1156,-13.5838,-0.799996
-644,-132,-13.4762,1.17444,-0.0274297,0.0108066,-0.00283014,0.0110149,-0.027638,-1.49731,0.0229939,0.0210187,580,1156,-13.4762,-1.17448
-637,-132,-13.465,1.32776,-0.0197434,0.00688513,-0.00250843,0.00711937,-0.0199777,-1.47769,0.016221,0.0110538,587,1156,-13.465,-1.32773
-630,-132,-13.4868,1.45837,-0.0134915,0.00367472,-0.00254881,0.00404517,-0.0138619,-1.42646,0.0108441,0.00958483,594,1156,-13.4868,-1.45834
-623,-132,-13.4745,1.62158,-0.00780308,0.000700252,-0.00337531,0.00187716,-0.00897998,-1.2353,0.0067006,0.0154645,601,1156,-13.4745,-1.62156
-616,-132,-13.4152,1.74353,-0.00528971,-0.000454577,-0.00346978,0.0013568,-0.00710109,-1.08967,0.00524515,0.0203184,608,1156,-13.4151,-1.74352
-609,-132,-13.4285,1.86987,-0.0055412,-0.00146688,-0.00394282,0.000933959,-0.00794204,-1.02385,0.00563189,0.015271,615,1156,-13.4285,-1.86987
-602,-132,-13.5307,1.9812,-0.00657736,-0.00212423,-0.00489261,0.00102464,-0.00972623,-0.998936,0.00685129,0.0135236,622,1156,-13.5307,-1.98115
-595,-132,-13.5626,2.15479,-0.00749764,-0.00260192,-0.0055874,0.00105031,-0.0111499,-0.991857,0.00780693,0.015722,629,1156,-13.5626,-2.15479
-588,-132,-13.4591,2.36194,-0.00805886,-0.00287798,-0.00601748,0.00108295,-0.0120198,-0.988652,0.00839749,0.0177116,636,1156,-13.4591,-2.3619
-581,-132,-13.8624,1.9325,-0.008112,-0.00310521,-0.00612863,0.0010116,-0.0122288,-0.979294,0.00850981,0.048566,643,1156,-13.8624,-1.9325
-574,-132,-14.463,1.35144,0,0,0,0,0,0,0,-1,650,1156,-14.463,-1.35141
-567,-132,-14.9304,0.75769,-0.00752372,-0.0029545,-0.00592077,0.00110715,-0.0115854,-0.969528,0.00811783,0.0388308,657,1156,-14.9304,-0.757694
-560,-132,-15.0894,0.888428,-0.00669542,-0.00264699,-0.00541356,0.00110842,-0.0104508,-0.964308,0.00736455,0.0361621,664,1156,-15.0894,-0.88847
-553,-132,-15.2187,1.09766,-0.00508451,-0.00207756,-0.00457493,0.00123461,-0.00839667,-0.944155,0.00605144,0.0387221,671,1156,-15.2187,-1.09769
-546,-132,-15.1285,0.988647,-0.00250572,-0.00121622,-0.00339565,0.00159535,-0.00531729,-0.879219,0.0041794,0.0402683,678,1156,-15.1285,-0.988669
-539,-132,-15.0153,0.792725,0.00135658,-8.89487e-06,-0.00186782,0.00266253,-0.00131484,-0.610178,0.00233987,0.0408774,685,1156,-15.0153,-0.792723
-532,-132,-14.9221,0.69812,0.00648871,0.00146097,-0.000382945,0.00651771,0.00143197,-0.0755854,0.00395519,0.0404868,692,1156,-14.9221,-0.698102
-525,-132,-15.0715,0.932983,0.0113771,0.00221389,-0.000570483,0.0114125,0.00217851,-0.0619393,0.00699613,0.0424957,699,1156,-15.0715,-0.933004
-518,-132,0,0,0,0,0,0,0,0,0,-1,706,1156,0,0
-511,-132,0,0,0,0,0,0,0,0,0,-1,713,1156,0,0
-504,-132,0,0,0,0,0,0,0,0,0,-1,720,1156,0,0
-497,-132,0,0,0,0,0,0,0,0,0,-1,727,1156,0,0
-490,-132,0,0,0,0,0,0,0,0,0,-1,734,1156,0,0
-483,-132,0,0,0,0,0,0,0,0,0,-1,741,1156,0,0
-476,-132,0,0,0,0,0,0,0,0,0,-1,748,1156,0,0
-469,-132,0,0,0,0,0,0,0,0,0,-1,755,1156,0,0
-462,-132,0,0,0,0,0,0,0,0,0,-1,762,1156,0,0
-455,-132,0,0,0,0,0,0,0,0,0,-1,769,1156,0,0
-448,-132,0,0,0,0,0,0,0,0,0,-1,776,1156,0,0
-441,-132,0,0,0,0,0,0,0,0,0,-1,783,1156,0,0
-434,-132,0,0,0,0,0,0,0,0,0,-1,790,1156,0,0
-427,-132,0,0,0,0,0,0,0,0,0,-1,797,1156,0,0
-420,-132,0,0,0,0,0,0,0,0,0,-1,804,1156,0,0
-413,-132,0,0,0,0,0,0,0,0,0,-1,811,1156,0,0
-406,-132,0,0,0,0,0,0,0,0,0,-1,818,1156,0,0
-399,-132,0,0,0,0,0,0,0,0,0,-1,825,1156,0,0
-392,-132,0,0,0,0,0,0,0,0,0,-1,832,1156,0,0
-385,-132,0,0,0,0,0,0,0,0,0,-1,839,1156,0,0
-378,-132,0,0,0,0,0,0,0,0,0,-1,846,1156,0,0
-371,-132,0,0,0,0,0,0,0,0,0,-1,853,1156,0,0
-364,-132,0,0,0,0,0,0,0,0,0,-1,860,1156,0,0
-357,-132,0,0,0,0,0,0,0,0,0,-1,867,1156,0,0
-350,-132,0,0,0,0,0,0,0,0,0,-1,874,1156,0,0
-343,-132,0,0,0,0,0,0,0,0,0,-1,881,1156,0,0
-336,-132,0,0,0,0,0,0,0,0,0,-1,888,1156,0,0
-329,-132,0,0,0,0,0,0,0,0,0,-1,895,1156,0,0
-322,-132,0,0,0,0,0,0,0,0,0,-1,902,1156,0,0
-315,-132,0,0,0,0,0,0,0,0,0,-1,909,1156,0,0
-308,-132,0,0,0,0,0,0,0,0,0,-1,916,1156,0,0
-301,-132,0,0,0,0,0,0,0,0,0,-1,923,1156,0,0
-294,-132,0,0,0,0,0,0,0,0,0,-1,930,1156,0,0
-287,-132,0,0,0,0,0,0,0,0,0,-1,937,1156,0,0
-280,-132,0,0,0,0,0,0,0,0,0,-1,944,1156,0,0
-273,-132,0,0,0,0,0,0,0,0,0,-1,951,1156,0,0
-266,-132,0,0,0,0,0,0,0,0,0,-1,958,1156,0,0
-259,-132,0,0,0,0,0,0,0,0,0,-1,965,1156,0,0
-252,-132,0,0,0,0,0,0,0,0,0,-1,972,1156,0,0
-245,-132,0,0,0,0,0,0,0,0,0,-1,979,1156,0,0
-238,-132,0,0,0,0,0,0,0,0,0,-1,986,1156,0,0
-231,-132,0,0,0,0,0,0,0,0,0,-1,993,1156,0,0
-224,-132,0,0,0,0,0,0,0,0,0,-1,1000,1156,0,0
-217,-132,0,0,0,0,0,0,0,0,0,-1,1007,1156,0,0
-210,-132,0,0,0,0,0,0,0,0,0,-1,1014,1156,0,0
-203,-132,0,0,0,0,0,0,0,0,0,-1,1021,1156,0,0
-196,-132,0,0,0,0,0,0,0,0,0,-1,1028,1156,0,0
-189,-132,0,0,0,0,0,0,0,0,0,-1,1035,1156,0,0
-182,-132,0,0,0,0,0,0,0,0,0,-1,1042,1156,0,0
-175,-132,0,0,0,0,0,0,0,0,0,-1,1049,1156,0,0
-168,-132,0,0,0,0,0,0,0,0,0,-1,1056,1156,0,0
-161,-132,0,0,0,0,0,0,0,0,0,-1,1063,1156,0,0
-154,-132,0,0,0,0,0,0,0,0,0,-1,1070,1156,0,0
-147,-132,0,0,0,0,0,0,0,0,0,-1,1077,1156,0,0
-140,-132,0,0,0,0,0,0,0,0,0,-1,1084,1156,0,0
-133,-132,0,0,0,0,0,0,0,0,0,-1,1091,1156,0,0
-126,-132,0,0,0,0,0,0,0,0,0,-1,1098,1156,0,0
-119,-132,0,0,0,0,0,0,0,0,0,-1,1105,1156,0,0
-112,-132,0,0,0,0,0,0,0,0,0,-1,1112,1156,0,0
-105,-132,0,0,0,0,0,0,0,0,0,-1,1119,1156,0,0
-98,-132,0,0,0,0,0,0,0,0,0,-1,1126,1156,0,0
-91,-132,0,0,0,0,0,0,0,0,0,-1,1133,1156,0,0
-84,-132,0,0,0,0,0,0,0,0,0,-1,1140,1156,0,0
-77,-132,0,0,0,0,0,0,0,0,0,-1,1147,1156,0,0
-70,-132,0,0,0,0,0,0,0,0,0,-1,1154,1156,0,0
-63,-132,0,0,0,0,0,0,0,0,0,-1,1161,1156,0,0
-56,-132,0,0,0,0,0,0,0,0,0,-1,1168,1156,0,0
-49,-132,0,0,0,0,0,0,0,0,0,-1,1175,1156,0,0
-42,-132,0,0,0,0,0,0,0,0,0,-1,1182,1156,0,0
-35,-132,0,0,0,0,0,0,0,0,0,-1,1189,1156,0,0
-28,-132,0,0,0,0,0,0,0,0,0,-1,1196,1156,0,0
-21,-132,0,0,0,0,0,0,0,0,0,-1,1203,1156,0,0
-14,-132,0,0,0,0,0,0,0,0,0,-1,1210,1156,0,0
-7,-132,0,0,0,0,0,0,0,0,0,-1,1217,1156,0,0
0,-132,0,0,0,0,0,0,0,0,0,-1,1224,1156,0,0
7,-132,0,0,0,0,0,0,0,0,0,-1,1231,1156,0,0
14,-132,0,0,0,0,0,0,0,0,0,-1,1238,1156,0,0
21,-132,0,0,0,0,0,0,0,0,0,-1,1245,1156,0,0
28,-132,0,0,0,0,0,0,0,0,0,-1,1252,1156,0,0
35,-132,0,0,0,0,0,0,0,0,0,-1,1259,1156,0,0
42,-132,0,0,0,0,0,0,0,0,0,-1,1266,1156,0,0
49,-132,0,0,0,0,0,0,0,0,0,-1,1273,1156,0,0
56,-132,0,0,0,0,0,0,0,0,0,-1,1280,1156,0,0
63,-132,0,0,0,0,0,0,0,0,0,-1,1287,1156,0,0
70,-132,0,0,0,0,0,0,0,0,0,-1,1294,1156,0,0
77,-132,0,0,0,0,0,0,0,0,0,-1,1301,1156,0,0
84,-132,0,0,0,0,0,0,0,0,0,-1,1308,1156,0,0
91,-132,0,0,0,0,0,0,0,0,0,-1,1315,1156,0,0
98,-132,0,0,0,0,0,0,0,0,0,-1,1322,1156,0,0
105,-132,0,0,0,0,0,0,0,0,0,-1,1329,1156,0,0
112,-132,0,0,0,0,0,0,0,0,0,-1,1336,1156,0,0
119,-132,0,0,0,0,0,0,0,0,0,-1,1343,1156,0,0
126,-132,0,0,0,0,0,0,0,0,0,-1,1350,1156,0,0
133,-132,0,0,0,0,0,0,0,0,0,-1,1357,1156,0,0
140,-132,0,0,0,0,0,0,0,0,0,-1,1364,1156,0,0
147,-132,0,0,0,0,0,0,0,0,0,-1,1371,1156,0,0
154,-132,0,0,0,0,0,0,0,0,0,-1,1378,1156,0,0
161,-132,0,0,0,0,0,0,0,0,0,-1,1385,1156,0,0
168,-132,0,0,0,0,0,0,0,0,0,-1,1392,1156,0,0
175,-132,0,0,0,0,0,0,0,0,0,-1,1399,1156,0,0
182,-132,0,0,0,0,0,0,0,0,0,-1,1406,1156,0,0
189,-132,0,0,0,0,0,0,0,0,0,-1,1413,1156,0,0
196,-132,0,0,0,0,0,0,0,0,0,-1,1420,1156,0,0
203,-132,0,0,0,0,0,0,0,0,0,-1,1427,1156,0,0
210,-132,0,0,0,0,0,0,0,0,0,-1,1434,1156,0,0
217,-132,0,0,0,0,0,0,0,0,0,-1,1441,1156,0,0
224,-132,0,0,0,0,0,0,0,0,0,-1,1448,1156,0,0
231,-132,0,0,0,0,0,0,0,0,0,-1,1455,1156,0,0
238,-132,0,0,0,0,0,0,0,0,0,-1,1462,1156,0,0
245,-132,0,0,0,0,0,0,0,0,0,-1,1469,1156,0,0
252,-132,0,0,0,0,0,0,0,0,0,-1,1476,1156,0,0
259,-132,0,0,0,0,0,0,0,0,0,-1,1483,1156,0,0
266,-132,0,0,0,0,0,0,0,0,0,-1,1490,1156,0,0
273,-132,0,0,0,0,0,0,0,0,0,-1,1497,1156,0,0
280,-132,0,0,0,0,0,0,0,0,0,-1,1504,1156,0,0
287,-132,0,0,0,0,0,0,0,0,0,-1,1511,1156,0,0
294,-132,0,0,0,0,0,0,0,0,0,-1,1518,1156,0,0
301,-132,0,0,0,0,0,0,0,0,0,-1,1525,1156,0,0
308,-132,0,0,0,0,0,0,0,0,0,-1,1532,1156,0,0
315,-132,0,0,0,0,0,0,0,0,0,-1,1539,1156,0,0
322,-132,0,0,0,0,0,0,0,0,0,-1,1546,1156,0,0
329,-132,0,0,0,0,0,0,0,0,0,-1,1553,1156,0,0
336,-132,0,0,0,0,0,0,0,0,0,-1,1560,1156,0,0
343,-132,0,0,0,0,0,0,0,0,0,-1,1567,1156,0,0
350,-132,0,0,0,0,0,0,0,0,0,-1,1574,1156,0,0
357,-132,0,0,0,0,0,0,0,0,0,-1,1581,1156,0,0
364,-132,0,0,0,0,0,0,0,0,0,-1,1588,1156,0,0
371,-132,0,0,0,0,0,0,0,0,0,-1,1595,1156,0,0
378,-132,0,0,0,0,0,0,0,0,0,-1,1602,1156,0,0
385,-132,0,0,0,0,0,0,0,0,0,-1,1609,1156,0,0
392,-132,0,0,0,0,0,0,0,0,0,-1,1616,1156,0,0
399,-132,0,0,0,0,0,0,0,0,0,-1,1623,1156,0,0
406,-132,0,0,0,0,0,0,0,0,0,-1,1630,1156,0,0
413,-132,0,0,0,0,0,0,0,0,0,-1,1637,1156,0,0
420,-132,0,0,0,0,0,0,0,0,0,-1,1644,1156,0,0
427,-132,0,0,0,0,0,0,0,0,0,-1,1651,1156,0,0
434,-132,0,0,0,0,0,0,0,0,0,-1,1658,1156,0,0
441,-132,0,0,0,0,0,0,0,0,0,-1,1665,1156,0,0
448,-132,0,0,0,0,0,0,0,0,0,-1,1672,1156,0,0
455,-132,0,0,0,0,0,0,0,0,0,-1,1679,1156,0,0
462,-132,0,0,0,0,0,0,0,0,0,-1,1686,1156,0,0
469,-132,0,0,0,0,0,0,0,0,0,-1,1693,1156,0,0
476,-132,0,0,0,0,0,0,0,0,0,-1,1700,1156,0,0
483,-132,0,0,0,0,0,0,0,0,0,-1,1707,1156,0,0
490,-132,0,0,0,0,0,0,0,0,0,-1,1714,1156,0,0
497,-132,0,0,0,0,0,0,0,0,0,-1,1721,1156,0,0
504,-132,0,0,0,0,0,0,0,0,0,-1,1728,1156,0,0
511,-132,0,0,0,0,0,0,0,0,0,-1,1735,1156,0,0
518,-132,0,0,0,0,0,0,0,0,0,-1,1742,1156,0,0
525,-132,0,0,0,0,0,0,0,0,0,-1,1749,1156,0,0
532,-132,0,0,0,0,0,0,0,0,0,-1,1756,1156,0,0
539,-132,0,0,0,0,0,0,0,0,0,-1,1763,1156,0,0
546,-132,0,0,0,0,0,0,0,0,0,-1,1770,1156,0,0
553,-132,0,0,0,0,0,0,0,0,0,-1,1777,1156,0,0
560,-132,0,0,0,0,0,0,0,0,0,-1,1784,1156,0,0
567,-132,0,0,0,0,0,0,0,0,0,-1,1791,1156,0,0
574,-132,0,0,0,0,0,0,0,0,0,-1,1798,1156,0,0
581,-132,0,0,0,0,0,0,0,0,0,-1,1805,1156,0,0
588,-132,0,0,0,0,0,0,0,0,0,-1,1812,1156,0,0
595,-132,0,0,0,0,0,0,0,0,0,-1,1819,1156,0,0
602,-132,0,0,0,0,0,0,0,0,0,-1,1826,1156,0,0
609,-132,0,0,0,0,0,0,0,0,0,-1,1833,1156,0,0
616,-132,0,0,0,0,0,0,0,0,0,-1,1840,1156,0,0
623,-132,0,0,0,0,0,0,0,0,0,-1,1847,1156,0,0
630,-132,0,0,0,0,0,0,0,0,0,-1,1854,1156,0,0
637,-132,0,0,0,0,0,0,0,0,0,-1,1861,1156,0,0
644,-132,22.7994,2.7594,0.00311895,-0.00318042,-0.00107498,0.00329734,-0.00335881,-0.164451,0.00384299,0.0454817,1868,1156,22.7994,-2.75938
651,-132,22.896,2.60779,0.00172525,-0.0021704,-0.000586892,0.00181175,-0.00225689,-0.146328,0.00235371,0.0435677,1875,1156,22.8959,-2.60781
658,-132,22.6598,2.67407,0.00117534,-0.00147959,-0.000373648,0.00122692,-0.00153117,-0.137188,0.00159562,0.0427717,1882,1156,22.6598,-2.67413
665,-132,22.4486,2.77527,-0.000272411,-0.00125441,0.000511419,-5.44471e-05,-0.00147237,0.402882,0.000963947,0.0416011,1889,1156,22.4487,-2.77526
672,-132,22.5493,2.88989,-0.00224649,-0.00134762,0.00171002,-2.89582e-05,-0.00356516,0.913904,0.00236718,0.0393653,1896,1156,22.5494,-2.88988
679,-132,22.5525,2.7428,-0.00406241,-0.00157209,0.00278591,0.000234266,-0.00586877,0.995555,0.00399289,0.0385026,1903,1156,22.5525,-2.74282
686,-132,22.5807,2.77759,-0.00566119,-0.00184966,0.00372468,0.000428493,-0.00793934,1.02186,0.00544135,0.0355787,1910,1156,22.5807,-2.77757
693,-132,22.5869,2.76526,-0.00687867,-0.00197513,0.00441175,0.000620349,-0.00947415,1.03902,0.00653271,0.0288135,1917,1156,22.5869,-2.76526
700,-132,22.6738,2.83557,-0.00792284,-0.00217204,0.00505752,0.000770327,-0.0108652,1.04388,0.00751342,0.0323533,1924,1156,22.6738,-2.83552
707,-132,22.0848,4.1377,0,0,0,0,0,0,0,-1,1931,1156,22.0848,-4.13775
714,-132,21.4065,4.50793,-0.0087776,-0.00227667,0.00553898,0.000895158,-0.0119494,1.05074,0.00828081,0.0342066,1938,1156,21.4065,-4.50789
721,-132,21.067,4.55762,-0.00871979,-0.00210634,0.00546771,0.000976786,-0.0118029,1.05736,0.00821359,0.0247556,1945,1156,21.067,-4.55759
728,-132,21.1001,4.43738,-0.00830227,-0.00189053,0.00520419,0.00101598,-0.0112088,1.06146,0.00783317,0.0139701,1952,1156,21.1001,-4.43741
735,-132,21.1161,4.32715,-0.00737553,-0.00156491,0.00465604,0.00101791,-0.00995835,1.06433,0.00700291,0.0157658,1959,1156,21.1161,-4.32716
742,-132,21.153,4.21338,-0.00571519,-0.00135689,0.00388769,0.000920735,-0.00799282,1.04084,0.00566047,0.0192545,1966,1156,21.153,-4.21332
749,-132,21.1482,4.13281,-0.00373523,-0.000875381,0.00296531,0.000986764,-0.00559738,1.01006,0.00410028,0.022354,1973,1156,21.1482,-4.13281
756,-132,21.116,3.99573,-0.000978583,-0.000357514,0.00201356,0.00136931,-0.00270541,0.861906,0.00239433,0.0206426,1980,1156,21.116,-3.99577
763,-132,21.1073,3.89087,0.00264698,-0.000117666,0.00125539,0.00313196,-0.000602647,0.368657,0.00231515,0.0135611,1987,1156,21.1073,-3.89087
770,-132,21.118,3.79309,0.00591952,-0.000281226,0.00114926,0.00612567,-0.000487377,0.17749,0.00425555,0.0134254,1994,1156,21.118,-3.79306
777,-132,21.0957,3.63123,0.00974213,-0.000835516,0.0016984,0.0100081,-0.00110153,0.155364,0.00706794,0.0200334,2001,1156,21.0957,-3.63128
784,-132,21.0269,3.44971,0.015548,-0.00180539,0.00266606,0.0159484,-0.00220575,0.149055,0.0114386,0.0421509,2008,1156,21.0269,-3.44974
791,-132,20.9595,3.29016,0,0,0,0,0,0,0,-1,2015,1156,20.9594,-3.29014
798,-132,20.9266,4.26587,0,0,0,0,0,0,0,-1,2022,1156,20.9267,-4.26583
805,-132,21.1782,4.55444,0,0,0,0,0,0,0,-1,2029,1156,21.1783,-4.55449
812,-132,21.4265,4.93079,0,0,0,0,0,0,0,-1,2036,1156,21.4265,-4.93076
-700,-139,0,0,0,0,0,0,0,0,0,-1,524,1163,0,0
-693,-139,-6.33685,3.28223,-0.118753,0.0529047,0.00506953,0.0530543,-0.118903,1.5413,0.101677,0.0482026,531,1163,-6.33688,-3.28225
-686,-139,-6.89789,2.65222,-0.109602,0.0452023,0.000329646,0.045203,-0.109603,1.56867,0.0919189,0.0473456,538,1163,-6.89791,-2.65224
-679,-139,-7.38916,1.90088,-0.0966119,0.0373881,-0.00236416,0.0374298,-0.0966536,-1.55316,0.0798906,0.0492029,545,1163,-7.38916,-1.90093
-672,-139,-12.4766,1.85864,-0.0822505,0.0300835,-0.00376708,0.0302097,-0.0823767,-1.53731,0.0672875,0.0444682,552,1163,-12.4765,-1.85859
-665,-139,-13.0438,1.70203,-0.0677459,0.0235574,-0.00432187,0.0237615,-0.0679501,-1.5236,0.0549602,0.0432724,559,1163,-13.0438,-1.70201
-658,-139,-13.6508,0.260254,0,0,0,0,0,0,0,-1,566,1163,-13.6508,-0.260229
-651,-139,-13.4802,0.702148,-0.0413992,0.0131896,-0.00394201,0.0134728,-0.0416824,-1.49908,0.0332032,0.0416543,573,1163,-13.4802,-0.702099
-644,-139,-13.302,1.16455,-0.0305549,0.00936044,-0.00336603,0.0096423,-0.0308368,-1.48725,0.0244151,0.0233825,580,1163,-13.302,-1.16451
-637,-139,-13.3007,1.32166,-0.0218293,0.00616502,-0.00295831,0.00647422,-0.0221385,-1.46665,0.0173251,0.0124384,587,1163,-13.3007,-1.32163
-630,-139,-13.3217,1.45837,-0.0147322,0.00345954,-0.00283887,0.00389226,-0.015165,-1.41953,0.0116266,0.0105539,594,1163,-13.3216,-1.45834
-623,-139,-13.332,1.62061,-0.00839102,0.000729897,-0.00363856,0.00200355,-0.00966467,-1.23408,0.00720444,0.0171268,601,1163,-13.332,-1.6206
-616,-139,-13.3214,1.71448,-0.00548685,-0.000355826,-0.0035993,0.00149871,-0.00734139,-1.09502,0.00546279,0.017841,608,1163,-13.3214,-1.71447
-609,-139,-13.2992,1.8717,-0.00573373,-0.00129755,-0.0040687,0.00111839,-0.00814967,-1.03496,0.00584171,0.022875,615,1163,-13.2992,-1.87165
-602,-139,-13.3947,2.021,-0.00696796,-0.00187979,-0.00503424,0.00121669,-0.0100644,-1.01936,0.00714978,0.0157405,622,1163,-13.3947,-2.02098
-595,-139,-13.4279,2.18115,-0.00804175,-0.00229576,-0.0057818,0.00128751,-0.011625,-1.01598,0.00821289,0.0142946,629,1163,-13.4278,-2.1812
-588,-139,-13.3402,2.35669,-0.00871758,-0.0025348,-0.00628117,0.00137451,-0.0126269,-1.01408,0.0089115,0.0166827,636,1163,-13.3402,-2.35668
-581,-139,-13.454,2.41003,-0.00887926,-0.0027477,-0.00646357,0.00134031,-0.0129673,-1.00684,0.00912449,0.0441804,643,1163,-13.454,-2.41007
-574,-139,-14.8425,0.703125,0,0,0,0,0,0,0,-1,650,1163,-14.8425,-0.703158
-567,-139,-14.9365,0.797974,-0.00847828,-0.00266873,-0.00640317,0.00145773,-0.0126047,-0.998339,0.00892882,0.0425378,657,1163,-14.9365,-0.797927
-560,-139,-14.9968,0.878052,-0.00775655,-0.00248286,-0.00596151,0.00139892,-0.0116383,-0.993619,0.00826476,0.0332239,664,1163,-14.9968,-0.878041
-553,-139,-15.187,1.12061,0,0,0,0,0,0,0,-1,671,1163,-15.187,-1.12055
-546,-139,-15.1364,0.654175,0,0,0,0,0,0,0,-1,678,1163,-15.1364,-0.654163
-539,-139,-14.9458,0.364258,0,0,0,0,0,0,0,-1,685,1163,-14.9458,-0.36423
-532,-139,-14.8989,0.422363,0.00608721,6.94536e-05,-0.000556905,0.00613831,1.83494e-05,-0.0915081,0.00408611,0.0392508,692,1163,-14.8989,-0.422374
-525,-139,-14.9999,0.605347,0.0120456,6.55182e-05,3.77142e-05,0.0120457,6.53998e-05,0.00314805,0.00800874,0.040654,699,1163,-15,-0.605346
-518,-139,0,0,0,0,0,0,0,0,0,-1,706,1163,0,0
-511,-139,0,0,0,0,0,0,0,0,0,-1,713,1163,0,0
-504,-139,0,0,0,0,0,0,0,0,0,-1,720,1163,0,0
-497,-139,0,0,0,0,0,0,0,0,0,-1,727,1163,0,0
-490,-139,0,0,0,0,0,0,0,0,0,-1,734,1163,0,0
-483,-139,0,0,0,0,0,0,0,0,0,-1,741,1163,0,0
-476,-139,0,0,0,0,0,0,0,0,0,-1,748,1163,0,0
-469,-139,0,0,0,0,0,0,0,0,0,-1,755,1163,0,0
-462,-139,0,0,0,0,0,0,0,0,0,-1,762,1163,0,0
-455,-139,0,0,0,0,0,0,0,0,0,-1,769,1163,0,0
-448,-139,0,0,0,0,0,0,0,0,0,-1,776,1163,0,0
-441,-139,0,0,0,0,0,0,0,0,0,-1,783,1163,0,0
-434,-139,0,0,0,0,0,0,0,0,0,-1,790,1163,0,0
-427,-139,0,0,0,0,0,0,0,0,0,-1,797,1163,0,0
-420,-139,0,0,0,0,0,0,0,0,0,-1,804,1163,0,0
-413,-139,0,0,0,0,0,0,0,0,0,-1,811,1163,0,0
-406,-139,0,0,0,0,0,0,0,0,0,-1,818,1163,0,0
-399,-139,0,0,0,0,0,0,0,0,0,-1,825,1163,0,0
-392,-139,0,0,0,0,0,0,0,0,0,-1,832,1163,0,0
-385,-139,0,0,0,0,0,0,0,0,0,-1,839,1163,0,0
-378,-139,0,0,0,0,0,0,0,0,0,-1,846,1163,0,0
-371,-139,0,0,0,0,0,0,0,0,0,-1,853,1163,0,0
-364,-139,0,0,0,0,0,0,0,0,0,-1,860,1163,0,0
-357,-139,0,0,0,0,0,0,0,0,0,-1,867,1163,0,0
-350,-139,0,0,0,0,0,0,0,0,0,-1,874,1163,0,0
-343,-139,0,0,0,0,0,0,0,0,0,-1,881,1163,0,0
-336,-139,0,0,0,0,0,0,0,0,0,-1,888,1163,0,0
-329,-139,0,0,0,0,0,0,0,0,0,-1,895,1163,0,0
-322,-139,0,0,0,0,0,0,0,0,0,-1,902,1163,0,0
-315,-139,0,0,0,0,0,0,0,0,0,-1,909,1163,0,0
-308,-139,0,0,0,0,0,0,0,0,0,-1,916,1163,0,0
-301,-139,0,0,0,0,0,0,0,0,0,-1,923,1163,0,0
-294,-139,0,0,0,0,0,0,0,0,0,-1,930,1163,0,0
-287,-139,0,0,0,0,0,0,0,0,0,-1,937,1163,0,0
-280,-139,0,0,0,0,0,0,0,0,0,-1,944,1163,0,0
-273,-139,0,0,0,0,0,0,0,0,0,-1,951,1163,0,0
-266,-139,0,0,0,0,0,0,0,0,0,-1,958,1163,0,0
-259,-139,0,0,0,0,0,0,0,0,0,-1,965,1163,0,0
-252,-139,0,0,0,0,0,0,0,0,0,-1,972,1163,0,0
-245,-139,0,0,0,0,0,0,0,0,0,-1,979,1163,0,0
-238,-139,0,0,0,0,0,0,0,0,0,-1,986,1163,0,0
-231,-139,0,0,0,0,0,0,0,0,0,-1,993,1163,0,0
-224,-139,0,0,0,0,0,0,0,0,0,-1,1000,1163,0,0
-217,-139,0,0,0,0,0,0,0,0,0,-1,1007,1163,0,0
-210,-139,0,0,0,0,0,0,0,0,0,-1,1014,1163,0,0
-203,-139,0,0,0,0,0,0,0,0,0,-1,1021,1163,0,0
-196,-139,0,0,0,0,0,0,0,0,0,-1,1028,1163,0,0
-189,-139,0,0,0,0,0,0,0,0,0,-1,1035,1163,0,0
-182,-139,0,0,0,0,0,0,0,0,0,-1,1042,1163,0,0
-175,-139,0,0,0,0,0,0,0,0,0,-1,1049,1163,0,0
-168,-139,0,0,0,0,0,0,0,0,0,-1,1056,1163,0,0
-161,-139,0,0,0,0,0,0,0,0,0,-1,1063,1163,0,0
-154,-139,0,0,0,0,0,0,0,0,0,-1,1070,1163,0,0
-147,-139,0,0,0,0,0,0,0,0,0,-1,1077,1163,0,0
-140,-139,0,0,0,0,0,0,0,0,0,-1,1084,1163,0,0
-133,-139,0,0,0,0,0,0,0,0,0,-1,1091,1163,0,0
-126,-139,0,0,0,0,0,0,0,0,0,-1,1098,1163,0,0
-119,-139,0,0,0,0,0,0,0,0,0,-1,1105,1163,0,0
-112,-139,0,0,0,0,0,0,0,0,0,-1,1112,1163,0,0
-105,-139,0,0,0,0,0,0,0,0,0,-1,1119,1163,0,0
-98,-139,0,0,0,0,0,0,0,0,0,-1,1126,1163,0,0
-91,-139,0,0,0,0,0,0,0,0,0,-1,1133,1163,0,0
-84,-139,0,0,0,0,0,0,0,0,0,-1,1140,1163,0,0
-77,-139,0,0,0,0,0,0,0,0,0,-1,1147,1163,0,0
-70,-139,0,0,0,0,0,0,0,0,0,-1,1154,1163,0,0
-63,-139,0,0,0,0,0,0,0,0,0,-1,1161,1163,0,0
-56,-139,0,0,0,0,0,0,0,0,0,-1,1168,1163,0,0
-49,-139,0,0,0,0,0,0,0,0,0,-1,1175,1163,0,0
-42,-139,0,0,0,0,0,0,0,0,0,-1,1182,1163,0,0
-35,-139,0,0,0,0,0,0,0,0,0,-1,1189,1163,0,0
-28,-139,0,0,0,0,0,0,0,0,0,-1,1196,1163,0,0
-21,-139,0,0,0,0,0,0,0,0,0,-1,1203,1163,0,0
-14,-139,0,0,0,0,0,0,0,0,0,-1,1210,1163,0,0
-7,-139,0,0,0,0,0,0,0,0,0,-1,1217,1163,0,0
0,-139,0,0,0,0,0,0,0,0,0,-1,1224,1163,0,0
7,-139,0,0,0,0,0,0,0,0,0,-1,1231,1163,0,0
14,-139,0,0,0,0,0,0,0,0,0,-1,1238,1163,0,0
21,-139,0,0,0,0,0,0,0,0,0,-1,1245,1163,0,0
28,-139,0,0,0,0,0,0,0,0,0,-1,1252,1163,0,0
35,-139,0,0,0,0,0,0,0,0,0,-1,1259,1163,0,0
42,-139,0,0,0,0,0,0,0,0,0,-1,1266,1163,0,0
49,-139,0,0,0,0,0,0,0,0,0,-1,1273,1163,0,0
56,-139,0,0,0,0,0,0,0,0,0,-1,1280,1163,0,0
63,-139,0,0,0,0,0,0,0,0,0,-1,1287,1163,0,0
70,-139,0,0,0,0,0,0,0,0,0,-1,1294,1163,0,0
77,-139,0,0,0,0,0,0,0,0,0,-1,1301,1163,0,0
84,-139,0,0,0,0,0,0,0,0,0,-1,1308,1163,0,0
91,-139,0,0,0,0,0,0,0,0,0,-1,1315,1163,0,0
98,-139,0,0,0,0,0,0,0,0,0,-1,1322,1163,0,0
105,-139,0,0,0,0,0,0,0,0,0,-1,1329,1163,0,0
112,-139,0,0,0,0,0,0,0,0,0,-1,1336,1163,0,0
119,-139,0,0,0,0,0,0,0,0,0,-1,1343,1163,0,0
126,-139,0,0,0,0,0,0,0,0,0,-1,1350,1163,0,0
133,-139,0,0,0,0,0,0,0,0,0,-1,1357,1163,0,0
140,-139,0,0,0,0,0,0,0,0,0,-1,1364,1163,0,0
147,-139,0,0,0,0,0,0,0,0,0,-1,1371,1163,0,0
154,-139,0,0,0,0,0,0,0,0,0,-1,1378,1163,0,0
161,-139,0,0,0,0,0,0,0,0,0,-1,1385,1163,0,0
168,-139,0,0,0,0,0,0,0,0,0,-1,1392,1163,0,0
175,-139,0,0,0,0,0,0,0,0,0,-1,1399,1163,0,0
182,-139,0,0,0,0,0,0,0,0,0,-1,1406,1163,0,0
189,-139,0,0,0,0,0,0,0,0,0,-1,1413,1163,0,0
196,-139,0,0,0,0,0,0,0,0,0,-1,1420,1163,0,0
203,-139,0,0,0,0,0,0,0,0,0,-1,1427,1163,0,0
210,-139,0,0,0,0,0,0,0,0,0,-1,1434,1163,0,0
217,-139,0,0,0,0,0,0,0,0,0,-1,1441,1163,0,0
224,-139,0,0,0,0,0,0,0,0,0,-1,1448,1163,0,0
231,-139,0,0,0,0,0,0,0,0,0,-1,1455,1163,0,0
238,-139,0,0,0,0,0,0,0,0,0,-1,1462,1163,0,0
245,-139,0,0,0,0,0,0,0,0,0,-1,1469,1163,0,0
252,-139,0,0,0,0,0,0,0,0,0,-1,1476,1163,0,0
259,-139,0,0,0,0,0,0,0,0,0,-1,1483,1163,0,0
266,-139,0,0,0,0,0,0,0,0,0,-1,1490,1163,0,0
273,-139,0,0,0,0,0,0,0,0,0,-1,1497,1163,0,0
280,-139,0,0,0,0,0,0,0,0,0,-1,1504,1163,0,0
287,-139,0,0,0,0,0,0,0,0,0,-1,1511,1163,0,0
294,-139,0,0,0,0,0,0,0,0,0,-1,1518,1163,0,0
301,-139,0,0,0,0,0,0,0,0,0,-1,1525,1163,0,0
308,-139,0,0,0,0,0,0,0,0,0,-1,1532,1163,0,0
315,-139,0,0,0,0,0,0,0,0,0,-1,1539,1163,0,0
322,-139,0,0,0,0,0,0,0,0,0,-1,1546,1163,0,0
329,-139,0,0,0,0,0,0,0,0,0,-1,1553,1163,0,0
336,-139,0,0,0,0,0,0,0,0,0,-1,1560,1163,0,0
343,-139,0,0,0,0,0,0,0,0,0,-1,1567,1163,0,0
350,-139,0,0,0,0,0,0,0,0,0,-1,1574,1163,0,0
357,-139,0,0,0,0,0,0,0,0,0,-1,1581,1163,0,0
364,-139,0,0,0,0,0,0,0,0,0,-1,1588,1163,0,0
371,-139,0,0,0,0,0,0,0,0,0,-1,1595,1163,0,0
378,-139,0,0,0,0,0,0,0,0,0,-1,1602,1163,0,0
385,-139,0,0,0,0,0,0,0,0,0,-1,1609,1163,0,0
392,-139,0,0,0,0,0,0,0,0,0,-1,1616,1163,0,0
399,-139,0,0,0,0,0,0,0,0,0,-1,1623,1163,0,0
406,-139,0,0,0,0,0,0,0,0,0,-1,1630,1163,0,0
413,-139,0,0,0,0,0,0,0,0,0,-1,1637,1163,0,0
420,-139,0,0,0,0,0,0,0,0,0,-1,1644,1163,0,0
427,-139,0,0,0,0,0,0,0,0,0,-1,1651,1163,0,0
434,-139,0,0,0,0,0,0,0,0,0,-1,1658,1163,0,0
441,-139,0,0,0,0,0,0,0,0,0,-1,1665,1163,0,0
448,-139,0,0,0,0,0,0,0,0,0,-1,1672,1163,0,0
455,-139,0,0,0,0,0,0,0,0,0,-1,1679,1163,0,0
462,-139,0,0,0,0,0,0,0,0,0,-1,1686,1163,0,0
469,-139,0,0,0,0,0,0,0,0,0,-1,1693,1163,0,0
476,-139,0,0,0,0,0,0,0,0,0,-1,1700,1163,0,0
483,-139,0,0,0,0,0,0,0,0,0,-1,1707,1163,0,0
490,-139,0,0,0,0,0,0,0,0,0,-1,1714,1163,0,0
497,-139,0,0,0,0,0,0,0,0,0,-1,1721,1163,0,0
504,-139,0,0,0,0,0,0,0,0,0,-1,1728,1163,0,0
511,-139,0,0,0,0,0,0,0,0,0,-1,1735,1163,0,0
518,-139,0,0,0,0,0,0,0,0,0,-1,1742,1163,0,0
525,-139,0,0,0,0,0,0,0,0,0,-1,1749,1163,0,0
532,-139,0,0,0,0,0,0,0,0,0,-1,1756,1163,0,0
539,-139,0,0,0,0,0,0,0,0,0,-1,1763,1163,0,0
546,-139,0,0,0,0,0,0,0,0,0,-1,1770,1163,0,0
553,-139,0,0,0,0,0,0,0,0,0,-1,1777,1163,0,0
560,-139,0,0,0,0,0,0,0,0,0,-1,1784,1163,0,0
567,-139,0,0,0,0,0,0,0,0,0,-1,1791,1163,0,0
574,-139,0,0,0,0,0,0,0,0,0,-1,1798,1163,0,0
581,-139,0,0,0,0,0,0,0,0,0,-1,1805,1163,0,0
588,-139,0,0,0,0,0,0,0,0,0,-1,1812,1163,0,0
595,-139,0,0,0,0,0,0,0,0,0,-1,1819,1163,0,0
602,-139,0,0,0,0,0,0,0,0,0,-1,1826,1163,0,0
609,-139,0,0,0,0,0,0,0,0,0,-1,1833,1163,0,0
616,-139,0,0,0,0,0,0,0,0,0,-1,1840,1163,0,0
623,-139,0,0,0,0,0,0,0,0,0,-1,1847,1163,0,0
630,-139,0,0,0,0,0,0,0,0,0,-1,1854,1163,0,0
637,-139,0,0,0,0,0,0,0,0,0,-1,1861,1163,0,0
644,-139,22.7665,2.72559,0.00246142,-0.00326814,-0.000112257,0.00246362,-0.00327034,-0.0195826,0.0033214,0.0449728,1868,1163,22.7664,-2.72559
651,-139,22.8175,2.52979,0.00136133,-0.00223568,4.55967e-05,0.00136191,-0.00223626,0.0126736,0.00209775,0.0451963,1875,1163,22.8175,-2.5298
658,-139,22.7076,2.76807,0.000880629,-0.00153372,0.000126646,0.000887254,-0.00154034,0.0522643,0.00141838,0.047135,1882,1163,22.7076,-2.76808
665,-139,22.658,2.82031,-0.000582057,-0.00132052,0.000924497,4.42152e-05,-0.00194679,0.59541,0.00131285,0.0434385,1889,1163,22.658,-2.82029
672,-139,22.6968,2.78369,-0.00245512,-0.00138369,0.00194842,0.000101323,-0.00394013,0.919558,0.00266117,0.0382351,1896,1163,22.6967,-2.78371
679,-139,22.6516,2.69861,-0.00419226,-0.00157589,0.00288691,0.000285403,-0.00605356,0.99813,0.00413412,0.0359204,1903,1163,22.6516,-2.6986
686,-139,22.5869,2.74365,-0.00572611,-0.00182478,0.00370488,0.000411591,-0.00796248,1.02771,0.0054507,0.031966,1910,1163,22.587,-2.7437
693,-139,22.5817,2.73145,-0.00689665,-0.00189237,0.0042838,0.000566494,-0.00935552,1.04972,0.00643416,0.0223854,1917,1163,22.5817,-2.73139
700,-139,22.5658,3.26477,0,0,0,0,0,0,0,-1,1924,1163,22.5658,-3.26476
707,-139,21.7861,3.948,-0.00856835,-0.00215224,0.00521784,0.000764857,-0.0114854,1.06102,0.00792423,0.0314388,1931,1163,21.7861,-3.94802
714,-139,21.0074,4.73853,-0.00878931,-0.00214661,0.00528375,0.000772983,-0.0117089,1.06599,0.00807593,0.0303584,1938,1163,21.0075,-4.73852
721,-139,21.0024,4.52502,-0.00873727,-0.00198115,0.00523594,0.000871866,-0.0115903,1.07188,0.00803327,0.0217508,1945,1163,21.0024,-4.52499
728,-139,20.9818,4.43005,-0.00828703,-0.00178283,0.005037,0.000960694,-0.0110306,1.07205,0.00769395,0.0212054,1952,1163,20.9819,-4.43002
735,-139,20.9675,4.34302,-0.00727883,-0.00145548,0.00453707,0.00102384,-0.00975815,1.07068,0.00687219,0.0168056,1959,1163,20.9675,-4.34296
742,-139,21.0153,4.19763,-0.00542336,-0.00126529,0.00381376,0.000999308,-0.00768796,1.03495,0.00548882,0.0204669,1966,1163,21.0152,-4.19763
749,-139,21.0043,4.10059,-0.00319125,-0.000842862,0.00295789,0.00116537,-0.00519948,0.974344,0.00391306,0.017674,1973,1163,21.0043,-4.10059
756,-139,20.9873,3.98962,-0.00029398,-0.000492086,0.00202249,0.00163188,-0.00241795,0.76093,0.0023528,0.0103207,1980,1163,20.9874,-3.98959
763,-139,20.9845,3.87195,0.00294975,-0.000466839,0.00125977,0.00336402,-0.000881109,0.317708,0.00258689,0.0102731,1987,1163,20.9846,-3.87194
770,-139,20.9735,3.75916,0.00587053,-0.000962155,0.00111691,0.00604847,-0.0011401,0.157989,0.00446117,0.0107933,1994,1163,20.9735,-3.75919
777,-139,20.9576,3.59692,0.00904937,-0.00200904,0.00136271,0.00921482,-0.00217449,0.12082,0.00698184,0.0199494,2001,1163,20.9577,-3.59693
784,-139,20.9231,3.40564,0.0134661,-0.00378871,0.0017123,0.0136344,-0.00395699,0.097963,0.0106564,0.0398266,2008,1163,20.9231,-3.40562
791,-139,20.8833,3.23511,0,0,0,0,0,0,0,-1,2015,1163,20.8833,-3.23509
798,-139,21.7478,4.5481,0,0,0,0,0,0,0,-1,2022,1163,21.7479,-4.54813
805,-139,21.6563,4.72241,0,0,0,0,0,0,0,-1,2029,1163,21.6561,-4.72239
812,-139,0,0,0,0,0,0,0,0,0,-1,2036,1163,0,0
-700,-146,0,0,0,0,0,0,0,0,0,-1,524,1170,0,0
-693,-146,-7.48529,3.37561,-0.135958,0.0416488,0.00595341,0.0418482,-0.136158,1.53733,0.107472,0.0436894,531,1170,-7.4853,-3.37559
-686,-146,-8.06909,2.63403,-0.123418,0.0361619,0.000630634,0.0361644,-0.12342,1.56684,0.0966181,0.0463268,538,1170,-8.06909,-2.63405
-679,-146,-11.3723,1.40613,-0.10727,0.0303237,-0.00247304,0.0303681,-0.107314,-1.55283,0.0835265,0.0491415,545,1170,-11.3723,-1.40619
-672,-146,-11.9078,1.55408,-0.0902677,0.0247305,-0.00412562,0.0248783,-0.0904155,-1.53498,0.070058,0.0435525,552,1170,-11.9078,-1.55412
-665,-146,-12.5157,1.43738,-0.073648,0.0196415,-0.00482455,0.0198903,-0.0738968,-1.51926,0.0570622,0.0432262,559,1170,-12.5157,-1.4374
-658,-146,-13.0546,0.782959,0,0,0,0,0,0,0,-1,566,1170,-13.0547,-0.782956
-651,-146,-13.0797,0.955322,-0.0444409,0.011341,-0.00453333,0.011707,-0.0448069,-1.49023,0.0344433,0.0393381,573,1170,-13.0796,-0.955284
-644,-146,-13.1087,1.13208,-0.0326849,0.008178,-0.00393123,0.00855277,-0.0330597,-1.47575,0.0253758,0.0208627,580,1170,-13.1087,-1.13206
-637,-146,-13.1215,1.29053,-0.0231888,0.00559937,-0.00344728,0.00600641,-0.0235959,-1.45326,0.0180686,0.0109757,587,1170,-13.1215,-1.29055
-630,-146,-13.1447,1.44324,-0.0154396,0.00334364,-0.00317503,0.00386582,-0.0159618,-1.40779,0.0121368,0.0109805,594,1170,-13.1446,-1.44328
-623,-146,-13.1818,1.61084,-0.00872004,0.000853205,-0.00395794,0.00227763,-0.0101445,-1.22534,0.00763626,0.0140926,601,1170,-13.1817,-1.61087
-616,-146,-13.2559,1.77234,-0.00554057,-0.000193257,-0.00378955,0.00177088,-0.00750471,-1.09261,0.00568611,0.0195089,608,1170,-13.2559,-1.77232
-609,-146,-13.1785,1.93396,-0.0058284,-0.00109495,-0.00429261,0.00144015,-0.0083635,-1.03734,0.00611253,0.0183558,615,1170,-13.1785,-1.93399
-602,-146,-13.2133,2.13855,-0.00727401,-0.00166072,-0.00527961,0.00151189,-0.0104466,-1.0297,0.00751922,0.0238072,622,1170,-13.2133,-2.13859
-595,-146,-13.3033,2.21484,-0.00851041,-0.00205447,-0.00608993,0.00161009,-0.012175,-1.0291,0.00870313,0.0142612,629,1170,-13.3033,-2.21489
-588,-146,-13.2061,2.38782,-0.00935392,-0.00230151,-0.00666858,0.00171576,-0.0133712,-1.0286,0.00953763,0.0162873,636,1170,-13.2061,-2.38785
-581,-146,-13.0971,2.57178,-0.00967145,-0.0025108,-0.00692908,0.0017083,-0.0138905,-1.02386,0.00987915,0.0318166,643,1170,-13.0971,-2.57177
-574,-146,-14.7897,0.724854,0,0,0,0,0,0,0,-1,650,1170,-14.7898,-0.72486
-567,-146,-14.8964,0.782349,-0.00944943,-0.0025233,-0.00695773,0.00178556,-0.0137583,-1.01631,0.00982163,0.0467776,657,1170,-14.8964,-0.782409
-560,-146,-14.9248,0.868774,-0.00879758,-0.00240103,-0.00652749,0.0016696,-0.0128682,-1.01319,0.00918606,0.0332832,664,1170,-14.9248,-0.868744
-553,-146,-14.9395,1.01538,-0.00725199,-0.00208735,-0.00570884,0.00159605,-0.0109354,-0.997796,0.00787637,0.034842,671,1170,-14.9395,-1.01538
-546,-146,-15.0699,1.03467,-0.00456091,-0.00163613,-0.00442066,0.00155775,-0.00775479,-0.945136,0.00575976,0.0392733,678,1170,-15.0699,-1.03469
-539,-146,-15.0413,0.876343,-0.000455649,-0.00107944,-0.00262271,0.00187364,-0.00340873,-0.726215,0.00309241,0.0388145,685,1170,-15.0413,-0.87634
-532,-146,-14.8732,0.621338,0.0054041,-0.000482658,-0.000407808,0.00543221,-0.000510775,-0.0688373,0.00380318,0.0371865,692,1170,-14.8733,-0.621287
-525,-146,-14.8198,0.558228,0.0120716,-0.000525917,0.00103078,0.0121553,-0.000609704,0.0811058,0.00831425,0.0406608,699,1170,-14.8198,-0.558204
-518,-146,0,0,0,0,0,0,0,0,0,-1,706,1170,0,0
-511,-146,0,0,0,0,0,0,0,0,0,-1,713,1170,0,0
-504,-146,0,0,0,0,0,0,0,0,0,-1,720,1170,0,0
-497,-146,0,0,0,0,0,0,0,0,0,-1,727,1170,0,0
-490,-146,0,0,0,0,0,0,0,0,0,-1,734,1170,0,0
-483,-146,0,0,0,0,0,0,0,0,0,-1,741,1170,0,0
-476,-146,0,0,0,0,0,0,0,0,0,-1,748,1170,0,0
-469,-146,0,0,0,0,0,0,0,0,0,-1,755,1170,0,0
-462,-146,0,0,0,0,0,0,0,0,0,-1,762,1170,0,0
-455,-146,0,0,0,0,0,0,0,0,0,-1,769,1170,0,0
-448,-146,0,0,0,0,0,0,0,0,0,-1,776,1170,0,0
-441,-146,0,0,0,0,0,0,0,0,0,-1,783,1170,0,0
-434,-146,0,0,0,0,0,0,0,0,0,-1,790,1170,0,0
-427,-146,0,0,0,0,0,0,0,0,0,-1,797,1170,0,0
-420,-146,0,0,0,0,0,0,0,0,0,-1,804,1170,0,0
-413,-146,0,0,0,0,0,0,0,0,0,-1,811,1170,0,0
-406,-146,0,0,0,0,0,0,0,0,0,-1,818,1170,0,0
-399,-146,0,0,0,0,0,0,0,0,0,-1,825,1170,0,0
-392,-146,0,0,0,0,0,0,0,0,0,-1,832,1170,0,0
-385,-146,0,0,0,0,0,0,0,0,0,-1,839,1170,0,0
-378,-146,0,0,0,0,0,0,0,0,0,-1,846,1170,0,0
-371,-146,0,0,0,0,0,0,0,0,0,-1,853,1170,0,0
-364,-146,0,0,0,0,0,0,0,0,0,-1,860,1170,0,0
-357,-146,0,0,0,0,0,0,0,0,0,-1,867,1170,0,0
-350,-146,0,0,0,0,0,0,0,0,0,-1,874,1170,0,0
-343,-146,0,0,0,0,0,0,0,0,0,-1,881,1170,0,0
-336,-146,0,0,0,0,0,0,0,0,0,-1,888,1170,0,0
-329,-146,0,0,0,0,0,0,0,0,0,-1,895,1170,0,0
-322,-146,0,0,0,0,0,0,0,0,0,-1,902,1170,0,0
-315,-146,0,0,0,0,0,0,0,0,0,-1,909,1170,0,0
-308,-146,0,0,0,0,0,0,0,0,0,-1,916,1170,0,0
-301,-146,0,0,0,0,0,0,0,0,0,-1,923,1170,0,0
-294,-146,0,0,0,0,0,0,0,0,0,-1,930,1170,0,0
-287,-146,0,0,0,0,0,0,0,0,0,-1,937,1170,0,0
-280,-146,0,0,0,0,0,0,0,0,0,-1,944,1170,0,0
-273,-146,0,0,0,0,0,0,0,0,0,-1,951,1170,0,0
-266,-146,0,0,0,0,0,0,0,0,0,-1,958,1170,0,0
-259,-146,0,0,0,0,0,0,0,0,0,-1,965,1170,0,0
-252,-146,0,0,0,0,0,0,0,0,0,-1,972,1170,0,0
-245,-146,0,0,0,0,0,0,0,0,0,-1,979,1170,0,0
-238,-146,0,0,0,0,0,0,0,0,0,-1,986,1170,0,0
-231,-146,0,0,0,0,0,0,0,0,0,-1,993,1170,0,0
-224,-146,0,0,0,0,0,0,0,0,0,-1,1000,1170,0,0
-217,-146,0,0,0,0,0,0,0,0,0,-1,1007,1170,0,0
-210,-146,0,0,0,0,0,0,0,0,0,-1,1014,1170,0,0
-203,-146,0,0,0,0,0,0,0,0,0,-1,1021,1170,0,0
-196,-146,0,0,0,0,0,0,0,0,0,-1,1028,1170,0,0
-189,-146,0,0,0,0,0,0,0,0,0,-1,1035,1170,0,0
-182,-146,0,0,0,0,0,0,0,0,0,-1,1042,1170,0,0
-175,-146,0,0,0,0,0,0,0,0,0,-1,1049,1170,0,0
-168,-146,0,0,0,0,0,0,0,0,0,-1,1056,1170,0,0
-161,-146,0,0,0,0,0,0,0,0,0,-1,1063,1170,0,0
-154,-146,0,0,0,0,0,0,0,0,0,-1,1070,1170,0,0
-147,-146,0,0,0,0,0,0,0,0,0,-1,1077,1170,0,0
-140,-146,0,0,0,0,0,0,0,0,0,-1,1084,1170,0,0
-133,-146,0,0,0,0,0,0,0,0,0,-1,1091,1170,0,0
-126,-146,0,0,0,0,0,0,0,0,0,-1,1098,1170,0,0
-119,-146,0,0,0,0,0,0,0,0,0,-1,1105,1170,0,0
-112,-146,0,0,0,0,0,0,0,0,0,-1,1112,1170,0,0
-105,-146,0,0,0,0,0,0,0,0,0,-1,1119,1170,0,0
-98,-146,0,0,0,0,0,0,0,0,0,-1,1126,1170,0,0
-91,-146,0,0,0,0,0,0,0,0,0,-1,1133,1170,0,0
-84,-146,0,0,0,0,0,0,0,0,0,-1,1140,1170,0,0
-77,-146,0,0,0,0,0,0,0,0,0,-1,1147,1170,0,0
-70,-146,0,0,0,0,0,0,0,0,0,-1,1154,1170,0,0
-63,-146,0,0,0,0,0,0,0,0,0,-1,1161,1170,0,0
-56,-146,0,0,0,0,0,0,0,0,0,-1,1168,1170,0,0
-49,-146,0,0,0,0,0,0,0,0,0,-1,1175,1170,0,0
-42,-146,0,0,0,0,0,0,0,0,0,-1,1182,1170,0,0
-35,-146,0,0,0,0,0,0,0,0,0,-1,1189,1170,0,0
-28,-146,0,0,0,0,0,0,0,0,0,-1,1196,1170,0,0
-21,-146,0,0,0,0,0,0,0,0,0,-1,1203,1170,0,0
-14,-146,0,0,0,0,0,0,0,0,0,-1,1210,1170,0,0
-7,-146,0,0,0,0,0,0,0,0,0,-1,1217,1170,0,0
0,-146,0,0,0,0,0,0,0,0,0,-1,1224,1170,0,0
7,-146,0,0,0,0,0,0,0,0,0,-1,1231,1170,0,0
14,-146,0,0,0,0,0,0,0,0,0,-1,1238,1170,0,0
21,-146,0,0,0,0,0,0,0,0,0,-1,1245,1170,0,0
28,-146,0,0,0,0,0,0,0,0,0,-1,1252,1170,0,0
35,-146,0,0,0,0,0,0,0,0,0,-1,1259,1170,0,0
42,-146,0,0,0,0,0,0,0,0,0,-1,1266,1170,0,0
49,-146,0,0,0,0,0,0,0,0,0,-1,1273,1170,0,0
56,-146,0,0,0,0,0,0,0,0,0,-1,1280,1170,0,0
63,-146,0,0,0,0,0,0,0,0,0,-1,1287,1170,0,0
70,-146,0,0,0,0,0,0,0,0,0,-1,1294,1170,0,0
77,-146,0,0,0,0,0,0,0,0,0,-1,1301,1170,0,0
84,-146,0,0,0,0,0,0,0,0,0,-1,1308,1170,0,0
91,-146,0,0,0,0,0,0,0,0,0,-1,1315,1170,0,0
98,-146,0,0,0,0,0,0,0,0,0,-1,1322,1170,0,0
105,-146,0,0,0,0,0,0,0,0,0,-1,1329,1170,0,0
112,-146,0,0,0,0,0,0,0,0,0,-1,1336,1170,0,0
119,-146,0,0,0,0,0,0,0,0,0,-1,1343,1170,0,0
126,-146,0,0,0,0,0,0,0,0,0,-1,1350,1170,0,0
133,-146,0,0,0,0,0,0,0,0,0,-1,1357,1170,0,0
140,-146,0,0,0,0,0,0,0,0,0,-1,1364,1170,0,0
147,-146,0,0,0,0,0,0,0,0,0,-1,1371,1170,0,0
154,-146,0,0,0,0,0,0,0,0,0,-1,1378,1170,0,0
161,-146,0,0,0,0,0,0,0,0,0,-1,1385,1170,0,0
168,-146,0,0,0,0,0,0,0,0,0,-1,1392,1170,0,0
175,-146,0,0,0,0,0,0,0,0,0,-1,1399,1170,0,0
182,-146,0,0,0,0,0,0,0,0,0,-1,1406,1170,0,0
189,-146,0,0,0,0,0,0,0,0,0,-1,1413,1170,0,0
196,-146,0,0,0,0,0,0,0,0,0,-1,1420,1170,0,0
203,-146,0,0,0,0,0,0,0,0,0,-1,1427,1170,0,0
210,-146,0,0,0,0,0,0,0,0,0,-1,1434,1170,0,0
217,-146,0,0,0,0,0,0,0,0,0,-1,1441,1170,0,0
224,-146,0,0,0,0,0,0,0,0,0,-1,1448,1170,0,0
231,-146,0,0,0,0,0,0,0,0,0,-1,1455,1170,0,0
238,-146,0,0,0,0,0,0,0,0,0,-1,1462,1170,0,0
245,-146,0,0,0,0,0,0,0,0,0,-1,1469,1170,0,0
252,-146,0,0,0,0,0,0,0,0,0,-1,1476,1170,0,0
259,-146,0,0,0,0,0,0,0,0,0,-1,1483,1170,0,0
266,-146,0,0,0,0,0,0,0,0,0,-1,1490,1170,0,0
273,-146,0,0,0,0,0,0,0,0,0,-1,1497,1170,0,0
280,-146,0,0,0,0,0,0,0,0,0,-1,1504,1170,0,0
287,-146,0,0,0,0,0,0,0,0,0,-1,1511,1170,0,0
294,-146,0,0,0,0,0,0,0,0,0,-1,1518,1170,0,0
301,-146,0,0,0,0,0,0,0,0,0,-1,1525,1170,0,0
308,-146,0,0,0,0,0,0,0,0,0,-1,1532,1170,0,0
315,-146,0,0,0,0,0,0,0,0,0,-1,1539,1170,0,0
322,-146,0,0,0,0,0,0,0,0,0,-1,1546,1170,0,0
329,-146,0,0,0,0,0,0,0,0,0,-1,1553,1170,0,0
336,-146,0,0,0,0,0,0,0,0,0,-1,1560,1170,0,0
343,-146,0,0,0,0,0,0,0,0,0,-1,1567,1170,0,0
350,-146,0,0,0,0,0,0,0,0,0,-1,1574,1170,0,0
357,-146,0,0,0,0,0,0,0,0,0,-1,1581,1170,0,0
364,-146,0,0,0,0,0,0,0,0,0,-1,1588,1170,0,0
371,-146,0,0,0,0,0,0,0,0,0,-1,1595,1170,0,0
378,-146,0,0,0,0,0,0,0,0,0,-1,1602,1170,0,0
385,-146,0,0,0,0,0,0,0,0,0,-1,1609,1170,0,0
392,-146,0,0,0,0,0,0,0,0,0,-1,1616,1170,0,0
399,-146,0,0,0,0,0,0,0,0,0,-1,1623,1170,0,0
406,-146,0,0,0,0,0,0,0,0,0,-1,1630,1170,0,0
413,-146,0,0,0,0,0,0,0,0,0,-1,1637,1170,0,0
420,-146,0,0,0,0,0,0,0,0,0,-1,1644,1170,0,0
427,-146,0,0,0,0,0,0,0,0,0,-1,1651,1170,0,0
434,-146,0,0,0,0,0,0,0,0,0,-1,1658,1170,0,0
441,-146,0,0,0,0,0,0,0,0,0,-1,1665,1170,0,0
448,-146,0,0,0,0,0,0,0,0,0,-1,1672,1170,0,0
455,-146,0,0,0,0,0,0,0,0,0,-1,1679,1170,0,0
462,-146,0,0,0,0,0,0,0,0,0,-1,1686,1170,0,0
469,-146,0,0,0,0,0,0,0,0,0,-1,1693,1170,0,0
476,-146,0,0,0,0,0,0,0,0,0,-1,1700,1170,0,0
483,-146,0,0,0,0,0,0,0,0,0,-1,1707,1170,0,0
490,-146,0,0,0,0,0,0,0,0,0,-1,1714,1170,0,0
497,-146,0,0,0,0,0,0,0,0,0,-1,1721,1170,0,0
504,-146,0,0,0,0,0,0,0,0,0,-1,1728,1170,0,0
511,-146,0,0,0,0,0,0,0,0,0,-1,1735,1170,0,0
518,-146,0,0,0,0,0,0,0,0,0,-1,1742,1170,0,0
525,-146,0,0,0,0,0,0,0,0,0,-1,1749,1170,0,0
532,-146,0,0,0,0,0,0,0,0,0,-1,1756,1170,0,0
539,-146,0,0,0,0,0,0,0,0,0,-1,1763,1170,0,0
546,-146,0,0,0,0,0,0,0,0,0,-1,1770,1170,0,0
553,-146,0,0,0,0,0,0,0,0,0,-1,1777,1170,0,0
560,-146,0,0,0,0,0,0,0,0,0,-1,1784,1170,0,0
567,-146,0,0,0,0,0,0,0,0,0,-1,1791,1170,0,0
574,-146,0,0,0,0,0,0,0,0,0,-1,1798,1170,0,0
581,-146,0,0,0,0,0,0,0,0,0,-1,1805,1170,0,0
588,-146,0,0,0,0,0,0,0,0,0,-1,1812,1170,0,0
595,-146,0,0,0,0,0,0,0,0,0,-1,1819,1170,0,0
602,-146,0,0,0,0,0,0,0,0,0,-1,1826,1170,0,0
609,-146,0,0,0,0,0,0,0,0,0,-1,1833,1170,0,0
616,-146,0,0,0,0,0,0,0,0,0,-1,1840,1170,0,0
623,-146,0,0,0,0,0,0,0,0,0,-1,1847,1170,0,0
630,-146,0,0,0,0,0,0,0,0,0,-1,1854,1170,0,0
637,-146,22.7183,2.59058,0.00350031,-0.00445002,0.000999142,0.00362395,-0.00457367,0.123123,0.00474347,0.0396013,1861,1170,22.7183,-2.59057
644,-146,22.6951,2.64331,0.00181285,-0.00328702,0.000902391,0.00196781,-0.00344198,0.170067,0.00316176,0.0380028,1868,1170,22.695,-2.64333
651,-146,22.7037,2.57776,0.00104805,-0.00218874,0.00068761,0.00118807,-0.00232876,0.200881,0.00206574,0.0369272,1875,1170,22.7037,-2.57779
658,-146,22.7004,2.75696,0.000639676,-0.00148345,0.000614914,0.000804912,-0.00164868,0.262513,0.00144423,0.0428924,1882,1170,22.7004,-2.75699
665,-146,22.6718,2.88159,-0.000751712,-0.00129292,0.00128851,0.000294297,-0.00233893,0.681895,0.00166607,0.0419792,1889,1170,22.6717,-2.88164
672,-146,22.7223,2.87573,-0.00243099,-0.00134741,0.00211869,0.000297666,-0.00407606,0.910575,0.00282183,0.0378357,1896,1170,22.7223,-2.87574
679,-146,22.7043,2.72522,-0.00401803,-0.00152989,0.00291543,0.000395815,-0.00594373,0.987061,0.0041008,0.0296194,1903,1170,22.7043,-2.72528
686,-146,22.5702,2.67969,-0.00541658,-0.00176935,0.00360191,0.00044428,-0.00763021,1.01973,0.00524118,0.0219615,1910,1170,22.5703,-2.67969
693,-146,22.6448,2.71362,-0.00649684,-0.00179412,0.00407271,0.000557274,-0.00884823,1.0472,0.00609308,0.0162409,1917,1170,22.6447,-2.71358
700,-146,22.4502,3.38867,0,0,0,0,0,0,0,-1,1924,1170,22.4502,-3.38861
707,-146,21.5979,4.12854,-0.00810264,-0.00201979,0.00491089,0.000715212,-0.0108376,1.06265,0.00747492,0.034488,1931,1170,21.5979,-4.12857
714,-146,20.976,4.73608,-0.00834902,-0.00202497,0.00495493,0.000690908,-0.0110649,1.0694,0.00761735,0.0278071,1938,1170,20.976,-4.73611
721,-146,20.9601,4.55054,-0.00832714,-0.00187675,0.00493005,0.000789344,-0.0109932,1.07506,0.0076056,0.0360542,1945,1170,20.9601,-4.55059
728,-146,20.9738,4.40405,-0.00788789,-0.00170144,0.00479258,0.00090944,-0.0104988,1.07197,0.00732118,0.0261205,1952,1170,20.9738,-4.40411
735,-146,20.8284,4.3855,-0.00682667,-0.00136137,0.00433766,0.00103264,-0.00922069,1.06649,0.00651866,0.0163586,1959,1170,20.8284,-4.38544
742,-146,20.8273,4.23682,-0.00482449,-0.00118855,0.00366058,0.00108064,-0.00709368,1.01587,0.00512743,0.0159957,1966,1170,20.8272,-4.23683
749,-146,20.8531,4.11938,-0.00242732,-0.000839182,0.00285506,0.00133017,-0.00459668,0.921034,0.00359093,0.0147752,1973,1170,20.8531,-4.11944
756,-146,20.8704,3.98462,0.000663115,-0.00059095,0.00204418,0.00217427,-0.0021021,0.636584,0.00246908,0.0108992,1980,1170,20.8703,-3.98458
763,-146,20.8525,3.85803,0.00407168,-0.000738711,0.00148171,0.00449145,-0.00115848,0.276067,0.00344599,0.00953596,1987,1170,20.8525,-3.85806
770,-146,20.8407,3.74109,0.00733441,-0.00149446,0.00154168,0.00759587,-0.00175593,0.167997,0.00573947,0.00992757,1994,1170,20.8407,-3.74113
777,-146,20.8341,3.60217,0.01118,-0.00290597,0.00192847,0.0114392,-0.00316522,0.133632,0.00887147,0.0182737,2001,1170,20.8341,-3.60219
784,-146,21.1715,3.41968,0.0165284,-0.00526167,0.00248465,0.0168082,-0.0055414,0.112109,0.0134389,0.0375061,2008,1170,21.1715,-3.41962
791,-146,21.7765,3.15417,0.0240875,-0.00905801,0.00334775,0.0244223,-0.00939276,0.0996604,0.0201557,0.0451266,2015,1170,21.7765,-3.15414
798,-146,22.1984,3.02661,0,0,0,0,0,0,0,-1,2022,1170,22.1983,-3.02662
805,-146,22.4001,4.74036,0,0,0,0,0,0,0,-1,2029,1170,22.4002,-4.74038
812,-146,0,0,0,0,0,0,0,0,0,-1,2036,1170,0,0
-700,-153,0,0,0,0,0,0,0,0,0,-1,524,1177,0,0
-693,-153,0,0,0,0,0,0,0,0,0,-1,531,1177,0,0
-686,-153,-8.98718,2.99292,0,0,0,0,0,0,0,-1,538,1177,-8.98717,-2.99292
-679,-153,-10.7227,1.93726,0,0,0,0,0,0,0,-1,545,1177,-10.7226,-1.93726
-672,-153,-11.3819,1.63428,-0.0940987,0.0214213,-0.00542827,0.0216758,-0.0943532,-1.52394,0.0712353,0.0452431,552,1177,-11.3819,-1.6343
-665,-153,-12.1716,1.39404,-0.0763863,0.0172595,-0.00593339,0.0176339,-0.0767607,-1.50777,0.0579531,0.0456664,559,1177,-12.1716,-1.39399
-658,-153,-12.6286,0.870117,0,0,0,0,0,0,0,-1,566,1177,-12.6286,-0.870098
-651,-153,-12.7422,0.897705,-0.0459498,0.0102818,-0.00530327,0.0107776,-0.0464456,-1.47758,0.035112,0.0453637,573,1177,-12.7422,-0.897695
-644,-153,-12.9349,1.11243,-0.0338355,0.00754047,-0.00456642,0.00803844,-0.0343335,-1.46217,0.0259863,0.0278595,580,1177,-12.935,-1.11245
-637,-153,-12.9681,1.27319,-0.0239922,0.00535277,-0.00395679,0.00587693,-0.0245164,-1.43909,0.0186151,0.0113193,587,1177,-12.9682,-1.27314
-630,-153,-12.9829,1.42773,-0.0159061,0.00339227,-0.00350695,0.0040098,-0.0165237,-1.3965,0.0125674,0.010326,594,1177,-12.9829,-1.42778
-623,-153,-12.9948,1.58704,-0.00903299,0.000961176,-0.00418201,0.00248023,-0.0105521,-1.22238,0.0079908,0.0106267,601,1177,-12.9948,-1.58707
-616,-153,-13.0175,1.74622,-0.00563049,-5.47751e-05,-0.00394767,0.0019902,-0.00767547,-1.09284,0.00589348,0.013255,608,1177,-13.0174,-1.74618
-609,-153,-13.0218,1.90259,-0.00597214,-0.000918686,-0.00455105,0.00176,-0.00865084,-1.03881,0.00643463,0.0183827,615,1177,-13.0218,-1.90265
-602,-153,-13.0229,2.05066,-0.00761442,-0.00147882,-0.00559863,0.00183743,-0.0109307,-1.03603,0.0079705,0.0250657,622,1177,-13.023,-2.05063
-595,-153,-13.1405,2.21387,-0.00900543,-0.00183525,-0.00650063,0.00200334,-0.012844,-1.03739,0.00930264,0.0218763,629,1177,-13.1405,-2.21389
-588,-153,-13.0909,2.39966,-0.010029,-0.00208588,-0.0071864,0.00215338,-0.0142683,-1.03784,0.0103053,0.0144195,636,1177,-13.091,-2.39968
-581,-153,-12.98,2.48035,-0.0105172,-0.0022981,-0.00755882,0.00219607,-0.0150114,-1.03439,0.0108142,0.0217036,643,1177,-12.98,-2.48034
-574,-153,-13.7842,1.69861,-0.0106121,-0.00234808,-0.00770873,0.00226622,-0.0152264,-1.03142,0.0109845,0.0468815,650,1177,-13.7842,-1.69861
-567,-153,-14.8314,0.737305,0,0,0,0,0,0,0,-1,657,1177,-14.8313,-0.737333
-560,-153,-14.9535,0.883789,-0.00978979,-0.00218361,-0.00737052,0.00230716,-0.0142806,-1.02358,0.0103753,0.0385648,664,1177,-14.9535,-0.883843
-553,-153,-15.0179,1.0697,-0.00821445,-0.00187164,-0.00660165,0.00228086,-0.012367,-1.00932,0.0091007,0.0371779,671,1177,-15.0179,-1.06974
-546,-153,-15.1149,1.21033,-0.00539828,-0.00141943,-0.00535484,0.00230359,-0.00912131,-0.963256,0.00697668,0.0408882,678,1177,-15.1149,-1.21039
-539,-153,-15.1794,1.01611,-0.00107428,-0.000844686,-0.00361465,0.00265698,-0.00457595,-0.801272,0.00422464,0.0407144,685,1177,-15.1794,-1.01608
-532,-153,-14.9636,0.813232,0.0052225,-0.000190427,-0.00145485,0.00558874,-0.000556671,-0.246616,0.00392457,0.0407946,692,1177,-14.9636,-0.81318
-525,-153,-14.8041,0.70166,0.0129114,3.57654e-05,0.000105615,0.0129122,3.4899e-05,0.00820197,0.00859655,0.0417074,699,1177,-14.8041,-0.701667
-518,-153,0,0,0,0,0,0,0,0,0,-1,706,1177,0,0
-511,-153,0,0,0,0,0,0,0,0,0,-1,713,1177,0,0
-504,-153,0,0,0,0,0,0,0,0,0,-1,720,1177,0,0
-497,-153,0,0,0,0,0,0,0,0,0,-1,727,1177,0,0
-490,-153,0,0,0,0,0,0,0,0,0,-1,734,1177,0,0
-483,-153,0,0,0,0,0,0,0,0,0,-1,741,1177,0,0
-476,-153,0,0,0,0,0,0,0,0,0,-1,748,1177,0,0
-469,-153,0,0,0,0,0,0,0,0,0,-1,755,1177,0,0
-462,-153,0,0,0,0,0,0,0,0,0,-1,762,1177,0,0
-455,-153,0,0,0,0,0,0,0,0,0,-1,769,1177,0,0
-448,-153,0,0,0,0,0,0,0,0,0,-1,776,1177,0,0
-441,-153,0,0,0,0,0,0,0,0,0,-1,783,1177,0,0
-434,-153,0,0,0,0,0,0,0,0,0,-1,790,1177,0,0
-427,-153,0,0,0,0,0,0,0,0,0,-1,797,1177,0,0
-420,-153,0,0,0,0,0,0,0,0,0,-1,804,1177,0,0
-413,-153,0,0,0,0,0,0,0,0,0,-1,811,1177,0,0
-406,-153,0,0,0,0,0,0,0,0,0,-1,818,1177,0,0
-399,-153,0,0,0,0,0,0,0,0,0,-1,825,1177,0,0
-392,-153,0,0,0,0,0,0,0,0,0,-1,832,1177,0,0
-385,-153,0,0,0,0,0,0,0,0,0,-1,839,1177,0,0
-378,-153,0,0,0,0,0,0,0,0,0,-1,846,1177,0,0
-371,-153,0,0,0,0,0,0,0,0,0,-1,853,1177,0,0
-364,-153,0,0,0,0,0,0,0,0,0,-1,860,1177,0,0
-357,-153,0,0,0,0,0,0,0,0,0,-1,867,1177,0,0
-350,-153,0,0,0,0,0,0,0,0,0,-1,874,1177,0,0
-343,-153,0,0,0,0,0,0,0,0,0,-1,881,1177,0,0
-336,-153,0,0,0,0,0,0,0,0,0,-1,888,1177,0,0
-329,-153,0,0,0,0,0,0,0,0,0,-1,895,1177,0,0
-322,-153,0,0,0,0,0,0,0,0,0,-1,902,1177,0,0
-315,-153,0,0,0,0,0,0,0,0,0,-1,909,1177,0,0
-308,-153,0,0,0,0,0,0,0,0,0,-1,916,1177,0,0
-301,-153,0,0,0,0,0,0,0,0,0,-1,923,1177,0,0
-294,-153,0,0,0,0,0,0,0,0,0,-1,930,1177,0,0
-287,-153,0,0,0,0,0,0,0,0,0,-1,937,1177,0,0
-280,-153,0,0,0,0,0,0,0,0,0,-1,944,1177,0,0
-273,-153,0,0,0,0,0,0,0,0,0,-1,951,1177,0,0
-266,-153,0,0,0,0,0,0,0,0,0,-1,958,1177,0,0
-259,-153,0,0,0,0,0,0,0,0,0,-1,965,1177,0,0
-252,-153,0,0,0,0,0,0,0,0,0,-1,972,1177,0,0
-245,-153,0,0,0,0,0,0,0,0,0,-1,979,1177,0,0
-238,-153,0,0,0,0,0,0,0,0,0,-1,986,1177,0,0
-231,-153,0,0,0,0,0,0,0,0,0,-1,993,1177,0,0
-224,-153,0,0,0,0,0,0,0,0,0,-1,1000,1177,0,0
-217,-153,0,0,0,0,0,0,0,0,0,-1,1007,1177,0,0
-210,-153,0,0,0,0,0,0,0,0,0,-1,1014,1177,0,0
-203,-153,0,0,0,0,0,0,0,0,0,-1,1021,1177,0,0
-196,-153,0,0,0,0,0,0,0,0,0,-1,1028,1177,0,0
-189,-153,0,0,0,0,0,0,0,0,0,-1,1035,1177,0,0
-182,-153,0,0,0,0,0,0,0,0,0,-1,1042,1177,0,0
-175,-153,0,0,0,0,0,0,0,0,0,-1,1049,1177,0,0
-168,-153,0,0,0,0,0,0,0,0,0,-1,1056,1177,0,0
-161,-153,0,0,0,0,0,0,0,0,0,-1,1063,1177,0,0
-154,-153,0,0,0,0,0,0,0,0,0,-1,1070,1177,0,0
-147,-153,0,0,0,0,0,0,0,0,0,-1,1077,1177,0,0
-140,-153,0,0,0,0,0,0,0,0,0,-1,1084,1177,0,0
-133,-153,0,0,0,0,0,0,0,0,0,-1,1091,1177,0,0
-126,-153,0,0,0,0,0,0,0,0,0,-1,1098,1177,0,0
-119,-153,0,0,0,0,0,0,0,0,0,-1,1105,1177,0,0
-112,-153,0,0,0,0,0,0,0,0,0,-1,1112,1177,0,0
-105,-153,0,0,0,0,0,0,0,0,0,-1,1119,1177,0,0
-98,-153,0,0,0,0,0,0,0,0,0,-1,1126,1177,0,0
-91,-153,0,0,0,0,0,0,0,0,0,-1,1133,1177,0,0
-84,-153,0,0,0,0,0,0,0,0,0,-1,1140,1177,0,0
-77,-153,0,0,0,0,0,0,0,0,0,-1,1147,1177,0,0
-70,-153,0,0,0,0,0,0,0,0,0,-1,1154,1177,0,0
-63,-153,0,0,0,0,0,0,0,0,0,-1,1161,1177,0,0
-56,-153,0,0,0,0,0,0,0,0,0,-1,1168,1177,0,0
-49,-153,0,0,0,0,0,0,0,0,0,-1,1175,1177,0,0
-42,-153,0,0,0,0,0,0,0,0,0,-1,1182,1177,0,0
-35,-153,0,0,0,0,0,0,0,0,0,-1,1189,1177,0,0
-28,-153,0,0,0,0,0,0,0,0,0,-1,1196,1177,0,0
-21,-153,0,0,0,0,0,0,0,0,0,-1,1203,1177,0,0
-14,-153,0,0,0,0,0,0,0,0,0,-1,1210,1177,0,0
-7,-153,0,0,0,0,0,0,0,0,0,-1,1217,1177,0,0
0,-153,0,0,0,0,0,0,0,0,0,-1,1224,1177,0,0
7,-153,0,0,0,0,0,0,0,0,0,-1,1231,1177,0,0
14,-153,0,0,0,0,0,0,0,0,0,-1,1238,1177,0,0
21,-153,0,0,0,0,0,0,0,0,0,-1,1245,1177,0,0
28,-153,0,0,0,0,0,0,0,0,0,-1,1252,1177,0,0
35,-153,0,0,0,0,0,0,0,0,0,-1,1259,1177,0,0
42,-153,0,0,0,0,0,0,0,0,0,-1,1266,1177,0,0
49,-153,0,0,0,0,0,0,0,0,0,-1,1273,1177,0,0
56,-153,0,0,0,0,0,0,0,0,0,-1,1280,1177,0,0
63,-153,0,0,0,0,0,0,0,0,0,-1,1287,1177,0,0
70,-153,0,0,0,0,0,0,0,0,0,-1,1294,1177,0,0
77,-153,0,0,0,0,0,0,0,0,0,-1,1301,1177,0,0
84,-153,0,0,0,0,0,0,0,0,0,-1,1308,1177,0,0
91,-153,0,0,0,0,0,0,0,0,0,-1,1315,1177,0,0
98,-153,0,0,0,0,0,0,0,0,0,-1,1322,1177,0,0
105,-153,0,0,0,0,0,0,0,0,0,-1,1329,1177,0,0
112,-153,0,0,0,0,0,0,0,0,0,-1,1336,1177,0,0
119,-153,0,0,0,0,0,0,0,0,0,-1,1343,1177,0,0
126,-153,0,0,0,0,0,0,0,0,0,-1,1350,1177,0,0
133,-153,0,0,0,0,0,0,0,0,0,-1,1357,1177,0,0
140,-153,0,0,0,0,0,0,0,0,0,-1,1364,1177,0,0
147,-153,0,0,0,0,0,0,0,0,0,-1,1371,1177,0,0
154,-153,0,0,0,0,0,0,0,0,0,-1,1378,1177,0,0
161,-153,0,0,0,0,0,0,0,0,0,-1,1385,1177,0,0
168,-153,0,0,0,0,0,0,0,0,0,-1,1392,1177,0,0
175,-153,0,0,0,0,0,0,0,0,0,-1,1399,1177,0,0
182,-153,0,0,0,0,0,0,0,0,0,-1,1406,1177,0,0
189,-153,0,0,0,0,0,0,0,0,0,-1,1413,1177,0,0
196,-153,0,0,0,0,0,0,0,0,0,-1,1420,1177,0,0
203,-153,0,0,0,0,0,0,0,0,0,-1,1427,1177,0,0
210,-153,0,0,0,0,0,0,0,0,0,-1,1434,1177,0,0
217,-153,0,0,0,0,0,0,0,0,0,-1,1441,1177,0,0
224,-153,0,0,0,0,0,0,0,0,0,-1,1448,1177,0,0
231,-153,0,0,0,0,0,0,0,0,0,-1,1455,1177,0,0
238,-153,0,0,0,0,0,0,0,0,0,-1,1462,1177,0,0
245,-153,0,0,0,0,0,0,0,0,0,-1,1469,1177,0,0
252,-153,0,0,0,0,0,0,0,0,0,-1,1476,1177,0,0
259,-153,0,0,0,0,0,0,0,0,0,-1,1483,1177,0,0
266,-153,0,0,0,0,0,0,0,0,0,-1,1490,1177,0,0
273,-153,0,0,0,0,0,0,0,0,0,-1,1497,1177,0,0
280,-153,0,0,0,0,0,0,0,0,0,-1,1504,1177,0,0
287,-153,0,0,0,0,0,0,0,0,0,-1,1511,1177,0,0
294,-153,0,0,0,0,0,0,0,0,0,-1,1518,1177,0,0
301,-153,0,0,0,0,0,0,0,0,0,-1,1525,1177,0,0
308,-153,0,0,0,0,0,0,0,0,0,-1,1532,1177,0,0
315,-153,0,0,0,0,0,0,0,0,0,-1,1539,1177,0,0
322,-153,0,0,0,0,0,0,0,0,0,-1,1546,1177,0,0
329,-153,0,0,0,0,0,0,0,0,0,-1,1553,1177,0,0
336,-153,0,0,0,0,0,0,0,0,0,-1,1560,1177,0,0
343,-153,0,0,0,0,0,0,0,0,0,-1,1567,1177,0,0
350,-153,0,0,0,0,0,0,0,0,0,-1,1574,1177,0,0
357,-153,0,0,0,0,0,0,0,0,0,-1,1581,1177,0,0
364,-153,0,0,0,0,0,0,0,0,0,-1,1588,1177,0,0
371,-153,0,0,0,0,0,0,0,0,0,-1,1595,1177,0,0
378,-153,0,0,0,0,0,0,0,0,0,-1,1602,1177,0,0
385,-153,0,0,0,0,0,0,0,0,0,-1,1609,1177,0,0
392,-153,0,0,0,0,0,0,0,0,0,-1,1616,1177,0,0
399,-153,0,0,0,0,0,0,0,0,0,-1,1623,1177,0,0
406,-153,0,0,0,0,0,0,0,0,0,-1,1630,1177,0,0
413,-153,0,0,0,0,0,0,0,0,0,-1,1637,1177,0,0
420,-153,0,0,0,0,0,0,0,0,0,-1,1644,1177,0,0
427,-153,0,0,0,0,0,0,0,0,0,-1,1651,1177,0,0
434,-153,0,0,0,0,0,0,0,0,0,-1,1658,1177,0,0
441,-153,0,0,0,0,0,0,0,0,0,-1,1665,1177,0,0
448,-153,0,0,0,0,0,0,0,0,0,-1,1672,1177,0,0
455,-153,0,0,0,0,0,0,0,0,0,-1,1679,1177,0,0
462,-153,0,0,0,0,0,0,0,0,0,-1,1686,1177,0,0
469,-153,0,0,0,0,0,0,0,0,0,-1,1693,1177,0,0
476,-153,0,0,0,0,0,0,0,0,0,-1,1700,1177,0,0
483,-153,0,0,0,0,0,0,0,0,0,-1,1707,1177,0,0
490,-153,0,0,0,0,0,0,0,0,0,-1,1714,1177,0,0
497,-153,0,0,0,0,0,0,0,0,0,-1,1721,1177,0,0
504,-153,0,0,0,0,0,0,0,0,0,-1,1728,1177,0,0
511,-153,0,0,0,0,0,0,0,0,0,-1,1735,1177,0,0
518,-153,0,0,0,0,0,0,0,0,0,-1,1742,1177,0,0
525,-153,0,0,0,0,0,0,0,0,0,-1,1749,1177,0,0
532,-153,0,0,0,0,0,0,0,0,0,-1,1756,1177,0,0
539,-153,0,0,0,0,0,0,0,0,0,-1,1763,1177,0,0
546,-153,0,0,0,0,0,0,0,0,0,-1,1770,1177,0,0
553,-153,0,0,0,0,0,0,0,0,0,-1,1777,1177,0,0
560,-153,0,0,0,0,0,0,0,0,0,-1,1784,1177,0,0
567,-153,0,0,0,0,0,0,0,0,0,-1,1791,1177,0,0
574,-153,0,0,0,0,0,0,0,0,0,-1,1798,1177,0,0
581,-153,0,0,0,0,0,0,0,0,0,-1,1805,1177,0,0
588,-153,0,0,0,0,0,0,0,0,0,-1,1812,1177,0,0
595,-153,0,0,0,0,0,0,0,0,0,-1,1819,1177,0,0
602,-153,0,0,0,0,0,0,0,0,0,-1,1826,1177,0,0
609,-153,0,0,0,0,0,0,0,0,0,-1,1833,1177,0,0
616,-153,0,0,0,0,0,0,0,0,0,-1,1840,1177,0,0
623,-153,0,0,0,0,0,0,0,0,0,-1,1847,1177,0,0
630,-153,0,0,0,0,0,0,0,0,0,-1,1854,1177,0,0
637,-153,22.5288,2.7478,0.00270923,-0.00433154,0.00214586,0.00331169,-0.004934,0.273707,0.00479127,0.0404291,1861,1177,22.5288,-2.74783
644,-153,22.5748,2.66931,0.00145668,-0.00311367,0.0015933,0.0019573,-0.00361428,0.304434,0.00326383,0.0361407,1868,1177,22.5749,-2.66935
651,-153,22.5823,2.59778,0.000982218,-0.00194733,0.000999842,0.00129093,-0.00225604,0.299473,0.00207296,0.0302218,1875,1177,22.5822,-2.59782
658,-153,22.6097,2.77405,0.000617057,-0.00127247,0.000752408,0.000880058,-0.00153547,0.33627,0.00141162,0.0359006,1882,1177,22.6098,-2.7741
665,-153,22.5851,2.99683,-0.00065152,-0.00112458,0.00125826,0.000392246,-0.00216834,0.692492,0.0015925,0.0386131,1889,1177,22.5851,-2.99682
672,-153,22.6016,2.86279,-0.0021138,-0.00120051,0.00189834,0.000295339,-0.00360965,0.90343,0.00251068,0.0382818,1896,1177,22.6015,-2.86273
679,-153,22.5753,2.69885,-0.00353577,-0.00140002,0.0025742,0.000319016,-0.00525481,0.982013,0.00361424,0.0276602,1903,1177,22.5753,-2.69884
686,-153,22.5862,2.70203,-0.00478642,-0.00164841,0.00315569,0.000306809,-0.00674164,1.0161,0.00460011,0.017497,1910,1177,22.5861,-2.70199
693,-153,22.6859,2.69727,-0.00576626,-0.00165809,0.00355379,0.000392541,-0.00781689,1.04744,0.00534691,0.0286676,1917,1177,22.6859,-2.69721
700,-153,22.322,3.60632,0,0,0,0,0,0,0,-1,1924,1177,22.322,-3.60635
707,-153,21.5126,4.15112,-0.0072836,-0.00187497,0.00435424,0.000546411,-0.00970497,1.06328,0.0066596,0.0477168,1931,1177,21.5126,-4.15109
714,-153,20.8901,4.64319,-0.00756041,-0.00190123,0.00440919,0.000508215,-0.00996985,1.07067,0.00682229,0.0292443,1938,1177,20.8902,-4.64321
721,-153,20.8862,4.52966,-0.00756532,-0.00176944,0.0044159,0.000614502,-0.00994926,1.07578,0.00684687,0.0243136,1945,1177,20.8863,-4.52963
728,-153,20.9087,4.41541,-0.00716578,-0.00162725,0.00436807,0.000775416,-0.00956845,1.06791,0.00665252,0.0295036,1952,1177,20.9087,-4.41536
735,-153,20.7029,4.38147,-0.00611011,-0.00123197,0.00399532,0.00100994,-0.00835202,1.05944,0.00593338,0.0150731,1959,1177,20.7029,-4.38143
742,-153,20.7062,4.2594,-0.00402006,-0.00102176,0.00338707,0.0011831,-0.00622493,0.993743,0.00459537,0.0143619,1966,1177,20.7061,-4.25937
749,-153,20.7247,4.13599,-0.00151749,-0.000675536,0.002687,0.00162327,-0.00381629,0.863102,0.00322449,0.015181,1973,1177,20.7248,-4.13594
756,-153,20.7507,3.98987,0.00166997,-0.00044808,0.00203883,0.00290842,-0.00168653,0.545864,0.00268397,0.00993559,1980,1177,20.7507,-3.98983
763,-153,20.7255,3.85681,0.00515697,-0.000645324,0.0017173,0.00562714,-0.0011155,0.267236,0.00417325,0.00985606,1987,1177,20.7255,-3.85684
770,-153,20.7184,3.72131,0.00868863,-0.00146954,0.00202396,0.00907705,-0.00185795,0.189601,0.00675638,0.00976128,1994,1177,20.7184,-3.72136
777,-153,20.7156,3.61133,0.0130747,-0.00296964,0.00264418,0.0134992,-0.00339418,0.159198,0.0103187,0.0201012,2001,1177,20.7156,-3.61131
784,-153,20.791,3.65149,0.0191233,-0.00549322,0.00356847,0.0196301,-0.00600008,0.141094,0.0154794,0.043109,2008,1177,20.791,-3.65149
791,-153,21.4154,3.45605,0.0276436,-0.00957118,0.00494737,0.0282901,-0.0102177,0.129935,0.0230342,0.0454304,2015,1177,21.4154,-3.4561
798,-153,21.9005,3.33044,0,0,0,0,0,0,0,-1,2022,1177,21.9005,-3.33041
805,-153,22.4204,4.66809,0,0,0,0,0,0,0,-1,2029,1177,22.4204,-4.66815
812,-153,0,0,0,0,0,0,0,0,0,-1,2036,1177,0,0
-700,-160,0,0,0,0,0,0,0,0,0,-1,524,1184,0,0
-693,-160,0,0,0,0,0,0,0,0,0,-1,531,1184,0,0
-686,-160,-9.39148,3.01538,-0.13188,0.0303093,-0.00485554,0.0304545,-0.132026,-1.54089,0.0997308,0.049926,538,1184,-9.39146,-3.01541
-679,-160,-10.1655,2.43323,-0.111253,0.0260732,-0.00730388,0.0264605,-0.111641,-1.51781,0.0846376,0.0448679,545,1184,-10.1655,-2.43319
-672,-160,-11.0551,1.82495,-0.0917,0.0217797,-0.00816016,0.0223635,-0.0922838,-1.49938,0.070175,0.0427563,552,1184,-11.0551,-1.82493
-665,-160,-11.785,1.33557,-0.073772,0.0177146,-0.0080938,0.0184252,-0.0744826,-1.48323,0.0568018,0.0493635,559,1184,-11.785,-1.33552
-658,-160,-11.7777,1.27234,0,0,0,0,0,0,0,-1,566,1184,-11.7777,-1.27232
-651,-160,-11.8971,1.17212,0,0,0,0,0,0,0,-1,573,1184,-11.8971,-1.17212
-644,-160,-12.5488,1.14478,-0.0322992,0.00795852,-0.00551128,0.00869937,-0.0330401,-1.43717,0.0254275,0.0373648,580,1184,-12.5488,-1.14476
-637,-160,-12.7917,1.25977,-0.0228739,0.00574815,-0.00464296,0.00648247,-0.0236082,-1.41394,0.0182867,0.0138776,587,1184,-12.7917,-1.25982
-630,-160,-12.8247,1.41089,-0.0150786,0.00381462,-0.0039758,0.00461718,-0.0158811,-1.37161,0.012416,0.00877301,594,1184,-12.8247,-1.41092
-623,-160,-12.8483,1.56042,-0.00856273,0.00121241,-0.00442416,0.00291738,-0.0102677,-1.20296,0.00799698,0.0112089,601,1184,-12.8483,-1.56038
-616,-160,-12.8489,1.71692,-0.00545578,8.40213e-05,-0.00408993,0.00225375,-0.0076255,-1.08304,0.00597824,0.00998018,608,1184,-12.8489,-1.71688
-609,-160,-12.8436,1.89636,-0.00620925,-0.000806009,-0.0048207,0.00201848,-0.00903374,-1.0408,0.00679599,0.0128802,615,1184,-12.8436,-1.89634
-602,-160,-12.8374,2.08887,-0.00810341,-0.00138963,-0.00596092,0.00209462,-0.0115877,-1.04184,0.00850969,0.0200195,622,1184,-12.8374,-2.08882
-595,-160,-12.8188,2.29468,-0.00969235,-0.00169324,-0.00695948,0.00233409,-0.0137197,-1.0462,0.0100156,0.0244519,629,1184,-12.8188,-2.29471
-588,-160,-12.9288,2.40076,-0.0109435,-0.00195144,-0.00772888,0.00249401,-0.0153889,-1.04883,0.0111837,0.0232388,636,1184,-12.9288,-2.40078
-581,-160,-12.8307,2.5321,-0.0116358,-0.00217653,-0.00819176,0.00255291,-0.0163653,-1.0472,0.0118532,0.0184184,643,1184,-12.8307,-2.5321
-574,-160,-13.129,1.70471,-0.0118433,-0.00225047,-0.00837077,0.00260067,-0.0166944,-1.04556,0.0120901,0.0461794,650,1184,-13.129,-1.70476
-567,-160,-15.219,1.32068,0,0,0,0,0,0,0,-1,657,1184,-15.219,-1.32067
-560,-160,-15.0634,1.12488,-0.0110228,-0.00201186,-0.00805776,0.0027145,-0.0157491,-1.04032,0.0115114,0.038741,664,1184,-15.0634,-1.1249
-553,-160,-15.0174,1.04858,-0.00939648,-0.00167201,-0.00726226,0.00269116,-0.0137597,-1.02979,0.0101893,0.0393486,671,1184,-15.0174,-1.04857
-546,-160,-15.0732,1.02356,-0.00648449,-0.00119314,-0.00598365,0.00270364,-0.0103813,-0.993552,0.00797628,0.0414904,678,1184,-15.0733,-1.0236
-539,-160,-15.133,0.985718,-0.00205392,-0.00059266,-0.00423188,0.00297119,-0.00561778,-0.87088,0.00503671,0.0429395,685,1184,-15.133,-0.985772
-532,-160,-14.9982,0.944092,0.00436697,8.05762e-05,-0.00207531,0.00520709,-0.00075955,-0.384654,0.00375031,0.0436642,692,1184,-14.9981,-0.944053
-525,-160,-15.0124,0.987183,0.0124544,0.000420471,-0.000360583,0.0124652,0.000409677,-0.0299282,0.00817697,0.045221,699,1184,-15.0124,-0.987134
-518,-160,-14.9561,0.971069,0.0196155,0.000660945,-0.00191153,0.0198063,0.000470092,-0.0995132,0.0130503,0.0451363,706,1184,-14.9561,-0.971015
-511,-160,0,0,0,0,0,0,0,0,0,-1,713,1184,0,0
-504,-160,0,0,0,0,0,0,0,0,0,-1,720,1184,0,0
-497,-160,0,0,0,0,0,0,0,0,0,-1,727,1184,0,0
-490,-160,0,0,0,0,0,0,0,0,0,-1,734,1184,0,0
-483,-160,0,0,0,0,0,0,0,0,0,-1,741,1184,0,0
-476,-160,0,0,0,0,0,0,0,0,0,-1,748,1184,0,0
-469,-160,0,0,0,0,0,0,0,0,0,-1,755,1184,0,0
-462,-160,0,0,0,0,0,0,0,0,0,-1,762,1184,0,0
-455,-160,0,0,0,0,0,0,0,0,0,-1,769,1184,0,0
-448,-160,0,0,0,0,0,0,0,0,0,-1,776,1184,0,0
-441,-160,0,0,0,0,0,0,0,0,0,-1,783,1184,0,0
-434,-160,0,0,0,0,0,0,0,0,0,-1,790,1184,0,0
-427,-160,0,0,0,0,0,0,0,0,0,-1,797,1184,0,0
-420,-160,0,0,0,0,0,0,0,0,0,-1,804,1184,0,0
-413,-160,0,0,0,0,0,0,0,0,0,-1,811,1184,0,0
-406,-160,0,0,0,0,0,0,0,0,0,-1,818,1184,0,0
-399,-160,0,0,0,0,0,0,0,0,0,-1,825,1184,0,0
-392,-160,0,0,0,0,0,0,0,0,0,-1,832,1184,0,0
-385,-160,0,0,0,0,0,0,0,0,0,-1,839,1184,0,0
-378,-160,0,0,0,0,0,0,0,0,0,-1,846,1184,0,0
-371,-160,0,0,0,0,0,0,0,0,0,-1,853,1184,0,0
-364,-160,0,0,0,0,0,0,0,0,0,-1,860,1184,0,0
-357,-160,0,0,0,0,0,0,0,0,0,-1,867,1184,0,0
-350,-160,0,0,0,0,0,0,0,0,0,-1,874,1184,0,0
-343,-160,0,0,0,0,0,0,0,0,0,-1,881,1184,0,0
-336,-160,0,0,0,0,0,0,0,0,0,-1,888,1184,0,0
-329,-160,0,0,0,0,0,0,0,0,0,-1,895,1184,0,0
-322,-160,0,0,0,0,0,0,0,0,0,-1,902,1184,0,0
-315,-160,0,0,0,0,0,0,0,0,0,-1,909,1184,0,0
-308,-160,0,0,0,0,0,0,0,0,0,-1,916,1184,0,0
-301,-160,0,0,0,0,0,0,0,0,0,-1,923,1184,0,0
-294,-160,0,0,0,0,0,0,0,0,0,-1,930,1184,0,0
-287,-160,0,0,0,0,0,0,0,0,0,-1,937,1184,0,0
-280,-160,0,0,0,0,0,0,0,0,0,-1,944,1184,0,0
-273,-160,0,0,0,0,0,0,0,0,0,-1,951,1184,0,0
-266,-160,0,0,0,0,0,0,0,0,0,-1,958,1184,0,0
-259,-160,0,0,0,0,0,0,0,0,0,-1,965,1184,0,0
-252,-160,0,0,0,0,0,0,0,0,0,-1,972,1184,0,0
-245,-160,0,0,0,0,0,0,0,0,0,-1,979,1184,0,0
-238,-160,0,0,0,0,0,0,0,0,0,-1,986,1184,0,0
-231,-160,0,0,0,0,0,0,0,0,0,-1,993,1184,0,0
-224,-160,0,0,0,0,0,0,0,0,0,-1,1000,1184,0,0
-217,-160,0,0,0,0,0,0,0,0,0,-1,1007,1184,0,0
-210,-160,0,0,0,0,0,0,0,0,0,-1,1014,1184,0,0
-203,-160,0,0,0,0,0,0,0,0,0,-1,1021,1184,0,0
-196,-160,0,0,0,0,0,0,0,0,0,-1,1028,1184,0,0
-189,-160,0,0,0,0,0,0,0,0,0,-1,1035,1184,0,0
-182,-160,0,0,0,0,0,0,0,0,0,-1,1042,1184,0,0
-175,-160,0,0,0,0,0,0,0,0,0,-1,1049,1184,0,0
-168,-160,0,0,0,0,0,0,0,0,0,-1,1056,1184,0,0
-161,-160,0,0,0,0,0,0,0,0,0,-1,1063,1184,0,0
-154,-160,0,0,0,0,0,0,0,0,0,-1,1070,1184,0,0
-147,-160,0,0,0,0,0,0,0,0,0,-1,1077,1184,0,0
-140,-160,0,0,0,0,0,0,0,0,0,-1,1084,1184,0,0
-133,-160,0,0,0,0,0,0,0,0,0,-1,1091,1184,0,0
-126,-160,0,0,0,0,0,0,0,0,0,-1,1098,1184,0,0
-119,-160,0,0,0,0,0,0,0,0,0,-1,1105,1184,0,0
-112,-160,0,0,0,0,0,0,0,0,0,-1,1112,1184,0,0
-105,-160,0,0,0,0,0,0,0,0,0,-1,1119,1184,0,0
-98,-160,0,0,0,0,0,0,0,0,0,-1,1126,1184,0,0
-91,-160,0,0,0,0,0,0,0,0,0,-1,1133,1184,0,0
-84,-160,0,0,0,0,0,0,0,0,0,-1,1140,1184,0,0
-77,-160,0,0,0,0,0,0,0,0,0,-1,1147,1184,0,0
-70,-160,0,0,0,0,0,0,0,0,0,-1,1154,1184,0,0
-63,-160,0,0,0,0,0,0,0,0,0,-1,1161,1184,0,0
-56,-160,0,0,0,0,0,0,0,0,0,-1,1168,1184,0,0
-49,-160,0,0,0,0,0,0,0,0,0,-1,1175,1184,0,0
-42,-160,0,0,0,0,0,0,0,0,0,-1,1182,1184,0,0
-35,-160,0,0,0,0,0,0,0,0,0,-1,1189,1184,0,0
-28,-160,0,0,0,0,0,0,0,0,0,-1,1196,1184,0,0
-21,-160,0,0,0,0,0,0,0,0,0,-1,1203,1184,0,0
-14,-160,0,0,0,0,0,0,0,0,0,-1,1210,1184,0,0
-7,-160,0,0,0,0,0,0,0,0,0,-1,1217,1184,0,0
0,-160,0,0,0,0,0,0,0,0,0,-1,1224,1184,0,0
7,-160,0,0,0,0,0,0,0,0,0,-1,1231,1184,0,0
14,-160,0,0,0,0,0,0,0,0,0,-1,1238,1184,0,0
21,-160,0,0,0,0,0,0,0,0,0,-1,1245,1184,0,0
28,-160,0,0,0,0,0,0,0,0,0,-1,1252,1184,0,0
35,-160,0,0,0,0,0,0,0,0,0,-1,1259,1184,0,0
42,-160,0,0,0,0,0,0,0,0,0,-1,1266,1184,0,0
49,-160,0,0,0,0,0,0,0,0,0,-1,1273,1184,0,0
56,-160,0,0,0,0,0,0,0,0,0,-1,1280,1184,0,0
63,-160,0,0,0,0,0,0,0,0,0,-1,1287,1184,0,0
70,-160,0,0,0,0,0,0,0,0,0,-1,1294,1184,0,0
77,-160,0,0,0,0,0,0,0,0,0,-1,1301,1184,0,0
84,-160,0,0,0,0,0,0,0,0,0,-1,1308,1184,0,0
91,-160,0,0,0,0,0,0,0,0,0,-1,1315,1184,0,0
98,-160,0,0,0,0,0,0,0,0,0,-1,1322,1184,0,0
105,-160,0,0,0,0,0,0,0,0,0,-1,1329,1184,0,0
112,-160,0,0,0,0,0,0,0,0,0,-1,1336,1184,0,0
119,-160,0,0,0,0,0,0,0,0,0,-1,1343,1184,0,0
126,-160,0,0,0,0,0,0,0,0,0,-1,1350,1184,0,0
133,-160,0,0,0,0,0,0,0,0,0,-1,1357,1184,0,0
140,-160,0,0,0,0,0,0,0,0,0,-1,1364,1184,0,0
147,-160,0,0,0,0,0,0,0,0,0,-1,1371,1184,0,0
154,-160,0,0,0,0,0,0,0,0,0,-1,1378,1184,0,0
161,-160,0,0,0,0,0,0,0,0,0,-1,1385,1184,0,0
168,-160,0,0,0,0,0,0,0,0,0,-1,1392,1184,0,0
175,-160,0,0,0,0,0,0,0,0,0,-1,1399,1184,0,0
182,-160,0,0,0,0,0,0,0,0,0,-1,1406,1184,0,0
189,-160,0,0,0,0,0,0,0,0,0,-1,1413,1184,0,0
196,-160,0,0,0,0,0,0,0,0,0,-1,1420,1184,0,0
203,-160,0,0,0,0,0,0,0,0,0,-1,1427,1184,0,0
210,-160,0,0,0,0,0,0,0,0,0,-1,1434,1184,0,0
217,-160,0,0,0,0,0,0,0,0,0,-1,1441,1184,0,0
224,-160,0,0,0,0,0,0,0,0,0,-1,1448,1184,0,0
231,-160,0,0,0,0,0,0,0,0,0,-1,1455,1184,0,0
238,-160,0,0,0,0,0,0,0,0,0,-1,1462,1184,0,0
245,-160,0,0,0,0,0,0,0,0,0,-1,1469,1184,0,0
252,-160,0,0,0,0,0,0,0,0,0,-1,1476,1184,0,0
259,-160,0,0,0,0,0,0,0,0,0,-1,1483,1184,0,0
266,-160,0,0,0,0,0,0,0,0,0,-1,1490,1184,0,0
273,-160,0,0,0,0,0,0,0,0,0,-1,1497,1184,0,0
280,-160,0,0,0,0,0,0,0,0,0,-1,1504,1184,0,0
287,-160,0,0,0,0,0,0,0,0,0,-1,1511,1184,0,0
294,-160,0,0,0,0,0,0,0,0,0,-1,1518,1184,0,0
301,-160,0,0,0,0,0,0,0,0,0,-1,1525,1184,0,0
308,-160,0,0,0,0,0,0,0,0,0,-1,1532,1184,0,0
315,-160,0,0,0,0,0,0,0,0,0,-1,1539,1184,0,0
322,-160,0,0,0,0,0,0,0,0,0,-1,1546,1184,0,0
329,-160,0,0,0,0,0,0,0,0,0,-1,1553,1184,0,0
336,-160,0,0,0,0,0,0,0,0,0,-1,1560,1184,0,0
343,-160,0,0,0,0,0,0,0,0,0,-1,1567,1184,0,0
350,-160,0,0,0,0,0,0,0,0,0,-1,1574,1184,0,0
357,-160,0,0,0,0,0,0,0,0,0,-1,1581,1184,0,0
364,-160,0,0,0,0,0,0,0,0,0,-1,1588,1184,0,0
371,-160,0,0,0,0,0,0,0,0,0,-1,1595,1184,0,0
378,-160,0,0,0,0,0,0,0,0,0,-1,1602,1184,0,0
385,-160,0,0,0,0,0,0,0,0,0,-1,1609,1184,0,0
392,-160,0,0,0,0,0,0,0,0,0,-1,1616,1184,0,0
399,-160,0,0,0,0,0,0,0,0,0,-1,1623,1184,0,0
406,-160,0,0,0,0,0,0,0,0,0,-1,1630,1184,0,0
413,-160,0,0,0,0,0,0,0,0,0,-1,1637,1184,0,0
420,-160,0,0,0,0,0,0,0,0,0,-1,1644,1184,0,0
427,-160,0,0,0,0,0,0,0,0,0,-1,1651,1184,0,0
434,-160,0,0,0,0,0,0,0,0,0,-1,1658,1184,0,0
441,-160,0,0,0,0,0,0,0,0,0,-1,1665,1184,0,0
448,-160,0,0,0,0,0,0,0,0,0,-1,1672,1184,0,0
455,-160,0,0,0,0,0,0,0,0,0,-1,1679,1184,0,0
462,-160,0,0,0,0,0,0,0,0,0,-1,1686,1184,0,0
469,-160,0,0,0,0,0,0,0,0,0,-1,1693,1184,0,0
476,-160,0,0,0,0,0,0,0,0,0,-1,1700,1184,0,0
483,-160,0,0,0,0,0,0,0,0,0,-1,1707,1184,0,0
490,-160,0,0,0,0,0,0,0,0,0,-1,1714,1184,0,0
497,-160,0,0,0,0,0,0,0,0,0,-1,1721,1184,0,0
504,-160,0,0,0,0,0,0,0,0,0,-1,1728,1184,0,0
511,-160,0,0,0,0,0,0,0,0,0,-1,1735,1184,0,0
518,-160,0,0,0,0,0,0,0,0,0,-1,1742,1184,0,0
525,-160,0,0,0,0,0,0,0,0,0,-1,1749,1184,0,0
532,-160,0,0,0,0,0,0,0,0,0,-1,1756,1184,0,0
539,-160,0,0,0,0,0,0,0,0,0,-1,1763,1184,0,0
546,-160,0,0,0,0,0,0,0,0,0,-1,1770,1184,0,0
553,-160,0,0,0,0,0,0,0,0,0,-1,1777,1184,0,0
560,-160,0,0,0,0,0,0,0,0,0,-1,1784,1184,0,0
567,-160,0,0,0,0,0,0,0,0,0,-1,1791,1184,0,0
574,-160,0,0,0,0,0,0,0,0,0,-1,1798,1184,0,0
581,-160,0,0,0,0,0,0,0,0,0,-1,1805,1184,0,0
588,-160,0,0,0,0,0,0,0,0,0,-1,1812,1184,0,0
595,-160,0,0,0,0,0,0,0,0,0,-1,1819,1184,0,0
602,-160,0,0,0,0,0,0,0,0,0,-1,1826,1184,0,0
609,-160,0,0,0,0,0,0,0,0,0,-1,1833,1184,0,0
616,-160,0,0,0,0,0,0,0,0,0,-1,1840,1184,0,0
623,-160,0,0,0,0,0,0,0,0,0,-1,1847,1184,0,0
630,-160,0,0,0,0,0,0,0,0,0,-1,1854,1184,0,0
637,-160,22.3071,2.9563,0,0,0,0,0,0,0,-1,1861,1184,22.3071,-2.95626
644,-160,22.5013,2.73376,0.00123627,-0.00286919,0.00163864,0.0018101,-0.00344303,0.336844,0.00308135,0.0429005,1868,1184,22.5013,-2.73373
651,-160,22.5356,2.64636,0.00097207,-0.00179877,0.000896593,0.00123688,-0.00206358,0.287189,0.00192535,0.0386107,1875,1184,22.5357,-2.64632
658,-160,22.5518,2.75024,0.000598286,-0.00126554,0.000640794,0.000797337,-0.00146459,0.301182,0.00132473,0.038952,1882,1184,22.5518,-2.75018
665,-160,22.6345,2.88269,-0.000508061,-0.00120195,0.00103137,0.000233155,-0.00194316,0.623149,0.00137974,0.0374268,1889,1184,22.6345,-2.8827
672,-160,22.5519,2.7887,-0.00172729,-0.00131599,0.00151356,5.82484e-06,-0.0030491,0.852921,0.00203468,0.0341682,1896,1184,22.5519,-2.78872
679,-160,22.5575,2.69934,-0.00295217,-0.00152203,0.00207963,-3.79663e-05,-0.00443623,0.950989,0.00294492,0.0263799,1903,1184,22.5575,-2.69938
686,-160,22.6237,2.71704,-0.00402288,-0.00175752,0.00255568,-9.4763e-05,-0.00568564,0.99399,0.00375924,0.0178271,1910,1184,22.6236,-2.71707
693,-160,22.6549,2.70435,-0.00487213,-0.00173962,0.00287759,-2.96477e-05,-0.0065821,1.03462,0.00437822,0.0480596,1917,1184,22.6549,-2.7044
700,-160,21.684,4.45447,0,0,0,0,0,0,0,-1,1924,1184,21.6839,-4.45446
707,-160,20.7926,5.25476,0,0,0,0,0,0,0,-1,1931,1184,20.7926,-5.25473
714,-160,20.8096,4.79224,-0.00648498,-0.00189263,0.00364548,0.000119552,-0.00849716,1.06644,0.00570504,0.0377291,1938,1184,20.8096,-4.7923
721,-160,20.7723,4.47327,-0.0065059,-0.00174151,0.00366344,0.000246149,-0.00849356,1.07368,0.00574618,0.0182202,1945,1184,20.7723,-4.47321
728,-160,20.7404,4.43726,-0.00615274,-0.00159279,0.00367013,0.000447897,-0.00819343,1.06334,0.00561754,0.0161137,1952,1184,20.7404,-4.43721
735,-160,20.6188,4.35413,-0.00514594,-0.00109502,0.0033599,0.000802712,-0.00704367,1.05665,0.00498494,0.0129561,1959,1184,20.6187,-4.35416
742,-160,20.6144,4.21387,-0.00308304,-0.000776891,0.00283219,0.00112796,-0.00498789,0.978718,0.0037581,0.0157826,1966,1184,20.6143,-4.21391
749,-160,20.6006,4.09167,-0.000601985,-0.000362525,0.00226047,0.00178138,-0.00274589,0.811857,0.00263352,0.0166931,1973,1184,20.6005,-4.09168
756,-160,20.6019,3.97351,0.00251327,-5.48662e-05,0.00178112,0.00342493,-0.000966522,0.473079,0.00266455,0.0103448,1980,1184,20.6019,-3.97354
763,-160,20.5912,3.84351,0.00590893,-0.000153798,0.00167342,0.00634016,-0.000585019,0.252202,0.00443466,0.0112137,1987,1184,20.5911,-3.84351
770,-160,20.5602,3.68835,0.00953454,-0.000825727,0.00213282,0.00995644,-0.00124762,0.195289,0.00709018,0.0175634,1994,1184,20.5602,-3.68838
777,-160,20.5106,3.63025,0.0142089,-0.00211481,0.00285389,0.0146935,-0.00259938,0.168186,0.0107672,0.0305208,2001,1184,20.5106,-3.63027
784,-160,20.4703,3.63391,0.0205813,-0.00439198,0.00401105,0.0212097,-0.0050204,0.155408,0.0160767,0.0428429,2008,1184,20.4704,-3.63389
791,-160,20.4463,3.61926,0,0,0,0,0,0,0,-1,2015,1184,20.4463,-3.61922
798,-160,21.6576,5.2793,0,0,0,0,0,0,0,-1,2022,1184,21.6576,-5.27927
805,-160,22.4849,4.58215,0,0,0,0,0,0,0,-1,2029,1184,22.4848,-4.58215
812,-160,0,0,0,0,0,0,0,0,0,-1,2036,1184,0,0
-700,-167,0,0,0,0,0,0,0,0,0,-1,524,1191,0,0
-693,-167,0,0,0,0,0,0,0,0,0,-1,531,1191,0,0
-686,-167,-9.6864,2.9375,-0.12535,0.0426842,-0.0100984,0.0432889,-0.125955,-1.51099,0.101524,0.0486133,538,1191,-9.68638,-2.93745
-679,-167,-10.5455,2.38513,-0.104551,0.0366265,-0.0110281,0.0374828,-0.105407,-1.49331,0.085548,0.0448261,545,1191,-10.5456,-2.38516
-672,-167,-11.4191,1.83154,-0.0855072,0.0305135,-0.0107271,0.031497,-0.0864907,-1.47937,0.0705436,0.0471748,552,1191,-11.4191,-1.83154
-665,-167,-11.6526,1.37964,-0.0684085,0.024747,-0.00980249,0.0257673,-0.0694288,-1.46708,0.0568558,0.0499277,559,1191,-11.6526,-1.37961
-658,-167,-11.8057,1.44104,-0.0533653,0.0195037,-0.00857177,0.0204984,-0.05436,-1.45526,0.0446691,0.0495469,566,1191,-11.8057,-1.441
-651,-167,-11.9255,1.31677,-0.040465,0.0148919,-0.00722132,0.0158184,-0.0413916,-1.44319,0.0341124,0.0484639,573,1191,-11.9255,-1.31673
-644,-167,-12.3333,1.14355,-0.0296938,0.0109677,-0.00587289,0.0117989,-0.0305251,-1.43019,0.0252204,0.0381398,580,1191,-12.3333,-1.1435
-637,-167,-12.5888,1.2168,-0.0210213,0.00783551,-0.00479885,0.00861262,-0.0217984,-1.41025,0.0180996,0.0156456,587,1191,-12.5888,-1.21686
-630,-167,-12.6492,1.3916,-0.0137644,0.00529041,-0.00397707,0.00608717,-0.0145612,-1.37307,0.0122514,0.00852088,594,1191,-12.6492,-1.39165
-623,-167,-12.6593,1.54333,-0.00777673,0.00201483,-0.00421265,0.00357777,-0.00933968,-1.21553,0.00770123,0.0107656,601,1191,-12.6593,-1.54332
-616,-167,-12.6484,1.7196,-0.00502229,0.000265929,-0.00386504,0.00230475,-0.00706111,-1.08539,0.00563502,0.0142793,608,1191,-12.6484,-1.71957
-609,-167,-12.6755,1.90344,-0.00613542,-0.000688883,-0.00480416,0.00211018,-0.00893449,-1.04324,0.00677024,0.0138728,615,1191,-12.6755,-1.90341
-602,-167,-12.6875,2.04944,-0.00820572,-0.00133068,-0.00602799,0.00217106,-0.0117075,-1.04453,0.00862027,0.0145451,622,1191,-12.6875,-2.04945
-595,-167,-12.6886,2.23401,-0.00995513,-0.00157157,-0.00707779,0.00246259,-0.0139893,-1.05275,0.0102462,0.0206892,629,1191,-12.6886,-2.23405
-588,-167,-12.7092,2.43713,-0.0113826,-0.00180636,-0.00787054,0.0026181,-0.015807,-1.05867,0.0115104,0.0198851,636,1191,-12.7092,-2.43711
-581,-167,-12.6871,2.53137,-0.0122278,-0.00200145,-0.00836535,0.00268965,-0.0169189,-1.05972,0.0122744,0.0208217,643,1191,-12.6871,-2.53136
-574,-167,-12.7092,1.93848,0,0,0,0,0,0,0,-1,650,1191,-12.7092,-1.93846
-567,-167,-13.7925,1.28943,-0.012449,-0.00198044,-0.00852412,0.0027882,-0.0172176,-1.06074,0.0125118,0.0433225,657,1191,-13.7925,-1.28941
-560,-167,-14.9775,0.8927,-0.0117656,-0.00180503,-0.00823316,0.00283696,-0.0164076,-1.05741,0.0119964,0.0400983,664,1191,-14.9775,-0.892665
-553,-167,-14.9378,0.885376,-0.0102147,-0.00147451,-0.0074428,0.00278631,-0.0144756,-1.05086,0.0107008,0.0393339,671,1191,-14.9378,-0.885417
-546,-167,-14.9555,0.885498,-0.0074081,-0.00103519,-0.00619764,0.00274716,-0.0111904,-1.02285,0.00852486,0.037011,678,1191,-14.9555,-0.885452
-539,-167,-14.9818,0.930054,-0.0031288,-0.000520438,-0.00452194,0.00288164,-0.00653088,-0.925794,0.00556879,0.0404677,685,1191,-14.9818,-0.930068
-532,-167,-15.0012,0.848267,0.00307573,-1.05207e-05,-0.00248281,0.00445589,-0.00139068,-0.50735,0.00352676,0.0438244,692,1191,-15.0012,-0.848213
-525,-167,-14.9506,0.838257,0.0111273,0.00016692,-0.000739346,0.011177,0.000117271,-0.0670513,0.00741252,0.0445584,699,1191,-14.9506,-0.838295
-518,-167,-14.8875,0.871582,0.0188596,-6.75995e-05,-0.00196224,0.0190609,-0.000268891,-0.102225,0.0127978,0.0439845,706,1191,-14.8874,-0.871564
-511,-167,0,0,0,0,0,0,0,0,0,-1,713,1191,0,0
-504,-167,0,0,0,0,0,0,0,0,0,-1,720,1191,0,0
-497,-167,0,0,0,0,0,0,0,0,0,-1,727,1191,0,0
-490,-167,0,0,0,0,0,0,0,0,0,-1,734,1191,0,0
-483,-167,0,0,0,0,0,0,0,0,0,-1,741,1191,0,0
-476,-167,0,0,0,0,0,0,0,0,0,-1,748,1191,0,0
-469,-167,0,0,0,0,0,0,0,0,0,-1,755,1191,0,0
-462,-167,0,0,0,0,0,0,0,0,0,-1,762,1191,0,0
-455,-167,0,0,0,0,0,0,0,0,0,-1,769,1191,0,0
-448,-167,0,0,0,0,0,0,0,0,0,-1,776,1191,0,0
-441,-167,0,0,0,0,0,0,0,0,0,-1,783,1191,0,0
-434,-167,0,0,0,0,0,0,0,0,0,-1,790,1191,0,0
-427,-167,0,0,0,0,0,0,0,0,0,-1,797,1191,0,0
-420,-167,0,0,0,0,0,0,0,0,0,-1,804,1191,0,0
-413,-167,0,0,0,0,0,0,0,0,0,-1,811,1191,0,0
-406,-167,0,0,0,0,0,0,0,0,0,-1,818,1191,0,0
-399,-167,0,0,0,0,0,0,0,0,0,-1,825,1191,0,0
-392,-167,0,0,0,0,0,0,0,0,0,-1,832,1191,0,0
-385,-167,0,0,0,0,0,0,0,0,0,-1,839,1191,0,0
-378,-167,0,0,0,0,0,0,0,0,0,-1,846,1191,0,0
-371,-167,0,0,0,0,0,0,0,0,0,-1,853,1191,0,0
-364,-167,0,0,0,0,0,0,0,0,0,-1,860,1191,0,0
-357,-167,0,0,0,0,0,0,0,0,0,-1,867,1191,0,0
-350,-167,0,0,0,0,0,0,0,0,0,-1,874,1191,0,0
-343,-167,0,0,0,0,0,0,0,0,0,-1,881,1191,0,0
-336,-167,0,0,0,0,0,0,0,0,0,-1,888,1191,0,0
-329,-167,0,0,0,0,0,0,0,0,0,-1,895,1191,0,0
-322,-167,0,0,0,0,0,0,0,0,0,-1,902,1191,0,0
-315,-167,0,0,0,0,0,0,0,0,0,-1,909,1191,0,0
-308,-167,0,0,0,0,0,0,0,0,0,-1,916,1191,0,0
-301,-167,0,0,0,0,0,0,0,0,0,-1,923,1191,0,0
-294,-167,0,0,0,0,0,0,0,0,0,-1,930,1191,0,0
-287,-167,0,0,0,0,0,0,0,0,0,-1,937,1191,0,0
-280,-167,0,0,0,0,0,0,0,0,0,-1,944,1191,0,0
-273,-167,0,0,0,0,0,0,0,0,0,-1,951,1191,0,0
-266,-167,0,0,0,0,0,0,0,0,0,-1,958,1191,0,0
-259,-167,0,0,0,0,0,0,0,0,0,-1,965,1191,0,0
-252,-167,0,0,0,0,0,0,0,0,0,-1,972,1191,0,0
-245,-167,0,0,0,0,0,0,0,0,0,-1,979,1191,0,0
-238,-167,0,0,0,0,0,0,0,0,0,-1,986,1191,0,0
-231,-167,0,0,0,0,0,0,0,0,0,-1,993,1191,0,0
-224,-167,0,0,0,0,0,0,0,0,0,-1,1000,1191,0,0
-217,-167,0,0,0,0,0,0,0,0,0,-1,1007,1191,0,0
-210,-167,0,0,0,0,0,0,0,0,0,-1,1014,1191,0,0
-203,-167,0,0,0,0,0,0,0,0,0,-1,1021,1191,0,0
-196,-167,0,0,0,0,0,0,0,0,0,-1,1028,1191,0,0
-189,-167,0,0,0,0,0,0,0,0,0,-1,1035,1191,0,0
-182,-167,0,0,0,0,0,0,0,0,0,-1,1042,1191,0,0
-175,-167,0,0,0,0,0,0,0,0,0,-1,1049,1191,0,0
-168,-167,0,0,0,0,0,0,0,0,0,-1,1056,1191,0,0
-161,-167,0,0,0,0,0,0,0,0,0,-1,1063,1191,0,0
-154,-167,0,0,0,0,0,0,0,0,0,-1,1070,1191,0,0
-147,-167,0,0,0,0,0,0,0,0,0,-1,1077,1191,0,0
-140,-167,0,0,0,0,0,0,0,0,0,-1,1084,1191,0,0
-133,-167,0,0,0,0,0,0,0,0,0,-1,1091,1191,0,0
-126,-167,0,0,0,0,0,0,0,0,0,-1,1098,1191,0,0
-119,-167,0,0,0,0,0,0,0,0,0,-1,1105,1191,0,0
-112,-167,0,0,0,0,0,0,0,0,0,-1,1112,1191,0,0
-105,-167,0,0,0,0,0,0,0,0,0,-1,1119,1191,0,0
-98,-167,0,0,0,0,0,0,0,0,0,-1,1126,1191,0,0
-91,-167,0,0,0,0,0,0,0,0,0,-1,1133,1191,0,0
-84,-167,0,0,0,0,0,0,0,0,0,-1,1140,1191,0,0
-77,-167,0,0,0,0,0,0,0,0,0,-1,1147,1191,0,0
-70,-167,0,0,0,0,0,0,0,0,0,-1,1154,1191,0,0
-63,-167,0,0,0,0,0,0,0,0,0,-1,1161,1191,0,0
-56,-167,0,0,0,0,0,0,0,0,0,-1,1168,1191,0,0
-49,-167,0,0,0,0,0,0,0,0,0,-1,1175,1191,0,0
-42,-167,0,0,0,0,0,0,0,0,0,-1,1182,1191,0,0
-35,-167,0,0,0,0,0,0,0,0,0,-1,1189,1191,0,0
-28,-167,0,0,0,0,0,0,0,0,0,-1,1196,1191,0,0
-21,-167,0,0,0,0,0,0,0,0,0,-1,1203,1191,0,0
-14,-167,0,0,0,0,0,0,0,0,0,-1,1210,1191,0,0
-7,-167,0,0,0,0,0,0,0,0,0,-1,1217,1191,0,0
0,-167,0,0,0,0,0,0,0,0,0,-1,1224,1191,0,0
7,-167,0,0,0,0,0,0,0,0,0,-1,1231,1191,0,0
14,-167,0,0,0,0,0,0,0,0,0,-1,1238,1191,0,0
21,-167,0,0,0,0,0,0,0,0,0,-1,1245,1191,0,0
28,-167,0,0,0,0,0,0,0,0,0,-1,1252,1191,0,0
35,-167,0,0,0,0,0,0,0,0,0,-1,1259,1191,0,0
42,-167,0,0,0,0,0,0,0,0,0,-1,1266,1191,0,0
49,-167,0,0,0,0,0,0,0,0,0,-1,1273,1191,0,0
56,-167,0,0,0,0,0,0,0,0,0,-1,1280,1191,0,0
63,-167,0,0,0,0,0,0,0,0,0,-1,1287,1191,0,0
70,-167,0,0,0,0,0,0,0,0,0,-1,1294,1191,0,0
77,-167,0,0,0,0,0,0,0,0,0,-1,1301,1191,0,0
84,-167,0,0,0,0,0,0,0,0,0,-1,1308,1191,0,0
91,-167,0,0,0,0,0,0,0,0,0,-1,1315,1191,0,0
98,-167,0,0,0,0,0,0,0,0,0,-1,1322,1191,0,0
105,-167,0,0,0,0,0,0,0,0,0,-1,1329,1191,0,0
112,-167,0,0,0,0,0,0,0,0,0,-1,1336,1191,0,0
119,-167,0,0,0,0,0,0,0,0,0,-1,1343,1191,0,0
126,-167,0,0,0,0,0,0,0,0,0,-1,1350,1191,0,0
133,-167,0,0,0,0,0,0,0,0,0,-1,1357,1191,0,0
140,-167,0,0,0,0,0,0,0,0,0,-1,1364,1191,0,0
147,-167,0,0,0,0,0,0,0,0,0,-1,1371,1191,0,0
154,-167,0,0,0,0,0,0,0,0,0,-1,1378,1191,0,0
161,-167,0,0,0,0,0,0,0,0,0,-1,1385,1191,0,0
168,-167,0,0,0,0,0,0,0,0,0,-1,1392,1191,0,0
175,-167,0,0,0,0,0,0,0,0,0,-1,1399,1191,0,0
182,-167,0,0,0,0,0,0,0,0,0,-1,1406,1191,0,0
189,-167,0,0,0,0,0,0,0,0,0,-1,1413,1191,0,0
196,-167,0,0,0,0,0,0,0,0,0,-1,1420,1191,0,0
203,-167,0,0,0,0,0,0,0,0,0,-1,1427,1191,0,0
210,-167,0,0,0,0,0,0,0,0,0,-1,1434,1191,0,0
217,-167,0,0,0,0,0,0,0,0,0,-1,1441,1191,0,0
224,-167,0,0,0,0,0,0,0,0,0,-1,1448,1191,0,0
231,-167,0,0,0,0,0,0,0,0,0,-1,1455,1191,0,0
238,-167,0,0,0,0,0,0,0,0,0,-1,1462,1191,0,0
245,-167,0,0,0,0,0,0,0,0,0,-1,1469,1191,0,0
252,-167,0,0,0,0,0,0,0,0,0,-1,1476,1191,0,0
259,-167,0,0,0,0,0,0,0,0,0,-1,1483,1191,0,0
266,-167,0,0,0,0,0,0,0,0,0,-1,1490,1191,0,0
273,-167,0,0,0,0,0,0,0,0,0,-1,1497,1191,0,0
280,-167,0,0,0,0,0,0,0,0,0,-1,1504,1191,0,0
287,-167,0,0,0,0,0,0,0,0,0,-1,1511,1191,0,0
294,-167,0,0,0,0,0,0,0,0,0,-1,1518,1191,0,0
301,-167,0,0,0,0,0,0,0,0,0,-1,1525,1191,0,0
308,-167,0,0,0,0,0,0,0,0,0,-1,1532,1191,0,0
315,-167,0,0,0,0,0,0,0,0,0,-1,1539,1191,0,0
322,-167,0,0,0,0,0,0,0,0,0,-1,1546,1191,0,0
329,-167,0,0,0,0,0,0,0,0,0,-1,1553,1191,0,0
336,-167,0,0,0,0,0,0,0,0,0,-1,1560,1191,0,0
343,-167,0,0,0,0,0,0,0,0,0,-1,1567,1191,0,0
350,-167,0,0,0,0,0,0,0,0,0,-1,1574,1191,0,0
357,-167,0,0,0,0,0,0,0,0,0,-1,1581,1191,0,0
364,-167,0,0,0,0,0,0,0,0,0,-1,1588,1191,0,0
371,-167,0,0,0,0,0,0,0,0,0,-1,1595,1191,0,0
378,-167,0,0,0,0,0,0,0,0,0,-1,1602,1191,0,0
385,-167,0,0,0,0,0,0,0,0,0,-1,1609,1191,0,0
392,-167,0,0,0,0,0,0,0,0,0,-1,1616,1191,0,0
399,-167,0,0,0,0,0,0,0,0,0,-1,1623,1191,0,0
406,-167,0,0,0,0,0,0,0,0,0,-1,1630,1191,0,0
413,-167,0,0,0,0,0,0,0,0,0,-1,1637,1191,0,0
420,-167,0,0,0,0,0,0,0,0,0,-1,1644,1191,0,0
427,-167,0,0,0,0,0,0,0,0,0,-1,1651,1191,0,0
434,-167,0,0,0,0,0,0,0,0,0,-1,1658,1191,0,0
441,-167,0,0,0,0,0,0,0,0,0,-1,1665,1191,0,0
448,-167,0,0,0,0,0,0,0,0,0,-1,1672,1191,0,0
455,-167,0,0,0,0,0,0,0,0,0,-1,1679,1191,0,0
462,-167,0,0,0,0,0,0,0,0,0,-1,1686,1191,0,0
469,-167,0,0,0,0,0,0,0,0,0,-1,1693,1191,0,0
476,-167,0,0,0,0,0,0,0,0,0,-1,1700,1191,0,0
483,-167,0,0,0,0,0,0,0,0,0,-1,1707,1191,0,0
490,-167,0,0,0,0,0,0,0,0,0,-1,1714,1191,0,0
497,-167,0,0,0,0,0,0,0,0,0,-1,1721,1191,0,0
504,-167,0,0,0,0,0,0,0,0,0,-1,1728,1191,0,0
511,-167,0,0,0,0,0,0,0,0,0,-1,1735,1191,0,0
518,-167,0,0,0,0,0,0,0,0,0,-1,1742,1191,0,0
525,-167,0,0,0,0,0,0,0,0,0,-1,1749,1191,0,0
532,-167,0,0,0,0,0,0,0,0,0,-1,1756,1191,0,0
539,-167,0,0,0,0,0,0,0,0,0,-1,1763,1191,0,0
546,-167,0,0,0,0,0,0,0,0,0,-1,1770,1191,0,0
553,-167,0,0,0,0,0,0,0,0,0,-1,1777,1191,0,0
560,-167,0,0,0,0,0,0,0,0,0,-1,1784,1191,0,0
567,-167,0,0,0,0,0,0,0,0,0,-1,1791,1191,0,0
574,-167,0,0,0,0,0,0,0,0,0,-1,1798,1191,0,0
581,-167,0,0,0,0,0,0,0,0,0,-1,1805,1191,0,0
588,-167,0,0,0,0,0,0,0,0,0,-1,1812,1191,0,0
595,-167,0,0,0,0,0,0,0,0,0,-1,1819,1191,0,0
602,-167,0,0,0,0,0,0,0,0,0,-1,1826,1191,0,0
609,-167,0,0,0,0,0,0,0,0,0,-1,1833,1191,0,0
616,-167,0,0,0,0,0,0,0,0,0,-1,1840,1191,0,0
623,-167,0,0,0,0,0,0,0,0,0,-1,1847,1191,0,0
630,-167,0,0,0,0,0,0,0,0,0,-1,1854,1191,0,0
637,-167,22.4799,2.49219,0.00153753,-0.00314066,0.00256513,0.00266993,-0.00427305,0.415727,0.00404399,0.0421704,1861,1191,22.4799,-2.49223
644,-167,22.6008,2.69275,0.000959529,-0.00243187,0.00170015,0.00166506,-0.0031374,0.393354,0.0028158,0.044036,1868,1191,22.6009,-2.69277
651,-167,22.5796,2.65991,0.000896442,-0.00172882,0.000831074,0.00113741,-0.0019698,0.282214,0.00181528,0.0401666,1875,1191,22.5795,-2.65997
658,-167,22.5635,2.75671,0.000554727,-0.00149906,0.000566164,0.000700459,-0.0016448,0.251934,0.00139014,0.0412797,1882,1191,22.5634,-2.75666
665,-167,22.683,2.75232,-0.000347619,-0.00158187,0.000841852,7.90763e-05,-0.00200856,0.469114,0.00136616,0.0367638,1889,1191,22.6829,-2.75232
672,-167,22.5846,2.7251,-0.00133327,-0.00174898,0.00120269,-0.000320611,-0.00276164,0.699832,0.00174407,0.0266622,1896,1191,22.5846,-2.72513
679,-167,22.5813,2.70984,-0.00236478,-0.00193816,0.00168778,-0.000450259,-0.00385268,0.848258,0.0024323,0.0219284,1903,1191,22.5813,-2.70984
686,-167,22.637,2.7489,-0.00327492,-0.00213092,0.00208276,-0.000543043,-0.00486279,0.919412,0.00307686,0.032478,1910,1191,22.6369,-2.74893
693,-167,22.3826,3.55798,0,0,0,0,0,0,0,-1,1917,1191,22.3826,-3.55802
700,-167,21.3129,4.36267,0,0,0,0,0,0,0,-1,1924,1191,21.3128,-4.36265
707,-167,20.4208,5.04651,-0.0051973,-0.00202022,0.00300216,-0.000212224,-0.00700529,1.02874,0.00460108,0.039946,1931,1191,20.4207,-5.04654
714,-167,20.6608,4.80798,-0.00543443,-0.00195467,0.00304208,-0.000190065,-0.00719904,1.04516,0.00473727,0.0277556,1938,1191,20.6607,-4.80802
721,-167,20.6704,4.51526,-0.00543997,-0.00173738,0.00305485,-1.66437e-05,-0.00716071,1.05781,0.00476827,0.0236019,1945,1191,20.6704,-4.51521
728,-167,20.5692,4.46912,-0.00511012,-0.00151532,0.00307731,0.00025105,-0.00687649,1.04971,0.00467026,0.0165449,1952,1191,20.5693,-4.46914
735,-167,20.4867,4.38123,-0.00414371,-0.00091072,0.00278243,0.0006907,-0.00574513,1.04855,0.00407985,0.0148867,1959,1191,20.4867,-4.38127
742,-167,20.4609,4.22766,-0.00207277,-0.00047521,0.00224781,0.00111153,-0.00365951,0.956119,0.00288253,0.0148701,1966,1191,20.4609,-4.2277
749,-167,20.4591,4.09009,0.000416281,2.06484e-05,0.00170078,0.00193071,-0.00149378,0.727504,0.00198249,0.0134642,1973,1191,20.4591,-4.09014
756,-167,20.4515,3.96472,0.00350871,0.000430685,0.00125218,0.00395377,-1.43708e-05,0.341498,0.00264065,0.0104779,1980,1191,20.4515,-3.96467
763,-167,20.4326,3.82483,0.00691022,0.000488679,0.00117473,0.00711837,0.000280527,0.175371,0.00465489,0.0113455,1987,1191,20.4326,-3.82477
770,-167,20.3981,3.71143,0.0107603,7.42642e-05,0.0015411,0.0109782,-0.000143548,0.140405,0.00736708,0.0216534,1994,1191,20.398,-3.71147
777,-167,20.344,3.7085,0.015847,-0.000858951,0.00206724,0.016099,-0.00111096,0.121306,0.0111215,0.0392457,2001,1191,20.344,-3.70855
784,-167,20.3833,3.57312,0.0226918,-0.00265798,0.00305633,0.0230551,-0.00302126,0.118308,0.0164698,0.047801,2008,1191,20.3833,-3.57318
791,-167,20.3157,3.12781,0,0,0,0,0,0,0,-1,2015,1191,20.3156,-3.12783
798,-167,21.739,4.90051,0,0,0,0,0,0,0,-1,2022,1191,21.739,-4.90052
805,-167,22.5378,4.35742,0,0,0,0,0,0,0,-1,2029,1191,22.5379,-4.35743
812,-167,0,0,0,0,0,0,0,0,0,-1,2036,1191,0,0
-700,-174,0,0,0,0,0,0,0,0,0,-1,524,1198,0,0
-693,-174,0,0,0,0,0,0,0,0,0,-1,531,1198,0,0
-686,-174,-9.91083,2.80725,-0.119417,0.0550602,-0.0154991,0.0564263,-0.120783,-1.48288,0.104537,0.0461388,538,1198,-9.91085,-2.8072
-679,-174,-10.8388,2.44434,-0.0979472,0.0473885,-0.0146698,0.0488544,-0.0994131,-1.4712,0.0872455,0.0438215,545,1198,-10.8388,-2.44436
-672,-174,-11.678,1.91638,-0.0791419,0.0395379,-0.0130709,0.0409604,-0.0805644,-1.46239,0.0713935,0.0457658,552,1198,-11.6781,-1.91638
-665,-174,-12.5892,1.40002,-0.0627096,0.0321113,-0.0112142,0.0334195,-0.0640178,-1.45466,0.0571726,0.0465732,559,1198,-12.5892,-1.39998
-658,-174,-11.7056,1.47632,-0.0485173,0.0253417,-0.00933059,0.0265022,-0.0496778,-1.44706,0.0446558,0.0446518,566,1198,-11.7056,-1.47628
-651,-174,-12.0366,1.50525,-0.0365067,0.0193685,-0.00754263,0.0203688,-0.0375069,-1.43895,0.0338994,0.0434467,573,1198,-12.0365,-1.50525
-644,-174,-12.3611,1.41406,-0.0265896,0.0142717,-0.0059214,0.0151125,-0.0274304,-1.42975,0.024903,0.0391045,580,1198,-12.3611,-1.41408
-637,-174,-12.3998,1.21228,-0.0186795,0.0101704,-0.00467283,0.0109083,-0.0194175,-1.41416,0.0177369,0.0215893,587,1198,-12.3998,-1.21232
-630,-174,-12.4603,1.37085,-0.0119638,0.00693862,-0.00369179,0.00763407,-0.0126592,-1.3846,0.0118355,0.0120793,594,1198,-12.4603,-1.37083
-623,-174,-12.4724,1.52698,-0.00649939,0.00306613,-0.00372458,0.00434532,-0.00777859,-1.23997,0.00709268,0.0132581,601,1198,-12.4723,-1.52697
-616,-174,-12.4604,1.73242,-0.00413731,0.000746939,-0.00338569,0.00247936,-0.00586973,-1.09784,0.00495106,0.0184132,608,1198,-12.4605,-1.73245
-609,-174,-12.4928,1.91895,-0.00559904,-0.00039535,-0.00448842,0.00219082,-0.00818521,-1.04807,0.00631505,0.0199984,615,1198,-12.4928,-1.91893
-602,-174,-12.5223,2.04688,-0.00776017,-0.00129931,-0.00578721,0.00209804,-0.0111575,-1.03996,0.00822735,0.0139169,622,1198,-12.5223,-2.04684
-595,-174,-12.5107,2.23047,-0.00957795,-0.00147312,-0.00688582,0.00246425,-0.0135153,-1.05136,0.00993403,0.0133874,629,1198,-12.5107,-2.23049
-588,-174,-12.582,2.40125,-0.0110968,-0.001674,-0.00768316,0.00262727,-0.0153981,-1.06044,0.0112439,0.0161074,636,1198,-12.582,-2.40126
-581,-174,-12.5607,2.56641,-0.0120195,-0.00182649,-0.00819043,0.00272363,-0.0165697,-1.06371,0.0120573,0.0192176,643,1198,-12.5607,-2.56643
-574,-174,-13.0466,2.59619,-0.0124064,-0.00185889,-0.00831684,0.0027153,-0.0169806,-1.06796,0.0123256,0.0466572,650,1198,-13.0466,-2.59624
-567,-174,-13.4974,1.52441,-0.0123653,-0.0017428,-0.00827341,0.00277747,-0.0168856,-1.07075,0.012288,0.0431552,657,1198,-13.4975,-1.52443
-560,-174,-14.53,0.670288,-0.0117422,-0.00155987,-0.00803386,0.00286016,-0.0161622,-1.06782,0.0118439,0.0443435,664,1198,-14.5299,-0.670349
-553,-174,-14.7908,0.714233,-0.0103848,-0.00125122,-0.00729711,0.00279031,-0.0144264,-1.065,0.01067,0.0377012,671,1198,-14.7908,-0.714238
-546,-174,-14.8911,0.837524,-0.00789759,-0.000859018,-0.00615243,0.00270955,-0.0114662,-1.04519,0.00868927,0.0290359,678,1198,-14.8911,-0.837516
-539,-174,-14.9385,0.884766,-0.00407996,-0.000439705,-0.00463227,0.00271719,-0.00723686,-0.972594,0.00594117,0.034187,685,1198,-14.9385,-0.884799
-532,-174,-14.9337,0.758179,0.00147329,-9.92492e-05,-0.00279207,0.00358769,-0.00221365,-0.648149,0.00338057,0.0425035,692,1198,-14.9337,-0.758151
-525,-174,-14.8143,0.648682,0.00889145,-0.000113591,-0.00110326,0.00902464,-0.000246787,-0.120148,0.00610035,0.0422596,699,1198,-14.8143,-0.648636
-518,-174,-14.6675,0.557739,0.0166255,-0.000771295,-0.00186537,0.0168233,-0.000969062,-0.105625,0.0115521,0.0408517,706,1198,-14.6675,-0.557711
-511,-174,0,0,0,0,0,0,0,0,0,-1,713,1198,0,0
-504,-174,0,0,0,0,0,0,0,0,0,-1,720,1198,0,0
-497,-174,0,0,0,0,0,0,0,0,0,-1,727,1198,0,0
-490,-174,0,0,0,0,0,0,0,0,0,-1,734,1198,0,0
-483,-174,0,0,0,0,0,0,0,0,0,-1,741,1198,0,0
-476,-174,0,0,0,0,0,0,0,0,0,-1,748,1198,0,0
-469,-174,0,0,0,0,0,0,0,0,0,-1,755,1198,0,0
-462,-174,0,0,0,0,0,0,0,0,0,-1,762,1198,0,0
-455,-174,0,0,0,0,0,0,0,0,0,-1,769,1198,0,0
-448,-174,0,0,0,0,0,0,0,0,0,-1,776,1198,0,0
-441,-174,0,0,0,0,0,0,0,0,0,-1,783,1198,0,0
-434,-174,0,0,0,0,0,0,0,0,0,-1,790,1198,0,0
-427,-174,0,0,0,0,0,0,0,0,0,-1,797,1198,0,0
-420,-174,0,0,0,0,0,0,0,0,0,-1,804,1198,0,0
-413,-174,0,0,0,0,0,0,0,0,0,-1,811,1198,0,0
-406,-174,0,0,0,0,0,0,0,0,0,-1,818,1198,0,0
-399,-174,0,0,0,0,0,0,0,0,0,-1,825,1198,0,0
-392,-174,0,0,0,0,0,0,0,0,0,-1,832,1198,0,0
-385,-174,0,0,0,0,0,0,0,0,0,-1,839,1198,0,0
-378,-174,0,0,0,0,0,0,0,0,0,-1,846,1198,0,0
-371,-174,0,0,0,0,0,0,0,0,0,-1,853,1198,0,0
-364,-174,0,0,0,0,0,0,0,0,0,-1,860,1198,0,0
-357,-174,0,0,0,0,0,0,0,0,0,-1,867,1198,0,0
-350,-174,0,0,0,0,0,0,0,0,0,-1,874,1198,0,0
-343,-174,0,0,0,0,0,0,0,0,0,-1,881,1198,0,0
-336,-174,0,0,0,0,0,0,0,0,0,-1,888,1198,0,0
-329,-174,0,0,0,0,0,0,0,0,0,-1,895,1198,0,0
-322,-174,0,0,0,0,0,0,0,0,0,-1,902,1198,0,0
-315,-174,0,0,0,0,0,0,0,0,0,-1,909,1198,0,0
-308,-174,0,0,0,0,0,0,0,0,0,-1,916,1198,0,0
-301,-174,0,0,0,0,0,0,0,0,0,-1,923,1198,0,0
-294,-174,0,0,0,0,0,0,0,0,0,-1,930,1198,0,0
-287,-174,0,0,0,0,0,0,0,0,0,-1,937,1198,0,0
-280,-174,0,0,0,0,0,0,0,0,0,-1,944,1198,0,0
-273,-174,0,0,0,0,0,0,0,0,0,-1,951,1198,0,0
-266,-174,0,0,0,0,0,0,0,0,0,-1,958,1198,0,0
-259,-174,0,0,0,0,0,0,0,0,0,-1,965,1198,0,0
-252,-174,0,0,0,0,0,0,0,0,0,-1,972,1198,0,0
-245,-174,0,0,0,0,0,0,0,0,0,-1,979,1198,0,0
-238,-174,0,0,0,0,0,0,0,0,0,-1,986,1198,0,0
-231,-174,0,0,0,0,0,0,0,0,0,-1,993,1198,0,0
-224,-174,0,0,0,0,0,0,0,0,0,-1,1000,1198,0,0
-217,-174,0,0,0,0,0,0,0,0,0,-1,1007,1198,0,0
-210,-174,0,0,0,0,0,0,0,0,0,-1,1014,1198,0,0
-203,-174,0,0,0,0,0,0,0,0,0,-1,1021,1198,0,0
-196,-174,0,0,0,0,0,0,0,0,0,-1,1028,1198,0,0
-189,-174,0,0,0,0,0,0,0,0,0,-1,1035,1198,0,0
-182,-174,0,0,0,0,0,0,0,0,0,-1,1042,1198,0,0
-175,-174,0,0,0,0,0,0,0,0,0,-1,1049,1198,0,0
-168,-174,0,0,0,0,0,0,0,0,0,-1,1056,1198,0,0
-161,-174,0,0,0,0,0,0,0,0,0,-1,1063,1198,0,0
-154,-174,0,0,0,0,0,0,0,0,0,-1,1070,1198,0,0
-147,-174,0,0,0,0,0,0,0,0,0,-1,1077,1198,0,0
-140,-174,0,0,0,0,0,0,0,0,0,-1,1084,1198,0,0
-133,-174,0,0,0,0,0,0,0,0,0,-1,1091,1198,0,0
-126,-174,0,0,0,0,0,0,0,0,0,-1,1098,1198,0,0
-119,-174,0,0,0,0,0,0,0,0,0,-1,1105,1198,0,0
-112,-174,0,0,0,0,0,0,0,0,0,-1,1112,1198,0,0
-105,-174,0,0,0,0,0,0,0,0,0,-1,1119,1198,0,0
-98,-174,0,0,0,0,0,0,0,0,0,-1,1126,1198,0,0
-91,-174,0,0,0,0,0,0,0,0,0,-1,1133,1198,0,0
-84,-174,0,0,0,0,0,0,0,0,0,-1,1140,1198,0,0
-77,-174,0,0,0,0,0,0,0,0,0,-1,1147,1198,0,0
-70,-174,0,0,0,0,0,0,0,0,0,-1,1154,1198,0,0
-63,-174,0,0,0,0,0,0,0,0,0,-1,1161,1198,0,0
-56,-174,0,0,0,0,0,0,0,0,0,-1,1168,1198,0,0
-49,-174,0,0,0,0,0,0,0,0,0,-1,1175,1198,0,0
-42,-174,0,0,0,0,0,0,0,0,0,-1,1182,1198,0,0
-35,-174,0,0,0,0,0,0,0,0,0,-1,1189,1198,0,0
-28,-174,0,0,0,0,0,0,0,0,0,-1,1196,1198,0,0
-21,-174,0,0,0,0,0,0,0,0,0,-1,1203,1198,0,0
-14,-174,0,0,0,0,0,0,0,0,0,-1,1210,1198,0,0
-7,-174,0,0,0,0,0,0,0,0,0,-1,1217,1198,0,0
0,-174,0,0,0,0,0,0,0,0,0,-1,1224,1198,0,0
7,-174,0,0,0,0,0,0,0,0,0,-1,1231,1198,0,0
14,-174,0,0,0,0,0,0,0,0,0,-1,1238,1198,0,0
21,-174,0,0,0,0,0,0,0,0,0,-1,1245,1198,0,0
28,-174,0,0,0,0,0,0,0,0,0,-1,1252,1198,0,0
35,-174,0,0,0,0,0,0,0,0,0,-1,1259,1198,0,0
42,-174,0,0,0,0,0,0,0,0,0,-1,1266,1198,0,0
49,-174,0,0,0,0,0,0,0,0,0,-1,1273,1198,0,0
56,-174,0,0,0,0,0,0,0,0,0,-1,1280,1198,0,0
63,-174,0,0,0,0,0,0,0,0,0,-1,1287,1198,0,0
70,-174,0,0,0,0,0,0,0,0,0,-1,1294,1198,0,0
77,-174,0,0,0,0,0,0,0,0,0,-1,1301,1198,0,0
84,-174,0,0,0,0,0,0,0,0,0,-1,1308,1198,0,0
91,-174,0,0,0,0,0,0,0,0,0,-1,1315,1198,0,0
98,-174,0,0,0,0,0,0,0,0,0,-1,1322,1198,0,0
105,-174,0,0,0,0,0,0,0,0,0,-1,1329,1198,0,0
112,-174,0,0,0,0,0,0,0,0,0,-1,1336,1198,0,0
119,-174,0,0,0,0,0,0,0,0,0,-1,1343,1198,0,0
126,-174,0,0,0,0,0,0,0,0,0,-1,1350,1198,0,0
133,-174,0,0,0,0,0,0,0,0,0,-1,1357,1198,0,0
140,-174,0,0,0,0,0,0,0,0,0,-1,1364,1198,0,0
147,-174,0,0,0,0,0,0,0,0,0,-1,1371,1198,0,0
154,-174,0,0,0,0,0,0,0,0,0,-1,1378,1198,0,0
161,-174,0,0,0,0,0,0,0,0,0,-1,1385,1198,0,0
168,-174,0,0,0,0,0,0,0,0,0,-1,1392,1198,0,0
175,-174,0,0,0,0,0,0,0,0,0,-1,1399,1198,0,0
182,-174,0,0,0,0,0,0,0,0,0,-1,1406,1198,0,0
189,-174,0,0,0,0,0,0,0,0,0,-1,1413,1198,0,0
196,-174,0,0,0,0,0,0,0,0,0,-1,1420,1198,0,0
203,-174,0,0,0,0,0,0,0,0,0,-1,1427,1198,0,0
210,-174,0,0,0,0,0,0,0,0,0,-1,1434,1198,0,0
217,-174,0,0,0,0,0,0,0,0,0,-1,1441,1198,0,0
224,-174,0,0,0,0,0,0,0,0,0,-1,1448,1198,0,0
231,-174,0,0,0,0,0,0,0,0,0,-1,1455,1198,0,0
238,-174,0,0,0,0,0,0,0,0,0,-1,1462,1198,0,0
245,-174,0,0,0,0,0,0,0,0,0,-1,1469,1198,0,0
252,-174,0,0,0,0,0,0,0,0,0,-1,1476,1198,0,0
259,-174,0,0,0,0,0,0,0,0,0,-1,1483,1198,0,0
266,-174,0,0,0,0,0,0,0,0,0,-1,1490,1198,0,0
273,-174,0,0,0,0,0,0,0,0,0,-1,1497,1198,0,0
280,-174,0,0,0,0,0,0,0,0,0,-1,1504,1198,0,0
287,-174,0,0,0,0,0,0,0,0,0,-1,1511,1198,0,0
294,-174,0,0,0,0,0,0,0,0,0,-1,1518,1198,0,0
301,-174,0,0,0,0,0,0,0,0,0,-1,1525,1198,0,0
308,-174,0,0,0,0,0,0,0,0,0,-1,1532,1198,0,0
315,-174,0,0,0,0,0,0,0,0,0,-1,1539,1198,0,0
322,-174,0,0,0,0,0,0,0,0,0,-1,1546,1198,0,0
329,-174,0,0,0,0,0,0,0,0,0,-1,1553,1198,0,0
336,-174,0,0,0,0,0,0,0,0,0,-1,1560,1198,0,0
343,-174,0,0,0,0,0,0,0,0,0,-1,1567,1198,0,0
350,-174,0,0,0,0,0,0,0,0,0,-1,1574,1198,0,0
357,-174,0,0,0,0,0,0,0,0,0,-1,1581,1198,0,0
364,-174,0,0,0,0,0,0,0,0,0,-1,1588,1198,0,0
371,-174,0,0,0,0,0,0,0,0,0,-1,1595,1198,0,0
378,-174,0,0,0,0,0,0,0,0,0,-1,1602,1198,0,0
385,-174,0,0,0,0,0,0,0,0,0,-1,1609,1198,0,0
392,-174,0,0,0,0,0,0,0,0,0,-1,1616,1198,0,0
399,-174,0,0,0,0,0,0,0,0,0,-1,1623,1198,0,0
406,-174,0,0,0,0,0,0,0,0,0,-1,1630,1198,0,0
413,-174,0,0,0,0,0,0,0,0,0,-1,1637,1198,0,0
420,-174,0,0,0,0,0,0,0,0,0,-1,1644,1198,0,0
427,-174,0,0,0,0,0,0,0,0,0,-1,1651,1198,0,0
434,-174,0,0,0,0,0,0,0,0,0,-1,1658,1198,0,0
441,-174,0,0,0,0,0,0,0,0,0,-1,1665,1198,0,0
448,-174,0,0,0,0,0,0,0,0,0,-1,1672,1198,0,0
455,-174,0,0,0,0,0,0,0,0,0,-1,1679,1198,0,0
462,-174,0,0,0,0,0,0,0,0,0,-1,1686,1198,0,0
469,-174,0,0,0,0,0,0,0,0,0,-1,1693,1198,0,0
476,-174,0,0,0,0,0,0,0,0,0,-1,1700,1198,0,0
483,-174,0,0,0,0,0,0,0,0,0,-1,1707,1198,0,0
490,-174,0,0,0,0,0,0,0,0,0,-1,1714,1198,0,0
497,-174,0,0,0,0,0,0,0,0,0,-1,1721,1198,0,0
504,-174,0,0,0,0,0,0,0,0,0,-1,1728,1198,0,0
511,-174,0,0,0,0,0,0,0,0,0,-1,1735,1198,0,0
518,-174,0,0,0,0,0,0,0,0,0,-1,1742,1198,0,0
525,-174,0,0,0,0,0,0,0,0,0,-1,1749,1198,0,0
532,-174,0,0,0,0,0,0,0,0,0,-1,1756,1198,0,0
539,-174,0,0,0,0,0,0,0,0,0,-1,1763,1198,0,0
546,-174,0,0,0,0,0,0,0,0,0,-1,1770,1198,0,0
553,-174,0,0,0,0,0,0,0,0,0,-1,1777,1198,0,0
560,-174,0,0,0,0,0,0,0,0,0,-1,1784,1198,0,0
567,-174,0,0,0,0,0,0,0,0,0,-1,1791,1198,0,0
574,-174,0,0,0,0,0,0,0,0,0,-1,1798,1198,0,0
581,-174,0,0,0,0,0,0,0,0,0,-1,1805,1198,0,0
588,-174,0,0,0,0,0,0,0,0,0,-1,1812,1198,0,0
595,-174,0,0,0,0,0,0,0,0,0,-1,1819,1198,0,0
602,-174,0,0,0,0,0,0,0,0,0,-1,1826,1198,0,0
609,-174,0,0,0,0,0,0,0,0,0,-1,1833,1198,0,0
616,-174,0,0,0,0,0,0,0,0,0,-1,1840,1198,0,0
623,-174,0,0,0,0,0,0,0,0,0,-1,1847,1198,0,0
630,-174,0,0,0,0,0,0,0,0,0,-1,1854,1198,0,0
637,-174,22.592,2.64331,0.00122628,-0.00239601,0.002525,0.00252252,-0.00369226,0.474282,0.00360923,0.039461,1861,1198,22.5921,-2.64333
644,-174,22.6461,2.86426,0.000880751,-0.00190391,0.00164663,0.0016448,-0.00266796,0.434442,0.00251322,0.0392497,1868,1198,22.6462,-2.86423
651,-174,22.7491,2.89233,0.000905806,-0.00147974,0.000788993,0.00114314,-0.00171708,0.292201,0.00166239,0.0390034,1875,1198,22.7491,-2.89236
658,-174,22.6046,2.71118,0.000565114,-0.00146319,0.000563302,0.000711054,-0.00160913,0.253506,0.0013726,0.0378299,1882,1198,22.6046,-2.71117
665,-174,22.5297,2.67114,-0.000153677,-0.00164295,0.000755762,0.000162657,-0.00195929,0.396406,0.00136365,0.0316575,1889,1198,22.5296,-2.67112
672,-174,22.5277,2.68127,-0.000938107,-0.00185828,0.00102465,-0.000274991,-0.00252139,0.57438,0.00159718,0.0240585,1896,1198,22.5277,-2.68125
679,-174,22.5767,2.6991,-0.00178198,-0.00204621,0.00144378,-0.00046428,-0.0033639,0.739773,0.00210498,0.0221777,1903,1198,22.5767,-2.69913
686,-174,22.6597,2.72949,0,0,0,0,0,0,0,-1,1910,1198,22.6597,-2.72947
693,-174,22.3591,3.07227,0,0,0,0,0,0,0,-1,1917,1198,22.3592,-3.07222
700,-174,20.2845,5.06335,0,0,0,0,0,0,0,-1,1924,1198,20.2845,-5.06333
707,-174,20.436,4.95764,-0.00419232,-0.00201403,0.00252415,-0.000354072,-0.00585228,0.989076,0.00378901,0.0394596,1931,1198,20.436,-4.95765
714,-174,20.5404,4.81946,-0.00439723,-0.00191521,0.00256715,-0.000304845,-0.0060076,1.01055,0.00390742,0.0251322,1938,1198,20.5404,-4.81944
721,-174,20.4913,4.61438,-0.00436148,-0.00165991,0.00257576,-0.000102234,-0.00591916,1.0269,0.00391247,0.0190801,1945,1198,20.4913,-4.61435
728,-174,20.353,4.50244,-0.00403304,-0.00133741,0.00261651,0.000258023,-0.00562848,1.02323,0.00384122,0.0131538,1952,1198,20.353,-4.50248
735,-174,20.328,4.37756,-0.00310644,-0.000593579,0.00234467,0.000810082,-0.0045101,1.03136,0.00330997,0.0118287,1959,1198,20.3281,-4.37757
742,-174,20.3021,4.23877,-0.00109372,-2.91185e-05,0.00183985,0.00135389,-0.00247673,0.926212,0.00224306,0.0179057,1966,1198,20.3021,-4.23877
749,-174,20.3124,4.09814,0.00131858,0.00062372,0.00135453,0.00236953,-0.00042723,0.659857,0.00173967,0.0156663,1973,1198,20.3123,-4.09812
756,-174,20.3066,3.95374,0.00429254,0.00124973,0.000989415,0.00458597,0.000956304,0.288304,0.00279364,0.00998038,1980,1198,20.3066,-3.95376
763,-174,20.2747,3.80798,0.00762418,0.00163271,0.000996339,0.00778552,0.00147137,0.160539,0.00477604,0.0116595,1987,1198,20.2747,-3.808
770,-174,20.3168,3.73047,0.0115872,0.00173906,0.00136388,0.0117726,0.00155366,0.135103,0.00738522,0.0219673,1994,1198,20.3167,-3.73047
777,-174,20.41,3.77124,0.0168352,0.00151656,0.00187489,0.0170613,0.00129042,0.120033,0.0109694,0.0438117,2001,1198,20.41,-3.77119
784,-174,20.5048,3.7771,0,0,0,0,0,0,0,-1,2008,1198,20.5048,-3.77706
791,-174,21.083,5.43884,0,0,0,0,0,0,0,-1,2015,1198,21.083,-5.43888
798,-174,21.6797,4.65735,0,0,0,0,0,0,0,-1,2022,1198,21.6797,-4.6573
805,-174,22.3904,4.27917,0,0,0,0,0,0,0,-1,2029,1198,22.3904,-4.27918
812,-174,0,0,0,0,0,0,0,0,0,-1,2036,1198,0,0
-700,-181,0,0,0,0,0,0,0,0,0,-1,524,1205,0,0
-693,-181,0,0,0,0,0,0,0,0,0,-1,531,1205,0,0
-686,-181,-10.1593,2.72449,-0.10993,0.0689661,-0.0171214,0.0705899,-0.111554,-1.47623,0.106043,0.0465071,538,1205,-10.1593,-2.72445
-679,-181,-11.1796,2.2356,-0.0876075,0.0593728,-0.0136647,0.0606324,-0.0888671,-1.47888,0.0868252,0.0450791,545,1205,-11.1795,-2.23555
-672,-181,-11.6658,2.05591,0,0,0,0,0,0,0,-1,552,1205,-11.6659,-2.0559
-665,-181,-12.5963,1.61255,0,0,0,0,0,0,0,-1,559,1205,-12.5963,-1.61261
-658,-181,-11.5106,1.42981,0,0,0,0,0,0,0,-1,566,1205,-11.5105,-1.42986
-651,-181,-12.1771,1.58386,0,0,0,0,0,0,0,-1,573,1205,-12.1771,-1.5838
-644,-181,-12.3466,1.18396,-0.0209787,0.0183786,-0.00328417,0.0186508,-0.0212508,-1.48811,0.0230535,0.0406701,580,1205,-12.3466,-1.18395
-637,-181,-12.2385,1.22046,-0.0142587,0.0131901,-0.00249597,0.0134152,-0.0144839,-1.48085,0.0161115,0.0233845,587,1205,-12.2385,-1.22041
-630,-181,-12.286,1.36914,-0.00855076,0.0091601,-0.0019392,0.00936995,-0.0087606,-1.46301,0.0104696,0.0127871,594,1205,-12.286,-1.36912
-623,-181,-12.3188,1.52466,-0.00389854,0.00455175,-0.00215431,0.00506927,-0.00441606,-1.33504,0.00548068,0.0148947,601,1205,-12.3189,-1.5246
-616,-181,-12.296,1.72375,-0.00220066,0.00158771,-0.00218455,0.00258492,-0.00319788,-1.14256,0.00334495,0.0140249,608,1205,-12.2959,-1.72372
-609,-181,-12.2917,1.90186,-0.00425554,0.000140851,-0.00371446,0.00225882,-0.00637351,-1.05258,0.00516916,0.0134686,615,1205,-12.2918,-1.90183
-602,-181,-12.2999,2.0625,-0.00667854,-0.00118591,-0.00533172,0.00206523,-0.00992968,-1.02322,0.00740483,0.0122779,622,1205,-12.2999,-2.06255
-595,-181,-12.3254,2.22168,-0.0086398,-0.00136347,-0.00654733,0.00248861,-0.0124919,-1.03899,0.00926949,0.0124686,629,1205,-12.3254,-2.2217
-588,-181,-12.3624,2.44019,-0.0102075,-0.00158984,-0.0072559,0.00254016,-0.0143375,-1.05334,0.0105079,0.0133266,636,1205,-12.3624,-2.44018
-581,-181,-12.3378,2.68774,-0.0111715,-0.00173942,-0.00768957,0.00256509,-0.015476,-1.06047,0.0112701,0.0156407,643,1205,-12.3378,-2.68771
-574,-181,-12.6733,2.69458,-0.0116221,-0.0017427,-0.00768598,0.00245405,-0.0158189,-1.07101,0.0114519,0.0386329,650,1205,-12.6733,-2.69458
-567,-181,-13.233,2.61084,0,0,0,0,0,0,0,-1,657,1205,-13.233,-2.61081
-560,-181,-13.7066,1.0177,-0.0110358,-0.00137846,-0.00736781,0.00260199,-0.0150163,-1.07547,0.0109814,0.0473467,664,1205,-13.7066,-1.01773
-553,-181,-14.676,0.626953,-0.00992962,-0.00108437,-0.00670529,0.00252548,-0.0135395,-1.07694,0.00997528,0.0429019,671,1205,-14.676,-0.627
-546,-181,-14.8398,0.794922,-0.00787377,-0.000698224,-0.00570961,0.00245728,-0.0110293,-1.06591,0.00829417,0.034144,678,1205,-14.8398,-0.794922
-539,-181,-14.9282,0.932739,-0.00470282,-0.000310198,-0.0044293,0.00243743,-0.00745044,-1.01556,0.0059483,0.0382946,685,1205,-14.9282,-0.932744
-532,-181,-14.9374,1.02063,-7.20971e-05,-3.24056e-05,-0.00291348,0.0028613,-0.0029658,-0.788804,0.00336446,0.0448902,692,1205,-14.9374,-1.02059
-525,-181,-14.7161,0.826294,0.00631081,-0.000109806,-0.00148571,0.00663793,-0.000436926,-0.21672,0.00457788,0.0413579,699,1205,-14.7161,-0.826348
-518,-181,-14.4962,0.583496,0.0134975,-0.000974203,-0.00199261,0.0137668,-0.00124355,-0.13436,0.00961924,0.0395258,706,1205,-14.4962,-0.583469
-511,-181,0,0,0,0,0,0,0,0,0,-1,713,1205,0,0
-504,-181,0,0,0,0,0,0,0,0,0,-1,720,1205,0,0
-497,-181,0,0,0,0,0,0,0,0,0,-1,727,1205,0,0
-490,-181,0,0,0,0,0,0,0,0,0,-1,734,1205,0,0
-483,-181,0,0,0,0,0,0,0,0,0,-1,741,1205,0,0
-476,-181,0,0,0,0,0,0,0,0,0,-1,748,1205,0,0
-469,-181,0,0,0,0,0,0,0,0,0,-1,755,1205,0,0
-462,-181,0,0,0,0,0,0,0,0,0,-1,762,1205,0,0
-455,-181,0,0,0,0,0,0,0,0,0,-1,769,1205,0,0
-448,-181,0,0,0,0,0,0,0,0,0,-1,776,1205,0,0
-441,-181,0,0,0,0,0,0,0,0,0,-1,783,1205,0,0
-434,-181,0,0,0,0,0,0,0,0,0,-1,790,1205,0,0
-427,-181,0,0,0,0,0,0,0,0,0,-1,797,1205,0,0
-420,-181,0,0,0,0,0,0,0,0,0,-1,804,1205,0,0
-413,-181,0,0,0,0,0,0,0,0,0,-1,811,1205,0,0
-406,-181,0,0,0,0,0,0,0,0,0,-1,818,1205,0,0
-399,-181,0,0,0,0,0,0,0,0,0,-1,825,1205,0,0
-392,-181,0,0,0,0,0,0,0,0,0,-1,832,1205,0,0
-385,-181,0,0,0,0,0,0,0,0,0,-1,839,1205,0,0
-378,-181,0,0,0,0,0,0,0,0,0,-1,846,1205,0,0
-371,-181,0,0,0,0,0,0,0,0,0,-1,853,1205,0,0
-364,-181,0,0,0,0,0,0,0,0,0,-1,860,1205,0,0
-357,-181,0,0,0,0,0,0,0,0,0,-1,867,1205,0,0
-350,-181,0,0,0,0,0,0,0,0,0,-1,874,1205,0,0
-343,-181,0,0,0,0,0,0,0,0,0,-1,881,1205,0,0
-336,-181,0,0,0,0,0,0,0,0,0,-1,888,1205,0,0
-329,-181,0,0,0,0,0,0,0,0,0,-1,895,1205,0,0
-322,-181,0,0,0,0,0,0,0,0,0,-1,902,1205,0,0
-315,-181,0,0,0,0,0,0,0,0,0,-1,909,1205,0,0
-308,-181,0,0,0,0,0,0,0,0,0,-1,916,1205,0,0
-301,-181,0,0,0,0,0,0,0,0,0,-1,923,1205,0,0
-294,-181,0,0,0,0,0,0,0,0,0,-1,930,1205,0,0
-287,-181,0,0,0,0,0,0,0,0,0,-1,937,1205,0,0
-280,-181,0,0,0,0,0,0,0,0,0,-1,944,1205,0,0
-273,-181,0,0,0,0,0,0,0,0,0,-1,951,1205,0,0
-266,-181,0,0,0,0,0,0,0,0,0,-1,958,1205,0,0
-259,-181,0,0,0,0,0,0,0,0,0,-1,965,1205,0,0
-252,-181,0,0,0,0,0,0,0,0,0,-1,972,1205,0,0
-245,-181,0,0,0,0,0,0,0,0,0,-1,979,1205,0,0
-238,-181,0,0,0,0,0,0,0,0,0,-1,986,1205,0,0
-231,-181,0,0,0,0,0,0,0,0,0,-1,993,1205,0,0
-224,-181,0,0,0,0,0,0,0,0,0,-1,1000,1205,0,0
-217,-181,0,0,0,0,0,0,0,0,0,-1,1007,1205,0,0
-210,-181,0,0,0,0,0,0,0,0,0,-1,1014,1205,0,0
-203,-181,0,0,0,0,0,0,0,0,0,-1,1021,1205,0,0
-196,-181,0,0,0,0,0,0,0,0,0,-1,1028,1205,0,0
-189,-181,0,0,0,0,0,0,0,0,0,-1,1035,1205,0,0
-182,-181,0,0,0,0,0,0,0,0,0,-1,1042,1205,0,0
-175,-181,0,0,0,0,0,0,0,0,0,-1,1049,1205,0,0
-168,-181,0,0,0,0,0,0,0,0,0,-1,1056,1205,0,0
-161,-181,0,0,0,0,0,0,0,0,0,-1,1063,1205,0,0
-154,-181,0,0,0,0,0,0,0,0,0,-1,1070,1205,0,0
-147,-181,0,0,0,0,0,0,0,0,0,-1,1077,1205,0,0
-140,-181,0,0,0,0,0,0,0,0,0,-1,1084,1205,0,0
-133,-181,0,0,0,0,0,0,0,0,0,-1,1091,1205,0,0
-126,-181,0,0,0,0,0,0,0,0,0,-1,1098,1205,0,0
-119,-181,0,0,0,0,0,0,0,0,0,-1,1105,1205,0,0
-112,-181,0,0,0,0,0,0,0,0,0,-1,1112,1205,0,0
-105,-181,0,0,0,0,0,0,0,0,0,-1,1119,1205,0,0
-98,-181,0,0,0,0,0,0,0,0,0,-1,1126,1205,0,0
-91,-181,0,0,0,0,0,0,0,0,0,-1,1133,1205,0,0
-84,-181,0,0,0,0,0,0,0,0,0,-1,1140,1205,0,0
-77,-181,0,0,0,0,0,0,0,0,0,-1,1147,1205,0,0
-70,-181,0,0,0,0,0,0,0,0,0,-1,1154,1205,0,0
-63,-181,0,0,0,0,0,0,0,0,0,-1,1161,1205,0,0
-56,-181,0,0,0,0,0,0,0,0,0,-1,1168,1205,0,0
-49,-181,0,0,0,0,0,0,0,0,0,-1,1175,1205,0,0
-42,-181,0,0,0,0,0,0,0,0,0,-1,1182,1205,0,0
-35,-181,0,0,0,0,0,0,0,0,0,-1,1189,1205,0,0
-28,-181,0,0,0,0,0,0,0,0,0,-1,1196,1205,0,0
-21,-181,0,0,0,0,0,0,0,0,0,-1,1203,1205,0,0
-14,-181,0,0,0,0,0,0,0,0,0,-1,1210,1205,0,0
-7,-181,0,0,0,0,0,0,0,0,0,-1,1217,1205,0,0
0,-181,0,0,0,0,0,0,0,0,0,-1,1224,1205,0,0
7,-181,0,0,0,0,0,0,0,0,0,-1,1231,1205,0,0
14,-181,0,0,0,0,0,0,0,0,0,-1,1238,1205,0,0
21,-181,0,0,0,0,0,0,0,0,0,-1,1245,1205,0,0
28,-181,0,0,0,0,0,0,0,0,0,-1,1252,1205,0,0
35,-181,0,0,0,0,0,0,0,0,0,-1,1259,1205,0,0
42,-181,0,0,0,0,0,0,0,0,0,-1,1266,1205,0,0
49,-181,0,0,0,0,0,0,0,0,0,-1,1273,1205,0,0
56,-181,0,0,0,0,0,0,0,0,0,-1,1280,1205,0,0
63,-181,0,0,0,0,0,0,0,0,0,-1,1287,1205,0,0
70,-181,0,0,0,0,0,0,0,0,0,-1,1294,1205,0,0
77,-181,0,0,0,0,0,0,0,0,0,-1,1301,1205,0,0
84,-181,0,0,0,0,0,0,0,0,0,-1,1308,1205,0,0
91,-181,0,0,0,0,0,0,0,0,0,-1,1315,1205,0,0
98,-181,0,0,0,0,0,0,0,0,0,-1,1322,1205,0,0
105,-181,0,0,0,0,0,0,0,0,0,-1,1329,1205,0,0
112,-181,0,0,0,0,0,0,0,0,0,-1,1336,1205,0,0
119,-181,0,0,0,0,0,0,0,0,0,-1,1343,1205,0,0
126,-181,0,0,0,0,0,0,0,0,0,-1,1350,1205,0,0
133,-181,0,0,0,0,0,0,0,0,0,-1,1357,1205,0,0
140,-181,0,0,0,0,0,0,0,0,0,-1,1364,1205,0,0
147,-181,0,0,0,0,0,0,0,0,0,-1,1371,1205,0,0
154,-181,0,0,0,0,0,0,0,0,0,-1,1378,1205,0,0
161,-181,0,0,0,0,0,0,0,0,0,-1,1385,1205,0,0
168,-181,0,0,0,0,0,0,0,0,0,-1,1392,1205,0,0
175,-181,0,0,0,0,0,0,0,0,0,-1,1399,1205,0,0
182,-181,0,0,0,0,0,0,0,0,0,-1,1406,1205,0,0
189,-181,0,0,0,0,0,0,0,0,0,-1,1413,1205,0,0
196,-181,0,0,0,0,0,0,0,0,0,-1,1420,1205,0,0
203,-181,0,0,0,0,0,0,0,0,0,-1,1427,1205,0,0
210,-181,0,0,0,0,0,0,0,0,0,-1,1434,1205,0,0
217,-181,0,0,0,0,0,0,0,0,0,-1,1441,1205,0,0
224,-181,0,0,0,0,0,0,0,0,0,-1,1448,1205,0,0
231,-181,0,0,0,0,0,0,0,0,0,-1,1455,1205,0,0
238,-181,0,0,0,0,0,0,0,0,0,-1,1462,1205,0,0
245,-181,0,0,0,0,0,0,0,0,0,-1,1469,1205,0,0
252,-181,0,0,0,0,0,0,0,0,0,-1,1476,1205,0,0
259,-181,0,0,0,0,0,0,0,0,0,-1,1483,1205,0,0
266,-181,0,0,0,0,0,0,0,0,0,-1,1490,1205,0,0
273,-181,0,0,0,0,0,0,0,0,0,-1,1497,1205,0,0
280,-181,0,0,0,0,0,0,0,0,0,-1,1504,1205,0,0
287,-181,0,0,0,0,0,0,0,0,0,-1,1511,1205,0,0
294,-181,0,0,0,0,0,0,0,0,0,-1,1518,1205,0,0
301,-181,0,0,0,0,0,0,0,0,0,-1,1525,1205,0,0
308,-181,0,0,0,0,0,0,0,0,0,-1,1532,1205,0,0
315,-181,0,0,0,0,0,0,0,0,0,-1,1539,1205,0,0
322,-181,0,0,0,0,0,0,0,0,0,-1,1546,1205,0,0
329,-181,0,0,0,0,0,0,0,0,0,-1,1553,1205,0,0
336,-181,0,0,0,0,0,0,0,0,0,-1,1560,1205,0,0
343,-181,0,0,0,0,0,0,0,0,0,-1,1567,1205,0,0
350,-181,0,0,0,0,0,0,0,0,0,-1,1574,1205,0,0
357,-181,0,0,0,0,0,0,0,0,0,-1,1581,1205,0,0
364,-181,0,0,0,0,0,0,0,0,0,-1,1588,1205,0,0
371,-181,0,0,0,0,0,0,0,0,0,-1,1595,1205,0,0
378,-181,0,0,0,0,0,0,0,0,0,-1,1602,1205,0,0
385,-181,0,0,0,0,0,0,0,0,0,-1,1609,1205,0,0
392,-181,0,0,0,0,0,0,0,0,0,-1,1616,1205,0,0
399,-181,0,0,0,0,0,0,0,0,0,-1,1623,1205,0,0
406,-181,0,0,0,0,0,0,0,0,0,-1,1630,1205,0,0
413,-181,0,0,0,0,0,0,0,0,0,-1,1637,1205,0,0
420,-181,0,0,0,0,0,0,0,0,0,-1,1644,1205,0,0
427,-181,0,0,0,0,0,0,0,0,0,-1,1651,1205,0,0
434,-181,0,0,0,0,0,0,0,0,0,-1,1658,1205,0,0
441,-181,0,0,0,0,0,0,0,0,0,-1,1665,1205,0,0
448,-181,0,0,0,0,0,0,0,0,0,-1,1672,1205,0,0
455,-181,0,0,0,0,0,0,0,0,0,-1,1679,1205,0,0
462,-181,0,0,0,0,0,0,0,0,0,-1,1686,1205,0,0
469,-181,0,0,0,0,0,0,0,0,0,-1,1693,1205,0,0
476,-181,0,0,0,0,0,0,0,0,0,-1,1700,1205,0,0
483,-181,0,0,0,0,0,0,0,0,0,-1,1707,1205,0,0
490,-181,0,0,0,0,0,0,0,0,0,-1,1714,1205,0,0
497,-181,0,0,0,0,0,0,0,0,0,-1,1721,1205,0,0
504,-181,0,0,0,0,0,0,0,0,0,-1,1728,1205,0,0
511,-181,0,0,0,0,0,0,0,0,0,-1,1735,1205,0,0
518,-181,0,0,0,0,0,0,0,0,0,-1,1742,1205,0,0
525,-181,0,0,0,0,0,0,0,0,0,-1,1749,1205,0,0
532,-181,0,0,0,0,0,0,0,0,0,-1,1756,1205,0,0
539,-181,0,0,0,0,0,0,0,0,0,-1,1763,1205,0,0
546,-181,0,0,0,0,0,0,0,0,0,-1,1770,1205,0,0
553,-181,0,0,0,0,0,0,0,0,0,-1,1777,1205,0,0
560,-181,0,0,0,0,0,0,0,0,0,-1,1784,1205,0,0
567,-181,0,0,0,0,0,0,0,0,0,-1,1791,1205,0,0
574,-181,0,0,0,0,0,0,0,0,0,-1,1798,1205,0,0
581,-181,0,0,0,0,0,0,0,0,0,-1,1805,1205,0,0
588,-181,0,0,0,0,0,0,0,0,0,-1,1812,1205,0,0
595,-181,0,0,0,0,0,0,0,0,0,-1,1819,1205,0,0
602,-181,0,0,0,0,0,0,0,0,0,-1,1826,1205,0,0
609,-181,0,0,0,0,0,0,0,0,0,-1,1833,1205,0,0
616,-181,0,0,0,0,0,0,0,0,0,-1,1840,1205,0,0
623,-181,0,0,0,0,0,0,0,0,0,-1,1847,1205,0,0
630,-181,22.7573,2.87183,0.00177784,-0.00221657,0.0025041,0.00298366,-0.00342239,0.448768,0.00370142,0.0388228,1854,1205,22.7573,-2.87185
637,-181,22.7657,2.80176,0.00147165,-0.00169398,0.00196455,0.00241168,-0.00263401,0.446298,0.00291407,0.0360233,1861,1205,22.7657,-2.80175
644,-181,22.7139,3.02441,0.00125133,-0.00133132,0.00125595,0.00176138,-0.00184136,0.385756,0.00208021,0.0379029,1868,1205,22.7139,-3.02447
651,-181,22.9341,3.14246,0,0,0,0,0,0,0,-1,1875,1205,22.9341,-3.14251
658,-181,22.6563,2.74902,0.00078498,-0.00126787,0.000496372,0.000898701,-0.00138159,0.225218,0.00132633,0.0351557,1882,1205,22.6562,-2.74904
665,-181,22.521,2.6825,0.000158965,-0.00153788,0.000665643,0.000388921,-0.00176784,0.332629,0.00132733,0.0293338,1889,1205,22.5211,-2.68248
672,-181,22.5427,2.70313,-0.00051971,-0.00183217,0.000890304,-6.99196e-05,-0.00228196,0.467806,0.00149854,0.0219574,1896,1205,22.5427,-2.70311
679,-181,22.6316,2.7583,-0.00125557,-0.00205406,0.00126629,-0.000327076,-0.00298255,0.632687,0.0018888,0.0289591,1903,1205,22.6316,-2.75828
686,-181,22.7344,2.82007,0,0,0,0,0,0,0,-1,1910,1205,22.7343,-2.82003
693,-181,22.3962,3.14478,0,0,0,0,0,0,0,-1,1917,1205,22.3963,-3.14477
700,-181,20.5784,5.06189,0,0,0,0,0,0,0,-1,1924,1205,20.5784,-5.06184
707,-181,20.4465,4.9104,-0.00338064,-0.00208443,0.00215238,-0.000484693,-0.00498037,0.931635,0.00317105,0.0306361,1931,1205,20.4466,-4.91043
714,-181,20.4094,4.76221,-0.00355667,-0.00197039,0.00217261,-0.000450671,-0.00507638,0.960413,0.00324448,0.0226362,1938,1205,20.4094,-4.76221
721,-181,20.2841,4.62598,-0.00346496,-0.00168085,0.00215801,-0.000237787,-0.00490802,0.981387,0.0031957,0.0147268,1945,1205,20.284,-4.62594
728,-181,20.1707,4.50598,-0.00311274,-0.00125648,0.00219286,0.000196578,-0.0045658,0.985591,0.00311146,0.0110099,1952,1205,20.1707,-4.50596
735,-181,20.1731,4.36206,-0.00218803,-0.000316996,0.00191802,0.000881495,-0.00338652,1.0123,0.00260177,0.0108344,1959,1205,20.173,-4.36205
742,-181,20.1519,4.23511,-0.000244538,0.000518693,0.00138405,0.00157277,-0.00129862,0.919918,0.00166031,0.0154536,1966,1205,20.1519,-4.23513
749,-181,20.1512,4.09399,0.00203138,0.0014808,0.000884941,0.00268286,0.000829321,0.6346,0.00158613,0.0140962,1973,1205,20.1513,-4.09399
756,-181,20.1586,3.94055,0.00479557,0.00253492,0.000495961,0.00489959,0.0024309,0.206741,0.00282881,0.0102395,1980,1205,20.1586,-3.94049
763,-181,20.1555,3.78333,0.00795026,0.00355097,0.000418085,0.00798964,0.00351159,0.0939145,0.00462405,0.0100865,1987,1205,20.1555,-3.78336
770,-181,20.197,3.65845,0.0117988,0.00463108,0.000575834,0.0118448,0.00458511,0.0796565,0.00689644,0.0214806,1994,1205,20.197,-3.65844
777,-181,20.3973,3.8241,0.016752,0.00577805,0.00081804,0.0168127,0.00571741,0.0739985,0.00987095,0.0433254,2001,1205,20.3973,-3.82412
784,-181,20.579,3.93665,0,0,0,0,0,0,0,-1,2008,1205,20.5789,-3.93661
791,-181,21.1604,5.4209,0,0,0,0,0,0,0,-1,2015,1205,21.1604,-5.42085
798,-181,21.7917,4.61841,0,0,0,0,0,0,0,-1,2022,1205,21.7917,-4.61842
805,-181,0,0,0,0,0,0,0,0,0,-1,2029,1205,0,0
812,-181,0,0,0,0,0,0,0,0,0,-1,2036,1205,0,0
-700,-188,0,0,0,0,0,0,0,0,0,-1,524,1212,0,0
-693,-188,0,0,0,0,0,0,0,0,0,-1,531,1212,0,0
-686,-188,0,0,0,0,0,0,0,0,0,-1,538,1212,0,0
-679,-188,-11.6595,1.87878,-0.076222,0.0755146,-0.0151408,0.0770107,-0.077718,-1.47231,0.089333,0.0498277,545,1212,-11.6595,-1.87882
-672,-188,-12.6115,1.4436,-0.0581134,0.0631498,-0.0108798,0.0641182,-0.0590818,-1.48202,0.0711494,0.0490008,552,1212,-12.6115,-1.44365
-665,-188,-13.5817,0.994751,0,0,0,0,0,0,0,-1,559,1212,-13.5817,-0.994741
-658,-188,-13.6339,-0.0371094,0,0,0,0,0,0,0,-1,566,1212,-13.6339,0.0370943
-651,-188,-12.0586,0.866211,0,0,0,0,0,0,0,-1,573,1212,-12.0586,-0.866172
-644,-188,-12.074,1.03271,-0.01532,0.0238071,-0.00232002,0.0239442,-0.0154571,-1.51178,0.0229236,0.043169,580,1212,-12.074,-1.03274
-637,-188,-12.0995,1.1969,-0.00989464,0.0172201,-0.00164451,0.0173195,-0.00999401,-1.51044,0.0159574,0.0220204,587,1212,-12.0996,-1.19686
-630,-188,-12.129,1.38086,-0.00525615,0.0121481,-0.00120246,0.0122308,-0.00533883,-1.50214,0.0104007,0.0102979,594,1212,-12.129,-1.38087
-623,-188,-12.1217,1.55481,-0.0015393,0.00663604,-0.00130149,0.00683823,-0.00174149,-1.41667,0.00523675,0.0114693,601,1212,-12.1217,-1.55479
-616,-188,-12.098,1.73157,-0.000568944,0.00287276,-0.00141042,0.0033769,-0.00107309,-1.22751,0.00268152,0.0110394,608,1212,-12.0979,-1.73151
-609,-188,-12.0811,1.89929,-0.00304487,0.00106236,-0.00305837,0.00269262,-0.00467513,-1.08106,0.0043048,0.0132792,615,1212,-12.0811,-1.89934
-602,-188,-12.0961,2.07727,-0.00547384,-0.000684716,-0.00473745,0.00222896,-0.00838751,-1.0194,0.00646406,0.0162506,622,1212,-12.0961,-2.07722
-595,-188,-12.1215,2.27295,-0.00738675,-0.000958587,-0.00588115,0.00252944,-0.0108748,-1.03548,0.0082237,0.0127658,629,1212,-12.1215,-2.27291
-588,-188,-12.1322,2.46997,-0.00889979,-0.00127131,-0.00643877,0.00239818,-0.0125693,-1.0528,0.00928276,0.0105618,636,1212,-12.1322,-2.46997
-581,-188,-12.149,2.67639,-0.00979875,-0.00149601,-0.00675607,0.0022822,-0.013577,-1.06089,0.00990012,0.0104833,643,1212,-12.149,-2.67634
-574,-188,-12.2224,2.68018,-0.0102029,-0.00154581,-0.00662061,0.0020357,-0.0137844,-1.07492,0.00993789,0.0274073,650,1212,-12.2224,-2.68017
-567,-188,-12.2827,2.59424,0,0,0,0,0,0,0,-1,657,1212,-12.2827,-2.59424
-560,-188,-14.5795,0.249268,0,0,0,0,0,0,0,-1,664,1212,-14.5795,-0.249225
-553,-188,-14.7368,0.565918,-0.00880325,-0.000740974,-0.00572512,0.00222982,-0.011774,-1.09214,0.00868854,0.0468279,671,1212,-14.7367,-0.565877
-546,-188,-14.8742,0.834595,-0.00726898,-0.000254791,-0.00493853,0.00229524,-0.00981901,-1.09415,0.00743021,0.0415127,678,1212,-14.8742,-0.834613
-539,-188,-14.9167,0.967285,-0.00486859,0.000206681,-0.00399086,0.00239838,-0.00706029,-1.06858,0.00567776,0.0372125,685,1212,-14.9167,-0.967346
-532,-188,-14.964,1.19531,-0.00135232,0.000575835,-0.00293047,0.00269673,-0.00347322,-0.944314,0.00357162,0.0437315,692,1212,-14.964,-1.19531
-525,-188,-14.8749,1.31226,0.00367291,0.000651422,-0.0019571,0.00463453,-0.000310201,-0.456704,0.00319811,0.0422072,699,1212,-14.8749,-1.3123
-518,-188,-14.7974,1.19885,0.00977421,-4.22969e-05,-0.00242777,0.0103418,-0.000609903,-0.229672,0.00710657,0.0409275,706,1212,-14.7974,-1.19883
-511,-188,-14.7859,1.0625,0.0155342,-0.00212228,-0.00449546,0.0166129,-0.00320095,-0.235495,0.0122821,0.0389021,713,1212,-14.786,-1.06253
-504,-188,0,0,0,0,0,0,0,0,0,-1,720,1212,0,0
-497,-188,0,0,0,0,0,0,0,0,0,-1,727,1212,0,0
-490,-188,0,0,0,0,0,0,0,0,0,-1,734,1212,0,0
-483,-188,0,0,0,0,0,0,0,0,0,-1,741,1212,0,0
-476,-188,0,0,0,0,0,0,0,0,0,-1,748,1212,0,0
-469,-188,0,0,0,0,0,0,0,0,0,-1,755,1212,0,0
-462,-188,0,0,0,0,0,0,0,0,0,-1,762,1212,0,0
-455,-188,0,0,0,0,0,0,0,0,0,-1,769,1212,0,0
-448,-188,0,0,0,0,0,0,0,0,0,-1,776,1212,0,0
-441,-188,0,0,0,0,0,0,0,0,0,-1,783,1212,0,0
-434,-188,0,0,0,0,0,0,0,0,0,-1,790,1212,0,0
-427,-188,0,0,0,0,0,0,0,0,0,-1,797,1212,0,0
-420,-188,0,0,0,0,0,0,0,0,0,-1,804,1212,0,0
-413,-188,0,0,0,0,0,0,0,0,0,-1,811,1212,0,0
-406,-188,0,0,0,0,0,0,0,0,0,-1,818,1212,0,0
-399,-188,0,0,0,0,0,0,0,0,0,-1,825,1212,0,0
-392,-188,0,0,0,0,0,0,0,0,0,-1,832,1212,0,0
-385,-188,0,0,0,0,0,0,0,0,0,-1,839,1212,0,0
-378,-188,0,0,0,0,0,0,0,0,0,-1,846,1212,0,0
-371,-188,0,0,0,0,0,0,0,0,0,-1,853,1212,0,0
-364,-188,0,0,0,0,0,0,0,0,0,-1,860,1212,0,0
-357,-188,0,0,0,0,0,0,0,0,0,-1,867,1212,0,0
-350,-188,0,0,0,0,0,0,0,0,0,-1,874,1212,0,0
-343,-188,0,0,0,0,0,0,0,0,0,-1,881,1212,0,0
-336,-188,0,0,0,0,0,0,0,0,0,-1,888,1212,0,0
-329,-188,0,0,0,0,0,0,0,0,0,-1,895,1212,0,0
-322,-188,0,0,0,0,0,0,0,0,0,-1,902,1212,0,0
-315,-188,0,0,0,0,0,0,0,0,0,-1,909,1212,0,0
-308,-188,0,0,0,0,0,0,0,0,0,-1,916,1212,0,0
-301,-188,0,0,0,0,0,0,0,0,0,-1,923,1212,0,0
-294,-188,0,0,0,0,0,0,0,0,0,-1,930,1212,0,0
-287,-188,0,0,0,0,0,0,0,0,0,-1,937,1212,0,0
-280,-188,0,0,0,0,0,0,0,0,0,-1,944,1212,0,0
-273,-188,0,0,0,0,0,0,0,0,0,-1,951,1212,0,0
-266,-188,0,0,0,0,0,0,0,0,0,-1,958,1212,0,0
-259,-188,0,0,0,0,0,0,0,0,0,-1,965,1212,0,0
-252,-188,0,0,0,0,0,0,0,0,0,-1,972,1212,0,0
-245,-188,0,0,0,0,0,0,0,0,0,-1,979,1212,0,0
-238,-188,0,0,0,0,0,0,0,0,0,-1,986,1212,0,0
-231,-188,0,0,0,0,0,0,0,0,0,-1,993,1212,0,0
-224,-188,0,0,0,0,0,0,0,0,0,-1,1000,1212,0,0
-217,-188,0,0,0,0,0,0,0,0,0,-1,1007,1212,0,0
-210,-188,0,0,0,0,0,0,0,0,0,-1,1014,1212,0,0
-203,-188,0,0,0,0,0,0,0,0,0,-1,1021,1212,0,0
-196,-188,0,0,0,0,0,0,0,0,0,-1,1028,1212,0,0
-189,-188,0,0,0,0,0,0,0,0,0,-1,1035,1212,0,0
-182,-188,0,0,0,0,0,0,0,0,0,-1,1042,1212,0,0
-175,-188,0,0,0,0,0,0,0,0,0,-1,1049,1212,0,0
-168,-188,0,0,0,0,0,0,0,0,0,-1,1056,1212,0,0
-161,-188,0,0,0,0,0,0,0,0,0,-1,1063,1212,0,0
-154,-188,0,0,0,0,0,0,0,0,0,-1,1070,1212,0,0
-147,-188,0,0,0,0,0,0,0,0,0,-1,1077,1212,0,0
-140,-188,0,0,0,0,0,0,0,0,0,-1,1084,1212,0,0
-133,-188,0,0,0,0,0,0,0,0,0,-1,1091,1212,0,0
-126,-188,0,0,0,0,0,0,0,0,0,-1,1098,1212,0,0
-119,-188,0,0,0,0,0,0,0,0,0,-1,1105,1212,0,0
-112,-188,0,0,0,0,0,0,0,0,0,-1,1112,1212,0,0
-105,-188,0,0,0,0,0,0,0,0,0,-1,1119,1212,0,0
-98,-188,0,0,0,0,0,0,0,0,0,-1,1126,1212,0,0
-91,-188,0,0,0,0,0,0,0,0,0,-1,1133,1212,0,0
-84,-188,0,0,0,0,0,0,0,0,0,-1,1140,1212,0,0
-77,-188,0,0,0,0,0,0,0,0,0,-1,1147,1212,0,0
-70,-188,0,0,0,0,0,0,0,0,0,-1,1154,1212,0,0
-63,-188,0,0,0,0,0,0,0,0,0,-1,1161,1212,0,0
-56,-188,0,0,0,0,0,0,0,0,0,-1,1168,1212,0,0
-49,-188,0,0,0,0,0,0,0,0,0,-1,1175,1212,0,0
-42,-188,0,0,0,0,0,0,0,0,0,-1,1182,1212,0,0
-35,-188,0,0,0,0,0,0,0,0,0,-1,1189,1212,0,0
-28,-188,0,0,0,0,0,0,0,0,0,-1,1196,1212,0,0
-21,-188,0,0,0,0,0,0,0,0,0,-1,1203,1212,0,0
-14,-188,0,0,0,0,0,0,0,0,0,-1,1210,1212,0,0
-7,-188,0,0,0,0,0,0,0,0,0,-1,1217,1212,0,0
0,-188,0,0,0,0,0,0,0,0,0,-1,1224,1212,0,0
7,-188,0,0,0,0,0,0,0,0,0,-1,1231,1212,0,0
14,-188,0,0,0,0,0,0,0,0,0,-1,1238,1212,0,0
21,-188,0,0,0,0,0,0,0,0,0,-1,1245,1212,0,0
28,-188,0,0,0,0,0,0,0,0,0,-1,1252,1212,0,0
35,-188,0,0,0,0,0,0,0,0,0,-1,1259,1212,0,0
42,-188,0,0,0,0,0,0,0,0,0,-1,1266,1212,0,0
49,-188,0,0,0,0,0,0,0,0,0,-1,1273,1212,0,0
56,-188,0,0,0,0,0,0,0,0,0,-1,1280,1212,0,0
63,-188,0,0,0,0,0,0,0,0,0,-1,1287,1212,0,0
70,-188,0,0,0,0,0,0,0,0,0,-1,1294,1212,0,0
77,-188,0,0,0,0,0,0,0,0,0,-1,1301,1212,0,0
84,-188,0,0,0,0,0,0,0,0,0,-1,1308,1212,0,0
91,-188,0,0,0,0,0,0,0,0,0,-1,1315,1212,0,0
98,-188,0,0,0,0,0,0,0,0,0,-1,1322,1212,0,0
105,-188,0,0,0,0,0,0,0,0,0,-1,1329,1212,0,0
112,-188,0,0,0,0,0,0,0,0,0,-1,1336,1212,0,0
119,-188,0,0,0,0,0,0,0,0,0,-1,1343,1212,0,0
126,-188,0,0,0,0,0,0,0,0,0,-1,1350,1212,0,0
133,-188,0,0,0,0,0,0,0,0,0,-1,1357,1212,0,0
140,-188,0,0,0,0,0,0,0,0,0,-1,1364,1212,0,0
147,-188,0,0,0,0,0,0,0,0,0,-1,1371,1212,0,0
154,-188,0,0,0,0,0,0,0,0,0,-1,1378,1212,0,0
161,-188,0,0,0,0,0,0,0,0,0,-1,1385,1212,0,0
168,-188,0,0,0,0,0,0,0,0,0,-1,1392,1212,0,0
175,-188,0,0,0,0,0,0,0,0,0,-1,1399,1212,0,0
182,-188,0,0,0,0,0,0,0,0,0,-1,1406,1212,0,0
189,-188,0,0,0,0,0,0,0,0,0,-1,1413,1212,0,0
196,-188,0,0,0,0,0,0,0,0,0,-1,1420,1212,0,0
203,-188,0,0,0,0,0,0,0,0,0,-1,1427,1212,0,0
210,-188,0,0,0,0,0,0,0,0,0,-1,1434,1212,0,0
217,-188,0,0,0,0,0,0,0,0,0,-1,1441,1212,0,0
224,-188,0,0,0,0,0,0,0,0,0,-1,1448,1212,0,0
231,-188,0,0,0,0,0,0,0,0,0,-1,1455,1212,0,0
238,-188,0,0,0,0,0,0,0,0,0,-1,1462,1212,0,0
245,-188,0,0,0,0,0,0,0,0,0,-1,1469,1212,0,0
252,-188,0,0,0,0,0,0,0,0,0,-1,1476,1212,0,0
259,-188,0,0,0,0,0,0,0,0,0,-1,1483,1212,0,0
266,-188,0,0,0,0,0,0,0,0,0,-1,1490,1212,0,0
273,-188,0,0,0,0,0,0,0,0,0,-1,1497,1212,0,0
280,-188,0,0,0,0,0,0,0,0,0,-1,1504,1212,0,0
287,-188,0,0,0,0,0,0,0,0,0,-1,1511,1212,0,0
294,-188,0,0,0,0,0,0,0,0,0,-1,1518,1212,0,0
301,-188,0,0,0,0,0,0,0,0,0,-1,1525,1212,0,0
308,-188,0,0,0,0,0,0,0,0,0,-1,1532,1212,0,0
315,-188,0,0,0,0,0,0,0,0,0,-1,1539,1212,0,0
322,-188,0,0,0,0,0,0,0,0,0,-1,1546,1212,0,0
329,-188,0,0,0,0,0,0,0,0,0,-1,1553,1212,0,0
336,-188,0,0,0,0,0,0,0,0,0,-1,1560,1212,0,0
343,-188,0,0,0,0,0,0,0,0,0,-1,1567,1212,0,0
350,-188,0,0,0,0,0,0,0,0,0,-1,1574,1212,0,0
357,-188,0,0,0,0,0,0,0,0,0,-1,1581,1212,0,0
364,-188,0,0,0,0,0,0,0,0,0,-1,1588,1212,0,0
371,-188,0,0,0,0,0,0,0,0,0,-1,1595,1212,0,0
378,-188,0,0,0,0,0,0,0,0,0,-1,1602,1212,0,0
385,-188,0,0,0,0,0,0,0,0,0,-1,1609,1212,0,0
392,-188,0,0,0,0,0,0,0,0,0,-1,1616,1212,0,0
399,-188,0,0,0,0,0,0,0,0,0,-1,1623,1212,0,0
406,-188,0,0,0,0,0,0,0,0,0,-1,1630,1212,0,0
413,-188,0,0,0,0,0,0,0,0,0,-1,1637,1212,0,0
420,-188,0,0,0,0,0,0,0,0,0,-1,1644,1212,0,0
427,-188,0,0,0,0,0,0,0,0,0,-1,1651,1212,0,0
434,-188,0,0,0,0,0,0,0,0,0,-1,1658,1212,0,0
441,-188,0,0,0,0,0,0,0,0,0,-1,1665,1212,0,0
448,-188,0,0,0,0,0,0,0,0,0,-1,1672,1212,0,0
455,-188,0,0,0,0,0,0,0,0,0,-1,1679,1212,0,0
462,-188,0,0,0,0,0,0,0,0,0,-1,1686,1212,0,0
469,-188,0,0,0,0,0,0,0,0,0,-1,1693,1212,0,0
476,-188,0,0,0,0,0,0,0,0,0,-1,1700,1212,0,0
483,-188,0,0,0,0,0,0,0,0,0,-1,1707,1212,0,0
490,-188,0,0,0,0,0,0,0,0,0,-1,1714,1212,0,0
497,-188,0,0,0,0,0,0,0,0,0,-1,1721,1212,0,0
504,-188,0,0,0,0,0,0,0,0,0,-1,1728,1212,0,0
511,-188,0,0,0,0,0,0,0,0,0,-1,1735,1212,0,0
518,-188,0,0,0,0,0,0,0,0,0,-1,1742,1212,0,0
525,-188,0,0,0,0,0,0,0,0,0,-1,1749,1212,0,0
532,-188,0,0,0,0,0,0,0,0,0,-1,1756,1212,0,0
539,-188,0,0,0,0,0,0,0,0,0,-1,1763,1212,0,0
546,-188,0,0,0,0,0,0,0,0,0,-1,1770,1212,0,0
553,-188,0,0,0,0,0,0,0,0,0,-1,1777,1212,0,0
560,-188,0,0,0,0,0,0,0,0,0,-1,1784,1212,0,0
567,-188,0,0,0,0,0,0,0,0,0,-1,1791,1212,0,0
574,-188,0,0,0,0,0,0,0,0,0,-1,1798,1212,0,0
581,-188,0,0,0,0,0,0,0,0,0,-1,1805,1212,0,0
588,-188,0,0,0,0,0,0,0,0,0,-1,1812,1212,0,0
595,-188,0,0,0,0,0,0,0,0,0,-1,1819,1212,0,0
602,-188,0,0,0,0,0,0,0,0,0,-1,1826,1212,0,0
609,-188,0,0,0,0,0,0,0,0,0,-1,1833,1212,0,0
616,-188,0,0,0,0,0,0,0,0,0,-1,1840,1212,0,0
623,-188,0,0,0,0,0,0,0,0,0,-1,1847,1212,0,0
630,-188,22.6287,2.84351,0.00126464,-0.000985708,0.00161297,0.00210611,-0.00182717,0.480848,0.00227278,0.0426154,1854,1212,22.6286,-2.84349
637,-188,22.6172,2.78662,0.00121925,-0.000691349,0.001187,0.00178762,-0.00125972,0.446566,0.00176816,0.039186,1861,1212,22.6172,-2.78656
644,-188,22.5321,2.77832,0.00107161,-0.000628028,0.000634151,0.00128214,-0.000838558,0.320539,0.00123328,0.0349758,1868,1212,22.5321,-2.77836
651,-188,22.4906,2.74353,0.00094774,-0.000819168,0.000211291,0.000972656,-0.000844083,0.117378,0.00104977,0.0334087,1875,1212,22.4906,-2.74347
658,-188,22.5742,2.67236,0.00053314,-0.00122608,0.000227189,0.000562006,-0.00125495,0.12638,0.00107415,0.0327603,1882,1212,22.5743,-2.67237
665,-188,22.5454,2.70386,2.53153e-05,-0.00164828,0.000410081,0.000120396,-0.00174336,0.227832,0.00120438,0.0296403,1889,1212,22.5454,-2.7038
672,-188,22.5807,2.74133,-0.000530106,-0.00205065,0.000634853,-0.000299897,-0.00228086,0.347871,0.00143112,0.024186,1896,1212,22.5807,-2.74128
679,-188,22.7133,2.81348,-0.0011234,-0.00231307,0.00100017,-0.000554551,-0.00288192,0.51713,0.0017657,0.0469857,1903,1212,22.7132,-2.81347
686,-188,22.8206,2.93042,0,0,0,0,0,0,0,-1,1910,1212,22.8206,-2.93039
693,-188,20.5654,4.6886,0,0,0,0,0,0,0,-1,1917,1212,20.5655,-4.68865
700,-188,20.4135,4.79688,-0.00250791,-0.00255457,0.00158982,-0.000941252,-0.00412123,0.778061,0.00249367,0.0499683,1924,1212,20.4134,-4.7969
707,-188,20.1636,4.92871,-0.00287216,-0.00234491,0.00182703,-0.000762583,-0.00445448,0.857049,0.00275092,0.0166083,1931,1212,20.1635,-4.92871
714,-188,20.1316,4.8219,-0.00300851,-0.00216837,0.00183585,-0.000705142,-0.00447174,0.897869,0.00277613,0.0129995,1938,1212,20.1317,-4.82186
721,-188,20.0582,4.68518,-0.00280755,-0.00178642,0.00179268,-0.000433014,-0.00416096,0.924128,0.00264149,0.0112706,1945,1212,20.0583,-4.6852
728,-188,20.0205,4.53259,-0.00234449,-0.00120523,0.00179214,0.000105632,-0.00365535,0.939274,0.00247286,0.00950535,1952,1212,20.0206,-4.53256
735,-188,19.9955,4.38794,-0.00133341,-1.82661e-05,0.00148346,0.000946831,-0.0022985,0.994019,0.0019271,0.0126709,1959,1212,19.9955,-4.38794
742,-188,19.9778,4.2262,0.000658438,0.00117569,0.000866091,0.00182095,1.31836e-05,0.930491,0.00120959,0.0142807,1966,1212,19.9778,-4.22618
749,-188,19.9849,4.07959,0.00293833,0.00255194,0.000286935,0.00309105,0.00239922,0.489102,0.00187317,0.0131753,1973,1212,19.9848,-4.07954
756,-188,20.0001,3.9325,0.00568724,0.00416776,-0.000216852,0.00571758,0.00413742,-0.139019,0.00340933,0.0116611,1980,1212,20.0001,-3.93251
763,-188,20.0063,3.76074,0.00890984,0.00599977,-0.000500416,0.00899349,0.00591612,-0.165624,0.00527791,0.0123328,1987,1212,20.0063,-3.76078
770,-188,20.046,3.59875,0.0128987,0.00827271,-0.000674209,0.0129949,0.00817645,-0.141816,0.00758566,0.0195707,1994,1212,20.0461,-3.59875
777,-188,20.2651,3.76746,0.0178935,0.0110562,-0.000824526,0.0179915,0.0109582,-0.118334,0.0104695,0.0436328,2001,1212,20.2651,-3.76752
784,-188,20.4834,3.88916,0,0,0,0,0,0,0,-1,2008,1212,20.4834,-3.88911
791,-188,19.8834,3.29199,0,0,0,0,0,0,0,-1,2015,1212,19.8834,-3.29201
798,-188,20.4855,2.70129,0,0,0,0,0,0,0,-1,2022,1212,20.4855,-2.70129
805,-188,0,0,0,0,0,0,0,0,0,-1,2029,1212,0,0
812,-188,0,0,0,0,0,0,0,0,0,-1,2036,1212,0,0
-700,-195,0,0,0,0,0,0,0,0,0,-1,524,1219,0,0
-693,-195,0,0,0,0,0,0,0,0,0,-1,531,1219,0,0
-686,-195,0,0,0,0,0,0,0,0,0,-1,538,1219,0,0
-679,-195,-12.0981,1.5647,0,0,0,0,0,0,0,-1,545,1219,-12.0981,-1.5647
-672,-195,-12.9908,1.20593,-0.0462391,0.071218,-0.0107942,0.0722018,-0.0472228,-1.47991,0.0694507,0.0484123,552,1219,-12.9908,-1.20592
-665,-195,-13.7694,0.319092,0,0,0,0,0,0,0,-1,559,1219,-13.7694,-0.319144
-658,-195,-14.2039,-0.594604,0,0,0,0,0,0,0,-1,566,1219,-14.2038,0.594576
-651,-195,-12.5648,1.32129,0,0,0,0,0,0,0,-1,573,1219,-12.5648,-1.32127
-644,-195,-12.2153,1.27478,-0.0091709,0.0271634,-0.000896424,0.0271855,-0.009193,-1.54614,0.0218427,0.0418582,580,1219,-12.2153,-1.27481
-637,-195,-11.8497,1.19006,-0.00521584,0.0197906,-0.000368444,0.019796,-0.00522127,-1.55607,0.0152389,0.0228891,587,1219,-11.8497,-1.19002
-630,-195,-11.9291,1.36279,-0.00188199,0.0141091,-0.000147275,0.0141105,-0.00188334,-1.56159,0.0100935,0.00798623,594,1219,-11.9291,-1.36279
-623,-195,-11.9308,1.54639,0.00082037,0.0080712,-0.00020203,0.00807682,0.000814745,-1.54296,0.00513456,0.00788635,601,1219,-11.9308,-1.54633
-616,-195,-11.9149,1.73425,0.00103647,0.00376953,-0.000481323,0.00385182,0.000954184,-1.40147,0.00231628,0.00958348,608,1219,-11.9149,-1.73424
-609,-195,-11.9288,1.89648,-0.00186246,0.00205271,-0.00225323,0.00307995,-0.0028897,-1.14305,0.00344716,0.0172105,615,1219,-11.9288,-1.89651
-602,-195,-11.9415,2.07776,-0.00425459,-0.000136968,-0.00400992,0.00231179,-0.00670334,-1.02257,0.00540682,0.0218224,622,1219,-11.9415,-2.07773
-595,-195,-11.9738,2.29932,-0.00603439,-0.000493763,-0.00507499,0.0025178,-0.00904596,-1.03523,0.00702202,0.0154718,629,1219,-11.9737,-2.29935
-588,-195,-11.9442,2.47986,-0.00736577,-0.000820336,-0.00545703,0.00227011,-0.0104562,-1.05551,0.00783787,0.00792971,636,1219,-11.9442,-2.47981
-581,-195,-11.968,2.61743,-0.00810725,-0.00104199,-0.00562977,0.00207171,-0.011221,-1.06559,0.00825829,0.00984619,643,1219,-11.968,-2.61749
-574,-195,-12.0349,2.59924,-0.00839897,-0.00107568,-0.00534656,0.0017429,-0.0112176,-1.08564,0.00812191,0.0248183,650,1219,-12.0349,-2.59919
-567,-195,-12.0703,2.54541,0,0,0,0,0,0,0,-1,657,1219,-12.0703,-2.54543
-560,-195,-15.0869,0.962646,0,0,0,0,0,0,0,-1,664,1219,-15.0869,-0.962705
-553,-195,-15.0249,0.987061,-0.00727333,0.000224583,-0.00456009,0.00237894,-0.00942769,-1.12944,0.00721013,0.0466984,671,1219,-15.0249,-0.987089
-546,-195,-14.916,0.963135,-0.00629154,0.000982049,-0.00399683,0.00274904,-0.00805853,-1.15453,0.00648589,0.0429639,678,1219,-14.916,-0.963131
-539,-195,-14.8973,0.950684,-0.00471506,0.00168931,-0.00339223,0.00315201,-0.00617776,-1.16369,0.00548016,0.0351132,685,1219,-14.8974,-0.950733
-532,-195,-15.0118,1.03003,-0.00241101,0.00233787,-0.00280156,0.00363585,-0.00370899,-1.13693,0.00424062,0.0359107,692,1219,-15.0118,-1.03003
-525,-195,-15.084,1.14014,0.00102401,0.00274486,-0.0023451,0.0043824,-0.000613529,-0.961225,0.00314611,0.0394629,699,1219,-15.084,-1.14013
-518,-195,-15.2172,1.5625,0.00551115,0.00243873,-0.00294042,0.00729247,0.000657403,-0.544677,0.004658,0.0403007,706,1219,-15.2171,-1.56247
-511,-195,-15.1771,1.65088,0.0106236,0.00069775,-0.00491583,0.012646,-0.00132474,-0.390317,0.00890519,0.042389,713,1219,-15.1771,-1.65084
-504,-195,0,0,0,0,0,0,0,0,0,-1,720,1219,0,0
-497,-195,0,0,0,0,0,0,0,0,0,-1,727,1219,0,0
-490,-195,0,0,0,0,0,0,0,0,0,-1,734,1219,0,0
-483,-195,0,0,0,0,0,0,0,0,0,-1,741,1219,0,0
-476,-195,0,0,0,0,0,0,0,0,0,-1,748,1219,0,0
-469,-195,0,0,0,0,0,0,0,0,0,-1,755,1219,0,0
-462,-195,0,0,0,0,0,0,0,0,0,-1,762,1219,0,0
-455,-195,0,0,0,0,0,0,0,0,0,-1,769,1219,0,0
-448,-195,0,0,0,0,0,0,0,0,0,-1,776,1219,0,0
-441,-195,0,0,0,0,0,0,0,0,0,-1,783,1219,0,0
-434,-195,0,0,0,0,0,0,0,0,0,-1,790,1219,0,0
-427,-195,0,0,0,0,0,0,0,0,0,-1,797,1219,0,0
-420,-195,0,0,0,0,0,0,0,0,0,-1,804,1219,0,0
-413,-195,0,0,0,0,0,0,0,0,0,-1,811,1219,0,0
-406,-195,0,0,0,0,0,0,0,0,0,-1,818,1219,0,0
-399,-195,0,0,0,0,0,0,0,0,0,-1,825,1219,0,0
-392,-195,0,0,0,0,0,0,0,0,0,-1,832,1219,0,0
-385,-195,0,0,0,0,0,0,0,0,0,-1,839,1219,0,0
-378,-195,0,0,0,0,0,0,0,0,0,-1,846,1219,0,0
-371,-195,0,0,0,0,0,0,0,0,0,-1,853,1219,0,0
-364,-195,0,0,0,0,0,0,0,0,0,-1,860,1219,0,0
-357,-195,0,0,0,0,0,0,0,0,0,-1,867,1219,0,0
-350,-195,0,0,0,0,0,0,0,0,0,-1,874,1219,0,0
-343,-195,0,0,0,0,0,0,0,0,0,-1,881,1219,0,0
-336,-195,0,0,0,0,0,0,0,0,0,-1,888,1219,0,0
-329,-195,0,0,0,0,0,0,0,0,0,-1,895,1219,0,0
-322,-195,0,0,0,0,0,0,0,0,0,-1,902,1219,0,0
-315,-195,0,0,0,0,0,0,0,0,0,-1,909,1219,0,0
-308,-195,0,0,0,0,0,0,0,0,0,-1,916,1219,0,0
-301,-195,0,0,0,0,0,0,0,0,0,-1,923,1219,0,0
-294,-195,0,0,0,0,0,0,0,0,0,-1,930,1219,0,0
-287,-195,0,0,0,0,0,0,0,0,0,-1,937,1219,0,0
-280,-195,0,0,0,0,0,0,0,0,0,-1,944,1219,0,0
-273,-195,0,0,0,0,0,0,0,0,0,-1,951,1219,0,0
-266,-195,0,0,0,0,0,0,0,0,0,-1,958,1219,0,0
-259,-195,0,0,0,0,0,0,0,0,0,-1,965,1219,0,0
-252,-195,0,0,0,0,0,0,0,0,0,-1,972,1219,0,0
-245,-195,0,0,0,0,0,0,0,0,0,-1,979,1219,0,0
-238,-195,0,0,0,0,0,0,0,0,0,-1,986,1219,0,0
-231,-195,0,0,0,0,0,0,0,0,0,-1,993,1219,0,0
-224,-195,0,0,0,0,0,0,0,0,0,-1,1000,1219,0,0
-217,-195,0,0,0,0,0,0,0,0,0,-1,1007,1219,0,0
-210,-195,0,0,0,0,0,0,0,0,0,-1,1014,1219,0,0
-203,-195,0,0,0,0,0,0,0,0,0,-1,1021,1219,0,0
-196,-195,0,0,0,0,0,0,0,0,0,-1,1028,1219,0,0
-189,-195,0,0,0,0,0,0,0,0,0,-1,1035,1219,0,0
-182,-195,0,0,0,0,0,0,0,0,0,-1,1042,1219,0,0
-175,-195,0,0,0,0,0,0,0,0,0,-1,1049,1219,0,0
-168,-195,0,0,0,0,0,0,0,0,0,-1,1056,1219,0,0
-161,-195,0,0,0,0,0,0,0,0,0,-1,1063,1219,0,0
-154,-195,0,0,0,0,0,0,0,0,0,-1,1070,1219,0,0
-147,-195,0,0,0,0,0,0,0,0,0,-1,1077,1219,0,0
-140,-195,0,0,0,0,0,0,0,0,0,-1,1084,1219,0,0
-133,-195,0,0,0,0,0,0,0,0,0,-1,1091,1219,0,0
-126,-195,0,0,0,0,0,0,0,0,0,-1,1098,1219,0,0
-119,-195,0,0,0,0,0,0,0,0,0,-1,1105,1219,0,0
-112,-195,0,0,0,0,0,0,0,0,0,-1,1112,1219,0,0
-105,-195,0,0,0,0,0,0,0,0,0,-1,1119,1219,0,0
-98,-195,0,0,0,0,0,0,0,0,0,-1,1126,1219,0,0
-91,-195,0,0,0,0,0,0,0,0,0,-1,1133,1219,0,0
-84,-195,0,0,0,0,0,0,0,0,0,-1,1140,1219,0,0
-77,-195,0,0,0,0,0,0,0,0,0,-1,1147,1219,0,0
-70,-195,0,0,0,0,0,0,0,0,0,-1,1154,1219,0,0
-63,-195,0,0,0,0,0,0,0,0,0,-1,1161,1219,0,0
-56,-195,0,0,0,0,0,0,0,0,0,-1,1168,1219,0,0
-49,-195,0,0,0,0,0,0,0,0,0,-1,1175,1219,0,0
-42,-195,0,0,0,0,0,0,0,0,0,-1,1182,1219,0,0
-35,-195,0,0,0,0,0,0,0,0,0,-1,1189,1219,0,0
-28,-195,0,0,0,0,0,0,0,0,0,-1,1196,1219,0,0
-21,-195,0,0,0,0,0,0,0,0,0,-1,1203,1219,0,0
-14,-195,0,0,0,0,0,0,0,0,0,-1,1210,1219,0,0
-7,-195,0,0,0,0,0,0,0,0,0,-1,1217,1219,0,0
0,-195,0,0,0,0,0,0,0,0,0,-1,1224,1219,0,0
7,-195,0,0,0,0,0,0,0,0,0,-1,1231,1219,0,0
14,-195,0,0,0,0,0,0,0,0,0,-1,1238,1219,0,0
21,-195,0,0,0,0,0,0,0,0,0,-1,1245,1219,0,0
28,-195,0,0,0,0,0,0,0,0,0,-1,1252,1219,0,0
35,-195,0,0,0,0,0,0,0,0,0,-1,1259,1219,0,0
42,-195,0,0,0,0,0,0,0,0,0,-1,1266,1219,0,0
49,-195,0,0,0,0,0,0,0,0,0,-1,1273,1219,0,0
56,-195,0,0,0,0,0,0,0,0,0,-1,1280,1219,0,0
63,-195,0,0,0,0,0,0,0,0,0,-1,1287,1219,0,0
70,-195,0,0,0,0,0,0,0,0,0,-1,1294,1219,0,0
77,-195,0,0,0,0,0,0,0,0,0,-1,1301,1219,0,0
84,-195,0,0,0,0,0,0,0,0,0,-1,1308,1219,0,0
91,-195,0,0,0,0,0,0,0,0,0,-1,1315,1219,0,0
98,-195,0,0,0,0,0,0,0,0,0,-1,1322,1219,0,0
105,-195,0,0,0,0,0,0,0,0,0,-1,1329,1219,0,0
112,-195,0,0,0,0,0,0,0,0,0,-1,1336,1219,0,0
119,-195,0,0,0,0,0,0,0,0,0,-1,1343,1219,0,0
126,-195,0,0,0,0,0,0,0,0,0,-1,1350,1219,0,0
133,-195,0,0,0,0,0,0,0,0,0,-1,1357,1219,0,0
140,-195,0,0,0,0,0,0,0,0,0,-1,1364,1219,0,0
147,-195,0,0,0,0,0,0,0,0,0,-1,1371,1219,0,0
154,-195,0,0,0,0,0,0,0,0,0,-1,1378,1219,0,0
161,-195,0,0,0,0,0,0,0,0,0,-1,1385,1219,0,0
168,-195,0,0,0,0,0,0,0,0,0,-1,1392,1219,0,0
175,-195,0,0,0,0,0,0,0,0,0,-1,1399,1219,0,0
182,-195,0,0,0,0,0,0,0,0,0,-1,1406,1219,0,0
189,-195,0,0,0,0,0,0,0,0,0,-1,1413,1219,0,0
196,-195,0,0,0,0,0,0,0,0,0,-1,1420,1219,0,0
203,-195,0,0,0,0,0,0,0,0,0,-1,1427,1219,0,0
210,-195,0,0,0,0,0,0,0,0,0,-1,1434,1219,0,0
217,-195,0,0,0,0,0,0,0,0,0,-1,1441,1219,0,0
224,-195,0,0,0,0,0,0,0,0,0,-1,1448,1219,0,0
231,-195,0,0,0,0,0,0,0,0,0,-1,1455,1219,0,0
238,-195,0,0,0,0,0,0,0,0,0,-1,1462,1219,0,0
245,-195,0,0,0,0,0,0,0,0,0,-1,1469,1219,0,0
252,-195,0,0,0,0,0,0,0,0,0,-1,1476,1219,0,0
259,-195,0,0,0,0,0,0,0,0,0,-1,1483,1219,0,0
266,-195,0,0,0,0,0,0,0,0,0,-1,1490,1219,0,0
273,-195,0,0,0,0,0,0,0,0,0,-1,1497,1219,0,0
280,-195,0,0,0,0,0,0,0,0,0,-1,1504,1219,0,0
287,-195,0,0,0,0,0,0,0,0,0,-1,1511,1219,0,0
294,-195,0,0,0,0,0,0,0,0,0,-1,1518,1219,0,0
301,-195,0,0,0,0,0,0,0,0,0,-1,1525,1219,0,0
308,-195,0,0,0,0,0,0,0,0,0,-1,1532,1219,0,0
315,-195,0,0,0,0,0,0,0,0,0,-1,1539,1219,0,0
322,-195,0,0,0,0,0,0,0,0,0,-1,1546,1219,0,0
329,-195,0,0,0,0,0,0,0,0,0,-1,1553,1219,0,0
336,-195,0,0,0,0,0,0,0,0,0,-1,1560,1219,0,0
343,-195,0,0,0,0,0,0,0,0,0,-1,1567,1219,0,0
350,-195,0,0,0,0,0,0,0,0,0,-1,1574,1219,0,0
357,-195,0,0,0,0,0,0,0,0,0,-1,1581,1219,0,0
364,-195,0,0,0,0,0,0,0,0,0,-1,1588,1219,0,0
371,-195,0,0,0,0,0,0,0,0,0,-1,1595,1219,0,0
378,-195,0,0,0,0,0,0,0,0,0,-1,1602,1219,0,0
385,-195,0,0,0,0,0,0,0,0,0,-1,1609,1219,0,0
392,-195,0,0,0,0,0,0,0,0,0,-1,1616,1219,0,0
399,-195,0,0,0,0,0,0,0,0,0,-1,1623,1219,0,0
406,-195,0,0,0,0,0,0,0,0,0,-1,1630,1219,0,0
413,-195,0,0,0,0,0,0,0,0,0,-1,1637,1219,0,0
420,-195,0,0,0,0,0,0,0,0,0,-1,1644,1219,0,0
427,-195,0,0,0,0,0,0,0,0,0,-1,1651,1219,0,0
434,-195,0,0,0,0,0,0,0,0,0,-1,1658,1219,0,0
441,-195,0,0,0,0,0,0,0,0,0,-1,1665,1219,0,0
448,-195,0,0,0,0,0,0,0,0,0,-1,1672,1219,0,0
455,-195,0,0,0,0,0,0,0,0,0,-1,1679,1219,0,0
462,-195,0,0,0,0,0,0,0,0,0,-1,1686,1219,0,0
469,-195,0,0,0,0,0,0,0,0,0,-1,1693,1219,0,0
476,-195,0,0,0,0,0,0,0,0,0,-1,1700,1219,0,0
483,-195,0,0,0,0,0,0,0,0,0,-1,1707,1219,0,0
490,-195,0,0,0,0,0,0,0,0,0,-1,1714,1219,0,0
497,-195,0,0,0,0,0,0,0,0,0,-1,1721,1219,0,0
504,-195,0,0,0,0,0,0,0,0,0,-1,1728,1219,0,0
511,-195,0,0,0,0,0,0,0,0,0,-1,1735,1219,0,0
518,-195,0,0,0,0,0,0,0,0,0,-1,1742,1219,0,0
525,-195,0,0,0,0,0,0,0,0,0,-1,1749,1219,0,0
532,-195,0,0,0,0,0,0,0,0,0,-1,1756,1219,0,0
539,-195,0,0,0,0,0,0,0,0,0,-1,1763,1219,0,0
546,-195,0,0,0,0,0,0,0,0,0,-1,1770,1219,0,0
553,-195,0,0,0,0,0,0,0,0,0,-1,1777,1219,0,0
560,-195,0,0,0,0,0,0,0,0,0,-1,1784,1219,0,0
567,-195,0,0,0,0,0,0,0,0,0,-1,1791,1219,0,0
574,-195,0,0,0,0,0,0,0,0,0,-1,1798,1219,0,0
581,-195,0,0,0,0,0,0,0,0,0,-1,1805,1219,0,0
588,-195,0,0,0,0,0,0,0,0,0,-1,1812,1219,0,0
595,-195,0,0,0,0,0,0,0,0,0,-1,1819,1219,0,0
602,-195,0,0,0,0,0,0,0,0,0,-1,1826,1219,0,0
609,-195,0,0,0,0,0,0,0,0,0,-1,1833,1219,0,0
616,-195,0,0,0,0,0,0,0,0,0,-1,1840,1219,0,0
623,-195,0,0,0,0,0,0,0,0,0,-1,1847,1219,0,0
630,-195,22.5208,2.70325,0.000723696,0.000264764,0.000787223,0.00131421,-0.000325755,0.643584,0.00100253,0.0417732,1854,1219,22.5208,-2.70324
637,-195,22.483,2.71021,0.000651129,0.000417178,0.000394696,0.000945819,0.000122489,0.641337,0.000593941,0.0391191,1861,1219,22.483,-2.71026
644,-195,22.4897,2.70313,0.000466119,0.00023188,-1.50711e-05,0.000467085,0.000230915,-0.0639892,0.000269677,0.0330011,1868,1219,22.4897,-2.70313
651,-195,22.5048,2.69336,0.000319729,-0.000304266,-0.000206775,0.000382029,-0.000366565,-0.292642,0.000432232,0.0266626,1875,1219,22.5048,-2.69332
658,-195,22.5427,2.69031,7.2565e-05,-0.000926587,-0.000112565,8.50896e-05,-0.000939111,-0.11081,0.000656279,0.0242292,1882,1219,22.5427,-2.69031
665,-195,22.5673,2.70129,-0.000199851,-0.00149952,8.07829e-05,-0.000194849,-0.00150452,0.0618395,0.000944784,0.0232209,1889,1219,22.5672,-2.70126
672,-195,22.6469,2.68164,-0.000543416,-0.0020139,0.000305689,-0.0004824,-0.00207491,0.197012,0.0012538,0.0366609,1896,1219,22.6469,-2.68164
679,-195,22.7766,2.81519,0,0,0,0,0,0,0,-1,1903,1219,22.7767,-2.81514
686,-195,22.8591,2.95166,0,0,0,0,0,0,0,-1,1910,1219,22.8592,-2.95166
693,-195,20.1344,4.93835,0,0,0,0,0,0,0,-1,1917,1219,20.1344,-4.93837
700,-195,20.006,5.01978,-0.00178111,-0.00269984,0.00122393,-0.00093318,-0.00354777,0.605873,0.0021236,0.0385796,1924,1219,20.006,-5.01976
707,-195,19.8743,5.05542,-0.00208861,-0.00247122,0.00143769,-0.000829549,-0.00373028,0.719255,0.00226163,0.0170193,1931,1219,19.8743,-5.0554
714,-195,19.8693,4.88904,-0.00218184,-0.00221572,0.00142681,-0.000771867,-0.00362569,0.779464,0.00220533,0.0164678,1938,1219,19.8692,-4.88903
721,-195,19.8711,4.72424,-0.00192483,-0.00174085,0.00135035,-0.000479357,-0.00318632,0.819407,0.00198383,0.0114919,1945,1219,19.871,-4.7243
728,-195,19.8619,4.56543,-0.00143892,-0.000990356,0.00132865,0.000132812,-0.00256209,0.869012,0.00175401,0.00996267,1952,1219,19.862,-4.56547
735,-195,19.8383,4.40076,-0.000448628,0.000425538,0.00101699,0.00109539,-0.00111848,0.988355,0.00127821,0.0121584,1959,1219,19.8383,-4.40075
742,-195,19.8197,4.21143,0.00143166,0.00194318,0.000359523,0.00212863,0.0012462,1.09456,0.00123494,0.0135799,1966,1219,19.8197,-4.21146
749,-195,19.8444,4.05664,0.00357769,0.00369132,-0.000259539,0.00390019,0.00336882,-0.893154,0.00244235,0.0129384,1973,1219,19.8444,-4.05663
756,-195,19.8403,3.9314,0.00619102,0.00579795,-0.000832831,0.00685019,0.00513878,-0.669526,0.00411666,0.0126996,1980,1219,19.8404,-3.93139
763,-195,19.8405,3.74792,0.00936729,0.00835466,-0.001278,0.0102356,0.00748633,-0.596796,0.00611685,0.0143046,1987,1219,19.8404,-3.74795
770,-195,19.8984,3.54175,0.0133493,0.0116444,-0.0016996,0.0143983,0.0105954,-0.552945,0.00861568,0.0270061,1994,1219,19.8985,-3.54172
777,-195,20.1071,3.73486,0,0,0,0,0,0,0,-1,2001,1219,20.107,-3.73483
784,-195,20.2682,2.0271,0,0,0,0,0,0,0,-1,2008,1219,20.2682,-2.02709
791,-195,20.4192,1.724,0,0,0,0,0,0,0,-1,2015,1219,20.4192,-1.72396
798,-195,20.6459,2.72766,0,0,0,0,0,0,0,-1,2022,1219,20.6458,-2.7276
805,-195,0,0,0,0,0,0,0,0,0,-1,2029,1219,0,0
812,-195,0,0,0,0,0,0,0,0,0,-1,2036,1219,0,0
-700,-202,0,0,0,0,0,0,0,0,0,-1,524,1226,0,0
-693,-202,0,0,0,0,0,0,0,0,0,-1,531,1226,0,0
-686,-202,0,0,0,0,0,0,0,0,0,-1,538,1226,0,0
-679,-202,-12.2992,1.82678,-0.0508875,0.10054,-0.017005,0.102426,-0.0527736,-1.46033,0.0911203,0.0468986,545,1226,-12.2992,-1.82676
-672,-202,-13.3473,0.992554,-0.0341521,0.0829445,-0.00958514,0.0837239,-0.0349315,-1.48966,0.0704099,0.0474776,552,1226,-13.3473,-0.992599
-665,-202,-14.3852,0.20752,0,0,0,0,0,0,0,-1,559,1226,-14.3852,-0.207578
-658,-202,-14.7752,-1.15552,0,0,0,0,0,0,0,-1,566,1226,-14.7752,1.15553
-651,-202,-15.4929,-2.14124,0,0,0,0,0,0,0,-1,573,1226,-15.4929,2.14124
-644,-202,-11.7465,0.921387,-0.00353859,0.0309981,0.00122829,0.0310417,-0.00358222,1.53529,0.021986,0.0468999,580,1226,-11.7465,-0.921442
-637,-202,-11.5948,1.1604,-0.00103446,0.0224755,0.00146511,0.0225664,-0.00112541,1.5088,0.0154331,0.0337902,587,1226,-11.5949,-1.16044
-630,-202,-11.6917,1.349,0.000944234,0.0159317,0.00131603,0.0160464,0.000829553,1.48387,0.0104321,0.0135371,594,1226,-11.6917,-1.349
-623,-202,-11.7252,1.53442,0.00274442,0.00930364,0.00120992,0.00951971,0.00252835,1.39408,0.00569398,0.00786088,601,1226,-11.7252,-1.53438
-616,-202,-11.7257,1.71631,0.0024019,0.00442927,0.00065694,0.00462353,0.00220765,1.28329,0.0026703,0.00817404,608,1226,-11.7257,-1.71634
-609,-202,-11.7336,1.90002,-0.000800669,0.00263634,-0.0012921,0.0030679,-0.00123223,-1.24845,0.00255697,0.0211706,615,1226,-11.7336,-1.90008
-602,-202,-11.7522,2.08142,-0.00313022,8.34595e-05,-0.0032275,0.00208199,-0.00512874,-1.01636,0.0042852,0.0222647,622,1226,-11.7522,-2.08139
-595,-202,-11.7859,2.32056,-0.00476395,-0.000289153,-0.00429233,0.0023139,-0.007367,-1.02565,0.00583756,0.0153718,629,1226,-11.786,-2.32057
-588,-202,-11.7199,2.50159,-0.00589111,-0.000545536,-0.00455795,0.00206549,-0.00850214,-1.05058,0.00646748,0.00749735,636,1226,-11.7199,-2.5016
-581,-202,-11.7178,2.61853,-0.0064645,-0.000680469,-0.00462995,0.00188647,-0.00903144,-1.06457,0.00673839,0.0122251,643,1226,-11.7178,-2.61859
-574,-202,-11.8173,2.62158,-0.00664044,-0.000603954,-0.00424388,0.00158552,-0.00882991,-1.0945,0.00648009,0.0217293,650,1226,-11.8173,-2.62159
-567,-202,-11.8981,2.59595,0,0,0,0,0,0,0,-1,657,1226,-11.8982,-2.59592
-560,-202,-10.929,2.73096,0,0,0,0,0,0,0,-1,664,1226,-10.929,-2.73092
-553,-202,-14.9687,0.883545,0,0,0,0,0,0,0,-1,671,1226,-14.9687,-0.883508
-546,-202,-14.8095,0.852051,-0.00553546,0.00259225,-0.00341628,0.00383743,-0.00678065,-1.22128,0.00620836,0.0464731,678,1226,-14.8095,-0.852021
-539,-202,-14.799,0.88501,-0.00477477,0.00367933,-0.00313829,0.00471695,-0.0058124,-1.25148,0.00609008,0.0395638,685,1226,-14.7989,-0.884951
-532,-202,-14.8812,0.90564,-0.00364481,0.00477611,-0.0029469,0.00570493,-0.00457363,-1.26547,0.0059463,0.030229,692,1226,-14.8811,-0.905625
-525,-202,-14.9046,0.851196,-0.00177586,0.0057226,-0.0028783,0.00670003,-0.00275329,-1.24343,0.0056142,0.0370386,699,1226,-14.9046,-0.851228
-518,-202,-15.5091,2.00647,0.000942601,0.00608704,-0.00346724,0.00783201,-0.000802364,-1.10453,0.00550831,0.0436237,706,1226,-15.5091,-2.00643
-511,-202,-14.8267,0.653809,0.0048474,0.00500288,-0.00506043,0.00998616,-0.000135888,-0.793079,0.0067032,0.0393466,713,1226,-14.8266,-0.653805
-504,-202,0,0,0,0,0,0,0,0,0,-1,720,1226,0,0
-497,-202,0,0,0,0,0,0,0,0,0,-1,727,1226,0,0
-490,-202,0,0,0,0,0,0,0,0,0,-1,734,1226,0,0
-483,-202,0,0,0,0,0,0,0,0,0,-1,741,1226,0,0
-476,-202,0,0,0,0,0,0,0,0,0,-1,748,1226,0,0
-469,-202,0,0,0,0,0,0,0,0,0,-1,755,1226,0,0
-462,-202,0,0,0,0,0,0,0,0,0,-1,762,1226,0,0
-455,-202,0,0,0,0,0,0,0,0,0,-1,769,1226,0,0
-448,-202,0,0,0,0,0,0,0,0,0,-1,776,1226,0,0
-441,-202,0,0,0,0,0,0,0,0,0,-1,783,1226,0,0
-434,-202,0,0,0,0,0,0,0,0,0,-1,790,1226,0,0
-427,-202,0,0,0,0,0,0,0,0,0,-1,797,1226,0,0
-420,-202,0,0,0,0,0,0,0,0,0,-1,804,1226,0,0
-413,-202,0,0,0,0,0,0,0,0,0,-1,811,1226,0,0
-406,-202,0,0,0,0,0,0,0,0,0,-1,818,1226,0,0
-399,-202,0,0,0,0,0,0,0,0,0,-1,825,1226,0,0
-392,-202,0,0,0,0,0,0,0,0,0,-1,832,1226,0,0
-385,-202,0,0,0,0,0,0,0,0,0,-1,839,1226,0,0
-378,-202,0,0,0,0,0,0,0,0,0,-1,846,1226,0,0
-371,-202,0,0,0,0,0,0,0,0,0,-1,853,1226,0,0
-364,-202,0,0,0,0,0,0,0,0,0,-1,860,1226,0,0
-357,-202,0,0,0,0,0,0,0,0,0,-1,867,1226,0,0
-350,-202,0,0,0,0,0,0,0,0,0,-1,874,1226,0,0
-343,-202,0,0,0,0,0,0,0,0,0,-1,881,1226,0,0
-336,-202,0,0,0,0,0,0,0,0,0,-1,888,1226,0,0
-329,-202,0,0,0,0,0,0,0,0,0,-1,895,1226,0,0
-322,-202,0,0,0,0,0,0,0,0,0,-1,902,1226,0,0
-315,-202,0,0,0,0,0,0,0,0,0,-1,909,1226,0,0
-308,-202,0,0,0,0,0,0,0,0,0,-1,916,1226,0,0
-301,-202,0,0,0,0,0,0,0,0,0,-1,923,1226,0,0
-294,-202,0,0,0,0,0,0,0,0,0,-1,930,1226,0,0
-287,-202,0,0,0,0,0,0,0,0,0,-1,937,1226,0,0
-280,-202,0,0,0,0,0,0,0,0,0,-1,944,1226,0,0
-273,-202,0,0,0,0,0,0,0,0,0,-1,951,1226,0,0
-266,-202,0,0,0,0,0,0,0,0,0,-1,958,1226,0,0
-259,-202,0,0,0,0,0,0,0,0,0,-1,965,1226,0,0
-252,-202,0,0,0,0,0,0,0,0,0,-1,972,1226,0,0
-245,-202,0,0,0,0,0,0,0,0,0,-1,979,1226,0,0
-238,-202,0,0,0,0,0,0,0,0,0,-1,986,1226,0,0
-231,-202,0,0,0,0,0,0,0,0,0,-1,993,1226,0,0
-224,-202,0,0,0,0,0,0,0,0,0,-1,1000,1226,0,0
-217,-202,0,0,0,0,0,0,0,0,0,-1,1007,1226,0,0
-210,-202,0,0,0,0,0,0,0,0,0,-1,1014,1226,0,0
-203,-202,0,0,0,0,0,0,0,0,0,-1,1021,1226,0,0
-196,-202,0,0,0,0,0,0,0,0,0,-1,1028,1226,0,0
-189,-202,0,0,0,0,0,0,0,0,0,-1,1035,1226,0,0
-182,-202,0,0,0,0,0,0,0,0,0,-1,1042,1226,0,0
-175,-202,0,0,0,0,0,0,0,0,0,-1,1049,1226,0,0
-168,-202,0,0,0,0,0,0,0,0,0,-1,1056,1226,0,0
-161,-202,0,0,0,0,0,0,0,0,0,-1,1063,1226,0,0
-154,-202,0,0,0,0,0,0,0,0,0,-1,1070,1226,0,0
-147,-202,0,0,0,0,0,0,0,0,0,-1,1077,1226,0,0
-140,-202,0,0,0,0,0,0,0,0,0,-1,1084,1226,0,0
-133,-202,0,0,0,0,0,0,0,0,0,-1,1091,1226,0,0
-126,-202,0,0,0,0,0,0,0,0,0,-1,1098,1226,0,0
-119,-202,0,0,0,0,0,0,0,0,0,-1,1105,1226,0,0
-112,-202,0,0,0,0,0,0,0,0,0,-1,1112,1226,0,0
-105,-202,0,0,0,0,0,0,0,0,0,-1,1119,1226,0,0
-98,-202,0,0,0,0,0,0,0,0,0,-1,1126,1226,0,0
-91,-202,0,0,0,0,0,0,0,0,0,-1,1133,1226,0,0
-84,-202,0,0,0,0,0,0,0,0,0,-1,1140,1226,0,0
-77,-202,0,0,0,0,0,0,0,0,0,-1,1147,1226,0,0
-70,-202,0,0,0,0,0,0,0,0,0,-1,1154,1226,0,0
-63,-202,0,0,0,0,0,0,0,0,0,-1,1161,1226,0,0
-56,-202,0,0,0,0,0,0,0,0,0,-1,1168,1226,0,0
-49,-202,0,0,0,0,0,0,0,0,0,-1,1175,1226,0,0
-42,-202,0,0,0,0,0,0,0,0,0,-1,1182,1226,0,0
-35,-202,0,0,0,0,0,0,0,0,0,-1,1189,1226,0,0
-28,-202,0,0,0,0,0,0,0,0,0,-1,1196,1226,0,0
-21,-202,0,0,0,0,0,0,0,0,0,-1,1203,1226,0,0
-14,-202,0,0,0,0,0,0,0,0,0,-1,1210,1226,0,0
-7,-202,0,0,0,0,0,0,0,0,0,-1,1217,1226,0,0
0,-202,0,0,0,0,0,0,0,0,0,-1,1224,1226,0,0
7,-202,0,0,0,0,0,0,0,0,0,-1,1231,1226,0,0
14,-202,0,0,0,0,0,0,0,0,0,-1,1238,1226,0,0
21,-202,0,0,0,0,0,0,0,0,0,-1,1245,1226,0,0
28,-202,0,0,0,0,0,0,0,0,0,-1,1252,1226,0,0
35,-202,0,0,0,0,0,0,0,0,0,-1,1259,1226,0,0
42,-202,0,0,0,0,0,0,0,0,0,-1,1266,1226,0,0
49,-202,0,0,0,0,0,0,0,0,0,-1,1273,1226,0,0
56,-202,0,0,0,0,0,0,0,0,0,-1,1280,1226,0,0
63,-202,0,0,0,0,0,0,0,0,0,-1,1287,1226,0,0
70,-202,0,0,0,0,0,0,0,0,0,-1,1294,1226,0,0
77,-202,0,0,0,0,0,0,0,0,0,-1,1301,1226,0,0
84,-202,0,0,0,0,0,0,0,0,0,-1,1308,1226,0,0
91,-202,0,0,0,0,0,0,0,0,0,-1,1315,1226,0,0
98,-202,0,0,0,0,0,0,0,0,0,-1,1322,1226,0,0
105,-202,0,0,0,0,0,0,0,0,0,-1,1329,1226,0,0
112,-202,0,0,0,0,0,0,0,0,0,-1,1336,1226,0,0
119,-202,0,0,0,0,0,0,0,0,0,-1,1343,1226,0,0
126,-202,0,0,0,0,0,0,0,0,0,-1,1350,1226,0,0
133,-202,0,0,0,0,0,0,0,0,0,-1,1357,1226,0,0
140,-202,0,0,0,0,0,0,0,0,0,-1,1364,1226,0,0
147,-202,0,0,0,0,0,0,0,0,0,-1,1371,1226,0,0
154,-202,0,0,0,0,0,0,0,0,0,-1,1378,1226,0,0
161,-202,0,0,0,0,0,0,0,0,0,-1,1385,1226,0,0
168,-202,0,0,0,0,0,0,0,0,0,-1,1392,1226,0,0
175,-202,0,0,0,0,0,0,0,0,0,-1,1399,1226,0,0
182,-202,0,0,0,0,0,0,0,0,0,-1,1406,1226,0,0
189,-202,0,0,0,0,0,0,0,0,0,-1,1413,1226,0,0
196,-202,0,0,0,0,0,0,0,0,0,-1,1420,1226,0,0
203,-202,0,0,0,0,0,0,0,0,0,-1,1427,1226,0,0
210,-202,0,0,0,0,0,0,0,0,0,-1,1434,1226,0,0
217,-202,0,0,0,0,0,0,0,0,0,-1,1441,1226,0,0
224,-202,0,0,0,0,0,0,0,0,0,-1,1448,1226,0,0
231,-202,0,0,0,0,0,0,0,0,0,-1,1455,1226,0,0
238,-202,0,0,0,0,0,0,0,0,0,-1,1462,1226,0,0
245,-202,0,0,0,0,0,0,0,0,0,-1,1469,1226,0,0
252,-202,0,0,0,0,0,0,0,0,0,-1,1476,1226,0,0
259,-202,0,0,0,0,0,0,0,0,0,-1,1483,1226,0,0
266,-202,0,0,0,0,0,0,0,0,0,-1,1490,1226,0,0
273,-202,0,0,0,0,0,0,0,0,0,-1,1497,1226,0,0
280,-202,0,0,0,0,0,0,0,0,0,-1,1504,1226,0,0
287,-202,0,0,0,0,0,0,0,0,0,-1,1511,1226,0,0
294,-202,0,0,0,0,0,0,0,0,0,-1,1518,1226,0,0
301,-202,0,0,0,0,0,0,0,0,0,-1,1525,1226,0,0
308,-202,0,0,0,0,0,0,0,0,0,-1,1532,1226,0,0
315,-202,0,0,0,0,0,0,0,0,0,-1,1539,1226,0,0
322,-202,0,0,0,0,0,0,0,0,0,-1,1546,1226,0,0
329,-202,0,0,0,0,0,0,0,0,0,-1,1553,1226,0,0
336,-202,0,0,0,0,0,0,0,0,0,-1,1560,1226,0,0
343,-202,0,0,0,0,0,0,0,0,0,-1,1567,1226,0,0
350,-202,0,0,0,0,0,0,0,0,0,-1,1574,1226,0,0
357,-202,0,0,0,0,0,0,0,0,0,-1,1581,1226,0,0
364,-202,0,0,0,0,0,0,0,0,0,-1,1588,1226,0,0
371,-202,0,0,0,0,0,0,0,0,0,-1,1595,1226,0,0
378,-202,0,0,0,0,0,0,0,0,0,-1,1602,1226,0,0
385,-202,0,0,0,0,0,0,0,0,0,-1,1609,1226,0,0
392,-202,0,0,0,0,0,0,0,0,0,-1,1616,1226,0,0
399,-202,0,0,0,0,0,0,0,0,0,-1,1623,1226,0,0
406,-202,0,0,0,0,0,0,0,0,0,-1,1630,1226,0,0
413,-202,0,0,0,0,0,0,0,0,0,-1,1637,1226,0,0
420,-202,0,0,0,0,0,0,0,0,0,-1,1644,1226,0,0
427,-202,0,0,0,0,0,0,0,0,0,-1,1651,1226,0,0
434,-202,0,0,0,0,0,0,0,0,0,-1,1658,1226,0,0
441,-202,0,0,0,0,0,0,0,0,0,-1,1665,1226,0,0
448,-202,0,0,0,0,0,0,0,0,0,-1,1672,1226,0,0
455,-202,0,0,0,0,0,0,0,0,0,-1,1679,1226,0,0
462,-202,0,0,0,0,0,0,0,0,0,-1,1686,1226,0,0
469,-202,0,0,0,0,0,0,0,0,0,-1,1693,1226,0,0
476,-202,0,0,0,0,0,0,0,0,0,-1,1700,1226,0,0
483,-202,0,0,0,0,0,0,0,0,0,-1,1707,1226,0,0
490,-202,0,0,0,0,0,0,0,0,0,-1,1714,1226,0,0
497,-202,0,0,0,0,0,0,0,0,0,-1,1721,1226,0,0
504,-202,0,0,0,0,0,0,0,0,0,-1,1728,1226,0,0
511,-202,0,0,0,0,0,0,0,0,0,-1,1735,1226,0,0
518,-202,0,0,0,0,0,0,0,0,0,-1,1742,1226,0,0
525,-202,0,0,0,0,0,0,0,0,0,-1,1749,1226,0,0
532,-202,0,0,0,0,0,0,0,0,0,-1,1756,1226,0,0
539,-202,0,0,0,0,0,0,0,0,0,-1,1763,1226,0,0
546,-202,0,0,0,0,0,0,0,0,0,-1,1770,1226,0,0
553,-202,0,0,0,0,0,0,0,0,0,-1,1777,1226,0,0
560,-202,0,0,0,0,0,0,0,0,0,-1,1784,1226,0,0
567,-202,0,0,0,0,0,0,0,0,0,-1,1791,1226,0,0
574,-202,0,0,0,0,0,0,0,0,0,-1,1798,1226,0,0
581,-202,0,0,0,0,0,0,0,0,0,-1,1805,1226,0,0
588,-202,0,0,0,0,0,0,0,0,0,-1,1812,1226,0,0
595,-202,0,0,0,0,0,0,0,0,0,-1,1819,1226,0,0
602,-202,0,0,0,0,0,0,0,0,0,-1,1826,1226,0,0
609,-202,0,0,0,0,0,0,0,0,0,-1,1833,1226,0,0
616,-202,0,0,0,0,0,0,0,0,0,-1,1840,1226,0,0
623,-202,0,0,0,0,0,0,0,0,0,-1,1847,1226,0,0
630,-202,22.4675,2.68005,0.000820503,0.00127627,-0.000247705,0.00138497,0.000711802,-1.15727,0.000799716,0.0378909,1854,1226,22.4675,-2.68011
637,-202,22.5541,2.71484,0.000218426,0.00134516,-0.000453612,0.00150508,5.85046e-05,-1.23185,0.000984464,0.0349741,1861,1226,22.5541,-2.71479
644,-202,22.5981,2.71997,-0.0003763,0.00095787,-0.0006339,0.00121102,-0.000629449,-1.19085,0.00108013,0.0312586,1868,1226,22.5981,-2.71996
651,-202,22.6144,2.68787,-0.000740426,0.000179158,-0.000601634,0.00047658,-0.00103785,-1.11167,0.000894148,0.0253803,1875,1226,22.6143,-2.68786
658,-202,22.5863,2.71228,-0.000929187,-0.000590636,-0.00043966,-0.00028879,-0.00123103,-0.969159,0.000743365,0.0211341,1882,1226,22.5864,-2.71228
665,-202,22.6057,2.65662,-0.00102594,-0.00127507,-0.000225219,-0.000893136,-0.00140788,-0.532796,0.000822567,0.0205978,1889,1226,22.6057,-2.65667
672,-202,22.7419,2.5929,-0.00116421,-0.00187368,1.53958e-06,-0.00116421,-0.00187368,0.00217006,0.00109234,0.0446349,1896,1226,22.742,-2.59287
679,-202,22.7223,2.05359,-0.00128744,-0.00225193,0.000344785,-0.00117686,-0.00236251,0.310346,0.001364,0.0457815,1903,1226,22.7223,-2.05361
686,-202,22.7108,1.57312,0,0,0,0,0,0,0,-1,1910,1226,22.7108,-1.57314
693,-202,19.6732,5.35742,0,0,0,0,0,0,0,-1,1917,1226,19.6732,-5.3574
700,-202,19.64,5.21545,-0.00154625,-0.00280104,0.000921439,-0.00105889,-0.0032884,0.486507,0.00193824,0.0300014,1924,1226,19.64,-5.21541
707,-202,19.6477,5.0293,-0.00165128,-0.00255386,0.00111408,-0.000900552,-0.00330458,0.592959,0.00197263,0.0238825,1931,1226,19.6476,-5.0293
714,-202,19.686,4.88708,-0.0015703,-0.00219366,0.00106387,-0.000773389,-0.00299056,0.642901,0.00179242,0.014995,1938,1226,19.6861,-4.88704
721,-202,19.7024,4.71619,-0.00120555,-0.00161106,0.000939873,-0.000446809,-0.0023698,0.679163,0.00145399,0.0121006,1945,1226,19.7024,-4.71618
728,-202,19.6962,4.55347,-0.000645038,-0.000654546,0.000853928,0.00020415,-0.00150373,0.782615,0.00107701,0.0101729,1952,1226,19.6962,-4.55341
735,-202,19.6917,4.39233,0.000362284,0.00104492,0.000463865,0.00127951,0.000127694,1.10258,0.000813787,0.010418,1959,1226,19.6917,-4.39238
742,-202,19.6938,4.22607,0.00213459,0.00298547,-0.000339821,0.00310453,0.00201553,-1.23381,0.00181881,0.00993102,1966,1226,19.6938,-4.22613
749,-202,19.6896,4.06494,0.00416776,0.00520466,-0.00111933,0.00591978,0.00345264,-1.00228,0.00343354,0.00929895,1973,1226,19.6896,-4.06489
756,-202,19.6837,3.9187,0.00663138,0.00793126,-0.00189627,0.00928587,0.00527676,-0.950498,0.00537783,0.0101129,1980,1226,19.6837,-3.91873
763,-202,19.6755,3.74316,0.0096487,0.0113648,-0.00263404,0.013277,0.00773648,-0.942855,0.00770036,0.0151235,1987,1226,19.6755,-3.74316
770,-202,19.7225,3.48083,0.0133657,0.015838,-0.0034103,0.0182293,0.0109744,-0.959267,0.0105975,0.0403283,1994,1226,19.7226,-3.48088
777,-202,20.2255,2.64917,0,0,0,0,0,0,0,-1,2001,1226,20.2254,-2.64922
784,-202,20.2841,1.97925,0,0,0,0,0,0,0,-1,2008,1226,20.2841,-1.97924
791,-202,20.5747,1.58118,0,0,0,0,0,0,0,-1,2015,1226,20.5747,-1.58112
798,-202,20.7648,2.61609,0,0,0,0,0,0,0,-1,2022,1226,20.7648,-2.61605
805,-202,0,0,0,0,0,0,0,0,0,-1,2029,1226,0,0
812,-202,0,0,0,0,0,0,0,0,0,-1,2036,1226,0,0
-700,-209,0,0,0,0,0,0,0,0,0,-1,524,1233,0,0
-693,-209,0,0,0,0,0,0,0,0,0,-1,531,1233,0,0
-686,-209,0,0,0,0,0,0,0,0,0,-1,538,1233,0,0
-679,-209,-12.7819,1.53369,-0.042829,0.108583,-0.0173629,0.110548,-0.0447946,-1.45807,0.0923267,0.0480804,545,1233,-12.7819,-1.5337
-672,-209,-13.8192,0.786743,-0.0268588,0.0888977,-0.008569,0.0895286,-0.0274897,-1.4973,0.0706546,0.0498511,552,1233,-13.8192,-0.786767
-665,-209,-11.8047,0.295044,-0.0159366,0.0717389,-0.00303795,0.071844,-0.0160418,-1.5362,0.0540428,0.0474521,559,1233,-11.8047,-0.295097
-658,-209,-11.6351,0.622314,0,0,0,0,0,0,0,-1,566,1233,-11.6351,-0.62233
-651,-209,-11.3989,0.673828,0,0,0,0,0,0,0,-1,573,1233,-11.3989,-0.673853
-644,-209,-11.3914,0.8573,-0.000250714,0.0329311,0.00303491,0.0332064,-0.000526009,1.48033,0.022315,0.0487119,580,1233,-11.3914,-0.857288
-637,-209,-11.4,1.05737,0.00138963,0.0238741,0.00301324,0.0242709,0.000992817,1.43986,0.01586,0.0437971,587,1233,-11.4,-1.05734
-630,-209,-11.4561,1.28955,0.00258241,0.0169059,0.00257886,0.017356,0.00213225,1.39798,0.0109295,0.0226407,594,1233,-11.4561,-1.28951
-623,-209,-11.5219,1.52136,0.00386468,0.00988462,0.00233541,0.0106844,0.00306492,1.24086,0.00635271,0.0112305,601,1233,-11.5219,-1.52134
-616,-209,-11.5266,1.71851,0.00322721,0.00475055,0.00162997,0.00578802,0.00218973,1.00397,0.00337454,0.0118467,608,1233,-11.5266,-1.71854
-609,-209,-11.5282,1.90356,0.000175978,0.00308767,-0.000248733,0.00310877,0.000154883,-1.48619,0.00202286,0.0136559,615,1233,-11.5282,-1.90358
-602,-209,-11.5359,2.10254,-0.00181201,0.000265557,-0.00223315,0.0016897,-0.00323615,-1.00309,0.00289028,0.0153741,622,1233,-11.5359,-2.10252
-595,-209,-11.5228,2.28052,-0.00315229,-0.00012932,-0.00326819,0.00195998,-0.00524158,-1.00199,0.00429931,0.0115168,629,1233,-11.5228,-2.28055
-588,-209,-11.5148,2.47913,-0.00392082,-0.000341951,-0.00341118,0.00172065,-0.00598342,-1.02696,0.0046694,0.0123552,636,1233,-11.5148,-2.47913
-581,-209,-11.4698,2.68518,-0.00426823,-0.000420552,-0.00342133,0.00158074,-0.00626952,-1.04152,0.00479426,0.0135387,643,1233,-11.4698,-2.68518
-574,-209,-11.5923,2.80359,-0.00436114,-0.000255026,-0.00302287,0.00134606,-0.00596223,-1.0837,0.00449125,0.0195044,650,1233,-11.5923,-2.80359
-567,-209,-11.8382,3.05615,-0.00443773,0.000617355,-0.00294734,0.0019725,-0.00579288,-1.13983,0.00466069,0.0412256,657,1233,-11.8382,-3.05618
-560,-209,-12.1185,3.45251,0,0,0,0,0,0,0,-1,664,1233,-12.1186,-3.45248
-553,-209,-14.8918,0.305786,0,0,0,0,0,0,0,-1,671,1233,-14.8918,-0.305742
-546,-209,-14.7873,0.548096,-0.00471674,0.00422895,-0.00306153,0.00517637,-0.00566416,-1.27068,0.00626089,0.0475966,678,1233,-14.7873,-0.548061
-539,-209,-14.739,0.793945,-0.0049107,0.00572826,-0.00311092,0.00657114,-0.00575358,-1.30621,0.0071209,0.0423071,685,1233,-14.739,-0.793959
-532,-209,-14.8041,0.924561,-0.00500528,0.00732064,-0.0032827,0.00814038,-0.00582503,-1.32608,0.00809979,0.0328495,692,1233,-14.8041,-0.924611
-525,-209,-14.8353,0.827637,-0.00474715,0.00884319,-0.00351617,0.00969902,-0.00560298,-1.33204,0.00893949,0.0359402,699,1233,-14.8353,-0.827612
-518,-209,-14.8278,0.726074,-0.00394101,0.00990734,-0.00400543,0.0109824,-0.00501606,-1.30858,0.00944839,0.041741,706,1233,-14.8278,-0.726026
-511,-209,-14.972,0.775269,-0.00187518,0.00955452,-0.00496291,0.0114087,-0.00372934,-1.21325,0.00910709,0.0406301,713,1233,-14.972,-0.775308
-504,-209,0,0,0,0,0,0,0,0,0,-1,720,1233,0,0
-497,-209,0,0,0,0,0,0,0,0,0,-1,727,1233,0,0
-490,-209,0,0,0,0,0,0,0,0,0,-1,734,1233,0,0
-483,-209,0,0,0,0,0,0,0,0,0,-1,741,1233,0,0
-476,-209,0,0,0,0,0,0,0,0,0,-1,748,1233,0,0
-469,-209,0,0,0,0,0,0,0,0,0,-1,755,1233,0,0
-462,-209,0,0,0,0,0,0,0,0,0,-1,762,1233,0,0
-455,-209,0,0,0,0,0,0,0,0,0,-1,769,1233,0,0
-448,-209,0,0,0,0,0,0,0,0,0,-1,776,1233,0,0
-441,-209,0,0,0,0,0,0,0,0,0,-1,783,1233,0,0
-434,-209,0,0,0,0,0,0,0,0,0,-1,790,1233,0,0
-427,-209,0,0,0,0,0,0,0,0,0,-1,797,1233,0,0
-420,-209,0,0,0,0,0,0,0,0,0,-1,804,1233,0,0
-413,-209,0,0,0,0,0,0,0,0,0,-1,811,1233,0,0
-406,-209,0,0,0,0,0,0,0,0,0,-1,818,1233,0,0
-399,-209,0,0,0,0,0,0,0,0,0,-1,825,1233,0,0
-392,-209,0,0,0,0,0,0,0,0,0,-1,832,1233,0,0
-385,-209,0,0,0,0,0,0,0,0,0,-1,839,1233,0,0
-378,-209,0,0,0,0,0,0,0,0,0,-1,846,1233,0,0
-371,-209,0,0,0,0,0,0,0,0,0,-1,853,1233,0,0
-364,-209,0,0,0,0,0,0,0,0,0,-1,860,1233,0,0
-357,-209,0,0,0,0,0,0,0,0,0,-1,867,1233,0,0
-350,-209,0,0,0,0,0,0,0,0,0,-1,874,1233,0,0
-343,-209,0,0,0,0,0,0,0,0,0,-1,881,1233,0,0
-336,-209,0,0,0,0,0,0,0,0,0,-1,888,1233,0,0
-329,-209,0,0,0,0,0,0,0,0,0,-1,895,1233,0,0
-322,-209,0,0,0,0,0,0,0,0,0,-1,902,1233,0,0
-315,-209,0,0,0,0,0,0,0,0,0,-1,909,1233,0,0
-308,-209,0,0,0,0,0,0,0,0,0,-1,916,1233,0,0
-301,-209,0,0,0,0,0,0,0,0,0,-1,923,1233,0,0
-294,-209,0,0,0,0,0,0,0,0,0,-1,930,1233,0,0
-287,-209,0,0,0,0,0,0,0,0,0,-1,937,1233,0,0
-280,-209,0,0,0,0,0,0,0,0,0,-1,944,1233,0,0
-273,-209,0,0,0,0,0,0,0,0,0,-1,951,1233,0,0
-266,-209,0,0,0,0,0,0,0,0,0,-1,958,1233,0,0
-259,-209,0,0,0,0,0,0,0,0,0,-1,965,1233,0,0
-252,-209,0,0,0,0,0,0,0,0,0,-1,972,1233,0,0
-245,-209,0,0,0,0,0,0,0,0,0,-1,979,1233,0,0
-238,-209,0,0,0,0,0,0,0,0,0,-1,986,1233,0,0
-231,-209,0,0,0,0,0,0,0,0,0,-1,993,1233,0,0
-224,-209,0,0,0,0,0,0,0,0,0,-1,1000,1233,0,0
-217,-209,0,0,0,0,0,0,0,0,0,-1,1007,1233,0,0
-210,-209,0,0,0,0,0,0,0,0,0,-1,1014,1233,0,0
-203,-209,0,0,0,0,0,0,0,0,0,-1,1021,1233,0,0
-196,-209,0,0,0,0,0,0,0,0,0,-1,1028,1233,0,0
-189,-209,0,0,0,0,0,0,0,0,0,-1,1035,1233,0,0
-182,-209,0,0,0,0,0,0,0,0,0,-1,1042,1233,0,0
-175,-209,0,0,0,0,0,0,0,0,0,-1,1049,1233,0,0
-168,-209,0,0,0,0,0,0,0,0,0,-1,1056,1233,0,0
-161,-209,0,0,0,0,0,0,0,0,0,-1,1063,1233,0,0
-154,-209,0,0,0,0,0,0,0,0,0,-1,1070,1233,0,0
-147,-209,0,0,0,0,0,0,0,0,0,-1,1077,1233,0,0
-140,-209,0,0,0,0,0,0,0,0,0,-1,1084,1233,0,0
-133,-209,0,0,0,0,0,0,0,0,0,-1,1091,1233,0,0
-126,-209,0,0,0,0,0,0,0,0,0,-1,1098,1233,0,0
-119,-209,0,0,0,0,0,0,0,0,0,-1,1105,1233,0,0
-112,-209,0,0,0,0,0,0,0,0,0,-1,1112,1233,0,0
-105,-209,0,0,0,0,0,0,0,0,0,-1,1119,1233,0,0
-98,-209,0,0,0,0,0,0,0,0,0,-1,1126,1233,0,0
-91,-209,0,0,0,0,0,0,0,0,0,-1,1133,1233,0,0
-84,-209,0,0,0,0,0,0,0,0,0,-1,1140,1233,0,0
-77,-209,0,0,0,0,0,0,0,0,0,-1,1147,1233,0,0
-70,-209,0,0,0,0,0,0,0,0,0,-1,1154,1233,0,0
-63,-209,0,0,0,0,0,0,0,0,0,-1,1161,1233,0,0
-56,-209,0,0,0,0,0,0,0,0,0,-1,1168,1233,0,0
-49,-209,0,0,0,0,0,0,0,0,0,-1,1175,1233,0,0
-42,-209,0,0,0,0,0,0,0,0,0,-1,1182,1233,0,0
-35,-209,0,0,0,0,0,0,0,0,0,-1,1189,1233,0,0
-28,-209,0,0,0,0,0,0,0,0,0,-1,1196,1233,0,0
-21,-209,0,0,0,0,0,0,0,0,0,-1,1203,1233,0,0
-14,-209,0,0,0,0,0,0,0,0,0,-1,1210,1233,0,0
-7,-209,0,0,0,0,0,0,0,0,0,-1,1217,1233,0,0
0,-209,0,0,0,0,0,0,0,0,0,-1,1224,1233,0,0
7,-209,0,0,0,0,0,0,0,0,0,-1,1231,1233,0,0
14,-209,0,0,0,0,0,0,0,0,0,-1,1238,1233,0,0
21,-209,0,0,0,0,0,0,0,0,0,-1,1245,1233,0,0
28,-209,0,0,0,0,0,0,0,0,0,-1,1252,1233,0,0
35,-209,0,0,0,0,0,0,0,0,0,-1,1259,1233,0,0
42,-209,0,0,0,0,0,0,0,0,0,-1,1266,1233,0,0
49,-209,0,0,0,0,0,0,0,0,0,-1,1273,1233,0,0
56,-209,0,0,0,0,0,0,0,0,0,-1,1280,1233,0,0
63,-209,0,0,0,0,0,0,0,0,0,-1,1287,1233,0,0
70,-209,0,0,0,0,0,0,0,0,0,-1,1294,1233,0,0
77,-209,0,0,0,0,0,0,0,0,0,-1,1301,1233,0,0
84,-209,0,0,0,0,0,0,0,0,0,-1,1308,1233,0,0
91,-209,0,0,0,0,0,0,0,0,0,-1,1315,1233,0,0
98,-209,0,0,0,0,0,0,0,0,0,-1,1322,1233,0,0
105,-209,0,0,0,0,0,0,0,0,0,-1,1329,1233,0,0
112,-209,0,0,0,0,0,0,0,0,0,-1,1336,1233,0,0
119,-209,0,0,0,0,0,0,0,0,0,-1,1343,1233,0,0
126,-209,0,0,0,0,0,0,0,0,0,-1,1350,1233,0,0
133,-209,0,0,0,0,0,0,0,0,0,-1,1357,1233,0,0
140,-209,0,0,0,0,0,0,0,0,0,-1,1364,1233,0,0
147,-209,0,0,0,0,0,0,0,0,0,-1,1371,1233,0,0
154,-209,0,0,0,0,0,0,0,0,0,-1,1378,1233,0,0
161,-209,0,0,0,0,0,0,0,0,0,-1,1385,1233,0,0
168,-209,0,0,0,0,0,0,0,0,0,-1,1392,1233,0,0
175,-209,0,0,0,0,0,0,0,0,0,-1,1399,1233,0,0
182,-209,0,0,0,0,0,0,0,0,0,-1,1406,1233,0,0
189,-209,0,0,0,0,0,0,0,0,0,-1,1413,1233,0,0
196,-209,0,0,0,0,0,0,0,0,0,-1,1420,1233,0,0
203,-209,0,0,0,0,0,0,0,0,0,-1,1427,1233,0,0
210,-209,0,0,0,0,0,0,0,0,0,-1,1434,1233,0,0
217,-209,0,0,0,0,0,0,0,0,0,-1,1441,1233,0,0
224,-209,0,0,0,0,0,0,0,0,0,-1,1448,1233,0,0
231,-209,0,0,0,0,0,0,0,0,0,-1,1455,1233,0,0
238,-209,0,0,0,0,0,0,0,0,0,-1,1462,1233,0,0
245,-209,0,0,0,0,0,0,0,0,0,-1,1469,1233,0,0
252,-209,0,0,0,0,0,0,0,0,0,-1,1476,1233,0,0
259,-209,0,0,0,0,0,0,0,0,0,-1,1483,1233,0,0
266,-209,0,0,0,0,0,0,0,0,0,-1,1490,1233,0,0
273,-209,0,0,0,0,0,0,0,0,0,-1,1497,1233,0,0
280,-209,0,0,0,0,0,0,0,0,0,-1,1504,1233,0,0
287,-209,0,0,0,0,0,0,0,0,0,-1,1511,1233,0,0
294,-209,0,0,0,0,0,0,0,0,0,-1,1518,1233,0,0
301,-209,0,0,0,0,0,0,0,0,0,-1,1525,1233,0,0
308,-209,0,0,0,0,0,0,0,0,0,-1,1532,1233,0,0
315,-209,0,0,0,0,0,0,0,0,0,-1,1539,1233,0,0
322,-209,0,0,0,0,0,0,0,0,0,-1,1546,1233,0,0
329,-209,0,0,0,0,0,0,0,0,0,-1,1553,1233,0,0
336,-209,0,0,0,0,0,0,0,0,0,-1,1560,1233,0,0
343,-209,0,0,0,0,0,0,0,0,0,-1,1567,1233,0,0
350,-209,0,0,0,0,0,0,0,0,0,-1,1574,1233,0,0
357,-209,0,0,0,0,0,0,0,0,0,-1,1581,1233,0,0
364,-209,0,0,0,0,0,0,0,0,0,-1,1588,1233,0,0
371,-209,0,0,0,0,0,0,0,0,0,-1,1595,1233,0,0
378,-209,0,0,0,0,0,0,0,0,0,-1,1602,1233,0,0
385,-209,0,0,0,0,0,0,0,0,0,-1,1609,1233,0,0
392,-209,0,0,0,0,0,0,0,0,0,-1,1616,1233,0,0
399,-209,0,0,0,0,0,0,0,0,0,-1,1623,1233,0,0
406,-209,0,0,0,0,0,0,0,0,0,-1,1630,1233,0,0
413,-209,0,0,0,0,0,0,0,0,0,-1,1637,1233,0,0
420,-209,0,0,0,0,0,0,0,0,0,-1,1644,1233,0,0
427,-209,0,0,0,0,0,0,0,0,0,-1,1651,1233,0,0
434,-209,0,0,0,0,0,0,0,0,0,-1,1658,1233,0,0
441,-209,0,0,0,0,0,0,0,0,0,-1,1665,1233,0,0
448,-209,0,0,0,0,0,0,0,0,0,-1,1672,1233,0,0
455,-209,0,0,0,0,0,0,0,0,0,-1,1679,1233,0,0
462,-209,0,0,0,0,0,0,0,0,0,-1,1686,1233,0,0
469,-209,0,0,0,0,0,0,0,0,0,-1,1693,1233,0,0
476,-209,0,0,0,0,0,0,0,0,0,-1,1700,1233,0,0
483,-209,0,0,0,0,0,0,0,0,0,-1,1707,1233,0,0
490,-209,0,0,0,0,0,0,0,0,0,-1,1714,1233,0,0
497,-209,0,0,0,0,0,0,0,0,0,-1,1721,1233,0,0
504,-209,0,0,0,0,0,0,0,0,0,-1,1728,1233,0,0
511,-209,0,0,0,0,0,0,0,0,0,-1,1735,1233,0,0
518,-209,0,0,0,0,0,0,0,0,0,-1,1742,1233,0,0
525,-209,0,0,0,0,0,0,0,0,0,-1,1749,1233,0,0
532,-209,0,0,0,0,0,0,0,0,0,-1,1756,1233,0,0
539,-209,0,0,0,0,0,0,0,0,0,-1,1763,1233,0,0
546,-209,0,0,0,0,0,0,0,0,0,-1,1770,1233,0,0
553,-209,0,0,0,0,0,0,0,0,0,-1,1777,1233,0,0
560,-209,0,0,0,0,0,0,0,0,0,-1,1784,1233,0,0
567,-209,0,0,0,0,0,0,0,0,0,-1,1791,1233,0,0
574,-209,0,0,0,0,0,0,0,0,0,-1,1798,1233,0,0
581,-209,0,0,0,0,0,0,0,0,0,-1,1805,1233,0,0
588,-209,0,0,0,0,0,0,0,0,0,-1,1812,1233,0,0
595,-209,0,0,0,0,0,0,0,0,0,-1,1819,1233,0,0
602,-209,0,0,0,0,0,0,0,0,0,-1,1826,1233,0,0
609,-209,0,0,0,0,0,0,0,0,0,-1,1833,1233,0,0
616,-209,0,0,0,0,0,0,0,0,0,-1,1840,1233,0,0
623,-209,22.488,2.82898,0.00296324,0.00105578,-0.00142465,0.00372393,0.00029509,-0.490435,0.00239034,0.0343846,1847,1233,22.488,-2.82896
630,-209,22.566,2.74609,0.000440269,0.00204991,-0.00104009,0.0025602,-7.00209e-05,-1.11468,0.00173061,0.0369185,1854,1233,22.5661,-2.7461
637,-209,22.6235,2.68677,-0.00105244,0.00204999,-0.00104796,0.0023708,-0.00137325,-1.27373,0.00218706,0.0368516,1861,1233,22.6236,-2.68674
644,-209,22.6514,2.66895,-0.00219139,0.00152958,-0.00102151,0.00179157,-0.00245338,-1.31974,0.00246073,0.0309122,1868,1233,22.6513,-2.66896
651,-209,22.6521,2.68311,-0.00273011,0.000627519,-0.000826437,0.000819912,-0.0029225,-1.34207,0.00227151,0.0241643,1875,1233,22.6521,-2.68316
658,-209,22.6152,2.70703,-0.00278999,-0.000219159,-0.000623034,-7.61264e-05,-0.00293302,-1.34513,0.00193047,0.0212566,1882,1233,22.6153,-2.70698
665,-209,22.6144,2.57019,-0.00264502,-0.000953574,-0.000406766,-0.000860838,-0.00273775,-1.34664,0.00161652,0.0351645,1889,1233,22.6144,-2.57015
672,-209,22.6458,2.2323,-0.00250216,-0.00160578,-0.000198443,-0.00156381,-0.00254413,-1.36239,0.00148167,0.0489749,1896,1233,22.6458,-2.23229
679,-209,22.5822,2.16382,-0.00230603,-0.00203313,0.000125332,-0.00198431,-0.00235485,1.19931,0.00146212,0.0484332,1903,1233,22.5822,-2.16379
686,-209,22.8287,2.09949,0,0,0,0,0,0,0,-1,1910,1233,22.8287,-2.09945
693,-209,19.4866,5.58899,0,0,0,0,0,0,0,-1,1917,1233,19.4866,-5.58898
700,-209,19.4658,5.30603,-0.00168409,-0.00281983,0.00066944,-0.00137411,-0.00312981,0.433652,0.00181147,0.0258533,1924,1233,19.4659,-5.30598
707,-209,19.4962,5.0459,-0.00148181,-0.00255728,0.000802779,-0.00105331,-0.00298578,0.490299,0.00174857,0.0203927,1931,1233,19.4963,-5.04596
714,-209,19.5114,4.87866,-0.00116135,-0.00209894,0.000691527,-0.000794693,-0.0024656,0.487523,0.00145317,0.0127262,1938,1233,19.5114,-4.87867
721,-209,19.5118,4.70874,-0.000689693,-0.00141441,0.000496709,-0.000437216,-0.00166689,0.470266,0.000997973,0.0123879,1945,1233,19.5118,-4.70874
728,-209,19.55,4.54004,-2.91432e-05,-0.000251856,0.000304872,0.000184073,-0.000465072,0.610298,0.000386312,0.0122295,1952,1233,19.5501,-4.54006
735,-209,19.5461,4.38269,0.00101927,0.00168623,-0.000206509,0.00174499,0.000960505,-1.29357,0.00100918,0.0129491,1959,1233,19.5461,-4.3827
742,-209,19.5425,4.22974,0.00270257,0.00400362,-0.00119797,0.0047163,0.0019899,-1.03413,0.002734,0.0110582,1966,1233,19.5424,-4.22972
749,-209,19.5341,4.07031,0.00463848,0.00665041,-0.0021877,0.00805235,0.00323655,-1.0009,0.00467873,0.00909216,1973,1233,19.534,-4.07031
756,-209,19.5178,3.91187,0.00698814,0.00996097,-0.00323259,0.0120325,0.0049166,-1.00089,0.00698555,0.00991279,1980,1233,19.5179,-3.91192
763,-209,19.4943,3.745,0.00988329,0.0142153,-0.00432646,0.0168876,0.00721092,-1.01748,0.00978467,0.0169603,1987,1233,19.4943,-3.74499
770,-209,19.6317,3.12292,0.0133916,0.0197992,-0.00552942,0.0229859,0.0102049,-1.04797,0.0132987,0.0418603,1994,1233,19.6317,-3.12291
777,-209,19.8002,2.50659,0,0,0,0,0,0,0,-1,2001,1233,19.8002,-2.50658
784,-209,20.0754,1.98523,0,0,0,0,0,0,0,-1,2008,1233,20.0755,-1.98518
791,-209,20.3939,1.61829,0,0,0,0,0,0,0,-1,2015,1233,20.394,-1.6183
798,-209,20.2488,3.8667,0,0,0,0,0,0,0,-1,2022,1233,20.2487,-3.86673
805,-209,0,0,0,0,0,0,0,0,0,-1,2029,1233,0,0
812,-209,0,0,0,0,0,0,0,0,0,-1,2036,1233,0,0
-700,-216,0,0,0,0,0,0,0,0,0,-1,524,1240,0,0
-693,-216,0,0,0,0,0,0,0,0,0,-1,531,1240,0,0
-686,-216,0,0,0,0,0,0,0,0,0,-1,538,1240,0,0
-679,-216,-11.7538,-0.501953,-0.0383215,0.109846,-0.0199681,0.11249,-0.0409653,-1.43916,0.0917492,0.0437926,545,1240,-11.7538,0.502008
-672,-216,-11.7977,-0.473022,-0.0220186,0.089736,-0.00916795,0.0904831,-0.0227657,-1.48948,0.0691709,0.0496995,552,1240,-11.7977,0.473046
-665,-216,-11.7615,-0.125244,-0.0112969,0.0723623,-0.0025318,0.0724388,-0.0113735,-1.54057,0.052496,0.0488067,559,1240,-11.7615,0.125297
-658,-216,-11.7007,0.506958,-0.00429646,0.0572694,0.00149583,0.0573057,-0.00433278,1.54652,0.0397269,0.0475927,566,1240,-11.7007,-0.506946
-651,-216,-11.5123,0.75061,3.99638e-05,0.0442423,0.0036308,0.0445385,-0.000256287,1.48938,0.0297781,0.0464659,573,1240,-11.5123,-0.750587
-644,-216,-11.3322,0.843506,0.00238718,0.0331925,0.00439586,0.0338075,0.00177218,1.43179,0.0219714,0.0479366,580,1240,-11.3322,-0.843526
-637,-216,-11.2925,0.989258,0.00330515,0.0240907,0.0042266,0.0249173,0.00247857,1.37767,0.0158501,0.0451137,587,1240,-11.2925,-0.989313
-630,-216,-11.2975,1.23364,0.0037424,0.0170557,0.00356716,0.0179512,0.00284686,1.32483,0.0111404,0.0277127,594,1240,-11.2975,-1.23367
-623,-216,-11.305,1.50806,0.00446022,0.0100218,0.00318645,0.0114702,0.00301179,1.14416,0.00686669,0.0121229,601,1240,-11.305,-1.50811
-616,-216,-11.328,1.72034,0.00362535,0.00494893,0.00236736,0.00674526,0.00182902,0.921692,0.00402805,0.013987,608,1240,-11.328,-1.72029
-609,-216,-11.3212,1.91089,0.000858692,0.00354677,0.000675237,0.00370685,0.000698608,1.33802,0.00227441,0.0136132,615,1240,-11.3212,-1.91093
-602,-216,-11.3149,2.07471,-0.000801891,0.000538948,-0.00126015,0.00129592,-0.00155886,-1.02986,0.00165054,0.0123419,622,1240,-11.3149,-2.07474
-595,-216,-11.3007,2.23413,-0.00188576,7.58762e-05,-0.00223438,0.00153523,-0.00334512,-0.992218,0.00288154,0.0164292,629,1240,-11.3007,-2.23408
-588,-216,-11.3057,2.45496,-0.00230604,-0.000143958,-0.00223476,0.0012575,-0.0037075,-1.01068,0.0029806,0.018563,636,1240,-11.3057,-2.455
-581,-216,-11.3058,2.70398,-0.00242269,-0.000245889,-0.00216446,0.00108842,-0.00375699,-1.01836,0.00293552,0.0164973,643,1240,-11.3058,-2.70398
-574,-216,-11.3222,2.9812,-0.00242828,-9.28574e-05,-0.00176643,0.000856932,-0.00337807,-1.07745,0.00258547,0.0184026,650,1240,-11.3222,-2.98116
-567,-216,-11.4212,3.19336,-0.00266858,0.000962309,-0.00184422,0.00173472,-0.00344098,-1.17417,0.00304184,0.0301344,657,1240,-11.4212,-3.19338
-560,-216,-11.5799,3.48938,0,0,0,0,0,0,0,-1,664,1240,-11.5799,-3.48937
-553,-216,-14.8184,-0.0878906,0,0,0,0,0,0,0,-1,671,1240,-14.8184,0.0878798
-546,-216,-14.6298,0.313965,-0.00430387,0.00555674,-0.00264578,0.00622179,-0.00496892,-1.32453,0.00647445,0.047974,678,1240,-14.6298,-0.313926
-539,-216,-14.6833,0.703247,-0.00541493,0.00739088,-0.00292896,0.008029,-0.00605304,-1.35628,0.00815691,0.0431069,685,1240,-14.6833,-0.703274
-532,-216,-14.7233,0.846558,-0.00656213,0.00938788,-0.00336813,0.01007,-0.0072442,-1.37099,0.0100406,0.0416671,692,1240,-14.7232,-0.846596
-525,-216,-14.8242,0.941895,-0.00765804,0.0113678,-0.00382183,0.0121068,-0.00839705,-1.37979,0.0119023,0.0417817,699,1240,-14.8242,-0.941915
-518,-216,-14.8472,0.807129,-0.00852899,0.0129984,-0.00428758,0.0138209,-0.00935151,-1.38126,0.0134613,0.0408889,706,1240,-14.8472,-0.807076
-511,-216,-14.9192,0.782471,-0.00839268,0.0133006,-0.00479957,0.014315,-0.00940713,-1.3625,0.0137934,0.0416647,713,1240,-14.9192,-0.782521
-504,-216,-14.8956,0.868652,-0.00472696,0.0110895,-0.00453276,0.0122965,-0.00593387,-1.31057,0.0107368,0.0433601,720,1240,-14.8956,-0.868683
-497,-216,0,0,0,0,0,0,0,0,0,-1,727,1240,0,0
-490,-216,0,0,0,0,0,0,0,0,0,-1,734,1240,0,0
-483,-216,0,0,0,0,0,0,0,0,0,-1,741,1240,0,0
-476,-216,0,0,0,0,0,0,0,0,0,-1,748,1240,0,0
-469,-216,0,0,0,0,0,0,0,0,0,-1,755,1240,0,0
-462,-216,0,0,0,0,0,0,0,0,0,-1,762,1240,0,0
-455,-216,0,0,0,0,0,0,0,0,0,-1,769,1240,0,0
-448,-216,0,0,0,0,0,0,0,0,0,-1,776,1240,0,0
-441,-216,0,0,0,0,0,0,0,0,0,-1,783,1240,0,0
-434,-216,0,0,0,0,0,0,0,0,0,-1,790,1240,0,0
-427,-216,0,0,0,0,0,0,0,0,0,-1,797,1240,0,0
-420,-216,0,0,0,0,0,0,0,0,0,-1,804,1240,0,0
-413,-216,0,0,0,0,0,0,0,0,0,-1,811,1240,0,0
-406,-216,0,0,0,0,0,0,0,0,0,-1,818,1240,0,0
-399,-216,0,0,0,0,0,0,0,0,0,-1,825,1240,0,0
-392,-216,0,0,0,0,0,0,0,0,0,-1,832,1240,0,0
-385,-216,0,0,0,0,0,0,0,0,0,-1,839,1240,0,0
-378,-216,0,0,0,0,0,0,0,0,0,-1,846,1240,0,0
-371,-216,0,0,0,0,0,0,0,0,0,-1,853,1240,0,0
-364,-216,0,0,0,0,0,0,0,0,0,-1,860,1240,0,0
-357,-216,0,0,0,0,0,0,0,0,0,-1,867,1240,0,0
-350,-216,0,0,0,0,0,0,0,0,0,-1,874,1240,0,0
-343,-216,0,0,0,0,0,0,0,0,0,-1,881,1240,0,0
-336,-216,0,0,0,0,0,0,0,0,0,-1,888,1240,0,0
-329,-216,0,0,0,0,0,0,0,0,0,-1,895,1240,0,0
-322,-216,0,0,0,0,0,0,0,0,0,-1,902,1240,0,0
-315,-216,0,0,0,0,0,0,0,0,0,-1,909,1240,0,0
-308,-216,0,0,0,0,0,0,0,0,0,-1,916,1240,0,0
-301,-216,0,0,0,0,0,0,0,0,0,-1,923,1240,0,0
-294,-216,0,0,0,0,0,0,0,0,0,-1,930,1240,0,0
-287,-216,0,0,0,0,0,0,0,0,0,-1,937,1240,0,0
-280,-216,0,0,0,0,0,0,0,0,0,-1,944,1240,0,0
-273,-216,0,0,0,0,0,0,0,0,0,-1,951,1240,0,0
-266,-216,0,0,0,0,0,0,0,0,0,-1,958,1240,0,0
-259,-216,0,0,0,0,0,0,0,0,0,-1,965,1240,0,0
-252,-216,0,0,0,0,0,0,0,0,0,-1,972,1240,0,0
-245,-216,0,0,0,0,0,0,0,0,0,-1,979,1240,0,0
-238,-216,0,0,0,0,0,0,0,0,0,-1,986,1240,0,0
-231,-216,0,0,0,0,0,0,0,0,0,-1,993,1240,0,0
-224,-216,0,0,0,0,0,0,0,0,0,-1,1000,1240,0,0
-217,-216,0,0,0,0,0,0,0,0,0,-1,1007,1240,0,0
-210,-216,0,0,0,0,0,0,0,0,0,-1,1014,1240,0,0
-203,-216,0,0,0,0,0,0,0,0,0,-1,1021,1240,0,0
-196,-216,0,0,0,0,0,0,0,0,0,-1,1028,1240,0,0
-189,-216,0,0,0,0,0,0,0,0,0,-1,1035,1240,0,0
-182,-216,0,0,0,0,0,0,0,0,0,-1,1042,1240,0,0
-175,-216,0,0,0,0,0,0,0,0,0,-1,1049,1240,0,0
-168,-216,0,0,0,0,0,0,0,0,0,-1,1056,1240,0,0
-161,-216,0,0,0,0,0,0,0,0,0,-1,1063,1240,0,0
-154,-216,0,0,0,0,0,0,0,0,0,-1,1070,1240,0,0
-147,-216,0,0,0,0,0,0,0,0,0,-1,1077,1240,0,0
-140,-216,0,0,0,0,0,0,0,0,0,-1,1084,1240,0,0
-133,-216,0,0,0,0,0,0,0,0,0,-1,1091,1240,0,0
-126,-216,0,0,0,0,0,0,0,0,0,-1,1098,1240,0,0
-119,-216,0,0,0,0,0,0,0,0,0,-1,1105,1240,0,0
-112,-216,0,0,0,0,0,0,0,0,0,-1,1112,1240,0,0
-105,-216,0,0,0,0,0,0,0,0,0,-1,1119,1240,0,0
-98,-216,0,0,0,0,0,0,0,0,0,-1,1126,1240,0,0
-91,-216,0,0,0,0,0,0,0,0,0,-1,1133,1240,0,0
-84,-216,0,0,0,0,0,0,0,0,0,-1,1140,1240,0,0
-77,-216,0,0,0,0,0,0,0,0,0,-1,1147,1240,0,0
-70,-216,0,0,0,0,0,0,0,0,0,-1,1154,1240,0,0
-63,-216,0,0,0,0,0,0,0,0,0,-1,1161,1240,0,0
-56,-216,0,0,0,0,0,0,0,0,0,-1,1168,1240,0,0
-49,-216,0,0,0,0,0,0,0,0,0,-1,1175,1240,0,0
-42,-216,0,0,0,0,0,0,0,0,0,-1,1182,1240,0,0
-35,-216,0,0,0,0,0,0,0,0,0,-1,1189,1240,0,0
-28,-216,0,0,0,0,0,0,0,0,0,-1,1196,1240,0,0
-21,-216,0,0,0,0,0,0,0,0,0,-1,1203,1240,0,0
-14,-216,0,0,0,0,0,0,0,0,0,-1,1210,1240,0,0
-7,-216,0,0,0,0,0,0,0,0,0,-1,1217,1240,0,0
0,-216,0,0,0,0,0,0,0,0,0,-1,1224,1240,0,0
7,-216,0,0,0,0,0,0,0,0,0,-1,1231,1240,0,0
14,-216,0,0,0,0,0,0,0,0,0,-1,1238,1240,0,0
21,-216,0,0,0,0,0,0,0,0,0,-1,1245,1240,0,0
28,-216,0,0,0,0,0,0,0,0,0,-1,1252,1240,0,0
35,-216,0,0,0,0,0,0,0,0,0,-1,1259,1240,0,0
42,-216,0,0,0,0,0,0,0,0,0,-1,1266,1240,0,0
49,-216,0,0,0,0,0,0,0,0,0,-1,1273,1240,0,0
56,-216,0,0,0,0,0,0,0,0,0,-1,1280,1240,0,0
63,-216,0,0,0,0,0,0,0,0,0,-1,1287,1240,0,0
70,-216,0,0,0,0,0,0,0,0,0,-1,1294,1240,0,0
77,-216,0,0,0,0,0,0,0,0,0,-1,1301,1240,0,0
84,-216,0,0,0,0,0,0,0,0,0,-1,1308,1240,0,0
91,-216,0,0,0,0,0,0,0,0,0,-1,1315,1240,0,0
98,-216,0,0,0,0,0,0,0,0,0,-1,1322,1240,0,0
105,-216,0,0,0,0,0,0,0,0,0,-1,1329,1240,0,0
112,-216,0,0,0,0,0,0,0,0,0,-1,1336,1240,0,0
119,-216,0,0,0,0,0,0,0,0,0,-1,1343,1240,0,0
126,-216,0,0,0,0,0,0,0,0,0,-1,1350,1240,0,0
133,-216,0,0,0,0,0,0,0,0,0,-1,1357,1240,0,0
140,-216,0,0,0,0,0,0,0,0,0,-1,1364,1240,0,0
147,-216,0,0,0,0,0,0,0,0,0,-1,1371,1240,0,0
154,-216,0,0,0,0,0,0,0,0,0,-1,1378,1240,0,0
161,-216,0,0,0,0,0,0,0,0,0,-1,1385,1240,0,0
168,-216,0,0,0,0,0,0,0,0,0,-1,1392,1240,0,0
175,-216,0,0,0,0,0,0,0,0,0,-1,1399,1240,0,0
182,-216,0,0,0,0,0,0,0,0,0,-1,1406,1240,0,0
189,-216,0,0,0,0,0,0,0,0,0,-1,1413,1240,0,0
196,-216,0,0,0,0,0,0,0,0,0,-1,1420,1240,0,0
203,-216,0,0,0,0,0,0,0,0,0,-1,1427,1240,0,0
210,-216,0,0,0,0,0,0,0,0,0,-1,1434,1240,0,0
217,-216,0,0,0,0,0,0,0,0,0,-1,1441,1240,0,0
224,-216,0,0,0,0,0,0,0,0,0,-1,1448,1240,0,0
231,-216,0,0,0,0,0,0,0,0,0,-1,1455,1240,0,0
238,-216,0,0,0,0,0,0,0,0,0,-1,1462,1240,0,0
245,-216,0,0,0,0,0,0,0,0,0,-1,1469,1240,0,0
252,-216,0,0,0,0,0,0,0,0,0,-1,1476,1240,0,0
259,-216,0,0,0,0,0,0,0,0,0,-1,1483,1240,0,0
266,-216,0,0,0,0,0,0,0,0,0,-1,1490,1240,0,0
273,-216,0,0,0,0,0,0,0,0,0,-1,1497,1240,0,0
280,-216,0,0,0,0,0,0,0,0,0,-1,1504,1240,0,0
287,-216,0,0,0,0,0,0,0,0,0,-1,1511,1240,0,0
294,-216,0,0,0,0,0,0,0,0,0,-1,1518,1240,0,0
301,-216,0,0,0,0,0,0,0,0,0,-1,1525,1240,0,0
308,-216,0,0,0,0,0,0,0,0,0,-1,1532,1240,0,0
315,-216,0,0,0,0,0,0,0,0,0,-1,1539,1240,0,0
322,-216,0,0,0,0,0,0,0,0,0,-1,1546,1240,0,0
329,-216,0,0,0,0,0,0,0,0,0,-1,1553,1240,0,0
336,-216,0,0,0,0,0,0,0,0,0,-1,1560,1240,0,0
343,-216,0,0,0,0,0,0,0,0,0,-1,1567,1240,0,0
350,-216,0,0,0,0,0,0,0,0,0,-1,1574,1240,0,0
357,-216,0,0,0,0,0,0,0,0,0,-1,1581,1240,0,0
364,-216,0,0,0,0,0,0,0,0,0,-1,1588,1240,0,0
371,-216,0,0,0,0,0,0,0,0,0,-1,1595,1240,0,0
378,-216,0,0,0,0,0,0,0,0,0,-1,1602,1240,0,0
385,-216,0,0,0,0,0,0,0,0,0,-1,1609,1240,0,0
392,-216,0,0,0,0,0,0,0,0,0,-1,1616,1240,0,0
399,-216,0,0,0,0,0,0,0,0,0,-1,1623,1240,0,0
406,-216,0,0,0,0,0,0,0,0,0,-1,1630,1240,0,0
413,-216,0,0,0,0,0,0,0,0,0,-1,1637,1240,0,0
420,-216,0,0,0,0,0,0,0,0,0,-1,1644,1240,0,0
427,-216,0,0,0,0,0,0,0,0,0,-1,1651,1240,0,0
434,-216,0,0,0,0,0,0,0,0,0,-1,1658,1240,0,0
441,-216,0,0,0,0,0,0,0,0,0,-1,1665,1240,0,0
448,-216,0,0,0,0,0,0,0,0,0,-1,1672,1240,0,0
455,-216,0,0,0,0,0,0,0,0,0,-1,1679,1240,0,0
462,-216,0,0,0,0,0,0,0,0,0,-1,1686,1240,0,0
469,-216,0,0,0,0,0,0,0,0,0,-1,1693,1240,0,0
476,-216,0,0,0,0,0,0,0,0,0,-1,1700,1240,0,0
483,-216,0,0,0,0,0,0,0,0,0,-1,1707,1240,0,0
490,-216,0,0,0,0,0,0,0,0,0,-1,1714,1240,0,0
497,-216,0,0,0,0,0,0,0,0,0,-1,1721,1240,0,0
504,-216,0,0,0,0,0,0,0,0,0,-1,1728,1240,0,0
511,-216,0,0,0,0,0,0,0,0,0,-1,1735,1240,0,0
518,-216,0,0,0,0,0,0,0,0,0,-1,1742,1240,0,0
525,-216,0,0,0,0,0,0,0,0,0,-1,1749,1240,0,0
532,-216,0,0,0,0,0,0,0,0,0,-1,1756,1240,0,0
539,-216,0,0,0,0,0,0,0,0,0,-1,1763,1240,0,0
546,-216,0,0,0,0,0,0,0,0,0,-1,1770,1240,0,0
553,-216,0,0,0,0,0,0,0,0,0,-1,1777,1240,0,0
560,-216,0,0,0,0,0,0,0,0,0,-1,1784,1240,0,0
567,-216,0,0,0,0,0,0,0,0,0,-1,1791,1240,0,0
574,-216,0,0,0,0,0,0,0,0,0,-1,1798,1240,0,0
581,-216,0,0,0,0,0,0,0,0,0,-1,1805,1240,0,0
588,-216,0,0,0,0,0,0,0,0,0,-1,1812,1240,0,0
595,-216,0,0,0,0,0,0,0,0,0,-1,1819,1240,0,0
602,-216,0,0,0,0,0,0,0,0,0,-1,1826,1240,0,0
609,-216,0,0,0,0,0,0,0,0,0,-1,1833,1240,0,0
616,-216,0,0,0,0,0,0,0,0,0,-1,1840,1240,0,0
623,-216,22.5348,2.84692,0.002681,0.00149186,-0.00177496,0.00395833,0.000214532,-0.623785,0.00257036,0.0385728,1847,1240,22.5348,-2.84697
630,-216,22.5453,2.74487,-0.000565631,0.00237513,-0.00149811,0.00300388,-0.00119439,-1.17343,0.00249779,0.0367289,1854,1240,22.5453,-2.74493
637,-216,22.5962,2.66187,-0.00269542,0.00238381,-0.00144041,0.00276386,-0.00307546,-1.31283,0.00337293,0.0336175,1861,1240,22.5961,-2.66188
644,-216,22.6096,2.69897,-0.00408224,0.00185129,-0.00128935,0.00211936,-0.00435031,-1.36581,0.00380857,0.0272433,1868,1240,22.6096,-2.69891
651,-216,22.6049,2.7511,-0.00460142,0.000963394,-0.000984398,0.0011324,-0.00477042,-1.40077,0.00361732,0.0232899,1875,1240,22.6049,-2.75107
658,-216,22.6407,2.78528,-0.00455515,0.000146045,-0.000721742,0.000254354,-0.00466346,-1.42184,0.00319713,0.0337939,1882,1240,22.6408,-2.78529
665,-216,22.6642,2.71228,-0.00424376,-0.000569316,-0.000462793,-0.000511924,-0.00430115,-1.44741,0.00271294,0.0457517,1889,1240,22.6641,-2.71228
672,-216,22.4547,2.51538,-0.00388843,-0.00123321,-0.000243286,-0.0012111,-0.00391054,-1.48018,0.00231161,0.0435545,1896,1240,22.4547,-2.51533
679,-216,22.5702,2.43835,-0.00343878,-0.00169416,8.99047e-05,-0.00168954,-0.0034434,1.51945,0.00198817,0.0460258,1903,1240,22.5702,-2.43837
686,-216,19.3279,5.30933,0,0,0,0,0,0,0,-1,1910,1240,19.3278,-5.30927
693,-216,19.3438,5.34033,-0.00255816,-0.00232409,0.000558128,-0.00187086,-0.00301139,0.888744,0.00175559,0.0448637,1917,1240,19.3437,-5.34027
700,-216,19.335,5.30994,-0.00206596,-0.00269164,0.000671582,-0.00163793,-0.00311968,0.567429,0.0018019,0.0203307,1924,1240,19.335,-5.30998
707,-216,19.3348,5.07666,-0.00163076,-0.00241831,0.000732668,-0.00119275,-0.00285632,0.538818,0.00165655,0.0167138,1931,1240,19.3348,-5.07664
714,-216,19.3597,4.8783,-0.0011243,-0.00186731,0.000544342,-0.00083677,-0.00215484,0.485959,0.0012544,0.0132817,1938,1240,19.3598,-4.87826
721,-216,19.3552,4.71399,-0.0005138,-0.00108837,0.000236811,-0.000428779,-0.0011734,0.344692,0.000685592,0.0129589,1945,1240,19.3553,-4.71404
728,-216,19.3914,4.54358,0.00031611,0.000256778,-0.000119907,0.000409966,0.000162922,-0.66413,0.000238349,0.0114417,1952,1240,19.3913,-4.54357
735,-216,19.3949,4.37903,0.00152639,0.00236196,-0.000802778,0.00284916,0.00103919,-1.02532,0.00166491,0.0110229,1959,1240,19.3949,-4.37906
742,-216,19.3741,4.23669,0.00332566,0.00492578,-0.00200771,0.00628697,0.00196446,-0.975002,0.00371391,0.0117264,1966,1240,19.3741,-4.23673
749,-216,19.377,4.06873,0.00539034,0.00786894,-0.00323656,0.0100954,0.00316392,-0.96824,0.00596232,0.00899586,1973,1240,19.377,-4.06872
756,-216,19.3525,3.90735,0.00792298,0.0115999,-0.00457365,0.0146908,0.00483213,-0.976501,0.00864563,0.00907978,1980,1240,19.3525,-3.90736
763,-216,19.3441,3.74353,0.0110731,0.0164467,-0.00602534,0.0203571,0.00716266,-0.995122,0.0119239,0.0146434,1987,1240,19.3442,-3.74359
770,-216,19.5095,3.15076,0.0148781,0.0228048,-0.00761545,0.0274265,0.0102564,-1.02533,0.0160015,0.038152,1994,1240,19.5095,-3.1507
777,-216,19.6747,2.5697,0,0,0,0,0,0,0,-1,2001,1240,19.6746,-2.5697
784,-216,19.0848,4.69739,0,0,0,0,0,0,0,-1,2008,1240,19.0848,-4.69742
791,-216,20.7589,3.53503,0,0,0,0,0,0,0,-1,2015,1240,20.759,-3.53503
798,-216,0,0,0,0,0,0,0,0,0,-1,2022,1240,0,0
805,-216,0,0,0,0,0,0,0,0,0,-1,2029,1240,0,0
812,-216,0,0,0,0,0,0,0,0,0,-1,2036,1240,0,0
-700,-223,0,0,0,0,0,0,0,0,0,-1,524,1247,0,0
-693,-223,0,0,0,0,0,0,0,0,0,-1,531,1247,0,0
-686,-223,0,0,0,0,0,0,0,0,0,-1,538,1247,0,0
-679,-223,0,0,0,0,0,0,0,0,0,-1,545,1247,0,0
-672,-223,-11.3843,-5.00854,0,0,0,0,0,0,0,-1,552,1247,-11.3843,5.00851
-665,-223,-11.7543,-0.511963,0,0,0,0,0,0,0,-1,559,1247,-11.7543,0.511952
-658,-223,-11.9025,0.160889,-0.00143751,0.0544059,0.000677476,0.0544142,-0.00144573,1.55867,0.0367675,0.0471704,566,1247,-11.9024,-0.160874
-651,-223,-11.4899,0.562378,0.00224322,0.0419399,0.00317922,0.0421929,0.00199022,1.49138,0.0274892,0.045688,573,1247,-11.4899,-0.562414
-644,-223,-11.327,0.826782,0,0,0,0,0,0,0,-1,580,1247,-11.327,-0.826814
-637,-223,-11.1343,1.04626,0.00426823,0.0227123,0.00404337,0.0235597,0.00342076,1.36419,0.0146995,0.0497459,587,1247,-11.1343,-1.04624
-630,-223,-11.4848,1.56604,0.00410344,0.0160135,0.00339705,0.0169143,0.00320264,1.31159,0.0103747,0.0362617,594,1247,-11.4848,-1.566
-623,-223,-11.1332,1.48975,0.00439481,0.00933911,0.0030451,0.0107892,0.0029447,1.12636,0.00643972,0.0202971,601,1247,-11.1332,-1.48974
-616,-223,-11.1428,1.71362,0.00356305,0.00464217,0.00229984,0.00646489,0.00174033,0.900618,0.00386279,0.0158469,608,1247,-11.1429,-1.71368
-609,-223,-11.126,1.90576,0.00127397,0.00368201,0.000957433,0.00401629,0.000939696,1.23489,0.00242574,0.0122061,615,1247,-11.126,-1.90573
-602,-223,-11.108,2.06982,6.63229e-05,0.000681633,-0.000787055,0.00121903,-0.000471071,-0.971714,0.00100713,0.0136502,622,1247,-11.108,-2.06987
-595,-223,-11.0984,2.28674,-0.000628963,0.000251383,-0.00163663,0.001506,-0.00188358,-0.916765,0.00196102,0.0191173,629,1247,-11.0984,-2.28669
-588,-223,-11.1035,2.48743,-0.000599717,4.41633e-05,-0.00148455,0.00124128,-0.00179684,-0.892175,0.00176381,0.0221063,636,1247,-11.1034,-2.48743
-581,-223,-11.1204,2.71497,-0.000402899,-8.67947e-05,-0.00129023,0.00105502,-0.00154472,-0.846344,0.00150981,0.0205316,643,1247,-11.1204,-2.71491
-574,-223,-11.1071,2.95142,-0.000302955,1.34241e-05,-0.000859659,0.000729327,-0.00101886,-0.876387,0.00101392,0.0170722,650,1247,-11.1071,-2.95146
-567,-223,-10.8928,3.20398,-0.000785553,0.00122123,-0.00109761,0.00170496,-0.00126929,-1.15569,0.00172331,0.0247747,657,1247,-10.8928,-3.20397
-560,-223,-10.697,3.51062,-0.00120498,0.00271419,-0.00176348,0.00339086,-0.00188164,-1.20441,0.00308537,0.043356,664,1247,-10.6969,-3.51062
-553,-223,-10.2886,3.89343,0,0,0,0,0,0,0,-1,671,1247,-10.2887,-3.8934
-546,-223,-14.6625,0.498169,0,0,0,0,0,0,0,-1,678,1247,-14.6624,-0.498159
-539,-223,-14.5439,0.672729,0,0,0,0,0,0,0,-1,685,1247,-14.5439,-0.672713
-532,-223,-14.4253,0.84729,0,0,0,0,0,0,0,-1,692,1247,-14.4253,-0.847266
-525,-223,-14.7735,0.984375,-0.00960343,0.0132607,-0.00426928,0.0140319,-0.0103746,-1.39209,0.0141437,0.0484597,699,1247,-14.7735,-0.98441
-518,-223,-14.8401,0.890137,-0.0118129,0.0154208,-0.00489092,0.0162726,-0.0126646,-1.39838,0.0167501,0.0416493,706,1247,-14.8402,-0.890103
-511,-223,-14.9677,0.907715,-0.0135928,0.0166268,-0.00539721,0.0175618,-0.0145278,-1.39926,0.0185546,0.0379803,713,1247,-14.9677,-0.907696
-504,-223,-14.8976,0.88147,-0.0123125,0.0154342,-0.00479025,0.0162379,-0.0131162,-1.40456,0.0169795,0.0406812,720,1247,-14.8976,-0.881511
-497,-223,0,0,0,0,0,0,0,0,0,-1,727,1247,0,0
-490,-223,0,0,0,0,0,0,0,0,0,-1,734,1247,0,0
-483,-223,0,0,0,0,0,0,0,0,0,-1,741,1247,0,0
-476,-223,0,0,0,0,0,0,0,0,0,-1,748,1247,0,0
-469,-223,0,0,0,0,0,0,0,0,0,-1,755,1247,0,0
-462,-223,0,0,0,0,0,0,0,0,0,-1,762,1247,0,0
-455,-223,0,0,0,0,0,0,0,0,0,-1,769,1247,0,0
-448,-223,0,0,0,0,0,0,0,0,0,-1,776,1247,0,0
-441,-223,0,0,0,0,0,0,0,0,0,-1,783,1247,0,0
-434,-223,0,0,0,0,0,0,0,0,0,-1,790,1247,0,0
-427,-223,0,0,0,0,0,0,0,0,0,-1,797,1247,0,0
-420,-223,0,0,0,0,0,0,0,0,0,-1,804,1247,0,0
-413,-223,0,0,0,0,0,0,0,0,0,-1,811,1247,0,0
-406,-223,0,0,0,0,0,0,0,0,0,-1,818,1247,0,0
-399,-223,0,0,0,0,0,0,0,0,0,-1,825,1247,0,0
-392,-223,0,0,0,0,0,0,0,0,0,-1,832,1247,0,0
-385,-223,0,0,0,0,0,0,0,0,0,-1,839,1247,0,0
-378,-223,0,0,0,0,0,0,0,0,0,-1,846,1247,0,0
-371,-223,0,0,0,0,0,0,0,0,0,-1,853,1247,0,0
-364,-223,0,0,0,0,0,0,0,0,0,-1,860,1247,0,0
-357,-223,0,0,0,0,0,0,0,0,0,-1,867,1247,0,0
-350,-223,0,0,0,0,0,0,0,0,0,-1,874,1247,0,0
-343,-223,0,0,0,0,0,0,0,0,0,-1,881,1247,0,0
-336,-223,0,0,0,0,0,0,0,0,0,-1,888,1247,0,0
-329,-223,0,0,0,0,0,0,0,0,0,-1,895,1247,0,0
-322,-223,0,0,0,0,0,0,0,0,0,-1,902,1247,0,0
-315,-223,0,0,0,0,0,0,0,0,0,-1,909,1247,0,0
-308,-223,0,0,0,0,0,0,0,0,0,-1,916,1247,0,0
-301,-223,0,0,0,0,0,0,0,0,0,-1,923,1247,0,0
-294,-223,0,0,0,0,0,0,0,0,0,-1,930,1247,0,0
-287,-223,0,0,0,0,0,0,0,0,0,-1,937,1247,0,0
-280,-223,0,0,0,0,0,0,0,0,0,-1,944,1247,0,0
-273,-223,0,0,0,0,0,0,0,0,0,-1,951,1247,0,0
-266,-223,0,0,0,0,0,0,0,0,0,-1,958,1247,0,0
-259,-223,0,0,0,0,0,0,0,0,0,-1,965,1247,0,0
-252,-223,0,0,0,0,0,0,0,0,0,-1,972,1247,0,0
-245,-223,0,0,0,0,0,0,0,0,0,-1,979,1247,0,0
-238,-223,0,0,0,0,0,0,0,0,0,-1,986,1247,0,0
-231,-223,0,0,0,0,0,0,0,0,0,-1,993,1247,0,0
-224,-223,0,0,0,0,0,0,0,0,0,-1,1000,1247,0,0
-217,-223,0,0,0,0,0,0,0,0,0,-1,1007,1247,0,0
-210,-223,0,0,0,0,0,0,0,0,0,-1,1014,1247,0,0
-203,-223,0,0,0,0,0,0,0,0,0,-1,1021,1247,0,0
-196,-223,0,0,0,0,0,0,0,0,0,-1,1028,1247,0,0
-189,-223,0,0,0,0,0,0,0,0,0,-1,1035,1247,0,0
-182,-223,0,0,0,0,0,0,0,0,0,-1,1042,1247,0,0
-175,-223,0,0,0,0,0,0,0,0,0,-1,1049,1247,0,0
-168,-223,0,0,0,0,0,0,0,0,0,-1,1056,1247,0,0
-161,-223,0,0,0,0,0,0,0,0,0,-1,1063,1247,0,0
-154,-223,0,0,0,0,0,0,0,0,0,-1,1070,1247,0,0
-147,-223,0,0,0,0,0,0,0,0,0,-1,1077,1247,0,0
-140,-223,0,0,0,0,0,0,0,0,0,-1,1084,1247,0,0
-133,-223,0,0,0,0,0,0,0,0,0,-1,1091,1247,0,0
-126,-223,0,0,0,0,0,0,0,0,0,-1,1098,1247,0,0
-119,-223,0,0,0,0,0,0,0,0,0,-1,1105,1247,0,0
-112,-223,0,0,0,0,0,0,0,0,0,-1,1112,1247,0,0
-105,-223,0,0,0,0,0,0,0,0,0,-1,1119,1247,0,0
-98,-223,0,0,0,0,0,0,0,0,0,-1,1126,1247,0,0
-91,-223,0,0,0,0,0,0,0,0,0,-1,1133,1247,0,0
-84,-223,0,0,0,0,0,0,0,0,0,-1,1140,1247,0,0
-77,-223,0,0,0,0,0,0,0,0,0,-1,1147,1247,0,0
-70,-223,0,0,0,0,0,0,0,0,0,-1,1154,1247,0,0
-63,-223,0,0,0,0,0,0,0,0,0,-1,1161,1247,0,0
-56,-223,0,0,0,0,0,0,0,0,0,-1,1168,1247,0,0
-49,-223,0,0,0,0,0,0,0,0,0,-1,1175,1247,0,0
-42,-223,0,0,0,0,0,0,0,0,0,-1,1182,1247,0,0
-35,-223,0,0,0,0,0,0,0,0,0,-1,1189,1247,0,0
-28,-223,0,0,0,0,0,0,0,0,0,-1,1196,1247,0,0
-21,-223,0,0,0,0,0,0,0,0,0,-1,1203,1247,0,0
-14,-223,0,0,0,0,0,0,0,0,0,-1,1210,1247,0,0
-7,-223,0,0,0,0,0,0,0,0,0,-1,1217,1247,0,0
0,-223,0,0,0,0,0,0,0,0,0,-1,1224,1247,0,0
7,-223,0,0,0,0,0,0,0,0,0,-1,1231,1247,0,0
14,-223,0,0,0,0,0,0,0,0,0,-1,1238,1247,0,0
21,-223,0,0,0,0,0,0,0,0,0,-1,1245,1247,0,0
28,-223,0,0,0,0,0,0,0,0,0,-1,1252,1247,0,0
35,-223,0,0,0,0,0,0,0,0,0,-1,1259,1247,0,0
42,-223,0,0,0,0,0,0,0,0,0,-1,1266,1247,0,0
49,-223,0,0,0,0,0,0,0,0,0,-1,1273,1247,0,0
56,-223,0,0,0,0,0,0,0,0,0,-1,1280,1247,0,0
63,-223,0,0,0,0,0,0,0,0,0,-1,1287,1247,0,0
70,-223,0,0,0,0,0,0,0,0,0,-1,1294,1247,0,0
77,-223,0,0,0,0,0,0,0,0,0,-1,1301,1247,0,0
84,-223,0,0,0,0,0,0,0,0,0,-1,1308,1247,0,0
91,-223,0,0,0,0,0,0,0,0,0,-1,1315,1247,0,0
98,-223,0,0,0,0,0,0,0,0,0,-1,1322,1247,0,0
105,-223,0,0,0,0,0,0,0,0,0,-1,1329,1247,0,0
112,-223,0,0,0,0,0,0,0,0,0,-1,1336,1247,0,0
119,-223,0,0,0,0,0,0,0,0,0,-1,1343,1247,0,0
126,-223,0,0,0,0,0,0,0,0,0,-1,1350,1247,0,0
133,-223,0,0,0,0,0,0,0,0,0,-1,1357,1247,0,0
140,-223,0,0,0,0,0,0,0,0,0,-1,1364,1247,0,0
147,-223,0,0,0,0,0,0,0,0,0,-1,1371,1247,0,0
154,-223,0,0,0,0,0,0,0,0,0,-1,1378,1247,0,0
161,-223,0,0,0,0,0,0,0,0,0,-1,1385,1247,0,0
168,-223,0,0,0,0,0,0,0,0,0,-1,1392,1247,0,0
175,-223,0,0,0,0,0,0,0,0,0,-1,1399,1247,0,0
182,-223,0,0,0,0,0,0,0,0,0,-1,1406,1247,0,0
189,-223,0,0,0,0,0,0,0,0,0,-1,1413,1247,0,0
196,-223,0,0,0,0,0,0,0,0,0,-1,1420,1247,0,0
203,-223,0,0,0,0,0,0,0,0,0,-1,1427,1247,0,0
210,-223,0,0,0,0,0,0,0,0,0,-1,1434,1247,0,0
217,-223,0,0,0,0,0,0,0,0,0,-1,1441,1247,0,0
224,-223,0,0,0,0,0,0,0,0,0,-1,1448,1247,0,0
231,-223,0,0,0,0,0,0,0,0,0,-1,1455,1247,0,0
238,-223,0,0,0,0,0,0,0,0,0,-1,1462,1247,0,0
245,-223,0,0,0,0,0,0,0,0,0,-1,1469,1247,0,0
252,-223,0,0,0,0,0,0,0,0,0,-1,1476,1247,0,0
259,-223,0,0,0,0,0,0,0,0,0,-1,1483,1247,0,0
266,-223,0,0,0,0,0,0,0,0,0,-1,1490,1247,0,0
273,-223,0,0,0,0,0,0,0,0,0,-1,1497,1247,0,0
280,-223,0,0,0,0,0,0,0,0,0,-1,1504,1247,0,0
287,-223,0,0,0,0,0,0,0,0,0,-1,1511,1247,0,0
294,-223,0,0,0,0,0,0,0,0,0,-1,1518,1247,0,0
301,-223,0,0,0,0,0,0,0,0,0,-1,1525,1247,0,0
308,-223,0,0,0,0,0,0,0,0,0,-1,1532,1247,0,0
315,-223,0,0,0,0,0,0,0,0,0,-1,1539,1247,0,0
322,-223,0,0,0,0,0,0,0,0,0,-1,1546,1247,0,0
329,-223,0,0,0,0,0,0,0,0,0,-1,1553,1247,0,0
336,-223,0,0,0,0,0,0,0,0,0,-1,1560,1247,0,0
343,-223,0,0,0,0,0,0,0,0,0,-1,1567,1247,0,0
350,-223,0,0,0,0,0,0,0,0,0,-1,1574,1247,0,0
357,-223,0,0,0,0,0,0,0,0,0,-1,1581,1247,0,0
364,-223,0,0,0,0,0,0,0,0,0,-1,1588,1247,0,0
371,-223,0,0,0,0,0,0,0,0,0,-1,1595,1247,0,0
378,-223,0,0,0,0,0,0,0,0,0,-1,1602,1247,0,0
385,-223,0,0,0,0,0,0,0,0,0,-1,1609,1247,0,0
392,-223,0,0,0,0,0,0,0,0,0,-1,1616,1247,0,0
399,-223,0,0,0,0,0,0,0,0,0,-1,1623,1247,0,0
406,-223,0,0,0,0,0,0,0,0,0,-1,1630,1247,0,0
413,-223,0,0,0,0,0,0,0,0,0,-1,1637,1247,0,0
420,-223,0,0,0,0,0,0,0,0,0,-1,1644,1247,0,0
427,-223,0,0,0,0,0,0,0,0,0,-1,1651,1247,0,0
434,-223,0,0,0,0,0,0,0,0,0,-1,1658,1247,0,0
441,-223,0,0,0,0,0,0,0,0,0,-1,1665,1247,0,0
448,-223,0,0,0,0,0,0,0,0,0,-1,1672,1247,0,0
455,-223,0,0,0,0,0,0,0,0,0,-1,1679,1247,0,0
462,-223,0,0,0,0,0,0,0,0,0,-1,1686,1247,0,0
469,-223,0,0,0,0,0,0,0,0,0,-1,1693,1247,0,0
476,-223,0,0,0,0,0,0,0,0,0,-1,1700,1247,0,0
483,-223,0,0,0,0,0,0,0,0,0,-1,1707,1247,0,0
490,-223,0,0,0,0,0,0,0,0,0,-1,1714,1247,0,0
497,-223,0,0,0,0,0,0,0,0,0,-1,1721,1247,0,0
504,-223,0,0,0,0,0,0,0,0,0,-1,1728,1247,0,0
511,-223,0,0,0,0,0,0,0,0,0,-1,1735,1247,0,0
518,-223,0,0,0,0,0,0,0,0,0,-1,1742,1247,0,0
525,-223,0,0,0,0,0,0,0,0,0,-1,1749,1247,0,0
532,-223,0,0,0,0,0,0,0,0,0,-1,1756,1247,0,0
539,-223,0,0,0,0,0,0,0,0,0,-1,1763,1247,0,0
546,-223,0,0,0,0,0,0,0,0,0,-1,1770,1247,0,0
553,-223,0,0,0,0,0,0,0,0,0,-1,1777,1247,0,0
560,-223,0,0,0,0,0,0,0,0,0,-1,1784,1247,0,0
567,-223,0,0,0,0,0,0,0,0,0,-1,1791,1247,0,0
574,-223,0,0,0,0,0,0,0,0,0,-1,1798,1247,0,0
581,-223,0,0,0,0,0,0,0,0,0,-1,1805,1247,0,0
588,-223,0,0,0,0,0,0,0,0,0,-1,1812,1247,0,0
595,-223,0,0,0,0,0,0,0,0,0,-1,1819,1247,0,0
602,-223,0,0,0,0,0,0,0,0,0,-1,1826,1247,0,0
609,-223,0,0,0,0,0,0,0,0,0,-1,1833,1247,0,0
616,-223,0,0,0,0,0,0,0,0,0,-1,1840,1247,0,0
623,-223,22.6046,2.8938,0.00225995,0.00219819,-0.00210477,0.00433407,0.000124077,-0.778063,0.00284892,0.0375604,1847,1247,22.6046,-2.8938
630,-223,22.4983,2.70496,-0.00194656,0.00293497,-0.00202394,0.00366496,-0.00267655,-1.22464,0.00367606,0.0347084,1854,1247,22.4983,-2.705
637,-223,22.5421,2.65002,-0.00477519,0.00287368,-0.00193349,0.00333465,-0.00523616,-1.33675,0.00498879,0.0296714,1861,1247,22.5421,-2.65004
644,-223,22.5563,2.7041,-0.00635452,0.0022984,-0.00167237,0.00261038,-0.0066665,-1.38637,0.00552402,0.0239369,1868,1247,22.5563,-2.70407
651,-223,22.5773,2.74609,-0.00679272,0.00143105,-0.00127031,0.00162281,-0.00698447,-1.42098,0.00528103,0.0283291,1875,1247,22.5773,-2.74608
658,-223,22.6851,2.92297,-0.00661737,0.000634557,-0.000924891,0.000750656,-0.00673347,-1.44592,0.00475898,0.0476988,1882,1247,22.6851,-2.92295
665,-223,22.6013,3.04248,-0.00614099,-6.28005e-05,-0.000609894,-2.20677e-06,-0.00620158,-1.47177,0.00413365,0.0443862,1889,1247,22.6013,-3.04249
672,-223,22.4919,3.04553,-0.00557074,-0.000732397,-0.000360155,-0.000705735,-0.0055974,-1.4969,0.00352002,0.0448078,1896,1247,22.4919,-3.04557
679,-223,22.5277,3.17981,0,0,0,0,0,0,0,-1,1903,1247,22.5277,-3.17986
686,-223,19.097,5.39148,0,0,0,0,0,0,0,-1,1910,1247,19.0971,-5.39149
693,-223,19.1616,5.35205,-0.00333707,-0.00202944,0.00057845,-0.00181029,-0.00355623,1.20864,0.0020533,0.0285567,1917,1247,19.1616,-5.35202
700,-223,19.2042,5.23718,-0.00257408,-0.00248524,0.000681893,-0.00184632,-0.003213,0.817923,0.0018619,0.0130051,1924,1247,19.2042,-5.23724
707,-223,19.1868,5.06311,-0.00187851,-0.00220042,0.000666651,-0.00135366,-0.00272527,0.666946,0.00157345,0.0134106,1931,1247,19.1867,-5.06311
714,-223,19.2026,4.88879,-0.00117606,-0.00154547,0.000384153,-0.000934512,-0.00178701,0.56131,0.00103209,0.0113462,1938,1247,19.2026,-4.88878
721,-223,19.1974,4.71619,-0.000436602,-0.000669468,-3.36649e-05,-0.000431833,-0.000674237,-0.14073,0.000394359,0.0137707,1945,1247,19.1974,-4.71613
728,-223,19.2021,4.54285,0.000553604,0.000860936,-0.000541953,0.00127059,0.000143952,-0.923543,0.000803385,0.0155432,1952,1247,19.2021,-4.5429
735,-223,19.1949,4.3916,0.00189962,0.00314175,-0.00136169,0.00401732,0.00102405,-0.999355,0.0024105,0.014319,1959,1247,19.195,-4.39158
742,-223,19.1685,4.2417,0.00378921,0.00595243,-0.00272698,0.00780447,0.00193717,-0.974198,0.00469249,0.0121409,1966,1247,19.1684,-4.24174
749,-223,19.1821,4.05566,0.00596048,0.00919325,-0.00413657,0.012018,0.00313571,-0.971654,0.00719816,0.0100435,1973,1247,19.1822,-4.05571
756,-223,19.184,3.88391,0.00864451,0.0133467,-0.00570584,0.0171668,0.00482435,-0.980823,0.0102232,0.0103316,1980,1247,19.184,-3.88387
763,-223,19.1857,3.72827,0.0119852,0.0187643,-0.00743904,0.0235496,0.00719988,-0.999167,0.0139343,0.0132775,1987,1247,19.1856,-3.72831
770,-223,19.3523,3.19128,0,0,0,0,0,0,0,-1,1994,1247,19.3523,-3.19123
777,-223,19.0083,3.88684,0.0205162,0.0348785,-0.0112818,0.0410707,0.0143239,-1.06882,0.0240711,0.0488037,2001,1247,19.0083,-3.88682
784,-223,19.158,4.19238,0.0254784,0.0463619,-0.0131975,0.0527489,0.0190915,-1.12007,0.0308392,0.0490493,2008,1247,19.1579,-4.19238
791,-223,19.1019,4.54663,0,0,0,0,0,0,0,-1,2015,1247,19.1019,-4.54658
798,-223,0,0,0,0,0,0,0,0,0,-1,2022,1247,0,0
805,-223,0,0,0,0,0,0,0,0,0,-1,2029,1247,0,0
812,-223,0,0,0,0,0,0,0,0,0,-1,2036,1247,0,0
-700,-230,0,0,0,0,0,0,0,0,0,-1,524,1254,0,0
-693,-230,0,0,0,0,0,0,0,0,0,-1,531,1254,0,0
-686,-230,0,0,0,0,0,0,0,0,0,-1,538,1254,0,0
-679,-230,0,0,0,0,0,0,0,0,0,-1,545,1254,0,0
-672,-230,-10.9014,-4.63147,-0.0170156,0.0748861,-0.0163107,0.0776951,-0.0198246,-1.40025,0.0595159,0.0452064,552,1254,-10.9015,4.63144
-665,-230,-11.5882,-3.90015,0,0,0,0,0,0,0,-1,559,1254,-11.5882,3.90011
-658,-230,-12.1004,-3.43347,-0.000967216,0.0470805,-0.00186877,0.0471531,-0.00103979,-1.53198,0.0317876,0.0436853,566,1254,-12.1004,3.43353
-651,-230,-11.6744,0.514404,0.00212298,0.0358566,0.00116832,0.035897,0.00208256,1.53622,0.0232683,0.0466932,573,1254,-11.6744,-0.514379
-644,-230,-11.4946,1.4292,0,0,0,0,0,0,0,-1,580,1254,-11.4946,-1.42915
-637,-230,-10.9745,1.07104,0,0,0,0,0,0,0,-1,587,1254,-10.9746,-1.0711
-630,-230,-11.2291,1.92944,0.00297267,0.0132827,0.00231507,0.0137787,0.00247669,1.35975,0.00848164,0.0418116,594,1254,-11.2291,-1.92947
-623,-230,-10.9084,1.54529,0.00316646,0.00761766,0.00218763,0.0085128,0.00227132,1.1824,0.00508992,0.0270572,601,1254,-10.9084,-1.5453
-616,-230,-10.9264,1.6936,0.00261692,0.00379154,0.00171568,0.00501765,0.00139081,0.950307,0.00299129,0.0164435,608,1254,-10.9264,-1.69363
-609,-230,-10.9177,1.90063,0.00111643,0.00354039,0.0009444,0.00386489,0.000791922,1.23983,0.00235738,0.0118487,615,1254,-10.9176,-1.90059
-602,-230,-10.8997,2.10083,0.000579051,0.000892188,-0.000385753,0.00115194,0.000319303,-0.97818,0.000686729,0.0108599,622,1254,-10.8997,-2.10078
-595,-230,-10.9038,2.32031,0.000365318,0.000617404,-0.000983232,0.00148264,-0.000499917,-0.849147,0.00119058,0.0188282,629,1254,-10.9038,-2.32027
-588,-230,-10.9136,2.52148,0.000898624,0.000506361,-0.000614229,0.00134728,5.77092e-05,-0.630859,0.000879579,0.0267813,636,1254,-10.9136,-2.52143
-581,-230,-10.9079,2.77307,0.00143426,0.000359696,-0.000268543,0.00149764,0.000296322,-0.231751,0.000915773,0.024422,643,1254,-10.9079,-2.77304
-574,-230,-10.9051,2.96252,0.00164355,0.000427924,0.000186579,0.00167154,0.000399931,0.148919,0.00100786,0.0166734,650,1254,-10.9051,-2.96254
-567,-230,-10.7444,3.19495,0.000889259,0.00174019,-0.000231731,0.00179921,0.000830246,-1.32143,0.0010398,0.0211586,657,1254,-10.7444,-3.1949
-560,-230,-10.5666,3.46143,-9.79197e-05,0.00339378,-0.00115592,0.00374177,-0.000445904,-1.27838,0.00265565,0.0366517,664,1254,-10.5666,-3.46143
-553,-230,-10.1736,3.66504,0,0,0,0,0,0,0,-1,671,1254,-10.1736,-3.665
-546,-230,-10.7707,1.62012,0,0,0,0,0,0,0,-1,678,1254,-10.7707,-1.62008
-539,-230,-14.422,0.654053,0,0,0,0,0,0,0,-1,685,1254,-14.422,-0.654023
-532,-230,-14.3732,1.15698,0,0,0,0,0,0,0,-1,692,1254,-14.3732,-1.15692
-525,-230,-14.6971,0.940918,0,0,0,0,0,0,0,-1,699,1254,-14.6971,-0.940861
-518,-230,-14.8059,0.970947,-0.0148789,0.0181427,-0.00567709,0.0190914,-0.0158277,-1.40521,0.0201899,0.0436646,706,1254,-14.8059,-0.970996
-511,-230,-14.9496,0.981323,-0.0181269,0.0204369,-0.00637449,0.0214633,-0.0191533,-1.41115,0.0234626,0.0370033,713,1254,-14.9497,-0.981286
-504,-230,-14.9421,0.978516,-0.0192294,0.0211161,-0.00586531,0.0219515,-0.0200648,-1.42932,0.0242663,0.0388236,720,1254,-14.9421,-0.978491
-497,-230,0,0,0,0,0,0,0,0,0,-1,727,1254,0,0
-490,-230,0,0,0,0,0,0,0,0,0,-1,734,1254,0,0
-483,-230,0,0,0,0,0,0,0,0,0,-1,741,1254,0,0
-476,-230,0,0,0,0,0,0,0,0,0,-1,748,1254,0,0
-469,-230,0,0,0,0,0,0,0,0,0,-1,755,1254,0,0
-462,-230,0,0,0,0,0,0,0,0,0,-1,762,1254,0,0
-455,-230,0,0,0,0,0,0,0,0,0,-1,769,1254,0,0
-448,-230,0,0,0,0,0,0,0,0,0,-1,776,1254,0,0
-441,-230,0,0,0,0,0,0,0,0,0,-1,783,1254,0,0
-434,-230,0,0,0,0,0,0,0,0,0,-1,790,1254,0,0
-427,-230,0,0,0,0,0,0,0,0,0,-1,797,1254,0,0
-420,-230,0,0,0,0,0,0,0,0,0,-1,804,1254,0,0
-413,-230,0,0,0,0,0,0,0,0,0,-1,811,1254,0,0
-406,-230,0,0,0,0,0,0,0,0,0,-1,818,1254,0,0
-399,-230,0,0,0,0,0,0,0,0,0,-1,825,1254,0,0
-392,-230,0,0,0,0,0,0,0,0,0,-1,832,1254,0,0
-385,-230,0,0,0,0,0,0,0,0,0,-1,839,1254,0,0
-378,-230,0,0,0,0,0,0,0,0,0,-1,846,1254,0,0
-371,-230,0,0,0,0,0,0,0,0,0,-1,853,1254,0,0
-364,-230,0,0,0,0,0,0,0,0,0,-1,860,1254,0,0
-357,-230,0,0,0,0,0,0,0,0,0,-1,867,1254,0,0
-350,-230,0,0,0,0,0,0,0,0,0,-1,874,1254,0,0
-343,-230,0,0,0,0,0,0,0,0,0,-1,881,1254,0,0
-336,-230,0,0,0,0,0,0,0,0,0,-1,888,1254,0,0
-329,-230,0,0,0,0,0,0,0,0,0,-1,895,1254,0,0
-322,-230,0,0,0,0,0,0,0,0,0,-1,902,1254,0,0
-315,-230,0,0,0,0,0,0,0,0,0,-1,909,1254,0,0
-308,-230,0,0,0,0,0,0,0,0,0,-1,916,1254,0,0
-301,-230,0,0,0,0,0,0,0,0,0,-1,923,1254,0,0
-294,-230,0,0,0,0,0,0,0,0,0,-1,930,1254,0,0
-287,-230,0,0,0,0,0,0,0,0,0,-1,937,1254,0,0
-280,-230,0,0,0,0,0,0,0,0,0,-1,944,1254,0,0
-273,-230,0,0,0,0,0,0,0,0,0,-1,951,1254,0,0
-266,-230,0,0,0,0,0,0,0,0,0,-1,958,1254,0,0
-259,-230,0,0,0,0,0,0,0,0,0,-1,965,1254,0,0
-252,-230,0,0,0,0,0,0,0,0,0,-1,972,1254,0,0
-245,-230,0,0,0,0,0,0,0,0,0,-1,979,1254,0,0
-238,-230,0,0,0,0,0,0,0,0,0,-1,986,1254,0,0
-231,-230,0,0,0,0,0,0,0,0,0,-1,993,1254,0,0
-224,-230,0,0,0,0,0,0,0,0,0,-1,1000,1254,0,0
-217,-230,0,0,0,0,0,0,0,0,0,-1,1007,1254,0,0
-210,-230,0,0,0,0,0,0,0,0,0,-1,1014,1254,0,0
-203,-230,0,0,0,0,0,0,0,0,0,-1,1021,1254,0,0
-196,-230,0,0,0,0,0,0,0,0,0,-1,1028,1254,0,0
-189,-230,0,0,0,0,0,0,0,0,0,-1,1035,1254,0,0
-182,-230,0,0,0,0,0,0,0,0,0,-1,1042,1254,0,0
-175,-230,0,0,0,0,0,0,0,0,0,-1,1049,1254,0,0
-168,-230,0,0,0,0,0,0,0,0,0,-1,1056,1254,0,0
-161,-230,0,0,0,0,0,0,0,0,0,-1,1063,1254,0,0
-154,-230,0,0,0,0,0,0,0,0,0,-1,1070,1254,0,0
-147,-230,0,0,0,0,0,0,0,0,0,-1,1077,1254,0,0
-140,-230,0,0,0,0,0,0,0,0,0,-1,1084,1254,0,0
-133,-230,0,0,0,0,0,0,0,0,0,-1,1091,1254,0,0
-126,-230,0,0,0,0,0,0,0,0,0,-1,1098,1254,0,0
-119,-230,0,0,0,0,0,0,0,0,0,-1,1105,1254,0,0
-112,-230,0,0,0,0,0,0,0,0,0,-1,1112,1254,0,0
-105,-230,0,0,0,0,0,0,0,0,0,-1,1119,1254,0,0
-98,-230,0,0,0,0,0,0,0,0,0,-1,1126,1254,0,0
-91,-230,0,0,0,0,0,0,0,0,0,-1,1133,1254,0,0
-84,-230,0,0,0,0,0,0,0,0,0,-1,1140,1254,0,0
-77,-230,0,0,0,0,0,0,0,0,0,-1,1147,1254,0,0
-70,-230,0,0,0,0,0,0,0,0,0,-1,1154,1254,0,0
-63,-230,0,0,0,0,0,0,0,0,0,-1,1161,1254,0,0
-56,-230,0,0,0,0,0,0,0,0,0,-1,1168,1254,0,0
-49,-230,0,0,0,0,0,0,0,0,0,-1,1175,1254,0,0
-42,-230,0,0,0,0,0,0,0,0,0,-1,1182,1254,0,0
-35,-230,0,0,0,0,0,0,0,0,0,-1,1189,1254,0,0
-28,-230,0,0,0,0,0,0,0,0,0,-1,1196,1254,0,0
-21,-230,0,0,0,0,0,0,0,0,0,-1,1203,1254,0,0
-14,-230,0,0,0,0,0,0,0,0,0,-1,1210,1254,0,0
-7,-230,0,0,0,0,0,0,0,0,0,-1,1217,1254,0,0
0,-230,0,0,0,0,0,0,0,0,0,-1,1224,1254,0,0
7,-230,0,0,0,0,0,0,0,0,0,-1,1231,1254,0,0
14,-230,0,0,0,0,0,0,0,0,0,-1,1238,1254,0,0
21,-230,0,0,0,0,0,0,0,0,0,-1,1245,1254,0,0
28,-230,0,0,0,0,0,0,0,0,0,-1,1252,1254,0,0
35,-230,0,0,0,0,0,0,0,0,0,-1,1259,1254,0,0
42,-230,0,0,0,0,0,0,0,0,0,-1,1266,1254,0,0
49,-230,0,0,0,0,0,0,0,0,0,-1,1273,1254,0,0
56,-230,0,0,0,0,0,0,0,0,0,-1,1280,1254,0,0
63,-230,0,0,0,0,0,0,0,0,0,-1,1287,1254,0,0
70,-230,0,0,0,0,0,0,0,0,0,-1,1294,1254,0,0
77,-230,0,0,0,0,0,0,0,0,0,-1,1301,1254,0,0
84,-230,0,0,0,0,0,0,0,0,0,-1,1308,1254,0,0
91,-230,0,0,0,0,0,0,0,0,0,-1,1315,1254,0,0
98,-230,0,0,0,0,0,0,0,0,0,-1,1322,1254,0,0
105,-230,0,0,0,0,0,0,0,0,0,-1,1329,1254,0,0
112,-230,0,0,0,0,0,0,0,0,0,-1,1336,1254,0,0
119,-230,0,0,0,0,0,0,0,0,0,-1,1343,1254,0,0
126,-230,0,0,0,0,0,0,0,0,0,-1,1350,1254,0,0
133,-230,0,0,0,0,0,0,0,0,0,-1,1357,1254,0,0
140,-230,0,0,0,0,0,0,0,0,0,-1,1364,1254,0,0
147,-230,0,0,0,0,0,0,0,0,0,-1,1371,1254,0,0
154,-230,0,0,0,0,0,0,0,0,0,-1,1378,1254,0,0
161,-230,0,0,0,0,0,0,0,0,0,-1,1385,1254,0,0
168,-230,0,0,0,0,0,0,0,0,0,-1,1392,1254,0,0
175,-230,0,0,0,0,0,0,0,0,0,-1,1399,1254,0,0
182,-230,0,0,0,0,0,0,0,0,0,-1,1406,1254,0,0
189,-230,0,0,0,0,0,0,0,0,0,-1,1413,1254,0,0
196,-230,0,0,0,0,0,0,0,0,0,-1,1420,1254,0,0
203,-230,0,0,0,0,0,0,0,0,0,-1,1427,1254,0,0
210,-230,0,0,0,0,0,0,0,0,0,-1,1434,1254,0,0
217,-230,0,0,0,0,0,0,0,0,0,-1,1441,1254,0,0
224,-230,0,0,0,0,0,0,0,0,0,-1,1448,1254,0,0
231,-230,0,0,0,0,0,0,0,0,0,-1,1455,1254,0,0
238,-230,0,0,0,0,0,0,0,0,0,-1,1462,1254,0,0
245,-230,0,0,0,0,0,0,0,0,0,-1,1469,1254,0,0
252,-230,0,0,0,0,0,0,0,0,0,-1,1476,1254,0,0
259,-230,0,0,0,0,0,0,0,0,0,-1,1483,1254,0,0
266,-230,0,0,0,0,0,0,0,0,0,-1,1490,1254,0,0
273,-230,0,0,0,0,0,0,0,0,0,-1,1497,1254,0,0
280,-230,0,0,0,0,0,0,0,0,0,-1,1504,1254,0,0
287,-230,0,0,0,0,0,0,0,0,0,-1,1511,1254,0,0
294,-230,0,0,0,0,0,0,0,0,0,-1,1518,1254,0,0
301,-230,0,0,0,0,0,0,0,0,0,-1,1525,1254,0,0
308,-230,0,0,0,0,0,0,0,0,0,-1,1532,1254,0,0
315,-230,0,0,0,0,0,0,0,0,0,-1,1539,1254,0,0
322,-230,0,0,0,0,0,0,0,0,0,-1,1546,1254,0,0
329,-230,0,0,0,0,0,0,0,0,0,-1,1553,1254,0,0
336,-230,0,0,0,0,0,0,0,0,0,-1,1560,1254,0,0
343,-230,0,0,0,0,0,0,0,0,0,-1,1567,1254,0,0
350,-230,0,0,0,0,0,0,0,0,0,-1,1574,1254,0,0
357,-230,0,0,0,0,0,0,0,0,0,-1,1581,1254,0,0
364,-230,0,0,0,0,0,0,0,0,0,-1,1588,1254,0,0
371,-230,0,0,0,0,0,0,0,0,0,-1,1595,1254,0,0
378,-230,0,0,0,0,0,0,0,0,0,-1,1602,1254,0,0
385,-230,0,0,0,0,0,0,0,0,0,-1,1609,1254,0,0
392,-230,0,0,0,0,0,0,0,0,0,-1,1616,1254,0,0
399,-230,0,0,0,0,0,0,0,0,0,-1,1623,1254,0,0
406,-230,0,0,0,0,0,0,0,0,0,-1,1630,1254,0,0
413,-230,0,0,0,0,0,0,0,0,0,-1,1637,1254,0,0
420,-230,0,0,0,0,0,0,0,0,0,-1,1644,1254,0,0
427,-230,0,0,0,0,0,0,0,0,0,-1,1651,1254,0,0
434,-230,0,0,0,0,0,0,0,0,0,-1,1658,1254,0,0
441,-230,0,0,0,0,0,0,0,0,0,-1,1665,1254,0,0
448,-230,0,0,0,0,0,0,0,0,0,-1,1672,1254,0,0
455,-230,0,0,0,0,0,0,0,0,0,-1,1679,1254,0,0
462,-230,0,0,0,0,0,0,0,0,0,-1,1686,1254,0,0
469,-230,0,0,0,0,0,0,0,0,0,-1,1693,1254,0,0
476,-230,0,0,0,0,0,0,0,0,0,-1,1700,1254,0,0
483,-230,0,0,0,0,0,0,0,0,0,-1,1707,1254,0,0
490,-230,0,0,0,0,0,0,0,0,0,-1,1714,1254,0,0
497,-230,0,0,0,0,0,0,0,0,0,-1,1721,1254,0,0
504,-230,0,0,0,0,0,0,0,0,0,-1,1728,1254,0,0
511,-230,0,0,0,0,0,0,0,0,0,-1,1735,1254,0,0
518,-230,0,0,0,0,0,0,0,0,0,-1,1742,1254,0,0
525,-230,0,0,0,0,0,0,0,0,0,-1,1749,1254,0,0
532,-230,0,0,0,0,0,0,0,0,0,-1,1756,1254,0,0
539,-230,0,0,0,0,0,0,0,0,0,-1,1763,1254,0,0
546,-230,0,0,0,0,0,0,0,0,0,-1,1770,1254,0,0
553,-230,0,0,0,0,0,0,0,0,0,-1,1777,1254,0,0
560,-230,0,0,0,0,0,0,0,0,0,-1,1784,1254,0,0
567,-230,0,0,0,0,0,0,0,0,0,-1,1791,1254,0,0
574,-230,0,0,0,0,0,0,0,0,0,-1,1798,1254,0,0
581,-230,0,0,0,0,0,0,0,0,0,-1,1805,1254,0,0
588,-230,0,0,0,0,0,0,0,0,0,-1,1812,1254,0,0
595,-230,0,0,0,0,0,0,0,0,0,-1,1819,1254,0,0
602,-230,0,0,0,0,0,0,0,0,0,-1,1826,1254,0,0
609,-230,0,0,0,0,0,0,0,0,0,-1,1833,1254,0,0
616,-230,22.6807,2.89954,0.008184,0.00157698,-0.0022906,0.00890045,0.00086054,-0.303136,0.0056686,0.0358249,1840,1254,22.6807,-2.8995
623,-230,22.7255,2.94238,0.000655787,0.00300129,-0.00251854,0.00460674,-0.000949664,-1.00329,0.0034318,0.03548,1847,1254,22.7254,-2.94238
630,-230,22.6368,2.78687,-0.00506768,0.00355935,-0.00251971,0.00424136,-0.0057497,-1.30646,0.00579021,0.0313746,1854,1254,22.6369,-2.78688
637,-230,22.5201,2.73328,-0.00867355,0.00335141,-0.00229796,0.00377559,-0.00909772,-1.38826,0.0076412,0.0279129,1861,1254,22.5201,-2.73329
644,-230,22.4883,2.68726,-0.0102544,0.00269934,-0.00189291,0.00297028,-0.0105253,-1.42863,0.00818857,0.022672,1868,1254,22.4882,-2.68731
651,-230,22.4752,2.66968,-0.0103759,0.00184199,-0.00139547,0.00199935,-0.0105332,-1.45851,0.00777478,0.0427875,1875,1254,22.4753,-2.66964
658,-230,22.4091,2.74365,-0.00982755,0.00105786,-0.000975537,0.0011446,-0.00991429,-1.48212,0.00702222,0.0468944,1882,1254,22.4091,-2.74367
665,-230,22.4464,2.73523,-0.00897001,0.000379725,-0.0006156,0.000420083,-0.00901036,-1.50533,0.00615172,0.047731,1889,1254,22.4464,-2.73522
672,-230,22.6277,2.86804,-0.00801371,-0.000286474,-0.000344383,-0.000271156,-0.00802903,-1.52635,0.00526463,0.0490657,1896,1254,22.6277,-2.86803
679,-230,22.7843,3.05664,0,0,0,0,0,0,0,-1,1903,1254,22.7844,-3.05662
686,-230,19.3057,5.52393,-0.00564531,-0.00135475,0.000468702,-0.00130414,-0.00569591,1.46325,0.00344583,0.0488454,1910,1254,19.3057,-5.52397
693,-230,18.9827,5.39001,-0.00424803,-0.00174451,0.000681459,-0.00157104,-0.0044215,1.32153,0.00258814,0.0225682,1917,1254,18.9827,-5.39002
700,-230,19.0387,5.25464,-0.00311667,-0.00226409,0.00073613,-0.00183973,-0.00354103,1.04785,0.00204494,0.01106,1924,1254,19.0387,-5.25468
707,-230,19.0347,5.09216,-0.00208325,-0.00196058,0.00060386,-0.00141495,-0.00262889,0.83601,0.00151927,0.00950657,1931,1254,19.0346,-5.09217
714,-230,19.0068,4.90894,-0.00116063,-0.00119992,0.000190971,-0.000988296,-0.00137225,0.734139,0.00081748,0.0124787,1938,1254,19.0069,-4.90898
721,-230,19.0072,4.7179,-0.000285572,-0.000245889,-0.000359185,9.40015e-05,-0.000625463,-0.81299,0.000451582,0.0118128,1945,1254,19.0072,-4.71788
728,-230,19.0198,4.55688,0.000872937,0.00145343,-0.00105014,0.0022527,7.36687e-05,-0.920226,0.00147785,0.0127467,1952,1254,19.0197,-4.55684
735,-230,19.0208,4.41284,0.00230699,0.00385799,-0.00200544,0.00523265,0.000932331,-0.969891,0.00322293,0.0142186,1959,1254,19.0207,-4.41281
742,-230,18.9934,4.23596,0.00421527,0.00684887,-0.00351265,0.00928343,0.00178071,-0.964728,0.00568905,0.011073,1966,1254,18.9935,-4.23596
749,-230,18.9965,4.026,0.00643817,0.0103265,-0.00510443,0.0138445,0.00292019,-0.967355,0.00842664,0.0101617,1973,1254,18.9965,-4.02599
756,-230,18.9996,3.84412,0.00920517,0.0148139,-0.00691471,0.0194713,0.00454779,-0.978045,0.0117617,0.0116782,1980,1254,18.9996,-3.84406
763,-230,18.9879,3.63831,0.0126465,0.0206633,-0.00894412,0.0264562,0.00685363,-0.996061,0.0158546,0.0236247,1987,1254,18.9879,-3.63836
770,-230,19.0475,3.2113,0.016725,0.0282181,-0.011154,0.0350188,0.00992422,-1.02326,0.0208409,0.0403192,1994,1254,19.0474,-3.2113
777,-230,19.2565,3.43518,0.0213386,0.0378152,-0.0134535,0.0453524,0.0138014,-1.06012,0.0268444,0.0461928,2001,1254,19.2565,-3.43518
784,-230,19.3193,3.84839,0.0263407,0.0498454,-0.0157094,0.057712,0.0184741,-1.10654,0.0340313,0.045369,2008,1254,19.3194,-3.84835
791,-230,19.2966,3.93213,0.0309713,0.0646988,-0.0175953,0.0722067,0.0234633,-1.16748,0.0425317,0.0479222,2015,1254,19.2967,-3.93212
798,-230,0,0,0,0,0,0,0,0,0,-1,2022,1254,0,0
805,-230,0,0,0,0,0,0,0,0,0,-1,2029,1254,0,0
812,-230,0,0,0,0,0,0,0,0,0,-1,2036,1254,0,0
-700,-237,0,0,0,0,0,0,0,0,0,-1,524,1261,0,0
-693,-237,0,0,0,0,0,0,0,0,0,-1,531,1261,0,0
-686,-237,0,0,0,0,0,0,0,0,0,-1,538,1261,0,0
-679,-237,0,0,0,0,0,0,0,0,0,-1,545,1261,0,0
-672,-237,-10.5858,-4.05542,0,0,0,0,0,0,0,-1,552,1261,-10.5858,4.05542
-665,-237,-10.6426,-4.25684,0,0,0,0,0,0,0,-1,559,1261,-10.6426,4.2568
-658,-237,-10.8959,-2.98511,0,0,0,0,0,0,0,-1,566,1261,-10.8959,2.98508
-651,-237,-10.4243,-1.79956,0,0,0,0,0,0,0,-1,573,1261,-10.4243,1.79955
-644,-237,-10.504,1.22229,0,0,0,0,0,0,0,-1,580,1261,-10.504,-1.22227
-637,-237,-10.569,1.32153,0.000285904,0.0128547,-0.000368106,0.0128655,0.000275132,-1.54154,0.00848677,0.0489994,587,1261,-10.5691,-1.32148
-630,-237,-10.5825,1.41602,8.44233e-05,0.00908675,-0.00028302,0.00909564,7.55345e-05,-1.5394,0.00603874,0.0432424,594,1261,-10.5825,-1.41607
-623,-237,-10.6177,1.55505,0.000532845,0.0051904,2.32294e-05,0.00519051,0.000532729,1.56581,0.00329714,0.0290066,601,1261,-10.6177,-1.55499
-616,-237,-10.687,1.67932,0.000621208,0.00269693,3.46239e-05,0.0026975,0.000620631,1.55412,0.0016313,0.0144084,608,1261,-10.687,-1.6793
-609,-237,-10.6971,1.89221,8.99285e-05,0.00328286,-4.29166e-05,0.00328343,8.93518e-05,-1.55736,0.00215979,0.0159925,615,1261,-10.6972,-1.89225
-602,-237,-10.6853,2.10706,0.000317576,0.00122917,-0.000746302,0.00164785,-0.000101108,-1.05954,0.00113378,0.0113722,622,1261,-10.6853,-2.10711
-595,-237,-10.696,2.29785,0.000672376,0.00113932,-0.000993276,0.00192619,-0.000114498,-0.900829,0.00132395,0.0149033,629,1261,-10.6961,-2.29788
-588,-237,-10.6906,2.54932,0.00174886,0.00110227,-0.00040007,0.00193993,0.000911192,-0.445568,0.00112071,0.0262623,636,1261,-10.6906,-2.54929
-581,-237,-10.6724,2.79321,0.00269199,0.000877887,0.000100599,0.00269756,0.000872325,0.0552283,0.00158949,0.0245955,643,1261,-10.6723,-2.79324
-574,-237,-10.6988,2.97498,0.00312404,0.000887553,0.000595412,0.00327268,0.000738917,0.244635,0.00198194,0.0145259,650,1261,-10.6988,-2.97503
-567,-237,-10.655,3.18994,0.00220272,0.00234902,5.03234e-05,0.00236465,0.00218708,1.2695,0.0015207,0.0146414,657,1261,-10.655,-3.18999
-560,-237,-10.451,3.46289,0.000739796,0.00419456,-0.00104912,0.00448819,0.000446164,-1.29789,0.00285505,0.0288618,664,1261,-10.451,-3.46288
-553,-237,-10.2421,3.69958,0,0,0,0,0,0,0,-1,671,1261,-10.242,-3.69958
-546,-237,-11.192,1.14014,0,0,0,0,0,0,0,-1,678,1261,-11.192,-1.14011
-539,-237,-13.4818,0.418091,0,0,0,0,0,0,0,-1,685,1261,-13.4818,-0.418099
-532,-237,-13.862,1.20667,0,0,0,0,0,0,0,-1,692,1261,-13.862,-1.20666
-525,-237,-14.4085,0.797852,0,0,0,0,0,0,0,-1,699,1261,-14.4085,-0.797838
-518,-237,-14.5654,0.825317,-0.0172734,0.0215405,-0.00684224,0.0227113,-0.0184442,-1.40132,0.0238037,0.0446954,706,1261,-14.5654,-0.825339
-511,-237,-14.7529,0.872681,-0.0215465,0.0248137,-0.0078117,0.0260945,-0.0228274,-1.40827,0.0282661,0.0402074,713,1261,-14.7529,-0.87274
-504,-237,-14.949,1.08093,-0.0247541,0.0271294,-0.00776071,0.0282654,-0.0258901,-1.42545,0.0312767,0.0413785,720,1261,-14.949,-1.08094
-497,-237,-15.1039,1.46899,-0.0233868,0.0265674,-0.00549673,0.027165,-0.0239845,-1.46249,0.0295502,0.0492014,727,1261,-15.1039,-1.46895
-490,-237,0,0,0,0,0,0,0,0,0,-1,734,1261,0,0
-483,-237,0,0,0,0,0,0,0,0,0,-1,741,1261,0,0
-476,-237,0,0,0,0,0,0,0,0,0,-1,748,1261,0,0
-469,-237,0,0,0,0,0,0,0,0,0,-1,755,1261,0,0
-462,-237,0,0,0,0,0,0,0,0,0,-1,762,1261,0,0
-455,-237,0,0,0,0,0,0,0,0,0,-1,769,1261,0,0
-448,-237,0,0,0,0,0,0,0,0,0,-1,776,1261,0,0
-441,-237,0,0,0,0,0,0,0,0,0,-1,783,1261,0,0
-434,-237,0,0,0,0,0,0,0,0,0,-1,790,1261,0,0
-427,-237,0,0,0,0,0,0,0,0,0,-1,797,1261,0,0
-420,-237,0,0,0,0,0,0,0,0,0,-1,804,1261,0,0
-413,-237,0,0,0,0,0,0,0,0,0,-1,811,1261,0,0
-406,-237,0,0,0,0,0,0,0,0,0,-1,818,1261,0,0
-399,-237,0,0,0,0,0,0,0,0,0,-1,825,1261,0,0
-392,-237,0,0,0,0,0,0,0,0,0,-1,832,1261,0,0
-385,-237,0,0,0,0,0,0,0,0,0,-1,839,1261,0,0
-378,-237,0,0,0,0,0,0,0,0,0,-1,846,1261,0,0
-371,-237,0,0,0,0,0,0,0,0,0,-1,853,1261,0,0
-364,-237,0,0,0,0,0,0,0,0,0,-1,860,1261,0,0
-357,-237,0,0,0,0,0,0,0,0,0,-1,867,1261,0,0
-350,-237,0,0,0,0,0,0,0,0,0,-1,874,1261,0,0
-343,-237,0,0,0,0,0,0,0,0,0,-1,881,1261,0,0
-336,-237,0,0,0,0,0,0,0,0,0,-1,888,1261,0,0
-329,-237,0,0,0,0,0,0,0,0,0,-1,895,1261,0,0
-322,-237,0,0,0,0,0,0,0,0,0,-1,902,1261,0,0
-315,-237,0,0,0,0,0,0,0,0,0,-1,909,1261,0,0
-308,-237,0,0,0,0,0,0,0,0,0,-1,916,1261,0,0
-301,-237,0,0,0,0,0,0,0,0,0,-1,923,1261,0,0
-294,-237,0,0,0,0,0,0,0,0,0,-1,930,1261,0,0
-287,-237,0,0,0,0,0,0,0,0,0,-1,937,1261,0,0
-280,-237,0,0,0,0,0,0,0,0,0,-1,944,1261,0,0
-273,-237,0,0,0,0,0,0,0,0,0,-1,951,1261,0,0
-266,-237,0,0,0,0,0,0,0,0,0,-1,958,1261,0,0
-259,-237,0,0,0,0,0,0,0,0,0,-1,965,1261,0,0
-252,-237,0,0,0,0,0,0,0,0,0,-1,972,1261,0,0
-245,-237,0,0,0,0,0,0,0,0,0,-1,979,1261,0,0
-238,-237,0,0,0,0,0,0,0,0,0,-1,986,1261,0,0
-231,-237,0,0,0,0,0,0,0,0,0,-1,993,1261,0,0
-224,-237,0,0,0,0,0,0,0,0,0,-1,1000,1261,0,0
-217,-237,0,0,0,0,0,0,0,0,0,-1,1007,1261,0,0
-210,-237,0,0,0,0,0,0,0,0,0,-1,1014,1261,0,0
-203,-237,0,0,0,0,0,0,0,0,0,-1,1021,1261,0,0
-196,-237,0,0,0,0,0,0,0,0,0,-1,1028,1261,0,0
-189,-237,0,0,0,0,0,0,0,0,0,-1,1035,1261,0,0
-182,-237,0,0,0,0,0,0,0,0,0,-1,1042,1261,0,0
-175,-237,0,0,0,0,0,0,0,0,0,-1,1049,1261,0,0
-168,-237,0,0,0,0,0,0,0,0,0,-1,1056,1261,0,0
-161,-237,0,0,0,0,0,0,0,0,0,-1,1063,1261,0,0
-154,-237,0,0,0,0,0,0,0,0,0,-1,1070,1261,0,0
-147,-237,0,0,0,0,0,0,0,0,0,-1,1077,1261,0,0
-140,-237,0,0,0,0,0,0,0,0,0,-1,1084,1261,0,0
-133,-237,0,0,0,0,0,0,0,0,0,-1,1091,1261,0,0
-126,-237,0,0,0,0,0,0,0,0,0,-1,1098,1261,0,0
-119,-237,0,0,0,0,0,0,0,0,0,-1,1105,1261,0,0
-112,-237,0,0,0,0,0,0,0,0,0,-1,1112,1261,0,0
-105,-237,0,0,0,0,0,0,0,0,0,-1,1119,1261,0,0
-98,-237,0,0,0,0,0,0,0,0,0,-1,1126,1261,0,0
-91,-237,0,0,0,0,0,0,0,0,0,-1,1133,1261,0,0
-84,-237,0,0,0,0,0,0,0,0,0,-1,1140,1261,0,0
-77,-237,0,0,0,0,0,0,0,0,0,-1,1147,1261,0,0
-70,-237,0,0,0,0,0,0,0,0,0,-1,1154,1261,0,0
-63,-237,0,0,0,0,0,0,0,0,0,-1,1161,1261,0,0
-56,-237,0,0,0,0,0,0,0,0,0,-1,1168,1261,0,0
-49,-237,0,0,0,0,0,0,0,0,0,-1,1175,1261,0,0
-42,-237,0,0,0,0,0,0,0,0,0,-1,1182,1261,0,0
-35,-237,0,0,0,0,0,0,0,0,0,-1,1189,1261,0,0
-28,-237,0,0,0,0,0,0,0,0,0,-1,1196,1261,0,0
-21,-237,0,0,0,0,0,0,0,0,0,-1,1203,1261,0,0
-14,-237,0,0,0,0,0,0,0,0,0,-1,1210,1261,0,0
-7,-237,0,0,0,0,0,0,0,0,0,-1,1217,1261,0,0
0,-237,0,0,0,0,0,0,0,0,0,-1,1224,1261,0,0
7,-237,0,0,0,0,0,0,0,0,0,-1,1231,1261,0,0
14,-237,0,0,0,0,0,0,0,0,0,-1,1238,1261,0,0
21,-237,0,0,0,0,0,0,0,0,0,-1,1245,1261,0,0
28,-237,0,0,0,0,0,0,0,0,0,-1,1252,1261,0,0
35,-237,0,0,0,0,0,0,0,0,0,-1,1259,1261,0,0
42,-237,0,0,0,0,0,0,0,0,0,-1,1266,1261,0,0
49,-237,0,0,0,0,0,0,0,0,0,-1,1273,1261,0,0
56,-237,0,0,0,0,0,0,0,0,0,-1,1280,1261,0,0
63,-237,0,0,0,0,0,0,0,0,0,-1,1287,1261,0,0
70,-237,0,0,0,0,0,0,0,0,0,-1,1294,1261,0,0
77,-237,0,0,0,0,0,0,0,0,0,-1,1301,1261,0,0
84,-237,0,0,0,0,0,0,0,0,0,-1,1308,1261,0,0
91,-237,0,0,0,0,0,0,0,0,0,-1,1315,1261,0,0
98,-237,0,0,0,0,0,0,0,0,0,-1,1322,1261,0,0
105,-237,0,0,0,0,0,0,0,0,0,-1,1329,1261,0,0
112,-237,0,0,0,0,0,0,0,0,0,-1,1336,1261,0,0
119,-237,0,0,0,0,0,0,0,0,0,-1,1343,1261,0,0
126,-237,0,0,0,0,0,0,0,0,0,-1,1350,1261,0,0
133,-237,0,0,0,0,0,0,0,0,0,-1,1357,1261,0,0
140,-237,0,0,0,0,0,0,0,0,0,-1,1364,1261,0,0
147,-237,0,0,0,0,0,0,0,0,0,-1,1371,1261,0,0
154,-237,0,0,0,0,0,0,0,0,0,-1,1378,1261,0,0
161,-237,0,0,0,0,0,0,0,0,0,-1,1385,1261,0,0
168,-237,0,0,0,0,0,0,0,0,0,-1,1392,1261,0,0
175,-237,0,0,0,0,0,0,0,0,0,-1,1399,1261,0,0
182,-237,0,0,0,0,0,0,0,0,0,-1,1406,1261,0,0
189,-237,0,0,0,0,0,0,0,0,0,-1,1413,1261,0,0
196,-237,0,0,0,0,0,0,0,0,0,-1,1420,1261,0,0
203,-237,0,0,0,0,0,0,0,0,0,-1,1427,1261,0,0
210,-237,0,0,0,0,0,0,0,0,0,-1,1434,1261,0,0
217,-237,0,0,0,0,0,0,0,0,0,-1,1441,1261,0,0
224,-237,0,0,0,0,0,0,0,0,0,-1,1448,1261,0,0
231,-237,0,0,0,0,0,0,0,0,0,-1,1455,1261,0,0
238,-237,0,0,0,0,0,0,0,0,0,-1,1462,1261,0,0
245,-237,0,0,0,0,0,0,0,0,0,-1,1469,1261,0,0
252,-237,0,0,0,0,0,0,0,0,0,-1,1476,1261,0,0
259,-237,0,0,0,0,0,0,0,0,0,-1,1483,1261,0,0
266,-237,0,0,0,0,0,0,0,0,0,-1,1490,1261,0,0
273,-237,0,0,0,0,0,0,0,0,0,-1,1497,1261,0,0
280,-237,0,0,0,0,0,0,0,0,0,-1,1504,1261,0,0
287,-237,0,0,0,0,0,0,0,0,0,-1,1511,1261,0,0
294,-237,0,0,0,0,0,0,0,0,0,-1,1518,1261,0,0
301,-237,0,0,0,0,0,0,0,0,0,-1,1525,1261,0,0
308,-237,0,0,0,0,0,0,0,0,0,-1,1532,1261,0,0
315,-237,0,0,0,0,0,0,0,0,0,-1,1539,1261,0,0
322,-237,0,0,0,0,0,0,0,0,0,-1,1546,1261,0,0
329,-237,0,0,0,0,0,0,0,0,0,-1,1553,1261,0,0
336,-237,0,0,0,0,0,0,0,0,0,-1,1560,1261,0,0
343,-237,0,0,0,0,0,0,0,0,0,-1,1567,1261,0,0
350,-237,0,0,0,0,0,0,0,0,0,-1,1574,1261,0,0
357,-237,0,0,0,0,0,0,0,0,0,-1,1581,1261,0,0
364,-237,0,0,0,0,0,0,0,0,0,-1,1588,1261,0,0
371,-237,0,0,0,0,0,0,0,0,0,-1,1595,1261,0,0
378,-237,0,0,0,0,0,0,0,0,0,-1,1602,1261,0,0
385,-237,0,0,0,0,0,0,0,0,0,-1,1609,1261,0,0
392,-237,0,0,0,0,0,0,0,0,0,-1,1616,1261,0,0
399,-237,0,0,0,0,0,0,0,0,0,-1,1623,1261,0,0
406,-237,0,0,0,0,0,0,0,0,0,-1,1630,1261,0,0
413,-237,0,0,0,0,0,0,0,0,0,-1,1637,1261,0,0
420,-237,0,0,0,0,0,0,0,0,0,-1,1644,1261,0,0
427,-237,0,0,0,0,0,0,0,0,0,-1,1651,1261,0,0
434,-237,0,0,0,0,0,0,0,0,0,-1,1658,1261,0,0
441,-237,0,0,0,0,0,0,0,0,0,-1,1665,1261,0,0
448,-237,0,0,0,0,0,0,0,0,0,-1,1672,1261,0,0
455,-237,0,0,0,0,0,0,0,0,0,-1,1679,1261,0,0
462,-237,0,0,0,0,0,0,0,0,0,-1,1686,1261,0,0
469,-237,0,0,0,0,0,0,0,0,0,-1,1693,1261,0,0
476,-237,0,0,0,0,0,0,0,0,0,-1,1700,1261,0,0
483,-237,0,0,0,0,0,0,0,0,0,-1,1707,1261,0,0
490,-237,0,0,0,0,0,0,0,0,0,-1,1714,1261,0,0
497,-237,0,0,0,0,0,0,0,0,0,-1,1721,1261,0,0
504,-237,0,0,0,0,0,0,0,0,0,-1,1728,1261,0,0
511,-237,0,0,0,0,0,0,0,0,0,-1,1735,1261,0,0
518,-237,0,0,0,0,0,0,0,0,0,-1,1742,1261,0,0
525,-237,0,0,0,0,0,0,0,0,0,-1,1749,1261,0,0
532,-237,0,0,0,0,0,0,0,0,0,-1,1756,1261,0,0
539,-237,0,0,0,0,0,0,0,0,0,-1,1763,1261,0,0
546,-237,0,0,0,0,0,0,0,0,0,-1,1770,1261,0,0
553,-237,0,0,0,0,0,0,0,0,0,-1,1777,1261,0,0
560,-237,0,0,0,0,0,0,0,0,0,-1,1784,1261,0,0
567,-237,0,0,0,0,0,0,0,0,0,-1,1791,1261,0,0
574,-237,0,0,0,0,0,0,0,0,0,-1,1798,1261,0,0
581,-237,0,0,0,0,0,0,0,0,0,-1,1805,1261,0,0
588,-237,0,0,0,0,0,0,0,0,0,-1,1812,1261,0,0
595,-237,0,0,0,0,0,0,0,0,0,-1,1819,1261,0,0
602,-237,0,0,0,0,0,0,0,0,0,-1,1826,1261,0,0
609,-237,0,0,0,0,0,0,0,0,0,-1,1833,1261,0,0
616,-237,22.7006,2.79504,0.00916277,0.00190076,-0.00222641,0.009791,0.00127253,-0.275022,0.00614722,0.0357357,1840,1261,22.7005,-2.79498
623,-237,22.7178,2.84875,0.000574507,0.00320836,-0.00269958,0.0048951,-0.00111223,-1.01233,0.00369044,0.0318882,1847,1261,22.7178,-2.84873
630,-237,22.6006,2.77002,-0.00615414,0.00356722,-0.00271946,0.00427625,-0.00686317,-1.31575,0.0064889,0.0263911,1854,1261,22.6005,-2.77005
637,-237,22.4683,2.6731,-0.010259,0.00329087,-0.00241322,0.00370784,-0.010676,-1.3997,0.00862322,0.0230266,1861,1261,22.4682,-2.67309
644,-237,22.2406,2.41626,-0.0119863,0.00267494,-0.00196528,0.0029338,-0.0122452,-1.43983,0.00929701,0.0444456,1868,1261,22.2405,-2.41628
651,-237,22.4163,2.65747,0,0,0,0,0,0,0,-1,1875,1261,22.4162,-2.65742
658,-237,22.1294,2.42078,0,0,0,0,0,0,0,-1,1882,1261,22.1294,-2.42079
665,-237,22.3002,2.52136,0,0,0,0,0,0,0,-1,1889,1261,22.3001,-2.52138
672,-237,22.4708,2.62195,0,0,0,0,0,0,0,-1,1896,1261,22.4709,-2.62197
679,-237,19.4497,5.92944,0,0,0,0,0,0,0,-1,1903,1261,19.4497,-5.92949
686,-237,19.1382,5.67615,-0.00698534,-0.00100947,0.000484543,-0.000970441,-0.00702437,1.49041,0.00439529,0.0357624,1910,1261,19.1382,-5.67614
693,-237,18.8191,5.44812,-0.00508314,-0.00142746,0.000696164,-0.00129938,-0.00521122,1.38884,0.00313219,0.0198647,1917,1261,18.819,-5.44816
700,-237,18.8507,5.26331,-0.0035787,-0.00194999,0.000718531,-0.00167831,-0.00385038,1.20931,0.0022291,0.0106254,1924,1261,18.8507,-5.26326
707,-237,18.838,5.09692,-0.00220586,-0.00161136,0.000496671,-0.00132978,-0.00248743,1.05505,0.00143727,0.00891452,1931,1261,18.838,-5.09691
714,-237,18.8153,4.92505,-0.0010872,-0.000771221,-3.03973e-05,-0.000768323,-0.0010901,-1.47576,0.000646731,0.0123049,1938,1261,18.8153,-4.925
721,-237,18.7876,4.74353,-0.000118994,0.000222445,-0.000710849,0.000782787,-0.000679336,-0.903248,0.000844861,0.013434,1945,1261,18.7876,-4.74355
728,-237,18.8571,4.55347,0.00114836,0.00202885,-0.00158364,0.0032323,-5.5094e-05,-0.920973,0.00217346,0.0132422,1952,1261,18.8571,-4.55346
735,-237,18.8483,4.3717,0.00260938,0.00448908,-0.00267118,0.00638094,0.00071753,-0.954558,0.0040361,0.0178697,1959,1261,18.8483,-4.37175
742,-237,18.8335,4.23206,0.0044885,0.00759667,-0.00432067,0.0106343,0.00145093,-0.958037,0.00665876,0.0139906,1966,1261,18.8335,-4.23207
749,-237,18.8325,4.0415,0.00673569,0.0112471,-0.00611325,0.0155075,0.00247526,-0.962143,0.00962001,0.00924234,1973,1261,18.8325,-4.04153
756,-237,18.7964,3.84363,0.00957641,0.0159821,-0.008197,0.0215798,0.00397874,-0.971644,0.0132607,0.0125909,1980,1261,18.7964,-3.84361
763,-237,18.7544,3.54541,0.0131279,0.022135,-0.0105657,0.0291169,0.00614595,-0.986858,0.0177215,0.0264338,1987,1261,18.7544,-3.54541
770,-237,18.8578,3.12195,0.0173402,0.0300058,-0.0131587,0.0382763,0.00906971,-1.00967,0.0230957,0.0428281,1994,1261,18.8578,-3.12194
777,-237,19.6467,3.0968,0.0221086,0.0399062,-0.0158709,0.0492028,0.012812,-1.04091,0.0294745,0.0416062,2001,1261,19.6467,-3.09681
784,-237,19.6832,3.41028,0.027261,0.0521851,-0.0185315,0.062055,0.017391,-1.08141,0.0369629,0.0413533,2008,1261,19.6833,-3.41026
791,-237,19.8694,3.4469,0.0320092,0.0672001,-0.0207727,0.0768279,0.0223815,-1.13679,0.0456262,0.0432308,2015,1261,19.8694,-3.44693
798,-237,0,0,0,0,0,0,0,0,0,-1,2022,1261,0,0
805,-237,0,0,0,0,0,0,0,0,0,-1,2029,1261,0,0
812,-237,0,0,0,0,0,0,0,0,0,-1,2036,1261,0,0
-700,-244,0,0,0,0,0,0,0,0,0,-1,524,1268,0,0
-693,-244,0,0,0,0,0,0,0,0,0,-1,531,1268,0,0
-686,-244,0,0,0,0,0,0,0,0,0,-1,538,1268,0,0
-679,-244,0,0,0,0,0,0,0,0,0,-1,545,1268,0,0
-672,-244,-10.2673,-5.302,0,0,0,0,0,0,0,-1,552,1268,-10.2673,5.30202
-665,-244,-10.2842,-3.85181,-0.0119274,0.0246728,-0.0186954,0.032534,-0.0197886,-1.17275,0.0305058,0.0480811,559,1268,-10.2842,3.85177
-658,-244,-10.0762,-2.55103,0,0,0,0,0,0,0,-1,566,1268,-10.0762,2.55108
-651,-244,-10.0765,-1.09912,0,0,0,0,0,0,0,-1,573,1268,-10.0765,1.09908
-644,-244,-10.1805,1.00818,0,0,0,0,0,0,0,-1,580,1268,-10.1805,-1.00823
-637,-244,-10.1252,0.736328,-0.00344509,0.00589359,-0.00384681,0.0072741,-0.0048256,-1.22624,0.00703328,0.0477433,587,1268,-10.1252,-0.73633
-630,-244,-10.0549,0.676514,-0.00302828,0.00435979,-0.00303112,0.0054442,-0.0041127,-1.22722,0.0055355,0.0415559,594,1268,-10.0549,-0.676519
-623,-244,-10.3878,1.34497,-0.00216757,0.00240304,-0.00213176,0.00324295,-0.00300748,-1.19547,0.00360954,0.0315449,601,1268,-10.3878,-1.34491
-616,-244,-10.4918,1.70068,-0.00149682,0.001316,-0.00156323,0.00201237,-0.00219318,-1.15172,0.00242883,0.0165325,608,1268,-10.4918,-1.70065
-609,-244,-10.4762,1.89563,-0.00117942,0.00270091,-0.000980514,0.0029346,-0.00141311,-1.33683,0.00256088,0.0147631,615,1268,-10.4762,-1.89558
-602,-244,-10.4719,2.11145,-0.000361601,0.00129264,-0.00110868,0.00184874,-0.000917703,-1.10588,0.00162708,0.0152681,622,1268,-10.472,-2.11143
-595,-244,-10.4595,2.31689,0.000361555,0.00140464,-0.00110396,0.00210405,-0.000337854,-1.00607,0.00152782,0.0155087,629,1268,-10.4595,-2.31693
-588,-244,-10.459,2.54517,0.00176604,0.00145101,-0.00044399,0.00207963,0.00113742,-0.614936,0.00120244,0.0193405,636,1268,-10.459,-2.54514
-581,-244,-10.4802,2.76697,0.0029945,0.00106166,5.52926e-05,0.00299608,0.00106008,0.0285757,0.00175426,0.0172356,643,1268,-10.4802,-2.76692
-574,-244,-10.4863,2.9679,0.00364687,0.000879339,0.000433294,0.00371312,0.000813087,0.151728,0.00225382,0.0127784,650,1268,-10.4863,-2.96793
-567,-244,-10.4877,3.17664,0.00276676,0.00236983,-0.000296628,0.00292519,0.00221139,-0.490566,0.00176109,0.0101705,657,1268,-10.4877,-3.17662
-560,-244,-10.4476,3.41052,0.000871491,0.00435804,-0.00154952,0.00494715,0.000282382,-1.20748,0.00320812,0.0172107,664,1268,-10.4476,-3.41054
-553,-244,-10.2405,3.70142,-0.00141448,0.00678922,-0.00243608,0.00745808,-0.00208334,-1.30284,0.00579275,0.0456179,671,1268,-10.2405,-3.70136
-546,-244,-9.91541,3.94775,0,0,0,0,0,0,0,-1,678,1268,-9.91541,-3.94771
-539,-244,-11.3214,0.720459,0,0,0,0,0,0,0,-1,685,1268,-11.3214,-0.720417
-532,-244,-14.6893,2.07544,0,0,0,0,0,0,0,-1,692,1268,-14.6893,-2.07541
-525,-244,-13.934,0.660522,0,0,0,0,0,0,0,-1,699,1268,-13.934,-0.660505
-518,-244,-14.1165,0.576904,-0.0195566,0.0234746,-0.00801879,0.0249203,-0.0210023,-1.39242,0.0265456,0.0428318,706,1268,-14.1165,-0.576958
-511,-244,-14.464,0.621338,-0.0245034,0.0275614,-0.00913167,0.0291165,-0.0260586,-1.40211,0.0318717,0.0441603,713,1268,-14.464,-0.621369
-504,-244,-14.6749,0.828979,-0.029205,0.031548,-0.00957419,0.0330211,-0.0306781,-1.41813,0.0367851,0.0449729,720,1268,-14.6749,-0.82898
-497,-244,-14.8589,1.08777,-0.0308902,0.0344844,-0.00838172,0.0355419,-0.0319477,-1.44529,0.0389836,0.0470286,727,1268,-14.8589,-1.08771
-490,-244,0,0,0,0,0,0,0,0,0,-1,734,1268,0,0
-483,-244,0,0,0,0,0,0,0,0,0,-1,741,1268,0,0
-476,-244,0,0,0,0,0,0,0,0,0,-1,748,1268,0,0
-469,-244,0,0,0,0,0,0,0,0,0,-1,755,1268,0,0
-462,-244,0,0,0,0,0,0,0,0,0,-1,762,1268,0,0
-455,-244,0,0,0,0,0,0,0,0,0,-1,769,1268,0,0
-448,-244,0,0,0,0,0,0,0,0,0,-1,776,1268,0,0
-441,-244,0,0,0,0,0,0,0,0,0,-1,783,1268,0,0
-434,-244,0,0,0,0,0,0,0,0,0,-1,790,1268,0,0
-427,-244,0,0,0,0,0,0,0,0,0,-1,797,1268,0,0
-420,-244,0,0,0,0,0,0,0,0,0,-1,804,1268,0,0
-413,-244,0,0,0,0,0,0,0,0,0,-1,811,1268,0,0
-406,-244,0,0,0,0,0,0,0,0,0,-1,818,1268,0,0
-399,-244,0,0,0,0,0,0,0,0,0,-1,825,1268,0,0
-392,-244,0,0,0,0,0,0,0,0,0,-1,832,1268,0,0
-385,-244,0,0,0,0,0,0,0,0,0,-1,839,1268,0,0
-378,-244,0,0,0,0,0,0,0,0,0,-1,846,1268,0,0
-371,-244,0,0,0,0,0,0,0,0,0,-1,853,1268,0,0
-364,-244,0,0,0,0,0,0,0,0,0,-1,860,1268,0,0
-357,-244,0,0,0,0,0,0,0,0,0,-1,867,1268,0,0
-350,-244,0,0,0,0,0,0,0,0,0,-1,874,1268,0,0
-343,-244,0,0,0,0,0,0,0,0,0,-1,881,1268,0,0
-336,-244,0,0,0,0,0,0,0,0,0,-1,888,1268,0,0
-329,-244,0,0,0,0,0,0,0,0,0,-1,895,1268,0,0
-322,-244,0,0,0,0,0,0,0,0,0,-1,902,1268,0,0
-315,-244,0,0,0,0,0,0,0,0,0,-1,909,1268,0,0
-308,-244,0,0,0,0,0,0,0,0,0,-1,916,1268,0,0
-301,-244,0,0,0,0,0,0,0,0,0,-1,923,1268,0,0
-294,-244,0,0,0,0,0,0,0,0,0,-1,930,1268,0,0
-287,-244,0,0,0,0,0,0,0,0,0,-1,937,1268,0,0
-280,-244,0,0,0,0,0,0,0,0,0,-1,944,1268,0,0
-273,-244,0,0,0,0,0,0,0,0,0,-1,951,1268,0,0
-266,-244,0,0,0,0,0,0,0,0,0,-1,958,1268,0,0
-259,-244,0,0,0,0,0,0,0,0,0,-1,965,1268,0,0
-252,-244,0,0,0,0,0,0,0,0,0,-1,972,1268,0,0
-245,-244,0,0,0,0,0,0,0,0,0,-1,979,1268,0,0
-238,-244,0,0,0,0,0,0,0,0,0,-1,986,1268,0,0
-231,-244,0,0,0,0,0,0,0,0,0,-1,993,1268,0,0
-224,-244,0,0,0,0,0,0,0,0,0,-1,1000,1268,0,0
-217,-244,0,0,0,0,0,0,0,0,0,-1,1007,1268,0,0
-210,-244,0,0,0,0,0,0,0,0,0,-1,1014,1268,0,0
-203,-244,0,0,0,0,0,0,0,0,0,-1,1021,1268,0,0
-196,-244,0,0,0,0,0,0,0,0,0,-1,1028,1268,0,0
-189,-244,0,0,0,0,0,0,0,0,0,-1,1035,1268,0,0
-182,-244,0,0,0,0,0,0,0,0,0,-1,1042,1268,0,0
-175,-244,0,0,0,0,0,0,0,0,0,-1,1049,1268,0,0
-168,-244,0,0,0,0,0,0,0,0,0,-1,1056,1268,0,0
-161,-244,0,0,0,0,0,0,0,0,0,-1,1063,1268,0,0
-154,-244,0,0,0,0,0,0,0,0,0,-1,1070,1268,0,0
-147,-244,0,0,0,0,0,0,0,0,0,-1,1077,1268,0,0
-140,-244,0,0,0,0,0,0,0,0,0,-1,1084,1268,0,0
-133,-244,0,0,0,0,0,0,0,0,0,-1,1091,1268,0,0
-126,-244,0,0,0,0,0,0,0,0,0,-1,1098,1268,0,0
-119,-244,0,0,0,0,0,0,0,0,0,-1,1105,1268,0,0
-112,-244,0,0,0,0,0,0,0,0,0,-1,1112,1268,0,0
-105,-244,0,0,0,0,0,0,0,0,0,-1,1119,1268,0,0
-98,-244,0,0,0,0,0,0,0,0,0,-1,1126,1268,0,0
-91,-244,0,0,0,0,0,0,0,0,0,-1,1133,1268,0,0
-84,-244,0,0,0,0,0,0,0,0,0,-1,1140,1268,0,0
-77,-244,0,0,0,0,0,0,0,0,0,-1,1147,1268,0,0
-70,-244,0,0,0,0,0,0,0,0,0,-1,1154,1268,0,0
-63,-244,0,0,0,0,0,0,0,0,0,-1,1161,1268,0,0
-56,-244,0,0,0,0,0,0,0,0,0,-1,1168,1268,0,0
-49,-244,0,0,0,0,0,0,0,0,0,-1,1175,1268,0,0
-42,-244,0,0,0,0,0,0,0,0,0,-1,1182,1268,0,0
-35,-244,0,0,0,0,0,0,0,0,0,-1,1189,1268,0,0
-28,-244,0,0,0,0,0,0,0,0,0,-1,1196,1268,0,0
-21,-244,0,0,0,0,0,0,0,0,0,-1,1203,1268,0,0
-14,-244,0,0,0,0,0,0,0,0,0,-1,1210,1268,0,0
-7,-244,0,0,0,0,0,0,0,0,0,-1,1217,1268,0,0
0,-244,0,0,0,0,0,0,0,0,0,-1,1224,1268,0,0
7,-244,0,0,0,0,0,0,0,0,0,-1,1231,1268,0,0
14,-244,0,0,0,0,0,0,0,0,0,-1,1238,1268,0,0
21,-244,0,0,0,0,0,0,0,0,0,-1,1245,1268,0,0
28,-244,0,0,0,0,0,0,0,0,0,-1,1252,1268,0,0
35,-244,0,0,0,0,0,0,0,0,0,-1,1259,1268,0,0
42,-244,0,0,0,0,0,0,0,0,0,-1,1266,1268,0,0
49,-244,0,0,0,0,0,0,0,0,0,-1,1273,1268,0,0
56,-244,0,0,0,0,0,0,0,0,0,-1,1280,1268,0,0
63,-244,0,0,0,0,0,0,0,0,0,-1,1287,1268,0,0
70,-244,0,0,0,0,0,0,0,0,0,-1,1294,1268,0,0
77,-244,0,0,0,0,0,0,0,0,0,-1,1301,1268,0,0
84,-244,0,0,0,0,0,0,0,0,0,-1,1308,1268,0,0
91,-244,0,0,0,0,0,0,0,0,0,-1,1315,1268,0,0
98,-244,0,0,0,0,0,0,0,0,0,-1,1322,1268,0,0
105,-244,0,0,0,0,0,0,0,0,0,-1,1329,1268,0,0
112,-244,0,0,0,0,0,0,0,0,0,-1,1336,1268,0,0
119,-244,0,0,0,0,0,0,0,0,0,-1,1343,1268,0,0
126,-244,0,0,0,0,0,0,0,0,0,-1,1350,1268,0,0
133,-244,0,0,0,0,0,0,0,0,0,-1,1357,1268,0,0
140,-244,0,0,0,0,0,0,0,0,0,-1,1364,1268,0,0
147,-244,0,0,0,0,0,0,0,0,0,-1,1371,1268,0,0
154,-244,0,0,0,0,0,0,0,0,0,-1,1378,1268,0,0
161,-244,0,0,0,0,0,0,0,0,0,-1,1385,1268,0,0
168,-244,0,0,0,0,0,0,0,0,0,-1,1392,1268,0,0
175,-244,0,0,0,0,0,0,0,0,0,-1,1399,1268,0,0
182,-244,0,0,0,0,0,0,0,0,0,-1,1406,1268,0,0
189,-244,0,0,0,0,0,0,0,0,0,-1,1413,1268,0,0
196,-244,0,0,0,0,0,0,0,0,0,-1,1420,1268,0,0
203,-244,0,0,0,0,0,0,0,0,0,-1,1427,1268,0,0
210,-244,0,0,0,0,0,0,0,0,0,-1,1434,1268,0,0
217,-244,0,0,0,0,0,0,0,0,0,-1,1441,1268,0,0
224,-244,0,0,0,0,0,0,0,0,0,-1,1448,1268,0,0
231,-244,0,0,0,0,0,0,0,0,0,-1,1455,1268,0,0
238,-244,0,0,0,0,0,0,0,0,0,-1,1462,1268,0,0
245,-244,0,0,0,0,0,0,0,0,0,-1,1469,1268,0,0
252,-244,0,0,0,0,0,0,0,0,0,-1,1476,1268,0,0
259,-244,0,0,0,0,0,0,0,0,0,-1,1483,1268,0,0
266,-244,0,0,0,0,0,0,0,0,0,-1,1490,1268,0,0
273,-244,0,0,0,0,0,0,0,0,0,-1,1497,1268,0,0
280,-244,0,0,0,0,0,0,0,0,0,-1,1504,1268,0,0
287,-244,0,0,0,0,0,0,0,0,0,-1,1511,1268,0,0
294,-244,0,0,0,0,0,0,0,0,0,-1,1518,1268,0,0
301,-244,0,0,0,0,0,0,0,0,0,-1,1525,1268,0,0
308,-244,0,0,0,0,0,0,0,0,0,-1,1532,1268,0,0
315,-244,0,0,0,0,0,0,0,0,0,-1,1539,1268,0,0
322,-244,0,0,0,0,0,0,0,0,0,-1,1546,1268,0,0
329,-244,0,0,0,0,0,0,0,0,0,-1,1553,1268,0,0
336,-244,0,0,0,0,0,0,0,0,0,-1,1560,1268,0,0
343,-244,0,0,0,0,0,0,0,0,0,-1,1567,1268,0,0
350,-244,0,0,0,0,0,0,0,0,0,-1,1574,1268,0,0
357,-244,0,0,0,0,0,0,0,0,0,-1,1581,1268,0,0
364,-244,0,0,0,0,0,0,0,0,0,-1,1588,1268,0,0
371,-244,0,0,0,0,0,0,0,0,0,-1,1595,1268,0,0
378,-244,0,0,0,0,0,0,0,0,0,-1,1602,1268,0,0
385,-244,0,0,0,0,0,0,0,0,0,-1,1609,1268,0,0
392,-244,0,0,0,0,0,0,0,0,0,-1,1616,1268,0,0
399,-244,0,0,0,0,0,0,0,0,0,-1,1623,1268,0,0
406,-244,0,0,0,0,0,0,0,0,0,-1,1630,1268,0,0
413,-244,0,0,0,0,0,0,0,0,0,-1,1637,1268,0,0
420,-244,0,0,0,0,0,0,0,0,0,-1,1644,1268,0,0
427,-244,0,0,0,0,0,0,0,0,0,-1,1651,1268,0,0
434,-244,0,0,0,0,0,0,0,0,0,-1,1658,1268,0,0
441,-244,0,0,0,0,0,0,0,0,0,-1,1665,1268,0,0
448,-244,0,0,0,0,0,0,0,0,0,-1,1672,1268,0,0
455,-244,0,0,0,0,0,0,0,0,0,-1,1679,1268,0,0
462,-244,0,0,0,0,0,0,0,0,0,-1,1686,1268,0,0
469,-244,0,0,0,0,0,0,0,0,0,-1,1693,1268,0,0
476,-244,0,0,0,0,0,0,0,0,0,-1,1700,1268,0,0
483,-244,0,0,0,0,0,0,0,0,0,-1,1707,1268,0,0
490,-244,0,0,0,0,0,0,0,0,0,-1,1714,1268,0,0
497,-244,0,0,0,0,0,0,0,0,0,-1,1721,1268,0,0
504,-244,0,0,0,0,0,0,0,0,0,-1,1728,1268,0,0
511,-244,0,0,0,0,0,0,0,0,0,-1,1735,1268,0,0
518,-244,0,0,0,0,0,0,0,0,0,-1,1742,1268,0,0
525,-244,0,0,0,0,0,0,0,0,0,-1,1749,1268,0,0
532,-244,0,0,0,0,0,0,0,0,0,-1,1756,1268,0,0
539,-244,0,0,0,0,0,0,0,0,0,-1,1763,1268,0,0
546,-244,0,0,0,0,0,0,0,0,0,-1,1770,1268,0,0
553,-244,0,0,0,0,0,0,0,0,0,-1,1777,1268,0,0
560,-244,0,0,0,0,0,0,0,0,0,-1,1784,1268,0,0
567,-244,0,0,0,0,0,0,0,0,0,-1,1791,1268,0,0
574,-244,0,0,0,0,0,0,0,0,0,-1,1798,1268,0,0
581,-244,0,0,0,0,0,0,0,0,0,-1,1805,1268,0,0
588,-244,0,0,0,0,0,0,0,0,0,-1,1812,1268,0,0
595,-244,0,0,0,0,0,0,0,0,0,-1,1819,1268,0,0
602,-244,0,0,0,0,0,0,0,0,0,-1,1826,1268,0,0
609,-244,0,0,0,0,0,0,0,0,0,-1,1833,1268,0,0
616,-244,22.553,2.65662,0.00851184,0.00230603,-0.00249472,0.00939035,0.00142752,-0.338586,0.00584281,0.0333225,1840,1268,22.553,-2.65663
623,-244,22.5433,2.68481,-0.000635333,0.00304734,-0.00263062,0.00441703,-0.00200502,-1.09075,0.00379394,0.0274511,1847,1268,22.5434,-2.68484
630,-244,22.5229,2.72278,-0.00772835,0.00302024,-0.0022668,0.00347873,-0.00818685,-1.37122,0.00691555,0.0256917,1854,1268,22.523,-2.72283
637,-244,22.5428,2.72607,-0.011839,0.00261322,-0.00173045,0.00281753,-0.0120434,-1.45327,0.00911442,0.0421266,1861,1268,22.5429,-2.72611
644,-244,21.9968,2.0885,-0.0135145,0.00204064,-0.00122255,0.00213614,-0.01361,-1.49284,0.00986282,0.0490512,1868,1268,21.9968,-2.08844
651,-244,21.6252,1.55896,0,0,0,0,0,0,0,-1,1875,1268,21.6253,-1.55898
658,-244,20.7645,2.49072,0,0,0,0,0,0,0,-1,1882,1268,20.7646,-2.49069
665,-244,22.1594,2.33972,0,0,0,0,0,0,0,-1,1889,1268,22.1594,-2.33976
672,-244,17.7415,5.33276,0,0,0,0,0,0,0,-1,1896,1268,17.7415,-5.33278
679,-244,18.6471,5.8092,0,0,0,0,0,0,0,-1,1903,1268,18.6471,-5.80916
686,-244,18.6617,5.73486,-0.00832163,-0.000891574,0.000817615,-0.000802667,-0.00841054,1.46248,0.00535954,0.0291248,1910,1268,18.6617,-5.73482
693,-244,18.6282,5.51599,-0.00590713,-0.00123239,0.000921646,-0.00105725,-0.00608228,1.383,0.00375242,0.0122272,1917,1268,18.6281,-5.51601
700,-244,18.6377,5.29065,-0.00400621,-0.00162159,0.000785603,-0.00138605,-0.00424176,1.2795,0.0024975,0.00909915,1924,1268,18.6377,-5.29068
707,-244,18.6356,5.1106,-0.00228722,-0.00118554,0.000409063,-0.00105026,-0.0024225,1.25142,0.00140274,0.00924659,1931,1268,18.6356,-5.11057
714,-244,18.6372,4.93726,-0.000952843,-0.000244967,-0.000284945,-0.000144519,-0.00105329,-1.23188,0.000659321,0.0104056,1938,1268,18.6372,-4.93721
721,-244,18.6097,4.77661,0.000113972,0.000801489,-0.00108881,0.00159952,-0.000684055,-0.938306,0.00135327,0.0136806,1945,1268,18.6097,-4.77656
728,-244,18.6376,4.55347,0.00146252,0.00266637,-0.00209868,0.00424774,-0.000118851,-0.925056,0.00287226,0.0179258,1952,1268,18.6376,-4.55345
735,-244,18.6362,4.33997,0.0029355,0.00512829,-0.00327337,0.00748401,0.000579785,-0.946998,0.00480774,0.0213402,1959,1268,18.6363,-4.33991
742,-244,18.6683,4.20691,0.00479618,0.00829076,-0.00502629,0.0118648,0.00122213,-0.952679,0.0075356,0.0138729,1966,1268,18.6684,-4.20692
749,-244,18.6605,4.047,0.00709442,0.0120534,-0.00700089,0.0170009,0.0021469,-0.955589,0.0106904,0.0179375,1973,1268,18.6605,-4.04701
756,-244,18.5605,3.88916,0.0100592,0.0169544,-0.00935823,0.0234799,0.00353375,-0.961886,0.0146184,0.0233918,1980,1268,18.5605,-3.88917
763,-244,18.5465,3.57275,0.0137829,0.0232908,-0.0120821,0.0315205,0.00555314,-0.97283,0.019429,0.0365754,1987,1268,18.5465,-3.5728
770,-244,19.3116,2.13916,0,0,0,0,0,0,0,-1,1994,1268,19.3116,-2.13914
777,-244,20.0145,2.64343,0,0,0,0,0,0,0,-1,2001,1268,20.0146,-2.64338
784,-244,19.8512,2.56128,0,0,0,0,0,0,0,-1,2008,1268,19.8512,-2.56124
791,-244,0,0,0,0,0,0,0,0,0,-1,2015,1268,0,0
798,-244,0,0,0,0,0,0,0,0,0,-1,2022,1268,0,0
805,-244,0,0,0,0,0,0,0,0,0,-1,2029,1268,0,0
812,-244,0,0,0,0,0,0,0,0,0,-1,2036,1268,0,0
-700,-251,0,0,0,0,0,0,0,0,0,-1,524,1275,0,0
-693,-251,0,0,0,0,0,0,0,0,0,-1,531,1275,0,0
-686,-251,0,0,0,0,0,0,0,0,0,-1,538,1275,0,0
-679,-251,0,0,0,0,0,0,0,0,0,-1,545,1275,0,0
-672,-251,0,0,0,0,0,0,0,0,0,-1,552,1275,0,0
-665,-251,-10.4128,3.99023,0,0,0,0,0,0,0,-1,559,1275,-10.4128,-3.99021
-658,-251,-9.37067,-0.822754,0,0,0,0,0,0,0,-1,566,1275,-9.37066,0.822752
-651,-251,-9.47931,-0.191895,0,0,0,0,0,0,0,-1,573,1275,-9.47929,0.191936
-644,-251,-9.58057,0.236084,-0.0104019,-0.00299456,-0.0100776,0.00403836,-0.0174348,-0.961495,0.0131772,0.0478136,580,1275,-9.58057,-0.236142
-637,-251,-9.66156,0.4198,-0.00880374,-0.0024528,-0.00801295,0.00299095,-0.0142475,-0.974051,0.0106364,0.0452682,587,1275,-9.66156,-0.41977
-630,-251,-9.94043,0.845581,-0.00733962,-0.00147809,-0.00649,0.00271221,-0.0115299,-0.997482,0.00873223,0.0423954,594,1275,-9.94042,-0.845604
-623,-251,-10.2543,1.46851,-0.0056332,-0.00125618,-0.00498014,0.00199511,-0.00888448,-0.99242,0.00668796,0.0357547,601,1275,-10.2543,-1.46854
-616,-251,-10.2385,1.69238,-0.00418239,-0.000730545,-0.0038322,0.00174646,-0.0066594,-0.99698,0.00512198,0.019829,608,1275,-10.2384,-1.6924
-609,-251,-10.2648,1.88818,-0.00297041,0.00151231,-0.00258603,0.00269312,-0.00415122,-1.14246,0.00398136,0.0200155,615,1275,-10.2648,-1.88813
-602,-251,-10.2576,2.09424,-0.00150503,0.00102162,-0.00201664,0.00213796,-0.00262138,-1.06522,0.00275253,0.0145207,622,1275,-10.2576,-2.09421
-595,-251,-10.2443,2.29639,-0.000351885,0.00150512,-0.00157406,0.00240413,-0.00125089,-1.05187,0.00214495,0.012633,629,1275,-10.2443,-2.29636
-588,-251,-10.2411,2.49805,0.00138075,0.00181848,-0.000731836,0.00236347,0.000835752,-0.930695,0.00138391,0.0143326,636,1275,-10.2411,-2.49808
-581,-251,-10.2557,2.74341,0.00281896,0.00131633,-5.62995e-05,0.00282107,0.00131422,-0.0373973,0.00163001,0.0137675,643,1275,-10.2557,-2.74345
-574,-251,-10.2479,2.98669,0.00364348,0.000828477,0.000370445,0.00369141,0.000780544,0.128678,0.00224643,0.0129675,650,1275,-10.248,-2.98673
-567,-251,-10.2487,3.20203,0.0028752,0.00214311,-0.000447805,0.00308753,0.00193078,-0.442762,0.00180116,0.011511,657,1275,-10.2487,-3.20207
-560,-251,-10.231,3.43738,0.000701249,0.0040637,-0.00180629,0.00485011,-8.51536e-05,-1.16018,0.00326216,0.0155549,664,1275,-10.231,-3.43737
-553,-251,-10.1057,3.44702,-0.00187287,0.00662618,-0.00283604,0.00748563,-0.00273232,-1.27655,0.0061084,0.0368958,671,1275,-10.1056,-3.44697
-546,-251,-10.0569,3.37427,0,0,0,0,0,0,0,-1,678,1275,-10.0569,-3.37424
-539,-251,-10.7916,0.366333,0,0,0,0,0,0,0,-1,685,1275,-10.7916,-0.366282
-532,-251,-10.7391,-0.00769043,0,0,0,0,0,0,0,-1,692,1275,-10.7391,0.00773227
-525,-251,-13.4789,0.466187,0,0,0,0,0,0,0,-1,699,1275,-13.4789,-0.466145
-518,-251,-13.6827,0.341675,-0.0212792,0.0243682,-0.00889763,0.0260412,-0.0229522,-1.38494,0.0283051,0.0449324,706,1275,-13.6828,-0.341677
-511,-251,-13.9615,0.340088,-0.0263963,0.0288395,-0.0101295,0.0306386,-0.0281953,-1.39503,0.0339775,0.0439937,713,1275,-13.9615,-0.34009
-504,-251,-14.2713,0.391479,-0.0315889,0.0335138,-0.0109316,0.0353003,-0.0333754,-1.4088,0.0396552,0.0462628,720,1275,-14.2713,-0.391448
-497,-251,-14.5034,0.624146,-0.0348216,0.037849,-0.0105449,0.0393482,-0.0363208,-1.42957,0.0436992,0.0450783,727,1275,-14.5033,-0.624123
-490,-251,0,0,0,0,0,0,0,0,0,-1,734,1275,0,0
-483,-251,0,0,0,0,0,0,0,0,0,-1,741,1275,0,0
-476,-251,0,0,0,0,0,0,0,0,0,-1,748,1275,0,0
-469,-251,0,0,0,0,0,0,0,0,0,-1,755,1275,0,0
-462,-251,0,0,0,0,0,0,0,0,0,-1,762,1275,0,0
-455,-251,0,0,0,0,0,0,0,0,0,-1,769,1275,0,0
-448,-251,0,0,0,0,0,0,0,0,0,-1,776,1275,0,0
-441,-251,0,0,0,0,0,0,0,0,0,-1,783,1275,0,0
-434,-251,0,0,0,0,0,0,0,0,0,-1,790,1275,0,0
-427,-251,0,0,0,0,0,0,0,0,0,-1,797,1275,0,0
-420,-251,0,0,0,0,0,0,0,0,0,-1,804,1275,0,0
-413,-251,0,0,0,0,0,0,0,0,0,-1,811,1275,0,0
-406,-251,0,0,0,0,0,0,0,0,0,-1,818,1275,0,0
-399,-251,0,0,0,0,0,0,0,0,0,-1,825,1275,0,0
-392,-251,0,0,0,0,0,0,0,0,0,-1,832,1275,0,0
-385,-251,0,0,0,0,0,0,0,0,0,-1,839,1275,0,0
-378,-251,0,0,0,0,0,0,0,0,0,-1,846,1275,0,0
-371,-251,0,0,0,0,0,0,0,0,0,-1,853,1275,0,0
-364,-251,0,0,0,0,0,0,0,0,0,-1,860,1275,0,0
-357,-251,0,0,0,0,0,0,0,0,0,-1,867,1275,0,0
-350,-251,0,0,0,0,0,0,0,0,0,-1,874,1275,0,0
-343,-251,0,0,0,0,0,0,0,0,0,-1,881,1275,0,0
-336,-251,0,0,0,0,0,0,0,0,0,-1,888,1275,0,0
-329,-251,0,0,0,0,0,0,0,0,0,-1,895,1275,0,0
-322,-251,0,0,0,0,0,0,0,0,0,-1,902,1275,0,0
-315,-251,0,0,0,0,0,0,0,0,0,-1,909,1275,0,0
-308,-251,0,0,0,0,0,0,0,0,0,-1,916,1275,0,0
-301,-251,0,0,0,0,0,0,0,0,0,-1,923,1275,0,0
-294,-251,0,0,0,0,0,0,0,0,0,-1,930,1275,0,0
-287,-251,0,0,0,0,0,0,0,0,0,-1,937,1275,0,0
-280,-251,0,0,0,0,0,0,0,0,0,-1,944,1275,0,0
-273,-251,0,0,0,0,0,0,0,0,0,-1,951,1275,0,0
-266,-251,0,0,0,0,0,0,0,0,0,-1,958,1275,0,0
-259,-251,0,0,0,0,0,0,0,0,0,-1,965,1275,0,0
-252,-251,0,0,0,0,0,0,0,0,0,-1,972,1275,0,0
-245,-251,0,0,0,0,0,0,0,0,0,-1,979,1275,0,0
-238,-251,0,0,0,0,0,0,0,0,0,-1,986,1275,0,0
-231,-251,0,0,0,0,0,0,0,0,0,-1,993,1275,0,0
-224,-251,0,0,0,0,0,0,0,0,0,-1,1000,1275,0,0
-217,-251,0,0,0,0,0,0,0,0,0,-1,1007,1275,0,0
-210,-251,0,0,0,0,0,0,0,0,0,-1,1014,1275,0,0
-203,-251,0,0,0,0,0,0,0,0,0,-1,1021,1275,0,0
-196,-251,0,0,0,0,0,0,0,0,0,-1,1028,1275,0,0
-189,-251,0,0,0,0,0,0,0,0,0,-1,1035,1275,0,0
-182,-251,0,0,0,0,0,0,0,0,0,-1,1042,1275,0,0
-175,-251,0,0,0,0,0,0,0,0,0,-1,1049,1275,0,0
-168,-251,0,0,0,0,0,0,0,0,0,-1,1056,1275,0,0
-161,-251,0,0,0,0,0,0,0,0,0,-1,1063,1275,0,0
-154,-251,0,0,0,0,0,0,0,0,0,-1,1070,1275,0,0
-147,-251,0,0,0,0,0,0,0,0,0,-1,1077,1275,0,0
-140,-251,0,0,0,0,0,0,0,0,0,-1,1084,1275,0,0
-133,-251,0,0,0,0,0,0,0,0,0,-1,1091,1275,0,0
-126,-251,0,0,0,0,0,0,0,0,0,-1,1098,1275,0,0
-119,-251,0,0,0,0,0,0,0,0,0,-1,1105,1275,0,0
-112,-251,0,0,0,0,0,0,0,0,0,-1,1112,1275,0,0
-105,-251,0,0,0,0,0,0,0,0,0,-1,1119,1275,0,0
-98,-251,0,0,0,0,0,0,0,0,0,-1,1126,1275,0,0
-91,-251,0,0,0,0,0,0,0,0,0,-1,1133,1275,0,0
-84,-251,0,0,0,0,0,0,0,0,0,-1,1140,1275,0,0
-77,-251,0,0,0,0,0,0,0,0,0,-1,1147,1275,0,0
-70,-251,0,0,0,0,0,0,0,0,0,-1,1154,1275,0,0
-63,-251,0,0,0,0,0,0,0,0,0,-1,1161,1275,0,0
-56,-251,0,0,0,0,0,0,0,0,0,-1,1168,1275,0,0
-49,-251,0,0,0,0,0,0,0,0,0,-1,1175,1275,0,0
-42,-251,0,0,0,0,0,0,0,0,0,-1,1182,1275,0,0
-35,-251,0,0,0,0,0,0,0,0,0,-1,1189,1275,0,0
-28,-251,0,0,0,0,0,0,0,0,0,-1,1196,1275,0,0
-21,-251,0,0,0,0,0,0,0,0,0,-1,1203,1275,0,0
-14,-251,0,0,0,0,0,0,0,0,0,-1,1210,1275,0,0
-7,-251,0,0,0,0,0,0,0,0,0,-1,1217,1275,0,0
0,-251,0,0,0,0,0,0,0,0,0,-1,1224,1275,0,0
7,-251,0,0,0,0,0,0,0,0,0,-1,1231,1275,0,0
14,-251,0,0,0,0,0,0,0,0,0,-1,1238,1275,0,0
21,-251,0,0,0,0,0,0,0,0,0,-1,1245,1275,0,0
28,-251,0,0,0,0,0,0,0,0,0,-1,1252,1275,0,0
35,-251,0,0,0,0,0,0,0,0,0,-1,1259,1275,0,0
42,-251,0,0,0,0,0,0,0,0,0,-1,1266,1275,0,0
49,-251,0,0,0,0,0,0,0,0,0,-1,1273,1275,0,0
56,-251,0,0,0,0,0,0,0,0,0,-1,1280,1275,0,0
63,-251,0,0,0,0,0,0,0,0,0,-1,1287,1275,0,0
70,-251,0,0,0,0,0,0,0,0,0,-1,1294,1275,0,0
77,-251,0,0,0,0,0,0,0,0,0,-1,1301,1275,0,0
84,-251,0,0,0,0,0,0,0,0,0,-1,1308,1275,0,0
91,-251,0,0,0,0,0,0,0,0,0,-1,1315,1275,0,0
98,-251,0,0,0,0,0,0,0,0,0,-1,1322,1275,0,0
105,-251,0,0,0,0,0,0,0,0,0,-1,1329,1275,0,0
112,-251,0,0,0,0,0,0,0,0,0,-1,1336,1275,0,0
119,-251,0,0,0,0,0,0,0,0,0,-1,1343,1275,0,0
126,-251,0,0,0,0,0,0,0,0,0,-1,1350,1275,0,0
133,-251,0,0,0,0,0,0,0,0,0,-1,1357,1275,0,0
140,-251,0,0,0,0,0,0,0,0,0,-1,1364,1275,0,0
147,-251,0,0,0,0,0,0,0,0,0,-1,1371,1275,0,0
154,-251,0,0,0,0,0,0,0,0,0,-1,1378,1275,0,0
161,-251,0,0,0,0,0,0,0,0,0,-1,1385,1275,0,0
168,-251,0,0,0,0,0,0,0,0,0,-1,1392,1275,0,0
175,-251,0,0,0,0,0,0,0,0,0,-1,1399,1275,0,0
182,-251,0,0,0,0,0,0,0,0,0,-1,1406,1275,0,0
189,-251,0,0,0,0,0,0,0,0,0,-1,1413,1275,0,0
196,-251,0,0,0,0,0,0,0,0,0,-1,1420,1275,0,0
203,-251,0,0,0,0,0,0,0,0,0,-1,1427,1275,0,0
210,-251,0,0,0,0,0,0,0,0,0,-1,1434,1275,0,0
217,-251,0,0,0,0,0,0,0,0,0,-1,1441,1275,0,0
224,-251,0,0,0,0,0,0,0,0,0,-1,1448,1275,0,0
231,-251,0,0,0,0,0,0,0,0,0,-1,1455,1275,0,0
238,-251,0,0,0,0,0,0,0,0,0,-1,1462,1275,0,0
245,-251,0,0,0,0,0,0,0,0,0,-1,1469,1275,0,0
252,-251,0,0,0,0,0,0,0,0,0,-1,1476,1275,0,0
259,-251,0,0,0,0,0,0,0,0,0,-1,1483,1275,0,0
266,-251,0,0,0,0,0,0,0,0,0,-1,1490,1275,0,0
273,-251,0,0,0,0,0,0,0,0,0,-1,1497,1275,0,0
280,-251,0,0,0,0,0,0,0,0,0,-1,1504,1275,0,0
287,-251,0,0,0,0,0,0,0,0,0,-1,1511,1275,0,0
294,-251,0,0,0,0,0,0,0,0,0,-1,1518,1275,0,0
301,-251,0,0,0,0,0,0,0,0,0,-1,1525,1275,0,0
308,-251,0,0,0,0,0,0,0,0,0,-1,1532,1275,0,0
315,-251,0,0,0,0,0,0,0,0,0,-1,1539,1275,0,0
322,-251,0,0,0,0,0,0,0,0,0,-1,1546,1275,0,0
329,-251,0,0,0,0,0,0,0,0,0,-1,1553,1275,0,0
336,-251,0,0,0,0,0,0,0,0,0,-1,1560,1275,0,0
343,-251,0,0,0,0,0,0,0,0,0,-1,1567,1275,0,0
350,-251,0,0,0,0,0,0,0,0,0,-1,1574,1275,0,0
357,-251,0,0,0,0,0,0,0,0,0,-1,1581,1275,0,0
364,-251,0,0,0,0,0,0,0,0,0,-1,1588,1275,0,0
371,-251,0,0,0,0,0,0,0,0,0,-1,1595,1275,0,0
378,-251,0,0,0,0,0,0,0,0,0,-1,1602,1275,0,0
385,-251,0,0,0,0,0,0,0,0,0,-1,1609,1275,0,0
392,-251,0,0,0,0,0,0,0,0,0,-1,1616,1275,0,0
399,-251,0,0,0,0,0,0,0,0,0,-1,1623,1275,0,0
406,-251,0,0,0,0,0,0,0,0,0,-1,1630,1275,0,0
413,-251,0,0,0,0,0,0,0,0,0,-1,1637,1275,0,0
420,-251,0,0,0,0,0,0,0,0,0,-1,1644,1275,0,0
427,-251,0,0,0,0,0,0,0,0,0,-1,1651,1275,0,0
434,-251,0,0,0,0,0,0,0,0,0,-1,1658,1275,0,0
441,-251,0,0,0,0,0,0,0,0,0,-1,1665,1275,0,0
448,-251,0,0,0,0,0,0,0,0,0,-1,1672,1275,0,0
455,-251,0,0,0,0,0,0,0,0,0,-1,1679,1275,0,0
462,-251,0,0,0,0,0,0,0,0,0,-1,1686,1275,0,0
469,-251,0,0,0,0,0,0,0,0,0,-1,1693,1275,0,0
476,-251,0,0,0,0,0,0,0,0,0,-1,1700,1275,0,0
483,-251,0,0,0,0,0,0,0,0,0,-1,1707,1275,0,0
490,-251,0,0,0,0,0,0,0,0,0,-1,1714,1275,0,0
497,-251,0,0,0,0,0,0,0,0,0,-1,1721,1275,0,0
504,-251,0,0,0,0,0,0,0,0,0,-1,1728,1275,0,0
511,-251,0,0,0,0,0,0,0,0,0,-1,1735,1275,0,0
518,-251,0,0,0,0,0,0,0,0,0,-1,1742,1275,0,0
525,-251,0,0,0,0,0,0,0,0,0,-1,1749,1275,0,0
532,-251,0,0,0,0,0,0,0,0,0,-1,1756,1275,0,0
539,-251,0,0,0,0,0,0,0,0,0,-1,1763,1275,0,0
546,-251,0,0,0,0,0,0,0,0,0,-1,1770,1275,0,0
553,-251,0,0,0,0,0,0,0,0,0,-1,1777,1275,0,0
560,-251,0,0,0,0,0,0,0,0,0,-1,1784,1275,0,0
567,-251,0,0,0,0,0,0,0,0,0,-1,1791,1275,0,0
574,-251,0,0,0,0,0,0,0,0,0,-1,1798,1275,0,0
581,-251,0,0,0,0,0,0,0,0,0,-1,1805,1275,0,0
588,-251,0,0,0,0,0,0,0,0,0,-1,1812,1275,0,0
595,-251,0,0,0,0,0,0,0,0,0,-1,1819,1275,0,0
602,-251,0,0,0,0,0,0,0,0,0,-1,1826,1275,0,0
609,-251,22.5365,2.69336,0.0166621,0.002618,-0.00185441,0.0169029,0.00237727,-0.129095,0.0105657,0.0325803,1833,1275,22.5365,-2.69336
616,-251,22.5065,2.66357,0.00686065,0.00269052,-0.00206264,0.0077085,0.00184267,-0.389996,0.00464816,0.0278682,1840,1275,22.5065,-2.66361
623,-251,22.4974,2.69336,-0.00234708,0.00268147,-0.00155691,0.00312448,-0.00279009,-1.29358,0.0034166,0.0252834,1847,1275,22.4975,-2.69339
630,-251,22.5308,2.70862,-0.00919644,0.00225038,-0.000858641,0.00231443,-0.00926049,-1.49634,0.00707251,0.0384373,1854,1275,22.5307,-2.7086
637,-251,22.6166,2.71887,-0.0129673,0.00172633,-0.000280559,0.00173168,-0.0129727,-1.55171,0.0092797,0.0432759,1861,1275,22.6166,-2.71887
644,-251,21.8845,1.97363,0,0,0,0,0,0,0,-1,1868,1275,21.8846,-1.97361
651,-251,21.2313,2.69141,-0.0146663,0.000726089,0.000518523,0.000743536,-0.0146838,1.53716,0.0100462,0.0440114,1875,1275,21.2313,-2.69137
658,-251,20.5564,2.55078,-0.0143681,0.000286399,0.000722686,0.000321953,-0.0144036,1.52164,0.00971151,0.0468597,1882,1275,20.5564,-2.55078
665,-251,19.865,2.42078,0,0,0,0,0,0,0,-1,1889,1275,19.865,-2.42081
672,-251,18.2826,5.42896,0,0,0,0,0,0,0,-1,1896,1275,18.2827,-5.42892
679,-251,18.3448,5.85657,0,0,0,0,0,0,0,-1,1903,1275,18.3449,-5.85652
686,-251,18.4111,5.70776,-0.00948068,-0.000971082,0.00137682,-0.000753863,-0.0096979,1.41432,0.0062292,0.0266931,1910,1275,18.4111,-5.70782
693,-251,18.4585,5.50732,-0.00658263,-0.00121588,0.00134124,-0.000899348,-0.00689917,1.33904,0.0043309,0.00962828,1917,1275,18.4585,-5.50736
700,-251,18.4587,5.29822,-0.0043763,-0.0014447,0.00100889,-0.00113105,-0.00468994,1.26939,0.00282609,0.00888404,1924,1275,18.4587,-5.29827
707,-251,18.4712,5.11646,-0.00242645,-0.000906748,0.000461674,-0.000777489,-0.00255571,1.29781,0.00151278,0.0102977,1931,1275,18.4712,-5.11642
714,-251,18.4688,4.93433,-0.0009745,0.000134032,-0.000426379,0.000279058,-0.00111953,-1.24294,0.000854693,0.0111892,1938,1275,18.4687,-4.93431
721,-251,18.4087,4.75012,0.000134548,0.00123003,-0.00136473,0.00215284,-0.00078826,-0.976235,0.00175791,0.0144537,1945,1275,18.4087,-4.75017
728,-251,18.4203,4.55554,0.00151165,0.00312837,-0.00250323,0.00495052,-0.000310501,-0.941576,0.00340856,0.015874,1952,1275,18.4203,-4.55554
735,-251,18.4512,4.34875,0.00295013,0.00556035,-0.00378062,0.00825479,0.000255694,-0.951599,0.00541997,0.0134456,1959,1275,18.4511,-4.34878
742,-251,18.4755,4.16479,0.00477556,0.00873768,-0.00565042,0.0127443,0.000768978,-0.954005,0.0082518,0.0137465,1966,1275,18.4755,-4.16475
749,-251,18.4176,4.00916,0.00712409,0.0125698,-0.00782322,0.0181305,0.00156343,-0.952866,0.011601,0.0226646,1973,1275,18.4177,-4.00914
756,-251,18.3163,3.90894,0.0102314,0.0175747,-0.0104633,0.0249918,0.00281431,-0.954139,0.0158068,0.0365806,1980,1275,18.3162,-3.90896
763,-251,18.3372,2.90771,0.0141657,0.0239973,-0.013538,0.0334843,0.00467866,-0.959551,0.0209383,0.0450856,1987,1275,18.3371,-2.90773
770,-251,18.7354,1.99438,0.0188457,0.0320615,-0.0169399,0.0436367,0.00727048,-0.97136,0.026996,0.0475153,1994,1275,18.7353,-1.99443
777,-251,18.5261,1.62671,0,0,0,0,0,0,0,-1,2001,1275,18.5261,-1.62673
784,-251,19.6289,1.49011,0,0,0,0,0,0,0,-1,2008,1275,19.6289,-1.49009
791,-251,0,0,0,0,0,0,0,0,0,-1,2015,1275,0,0
798,-251,0,0,0,0,0,0,0,0,0,-1,2022,1275,0,0
805,-251,0,0,0,0,0,0,0,0,0,-1,2029,1275,0,0
812,-251,0,0,0,0,0,0,0,0,0,-1,2036,1275,0,0
-700,-258,0,0,0,0,0,0,0,0,0,-1,524,1282,0,0
-693,-258,0,0,0,0,0,0,0,0,0,-1,531,1282,0,0
-686,-258,0,0,0,0,0,0,0,0,0,-1,538,1282,0,0
-679,-258,0,0,0,0,0,0,0,0,0,-1,545,1282,0,0
-672,-258,0,0,0,0,0,0,0,0,0,-1,552,1282,0,0
-665,-258,-9.89966,3.93201,-0.0247076,-0.0220515,-0.0330118,0.00965896,-0.0564181,-0.805502,0.0412108,0.0440431,559,1282,-9.89967,-3.93206
-658,-258,-10.5321,3.29333,-0.0202815,-0.020127,-0.0252995,0.00509536,-0.0455039,-0.786925,0.0321692,0.0489528,566,1282,-10.5321,-3.29331
-651,-258,-8.80255,0.584961,0,0,0,0,0,0,0,-1,573,1282,-8.80258,-0.584953
-644,-258,-9.28778,0.752197,-0.0146754,-0.0144354,-0.0166326,0.00207767,-0.0311885,-0.789006,0.0215183,0.0488355,580,1282,-9.28777,-0.752195
-637,-258,-9.72797,0.908936,-0.0123243,-0.0108749,-0.0138154,0.00223476,-0.025434,-0.811602,0.0177479,0.0456092,587,1282,-9.72797,-0.908965
-630,-258,-10.0557,1.26733,-0.0100757,-0.00743826,-0.011437,0.00275576,-0.0202698,-0.842797,0.0145192,0.0462628,594,1282,-10.0558,-1.26736
-623,-258,-9.94513,1.29272,-0.0078473,-0.00505909,-0.00913702,0.00278956,-0.015696,-0.861103,0.0115071,0.0420668,601,1282,-9.94513,-1.29274
-616,-258,-9.9707,1.62646,-0.00585314,-0.00297387,-0.00716456,0.00289426,-0.0117213,-0.884547,0.00893656,0.0314357,608,1282,-9.97071,-1.62644
-609,-258,-9.99121,1.87244,-0.00404137,4.51883e-05,-0.00510114,0.00349705,-0.00749323,-0.97589,0.00648355,0.0174095,615,1282,-9.99124,-1.87242
-602,-258,-9.99335,2.09167,-0.00217369,0.000492417,-0.00365822,0.00305289,-0.00473417,-0.960121,0.00453066,0.0133084,622,1282,-9.99337,-2.09163
-595,-258,-10.0142,2.29443,-0.000800223,0.00138154,-0.00254989,0.0030641,-0.00248278,-0.987524,0.00320835,0.0105447,629,1282,-10.0142,-2.29447
-588,-258,-10.0186,2.5105,0.00103051,0.00201711,-0.00132911,0.00294151,0.000106113,-0.963095,0.00192661,0.0113259,636,1282,-10.0186,-2.5105
-581,-258,-10.0255,2.74023,0.00256511,0.00148921,-0.000314857,0.00265048,0.00140384,-0.264765,0.00153115,0.0135808,643,1282,-10.0255,-2.74029
-574,-258,-10.0048,2.97729,0.00353657,0.000695746,0.000305455,0.00356904,0.000663273,0.10591,0.00219198,0.0146153,650,1282,-10.0048,-2.97725
-567,-258,-10.0184,3.22974,0.00297075,0.00147248,-0.000394725,0.00306838,0.00137485,-0.24247,0.00177471,0.0146453,657,1282,-10.0183,-3.22972
-560,-258,-10.0099,3.46252,0.000528738,0.0031056,-0.00162755,0.00389298,-0.000258641,-1.12021,0.00268569,0.0218881,664,1282,-10.0099,-3.46258
-553,-258,-9.94342,3.54492,-0.00229308,0.00565713,-0.00271004,0.00649304,-0.00312898,-1.27161,0.00566732,0.0323395,671,1282,-9.94345,-3.54489
-546,-258,-9.4892,2.82275,0,0,0,0,0,0,0,-1,678,1282,-9.4892,-2.82279
-539,-258,-8.88562,1.9873,0,0,0,0,0,0,0,-1,685,1282,-8.88563,-1.98727
-532,-258,-10.2173,-0.353882,0,0,0,0,0,0,0,-1,692,1282,-10.2173,0.353836
-525,-258,-12.8394,-0.350098,0,0,0,0,0,0,0,-1,699,1282,-12.8394,0.350146
-518,-258,-13.0769,-0.11792,-0.0226295,0.0242395,-0.0086572,0.0257875,-0.0241775,-1.39386,0.0288523,0.0474334,706,1282,-13.0769,0.117898
-511,-258,-13.3488,-0.0849609,-0.0276426,0.0289897,-0.00983009,0.0306475,-0.0293004,-1.40373,0.0346138,0.0450288,713,1282,-13.3488,0.0849447
-504,-258,-13.7019,0.0268555,-0.0327274,0.0341113,-0.0106872,0.0357785,-0.0343947,-1.41604,0.0405171,0.0450465,720,1282,-13.7019,-0.0268665
-497,-258,-14.2307,0.335205,-0.0364118,0.0392798,-0.010611,0.0407392,-0.0378712,-1.43412,0.0453958,0.0460199,727,1282,-14.2306,-0.335226
-490,-258,-14.5972,0.79126,-0.0374207,0.0431963,-0.00838192,0.0440586,-0.0382829,-1.46829,0.0475789,0.0425199,734,1282,-14.5972,-0.791203
-483,-258,0,0,0,0,0,0,0,0,0,-1,741,1282,0,0
-476,-258,0,0,0,0,0,0,0,0,0,-1,748,1282,0,0
-469,-258,0,0,0,0,0,0,0,0,0,-1,755,1282,0,0
-462,-258,0,0,0,0,0,0,0,0,0,-1,762,1282,0,0
-455,-258,0,0,0,0,0,0,0,0,0,-1,769,1282,0,0
-448,-258,0,0,0,0,0,0,0,0,0,-1,776,1282,0,0
-441,-258,0,0,0,0,0,0,0,0,0,-1,783,1282,0,0
-434,-258,0,0,0,0,0,0,0,0,0,-1,790,1282,0,0
-427,-258,0,0,0,0,0,0,0,0,0,-1,797,1282,0,0
-420,-258,0,0,0,0,0,0,0,0,0,-1,804,1282,0,0
-413,-258,0,0,0,0,0,0,0,0,0,-1,811,1282,0,0
-406,-258,0,0,0,0,0,0,0,0,0,-1,818,1282,0,0
-399,-258,0,0,0,0,0,0,0,0,0,-1,825,1282,0,0
-392,-258,0,0,0,0,0,0,0,0,0,-1,832,1282,0,0
-385,-258,0,0,0,0,0,0,0,0,0,-1,839,1282,0,0
-378,-258,0,0,0,0,0,0,0,0,0,-1,846,1282,0,0
-371,-258,0,0,0,0,0,0,0,0,0,-1,853,1282,0,0
-364,-258,0,0,0,0,0,0,0,0,0,-1,860,1282,0,0
-357,-258,0,0,0,0,0,0,0,0,0,-1,867,1282,0,0
-350,-258,0,0,0,0,0,0,0,0,0,-1,874,1282,0,0
-343,-258,0,0,0,0,0,0,0,0,0,-1,881,1282,0,0
-336,-258,0,0,0,0,0,0,0,0,0,-1,888,1282,0,0
-329,-258,0,0,0,0,0,0,0,0,0,-1,895,1282,0,0
-322,-258,0,0,0,0,0,0,0,0,0,-1,902,1282,0,0
-315,-258,0,0,0,0,0,0,0,0,0,-1,909,1282,0,0
-308,-258,0,0,0,0,0,0,0,0,0,-1,916,1282,0,0
-301,-258,0,0,0,0,0,0,0,0,0,-1,923,1282,0,0
-294,-258,0,0,0,0,0,0,0,0,0,-1,930,1282,0,0
-287,-258,0,0,0,0,0,0,0,0,0,-1,937,1282,0,0
-280,-258,0,0,0,0,0,0,0,0,0,-1,944,1282,0,0
-273,-258,0,0,0,0,0,0,0,0,0,-1,951,1282,0,0
-266,-258,0,0,0,0,0,0,0,0,0,-1,958,1282,0,0
-259,-258,0,0,0,0,0,0,0,0,0,-1,965,1282,0,0
-252,-258,0,0,0,0,0,0,0,0,0,-1,972,1282,0,0
-245,-258,0,0,0,0,0,0,0,0,0,-1,979,1282,0,0
-238,-258,0,0,0,0,0,0,0,0,0,-1,986,1282,0,0
-231,-258,0,0,0,0,0,0,0,0,0,-1,993,1282,0,0
-224,-258,0,0,0,0,0,0,0,0,0,-1,1000,1282,0,0
-217,-258,0,0,0,0,0,0,0,0,0,-1,1007,1282,0,0
-210,-258,0,0,0,0,0,0,0,0,0,-1,1014,1282,0,0
-203,-258,0,0,0,0,0,0,0,0,0,-1,1021,1282,0,0
-196,-258,0,0,0,0,0,0,0,0,0,-1,1028,1282,0,0
-189,-258,0,0,0,0,0,0,0,0,0,-1,1035,1282,0,0
-182,-258,0,0,0,0,0,0,0,0,0,-1,1042,1282,0,0
-175,-258,0,0,0,0,0,0,0,0,0,-1,1049,1282,0,0
-168,-258,0,0,0,0,0,0,0,0,0,-1,1056,1282,0,0
-161,-258,0,0,0,0,0,0,0,0,0,-1,1063,1282,0,0
-154,-258,0,0,0,0,0,0,0,0,0,-1,1070,1282,0,0
-147,-258,0,0,0,0,0,0,0,0,0,-1,1077,1282,0,0
-140,-258,0,0,0,0,0,0,0,0,0,-1,1084,1282,0,0
-133,-258,0,0,0,0,0,0,0,0,0,-1,1091,1282,0,0
-126,-258,0,0,0,0,0,0,0,0,0,-1,1098,1282,0,0
-119,-258,0,0,0,0,0,0,0,0,0,-1,1105,1282,0,0
-112,-258,0,0,0,0,0,0,0,0,0,-1,1112,1282,0,0
-105,-258,0,0,0,0,0,0,0,0,0,-1,1119,1282,0,0
-98,-258,0,0,0,0,0,0,0,0,0,-1,1126,1282,0,0
-91,-258,0,0,0,0,0,0,0,0,0,-1,1133,1282,0,0
-84,-258,0,0,0,0,0,0,0,0,0,-1,1140,1282,0,0
-77,-258,0,0,0,0,0,0,0,0,0,-1,1147,1282,0,0
-70,-258,0,0,0,0,0,0,0,0,0,-1,1154,1282,0,0
-63,-258,0,0,0,0,0,0,0,0,0,-1,1161,1282,0,0
-56,-258,0,0,0,0,0,0,0,0,0,-1,1168,1282,0,0
-49,-258,0,0,0,0,0,0,0,0,0,-1,1175,1282,0,0
-42,-258,0,0,0,0,0,0,0,0,0,-1,1182,1282,0,0
-35,-258,0,0,0,0,0,0,0,0,0,-1,1189,1282,0,0
-28,-258,0,0,0,0,0,0,0,0,0,-1,1196,1282,0,0
-21,-258,0,0,0,0,0,0,0,0,0,-1,1203,1282,0,0
-14,-258,0,0,0,0,0,0,0,0,0,-1,1210,1282,0,0
-7,-258,0,0,0,0,0,0,0,0,0,-1,1217,1282,0,0
0,-258,0,0,0,0,0,0,0,0,0,-1,1224,1282,0,0
7,-258,0,0,0,0,0,0,0,0,0,-1,1231,1282,0,0
14,-258,0,0,0,0,0,0,0,0,0,-1,1238,1282,0,0
21,-258,0,0,0,0,0,0,0,0,0,-1,1245,1282,0,0
28,-258,0,0,0,0,0,0,0,0,0,-1,1252,1282,0,0
35,-258,0,0,0,0,0,0,0,0,0,-1,1259,1282,0,0
42,-258,0,0,0,0,0,0,0,0,0,-1,1266,1282,0,0
49,-258,0,0,0,0,0,0,0,0,0,-1,1273,1282,0,0
56,-258,0,0,0,0,0,0,0,0,0,-1,1280,1282,0,0
63,-258,0,0,0,0,0,0,0,0,0,-1,1287,1282,0,0
70,-258,0,0,0,0,0,0,0,0,0,-1,1294,1282,0,0
77,-258,0,0,0,0,0,0,0,0,0,-1,1301,1282,0,0
84,-258,0,0,0,0,0,0,0,0,0,-1,1308,1282,0,0
91,-258,0,0,0,0,0,0,0,0,0,-1,1315,1282,0,0
98,-258,0,0,0,0,0,0,0,0,0,-1,1322,1282,0,0
105,-258,0,0,0,0,0,0,0,0,0,-1,1329,1282,0,0
112,-258,0,0,0,0,0,0,0,0,0,-1,1336,1282,0,0
119,-258,0,0,0,0,0,0,0,0,0,-1,1343,1282,0,0
126,-258,0,0,0,0,0,0,0,0,0,-1,1350,1282,0,0
133,-258,0,0,0,0,0,0,0,0,0,-1,1357,1282,0,0
140,-258,0,0,0,0,0,0,0,0,0,-1,1364,1282,0,0
147,-258,0,0,0,0,0,0,0,0,0,-1,1371,1282,0,0
154,-258,0,0,0,0,0,0,0,0,0,-1,1378,1282,0,0
161,-258,0,0,0,0,0,0,0,0,0,-1,1385,1282,0,0
168,-258,0,0,0,0,0,0,0,0,0,-1,1392,1282,0,0
175,-258,0,0,0,0,0,0,0,0,0,-1,1399,1282,0,0
182,-258,0,0,0,0,0,0,0,0,0,-1,1406,1282,0,0
189,-258,0,0,0,0,0,0,0,0,0,-1,1413,1282,0,0
196,-258,0,0,0,0,0,0,0,0,0,-1,1420,1282,0,0
203,-258,0,0,0,0,0,0,0,0,0,-1,1427,1282,0,0
210,-258,0,0,0,0,0,0,0,0,0,-1,1434,1282,0,0
217,-258,0,0,0,0,0,0,0,0,0,-1,1441,1282,0,0
224,-258,0,0,0,0,0,0,0,0,0,-1,1448,1282,0,0
231,-258,0,0,0,0,0,0,0,0,0,-1,1455,1282,0,0
238,-258,0,0,0,0,0,0,0,0,0,-1,1462,1282,0,0
245,-258,0,0,0,0,0,0,0,0,0,-1,1469,1282,0,0
252,-258,0,0,0,0,0,0,0,0,0,-1,1476,1282,0,0
259,-258,0,0,0,0,0,0,0,0,0,-1,1483,1282,0,0
266,-258,0,0,0,0,0,0,0,0,0,-1,1490,1282,0,0
273,-258,0,0,0,0,0,0,0,0,0,-1,1497,1282,0,0
280,-258,0,0,0,0,0,0,0,0,0,-1,1504,1282,0,0
287,-258,0,0,0,0,0,0,0,0,0,-1,1511,1282,0,0
294,-258,0,0,0,0,0,0,0,0,0,-1,1518,1282,0,0
301,-258,0,0,0,0,0,0,0,0,0,-1,1525,1282,0,0
308,-258,0,0,0,0,0,0,0,0,0,-1,1532,1282,0,0
315,-258,0,0,0,0,0,0,0,0,0,-1,1539,1282,0,0
322,-258,0,0,0,0,0,0,0,0,0,-1,1546,1282,0,0
329,-258,0,0,0,0,0,0,0,0,0,-1,1553,1282,0,0
336,-258,0,0,0,0,0,0,0,0,0,-1,1560,1282,0,0
343,-258,0,0,0,0,0,0,0,0,0,-1,1567,1282,0,0
350,-258,0,0,0,0,0,0,0,0,0,-1,1574,1282,0,0
357,-258,0,0,0,0,0,0,0,0,0,-1,1581,1282,0,0
364,-258,0,0,0,0,0,0,0,0,0,-1,1588,1282,0,0
371,-258,0,0,0,0,0,0,0,0,0,-1,1595,1282,0,0
378,-258,0,0,0,0,0,0,0,0,0,-1,1602,1282,0,0
385,-258,0,0,0,0,0,0,0,0,0,-1,1609,1282,0,0
392,-258,0,0,0,0,0,0,0,0,0,-1,1616,1282,0,0
399,-258,0,0,0,0,0,0,0,0,0,-1,1623,1282,0,0
406,-258,0,0,0,0,0,0,0,0,0,-1,1630,1282,0,0
413,-258,0,0,0,0,0,0,0,0,0,-1,1637,1282,0,0
420,-258,0,0,0,0,0,0,0,0,0,-1,1644,1282,0,0
427,-258,0,0,0,0,0,0,0,0,0,-1,1651,1282,0,0
434,-258,0,0,0,0,0,0,0,0,0,-1,1658,1282,0,0
441,-258,0,0,0,0,0,0,0,0,0,-1,1665,1282,0,0
448,-258,0,0,0,0,0,0,0,0,0,-1,1672,1282,0,0
455,-258,0,0,0,0,0,0,0,0,0,-1,1679,1282,0,0
462,-258,0,0,0,0,0,0,0,0,0,-1,1686,1282,0,0
469,-258,0,0,0,0,0,0,0,0,0,-1,1693,1282,0,0
476,-258,0,0,0,0,0,0,0,0,0,-1,1700,1282,0,0
483,-258,0,0,0,0,0,0,0,0,0,-1,1707,1282,0,0
490,-258,0,0,0,0,0,0,0,0,0,-1,1714,1282,0,0
497,-258,0,0,0,0,0,0,0,0,0,-1,1721,1282,0,0
504,-258,0,0,0,0,0,0,0,0,0,-1,1728,1282,0,0
511,-258,0,0,0,0,0,0,0,0,0,-1,1735,1282,0,0
518,-258,0,0,0,0,0,0,0,0,0,-1,1742,1282,0,0
525,-258,0,0,0,0,0,0,0,0,0,-1,1749,1282,0,0
532,-258,0,0,0,0,0,0,0,0,0,-1,1756,1282,0,0
539,-258,0,0,0,0,0,0,0,0,0,-1,1763,1282,0,0
546,-258,0,0,0,0,0,0,0,0,0,-1,1770,1282,0,0
553,-258,0,0,0,0,0,0,0,0,0,-1,1777,1282,0,0
560,-258,0,0,0,0,0,0,0,0,0,-1,1784,1282,0,0
567,-258,0,0,0,0,0,0,0,0,0,-1,1791,1282,0,0
574,-258,0,0,0,0,0,0,0,0,0,-1,1798,1282,0,0
581,-258,0,0,0,0,0,0,0,0,0,-1,1805,1282,0,0
588,-258,0,0,0,0,0,0,0,0,0,-1,1812,1282,0,0
595,-258,0,0,0,0,0,0,0,0,0,-1,1819,1282,0,0
602,-258,0,0,0,0,0,0,0,0,0,-1,1826,1282,0,0
609,-258,22.5582,2.76575,0.0154849,0.00317144,-0.00133577,0.0156281,0.0030282,-0.106825,0.00957038,0.0270762,1833,1282,22.5583,-2.7658
616,-258,22.5541,2.81311,0.00635692,0.00255944,-0.000809886,0.00652243,0.00239393,-0.201586,0.00380986,0.0255661,1840,1282,22.5541,-2.81308
623,-258,22.5084,2.73425,-0.00243537,0.00190401,0.000201172,0.00191332,-0.00244468,1.52457,0.00252232,0.0364825,1847,1282,22.5085,-2.7342
630,-258,22.4535,2.57666,-0.00891333,0.00124222,0.00100477,0.00134068,-0.00901178,1.47312,0.00650099,0.0467337,1854,1282,22.4535,-2.57667
637,-258,22.2717,2.38586,-0.0125376,0.000696488,0.00147712,0.000859351,-0.0127005,1.46098,0.00876748,0.0464227,1861,1282,22.2717,-2.38587
644,-258,21.8752,2.54712,0,0,0,0,0,0,0,-1,1868,1282,21.8752,-2.54717
651,-258,21.2567,2.69446,-0.0146236,-0.000113867,0.00198379,0.000152471,-0.0148899,1.43734,0.00997784,0.0449941,1875,1282,21.2567,-2.69445
658,-258,20.4335,2.62952,-0.0146596,-0.000462179,0.0020458,-0.000173264,-0.0149485,1.4305,0.00990843,0.0458604,1882,1282,20.4335,-2.62955
665,-258,19.6635,2.51111,0,0,0,0,0,0,0,-1,1889,1282,19.6634,-2.51109
672,-258,18.5708,6.05908,0,0,0,0,0,0,0,-1,1896,1282,18.5708,-6.05912
679,-258,18.2708,5.97168,-0.0135397,-0.000790369,0.00166931,-0.000575425,-0.0137546,1.44274,0.00898409,0.045839,1903,1282,18.2707,-5.97171
686,-258,18.2333,5.73474,-0.0105271,-0.00126389,0.00219799,-0.000768809,-0.0110222,1.34925,0.00710575,0.0278252,1910,1282,18.2332,-5.73475
693,-258,18.2968,5.48364,-0.00716928,-0.00138878,0.00202239,-0.000751479,-0.00780658,1.26552,0.00497286,0.00934354,1917,1282,18.2968,-5.48367
700,-258,18.2844,5.27917,-0.00471239,-0.00143641,0.0014847,-0.000863666,-0.00528513,1.20262,0.00327373,0.00815836,1924,1282,18.2844,-5.2792
707,-258,18.2946,5.10608,-0.0025994,-0.000803279,0.000764168,-0.000522159,-0.00288052,1.21828,0.00177212,0.00996539,1931,1282,18.2945,-5.10608
714,-258,18.2922,4.92651,-0.00105096,0.000325612,-0.000306264,0.000390675,-0.00111603,-1.36147,0.000902871,0.0103724,1938,1282,18.2923,-4.92655
721,-258,18.264,4.73999,9.19213e-05,0.00143153,-0.00134501,0.00226429,-0.000740838,-1.01642,0.0018078,0.0124869,1945,1282,18.264,-4.73997
728,-258,18.2455,4.56799,0.00148442,0.00331157,-0.0025755,0.00513072,-0.000334742,-0.955833,0.00353735,0.01159,1952,1282,18.2455,-4.56803
735,-258,18.2714,4.38306,0.0028982,0.00566553,-0.00392509,0.0084437,0.00012003,-0.954857,0.00558955,0.0131125,1959,1282,18.2713,-4.38311
742,-258,18.2755,4.18518,0.00470009,0.00880161,-0.00587676,0.0129752,0.000526551,-0.953272,0.00848003,0.0157735,1966,1282,18.2755,-4.18523
749,-258,18.2244,4.01843,0.00710789,0.012644,-0.00822597,0.0185551,0.00119672,-0.947697,0.0119911,0.0275603,1973,1282,18.2244,-4.01848
756,-258,18.1854,3.39685,0.0103594,0.0176827,-0.011127,0.025735,0.00230705,-0.944357,0.0164417,0.0398795,1980,1282,18.1854,-3.3968
763,-258,18.1846,2.66846,0.0145075,0.0241083,-0.0145517,0.034631,0.00398482,-0.944719,0.0218803,0.0463457,1987,1282,18.1846,-2.66845
770,-258,18.1455,1.96045,0.0194739,0.0321239,-0.0184013,0.0452568,0.00634089,-0.950936,0.0282954,0.0484517,1994,1282,18.1455,-1.96041
777,-258,18.2896,1.57678,0.0252631,0.0418914,-0.0225628,0.0576231,0.00953139,-0.961924,0.0356654,0.0481177,2001,1282,18.2895,-1.57675
784,-258,18.2699,1.34216,0,0,0,0,0,0,0,-1,2008,1282,18.2699,-1.34215
791,-258,0,0,0,0,0,0,0,0,0,-1,2015,1282,0,0
798,-258,0,0,0,0,0,0,0,0,0,-1,2022,1282,0,0
805,-258,0,0,0,0,0,0,0,0,0,-1,2029,1282,0,0
812,-258,0,0,0,0,0,0,0,0,0,-1,2036,1282,0,0
-700,-265,0,0,0,0,0,0,0,0,0,-1,524,1289,0,0
-693,-265,0,0,0,0,0,0,0,0,0,-1,531,1289,0,0
-686,-265,0,0,0,0,0,0,0,0,0,-1,538,1289,0,0
-679,-265,0,0,0,0,0,0,0,0,0,-1,545,1289,0,0
-672,-265,0,0,0,0,0,0,0,0,0,-1,552,1289,0,0
-665,-265,-9.25055,3.97656,-0.0385274,-0.0501894,-0.0391726,-0.00475423,-0.0839626,-0.711514,0.0544595,0.0429,559,1289,-9.25057,-3.97652
-658,-265,-9.73743,3.4801,-0.0318766,-0.0418453,-0.0322252,-0.00425252,-0.0694694,-0.70867,0.0449625,0.0446644,566,1289,-9.73742,-3.48015
-651,-265,-9.05005,1.11755,0,0,0,0,0,0,0,-1,573,1289,-9.05002,-1.11751
-644,-265,-9.5332,1.21252,-0.0214412,-0.0263244,-0.0238174,5.94445e-05,-0.047825,-0.73432,0.0319032,0.0481035,580,1289,-9.53319,-1.21253
-637,-265,-10.0494,1.23157,-0.0171149,-0.0192879,-0.0203821,0.00220965,-0.0386124,-0.75877,0.0265088,0.044874,587,1289,-10.0494,-1.23151
-630,-265,-10.4065,1.48145,-0.0133027,-0.0132222,-0.0171687,0.00390632,-0.0304313,-0.786571,0.0217071,0.0478405,594,1289,-10.4065,-1.48145
-623,-265,-9.60809,0.99231,-0.0100434,-0.0086168,-0.0140361,0.00472407,-0.0233843,-0.810786,0.0173796,0.0446277,601,1289,-9.60809,-0.992349
-616,-265,-9.69861,1.39575,-0.00716255,-0.00504468,-0.0111626,0.00510908,-0.0173163,-0.832689,0.0135717,0.035,608,1289,-9.69862,-1.39578
-609,-265,-9.75226,1.85437,-0.00464234,-0.00135616,-0.00822659,0.00538983,-0.0113883,-0.883966,0.00989108,0.0167568,615,1289,-9.75225,-1.85441
-602,-265,-9.7558,2.08704,-0.00247146,-6.45925e-05,-0.00585041,0.00470487,-0.00724092,-0.886834,0.00694852,0.0142033,622,1289,-9.75581,-2.08699
-595,-265,-9.78265,2.31079,-0.000967882,0.00119688,-0.00397236,0.00423169,-0.00400268,-0.918408,0.00475473,0.0118531,629,1289,-9.78265,-2.31075
-588,-265,-9.8042,2.53491,0.000863692,0.00213631,-0.00228979,0.00387656,-0.000876557,-0.920924,0.00292074,0.0103475,636,1289,-9.8042,-2.53489
-581,-265,-9.79871,2.75586,0.00237625,0.0016822,-0.000853389,0.00295047,0.00110798,-0.592286,0.00172096,0.0122755,643,1289,-9.79869,-2.75589
-574,-265,-9.81055,3.0144,0.00327856,0.000727224,0.00010024,0.00328249,0.000723292,0.0392086,0.00199151,0.0143057,650,1289,-9.81056,-3.0144
-567,-265,-9.85388,3.28064,0.00291134,0.000918733,-0.000376323,0.00298005,0.00085003,-0.180576,0.00177264,0.0200638,657,1289,-9.8539,-3.28068
-560,-265,-9.84894,3.49463,0.000539165,0.00224514,-0.00160918,0.00321343,-0.000429127,-1.02911,0.00229872,0.0208197,664,1289,-9.84895,-3.49467
-553,-265,-9.74939,3.69421,-0.00236419,0.00466347,-0.00276139,0.00561867,-0.0033194,-1.23777,0.005217,0.025383,671,1289,-9.74939,-3.69421
-546,-265,-9.62006,3.51294,0,0,0,0,0,0,0,-1,678,1289,-9.62008,-3.5129
-539,-265,-9.71826,4.3031,0,0,0,0,0,0,0,-1,685,1289,-9.71825,-4.30313
-532,-265,-8.53998,3.41467,0,0,0,0,0,0,0,-1,692,1289,-8.53996,-3.41473
-525,-265,-12.1317,0.514648,0,0,0,0,0,0,0,-1,699,1289,-12.1317,-0.514634
-518,-265,-12.6429,-0.524536,0,0,0,0,0,0,0,-1,706,1289,-12.6429,0.524477
-511,-265,-12.8965,-0.480347,-0.0273228,0.0287178,-0.0103328,0.0305623,-0.0291673,-1.39415,0.034488,0.0465192,713,1289,-12.8965,0.480291
-504,-265,-13.2469,-0.417114,-0.0317809,0.0340663,-0.0114013,0.0359846,-0.0336991,-1.40411,0.0402391,0.0477405,720,1289,-13.2469,0.417153
-497,-265,-13.6878,0.161499,-0.0349561,0.0397242,-0.0118531,0.0415603,-0.0367923,-1.41711,0.0452648,0.0491453,727,1289,-13.6878,-0.161492
-490,-265,-14.4422,0.709595,-0.0355413,0.0447887,-0.0109482,0.0462541,-0.0370067,-1.43774,0.0481694,0.0446565,734,1289,-14.4422,-0.709645
-483,-265,0,0,0,0,0,0,0,0,0,-1,741,1289,0,0
-476,-265,0,0,0,0,0,0,0,0,0,-1,748,1289,0,0
-469,-265,0,0,0,0,0,0,0,0,0,-1,755,1289,0,0
-462,-265,0,0,0,0,0,0,0,0,0,-1,762,1289,0,0
-455,-265,0,0,0,0,0,0,0,0,0,-1,769,1289,0,0
-448,-265,0,0,0,0,0,0,0,0,0,-1,776,1289,0,0
-441,-265,0,0,0,0,0,0,0,0,0,-1,783,1289,0,0
-434,-265,0,0,0,0,0,0,0,0,0,-1,790,1289,0,0
-427,-265,0,0,0,0,0,0,0,0,0,-1,797,1289,0,0
-420,-265,0,0,0,0,0,0,0,0,0,-1,804,1289,0,0
-413,-265,0,0,0,0,0,0,0,0,0,-1,811,1289,0,0
-406,-265,0,0,0,0,0,0,0,0,0,-1,818,1289,0,0
-399,-265,0,0,0,0,0,0,0,0,0,-1,825,1289,0,0
-392,-265,0,0,0,0,0,0,0,0,0,-1,832,1289,0,0
-385,-265,0,0,0,0,0,0,0,0,0,-1,839,1289,0,0
-378,-265,0,0,0,0,0,0,0,0,0,-1,846,1289,0,0
-371,-265,0,0,0,0,0,0,0,0,0,-1,853,1289,0,0
-364,-265,0,0,0,0,0,0,0,0,0,-1,860,1289,0,0
-357,-265,0,0,0,0,0,0,0,0,0,-1,867,1289,0,0
-350,-265,0,0,0,0,0,0,0,0,0,-1,874,1289,0,0
-343,-265,0,0,0,0,0,0,0,0,0,-1,881,1289,0,0
-336,-265,0,0,0,0,0,0,0,0,0,-1,888,1289,0,0
-329,-265,0,0,0,0,0,0,0,0,0,-1,895,1289,0,0
-322,-265,0,0,0,0,0,0,0,0,0,-1,902,1289,0,0
-315,-265,0,0,0,0,0,0,0,0,0,-1,909,1289,0,0
-308,-265,0,0,0,0,0,0,0,0,0,-1,916,1289,0,0
-301,-265,0,0,0,0,0,0,0,0,0,-1,923,1289,0,0
-294,-265,0,0,0,0,0,0,0,0,0,-1,930,1289,0,0
-287,-265,0,0,0,0,0,0,0,0,0,-1,937,1289,0,0
-280,-265,0,0,0,0,0,0,0,0,0,-1,944,1289,0,0
-273,-265,0,0,0,0,0,0,0,0,0,-1,951,1289,0,0
-266,-265,0,0,0,0,0,0,0,0,0,-1,958,1289,0,0
-259,-265,0,0,0,0,0,0,0,0,0,-1,965,1289,0,0
-252,-265,0,0,0,0,0,0,0,0,0,-1,972,1289,0,0
-245,-265,0,0,0,0,0,0,0,0,0,-1,979,1289,0,0
-238,-265,0,0,0,0,0,0,0,0,0,-1,986,1289,0,0
-231,-265,0,0,0,0,0,0,0,0,0,-1,993,1289,0,0
-224,-265,0,0,0,0,0,0,0,0,0,-1,1000,1289,0,0
-217,-265,0,0,0,0,0,0,0,0,0,-1,1007,1289,0,0
-210,-265,0,0,0,0,0,0,0,0,0,-1,1014,1289,0,0
-203,-265,0,0,0,0,0,0,0,0,0,-1,1021,1289,0,0
-196,-265,0,0,0,0,0,0,0,0,0,-1,1028,1289,0,0
-189,-265,0,0,0,0,0,0,0,0,0,-1,1035,1289,0,0
-182,-265,0,0,0,0,0,0,0,0,0,-1,1042,1289,0,0
-175,-265,0,0,0,0,0,0,0,0,0,-1,1049,1289,0,0
-168,-265,0,0,0,0,0,0,0,0,0,-1,1056,1289,0,0
-161,-265,0,0,0,0,0,0,0,0,0,-1,1063,1289,0,0
-154,-265,0,0,0,0,0,0,0,0,0,-1,1070,1289,0,0
-147,-265,0,0,0,0,0,0,0,0,0,-1,1077,1289,0,0
-140,-265,0,0,0,0,0,0,0,0,0,-1,1084,1289,0,0
-133,-265,0,0,0,0,0,0,0,0,0,-1,1091,1289,0,0
-126,-265,0,0,0,0,0,0,0,0,0,-1,1098,1289,0,0
-119,-265,0,0,0,0,0,0,0,0,0,-1,1105,1289,0,0
-112,-265,0,0,0,0,0,0,0,0,0,-1,1112,1289,0,0
-105,-265,0,0,0,0,0,0,0,0,0,-1,1119,1289,0,0
-98,-265,0,0,0,0,0,0,0,0,0,-1,1126,1289,0,0
-91,-265,0,0,0,0,0,0,0,0,0,-1,1133,1289,0,0
-84,-265,0,0,0,0,0,0,0,0,0,-1,1140,1289,0,0
-77,-265,0,0,0,0,0,0,0,0,0,-1,1147,1289,0,0
-70,-265,0,0,0,0,0,0,0,0,0,-1,1154,1289,0,0
-63,-265,0,0,0,0,0,0,0,0,0,-1,1161,1289,0,0
-56,-265,0,0,0,0,0,0,0,0,0,-1,1168,1289,0,0
-49,-265,0,0,0,0,0,0,0,0,0,-1,1175,1289,0,0
-42,-265,0,0,0,0,0,0,0,0,0,-1,1182,1289,0,0
-35,-265,0,0,0,0,0,0,0,0,0,-1,1189,1289,0,0
-28,-265,0,0,0,0,0,0,0,0,0,-1,1196,1289,0,0
-21,-265,0,0,0,0,0,0,0,0,0,-1,1203,1289,0,0
-14,-265,0,0,0,0,0,0,0,0,0,-1,1210,1289,0,0
-7,-265,0,0,0,0,0,0,0,0,0,-1,1217,1289,0,0
0,-265,0,0,0,0,0,0,0,0,0,-1,1224,1289,0,0
7,-265,0,0,0,0,0,0,0,0,0,-1,1231,1289,0,0
14,-265,0,0,0,0,0,0,0,0,0,-1,1238,1289,0,0
21,-265,0,0,0,0,0,0,0,0,0,-1,1245,1289,0,0
28,-265,0,0,0,0,0,0,0,0,0,-1,1252,1289,0,0
35,-265,0,0,0,0,0,0,0,0,0,-1,1259,1289,0,0
42,-265,0,0,0,0,0,0,0,0,0,-1,1266,1289,0,0
49,-265,0,0,0,0,0,0,0,0,0,-1,1273,1289,0,0
56,-265,0,0,0,0,0,0,0,0,0,-1,1280,1289,0,0
63,-265,0,0,0,0,0,0,0,0,0,-1,1287,1289,0,0
70,-265,0,0,0,0,0,0,0,0,0,-1,1294,1289,0,0
77,-265,0,0,0,0,0,0,0,0,0,-1,1301,1289,0,0
84,-265,0,0,0,0,0,0,0,0,0,-1,1308,1289,0,0
91,-265,0,0,0,0,0,0,0,0,0,-1,1315,1289,0,0
98,-265,0,0,0,0,0,0,0,0,0,-1,1322,1289,0,0
105,-265,0,0,0,0,0,0,0,0,0,-1,1329,1289,0,0
112,-265,0,0,0,0,0,0,0,0,0,-1,1336,1289,0,0
119,-265,0,0,0,0,0,0,0,0,0,-1,1343,1289,0,0
126,-265,0,0,0,0,0,0,0,0,0,-1,1350,1289,0,0
133,-265,0,0,0,0,0,0,0,0,0,-1,1357,1289,0,0
140,-265,0,0,0,0,0,0,0,0,0,-1,1364,1289,0,0
147,-265,0,0,0,0,0,0,0,0,0,-1,1371,1289,0,0
154,-265,0,0,0,0,0,0,0,0,0,-1,1378,1289,0,0
161,-265,0,0,0,0,0,0,0,0,0,-1,1385,1289,0,0
168,-265,0,0,0,0,0,0,0,0,0,-1,1392,1289,0,0
175,-265,0,0,0,0,0,0,0,0,0,-1,1399,1289,0,0
182,-265,0,0,0,0,0,0,0,0,0,-1,1406,1289,0,0
189,-265,0,0,0,0,0,0,0,0,0,-1,1413,1289,0,0
196,-265,0,0,0,0,0,0,0,0,0,-1,1420,1289,0,0
203,-265,0,0,0,0,0,0,0,0,0,-1,1427,1289,0,0
210,-265,0,0,0,0,0,0,0,0,0,-1,1434,1289,0,0
217,-265,0,0,0,0,0,0,0,0,0,-1,1441,1289,0,0
224,-265,0,0,0,0,0,0,0,0,0,-1,1448,1289,0,0
231,-265,0,0,0,0,0,0,0,0,0,-1,1455,1289,0,0
238,-265,0,0,0,0,0,0,0,0,0,-1,1462,1289,0,0
245,-265,0,0,0,0,0,0,0,0,0,-1,1469,1289,0,0
252,-265,0,0,0,0,0,0,0,0,0,-1,1476,1289,0,0
259,-265,0,0,0,0,0,0,0,0,0,-1,1483,1289,0,0
266,-265,0,0,0,0,0,0,0,0,0,-1,1490,1289,0,0
273,-265,0,0,0,0,0,0,0,0,0,-1,1497,1289,0,0
280,-265,0,0,0,0,0,0,0,0,0,-1,1504,1289,0,0
287,-265,0,0,0,0,0,0,0,0,0,-1,1511,1289,0,0
294,-265,0,0,0,0,0,0,0,0,0,-1,1518,1289,0,0
301,-265,0,0,0,0,0,0,0,0,0,-1,1525,1289,0,0
308,-265,0,0,0,0,0,0,0,0,0,-1,1532,1289,0,0
315,-265,0,0,0,0,0,0,0,0,0,-1,1539,1289,0,0
322,-265,0,0,0,0,0,0,0,0,0,-1,1546,1289,0,0
329,-265,0,0,0,0,0,0,0,0,0,-1,1553,1289,0,0
336,-265,0,0,0,0,0,0,0,0,0,-1,1560,1289,0,0
343,-265,0,0,0,0,0,0,0,0,0,-1,1567,1289,0,0
350,-265,0,0,0,0,0,0,0,0,0,-1,1574,1289,0,0
357,-265,0,0,0,0,0,0,0,0,0,-1,1581,1289,0,0
364,-265,0,0,0,0,0,0,0,0,0,-1,1588,1289,0,0
371,-265,0,0,0,0,0,0,0,0,0,-1,1595,1289,0,0
378,-265,0,0,0,0,0,0,0,0,0,-1,1602,1289,0,0
385,-265,0,0,0,0,0,0,0,0,0,-1,1609,1289,0,0
392,-265,0,0,0,0,0,0,0,0,0,-1,1616,1289,0,0
399,-265,0,0,0,0,0,0,0,0,0,-1,1623,1289,0,0
406,-265,0,0,0,0,0,0,0,0,0,-1,1630,1289,0,0
413,-265,0,0,0,0,0,0,0,0,0,-1,1637,1289,0,0
420,-265,0,0,0,0,0,0,0,0,0,-1,1644,1289,0,0
427,-265,0,0,0,0,0,0,0,0,0,-1,1651,1289,0,0
434,-265,0,0,0,0,0,0,0,0,0,-1,1658,1289,0,0
441,-265,0,0,0,0,0,0,0,0,0,-1,1665,1289,0,0
448,-265,0,0,0,0,0,0,0,0,0,-1,1672,1289,0,0
455,-265,0,0,0,0,0,0,0,0,0,-1,1679,1289,0,0
462,-265,0,0,0,0,0,0,0,0,0,-1,1686,1289,0,0
469,-265,0,0,0,0,0,0,0,0,0,-1,1693,1289,0,0
476,-265,0,0,0,0,0,0,0,0,0,-1,1700,1289,0,0
483,-265,0,0,0,0,0,0,0,0,0,-1,1707,1289,0,0
490,-265,0,0,0,0,0,0,0,0,0,-1,1714,1289,0,0
497,-265,0,0,0,0,0,0,0,0,0,-1,1721,1289,0,0
504,-265,0,0,0,0,0,0,0,0,0,-1,1728,1289,0,0
511,-265,0,0,0,0,0,0,0,0,0,-1,1735,1289,0,0
518,-265,0,0,0,0,0,0,0,0,0,-1,1742,1289,0,0
525,-265,0,0,0,0,0,0,0,0,0,-1,1749,1289,0,0
532,-265,0,0,0,0,0,0,0,0,0,-1,1756,1289,0,0
539,-265,0,0,0,0,0,0,0,0,0,-1,1763,1289,0,0
546,-265,0,0,0,0,0,0,0,0,0,-1,1770,1289,0,0
553,-265,0,0,0,0,0,0,0,0,0,-1,1777,1289,0,0
560,-265,0,0,0,0,0,0,0,0,0,-1,1784,1289,0,0
567,-265,0,0,0,0,0,0,0,0,0,-1,1791,1289,0,0
574,-265,0,0,0,0,0,0,0,0,0,-1,1798,1289,0,0
581,-265,0,0,0,0,0,0,0,0,0,-1,1805,1289,0,0
588,-265,0,0,0,0,0,0,0,0,0,-1,1812,1289,0,0
595,-265,0,0,0,0,0,0,0,0,0,-1,1819,1289,0,0
602,-265,22.504,2.72961,0.0297684,0.00546961,0.00325885,0.0301978,0.00504014,0.131032,0.0186799,0.0264764,1826,1289,22.504,-2.72961
609,-265,22.5653,2.77612,0.0228319,0.00441929,0.00297737,0.0233014,0.00394981,0.156394,0.0143994,0.0292068,1833,1289,22.5653,-2.77609
616,-265,22.6144,2.86292,0.0124593,0.00283251,0.00355455,0.0136296,0.0016623,0.31804,0.00858608,0.0368677,1840,1289,22.6144,-2.86288
623,-265,22.5725,2.74927,0.00240593,0.00141495,0.00418373,0.00612341,-0.00230253,0.726457,0.00502868,0.0480375,1847,1289,22.5725,-2.74931
630,-265,22.4713,2.60095,-0.00505817,0.000489543,0.00429721,0.0028304,-0.00739903,1.072,0.00609915,0.0472986,1854,1289,22.4713,-2.60098
637,-265,22.3298,2.41919,-0.0095279,-0.00012588,0.00415568,0.00144759,-0.0111014,1.20884,0.00792763,0.0485492,1861,1289,22.3299,-2.41919
644,-265,22.1895,2.2229,0,0,0,0,0,0,0,-1,1868,1289,22.1895,-2.22294
651,-265,21.0419,2.69629,0,0,0,0,0,0,0,-1,1875,1289,21.0418,-2.69634
658,-265,20.009,2.73035,0,0,0,0,0,0,0,-1,1882,1289,20.009,-2.73029
665,-265,18.2394,2.09839,0,0,0,0,0,0,0,-1,1889,1289,18.2394,-2.09836
672,-265,18.0994,5.94543,0,0,0,0,0,0,0,-1,1896,1289,18.0993,-5.94548
679,-265,18.0944,5.87573,-0.0146142,-0.00113107,0.00245999,-0.00069627,-0.015049,1.39585,0.00980884,0.0404159,1903,1289,18.0944,-5.87576
686,-265,18.0828,5.70288,-0.0111536,-0.00152623,0.00293891,-0.000699993,-0.0119799,1.29673,0.00776378,0.0169529,1910,1289,18.0828,-5.70285
693,-265,18.0903,5.47559,-0.00741667,-0.00150067,0.00260014,-0.000520333,-0.008397,1.21024,0.00543287,0.00939065,1917,1289,18.0903,-5.47554
700,-265,18.0897,5.28613,-0.00484201,-0.00136369,0.00187885,-0.000542631,-0.00566307,1.1588,0.00360813,0.00955626,1924,1289,18.0898,-5.28611
707,-265,18.1128,5.09668,-0.00271716,-0.000667535,0.00103058,-0.000238956,-0.00314574,1.17669,0.00202222,0.00992765,1931,1289,18.1128,-5.09669
714,-265,18.1056,4.92676,-0.00119837,0.000507713,-0.000152559,0.000521248,-0.0012119,-1.48231,0.00102678,0.00964604,1938,1289,18.1056,-4.9267
721,-265,18.0785,4.76392,-0.000109691,0.00158777,-0.00121677,0.00222257,-0.000744495,-1.08993,0.00178248,0.00903254,1945,1289,18.0785,-4.76396
728,-265,18.0603,4.58276,0.00119587,0.00339768,-0.00245339,0.00498585,-0.000392299,-0.996296,0.00346208,0.0117118,1952,1289,18.0603,-4.58278
735,-265,18.0601,4.39136,0.00250709,0.00565411,-0.00381225,0.00820482,-4.36236e-05,-0.981123,0.00548448,0.0158622,1959,1289,18.0601,-4.39136
742,-265,18.0808,4.20349,0.00422927,0.00871579,-0.00579478,0.0126864,0.000258696,-0.970074,0.00837267,0.0205685,1966,1289,18.0808,-4.20347
749,-265,18.0905,4.02319,0.00663757,0.0125279,-0.00826555,0.0183573,0.000808134,-0.956543,0.0119779,0.0395678,1973,1289,18.0904,-4.02323
756,-265,18.024,3.44751,0.00997643,0.0175384,-0.0113528,0.0257233,0.00179151,-0.946143,0.016584,0.0435758,1980,1289,18.024,-3.44748
763,-265,18.2013,2.64514,0,0,0,0,0,0,0,-1,1987,1289,18.2013,-2.6451
770,-265,17.9178,1.94348,0.0195521,0.0318152,-0.0193214,0.0459546,0.00541269,-0.939045,0.0290011,0.0489011,1994,1289,17.9179,-1.9435
777,-265,18.1462,1.33081,0.0257797,0.0413626,-0.024061,0.0588622,0.00828016,-0.941981,0.0367933,0.0474984,2001,1289,18.1463,-1.33079
784,-265,0,0,0,0,0,0,0,0,0,-1,2008,1289,0,0
791,-265,0,0,0,0,0,0,0,0,0,-1,2015,1289,0,0
798,-265,0,0,0,0,0,0,0,0,0,-1,2022,1289,0,0
805,-265,0,0,0,0,0,0,0,0,0,-1,2029,1289,0,0
812,-265,0,0,0,0,0,0,0,0,0,-1,2036,1289,0,0
-700,-272,0,0,0,0,0,0,0,0,0,-1,524,1296,0,0
-693,-272,0,0,0,0,0,0,0,0,0,-1,531,1296,0,0
-686,-272,0,0,0,0,0,0,0,0,0,-1,538,1296,0,0
-679,-272,0,0,0,0,0,0,0,0,0,-1,545,1296,0,0
-672,-272,0,0,0,0,0,0,0,0,0,-1,552,1296,0,0
-665,-272,0,0,0,0,0,0,0,0,0,-1,559,1296,0,0
-658,-272,-9.06775,3.75562,-0.0397211,-0.0702168,-0.0412964,-0.0109475,-0.0989904,-0.608547,0.062664,0.0449748,566,1296,-9.06774,-3.75562
-651,-272,-9.35254,3.00854,-0.0319848,-0.0538,-0.0370064,-0.004312,-0.0814728,-0.642082,0.0529365,0.0437562,573,1296,-9.35253,-3.0085
-644,-272,-10.0735,1.58716,0,0,0,0,0,0,0,-1,580,1296,-10.0735,-1.58712
-637,-272,-10.2236,1.6991,-0.0196442,-0.0285119,-0.0284711,0.00473626,-0.0528923,-0.708152,0.0369417,0.0485028,587,1296,-10.2236,-1.69911
-630,-272,-10.4644,0.782349,-0.0148254,-0.019393,-0.024237,0.00723516,-0.0414535,-0.738424,0.0303364,0.0461311,594,1296,-10.4644,-0.782289
-623,-272,-10.8627,-0.365601,0,0,0,0,0,0,0,-1,601,1296,-10.8627,0.365629
-616,-272,-9.58191,1.58154,-0.00762764,-0.00708822,-0.0160791,0.0087234,-0.0234393,-0.793784,0.0192061,0.0352893,608,1296,-9.58193,-1.58154
-609,-272,-9.53632,1.89526,-0.00490417,-0.00278771,-0.0121077,0.00830788,-0.0159998,-0.828988,0.0142663,0.0194189,615,1296,-9.53632,-1.89531
-602,-272,-9.56238,2.09265,-0.00257754,-0.000661344,-0.00869373,0.00712693,-0.0103658,-0.84028,0.010157,0.0133922,622,1296,-9.56236,-2.0927
-595,-272,-9.57306,2.33008,-0.00105662,0.000981188,-0.00592078,0.0059701,-0.00604553,-0.870608,0.00693727,0.0115877,629,1296,-9.57304,-2.33003
-588,-272,-9.56714,2.5575,0.00067434,0.00225223,-0.00366867,0.00521583,-0.00228926,-0.89131,0.00444152,0.0107591,636,1296,-9.56714,-2.55747
-581,-272,-9.57031,2.77808,0.0020768,0.0019153,-0.00169694,0.00369491,0.000297193,-0.761624,0.00237043,0.0101394,643,1296,-9.57028,-2.77809
-574,-272,-9.59528,3.03271,0.00283442,0.000852586,-0.000242745,0.00286372,0.000823286,-0.12012,0.00170242,0.0150365,650,1296,-9.5953,-3.03274
-567,-272,-9.61627,3.28516,0.00267408,0.000548175,-0.000387073,0.00274236,0.000479892,-0.174612,0.00169113,0.0205892,657,1296,-9.6163,-3.28515
-560,-272,-9.62183,3.5033,0.000523316,0.00149452,-0.00152481,0.00260919,-0.000591352,-0.939554,0.00196644,0.0203069,664,1296,-9.62184,-3.50331
-553,-272,-9.56616,3.69385,-0.00228814,0.00374122,-0.00273816,0.00479911,-0.00334603,-1.20211,0.00472748,0.0147515,671,1296,-9.56616,-3.69387
-546,-272,-9.50311,3.94202,-0.00595957,0.00679194,-0.00395177,0.0079173,-0.00708493,-1.29337,0.00866599,0.0212736,678,1296,-9.5031,-3.94204
-539,-272,-9.55396,4.24072,-0.0104696,0.0108185,-0.00530869,0.0120689,-0.01172,-1.33947,0.013735,0.0497513,685,1296,-9.55395,-4.24069
-532,-272,-9.61139,4.50598,0,0,0,0,0,0,0,-1,692,1296,-9.61136,-4.50594
-525,-272,-11.9599,0.0393066,0,0,0,0,0,0,0,-1,699,1296,-11.9599,-0.0393577
-518,-272,-12.2728,0.538086,0,0,0,0,0,0,0,-1,706,1296,-12.2728,-0.538108
-511,-272,-12.3515,-1.01184,0,0,0,0,0,0,0,-1,713,1296,-12.3515,1.01187
-504,-272,-12.7177,-0.643921,0,0,0,0,0,0,0,-1,720,1296,-12.7177,0.643953
-497,-272,-13.8718,0.579468,-0.0329451,0.0398803,-0.0129209,0.0421048,-0.0351696,-1.4003,0.0446743,0.0457236,727,1296,-13.8719,-0.579424
-490,-272,-13.9785,0.582764,-0.0332853,0.0455433,-0.0132549,0.0477124,-0.0354545,-1.40859,0.0481899,0.0461745,734,1296,-13.9784,-0.582811
-483,-272,-14.3181,0.608643,-0.0289402,0.0493555,-0.0117463,0.0510798,-0.0306645,-1.42505,0.0476832,0.0426058,741,1296,-14.3181,-0.608641
-476,-272,0,0,0,0,0,0,0,0,0,-1,748,1296,0,0
-469,-272,0,0,0,0,0,0,0,0,0,-1,755,1296,0,0
-462,-272,0,0,0,0,0,0,0,0,0,-1,762,1296,0,0
-455,-272,0,0,0,0,0,0,0,0,0,-1,769,1296,0,0
-448,-272,0,0,0,0,0,0,0,0,0,-1,776,1296,0,0
-441,-272,0,0,0,0,0,0,0,0,0,-1,783,1296,0,0
-434,-272,0,0,0,0,0,0,0,0,0,-1,790,1296,0,0
-427,-272,0,0,0,0,0,0,0,0,0,-1,797,1296,0,0
-420,-272,0,0,0,0,0,0,0,0,0,-1,804,1296,0,0
-413,-272,0,0,0,0,0,0,0,0,0,-1,811,1296,0,0
-406,-272,0,0,0,0,0,0,0,0,0,-1,818,1296,0,0
-399,-272,0,0,0,0,0,0,0,0,0,-1,825,1296,0,0
-392,-272,0,0,0,0,0,0,0,0,0,-1,832,1296,0,0
-385,-272,0,0,0,0,0,0,0,0,0,-1,839,1296,0,0
-378,-272,0,0,0,0,0,0,0,0,0,-1,846,1296,0,0
-371,-272,0,0,0,0,0,0,0,0,0,-1,853,1296,0,0
-364,-272,0,0,0,0,0,0,0,0,0,-1,860,1296,0,0
-357,-272,0,0,0,0,0,0,0,0,0,-1,867,1296,0,0
-350,-272,0,0,0,0,0,0,0,0,0,-1,874,1296,0,0
-343,-272,0,0,0,0,0,0,0,0,0,-1,881,1296,0,0
-336,-272,0,0,0,0,0,0,0,0,0,-1,888,1296,0,0
-329,-272,0,0,0,0,0,0,0,0,0,-1,895,1296,0,0
-322,-272,0,0,0,0,0,0,0,0,0,-1,902,1296,0,0
-315,-272,0,0,0,0,0,0,0,0,0,-1,909,1296,0,0
-308,-272,0,0,0,0,0,0,0,0,0,-1,916,1296,0,0
-301,-272,0,0,0,0,0,0,0,0,0,-1,923,1296,0,0
-294,-272,0,0,0,0,0,0,0,0,0,-1,930,1296,0,0
-287,-272,0,0,0,0,0,0,0,0,0,-1,937,1296,0,0
-280,-272,0,0,0,0,0,0,0,0,0,-1,944,1296,0,0
-273,-272,0,0,0,0,0,0,0,0,0,-1,951,1296,0,0
-266,-272,0,0,0,0,0,0,0,0,0,-1,958,1296,0,0
-259,-272,0,0,0,0,0,0,0,0,0,-1,965,1296,0,0
-252,-272,0,0,0,0,0,0,0,0,0,-1,972,1296,0,0
-245,-272,0,0,0,0,0,0,0,0,0,-1,979,1296,0,0
-238,-272,0,0,0,0,0,0,0,0,0,-1,986,1296,0,0
-231,-272,0,0,0,0,0,0,0,0,0,-1,993,1296,0,0
-224,-272,0,0,0,0,0,0,0,0,0,-1,1000,1296,0,0
-217,-272,0,0,0,0,0,0,0,0,0,-1,1007,1296,0,0
-210,-272,0,0,0,0,0,0,0,0,0,-1,1014,1296,0,0
-203,-272,0,0,0,0,0,0,0,0,0,-1,1021,1296,0,0
-196,-272,0,0,0,0,0,0,0,0,0,-1,1028,1296,0,0
-189,-272,0,0,0,0,0,0,0,0,0,-1,1035,1296,0,0
-182,-272,0,0,0,0,0,0,0,0,0,-1,1042,1296,0,0
-175,-272,0,0,0,0,0,0,0,0,0,-1,1049,1296,0,0
-168,-272,0,0,0,0,0,0,0,0,0,-1,1056,1296,0,0
-161,-272,0,0,0,0,0,0,0,0,0,-1,1063,1296,0,0
-154,-272,0,0,0,0,0,0,0,0,0,-1,1070,1296,0,0
-147,-272,0,0,0,0,0,0,0,0,0,-1,1077,1296,0,0
-140,-272,0,0,0,0,0,0,0,0,0,-1,1084,1296,0,0
-133,-272,0,0,0,0,0,0,0,0,0,-1,1091,1296,0,0
-126,-272,0,0,0,0,0,0,0,0,0,-1,1098,1296,0,0
-119,-272,0,0,0,0,0,0,0,0,0,-1,1105,1296,0,0
-112,-272,0,0,0,0,0,0,0,0,0,-1,1112,1296,0,0
-105,-272,0,0,0,0,0,0,0,0,0,-1,1119,1296,0,0
-98,-272,0,0,0,0,0,0,0,0,0,-1,1126,1296,0,0
-91,-272,0,0,0,0,0,0,0,0,0,-1,1133,1296,0,0
-84,-272,0,0,0,0,0,0,0,0,0,-1,1140,1296,0,0
-77,-272,0,0,0,0,0,0,0,0,0,-1,1147,1296,0,0
-70,-272,0,0,0,0,0,0,0,0,0,-1,1154,1296,0,0
-63,-272,0,0,0,0,0,0,0,0,0,-1,1161,1296,0,0
-56,-272,0,0,0,0,0,0,0,0,0,-1,1168,1296,0,0
-49,-272,0,0,0,0,0,0,0,0,0,-1,1175,1296,0,0
-42,-272,0,0,0,0,0,0,0,0,0,-1,1182,1296,0,0
-35,-272,0,0,0,0,0,0,0,0,0,-1,1189,1296,0,0
-28,-272,0,0,0,0,0,0,0,0,0,-1,1196,1296,0,0
-21,-272,0,0,0,0,0,0,0,0,0,-1,1203,1296,0,0
-14,-272,0,0,0,0,0,0,0,0,0,-1,1210,1296,0,0
-7,-272,0,0,0,0,0,0,0,0,0,-1,1217,1296,0,0
0,-272,0,0,0,0,0,0,0,0,0,-1,1224,1296,0,0
7,-272,0,0,0,0,0,0,0,0,0,-1,1231,1296,0,0
14,-272,0,0,0,0,0,0,0,0,0,-1,1238,1296,0,0
21,-272,0,0,0,0,0,0,0,0,0,-1,1245,1296,0,0
28,-272,0,0,0,0,0,0,0,0,0,-1,1252,1296,0,0
35,-272,0,0,0,0,0,0,0,0,0,-1,1259,1296,0,0
42,-272,0,0,0,0,0,0,0,0,0,-1,1266,1296,0,0
49,-272,0,0,0,0,0,0,0,0,0,-1,1273,1296,0,0
56,-272,0,0,0,0,0,0,0,0,0,-1,1280,1296,0,0
63,-272,0,0,0,0,0,0,0,0,0,-1,1287,1296,0,0
70,-272,0,0,0,0,0,0,0,0,0,-1,1294,1296,0,0
77,-272,0,0,0,0,0,0,0,0,0,-1,1301,1296,0,0
84,-272,0,0,0,0,0,0,0,0,0,-1,1308,1296,0,0
91,-272,0,0,0,0,0,0,0,0,0,-1,1315,1296,0,0
98,-272,0,0,0,0,0,0,0,0,0,-1,1322,1296,0,0
105,-272,0,0,0,0,0,0,0,0,0,-1,1329,1296,0,0
112,-272,0,0,0,0,0,0,0,0,0,-1,1336,1296,0,0
119,-272,0,0,0,0,0,0,0,0,0,-1,1343,1296,0,0
126,-272,0,0,0,0,0,0,0,0,0,-1,1350,1296,0,0
133,-272,0,0,0,0,0,0,0,0,0,-1,1357,1296,0,0
140,-272,0,0,0,0,0,0,0,0,0,-1,1364,1296,0,0
147,-272,0,0,0,0,0,0,0,0,0,-1,1371,1296,0,0
154,-272,0,0,0,0,0,0,0,0,0,-1,1378,1296,0,0
161,-272,0,0,0,0,0,0,0,0,0,-1,1385,1296,0,0
168,-272,0,0,0,0,0,0,0,0,0,-1,1392,1296,0,0
175,-272,0,0,0,0,0,0,0,0,0,-1,1399,1296,0,0
182,-272,0,0,0,0,0,0,0,0,0,-1,1406,1296,0,0
189,-272,0,0,0,0,0,0,0,0,0,-1,1413,1296,0,0
196,-272,0,0,0,0,0,0,0,0,0,-1,1420,1296,0,0
203,-272,0,0,0,0,0,0,0,0,0,-1,1427,1296,0,0
210,-272,0,0,0,0,0,0,0,0,0,-1,1434,1296,0,0
217,-272,0,0,0,0,0,0,0,0,0,-1,1441,1296,0,0
224,-272,0,0,0,0,0,0,0,0,0,-1,1448,1296,0,0
231,-272,0,0,0,0,0,0,0,0,0,-1,1455,1296,0,0
238,-272,0,0,0,0,0,0,0,0,0,-1,1462,1296,0,0
245,-272,0,0,0,0,0,0,0,0,0,-1,1469,1296,0,0
252,-272,0,0,0,0,0,0,0,0,0,-1,1476,1296,0,0
259,-272,0,0,0,0,0,0,0,0,0,-1,1483,1296,0,0
266,-272,0,0,0,0,0,0,0,0,0,-1,1490,1296,0,0
273,-272,0,0,0,0,0,0,0,0,0,-1,1497,1296,0,0
280,-272,0,0,0,0,0,0,0,0,0,-1,1504,1296,0,0
287,-272,0,0,0,0,0,0,0,0,0,-1,1511,1296,0,0
294,-272,0,0,0,0,0,0,0,0,0,-1,1518,1296,0,0
301,-272,0,0,0,0,0,0,0,0,0,-1,1525,1296,0,0
308,-272,0,0,0,0,0,0,0,0,0,-1,1532,1296,0,0
315,-272,0,0,0,0,0,0,0,0,0,-1,1539,1296,0,0
322,-272,0,0,0,0,0,0,0,0,0,-1,1546,1296,0,0
329,-272,0,0,0,0,0,0,0,0,0,-1,1553,1296,0,0
336,-272,0,0,0,0,0,0,0,0,0,-1,1560,1296,0,0
343,-272,0,0,0,0,0,0,0,0,0,-1,1567,1296,0,0
350,-272,0,0,0,0,0,0,0,0,0,-1,1574,1296,0,0
357,-272,0,0,0,0,0,0,0,0,0,-1,1581,1296,0,0
364,-272,0,0,0,0,0,0,0,0,0,-1,1588,1296,0,0
371,-272,0,0,0,0,0,0,0,0,0,-1,1595,1296,0,0
378,-272,0,0,0,0,0,0,0,0,0,-1,1602,1296,0,0
385,-272,0,0,0,0,0,0,0,0,0,-1,1609,1296,0,0
392,-272,0,0,0,0,0,0,0,0,0,-1,1616,1296,0,0
399,-272,0,0,0,0,0,0,0,0,0,-1,1623,1296,0,0
406,-272,0,0,0,0,0,0,0,0,0,-1,1630,1296,0,0
413,-272,0,0,0,0,0,0,0,0,0,-1,1637,1296,0,0
420,-272,0,0,0,0,0,0,0,0,0,-1,1644,1296,0,0
427,-272,0,0,0,0,0,0,0,0,0,-1,1651,1296,0,0
434,-272,0,0,0,0,0,0,0,0,0,-1,1658,1296,0,0
441,-272,0,0,0,0,0,0,0,0,0,-1,1665,1296,0,0
448,-272,0,0,0,0,0,0,0,0,0,-1,1672,1296,0,0
455,-272,0,0,0,0,0,0,0,0,0,-1,1679,1296,0,0
462,-272,0,0,0,0,0,0,0,0,0,-1,1686,1296,0,0
469,-272,0,0,0,0,0,0,0,0,0,-1,1693,1296,0,0
476,-272,0,0,0,0,0,0,0,0,0,-1,1700,1296,0,0
483,-272,0,0,0,0,0,0,0,0,0,-1,1707,1296,0,0
490,-272,0,0,0,0,0,0,0,0,0,-1,1714,1296,0,0
497,-272,0,0,0,0,0,0,0,0,0,-1,1721,1296,0,0
504,-272,0,0,0,0,0,0,0,0,0,-1,1728,1296,0,0
511,-272,0,0,0,0,0,0,0,0,0,-1,1735,1296,0,0
518,-272,0,0,0,0,0,0,0,0,0,-1,1742,1296,0,0
525,-272,0,0,0,0,0,0,0,0,0,-1,1749,1296,0,0
532,-272,0,0,0,0,0,0,0,0,0,-1,1756,1296,0,0
539,-272,0,0,0,0,0,0,0,0,0,-1,1763,1296,0,0
546,-272,0,0,0,0,0,0,0,0,0,-1,1770,1296,0,0
553,-272,0,0,0,0,0,0,0,0,0,-1,1777,1296,0,0
560,-272,0,0,0,0,0,0,0,0,0,-1,1784,1296,0,0
567,-272,0,0,0,0,0,0,0,0,0,-1,1791,1296,0,0
574,-272,0,0,0,0,0,0,0,0,0,-1,1798,1296,0,0
581,-272,0,0,0,0,0,0,0,0,0,-1,1805,1296,0,0
588,-272,0,0,0,0,0,0,0,0,0,-1,1812,1296,0,0
595,-272,0,0,0,0,0,0,0,0,0,-1,1819,1296,0,0
602,-272,22.5254,2.74878,0.0353728,0.00701495,0.00774847,0.0373518,0.00503588,0.250068,0.0234039,0.0312141,1826,1296,22.5254,-2.74876
609,-272,22.5651,2.73352,0.0286281,0.00503822,0.00836867,0.0312953,0.00237096,0.308542,0.0201199,0.0398732,1833,1296,22.565,-2.73357
616,-272,22.6837,2.8075,0.0178451,0.00267927,0.00891059,0.0219626,-0.00143821,0.432861,0.0151439,0.0477757,1840,1296,22.6837,-2.80749
623,-272,22.6515,2.76233,0.00722234,0.000802105,0.00880099,0.0133804,-0.00535593,0.610523,0.0111432,0.045376,1847,1296,22.6515,-2.76229
630,-272,22.8408,2.6134,-0.00080428,-0.000209392,0.00800282,0.00750151,-0.00851518,0.803973,0.00925341,0.0457168,1854,1296,22.8408,-2.6134
637,-272,22.3503,2.47461,-0.00597217,-0.000822441,0.00710756,0.00416228,-0.0109569,0.95918,0.0090181,0.0470896,1861,1296,22.3503,-2.47461
644,-272,22.2106,2.2655,0,0,0,0,0,0,0,-1,1868,1296,22.2106,-2.26547
651,-272,20.7062,2.4729,0,0,0,0,0,0,0,-1,1875,1296,20.7062,-2.47287
658,-272,19.501,2.77258,0,0,0,0,0,0,0,-1,1882,1296,19.5009,-2.77254
665,-272,17.4078,3.08142,0,0,0,0,0,0,0,-1,1889,1296,17.4079,-3.08142
672,-272,17.7052,5.74915,0,0,0,0,0,0,0,-1,1896,1296,17.7052,-5.74909
679,-272,17.8917,5.81104,-0.015309,-0.00122517,0.00318026,-0.000540332,-0.0159938,1.3587,0.0104871,0.0294867,1903,1296,17.8917,-5.81108
686,-272,17.9103,5.71082,-0.0114117,-0.00151505,0.00355703,-0.000369252,-0.0125575,1.25917,0.00825134,0.0143942,1910,1296,17.9103,-5.71082
693,-272,17.8999,5.49194,-0.00739097,-0.00137245,0.00303175,-0.000110043,-0.00865337,1.17624,0.00573259,0.0114541,1917,1296,17.8999,-5.4919
700,-272,17.8918,5.30627,-0.00477806,-0.00112927,0.00214145,-0.000140443,-0.00576689,1.13821,0.00379865,0.0107613,1924,1296,17.8918,-5.30629
707,-272,17.913,5.10803,-0.0026955,-0.000443861,0.00118863,6.74853e-05,-0.00320685,1.16453,0.00216074,0.0103939,1931,1296,17.913,-5.10798
714,-272,17.9077,4.91162,-0.00122233,0.000701913,-6.36626e-05,0.000704017,-0.00122444,-1.53776,0.00112683,0.0104379,1938,1296,17.9077,-4.91161
721,-272,17.8713,4.74756,-0.000185871,0.00172409,-0.00111411,0.0022365,-0.000698281,-1.13972,0.00177028,0.0116078,1945,1296,17.8713,-4.74756
728,-272,17.8584,4.57104,0.00102973,0.00343593,-0.00232365,0.00484947,-0.000383811,-1.02428,0.00336821,0.0141664,1952,1296,17.8584,-4.57106
735,-272,17.8893,4.37085,0.00224841,0.00561086,-0.00367636,0.00797218,-0.00011291,-0.999855,0.00535282,0.01381,1959,1296,17.8893,-4.37085
742,-272,17.8868,4.146,0.00390346,0.00860158,-0.00567289,0.0123925,0.000112507,-0.981693,0.00822445,0.0245428,1966,1296,17.8869,-4.14594
749,-272,17.9128,3.93176,0.00630286,0.012375,-0.00824312,0.0181234,0.000554455,-0.961846,0.0119017,0.0432635,1973,1296,17.9128,-3.93181
756,-272,18.0692,3.77563,0,0,0,0,0,0,0,-1,1980,1296,18.0692,-3.77563
763,-272,17.4948,3.45435,0,0,0,0,0,0,0,-1,1987,1296,17.4947,-3.45438
770,-272,17.7688,1.90918,0,0,0,0,0,0,0,-1,1994,1296,17.7689,-1.9092
777,-272,17.9741,1.23071,0,0,0,0,0,0,0,-1,2001,1296,17.9741,-1.23072
784,-272,0,0,0,0,0,0,0,0,0,-1,2008,1296,0,0
791,-272,0,0,0,0,0,0,0,0,0,-1,2015,1296,0,0
798,-272,0,0,0,0,0,0,0,0,0,-1,2022,1296,0,0
805,-272,0,0,0,0,0,0,0,0,0,-1,2029,1296,0,0
812,-272,0,0,0,0,0,0,0,0,0,-1,2036,1296,0,0
-700,-279,0,0,0,0,0,0,0,0,0,-1,524,1303,0,0
-693,-279,0,0,0,0,0,0,0,0,0,-1,531,1303,0,0
-686,-279,0,0,0,0,0,0,0,0,0,-1,538,1303,0,0
-679,-279,0,0,0,0,0,0,0,0,0,-1,545,1303,0,0
-672,-279,0,0,0,0,0,0,0,0,0,-1,552,1303,0,0
-665,-279,0,0,0,0,0,0,0,0,0,-1,559,1303,0,0
-658,-279,-8.88391,4.11963,-0.0445273,-0.0833017,-0.0532362,-0.00725795,-0.120571,-0.610776,0.0780739,0.0437925,566,1303,-8.88389,-4.11959
-651,-279,-9.25531,3.50452,-0.0347479,-0.0639115,-0.0482484,0.001074,-0.0997334,-0.638651,0.0668498,0.0434964,573,1303,-9.25533,-3.50453
-644,-279,-9.49988,2.80664,-0.0266365,-0.0474477,-0.043001,0.00719998,-0.0812842,-0.666687,0.0567419,0.0465354,580,1303,-9.49987,-2.80662
-637,-279,-9.94708,2.06616,-0.0199667,-0.0339924,-0.0376447,0.0113129,-0.0652719,-0.693309,0.0477345,0.0450904,587,1303,-9.94707,-2.06618
-630,-279,-10.3405,1.35706,-0.0145836,-0.0233082,-0.0322198,0.0135679,-0.0514597,-0.718111,0.0396114,0.0429649,594,1303,-10.3405,-1.35709
-623,-279,-10.3463,0.710693,-0.0103894,-0.0150866,-0.0268272,0.0141918,-0.0396678,-0.741737,0.0322345,0.0418234,601,1303,-10.3462,-0.710707
-616,-279,-10.3916,-0.140137,0,0,0,0,0,0,0,-1,608,1303,-10.3916,0.140175
-609,-279,-9.46558,1.77002,-0.00453068,-0.0041977,-0.0165971,0.0122338,-0.0209621,-0.790414,0.0193852,0.030617,615,1303,-9.46559,-1.76997
-602,-279,-9.33411,2.09631,-0.00229467,-0.00122697,-0.0121089,0.0103598,-0.0138815,-0.807428,0.0140449,0.0121359,622,1303,-9.33409,-2.09628
-595,-279,-9.35321,2.34033,-0.000954619,0.00072084,-0.00835839,0.00828338,-0.00851715,-0.835344,0.0097001,0.00990827,629,1303,-9.3532,-2.34034
-588,-279,-9.32495,2.57751,0.000499162,0.00231585,-0.00546163,0.00694416,-0.00412914,-0.867801,0.00646167,0.0105638,636,1303,-9.32496,-2.57757
-581,-279,-9.33728,2.77283,0.00161024,0.0021632,-0.00287482,0.0047748,-0.00100137,-0.833337,0.00356419,0.0120337,643,1303,-9.33726,-2.77279
-574,-279,-9.37012,2.98303,0.00204219,0.00111807,-0.000763229,0.00247233,0.00068793,-0.513206,0.00147345,0.0118382,650,1303,-9.3701,-2.98309
-567,-279,-9.36517,3.22644,0.00192364,0.000342279,-0.000393784,0.00201627,0.000249647,-0.231035,0.00126918,0.0151722,657,1303,-9.36516,-3.22643
-560,-279,-9.35077,3.48083,6.03815e-05,0.000777113,-0.00130573,0.00177277,-0.000935272,-0.919328,0.00158821,0.0172412,664,1303,-9.3508,-3.48078
-553,-279,-9.35315,3.71521,-0.00244575,0.00262125,-0.00251086,0.00365469,-0.00347919,-1.18034,0.00411916,0.0127401,671,1303,-9.35318,-3.71525
-546,-279,-9.3468,3.92737,-0.00592473,0.00545554,-0.00381044,0.00661355,-0.00708274,-1.27576,0.00790911,0.0141926,678,1303,-9.3468,-3.92733
-539,-279,-9.354,4.26086,-0.0104504,0.00964048,-0.00526647,0.0109373,-0.0117472,-1.32936,0.0130997,0.045096,685,1303,-9.35399,-4.26087
-532,-279,-9.36096,4.6084,0,0,0,0,0,0,0,-1,692,1303,-9.36098,-4.60839
-525,-279,-11.7063,-0.539185,0,0,0,0,0,0,0,-1,699,1303,-11.7063,0.539166
-518,-279,-12.0009,0.119995,0,0,0,0,0,0,0,-1,706,1303,-12.0009,-0.120025
-511,-279,-12.5806,0.432861,-0.0245294,0.0277595,-0.0110145,0.0299849,-0.0267548,-1.37143,0.0327764,0.0441685,713,1303,-12.5806,-0.432897
-504,-279,-13.1561,0.476074,0,0,0,0,0,0,0,-1,720,1303,-13.1561,-0.476062
-497,-279,-13.4147,0.346436,-0.0290767,0.0387469,-0.0138713,0.0414742,-0.031804,-1.37666,0.0424298,0.0433426,727,1303,-13.4147,-0.346395
-490,-279,-13.5588,0.378418,-0.0285014,0.0444618,-0.0150913,0.04746,-0.0314997,-1.37468,0.0458968,0.0444254,734,1303,-13.5588,-0.378408
-483,-279,-13.8329,0.423584,-0.0240986,0.0493507,-0.015526,0.0524978,-0.0272457,-1.37081,0.0468031,0.0414809,741,1303,-13.833,-0.423579
-476,-279,0,0,0,0,0,0,0,0,0,-1,748,1303,0,0
-469,-279,0,0,0,0,0,0,0,0,0,-1,755,1303,0,0
-462,-279,0,0,0,0,0,0,0,0,0,-1,762,1303,0,0
-455,-279,0,0,0,0,0,0,0,0,0,-1,769,1303,0,0
-448,-279,0,0,0,0,0,0,0,0,0,-1,776,1303,0,0
-441,-279,0,0,0,0,0,0,0,0,0,-1,783,1303,0,0
-434,-279,0,0,0,0,0,0,0,0,0,-1,790,1303,0,0
-427,-279,0,0,0,0,0,0,0,0,0,-1,797,1303,0,0
-420,-279,0,0,0,0,0,0,0,0,0,-1,804,1303,0,0
-413,-279,0,0,0,0,0,0,0,0,0,-1,811,1303,0,0
-406,-279,0,0,0,0,0,0,0,0,0,-1,818,1303,0,0
-399,-279,0,0,0,0,0,0,0,0,0,-1,825,1303,0,0
-392,-279,0,0,0,0,0,0,0,0,0,-1,832,1303,0,0
-385,-279,0,0,0,0,0,0,0,0,0,-1,839,1303,0,0
-378,-279,0,0,0,0,0,0,0,0,0,-1,846,1303,0,0
-371,-279,0,0,0,0,0,0,0,0,0,-1,853,1303,0,0
-364,-279,0,0,0,0,0,0,0,0,0,-1,860,1303,0,0
-357,-279,0,0,0,0,0,0,0,0,0,-1,867,1303,0,0
-350,-279,0,0,0,0,0,0,0,0,0,-1,874,1303,0,0
-343,-279,0,0,0,0,0,0,0,0,0,-1,881,1303,0,0
-336,-279,0,0,0,0,0,0,0,0,0,-1,888,1303,0,0
-329,-279,0,0,0,0,0,0,0,0,0,-1,895,1303,0,0
-322,-279,0,0,0,0,0,0,0,0,0,-1,902,1303,0,0
-315,-279,0,0,0,0,0,0,0,0,0,-1,909,1303,0,0
-308,-279,0,0,0,0,0,0,0,0,0,-1,916,1303,0,0
-301,-279,0,0,0,0,0,0,0,0,0,-1,923,1303,0,0
-294,-279,0,0,0,0,0,0,0,0,0,-1,930,1303,0,0
-287,-279,0,0,0,0,0,0,0,0,0,-1,937,1303,0,0
-280,-279,0,0,0,0,0,0,0,0,0,-1,944,1303,0,0
-273,-279,0,0,0,0,0,0,0,0,0,-1,951,1303,0,0
-266,-279,0,0,0,0,0,0,0,0,0,-1,958,1303,0,0
-259,-279,0,0,0,0,0,0,0,0,0,-1,965,1303,0,0
-252,-279,0,0,0,0,0,0,0,0,0,-1,972,1303,0,0
-245,-279,0,0,0,0,0,0,0,0,0,-1,979,1303,0,0
-238,-279,0,0,0,0,0,0,0,0,0,-1,986,1303,0,0
-231,-279,0,0,0,0,0,0,0,0,0,-1,993,1303,0,0
-224,-279,0,0,0,0,0,0,0,0,0,-1,1000,1303,0,0
-217,-279,0,0,0,0,0,0,0,0,0,-1,1007,1303,0,0
-210,-279,0,0,0,0,0,0,0,0,0,-1,1014,1303,0,0
-203,-279,0,0,0,0,0,0,0,0,0,-1,1021,1303,0,0
-196,-279,0,0,0,0,0,0,0,0,0,-1,1028,1303,0,0
-189,-279,0,0,0,0,0,0,0,0,0,-1,1035,1303,0,0
-182,-279,0,0,0,0,0,0,0,0,0,-1,1042,1303,0,0
-175,-279,0,0,0,0,0,0,0,0,0,-1,1049,1303,0,0
-168,-279,0,0,0,0,0,0,0,0,0,-1,1056,1303,0,0
-161,-279,0,0,0,0,0,0,0,0,0,-1,1063,1303,0,0
-154,-279,0,0,0,0,0,0,0,0,0,-1,1070,1303,0,0
-147,-279,0,0,0,0,0,0,0,0,0,-1,1077,1303,0,0
-140,-279,0,0,0,0,0,0,0,0,0,-1,1084,1303,0,0
-133,-279,0,0,0,0,0,0,0,0,0,-1,1091,1303,0,0
-126,-279,0,0,0,0,0,0,0,0,0,-1,1098,1303,0,0
-119,-279,0,0,0,0,0,0,0,0,0,-1,1105,1303,0,0
-112,-279,0,0,0,0,0,0,0,0,0,-1,1112,1303,0,0
-105,-279,0,0,0,0,0,0,0,0,0,-1,1119,1303,0,0
-98,-279,0,0,0,0,0,0,0,0,0,-1,1126,1303,0,0
-91,-279,0,0,0,0,0,0,0,0,0,-1,1133,1303,0,0
-84,-279,0,0,0,0,0,0,0,0,0,-1,1140,1303,0,0
-77,-279,0,0,0,0,0,0,0,0,0,-1,1147,1303,0,0
-70,-279,0,0,0,0,0,0,0,0,0,-1,1154,1303,0,0
-63,-279,0,0,0,0,0,0,0,0,0,-1,1161,1303,0,0
-56,-279,0,0,0,0,0,0,0,0,0,-1,1168,1303,0,0
-49,-279,0,0,0,0,0,0,0,0,0,-1,1175,1303,0,0
-42,-279,0,0,0,0,0,0,0,0,0,-1,1182,1303,0,0
-35,-279,0,0,0,0,0,0,0,0,0,-1,1189,1303,0,0
-28,-279,0,0,0,0,0,0,0,0,0,-1,1196,1303,0,0
-21,-279,0,0,0,0,0,0,0,0,0,-1,1203,1303,0,0
-14,-279,0,0,0,0,0,0,0,0,0,-1,1210,1303,0,0
-7,-279,0,0,0,0,0,0,0,0,0,-1,1217,1303,0,0
0,-279,0,0,0,0,0,0,0,0,0,-1,1224,1303,0,0
7,-279,0,0,0,0,0,0,0,0,0,-1,1231,1303,0,0
14,-279,0,0,0,0,0,0,0,0,0,-1,1238,1303,0,0
21,-279,0,0,0,0,0,0,0,0,0,-1,1245,1303,0,0
28,-279,0,0,0,0,0,0,0,0,0,-1,1252,1303,0,0
35,-279,0,0,0,0,0,0,0,0,0,-1,1259,1303,0,0
42,-279,0,0,0,0,0,0,0,0,0,-1,1266,1303,0,0
49,-279,0,0,0,0,0,0,0,0,0,-1,1273,1303,0,0
56,-279,0,0,0,0,0,0,0,0,0,-1,1280,1303,0,0
63,-279,0,0,0,0,0,0,0,0,0,-1,1287,1303,0,0
70,-279,0,0,0,0,0,0,0,0,0,-1,1294,1303,0,0
77,-279,0,0,0,0,0,0,0,0,0,-1,1301,1303,0,0
84,-279,0,0,0,0,0,0,0,0,0,-1,1308,1303,0,0
91,-279,0,0,0,0,0,0,0,0,0,-1,1315,1303,0,0
98,-279,0,0,0,0,0,0,0,0,0,-1,1322,1303,0,0
105,-279,0,0,0,0,0,0,0,0,0,-1,1329,1303,0,0
112,-279,0,0,0,0,0,0,0,0,0,-1,1336,1303,0,0
119,-279,0,0,0,0,0,0,0,0,0,-1,1343,1303,0,0
126,-279,0,0,0,0,0,0,0,0,0,-1,1350,1303,0,0
133,-279,0,0,0,0,0,0,0,0,0,-1,1357,1303,0,0
140,-279,0,0,0,0,0,0,0,0,0,-1,1364,1303,0,0
147,-279,0,0,0,0,0,0,0,0,0,-1,1371,1303,0,0
154,-279,0,0,0,0,0,0,0,0,0,-1,1378,1303,0,0
161,-279,0,0,0,0,0,0,0,0,0,-1,1385,1303,0,0
168,-279,0,0,0,0,0,0,0,0,0,-1,1392,1303,0,0
175,-279,0,0,0,0,0,0,0,0,0,-1,1399,1303,0,0
182,-279,0,0,0,0,0,0,0,0,0,-1,1406,1303,0,0
189,-279,0,0,0,0,0,0,0,0,0,-1,1413,1303,0,0
196,-279,0,0,0,0,0,0,0,0,0,-1,1420,1303,0,0
203,-279,0,0,0,0,0,0,0,0,0,-1,1427,1303,0,0
210,-279,0,0,0,0,0,0,0,0,0,-1,1434,1303,0,0
217,-279,0,0,0,0,0,0,0,0,0,-1,1441,1303,0,0
224,-279,0,0,0,0,0,0,0,0,0,-1,1448,1303,0,0
231,-279,0,0,0,0,0,0,0,0,0,-1,1455,1303,0,0
238,-279,0,0,0,0,0,0,0,0,0,-1,1462,1303,0,0
245,-279,0,0,0,0,0,0,0,0,0,-1,1469,1303,0,0
252,-279,0,0,0,0,0,0,0,0,0,-1,1476,1303,0,0
259,-279,0,0,0,0,0,0,0,0,0,-1,1483,1303,0,0
266,-279,0,0,0,0,0,0,0,0,0,-1,1490,1303,0,0
273,-279,0,0,0,0,0,0,0,0,0,-1,1497,1303,0,0
280,-279,0,0,0,0,0,0,0,0,0,-1,1504,1303,0,0
287,-279,0,0,0,0,0,0,0,0,0,-1,1511,1303,0,0
294,-279,0,0,0,0,0,0,0,0,0,-1,1518,1303,0,0
301,-279,0,0,0,0,0,0,0,0,0,-1,1525,1303,0,0
308,-279,0,0,0,0,0,0,0,0,0,-1,1532,1303,0,0
315,-279,0,0,0,0,0,0,0,0,0,-1,1539,1303,0,0
322,-279,0,0,0,0,0,0,0,0,0,-1,1546,1303,0,0
329,-279,0,0,0,0,0,0,0,0,0,-1,1553,1303,0,0
336,-279,0,0,0,0,0,0,0,0,0,-1,1560,1303,0,0
343,-279,0,0,0,0,0,0,0,0,0,-1,1567,1303,0,0
350,-279,0,0,0,0,0,0,0,0,0,-1,1574,1303,0,0
357,-279,0,0,0,0,0,0,0,0,0,-1,1581,1303,0,0
364,-279,0,0,0,0,0,0,0,0,0,-1,1588,1303,0,0
371,-279,0,0,0,0,0,0,0,0,0,-1,1595,1303,0,0
378,-279,0,0,0,0,0,0,0,0,0,-1,1602,1303,0,0
385,-279,0,0,0,0,0,0,0,0,0,-1,1609,1303,0,0
392,-279,0,0,0,0,0,0,0,0,0,-1,1616,1303,0,0
399,-279,0,0,0,0,0,0,0,0,0,-1,1623,1303,0,0
406,-279,0,0,0,0,0,0,0,0,0,-1,1630,1303,0,0
413,-279,0,0,0,0,0,0,0,0,0,-1,1637,1303,0,0
420,-279,0,0,0,0,0,0,0,0,0,-1,1644,1303,0,0
427,-279,0,0,0,0,0,0,0,0,0,-1,1651,1303,0,0
434,-279,0,0,0,0,0,0,0,0,0,-1,1658,1303,0,0
441,-279,0,0,0,0,0,0,0,0,0,-1,1665,1303,0,0
448,-279,0,0,0,0,0,0,0,0,0,-1,1672,1303,0,0
455,-279,0,0,0,0,0,0,0,0,0,-1,1679,1303,0,0
462,-279,0,0,0,0,0,0,0,0,0,-1,1686,1303,0,0
469,-279,0,0,0,0,0,0,0,0,0,-1,1693,1303,0,0
476,-279,0,0,0,0,0,0,0,0,0,-1,1700,1303,0,0
483,-279,0,0,0,0,0,0,0,0,0,-1,1707,1303,0,0
490,-279,0,0,0,0,0,0,0,0,0,-1,1714,1303,0,0
497,-279,0,0,0,0,0,0,0,0,0,-1,1721,1303,0,0
504,-279,0,0,0,0,0,0,0,0,0,-1,1728,1303,0,0
511,-279,0,0,0,0,0,0,0,0,0,-1,1735,1303,0,0
518,-279,0,0,0,0,0,0,0,0,0,-1,1742,1303,0,0
525,-279,0,0,0,0,0,0,0,0,0,-1,1749,1303,0,0
532,-279,0,0,0,0,0,0,0,0,0,-1,1756,1303,0,0
539,-279,0,0,0,0,0,0,0,0,0,-1,1763,1303,0,0
546,-279,0,0,0,0,0,0,0,0,0,-1,1770,1303,0,0
553,-279,0,0,0,0,0,0,0,0,0,-1,1777,1303,0,0
560,-279,0,0,0,0,0,0,0,0,0,-1,1784,1303,0,0
567,-279,0,0,0,0,0,0,0,0,0,-1,1791,1303,0,0
574,-279,0,0,0,0,0,0,0,0,0,-1,1798,1303,0,0
581,-279,0,0,0,0,0,0,0,0,0,-1,1805,1303,0,0
588,-279,0,0,0,0,0,0,0,0,0,-1,1812,1303,0,0
595,-279,0,0,0,0,0,0,0,0,0,-1,1819,1303,0,0
602,-279,22.5481,2.71606,0,0,0,0,0,0,0,-1,1826,1303,22.5481,-2.71602
609,-279,22.5367,2.72412,0,0,0,0,0,0,0,-1,1833,1303,22.5368,-2.72414
616,-279,22.7443,2.80322,0,0,0,0,0,0,0,-1,1840,1303,22.7443,-2.80325
623,-279,22.8374,2.75989,0,0,0,0,0,0,0,-1,1847,1303,22.8374,-2.75987
630,-279,23.5737,2.48474,0.00537567,-0.000969297,0.0119583,0.0145751,-0.0101688,0.655737,0.0143612,0.044559,1854,1303,23.5737,-2.48479
637,-279,22.3408,2.58911,-0.000717335,-0.00165897,0.0103014,0.00912398,-0.0115003,0.762562,0.0119337,0.0476777,1861,1303,22.3408,-2.58913
644,-279,22.2764,2.42004,0,0,0,0,0,0,0,-1,1868,1303,22.2764,-2.42005
651,-279,20.4437,2.24207,0,0,0,0,0,0,0,-1,1875,1303,20.4437,-2.24212
658,-279,18.77,5.37451,0,0,0,0,0,0,0,-1,1882,1303,18.7701,-5.37446
665,-279,18.4232,5.90479,0,0,0,0,0,0,0,-1,1889,1303,18.4232,-5.90477
672,-279,18.0454,5.90515,-0.0155597,-0.00271848,0.004385,-0.00136397,-0.0169142,1.2712,0.0108501,0.0479208,1896,1303,18.0454,-5.90515
679,-279,17.7214,5.95642,-0.0153524,-0.00188977,0.00379378,-0.00089429,-0.0163478,1.31418,0.010613,0.030239,1903,1303,17.7214,-5.95638
686,-279,17.7261,5.73364,-0.0110813,-0.00201834,0.00399181,-0.000510876,-0.0125888,1.20971,0.00822753,0.0204966,1910,1303,17.7261,-5.73367
693,-279,17.7104,5.526,-0.00697003,-0.00167099,0.0032784,-0.000105316,-0.00853571,1.12525,0.00565569,0.0162402,1917,1303,17.7104,-5.52604
700,-279,17.7013,5.33203,-0.00448244,-0.00117049,0.00226837,-1.79466e-05,-0.00563498,1.1007,0.00375068,0.0107426,1924,1303,17.7013,-5.33204
707,-279,17.6929,5.11951,-0.00258375,-0.000377523,0.00126694,0.000199245,-0.00316052,1.14359,0.00217647,0.00812594,1931,1303,17.6929,-5.11946
714,-279,17.6794,4.90662,-0.00126021,0.000810983,1.16975e-05,0.000811049,-0.00126028,1.56515,0.00120522,0.00950225,1938,1303,17.6794,-4.90657
721,-279,17.6805,4.71558,-0.000331602,0.00182614,-0.000992444,0.00221318,-0.000718647,-1.19895,0.00176448,0.0123711,1945,1303,17.6805,-4.71555
728,-279,17.6797,4.52869,0.000713747,0.00341033,-0.00215058,0.00460032,-0.000476241,-1.0654,0.00323732,0.0131069,1952,1303,17.6797,-4.52866
735,-279,17.6968,4.36304,0.00177319,0.00543714,-0.00350921,0.00756378,-0.00035346,-1.02596,0.00516438,0.0125282,1959,1303,17.6967,-4.36304
742,-279,17.6509,4.1145,0.00331057,0.00827636,-0.0055279,0.0118534,-0.000266439,-0.996475,0.00799254,0.0252687,1966,1303,17.6509,-4.11453
749,-279,17.7844,3.84155,0.00562929,0.0119101,-0.00821469,0.0175642,-2.48076e-05,-0.967972,0.0117177,0.0472167,1973,1303,17.7844,-3.84156
756,-279,18.0258,3.57397,0,0,0,0,0,0,0,-1,1980,1303,18.0258,-3.574
763,-279,17.8236,3.82422,0,0,0,0,0,0,0,-1,1987,1303,17.8237,-3.82416
770,-279,18.4252,3.7168,0,0,0,0,0,0,0,-1,1994,1303,18.4251,-3.71675
777,-279,15.3864,1.55225,0,0,0,0,0,0,0,-1,2001,1303,15.3863,-1.55222
784,-279,0,0,0,0,0,0,0,0,0,-1,2008,1303,0,0
791,-279,0,0,0,0,0,0,0,0,0,-1,2015,1303,0,0
798,-279,0,0,0,0,0,0,0,0,0,-1,2022,1303,0,0
805,-279,0,0,0,0,0,0,0,0,0,-1,2029,1303,0,0
812,-279,0,0,0,0,0,0,0,0,0,-1,2036,1303,0,0
-700,-286,0,0,0,0,0,0,0,0,0,-1,524,1310,0,0
-693,-286,0,0,0,0,0,0,0,0,0,-1,531,1310,0,0
-686,-286,0,0,0,0,0,0,0,0,0,-1,538,1310,0,0
-679,-286,0,0,0,0,0,0,0,0,0,-1,545,1310,0,0
-672,-286,0,0,0,0,0,0,0,0,0,-1,552,1310,0,0
-665,-286,0,0,0,0,0,0,0,0,0,-1,559,1310,0,0
-658,-286,-8.77075,4.86865,-0.0463574,-0.0936719,-0.0676499,0.00165248,-0.141682,-0.617194,0.0950102,0.0451916,566,1310,-8.77073,-4.8687
-651,-286,-9.17584,4.06018,-0.0348658,-0.0715596,-0.0621774,0.0116151,-0.11804,-0.641932,0.0828372,0.046929,573,1310,-9.17587,-4.06013
-644,-286,-9.41913,3.27087,-0.0254869,-0.052812,-0.0557355,0.0182362,-0.0965351,-0.665203,0.071218,0.0490215,580,1310,-9.41913,-3.27084
-637,-286,-9.9267,2.3147,-0.0181164,-0.0377047,-0.0489168,0.0219771,-0.0777982,-0.686594,0.0605359,0.044808,587,1310,-9.92668,-2.31466
-630,-286,-10.3432,1.61621,-0.0125087,-0.0258888,-0.0419466,0.023278,-0.0616754,-0.706319,0.0506904,0.0434305,594,1310,-10.3432,-1.61626
-623,-286,-11.0627,0.133911,-0.00841203,-0.0168948,-0.0350222,0.0226246,-0.0479315,-0.725139,0.0415998,0.042833,601,1310,-11.0627,-0.133866
-616,-286,-11.0674,-1.00256,-0.00549499,-0.0102654,-0.0283315,0.0205515,-0.0363119,-0.743402,0.0332478,0.0482079,608,1310,-11.0674,1.00261
-609,-286,-10.9072,-1.97205,0,0,0,0,0,0,0,-1,615,1310,-10.9072,1.97207
-602,-286,-9.10645,2.0365,-0.00137472,-0.00170824,-0.0161893,0.0146486,-0.0177316,-0.780248,0.018723,0.0141661,622,1310,-9.10647,-2.03655
-595,-286,-9.1236,2.32019,-0.000355837,0.000458319,-0.0112594,0.011318,-0.0112155,-0.803468,0.0130098,0.0106756,629,1310,-9.1236,-2.3202
-588,-286,-9.0965,2.5553,0.000685631,0.0023403,-0.00763106,0.00918874,-0.00616281,-0.839396,0.00892043,0.0117956,636,1310,-9.09647,-2.5553
-581,-286,-9.09039,2.76099,0.00143505,0.00238898,-0.00437076,0.00630872,-0.00248469,-0.839746,0.00523445,0.0132375,643,1310,-9.09039,-2.76103
-574,-286,-9.12555,2.97559,0.00145312,0.00144704,-0.00150329,0.00295337,-5.32188e-05,-0.784387,0.00198689,0.0133643,650,1310,-9.12554,-2.9756
-567,-286,-9.12891,3.21985,0.00124771,0.000243951,-0.000486866,0.00144506,4.66015e-05,-0.385107,0.000948222,0.0126979,657,1310,-9.12892,-3.21981
-560,-286,-9.11346,3.47864,-0.000275698,0.000103946,-0.00109246,0.00102295,-0.0011947,-0.871418,0.00128164,0.0141126,664,1310,-9.11347,-3.47864
-553,-286,-9.1167,3.72583,-0.00235164,0.00135794,-0.00225007,0.00241915,-0.00341286,-1.1301,0.00338337,0.0109709,671,1310,-9.11672,-3.72586
-546,-286,-9.11652,3.9624,-0.00547945,0.00375763,-0.00359996,0.00499491,-0.00671673,-1.23975,0.00678603,0.0119696,678,1310,-9.11653,-3.96239
-539,-286,-9.12506,4.20825,-0.00988003,0.00790387,-0.00512963,0.00927739,-0.0112535,-1.30917,0.0118718,0.0318201,685,1310,-9.12504,-4.20823
-532,-286,-9.09839,4.46301,0,0,0,0,0,0,0,-1,692,1310,-9.0984,-4.46303
-525,-286,-11.4528,-1.11768,0,0,0,0,0,0,0,-1,699,1310,-11.4528,1.11769
-518,-286,-11.7288,-0.289307,0,0,0,0,0,0,0,-1,706,1310,-11.7288,0.289284
-511,-286,-12.2281,0.61084,0,0,0,0,0,0,0,-1,713,1310,-12.2281,-0.610821
-504,-286,-12.6739,-0.180298,0,0,0,0,0,0,0,-1,720,1310,-12.6739,0.180357
-497,-286,-12.828,-0.213257,-0.023589,0.0368446,-0.0141549,0.0399957,-0.0267401,-1.35175,0.0387824,0.0443491,727,1310,-12.828,0.213318
-490,-286,-12.8267,-0.371216,-0.0217505,0.0425255,-0.0157624,0.0461828,-0.0254078,-1.3428,0.0419089,0.0414514,734,1310,-12.8267,0.371164
-483,-286,-13.173,-0.21521,-0.0165868,0.0479628,-0.0170714,0.0521995,-0.0208236,-1.32753,0.0434378,0.0409077,741,1310,-13.173,0.215257
-476,-286,-13.6685,0.228149,0,0,0,0,0,0,0,-1,748,1310,-13.6685,-0.228143
-469,-286,0,0,0,0,0,0,0,0,0,-1,755,1310,0,0
-462,-286,0,0,0,0,0,0,0,0,0,-1,762,1310,0,0
-455,-286,0,0,0,0,0,0,0,0,0,-1,769,1310,0,0
-448,-286,0,0,0,0,0,0,0,0,0,-1,776,1310,0,0
-441,-286,0,0,0,0,0,0,0,0,0,-1,783,1310,0,0
-434,-286,0,0,0,0,0,0,0,0,0,-1,790,1310,0,0
-427,-286,0,0,0,0,0,0,0,0,0,-1,797,1310,0,0
-420,-286,0,0,0,0,0,0,0,0,0,-1,804,1310,0,0
-413,-286,0,0,0,0,0,0,0,0,0,-1,811,1310,0,0
-406,-286,0,0,0,0,0,0,0,0,0,-1,818,1310,0,0
-399,-286,0,0,0,0,0,0,0,0,0,-1,825,1310,0,0
-392,-286,0,0,0,0,0,0,0,0,0,-1,832,1310,0,0
-385,-286,0,0,0,0,0,0,0,0,0,-1,839,1310,0,0
-378,-286,0,0,0,0,0,0,0,0,0,-1,846,1310,0,0
-371,-286,0,0,0,0,0,0,0,0,0,-1,853,1310,0,0
-364,-286,0,0,0,0,0,0,0,0,0,-1,860,1310,0,0
-357,-286,0,0,0,0,0,0,0,0,0,-1,867,1310,0,0
-350,-286,0,0,0,0,0,0,0,0,0,-1,874,1310,0,0
-343,-286,0,0,0,0,0,0,0,0,0,-1,881,1310,0,0
-336,-286,0,0,0,0,0,0,0,0,0,-1,888,1310,0,0
-329,-286,0,0,0,0,0,0,0,0,0,-1,895,1310,0,0
-322,-286,0,0,0,0,0,0,0,0,0,-1,902,1310,0,0
-315,-286,0,0,0,0,0,0,0,0,0,-1,909,1310,0,0
-308,-286,0,0,0,0,0,0,0,0,0,-1,916,1310,0,0
-301,-286,0,0,0,0,0,0,0,0,0,-1,923,1310,0,0
-294,-286,0,0,0,0,0,0,0,0,0,-1,930,1310,0,0
-287,-286,0,0,0,0,0,0,0,0,0,-1,937,1310,0,0
-280,-286,0,0,0,0,0,0,0,0,0,-1,944,1310,0,0
-273,-286,0,0,0,0,0,0,0,0,0,-1,951,1310,0,0
-266,-286,0,0,0,0,0,0,0,0,0,-1,958,1310,0,0
-259,-286,0,0,0,0,0,0,0,0,0,-1,965,1310,0,0
-252,-286,0,0,0,0,0,0,0,0,0,-1,972,1310,0,0
-245,-286,0,0,0,0,0,0,0,0,0,-1,979,1310,0,0
-238,-286,0,0,0,0,0,0,0,0,0,-1,986,1310,0,0
-231,-286,0,0,0,0,0,0,0,0,0,-1,993,1310,0,0
-224,-286,0,0,0,0,0,0,0,0,0,-1,1000,1310,0,0
-217,-286,0,0,0,0,0,0,0,0,0,-1,1007,1310,0,0
-210,-286,0,0,0,0,0,0,0,0,0,-1,1014,1310,0,0
-203,-286,0,0,0,0,0,0,0,0,0,-1,1021,1310,0,0
-196,-286,0,0,0,0,0,0,0,0,0,-1,1028,1310,0,0
-189,-286,0,0,0,0,0,0,0,0,0,-1,1035,1310,0,0
-182,-286,0,0,0,0,0,0,0,0,0,-1,1042,1310,0,0
-175,-286,0,0,0,0,0,0,0,0,0,-1,1049,1310,0,0
-168,-286,0,0,0,0,0,0,0,0,0,-1,1056,1310,0,0
-161,-286,0,0,0,0,0,0,0,0,0,-1,1063,1310,0,0
-154,-286,0,0,0,0,0,0,0,0,0,-1,1070,1310,0,0
-147,-286,0,0,0,0,0,0,0,0,0,-1,1077,1310,0,0
-140,-286,0,0,0,0,0,0,0,0,0,-1,1084,1310,0,0
-133,-286,0,0,0,0,0,0,0,0,0,-1,1091,1310,0,0
-126,-286,0,0,0,0,0,0,0,0,0,-1,1098,1310,0,0
-119,-286,0,0,0,0,0,0,0,0,0,-1,1105,1310,0,0
-112,-286,0,0,0,0,0,0,0,0,0,-1,1112,1310,0,0
-105,-286,0,0,0,0,0,0,0,0,0,-1,1119,1310,0,0
-98,-286,0,0,0,0,0,0,0,0,0,-1,1126,1310,0,0
-91,-286,0,0,0,0,0,0,0,0,0,-1,1133,1310,0,0
-84,-286,0,0,0,0,0,0,0,0,0,-1,1140,1310,0,0
-77,-286,0,0,0,0,0,0,0,0,0,-1,1147,1310,0,0
-70,-286,0,0,0,0,0,0,0,0,0,-1,1154,1310,0,0
-63,-286,0,0,0,0,0,0,0,0,0,-1,1161,1310,0,0
-56,-286,0,0,0,0,0,0,0,0,0,-1,1168,1310,0,0
-49,-286,0,0,0,0,0,0,0,0,0,-1,1175,1310,0,0
-42,-286,0,0,0,0,0,0,0,0,0,-1,1182,1310,0,0
-35,-286,0,0,0,0,0,0,0,0,0,-1,1189,1310,0,0
-28,-286,0,0,0,0,0,0,0,0,0,-1,1196,1310,0,0
-21,-286,0,0,0,0,0,0,0,0,0,-1,1203,1310,0,0
-14,-286,0,0,0,0,0,0,0,0,0,-1,1210,1310,0,0
-7,-286,0,0,0,0,0,0,0,0,0,-1,1217,1310,0,0
0,-286,0,0,0,0,0,0,0,0,0,-1,1224,1310,0,0
7,-286,0,0,0,0,0,0,0,0,0,-1,1231,1310,0,0
14,-286,0,0,0,0,0,0,0,0,0,-1,1238,1310,0,0
21,-286,0,0,0,0,0,0,0,0,0,-1,1245,1310,0,0
28,-286,0,0,0,0,0,0,0,0,0,-1,1252,1310,0,0
35,-286,0,0,0,0,0,0,0,0,0,-1,1259,1310,0,0
42,-286,0,0,0,0,0,0,0,0,0,-1,1266,1310,0,0
49,-286,0,0,0,0,0,0,0,0,0,-1,1273,1310,0,0
56,-286,0,0,0,0,0,0,0,0,0,-1,1280,1310,0,0
63,-286,0,0,0,0,0,0,0,0,0,-1,1287,1310,0,0
70,-286,0,0,0,0,0,0,0,0,0,-1,1294,1310,0,0
77,-286,0,0,0,0,0,0,0,0,0,-1,1301,1310,0,0
84,-286,0,0,0,0,0,0,0,0,0,-1,1308,1310,0,0
91,-286,0,0,0,0,0,0,0,0,0,-1,1315,1310,0,0
98,-286,0,0,0,0,0,0,0,0,0,-1,1322,1310,0,0
105,-286,0,0,0,0,0,0,0,0,0,-1,1329,1310,0,0
112,-286,0,0,0,0,0,0,0,0,0,-1,1336,1310,0,0
119,-286,0,0,0,0,0,0,0,0,0,-1,1343,1310,0,0
126,-286,0,0,0,0,0,0,0,0,0,-1,1350,1310,0,0
133,-286,0,0,0,0,0,0,0,0,0,-1,1357,1310,0,0
140,-286,0,0,0,0,0,0,0,0,0,-1,1364,1310,0,0
147,-286,0,0,0,0,0,0,0,0,0,-1,1371,1310,0,0
154,-286,0,0,0,0,0,0,0,0,0,-1,1378,1310,0,0
161,-286,0,0,0,0,0,0,0,0,0,-1,1385,1310,0,0
168,-286,0,0,0,0,0,0,0,0,0,-1,1392,1310,0,0
175,-286,0,0,0,0,0,0,0,0,0,-1,1399,1310,0,0
182,-286,0,0,0,0,0,0,0,0,0,-1,1406,1310,0,0
189,-286,0,0,0,0,0,0,0,0,0,-1,1413,1310,0,0
196,-286,0,0,0,0,0,0,0,0,0,-1,1420,1310,0,0
203,-286,0,0,0,0,0,0,0,0,0,-1,1427,1310,0,0
210,-286,0,0,0,0,0,0,0,0,0,-1,1434,1310,0,0
217,-286,0,0,0,0,0,0,0,0,0,-1,1441,1310,0,0
224,-286,0,0,0,0,0,0,0,0,0,-1,1448,1310,0,0
231,-286,0,0,0,0,0,0,0,0,0,-1,1455,1310,0,0
238,-286,0,0,0,0,0,0,0,0,0,-1,1462,1310,0,0
245,-286,0,0,0,0,0,0,0,0,0,-1,1469,1310,0,0
252,-286,0,0,0,0,0,0,0,0,0,-1,1476,1310,0,0
259,-286,0,0,0,0,0,0,0,0,0,-1,1483,1310,0,0
266,-286,0,0,0,0,0,0,0,0,0,-1,1490,1310,0,0
273,-286,0,0,0,0,0,0,0,0,0,-1,1497,1310,0,0
280,-286,0,0,0,0,0,0,0,0,0,-1,1504,1310,0,0
287,-286,0,0,0,0,0,0,0,0,0,-1,1511,1310,0,0
294,-286,0,0,0,0,0,0,0,0,0,-1,1518,1310,0,0
301,-286,0,0,0,0,0,0,0,0,0,-1,1525,1310,0,0
308,-286,0,0,0,0,0,0,0,0,0,-1,1532,1310,0,0
315,-286,0,0,0,0,0,0,0,0,0,-1,1539,1310,0,0
322,-286,0,0,0,0,0,0,0,0,0,-1,1546,1310,0,0
329,-286,0,0,0,0,0,0,0,0,0,-1,1553,1310,0,0
336,-286,0,0,0,0,0,0,0,0,0,-1,1560,1310,0,0
343,-286,0,0,0,0,0,0,0,0,0,-1,1567,1310,0,0
350,-286,0,0,0,0,0,0,0,0,0,-1,1574,1310,0,0
357,-286,0,0,0,0,0,0,0,0,0,-1,1581,1310,0,0
364,-286,0,0,0,0,0,0,0,0,0,-1,1588,1310,0,0
371,-286,0,0,0,0,0,0,0,0,0,-1,1595,1310,0,0
378,-286,0,0,0,0,0,0,0,0,0,-1,1602,1310,0,0
385,-286,0,0,0,0,0,0,0,0,0,-1,1609,1310,0,0
392,-286,0,0,0,0,0,0,0,0,0,-1,1616,1310,0,0
399,-286,0,0,0,0,0,0,0,0,0,-1,1623,1310,0,0
406,-286,0,0,0,0,0,0,0,0,0,-1,1630,1310,0,0
413,-286,0,0,0,0,0,0,0,0,0,-1,1637,1310,0,0
420,-286,0,0,0,0,0,0,0,0,0,-1,1644,1310,0,0
427,-286,0,0,0,0,0,0,0,0,0,-1,1651,1310,0,0
434,-286,0,0,0,0,0,0,0,0,0,-1,1658,1310,0,0
441,-286,0,0,0,0,0,0,0,0,0,-1,1665,1310,0,0
448,-286,0,0,0,0,0,0,0,0,0,-1,1672,1310,0,0
455,-286,0,0,0,0,0,0,0,0,0,-1,1679,1310,0,0
462,-286,0,0,0,0,0,0,0,0,0,-1,1686,1310,0,0
469,-286,0,0,0,0,0,0,0,0,0,-1,1693,1310,0,0
476,-286,0,0,0,0,0,0,0,0,0,-1,1700,1310,0,0
483,-286,0,0,0,0,0,0,0,0,0,-1,1707,1310,0,0
490,-286,0,0,0,0,0,0,0,0,0,-1,1714,1310,0,0
497,-286,0,0,0,0,0,0,0,0,0,-1,1721,1310,0,0
504,-286,0,0,0,0,0,0,0,0,0,-1,1728,1310,0,0
511,-286,0,0,0,0,0,0,0,0,0,-1,1735,1310,0,0
518,-286,0,0,0,0,0,0,0,0,0,-1,1742,1310,0,0
525,-286,0,0,0,0,0,0,0,0,0,-1,1749,1310,0,0
532,-286,0,0,0,0,0,0,0,0,0,-1,1756,1310,0,0
539,-286,0,0,0,0,0,0,0,0,0,-1,1763,1310,0,0
546,-286,0,0,0,0,0,0,0,0,0,-1,1770,1310,0,0
553,-286,0,0,0,0,0,0,0,0,0,-1,1777,1310,0,0
560,-286,0,0,0,0,0,0,0,0,0,-1,1784,1310,0,0
567,-286,0,0,0,0,0,0,0,0,0,-1,1791,1310,0,0
574,-286,0,0,0,0,0,0,0,0,0,-1,1798,1310,0,0
581,-286,0,0,0,0,0,0,0,0,0,-1,1805,1310,0,0
588,-286,0,0,0,0,0,0,0,0,0,-1,1812,1310,0,0
595,-286,22.584,2.74524,0.0580268,0.013262,0.0168009,0.0636308,0.00765791,0.321952,0.0401123,0.0402762,1819,1310,22.584,-2.74523
602,-286,22.6146,2.62451,0.0553053,0.00927365,0.0206549,0.0632145,0.0013645,0.365695,0.0416956,0.0463422,1826,1310,22.6147,-2.62449
609,-286,23.1913,2.76099,0.0469111,0.00530999,0.0220907,0.056453,-0.00423191,0.407735,0.0391223,0.0447827,1833,1310,23.1913,-2.76101
616,-286,23.4705,2.92419,0.0340446,0.00185573,0.0211189,0.0445027,-0.00860236,0.459802,0.0329128,0.0444724,1840,1310,23.4704,-2.92423
623,-286,24.4174,2.53577,0.0216017,-0.000606761,0.0187468,0.0322861,-0.0112912,0.518019,0.0261146,0.0454698,1847,1310,24.4174,-2.53579
630,-286,24.0905,2.46387,0,0,0,0,0,0,0,-1,1854,1310,24.0905,-2.46389
637,-286,22.3523,2.61487,0,0,0,0,0,0,0,-1,1861,1310,22.3522,-2.61489
644,-286,19.1511,2.45972,0,0,0,0,0,0,0,-1,1868,1310,19.1511,-2.45974
651,-286,17.9919,4.95837,0,0,0,0,0,0,0,-1,1875,1310,17.992,-4.95838
658,-286,18.3373,5.38257,0,0,0,0,0,0,0,-1,1882,1310,18.3373,-5.38259
665,-286,17.9366,6.28442,0,0,0,0,0,0,0,-1,1889,1310,17.9366,-6.28448
672,-286,17.6858,6.15979,-0.0151472,-0.00415891,0.00532782,-0.00199987,-0.0173063,1.18578,0.010932,0.0336546,1896,1310,17.6857,-6.15981
679,-286,17.4747,5.95227,-0.0149478,-0.00302858,0.00446289,-0.00154277,-0.0164336,1.24941,0.0104794,0.0237094,1903,1310,17.4747,-5.95231
686,-286,17.5032,5.73401,-0.0104304,-0.00283366,0.00438422,-0.000831257,-0.0124328,1.14236,0.00802581,0.0207323,1910,1310,17.5031,-5.73405
693,-286,17.4896,5.54053,-0.00641286,-0.00215715,0.00346751,-0.000216667,-0.00835334,1.0606,0.0054981,0.0159717,1917,1310,17.4896,-5.54052
700,-286,17.4901,5.33838,-0.00409718,-0.00128199,0.00234452,4.50243e-05,-0.0054242,1.05575,0.00363123,0.0107605,1924,1310,17.4901,-5.33835
707,-286,17.4883,5.1416,-0.00244298,-0.000341183,0.00133543,0.000307262,-0.00309142,1.11876,0.00217063,0.00828014,1931,1310,17.4883,-5.14155
714,-286,17.4827,4.93542,-0.00133368,0.000884037,0.000150306,0.000894178,-0.00134383,1.50343,0.00130078,0.00850117,1938,1310,17.4827,-4.93542
721,-286,17.4995,4.71851,-0.00059886,0.00187971,-0.000748982,0.00208846,-0.000807608,-1.29898,0.0017257,0.0109167,1945,1310,17.4995,-4.71845
728,-286,17.4897,4.51099,0.000178194,0.00331803,-0.0017858,0.00412587,-0.000629648,-1.14597,0.0029827,0.0131868,1952,1310,17.4897,-4.51104
735,-286,17.485,4.35474,0.001007,0.00516958,-0.00308013,0.00680568,-0.000629097,-1.08252,0.00476069,0.0149251,1959,1310,17.4849,-4.3547
742,-286,17.4335,4.14209,0.00242144,0.0077542,-0.00503347,0.0107839,-0.000608263,-1.02897,0.00740036,0.0285473,1966,1310,17.4334,-4.14207
749,-286,17.6541,3.79248,0,0,0,0,0,0,0,-1,1973,1310,17.6541,-3.79243
756,-286,17.5848,5.35034,0,0,0,0,0,0,0,-1,1980,1310,17.5849,-5.35038
763,-286,17.6996,4.26135,0,0,0,0,0,0,0,-1,1987,1310,17.6996,-4.26141
770,-286,18.5909,2.68787,0,0,0,0,0,0,0,-1,1994,1310,18.5909,-2.68783
777,-286,0,0,0,0,0,0,0,0,0,-1,2001,1310,0,0
784,-286,0,0,0,0,0,0,0,0,0,-1,2008,1310,0,0
791,-286,0,0,0,0,0,0,0,0,0,-1,2015,1310,0,0
798,-286,0,0,0,0,0,0,0,0,0,-1,2022,1310,0,0
805,-286,0,0,0,0,0,0,0,0,0,-1,2029,1310,0,0
812,-286,0,0,0,0,0,0,0,0,0,-1,2036,1310,0,0
-700,-293,0,0,0,0,0,0,0,0,0,-1,524,1317,0,0
-693,-293,0,0,0,0,0,0,0,0,0,-1,531,1317,0,0
-686,-293,0,0,0,0,0,0,0,0,0,-1,538,1317,0,0
-679,-293,0,0,0,0,0,0,0,0,0,-1,545,1317,0,0
-672,-293,0,0,0,0,0,0,0,0,0,-1,552,1317,0,0
-665,-293,0,0,0,0,0,0,0,0,0,-1,559,1317,0,0
-658,-293,0,0,0,0,0,0,0,0,0,-1,566,1317,0,0
-651,-293,-9.16693,4.50488,0,0,0,0,0,0,0,-1,573,1317,-9.16693,-4.50484
-644,-293,-9.34692,3.66223,0,0,0,0,0,0,0,-1,580,1317,-9.34691,-3.6622
-637,-293,-9.93658,2.55115,0,0,0,0,0,0,0,-1,587,1317,-9.93661,-2.55111
-630,-293,-10.3821,1.84802,0,0,0,0,0,0,0,-1,594,1317,-10.3821,-1.84801
-623,-293,-11.754,-0.561523,0,0,0,0,0,0,0,-1,601,1317,-11.754,0.561563
-616,-293,-11.6982,-1.74597,0,0,0,0,0,0,0,-1,608,1317,-11.6982,1.746
-609,-293,-11.1991,-2.5459,0,0,0,0,0,0,0,-1,615,1317,-11.1991,2.54591
-602,-293,-8.78705,1.93079,2.91484e-05,-0.00261383,-0.0201986,0.0189494,-0.0215341,-0.752732,0.023389,0.0275475,622,1317,-8.78704,-1.93073
-595,-293,-8.89441,2.29993,0.000462656,-0.000179349,-0.0143114,0.0144566,-0.0141733,-0.774185,0.0165298,0.0147615,629,1317,-8.89443,-2.29995
-588,-293,-8.88196,2.53308,0.00106408,0.00205355,-0.0099162,0.0114873,-0.00836972,-0.810323,0.0115115,0.0160321,636,1317,-8.88194,-2.53302
-581,-293,-8.87933,2.75684,0.001441,0.00239622,-0.00597646,0.00791412,-0.0040769,-0.825271,0.00704019,0.0175827,643,1317,-8.87933,-2.75686
-574,-293,-8.89764,3.00159,0.00103803,0.00165752,-0.00231372,0.00368213,-0.000986584,-0.85194,0.0028413,0.0157766,650,1317,-8.89765,-3.00163
-567,-293,-8.89941,3.25269,0.000688095,0.00017065,-0.000599137,0.00108198,-0.000223239,-0.581579,0.000806106,0.0155368,657,1317,-8.89939,-3.25267
-560,-293,-8.89453,3.50037,-0.000472632,-0.000478934,-0.000866205,0.000390428,-0.00134199,-0.783579,0.0010493,0.0165938,664,1317,-8.89456,-3.50037
-553,-293,-8.8902,3.73083,-0.00203057,0.000100527,-0.00194831,0.00125564,-0.00318568,-1.03563,0.00264367,0.0116782,671,1317,-8.8902,-3.73081
-546,-293,-8.87732,3.98389,-0.00467292,0.00183955,-0.00333665,0.00324553,-0.00607891,-1.172,0.00546569,0.00988336,678,1317,-8.87732,-3.98384
-539,-293,-8.85406,4.21655,-0.00881653,0.00572487,-0.00492167,0.00723403,-0.0103257,-1.27326,0.0101904,0.0247719,685,1317,-8.85407,-4.21655
-532,-293,-8.61023,3.94983,-0.0130655,0.0108978,-0.00618236,0.0123988,-0.0145665,-1.33262,0.0155852,0.0494329,692,1317,-8.61023,-3.9498
-525,-293,-8.20642,3.62256,0,0,0,0,0,0,0,-1,699,1317,-8.20639,-3.6226
-518,-293,-11.0289,0.568848,0,0,0,0,0,0,0,-1,706,1317,-11.029,-0.568801
-511,-293,-11.7587,0.973267,-0.0173774,0.023188,-0.0111504,0.0260509,-0.0202403,-1.31947,0.0267963,0.0456847,713,1317,-11.7587,-0.973237
-504,-293,-12.4348,1.43787,0,0,0,0,0,0,0,-1,720,1317,-12.4348,-1.43789
-497,-293,-11.7023,-1.34302,0,0,0,0,0,0,0,-1,727,1317,-11.7023,1.34304
-490,-293,-12.0561,-0.946167,-0.0123696,0.0388498,-0.0170739,0.0440196,-0.0175394,-1.27678,0.0366208,0.0453759,734,1317,-12.0561,0.946207
-483,-293,-12.47,-0.5,-0.00600793,0.044215,-0.0192157,0.0507236,-0.0125166,-1.24421,0.0386692,0.0435554,741,1317,-12.47,0.49994
-476,-293,-12.7518,-0.0679932,0,0,0,0,0,0,0,-1,748,1317,-12.7518,0.0679356
-469,-293,0,0,0,0,0,0,0,0,0,-1,755,1317,0,0
-462,-293,0,0,0,0,0,0,0,0,0,-1,762,1317,0,0
-455,-293,0,0,0,0,0,0,0,0,0,-1,769,1317,0,0
-448,-293,0,0,0,0,0,0,0,0,0,-1,776,1317,0,0
-441,-293,0,0,0,0,0,0,0,0,0,-1,783,1317,0,0
-434,-293,0,0,0,0,0,0,0,0,0,-1,790,1317,0,0
-427,-293,0,0,0,0,0,0,0,0,0,-1,797,1317,0,0
-420,-293,0,0,0,0,0,0,0,0,0,-1,804,1317,0,0
-413,-293,0,0,0,0,0,0,0,0,0,-1,811,1317,0,0
-406,-293,0,0,0,0,0,0,0,0,0,-1,818,1317,0,0
-399,-293,0,0,0,0,0,0,0,0,0,-1,825,1317,0,0
-392,-293,0,0,0,0,0,0,0,0,0,-1,832,1317,0,0
-385,-293,0,0,0,0,0,0,0,0,0,-1,839,1317,0,0
-378,-293,0,0,0,0,0,0,0,0,0,-1,846,1317,0,0
-371,-293,0,0,0,0,0,0,0,0,0,-1,853,1317,0,0
-364,-293,0,0,0,0,0,0,0,0,0,-1,860,1317,0,0
-357,-293,0,0,0,0,0,0,0,0,0,-1,867,1317,0,0
-350,-293,0,0,0,0,0,0,0,0,0,-1,874,1317,0,0
-343,-293,0,0,0,0,0,0,0,0,0,-1,881,1317,0,0
-336,-293,0,0,0,0,0,0,0,0,0,-1,888,1317,0,0
-329,-293,0,0,0,0,0,0,0,0,0,-1,895,1317,0,0
-322,-293,0,0,0,0,0,0,0,0,0,-1,902,1317,0,0
-315,-293,0,0,0,0,0,0,0,0,0,-1,909,1317,0,0
-308,-293,0,0,0,0,0,0,0,0,0,-1,916,1317,0,0
-301,-293,0,0,0,0,0,0,0,0,0,-1,923,1317,0,0
-294,-293,0,0,0,0,0,0,0,0,0,-1,930,1317,0,0
-287,-293,0,0,0,0,0,0,0,0,0,-1,937,1317,0,0
-280,-293,0,0,0,0,0,0,0,0,0,-1,944,1317,0,0
-273,-293,0,0,0,0,0,0,0,0,0,-1,951,1317,0,0
-266,-293,0,0,0,0,0,0,0,0,0,-1,958,1317,0,0
-259,-293,0,0,0,0,0,0,0,0,0,-1,965,1317,0,0
-252,-293,0,0,0,0,0,0,0,0,0,-1,972,1317,0,0
-245,-293,0,0,0,0,0,0,0,0,0,-1,979,1317,0,0
-238,-293,0,0,0,0,0,0,0,0,0,-1,986,1317,0,0
-231,-293,0,0,0,0,0,0,0,0,0,-1,993,1317,0,0
-224,-293,0,0,0,0,0,0,0,0,0,-1,1000,1317,0,0
-217,-293,0,0,0,0,0,0,0,0,0,-1,1007,1317,0,0
-210,-293,0,0,0,0,0,0,0,0,0,-1,1014,1317,0,0
-203,-293,0,0,0,0,0,0,0,0,0,-1,1021,1317,0,0
-196,-293,0,0,0,0,0,0,0,0,0,-1,1028,1317,0,0
-189,-293,0,0,0,0,0,0,0,0,0,-1,1035,1317,0,0
-182,-293,0,0,0,0,0,0,0,0,0,-1,1042,1317,0,0
-175,-293,0,0,0,0,0,0,0,0,0,-1,1049,1317,0,0
-168,-293,0,0,0,0,0,0,0,0,0,-1,1056,1317,0,0
-161,-293,0,0,0,0,0,0,0,0,0,-1,1063,1317,0,0
-154,-293,0,0,0,0,0,0,0,0,0,-1,1070,1317,0,0
-147,-293,0,0,0,0,0,0,0,0,0,-1,1077,1317,0,0
-140,-293,0,0,0,0,0,0,0,0,0,-1,1084,1317,0,0
-133,-293,0,0,0,0,0,0,0,0,0,-1,1091,1317,0,0
-126,-293,0,0,0,0,0,0,0,0,0,-1,1098,1317,0,0
-119,-293,0,0,0,0,0,0,0,0,0,-1,1105,1317,0,0
-112,-293,0,0,0,0,0,0,0,0,0,-1,1112,1317,0,0
-105,-293,0,0,0,0,0,0,0,0,0,-1,1119,1317,0,0
-98,-293,0,0,0,0,0,0,0,0,0,-1,1126,1317,0,0
-91,-293,0,0,0,0,0,0,0,0,0,-1,1133,1317,0,0
-84,-293,0,0,0,0,0,0,0,0,0,-1,1140,1317,0,0
-77,-293,0,0,0,0,0,0,0,0,0,-1,1147,1317,0,0
-70,-293,0,0,0,0,0,0,0,0,0,-1,1154,1317,0,0
-63,-293,0,0,0,0,0,0,0,0,0,-1,1161,1317,0,0
-56,-293,0,0,0,0,0,0,0,0,0,-1,1168,1317,0,0
-49,-293,0,0,0,0,0,0,0,0,0,-1,1175,1317,0,0
-42,-293,0,0,0,0,0,0,0,0,0,-1,1182,1317,0,0
-35,-293,0,0,0,0,0,0,0,0,0,-1,1189,1317,0,0
-28,-293,0,0,0,0,0,0,0,0,0,-1,1196,1317,0,0
-21,-293,0,0,0,0,0,0,0,0,0,-1,1203,1317,0,0
-14,-293,0,0,0,0,0,0,0,0,0,-1,1210,1317,0,0
-7,-293,0,0,0,0,0,0,0,0,0,-1,1217,1317,0,0
0,-293,0,0,0,0,0,0,0,0,0,-1,1224,1317,0,0
7,-293,0,0,0,0,0,0,0,0,0,-1,1231,1317,0,0
14,-293,0,0,0,0,0,0,0,0,0,-1,1238,1317,0,0
21,-293,0,0,0,0,0,0,0,0,0,-1,1245,1317,0,0
28,-293,0,0,0,0,0,0,0,0,0,-1,1252,1317,0,0
35,-293,0,0,0,0,0,0,0,0,0,-1,1259,1317,0,0
42,-293,0,0,0,0,0,0,0,0,0,-1,1266,1317,0,0
49,-293,0,0,0,0,0,0,0,0,0,-1,1273,1317,0,0
56,-293,0,0,0,0,0,0,0,0,0,-1,1280,1317,0,0
63,-293,0,0,0,0,0,0,0,0,0,-1,1287,1317,0,0
70,-293,0,0,0,0,0,0,0,0,0,-1,1294,1317,0,0
77,-293,0,0,0,0,0,0,0,0,0,-1,1301,1317,0,0
84,-293,0,0,0,0,0,0,0,0,0,-1,1308,1317,0,0
91,-293,0,0,0,0,0,0,0,0,0,-1,1315,1317,0,0
98,-293,0,0,0,0,0,0,0,0,0,-1,1322,1317,0,0
105,-293,0,0,0,0,0,0,0,0,0,-1,1329,1317,0,0
112,-293,0,0,0,0,0,0,0,0,0,-1,1336,1317,0,0
119,-293,0,0,0,0,0,0,0,0,0,-1,1343,1317,0,0
126,-293,0,0,0,0,0,0,0,0,0,-1,1350,1317,0,0
133,-293,0,0,0,0,0,0,0,0,0,-1,1357,1317,0,0
140,-293,0,0,0,0,0,0,0,0,0,-1,1364,1317,0,0
147,-293,0,0,0,0,0,0,0,0,0,-1,1371,1317,0,0
154,-293,0,0,0,0,0,0,0,0,0,-1,1378,1317,0,0
161,-293,0,0,0,0,0,0,0,0,0,-1,1385,1317,0,0
168,-293,0,0,0,0,0,0,0,0,0,-1,1392,1317,0,0
175,-293,0,0,0,0,0,0,0,0,0,-1,1399,1317,0,0
182,-293,0,0,0,0,0,0,0,0,0,-1,1406,1317,0,0
189,-293,0,0,0,0,0,0,0,0,0,-1,1413,1317,0,0
196,-293,0,0,0,0,0,0,0,0,0,-1,1420,1317,0,0
203,-293,0,0,0,0,0,0,0,0,0,-1,1427,1317,0,0
210,-293,0,0,0,0,0,0,0,0,0,-1,1434,1317,0,0
217,-293,0,0,0,0,0,0,0,0,0,-1,1441,1317,0,0
224,-293,0,0,0,0,0,0,0,0,0,-1,1448,1317,0,0
231,-293,0,0,0,0,0,0,0,0,0,-1,1455,1317,0,0
238,-293,0,0,0,0,0,0,0,0,0,-1,1462,1317,0,0
245,-293,0,0,0,0,0,0,0,0,0,-1,1469,1317,0,0
252,-293,0,0,0,0,0,0,0,0,0,-1,1476,1317,0,0
259,-293,0,0,0,0,0,0,0,0,0,-1,1483,1317,0,0
266,-293,0,0,0,0,0,0,0,0,0,-1,1490,1317,0,0
273,-293,0,0,0,0,0,0,0,0,0,-1,1497,1317,0,0
280,-293,0,0,0,0,0,0,0,0,0,-1,1504,1317,0,0
287,-293,0,0,0,0,0,0,0,0,0,-1,1511,1317,0,0
294,-293,0,0,0,0,0,0,0,0,0,-1,1518,1317,0,0
301,-293,0,0,0,0,0,0,0,0,0,-1,1525,1317,0,0
308,-293,0,0,0,0,0,0,0,0,0,-1,1532,1317,0,0
315,-293,0,0,0,0,0,0,0,0,0,-1,1539,1317,0,0
322,-293,0,0,0,0,0,0,0,0,0,-1,1546,1317,0,0
329,-293,0,0,0,0,0,0,0,0,0,-1,1553,1317,0,0
336,-293,0,0,0,0,0,0,0,0,0,-1,1560,1317,0,0
343,-293,0,0,0,0,0,0,0,0,0,-1,1567,1317,0,0
350,-293,0,0,0,0,0,0,0,0,0,-1,1574,1317,0,0
357,-293,0,0,0,0,0,0,0,0,0,-1,1581,1317,0,0
364,-293,0,0,0,0,0,0,0,0,0,-1,1588,1317,0,0
371,-293,0,0,0,0,0,0,0,0,0,-1,1595,1317,0,0
378,-293,0,0,0,0,0,0,0,0,0,-1,1602,1317,0,0
385,-293,0,0,0,0,0,0,0,0,0,-1,1609,1317,0,0
392,-293,0,0,0,0,0,0,0,0,0,-1,1616,1317,0,0
399,-293,0,0,0,0,0,0,0,0,0,-1,1623,1317,0,0
406,-293,0,0,0,0,0,0,0,0,0,-1,1630,1317,0,0
413,-293,0,0,0,0,0,0,0,0,0,-1,1637,1317,0,0
420,-293,0,0,0,0,0,0,0,0,0,-1,1644,1317,0,0
427,-293,0,0,0,0,0,0,0,0,0,-1,1651,1317,0,0
434,-293,0,0,0,0,0,0,0,0,0,-1,1658,1317,0,0
441,-293,0,0,0,0,0,0,0,0,0,-1,1665,1317,0,0
448,-293,0,0,0,0,0,0,0,0,0,-1,1672,1317,0,0
455,-293,0,0,0,0,0,0,0,0,0,-1,1679,1317,0,0
462,-293,0,0,0,0,0,0,0,0,0,-1,1686,1317,0,0
469,-293,0,0,0,0,0,0,0,0,0,-1,1693,1317,0,0
476,-293,0,0,0,0,0,0,0,0,0,-1,1700,1317,0,0
483,-293,0,0,0,0,0,0,0,0,0,-1,1707,1317,0,0
490,-293,0,0,0,0,0,0,0,0,0,-1,1714,1317,0,0
497,-293,0,0,0,0,0,0,0,0,0,-1,1721,1317,0,0
504,-293,0,0,0,0,0,0,0,0,0,-1,1728,1317,0,0
511,-293,0,0,0,0,0,0,0,0,0,-1,1735,1317,0,0
518,-293,0,0,0,0,0,0,0,0,0,-1,1742,1317,0,0
525,-293,0,0,0,0,0,0,0,0,0,-1,1749,1317,0,0
532,-293,0,0,0,0,0,0,0,0,0,-1,1756,1317,0,0
539,-293,0,0,0,0,0,0,0,0,0,-1,1763,1317,0,0
546,-293,0,0,0,0,0,0,0,0,0,-1,1770,1317,0,0
553,-293,0,0,0,0,0,0,0,0,0,-1,1777,1317,0,0
560,-293,0,0,0,0,0,0,0,0,0,-1,1784,1317,0,0
567,-293,0,0,0,0,0,0,0,0,0,-1,1791,1317,0,0
574,-293,0,0,0,0,0,0,0,0,0,-1,1798,1317,0,0
581,-293,0,0,0,0,0,0,0,0,0,-1,1805,1317,0,0
588,-293,0,0,0,0,0,0,0,0,0,-1,1812,1317,0,0
595,-293,22.6838,2.69397,0.073674,0.0146045,0.0265853,0.0838769,0.00440164,0.366445,0.05451,0.0488835,1819,1317,22.6839,-2.69399
602,-293,22.6919,2.54089,0.0697924,0.00991292,0.0305186,0.0826051,-0.00289983,0.397487,0.0560617,0.0464394,1826,1317,22.6919,-2.54095
609,-293,22.9583,2.75732,0.0587876,0.00538067,0.0304296,0.0725691,-0.00840085,0.425262,0.051409,0.0460037,1833,1317,22.9582,-2.7573
616,-293,23.4117,2.80994,0.0444799,0.00179326,0.0278069,0.0581902,-0.0119171,0.458077,0.0433158,0.0467132,1840,1317,23.4118,-2.80994
623,-293,23.6633,2.79297,0.0311259,-0.000764376,0.0241178,0.044093,-0.0137314,0.493316,0.0348852,0.0480211,1847,1317,23.6633,-2.79295
630,-293,23.6899,2.57458,0,0,0,0,0,0,0,-1,1854,1317,23.69,-2.57454
637,-293,19.2906,2.48145,0,0,0,0,0,0,0,-1,1861,1317,19.2907,-2.48142
644,-293,19.1091,2.49146,0,0,0,0,0,0,0,-1,1868,1317,19.1091,-2.49144
651,-293,18.0802,5.25159,0,0,0,0,0,0,0,-1,1875,1317,18.0802,-5.25162
658,-293,17.7981,5.74329,-0.00929381,-0.00582397,0.00918698,0.00179047,-0.0169083,0.878722,0.0119139,0.0413559,1882,1317,17.798,-5.74327
665,-293,17.5892,6.18872,-0.0116093,-0.00573718,0.00764654,-0.000482402,-0.0168641,0.968706,0.0110854,0.0371548,1889,1317,17.5892,-6.18876
672,-293,17.3268,6.16431,-0.0134042,-0.00504082,0.00634241,-0.00162563,-0.0168194,1.07685,0.0107123,0.0176164,1896,1317,17.3268,-6.1643
679,-293,17.2913,5.92908,-0.0131529,-0.00356099,0.00515454,-0.00131631,-0.0153976,1.16009,0.00985562,0.0124848,1903,1317,17.2913,-5.92908
686,-293,17.3044,5.72375,-0.0088651,-0.00304031,0.00468778,-0.000433892,-0.0114715,1.06336,0.00750723,0.0146333,1910,1317,17.3044,-5.72381
693,-293,17.3,5.53418,-0.00540133,-0.00218345,0.00356713,0.000120804,-0.00770559,0.99726,0.0051778,0.0112769,1917,1317,17.3001,-5.53417
700,-293,17.2836,5.32886,-0.00350578,-0.00112112,0.00236557,0.000335622,-0.00496252,1.01883,0.00342571,0.00957561,1924,1317,17.2835,-5.32882
707,-293,17.2882,5.14722,-0.00221009,-0.000189972,0.00138965,0.000517915,-0.00291798,1.09966,0.00213896,0.0104326,1931,1317,17.2882,-5.1472
714,-293,17.2874,4.95618,-0.00137671,0.000960962,0.000325865,0.00100554,-0.00142129,1.43485,0.00140796,0.00765313,1938,1317,17.2873,-4.95621
721,-293,17.3123,4.73425,-0.000920399,0.00188511,-0.000416231,0.00194556,-0.000980849,-1.42657,0.00171989,0.00909112,1945,1317,17.3123,-4.73424
728,-293,17.3092,4.50366,-0.000523038,0.00317219,-0.00125511,0.00355818,-0.000909025,-1.27244,0.00272613,0.0113734,1952,1317,17.3092,-4.50364
735,-293,17.2933,4.29846,-7.33565e-05,0.00479623,-0.00239081,0.0057738,-0.00105092,-1.18265,0.00424311,0.0159949,1959,1317,17.2933,-4.29841
742,-293,17.1554,4.1825,0.000942346,0.00705099,-0.00415261,0.00915157,-0.00115824,-1.10248,0.0065215,0.0297086,1966,1317,17.1554,-4.18254
749,-293,17.3628,3.67249,0.00276361,0.0101007,-0.00677559,0.0141371,-0.00127283,-1.03352,0.00987642,0.0413,1973,1317,17.3627,-3.67245
756,-293,17.5886,3.06616,0,0,0,0,0,0,0,-1,1980,1317,17.5887,-3.06615
763,-293,16.7382,2.78931,0,0,0,0,0,0,0,-1,1987,1317,16.7381,-2.78933
770,-293,18.6544,1.7428,0,0,0,0,0,0,0,-1,1994,1317,18.6544,-1.74274
777,-293,0,0,0,0,0,0,0,0,0,-1,2001,1317,0,0
784,-293,0,0,0,0,0,0,0,0,0,-1,2008,1317,0,0
791,-293,0,0,0,0,0,0,0,0,0,-1,2015,1317,0,0
798,-293,0,0,0,0,0,0,0,0,0,-1,2022,1317,0,0
805,-293,0,0,0,0,0,0,0,0,0,-1,2029,1317,0,0
812,-293,0,0,0,0,0,0,0,0,0,-1,2036,1317,0,0
-700,-300,0,0,0,0,0,0,0,0,0,-1,524,1324,0,0
-693,-300,0,0,0,0,0,0,0,0,0,-1,531,1324,0,0
-686,-300,0,0,0,0,0,0,0,0,0,-1,538,1324,0,0
-679,-300,0,0,0,0,0,0,0,0,0,-1,545,1324,0,0
-672,-300,0,0,0,0,0,0,0,0,0,-1,552,1324,0,0
-665,-300,0,0,0,0,0,0,0,0,0,-1,559,1324,0,0
-658,-300,0,0,0,0,0,0,0,0,0,-1,566,1324,0,0
-651,-300,-9.05914,2.46863,0,0,0,0,0,0,0,-1,573,1324,-9.05915,-2.46868
-644,-300,-9.50507,2.31006,-0.0102122,-0.0561145,-0.0752021,0.0454631,-0.11179,-0.637291,0.0934432,0.0442709,580,1324,-9.50506,-2.31008
-637,-300,-10.1331,2.34631,-0.00439333,-0.0403491,-0.0680134,0.0479781,-0.0927205,-0.656189,0.0825901,0.0444091,587,1324,-10.133,-2.34631
-630,-300,-10.4051,2.11719,-0.00103348,-0.0282695,-0.0595185,0.0464051,-0.075708,-0.672933,0.0711755,0.048183,594,1324,-10.4051,-2.11725
-623,-300,-10.3749,1.50366,0.000696442,-0.0191311,-0.0504776,0.0422246,-0.0606592,-0.688433,0.059717,0.0460496,601,1324,-10.3749,-1.50369
-616,-300,-10.363,0.89978,0.00138329,-0.0123218,-0.0414145,0.0365084,-0.0474469,-0.70341,0.0486085,0.0448515,608,1324,-10.363,-0.899735
-609,-300,-10.5311,0.203125,0,0,0,0,0,0,0,-1,615,1324,-10.5311,-0.203167
-602,-300,-8.41852,1.85974,0.0017803,-0.003459,-0.0247458,0.0240447,-0.0257234,-0.732663,0.0287391,0.0340168,622,1324,-8.41854,-1.85972
-595,-300,-8.66254,2.28528,0.00147281,-0.000872498,-0.0177927,0.0181315,-0.0175312,-0.752492,0.0205908,0.0191769,629,1324,-8.66251,-2.28528
-588,-300,-8.6554,2.54822,0.00152683,0.00161544,-0.012528,0.0140992,-0.0109569,-0.787166,0.014504,0.0208136,636,1324,-8.65539,-2.54821
-581,-300,-8.65356,2.78564,0.00147442,0.00218503,-0.00783666,0.00967444,-0.00601499,-0.808052,0.00914005,0.020561,643,1324,-8.65354,-2.78566
-574,-300,-8.66901,3.03491,0.000623212,0.00162151,-0.00329101,0.00445101,-0.00220629,-0.86066,0.00391575,0.0158876,650,1324,-8.66903,-3.03496
-567,-300,-8.66528,3.26453,9.8203e-05,2.53662e-06,-0.000826718,0.000878471,-0.000777731,-0.756501,0.000956798,0.0158637,657,1324,-8.66527,-3.26455
-560,-300,-8.66168,3.51184,-0.000677146,-0.000976825,-0.000727873,-8.38493e-05,-0.00157012,-0.683887,0.00101995,0.0150339,664,1324,-8.66166,-3.51187
-553,-300,-8.65881,3.74854,-0.00168704,-0.000994591,-0.00164729,0.00034247,-0.0030241,-0.888979,0.00213938,0.0108202,671,1324,-8.65884,-3.74857
-546,-300,-8.63037,3.98352,-0.00371343,2.08449e-05,-0.00294112,0.00163744,-0.00533002,-1.06822,0.00420676,0.00893254,678,1324,-8.63037,-3.98357
-539,-300,-8.60309,4.2262,-0.00740878,0.00341982,-0.00448319,0.00503501,-0.00902397,-1.225,0.00822514,0.0147127,685,1324,-8.60312,-4.22623
-532,-300,-8.79181,4.33936,-0.0114375,0.00851398,-0.00565512,0.0100054,-0.0129289,-1.31294,0.013277,0.0366908,692,1324,-8.79181,-4.33934
-525,-300,-8.97614,4.34851,0,0,0,0,0,0,0,-1,699,1324,-8.97612,-4.34848
-518,-300,-10.6922,0.505493,0,0,0,0,0,0,0,-1,706,1324,-10.6922,-0.505526
-511,-300,-11.5529,1.35437,0,0,0,0,0,0,0,-1,713,1324,-11.5529,-1.35439
-504,-300,-10.6825,-2.42102,0,0,0,0,0,0,0,-1,720,1324,-10.6825,2.42099
-497,-300,-11.0134,-1.89014,0,0,0,0,0,0,0,-1,727,1324,-11.0134,1.89011
-490,-300,-11.4016,-1.427,-0.00262703,0.033925,-0.0180323,0.0413234,-0.0100254,-1.18145,0.0314284,0.0475234,734,1324,-11.4016,1.42706
-483,-300,-11.7903,-0.822754,0.0047033,0.0386965,-0.0207566,0.0485275,-0.00512773,-1.12846,0.0341893,0.0439241,741,1324,-11.7904,0.822694
-476,-300,-11.7993,-0.521484,0.015932,0.0431031,-0.0236453,0.0567878,0.00224727,-1.04615,0.0371321,0.0424252,748,1324,-11.7993,0.521506
-469,-300,0,0,0,0,0,0,0,0,0,-1,755,1324,0,0
-462,-300,0,0,0,0,0,0,0,0,0,-1,762,1324,0,0
-455,-300,0,0,0,0,0,0,0,0,0,-1,769,1324,0,0
-448,-300,0,0,0,0,0,0,0,0,0,-1,776,1324,0,0
-441,-300,0,0,0,0,0,0,0,0,0,-1,783,1324,0,0
-434,-300,0,0,0,0,0,0,0,0,0,-1,790,1324,0,0
-427,-300,0,0,0,0,0,0,0,0,0,-1,797,1324,0,0
-420,-300,0,0,0,0,0,0,0,0,0,-1,804,1324,0,0
-413,-300,0,0,0,0,0,0,0,0,0,-1,811,1324,0,0
-406,-300,0,0,0,0,0,0,0,0,0,-1,818,1324,0,0
-399,-300,0,0,0,0,0,0,0,0,0,-1,825,1324,0,0
-392,-300,0,0,0,0,0,0,0,0,0,-1,832,1324,0,0
-385,-300,0,0,0,0,0,0,0,0,0,-1,839,1324,0,0
-378,-300,0,0,0,0,0,0,0,0,0,-1,846,1324,0,0
-371,-300,0,0,0,0,0,0,0,0,0,-1,853,1324,0,0
-364,-300,0,0,0,0,0,0,0,0,0,-1,860,1324,0,0
-357,-300,0,0,0,0,0,0,0,0,0,-1,867,1324,0,0
-350,-300,0,0,0,0,0,0,0,0,0,-1,874,1324,0,0
-343,-300,0,0,0,0,0,0,0,0,0,-1,881,1324,0,0
-336,-300,0,0,0,0,0,0,0,0,0,-1,888,1324,0,0
-329,-300,0,0,0,0,0,0,0,0,0,-1,895,1324,0,0
-322,-300,0,0,0,0,0,0,0,0,0,-1,902,1324,0,0
-315,-300,0,0,0,0,0,0,0,0,0,-1,909,1324,0,0
-308,-300,0,0,0,0,0,0,0,0,0,-1,916,1324,0,0
-301,-300,0,0,0,0,0,0,0,0,0,-1,923,1324,0,0
-294,-300,0,0,0,0,0,0,0,0,0,-1,930,1324,0,0
-287,-300,0,0,0,0,0,0,0,0,0,-1,937,1324,0,0
-280,-300,0,0,0,0,0,0,0,0,0,-1,944,1324,0,0
-273,-300,0,0,0,0,0,0,0,0,0,-1,951,1324,0,0
-266,-300,0,0,0,0,0,0,0,0,0,-1,958,1324,0,0
-259,-300,0,0,0,0,0,0,0,0,0,-1,965,1324,0,0
-252,-300,0,0,0,0,0,0,0,0,0,-1,972,1324,0,0
-245,-300,0,0,0,0,0,0,0,0,0,-1,979,1324,0,0
-238,-300,0,0,0,0,0,0,0,0,0,-1,986,1324,0,0
-231,-300,0,0,0,0,0,0,0,0,0,-1,993,1324,0,0
-224,-300,0,0,0,0,0,0,0,0,0,-1,1000,1324,0,0
-217,-300,0,0,0,0,0,0,0,0,0,-1,1007,1324,0,0
-210,-300,0,0,0,0,0,0,0,0,0,-1,1014,1324,0,0
-203,-300,0,0,0,0,0,0,0,0,0,-1,1021,1324,0,0
-196,-300,0,0,0,0,0,0,0,0,0,-1,1028,1324,0,0
-189,-300,0,0,0,0,0,0,0,0,0,-1,1035,1324,0,0
-182,-300,0,0,0,0,0,0,0,0,0,-1,1042,1324,0,0
-175,-300,0,0,0,0,0,0,0,0,0,-1,1049,1324,0,0
-168,-300,0,0,0,0,0,0,0,0,0,-1,1056,1324,0,0
-161,-300,0,0,0,0,0,0,0,0,0,-1,1063,1324,0,0
-154,-300,0,0,0,0,0,0,0,0,0,-1,1070,1324,0,0
-147,-300,0,0,0,0,0,0,0,0,0,-1,1077,1324,0,0
-140,-300,0,0,0,0,0,0,0,0,0,-1,1084,1324,0,0
-133,-300,0,0,0,0,0,0,0,0,0,-1,1091,1324,0,0
-126,-300,0,0,0,0,0,0,0,0,0,-1,1098,1324,0,0
-119,-300,0,0,0,0,0,0,0,0,0,-1,1105,1324,0,0
-112,-300,0,0,0,0,0,0,0,0,0,-1,1112,1324,0,0
-105,-300,0,0,0,0,0,0,0,0,0,-1,1119,1324,0,0
-98,-300,0,0,0,0,0,0,0,0,0,-1,1126,1324,0,0
-91,-300,0,0,0,0,0,0,0,0,0,-1,1133,1324,0,0
-84,-300,0,0,0,0,0,0,0,0,0,-1,1140,1324,0,0
-77,-300,0,0,0,0,0,0,0,0,0,-1,1147,1324,0,0
-70,-300,0,0,0,0,0,0,0,0,0,-1,1154,1324,0,0
-63,-300,0,0,0,0,0,0,0,0,0,-1,1161,1324,0,0
-56,-300,0,0,0,0,0,0,0,0,0,-1,1168,1324,0,0
-49,-300,0,0,0,0,0,0,0,0,0,-1,1175,1324,0,0
-42,-300,0,0,0,0,0,0,0,0,0,-1,1182,1324,0,0
-35,-300,0,0,0,0,0,0,0,0,0,-1,1189,1324,0,0
-28,-300,0,0,0,0,0,0,0,0,0,-1,1196,1324,0,0
-21,-300,0,0,0,0,0,0,0,0,0,-1,1203,1324,0,0
-14,-300,0,0,0,0,0,0,0,0,0,-1,1210,1324,0,0
-7,-300,0,0,0,0,0,0,0,0,0,-1,1217,1324,0,0
0,-300,0,0,0,0,0,0,0,0,0,-1,1224,1324,0,0
7,-300,0,0,0,0,0,0,0,0,0,-1,1231,1324,0,0
14,-300,0,0,0,0,0,0,0,0,0,-1,1238,1324,0,0
21,-300,0,0,0,0,0,0,0,0,0,-1,1245,1324,0,0
28,-300,0,0,0,0,0,0,0,0,0,-1,1252,1324,0,0
35,-300,0,0,0,0,0,0,0,0,0,-1,1259,1324,0,0
42,-300,0,0,0,0,0,0,0,0,0,-1,1266,1324,0,0
49,-300,0,0,0,0,0,0,0,0,0,-1,1273,1324,0,0
56,-300,0,0,0,0,0,0,0,0,0,-1,1280,1324,0,0
63,-300,0,0,0,0,0,0,0,0,0,-1,1287,1324,0,0
70,-300,0,0,0,0,0,0,0,0,0,-1,1294,1324,0,0
77,-300,0,0,0,0,0,0,0,0,0,-1,1301,1324,0,0
84,-300,0,0,0,0,0,0,0,0,0,-1,1308,1324,0,0
91,-300,0,0,0,0,0,0,0,0,0,-1,1315,1324,0,0
98,-300,0,0,0,0,0,0,0,0,0,-1,1322,1324,0,0
105,-300,0,0,0,0,0,0,0,0,0,-1,1329,1324,0,0
112,-300,0,0,0,0,0,0,0,0,0,-1,1336,1324,0,0
119,-300,0,0,0,0,0,0,0,0,0,-1,1343,1324,0,0
126,-300,0,0,0,0,0,0,0,0,0,-1,1350,1324,0,0
133,-300,0,0,0,0,0,0,0,0,0,-1,1357,1324,0,0
140,-300,0,0,0,0,0,0,0,0,0,-1,1364,1324,0,0
147,-300,0,0,0,0,0,0,0,0,0,-1,1371,1324,0,0
154,-300,0,0,0,0,0,0,0,0,0,-1,1378,1324,0,0
161,-300,0,0,0,0,0,0,0,0,0,-1,1385,1324,0,0
168,-300,0,0,0,0,0,0,0,0,0,-1,1392,1324,0,0
175,-300,0,0,0,0,0,0,0,0,0,-1,1399,1324,0,0
182,-300,0,0,0,0,0,0,0,0,0,-1,1406,1324,0,0
189,-300,0,0,0,0,0,0,0,0,0,-1,1413,1324,0,0
196,-300,0,0,0,0,0,0,0,0,0,-1,1420,1324,0,0
203,-300,0,0,0,0,0,0,0,0,0,-1,1427,1324,0,0
210,-300,0,0,0,0,0,0,0,0,0,-1,1434,1324,0,0
217,-300,0,0,0,0,0,0,0,0,0,-1,1441,1324,0,0
224,-300,0,0,0,0,0,0,0,0,0,-1,1448,1324,0,0
231,-300,0,0,0,0,0,0,0,0,0,-1,1455,1324,0,0
238,-300,0,0,0,0,0,0,0,0,0,-1,1462,1324,0,0
245,-300,0,0,0,0,0,0,0,0,0,-1,1469,1324,0,0
252,-300,0,0,0,0,0,0,0,0,0,-1,1476,1324,0,0
259,-300,0,0,0,0,0,0,0,0,0,-1,1483,1324,0,0
266,-300,0,0,0,0,0,0,0,0,0,-1,1490,1324,0,0
273,-300,0,0,0,0,0,0,0,0,0,-1,1497,1324,0,0
280,-300,0,0,0,0,0,0,0,0,0,-1,1504,1324,0,0
287,-300,0,0,0,0,0,0,0,0,0,-1,1511,1324,0,0
294,-300,0,0,0,0,0,0,0,0,0,-1,1518,1324,0,0
301,-300,0,0,0,0,0,0,0,0,0,-1,1525,1324,0,0
308,-300,0,0,0,0,0,0,0,0,0,-1,1532,1324,0,0
315,-300,0,0,0,0,0,0,0,0,0,-1,1539,1324,0,0
322,-300,0,0,0,0,0,0,0,0,0,-1,1546,1324,0,0
329,-300,0,0,0,0,0,0,0,0,0,-1,1553,1324,0,0
336,-300,0,0,0,0,0,0,0,0,0,-1,1560,1324,0,0
343,-300,0,0,0,0,0,0,0,0,0,-1,1567,1324,0,0
350,-300,0,0,0,0,0,0,0,0,0,-1,1574,1324,0,0
357,-300,0,0,0,0,0,0,0,0,0,-1,1581,1324,0,0
364,-300,0,0,0,0,0,0,0,0,0,-1,1588,1324,0,0
371,-300,0,0,0,0,0,0,0,0,0,-1,1595,1324,0,0
378,-300,0,0,0,0,0,0,0,0,0,-1,1602,1324,0,0
385,-300,0,0,0,0,0,0,0,0,0,-1,1609,1324,0,0
392,-300,0,0,0,0,0,0,0,0,0,-1,1616,1324,0,0
399,-300,0,0,0,0,0,0,0,0,0,-1,1623,1324,0,0
406,-300,0,0,0,0,0,0,0,0,0,-1,1630,1324,0,0
413,-300,0,0,0,0,0,0,0,0,0,-1,1637,1324,0,0
420,-300,0,0,0,0,0,0,0,0,0,-1,1644,1324,0,0
427,-300,0,0,0,0,0,0,0,0,0,-1,1651,1324,0,0
434,-300,0,0,0,0,0,0,0,0,0,-1,1658,1324,0,0
441,-300,0,0,0,0,0,0,0,0,0,-1,1665,1324,0,0
448,-300,0,0,0,0,0,0,0,0,0,-1,1672,1324,0,0
455,-300,0,0,0,0,0,0,0,0,0,-1,1679,1324,0,0
462,-300,0,0,0,0,0,0,0,0,0,-1,1686,1324,0,0
469,-300,0,0,0,0,0,0,0,0,0,-1,1693,1324,0,0
476,-300,0,0,0,0,0,0,0,0,0,-1,1700,1324,0,0
483,-300,0,0,0,0,0,0,0,0,0,-1,1707,1324,0,0
490,-300,0,0,0,0,0,0,0,0,0,-1,1714,1324,0,0
497,-300,0,0,0,0,0,0,0,0,0,-1,1721,1324,0,0
504,-300,0,0,0,0,0,0,0,0,0,-1,1728,1324,0,0
511,-300,0,0,0,0,0,0,0,0,0,-1,1735,1324,0,0
518,-300,0,0,0,0,0,0,0,0,0,-1,1742,1324,0,0
525,-300,0,0,0,0,0,0,0,0,0,-1,1749,1324,0,0
532,-300,0,0,0,0,0,0,0,0,0,-1,1756,1324,0,0
539,-300,0,0,0,0,0,0,0,0,0,-1,1763,1324,0,0
546,-300,0,0,0,0,0,0,0,0,0,-1,1770,1324,0,0
553,-300,0,0,0,0,0,0,0,0,0,-1,1777,1324,0,0
560,-300,0,0,0,0,0,0,0,0,0,-1,1784,1324,0,0
567,-300,0,0,0,0,0,0,0,0,0,-1,1791,1324,0,0
574,-300,0,0,0,0,0,0,0,0,0,-1,1798,1324,0,0
581,-300,0,0,0,0,0,0,0,0,0,-1,1805,1324,0,0
588,-300,22.8573,2.87976,0,0,0,0,0,0,0,-1,1812,1324,22.8573,-2.87976
595,-300,22.7709,2.67908,0.092217,0.016013,0.0390601,0.108681,-0.000451066,0.398907,0.0726049,0.0436538,1819,1324,22.7709,-2.67911
602,-300,22.6473,2.37024,0.0856677,0.0108303,0.0413801,0.104038,-0.00754054,0.417814,0.0720042,0.0437724,1826,1324,22.6473,-2.37019
609,-300,22.502,2.54797,0.0715393,0.00609288,0.0386867,0.0894863,-0.0118541,0.434358,0.063976,0.045059,1833,1324,22.502,-2.54799
616,-300,22.8759,3.26147,0.0556726,0.00247972,0.0341555,0.0723655,-0.0142132,0.454593,0.0536131,0.0477082,1840,1324,22.8758,-3.26153
623,-300,23.1461,3.36938,0.041164,-0.000203048,0.0291105,0.0561908,-0.0152299,0.476523,0.0434365,0.0477134,1847,1324,23.1461,-3.3694
630,-300,22.8365,3.59473,0,0,0,0,0,0,0,-1,1854,1324,22.8366,-3.59472
637,-300,22.7206,3.60364,0,0,0,0,0,0,0,-1,1861,1324,22.7205,-3.60368
644,-300,18.9344,2.62561,0,0,0,0,0,0,0,-1,1868,1324,18.9344,-2.62561
651,-300,17.7207,5.34485,0,0,0,0,0,0,0,-1,1875,1324,17.7207,-5.34486
658,-300,17.38,5.85938,-0.00686495,-0.00669754,0.010478,0.00369709,-0.0172596,0.789392,0.0129163,0.0435644,1882,1324,17.38,-5.85942
665,-300,17.1775,6.3894,-0.0094939,-0.00654727,0.00871363,0.000816721,-0.0168579,0.869147,0.0115205,0.0293448,1889,1324,17.1775,-6.38941
672,-300,17.0775,6.20837,-0.0114301,-0.00561158,0.00706826,-0.000877263,-0.0161644,0.980628,0.0104961,0.010657,1896,1324,17.0775,-6.20837
679,-300,17.093,5.95459,-0.011181,-0.00386279,0.00556538,-0.000861381,-0.0141824,1.07621,0.00918131,0.0110645,1903,1324,17.093,-5.95464
686,-300,17.1218,5.7395,-0.00737948,-0.00305524,0.00473176,-1.50218e-05,-0.0104197,0.999702,0.00694146,0.0114722,1910,1324,17.1219,-5.73949
693,-300,17.0951,5.54443,-0.00457059,-0.00207544,0.00347109,0.000365469,-0.00701149,0.957919,0.00480079,0.0101541,1917,1324,17.0951,-5.5444
700,-300,17.0814,5.32886,-0.00307792,-0.000883701,0.00224833,0.000520922,-0.00448254,1.01238,0.00317627,0.011489,1924,1324,17.0814,-5.32888
707,-300,17.0947,5.12537,-0.00208275,4.05482e-05,0.00134757,0.000694427,-0.00273662,1.11903,0.00209462,0.00833185,1931,1324,17.0947,-5.12531
714,-300,17.0938,4.94116,-0.00149356,0.00108642,0.000456059,0.00116466,-0.00157181,1.40089,0.00158572,0.010052,1938,1324,17.0937,-4.94114
721,-300,17.1019,4.7345,-0.00124438,0.0019352,-8.91813e-05,0.0019377,-0.00124688,-1.54278,0.00185298,0.0116085,1945,1324,17.1019,-4.73451
728,-300,17.1104,4.50256,-0.0011108,0.00309376,-0.000702231,0.00320794,-0.00122498,-1.40961,0.00264333,0.0104534,1952,1324,17.1103,-4.50254
735,-300,16.9912,4.38538,-0.000911163,0.00462343,-0.0016023,0.00505384,-0.00134157,-1.30837,0.00389422,0.0176361,1959,1324,16.9913,-4.38537
742,-300,16.9523,4.18005,-0.000151023,0.00676658,-0.00310067,0.00795294,-0.00133737,-1.20537,0.00579938,0.0332268,1966,1324,16.9523,-4.18004
749,-300,16.7904,3.3949,0.00136767,0.00973008,-0.00540297,0.0123807,-0.001283,-1.1147,0.00871304,0.0479492,1973,1324,16.7904,-3.39485
756,-300,16.6437,2.56982,0,0,0,0,0,0,0,-1,1980,1324,16.6437,-2.56978
763,-300,16.283,3.80542,0,0,0,0,0,0,0,-1,1987,1324,16.283,-3.80545
770,-300,16.4082,5.24438,0,0,0,0,0,0,0,-1,1994,1324,16.4082,-5.24439
777,-300,0,0,0,0,0,0,0,0,0,-1,2001,1324,0,0
784,-300,0,0,0,0,0,0,0,0,0,-1,2008,1324,0,0
791,-300,0,0,0,0,0,0,0,0,0,-1,2015,1324,0,0
798,-300,0,0,0,0,0,0,0,0,0,-1,2022,1324,0,0
805,-300,0,0,0,0,0,0,0,0,0,-1,2029,1324,0,0
812,-300,0,0,0,0,0,0,0,0,0,-1,2036,1324,0,0
-700,-307,0,0,0,0,0,0,0,0,0,-1,524,1331,0,0
-693,-307,0,0,0,0,0,0,0,0,0,-1,531,1331,0,0
-686,-307,0,0,0,0,0,0,0,0,0,-1,538,1331,0,0
-679,-307,0,0,0,0,0,0,0,0,0,-1,545,1331,0,0
-672,-307,0,0,0,0,0,0,0,0,0,-1,552,1331,0,0
-665,-307,0,0,0,0,0,0,0,0,0,-1,559,1331,0,0
-658,-307,0,0,0,0,0,0,0,0,0,-1,566,1331,0,0
-651,-307,-9.11713,3.10535,0,0,0,0,0,0,0,-1,573,1331,-9.11711,-3.10534
-644,-307,-10.4166,3.89819,0.00226345,-0.0586895,-0.0866402,0.0636311,-0.120057,-0.616278,0.107707,0.0480502,580,1331,-10.4167,-3.89819
-637,-307,-10.2855,3.0813,0.00650966,-0.0414717,-0.079514,0.0655733,-0.100535,-0.638883,0.0966084,0.0486061,587,1331,-10.2855,-3.08134
-630,-307,-10.0945,2.26563,0.00768535,-0.028972,-0.0700047,0.0617211,-0.0830077,-0.657362,0.0838599,0.0470419,594,1331,-10.0945,-2.26563
-623,-307,-9.80212,1.422,0.00733693,-0.0197802,-0.0596032,0.0549043,-0.0673475,-0.673561,0.0707038,0.0442928,601,1331,-9.80211,-1.42197
-616,-307,-9.78754,0.472046,0.00621696,-0.0129805,-0.0490739,0.0466221,-0.0533856,-0.688819,0.0577835,0.0462621,608,1331,-9.78755,-0.472017
-609,-307,-9.7439,-0.491821,0,0,0,0,0,0,0,-1,615,1331,-9.7439,0.491851
-602,-307,-8.28375,1.76855,0.00386287,-0.00403936,-0.0297022,0.0298756,-0.0300521,-0.719274,0.0345994,0.0372425,622,1331,-8.28373,-1.7686
-595,-307,-8.43604,2.31018,0.00263825,-0.00140176,-0.0215428,0.0222555,-0.0210191,-0.738651,0.024988,0.0199512,629,1331,-8.43601,-2.31019
-588,-307,-8.40259,2.55078,0.00201407,0.00122279,-0.0152687,0.0168922,-0.0136553,-0.772445,0.0176696,0.0182768,636,1331,-8.40261,-2.55081
-581,-307,-8.38702,2.79492,0.00144724,0.00194814,-0.00972149,0.0114224,-0.00802703,-0.798276,0.011286,0.0163304,643,1331,-8.387,-2.79488
-574,-307,-8.42157,3.03284,0.000120905,0.00154077,-0.00422575,0.0051158,-0.00345413,-0.868622,0.00497876,0.0129755,650,1331,-8.42156,-3.03283
-567,-307,-8.42035,3.26794,-0.000594976,-6.66922e-05,-0.00100223,0.00070562,-0.00136729,-0.914245,0.00121695,0.0124422,657,1331,-8.42036,-3.26794
-560,-307,-8.39899,3.5238,-0.000968752,-0.00117315,-0.000538947,-0.000522399,-0.0016195,-0.691698,0.000954442,0.0138123,664,1331,-8.39898,-3.52385
-553,-307,-8.39648,3.75085,-0.00142798,-0.00159707,-0.00124064,-0.000269013,-0.00275604,-0.751378,0.00175458,0.0110429,671,1331,-8.39648,-3.75089
-546,-307,-8.38745,3.98193,-0.00277045,-0.00125595,-0.00234345,0.000449562,-0.00447596,-0.94167,0.00314456,0.0102206,678,1331,-8.38746,-3.98196
-539,-307,-8.36938,4.23853,-0.00585337,0.00143534,-0.00375172,0.00302135,-0.00743937,-1.17084,0.00621646,0.0121281,685,1331,-8.36939,-4.23848
-532,-307,-8.35266,4.43713,-0.00954778,0.00618849,-0.00481675,0.00754579,-0.0109051,-1.29613,0.0107113,0.030891,692,1331,-8.35267,-4.43715
-525,-307,-8.4729,4.63989,0,0,0,0,0,0,0,-1,699,1331,-8.47288,-4.63989
-518,-307,-8.94824,4.6969,0,0,0,0,0,0,0,-1,706,1331,-8.94821,-4.6969
-511,-307,-11.4844,1.58923,0,0,0,0,0,0,0,-1,713,1331,-11.4845,-1.58926
-504,-307,-12.4027,2.49512,0,0,0,0,0,0,0,-1,720,1331,-12.4027,-2.49507
-497,-307,-10.3909,-2.40894,0,0,0,0,0,0,0,-1,727,1331,-10.3909,2.40897
-490,-307,-10.7585,-1.95435,0,0,0,0,0,0,0,-1,734,1331,-10.7585,1.95437
-483,-307,-11.2756,-1.64038,0.0153814,0.0337711,-0.021836,0.0482692,0.000883289,-0.984673,0.0318891,0.043357,741,1331,-11.2756,1.64034
-476,-307,-11.488,-0.42688,0.0272804,0.0380618,-0.0254342,0.0586703,0.00667193,-0.889827,0.0370901,0.0449764,748,1331,-11.488,0.426905
-469,-307,-11.0891,-0.168335,0.0417394,0.0426612,-0.0293221,0.071526,0.0128746,-0.793257,0.0440245,0.0440918,755,1331,-11.0891,0.168358
-462,-307,0,0,0,0,0,0,0,0,0,-1,762,1331,0,0
-455,-307,0,0,0,0,0,0,0,0,0,-1,769,1331,0,0
-448,-307,0,0,0,0,0,0,0,0,0,-1,776,1331,0,0
-441,-307,0,0,0,0,0,0,0,0,0,-1,783,1331,0,0
-434,-307,0,0,0,0,0,0,0,0,0,-1,790,1331,0,0
-427,-307,0,0,0,0,0,0,0,0,0,-1,797,1331,0,0
-420,-307,0,0,0,0,0,0,0,0,0,-1,804,1331,0,0
-413,-307,0,0,0,0,0,0,0,0,0,-1,811,1331,0,0
-406,-307,0,0,0,0,0,0,0,0,0,-1,818,1331,0,0
-399,-307,0,0,0,0,0,0,0,0,0,-1,825,1331,0,0
-392,-307,0,0,0,0,0,0,0,0,0,-1,832,1331,0,0
-385,-307,0,0,0,0,0,0,0,0,0,-1,839,1331,0,0
-378,-307,0,0,0,0,0,0,0,0,0,-1,846,1331,0,0
-371,-307,0,0,0,0,0,0,0,0,0,-1,853,1331,0,0
-364,-307,0,0,0,0,0,0,0,0,0,-1,860,1331,0,0
-357,-307,0,0,0,0,0,0,0,0,0,-1,867,1331,0,0
-350,-307,0,0,0,0,0,0,0,0,0,-1,874,1331,0,0
-343,-307,0,0,0,0,0,0,0,0,0,-1,881,1331,0,0
-336,-307,0,0,0,0,0,0,0,0,0,-1,888,1331,0,0
-329,-307,0,0,0,0,0,0,0,0,0,-1,895,1331,0,0
-322,-307,0,0,0,0,0,0,0,0,0,-1,902,1331,0,0
-315,-307,0,0,0,0,0,0,0,0,0,-1,909,1331,0,0
-308,-307,0,0,0,0,0,0,0,0,0,-1,916,1331,0,0
-301,-307,0,0,0,0,0,0,0,0,0,-1,923,1331,0,0
-294,-307,0,0,0,0,0,0,0,0,0,-1,930,1331,0,0
-287,-307,0,0,0,0,0,0,0,0,0,-1,937,1331,0,0
-280,-307,0,0,0,0,0,0,0,0,0,-1,944,1331,0,0
-273,-307,0,0,0,0,0,0,0,0,0,-1,951,1331,0,0
-266,-307,0,0,0,0,0,0,0,0,0,-1,958,1331,0,0
-259,-307,0,0,0,0,0,0,0,0,0,-1,965,1331,0,0
-252,-307,0,0,0,0,0,0,0,0,0,-1,972,1331,0,0
-245,-307,0,0,0,0,0,0,0,0,0,-1,979,1331,0,0
-238,-307,0,0,0,0,0,0,0,0,0,-1,986,1331,0,0
-231,-307,0,0,0,0,0,0,0,0,0,-1,993,1331,0,0
-224,-307,0,0,0,0,0,0,0,0,0,-1,1000,1331,0,0
-217,-307,0,0,0,0,0,0,0,0,0,-1,1007,1331,0,0
-210,-307,0,0,0,0,0,0,0,0,0,-1,1014,1331,0,0
-203,-307,0,0,0,0,0,0,0,0,0,-1,1021,1331,0,0
-196,-307,0,0,0,0,0,0,0,0,0,-1,1028,1331,0,0
-189,-307,0,0,0,0,0,0,0,0,0,-1,1035,1331,0,0
-182,-307,0,0,0,0,0,0,0,0,0,-1,1042,1331,0,0
-175,-307,0,0,0,0,0,0,0,0,0,-1,1049,1331,0,0
-168,-307,0,0,0,0,0,0,0,0,0,-1,1056,1331,0,0
-161,-307,0,0,0,0,0,0,0,0,0,-1,1063,1331,0,0
-154,-307,0,0,0,0,0,0,0,0,0,-1,1070,1331,0,0
-147,-307,0,0,0,0,0,0,0,0,0,-1,1077,1331,0,0
-140,-307,0,0,0,0,0,0,0,0,0,-1,1084,1331,0,0
-133,-307,0,0,0,0,0,0,0,0,0,-1,1091,1331,0,0
-126,-307,0,0,0,0,0,0,0,0,0,-1,1098,1331,0,0
-119,-307,0,0,0,0,0,0,0,0,0,-1,1105,1331,0,0
-112,-307,0,0,0,0,0,0,0,0,0,-1,1112,1331,0,0
-105,-307,0,0,0,0,0,0,0,0,0,-1,1119,1331,0,0
-98,-307,0,0,0,0,0,0,0,0,0,-1,1126,1331,0,0
-91,-307,0,0,0,0,0,0,0,0,0,-1,1133,1331,0,0
-84,-307,0,0,0,0,0,0,0,0,0,-1,1140,1331,0,0
-77,-307,0,0,0,0,0,0,0,0,0,-1,1147,1331,0,0
-70,-307,0,0,0,0,0,0,0,0,0,-1,1154,1331,0,0
-63,-307,0,0,0,0,0,0,0,0,0,-1,1161,1331,0,0
-56,-307,0,0,0,0,0,0,0,0,0,-1,1168,1331,0,0
-49,-307,0,0,0,0,0,0,0,0,0,-1,1175,1331,0,0
-42,-307,0,0,0,0,0,0,0,0,0,-1,1182,1331,0,0
-35,-307,0,0,0,0,0,0,0,0,0,-1,1189,1331,0,0
-28,-307,0,0,0,0,0,0,0,0,0,-1,1196,1331,0,0
-21,-307,0,0,0,0,0,0,0,0,0,-1,1203,1331,0,0
-14,-307,0,0,0,0,0,0,0,0,0,-1,1210,1331,0,0
-7,-307,0,0,0,0,0,0,0,0,0,-1,1217,1331,0,0
0,-307,0,0,0,0,0,0,0,0,0,-1,1224,1331,0,0
7,-307,0,0,0,0,0,0,0,0,0,-1,1231,1331,0,0
14,-307,0,0,0,0,0,0,0,0,0,-1,1238,1331,0,0
21,-307,0,0,0,0,0,0,0,0,0,-1,1245,1331,0,0
28,-307,0,0,0,0,0,0,0,0,0,-1,1252,1331,0,0
35,-307,0,0,0,0,0,0,0,0,0,-1,1259,1331,0,0
42,-307,0,0,0,0,0,0,0,0,0,-1,1266,1331,0,0
49,-307,0,0,0,0,0,0,0,0,0,-1,1273,1331,0,0
56,-307,0,0,0,0,0,0,0,0,0,-1,1280,1331,0,0
63,-307,0,0,0,0,0,0,0,0,0,-1,1287,1331,0,0
70,-307,0,0,0,0,0,0,0,0,0,-1,1294,1331,0,0
77,-307,0,0,0,0,0,0,0,0,0,-1,1301,1331,0,0
84,-307,0,0,0,0,0,0,0,0,0,-1,1308,1331,0,0
91,-307,0,0,0,0,0,0,0,0,0,-1,1315,1331,0,0
98,-307,0,0,0,0,0,0,0,0,0,-1,1322,1331,0,0
105,-307,0,0,0,0,0,0,0,0,0,-1,1329,1331,0,0
112,-307,0,0,0,0,0,0,0,0,0,-1,1336,1331,0,0
119,-307,0,0,0,0,0,0,0,0,0,-1,1343,1331,0,0
126,-307,0,0,0,0,0,0,0,0,0,-1,1350,1331,0,0
133,-307,0,0,0,0,0,0,0,0,0,-1,1357,1331,0,0
140,-307,0,0,0,0,0,0,0,0,0,-1,1364,1331,0,0
147,-307,0,0,0,0,0,0,0,0,0,-1,1371,1331,0,0
154,-307,0,0,0,0,0,0,0,0,0,-1,1378,1331,0,0
161,-307,0,0,0,0,0,0,0,0,0,-1,1385,1331,0,0
168,-307,0,0,0,0,0,0,0,0,0,-1,1392,1331,0,0
175,-307,0,0,0,0,0,0,0,0,0,-1,1399,1331,0,0
182,-307,0,0,0,0,0,0,0,0,0,-1,1406,1331,0,0
189,-307,0,0,0,0,0,0,0,0,0,-1,1413,1331,0,0
196,-307,0,0,0,0,0,0,0,0,0,-1,1420,1331,0,0
203,-307,0,0,0,0,0,0,0,0,0,-1,1427,1331,0,0
210,-307,0,0,0,0,0,0,0,0,0,-1,1434,1331,0,0
217,-307,0,0,0,0,0,0,0,0,0,-1,1441,1331,0,0
224,-307,0,0,0,0,0,0,0,0,0,-1,1448,1331,0,0
231,-307,0,0,0,0,0,0,0,0,0,-1,1455,1331,0,0
238,-307,0,0,0,0,0,0,0,0,0,-1,1462,1331,0,0
245,-307,0,0,0,0,0,0,0,0,0,-1,1469,1331,0,0
252,-307,0,0,0,0,0,0,0,0,0,-1,1476,1331,0,0
259,-307,0,0,0,0,0,0,0,0,0,-1,1483,1331,0,0
266,-307,0,0,0,0,0,0,0,0,0,-1,1490,1331,0,0
273,-307,0,0,0,0,0,0,0,0,0,-1,1497,1331,0,0
280,-307,0,0,0,0,0,0,0,0,0,-1,1504,1331,0,0
287,-307,0,0,0,0,0,0,0,0,0,-1,1511,1331,0,0
294,-307,0,0,0,0,0,0,0,0,0,-1,1518,1331,0,0
301,-307,0,0,0,0,0,0,0,0,0,-1,1525,1331,0,0
308,-307,0,0,0,0,0,0,0,0,0,-1,1532,1331,0,0
315,-307,0,0,0,0,0,0,0,0,0,-1,1539,1331,0,0
322,-307,0,0,0,0,0,0,0,0,0,-1,1546,1331,0,0
329,-307,0,0,0,0,0,0,0,0,0,-1,1553,1331,0,0
336,-307,0,0,0,0,0,0,0,0,0,-1,1560,1331,0,0
343,-307,0,0,0,0,0,0,0,0,0,-1,1567,1331,0,0
350,-307,0,0,0,0,0,0,0,0,0,-1,1574,1331,0,0
357,-307,0,0,0,0,0,0,0,0,0,-1,1581,1331,0,0
364,-307,0,0,0,0,0,0,0,0,0,-1,1588,1331,0,0
371,-307,0,0,0,0,0,0,0,0,0,-1,1595,1331,0,0
378,-307,0,0,0,0,0,0,0,0,0,-1,1602,1331,0,0
385,-307,0,0,0,0,0,0,0,0,0,-1,1609,1331,0,0
392,-307,0,0,0,0,0,0,0,0,0,-1,1616,1331,0,0
399,-307,0,0,0,0,0,0,0,0,0,-1,1623,1331,0,0
406,-307,0,0,0,0,0,0,0,0,0,-1,1630,1331,0,0
413,-307,0,0,0,0,0,0,0,0,0,-1,1637,1331,0,0
420,-307,0,0,0,0,0,0,0,0,0,-1,1644,1331,0,0
427,-307,0,0,0,0,0,0,0,0,0,-1,1651,1331,0,0
434,-307,0,0,0,0,0,0,0,0,0,-1,1658,1331,0,0
441,-307,0,0,0,0,0,0,0,0,0,-1,1665,1331,0,0
448,-307,0,0,0,0,0,0,0,0,0,-1,1672,1331,0,0
455,-307,0,0,0,0,0,0,0,0,0,-1,1679,1331,0,0
462,-307,0,0,0,0,0,0,0,0,0,-1,1686,1331,0,0
469,-307,0,0,0,0,0,0,0,0,0,-1,1693,1331,0,0
476,-307,0,0,0,0,0,0,0,0,0,-1,1700,1331,0,0
483,-307,0,0,0,0,0,0,0,0,0,-1,1707,1331,0,0
490,-307,0,0,0,0,0,0,0,0,0,-1,1714,1331,0,0
497,-307,0,0,0,0,0,0,0,0,0,-1,1721,1331,0,0
504,-307,0,0,0,0,0,0,0,0,0,-1,1728,1331,0,0
511,-307,0,0,0,0,0,0,0,0,0,-1,1735,1331,0,0
518,-307,0,0,0,0,0,0,0,0,0,-1,1742,1331,0,0
525,-307,0,0,0,0,0,0,0,0,0,-1,1749,1331,0,0
532,-307,0,0,0,0,0,0,0,0,0,-1,1756,1331,0,0
539,-307,0,0,0,0,0,0,0,0,0,-1,1763,1331,0,0
546,-307,0,0,0,0,0,0,0,0,0,-1,1770,1331,0,0
553,-307,0,0,0,0,0,0,0,0,0,-1,1777,1331,0,0
560,-307,0,0,0,0,0,0,0,0,0,-1,1784,1331,0,0
567,-307,0,0,0,0,0,0,0,0,0,-1,1791,1331,0,0
574,-307,0,0,0,0,0,0,0,0,0,-1,1798,1331,0,0
581,-307,0,0,0,0,0,0,0,0,0,-1,1805,1331,0,0
588,-307,19.3091,2.89783,0,0,0,0,0,0,0,-1,1812,1331,19.309,-2.89784
595,-307,22.8217,2.6792,0,0,0,0,0,0,0,-1,1819,1331,22.8216,-2.67916
602,-307,22.2576,2.2594,0,0,0,0,0,0,0,-1,1826,1331,22.2576,-2.25935
609,-307,21.551,3.08398,0,0,0,0,0,0,0,-1,1833,1331,21.551,-3.08402
616,-307,22.2572,3.31995,0.0655881,0.00341194,0.0396804,0.0849085,-0.0159084,0.453111,0.062586,0.0471505,1840,1331,22.2572,-3.31995
623,-307,22.9695,3.53564,0.0496246,0.000488344,0.0333899,0.066511,-0.0163981,0.468225,0.0506985,0.049778,1847,1331,22.9695,-3.5356
630,-307,23.6637,3.81897,0,0,0,0,0,0,0,-1,1854,1331,23.6636,-3.81901
637,-307,16.6766,1.98096,0,0,0,0,0,0,0,-1,1861,1331,16.6766,-1.98096
644,-307,16.6293,5.94641,0,0,0,0,0,0,0,-1,1868,1331,16.6293,-5.94645
651,-307,17.5013,5.80078,0,0,0,0,0,0,0,-1,1875,1331,17.5014,-5.80072
658,-307,17.1945,6.07642,-0.00474806,-0.00740456,0.0115146,0.00551466,-0.0176673,0.727975,0.0139837,0.0493178,1882,1331,17.1945,-6.0764
665,-307,16.9114,6.38672,-0.00739064,-0.00708858,0.00945034,0.00221194,-0.0166912,0.793388,0.0119333,0.0182851,1889,1331,16.9113,-6.38674
672,-307,16.8849,6.18384,-0.00927531,-0.00591046,0.00743732,3.23518e-05,-0.0152181,0.896633,0.0101562,0.00878848,1896,1331,16.8848,-6.18383
679,-307,16.8915,5.97192,-0.00901271,-0.00396798,0.00564971,-0.000303134,-0.0126776,0.995351,0.00835249,0.00978378,1903,1331,16.8915,-5.97193
686,-307,16.9022,5.76953,-0.00583098,-0.0029124,0.00450675,0.000365425,-0.00910881,0.941972,0.00619794,0.00932642,1910,1331,16.9022,-5.76948
693,-307,16.8798,5.55823,-0.00366402,-0.00181218,0.00316613,0.000560644,-0.00603685,0.927653,0.00422387,0.0110189,1917,1331,16.8798,-5.55818
700,-307,16.8835,5.33606,-0.0025312,-0.000586948,0.00196251,0.000631009,-0.00374915,1.01536,0.00273415,0.012461,1924,1331,16.8835,-5.33606
707,-307,16.8756,5.12134,-0.00186119,0.000315275,0.00115268,0.00081226,-0.00235817,1.16372,0.0019016,0.013209,1931,1331,16.8756,-5.12133
714,-307,16.8777,4.92896,-0.00156335,0.00123083,0.000511573,0.00132155,-0.00165406,1.39529,0.00172154,0.0125601,1938,1331,16.8776,-4.92896
721,-307,16.8964,4.72766,-0.00164018,0.00199088,0.000236994,0.00200628,-0.00165559,1.50589,0.00211741,0.014829,1945,1331,16.8964,-4.72763
728,-307,16.8696,4.58386,-0.00189144,0.00300107,-6.98499e-05,0.00300207,-0.00189244,-1.55652,0.00284995,0.0217878,1952,1331,16.8696,-4.58388
735,-307,16.7709,4.44531,-0.00213681,0.00439182,-0.000599692,0.00444645,-0.00219144,-1.47995,0.0039054,0.0316321,1959,1331,16.7708,-4.44536
742,-307,16.7905,4.31152,-0.00196775,0.00634633,-0.00161971,0.00665073,-0.00227214,-1.38503,0.00535439,0.0418755,1966,1331,16.7905,-4.31158
749,-307,16.8705,4.0907,0,0,0,0,0,0,0,-1,1973,1331,16.8704,-4.09072
756,-307,16.8722,2.53284,0,0,0,0,0,0,0,-1,1980,1331,16.8722,-2.53287
763,-307,17.4347,2.33398,0,0,0,0,0,0,0,-1,1987,1331,17.4347,-2.33399
770,-307,0,0,0,0,0,0,0,0,0,-1,1994,1331,0,0
777,-307,0,0,0,0,0,0,0,0,0,-1,2001,1331,0,0
784,-307,0,0,0,0,0,0,0,0,0,-1,2008,1331,0,0
791,-307,0,0,0,0,0,0,0,0,0,-1,2015,1331,0,0
798,-307,0,0,0,0,0,0,0,0,0,-1,2022,1331,0,0
805,-307,0,0,0,0,0,0,0,0,0,-1,2029,1331,0,0
812,-307,0,0,0,0,0,0,0,0,0,-1,2036,1331,0,0
-700,-314,0,0,0,0,0,0,0,0,0,-1,524,1338,0,0
-693,-314,0,0,0,0,0,0,0,0,0,-1,531,1338,0,0
-686,-314,0,0,0,0,0,0,0,0,0,-1,538,1338,0,0
-679,-314,0,0,0,0,0,0,0,0,0,-1,545,1338,0,0
-672,-314,0,0,0,0,0,0,0,0,0,-1,552,1338,0,0
-665,-314,0,0,0,0,0,0,0,0,0,-1,559,1338,0,0
-658,-314,0,0,0,0,0,0,0,0,0,-1,566,1338,0,0
-651,-314,0,0,0,0,0,0,0,0,0,-1,573,1338,0,0
-644,-314,-10.0425,4.15405,0,0,0,0,0,0,0,-1,580,1338,-10.0426,-4.15406
-637,-314,-9.8667,3.20068,0,0,0,0,0,0,0,-1,587,1338,-9.86668,-3.20066
-630,-314,-9.52643,2.58789,0.0193495,-0.0286744,-0.0785481,0.0774739,-0.0867988,-0.63706,0.0948938,0.0446727,594,1338,-9.52644,-2.5879
-623,-314,-9.27386,1.23511,0.0165833,-0.0194845,-0.0664041,0.0673587,-0.0702599,-0.652807,0.07946,0.0469486,601,1338,-9.27388,-1.2351
-616,-314,-9.04327,0.67688,0.0134381,-0.0127376,-0.0542845,0.0561902,-0.0554897,-0.667107,0.0644789,0.0485322,608,1338,-9.04329,-0.676901
-609,-314,-8.72455,0.204834,0,0,0,0,0,0,0,-1,615,1338,-8.72452,-0.204812
-602,-314,-8.16833,1.87659,0.00790017,-0.00385878,-0.0324995,0.0350477,-0.0310063,-0.695911,0.0381601,0.0419209,622,1338,-8.16833,-1.8766
-595,-314,-8.08954,2.34839,0.00552867,-0.00126658,-0.0233932,0.0257697,-0.0215076,-0.713283,0.0273325,0.0363849,629,1338,-8.08955,-2.34838
-588,-314,-8.16431,2.53931,0.00392876,0.00134398,-0.0163696,0.0190569,-0.0137841,-0.746004,0.0190421,0.0160571,636,1338,-8.16431,-2.53932
-581,-314,-8.13751,2.79858,0.00254957,0.00207697,-0.0102995,0.0126155,-0.00798895,-0.773929,0.0119955,0.01287,643,1338,-8.13753,-2.79862
-574,-314,-8.16559,3.02026,0.000549743,0.00174507,-0.00424783,0.00543707,-0.00314226,-0.855289,0.005012,0.0121783,650,1338,-8.16557,-3.02024
-567,-314,-8.17352,3.26306,-0.000646398,0.000183116,-0.000681108,0.000565812,-0.00102909,-1.05888,0.000933679,0.0141893,657,1338,-8.1735,-3.26302
-560,-314,-8.15448,3.52234,-0.000987971,-0.000985562,-0.000171764,-0.000814998,-0.00115853,-0.788904,0.000687094,0.0150958,664,1338,-8.15448,-3.52236
-553,-314,-8.15546,3.7428,-0.00118928,-0.00170644,-0.000843671,-0.000565455,-0.00233027,-0.636697,0.00140353,0.016335,671,1338,-8.15544,-3.74278
-546,-314,-8.1673,3.99683,-0.00194193,-0.00193504,-0.00182537,-0.000113109,-0.00376386,-0.786342,0.0024724,0.0167171,678,1338,-8.16727,-3.99681
-539,-314,-8.14667,4.2561,-0.00417891,-0.000111503,-0.00309742,0.00156018,-0.0058506,-1.07589,0.00451131,0.0160795,685,1338,-8.14664,-4.25606
-532,-314,-8.02399,4.5238,-0.0072869,0.00404343,-0.00404478,0.00533918,-0.00858265,-1.26077,0.00811016,0.0277832,692,1338,-8.024,-4.52385
-525,-314,-8.3858,4.66248,-0.00889114,0.00717428,-0.00502268,0.00861531,-0.0103322,-1.2914,0.0109543,0.047828,699,1338,-8.3858,-4.66245
-518,-314,-8.52753,4.70032,0,0,0,0,0,0,0,-1,706,1338,-8.52755,-4.70034
-511,-314,-8.75372,4.71509,0,0,0,0,0,0,0,-1,713,1338,-8.75375,-4.71505
-504,-314,-11.8762,2.34607,0,0,0,0,0,0,0,-1,720,1338,-11.8762,-2.34611
-497,-314,-13.0251,3.4071,0,0,0,0,0,0,0,-1,727,1338,-13.0251,-3.4071
-490,-314,-11.6192,2.64307,0,0,0,0,0,0,0,-1,734,1338,-11.6192,-2.64308
-483,-314,-10.4991,-2.6156,0,0,0,0,0,0,0,-1,741,1338,-10.4992,2.61562
-476,-314,-10.9951,-0.495605,0.036233,0.0337872,-0.0274598,0.0624972,0.00752304,-0.763146,0.0393972,0.0444151,748,1338,-10.9951,0.495547
-469,-314,-10.5319,-0.317505,0.0497717,0.0386183,-0.0322225,0.0768965,0.0114935,-0.699713,0.0478951,0.0389695,755,1338,-10.5319,0.317501
-462,-314,0,0,0,0,0,0,0,0,0,-1,762,1338,0,0
-455,-314,0,0,0,0,0,0,0,0,0,-1,769,1338,0,0
-448,-314,0,0,0,0,0,0,0,0,0,-1,776,1338,0,0
-441,-314,0,0,0,0,0,0,0,0,0,-1,783,1338,0,0
-434,-314,0,0,0,0,0,0,0,0,0,-1,790,1338,0,0
-427,-314,0,0,0,0,0,0,0,0,0,-1,797,1338,0,0
-420,-314,0,0,0,0,0,0,0,0,0,-1,804,1338,0,0
-413,-314,0,0,0,0,0,0,0,0,0,-1,811,1338,0,0
-406,-314,0,0,0,0,0,0,0,0,0,-1,818,1338,0,0
-399,-314,0,0,0,0,0,0,0,0,0,-1,825,1338,0,0
-392,-314,0,0,0,0,0,0,0,0,0,-1,832,1338,0,0
-385,-314,0,0,0,0,0,0,0,0,0,-1,839,1338,0,0
-378,-314,0,0,0,0,0,0,0,0,0,-1,846,1338,0,0
-371,-314,0,0,0,0,0,0,0,0,0,-1,853,1338,0,0
-364,-314,0,0,0,0,0,0,0,0,0,-1,860,1338,0,0
-357,-314,0,0,0,0,0,0,0,0,0,-1,867,1338,0,0
-350,-314,0,0,0,0,0,0,0,0,0,-1,874,1338,0,0
-343,-314,0,0,0,0,0,0,0,0,0,-1,881,1338,0,0
-336,-314,0,0,0,0,0,0,0,0,0,-1,888,1338,0,0
-329,-314,0,0,0,0,0,0,0,0,0,-1,895,1338,0,0
-322,-314,0,0,0,0,0,0,0,0,0,-1,902,1338,0,0
-315,-314,0,0,0,0,0,0,0,0,0,-1,909,1338,0,0
-308,-314,0,0,0,0,0,0,0,0,0,-1,916,1338,0,0
-301,-314,0,0,0,0,0,0,0,0,0,-1,923,1338,0,0
-294,-314,0,0,0,0,0,0,0,0,0,-1,930,1338,0,0
-287,-314,0,0,0,0,0,0,0,0,0,-1,937,1338,0,0
-280,-314,0,0,0,0,0,0,0,0,0,-1,944,1338,0,0
-273,-314,0,0,0,0,0,0,0,0,0,-1,951,1338,0,0
-266,-314,0,0,0,0,0,0,0,0,0,-1,958,1338,0,0
-259,-314,0,0,0,0,0,0,0,0,0,-1,965,1338,0,0
-252,-314,0,0,0,0,0,0,0,0,0,-1,972,1338,0,0
-245,-314,0,0,0,0,0,0,0,0,0,-1,979,1338,0,0
-238,-314,0,0,0,0,0,0,0,0,0,-1,986,1338,0,0
-231,-314,0,0,0,0,0,0,0,0,0,-1,993,1338,0,0
-224,-314,0,0,0,0,0,0,0,0,0,-1,1000,1338,0,0
-217,-314,0,0,0,0,0,0,0,0,0,-1,1007,1338,0,0
-210,-314,0,0,0,0,0,0,0,0,0,-1,1014,1338,0,0
-203,-314,0,0,0,0,0,0,0,0,0,-1,1021,1338,0,0
-196,-314,0,0,0,0,0,0,0,0,0,-1,1028,1338,0,0
-189,-314,0,0,0,0,0,0,0,0,0,-1,1035,1338,0,0
-182,-314,0,0,0,0,0,0,0,0,0,-1,1042,1338,0,0
-175,-314,0,0,0,0,0,0,0,0,0,-1,1049,1338,0,0
-168,-314,0,0,0,0,0,0,0,0,0,-1,1056,1338,0,0
-161,-314,0,0,0,0,0,0,0,0,0,-1,1063,1338,0,0
-154,-314,0,0,0,0,0,0,0,0,0,-1,1070,1338,0,0
-147,-314,0,0,0,0,0,0,0,0,0,-1,1077,1338,0,0
-140,-314,0,0,0,0,0,0,0,0,0,-1,1084,1338,0,0
-133,-314,0,0,0,0,0,0,0,0,0,-1,1091,1338,0,0
-126,-314,0,0,0,0,0,0,0,0,0,-1,1098,1338,0,0
-119,-314,0,0,0,0,0,0,0,0,0,-1,1105,1338,0,0
-112,-314,0,0,0,0,0,0,0,0,0,-1,1112,1338,0,0
-105,-314,0,0,0,0,0,0,0,0,0,-1,1119,1338,0,0
-98,-314,0,0,0,0,0,0,0,0,0,-1,1126,1338,0,0
-91,-314,0,0,0,0,0,0,0,0,0,-1,1133,1338,0,0
-84,-314,0,0,0,0,0,0,0,0,0,-1,1140,1338,0,0
-77,-314,0,0,0,0,0,0,0,0,0,-1,1147,1338,0,0
-70,-314,0,0,0,0,0,0,0,0,0,-1,1154,1338,0,0
-63,-314,0,0,0,0,0,0,0,0,0,-1,1161,1338,0,0
-56,-314,0,0,0,0,0,0,0,0,0,-1,1168,1338,0,0
-49,-314,0,0,0,0,0,0,0,0,0,-1,1175,1338,0,0
-42,-314,0,0,0,0,0,0,0,0,0,-1,1182,1338,0,0
-35,-314,0,0,0,0,0,0,0,0,0,-1,1189,1338,0,0
-28,-314,0,0,0,0,0,0,0,0,0,-1,1196,1338,0,0
-21,-314,0,0,0,0,0,0,0,0,0,-1,1203,1338,0,0
-14,-314,0,0,0,0,0,0,0,0,0,-1,1210,1338,0,0
-7,-314,0,0,0,0,0,0,0,0,0,-1,1217,1338,0,0
0,-314,0,0,0,0,0,0,0,0,0,-1,1224,1338,0,0
7,-314,0,0,0,0,0,0,0,0,0,-1,1231,1338,0,0
14,-314,0,0,0,0,0,0,0,0,0,-1,1238,1338,0,0
21,-314,0,0,0,0,0,0,0,0,0,-1,1245,1338,0,0
28,-314,0,0,0,0,0,0,0,0,0,-1,1252,1338,0,0
35,-314,0,0,0,0,0,0,0,0,0,-1,1259,1338,0,0
42,-314,0,0,0,0,0,0,0,0,0,-1,1266,1338,0,0
49,-314,0,0,0,0,0,0,0,0,0,-1,1273,1338,0,0
56,-314,0,0,0,0,0,0,0,0,0,-1,1280,1338,0,0
63,-314,0,0,0,0,0,0,0,0,0,-1,1287,1338,0,0
70,-314,0,0,0,0,0,0,0,0,0,-1,1294,1338,0,0
77,-314,0,0,0,0,0,0,0,0,0,-1,1301,1338,0,0
84,-314,0,0,0,0,0,0,0,0,0,-1,1308,1338,0,0
91,-314,0,0,0,0,0,0,0,0,0,-1,1315,1338,0,0
98,-314,0,0,0,0,0,0,0,0,0,-1,1322,1338,0,0
105,-314,0,0,0,0,0,0,0,0,0,-1,1329,1338,0,0
112,-314,0,0,0,0,0,0,0,0,0,-1,1336,1338,0,0
119,-314,0,0,0,0,0,0,0,0,0,-1,1343,1338,0,0
126,-314,0,0,0,0,0,0,0,0,0,-1,1350,1338,0,0
133,-314,0,0,0,0,0,0,0,0,0,-1,1357,1338,0,0
140,-314,0,0,0,0,0,0,0,0,0,-1,1364,1338,0,0
147,-314,0,0,0,0,0,0,0,0,0,-1,1371,1338,0,0
154,-314,0,0,0,0,0,0,0,0,0,-1,1378,1338,0,0
161,-314,0,0,0,0,0,0,0,0,0,-1,1385,1338,0,0
168,-314,0,0,0,0,0,0,0,0,0,-1,1392,1338,0,0
175,-314,0,0,0,0,0,0,0,0,0,-1,1399,1338,0,0
182,-314,0,0,0,0,0,0,0,0,0,-1,1406,1338,0,0
189,-314,0,0,0,0,0,0,0,0,0,-1,1413,1338,0,0
196,-314,0,0,0,0,0,0,0,0,0,-1,1420,1338,0,0
203,-314,0,0,0,0,0,0,0,0,0,-1,1427,1338,0,0
210,-314,0,0,0,0,0,0,0,0,0,-1,1434,1338,0,0
217,-314,0,0,0,0,0,0,0,0,0,-1,1441,1338,0,0
224,-314,0,0,0,0,0,0,0,0,0,-1,1448,1338,0,0
231,-314,0,0,0,0,0,0,0,0,0,-1,1455,1338,0,0
238,-314,0,0,0,0,0,0,0,0,0,-1,1462,1338,0,0
245,-314,0,0,0,0,0,0,0,0,0,-1,1469,1338,0,0
252,-314,0,0,0,0,0,0,0,0,0,-1,1476,1338,0,0
259,-314,0,0,0,0,0,0,0,0,0,-1,1483,1338,0,0
266,-314,0,0,0,0,0,0,0,0,0,-1,1490,1338,0,0
273,-314,0,0,0,0,0,0,0,0,0,-1,1497,1338,0,0
280,-314,0,0,0,0,0,0,0,0,0,-1,1504,1338,0,0
287,-314,0,0,0,0,0,0,0,0,0,-1,1511,1338,0,0
294,-314,0,0,0,0,0,0,0,0,0,-1,1518,1338,0,0
301,-314,0,0,0,0,0,0,0,0,0,-1,1525,1338,0,0
308,-314,0,0,0,0,0,0,0,0,0,-1,1532,1338,0,0
315,-314,0,0,0,0,0,0,0,0,0,-1,1539,1338,0,0
322,-314,0,0,0,0,0,0,0,0,0,-1,1546,1338,0,0
329,-314,0,0,0,0,0,0,0,0,0,-1,1553,1338,0,0
336,-314,0,0,0,0,0,0,0,0,0,-1,1560,1338,0,0
343,-314,0,0,0,0,0,0,0,0,0,-1,1567,1338,0,0
350,-314,0,0,0,0,0,0,0,0,0,-1,1574,1338,0,0
357,-314,0,0,0,0,0,0,0,0,0,-1,1581,1338,0,0
364,-314,0,0,0,0,0,0,0,0,0,-1,1588,1338,0,0
371,-314,0,0,0,0,0,0,0,0,0,-1,1595,1338,0,0
378,-314,0,0,0,0,0,0,0,0,0,-1,1602,1338,0,0
385,-314,0,0,0,0,0,0,0,0,0,-1,1609,1338,0,0
392,-314,0,0,0,0,0,0,0,0,0,-1,1616,1338,0,0
399,-314,0,0,0,0,0,0,0,0,0,-1,1623,1338,0,0
406,-314,0,0,0,0,0,0,0,0,0,-1,1630,1338,0,0
413,-314,0,0,0,0,0,0,0,0,0,-1,1637,1338,0,0
420,-314,0,0,0,0,0,0,0,0,0,-1,1644,1338,0,0
427,-314,0,0,0,0,0,0,0,0,0,-1,1651,1338,0,0
434,-314,0,0,0,0,0,0,0,0,0,-1,1658,1338,0,0
441,-314,0,0,0,0,0,0,0,0,0,-1,1665,1338,0,0
448,-314,0,0,0,0,0,0,0,0,0,-1,1672,1338,0,0
455,-314,0,0,0,0,0,0,0,0,0,-1,1679,1338,0,0
462,-314,0,0,0,0,0,0,0,0,0,-1,1686,1338,0,0
469,-314,0,0,0,0,0,0,0,0,0,-1,1693,1338,0,0
476,-314,0,0,0,0,0,0,0,0,0,-1,1700,1338,0,0
483,-314,0,0,0,0,0,0,0,0,0,-1,1707,1338,0,0
490,-314,0,0,0,0,0,0,0,0,0,-1,1714,1338,0,0
497,-314,0,0,0,0,0,0,0,0,0,-1,1721,1338,0,0
504,-314,0,0,0,0,0,0,0,0,0,-1,1728,1338,0,0
511,-314,0,0,0,0,0,0,0,0,0,-1,1735,1338,0,0
518,-314,0,0,0,0,0,0,0,0,0,-1,1742,1338,0,0
525,-314,0,0,0,0,0,0,0,0,0,-1,1749,1338,0,0
532,-314,0,0,0,0,0,0,0,0,0,-1,1756,1338,0,0
539,-314,0,0,0,0,0,0,0,0,0,-1,1763,1338,0,0
546,-314,0,0,0,0,0,0,0,0,0,-1,1770,1338,0,0
553,-314,0,0,0,0,0,0,0,0,0,-1,1777,1338,0,0
560,-314,0,0,0,0,0,0,0,0,0,-1,1784,1338,0,0
567,-314,0,0,0,0,0,0,0,0,0,-1,1791,1338,0,0
574,-314,0,0,0,0,0,0,0,0,0,-1,1798,1338,0,0
581,-314,17.6387,2.21875,0,0,0,0,0,0,0,-1,1805,1338,17.6387,-2.21874
588,-314,18.475,2.4657,0.135546,0.0242992,0.0616482,0.162956,-0.00311026,0.418364,0.109689,0.0473025,1812,1338,18.4749,-2.46572
595,-314,19.3522,2.6582,0.129274,0.0186609,0.0645079,0.158938,-0.0110037,0.431023,0.109811,0.0480055,1819,1338,19.3521,-2.65823
602,-314,22.2034,2.47009,0.111738,0.0128391,0.0593371,0.139529,-0.0149522,0.43802,0.0983831,0.0427239,1826,1338,22.2034,-2.47008
609,-314,20.8857,2.99683,0,0,0,0,0,0,0,-1,1833,1338,20.8858,-2.99683
616,-314,21.6406,3.20837,0,0,0,0,0,0,0,-1,1840,1338,21.6406,-3.20833
623,-314,22.3955,3.4198,0,0,0,0,0,0,0,-1,1847,1338,22.3955,-3.41983
630,-314,19.7841,5.08118,0,0,0,0,0,0,0,-1,1854,1338,19.784,-5.08116
637,-314,20.4666,6.4209,0,0,0,0,0,0,0,-1,1861,1338,20.4666,-6.42087
644,-314,17.0294,5.60413,0,0,0,0,0,0,0,-1,1868,1338,17.0295,-5.60408
651,-314,17.0769,6.15735,0,0,0,0,0,0,0,-1,1875,1338,17.077,-6.15733
658,-314,16.8931,6.33484,-0.00267751,-0.00819048,0.0123051,0.00717604,-0.018044,0.675211,0.0150047,0.039778,1882,1338,16.893,-6.33478
665,-314,16.6633,6.41138,-0.00518568,-0.00753658,0.00986726,0.0035759,-0.0162982,0.726114,0.0122329,0.0163858,1889,1338,16.6634,-6.41137
672,-314,16.6792,6.19922,-0.00695375,-0.0060581,0.00747573,0.000983204,-0.0139951,0.815315,0.00967444,0.011446,1896,1338,16.6792,-6.19919
679,-314,16.6923,5.97888,-0.00678017,-0.00395762,0.00544199,0.000253113,-0.0109909,0.912269,0.00741308,0.00951565,1903,1338,16.6922,-5.97888
686,-314,16.6816,5.78174,-0.00434368,-0.00265718,0.00403565,0.000622376,-0.00762324,0.888392,0.00530181,0.011303,1910,1338,16.6817,-5.78179
693,-314,16.6691,5.56287,-0.00283169,-0.00148327,0.0026779,0.000603988,-0.00491895,0.908719,0.00349805,0.0114496,1917,1338,16.6691,-5.56286
700,-314,16.662,5.34058,-0.00204244,-0.000257687,0.00154305,0.000632443,-0.00293257,1.04756,0.00219642,0.0123419,1924,1338,16.662,-5.34063
707,-314,16.663,5.13513,-0.00165128,0.000616314,0.000852787,0.000901228,-0.00193619,1.24836,0.00167412,0.0127186,1931,1338,16.663,-5.13517
714,-314,16.6591,4.93555,-0.00160433,0.00142822,0.000473231,0.00150035,-0.00167646,1.41954,0.00183507,0.0114992,1938,1338,16.6591,-4.93559
721,-314,16.6873,4.73938,-0.00195357,0.00213817,0.000464998,0.00219034,-0.00200575,1.45905,0.0024234,0.0167607,1945,1338,16.6872,-4.73939
728,-314,16.5922,4.6322,-0.00257429,0.0030084,0.000479776,0.00304934,-0.00261522,1.48569,0.00327363,0.0322707,1952,1338,16.5922,-4.63216
735,-314,16.4352,4.49939,-0.00317976,0.00424875,0.000347884,0.00426501,-0.00319602,1.5241,0.00432234,0.0429524,1959,1338,16.4352,-4.49938
742,-314,16.2688,4.33008,-0.0034862,0.00599709,-0.000110343,0.00599838,-0.00348749,-1.55916,0.00554025,0.0491313,1966,1338,16.2688,-4.33014
749,-314,16.1589,4.14758,0,0,0,0,0,0,0,-1,1973,1338,16.159,-4.14756
756,-314,19.6914,2.82251,0,0,0,0,0,0,0,-1,1980,1338,19.6915,-2.82255
763,-314,20.9163,2.52234,0,0,0,0,0,0,0,-1,1987,1338,20.9163,-2.52229
770,-314,0,0,0,0,0,0,0,0,0,-1,1994,1338,0,0
777,-314,0,0,0,0,0,0,0,0,0,-1,2001,1338,0,0
784,-314,0,0,0,0,0,0,0,0,0,-1,2008,1338,0,0
791,-314,0,0,0,0,0,0,0,0,0,-1,2015,1338,0,0
798,-314,0,0,0,0,0,0,0,0,0,-1,2022,1338,0,0
805,-314,0,0,0,0,0,0,0,0,0,-1,2029,1338,0,0
812,-314,0,0,0,0,0,0,0,0,0,-1,2036,1338,0,0
-700,-321,0,0,0,0,0,0,0,0,0,-1,524,1345,0,0
-693,-321,0,0,0,0,0,0,0,0,0,-1,531,1345,0,0
-686,-321,0,0,0,0,0,0,0,0,0,-1,538,1345,0,0
-679,-321,0,0,0,0,0,0,0,0,0,-1,545,1345,0,0
-672,-321,0,0,0,0,0,0,0,0,0,-1,552,1345,0,0
-665,-321,0,0,0,0,0,0,0,0,0,-1,559,1345,0,0
-658,-321,0,0,0,0,0,0,0,0,0,-1,566,1345,0,0
-651,-321,0,0,0,0,0,0,0,0,0,-1,573,1345,0,0
-644,-321,-9.83881,4.51257,0,0,0,0,0,0,0,-1,580,1345,-9.8388,-4.51252
-637,-321,-9.42047,4.21338,0,0,0,0,0,0,0,-1,587,1345,-9.4205,-4.21333
-630,-321,-9.12494,2.74878,0.0321173,-0.0267601,-0.0853848,0.0929958,-0.0876386,-0.619391,0.104305,0.0477568,594,1345,-9.12494,-2.74874
-623,-321,-8.78351,1.27747,0.0264103,-0.0178965,-0.0713789,0.0789946,-0.0704808,-0.63493,0.0863463,0.0473462,601,1345,-8.78348,-1.27744
-616,-321,-8.81207,0.28418,0,0,0,0,0,0,0,-1,608,1345,-8.81209,-0.284217
-609,-321,-7.95209,1.14758,0,0,0,0,0,0,0,-1,615,1345,-7.95208,-1.14757
-602,-321,-7.85791,1.4137,0,0,0,0,0,0,0,-1,622,1345,-7.85791,-1.41371
-595,-321,-7.76276,2.40723,0,0,0,0,0,0,0,-1,629,1345,-7.76277,-2.40725
-588,-321,-7.94873,2.50098,0.00592043,0.00195776,-0.0165672,0.0206244,-0.0127462,-0.725884,0.0194446,0.0197841,636,1345,-7.94875,-2.50099
-581,-321,-7.91254,2.80115,0.00374482,0.0025854,-0.0101891,0.0133707,-0.00704044,-0.756981,0.0119718,0.0120581,643,1345,-7.91252,-2.80113
-574,-321,-7.92395,3.03931,0.00117594,0.00227842,-0.00384499,0.00561148,-0.00215712,-0.856596,0.00463065,0.0148038,650,1345,-7.92394,-3.03936
-567,-321,-7.93726,3.28149,-0.000437688,0.00073263,-0.000208736,0.000768745,-0.000473803,-1.39947,0.000724091,0.0212885,657,1345,-7.93724,-3.28146
-560,-321,-7.95563,3.4939,-0.000831076,-0.000475664,0.000146275,-0.000423206,-0.000883535,1.22645,0.000510259,0.0248966,664,1345,-7.95564,-3.49384
-553,-321,-7.96716,3.69824,-0.00093462,-0.00136281,-0.000640818,-0.00047308,-0.00182435,-0.624178,0.00109321,0.0256379,671,1345,-7.96715,-3.69827
-546,-321,-7.95081,3.9613,-0.00127724,-0.0019061,-0.00164807,8.61309e-05,-0.00326947,-0.691138,0.00220892,0.0256884,678,1345,-7.9508,-3.96133
-539,-321,-7.94507,4.24365,-0.00265214,-0.000885863,-0.00283226,0.00119775,-0.00473575,-0.936528,0.00362303,0.0235259,685,1345,-7.94509,-4.24367
-532,-321,-7.84381,4.51294,-0.00496167,0.00246648,-0.0036659,0.00397095,-0.00646614,-1.18136,0.00608298,0.018295,692,1345,-7.84383,-4.51296
-525,-321,-7.87933,4.85938,-0.00604217,0.00519723,-0.00461952,0.00685221,-0.00769716,-1.22678,0.0084048,0.03626,699,1345,-7.87936,-4.8594
-518,-321,-7.71149,5.14783,0,0,0,0,0,0,0,-1,706,1345,-7.7115,-5.14779
-511,-321,-8.25726,4.92896,0,0,0,0,0,0,0,-1,713,1345,-8.25724,-4.92899
-504,-321,-11.2463,2.26978,0,0,0,0,0,0,0,-1,720,1345,-11.2463,-2.26972
-497,-321,-11.2621,3.44556,0,0,0,0,0,0,0,-1,727,1345,-11.2621,-3.4455
-490,-321,-11.342,3.23376,0,0,0,0,0,0,0,-1,734,1345,-11.342,-3.23375
-483,-321,-11.5651,3.07239,0,0,0,0,0,0,0,-1,741,1345,-11.5651,-3.07241
-476,-321,-10.5906,-0.505859,0,0,0,0,0,0,0,-1,748,1345,-10.5906,0.50589
-469,-321,-10.0437,-0.302368,0.0614912,0.0331726,-0.0348227,0.0849233,0.00974063,-0.592302,0.0536641,0.0414021,755,1345,-10.0437,0.302354
-462,-321,-9.89221,-0.385498,0.0740924,0.0409034,-0.040536,0.101299,0.0136967,-0.591117,0.0634618,0.0409801,762,1345,-9.89223,0.385525
-455,-321,0,0,0,0,0,0,0,0,0,-1,769,1345,0,0
-448,-321,0,0,0,0,0,0,0,0,0,-1,776,1345,0,0
-441,-321,0,0,0,0,0,0,0,0,0,-1,783,1345,0,0
-434,-321,0,0,0,0,0,0,0,0,0,-1,790,1345,0,0
-427,-321,0,0,0,0,0,0,0,0,0,-1,797,1345,0,0
-420,-321,0,0,0,0,0,0,0,0,0,-1,804,1345,0,0
-413,-321,0,0,0,0,0,0,0,0,0,-1,811,1345,0,0
-406,-321,0,0,0,0,0,0,0,0,0,-1,818,1345,0,0
-399,-321,0,0,0,0,0,0,0,0,0,-1,825,1345,0,0
-392,-321,0,0,0,0,0,0,0,0,0,-1,832,1345,0,0
-385,-321,0,0,0,0,0,0,0,0,0,-1,839,1345,0,0
-378,-321,0,0,0,0,0,0,0,0,0,-1,846,1345,0,0
-371,-321,0,0,0,0,0,0,0,0,0,-1,853,1345,0,0
-364,-321,0,0,0,0,0,0,0,0,0,-1,860,1345,0,0
-357,-321,0,0,0,0,0,0,0,0,0,-1,867,1345,0,0
-350,-321,0,0,0,0,0,0,0,0,0,-1,874,1345,0,0
-343,-321,0,0,0,0,0,0,0,0,0,-1,881,1345,0,0
-336,-321,0,0,0,0,0,0,0,0,0,-1,888,1345,0,0
-329,-321,0,0,0,0,0,0,0,0,0,-1,895,1345,0,0
-322,-321,0,0,0,0,0,0,0,0,0,-1,902,1345,0,0
-315,-321,0,0,0,0,0,0,0,0,0,-1,909,1345,0,0
-308,-321,0,0,0,0,0,0,0,0,0,-1,916,1345,0,0
-301,-321,0,0,0,0,0,0,0,0,0,-1,923,1345,0,0
-294,-321,0,0,0,0,0,0,0,0,0,-1,930,1345,0,0
-287,-321,0,0,0,0,0,0,0,0,0,-1,937,1345,0,0
-280,-321,0,0,0,0,0,0,0,0,0,-1,944,1345,0,0
-273,-321,0,0,0,0,0,0,0,0,0,-1,951,1345,0,0
-266,-321,0,0,0,0,0,0,0,0,0,-1,958,1345,0,0
-259,-321,0,0,0,0,0,0,0,0,0,-1,965,1345,0,0
-252,-321,0,0,0,0,0,0,0,0,0,-1,972,1345,0,0
-245,-321,0,0,0,0,0,0,0,0,0,-1,979,1345,0,0
-238,-321,0,0,0,0,0,0,0,0,0,-1,986,1345,0,0
-231,-321,0,0,0,0,0,0,0,0,0,-1,993,1345,0,0
-224,-321,0,0,0,0,0,0,0,0,0,-1,1000,1345,0,0
-217,-321,0,0,0,0,0,0,0,0,0,-1,1007,1345,0,0
-210,-321,0,0,0,0,0,0,0,0,0,-1,1014,1345,0,0
-203,-321,0,0,0,0,0,0,0,0,0,-1,1021,1345,0,0
-196,-321,0,0,0,0,0,0,0,0,0,-1,1028,1345,0,0
-189,-321,0,0,0,0,0,0,0,0,0,-1,1035,1345,0,0
-182,-321,0,0,0,0,0,0,0,0,0,-1,1042,1345,0,0
-175,-321,0,0,0,0,0,0,0,0,0,-1,1049,1345,0,0
-168,-321,0,0,0,0,0,0,0,0,0,-1,1056,1345,0,0
-161,-321,0,0,0,0,0,0,0,0,0,-1,1063,1345,0,0
-154,-321,0,0,0,0,0,0,0,0,0,-1,1070,1345,0,0
-147,-321,0,0,0,0,0,0,0,0,0,-1,1077,1345,0,0
-140,-321,0,0,0,0,0,0,0,0,0,-1,1084,1345,0,0
-133,-321,0,0,0,0,0,0,0,0,0,-1,1091,1345,0,0
-126,-321,0,0,0,0,0,0,0,0,0,-1,1098,1345,0,0
-119,-321,0,0,0,0,0,0,0,0,0,-1,1105,1345,0,0
-112,-321,0,0,0,0,0,0,0,0,0,-1,1112,1345,0,0
-105,-321,0,0,0,0,0,0,0,0,0,-1,1119,1345,0,0
-98,-321,0,0,0,0,0,0,0,0,0,-1,1126,1345,0,0
-91,-321,0,0,0,0,0,0,0,0,0,-1,1133,1345,0,0
-84,-321,0,0,0,0,0,0,0,0,0,-1,1140,1345,0,0
-77,-321,0,0,0,0,0,0,0,0,0,-1,1147,1345,0,0
-70,-321,0,0,0,0,0,0,0,0,0,-1,1154,1345,0,0
-63,-321,0,0,0,0,0,0,0,0,0,-1,1161,1345,0,0
-56,-321,0,0,0,0,0,0,0,0,0,-1,1168,1345,0,0
-49,-321,0,0,0,0,0,0,0,0,0,-1,1175,1345,0,0
-42,-321,0,0,0,0,0,0,0,0,0,-1,1182,1345,0,0
-35,-321,0,0,0,0,0,0,0,0,0,-1,1189,1345,0,0
-28,-321,0,0,0,0,0,0,0,0,0,-1,1196,1345,0,0
-21,-321,0,0,0,0,0,0,0,0,0,-1,1203,1345,0,0
-14,-321,0,0,0,0,0,0,0,0,0,-1,1210,1345,0,0
-7,-321,0,0,0,0,0,0,0,0,0,-1,1217,1345,0,0
0,-321,0,0,0,0,0,0,0,0,0,-1,1224,1345,0,0
7,-321,0,0,0,0,0,0,0,0,0,-1,1231,1345,0,0
14,-321,0,0,0,0,0,0,0,0,0,-1,1238,1345,0,0
21,-321,0,0,0,0,0,0,0,0,0,-1,1245,1345,0,0
28,-321,0,0,0,0,0,0,0,0,0,-1,1252,1345,0,0
35,-321,0,0,0,0,0,0,0,0,0,-1,1259,1345,0,0
42,-321,0,0,0,0,0,0,0,0,0,-1,1266,1345,0,0
49,-321,0,0,0,0,0,0,0,0,0,-1,1273,1345,0,0
56,-321,0,0,0,0,0,0,0,0,0,-1,1280,1345,0,0
63,-321,0,0,0,0,0,0,0,0,0,-1,1287,1345,0,0
70,-321,0,0,0,0,0,0,0,0,0,-1,1294,1345,0,0
77,-321,0,0,0,0,0,0,0,0,0,-1,1301,1345,0,0
84,-321,0,0,0,0,0,0,0,0,0,-1,1308,1345,0,0
91,-321,0,0,0,0,0,0,0,0,0,-1,1315,1345,0,0
98,-321,0,0,0,0,0,0,0,0,0,-1,1322,1345,0,0
105,-321,0,0,0,0,0,0,0,0,0,-1,1329,1345,0,0
112,-321,0,0,0,0,0,0,0,0,0,-1,1336,1345,0,0
119,-321,0,0,0,0,0,0,0,0,0,-1,1343,1345,0,0
126,-321,0,0,0,0,0,0,0,0,0,-1,1350,1345,0,0
133,-321,0,0,0,0,0,0,0,0,0,-1,1357,1345,0,0
140,-321,0,0,0,0,0,0,0,0,0,-1,1364,1345,0,0
147,-321,0,0,0,0,0,0,0,0,0,-1,1371,1345,0,0
154,-321,0,0,0,0,0,0,0,0,0,-1,1378,1345,0,0
161,-321,0,0,0,0,0,0,0,0,0,-1,1385,1345,0,0
168,-321,0,0,0,0,0,0,0,0,0,-1,1392,1345,0,0
175,-321,0,0,0,0,0,0,0,0,0,-1,1399,1345,0,0
182,-321,0,0,0,0,0,0,0,0,0,-1,1406,1345,0,0
189,-321,0,0,0,0,0,0,0,0,0,-1,1413,1345,0,0
196,-321,0,0,0,0,0,0,0,0,0,-1,1420,1345,0,0
203,-321,0,0,0,0,0,0,0,0,0,-1,1427,1345,0,0
210,-321,0,0,0,0,0,0,0,0,0,-1,1434,1345,0,0
217,-321,0,0,0,0,0,0,0,0,0,-1,1441,1345,0,0
224,-321,0,0,0,0,0,0,0,0,0,-1,1448,1345,0,0
231,-321,0,0,0,0,0,0,0,0,0,-1,1455,1345,0,0
238,-321,0,0,0,0,0,0,0,0,0,-1,1462,1345,0,0
245,-321,0,0,0,0,0,0,0,0,0,-1,1469,1345,0,0
252,-321,0,0,0,0,0,0,0,0,0,-1,1476,1345,0,0
259,-321,0,0,0,0,0,0,0,0,0,-1,1483,1345,0,0
266,-321,0,0,0,0,0,0,0,0,0,-1,1490,1345,0,0
273,-321,0,0,0,0,0,0,0,0,0,-1,1497,1345,0,0
280,-321,0,0,0,0,0,0,0,0,0,-1,1504,1345,0,0
287,-321,0,0,0,0,0,0,0,0,0,-1,1511,1345,0,0
294,-321,0,0,0,0,0,0,0,0,0,-1,1518,1345,0,0
301,-321,0,0,0,0,0,0,0,0,0,-1,1525,1345,0,0
308,-321,0,0,0,0,0,0,0,0,0,-1,1532,1345,0,0
315,-321,0,0,0,0,0,0,0,0,0,-1,1539,1345,0,0
322,-321,0,0,0,0,0,0,0,0,0,-1,1546,1345,0,0
329,-321,0,0,0,0,0,0,0,0,0,-1,1553,1345,0,0
336,-321,0,0,0,0,0,0,0,0,0,-1,1560,1345,0,0
343,-321,0,0,0,0,0,0,0,0,0,-1,1567,1345,0,0
350,-321,0,0,0,0,0,0,0,0,0,-1,1574,1345,0,0
357,-321,0,0,0,0,0,0,0,0,0,-1,1581,1345,0,0
364,-321,0,0,0,0,0,0,0,0,0,-1,1588,1345,0,0
371,-321,0,0,0,0,0,0,0,0,0,-1,1595,1345,0,0
378,-321,0,0,0,0,0,0,0,0,0,-1,1602,1345,0,0
385,-321,0,0,0,0,0,0,0,0,0,-1,1609,1345,0,0
392,-321,0,0,0,0,0,0,0,0,0,-1,1616,1345,0,0
399,-321,0,0,0,0,0,0,0,0,0,-1,1623,1345,0,0
406,-321,0,0,0,0,0,0,0,0,0,-1,1630,1345,0,0
413,-321,0,0,0,0,0,0,0,0,0,-1,1637,1345,0,0
420,-321,0,0,0,0,0,0,0,0,0,-1,1644,1345,0,0
427,-321,0,0,0,0,0,0,0,0,0,-1,1651,1345,0,0
434,-321,0,0,0,0,0,0,0,0,0,-1,1658,1345,0,0
441,-321,0,0,0,0,0,0,0,0,0,-1,1665,1345,0,0
448,-321,0,0,0,0,0,0,0,0,0,-1,1672,1345,0,0
455,-321,0,0,0,0,0,0,0,0,0,-1,1679,1345,0,0
462,-321,0,0,0,0,0,0,0,0,0,-1,1686,1345,0,0
469,-321,0,0,0,0,0,0,0,0,0,-1,1693,1345,0,0
476,-321,0,0,0,0,0,0,0,0,0,-1,1700,1345,0,0
483,-321,0,0,0,0,0,0,0,0,0,-1,1707,1345,0,0
490,-321,0,0,0,0,0,0,0,0,0,-1,1714,1345,0,0
497,-321,0,0,0,0,0,0,0,0,0,-1,1721,1345,0,0
504,-321,0,0,0,0,0,0,0,0,0,-1,1728,1345,0,0
511,-321,0,0,0,0,0,0,0,0,0,-1,1735,1345,0,0
518,-321,0,0,0,0,0,0,0,0,0,-1,1742,1345,0,0
525,-321,0,0,0,0,0,0,0,0,0,-1,1749,1345,0,0
532,-321,0,0,0,0,0,0,0,0,0,-1,1756,1345,0,0
539,-321,0,0,0,0,0,0,0,0,0,-1,1763,1345,0,0
546,-321,0,0,0,0,0,0,0,0,0,-1,1770,1345,0,0
553,-321,0,0,0,0,0,0,0,0,0,-1,1777,1345,0,0
560,-321,0,0,0,0,0,0,0,0,0,-1,1784,1345,0,0
567,-321,0,0,0,0,0,0,0,0,0,-1,1791,1345,0,0
574,-321,0,0,0,0,0,0,0,0,0,-1,1798,1345,0,0
581,-321,17.1411,2.11853,0.153012,0.029417,0.069483,0.184203,-0.00177371,0.421936,0.123398,0.0435163,1805,1345,17.1411,-2.11853
588,-321,17.7555,2.37903,0.154647,0.0251773,0.0751579,0.189105,-0.00928126,0.429885,0.129275,0.0467575,1812,1345,17.7555,-2.37898
595,-321,18.6846,2.43921,0.139765,0.0191296,0.0720205,0.17339,-0.0144951,0.4368,0.120715,0.0476076,1819,1345,18.6845,-2.43922
602,-321,19.5747,2.5719,0.118947,0.0133406,0.0642012,0.14927,-0.0169825,0.441253,0.10563,0.0449845,1826,1345,19.5747,-2.5719
609,-321,20.245,2.75598,0,0,0,0,0,0,0,-1,1833,1345,20.245,-2.75603
616,-321,21.0323,3.14551,0,0,0,0,0,0,0,-1,1840,1345,21.0324,-3.14548
623,-321,21.8367,3.4679,0,0,0,0,0,0,0,-1,1847,1345,21.8367,-3.46795
630,-321,21.0529,6.62036,0,0,0,0,0,0,0,-1,1854,1345,21.0529,-6.62038
637,-321,17.0188,7.375,0,0,0,0,0,0,0,-1,1861,1345,17.0188,-7.37504
644,-321,16.8844,6.71973,0,0,0,0,0,0,0,-1,1868,1345,16.8844,-6.71971
651,-321,16.9448,6.47278,0,0,0,0,0,0,0,-1,1875,1345,16.9449,-6.47283
658,-321,16.5789,6.55762,-0.00215056,-0.00857855,0.0125028,0.00754475,-0.0182739,0.659591,0.0153294,0.0328851,1882,1345,16.5789,-6.55759
665,-321,16.4467,6.43457,-0.00430157,-0.00745394,0.00964603,0.0038962,-0.0156517,0.704413,0.0119469,0.0164753,1889,1345,16.4466,-6.43459
672,-321,16.4673,6.20032,-0.00564828,-0.00569274,0.00697401,0.00130354,-0.0126446,0.783804,0.00889611,0.0125827,1896,1345,16.4672,-6.20036
679,-321,16.4808,5.97827,-0.00532987,-0.00357184,0.00484311,0.000471375,-0.00937309,0.87517,0.00641163,0.0108235,1903,1345,16.4808,-5.97823
686,-321,16.4471,5.78125,-0.00338793,-0.00215098,0.00332645,0.000614006,-0.00615291,0.877312,0.00432117,0.0113293,1910,1345,16.4471,-5.7812
693,-321,16.4329,5.56824,-0.00226888,-0.000994916,0.00205684,0.00052132,-0.00378512,0.935559,0.00271393,0.012187,1917,1345,16.4329,-5.56823
700,-321,16.4546,5.34131,-0.00167474,0.00018261,0.00106981,0.000670598,-0.00216273,1.14284,0.00170977,0.0119332,1924,1345,16.4546,-5.34133
707,-321,16.4673,5.13611,-0.00144315,0.00103901,0.000527681,0.00114654,-0.00155067,1.36979,0.00156305,0.0135858,1931,1345,16.4673,-5.1361
714,-321,16.4514,4.92456,-0.0016407,0.00178,0.000387541,0.00182336,-0.00168406,1.45938,0.00202554,0.0125344,1938,1345,16.4515,-4.92455
721,-321,16.4602,4.71399,-0.00230945,0.002499,0.000644114,0.00258379,-0.00239423,1.43992,0.00287476,0.0207473,1945,1345,16.4602,-4.71397
728,-321,16.3417,4.64502,-0.00337142,0.00332858,0.000988172,0.00347128,-0.00351413,1.42738,0.00403305,0.0343925,1952,1345,16.3417,-4.64506
735,-321,16.4749,4.50647,-0.00448089,0.00454616,0.0012648,0.00472002,-0.00465475,1.43419,0.00541257,0.04926,1959,1345,16.4749,-4.50644
742,-321,16.5973,4.34924,0,0,0,0,0,0,0,-1,1966,1345,16.5973,-4.34929
749,-321,17.8248,3.18262,0,0,0,0,0,0,0,-1,1973,1345,17.8248,-3.18266
756,-321,18.4807,2.99707,0,0,0,0,0,0,0,-1,1980,1345,18.4807,-2.99702
763,-321,16.5902,1.14172,0,0,0,0,0,0,0,-1,1987,1345,16.5902,-1.14172
770,-321,0,0,0,0,0,0,0,0,0,-1,1994,1345,0,0
777,-321,0,0,0,0,0,0,0,0,0,-1,2001,1345,0,0
784,-321,0,0,0,0,0,0,0,0,0,-1,2008,1345,0,0
791,-321,0,0,0,0,0,0,0,0,0,-1,2015,1345,0,0
798,-321,0,0,0,0,0,0,0,0,0,-1,2022,1345,0,0
805,-321,0,0,0,0,0,0,0,0,0,-1,2029,1345,0,0
812,-321,0,0,0,0,0,0,0,0,0,-1,2036,1345,0,0
-700,-328,0,0,0,0,0,0,0,0,0,-1,524,1352,0,0
-693,-328,0,0,0,0,0,0,0,0,0,-1,531,1352,0,0
-686,-328,0,0,0,0,0,0,0,0,0,-1,538,1352,0,0
-679,-328,0,0,0,0,0,0,0,0,0,-1,545,1352,0,0
-672,-328,0,0,0,0,0,0,0,0,0,-1,552,1352,0,0
-665,-328,0,0,0,0,0,0,0,0,0,-1,559,1352,0,0
-658,-328,0,0,0,0,0,0,0,0,0,-1,566,1352,0,0
-651,-328,0,0,0,0,0,0,0,0,0,-1,573,1352,0,0
-644,-328,0,0,0,0,0,0,0,0,0,-1,580,1352,0,0
-637,-328,-9.11432,4.47766,0,0,0,0,0,0,0,-1,587,1352,-9.11429,-4.47769
-630,-328,-8.85797,2.87756,0.0460674,-0.0234726,-0.0917851,0.109448,-0.0868528,-0.604341,0.113584,0.0491522,594,1352,-8.85798,-2.87756
-623,-328,-8.64203,1.34192,0.0370947,-0.0152294,-0.0755103,0.0908467,-0.0689815,-0.618635,0.0925642,0.0488333,601,1352,-8.64202,-1.34192
-616,-328,-8.22198,-0.25708,0,0,0,0,0,0,0,-1,608,1352,-8.22201,0.257067
-609,-328,-7.87439,0.192871,0,0,0,0,0,0,0,-1,615,1352,-7.87441,-0.192822
-602,-328,-7.63062,1.31665,0,0,0,0,0,0,0,-1,622,1352,-7.63064,-1.3166
-595,-328,-7.83575,2.10144,0,0,0,0,0,0,0,-1,629,1352,-7.83577,-2.10142
-588,-328,-7.61829,2.42114,0.00799949,0.00280519,-0.0162034,0.0218126,-0.0110079,-0.705932,0.0192881,0.0397852,636,1352,-7.61829,-2.42115
-581,-328,-7.66901,2.78003,0.00495924,0.00321758,-0.00966658,0.0137941,-0.00561731,-0.740476,0.0115339,0.0145979,643,1352,-7.66898,-2.78005
-574,-328,-7.6701,3.03687,0.00176783,0.00283544,-0.00319141,0.00553738,-0.00093411,-0.868262,0.00403912,0.0140036,650,1352,-7.67008,-3.03682
-567,-328,-7.68774,3.27917,-0.000237714,0.00125224,0.000413462,0.00135929,-0.000344759,1.31746,0.00104033,0.0181253,657,1352,-7.68774,-3.27913
-560,-328,-7.70734,3.52209,-0.000679777,4.61959e-05,0.000533293,0.000328314,-0.000961896,1.08421,0.000774263,0.0260483,664,1352,-7.70731,-3.52215
-553,-328,-7.7019,3.77393,-0.000766928,-0.000838426,-0.000387665,-0.000413367,-0.00119199,-0.73942,0.000698881,0.0294318,671,1352,-7.70193,-3.77387
-546,-328,-7.6991,4.00989,-0.000915557,-0.00149306,-0.00139329,0.000218589,-0.00262721,-0.683222,0.00182869,0.0280801,678,1352,-7.69909,-4.00985
-539,-328,-7.73053,4.25732,-0.00178639,-0.00104883,-0.00242111,0.00103142,-0.00386664,-0.860977,0.00298164,0.0234481,685,1352,-7.73051,-4.25735
-532,-328,-7.70465,4.51196,-0.00333404,0.00138101,-0.0030469,0.00287595,-0.00482898,-1.11466,0.00449583,0.0157177,692,1352,-7.70467,-4.51191
-525,-328,-7.65454,4.78796,-0.00399678,0.00360112,-0.00380354,0.00517794,-0.00557361,-1.1778,0.00620881,0.0133259,699,1352,-7.65456,-4.78799
-518,-328,-7.54486,5.09448,0.00069598,0.0052374,-0.00674549,0.0100841,-0.00415073,-0.947754,0.00845312,0.0402563,706,1352,-7.54488,-5.09444
-511,-328,-7.87494,4.85364,0.00780514,0.00784014,-0.010239,0.0180616,-0.00241636,-0.786253,0.0129221,0.0470721,713,1352,-7.87493,-4.85365
-504,-328,-8.40973,4.62695,0,0,0,0,0,0,0,-1,720,1352,-8.40971,-4.62698
-497,-328,-8.82092,6.18188,0,0,0,0,0,0,0,-1,727,1352,-8.82091,-6.18189
-490,-328,-11.0875,3.83716,0,0,0,0,0,0,0,-1,734,1352,-11.0875,-3.83713
-483,-328,-11.3681,3.75415,0,0,0,0,0,0,0,-1,741,1352,-11.3681,-3.75413
-476,-328,-9.71448,-0.0678711,0,0,0,0,0,0,0,-1,748,1352,-9.71451,0.0678954
-469,-328,-9.61493,-0.366089,0.0714489,0.0279977,-0.0366758,0.092351,0.00709561,-0.518003,0.0593437,0.0474857,755,1352,-9.61492,0.366069
-462,-328,-9.12799,-0.871582,0.084631,0.0344874,-0.043299,0.109593,0.00952528,-0.522966,0.070103,0.043274,762,1352,-9.12798,0.871547
-455,-328,0,0,0,0,0,0,0,0,0,-1,769,1352,0,0
-448,-328,0,0,0,0,0,0,0,0,0,-1,776,1352,0,0
-441,-328,0,0,0,0,0,0,0,0,0,-1,783,1352,0,0
-434,-328,0,0,0,0,0,0,0,0,0,-1,790,1352,0,0
-427,-328,0,0,0,0,0,0,0,0,0,-1,797,1352,0,0
-420,-328,0,0,0,0,0,0,0,0,0,-1,804,1352,0,0
-413,-328,0,0,0,0,0,0,0,0,0,-1,811,1352,0,0
-406,-328,0,0,0,0,0,0,0,0,0,-1,818,1352,0,0
-399,-328,0,0,0,0,0,0,0,0,0,-1,825,1352,0,0
-392,-328,0,0,0,0,0,0,0,0,0,-1,832,1352,0,0
-385,-328,0,0,0,0,0,0,0,0,0,-1,839,1352,0,0
-378,-328,0,0,0,0,0,0,0,0,0,-1,846,1352,0,0
-371,-328,0,0,0,0,0,0,0,0,0,-1,853,1352,0,0
-364,-328,0,0,0,0,0,0,0,0,0,-1,860,1352,0,0
-357,-328,0,0,0,0,0,0,0,0,0,-1,867,1352,0,0
-350,-328,0,0,0,0,0,0,0,0,0,-1,874,1352,0,0
-343,-328,0,0,0,0,0,0,0,0,0,-1,881,1352,0,0
-336,-328,0,0,0,0,0,0,0,0,0,-1,888,1352,0,0
-329,-328,0,0,0,0,0,0,0,0,0,-1,895,1352,0,0
-322,-328,0,0,0,0,0,0,0,0,0,-1,902,1352,0,0
-315,-328,0,0,0,0,0,0,0,0,0,-1,909,1352,0,0
-308,-328,0,0,0,0,0,0,0,0,0,-1,916,1352,0,0
-301,-328,0,0,0,0,0,0,0,0,0,-1,923,1352,0,0
-294,-328,0,0,0,0,0,0,0,0,0,-1,930,1352,0,0
-287,-328,0,0,0,0,0,0,0,0,0,-1,937,1352,0,0
-280,-328,0,0,0,0,0,0,0,0,0,-1,944,1352,0,0
-273,-328,0,0,0,0,0,0,0,0,0,-1,951,1352,0,0
-266,-328,0,0,0,0,0,0,0,0,0,-1,958,1352,0,0
-259,-328,0,0,0,0,0,0,0,0,0,-1,965,1352,0,0
-252,-328,0,0,0,0,0,0,0,0,0,-1,972,1352,0,0
-245,-328,0,0,0,0,0,0,0,0,0,-1,979,1352,0,0
-238,-328,0,0,0,0,0,0,0,0,0,-1,986,1352,0,0
-231,-328,0,0,0,0,0,0,0,0,0,-1,993,1352,0,0
-224,-328,0,0,0,0,0,0,0,0,0,-1,1000,1352,0,0
-217,-328,0,0,0,0,0,0,0,0,0,-1,1007,1352,0,0
-210,-328,0,0,0,0,0,0,0,0,0,-1,1014,1352,0,0
-203,-328,0,0,0,0,0,0,0,0,0,-1,1021,1352,0,0
-196,-328,0,0,0,0,0,0,0,0,0,-1,1028,1352,0,0
-189,-328,0,0,0,0,0,0,0,0,0,-1,1035,1352,0,0
-182,-328,0,0,0,0,0,0,0,0,0,-1,1042,1352,0,0
-175,-328,0,0,0,0,0,0,0,0,0,-1,1049,1352,0,0
-168,-328,0,0,0,0,0,0,0,0,0,-1,1056,1352,0,0
-161,-328,0,0,0,0,0,0,0,0,0,-1,1063,1352,0,0
-154,-328,0,0,0,0,0,0,0,0,0,-1,1070,1352,0,0
-147,-328,0,0,0,0,0,0,0,0,0,-1,1077,1352,0,0
-140,-328,0,0,0,0,0,0,0,0,0,-1,1084,1352,0,0
-133,-328,0,0,0,0,0,0,0,0,0,-1,1091,1352,0,0
-126,-328,0,0,0,0,0,0,0,0,0,-1,1098,1352,0,0
-119,-328,0,0,0,0,0,0,0,0,0,-1,1105,1352,0,0
-112,-328,0,0,0,0,0,0,0,0,0,-1,1112,1352,0,0
-105,-328,0,0,0,0,0,0,0,0,0,-1,1119,1352,0,0
-98,-328,0,0,0,0,0,0,0,0,0,-1,1126,1352,0,0
-91,-328,0,0,0,0,0,0,0,0,0,-1,1133,1352,0,0
-84,-328,0,0,0,0,0,0,0,0,0,-1,1140,1352,0,0
-77,-328,0,0,0,0,0,0,0,0,0,-1,1147,1352,0,0
-70,-328,0,0,0,0,0,0,0,0,0,-1,1154,1352,0,0
-63,-328,0,0,0,0,0,0,0,0,0,-1,1161,1352,0,0
-56,-328,0,0,0,0,0,0,0,0,0,-1,1168,1352,0,0
-49,-328,0,0,0,0,0,0,0,0,0,-1,1175,1352,0,0
-42,-328,0,0,0,0,0,0,0,0,0,-1,1182,1352,0,0
-35,-328,0,0,0,0,0,0,0,0,0,-1,1189,1352,0,0
-28,-328,0,0,0,0,0,0,0,0,0,-1,1196,1352,0,0
-21,-328,0,0,0,0,0,0,0,0,0,-1,1203,1352,0,0
-14,-328,0,0,0,0,0,0,0,0,0,-1,1210,1352,0,0
-7,-328,0,0,0,0,0,0,0,0,0,-1,1217,1352,0,0
0,-328,0,0,0,0,0,0,0,0,0,-1,1224,1352,0,0
7,-328,0,0,0,0,0,0,0,0,0,-1,1231,1352,0,0
14,-328,0,0,0,0,0,0,0,0,0,-1,1238,1352,0,0
21,-328,0,0,0,0,0,0,0,0,0,-1,1245,1352,0,0
28,-328,0,0,0,0,0,0,0,0,0,-1,1252,1352,0,0
35,-328,0,0,0,0,0,0,0,0,0,-1,1259,1352,0,0
42,-328,0,0,0,0,0,0,0,0,0,-1,1266,1352,0,0
49,-328,0,0,0,0,0,0,0,0,0,-1,1273,1352,0,0
56,-328,0,0,0,0,0,0,0,0,0,-1,1280,1352,0,0
63,-328,0,0,0,0,0,0,0,0,0,-1,1287,1352,0,0
70,-328,0,0,0,0,0,0,0,0,0,-1,1294,1352,0,0
77,-328,0,0,0,0,0,0,0,0,0,-1,1301,1352,0,0
84,-328,0,0,0,0,0,0,0,0,0,-1,1308,1352,0,0
91,-328,0,0,0,0,0,0,0,0,0,-1,1315,1352,0,0
98,-328,0,0,0,0,0,0,0,0,0,-1,1322,1352,0,0
105,-328,0,0,0,0,0,0,0,0,0,-1,1329,1352,0,0
112,-328,0,0,0,0,0,0,0,0,0,-1,1336,1352,0,0
119,-328,0,0,0,0,0,0,0,0,0,-1,1343,1352,0,0
126,-328,0,0,0,0,0,0,0,0,0,-1,1350,1352,0,0
133,-328,0,0,0,0,0,0,0,0,0,-1,1357,1352,0,0
140,-328,0,0,0,0,0,0,0,0,0,-1,1364,1352,0,0
147,-328,0,0,0,0,0,0,0,0,0,-1,1371,1352,0,0
154,-328,0,0,0,0,0,0,0,0,0,-1,1378,1352,0,0
161,-328,0,0,0,0,0,0,0,0,0,-1,1385,1352,0,0
168,-328,0,0,0,0,0,0,0,0,0,-1,1392,1352,0,0
175,-328,0,0,0,0,0,0,0,0,0,-1,1399,1352,0,0
182,-328,0,0,0,0,0,0,0,0,0,-1,1406,1352,0,0
189,-328,0,0,0,0,0,0,0,0,0,-1,1413,1352,0,0
196,-328,0,0,0,0,0,0,0,0,0,-1,1420,1352,0,0
203,-328,0,0,0,0,0,0,0,0,0,-1,1427,1352,0,0
210,-328,0,0,0,0,0,0,0,0,0,-1,1434,1352,0,0
217,-328,0,0,0,0,0,0,0,0,0,-1,1441,1352,0,0
224,-328,0,0,0,0,0,0,0,0,0,-1,1448,1352,0,0
231,-328,0,0,0,0,0,0,0,0,0,-1,1455,1352,0,0
238,-328,0,0,0,0,0,0,0,0,0,-1,1462,1352,0,0
245,-328,0,0,0,0,0,0,0,0,0,-1,1469,1352,0,0
252,-328,0,0,0,0,0,0,0,0,0,-1,1476,1352,0,0
259,-328,0,0,0,0,0,0,0,0,0,-1,1483,1352,0,0
266,-328,0,0,0,0,0,0,0,0,0,-1,1490,1352,0,0
273,-328,0,0,0,0,0,0,0,0,0,-1,1497,1352,0,0
280,-328,0,0,0,0,0,0,0,0,0,-1,1504,1352,0,0
287,-328,0,0,0,0,0,0,0,0,0,-1,1511,1352,0,0
294,-328,0,0,0,0,0,0,0,0,0,-1,1518,1352,0,0
301,-328,0,0,0,0,0,0,0,0,0,-1,1525,1352,0,0
308,-328,0,0,0,0,0,0,0,0,0,-1,1532,1352,0,0
315,-328,0,0,0,0,0,0,0,0,0,-1,1539,1352,0,0
322,-328,0,0,0,0,0,0,0,0,0,-1,1546,1352,0,0
329,-328,0,0,0,0,0,0,0,0,0,-1,1553,1352,0,0
336,-328,0,0,0,0,0,0,0,0,0,-1,1560,1352,0,0
343,-328,0,0,0,0,0,0,0,0,0,-1,1567,1352,0,0
350,-328,0,0,0,0,0,0,0,0,0,-1,1574,1352,0,0
357,-328,0,0,0,0,0,0,0,0,0,-1,1581,1352,0,0
364,-328,0,0,0,0,0,0,0,0,0,-1,1588,1352,0,0
371,-328,0,0,0,0,0,0,0,0,0,-1,1595,1352,0,0
378,-328,0,0,0,0,0,0,0,0,0,-1,1602,1352,0,0
385,-328,0,0,0,0,0,0,0,0,0,-1,1609,1352,0,0
392,-328,0,0,0,0,0,0,0,0,0,-1,1616,1352,0,0
399,-328,0,0,0,0,0,0,0,0,0,-1,1623,1352,0,0
406,-328,0,0,0,0,0,0,0,0,0,-1,1630,1352,0,0
413,-328,0,0,0,0,0,0,0,0,0,-1,1637,1352,0,0
420,-328,0,0,0,0,0,0,0,0,0,-1,1644,1352,0,0
427,-328,0,0,0,0,0,0,0,0,0,-1,1651,1352,0,0
434,-328,0,0,0,0,0,0,0,0,0,-1,1658,1352,0,0
441,-328,0,0,0,0,0,0,0,0,0,-1,1665,1352,0,0
448,-328,0,0,0,0,0,0,0,0,0,-1,1672,1352,0,0
455,-328,0,0,0,0,0,0,0,0,0,-1,1679,1352,0,0
462,-328,0,0,0,0,0,0,0,0,0,-1,1686,1352,0,0
469,-328,0,0,0,0,0,0,0,0,0,-1,1693,1352,0,0
476,-328,0,0,0,0,0,0,0,0,0,-1,1700,1352,0,0
483,-328,0,0,0,0,0,0,0,0,0,-1,1707,1352,0,0
490,-328,0,0,0,0,0,0,0,0,0,-1,1714,1352,0,0
497,-328,0,0,0,0,0,0,0,0,0,-1,1721,1352,0,0
504,-328,0,0,0,0,0,0,0,0,0,-1,1728,1352,0,0
511,-328,0,0,0,0,0,0,0,0,0,-1,1735,1352,0,0
518,-328,0,0,0,0,0,0,0,0,0,-1,1742,1352,0,0
525,-328,0,0,0,0,0,0,0,0,0,-1,1749,1352,0,0
532,-328,0,0,0,0,0,0,0,0,0,-1,1756,1352,0,0
539,-328,0,0,0,0,0,0,0,0,0,-1,1763,1352,0,0
546,-328,0,0,0,0,0,0,0,0,0,-1,1770,1352,0,0
553,-328,0,0,0,0,0,0,0,0,0,-1,1777,1352,0,0
560,-328,0,0,0,0,0,0,0,0,0,-1,1784,1352,0,0
567,-328,0,0,0,0,0,0,0,0,0,-1,1791,1352,0,0
574,-328,16.0347,1.88757,0,0,0,0,0,0,0,-1,1798,1352,16.0346,-1.88763
581,-328,16.6177,2.17358,0,0,0,0,0,0,0,-1,1805,1352,16.6177,-2.17356
588,-328,17.001,2.21362,0,0,0,0,0,0,0,-1,1812,1352,17.0009,-2.21366
595,-328,17.8954,2.39697,0.143372,0.0198981,0.0740952,0.17808,-0.0148095,0.438065,0.123952,0.0448275,1819,1352,17.8954,-2.39696
602,-328,18.7766,2.50781,0.121741,0.0140868,0.0654312,0.15264,-0.0168127,0.441197,0.107802,0.0463115,1826,1352,18.7766,-2.50777
609,-328,19.4469,2.6925,0,0,0,0,0,0,0,-1,1833,1352,19.4469,-2.6925
616,-328,20.3323,3.14368,0,0,0,0,0,0,0,-1,1840,1352,20.3323,-3.1437
623,-328,20.527,4.10889,0,0,0,0,0,0,0,-1,1847,1352,20.5269,-4.10884
630,-328,17.3185,7.62988,0,0,0,0,0,0,0,-1,1854,1352,17.3184,-7.62987
637,-328,16.8966,7.19812,0,0,0,0,0,0,0,-1,1861,1352,16.8966,-7.19806
644,-328,16.9579,6.3396,0,0,0,0,0,0,0,-1,1868,1352,16.9579,-6.33959
651,-328,16.4244,6.83228,0,0,0,0,0,0,0,-1,1875,1352,16.4245,-6.83225
658,-328,16.2598,6.63623,-0.0016276,-0.00863334,0.012062,0.00742989,-0.0176908,0.644083,0.0149013,0.0240973,1882,1352,16.2598,-6.63623
665,-328,16.2402,6.41345,-0.00334012,-0.00701692,0.00887941,0.00388921,-0.0142462,0.68332,0.011025,0.0127431,1889,1352,16.2402,-6.41342
672,-328,16.2306,6.20691,-0.00429777,-0.0050484,0.00611086,0.00144929,-0.0107955,0.754728,0.00772551,0.0111191,1896,1352,16.2306,-6.20685
679,-328,16.2482,5.98914,-0.00394117,-0.00299162,0.00402782,0.000589313,-0.0075221,0.844065,0.00522227,0.0131684,1903,1352,16.2481,-5.98915
686,-328,16.229,5.77222,-0.00252187,-0.00154108,0.00252367,0.000539398,-0.00460235,0.881361,0.00326293,0.0122472,1910,1352,16.2291,-5.77216
693,-328,16.2244,5.5553,-0.00178906,-0.000445404,0.0013935,0.000429763,-0.00266423,1.01002,0.00193538,0.00932033,1917,1352,16.2244,-5.55534
700,-328,16.2356,5.34875,-0.00141377,0.000637417,0.000560245,0.000780463,-0.00155681,1.32081,0.00137402,0.013472,1924,1352,16.2356,-5.34872
707,-328,16.2395,5.14294,-0.00136451,0.00144469,0.000126353,0.00145036,-0.00137018,1.52594,0.00162866,0.0150735,1931,1352,16.2395,-5.14289
714,-328,16.2664,4.9375,-0.0018289,0.00208864,0.000181307,0.00209701,-0.00183727,1.52465,0.00227311,0.0127041,1938,1352,16.2663,-4.93754
721,-328,16.2108,4.77832,-0.00275204,0.00280124,0.000587178,0.00286264,-0.00281344,1.4666,0.00327713,0.0278675,1945,1352,16.2108,-4.77833
728,-328,16.1676,4.47375,-0.00405366,0.00366415,0.00101604,0.00379567,-0.00418518,1.44207,0.00460957,0.0423336,1952,1352,16.1676,-4.47381
735,-328,16.3079,4.01953,0,0,0,0,0,0,0,-1,1959,1352,16.3078,-4.01953
742,-328,16.6348,3.0658,0,0,0,0,0,0,0,-1,1966,1352,16.6348,-3.06577
749,-328,17.2422,2.7655,0,0,0,0,0,0,0,-1,1973,1352,17.2422,-2.76546
756,-328,17.6788,2.54285,0,0,0,0,0,0,0,-1,1980,1352,17.6789,-2.5429
763,-328,0,0,0,0,0,0,0,0,0,-1,1987,1352,0,0
770,-328,0,0,0,0,0,0,0,0,0,-1,1994,1352,0,0
777,-328,0,0,0,0,0,0,0,0,0,-1,2001,1352,0,0
784,-328,0,0,0,0,0,0,0,0,0,-1,2008,1352,0,0
791,-328,0,0,0,0,0,0,0,0,0,-1,2015,1352,0,0
798,-328,0,0,0,0,0,0,0,0,0,-1,2022,1352,0,0
805,-328,0,0,0,0,0,0,0,0,0,-1,2029,1352,0,0
812,-328,0,0,0,0,0,0,0,0,0,-1,2036,1352,0,0
-700,-335,0,0,0,0,0,0,0,0,0,-1,524,1359,0,0
-693,-335,0,0,0,0,0,0,0,0,0,-1,531,1359,0,0
-686,-335,0,0,0,0,0,0,0,0,0,-1,538,1359,0,0
-679,-335,0,0,0,0,0,0,0,0,0,-1,545,1359,0,0
-672,-335,0,0,0,0,0,0,0,0,0,-1,552,1359,0,0
-665,-335,0,0,0,0,0,0,0,0,0,-1,559,1359,0,0
-658,-335,0,0,0,0,0,0,0,0,0,-1,566,1359,0,0
-651,-335,0,0,0,0,0,0,0,0,0,-1,573,1359,0,0
-644,-335,0,0,0,0,0,0,0,0,0,-1,580,1359,0,0
-637,-335,-9.02472,4.46582,0,0,0,0,0,0,0,-1,587,1359,-9.02471,-4.46582
-630,-335,-8.73334,2.80054,0.0611723,-0.0173324,-0.0945488,0.124293,-0.080453,-0.588647,0.11911,0.0476087,594,1359,-8.73331,-2.80056
-623,-335,-8.43304,1.09509,0.0495147,-0.010145,-0.0765254,0.101819,-0.062449,-0.599556,0.0957436,0.0470729,601,1359,-8.43301,-1.09507
-616,-335,-7.80927,-0.485352,0,0,0,0,0,0,0,-1,608,1359,-7.80926,0.485291
-609,-335,-7.12256,-2.03601,0,0,0,0,0,0,0,-1,615,1359,-7.12253,2.03601
-602,-335,-7.3559,1.8833,0,0,0,0,0,0,0,-1,622,1359,-7.35592,-1.88333
-595,-335,-7.27759,2.26172,0,0,0,0,0,0,0,-1,629,1359,-7.27756,-2.26178
-588,-335,-7.23578,2.60229,0.0114103,0.00424539,-0.0142667,0.0225375,-0.00688178,-0.662388,0.0177688,0.0400801,636,1359,-7.23576,-2.60232
-581,-335,-7.41571,2.79736,0.0072972,0.0042794,-0.00789069,0.013822,-0.00224537,-0.690926,0.0100471,0.0221613,643,1359,-7.41571,-2.79741
-574,-335,-7.41931,3.02344,0.0034031,0.00364849,-0.0016565,0.00518683,0.00186476,-0.822364,0.00303376,0.0117869,650,1359,-7.41928,-3.02348
-567,-335,-7.40881,3.28967,0.000887549,0.00203815,0.0015543,0.0031202,-0.0001945,0.962648,0.00214791,0.0155668,657,1359,-7.40881,-3.28963
-560,-335,-7.39514,3.49133,0.00016025,0.000774982,0.00125146,0.00175627,-0.000821036,0.905817,0.00152031,0.0241832,664,1359,-7.39516,-3.49127
-553,-335,-7.40533,3.74414,-0.000114425,-0.000183334,0.000124977,-1.92395e-05,-0.000278519,0.650897,0.00017961,0.0277866,671,1359,-7.40534,-3.7442
-546,-335,-7.43176,4.04321,-0.00025896,-0.00102697,-0.000928161,0.000361496,-0.00164743,-0.589256,0.00123653,0.0260365,678,1359,-7.43176,-4.04322
-539,-335,-7.47101,4.27393,-0.000783401,-0.00116789,-0.0018529,0.000887206,-0.00283849,-0.733707,0.00224722,0.0209082,685,1359,-7.47103,-4.2739
-532,-335,-7.46362,4.51208,-0.00160375,0.000206625,-0.00227753,0.00175225,-0.00314938,-0.974548,0.00286802,0.015268,692,1359,-7.46365,-4.51207
-525,-335,-7.39758,4.77283,-0.00175881,0.00165393,-0.00276017,0.0031926,-0.00329748,-1.06225,0.00374721,0.0101586,699,1359,-7.3976,-4.77281
-518,-335,-7.36304,5.02515,0.00351179,0.00260898,-0.00561706,0.00869555,-0.00257478,-0.745302,0.0068193,0.0205634,706,1359,-7.36303,-5.02518
-511,-335,-7.52588,4.93738,0.0115583,0.0046521,-0.00922623,0.0179564,-0.00174607,-0.606334,0.0125934,0.0444819,713,1359,-7.52585,-4.93743
-504,-335,-7.9751,4.90894,0,0,0,0,0,0,0,-1,720,1359,-7.97511,-4.90895
-497,-335,-8.64069,6.18774,0,0,0,0,0,0,0,-1,727,1359,-8.64071,-6.18775
-490,-335,-10.8923,4.43506,0,0,0,0,0,0,0,-1,734,1359,-10.8923,-4.43506
-483,-335,-10.9349,4.52917,0,0,0,0,0,0,0,-1,741,1359,-10.9349,-4.52922
-476,-335,-11.0251,4.48193,0,0,0,0,0,0,0,-1,748,1359,-11.0251,-4.48189
-469,-335,-9.29352,-0.314209,0,0,0,0,0,0,0,-1,755,1359,-9.29354,0.31417
-462,-335,-8.97974,-0.854858,0.0913535,0.0292985,-0.0454862,0.115387,0.00526514,-0.486082,0.075231,0.0464452,762,1359,-8.97975,0.854914
-455,-335,-8.19263,-1.05273,0.0959796,0.0406663,-0.0562729,0.131025,0.00562104,-0.556996,0.0855378,0.0464479,769,1359,-8.19262,1.05272
-448,-335,0,0,0,0,0,0,0,0,0,-1,776,1359,0,0
-441,-335,0,0,0,0,0,0,0,0,0,-1,783,1359,0,0
-434,-335,0,0,0,0,0,0,0,0,0,-1,790,1359,0,0
-427,-335,0,0,0,0,0,0,0,0,0,-1,797,1359,0,0
-420,-335,0,0,0,0,0,0,0,0,0,-1,804,1359,0,0
-413,-335,0,0,0,0,0,0,0,0,0,-1,811,1359,0,0
-406,-335,0,0,0,0,0,0,0,0,0,-1,818,1359,0,0
-399,-335,0,0,0,0,0,0,0,0,0,-1,825,1359,0,0
-392,-335,0,0,0,0,0,0,0,0,0,-1,832,1359,0,0
-385,-335,0,0,0,0,0,0,0,0,0,-1,839,1359,0,0
-378,-335,0,0,0,0,0,0,0,0,0,-1,846,1359,0,0
-371,-335,0,0,0,0,0,0,0,0,0,-1,853,1359,0,0
-364,-335,0,0,0,0,0,0,0,0,0,-1,860,1359,0,0
-357,-335,0,0,0,0,0,0,0,0,0,-1,867,1359,0,0
-350,-335,0,0,0,0,0,0,0,0,0,-1,874,1359,0,0
-343,-335,0,0,0,0,0,0,0,0,0,-1,881,1359,0,0
-336,-335,0,0,0,0,0,0,0,0,0,-1,888,1359,0,0
-329,-335,0,0,0,0,0,0,0,0,0,-1,895,1359,0,0
-322,-335,0,0,0,0,0,0,0,0,0,-1,902,1359,0,0
-315,-335,0,0,0,0,0,0,0,0,0,-1,909,1359,0,0
-308,-335,0,0,0,0,0,0,0,0,0,-1,916,1359,0,0
-301,-335,0,0,0,0,0,0,0,0,0,-1,923,1359,0,0
-294,-335,0,0,0,0,0,0,0,0,0,-1,930,1359,0,0
-287,-335,0,0,0,0,0,0,0,0,0,-1,937,1359,0,0
-280,-335,0,0,0,0,0,0,0,0,0,-1,944,1359,0,0
-273,-335,0,0,0,0,0,0,0,0,0,-1,951,1359,0,0
-266,-335,0,0,0,0,0,0,0,0,0,-1,958,1359,0,0
-259,-335,0,0,0,0,0,0,0,0,0,-1,965,1359,0,0
-252,-335,0,0,0,0,0,0,0,0,0,-1,972,1359,0,0
-245,-335,0,0,0,0,0,0,0,0,0,-1,979,1359,0,0
-238,-335,0,0,0,0,0,0,0,0,0,-1,986,1359,0,0
-231,-335,0,0,0,0,0,0,0,0,0,-1,993,1359,0,0
-224,-335,0,0,0,0,0,0,0,0,0,-1,1000,1359,0,0
-217,-335,0,0,0,0,0,0,0,0,0,-1,1007,1359,0,0
-210,-335,0,0,0,0,0,0,0,0,0,-1,1014,1359,0,0
-203,-335,0,0,0,0,0,0,0,0,0,-1,1021,1359,0,0
-196,-335,0,0,0,0,0,0,0,0,0,-1,1028,1359,0,0
-189,-335,0,0,0,0,0,0,0,0,0,-1,1035,1359,0,0
-182,-335,0,0,0,0,0,0,0,0,0,-1,1042,1359,0,0
-175,-335,0,0,0,0,0,0,0,0,0,-1,1049,1359,0,0
-168,-335,0,0,0,0,0,0,0,0,0,-1,1056,1359,0,0
-161,-335,0,0,0,0,0,0,0,0,0,-1,1063,1359,0,0
-154,-335,0,0,0,0,0,0,0,0,0,-1,1070,1359,0,0
-147,-335,0,0,0,0,0,0,0,0,0,-1,1077,1359,0,0
-140,-335,0,0,0,0,0,0,0,0,0,-1,1084,1359,0,0
-133,-335,0,0,0,0,0,0,0,0,0,-1,1091,1359,0,0
-126,-335,0,0,0,0,0,0,0,0,0,-1,1098,1359,0,0
-119,-335,0,0,0,0,0,0,0,0,0,-1,1105,1359,0,0
-112,-335,0,0,0,0,0,0,0,0,0,-1,1112,1359,0,0
-105,-335,0,0,0,0,0,0,0,0,0,-1,1119,1359,0,0
-98,-335,0,0,0,0,0,0,0,0,0,-1,1126,1359,0,0
-91,-335,0,0,0,0,0,0,0,0,0,-1,1133,1359,0,0
-84,-335,0,0,0,0,0,0,0,0,0,-1,1140,1359,0,0
-77,-335,0,0,0,0,0,0,0,0,0,-1,1147,1359,0,0
-70,-335,0,0,0,0,0,0,0,0,0,-1,1154,1359,0,0
-63,-335,0,0,0,0,0,0,0,0,0,-1,1161,1359,0,0
-56,-335,0,0,0,0,0,0,0,0,0,-1,1168,1359,0,0
-49,-335,0,0,0,0,0,0,0,0,0,-1,1175,1359,0,0
-42,-335,0,0,0,0,0,0,0,0,0,-1,1182,1359,0,0
-35,-335,0,0,0,0,0,0,0,0,0,-1,1189,1359,0,0
-28,-335,0,0,0,0,0,0,0,0,0,-1,1196,1359,0,0
-21,-335,0,0,0,0,0,0,0,0,0,-1,1203,1359,0,0
-14,-335,0,0,0,0,0,0,0,0,0,-1,1210,1359,0,0
-7,-335,0,0,0,0,0,0,0,0,0,-1,1217,1359,0,0
0,-335,0,0,0,0,0,0,0,0,0,-1,1224,1359,0,0
7,-335,0,0,0,0,0,0,0,0,0,-1,1231,1359,0,0
14,-335,0,0,0,0,0,0,0,0,0,-1,1238,1359,0,0
21,-335,0,0,0,0,0,0,0,0,0,-1,1245,1359,0,0
28,-335,0,0,0,0,0,0,0,0,0,-1,1252,1359,0,0
35,-335,0,0,0,0,0,0,0,0,0,-1,1259,1359,0,0
42,-335,0,0,0,0,0,0,0,0,0,-1,1266,1359,0,0
49,-335,0,0,0,0,0,0,0,0,0,-1,1273,1359,0,0
56,-335,0,0,0,0,0,0,0,0,0,-1,1280,1359,0,0
63,-335,0,0,0,0,0,0,0,0,0,-1,1287,1359,0,0
70,-335,0,0,0,0,0,0,0,0,0,-1,1294,1359,0,0
77,-335,0,0,0,0,0,0,0,0,0,-1,1301,1359,0,0
84,-335,0,0,0,0,0,0,0,0,0,-1,1308,1359,0,0
91,-335,0,0,0,0,0,0,0,0,0,-1,1315,1359,0,0
98,-335,0,0,0,0,0,0,0,0,0,-1,1322,1359,0,0
105,-335,0,0,0,0,0,0,0,0,0,-1,1329,1359,0,0
112,-335,0,0,0,0,0,0,0,0,0,-1,1336,1359,0,0
119,-335,0,0,0,0,0,0,0,0,0,-1,1343,1359,0,0
126,-335,0,0,0,0,0,0,0,0,0,-1,1350,1359,0,0
133,-335,0,0,0,0,0,0,0,0,0,-1,1357,1359,0,0
140,-335,0,0,0,0,0,0,0,0,0,-1,1364,1359,0,0
147,-335,0,0,0,0,0,0,0,0,0,-1,1371,1359,0,0
154,-335,0,0,0,0,0,0,0,0,0,-1,1378,1359,0,0
161,-335,0,0,0,0,0,0,0,0,0,-1,1385,1359,0,0
168,-335,0,0,0,0,0,0,0,0,0,-1,1392,1359,0,0
175,-335,0,0,0,0,0,0,0,0,0,-1,1399,1359,0,0
182,-335,0,0,0,0,0,0,0,0,0,-1,1406,1359,0,0
189,-335,0,0,0,0,0,0,0,0,0,-1,1413,1359,0,0
196,-335,0,0,0,0,0,0,0,0,0,-1,1420,1359,0,0
203,-335,0,0,0,0,0,0,0,0,0,-1,1427,1359,0,0
210,-335,0,0,0,0,0,0,0,0,0,-1,1434,1359,0,0
217,-335,0,0,0,0,0,0,0,0,0,-1,1441,1359,0,0
224,-335,0,0,0,0,0,0,0,0,0,-1,1448,1359,0,0
231,-335,0,0,0,0,0,0,0,0,0,-1,1455,1359,0,0
238,-335,0,0,0,0,0,0,0,0,0,-1,1462,1359,0,0
245,-335,0,0,0,0,0,0,0,0,0,-1,1469,1359,0,0
252,-335,0,0,0,0,0,0,0,0,0,-1,1476,1359,0,0
259,-335,0,0,0,0,0,0,0,0,0,-1,1483,1359,0,0
266,-335,0,0,0,0,0,0,0,0,0,-1,1490,1359,0,0
273,-335,0,0,0,0,0,0,0,0,0,-1,1497,1359,0,0
280,-335,0,0,0,0,0,0,0,0,0,-1,1504,1359,0,0
287,-335,0,0,0,0,0,0,0,0,0,-1,1511,1359,0,0
294,-335,0,0,0,0,0,0,0,0,0,-1,1518,1359,0,0
301,-335,0,0,0,0,0,0,0,0,0,-1,1525,1359,0,0
308,-335,0,0,0,0,0,0,0,0,0,-1,1532,1359,0,0
315,-335,0,0,0,0,0,0,0,0,0,-1,1539,1359,0,0
322,-335,0,0,0,0,0,0,0,0,0,-1,1546,1359,0,0
329,-335,0,0,0,0,0,0,0,0,0,-1,1553,1359,0,0
336,-335,0,0,0,0,0,0,0,0,0,-1,1560,1359,0,0
343,-335,0,0,0,0,0,0,0,0,0,-1,1567,1359,0,0
350,-335,0,0,0,0,0,0,0,0,0,-1,1574,1359,0,0
357,-335,0,0,0,0,0,0,0,0,0,-1,1581,1359,0,0
364,-335,0,0,0,0,0,0,0,0,0,-1,1588,1359,0,0
371,-335,0,0,0,0,0,0,0,0,0,-1,1595,1359,0,0
378,-335,0,0,0,0,0,0,0,0,0,-1,1602,1359,0,0
385,-335,0,0,0,0,0,0,0,0,0,-1,1609,1359,0,0
392,-335,0,0,0,0,0,0,0,0,0,-1,1616,1359,0,0
399,-335,0,0,0,0,0,0,0,0,0,-1,1623,1359,0,0
406,-335,0,0,0,0,0,0,0,0,0,-1,1630,1359,0,0
413,-335,0,0,0,0,0,0,0,0,0,-1,1637,1359,0,0
420,-335,0,0,0,0,0,0,0,0,0,-1,1644,1359,0,0
427,-335,0,0,0,0,0,0,0,0,0,-1,1651,1359,0,0
434,-335,0,0,0,0,0,0,0,0,0,-1,1658,1359,0,0
441,-335,0,0,0,0,0,0,0,0,0,-1,1665,1359,0,0
448,-335,0,0,0,0,0,0,0,0,0,-1,1672,1359,0,0
455,-335,0,0,0,0,0,0,0,0,0,-1,1679,1359,0,0
462,-335,0,0,0,0,0,0,0,0,0,-1,1686,1359,0,0
469,-335,0,0,0,0,0,0,0,0,0,-1,1693,1359,0,0
476,-335,0,0,0,0,0,0,0,0,0,-1,1700,1359,0,0
483,-335,0,0,0,0,0,0,0,0,0,-1,1707,1359,0,0
490,-335,0,0,0,0,0,0,0,0,0,-1,1714,1359,0,0
497,-335,0,0,0,0,0,0,0,0,0,-1,1721,1359,0,0
504,-335,0,0,0,0,0,0,0,0,0,-1,1728,1359,0,0
511,-335,0,0,0,0,0,0,0,0,0,-1,1735,1359,0,0
518,-335,0,0,0,0,0,0,0,0,0,-1,1742,1359,0,0
525,-335,0,0,0,0,0,0,0,0,0,-1,1749,1359,0,0
532,-335,0,0,0,0,0,0,0,0,0,-1,1756,1359,0,0
539,-335,0,0,0,0,0,0,0,0,0,-1,1763,1359,0,0
546,-335,0,0,0,0,0,0,0,0,0,-1,1770,1359,0,0
553,-335,0,0,0,0,0,0,0,0,0,-1,1777,1359,0,0
560,-335,0,0,0,0,0,0,0,0,0,-1,1784,1359,0,0
567,-335,0,0,0,0,0,0,0,0,0,-1,1791,1359,0,0
574,-335,15.561,1.88159,0,0,0,0,0,0,0,-1,1798,1359,15.561,-1.88157
581,-335,16.1195,2.17383,0,0,0,0,0,0,0,-1,1805,1359,16.1196,-2.17389
588,-335,16.4966,1.83911,0,0,0,0,0,0,0,-1,1812,1359,16.4966,-1.83909
595,-335,17.4906,2.08313,0,0,0,0,0,0,0,-1,1819,1359,17.4906,-2.08311
602,-335,18.0172,2.40796,0,0,0,0,0,0,0,-1,1826,1359,18.0173,-2.40795
609,-335,20.7448,3.45325,0,0,0,0,0,0,0,-1,1833,1359,20.7448,-3.45319
616,-335,20.235,3.80811,0,0,0,0,0,0,0,-1,1840,1359,20.235,-3.80812
623,-335,19.657,4.21265,0,0,0,0,0,0,0,-1,1847,1359,19.6569,-4.2127
630,-335,15.4825,6.28235,0,0,0,0,0,0,0,-1,1854,1359,15.4826,-6.28231
637,-335,16.7556,6.72754,0,0,0,0,0,0,0,-1,1861,1359,16.7556,-6.72754
644,-335,16.3989,6.79797,0.0211305,-0.00626257,0.0214087,0.032849,-0.0179811,0.500825,0.0297623,0.0477961,1868,1359,16.3989,-6.79796
651,-335,16.0565,6.84375,0.00964573,-0.00766488,0.0170634,0.0201235,-0.0181426,0.550685,0.0221028,0.0241928,1875,1359,16.0565,-6.8437
658,-335,15.9933,6.69019,-9.73657e-06,-0.00802923,0.0105497,0.0072665,-0.0153055,0.603788,0.0133046,0.0149887,1882,1359,15.9933,-6.6902
665,-335,15.9984,6.44653,-0.00159136,-0.00618379,0.00750709,0.00396284,-0.011738,0.63698,0.00942809,0.0129992,1889,1359,15.9985,-6.44648
672,-335,16.0236,6.20215,-0.00252512,-0.00423624,0.0049817,0.00167395,-0.00843531,0.700358,0.00625662,0.0157349,1896,1359,16.0235,-6.2022
679,-335,16.0337,5.99683,-0.00244947,-0.00237117,0.00314296,0.000732888,-0.00555353,0.791626,0.00396927,0.0136321,1903,1359,16.0337,-5.99684
686,-335,16.0359,5.78113,-0.00167733,-0.0010153,0.00178758,0.000471659,-0.00316429,0.876948,0.00228304,0.0107259,1910,1359,16.0359,-5.78109
693,-335,16.0255,5.5575,-0.00135171,-5.45916e-05,0.000854218,0.000369378,-0.00177568,1.11009,0.0013242,0.00971346,1917,1359,16.0255,-5.55748
700,-335,16.0145,5.36035,-0.0012669,0.000852886,0.00022401,0.0008763,-0.00129031,1.46665,0.00125848,0.0108437,1924,1359,16.0145,-5.36036
707,-335,16.0166,5.13953,-0.00147797,0.00155099,-7.13494e-05,0.00155267,-0.00147965,-1.54726,0.00175088,0.0138689,1931,1359,16.0166,-5.13954
714,-335,16.0614,4.89502,-0.00230686,0.00203595,0.000201558,0.00204529,-0.0023162,1.52452,0.00251972,0.0206108,1938,1359,16.0615,-4.89503
721,-335,15.9139,4.68958,-0.0035912,0.00268712,0.000787392,0.00278437,-0.00368845,1.44792,0.00374921,0.039627,1945,1359,15.914,-4.68959
728,-335,15.9846,4.43005,0,0,0,0,0,0,0,-1,1952,1359,15.9846,-4.43003
735,-335,17.4161,3.82312,0,0,0,0,0,0,0,-1,1959,1359,17.4161,-3.82314
742,-335,16.1804,2.85046,0,0,0,0,0,0,0,-1,1966,1359,16.1805,-2.85046
749,-335,16.4974,2.45703,0,0,0,0,0,0,0,-1,1973,1359,16.4974,-2.45707
756,-335,14.8652,1.00085,0,0,0,0,0,0,0,-1,1980,1359,14.8652,-1.00091
763,-335,0,0,0,0,0,0,0,0,0,-1,1987,1359,0,0
770,-335,0,0,0,0,0,0,0,0,0,-1,1994,1359,0,0
777,-335,0,0,0,0,0,0,0,0,0,-1,2001,1359,0,0
784,-335,0,0,0,0,0,0,0,0,0,-1,2008,1359,0,0
791,-335,0,0,0,0,0,0,0,0,0,-1,2015,1359,0,0
798,-335,0,0,0,0,0,0,0,0,0,-1,2022,1359,0,0
805,-335,0,0,0,0,0,0,0,0,0,-1,2029,1359,0,0
812,-335,0,0,0,0,0,0,0,0,0,-1,2036,1359,0,0
-700,-342,0,0,0,0,0,0,0,0,0,-1,524,1366,0,0
-693,-342,0,0,0,0,0,0,0,0,0,-1,531,1366,0,0
-686,-342,0,0,0,0,0,0,0,0,0,-1,538,1366,0,0
-679,-342,0,0,0,0,0,0,0,0,0,-1,545,1366,0,0
-672,-342,0,0,0,0,0,0,0,0,0,-1,552,1366,0,0
-665,-342,0,0,0,0,0,0,0,0,0,-1,559,1366,0,0
-658,-342,0,0,0,0,0,0,0,0,0,-1,566,1366,0,0
-651,-342,0,0,0,0,0,0,0,0,0,-1,573,1366,0,0
-644,-342,0,0,0,0,0,0,0,0,0,-1,580,1366,0,0
-637,-342,-8.67786,-4.58557,0,0,0,0,0,0,0,-1,587,1366,-8.67788,4.5856
-630,-342,-8.60132,2.71777,0,0,0,0,0,0,0,-1,594,1366,-8.60135,-2.71779
-623,-342,-8.41168,0.662476,0,0,0,0,0,0,0,-1,601,1366,-8.41168,-0.662442
-616,-342,-6.625,-1.28015,0,0,0,0,0,0,0,-1,608,1366,-6.62499,1.28011
-609,-342,-6.84503,2.71887,0,0,0,0,0,0,0,-1,615,1366,-6.84506,-2.7189
-602,-342,-6.74878,2.61841,0,0,0,0,0,0,0,-1,622,1366,-6.7488,-2.61844
-595,-342,-6.97919,2.10352,0,0,0,0,0,0,0,-1,629,1366,-6.97917,-2.10348
-588,-342,-6.98578,2.48682,0.0162303,0.00578722,-0.0106379,0.022859,-0.000841498,-0.55725,0.0155274,0.045305,636,1366,-6.98576,-2.48683
-581,-342,-7.1554,2.71814,0.0106573,0.00543838,-0.00488341,0.0135847,0.00251096,-0.540024,0.00834634,0.0382767,643,1366,-7.15537,-2.7181
-574,-342,-7.20135,3.04797,0.00579467,0.00457757,0.000622586,0.00605672,0.00431552,0.3984,0.0036006,0.0116003,650,1366,-7.20135,-3.04793
-567,-342,-7.12964,3.28809,0.00256091,0.00294525,0.00303478,0.00579393,-0.000287778,0.817017,0.00396203,0.0171158,657,1366,-7.12961,-3.28808
-560,-342,-7.14825,3.45728,0.00131039,0.00167401,0.00214555,0.00364543,-0.000661036,0.827666,0.00267797,0.025143,664,1366,-7.14824,-3.45727
-553,-342,-7.17761,3.70239,0.000631518,0.00058677,0.000765555,0.00137503,-0.000156738,0.77079,0.000973147,0.0268359,671,1366,-7.17759,-3.70234
-546,-342,-7.19739,4.00134,0.000262681,-0.00043942,-0.000367813,0.000420082,-0.000596821,-0.404356,0.000590057,0.0277447,678,1366,-7.19736,-4.00134
-539,-342,-7.19714,4.2876,-0.000223364,-0.001073,-0.0012555,0.000677245,-0.00197361,-0.622262,0.00159031,0.0233166,685,1366,-7.19713,-4.2876
-532,-342,-7.18134,4.5459,-0.000534184,-0.000754828,-0.00158536,0.00094469,-0.0022337,-0.75066,0.00188468,0.0175331,692,1366,-7.18132,-4.54585
-525,-342,-7.13647,4.79187,-0.000258352,-0.000223089,-0.00180394,0.0015633,-0.00204475,-0.790285,0.00208928,0.0112426,699,1366,-7.13648,-4.79188
-518,-342,-7.12549,5.05151,0.00517772,-8.11442e-05,-0.00439382,0.00766879,-0.00257222,-0.515763,0.00615187,0.0143654,706,1366,-7.12551,-5.05156
-511,-342,-7.14667,5.14868,0.0137323,0.00127934,-0.00797036,0.0176199,-0.00260831,-0.453811,0.0127056,0.0400679,713,1366,-7.14665,-5.14874
-504,-342,-7.0769,5.21802,0,0,0,0,0,0,0,-1,720,1366,-7.07689,-5.21798
-497,-342,-6.69183,5.16785,0,0,0,0,0,0,0,-1,727,1366,-6.69185,-5.16783
-490,-342,-10.7191,5.06116,0,0,0,0,0,0,0,-1,734,1366,-10.719,-5.06113
-483,-342,-10.5609,5.42004,0,0,0,0,0,0,0,-1,741,1366,-10.5609,-5.42006
-476,-342,-11.0223,0.688477,0,0,0,0,0,0,0,-1,748,1366,-11.0223,-0.688502
-469,-342,-10.176,-0.218872,0.0799144,0.0203186,-0.0380527,0.0984479,0.00178508,-0.453232,0.0650451,0.044846,755,1366,-10.176,0.218926
-462,-342,-9.09064,-1.02039,0.0914036,0.026916,-0.0465123,0.115755,0.00256429,-0.482313,0.0763298,0.0456697,762,1366,-9.09064,1.02034
-455,-342,-8.02997,-1.75684,0.0947236,0.0381454,-0.0586092,0.131514,0.00135526,-0.560553,0.0872276,0.0490024,769,1366,-8.02997,1.75678
-448,-342,-6.98383,-2.47107,0,0,0,0,0,0,0,-1,776,1366,-6.98385,2.47113
-441,-342,0,0,0,0,0,0,0,0,0,-1,783,1366,0,0
-434,-342,0,0,0,0,0,0,0,0,0,-1,790,1366,0,0
-427,-342,0,0,0,0,0,0,0,0,0,-1,797,1366,0,0
-420,-342,0,0,0,0,0,0,0,0,0,-1,804,1366,0,0
-413,-342,0,0,0,0,0,0,0,0,0,-1,811,1366,0,0
-406,-342,0,0,0,0,0,0,0,0,0,-1,818,1366,0,0
-399,-342,0,0,0,0,0,0,0,0,0,-1,825,1366,0,0
-392,-342,0,0,0,0,0,0,0,0,0,-1,832,1366,0,0
-385,-342,0,0,0,0,0,0,0,0,0,-1,839,1366,0,0
-378,-342,0,0,0,0,0,0,0,0,0,-1,846,1366,0,0
-371,-342,0,0,0,0,0,0,0,0,0,-1,853,1366,0,0
-364,-342,0,0,0,0,0,0,0,0,0,-1,860,1366,0,0
-357,-342,0,0,0,0,0,0,0,0,0,-1,867,1366,0,0
-350,-342,0,0,0,0,0,0,0,0,0,-1,874,1366,0,0
-343,-342,0,0,0,0,0,0,0,0,0,-1,881,1366,0,0
-336,-342,0,0,0,0,0,0,0,0,0,-1,888,1366,0,0
-329,-342,0,0,0,0,0,0,0,0,0,-1,895,1366,0,0
-322,-342,0,0,0,0,0,0,0,0,0,-1,902,1366,0,0
-315,-342,0,0,0,0,0,0,0,0,0,-1,909,1366,0,0
-308,-342,0,0,0,0,0,0,0,0,0,-1,916,1366,0,0
-301,-342,0,0,0,0,0,0,0,0,0,-1,923,1366,0,0
-294,-342,0,0,0,0,0,0,0,0,0,-1,930,1366,0,0
-287,-342,0,0,0,0,0,0,0,0,0,-1,937,1366,0,0
-280,-342,0,0,0,0,0,0,0,0,0,-1,944,1366,0,0
-273,-342,0,0,0,0,0,0,0,0,0,-1,951,1366,0,0
-266,-342,0,0,0,0,0,0,0,0,0,-1,958,1366,0,0
-259,-342,0,0,0,0,0,0,0,0,0,-1,965,1366,0,0
-252,-342,0,0,0,0,0,0,0,0,0,-1,972,1366,0,0
-245,-342,0,0,0,0,0,0,0,0,0,-1,979,1366,0,0
-238,-342,0,0,0,0,0,0,0,0,0,-1,986,1366,0,0
-231,-342,0,0,0,0,0,0,0,0,0,-1,993,1366,0,0
-224,-342,0,0,0,0,0,0,0,0,0,-1,1000,1366,0,0
-217,-342,0,0,0,0,0,0,0,0,0,-1,1007,1366,0,0
-210,-342,0,0,0,0,0,0,0,0,0,-1,1014,1366,0,0
-203,-342,0,0,0,0,0,0,0,0,0,-1,1021,1366,0,0
-196,-342,0,0,0,0,0,0,0,0,0,-1,1028,1366,0,0
-189,-342,0,0,0,0,0,0,0,0,0,-1,1035,1366,0,0
-182,-342,0,0,0,0,0,0,0,0,0,-1,1042,1366,0,0
-175,-342,0,0,0,0,0,0,0,0,0,-1,1049,1366,0,0
-168,-342,0,0,0,0,0,0,0,0,0,-1,1056,1366,0,0
-161,-342,0,0,0,0,0,0,0,0,0,-1,1063,1366,0,0
-154,-342,0,0,0,0,0,0,0,0,0,-1,1070,1366,0,0
-147,-342,0,0,0,0,0,0,0,0,0,-1,1077,1366,0,0
-140,-342,0,0,0,0,0,0,0,0,0,-1,1084,1366,0,0
-133,-342,0,0,0,0,0,0,0,0,0,-1,1091,1366,0,0
-126,-342,0,0,0,0,0,0,0,0,0,-1,1098,1366,0,0
-119,-342,0,0,0,0,0,0,0,0,0,-1,1105,1366,0,0
-112,-342,0,0,0,0,0,0,0,0,0,-1,1112,1366,0,0
-105,-342,0,0,0,0,0,0,0,0,0,-1,1119,1366,0,0
-98,-342,0,0,0,0,0,0,0,0,0,-1,1126,1366,0,0
-91,-342,0,0,0,0,0,0,0,0,0,-1,1133,1366,0,0
-84,-342,0,0,0,0,0,0,0,0,0,-1,1140,1366,0,0
-77,-342,0,0,0,0,0,0,0,0,0,-1,1147,1366,0,0
-70,-342,0,0,0,0,0,0,0,0,0,-1,1154,1366,0,0
-63,-342,0,0,0,0,0,0,0,0,0,-1,1161,1366,0,0
-56,-342,0,0,0,0,0,0,0,0,0,-1,1168,1366,0,0
-49,-342,0,0,0,0,0,0,0,0,0,-1,1175,1366,0,0
-42,-342,0,0,0,0,0,0,0,0,0,-1,1182,1366,0,0
-35,-342,0,0,0,0,0,0,0,0,0,-1,1189,1366,0,0
-28,-342,0,0,0,0,0,0,0,0,0,-1,1196,1366,0,0
-21,-342,0,0,0,0,0,0,0,0,0,-1,1203,1366,0,0
-14,-342,0,0,0,0,0,0,0,0,0,-1,1210,1366,0,0
-7,-342,0,0,0,0,0,0,0,0,0,-1,1217,1366,0,0
0,-342,0,0,0,0,0,0,0,0,0,-1,1224,1366,0,0
7,-342,0,0,0,0,0,0,0,0,0,-1,1231,1366,0,0
14,-342,0,0,0,0,0,0,0,0,0,-1,1238,1366,0,0
21,-342,0,0,0,0,0,0,0,0,0,-1,1245,1366,0,0
28,-342,0,0,0,0,0,0,0,0,0,-1,1252,1366,0,0
35,-342,0,0,0,0,0,0,0,0,0,-1,1259,1366,0,0
42,-342,0,0,0,0,0,0,0,0,0,-1,1266,1366,0,0
49,-342,0,0,0,0,0,0,0,0,0,-1,1273,1366,0,0
56,-342,0,0,0,0,0,0,0,0,0,-1,1280,1366,0,0
63,-342,0,0,0,0,0,0,0,0,0,-1,1287,1366,0,0
70,-342,0,0,0,0,0,0,0,0,0,-1,1294,1366,0,0
77,-342,0,0,0,0,0,0,0,0,0,-1,1301,1366,0,0
84,-342,0,0,0,0,0,0,0,0,0,-1,1308,1366,0,0
91,-342,0,0,0,0,0,0,0,0,0,-1,1315,1366,0,0
98,-342,0,0,0,0,0,0,0,0,0,-1,1322,1366,0,0
105,-342,0,0,0,0,0,0,0,0,0,-1,1329,1366,0,0
112,-342,0,0,0,0,0,0,0,0,0,-1,1336,1366,0,0
119,-342,0,0,0,0,0,0,0,0,0,-1,1343,1366,0,0
126,-342,0,0,0,0,0,0,0,0,0,-1,1350,1366,0,0
133,-342,0,0,0,0,0,0,0,0,0,-1,1357,1366,0,0
140,-342,0,0,0,0,0,0,0,0,0,-1,1364,1366,0,0
147,-342,0,0,0,0,0,0,0,0,0,-1,1371,1366,0,0
154,-342,0,0,0,0,0,0,0,0,0,-1,1378,1366,0,0
161,-342,0,0,0,0,0,0,0,0,0,-1,1385,1366,0,0
168,-342,0,0,0,0,0,0,0,0,0,-1,1392,1366,0,0
175,-342,0,0,0,0,0,0,0,0,0,-1,1399,1366,0,0
182,-342,0,0,0,0,0,0,0,0,0,-1,1406,1366,0,0
189,-342,0,0,0,0,0,0,0,0,0,-1,1413,1366,0,0
196,-342,0,0,0,0,0,0,0,0,0,-1,1420,1366,0,0
203,-342,0,0,0,0,0,0,0,0,0,-1,1427,1366,0,0
210,-342,0,0,0,0,0,0,0,0,0,-1,1434,1366,0,0
217,-342,0,0,0,0,0,0,0,0,0,-1,1441,1366,0,0
224,-342,0,0,0,0,0,0,0,0,0,-1,1448,1366,0,0
231,-342,0,0,0,0,0,0,0,0,0,-1,1455,1366,0,0
238,-342,0,0,0,0,0,0,0,0,0,-1,1462,1366,0,0
245,-342,0,0,0,0,0,0,0,0,0,-1,1469,1366,0,0
252,-342,0,0,0,0,0,0,0,0,0,-1,1476,1366,0,0
259,-342,0,0,0,0,0,0,0,0,0,-1,1483,1366,0,0
266,-342,0,0,0,0,0,0,0,0,0,-1,1490,1366,0,0
273,-342,0,0,0,0,0,0,0,0,0,-1,1497,1366,0,0
280,-342,0,0,0,0,0,0,0,0,0,-1,1504,1366,0,0
287,-342,0,0,0,0,0,0,0,0,0,-1,1511,1366,0,0
294,-342,0,0,0,0,0,0,0,0,0,-1,1518,1366,0,0
301,-342,0,0,0,0,0,0,0,0,0,-1,1525,1366,0,0
308,-342,0,0,0,0,0,0,0,0,0,-1,1532,1366,0,0
315,-342,0,0,0,0,0,0,0,0,0,-1,1539,1366,0,0
322,-342,0,0,0,0,0,0,0,0,0,-1,1546,1366,0,0
329,-342,0,0,0,0,0,0,0,0,0,-1,1553,1366,0,0
336,-342,0,0,0,0,0,0,0,0,0,-1,1560,1366,0,0
343,-342,0,0,0,0,0,0,0,0,0,-1,1567,1366,0,0
350,-342,0,0,0,0,0,0,0,0,0,-1,1574,1366,0,0
357,-342,0,0,0,0,0,0,0,0,0,-1,1581,1366,0,0
364,-342,0,0,0,0,0,0,0,0,0,-1,1588,1366,0,0
371,-342,0,0,0,0,0,0,0,0,0,-1,1595,1366,0,0
378,-342,0,0,0,0,0,0,0,0,0,-1,1602,1366,0,0
385,-342,0,0,0,0,0,0,0,0,0,-1,1609,1366,0,0
392,-342,0,0,0,0,0,0,0,0,0,-1,1616,1366,0,0
399,-342,0,0,0,0,0,0,0,0,0,-1,1623,1366,0,0
406,-342,0,0,0,0,0,0,0,0,0,-1,1630,1366,0,0
413,-342,0,0,0,0,0,0,0,0,0,-1,1637,1366,0,0
420,-342,0,0,0,0,0,0,0,0,0,-1,1644,1366,0,0
427,-342,0,0,0,0,0,0,0,0,0,-1,1651,1366,0,0
434,-342,0,0,0,0,0,0,0,0,0,-1,1658,1366,0,0
441,-342,0,0,0,0,0,0,0,0,0,-1,1665,1366,0,0
448,-342,0,0,0,0,0,0,0,0,0,-1,1672,1366,0,0
455,-342,0,0,0,0,0,0,0,0,0,-1,1679,1366,0,0
462,-342,0,0,0,0,0,0,0,0,0,-1,1686,1366,0,0
469,-342,0,0,0,0,0,0,0,0,0,-1,1693,1366,0,0
476,-342,0,0,0,0,0,0,0,0,0,-1,1700,1366,0,0
483,-342,0,0,0,0,0,0,0,0,0,-1,1707,1366,0,0
490,-342,0,0,0,0,0,0,0,0,0,-1,1714,1366,0,0
497,-342,0,0,0,0,0,0,0,0,0,-1,1721,1366,0,0
504,-342,0,0,0,0,0,0,0,0,0,-1,1728,1366,0,0
511,-342,0,0,0,0,0,0,0,0,0,-1,1735,1366,0,0
518,-342,0,0,0,0,0,0,0,0,0,-1,1742,1366,0,0
525,-342,0,0,0,0,0,0,0,0,0,-1,1749,1366,0,0
532,-342,0,0,0,0,0,0,0,0,0,-1,1756,1366,0,0
539,-342,0,0,0,0,0,0,0,0,0,-1,1763,1366,0,0
546,-342,0,0,0,0,0,0,0,0,0,-1,1770,1366,0,0
553,-342,0,0,0,0,0,0,0,0,0,-1,1777,1366,0,0
560,-342,0,0,0,0,0,0,0,0,0,-1,1784,1366,0,0
567,-342,19.0521,6.35071,0,0,0,0,0,0,0,-1,1791,1366,19.0521,-6.35065
574,-342,16.8334,6.3042,0,0,0,0,0,0,0,-1,1798,1366,16.8333,-6.30423
581,-342,17.3655,6.37537,0,0,0,0,0,0,0,-1,1805,1366,17.3654,-6.37543
588,-342,15.7539,1.39856,0,0,0,0,0,0,0,-1,1812,1366,15.7539,-1.39859
595,-342,16.799,1.90161,0,0,0,0,0,0,0,-1,1819,1366,16.7989,-1.90156
602,-342,20.436,3.20898,0,0,0,0,0,0,0,-1,1826,1366,20.4361,-3.20903
609,-342,19.9427,3.68262,0,0,0,0,0,0,0,-1,1833,1366,19.9428,-3.6826
616,-342,19.4271,4.00525,0,0,0,0,0,0,0,-1,1840,1366,19.4271,-4.00523
623,-342,18.7646,4.39221,0,0,0,0,0,0,0,-1,1847,1366,18.7646,-4.39221
630,-342,15.5282,6.36682,0,0,0,0,0,0,0,-1,1854,1366,15.5281,-6.36686
637,-342,16.196,6.76172,0,0,0,0,0,0,0,-1,1861,1366,16.1961,-6.76174
644,-342,15.8451,7.06934,0.0172036,-0.00674401,0.0200531,0.0285857,-0.0181261,0.516254,0.0271935,0.0451215,1868,1366,15.8451,-7.06937
651,-342,15.8148,6.95728,0.00633837,-0.00762802,0.0149892,0.0158912,-0.0171809,0.567407,0.019099,0.0211036,1875,1366,15.8148,-6.95726
658,-342,15.801,6.66553,-0.00130784,-0.00734695,0.00875288,0.00493169,-0.0135865,0.619301,0.0110739,0.0160068,1882,1366,15.8011,-6.66555
665,-342,15.8115,6.43884,-0.00176539,-0.00536673,0.00605558,0.00275157,-0.00988369,0.640883,0.00767258,0.014833,1889,1366,15.8115,-6.4388
672,-342,15.8309,6.22217,-0.00197506,-0.00350831,0.00389612,0.00122914,-0.0067125,0.688256,0.00493599,0.0123653,1896,1366,15.8309,-6.22216
679,-342,15.8014,6.00903,-0.00167793,-0.0018809,0.00237726,0.000600013,-0.00415885,0.764066,0.00299269,0.0121544,1903,1366,15.8014,-6.00903
686,-342,15.8187,5.8103,-0.00114359,-0.000653772,0.00122356,0.000349154,-0.00214652,0.884173,0.00156047,0.010332,1910,1366,15.8187,-5.81032
693,-342,15.8234,5.58582,-0.00102796,0.000193811,0.000461779,0.000348707,-0.00118286,1.24716,0.000926936,0.0113095,1917,1366,15.8234,-5.58584
700,-342,15.7982,5.3479,-0.00114626,0.000957136,-2.02341e-06,0.000957138,-0.00114626,-1.56983,0.00121603,0.0135765,1924,1366,15.7982,-5.34785
707,-342,15.8054,5.11389,-0.00154688,0.00159132,-0.000209627,0.00160526,-0.00156082,-1.50439,0.001828,0.0130564,1931,1366,15.8054,-5.11393
714,-342,15.8214,4.94299,-0.002655,0.00197556,0.000203847,0.00198452,-0.00266396,1.52689,0.00269334,0.0320382,1938,1366,15.8214,-4.943
721,-342,15.704,4.61194,0,0,0,0,0,0,0,-1,1945,1366,15.7039,-4.61199
728,-342,15.6195,3.95203,0,0,0,0,0,0,0,-1,1952,1366,15.6195,-3.95201
735,-342,18.151,2.8009,0,0,0,0,0,0,0,-1,1959,1366,18.151,-2.80086
742,-342,17.0383,2.09973,0,0,0,0,0,0,0,-1,1966,1366,17.0383,-2.09969
749,-342,15.6202,1.57239,0,0,0,0,0,0,0,-1,1973,1366,15.6203,-1.57237
756,-342,0,0,0,0,0,0,0,0,0,-1,1980,1366,0,0
763,-342,0,0,0,0,0,0,0,0,0,-1,1987,1366,0,0
770,-342,0,0,0,0,0,0,0,0,0,-1,1994,1366,0,0
777,-342,0,0,0,0,0,0,0,0,0,-1,2001,1366,0,0
784,-342,0,0,0,0,0,0,0,0,0,-1,2008,1366,0,0
791,-342,0,0,0,0,0,0,0,0,0,-1,2015,1366,0,0
798,-342,0,0,0,0,0,0,0,0,0,-1,2022,1366,0,0
805,-342,0,0,0,0,0,0,0,0,0,-1,2029,1366,0,0
812,-342,0,0,0,0,0,0,0,0,0,-1,2036,1366,0,0
-700,-349,0,0,0,0,0,0,0,0,0,-1,524,1373,0,0
-693,-349,0,0,0,0,0,0,0,0,0,-1,531,1373,0,0
-686,-349,0,0,0,0,0,0,0,0,0,-1,538,1373,0,0
-679,-349,0,0,0,0,0,0,0,0,0,-1,545,1373,0,0
-672,-349,0,0,0,0,0,0,0,0,0,-1,552,1373,0,0
-665,-349,0,0,0,0,0,0,0,0,0,-1,559,1373,0,0
-658,-349,0,0,0,0,0,0,0,0,0,-1,566,1373,0,0
-651,-349,0,0,0,0,0,0,0,0,0,-1,573,1373,0,0
-644,-349,0,0,0,0,0,0,0,0,0,-1,580,1373,0,0
-637,-349,0,0,0,0,0,0,0,0,0,-1,587,1373,0,0
-630,-349,-7.64117,-5.06177,0,0,0,0,0,0,0,-1,594,1373,-7.64118,5.0618
-623,-349,-8.63507,0.51123,0,0,0,0,0,0,0,-1,601,1373,-8.63505,-0.511275
-616,-349,-5.2066,-0.188232,0,0,0,0,0,0,0,-1,608,1373,-5.20659,0.188211
-609,-349,-6.83978,0.513672,0,0,0,0,0,0,0,-1,615,1373,-6.83978,-0.513629
-602,-349,-5.92725,2.21179,0,0,0,0,0,0,0,-1,622,1373,-5.92726,-2.21176
-595,-349,-6.35199,2.43909,0,0,0,0,0,0,0,-1,629,1373,-6.35199,-2.43915
-588,-349,-6.51031,2.67163,0.0204446,0.00834654,-0.00633607,0.0231555,0.00563563,-0.404286,0.0139434,0.0499709,636,1373,-6.51029,-2.67163
-581,-349,-6.68115,2.86926,0.0136528,0.00736792,-0.00156609,0.0140214,0.0069993,-0.231172,0.00809526,0.0427782,643,1373,-6.68116,-2.86921
-574,-349,-6.90118,2.99341,0.00795572,0.00610837,0.00293921,0.010113,0.00395111,0.633155,0.00588505,0.0218584,650,1373,-6.90116,-2.99339
-567,-349,-6.89832,3.28198,0.00405653,0.00421374,0.00444691,0.00858273,-0.00031247,0.794236,0.00582877,0.0174297,657,1373,-6.89832,-3.28197
-560,-349,-6.90759,3.51538,0.00227175,0.00277039,0.00302746,0.00555877,-0.00051664,0.826482,0.00388952,0.0202316,664,1373,-6.90759,-3.51537
-553,-349,-6.91516,3.72778,0.00123506,0.00155584,0.00142076,0.00282523,-3.43312e-05,0.841605,0.00189504,0.0256752,671,1373,-6.91515,-3.72774
-546,-349,-6.92743,3.99316,0.000699262,0.000486734,0.000178399,0.000800647,0.000385348,0.51679,0.000462362,0.0298093,678,1373,-6.92744,-3.99316
-539,-349,-6.95026,4.29614,0.000282033,-0.000326396,-0.000791768,0.000826019,-0.000870382,-0.601983,0.000979529,0.0243538,685,1373,-6.95025,-4.29615
-532,-349,-6.90533,4.55652,0.000425554,-0.000576704,-0.00121277,0.00123665,-0.0013878,-0.589476,0.00151606,0.0170551,692,1373,-6.90531,-4.55658
-525,-349,-6.90515,4.81262,0.00119748,-0.000559168,-0.00141837,0.00198746,-0.00134914,-0.508171,0.0019381,0.0124152,699,1373,-6.90513,-4.81262
-518,-349,-6.90918,5.06995,0.00658577,-0.000985235,-0.00374253,0.00812347,-0.00252294,-0.389845,0.00642395,0.012466,706,1373,-6.90917,-5.06996
-511,-349,-6.78931,5.31409,0.0151721,-0.00030936,-0.00719962,0.0180027,-0.00313998,-0.374598,0.0131738,0.0338093,713,1373,-6.7893,-5.31406
-504,-349,-6.67834,5.48364,0,0,0,0,0,0,0,-1,720,1373,-6.67834,-5.48367
-497,-349,-7.9339,5.58789,0,0,0,0,0,0,0,-1,727,1373,-7.93388,-5.58785
-490,-349,-6.74347,4.78418,0,0,0,0,0,0,0,-1,734,1373,-6.74346,-4.78422
-483,-349,-5.66974,3.7395,0,0,0,0,0,0,0,-1,741,1373,-5.66975,-3.73949
-476,-349,-10.8496,1.15759,0,0,0,0,0,0,0,-1,748,1373,-10.8496,-1.15756
-469,-349,-10.1903,0.182007,0.0756104,0.0177532,-0.0370441,0.0936832,-0.0003196,-0.453898,0.0625623,0.0466069,755,1373,-10.1903,-0.181951
-462,-349,-9.19409,-0.753662,0.0831782,0.0251382,-0.0455668,0.108181,0.000135113,-0.501854,0.0720759,0.0448545,762,1373,-9.19407,0.753657
-455,-349,-8.05682,-1.56079,0,0,0,0,0,0,0,-1,769,1373,-8.05683,1.56081
-448,-349,-13.0922,3.49646,0,0,0,0,0,0,0,-1,776,1373,-13.0922,-3.49642
-441,-349,0,0,0,0,0,0,0,0,0,-1,783,1373,0,0
-434,-349,0,0,0,0,0,0,0,0,0,-1,790,1373,0,0
-427,-349,0,0,0,0,0,0,0,0,0,-1,797,1373,0,0
-420,-349,0,0,0,0,0,0,0,0,0,-1,804,1373,0,0
-413,-349,0,0,0,0,0,0,0,0,0,-1,811,1373,0,0
-406,-349,0,0,0,0,0,0,0,0,0,-1,818,1373,0,0
-399,-349,0,0,0,0,0,0,0,0,0,-1,825,1373,0,0
-392,-349,0,0,0,0,0,0,0,0,0,-1,832,1373,0,0
-385,-349,0,0,0,0,0,0,0,0,0,-1,839,1373,0,0
-378,-349,0,0,0,0,0,0,0,0,0,-1,846,1373,0,0
-371,-349,0,0,0,0,0,0,0,0,0,-1,853,1373,0,0
-364,-349,0,0,0,0,0,0,0,0,0,-1,860,1373,0,0
-357,-349,0,0,0,0,0,0,0,0,0,-1,867,1373,0,0
-350,-349,0,0,0,0,0,0,0,0,0,-1,874,1373,0,0
-343,-349,0,0,0,0,0,0,0,0,0,-1,881,1373,0,0
-336,-349,0,0,0,0,0,0,0,0,0,-1,888,1373,0,0
-329,-349,0,0,0,0,0,0,0,0,0,-1,895,1373,0,0
-322,-349,0,0,0,0,0,0,0,0,0,-1,902,1373,0,0
-315,-349,0,0,0,0,0,0,0,0,0,-1,909,1373,0,0
-308,-349,0,0,0,0,0,0,0,0,0,-1,916,1373,0,0
-301,-349,0,0,0,0,0,0,0,0,0,-1,923,1373,0,0
-294,-349,0,0,0,0,0,0,0,0,0,-1,930,1373,0,0
-287,-349,0,0,0,0,0,0,0,0,0,-1,937,1373,0,0
-280,-349,0,0,0,0,0,0,0,0,0,-1,944,1373,0,0
-273,-349,0,0,0,0,0,0,0,0,0,-1,951,1373,0,0
-266,-349,0,0,0,0,0,0,0,0,0,-1,958,1373,0,0
-259,-349,0,0,0,0,0,0,0,0,0,-1,965,1373,0,0
-252,-349,0,0,0,0,0,0,0,0,0,-1,972,1373,0,0
-245,-349,0,0,0,0,0,0,0,0,0,-1,979,1373,0,0
-238,-349,0,0,0,0,0,0,0,0,0,-1,986,1373,0,0
-231,-349,0,0,0,0,0,0,0,0,0,-1,993,1373,0,0
-224,-349,0,0,0,0,0,0,0,0,0,-1,1000,1373,0,0
-217,-349,0,0,0,0,0,0,0,0,0,-1,1007,1373,0,0
-210,-349,0,0,0,0,0,0,0,0,0,-1,1014,1373,0,0
-203,-349,0,0,0,0,0,0,0,0,0,-1,1021,1373,0,0
-196,-349,0,0,0,0,0,0,0,0,0,-1,1028,1373,0,0
-189,-349,0,0,0,0,0,0,0,0,0,-1,1035,1373,0,0
-182,-349,0,0,0,0,0,0,0,0,0,-1,1042,1373,0,0
-175,-349,0,0,0,0,0,0,0,0,0,-1,1049,1373,0,0
-168,-349,0,0,0,0,0,0,0,0,0,-1,1056,1373,0,0
-161,-349,0,0,0,0,0,0,0,0,0,-1,1063,1373,0,0
-154,-349,0,0,0,0,0,0,0,0,0,-1,1070,1373,0,0
-147,-349,0,0,0,0,0,0,0,0,0,-1,1077,1373,0,0
-140,-349,0,0,0,0,0,0,0,0,0,-1,1084,1373,0,0
-133,-349,0,0,0,0,0,0,0,0,0,-1,1091,1373,0,0
-126,-349,0,0,0,0,0,0,0,0,0,-1,1098,1373,0,0
-119,-349,0,0,0,0,0,0,0,0,0,-1,1105,1373,0,0
-112,-349,0,0,0,0,0,0,0,0,0,-1,1112,1373,0,0
-105,-349,0,0,0,0,0,0,0,0,0,-1,1119,1373,0,0
-98,-349,0,0,0,0,0,0,0,0,0,-1,1126,1373,0,0
-91,-349,0,0,0,0,0,0,0,0,0,-1,1133,1373,0,0
-84,-349,0,0,0,0,0,0,0,0,0,-1,1140,1373,0,0
-77,-349,0,0,0,0,0,0,0,0,0,-1,1147,1373,0,0
-70,-349,0,0,0,0,0,0,0,0,0,-1,1154,1373,0,0
-63,-349,0,0,0,0,0,0,0,0,0,-1,1161,1373,0,0
-56,-349,0,0,0,0,0,0,0,0,0,-1,1168,1373,0,0
-49,-349,0,0,0,0,0,0,0,0,0,-1,1175,1373,0,0
-42,-349,0,0,0,0,0,0,0,0,0,-1,1182,1373,0,0
-35,-349,0,0,0,0,0,0,0,0,0,-1,1189,1373,0,0
-28,-349,0,0,0,0,0,0,0,0,0,-1,1196,1373,0,0
-21,-349,0,0,0,0,0,0,0,0,0,-1,1203,1373,0,0
-14,-349,0,0,0,0,0,0,0,0,0,-1,1210,1373,0,0
-7,-349,0,0,0,0,0,0,0,0,0,-1,1217,1373,0,0
0,-349,0,0,0,0,0,0,0,0,0,-1,1224,1373,0,0
7,-349,0,0,0,0,0,0,0,0,0,-1,1231,1373,0,0
14,-349,0,0,0,0,0,0,0,0,0,-1,1238,1373,0,0
21,-349,0,0,0,0,0,0,0,0,0,-1,1245,1373,0,0
28,-349,0,0,0,0,0,0,0,0,0,-1,1252,1373,0,0
35,-349,0,0,0,0,0,0,0,0,0,-1,1259,1373,0,0
42,-349,0,0,0,0,0,0,0,0,0,-1,1266,1373,0,0
49,-349,0,0,0,0,0,0,0,0,0,-1,1273,1373,0,0
56,-349,0,0,0,0,0,0,0,0,0,-1,1280,1373,0,0
63,-349,0,0,0,0,0,0,0,0,0,-1,1287,1373,0,0
70,-349,0,0,0,0,0,0,0,0,0,-1,1294,1373,0,0
77,-349,0,0,0,0,0,0,0,0,0,-1,1301,1373,0,0
84,-349,0,0,0,0,0,0,0,0,0,-1,1308,1373,0,0
91,-349,0,0,0,0,0,0,0,0,0,-1,1315,1373,0,0
98,-349,0,0,0,0,0,0,0,0,0,-1,1322,1373,0,0
105,-349,0,0,0,0,0,0,0,0,0,-1,1329,1373,0,0
112,-349,0,0,0,0,0,0,0,0,0,-1,1336,1373,0,0
119,-349,0,0,0,0,0,0,0,0,0,-1,1343,1373,0,0
126,-349,0,0,0,0,0,0,0,0,0,-1,1350,1373,0,0
133,-349,0,0,0,0,0,0,0,0,0,-1,1357,1373,0,0
140,-349,0,0,0,0,0,0,0,0,0,-1,1364,1373,0,0
147,-349,0,0,0,0,0,0,0,0,0,-1,1371,1373,0,0
154,-349,0,0,0,0,0,0,0,0,0,-1,1378,1373,0,0
161,-349,0,0,0,0,0,0,0,0,0,-1,1385,1373,0,0
168,-349,0,0,0,0,0,0,0,0,0,-1,1392,1373,0,0
175,-349,0,0,0,0,0,0,0,0,0,-1,1399,1373,0,0
182,-349,0,0,0,0,0,0,0,0,0,-1,1406,1373,0,0
189,-349,0,0,0,0,0,0,0,0,0,-1,1413,1373,0,0
196,-349,0,0,0,0,0,0,0,0,0,-1,1420,1373,0,0
203,-349,0,0,0,0,0,0,0,0,0,-1,1427,1373,0,0
210,-349,0,0,0,0,0,0,0,0,0,-1,1434,1373,0,0
217,-349,0,0,0,0,0,0,0,0,0,-1,1441,1373,0,0
224,-349,0,0,0,0,0,0,0,0,0,-1,1448,1373,0,0
231,-349,0,0,0,0,0,0,0,0,0,-1,1455,1373,0,0
238,-349,0,0,0,0,0,0,0,0,0,-1,1462,1373,0,0
245,-349,0,0,0,0,0,0,0,0,0,-1,1469,1373,0,0
252,-349,0,0,0,0,0,0,0,0,0,-1,1476,1373,0,0
259,-349,0,0,0,0,0,0,0,0,0,-1,1483,1373,0,0
266,-349,0,0,0,0,0,0,0,0,0,-1,1490,1373,0,0
273,-349,0,0,0,0,0,0,0,0,0,-1,1497,1373,0,0
280,-349,0,0,0,0,0,0,0,0,0,-1,1504,1373,0,0
287,-349,0,0,0,0,0,0,0,0,0,-1,1511,1373,0,0
294,-349,0,0,0,0,0,0,0,0,0,-1,1518,1373,0,0
301,-349,0,0,0,0,0,0,0,0,0,-1,1525,1373,0,0
308,-349,0,0,0,0,0,0,0,0,0,-1,1532,1373,0,0
315,-349,0,0,0,0,0,0,0,0,0,-1,1539,1373,0,0
322,-349,0,0,0,0,0,0,0,0,0,-1,1546,1373,0,0
329,-349,0,0,0,0,0,0,0,0,0,-1,1553,1373,0,0
336,-349,0,0,0,0,0,0,0,0,0,-1,1560,1373,0,0
343,-349,0,0,0,0,0,0,0,0,0,-1,1567,1373,0,0
350,-349,0,0,0,0,0,0,0,0,0,-1,1574,1373,0,0
357,-349,0,0,0,0,0,0,0,0,0,-1,1581,1373,0,0
364,-349,0,0,0,0,0,0,0,0,0,-1,1588,1373,0,0
371,-349,0,0,0,0,0,0,0,0,0,-1,1595,1373,0,0
378,-349,0,0,0,0,0,0,0,0,0,-1,1602,1373,0,0
385,-349,0,0,0,0,0,0,0,0,0,-1,1609,1373,0,0
392,-349,0,0,0,0,0,0,0,0,0,-1,1616,1373,0,0
399,-349,0,0,0,0,0,0,0,0,0,-1,1623,1373,0,0
406,-349,0,0,0,0,0,0,0,0,0,-1,1630,1373,0,0
413,-349,0,0,0,0,0,0,0,0,0,-1,1637,1373,0,0
420,-349,0,0,0,0,0,0,0,0,0,-1,1644,1373,0,0
427,-349,0,0,0,0,0,0,0,0,0,-1,1651,1373,0,0
434,-349,0,0,0,0,0,0,0,0,0,-1,1658,1373,0,0
441,-349,0,0,0,0,0,0,0,0,0,-1,1665,1373,0,0
448,-349,0,0,0,0,0,0,0,0,0,-1,1672,1373,0,0
455,-349,0,0,0,0,0,0,0,0,0,-1,1679,1373,0,0
462,-349,0,0,0,0,0,0,0,0,0,-1,1686,1373,0,0
469,-349,0,0,0,0,0,0,0,0,0,-1,1693,1373,0,0
476,-349,0,0,0,0,0,0,0,0,0,-1,1700,1373,0,0
483,-349,0,0,0,0,0,0,0,0,0,-1,1707,1373,0,0
490,-349,0,0,0,0,0,0,0,0,0,-1,1714,1373,0,0
497,-349,0,0,0,0,0,0,0,0,0,-1,1721,1373,0,0
504,-349,0,0,0,0,0,0,0,0,0,-1,1728,1373,0,0
511,-349,0,0,0,0,0,0,0,0,0,-1,1735,1373,0,0
518,-349,0,0,0,0,0,0,0,0,0,-1,1742,1373,0,0
525,-349,0,0,0,0,0,0,0,0,0,-1,1749,1373,0,0
532,-349,0,0,0,0,0,0,0,0,0,-1,1756,1373,0,0
539,-349,0,0,0,0,0,0,0,0,0,-1,1763,1373,0,0
546,-349,0,0,0,0,0,0,0,0,0,-1,1770,1373,0,0
553,-349,0,0,0,0,0,0,0,0,0,-1,1777,1373,0,0
560,-349,20.231,3.6106,0,0,0,0,0,0,0,-1,1784,1373,20.231,-3.61055
567,-349,20.3247,3.48193,0,0,0,0,0,0,0,-1,1791,1373,20.3247,-3.48192
574,-349,18.3553,5.01379,0,0,0,0,0,0,0,-1,1798,1373,18.3553,-5.01381
581,-349,16.1492,6.32056,0,0,0,0,0,0,0,-1,1805,1373,16.1492,-6.32053
588,-349,19.1313,1.23157,0,0,0,0,0,0,0,-1,1812,1373,19.1314,-1.23155
595,-349,19.0753,1.89917,0,0,0,0,0,0,0,-1,1819,1373,19.0754,-1.8992
602,-349,18.9071,2.76489,0,0,0,0,0,0,0,-1,1826,1373,18.907,-2.76491
609,-349,18.8986,3.72205,0,0,0,0,0,0,0,-1,1833,1373,18.8986,-3.722
616,-349,18.7052,4.13635,0,0,0,0,0,0,0,-1,1840,1373,18.7052,-4.13637
623,-349,15.4039,6.65552,0,0,0,0,0,0,0,-1,1847,1373,15.4039,-6.6555
630,-349,15.4948,6.47644,0,0,0,0,0,0,0,-1,1854,1373,15.4947,-6.4765
637,-349,15.5997,7.3363,0,0,0,0,0,0,0,-1,1861,1373,15.5997,-7.33625
644,-349,15.4655,7.16846,0.0137492,-0.00689387,0.017366,0.0236294,-0.0167741,0.517269,0.0234386,0.04954,1868,1373,15.4654,-7.16847
651,-349,15.6517,6.86084,0.00429686,-0.00713993,0.0120286,0.0118972,-0.0147402,0.563511,0.0154083,0.0223055,1875,1373,15.6517,-6.86086
658,-349,15.5671,6.6333,-0.00138524,-0.00635814,0.00661422,0.00319445,-0.0109378,0.605608,0.0085578,0.022911,1882,1373,15.5672,-6.63329
665,-349,15.5983,6.4425,-0.0013446,-0.00445843,0.00449334,0.00185391,-0.00765694,0.618624,0.00582184,0.0189647,1889,1373,15.5982,-6.44256
672,-349,15.598,6.22144,-0.00134544,-0.00284386,0.00285781,0.000859741,-0.00504904,0.657202,0.00368618,0.0146711,1896,1373,15.598,-6.22145
679,-349,15.5708,6.00037,-0.00116413,-0.0014846,0.001745,0.000427976,-0.0030767,0.739613,0.00220767,0.013803,1903,1373,15.5708,-6.00039
686,-349,15.6071,5.81458,-0.000919967,-0.00043108,0.000895857,0.000253085,-0.00160413,0.918586,0.001163,0.01218,1910,1373,15.6071,-5.8146
693,-349,15.6078,5.58777,-0.00107822,0.000243805,0.000422264,0.000367168,-0.00120158,1.28656,0.000947463,0.0146484,1917,1373,15.6078,-5.58773
700,-349,15.5865,5.34363,-0.0015009,0.000763859,0.000231848,0.00078735,-0.00152439,1.46982,0.00135711,0.0172693,1924,1373,15.5866,-5.34362
707,-349,15.5974,5.08301,-0.00220919,0.00124855,0.00020616,0.0012608,-0.00222144,1.51145,0.00203581,0.0233815,1931,1373,15.5974,-5.08306
714,-349,15.6604,5.00781,0,0,0,0,0,0,0,-1,1938,1373,15.6604,-5.00778
721,-349,15.3828,4.54712,0,0,0,0,0,0,0,-1,1945,1373,15.3828,-4.54708
728,-349,19.152,2.28552,0,0,0,0,0,0,0,-1,1952,1373,19.152,-2.28552
735,-349,18.7469,1.53979,0,0,0,0,0,0,0,-1,1959,1373,18.747,-1.53976
742,-349,17.6053,1.63403,0,0,0,0,0,0,0,-1,1966,1373,17.6054,-1.63399
749,-349,16.1857,1.26624,0,0,0,0,0,0,0,-1,1973,1373,16.1856,-1.26625
756,-349,0,0,0,0,0,0,0,0,0,-1,1980,1373,0,0
763,-349,0,0,0,0,0,0,0,0,0,-1,1987,1373,0,0
770,-349,0,0,0,0,0,0,0,0,0,-1,1994,1373,0,0
777,-349,0,0,0,0,0,0,0,0,0,-1,2001,1373,0,0
784,-349,0,0,0,0,0,0,0,0,0,-1,2008,1373,0,0
791,-349,0,0,0,0,0,0,0,0,0,-1,2015,1373,0,0
798,-349,0,0,0,0,0,0,0,0,0,-1,2022,1373,0,0
805,-349,0,0,0,0,0,0,0,0,0,-1,2029,1373,0,0
812,-349,0,0,0,0,0,0,0,0,0,-1,2036,1373,0,0
-700,-356,0,0,0,0,0,0,0,0,0,-1,524,1380,0,0
-693,-356,0,0,0,0,0,0,0,0,0,-1,531,1380,0,0
-686,-356,0,0,0,0,0,0,0,0,0,-1,538,1380,0,0
-679,-356,0,0,0,0,0,0,0,0,0,-1,545,1380,0,0
-672,-356,0,0,0,0,0,0,0,0,0,-1,552,1380,0,0
-665,-356,0,0,0,0,0,0,0,0,0,-1,559,1380,0,0
-658,-356,0,0,0,0,0,0,0,0,0,-1,566,1380,0,0
-651,-356,0,0,0,0,0,0,0,0,0,-1,573,1380,0,0
-644,-356,0,0,0,0,0,0,0,0,0,-1,580,1380,0,0
-637,-356,0,0,0,0,0,0,0,0,0,-1,587,1380,0,0
-630,-356,-8.23126,-5.01917,0,0,0,0,0,0,0,-1,594,1380,-8.23124,5.0192
-623,-356,-0.263855,-0.675781,0,0,0,0,0,0,0,-1,601,1380,-0.263835,0.675841
-616,-356,-8.26532,-3.43945,0,0,0,0,0,0,0,-1,608,1380,-8.2653,3.43948
-609,-356,-4.88483,0.734497,0,0,0,0,0,0,0,-1,615,1380,-4.88485,-0.734532
-602,-356,-7.22406,1.75867,0,0,0,0,0,0,0,-1,622,1380,-7.22405,-1.75863
-595,-356,-6.88147,1.45178,0,0,0,0,0,0,0,-1,629,1380,-6.88144,-1.45177
-588,-356,-6.19598,2.81189,0,0,0,0,0,0,0,-1,636,1380,-6.19599,-2.8119
-581,-356,-6.23132,2.89844,0.0174434,0.0094173,0.00311655,0.0185114,0.00834926,0.330157,0.0107046,0.0429895,643,1380,-6.23135,-2.89847
-574,-356,-6.51447,3.09326,0.0106266,0.0076299,0.00607909,0.0153892,0.00286721,0.66457,0.00944988,0.0307485,650,1380,-6.51449,-3.0933
-567,-356,-6.67542,3.24976,0.00593112,0.00541495,0.00624834,0.0119267,-0.000580634,0.764758,0.00815158,0.0160979,657,1380,-6.67544,-3.24982
-560,-356,-6.6554,3.53015,0.00348365,0.00375002,0.0041114,0.00773039,-0.000496715,0.80159,0.00532689,0.0162094,664,1380,-6.6554,-3.53015
-553,-356,-6.64355,3.75134,0.00200643,0.00232296,0.00221759,0.00438792,-5.85341e-05,0.821021,0.00294499,0.0191292,671,1380,-6.64357,-3.75137
-546,-356,-6.67725,3.9978,0.00122202,0.00112779,0.000828003,0.00200425,0.000345568,0.756978,0.00123717,0.0229532,678,1380,-6.67723,-3.99774
-539,-356,-6.65814,4.30249,0.00070525,0.000154178,-0.000271305,0.0008164,4.30277e-05,-0.388831,0.000530506,0.0165944,685,1380,-6.65814,-4.30244
-532,-356,-6.65472,4.55151,0.000991542,-0.000626169,-0.000829067,0.00134096,-0.000975588,-0.398869,0.00134299,0.0151268,692,1380,-6.65474,-4.55146
-525,-356,-6.67487,4.79785,0.00199953,-0.00104863,-0.0010302,0.00231505,-0.00136416,-0.297201,0.00214771,0.0125148,699,1380,-6.67487,-4.79786
-518,-356,-6.66101,5.06372,0.00694539,-0.00198955,-0.00297847,0.00784724,-0.00289139,-0.294013,0.00641626,0.0117091,706,1380,-6.66102,-5.06372
-511,-356,-6.54755,5.34924,0.0150628,-0.00201541,-0.00613485,0.0170381,-0.00399071,-0.311498,0.0128965,0.0244774,713,1380,-6.54757,-5.34924
-504,-356,-6.26172,5.4563,0,0,0,0,0,0,0,-1,720,1380,-6.26171,-5.4563
-497,-356,-5.68604,4.96387,0,0,0,0,0,0,0,-1,727,1380,-5.68605,-4.96385
-490,-356,-7.95288,5.5625,0,0,0,0,0,0,0,-1,734,1380,-7.95285,-5.56246
-483,-356,-7.2627,4.07446,0,0,0,0,0,0,0,-1,741,1380,-7.2627,-4.07441
-476,-356,-5.1936,4.16016,0,0,0,0,0,0,0,-1,748,1380,-5.1936,-4.16012
-469,-356,-10.0883,0.536011,0,0,0,0,0,0,0,-1,755,1380,-10.0883,-0.535989
-462,-356,-9.34576,-0.402954,0,0,0,0,0,0,0,-1,762,1380,-9.34576,0.402894
-455,-356,-8.20123,-1.21069,0,0,0,0,0,0,0,-1,769,1380,-8.20123,1.21069
-448,-356,-12.394,3.02576,0,0,0,0,0,0,0,-1,776,1380,-12.394,-3.0257
-441,-356,-13.1602,3.05603,0,0,0,0,0,0,0,-1,783,1380,-13.1602,-3.05609
-434,-356,0,0,0,0,0,0,0,0,0,-1,790,1380,0,0
-427,-356,0,0,0,0,0,0,0,0,0,-1,797,1380,0,0
-420,-356,0,0,0,0,0,0,0,0,0,-1,804,1380,0,0
-413,-356,0,0,0,0,0,0,0,0,0,-1,811,1380,0,0
-406,-356,0,0,0,0,0,0,0,0,0,-1,818,1380,0,0
-399,-356,0,0,0,0,0,0,0,0,0,-1,825,1380,0,0
-392,-356,0,0,0,0,0,0,0,0,0,-1,832,1380,0,0
-385,-356,0,0,0,0,0,0,0,0,0,-1,839,1380,0,0
-378,-356,0,0,0,0,0,0,0,0,0,-1,846,1380,0,0
-371,-356,0,0,0,0,0,0,0,0,0,-1,853,1380,0,0
-364,-356,0,0,0,0,0,0,0,0,0,-1,860,1380,0,0
-357,-356,0,0,0,0,0,0,0,0,0,-1,867,1380,0,0
-350,-356,0,0,0,0,0,0,0,0,0,-1,874,1380,0,0
-343,-356,0,0,0,0,0,0,0,0,0,-1,881,1380,0,0
-336,-356,0,0,0,0,0,0,0,0,0,-1,888,1380,0,0
-329,-356,0,0,0,0,0,0,0,0,0,-1,895,1380,0,0
-322,-356,0,0,0,0,0,0,0,0,0,-1,902,1380,0,0
-315,-356,0,0,0,0,0,0,0,0,0,-1,909,1380,0,0
-308,-356,0,0,0,0,0,0,0,0,0,-1,916,1380,0,0
-301,-356,0,0,0,0,0,0,0,0,0,-1,923,1380,0,0
-294,-356,0,0,0,0,0,0,0,0,0,-1,930,1380,0,0
-287,-356,0,0,0,0,0,0,0,0,0,-1,937,1380,0,0
-280,-356,0,0,0,0,0,0,0,0,0,-1,944,1380,0,0
-273,-356,0,0,0,0,0,0,0,0,0,-1,951,1380,0,0
-266,-356,0,0,0,0,0,0,0,0,0,-1,958,1380,0,0
-259,-356,0,0,0,0,0,0,0,0,0,-1,965,1380,0,0
-252,-356,0,0,0,0,0,0,0,0,0,-1,972,1380,0,0
-245,-356,0,0,0,0,0,0,0,0,0,-1,979,1380,0,0
-238,-356,0,0,0,0,0,0,0,0,0,-1,986,1380,0,0
-231,-356,0,0,0,0,0,0,0,0,0,-1,993,1380,0,0
-224,-356,0,0,0,0,0,0,0,0,0,-1,1000,1380,0,0
-217,-356,0,0,0,0,0,0,0,0,0,-1,1007,1380,0,0
-210,-356,0,0,0,0,0,0,0,0,0,-1,1014,1380,0,0
-203,-356,0,0,0,0,0,0,0,0,0,-1,1021,1380,0,0
-196,-356,0,0,0,0,0,0,0,0,0,-1,1028,1380,0,0
-189,-356,0,0,0,0,0,0,0,0,0,-1,1035,1380,0,0
-182,-356,0,0,0,0,0,0,0,0,0,-1,1042,1380,0,0
-175,-356,0,0,0,0,0,0,0,0,0,-1,1049,1380,0,0
-168,-356,0,0,0,0,0,0,0,0,0,-1,1056,1380,0,0
-161,-356,0,0,0,0,0,0,0,0,0,-1,1063,1380,0,0
-154,-356,0,0,0,0,0,0,0,0,0,-1,1070,1380,0,0
-147,-356,0,0,0,0,0,0,0,0,0,-1,1077,1380,0,0
-140,-356,0,0,0,0,0,0,0,0,0,-1,1084,1380,0,0
-133,-356,0,0,0,0,0,0,0,0,0,-1,1091,1380,0,0
-126,-356,0,0,0,0,0,0,0,0,0,-1,1098,1380,0,0
-119,-356,0,0,0,0,0,0,0,0,0,-1,1105,1380,0,0
-112,-356,0,0,0,0,0,0,0,0,0,-1,1112,1380,0,0
-105,-356,0,0,0,0,0,0,0,0,0,-1,1119,1380,0,0
-98,-356,0,0,0,0,0,0,0,0,0,-1,1126,1380,0,0
-91,-356,0,0,0,0,0,0,0,0,0,-1,1133,1380,0,0
-84,-356,0,0,0,0,0,0,0,0,0,-1,1140,1380,0,0
-77,-356,0,0,0,0,0,0,0,0,0,-1,1147,1380,0,0
-70,-356,0,0,0,0,0,0,0,0,0,-1,1154,1380,0,0
-63,-356,0,0,0,0,0,0,0,0,0,-1,1161,1380,0,0
-56,-356,0,0,0,0,0,0,0,0,0,-1,1168,1380,0,0
-49,-356,0,0,0,0,0,0,0,0,0,-1,1175,1380,0,0
-42,-356,0,0,0,0,0,0,0,0,0,-1,1182,1380,0,0
-35,-356,0,0,0,0,0,0,0,0,0,-1,1189,1380,0,0
-28,-356,0,0,0,0,0,0,0,0,0,-1,1196,1380,0,0
-21,-356,0,0,0,0,0,0,0,0,0,-1,1203,1380,0,0
-14,-356,0,0,0,0,0,0,0,0,0,-1,1210,1380,0,0
-7,-356,0,0,0,0,0,0,0,0,0,-1,1217,1380,0,0
0,-356,0,0,0,0,0,0,0,0,0,-1,1224,1380,0,0
7,-356,0,0,0,0,0,0,0,0,0,-1,1231,1380,0,0
14,-356,0,0,0,0,0,0,0,0,0,-1,1238,1380,0,0
21,-356,0,0,0,0,0,0,0,0,0,-1,1245,1380,0,0
28,-356,0,0,0,0,0,0,0,0,0,-1,1252,1380,0,0
35,-356,0,0,0,0,0,0,0,0,0,-1,1259,1380,0,0
42,-356,0,0,0,0,0,0,0,0,0,-1,1266,1380,0,0
49,-356,0,0,0,0,0,0,0,0,0,-1,1273,1380,0,0
56,-356,0,0,0,0,0,0,0,0,0,-1,1280,1380,0,0
63,-356,0,0,0,0,0,0,0,0,0,-1,1287,1380,0,0
70,-356,0,0,0,0,0,0,0,0,0,-1,1294,1380,0,0
77,-356,0,0,0,0,0,0,0,0,0,-1,1301,1380,0,0
84,-356,0,0,0,0,0,0,0,0,0,-1,1308,1380,0,0
91,-356,0,0,0,0,0,0,0,0,0,-1,1315,1380,0,0
98,-356,0,0,0,0,0,0,0,0,0,-1,1322,1380,0,0
105,-356,0,0,0,0,0,0,0,0,0,-1,1329,1380,0,0
112,-356,0,0,0,0,0,0,0,0,0,-1,1336,1380,0,0
119,-356,0,0,0,0,0,0,0,0,0,-1,1343,1380,0,0
126,-356,0,0,0,0,0,0,0,0,0,-1,1350,1380,0,0
133,-356,0,0,0,0,0,0,0,0,0,-1,1357,1380,0,0
140,-356,0,0,0,0,0,0,0,0,0,-1,1364,1380,0,0
147,-356,0,0,0,0,0,0,0,0,0,-1,1371,1380,0,0
154,-356,0,0,0,0,0,0,0,0,0,-1,1378,1380,0,0
161,-356,0,0,0,0,0,0,0,0,0,-1,1385,1380,0,0
168,-356,0,0,0,0,0,0,0,0,0,-1,1392,1380,0,0
175,-356,0,0,0,0,0,0,0,0,0,-1,1399,1380,0,0
182,-356,0,0,0,0,0,0,0,0,0,-1,1406,1380,0,0
189,-356,0,0,0,0,0,0,0,0,0,-1,1413,1380,0,0
196,-356,0,0,0,0,0,0,0,0,0,-1,1420,1380,0,0
203,-356,0,0,0,0,0,0,0,0,0,-1,1427,1380,0,0
210,-356,0,0,0,0,0,0,0,0,0,-1,1434,1380,0,0
217,-356,0,0,0,0,0,0,0,0,0,-1,1441,1380,0,0
224,-356,0,0,0,0,0,0,0,0,0,-1,1448,1380,0,0
231,-356,0,0,0,0,0,0,0,0,0,-1,1455,1380,0,0
238,-356,0,0,0,0,0,0,0,0,0,-1,1462,1380,0,0
245,-356,0,0,0,0,0,0,0,0,0,-1,1469,1380,0,0
252,-356,0,0,0,0,0,0,0,0,0,-1,1476,1380,0,0
259,-356,0,0,0,0,0,0,0,0,0,-1,1483,1380,0,0
266,-356,0,0,0,0,0,0,0,0,0,-1,1490,1380,0,0
273,-356,0,0,0,0,0,0,0,0,0,-1,1497,1380,0,0
280,-356,0,0,0,0,0,0,0,0,0,-1,1504,1380,0,0
287,-356,0,0,0,0,0,0,0,0,0,-1,1511,1380,0,0
294,-356,0,0,0,0,0,0,0,0,0,-1,1518,1380,0,0
301,-356,0,0,0,0,0,0,0,0,0,-1,1525,1380,0,0
308,-356,0,0,0,0,0,0,0,0,0,-1,1532,1380,0,0
315,-356,0,0,0,0,0,0,0,0,0,-1,1539,1380,0,0
322,-356,0,0,0,0,0,0,0,0,0,-1,1546,1380,0,0
329,-356,0,0,0,0,0,0,0,0,0,-1,1553,1380,0,0
336,-356,0,0,0,0,0,0,0,0,0,-1,1560,1380,0,0
343,-356,0,0,0,0,0,0,0,0,0,-1,1567,1380,0,0
350,-356,0,0,0,0,0,0,0,0,0,-1,1574,1380,0,0
357,-356,0,0,0,0,0,0,0,0,0,-1,1581,1380,0,0
364,-356,0,0,0,0,0,0,0,0,0,-1,1588,1380,0,0
371,-356,0,0,0,0,0,0,0,0,0,-1,1595,1380,0,0
378,-356,0,0,0,0,0,0,0,0,0,-1,1602,1380,0,0
385,-356,0,0,0,0,0,0,0,0,0,-1,1609,1380,0,0
392,-356,0,0,0,0,0,0,0,0,0,-1,1616,1380,0,0
399,-356,0,0,0,0,0,0,0,0,0,-1,1623,1380,0,0
406,-356,0,0,0,0,0,0,0,0,0,-1,1630,1380,0,0
413,-356,0,0,0,0,0,0,0,0,0,-1,1637,1380,0,0
420,-356,0,0,0,0,0,0,0,0,0,-1,1644,1380,0,0
427,-356,0,0,0,0,0,0,0,0,0,-1,1651,1380,0,0
434,-356,0,0,0,0,0,0,0,0,0,-1,1658,1380,0,0
441,-356,0,0,0,0,0,0,0,0,0,-1,1665,1380,0,0
448,-356,0,0,0,0,0,0,0,0,0,-1,1672,1380,0,0
455,-356,0,0,0,0,0,0,0,0,0,-1,1679,1380,0,0
462,-356,0,0,0,0,0,0,0,0,0,-1,1686,1380,0,0
469,-356,0,0,0,0,0,0,0,0,0,-1,1693,1380,0,0
476,-356,0,0,0,0,0,0,0,0,0,-1,1700,1380,0,0
483,-356,0,0,0,0,0,0,0,0,0,-1,1707,1380,0,0
490,-356,0,0,0,0,0,0,0,0,0,-1,1714,1380,0,0
497,-356,0,0,0,0,0,0,0,0,0,-1,1721,1380,0,0
504,-356,0,0,0,0,0,0,0,0,0,-1,1728,1380,0,0
511,-356,0,0,0,0,0,0,0,0,0,-1,1735,1380,0,0
518,-356,0,0,0,0,0,0,0,0,0,-1,1742,1380,0,0
525,-356,0,0,0,0,0,0,0,0,0,-1,1749,1380,0,0
532,-356,0,0,0,0,0,0,0,0,0,-1,1756,1380,0,0
539,-356,0,0,0,0,0,0,0,0,0,-1,1763,1380,0,0
546,-356,0,0,0,0,0,0,0,0,0,-1,1770,1380,0,0
553,-356,0,0,0,0,0,0,0,0,0,-1,1777,1380,0,0
560,-356,20.2863,3.19324,0,0,0,0,0,0,0,-1,1784,1380,20.2863,-3.19324
567,-356,20.293,3.20374,0,0,0,0,0,0,0,-1,1791,1380,20.293,-3.20372
574,-356,14.5682,6.27368,0,0,0,0,0,0,0,-1,1798,1380,14.5682,-6.27365
581,-356,15.6521,5.05688,0,0,0,0,0,0,0,-1,1805,1380,15.6521,-5.05694
588,-356,18.3274,0.448364,0,0,0,0,0,0,0,-1,1812,1380,18.3274,-0.448374
595,-356,18.4769,1.26306,0,0,0,0,0,0,0,-1,1819,1380,18.4769,-1.26304
602,-356,17.934,2.41858,0,0,0,0,0,0,0,-1,1826,1380,17.9339,-2.41856
609,-356,17.91,3.41785,0,0,0,0,0,0,0,-1,1833,1380,17.91,-3.41785
616,-356,15.1431,6.50342,0,0,0,0,0,0,0,-1,1840,1380,15.1431,-6.50348
623,-356,15.2988,6.50769,0,0,0,0,0,0,0,-1,1847,1380,15.2988,-6.50772
630,-356,15.6111,6.61902,0,0,0,0,0,0,0,-1,1854,1380,15.6111,-6.61905
637,-356,15.3655,6.86499,0.0194348,-0.00708495,0.0206392,0.0307066,-0.0183567,0.49987,0.0286243,0.047861,1861,1380,15.3655,-6.86495
644,-356,15.3594,7.21826,0.00960016,-0.00717881,0.014068,0.0175903,-0.015169,0.516532,0.0189308,0.0296598,1868,1380,15.3594,-7.21829
651,-356,15.407,6.87268,0.00233905,-0.00664642,0.0090862,0.00798257,-0.0122899,0.555797,0.0117921,0.0156159,1875,1380,15.4069,-6.87264
658,-356,15.3621,6.61633,-0.00128391,-0.00537721,0.00478474,0.00187352,-0.00853464,0.583302,0.00640625,0.0138257,1882,1380,15.362,-6.61632
665,-356,15.3574,6.45459,-0.000971088,-0.00361904,0.00327115,0.00123387,-0.00582399,0.593104,0.00435264,0.0136347,1889,1380,15.3575,-6.45457
672,-356,15.3771,6.25183,-0.00090511,-0.00224849,0.00211381,0.000641166,-0.00379477,0.631562,0.00276843,0.0155142,1896,1380,15.3771,-6.25186
679,-356,15.3763,6.02185,-0.000859965,-0.00111559,0.00130244,0.000320922,-0.00229648,0.736488,0.00164841,0.0173042,1903,1380,15.3764,-6.02181
686,-356,15.379,5.80444,-0.000847091,-0.000240077,0.000692824,0.000212803,-0.00129997,0.991844,0.000945597,0.0149995,1910,1380,15.379,-5.8044
693,-356,15.4031,5.57605,-0.00120403,0.000259463,0.000476842,0.000401119,-0.00134569,1.28203,0.00105652,0.0131361,1917,1380,15.4031,-5.5761
700,-356,15.3854,5.31836,-0.00178613,0.000544533,0.000573624,0.000678063,-0.00191966,1.34209,0.00155585,0.0186093,1924,1380,15.3854,-5.31835
707,-356,15.4171,4.88147,-0.00268442,0.000880383,0.000766051,0.00103803,-0.00284207,1.36784,0.00231948,0.0435242,1931,1380,15.4171,-4.88147
714,-356,15.5568,4.50378,0,0,0,0,0,0,0,-1,1938,1380,15.5567,-4.50377
721,-356,15.1661,4.30249,0,0,0,0,0,0,0,-1,1945,1380,15.1661,-4.3025
728,-356,13.2661,3.90723,0,0,0,0,0,0,0,-1,1952,1380,13.2661,-3.90722
735,-356,18.5663,2.40906,0,0,0,0,0,0,0,-1,1959,1380,18.5663,-2.40912
742,-356,17.9935,1.47119,0,0,0,0,0,0,0,-1,1966,1380,17.9935,-1.47116
749,-356,17.4208,0.533203,0,0,0,0,0,0,0,-1,1973,1380,17.4207,-0.533201
756,-356,0,0,0,0,0,0,0,0,0,-1,1980,1380,0,0
763,-356,0,0,0,0,0,0,0,0,0,-1,1987,1380,0,0
770,-356,0,0,0,0,0,0,0,0,0,-1,1994,1380,0,0
777,-356,0,0,0,0,0,0,0,0,0,-1,2001,1380,0,0
784,-356,0,0,0,0,0,0,0,0,0,-1,2008,1380,0,0
791,-356,0,0,0,0,0,0,0,0,0,-1,2015,1380,0,0
798,-356,0,0,0,0,0,0,0,0,0,-1,2022,1380,0,0
805,-356,0,0,0,0,0,0,0,0,0,-1,2029,1380,0,0
812,-356,0,0,0,0,0,0,0,0,0,-1,2036,1380,0,0
-700,-363,0,0,0,0,0,0,0,0,0,-1,524,1387,0,0
-693,-363,0,0,0,0,0,0,0,0,0,-1,531,1387,0,0
-686,-363,0,0,0,0,0,0,0,0,0,-1,538,1387,0,0
-679,-363,0,0,0,0,0,0,0,0,0,-1,545,1387,0,0
-672,-363,0,0,0,0,0,0,0,0,0,-1,552,1387,0,0
-665,-363,0,0,0,0,0,0,0,0,0,-1,559,1387,0,0
-658,-363,0,0,0,0,0,0,0,0,0,-1,566,1387,0,0
-651,-363,0,0,0,0,0,0,0,0,0,-1,573,1387,0,0
-644,-363,0,0,0,0,0,0,0,0,0,-1,580,1387,0,0
-637,-363,0,0,0,0,0,0,0,0,0,-1,587,1387,0,0
-630,-363,0,0,0,0,0,0,0,0,0,-1,594,1387,0,0
-623,-363,-9.67566,-5.91846,0,0,0,0,0,0,0,-1,601,1387,-9.67563,5.91847
-616,-363,-9.02985,-2.98083,0,0,0,0,0,0,0,-1,608,1387,-9.02987,2.98079
-609,-363,-4.90265,0.195679,0,0,0,0,0,0,0,-1,615,1387,-4.90263,-0.195721
-602,-363,-7.22198,0.727539,0,0,0,0,0,0,0,-1,622,1387,-7.22201,-0.727513
-595,-363,-6.94379,1.36194,0.0457117,0.0186063,0.00344415,0.0461424,0.0181755,0.124431,0.0268395,0.0475211,629,1387,-6.9438,-1.36189
-588,-363,-5.91711,2.99695,0.032223,0.0152714,0.00779551,0.0352628,0.0122316,0.371807,0.0206748,0.0437216,636,1387,-5.91709,-2.99697
-581,-363,-6.03668,3.11121,0.0217037,0.0120371,0.00872723,0.0268466,0.00689413,0.532513,0.0160995,0.0413079,643,1387,-6.03666,-3.11122
-574,-363,-6.2489,3.22656,0.0136736,0.00943565,0.00947569,0.0212643,0.00184488,0.675398,0.013603,0.0350655,650,1387,-6.24893,-3.22661
-567,-363,-6.41418,3.26367,0.00804173,0.00671414,0.00804148,0.0154468,-0.000690896,0.744218,0.0105357,0.0205771,657,1387,-6.41421,-3.26361
-560,-363,-6.40833,3.49255,0.0047789,0.00464891,0.00512823,0.00984254,-0.000414737,0.779062,0.00670422,0.0115532,664,1387,-6.4083,-3.49257
-553,-363,-6.41101,3.77454,0.00275286,0.0029516,0.00291746,0.00577138,-6.69202e-05,0.802423,0.00387009,0.0118936,671,1387,-6.41101,-3.77452
-546,-363,-6.41296,4.02295,0.00162921,0.00159334,0.00137533,0.00298672,0.000235835,0.778878,0.00191738,0.0129306,678,1387,-6.41297,-4.02297
-539,-363,-6.37537,4.27979,0.000861106,0.000571111,0.000168758,0.000938603,0.000493614,0.430492,0.000542145,0.0157714,685,1387,-6.37537,-4.27973
-532,-363,-6.40747,4.55896,0.001059,-0.000550939,-0.000573382,0.00124234,-0.000734272,-0.309467,0.00115369,0.0135759,692,1387,-6.40748,-4.55894
-525,-363,-6.42792,4.79846,0.0020438,-0.00116657,-0.000822881,0.00224243,-0.0013652,-0.236854,0.00210329,0.0111855,699,1387,-6.42794,-4.7984
-518,-363,-6.41302,5.06177,0.00618042,-0.00239309,-0.00235718,0.00678576,-0.00299843,-0.251374,0.00578825,0.00982572,706,1387,-6.413,-5.06171
-511,-363,-6.37476,5.32996,0.0132759,-0.00304595,-0.00509796,0.0147373,-0.00450739,-0.279185,0.0116224,0.0161444,713,1387,-6.37473,-5.32993
-504,-363,-6.24866,5.6189,0.0220909,-0.00184249,-0.00851396,0.0248106,-0.00456215,-0.309191,0.0182522,0.0422516,720,1387,-6.24865,-5.61887
-497,-363,-5.93549,5.80298,0,0,0,0,0,0,0,-1,727,1387,-5.93546,-5.80293
-490,-363,-5.42413,4.6958,0,0,0,0,0,0,0,-1,734,1387,-5.42412,-4.69583
-483,-363,-6.28375,4.1394,0,0,0,0,0,0,0,-1,741,1387,-6.28374,-4.13944
-476,-363,-5.83807,4.31018,0,0,0,0,0,0,0,-1,748,1387,-5.8381,-4.31013
-469,-363,-10.7125,0.697754,0,0,0,0,0,0,0,-1,755,1387,-10.7125,-0.697811
-462,-363,-9.55951,-0.0830078,0,0,0,0,0,0,0,-1,762,1387,-9.55949,0.0830163
-455,-363,-8.40649,-0.863892,0,0,0,0,0,0,0,-1,769,1387,-8.40648,0.863844
-448,-363,-11.7324,2.46606,0,0,0,0,0,0,0,-1,776,1387,-11.7324,-2.46605
-441,-363,-12.4464,2.5354,-0.0401873,0.0918474,-0.0621812,0.116521,-0.0648606,-1.19305,0.106127,0.0493078,783,1387,-12.4463,-2.53537
-434,-363,-13.6918,2.14661,0,0,0,0,0,0,0,-1,790,1387,-13.6918,-2.14662
-427,-363,0,0,0,0,0,0,0,0,0,-1,797,1387,0,0
-420,-363,0,0,0,0,0,0,0,0,0,-1,804,1387,0,0
-413,-363,0,0,0,0,0,0,0,0,0,-1,811,1387,0,0
-406,-363,0,0,0,0,0,0,0,0,0,-1,818,1387,0,0
-399,-363,0,0,0,0,0,0,0,0,0,-1,825,1387,0,0
-392,-363,0,0,0,0,0,0,0,0,0,-1,832,1387,0,0
-385,-363,0,0,0,0,0,0,0,0,0,-1,839,1387,0,0
-378,-363,0,0,0,0,0,0,0,0,0,-1,846,1387,0,0
-371,-363,0,0,0,0,0,0,0,0,0,-1,853,1387,0,0
-364,-363,0,0,0,0,0,0,0,0,0,-1,860,1387,0,0
-357,-363,0,0,0,0,0,0,0,0,0,-1,867,1387,0,0
-350,-363,0,0,0,0,0,0,0,0,0,-1,874,1387,0,0
-343,-363,0,0,0,0,0,0,0,0,0,-1,881,1387,0,0
-336,-363,0,0,0,0,0,0,0,0,0,-1,888,1387,0,0
-329,-363,0,0,0,0,0,0,0,0,0,-1,895,1387,0,0
-322,-363,0,0,0,0,0,0,0,0,0,-1,902,1387,0,0
-315,-363,0,0,0,0,0,0,0,0,0,-1,909,1387,0,0
-308,-363,0,0,0,0,0,0,0,0,0,-1,916,1387,0,0
-301,-363,0,0,0,0,0,0,0,0,0,-1,923,1387,0,0
-294,-363,0,0,0,0,0,0,0,0,0,-1,930,1387,0,0
-287,-363,0,0,0,0,0,0,0,0,0,-1,937,1387,0,0
-280,-363,0,0,0,0,0,0,0,0,0,-1,944,1387,0,0
-273,-363,0,0,0,0,0,0,0,0,0,-1,951,1387,0,0
-266,-363,0,0,0,0,0,0,0,0,0,-1,958,1387,0,0
-259,-363,0,0,0,0,0,0,0,0,0,-1,965,1387,0,0
-252,-363,0,0,0,0,0,0,0,0,0,-1,972,1387,0,0
-245,-363,0,0,0,0,0,0,0,0,0,-1,979,1387,0,0
-238,-363,0,0,0,0,0,0,0,0,0,-1,986,1387,0,0
-231,-363,0,0,0,0,0,0,0,0,0,-1,993,1387,0,0
-224,-363,0,0,0,0,0,0,0,0,0,-1,1000,1387,0,0
-217,-363,0,0,0,0,0,0,0,0,0,-1,1007,1387,0,0
-210,-363,0,0,0,0,0,0,0,0,0,-1,1014,1387,0,0
-203,-363,0,0,0,0,0,0,0,0,0,-1,1021,1387,0,0
-196,-363,0,0,0,0,0,0,0,0,0,-1,1028,1387,0,0
-189,-363,0,0,0,0,0,0,0,0,0,-1,1035,1387,0,0
-182,-363,0,0,0,0,0,0,0,0,0,-1,1042,1387,0,0
-175,-363,0,0,0,0,0,0,0,0,0,-1,1049,1387,0,0
-168,-363,0,0,0,0,0,0,0,0,0,-1,1056,1387,0,0
-161,-363,0,0,0,0,0,0,0,0,0,-1,1063,1387,0,0
-154,-363,0,0,0,0,0,0,0,0,0,-1,1070,1387,0,0
-147,-363,0,0,0,0,0,0,0,0,0,-1,1077,1387,0,0
-140,-363,0,0,0,0,0,0,0,0,0,-1,1084,1387,0,0
-133,-363,0,0,0,0,0,0,0,0,0,-1,1091,1387,0,0
-126,-363,0,0,0,0,0,0,0,0,0,-1,1098,1387,0,0
-119,-363,0,0,0,0,0,0,0,0,0,-1,1105,1387,0,0
-112,-363,0,0,0,0,0,0,0,0,0,-1,1112,1387,0,0
-105,-363,0,0,0,0,0,0,0,0,0,-1,1119,1387,0,0
-98,-363,0,0,0,0,0,0,0,0,0,-1,1126,1387,0,0
-91,-363,0,0,0,0,0,0,0,0,0,-1,1133,1387,0,0
-84,-363,0,0,0,0,0,0,0,0,0,-1,1140,1387,0,0
-77,-363,0,0,0,0,0,0,0,0,0,-1,1147,1387,0,0
-70,-363,0,0,0,0,0,0,0,0,0,-1,1154,1387,0,0
-63,-363,0,0,0,0,0,0,0,0,0,-1,1161,1387,0,0
-56,-363,0,0,0,0,0,0,0,0,0,-1,1168,1387,0,0
-49,-363,0,0,0,0,0,0,0,0,0,-1,1175,1387,0,0
-42,-363,0,0,0,0,0,0,0,0,0,-1,1182,1387,0,0
-35,-363,0,0,0,0,0,0,0,0,0,-1,1189,1387,0,0
-28,-363,0,0,0,0,0,0,0,0,0,-1,1196,1387,0,0
-21,-363,0,0,0,0,0,0,0,0,0,-1,1203,1387,0,0
-14,-363,0,0,0,0,0,0,0,0,0,-1,1210,1387,0,0
-7,-363,0,0,0,0,0,0,0,0,0,-1,1217,1387,0,0
0,-363,0,0,0,0,0,0,0,0,0,-1,1224,1387,0,0
7,-363,0,0,0,0,0,0,0,0,0,-1,1231,1387,0,0
14,-363,0,0,0,0,0,0,0,0,0,-1,1238,1387,0,0
21,-363,0,0,0,0,0,0,0,0,0,-1,1245,1387,0,0
28,-363,0,0,0,0,0,0,0,0,0,-1,1252,1387,0,0
35,-363,0,0,0,0,0,0,0,0,0,-1,1259,1387,0,0
42,-363,0,0,0,0,0,0,0,0,0,-1,1266,1387,0,0
49,-363,0,0,0,0,0,0,0,0,0,-1,1273,1387,0,0
56,-363,0,0,0,0,0,0,0,0,0,-1,1280,1387,0,0
63,-363,0,0,0,0,0,0,0,0,0,-1,1287,1387,0,0
70,-363,0,0,0,0,0,0,0,0,0,-1,1294,1387,0,0
77,-363,0,0,0,0,0,0,0,0,0,-1,1301,1387,0,0
84,-363,0,0,0,0,0,0,0,0,0,-1,1308,1387,0,0
91,-363,0,0,0,0,0,0,0,0,0,-1,1315,1387,0,0
98,-363,0,0,0,0,0,0,0,0,0,-1,1322,1387,0,0
105,-363,0,0,0,0,0,0,0,0,0,-1,1329,1387,0,0
112,-363,0,0,0,0,0,0,0,0,0,-1,1336,1387,0,0
119,-363,0,0,0,0,0,0,0,0,0,-1,1343,1387,0,0
126,-363,0,0,0,0,0,0,0,0,0,-1,1350,1387,0,0
133,-363,0,0,0,0,0,0,0,0,0,-1,1357,1387,0,0
140,-363,0,0,0,0,0,0,0,0,0,-1,1364,1387,0,0
147,-363,0,0,0,0,0,0,0,0,0,-1,1371,1387,0,0
154,-363,0,0,0,0,0,0,0,0,0,-1,1378,1387,0,0
161,-363,0,0,0,0,0,0,0,0,0,-1,1385,1387,0,0
168,-363,0,0,0,0,0,0,0,0,0,-1,1392,1387,0,0
175,-363,0,0,0,0,0,0,0,0,0,-1,1399,1387,0,0
182,-363,0,0,0,0,0,0,0,0,0,-1,1406,1387,0,0
189,-363,0,0,0,0,0,0,0,0,0,-1,1413,1387,0,0
196,-363,0,0,0,0,0,0,0,0,0,-1,1420,1387,0,0
203,-363,0,0,0,0,0,0,0,0,0,-1,1427,1387,0,0
210,-363,0,0,0,0,0,0,0,0,0,-1,1434,1387,0,0
217,-363,0,0,0,0,0,0,0,0,0,-1,1441,1387,0,0
224,-363,0,0,0,0,0,0,0,0,0,-1,1448,1387,0,0
231,-363,0,0,0,0,0,0,0,0,0,-1,1455,1387,0,0
238,-363,0,0,0,0,0,0,0,0,0,-1,1462,1387,0,0
245,-363,0,0,0,0,0,0,0,0,0,-1,1469,1387,0,0
252,-363,0,0,0,0,0,0,0,0,0,-1,1476,1387,0,0
259,-363,0,0,0,0,0,0,0,0,0,-1,1483,1387,0,0
266,-363,0,0,0,0,0,0,0,0,0,-1,1490,1387,0,0
273,-363,0,0,0,0,0,0,0,0,0,-1,1497,1387,0,0
280,-363,0,0,0,0,0,0,0,0,0,-1,1504,1387,0,0
287,-363,0,0,0,0,0,0,0,0,0,-1,1511,1387,0,0
294,-363,0,0,0,0,0,0,0,0,0,-1,1518,1387,0,0
301,-363,0,0,0,0,0,0,0,0,0,-1,1525,1387,0,0
308,-363,0,0,0,0,0,0,0,0,0,-1,1532,1387,0,0
315,-363,0,0,0,0,0,0,0,0,0,-1,1539,1387,0,0
322,-363,0,0,0,0,0,0,0,0,0,-1,1546,1387,0,0
329,-363,0,0,0,0,0,0,0,0,0,-1,1553,1387,0,0
336,-363,0,0,0,0,0,0,0,0,0,-1,1560,1387,0,0
343,-363,0,0,0,0,0,0,0,0,0,-1,1567,1387,0,0
350,-363,0,0,0,0,0,0,0,0,0,-1,1574,1387,0,0
357,-363,0,0,0,0,0,0,0,0,0,-1,1581,1387,0,0
364,-363,0,0,0,0,0,0,0,0,0,-1,1588,1387,0,0
371,-363,0,0,0,0,0,0,0,0,0,-1,1595,1387,0,0
378,-363,0,0,0,0,0,0,0,0,0,-1,1602,1387,0,0
385,-363,0,0,0,0,0,0,0,0,0,-1,1609,1387,0,0
392,-363,0,0,0,0,0,0,0,0,0,-1,1616,1387,0,0
399,-363,0,0,0,0,0,0,0,0,0,-1,1623,1387,0,0
406,-363,0,0,0,0,0,0,0,0,0,-1,1630,1387,0,0
413,-363,0,0,0,0,0,0,0,0,0,-1,1637,1387,0,0
420,-363,0,0,0,0,0,0,0,0,0,-1,1644,1387,0,0
427,-363,0,0,0,0,0,0,0,0,0,-1,1651,1387,0,0
434,-363,0,0,0,0,0,0,0,0,0,-1,1658,1387,0,0
441,-363,0,0,0,0,0,0,0,0,0,-1,1665,1387,0,0
448,-363,0,0,0,0,0,0,0,0,0,-1,1672,1387,0,0
455,-363,0,0,0,0,0,0,0,0,0,-1,1679,1387,0,0
462,-363,0,0,0,0,0,0,0,0,0,-1,1686,1387,0,0
469,-363,0,0,0,0,0,0,0,0,0,-1,1693,1387,0,0
476,-363,0,0,0,0,0,0,0,0,0,-1,1700,1387,0,0
483,-363,0,0,0,0,0,0,0,0,0,-1,1707,1387,0,0
490,-363,0,0,0,0,0,0,0,0,0,-1,1714,1387,0,0
497,-363,0,0,0,0,0,0,0,0,0,-1,1721,1387,0,0
504,-363,0,0,0,0,0,0,0,0,0,-1,1728,1387,0,0
511,-363,0,0,0,0,0,0,0,0,0,-1,1735,1387,0,0
518,-363,0,0,0,0,0,0,0,0,0,-1,1742,1387,0,0
525,-363,0,0,0,0,0,0,0,0,0,-1,1749,1387,0,0
532,-363,0,0,0,0,0,0,0,0,0,-1,1756,1387,0,0
539,-363,0,0,0,0,0,0,0,0,0,-1,1763,1387,0,0
546,-363,0,0,0,0,0,0,0,0,0,-1,1770,1387,0,0
553,-363,20.5176,1.28699,0,0,0,0,0,0,0,-1,1777,1387,20.5176,-1.28699
560,-363,20.1282,2.86011,0,0,0,0,0,0,0,-1,1784,1387,20.1282,-2.86016
567,-363,20.1196,3.49683,0,0,0,0,0,0,0,-1,1791,1387,20.1196,-3.49686
574,-363,13.896,5.84314,0,0,0,0,0,0,0,-1,1798,1387,13.896,-5.84314
581,-363,15.1686,4.47595,0,0,0,0,0,0,0,-1,1805,1387,15.1686,-4.47596
588,-363,16.2867,3.32141,0,0,0,0,0,0,0,-1,1812,1387,16.2868,-3.32145
595,-363,17.8364,0.548096,0,0,0,0,0,0,0,-1,1819,1387,17.8364,-0.548141
602,-363,14.0654,6.11243,0,0,0,0,0,0,0,-1,1826,1387,14.0654,-6.11239
609,-363,14.3435,6.41492,0,0,0,0,0,0,0,-1,1833,1387,14.3435,-6.41488
616,-363,15.0624,6.46265,0,0,0,0,0,0,0,-1,1840,1387,15.0624,-6.46262
623,-363,15.1372,6.729,0,0,0,0,0,0,0,-1,1847,1387,15.1372,-6.72902
630,-363,15.2576,6.92261,0.0199676,-0.00771694,0.0229334,0.0329125,-0.0206618,0.513872,0.0311995,0.0426411,1854,1387,15.2576,-6.92258
637,-363,14.983,7.22034,0.0107148,-0.00780681,0.0161622,0.0200814,-0.0171734,0.525237,0.0215309,0.036641,1861,1387,14.983,-7.22034
644,-363,15.1486,7.16199,0.00442888,-0.00705466,0.0106536,0.0107894,-0.0134152,0.538237,0.0140019,0.0121514,1868,1387,15.1485,-7.16195
651,-363,15.1589,6.88721,0.000269893,-0.00597958,0.00675118,0.00458441,-0.0102941,0.568657,0.00879842,0.0114546,1875,1387,15.159,-6.88718
658,-363,15.1519,6.64502,-0.00136348,-0.00449398,0.00357234,0.000971472,-0.00682893,0.578917,0.0049086,0.0116946,1882,1387,15.1518,-6.64497
665,-363,15.1306,6.47559,-0.000794916,-0.0029583,0.00245386,0.000805085,-0.0045583,0.577804,0.00333973,0.0113662,1889,1387,15.1306,-6.47556
672,-363,15.1432,6.27783,-0.000619854,-0.00178,0.00164947,0.00054857,-0.00294843,0.616316,0.00217169,0.0134203,1896,1387,15.1432,-6.2778
679,-363,15.166,6.05505,-0.000670408,-0.000856225,0.0010755,0.000316188,-0.00184282,0.742312,0.00134638,0.0154131,1903,1387,15.166,-6.0551
686,-363,15.1619,5.81091,-0.000901466,-0.000201559,0.000679756,0.000213037,-0.00131606,1.02312,0.000956329,0.0144646,1910,1387,15.1619,-5.81094
693,-363,15.1608,5.55591,-0.00149403,8.1972e-05,0.000656823,0.000319819,-0.00173187,1.22337,0.00127463,0.0131109,1917,1387,15.1608,-5.55587
700,-363,15.2347,5.31274,-0.00230913,0.000183774,0.000945367,0.000501726,-0.00262708,1.24635,0.00194037,0.0182015,1924,1387,15.2348,-5.31269
707,-363,15.1528,4.96228,-0.00351116,0.000403587,0.00124071,0.000763684,-0.00387126,1.28832,0.00286947,0.0453954,1931,1387,15.1528,-4.96224
714,-363,15.1709,4.94861,0,0,0,0,0,0,0,-1,1938,1387,15.171,-4.94861
721,-363,14.4045,4.51685,0,0,0,0,0,0,0,-1,1945,1387,14.4045,-4.51685
728,-363,13.8644,4.52063,0,0,0,0,0,0,0,-1,1952,1387,13.8644,-4.52064
735,-363,14.8151,4.4552,0,0,0,0,0,0,0,-1,1959,1387,14.8151,-4.45516
742,-363,18.7352,1.20129,0,0,0,0,0,0,0,-1,1966,1387,18.7353,-1.20129
749,-363,0,0,0,0,0,0,0,0,0,-1,1973,1387,0,0
756,-363,0,0,0,0,0,0,0,0,0,-1,1980,1387,0,0
763,-363,0,0,0,0,0,0,0,0,0,-1,1987,1387,0,0
770,-363,0,0,0,0,0,0,0,0,0,-1,1994,1387,0,0
777,-363,0,0,0,0,0,0,0,0,0,-1,2001,1387,0,0
784,-363,0,0,0,0,0,0,0,0,0,-1,2008,1387,0,0
791,-363,0,0,0,0,0,0,0,0,0,-1,2015,1387,0,0
798,-363,0,0,0,0,0,0,0,0,0,-1,2022,1387,0,0
805,-363,0,0,0,0,0,0,0,0,0,-1,2029,1387,0,0
812,-363,0,0,0,0,0,0,0,0,0,-1,2036,1387,0,0
-700,-370,0,0,0,0,0,0,0,0,0,-1,524,1394,0,0
-693,-370,0,0,0,0,0,0,0,0,0,-1,531,1394,0,0
-686,-370,0,0,0,0,0,0,0,0,0,-1,538,1394,0,0
-679,-370,0,0,0,0,0,0,0,0,0,-1,545,1394,0,0
-672,-370,0,0,0,0,0,0,0,0,0,-1,552,1394,0,0
-665,-370,0,0,0,0,0,0,0,0,0,-1,559,1394,0,0
-658,-370,0,0,0,0,0,0,0,0,0,-1,566,1394,0,0
-651,-370,0,0,0,0,0,0,0,0,0,-1,573,1394,0,0
-644,-370,0,0,0,0,0,0,0,0,0,-1,580,1394,0,0
-637,-370,0,0,0,0,0,0,0,0,0,-1,587,1394,0,0
-630,-370,0,0,0,0,0,0,0,0,0,-1,594,1394,0,0
-623,-370,-10.1758,-7.10486,0,0,0,0,0,0,0,-1,601,1394,-10.1758,7.10483
-616,-370,-8.85925,-1.61475,0,0,0,0,0,0,0,-1,608,1394,-8.85925,1.61476
-609,-370,-5.39325,0.0421143,0,0,0,0,0,0,0,-1,615,1394,-5.39328,-0.0421372
-602,-370,-7.19305,0.585815,0,0,0,0,0,0,0,-1,622,1394,-7.19304,-0.585771
-595,-370,-6.75555,1.43909,0.0546523,0.0247047,0.0165397,0.0619895,0.0173676,0.417524,0.0369247,0.0492563,629,1394,-6.75558,-1.43914
-588,-370,-6.37762,2.30579,0.0387388,0.0199602,0.0171804,0.0489282,0.00977082,0.535318,0.0298989,0.0470939,636,1394,-6.37765,-2.30575
-581,-370,-6.02618,2.94849,0.0262658,0.0154697,0.0148916,0.0367075,0.00502798,0.61152,0.0229798,0.0449956,643,1394,-6.02619,-2.94847
-574,-370,-5.99475,3.16382,0.0168683,0.0117799,0.0128803,0.0274533,0.00119489,0.68789,0.0179172,0.0379213,650,1394,-5.99477,-3.16384
-567,-370,-6.07513,3.29443,0.010205,0.00837999,0.00973526,0.0190704,-0.000485421,0.738668,0.0128785,0.0248975,657,1394,-6.07515,-3.29443
-560,-370,-6.17798,3.48755,0.00608084,0.00579534,0.00606271,0.0120025,-0.000126303,0.773627,0.00804408,0.0149666,664,1394,-6.17799,-3.48754
-553,-370,-6.17841,3.78821,0.00348171,0.00378456,0.0035044,0.00714081,0.00012546,0.806989,0.00471927,0.010894,671,1394,-6.17843,-3.78822
-546,-370,-6.13574,4.03711,0.00201958,0.00221698,0.0017891,0.0039101,0.000326462,0.812955,0.00250501,0.014389,678,1394,-6.13574,-4.03711
-539,-370,-6.13568,4.3208,0.00101566,0.0010992,0.000481818,0.00154106,0.000573804,0.828638,0.000899343,0.0182437,685,1394,-6.13565,-4.32082
-532,-370,-6.17023,4.58679,0.001057,-0.000181857,-0.000338321,0.00114337,-0.000268228,-0.249954,0.000865619,0.0200881,692,1394,-6.17026,-4.58678
-525,-370,-6.16876,4.80835,0.00191213,-0.00083676,-0.000476199,0.00199229,-0.000916917,-0.166761,0.00171746,0.014301,699,1394,-6.16878,-4.80834
-518,-370,-6.15741,5.03979,0.00518871,-0.0020114,-0.00141972,0.00545854,-0.00228122,-0.187818,0.00459235,0.0104421,706,1394,-6.15743,-5.03974
-511,-370,-6.14813,5.3064,0.0108581,-0.00290626,-0.0033883,0.011647,-0.00369512,-0.228746,0.00924587,0.0132056,713,1394,-6.14816,-5.30637
-504,-370,-6.09369,5.60107,0.0179908,-0.00245098,-0.00615889,0.019703,-0.00416318,-0.271157,0.0147206,0.0263654,720,1394,-6.09369,-5.60102
-497,-370,-6.00043,5.849,0,0,0,0,0,0,0,-1,727,1394,-6.00041,-5.84898
-490,-370,-5.30695,4.5271,0,0,0,0,0,0,0,-1,734,1394,-5.30698,-4.52704
-483,-370,-6.02997,4.59253,0,0,0,0,0,0,0,-1,741,1394,-6.02994,-4.5925
-476,-370,-6.75293,4.65796,0,0,0,0,0,0,0,-1,748,1394,-6.7529,-4.65795
-469,-370,-10.584,1.14294,0,0,0,0,0,0,0,-1,755,1394,-10.584,-1.14293
-462,-370,-9.54462,0.387207,0,0,0,0,0,0,0,-1,762,1394,-9.5446,-0.387176
-455,-370,-8.50525,-0.36853,0,0,0,0,0,0,0,-1,769,1394,-8.50523,0.368582
-448,-370,-10.9543,2.28833,0,0,0,0,0,0,0,-1,776,1394,-10.9543,-2.28835
-441,-370,-11.8699,1.8313,0,0,0,0,0,0,0,-1,783,1394,-11.8699,-1.83127
-434,-370,-12.7855,1.37415,0,0,0,0,0,0,0,-1,790,1394,-12.7855,-1.37419
-427,-370,0,0,0,0,0,0,0,0,0,-1,797,1394,0,0
-420,-370,0,0,0,0,0,0,0,0,0,-1,804,1394,0,0
-413,-370,0,0,0,0,0,0,0,0,0,-1,811,1394,0,0
-406,-370,0,0,0,0,0,0,0,0,0,-1,818,1394,0,0
-399,-370,0,0,0,0,0,0,0,0,0,-1,825,1394,0,0
-392,-370,0,0,0,0,0,0,0,0,0,-1,832,1394,0,0
-385,-370,0,0,0,0,0,0,0,0,0,-1,839,1394,0,0
-378,-370,0,0,0,0,0,0,0,0,0,-1,846,1394,0,0
-371,-370,0,0,0,0,0,0,0,0,0,-1,853,1394,0,0
-364,-370,0,0,0,0,0,0,0,0,0,-1,860,1394,0,0
-357,-370,0,0,0,0,0,0,0,0,0,-1,867,1394,0,0
-350,-370,0,0,0,0,0,0,0,0,0,-1,874,1394,0,0
-343,-370,0,0,0,0,0,0,0,0,0,-1,881,1394,0,0
-336,-370,0,0,0,0,0,0,0,0,0,-1,888,1394,0,0
-329,-370,0,0,0,0,0,0,0,0,0,-1,895,1394,0,0
-322,-370,0,0,0,0,0,0,0,0,0,-1,902,1394,0,0
-315,-370,0,0,0,0,0,0,0,0,0,-1,909,1394,0,0
-308,-370,0,0,0,0,0,0,0,0,0,-1,916,1394,0,0
-301,-370,0,0,0,0,0,0,0,0,0,-1,923,1394,0,0
-294,-370,0,0,0,0,0,0,0,0,0,-1,930,1394,0,0
-287,-370,0,0,0,0,0,0,0,0,0,-1,937,1394,0,0
-280,-370,0,0,0,0,0,0,0,0,0,-1,944,1394,0,0
-273,-370,0,0,0,0,0,0,0,0,0,-1,951,1394,0,0
-266,-370,0,0,0,0,0,0,0,0,0,-1,958,1394,0,0
-259,-370,0,0,0,0,0,0,0,0,0,-1,965,1394,0,0
-252,-370,0,0,0,0,0,0,0,0,0,-1,972,1394,0,0
-245,-370,0,0,0,0,0,0,0,0,0,-1,979,1394,0,0
-238,-370,0,0,0,0,0,0,0,0,0,-1,986,1394,0,0
-231,-370,0,0,0,0,0,0,0,0,0,-1,993,1394,0,0
-224,-370,0,0,0,0,0,0,0,0,0,-1,1000,1394,0,0
-217,-370,0,0,0,0,0,0,0,0,0,-1,1007,1394,0,0
-210,-370,0,0,0,0,0,0,0,0,0,-1,1014,1394,0,0
-203,-370,0,0,0,0,0,0,0,0,0,-1,1021,1394,0,0
-196,-370,0,0,0,0,0,0,0,0,0,-1,1028,1394,0,0
-189,-370,0,0,0,0,0,0,0,0,0,-1,1035,1394,0,0
-182,-370,0,0,0,0,0,0,0,0,0,-1,1042,1394,0,0
-175,-370,0,0,0,0,0,0,0,0,0,-1,1049,1394,0,0
-168,-370,0,0,0,0,0,0,0,0,0,-1,1056,1394,0,0
-161,-370,0,0,0,0,0,0,0,0,0,-1,1063,1394,0,0
-154,-370,0,0,0,0,0,0,0,0,0,-1,1070,1394,0,0
-147,-370,0,0,0,0,0,0,0,0,0,-1,1077,1394,0,0
-140,-370,0,0,0,0,0,0,0,0,0,-1,1084,1394,0,0
-133,-370,0,0,0,0,0,0,0,0,0,-1,1091,1394,0,0
-126,-370,0,0,0,0,0,0,0,0,0,-1,1098,1394,0,0
-119,-370,0,0,0,0,0,0,0,0,0,-1,1105,1394,0,0
-112,-370,0,0,0,0,0,0,0,0,0,-1,1112,1394,0,0
-105,-370,0,0,0,0,0,0,0,0,0,-1,1119,1394,0,0
-98,-370,0,0,0,0,0,0,0,0,0,-1,1126,1394,0,0
-91,-370,0,0,0,0,0,0,0,0,0,-1,1133,1394,0,0
-84,-370,0,0,0,0,0,0,0,0,0,-1,1140,1394,0,0
-77,-370,0,0,0,0,0,0,0,0,0,-1,1147,1394,0,0
-70,-370,0,0,0,0,0,0,0,0,0,-1,1154,1394,0,0
-63,-370,0,0,0,0,0,0,0,0,0,-1,1161,1394,0,0
-56,-370,0,0,0,0,0,0,0,0,0,-1,1168,1394,0,0
-49,-370,0,0,0,0,0,0,0,0,0,-1,1175,1394,0,0
-42,-370,0,0,0,0,0,0,0,0,0,-1,1182,1394,0,0
-35,-370,0,0,0,0,0,0,0,0,0,-1,1189,1394,0,0
-28,-370,0,0,0,0,0,0,0,0,0,-1,1196,1394,0,0
-21,-370,0,0,0,0,0,0,0,0,0,-1,1203,1394,0,0
-14,-370,0,0,0,0,0,0,0,0,0,-1,1210,1394,0,0
-7,-370,0,0,0,0,0,0,0,0,0,-1,1217,1394,0,0
0,-370,0,0,0,0,0,0,0,0,0,-1,1224,1394,0,0
7,-370,0,0,0,0,0,0,0,0,0,-1,1231,1394,0,0
14,-370,0,0,0,0,0,0,0,0,0,-1,1238,1394,0,0
21,-370,0,0,0,0,0,0,0,0,0,-1,1245,1394,0,0
28,-370,0,0,0,0,0,0,0,0,0,-1,1252,1394,0,0
35,-370,0,0,0,0,0,0,0,0,0,-1,1259,1394,0,0
42,-370,0,0,0,0,0,0,0,0,0,-1,1266,1394,0,0
49,-370,0,0,0,0,0,0,0,0,0,-1,1273,1394,0,0
56,-370,0,0,0,0,0,0,0,0,0,-1,1280,1394,0,0
63,-370,0,0,0,0,0,0,0,0,0,-1,1287,1394,0,0
70,-370,0,0,0,0,0,0,0,0,0,-1,1294,1394,0,0
77,-370,0,0,0,0,0,0,0,0,0,-1,1301,1394,0,0
84,-370,0,0,0,0,0,0,0,0,0,-1,1308,1394,0,0
91,-370,0,0,0,0,0,0,0,0,0,-1,1315,1394,0,0
98,-370,0,0,0,0,0,0,0,0,0,-1,1322,1394,0,0
105,-370,0,0,0,0,0,0,0,0,0,-1,1329,1394,0,0
112,-370,0,0,0,0,0,0,0,0,0,-1,1336,1394,0,0
119,-370,0,0,0,0,0,0,0,0,0,-1,1343,1394,0,0
126,-370,0,0,0,0,0,0,0,0,0,-1,1350,1394,0,0
133,-370,0,0,0,0,0,0,0,0,0,-1,1357,1394,0,0
140,-370,0,0,0,0,0,0,0,0,0,-1,1364,1394,0,0
147,-370,0,0,0,0,0,0,0,0,0,-1,1371,1394,0,0
154,-370,0,0,0,0,0,0,0,0,0,-1,1378,1394,0,0
161,-370,0,0,0,0,0,0,0,0,0,-1,1385,1394,0,0
168,-370,0,0,0,0,0,0,0,0,0,-1,1392,1394,0,0
175,-370,0,0,0,0,0,0,0,0,0,-1,1399,1394,0,0
182,-370,0,0,0,0,0,0,0,0,0,-1,1406,1394,0,0
189,-370,0,0,0,0,0,0,0,0,0,-1,1413,1394,0,0
196,-370,0,0,0,0,0,0,0,0,0,-1,1420,1394,0,0
203,-370,0,0,0,0,0,0,0,0,0,-1,1427,1394,0,0
210,-370,0,0,0,0,0,0,0,0,0,-1,1434,1394,0,0
217,-370,0,0,0,0,0,0,0,0,0,-1,1441,1394,0,0
224,-370,0,0,0,0,0,0,0,0,0,-1,1448,1394,0,0
231,-370,0,0,0,0,0,0,0,0,0,-1,1455,1394,0,0
238,-370,0,0,0,0,0,0,0,0,0,-1,1462,1394,0,0
245,-370,0,0,0,0,0,0,0,0,0,-1,1469,1394,0,0
252,-370,0,0,0,0,0,0,0,0,0,-1,1476,1394,0,0
259,-370,0,0,0,0,0,0,0,0,0,-1,1483,1394,0,0
266,-370,0,0,0,0,0,0,0,0,0,-1,1490,1394,0,0
273,-370,0,0,0,0,0,0,0,0,0,-1,1497,1394,0,0
280,-370,0,0,0,0,0,0,0,0,0,-1,1504,1394,0,0
287,-370,0,0,0,0,0,0,0,0,0,-1,1511,1394,0,0
294,-370,0,0,0,0,0,0,0,0,0,-1,1518,1394,0,0
301,-370,0,0,0,0,0,0,0,0,0,-1,1525,1394,0,0
308,-370,0,0,0,0,0,0,0,0,0,-1,1532,1394,0,0
315,-370,0,0,0,0,0,0,0,0,0,-1,1539,1394,0,0
322,-370,0,0,0,0,0,0,0,0,0,-1,1546,1394,0,0
329,-370,0,0,0,0,0,0,0,0,0,-1,1553,1394,0,0
336,-370,0,0,0,0,0,0,0,0,0,-1,1560,1394,0,0
343,-370,0,0,0,0,0,0,0,0,0,-1,1567,1394,0,0
350,-370,0,0,0,0,0,0,0,0,0,-1,1574,1394,0,0
357,-370,0,0,0,0,0,0,0,0,0,-1,1581,1394,0,0
364,-370,0,0,0,0,0,0,0,0,0,-1,1588,1394,0,0
371,-370,0,0,0,0,0,0,0,0,0,-1,1595,1394,0,0
378,-370,0,0,0,0,0,0,0,0,0,-1,1602,1394,0,0
385,-370,0,0,0,0,0,0,0,0,0,-1,1609,1394,0,0
392,-370,0,0,0,0,0,0,0,0,0,-1,1616,1394,0,0
399,-370,0,0,0,0,0,0,0,0,0,-1,1623,1394,0,0
406,-370,0,0,0,0,0,0,0,0,0,-1,1630,1394,0,0
413,-370,0,0,0,0,0,0,0,0,0,-1,1637,1394,0,0
420,-370,0,0,0,0,0,0,0,0,0,-1,1644,1394,0,0
427,-370,0,0,0,0,0,0,0,0,0,-1,1651,1394,0,0
434,-370,0,0,0,0,0,0,0,0,0,-1,1658,1394,0,0
441,-370,0,0,0,0,0,0,0,0,0,-1,1665,1394,0,0
448,-370,0,0,0,0,0,0,0,0,0,-1,1672,1394,0,0
455,-370,0,0,0,0,0,0,0,0,0,-1,1679,1394,0,0
462,-370,0,0,0,0,0,0,0,0,0,-1,1686,1394,0,0
469,-370,0,0,0,0,0,0,0,0,0,-1,1693,1394,0,0
476,-370,0,0,0,0,0,0,0,0,0,-1,1700,1394,0,0
483,-370,0,0,0,0,0,0,0,0,0,-1,1707,1394,0,0
490,-370,0,0,0,0,0,0,0,0,0,-1,1714,1394,0,0
497,-370,0,0,0,0,0,0,0,0,0,-1,1721,1394,0,0
504,-370,0,0,0,0,0,0,0,0,0,-1,1728,1394,0,0
511,-370,0,0,0,0,0,0,0,0,0,-1,1735,1394,0,0
518,-370,0,0,0,0,0,0,0,0,0,-1,1742,1394,0,0
525,-370,0,0,0,0,0,0,0,0,0,-1,1749,1394,0,0
532,-370,0,0,0,0,0,0,0,0,0,-1,1756,1394,0,0
539,-370,0,0,0,0,0,0,0,0,0,-1,1763,1394,0,0
546,-370,21.7084,0.258667,0,0,0,0,0,0,0,-1,1770,1394,21.7084,-0.258678
553,-370,20.9537,1.46118,0,0,0,0,0,0,0,-1,1777,1394,20.9537,-1.46115
560,-370,20.2441,2.65051,0,0,0,0,0,0,0,-1,1784,1394,20.2442,-2.65048
567,-370,19.6786,3.53052,0,0,0,0,0,0,0,-1,1791,1394,19.6786,-3.53051
574,-370,13.203,4.47705,0,0,0,0,0,0,0,-1,1798,1394,13.203,-4.47703
581,-370,14.5411,3.60901,0,0,0,0,0,0,0,-1,1805,1394,14.5411,-3.60901
588,-370,15.6494,2.86951,0,0,0,0,0,0,0,-1,1812,1394,15.6494,-2.86946
595,-370,14.8816,2.97034,0,0,0,0,0,0,0,-1,1819,1394,14.8816,-2.97028
602,-370,13.8323,4.88599,0,0,0,0,0,0,0,-1,1826,1394,13.8323,-4.88596
609,-370,14.3762,6.26929,0,0,0,0,0,0,0,-1,1833,1394,14.3763,-6.26928
616,-370,14.4376,6.76196,0,0,0,0,0,0,0,-1,1840,1394,14.4377,-6.76201
623,-370,15.1554,7.08423,0,0,0,0,0,0,0,-1,1847,1394,15.1554,-7.08423
630,-370,14.995,7.3761,0.00349519,-0.00990917,0.0156376,0.0138063,-0.0202203,0.582942,0.0197613,0.0405246,1854,1394,14.995,-7.37612
637,-370,14.7875,7.40637,0.000703722,-0.00854498,0.0108397,0.0078643,-0.0157056,0.583781,0.0138568,0.0283808,1861,1394,14.7875,-7.40638
644,-370,14.9255,7.14111,-0.000477083,-0.00676846,0.00724495,0.00427562,-0.0115212,0.580584,0.00943465,0.01178,1868,1394,14.9255,-7.14106
651,-370,14.9419,6.88208,-0.00111453,-0.00521607,0.0047573,0.0020152,-0.0083458,0.581895,0.00634321,0.0120411,1875,1394,14.9419,-6.88203
658,-370,14.953,6.67297,-0.000882856,-0.00364021,0.00284793,0.000902551,-0.00542562,0.559975,0.00395243,0.0121897,1882,1394,14.953,-6.67299
665,-370,14.9236,6.47253,-0.000469399,-0.00242201,0.00200533,0.00078466,-0.00367607,0.55886,0.00274984,0.0127309,1889,1394,14.9235,-6.47253
672,-370,14.9044,6.24951,-0.000469864,-0.00151993,0.00144294,0.000540596,-0.00253039,0.610913,0.00189303,0.0139281,1896,1394,14.9045,-6.24949
679,-370,14.9265,6.02478,-0.000692823,-0.000855972,0.00108524,0.000313902,-0.0018627,0.747885,0.00135857,0.0135232,1903,1394,14.9265,-6.0248
686,-370,14.9294,5.78442,-0.00113869,-0.000504081,0.000928976,0.000160287,-0.00180305,0.949967,0.00125887,0.0138607,1910,1394,14.9294,-5.78438
693,-370,14.9299,5.54102,-0.00189965,-0.000533178,0.00111596,9.20841e-05,-0.00252492,1.06009,0.0017148,0.0121419,1917,1394,14.9299,-5.54107
700,-370,14.9996,5.28406,-0.0028692,-0.000709438,0.00161443,0.000152983,-0.00373162,1.08017,0.00254028,0.0186821,1924,1394,14.9997,-5.28404
707,-370,14.913,5.1134,-0.00424989,-0.000742837,0.00204419,0.000196882,-0.00518961,1.1399,0.0035272,0.0322771,1931,1394,14.9129,-5.1134
714,-370,15.1604,4.401,0,0,0,0,0,0,0,-1,1938,1394,15.1604,-4.40094
721,-370,15.6377,3.3667,0,0,0,0,0,0,0,-1,1945,1394,15.6377,-3.36667
728,-370,14.614,4.88318,0,0,0,0,0,0,0,-1,1952,1394,14.6141,-4.88324
735,-370,15.9586,5.35278,0,0,0,0,0,0,0,-1,1959,1394,15.9586,-5.35274
742,-370,12.6914,4.10376,0,0,0,0,0,0,0,-1,1966,1394,12.6914,-4.10374
749,-370,0,0,0,0,0,0,0,0,0,-1,1973,1394,0,0
756,-370,0,0,0,0,0,0,0,0,0,-1,1980,1394,0,0
763,-370,0,0,0,0,0,0,0,0,0,-1,1987,1394,0,0
770,-370,0,0,0,0,0,0,0,0,0,-1,1994,1394,0,0
777,-370,0,0,0,0,0,0,0,0,0,-1,2001,1394,0,0
784,-370,0,0,0,0,0,0,0,0,0,-1,2008,1394,0,0
791,-370,0,0,0,0,0,0,0,0,0,-1,2015,1394,0,0
798,-370,0,0,0,0,0,0,0,0,0,-1,2022,1394,0,0
805,-370,0,0,0,0,0,0,0,0,0,-1,2029,1394,0,0
812,-370,0,0,0,0,0,0,0,0,0,-1,2036,1394,0,0
-700,-377,0,0,0,0,0,0,0,0,0,-1,524,1401,0,0
-693,-377,0,0,0,0,0,0,0,0,0,-1,531,1401,0,0
-686,-377,0,0,0,0,0,0,0,0,0,-1,538,1401,0,0
-679,-377,0,0,0,0,0,0,0,0,0,-1,545,1401,0,0
-672,-377,0,0,0,0,0,0,0,0,0,-1,552,1401,0,0
-665,-377,0,0,0,0,0,0,0,0,0,-1,559,1401,0,0
-658,-377,0,0,0,0,0,0,0,0,0,-1,566,1401,0,0
-651,-377,0,0,0,0,0,0,0,0,0,-1,573,1401,0,0
-644,-377,0,0,0,0,0,0,0,0,0,-1,580,1401,0,0
-637,-377,0,0,0,0,0,0,0,0,0,-1,587,1401,0,0
-630,-377,0,0,0,0,0,0,0,0,0,-1,594,1401,0,0
-623,-377,0,0,0,0,0,0,0,0,0,-1,601,1401,0,0
-616,-377,-9.43915,-2.4906,0,0,0,0,0,0,0,-1,608,1401,-9.43915,2.49062
-609,-377,-7.2821,-1.35278,0,0,0,0,0,0,0,-1,615,1401,-7.28208,1.35279
-602,-377,-5.72253,0.430298,0,0,0,0,0,0,0,-1,622,1401,-5.72251,-0.430334
-595,-377,-6.73059,1.52393,0,0,0,0,0,0,0,-1,629,1401,-6.73059,-1.52392
-588,-377,-6.00653,2.62964,0,0,0,0,0,0,0,-1,636,1401,-6.0065,-2.62969
-581,-377,-5.92609,2.71423,0.0309552,0.0184887,0.0207428,0.046381,0.0030628,0.639439,0.029952,0.049871,643,1401,-5.92607,-2.71422
-574,-377,-5.73846,2.99121,0.0200848,0.0137392,0.0158532,0.0330796,0.000744371,0.686634,0.0218092,0.0434579,650,1401,-5.73844,-2.99117
-567,-377,-5.7749,3.29651,0.0122822,0.00967994,0.0110978,0.0221549,-0.000192733,0.727044,0.0148346,0.0297407,657,1401,-5.77492,-3.29651
-560,-377,-5.95392,3.54163,0.00718806,0.00666751,0.00687232,0.013805,5.05452e-05,0.766471,0.00918655,0.0220892,664,1401,-5.9539,-3.54165
-553,-377,-5.92206,3.79895,0.00395988,0.00437154,0.00396133,0.00813238,0.000199033,0.811355,0.00535648,0.0130008,671,1401,-5.92207,-3.799
-546,-377,-5.90814,4.08301,0.00210699,0.00263689,0.00204547,0.0044345,0.000309382,0.849805,0.00285879,0.0163262,678,1401,-5.90814,-4.08297
-539,-377,-5.88489,4.28918,0.000845294,0.00144394,0.000622751,0.00183557,0.000453666,1.00942,0.00110401,0.0206805,685,1401,-5.88487,-4.28923
-532,-377,-5.89471,4.51807,0.000667064,2.84418e-05,-0.000321098,0.000800592,-0.000105086,-0.394094,0.000571984,0.0186828,692,1401,-5.89473,-4.51807
-525,-377,-5.85547,4.80725,0.00141707,-0.000618836,-0.000473319,0.00152173,-0.000723495,-0.217617,0.00132331,0.0169586,699,1401,-5.85544,-4.8073
-518,-377,-5.8877,5.05713,0.00407781,-0.00165766,-0.000977286,0.00423976,-0.00181961,-0.164222,0.00359019,0.0116288,706,1401,-5.8877,-5.05707
-511,-377,-5.90033,5.32837,0.00855784,-0.00275512,-0.00213416,0.00894705,-0.00314433,-0.18039,0.00724397,0.0115017,713,1401,-5.90035,-5.32834
-504,-377,-5.91266,5.59509,0.0141726,-0.00298229,-0.0041287,0.0151146,-0.00392423,-0.224306,0.0116077,0.012292,720,1401,-5.91263,-5.59512
-497,-377,-5.69025,5.8479,0.0207657,-0.00394717,-0.00705107,0.022636,-0.00581744,-0.259275,0.0173579,0.0252603,727,1401,-5.69022,-5.84793
-490,-377,-5.3855,6.19067,0,0,0,0,0,0,0,-1,734,1401,-5.3855,-6.19063
-483,-377,-5.6524,5.07324,0,0,0,0,0,0,0,-1,741,1401,-5.6524,-5.07325
-476,-377,-6.11682,5.10535,0,0,0,0,0,0,0,-1,748,1401,-6.11681,-5.10537
-469,-377,-10.3211,1.9281,0,0,0,0,0,0,0,-1,755,1401,-10.3211,-1.92808
-462,-377,-9.2204,1.0022,0,0,0,0,0,0,0,-1,762,1401,-9.22039,-1.00218
-455,-377,-8.11969,0.0762939,0,0,0,0,0,0,0,-1,769,1401,-8.11968,-0.0762759
-448,-377,-9.05334,0.877319,0,0,0,0,0,0,0,-1,776,1401,-9.05332,-0.877324
-441,-377,-11.212,0.763428,0,0,0,0,0,0,0,-1,783,1401,-11.212,-0.763415
-434,-377,-11.0984,0.996216,0,0,0,0,0,0,0,-1,790,1401,-11.0984,-0.996265
-427,-377,-11.1733,1.25732,0,0,0,0,0,0,0,-1,797,1401,-11.1733,-1.25732
-420,-377,0,0,0,0,0,0,0,0,0,-1,804,1401,0,0
-413,-377,0,0,0,0,0,0,0,0,0,-1,811,1401,0,0
-406,-377,0,0,0,0,0,0,0,0,0,-1,818,1401,0,0
-399,-377,0,0,0,0,0,0,0,0,0,-1,825,1401,0,0
-392,-377,0,0,0,0,0,0,0,0,0,-1,832,1401,0,0
-385,-377,0,0,0,0,0,0,0,0,0,-1,839,1401,0,0
-378,-377,0,0,0,0,0,0,0,0,0,-1,846,1401,0,0
-371,-377,0,0,0,0,0,0,0,0,0,-1,853,1401,0,0
-364,-377,0,0,0,0,0,0,0,0,0,-1,860,1401,0,0
-357,-377,0,0,0,0,0,0,0,0,0,-1,867,1401,0,0
-350,-377,0,0,0,0,0,0,0,0,0,-1,874,1401,0,0
-343,-377,0,0,0,0,0,0,0,0,0,-1,881,1401,0,0
-336,-377,0,0,0,0,0,0,0,0,0,-1,888,1401,0,0
-329,-377,0,0,0,0,0,0,0,0,0,-1,895,1401,0,0
-322,-377,0,0,0,0,0,0,0,0,0,-1,902,1401,0,0
-315,-377,0,0,0,0,0,0,0,0,0,-1,909,1401,0,0
-308,-377,0,0,0,0,0,0,0,0,0,-1,916,1401,0,0
-301,-377,0,0,0,0,0,0,0,0,0,-1,923,1401,0,0
-294,-377,0,0,0,0,0,0,0,0,0,-1,930,1401,0,0
-287,-377,0,0,0,0,0,0,0,0,0,-1,937,1401,0,0
-280,-377,0,0,0,0,0,0,0,0,0,-1,944,1401,0,0
-273,-377,0,0,0,0,0,0,0,0,0,-1,951,1401,0,0
-266,-377,0,0,0,0,0,0,0,0,0,-1,958,1401,0,0
-259,-377,0,0,0,0,0,0,0,0,0,-1,965,1401,0,0
-252,-377,0,0,0,0,0,0,0,0,0,-1,972,1401,0,0
-245,-377,0,0,0,0,0,0,0,0,0,-1,979,1401,0,0
-238,-377,0,0,0,0,0,0,0,0,0,-1,986,1401,0,0
-231,-377,0,0,0,0,0,0,0,0,0,-1,993,1401,0,0
-224,-377,0,0,0,0,0,0,0,0,0,-1,1000,1401,0,0
-217,-377,0,0,0,0,0,0,0,0,0,-1,1007,1401,0,0
-210,-377,0,0,0,0,0,0,0,0,0,-1,1014,1401,0,0
-203,-377,0,0,0,0,0,0,0,0,0,-1,1021,1401,0,0
-196,-377,0,0,0,0,0,0,0,0,0,-1,1028,1401,0,0
-189,-377,0,0,0,0,0,0,0,0,0,-1,1035,1401,0,0
-182,-377,0,0,0,0,0,0,0,0,0,-1,1042,1401,0,0
-175,-377,0,0,0,0,0,0,0,0,0,-1,1049,1401,0,0
-168,-377,0,0,0,0,0,0,0,0,0,-1,1056,1401,0,0
-161,-377,0,0,0,0,0,0,0,0,0,-1,1063,1401,0,0
-154,-377,0,0,0,0,0,0,0,0,0,-1,1070,1401,0,0
-147,-377,0,0,0,0,0,0,0,0,0,-1,1077,1401,0,0
-140,-377,0,0,0,0,0,0,0,0,0,-1,1084,1401,0,0
-133,-377,0,0,0,0,0,0,0,0,0,-1,1091,1401,0,0
-126,-377,0,0,0,0,0,0,0,0,0,-1,1098,1401,0,0
-119,-377,0,0,0,0,0,0,0,0,0,-1,1105,1401,0,0
-112,-377,0,0,0,0,0,0,0,0,0,-1,1112,1401,0,0
-105,-377,0,0,0,0,0,0,0,0,0,-1,1119,1401,0,0
-98,-377,0,0,0,0,0,0,0,0,0,-1,1126,1401,0,0
-91,-377,0,0,0,0,0,0,0,0,0,-1,1133,1401,0,0
-84,-377,0,0,0,0,0,0,0,0,0,-1,1140,1401,0,0
-77,-377,0,0,0,0,0,0,0,0,0,-1,1147,1401,0,0
-70,-377,0,0,0,0,0,0,0,0,0,-1,1154,1401,0,0
-63,-377,0,0,0,0,0,0,0,0,0,-1,1161,1401,0,0
-56,-377,0,0,0,0,0,0,0,0,0,-1,1168,1401,0,0
-49,-377,0,0,0,0,0,0,0,0,0,-1,1175,1401,0,0
-42,-377,0,0,0,0,0,0,0,0,0,-1,1182,1401,0,0
-35,-377,0,0,0,0,0,0,0,0,0,-1,1189,1401,0,0
-28,-377,0,0,0,0,0,0,0,0,0,-1,1196,1401,0,0
-21,-377,0,0,0,0,0,0,0,0,0,-1,1203,1401,0,0
-14,-377,0,0,0,0,0,0,0,0,0,-1,1210,1401,0,0
-7,-377,0,0,0,0,0,0,0,0,0,-1,1217,1401,0,0
0,-377,0,0,0,0,0,0,0,0,0,-1,1224,1401,0,0
7,-377,0,0,0,0,0,0,0,0,0,-1,1231,1401,0,0
14,-377,0,0,0,0,0,0,0,0,0,-1,1238,1401,0,0
21,-377,0,0,0,0,0,0,0,0,0,-1,1245,1401,0,0
28,-377,0,0,0,0,0,0,0,0,0,-1,1252,1401,0,0
35,-377,0,0,0,0,0,0,0,0,0,-1,1259,1401,0,0
42,-377,0,0,0,0,0,0,0,0,0,-1,1266,1401,0,0
49,-377,0,0,0,0,0,0,0,0,0,-1,1273,1401,0,0
56,-377,0,0,0,0,0,0,0,0,0,-1,1280,1401,0,0
63,-377,0,0,0,0,0,0,0,0,0,-1,1287,1401,0,0
70,-377,0,0,0,0,0,0,0,0,0,-1,1294,1401,0,0
77,-377,0,0,0,0,0,0,0,0,0,-1,1301,1401,0,0
84,-377,0,0,0,0,0,0,0,0,0,-1,1308,1401,0,0
91,-377,0,0,0,0,0,0,0,0,0,-1,1315,1401,0,0
98,-377,0,0,0,0,0,0,0,0,0,-1,1322,1401,0,0
105,-377,0,0,0,0,0,0,0,0,0,-1,1329,1401,0,0
112,-377,0,0,0,0,0,0,0,0,0,-1,1336,1401,0,0
119,-377,0,0,0,0,0,0,0,0,0,-1,1343,1401,0,0
126,-377,0,0,0,0,0,0,0,0,0,-1,1350,1401,0,0
133,-377,0,0,0,0,0,0,0,0,0,-1,1357,1401,0,0
140,-377,0,0,0,0,0,0,0,0,0,-1,1364,1401,0,0
147,-377,0,0,0,0,0,0,0,0,0,-1,1371,1401,0,0
154,-377,0,0,0,0,0,0,0,0,0,-1,1378,1401,0,0
161,-377,0,0,0,0,0,0,0,0,0,-1,1385,1401,0,0
168,-377,0,0,0,0,0,0,0,0,0,-1,1392,1401,0,0
175,-377,0,0,0,0,0,0,0,0,0,-1,1399,1401,0,0
182,-377,0,0,0,0,0,0,0,0,0,-1,1406,1401,0,0
189,-377,0,0,0,0,0,0,0,0,0,-1,1413,1401,0,0
196,-377,0,0,0,0,0,0,0,0,0,-1,1420,1401,0,0
203,-377,0,0,0,0,0,0,0,0,0,-1,1427,1401,0,0
210,-377,0,0,0,0,0,0,0,0,0,-1,1434,1401,0,0
217,-377,0,0,0,0,0,0,0,0,0,-1,1441,1401,0,0
224,-377,0,0,0,0,0,0,0,0,0,-1,1448,1401,0,0
231,-377,0,0,0,0,0,0,0,0,0,-1,1455,1401,0,0
238,-377,0,0,0,0,0,0,0,0,0,-1,1462,1401,0,0
245,-377,0,0,0,0,0,0,0,0,0,-1,1469,1401,0,0
252,-377,0,0,0,0,0,0,0,0,0,-1,1476,1401,0,0
259,-377,0,0,0,0,0,0,0,0,0,-1,1483,1401,0,0
266,-377,0,0,0,0,0,0,0,0,0,-1,1490,1401,0,0
273,-377,0,0,0,0,0,0,0,0,0,-1,1497,1401,0,0
280,-377,0,0,0,0,0,0,0,0,0,-1,1504,1401,0,0
287,-377,0,0,0,0,0,0,0,0,0,-1,1511,1401,0,0
294,-377,0,0,0,0,0,0,0,0,0,-1,1518,1401,0,0
301,-377,0,0,0,0,0,0,0,0,0,-1,1525,1401,0,0
308,-377,0,0,0,0,0,0,0,0,0,-1,1532,1401,0,0
315,-377,0,0,0,0,0,0,0,0,0,-1,1539,1401,0,0
322,-377,0,0,0,0,0,0,0,0,0,-1,1546,1401,0,0
329,-377,0,0,0,0,0,0,0,0,0,-1,1553,1401,0,0
336,-377,0,0,0,0,0,0,0,0,0,-1,1560,1401,0,0
343,-377,0,0,0,0,0,0,0,0,0,-1,1567,1401,0,0
350,-377,0,0,0,0,0,0,0,0,0,-1,1574,1401,0,0
357,-377,0,0,0,0,0,0,0,0,0,-1,1581,1401,0,0
364,-377,0,0,0,0,0,0,0,0,0,-1,1588,1401,0,0
371,-377,0,0,0,0,0,0,0,0,0,-1,1595,1401,0,0
378,-377,0,0,0,0,0,0,0,0,0,-1,1602,1401,0,0
385,-377,0,0,0,0,0,0,0,0,0,-1,1609,1401,0,0
392,-377,0,0,0,0,0,0,0,0,0,-1,1616,1401,0,0
399,-377,0,0,0,0,0,0,0,0,0,-1,1623,1401,0,0
406,-377,0,0,0,0,0,0,0,0,0,-1,1630,1401,0,0
413,-377,0,0,0,0,0,0,0,0,0,-1,1637,1401,0,0
420,-377,0,0,0,0,0,0,0,0,0,-1,1644,1401,0,0
427,-377,0,0,0,0,0,0,0,0,0,-1,1651,1401,0,0
434,-377,0,0,0,0,0,0,0,0,0,-1,1658,1401,0,0
441,-377,0,0,0,0,0,0,0,0,0,-1,1665,1401,0,0
448,-377,0,0,0,0,0,0,0,0,0,-1,1672,1401,0,0
455,-377,0,0,0,0,0,0,0,0,0,-1,1679,1401,0,0
462,-377,0,0,0,0,0,0,0,0,0,-1,1686,1401,0,0
469,-377,0,0,0,0,0,0,0,0,0,-1,1693,1401,0,0
476,-377,0,0,0,0,0,0,0,0,0,-1,1700,1401,0,0
483,-377,0,0,0,0,0,0,0,0,0,-1,1707,1401,0,0
490,-377,0,0,0,0,0,0,0,0,0,-1,1714,1401,0,0
497,-377,0,0,0,0,0,0,0,0,0,-1,1721,1401,0,0
504,-377,0,0,0,0,0,0,0,0,0,-1,1728,1401,0,0
511,-377,0,0,0,0,0,0,0,0,0,-1,1735,1401,0,0
518,-377,0,0,0,0,0,0,0,0,0,-1,1742,1401,0,0
525,-377,0,0,0,0,0,0,0,0,0,-1,1749,1401,0,0
532,-377,0,0,0,0,0,0,0,0,0,-1,1756,1401,0,0
539,-377,0,0,0,0,0,0,0,0,0,-1,1763,1401,0,0
546,-377,22.3663,0.877319,0,0,0,0,0,0,0,-1,1770,1401,22.3663,-0.877268
553,-377,21.2521,1.89001,0,0,0,0,0,0,0,-1,1777,1401,21.252,-1.89003
560,-377,20.1377,2.90283,0,0,0,0,0,0,0,-1,1784,1401,20.1378,-2.90279
567,-377,15.1582,2.81689,0,0,0,0,0,0,0,-1,1791,1401,15.1583,-2.81688
574,-377,12.252,3.49695,0,0,0,0,0,0,0,-1,1798,1401,12.2519,-3.49692
581,-377,13.7461,2.83679,0,0,0,0,0,0,0,-1,1805,1401,13.7461,-2.8368
588,-377,15.2402,2.17664,0,0,0,0,0,0,0,-1,1812,1401,15.2402,-2.17669
595,-377,13.0044,2.7074,0,0,0,0,0,0,0,-1,1819,1401,13.0044,-2.70745
602,-377,13.0537,3.23193,0,0,0,0,0,0,0,-1,1826,1401,13.0537,-3.23191
609,-377,15.0223,4.76135,0,0,0,0,0,0,0,-1,1833,1401,15.0224,-4.76129
616,-377,14.1842,5.78992,0,0,0,0,0,0,0,-1,1840,1401,14.1842,-5.78987
623,-377,14.8181,8.09827,0,0,0,0,0,0,0,-1,1847,1401,14.8182,-8.09825
630,-377,14.6699,7.70325,-0.00374742,-0.0104336,0.0103716,0.00380656,-0.0179876,0.62949,0.0134415,0.0415788,1854,1401,14.6699,-7.70326
637,-377,14.6599,7.40576,-0.00276964,-0.00805476,0.00736856,0.00241588,-0.0132403,0.613229,0.0097326,0.015477,1861,1401,14.6599,-7.40579
644,-377,14.7163,7.14087,-0.00180806,-0.00593783,0.00516777,0.00169209,-0.00943798,0.59533,0.00692527,0.0110886,1868,1401,14.7163,-7.1409
651,-377,14.7216,6.89709,-0.00128924,-0.00441282,0.0036327,0.00110317,-0.00680523,0.58238,0.00494572,0.0123968,1875,1401,14.7216,-6.89715
658,-377,14.7281,6.69434,-0.000639264,-0.00303105,0.00242522,0.000868884,-0.0045392,0.556339,0.00335349,0.0138806,1882,1401,14.7281,-6.69439
665,-377,14.7249,6.44751,-0.000344054,-0.00219416,0.00189251,0.000837384,-0.0033756,0.558075,0.00257531,0.0155565,1889,1401,14.7248,-6.44747
672,-377,14.7014,6.21753,-0.000479695,-0.00163909,0.00161266,0.000654293,-0.00277308,0.612857,0.00210106,0.016402,1896,1401,14.7014,-6.21749
679,-377,14.6587,6.02917,-0.000860506,-0.00132208,0.00152022,0.000446346,-0.00262893,0.710068,0.00191878,0.0166556,1903,1401,14.6587,-6.02921
686,-377,14.6826,5.78979,-0.0015806,-0.0013751,0.00167792,0.000203211,-0.00315891,0.815979,0.00217684,0.0144324,1910,1401,14.6826,-5.78974
693,-377,14.7411,5.53699,-0.00263011,-0.00182429,0.00220265,1.1998e-05,-0.00446639,0.875859,0.0029816,0.0127696,1917,1401,14.741,-5.53705
700,-377,14.7008,5.28809,-0.00395585,-0.00240788,0.00305311,-3.21802e-05,-0.00633155,0.909536,0.00421035,0.0248041,1924,1401,14.7008,-5.28815
707,-377,14.4938,5.01086,-0.00589097,-0.00289519,0.00386468,-0.000248271,-0.00853789,0.970277,0.005611,0.0414114,1931,1401,14.4938,-5.01085
714,-377,14.5385,4.56897,0,0,0,0,0,0,0,-1,1938,1401,14.5385,-4.569
721,-377,14.9139,4.01697,0,0,0,0,0,0,0,-1,1945,1401,14.914,-4.01698
728,-377,14.5396,2.79724,0,0,0,0,0,0,0,-1,1952,1401,14.5396,-2.7972
735,-377,16.2814,5.49353,0,0,0,0,0,0,0,-1,1959,1401,16.2814,-5.49358
742,-377,0,0,0,0,0,0,0,0,0,-1,1966,1401,0,0
749,-377,0,0,0,0,0,0,0,0,0,-1,1973,1401,0,0
756,-377,0,0,0,0,0,0,0,0,0,-1,1980,1401,0,0
763,-377,0,0,0,0,0,0,0,0,0,-1,1987,1401,0,0
770,-377,0,0,0,0,0,0,0,0,0,-1,1994,1401,0,0
777,-377,0,0,0,0,0,0,0,0,0,-1,2001,1401,0,0
784,-377,0,0,0,0,0,0,0,0,0,-1,2008,1401,0,0
791,-377,0,0,0,0,0,0,0,0,0,-1,2015,1401,0,0
798,-377,0,0,0,0,0,0,0,0,0,-1,2022,1401,0,0
805,-377,0,0,0,0,0,0,0,0,0,-1,2029,1401,0,0
812,-377,0,0,0,0,0,0,0,0,0,-1,2036,1401,0,0
-700,-384,0,0,0,0,0,0,0,0,0,-1,524,1408,0,0
-693,-384,0,0,0,0,0,0,0,0,0,-1,531,1408,0,0
-686,-384,0,0,0,0,0,0,0,0,0,-1,538,1408,0,0
-679,-384,0,0,0,0,0,0,0,0,0,-1,545,1408,0,0
-672,-384,0,0,0,0,0,0,0,0,0,-1,552,1408,0,0
-665,-384,0,0,0,0,0,0,0,0,0,-1,559,1408,0,0
-658,-384,0,0,0,0,0,0,0,0,0,-1,566,1408,0,0
-651,-384,0,0,0,0,0,0,0,0,0,-1,573,1408,0,0
-644,-384,0,0,0,0,0,0,0,0,0,-1,580,1408,0,0
-637,-384,0,0,0,0,0,0,0,0,0,-1,587,1408,0,0
-630,-384,0,0,0,0,0,0,0,0,0,-1,594,1408,0,0
-623,-384,0,0,0,0,0,0,0,0,0,-1,601,1408,0,0
-616,-384,-10.019,-3.36646,0,0,0,0,0,0,0,-1,608,1408,-10.019,3.36648
-609,-384,-7.72357,-2.3418,0,0,0,0,0,0,0,-1,615,1408,-7.72358,2.34182
-602,-384,-5.59833,-1.04639,0,0,0,0,0,0,0,-1,622,1408,-5.59835,1.04638
-595,-384,-7.40747,2.58838,0,0,0,0,0,0,0,-1,629,1408,-7.40747,-2.58834
-588,-384,-6.87848,2.64856,0.0530019,0.0283468,0.0356952,0.0784383,0.0029104,0.619132,0.0513496,0.04735,636,1408,-6.87847,-2.64856
-581,-384,-6.57965,2.56055,0.0359425,0.0212695,0.0259723,0.0555946,0.00161734,0.647747,0.0365359,0.0477948,643,1408,-6.57965,-2.5605
-574,-384,-6.04828,2.78345,0.0232982,0.0155468,0.0183732,0.0382,0.000644995,0.681451,0.0252544,0.0480195,650,1408,-6.04828,-2.78345
-567,-384,-5.55396,3.2074,0.01421,0.0108978,0.0122106,0.0248763,0.000231479,0.717995,0.0165076,0.0411904,657,1408,-5.55393,-3.20741
-560,-384,-5.58807,3.52649,0.00810489,0.00746153,0.00747224,0.0152624,0.000304055,0.763886,0.0100751,0.0293073,664,1408,-5.58805,-3.52649
-553,-384,-5.65259,3.79041,0.00425529,0.00488351,0.00426034,0.0088413,0.0002975,0.822196,0.00579758,0.0194084,671,1408,-5.65257,-3.79041
-546,-384,-5.65027,4.07568,0.00204264,0.00299191,0.00219626,0.00476423,0.00027031,0.891817,0.00309,0.0143768,678,1408,-5.65026,-4.07572
-539,-384,-5.63989,4.30994,0.000592816,0.00172446,0.000722559,0.00207638,0.000240899,1.11757,0.00131135,0.0155917,685,1408,-5.63992,-4.30997
-532,-384,-5.61383,4.51331,0.000236146,0.000195627,-0.000285186,0.000501792,-7.00187e-05,-0.749938,0.000360143,0.0204044,692,1408,-5.61381,-4.51334
-525,-384,-5.59814,4.82239,0.00090778,-0.000449272,-0.00042007,0.00102729,-0.000568778,-0.27717,0.000934077,0.0186841,699,1408,-5.59813,-4.82234
-518,-384,-5.63818,5.08069,0.00308112,-0.00138275,-0.000561304,0.00315062,-0.00145225,-0.123189,0.0027171,0.0115803,706,1408,-5.63816,-5.08064
-511,-384,-5.66974,5.35327,0.00651039,-0.00247862,-0.00104126,0.00662943,-0.00259766,-0.113829,0.00549417,0.0108854,713,1408,-5.66972,-5.3533
-504,-384,-5.65369,5.62061,0.0107134,-0.00312639,-0.00230317,0.0110866,-0.00349961,-0.16065,0.00879288,0.0122863,720,1408,-5.6537,-5.62056
-497,-384,-5.62024,5.89111,0.0155395,-0.00449974,-0.00452697,0.0165147,-0.00547495,-0.212179,0.0132183,0.0165789,727,1408,-5.62026,-5.89117
-490,-384,-5.46967,6.14563,0.0185378,-0.00457104,-0.00897307,0.0216128,-0.00764606,-0.330152,0.0175224,0.0391146,734,1408,-5.46969,-6.14568
-483,-384,-5.22357,6.44702,0,0,0,0,0,0,0,-1,741,1408,-5.22356,-6.44708
-476,-384,-6.02734,5.67761,0,0,0,0,0,0,0,-1,748,1408,-6.02736,-5.6776
-469,-384,-10.206,2.63721,0,0,0,0,0,0,0,-1,755,1408,-10.206,-2.6372
-462,-384,-9.04291,1.43542,0,0,0,0,0,0,0,-1,762,1408,-9.04293,-1.43545
-455,-384,-7.87988,0.233765,0,0,0,0,0,0,0,-1,769,1408,-7.87986,-0.233709
-448,-384,-9.35529,7.19226,0,0,0,0,0,0,0,-1,776,1408,-9.35531,-7.19226
-441,-384,-10.4697,1.79004,0,0,0,0,0,0,0,-1,783,1408,-10.4697,-1.79003
-434,-384,-10.6449,0.552246,0,0,0,0,0,0,0,-1,790,1408,-10.6449,-0.552216
-427,-384,-10.968,1.10583,0,0,0,0,0,0,0,-1,797,1408,-10.968,-1.10588
-420,-384,-12.5607,4.54858,0,0,0,0,0,0,0,-1,804,1408,-12.5607,-4.54859
-413,-384,0,0,0,0,0,0,0,0,0,-1,811,1408,0,0
-406,-384,0,0,0,0,0,0,0,0,0,-1,818,1408,0,0
-399,-384,0,0,0,0,0,0,0,0,0,-1,825,1408,0,0
-392,-384,0,0,0,0,0,0,0,0,0,-1,832,1408,0,0
-385,-384,0,0,0,0,0,0,0,0,0,-1,839,1408,0,0
-378,-384,0,0,0,0,0,0,0,0,0,-1,846,1408,0,0
-371,-384,0,0,0,0,0,0,0,0,0,-1,853,1408,0,0
-364,-384,0,0,0,0,0,0,0,0,0,-1,860,1408,0,0
-357,-384,0,0,0,0,0,0,0,0,0,-1,867,1408,0,0
-350,-384,0,0,0,0,0,0,0,0,0,-1,874,1408,0,0
-343,-384,0,0,0,0,0,0,0,0,0,-1,881,1408,0,0
-336,-384,0,0,0,0,0,0,0,0,0,-1,888,1408,0,0
-329,-384,0,0,0,0,0,0,0,0,0,-1,895,1408,0,0
-322,-384,0,0,0,0,0,0,0,0,0,-1,902,1408,0,0
-315,-384,0,0,0,0,0,0,0,0,0,-1,909,1408,0,0
-308,-384,0,0,0,0,0,0,0,0,0,-1,916,1408,0,0
-301,-384,0,0,0,0,0,0,0,0,0,-1,923,1408,0,0
-294,-384,0,0,0,0,0,0,0,0,0,-1,930,1408,0,0
-287,-384,0,0,0,0,0,0,0,0,0,-1,937,1408,0,0
-280,-384,0,0,0,0,0,0,0,0,0,-1,944,1408,0,0
-273,-384,0,0,0,0,0,0,0,0,0,-1,951,1408,0,0
-266,-384,0,0,0,0,0,0,0,0,0,-1,958,1408,0,0
-259,-384,0,0,0,0,0,0,0,0,0,-1,965,1408,0,0
-252,-384,0,0,0,0,0,0,0,0,0,-1,972,1408,0,0
-245,-384,0,0,0,0,0,0,0,0,0,-1,979,1408,0,0
-238,-384,0,0,0,0,0,0,0,0,0,-1,986,1408,0,0
-231,-384,0,0,0,0,0,0,0,0,0,-1,993,1408,0,0
-224,-384,0,0,0,0,0,0,0,0,0,-1,1000,1408,0,0
-217,-384,0,0,0,0,0,0,0,0,0,-1,1007,1408,0,0
-210,-384,0,0,0,0,0,0,0,0,0,-1,1014,1408,0,0
-203,-384,0,0,0,0,0,0,0,0,0,-1,1021,1408,0,0
-196,-384,0,0,0,0,0,0,0,0,0,-1,1028,1408,0,0
-189,-384,0,0,0,0,0,0,0,0,0,-1,1035,1408,0,0
-182,-384,0,0,0,0,0,0,0,0,0,-1,1042,1408,0,0
-175,-384,0,0,0,0,0,0,0,0,0,-1,1049,1408,0,0
-168,-384,0,0,0,0,0,0,0,0,0,-1,1056,1408,0,0
-161,-384,0,0,0,0,0,0,0,0,0,-1,1063,1408,0,0
-154,-384,0,0,0,0,0,0,0,0,0,-1,1070,1408,0,0
-147,-384,0,0,0,0,0,0,0,0,0,-1,1077,1408,0,0
-140,-384,0,0,0,0,0,0,0,0,0,-1,1084,1408,0,0
-133,-384,0,0,0,0,0,0,0,0,0,-1,1091,1408,0,0
-126,-384,0,0,0,0,0,0,0,0,0,-1,1098,1408,0,0
-119,-384,0,0,0,0,0,0,0,0,0,-1,1105,1408,0,0
-112,-384,0,0,0,0,0,0,0,0,0,-1,1112,1408,0,0
-105,-384,0,0,0,0,0,0,0,0,0,-1,1119,1408,0,0
-98,-384,0,0,0,0,0,0,0,0,0,-1,1126,1408,0,0
-91,-384,0,0,0,0,0,0,0,0,0,-1,1133,1408,0,0
-84,-384,0,0,0,0,0,0,0,0,0,-1,1140,1408,0,0
-77,-384,0,0,0,0,0,0,0,0,0,-1,1147,1408,0,0
-70,-384,0,0,0,0,0,0,0,0,0,-1,1154,1408,0,0
-63,-384,0,0,0,0,0,0,0,0,0,-1,1161,1408,0,0
-56,-384,0,0,0,0,0,0,0,0,0,-1,1168,1408,0,0
-49,-384,0,0,0,0,0,0,0,0,0,-1,1175,1408,0,0
-42,-384,0,0,0,0,0,0,0,0,0,-1,1182,1408,0,0
-35,-384,0,0,0,0,0,0,0,0,0,-1,1189,1408,0,0
-28,-384,0,0,0,0,0,0,0,0,0,-1,1196,1408,0,0
-21,-384,0,0,0,0,0,0,0,0,0,-1,1203,1408,0,0
-14,-384,0,0,0,0,0,0,0,0,0,-1,1210,1408,0,0
-7,-384,0,0,0,0,0,0,0,0,0,-1,1217,1408,0,0
0,-384,0,0,0,0,0,0,0,0,0,-1,1224,1408,0,0
7,-384,0,0,0,0,0,0,0,0,0,-1,1231,1408,0,0
14,-384,0,0,0,0,0,0,0,0,0,-1,1238,1408,0,0
21,-384,0,0,0,0,0,0,0,0,0,-1,1245,1408,0,0
28,-384,0,0,0,0,0,0,0,0,0,-1,1252,1408,0,0
35,-384,0,0,0,0,0,0,0,0,0,-1,1259,1408,0,0
42,-384,0,0,0,0,0,0,0,0,0,-1,1266,1408,0,0
49,-384,0,0,0,0,0,0,0,0,0,-1,1273,1408,0,0
56,-384,0,0,0,0,0,0,0,0,0,-1,1280,1408,0,0
63,-384,0,0,0,0,0,0,0,0,0,-1,1287,1408,0,0
70,-384,0,0,0,0,0,0,0,0,0,-1,1294,1408,0,0
77,-384,0,0,0,0,0,0,0,0,0,-1,1301,1408,0,0
84,-384,0,0,0,0,0,0,0,0,0,-1,1308,1408,0,0
91,-384,0,0,0,0,0,0,0,0,0,-1,1315,1408,0,0
98,-384,0,0,0,0,0,0,0,0,0,-1,1322,1408,0,0
105,-384,0,0,0,0,0,0,0,0,0,-1,1329,1408,0,0
112,-384,0,0,0,0,0,0,0,0,0,-1,1336,1408,0,0
119,-384,0,0,0,0,0,0,0,0,0,-1,1343,1408,0,0
126,-384,0,0,0,0,0,0,0,0,0,-1,1350,1408,0,0
133,-384,0,0,0,0,0,0,0,0,0,-1,1357,1408,0,0
140,-384,0,0,0,0,0,0,0,0,0,-1,1364,1408,0,0
147,-384,0,0,0,0,0,0,0,0,0,-1,1371,1408,0,0
154,-384,0,0,0,0,0,0,0,0,0,-1,1378,1408,0,0
161,-384,0,0,0,0,0,0,0,0,0,-1,1385,1408,0,0
168,-384,0,0,0,0,0,0,0,0,0,-1,1392,1408,0,0
175,-384,0,0,0,0,0,0,0,0,0,-1,1399,1408,0,0
182,-384,0,0,0,0,0,0,0,0,0,-1,1406,1408,0,0
189,-384,0,0,0,0,0,0,0,0,0,-1,1413,1408,0,0
196,-384,0,0,0,0,0,0,0,0,0,-1,1420,1408,0,0
203,-384,0,0,0,0,0,0,0,0,0,-1,1427,1408,0,0
210,-384,0,0,0,0,0,0,0,0,0,-1,1434,1408,0,0
217,-384,0,0,0,0,0,0,0,0,0,-1,1441,1408,0,0
224,-384,0,0,0,0,0,0,0,0,0,-1,1448,1408,0,0
231,-384,0,0,0,0,0,0,0,0,0,-1,1455,1408,0,0
238,-384,0,0,0,0,0,0,0,0,0,-1,1462,1408,0,0
245,-384,0,0,0,0,0,0,0,0,0,-1,1469,1408,0,0
252,-384,0,0,0,0,0,0,0,0,0,-1,1476,1408,0,0
259,-384,0,0,0,0,0,0,0,0,0,-1,1483,1408,0,0
266,-384,0,0,0,0,0,0,0,0,0,-1,1490,1408,0,0
273,-384,0,0,0,0,0,0,0,0,0,-1,1497,1408,0,0
280,-384,0,0,0,0,0,0,0,0,0,-1,1504,1408,0,0
287,-384,0,0,0,0,0,0,0,0,0,-1,1511,1408,0,0
294,-384,0,0,0,0,0,0,0,0,0,-1,1518,1408,0,0
301,-384,0,0,0,0,0,0,0,0,0,-1,1525,1408,0,0
308,-384,0,0,0,0,0,0,0,0,0,-1,1532,1408,0,0
315,-384,0,0,0,0,0,0,0,0,0,-1,1539,1408,0,0
322,-384,0,0,0,0,0,0,0,0,0,-1,1546,1408,0,0
329,-384,0,0,0,0,0,0,0,0,0,-1,1553,1408,0,0
336,-384,0,0,0,0,0,0,0,0,0,-1,1560,1408,0,0
343,-384,0,0,0,0,0,0,0,0,0,-1,1567,1408,0,0
350,-384,0,0,0,0,0,0,0,0,0,-1,1574,1408,0,0
357,-384,0,0,0,0,0,0,0,0,0,-1,1581,1408,0,0
364,-384,0,0,0,0,0,0,0,0,0,-1,1588,1408,0,0
371,-384,0,0,0,0,0,0,0,0,0,-1,1595,1408,0,0
378,-384,0,0,0,0,0,0,0,0,0,-1,1602,1408,0,0
385,-384,0,0,0,0,0,0,0,0,0,-1,1609,1408,0,0
392,-384,0,0,0,0,0,0,0,0,0,-1,1616,1408,0,0
399,-384,0,0,0,0,0,0,0,0,0,-1,1623,1408,0,0
406,-384,0,0,0,0,0,0,0,0,0,-1,1630,1408,0,0
413,-384,0,0,0,0,0,0,0,0,0,-1,1637,1408,0,0
420,-384,0,0,0,0,0,0,0,0,0,-1,1644,1408,0,0
427,-384,0,0,0,0,0,0,0,0,0,-1,1651,1408,0,0
434,-384,0,0,0,0,0,0,0,0,0,-1,1658,1408,0,0
441,-384,0,0,0,0,0,0,0,0,0,-1,1665,1408,0,0
448,-384,0,0,0,0,0,0,0,0,0,-1,1672,1408,0,0
455,-384,0,0,0,0,0,0,0,0,0,-1,1679,1408,0,0
462,-384,0,0,0,0,0,0,0,0,0,-1,1686,1408,0,0
469,-384,0,0,0,0,0,0,0,0,0,-1,1693,1408,0,0
476,-384,0,0,0,0,0,0,0,0,0,-1,1700,1408,0,0
483,-384,0,0,0,0,0,0,0,0,0,-1,1707,1408,0,0
490,-384,0,0,0,0,0,0,0,0,0,-1,1714,1408,0,0
497,-384,0,0,0,0,0,0,0,0,0,-1,1721,1408,0,0
504,-384,0,0,0,0,0,0,0,0,0,-1,1728,1408,0,0
511,-384,0,0,0,0,0,0,0,0,0,-1,1735,1408,0,0
518,-384,0,0,0,0,0,0,0,0,0,-1,1742,1408,0,0
525,-384,0,0,0,0,0,0,0,0,0,-1,1749,1408,0,0
532,-384,0,0,0,0,0,0,0,0,0,-1,1756,1408,0,0
539,-384,23.4208,1.19556,0,0,0,0,0,0,0,-1,1763,1408,23.4207,-1.19561
546,-384,22.3715,1.52161,0,0,0,0,0,0,0,-1,1770,1408,22.3715,-1.52159
553,-384,21.0801,2.1532,0,0,0,0,0,0,0,-1,1777,1408,21.0801,-2.15317
560,-384,19.7887,2.78479,0,0,0,0,0,0,0,-1,1784,1408,19.7887,-2.78475
567,-384,19.0348,2.75549,0,0,0,0,0,0,0,-1,1791,1408,19.0348,-2.75544
574,-384,11.5477,2.34216,0,0,0,0,0,0,0,-1,1798,1408,11.5477,-2.34214
581,-384,13.024,2.0072,0,0,0,0,0,0,0,-1,1805,1408,13.024,-2.00726
588,-384,14.5002,1.67236,0,0,0,0,0,0,0,-1,1812,1408,14.5002,-1.67238
595,-384,17.2017,4.63574,0,0,0,0,0,0,0,-1,1819,1408,17.2016,-4.63576
602,-384,14.5807,4.99976,0,0,0,0,0,0,0,-1,1826,1408,14.5806,-4.99972
609,-384,14.158,5.49475,0,0,0,0,0,0,0,-1,1833,1408,14.158,-5.49474
616,-384,14.7264,7.55261,0,0,0,0,0,0,0,-1,1840,1408,14.7264,-7.55256
623,-384,14.3273,7.94067,0,0,0,0,0,0,0,-1,1847,1408,14.3273,-7.94065
630,-384,14.4855,7.58191,-0.00708496,-0.0094425,0.00752304,-0.000648899,-0.0158786,0.707686,0.0103762,0.0263246,1854,1408,14.4855,-7.58189
637,-384,14.4646,7.39844,-0.00441911,-0.00695024,0.00543805,-0.000101306,-0.011268,0.671071,0.00747849,0.0159338,1861,1408,14.4646,-7.39843
644,-384,14.4561,7.16504,-0.00252922,-0.0049952,0.00395762,0.000383034,-0.00790745,0.63439,0.00540384,0.014713,1868,1408,14.456,-7.165
651,-384,14.4672,6.90063,-0.00133636,-0.00365965,0.00302856,0.000745701,-0.00574171,0.602269,0.00409905,0.0146204,1875,1408,14.4671,-6.90059
658,-384,14.4827,6.68921,-0.000418411,-0.00251924,0.00226474,0.00102766,-0.0039653,0.568258,0.00304446,0.0150804,1882,1408,14.4827,-6.68917
665,-384,14.5009,6.48022,-0.000134073,-0.00197932,0.00206635,0.00120628,-0.00331967,0.575429,0.00270635,0.0152441,1889,1408,14.5008,-6.48021
672,-384,14.4972,6.22876,-0.000286129,-0.00169849,0.0021074,0.00123026,-0.00321488,0.62373,0.0026503,0.0139703,1896,1408,14.4973,-6.22874
679,-384,14.4679,5.99573,-0.000699307,-0.00167497,0.00234341,0.00120651,-0.00358079,0.682778,0.00287503,0.0148709,1903,1408,14.4679,-5.99577
686,-384,14.4576,5.75952,-0.00154026,-0.00210551,0.0028721,0.00106308,-0.00470885,0.736354,0.0035471,0.0119626,1910,1408,14.4576,-5.7595
693,-384,14.5126,5.52429,-0.00274143,-0.00297211,0.00381276,0.000957732,-0.00667127,0.770278,0.00479872,0.017869,1917,1408,14.5126,-5.52428
700,-384,14.3821,5.49316,-0.00426708,-0.00402542,0.00512325,0.000978427,-0.00927093,0.797188,0.00653123,0.0439659,1924,1408,14.3821,-5.49319
707,-384,14.1406,4.86963,0,0,0,0,0,0,0,-1,1931,1408,14.1407,-4.86966
714,-384,13.9165,4.73706,0,0,0,0,0,0,0,-1,1938,1408,13.9166,-4.73707
721,-384,13.8843,2.8717,0,0,0,0,0,0,0,-1,1945,1408,13.8843,-2.87171
728,-384,15.4409,6.25745,0,0,0,0,0,0,0,-1,1952,1408,15.4409,-6.2574
735,-384,16.7598,6.71289,0,0,0,0,0,0,0,-1,1959,1408,16.7598,-6.71287
742,-384,0,0,0,0,0,0,0,0,0,-1,1966,1408,0,0
749,-384,0,0,0,0,0,0,0,0,0,-1,1973,1408,0,0
756,-384,0,0,0,0,0,0,0,0,0,-1,1980,1408,0,0
763,-384,0,0,0,0,0,0,0,0,0,-1,1987,1408,0,0
770,-384,0,0,0,0,0,0,0,0,0,-1,1994,1408,0,0
777,-384,0,0,0,0,0,0,0,0,0,-1,2001,1408,0,0
784,-384,0,0,0,0,0,0,0,0,0,-1,2008,1408,0,0
791,-384,0,0,0,0,0,0,0,0,0,-1,2015,1408,0,0
798,-384,0,0,0,0,0,0,0,0,0,-1,2022,1408,0,0
805,-384,0,0,0,0,0,0,0,0,0,-1,2029,1408,0,0
812,-384,0,0,0,0,0,0,0,0,0,-1,2036,1408,0,0
-700,-391,0,0,0,0,0,0,0,0,0,-1,524,1415,0,0
-693,-391,0,0,0,0,0,0,0,0,0,-1,531,1415,0,0
-686,-391,0,0,0,0,0,0,0,0,0,-1,538,1415,0,0
-679,-391,0,0,0,0,0,0,0,0,0,-1,545,1415,0,0
-672,-391,0,0,0,0,0,0,0,0,0,-1,552,1415,0,0
-665,-391,0,0,0,0,0,0,0,0,0,-1,559,1415,0,0
-658,-391,0,0,0,0,0,0,0,0,0,-1,566,1415,0,0
-651,-391,0,0,0,0,0,0,0,0,0,-1,573,1415,0,0
-644,-391,0,0,0,0,0,0,0,0,0,-1,580,1415,0,0
-637,-391,0,0,0,0,0,0,0,0,0,-1,587,1415,0,0
-630,-391,0,0,0,0,0,0,0,0,0,-1,594,1415,0,0
-623,-391,0,0,0,0,0,0,0,0,0,-1,601,1415,0,0
-616,-391,0,0,0,0,0,0,0,0,0,-1,608,1415,0,0
-609,-391,-7.71753,-3.69763,0,0,0,0,0,0,0,-1,615,1415,-7.71751,3.69759
-602,-391,-3.36749,-2.07458,0,0,0,0,0,0,0,-1,622,1415,-3.36751,2.07453
-595,-391,-8.24225,2.00781,0,0,0,0,0,0,0,-1,629,1415,-8.24223,-2.00782
-588,-391,-7.51056,2.2804,0.0600469,0.0318182,0.0441339,0.0922684,-0.000403337,0.630634,0.0616472,0.0447899,636,1415,-7.51053,-2.28035
-581,-391,-6.81287,2.53821,0.0404668,0.023739,0.0305443,0.0637716,0.000434153,0.65176,0.0423704,0.0463038,643,1415,-6.81289,-2.53827
-574,-391,-5.12897,2.93921,0,0,0,0,0,0,0,-1,650,1415,-5.12894,-2.93918
-567,-391,-5.13184,3.21667,0.0158169,0.0121242,0.012944,0.0270455,0.000895549,0.714554,0.0177394,0.0456143,657,1415,-5.13184,-3.21672
-560,-391,-5.11383,3.59277,0.00875854,0.00831952,0.00775389,0.016296,0.000782031,0.771247,0.010613,0.0360363,664,1415,-5.11382,-3.59272
-553,-391,-5.34106,3.75586,0.00432053,0.00550735,0.00428187,0.00923674,0.000591142,0.854253,0.00597054,0.0267695,671,1415,-5.34105,-3.75581
-546,-391,-5.38684,4.05286,0.00177409,0.00349358,0.00209756,0.00490076,0.000366918,0.979894,0.00315199,0.011745,678,1415,-5.38683,-4.05287
-539,-391,-5.34448,4.31433,0.000168975,0.00215973,0.000602858,0.00232806,6.45639e-07,1.29851,0.00155183,0.0137591,685,1415,-5.34448,-4.31429
-532,-391,-5.33795,4.55969,-0.000376974,0.000549995,-0.00044358,0.000728057,-0.000555035,-1.18907,0.000743035,0.0242678,692,1415,-5.33797,-4.5597
-525,-391,-5.36987,4.83325,0.000166715,-0.000103815,-0.000567617,0.000614961,-0.000552062,-0.668428,0.000674107,0.0220929,699,1415,-5.36989,-4.83329
-518,-391,-5.40137,5.09229,0.00198011,-0.000956638,-0.000537752,0.00207548,-0.00105201,-0.175527,0.00183761,0.0133114,706,1415,-5.40135,-5.09229
-511,-391,-5.40552,5.34705,0.00452693,-0.00197775,-0.000667273,0.00459467,-0.00204549,-0.101179,0.00392674,0.012442,713,1415,-5.40552,-5.34699
-504,-391,-5.3858,5.62219,0.00739616,-0.00305771,-0.00144801,0.00759302,-0.00325457,-0.135125,0.00642766,0.0116804,720,1415,-5.38578,-5.62214
-497,-391,-5.37848,5.875,0.0104723,-0.00479317,-0.00324156,0.0111321,-0.00545298,-0.200805,0.00976073,0.00985393,727,1415,-5.3785,-5.87498
-490,-391,-5.34753,6.17224,0.0120028,-0.00594728,-0.00719533,0.014531,-0.00847546,-0.33789,0.0134353,0.0183983,734,1415,-5.34753,-6.1723
-483,-391,-5.27625,6.28894,0.01491,-0.00762021,-0.0116875,0.0198776,-0.0125878,-0.401899,0.0189007,0.0453727,741,1415,-5.27625,-6.28893
-476,-391,-5.05035,6.46326,0,0,0,0,0,0,0,-1,748,1415,-5.05038,-6.46325
-469,-391,-3.88953,5.0979,0,0,0,0,0,0,0,-1,755,1415,-3.88955,-5.09794
-462,-391,-8.67688,2.03125,0,0,0,0,0,0,0,-1,762,1415,-8.67685,-2.03121
-455,-391,-8.65576,6.46997,0,0,0,0,0,0,0,-1,769,1415,-8.65579,-6.46999
-448,-391,-8.39618,4.38403,0,0,0,0,0,0,0,-1,776,1415,-8.39617,-4.38405
-441,-391,-9.77704,2.5946,0,0,0,0,0,0,0,-1,783,1415,-9.77702,-2.5946
-434,-391,-11.5403,2.12878,0,0,0,0,0,0,0,-1,790,1415,-11.5403,-2.12881
-427,-391,-10.5311,2.50403,0,0,0,0,0,0,0,-1,797,1415,-10.5311,-2.504
-420,-391,-14.7087,1.24365,0,0,0,0,0,0,0,-1,804,1415,-14.7088,-1.24365
-413,-391,0,0,0,0,0,0,0,0,0,-1,811,1415,0,0
-406,-391,0,0,0,0,0,0,0,0,0,-1,818,1415,0,0
-399,-391,0,0,0,0,0,0,0,0,0,-1,825,1415,0,0
-392,-391,0,0,0,0,0,0,0,0,0,-1,832,1415,0,0
-385,-391,0,0,0,0,0,0,0,0,0,-1,839,1415,0,0
-378,-391,0,0,0,0,0,0,0,0,0,-1,846,1415,0,0
-371,-391,0,0,0,0,0,0,0,0,0,-1,853,1415,0,0
-364,-391,0,0,0,0,0,0,0,0,0,-1,860,1415,0,0
-357,-391,0,0,0,0,0,0,0,0,0,-1,867,1415,0,0
-350,-391,0,0,0,0,0,0,0,0,0,-1,874,1415,0,0
-343,-391,0,0,0,0,0,0,0,0,0,-1,881,1415,0,0
-336,-391,0,0,0,0,0,0,0,0,0,-1,888,1415,0,0
-329,-391,0,0,0,0,0,0,0,0,0,-1,895,1415,0,0
-322,-391,0,0,0,0,0,0,0,0,0,-1,902,1415,0,0
-315,-391,0,0,0,0,0,0,0,0,0,-1,909,1415,0,0
-308,-391,0,0,0,0,0,0,0,0,0,-1,916,1415,0,0
-301,-391,0,0,0,0,0,0,0,0,0,-1,923,1415,0,0
-294,-391,0,0,0,0,0,0,0,0,0,-1,930,1415,0,0
-287,-391,0,0,0,0,0,0,0,0,0,-1,937,1415,0,0
-280,-391,0,0,0,0,0,0,0,0,0,-1,944,1415,0,0
-273,-391,0,0,0,0,0,0,0,0,0,-1,951,1415,0,0
-266,-391,0,0,0,0,0,0,0,0,0,-1,958,1415,0,0
-259,-391,0,0,0,0,0,0,0,0,0,-1,965,1415,0,0
-252,-391,0,0,0,0,0,0,0,0,0,-1,972,1415,0,0
-245,-391,0,0,0,0,0,0,0,0,0,-1,979,1415,0,0
-238,-391,0,0,0,0,0,0,0,0,0,-1,986,1415,0,0
-231,-391,0,0,0,0,0,0,0,0,0,-1,993,1415,0,0
-224,-391,0,0,0,0,0,0,0,0,0,-1,1000,1415,0,0
-217,-391,0,0,0,0,0,0,0,0,0,-1,1007,1415,0,0
-210,-391,0,0,0,0,0,0,0,0,0,-1,1014,1415,0,0
-203,-391,0,0,0,0,0,0,0,0,0,-1,1021,1415,0,0
-196,-391,0,0,0,0,0,0,0,0,0,-1,1028,1415,0,0
-189,-391,0,0,0,0,0,0,0,0,0,-1,1035,1415,0,0
-182,-391,0,0,0,0,0,0,0,0,0,-1,1042,1415,0,0
-175,-391,0,0,0,0,0,0,0,0,0,-1,1049,1415,0,0
-168,-391,0,0,0,0,0,0,0,0,0,-1,1056,1415,0,0
-161,-391,0,0,0,0,0,0,0,0,0,-1,1063,1415,0,0
-154,-391,0,0,0,0,0,0,0,0,0,-1,1070,1415,0,0
-147,-391,0,0,0,0,0,0,0,0,0,-1,1077,1415,0,0
-140,-391,0,0,0,0,0,0,0,0,0,-1,1084,1415,0,0
-133,-391,0,0,0,0,0,0,0,0,0,-1,1091,1415,0,0
-126,-391,0,0,0,0,0,0,0,0,0,-1,1098,1415,0,0
-119,-391,0,0,0,0,0,0,0,0,0,-1,1105,1415,0,0
-112,-391,0,0,0,0,0,0,0,0,0,-1,1112,1415,0,0
-105,-391,0,0,0,0,0,0,0,0,0,-1,1119,1415,0,0
-98,-391,0,0,0,0,0,0,0,0,0,-1,1126,1415,0,0
-91,-391,0,0,0,0,0,0,0,0,0,-1,1133,1415,0,0
-84,-391,0,0,0,0,0,0,0,0,0,-1,1140,1415,0,0
-77,-391,0,0,0,0,0,0,0,0,0,-1,1147,1415,0,0
-70,-391,0,0,0,0,0,0,0,0,0,-1,1154,1415,0,0
-63,-391,0,0,0,0,0,0,0,0,0,-1,1161,1415,0,0
-56,-391,0,0,0,0,0,0,0,0,0,-1,1168,1415,0,0
-49,-391,0,0,0,0,0,0,0,0,0,-1,1175,1415,0,0
-42,-391,0,0,0,0,0,0,0,0,0,-1,1182,1415,0,0
-35,-391,0,0,0,0,0,0,0,0,0,-1,1189,1415,0,0
-28,-391,0,0,0,0,0,0,0,0,0,-1,1196,1415,0,0
-21,-391,0,0,0,0,0,0,0,0,0,-1,1203,1415,0,0
-14,-391,0,0,0,0,0,0,0,0,0,-1,1210,1415,0,0
-7,-391,0,0,0,0,0,0,0,0,0,-1,1217,1415,0,0
0,-391,0,0,0,0,0,0,0,0,0,-1,1224,1415,0,0
7,-391,0,0,0,0,0,0,0,0,0,-1,1231,1415,0,0
14,-391,0,0,0,0,0,0,0,0,0,-1,1238,1415,0,0
21,-391,0,0,0,0,0,0,0,0,0,-1,1245,1415,0,0
28,-391,0,0,0,0,0,0,0,0,0,-1,1252,1415,0,0
35,-391,0,0,0,0,0,0,0,0,0,-1,1259,1415,0,0
42,-391,0,0,0,0,0,0,0,0,0,-1,1266,1415,0,0
49,-391,0,0,0,0,0,0,0,0,0,-1,1273,1415,0,0
56,-391,0,0,0,0,0,0,0,0,0,-1,1280,1415,0,0
63,-391,0,0,0,0,0,0,0,0,0,-1,1287,1415,0,0
70,-391,0,0,0,0,0,0,0,0,0,-1,1294,1415,0,0
77,-391,0,0,0,0,0,0,0,0,0,-1,1301,1415,0,0
84,-391,0,0,0,0,0,0,0,0,0,-1,1308,1415,0,0
91,-391,0,0,0,0,0,0,0,0,0,-1,1315,1415,0,0
98,-391,0,0,0,0,0,0,0,0,0,-1,1322,1415,0,0
105,-391,0,0,0,0,0,0,0,0,0,-1,1329,1415,0,0
112,-391,0,0,0,0,0,0,0,0,0,-1,1336,1415,0,0
119,-391,0,0,0,0,0,0,0,0,0,-1,1343,1415,0,0
126,-391,0,0,0,0,0,0,0,0,0,-1,1350,1415,0,0
133,-391,0,0,0,0,0,0,0,0,0,-1,1357,1415,0,0
140,-391,0,0,0,0,0,0,0,0,0,-1,1364,1415,0,0
147,-391,0,0,0,0,0,0,0,0,0,-1,1371,1415,0,0
154,-391,0,0,0,0,0,0,0,0,0,-1,1378,1415,0,0
161,-391,0,0,0,0,0,0,0,0,0,-1,1385,1415,0,0
168,-391,0,0,0,0,0,0,0,0,0,-1,1392,1415,0,0
175,-391,0,0,0,0,0,0,0,0,0,-1,1399,1415,0,0
182,-391,0,0,0,0,0,0,0,0,0,-1,1406,1415,0,0
189,-391,0,0,0,0,0,0,0,0,0,-1,1413,1415,0,0
196,-391,0,0,0,0,0,0,0,0,0,-1,1420,1415,0,0
203,-391,0,0,0,0,0,0,0,0,0,-1,1427,1415,0,0
210,-391,0,0,0,0,0,0,0,0,0,-1,1434,1415,0,0
217,-391,0,0,0,0,0,0,0,0,0,-1,1441,1415,0,0
224,-391,0,0,0,0,0,0,0,0,0,-1,1448,1415,0,0
231,-391,0,0,0,0,0,0,0,0,0,-1,1455,1415,0,0
238,-391,0,0,0,0,0,0,0,0,0,-1,1462,1415,0,0
245,-391,0,0,0,0,0,0,0,0,0,-1,1469,1415,0,0
252,-391,0,0,0,0,0,0,0,0,0,-1,1476,1415,0,0
259,-391,0,0,0,0,0,0,0,0,0,-1,1483,1415,0,0
266,-391,0,0,0,0,0,0,0,0,0,-1,1490,1415,0,0
273,-391,0,0,0,0,0,0,0,0,0,-1,1497,1415,0,0
280,-391,0,0,0,0,0,0,0,0,0,-1,1504,1415,0,0
287,-391,0,0,0,0,0,0,0,0,0,-1,1511,1415,0,0
294,-391,0,0,0,0,0,0,0,0,0,-1,1518,1415,0,0
301,-391,0,0,0,0,0,0,0,0,0,-1,1525,1415,0,0
308,-391,0,0,0,0,0,0,0,0,0,-1,1532,1415,0,0
315,-391,0,0,0,0,0,0,0,0,0,-1,1539,1415,0,0
322,-391,0,0,0,0,0,0,0,0,0,-1,1546,1415,0,0
329,-391,0,0,0,0,0,0,0,0,0,-1,1553,1415,0,0
336,-391,0,0,0,0,0,0,0,0,0,-1,1560,1415,0,0
343,-391,0,0,0,0,0,0,0,0,0,-1,1567,1415,0,0
350,-391,0,0,0,0,0,0,0,0,0,-1,1574,1415,0,0
357,-391,0,0,0,0,0,0,0,0,0,-1,1581,1415,0,0
364,-391,0,0,0,0,0,0,0,0,0,-1,1588,1415,0,0
371,-391,0,0,0,0,0,0,0,0,0,-1,1595,1415,0,0
378,-391,0,0,0,0,0,0,0,0,0,-1,1602,1415,0,0
385,-391,0,0,0,0,0,0,0,0,0,-1,1609,1415,0,0
392,-391,0,0,0,0,0,0,0,0,0,-1,1616,1415,0,0
399,-391,0,0,0,0,0,0,0,0,0,-1,1623,1415,0,0
406,-391,0,0,0,0,0,0,0,0,0,-1,1630,1415,0,0
413,-391,0,0,0,0,0,0,0,0,0,-1,1637,1415,0,0
420,-391,0,0,0,0,0,0,0,0,0,-1,1644,1415,0,0
427,-391,0,0,0,0,0,0,0,0,0,-1,1651,1415,0,0
434,-391,0,0,0,0,0,0,0,0,0,-1,1658,1415,0,0
441,-391,0,0,0,0,0,0,0,0,0,-1,1665,1415,0,0
448,-391,0,0,0,0,0,0,0,0,0,-1,1672,1415,0,0
455,-391,0,0,0,0,0,0,0,0,0,-1,1679,1415,0,0
462,-391,0,0,0,0,0,0,0,0,0,-1,1686,1415,0,0
469,-391,0,0,0,0,0,0,0,0,0,-1,1693,1415,0,0
476,-391,0,0,0,0,0,0,0,0,0,-1,1700,1415,0,0
483,-391,0,0,0,0,0,0,0,0,0,-1,1707,1415,0,0
490,-391,0,0,0,0,0,0,0,0,0,-1,1714,1415,0,0
497,-391,0,0,0,0,0,0,0,0,0,-1,1721,1415,0,0
504,-391,0,0,0,0,0,0,0,0,0,-1,1728,1415,0,0
511,-391,0,0,0,0,0,0,0,0,0,-1,1735,1415,0,0
518,-391,0,0,0,0,0,0,0,0,0,-1,1742,1415,0,0
525,-391,0,0,0,0,0,0,0,0,0,-1,1749,1415,0,0
532,-391,23.3541,1.15771,0,0,0,0,0,0,0,-1,1756,1415,23.3541,-1.15771
539,-391,22.6211,1.52905,0,0,0,0,0,0,0,-1,1763,1415,22.6211,-1.529
546,-391,21.671,2.0199,0,0,0,0,0,0,0,-1,1770,1415,21.671,-2.01994
553,-391,20.5422,2.27222,0,0,0,0,0,0,0,-1,1777,1415,20.5423,-2.27224
560,-391,19.1654,2.27197,0,0,0,0,0,0,0,-1,1784,1415,19.1654,-2.27193
567,-391,18.4855,3.01099,0,0,0,0,0,0,0,-1,1791,1415,18.4854,-3.01096
574,-391,17.8459,3.70581,0,0,0,0,0,0,0,-1,1798,1415,17.8459,-3.70584
581,-391,12.551,1.32678,0,0,0,0,0,0,0,-1,1805,1415,12.5511,-1.32684
588,-391,16.6328,4.5874,0,0,0,0,0,0,0,-1,1812,1415,16.6328,-4.5874
595,-391,18.2269,5.96387,0,0,0,0,0,0,0,-1,1819,1415,18.2269,-5.96392
602,-391,15.1635,5.69849,0,0,0,0,0,0,0,-1,1826,1415,15.1635,-5.69847
609,-391,14.8518,7.83081,0,0,0,0,0,0,0,-1,1833,1415,14.8518,-7.83086
616,-391,14.4614,7.75012,0,0,0,0,0,0,0,-1,1840,1415,14.4614,-7.75017
623,-391,14.071,7.66943,0,0,0,0,0,0,0,-1,1847,1415,14.071,-7.66948
630,-391,14.2611,7.56335,-0.0060302,-0.00749542,0.00595374,-0.000764171,-0.0127615,0.724181,0.0082647,0.0183645,1854,1415,14.261,-7.56339
637,-391,14.2428,7.37512,-0.00364978,-0.0054142,0.00425544,-0.000186068,-0.00887791,0.68319,0.00585757,0.0156262,1861,1415,14.2428,-7.37516
644,-391,14.2209,7.1543,-0.00192525,-0.0038194,0.00315108,0.000418004,-0.00616265,0.639415,0.00425462,0.0152114,1868,1415,14.2209,-7.15432
651,-391,14.2283,6.9104,-0.000810988,-0.00273134,0.00254127,0.000945452,-0.00448778,0.604772,0.00335175,0.0156003,1875,1415,14.2283,-6.91039
658,-391,14.249,6.70068,8.59152e-05,-0.00173773,0.00206478,0.00143124,-0.00308306,0.577471,0.00266386,0.0153675,1882,1415,14.249,-6.70063
665,-391,14.2684,6.48572,0.000379796,-0.00130666,0.00216708,0.00186192,-0.00278879,0.599857,0.00270281,0.0122318,1889,1415,14.2684,-6.48566
672,-391,14.2698,6.23999,0.000260055,-0.00112029,0.00251213,0.0021751,-0.00303534,0.651338,0.00302188,0.0117427,1896,1415,14.2698,-6.24002
679,-391,14.2582,6.01941,-0.000129743,-0.00117509,0.00306282,0.00245468,-0.00375952,0.700887,0.00361404,0.0122698,1903,1415,14.2582,-6.01944
686,-391,14.2585,5.76489,-0.0010115,-0.00177405,0.00397786,0.00260331,-0.00538887,0.737619,0.00470678,0.013556,1910,1415,14.2585,-5.76485
693,-391,14.2593,5.64221,-0.0022834,-0.00284093,0.00536919,0.00281426,-0.00793859,0.759462,0.00643886,0.0297804,1917,1415,14.2592,-5.64217
700,-391,14.3167,5.5498,0,0,0,0,0,0,0,-1,1924,1415,14.3166,-5.54982
707,-391,12.9524,5.96851,0,0,0,0,0,0,0,-1,1931,1415,12.9524,-5.96849
714,-391,15.6875,7.67896,0,0,0,0,0,0,0,-1,1938,1415,15.6875,-7.67893
721,-391,14.1808,8.08435,0,0,0,0,0,0,0,-1,1945,1415,14.1808,-8.08439
728,-391,13.8102,7.28174,0,0,0,0,0,0,0,-1,1952,1415,13.8102,-7.28174
735,-391,0,0,0,0,0,0,0,0,0,-1,1959,1415,0,0
742,-391,0,0,0,0,0,0,0,0,0,-1,1966,1415,0,0
749,-391,0,0,0,0,0,0,0,0,0,-1,1973,1415,0,0
756,-391,0,0,0,0,0,0,0,0,0,-1,1980,1415,0,0
763,-391,0,0,0,0,0,0,0,0,0,-1,1987,1415,0,0
770,-391,0,0,0,0,0,0,0,0,0,-1,1994,1415,0,0
777,-391,0,0,0,0,0,0,0,0,0,-1,2001,1415,0,0
784,-391,0,0,0,0,0,0,0,0,0,-1,2008,1415,0,0
791,-391,0,0,0,0,0,0,0,0,0,-1,2015,1415,0,0
798,-391,0,0,0,0,0,0,0,0,0,-1,2022,1415,0,0
805,-391,0,0,0,0,0,0,0,0,0,-1,2029,1415,0,0
812,-391,0,0,0,0,0,0,0,0,0,-1,2036,1415,0,0
-700,-398,0,0,0,0,0,0,0,0,0,-1,524,1422,0,0
-693,-398,0,0,0,0,0,0,0,0,0,-1,531,1422,0,0
-686,-398,0,0,0,0,0,0,0,0,0,-1,538,1422,0,0
-679,-398,0,0,0,0,0,0,0,0,0,-1,545,1422,0,0
-672,-398,0,0,0,0,0,0,0,0,0,-1,552,1422,0,0
-665,-398,0,0,0,0,0,0,0,0,0,-1,559,1422,0,0
-658,-398,0,0,0,0,0,0,0,0,0,-1,566,1422,0,0
-651,-398,0,0,0,0,0,0,0,0,0,-1,573,1422,0,0
-644,-398,0,0,0,0,0,0,0,0,0,-1,580,1422,0,0
-637,-398,0,0,0,0,0,0,0,0,0,-1,587,1422,0,0
-630,-398,0,0,0,0,0,0,0,0,0,-1,594,1422,0,0
-623,-398,0,0,0,0,0,0,0,0,0,-1,601,1422,0,0
-616,-398,0,0,0,0,0,0,0,0,0,-1,608,1422,0,0
-609,-398,-7.47125,-4.05322,0,0,0,0,0,0,0,-1,615,1422,-7.47128,4.05317
-602,-398,-4.58868,-2.77026,0,0,0,0,0,0,0,-1,622,1422,-4.58869,2.77023
-595,-398,-10.0841,3.23071,0,0,0,0,0,0,0,-1,629,1422,-10.0841,-3.23069
-588,-398,-8.05505,2.02612,0,0,0,0,0,0,0,-1,636,1422,-8.05504,-2.02618
-581,-398,-6.93018,2.65417,0,0,0,0,0,0,0,-1,643,1422,-6.93017,-2.65423
-574,-398,-4.73645,2.94299,0,0,0,0,0,0,0,-1,650,1422,-4.73648,-2.94294
-567,-398,-4.70026,3.16467,0.0171452,0.013538,0.0139397,0.0293975,0.00128575,0.721061,0.0191841,0.0464788,657,1422,-4.70027,-3.16466
-560,-398,-4.71307,3.18726,0.00924071,0.00940169,0.00840709,0.0177287,0.000913728,0.790185,0.0115266,0.03922,664,1422,-4.71306,-3.18732
-553,-398,-5.00439,3.8103,0.00426,0.00637813,0.00472352,0.0101599,0.000478274,0.89568,0.00661958,0.0332137,671,1422,-5.00439,-3.81034
-546,-398,-5.13226,4.05627,0.00141008,0.00424285,0.0024199,0.00563039,2.25278e-05,1.05017,0.00374611,0.0159559,678,1422,-5.13224,-4.05628
-539,-398,-5.0871,4.34668,-0.000323724,0.00281612,0.000872585,0.00304232,-0.000549926,1.31715,0.0022342,0.0119934,685,1422,-5.0871,-4.34662
-532,-398,-5.10211,4.59021,-0.00104617,0.00113251,-0.000256752,0.00116236,-0.00107602,-1.45506,0.00129265,0.0204654,692,1422,-5.1021,-4.59018
-525,-398,-5.11731,4.83667,-0.000648011,0.000439164,-0.000466171,0.000611679,-0.000820526,-1.21636,0.000829809,0.0206008,699,1422,-5.11729,-4.83672
-518,-398,-5.1167,5.08923,0.000755401,-0.000364731,-0.000402198,0.000884855,-0.000494184,-0.311394,0.000806767,0.0175458,706,1422,-5.11667,-5.08923
-511,-398,-5.11597,5.32312,0.00250323,-0.00131198,-0.000353088,0.00253564,-0.00134439,-0.0915116,0.00227505,0.0129065,713,1422,-5.11595,-5.32311
-504,-398,-5.0976,5.60071,0.00412263,-0.00256811,-0.000785099,0.00421351,-0.002659,-0.115256,0.00400154,0.0125815,720,1422,-5.0976,-5.60075
-497,-398,-5.11505,5.86853,0.00551263,-0.00436948,-0.00217485,0.00597009,-0.00482694,-0.20732,0.00624531,0.00936767,727,1422,-5.11503,-5.86849
-490,-398,-5.13287,6.13196,0.00543106,-0.006103,-0.00544077,0.0075925,-0.00826444,-0.378148,0.00915775,0.0113246,734,1422,-5.13286,-6.13191
-483,-398,-5.01874,6.43018,0.00567581,-0.00844749,-0.00910029,0.0101329,-0.0129046,-0.455437,0.0133328,0.0238648,741,1422,-5.01876,-6.43014
-476,-398,-5.04102,6.38379,0.00520433,-0.0107609,-0.0141969,0.013509,-0.0190655,-0.529288,0.0188979,0.0460689,748,1422,-5.04103,-6.38374
-469,-398,-4.72876,6.51392,0,0,0,0,0,0,0,-1,755,1422,-4.72874,-6.51392
-462,-398,-7.46033,9.12988,0,0,0,0,0,0,0,-1,762,1422,-7.46034,-9.12994
-455,-398,-7.46521,7.30774,0,0,0,0,0,0,0,-1,769,1422,-7.46523,-7.30778
-448,-398,-7.4505,5.25293,0,0,0,0,0,0,0,-1,776,1422,-7.4505,-5.25291
-441,-398,-7.61639,3.32141,0,0,0,0,0,0,0,-1,783,1422,-7.61637,-3.32145
-434,-398,-10.7618,3.297,0,0,0,0,0,0,0,-1,790,1422,-10.7618,-3.29704
-427,-398,-11.9061,2.24939,0,0,0,0,0,0,0,-1,797,1422,-11.9061,-2.24941
-420,-398,-13.467,2.32788,0,0,0,0,0,0,0,-1,804,1422,-13.467,-2.32787
-413,-398,-14.7983,2.15515,0,0,0,0,0,0,0,-1,811,1422,-14.7983,-2.15516
-406,-398,0,0,0,0,0,0,0,0,0,-1,818,1422,0,0
-399,-398,0,0,0,0,0,0,0,0,0,-1,825,1422,0,0
-392,-398,0,0,0,0,0,0,0,0,0,-1,832,1422,0,0
-385,-398,0,0,0,0,0,0,0,0,0,-1,839,1422,0,0
-378,-398,0,0,0,0,0,0,0,0,0,-1,846,1422,0,0
-371,-398,0,0,0,0,0,0,0,0,0,-1,853,1422,0,0
-364,-398,0,0,0,0,0,0,0,0,0,-1,860,1422,0,0
-357,-398,0,0,0,0,0,0,0,0,0,-1,867,1422,0,0
-350,-398,0,0,0,0,0,0,0,0,0,-1,874,1422,0,0
-343,-398,0,0,0,0,0,0,0,0,0,-1,881,1422,0,0
-336,-398,0,0,0,0,0,0,0,0,0,-1,888,1422,0,0
-329,-398,0,0,0,0,0,0,0,0,0,-1,895,1422,0,0
-322,-398,0,0,0,0,0,0,0,0,0,-1,902,1422,0,0
-315,-398,0,0,0,0,0,0,0,0,0,-1,909,1422,0,0
-308,-398,0,0,0,0,0,0,0,0,0,-1,916,1422,0,0
-301,-398,0,0,0,0,0,0,0,0,0,-1,923,1422,0,0
-294,-398,0,0,0,0,0,0,0,0,0,-1,930,1422,0,0
-287,-398,0,0,0,0,0,0,0,0,0,-1,937,1422,0,0
-280,-398,0,0,0,0,0,0,0,0,0,-1,944,1422,0,0
-273,-398,0,0,0,0,0,0,0,0,0,-1,951,1422,0,0
-266,-398,0,0,0,0,0,0,0,0,0,-1,958,1422,0,0
-259,-398,0,0,0,0,0,0,0,0,0,-1,965,1422,0,0
-252,-398,0,0,0,0,0,0,0,0,0,-1,972,1422,0,0
-245,-398,0,0,0,0,0,0,0,0,0,-1,979,1422,0,0
-238,-398,0,0,0,0,0,0,0,0,0,-1,986,1422,0,0
-231,-398,0,0,0,0,0,0,0,0,0,-1,993,1422,0,0
-224,-398,0,0,0,0,0,0,0,0,0,-1,1000,1422,0,0
-217,-398,0,0,0,0,0,0,0,0,0,-1,1007,1422,0,0
-210,-398,0,0,0,0,0,0,0,0,0,-1,1014,1422,0,0
-203,-398,0,0,0,0,0,0,0,0,0,-1,1021,1422,0,0
-196,-398,0,0,0,0,0,0,0,0,0,-1,1028,1422,0,0
-189,-398,0,0,0,0,0,0,0,0,0,-1,1035,1422,0,0
-182,-398,0,0,0,0,0,0,0,0,0,-1,1042,1422,0,0
-175,-398,0,0,0,0,0,0,0,0,0,-1,1049,1422,0,0
-168,-398,0,0,0,0,0,0,0,0,0,-1,1056,1422,0,0
-161,-398,0,0,0,0,0,0,0,0,0,-1,1063,1422,0,0
-154,-398,0,0,0,0,0,0,0,0,0,-1,1070,1422,0,0
-147,-398,0,0,0,0,0,0,0,0,0,-1,1077,1422,0,0
-140,-398,0,0,0,0,0,0,0,0,0,-1,1084,1422,0,0
-133,-398,0,0,0,0,0,0,0,0,0,-1,1091,1422,0,0
-126,-398,0,0,0,0,0,0,0,0,0,-1,1098,1422,0,0
-119,-398,0,0,0,0,0,0,0,0,0,-1,1105,1422,0,0
-112,-398,0,0,0,0,0,0,0,0,0,-1,1112,1422,0,0
-105,-398,0,0,0,0,0,0,0,0,0,-1,1119,1422,0,0
-98,-398,0,0,0,0,0,0,0,0,0,-1,1126,1422,0,0
-91,-398,0,0,0,0,0,0,0,0,0,-1,1133,1422,0,0
-84,-398,0,0,0,0,0,0,0,0,0,-1,1140,1422,0,0
-77,-398,0,0,0,0,0,0,0,0,0,-1,1147,1422,0,0
-70,-398,0,0,0,0,0,0,0,0,0,-1,1154,1422,0,0
-63,-398,0,0,0,0,0,0,0,0,0,-1,1161,1422,0,0
-56,-398,0,0,0,0,0,0,0,0,0,-1,1168,1422,0,0
-49,-398,0,0,0,0,0,0,0,0,0,-1,1175,1422,0,0
-42,-398,0,0,0,0,0,0,0,0,0,-1,1182,1422,0,0
-35,-398,0,0,0,0,0,0,0,0,0,-1,1189,1422,0,0
-28,-398,0,0,0,0,0,0,0,0,0,-1,1196,1422,0,0
-21,-398,0,0,0,0,0,0,0,0,0,-1,1203,1422,0,0
-14,-398,0,0,0,0,0,0,0,0,0,-1,1210,1422,0,0
-7,-398,0,0,0,0,0,0,0,0,0,-1,1217,1422,0,0
0,-398,0,0,0,0,0,0,0,0,0,-1,1224,1422,0,0
7,-398,0,0,0,0,0,0,0,0,0,-1,1231,1422,0,0
14,-398,0,0,0,0,0,0,0,0,0,-1,1238,1422,0,0
21,-398,0,0,0,0,0,0,0,0,0,-1,1245,1422,0,0
28,-398,0,0,0,0,0,0,0,0,0,-1,1252,1422,0,0
35,-398,0,0,0,0,0,0,0,0,0,-1,1259,1422,0,0
42,-398,0,0,0,0,0,0,0,0,0,-1,1266,1422,0,0
49,-398,0,0,0,0,0,0,0,0,0,-1,1273,1422,0,0
56,-398,0,0,0,0,0,0,0,0,0,-1,1280,1422,0,0
63,-398,0,0,0,0,0,0,0,0,0,-1,1287,1422,0,0
70,-398,0,0,0,0,0,0,0,0,0,-1,1294,1422,0,0
77,-398,0,0,0,0,0,0,0,0,0,-1,1301,1422,0,0
84,-398,0,0,0,0,0,0,0,0,0,-1,1308,1422,0,0
91,-398,0,0,0,0,0,0,0,0,0,-1,1315,1422,0,0
98,-398,0,0,0,0,0,0,0,0,0,-1,1322,1422,0,0
105,-398,0,0,0,0,0,0,0,0,0,-1,1329,1422,0,0
112,-398,0,0,0,0,0,0,0,0,0,-1,1336,1422,0,0
119,-398,0,0,0,0,0,0,0,0,0,-1,1343,1422,0,0
126,-398,0,0,0,0,0,0,0,0,0,-1,1350,1422,0,0
133,-398,0,0,0,0,0,0,0,0,0,-1,1357,1422,0,0
140,-398,0,0,0,0,0,0,0,0,0,-1,1364,1422,0,0
147,-398,0,0,0,0,0,0,0,0,0,-1,1371,1422,0,0
154,-398,0,0,0,0,0,0,0,0,0,-1,1378,1422,0,0
161,-398,0,0,0,0,0,0,0,0,0,-1,1385,1422,0,0
168,-398,0,0,0,0,0,0,0,0,0,-1,1392,1422,0,0
175,-398,0,0,0,0,0,0,0,0,0,-1,1399,1422,0,0
182,-398,0,0,0,0,0,0,0,0,0,-1,1406,1422,0,0
189,-398,0,0,0,0,0,0,0,0,0,-1,1413,1422,0,0
196,-398,0,0,0,0,0,0,0,0,0,-1,1420,1422,0,0
203,-398,0,0,0,0,0,0,0,0,0,-1,1427,1422,0,0
210,-398,0,0,0,0,0,0,0,0,0,-1,1434,1422,0,0
217,-398,0,0,0,0,0,0,0,0,0,-1,1441,1422,0,0
224,-398,0,0,0,0,0,0,0,0,0,-1,1448,1422,0,0
231,-398,0,0,0,0,0,0,0,0,0,-1,1455,1422,0,0
238,-398,0,0,0,0,0,0,0,0,0,-1,1462,1422,0,0
245,-398,0,0,0,0,0,0,0,0,0,-1,1469,1422,0,0
252,-398,0,0,0,0,0,0,0,0,0,-1,1476,1422,0,0
259,-398,0,0,0,0,0,0,0,0,0,-1,1483,1422,0,0
266,-398,0,0,0,0,0,0,0,0,0,-1,1490,1422,0,0
273,-398,0,0,0,0,0,0,0,0,0,-1,1497,1422,0,0
280,-398,0,0,0,0,0,0,0,0,0,-1,1504,1422,0,0
287,-398,0,0,0,0,0,0,0,0,0,-1,1511,1422,0,0
294,-398,0,0,0,0,0,0,0,0,0,-1,1518,1422,0,0
301,-398,0,0,0,0,0,0,0,0,0,-1,1525,1422,0,0
308,-398,0,0,0,0,0,0,0,0,0,-1,1532,1422,0,0
315,-398,0,0,0,0,0,0,0,0,0,-1,1539,1422,0,0
322,-398,0,0,0,0,0,0,0,0,0,-1,1546,1422,0,0
329,-398,0,0,0,0,0,0,0,0,0,-1,1553,1422,0,0
336,-398,0,0,0,0,0,0,0,0,0,-1,1560,1422,0,0
343,-398,0,0,0,0,0,0,0,0,0,-1,1567,1422,0,0
350,-398,0,0,0,0,0,0,0,0,0,-1,1574,1422,0,0
357,-398,0,0,0,0,0,0,0,0,0,-1,1581,1422,0,0
364,-398,0,0,0,0,0,0,0,0,0,-1,1588,1422,0,0
371,-398,0,0,0,0,0,0,0,0,0,-1,1595,1422,0,0
378,-398,0,0,0,0,0,0,0,0,0,-1,1602,1422,0,0
385,-398,0,0,0,0,0,0,0,0,0,-1,1609,1422,0,0
392,-398,0,0,0,0,0,0,0,0,0,-1,1616,1422,0,0
399,-398,0,0,0,0,0,0,0,0,0,-1,1623,1422,0,0
406,-398,0,0,0,0,0,0,0,0,0,-1,1630,1422,0,0
413,-398,0,0,0,0,0,0,0,0,0,-1,1637,1422,0,0
420,-398,0,0,0,0,0,0,0,0,0,-1,1644,1422,0,0
427,-398,0,0,0,0,0,0,0,0,0,-1,1651,1422,0,0
434,-398,0,0,0,0,0,0,0,0,0,-1,1658,1422,0,0
441,-398,0,0,0,0,0,0,0,0,0,-1,1665,1422,0,0
448,-398,0,0,0,0,0,0,0,0,0,-1,1672,1422,0,0
455,-398,0,0,0,0,0,0,0,0,0,-1,1679,1422,0,0
462,-398,0,0,0,0,0,0,0,0,0,-1,1686,1422,0,0
469,-398,0,0,0,0,0,0,0,0,0,-1,1693,1422,0,0
476,-398,0,0,0,0,0,0,0,0,0,-1,1700,1422,0,0
483,-398,0,0,0,0,0,0,0,0,0,-1,1707,1422,0,0
490,-398,0,0,0,0,0,0,0,0,0,-1,1714,1422,0,0
497,-398,0,0,0,0,0,0,0,0,0,-1,1721,1422,0,0
504,-398,0,0,0,0,0,0,0,0,0,-1,1728,1422,0,0
511,-398,0,0,0,0,0,0,0,0,0,-1,1735,1422,0,0
518,-398,0,0,0,0,0,0,0,0,0,-1,1742,1422,0,0
525,-398,0,0,0,0,0,0,0,0,0,-1,1749,1422,0,0
532,-398,23.488,1.61963,0,0,0,0,0,0,0,-1,1756,1422,23.4881,-1.61959
539,-398,21.8323,1.8689,0,0,0,0,0,0,0,-1,1763,1422,21.8322,-1.86887
546,-398,20.865,2.10522,0,0,0,0,0,0,0,-1,1770,1422,20.865,-2.10518
553,-398,19.873,2.31494,0,0,0,0,0,0,0,-1,1777,1422,19.873,-2.31496
560,-398,18.7664,2.58093,0,0,0,0,0,0,0,-1,1784,1422,18.7664,-2.58089
567,-398,17.8256,3.19897,0,0,0,0,0,0,0,-1,1791,1422,17.8255,-3.199
574,-398,17.1724,3.84631,0,0,0,0,0,0,0,-1,1798,1422,17.1723,-3.84628
581,-398,16.6462,4.40747,0,0,0,0,0,0,0,-1,1805,1422,16.6463,-4.40747
588,-398,18.2119,6.75757,0,0,0,0,0,0,0,-1,1812,1422,18.2119,-6.75756
595,-398,17.0194,6.8916,0,0,0,0,0,0,0,-1,1819,1422,17.0194,-6.89162
602,-398,15.2242,7.69568,0,0,0,0,0,0,0,-1,1826,1422,15.2243,-7.69563
609,-398,14.1337,8.30151,0,0,0,0,0,0,0,-1,1833,1422,14.1337,-8.30156
616,-398,14.0731,8.04492,-0.0121549,-0.0114464,0.0100595,-0.00173494,-0.0218664,0.802997,0.014035,0.0208753,1840,1422,14.0731,-8.04488
623,-398,14.0164,7.83838,-0.00819282,-0.00816305,0.00706257,-0.00111534,-0.0152405,0.786452,0.00980973,0.0114564,1847,1422,14.0164,-7.83835
630,-398,14.0225,7.60156,-0.00537171,-0.00592452,0.00487663,-0.000763658,-0.0105326,0.757089,0.00678151,0.0116582,1854,1422,14.0224,-7.60158
637,-398,14.0249,7.36829,-0.00318928,-0.0041767,0.00346635,-0.000181651,-0.00718433,0.714659,0.00473016,0.0126081,1861,1422,14.0249,-7.36823
644,-398,13.9692,7.13684,-0.00155514,-0.00287227,0.00262987,0.000497364,-0.00492478,0.662713,0.00346091,0.0175642,1868,1422,13.9692,-7.1369
651,-398,13.9609,6.91321,-0.00042414,-0.00196837,0.00223025,0.00116387,-0.00355638,0.618755,0.00283953,0.0241029,1875,1422,13.9609,-6.91318
658,-398,13.9946,6.72266,0.000529032,-0.00109969,0.00196213,0.00183909,-0.00240974,0.588697,0.00246042,0.0192787,1882,1422,13.9947,-6.7226
665,-398,14.0172,6.47632,0.000919412,-0.000742905,0.00227289,0.00250835,-0.00233184,0.610109,0.0027951,0.013724,1889,1422,14.0173,-6.47635
672,-398,14.017,6.24292,0.000917415,-0.00061214,0.00285143,0.00310485,-0.00279957,0.654378,0.00341044,0.0134386,1896,1422,14.0169,-6.24296
679,-398,14.0052,6.02124,0.000644358,-0.000714827,0.00366284,0.00369012,-0.00376059,0.693673,0.00430173,0.0126072,1903,1422,14.0052,-6.02128
686,-398,14.0409,5.76013,-0.000172316,-0.00142165,0.00493685,0.00417923,-0.0057732,0.722467,0.00577055,0.0187463,1910,1422,14.0409,-5.76008
693,-398,13.8473,5.82483,-0.00143995,-0.00260051,0.00678056,0.00478512,-0.00882557,0.742712,0.00797272,0.0490981,1917,1422,13.8473,-5.82484
700,-398,13.6793,5.97241,0,0,0,0,0,0,0,-1,1924,1422,13.6794,-5.97241
707,-398,10.9731,5.479,0,0,0,0,0,0,0,-1,1931,1422,10.9732,-5.47896
714,-398,11.7313,6.17346,0,0,0,0,0,0,0,-1,1938,1422,11.7313,-6.17348
721,-398,13.9371,8.05103,0,0,0,0,0,0,0,-1,1945,1422,13.9372,-8.05102
728,-398,14.786,7.0282,0,0,0,0,0,0,0,-1,1952,1422,14.786,-7.0282
735,-398,0,0,0,0,0,0,0,0,0,-1,1959,1422,0,0
742,-398,0,0,0,0,0,0,0,0,0,-1,1966,1422,0,0
749,-398,0,0,0,0,0,0,0,0,0,-1,1973,1422,0,0
756,-398,0,0,0,0,0,0,0,0,0,-1,1980,1422,0,0
763,-398,0,0,0,0,0,0,0,0,0,-1,1987,1422,0,0
770,-398,0,0,0,0,0,0,0,0,0,-1,1994,1422,0,0
777,-398,0,0,0,0,0,0,0,0,0,-1,2001,1422,0,0
784,-398,0,0,0,0,0,0,0,0,0,-1,2008,1422,0,0
791,-398,0,0,0,0,0,0,0,0,0,-1,2015,1422,0,0
798,-398,0,0,0,0,0,0,0,0,0,-1,2022,1422,0,0
805,-398,0,0,0,0,0,0,0,0,0,-1,2029,1422,0,0
812,-398,0,0,0,0,0,0,0,0,0,-1,2036,1422,0,0
-700,-405,0,0,0,0,0,0,0,0,0,-1,524,1429,0,0
-693,-405,0,0,0,0,0,0,0,0,0,-1,531,1429,0,0
-686,-405,0,0,0,0,0,0,0,0,0,-1,538,1429,0,0
-679,-405,0,0,0,0,0,0,0,0,0,-1,545,1429,0,0
-672,-405,0,0,0,0,0,0,0,0,0,-1,552,1429,0,0
-665,-405,0,0,0,0,0,0,0,0,0,-1,559,1429,0,0
-658,-405,0,0,0,0,0,0,0,0,0,-1,566,1429,0,0
-651,-405,0,0,0,0,0,0,0,0,0,-1,573,1429,0,0
-644,-405,0,0,0,0,0,0,0,0,0,-1,580,1429,0,0
-637,-405,0,0,0,0,0,0,0,0,0,-1,587,1429,0,0
-630,-405,0,0,0,0,0,0,0,0,0,-1,594,1429,0,0
-623,-405,0,0,0,0,0,0,0,0,0,-1,601,1429,0,0
-616,-405,0,0,0,0,0,0,0,0,0,-1,608,1429,0,0
-609,-405,0,0,0,0,0,0,0,0,0,-1,615,1429,0,0
-602,-405,-5.80988,-3.46594,0,0,0,0,0,0,0,-1,622,1429,-5.80987,3.46592
-595,-405,-7.80023,0.702637,0,0,0,0,0,0,0,-1,629,1429,-7.80026,-0.702685
-588,-405,-8.47327,2.19043,0,0,0,0,0,0,0,-1,636,1429,-8.47326,-2.1904
-581,-405,-7.04626,2.53247,0,0,0,0,0,0,0,-1,643,1429,-7.04626,-2.53245
-574,-405,-5.61926,2.87451,0,0,0,0,0,0,0,-1,650,1429,-5.61926,-2.87449
-567,-405,-4.12817,2.81616,0,0,0,0,0,0,0,-1,657,1429,-4.1282,-2.81617
-560,-405,-4.41901,3.32556,0.0109902,0.0107635,0.0102538,0.0211312,0.000622464,0.779873,0.0138847,0.0482656,664,1429,-4.41903,-3.32562
-553,-405,-4.58398,3.74927,0.00544919,0.00748911,0.00628343,0.0128348,0.000103476,0.865859,0.00852227,0.0455833,671,1429,-4.58398,-3.74927
-546,-405,-4.86279,4.03491,0.00223247,0.00518432,0.00375444,0.00774252,-0.000325727,0.972677,0.00527361,0.0240524,678,1429,-4.8628,-4.03487
-539,-405,-4.86462,4.30786,0.000267638,0.00361275,0.00202937,0.00456998,-0.000689598,1.13005,0.00330062,0.0112276,685,1429,-4.86462,-4.30787
-532,-405,-4.85767,4.57129,-0.000746836,0.00183751,0.00069884,0.00201438,-0.000923707,1.32291,0.00173483,0.0149205,692,1429,-4.85766,-4.57129
-525,-405,-4.85944,4.85535,-0.000655887,0.0010802,0.000261661,0.00111878,-0.000694467,1.42441,0.00105639,0.0152685,699,1429,-4.85944,-4.85532
-518,-405,-4.84833,5.11731,0.000291294,0.000256018,0.000134633,0.000409439,0.000137873,0.720265,0.000240554,0.0161651,706,1429,-4.84831,-5.11729
-511,-405,-4.84302,5.34631,0.00135713,-0.000647686,9.35922e-05,0.00136149,-0.000652046,0.0465486,0.00118633,0.016266,713,1429,-4.843,-5.34636
-504,-405,-4.84448,5.60779,0.0022329,-0.00181893,-0.000405527,0.00227309,-0.00185911,-0.0987794,0.00238972,0.0166577,720,1429,-4.84446,-5.60775
-497,-405,-4.84491,5.88831,0.00266353,-0.00344184,-0.0017656,0.00313735,-0.00391566,-0.262184,0.00408032,0.0131433,727,1429,-4.84493,-5.88828
-490,-405,-4.85852,6.14514,0.00195149,-0.00521021,-0.00463647,0.00422891,-0.00748763,-0.456581,0.00685121,0.0130374,734,1429,-4.85853,-6.14512
-483,-405,-4.85168,6.40125,0.00105183,-0.0074176,-0.00775232,0.00565064,-0.0120164,-0.535418,0.0104185,0.0127029,741,1429,-4.8517,-6.40126
-476,-405,-4.80164,6.63025,-0.000705209,-0.00971041,-0.0119936,0.00760309,-0.0180187,-0.60583,0.0151947,0.0279573,748,1429,-4.80165,-6.63022
-469,-405,-4.70459,6.6543,-0.00394981,-0.0121961,-0.0181045,0.0104951,-0.026641,-0.673438,0.0221057,0.0432123,755,1429,-4.7046,-6.65429
-462,-405,-4.50354,6.77966,0,0,0,0,0,0,0,-1,762,1429,-4.50356,-6.77968
-455,-405,-6.22498,8.00427,0,0,0,0,0,0,0,-1,769,1429,-6.225,-8.00432
-448,-405,-6.44812,6.12097,0,0,0,0,0,0,0,-1,776,1429,-6.44811,-6.12098
-441,-405,-6.6712,4.23767,0,0,0,0,0,0,0,-1,783,1429,-6.67121,-4.23764
-434,-405,-9.62549,3.94189,0,0,0,0,0,0,0,-1,790,1429,-9.62546,-3.94191
-427,-405,-10.9764,3.73926,0,0,0,0,0,0,0,-1,797,1429,-10.9764,-3.73923
-420,-405,-12.1187,3.68506,0,0,0,0,0,0,0,-1,804,1429,-12.1187,-3.68512
-413,-405,-13.5353,3.75659,0,0,0,0,0,0,0,-1,811,1429,-13.5353,-3.75655
-406,-405,-14.7374,3.99817,0,0,0,0,0,0,0,-1,818,1429,-14.7374,-3.99814
-399,-405,0,0,0,0,0,0,0,0,0,-1,825,1429,0,0
-392,-405,0,0,0,0,0,0,0,0,0,-1,832,1429,0,0
-385,-405,0,0,0,0,0,0,0,0,0,-1,839,1429,0,0
-378,-405,0,0,0,0,0,0,0,0,0,-1,846,1429,0,0
-371,-405,0,0,0,0,0,0,0,0,0,-1,853,1429,0,0
-364,-405,0,0,0,0,0,0,0,0,0,-1,860,1429,0,0
-357,-405,0,0,0,0,0,0,0,0,0,-1,867,1429,0,0
-350,-405,0,0,0,0,0,0,0,0,0,-1,874,1429,0,0
-343,-405,0,0,0,0,0,0,0,0,0,-1,881,1429,0,0
-336,-405,0,0,0,0,0,0,0,0,0,-1,888,1429,0,0
-329,-405,0,0,0,0,0,0,0,0,0,-1,895,1429,0,0
-322,-405,0,0,0,0,0,0,0,0,0,-1,902,1429,0,0
-315,-405,0,0,0,0,0,0,0,0,0,-1,909,1429,0,0
-308,-405,0,0,0,0,0,0,0,0,0,-1,916,1429,0,0
-301,-405,0,0,0,0,0,0,0,0,0,-1,923,1429,0,0
-294,-405,0,0,0,0,0,0,0,0,0,-1,930,1429,0,0
-287,-405,0,0,0,0,0,0,0,0,0,-1,937,1429,0,0
-280,-405,0,0,0,0,0,0,0,0,0,-1,944,1429,0,0
-273,-405,0,0,0,0,0,0,0,0,0,-1,951,1429,0,0
-266,-405,0,0,0,0,0,0,0,0,0,-1,958,1429,0,0
-259,-405,0,0,0,0,0,0,0,0,0,-1,965,1429,0,0
-252,-405,0,0,0,0,0,0,0,0,0,-1,972,1429,0,0
-245,-405,0,0,0,0,0,0,0,0,0,-1,979,1429,0,0
-238,-405,0,0,0,0,0,0,0,0,0,-1,986,1429,0,0
-231,-405,0,0,0,0,0,0,0,0,0,-1,993,1429,0,0
-224,-405,0,0,0,0,0,0,0,0,0,-1,1000,1429,0,0
-217,-405,0,0,0,0,0,0,0,0,0,-1,1007,1429,0,0
-210,-405,0,0,0,0,0,0,0,0,0,-1,1014,1429,0,0
-203,-405,0,0,0,0,0,0,0,0,0,-1,1021,1429,0,0
-196,-405,0,0,0,0,0,0,0,0,0,-1,1028,1429,0,0
-189,-405,0,0,0,0,0,0,0,0,0,-1,1035,1429,0,0
-182,-405,0,0,0,0,0,0,0,0,0,-1,1042,1429,0,0
-175,-405,0,0,0,0,0,0,0,0,0,-1,1049,1429,0,0
-168,-405,0,0,0,0,0,0,0,0,0,-1,1056,1429,0,0
-161,-405,0,0,0,0,0,0,0,0,0,-1,1063,1429,0,0
-154,-405,0,0,0,0,0,0,0,0,0,-1,1070,1429,0,0
-147,-405,0,0,0,0,0,0,0,0,0,-1,1077,1429,0,0
-140,-405,0,0,0,0,0,0,0,0,0,-1,1084,1429,0,0
-133,-405,0,0,0,0,0,0,0,0,0,-1,1091,1429,0,0
-126,-405,0,0,0,0,0,0,0,0,0,-1,1098,1429,0,0
-119,-405,0,0,0,0,0,0,0,0,0,-1,1105,1429,0,0
-112,-405,0,0,0,0,0,0,0,0,0,-1,1112,1429,0,0
-105,-405,0,0,0,0,0,0,0,0,0,-1,1119,1429,0,0
-98,-405,0,0,0,0,0,0,0,0,0,-1,1126,1429,0,0
-91,-405,0,0,0,0,0,0,0,0,0,-1,1133,1429,0,0
-84,-405,0,0,0,0,0,0,0,0,0,-1,1140,1429,0,0
-77,-405,0,0,0,0,0,0,0,0,0,-1,1147,1429,0,0
-70,-405,0,0,0,0,0,0,0,0,0,-1,1154,1429,0,0
-63,-405,0,0,0,0,0,0,0,0,0,-1,1161,1429,0,0
-56,-405,0,0,0,0,0,0,0,0,0,-1,1168,1429,0,0
-49,-405,0,0,0,0,0,0,0,0,0,-1,1175,1429,0,0
-42,-405,0,0,0,0,0,0,0,0,0,-1,1182,1429,0,0
-35,-405,0,0,0,0,0,0,0,0,0,-1,1189,1429,0,0
-28,-405,0,0,0,0,0,0,0,0,0,-1,1196,1429,0,0
-21,-405,0,0,0,0,0,0,0,0,0,-1,1203,1429,0,0
-14,-405,0,0,0,0,0,0,0,0,0,-1,1210,1429,0,0
-7,-405,0,0,0,0,0,0,0,0,0,-1,1217,1429,0,0
0,-405,0,0,0,0,0,0,0,0,0,-1,1224,1429,0,0
7,-405,0,0,0,0,0,0,0,0,0,-1,1231,1429,0,0
14,-405,0,0,0,0,0,0,0,0,0,-1,1238,1429,0,0
21,-405,0,0,0,0,0,0,0,0,0,-1,1245,1429,0,0
28,-405,0,0,0,0,0,0,0,0,0,-1,1252,1429,0,0
35,-405,0,0,0,0,0,0,0,0,0,-1,1259,1429,0,0
42,-405,0,0,0,0,0,0,0,0,0,-1,1266,1429,0,0
49,-405,0,0,0,0,0,0,0,0,0,-1,1273,1429,0,0
56,-405,0,0,0,0,0,0,0,0,0,-1,1280,1429,0,0
63,-405,0,0,0,0,0,0,0,0,0,-1,1287,1429,0,0
70,-405,0,0,0,0,0,0,0,0,0,-1,1294,1429,0,0
77,-405,0,0,0,0,0,0,0,0,0,-1,1301,1429,0,0
84,-405,0,0,0,0,0,0,0,0,0,-1,1308,1429,0,0
91,-405,0,0,0,0,0,0,0,0,0,-1,1315,1429,0,0
98,-405,0,0,0,0,0,0,0,0,0,-1,1322,1429,0,0
105,-405,0,0,0,0,0,0,0,0,0,-1,1329,1429,0,0
112,-405,0,0,0,0,0,0,0,0,0,-1,1336,1429,0,0
119,-405,0,0,0,0,0,0,0,0,0,-1,1343,1429,0,0
126,-405,0,0,0,0,0,0,0,0,0,-1,1350,1429,0,0
133,-405,0,0,0,0,0,0,0,0,0,-1,1357,1429,0,0
140,-405,0,0,0,0,0,0,0,0,0,-1,1364,1429,0,0
147,-405,0,0,0,0,0,0,0,0,0,-1,1371,1429,0,0
154,-405,0,0,0,0,0,0,0,0,0,-1,1378,1429,0,0
161,-405,0,0,0,0,0,0,0,0,0,-1,1385,1429,0,0
168,-405,0,0,0,0,0,0,0,0,0,-1,1392,1429,0,0
175,-405,0,0,0,0,0,0,0,0,0,-1,1399,1429,0,0
182,-405,0,0,0,0,0,0,0,0,0,-1,1406,1429,0,0
189,-405,0,0,0,0,0,0,0,0,0,-1,1413,1429,0,0
196,-405,0,0,0,0,0,0,0,0,0,-1,1420,1429,0,0
203,-405,0,0,0,0,0,0,0,0,0,-1,1427,1429,0,0
210,-405,0,0,0,0,0,0,0,0,0,-1,1434,1429,0,0
217,-405,0,0,0,0,0,0,0,0,0,-1,1441,1429,0,0
224,-405,0,0,0,0,0,0,0,0,0,-1,1448,1429,0,0
231,-405,0,0,0,0,0,0,0,0,0,-1,1455,1429,0,0
238,-405,0,0,0,0,0,0,0,0,0,-1,1462,1429,0,0
245,-405,0,0,0,0,0,0,0,0,0,-1,1469,1429,0,0
252,-405,0,0,0,0,0,0,0,0,0,-1,1476,1429,0,0
259,-405,0,0,0,0,0,0,0,0,0,-1,1483,1429,0,0
266,-405,0,0,0,0,0,0,0,0,0,-1,1490,1429,0,0
273,-405,0,0,0,0,0,0,0,0,0,-1,1497,1429,0,0
280,-405,0,0,0,0,0,0,0,0,0,-1,1504,1429,0,0
287,-405,0,0,0,0,0,0,0,0,0,-1,1511,1429,0,0
294,-405,0,0,0,0,0,0,0,0,0,-1,1518,1429,0,0
301,-405,0,0,0,0,0,0,0,0,0,-1,1525,1429,0,0
308,-405,0,0,0,0,0,0,0,0,0,-1,1532,1429,0,0
315,-405,0,0,0,0,0,0,0,0,0,-1,1539,1429,0,0
322,-405,0,0,0,0,0,0,0,0,0,-1,1546,1429,0,0
329,-405,0,0,0,0,0,0,0,0,0,-1,1553,1429,0,0
336,-405,0,0,0,0,0,0,0,0,0,-1,1560,1429,0,0
343,-405,0,0,0,0,0,0,0,0,0,-1,1567,1429,0,0
350,-405,0,0,0,0,0,0,0,0,0,-1,1574,1429,0,0
357,-405,0,0,0,0,0,0,0,0,0,-1,1581,1429,0,0
364,-405,0,0,0,0,0,0,0,0,0,-1,1588,1429,0,0
371,-405,0,0,0,0,0,0,0,0,0,-1,1595,1429,0,0
378,-405,0,0,0,0,0,0,0,0,0,-1,1602,1429,0,0
385,-405,0,0,0,0,0,0,0,0,0,-1,1609,1429,0,0
392,-405,0,0,0,0,0,0,0,0,0,-1,1616,1429,0,0
399,-405,0,0,0,0,0,0,0,0,0,-1,1623,1429,0,0
406,-405,0,0,0,0,0,0,0,0,0,-1,1630,1429,0,0
413,-405,0,0,0,0,0,0,0,0,0,-1,1637,1429,0,0
420,-405,0,0,0,0,0,0,0,0,0,-1,1644,1429,0,0
427,-405,0,0,0,0,0,0,0,0,0,-1,1651,1429,0,0
434,-405,0,0,0,0,0,0,0,0,0,-1,1658,1429,0,0
441,-405,0,0,0,0,0,0,0,0,0,-1,1665,1429,0,0
448,-405,0,0,0,0,0,0,0,0,0,-1,1672,1429,0,0
455,-405,0,0,0,0,0,0,0,0,0,-1,1679,1429,0,0
462,-405,0,0,0,0,0,0,0,0,0,-1,1686,1429,0,0
469,-405,0,0,0,0,0,0,0,0,0,-1,1693,1429,0,0
476,-405,0,0,0,0,0,0,0,0,0,-1,1700,1429,0,0
483,-405,0,0,0,0,0,0,0,0,0,-1,1707,1429,0,0
490,-405,0,0,0,0,0,0,0,0,0,-1,1714,1429,0,0
497,-405,0,0,0,0,0,0,0,0,0,-1,1721,1429,0,0
504,-405,0,0,0,0,0,0,0,0,0,-1,1728,1429,0,0
511,-405,0,0,0,0,0,0,0,0,0,-1,1735,1429,0,0
518,-405,0,0,0,0,0,0,0,0,0,-1,1742,1429,0,0
525,-405,14.6423,1.7583,0,0,0,0,0,0,0,-1,1749,1429,14.6424,-1.75824
532,-405,22.7542,1.85034,0,0,0,0,0,0,0,-1,1756,1429,22.7541,-1.85038
539,-405,21.1149,1.93384,0,0,0,0,0,0,0,-1,1763,1429,21.1149,-1.93381
546,-405,20.1537,2.11157,0,0,0,0,0,0,0,-1,1770,1429,20.1537,-2.11163
553,-405,19.1523,2.2356,0,0,0,0,0,0,0,-1,1777,1429,19.1523,-2.23566
560,-405,17.9702,2.44043,0,0,0,0,0,0,0,-1,1784,1429,17.9703,-2.44041
567,-405,16.8976,3.23425,0,0,0,0,0,0,0,-1,1791,1429,16.8976,-3.2343
574,-405,16.168,4.06287,0,0,0,0,0,0,0,-1,1798,1429,16.168,-4.06291
581,-405,15.5306,4.74963,0,0,0,0,0,0,0,-1,1805,1429,15.5306,-4.74958
588,-405,17.1189,7.43933,0,0,0,0,0,0,0,-1,1812,1429,17.1189,-7.43928
595,-405,15.4417,7.72314,0,0,0,0,0,0,0,-1,1819,1429,15.4416,-7.72313
602,-405,14.6229,7.9657,-0.0210537,-0.0153959,0.0125047,-0.00540412,-0.0310455,0.896637,0.0191515,0.042437,1826,1429,14.6229,-7.96568
609,-405,13.8059,8.2478,-0.0151971,-0.0121492,0.0106047,-0.0029595,-0.0243868,0.856762,0.0153667,0.0208394,1833,1429,13.8059,-8.24775
616,-405,13.781,8.1051,-0.0105698,-0.00920785,0.00837122,-0.00148997,-0.0182877,0.825983,0.0117267,0.0104491,1840,1429,13.781,-8.10513
623,-405,13.7616,7.86841,-0.00718085,-0.0064164,0.00590771,-0.000878558,-0.0127187,0.817703,0.00820197,0.00947426,1847,1429,13.7617,-7.86839
630,-405,13.7687,7.61377,-0.00469158,-0.00463124,0.00409449,-0.000566809,-0.00875601,0.789082,0.00565787,0.00987248,1854,1429,13.7687,-7.61375
637,-405,13.7861,7.36694,-0.0026735,-0.00313027,0.00288742,-5.44684e-06,-0.00579833,0.745932,0.00386374,0.0101845,1861,1429,13.7862,-7.36697
644,-405,13.7273,7.16772,-0.00107489,-0.0020232,0.00222264,0.000723607,-0.0038217,0.680308,0.00282012,0.0250462,1868,1429,13.7273,-7.16773
651,-405,13.6536,6.94165,0.000138219,-0.00122515,0.00195267,0.00152477,-0.0026117,0.617459,0.00241552,0.02805,1875,1429,13.6535,-6.94169
658,-405,13.7212,6.73145,0.00120321,-0.000442473,0.001847,0.00240236,-0.00164163,0.575844,0.00234853,0.0210429,1882,1429,13.7212,-6.7315
665,-405,13.7728,6.49243,0.00178066,-0.000100308,0.00231031,0.00333458,-0.00165423,0.5921,0.00293425,0.0185315,1889,1429,13.7728,-6.49242
672,-405,13.7878,6.25464,0.0020222,3.71103e-05,0.00308284,0.00426833,-0.00220902,0.629659,0.00380218,0.0241504,1896,1429,13.7878,-6.25468
679,-405,13.8026,5.98218,0.00201419,-5.1669e-05,0.00413915,0.00524735,-0.00328483,0.66312,0.00496931,0.0220971,1903,1429,13.8026,-5.98222
686,-405,13.7555,5.74988,0.00148263,-0.000762896,0.00577728,0.00624523,-0.0055255,0.689424,0.00680007,0.0356675,1910,1429,13.7555,-5.74984
693,-405,13.6561,5.57825,0,0,0,0,0,0,0,-1,1917,1429,13.6562,-5.57829
700,-405,9.1958,4.02026,0,0,0,0,0,0,0,-1,1924,1429,9.19579,-4.02025
707,-405,7.40308,3.83191,0,0,0,0,0,0,0,-1,1931,1429,7.40311,-3.83194
714,-405,7.33252,3.47388,0,0,0,0,0,0,0,-1,1938,1429,7.33255,-3.47383
721,-405,9.23523,0.993896,0,0,0,0,0,0,0,-1,1945,1429,9.23523,-0.993884
728,-405,0,0,0,0,0,0,0,0,0,-1,1952,1429,0,0
735,-405,0,0,0,0,0,0,0,0,0,-1,1959,1429,0,0
742,-405,0,0,0,0,0,0,0,0,0,-1,1966,1429,0,0
749,-405,0,0,0,0,0,0,0,0,0,-1,1973,1429,0,0
756,-405,0,0,0,0,0,0,0,0,0,-1,1980,1429,0,0
763,-405,0,0,0,0,0,0,0,0,0,-1,1987,1429,0,0
770,-405,0,0,0,0,0,0,0,0,0,-1,1994,1429,0,0
777,-405,0,0,0,0,0,0,0,0,0,-1,2001,1429,0,0
784,-405,0,0,0,0,0,0,0,0,0,-1,2008,1429,0,0
791,-405,0,0,0,0,0,0,0,0,0,-1,2015,1429,0,0
798,-405,0,0,0,0,0,0,0,0,0,-1,2022,1429,0,0
805,-405,0,0,0,0,0,0,0,0,0,-1,2029,1429,0,0
812,-405,0,0,0,0,0,0,0,0,0,-1,2036,1429,0,0
-700,-412,0,0,0,0,0,0,0,0,0,-1,524,1436,0,0
-693,-412,0,0,0,0,0,0,0,0,0,-1,531,1436,0,0
-686,-412,0,0,0,0,0,0,0,0,0,-1,538,1436,0,0
-679,-412,0,0,0,0,0,0,0,0,0,-1,545,1436,0,0
-672,-412,0,0,0,0,0,0,0,0,0,-1,552,1436,0,0
-665,-412,0,0,0,0,0,0,0,0,0,-1,559,1436,0,0
-658,-412,0,0,0,0,0,0,0,0,0,-1,566,1436,0,0
-651,-412,0,0,0,0,0,0,0,0,0,-1,573,1436,0,0
-644,-412,0,0,0,0,0,0,0,0,0,-1,580,1436,0,0
-637,-412,0,0,0,0,0,0,0,0,0,-1,587,1436,0,0
-630,-412,0,0,0,0,0,0,0,0,0,-1,594,1436,0,0
-623,-412,0,0,0,0,0,0,0,0,0,-1,601,1436,0,0
-616,-412,0,0,0,0,0,0,0,0,0,-1,608,1436,0,0
-609,-412,0,0,0,0,0,0,0,0,0,-1,615,1436,0,0
-602,-412,-3.72766,-3.50012,0,0,0,0,0,0,0,-1,622,1436,-3.72764,3.50017
-595,-412,-3.48932,-2.58386,0,0,0,0,0,0,0,-1,629,1436,-3.48931,2.58391
-588,-412,-8.8241,1.72058,0,0,0,0,0,0,0,-1,636,1436,-8.82408,-1.72058
-581,-412,-7.49792,2.25806,0,0,0,0,0,0,0,-1,643,1436,-7.49792,-2.25801
-574,-412,-5.41547,3.68811,0,0,0,0,0,0,0,-1,650,1436,-5.41549,-3.68817
-567,-412,-4.06519,2.4209,0,0,0,0,0,0,0,-1,657,1436,-4.06521,-2.42089
-560,-412,-4.32043,3.47656,0,0,0,0,0,0,0,-1,664,1436,-4.32041,-3.47651
-553,-412,-4.32001,3.98828,0.00761053,0.00893611,0.00836519,0.0166647,-0.000118091,0.824931,0.0111494,0.0437257,671,1436,-4.31998,-3.98825
-546,-412,-4.4024,4.17188,0.00398192,0.00639407,0.0055436,0.0108613,-0.000485287,0.89251,0.00740791,0.0357217,678,1436,-4.40241,-4.17187
-539,-412,-4.58557,4.26904,0.0017352,0.00461625,0.00358926,0.00704327,-0.00069182,0.976229,0.00494229,0.0160589,685,1436,-4.58557,-4.26903
-532,-412,-4.5849,4.56567,0.000404152,0.00274087,0.00204846,0.00393074,-0.000785724,1.04457,0.00291788,0.0130406,692,1436,-4.5849,-4.56572
-525,-412,-4.59363,4.85901,0.000137747,0.00187832,0.00137262,0.0026333,-0.000617232,1.06793,0.00199339,0.0144264,699,1436,-4.59366,-4.85906
-518,-412,-4.57819,5.1366,0.000696318,0.000962441,0.000979905,0.00181828,-0.000159518,0.852881,0.00126871,0.0164428,706,1436,-4.57821,-5.13658
-511,-412,-4.57373,5.36389,0.0013651,-1.19419e-06,0.00069226,0.00165454,-0.000290628,0.396011,0.00121158,0.0196112,713,1436,-4.57371,-5.36394
-504,-412,-4.59186,5.63538,0.0018887,-0.0011892,-1.9559e-05,0.00188883,-0.00118932,-0.00635432,0.0017924,0.0178768,720,1436,-4.59189,-5.63543
-497,-412,-4.58038,5.92102,0.00202454,-0.00278458,-0.00152298,0.00246627,-0.00322631,-0.282298,0.00329636,0.0130455,727,1436,-4.58039,-5.92107
-490,-412,-4.59265,6.16016,0.00146991,-0.00465841,-0.00421819,0.00361941,-0.00680791,-0.471281,0.00611331,0.0130262,734,1436,-4.59263,-6.16021
-483,-412,-4.61169,6.38965,0.000776351,-0.00687045,-0.00709738,0.00501466,-0.0111088,-0.538333,0.00952793,0.0095493,741,1436,-4.61169,-6.38963
-476,-412,-4.53308,6.71106,-0.000527122,-0.00935487,-0.0109706,0.00688422,-0.0167662,-0.594138,0.0140463,0.016209,748,1436,-4.5331,-6.71107
-469,-412,-4.50708,6.86951,-0.00266854,-0.0120826,-0.0163498,0.0096383,-0.0243894,-0.645241,0.0202519,0.0281048,755,1436,-4.50707,-6.8695
-462,-412,-4.34991,6.85925,-0.00614806,-0.0153336,-0.0237509,0.0134501,-0.0349318,-0.68989,0.0288365,0.0400888,762,1436,-4.34989,-6.85924
-455,-412,-4.67114,6.88928,0,0,0,0,0,0,0,-1,769,1436,-4.67117,-6.88924
-448,-412,-5.46899,6.6626,0,0,0,0,0,0,0,-1,776,1436,-5.46901,-6.66257
-441,-412,-5.73053,5.97913,0,0,0,0,0,0,0,-1,783,1436,-5.73056,-5.97912
-434,-412,-8.68597,5.14258,0,0,0,0,0,0,0,-1,790,1436,-8.68596,-5.14261
-427,-412,-10.0004,5.15271,0,0,0,0,0,0,0,-1,797,1436,-10.0004,-5.15266
-420,-412,-10.4468,4.9043,0,0,0,0,0,0,0,-1,804,1436,-10.4468,-4.90429
-413,-412,-11.5704,4.97766,0,0,0,0,0,0,0,-1,811,1436,-11.5704,-4.97771
-406,-412,-13.1968,5.70093,0,0,0,0,0,0,0,-1,818,1436,-13.1968,-5.70096
-399,-412,-10.5506,0.771973,0,0,0,0,0,0,0,-1,825,1436,-10.5506,-0.771954
-392,-412,0,0,0,0,0,0,0,0,0,-1,832,1436,0,0
-385,-412,0,0,0,0,0,0,0,0,0,-1,839,1436,0,0
-378,-412,0,0,0,0,0,0,0,0,0,-1,846,1436,0,0
-371,-412,0,0,0,0,0,0,0,0,0,-1,853,1436,0,0
-364,-412,0,0,0,0,0,0,0,0,0,-1,860,1436,0,0
-357,-412,0,0,0,0,0,0,0,0,0,-1,867,1436,0,0
-350,-412,0,0,0,0,0,0,0,0,0,-1,874,1436,0,0
-343,-412,0,0,0,0,0,0,0,0,0,-1,881,1436,0,0
-336,-412,0,0,0,0,0,0,0,0,0,-1,888,1436,0,0
-329,-412,0,0,0,0,0,0,0,0,0,-1,895,1436,0,0
-322,-412,0,0,0,0,0,0,0,0,0,-1,902,1436,0,0
-315,-412,0,0,0,0,0,0,0,0,0,-1,909,1436,0,0
-308,-412,0,0,0,0,0,0,0,0,0,-1,916,1436,0,0
-301,-412,0,0,0,0,0,0,0,0,0,-1,923,1436,0,0
-294,-412,0,0,0,0,0,0,0,0,0,-1,930,1436,0,0
-287,-412,0,0,0,0,0,0,0,0,0,-1,937,1436,0,0
-280,-412,0,0,0,0,0,0,0,0,0,-1,944,1436,0,0
-273,-412,0,0,0,0,0,0,0,0,0,-1,951,1436,0,0
-266,-412,0,0,0,0,0,0,0,0,0,-1,958,1436,0,0
-259,-412,0,0,0,0,0,0,0,0,0,-1,965,1436,0,0
-252,-412,0,0,0,0,0,0,0,0,0,-1,972,1436,0,0
-245,-412,0,0,0,0,0,0,0,0,0,-1,979,1436,0,0
-238,-412,0,0,0,0,0,0,0,0,0,-1,986,1436,0,0
-231,-412,0,0,0,0,0,0,0,0,0,-1,993,1436,0,0
-224,-412,0,0,0,0,0,0,0,0,0,-1,1000,1436,0,0
-217,-412,0,0,0,0,0,0,0,0,0,-1,1007,1436,0,0
-210,-412,0,0,0,0,0,0,0,0,0,-1,1014,1436,0,0
-203,-412,0,0,0,0,0,0,0,0,0,-1,1021,1436,0,0
-196,-412,0,0,0,0,0,0,0,0,0,-1,1028,1436,0,0
-189,-412,0,0,0,0,0,0,0,0,0,-1,1035,1436,0,0
-182,-412,0,0,0,0,0,0,0,0,0,-1,1042,1436,0,0
-175,-412,0,0,0,0,0,0,0,0,0,-1,1049,1436,0,0
-168,-412,0,0,0,0,0,0,0,0,0,-1,1056,1436,0,0
-161,-412,0,0,0,0,0,0,0,0,0,-1,1063,1436,0,0
-154,-412,0,0,0,0,0,0,0,0,0,-1,1070,1436,0,0
-147,-412,0,0,0,0,0,0,0,0,0,-1,1077,1436,0,0
-140,-412,0,0,0,0,0,0,0,0,0,-1,1084,1436,0,0
-133,-412,0,0,0,0,0,0,0,0,0,-1,1091,1436,0,0
-126,-412,0,0,0,0,0,0,0,0,0,-1,1098,1436,0,0
-119,-412,0,0,0,0,0,0,0,0,0,-1,1105,1436,0,0
-112,-412,0,0,0,0,0,0,0,0,0,-1,1112,1436,0,0
-105,-412,0,0,0,0,0,0,0,0,0,-1,1119,1436,0,0
-98,-412,0,0,0,0,0,0,0,0,0,-1,1126,1436,0,0
-91,-412,0,0,0,0,0,0,0,0,0,-1,1133,1436,0,0
-84,-412,0,0,0,0,0,0,0,0,0,-1,1140,1436,0,0
-77,-412,0,0,0,0,0,0,0,0,0,-1,1147,1436,0,0
-70,-412,0,0,0,0,0,0,0,0,0,-1,1154,1436,0,0
-63,-412,0,0,0,0,0,0,0,0,0,-1,1161,1436,0,0
-56,-412,0,0,0,0,0,0,0,0,0,-1,1168,1436,0,0
-49,-412,0,0,0,0,0,0,0,0,0,-1,1175,1436,0,0
-42,-412,0,0,0,0,0,0,0,0,0,-1,1182,1436,0,0
-35,-412,0,0,0,0,0,0,0,0,0,-1,1189,1436,0,0
-28,-412,0,0,0,0,0,0,0,0,0,-1,1196,1436,0,0
-21,-412,0,0,0,0,0,0,0,0,0,-1,1203,1436,0,0
-14,-412,0,0,0,0,0,0,0,0,0,-1,1210,1436,0,0
-7,-412,0,0,0,0,0,0,0,0,0,-1,1217,1436,0,0
0,-412,0,0,0,0,0,0,0,0,0,-1,1224,1436,0,0
7,-412,0,0,0,0,0,0,0,0,0,-1,1231,1436,0,0
14,-412,0,0,0,0,0,0,0,0,0,-1,1238,1436,0,0
21,-412,0,0,0,0,0,0,0,0,0,-1,1245,1436,0,0
28,-412,0,0,0,0,0,0,0,0,0,-1,1252,1436,0,0
35,-412,0,0,0,0,0,0,0,0,0,-1,1259,1436,0,0
42,-412,0,0,0,0,0,0,0,0,0,-1,1266,1436,0,0
49,-412,0,0,0,0,0,0,0,0,0,-1,1273,1436,0,0
56,-412,0,0,0,0,0,0,0,0,0,-1,1280,1436,0,0
63,-412,0,0,0,0,0,0,0,0,0,-1,1287,1436,0,0
70,-412,0,0,0,0,0,0,0,0,0,-1,1294,1436,0,0
77,-412,0,0,0,0,0,0,0,0,0,-1,1301,1436,0,0
84,-412,0,0,0,0,0,0,0,0,0,-1,1308,1436,0,0
91,-412,0,0,0,0,0,0,0,0,0,-1,1315,1436,0,0
98,-412,0,0,0,0,0,0,0,0,0,-1,1322,1436,0,0
105,-412,0,0,0,0,0,0,0,0,0,-1,1329,1436,0,0
112,-412,0,0,0,0,0,0,0,0,0,-1,1336,1436,0,0
119,-412,0,0,0,0,0,0,0,0,0,-1,1343,1436,0,0
126,-412,0,0,0,0,0,0,0,0,0,-1,1350,1436,0,0
133,-412,0,0,0,0,0,0,0,0,0,-1,1357,1436,0,0
140,-412,0,0,0,0,0,0,0,0,0,-1,1364,1436,0,0
147,-412,0,0,0,0,0,0,0,0,0,-1,1371,1436,0,0
154,-412,0,0,0,0,0,0,0,0,0,-1,1378,1436,0,0
161,-412,0,0,0,0,0,0,0,0,0,-1,1385,1436,0,0
168,-412,0,0,0,0,0,0,0,0,0,-1,1392,1436,0,0
175,-412,0,0,0,0,0,0,0,0,0,-1,1399,1436,0,0
182,-412,0,0,0,0,0,0,0,0,0,-1,1406,1436,0,0
189,-412,0,0,0,0,0,0,0,0,0,-1,1413,1436,0,0
196,-412,0,0,0,0,0,0,0,0,0,-1,1420,1436,0,0
203,-412,0,0,0,0,0,0,0,0,0,-1,1427,1436,0,0
210,-412,0,0,0,0,0,0,0,0,0,-1,1434,1436,0,0
217,-412,0,0,0,0,0,0,0,0,0,-1,1441,1436,0,0
224,-412,0,0,0,0,0,0,0,0,0,-1,1448,1436,0,0
231,-412,0,0,0,0,0,0,0,0,0,-1,1455,1436,0,0
238,-412,0,0,0,0,0,0,0,0,0,-1,1462,1436,0,0
245,-412,0,0,0,0,0,0,0,0,0,-1,1469,1436,0,0
252,-412,0,0,0,0,0,0,0,0,0,-1,1476,1436,0,0
259,-412,0,0,0,0,0,0,0,0,0,-1,1483,1436,0,0
266,-412,0,0,0,0,0,0,0,0,0,-1,1490,1436,0,0
273,-412,0,0,0,0,0,0,0,0,0,-1,1497,1436,0,0
280,-412,0,0,0,0,0,0,0,0,0,-1,1504,1436,0,0
287,-412,0,0,0,0,0,0,0,0,0,-1,1511,1436,0,0
294,-412,0,0,0,0,0,0,0,0,0,-1,1518,1436,0,0
301,-412,0,0,0,0,0,0,0,0,0,-1,1525,1436,0,0
308,-412,0,0,0,0,0,0,0,0,0,-1,1532,1436,0,0
315,-412,0,0,0,0,0,0,0,0,0,-1,1539,1436,0,0
322,-412,0,0,0,0,0,0,0,0,0,-1,1546,1436,0,0
329,-412,0,0,0,0,0,0,0,0,0,-1,1553,1436,0,0
336,-412,0,0,0,0,0,0,0,0,0,-1,1560,1436,0,0
343,-412,0,0,0,0,0,0,0,0,0,-1,1567,1436,0,0
350,-412,0,0,0,0,0,0,0,0,0,-1,1574,1436,0,0
357,-412,0,0,0,0,0,0,0,0,0,-1,1581,1436,0,0
364,-412,0,0,0,0,0,0,0,0,0,-1,1588,1436,0,0
371,-412,0,0,0,0,0,0,0,0,0,-1,1595,1436,0,0
378,-412,0,0,0,0,0,0,0,0,0,-1,1602,1436,0,0
385,-412,0,0,0,0,0,0,0,0,0,-1,1609,1436,0,0
392,-412,0,0,0,0,0,0,0,0,0,-1,1616,1436,0,0
399,-412,0,0,0,0,0,0,0,0,0,-1,1623,1436,0,0
406,-412,0,0,0,0,0,0,0,0,0,-1,1630,1436,0,0
413,-412,0,0,0,0,0,0,0,0,0,-1,1637,1436,0,0
420,-412,0,0,0,0,0,0,0,0,0,-1,1644,1436,0,0
427,-412,0,0,0,0,0,0,0,0,0,-1,1651,1436,0,0
434,-412,0,0,0,0,0,0,0,0,0,-1,1658,1436,0,0
441,-412,0,0,0,0,0,0,0,0,0,-1,1665,1436,0,0
448,-412,0,0,0,0,0,0,0,0,0,-1,1672,1436,0,0
455,-412,0,0,0,0,0,0,0,0,0,-1,1679,1436,0,0
462,-412,0,0,0,0,0,0,0,0,0,-1,1686,1436,0,0
469,-412,0,0,0,0,0,0,0,0,0,-1,1693,1436,0,0
476,-412,0,0,0,0,0,0,0,0,0,-1,1700,1436,0,0
483,-412,0,0,0,0,0,0,0,0,0,-1,1707,1436,0,0
490,-412,0,0,0,0,0,0,0,0,0,-1,1714,1436,0,0
497,-412,0,0,0,0,0,0,0,0,0,-1,1721,1436,0,0
504,-412,0,0,0,0,0,0,0,0,0,-1,1728,1436,0,0
511,-412,0,0,0,0,0,0,0,0,0,-1,1735,1436,0,0
518,-412,13.5378,1.3866,0,0,0,0,0,0,0,-1,1742,1436,13.5379,-1.38663
525,-412,22.8384,2.03333,0,0,0,0,0,0,0,-1,1749,1436,22.8384,-2.03331
532,-412,21.8945,2.29199,0,0,0,0,0,0,0,-1,1756,1436,21.8946,-2.29203
539,-412,20.7961,2.47241,0,0,0,0,0,0,0,-1,1763,1436,20.7962,-2.47239
546,-412,19.4315,2.4071,0,0,0,0,0,0,0,-1,1770,1436,19.4315,-2.40706
553,-412,18.1896,2.19727,0,0,0,0,0,0,0,-1,1777,1436,18.1896,-2.19725
560,-412,16.8402,2.41418,0,0,0,0,0,0,0,-1,1784,1436,16.8402,-2.41425
567,-412,15.9099,3.43774,0,0,0,0,0,0,0,-1,1791,1436,15.9099,-3.43772
574,-412,15.1012,4.30872,0,0,0,0,0,0,0,-1,1798,1436,15.1012,-4.30869
581,-412,13.5082,7.22974,0,0,0,0,0,0,0,-1,1805,1436,13.5082,-7.22971
588,-412,15.3243,7.49719,0,0,0,0,0,0,0,-1,1812,1436,15.3243,-7.49717
595,-412,14.5797,7.90942,0,0,0,0,0,0,0,-1,1819,1436,14.5797,-7.90947
602,-412,13.7472,8.48596,-0.0178776,-0.0122302,0.00975435,-0.00489906,-0.0252087,0.926288,0.0154342,0.0258632,1826,1436,13.7472,-8.48594
609,-412,13.5773,8.33374,-0.0127363,-0.00957398,0.00829395,-0.0027118,-0.0195984,0.879587,0.012262,0.00957646,1833,1436,13.5773,-8.3337
616,-412,13.5299,8.10413,-0.00878519,-0.00712487,0.00656055,-0.00134216,-0.0145679,0.848333,0.00929689,0.00795123,1840,1436,13.5299,-8.10415
623,-412,13.5232,7.86938,-0.00590317,-0.00474682,0.00458029,-0.000708356,-0.00994164,0.848181,0.00640471,0.00896635,1847,1436,13.5232,-7.86934
630,-412,13.5514,7.59473,-0.00372053,-0.00331713,0.00313508,-0.00037727,-0.0066604,0.817522,0.00432,0.0105032,1854,1436,13.5514,-7.59472
637,-412,13.5575,7.36511,-0.00187711,-0.00202798,0.00214791,0.000196694,-0.00410178,0.767846,0.00280239,0.012617,1861,1436,13.5575,-7.36517
644,-412,13.5469,7.15967,-0.000337377,-0.00108775,0.00167717,0.00100606,-0.00243119,0.67536,0.00204056,0.014075,1868,1436,13.5469,-7.15962
651,-412,13.4962,6.93652,0.000931222,-0.000378802,0.00158204,0.00198849,-0.00143607,0.589127,0.00198573,0.0236438,1875,1436,13.4962,-6.93647
658,-412,13.5336,6.7074,0.00207773,0.000320119,0.00171493,0.00312591,-0.000728063,0.548622,0.00236429,0.0159146,1882,1436,13.5336,-6.7074
665,-412,13.5432,6.479,0.00284158,0.000672947,0.00240109,0.00439183,-0.000877307,0.573309,0.00325991,0.0216875,1889,1436,13.5432,-6.47896
672,-412,13.5568,6.22729,0.00336573,0.000860727,0.00345647,0.00578963,-0.00156317,0.611574,0.00447281,0.0282898,1896,1436,13.5568,-6.22729
679,-412,13.593,5.95618,0.00369369,0.000851351,0.00486974,0.0073454,-0.00280036,0.643423,0.00605041,0.037306,1903,1436,13.593,-5.95615
686,-412,13.4775,5.65027,0,0,0,0,0,0,0,-1,1910,1436,13.4775,-5.65023
693,-412,11.9346,6.02344,0,0,0,0,0,0,0,-1,1917,1436,11.9346,-6.02343
700,-412,8.82764,5.8844,0,0,0,0,0,0,0,-1,1924,1436,8.82761,-5.88444
707,-412,6.59998,1.68994,0,0,0,0,0,0,0,-1,1931,1436,6.60002,-1.68995
714,-412,4.77283,-2.39832,0,0,0,0,0,0,0,-1,1938,1436,4.77288,2.39835
721,-412,0,0,0,0,0,0,0,0,0,-1,1945,1436,0,0
728,-412,0,0,0,0,0,0,0,0,0,-1,1952,1436,0,0
735,-412,0,0,0,0,0,0,0,0,0,-1,1959,1436,0,0
742,-412,0,0,0,0,0,0,0,0,0,-1,1966,1436,0,0
749,-412,0,0,0,0,0,0,0,0,0,-1,1973,1436,0,0
756,-412,0,0,0,0,0,0,0,0,0,-1,1980,1436,0,0
763,-412,0,0,0,0,0,0,0,0,0,-1,1987,1436,0,0
770,-412,0,0,0,0,0,0,0,0,0,-1,1994,1436,0,0
777,-412,0,0,0,0,0,0,0,0,0,-1,2001,1436,0,0
784,-412,0,0,0,0,0,0,0,0,0,-1,2008,1436,0,0
791,-412,0,0,0,0,0,0,0,0,0,-1,2015,1436,0,0
798,-412,0,0,0,0,0,0,0,0,0,-1,2022,1436,0,0
805,-412,0,0,0,0,0,0,0,0,0,-1,2029,1436,0,0
812,-412,0,0,0,0,0,0,0,0,0,-1,2036,1436,0,0
-700,-419,0,0,0,0,0,0,0,0,0,-1,524,1443,0,0
-693,-419,0,0,0,0,0,0,0,0,0,-1,531,1443,0,0
-686,-419,0,0,0,0,0,0,0,0,0,-1,538,1443,0,0
-679,-419,0,0,0,0,0,0,0,0,0,-1,545,1443,0,0
-672,-419,0,0,0,0,0,0,0,0,0,-1,552,1443,0,0
-665,-419,0,0,0,0,0,0,0,0,0,-1,559,1443,0,0
-658,-419,0,0,0,0,0,0,0,0,0,-1,566,1443,0,0
-651,-419,0,0,0,0,0,0,0,0,0,-1,573,1443,0,0
-644,-419,0,0,0,0,0,0,0,0,0,-1,580,1443,0,0
-637,-419,0,0,0,0,0,0,0,0,0,-1,587,1443,0,0
-630,-419,0,0,0,0,0,0,0,0,0,-1,594,1443,0,0
-623,-419,0,0,0,0,0,0,0,0,0,-1,601,1443,0,0
-616,-419,0,0,0,0,0,0,0,0,0,-1,608,1443,0,0
-609,-419,0,0,0,0,0,0,0,0,0,-1,615,1443,0,0
-602,-419,0,0,0,0,0,0,0,0,0,-1,622,1443,0,0
-595,-419,-4.27423,-0.479492,0,0,0,0,0,0,0,-1,629,1443,-4.27421,0.479525
-588,-419,-3.75415,0.426147,0,0,0,0,0,0,0,-1,636,1443,-3.75414,-0.426145
-581,-419,-7.65991,1.80701,0,0,0,0,0,0,0,-1,643,1443,-7.65989,-1.80706
-574,-419,-2.68231,0.384277,0,0,0,0,0,0,0,-1,650,1443,-2.68231,-0.384297
-567,-419,-6.14038,3.22498,0,0,0,0,0,0,0,-1,657,1443,-6.14037,-3.22497
-560,-419,-4.31616,4.21509,0,0,0,0,0,0,0,-1,664,1443,-4.31618,-4.21513
-553,-419,-4.02704,4.29578,0.00953917,0.0106969,0.0106017,0.0207355,-0.000499433,0.812671,0.0139931,0.0431711,671,1443,-4.02705,-4.29581
-546,-419,-3.87616,4.36267,0.00562879,0.00786707,0.0075123,0.0143431,-0.000847279,0.859341,0.00985666,0.0427125,678,1443,-3.87613,-4.36265
-539,-419,-4.17267,4.32043,0.00337499,0.00583775,0.0054267,0.010171,-0.000958282,0.896965,0.00712163,0.0334543,685,1443,-4.17265,-4.3204
-532,-419,-4.32233,4.56506,0.0017936,0.00392914,0.00370647,0.00671857,-0.000995838,0.925642,0.00484523,0.0155343,692,1443,-4.32233,-4.56505
-525,-419,-4.31219,4.85754,0.00118076,0.00291305,0.00273489,0.00491567,-0.000821863,0.938753,0.00358263,0.0128123,699,1443,-4.31217,-4.85754
-518,-419,-4.28436,5.10779,0.00136181,0.00186864,0.00204262,0.00367351,-0.000443053,0.847116,0.00260926,0.0172637,706,1443,-4.28434,-5.10773
-511,-419,-4.27966,5.36938,0.00166909,0.000810484,0.0014899,0.0027903,-0.000310726,0.645126,0.00197195,0.0194929,713,1443,-4.27965,-5.36936
-504,-419,-4.31769,5.65015,0.0018975,-0.000412933,0.000593036,0.00204082,-0.000556261,0.237137,0.00157898,0.0175552,720,1443,-4.31772,-5.65021
-497,-419,-4.33972,5.90405,0.00181736,-0.00199533,-0.00098658,0.00205752,-0.00223549,-0.238785,0.00247928,0.0120859,727,1443,-4.33971,-5.90409
-490,-419,-4.3407,6.15259,0.00150818,-0.00404343,-0.00346408,0.0031714,-0.00570666,-0.447628,0.00519495,0.010525,734,1443,-4.34071,-6.15258
-483,-419,-4.34064,6.41455,0.00108625,-0.00631796,-0.00607712,0.00450011,-0.00973182,-0.511824,0.00839983,0.00947774,741,1443,-4.34064,-6.41456
-476,-419,-4.33264,6.67932,0.000289539,-0.00904677,-0.00954269,0.00624469,-0.0150019,-0.557918,0.0126093,0.0100583,748,1443,-4.33263,-6.67931
-469,-419,-4.276,6.96887,-0.000933498,-0.0121319,-0.0142406,0.00876911,-0.0218345,-0.598089,0.0181978,0.0145741,755,1443,-4.27601,-6.96886
-462,-419,-4.19946,7.12292,-0.00253457,-0.0160995,-0.0205512,0.0123244,-0.0309585,-0.626012,0.0257498,0.0281418,762,1443,-4.19949,-7.12287
-455,-419,-4.40985,7.05432,-0.00534305,-0.0207675,-0.0290011,0.0169538,-0.0430644,-0.655441,0.0357278,0.0407367,769,1443,-4.40982,-7.05431
-448,-419,-4.88739,6.80029,-0.0094298,-0.0261374,-0.0399275,0.0230084,-0.0585756,-0.682274,0.0485717,0.0447732,776,1443,-4.8874,-6.8003
-441,-419,-5.38416,6.32715,-0.0150637,-0.0319914,-0.0536702,0.0308059,-0.077861,-0.707192,0.0646698,0.0477777,783,1443,-5.38415,-6.32709
-434,-419,-5.76337,5.9137,0,0,0,0,0,0,0,-1,790,1443,-5.76338,-5.91364
-427,-419,-7.5979,6.1925,0,0,0,0,0,0,0,-1,797,1443,-7.59788,-6.19245
-420,-419,-8.74091,6.36597,0,0,0,0,0,0,0,-1,804,1443,-8.74089,-6.366
-413,-419,-9.88391,6.53955,0,0,0,0,0,0,0,-1,811,1443,-9.8839,-6.53955
-406,-419,-10.3372,2.75195,0,0,0,0,0,0,0,-1,818,1443,-10.3372,-2.75201
-399,-419,-11.5999,1.40002,0,0,0,0,0,0,0,-1,825,1443,-11.5999,-1.39998
-392,-419,0,0,0,0,0,0,0,0,0,-1,832,1443,0,0
-385,-419,0,0,0,0,0,0,0,0,0,-1,839,1443,0,0
-378,-419,0,0,0,0,0,0,0,0,0,-1,846,1443,0,0
-371,-419,0,0,0,0,0,0,0,0,0,-1,853,1443,0,0
-364,-419,0,0,0,0,0,0,0,0,0,-1,860,1443,0,0
-357,-419,0,0,0,0,0,0,0,0,0,-1,867,1443,0,0
-350,-419,0,0,0,0,0,0,0,0,0,-1,874,1443,0,0
-343,-419,0,0,0,0,0,0,0,0,0,-1,881,1443,0,0
-336,-419,0,0,0,0,0,0,0,0,0,-1,888,1443,0,0
-329,-419,0,0,0,0,0,0,0,0,0,-1,895,1443,0,0
-322,-419,0,0,0,0,0,0,0,0,0,-1,902,1443,0,0
-315,-419,0,0,0,0,0,0,0,0,0,-1,909,1443,0,0
-308,-419,0,0,0,0,0,0,0,0,0,-1,916,1443,0,0
-301,-419,0,0,0,0,0,0,0,0,0,-1,923,1443,0,0
-294,-419,0,0,0,0,0,0,0,0,0,-1,930,1443,0,0
-287,-419,0,0,0,0,0,0,0,0,0,-1,937,1443,0,0
-280,-419,0,0,0,0,0,0,0,0,0,-1,944,1443,0,0
-273,-419,0,0,0,0,0,0,0,0,0,-1,951,1443,0,0
-266,-419,0,0,0,0,0,0,0,0,0,-1,958,1443,0,0
-259,-419,0,0,0,0,0,0,0,0,0,-1,965,1443,0,0
-252,-419,0,0,0,0,0,0,0,0,0,-1,972,1443,0,0
-245,-419,0,0,0,0,0,0,0,0,0,-1,979,1443,0,0
-238,-419,0,0,0,0,0,0,0,0,0,-1,986,1443,0,0
-231,-419,0,0,0,0,0,0,0,0,0,-1,993,1443,0,0
-224,-419,0,0,0,0,0,0,0,0,0,-1,1000,1443,0,0
-217,-419,0,0,0,0,0,0,0,0,0,-1,1007,1443,0,0
-210,-419,0,0,0,0,0,0,0,0,0,-1,1014,1443,0,0
-203,-419,0,0,0,0,0,0,0,0,0,-1,1021,1443,0,0
-196,-419,0,0,0,0,0,0,0,0,0,-1,1028,1443,0,0
-189,-419,0,0,0,0,0,0,0,0,0,-1,1035,1443,0,0
-182,-419,0,0,0,0,0,0,0,0,0,-1,1042,1443,0,0
-175,-419,0,0,0,0,0,0,0,0,0,-1,1049,1443,0,0
-168,-419,0,0,0,0,0,0,0,0,0,-1,1056,1443,0,0
-161,-419,0,0,0,0,0,0,0,0,0,-1,1063,1443,0,0
-154,-419,0,0,0,0,0,0,0,0,0,-1,1070,1443,0,0
-147,-419,0,0,0,0,0,0,0,0,0,-1,1077,1443,0,0
-140,-419,0,0,0,0,0,0,0,0,0,-1,1084,1443,0,0
-133,-419,0,0,0,0,0,0,0,0,0,-1,1091,1443,0,0
-126,-419,0,0,0,0,0,0,0,0,0,-1,1098,1443,0,0
-119,-419,0,0,0,0,0,0,0,0,0,-1,1105,1443,0,0
-112,-419,0,0,0,0,0,0,0,0,0,-1,1112,1443,0,0
-105,-419,0,0,0,0,0,0,0,0,0,-1,1119,1443,0,0
-98,-419,0,0,0,0,0,0,0,0,0,-1,1126,1443,0,0
-91,-419,0,0,0,0,0,0,0,0,0,-1,1133,1443,0,0
-84,-419,0,0,0,0,0,0,0,0,0,-1,1140,1443,0,0
-77,-419,0,0,0,0,0,0,0,0,0,-1,1147,1443,0,0
-70,-419,0,0,0,0,0,0,0,0,0,-1,1154,1443,0,0
-63,-419,0,0,0,0,0,0,0,0,0,-1,1161,1443,0,0
-56,-419,0,0,0,0,0,0,0,0,0,-1,1168,1443,0,0
-49,-419,0,0,0,0,0,0,0,0,0,-1,1175,1443,0,0
-42,-419,0,0,0,0,0,0,0,0,0,-1,1182,1443,0,0
-35,-419,0,0,0,0,0,0,0,0,0,-1,1189,1443,0,0
-28,-419,0,0,0,0,0,0,0,0,0,-1,1196,1443,0,0
-21,-419,0,0,0,0,0,0,0,0,0,-1,1203,1443,0,0
-14,-419,0,0,0,0,0,0,0,0,0,-1,1210,1443,0,0
-7,-419,0,0,0,0,0,0,0,0,0,-1,1217,1443,0,0
0,-419,0,0,0,0,0,0,0,0,0,-1,1224,1443,0,0
7,-419,0,0,0,0,0,0,0,0,0,-1,1231,1443,0,0
14,-419,0,0,0,0,0,0,0,0,0,-1,1238,1443,0,0
21,-419,0,0,0,0,0,0,0,0,0,-1,1245,1443,0,0
28,-419,0,0,0,0,0,0,0,0,0,-1,1252,1443,0,0
35,-419,0,0,0,0,0,0,0,0,0,-1,1259,1443,0,0
42,-419,0,0,0,0,0,0,0,0,0,-1,1266,1443,0,0
49,-419,0,0,0,0,0,0,0,0,0,-1,1273,1443,0,0
56,-419,0,0,0,0,0,0,0,0,0,-1,1280,1443,0,0
63,-419,0,0,0,0,0,0,0,0,0,-1,1287,1443,0,0
70,-419,0,0,0,0,0,0,0,0,0,-1,1294,1443,0,0
77,-419,0,0,0,0,0,0,0,0,0,-1,1301,1443,0,0
84,-419,0,0,0,0,0,0,0,0,0,-1,1308,1443,0,0
91,-419,0,0,0,0,0,0,0,0,0,-1,1315,1443,0,0
98,-419,0,0,0,0,0,0,0,0,0,-1,1322,1443,0,0
105,-419,0,0,0,0,0,0,0,0,0,-1,1329,1443,0,0
112,-419,0,0,0,0,0,0,0,0,0,-1,1336,1443,0,0
119,-419,0,0,0,0,0,0,0,0,0,-1,1343,1443,0,0
126,-419,0,0,0,0,0,0,0,0,0,-1,1350,1443,0,0
133,-419,0,0,0,0,0,0,0,0,0,-1,1357,1443,0,0
140,-419,0,0,0,0,0,0,0,0,0,-1,1364,1443,0,0
147,-419,0,0,0,0,0,0,0,0,0,-1,1371,1443,0,0
154,-419,0,0,0,0,0,0,0,0,0,-1,1378,1443,0,0
161,-419,0,0,0,0,0,0,0,0,0,-1,1385,1443,0,0
168,-419,0,0,0,0,0,0,0,0,0,-1,1392,1443,0,0
175,-419,0,0,0,0,0,0,0,0,0,-1,1399,1443,0,0
182,-419,0,0,0,0,0,0,0,0,0,-1,1406,1443,0,0
189,-419,0,0,0,0,0,0,0,0,0,-1,1413,1443,0,0
196,-419,0,0,0,0,0,0,0,0,0,-1,1420,1443,0,0
203,-419,0,0,0,0,0,0,0,0,0,-1,1427,1443,0,0
210,-419,0,0,0,0,0,0,0,0,0,-1,1434,1443,0,0
217,-419,0,0,0,0,0,0,0,0,0,-1,1441,1443,0,0
224,-419,0,0,0,0,0,0,0,0,0,-1,1448,1443,0,0
231,-419,0,0,0,0,0,0,0,0,0,-1,1455,1443,0,0
238,-419,0,0,0,0,0,0,0,0,0,-1,1462,1443,0,0
245,-419,0,0,0,0,0,0,0,0,0,-1,1469,1443,0,0
252,-419,0,0,0,0,0,0,0,0,0,-1,1476,1443,0,0
259,-419,0,0,0,0,0,0,0,0,0,-1,1483,1443,0,0
266,-419,0,0,0,0,0,0,0,0,0,-1,1490,1443,0,0
273,-419,0,0,0,0,0,0,0,0,0,-1,1497,1443,0,0
280,-419,0,0,0,0,0,0,0,0,0,-1,1504,1443,0,0
287,-419,0,0,0,0,0,0,0,0,0,-1,1511,1443,0,0
294,-419,0,0,0,0,0,0,0,0,0,-1,1518,1443,0,0
301,-419,0,0,0,0,0,0,0,0,0,-1,1525,1443,0,0
308,-419,0,0,0,0,0,0,0,0,0,-1,1532,1443,0,0
315,-419,0,0,0,0,0,0,0,0,0,-1,1539,1443,0,0
322,-419,0,0,0,0,0,0,0,0,0,-1,1546,1443,0,0
329,-419,0,0,0,0,0,0,0,0,0,-1,1553,1443,0,0
336,-419,0,0,0,0,0,0,0,0,0,-1,1560,1443,0,0
343,-419,0,0,0,0,0,0,0,0,0,-1,1567,1443,0,0
350,-419,0,0,0,0,0,0,0,0,0,-1,1574,1443,0,0
357,-419,0,0,0,0,0,0,0,0,0,-1,1581,1443,0,0
364,-419,0,0,0,0,0,0,0,0,0,-1,1588,1443,0,0
371,-419,0,0,0,0,0,0,0,0,0,-1,1595,1443,0,0
378,-419,0,0,0,0,0,0,0,0,0,-1,1602,1443,0,0
385,-419,0,0,0,0,0,0,0,0,0,-1,1609,1443,0,0
392,-419,0,0,0,0,0,0,0,0,0,-1,1616,1443,0,0
399,-419,0,0,0,0,0,0,0,0,0,-1,1623,1443,0,0
406,-419,0,0,0,0,0,0,0,0,0,-1,1630,1443,0,0
413,-419,0,0,0,0,0,0,0,0,0,-1,1637,1443,0,0
420,-419,0,0,0,0,0,0,0,0,0,-1,1644,1443,0,0
427,-419,0,0,0,0,0,0,0,0,0,-1,1651,1443,0,0
434,-419,0,0,0,0,0,0,0,0,0,-1,1658,1443,0,0
441,-419,0,0,0,0,0,0,0,0,0,-1,1665,1443,0,0
448,-419,0,0,0,0,0,0,0,0,0,-1,1672,1443,0,0
455,-419,0,0,0,0,0,0,0,0,0,-1,1679,1443,0,0
462,-419,0,0,0,0,0,0,0,0,0,-1,1686,1443,0,0
469,-419,0,0,0,0,0,0,0,0,0,-1,1693,1443,0,0
476,-419,0,0,0,0,0,0,0,0,0,-1,1700,1443,0,0
483,-419,0,0,0,0,0,0,0,0,0,-1,1707,1443,0,0
490,-419,0,0,0,0,0,0,0,0,0,-1,1714,1443,0,0
497,-419,0,0,0,0,0,0,0,0,0,-1,1721,1443,0,0
504,-419,0,0,0,0,0,0,0,0,0,-1,1728,1443,0,0
511,-419,20.3005,3.7959,0,0,0,0,0,0,0,-1,1735,1443,20.3005,-3.79584
518,-419,21.3154,2.03027,0,0,0,0,0,0,0,-1,1742,1443,21.3155,-2.03029
525,-419,20.1991,2.2738,0,0,0,0,0,0,0,-1,1749,1443,20.1991,-2.2738
532,-419,21.035,2.73364,0,0,0,0,0,0,0,-1,1756,1443,21.035,-2.73368
539,-419,20.0294,2.92896,0,0,0,0,0,0,0,-1,1763,1443,20.0294,-2.929
546,-419,18.7786,2.69104,0,0,0,0,0,0,0,-1,1770,1443,18.7785,-2.69107
553,-419,17.1881,2.40491,0,0,0,0,0,0,0,-1,1777,1443,17.1881,-2.40488
560,-419,11.8199,8.26343,0,0,0,0,0,0,0,-1,1784,1443,11.82,-8.26341
567,-419,15.7008,5.70764,0,0,0,0,0,0,0,-1,1791,1443,15.7009,-5.70764
574,-419,13.748,7.5249,0,0,0,0,0,0,0,-1,1798,1443,13.7481,-7.5249
581,-419,13.1829,7.57349,0,0,0,0,0,0,0,-1,1805,1443,13.1829,-7.57347
588,-419,14.0745,9.02502,0,0,0,0,0,0,0,-1,1812,1443,14.0745,-9.02505
595,-419,13.923,8.37646,0,0,0,0,0,0,0,-1,1819,1443,13.923,-8.37642
602,-419,13.37,8.58716,-0.0147211,-0.00961264,0.0076308,-0.00411993,-0.0202138,0.946899,0.0123341,0.0150711,1826,1443,13.37,-8.58713
609,-419,13.3276,8.34839,-0.0103321,-0.00740492,0.00642963,-0.00227439,-0.0154626,0.897306,0.00964012,0.0104481,1833,1443,13.3277,-8.34841
616,-419,13.2983,8.11951,-0.00695044,-0.00530741,0.00503677,-0.0010256,-0.0112323,0.866238,0.00717079,0.0109692,1840,1443,13.2983,-8.11955
623,-419,13.3136,7.8811,-0.00448234,-0.0032468,0.00345074,-0.000358967,-0.00737017,0.873973,0.00479827,0.00915117,1847,1443,13.3136,-7.88104
630,-419,13.348,7.61609,-0.00256813,-0.00207714,0.00232073,1.10392e-05,-0.00465631,0.838094,0.00310789,0.0111102,1854,1443,13.348,-7.61612
637,-419,13.3312,7.3927,-0.000896936,-0.000956202,0.0015252,0.000598917,-0.00245206,0.775685,0.00186665,0.0124073,1861,1443,13.3312,-7.39265
644,-419,13.3146,7.19299,0.000577166,-0.000127606,0.00121482,0.00148968,-0.00104012,0.644236,0.00146825,0.0115799,1868,1443,13.3146,-7.19299
651,-419,13.3103,6.96912,0.00190279,0.000551915,0.00126086,0.00265773,-0.00020303,0.539501,0.00184323,0.0108654,1875,1443,13.3103,-6.96913
658,-419,13.3029,6.71375,0.00316007,0.00124402,0.00160549,0.00407165,0.000332442,0.516397,0.00261068,0.0118837,1882,1443,13.3028,-6.71371
665,-419,13.3035,6.46558,0.00417618,0.00171741,0.00247354,0.005709,0.000184585,0.55477,0.00374599,0.0192881,1889,1443,13.3035,-6.46561
672,-419,13.3251,6.16455,0.00511145,0.0021107,0.0037712,0.00766978,-0.000447629,0.596072,0.00526874,0.0267085,1896,1443,13.3251,-6.16461
679,-419,13.2877,6.06348,0.00597001,0.00239073,0.0055118,0.00997543,-0.00161469,0.628421,0.00724872,0.0476647,1903,1443,13.2877,-6.06344
686,-419,13.2039,6.13391,0,0,0,0,0,0,0,-1,1910,1443,13.2039,-6.13391
693,-419,8.76086,5.60535,0,0,0,0,0,0,0,-1,1917,1443,8.76091,-5.6054
700,-419,11.0498,4.85156,0,0,0,0,0,0,0,-1,1924,1443,11.0498,-4.85153
707,-419,9.5752,1.80042,0,0,0,0,0,0,0,-1,1931,1443,9.57523,-1.80037
714,-419,5.77576,-1.25061,0,0,0,0,0,0,0,-1,1938,1443,5.7757,1.25056
721,-419,0,0,0,0,0,0,0,0,0,-1,1945,1443,0,0
728,-419,0,0,0,0,0,0,0,0,0,-1,1952,1443,0,0
735,-419,0,0,0,0,0,0,0,0,0,-1,1959,1443,0,0
742,-419,0,0,0,0,0,0,0,0,0,-1,1966,1443,0,0
749,-419,0,0,0,0,0,0,0,0,0,-1,1973,1443,0,0
756,-419,0,0,0,0,0,0,0,0,0,-1,1980,1443,0,0
763,-419,0,0,0,0,0,0,0,0,0,-1,1987,1443,0,0
770,-419,0,0,0,0,0,0,0,0,0,-1,1994,1443,0,0
777,-419,0,0,0,0,0,0,0,0,0,-1,2001,1443,0,0
784,-419,0,0,0,0,0,0,0,0,0,-1,2008,1443,0,0
791,-419,0,0,0,0,0,0,0,0,0,-1,2015,1443,0,0
798,-419,0,0,0,0,0,0,0,0,0,-1,2022,1443,0,0
805,-419,0,0,0,0,0,0,0,0,0,-1,2029,1443,0,0
812,-419,0,0,0,0,0,0,0,0,0,-1,2036,1443,0,0
-700,-426,0,0,0,0,0,0,0,0,0,-1,524,1450,0,0
-693,-426,0,0,0,0,0,0,0,0,0,-1,531,1450,0,0
-686,-426,0,0,0,0,0,0,0,0,0,-1,538,1450,0,0
-679,-426,0,0,0,0,0,0,0,0,0,-1,545,1450,0,0
-672,-426,0,0,0,0,0,0,0,0,0,-1,552,1450,0,0
-665,-426,0,0,0,0,0,0,0,0,0,-1,559,1450,0,0
-658,-426,0,0,0,0,0,0,0,0,0,-1,566,1450,0,0
-651,-426,0,0,0,0,0,0,0,0,0,-1,573,1450,0,0
-644,-426,0,0,0,0,0,0,0,0,0,-1,580,1450,0,0
-637,-426,0,0,0,0,0,0,0,0,0,-1,587,1450,0,0
-630,-426,0,0,0,0,0,0,0,0,0,-1,594,1450,0,0
-623,-426,0,0,0,0,0,0,0,0,0,-1,601,1450,0,0
-616,-426,0,0,0,0,0,0,0,0,0,-1,608,1450,0,0
-609,-426,0,0,0,0,0,0,0,0,0,-1,615,1450,0,0
-602,-426,0,0,0,0,0,0,0,0,0,-1,622,1450,0,0
-595,-426,0,0,0,0,0,0,0,0,0,-1,629,1450,0,0
-588,-426,-4.39026,0.156494,0,0,0,0,0,0,0,-1,636,1450,-4.39027,-0.156543
-581,-426,-4.30518,-1.34998,0,0,0,0,0,0,0,-1,643,1450,-4.30517,1.34996
-574,-426,-3.67657,0.188232,0,0,0,0,0,0,0,-1,650,1450,-3.67657,-0.188214
-567,-426,-3.04797,1.72644,0,0,0,0,0,0,0,-1,657,1450,-3.04797,-1.72639
-560,-426,-5.55682,3.44397,0,0,0,0,0,0,0,-1,664,1450,-5.55684,-3.44399
-553,-426,-4.79602,3.17017,0,0,0,0,0,0,0,-1,671,1450,-4.79602,-3.17014
-546,-426,-3.40613,4.5271,0,0,0,0,0,0,0,-1,678,1450,-3.40615,-4.52712
-539,-426,-3.84003,4.40808,0.00578957,0.00732768,0.00760284,0.0142003,-0.00108301,0.835804,0.00984771,0.0433792,685,1450,-3.84003,-4.40813
-532,-426,-4.00043,4.59656,0.00393141,0.00543075,0.0057188,0.0104488,-0.00108665,0.850571,0.00735489,0.0286565,692,1450,-4.00044,-4.59653
-525,-426,-4.05908,4.83716,0.00297414,0.00426281,0.00445902,0.00812381,-0.000886861,0.857152,0.0057344,0.0141077,699,1450,-4.05905,-4.83716
-518,-426,-4.02551,5.10974,0.0027128,0.00306974,0.00344745,0.00634334,-0.000560792,0.811259,0.00442768,0.0155097,706,1450,-4.02552,-5.10974
-511,-426,-4.02594,5.38379,0.00258782,0.00188344,0.00260083,0.0048602,-0.000388939,0.7181,0.00337726,0.0149151,713,1450,-4.02595,-5.38385
-504,-426,-4.06067,5.64087,0.00245092,0.000589394,0.00150489,0.00328962,-0.000249309,0.508445,0.00228073,0.0145842,720,1450,-4.06069,-5.64093
-497,-426,-4.07507,5.88062,0.00210336,-0.00100812,-0.000147608,0.00211035,-0.00101511,-0.0472982,0.00184105,0.0118976,727,1450,-4.0751,-5.88056
-490,-426,-4.08136,6.14746,0.001646,-0.0029875,-0.00250254,0.00273954,-0.00408104,-0.411965,0.00396317,0.0117089,734,1450,-4.08135,-6.14742
-483,-426,-4.08398,6.41406,0.00115176,-0.00510341,-0.00492133,0.00385523,-0.00780688,-0.502335,0.00686076,0.0114503,741,1450,-4.08401,-6.41409
-476,-426,-4.08093,6.68225,0.000321138,-0.00766454,-0.00809056,0.00535049,-0.0126939,-0.556174,0.0107016,0.00899229,748,1450,-4.08094,-6.68223
-469,-426,-4.0885,6.94299,-0.000813723,-0.0103962,-0.0122191,0.00751993,-0.0187298,-0.598555,0.0156091,0.00711924,755,1450,-4.08847,-6.94304
-462,-426,-3.97852,7.22534,-0.0019186,-0.0138313,-0.0174545,0.0105679,-0.0263178,-0.620969,0.0219335,0.0157605,762,1450,-3.9785,-7.22529
-455,-426,-4.07343,7.28308,-0.00388228,-0.0178403,-0.0243414,0.0144608,-0.0361834,-0.645786,0.0301227,0.0337437,769,1450,-4.0734,-7.28303
-448,-426,-4.3468,7.01563,-0.00669609,-0.0224407,-0.033105,0.0194598,-0.0485966,-0.668667,0.0404749,0.0425012,776,1450,-4.34678,-7.01567
-441,-426,-4.30487,6.5863,-0.0105587,-0.0275724,-0.0440713,0.0258192,-0.0639504,-0.690058,0.0533643,0.0436884,783,1450,-4.30488,-6.58635
-434,-426,-4.1665,6.09802,0,0,0,0,0,0,0,-1,790,1450,-4.16652,-6.09802
-427,-426,-2.85968,4.22791,0,0,0,0,0,0,0,-1,797,1450,-2.85966,-4.22793
-420,-426,-3.79675,5.41992,0,0,0,0,0,0,0,-1,804,1450,-3.79676,-5.41996
-413,-426,-10.1148,5.0415,0,0,0,0,0,0,0,-1,811,1450,-10.1148,-5.04152
-406,-426,-11.4199,3.6438,0,0,0,0,0,0,0,-1,818,1450,-11.4198,-3.64382
-399,-426,-12.7595,2.29004,0,0,0,0,0,0,0,-1,825,1450,-12.7595,-2.29003
-392,-426,-12.4147,0.537354,0,0,0,0,0,0,0,-1,832,1450,-12.4147,-0.53731
-385,-426,0,0,0,0,0,0,0,0,0,-1,839,1450,0,0
-378,-426,0,0,0,0,0,0,0,0,0,-1,846,1450,0,0
-371,-426,0,0,0,0,0,0,0,0,0,-1,853,1450,0,0
-364,-426,0,0,0,0,0,0,0,0,0,-1,860,1450,0,0
-357,-426,0,0,0,0,0,0,0,0,0,-1,867,1450,0,0
-350,-426,0,0,0,0,0,0,0,0,0,-1,874,1450,0,0
-343,-426,0,0,0,0,0,0,0,0,0,-1,881,1450,0,0
-336,-426,0,0,0,0,0,0,0,0,0,-1,888,1450,0,0
-329,-426,0,0,0,0,0,0,0,0,0,-1,895,1450,0,0
-322,-426,0,0,0,0,0,0,0,0,0,-1,902,1450,0,0
-315,-426,0,0,0,0,0,0,0,0,0,-1,909,1450,0,0
-308,-426,0,0,0,0,0,0,0,0,0,-1,916,1450,0,0
-301,-426,0,0,0,0,0,0,0,0,0,-1,923,1450,0,0
-294,-426,0,0,0,0,0,0,0,0,0,-1,930,1450,0,0
-287,-426,0,0,0,0,0,0,0,0,0,-1,937,1450,0,0
-280,-426,0,0,0,0,0,0,0,0,0,-1,944,1450,0,0
-273,-426,0,0,0,0,0,0,0,0,0,-1,951,1450,0,0
-266,-426,0,0,0,0,0,0,0,0,0,-1,958,1450,0,0
-259,-426,0,0,0,0,0,0,0,0,0,-1,965,1450,0,0
-252,-426,0,0,0,0,0,0,0,0,0,-1,972,1450,0,0
-245,-426,0,0,0,0,0,0,0,0,0,-1,979,1450,0,0
-238,-426,0,0,0,0,0,0,0,0,0,-1,986,1450,0,0
-231,-426,0,0,0,0,0,0,0,0,0,-1,993,1450,0,0
-224,-426,0,0,0,0,0,0,0,0,0,-1,1000,1450,0,0
-217,-426,0,0,0,0,0,0,0,0,0,-1,1007,1450,0,0
-210,-426,0,0,0,0,0,0,0,0,0,-1,1014,1450,0,0
-203,-426,0,0,0,0,0,0,0,0,0,-1,1021,1450,0,0
-196,-426,0,0,0,0,0,0,0,0,0,-1,1028,1450,0,0
-189,-426,0,0,0,0,0,0,0,0,0,-1,1035,1450,0,0
-182,-426,0,0,0,0,0,0,0,0,0,-1,1042,1450,0,0
-175,-426,0,0,0,0,0,0,0,0,0,-1,1049,1450,0,0
-168,-426,0,0,0,0,0,0,0,0,0,-1,1056,1450,0,0
-161,-426,0,0,0,0,0,0,0,0,0,-1,1063,1450,0,0
-154,-426,0,0,0,0,0,0,0,0,0,-1,1070,1450,0,0
-147,-426,0,0,0,0,0,0,0,0,0,-1,1077,1450,0,0
-140,-426,0,0,0,0,0,0,0,0,0,-1,1084,1450,0,0
-133,-426,0,0,0,0,0,0,0,0,0,-1,1091,1450,0,0
-126,-426,0,0,0,0,0,0,0,0,0,-1,1098,1450,0,0
-119,-426,0,0,0,0,0,0,0,0,0,-1,1105,1450,0,0
-112,-426,0,0,0,0,0,0,0,0,0,-1,1112,1450,0,0
-105,-426,0,0,0,0,0,0,0,0,0,-1,1119,1450,0,0
-98,-426,0,0,0,0,0,0,0,0,0,-1,1126,1450,0,0
-91,-426,0,0,0,0,0,0,0,0,0,-1,1133,1450,0,0
-84,-426,0,0,0,0,0,0,0,0,0,-1,1140,1450,0,0
-77,-426,0,0,0,0,0,0,0,0,0,-1,1147,1450,0,0
-70,-426,0,0,0,0,0,0,0,0,0,-1,1154,1450,0,0
-63,-426,0,0,0,0,0,0,0,0,0,-1,1161,1450,0,0
-56,-426,0,0,0,0,0,0,0,0,0,-1,1168,1450,0,0
-49,-426,0,0,0,0,0,0,0,0,0,-1,1175,1450,0,0
-42,-426,0,0,0,0,0,0,0,0,0,-1,1182,1450,0,0
-35,-426,0,0,0,0,0,0,0,0,0,-1,1189,1450,0,0
-28,-426,0,0,0,0,0,0,0,0,0,-1,1196,1450,0,0
-21,-426,0,0,0,0,0,0,0,0,0,-1,1203,1450,0,0
-14,-426,0,0,0,0,0,0,0,0,0,-1,1210,1450,0,0
-7,-426,0,0,0,0,0,0,0,0,0,-1,1217,1450,0,0
0,-426,0,0,0,0,0,0,0,0,0,-1,1224,1450,0,0
7,-426,0,0,0,0,0,0,0,0,0,-1,1231,1450,0,0
14,-426,0,0,0,0,0,0,0,0,0,-1,1238,1450,0,0
21,-426,0,0,0,0,0,0,0,0,0,-1,1245,1450,0,0
28,-426,0,0,0,0,0,0,0,0,0,-1,1252,1450,0,0
35,-426,0,0,0,0,0,0,0,0,0,-1,1259,1450,0,0
42,-426,0,0,0,0,0,0,0,0,0,-1,1266,1450,0,0
49,-426,0,0,0,0,0,0,0,0,0,-1,1273,1450,0,0
56,-426,0,0,0,0,0,0,0,0,0,-1,1280,1450,0,0
63,-426,0,0,0,0,0,0,0,0,0,-1,1287,1450,0,0
70,-426,0,0,0,0,0,0,0,0,0,-1,1294,1450,0,0
77,-426,0,0,0,0,0,0,0,0,0,-1,1301,1450,0,0
84,-426,0,0,0,0,0,0,0,0,0,-1,1308,1450,0,0
91,-426,0,0,0,0,0,0,0,0,0,-1,1315,1450,0,0
98,-426,0,0,0,0,0,0,0,0,0,-1,1322,1450,0,0
105,-426,0,0,0,0,0,0,0,0,0,-1,1329,1450,0,0
112,-426,0,0,0,0,0,0,0,0,0,-1,1336,1450,0,0
119,-426,0,0,0,0,0,0,0,0,0,-1,1343,1450,0,0
126,-426,0,0,0,0,0,0,0,0,0,-1,1350,1450,0,0
133,-426,0,0,0,0,0,0,0,0,0,-1,1357,1450,0,0
140,-426,0,0,0,0,0,0,0,0,0,-1,1364,1450,0,0
147,-426,0,0,0,0,0,0,0,0,0,-1,1371,1450,0,0
154,-426,0,0,0,0,0,0,0,0,0,-1,1378,1450,0,0
161,-426,0,0,0,0,0,0,0,0,0,-1,1385,1450,0,0
168,-426,0,0,0,0,0,0,0,0,0,-1,1392,1450,0,0
175,-426,0,0,0,0,0,0,0,0,0,-1,1399,1450,0,0
182,-426,0,0,0,0,0,0,0,0,0,-1,1406,1450,0,0
189,-426,0,0,0,0,0,0,0,0,0,-1,1413,1450,0,0
196,-426,0,0,0,0,0,0,0,0,0,-1,1420,1450,0,0
203,-426,0,0,0,0,0,0,0,0,0,-1,1427,1450,0,0
210,-426,0,0,0,0,0,0,0,0,0,-1,1434,1450,0,0
217,-426,0,0,0,0,0,0,0,0,0,-1,1441,1450,0,0
224,-426,0,0,0,0,0,0,0,0,0,-1,1448,1450,0,0
231,-426,0,0,0,0,0,0,0,0,0,-1,1455,1450,0,0
238,-426,0,0,0,0,0,0,0,0,0,-1,1462,1450,0,0
245,-426,0,0,0,0,0,0,0,0,0,-1,1469,1450,0,0
252,-426,0,0,0,0,0,0,0,0,0,-1,1476,1450,0,0
259,-426,0,0,0,0,0,0,0,0,0,-1,1483,1450,0,0
266,-426,0,0,0,0,0,0,0,0,0,-1,1490,1450,0,0
273,-426,0,0,0,0,0,0,0,0,0,-1,1497,1450,0,0
280,-426,0,0,0,0,0,0,0,0,0,-1,1504,1450,0,0
287,-426,0,0,0,0,0,0,0,0,0,-1,1511,1450,0,0
294,-426,0,0,0,0,0,0,0,0,0,-1,1518,1450,0,0
301,-426,0,0,0,0,0,0,0,0,0,-1,1525,1450,0,0
308,-426,0,0,0,0,0,0,0,0,0,-1,1532,1450,0,0
315,-426,0,0,0,0,0,0,0,0,0,-1,1539,1450,0,0
322,-426,0,0,0,0,0,0,0,0,0,-1,1546,1450,0,0
329,-426,0,0,0,0,0,0,0,0,0,-1,1553,1450,0,0
336,-426,0,0,0,0,0,0,0,0,0,-1,1560,1450,0,0
343,-426,0,0,0,0,0,0,0,0,0,-1,1567,1450,0,0
350,-426,0,0,0,0,0,0,0,0,0,-1,1574,1450,0,0
357,-426,0,0,0,0,0,0,0,0,0,-1,1581,1450,0,0
364,-426,0,0,0,0,0,0,0,0,0,-1,1588,1450,0,0
371,-426,0,0,0,0,0,0,0,0,0,-1,1595,1450,0,0
378,-426,0,0,0,0,0,0,0,0,0,-1,1602,1450,0,0
385,-426,0,0,0,0,0,0,0,0,0,-1,1609,1450,0,0
392,-426,0,0,0,0,0,0,0,0,0,-1,1616,1450,0,0
399,-426,0,0,0,0,0,0,0,0,0,-1,1623,1450,0,0
406,-426,0,0,0,0,0,0,0,0,0,-1,1630,1450,0,0
413,-426,0,0,0,0,0,0,0,0,0,-1,1637,1450,0,0
420,-426,0,0,0,0,0,0,0,0,0,-1,1644,1450,0,0
427,-426,0,0,0,0,0,0,0,0,0,-1,1651,1450,0,0
434,-426,0,0,0,0,0,0,0,0,0,-1,1658,1450,0,0
441,-426,0,0,0,0,0,0,0,0,0,-1,1665,1450,0,0
448,-426,0,0,0,0,0,0,0,0,0,-1,1672,1450,0,0
455,-426,0,0,0,0,0,0,0,0,0,-1,1679,1450,0,0
462,-426,0,0,0,0,0,0,0,0,0,-1,1686,1450,0,0
469,-426,0,0,0,0,0,0,0,0,0,-1,1693,1450,0,0
476,-426,0,0,0,0,0,0,0,0,0,-1,1700,1450,0,0
483,-426,0,0,0,0,0,0,0,0,0,-1,1707,1450,0,0
490,-426,0,0,0,0,0,0,0,0,0,-1,1714,1450,0,0
497,-426,0,0,0,0,0,0,0,0,0,-1,1721,1450,0,0
504,-426,20.6873,3.38367,0,0,0,0,0,0,0,-1,1728,1450,20.6873,-3.38361
511,-426,19.6676,3.53748,0,0,0,0,0,0,0,-1,1735,1450,19.6676,-3.53749
518,-426,18.6853,3.32288,0,0,0,0,0,0,0,-1,1742,1450,18.6853,-3.3229
525,-426,18.9552,2.71033,0,0,0,0,0,0,0,-1,1749,1450,18.9552,-2.71034
532,-426,17.764,2.81616,0,0,0,0,0,0,0,-1,1756,1450,17.764,-2.81611
539,-426,16.9565,3.07593,0,0,0,0,0,0,0,-1,1763,1450,16.9566,-3.07593
546,-426,16.1915,3.49744,0,0,0,0,0,0,0,-1,1770,1450,16.1916,-3.4975
553,-426,14.2675,9.57495,0,0,0,0,0,0,0,-1,1777,1450,14.2674,-9.57499
560,-426,13.6884,9.41113,0,0,0,0,0,0,0,-1,1784,1450,13.6884,-9.41109
567,-426,11.1727,8.76721,0,0,0,0,0,0,0,-1,1791,1450,11.1727,-8.76724
574,-426,12.8683,8.1709,0,0,0,0,0,0,0,-1,1798,1450,12.8683,-8.17084
581,-426,13.4164,8.58545,0,0,0,0,0,0,0,-1,1805,1450,13.4163,-8.58542
588,-426,13.168,9.1189,0,0,0,0,0,0,0,-1,1812,1450,13.168,-9.11887
595,-426,13.1306,8.80786,-0.0164756,-0.0105085,0.00743163,-0.00548387,-0.0215002,0.976283,0.0129001,0.0271528,1819,1450,13.1306,-8.80788
602,-426,13.1033,8.56018,-0.0119966,-0.0076643,0.00612403,-0.0033346,-0.0163263,0.955386,0.00996048,0.0147229,1826,1450,13.1033,-8.56019
609,-426,13.0851,8.32983,-0.00822949,-0.00580617,0.00508048,-0.00179486,-0.0122408,0.902458,0.00763292,0.0107737,1833,1450,13.085,-8.32989
616,-426,13.0795,8.10791,-0.00531422,-0.00399472,0.00391407,-0.000685184,-0.00862375,0.868893,0.00553493,0.0124172,1840,1450,13.0795,-8.10794
623,-426,13.0955,7.87402,-0.00316983,-0.00220139,0.00262818,-1.31957e-05,-0.00535803,0.876497,0.00356763,0.0107981,1847,1450,13.0954,-7.874
630,-426,13.1029,7.64868,-0.00144192,-0.00120196,0.00173334,0.000415551,-0.00305943,0.819952,0.00219131,0.0116995,1854,1450,13.1029,-7.64863
637,-426,13.097,7.41138,0.000113232,-0.000193522,0.00106279,0.00103366,-0.00111395,0.713735,0.00124021,0.0119674,1861,1450,13.097,-7.41133
644,-426,13.075,7.19897,0.00157844,0.000608378,0.000831388,0.00205593,0.00013088,0.521337,0.00132915,0.0110848,1868,1450,13.075,-7.19895
651,-426,13.056,6.97778,0.00302321,0.00136576,0.000922349,0.00343445,0.000954518,0.419407,0.00204704,0.0108337,1875,1450,13.056,-6.97784
658,-426,13.0682,6.69055,0.0044707,0.00216545,0.00136901,0.0051077,0.00152846,0.4355,0.00302712,0.0106518,1882,1450,13.0683,-6.69059
665,-426,13.1035,6.37744,0.00585515,0.00293174,0.00228771,0.00710826,0.00167864,0.501118,0.00429019,0.0180389,1889,1450,13.1035,-6.37743
672,-426,13.1007,6.13074,0.00737154,0.00375433,0.00367673,0.00966042,0.00146545,0.556822,0.00601163,0.0329689,1896,1450,13.1007,-6.13073
679,-426,13.0399,6.59058,0.00899273,0.00459883,0.00558649,0.0127987,0.000792823,0.598057,0.00828088,0.0452263,1903,1450,13.0399,-6.59054
686,-426,13.0486,7.01672,0,0,0,0,0,0,0,-1,1910,1450,13.0486,-7.01672
693,-426,11.8607,6.45215,0,0,0,0,0,0,0,-1,1917,1450,11.8607,-6.45215
700,-426,9.24304,2.95447,0,0,0,0,0,0,0,-1,1924,1450,9.24305,-2.95442
707,-426,8.44519,-1.21448,0,0,0,0,0,0,0,-1,1931,1450,8.44514,1.21454
714,-426,0,0,0,0,0,0,0,0,0,-1,1938,1450,0,0
721,-426,0,0,0,0,0,0,0,0,0,-1,1945,1450,0,0
728,-426,0,0,0,0,0,0,0,0,0,-1,1952,1450,0,0
735,-426,0,0,0,0,0,0,0,0,0,-1,1959,1450,0,0
742,-426,0,0,0,0,0,0,0,0,0,-1,1966,1450,0,0
749,-426,0,0,0,0,0,0,0,0,0,-1,1973,1450,0,0
756,-426,0,0,0,0,0,0,0,0,0,-1,1980,1450,0,0
763,-426,0,0,0,0,0,0,0,0,0,-1,1987,1450,0,0
770,-426,0,0,0,0,0,0,0,0,0,-1,1994,1450,0,0
777,-426,0,0,0,0,0,0,0,0,0,-1,2001,1450,0,0
784,-426,0,0,0,0,0,0,0,0,0,-1,2008,1450,0,0
791,-426,0,0,0,0,0,0,0,0,0,-1,2015,1450,0,0
798,-426,0,0,0,0,0,0,0,0,0,-1,2022,1450,0,0
805,-426,0,0,0,0,0,0,0,0,0,-1,2029,1450,0,0
812,-426,0,0,0,0,0,0,0,0,0,-1,2036,1450,0,0
-700,-433,0,0,0,0,0,0,0,0,0,-1,524,1457,0,0
-693,-433,0,0,0,0,0,0,0,0,0,-1,531,1457,0,0
-686,-433,0,0,0,0,0,0,0,0,0,-1,538,1457,0,0
-679,-433,0,0,0,0,0,0,0,0,0,-1,545,1457,0,0
-672,-433,0,0,0,0,0,0,0,0,0,-1,552,1457,0,0
-665,-433,0,0,0,0,0,0,0,0,0,-1,559,1457,0,0
-658,-433,0,0,0,0,0,0,0,0,0,-1,566,1457,0,0
-651,-433,0,0,0,0,0,0,0,0,0,-1,573,1457,0,0
-644,-433,0,0,0,0,0,0,0,0,0,-1,580,1457,0,0
-637,-433,0,0,0,0,0,0,0,0,0,-1,587,1457,0,0
-630,-433,0,0,0,0,0,0,0,0,0,-1,594,1457,0,0
-623,-433,0,0,0,0,0,0,0,0,0,-1,601,1457,0,0
-616,-433,0,0,0,0,0,0,0,0,0,-1,608,1457,0,0
-609,-433,0,0,0,0,0,0,0,0,0,-1,615,1457,0,0
-602,-433,0,0,0,0,0,0,0,0,0,-1,622,1457,0,0
-595,-433,0,0,0,0,0,0,0,0,0,-1,629,1457,0,0
-588,-433,-4.99121,-0.205688,0,0,0,0,0,0,0,-1,636,1457,-4.99119,0.205667
-581,-433,-4.98511,-1.28406,0,0,0,0,0,0,0,-1,643,1457,-4.9851,1.28405
-574,-433,-4.46533,0.146606,0,0,0,0,0,0,0,-1,650,1457,-4.46531,-0.146606
-567,-433,-5.42255,1.16833,0,0,0,0,0,0,0,-1,657,1457,-5.42254,-1.1683
-560,-433,-6.84027,1.86414,0,0,0,0,0,0,0,-1,664,1457,-6.84026,-1.86412
-553,-433,-5.74017,1.79163,0,0,0,0,0,0,0,-1,671,1457,-5.74015,-1.79166
-546,-433,-4.76917,1.64417,0,0,0,0,0,0,0,-1,678,1457,-4.76919,-1.6442
-539,-433,-3.95807,1.48706,0,0,0,0,0,0,0,-1,685,1457,-3.95809,-1.48702
-532,-433,-3.71143,4.64343,0.00623729,0.00713135,0.00795232,0.0146492,-0.00128056,0.813475,0.0102198,0.0320986,692,1457,-3.71143,-4.64343
-525,-433,-3.79004,4.87585,0.0049759,0.00581571,0.00641581,0.0118253,-0.00103373,0.818076,0.00824976,0.019974,699,1457,-3.79003,-4.87591
-518,-433,-3.77905,5.11169,0.00428307,0.0044699,0.00506885,0.0094462,-0.000693226,0.794612,0.0065408,0.0151076,706,1457,-3.77906,-5.11173
-511,-433,-3.79858,5.38098,0.00372032,0.0031422,0.00388872,0.0073307,-0.000468186,0.7483,0.00505044,0.0147804,713,1457,-3.7986,-5.38094
-504,-433,-3.79645,5.61157,0.00321347,0.00175836,0.00256397,0.00515111,-0.000179282,0.647152,0.00349537,0.0121107,720,1457,-3.79646,-5.61152
-497,-433,-3.78894,5.85217,0.00259541,0.000132535,0.000833257,0.00285084,-0.000122888,0.297442,0.00194282,0.0124161,727,1457,-3.78891,-5.85221
-490,-433,-3.80798,6.12683,0.00197617,-0.00180277,-0.0014155,0.00244757,-0.00227417,-0.321479,0.00272672,0.0142363,734,1457,-3.80795,-6.12689
-483,-433,-3.81995,6.43115,0.00139151,-0.0038026,-0.00366483,0.00328619,-0.00569728,-0.477146,0.0052485,0.0149548,741,1457,-3.81996,-6.43121
-476,-433,-3.81818,6.70874,0.0005088,-0.00622558,-0.00655313,0.00450921,-0.010226,-0.548073,0.00871818,0.00958033,748,1457,-3.8182,-6.70872
-469,-433,-3.81042,6.96277,-0.000586458,-0.00866478,-0.0101693,0.0063165,-0.0155677,-0.596357,0.0130057,0.00953275,755,1457,-3.81044,-6.96272
-462,-433,-3.82184,7.21326,-0.00130399,-0.0116627,-0.0144416,0.00885895,-0.0218256,-0.613223,0.0182354,0.00965075,762,1457,-3.82181,-7.21328
-455,-433,-3.7016,7.49988,-0.00261217,-0.0150967,-0.0199453,0.0120449,-0.0297537,-0.633742,0.0248439,0.0239759,769,1457,-3.7016,-7.49985
-448,-433,-3.66205,7.16785,-0.00437371,-0.0189445,-0.0268562,0.0161677,-0.039486,-0.652948,0.0330584,0.0364436,776,1457,-3.66203,-7.16779
-441,-433,-3.59277,6.53882,-0.00676853,-0.0233319,-0.0354274,0.0213323,-0.0514327,-0.670578,0.0431925,0.0416322,783,1457,-3.59279,-6.53884
-434,-433,-3.43408,5.92725,0,0,0,0,0,0,0,-1,790,1457,-3.43406,-5.9273
-427,-433,-2.57092,5.2417,0,0,0,0,0,0,0,-1,797,1457,-2.57091,-5.24164
-420,-433,-2.01154,4.89258,0,0,0,0,0,0,0,-1,804,1457,-2.01156,-4.89256
-413,-433,-3.63074,5.5813,0,0,0,0,0,0,0,-1,811,1457,-3.63072,-5.58129
-406,-433,-12.3472,4.69373,0,0,0,0,0,0,0,-1,818,1457,-12.3472,-4.69374
-399,-433,-12.055,2.83594,0,0,0,0,0,0,0,-1,825,1457,-12.055,-2.83594
-392,-433,-12.9772,1.6228,0,0,0,0,0,0,0,-1,832,1457,-12.9772,-1.62282
-385,-433,-13.7999,0.514771,0,0,0,0,0,0,0,-1,839,1457,-13.7999,-0.514788
-378,-433,0,0,0,0,0,0,0,0,0,-1,846,1457,0,0
-371,-433,0,0,0,0,0,0,0,0,0,-1,853,1457,0,0
-364,-433,0,0,0,0,0,0,0,0,0,-1,860,1457,0,0
-357,-433,0,0,0,0,0,0,0,0,0,-1,867,1457,0,0
-350,-433,0,0,0,0,0,0,0,0,0,-1,874,1457,0,0
-343,-433,0,0,0,0,0,0,0,0,0,-1,881,1457,0,0
-336,-433,0,0,0,0,0,0,0,0,0,-1,888,1457,0,0
-329,-433,0,0,0,0,0,0,0,0,0,-1,895,1457,0,0
-322,-433,0,0,0,0,0,0,0,0,0,-1,902,1457,0,0
-315,-433,0,0,0,0,0,0,0,0,0,-1,909,1457,0,0
-308,-433,0,0,0,0,0,0,0,0,0,-1,916,1457,0,0
-301,-433,0,0,0,0,0,0,0,0,0,-1,923,1457,0,0
-294,-433,0,0,0,0,0,0,0,0,0,-1,930,1457,0,0
-287,-433,0,0,0,0,0,0,0,0,0,-1,937,1457,0,0
-280,-433,0,0,0,0,0,0,0,0,0,-1,944,1457,0,0
-273,-433,0,0,0,0,0,0,0,0,0,-1,951,1457,0,0
-266,-433,0,0,0,0,0,0,0,0,0,-1,958,1457,0,0
-259,-433,0,0,0,0,0,0,0,0,0,-1,965,1457,0,0
-252,-433,0,0,0,0,0,0,0,0,0,-1,972,1457,0,0
-245,-433,0,0,0,0,0,0,0,0,0,-1,979,1457,0,0
-238,-433,0,0,0,0,0,0,0,0,0,-1,986,1457,0,0
-231,-433,0,0,0,0,0,0,0,0,0,-1,993,1457,0,0
-224,-433,0,0,0,0,0,0,0,0,0,-1,1000,1457,0,0
-217,-433,0,0,0,0,0,0,0,0,0,-1,1007,1457,0,0
-210,-433,0,0,0,0,0,0,0,0,0,-1,1014,1457,0,0
-203,-433,0,0,0,0,0,0,0,0,0,-1,1021,1457,0,0
-196,-433,0,0,0,0,0,0,0,0,0,-1,1028,1457,0,0
-189,-433,0,0,0,0,0,0,0,0,0,-1,1035,1457,0,0
-182,-433,0,0,0,0,0,0,0,0,0,-1,1042,1457,0,0
-175,-433,0,0,0,0,0,0,0,0,0,-1,1049,1457,0,0
-168,-433,0,0,0,0,0,0,0,0,0,-1,1056,1457,0,0
-161,-433,0,0,0,0,0,0,0,0,0,-1,1063,1457,0,0
-154,-433,0,0,0,0,0,0,0,0,0,-1,1070,1457,0,0
-147,-433,0,0,0,0,0,0,0,0,0,-1,1077,1457,0,0
-140,-433,0,0,0,0,0,0,0,0,0,-1,1084,1457,0,0
-133,-433,0,0,0,0,0,0,0,0,0,-1,1091,1457,0,0
-126,-433,0,0,0,0,0,0,0,0,0,-1,1098,1457,0,0
-119,-433,0,0,0,0,0,0,0,0,0,-1,1105,1457,0,0
-112,-433,0,0,0,0,0,0,0,0,0,-1,1112,1457,0,0
-105,-433,0,0,0,0,0,0,0,0,0,-1,1119,1457,0,0
-98,-433,0,0,0,0,0,0,0,0,0,-1,1126,1457,0,0
-91,-433,0,0,0,0,0,0,0,0,0,-1,1133,1457,0,0
-84,-433,0,0,0,0,0,0,0,0,0,-1,1140,1457,0,0
-77,-433,0,0,0,0,0,0,0,0,0,-1,1147,1457,0,0
-70,-433,0,0,0,0,0,0,0,0,0,-1,1154,1457,0,0
-63,-433,0,0,0,0,0,0,0,0,0,-1,1161,1457,0,0
-56,-433,0,0,0,0,0,0,0,0,0,-1,1168,1457,0,0
-49,-433,0,0,0,0,0,0,0,0,0,-1,1175,1457,0,0
-42,-433,0,0,0,0,0,0,0,0,0,-1,1182,1457,0,0
-35,-433,0,0,0,0,0,0,0,0,0,-1,1189,1457,0,0
-28,-433,0,0,0,0,0,0,0,0,0,-1,1196,1457,0,0
-21,-433,0,0,0,0,0,0,0,0,0,-1,1203,1457,0,0
-14,-433,0,0,0,0,0,0,0,0,0,-1,1210,1457,0,0
-7,-433,0,0,0,0,0,0,0,0,0,-1,1217,1457,0,0
0,-433,0,0,0,0,0,0,0,0,0,-1,1224,1457,0,0
7,-433,0,0,0,0,0,0,0,0,0,-1,1231,1457,0,0
14,-433,0,0,0,0,0,0,0,0,0,-1,1238,1457,0,0
21,-433,0,0,0,0,0,0,0,0,0,-1,1245,1457,0,0
28,-433,0,0,0,0,0,0,0,0,0,-1,1252,1457,0,0
35,-433,0,0,0,0,0,0,0,0,0,-1,1259,1457,0,0
42,-433,0,0,0,0,0,0,0,0,0,-1,1266,1457,0,0
49,-433,0,0,0,0,0,0,0,0,0,-1,1273,1457,0,0
56,-433,0,0,0,0,0,0,0,0,0,-1,1280,1457,0,0
63,-433,0,0,0,0,0,0,0,0,0,-1,1287,1457,0,0
70,-433,0,0,0,0,0,0,0,0,0,-1,1294,1457,0,0
77,-433,0,0,0,0,0,0,0,0,0,-1,1301,1457,0,0
84,-433,0,0,0,0,0,0,0,0,0,-1,1308,1457,0,0
91,-433,0,0,0,0,0,0,0,0,0,-1,1315,1457,0,0
98,-433,0,0,0,0,0,0,0,0,0,-1,1322,1457,0,0
105,-433,0,0,0,0,0,0,0,0,0,-1,1329,1457,0,0
112,-433,0,0,0,0,0,0,0,0,0,-1,1336,1457,0,0
119,-433,0,0,0,0,0,0,0,0,0,-1,1343,1457,0,0
126,-433,0,0,0,0,0,0,0,0,0,-1,1350,1457,0,0
133,-433,0,0,0,0,0,0,0,0,0,-1,1357,1457,0,0
140,-433,0,0,0,0,0,0,0,0,0,-1,1364,1457,0,0
147,-433,0,0,0,0,0,0,0,0,0,-1,1371,1457,0,0
154,-433,0,0,0,0,0,0,0,0,0,-1,1378,1457,0,0
161,-433,0,0,0,0,0,0,0,0,0,-1,1385,1457,0,0
168,-433,0,0,0,0,0,0,0,0,0,-1,1392,1457,0,0
175,-433,0,0,0,0,0,0,0,0,0,-1,1399,1457,0,0
182,-433,0,0,0,0,0,0,0,0,0,-1,1406,1457,0,0
189,-433,0,0,0,0,0,0,0,0,0,-1,1413,1457,0,0
196,-433,0,0,0,0,0,0,0,0,0,-1,1420,1457,0,0
203,-433,0,0,0,0,0,0,0,0,0,-1,1427,1457,0,0
210,-433,0,0,0,0,0,0,0,0,0,-1,1434,1457,0,0
217,-433,0,0,0,0,0,0,0,0,0,-1,1441,1457,0,0
224,-433,0,0,0,0,0,0,0,0,0,-1,1448,1457,0,0
231,-433,0,0,0,0,0,0,0,0,0,-1,1455,1457,0,0
238,-433,0,0,0,0,0,0,0,0,0,-1,1462,1457,0,0
245,-433,0,0,0,0,0,0,0,0,0,-1,1469,1457,0,0
252,-433,0,0,0,0,0,0,0,0,0,-1,1476,1457,0,0
259,-433,0,0,0,0,0,0,0,0,0,-1,1483,1457,0,0
266,-433,0,0,0,0,0,0,0,0,0,-1,1490,1457,0,0
273,-433,0,0,0,0,0,0,0,0,0,-1,1497,1457,0,0
280,-433,0,0,0,0,0,0,0,0,0,-1,1504,1457,0,0
287,-433,0,0,0,0,0,0,0,0,0,-1,1511,1457,0,0
294,-433,0,0,0,0,0,0,0,0,0,-1,1518,1457,0,0
301,-433,0,0,0,0,0,0,0,0,0,-1,1525,1457,0,0
308,-433,0,0,0,0,0,0,0,0,0,-1,1532,1457,0,0
315,-433,0,0,0,0,0,0,0,0,0,-1,1539,1457,0,0
322,-433,0,0,0,0,0,0,0,0,0,-1,1546,1457,0,0
329,-433,0,0,0,0,0,0,0,0,0,-1,1553,1457,0,0
336,-433,0,0,0,0,0,0,0,0,0,-1,1560,1457,0,0
343,-433,0,0,0,0,0,0,0,0,0,-1,1567,1457,0,0
350,-433,0,0,0,0,0,0,0,0,0,-1,1574,1457,0,0
357,-433,0,0,0,0,0,0,0,0,0,-1,1581,1457,0,0
364,-433,0,0,0,0,0,0,0,0,0,-1,1588,1457,0,0
371,-433,0,0,0,0,0,0,0,0,0,-1,1595,1457,0,0
378,-433,0,0,0,0,0,0,0,0,0,-1,1602,1457,0,0
385,-433,0,0,0,0,0,0,0,0,0,-1,1609,1457,0,0
392,-433,0,0,0,0,0,0,0,0,0,-1,1616,1457,0,0
399,-433,0,0,0,0,0,0,0,0,0,-1,1623,1457,0,0
406,-433,0,0,0,0,0,0,0,0,0,-1,1630,1457,0,0
413,-433,0,0,0,0,0,0,0,0,0,-1,1637,1457,0,0
420,-433,0,0,0,0,0,0,0,0,0,-1,1644,1457,0,0
427,-433,0,0,0,0,0,0,0,0,0,-1,1651,1457,0,0
434,-433,0,0,0,0,0,0,0,0,0,-1,1658,1457,0,0
441,-433,0,0,0,0,0,0,0,0,0,-1,1665,1457,0,0
448,-433,0,0,0,0,0,0,0,0,0,-1,1672,1457,0,0
455,-433,0,0,0,0,0,0,0,0,0,-1,1679,1457,0,0
462,-433,0,0,0,0,0,0,0,0,0,-1,1686,1457,0,0
469,-433,0,0,0,0,0,0,0,0,0,-1,1693,1457,0,0
476,-433,0,0,0,0,0,0,0,0,0,-1,1700,1457,0,0
483,-433,0,0,0,0,0,0,0,0,0,-1,1707,1457,0,0
490,-433,0,0,0,0,0,0,0,0,0,-1,1714,1457,0,0
497,-433,0,0,0,0,0,0,0,0,0,-1,1721,1457,0,0
504,-433,19.9058,3.03662,0,0,0,0,0,0,0,-1,1728,1457,19.9058,-3.03656
511,-433,19.0145,3.07837,0,0,0,0,0,0,0,-1,1735,1457,19.0146,-3.07834
518,-433,18.071,3.06433,0,0,0,0,0,0,0,-1,1742,1457,18.071,-3.06432
525,-433,17.2048,3.37085,0,0,0,0,0,0,0,-1,1749,1457,17.2049,-3.37083
532,-433,16.5637,3.36646,0,0,0,0,0,0,0,-1,1756,1457,16.5637,-3.36643
539,-433,15.9193,3.30396,0,0,0,0,0,0,0,-1,1763,1457,15.9193,-3.30394
546,-433,14.1833,9.69934,0,0,0,0,0,0,0,-1,1770,1457,14.1833,-9.69931
553,-433,13.9746,9.53271,-0.0524205,-0.0267594,0.00620249,-0.0253389,-0.0538411,1.34565,0.031103,0.0423489,1777,1457,13.9746,-9.53275
560,-433,13.6433,9.16406,-0.0447304,-0.0241053,0.00769325,-0.0215519,-0.0472839,1.25033,0.0273349,0.0443378,1784,1457,13.6434,-9.16406
567,-433,13.2715,8.25415,0,0,0,0,0,0,0,-1,1791,1457,13.2715,-8.2542
574,-433,12.996,9.03052,0,0,0,0,0,0,0,-1,1798,1457,12.996,-9.03049
581,-433,13.1083,8.9679,-0.0232423,-0.0144619,0.00801327,-0.00971504,-0.0279892,1.036,0.0164095,0.0422954,1805,1457,13.1083,-8.96784
588,-433,13.0175,8.9325,-0.017793,-0.0114027,0.00701981,-0.0068851,-0.0223106,0.998967,0.0131919,0.035449,1812,1457,13.0174,-8.93254
595,-433,12.824,8.81653,-0.0133357,-0.00868217,0.00598316,-0.00458929,-0.0174286,0.970844,0.0104314,0.0223807,1819,1457,12.824,-8.81649
602,-433,12.8492,8.57312,-0.0096375,-0.00623027,0.00488605,-0.00275936,-0.0131084,0.953143,0.0079798,0.0196108,1826,1457,12.8493,-8.57306
609,-433,12.8495,8.32251,-0.00642386,-0.004689,0.0039838,-0.00147929,-0.00963358,0.892595,0.00599049,0.0146137,1833,1457,12.8495,-8.32253
616,-433,12.8337,8.09424,-0.00391969,-0.00313361,0.00302245,-0.000478753,-0.00657455,0.850055,0.00423248,0.0120958,1840,1457,12.8337,-8.09424
623,-433,12.829,7.86353,-0.00204116,-0.00158271,0.00201174,0.000212818,-0.00383669,0.842126,0.0026316,0.0102883,1847,1457,12.829,-7.86353
630,-433,12.8372,7.65417,-0.000440722,-0.000687104,0.0013304,0.000772176,-0.0019,0.739231,0.00158793,0.0138032,1854,1457,12.8371,-7.65415
637,-433,12.8485,7.41211,0.00104591,0.000250296,0.000773321,0.00151774,-0.000221538,0.547842,0.00109318,0.0136854,1861,1457,12.8485,-7.41214
644,-433,12.8462,7.19495,0.00255829,0.00109428,0.00058188,0.00276139,0.000891182,0.335816,0.00162734,0.0132332,1868,1457,12.8462,-7.19494
651,-433,12.8301,6.98303,0.00419902,0.00204034,0.000654708,0.00438206,0.00185729,0.272623,0.00253975,0.0107718,1875,1457,12.8301,-6.98302
658,-433,12.8367,6.68201,0.00594318,0.00308398,0.00111976,0.00632952,0.00269764,0.332228,0.0036676,0.0134542,1882,1457,12.8367,-6.68202
665,-433,12.7736,6.37183,0.00785191,0.0043504,0.00197271,0.00873871,0.00346359,0.422469,0.00508131,0.0212366,1889,1457,12.7736,-6.37182
672,-433,12.772,6.37122,0.0101837,0.00589384,0.00331764,0.0119894,0.00408814,0.498436,0.0070378,0.0406659,1896,1457,12.772,-6.37125
679,-433,13.0527,7.12805,0.0129161,0.00769402,0.00527328,0.0161894,0.00442077,0.555519,0.00966252,0.045365,1903,1457,13.0528,-7.12799
686,-433,13.2917,7.14172,0,0,0,0,0,0,0,-1,1910,1457,13.2918,-7.14171
693,-433,13.7253,7.20483,0,0,0,0,0,0,0,-1,1917,1457,13.7253,-7.2048
700,-433,7.16809,-1.5166,0,0,0,0,0,0,0,-1,1924,1457,7.16806,1.51656
707,-433,8.68359,-2.82202,0,0,0,0,0,0,0,-1,1931,1457,8.68359,2.82197
714,-433,0,0,0,0,0,0,0,0,0,-1,1938,1457,0,0
721,-433,0,0,0,0,0,0,0,0,0,-1,1945,1457,0,0
728,-433,0,0,0,0,0,0,0,0,0,-1,1952,1457,0,0
735,-433,0,0,0,0,0,0,0,0,0,-1,1959,1457,0,0
742,-433,0,0,0,0,0,0,0,0,0,-1,1966,1457,0,0
749,-433,0,0,0,0,0,0,0,0,0,-1,1973,1457,0,0
756,-433,0,0,0,0,0,0,0,0,0,-1,1980,1457,0,0
763,-433,0,0,0,0,0,0,0,0,0,-1,1987,1457,0,0
770,-433,0,0,0,0,0,0,0,0,0,-1,1994,1457,0,0
777,-433,0,0,0,0,0,0,0,0,0,-1,2001,1457,0,0
784,-433,0,0,0,0,0,0,0,0,0,-1,2008,1457,0,0
791,-433,0,0,0,0,0,0,0,0,0,-1,2015,1457,0,0
798,-433,0,0,0,0,0,0,0,0,0,-1,2022,1457,0,0
805,-433,0,0,0,0,0,0,0,0,0,-1,2029,1457,0,0
812,-433,0,0,0,0,0,0,0,0,0,-1,2036,1457,0,0
-700,-440,0,0,0,0,0,0,0,0,0,-1,524,1464,0,0
-693,-440,0,0,0,0,0,0,0,0,0,-1,531,1464,0,0
-686,-440,0,0,0,0,0,0,0,0,0,-1,538,1464,0,0
-679,-440,0,0,0,0,0,0,0,0,0,-1,545,1464,0,0
-672,-440,0,0,0,0,0,0,0,0,0,-1,552,1464,0,0
-665,-440,0,0,0,0,0,0,0,0,0,-1,559,1464,0,0
-658,-440,0,0,0,0,0,0,0,0,0,-1,566,1464,0,0
-651,-440,0,0,0,0,0,0,0,0,0,-1,573,1464,0,0
-644,-440,0,0,0,0,0,0,0,0,0,-1,580,1464,0,0
-637,-440,0,0,0,0,0,0,0,0,0,-1,587,1464,0,0
-630,-440,0,0,0,0,0,0,0,0,0,-1,594,1464,0,0
-623,-440,0,0,0,0,0,0,0,0,0,-1,601,1464,0,0
-616,-440,0,0,0,0,0,0,0,0,0,-1,608,1464,0,0
-609,-440,0,0,0,0,0,0,0,0,0,-1,615,1464,0,0
-602,-440,0,0,0,0,0,0,0,0,0,-1,622,1464,0,0
-595,-440,0,0,0,0,0,0,0,0,0,-1,629,1464,0,0
-588,-440,0,0,0,0,0,0,0,0,0,-1,636,1464,0,0
-581,-440,-5.65979,-1.33923,0,0,0,0,0,0,0,-1,643,1464,-5.65977,1.33928
-574,-440,-7.00818,-0.918579,0,0,0,0,0,0,0,-1,650,1464,-7.00817,0.918538
-567,-440,-6.12152,-0.0766602,0,0,0,0,0,0,0,-1,657,1464,-6.12151,0.0767097
-560,-440,-5.46747,0.82251,0,0,0,0,0,0,0,-1,664,1464,-5.46748,-0.822551
-553,-440,-6.84729,0.0831299,0,0,0,0,0,0,0,-1,671,1464,-6.84732,-0.083136
-546,-440,-5.63446,-0.153198,0,0,0,0,0,0,0,-1,678,1464,-5.63447,0.153147
-539,-440,-3.69214,4.25403,0,0,0,0,0,0,0,-1,685,1464,-3.69215,-4.25405
-532,-440,-3.56659,4.59509,0.00911669,0.00912793,0.0107916,0.0199139,-0.00166929,0.785658,0.0138659,0.0386544,692,1464,-3.56659,-4.59507
-525,-440,-3.5509,4.87024,0.00759038,0.0075216,0.00882821,0.0163843,-0.00127228,0.783451,0.0113707,0.0207935,699,1464,-3.55089,-4.87024
-518,-440,-3.56543,5.08655,0.00640579,0.00592195,0.00701996,0.013188,-0.000860256,0.768174,0.00909233,0.0141724,706,1464,-3.56545,-5.0865
-511,-440,-3.53485,5.37134,0.0052989,0.00437549,0.00538435,0.0102413,-0.000566913,0.742628,0.00702413,0.0147929,713,1464,-3.53486,-5.37131
-504,-440,-3.52197,5.61365,0.00430487,0.00285241,0.00374901,0.00739734,-0.000240063,0.689727,0.0050135,0.0184751,720,1464,-3.52199,-5.61369
-497,-440,-3.51813,5.83667,0.00333247,0.00118392,0.00190109,0.00444182,7.4568e-05,0.528223,0.00293667,0.0217196,727,1464,-3.5181,-5.83662
-490,-440,-3.53656,6.10388,0.00249051,-0.000703585,-0.000269489,0.00251309,-0.000726163,-0.0835837,0.00196275,0.0213524,734,1464,-3.53655,-6.10388
-483,-440,-3.56091,6.40833,0.00177414,-0.00258699,-0.00237578,0.00281835,-0.0036312,-0.414109,0.0037335,0.0182234,741,1464,-3.56091,-6.40837
-476,-440,-3.55872,6.69397,0.000825983,-0.00484937,-0.00500339,0.00374038,-0.00776376,-0.52744,0.00677596,0.0115076,748,1464,-3.55871,-6.694
-469,-440,-3.54681,6.95728,-0.000228209,-0.00698841,-0.00815365,0.00521819,-0.0124348,-0.588905,0.010472,0.0119851,755,1464,-3.54683,-6.95723
-462,-440,-3.54626,7.20959,-0.000599852,-0.00955351,-0.0115955,0.00735301,-0.0175064,-0.601172,0.0147462,0.0136349,762,1464,-3.54629,-7.20958
-455,-440,-3.51752,7.51123,-0.00135767,-0.012437,-0.0159463,0.00998375,-0.0237784,-0.618222,0.0200276,0.0173029,769,1464,-3.5175,-7.51127
-448,-440,-3.33679,7.68347,-0.00231002,-0.0156287,-0.0213109,0.0133578,-0.0312965,-0.633963,0.0264655,0.0305333,776,1464,-3.33682,-7.68351
-441,-440,-3.50397,7.21716,-0.00355235,-0.0192425,-0.0278536,0.0175399,-0.0403347,-0.648127,0.034267,0.0358196,783,1464,-3.50398,-7.21714
-434,-440,-3.44525,7.14636,0,0,0,0,0,0,0,-1,790,1464,-3.44524,-7.14633
-427,-440,-3.22937,7.23279,0,0,0,0,0,0,0,-1,797,1464,-3.2294,-7.23284
-420,-440,-3.36182,6.51855,0,0,0,0,0,0,0,-1,804,1464,-3.3618,-6.51852
-413,-440,-3.46796,5.72278,0,0,0,0,0,0,0,-1,811,1464,-3.46797,-5.72276
-406,-440,-5.2887,5.20264,0,0,0,0,0,0,0,-1,818,1464,-5.2887,-5.20261
-399,-440,-12.7318,3.94421,0,0,0,0,0,0,0,-1,825,1464,-12.7318,-3.94419
-392,-440,-13.5565,2.51855,0,0,0,0,0,0,0,-1,832,1464,-13.5565,-2.51861
-385,-440,-14.6741,1.39795,0,0,0,0,0,0,0,-1,839,1464,-14.6741,-1.39801
-378,-440,-15.8063,0.293457,0,0,0,0,0,0,0,-1,846,1464,-15.8063,-0.293412
-371,-440,0,0,0,0,0,0,0,0,0,-1,853,1464,0,0
-364,-440,0,0,0,0,0,0,0,0,0,-1,860,1464,0,0
-357,-440,0,0,0,0,0,0,0,0,0,-1,867,1464,0,0
-350,-440,0,0,0,0,0,0,0,0,0,-1,874,1464,0,0
-343,-440,0,0,0,0,0,0,0,0,0,-1,881,1464,0,0
-336,-440,0,0,0,0,0,0,0,0,0,-1,888,1464,0,0
-329,-440,0,0,0,0,0,0,0,0,0,-1,895,1464,0,0
-322,-440,0,0,0,0,0,0,0,0,0,-1,902,1464,0,0
-315,-440,0,0,0,0,0,0,0,0,0,-1,909,1464,0,0
-308,-440,0,0,0,0,0,0,0,0,0,-1,916,1464,0,0
-301,-440,0,0,0,0,0,0,0,0,0,-1,923,1464,0,0
-294,-440,0,0,0,0,0,0,0,0,0,-1,930,1464,0,0
-287,-440,0,0,0,0,0,0,0,0,0,-1,937,1464,0,0
-280,-440,0,0,0,0,0,0,0,0,0,-1,944,1464,0,0
-273,-440,0,0,0,0,0,0,0,0,0,-1,951,1464,0,0
-266,-440,0,0,0,0,0,0,0,0,0,-1,958,1464,0,0
-259,-440,0,0,0,0,0,0,0,0,0,-1,965,1464,0,0
-252,-440,0,0,0,0,0,0,0,0,0,-1,972,1464,0,0
-245,-440,0,0,0,0,0,0,0,0,0,-1,979,1464,0,0
-238,-440,0,0,0,0,0,0,0,0,0,-1,986,1464,0,0
-231,-440,0,0,0,0,0,0,0,0,0,-1,993,1464,0,0
-224,-440,0,0,0,0,0,0,0,0,0,-1,1000,1464,0,0
-217,-440,0,0,0,0,0,0,0,0,0,-1,1007,1464,0,0
-210,-440,0,0,0,0,0,0,0,0,0,-1,1014,1464,0,0
-203,-440,0,0,0,0,0,0,0,0,0,-1,1021,1464,0,0
-196,-440,0,0,0,0,0,0,0,0,0,-1,1028,1464,0,0
-189,-440,0,0,0,0,0,0,0,0,0,-1,1035,1464,0,0
-182,-440,0,0,0,0,0,0,0,0,0,-1,1042,1464,0,0
-175,-440,0,0,0,0,0,0,0,0,0,-1,1049,1464,0,0
-168,-440,0,0,0,0,0,0,0,0,0,-1,1056,1464,0,0
-161,-440,0,0,0,0,0,0,0,0,0,-1,1063,1464,0,0
-154,-440,0,0,0,0,0,0,0,0,0,-1,1070,1464,0,0
-147,-440,0,0,0,0,0,0,0,0,0,-1,1077,1464,0,0
-140,-440,0,0,0,0,0,0,0,0,0,-1,1084,1464,0,0
-133,-440,0,0,0,0,0,0,0,0,0,-1,1091,1464,0,0
-126,-440,0,0,0,0,0,0,0,0,0,-1,1098,1464,0,0
-119,-440,0,0,0,0,0,0,0,0,0,-1,1105,1464,0,0
-112,-440,0,0,0,0,0,0,0,0,0,-1,1112,1464,0,0
-105,-440,0,0,0,0,0,0,0,0,0,-1,1119,1464,0,0
-98,-440,0,0,0,0,0,0,0,0,0,-1,1126,1464,0,0
-91,-440,0,0,0,0,0,0,0,0,0,-1,1133,1464,0,0
-84,-440,0,0,0,0,0,0,0,0,0,-1,1140,1464,0,0
-77,-440,0,0,0,0,0,0,0,0,0,-1,1147,1464,0,0
-70,-440,0,0,0,0,0,0,0,0,0,-1,1154,1464,0,0
-63,-440,0,0,0,0,0,0,0,0,0,-1,1161,1464,0,0
-56,-440,0,0,0,0,0,0,0,0,0,-1,1168,1464,0,0
-49,-440,0,0,0,0,0,0,0,0,0,-1,1175,1464,0,0
-42,-440,0,0,0,0,0,0,0,0,0,-1,1182,1464,0,0
-35,-440,0,0,0,0,0,0,0,0,0,-1,1189,1464,0,0
-28,-440,0,0,0,0,0,0,0,0,0,-1,1196,1464,0,0
-21,-440,0,0,0,0,0,0,0,0,0,-1,1203,1464,0,0
-14,-440,0,0,0,0,0,0,0,0,0,-1,1210,1464,0,0
-7,-440,0,0,0,0,0,0,0,0,0,-1,1217,1464,0,0
0,-440,0,0,0,0,0,0,0,0,0,-1,1224,1464,0,0
7,-440,0,0,0,0,0,0,0,0,0,-1,1231,1464,0,0
14,-440,0,0,0,0,0,0,0,0,0,-1,1238,1464,0,0
21,-440,0,0,0,0,0,0,0,0,0,-1,1245,1464,0,0
28,-440,0,0,0,0,0,0,0,0,0,-1,1252,1464,0,0
35,-440,0,0,0,0,0,0,0,0,0,-1,1259,1464,0,0
42,-440,0,0,0,0,0,0,0,0,0,-1,1266,1464,0,0
49,-440,0,0,0,0,0,0,0,0,0,-1,1273,1464,0,0
56,-440,0,0,0,0,0,0,0,0,0,-1,1280,1464,0,0
63,-440,0,0,0,0,0,0,0,0,0,-1,1287,1464,0,0
70,-440,0,0,0,0,0,0,0,0,0,-1,1294,1464,0,0
77,-440,0,0,0,0,0,0,0,0,0,-1,1301,1464,0,0
84,-440,0,0,0,0,0,0,0,0,0,-1,1308,1464,0,0
91,-440,0,0,0,0,0,0,0,0,0,-1,1315,1464,0,0
98,-440,0,0,0,0,0,0,0,0,0,-1,1322,1464,0,0
105,-440,0,0,0,0,0,0,0,0,0,-1,1329,1464,0,0
112,-440,0,0,0,0,0,0,0,0,0,-1,1336,1464,0,0
119,-440,0,0,0,0,0,0,0,0,0,-1,1343,1464,0,0
126,-440,0,0,0,0,0,0,0,0,0,-1,1350,1464,0,0
133,-440,0,0,0,0,0,0,0,0,0,-1,1357,1464,0,0
140,-440,0,0,0,0,0,0,0,0,0,-1,1364,1464,0,0
147,-440,0,0,0,0,0,0,0,0,0,-1,1371,1464,0,0
154,-440,0,0,0,0,0,0,0,0,0,-1,1378,1464,0,0
161,-440,0,0,0,0,0,0,0,0,0,-1,1385,1464,0,0
168,-440,0,0,0,0,0,0,0,0,0,-1,1392,1464,0,0
175,-440,0,0,0,0,0,0,0,0,0,-1,1399,1464,0,0
182,-440,0,0,0,0,0,0,0,0,0,-1,1406,1464,0,0
189,-440,0,0,0,0,0,0,0,0,0,-1,1413,1464,0,0
196,-440,0,0,0,0,0,0,0,0,0,-1,1420,1464,0,0
203,-440,0,0,0,0,0,0,0,0,0,-1,1427,1464,0,0
210,-440,0,0,0,0,0,0,0,0,0,-1,1434,1464,0,0
217,-440,0,0,0,0,0,0,0,0,0,-1,1441,1464,0,0
224,-440,0,0,0,0,0,0,0,0,0,-1,1448,1464,0,0
231,-440,0,0,0,0,0,0,0,0,0,-1,1455,1464,0,0
238,-440,0,0,0,0,0,0,0,0,0,-1,1462,1464,0,0
245,-440,0,0,0,0,0,0,0,0,0,-1,1469,1464,0,0
252,-440,0,0,0,0,0,0,0,0,0,-1,1476,1464,0,0
259,-440,0,0,0,0,0,0,0,0,0,-1,1483,1464,0,0
266,-440,0,0,0,0,0,0,0,0,0,-1,1490,1464,0,0
273,-440,0,0,0,0,0,0,0,0,0,-1,1497,1464,0,0
280,-440,0,0,0,0,0,0,0,0,0,-1,1504,1464,0,0
287,-440,0,0,0,0,0,0,0,0,0,-1,1511,1464,0,0
294,-440,0,0,0,0,0,0,0,0,0,-1,1518,1464,0,0
301,-440,0,0,0,0,0,0,0,0,0,-1,1525,1464,0,0
308,-440,0,0,0,0,0,0,0,0,0,-1,1532,1464,0,0
315,-440,0,0,0,0,0,0,0,0,0,-1,1539,1464,0,0
322,-440,0,0,0,0,0,0,0,0,0,-1,1546,1464,0,0
329,-440,0,0,0,0,0,0,0,0,0,-1,1553,1464,0,0
336,-440,0,0,0,0,0,0,0,0,0,-1,1560,1464,0,0
343,-440,0,0,0,0,0,0,0,0,0,-1,1567,1464,0,0
350,-440,0,0,0,0,0,0,0,0,0,-1,1574,1464,0,0
357,-440,0,0,0,0,0,0,0,0,0,-1,1581,1464,0,0
364,-440,0,0,0,0,0,0,0,0,0,-1,1588,1464,0,0
371,-440,0,0,0,0,0,0,0,0,0,-1,1595,1464,0,0
378,-440,0,0,0,0,0,0,0,0,0,-1,1602,1464,0,0
385,-440,0,0,0,0,0,0,0,0,0,-1,1609,1464,0,0
392,-440,0,0,0,0,0,0,0,0,0,-1,1616,1464,0,0
399,-440,0,0,0,0,0,0,0,0,0,-1,1623,1464,0,0
406,-440,0,0,0,0,0,0,0,0,0,-1,1630,1464,0,0
413,-440,0,0,0,0,0,0,0,0,0,-1,1637,1464,0,0
420,-440,0,0,0,0,0,0,0,0,0,-1,1644,1464,0,0
427,-440,0,0,0,0,0,0,0,0,0,-1,1651,1464,0,0
434,-440,0,0,0,0,0,0,0,0,0,-1,1658,1464,0,0
441,-440,0,0,0,0,0,0,0,0,0,-1,1665,1464,0,0
448,-440,0,0,0,0,0,0,0,0,0,-1,1672,1464,0,0
455,-440,0,0,0,0,0,0,0,0,0,-1,1679,1464,0,0
462,-440,0,0,0,0,0,0,0,0,0,-1,1686,1464,0,0
469,-440,0,0,0,0,0,0,0,0,0,-1,1693,1464,0,0
476,-440,0,0,0,0,0,0,0,0,0,-1,1700,1464,0,0
483,-440,0,0,0,0,0,0,0,0,0,-1,1707,1464,0,0
490,-440,0,0,0,0,0,0,0,0,0,-1,1714,1464,0,0
497,-440,16.965,-0.528442,0,0,0,0,0,0,0,-1,1721,1464,16.965,0.528492
504,-440,15.8052,0.670166,0,0,0,0,0,0,0,-1,1728,1464,15.8052,-0.670145
511,-440,17.5754,2.77832,0,0,0,0,0,0,0,-1,1735,1464,17.5754,-2.77826
518,-440,16.9017,3.07861,0,0,0,0,0,0,0,-1,1742,1464,16.9018,-3.07859
525,-440,18.4495,12.0867,0,0,0,0,0,0,0,-1,1749,1464,18.4495,-12.0867
532,-440,15.4319,3.64392,0,0,0,0,0,0,0,-1,1756,1464,15.4318,-3.64391
539,-440,14.8214,3.41321,0,0,0,0,0,0,0,-1,1763,1464,14.8214,-3.4132
546,-440,14.0995,9.54028,0,0,0,0,0,0,0,-1,1770,1464,14.0995,-9.54025
553,-440,13.7092,9.58972,-0.0440954,-0.023902,0.00827678,-0.0209431,-0.0470543,1.22746,0.0272214,0.0419777,1777,1464,13.7092,-9.58976
560,-440,13.5292,9.13464,-0.0371445,-0.0211725,0.00832246,-0.0176242,-0.0406928,1.16778,0.023564,0.0408948,1784,1464,13.5292,-9.13464
567,-440,13.0605,8.76819,-0.0303376,-0.0181596,0.00811593,-0.0141025,-0.0343948,1.10723,0.0199647,0.0469224,1791,1464,13.0606,-8.76821
574,-440,12.7174,9.14734,0,0,0,0,0,0,0,-1,1798,1464,12.7174,-9.1474
581,-440,12.7286,9.12952,-0.0187551,-0.0121982,0.00682327,-0.0079066,-0.0230467,1.00935,0.0135227,0.0408018,1805,1464,12.7286,-9.12955
588,-440,12.6066,9.10669,-0.0142261,-0.00961135,0.00576935,-0.00570507,-0.0181323,0.975622,0.0107058,0.0287009,1812,1464,12.6065,-9.10665
595,-440,12.5968,8.83948,-0.0105481,-0.00722161,0.00480718,-0.00379809,-0.0139717,0.95195,0.00834179,0.0198715,1819,1464,12.5968,-8.83942
602,-440,12.62,8.56946,-0.00751833,-0.00511093,0.00385489,-0.00227618,-0.0103531,0.936728,0.00628231,0.0188242,1826,1464,12.62,-8.5695
609,-440,12.6157,8.33252,-0.00479688,-0.00382218,0.00303043,-0.00124017,-0.00737889,0.865125,0.00456241,0.01583,1833,1464,12.6157,-8.33255
616,-440,12.6035,8.11499,-0.00265987,-0.00246362,0.00219433,-0.000365221,-0.00475827,0.807742,0.00305772,0.016051,1840,1464,12.6035,-8.11498
623,-440,12.5977,7.86755,-0.00101983,-0.00110682,0.00137965,0.000317012,-0.00244366,0.76964,0.0017444,0.0130528,1847,1464,12.5977,-7.8676
630,-440,12.5946,7.6272,0.000475372,-0.000236902,0.000855149,0.00104558,-0.000807109,0.58809,0.0010726,0.0111623,1854,1464,12.5946,-7.62722
637,-440,12.6052,7.41943,0.00191465,0.000687559,0.000383595,0.00202469,0.000577514,0.279376,0.00120436,0.0152504,1861,1464,12.6052,-7.41948
644,-440,12.6141,7.20325,0.00350063,0.00164569,0.00019392,0.00352069,0.00162564,0.103058,0.00203465,0.0139163,1868,1464,12.6141,-7.20323
651,-440,12.6372,6.95544,0.005374,0.00287468,0.000189062,0.00538822,0.00286046,0.0750761,0.00311287,0.0116171,1875,1464,12.6372,-6.95544
658,-440,12.6112,6.71643,0.00746794,0.00431487,0.000587348,0.00757379,0.00420902,0.178314,0.00438178,0.0174757,1882,1464,12.6112,-6.71643
665,-440,12.6088,6.4115,0.00999976,0.00629147,0.00125476,0.0103844,0.0059068,0.297469,0.00601435,0.0297217,1889,1464,12.6087,-6.41151
672,-440,12.631,6.40405,0.0133113,0.00889717,0.00236897,0.014342,0.00786646,0.410384,0.00829333,0.0443575,1896,1464,12.631,-6.40404
679,-440,12.9877,6.33057,0.0174378,0.0122213,0.0040915,0.0196817,0.00997738,0.501637,0.0113636,0.0467534,1903,1464,12.9877,-6.33051
686,-440,13.1689,6.35303,0,0,0,0,0,0,0,-1,1910,1464,13.1689,-6.35308
693,-440,9.88635,2.89795,0,0,0,0,0,0,0,-1,1917,1464,9.88638,-2.89798
700,-440,7.07825,-2.62061,0,0,0,0,0,0,0,-1,1924,1464,7.07829,2.62057
707,-440,0,0,0,0,0,0,0,0,0,-1,1931,1464,0,0
714,-440,0,0,0,0,0,0,0,0,0,-1,1938,1464,0,0
721,-440,0,0,0,0,0,0,0,0,0,-1,1945,1464,0,0
728,-440,0,0,0,0,0,0,0,0,0,-1,1952,1464,0,0
735,-440,0,0,0,0,0,0,0,0,0,-1,1959,1464,0,0
742,-440,0,0,0,0,0,0,0,0,0,-1,1966,1464,0,0
749,-440,0,0,0,0,0,0,0,0,0,-1,1973,1464,0,0
756,-440,0,0,0,0,0,0,0,0,0,-1,1980,1464,0,0
763,-440,0,0,0,0,0,0,0,0,0,-1,1987,1464,0,0
770,-440,0,0,0,0,0,0,0,0,0,-1,1994,1464,0,0
777,-440,0,0,0,0,0,0,0,0,0,-1,2001,1464,0,0
784,-440,0,0,0,0,0,0,0,0,0,-1,2008,1464,0,0
791,-440,0,0,0,0,0,0,0,0,0,-1,2015,1464,0,0
798,-440,0,0,0,0,0,0,0,0,0,-1,2022,1464,0,0
805,-440,0,0,0,0,0,0,0,0,0,-1,2029,1464,0,0
812,-440,0,0,0,0,0,0,0,0,0,-1,2036,1464,0,0
-700,-447,0,0,0,0,0,0,0,0,0,-1,524,1471,0,0
-693,-447,0,0,0,0,0,0,0,0,0,-1,531,1471,0,0
-686,-447,0,0,0,0,0,0,0,0,0,-1,538,1471,0,0
-679,-447,0,0,0,0,0,0,0,0,0,-1,545,1471,0,0
-672,-447,0,0,0,0,0,0,0,0,0,-1,552,1471,0,0
-665,-447,0,0,0,0,0,0,0,0,0,-1,559,1471,0,0
-658,-447,0,0,0,0,0,0,0,0,0,-1,566,1471,0,0
-651,-447,0,0,0,0,0,0,0,0,0,-1,573,1471,0,0
-644,-447,0,0,0,0,0,0,0,0,0,-1,580,1471,0,0
-637,-447,0,0,0,0,0,0,0,0,0,-1,587,1471,0,0
-630,-447,0,0,0,0,0,0,0,0,0,-1,594,1471,0,0
-623,-447,0,0,0,0,0,0,0,0,0,-1,601,1471,0,0
-616,-447,0,0,0,0,0,0,0,0,0,-1,608,1471,0,0
-609,-447,0,0,0,0,0,0,0,0,0,-1,615,1471,0,0
-602,-447,0,0,0,0,0,0,0,0,0,-1,622,1471,0,0
-595,-447,0,0,0,0,0,0,0,0,0,-1,629,1471,0,0
-588,-447,0,0,0,0,0,0,0,0,0,-1,636,1471,0,0
-581,-447,-7.06482,-1.50476,0,0,0,0,0,0,0,-1,643,1471,-7.0648,1.50474
-574,-447,-6.88092,-0.00585938,0,0,0,0,0,0,0,-1,650,1471,-6.88095,0.00589852
-567,-447,-6.8205,-1.32178,0,0,0,0,0,0,0,-1,657,1471,-6.82047,1.32172
-560,-447,-8.85748,2.80774,0,0,0,0,0,0,0,-1,664,1471,-8.85748,-2.80775
-553,-447,-7.60486,3.26794,0,0,0,0,0,0,0,-1,671,1471,-7.60487,-3.26799
-546,-447,-3.94501,1.8656,0,0,0,0,0,0,0,-1,678,1471,-3.945,-1.86554
-539,-447,-3.59027,2.81531,0,0,0,0,0,0,0,-1,685,1471,-3.59028,-2.81534
-532,-447,-3.22736,3.86035,0.012906,0.0113692,0.0141367,0.0262952,-0.00201999,0.758247,0.0182408,0.0471858,692,1471,-3.22733,-3.8604
-525,-447,-3.08173,4.80371,0.0108855,0.00929112,0.0114938,0.0216097,-0.00143305,0.750774,0.0149071,0.0320549,699,1471,-3.08173,-4.80371
-518,-447,-3.25824,5.06177,0.00888015,0.00733308,0.00903834,0.017178,-0.000964765,0.74271,0.0117868,0.0236639,706,1471,-3.25825,-5.06174
-511,-447,-3.26477,5.36389,0.00708053,0.00551852,0.00687375,0.0132175,-0.000618453,0.72883,0.00902489,0.0158735,713,1471,-3.26476,-5.36389
-504,-447,-3.26563,5.65674,0.00552829,0.00383859,0.00489648,0.00965227,-0.000285396,0.699968,0.00653206,0.0221032,720,1471,-3.26565,-5.6567
-497,-447,-3.27765,5.91797,0.00415797,0.00211158,0.00292424,0.00623285,3.66908e-05,0.617105,0.00414306,0.0273731,727,1471,-3.27764,-5.91798
-490,-447,-3.26447,6.14795,0.00306085,0.0002748,0.0008267,0.00328768,4.79628e-05,0.267797,0.00217598,0.0245718,734,1471,-3.26444,-6.14792
-483,-447,-3.30573,6.40454,0.00219291,-0.00149648,-0.00114666,0.00252025,-0.00182382,-0.278075,0.00251877,0.0200968,741,1471,-3.30572,-6.40451
-476,-447,-3.3064,6.69153,0.00117433,-0.00358584,-0.00352653,0.0030488,-0.0054603,-0.488555,0.00497806,0.0135051,748,1471,-3.30639,-6.6915
-469,-447,-3.28253,6.96436,0.000140725,-0.00545216,-0.00626039,0.00420085,-0.00951229,-0.57535,0.00811283,0.0128392,755,1471,-3.28254,-6.9644
-462,-447,-3.29272,7.21265,1.76702e-05,-0.00761898,-0.00898768,0.00596449,-0.0135658,-0.584531,0.011557,0.0120087,762,1471,-3.29275,-7.21261
-455,-447,-3.32074,7.4679,-0.000324217,-0.01,-0.0123655,0.00811607,-0.0184403,-0.598931,0.0157138,0.0130988,769,1471,-3.32071,-7.46791
-448,-447,-3.25922,7.76428,-0.000680583,-0.0126036,-0.0164537,0.0108583,-0.0241424,-0.611595,0.0206871,0.0195824,776,1471,-3.25922,-7.76422
-441,-447,-3.28406,7.94861,-0.00109098,-0.0155218,-0.0213632,0.0142424,-0.0308552,-0.622539,0.0266195,0.0283195,783,1471,-3.28404,-7.94857
-434,-447,-3.22644,8.16541,0,0,0,0,0,0,0,-1,790,1471,-3.22646,-8.16542
-427,-447,-4.01318,7.94434,0,0,0,0,0,0,0,-1,797,1471,-4.01321,-7.9443
-420,-447,-4.10352,8.23914,0,0,0,0,0,0,0,-1,804,1471,-4.10352,-8.23916
-413,-447,-4.52795,7.78223,0,0,0,0,0,0,0,-1,811,1471,-4.52796,-7.78222
-406,-447,-1.04279,6.18591,0,0,0,0,0,0,0,-1,818,1471,-1.04276,-6.18586
-399,-447,0.0134888,0.687622,0,0,0,0,0,0,0,-1,825,1471,0.0134841,-0.68767
-392,-447,-14.0646,3.76147,0,0,0,0,0,0,0,-1,832,1471,-14.0646,-3.7615
-385,-447,-15.1695,2.61865,0,0,0,0,0,0,0,-1,839,1471,-15.1695,-2.61871
-378,-447,-15.9424,1.49316,0,0,0,0,0,0,0,-1,846,1471,-15.9424,-1.49313
-371,-447,-17.3655,0.73291,0,0,0,0,0,0,0,-1,853,1471,-17.3655,-0.732946
-364,-447,0,0,0,0,0,0,0,0,0,-1,860,1471,0,0
-357,-447,0,0,0,0,0,0,0,0,0,-1,867,1471,0,0
-350,-447,0,0,0,0,0,0,0,0,0,-1,874,1471,0,0
-343,-447,0,0,0,0,0,0,0,0,0,-1,881,1471,0,0
-336,-447,0,0,0,0,0,0,0,0,0,-1,888,1471,0,0
-329,-447,0,0,0,0,0,0,0,0,0,-1,895,1471,0,0
-322,-447,0,0,0,0,0,0,0,0,0,-1,902,1471,0,0
-315,-447,0,0,0,0,0,0,0,0,0,-1,909,1471,0,0
-308,-447,0,0,0,0,0,0,0,0,0,-1,916,1471,0,0
-301,-447,0,0,0,0,0,0,0,0,0,-1,923,1471,0,0
-294,-447,0,0,0,0,0,0,0,0,0,-1,930,1471,0,0
-287,-447,0,0,0,0,0,0,0,0,0,-1,937,1471,0,0
-280,-447,0,0,0,0,0,0,0,0,0,-1,944,1471,0,0
-273,-447,0,0,0,0,0,0,0,0,0,-1,951,1471,0,0
-266,-447,0,0,0,0,0,0,0,0,0,-1,958,1471,0,0
-259,-447,0,0,0,0,0,0,0,0,0,-1,965,1471,0,0
-252,-447,0,0,0,0,0,0,0,0,0,-1,972,1471,0,0
-245,-447,0,0,0,0,0,0,0,0,0,-1,979,1471,0,0
-238,-447,0,0,0,0,0,0,0,0,0,-1,986,1471,0,0
-231,-447,0,0,0,0,0,0,0,0,0,-1,993,1471,0,0
-224,-447,0,0,0,0,0,0,0,0,0,-1,1000,1471,0,0
-217,-447,0,0,0,0,0,0,0,0,0,-1,1007,1471,0,0
-210,-447,0,0,0,0,0,0,0,0,0,-1,1014,1471,0,0
-203,-447,0,0,0,0,0,0,0,0,0,-1,1021,1471,0,0
-196,-447,0,0,0,0,0,0,0,0,0,-1,1028,1471,0,0
-189,-447,0,0,0,0,0,0,0,0,0,-1,1035,1471,0,0
-182,-447,0,0,0,0,0,0,0,0,0,-1,1042,1471,0,0
-175,-447,0,0,0,0,0,0,0,0,0,-1,1049,1471,0,0
-168,-447,0,0,0,0,0,0,0,0,0,-1,1056,1471,0,0
-161,-447,0,0,0,0,0,0,0,0,0,-1,1063,1471,0,0
-154,-447,0,0,0,0,0,0,0,0,0,-1,1070,1471,0,0
-147,-447,0,0,0,0,0,0,0,0,0,-1,1077,1471,0,0
-140,-447,0,0,0,0,0,0,0,0,0,-1,1084,1471,0,0
-133,-447,0,0,0,0,0,0,0,0,0,-1,1091,1471,0,0
-126,-447,0,0,0,0,0,0,0,0,0,-1,1098,1471,0,0
-119,-447,0,0,0,0,0,0,0,0,0,-1,1105,1471,0,0
-112,-447,0,0,0,0,0,0,0,0,0,-1,1112,1471,0,0
-105,-447,0,0,0,0,0,0,0,0,0,-1,1119,1471,0,0
-98,-447,0,0,0,0,0,0,0,0,0,-1,1126,1471,0,0
-91,-447,0,0,0,0,0,0,0,0,0,-1,1133,1471,0,0
-84,-447,0,0,0,0,0,0,0,0,0,-1,1140,1471,0,0
-77,-447,0,0,0,0,0,0,0,0,0,-1,1147,1471,0,0
-70,-447,0,0,0,0,0,0,0,0,0,-1,1154,1471,0,0
-63,-447,0,0,0,0,0,0,0,0,0,-1,1161,1471,0,0
-56,-447,0,0,0,0,0,0,0,0,0,-1,1168,1471,0,0
-49,-447,0,0,0,0,0,0,0,0,0,-1,1175,1471,0,0
-42,-447,0,0,0,0,0,0,0,0,0,-1,1182,1471,0,0
-35,-447,0,0,0,0,0,0,0,0,0,-1,1189,1471,0,0
-28,-447,0,0,0,0,0,0,0,0,0,-1,1196,1471,0,0
-21,-447,0,0,0,0,0,0,0,0,0,-1,1203,1471,0,0
-14,-447,0,0,0,0,0,0,0,0,0,-1,1210,1471,0,0
-7,-447,0,0,0,0,0,0,0,0,0,-1,1217,1471,0,0
0,-447,0,0,0,0,0,0,0,0,0,-1,1224,1471,0,0
7,-447,0,0,0,0,0,0,0,0,0,-1,1231,1471,0,0
14,-447,0,0,0,0,0,0,0,0,0,-1,1238,1471,0,0
21,-447,0,0,0,0,0,0,0,0,0,-1,1245,1471,0,0
28,-447,0,0,0,0,0,0,0,0,0,-1,1252,1471,0,0
35,-447,0,0,0,0,0,0,0,0,0,-1,1259,1471,0,0
42,-447,0,0,0,0,0,0,0,0,0,-1,1266,1471,0,0
49,-447,0,0,0,0,0,0,0,0,0,-1,1273,1471,0,0
56,-447,0,0,0,0,0,0,0,0,0,-1,1280,1471,0,0
63,-447,0,0,0,0,0,0,0,0,0,-1,1287,1471,0,0
70,-447,0,0,0,0,0,0,0,0,0,-1,1294,1471,0,0
77,-447,0,0,0,0,0,0,0,0,0,-1,1301,1471,0,0
84,-447,0,0,0,0,0,0,0,0,0,-1,1308,1471,0,0
91,-447,0,0,0,0,0,0,0,0,0,-1,1315,1471,0,0
98,-447,0,0,0,0,0,0,0,0,0,-1,1322,1471,0,0
105,-447,0,0,0,0,0,0,0,0,0,-1,1329,1471,0,0
112,-447,0,0,0,0,0,0,0,0,0,-1,1336,1471,0,0
119,-447,0,0,0,0,0,0,0,0,0,-1,1343,1471,0,0
126,-447,0,0,0,0,0,0,0,0,0,-1,1350,1471,0,0
133,-447,0,0,0,0,0,0,0,0,0,-1,1357,1471,0,0
140,-447,0,0,0,0,0,0,0,0,0,-1,1364,1471,0,0
147,-447,0,0,0,0,0,0,0,0,0,-1,1371,1471,0,0
154,-447,0,0,0,0,0,0,0,0,0,-1,1378,1471,0,0
161,-447,0,0,0,0,0,0,0,0,0,-1,1385,1471,0,0
168,-447,0,0,0,0,0,0,0,0,0,-1,1392,1471,0,0
175,-447,0,0,0,0,0,0,0,0,0,-1,1399,1471,0,0
182,-447,0,0,0,0,0,0,0,0,0,-1,1406,1471,0,0
189,-447,0,0,0,0,0,0,0,0,0,-1,1413,1471,0,0
196,-447,0,0,0,0,0,0,0,0,0,-1,1420,1471,0,0
203,-447,0,0,0,0,0,0,0,0,0,-1,1427,1471,0,0
210,-447,0,0,0,0,0,0,0,0,0,-1,1434,1471,0,0
217,-447,0,0,0,0,0,0,0,0,0,-1,1441,1471,0,0
224,-447,0,0,0,0,0,0,0,0,0,-1,1448,1471,0,0
231,-447,0,0,0,0,0,0,0,0,0,-1,1455,1471,0,0
238,-447,0,0,0,0,0,0,0,0,0,-1,1462,1471,0,0
245,-447,0,0,0,0,0,0,0,0,0,-1,1469,1471,0,0
252,-447,0,0,0,0,0,0,0,0,0,-1,1476,1471,0,0
259,-447,0,0,0,0,0,0,0,0,0,-1,1483,1471,0,0
266,-447,0,0,0,0,0,0,0,0,0,-1,1490,1471,0,0
273,-447,0,0,0,0,0,0,0,0,0,-1,1497,1471,0,0
280,-447,0,0,0,0,0,0,0,0,0,-1,1504,1471,0,0
287,-447,0,0,0,0,0,0,0,0,0,-1,1511,1471,0,0
294,-447,0,0,0,0,0,0,0,0,0,-1,1518,1471,0,0
301,-447,0,0,0,0,0,0,0,0,0,-1,1525,1471,0,0
308,-447,0,0,0,0,0,0,0,0,0,-1,1532,1471,0,0
315,-447,0,0,0,0,0,0,0,0,0,-1,1539,1471,0,0
322,-447,0,0,0,0,0,0,0,0,0,-1,1546,1471,0,0
329,-447,0,0,0,0,0,0,0,0,0,-1,1553,1471,0,0
336,-447,0,0,0,0,0,0,0,0,0,-1,1560,1471,0,0
343,-447,0,0,0,0,0,0,0,0,0,-1,1567,1471,0,0
350,-447,0,0,0,0,0,0,0,0,0,-1,1574,1471,0,0
357,-447,0,0,0,0,0,0,0,0,0,-1,1581,1471,0,0
364,-447,0,0,0,0,0,0,0,0,0,-1,1588,1471,0,0
371,-447,0,0,0,0,0,0,0,0,0,-1,1595,1471,0,0
378,-447,0,0,0,0,0,0,0,0,0,-1,1602,1471,0,0
385,-447,0,0,0,0,0,0,0,0,0,-1,1609,1471,0,0
392,-447,0,0,0,0,0,0,0,0,0,-1,1616,1471,0,0
399,-447,0,0,0,0,0,0,0,0,0,-1,1623,1471,0,0
406,-447,0,0,0,0,0,0,0,0,0,-1,1630,1471,0,0
413,-447,0,0,0,0,0,0,0,0,0,-1,1637,1471,0,0
420,-447,0,0,0,0,0,0,0,0,0,-1,1644,1471,0,0
427,-447,0,0,0,0,0,0,0,0,0,-1,1651,1471,0,0
434,-447,0,0,0,0,0,0,0,0,0,-1,1658,1471,0,0
441,-447,0,0,0,0,0,0,0,0,0,-1,1665,1471,0,0
448,-447,0,0,0,0,0,0,0,0,0,-1,1672,1471,0,0
455,-447,0,0,0,0,0,0,0,0,0,-1,1679,1471,0,0
462,-447,0,0,0,0,0,0,0,0,0,-1,1686,1471,0,0
469,-447,0,0,0,0,0,0,0,0,0,-1,1693,1471,0,0
476,-447,0,0,0,0,0,0,0,0,0,-1,1700,1471,0,0
483,-447,0,0,0,0,0,0,0,0,0,-1,1707,1471,0,0
490,-447,18.2214,-0.810303,0,0,0,0,0,0,0,-1,1714,1471,18.2215,0.810307
497,-447,17.0237,0.352417,0,0,0,0,0,0,0,-1,1721,1471,17.0237,-0.352442
504,-447,15.8998,1.53479,0,0,0,0,0,0,0,-1,1728,1471,15.8997,-1.53478
511,-447,14.7201,2.76111,0,0,0,0,0,0,0,-1,1735,1471,14.7201,-2.76107
518,-447,17.7618,13.2864,0,0,0,0,0,0,0,-1,1742,1471,17.7619,-13.2863
525,-447,17.1191,11.9014,0,0,0,0,0,0,0,-1,1749,1471,17.1191,-11.9013
532,-447,16.3959,10.0455,0,0,0,0,0,0,0,-1,1756,1471,16.3959,-10.0456
539,-447,14.1699,10.0204,0,0,0,0,0,0,0,-1,1763,1471,14.1699,-10.0204
546,-447,13.9977,9.70715,-0.0418874,-0.0237214,0.0112249,-0.0183648,-0.0472439,1.12556,0.0275005,0.0479781,1770,1471,13.9976,-9.70712
553,-447,13.5425,9.57251,-0.0359844,-0.0213425,0.00999981,-0.0162702,-0.0410567,1.10137,0.0238735,0.0428508,1777,1471,13.5425,-9.57255
560,-447,13.1262,9.42017,-0.030079,-0.0185169,0.008912,-0.0136751,-0.0349208,1.07312,0.0203188,0.0441079,1784,1471,13.1262,-9.42013
567,-447,12.7679,9.27002,-0.0244124,-0.0156019,0.00792354,-0.0109414,-0.029073,1.03911,0.0169555,0.0426271,1791,1471,12.7679,-9.26999
574,-447,12.502,9.37231,-0.0193011,-0.0127744,0.00694014,-0.00836869,-0.0237069,1.00517,0.0138829,0.0319765,1798,1471,12.5019,-9.37231
581,-447,12.5369,9.2804,0,0,0,0,0,0,0,-1,1805,1471,12.5369,-9.28046
588,-447,12.3964,9.07019,-0.0111679,-0.0079693,0.00477172,-0.00453601,-0.0146012,0.947098,0.00862914,0.0134,1812,1471,12.3964,-9.0702
595,-447,12.3918,8.82043,-0.00816041,-0.00589124,0.0038567,-0.0030057,-0.0110459,0.928456,0.00659449,0.0122496,1819,1471,12.3919,-8.82038
602,-447,12.389,8.56775,-0.0057078,-0.00410587,0.00301216,-0.00179,-0.00802367,0.915346,0.00486352,0.0115108,1826,1471,12.389,-8.56781
609,-447,12.3735,8.33496,-0.00342658,-0.00305189,0.00223336,-0.00099803,-0.00548044,0.827242,0.00337057,0.0129601,1833,1471,12.3735,-8.33492
616,-447,12.3898,8.11157,-0.00161861,-0.0019032,0.00147414,-0.00027991,-0.0032419,0.737283,0.00207427,0.0145576,1840,1471,12.3898,-8.11159
623,-447,12.4004,7.89917,-0.000194972,-0.000770315,0.000792728,0.000360667,-0.00132595,0.611343,0.00102555,0.015353,1847,1471,12.4003,-7.8992
630,-447,12.3696,7.64246,0.00120825,6.14073e-05,0.000368555,0.00131647,-4.68199e-05,0.285624,0.000893665,0.00891518,1854,1471,12.3696,-7.64242
637,-447,12.3942,7.41418,0.00261942,0.000954069,-5.4331e-05,0.00262119,0.000952299,-0.0325782,0.00153208,0.00970485,1861,1471,12.3942,-7.41413
644,-447,12.3967,7.18555,0.00428979,0.00202486,-0.000283772,0.0043248,0.00198985,-0.122762,0.00249957,0.0104457,1868,1471,12.3967,-7.18561
651,-447,12.4482,6.94482,0.00638773,0.00351384,-0.000401509,0.00644277,0.0034588,-0.136235,0.0037231,0.020916,1875,1471,12.4482,-6.94477
658,-447,12.3245,6.7688,0.00886162,0.00538081,-0.000146928,0.00886781,0.00537462,-0.0421111,0.0051581,0.0283522,1882,1471,12.3244,-6.76877
665,-447,12.452,6.35803,0.0120517,0.0081332,0.000239445,0.0120662,0.00811863,0.0608053,0.00710383,0.041064,1889,1471,12.452,-6.35808
672,-447,12.6493,6.09399,0.0164112,0.0119607,0.000968192,0.0166127,0.0117591,0.205194,0.00986368,0.048001,1896,1471,12.6493,-6.09404
679,-447,12.9838,6.05688,0,0,0,0,0,0,0,-1,1903,1471,12.9838,-6.0569
686,-447,9.81079,4.30859,0,0,0,0,0,0,0,-1,1910,1471,9.8108,-4.30864
693,-447,10.48,2.08643,0,0,0,0,0,0,0,-1,1917,1471,10.48,-2.08642
700,-447,0,0,0,0,0,0,0,0,0,-1,1924,1471,0,0
707,-447,0,0,0,0,0,0,0,0,0,-1,1931,1471,0,0
714,-447,0,0,0,0,0,0,0,0,0,-1,1938,1471,0,0
721,-447,0,0,0,0,0,0,0,0,0,-1,1945,1471,0,0
728,-447,0,0,0,0,0,0,0,0,0,-1,1952,1471,0,0
735,-447,0,0,0,0,0,0,0,0,0,-1,1959,1471,0,0
742,-447,0,0,0,0,0,0,0,0,0,-1,1966,1471,0,0
749,-447,0,0,0,0,0,0,0,0,0,-1,1973,1471,0,0
756,-447,0,0,0,0,0,0,0,0,0,-1,1980,1471,0,0
763,-447,0,0,0,0,0,0,0,0,0,-1,1987,1471,0,0
770,-447,0,0,0,0,0,0,0,0,0,-1,1994,1471,0,0
777,-447,0,0,0,0,0,0,0,0,0,-1,2001,1471,0,0
784,-447,0,0,0,0,0,0,0,0,0,-1,2008,1471,0,0
791,-447,0,0,0,0,0,0,0,0,0,-1,2015,1471,0,0
798,-447,0,0,0,0,0,0,0,0,0,-1,2022,1471,0,0
805,-447,0,0,0,0,0,0,0,0,0,-1,2029,1471,0,0
812,-447,0,0,0,0,0,0,0,0,0,-1,2036,1471,0,0
-700,-454,0,0,0,0,0,0,0,0,0,-1,524,1478,0,0
-693,-454,0,0,0,0,0,0,0,0,0,-1,531,1478,0,0
-686,-454,0,0,0,0,0,0,0,0,0,-1,538,1478,0,0
-679,-454,0,0,0,0,0,0,0,0,0,-1,545,1478,0,0
-672,-454,0,0,0,0,0,0,0,0,0,-1,552,1478,0,0
-665,-454,0,0,0,0,0,0,0,0,0,-1,559,1478,0,0
-658,-454,0,0,0,0,0,0,0,0,0,-1,566,1478,0,0
-651,-454,0,0,0,0,0,0,0,0,0,-1,573,1478,0,0
-644,-454,0,0,0,0,0,0,0,0,0,-1,580,1478,0,0
-637,-454,0,0,0,0,0,0,0,0,0,-1,587,1478,0,0
-630,-454,0,0,0,0,0,0,0,0,0,-1,594,1478,0,0
-623,-454,0,0,0,0,0,0,0,0,0,-1,601,1478,0,0
-616,-454,0,0,0,0,0,0,0,0,0,-1,608,1478,0,0
-609,-454,0,0,0,0,0,0,0,0,0,-1,615,1478,0,0
-602,-454,0,0,0,0,0,0,0,0,0,-1,622,1478,0,0
-595,-454,0,0,0,0,0,0,0,0,0,-1,629,1478,0,0
-588,-454,0,0,0,0,0,0,0,0,0,-1,636,1478,0,0
-581,-454,0,0,0,0,0,0,0,0,0,-1,643,1478,0,0
-574,-454,-8.4881,-0.465942,0,0,0,0,0,0,0,-1,650,1478,-8.4881,0.465885
-567,-454,-8.10046,0.922974,0,0,0,0,0,0,0,-1,657,1478,-8.10047,-0.923034
-560,-454,-10.656,3.51172,0,0,0,0,0,0,0,-1,664,1478,-10.656,-3.51176
-553,-454,-9.01129,3.95251,0,0,0,0,0,0,0,-1,671,1478,-9.0113,-3.95256
-546,-454,-7.63965,4.38733,0,0,0,0,0,0,0,-1,678,1478,-7.63964,-4.3873
-539,-454,-4.49084,3.00781,0,0,0,0,0,0,0,-1,685,1478,-4.49082,-3.00783
-532,-454,-3.83185,3.70496,0.0173977,0.0135237,0.0175301,0.0330975,-0.00217612,0.730375,0.022825,0.0470605,692,1478,-3.83184,-3.70494
-525,-454,-3.17944,4.56665,0.0143582,0.0109039,0.0140196,0.0267567,-0.00149456,0.72411,0.0183563,0.0425025,699,1478,-3.17945,-4.56661
-518,-454,-2.91809,5.17139,0.0114127,0.00851547,0.0108674,0.0209276,-0.000999487,0.71914,0.0142966,0.0295973,706,1478,-2.9181,-5.17142
-511,-454,-3.03101,5.34753,0.00883833,0.006381,0.00813381,0.0158358,-0.000616423,0.710437,0.0107685,0.0186114,713,1478,-3.03099,-5.34759
-504,-454,-3.02094,5.62939,0.00668842,0.00450549,0.00582944,0.0115277,-0.00033378,0.692853,0.00779877,0.0175218,720,1478,-3.02094,-5.62942
-497,-454,-3.00781,5.92664,0.00490168,0.00272087,0.00374949,0.0077161,-9.35509e-05,0.643894,0.00517553,0.0220967,727,1478,-3.00779,-5.92661
-490,-454,-3.00232,6.20923,0.00353257,0.000955658,0.00172425,0.00439659,9.16368e-05,0.464527,0.002901,0.0184605,734,1478,-3.00232,-6.20919
-483,-454,-3.02551,6.45667,0.00250858,-0.00068405,-0.000119723,0.00251306,-0.000688533,-0.0374298,0.00194592,0.014974,741,1478,-3.0255,-6.45667
-476,-454,-3.04675,6.69495,0.00143336,-0.00256224,-0.00225693,0.00244969,-0.00357856,-0.423113,0.00350069,0.0135784,748,1478,-3.04676,-6.6949
-469,-454,-3.03937,6.9574,0.000426346,-0.00416249,-0.00461557,0.00328632,-0.00702247,-0.554734,0.00608068,0.0102103,755,1478,-3.03935,-6.95735
-462,-454,-3.05743,7.2085,0.000482983,-0.00594661,-0.0067498,0.00474447,-0.0102081,-0.563152,0.00882288,0.00966351,762,1478,-3.05744,-7.20852
-455,-454,-3.06464,7.4635,0.000462255,-0.00784556,-0.00931153,0.0065044,-0.0138877,-0.575594,0.0120279,0.0105828,769,1478,-3.06466,-7.46352
-448,-454,-3.04327,7.73157,0.00056489,-0.00987822,-0.0123293,0.00873273,-0.0180461,-0.585095,0.0157693,0.0126862,776,1478,-3.04327,-7.73152
-441,-454,-2.9198,8.00793,0.000758776,-0.0121153,-0.0158921,0.011468,-0.0228245,-0.592974,0.0201574,0.0220564,783,1478,-2.91982,-8.00794
-434,-454,-2.7572,8.16699,0.000925017,-0.0149373,-0.0203155,0.0148027,-0.0288149,-0.599297,0.0256121,0.0307739,790,1478,-2.7572,-8.16698
-427,-454,-3.05548,8.1665,0.00125324,-0.0180167,-0.0254498,0.0188308,-0.0355943,-0.604442,0.0319153,0.0441368,797,1478,-3.05551,-8.16651
-420,-454,-3.47931,8.21167,0.00195868,-0.0211524,-0.031421,0.0238817,-0.0430754,-0.609192,0.0391835,0.0489387,804,1478,-3.47933,-8.21167
-413,-454,-4.04871,8.09192,0,0,0,0,0,0,0,-1,811,1478,-4.04871,-8.09198
-406,-454,-4.62982,7.7301,0,0,0,0,0,0,0,-1,818,1478,-4.6298,-7.73008
-399,-454,-1.21033,6.95447,0,0,0,0,0,0,0,-1,825,1478,-1.21035,-6.95452
-392,-454,0.0967407,0.985474,0,0,0,0,0,0,0,-1,832,1478,0.0967364,-0.985529
-385,-454,2.38629,3.297,0,0,0,0,0,0,0,-1,839,1478,2.38629,-3.29702
-378,-454,-15.9756,2.83997,0,0,0,0,0,0,0,-1,846,1478,-15.9756,-2.83994
-371,-454,-17.2753,2.01453,0,0,0,0,0,0,0,-1,853,1478,-17.2753,-2.01455
-364,-454,1.08124,0.819458,0,0,0,0,0,0,0,-1,860,1478,1.08124,-0.819513
-357,-454,0,0,0,0,0,0,0,0,0,-1,867,1478,0,0
-350,-454,0,0,0,0,0,0,0,0,0,-1,874,1478,0,0
-343,-454,0,0,0,0,0,0,0,0,0,-1,881,1478,0,0
-336,-454,0,0,0,0,0,0,0,0,0,-1,888,1478,0,0
-329,-454,0,0,0,0,0,0,0,0,0,-1,895,1478,0,0
-322,-454,0,0,0,0,0,0,0,0,0,-1,902,1478,0,0
-315,-454,0,0,0,0,0,0,0,0,0,-1,909,1478,0,0
-308,-454,0,0,0,0,0,0,0,0,0,-1,916,1478,0,0
-301,-454,0,0,0,0,0,0,0,0,0,-1,923,1478,0,0
-294,-454,0,0,0,0,0,0,0,0,0,-1,930,1478,0,0
-287,-454,0,0,0,0,0,0,0,0,0,-1,937,1478,0,0
-280,-454,0,0,0,0,0,0,0,0,0,-1,944,1478,0,0
-273,-454,0,0,0,0,0,0,0,0,0,-1,951,1478,0,0
-266,-454,0,0,0,0,0,0,0,0,0,-1,958,1478,0,0
-259,-454,0,0,0,0,0,0,0,0,0,-1,965,1478,0,0
-252,-454,0,0,0,0,0,0,0,0,0,-1,972,1478,0,0
-245,-454,0,0,0,0,0,0,0,0,0,-1,979,1478,0,0
-238,-454,0,0,0,0,0,0,0,0,0,-1,986,1478,0,0
-231,-454,0,0,0,0,0,0,0,0,0,-1,993,1478,0,0
-224,-454,0,0,0,0,0,0,0,0,0,-1,1000,1478,0,0
-217,-454,0,0,0,0,0,0,0,0,0,-1,1007,1478,0,0
-210,-454,0,0,0,0,0,0,0,0,0,-1,1014,1478,0,0
-203,-454,0,0,0,0,0,0,0,0,0,-1,1021,1478,0,0
-196,-454,0,0,0,0,0,0,0,0,0,-1,1028,1478,0,0
-189,-454,0,0,0,0,0,0,0,0,0,-1,1035,1478,0,0
-182,-454,0,0,0,0,0,0,0,0,0,-1,1042,1478,0,0
-175,-454,0,0,0,0,0,0,0,0,0,-1,1049,1478,0,0
-168,-454,0,0,0,0,0,0,0,0,0,-1,1056,1478,0,0
-161,-454,0,0,0,0,0,0,0,0,0,-1,1063,1478,0,0
-154,-454,0,0,0,0,0,0,0,0,0,-1,1070,1478,0,0
-147,-454,0,0,0,0,0,0,0,0,0,-1,1077,1478,0,0
-140,-454,0,0,0,0,0,0,0,0,0,-1,1084,1478,0,0
-133,-454,0,0,0,0,0,0,0,0,0,-1,1091,1478,0,0
-126,-454,0,0,0,0,0,0,0,0,0,-1,1098,1478,0,0
-119,-454,0,0,0,0,0,0,0,0,0,-1,1105,1478,0,0
-112,-454,0,0,0,0,0,0,0,0,0,-1,1112,1478,0,0
-105,-454,0,0,0,0,0,0,0,0,0,-1,1119,1478,0,0
-98,-454,0,0,0,0,0,0,0,0,0,-1,1126,1478,0,0
-91,-454,0,0,0,0,0,0,0,0,0,-1,1133,1478,0,0
-84,-454,0,0,0,0,0,0,0,0,0,-1,1140,1478,0,0
-77,-454,0,0,0,0,0,0,0,0,0,-1,1147,1478,0,0
-70,-454,0,0,0,0,0,0,0,0,0,-1,1154,1478,0,0
-63,-454,0,0,0,0,0,0,0,0,0,-1,1161,1478,0,0
-56,-454,0,0,0,0,0,0,0,0,0,-1,1168,1478,0,0
-49,-454,0,0,0,0,0,0,0,0,0,-1,1175,1478,0,0
-42,-454,0,0,0,0,0,0,0,0,0,-1,1182,1478,0,0
-35,-454,0,0,0,0,0,0,0,0,0,-1,1189,1478,0,0
-28,-454,0,0,0,0,0,0,0,0,0,-1,1196,1478,0,0
-21,-454,0,0,0,0,0,0,0,0,0,-1,1203,1478,0,0
-14,-454,0,0,0,0,0,0,0,0,0,-1,1210,1478,0,0
-7,-454,0,0,0,0,0,0,0,0,0,-1,1217,1478,0,0
0,-454,0,0,0,0,0,0,0,0,0,-1,1224,1478,0,0
7,-454,0,0,0,0,0,0,0,0,0,-1,1231,1478,0,0
14,-454,0,0,0,0,0,0,0,0,0,-1,1238,1478,0,0
21,-454,0,0,0,0,0,0,0,0,0,-1,1245,1478,0,0
28,-454,0,0,0,0,0,0,0,0,0,-1,1252,1478,0,0
35,-454,0,0,0,0,0,0,0,0,0,-1,1259,1478,0,0
42,-454,0,0,0,0,0,0,0,0,0,-1,1266,1478,0,0
49,-454,0,0,0,0,0,0,0,0,0,-1,1273,1478,0,0
56,-454,0,0,0,0,0,0,0,0,0,-1,1280,1478,0,0
63,-454,0,0,0,0,0,0,0,0,0,-1,1287,1478,0,0
70,-454,0,0,0,0,0,0,0,0,0,-1,1294,1478,0,0
77,-454,0,0,0,0,0,0,0,0,0,-1,1301,1478,0,0
84,-454,0,0,0,0,0,0,0,0,0,-1,1308,1478,0,0
91,-454,0,0,0,0,0,0,0,0,0,-1,1315,1478,0,0
98,-454,0,0,0,0,0,0,0,0,0,-1,1322,1478,0,0
105,-454,0,0,0,0,0,0,0,0,0,-1,1329,1478,0,0
112,-454,0,0,0,0,0,0,0,0,0,-1,1336,1478,0,0
119,-454,0,0,0,0,0,0,0,0,0,-1,1343,1478,0,0
126,-454,0,0,0,0,0,0,0,0,0,-1,1350,1478,0,0
133,-454,0,0,0,0,0,0,0,0,0,-1,1357,1478,0,0
140,-454,0,0,0,0,0,0,0,0,0,-1,1364,1478,0,0
147,-454,0,0,0,0,0,0,0,0,0,-1,1371,1478,0,0
154,-454,0,0,0,0,0,0,0,0,0,-1,1378,1478,0,0
161,-454,0,0,0,0,0,0,0,0,0,-1,1385,1478,0,0
168,-454,0,0,0,0,0,0,0,0,0,-1,1392,1478,0,0
175,-454,0,0,0,0,0,0,0,0,0,-1,1399,1478,0,0
182,-454,0,0,0,0,0,0,0,0,0,-1,1406,1478,0,0
189,-454,0,0,0,0,0,0,0,0,0,-1,1413,1478,0,0
196,-454,0,0,0,0,0,0,0,0,0,-1,1420,1478,0,0
203,-454,0,0,0,0,0,0,0,0,0,-1,1427,1478,0,0
210,-454,0,0,0,0,0,0,0,0,0,-1,1434,1478,0,0
217,-454,0,0,0,0,0,0,0,0,0,-1,1441,1478,0,0
224,-454,0,0,0,0,0,0,0,0,0,-1,1448,1478,0,0
231,-454,0,0,0,0,0,0,0,0,0,-1,1455,1478,0,0
238,-454,0,0,0,0,0,0,0,0,0,-1,1462,1478,0,0
245,-454,0,0,0,0,0,0,0,0,0,-1,1469,1478,0,0
252,-454,0,0,0,0,0,0,0,0,0,-1,1476,1478,0,0
259,-454,0,0,0,0,0,0,0,0,0,-1,1483,1478,0,0
266,-454,0,0,0,0,0,0,0,0,0,-1,1490,1478,0,0
273,-454,0,0,0,0,0,0,0,0,0,-1,1497,1478,0,0
280,-454,0,0,0,0,0,0,0,0,0,-1,1504,1478,0,0
287,-454,0,0,0,0,0,0,0,0,0,-1,1511,1478,0,0
294,-454,0,0,0,0,0,0,0,0,0,-1,1518,1478,0,0
301,-454,0,0,0,0,0,0,0,0,0,-1,1525,1478,0,0
308,-454,0,0,0,0,0,0,0,0,0,-1,1532,1478,0,0
315,-454,0,0,0,0,0,0,0,0,0,-1,1539,1478,0,0
322,-454,0,0,0,0,0,0,0,0,0,-1,1546,1478,0,0
329,-454,0,0,0,0,0,0,0,0,0,-1,1553,1478,0,0
336,-454,0,0,0,0,0,0,0,0,0,-1,1560,1478,0,0
343,-454,0,0,0,0,0,0,0,0,0,-1,1567,1478,0,0
350,-454,0,0,0,0,0,0,0,0,0,-1,1574,1478,0,0
357,-454,0,0,0,0,0,0,0,0,0,-1,1581,1478,0,0
364,-454,0,0,0,0,0,0,0,0,0,-1,1588,1478,0,0
371,-454,0,0,0,0,0,0,0,0,0,-1,1595,1478,0,0
378,-454,0,0,0,0,0,0,0,0,0,-1,1602,1478,0,0
385,-454,0,0,0,0,0,0,0,0,0,-1,1609,1478,0,0
392,-454,0,0,0,0,0,0,0,0,0,-1,1616,1478,0,0
399,-454,0,0,0,0,0,0,0,0,0,-1,1623,1478,0,0
406,-454,0,0,0,0,0,0,0,0,0,-1,1630,1478,0,0
413,-454,0,0,0,0,0,0,0,0,0,-1,1637,1478,0,0
420,-454,0,0,0,0,0,0,0,0,0,-1,1644,1478,0,0
427,-454,0,0,0,0,0,0,0,0,0,-1,1651,1478,0,0
434,-454,0,0,0,0,0,0,0,0,0,-1,1658,1478,0,0
441,-454,0,0,0,0,0,0,0,0,0,-1,1665,1478,0,0
448,-454,0,0,0,0,0,0,0,0,0,-1,1672,1478,0,0
455,-454,0,0,0,0,0,0,0,0,0,-1,1679,1478,0,0
462,-454,0,0,0,0,0,0,0,0,0,-1,1686,1478,0,0
469,-454,0,0,0,0,0,0,0,0,0,-1,1693,1478,0,0
476,-454,0,0,0,0,0,0,0,0,0,-1,1700,1478,0,0
483,-454,14.2399,3.97498,0,0,0,0,0,0,0,-1,1707,1478,14.2399,-3.97502
490,-454,18.1821,-0.175781,0,0,0,0,0,0,0,-1,1714,1478,18.1821,0.175822
497,-454,16.8854,1.01208,0,0,0,0,0,0,0,-1,1721,1478,16.8854,-1.01209
504,-454,15.587,2.05994,0,0,0,0,0,0,0,-1,1728,1478,15.5871,-2.05998
511,-454,17.0273,14.5258,0,0,0,0,0,0,0,-1,1735,1478,17.0273,-14.5258
518,-454,16.4158,13.1039,0,0,0,0,0,0,0,-1,1742,1478,16.4157,-13.1038
525,-454,15.7842,11.6628,0,0,0,0,0,0,0,-1,1749,1478,15.7841,-11.6629
532,-454,15.1094,10.2476,0,0,0,0,0,0,0,-1,1756,1478,15.1094,-10.2475
539,-454,13.7905,10.9373,0,0,0,0,0,0,0,-1,1763,1478,13.7906,-10.9372
546,-454,13.7008,10.1603,0,0,0,0,0,0,0,-1,1770,1478,13.7008,-10.1602
553,-454,12.548,9.76306,0,0,0,0,0,0,0,-1,1777,1478,12.5479,-9.76309
560,-454,12.194,10.0313,0,0,0,0,0,0,0,-1,1784,1478,12.194,-10.0313
567,-454,12.2308,9.71472,-0.0193248,-0.0132725,0.00762976,-0.00809066,-0.0245066,0.974196,0.0144185,0.0297181,1791,1478,12.2308,-9.71468
574,-454,12.1781,9.46887,-0.0151937,-0.0106398,0.00632745,-0.00619208,-0.0196414,0.958113,0.0115951,0.0144933,1798,1478,12.1782,-9.46892
581,-454,12.172,9.25903,-0.0116399,-0.00826433,0.00514628,-0.00453613,-0.0153681,0.943851,0.00911756,0.0110437,1805,1478,12.172,-9.25902
588,-454,12.1779,9.03979,-0.00861562,-0.00655104,0.00395192,-0.00349882,-0.0116678,0.91315,0.00691397,0.0119136,1812,1478,12.1779,-9.03982
595,-454,12.1587,8.82544,-0.00613537,-0.00478174,0.00305455,-0.00232993,-0.00858719,0.894425,0.00512774,0.0116449,1819,1478,12.1588,-8.82548
602,-454,12.1625,8.59338,-0.00411571,-0.0033177,0.00226487,-0.00141695,-0.00601645,0.872589,0.00363198,0.00910872,1826,1478,12.1624,-8.59336
609,-454,12.1702,8.36548,-0.0021615,-0.00249736,0.00148987,-0.00083013,-0.00382873,0.729278,0.0023257,0.0105194,1833,1478,12.1702,-8.36551
616,-454,12.1782,8.12439,-0.000577079,-0.00158198,0.000746668,-0.000179546,-0.00197951,0.489238,0.00126408,0.0133782,1840,1478,12.1783,-8.12441
623,-454,12.1713,7.88879,0.000721048,-0.000708331,0.000116296,0.000730448,-0.000717731,0.0806543,0.000836118,0.0110344,1847,1478,12.1713,-7.88877
630,-454,12.1571,7.64087,0.00210075,4.09609e-05,-0.000287471,0.00214012,1.59303e-06,-0.136099,0.00142621,0.00979005,1854,1478,12.1571,-7.64092
637,-454,12.1683,7.4231,0.00355245,0.000857567,-0.000727586,0.00373635,0.000673676,-0.247557,0.00229947,0.00926824,1861,1478,12.1683,-7.42314
644,-454,12.2119,7.18262,0.00537712,0.0020027,-0.00106683,0.00568611,0.00169371,-0.281917,0.00337111,0.0159117,1868,1478,12.212,-7.18262
651,-454,12.0908,7.02869,0.00775872,0.00372612,-0.00136834,0.00817918,0.00330566,-0.298124,0.00475108,0.0287616,1875,1478,12.0908,-7.02863
658,-454,12.1267,6.70642,0.0107077,0.00603095,-0.00136602,0.0110775,0.00566118,-0.264349,0.00639612,0.0332548,1882,1478,12.1267,-6.70642
665,-454,12.4124,6.125,0.0146943,0.00964173,-0.00140257,0.0150575,0.00927849,-0.253409,0.00877139,0.0427735,1889,1478,12.4123,-6.12495
672,-454,12.5724,5.46826,0,0,0,0,0,0,0,-1,1896,1478,12.5724,-5.46831
679,-454,12.3354,3.91602,0,0,0,0,0,0,0,-1,1903,1478,12.3354,-3.91597
686,-454,10.3767,2.12842,0,0,0,0,0,0,0,-1,1910,1478,10.3767,-2.12839
693,-454,11.1857,1.48486,0,0,0,0,0,0,0,-1,1917,1478,11.1857,-1.48487
700,-454,0,0,0,0,0,0,0,0,0,-1,1924,1478,0,0
707,-454,0,0,0,0,0,0,0,0,0,-1,1931,1478,0,0
714,-454,0,0,0,0,0,0,0,0,0,-1,1938,1478,0,0
721,-454,0,0,0,0,0,0,0,0,0,-1,1945,1478,0,0
728,-454,0,0,0,0,0,0,0,0,0,-1,1952,1478,0,0
735,-454,0,0,0,0,0,0,0,0,0,-1,1959,1478,0,0
742,-454,0,0,0,0,0,0,0,0,0,-1,1966,1478,0,0
749,-454,0,0,0,0,0,0,0,0,0,-1,1973,1478,0,0
756,-454,0,0,0,0,0,0,0,0,0,-1,1980,1478,0,0
763,-454,0,0,0,0,0,0,0,0,0,-1,1987,1478,0,0
770,-454,0,0,0,0,0,0,0,0,0,-1,1994,1478,0,0
777,-454,0,0,0,0,0,0,0,0,0,-1,2001,1478,0,0
784,-454,0,0,0,0,0,0,0,0,0,-1,2008,1478,0,0
791,-454,0,0,0,0,0,0,0,0,0,-1,2015,1478,0,0
798,-454,0,0,0,0,0,0,0,0,0,-1,2022,1478,0,0
805,-454,0,0,0,0,0,0,0,0,0,-1,2029,1478,0,0
812,-454,0,0,0,0,0,0,0,0,0,-1,2036,1478,0,0
-700,-461,0,0,0,0,0,0,0,0,0,-1,524,1485,0,0
-693,-461,0,0,0,0,0,0,0,0,0,-1,531,1485,0,0
-686,-461,0,0,0,0,0,0,0,0,0,-1,538,1485,0,0
-679,-461,0,0,0,0,0,0,0,0,0,-1,545,1485,0,0
-672,-461,0,0,0,0,0,0,0,0,0,-1,552,1485,0,0
-665,-461,0,0,0,0,0,0,0,0,0,-1,559,1485,0,0
-658,-461,0,0,0,0,0,0,0,0,0,-1,566,1485,0,0
-651,-461,0,0,0,0,0,0,0,0,0,-1,573,1485,0,0
-644,-461,0,0,0,0,0,0,0,0,0,-1,580,1485,0,0
-637,-461,0,0,0,0,0,0,0,0,0,-1,587,1485,0,0
-630,-461,0,0,0,0,0,0,0,0,0,-1,594,1485,0,0
-623,-461,0,0,0,0,0,0,0,0,0,-1,601,1485,0,0
-616,-461,0,0,0,0,0,0,0,0,0,-1,608,1485,0,0
-609,-461,0,0,0,0,0,0,0,0,0,-1,615,1485,0,0
-602,-461,0,0,0,0,0,0,0,0,0,-1,622,1485,0,0
-595,-461,0,0,0,0,0,0,0,0,0,-1,629,1485,0,0
-588,-461,0,0,0,0,0,0,0,0,0,-1,636,1485,0,0
-581,-461,0,0,0,0,0,0,0,0,0,-1,643,1485,0,0
-574,-461,0,0,0,0,0,0,0,0,0,-1,650,1485,0,0
-567,-461,-9.69031,0.513306,0,0,0,0,0,0,0,-1,657,1485,-9.69032,-0.513305
-560,-461,-7.28815,1.54004,0,0,0,0,0,0,0,-1,664,1485,-7.28817,-1.54005
-553,-461,-10.1774,4.61963,0,0,0,0,0,0,0,-1,671,1485,-10.1774,-4.61957
-546,-461,-6.27081,2.92163,0,0,0,0,0,0,0,-1,678,1485,-6.27081,-2.92158
-539,-461,-4.80194,4.67981,0,0,0,0,0,0,0,-1,685,1485,-4.80194,-4.6798
-532,-461,-3.85132,3.38135,0,0,0,0,0,0,0,-1,692,1485,-3.85132,-3.38131
-525,-461,-3.53516,4.38916,0.0176619,0.0124038,0.0159814,0.0312291,-0.00116339,0.703875,0.0212178,0.0422134,699,1485,-3.53514,-4.3891
-518,-461,-2.7605,5.11694,0.0138261,0.00939578,0.0122225,0.0240325,-0.000810656,0.695753,0.0162986,0.0352186,706,1485,-2.76047,-5.11695
-511,-461,-2.7182,5.40735,0.0105095,0.00685696,0.00902125,0.0178875,-0.000521034,0.685528,0.0121024,0.0199315,713,1485,-2.71818,-5.40729
-504,-461,-2.76819,5.63403,0.00777238,0.00471872,0.00641242,0.0128372,-0.000346143,0.668522,0.00867584,0.0121587,720,1485,-2.76818,-5.63401
-497,-461,-2.74963,5.9375,0.00557533,0.00287931,0.00423194,0.00866876,-0.000214123,0.631212,0.00585186,0.0120839,727,1485,-2.74964,-5.93746
-490,-461,-2.75348,6.20227,0.00391803,0.00121604,0.00227361,0.00521174,-7.76704e-05,0.517323,0.00350067,0.0129117,734,1485,-2.75348,-6.20227
-483,-461,-2.76495,6.46863,0.00272281,-0.00026426,0.000549382,0.00282064,-0.000362097,0.17624,0.00201202,0.011785,741,1485,-2.76494,-6.46863
-476,-461,-2.7876,6.72437,0.00158945,-0.00189477,-0.00135057,0.00205165,-0.00235698,-0.329734,0.00254735,0.0106591,748,1485,-2.78758,-6.72438
-469,-461,-2.77747,6.96582,0.000594081,-0.00323368,-0.00336255,0.00254926,-0.00518887,-0.526675,0.00455343,0.0123576,755,1485,-2.77749,-6.9658
-462,-461,-2.7915,7.22156,0.000739327,-0.00465185,-0.00499865,0.00372288,-0.00763541,-0.538117,0.00668614,0.0169629,762,1485,-2.7915,-7.22157
-455,-461,-2.81665,7.50293,0.000919487,-0.00610616,-0.00688865,0.00513929,-0.010326,-0.549613,0.00909471,0.0206934,769,1485,-2.81665,-7.50291
-448,-461,-2.77936,7.76941,0.00131234,-0.00764234,-0.00905035,0.00693229,-0.0132623,-0.555693,0.0118487,0.0179721,776,1485,-2.77934,-7.76938
-441,-461,-2.75,8.01001,0.00189675,-0.00928951,-0.0115428,0.00913011,-0.0165229,-0.55979,0.0150144,0.0142596,783,1485,-2.74997,-8.00998
-434,-461,-2.58368,8.22449,0.00255141,-0.0116311,-0.0146792,0.0117625,-0.0208422,-0.560388,0.0190661,0.0179829,790,1485,-2.58366,-8.22451
-427,-461,-2.4884,8.34204,0.00347726,-0.0143744,-0.0183781,0.0149824,-0.0258795,-0.559336,0.0238697,0.026069,797,1485,-2.48842,-8.34207
-420,-461,-2.62048,8.21448,0.00481485,-0.0171818,-0.0227198,0.0190584,-0.0314253,-0.559981,0.0294369,0.0455087,804,1485,-2.6205,-8.21447
-413,-461,-2.87561,8.13159,0,0,0,0,0,0,0,-1,811,1485,-2.87559,-8.13156
-406,-461,-1.32684,9.43616,0,0,0,0,0,0,0,-1,818,1485,-1.32686,-9.43622
-399,-461,-0.48407,10.2256,0,0,0,0,0,0,0,-1,825,1485,-0.484088,-10.2256
-392,-461,-0.357544,5.55225,0,0,0,0,0,0,0,-1,832,1485,-0.357536,-5.55228
-385,-461,1.71509,3.35254,0,0,0,0,0,0,0,-1,839,1485,1.71511,-3.35255
-378,-461,1.95996,3.01111,0,0,0,0,0,0,0,-1,846,1485,1.95993,-3.01111
-371,-461,0.702881,2.33459,0,0,0,0,0,0,0,-1,853,1485,0.702859,-2.33459
-364,-461,-1.93097,2.56458,0,0,0,0,0,0,0,-1,860,1485,-1.93095,-2.56456
-357,-461,-2.41516,3.49487,0,0,0,0,0,0,0,-1,867,1485,-2.41517,-3.49487
-350,-461,0,0,0,0,0,0,0,0,0,-1,874,1485,0,0
-343,-461,0,0,0,0,0,0,0,0,0,-1,881,1485,0,0
-336,-461,0,0,0,0,0,0,0,0,0,-1,888,1485,0,0
-329,-461,0,0,0,0,0,0,0,0,0,-1,895,1485,0,0
-322,-461,0,0,0,0,0,0,0,0,0,-1,902,1485,0,0
-315,-461,0,0,0,0,0,0,0,0,0,-1,909,1485,0,0
-308,-461,0,0,0,0,0,0,0,0,0,-1,916,1485,0,0
-301,-461,0,0,0,0,0,0,0,0,0,-1,923,1485,0,0
-294,-461,0,0,0,0,0,0,0,0,0,-1,930,1485,0,0
-287,-461,0,0,0,0,0,0,0,0,0,-1,937,1485,0,0
-280,-461,0,0,0,0,0,0,0,0,0,-1,944,1485,0,0
-273,-461,0,0,0,0,0,0,0,0,0,-1,951,1485,0,0
-266,-461,0,0,0,0,0,0,0,0,0,-1,958,1485,0,0
-259,-461,0,0,0,0,0,0,0,0,0,-1,965,1485,0,0
-252,-461,0,0,0,0,0,0,0,0,0,-1,972,1485,0,0
-245,-461,0,0,0,0,0,0,0,0,0,-1,979,1485,0,0
-238,-461,0,0,0,0,0,0,0,0,0,-1,986,1485,0,0
-231,-461,0,0,0,0,0,0,0,0,0,-1,993,1485,0,0
-224,-461,0,0,0,0,0,0,0,0,0,-1,1000,1485,0,0
-217,-461,0,0,0,0,0,0,0,0,0,-1,1007,1485,0,0
-210,-461,0,0,0,0,0,0,0,0,0,-1,1014,1485,0,0
-203,-461,0,0,0,0,0,0,0,0,0,-1,1021,1485,0,0
-196,-461,0,0,0,0,0,0,0,0,0,-1,1028,1485,0,0
-189,-461,0,0,0,0,0,0,0,0,0,-1,1035,1485,0,0
-182,-461,0,0,0,0,0,0,0,0,0,-1,1042,1485,0,0
-175,-461,0,0,0,0,0,0,0,0,0,-1,1049,1485,0,0
-168,-461,0,0,0,0,0,0,0,0,0,-1,1056,1485,0,0
-161,-461,0,0,0,0,0,0,0,0,0,-1,1063,1485,0,0
-154,-461,0,0,0,0,0,0,0,0,0,-1,1070,1485,0,0
-147,-461,0,0,0,0,0,0,0,0,0,-1,1077,1485,0,0
-140,-461,0,0,0,0,0,0,0,0,0,-1,1084,1485,0,0
-133,-461,0,0,0,0,0,0,0,0,0,-1,1091,1485,0,0
-126,-461,0,0,0,0,0,0,0,0,0,-1,1098,1485,0,0
-119,-461,0,0,0,0,0,0,0,0,0,-1,1105,1485,0,0
-112,-461,0,0,0,0,0,0,0,0,0,-1,1112,1485,0,0
-105,-461,0,0,0,0,0,0,0,0,0,-1,1119,1485,0,0
-98,-461,0,0,0,0,0,0,0,0,0,-1,1126,1485,0,0
-91,-461,0,0,0,0,0,0,0,0,0,-1,1133,1485,0,0
-84,-461,0,0,0,0,0,0,0,0,0,-1,1140,1485,0,0
-77,-461,0,0,0,0,0,0,0,0,0,-1,1147,1485,0,0
-70,-461,0,0,0,0,0,0,0,0,0,-1,1154,1485,0,0
-63,-461,0,0,0,0,0,0,0,0,0,-1,1161,1485,0,0
-56,-461,0,0,0,0,0,0,0,0,0,-1,1168,1485,0,0
-49,-461,0,0,0,0,0,0,0,0,0,-1,1175,1485,0,0
-42,-461,0,0,0,0,0,0,0,0,0,-1,1182,1485,0,0
-35,-461,0,0,0,0,0,0,0,0,0,-1,1189,1485,0,0
-28,-461,0,0,0,0,0,0,0,0,0,-1,1196,1485,0,0
-21,-461,0,0,0,0,0,0,0,0,0,-1,1203,1485,0,0
-14,-461,0,0,0,0,0,0,0,0,0,-1,1210,1485,0,0
-7,-461,0,0,0,0,0,0,0,0,0,-1,1217,1485,0,0
0,-461,0,0,0,0,0,0,0,0,0,-1,1224,1485,0,0
7,-461,0,0,0,0,0,0,0,0,0,-1,1231,1485,0,0
14,-461,0,0,0,0,0,0,0,0,0,-1,1238,1485,0,0
21,-461,0,0,0,0,0,0,0,0,0,-1,1245,1485,0,0
28,-461,0,0,0,0,0,0,0,0,0,-1,1252,1485,0,0
35,-461,0,0,0,0,0,0,0,0,0,-1,1259,1485,0,0
42,-461,0,0,0,0,0,0,0,0,0,-1,1266,1485,0,0
49,-461,0,0,0,0,0,0,0,0,0,-1,1273,1485,0,0
56,-461,0,0,0,0,0,0,0,0,0,-1,1280,1485,0,0
63,-461,0,0,0,0,0,0,0,0,0,-1,1287,1485,0,0
70,-461,0,0,0,0,0,0,0,0,0,-1,1294,1485,0,0
77,-461,0,0,0,0,0,0,0,0,0,-1,1301,1485,0,0
84,-461,0,0,0,0,0,0,0,0,0,-1,1308,1485,0,0
91,-461,0,0,0,0,0,0,0,0,0,-1,1315,1485,0,0
98,-461,0,0,0,0,0,0,0,0,0,-1,1322,1485,0,0
105,-461,0,0,0,0,0,0,0,0,0,-1,1329,1485,0,0
112,-461,0,0,0,0,0,0,0,0,0,-1,1336,1485,0,0
119,-461,0,0,0,0,0,0,0,0,0,-1,1343,1485,0,0
126,-461,0,0,0,0,0,0,0,0,0,-1,1350,1485,0,0
133,-461,0,0,0,0,0,0,0,0,0,-1,1357,1485,0,0
140,-461,0,0,0,0,0,0,0,0,0,-1,1364,1485,0,0
147,-461,0,0,0,0,0,0,0,0,0,-1,1371,1485,0,0
154,-461,0,0,0,0,0,0,0,0,0,-1,1378,1485,0,0
161,-461,0,0,0,0,0,0,0,0,0,-1,1385,1485,0,0
168,-461,0,0,0,0,0,0,0,0,0,-1,1392,1485,0,0
175,-461,0,0,0,0,0,0,0,0,0,-1,1399,1485,0,0
182,-461,0,0,0,0,0,0,0,0,0,-1,1406,1485,0,0
189,-461,0,0,0,0,0,0,0,0,0,-1,1413,1485,0,0
196,-461,0,0,0,0,0,0,0,0,0,-1,1420,1485,0,0
203,-461,0,0,0,0,0,0,0,0,0,-1,1427,1485,0,0
210,-461,0,0,0,0,0,0,0,0,0,-1,1434,1485,0,0
217,-461,0,0,0,0,0,0,0,0,0,-1,1441,1485,0,0
224,-461,0,0,0,0,0,0,0,0,0,-1,1448,1485,0,0
231,-461,0,0,0,0,0,0,0,0,0,-1,1455,1485,0,0
238,-461,0,0,0,0,0,0,0,0,0,-1,1462,1485,0,0
245,-461,0,0,0,0,0,0,0,0,0,-1,1469,1485,0,0
252,-461,0,0,0,0,0,0,0,0,0,-1,1476,1485,0,0
259,-461,0,0,0,0,0,0,0,0,0,-1,1483,1485,0,0
266,-461,0,0,0,0,0,0,0,0,0,-1,1490,1485,0,0
273,-461,0,0,0,0,0,0,0,0,0,-1,1497,1485,0,0
280,-461,0,0,0,0,0,0,0,0,0,-1,1504,1485,0,0
287,-461,0,0,0,0,0,0,0,0,0,-1,1511,1485,0,0
294,-461,0,0,0,0,0,0,0,0,0,-1,1518,1485,0,0
301,-461,0,0,0,0,0,0,0,0,0,-1,1525,1485,0,0
308,-461,0,0,0,0,0,0,0,0,0,-1,1532,1485,0,0
315,-461,0,0,0,0,0,0,0,0,0,-1,1539,1485,0,0
322,-461,0,0,0,0,0,0,0,0,0,-1,1546,1485,0,0
329,-461,0,0,0,0,0,0,0,0,0,-1,1553,1485,0,0
336,-461,0,0,0,0,0,0,0,0,0,-1,1560,1485,0,0
343,-461,0,0,0,0,0,0,0,0,0,-1,1567,1485,0,0
350,-461,0,0,0,0,0,0,0,0,0,-1,1574,1485,0,0
357,-461,0,0,0,0,0,0,0,0,0,-1,1581,1485,0,0
364,-461,0,0,0,0,0,0,0,0,0,-1,1588,1485,0,0
371,-461,0,0,0,0,0,0,0,0,0,-1,1595,1485,0,0
378,-461,0,0,0,0,0,0,0,0,0,-1,1602,1485,0,0
385,-461,0,0,0,0,0,0,0,0,0,-1,1609,1485,0,0
392,-461,0,0,0,0,0,0,0,0,0,-1,1616,1485,0,0
399,-461,0,0,0,0,0,0,0,0,0,-1,1623,1485,0,0
406,-461,0,0,0,0,0,0,0,0,0,-1,1630,1485,0,0
413,-461,0,0,0,0,0,0,0,0,0,-1,1637,1485,0,0
420,-461,0,0,0,0,0,0,0,0,0,-1,1644,1485,0,0
427,-461,0,0,0,0,0,0,0,0,0,-1,1651,1485,0,0
434,-461,0,0,0,0,0,0,0,0,0,-1,1658,1485,0,0
441,-461,0,0,0,0,0,0,0,0,0,-1,1665,1485,0,0
448,-461,0,0,0,0,0,0,0,0,0,-1,1672,1485,0,0
455,-461,0,0,0,0,0,0,0,0,0,-1,1679,1485,0,0
462,-461,0,0,0,0,0,0,0,0,0,-1,1686,1485,0,0
469,-461,0,0,0,0,0,0,0,0,0,-1,1693,1485,0,0
476,-461,14.1906,0.690552,0,0,0,0,0,0,0,-1,1700,1485,14.1906,-0.690525
483,-461,10.6361,3.09106,0,0,0,0,0,0,0,-1,1707,1485,10.6361,-3.091
490,-461,17.9972,0.665894,0,0,0,0,0,0,0,-1,1714,1485,17.9972,-0.665876
497,-461,16.6829,1.87732,0,0,0,0,0,0,0,-1,1721,1485,16.6828,-1.87736
504,-461,15.3884,3.09216,0,0,0,0,0,0,0,-1,1728,1485,15.3885,-3.09212
511,-461,15.4292,14.3512,0,0,0,0,0,0,0,-1,1735,1485,15.4292,-14.3512
518,-461,14.8081,10.0085,0,0,0,0,0,0,0,-1,1742,1485,14.8081,-10.0086
525,-461,14.0022,10.8033,0,0,0,0,0,0,0,-1,1749,1485,14.0022,-10.8033
532,-461,13.4395,9.64661,0,0,0,0,0,0,0,-1,1756,1485,13.4394,-9.64658
539,-461,12.6163,8.87024,0,0,0,0,0,0,0,-1,1763,1485,12.6163,-8.87027
546,-461,12.7195,10.1841,0,0,0,0,0,0,0,-1,1770,1485,12.7194,-10.1841
553,-461,12.3689,9.95764,-0.0225484,-0.0167744,0.0114152,-0.00788675,-0.031436,0.909255,0.0188855,0.0412783,1777,1485,12.3688,-9.95767
560,-461,11.8438,9.84814,-0.0185764,-0.0137288,0.00891183,-0.00691703,-0.0253882,0.918176,0.0151554,0.0330727,1784,1485,11.8437,-9.84811
567,-461,11.9149,9.70361,-0.0148213,-0.0110492,0.00699857,-0.00568702,-0.0201835,0.917016,0.0120173,0.0147356,1791,1485,11.9149,-9.70367
574,-461,11.926,9.48853,-0.0113939,-0.00861188,0.0054914,-0.00433807,-0.0156678,0.909444,0.00934118,0.0134112,1798,1485,11.926,-9.48856
581,-461,11.9424,9.26672,-0.0085012,-0.00651151,0.00418729,-0.0032025,-0.0118102,0.902029,0.00705265,0.0124507,1805,1485,11.9424,-9.26678
588,-461,11.9293,9.04871,-0.00598486,-0.00514859,0.00295701,-0.0025803,-0.00855316,0.855635,0.005066,0.0105635,1812,1485,11.9294,-9.04873
595,-461,11.9233,8.82129,-0.00389243,-0.00363893,0.00207596,-0.00168586,-0.0058455,0.815889,0.00347418,0.00894515,1819,1485,11.9233,-8.82133
602,-461,11.9337,8.61572,-0.00219852,-0.00245819,0.00134126,-0.000980823,-0.00367588,0.737148,0.00219785,0.00966363,1826,1485,11.9337,-8.61572
609,-461,11.9467,8.37329,-0.000527231,-0.00185774,0.000597859,-0.000298058,-0.00208691,0.366046,0.00130333,0.0104291,1833,1485,11.9467,-8.37324
616,-461,11.9487,8.12097,0.00083199,-0.00119691,-0.000100794,0.000836986,-0.00120191,-0.0495167,0.00118342,0.012463,1840,1485,11.9487,-8.12099
623,-461,11.9298,7.88159,0.00196539,-0.000632457,-0.000658567,0.0021228,-0.000789868,-0.23462,0.00173934,0.0121166,1847,1485,11.9298,-7.88158
630,-461,11.9244,7.64575,0.00325569,-4.47666e-05,-0.00101759,0.00354421,-0.000333285,-0.276281,0.00248137,0.0105474,1854,1485,11.9244,-7.64573
637,-461,11.9387,7.42188,0.00466998,0.000605778,-0.00143602,0.00512617,0.000149591,-0.307593,0.00336869,0.0117257,1861,1485,11.9387,-7.42187
644,-461,11.9694,7.21558,0.00652588,0.0016917,-0.00182017,0.00713457,0.00108301,-0.322723,0.00443963,0.0225357,1868,1485,11.9694,-7.21553
651,-461,11.8201,6.97986,0.00910106,0.00353372,-0.00228112,0.00991633,0.00271845,-0.343249,0.0059167,0.0277915,1875,1485,11.82,-6.97987
658,-461,11.976,6.63501,0.0126902,0.00629641,-0.00272611,0.0136947,0.00529189,-0.353042,0.00797434,0.041735,1882,1485,11.976,-6.63496
665,-461,12.3534,6.12317,0,0,0,0,0,0,0,-1,1889,1485,12.3534,-6.12313
672,-461,11.9205,5.45056,0,0,0,0,0,0,0,-1,1896,1485,11.9206,-5.45057
679,-461,10.0535,2.16321,0,0,0,0,0,0,0,-1,1903,1485,10.0535,-2.16317
686,-461,10.8195,1.84192,0,0,0,0,0,0,0,-1,1910,1485,10.8194,-1.84195
693,-461,0,0,0,0,0,0,0,0,0,-1,1917,1485,0,0
700,-461,0,0,0,0,0,0,0,0,0,-1,1924,1485,0,0
707,-461,0,0,0,0,0,0,0,0,0,-1,1931,1485,0,0
714,-461,0,0,0,0,0,0,0,0,0,-1,1938,1485,0,0
721,-461,0,0,0,0,0,0,0,0,0,-1,1945,1485,0,0
728,-461,0,0,0,0,0,0,0,0,0,-1,1952,1485,0,0
735,-461,0,0,0,0,0,0,0,0,0,-1,1959,1485,0,0
742,-461,0,0,0,0,0,0,0,0,0,-1,1966,1485,0,0
749,-461,0,0,0,0,0,0,0,0,0,-1,1973,1485,0,0
756,-461,0,0,0,0,0,0,0,0,0,-1,1980,1485,0,0
763,-461,0,0,0,0,0,0,0,0,0,-1,1987,1485,0,0
770,-461,0,0,0,0,0,0,0,0,0,-1,1994,1485,0,0
777,-461,0,0,0,0,0,0,0,0,0,-1,2001,1485,0,0
784,-461,0,0,0,0,0,0,0,0,0,-1,2008,1485,0,0
791,-461,0,0,0,0,0,0,0,0,0,-1,2015,1485,0,0
798,-461,0,0,0,0,0,0,0,0,0,-1,2022,1485,0,0
805,-461,0,0,0,0,0,0,0,0,0,-1,2029,1485,0,0
812,-461,0,0,0,0,0,0,0,0,0,-1,2036,1485,0,0
-700,-468,0,0,0,0,0,0,0,0,0,-1,524,1492,0,0
-693,-468,0,0,0,0,0,0,0,0,0,-1,531,1492,0,0
-686,-468,0,0,0,0,0,0,0,0,0,-1,538,1492,0,0
-679,-468,0,0,0,0,0,0,0,0,0,-1,545,1492,0,0
-672,-468,0,0,0,0,0,0,0,0,0,-1,552,1492,0,0
-665,-468,0,0,0,0,0,0,0,0,0,-1,559,1492,0,0
-658,-468,0,0,0,0,0,0,0,0,0,-1,566,1492,0,0
-651,-468,0,0,0,0,0,0,0,0,0,-1,573,1492,0,0
-644,-468,0,0,0,0,0,0,0,0,0,-1,580,1492,0,0
-637,-468,0,0,0,0,0,0,0,0,0,-1,587,1492,0,0
-630,-468,0,0,0,0,0,0,0,0,0,-1,594,1492,0,0
-623,-468,0,0,0,0,0,0,0,0,0,-1,601,1492,0,0
-616,-468,0,0,0,0,0,0,0,0,0,-1,608,1492,0,0
-609,-468,0,0,0,0,0,0,0,0,0,-1,615,1492,0,0
-602,-468,0,0,0,0,0,0,0,0,0,-1,622,1492,0,0
-595,-468,0,0,0,0,0,0,0,0,0,-1,629,1492,0,0
-588,-468,0,0,0,0,0,0,0,0,0,-1,636,1492,0,0
-581,-468,0,0,0,0,0,0,0,0,0,-1,643,1492,0,0
-574,-468,0,0,0,0,0,0,0,0,0,-1,650,1492,0,0
-567,-468,-11.2603,1.8042,0,0,0,0,0,0,0,-1,657,1492,-11.2603,-1.80424
-560,-468,-8.77441,2.23694,0,0,0,0,0,0,0,-1,664,1492,-8.77443,-2.23692
-553,-468,-5.94061,9.26318,0,0,0,0,0,0,0,-1,671,1492,-5.94062,-9.26322
-546,-468,-5.33777,4.42896,0,0,0,0,0,0,0,-1,678,1492,-5.33776,-4.42896
-539,-468,-4.56708,4.61377,0,0,0,0,0,0,0,-1,685,1492,-4.56708,-4.61373
-532,-468,-2.93774,4.50891,0,0,0,0,0,0,0,-1,692,1492,-2.93777,-4.50894
-525,-468,-2.69476,4.92212,0,0,0,0,0,0,0,-1,699,1492,-2.69479,-4.92212
-518,-468,-2.63763,5.16919,0.0157389,0.0102818,0.0129469,0.0262416,-0.000220991,0.681544,0.0175685,0.0398837,706,1492,-2.63761,-5.16915
-511,-468,-2.49487,5.36084,0.0119429,0.00736794,0.00936242,0.0192932,1.75824e-05,0.665584,0.0128563,0.0319155,713,1492,-2.49487,-5.36079
-504,-468,-2.46167,5.64502,0.00877546,0.00502384,0.00652057,0.0136847,0.000114632,0.645342,0.00908515,0.0151087,720,1492,-2.46167,-5.64501
-497,-468,-2.49188,5.93054,0.00622833,0.00310861,0.00427373,0.00921797,0.000118968,0.610417,0.00610604,0.00964033,727,1492,-2.49187,-5.93053
-490,-468,-2.487,6.21729,0.00429554,0.00153492,0.00239801,0.00568212,0.000148337,0.524253,0.00373961,0.0081521,734,1492,-2.48698,-6.21723
-483,-468,-2.51208,6.47937,0.00291851,0.000172521,0.000802072,0.00313562,-4.45896e-05,0.264352,0.00210543,0.00794073,741,1492,-2.51206,-6.47943
-476,-468,-2.51477,6.73303,0.00172376,-0.00125023,-0.000847124,0.00194813,-0.0014746,-0.258916,0.00198241,0.00852909,748,1492,-2.51475,-6.73307
-469,-468,-2.49048,6.98108,0.000722416,-0.00240614,-0.00252083,0.00212488,-0.00380859,-0.507705,0.00347136,0.0124626,755,1492,-2.49048,-6.98102
-462,-468,-2.48346,7.2627,0.000870182,-0.00355314,-0.00372799,0.00299319,-0.00567615,-0.517675,0.00508452,0.0222165,762,1492,-2.48347,-7.26272
-455,-468,-2.52856,7.49414,0.00115006,-0.00468289,-0.00506293,0.00407645,-0.00760928,-0.524089,0.00684876,0.0239518,769,1492,-2.52854,-7.49419
-448,-468,-2.51978,7.74365,0.00169379,-0.00586786,-0.00655238,0.00547791,-0.00965198,-0.523724,0.00884536,0.014777,776,1492,-2.5198,-7.74366
-441,-468,-2.52026,8.00073,0.00249363,-0.0070782,-0.00822515,0.00722391,-0.0118085,-0.521909,0.0110941,0.0124984,783,1492,-2.52028,-8.00068
-434,-468,-2.4646,8.26599,0.00342179,-0.00892803,-0.0103563,0.00930438,-0.0148106,-0.516571,0.0140433,0.0114331,790,1492,-2.4646,-8.26602
-427,-468,-2.40216,8.49377,0.00469077,-0.0112527,-0.0130214,0.0119868,-0.0185488,-0.510726,0.0177649,0.0155799,797,1492,-2.40214,-8.49383
-420,-468,-2.54596,8.58899,0,0,0,0,0,0,0,-1,804,1492,-2.54594,-8.58899
-413,-468,-1.97156,8.47729,0.00819772,-0.0169337,-0.0198388,0.0191155,-0.0278515,-0.503093,0.0272723,0.0483287,811,1492,-1.97158,-8.47731
-406,-468,-1.33679,8.33191,0,0,0,0,0,0,0,-1,818,1492,-1.33679,-8.33197
-399,-468,-0.940369,8.1936,0,0,0,0,0,0,0,-1,825,1492,-0.940365,-8.19357
-392,-468,-0.35144,8.14673,0,0,0,0,0,0,0,-1,832,1492,-0.351449,-8.14674
-385,-468,0.465759,5.35864,0,0,0,0,0,0,0,-1,839,1492,0.465732,-5.35864
-378,-468,1.99835,3.25391,0,0,0,0,0,0,0,-1,846,1492,1.99837,-3.2539
-371,-468,-0.31842,3.1532,0,0,0,0,0,0,0,-1,853,1492,-0.318441,-3.15324
-364,-468,-0.966736,2.14563,0,0,0,0,0,0,0,-1,860,1492,-0.966735,-2.14557
-357,-468,-3.06787,3.22742,0,0,0,0,0,0,0,-1,867,1492,-3.06784,-3.2274
-350,-468,-3.18658,4.12659,0,0,0,0,0,0,0,-1,874,1492,-3.18659,-4.12658
-343,-468,0,0,0,0,0,0,0,0,0,-1,881,1492,0,0
-336,-468,0,0,0,0,0,0,0,0,0,-1,888,1492,0,0
-329,-468,0,0,0,0,0,0,0,0,0,-1,895,1492,0,0
-322,-468,0,0,0,0,0,0,0,0,0,-1,902,1492,0,0
-315,-468,0,0,0,0,0,0,0,0,0,-1,909,1492,0,0
-308,-468,0,0,0,0,0,0,0,0,0,-1,916,1492,0,0
-301,-468,0,0,0,0,0,0,0,0,0,-1,923,1492,0,0
-294,-468,0,0,0,0,0,0,0,0,0,-1,930,1492,0,0
-287,-468,0,0,0,0,0,0,0,0,0,-1,937,1492,0,0
-280,-468,0,0,0,0,0,0,0,0,0,-1,944,1492,0,0
-273,-468,0,0,0,0,0,0,0,0,0,-1,951,1492,0,0
-266,-468,0,0,0,0,0,0,0,0,0,-1,958,1492,0,0
-259,-468,0,0,0,0,0,0,0,0,0,-1,965,1492,0,0
-252,-468,0,0,0,0,0,0,0,0,0,-1,972,1492,0,0
-245,-468,0,0,0,0,0,0,0,0,0,-1,979,1492,0,0
-238,-468,0,0,0,0,0,0,0,0,0,-1,986,1492,0,0
-231,-468,0,0,0,0,0,0,0,0,0,-1,993,1492,0,0
-224,-468,0,0,0,0,0,0,0,0,0,-1,1000,1492,0,0
-217,-468,0,0,0,0,0,0,0,0,0,-1,1007,1492,0,0
-210,-468,0,0,0,0,0,0,0,0,0,-1,1014,1492,0,0
-203,-468,0,0,0,0,0,0,0,0,0,-1,1021,1492,0,0
-196,-468,0,0,0,0,0,0,0,0,0,-1,1028,1492,0,0
-189,-468,0,0,0,0,0,0,0,0,0,-1,1035,1492,0,0
-182,-468,0,0,0,0,0,0,0,0,0,-1,1042,1492,0,0
-175,-468,0,0,0,0,0,0,0,0,0,-1,1049,1492,0,0
-168,-468,0,0,0,0,0,0,0,0,0,-1,1056,1492,0,0
-161,-468,0,0,0,0,0,0,0,0,0,-1,1063,1492,0,0
-154,-468,0,0,0,0,0,0,0,0,0,-1,1070,1492,0,0
-147,-468,0,0,0,0,0,0,0,0,0,-1,1077,1492,0,0
-140,-468,0,0,0,0,0,0,0,0,0,-1,1084,1492,0,0
-133,-468,0,0,0,0,0,0,0,0,0,-1,1091,1492,0,0
-126,-468,0,0,0,0,0,0,0,0,0,-1,1098,1492,0,0
-119,-468,0,0,0,0,0,0,0,0,0,-1,1105,1492,0,0
-112,-468,0,0,0,0,0,0,0,0,0,-1,1112,1492,0,0
-105,-468,0,0,0,0,0,0,0,0,0,-1,1119,1492,0,0
-98,-468,0,0,0,0,0,0,0,0,0,-1,1126,1492,0,0
-91,-468,0,0,0,0,0,0,0,0,0,-1,1133,1492,0,0
-84,-468,0,0,0,0,0,0,0,0,0,-1,1140,1492,0,0
-77,-468,0,0,0,0,0,0,0,0,0,-1,1147,1492,0,0
-70,-468,0,0,0,0,0,0,0,0,0,-1,1154,1492,0,0
-63,-468,0,0,0,0,0,0,0,0,0,-1,1161,1492,0,0
-56,-468,0,0,0,0,0,0,0,0,0,-1,1168,1492,0,0
-49,-468,0,0,0,0,0,0,0,0,0,-1,1175,1492,0,0
-42,-468,0,0,0,0,0,0,0,0,0,-1,1182,1492,0,0
-35,-468,0,0,0,0,0,0,0,0,0,-1,1189,1492,0,0
-28,-468,0,0,0,0,0,0,0,0,0,-1,1196,1492,0,0
-21,-468,0,0,0,0,0,0,0,0,0,-1,1203,1492,0,0
-14,-468,0,0,0,0,0,0,0,0,0,-1,1210,1492,0,0
-7,-468,0,0,0,0,0,0,0,0,0,-1,1217,1492,0,0
0,-468,0,0,0,0,0,0,0,0,0,-1,1224,1492,0,0
7,-468,0,0,0,0,0,0,0,0,0,-1,1231,1492,0,0
14,-468,0,0,0,0,0,0,0,0,0,-1,1238,1492,0,0
21,-468,0,0,0,0,0,0,0,0,0,-1,1245,1492,0,0
28,-468,0,0,0,0,0,0,0,0,0,-1,1252,1492,0,0
35,-468,0,0,0,0,0,0,0,0,0,-1,1259,1492,0,0
42,-468,0,0,0,0,0,0,0,0,0,-1,1266,1492,0,0
49,-468,0,0,0,0,0,0,0,0,0,-1,1273,1492,0,0
56,-468,0,0,0,0,0,0,0,0,0,-1,1280,1492,0,0
63,-468,0,0,0,0,0,0,0,0,0,-1,1287,1492,0,0
70,-468,0,0,0,0,0,0,0,0,0,-1,1294,1492,0,0
77,-468,0,0,0,0,0,0,0,0,0,-1,1301,1492,0,0
84,-468,0,0,0,0,0,0,0,0,0,-1,1308,1492,0,0
91,-468,0,0,0,0,0,0,0,0,0,-1,1315,1492,0,0
98,-468,0,0,0,0,0,0,0,0,0,-1,1322,1492,0,0
105,-468,0,0,0,0,0,0,0,0,0,-1,1329,1492,0,0
112,-468,0,0,0,0,0,0,0,0,0,-1,1336,1492,0,0
119,-468,0,0,0,0,0,0,0,0,0,-1,1343,1492,0,0
126,-468,0,0,0,0,0,0,0,0,0,-1,1350,1492,0,0
133,-468,0,0,0,0,0,0,0,0,0,-1,1357,1492,0,0
140,-468,0,0,0,0,0,0,0,0,0,-1,1364,1492,0,0
147,-468,0,0,0,0,0,0,0,0,0,-1,1371,1492,0,0
154,-468,0,0,0,0,0,0,0,0,0,-1,1378,1492,0,0
161,-468,0,0,0,0,0,0,0,0,0,-1,1385,1492,0,0
168,-468,0,0,0,0,0,0,0,0,0,-1,1392,1492,0,0
175,-468,0,0,0,0,0,0,0,0,0,-1,1399,1492,0,0
182,-468,0,0,0,0,0,0,0,0,0,-1,1406,1492,0,0
189,-468,0,0,0,0,0,0,0,0,0,-1,1413,1492,0,0
196,-468,0,0,0,0,0,0,0,0,0,-1,1420,1492,0,0
203,-468,0,0,0,0,0,0,0,0,0,-1,1427,1492,0,0
210,-468,0,0,0,0,0,0,0,0,0,-1,1434,1492,0,0
217,-468,0,0,0,0,0,0,0,0,0,-1,1441,1492,0,0
224,-468,0,0,0,0,0,0,0,0,0,-1,1448,1492,0,0
231,-468,0,0,0,0,0,0,0,0,0,-1,1455,1492,0,0
238,-468,0,0,0,0,0,0,0,0,0,-1,1462,1492,0,0
245,-468,0,0,0,0,0,0,0,0,0,-1,1469,1492,0,0
252,-468,0,0,0,0,0,0,0,0,0,-1,1476,1492,0,0
259,-468,0,0,0,0,0,0,0,0,0,-1,1483,1492,0,0
266,-468,0,0,0,0,0,0,0,0,0,-1,1490,1492,0,0
273,-468,0,0,0,0,0,0,0,0,0,-1,1497,1492,0,0
280,-468,0,0,0,0,0,0,0,0,0,-1,1504,1492,0,0
287,-468,0,0,0,0,0,0,0,0,0,-1,1511,1492,0,0
294,-468,0,0,0,0,0,0,0,0,0,-1,1518,1492,0,0
301,-468,0,0,0,0,0,0,0,0,0,-1,1525,1492,0,0
308,-468,0,0,0,0,0,0,0,0,0,-1,1532,1492,0,0
315,-468,0,0,0,0,0,0,0,0,0,-1,1539,1492,0,0
322,-468,0,0,0,0,0,0,0,0,0,-1,1546,1492,0,0
329,-468,0,0,0,0,0,0,0,0,0,-1,1553,1492,0,0
336,-468,0,0,0,0,0,0,0,0,0,-1,1560,1492,0,0
343,-468,0,0,0,0,0,0,0,0,0,-1,1567,1492,0,0
350,-468,0,0,0,0,0,0,0,0,0,-1,1574,1492,0,0
357,-468,0,0,0,0,0,0,0,0,0,-1,1581,1492,0,0
364,-468,0,0,0,0,0,0,0,0,0,-1,1588,1492,0,0
371,-468,0,0,0,0,0,0,0,0,0,-1,1595,1492,0,0
378,-468,0,0,0,0,0,0,0,0,0,-1,1602,1492,0,0
385,-468,0,0,0,0,0,0,0,0,0,-1,1609,1492,0,0
392,-468,0,0,0,0,0,0,0,0,0,-1,1616,1492,0,0
399,-468,0,0,0,0,0,0,0,0,0,-1,1623,1492,0,0
406,-468,0,0,0,0,0,0,0,0,0,-1,1630,1492,0,0
413,-468,0,0,0,0,0,0,0,0,0,-1,1637,1492,0,0
420,-468,0,0,0,0,0,0,0,0,0,-1,1644,1492,0,0
427,-468,0,0,0,0,0,0,0,0,0,-1,1651,1492,0,0
434,-468,0,0,0,0,0,0,0,0,0,-1,1658,1492,0,0
441,-468,0,0,0,0,0,0,0,0,0,-1,1665,1492,0,0
448,-468,0,0,0,0,0,0,0,0,0,-1,1672,1492,0,0
455,-468,0,0,0,0,0,0,0,0,0,-1,1679,1492,0,0
462,-468,0,0,0,0,0,0,0,0,0,-1,1686,1492,0,0
469,-468,15.6879,1.2677,0,0,0,0,0,0,0,-1,1693,1492,15.6879,-1.26772
476,-468,14.9318,1.61865,0,0,0,0,0,0,0,-1,1700,1492,14.9318,-1.61869
483,-468,11.265,4.64795,0,0,0,0,0,0,0,-1,1707,1492,11.265,-4.64798
490,-468,12.1316,3.51624,0,0,0,0,0,0,0,-1,1714,1492,12.1316,-3.51628
497,-468,16.5355,3.14587,0,0,0,0,0,0,0,-1,1721,1492,16.5356,-3.14583
504,-468,15.0642,4.10437,0,0,0,0,0,0,0,-1,1728,1492,15.0643,-4.10431
511,-468,15.6575,9.59875,0,0,0,0,0,0,0,-1,1735,1492,15.6575,-9.59878
518,-468,14.371,10.0905,0,0,0,0,0,0,0,-1,1742,1492,14.371,-10.0904
525,-468,13.3622,10.6064,0,0,0,0,0,0,0,-1,1749,1492,13.3622,-10.6064
532,-468,12.3479,10.2432,0,0,0,0,0,0,0,-1,1756,1492,12.3479,-10.2432
539,-468,11.577,10.0603,0,0,0,0,0,0,0,-1,1763,1492,11.577,-10.0603
546,-468,11.739,9.94812,-0.0203889,-0.018125,0.0147252,-0.00448832,-0.0340255,0.823758,0.0213455,0.0472473,1770,1492,11.739,-9.9481
553,-468,11.865,9.97986,-0.0172404,-0.0144887,0.0113007,-0.00448042,-0.0272487,0.845975,0.0168718,0.0334242,1777,1492,11.8651,-9.97987
560,-468,11.7266,9.93445,-0.0142576,-0.0115476,0.00851108,-0.00428433,-0.0215209,0.864335,0.0131538,0.0204619,1784,1492,11.7266,-9.9345
567,-468,11.6758,9.74646,-0.0113129,-0.00908611,0.00640092,-0.00370246,-0.0166965,0.871507,0.0101251,0.0140069,1791,1492,11.6758,-9.74641
574,-468,11.6918,9.50623,-0.00843483,-0.00686818,0.00479961,-0.00278839,-0.0125146,0.866288,0.0075864,0.013074,1798,1492,11.6917,-9.50624
581,-468,11.7036,9.27637,-0.00601266,-0.00498814,0.0034377,-0.00202474,-0.00897606,0.85936,0.0054363,0.0134127,1805,1492,11.7036,-9.27638
588,-468,11.6936,9.0498,-0.00379953,-0.00388297,0.00219632,-0.00164454,-0.00603797,0.775901,0.00360444,0.0118826,1812,1492,11.6937,-9.04985
595,-468,11.7013,8.81824,-0.00185721,-0.00255829,0.00131812,-0.000843817,-0.00357169,0.655437,0.00215563,0.0102439,1819,1492,11.7013,-8.81819
602,-468,11.7053,8.60071,-0.000221113,-0.00158113,0.000606928,1.03452e-05,-0.00181259,0.364336,0.00121186,0.00907539,1826,1492,11.7053,-8.60067
609,-468,11.6918,8.36292,0.00142994,-0.00112429,-0.000129864,0.00143653,-0.00113088,-0.0506685,0.00148579,0.00919492,1833,1492,11.6918,-8.36291
616,-468,11.6864,8.12048,0.0028516,-0.00065624,-0.000834568,0.00304004,-0.000844674,-0.222062,0.0023592,0.00927338,1840,1492,11.6864,-8.12052
623,-468,11.6908,7.88452,0.00411537,-0.000353975,-0.00139483,0.00451496,-0.000753561,-0.279004,0.00329005,0.0102166,1847,1492,11.6907,-7.88454
630,-468,11.7115,7.64502,0.0055805,9.25245e-05,-0.00179569,0.00611584,-0.000442815,-0.289735,0.00423256,0.0104174,1854,1492,11.7115,-7.64503
637,-468,11.7101,7.37573,0.00718358,0.00056538,-0.00227665,0.00789111,-0.000142143,-0.301312,0.00530875,0.0140316,1861,1492,11.71,-7.3757
644,-468,11.6855,7.1698,0.0092585,0.00154257,-0.00280282,0.0101692,0.00063192,-0.314146,0.00657892,0.033771,1868,1492,11.6856,-7.16983
651,-468,11.7842,6.99304,0,0,0,0,0,0,0,-1,1875,1492,11.7842,-6.99299
658,-468,11.9617,6.75916,0,0,0,0,0,0,0,-1,1882,1492,11.9617,-6.75921
665,-468,12.2195,6.47363,0,0,0,0,0,0,0,-1,1889,1492,12.2195,-6.47369
672,-468,9.96814,3.61133,0,0,0,0,0,0,0,-1,1896,1492,9.96817,-3.61139
679,-468,11.2191,1.91968,0,0,0,0,0,0,0,-1,1903,1492,11.2191,-1.91965
686,-468,11.9252,1.42285,0,0,0,0,0,0,0,-1,1910,1492,11.9252,-1.42291
693,-468,0,0,0,0,0,0,0,0,0,-1,1917,1492,0,0
700,-468,0,0,0,0,0,0,0,0,0,-1,1924,1492,0,0
707,-468,0,0,0,0,0,0,0,0,0,-1,1931,1492,0,0
714,-468,0,0,0,0,0,0,0,0,0,-1,1938,1492,0,0
721,-468,0,0,0,0,0,0,0,0,0,-1,1945,1492,0,0
728,-468,0,0,0,0,0,0,0,0,0,-1,1952,1492,0,0
735,-468,0,0,0,0,0,0,0,0,0,-1,1959,1492,0,0
742,-468,0,0,0,0,0,0,0,0,0,-1,1966,1492,0,0
749,-468,0,0,0,0,0,0,0,0,0,-1,1973,1492,0,0
756,-468,0,0,0,0,0,0,0,0,0,-1,1980,1492,0,0
763,-468,0,0,0,0,0,0,0,0,0,-1,1987,1492,0,0
770,-468,0,0,0,0,0,0,0,0,0,-1,1994,1492,0,0
777,-468,0,0,0,0,0,0,0,0,0,-1,2001,1492,0,0
784,-468,0,0,0,0,0,0,0,0,0,-1,2008,1492,0,0
791,-468,0,0,0,0,0,0,0,0,0,-1,2015,1492,0,0
798,-468,0,0,0,0,0,0,0,0,0,-1,2022,1492,0,0
805,-468,0,0,0,0,0,0,0,0,0,-1,2029,1492,0,0
812,-468,0,0,0,0,0,0,0,0,0,-1,2036,1492,0,0
-700,-475,0,0,0,0,0,0,0,0,0,-1,524,1499,0,0
-693,-475,0,0,0,0,0,0,0,0,0,-1,531,1499,0,0
-686,-475,0,0,0,0,0,0,0,0,0,-1,538,1499,0,0
-679,-475,0,0,0,0,0,0,0,0,0,-1,545,1499,0,0
-672,-475,0,0,0,0,0,0,0,0,0,-1,552,1499,0,0
-665,-475,0,0,0,0,0,0,0,0,0,-1,559,1499,0,0
-658,-475,0,0,0,0,0,0,0,0,0,-1,566,1499,0,0
-651,-475,0,0,0,0,0,0,0,0,0,-1,573,1499,0,0
-644,-475,0,0,0,0,0,0,0,0,0,-1,580,1499,0,0
-637,-475,0,0,0,0,0,0,0,0,0,-1,587,1499,0,0
-630,-475,0,0,0,0,0,0,0,0,0,-1,594,1499,0,0
-623,-475,0,0,0,0,0,0,0,0,0,-1,601,1499,0,0
-616,-475,0,0,0,0,0,0,0,0,0,-1,608,1499,0,0
-609,-475,0,0,0,0,0,0,0,0,0,-1,615,1499,0,0
-602,-475,0,0,0,0,0,0,0,0,0,-1,622,1499,0,0
-595,-475,0,0,0,0,0,0,0,0,0,-1,629,1499,0,0
-588,-475,0,0,0,0,0,0,0,0,0,-1,636,1499,0,0
-581,-475,0,0,0,0,0,0,0,0,0,-1,643,1499,0,0
-574,-475,0,0,0,0,0,0,0,0,0,-1,650,1499,0,0
-567,-475,0,0,0,0,0,0,0,0,0,-1,657,1499,0,0
-560,-475,-9.42731,9.29517,0,0,0,0,0,0,0,-1,664,1499,-9.42731,-9.29519
-553,-475,-8.15131,8.78369,0,0,0,0,0,0,0,-1,671,1499,-8.15131,-8.78367
-546,-475,-8.41254,8.20654,0,0,0,0,0,0,0,-1,678,1499,-8.41251,-8.20655
-539,-475,-2.96985,4.14124,0,0,0,0,0,0,0,-1,685,1499,-2.96982,-4.14127
-532,-475,-2.63446,4.62097,0.0264791,0.0184264,0.0226734,0.0454809,-0.000575377,0.697525,0.0305142,0.042406,692,1499,-2.63443,-4.62103
-525,-475,-2.54346,4.89966,0.0216216,0.0143009,0.0174375,0.0357788,0.000143684,0.681943,0.0238048,0.0423413,699,1499,-2.54344,-4.89963
-518,-475,-2.49042,4.98376,0.0170767,0.0107161,0.0130163,0.0272955,0.000497201,0.665579,0.0180336,0.0458635,706,1499,-2.49044,-4.98373
-511,-475,-2.3598,5.22986,0.013095,0.00768888,0.00932023,0.0200962,0.000687646,0.644261,0.0131742,0.0435908,713,1499,-2.35981,-5.22982
-504,-475,-2.2005,5.67554,0.00968092,0.00523685,0.00639662,0.0142305,0.000687316,0.61823,0.00926637,0.0268107,720,1499,-2.20052,-5.67559
-497,-475,-2.22644,5.97583,0.00691425,0.00334906,0.00416078,0.00965822,0.000605095,0.583013,0.00624689,0.0150823,727,1499,-2.22644,-5.97578
-490,-475,-2.23022,6.2157,0.00479603,0.00184667,0.00237891,0.00612026,0.000522439,0.507937,0.00391766,0.00827888,734,1499,-2.23024,-6.21566
-483,-475,-2.24103,6.48572,0.00332268,0.000574025,0.00095414,0.00362142,0.000275284,0.303432,0.00232795,0.00813856,741,1499,-2.24104,-6.48567
-476,-475,-2.24377,6.72949,0.00215504,-0.000661071,-0.000400886,0.002211,-0.000717027,-0.138685,0.00176232,0.00945383,748,1499,-2.24378,-6.72945
-469,-475,-2.22693,6.97095,0.00123272,-0.00166595,-0.00170437,0.00202067,-0.0024539,-0.433045,0.00258742,0.0113621,755,1499,-2.22691,-6.97099
-462,-475,-2.20532,7.24548,0.00141949,-0.00258533,-0.0024971,0.00261788,-0.00378372,-0.447451,0.00371634,0.016733,762,1499,-2.20535,-7.24545
-455,-475,-2.22919,7.49658,0.00181664,-0.00345218,-0.00332625,0.00342535,-0.00506089,-0.450475,0.00492977,0.0156853,769,1499,-2.22919,-7.49661
-448,-475,-2.25726,7.74792,0.00248698,-0.0043621,-0.00424495,0.00451652,-0.00639164,-0.445982,0.00632877,0.0135713,776,1499,-2.25725,-7.74791
-441,-475,-2.27289,8.01685,0.00342521,-0.00523802,-0.00526183,0.005909,-0.00772181,-0.44103,0.00789291,0.0161087,783,1499,-2.27287,-8.01689
-434,-475,-2.25421,8.26001,0.0045026,-0.00668489,-0.00661622,0.00757282,-0.00975512,-0.434472,0.0100307,0.0101164,790,1499,-2.25419,-8.26005
-427,-475,-2.20251,8.53503,0.0059586,-0.00856632,-0.00839858,0.00979927,-0.012407,-0.428908,0.0128502,0.0129533,797,1499,-2.20251,-8.53498
-420,-475,-2.11469,8.76367,0.00778007,-0.0108582,-0.0106451,0.0126089,-0.015687,-0.425859,0.0163688,0.0225391,804,1499,-2.11468,-8.76366
-413,-475,-1.88367,8.66797,0.00962133,-0.0137041,-0.0131981,0.0155714,-0.0196541,-0.423539,0.0203829,0.039963,811,1499,-1.88364,-8.66795
-406,-475,-1.42175,8.67554,0,0,0,0,0,0,0,-1,818,1499,-1.42173,-8.67553
-399,-475,-1.39667,6.1615,0,0,0,0,0,0,0,-1,825,1499,-1.39664,-6.16155
-392,-475,0.217163,8.61389,0,0,0,0,0,0,0,-1,832,1499,0.217167,-8.6139
-385,-475,1.18372,2.73999,0,0,0,0,0,0,0,-1,839,1499,1.18372,-2.73995
-378,-475,1.31409,2.90149,0,0,0,0,0,0,0,-1,846,1499,1.31411,-2.90151
-371,-475,2.3476,3.31116,0,0,0,0,0,0,0,-1,853,1499,2.34761,-3.31121
-364,-475,1.04462,9.05823,0,0,0,0,0,0,0,-1,860,1499,1.04461,-9.05825
-357,-475,-0.262756,7.97205,0,0,0,0,0,0,0,-1,867,1499,-0.262784,-7.97205
-350,-475,-2.77173,4.35486,0,0,0,0,0,0,0,-1,874,1499,-2.77175,-4.35491
-343,-475,-6.81641,-1.95203,0,0,0,0,0,0,0,-1,881,1499,-6.81643,1.95198
-336,-475,0,0,0,0,0,0,0,0,0,-1,888,1499,0,0
-329,-475,0,0,0,0,0,0,0,0,0,-1,895,1499,0,0
-322,-475,0,0,0,0,0,0,0,0,0,-1,902,1499,0,0
-315,-475,0,0,0,0,0,0,0,0,0,-1,909,1499,0,0
-308,-475,0,0,0,0,0,0,0,0,0,-1,916,1499,0,0
-301,-475,0,0,0,0,0,0,0,0,0,-1,923,1499,0,0
-294,-475,0,0,0,0,0,0,0,0,0,-1,930,1499,0,0
-287,-475,0,0,0,0,0,0,0,0,0,-1,937,1499,0,0
-280,-475,0,0,0,0,0,0,0,0,0,-1,944,1499,0,0
-273,-475,0,0,0,0,0,0,0,0,0,-1,951,1499,0,0
-266,-475,0,0,0,0,0,0,0,0,0,-1,958,1499,0,0
-259,-475,0,0,0,0,0,0,0,0,0,-1,965,1499,0,0
-252,-475,0,0,0,0,0,0,0,0,0,-1,972,1499,0,0
-245,-475,0,0,0,0,0,0,0,0,0,-1,979,1499,0,0
-238,-475,0,0,0,0,0,0,0,0,0,-1,986,1499,0,0
-231,-475,0,0,0,0,0,0,0,0,0,-1,993,1499,0,0
-224,-475,0,0,0,0,0,0,0,0,0,-1,1000,1499,0,0
-217,-475,0,0,0,0,0,0,0,0,0,-1,1007,1499,0,0
-210,-475,0,0,0,0,0,0,0,0,0,-1,1014,1499,0,0
-203,-475,0,0,0,0,0,0,0,0,0,-1,1021,1499,0,0
-196,-475,0,0,0,0,0,0,0,0,0,-1,1028,1499,0,0
-189,-475,0,0,0,0,0,0,0,0,0,-1,1035,1499,0,0
-182,-475,0,0,0,0,0,0,0,0,0,-1,1042,1499,0,0
-175,-475,0,0,0,0,0,0,0,0,0,-1,1049,1499,0,0
-168,-475,0,0,0,0,0,0,0,0,0,-1,1056,1499,0,0
-161,-475,0,0,0,0,0,0,0,0,0,-1,1063,1499,0,0
-154,-475,0,0,0,0,0,0,0,0,0,-1,1070,1499,0,0
-147,-475,0,0,0,0,0,0,0,0,0,-1,1077,1499,0,0
-140,-475,0,0,0,0,0,0,0,0,0,-1,1084,1499,0,0
-133,-475,0,0,0,0,0,0,0,0,0,-1,1091,1499,0,0
-126,-475,0,0,0,0,0,0,0,0,0,-1,1098,1499,0,0
-119,-475,0,0,0,0,0,0,0,0,0,-1,1105,1499,0,0
-112,-475,0,0,0,0,0,0,0,0,0,-1,1112,1499,0,0
-105,-475,0,0,0,0,0,0,0,0,0,-1,1119,1499,0,0
-98,-475,0,0,0,0,0,0,0,0,0,-1,1126,1499,0,0
-91,-475,0,0,0,0,0,0,0,0,0,-1,1133,1499,0,0
-84,-475,0,0,0,0,0,0,0,0,0,-1,1140,1499,0,0
-77,-475,0,0,0,0,0,0,0,0,0,-1,1147,1499,0,0
-70,-475,0,0,0,0,0,0,0,0,0,-1,1154,1499,0,0
-63,-475,0,0,0,0,0,0,0,0,0,-1,1161,1499,0,0
-56,-475,0,0,0,0,0,0,0,0,0,-1,1168,1499,0,0
-49,-475,0,0,0,0,0,0,0,0,0,-1,1175,1499,0,0
-42,-475,0,0,0,0,0,0,0,0,0,-1,1182,1499,0,0
-35,-475,0,0,0,0,0,0,0,0,0,-1,1189,1499,0,0
-28,-475,0,0,0,0,0,0,0,0,0,-1,1196,1499,0,0
-21,-475,0,0,0,0,0,0,0,0,0,-1,1203,1499,0,0
-14,-475,0,0,0,0,0,0,0,0,0,-1,1210,1499,0,0
-7,-475,0,0,0,0,0,0,0,0,0,-1,1217,1499,0,0
0,-475,0,0,0,0,0,0,0,0,0,-1,1224,1499,0,0
7,-475,0,0,0,0,0,0,0,0,0,-1,1231,1499,0,0
14,-475,0,0,0,0,0,0,0,0,0,-1,1238,1499,0,0
21,-475,0,0,0,0,0,0,0,0,0,-1,1245,1499,0,0
28,-475,0,0,0,0,0,0,0,0,0,-1,1252,1499,0,0
35,-475,0,0,0,0,0,0,0,0,0,-1,1259,1499,0,0
42,-475,0,0,0,0,0,0,0,0,0,-1,1266,1499,0,0
49,-475,0,0,0,0,0,0,0,0,0,-1,1273,1499,0,0
56,-475,0,0,0,0,0,0,0,0,0,-1,1280,1499,0,0
63,-475,0,0,0,0,0,0,0,0,0,-1,1287,1499,0,0
70,-475,0,0,0,0,0,0,0,0,0,-1,1294,1499,0,0
77,-475,0,0,0,0,0,0,0,0,0,-1,1301,1499,0,0
84,-475,0,0,0,0,0,0,0,0,0,-1,1308,1499,0,0
91,-475,0,0,0,0,0,0,0,0,0,-1,1315,1499,0,0
98,-475,0,0,0,0,0,0,0,0,0,-1,1322,1499,0,0
105,-475,0,0,0,0,0,0,0,0,0,-1,1329,1499,0,0
112,-475,0,0,0,0,0,0,0,0,0,-1,1336,1499,0,0
119,-475,0,0,0,0,0,0,0,0,0,-1,1343,1499,0,0
126,-475,0,0,0,0,0,0,0,0,0,-1,1350,1499,0,0
133,-475,0,0,0,0,0,0,0,0,0,-1,1357,1499,0,0
140,-475,0,0,0,0,0,0,0,0,0,-1,1364,1499,0,0
147,-475,0,0,0,0,0,0,0,0,0,-1,1371,1499,0,0
154,-475,0,0,0,0,0,0,0,0,0,-1,1378,1499,0,0
161,-475,0,0,0,0,0,0,0,0,0,-1,1385,1499,0,0
168,-475,0,0,0,0,0,0,0,0,0,-1,1392,1499,0,0
175,-475,0,0,0,0,0,0,0,0,0,-1,1399,1499,0,0
182,-475,0,0,0,0,0,0,0,0,0,-1,1406,1499,0,0
189,-475,0,0,0,0,0,0,0,0,0,-1,1413,1499,0,0
196,-475,0,0,0,0,0,0,0,0,0,-1,1420,1499,0,0
203,-475,0,0,0,0,0,0,0,0,0,-1,1427,1499,0,0
210,-475,0,0,0,0,0,0,0,0,0,-1,1434,1499,0,0
217,-475,0,0,0,0,0,0,0,0,0,-1,1441,1499,0,0
224,-475,0,0,0,0,0,0,0,0,0,-1,1448,1499,0,0
231,-475,0,0,0,0,0,0,0,0,0,-1,1455,1499,0,0
238,-475,0,0,0,0,0,0,0,0,0,-1,1462,1499,0,0
245,-475,0,0,0,0,0,0,0,0,0,-1,1469,1499,0,0
252,-475,0,0,0,0,0,0,0,0,0,-1,1476,1499,0,0
259,-475,0,0,0,0,0,0,0,0,0,-1,1483,1499,0,0
266,-475,0,0,0,0,0,0,0,0,0,-1,1490,1499,0,0
273,-475,0,0,0,0,0,0,0,0,0,-1,1497,1499,0,0
280,-475,0,0,0,0,0,0,0,0,0,-1,1504,1499,0,0
287,-475,0,0,0,0,0,0,0,0,0,-1,1511,1499,0,0
294,-475,0,0,0,0,0,0,0,0,0,-1,1518,1499,0,0
301,-475,0,0,0,0,0,0,0,0,0,-1,1525,1499,0,0
308,-475,0,0,0,0,0,0,0,0,0,-1,1532,1499,0,0
315,-475,0,0,0,0,0,0,0,0,0,-1,1539,1499,0,0
322,-475,0,0,0,0,0,0,0,0,0,-1,1546,1499,0,0
329,-475,0,0,0,0,0,0,0,0,0,-1,1553,1499,0,0
336,-475,0,0,0,0,0,0,0,0,0,-1,1560,1499,0,0
343,-475,0,0,0,0,0,0,0,0,0,-1,1567,1499,0,0
350,-475,0,0,0,0,0,0,0,0,0,-1,1574,1499,0,0
357,-475,0,0,0,0,0,0,0,0,0,-1,1581,1499,0,0
364,-475,0,0,0,0,0,0,0,0,0,-1,1588,1499,0,0
371,-475,0,0,0,0,0,0,0,0,0,-1,1595,1499,0,0
378,-475,0,0,0,0,0,0,0,0,0,-1,1602,1499,0,0
385,-475,0,0,0,0,0,0,0,0,0,-1,1609,1499,0,0
392,-475,0,0,0,0,0,0,0,0,0,-1,1616,1499,0,0
399,-475,0,0,0,0,0,0,0,0,0,-1,1623,1499,0,0
406,-475,0,0,0,0,0,0,0,0,0,-1,1630,1499,0,0
413,-475,0,0,0,0,0,0,0,0,0,-1,1637,1499,0,0
420,-475,0,0,0,0,0,0,0,0,0,-1,1644,1499,0,0
427,-475,0,0,0,0,0,0,0,0,0,-1,1651,1499,0,0
434,-475,0,0,0,0,0,0,0,0,0,-1,1658,1499,0,0
441,-475,0,0,0,0,0,0,0,0,0,-1,1665,1499,0,0
448,-475,0,0,0,0,0,0,0,0,0,-1,1672,1499,0,0
455,-475,0,0,0,0,0,0,0,0,0,-1,1679,1499,0,0
462,-475,12.6372,0.275391,0,0,0,0,0,0,0,-1,1686,1499,12.6372,-0.27536
469,-475,15.6437,2.28296,0,0,0,0,0,0,0,-1,1693,1499,15.6437,-2.28293
476,-475,15.3302,2.71436,0,0,0,0,0,0,0,-1,1700,1499,15.3303,-2.7143
483,-475,10.7461,5.91479,0,0,0,0,0,0,0,-1,1707,1499,10.7461,-5.91476
490,-475,11.9305,4.4364,0,0,0,0,0,0,0,-1,1714,1499,11.9305,-4.43644
497,-475,15.3451,4.3479,0,0,0,0,0,0,0,-1,1721,1499,15.3451,-4.34789
504,-475,16.1669,8.5481,0,0,0,0,0,0,0,-1,1728,1499,16.1669,-8.54806
511,-475,14.9714,9.62366,0,0,0,0,0,0,0,-1,1735,1499,14.9715,-9.62361
518,-475,13.7964,10.4025,0,0,0,0,0,0,0,-1,1742,1499,13.7964,-10.4025
525,-475,11.9373,9.77869,0,0,0,0,0,0,0,-1,1749,1499,11.9372,-9.77867
532,-475,11.8828,10.0024,-0.0199623,-0.0262456,0.024284,0.00138246,-0.0475903,0.72107,0.0321976,0.0474342,1756,1499,11.8828,-10.0025
539,-475,11.6227,10.0634,-0.0177306,-0.0205199,0.0186141,-0.000458987,-0.0377915,0.748006,0.0250427,0.0452958,1763,1499,11.6226,-10.0634
546,-475,11.5693,10.0934,-0.0152452,-0.0158658,0.014106,-0.00144609,-0.0296649,0.774401,0.0193126,0.0376538,1770,1499,11.5693,-10.0933
553,-475,11.5903,10.1202,-0.012886,-0.0123184,0.0106782,-0.00192026,-0.0232841,0.798682,0.0149239,0.0203392,1777,1499,11.5903,-10.1202
560,-475,11.4296,9.99927,-0.0106132,-0.00954049,0.00786624,-0.00219233,-0.0179613,0.819437,0.0113145,0.0144875,1784,1499,11.4295,-9.99932
567,-475,11.4673,9.73364,-0.0082287,-0.0072965,0.00564229,-0.00210109,-0.0134241,0.826609,0.00833776,0.013331,1791,1499,11.4673,-9.73359
574,-475,11.4568,9.50378,-0.00582164,-0.00526924,0.00395434,-0.00158146,-0.00950942,0.820265,0.00588373,0.0139526,1798,1499,11.4567,-9.50382
581,-475,11.4578,9.27539,-0.00381863,-0.00356047,0.00249664,-0.00118958,-0.00618952,0.811226,0.00379253,0.0108865,1805,1499,11.4577,-9.27543
588,-475,11.4603,9.0542,-0.00190451,-0.00263674,0.00118345,-0.00103184,-0.00350941,0.635387,0.00208268,0.00888678,1812,1499,11.4603,-9.05419
595,-475,11.4819,8.84106,-0.000143315,-0.00145498,0.000213041,-0.000109581,-0.00148871,0.157044,0.000958041,0.0106236,1819,1499,11.4819,-8.841
602,-475,11.491,8.59717,0.00139892,-0.000635239,-0.000585329,0.00155532,-0.000791641,-0.261105,0.00137873,0.0124536,1826,1499,11.491,-8.59719
609,-475,11.4672,8.35974,0.00298926,-0.000279353,-0.001408,0.00351213,-0.00080223,-0.355575,0.00264963,0.0115898,1833,1499,11.4672,-8.35976
616,-475,11.4545,8.13745,0.00444129,2.61667e-05,-0.00221755,0.00536276,-0.000895305,-0.393828,0.00390794,0.0109672,1840,1499,11.4544,-8.1374
623,-475,11.45,7.89026,0.00583398,9.29151e-05,-0.00289112,0.00703757,-0.00111068,-0.394485,0.0051024,0.011007,1847,1499,11.4499,-7.89029
630,-475,11.4911,7.6521,0.00749943,0.000422308,-0.00344634,0.00890037,-0.000978631,-0.386098,0.00628524,0.0138179,1854,1499,11.4911,-7.65206
637,-475,11.4906,7.41736,0.00937499,0.000722023,-0.00408749,0.0110005,-0.000903474,-0.378501,0.00765261,0.0263599,1861,1499,11.4906,-7.41731
644,-475,11.3582,7.1532,0,0,0,0,0,0,0,-1,1868,1499,11.3581,-7.15322
651,-475,11.7965,7.57593,0,0,0,0,0,0,0,-1,1875,1499,11.7965,-7.5759
658,-475,11.9166,7.02869,0,0,0,0,0,0,0,-1,1882,1499,11.9167,-7.02864
665,-475,9.33435,5.43335,0,0,0,0,0,0,0,-1,1889,1499,9.33439,-5.43332
672,-475,9.38635,1.10474,0,0,0,0,0,0,0,-1,1896,1499,9.38629,-1.10475
679,-475,12.2594,1.31079,0,0,0,0,0,0,0,-1,1903,1499,12.2594,-1.31077
686,-475,0,0,0,0,0,0,0,0,0,-1,1910,1499,0,0
693,-475,0,0,0,0,0,0,0,0,0,-1,1917,1499,0,0
700,-475,0,0,0,0,0,0,0,0,0,-1,1924,1499,0,0
707,-475,0,0,0,0,0,0,0,0,0,-1,1931,1499,0,0
714,-475,0,0,0,0,0,0,0,0,0,-1,1938,1499,0,0
721,-475,0,0,0,0,0,0,0,0,0,-1,1945,1499,0,0
728,-475,0,0,0,0,0,0,0,0,0,-1,1952,1499,0,0
735,-475,0,0,0,0,0,0,0,0,0,-1,1959,1499,0,0
742,-475,0,0,0,0,0,0,0,0,0,-1,1966,1499,0,0
749,-475,0,0,0,0,0,0,0,0,0,-1,1973,1499,0,0
756,-475,0,0,0,0,0,0,0,0,0,-1,1980,1499,0,0
763,-475,0,0,0,0,0,0,0,0,0,-1,1987,1499,0,0
770,-475,0,0,0,0,0,0,0,0,0,-1,1994,1499,0,0
777,-475,0,0,0,0,0,0,0,0,0,-1,2001,1499,0,0
784,-475,0,0,0,0,0,0,0,0,0,-1,2008,1499,0,0
791,-475,0,0,0,0,0,0,0,0,0,-1,2015,1499,0,0
798,-475,0,0,0,0,0,0,0,0,0,-1,2022,1499,0,0
805,-475,0,0,0,0,0,0,0,0,0,-1,2029,1499,0,0
812,-475,0,0,0,0,0,0,0,0,0,-1,2036,1499,0,0
-700,-482,0,0,0,0,0,0,0,0,0,-1,524,1506,0,0
-693,-482,0,0,0,0,0,0,0,0,0,-1,531,1506,0,0
-686,-482,0,0,0,0,0,0,0,0,0,-1,538,1506,0,0
-679,-482,0,0,0,0,0,0,0,0,0,-1,545,1506,0,0
-672,-482,0,0,0,0,0,0,0,0,0,-1,552,1506,0,0
-665,-482,0,0,0,0,0,0,0,0,0,-1,559,1506,0,0
-658,-482,0,0,0,0,0,0,0,0,0,-1,566,1506,0,0
-651,-482,0,0,0,0,0,0,0,0,0,-1,573,1506,0,0
-644,-482,0,0,0,0,0,0,0,0,0,-1,580,1506,0,0
-637,-482,0,0,0,0,0,0,0,0,0,-1,587,1506,0,0
-630,-482,0,0,0,0,0,0,0,0,0,-1,594,1506,0,0
-623,-482,0,0,0,0,0,0,0,0,0,-1,601,1506,0,0
-616,-482,0,0,0,0,0,0,0,0,0,-1,608,1506,0,0
-609,-482,0,0,0,0,0,0,0,0,0,-1,615,1506,0,0
-602,-482,0,0,0,0,0,0,0,0,0,-1,622,1506,0,0
-595,-482,0,0,0,0,0,0,0,0,0,-1,629,1506,0,0
-588,-482,0,0,0,0,0,0,0,0,0,-1,636,1506,0,0
-581,-482,0,0,0,0,0,0,0,0,0,-1,643,1506,0,0
-574,-482,0,0,0,0,0,0,0,0,0,-1,650,1506,0,0
-567,-482,0,0,0,0,0,0,0,0,0,-1,657,1506,0,0
-560,-482,0,0,0,0,0,0,0,0,0,-1,664,1506,0,0
-553,-482,-9.06055,9.34314,0,0,0,0,0,0,0,-1,671,1506,-9.06056,-9.34312
-546,-482,-4.08624,8.34241,0,0,0,0,0,0,0,-1,678,1506,-4.08624,-8.3424
-539,-482,-2.54572,4.26294,0,0,0,0,0,0,0,-1,685,1506,-2.54573,-4.2629
-532,-482,-2.31592,4.63538,0.0255207,0.0179819,0.020113,0.0422145,0.00128813,0.692768,0.0277236,0.0477986,692,1506,-2.3159,-4.63538
-525,-482,-2.43811,4.82678,0.0217822,0.0140468,0.0158083,0.0341891,0.00163993,0.665423,0.0222662,0.0447114,699,1506,-2.43813,-4.82678
-518,-482,-2.41864,4.75232,0,0,0,0,0,0,0,-1,706,1506,-2.41863,-4.75234
-511,-482,-2.23206,5.08533,0,0,0,0,0,0,0,-1,713,1506,-2.23206,-5.08536
-504,-482,-2.13934,5.43127,0.0108596,0.00509513,0.00599879,0.0146326,0.00132208,0.561448,0.00934561,0.0406067,720,1506,-2.13931,-5.43131
-497,-482,-1.91962,5.94458,0.00800854,0.0032064,0.00387302,0.0101644,0.00105056,0.507919,0.00645463,0.0253567,727,1506,-1.91963,-5.94454
-490,-482,-1.9787,6.18823,0.00573919,0.00182691,0.00223776,0.00675526,0.000810842,0.426223,0.00425903,0.0149488,734,1506,-1.97872,-6.1882
-483,-482,-1.97119,6.46082,0.00408289,0.000652941,0.0009841,0.00434518,0.000390647,0.260477,0.00277575,0.00840968,741,1506,-1.9712,-6.46079
-476,-482,-1.97845,6.71143,0.00281211,-0.000388369,-0.000105508,0.00281558,-0.000391843,-0.0329187,0.00202038,0.00996257,748,1506,-1.97846,-6.7114
-469,-482,-1.98511,6.9751,0.00180205,-0.00124681,-0.00108611,0.00214939,-0.00159415,-0.309524,0.00216924,0.0113622,755,1506,-1.98511,-6.97512
-462,-482,-1.97516,7.245,0.00178808,-0.00194341,-0.00156387,0.00235681,-0.00251215,-0.348802,0.00281157,0.0116147,762,1506,-1.97518,-7.24501
-455,-482,-1.96191,7.4928,0.00204155,-0.00257594,-0.0020341,0.0028098,-0.00334418,-0.361121,0.00355747,0.0115729,769,1506,-1.9619,-7.49278
-448,-482,-1.9715,7.76086,0.00256781,-0.00325328,-0.00256685,0.00353798,-0.00422345,-0.361366,0.00448689,0.0128001,776,1506,-1.97152,-7.76089
-441,-482,-1.9989,8.03052,0.00336895,-0.00385706,-0.00315014,0.00454939,-0.00503751,-0.358533,0.00553739,0.0128454,783,1506,-1.99893,-8.03054
-434,-482,-2.01276,8.28687,0.00432067,-0.00496063,-0.00400501,0.00580993,-0.00644989,-0.356005,0.00708142,0.0146913,790,1506,-2.01276,-8.28691
-427,-482,-2.00629,8.57434,0.00562986,-0.00649528,-0.00518876,0.00754714,-0.00841256,-0.353946,0.00921885,0.0162773,797,1506,-2.00627,-8.5743
-420,-482,-1.92535,8.92297,0.00739851,-0.00844072,-0.00672597,0.00986922,-0.0109114,-0.352038,0.0120027,0.0256066,804,1506,-1.92534,-8.92299
-413,-482,-1.74817,8.95691,0.0091425,-0.0108779,-0.00852281,0.0122793,-0.0140146,-0.352657,0.0151918,0.0366755,811,1506,-1.74815,-8.95694
-406,-482,-1.52911,9.04773,0,0,0,0,0,0,0,-1,818,1506,-1.52913,-9.04776
-399,-482,-1.3822,9.22595,0,0,0,0,0,0,0,-1,825,1506,-1.38221,-9.22598
-392,-482,-1.06836,9.22729,0,0,0,0,0,0,0,-1,832,1506,-1.06835,-9.2273
-385,-482,0.0647583,8.90649,0,0,0,0,0,0,0,-1,839,1506,0.0647778,-8.90644
-378,-482,0.215698,5.96948,0,0,0,0,0,0,0,-1,846,1506,0.215681,-5.9695
-371,-482,-0.10907,8.10437,0,0,0,0,0,0,0,-1,853,1506,-0.109063,-8.10433
-364,-482,-0.154968,10.5032,0,0,0,0,0,0,0,-1,860,1506,-0.154976,-10.5032
-357,-482,2.14807,4.60144,0,0,0,0,0,0,0,-1,867,1506,2.14807,-4.60144
-350,-482,-7.5813,-1.45935,0,0,0,0,0,0,0,-1,874,1506,-7.58133,1.45937
-343,-482,-7.19983,-1.26416,0,0,0,0,0,0,0,-1,881,1506,-7.19981,1.26414
-336,-482,-6.78491,-1.18127,0,0,0,0,0,0,0,-1,888,1506,-6.78488,1.18125
-329,-482,0,0,0,0,0,0,0,0,0,-1,895,1506,0,0
-322,-482,0,0,0,0,0,0,0,0,0,-1,902,1506,0,0
-315,-482,0,0,0,0,0,0,0,0,0,-1,909,1506,0,0
-308,-482,0,0,0,0,0,0,0,0,0,-1,916,1506,0,0
-301,-482,0,0,0,0,0,0,0,0,0,-1,923,1506,0,0
-294,-482,0,0,0,0,0,0,0,0,0,-1,930,1506,0,0
-287,-482,0,0,0,0,0,0,0,0,0,-1,937,1506,0,0
-280,-482,0,0,0,0,0,0,0,0,0,-1,944,1506,0,0
-273,-482,0,0,0,0,0,0,0,0,0,-1,951,1506,0,0
-266,-482,0,0,0,0,0,0,0,0,0,-1,958,1506,0,0
-259,-482,0,0,0,0,0,0,0,0,0,-1,965,1506,0,0
-252,-482,0,0,0,0,0,0,0,0,0,-1,972,1506,0,0
-245,-482,0,0,0,0,0,0,0,0,0,-1,979,1506,0,0
-238,-482,0,0,0,0,0,0,0,0,0,-1,986,1506,0,0
-231,-482,0,0,0,0,0,0,0,0,0,-1,993,1506,0,0
-224,-482,0,0,0,0,0,0,0,0,0,-1,1000,1506,0,0
-217,-482,0,0,0,0,0,0,0,0,0,-1,1007,1506,0,0
-210,-482,0,0,0,0,0,0,0,0,0,-1,1014,1506,0,0
-203,-482,0,0,0,0,0,0,0,0,0,-1,1021,1506,0,0
-196,-482,0,0,0,0,0,0,0,0,0,-1,1028,1506,0,0
-189,-482,0,0,0,0,0,0,0,0,0,-1,1035,1506,0,0
-182,-482,0,0,0,0,0,0,0,0,0,-1,1042,1506,0,0
-175,-482,0,0,0,0,0,0,0,0,0,-1,1049,1506,0,0
-168,-482,0,0,0,0,0,0,0,0,0,-1,1056,1506,0,0
-161,-482,0,0,0,0,0,0,0,0,0,-1,1063,1506,0,0
-154,-482,0,0,0,0,0,0,0,0,0,-1,1070,1506,0,0
-147,-482,0,0,0,0,0,0,0,0,0,-1,1077,1506,0,0
-140,-482,0,0,0,0,0,0,0,0,0,-1,1084,1506,0,0
-133,-482,0,0,0,0,0,0,0,0,0,-1,1091,1506,0,0
-126,-482,0,0,0,0,0,0,0,0,0,-1,1098,1506,0,0
-119,-482,0,0,0,0,0,0,0,0,0,-1,1105,1506,0,0
-112,-482,0,0,0,0,0,0,0,0,0,-1,1112,1506,0,0
-105,-482,0,0,0,0,0,0,0,0,0,-1,1119,1506,0,0
-98,-482,0,0,0,0,0,0,0,0,0,-1,1126,1506,0,0
-91,-482,0,0,0,0,0,0,0,0,0,-1,1133,1506,0,0
-84,-482,0,0,0,0,0,0,0,0,0,-1,1140,1506,0,0
-77,-482,0,0,0,0,0,0,0,0,0,-1,1147,1506,0,0
-70,-482,0,0,0,0,0,0,0,0,0,-1,1154,1506,0,0
-63,-482,0,0,0,0,0,0,0,0,0,-1,1161,1506,0,0
-56,-482,0,0,0,0,0,0,0,0,0,-1,1168,1506,0,0
-49,-482,0,0,0,0,0,0,0,0,0,-1,1175,1506,0,0
-42,-482,0,0,0,0,0,0,0,0,0,-1,1182,1506,0,0
-35,-482,0,0,0,0,0,0,0,0,0,-1,1189,1506,0,0
-28,-482,0,0,0,0,0,0,0,0,0,-1,1196,1506,0,0
-21,-482,0,0,0,0,0,0,0,0,0,-1,1203,1506,0,0
-14,-482,0,0,0,0,0,0,0,0,0,-1,1210,1506,0,0
-7,-482,0,0,0,0,0,0,0,0,0,-1,1217,1506,0,0
0,-482,0,0,0,0,0,0,0,0,0,-1,1224,1506,0,0
7,-482,0,0,0,0,0,0,0,0,0,-1,1231,1506,0,0
14,-482,0,0,0,0,0,0,0,0,0,-1,1238,1506,0,0
21,-482,0,0,0,0,0,0,0,0,0,-1,1245,1506,0,0
28,-482,0,0,0,0,0,0,0,0,0,-1,1252,1506,0,0
35,-482,0,0,0,0,0,0,0,0,0,-1,1259,1506,0,0
42,-482,0,0,0,0,0,0,0,0,0,-1,1266,1506,0,0
49,-482,0,0,0,0,0,0,0,0,0,-1,1273,1506,0,0
56,-482,0,0,0,0,0,0,0,0,0,-1,1280,1506,0,0
63,-482,0,0,0,0,0,0,0,0,0,-1,1287,1506,0,0
70,-482,0,0,0,0,0,0,0,0,0,-1,1294,1506,0,0
77,-482,0,0,0,0,0,0,0,0,0,-1,1301,1506,0,0
84,-482,0,0,0,0,0,0,0,0,0,-1,1308,1506,0,0
91,-482,0,0,0,0,0,0,0,0,0,-1,1315,1506,0,0
98,-482,0,0,0,0,0,0,0,0,0,-1,1322,1506,0,0
105,-482,0,0,0,0,0,0,0,0,0,-1,1329,1506,0,0
112,-482,0,0,0,0,0,0,0,0,0,-1,1336,1506,0,0
119,-482,0,0,0,0,0,0,0,0,0,-1,1343,1506,0,0
126,-482,0,0,0,0,0,0,0,0,0,-1,1350,1506,0,0
133,-482,0,0,0,0,0,0,0,0,0,-1,1357,1506,0,0
140,-482,0,0,0,0,0,0,0,0,0,-1,1364,1506,0,0
147,-482,0,0,0,0,0,0,0,0,0,-1,1371,1506,0,0
154,-482,0,0,0,0,0,0,0,0,0,-1,1378,1506,0,0
161,-482,0,0,0,0,0,0,0,0,0,-1,1385,1506,0,0
168,-482,0,0,0,0,0,0,0,0,0,-1,1392,1506,0,0
175,-482,0,0,0,0,0,0,0,0,0,-1,1399,1506,0,0
182,-482,0,0,0,0,0,0,0,0,0,-1,1406,1506,0,0
189,-482,0,0,0,0,0,0,0,0,0,-1,1413,1506,0,0
196,-482,0,0,0,0,0,0,0,0,0,-1,1420,1506,0,0
203,-482,0,0,0,0,0,0,0,0,0,-1,1427,1506,0,0
210,-482,0,0,0,0,0,0,0,0,0,-1,1434,1506,0,0
217,-482,0,0,0,0,0,0,0,0,0,-1,1441,1506,0,0
224,-482,0,0,0,0,0,0,0,0,0,-1,1448,1506,0,0
231,-482,0,0,0,0,0,0,0,0,0,-1,1455,1506,0,0
238,-482,0,0,0,0,0,0,0,0,0,-1,1462,1506,0,0
245,-482,0,0,0,0,0,0,0,0,0,-1,1469,1506,0,0
252,-482,0,0,0,0,0,0,0,0,0,-1,1476,1506,0,0
259,-482,0,0,0,0,0,0,0,0,0,-1,1483,1506,0,0
266,-482,0,0,0,0,0,0,0,0,0,-1,1490,1506,0,0
273,-482,0,0,0,0,0,0,0,0,0,-1,1497,1506,0,0
280,-482,0,0,0,0,0,0,0,0,0,-1,1504,1506,0,0
287,-482,0,0,0,0,0,0,0,0,0,-1,1511,1506,0,0
294,-482,0,0,0,0,0,0,0,0,0,-1,1518,1506,0,0
301,-482,0,0,0,0,0,0,0,0,0,-1,1525,1506,0,0
308,-482,0,0,0,0,0,0,0,0,0,-1,1532,1506,0,0
315,-482,0,0,0,0,0,0,0,0,0,-1,1539,1506,0,0
322,-482,0,0,0,0,0,0,0,0,0,-1,1546,1506,0,0
329,-482,0,0,0,0,0,0,0,0,0,-1,1553,1506,0,0
336,-482,0,0,0,0,0,0,0,0,0,-1,1560,1506,0,0
343,-482,0,0,0,0,0,0,0,0,0,-1,1567,1506,0,0
350,-482,0,0,0,0,0,0,0,0,0,-1,1574,1506,0,0
357,-482,0,0,0,0,0,0,0,0,0,-1,1581,1506,0,0
364,-482,0,0,0,0,0,0,0,0,0,-1,1588,1506,0,0
371,-482,0,0,0,0,0,0,0,0,0,-1,1595,1506,0,0
378,-482,0,0,0,0,0,0,0,0,0,-1,1602,1506,0,0
385,-482,0,0,0,0,0,0,0,0,0,-1,1609,1506,0,0
392,-482,0,0,0,0,0,0,0,0,0,-1,1616,1506,0,0
399,-482,0,0,0,0,0,0,0,0,0,-1,1623,1506,0,0
406,-482,0,0,0,0,0,0,0,0,0,-1,1630,1506,0,0
413,-482,0,0,0,0,0,0,0,0,0,-1,1637,1506,0,0
420,-482,0,0,0,0,0,0,0,0,0,-1,1644,1506,0,0
427,-482,0,0,0,0,0,0,0,0,0,-1,1651,1506,0,0
434,-482,0,0,0,0,0,0,0,0,0,-1,1658,1506,0,0
441,-482,0,0,0,0,0,0,0,0,0,-1,1665,1506,0,0
448,-482,4.24146,1.55383,0,0,0,0,0,0,0,-1,1672,1506,4.24149,-1.55381
455,-482,12.4122,1.09729,0,0,0,0,0,0,0,-1,1679,1506,12.4122,-1.09734
462,-482,15.0673,3.13135,0,0,0,0,0,0,0,-1,1686,1506,15.0672,-3.13134
469,-482,15.3793,3.46301,0,0,0,0,0,0,0,-1,1693,1506,15.3793,-3.46307
476,-482,8.69751,9.18738,0,0,0,0,0,0,0,-1,1700,1506,8.69753,-9.18739
483,-482,10.0902,7.17432,0,0,0,0,0,0,0,-1,1707,1506,10.0902,-7.1743
490,-482,11.6289,5.4928,0,0,0,0,0,0,0,-1,1714,1506,11.6289,-5.49283
497,-482,15.9539,7.40222,0,0,0,0,0,0,0,-1,1721,1506,15.9538,-7.40219
504,-482,15.1053,8.61194,0,0,0,0,0,0,0,-1,1728,1506,15.1053,-8.61199
511,-482,14.1112,9.73108,0,0,0,0,0,0,0,-1,1735,1506,14.1112,-9.73106
518,-482,12.9192,10.7327,0,0,0,0,0,0,0,-1,1742,1506,12.9192,-10.7326
525,-482,11.4561,9.3833,0,0,0,0,0,0,0,-1,1749,1506,11.4561,-9.38331
532,-482,11.4888,9.84839,-0.0149112,-0.0240129,0.0223973,0.00339286,-0.042317,0.685168,0.0294076,0.0419261,1756,1506,11.4887,-9.84837
539,-482,11.4054,10.3788,-0.0131475,-0.0183531,0.0171262,0.00157253,-0.0330731,0.709986,0.0225912,0.0298963,1763,1506,11.4054,-10.3788
546,-482,11.295,10.347,-0.0112695,-0.0136959,0.0129132,0.000487363,-0.0254528,0.73856,0.0171333,0.0167478,1770,1506,11.295,-10.347
553,-482,11.2391,10.198,-0.00955557,-0.0103318,0.00964881,-0.000287071,-0.0196003,0.765297,0.0129722,0.0151092,1777,1506,11.2391,-10.198
560,-482,11.2172,9.98181,-0.00770709,-0.00766818,0.00687189,-0.000815713,-0.0145596,0.786814,0.00944621,0.0120178,1784,1506,11.2172,-9.98185
567,-482,11.2582,9.74097,-0.00553854,-0.00561911,0.00458786,-0.000990786,-0.0101669,0.781008,0.00647297,0.013809,1791,1506,11.2582,-9.74093
574,-482,11.2463,9.51672,-0.00328369,-0.00376157,0.00282203,-0.000690507,-0.00635475,0.743164,0.00402612,0.013249,1798,1506,11.2463,-9.51678
581,-482,11.2288,9.27637,-0.00139573,-0.00220198,0.00125509,-0.000480611,-0.00311709,0.630005,0.00193783,0.00943368,1805,1506,11.2288,-9.27639
588,-482,11.2284,9.06128,0.000499368,-0.00140791,-0.000155471,0.000511958,-0.0014205,-0.0808038,0.00115608,0.00984073,1812,1506,11.2284,-9.06127
595,-482,11.2379,8.84009,0.00235099,-0.000355812,-0.00126194,0.00284804,-0.000852864,-0.37522,0.00223782,0.0165208,1819,1506,11.238,-8.84003
602,-482,11.2719,8.5697,0.00405505,0.000326077,-0.00220304,0.00507669,-0.00069556,-0.43422,0.00363854,0.0210294,1826,1506,11.2718,-8.56967
609,-482,11.2388,8.33533,0.00580863,0.000593342,-0.00315776,0.00729626,-0.000894289,-0.440264,0.00518803,0.0161404,1833,1506,11.2388,-8.33534
616,-482,11.2253,8.12378,0.00749924,0.000743331,-0.00412735,0.00945473,-0.00121216,-0.442459,0.00674362,0.0113466,1840,1506,11.2253,-8.12372
623,-482,11.2323,7.88818,0.00920687,0.000597273,-0.00500174,0.0115012,-0.00169707,-0.430073,0.00829126,0.012003,1847,1506,11.2323,-7.88818
630,-482,11.2781,7.68286,0.011209,0.000822456,-0.00582946,0.0138229,-0.0017915,-0.421526,0.00986682,0.0232388,1854,1506,11.2781,-7.68283
637,-482,11.2418,7.80908,0.0134852,0.000971246,-0.00676637,0.0164441,-0.00198772,-0.412247,0.0116818,0.0498156,1861,1506,11.2418,-7.80903
644,-482,11.149,7.69128,0,0,0,0,0,0,0,-1,1868,1506,11.1491,-7.69124
651,-482,4.03845,7.05273,0,0,0,0,0,0,0,-1,1875,1506,4.03843,-7.05279
658,-482,10.0278,5.87903,0,0,0,0,0,0,0,-1,1882,1506,10.0279,-5.87902
665,-482,8.15198,3.22229,0,0,0,0,0,0,0,-1,1889,1506,8.15199,-3.22232
672,-482,9.87415,1.3147,0,0,0,0,0,0,0,-1,1896,1506,9.87416,-1.31473
679,-482,0,0,0,0,0,0,0,0,0,-1,1903,1506,0,0
686,-482,0,0,0,0,0,0,0,0,0,-1,1910,1506,0,0
693,-482,0,0,0,0,0,0,0,0,0,-1,1917,1506,0,0
700,-482,0,0,0,0,0,0,0,0,0,-1,1924,1506,0,0
707,-482,0,0,0,0,0,0,0,0,0,-1,1931,1506,0,0
714,-482,0,0,0,0,0,0,0,0,0,-1,1938,1506,0,0
721,-482,0,0,0,0,0,0,0,0,0,-1,1945,1506,0,0
728,-482,0,0,0,0,0,0,0,0,0,-1,1952,1506,0,0
735,-482,0,0,0,0,0,0,0,0,0,-1,1959,1506,0,0
742,-482,0,0,0,0,0,0,0,0,0,-1,1966,1506,0,0
749,-482,0,0,0,0,0,0,0,0,0,-1,1973,1506,0,0
756,-482,0,0,0,0,0,0,0,0,0,-1,1980,1506,0,0
763,-482,0,0,0,0,0,0,0,0,0,-1,1987,1506,0,0
770,-482,0,0,0,0,0,0,0,0,0,-1,1994,1506,0,0
777,-482,0,0,0,0,0,0,0,0,0,-1,2001,1506,0,0
784,-482,0,0,0,0,0,0,0,0,0,-1,2008,1506,0,0
791,-482,0,0,0,0,0,0,0,0,0,-1,2015,1506,0,0
798,-482,0,0,0,0,0,0,0,0,0,-1,2022,1506,0,0
805,-482,0,0,0,0,0,0,0,0,0,-1,2029,1506,0,0
812,-482,0,0,0,0,0,0,0,0,0,-1,2036,1506,0,0
-700,-489,0,0,0,0,0,0,0,0,0,-1,524,1513,0,0
-693,-489,0,0,0,0,0,0,0,0,0,-1,531,1513,0,0
-686,-489,0,0,0,0,0,0,0,0,0,-1,538,1513,0,0
-679,-489,0,0,0,0,0,0,0,0,0,-1,545,1513,0,0
-672,-489,0,0,0,0,0,0,0,0,0,-1,552,1513,0,0
-665,-489,0,0,0,0,0,0,0,0,0,-1,559,1513,0,0
-658,-489,0,0,0,0,0,0,0,0,0,-1,566,1513,0,0
-651,-489,0,0,0,0,0,0,0,0,0,-1,573,1513,0,0
-644,-489,0,0,0,0,0,0,0,0,0,-1,580,1513,0,0
-637,-489,0,0,0,0,0,0,0,0,0,-1,587,1513,0,0
-630,-489,0,0,0,0,0,0,0,0,0,-1,594,1513,0,0
-623,-489,0,0,0,0,0,0,0,0,0,-1,601,1513,0,0
-616,-489,0,0,0,0,0,0,0,0,0,-1,608,1513,0,0
-609,-489,0,0,0,0,0,0,0,0,0,-1,615,1513,0,0
-602,-489,0,0,0,0,0,0,0,0,0,-1,622,1513,0,0
-595,-489,0,0,0,0,0,0,0,0,0,-1,629,1513,0,0
-588,-489,0,0,0,0,0,0,0,0,0,-1,636,1513,0,0
-581,-489,0,0,0,0,0,0,0,0,0,-1,643,1513,0,0
-574,-489,0,0,0,0,0,0,0,0,0,-1,650,1513,0,0
-567,-489,0,0,0,0,0,0,0,0,0,-1,657,1513,0,0
-560,-489,0,0,0,0,0,0,0,0,0,-1,664,1513,0,0
-553,-489,-9.42206,8.5116,0,0,0,0,0,0,0,-1,671,1513,-9.42205,-8.51158
-546,-489,-7.80951,8.18506,0,0,0,0,0,0,0,-1,678,1513,-7.8095,-8.18503
-539,-489,-3.61237,7.19727,0,0,0,0,0,0,0,-1,685,1513,-3.61238,-7.19723
-532,-489,-1.96118,4.62402,0,0,0,0,0,0,0,-1,692,1513,-1.96115,-4.62404
-525,-489,-2.1391,4.70581,0.0213042,0.0130277,0.0130214,0.030829,0.00350277,0.631543,0.0194903,0.0456994,699,1513,-2.13912,-4.70583
-518,-489,-2.02283,5.18628,0,0,0,0,0,0,0,-1,706,1513,-2.02282,-5.18622
-511,-489,-2.16296,4.51416,0,0,0,0,0,0,0,-1,713,1513,-2.16299,-4.51413
-504,-489,-1.70844,4.96118,0,0,0,0,0,0,0,-1,720,1513,-1.70844,-4.96113
-497,-489,-1.25391,5.40808,0,0,0,0,0,0,0,-1,727,1513,-1.25389,-5.40812
-490,-489,-1.63959,6.21729,0.00762896,0.00211772,0.00201822,0.00828899,0.00145769,0.316071,0.00510988,0.0229937,734,1513,-1.63956,-6.21729
-483,-489,-1.7218,6.44287,0.00570657,0.00107126,0.000936863,0.00588876,0.000889067,0.192073,0.0036656,0.0110846,741,1513,-1.72182,-6.44292
-476,-489,-1.72101,6.71375,0.0041959,0.000214478,7.88322e-05,0.00419746,0.000212918,0.0197897,0.0027301,0.00986449,748,1513,-1.72098,-6.71371
-469,-489,-1.72437,6.9939,0.00294473,-0.000515594,-0.000634029,0.00305725,-0.000628107,-0.17563,0.0022766,0.0112001,755,1513,-1.72437,-6.99394
-462,-489,-1.71515,7.25659,0.00255207,-0.00102667,-0.00088243,0.00275783,-0.00123243,-0.229076,0.00235922,0.0149617,762,1513,-1.71517,-7.25655
-455,-489,-1.71942,7.50513,0.00248659,-0.0014971,-0.00111587,0.00277786,-0.00178837,-0.255327,0.00265686,0.0180728,769,1513,-1.71942,-7.50518
-448,-489,-1.72723,7.73877,0.00270101,-0.00203249,-0.00140425,0.00308625,-0.00241773,-0.267749,0.00318552,0.0170359,776,1513,-1.72723,-7.73877
-441,-489,-1.72906,8.02905,0.0032002,-0.00248179,-0.00171688,0.00367868,-0.00296027,-0.271796,0.00384048,0.0148192,783,1513,-1.72906,-8.02904
-434,-489,-1.78711,8.29858,0.00388361,-0.00335361,-0.00225702,0.00452979,-0.00399979,-0.278842,0.00492773,0.016675,790,1513,-1.78711,-8.29864
-427,-489,-1.79749,8.57935,0.00490264,-0.00467867,-0.00304931,0.00579077,-0.00556681,-0.283417,0.00655773,0.0182217,797,1513,-1.79751,-8.57931
-420,-489,-1.77179,8.88879,0.00643412,-0.006396,-0.00413259,0.00765001,-0.00761188,-0.286144,0.00881147,0.018186,804,1513,-1.77179,-8.88884
-413,-489,-1.5152,9.07483,0.00798782,-0.00846415,-0.00542689,0.00961668,-0.010093,-0.291591,0.0113805,0.0295261,811,1513,-1.51518,-9.07479
-406,-489,-1.37891,9.44116,0,0,0,0,0,0,0,-1,818,1513,-1.37894,-9.44115
-399,-489,-1.41241,9.10718,0,0,0,0,0,0,0,-1,825,1513,-1.41244,-9.10722
-392,-489,-1.0368,9.30469,0,0,0,0,0,0,0,-1,832,1513,-1.03682,-9.30466
-385,-489,-1.29095,9.50073,0,0,0,0,0,0,0,-1,839,1513,-1.29096,-9.50077
-378,-489,-0.401428,9.87048,0,0,0,0,0,0,0,-1,846,1513,-0.401415,-9.87047
-371,-489,-1.11633,10.6606,0,0,0,0,0,0,0,-1,853,1513,-1.11633,-10.6606
-364,-489,-0.503113,8.98486,0,0,0,0,0,0,0,-1,860,1513,-0.503097,-8.98482
-357,-489,-0.609924,10.9606,0,0,0,0,0,0,0,-1,867,1513,-0.609947,-10.9605
-350,-489,-7.94659,-0.358887,0,0,0,0,0,0,0,-1,874,1513,-7.94657,0.358912
-343,-489,-7.49323,-0.437866,0,0,0,0,0,0,0,-1,881,1513,-7.49322,0.437823
-336,-489,-7.02332,-0.53125,0,0,0,0,0,0,0,-1,888,1513,-7.0233,0.531295
-329,-489,-6.70221,-0.242432,0,0,0,0,0,0,0,-1,895,1513,-6.70221,0.2424
-322,-489,0,0,0,0,0,0,0,0,0,-1,902,1513,0,0
-315,-489,0,0,0,0,0,0,0,0,0,-1,909,1513,0,0
-308,-489,0,0,0,0,0,0,0,0,0,-1,916,1513,0,0
-301,-489,0,0,0,0,0,0,0,0,0,-1,923,1513,0,0
-294,-489,0,0,0,0,0,0,0,0,0,-1,930,1513,0,0
-287,-489,0,0,0,0,0,0,0,0,0,-1,937,1513,0,0
-280,-489,0,0,0,0,0,0,0,0,0,-1,944,1513,0,0
-273,-489,0,0,0,0,0,0,0,0,0,-1,951,1513,0,0
-266,-489,0,0,0,0,0,0,0,0,0,-1,958,1513,0,0
-259,-489,0,0,0,0,0,0,0,0,0,-1,965,1513,0,0
-252,-489,0,0,0,0,0,0,0,0,0,-1,972,1513,0,0
-245,-489,0,0,0,0,0,0,0,0,0,-1,979,1513,0,0
-238,-489,0,0,0,0,0,0,0,0,0,-1,986,1513,0,0
-231,-489,0,0,0,0,0,0,0,0,0,-1,993,1513,0,0
-224,-489,0,0,0,0,0,0,0,0,0,-1,1000,1513,0,0
-217,-489,0,0,0,0,0,0,0,0,0,-1,1007,1513,0,0
-210,-489,0,0,0,0,0,0,0,0,0,-1,1014,1513,0,0
-203,-489,0,0,0,0,0,0,0,0,0,-1,1021,1513,0,0
-196,-489,0,0,0,0,0,0,0,0,0,-1,1028,1513,0,0
-189,-489,0,0,0,0,0,0,0,0,0,-1,1035,1513,0,0
-182,-489,0,0,0,0,0,0,0,0,0,-1,1042,1513,0,0
-175,-489,0,0,0,0,0,0,0,0,0,-1,1049,1513,0,0
-168,-489,0,0,0,0,0,0,0,0,0,-1,1056,1513,0,0
-161,-489,0,0,0,0,0,0,0,0,0,-1,1063,1513,0,0
-154,-489,0,0,0,0,0,0,0,0,0,-1,1070,1513,0,0
-147,-489,0,0,0,0,0,0,0,0,0,-1,1077,1513,0,0
-140,-489,0,0,0,0,0,0,0,0,0,-1,1084,1513,0,0
-133,-489,0,0,0,0,0,0,0,0,0,-1,1091,1513,0,0
-126,-489,0,0,0,0,0,0,0,0,0,-1,1098,1513,0,0
-119,-489,0,0,0,0,0,0,0,0,0,-1,1105,1513,0,0
-112,-489,0,0,0,0,0,0,0,0,0,-1,1112,1513,0,0
-105,-489,0,0,0,0,0,0,0,0,0,-1,1119,1513,0,0
-98,-489,0,0,0,0,0,0,0,0,0,-1,1126,1513,0,0
-91,-489,0,0,0,0,0,0,0,0,0,-1,1133,1513,0,0
-84,-489,0,0,0,0,0,0,0,0,0,-1,1140,1513,0,0
-77,-489,0,0,0,0,0,0,0,0,0,-1,1147,1513,0,0
-70,-489,0,0,0,0,0,0,0,0,0,-1,1154,1513,0,0
-63,-489,0,0,0,0,0,0,0,0,0,-1,1161,1513,0,0
-56,-489,0,0,0,0,0,0,0,0,0,-1,1168,1513,0,0
-49,-489,0,0,0,0,0,0,0,0,0,-1,1175,1513,0,0
-42,-489,0,0,0,0,0,0,0,0,0,-1,1182,1513,0,0
-35,-489,0,0,0,0,0,0,0,0,0,-1,1189,1513,0,0
-28,-489,0,0,0,0,0,0,0,0,0,-1,1196,1513,0,0
-21,-489,0,0,0,0,0,0,0,0,0,-1,1203,1513,0,0
-14,-489,0,0,0,0,0,0,0,0,0,-1,1210,1513,0,0
-7,-489,0,0,0,0,0,0,0,0,0,-1,1217,1513,0,0
0,-489,0,0,0,0,0,0,0,0,0,-1,1224,1513,0,0
7,-489,0,0,0,0,0,0,0,0,0,-1,1231,1513,0,0
14,-489,0,0,0,0,0,0,0,0,0,-1,1238,1513,0,0
21,-489,0,0,0,0,0,0,0,0,0,-1,1245,1513,0,0
28,-489,0,0,0,0,0,0,0,0,0,-1,1252,1513,0,0
35,-489,0,0,0,0,0,0,0,0,0,-1,1259,1513,0,0
42,-489,0,0,0,0,0,0,0,0,0,-1,1266,1513,0,0
49,-489,0,0,0,0,0,0,0,0,0,-1,1273,1513,0,0
56,-489,0,0,0,0,0,0,0,0,0,-1,1280,1513,0,0
63,-489,0,0,0,0,0,0,0,0,0,-1,1287,1513,0,0
70,-489,0,0,0,0,0,0,0,0,0,-1,1294,1513,0,0
77,-489,0,0,0,0,0,0,0,0,0,-1,1301,1513,0,0
84,-489,0,0,0,0,0,0,0,0,0,-1,1308,1513,0,0
91,-489,0,0,0,0,0,0,0,0,0,-1,1315,1513,0,0
98,-489,0,0,0,0,0,0,0,0,0,-1,1322,1513,0,0
105,-489,0,0,0,0,0,0,0,0,0,-1,1329,1513,0,0
112,-489,0,0,0,0,0,0,0,0,0,-1,1336,1513,0,0
119,-489,0,0,0,0,0,0,0,0,0,-1,1343,1513,0,0
126,-489,0,0,0,0,0,0,0,0,0,-1,1350,1513,0,0
133,-489,0,0,0,0,0,0,0,0,0,-1,1357,1513,0,0
140,-489,0,0,0,0,0,0,0,0,0,-1,1364,1513,0,0
147,-489,0,0,0,0,0,0,0,0,0,-1,1371,1513,0,0
154,-489,0,0,0,0,0,0,0,0,0,-1,1378,1513,0,0
161,-489,0,0,0,0,0,0,0,0,0,-1,1385,1513,0,0
168,-489,0,0,0,0,0,0,0,0,0,-1,1392,1513,0,0
175,-489,0,0,0,0,0,0,0,0,0,-1,1399,1513,0,0
182,-489,0,0,0,0,0,0,0,0,0,-1,1406,1513,0,0
189,-489,0,0,0,0,0,0,0,0,0,-1,1413,1513,0,0
196,-489,0,0,0,0,0,0,0,0,0,-1,1420,1513,0,0
203,-489,0,0,0,0,0,0,0,0,0,-1,1427,1513,0,0
210,-489,0,0,0,0,0,0,0,0,0,-1,1434,1513,0,0
217,-489,0,0,0,0,0,0,0,0,0,-1,1441,1513,0,0
224,-489,0,0,0,0,0,0,0,0,0,-1,1448,1513,0,0
231,-489,0,0,0,0,0,0,0,0,0,-1,1455,1513,0,0
238,-489,0,0,0,0,0,0,0,0,0,-1,1462,1513,0,0
245,-489,0,0,0,0,0,0,0,0,0,-1,1469,1513,0,0
252,-489,0,0,0,0,0,0,0,0,0,-1,1476,1513,0,0
259,-489,0,0,0,0,0,0,0,0,0,-1,1483,1513,0,0
266,-489,0,0,0,0,0,0,0,0,0,-1,1490,1513,0,0
273,-489,0,0,0,0,0,0,0,0,0,-1,1497,1513,0,0
280,-489,0,0,0,0,0,0,0,0,0,-1,1504,1513,0,0
287,-489,0,0,0,0,0,0,0,0,0,-1,1511,1513,0,0
294,-489,0,0,0,0,0,0,0,0,0,-1,1518,1513,0,0
301,-489,0,0,0,0,0,0,0,0,0,-1,1525,1513,0,0
308,-489,0,0,0,0,0,0,0,0,0,-1,1532,1513,0,0
315,-489,0,0,0,0,0,0,0,0,0,-1,1539,1513,0,0
322,-489,0,0,0,0,0,0,0,0,0,-1,1546,1513,0,0
329,-489,0,0,0,0,0,0,0,0,0,-1,1553,1513,0,0
336,-489,0,0,0,0,0,0,0,0,0,-1,1560,1513,0,0
343,-489,0,0,0,0,0,0,0,0,0,-1,1567,1513,0,0
350,-489,0,0,0,0,0,0,0,0,0,-1,1574,1513,0,0
357,-489,0,0,0,0,0,0,0,0,0,-1,1581,1513,0,0
364,-489,0,0,0,0,0,0,0,0,0,-1,1588,1513,0,0
371,-489,0,0,0,0,0,0,0,0,0,-1,1595,1513,0,0
378,-489,0,0,0,0,0,0,0,0,0,-1,1602,1513,0,0
385,-489,0,0,0,0,0,0,0,0,0,-1,1609,1513,0,0
392,-489,0,0,0,0,0,0,0,0,0,-1,1616,1513,0,0
399,-489,0,0,0,0,0,0,0,0,0,-1,1623,1513,0,0
406,-489,0,0,0,0,0,0,0,0,0,-1,1630,1513,0,0
413,-489,0,0,0,0,0,0,0,0,0,-1,1637,1513,0,0
420,-489,0,0,0,0,0,0,0,0,0,-1,1644,1513,0,0
427,-489,0,0,0,0,0,0,0,0,0,-1,1651,1513,0,0
434,-489,0,0,0,0,0,0,0,0,0,-1,1658,1513,0,0
441,-489,11.4602,2.56787,0,0,0,0,0,0,0,-1,1665,1513,11.4602,-2.56786
448,-489,12.4425,1.72351,0,0,0,0,0,0,0,-1,1672,1513,12.4425,-1.72349
455,-489,12.5575,1.37463,0,0,0,0,0,0,0,-1,1679,1513,12.5575,-1.37469
462,-489,14.9784,3.84888,0,0,0,0,0,0,0,-1,1686,1513,14.9784,-3.84892
469,-489,15.1367,4.53101,0,0,0,0,0,0,0,-1,1693,1513,15.1368,-4.531
476,-489,15.5536,5.09338,0,0,0,0,0,0,0,-1,1700,1513,15.5536,-5.09339
483,-489,8.96912,8.37805,0,0,0,0,0,0,0,-1,1707,1513,8.96909,-8.37809
490,-489,10.5366,7.49561,0,0,0,0,0,0,0,-1,1714,1513,10.5367,-7.49558
497,-489,12.3383,7.61121,0,0,0,0,0,0,0,-1,1721,1513,12.3383,-7.61126
504,-489,14.3026,10.8384,0,0,0,0,0,0,0,-1,1728,1513,14.3027,-10.8384
511,-489,13.1381,9.75354,0,0,0,0,0,0,0,-1,1735,1513,13.138,-9.75358
518,-489,11.6432,10.1964,0,0,0,0,0,0,0,-1,1742,1513,11.6432,-10.1964
525,-489,11.0912,10.1588,0,0,0,0,0,0,0,-1,1749,1513,11.0912,-10.1588
532,-489,10.9636,10.0459,0,0,0,0,0,0,0,-1,1756,1513,10.9636,-10.0458
539,-489,11.0732,10.5753,-0.00945866,-0.0162286,0.0155078,0.00302926,-0.0287165,0.677946,0.0202298,0.0171032,1763,1513,11.0732,-10.5753
546,-489,10.993,10.4275,-0.00804646,-0.0117519,0.01163,0.00187748,-0.0216758,0.70641,0.0151153,0.0106235,1770,1513,10.993,-10.4275
553,-489,10.9951,10.2222,-0.00665221,-0.00856765,0.00847856,0.000922552,-0.0161424,0.729158,0.0110819,0.0140982,1777,1513,10.9951,-10.2222
560,-489,11.0181,9.98975,-0.00502125,-0.00598699,0.00576046,0.000276536,-0.0112848,0.743583,0.00761704,0.0127196,1784,1513,11.018,-9.9897
567,-489,11.0365,9.76672,-0.0028792,-0.00408217,0.00342651,-1.78511e-06,-0.00695959,0.698514,0.00463913,0.0138265,1791,1513,11.0365,-9.7667
574,-489,10.9945,9.55249,-0.000617428,-0.00234686,0.00157353,0.000313331,-0.00327762,0.534153,0.00229666,0.0136704,1798,1513,10.9946,-9.5525
581,-489,11.0067,9.30115,0.00130972,-0.000891136,-0.00012636,0.00131695,-0.000898367,-0.0571639,0.0012866,0.0101584,1805,1513,11.0068,-9.30111
588,-489,11.0076,9.06677,0.00332524,-0.000157407,-0.00167462,0.00399981,-0.000831981,-0.382937,0.0029828,0.0127416,1812,1513,11.0076,-9.06682
595,-489,11.0083,8.83826,0.00539804,0.000801828,-0.00297258,0.00685727,-0.000657398,-0.456337,0.00480566,0.0195253,1819,1513,11.0083,-8.83821
602,-489,11.0171,8.58435,0.00740718,0.00138426,-0.00412675,0.00950443,-0.000712989,-0.470194,0.00658683,0.0257325,1826,1513,11.017,-8.58437
609,-489,11.007,8.34521,0.00948812,0.00158756,-0.00528408,0.0121353,-0.0010596,-0.464422,0.00846552,0.0173042,1833,1513,11.0069,-8.34516
616,-489,10.9913,8.12219,0.0115932,0.00159165,-0.00648367,0.0147806,-0.00159572,-0.456904,0.0104264,0.00988982,1840,1513,10.9913,-8.12215
623,-489,11.0034,7.90295,0.0137578,0.0012328,-0.00767147,0.0173983,-0.00240776,-0.443088,0.0124791,0.0152838,1847,1513,11.0034,-7.90298
630,-489,10.9344,7.72961,0.0161423,0.00111006,-0.00888767,0.0202659,-0.00301353,-0.434408,0.014619,0.03686,1854,1513,10.9345,-7.7296
637,-489,10.9991,8.29883,0,0,0,0,0,0,0,-1,1861,1513,10.9992,-8.29887
644,-489,9.67578,8.45874,0,0,0,0,0,0,0,-1,1868,1513,9.67576,-8.45879
651,-489,6.13818,6.85095,0,0,0,0,0,0,0,-1,1875,1513,6.13823,-6.85097
658,-489,5.43848,7.75513,0,0,0,0,0,0,0,-1,1882,1513,5.43844,-7.75509
665,-489,5.48438,8.59912,0,0,0,0,0,0,0,-1,1889,1513,5.48434,-8.59907
672,-489,0,0,0,0,0,0,0,0,0,-1,1896,1513,0,0
679,-489,0,0,0,0,0,0,0,0,0,-1,1903,1513,0,0
686,-489,0,0,0,0,0,0,0,0,0,-1,1910,1513,0,0
693,-489,0,0,0,0,0,0,0,0,0,-1,1917,1513,0,0
700,-489,0,0,0,0,0,0,0,0,0,-1,1924,1513,0,0
707,-489,0,0,0,0,0,0,0,0,0,-1,1931,1513,0,0
714,-489,0,0,0,0,0,0,0,0,0,-1,1938,1513,0,0
721,-489,0,0,0,0,0,0,0,0,0,-1,1945,1513,0,0
728,-489,0,0,0,0,0,0,0,0,0,-1,1952,1513,0,0
735,-489,0,0,0,0,0,0,0,0,0,-1,1959,1513,0,0
742,-489,0,0,0,0,0,0,0,0,0,-1,1966,1513,0,0
749,-489,0,0,0,0,0,0,0,0,0,-1,1973,1513,0,0
756,-489,0,0,0,0,0,0,0,0,0,-1,1980,1513,0,0
763,-489,0,0,0,0,0,0,0,0,0,-1,1987,1513,0,0
770,-489,0,0,0,0,0,0,0,0,0,-1,1994,1513,0,0
777,-489,0,0,0,0,0,0,0,0,0,-1,2001,1513,0,0
784,-489,0,0,0,0,0,0,0,0,0,-1,2008,1513,0,0
791,-489,0,0,0,0,0,0,0,0,0,-1,2015,1513,0,0
798,-489,0,0,0,0,0,0,0,0,0,-1,2022,1513,0,0
805,-489,0,0,0,0,0,0,0,0,0,-1,2029,1513,0,0
812,-489,0,0,0,0,0,0,0,0,0,-1,2036,1513,0,0
-700,-496,0,0,0,0,0,0,0,0,0,-1,524,1520,0,0
-693,-496,0,0,0,0,0,0,0,0,0,-1,531,1520,0,0
-686,-496,0,0,0,0,0,0,0,0,0,-1,538,1520,0,0
-679,-496,0,0,0,0,0,0,0,0,0,-1,545,1520,0,0
-672,-496,0,0,0,0,0,0,0,0,0,-1,552,1520,0,0
-665,-496,0,0,0,0,0,0,0,0,0,-1,559,1520,0,0
-658,-496,0,0,0,0,0,0,0,0,0,-1,566,1520,0,0
-651,-496,0,0,0,0,0,0,0,0,0,-1,573,1520,0,0
-644,-496,0,0,0,0,0,0,0,0,0,-1,580,1520,0,0
-637,-496,0,0,0,0,0,0,0,0,0,-1,587,1520,0,0
-630,-496,0,0,0,0,0,0,0,0,0,-1,594,1520,0,0
-623,-496,0,0,0,0,0,0,0,0,0,-1,601,1520,0,0
-616,-496,0,0,0,0,0,0,0,0,0,-1,608,1520,0,0
-609,-496,0,0,0,0,0,0,0,0,0,-1,615,1520,0,0
-602,-496,0,0,0,0,0,0,0,0,0,-1,622,1520,0,0
-595,-496,0,0,0,0,0,0,0,0,0,-1,629,1520,0,0
-588,-496,0,0,0,0,0,0,0,0,0,-1,636,1520,0,0
-581,-496,0,0,0,0,0,0,0,0,0,-1,643,1520,0,0
-574,-496,0,0,0,0,0,0,0,0,0,-1,650,1520,0,0
-567,-496,0,0,0,0,0,0,0,0,0,-1,657,1520,0,0
-560,-496,0,0,0,0,0,0,0,0,0,-1,664,1520,0,0
-553,-496,0,0,0,0,0,0,0,0,0,-1,671,1520,0,0
-546,-496,-8.09711,7.94836,0,0,0,0,0,0,0,-1,678,1520,-8.09712,-7.94842
-539,-496,-3.05109,6.33447,0,0,0,0,0,0,0,-1,685,1520,-3.05107,-6.33446
-532,-496,-2.79407,0.97229,0,0,0,0,0,0,0,-1,692,1520,-2.79406,-0.972274
-525,-496,-2.03436,4.75732,0,0,0,0,0,0,0,-1,699,1520,-2.03436,-4.7573
-518,-496,-2.12585,3.56921,0,0,0,0,0,0,0,-1,706,1520,-2.12586,-3.56916
-511,-496,-1.70197,3.96423,0,0,0,0,0,0,0,-1,713,1520,-1.70196,-3.96421
-504,-496,-1.28302,4.47046,0,0,0,0,0,0,0,-1,720,1520,-1.283,-4.4704
-497,-496,-0.87384,5.00281,0,0,0,0,0,0,0,-1,727,1520,-0.873867,-5.00279
-490,-496,-1.33313,6.38965,0.00995674,0.0032153,0.00199473,0.0105027,0.0026693,0.267177,0.00630336,0.0379398,734,1520,-1.33311,-6.38962
-483,-496,-1.44116,6.51196,0.00772259,0.0022957,0.00102937,0.00791128,0.00210702,0.181293,0.00473092,0.019056,741,1520,-1.44118,-6.51191
-476,-496,-1.46277,6.71814,0.0059388,0.00162325,0.000331833,0.00596417,0.00159788,0.0762947,0.00356492,0.0103554,748,1520,-1.46276,-6.71813
-469,-496,-1.46466,7.0105,0.00441144,0.000960398,-0.000205219,0.0044236,0.000948238,-0.0591879,0.0026893,0.0102673,755,1520,-1.46463,-7.01045
-462,-496,-1.46295,7.27197,0.00361508,0.00054033,-0.000330607,0.00365023,0.000505184,-0.10591,0.00228379,0.0146624,762,1520,-1.46294,-7.27196
-455,-496,-1.49579,7.50378,0.00321522,9.94164e-05,-0.000459445,0.00328155,3.30806e-05,-0.143391,0.00217676,0.019246,769,1520,-1.49578,-7.50383
-448,-496,-1.48016,7.74463,0.00309926,-0.000444061,-0.000646497,0.00321353,-0.000558333,-0.174948,0.00235067,0.0187137,776,1520,-1.48016,-7.74467
-441,-496,-1.46692,8.03064,0.00327403,-0.000911506,-0.000842624,0.0034373,-0.00107477,-0.191389,0.00272147,0.0143866,783,1520,-1.4669,-8.03065
-434,-496,-1.50415,8.30444,0.0036707,-0.00171012,-0.00122811,0.00393775,-0.00197717,-0.214113,0.00347695,0.0133377,790,1520,-1.50417,-8.30448
-427,-496,-1.51801,8.56702,0.00437333,-0.00298289,-0.00179436,0.00478768,-0.00339724,-0.22694,0.00474824,0.0169669,797,1520,-1.51803,-8.56706
-420,-496,-1.50305,8.81628,0.00553433,-0.00460131,-0.00262452,0.0061736,-0.00524058,-0.238925,0.00659732,0.0175024,804,1520,-1.50308,-8.81633
-413,-496,-1.44086,9.0918,0.00678799,-0.00644659,-0.00362213,0.00771446,-0.00737306,-0.250412,0.00871153,0.0170662,811,1520,-1.44083,-9.09177
-406,-496,-1.34216,9.43921,0,0,0,0,0,0,0,-1,818,1520,-1.34218,-9.43924
-399,-496,-1.12732,9.7699,0,0,0,0,0,0,0,-1,825,1520,-1.12732,-9.76985
-392,-496,-0.987244,9.91382,0,0,0,0,0,0,0,-1,832,1520,-0.98722,-9.91383
-385,-496,-1.21143,9.45752,0,0,0,0,0,0,0,-1,839,1520,-1.2114,-9.4575
-378,-496,-1.04175,9.51025,0,0,0,0,0,0,0,-1,846,1520,-1.04177,-9.51029
-371,-496,-0.812195,10.6199,0,0,0,0,0,0,0,-1,853,1520,-0.812191,-10.6199
-364,-496,0.0881348,10.6422,0,0,0,0,0,0,0,-1,860,1520,0.0881368,-10.6423
-357,-496,0.323792,7.56812,0,0,0,0,0,0,0,-1,867,1520,0.323782,-7.56806
-350,-496,2.1535,7.18945,0,0,0,0,0,0,0,-1,874,1520,2.15348,-7.1894
-343,-496,-7.56244,0.335327,0,0,0,0,0,0,0,-1,881,1520,-7.56242,-0.335322
-336,-496,-3.99249,6.02222,0,0,0,0,0,0,0,-1,888,1520,-3.99246,-6.0222
-329,-496,-6.93689,-0.100342,0,0,0,0,0,0,0,-1,895,1520,-6.93686,0.1003
-322,-496,-6.17505,0.494385,0,0,0,0,0,0,0,-1,902,1520,-6.17507,-0.49437
-315,-496,-5.46338,1.0459,0,0,0,0,0,0,0,-1,909,1520,-5.46338,-1.04587
-308,-496,0,0,0,0,0,0,0,0,0,-1,916,1520,0,0
-301,-496,0,0,0,0,0,0,0,0,0,-1,923,1520,0,0
-294,-496,0,0,0,0,0,0,0,0,0,-1,930,1520,0,0
-287,-496,0,0,0,0,0,0,0,0,0,-1,937,1520,0,0
-280,-496,0,0,0,0,0,0,0,0,0,-1,944,1520,0,0
-273,-496,0,0,0,0,0,0,0,0,0,-1,951,1520,0,0
-266,-496,0,0,0,0,0,0,0,0,0,-1,958,1520,0,0
-259,-496,0,0,0,0,0,0,0,0,0,-1,965,1520,0,0
-252,-496,0,0,0,0,0,0,0,0,0,-1,972,1520,0,0
-245,-496,0,0,0,0,0,0,0,0,0,-1,979,1520,0,0
-238,-496,0,0,0,0,0,0,0,0,0,-1,986,1520,0,0
-231,-496,0,0,0,0,0,0,0,0,0,-1,993,1520,0,0
-224,-496,0,0,0,0,0,0,0,0,0,-1,1000,1520,0,0
-217,-496,0,0,0,0,0,0,0,0,0,-1,1007,1520,0,0
-210,-496,0,0,0,0,0,0,0,0,0,-1,1014,1520,0,0
-203,-496,0,0,0,0,0,0,0,0,0,-1,1021,1520,0,0
-196,-496,0,0,0,0,0,0,0,0,0,-1,1028,1520,0,0
-189,-496,0,0,0,0,0,0,0,0,0,-1,1035,1520,0,0
-182,-496,0,0,0,0,0,0,0,0,0,-1,1042,1520,0,0
-175,-496,0,0,0,0,0,0,0,0,0,-1,1049,1520,0,0
-168,-496,0,0,0,0,0,0,0,0,0,-1,1056,1520,0,0
-161,-496,0,0,0,0,0,0,0,0,0,-1,1063,1520,0,0
-154,-496,0,0,0,0,0,0,0,0,0,-1,1070,1520,0,0
-147,-496,0,0,0,0,0,0,0,0,0,-1,1077,1520,0,0
-140,-496,0,0,0,0,0,0,0,0,0,-1,1084,1520,0,0
-133,-496,0,0,0,0,0,0,0,0,0,-1,1091,1520,0,0
-126,-496,0,0,0,0,0,0,0,0,0,-1,1098,1520,0,0
-119,-496,0,0,0,0,0,0,0,0,0,-1,1105,1520,0,0
-112,-496,0,0,0,0,0,0,0,0,0,-1,1112,1520,0,0
-105,-496,0,0,0,0,0,0,0,0,0,-1,1119,1520,0,0
-98,-496,0,0,0,0,0,0,0,0,0,-1,1126,1520,0,0
-91,-496,0,0,0,0,0,0,0,0,0,-1,1133,1520,0,0
-84,-496,0,0,0,0,0,0,0,0,0,-1,1140,1520,0,0
-77,-496,0,0,0,0,0,0,0,0,0,-1,1147,1520,0,0
-70,-496,0,0,0,0,0,0,0,0,0,-1,1154,1520,0,0
-63,-496,0,0,0,0,0,0,0,0,0,-1,1161,1520,0,0
-56,-496,0,0,0,0,0,0,0,0,0,-1,1168,1520,0,0
-49,-496,0,0,0,0,0,0,0,0,0,-1,1175,1520,0,0
-42,-496,0,0,0,0,0,0,0,0,0,-1,1182,1520,0,0
-35,-496,0,0,0,0,0,0,0,0,0,-1,1189,1520,0,0
-28,-496,0,0,0,0,0,0,0,0,0,-1,1196,1520,0,0
-21,-496,0,0,0,0,0,0,0,0,0,-1,1203,1520,0,0
-14,-496,0,0,0,0,0,0,0,0,0,-1,1210,1520,0,0
-7,-496,0,0,0,0,0,0,0,0,0,-1,1217,1520,0,0
0,-496,0,0,0,0,0,0,0,0,0,-1,1224,1520,0,0
7,-496,0,0,0,0,0,0,0,0,0,-1,1231,1520,0,0
14,-496,0,0,0,0,0,0,0,0,0,-1,1238,1520,0,0
21,-496,0,0,0,0,0,0,0,0,0,-1,1245,1520,0,0
28,-496,0,0,0,0,0,0,0,0,0,-1,1252,1520,0,0
35,-496,0,0,0,0,0,0,0,0,0,-1,1259,1520,0,0
42,-496,0,0,0,0,0,0,0,0,0,-1,1266,1520,0,0
49,-496,0,0,0,0,0,0,0,0,0,-1,1273,1520,0,0
56,-496,0,0,0,0,0,0,0,0,0,-1,1280,1520,0,0
63,-496,0,0,0,0,0,0,0,0,0,-1,1287,1520,0,0
70,-496,0,0,0,0,0,0,0,0,0,-1,1294,1520,0,0
77,-496,0,0,0,0,0,0,0,0,0,-1,1301,1520,0,0
84,-496,0,0,0,0,0,0,0,0,0,-1,1308,1520,0,0
91,-496,0,0,0,0,0,0,0,0,0,-1,1315,1520,0,0
98,-496,0,0,0,0,0,0,0,0,0,-1,1322,1520,0,0
105,-496,0,0,0,0,0,0,0,0,0,-1,1329,1520,0,0
112,-496,0,0,0,0,0,0,0,0,0,-1,1336,1520,0,0
119,-496,0,0,0,0,0,0,0,0,0,-1,1343,1520,0,0
126,-496,0,0,0,0,0,0,0,0,0,-1,1350,1520,0,0
133,-496,0,0,0,0,0,0,0,0,0,-1,1357,1520,0,0
140,-496,0,0,0,0,0,0,0,0,0,-1,1364,1520,0,0
147,-496,0,0,0,0,0,0,0,0,0,-1,1371,1520,0,0
154,-496,0,0,0,0,0,0,0,0,0,-1,1378,1520,0,0
161,-496,0,0,0,0,0,0,0,0,0,-1,1385,1520,0,0
168,-496,0,0,0,0,0,0,0,0,0,-1,1392,1520,0,0
175,-496,0,0,0,0,0,0,0,0,0,-1,1399,1520,0,0
182,-496,0,0,0,0,0,0,0,0,0,-1,1406,1520,0,0
189,-496,0,0,0,0,0,0,0,0,0,-1,1413,1520,0,0
196,-496,0,0,0,0,0,0,0,0,0,-1,1420,1520,0,0
203,-496,0,0,0,0,0,0,0,0,0,-1,1427,1520,0,0
210,-496,0,0,0,0,0,0,0,0,0,-1,1434,1520,0,0
217,-496,0,0,0,0,0,0,0,0,0,-1,1441,1520,0,0
224,-496,0,0,0,0,0,0,0,0,0,-1,1448,1520,0,0
231,-496,0,0,0,0,0,0,0,0,0,-1,1455,1520,0,0
238,-496,0,0,0,0,0,0,0,0,0,-1,1462,1520,0,0
245,-496,0,0,0,0,0,0,0,0,0,-1,1469,1520,0,0
252,-496,0,0,0,0,0,0,0,0,0,-1,1476,1520,0,0
259,-496,0,0,0,0,0,0,0,0,0,-1,1483,1520,0,0
266,-496,0,0,0,0,0,0,0,0,0,-1,1490,1520,0,0
273,-496,0,0,0,0,0,0,0,0,0,-1,1497,1520,0,0
280,-496,0,0,0,0,0,0,0,0,0,-1,1504,1520,0,0
287,-496,0,0,0,0,0,0,0,0,0,-1,1511,1520,0,0
294,-496,0,0,0,0,0,0,0,0,0,-1,1518,1520,0,0
301,-496,0,0,0,0,0,0,0,0,0,-1,1525,1520,0,0
308,-496,0,0,0,0,0,0,0,0,0,-1,1532,1520,0,0
315,-496,0,0,0,0,0,0,0,0,0,-1,1539,1520,0,0
322,-496,0,0,0,0,0,0,0,0,0,-1,1546,1520,0,0
329,-496,0,0,0,0,0,0,0,0,0,-1,1553,1520,0,0
336,-496,0,0,0,0,0,0,0,0,0,-1,1560,1520,0,0
343,-496,0,0,0,0,0,0,0,0,0,-1,1567,1520,0,0
350,-496,0,0,0,0,0,0,0,0,0,-1,1574,1520,0,0
357,-496,0,0,0,0,0,0,0,0,0,-1,1581,1520,0,0
364,-496,0,0,0,0,0,0,0,0,0,-1,1588,1520,0,0
371,-496,0,0,0,0,0,0,0,0,0,-1,1595,1520,0,0
378,-496,0,0,0,0,0,0,0,0,0,-1,1602,1520,0,0
385,-496,0,0,0,0,0,0,0,0,0,-1,1609,1520,0,0
392,-496,0,0,0,0,0,0,0,0,0,-1,1616,1520,0,0
399,-496,0,0,0,0,0,0,0,0,0,-1,1623,1520,0,0
406,-496,0,0,0,0,0,0,0,0,0,-1,1630,1520,0,0
413,-496,0,0,0,0,0,0,0,0,0,-1,1637,1520,0,0
420,-496,0,0,0,0,0,0,0,0,0,-1,1644,1520,0,0
427,-496,0,0,0,0,0,0,0,0,0,-1,1651,1520,0,0
434,-496,11.0457,3.37732,0,0,0,0,0,0,0,-1,1658,1520,11.0456,-3.37736
441,-496,11.788,2.75488,0,0,0,0,0,0,0,-1,1665,1520,11.7879,-2.75485
448,-496,12.2146,2.18494,0,0,0,0,0,0,0,-1,1672,1520,12.2146,-2.18489
455,-496,12.3489,1.65173,0,0,0,0,0,0,0,-1,1679,1520,12.3489,-1.65178
462,-496,12.1912,1.32361,0,0,0,0,0,0,0,-1,1686,1520,12.1911,-1.32357
469,-496,14.8138,5.77954,0,0,0,0,0,0,0,-1,1693,1520,14.8138,-5.77958
476,-496,15.2449,6.27942,0,0,0,0,0,0,0,-1,1700,1520,15.2449,-6.27936
483,-496,9.19812,6.88367,0,0,0,0,0,0,0,-1,1707,1520,9.19812,-6.88361
490,-496,10.2123,7.97144,0,0,0,0,0,0,0,-1,1714,1520,10.2122,-7.97145
497,-496,12.0386,9.7511,0,0,0,0,0,0,0,-1,1721,1520,12.0386,-9.75108
504,-496,13.2571,10.8463,0,0,0,0,0,0,0,-1,1728,1520,13.257,-10.8463
511,-496,12.4229,9.88257,0,0,0,0,0,0,0,-1,1735,1520,12.4229,-9.88259
518,-496,10.9211,10.2909,0,0,0,0,0,0,0,-1,1742,1520,10.9211,-10.2908
525,-496,10.713,10.389,-0.00916365,-0.0249698,0.0235202,0.00774571,-0.0418791,0.623318,0.0308274,0.0485161,1749,1520,10.713,-10.389
532,-496,10.823,10.8174,-0.00768826,-0.0186542,0.0178562,0.0055078,-0.0318503,0.636436,0.0232876,0.0268174,1756,1520,10.823,-10.8174
539,-496,10.7915,10.6727,-0.00652894,-0.0137934,0.013571,0.0038875,-0.0242098,0.65464,0.0175796,0.0135578,1763,1520,10.7915,-10.6727
546,-496,10.7491,10.4403,-0.0053645,-0.00961649,0.0100497,0.0027816,-0.0177626,0.681161,0.0128695,0.00979804,1770,1520,10.7491,-10.4403
553,-496,10.7776,10.214,-0.00421313,-0.006652,0.00707606,0.0017478,-0.0126129,0.70007,0.00904767,0.0144924,1777,1520,10.7776,-10.214
560,-496,10.8048,10.006,-0.00275548,-0.00416857,0.00449566,0.00108882,-0.00801287,0.707455,0.00573939,0.0136938,1784,1520,10.8049,-10.006
567,-496,10.7975,9.76306,-0.000600629,-0.00241292,0.00218007,0.000854117,-0.00386767,0.588436,0.00290531,0.0118238,1791,1520,10.7975,-9.76301
574,-496,10.7836,9.52002,0.00169578,-0.000806606,0.000277143,0.00172611,-0.000836933,0.108992,0.00150916,0.012515,1798,1520,10.7836,-9.52005
581,-496,10.7775,9.30591,0.00372794,0.000546656,-0.00154784,0.00435675,-8.21506e-05,-0.385881,0.00293226,0.0133074,1805,1520,10.7775,-9.30591
588,-496,10.7856,9.05847,0.00595997,0.00126504,-0.00325913,0.00762904,-0.000404024,-0.473296,0.00522591,0.0151056,1812,1520,10.7856,-9.05843
595,-496,10.7776,8.82629,0.00838677,0.00215776,-0.00481967,0.0110107,-0.000466142,-0.498546,0.00750066,0.0166454,1819,1520,10.7776,-8.82627
602,-496,10.7739,8.58423,0.0109016,0.00269037,-0.00630728,0.0143218,-0.000729828,-0.496883,0.00980021,0.0180651,1826,1520,10.7739,-8.58423
609,-496,10.7766,8.34766,0.0135643,0.00288701,-0.00781204,0.0176877,-0.00123633,-0.485653,0.0122247,0.0142298,1833,1520,10.7767,-8.34766
616,-496,10.7883,8.09656,0.0163811,0.00280749,-0.009411,0.0211972,-0.00200861,-0.473006,0.0148464,0.0118809,1840,1520,10.7883,-8.09661
623,-496,10.7987,7.91541,0.0193787,0.00229953,-0.0110253,0.0247847,-0.00310652,-0.455885,0.01765,0.0259873,1847,1520,10.7987,-7.91536
630,-496,10.7389,7.74524,0.022438,0.00144296,-0.0127178,0.028431,-0.00455013,-0.440374,0.0206386,0.0449045,1854,1520,10.7388,-7.74523
637,-496,10.618,7.58875,0,0,0,0,0,0,0,-1,1861,1520,10.6181,-7.58876
644,-496,11.175,6.72961,0,0,0,0,0,0,0,-1,1868,1520,11.175,-6.72963
651,-496,8.18506,5.47803,0,0,0,0,0,0,0,-1,1875,1520,8.18505,-5.47806
658,-496,7.79993,4.02563,0,0,0,0,0,0,0,-1,1882,1520,7.79997,-4.02568
665,-496,5.47583,7.90625,0,0,0,0,0,0,0,-1,1889,1520,5.47581,-7.90628
672,-496,0,0,0,0,0,0,0,0,0,-1,1896,1520,0,0
679,-496,0,0,0,0,0,0,0,0,0,-1,1903,1520,0,0
686,-496,0,0,0,0,0,0,0,0,0,-1,1910,1520,0,0
693,-496,0,0,0,0,0,0,0,0,0,-1,1917,1520,0,0
700,-496,0,0,0,0,0,0,0,0,0,-1,1924,1520,0,0
707,-496,0,0,0,0,0,0,0,0,0,-1,1931,1520,0,0
714,-496,0,0,0,0,0,0,0,0,0,-1,1938,1520,0,0
721,-496,0,0,0,0,0,0,0,0,0,-1,1945,1520,0,0
728,-496,0,0,0,0,0,0,0,0,0,-1,1952,1520,0,0
735,-496,0,0,0,0,0,0,0,0,0,-1,1959,1520,0,0
742,-496,0,0,0,0,0,0,0,0,0,-1,1966,1520,0,0
749,-496,0,0,0,0,0,0,0,0,0,-1,1973,1520,0,0
756,-496,0,0,0,0,0,0,0,0,0,-1,1980,1520,0,0
763,-496,0,0,0,0,0,0,0,0,0,-1,1987,1520,0,0
770,-496,0,0,0,0,0,0,0,0,0,-1,1994,1520,0,0
777,-496,0,0,0,0,0,0,0,0,0,-1,2001,1520,0,0
784,-496,0,0,0,0,0,0,0,0,0,-1,2008,1520,0,0
791,-496,0,0,0,0,0,0,0,0,0,-1,2015,1520,0,0
798,-496,0,0,0,0,0,0,0,0,0,-1,2022,1520,0,0
805,-496,0,0,0,0,0,0,0,0,0,-1,2029,1520,0,0
812,-496,0,0,0,0,0,0,0,0,0,-1,2036,1520,0,0
-700,-503,0,0,0,0,0,0,0,0,0,-1,524,1527,0,0
-693,-503,0,0,0,0,0,0,0,0,0,-1,531,1527,0,0
-686,-503,0,0,0,0,0,0,0,0,0,-1,538,1527,0,0
-679,-503,0,0,0,0,0,0,0,0,0,-1,545,1527,0,0
-672,-503,0,0,0,0,0,0,0,0,0,-1,552,1527,0,0
-665,-503,0,0,0,0,0,0,0,0,0,-1,559,1527,0,0
-658,-503,0,0,0,0,0,0,0,0,0,-1,566,1527,0,0
-651,-503,0,0,0,0,0,0,0,0,0,-1,573,1527,0,0
-644,-503,0,0,0,0,0,0,0,0,0,-1,580,1527,0,0
-637,-503,0,0,0,0,0,0,0,0,0,-1,587,1527,0,0
-630,-503,0,0,0,0,0,0,0,0,0,-1,594,1527,0,0
-623,-503,0,0,0,0,0,0,0,0,0,-1,601,1527,0,0
-616,-503,0,0,0,0,0,0,0,0,0,-1,608,1527,0,0
-609,-503,0,0,0,0,0,0,0,0,0,-1,615,1527,0,0
-602,-503,0,0,0,0,0,0,0,0,0,-1,622,1527,0,0
-595,-503,0,0,0,0,0,0,0,0,0,-1,629,1527,0,0
-588,-503,0,0,0,0,0,0,0,0,0,-1,636,1527,0,0
-581,-503,0,0,0,0,0,0,0,0,0,-1,643,1527,0,0
-574,-503,0,0,0,0,0,0,0,0,0,-1,650,1527,0,0
-567,-503,0,0,0,0,0,0,0,0,0,-1,657,1527,0,0
-560,-503,0,0,0,0,0,0,0,0,0,-1,664,1527,0,0
-553,-503,0,0,0,0,0,0,0,0,0,-1,671,1527,0,0
-546,-503,0,0,0,0,0,0,0,0,0,-1,678,1527,0,0
-539,-503,3.50177,4.26428,0,0,0,0,0,0,0,-1,685,1527,3.50177,-4.26424
-532,-503,2.67603,4.51135,0,0,0,0,0,0,0,-1,692,1527,2.67603,-4.5114
-525,-503,-2.50189,5.6886,0,0,0,0,0,0,0,-1,699,1527,-2.50192,-5.68861
-518,-503,-2.02423,5.07007,0,0,0,0,0,0,0,-1,706,1527,-2.02425,-5.07005
-511,-503,-1.33124,3.46472,0,0,0,0,0,0,0,-1,713,1527,-1.33124,-3.46471
-504,-503,-0.826477,3.94739,0,0,0,0,0,0,0,-1,720,1527,-0.826506,-3.94736
-497,-503,-0.262695,4.75708,0,0,0,0,0,0,0,-1,727,1527,-0.262665,-4.75707
-490,-503,-0.998901,6.55737,0.0130018,0.00441946,0.0019107,0.0134079,0.0040133,0.209455,0.00794619,0.0494886,734,1527,-0.998885,-6.55743
-483,-503,-1.08972,6.59155,0.0103485,0.00361414,0.00114612,0.0105383,0.00342443,0.164039,0.00620731,0.0371741,741,1527,-1.08973,-6.59157
-476,-503,-1.14441,6.76245,0.00819898,0.00309949,0.000698864,0.00829302,0.00300544,0.133761,0.00484803,0.0178512,748,1527,-1.14442,-6.76242
-469,-503,-1.20447,7.00647,0.00628601,0.00247532,0.000332343,0.00631478,0.00244655,0.0863446,0.00367651,0.00985478,755,1527,-1.20444,-7.00652
-462,-503,-1.20691,7.27771,0.00498751,0.00208724,0.000276589,0.00501365,0.0020611,0.094235,0.00290984,0.0108226,762,1527,-1.20688,-7.27766
-455,-503,-1.22107,7.5238,0.00418573,0.00161127,0.000188935,0.00419952,0.00159748,0.0728678,0.00244761,0.0160762,769,1527,-1.22106,-7.52376
-448,-503,-1.20746,7.75903,0.00368558,0.000998234,3.10574e-05,0.00368593,0.000997875,0.0115549,0.00220139,0.0162388,776,1527,-1.20746,-7.75899
-441,-503,-1.1944,8.03357,0.0034957,0.000447275,-0.000130731,0.0035013,0.000441679,-0.04278,0.00220179,0.013234,783,1527,-1.1944,-8.03352
-434,-503,-1.20392,8.30176,0.00358072,-0.000332095,-0.000446045,0.00363092,-0.000382298,-0.11208,0.00255759,0.0108708,790,1527,-1.20393,-8.30181
-427,-503,-1.24091,8.5509,0.00394547,-0.00160001,-0.000879551,0.00408163,-0.00173617,-0.153587,0.0034487,0.0171368,797,1527,-1.24088,-8.55086
-420,-503,-1.22186,8.81958,0.00470373,-0.00314508,-0.00157016,0.00500618,-0.00344753,-0.190297,0.00490833,0.0188352,804,1527,-1.22186,-8.81957
-413,-503,-1.2077,9.07251,0.00557621,-0.00488823,-0.00239292,0.00609744,-0.00540946,-0.214472,0.00664747,0.0148115,811,1527,-1.20773,-9.07256
-406,-503,-1.19592,9.31299,0.0063681,-0.00694052,-0.00336396,0.00717007,-0.00774249,-0.234032,0.00861188,0.0146543,818,1527,-1.19593,-9.31299
-399,-503,-1.10858,9.63953,0.00731423,-0.00942681,-0.00440313,0.00840167,-0.0105143,-0.242126,0.0109438,0.0215689,825,1527,-1.10856,-9.63947
-392,-503,-0.9599,9.90979,0.00819627,-0.0122985,-0.00575287,0.00970066,-0.0138029,-0.255776,0.0136385,0.0399494,832,1527,-0.959878,-9.90978
-385,-503,-1.08081,9.67163,0.00886527,-0.0151738,-0.00745474,0.0109894,-0.0172979,-0.277576,0.0164665,0.0438226,839,1527,-1.0808,-9.67169
-378,-503,-0.962769,9.71936,0.00936148,-0.0179892,-0.00943379,0.0122997,-0.0209275,-0.301937,0.0193981,0.0470164,846,1527,-0.96279,-9.71934
-371,-503,-0.942993,9.84583,0,0,0,0,0,0,0,-1,853,1527,-0.942983,-9.84585
-364,-503,-0.502136,10.467,0,0,0,0,0,0,0,-1,860,1527,-0.502137,-10.4671
-357,-503,0.558533,9.25452,0,0,0,0,0,0,0,-1,867,1527,0.558542,-9.25446
-350,-503,0.219971,6.84827,0,0,0,0,0,0,0,-1,874,1527,0.21996,-6.84831
-343,-503,-3.5802,4.43274,0,0,0,0,0,0,0,-1,881,1527,-3.58018,-4.43276
-336,-503,-3.2384,6.40637,0,0,0,0,0,0,0,-1,888,1527,-3.2384,-6.40643
-329,-503,-1.70691,11.886,0,0,0,0,0,0,0,-1,895,1527,-1.70689,-11.886
-322,-503,-3.31317,8.81519,0,0,0,0,0,0,0,-1,902,1527,-3.31315,-8.81524
-315,-503,-3.90265,7.73853,0,0,0,0,0,0,0,-1,909,1527,-3.90264,-7.73854
-308,-503,-4.07867,7.25977,0,0,0,0,0,0,0,-1,916,1527,-4.07868,-7.25973
-301,-503,0,0,0,0,0,0,0,0,0,-1,923,1527,0,0
-294,-503,0,0,0,0,0,0,0,0,0,-1,930,1527,0,0
-287,-503,0,0,0,0,0,0,0,0,0,-1,937,1527,0,0
-280,-503,0,0,0,0,0,0,0,0,0,-1,944,1527,0,0
-273,-503,0,0,0,0,0,0,0,0,0,-1,951,1527,0,0
-266,-503,0,0,0,0,0,0,0,0,0,-1,958,1527,0,0
-259,-503,0,0,0,0,0,0,0,0,0,-1,965,1527,0,0
-252,-503,0,0,0,0,0,0,0,0,0,-1,972,1527,0,0
-245,-503,0,0,0,0,0,0,0,0,0,-1,979,1527,0,0
-238,-503,0,0,0,0,0,0,0,0,0,-1,986,1527,0,0
-231,-503,0,0,0,0,0,0,0,0,0,-1,993,1527,0,0
-224,-503,0,0,0,0,0,0,0,0,0,-1,1000,1527,0,0
-217,-503,0,0,0,0,0,0,0,0,0,-1,1007,1527,0,0
-210,-503,0,0,0,0,0,0,0,0,0,-1,1014,1527,0,0
-203,-503,0,0,0,0,0,0,0,0,0,-1,1021,1527,0,0
-196,-503,0,0,0,0,0,0,0,0,0,-1,1028,1527,0,0
-189,-503,0,0,0,0,0,0,0,0,0,-1,1035,1527,0,0
-182,-503,0,0,0,0,0,0,0,0,0,-1,1042,1527,0,0
-175,-503,0,0,0,0,0,0,0,0,0,-1,1049,1527,0,0
-168,-503,0,0,0,0,0,0,0,0,0,-1,1056,1527,0,0
-161,-503,0,0,0,0,0,0,0,0,0,-1,1063,1527,0,0
-154,-503,0,0,0,0,0,0,0,0,0,-1,1070,1527,0,0
-147,-503,0,0,0,0,0,0,0,0,0,-1,1077,1527,0,0
-140,-503,0,0,0,0,0,0,0,0,0,-1,1084,1527,0,0
-133,-503,0,0,0,0,0,0,0,0,0,-1,1091,1527,0,0
-126,-503,0,0,0,0,0,0,0,0,0,-1,1098,1527,0,0
-119,-503,0,0,0,0,0,0,0,0,0,-1,1105,1527,0,0
-112,-503,0,0,0,0,0,0,0,0,0,-1,1112,1527,0,0
-105,-503,0,0,0,0,0,0,0,0,0,-1,1119,1527,0,0
-98,-503,0,0,0,0,0,0,0,0,0,-1,1126,1527,0,0
-91,-503,0,0,0,0,0,0,0,0,0,-1,1133,1527,0,0
-84,-503,0,0,0,0,0,0,0,0,0,-1,1140,1527,0,0
-77,-503,0,0,0,0,0,0,0,0,0,-1,1147,1527,0,0
-70,-503,0,0,0,0,0,0,0,0,0,-1,1154,1527,0,0
-63,-503,0,0,0,0,0,0,0,0,0,-1,1161,1527,0,0
-56,-503,0,0,0,0,0,0,0,0,0,-1,1168,1527,0,0
-49,-503,0,0,0,0,0,0,0,0,0,-1,1175,1527,0,0
-42,-503,0,0,0,0,0,0,0,0,0,-1,1182,1527,0,0
-35,-503,0,0,0,0,0,0,0,0,0,-1,1189,1527,0,0
-28,-503,0,0,0,0,0,0,0,0,0,-1,1196,1527,0,0
-21,-503,0,0,0,0,0,0,0,0,0,-1,1203,1527,0,0
-14,-503,0,0,0,0,0,0,0,0,0,-1,1210,1527,0,0
-7,-503,0,0,0,0,0,0,0,0,0,-1,1217,1527,0,0
0,-503,0,0,0,0,0,0,0,0,0,-1,1224,1527,0,0
7,-503,0,0,0,0,0,0,0,0,0,-1,1231,1527,0,0
14,-503,0,0,0,0,0,0,0,0,0,-1,1238,1527,0,0
21,-503,0,0,0,0,0,0,0,0,0,-1,1245,1527,0,0
28,-503,0,0,0,0,0,0,0,0,0,-1,1252,1527,0,0
35,-503,0,0,0,0,0,0,0,0,0,-1,1259,1527,0,0
42,-503,0,0,0,0,0,0,0,0,0,-1,1266,1527,0,0
49,-503,0,0,0,0,0,0,0,0,0,-1,1273,1527,0,0
56,-503,0,0,0,0,0,0,0,0,0,-1,1280,1527,0,0
63,-503,0,0,0,0,0,0,0,0,0,-1,1287,1527,0,0
70,-503,0,0,0,0,0,0,0,0,0,-1,1294,1527,0,0
77,-503,0,0,0,0,0,0,0,0,0,-1,1301,1527,0,0
84,-503,0,0,0,0,0,0,0,0,0,-1,1308,1527,0,0
91,-503,0,0,0,0,0,0,0,0,0,-1,1315,1527,0,0
98,-503,0,0,0,0,0,0,0,0,0,-1,1322,1527,0,0
105,-503,0,0,0,0,0,0,0,0,0,-1,1329,1527,0,0
112,-503,0,0,0,0,0,0,0,0,0,-1,1336,1527,0,0
119,-503,0,0,0,0,0,0,0,0,0,-1,1343,1527,0,0
126,-503,0,0,0,0,0,0,0,0,0,-1,1350,1527,0,0
133,-503,0,0,0,0,0,0,0,0,0,-1,1357,1527,0,0
140,-503,0,0,0,0,0,0,0,0,0,-1,1364,1527,0,0
147,-503,0,0,0,0,0,0,0,0,0,-1,1371,1527,0,0
154,-503,0,0,0,0,0,0,0,0,0,-1,1378,1527,0,0
161,-503,0,0,0,0,0,0,0,0,0,-1,1385,1527,0,0
168,-503,0,0,0,0,0,0,0,0,0,-1,1392,1527,0,0
175,-503,0,0,0,0,0,0,0,0,0,-1,1399,1527,0,0
182,-503,0,0,0,0,0,0,0,0,0,-1,1406,1527,0,0
189,-503,0,0,0,0,0,0,0,0,0,-1,1413,1527,0,0
196,-503,0,0,0,0,0,0,0,0,0,-1,1420,1527,0,0
203,-503,0,0,0,0,0,0,0,0,0,-1,1427,1527,0,0
210,-503,0,0,0,0,0,0,0,0,0,-1,1434,1527,0,0
217,-503,0,0,0,0,0,0,0,0,0,-1,1441,1527,0,0
224,-503,0,0,0,0,0,0,0,0,0,-1,1448,1527,0,0
231,-503,0,0,0,0,0,0,0,0,0,-1,1455,1527,0,0
238,-503,0,0,0,0,0,0,0,0,0,-1,1462,1527,0,0
245,-503,0,0,0,0,0,0,0,0,0,-1,1469,1527,0,0
252,-503,0,0,0,0,0,0,0,0,0,-1,1476,1527,0,0
259,-503,0,0,0,0,0,0,0,0,0,-1,1483,1527,0,0
266,-503,0,0,0,0,0,0,0,0,0,-1,1490,1527,0,0
273,-503,0,0,0,0,0,0,0,0,0,-1,1497,1527,0,0
280,-503,0,0,0,0,0,0,0,0,0,-1,1504,1527,0,0
287,-503,0,0,0,0,0,0,0,0,0,-1,1511,1527,0,0
294,-503,0,0,0,0,0,0,0,0,0,-1,1518,1527,0,0
301,-503,0,0,0,0,0,0,0,0,0,-1,1525,1527,0,0
308,-503,0,0,0,0,0,0,0,0,0,-1,1532,1527,0,0
315,-503,0,0,0,0,0,0,0,0,0,-1,1539,1527,0,0
322,-503,0,0,0,0,0,0,0,0,0,-1,1546,1527,0,0
329,-503,0,0,0,0,0,0,0,0,0,-1,1553,1527,0,0
336,-503,0,0,0,0,0,0,0,0,0,-1,1560,1527,0,0
343,-503,0,0,0,0,0,0,0,0,0,-1,1567,1527,0,0
350,-503,0,0,0,0,0,0,0,0,0,-1,1574,1527,0,0
357,-503,0,0,0,0,0,0,0,0,0,-1,1581,1527,0,0
364,-503,0,0,0,0,0,0,0,0,0,-1,1588,1527,0,0
371,-503,0,0,0,0,0,0,0,0,0,-1,1595,1527,0,0
378,-503,0,0,0,0,0,0,0,0,0,-1,1602,1527,0,0
385,-503,0,0,0,0,0,0,0,0,0,-1,1609,1527,0,0
392,-503,0,0,0,0,0,0,0,0,0,-1,1616,1527,0,0
399,-503,0,0,0,0,0,0,0,0,0,-1,1623,1527,0,0
406,-503,0,0,0,0,0,0,0,0,0,-1,1630,1527,0,0
413,-503,0,0,0,0,0,0,0,0,0,-1,1637,1527,0,0
420,-503,0,0,0,0,0,0,0,0,0,-1,1644,1527,0,0
427,-503,10.5968,4.9856,0,0,0,0,0,0,0,-1,1651,1527,10.5969,-4.98563
434,-503,11.4329,3.97217,0,0,0,0,0,0,0,-1,1658,1527,11.4328,-3.97222
441,-503,12.0957,2.96509,0,0,0,0,0,0,0,-1,1665,1527,12.0957,-2.96512
448,-503,12.3259,2.53894,0,0,0,0,0,0,0,-1,1672,1527,12.326,-2.53895
455,-503,12.1669,2.18762,0,0,0,0,0,0,0,-1,1679,1527,12.1668,-2.18767
462,-503,11.59,2.60791,0,0,0,0,0,0,0,-1,1686,1527,11.5899,-2.60794
469,-503,11.1625,1.61853,0,0,0,0,0,0,0,-1,1693,1527,11.1625,-1.61856
476,-503,9.07703,5.81042,0,0,0,0,0,0,0,-1,1700,1527,9.07699,-5.81047
483,-503,9.74414,6.92432,0,0,0,0,0,0,0,-1,1707,1527,9.74417,-6.9243
490,-503,10.5033,10.1071,0,0,0,0,0,0,0,-1,1714,1527,10.5032,-10.107
497,-503,11.2732,10.1931,0,0,0,0,0,0,0,-1,1721,1527,11.2732,-10.1931
504,-503,12.0432,10.2793,0,0,0,0,0,0,0,-1,1728,1527,12.0432,-10.2793
511,-503,11.0186,10.9326,0,0,0,0,0,0,0,-1,1735,1527,11.0185,-10.9327
518,-503,10.8021,10.7935,-0.00755454,-0.0286455,0.0261867,0.0101303,-0.0463303,0.593981,0.0347592,0.0452843,1742,1527,10.8022,-10.7934
525,-503,10.5504,10.9073,-0.0063794,-0.021246,0.0201031,0.00762062,-0.035246,0.608314,0.0264067,0.0352086,1749,1527,10.5504,-10.9074
532,-503,10.5464,10.8877,-0.00502833,-0.0156124,0.0150627,0.00564496,-0.0262856,0.616468,0.0196772,0.0128178,1756,1527,10.5464,-10.8877
539,-503,10.5356,10.692,-0.00402118,-0.0112798,0.0112852,0.00420394,-0.0195049,0.629822,0.0146076,0.0117284,1763,1527,10.5356,-10.692
546,-503,10.5259,10.4426,-0.0029664,-0.00745852,0.00807593,0.00316999,-0.0135949,0.649767,0.0102841,0.0115707,1770,1527,10.5259,-10.4426
553,-503,10.5443,10.2343,-0.00191915,-0.00476093,0.00525369,0.0021024,-0.00878248,0.65333,0.00666721,0.0140377,1777,1527,10.5443,-10.2343
560,-503,10.5526,10.0145,-0.000524125,-0.0024042,0.00281428,0.00150296,-0.00443129,0.624212,0.00356247,0.0134828,1784,1527,10.5527,-10.0146
567,-503,10.5503,9.77161,0.00174927,-0.000807626,0.000530796,0.00185508,-0.000913438,0.196765,0.00162893,0.0118271,1791,1527,10.5503,-9.77165
574,-503,10.5483,9.52686,0.00417724,0.000664752,-0.00142698,0.00468388,0.000158104,-0.341165,0.00307124,0.012318,1798,1527,10.5483,-9.52681
581,-503,10.5188,9.30957,0.00645406,0.00193229,-0.00339593,0.00827287,0.000113483,-0.49171,0.00547781,0.0132948,1805,1527,10.5188,-9.30958
588,-503,10.5175,9.08008,0.00907885,0.00271242,-0.00531842,0.0120939,-0.000302629,-0.51573,0.00816534,0.0152546,1812,1527,10.5174,-9.0801
595,-503,10.5293,8.82935,0.0120716,0.00361807,-0.00722795,0.0162179,-0.000528269,-0.520822,0.0109923,0.0118657,1819,1527,10.5293,-8.8293
602,-503,10.535,8.58582,0.0153644,0.00423997,-0.00917918,0.0205351,-0.00093073,-0.513003,0.0140106,0.0139241,1826,1527,10.535,-8.58584
609,-503,10.5645,8.32263,0.0189377,0.00456132,-0.0111851,0.0250453,-0.00154625,-0.4998,0.0172354,0.0200273,1833,1527,10.5644,-8.32269
616,-503,10.5004,8.16797,0.0227771,0.00453912,-0.0133531,0.0298279,-0.00251163,-0.485815,0.0207731,0.0223159,1840,1527,10.5003,-8.16799
623,-503,10.7325,7.98071,0.0268955,0.00394174,-0.0155609,0.034754,-0.00391685,-0.467657,0.0245792,0.0374846,1847,1527,10.7326,-7.98071
630,-503,11.0145,7.84497,0.0310736,0.00270746,-0.0178685,0.0397038,-0.00592268,-0.44994,0.0286482,0.0445641,1854,1527,11.0145,-7.84494
637,-503,11.1052,7.39868,0,0,0,0,0,0,0,-1,1861,1527,11.1053,-7.39867
644,-503,11.3779,6.95044,0,0,0,0,0,0,0,-1,1868,1527,11.378,-6.95043
651,-503,11.5718,6.5448,0,0,0,0,0,0,0,-1,1875,1527,11.5718,-6.54476
658,-503,8.25635,3.10498,0,0,0,0,0,0,0,-1,1882,1527,8.2563,-3.10493
665,-503,0,0,0,0,0,0,0,0,0,-1,1889,1527,0,0
672,-503,0,0,0,0,0,0,0,0,0,-1,1896,1527,0,0
679,-503,0,0,0,0,0,0,0,0,0,-1,1903,1527,0,0
686,-503,0,0,0,0,0,0,0,0,0,-1,1910,1527,0,0
693,-503,0,0,0,0,0,0,0,0,0,-1,1917,1527,0,0
700,-503,0,0,0,0,0,0,0,0,0,-1,1924,1527,0,0
707,-503,0,0,0,0,0,0,0,0,0,-1,1931,1527,0,0
714,-503,0,0,0,0,0,0,0,0,0,-1,1938,1527,0,0
721,-503,0,0,0,0,0,0,0,0,0,-1,1945,1527,0,0
728,-503,0,0,0,0,0,0,0,0,0,-1,1952,1527,0,0
735,-503,0,0,0,0,0,0,0,0,0,-1,1959,1527,0,0
742,-503,0,0,0,0,0,0,0,0,0,-1,1966,1527,0,0
749,-503,0,0,0,0,0,0,0,0,0,-1,1973,1527,0,0
756,-503,0,0,0,0,0,0,0,0,0,-1,1980,1527,0,0
763,-503,0,0,0,0,0,0,0,0,0,-1,1987,1527,0,0
770,-503,0,0,0,0,0,0,0,0,0,-1,1994,1527,0,0
777,-503,0,0,0,0,0,0,0,0,0,-1,2001,1527,0,0
784,-503,0,0,0,0,0,0,0,0,0,-1,2008,1527,0,0
791,-503,0,0,0,0,0,0,0,0,0,-1,2015,1527,0,0
798,-503,0,0,0,0,0,0,0,0,0,-1,2022,1527,0,0
805,-503,0,0,0,0,0,0,0,0,0,-1,2029,1527,0,0
812,-503,0,0,0,0,0,0,0,0,0,-1,2036,1527,0,0
-700,-510,0,0,0,0,0,0,0,0,0,-1,524,1534,0,0
-693,-510,0,0,0,0,0,0,0,0,0,-1,531,1534,0,0
-686,-510,0,0,0,0,0,0,0,0,0,-1,538,1534,0,0
-679,-510,0,0,0,0,0,0,0,0,0,-1,545,1534,0,0
-672,-510,0,0,0,0,0,0,0,0,0,-1,552,1534,0,0
-665,-510,0,0,0,0,0,0,0,0,0,-1,559,1534,0,0
-658,-510,0,0,0,0,0,0,0,0,0,-1,566,1534,0,0
-651,-510,0,0,0,0,0,0,0,0,0,-1,573,1534,0,0
-644,-510,0,0,0,0,0,0,0,0,0,-1,580,1534,0,0
-637,-510,0,0,0,0,0,0,0,0,0,-1,587,1534,0,0
-630,-510,0,0,0,0,0,0,0,0,0,-1,594,1534,0,0
-623,-510,0,0,0,0,0,0,0,0,0,-1,601,1534,0,0
-616,-510,0,0,0,0,0,0,0,0,0,-1,608,1534,0,0
-609,-510,0,0,0,0,0,0,0,0,0,-1,615,1534,0,0
-602,-510,0,0,0,0,0,0,0,0,0,-1,622,1534,0,0
-595,-510,0,0,0,0,0,0,0,0,0,-1,629,1534,0,0
-588,-510,0,0,0,0,0,0,0,0,0,-1,636,1534,0,0
-581,-510,0,0,0,0,0,0,0,0,0,-1,643,1534,0,0
-574,-510,0,0,0,0,0,0,0,0,0,-1,650,1534,0,0
-567,-510,0,0,0,0,0,0,0,0,0,-1,657,1534,0,0
-560,-510,0,0,0,0,0,0,0,0,0,-1,664,1534,0,0
-553,-510,0,0,0,0,0,0,0,0,0,-1,671,1534,0,0
-546,-510,0,0,0,0,0,0,0,0,0,-1,678,1534,0,0
-539,-510,0,0,0,0,0,0,0,0,0,-1,685,1534,0,0
-532,-510,2.29291,4.35352,0,0,0,0,0,0,0,-1,692,1534,2.29289,-4.35348
-525,-510,-2.76245,5.60095,0,0,0,0,0,0,0,-1,699,1534,-2.76244,-5.60094
-518,-510,-2.302,5.00061,0,0,0,0,0,0,0,-1,706,1534,-2.30202,-5.00055
-511,-510,-1.84161,4.40015,0,0,0,0,0,0,0,-1,713,1534,-1.8416,-4.40017
-504,-510,-0.332153,3.54688,0,0,0,0,0,0,0,-1,720,1534,-0.332171,-3.54682
-497,-510,-0.719177,6.48047,0,0,0,0,0,0,0,-1,727,1534,-0.71915,-6.48047
-490,-510,-0.925415,6.97766,0.0169204,0.00657118,0.00187577,0.0172499,0.0062417,0.173881,0.0100852,0.0482154,734,1534,-0.925405,-6.97764
-483,-510,-0.922607,7.11987,0.0138731,0.00577002,0.00148526,0.0141368,0.00550636,0.175688,0.00822805,0.0428365,741,1534,-0.922596,-7.11992
-476,-510,-0.794067,6.71985,0.0112933,0.00525033,0.00138261,0.0115946,0.00494901,0.214577,0.00671797,0.0289323,748,1534,-0.794045,-6.71981
-469,-510,-0.942139,6.99609,0.0088545,0.00458157,0.00122802,0.00918228,0.00425379,0.260838,0.00530616,0.0116932,755,1534,-0.942162,-6.99613
-462,-510,-0.950012,7.2644,0.00692053,0.00409236,0.00127138,0.00740804,0.00360485,0.366155,0.00427754,0.01078,762,1534,-0.949999,-7.26441
-455,-510,-0.965454,7.53552,0.00560971,0.00344067,0.00122527,0.00616149,0.00288889,0.42313,0.00355964,0.0129712,769,1534,-0.965432,-7.53547
-448,-510,-0.9552,7.79773,0.00466793,0.00262967,0.00108598,0.00513809,0.00215951,0.408572,0.00297902,0.0129165,776,1534,-0.955175,-7.79775
-441,-510,-0.948975,8.03809,0.00409728,0.00187611,0.000929991,0.00443524,0.00153815,0.348563,0.00260044,0.0135528,783,1534,-0.948993,-8.03806
-434,-510,-0.982056,8.28345,0.00389144,0.00101585,0.000642353,0.0040284,0.000878881,0.210079,0.00244586,0.0143784,790,1534,-0.982057,-8.28346
-427,-510,-0.984253,8.51978,0.00396653,-0.000321259,0.000276035,0.00398423,-0.000338956,0.0640248,0.00277604,0.0225996,797,1534,-0.984252,-8.51973
-420,-510,-0.966736,8.79419,0.00437851,-0.00184063,-0.000362139,0.00439953,-0.00186164,-0.0579687,0.00371256,0.0223394,804,1534,-0.966765,-8.79422
-413,-510,-0.952881,9.07849,0.00494973,-0.00354572,-0.00110912,0.00509214,-0.00368814,-0.127703,0.00509085,0.0112912,811,1534,-0.952895,-9.0785
-406,-510,-0.97821,9.31433,0.00550342,-0.00545702,-0.00197308,0.00584779,-0.00580139,-0.172794,0.00672568,0.0104386,818,1534,-0.97823,-9.31432
-399,-510,-0.986145,9.55994,0.00618871,-0.00759858,-0.00286587,0.00676069,-0.00817056,-0.196995,0.00863336,0.0121064,825,1534,-0.986171,-9.55998
-392,-510,-0.884583,9.90417,0.0067782,-0.00993757,-0.00397885,0.00767696,-0.0108363,-0.222156,0.0107404,0.0234102,832,1534,-0.884586,-9.90414
-385,-510,-0.904846,10.0878,0.00727045,-0.0120493,-0.00527071,0.00861483,-0.0133937,-0.24974,0.0128061,0.0379303,839,1534,-0.904868,-10.0877
-378,-510,-0.93219,9.8623,0.00747221,-0.0140706,-0.00678455,0.00943081,-0.0160292,-0.281046,0.014863,0.0408569,846,1534,-0.932212,-9.86231
-371,-510,-0.685059,9.92908,0.007398,-0.0163914,-0.00861025,0.0101873,-0.0191807,-0.313285,0.0172186,0.0451252,853,1534,-0.685084,-9.92904
-364,-510,-0.287231,9.9314,0,0,0,0,0,0,0,-1,860,1534,-0.287213,-9.93137
-357,-510,-0.254395,8.89575,0,0,0,0,0,0,0,-1,867,1534,-0.254397,-8.89569
-350,-510,0.471191,6.06458,0,0,0,0,0,0,0,-1,874,1534,0.47118,-6.06453
-343,-510,-2.94617,5.00989,0,0,0,0,0,0,0,-1,881,1534,-2.94615,-5.00992
-336,-510,-1.92963,11.3776,0,0,0,0,0,0,0,-1,888,1534,-1.92962,-11.3775
-329,-510,-1.09058,11.6753,0,0,0,0,0,0,0,-1,895,1534,-1.09056,-11.6753
-322,-510,-0.251526,11.973,0,0,0,0,0,0,0,-1,902,1534,-0.251497,-11.9731
-315,-510,-1.73047,10.9796,0,0,0,0,0,0,0,-1,909,1534,-1.73049,-10.9796
-308,-510,-2.05328,9.72034,0,0,0,0,0,0,0,-1,916,1534,-2.05327,-9.72036
-301,-510,-2.11639,10.0634,0,0,0,0,0,0,0,-1,923,1534,-2.11637,-10.0633
-294,-510,0,0,0,0,0,0,0,0,0,-1,930,1534,0,0
-287,-510,0,0,0,0,0,0,0,0,0,-1,937,1534,0,0
-280,-510,0,0,0,0,0,0,0,0,0,-1,944,1534,0,0
-273,-510,0,0,0,0,0,0,0,0,0,-1,951,1534,0,0
-266,-510,0,0,0,0,0,0,0,0,0,-1,958,1534,0,0
-259,-510,0,0,0,0,0,0,0,0,0,-1,965,1534,0,0
-252,-510,0,0,0,0,0,0,0,0,0,-1,972,1534,0,0
-245,-510,0,0,0,0,0,0,0,0,0,-1,979,1534,0,0
-238,-510,0,0,0,0,0,0,0,0,0,-1,986,1534,0,0
-231,-510,0,0,0,0,0,0,0,0,0,-1,993,1534,0,0
-224,-510,0,0,0,0,0,0,0,0,0,-1,1000,1534,0,0
-217,-510,0,0,0,0,0,0,0,0,0,-1,1007,1534,0,0
-210,-510,0,0,0,0,0,0,0,0,0,-1,1014,1534,0,0
-203,-510,0,0,0,0,0,0,0,0,0,-1,1021,1534,0,0
-196,-510,0,0,0,0,0,0,0,0,0,-1,1028,1534,0,0
-189,-510,0,0,0,0,0,0,0,0,0,-1,1035,1534,0,0
-182,-510,0,0,0,0,0,0,0,0,0,-1,1042,1534,0,0
-175,-510,0,0,0,0,0,0,0,0,0,-1,1049,1534,0,0
-168,-510,0,0,0,0,0,0,0,0,0,-1,1056,1534,0,0
-161,-510,0,0,0,0,0,0,0,0,0,-1,1063,1534,0,0
-154,-510,0,0,0,0,0,0,0,0,0,-1,1070,1534,0,0
-147,-510,0,0,0,0,0,0,0,0,0,-1,1077,1534,0,0
-140,-510,0,0,0,0,0,0,0,0,0,-1,1084,1534,0,0
-133,-510,0,0,0,0,0,0,0,0,0,-1,1091,1534,0,0
-126,-510,0,0,0,0,0,0,0,0,0,-1,1098,1534,0,0
-119,-510,0,0,0,0,0,0,0,0,0,-1,1105,1534,0,0
-112,-510,0,0,0,0,0,0,0,0,0,-1,1112,1534,0,0
-105,-510,0,0,0,0,0,0,0,0,0,-1,1119,1534,0,0
-98,-510,0,0,0,0,0,0,0,0,0,-1,1126,1534,0,0
-91,-510,0,0,0,0,0,0,0,0,0,-1,1133,1534,0,0
-84,-510,0,0,0,0,0,0,0,0,0,-1,1140,1534,0,0
-77,-510,0,0,0,0,0,0,0,0,0,-1,1147,1534,0,0
-70,-510,0,0,0,0,0,0,0,0,0,-1,1154,1534,0,0
-63,-510,0,0,0,0,0,0,0,0,0,-1,1161,1534,0,0
-56,-510,0,0,0,0,0,0,0,0,0,-1,1168,1534,0,0
-49,-510,0,0,0,0,0,0,0,0,0,-1,1175,1534,0,0
-42,-510,0,0,0,0,0,0,0,0,0,-1,1182,1534,0,0
-35,-510,0,0,0,0,0,0,0,0,0,-1,1189,1534,0,0
-28,-510,0,0,0,0,0,0,0,0,0,-1,1196,1534,0,0
-21,-510,0,0,0,0,0,0,0,0,0,-1,1203,1534,0,0
-14,-510,0,0,0,0,0,0,0,0,0,-1,1210,1534,0,0
-7,-510,0,0,0,0,0,0,0,0,0,-1,1217,1534,0,0
0,-510,0,0,0,0,0,0,0,0,0,-1,1224,1534,0,0
7,-510,0,0,0,0,0,0,0,0,0,-1,1231,1534,0,0
14,-510,0,0,0,0,0,0,0,0,0,-1,1238,1534,0,0
21,-510,0,0,0,0,0,0,0,0,0,-1,1245,1534,0,0
28,-510,0,0,0,0,0,0,0,0,0,-1,1252,1534,0,0
35,-510,0,0,0,0,0,0,0,0,0,-1,1259,1534,0,0
42,-510,0,0,0,0,0,0,0,0,0,-1,1266,1534,0,0
49,-510,0,0,0,0,0,0,0,0,0,-1,1273,1534,0,0
56,-510,0,0,0,0,0,0,0,0,0,-1,1280,1534,0,0
63,-510,0,0,0,0,0,0,0,0,0,-1,1287,1534,0,0
70,-510,0,0,0,0,0,0,0,0,0,-1,1294,1534,0,0
77,-510,0,0,0,0,0,0,0,0,0,-1,1301,1534,0,0
84,-510,0,0,0,0,0,0,0,0,0,-1,1308,1534,0,0
91,-510,0,0,0,0,0,0,0,0,0,-1,1315,1534,0,0
98,-510,0,0,0,0,0,0,0,0,0,-1,1322,1534,0,0
105,-510,0,0,0,0,0,0,0,0,0,-1,1329,1534,0,0
112,-510,0,0,0,0,0,0,0,0,0,-1,1336,1534,0,0
119,-510,0,0,0,0,0,0,0,0,0,-1,1343,1534,0,0
126,-510,0,0,0,0,0,0,0,0,0,-1,1350,1534,0,0
133,-510,0,0,0,0,0,0,0,0,0,-1,1357,1534,0,0
140,-510,0,0,0,0,0,0,0,0,0,-1,1364,1534,0,0
147,-510,0,0,0,0,0,0,0,0,0,-1,1371,1534,0,0
154,-510,0,0,0,0,0,0,0,0,0,-1,1378,1534,0,0
161,-510,0,0,0,0,0,0,0,0,0,-1,1385,1534,0,0
168,-510,0,0,0,0,0,0,0,0,0,-1,1392,1534,0,0
175,-510,0,0,0,0,0,0,0,0,0,-1,1399,1534,0,0
182,-510,0,0,0,0,0,0,0,0,0,-1,1406,1534,0,0
189,-510,0,0,0,0,0,0,0,0,0,-1,1413,1534,0,0
196,-510,0,0,0,0,0,0,0,0,0,-1,1420,1534,0,0
203,-510,0,0,0,0,0,0,0,0,0,-1,1427,1534,0,0
210,-510,0,0,0,0,0,0,0,0,0,-1,1434,1534,0,0
217,-510,0,0,0,0,0,0,0,0,0,-1,1441,1534,0,0
224,-510,0,0,0,0,0,0,0,0,0,-1,1448,1534,0,0
231,-510,0,0,0,0,0,0,0,0,0,-1,1455,1534,0,0
238,-510,0,0,0,0,0,0,0,0,0,-1,1462,1534,0,0
245,-510,0,0,0,0,0,0,0,0,0,-1,1469,1534,0,0
252,-510,0,0,0,0,0,0,0,0,0,-1,1476,1534,0,0
259,-510,0,0,0,0,0,0,0,0,0,-1,1483,1534,0,0
266,-510,0,0,0,0,0,0,0,0,0,-1,1490,1534,0,0
273,-510,0,0,0,0,0,0,0,0,0,-1,1497,1534,0,0
280,-510,0,0,0,0,0,0,0,0,0,-1,1504,1534,0,0
287,-510,0,0,0,0,0,0,0,0,0,-1,1511,1534,0,0
294,-510,0,0,0,0,0,0,0,0,0,-1,1518,1534,0,0
301,-510,0,0,0,0,0,0,0,0,0,-1,1525,1534,0,0
308,-510,0,0,0,0,0,0,0,0,0,-1,1532,1534,0,0
315,-510,0,0,0,0,0,0,0,0,0,-1,1539,1534,0,0
322,-510,0,0,0,0,0,0,0,0,0,-1,1546,1534,0,0
329,-510,0,0,0,0,0,0,0,0,0,-1,1553,1534,0,0
336,-510,0,0,0,0,0,0,0,0,0,-1,1560,1534,0,0
343,-510,0,0,0,0,0,0,0,0,0,-1,1567,1534,0,0
350,-510,0,0,0,0,0,0,0,0,0,-1,1574,1534,0,0
357,-510,0,0,0,0,0,0,0,0,0,-1,1581,1534,0,0
364,-510,0,0,0,0,0,0,0,0,0,-1,1588,1534,0,0
371,-510,0,0,0,0,0,0,0,0,0,-1,1595,1534,0,0
378,-510,0,0,0,0,0,0,0,0,0,-1,1602,1534,0,0
385,-510,0,0,0,0,0,0,0,0,0,-1,1609,1534,0,0
392,-510,0,0,0,0,0,0,0,0,0,-1,1616,1534,0,0
399,-510,0,0,0,0,0,0,0,0,0,-1,1623,1534,0,0
406,-510,0,0,0,0,0,0,0,0,0,-1,1630,1534,0,0
413,-510,0,0,0,0,0,0,0,0,0,-1,1637,1534,0,0
420,-510,13.1918,5.99402,0,0,0,0,0,0,0,-1,1644,1534,13.1917,-5.994
427,-510,10.9799,5.12341,0,0,0,0,0,0,0,-1,1651,1534,10.9798,-5.12337
434,-510,11.8219,4.07898,0,0,0,0,0,0,0,-1,1658,1534,11.8219,-4.07895
441,-510,12.6812,3.02991,0,0,0,0,0,0,0,-1,1665,1534,12.6811,-3.0299
448,-510,13.2379,2.2804,0,0,0,0,0,0,0,-1,1672,1534,13.2379,-2.28037
455,-510,9.76892,2.20642,0,0,0,0,0,0,0,-1,1679,1534,9.76894,-2.20647
462,-510,9.84692,2.49182,0,0,0,0,0,0,0,-1,1686,1534,9.84695,-2.49185
469,-510,16.6072,7.26941,0,0,0,0,0,0,0,-1,1693,1534,16.6072,-7.26945
476,-510,15.9199,7.8645,0,0,0,0,0,0,0,-1,1700,1534,15.9199,-7.86455
483,-510,9.9469,7.28748,0,0,0,0,0,0,0,-1,1707,1534,9.94686,-7.28747
490,-510,10.2285,10.4934,0,0,0,0,0,0,0,-1,1714,1534,10.2286,-10.4935
497,-510,10.5699,10.8351,-0.010003,-0.0522054,0.0429457,0.0167455,-0.0789539,0.557048,0.0590151,0.0441303,1721,1534,10.5699,-10.8351
504,-510,10.8368,10.8964,-0.00911262,-0.0409024,0.0349099,0.0133507,-0.0633657,0.571767,0.047326,0.0412409,1728,1534,10.8368,-10.8964
511,-510,11.2852,11.3839,-0.00781157,-0.0317818,0.0277968,0.0104738,-0.0500672,0.581856,0.037362,0.0411906,1735,1534,11.2852,-11.3839
518,-510,10.5494,11.269,-0.00644735,-0.0241365,0.0216695,0.00811304,-0.0386969,0.591639,0.0288846,0.0351342,1742,1534,10.5495,-11.2691
525,-510,10.3407,11.1353,-0.00523685,-0.01777,0.0165026,0.00614893,-0.0291557,0.603942,0.0217781,0.018779,1749,1534,10.3407,-11.1352
532,-510,10.3199,10.917,-0.00390435,-0.0129092,0.0121814,0.00458005,-0.0213936,0.608377,0.016009,0.0117294,1756,1534,10.32,-10.917
539,-510,10.3053,10.6876,-0.00288851,-0.00915628,0.00896828,0.00347767,-0.0155225,0.61731,0.0116814,0.0117495,1763,1534,10.3054,-10.6877
546,-510,10.2876,10.4652,-0.00172491,-0.00574121,0.00609726,0.00268638,-0.0101525,0.626316,0.00781916,0.0112257,1770,1534,10.2877,-10.4652
553,-510,10.3058,10.2406,-0.000548213,-0.00331431,0.00342836,0.00176556,-0.00562808,0.593675,0.00445866,0.0125597,1777,1534,10.3057,-10.2406
560,-510,10.3083,9.99841,0.00101067,-0.00105098,0.00112871,0.00150844,-0.00154874,0.415348,0.00176511,0.0128,1784,1534,10.3083,-9.99838
567,-510,10.3174,9.76111,0.00363194,0.000466244,-0.00113398,0.00399622,0.000101961,-0.31083,0.00263082,0.0121403,1791,1534,10.3174,-9.76107
574,-510,10.2981,9.55151,0.00641318,0.00188028,-0.00320793,0.00807453,0.000218931,-0.477856,0.00531155,0.0128827,1798,1534,10.2981,-9.55148
581,-510,10.2832,9.34082,0.00921504,0.00315064,-0.00540828,0.0123831,-1.74623e-05,-0.529903,0.00826126,0.0113707,1805,1534,10.2832,-9.34084
588,-510,10.293,9.10522,0.0125537,0.00413955,-0.00767242,0.0170968,-0.000403559,-0.534616,0.0115347,0.0120585,1812,1534,10.293,-9.10518
595,-510,10.3562,8.8103,0.0164785,0.00521582,-0.0101149,0.022424,-0.000729629,-0.531396,0.0151984,0.0126292,1819,1534,10.3562,-8.81027
602,-510,10.3016,8.51648,0.0209686,0.00610448,-0.0127667,0.0283089,-0.00123585,-0.521805,0.0192978,0.0228385,1826,1534,10.3017,-8.51647
609,-510,10.2333,8.35449,0.0259257,0.00676314,-0.0155709,0.034627,-0.00193818,-0.509589,0.0237571,0.0326419,1833,1534,10.2332,-8.35443
616,-510,10.687,8.31787,0.0312904,0.00694227,-0.0185955,0.0413424,-0.00310974,-0.495569,0.0286545,0.0439582,1840,1534,10.687,-8.31789
623,-510,11.0021,8.09668,0.0370262,0.00649106,-0.0216925,0.0482853,-0.00476806,-0.478757,0.0338916,0.046121,1847,1534,11.0021,-8.09662
630,-510,11.6138,7.8031,0,0,0,0,0,0,0,-1,1854,1534,11.6137,-7.80305
637,-510,11.1967,7.7124,0,0,0,0,0,0,0,-1,1861,1534,11.1966,-7.71235
644,-510,11.5809,7.17126,0,0,0,0,0,0,0,-1,1868,1534,11.5809,-7.17123
651,-510,8.70471,3.5061,0,0,0,0,0,0,0,-1,1875,1534,8.70475,-3.50611
658,-510,0,0,0,0,0,0,0,0,0,-1,1882,1534,0,0
665,-510,0,0,0,0,0,0,0,0,0,-1,1889,1534,0,0
672,-510,0,0,0,0,0,0,0,0,0,-1,1896,1534,0,0
679,-510,0,0,0,0,0,0,0,0,0,-1,1903,1534,0,0
686,-510,0,0,0,0,0,0,0,0,0,-1,1910,1534,0,0
693,-510,0,0,0,0,0,0,0,0,0,-1,1917,1534,0,0
700,-510,0,0,0,0,0,0,0,0,0,-1,1924,1534,0,0
707,-510,0,0,0,0,0,0,0,0,0,-1,1931,1534,0,0
714,-510,0,0,0,0,0,0,0,0,0,-1,1938,1534,0,0
721,-510,0,0,0,0,0,0,0,0,0,-1,1945,1534,0,0
728,-510,0,0,0,0,0,0,0,0,0,-1,1952,1534,0,0
735,-510,0,0,0,0,0,0,0,0,0,-1,1959,1534,0,0
742,-510,0,0,0,0,0,0,0,0,0,-1,1966,1534,0,0
749,-510,0,0,0,0,0,0,0,0,0,-1,1973,1534,0,0
756,-510,0,0,0,0,0,0,0,0,0,-1,1980,1534,0,0
763,-510,0,0,0,0,0,0,0,0,0,-1,1987,1534,0,0
770,-510,0,0,0,0,0,0,0,0,0,-1,1994,1534,0,0
777,-510,0,0,0,0,0,0,0,0,0,-1,2001,1534,0,0
784,-510,0,0,0,0,0,0,0,0,0,-1,2008,1534,0,0
791,-510,0,0,0,0,0,0,0,0,0,-1,2015,1534,0,0
798,-510,0,0,0,0,0,0,0,0,0,-1,2022,1534,0,0
805,-510,0,0,0,0,0,0,0,0,0,-1,2029,1534,0,0
812,-510,0,0,0,0,0,0,0,0,0,-1,2036,1534,0,0
-700,-517,0,0,0,0,0,0,0,0,0,-1,524,1541,0,0
-693,-517,0,0,0,0,0,0,0,0,0,-1,531,1541,0,0
-686,-517,0,0,0,0,0,0,0,0,0,-1,538,1541,0,0
-679,-517,0,0,0,0,0,0,0,0,0,-1,545,1541,0,0
-672,-517,0,0,0,0,0,0,0,0,0,-1,552,1541,0,0
-665,-517,0,0,0,0,0,0,0,0,0,-1,559,1541,0,0
-658,-517,0,0,0,0,0,0,0,0,0,-1,566,1541,0,0
-651,-517,0,0,0,0,0,0,0,0,0,-1,573,1541,0,0
-644,-517,0,0,0,0,0,0,0,0,0,-1,580,1541,0,0
-637,-517,0,0,0,0,0,0,0,0,0,-1,587,1541,0,0
-630,-517,0,0,0,0,0,0,0,0,0,-1,594,1541,0,0
-623,-517,0,0,0,0,0,0,0,0,0,-1,601,1541,0,0
-616,-517,0,0,0,0,0,0,0,0,0,-1,608,1541,0,0
-609,-517,0,0,0,0,0,0,0,0,0,-1,615,1541,0,0
-602,-517,0,0,0,0,0,0,0,0,0,-1,622,1541,0,0
-595,-517,0,0,0,0,0,0,0,0,0,-1,629,1541,0,0
-588,-517,0,0,0,0,0,0,0,0,0,-1,636,1541,0,0
-581,-517,0,0,0,0,0,0,0,0,0,-1,643,1541,0,0
-574,-517,0,0,0,0,0,0,0,0,0,-1,650,1541,0,0
-567,-517,0,0,0,0,0,0,0,0,0,-1,657,1541,0,0
-560,-517,0,0,0,0,0,0,0,0,0,-1,664,1541,0,0
-553,-517,0,0,0,0,0,0,0,0,0,-1,671,1541,0,0
-546,-517,0,0,0,0,0,0,0,0,0,-1,678,1541,0,0
-539,-517,0,0,0,0,0,0,0,0,0,-1,685,1541,0,0
-532,-517,0,0,0,0,0,0,0,0,0,-1,692,1541,0,0
-525,-517,0.467896,4.35828,0,0,0,0,0,0,0,-1,699,1541,0.467905,-4.35823
-518,-517,-2.71826,4.89087,0,0,0,0,0,0,0,-1,706,1541,-2.71826,-4.89084
-511,-517,-2.72321,2.45251,0,0,0,0,0,0,0,-1,713,1541,-2.72323,-2.45249
-504,-517,-0.883362,4.79858,0,0,0,0,0,0,0,-1,720,1541,-0.88337,-4.79854
-497,-517,-0.32135,5.73938,0,0,0,0,0,0,0,-1,727,1541,-0.321354,-5.73939
-490,-517,-0.84491,7.52869,0,0,0,0,0,0,0,-1,734,1541,-0.844934,-7.52872
-483,-517,-0.765076,7.17358,0.0187401,0.00905396,0.00244678,0.019323,0.00847098,0.233905,0.0111844,0.0454225,741,1541,-0.76506,-7.17361
-476,-517,-0.575195,6.71594,0.0154155,0.00835462,0.00247225,0.016195,0.00757506,0.305454,0.00935668,0.036849,748,1541,-0.575195,-6.71598
-469,-517,-0.643921,7.00293,0.0122957,0.00754149,0.00246643,0.0133441,0.00649312,0.401918,0.00770514,0.0152565,755,1541,-0.643926,-7.00289
-462,-517,-0.697815,7.25696,0.00949925,0.00679918,0.00253061,0.0110174,0.00528102,0.540362,0.00636272,0.0145983,762,1541,-0.697827,-7.25698
-455,-517,-0.692383,7.53845,0.00744818,0.00584099,0.00243053,0.00920451,0.00408465,0.625742,0.00532542,0.0126871,769,1541,-0.692375,-7.53842
-448,-517,-0.697998,7.81262,0.005854,0.00471311,0.00221004,0.00756603,0.00300109,0.659098,0.00439924,0.0127563,776,1541,-0.697996,-7.81258
-441,-517,-0.709961,8.05664,0.00472706,0.00365372,0.00196678,0.00622908,0.0021517,0.652207,0.0036532,0.0113755,783,1541,-0.709943,-8.05665
-434,-517,-0.703064,8.30457,0.00408019,0.00263113,0.0016297,0.00513916,0.00157216,0.57623,0.00304069,0.0142327,790,1541,-0.703036,-8.30461
-427,-517,-0.706604,8.54175,0.0037382,0.00116716,0.00126139,0.0042537,0.000651659,0.387962,0.00264547,0.013758,797,1541,-0.706601,-8.54176
-420,-517,-0.716858,8.83093,0.00368448,-0.000365153,0.000605072,0.00377295,-0.000453627,0.145191,0.00267934,0.0192431,804,1541,-0.716878,-8.83088
-413,-517,-0.720825,9.08118,0.00386763,-0.00210127,-0.000131325,0.00387051,-0.00210416,-0.0219874,0.00349937,0.010417,811,1541,-0.720826,-9.08123
-406,-517,-0.73584,9.32788,0.00413699,-0.00394755,-0.000965975,0.00425081,-0.00406137,-0.117285,0.00479945,0.010633,818,1541,-0.735841,-9.32793
-399,-517,-0.734802,9.57178,0.00453804,-0.0058419,-0.00180667,0.00484351,-0.00614737,-0.167494,0.00636046,0.0109465,825,1541,-0.734795,-9.57177
-392,-517,-0.713196,9.82275,0.00483939,-0.00778422,-0.00278841,0.00542788,-0.00837271,-0.207997,0.00802801,0.0123069,832,1541,-0.713202,-9.82277
-385,-517,-0.649902,10.1857,0.00507644,-0.00940696,-0.00388884,0.00605456,-0.0103851,-0.246406,0.00960056,0.0196026,839,1541,-0.649876,-10.1856
-378,-517,-0.671814,10.233,0.0050952,-0.0107521,-0.00509282,0.00659074,-0.0122476,-0.285626,0.0110386,0.0403888,846,1541,-0.671834,-10.233
-371,-517,-0.545166,9.96045,0.00485881,-0.0122403,-0.00651473,0.00705805,-0.0144395,-0.325567,0.0126532,0.0482869,853,1541,-0.545142,-9.96047
-364,-517,-0.199341,9.80518,0,0,0,0,0,0,0,-1,860,1541,-0.199325,-9.80517
-357,-517,-0.947266,10.5267,0,0,0,0,0,0,0,-1,867,1541,-0.947252,-10.5268
-350,-517,0.722412,10.0829,0,0,0,0,0,0,0,-1,874,1541,0.722399,-10.0828
-343,-517,-2.56708,6.12415,0,0,0,0,0,0,0,-1,881,1541,-2.56708,-6.12418
-336,-517,-1.58478,11.4652,0,0,0,0,0,0,0,-1,888,1541,-1.58478,-11.4652
-329,-517,-0.658691,11.7365,0,0,0,0,0,0,0,-1,895,1541,-0.658693,-11.7364
-322,-517,0.267395,12.0076,0,0,0,0,0,0,0,-1,902,1541,0.267396,-12.0076
-315,-517,-0.987976,7.29749,0,0,0,0,0,0,0,-1,909,1541,-0.987993,-7.29743
-308,-517,4.07715,15.229,0,0,0,0,0,0,0,-1,916,1541,4.07714,-15.229
-301,-517,-1.69141,8.87488,0,0,0,0,0,0,0,-1,923,1541,-1.69141,-8.87485
-294,-517,-1.72583,9.92566,0,0,0,0,0,0,0,-1,930,1541,-1.72584,-9.92571
-287,-517,-1.85211,11.2883,0,0,0,0,0,0,0,-1,937,1541,-1.85212,-11.2884
-280,-517,0,0,0,0,0,0,0,0,0,-1,944,1541,0,0
-273,-517,0,0,0,0,0,0,0,0,0,-1,951,1541,0,0
-266,-517,0,0,0,0,0,0,0,0,0,-1,958,1541,0,0
-259,-517,0,0,0,0,0,0,0,0,0,-1,965,1541,0,0
-252,-517,0,0,0,0,0,0,0,0,0,-1,972,1541,0,0
-245,-517,0,0,0,0,0,0,0,0,0,-1,979,1541,0,0
-238,-517,0,0,0,0,0,0,0,0,0,-1,986,1541,0,0
-231,-517,0,0,0,0,0,0,0,0,0,-1,993,1541,0,0
-224,-517,0,0,0,0,0,0,0,0,0,-1,1000,1541,0,0
-217,-517,0,0,0,0,0,0,0,0,0,-1,1007,1541,0,0
-210,-517,0,0,0,0,0,0,0,0,0,-1,1014,1541,0,0
-203,-517,0,0,0,0,0,0,0,0,0,-1,1021,1541,0,0
-196,-517,0,0,0,0,0,0,0,0,0,-1,1028,1541,0,0
-189,-517,0,0,0,0,0,0,0,0,0,-1,1035,1541,0,0
-182,-517,0,0,0,0,0,0,0,0,0,-1,1042,1541,0,0
-175,-517,0,0,0,0,0,0,0,0,0,-1,1049,1541,0,0
-168,-517,0,0,0,0,0,0,0,0,0,-1,1056,1541,0,0
-161,-517,0,0,0,0,0,0,0,0,0,-1,1063,1541,0,0
-154,-517,0,0,0,0,0,0,0,0,0,-1,1070,1541,0,0
-147,-517,0,0,0,0,0,0,0,0,0,-1,1077,1541,0,0
-140,-517,0,0,0,0,0,0,0,0,0,-1,1084,1541,0,0
-133,-517,0,0,0,0,0,0,0,0,0,-1,1091,1541,0,0
-126,-517,0,0,0,0,0,0,0,0,0,-1,1098,1541,0,0
-119,-517,0,0,0,0,0,0,0,0,0,-1,1105,1541,0,0
-112,-517,0,0,0,0,0,0,0,0,0,-1,1112,1541,0,0
-105,-517,0,0,0,0,0,0,0,0,0,-1,1119,1541,0,0
-98,-517,0,0,0,0,0,0,0,0,0,-1,1126,1541,0,0
-91,-517,0,0,0,0,0,0,0,0,0,-1,1133,1541,0,0
-84,-517,0,0,0,0,0,0,0,0,0,-1,1140,1541,0,0
-77,-517,0,0,0,0,0,0,0,0,0,-1,1147,1541,0,0
-70,-517,0,0,0,0,0,0,0,0,0,-1,1154,1541,0,0
-63,-517,0,0,0,0,0,0,0,0,0,-1,1161,1541,0,0
-56,-517,0,0,0,0,0,0,0,0,0,-1,1168,1541,0,0
-49,-517,0,0,0,0,0,0,0,0,0,-1,1175,1541,0,0
-42,-517,0,0,0,0,0,0,0,0,0,-1,1182,1541,0,0
-35,-517,0,0,0,0,0,0,0,0,0,-1,1189,1541,0,0
-28,-517,0,0,0,0,0,0,0,0,0,-1,1196,1541,0,0
-21,-517,0,0,0,0,0,0,0,0,0,-1,1203,1541,0,0
-14,-517,0,0,0,0,0,0,0,0,0,-1,1210,1541,0,0
-7,-517,0,0,0,0,0,0,0,0,0,-1,1217,1541,0,0
0,-517,0,0,0,0,0,0,0,0,0,-1,1224,1541,0,0
7,-517,0,0,0,0,0,0,0,0,0,-1,1231,1541,0,0
14,-517,0,0,0,0,0,0,0,0,0,-1,1238,1541,0,0
21,-517,0,0,0,0,0,0,0,0,0,-1,1245,1541,0,0
28,-517,0,0,0,0,0,0,0,0,0,-1,1252,1541,0,0
35,-517,0,0,0,0,0,0,0,0,0,-1,1259,1541,0,0
42,-517,0,0,0,0,0,0,0,0,0,-1,1266,1541,0,0
49,-517,0,0,0,0,0,0,0,0,0,-1,1273,1541,0,0
56,-517,0,0,0,0,0,0,0,0,0,-1,1280,1541,0,0
63,-517,0,0,0,0,0,0,0,0,0,-1,1287,1541,0,0
70,-517,0,0,0,0,0,0,0,0,0,-1,1294,1541,0,0
77,-517,0,0,0,0,0,0,0,0,0,-1,1301,1541,0,0
84,-517,0,0,0,0,0,0,0,0,0,-1,1308,1541,0,0
91,-517,0,0,0,0,0,0,0,0,0,-1,1315,1541,0,0
98,-517,0,0,0,0,0,0,0,0,0,-1,1322,1541,0,0
105,-517,0,0,0,0,0,0,0,0,0,-1,1329,1541,0,0
112,-517,0,0,0,0,0,0,0,0,0,-1,1336,1541,0,0
119,-517,0,0,0,0,0,0,0,0,0,-1,1343,1541,0,0
126,-517,0,0,0,0,0,0,0,0,0,-1,1350,1541,0,0
133,-517,0,0,0,0,0,0,0,0,0,-1,1357,1541,0,0
140,-517,0,0,0,0,0,0,0,0,0,-1,1364,1541,0,0
147,-517,0,0,0,0,0,0,0,0,0,-1,1371,1541,0,0
154,-517,0,0,0,0,0,0,0,0,0,-1,1378,1541,0,0
161,-517,0,0,0,0,0,0,0,0,0,-1,1385,1541,0,0
168,-517,0,0,0,0,0,0,0,0,0,-1,1392,1541,0,0
175,-517,0,0,0,0,0,0,0,0,0,-1,1399,1541,0,0
182,-517,0,0,0,0,0,0,0,0,0,-1,1406,1541,0,0
189,-517,0,0,0,0,0,0,0,0,0,-1,1413,1541,0,0
196,-517,0,0,0,0,0,0,0,0,0,-1,1420,1541,0,0
203,-517,0,0,0,0,0,0,0,0,0,-1,1427,1541,0,0
210,-517,0,0,0,0,0,0,0,0,0,-1,1434,1541,0,0
217,-517,0,0,0,0,0,0,0,0,0,-1,1441,1541,0,0
224,-517,0,0,0,0,0,0,0,0,0,-1,1448,1541,0,0
231,-517,0,0,0,0,0,0,0,0,0,-1,1455,1541,0,0
238,-517,0,0,0,0,0,0,0,0,0,-1,1462,1541,0,0
245,-517,0,0,0,0,0,0,0,0,0,-1,1469,1541,0,0
252,-517,0,0,0,0,0,0,0,0,0,-1,1476,1541,0,0
259,-517,0,0,0,0,0,0,0,0,0,-1,1483,1541,0,0
266,-517,0,0,0,0,0,0,0,0,0,-1,1490,1541,0,0
273,-517,0,0,0,0,0,0,0,0,0,-1,1497,1541,0,0
280,-517,0,0,0,0,0,0,0,0,0,-1,1504,1541,0,0
287,-517,0,0,0,0,0,0,0,0,0,-1,1511,1541,0,0
294,-517,0,0,0,0,0,0,0,0,0,-1,1518,1541,0,0
301,-517,0,0,0,0,0,0,0,0,0,-1,1525,1541,0,0
308,-517,0,0,0,0,0,0,0,0,0,-1,1532,1541,0,0
315,-517,0,0,0,0,0,0,0,0,0,-1,1539,1541,0,0
322,-517,0,0,0,0,0,0,0,0,0,-1,1546,1541,0,0
329,-517,0,0,0,0,0,0,0,0,0,-1,1553,1541,0,0
336,-517,0,0,0,0,0,0,0,0,0,-1,1560,1541,0,0
343,-517,0,0,0,0,0,0,0,0,0,-1,1567,1541,0,0
350,-517,0,0,0,0,0,0,0,0,0,-1,1574,1541,0,0
357,-517,0,0,0,0,0,0,0,0,0,-1,1581,1541,0,0
364,-517,0,0,0,0,0,0,0,0,0,-1,1588,1541,0,0
371,-517,0,0,0,0,0,0,0,0,0,-1,1595,1541,0,0
378,-517,0,0,0,0,0,0,0,0,0,-1,1602,1541,0,0
385,-517,0,0,0,0,0,0,0,0,0,-1,1609,1541,0,0
392,-517,0,0,0,0,0,0,0,0,0,-1,1616,1541,0,0
399,-517,0,0,0,0,0,0,0,0,0,-1,1623,1541,0,0
406,-517,12.1469,6.22412,0,0,0,0,0,0,0,-1,1630,1541,12.1468,-6.22408
413,-517,12.2695,6.3324,0,0,0,0,0,0,0,-1,1637,1541,12.2696,-6.33243
420,-517,12.4789,6.20337,0,0,0,0,0,0,0,-1,1644,1541,12.4789,-6.20333
427,-517,11.647,4.66516,0,0,0,0,0,0,0,-1,1651,1541,11.647,-4.66519
434,-517,12.3719,3.92773,0,0,0,0,0,0,0,-1,1658,1541,12.3719,-3.92776
441,-517,13.146,3.14124,0,0,0,0,0,0,0,-1,1665,1541,13.146,-3.14121
448,-517,13.8861,2.36682,0,0,0,0,0,0,0,-1,1672,1541,13.8861,-2.36684
455,-517,13.6012,4.06335,0,0,0,0,0,0,0,-1,1679,1541,13.6012,-4.06335
462,-517,14.8956,7.0752,0,0,0,0,0,0,0,-1,1686,1541,14.8956,-7.07525
469,-517,14.3939,7.823,0,0,0,0,0,0,0,-1,1693,1541,14.3939,-7.82296
476,-517,13.8374,8.68164,0,0,0,0,0,0,0,-1,1700,1541,13.8374,-8.68166
483,-517,11.3983,8.48816,0,0,0,0,0,0,0,-1,1707,1541,11.3983,-8.4882
490,-517,10.2455,11.1144,0,0,0,0,0,0,0,-1,1714,1541,10.2455,-11.1144
497,-517,10.3068,11.2642,-0.00959164,-0.042969,0.0351291,0.0126114,-0.065172,0.563647,0.0482049,0.0473466,1721,1541,10.3068,-11.2642
504,-517,10.3512,11.5693,-0.00812018,-0.0336443,0.0284429,0.0102926,-0.0520571,0.574516,0.0385958,0.0391441,1728,1541,10.3511,-11.5694
511,-517,10.2855,11.6926,-0.0066313,-0.026113,0.0226047,0.008242,-0.0409864,0.58196,0.0304457,0.0408494,1735,1541,10.2855,-11.6926
518,-517,10.0889,11.407,-0.00524508,-0.019801,0.0175286,0.00645649,-0.0315026,0.588626,0.023452,0.026041,1742,1541,10.0889,-11.407
525,-517,10.0741,11.1449,-0.00402801,-0.0144439,0.0132044,0.00495837,-0.0234303,0.597559,0.0175086,0.0115765,1749,1541,10.0741,-11.1449
532,-517,10.1016,10.908,-0.00272878,-0.0103368,0.00955638,0.00375289,-0.0168184,0.595983,0.0126502,0.0102906,1756,1541,10.1016,-10.9079
539,-517,10.0952,10.672,-0.00170167,-0.00715573,0.00686934,0.00296213,-0.0118195,0.596446,0.00903049,0.0106395,1763,1541,10.0952,-10.672
546,-517,10.0878,10.4463,-0.000412736,-0.004173,0.00430939,0.0024088,-0.00699454,0.579702,0.00564011,0.0108983,1770,1541,10.0878,-10.4463
553,-517,10.0969,10.2155,0.000923723,-0.00202334,0.00177411,0.00175644,-0.00285605,0.438844,0.00268813,0.0140519,1777,1541,10.097,-10.2155
560,-517,10.09,9.99146,0.00266681,0.000133013,-0.00042047,0.00273476,6.50604e-05,-0.160225,0.00180188,0.0144072,1784,1541,10.09,-9.99144
567,-517,10.0968,9.77393,0.00564621,0.00160297,-0.00269321,0.00699213,0.000257051,-0.463444,0.00457814,0.0124434,1791,1541,10.0968,-9.77396
574,-517,10.0922,9.54358,0.00882481,0.00299378,-0.00495623,0.0116595,0.00015913,-0.51953,0.00772048,0.0131072,1798,1541,10.0922,-9.54354
581,-517,10.0908,9.31897,0.0122818,0.00431496,-0.00749448,0.0167857,-0.000188959,-0.541128,0.011254,0.0136036,1805,1541,10.0908,-9.31893
588,-517,10.0837,9.08105,0.0165508,0.00560959,-0.0102652,0.0227122,-0.000551769,-0.540578,0.0153287,0.0147376,1812,1541,10.0838,-9.08102
595,-517,10.0924,8.83826,0.0217128,0.0069899,-0.013476,0.029707,-0.00100424,-0.535413,0.0201477,0.0192886,1819,1541,10.0924,-8.83827
602,-517,9.99438,8.50256,0.0278316,0.0083274,-0.017145,0.037804,-0.00164498,-0.526817,0.0257685,0.0236747,1826,1541,9.99441,-8.50261
609,-517,9.94849,7.83496,0.0348271,0.00957365,-0.0211846,0.0468625,-0.00246181,-0.51665,0.0320938,0.0427414,1833,1541,9.94847,-7.8349
616,-517,11.2286,8.15015,0.0424119,0.0103232,-0.0254881,0.0564851,-0.00375002,-0.50449,0.0389669,0.0478781,1840,1541,11.2286,-8.15016
623,-517,11.6754,7.63049,0,0,0,0,0,0,0,-1,1847,1541,11.6754,-7.63054
630,-517,9.21375,7.09631,0,0,0,0,0,0,0,-1,1854,1541,9.21373,-7.09628
637,-517,11.5172,5.79822,0,0,0,0,0,0,0,-1,1861,1541,11.5173,-5.79825
644,-517,11.4232,3.30579,0,0,0,0,0,0,0,-1,1868,1541,11.4232,-3.30574
651,-517,0,0,0,0,0,0,0,0,0,-1,1875,1541,0,0
658,-517,0,0,0,0,0,0,0,0,0,-1,1882,1541,0,0
665,-517,0,0,0,0,0,0,0,0,0,-1,1889,1541,0,0
672,-517,0,0,0,0,0,0,0,0,0,-1,1896,1541,0,0
679,-517,0,0,0,0,0,0,0,0,0,-1,1903,1541,0,0
686,-517,0,0,0,0,0,0,0,0,0,-1,1910,1541,0,0
693,-517,0,0,0,0,0,0,0,0,0,-1,1917,1541,0,0
700,-517,0,0,0,0,0,0,0,0,0,-1,1924,1541,0,0
707,-517,0,0,0,0,0,0,0,0,0,-1,1931,1541,0,0
714,-517,0,0,0,0,0,0,0,0,0,-1,1938,1541,0,0
721,-517,0,0,0,0,0,0,0,0,0,-1,1945,1541,0,0
728,-517,0,0,0,0,0,0,0,0,0,-1,1952,1541,0,0
735,-517,0,0,0,0,0,0,0,0,0,-1,1959,1541,0,0
742,-517,0,0,0,0,0,0,0,0,0,-1,1966,1541,0,0
749,-517,0,0,0,0,0,0,0,0,0,-1,1973,1541,0,0
756,-517,0,0,0,0,0,0,0,0,0,-1,1980,1541,0,0
763,-517,0,0,0,0,0,0,0,0,0,-1,1987,1541,0,0
770,-517,0,0,0,0,0,0,0,0,0,-1,1994,1541,0,0
777,-517,0,0,0,0,0,0,0,0,0,-1,2001,1541,0,0
784,-517,0,0,0,0,0,0,0,0,0,-1,2008,1541,0,0
791,-517,0,0,0,0,0,0,0,0,0,-1,2015,1541,0,0
798,-517,0,0,0,0,0,0,0,0,0,-1,2022,1541,0,0
805,-517,0,0,0,0,0,0,0,0,0,-1,2029,1541,0,0
812,-517,0,0,0,0,0,0,0,0,0,-1,2036,1541,0,0
-700,-524,0,0,0,0,0,0,0,0,0,-1,524,1548,0,0
-693,-524,0,0,0,0,0,0,0,0,0,-1,531,1548,0,0
-686,-524,0,0,0,0,0,0,0,0,0,-1,538,1548,0,0
-679,-524,0,0,0,0,0,0,0,0,0,-1,545,1548,0,0
-672,-524,0,0,0,0,0,0,0,0,0,-1,552,1548,0,0
-665,-524,0,0,0,0,0,0,0,0,0,-1,559,1548,0,0
-658,-524,0,0,0,0,0,0,0,0,0,-1,566,1548,0,0
-651,-524,0,0,0,0,0,0,0,0,0,-1,573,1548,0,0
-644,-524,0,0,0,0,0,0,0,0,0,-1,580,1548,0,0
-637,-524,0,0,0,0,0,0,0,0,0,-1,587,1548,0,0
-630,-524,0,0,0,0,0,0,0,0,0,-1,594,1548,0,0
-623,-524,0,0,0,0,0,0,0,0,0,-1,601,1548,0,0
-616,-524,0,0,0,0,0,0,0,0,0,-1,608,1548,0,0
-609,-524,0,0,0,0,0,0,0,0,0,-1,615,1548,0,0
-602,-524,0,0,0,0,0,0,0,0,0,-1,622,1548,0,0
-595,-524,0,0,0,0,0,0,0,0,0,-1,629,1548,0,0
-588,-524,0,0,0,0,0,0,0,0,0,-1,636,1548,0,0
-581,-524,0,0,0,0,0,0,0,0,0,-1,643,1548,0,0
-574,-524,0,0,0,0,0,0,0,0,0,-1,650,1548,0,0
-567,-524,0,0,0,0,0,0,0,0,0,-1,657,1548,0,0
-560,-524,0,0,0,0,0,0,0,0,0,-1,664,1548,0,0
-553,-524,0,0,0,0,0,0,0,0,0,-1,671,1548,0,0
-546,-524,0,0,0,0,0,0,0,0,0,-1,678,1548,0,0
-539,-524,0,0,0,0,0,0,0,0,0,-1,685,1548,0,0
-532,-524,0,0,0,0,0,0,0,0,0,-1,692,1548,0,0
-525,-524,-0.215515,3.97131,0,0,0,0,0,0,0,-1,699,1548,-0.215501,-3.97136
-518,-524,-0.806274,4.35632,0,0,0,0,0,0,0,-1,706,1548,-0.806259,-4.35633
-511,-524,-1.08301,4.29004,0,0,0,0,0,0,0,-1,713,1548,-1.08301,-4.29006
-504,-524,-1.28821,3.98145,0,0,0,0,0,0,0,-1,720,1548,-1.28822,-3.98151
-497,-524,-0.890625,6.05981,0,0,0,0,0,0,0,-1,727,1548,-0.890655,-6.05981
-490,-524,-0.717285,6.78613,0,0,0,0,0,0,0,-1,734,1548,-0.717272,-6.78608
-483,-524,-0.802002,6.71777,0.0258018,0.0139347,0.00452108,0.0273279,0.0124085,0.325552,0.0158,0.0451306,741,1548,-0.802001,-6.71772
-476,-524,-0.562256,6.69482,0.0211781,0.0128773,0.00451963,0.0231639,0.0108915,0.413979,0.0133816,0.0462283,748,1548,-0.562237,-6.69482
-469,-524,-0.411621,6.99561,0.0168124,0.0116778,0.00444477,0.019378,0.00911218,0.523508,0.0111945,0.0330172,755,1548,-0.411617,-6.99555
-462,-524,-0.378418,7.29175,0.0129767,0.0104795,0.00435659,0.01626,0.00719608,0.64584,0.00940837,0.0237984,762,1548,-0.378402,-7.29174
-455,-524,-0.440369,7.55383,0.010017,0.00904881,0.00407193,0.0136335,0.0054323,0.726233,0.00792524,0.0164576,769,1548,-0.440388,-7.55384
-448,-524,-0.438293,7.82947,0.00762421,0.00745205,0.00363212,0.0111713,0.00390499,0.773551,0.00654633,0.0122537,776,1548,-0.438301,-7.82943
-441,-524,-0.440125,8.08105,0.00581614,0.00595455,0.00316376,0.00904986,0.00272082,0.796334,0.00536158,0.0105724,783,1548,-0.440129,-8.08105
-434,-524,-0.418152,8.31213,0.00461012,0.00465191,0.0026509,0.007282,0.00198004,0.789339,0.00434764,0.0130323,790,1548,-0.418182,-8.31217
-427,-524,-0.423828,8.56299,0.00375255,0.00297763,0.00216139,0.00556093,0.00116924,0.696709,0.00338553,0.013036,797,1548,-0.423848,-8.56303
-420,-524,-0.453247,8.83276,0.00314939,0.00137084,0.0013851,0.00390611,0.000614118,0.500023,0.00242542,0.0101407,804,1548,-0.453225,-8.83282
-413,-524,-0.458862,9.09106,0.00288464,-0.000468962,0.000573764,0.00298009,-0.00056441,0.164845,0.00219914,0.00984242,811,1548,-0.45888,-9.09104
-406,-524,-0.467957,9.35193,0.00284279,-0.00232011,-0.000310544,0.0028614,-0.00233872,-0.0598614,0.00300734,0.0106015,818,1548,-0.467981,-9.3519
-399,-524,-0.469482,9.58752,0.00295409,-0.00405814,-0.00117565,0.00314594,-0.00425,-0.161766,0.00428588,0.00921818,825,1548,-0.469507,-9.58756
-392,-524,-0.460327,9.81934,0.00299987,-0.00572282,-0.00209074,0.00347511,-0.00619806,-0.223508,0.00565808,0.0097587,832,1548,-0.460301,-9.81928
-385,-524,-0.469849,10.0948,0.00303249,-0.00702425,-0.00306856,0.00389484,-0.0078866,-0.273961,0.00693094,0.0116194,839,1548,-0.469828,-10.0948
-378,-524,-0.430786,10.4658,0.00295283,-0.00789099,-0.00403464,0.00428928,-0.00922744,-0.319869,0.00797559,0.0236131,846,1548,-0.430764,-10.4659
-371,-524,-0.313171,10.6454,0.00272244,-0.00880006,-0.00511377,0.00466461,-0.0107422,-0.362965,0.00912292,0.0474643,853,1548,-0.313175,-10.6454
-364,-524,-0.423218,10.5386,0.00509136,-0.00701726,-0.00480774,0.00676809,-0.00869399,-0.335567,0.00895009,0.0447709,860,1548,-0.423205,-10.5386
-357,-524,-0.565063,10.6217,0.00933179,-0.00306286,-0.00288569,0.0099707,-0.00370177,-0.21789,0.0081657,0.0496146,867,1548,-0.565048,-10.6218
-350,-524,-0.543945,10.7083,0,0,0,0,0,0,0,-1,874,1548,-0.543951,-10.7082
-343,-524,-1.2887,6.94836,0,0,0,0,0,0,0,-1,881,1548,-1.28868,-6.94831
-336,-524,-0.817383,11.87,0,0,0,0,0,0,0,-1,888,1548,-0.817363,-11.87
-329,-524,-1.56628,13.1823,0,0,0,0,0,0,0,-1,895,1548,-1.5663,-13.1823
-322,-524,0.915771,11.7336,0,0,0,0,0,0,0,-1,902,1548,0.915752,-11.7336
-315,-524,3.16571,15.5691,0,0,0,0,0,0,0,-1,909,1548,3.1657,-15.569
-308,-524,3.70172,15.0178,0,0,0,0,0,0,0,-1,916,1548,3.70175,-15.0178
-301,-524,4.10406,15.9458,0,0,0,0,0,0,0,-1,923,1548,4.10409,-15.9458
-294,-524,-1.52515,9.05408,0,0,0,0,0,0,0,-1,930,1548,-1.52512,-9.05411
-287,-524,-1.52618,9.99182,0,0,0,0,0,0,0,-1,937,1548,-1.52619,-9.99178
-280,-524,-1.6156,10.4597,0,0,0,0,0,0,0,-1,944,1548,-1.6156,-10.4597
-273,-524,0,0,0,0,0,0,0,0,0,-1,951,1548,0,0
-266,-524,0,0,0,0,0,0,0,0,0,-1,958,1548,0,0
-259,-524,0,0,0,0,0,0,0,0,0,-1,965,1548,0,0
-252,-524,0,0,0,0,0,0,0,0,0,-1,972,1548,0,0
-245,-524,0,0,0,0,0,0,0,0,0,-1,979,1548,0,0
-238,-524,0,0,0,0,0,0,0,0,0,-1,986,1548,0,0
-231,-524,0,0,0,0,0,0,0,0,0,-1,993,1548,0,0
-224,-524,0,0,0,0,0,0,0,0,0,-1,1000,1548,0,0
-217,-524,0,0,0,0,0,0,0,0,0,-1,1007,1548,0,0
-210,-524,0,0,0,0,0,0,0,0,0,-1,1014,1548,0,0
-203,-524,0,0,0,0,0,0,0,0,0,-1,1021,1548,0,0
-196,-524,0,0,0,0,0,0,0,0,0,-1,1028,1548,0,0
-189,-524,0,0,0,0,0,0,0,0,0,-1,1035,1548,0,0
-182,-524,0,0,0,0,0,0,0,0,0,-1,1042,1548,0,0
-175,-524,0,0,0,0,0,0,0,0,0,-1,1049,1548,0,0
-168,-524,0,0,0,0,0,0,0,0,0,-1,1056,1548,0,0
-161,-524,0,0,0,0,0,0,0,0,0,-1,1063,1548,0,0
-154,-524,0,0,0,0,0,0,0,0,0,-1,1070,1548,0,0
-147,-524,0,0,0,0,0,0,0,0,0,-1,1077,1548,0,0
-140,-524,0,0,0,0,0,0,0,0,0,-1,1084,1548,0,0
-133,-524,0,0,0,0,0,0,0,0,0,-1,1091,1548,0,0
-126,-524,0,0,0,0,0,0,0,0,0,-1,1098,1548,0,0
-119,-524,0,0,0,0,0,0,0,0,0,-1,1105,1548,0,0
-112,-524,0,0,0,0,0,0,0,0,0,-1,1112,1548,0,0
-105,-524,0,0,0,0,0,0,0,0,0,-1,1119,1548,0,0
-98,-524,0,0,0,0,0,0,0,0,0,-1,1126,1548,0,0
-91,-524,0,0,0,0,0,0,0,0,0,-1,1133,1548,0,0
-84,-524,0,0,0,0,0,0,0,0,0,-1,1140,1548,0,0
-77,-524,0,0,0,0,0,0,0,0,0,-1,1147,1548,0,0
-70,-524,0,0,0,0,0,0,0,0,0,-1,1154,1548,0,0
-63,-524,0,0,0,0,0,0,0,0,0,-1,1161,1548,0,0
-56,-524,0,0,0,0,0,0,0,0,0,-1,1168,1548,0,0
-49,-524,0,0,0,0,0,0,0,0,0,-1,1175,1548,0,0
-42,-524,0,0,0,0,0,0,0,0,0,-1,1182,1548,0,0
-35,-524,0,0,0,0,0,0,0,0,0,-1,1189,1548,0,0
-28,-524,0,0,0,0,0,0,0,0,0,-1,1196,1548,0,0
-21,-524,0,0,0,0,0,0,0,0,0,-1,1203,1548,0,0
-14,-524,0,0,0,0,0,0,0,0,0,-1,1210,1548,0,0
-7,-524,0,0,0,0,0,0,0,0,0,-1,1217,1548,0,0
0,-524,0,0,0,0,0,0,0,0,0,-1,1224,1548,0,0
7,-524,0,0,0,0,0,0,0,0,0,-1,1231,1548,0,0
14,-524,0,0,0,0,0,0,0,0,0,-1,1238,1548,0,0
21,-524,0,0,0,0,0,0,0,0,0,-1,1245,1548,0,0
28,-524,0,0,0,0,0,0,0,0,0,-1,1252,1548,0,0
35,-524,0,0,0,0,0,0,0,0,0,-1,1259,1548,0,0
42,-524,0,0,0,0,0,0,0,0,0,-1,1266,1548,0,0
49,-524,0,0,0,0,0,0,0,0,0,-1,1273,1548,0,0
56,-524,0,0,0,0,0,0,0,0,0,-1,1280,1548,0,0
63,-524,0,0,0,0,0,0,0,0,0,-1,1287,1548,0,0
70,-524,0,0,0,0,0,0,0,0,0,-1,1294,1548,0,0
77,-524,0,0,0,0,0,0,0,0,0,-1,1301,1548,0,0
84,-524,0,0,0,0,0,0,0,0,0,-1,1308,1548,0,0
91,-524,0,0,0,0,0,0,0,0,0,-1,1315,1548,0,0
98,-524,0,0,0,0,0,0,0,0,0,-1,1322,1548,0,0
105,-524,0,0,0,0,0,0,0,0,0,-1,1329,1548,0,0
112,-524,0,0,0,0,0,0,0,0,0,-1,1336,1548,0,0
119,-524,0,0,0,0,0,0,0,0,0,-1,1343,1548,0,0
126,-524,0,0,0,0,0,0,0,0,0,-1,1350,1548,0,0
133,-524,0,0,0,0,0,0,0,0,0,-1,1357,1548,0,0
140,-524,0,0,0,0,0,0,0,0,0,-1,1364,1548,0,0
147,-524,0,0,0,0,0,0,0,0,0,-1,1371,1548,0,0
154,-524,0,0,0,0,0,0,0,0,0,-1,1378,1548,0,0
161,-524,0,0,0,0,0,0,0,0,0,-1,1385,1548,0,0
168,-524,0,0,0,0,0,0,0,0,0,-1,1392,1548,0,0
175,-524,0,0,0,0,0,0,0,0,0,-1,1399,1548,0,0
182,-524,0,0,0,0,0,0,0,0,0,-1,1406,1548,0,0
189,-524,0,0,0,0,0,0,0,0,0,-1,1413,1548,0,0
196,-524,0,0,0,0,0,0,0,0,0,-1,1420,1548,0,0
203,-524,0,0,0,0,0,0,0,0,0,-1,1427,1548,0,0
210,-524,0,0,0,0,0,0,0,0,0,-1,1434,1548,0,0
217,-524,0,0,0,0,0,0,0,0,0,-1,1441,1548,0,0
224,-524,0,0,0,0,0,0,0,0,0,-1,1448,1548,0,0
231,-524,0,0,0,0,0,0,0,0,0,-1,1455,1548,0,0
238,-524,0,0,0,0,0,0,0,0,0,-1,1462,1548,0,0
245,-524,0,0,0,0,0,0,0,0,0,-1,1469,1548,0,0
252,-524,0,0,0,0,0,0,0,0,0,-1,1476,1548,0,0
259,-524,0,0,0,0,0,0,0,0,0,-1,1483,1548,0,0
266,-524,0,0,0,0,0,0,0,0,0,-1,1490,1548,0,0
273,-524,0,0,0,0,0,0,0,0,0,-1,1497,1548,0,0
280,-524,0,0,0,0,0,0,0,0,0,-1,1504,1548,0,0
287,-524,0,0,0,0,0,0,0,0,0,-1,1511,1548,0,0
294,-524,0,0,0,0,0,0,0,0,0,-1,1518,1548,0,0
301,-524,0,0,0,0,0,0,0,0,0,-1,1525,1548,0,0
308,-524,0,0,0,0,0,0,0,0,0,-1,1532,1548,0,0
315,-524,0,0,0,0,0,0,0,0,0,-1,1539,1548,0,0
322,-524,0,0,0,0,0,0,0,0,0,-1,1546,1548,0,0
329,-524,0,0,0,0,0,0,0,0,0,-1,1553,1548,0,0
336,-524,0,0,0,0,0,0,0,0,0,-1,1560,1548,0,0
343,-524,0,0,0,0,0,0,0,0,0,-1,1567,1548,0,0
350,-524,0,0,0,0,0,0,0,0,0,-1,1574,1548,0,0
357,-524,0,0,0,0,0,0,0,0,0,-1,1581,1548,0,0
364,-524,0,0,0,0,0,0,0,0,0,-1,1588,1548,0,0
371,-524,0,0,0,0,0,0,0,0,0,-1,1595,1548,0,0
378,-524,0,0,0,0,0,0,0,0,0,-1,1602,1548,0,0
385,-524,0,0,0,0,0,0,0,0,0,-1,1609,1548,0,0
392,-524,0,0,0,0,0,0,0,0,0,-1,1616,1548,0,0
399,-524,8.81848,5.05774,0,0,0,0,0,0,0,-1,1623,1548,8.81843,-5.05769
406,-524,8.64294,6.06799,0,0,0,0,0,0,0,-1,1630,1548,8.6429,-6.06805
413,-524,11.677,6.41858,0,0,0,0,0,0,0,-1,1637,1548,11.677,-6.41864
420,-524,11.4913,6.36401,0,0,0,0,0,0,0,-1,1644,1548,11.4913,-6.36402
427,-524,7.68335,6.17249,0,0,0,0,0,0,0,-1,1651,1548,7.68341,-6.17245
434,-524,10.432,11.6801,0,0,0,0,0,0,0,-1,1658,1548,10.432,-11.68
441,-524,8.78552,4.12305,0,0,0,0,0,0,0,-1,1665,1548,8.78553,-4.12301
448,-524,14.1854,4.78674,0,0,0,0,0,0,0,-1,1672,1548,14.1854,-4.78674
455,-524,12.4784,3.65576,0,0,0,0,0,0,0,-1,1679,1548,12.4784,-3.65572
462,-524,11.9464,4.95581,0,0,0,0,0,0,0,-1,1686,1548,11.9464,-4.95586
469,-524,12.1188,7.98254,0,0,0,0,0,0,0,-1,1693,1548,12.1187,-7.98256
476,-524,10.7104,8.32092,0,0,0,0,0,0,0,-1,1700,1548,10.7104,-8.32087
483,-524,10.4125,9.6167,0,0,0,0,0,0,0,-1,1707,1548,10.4124,-9.61666
490,-524,10.0688,10.7383,-0.0105646,-0.0432482,0.0346846,0.0114352,-0.065248,0.565246,0.0477688,0.0422518,1714,1548,10.0688,-10.7382
497,-524,9.95496,11.6984,-0.00869835,-0.0345095,0.0283257,0.0095232,-0.052731,0.571642,0.0387208,0.0335075,1721,1548,9.95493,-11.6984
504,-524,9.87256,11.6962,-0.00712453,-0.0269745,0.0228194,0.00783477,-0.0419338,0.580269,0.0309004,0.0194778,1728,1548,9.8726,-11.6962
511,-524,9.8324,11.568,-0.00570418,-0.0208382,0.0180338,0.0062858,-0.0328282,0.586753,0.0242538,0.018977,1735,1548,9.83237,-11.5679
518,-524,9.8739,11.3279,-0.00441987,-0.0157056,0.0138575,0.00489964,-0.0250251,0.592047,0.0185338,0.0159412,1742,1548,9.87395,-11.3279
525,-524,9.87134,11.1309,-0.00329137,-0.0112723,0.0102616,0.00372836,-0.018292,0.59996,0.0136088,0.01376,1749,1548,9.87132,-11.1309
532,-524,9.87622,10.9028,-0.00209993,-0.00787171,0.0072092,0.00277954,-0.0127512,0.595013,0.00956292,0.00973119,1756,1548,9.8762,-10.9029
539,-524,9.8783,10.6534,-0.001097,-0.0052399,0.00498235,0.00222735,-0.00856425,0.58839,0.00657886,0.00990968,1763,1548,9.87835,-10.6534
546,-524,9.86536,10.4313,0.000323519,-0.00271353,0.00269463,0.00189804,-0.00428805,0.528809,0.00365932,0.0128642,1770,1548,9.86538,-10.4313
553,-524,9.88062,10.2163,0.00187759,-0.000856951,0.000277146,0.0019054,-0.000884757,0.0999954,0.00164643,0.021166,1777,1548,9.88056,-10.2163
560,-524,9.88831,9.97559,0.00389234,0.00115595,-0.00184133,0.00481815,0.00023014,-0.46588,0.0031382,0.0286171,1784,1548,9.88827,-9.97562
567,-524,9.85852,9.7793,0.00732648,0.00258796,-0.00414348,0.00973024,0.00018419,-0.525683,0.00642631,0.0169621,1791,1548,9.8585,-9.77926
574,-524,9.87598,9.53125,0.0110528,0.00396163,-0.00665526,0.015048,-3.35742e-05,-0.540646,0.0100432,0.0121468,1798,1548,9.87593,-9.53121
581,-524,9.88403,9.29309,0.0154142,0.00535144,-0.00962698,0.0212453,-0.000479654,-0.544603,0.0143261,0.0126381,1805,1548,9.88401,-9.2931
588,-524,9.88403,9.05444,0.0209734,0.00701759,-0.0130679,0.0288097,-0.0008187,-0.54017,0.0194851,0.0145553,1812,1548,9.88402,-9.05447
595,-524,9.87524,8.8125,0.0278427,0.00883486,-0.0173051,0.0380819,-0.00140439,-0.534285,0.0258688,0.0172873,1819,1548,9.87519,-8.81254
602,-524,10.0105,8.42053,0.0361071,0.0108558,-0.0222999,0.0491075,-0.0021446,-0.52781,0.0334761,0.0335309,1826,1548,10.0106,-8.42054
609,-524,9.85095,7.34436,0.045874,0.012982,-0.0281628,0.0620411,-0.00318516,-0.521127,0.0424623,0.0483887,1833,1548,9.85091,-7.34431
616,-524,11.5577,8.15808,0,0,0,0,0,0,0,-1,1840,1548,11.5577,-8.15802
623,-524,9.38452,5.15356,0,0,0,0,0,0,0,-1,1847,1548,9.38456,-5.15359
630,-524,11.0541,3.57434,0,0,0,0,0,0,0,-1,1854,1548,11.0541,-3.57438
637,-524,11.6067,3.20728,0,0,0,0,0,0,0,-1,1861,1548,11.6067,-3.20724
644,-524,12.2134,0.727173,0,0,0,0,0,0,0,-1,1868,1548,12.2134,-0.727222
651,-524,0,0,0,0,0,0,0,0,0,-1,1875,1548,0,0
658,-524,0,0,0,0,0,0,0,0,0,-1,1882,1548,0,0
665,-524,0,0,0,0,0,0,0,0,0,-1,1889,1548,0,0
672,-524,0,0,0,0,0,0,0,0,0,-1,1896,1548,0,0
679,-524,0,0,0,0,0,0,0,0,0,-1,1903,1548,0,0
686,-524,0,0,0,0,0,0,0,0,0,-1,1910,1548,0,0
693,-524,0,0,0,0,0,0,0,0,0,-1,1917,1548,0,0
700,-524,0,0,0,0,0,0,0,0,0,-1,1924,1548,0,0
707,-524,0,0,0,0,0,0,0,0,0,-1,1931,1548,0,0
714,-524,0,0,0,0,0,0,0,0,0,-1,1938,1548,0,0
721,-524,0,0,0,0,0,0,0,0,0,-1,1945,1548,0,0
728,-524,0,0,0,0,0,0,0,0,0,-1,1952,1548,0,0
735,-524,0,0,0,0,0,0,0,0,0,-1,1959,1548,0,0
742,-524,0,0,0,0,0,0,0,0,0,-1,1966,1548,0,0
749,-524,0,0,0,0,0,0,0,0,0,-1,1973,1548,0,0
756,-524,0,0,0,0,0,0,0,0,0,-1,1980,1548,0,0
763,-524,0,0,0,0,0,0,0,0,0,-1,1987,1548,0,0
770,-524,0,0,0,0,0,0,0,0,0,-1,1994,1548,0,0
777,-524,0,0,0,0,0,0,0,0,0,-1,2001,1548,0,0
784,-524,0,0,0,0,0,0,0,0,0,-1,2008,1548,0,0
791,-524,0,0,0,0,0,0,0,0,0,-1,2015,1548,0,0
798,-524,0,0,0,0,0,0,0,0,0,-1,2022,1548,0,0
805,-524,0,0,0,0,0,0,0,0,0,-1,2029,1548,0,0
812,-524,0,0,0,0,0,0,0,0,0,-1,2036,1548,0,0
-700,-531,0,0,0,0,0,0,0,0,0,-1,524,1555,0,0
-693,-531,0,0,0,0,0,0,0,0,0,-1,531,1555,0,0
-686,-531,0,0,0,0,0,0,0,0,0,-1,538,1555,0,0
-679,-531,0,0,0,0,0,0,0,0,0,-1,545,1555,0,0
-672,-531,0,0,0,0,0,0,0,0,0,-1,552,1555,0,0
-665,-531,0,0,0,0,0,0,0,0,0,-1,559,1555,0,0
-658,-531,0,0,0,0,0,0,0,0,0,-1,566,1555,0,0
-651,-531,0,0,0,0,0,0,0,0,0,-1,573,1555,0,0
-644,-531,0,0,0,0,0,0,0,0,0,-1,580,1555,0,0
-637,-531,0,0,0,0,0,0,0,0,0,-1,587,1555,0,0
-630,-531,0,0,0,0,0,0,0,0,0,-1,594,1555,0,0
-623,-531,0,0,0,0,0,0,0,0,0,-1,601,1555,0,0
-616,-531,0,0,0,0,0,0,0,0,0,-1,608,1555,0,0
-609,-531,0,0,0,0,0,0,0,0,0,-1,615,1555,0,0
-602,-531,0,0,0,0,0,0,0,0,0,-1,622,1555,0,0
-595,-531,0,0,0,0,0,0,0,0,0,-1,629,1555,0,0
-588,-531,0,0,0,0,0,0,0,0,0,-1,636,1555,0,0
-581,-531,0,0,0,0,0,0,0,0,0,-1,643,1555,0,0
-574,-531,0,0,0,0,0,0,0,0,0,-1,650,1555,0,0
-567,-531,0,0,0,0,0,0,0,0,0,-1,657,1555,0,0
-560,-531,0,0,0,0,0,0,0,0,0,-1,664,1555,0,0
-553,-531,0,0,0,0,0,0,0,0,0,-1,671,1555,0,0
-546,-531,0,0,0,0,0,0,0,0,0,-1,678,1555,0,0
-539,-531,0,0,0,0,0,0,0,0,0,-1,685,1555,0,0
-532,-531,0,0,0,0,0,0,0,0,0,-1,692,1555,0,0
-525,-531,0,0,0,0,0,0,0,0,0,-1,699,1555,0,0
-518,-531,-1.63983,4.03821,0,0,0,0,0,0,0,-1,706,1555,-1.63982,-4.03821
-511,-531,-2.9682,8.07483,0,0,0,0,0,0,0,-1,713,1555,-2.9682,-8.07479
-504,-531,-2.95978,0.557861,0,0,0,0,0,0,0,-1,720,1555,-2.95978,-0.557917
-497,-531,-1.22644,6.35693,0,0,0,0,0,0,0,-1,727,1555,-1.22646,-6.3569
-490,-531,-1.16266,6.19287,0,0,0,0,0,0,0,-1,734,1555,-1.16264,-6.19288
-483,-531,-1.30096,6.43884,0,0,0,0,0,0,0,-1,741,1555,-1.30095,-6.43882
-476,-531,-0.773804,6.69678,0.0283612,0.0189061,0.00731371,0.0323423,0.0149251,0.49848,0.0186913,0.043906,748,1555,-0.773802,-6.69677
-469,-531,-0.200867,6.89636,0.02244,0.0171476,0.00713982,0.0274082,0.0121794,0.607932,0.0158568,0.0427242,755,1555,-0.200888,-6.89631
-462,-531,-0.0751343,7.20862,0.017256,0.0152273,0.00678611,0.0231032,0.00938015,0.711208,0.0134169,0.0387483,762,1555,-0.0751377,-7.2086
-455,-531,-0.204407,7.63391,0.0131889,0.013047,0.00619705,0.0193154,0.00692051,0.779673,0.0113001,0.027358,769,1555,-0.204388,-7.63391
-448,-531,-0.162964,7.83484,0.00986918,0.0107572,0.00542175,0.0157531,0.00487329,0.826253,0.00931282,0.0130534,776,1555,-0.162954,-7.8348
-441,-531,-0.183899,8.07776,0.00731041,0.00862874,0.00461994,0.0126363,0.00330284,0.856259,0.00756745,0.0109623,783,1555,-0.183898,-8.07775
-434,-531,-0.188599,8.33167,0.00551336,0.00688249,0.00384696,0.0101053,0.00229054,0.873451,0.006118,0.0117197,790,1555,-0.18857,-8.33169
-427,-531,-0.20166,8.57556,0.00415116,0.00489315,0.00316682,0.00771063,0.00133368,0.843707,0.00475857,0.0132745,797,1555,-0.201664,-8.57554
-420,-531,-0.204163,8.83594,0.00304508,0.00314328,0.00223155,0.00532627,0.000862095,0.796397,0.00330122,0.0119229,804,1555,-0.204135,-8.83593
-413,-531,-0.200439,9.09009,0.00242106,0.00114707,0.00132953,0.00325831,0.000309814,0.561999,0.00207666,0.0101446,811,1555,-0.200426,-9.09011
-406,-531,-0.211426,9.34058,0.00218551,-0.000742209,0.000391504,0.00223696,-0.000793658,0.130665,0.00181466,0.0107421,818,1555,-0.211427,-9.34063
-399,-531,-0.212891,9.59558,0.0021316,-0.00236865,-0.000499219,0.00218631,-0.00242337,-0.109163,0.00266257,0.0129305,825,1555,-0.212875,-9.59556
-392,-531,-0.208435,9.8313,0.00204531,-0.00382971,-0.00135521,0.00234285,-0.00412725,-0.216125,0.00378257,0.0161796,832,1555,-0.208424,-9.83126
-385,-531,-0.227295,10.0677,0.00198242,-0.00492727,-0.00223388,0.00264172,-0.00558657,-0.286989,0.00485096,0.0135173,839,1555,-0.227281,-10.0677
-378,-531,-0.227844,10.3011,0.00189007,-0.00546711,-0.00301165,0.00296564,-0.00654269,-0.343019,0.00561763,0.0114553,846,1555,-0.22786,-10.3012
-371,-531,-0.184326,10.6013,0.00172955,-0.00598883,-0.00383423,0.00331046,-0.00756974,-0.391076,0.00644013,0.017032,853,1555,-0.184315,-10.6013
-364,-531,-0.125549,10.8318,0.0036615,-0.00436563,-0.00353927,0.00499912,-0.00570325,-0.361342,0.00618347,0.0348439,860,1555,-0.125579,-10.8318
-357,-531,-0.376892,10.8385,0.00698088,-0.000902775,-0.00191499,0.00742143,-0.00134332,-0.226117,0.00545085,0.0412209,867,1555,-0.376863,-10.8385
-350,-531,-0.549683,10.8875,0,0,0,0,0,0,0,-1,874,1555,-0.54971,-10.8874
-343,-531,-0.615173,11.7639,0,0,0,0,0,0,0,-1,881,1555,-0.615194,-11.764
-336,-531,-0.82489,12.2628,0,0,0,0,0,0,0,-1,888,1555,-0.82489,-12.2629
-329,-531,-0.837036,12.8107,0,0,0,0,0,0,0,-1,895,1555,-0.837031,-12.8107
-322,-531,2.25952,15.5398,0,0,0,0,0,0,0,-1,902,1555,2.25949,-15.5398
-315,-531,2.59302,15.1956,0.0516512,0.0529817,0.0336144,0.0859374,0.0186955,0.795292,0.0521882,0.0483483,909,1555,2.59303,-15.1956
-308,-531,3.31274,14.9536,0.0641434,0.0647838,0.0444146,0.108879,0.0200479,0.789003,0.0669123,0.045098,916,1555,3.31275,-14.9536
-301,-531,3.74609,15.8608,0,0,0,0,0,0,0,-1,923,1555,3.7461,-15.8609
-294,-531,-1.3244,8.1825,0,0,0,0,0,0,0,-1,930,1555,-1.3244,-8.18251
-287,-531,-1.41095,9.08215,0,0,0,0,0,0,0,-1,937,1555,-1.41095,-9.08216
-280,-531,-1.77509,9.93176,0,0,0,0,0,0,0,-1,944,1555,-1.77506,-9.93171
-273,-531,-5.5531,14.6454,0,0,0,0,0,0,0,-1,951,1555,-5.5531,-14.6454
-266,-531,-6.7038,16.0303,0,0,0,0,0,0,0,-1,958,1555,-6.7038,-16.0303
-259,-531,0,0,0,0,0,0,0,0,0,-1,965,1555,0,0
-252,-531,0,0,0,0,0,0,0,0,0,-1,972,1555,0,0
-245,-531,0,0,0,0,0,0,0,0,0,-1,979,1555,0,0
-238,-531,0,0,0,0,0,0,0,0,0,-1,986,1555,0,0
-231,-531,0,0,0,0,0,0,0,0,0,-1,993,1555,0,0
-224,-531,0,0,0,0,0,0,0,0,0,-1,1000,1555,0,0
-217,-531,0,0,0,0,0,0,0,0,0,-1,1007,1555,0,0
-210,-531,0,0,0,0,0,0,0,0,0,-1,1014,1555,0,0
-203,-531,0,0,0,0,0,0,0,0,0,-1,1021,1555,0,0
-196,-531,0,0,0,0,0,0,0,0,0,-1,1028,1555,0,0
-189,-531,0,0,0,0,0,0,0,0,0,-1,1035,1555,0,0
-182,-531,0,0,0,0,0,0,0,0,0,-1,1042,1555,0,0
-175,-531,0,0,0,0,0,0,0,0,0,-1,1049,1555,0,0
-168,-531,0,0,0,0,0,0,0,0,0,-1,1056,1555,0,0
-161,-531,0,0,0,0,0,0,0,0,0,-1,1063,1555,0,0
-154,-531,0,0,0,0,0,0,0,0,0,-1,1070,1555,0,0
-147,-531,0,0,0,0,0,0,0,0,0,-1,1077,1555,0,0
-140,-531,0,0,0,0,0,0,0,0,0,-1,1084,1555,0,0
-133,-531,0,0,0,0,0,0,0,0,0,-1,1091,1555,0,0
-126,-531,0,0,0,0,0,0,0,0,0,-1,1098,1555,0,0
-119,-531,0,0,0,0,0,0,0,0,0,-1,1105,1555,0,0
-112,-531,0,0,0,0,0,0,0,0,0,-1,1112,1555,0,0
-105,-531,0,0,0,0,0,0,0,0,0,-1,1119,1555,0,0
-98,-531,0,0,0,0,0,0,0,0,0,-1,1126,1555,0,0
-91,-531,0,0,0,0,0,0,0,0,0,-1,1133,1555,0,0
-84,-531,0,0,0,0,0,0,0,0,0,-1,1140,1555,0,0
-77,-531,0,0,0,0,0,0,0,0,0,-1,1147,1555,0,0
-70,-531,0,0,0,0,0,0,0,0,0,-1,1154,1555,0,0
-63,-531,0,0,0,0,0,0,0,0,0,-1,1161,1555,0,0
-56,-531,0,0,0,0,0,0,0,0,0,-1,1168,1555,0,0
-49,-531,0,0,0,0,0,0,0,0,0,-1,1175,1555,0,0
-42,-531,0,0,0,0,0,0,0,0,0,-1,1182,1555,0,0
-35,-531,0,0,0,0,0,0,0,0,0,-1,1189,1555,0,0
-28,-531,0,0,0,0,0,0,0,0,0,-1,1196,1555,0,0
-21,-531,0,0,0,0,0,0,0,0,0,-1,1203,1555,0,0
-14,-531,0,0,0,0,0,0,0,0,0,-1,1210,1555,0,0
-7,-531,0,0,0,0,0,0,0,0,0,-1,1217,1555,0,0
0,-531,0,0,0,0,0,0,0,0,0,-1,1224,1555,0,0
7,-531,0,0,0,0,0,0,0,0,0,-1,1231,1555,0,0
14,-531,0,0,0,0,0,0,0,0,0,-1,1238,1555,0,0
21,-531,0,0,0,0,0,0,0,0,0,-1,1245,1555,0,0
28,-531,0,0,0,0,0,0,0,0,0,-1,1252,1555,0,0
35,-531,0,0,0,0,0,0,0,0,0,-1,1259,1555,0,0
42,-531,0,0,0,0,0,0,0,0,0,-1,1266,1555,0,0
49,-531,0,0,0,0,0,0,0,0,0,-1,1273,1555,0,0
56,-531,0,0,0,0,0,0,0,0,0,-1,1280,1555,0,0
63,-531,0,0,0,0,0,0,0,0,0,-1,1287,1555,0,0
70,-531,0,0,0,0,0,0,0,0,0,-1,1294,1555,0,0
77,-531,0,0,0,0,0,0,0,0,0,-1,1301,1555,0,0
84,-531,0,0,0,0,0,0,0,0,0,-1,1308,1555,0,0
91,-531,0,0,0,0,0,0,0,0,0,-1,1315,1555,0,0
98,-531,0,0,0,0,0,0,0,0,0,-1,1322,1555,0,0
105,-531,0,0,0,0,0,0,0,0,0,-1,1329,1555,0,0
112,-531,0,0,0,0,0,0,0,0,0,-1,1336,1555,0,0
119,-531,0,0,0,0,0,0,0,0,0,-1,1343,1555,0,0
126,-531,0,0,0,0,0,0,0,0,0,-1,1350,1555,0,0
133,-531,0,0,0,0,0,0,0,0,0,-1,1357,1555,0,0
140,-531,0,0,0,0,0,0,0,0,0,-1,1364,1555,0,0
147,-531,0,0,0,0,0,0,0,0,0,-1,1371,1555,0,0
154,-531,0,0,0,0,0,0,0,0,0,-1,1378,1555,0,0
161,-531,0,0,0,0,0,0,0,0,0,-1,1385,1555,0,0
168,-531,0,0,0,0,0,0,0,0,0,-1,1392,1555,0,0
175,-531,0,0,0,0,0,0,0,0,0,-1,1399,1555,0,0
182,-531,0,0,0,0,0,0,0,0,0,-1,1406,1555,0,0
189,-531,0,0,0,0,0,0,0,0,0,-1,1413,1555,0,0
196,-531,0,0,0,0,0,0,0,0,0,-1,1420,1555,0,0
203,-531,0,0,0,0,0,0,0,0,0,-1,1427,1555,0,0
210,-531,0,0,0,0,0,0,0,0,0,-1,1434,1555,0,0
217,-531,0,0,0,0,0,0,0,0,0,-1,1441,1555,0,0
224,-531,0,0,0,0,0,0,0,0,0,-1,1448,1555,0,0
231,-531,0,0,0,0,0,0,0,0,0,-1,1455,1555,0,0
238,-531,0,0,0,0,0,0,0,0,0,-1,1462,1555,0,0
245,-531,0,0,0,0,0,0,0,0,0,-1,1469,1555,0,0
252,-531,0,0,0,0,0,0,0,0,0,-1,1476,1555,0,0
259,-531,0,0,0,0,0,0,0,0,0,-1,1483,1555,0,0
266,-531,0,0,0,0,0,0,0,0,0,-1,1490,1555,0,0
273,-531,0,0,0,0,0,0,0,0,0,-1,1497,1555,0,0
280,-531,0,0,0,0,0,0,0,0,0,-1,1504,1555,0,0
287,-531,0,0,0,0,0,0,0,0,0,-1,1511,1555,0,0
294,-531,0,0,0,0,0,0,0,0,0,-1,1518,1555,0,0
301,-531,0,0,0,0,0,0,0,0,0,-1,1525,1555,0,0
308,-531,0,0,0,0,0,0,0,0,0,-1,1532,1555,0,0
315,-531,0,0,0,0,0,0,0,0,0,-1,1539,1555,0,0
322,-531,0,0,0,0,0,0,0,0,0,-1,1546,1555,0,0
329,-531,0,0,0,0,0,0,0,0,0,-1,1553,1555,0,0
336,-531,0,0,0,0,0,0,0,0,0,-1,1560,1555,0,0
343,-531,0,0,0,0,0,0,0,0,0,-1,1567,1555,0,0
350,-531,0,0,0,0,0,0,0,0,0,-1,1574,1555,0,0
357,-531,0,0,0,0,0,0,0,0,0,-1,1581,1555,0,0
364,-531,0,0,0,0,0,0,0,0,0,-1,1588,1555,0,0
371,-531,0,0,0,0,0,0,0,0,0,-1,1595,1555,0,0
378,-531,0,0,0,0,0,0,0,0,0,-1,1602,1555,0,0
385,-531,3.13403,1.88721,0,0,0,0,0,0,0,-1,1609,1555,3.13401,-1.88726
392,-531,9.85535,8.26208,0,0,0,0,0,0,0,-1,1616,1555,9.85533,-8.26206
399,-531,8.26306,5.29602,0,0,0,0,0,0,0,-1,1623,1555,8.26302,-5.29607
406,-531,8.26147,5.42712,0,0,0,0,0,0,0,-1,1630,1555,8.26145,-5.42716
413,-531,8.20618,5.75012,0,0,0,0,0,0,0,-1,1637,1555,8.20619,-5.75017
420,-531,7.64868,7.09558,0,0,0,0,0,0,0,-1,1644,1555,7.64867,-7.09564
427,-531,9.93054,11.8412,0,0,0,0,0,0,0,-1,1651,1555,9.93059,-11.8412
434,-531,10.244,11.7072,0,0,0,0,0,0,0,-1,1658,1555,10.244,-11.7071
441,-531,9.03882,11.1136,0,0,0,0,0,0,0,-1,1665,1555,9.03881,-11.1137
448,-531,8.70752,11.1261,0,0,0,0,0,0,0,-1,1672,1555,8.70751,-11.126
455,-531,12.5403,6.53625,0,0,0,0,0,0,0,-1,1679,1555,12.5403,-6.53629
462,-531,11.6357,6.271,0,0,0,0,0,0,0,-1,1686,1555,11.6358,-6.27095
469,-531,11.1533,8.24194,0,0,0,0,0,0,0,-1,1693,1555,11.1534,-8.24189
476,-531,11.168,11.6705,0,0,0,0,0,0,0,-1,1700,1555,11.1679,-11.6705
483,-531,10.0787,11.8376,0,0,0,0,0,0,0,-1,1707,1555,10.0787,-11.8376
490,-531,9.89063,11.87,-0.00925812,-0.0342846,0.0275862,0.00852021,-0.0520629,0.572474,0.0378695,0.0337484,1714,1555,9.89056,-11.87
497,-531,9.64441,11.9706,-0.0076069,-0.0273345,0.0225145,0.00710969,-0.0420511,0.578937,0.0306798,0.0163609,1721,1555,9.64446,-11.9706
504,-531,9.61963,11.8029,-0.00606673,-0.0213322,0.0180798,0.00592543,-0.0333243,0.585663,0.0244321,0.010883,1728,1555,9.61962,-11.8028
511,-531,9.61902,11.5697,-0.00467979,-0.016345,0.0141221,0.00476675,-0.0257915,0.589562,0.0189838,0.0132583,1735,1555,9.61898,-11.5698
518,-531,9.61792,11.3403,-0.00340954,-0.0121965,0.0106515,0.00371902,-0.0193251,0.589791,0.0142854,0.0140166,1742,1555,9.61791,-11.3403
525,-531,9.62988,11.124,-0.00226567,-0.00856043,0.0076298,0.00284042,-0.0136665,0.589776,0.0101906,0.0131131,1749,1555,9.6299,-11.1241
532,-531,9.66956,10.8916,-0.00108946,-0.00577844,0.00505762,0.00214065,-0.00900855,0.568363,0.00683197,0.00986777,1756,1555,9.6695,-10.8916
539,-531,9.66113,10.6553,-2.9102e-05,-0.0036382,0.00319312,0.0018341,-0.0055014,0.528203,0.00440805,0.011333,1763,1555,9.66117,-10.6552
546,-531,9.61902,10.4265,0.00158011,-0.00157213,0.00112405,0.00193988,-0.00193189,0.309757,0.00223537,0.0147792,1770,1555,9.61906,-10.4265
553,-531,9.66882,10.2156,0.00340583,-1.508e-05,-0.00119613,0.00378257,-0.000391819,-0.30513,0.00266195,0.0275611,1777,1555,9.66882,-10.2156
560,-531,9.71606,9.99658,0.00573298,0.00182409,-0.00327083,0.00758881,-3.17316e-05,-0.516095,0.00506982,0.0314561,1784,1555,9.71602,-9.9966
567,-531,9.60071,9.79993,0.00963891,0.00322812,-0.00562367,0.0129066,-3.95169e-05,-0.52637,0.00861757,0.0189141,1791,1555,9.60075,-9.79992
574,-531,9.64856,9.55908,0.0139652,0.00459001,-0.00844384,0.0189353,-0.000380135,-0.532004,0.0127522,0.0125785,1798,1555,9.64856,-9.55908
581,-531,9.65784,9.28467,0.0193744,0.00606828,-0.0119521,0.0264003,-0.000957654,-0.531433,0.017928,0.010787,1805,1555,9.65782,-9.28469
588,-531,9.67224,9.00146,0.0264479,0.00814324,-0.0162513,0.0359469,-0.00135569,-0.528947,0.024429,0.0148356,1812,1555,9.67222,-9.00143
595,-531,9.78857,8.70227,0.0352454,0.0106412,-0.021723,0.0479079,-0.00202132,-0.527756,0.0326332,0.0326134,1819,1555,9.7886,-8.70232
602,-531,10.7734,8.22217,0.0460221,0.0136736,-0.0283694,0.0625041,-0.00280833,-0.526315,0.0426363,0.047914,1826,1555,10.7735,-8.22211
609,-531,9.67322,6.98608,0,0,0,0,0,0,0,-1,1833,1555,9.67326,-6.98608
616,-531,10.5723,7.17859,0,0,0,0,0,0,0,-1,1840,1555,10.5723,-7.17855
623,-531,10.0674,5.08984,0,0,0,0,0,0,0,-1,1847,1555,10.0674,-5.08981
630,-531,11.672,3.18909,0,0,0,0,0,0,0,-1,1854,1555,11.672,-3.18904
637,-531,13.2546,1.38965,0,0,0,0,0,0,0,-1,1861,1555,13.2547,-1.3896
644,-531,0,0,0,0,0,0,0,0,0,-1,1868,1555,0,0
651,-531,0,0,0,0,0,0,0,0,0,-1,1875,1555,0,0
658,-531,0,0,0,0,0,0,0,0,0,-1,1882,1555,0,0
665,-531,0,0,0,0,0,0,0,0,0,-1,1889,1555,0,0
672,-531,0,0,0,0,0,0,0,0,0,-1,1896,1555,0,0
679,-531,0,0,0,0,0,0,0,0,0,-1,1903,1555,0,0
686,-531,0,0,0,0,0,0,0,0,0,-1,1910,1555,0,0
693,-531,0,0,0,0,0,0,0,0,0,-1,1917,1555,0,0
700,-531,0,0,0,0,0,0,0,0,0,-1,1924,1555,0,0
707,-531,0,0,0,0,0,0,0,0,0,-1,1931,1555,0,0
714,-531,0,0,0,0,0,0,0,0,0,-1,1938,1555,0,0
721,-531,0,0,0,0,0,0,0,0,0,-1,1945,1555,0,0
728,-531,0,0,0,0,0,0,0,0,0,-1,1952,1555,0,0
735,-531,0,0,0,0,0,0,0,0,0,-1,1959,1555,0,0
742,-531,0,0,0,0,0,0,0,0,0,-1,1966,1555,0,0
749,-531,0,0,0,0,0,0,0,0,0,-1,1973,1555,0,0
756,-531,0,0,0,0,0,0,0,0,0,-1,1980,1555,0,0
763,-531,0,0,0,0,0,0,0,0,0,-1,1987,1555,0,0
770,-531,0,0,0,0,0,0,0,0,0,-1,1994,1555,0,0
777,-531,0,0,0,0,0,0,0,0,0,-1,2001,1555,0,0
784,-531,0,0,0,0,0,0,0,0,0,-1,2008,1555,0,0
791,-531,0,0,0,0,0,0,0,0,0,-1,2015,1555,0,0
798,-531,0,0,0,0,0,0,0,0,0,-1,2022,1555,0,0
805,-531,0,0,0,0,0,0,0,0,0,-1,2029,1555,0,0
812,-531,0,0,0,0,0,0,0,0,0,-1,2036,1555,0,0
-700,-538,0,0,0,0,0,0,0,0,0,-1,524,1562,0,0
-693,-538,0,0,0,0,0,0,0,0,0,-1,531,1562,0,0
-686,-538,0,0,0,0,0,0,0,0,0,-1,538,1562,0,0
-679,-538,0,0,0,0,0,0,0,0,0,-1,545,1562,0,0
-672,-538,0,0,0,0,0,0,0,0,0,-1,552,1562,0,0
-665,-538,0,0,0,0,0,0,0,0,0,-1,559,1562,0,0
-658,-538,0,0,0,0,0,0,0,0,0,-1,566,1562,0,0
-651,-538,0,0,0,0,0,0,0,0,0,-1,573,1562,0,0
-644,-538,0,0,0,0,0,0,0,0,0,-1,580,1562,0,0
-637,-538,0,0,0,0,0,0,0,0,0,-1,587,1562,0,0
-630,-538,0,0,0,0,0,0,0,0,0,-1,594,1562,0,0
-623,-538,0,0,0,0,0,0,0,0,0,-1,601,1562,0,0
-616,-538,0,0,0,0,0,0,0,0,0,-1,608,1562,0,0
-609,-538,0,0,0,0,0,0,0,0,0,-1,615,1562,0,0
-602,-538,0,0,0,0,0,0,0,0,0,-1,622,1562,0,0
-595,-538,0,0,0,0,0,0,0,0,0,-1,629,1562,0,0
-588,-538,0,0,0,0,0,0,0,0,0,-1,636,1562,0,0
-581,-538,0,0,0,0,0,0,0,0,0,-1,643,1562,0,0
-574,-538,0,0,0,0,0,0,0,0,0,-1,650,1562,0,0
-567,-538,0,0,0,0,0,0,0,0,0,-1,657,1562,0,0
-560,-538,0,0,0,0,0,0,0,0,0,-1,664,1562,0,0
-553,-538,0,0,0,0,0,0,0,0,0,-1,671,1562,0,0
-546,-538,0,0,0,0,0,0,0,0,0,-1,678,1562,0,0
-539,-538,0,0,0,0,0,0,0,0,0,-1,685,1562,0,0
-532,-538,0,0,0,0,0,0,0,0,0,-1,692,1562,0,0
-525,-538,0,0,0,0,0,0,0,0,0,-1,699,1562,0,0
-518,-538,0,0,0,0,0,0,0,0,0,-1,706,1562,0,0
-511,-538,-2.6582,-1.54321,0,0,0,0,0,0,0,-1,713,1562,-2.65821,1.54327
-504,-538,-2.66455,-0.71167,0,0,0,0,0,0,0,-1,720,1562,-2.66456,0.711667
-497,-538,-0.763855,6.77747,0,0,0,0,0,0,0,-1,727,1562,-0.76385,-6.77743
-490,-538,-1.39441,7.53943,0,0,0,0,0,0,0,-1,734,1562,-1.39439,-7.53945
-483,-538,-1.2157,7.00684,0,0,0,0,0,0,0,-1,741,1562,-1.21569,-7.00687
-476,-538,-0.989014,6.71594,0.0370506,0.0271428,0.01141,0.0445357,0.0196577,0.580592,0.0257715,0.0429103,748,1562,-0.989013,-6.7159
-469,-538,-0.361145,6.81738,0.0290922,0.0244361,0.0109348,0.037944,0.0155842,0.680513,0.0220231,0.0444395,755,1562,-0.361144,-6.81733
-462,-538,-0.0823364,7.05786,0.0223525,0.0213299,0.0100878,0.031942,0.0117404,0.760077,0.0186561,0.0429464,762,1562,-0.0823466,-7.05781
-455,-538,0.0200806,7.54199,0.0169962,0.0180677,0.00901009,0.026558,0.00850597,0.815094,0.0156599,0.0358245,769,1562,0.0200983,-7.54198
-448,-538,0.0969849,7.87769,0.0126107,0.0148195,0.00772484,0.0215185,0.00591173,0.856402,0.0128371,0.0155591,776,1562,0.0969558,-7.87764
-441,-538,0.0916138,8.12744,0.00920857,0.0118319,0.00645065,0.0171029,0.00393758,0.885699,0.0103423,0.0149043,783,1562,0.0915844,-8.12748
-434,-538,0.0487671,8.33228,0.00674741,0.00944004,0.00530042,0.0135625,0.002625,0.909769,0.00830608,0.011528,790,1562,0.0487783,-8.33229
-427,-538,0.0180664,8.59729,0.00483965,0.00699814,0.00433079,0.0103821,0.00145566,0.907512,0.00649084,0.012836,797,1562,0.0180499,-8.59728
-420,-538,0.0315552,8.8407,0.00321943,0.00499627,0.00316834,0.00739839,0.000817308,0.922091,0.00468366,0.0166812,804,1562,0.0315464,-8.84074
-413,-538,0.0307617,9.09509,0.00224487,0.00275636,0.00212361,0.00463957,0.000361656,0.845325,0.00297982,0.0170173,811,1562,0.0307904,-9.09515
-406,-538,0.0324097,9.32751,0.00183067,0.000759618,0.00108989,0.0025095,8.07919e-05,0.557043,0.00164673,0.013992,818,1562,0.0324016,-9.32756
-399,-538,0.0478516,9.58997,0.00163247,-0.000835545,0.000139531,0.00164033,-0.000843408,0.0562965,0.00145838,0.0126123,825,1562,0.0478331,-9.59001
-392,-538,0.0477905,9.83032,0.0014445,-0.0021924,-0.000693413,0.00157222,-0.00232012,-0.18215,0.00226103,0.0136161,832,1562,0.0477912,-9.83033
-385,-538,0.019043,10.0737,0.00131482,-0.00321301,-0.00151723,0.00177622,-0.0036744,-0.295216,0.0032099,0.0117264,839,1562,0.01905,-10.0738
-378,-538,0.0220337,10.3147,0.00123861,-0.00357552,-0.00215986,0.00206558,-0.00440249,-0.365661,0.00381472,0.00966406,846,1562,0.0220339,-10.3147
-371,-538,0.0197144,10.5409,0.00116892,-0.00388253,-0.00279516,0.00241045,-0.00512406,-0.417996,0.0044431,0.0104634,853,1562,0.0196912,-10.5409
-364,-538,0.0493164,10.8231,0.00272161,-0.00251782,-0.00254025,0.00375097,-0.00354718,-0.385,0.00421414,0.0109491,860,1562,0.0493357,-10.8231
-357,-538,0.0669556,11.048,0.00525715,0.000424636,-0.00118872,0.00553373,0.00014806,-0.2286,0.0036408,0.0214359,867,1562,0.0669653,-11.0479
-350,-538,0.00518799,11.1688,0.00735744,0.00460764,0.00136392,0.0079192,0.00404589,0.390696,0.00457251,0.0350943,874,1562,0.00518889,-11.1688
-343,-538,-0.151123,11.5917,0.0107224,0.00963659,0.00403735,0.0142532,0.00610582,0.718561,0.00825718,0.0437804,881,1562,-0.151098,-11.5917
-336,-538,-0.180908,12.0133,0.0153234,0.0159449,0.0077504,0.0233908,0.00787751,0.805435,0.0137424,0.0413529,888,1562,-0.180907,-12.0132
-329,-538,-0.115662,12.3663,0.0214562,0.0243144,0.0131312,0.036094,0.00967657,0.8396,0.0215731,0.0431887,895,1562,-0.115673,-12.3664
-322,-538,1.68402,15.0359,0,0,0,0,0,0,0,-1,902,1562,1.68404,-15.0359
-315,-538,2.01959,14.788,0.036492,0.0444511,0.0280219,0.0687746,0.0121685,0.855935,0.04238,0.043208,909,1562,2.01961,-14.7879
-308,-538,2.61951,14.7902,0.044966,0.0541462,0.0367844,0.0866258,0.0124864,0.847469,0.0540711,0.0450637,916,1562,2.61953,-14.7901
-301,-538,3.4162,15.3783,0,0,0,0,0,0,0,-1,923,1562,3.41623,-15.3783
-294,-538,1.23138,14.0757,0,0,0,0,0,0,0,-1,930,1562,1.23137,-14.0757
-287,-538,0.768677,11.1807,0,0,0,0,0,0,0,-1,937,1562,0.768704,-11.1807
-280,-538,-4.0293,11.8911,0,0,0,0,0,0,0,-1,944,1562,-4.02932,-11.8911
-273,-538,-4.85803,13.4651,0,0,0,0,0,0,0,-1,951,1562,-4.85802,-13.4651
-266,-538,-5.69073,14.9116,0,0,0,0,0,0,0,-1,958,1562,-5.69073,-14.9116
-259,-538,-6.21277,16.2444,0,0,0,0,0,0,0,-1,965,1562,-6.21275,-16.2444
-252,-538,0,0,0,0,0,0,0,0,0,-1,972,1562,0,0
-245,-538,0,0,0,0,0,0,0,0,0,-1,979,1562,0,0
-238,-538,0,0,0,0,0,0,0,0,0,-1,986,1562,0,0
-231,-538,0,0,0,0,0,0,0,0,0,-1,993,1562,0,0
-224,-538,0,0,0,0,0,0,0,0,0,-1,1000,1562,0,0
-217,-538,0,0,0,0,0,0,0,0,0,-1,1007,1562,0,0
-210,-538,0,0,0,0,0,0,0,0,0,-1,1014,1562,0,0
-203,-538,0,0,0,0,0,0,0,0,0,-1,1021,1562,0,0
-196,-538,0,0,0,0,0,0,0,0,0,-1,1028,1562,0,0
-189,-538,0,0,0,0,0,0,0,0,0,-1,1035,1562,0,0
-182,-538,0,0,0,0,0,0,0,0,0,-1,1042,1562,0,0
-175,-538,0,0,0,0,0,0,0,0,0,-1,1049,1562,0,0
-168,-538,0,0,0,0,0,0,0,0,0,-1,1056,1562,0,0
-161,-538,0,0,0,0,0,0,0,0,0,-1,1063,1562,0,0
-154,-538,0,0,0,0,0,0,0,0,0,-1,1070,1562,0,0
-147,-538,0,0,0,0,0,0,0,0,0,-1,1077,1562,0,0
-140,-538,0,0,0,0,0,0,0,0,0,-1,1084,1562,0,0
-133,-538,0,0,0,0,0,0,0,0,0,-1,1091,1562,0,0
-126,-538,0,0,0,0,0,0,0,0,0,-1,1098,1562,0,0
-119,-538,0,0,0,0,0,0,0,0,0,-1,1105,1562,0,0
-112,-538,0,0,0,0,0,0,0,0,0,-1,1112,1562,0,0
-105,-538,0,0,0,0,0,0,0,0,0,-1,1119,1562,0,0
-98,-538,0,0,0,0,0,0,0,0,0,-1,1126,1562,0,0
-91,-538,0,0,0,0,0,0,0,0,0,-1,1133,1562,0,0
-84,-538,0,0,0,0,0,0,0,0,0,-1,1140,1562,0,0
-77,-538,0,0,0,0,0,0,0,0,0,-1,1147,1562,0,0
-70,-538,0,0,0,0,0,0,0,0,0,-1,1154,1562,0,0
-63,-538,0,0,0,0,0,0,0,0,0,-1,1161,1562,0,0
-56,-538,0,0,0,0,0,0,0,0,0,-1,1168,1562,0,0
-49,-538,0,0,0,0,0,0,0,0,0,-1,1175,1562,0,0
-42,-538,0,0,0,0,0,0,0,0,0,-1,1182,1562,0,0
-35,-538,0,0,0,0,0,0,0,0,0,-1,1189,1562,0,0
-28,-538,0,0,0,0,0,0,0,0,0,-1,1196,1562,0,0
-21,-538,0,0,0,0,0,0,0,0,0,-1,1203,1562,0,0
-14,-538,0,0,0,0,0,0,0,0,0,-1,1210,1562,0,0
-7,-538,0,0,0,0,0,0,0,0,0,-1,1217,1562,0,0
0,-538,0,0,0,0,0,0,0,0,0,-1,1224,1562,0,0
7,-538,0,0,0,0,0,0,0,0,0,-1,1231,1562,0,0
14,-538,0,0,0,0,0,0,0,0,0,-1,1238,1562,0,0
21,-538,0,0,0,0,0,0,0,0,0,-1,1245,1562,0,0
28,-538,0,0,0,0,0,0,0,0,0,-1,1252,1562,0,0
35,-538,0,0,0,0,0,0,0,0,0,-1,1259,1562,0,0
42,-538,0,0,0,0,0,0,0,0,0,-1,1266,1562,0,0
49,-538,0,0,0,0,0,0,0,0,0,-1,1273,1562,0,0
56,-538,0,0,0,0,0,0,0,0,0,-1,1280,1562,0,0
63,-538,0,0,0,0,0,0,0,0,0,-1,1287,1562,0,0
70,-538,0,0,0,0,0,0,0,0,0,-1,1294,1562,0,0
77,-538,0,0,0,0,0,0,0,0,0,-1,1301,1562,0,0
84,-538,0,0,0,0,0,0,0,0,0,-1,1308,1562,0,0
91,-538,0,0,0,0,0,0,0,0,0,-1,1315,1562,0,0
98,-538,0,0,0,0,0,0,0,0,0,-1,1322,1562,0,0
105,-538,0,0,0,0,0,0,0,0,0,-1,1329,1562,0,0
112,-538,0,0,0,0,0,0,0,0,0,-1,1336,1562,0,0
119,-538,0,0,0,0,0,0,0,0,0,-1,1343,1562,0,0
126,-538,0,0,0,0,0,0,0,0,0,-1,1350,1562,0,0
133,-538,0,0,0,0,0,0,0,0,0,-1,1357,1562,0,0
140,-538,0,0,0,0,0,0,0,0,0,-1,1364,1562,0,0
147,-538,0,0,0,0,0,0,0,0,0,-1,1371,1562,0,0
154,-538,0,0,0,0,0,0,0,0,0,-1,1378,1562,0,0
161,-538,0,0,0,0,0,0,0,0,0,-1,1385,1562,0,0
168,-538,0,0,0,0,0,0,0,0,0,-1,1392,1562,0,0
175,-538,0,0,0,0,0,0,0,0,0,-1,1399,1562,0,0
182,-538,0,0,0,0,0,0,0,0,0,-1,1406,1562,0,0
189,-538,0,0,0,0,0,0,0,0,0,-1,1413,1562,0,0
196,-538,0,0,0,0,0,0,0,0,0,-1,1420,1562,0,0
203,-538,0,0,0,0,0,0,0,0,0,-1,1427,1562,0,0
210,-538,0,0,0,0,0,0,0,0,0,-1,1434,1562,0,0
217,-538,0,0,0,0,0,0,0,0,0,-1,1441,1562,0,0
224,-538,0,0,0,0,0,0,0,0,0,-1,1448,1562,0,0
231,-538,0,0,0,0,0,0,0,0,0,-1,1455,1562,0,0
238,-538,0,0,0,0,0,0,0,0,0,-1,1462,1562,0,0
245,-538,0,0,0,0,0,0,0,0,0,-1,1469,1562,0,0
252,-538,0,0,0,0,0,0,0,0,0,-1,1476,1562,0,0
259,-538,0,0,0,0,0,0,0,0,0,-1,1483,1562,0,0
266,-538,0,0,0,0,0,0,0,0,0,-1,1490,1562,0,0
273,-538,0,0,0,0,0,0,0,0,0,-1,1497,1562,0,0
280,-538,0,0,0,0,0,0,0,0,0,-1,1504,1562,0,0
287,-538,0,0,0,0,0,0,0,0,0,-1,1511,1562,0,0
294,-538,0,0,0,0,0,0,0,0,0,-1,1518,1562,0,0
301,-538,0,0,0,0,0,0,0,0,0,-1,1525,1562,0,0
308,-538,0,0,0,0,0,0,0,0,0,-1,1532,1562,0,0
315,-538,0,0,0,0,0,0,0,0,0,-1,1539,1562,0,0
322,-538,0,0,0,0,0,0,0,0,0,-1,1546,1562,0,0
329,-538,0,0,0,0,0,0,0,0,0,-1,1553,1562,0,0
336,-538,0,0,0,0,0,0,0,0,0,-1,1560,1562,0,0
343,-538,0,0,0,0,0,0,0,0,0,-1,1567,1562,0,0
350,-538,0,0,0,0,0,0,0,0,0,-1,1574,1562,0,0
357,-538,0,0,0,0,0,0,0,0,0,-1,1581,1562,0,0
364,-538,0,0,0,0,0,0,0,0,0,-1,1588,1562,0,0
371,-538,0,0,0,0,0,0,0,0,0,-1,1595,1562,0,0
378,-538,9.65479,5.82434,0,0,0,0,0,0,0,-1,1602,1562,9.6548,-5.82439
385,-538,8.69836,7.6283,0,0,0,0,0,0,0,-1,1609,1562,8.69835,-7.62829
392,-538,8.20361,7.07214,0,0,0,0,0,0,0,-1,1616,1562,8.20362,-7.07211
399,-538,7.85425,4.70508,0,0,0,0,0,0,0,-1,1623,1562,7.85425,-4.70512
406,-538,7.77734,4.96094,0,0,0,0,0,0,0,-1,1630,1562,7.77729,-4.96097
413,-538,13.0446,13.1765,0,0,0,0,0,0,0,-1,1637,1562,13.0446,-13.1765
420,-538,9.96216,12.7653,0,0,0,0,0,0,0,-1,1644,1562,9.96221,-12.7653
427,-538,10.1732,14.5863,0,0,0,0,0,0,0,-1,1651,1562,10.1732,-14.5863
434,-538,8.23096,15.3043,0,0,0,0,0,0,0,-1,1658,1562,8.23101,-15.3043
441,-538,8.42896,14.5763,0,0,0,0,0,0,0,-1,1665,1562,8.4289,-14.5763
448,-538,9.1366,12.1686,0,0,0,0,0,0,0,-1,1672,1562,9.13658,-12.1686
455,-538,10.6978,10.1636,0,0,0,0,0,0,0,-1,1679,1562,10.6978,-10.1636
462,-538,9.62854,10.9816,0,0,0,0,0,0,0,-1,1686,1562,9.62853,-10.9816
469,-538,10.2987,11.5654,0,0,0,0,0,0,0,-1,1693,1562,10.2987,-11.5654
476,-538,10.4757,12.0692,-0.0110352,-0.0403689,0.030783,0.00839647,-0.0598006,0.563078,0.0429404,0.0471117,1700,1562,10.4757,-12.0692
483,-538,9.62695,12.2759,-0.00937389,-0.0331946,0.025872,0.00719764,-0.0497661,0.569682,0.0358185,0.0292725,1707,1562,9.62695,-12.2759
490,-538,9.45251,12.1611,-0.0079416,-0.0266599,0.0214163,0.00607125,-0.0406728,0.579398,0.029349,0.0129087,1714,1562,9.45252,-12.1612
497,-538,9.41931,11.9846,-0.00642705,-0.021268,0.0173878,0.0050575,-0.0327525,0.583717,0.0237014,0.00878604,1721,1562,9.41926,-11.9846
504,-538,9.41785,11.7882,-0.00497717,-0.0165054,0.0138394,0.00425047,-0.0257331,0.588072,0.0187336,0.00834735,1728,1562,9.41787,-11.7882
511,-538,9.40515,11.5731,-0.0036355,-0.0124917,0.0105866,0.00341179,-0.019539,0.587318,0.0142996,0.00936809,1735,1562,9.4051,-11.5731
518,-538,9.39587,11.3558,-0.00236641,-0.00919165,0.007731,0.00267167,-0.0142297,0.57755,0.0104911,0.00979842,1742,1562,9.39584,-11.3558
525,-538,9.39417,11.1171,-0.0011876,-0.00627081,0.00523753,0.00209243,-0.00955084,0.559502,0.00716725,0.0106271,1749,1562,9.39422,-11.1171
532,-538,9.41931,10.8885,-1.11965e-05,-0.00404628,0.00313721,0.00170122,-0.0057587,0.499644,0.00451435,0.0117842,1756,1562,9.41931,-10.8886
539,-538,9.43604,10.6666,0.00113238,-0.00235384,0.00163307,0.00177786,-0.00299932,0.376409,0.002788,0.0149486,1763,1562,9.43601,-10.6667
546,-538,9.41589,10.4218,0.00295775,-0.000761172,-0.000187826,0.00296721,-0.000770634,-0.0503348,0.00227887,0.016402,1770,1562,9.41584,-10.4218
553,-538,9.4231,10.1733,0.00510757,0.000492573,-0.00236709,0.00610577,-0.000505631,-0.399073,0.0042491,0.024426,1777,1562,9.42305,-10.1734
560,-538,9.4082,9.97009,0.0078136,0.00213456,-0.00438495,0.0101981,-0.000249969,-0.498069,0.00688358,0.0273772,1784,1562,9.40815,-9.97004
567,-538,9.34814,9.77332,0.0122521,0.00351478,-0.00678542,0.0159536,-0.000186703,-0.499386,0.0106985,0.020441,1791,1562,9.3482,-9.77329
574,-538,9.40723,9.55029,0.0172882,0.00486329,-0.00996082,0.0228151,-0.000663612,-0.50657,0.015436,0.0127098,1798,1562,9.40725,-9.55027
581,-538,9.42529,9.26184,0.0239505,0.00643381,-0.0141209,0.0318087,-0.00142433,-0.507813,0.0216961,0.0139951,1805,1562,9.42534,-9.26183
588,-538,9.5448,9.07336,0.0327074,0.00890241,-0.0196101,0.0437445,-0.00213469,-0.512638,0.0299,0.0299267,1812,1562,9.54476,-9.07335
595,-538,10.4573,8.71729,0.0436249,0.0123021,-0.0266413,0.0588671,-0.00294019,-0.519675,0.0402606,0.0459189,1819,1562,10.4573,-8.7173
602,-538,11.0604,8.42358,0,0,0,0,0,0,0,-1,1826,1562,11.0604,-8.42362
609,-538,10.1046,7.05713,0,0,0,0,0,0,0,-1,1833,1562,10.1046,-7.05719
616,-538,9.92249,5.43506,0,0,0,0,0,0,0,-1,1840,1562,9.92254,-5.43507
623,-538,11.1711,4.31604,0,0,0,0,0,0,0,-1,1847,1562,11.1711,-4.316
630,-538,12.6112,2.61633,0,0,0,0,0,0,0,-1,1854,1562,12.6112,-2.61637
637,-538,0,0,0,0,0,0,0,0,0,-1,1861,1562,0,0
644,-538,0,0,0,0,0,0,0,0,0,-1,1868,1562,0,0
651,-538,0,0,0,0,0,0,0,0,0,-1,1875,1562,0,0
658,-538,0,0,0,0,0,0,0,0,0,-1,1882,1562,0,0
665,-538,0,0,0,0,0,0,0,0,0,-1,1889,1562,0,0
672,-538,0,0,0,0,0,0,0,0,0,-1,1896,1562,0,0
679,-538,0,0,0,0,0,0,0,0,0,-1,1903,1562,0,0
686,-538,0,0,0,0,0,0,0,0,0,-1,1910,1562,0,0
693,-538,0,0,0,0,0,0,0,0,0,-1,1917,1562,0,0
700,-538,0,0,0,0,0,0,0,0,0,-1,1924,1562,0,0
707,-538,0,0,0,0,0,0,0,0,0,-1,1931,1562,0,0
714,-538,0,0,0,0,0,0,0,0,0,-1,1938,1562,0,0
721,-538,0,0,0,0,0,0,0,0,0,-1,1945,1562,0,0
728,-538,0,0,0,0,0,0,0,0,0,-1,1952,1562,0,0
735,-538,0,0,0,0,0,0,0,0,0,-1,1959,1562,0,0
742,-538,0,0,0,0,0,0,0,0,0,-1,1966,1562,0,0
749,-538,0,0,0,0,0,0,0,0,0,-1,1973,1562,0,0
756,-538,0,0,0,0,0,0,0,0,0,-1,1980,1562,0,0
763,-538,0,0,0,0,0,0,0,0,0,-1,1987,1562,0,0
770,-538,0,0,0,0,0,0,0,0,0,-1,1994,1562,0,0
777,-538,0,0,0,0,0,0,0,0,0,-1,2001,1562,0,0
784,-538,0,0,0,0,0,0,0,0,0,-1,2008,1562,0,0
791,-538,0,0,0,0,0,0,0,0,0,-1,2015,1562,0,0
798,-538,0,0,0,0,0,0,0,0,0,-1,2022,1562,0,0
805,-538,0,0,0,0,0,0,0,0,0,-1,2029,1562,0,0
812,-538,0,0,0,0,0,0,0,0,0,-1,2036,1562,0,0
-700,-545,0,0,0,0,0,0,0,0,0,-1,524,1569,0,0
-693,-545,0,0,0,0,0,0,0,0,0,-1,531,1569,0,0
-686,-545,0,0,0,0,0,0,0,0,0,-1,538,1569,0,0
-679,-545,0,0,0,0,0,0,0,0,0,-1,545,1569,0,0
-672,-545,0,0,0,0,0,0,0,0,0,-1,552,1569,0,0
-665,-545,0,0,0,0,0,0,0,0,0,-1,559,1569,0,0
-658,-545,0,0,0,0,0,0,0,0,0,-1,566,1569,0,0
-651,-545,0,0,0,0,0,0,0,0,0,-1,573,1569,0,0
-644,-545,0,0,0,0,0,0,0,0,0,-1,580,1569,0,0
-637,-545,0,0,0,0,0,0,0,0,0,-1,587,1569,0,0
-630,-545,0,0,0,0,0,0,0,0,0,-1,594,1569,0,0
-623,-545,0,0,0,0,0,0,0,0,0,-1,601,1569,0,0
-616,-545,0,0,0,0,0,0,0,0,0,-1,608,1569,0,0
-609,-545,0,0,0,0,0,0,0,0,0,-1,615,1569,0,0
-602,-545,0,0,0,0,0,0,0,0,0,-1,622,1569,0,0
-595,-545,0,0,0,0,0,0,0,0,0,-1,629,1569,0,0
-588,-545,0,0,0,0,0,0,0,0,0,-1,636,1569,0,0
-581,-545,0,0,0,0,0,0,0,0,0,-1,643,1569,0,0
-574,-545,0,0,0,0,0,0,0,0,0,-1,650,1569,0,0
-567,-545,0,0,0,0,0,0,0,0,0,-1,657,1569,0,0
-560,-545,0,0,0,0,0,0,0,0,0,-1,664,1569,0,0
-553,-545,0,0,0,0,0,0,0,0,0,-1,671,1569,0,0
-546,-545,0,0,0,0,0,0,0,0,0,-1,678,1569,0,0
-539,-545,0,0,0,0,0,0,0,0,0,-1,685,1569,0,0
-532,-545,0,0,0,0,0,0,0,0,0,-1,692,1569,0,0
-525,-545,0,0,0,0,0,0,0,0,0,-1,699,1569,0,0
-518,-545,0,0,0,0,0,0,0,0,0,-1,706,1569,0,0
-511,-545,0,0,0,0,0,0,0,0,0,-1,713,1569,0,0
-504,-545,-3.55237,-2.5354,0,0,0,0,0,0,0,-1,720,1569,-3.55236,2.53545
-497,-545,2.26575,5.69214,0,0,0,0,0,0,0,-1,727,1569,2.26573,-5.6922
-490,-545,1.79315,6.35181,0,0,0,0,0,0,0,-1,734,1569,1.79317,-6.35185
-483,-545,-1.90613,7.68005,0,0,0,0,0,0,0,-1,741,1569,-1.90613,-7.68007
-476,-545,-1.25598,6.56335,0,0,0,0,0,0,0,-1,748,1569,-1.256,-6.56331
-469,-545,-0.185974,6.22656,0.0368559,0.0340797,0.0160518,0.0515795,0.0193561,0.742268,0.0300867,0.0458746,755,1569,-0.185951,-6.22653
-462,-545,0.215759,6.4884,0.0283788,0.0292273,0.0144754,0.0432847,0.0143214,0.800048,0.0254626,0.0420158,762,1569,0.215771,-6.48836
-455,-545,0.191528,7.31091,0.021487,0.0243792,0.0126672,0.0356826,0.0101836,0.842234,0.0212245,0.0418164,769,1569,0.19154,-7.31092
-448,-545,0.338135,7.76819,0.0158715,0.0197746,0.0106733,0.0286733,0.00697278,0.875821,0.0172671,0.0265239,776,1569,0.338108,-7.7682
-441,-545,0.370178,8.10486,0.0115006,0.0156201,0.00876682,0.0225659,0.00455481,0.900779,0.0137789,0.0174185,783,1569,0.370164,-8.10487
-434,-545,0.279419,8.33459,0.00827829,0.0123227,0.007108,0.0176906,0.00291044,0.923986,0.0109532,0.0148775,790,1569,0.279428,-8.33464
-427,-545,0.274475,8.59888,0.00576349,0.00924929,0.00574173,0.0135068,0.00150596,0.932753,0.0085469,0.0165803,797,1569,0.274462,-8.59891
-420,-545,0.286072,8.84338,0.00360694,0.00686059,0.00428054,0.00981302,0.000654506,0.966994,0.00633512,0.0231591,804,1569,0.286094,-8.84336
-413,-545,0.273682,9.09302,0.00227083,0.00428509,0.00303657,0.00647718,7.87321e-05,0.945523,0.00429212,0.0235584,811,1569,0.273686,-9.09304
-406,-545,0.282654,9.323,0.00166476,0.00211376,0.00186083,0.00376358,1.49359e-05,0.84543,0.00250409,0.0181123,818,1569,0.282626,-9.32302
-399,-545,0.306335,9.57288,0.00131566,0.000478362,0.000809344,0.00180822,-1.4199e-05,0.546714,0.00121024,0.0111702,825,1569,0.30635,-9.5729
-392,-545,0.299255,9.8291,0.00102989,-0.000853255,-4.56627e-05,0.001031,-0.000854362,-0.0242291,0.0010901,0.0107947,832,1569,0.299247,-9.82912
-385,-545,0.278076,10.077,0.000837109,-0.00188356,-0.00086418,0.00108839,-0.00213485,-0.282975,0.00189335,0.00919696,839,1569,0.278099,-10.0771
-378,-545,0.271851,10.3226,0.000780542,-0.00216782,-0.00143084,0.00136075,-0.00274803,-0.38524,0.00241685,0.0113196,846,1569,0.271881,-10.3226
-371,-545,0.273438,10.5743,0.000793294,-0.00236474,-0.00195304,0.00172578,-0.00329722,-0.445449,0.00294696,0.0142625,853,1569,0.273423,-10.5744
-364,-545,0.280212,10.8079,0.00201759,-0.00129555,-0.00177648,0.00279003,-0.00206799,-0.410155,0.00281509,0.00887637,860,1569,0.280233,-10.8078
-357,-545,0.308594,11.0674,0.00392488,0.00114346,-0.000676326,0.00408062,0.000987727,-0.226321,0.00245823,0.0102657,867,1569,0.30857,-11.0674
-350,-545,0.310059,11.3005,0.00536094,0.004615,0.0014568,0.00649175,0.00348419,0.66008,0.00375138,0.0154269,874,1569,0.310077,-11.3005
-343,-545,0.315613,11.4822,0.00771661,0.00864607,0.00359707,0.0118083,0.00455437,0.84964,0.00687666,0.0238135,881,1569,0.315639,-11.4822
-336,-545,0.354492,11.6598,0.0108398,0.0136326,0.00650839,0.0188927,0.00557969,0.891075,0.0112082,0.0310712,888,1569,0.354509,-11.6598
-329,-545,0.269226,11.9453,0.0149464,0.0201529,0.0107216,0.0285828,0.00651647,0.904496,0.0172971,0.0415385,895,1569,0.269256,-11.9453
-322,-545,0.253906,12.2651,0,0,0,0,0,0,0,-1,902,1569,0.253924,-12.2651
-315,-545,1.12787,13.5908,0,0,0,0,0,0,0,-1,909,1569,1.12785,-13.5909
-308,-545,1.92041,14.1825,0,0,0,0,0,0,0,-1,916,1569,1.92042,-14.1825
-301,-545,2.71301,14.7742,0,0,0,0,0,0,0,-1,923,1569,2.71299,-14.7742
-294,-545,1.1416,13.3737,0,0,0,0,0,0,0,-1,930,1569,1.14157,-13.3736
-287,-545,0.260376,13.0709,0,0,0,0,0,0,0,-1,937,1569,0.260354,-13.071
-280,-545,0.226746,10.4198,0,0,0,0,0,0,0,-1,944,1569,0.226742,-10.4198
-273,-545,-4.10596,12.3789,0,0,0,0,0,0,0,-1,951,1569,-4.10598,-12.3789
-266,-545,-5.10779,14.1372,0,0,0,0,0,0,0,-1,958,1569,-5.10778,-14.1372
-259,-545,-3.98706,7.8916,0,0,0,0,0,0,0,-1,965,1569,-3.98704,-7.89159
-252,-545,0.369263,7.54053,0,0,0,0,0,0,0,-1,972,1569,0.369276,-7.54056
-245,-545,-0.236633,6.65564,0,0,0,0,0,0,0,-1,979,1569,-0.236605,-6.65566
-238,-545,0,0,0,0,0,0,0,0,0,-1,986,1569,0,0
-231,-545,0,0,0,0,0,0,0,0,0,-1,993,1569,0,0
-224,-545,0,0,0,0,0,0,0,0,0,-1,1000,1569,0,0
-217,-545,0,0,0,0,0,0,0,0,0,-1,1007,1569,0,0
-210,-545,0,0,0,0,0,0,0,0,0,-1,1014,1569,0,0
-203,-545,0,0,0,0,0,0,0,0,0,-1,1021,1569,0,0
-196,-545,0,0,0,0,0,0,0,0,0,-1,1028,1569,0,0
-189,-545,0,0,0,0,0,0,0,0,0,-1,1035,1569,0,0
-182,-545,0,0,0,0,0,0,0,0,0,-1,1042,1569,0,0
-175,-545,0,0,0,0,0,0,0,0,0,-1,1049,1569,0,0
-168,-545,0,0,0,0,0,0,0,0,0,-1,1056,1569,0,0
-161,-545,0,0,0,0,0,0,0,0,0,-1,1063,1569,0,0
-154,-545,0,0,0,0,0,0,0,0,0,-1,1070,1569,0,0
-147,-545,0,0,0,0,0,0,0,0,0,-1,1077,1569,0,0
-140,-545,0,0,0,0,0,0,0,0,0,-1,1084,1569,0,0
-133,-545,0,0,0,0,0,0,0,0,0,-1,1091,1569,0,0
-126,-545,0,0,0,0,0,0,0,0,0,-1,1098,1569,0,0
-119,-545,0,0,0,0,0,0,0,0,0,-1,1105,1569,0,0
-112,-545,0,0,0,0,0,0,0,0,0,-1,1112,1569,0,0
-105,-545,0,0,0,0,0,0,0,0,0,-1,1119,1569,0,0
-98,-545,0,0,0,0,0,0,0,0,0,-1,1126,1569,0,0
-91,-545,0,0,0,0,0,0,0,0,0,-1,1133,1569,0,0
-84,-545,0,0,0,0,0,0,0,0,0,-1,1140,1569,0,0
-77,-545,0,0,0,0,0,0,0,0,0,-1,1147,1569,0,0
-70,-545,0,0,0,0,0,0,0,0,0,-1,1154,1569,0,0
-63,-545,0,0,0,0,0,0,0,0,0,-1,1161,1569,0,0
-56,-545,0,0,0,0,0,0,0,0,0,-1,1168,1569,0,0
-49,-545,0,0,0,0,0,0,0,0,0,-1,1175,1569,0,0
-42,-545,0,0,0,0,0,0,0,0,0,-1,1182,1569,0,0
-35,-545,0,0,0,0,0,0,0,0,0,-1,1189,1569,0,0
-28,-545,0,0,0,0,0,0,0,0,0,-1,1196,1569,0,0
-21,-545,0,0,0,0,0,0,0,0,0,-1,1203,1569,0,0
-14,-545,0,0,0,0,0,0,0,0,0,-1,1210,1569,0,0
-7,-545,0,0,0,0,0,0,0,0,0,-1,1217,1569,0,0
0,-545,0,0,0,0,0,0,0,0,0,-1,1224,1569,0,0
7,-545,0,0,0,0,0,0,0,0,0,-1,1231,1569,0,0
14,-545,0,0,0,0,0,0,0,0,0,-1,1238,1569,0,0
21,-545,0,0,0,0,0,0,0,0,0,-1,1245,1569,0,0
28,-545,0,0,0,0,0,0,0,0,0,-1,1252,1569,0,0
35,-545,0,0,0,0,0,0,0,0,0,-1,1259,1569,0,0
42,-545,0,0,0,0,0,0,0,0,0,-1,1266,1569,0,0
49,-545,0,0,0,0,0,0,0,0,0,-1,1273,1569,0,0
56,-545,0,0,0,0,0,0,0,0,0,-1,1280,1569,0,0
63,-545,0,0,0,0,0,0,0,0,0,-1,1287,1569,0,0
70,-545,0,0,0,0,0,0,0,0,0,-1,1294,1569,0,0
77,-545,0,0,0,0,0,0,0,0,0,-1,1301,1569,0,0
84,-545,0,0,0,0,0,0,0,0,0,-1,1308,1569,0,0
91,-545,0,0,0,0,0,0,0,0,0,-1,1315,1569,0,0
98,-545,0,0,0,0,0,0,0,0,0,-1,1322,1569,0,0
105,-545,0,0,0,0,0,0,0,0,0,-1,1329,1569,0,0
112,-545,0,0,0,0,0,0,0,0,0,-1,1336,1569,0,0
119,-545,0,0,0,0,0,0,0,0,0,-1,1343,1569,0,0
126,-545,0,0,0,0,0,0,0,0,0,-1,1350,1569,0,0
133,-545,0,0,0,0,0,0,0,0,0,-1,1357,1569,0,0
140,-545,0,0,0,0,0,0,0,0,0,-1,1364,1569,0,0
147,-545,0,0,0,0,0,0,0,0,0,-1,1371,1569,0,0
154,-545,0,0,0,0,0,0,0,0,0,-1,1378,1569,0,0
161,-545,0,0,0,0,0,0,0,0,0,-1,1385,1569,0,0
168,-545,0,0,0,0,0,0,0,0,0,-1,1392,1569,0,0
175,-545,0,0,0,0,0,0,0,0,0,-1,1399,1569,0,0
182,-545,0,0,0,0,0,0,0,0,0,-1,1406,1569,0,0
189,-545,0,0,0,0,0,0,0,0,0,-1,1413,1569,0,0
196,-545,0,0,0,0,0,0,0,0,0,-1,1420,1569,0,0
203,-545,0,0,0,0,0,0,0,0,0,-1,1427,1569,0,0
210,-545,0,0,0,0,0,0,0,0,0,-1,1434,1569,0,0
217,-545,0,0,0,0,0,0,0,0,0,-1,1441,1569,0,0
224,-545,0,0,0,0,0,0,0,0,0,-1,1448,1569,0,0
231,-545,0,0,0,0,0,0,0,0,0,-1,1455,1569,0,0
238,-545,0,0,0,0,0,0,0,0,0,-1,1462,1569,0,0
245,-545,0,0,0,0,0,0,0,0,0,-1,1469,1569,0,0
252,-545,0,0,0,0,0,0,0,0,0,-1,1476,1569,0,0
259,-545,0,0,0,0,0,0,0,0,0,-1,1483,1569,0,0
266,-545,0,0,0,0,0,0,0,0,0,-1,1490,1569,0,0
273,-545,0,0,0,0,0,0,0,0,0,-1,1497,1569,0,0
280,-545,0,0,0,0,0,0,0,0,0,-1,1504,1569,0,0
287,-545,0,0,0,0,0,0,0,0,0,-1,1511,1569,0,0
294,-545,0,0,0,0,0,0,0,0,0,-1,1518,1569,0,0
301,-545,0,0,0,0,0,0,0,0,0,-1,1525,1569,0,0
308,-545,0,0,0,0,0,0,0,0,0,-1,1532,1569,0,0
315,-545,0,0,0,0,0,0,0,0,0,-1,1539,1569,0,0
322,-545,0,0,0,0,0,0,0,0,0,-1,1546,1569,0,0
329,-545,0,0,0,0,0,0,0,0,0,-1,1553,1569,0,0
336,-545,0,0,0,0,0,0,0,0,0,-1,1560,1569,0,0
343,-545,0,0,0,0,0,0,0,0,0,-1,1567,1569,0,0
350,-545,0,0,0,0,0,0,0,0,0,-1,1574,1569,0,0
357,-545,0,0,0,0,0,0,0,0,0,-1,1581,1569,0,0
364,-545,7.19495,4.88098,0,0,0,0,0,0,0,-1,1588,1569,7.19497,-4.88095
371,-545,7.82324,3.84302,0,0,0,0,0,0,0,-1,1595,1569,7.82324,-3.84307
378,-545,7.24146,4.54224,0,0,0,0,0,0,0,-1,1602,1569,7.24145,-4.54226
385,-545,8.58447,1.16125,0,0,0,0,0,0,0,-1,1609,1569,8.5845,-1.1612
392,-545,12.5654,3.89526,0,0,0,0,0,0,0,-1,1616,1569,12.5655,-3.89532
399,-545,11.5869,5.6333,0,0,0,0,0,0,0,-1,1623,1569,11.5869,-5.63326
406,-545,11.234,6.36414,0,0,0,0,0,0,0,-1,1630,1569,11.234,-6.3641
413,-545,12.1521,13.4817,0,0,0,0,0,0,0,-1,1637,1569,12.1521,-13.4817
420,-545,11.1954,13.6047,0,0,0,0,0,0,0,-1,1644,1569,11.1954,-13.6047
427,-545,8.82751,15.5083,0,0,0,0,0,0,0,-1,1651,1569,8.82758,-15.5083
434,-545,8.86316,15.0106,0,0,0,0,0,0,0,-1,1658,1569,8.86317,-15.0106
441,-545,9.00342,14.384,0,0,0,0,0,0,0,-1,1665,1569,9.00339,-14.384
448,-545,9.26038,11.9783,0,0,0,0,0,0,0,-1,1672,1569,9.26033,-11.9782
455,-545,9.38306,12.0702,0,0,0,0,0,0,0,-1,1679,1569,9.38306,-12.0701
462,-545,9.36243,11.7054,0,0,0,0,0,0,0,-1,1686,1569,9.36242,-11.7055
469,-545,9.48511,11.9542,-0.0101544,-0.0372173,0.0279615,0.0073778,-0.0547494,0.560043,0.0391911,0.0472203,1693,1569,9.4851,-11.9542
476,-545,9.34143,12.4558,-0.00884735,-0.0310962,0.0237633,0.00626648,-0.04621,0.566482,0.0330938,0.0350945,1700,1569,9.34143,-12.4558
483,-545,9.24548,12.3954,-0.007488,-0.0254592,0.0199031,0.00536381,-0.038311,0.573361,0.0275035,0.0134549,1707,1569,9.24548,-12.3953
490,-545,9.18823,12.198,-0.00629088,-0.0203573,0.016445,0.00456174,-0.0312099,0.583328,0.022482,0.0107364,1714,1569,9.18819,-12.198
497,-545,9.1925,12.0005,-0.00499006,-0.0161965,0.013246,0.00378912,-0.0249757,0.585306,0.0180466,0.0156887,1721,1569,9.19246,-12.0005
504,-545,9.21045,11.7806,-0.00372796,-0.0124232,0.0104254,0.00322004,-0.0193712,0.587851,0.0141105,0.0151305,1728,1569,9.21044,-11.7806
511,-545,9.20813,11.5576,-0.0025169,-0.00922068,0.00776545,0.00258918,-0.0143268,0.581657,0.010521,0.0110091,1735,1569,9.20807,-11.5577
518,-545,9.20691,11.3401,-0.00133622,-0.00663832,0.00542027,0.00204658,-0.0100211,0.557954,0.00745715,0.0117424,1742,1569,9.20691,-11.34
525,-545,9.19312,11.1255,-0.000206482,-0.00435393,0.00336663,0.00167385,-0.00623426,0.509361,0.00481216,0.0118598,1749,1569,9.19311,-11.1255
532,-545,9.19543,10.9036,0.000893659,-0.00262663,0.00166147,0.00155397,-0.00328694,0.378284,0.00285397,0.0136155,1756,1569,9.1954,-10.9036
539,-545,9.20667,10.6694,0.00206092,-0.00133667,0.000423611,0.00211294,-0.00138869,0.122188,0.00203603,0.0176336,1763,1569,9.20668,-10.6694
546,-545,9.21118,10.4216,0.00406479,-0.000218965,-0.00122063,0.00438819,-0.000542359,-0.258991,0.00312199,0.0184064,1770,1569,9.21121,-10.4216
553,-545,9.20288,10.162,0.00654066,0.0007324,-0.00331968,0.00804723,-0.000774166,-0.426033,0.00564061,0.0242229,1777,1569,9.20292,-10.162
560,-545,9.20642,9.88843,0.00965973,0.00215548,-0.00536453,0.0124541,-0.000638892,-0.480226,0.00852368,0.0269044,1784,1569,9.2064,-9.88837
567,-545,9.09875,9.75073,0.0146872,0.00350024,-0.00789227,0.0187671,-0.000579703,-0.477119,0.012709,0.0394514,1791,1569,9.09877,-9.7507
574,-545,9.07385,9.54224,0.0205696,0.00482976,-0.0115048,0.0266387,-0.00123932,-0.485425,0.0181863,0.0334763,1798,1569,9.07386,-9.54226
581,-545,9.09814,9.20825,0.02873,0.00645938,-0.0164055,0.0374223,-0.00223299,-0.487237,0.0257249,0.0470066,1805,1569,9.0981,-9.20824
588,-545,9.43262,9.12891,0,0,0,0,0,0,0,-1,1812,1569,9.43257,-9.1289
595,-545,10.9335,8.60864,0,0,0,0,0,0,0,-1,1819,1569,10.9335,-8.60859
602,-545,8.82117,6.32214,0,0,0,0,0,0,0,-1,1826,1569,8.82121,-6.32217
609,-545,10.2406,5.22351,0,0,0,0,0,0,0,-1,1833,1569,10.2406,-5.22353
616,-545,11.701,3.93188,0,0,0,0,0,0,0,-1,1840,1569,11.701,-3.93191
623,-545,13.2139,2.32043,0,0,0,0,0,0,0,-1,1847,1569,13.2139,-2.32042
630,-545,0,0,0,0,0,0,0,0,0,-1,1854,1569,0,0
637,-545,0,0,0,0,0,0,0,0,0,-1,1861,1569,0,0
644,-545,0,0,0,0,0,0,0,0,0,-1,1868,1569,0,0
651,-545,0,0,0,0,0,0,0,0,0,-1,1875,1569,0,0
658,-545,0,0,0,0,0,0,0,0,0,-1,1882,1569,0,0
665,-545,0,0,0,0,0,0,0,0,0,-1,1889,1569,0,0
672,-545,0,0,0,0,0,0,0,0,0,-1,1896,1569,0,0
679,-545,0,0,0,0,0,0,0,0,0,-1,1903,1569,0,0
686,-545,0,0,0,0,0,0,0,0,0,-1,1910,1569,0,0
693,-545,0,0,0,0,0,0,0,0,0,-1,1917,1569,0,0
700,-545,0,0,0,0,0,0,0,0,0,-1,1924,1569,0,0
707,-545,0,0,0,0,0,0,0,0,0,-1,1931,1569,0,0
714,-545,0,0,0,0,0,0,0,0,0,-1,1938,1569,0,0
721,-545,0,0,0,0,0,0,0,0,0,-1,1945,1569,0,0
728,-545,0,0,0,0,0,0,0,0,0,-1,1952,1569,0,0
735,-545,0,0,0,0,0,0,0,0,0,-1,1959,1569,0,0
742,-545,0,0,0,0,0,0,0,0,0,-1,1966,1569,0,0
749,-545,0,0,0,0,0,0,0,0,0,-1,1973,1569,0,0
756,-545,0,0,0,0,0,0,0,0,0,-1,1980,1569,0,0
763,-545,0,0,0,0,0,0,0,0,0,-1,1987,1569,0,0
770,-545,0,0,0,0,0,0,0,0,0,-1,1994,1569,0,0
777,-545,0,0,0,0,0,0,0,0,0,-1,2001,1569,0,0
784,-545,0,0,0,0,0,0,0,0,0,-1,2008,1569,0,0
791,-545,0,0,0,0,0,0,0,0,0,-1,2015,1569,0,0
798,-545,0,0,0,0,0,0,0,0,0,-1,2022,1569,0,0
805,-545,0,0,0,0,0,0,0,0,0,-1,2029,1569,0,0
812,-545,0,0,0,0,0,0,0,0,0,-1,2036,1569,0,0
-700,-552,0,0,0,0,0,0,0,0,0,-1,524,1576,0,0
-693,-552,0,0,0,0,0,0,0,0,0,-1,531,1576,0,0
-686,-552,0,0,0,0,0,0,0,0,0,-1,538,1576,0,0
-679,-552,0,0,0,0,0,0,0,0,0,-1,545,1576,0,0
-672,-552,0,0,0,0,0,0,0,0,0,-1,552,1576,0,0
-665,-552,0,0,0,0,0,0,0,0,0,-1,559,1576,0,0
-658,-552,0,0,0,0,0,0,0,0,0,-1,566,1576,0,0
-651,-552,0,0,0,0,0,0,0,0,0,-1,573,1576,0,0
-644,-552,0,0,0,0,0,0,0,0,0,-1,580,1576,0,0
-637,-552,0,0,0,0,0,0,0,0,0,-1,587,1576,0,0
-630,-552,0,0,0,0,0,0,0,0,0,-1,594,1576,0,0
-623,-552,0,0,0,0,0,0,0,0,0,-1,601,1576,0,0
-616,-552,0,0,0,0,0,0,0,0,0,-1,608,1576,0,0
-609,-552,0,0,0,0,0,0,0,0,0,-1,615,1576,0,0
-602,-552,0,0,0,0,0,0,0,0,0,-1,622,1576,0,0
-595,-552,0,0,0,0,0,0,0,0,0,-1,629,1576,0,0
-588,-552,0,0,0,0,0,0,0,0,0,-1,636,1576,0,0
-581,-552,0,0,0,0,0,0,0,0,0,-1,643,1576,0,0
-574,-552,0,0,0,0,0,0,0,0,0,-1,650,1576,0,0
-567,-552,0,0,0,0,0,0,0,0,0,-1,657,1576,0,0
-560,-552,0,0,0,0,0,0,0,0,0,-1,664,1576,0,0
-553,-552,0,0,0,0,0,0,0,0,0,-1,671,1576,0,0
-546,-552,0,0,0,0,0,0,0,0,0,-1,678,1576,0,0
-539,-552,0,0,0,0,0,0,0,0,0,-1,685,1576,0,0
-532,-552,0,0,0,0,0,0,0,0,0,-1,692,1576,0,0
-525,-552,0,0,0,0,0,0,0,0,0,-1,699,1576,0,0
-518,-552,0,0,0,0,0,0,0,0,0,-1,706,1576,0,0
-511,-552,0,0,0,0,0,0,0,0,0,-1,713,1576,0,0
-504,-552,0,0,0,0,0,0,0,0,0,-1,720,1576,0,0
-497,-552,1.51282,3.96924,0,0,0,0,0,0,0,-1,727,1576,1.5128,-3.96924
-490,-552,1.07428,4.69812,0,0,0,0,0,0,0,-1,734,1576,1.07429,-4.69816
-483,-552,0.41156,5.25769,0,0,0,0,0,0,0,-1,741,1576,0.411537,-5.25764
-476,-552,-0.19696,5.93909,0,0,0,0,0,0,0,-1,748,1576,-0.196953,-5.93912
-469,-552,-0.0175781,4.98071,0,0,0,0,0,0,0,-1,755,1576,-0.0176045,-4.98074
-462,-552,0.376892,5.59851,0,0,0,0,0,0,0,-1,762,1576,0.376891,-5.59853
-455,-552,0.370544,7.1062,0.0264086,0.0319061,0.01715,0.0465262,0.0117885,0.864861,0.0279299,0.0486209,769,1576,0.370563,-7.10615
-448,-552,0.453003,7.5343,0.0194254,0.0255879,0.0142377,0.037074,0.00793932,0.891962,0.0225405,0.0418755,776,1576,0.452981,-7.53429
-441,-552,0.547485,7.84546,0.014014,0.0199256,0.0115299,0.0288725,0.00506709,0.910874,0.0178013,0.0343464,783,1576,0.54747,-7.84547
-434,-552,0.614624,8.30786,0.00998663,0.0154707,0.0092257,0.0223532,0.00310408,0.929848,0.0139828,0.0209446,790,1576,0.614597,-8.30785
-427,-552,0.538635,8.55322,0.00684803,0.0115865,0.00735379,0.0169433,0.00149123,0.941237,0.0108327,0.0162925,797,1576,0.538625,-8.55323
-420,-552,0.551575,8.84937,0.00417837,0.00867924,0.00552813,0.0123974,0.000460165,0.978699,0.00811593,0.0197192,804,1576,0.551556,-8.84938
-413,-552,0.531494,9.09827,0.00250482,0.00569381,0.00403418,0.00843717,-0.000238539,0.973599,0.00570596,0.0181154,811,1576,0.531478,-9.09821
-406,-552,0.52771,9.32324,0.00171541,0.00328814,0.00267766,0.00529252,-0.000288967,0.92822,0.0036285,0.0137536,818,1576,0.527709,-9.32324
-399,-552,0.552307,9.5813,0.00121957,0.00154847,0.00149321,0.00288626,-0.000118221,0.840241,0.00196477,0.0131301,825,1576,0.552293,-9.58126
-392,-552,0.515625,9.8136,0.000833691,0.00017391,0.000581974,0.00117277,-0.00016517,0.527555,0.000842319,0.0146495,832,1576,0.515633,-9.81355
-385,-552,0.512573,10.0795,0.000568038,-0.000928312,-0.000266735,0.000614164,-0.000974438,-0.171233,0.000925008,0.0131313,839,1576,0.512598,-10.0795
-378,-552,0.514587,10.3232,0.000510683,-0.00120556,-0.000800252,0.000825922,-0.0015208,-0.375258,0.00137454,0.0147831,846,1576,0.51456,-10.3232
-371,-552,0.509399,10.5759,0.00056869,-0.00135814,-0.0012573,0.00118925,-0.0019787,-0.458486,0.00184785,0.0190425,853,1576,0.509407,-10.5759
-364,-552,0.51947,10.8167,0.00148425,-0.000590261,-0.00117777,0.0020164,-0.00112241,-0.424374,0.00183653,0.0137653,860,1576,0.519442,-10.8166
-357,-552,0.532959,11.0369,0.00286775,0.00137389,-0.000311252,0.00293001,0.00131164,-0.197414,0.00169473,0.00935557,867,1576,0.532954,-11.0369
-350,-552,0.531006,11.2849,0.00383571,0.00418485,0.00142057,0.00544153,0.00257903,0.846535,0.00314309,0.00970138,874,1576,0.531018,-11.285
-343,-552,0.523193,11.5029,0.00545737,0.00731974,0.00308477,0.00961081,0.0031663,0.931981,0.00565537,0.0100013,881,1576,0.523172,-11.503
-336,-552,0.589417,11.6774,0.00750503,0.0111024,0.00527583,0.0148777,0.00372969,0.949683,0.0089385,0.0155688,888,1576,0.589394,-11.6773
-329,-552,0.56311,12.0059,0.0101246,0.015996,0.00844122,0.0219974,0.00412311,0.952747,0.0135021,0.0338794,895,1576,0.563109,-12.0059
-322,-552,0.747681,12.551,0,0,0,0,0,0,0,-1,902,1576,0.747671,-12.551
-315,-552,1.20306,13.0883,0,0,0,0,0,0,0,-1,909,1576,1.20306,-13.0883
-308,-552,1.55743,13.2874,0.0192805,0.0329991,0.0215112,0.0487182,0.00356142,0.939738,0.0313591,0.0448751,916,1576,1.55745,-13.2874
-301,-552,1.90039,13.4363,0.0221891,0.0379897,0.0261715,0.0574273,0.00275146,0.931983,0.0374015,0.0485923,923,1576,1.90041,-13.4363
-294,-552,2.47827,13.8318,0,0,0,0,0,0,0,-1,930,1576,2.47826,-13.8317
-287,-552,-0.072937,10.0059,0,0,0,0,0,0,0,-1,937,1576,-0.0729163,-10.0059
-280,-552,1.70819,8.4104,0,0,0,0,0,0,0,-1,944,1576,1.70818,-8.4104
-273,-552,1.64587,10.6685,0,0,0,0,0,0,0,-1,951,1576,1.6459,-10.6685
-266,-552,-1.32678,8.05688,0,0,0,0,0,0,0,-1,958,1576,-1.32677,-8.05683
-259,-552,-5.54321,8.31213,0,0,0,0,0,0,0,-1,965,1576,-5.54324,-8.31214
-252,-552,-1.93445,7.81543,0,0,0,0,0,0,0,-1,972,1576,-1.93445,-7.81546
-245,-552,-2.53613,6.92212,0,0,0,0,0,0,0,-1,979,1576,-2.53614,-6.92216
-238,-552,-6.5365,2.81885,0,0,0,0,0,0,0,-1,986,1576,-6.53649,-2.8188
-231,-552,-4.32239,4.34583,0,0,0,0,0,0,0,-1,993,1576,-4.32239,-4.34587
-224,-552,0,0,0,0,0,0,0,0,0,-1,1000,1576,0,0
-217,-552,0,0,0,0,0,0,0,0,0,-1,1007,1576,0,0
-210,-552,0,0,0,0,0,0,0,0,0,-1,1014,1576,0,0
-203,-552,0,0,0,0,0,0,0,0,0,-1,1021,1576,0,0
-196,-552,0,0,0,0,0,0,0,0,0,-1,1028,1576,0,0
-189,-552,0,0,0,0,0,0,0,0,0,-1,1035,1576,0,0
-182,-552,0,0,0,0,0,0,0,0,0,-1,1042,1576,0,0
-175,-552,0,0,0,0,0,0,0,0,0,-1,1049,1576,0,0
-168,-552,0,0,0,0,0,0,0,0,0,-1,1056,1576,0,0
-161,-552,0,0,0,0,0,0,0,0,0,-1,1063,1576,0,0
-154,-552,0,0,0,0,0,0,0,0,0,-1,1070,1576,0,0
-147,-552,0,0,0,0,0,0,0,0,0,-1,1077,1576,0,0
-140,-552,0,0,0,0,0,0,0,0,0,-1,1084,1576,0,0
-133,-552,0,0,0,0,0,0,0,0,0,-1,1091,1576,0,0
-126,-552,0,0,0,0,0,0,0,0,0,-1,1098,1576,0,0
-119,-552,0,0,0,0,0,0,0,0,0,-1,1105,1576,0,0
-112,-552,0,0,0,0,0,0,0,0,0,-1,1112,1576,0,0
-105,-552,0,0,0,0,0,0,0,0,0,-1,1119,1576,0,0
-98,-552,0,0,0,0,0,0,0,0,0,-1,1126,1576,0,0
-91,-552,0,0,0,0,0,0,0,0,0,-1,1133,1576,0,0
-84,-552,0,0,0,0,0,0,0,0,0,-1,1140,1576,0,0
-77,-552,0,0,0,0,0,0,0,0,0,-1,1147,1576,0,0
-70,-552,0,0,0,0,0,0,0,0,0,-1,1154,1576,0,0
-63,-552,0,0,0,0,0,0,0,0,0,-1,1161,1576,0,0
-56,-552,0,0,0,0,0,0,0,0,0,-1,1168,1576,0,0
-49,-552,0,0,0,0,0,0,0,0,0,-1,1175,1576,0,0
-42,-552,0,0,0,0,0,0,0,0,0,-1,1182,1576,0,0
-35,-552,0,0,0,0,0,0,0,0,0,-1,1189,1576,0,0
-28,-552,0,0,0,0,0,0,0,0,0,-1,1196,1576,0,0
-21,-552,0,0,0,0,0,0,0,0,0,-1,1203,1576,0,0
-14,-552,0,0,0,0,0,0,0,0,0,-1,1210,1576,0,0
-7,-552,0,0,0,0,0,0,0,0,0,-1,1217,1576,0,0
0,-552,0,0,0,0,0,0,0,0,0,-1,1224,1576,0,0
7,-552,0,0,0,0,0,0,0,0,0,-1,1231,1576,0,0
14,-552,0,0,0,0,0,0,0,0,0,-1,1238,1576,0,0
21,-552,0,0,0,0,0,0,0,0,0,-1,1245,1576,0,0
28,-552,0,0,0,0,0,0,0,0,0,-1,1252,1576,0,0
35,-552,0,0,0,0,0,0,0,0,0,-1,1259,1576,0,0
42,-552,0,0,0,0,0,0,0,0,0,-1,1266,1576,0,0
49,-552,0,0,0,0,0,0,0,0,0,-1,1273,1576,0,0
56,-552,0,0,0,0,0,0,0,0,0,-1,1280,1576,0,0
63,-552,0,0,0,0,0,0,0,0,0,-1,1287,1576,0,0
70,-552,0,0,0,0,0,0,0,0,0,-1,1294,1576,0,0
77,-552,0,0,0,0,0,0,0,0,0,-1,1301,1576,0,0
84,-552,0,0,0,0,0,0,0,0,0,-1,1308,1576,0,0
91,-552,0,0,0,0,0,0,0,0,0,-1,1315,1576,0,0
98,-552,0,0,0,0,0,0,0,0,0,-1,1322,1576,0,0
105,-552,0,0,0,0,0,0,0,0,0,-1,1329,1576,0,0
112,-552,0,0,0,0,0,0,0,0,0,-1,1336,1576,0,0
119,-552,0,0,0,0,0,0,0,0,0,-1,1343,1576,0,0
126,-552,0,0,0,0,0,0,0,0,0,-1,1350,1576,0,0
133,-552,0,0,0,0,0,0,0,0,0,-1,1357,1576,0,0
140,-552,0,0,0,0,0,0,0,0,0,-1,1364,1576,0,0
147,-552,0,0,0,0,0,0,0,0,0,-1,1371,1576,0,0
154,-552,0,0,0,0,0,0,0,0,0,-1,1378,1576,0,0
161,-552,0,0,0,0,0,0,0,0,0,-1,1385,1576,0,0
168,-552,0,0,0,0,0,0,0,0,0,-1,1392,1576,0,0
175,-552,0,0,0,0,0,0,0,0,0,-1,1399,1576,0,0
182,-552,0,0,0,0,0,0,0,0,0,-1,1406,1576,0,0
189,-552,0,0,0,0,0,0,0,0,0,-1,1413,1576,0,0
196,-552,0,0,0,0,0,0,0,0,0,-1,1420,1576,0,0
203,-552,0,0,0,0,0,0,0,0,0,-1,1427,1576,0,0
210,-552,0,0,0,0,0,0,0,0,0,-1,1434,1576,0,0
217,-552,0,0,0,0,0,0,0,0,0,-1,1441,1576,0,0
224,-552,0,0,0,0,0,0,0,0,0,-1,1448,1576,0,0
231,-552,0,0,0,0,0,0,0,0,0,-1,1455,1576,0,0
238,-552,0,0,0,0,0,0,0,0,0,-1,1462,1576,0,0
245,-552,0,0,0,0,0,0,0,0,0,-1,1469,1576,0,0
252,-552,0,0,0,0,0,0,0,0,0,-1,1476,1576,0,0
259,-552,0,0,0,0,0,0,0,0,0,-1,1483,1576,0,0
266,-552,0,0,0,0,0,0,0,0,0,-1,1490,1576,0,0
273,-552,0,0,0,0,0,0,0,0,0,-1,1497,1576,0,0
280,-552,0,0,0,0,0,0,0,0,0,-1,1504,1576,0,0
287,-552,0,0,0,0,0,0,0,0,0,-1,1511,1576,0,0
294,-552,0,0,0,0,0,0,0,0,0,-1,1518,1576,0,0
301,-552,0,0,0,0,0,0,0,0,0,-1,1525,1576,0,0
308,-552,0,0,0,0,0,0,0,0,0,-1,1532,1576,0,0
315,-552,0,0,0,0,0,0,0,0,0,-1,1539,1576,0,0
322,-552,0,0,0,0,0,0,0,0,0,-1,1546,1576,0,0
329,-552,0,0,0,0,0,0,0,0,0,-1,1553,1576,0,0
336,-552,0,0,0,0,0,0,0,0,0,-1,1560,1576,0,0
343,-552,0,0,0,0,0,0,0,0,0,-1,1567,1576,0,0
350,-552,4.97876,4.09888,0,0,0,0,0,0,0,-1,1574,1576,4.97875,-4.09883
357,-552,5.18469,4.10706,0,0,0,0,0,0,0,-1,1581,1576,5.1847,-4.10702
364,-552,5.80872,5.07031,0,0,0,0,0,0,0,-1,1588,1576,5.80874,-5.07037
371,-552,7.10657,5.64783,0,0,0,0,0,0,0,-1,1595,1576,7.10651,-5.64786
378,-552,6.44446,4.91492,0,0,0,0,0,0,0,-1,1602,1576,6.44448,-4.91496
385,-552,12.8276,3.16504,0,0,0,0,0,0,0,-1,1609,1576,12.8276,-3.16503
392,-552,12.1301,4.3363,0,0,0,0,0,0,0,-1,1616,1576,12.1302,-4.33631
399,-552,11.3486,5.6012,0,0,0,0,0,0,0,-1,1623,1576,11.3486,-5.60115
406,-552,10.7863,6.42542,0,0,0,0,0,0,0,-1,1630,1576,10.7863,-6.42536
413,-552,8.39307,10.365,0,0,0,0,0,0,0,-1,1637,1576,8.3931,-10.365
420,-552,10.2306,12.7225,0,0,0,0,0,0,0,-1,1644,1576,10.2305,-12.7226
427,-552,9.27246,15.494,0,0,0,0,0,0,0,-1,1651,1576,9.27251,-15.4941
434,-552,9.36902,14.8661,0,0,0,0,0,0,0,-1,1658,1576,9.36901,-14.8661
441,-552,8.79688,12.11,0,0,0,0,0,0,0,-1,1665,1576,8.79691,-12.11
448,-552,8.88623,12.2294,-0.0105452,-0.045951,0.0316956,0.00805624,-0.0645524,0.530714,0.0459563,0.0469779,1672,1576,8.88628,-12.2293
455,-552,8.99585,12.3187,-0.00940251,-0.0399637,0.0280081,0.00722227,-0.0565885,0.535678,0.0403491,0.0433644,1679,1576,8.9959,-12.3188
462,-552,9.10767,12.5579,-0.00854667,-0.0338801,0.024697,0.00654249,-0.0489692,0.548447,0.0350312,0.0410596,1686,1576,9.10765,-12.5578
469,-552,8.99414,12.597,-0.00781947,-0.028496,0.021303,0.00552129,-0.0418368,0.55949,0.029902,0.0382945,1693,1576,8.99409,-12.597
476,-552,8.9762,12.626,-0.00684317,-0.0236198,0.0180027,0.00462959,-0.0350926,0.56738,0.0250811,0.0177715,1700,1576,8.97625,-12.626
483,-552,8.98865,12.4,-0.00578141,-0.0192379,0.015007,0.00393663,-0.0289559,0.574662,0.0207411,0.0146023,1707,1576,8.98868,-12.4001
490,-552,8.97791,12.2008,-0.0047797,-0.01527,0.0123081,0.00335427,-0.023404,0.583974,0.0168325,0.0148507,1714,1576,8.97793,-12.2008
497,-552,9.01233,12.0082,-0.00366838,-0.0120857,0.00974349,0.00273655,-0.0184907,0.581528,0.0133332,0.0225879,1721,1576,9.01235,-12.0081
504,-552,8.99658,11.7783,-0.00258127,-0.00911304,0.00748822,0.00232227,-0.0140166,0.579766,0.0102069,0.0238103,1728,1576,8.99655,-11.7784
511,-552,8.97485,11.5474,-0.00148299,-0.00659867,0.00530212,0.00184602,-0.00992769,0.560656,0.00731189,0.0163935,1735,1576,8.9749,-11.5473
518,-552,9.00525,11.3306,-0.000370232,-0.00462924,0.00336528,0.00148271,-0.00648218,0.503309,0.00489118,0.0132845,1742,1576,9.00527,-11.3306
525,-552,8.98853,11.1328,0.000736932,-0.00291742,0.00167303,0.00138718,-0.00356766,0.370694,0.00295157,0.012653,1749,1576,8.98847,-11.1328
532,-552,8.99744,10.9098,0.00180042,-0.00164801,0.000309307,0.00182795,-0.00167553,0.0887511,0.00202337,0.0146692,1756,1576,8.99745,-10.9098
539,-552,8.9823,10.6622,0.00302345,-0.000738547,-0.000697716,0.00314869,-0.000863779,-0.177598,0.00243859,0.0186817,1763,1576,8.98232,-10.6622
546,-552,8.96851,10.4241,0.00522706,-0.000103918,-0.00215602,0.00598987,-0.000866731,-0.340062,0.0043113,0.0216104,1770,1576,8.96845,-10.4241
553,-552,9.01416,10.1602,0.00807579,0.000508735,-0.0041372,0.00989864,-0.00131411,-0.41501,0.00707791,0.0246298,1777,1576,9.0142,-10.1602
560,-552,9.12378,9.75085,0,0,0,0,0,0,0,-1,1784,1576,9.12372,-9.75084
567,-552,9.03662,9.54553,0,0,0,0,0,0,0,-1,1791,1576,9.03661,-9.54548
574,-552,9.03088,9.41113,0,0,0,0,0,0,0,-1,1798,1576,9.03083,-9.41109
581,-552,8.99341,9.05566,0,0,0,0,0,0,0,-1,1805,1576,8.99345,-9.05571
588,-552,9.17993,8.56409,0,0,0,0,0,0,0,-1,1812,1576,9.17995,-8.56405
595,-552,5.36194,6.62744,0,0,0,0,0,0,0,-1,1819,1576,5.36193,-6.62742
602,-552,10.6863,4.31616,0,0,0,0,0,0,0,-1,1826,1576,10.6862,-4.31619
609,-552,12.146,3.18286,0,0,0,0,0,0,0,-1,1833,1576,12.1459,-3.18281
616,-552,13.8762,2.08167,0,0,0,0,0,0,0,-1,1840,1576,13.8763,-2.08167
623,-552,0,0,0,0,0,0,0,0,0,-1,1847,1576,0,0
630,-552,0,0,0,0,0,0,0,0,0,-1,1854,1576,0,0
637,-552,0,0,0,0,0,0,0,0,0,-1,1861,1576,0,0
644,-552,0,0,0,0,0,0,0,0,0,-1,1868,1576,0,0
651,-552,0,0,0,0,0,0,0,0,0,-1,1875,1576,0,0
658,-552,0,0,0,0,0,0,0,0,0,-1,1882,1576,0,0
665,-552,0,0,0,0,0,0,0,0,0,-1,1889,1576,0,0
672,-552,0,0,0,0,0,0,0,0,0,-1,1896,1576,0,0
679,-552,0,0,0,0,0,0,0,0,0,-1,1903,1576,0,0
686,-552,0,0,0,0,0,0,0,0,0,-1,1910,1576,0,0
693,-552,0,0,0,0,0,0,0,0,0,-1,1917,1576,0,0
700,-552,0,0,0,0,0,0,0,0,0,-1,1924,1576,0,0
707,-552,0,0,0,0,0,0,0,0,0,-1,1931,1576,0,0
714,-552,0,0,0,0,0,0,0,0,0,-1,1938,1576,0,0
721,-552,0,0,0,0,0,0,0,0,0,-1,1945,1576,0,0
728,-552,0,0,0,0,0,0,0,0,0,-1,1952,1576,0,0
735,-552,0,0,0,0,0,0,0,0,0,-1,1959,1576,0,0
742,-552,0,0,0,0,0,0,0,0,0,-1,1966,1576,0,0
749,-552,0,0,0,0,0,0,0,0,0,-1,1973,1576,0,0
756,-552,0,0,0,0,0,0,0,0,0,-1,1980,1576,0,0
763,-552,0,0,0,0,0,0,0,0,0,-1,1987,1576,0,0
770,-552,0,0,0,0,0,0,0,0,0,-1,1994,1576,0,0
777,-552,0,0,0,0,0,0,0,0,0,-1,2001,1576,0,0
784,-552,0,0,0,0,0,0,0,0,0,-1,2008,1576,0,0
791,-552,0,0,0,0,0,0,0,0,0,-1,2015,1576,0,0
798,-552,0,0,0,0,0,0,0,0,0,-1,2022,1576,0,0
805,-552,0,0,0,0,0,0,0,0,0,-1,2029,1576,0,0
812,-552,0,0,0,0,0,0,0,0,0,-1,2036,1576,0,0
-700,-559,0,0,0,0,0,0,0,0,0,-1,524,1583,0,0
-693,-559,0,0,0,0,0,0,0,0,0,-1,531,1583,0,0
-686,-559,0,0,0,0,0,0,0,0,0,-1,538,1583,0,0
-679,-559,0,0,0,0,0,0,0,0,0,-1,545,1583,0,0
-672,-559,0,0,0,0,0,0,0,0,0,-1,552,1583,0,0
-665,-559,0,0,0,0,0,0,0,0,0,-1,559,1583,0,0
-658,-559,0,0,0,0,0,0,0,0,0,-1,566,1583,0,0
-651,-559,0,0,0,0,0,0,0,0,0,-1,573,1583,0,0
-644,-559,0,0,0,0,0,0,0,0,0,-1,580,1583,0,0
-637,-559,0,0,0,0,0,0,0,0,0,-1,587,1583,0,0
-630,-559,0,0,0,0,0,0,0,0,0,-1,594,1583,0,0
-623,-559,0,0,0,0,0,0,0,0,0,-1,601,1583,0,0
-616,-559,0,0,0,0,0,0,0,0,0,-1,608,1583,0,0
-609,-559,0,0,0,0,0,0,0,0,0,-1,615,1583,0,0
-602,-559,0,0,0,0,0,0,0,0,0,-1,622,1583,0,0
-595,-559,0,0,0,0,0,0,0,0,0,-1,629,1583,0,0
-588,-559,0,0,0,0,0,0,0,0,0,-1,636,1583,0,0
-581,-559,0,0,0,0,0,0,0,0,0,-1,643,1583,0,0
-574,-559,0,0,0,0,0,0,0,0,0,-1,650,1583,0,0
-567,-559,0,0,0,0,0,0,0,0,0,-1,657,1583,0,0
-560,-559,0,0,0,0,0,0,0,0,0,-1,664,1583,0,0
-553,-559,0,0,0,0,0,0,0,0,0,-1,671,1583,0,0
-546,-559,0,0,0,0,0,0,0,0,0,-1,678,1583,0,0
-539,-559,0,0,0,0,0,0,0,0,0,-1,685,1583,0,0
-532,-559,0,0,0,0,0,0,0,0,0,-1,692,1583,0,0
-525,-559,0,0,0,0,0,0,0,0,0,-1,699,1583,0,0
-518,-559,0,0,0,0,0,0,0,0,0,-1,706,1583,0,0
-511,-559,0,0,0,0,0,0,0,0,0,-1,713,1583,0,0
-504,-559,0,0,0,0,0,0,0,0,0,-1,720,1583,0,0
-497,-559,0,0,0,0,0,0,0,0,0,-1,727,1583,0,0
-490,-559,0.365601,3.07288,0,0,0,0,0,0,0,-1,734,1583,0.36563,-3.07291
-483,-559,-0.112427,4.25476,0,0,0,0,0,0,0,-1,741,1583,-0.112397,-4.25473
-476,-559,-0.671204,4.94214,0,0,0,0,0,0,0,-1,748,1583,-0.671186,-4.9422
-469,-559,-1.06,4.95776,0,0,0,0,0,0,0,-1,755,1583,-1.05997,-4.95782
-462,-559,-1.28772,5.69495,0,0,0,0,0,0,0,-1,762,1583,-1.28774,-5.69495
-455,-559,0.642761,6.80054,0,0,0,0,0,0,0,-1,769,1583,0.642789,-6.8005
-448,-559,0.593384,7.30017,0,0,0,0,0,0,0,-1,776,1583,0.593407,-7.30017
-441,-559,0.748291,7.37561,0.0170348,0.0251403,0.0149348,0.0365625,0.00561268,0.917889,0.0227362,0.044204,783,1583,0.748306,-7.37563
-434,-559,0.926697,8.33813,0.0120678,0.0191475,0.0117816,0.0279095,0.0033058,0.931335,0.0176082,0.03434,790,1583,0.926686,-8.33819
-427,-559,0.849854,8.60034,0.00814984,0.0140898,0.00922347,0.0208097,0.00142999,0.941158,0.0134219,0.0229473,797,1583,0.849861,-8.60038
-420,-559,0.781433,8.82458,0.00485149,0.0104271,0.00687867,0.0150614,0.000217162,0.977923,0.00996934,0.0230152,804,1583,0.781417,-8.82464
-413,-559,0.784607,9.10046,0.00277759,0.00690205,0.00503014,0.0102763,-0.000596639,0.979936,0.00705815,0.0125989,811,1583,0.784577,-9.10049
-406,-559,0.777649,9.36243,0.00175189,0.00417936,0.00342846,0.0066026,-0.000671337,0.955523,0.00464172,0.00951625,818,1583,0.777625,-9.36244
-399,-559,0.791382,9.5968,0.00107606,0.00227439,0.00207185,0.00383197,-0.000481523,0.926154,0.00272935,0.0119949,825,1583,0.791381,-9.59676
-392,-559,0.74646,9.81555,0.000573282,0.000811609,0.00107685,0.00177587,-0.000390979,0.840504,0.00133348,0.0152834,832,1583,0.746471,-9.81553
-385,-559,0.744995,10.0782,0.000230093,-0.000389758,0.000177627,0.000277386,-0.000437051,0.260213,0.0004159,0.0149104,839,1583,0.744966,-10.0783
-378,-559,0.769592,10.3282,0.000167186,-0.000688732,-0.000343055,0.000287712,-0.000809258,-0.33786,0.000656763,0.0145937,846,1583,0.769572,-10.3282
-371,-559,0.748047,10.5485,0.000261545,-0.000820206,-0.000757661,0.000651581,-0.00121024,-0.475409,0.00109094,0.0226082,853,1583,0.748065,-10.5485
-364,-559,0.748718,10.7832,0.000938711,-0.000305059,-0.000765766,0.0013033,-0.000669652,-0.444358,0.0011585,0.0199329,860,1583,0.748729,-10.7832
-357,-559,0.750549,11.0488,0.00195337,0.00126314,-9.7866e-05,0.00196698,0.00124953,-0.138159,0.0011494,0.0125859,867,1583,0.750527,-11.0489
-350,-559,0.769104,11.2714,0.0026413,0.00353192,0.00128964,0.00445097,0.00172225,0.951638,0.00259157,0.0105753,874,1583,0.769093,-11.2714
-343,-559,0.773193,11.496,0.0037859,0.00595923,0.0025775,0.00766977,0.00207537,0.984891,0.00458087,0.0105638,881,1583,0.773195,-11.4959
-336,-559,0.758118,11.6965,0.00509367,0.00875675,0.00416082,0.0114713,0.00237912,0.99273,0.00699077,0.012717,888,1583,0.75813,-11.6965
-329,-559,0.81189,11.9874,0.00667799,0.0122737,0.00642931,0.0164875,0.00246413,0.990625,0.0102693,0.0182772,895,1583,0.811887,-11.9874
-322,-559,0.947754,12.2979,0.00835019,0.016285,0.00923027,0.0223644,0.00227079,0.988373,0.0142132,0.0419376,902,1583,0.947726,-12.2978
-315,-559,1.17371,12.4967,0.0100182,0.020436,0.0123362,0.028618,0.00183626,0.985165,0.018497,0.0417688,909,1583,1.17369,-12.4966
-308,-559,1.28583,12.7938,0.0116377,0.0242199,0.0153658,0.0345326,0.00132504,0.979701,0.022593,0.0382744,916,1583,1.28582,-12.7938
-301,-559,0.0637817,13.0474,0.0130691,0.0275504,0.0183839,0.0400682,0.000551349,0.972998,0.0265303,0.0400801,923,1583,0.0637596,-13.0474
-294,-559,-0.0658569,13.8563,0,0,0,0,0,0,0,-1,930,1583,-0.0658374,-13.8563
-287,-559,0.031311,14.8031,0,0,0,0,0,0,0,-1,937,1583,0.0313007,-14.8031
-280,-559,1.23059,11.0449,0,0,0,0,0,0,0,-1,944,1583,1.23061,-11.0449
-273,-559,2.12836,10.3059,0,0,0,0,0,0,0,-1,951,1583,2.12839,-10.3059
-266,-559,-0.597046,6.68933,0,0,0,0,0,0,0,-1,958,1583,-0.597031,-6.68937
-259,-559,-7.00311,8.62756,0,0,0,0,0,0,0,-1,965,1583,-7.00312,-8.6275
-252,-559,-9.4483,2.87805,0,0,0,0,0,0,0,-1,972,1583,-9.44829,-2.87805
-245,-559,-4.80804,7.1803,0,0,0,0,0,0,0,-1,979,1583,-4.80804,-7.18027
-238,-559,-8.45764,2.54858,0,0,0,0,0,0,0,-1,986,1583,-8.45763,-2.54862
-231,-559,-5.86914,4.34021,0.4517,0.0340705,0.2749,0.588101,-0.10233,0.460589,0.430253,0.0469993,993,1583,-5.86914,-4.34019
-224,-559,-3.30505,6.22864,0,0,0,0,0,0,0,-1,1000,1583,-3.30505,-6.22859
-217,-559,0,0,0,0,0,0,0,0,0,-1,1007,1583,0,0
-210,-559,0,0,0,0,0,0,0,0,0,-1,1014,1583,0,0
-203,-559,0,0,0,0,0,0,0,0,0,-1,1021,1583,0,0
-196,-559,0,0,0,0,0,0,0,0,0,-1,1028,1583,0,0
-189,-559,0,0,0,0,0,0,0,0,0,-1,1035,1583,0,0
-182,-559,0,0,0,0,0,0,0,0,0,-1,1042,1583,0,0
-175,-559,0,0,0,0,0,0,0,0,0,-1,1049,1583,0,0
-168,-559,0,0,0,0,0,0,0,0,0,-1,1056,1583,0,0
-161,-559,0,0,0,0,0,0,0,0,0,-1,1063,1583,0,0
-154,-559,0,0,0,0,0,0,0,0,0,-1,1070,1583,0,0
-147,-559,0,0,0,0,0,0,0,0,0,-1,1077,1583,0,0
-140,-559,0,0,0,0,0,0,0,0,0,-1,1084,1583,0,0
-133,-559,0,0,0,0,0,0,0,0,0,-1,1091,1583,0,0
-126,-559,0,0,0,0,0,0,0,0,0,-1,1098,1583,0,0
-119,-559,0,0,0,0,0,0,0,0,0,-1,1105,1583,0,0
-112,-559,0,0,0,0,0,0,0,0,0,-1,1112,1583,0,0
-105,-559,0,0,0,0,0,0,0,0,0,-1,1119,1583,0,0
-98,-559,0,0,0,0,0,0,0,0,0,-1,1126,1583,0,0
-91,-559,0,0,0,0,0,0,0,0,0,-1,1133,1583,0,0
-84,-559,0,0,0,0,0,0,0,0,0,-1,1140,1583,0,0
-77,-559,0,0,0,0,0,0,0,0,0,-1,1147,1583,0,0
-70,-559,0,0,0,0,0,0,0,0,0,-1,1154,1583,0,0
-63,-559,0,0,0,0,0,0,0,0,0,-1,1161,1583,0,0
-56,-559,0,0,0,0,0,0,0,0,0,-1,1168,1583,0,0
-49,-559,0,0,0,0,0,0,0,0,0,-1,1175,1583,0,0
-42,-559,0,0,0,0,0,0,0,0,0,-1,1182,1583,0,0
-35,-559,0,0,0,0,0,0,0,0,0,-1,1189,1583,0,0
-28,-559,0,0,0,0,0,0,0,0,0,-1,1196,1583,0,0
-21,-559,0,0,0,0,0,0,0,0,0,-1,1203,1583,0,0
-14,-559,0,0,0,0,0,0,0,0,0,-1,1210,1583,0,0
-7,-559,0,0,0,0,0,0,0,0,0,-1,1217,1583,0,0
0,-559,0,0,0,0,0,0,0,0,0,-1,1224,1583,0,0
7,-559,0,0,0,0,0,0,0,0,0,-1,1231,1583,0,0
14,-559,0,0,0,0,0,0,0,0,0,-1,1238,1583,0,0
21,-559,0,0,0,0,0,0,0,0,0,-1,1245,1583,0,0
28,-559,0,0,0,0,0,0,0,0,0,-1,1252,1583,0,0
35,-559,0,0,0,0,0,0,0,0,0,-1,1259,1583,0,0
42,-559,0,0,0,0,0,0,0,0,0,-1,1266,1583,0,0
49,-559,0,0,0,0,0,0,0,0,0,-1,1273,1583,0,0
56,-559,0,0,0,0,0,0,0,0,0,-1,1280,1583,0,0
63,-559,0,0,0,0,0,0,0,0,0,-1,1287,1583,0,0
70,-559,0,0,0,0,0,0,0,0,0,-1,1294,1583,0,0
77,-559,0,0,0,0,0,0,0,0,0,-1,1301,1583,0,0
84,-559,0,0,0,0,0,0,0,0,0,-1,1308,1583,0,0
91,-559,0,0,0,0,0,0,0,0,0,-1,1315,1583,0,0
98,-559,0,0,0,0,0,0,0,0,0,-1,1322,1583,0,0
105,-559,0,0,0,0,0,0,0,0,0,-1,1329,1583,0,0
112,-559,0,0,0,0,0,0,0,0,0,-1,1336,1583,0,0
119,-559,0,0,0,0,0,0,0,0,0,-1,1343,1583,0,0
126,-559,0,0,0,0,0,0,0,0,0,-1,1350,1583,0,0
133,-559,0,0,0,0,0,0,0,0,0,-1,1357,1583,0,0
140,-559,0,0,0,0,0,0,0,0,0,-1,1364,1583,0,0
147,-559,0,0,0,0,0,0,0,0,0,-1,1371,1583,0,0
154,-559,0,0,0,0,0,0,0,0,0,-1,1378,1583,0,0
161,-559,0,0,0,0,0,0,0,0,0,-1,1385,1583,0,0
168,-559,0,0,0,0,0,0,0,0,0,-1,1392,1583,0,0
175,-559,0,0,0,0,0,0,0,0,0,-1,1399,1583,0,0
182,-559,0,0,0,0,0,0,0,0,0,-1,1406,1583,0,0
189,-559,0,0,0,0,0,0,0,0,0,-1,1413,1583,0,0
196,-559,0,0,0,0,0,0,0,0,0,-1,1420,1583,0,0
203,-559,0,0,0,0,0,0,0,0,0,-1,1427,1583,0,0
210,-559,0,0,0,0,0,0,0,0,0,-1,1434,1583,0,0
217,-559,0,0,0,0,0,0,0,0,0,-1,1441,1583,0,0
224,-559,0,0,0,0,0,0,0,0,0,-1,1448,1583,0,0
231,-559,0,0,0,0,0,0,0,0,0,-1,1455,1583,0,0
238,-559,0,0,0,0,0,0,0,0,0,-1,1462,1583,0,0
245,-559,0,0,0,0,0,0,0,0,0,-1,1469,1583,0,0
252,-559,0,0,0,0,0,0,0,0,0,-1,1476,1583,0,0
259,-559,0,0,0,0,0,0,0,0,0,-1,1483,1583,0,0
266,-559,0,0,0,0,0,0,0,0,0,-1,1490,1583,0,0
273,-559,0,0,0,0,0,0,0,0,0,-1,1497,1583,0,0
280,-559,0,0,0,0,0,0,0,0,0,-1,1504,1583,0,0
287,-559,0,0,0,0,0,0,0,0,0,-1,1511,1583,0,0
294,-559,0,0,0,0,0,0,0,0,0,-1,1518,1583,0,0
301,-559,0,0,0,0,0,0,0,0,0,-1,1525,1583,0,0
308,-559,0,0,0,0,0,0,0,0,0,-1,1532,1583,0,0
315,-559,0,0,0,0,0,0,0,0,0,-1,1539,1583,0,0
322,-559,0,0,0,0,0,0,0,0,0,-1,1546,1583,0,0
329,-559,0,0,0,0,0,0,0,0,0,-1,1553,1583,0,0
336,-559,5.97668,3.09827,0,0,0,0,0,0,0,-1,1560,1583,5.97667,-3.09824
343,-559,5.44824,2.88696,0,0,0,0,0,0,0,-1,1567,1583,5.44819,-2.88693
350,-559,4.69775,3.27051,0,0,0,0,0,0,0,-1,1574,1583,4.69771,-3.27048
357,-559,3.88025,3.60999,0,0,0,0,0,0,0,-1,1581,1583,3.88027,-3.60998
364,-559,5.00928,5.32605,0,0,0,0,0,0,0,-1,1588,1583,5.00928,-5.32607
371,-559,1.84436,2.52441,0,0,0,0,0,0,0,-1,1595,1583,1.84441,-2.52447
378,-559,6.34753,1.53137,0,0,0,0,0,0,0,-1,1602,1583,6.34752,-1.53139
385,-559,6.95911,1.48181,0,0,0,0,0,0,0,-1,1609,1583,6.95916,-1.48175
392,-559,11.6949,4.77734,0,0,0,0,0,0,0,-1,1616,1583,11.6949,-4.77731
399,-559,11.1104,5.56909,0,0,0,0,0,0,0,-1,1623,1583,11.1103,-5.56905
406,-559,10.3385,6.48657,0,0,0,0,0,0,0,-1,1630,1583,10.3385,-6.48661
413,-559,9.76147,6.97571,0,0,0,0,0,0,0,-1,1637,1583,9.76143,-6.97574
420,-559,7.77124,10.5851,0,0,0,0,0,0,0,-1,1644,1583,7.77128,-10.585
427,-559,10.1022,12.5565,0,0,0,0,0,0,0,-1,1651,1583,10.1021,-12.5565
434,-559,9.71606,14.8009,0,0,0,0,0,0,0,-1,1658,1583,9.71609,-14.8009
441,-559,8.67163,12.2423,0,0,0,0,0,0,0,-1,1665,1583,8.67165,-12.2423
448,-559,8.6853,12.4766,-0.00815774,-0.0351858,0.0242619,0.00609992,-0.0494435,0.531294,0.0351724,0.0489778,1672,1583,8.68528,-12.4766
455,-559,8.70349,12.6497,-0.00722417,-0.0304705,0.0212742,0.00539498,-0.0430896,0.53538,0.0306833,0.0450112,1679,1583,8.7035,-12.6496
462,-559,8.80042,12.8442,-0.0064719,-0.0257311,0.0185795,0.00482522,-0.0370282,0.546312,0.0264411,0.037578,1686,1583,8.80044,-12.8443
469,-559,8.75134,12.8666,-0.00581177,-0.0215603,0.0159753,0.00412448,-0.0314965,0.556422,0.0224989,0.019436,1693,1583,8.75136,-12.8665
476,-559,8.74951,12.6362,-0.005033,-0.0177433,0.0134067,0.00344852,-0.0262248,0.56407,0.0187388,0.0100886,1700,1583,8.74947,-12.6362
483,-559,8.76318,12.4003,-0.00416537,-0.0143233,0.0111035,0.00296565,-0.0214543,0.570894,0.015387,0.0120498,1707,1583,8.76323,-12.4003
490,-559,8.755,12.203,-0.00326162,-0.0112156,0.00898298,0.00258536,-0.0170626,0.577004,0.0123275,0.0147034,1714,1583,8.75501,-12.203
497,-559,8.78723,12.0125,-0.00225656,-0.00877387,0.006905,0.00212009,-0.0131505,0.564929,0.00955246,0.0179356,1721,1583,8.78717,-12.0125
504,-559,8.7699,11.7825,-0.00128189,-0.00644188,0.00509906,0.00185273,-0.00957649,0.55119,0.00708314,0.0223901,1728,1583,8.76991,-11.7825
511,-559,8.74817,11.564,-0.000239777,-0.00451112,0.00330431,0.00155896,-0.00630986,0.498503,0.00481117,0.0186379,1735,1583,8.7482,-11.564
518,-559,8.78064,11.3407,0.000845106,-0.0030765,0.00170609,0.00148344,-0.00371484,0.358024,0.00309202,0.0122496,1742,1583,8.78067,-11.3407
525,-559,8.77722,11.126,0.00194936,-0.00190709,0.000318351,0.00197546,-0.00193319,0.0818125,0.0022567,0.0117915,1749,1583,8.7772,-11.126
532,-559,8.75854,10.9116,0.00298,-0.00109607,-0.000752479,0.00311448,-0.00123055,-0.176846,0.00258601,0.0132438,1756,1583,8.75849,-10.9116
539,-559,8.75427,10.6838,0.00423241,-0.000587069,-0.00158134,0.00470494,-0.0010596,-0.29037,0.00354304,0.0176916,1763,1583,8.75427,-10.6839
546,-559,8.75171,10.4396,0.00658102,-0.000485247,-0.00287899,0.00760547,-0.0015097,-0.341867,0.00564129,0.0160378,1770,1583,8.75171,-10.4395
553,-559,8.87476,10.1619,0.0097626,-0.000287157,-0.00475559,0.0116562,-0.00218073,-0.378936,0.00859046,0.0257922,1777,1583,8.8748,-10.1619
560,-559,8.90186,9.85168,0,0,0,0,0,0,0,-1,1784,1583,8.90191,-9.85174
567,-559,8.57544,9.39636,0,0,0,0,0,0,0,-1,1791,1583,8.57549,-9.39642
574,-559,8.79309,8.98853,0,0,0,0,0,0,0,-1,1798,1583,8.79305,-8.98848
581,-559,5.97095,5.96179,0,0,0,0,0,0,0,-1,1805,1583,5.97093,-5.96181
588,-559,5.79102,5.89954,0,0,0,0,0,0,0,-1,1812,1583,5.79098,-5.89949
595,-559,5.79089,6.24231,0,0,0,0,0,0,0,-1,1819,1583,5.7909,-6.24227
602,-559,12.478,2.35669,0,0,0,0,0,0,0,-1,1826,1583,12.4781,-2.35675
609,-559,14.0479,1.22681,0,0,0,0,0,0,0,-1,1833,1583,14.0479,-1.22681
616,-559,0,0,0,0,0,0,0,0,0,-1,1840,1583,0,0
623,-559,0,0,0,0,0,0,0,0,0,-1,1847,1583,0,0
630,-559,0,0,0,0,0,0,0,0,0,-1,1854,1583,0,0
637,-559,0,0,0,0,0,0,0,0,0,-1,1861,1583,0,0
644,-559,0,0,0,0,0,0,0,0,0,-1,1868,1583,0,0
651,-559,0,0,0,0,0,0,0,0,0,-1,1875,1583,0,0
658,-559,0,0,0,0,0,0,0,0,0,-1,1882,1583,0,0
665,-559,0,0,0,0,0,0,0,0,0,-1,1889,1583,0,0
672,-559,0,0,0,0,0,0,0,0,0,-1,1896,1583,0,0
679,-559,0,0,0,0,0,0,0,0,0,-1,1903,1583,0,0
686,-559,0,0,0,0,0,0,0,0,0,-1,1910,1583,0,0
693,-559,0,0,0,0,0,0,0,0,0,-1,1917,1583,0,0
700,-559,0,0,0,0,0,0,0,0,0,-1,1924,1583,0,0
707,-559,0,0,0,0,0,0,0,0,0,-1,1931,1583,0,0
714,-559,0,0,0,0,0,0,0,0,0,-1,1938,1583,0,0
721,-559,0,0,0,0,0,0,0,0,0,-1,1945,1583,0,0
728,-559,0,0,0,0,0,0,0,0,0,-1,1952,1583,0,0
735,-559,0,0,0,0,0,0,0,0,0,-1,1959,1583,0,0
742,-559,0,0,0,0,0,0,0,0,0,-1,1966,1583,0,0
749,-559,0,0,0,0,0,0,0,0,0,-1,1973,1583,0,0
756,-559,0,0,0,0,0,0,0,0,0,-1,1980,1583,0,0
763,-559,0,0,0,0,0,0,0,0,0,-1,1987,1583,0,0
770,-559,0,0,0,0,0,0,0,0,0,-1,1994,1583,0,0
777,-559,0,0,0,0,0,0,0,0,0,-1,2001,1583,0,0
784,-559,0,0,0,0,0,0,0,0,0,-1,2008,1583,0,0
791,-559,0,0,0,0,0,0,0,0,0,-1,2015,1583,0,0
798,-559,0,0,0,0,0,0,0,0,0,-1,2022,1583,0,0
805,-559,0,0,0,0,0,0,0,0,0,-1,2029,1583,0,0
812,-559,0,0,0,0,0,0,0,0,0,-1,2036,1583,0,0
-700,-566,0,0,0,0,0,0,0,0,0,-1,524,1590,0,0
-693,-566,0,0,0,0,0,0,0,0,0,-1,531,1590,0,0
-686,-566,0,0,0,0,0,0,0,0,0,-1,538,1590,0,0
-679,-566,0,0,0,0,0,0,0,0,0,-1,545,1590,0,0
-672,-566,0,0,0,0,0,0,0,0,0,-1,552,1590,0,0
-665,-566,0,0,0,0,0,0,0,0,0,-1,559,1590,0,0
-658,-566,0,0,0,0,0,0,0,0,0,-1,566,1590,0,0
-651,-566,0,0,0,0,0,0,0,0,0,-1,573,1590,0,0
-644,-566,0,0,0,0,0,0,0,0,0,-1,580,1590,0,0
-637,-566,0,0,0,0,0,0,0,0,0,-1,587,1590,0,0
-630,-566,0,0,0,0,0,0,0,0,0,-1,594,1590,0,0
-623,-566,0,0,0,0,0,0,0,0,0,-1,601,1590,0,0
-616,-566,0,0,0,0,0,0,0,0,0,-1,608,1590,0,0
-609,-566,0,0,0,0,0,0,0,0,0,-1,615,1590,0,0
-602,-566,0,0,0,0,0,0,0,0,0,-1,622,1590,0,0
-595,-566,0,0,0,0,0,0,0,0,0,-1,629,1590,0,0
-588,-566,0,0,0,0,0,0,0,0,0,-1,636,1590,0,0
-581,-566,0,0,0,0,0,0,0,0,0,-1,643,1590,0,0
-574,-566,0,0,0,0,0,0,0,0,0,-1,650,1590,0,0
-567,-566,0,0,0,0,0,0,0,0,0,-1,657,1590,0,0
-560,-566,0,0,0,0,0,0,0,0,0,-1,664,1590,0,0
-553,-566,0,0,0,0,0,0,0,0,0,-1,671,1590,0,0
-546,-566,0,0,0,0,0,0,0,0,0,-1,678,1590,0,0
-539,-566,0,0,0,0,0,0,0,0,0,-1,685,1590,0,0
-532,-566,0,0,0,0,0,0,0,0,0,-1,692,1590,0,0
-525,-566,0,0,0,0,0,0,0,0,0,-1,699,1590,0,0
-518,-566,0,0,0,0,0,0,0,0,0,-1,706,1590,0,0
-511,-566,0,0,0,0,0,0,0,0,0,-1,713,1590,0,0
-504,-566,0,0,0,0,0,0,0,0,0,-1,720,1590,0,0
-497,-566,0,0,0,0,0,0,0,0,0,-1,727,1590,0,0
-490,-566,0,0,0,0,0,0,0,0,0,-1,734,1590,0,0
-483,-566,-2.4743,2.07825,0,0,0,0,0,0,0,-1,741,1590,-2.47428,-2.07829
-476,-566,-1.80646,2.39294,0,0,0,0,0,0,0,-1,748,1590,-1.80644,-2.39298
-469,-566,-1.15375,3.03284,0,0,0,0,0,0,0,-1,755,1590,-1.15378,-3.03283
-462,-566,-0.459106,3.89343,0,0,0,0,0,0,0,-1,762,1590,-0.459095,-3.89341
-455,-566,0.280212,4.74023,0,0,0,0,0,0,0,-1,769,1590,0.280207,-4.74023
-448,-566,0.917358,5.58521,0,0,0,0,0,0,0,-1,776,1590,0.91735,-5.58524
-441,-566,0.959229,7.03784,0,0,0,0,0,0,0,-1,783,1590,0.95922,-7.03783
-434,-566,0.827637,8.0614,0,0,0,0,0,0,0,-1,790,1590,0.827663,-8.06137
-427,-566,0.867371,8.49023,0.00954612,0.0163715,0.0112807,0.0247444,0.00117319,0.932284,0.0161195,0.0425428,797,1590,0.867363,-8.49023
-420,-566,0.937744,8.87781,0.00567008,0.01172,0.00824001,0.0174727,-8.26735e-05,0.961314,0.0116761,0.0341256,804,1590,0.93775,-8.87776
-413,-566,1.02014,9.10315,0.00316079,0.00747375,0.0059399,0.0116365,-0.00100197,0.959524,0.00811232,0.0164314,811,1590,1.02013,-9.10315
-406,-566,1.02802,9.3656,0.00186835,0.00431498,0.0040451,0.00731769,-0.00113436,0.932235,0.00529722,0.00943374,818,1590,1.02799,-9.3656
-399,-566,1.02515,9.60315,0.000989738,0.00216461,0.00248532,0.00413097,-0.000976628,0.901449,0.00313072,0.00962895,825,1590,1.02513,-9.60321
-392,-566,1.00787,9.82385,0.000353701,0.000559565,0.00139298,0.00185341,-0.000940143,0.822278,0.00164134,0.0111803,832,1590,1.00787,-9.82385
-385,-566,1.02484,10.0819,-8.45959e-05,-0.0007545,0.000440088,0.000133507,-0.000972603,0.460113,0.000697179,0.0132931,839,1590,1.02486,-10.0819
-378,-566,1.01587,10.3485,-0.000179349,-0.00107809,-7.27521e-05,-0.000173498,-0.00108394,-0.080253,0.000672296,0.0149383,846,1590,1.01586,-10.3486
-371,-566,0.966064,10.5599,-8.16787e-05,-0.00116825,-0.000449783,8.03467e-05,-0.00133028,-0.345759,0.00091481,0.0217297,853,1590,0.966055,-10.5599
-364,-566,0.981934,10.8193,0.000389776,-0.000805296,-0.000522061,0.000585712,-0.00100123,-0.359044,0.000926632,0.0225579,860,1590,0.981924,-10.8193
-357,-566,0.981873,11.0643,0.00113488,0.000499491,-1.00741e-05,0.00113504,0.000499331,-0.0158497,0.000656891,0.0188089,867,1590,0.981896,-11.0644
-350,-566,1.01544,11.2671,0.00164933,0.00238425,0.00107733,0.00315506,0.000878508,0.949753,0.00188024,0.0213174,874,1590,1.01546,-11.2671
-343,-566,1.03894,11.5197,0.00247482,0.00432162,0.00205875,0.00565457,0.00114186,0.996211,0.00345262,0.0238081,881,1590,1.03895,-11.5197
-336,-566,0.986816,11.7261,0.00331243,0.00643394,0.00317162,0.00840803,0.00133834,1.01405,0.00521678,0.0223791,888,1590,0.98679,-11.7261
-329,-566,1.01202,11.9078,0.00424312,0.00901043,0.00474439,0.0119363,0.00131725,1.01819,0.00755682,0.0144299,895,1590,1.01203,-11.9078
-322,-566,1.07587,12.1787,0.00514122,0.011845,0.00662472,0.0159175,0.00106868,1.0196,0.010274,0.0169923,902,1590,1.07589,-12.1787
-315,-566,1.05347,12.3251,0.00593173,0.0146454,0.00860338,0.0199322,0.000644906,1.01978,0.0130785,0.0294703,909,1590,1.05345,-12.3251
-308,-566,1.10571,12.4656,0.00658102,0.0170847,0.0104259,0.0235068,0.000158904,1.01871,0.0156185,0.0348455,916,1590,1.1057,-12.4655
-301,-566,0.802734,12.6318,0.00705381,0.0190629,0.0121793,0.0266374,-0.000520621,1.01442,0.0179343,0.0396073,923,1590,0.802761,-12.6319
-294,-566,0.433899,12.9796,0,0,0,0,0,0,0,-1,930,1590,0.433876,-12.9796
-287,-566,0.353943,13.1383,0,0,0,0,0,0,0,-1,937,1590,0.353945,-13.1383
-280,-566,0.165344,13.4049,0,0,0,0,0,0,0,-1,944,1590,0.165366,-13.4048
-273,-566,0.49762,11.2427,0,0,0,0,0,0,0,-1,951,1590,0.497591,-11.2426
-266,-566,0.392151,6.90295,0,0,0,0,0,0,0,-1,958,1590,0.392151,-6.90294
-259,-566,0.343628,6.47437,0,0,0,0,0,0,0,-1,965,1590,0.34363,-6.47438
-252,-566,-7.68311,1.01343,0,0,0,0,0,0,0,-1,972,1590,-7.68308,-1.01348
-245,-566,-11.1835,1.97522,0,0,0,0,0,0,0,-1,979,1590,-11.1835,-1.97527
-238,-566,-10.4883,2.40491,0,0,0,0,0,0,0,-1,986,1590,-10.4883,-2.40487
-231,-566,-7.41827,4.22803,0,0,0,0,0,0,0,-1,993,1590,-7.41827,-4.22803
-224,-566,-4.67188,6.30859,0,0,0,0,0,0,0,-1,1000,1590,-4.67185,-6.30853
-217,-566,-2.82867,7.52527,0,0,0,0,0,0,0,-1,1007,1590,-2.82869,-7.52531
-210,-566,-1.03436,8.67737,0,0,0,0,0,0,0,-1,1014,1590,-1.03439,-8.67733
-203,-566,0,0,0,0,0,0,0,0,0,-1,1021,1590,0,0
-196,-566,0,0,0,0,0,0,0,0,0,-1,1028,1590,0,0
-189,-566,0,0,0,0,0,0,0,0,0,-1,1035,1590,0,0
-182,-566,0,0,0,0,0,0,0,0,0,-1,1042,1590,0,0
-175,-566,0,0,0,0,0,0,0,0,0,-1,1049,1590,0,0
-168,-566,0,0,0,0,0,0,0,0,0,-1,1056,1590,0,0
-161,-566,0,0,0,0,0,0,0,0,0,-1,1063,1590,0,0
-154,-566,0,0,0,0,0,0,0,0,0,-1,1070,1590,0,0
-147,-566,0,0,0,0,0,0,0,0,0,-1,1077,1590,0,0
-140,-566,0,0,0,0,0,0,0,0,0,-1,1084,1590,0,0
-133,-566,0,0,0,0,0,0,0,0,0,-1,1091,1590,0,0
-126,-566,0,0,0,0,0,0,0,0,0,-1,1098,1590,0,0
-119,-566,0,0,0,0,0,0,0,0,0,-1,1105,1590,0,0
-112,-566,0,0,0,0,0,0,0,0,0,-1,1112,1590,0,0
-105,-566,0,0,0,0,0,0,0,0,0,-1,1119,1590,0,0
-98,-566,0,0,0,0,0,0,0,0,0,-1,1126,1590,0,0
-91,-566,0,0,0,0,0,0,0,0,0,-1,1133,1590,0,0
-84,-566,0,0,0,0,0,0,0,0,0,-1,1140,1590,0,0
-77,-566,0,0,0,0,0,0,0,0,0,-1,1147,1590,0,0
-70,-566,0,0,0,0,0,0,0,0,0,-1,1154,1590,0,0
-63,-566,0,0,0,0,0,0,0,0,0,-1,1161,1590,0,0
-56,-566,0,0,0,0,0,0,0,0,0,-1,1168,1590,0,0
-49,-566,0,0,0,0,0,0,0,0,0,-1,1175,1590,0,0
-42,-566,0,0,0,0,0,0,0,0,0,-1,1182,1590,0,0
-35,-566,0,0,0,0,0,0,0,0,0,-1,1189,1590,0,0
-28,-566,0,0,0,0,0,0,0,0,0,-1,1196,1590,0,0
-21,-566,0,0,0,0,0,0,0,0,0,-1,1203,1590,0,0
-14,-566,0,0,0,0,0,0,0,0,0,-1,1210,1590,0,0
-7,-566,0,0,0,0,0,0,0,0,0,-1,1217,1590,0,0
0,-566,0,0,0,0,0,0,0,0,0,-1,1224,1590,0,0
7,-566,0,0,0,0,0,0,0,0,0,-1,1231,1590,0,0
14,-566,0,0,0,0,0,0,0,0,0,-1,1238,1590,0,0
21,-566,0,0,0,0,0,0,0,0,0,-1,1245,1590,0,0
28,-566,0,0,0,0,0,0,0,0,0,-1,1252,1590,0,0
35,-566,0,0,0,0,0,0,0,0,0,-1,1259,1590,0,0
42,-566,0,0,0,0,0,0,0,0,0,-1,1266,1590,0,0
49,-566,0,0,0,0,0,0,0,0,0,-1,1273,1590,0,0
56,-566,0,0,0,0,0,0,0,0,0,-1,1280,1590,0,0
63,-566,0,0,0,0,0,0,0,0,0,-1,1287,1590,0,0
70,-566,0,0,0,0,0,0,0,0,0,-1,1294,1590,0,0
77,-566,0,0,0,0,0,0,0,0,0,-1,1301,1590,0,0
84,-566,0,0,0,0,0,0,0,0,0,-1,1308,1590,0,0
91,-566,0,0,0,0,0,0,0,0,0,-1,1315,1590,0,0
98,-566,0,0,0,0,0,0,0,0,0,-1,1322,1590,0,0
105,-566,0,0,0,0,0,0,0,0,0,-1,1329,1590,0,0
112,-566,0,0,0,0,0,0,0,0,0,-1,1336,1590,0,0
119,-566,0,0,0,0,0,0,0,0,0,-1,1343,1590,0,0
126,-566,0,0,0,0,0,0,0,0,0,-1,1350,1590,0,0
133,-566,0,0,0,0,0,0,0,0,0,-1,1357,1590,0,0
140,-566,0,0,0,0,0,0,0,0,0,-1,1364,1590,0,0
147,-566,0,0,0,0,0,0,0,0,0,-1,1371,1590,0,0
154,-566,0,0,0,0,0,0,0,0,0,-1,1378,1590,0,0
161,-566,0,0,0,0,0,0,0,0,0,-1,1385,1590,0,0
168,-566,0,0,0,0,0,0,0,0,0,-1,1392,1590,0,0
175,-566,0,0,0,0,0,0,0,0,0,-1,1399,1590,0,0
182,-566,0,0,0,0,0,0,0,0,0,-1,1406,1590,0,0
189,-566,0,0,0,0,0,0,0,0,0,-1,1413,1590,0,0
196,-566,0,0,0,0,0,0,0,0,0,-1,1420,1590,0,0
203,-566,0,0,0,0,0,0,0,0,0,-1,1427,1590,0,0
210,-566,0,0,0,0,0,0,0,0,0,-1,1434,1590,0,0
217,-566,0,0,0,0,0,0,0,0,0,-1,1441,1590,0,0
224,-566,0,0,0,0,0,0,0,0,0,-1,1448,1590,0,0
231,-566,0,0,0,0,0,0,0,0,0,-1,1455,1590,0,0
238,-566,0,0,0,0,0,0,0,0,0,-1,1462,1590,0,0
245,-566,0,0,0,0,0,0,0,0,0,-1,1469,1590,0,0
252,-566,0,0,0,0,0,0,0,0,0,-1,1476,1590,0,0
259,-566,0,0,0,0,0,0,0,0,0,-1,1483,1590,0,0
266,-566,0,0,0,0,0,0,0,0,0,-1,1490,1590,0,0
273,-566,0,0,0,0,0,0,0,0,0,-1,1497,1590,0,0
280,-566,0,0,0,0,0,0,0,0,0,-1,1504,1590,0,0
287,-566,0,0,0,0,0,0,0,0,0,-1,1511,1590,0,0
294,-566,0,0,0,0,0,0,0,0,0,-1,1518,1590,0,0
301,-566,0,0,0,0,0,0,0,0,0,-1,1525,1590,0,0
308,-566,0,0,0,0,0,0,0,0,0,-1,1532,1590,0,0
315,-566,0,0,0,0,0,0,0,0,0,-1,1539,1590,0,0
322,-566,6.07983,4.44873,0,0,0,0,0,0,0,-1,1546,1590,6.07983,-4.44873
329,-566,5.77026,3.47534,0,0,0,0,0,0,0,-1,1553,1590,5.77026,-3.47535
336,-566,5.41138,2.62915,0,0,0,0,0,0,0,-1,1560,1590,5.41138,-2.62909
343,-566,4.81873,1.79089,0,0,0,0,0,0,0,-1,1567,1590,4.81878,-1.79095
350,-566,4.41663,2.44214,0,0,0,0,0,0,0,-1,1574,1590,4.41666,-2.44214
357,-566,6.34058,5.18579,0,0,0,0,0,0,0,-1,1581,1590,6.34059,-5.1858
364,-566,6.06262,4.20251,0,0,0,0,0,0,0,-1,1588,1590,6.06259,-4.20246
371,-566,5.78455,3.21912,0,0,0,0,0,0,0,-1,1595,1590,5.7846,-3.21912
378,-566,5.7439,0.695557,0,0,0,0,0,0,0,-1,1602,1590,5.74392,-0.695531
385,-566,5.67615,-0.573975,0,0,0,0,0,0,0,-1,1609,1590,5.67612,0.573956
392,-566,5.78638,1.82434,0,0,0,0,0,0,0,-1,1616,1590,5.78637,-1.82439
399,-566,5.36621,1.7373,0,0,0,0,0,0,0,-1,1623,1590,5.36627,-1.7373
406,-566,4.30359,5.26868,0,0,0,0,0,0,0,-1,1630,1590,4.30364,-5.26867
413,-566,4.27124,5.79492,0,0,0,0,0,0,0,-1,1637,1590,4.27123,-5.7949
420,-566,7.19812,8.25146,0,0,0,0,0,0,0,-1,1644,1590,7.19817,-8.25149
427,-566,10.455,10.6842,0,0,0,0,0,0,0,-1,1651,1590,10.455,-10.6842
434,-566,8.48389,13.1216,0,0,0,0,0,0,0,-1,1658,1590,8.48384,-13.1215
441,-566,8.56213,13.5276,0,0,0,0,0,0,0,-1,1665,1590,8.56209,-13.5276
448,-566,8.75256,13.2216,-0.0063627,-0.0265403,0.0184014,0.00453413,-0.0374371,0.534644,0.0265986,0.0370366,1672,1590,8.7525,-13.2215
455,-566,8.55432,13.2114,-0.00566882,-0.0227995,0.0159589,0.00387803,-0.0323463,0.539106,0.0229663,0.0265034,1679,1590,8.55435,-13.2114
462,-566,8.52222,13.0618,-0.00501372,-0.0191683,0.0137309,0.0033565,-0.0275385,0.547441,0.019574,0.0163983,1686,1590,8.52219,-13.0617
469,-566,8.5426,12.8334,-0.00441508,-0.0159298,0.0116613,0.00283263,-0.0231776,0.556093,0.0164773,0.0124507,1693,1590,8.54259,-12.8334
476,-566,8.54761,12.6093,-0.00378957,-0.0129372,0.00959747,0.00226825,-0.018995,0.563037,0.0134831,0.00980411,1700,1590,8.54755,-12.6093
483,-566,8.54004,12.3964,-0.00305364,-0.0102449,0.00778169,0.00192297,-0.0152215,0.568979,0.0108456,0.00987985,1707,1590,8.53999,-12.3963
490,-566,8.52637,12.1869,-0.00218355,-0.0078203,0.00607261,0.00169284,-0.0116967,0.568134,0.00841899,0.0107035,1714,1590,8.5264,-12.1869
497,-566,8.55188,11.9963,-0.00121352,-0.00598369,0.00435677,0.0013683,-0.0085655,0.534959,0.00621683,0.0140209,1721,1590,8.55192,-11.9963
504,-566,8.57556,11.8086,-0.000280017,-0.00421738,0.00290912,0.00126395,-0.00576135,0.487931,0.00432423,0.0180138,1728,1590,8.57562,-11.8086
511,-566,8.56726,11.5999,0.000786185,-0.0028415,0.00145721,0.00129904,-0.00335435,0.338401,0.00277261,0.0174304,1735,1590,8.5673,-11.5998
518,-566,8.55603,11.3684,0.00193402,-0.00193739,0.000181629,0.00194252,-0.00194589,0.0467785,0.00224498,0.0117513,1742,1590,8.55603,-11.3684
525,-566,8.54919,11.1222,0.00313137,-0.00134308,-0.000888616,0.00330138,-0.00151309,-0.189044,0.00284284,0.0117702,1749,1590,8.54917,-11.1222
532,-566,8.53821,10.902,0.00422819,-0.00104625,-0.00163121,0.0046919,-0.00150996,-0.276968,0.00373444,0.0135364,1756,1590,8.53818,-10.902
539,-566,8.54395,10.6515,0.00557964,-0.00100056,-0.00223688,0.00626803,-0.00168896,-0.298548,0.0048409,0.0172936,1763,1590,8.54398,-10.6515
546,-566,8.60852,10.3801,0.00811383,-0.00149152,-0.00330994,0.00914394,-0.00252163,-0.301716,0.00708764,0.0199917,1770,1590,8.60846,-10.3801
553,-566,8.62878,10.2809,0.0116004,-0.00167509,-0.00505465,0.0133058,-0.00338056,-0.325411,0.0101862,0.0365971,1777,1590,8.62883,-10.2809
560,-566,8.43311,10.113,0,0,0,0,0,0,0,-1,1784,1590,8.4331,-10.1131
567,-566,8.90405,10.0139,0,0,0,0,0,0,0,-1,1791,1590,8.90405,-10.0139
574,-566,7.99548,3.14514,0,0,0,0,0,0,0,-1,1798,1590,7.99543,-3.14511
581,-566,2.54102,5.1311,0,0,0,0,0,0,0,-1,1805,1590,2.54099,-5.13111
588,-566,-1.91321,8.39197,0,0,0,0,0,0,0,-1,1812,1590,-1.91316,-8.39199
595,-566,9.0271,4.66467,0,0,0,0,0,0,0,-1,1819,1590,9.02705,-4.66468
602,-566,9.953,3.54895,0,0,0,0,0,0,0,-1,1826,1590,9.953,-3.54898
609,-566,0,0,0,0,0,0,0,0,0,-1,1833,1590,0,0
616,-566,0,0,0,0,0,0,0,0,0,-1,1840,1590,0,0
623,-566,0,0,0,0,0,0,0,0,0,-1,1847,1590,0,0
630,-566,0,0,0,0,0,0,0,0,0,-1,1854,1590,0,0
637,-566,0,0,0,0,0,0,0,0,0,-1,1861,1590,0,0
644,-566,0,0,0,0,0,0,0,0,0,-1,1868,1590,0,0
651,-566,0,0,0,0,0,0,0,0,0,-1,1875,1590,0,0
658,-566,0,0,0,0,0,0,0,0,0,-1,1882,1590,0,0
665,-566,0,0,0,0,0,0,0,0,0,-1,1889,1590,0,0
672,-566,0,0,0,0,0,0,0,0,0,-1,1896,1590,0,0
679,-566,0,0,0,0,0,0,0,0,0,-1,1903,1590,0,0
686,-566,0,0,0,0,0,0,0,0,0,-1,1910,1590,0,0
693,-566,0,0,0,0,0,0,0,0,0,-1,1917,1590,0,0
700,-566,0,0,0,0,0,0,0,0,0,-1,1924,1590,0,0
707,-566,0,0,0,0,0,0,0,0,0,-1,1931,1590,0,0
714,-566,0,0,0,0,0,0,0,0,0,-1,1938,1590,0,0
721,-566,0,0,0,0,0,0,0,0,0,-1,1945,1590,0,0
728,-566,0,0,0,0,0,0,0,0,0,-1,1952,1590,0,0
735,-566,0,0,0,0,0,0,0,0,0,-1,1959,1590,0,0
742,-566,0,0,0,0,0,0,0,0,0,-1,1966,1590,0,0
749,-566,0,0,0,0,0,0,0,0,0,-1,1973,1590,0,0
756,-566,0,0,0,0,0,0,0,0,0,-1,1980,1590,0,0
763,-566,0,0,0,0,0,0,0,0,0,-1,1987,1590,0,0
770,-566,0,0,0,0,0,0,0,0,0,-1,1994,1590,0,0
777,-566,0,0,0,0,0,0,0,0,0,-1,2001,1590,0,0
784,-566,0,0,0,0,0,0,0,0,0,-1,2008,1590,0,0
791,-566,0,0,0,0,0,0,0,0,0,-1,2015,1590,0,0
798,-566,0,0,0,0,0,0,0,0,0,-1,2022,1590,0,0
805,-566,0,0,0,0,0,0,0,0,0,-1,2029,1590,0,0
812,-566,0,0,0,0,0,0,0,0,0,-1,2036,1590,0,0
-700,-573,0,0,0,0,0,0,0,0,0,-1,524,1597,0,0
-693,-573,0,0,0,0,0,0,0,0,0,-1,531,1597,0,0
-686,-573,0,0,0,0,0,0,0,0,0,-1,538,1597,0,0
-679,-573,0,0,0,0,0,0,0,0,0,-1,545,1597,0,0
-672,-573,0,0,0,0,0,0,0,0,0,-1,552,1597,0,0
-665,-573,0,0,0,0,0,0,0,0,0,-1,559,1597,0,0
-658,-573,0,0,0,0,0,0,0,0,0,-1,566,1597,0,0
-651,-573,0,0,0,0,0,0,0,0,0,-1,573,1597,0,0
-644,-573,0,0,0,0,0,0,0,0,0,-1,580,1597,0,0
-637,-573,0,0,0,0,0,0,0,0,0,-1,587,1597,0,0
-630,-573,0,0,0,0,0,0,0,0,0,-1,594,1597,0,0
-623,-573,0,0,0,0,0,0,0,0,0,-1,601,1597,0,0
-616,-573,0,0,0,0,0,0,0,0,0,-1,608,1597,0,0
-609,-573,0,0,0,0,0,0,0,0,0,-1,615,1597,0,0
-602,-573,0,0,0,0,0,0,0,0,0,-1,622,1597,0,0
-595,-573,0,0,0,0,0,0,0,0,0,-1,629,1597,0,0
-588,-573,0,0,0,0,0,0,0,0,0,-1,636,1597,0,0
-581,-573,0,0,0,0,0,0,0,0,0,-1,643,1597,0,0
-574,-573,0,0,0,0,0,0,0,0,0,-1,650,1597,0,0
-567,-573,0,0,0,0,0,0,0,0,0,-1,657,1597,0,0
-560,-573,0,0,0,0,0,0,0,0,0,-1,664,1597,0,0
-553,-573,0,0,0,0,0,0,0,0,0,-1,671,1597,0,0
-546,-573,0,0,0,0,0,0,0,0,0,-1,678,1597,0,0
-539,-573,0,0,0,0,0,0,0,0,0,-1,685,1597,0,0
-532,-573,0,0,0,0,0,0,0,0,0,-1,692,1597,0,0
-525,-573,0,0,0,0,0,0,0,0,0,-1,699,1597,0,0
-518,-573,0,0,0,0,0,0,0,0,0,-1,706,1597,0,0
-511,-573,0,0,0,0,0,0,0,0,0,-1,713,1597,0,0
-504,-573,0,0,0,0,0,0,0,0,0,-1,720,1597,0,0
-497,-573,0,0,0,0,0,0,0,0,0,-1,727,1597,0,0
-490,-573,0,0,0,0,0,0,0,0,0,-1,734,1597,0,0
-483,-573,0,0,0,0,0,0,0,0,0,-1,741,1597,0,0
-476,-573,-1.86273,0.293091,0,0,0,0,0,0,0,-1,748,1597,-1.86276,-0.29314
-469,-573,-1.41681,1.13379,0,0,0,0,0,0,0,-1,755,1597,-1.41681,-1.13382
-462,-573,-0.748535,2.02588,0,0,0,0,0,0,0,-1,762,1597,-0.748533,-2.02584
-455,-573,-0.112976,2.70703,0,0,0,0,0,0,0,-1,769,1597,-0.112988,-2.70697
-448,-573,-1.26172,3.33252,0,0,0,0,0,0,0,-1,776,1597,-1.26173,-3.33248
-441,-573,0.108582,5.06726,0,0,0,0,0,0,0,-1,783,1597,0.108584,-5.06721
-434,-573,1.61768,7.05444,0,0,0,0,0,0,0,-1,790,1597,1.61767,-7.05446
-427,-573,0.542847,8.12195,0,0,0,0,0,0,0,-1,797,1597,0.542854,-8.12191
-420,-573,0.98291,8.44604,0.00649078,0.01273,0.00955321,0.0196601,-0.000439273,0.943215,0.0132556,0.044852,804,1597,0.982939,-8.44603
-413,-573,1.28668,9.0437,0.00349935,0.00760091,0.00676739,0.0126214,-0.00152117,0.932519,0.00896446,0.036944,811,1597,1.28667,-9.04366
-406,-573,1.25922,9.33435,0.00193393,0.0039318,0.00458751,0.00762788,-0.00176215,0.8926,0.00576314,0.0177282,818,1597,1.25919,-9.33441
-399,-573,1.24811,9.61487,0.000865477,0.00151637,0.00282765,0.00403724,-0.0016554,0.842693,0.00338118,0.0108255,825,1597,1.2481,-9.61482
-392,-573,1.25861,9.8479,0.000121495,-0.000244742,0.00165232,0.00160081,-0.00172406,0.730211,0.00192006,0.010674,832,1597,1.25864,-9.84785
-385,-573,1.25879,10.0886,-0.000374246,-0.00165789,0.000662381,-9.37424e-05,-0.00193839,0.400581,0.00126217,0.0125852,839,1597,1.25881,-10.0886
-378,-573,1.24078,10.3344,-0.000477053,-0.00201063,0.000158297,-0.000460884,-0.0020268,0.101791,0.00122678,0.0142708,846,1597,1.24079,-10.3344
-371,-573,1.23926,10.5812,-0.000365737,-0.00207117,-0.000192843,-0.000344203,-0.00209271,-0.111205,0.00129573,0.0150994,853,1597,1.23924,-10.5812
-364,-573,1.23358,10.8218,-4.63605e-05,-0.00181748,-0.000328398,1.25697e-05,-0.00187641,-0.177557,0.00125515,0.0184184,860,1597,1.23358,-10.8218
-357,-573,1.21783,11.0374,0.000523533,-0.000713107,3.81729e-05,0.000524711,-0.000714285,0.0308291,0.00071812,0.0223803,867,1597,1.21784,-11.0374
-350,-573,1.23877,11.2809,0.000954007,0.000874001,0.000846594,0.00176154,6.64655e-05,0.76179,0.00115285,0.0173284,874,1597,1.23875,-11.2809
-343,-573,1.2677,11.5254,0.00157506,0.00246871,0.00156863,0.00365291,0.000390859,0.924148,0.00231601,0.0208883,881,1597,1.26772,-11.5254
-336,-573,1.23254,11.7373,0.00211977,0.00412017,0.00231259,0.00563958,0.000600352,0.989502,0.00357644,0.0175911,888,1597,1.23257,-11.7374
-329,-573,1.23041,11.9641,0.00265266,0.00608535,0.00336888,0.0081499,0.000588103,1.021,0.00524823,0.0171949,895,1597,1.23039,-11.9641
-322,-573,1.26862,12.1969,0.0030802,0.00815438,0.00456217,0.0108375,0.000397114,1.03916,0.00709631,0.012189,902,1597,1.26862,-12.1969
-315,-573,1.34363,12.4622,0.00334051,0.0100213,0.00572214,0.0133067,5.51147e-05,1.0496,0.00885283,0.0181777,909,1597,1.34366,-12.4622
-308,-573,1.35767,12.5535,0.00342914,0.0115007,0.00668895,0.0152771,-0.000347208,1.05684,0.0103024,0.0277541,916,1597,1.35768,-12.5535
-301,-573,1.36554,12.7251,0.00337325,0.0124834,0.00754648,0.016743,-0.000886321,1.05693,0.0114689,0.0303702,923,1597,1.36554,-12.7251
-294,-573,1.24188,13.0002,0.00308408,0.0120887,0.00774917,0.0165486,-0.00137576,1.04857,0.0115184,0.0366389,930,1597,1.24189,-13.0003
-287,-573,1.11438,13.0043,0.00279724,0.0112086,0.00778824,0.0158541,-0.00184832,1.03297,0.0112363,0.0465778,937,1597,1.1144,-13.0043
-280,-573,1.07928,12.97,0,0,0,0,0,0,0,-1,944,1597,1.07928,-12.9699
-273,-573,-0.225037,10.6533,0,0,0,0,0,0,0,-1,951,1597,-0.225018,-10.6533
-266,-573,1.31116,7.1814,0,0,0,0,0,0,0,-1,958,1597,1.31118,-7.18142
-259,-573,1.2514,6.70959,0,0,0,0,0,0,0,-1,965,1597,1.25137,-6.70965
-252,-573,2.07874,5.27161,0,0,0,0,0,0,0,-1,972,1597,2.07875,-5.27157
-245,-573,-10.2592,1.09827,0,0,0,0,0,0,0,-1,979,1597,-10.2592,-1.09823
-238,-573,-11.5463,4.44141,0,0,0,0,0,0,0,-1,986,1597,-11.5463,-4.44146
-231,-573,-9.23431,4.14539,0,0,0,0,0,0,0,-1,993,1597,-9.23431,-4.14534
-224,-573,-6.70044,7.40857,0,0,0,0,0,0,0,-1,1000,1597,-6.70045,-7.40851
-217,-573,-4.25824,8.59119,0,0,0,0,0,0,0,-1,1007,1597,-4.25824,-8.59122
-210,-573,-2.39661,9.73914,0,0,0,0,0,0,0,-1,1014,1597,-2.39658,-9.73915
-203,-573,-0.557373,10.9005,0,0,0,0,0,0,0,-1,1021,1597,-0.557387,-10.9006
-196,-573,-1.65344,9.02246,0,0,0,0,0,0,0,-1,1028,1597,-1.65349,-9.02241
-189,-573,-6.12915,6.66882,0,0,0,0,0,0,0,-1,1035,1597,-6.12913,-6.66884
-182,-573,0,0,0,0,0,0,0,0,0,-1,1042,1597,0,0
-175,-573,0,0,0,0,0,0,0,0,0,-1,1049,1597,0,0
-168,-573,0,0,0,0,0,0,0,0,0,-1,1056,1597,0,0
-161,-573,0,0,0,0,0,0,0,0,0,-1,1063,1597,0,0
-154,-573,0,0,0,0,0,0,0,0,0,-1,1070,1597,0,0
-147,-573,0,0,0,0,0,0,0,0,0,-1,1077,1597,0,0
-140,-573,0,0,0,0,0,0,0,0,0,-1,1084,1597,0,0
-133,-573,0,0,0,0,0,0,0,0,0,-1,1091,1597,0,0
-126,-573,0,0,0,0,0,0,0,0,0,-1,1098,1597,0,0
-119,-573,0,0,0,0,0,0,0,0,0,-1,1105,1597,0,0
-112,-573,0,0,0,0,0,0,0,0,0,-1,1112,1597,0,0
-105,-573,0,0,0,0,0,0,0,0,0,-1,1119,1597,0,0
-98,-573,0,0,0,0,0,0,0,0,0,-1,1126,1597,0,0
-91,-573,0,0,0,0,0,0,0,0,0,-1,1133,1597,0,0
-84,-573,0,0,0,0,0,0,0,0,0,-1,1140,1597,0,0
-77,-573,0,0,0,0,0,0,0,0,0,-1,1147,1597,0,0
-70,-573,0,0,0,0,0,0,0,0,0,-1,1154,1597,0,0
-63,-573,0,0,0,0,0,0,0,0,0,-1,1161,1597,0,0
-56,-573,0,0,0,0,0,0,0,0,0,-1,1168,1597,0,0
-49,-573,0,0,0,0,0,0,0,0,0,-1,1175,1597,0,0
-42,-573,0,0,0,0,0,0,0,0,0,-1,1182,1597,0,0
-35,-573,0,0,0,0,0,0,0,0,0,-1,1189,1597,0,0
-28,-573,0,0,0,0,0,0,0,0,0,-1,1196,1597,0,0
-21,-573,0,0,0,0,0,0,0,0,0,-1,1203,1597,0,0
-14,-573,0,0,0,0,0,0,0,0,0,-1,1210,1597,0,0
-7,-573,0,0,0,0,0,0,0,0,0,-1,1217,1597,0,0
0,-573,0,0,0,0,0,0,0,0,0,-1,1224,1597,0,0
7,-573,0,0,0,0,0,0,0,0,0,-1,1231,1597,0,0
14,-573,0,0,0,0,0,0,0,0,0,-1,1238,1597,0,0
21,-573,0,0,0,0,0,0,0,0,0,-1,1245,1597,0,0
28,-573,0,0,0,0,0,0,0,0,0,-1,1252,1597,0,0
35,-573,0,0,0,0,0,0,0,0,0,-1,1259,1597,0,0
42,-573,0,0,0,0,0,0,0,0,0,-1,1266,1597,0,0
49,-573,0,0,0,0,0,0,0,0,0,-1,1273,1597,0,0
56,-573,0,0,0,0,0,0,0,0,0,-1,1280,1597,0,0
63,-573,0,0,0,0,0,0,0,0,0,-1,1287,1597,0,0
70,-573,0,0,0,0,0,0,0,0,0,-1,1294,1597,0,0
77,-573,0,0,0,0,0,0,0,0,0,-1,1301,1597,0,0
84,-573,0,0,0,0,0,0,0,0,0,-1,1308,1597,0,0
91,-573,0,0,0,0,0,0,0,0,0,-1,1315,1597,0,0
98,-573,0,0,0,0,0,0,0,0,0,-1,1322,1597,0,0
105,-573,0,0,0,0,0,0,0,0,0,-1,1329,1597,0,0
112,-573,0,0,0,0,0,0,0,0,0,-1,1336,1597,0,0
119,-573,0,0,0,0,0,0,0,0,0,-1,1343,1597,0,0
126,-573,0,0,0,0,0,0,0,0,0,-1,1350,1597,0,0
133,-573,0,0,0,0,0,0,0,0,0,-1,1357,1597,0,0
140,-573,0,0,0,0,0,0,0,0,0,-1,1364,1597,0,0
147,-573,0,0,0,0,0,0,0,0,0,-1,1371,1597,0,0
154,-573,0,0,0,0,0,0,0,0,0,-1,1378,1597,0,0
161,-573,0,0,0,0,0,0,0,0,0,-1,1385,1597,0,0
168,-573,0,0,0,0,0,0,0,0,0,-1,1392,1597,0,0
175,-573,0,0,0,0,0,0,0,0,0,-1,1399,1597,0,0
182,-573,0,0,0,0,0,0,0,0,0,-1,1406,1597,0,0
189,-573,0,0,0,0,0,0,0,0,0,-1,1413,1597,0,0
196,-573,0,0,0,0,0,0,0,0,0,-1,1420,1597,0,0
203,-573,0,0,0,0,0,0,0,0,0,-1,1427,1597,0,0
210,-573,0,0,0,0,0,0,0,0,0,-1,1434,1597,0,0
217,-573,0,0,0,0,0,0,0,0,0,-1,1441,1597,0,0
224,-573,0,0,0,0,0,0,0,0,0,-1,1448,1597,0,0
231,-573,0,0,0,0,0,0,0,0,0,-1,1455,1597,0,0
238,-573,0,0,0,0,0,0,0,0,0,-1,1462,1597,0,0
245,-573,0,0,0,0,0,0,0,0,0,-1,1469,1597,0,0
252,-573,0,0,0,0,0,0,0,0,0,-1,1476,1597,0,0
259,-573,0,0,0,0,0,0,0,0,0,-1,1483,1597,0,0
266,-573,0,0,0,0,0,0,0,0,0,-1,1490,1597,0,0
273,-573,0,0,0,0,0,0,0,0,0,-1,1497,1597,0,0
280,-573,0,0,0,0,0,0,0,0,0,-1,1504,1597,0,0
287,-573,0,0,0,0,0,0,0,0,0,-1,1511,1597,0,0
294,-573,0,0,0,0,0,0,0,0,0,-1,1518,1597,0,0
301,-573,0,0,0,0,0,0,0,0,0,-1,1525,1597,0,0
308,-573,5.93042,9.71143,0,0,0,0,0,0,0,-1,1532,1597,5.93046,-9.71144
315,-573,4.34204,11.719,0,0,0,0,0,0,0,-1,1539,1597,4.34205,-11.719
322,-573,10.3269,7.77563,0,0,0,0,0,0,0,-1,1546,1597,10.327,-7.77565
329,-573,4.99573,3.80273,0,0,0,0,0,0,0,-1,1553,1597,4.9957,-3.80273
336,-573,4.85693,2.53455,0,0,0,0,0,0,0,-1,1560,1597,4.8569,-2.53459
343,-573,4.11877,0.735596,0,0,0,0,0,0,0,-1,1567,1597,4.11878,-0.735585
350,-573,2.53748,1.56433,0,0,0,0,0,0,0,-1,1574,1597,2.53753,-1.5643
357,-573,7.40247,4.03613,0,0,0,0,0,0,0,-1,1581,1597,7.40244,-4.03614
364,-573,7.14551,3.02087,0,0,0,0,0,0,0,-1,1588,1597,7.14556,-3.02084
371,-573,6.88867,2.00549,0,0,0,0,0,0,0,-1,1595,1597,6.88868,-2.00553
378,-573,8.62012,6.09106,0,0,0,0,0,0,0,-1,1602,1597,8.62012,-6.09103
385,-573,6.54346,-0.951904,0,0,0,0,0,0,0,-1,1609,1597,6.54349,0.951901
392,-573,6.41833,-2.18225,0,0,0,0,0,0,0,-1,1616,1597,6.41831,2.18228
399,-573,4.26282,4.73657,0,0,0,0,0,0,0,-1,1623,1597,4.26285,-4.73652
406,-573,6.82715,10.823,0,0,0,0,0,0,0,-1,1630,1597,6.82719,-10.823
413,-573,8.90552,13.1737,0,0,0,0,0,0,0,-1,1637,1597,8.90553,-13.1737
420,-573,9.32153,13.6853,0,0,0,0,0,0,0,-1,1644,1597,9.32155,-13.6853
427,-573,8.43152,12.9969,0,0,0,0,0,0,0,-1,1651,1597,8.43155,-12.9969
434,-573,8.3175,13.2754,-0.0066956,-0.0253644,0.0181998,0.00442397,-0.036484,0.548447,0.0259235,0.0460582,1658,1597,8.31747,-13.2754
441,-573,8.35132,13.5249,-0.00577613,-0.0226537,0.0159186,0.00380212,-0.0322319,0.541671,0.022861,0.0299127,1665,1597,8.35133,-13.5249
448,-573,8.33179,13.4886,-0.00486517,-0.019663,0.0137737,0.00337106,-0.0278992,0.538925,0.019819,0.0184405,1672,1597,8.33182,-13.4886
455,-573,8.32251,13.26,-0.0042187,-0.0168169,0.0117801,0.00284074,-0.0238763,0.53988,0.016944,0.0142298,1679,1597,8.32254,-13.2601
462,-573,8.33386,13.0028,-0.00359818,-0.0140701,0.00994527,0.00240524,-0.0200735,0.543096,0.0142519,0.0171476,1686,1597,8.33383,-13.0029
469,-573,8.35107,12.804,-0.00306309,-0.0116174,0.00826197,0.00196319,-0.0166437,0.546547,0.0118048,0.0147889,1693,1597,8.35104,-12.8039
476,-573,8.36646,12.6074,-0.00254453,-0.00931487,0.00656936,0.00146055,-0.01332,0.547493,0.0094047,0.0136678,1700,1597,8.36643,-12.6074
483,-573,8.34485,12.4045,-0.00190479,-0.00722433,0.00511739,0.00120277,-0.0103319,0.545737,0.00732185,0.0116835,1707,1597,8.34491,-12.4045
490,-573,8.31213,12.2063,-0.00105253,-0.00538435,0.00372296,0.00108871,-0.0075256,0.521944,0.00541656,0.0108347,1714,1597,8.31211,-12.2062
497,-573,8.33447,12.0012,-0.00011377,-0.00405058,0.00229239,0.000939357,-0.0051037,0.430645,0.00375496,0.0162839,1721,1597,8.33443,-12.0012
504,-573,8.33936,11.7858,0.000773495,-0.0027777,0.00113557,0.00110557,-0.00310978,0.284495,0.00252376,0.0161397,1728,1597,8.33936,-11.7857
511,-573,8.35498,11.5693,0.00184786,-0.00187851,-3.28339e-05,0.00184815,-0.00187879,-0.00881033,0.00215178,0.0174598,1735,1597,8.35498,-11.5693
518,-573,8.3385,11.3624,0.00304446,-0.00140246,-0.00104701,0.00327864,-0.00163664,-0.220045,0.00289014,0.0142771,1742,1597,8.33853,-11.3624
525,-573,8.33264,11.1218,0.00433701,-0.00128152,-0.00186038,0.00489716,-0.00184167,-0.292462,0.00402177,0.0170611,1749,1597,8.33265,-11.1218
532,-573,8.35059,10.8995,0.00554403,-0.00139375,-0.00234286,0.00626109,-0.00211081,-0.297009,0.0050276,0.0156975,1756,1597,8.35059,-10.8996
539,-573,8.31921,10.6871,0.00706301,-0.00170907,-0.00279691,0.00787889,-0.00252496,-0.283835,0.00626618,0.0206268,1763,1597,8.31922,-10.6871
546,-573,8.39539,10.4802,0.00986593,-0.002684,-0.00369175,0.0108714,-0.00368943,-0.265897,0.0087409,0.0335093,1770,1597,8.39533,-10.4803
553,-573,8.12512,10.2811,0.0138125,-0.00313181,-0.0053346,0.0153521,-0.00467141,-0.280972,0.0120964,0.0479341,1777,1597,8.12512,-10.2812
560,-573,7.98242,10.0762,0,0,0,0,0,0,0,-1,1784,1597,7.98245,-10.0762
567,-573,4.99597,2.77759,0,0,0,0,0,0,0,-1,1791,1597,4.99596,-2.7776
574,-573,0.83374,5.7041,0,0,0,0,0,0,0,-1,1798,1597,0.833718,-5.70405
581,-573,-0.224854,7.41602,0,0,0,0,0,0,0,-1,1805,1597,-0.224904,-7.41596
588,-573,-0.134033,7.67065,0,0,0,0,0,0,0,-1,1812,1597,-0.134037,-7.67063
595,-573,-0.0825195,8.35083,0,0,0,0,0,0,0,-1,1819,1597,-0.0824684,-8.35088
602,-573,0,0,0,0,0,0,0,0,0,-1,1826,1597,0,0
609,-573,0,0,0,0,0,0,0,0,0,-1,1833,1597,0,0
616,-573,0,0,0,0,0,0,0,0,0,-1,1840,1597,0,0
623,-573,0,0,0,0,0,0,0,0,0,-1,1847,1597,0,0
630,-573,0,0,0,0,0,0,0,0,0,-1,1854,1597,0,0
637,-573,0,0,0,0,0,0,0,0,0,-1,1861,1597,0,0
644,-573,0,0,0,0,0,0,0,0,0,-1,1868,1597,0,0
651,-573,0,0,0,0,0,0,0,0,0,-1,1875,1597,0,0
658,-573,0,0,0,0,0,0,0,0,0,-1,1882,1597,0,0
665,-573,0,0,0,0,0,0,0,0,0,-1,1889,1597,0,0
672,-573,0,0,0,0,0,0,0,0,0,-1,1896,1597,0,0
679,-573,0,0,0,0,0,0,0,0,0,-1,1903,1597,0,0
686,-573,0,0,0,0,0,0,0,0,0,-1,1910,1597,0,0
693,-573,0,0,0,0,0,0,0,0,0,-1,1917,1597,0,0
700,-573,0,0,0,0,0,0,0,0,0,-1,1924,1597,0,0
707,-573,0,0,0,0,0,0,0,0,0,-1,1931,1597,0,0
714,-573,0,0,0,0,0,0,0,0,0,-1,1938,1597,0,0
721,-573,0,0,0,0,0,0,0,0,0,-1,1945,1597,0,0
728,-573,0,0,0,0,0,0,0,0,0,-1,1952,1597,0,0
735,-573,0,0,0,0,0,0,0,0,0,-1,1959,1597,0,0
742,-573,0,0,0,0,0,0,0,0,0,-1,1966,1597,0,0
749,-573,0,0,0,0,0,0,0,0,0,-1,1973,1597,0,0
756,-573,0,0,0,0,0,0,0,0,0,-1,1980,1597,0,0
763,-573,0,0,0,0,0,0,0,0,0,-1,1987,1597,0,0
770,-573,0,0,0,0,0,0,0,0,0,-1,1994,1597,0,0
777,-573,0,0,0,0,0,0,0,0,0,-1,2001,1597,0,0
784,-573,0,0,0,0,0,0,0,0,0,-1,2008,1597,0,0
791,-573,0,0,0,0,0,0,0,0,0,-1,2015,1597,0,0
798,-573,0,0,0,0,0,0,0,0,0,-1,2022,1597,0,0
805,-573,0,0,0,0,0,0,0,0,0,-1,2029,1597,0,0
812,-573,0,0,0,0,0,0,0,0,0,-1,2036,1597,0,0
-700,-580,0,0,0,0,0,0,0,0,0,-1,524,1604,0,0
-693,-580,0,0,0,0,0,0,0,0,0,-1,531,1604,0,0
-686,-580,0,0,0,0,0,0,0,0,0,-1,538,1604,0,0
-679,-580,0,0,0,0,0,0,0,0,0,-1,545,1604,0,0
-672,-580,0,0,0,0,0,0,0,0,0,-1,552,1604,0,0
-665,-580,0,0,0,0,0,0,0,0,0,-1,559,1604,0,0
-658,-580,0,0,0,0,0,0,0,0,0,-1,566,1604,0,0
-651,-580,0,0,0,0,0,0,0,0,0,-1,573,1604,0,0
-644,-580,0,0,0,0,0,0,0,0,0,-1,580,1604,0,0
-637,-580,0,0,0,0,0,0,0,0,0,-1,587,1604,0,0
-630,-580,0,0,0,0,0,0,0,0,0,-1,594,1604,0,0
-623,-580,0,0,0,0,0,0,0,0,0,-1,601,1604,0,0
-616,-580,0,0,0,0,0,0,0,0,0,-1,608,1604,0,0
-609,-580,0,0,0,0,0,0,0,0,0,-1,615,1604,0,0
-602,-580,0,0,0,0,0,0,0,0,0,-1,622,1604,0,0
-595,-580,0,0,0,0,0,0,0,0,0,-1,629,1604,0,0
-588,-580,0,0,0,0,0,0,0,0,0,-1,636,1604,0,0
-581,-580,0,0,0,0,0,0,0,0,0,-1,643,1604,0,0
-574,-580,0,0,0,0,0,0,0,0,0,-1,650,1604,0,0
-567,-580,0,0,0,0,0,0,0,0,0,-1,657,1604,0,0
-560,-580,0,0,0,0,0,0,0,0,0,-1,664,1604,0,0
-553,-580,0,0,0,0,0,0,0,0,0,-1,671,1604,0,0
-546,-580,0,0,0,0,0,0,0,0,0,-1,678,1604,0,0
-539,-580,0,0,0,0,0,0,0,0,0,-1,685,1604,0,0
-532,-580,0,0,0,0,0,0,0,0,0,-1,692,1604,0,0
-525,-580,0,0,0,0,0,0,0,0,0,-1,699,1604,0,0
-518,-580,0,0,0,0,0,0,0,0,0,-1,706,1604,0,0
-511,-580,0,0,0,0,0,0,0,0,0,-1,713,1604,0,0
-504,-580,0,0,0,0,0,0,0,0,0,-1,720,1604,0,0
-497,-580,0,0,0,0,0,0,0,0,0,-1,727,1604,0,0
-490,-580,0,0,0,0,0,0,0,0,0,-1,734,1604,0,0
-483,-580,0,0,0,0,0,0,0,0,0,-1,741,1604,0,0
-476,-580,0,0,0,0,0,0,0,0,0,-1,748,1604,0,0
-469,-580,-1.69189,-0.38916,0,0,0,0,0,0,0,-1,755,1604,-1.69192,0.389188
-462,-580,-0.859863,0.675293,0,0,0,0,0,0,0,-1,762,1604,-0.859834,-0.675245
-455,-580,-0.730164,0.651978,0,0,0,0,0,0,0,-1,769,1604,-0.730153,-0.651957
-448,-580,-3.31891,2.07544,0,0,0,0,0,0,0,-1,776,1604,-3.3189,-2.07539
-441,-580,-1.63843,3.9469,0,0,0,0,0,0,0,-1,783,1604,-1.63842,-3.94695
-434,-580,0.23291,5.97876,0,0,0,0,0,0,0,-1,790,1604,0.232901,-5.97878
-427,-580,1.62756,8.05493,0,0,0,0,0,0,0,-1,797,1604,1.62758,-8.05488
-420,-580,1.2627,7.90198,0,0,0,0,0,0,0,-1,804,1604,1.26267,-7.90198
-413,-580,1.46924,9.10522,0,0,0,0,0,0,0,-1,811,1604,1.46921,-9.10524
-406,-580,1.53748,9.37378,0.00291906,0.00144174,0.00550478,0.00773451,-0.00337371,0.718704,0.006576,0.0401084,818,1604,1.5375,-9.37378
-399,-580,1.49139,9.6167,0.00153131,-0.00104791,0.00343589,0.00391163,-0.00342823,0.605866,0.00424073,0.017144,825,1604,1.49139,-9.61673
-392,-580,1.49603,9.86682,0.000593619,-0.00273583,0.00205542,0.0015739,-0.00371611,0.445018,0.00313655,0.0113305,832,1604,1.49604,-9.86687
-385,-580,1.49933,10.0967,-4.05484e-05,-0.00395706,0.000939887,0.000173327,-0.00417094,0.223744,0.00284016,0.011482,839,1604,1.49931,-10.0967
-378,-580,1.48138,10.3479,-0.000241632,-0.00407124,0.000366226,-0.000206924,-0.00410595,0.094489,0.002671,0.0146834,846,1604,1.4814,-10.3479
-371,-580,1.48901,10.6036,-0.00020786,-0.00386608,-2.45873e-05,-0.000207694,-0.00386625,-0.00672071,0.00251113,0.0133341,853,1604,1.48903,-10.6036
-364,-580,1.46814,10.8243,-6.93467e-05,-0.00346386,-0.000247836,-5.13474e-05,-0.00348186,-0.0724984,0.00230431,0.0178269,860,1604,1.46814,-10.8244
-357,-580,1.47418,11.0476,0.000329553,-0.00233759,-2.42975e-05,0.000329774,-0.00233781,-0.00910895,0.00167929,0.0133769,867,1604,1.47415,-11.0476
-350,-580,1.50739,11.3054,0.000676323,-0.00085682,0.000535653,0.000844929,-0.00102543,0.304948,0.00108152,0.010296,874,1604,1.5074,-11.3054
-343,-580,1.48486,11.5182,0.00112762,0.000586589,0.00105432,0.00194557,-0.000231363,0.659817,0.00138065,0.0111863,881,1604,1.48486,-11.5182
-336,-580,1.45685,11.7177,0.00146691,0.00198512,0.00153338,0.00328113,0.000170904,0.869095,0.00213273,0.0198783,888,1604,1.45683,-11.7177
-329,-580,1.48401,11.9697,0.0017275,0.00359896,0.00222523,0.0050772,0.000249264,0.984428,0.00330485,0.0164429,895,1604,1.484,-11.9697
-322,-580,1.50183,12.2048,0.00190469,0.00520105,0.002987,0.00696442,0.000141325,1.0375,0.00459656,0.0169842,902,1604,1.50182,-12.2048
-315,-580,1.5097,12.4009,0.00187745,0.00646532,0.00364047,0.00847431,-0.000131541,1.06653,0.0056939,0.0146125,909,1604,1.5097,-12.4008
-308,-580,1.53723,12.6587,0.00167422,0.00729299,0.00403249,0.00939824,-0.000431021,1.08965,0.006414,0.0178154,916,1604,1.53722,-12.6587
-301,-580,1.57758,12.8315,0.00135085,0.00761275,0.00428634,0.00978987,-0.00082627,1.10083,0.00681871,0.016729,923,1604,1.57758,-12.8315
-294,-580,1.5799,13.0054,0.000923383,0.00676402,0.00400729,0.00880219,-0.00111479,1.10028,0.00627283,0.0208688,930,1604,1.57989,-13.0054
-287,-580,1.54712,13.1274,0.000569523,0.0055631,0.00360306,0.00744992,-0.00131729,1.08839,0.00545895,0.0431931,937,1604,1.54714,-13.1274
-280,-580,1.47961,13.2367,0,0,0,0,0,0,0,-1,944,1604,1.47964,-13.2367
-273,-580,1.47845,11.7954,0,0,0,0,0,0,0,-1,951,1604,1.47845,-11.7954
-266,-580,0.494202,8.78955,0,0,0,0,0,0,0,-1,958,1604,0.494174,-8.78958
-259,-580,1.31091,9.11536,0,0,0,0,0,0,0,-1,965,1604,1.31092,-9.11539
-252,-580,1.07629,7.74097,0,0,0,0,0,0,0,-1,972,1604,1.07627,-7.74101
-245,-580,3.80304,9.16028,0,0,0,0,0,0,0,-1,979,1604,3.80306,-9.16034
-238,-580,-10.3588,1.57556,0,0,0,0,0,0,0,-1,986,1604,-10.3588,-1.5755
-231,-580,-10.576,6.43787,0,0,0,0,0,0,0,-1,993,1604,-10.576,-6.43783
-224,-580,-8.27435,7.58972,0,0,0,0,0,0,0,-1,1000,1604,-8.27435,-7.5897
-217,-580,-5.85632,9.51221,0,0,0,0,0,0,0,-1,1007,1604,-5.85632,-9.5122
-210,-580,-3.6684,11.1569,0,0,0,0,0,0,0,-1,1014,1604,-3.66839,-11.1569
-203,-580,-1.92474,12.7845,0,0,0,0,0,0,0,-1,1021,1604,-1.92477,-12.7845
-196,-580,-2.28552,10.3289,0,0,0,0,0,0,0,-1,1028,1604,-2.28552,-10.3288
-189,-580,-4.58252,7.59058,0,0,0,0,0,0,0,-1,1035,1604,-4.58256,-7.59057
-182,-580,-5.45874,7.65942,0,0,0,0,0,0,0,-1,1042,1604,-5.45876,-7.65939
-175,-580,-6.38977,7.55005,0,0,0,0,0,0,0,-1,1049,1604,-6.38981,-7.5501
-168,-580,0,0,0,0,0,0,0,0,0,-1,1056,1604,0,0
-161,-580,0,0,0,0,0,0,0,0,0,-1,1063,1604,0,0
-154,-580,0,0,0,0,0,0,0,0,0,-1,1070,1604,0,0
-147,-580,0,0,0,0,0,0,0,0,0,-1,1077,1604,0,0
-140,-580,0,0,0,0,0,0,0,0,0,-1,1084,1604,0,0
-133,-580,0,0,0,0,0,0,0,0,0,-1,1091,1604,0,0
-126,-580,0,0,0,0,0,0,0,0,0,-1,1098,1604,0,0
-119,-580,0,0,0,0,0,0,0,0,0,-1,1105,1604,0,0
-112,-580,0,0,0,0,0,0,0,0,0,-1,1112,1604,0,0
-105,-580,0,0,0,0,0,0,0,0,0,-1,1119,1604,0,0
-98,-580,0,0,0,0,0,0,0,0,0,-1,1126,1604,0,0
-91,-580,0,0,0,0,0,0,0,0,0,-1,1133,1604,0,0
-84,-580,0,0,0,0,0,0,0,0,0,-1,1140,1604,0,0
-77,-580,0,0,0,0,0,0,0,0,0,-1,1147,1604,0,0
-70,-580,0,0,0,0,0,0,0,0,0,-1,1154,1604,0,0
-63,-580,0,0,0,0,0,0,0,0,0,-1,1161,1604,0,0
-56,-580,0,0,0,0,0,0,0,0,0,-1,1168,1604,0,0
-49,-580,0,0,0,0,0,0,0,0,0,-1,1175,1604,0,0
-42,-580,0,0,0,0,0,0,0,0,0,-1,1182,1604,0,0
-35,-580,0,0,0,0,0,0,0,0,0,-1,1189,1604,0,0
-28,-580,0,0,0,0,0,0,0,0,0,-1,1196,1604,0,0
-21,-580,0,0,0,0,0,0,0,0,0,-1,1203,1604,0,0
-14,-580,0,0,0,0,0,0,0,0,0,-1,1210,1604,0,0
-7,-580,0,0,0,0,0,0,0,0,0,-1,1217,1604,0,0
0,-580,0,0,0,0,0,0,0,0,0,-1,1224,1604,0,0
7,-580,0,0,0,0,0,0,0,0,0,-1,1231,1604,0,0
14,-580,0,0,0,0,0,0,0,0,0,-1,1238,1604,0,0
21,-580,0,0,0,0,0,0,0,0,0,-1,1245,1604,0,0
28,-580,0,0,0,0,0,0,0,0,0,-1,1252,1604,0,0
35,-580,0,0,0,0,0,0,0,0,0,-1,1259,1604,0,0
42,-580,0,0,0,0,0,0,0,0,0,-1,1266,1604,0,0
49,-580,0,0,0,0,0,0,0,0,0,-1,1273,1604,0,0
56,-580,0,0,0,0,0,0,0,0,0,-1,1280,1604,0,0
63,-580,0,0,0,0,0,0,0,0,0,-1,1287,1604,0,0
70,-580,0,0,0,0,0,0,0,0,0,-1,1294,1604,0,0
77,-580,0,0,0,0,0,0,0,0,0,-1,1301,1604,0,0
84,-580,0,0,0,0,0,0,0,0,0,-1,1308,1604,0,0
91,-580,0,0,0,0,0,0,0,0,0,-1,1315,1604,0,0
98,-580,0,0,0,0,0,0,0,0,0,-1,1322,1604,0,0
105,-580,0,0,0,0,0,0,0,0,0,-1,1329,1604,0,0
112,-580,0,0,0,0,0,0,0,0,0,-1,1336,1604,0,0
119,-580,0,0,0,0,0,0,0,0,0,-1,1343,1604,0,0
126,-580,0,0,0,0,0,0,0,0,0,-1,1350,1604,0,0
133,-580,0,0,0,0,0,0,0,0,0,-1,1357,1604,0,0
140,-580,0,0,0,0,0,0,0,0,0,-1,1364,1604,0,0
147,-580,0,0,0,0,0,0,0,0,0,-1,1371,1604,0,0
154,-580,0,0,0,0,0,0,0,0,0,-1,1378,1604,0,0
161,-580,0,0,0,0,0,0,0,0,0,-1,1385,1604,0,0
168,-580,0,0,0,0,0,0,0,0,0,-1,1392,1604,0,0
175,-580,0,0,0,0,0,0,0,0,0,-1,1399,1604,0,0
182,-580,0,0,0,0,0,0,0,0,0,-1,1406,1604,0,0
189,-580,0,0,0,0,0,0,0,0,0,-1,1413,1604,0,0
196,-580,0,0,0,0,0,0,0,0,0,-1,1420,1604,0,0
203,-580,0,0,0,0,0,0,0,0,0,-1,1427,1604,0,0
210,-580,0,0,0,0,0,0,0,0,0,-1,1434,1604,0,0
217,-580,0,0,0,0,0,0,0,0,0,-1,1441,1604,0,0
224,-580,0,0,0,0,0,0,0,0,0,-1,1448,1604,0,0
231,-580,0,0,0,0,0,0,0,0,0,-1,1455,1604,0,0
238,-580,0,0,0,0,0,0,0,0,0,-1,1462,1604,0,0
245,-580,0,0,0,0,0,0,0,0,0,-1,1469,1604,0,0
252,-580,0,0,0,0,0,0,0,0,0,-1,1476,1604,0,0
259,-580,0,0,0,0,0,0,0,0,0,-1,1483,1604,0,0
266,-580,0,0,0,0,0,0,0,0,0,-1,1490,1604,0,0
273,-580,0,0,0,0,0,0,0,0,0,-1,1497,1604,0,0
280,-580,0,0,0,0,0,0,0,0,0,-1,1504,1604,0,0
287,-580,0,0,0,0,0,0,0,0,0,-1,1511,1604,0,0
294,-580,4.0437,0.177368,0,0,0,0,0,0,0,-1,1518,1604,4.04369,-0.177371
301,-580,7.55164,8.05798,0,0,0,0,0,0,0,-1,1525,1604,7.55158,-8.05802
308,-580,5.9126,9.99341,0,0,0,0,0,0,0,-1,1532,1604,5.91255,-9.99337
315,-580,4.27356,11.9287,0,0,0,0,0,0,0,-1,1539,1604,4.27352,-11.9287
322,-580,10.2366,7.50281,0,0,0,0,0,0,0,-1,1546,1604,10.2366,-7.50282
329,-580,10.5962,8.69641,0,0,0,0,0,0,0,-1,1553,1604,10.5962,-8.69642
336,-580,3.66431,1.58862,0,0,0,0,0,0,0,-1,1560,1604,3.6643,-1.58864
343,-580,3.32227,1.39636,0,0,0,0,0,0,0,-1,1567,1604,3.32222,-1.39633
350,-580,8.71277,4.0564,0,0,0,0,0,0,0,-1,1574,1604,8.71271,-4.05638
357,-580,8.52332,3.08154,0,0,0,0,0,0,0,-1,1581,1604,8.52332,-3.08157
364,-580,8.25818,2.07605,0,0,0,0,0,0,0,-1,1588,1604,8.25812,-2.07608
371,-580,7.42114,7.14282,0,0,0,0,0,0,0,-1,1595,1604,7.42119,-7.14281
378,-580,7.9718,6.6731,0,0,0,0,0,0,0,-1,1602,1604,7.9718,-6.67307
385,-580,8.52246,6.20337,0,0,0,0,0,0,0,-1,1609,1604,8.52241,-6.20334
392,-580,6.5498,-2.15625,0,0,0,0,0,0,0,-1,1616,1604,6.54984,2.15626
399,-580,6.52625,10.7247,0,0,0,0,0,0,0,-1,1623,1604,6.52628,-10.7248
406,-580,8.35559,13.8479,0,0,0,0,0,0,0,-1,1630,1604,8.35563,-13.8479
413,-580,8.81897,13.8719,0,0,0,0,0,0,0,-1,1637,1604,8.81893,-13.8719
420,-580,8.69092,13.9269,-0.00707977,-0.0238008,0.0175576,0.00400621,-0.0348868,0.563194,0.0247018,0.0436693,1644,1604,8.69093,-13.9269
427,-580,8.54626,13.8336,-0.00614106,-0.0213633,0.0157825,0.00376967,-0.031274,0.560724,0.0222128,0.0400319,1651,1604,8.54623,-13.8336
434,-580,8.17224,13.6584,-0.00536283,-0.0187305,0.0137927,0.00328023,-0.0273735,0.559776,0.0194349,0.0258345,1658,1604,8.17229,-13.6585
441,-580,8.09607,13.5898,-0.00453547,-0.0164247,0.0118563,0.00278301,-0.0237432,0.553018,0.0168333,0.0115703,1665,1604,8.09604,-13.5898
448,-580,8.11523,13.4227,-0.00367522,-0.0141343,0.010053,0.00242712,-0.0202366,0.545562,0.0143686,0.0105352,1672,1604,8.11527,-13.4227
455,-580,8.15259,13.2245,-0.00304843,-0.0119779,0.00841264,0.00201082,-0.0170372,0.541438,0.0120843,0.0169091,1679,1604,8.15256,-13.2244
462,-580,8.10754,13.0083,-0.00245129,-0.00990908,0.00689556,0.00165904,-0.0140194,0.537534,0.00994552,0.0222825,1686,1604,8.10751,-13.0083
469,-580,8.10999,12.8125,-0.00195304,-0.008082,0.00549609,0.00127518,-0.0113102,0.531078,0.00799915,0.0197896,1693,1604,8.10998,-12.8125
476,-580,8.1571,12.6117,-0.00149375,-0.00634932,0.00408471,0.000830195,-0.00867327,0.517267,0.00607784,0.0146737,1700,1604,8.15707,-12.6117
483,-580,8.13306,12.4098,-0.000912742,-0.00476849,0.00291385,0.000653262,-0.0063345,0.493146,0.00445674,0.0129549,1707,1604,8.13307,-12.4098
490,-580,8.08374,12.218,-5.58581e-05,-0.00345776,0.00177261,0.000699891,-0.00421351,0.403013,0.00306902,0.0147761,1714,1604,8.08375,-12.2181
497,-580,8.08386,12.0063,0.00087784,-0.00258501,0.000583031,0.000973368,-0.00268054,0.162404,0.00218499,0.0114317,1721,1604,8.08385,-12.0064
504,-580,8.10925,11.7883,0.00174611,-0.00179905,-0.000321868,0.0017751,-0.00182804,-0.0898122,0.00208035,0.0149825,1728,1604,8.10922,-11.7884
511,-580,8.13074,11.5864,0.00285347,-0.00137461,-0.0012404,0.0031905,-0.00171165,-0.265307,0.00287287,0.0161765,1735,1604,8.13068,-11.5864
518,-580,8.13562,11.3652,0.0041329,-0.00132224,-0.00203227,0.00480676,-0.0019961,-0.320175,0.00403783,0.0153674,1742,1604,8.13565,-11.3652
525,-580,8.08618,11.1071,0.00557014,-0.00166475,-0.00263309,0.00642697,-0.00252158,-0.314599,0.00532793,0.0168195,1749,1604,8.08622,-11.107
532,-580,8.09961,10.8861,0.00696932,-0.00216925,-0.00291749,0.0078213,-0.00302124,-0.284125,0.00646119,0.0200333,1756,1604,8.09958,-10.8861
539,-580,8.16736,10.7864,0.00875245,-0.00284589,-0.00327954,0.00961555,-0.00370899,-0.25734,0.00794087,0.0268729,1763,1604,8.16735,-10.7864
546,-580,8.62476,10.6323,0.0118793,-0.00392745,-0.00418341,0.0129182,-0.00496635,-0.243413,0.0106604,0.0421759,1770,1604,8.62479,-10.6323
553,-580,9.17285,10.3479,0,0,0,0,0,0,0,-1,1777,1604,9.17285,-10.3479
560,-580,7.09021,6.49438,0,0,0,0,0,0,0,-1,1784,1604,7.09016,-6.4944
567,-580,3.87708,4.0647,0,0,0,0,0,0,0,-1,1791,1604,3.87711,-4.06471
574,-580,2.31653,5.62952,0,0,0,0,0,0,0,-1,1798,1604,2.31654,-5.62947
581,-580,1.60876,6.67664,0,0,0,0,0,0,0,-1,1805,1604,1.60873,-6.67667
588,-580,1.38684,7.14441,0,0,0,0,0,0,0,-1,1812,1604,1.38689,-7.14443
595,-580,0,0,0,0,0,0,0,0,0,-1,1819,1604,0,0
602,-580,0,0,0,0,0,0,0,0,0,-1,1826,1604,0,0
609,-580,0,0,0,0,0,0,0,0,0,-1,1833,1604,0,0
616,-580,0,0,0,0,0,0,0,0,0,-1,1840,1604,0,0
623,-580,0,0,0,0,0,0,0,0,0,-1,1847,1604,0,0
630,-580,0,0,0,0,0,0,0,0,0,-1,1854,1604,0,0
637,-580,0,0,0,0,0,0,0,0,0,-1,1861,1604,0,0
644,-580,0,0,0,0,0,0,0,0,0,-1,1868,1604,0,0
651,-580,0,0,0,0,0,0,0,0,0,-1,1875,1604,0,0
658,-580,0,0,0,0,0,0,0,0,0,-1,1882,1604,0,0
665,-580,0,0,0,0,0,0,0,0,0,-1,1889,1604,0,0
672,-580,0,0,0,0,0,0,0,0,0,-1,1896,1604,0,0
679,-580,0,0,0,0,0,0,0,0,0,-1,1903,1604,0,0
686,-580,0,0,0,0,0,0,0,0,0,-1,1910,1604,0,0
693,-580,0,0,0,0,0,0,0,0,0,-1,1917,1604,0,0
700,-580,0,0,0,0,0,0,0,0,0,-1,1924,1604,0,0
707,-580,0,0,0,0,0,0,0,0,0,-1,1931,1604,0,0
714,-580,0,0,0,0,0,0,0,0,0,-1,1938,1604,0,0
721,-580,0,0,0,0,0,0,0,0,0,-1,1945,1604,0,0
728,-580,0,0,0,0,0,0,0,0,0,-1,1952,1604,0,0
735,-580,0,0,0,0,0,0,0,0,0,-1,1959,1604,0,0
742,-580,0,0,0,0,0,0,0,0,0,-1,1966,1604,0,0
749,-580,0,0,0,0,0,0,0,0,0,-1,1973,1604,0,0
756,-580,0,0,0,0,0,0,0,0,0,-1,1980,1604,0,0
763,-580,0,0,0,0,0,0,0,0,0,-1,1987,1604,0,0
770,-580,0,0,0,0,0,0,0,0,0,-1,1994,1604,0,0
777,-580,0,0,0,0,0,0,0,0,0,-1,2001,1604,0,0
784,-580,0,0,0,0,0,0,0,0,0,-1,2008,1604,0,0
791,-580,0,0,0,0,0,0,0,0,0,-1,2015,1604,0,0
798,-580,0,0,0,0,0,0,0,0,0,-1,2022,1604,0,0
805,-580,0,0,0,0,0,0,0,0,0,-1,2029,1604,0,0
812,-580,0,0,0,0,0,0,0,0,0,-1,2036,1604,0,0
-700,-587,0,0,0,0,0,0,0,0,0,-1,524,1611,0,0
-693,-587,0,0,0,0,0,0,0,0,0,-1,531,1611,0,0
-686,-587,0,0,0,0,0,0,0,0,0,-1,538,1611,0,0
-679,-587,0,0,0,0,0,0,0,0,0,-1,545,1611,0,0
-672,-587,0,0,0,0,0,0,0,0,0,-1,552,1611,0,0
-665,-587,0,0,0,0,0,0,0,0,0,-1,559,1611,0,0
-658,-587,0,0,0,0,0,0,0,0,0,-1,566,1611,0,0
-651,-587,0,0,0,0,0,0,0,0,0,-1,573,1611,0,0
-644,-587,0,0,0,0,0,0,0,0,0,-1,580,1611,0,0
-637,-587,0,0,0,0,0,0,0,0,0,-1,587,1611,0,0
-630,-587,0,0,0,0,0,0,0,0,0,-1,594,1611,0,0
-623,-587,0,0,0,0,0,0,0,0,0,-1,601,1611,0,0
-616,-587,0,0,0,0,0,0,0,0,0,-1,608,1611,0,0
-609,-587,0,0,0,0,0,0,0,0,0,-1,615,1611,0,0
-602,-587,0,0,0,0,0,0,0,0,0,-1,622,1611,0,0
-595,-587,0,0,0,0,0,0,0,0,0,-1,629,1611,0,0
-588,-587,0,0,0,0,0,0,0,0,0,-1,636,1611,0,0
-581,-587,0,0,0,0,0,0,0,0,0,-1,643,1611,0,0
-574,-587,0,0,0,0,0,0,0,0,0,-1,650,1611,0,0
-567,-587,0,0,0,0,0,0,0,0,0,-1,657,1611,0,0
-560,-587,0,0,0,0,0,0,0,0,0,-1,664,1611,0,0
-553,-587,0,0,0,0,0,0,0,0,0,-1,671,1611,0,0
-546,-587,0,0,0,0,0,0,0,0,0,-1,678,1611,0,0
-539,-587,0,0,0,0,0,0,0,0,0,-1,685,1611,0,0
-532,-587,0,0,0,0,0,0,0,0,0,-1,692,1611,0,0
-525,-587,0,0,0,0,0,0,0,0,0,-1,699,1611,0,0
-518,-587,0,0,0,0,0,0,0,0,0,-1,706,1611,0,0
-511,-587,0,0,0,0,0,0,0,0,0,-1,713,1611,0,0
-504,-587,0,0,0,0,0,0,0,0,0,-1,720,1611,0,0
-497,-587,0,0,0,0,0,0,0,0,0,-1,727,1611,0,0
-490,-587,0,0,0,0,0,0,0,0,0,-1,734,1611,0,0
-483,-587,0,0,0,0,0,0,0,0,0,-1,741,1611,0,0
-476,-587,0,0,0,0,0,0,0,0,0,-1,748,1611,0,0
-469,-587,0,0,0,0,0,0,0,0,0,-1,755,1611,0,0
-462,-587,-0.714355,-0.418457,0,0,0,0,0,0,0,-1,762,1611,-0.714359,0.418483
-455,-587,-0.619812,-0.522461,0,0,0,0,0,0,0,-1,769,1611,-0.619802,0.522515
-448,-587,-0.461731,-0.686523,0,0,0,0,0,0,0,-1,776,1611,-0.461739,0.686559
-441,-587,-3.56555,2.72253,0,0,0,0,0,0,0,-1,783,1611,-3.56555,-2.72259
-434,-587,-1.77319,4.76318,0,0,0,0,0,0,0,-1,790,1611,-1.77318,-4.76323
-427,-587,0.0346069,6.92944,0,0,0,0,0,0,0,-1,797,1611,0.034587,-6.92941
-420,-587,-0.647156,10.1157,0,0,0,0,0,0,0,-1,804,1611,-0.647128,-10.1158
-413,-587,2.0481,8.28052,0,0,0,0,0,0,0,-1,811,1611,2.0481,-8.28049
-406,-587,1.85388,9.35254,0,0,0,0,0,0,0,-1,818,1611,1.85385,-9.35252
-399,-587,1.88098,9.56775,0.0039108,-0.0049854,0.00382143,0.0053269,-0.00640151,0.354881,0.00678087,0.0362848,825,1611,1.88097,-9.56774
-392,-587,1.78534,9.8125,0.0022456,-0.00639942,0.00225082,0.00279652,-0.00695033,0.240043,0.00579518,0.0245248,832,1611,1.78533,-9.81244
-385,-587,1.71576,10.0812,0.00108323,-0.00723801,0.00104076,0.00121143,-0.00736621,0.122558,0.00536044,0.0143671,839,1611,1.71579,-10.0812
-378,-587,1.68622,10.3508,0.000488906,-0.00698284,0.000414668,0.00051185,-0.00700579,0.0552719,0.00485015,0.0132205,846,1611,1.68624,-10.3508
-371,-587,1.70203,10.6326,0.000241057,-0.00641657,9.30174e-07,0.000241057,-0.00641657,0.000139716,0.00436029,0.0143448,853,1611,1.70204,-10.6326
-364,-587,1.72913,10.8489,0.000103373,-0.00573194,-0.000275614,0.000116362,-0.00574493,-0.0470923,0.00386932,0.0174906,860,1611,1.72914,-10.8488
-357,-587,1.72577,11.0525,0.000257329,-0.00445061,-0.000168131,0.000263326,-0.0044566,-0.0356517,0.00306262,0.016835,867,1611,1.72578,-11.0525
-350,-587,1.70905,11.2798,0.000453952,-0.00293444,0.000183967,0.000463911,-0.0029444,0.0540812,0.00213444,0.00973431,874,1611,1.70905,-11.2798
-343,-587,1.67896,11.5204,0.00062956,-0.00147775,0.000535319,0.000757749,-0.00160594,0.235037,0.00139366,0.0122379,881,1611,1.67893,-11.5203
-336,-587,1.67859,11.7401,0.000777913,-0.000162182,0.000820344,0.00125333,-0.000637602,0.525237,0.00111086,0.0118736,888,1611,1.67857,-11.7401
-329,-587,1.69446,11.9572,0.000775294,0.00129289,0.00123379,0.00229473,-0.000226546,0.888779,0.00161066,0.0128827,895,1611,1.69445,-11.9571
-322,-587,1.71417,12.1871,0.000720108,0.00265675,0.00169245,0.00363831,-0.000261448,1.04524,0.00251722,0.0157966,902,1611,1.71416,-12.1872
-315,-587,1.71216,12.392,0.000447166,0.00359106,0.00201748,0.0045767,-0.000538474,1.11635,0.00324555,0.0135385,909,1611,1.71217,-12.3919
-308,-587,1.69958,12.6169,1.89218e-05,0.0040511,0.00205243,0.004912,-0.000841981,1.17363,0.00358841,0.0140904,916,1611,1.69957,-12.617
-301,-587,1.72168,12.8334,-0.00050257,0.00399408,0.00193012,0.00470891,-0.0012174,1.2161,0.00361408,0.0126363,923,1611,1.72167,-12.8333
-294,-587,1.77271,13.0414,-0.00102016,0.00291464,0.00139073,0.00335655,-0.00146207,1.26313,0.0028528,0.0130565,930,1611,1.77273,-13.0414
-287,-587,1.79773,13.2615,-0.00141296,0.00160956,0.000775315,0.00179683,-0.00160024,1.33379,0.00196239,0.0245292,937,1611,1.79772,-13.2614
-280,-587,1.74097,13.4377,0.00425616,8.5306e-05,0.00343942,0.006193,-0.00185154,0.512868,0.00486475,0.0385382,944,1611,1.74095,-13.4378
-273,-587,1.7019,13.6333,0,0,0,0,0,0,0,-1,951,1611,1.7019,-13.6332
-266,-587,1.45746,13.5017,0,0,0,0,0,0,0,-1,958,1611,1.45749,-13.5017
-259,-587,1.34283,13.493,0,0,0,0,0,0,0,-1,965,1611,1.34282,-13.493
-252,-587,1.30188,10.3103,0,0,0,0,0,0,0,-1,972,1611,1.30188,-10.3104
-245,-587,2.97797,12.0387,0,0,0,0,0,0,0,-1,979,1611,2.97798,-12.0387
-238,-587,2.87799,9.53821,0,0,0,0,0,0,0,-1,986,1611,2.87797,-9.53823
-231,-587,2.49548,9.14465,0,0,0,0,0,0,0,-1,993,1611,2.49551,-9.14468
-224,-587,-9.72528,9.21069,0,0,0,0,0,0,0,-1,1000,1611,-9.72529,-9.21072
-217,-587,-7.07495,10.7847,0,0,0,0,0,0,0,-1,1007,1611,-7.07495,-10.7847
-210,-587,-4.72308,12.5889,0,0,0,0,0,0,0,-1,1014,1611,-4.72307,-12.5888
-203,-587,-3.2583,13.7289,0,0,0,0,0,0,0,-1,1021,1611,-3.25828,-13.7289
-196,-587,-1.953,14.8145,0,0,0,0,0,0,0,-1,1028,1611,-1.95302,-14.8144
-189,-587,-3.04138,8.66638,0,0,0,0,0,0,0,-1,1035,1611,-3.04136,-8.66635
-182,-587,-3.97095,9.7146,0,0,0,0,0,0,0,-1,1042,1611,-3.97093,-9.71461
-175,-587,-4.80969,8.37878,0,0,0,0,0,0,0,-1,1049,1611,-4.80964,-8.37883
-168,-587,-5.91394,8.72546,0,0,0,0,0,0,0,-1,1056,1611,-5.91398,-8.72542
-161,-587,-7.06946,8.88501,0,0,0,0,0,0,0,-1,1063,1611,-7.06947,-8.885
-154,-587,-2.24731,6.56519,0,0,0,0,0,0,0,-1,1070,1611,-2.24728,-6.56517
-147,-587,0,0,0,0,0,0,0,0,0,-1,1077,1611,0,0
-140,-587,0,0,0,0,0,0,0,0,0,-1,1084,1611,0,0
-133,-587,0,0,0,0,0,0,0,0,0,-1,1091,1611,0,0
-126,-587,0,0,0,0,0,0,0,0,0,-1,1098,1611,0,0
-119,-587,0,0,0,0,0,0,0,0,0,-1,1105,1611,0,0
-112,-587,0,0,0,0,0,0,0,0,0,-1,1112,1611,0,0
-105,-587,0,0,0,0,0,0,0,0,0,-1,1119,1611,0,0
-98,-587,0,0,0,0,0,0,0,0,0,-1,1126,1611,0,0
-91,-587,0,0,0,0,0,0,0,0,0,-1,1133,1611,0,0
-84,-587,0,0,0,0,0,0,0,0,0,-1,1140,1611,0,0
-77,-587,0,0,0,0,0,0,0,0,0,-1,1147,1611,0,0
-70,-587,0,0,0,0,0,0,0,0,0,-1,1154,1611,0,0
-63,-587,0,0,0,0,0,0,0,0,0,-1,1161,1611,0,0
-56,-587,0,0,0,0,0,0,0,0,0,-1,1168,1611,0,0
-49,-587,0,0,0,0,0,0,0,0,0,-1,1175,1611,0,0
-42,-587,0,0,0,0,0,0,0,0,0,-1,1182,1611,0,0
-35,-587,0,0,0,0,0,0,0,0,0,-1,1189,1611,0,0
-28,-587,0,0,0,0,0,0,0,0,0,-1,1196,1611,0,0
-21,-587,0,0,0,0,0,0,0,0,0,-1,1203,1611,0,0
-14,-587,0,0,0,0,0,0,0,0,0,-1,1210,1611,0,0
-7,-587,0,0,0,0,0,0,0,0,0,-1,1217,1611,0,0
0,-587,0,0,0,0,0,0,0,0,0,-1,1224,1611,0,0
7,-587,0,0,0,0,0,0,0,0,0,-1,1231,1611,0,0
14,-587,0,0,0,0,0,0,0,0,0,-1,1238,1611,0,0
21,-587,0,0,0,0,0,0,0,0,0,-1,1245,1611,0,0
28,-587,0,0,0,0,0,0,0,0,0,-1,1252,1611,0,0
35,-587,0,0,0,0,0,0,0,0,0,-1,1259,1611,0,0
42,-587,0,0,0,0,0,0,0,0,0,-1,1266,1611,0,0
49,-587,0,0,0,0,0,0,0,0,0,-1,1273,1611,0,0
56,-587,0,0,0,0,0,0,0,0,0,-1,1280,1611,0,0
63,-587,0,0,0,0,0,0,0,0,0,-1,1287,1611,0,0
70,-587,0,0,0,0,0,0,0,0,0,-1,1294,1611,0,0
77,-587,0,0,0,0,0,0,0,0,0,-1,1301,1611,0,0
84,-587,0,0,0,0,0,0,0,0,0,-1,1308,1611,0,0
91,-587,0,0,0,0,0,0,0,0,0,-1,1315,1611,0,0
98,-587,0,0,0,0,0,0,0,0,0,-1,1322,1611,0,0
105,-587,0,0,0,0,0,0,0,0,0,-1,1329,1611,0,0
112,-587,0,0,0,0,0,0,0,0,0,-1,1336,1611,0,0
119,-587,0,0,0,0,0,0,0,0,0,-1,1343,1611,0,0
126,-587,0,0,0,0,0,0,0,0,0,-1,1350,1611,0,0
133,-587,0,0,0,0,0,0,0,0,0,-1,1357,1611,0,0
140,-587,0,0,0,0,0,0,0,0,0,-1,1364,1611,0,0
147,-587,0,0,0,0,0,0,0,0,0,-1,1371,1611,0,0
154,-587,0,0,0,0,0,0,0,0,0,-1,1378,1611,0,0
161,-587,0,0,0,0,0,0,0,0,0,-1,1385,1611,0,0
168,-587,0,0,0,0,0,0,0,0,0,-1,1392,1611,0,0
175,-587,0,0,0,0,0,0,0,0,0,-1,1399,1611,0,0
182,-587,0,0,0,0,0,0,0,0,0,-1,1406,1611,0,0
189,-587,0,0,0,0,0,0,0,0,0,-1,1413,1611,0,0
196,-587,0,0,0,0,0,0,0,0,0,-1,1420,1611,0,0
203,-587,0,0,0,0,0,0,0,0,0,-1,1427,1611,0,0
210,-587,0,0,0,0,0,0,0,0,0,-1,1434,1611,0,0
217,-587,0,0,0,0,0,0,0,0,0,-1,1441,1611,0,0
224,-587,0,0,0,0,0,0,0,0,0,-1,1448,1611,0,0
231,-587,0,0,0,0,0,0,0,0,0,-1,1455,1611,0,0
238,-587,0,0,0,0,0,0,0,0,0,-1,1462,1611,0,0
245,-587,0,0,0,0,0,0,0,0,0,-1,1469,1611,0,0
252,-587,0,0,0,0,0,0,0,0,0,-1,1476,1611,0,0
259,-587,0,0,0,0,0,0,0,0,0,-1,1483,1611,0,0
266,-587,0,0,0,0,0,0,0,0,0,-1,1490,1611,0,0
273,-587,10.2936,6.35083,0,0,0,0,0,0,0,-1,1497,1611,10.2936,-6.35087
280,-587,2.09204,1.1217,0,0,0,0,0,0,0,-1,1504,1611,2.092,-1.12176
287,-587,3.2865,0.671509,0,0,0,0,0,0,0,-1,1511,1611,3.28656,-0.671538
294,-587,4.24646,1.58765,0,0,0,0,0,0,0,-1,1518,1611,4.24648,-1.58761
301,-587,7.60474,8.37085,0,0,0,0,0,0,0,-1,1525,1611,7.60478,-8.37084
308,-587,5.99316,10.2291,0,0,0,0,0,0,0,-1,1532,1611,5.99315,-10.2291
315,-587,4.34558,12.3289,0,0,0,0,0,0,0,-1,1539,1611,4.34556,-12.3288
322,-587,10.4526,6.38245,0,0,0,0,0,0,0,-1,1546,1611,10.4526,-6.38245
329,-587,10.7738,8.42444,0,0,0,0,0,0,0,-1,1553,1611,10.7738,-8.42438
336,-587,7.5531,5.96619,0,0,0,0,0,0,0,-1,1560,1611,7.55311,-5.96617
343,-587,9.57495,4.38391,0,0,0,0,0,0,0,-1,1567,1611,9.57494,-4.38397
350,-587,9.50378,3.45093,0,0,0,0,0,0,0,-1,1574,1611,9.50376,-3.4509
357,-587,9.40027,2.50806,0,0,0,0,0,0,0,-1,1581,1611,9.40022,-2.50803
364,-587,9.26477,1.34131,0,0,0,0,0,0,0,-1,1588,1611,9.26479,-1.34126
371,-587,6.98926,7.87561,0,0,0,0,0,0,0,-1,1595,1611,6.98928,-7.87564
378,-587,9.25146,13.8358,0,0,0,0,0,0,0,-1,1602,1611,9.2515,-13.8359
385,-587,7.17224,7.03772,0,0,0,0,0,0,0,-1,1609,1611,7.1722,-7.03778
392,-587,5.3916,8.21436,0,0,0,0,0,0,0,-1,1616,1611,5.39157,-8.21437
399,-587,8.23083,14.1311,0,0,0,0,0,0,0,-1,1623,1611,8.23081,-14.1311
406,-587,8.16187,14.1016,-0.00792365,-0.0209092,0.0169745,0.0037575,-0.0325903,0.602733,0.0230816,0.0442601,1630,1611,8.16191,-14.1015
413,-587,8.00745,14.1378,-0.00674605,-0.0190738,0.0151182,0.00341652,-0.0292363,0.59183,0.0207238,0.0344046,1637,1611,8.00744,-14.1379
420,-587,8.02844,14.2021,-0.00567396,-0.0174114,0.0133774,0.00306545,-0.0261508,0.578688,0.0185404,0.0322676,1644,1611,8.02849,-14.2021
427,-587,8.03174,13.9989,-0.00483196,-0.0155533,0.0118506,0.00281406,-0.0231994,0.572993,0.0164845,0.026131,1651,1611,8.03169,-13.9989
434,-587,7.91528,13.8167,-0.00417771,-0.0136048,0.0102806,0.00241839,-0.0202009,0.570452,0.0143415,0.0148827,1658,1611,7.91533,-13.8166
441,-587,7.88281,13.632,-0.00343308,-0.0118289,0.00871697,0.00204414,-0.0173061,0.560997,0.0122756,0.0163686,1665,1611,7.88275,-13.6319
448,-587,7.91296,13.4039,-0.00263526,-0.0101121,0.00725452,0.00178743,-0.0145348,0.547482,0.0103373,0.0146636,1672,1611,7.91292,-13.4039
455,-587,7.93542,13.2218,-0.00203867,-0.00850509,0.0059381,0.00148939,-0.0120331,0.536099,0.00856185,0.013926,1679,1611,7.93539,-13.2218
462,-587,7.90686,13.0317,-0.00146074,-0.00696953,0.0047141,0.00124467,-0.00967494,0.521005,0.00690236,0.0186834,1686,1611,7.90684,-13.0317
469,-587,7.8916,12.8453,-0.000982642,-0.00563488,0.00356569,0.000948583,-0.00756611,0.496381,0.00538817,0.0170057,1693,1611,7.89155,-12.8454
476,-587,7.92615,12.6337,-0.000562966,-0.00435309,0.0023942,0.000595405,-0.00551146,0.450623,0.003888,0.0109357,1700,1611,7.92611,-12.6337
483,-587,7.91138,12.4087,-3.05993e-05,-0.00316221,0.00143642,0.000528457,-0.00372127,0.371163,0.00267446,0.0130229,1707,1611,7.9114,-12.4087
490,-587,7.87256,12.1971,0.000829093,-0.00226732,0.000471202,0.000899211,-0.00233743,0.147723,0.00192919,0.0155053,1714,1611,7.87253,-12.1971
497,-587,7.8645,11.9897,0.00175877,-0.00173033,-0.00056753,0.00184876,-0.00182032,-0.157259,0.00211836,0.0118239,1721,1611,7.86456,-11.9898
504,-587,7.88208,11.8003,0.00261079,-0.00133257,-0.00133372,0.00301951,-0.0017413,-0.297369,0.00278148,0.0115315,1728,1611,7.88214,-11.8003
511,-587,7.91125,11.6077,0.00375532,-0.0012719,-0.0021403,0.00454309,-0.00205967,-0.352678,0.00390095,0.0136282,1735,1611,7.91129,-11.6076
518,-587,7.93445,11.3688,0.00512171,-0.00152684,-0.00286977,0.00618906,-0.00259419,-0.356076,0.00521067,0.0138053,1742,1611,7.93439,-11.3688
525,-587,7.90417,11.1106,0.00671268,-0.00223025,-0.0034266,0.00787465,-0.00339222,-0.326934,0.00667432,0.0169283,1749,1611,7.90411,-11.1106
532,-587,7.92468,10.9127,0.00835595,-0.00303999,-0.00369897,0.00945131,-0.00413535,-0.287897,0.00804191,0.0312046,1756,1611,7.92473,-10.9128
539,-587,8.41907,11.0022,0.0104692,-0.00406897,-0.00411096,0.0115511,-0.00515091,-0.257348,0.0098761,0.042929,1763,1611,8.41901,-11.0022
546,-587,8.81836,10.6843,0,0,0,0,0,0,0,-1,1770,1611,8.81834,-10.6843
553,-587,7.5813,8.45068,0,0,0,0,0,0,0,-1,1777,1611,7.58125,-8.45068
560,-587,4.21179,5.23547,0,0,0,0,0,0,0,-1,1784,1611,4.21185,-5.23553
567,-587,4.03711,5.46387,0,0,0,0,0,0,0,-1,1791,1611,4.03715,-5.46382
574,-587,3.83142,5.68884,0,0,0,0,0,0,0,-1,1798,1611,3.83141,-5.68881
581,-587,3.47168,6.00977,0,0,0,0,0,0,0,-1,1805,1611,3.47167,-6.00983
588,-587,0,0,0,0,0,0,0,0,0,-1,1812,1611,0,0
595,-587,0,0,0,0,0,0,0,0,0,-1,1819,1611,0,0
602,-587,0,0,0,0,0,0,0,0,0,-1,1826,1611,0,0
609,-587,0,0,0,0,0,0,0,0,0,-1,1833,1611,0,0
616,-587,0,0,0,0,0,0,0,0,0,-1,1840,1611,0,0
623,-587,0,0,0,0,0,0,0,0,0,-1,1847,1611,0,0
630,-587,0,0,0,0,0,0,0,0,0,-1,1854,1611,0,0
637,-587,0,0,0,0,0,0,0,0,0,-1,1861,1611,0,0
644,-587,0,0,0,0,0,0,0,0,0,-1,1868,1611,0,0
651,-587,0,0,0,0,0,0,0,0,0,-1,1875,1611,0,0
658,-587,0,0,0,0,0,0,0,0,0,-1,1882,1611,0,0
665,-587,0,0,0,0,0,0,0,0,0,-1,1889,1611,0,0
672,-587,0,0,0,0,0,0,0,0,0,-1,1896,1611,0,0
679,-587,0,0,0,0,0,0,0,0,0,-1,1903,1611,0,0
686,-587,0,0,0,0,0,0,0,0,0,-1,1910,1611,0,0
693,-587,0,0,0,0,0,0,0,0,0,-1,1917,1611,0,0
700,-587,0,0,0,0,0,0,0,0,0,-1,1924,1611,0,0
707,-587,0,0,0,0,0,0,0,0,0,-1,1931,1611,0,0
714,-587,0,0,0,0,0,0,0,0,0,-1,1938,1611,0,0
721,-587,0,0,0,0,0,0,0,0,0,-1,1945,1611,0,0
728,-587,0,0,0,0,0,0,0,0,0,-1,1952,1611,0,0
735,-587,0,0,0,0,0,0,0,0,0,-1,1959,1611,0,0
742,-587,0,0,0,0,0,0,0,0,0,-1,1966,1611,0,0
749,-587,0,0,0,0,0,0,0,0,0,-1,1973,1611,0,0
756,-587,0,0,0,0,0,0,0,0,0,-1,1980,1611,0,0
763,-587,0,0,0,0,0,0,0,0,0,-1,1987,1611,0,0
770,-587,0,0,0,0,0,0,0,0,0,-1,1994,1611,0,0
777,-587,0,0,0,0,0,0,0,0,0,-1,2001,1611,0,0
784,-587,0,0,0,0,0,0,0,0,0,-1,2008,1611,0,0
791,-587,0,0,0,0,0,0,0,0,0,-1,2015,1611,0,0
798,-587,0,0,0,0,0,0,0,0,0,-1,2022,1611,0,0
805,-587,0,0,0,0,0,0,0,0,0,-1,2029,1611,0,0
812,-587,0,0,0,0,0,0,0,0,0,-1,2036,1611,0,0
-700,-594,0,0,0,0,0,0,0,0,0,-1,524,1618,0,0
-693,-594,0,0,0,0,0,0,0,0,0,-1,531,1618,0,0
-686,-594,0,0,0,0,0,0,0,0,0,-1,538,1618,0,0
-679,-594,0,0,0,0,0,0,0,0,0,-1,545,1618,0,0
-672,-594,0,0,0,0,0,0,0,0,0,-1,552,1618,0,0
-665,-594,0,0,0,0,0,0,0,0,0,-1,559,1618,0,0
-658,-594,0,0,0,0,0,0,0,0,0,-1,566,1618,0,0
-651,-594,0,0,0,0,0,0,0,0,0,-1,573,1618,0,0
-644,-594,0,0,0,0,0,0,0,0,0,-1,580,1618,0,0
-637,-594,0,0,0,0,0,0,0,0,0,-1,587,1618,0,0
-630,-594,0,0,0,0,0,0,0,0,0,-1,594,1618,0,0
-623,-594,0,0,0,0,0,0,0,0,0,-1,601,1618,0,0
-616,-594,0,0,0,0,0,0,0,0,0,-1,608,1618,0,0
-609,-594,0,0,0,0,0,0,0,0,0,-1,615,1618,0,0
-602,-594,0,0,0,0,0,0,0,0,0,-1,622,1618,0,0
-595,-594,0,0,0,0,0,0,0,0,0,-1,629,1618,0,0
-588,-594,0,0,0,0,0,0,0,0,0,-1,636,1618,0,0
-581,-594,0,0,0,0,0,0,0,0,0,-1,643,1618,0,0
-574,-594,0,0,0,0,0,0,0,0,0,-1,650,1618,0,0
-567,-594,0,0,0,0,0,0,0,0,0,-1,657,1618,0,0
-560,-594,0,0,0,0,0,0,0,0,0,-1,664,1618,0,0
-553,-594,0,0,0,0,0,0,0,0,0,-1,671,1618,0,0
-546,-594,0,0,0,0,0,0,0,0,0,-1,678,1618,0,0
-539,-594,0,0,0,0,0,0,0,0,0,-1,685,1618,0,0
-532,-594,0,0,0,0,0,0,0,0,0,-1,692,1618,0,0
-525,-594,0,0,0,0,0,0,0,0,0,-1,699,1618,0,0
-518,-594,0,0,0,0,0,0,0,0,0,-1,706,1618,0,0
-511,-594,0,0,0,0,0,0,0,0,0,-1,713,1618,0,0
-504,-594,0,0,0,0,0,0,0,0,0,-1,720,1618,0,0
-497,-594,0,0,0,0,0,0,0,0,0,-1,727,1618,0,0
-490,-594,0,0,0,0,0,0,0,0,0,-1,734,1618,0,0
-483,-594,0,0,0,0,0,0,0,0,0,-1,741,1618,0,0
-476,-594,0,0,0,0,0,0,0,0,0,-1,748,1618,0,0
-469,-594,0,0,0,0,0,0,0,0,0,-1,755,1618,0,0
-462,-594,0,0,0,0,0,0,0,0,0,-1,762,1618,0,0
-455,-594,-0.509216,-1.58411,0,0,0,0,0,0,0,-1,769,1618,-0.509245,1.58415
-448,-594,-7.71887,-0.0559082,0,0,0,0,0,0,0,-1,776,1618,-7.71885,0.055939
-441,-594,-5.78473,1.18298,0,0,0,0,0,0,0,-1,783,1618,-5.78474,-1.18295
-434,-594,-3.93628,3.06213,0,0,0,0,0,0,0,-1,790,1618,-3.93631,-3.06208
-427,-594,-3.97693,6.77759,0,0,0,0,0,0,0,-1,797,1618,-3.97695,-6.77764
-420,-594,-2.53046,7.71606,0,0,0,0,0,0,0,-1,804,1618,-2.53047,-7.71609
-413,-594,-0.860413,8.00391,0,0,0,0,0,0,0,-1,811,1618,-0.860423,-8.00389
-406,-594,3.18323,8.29382,0,0,0,0,0,0,0,-1,818,1618,3.18325,-8.29386
-399,-594,2.2619,9.5282,0,0,0,0,0,0,0,-1,825,1618,2.26187,-9.52821
-392,-594,2.09326,9.80664,0.00414919,-0.0115054,0.00250609,0.00454059,-0.0118968,0.15493,0.00980178,0.0416176,832,1618,2.09329,-9.80663
-385,-594,1.9953,10.1041,0.00235909,-0.0117207,0.00114445,0.0024515,-0.0118131,0.0805783,0.00880703,0.0259437,839,1618,1.99529,-10.1041
-378,-594,1.92706,10.3406,0.00129661,-0.0108285,0.00043846,0.00131245,-0.0108443,0.0360985,0.00770438,0.0112801,846,1618,1.92709,-10.3406
-371,-594,1.94531,10.6206,0.000707863,-0.00969599,-2.07949e-05,0.000707904,-0.00969603,-0.00199876,0.00671244,0.0110901,853,1618,1.94529,-10.6206
-364,-594,1.96265,10.8474,0.000332083,-0.00850193,-0.000330812,0.000344453,-0.0085143,-0.0373777,0.00579443,0.0105348,860,1618,1.96267,-10.8474
-357,-594,1.95209,11.0581,0.000323183,-0.00687275,-0.000305567,0.000336135,-0.0068857,-0.0423622,0.00470652,0.0105375,867,1618,1.9521,-11.0581
-350,-594,1.92511,11.3011,0.000427745,-0.00515833,-0.00011436,0.000430086,-0.00516067,-0.0204609,0.0035924,0.0149805,874,1618,1.9251,-11.3011
-343,-594,1.9079,11.558,0.000431715,-0.00355105,0.000124277,0.000435589,-0.00355492,0.0311634,0.00252769,0.0159906,881,1618,1.90789,-11.558
-336,-594,1.9035,11.7732,0.000501572,-0.00218204,0.000287116,0.000531947,-0.00221241,0.105399,0.00168056,0.0134953,888,1618,1.90349,-11.7732
-329,-594,1.91925,11.9879,0.000371895,-0.000740503,0.000506733,0.000568115,-0.000936723,0.369447,0.000877464,0.0130378,895,1618,1.91925,-11.9879
-322,-594,1.94556,12.2148,0.00026196,0.000522216,0.000777039,0.00117995,-0.000395772,0.868362,0.000946549,0.0144458,902,1618,1.94555,-12.2148
-315,-594,1.95526,12.4178,-6.64193e-05,0.00128758,0.000910233,0.00174497,-0.000523815,1.10515,0.00137168,0.0151869,909,1618,1.95525,-12.4179
-308,-594,1.9408,12.6385,-0.000505697,0.00158919,0.000756498,0.00183381,-0.000750316,1.25805,0.00153504,0.0148372,916,1618,1.94083,-12.6385
-301,-594,1.91748,12.822,-0.00100099,0.00137507,0.000439237,0.00145367,-0.00107958,1.39373,0.00146788,0.01162,923,1618,1.9175,-12.822
-294,-594,1.95062,13.0188,-0.00144727,0.000238799,-0.000200888,0.000262404,-0.00147087,-1.45383,0.00107874,0.0103167,930,1618,1.95061,-13.0188
-287,-594,1.9726,13.2374,-0.00172639,-0.00099344,-0.000864681,-0.000420779,-0.00229905,-0.985836,0.00141347,0.0122405,937,1618,1.97262,-13.2374
-280,-594,1.94586,13.4823,0.00151192,-0.0024554,0.00028602,0.00153243,-0.00247592,0.0716005,0.00233549,0.0164111,944,1618,1.94588,-13.4823
-273,-594,1.92322,13.6422,0.00429709,-0.00454018,0.000834254,0.00437516,-0.00461824,0.0933035,0.00519297,0.0272604,951,1618,1.92319,-13.6422
-266,-594,1.81952,13.6578,0.00895377,-0.00709378,0.00238875,0.0093018,-0.0074418,0.144677,0.00968678,0.0363377,958,1618,1.81955,-13.6579
-259,-594,1.75708,13.736,0.0160778,-0.00975417,0.00549795,0.0171993,-0.0108756,0.201219,0.0163456,0.0426343,965,1618,1.75706,-13.736
-252,-594,1.71899,13.9059,0,0,0,0,0,0,0,-1,972,1618,1.71897,-13.9059
-245,-594,2.22595,13.0929,0,0,0,0,0,0,0,-1,979,1618,2.22593,-13.0929
-238,-594,2.48499,13.0104,0,0,0,0,0,0,0,-1,986,1618,2.48501,-13.0104
-231,-594,1.93774,9.35388,0,0,0,0,0,0,0,-1,993,1618,1.93776,-9.35393
-224,-594,1.81824,8.62744,0,0,0,0,0,0,0,-1,1000,1618,1.81822,-8.62745
-217,-594,-8.24066,12.0752,0,0,0,0,0,0,0,-1,1007,1618,-8.24068,-12.0751
-210,-594,-5.61438,14.2119,0,0,0,0,0,0,0,-1,1014,1618,-5.6144,-14.212
-203,-594,-3.94507,15.5768,0,0,0,0,0,0,0,-1,1021,1618,-3.94506,-15.5768
-196,-594,2.78613,10.5815,0,0,0,0,0,0,0,-1,1028,1618,2.78612,-10.5815
-189,-594,2.60913,9.48865,0,0,0,0,0,0,0,-1,1035,1618,2.6091,-9.48871
-182,-594,1.2395,9.38806,0,0,0,0,0,0,0,-1,1042,1618,1.23951,-9.38804
-175,-594,0.234863,8.73792,0,0,0,0,0,0,0,-1,1049,1618,0.234812,-8.73786
-168,-594,-0.495483,8.46289,0,0,0,0,0,0,0,-1,1056,1618,-0.495513,-8.46285
-161,-594,-1.39734,8.28699,0,0,0,0,0,0,0,-1,1063,1618,-1.39729,-8.28699
-154,-594,-0.000854492,7.68445,0,0,0,0,0,0,0,-1,1070,1618,-0.000805755,-7.6845
-147,-594,0.348267,9.3385,0,0,0,0,0,0,0,-1,1077,1618,0.348237,-9.33849
-140,-594,0.675171,11.5884,0,0,0,0,0,0,0,-1,1084,1618,0.675204,-11.5884
-133,-594,0,0,0,0,0,0,0,0,0,-1,1091,1618,0,0
-126,-594,0,0,0,0,0,0,0,0,0,-1,1098,1618,0,0
-119,-594,0,0,0,0,0,0,0,0,0,-1,1105,1618,0,0
-112,-594,0,0,0,0,0,0,0,0,0,-1,1112,1618,0,0
-105,-594,0,0,0,0,0,0,0,0,0,-1,1119,1618,0,0
-98,-594,0,0,0,0,0,0,0,0,0,-1,1126,1618,0,0
-91,-594,0,0,0,0,0,0,0,0,0,-1,1133,1618,0,0
-84,-594,0,0,0,0,0,0,0,0,0,-1,1140,1618,0,0
-77,-594,0,0,0,0,0,0,0,0,0,-1,1147,1618,0,0
-70,-594,0,0,0,0,0,0,0,0,0,-1,1154,1618,0,0
-63,-594,0,0,0,0,0,0,0,0,0,-1,1161,1618,0,0
-56,-594,0,0,0,0,0,0,0,0,0,-1,1168,1618,0,0
-49,-594,0,0,0,0,0,0,0,0,0,-1,1175,1618,0,0
-42,-594,0,0,0,0,0,0,0,0,0,-1,1182,1618,0,0
-35,-594,0,0,0,0,0,0,0,0,0,-1,1189,1618,0,0
-28,-594,0,0,0,0,0,0,0,0,0,-1,1196,1618,0,0
-21,-594,0,0,0,0,0,0,0,0,0,-1,1203,1618,0,0
-14,-594,0,0,0,0,0,0,0,0,0,-1,1210,1618,0,0
-7,-594,0,0,0,0,0,0,0,0,0,-1,1217,1618,0,0
0,-594,0,0,0,0,0,0,0,0,0,-1,1224,1618,0,0
7,-594,0,0,0,0,0,0,0,0,0,-1,1231,1618,0,0
14,-594,0,0,0,0,0,0,0,0,0,-1,1238,1618,0,0
21,-594,0,0,0,0,0,0,0,0,0,-1,1245,1618,0,0
28,-594,0,0,0,0,0,0,0,0,0,-1,1252,1618,0,0
35,-594,0,0,0,0,0,0,0,0,0,-1,1259,1618,0,0
42,-594,0,0,0,0,0,0,0,0,0,-1,1266,1618,0,0
49,-594,0,0,0,0,0,0,0,0,0,-1,1273,1618,0,0
56,-594,0,0,0,0,0,0,0,0,0,-1,1280,1618,0,0
63,-594,0,0,0,0,0,0,0,0,0,-1,1287,1618,0,0
70,-594,0,0,0,0,0,0,0,0,0,-1,1294,1618,0,0
77,-594,0,0,0,0,0,0,0,0,0,-1,1301,1618,0,0
84,-594,0,0,0,0,0,0,0,0,0,-1,1308,1618,0,0
91,-594,0,0,0,0,0,0,0,0,0,-1,1315,1618,0,0
98,-594,0,0,0,0,0,0,0,0,0,-1,1322,1618,0,0
105,-594,0,0,0,0,0,0,0,0,0,-1,1329,1618,0,0
112,-594,0,0,0,0,0,0,0,0,0,-1,1336,1618,0,0
119,-594,0,0,0,0,0,0,0,0,0,-1,1343,1618,0,0
126,-594,0,0,0,0,0,0,0,0,0,-1,1350,1618,0,0
133,-594,0,0,0,0,0,0,0,0,0,-1,1357,1618,0,0
140,-594,0,0,0,0,0,0,0,0,0,-1,1364,1618,0,0
147,-594,0,0,0,0,0,0,0,0,0,-1,1371,1618,0,0
154,-594,0,0,0,0,0,0,0,0,0,-1,1378,1618,0,0
161,-594,0,0,0,0,0,0,0,0,0,-1,1385,1618,0,0
168,-594,0,0,0,0,0,0,0,0,0,-1,1392,1618,0,0
175,-594,0,0,0,0,0,0,0,0,0,-1,1399,1618,0,0
182,-594,0,0,0,0,0,0,0,0,0,-1,1406,1618,0,0
189,-594,0,0,0,0,0,0,0,0,0,-1,1413,1618,0,0
196,-594,0,0,0,0,0,0,0,0,0,-1,1420,1618,0,0
203,-594,0,0,0,0,0,0,0,0,0,-1,1427,1618,0,0
210,-594,0,0,0,0,0,0,0,0,0,-1,1434,1618,0,0
217,-594,0,0,0,0,0,0,0,0,0,-1,1441,1618,0,0
224,-594,0,0,0,0,0,0,0,0,0,-1,1448,1618,0,0
231,-594,0,0,0,0,0,0,0,0,0,-1,1455,1618,0,0
238,-594,0,0,0,0,0,0,0,0,0,-1,1462,1618,0,0
245,-594,0,0,0,0,0,0,0,0,0,-1,1469,1618,0,0
252,-594,3.03674,1.20996,0,0,0,0,0,0,0,-1,1476,1618,3.0368,-1.20999
259,-594,4.79834,1.53113,0,0,0,0,0,0,0,-1,1483,1618,4.79837,-1.53118
266,-594,3.71606,2.68152,0,0,0,0,0,0,0,-1,1490,1618,3.71609,-2.68149
273,-594,9.7655,6.33557,0,0,0,0,0,0,0,-1,1497,1618,9.76555,-6.33554
280,-594,3.13281,0.911255,0,0,0,0,0,0,0,-1,1504,1618,3.13277,-0.911207
287,-594,4.42749,1.51563,0,0,0,0,0,0,0,-1,1511,1618,4.42747,-1.51564
294,-594,5.36475,3.34937,0,0,0,0,0,0,0,-1,1518,1618,5.36475,-3.3494
301,-594,7.97144,9.04333,0,0,0,0,0,0,0,-1,1525,1618,7.9714,-9.04328
308,-594,6.30347,10.4633,0,0,0,0,0,0,0,-1,1532,1618,6.30351,-10.4633
315,-594,4.62012,11.934,0,0,0,0,0,0,0,-1,1539,1618,4.62006,-11.934
322,-594,2.91528,13.3134,0,0,0,0,0,0,0,-1,1546,1618,2.91523,-13.3133
329,-594,4.19861,9.77258,0,0,0,0,0,0,0,-1,1553,1618,4.19865,-9.77264
336,-594,10.1353,4.66528,0,0,0,0,0,0,0,-1,1560,1618,10.1353,-4.66533
343,-594,10.5729,3.71228,0,0,0,0,0,0,0,-1,1567,1618,10.5729,-3.71232
350,-594,10.219,2.98792,0,0,0,0,0,0,0,-1,1574,1618,10.219,-2.98797
357,-594,9.83154,1.96326,0,0,0,0,0,0,0,-1,1581,1618,9.8315,-1.96321
364,-594,9.74939,0.700562,0,0,0,0,0,0,0,-1,1588,1618,9.74939,-0.700615
371,-594,8.54297,14.3988,0,0,0,0,0,0,0,-1,1595,1618,8.54296,-14.3989
378,-594,7.9729,14.4725,0,0,0,0,0,0,0,-1,1602,1618,7.97295,-14.4725
385,-594,8.62561,13.6674,0,0,0,0,0,0,0,-1,1609,1618,8.6256,-13.6674
392,-594,7.86658,14.5721,0,0,0,0,0,0,0,-1,1616,1618,7.8666,-14.5721
399,-594,7.87964,14.4237,-0.0066247,-0.0162855,0.0142712,0.00361145,-0.0265216,0.622215,0.0189997,0.0431119,1623,1618,7.87968,-14.4237
406,-594,7.85901,14.356,-0.00583094,-0.0150469,0.0128105,0.00317513,-0.0240529,0.612752,0.0171917,0.0277354,1630,1618,7.85899,-14.3559
413,-594,7.76563,14.2357,-0.00507207,-0.0135392,0.0113544,0.00281237,-0.0214237,0.606953,0.0153063,0.0217604,1637,1618,7.76564,-14.2358
420,-594,7.7522,14.0853,-0.00436505,-0.0121881,0.00996579,0.00242936,-0.0189825,0.598388,0.0135376,0.0171104,1644,1618,7.75223,-14.0853
427,-594,7.72913,13.9952,-0.00354419,-0.0109747,0.0086921,0.00219338,-0.0167122,0.583436,0.01194,0.0116846,1651,1618,7.72916,-13.9952
434,-594,7.73535,13.8134,-0.00293021,-0.00969342,0.0074606,0.00187938,-0.014503,0.572617,0.0103522,0.0159287,1658,1618,7.73539,-13.8134
441,-594,7.72278,13.6283,-0.00225564,-0.00856731,0.00621661,0.00156029,-0.0123832,0.550525,0.00882171,0.0159819,1665,1618,7.72282,-13.6282
448,-594,7.73218,13.4208,-0.0015055,-0.00746266,0.00504413,0.00137384,-0.010342,0.518694,0.00739527,0.0155695,1672,1618,7.73216,-13.4208
455,-594,7.71204,13.2162,-0.000912323,-0.00643164,0.00399453,0.00118312,-0.00852708,0.483116,0.00611735,0.0116984,1679,1618,7.71209,-13.2162
462,-594,7.70166,13.0237,-0.000335019,-0.00543676,0.00301261,0.00106161,-0.00683339,0.434101,0.00494757,0.0128766,1686,1618,7.70168,-13.0237
469,-594,7.703,12.8401,0.000130985,-0.00457258,0.00207298,0.00091419,-0.00535578,0.361236,0.00391103,0.012385,1693,1618,7.70304,-12.84
476,-594,7.70898,12.6544,0.000503914,-0.00368494,0.00110632,0.000778152,-0.00395918,0.242985,0.00293344,0.0135365,1700,1618,7.70894,-12.6544
483,-594,7.70764,12.4243,0.000948023,-0.00279185,0.000320736,0.00097533,-0.00281916,0.0849346,0.00227533,0.0154341,1707,1618,7.70764,-12.4243
490,-594,7.69934,12.1995,0.00173317,-0.00219673,-0.000498209,0.00179534,-0.0022589,-0.124158,0.00234581,0.0127287,1714,1618,7.69931,-12.1995
497,-594,7.68298,11.9949,0.00257804,-0.00184426,-0.00140367,0.00298595,-0.00225217,-0.282813,0.0030341,0.00945193,1721,1618,7.68296,-11.9948
504,-594,7.70532,11.7892,0.00334738,-0.00167083,-0.00206469,0.00408766,-0.00241112,-0.344268,0.00379346,0.00999342,1728,1618,7.70535,-11.7892
511,-594,7.72827,11.5812,0.00446451,-0.00176131,-0.00281209,0.0055466,-0.0028434,-0.367335,0.00492707,0.0119135,1735,1618,7.72832,-11.5811
518,-594,7.72351,11.3662,0.0058246,-0.0020631,-0.00353492,0.00717694,-0.00341544,-0.365387,0.00624272,0.0151388,1742,1618,7.72349,-11.3662
525,-594,7.71021,11.1277,0.00745351,-0.00285205,-0.00413509,0.00890755,-0.00430609,-0.338131,0.00778156,0.0273579,1749,1618,7.71023,-11.1277
532,-594,7.65137,10.8503,0.00961001,-0.0037825,-0.00466212,0.0110731,-0.00524561,-0.304095,0.00961979,0.0451143,1756,1618,7.65138,-10.8503
539,-594,7.5769,10.5188,0,0,0,0,0,0,0,-1,1763,1618,7.57692,-10.5188
546,-594,7.48645,8.54785,0,0,0,0,0,0,0,-1,1770,1618,7.48639,-8.54789
553,-594,3.69714,5.68762,0,0,0,0,0,0,0,-1,1777,1618,3.69715,-5.68764
560,-594,6.06616,4.44482,0,0,0,0,0,0,0,-1,1784,1618,6.06621,-4.44477
567,-594,5.97266,4.73303,0,0,0,0,0,0,0,-1,1791,1618,5.97271,-4.73309
574,-594,5.9906,4.96326,0,0,0,0,0,0,0,-1,1798,1618,5.99065,-4.96326
581,-594,0,0,0,0,0,0,0,0,0,-1,1805,1618,0,0
588,-594,0,0,0,0,0,0,0,0,0,-1,1812,1618,0,0
595,-594,0,0,0,0,0,0,0,0,0,-1,1819,1618,0,0
602,-594,0,0,0,0,0,0,0,0,0,-1,1826,1618,0,0
609,-594,0,0,0,0,0,0,0,0,0,-1,1833,1618,0,0
616,-594,0,0,0,0,0,0,0,0,0,-1,1840,1618,0,0
623,-594,0,0,0,0,0,0,0,0,0,-1,1847,1618,0,0
630,-594,0,0,0,0,0,0,0,0,0,-1,1854,1618,0,0
637,-594,0,0,0,0,0,0,0,0,0,-1,1861,1618,0,0
644,-594,0,0,0,0,0,0,0,0,0,-1,1868,1618,0,0
651,-594,0,0,0,0,0,0,0,0,0,-1,1875,1618,0,0
658,-594,0,0,0,0,0,0,0,0,0,-1,1882,1618,0,0
665,-594,0,0,0,0,0,0,0,0,0,-1,1889,1618,0,0
672,-594,0,0,0,0,0,0,0,0,0,-1,1896,1618,0,0
679,-594,0,0,0,0,0,0,0,0,0,-1,1903,1618,0,0
686,-594,0,0,0,0,0,0,0,0,0,-1,1910,1618,0,0
693,-594,0,0,0,0,0,0,0,0,0,-1,1917,1618,0,0
700,-594,0,0,0,0,0,0,0,0,0,-1,1924,1618,0,0
707,-594,0,0,0,0,0,0,0,0,0,-1,1931,1618,0,0
714,-594,0,0,0,0,0,0,0,0,0,-1,1938,1618,0,0
721,-594,0,0,0,0,0,0,0,0,0,-1,1945,1618,0,0
728,-594,0,0,0,0,0,0,0,0,0,-1,1952,1618,0,0
735,-594,0,0,0,0,0,0,0,0,0,-1,1959,1618,0,0
742,-594,0,0,0,0,0,0,0,0,0,-1,1966,1618,0,0
749,-594,0,0,0,0,0,0,0,0,0,-1,1973,1618,0,0
756,-594,0,0,0,0,0,0,0,0,0,-1,1980,1618,0,0
763,-594,0,0,0,0,0,0,0,0,0,-1,1987,1618,0,0
770,-594,0,0,0,0,0,0,0,0,0,-1,1994,1618,0,0
777,-594,0,0,0,0,0,0,0,0,0,-1,2001,1618,0,0
784,-594,0,0,0,0,0,0,0,0,0,-1,2008,1618,0,0
791,-594,0,0,0,0,0,0,0,0,0,-1,2015,1618,0,0
798,-594,0,0,0,0,0,0,0,0,0,-1,2022,1618,0,0
805,-594,0,0,0,0,0,0,0,0,0,-1,2029,1618,0,0
812,-594,0,0,0,0,0,0,0,0,0,-1,2036,1618,0,0
-700,-601,0,0,0,0,0,0,0,0,0,-1,524,1625,0,0
-693,-601,0,0,0,0,0,0,0,0,0,-1,531,1625,0,0
-686,-601,0,0,0,0,0,0,0,0,0,-1,538,1625,0,0
-679,-601,0,0,0,0,0,0,0,0,0,-1,545,1625,0,0
-672,-601,0,0,0,0,0,0,0,0,0,-1,552,1625,0,0
-665,-601,0,0,0,0,0,0,0,0,0,-1,559,1625,0,0
-658,-601,0,0,0,0,0,0,0,0,0,-1,566,1625,0,0
-651,-601,0,0,0,0,0,0,0,0,0,-1,573,1625,0,0
-644,-601,0,0,0,0,0,0,0,0,0,-1,580,1625,0,0
-637,-601,0,0,0,0,0,0,0,0,0,-1,587,1625,0,0
-630,-601,0,0,0,0,0,0,0,0,0,-1,594,1625,0,0
-623,-601,0,0,0,0,0,0,0,0,0,-1,601,1625,0,0
-616,-601,0,0,0,0,0,0,0,0,0,-1,608,1625,0,0
-609,-601,0,0,0,0,0,0,0,0,0,-1,615,1625,0,0
-602,-601,0,0,0,0,0,0,0,0,0,-1,622,1625,0,0
-595,-601,0,0,0,0,0,0,0,0,0,-1,629,1625,0,0
-588,-601,0,0,0,0,0,0,0,0,0,-1,636,1625,0,0
-581,-601,0,0,0,0,0,0,0,0,0,-1,643,1625,0,0
-574,-601,0,0,0,0,0,0,0,0,0,-1,650,1625,0,0
-567,-601,0,0,0,0,0,0,0,0,0,-1,657,1625,0,0
-560,-601,0,0,0,0,0,0,0,0,0,-1,664,1625,0,0
-553,-601,0,0,0,0,0,0,0,0,0,-1,671,1625,0,0
-546,-601,0,0,0,0,0,0,0,0,0,-1,678,1625,0,0
-539,-601,0,0,0,0,0,0,0,0,0,-1,685,1625,0,0
-532,-601,0,0,0,0,0,0,0,0,0,-1,692,1625,0,0
-525,-601,0,0,0,0,0,0,0,0,0,-1,699,1625,0,0
-518,-601,0,0,0,0,0,0,0,0,0,-1,706,1625,0,0
-511,-601,0,0,0,0,0,0,0,0,0,-1,713,1625,0,0
-504,-601,0,0,0,0,0,0,0,0,0,-1,720,1625,0,0
-497,-601,0,0,0,0,0,0,0,0,0,-1,727,1625,0,0
-490,-601,0,0,0,0,0,0,0,0,0,-1,734,1625,0,0
-483,-601,0,0,0,0,0,0,0,0,0,-1,741,1625,0,0
-476,-601,0,0,0,0,0,0,0,0,0,-1,748,1625,0,0
-469,-601,0,0,0,0,0,0,0,0,0,-1,755,1625,0,0
-462,-601,0,0,0,0,0,0,0,0,0,-1,762,1625,0,0
-455,-601,0,0,0,0,0,0,0,0,0,-1,769,1625,0,0
-448,-601,-7.07623,2.7616,0,0,0,0,0,0,0,-1,776,1625,-7.07626,-2.76161
-441,-601,-6.06689,3.33447,0,0,0,0,0,0,0,-1,783,1625,-6.06691,-3.33448
-434,-601,-5.02655,3.8468,0,0,0,0,0,0,0,-1,790,1625,-5.02657,-3.84674
-427,-601,-5.78601,4.2406,0,0,0,0,0,0,0,-1,797,1625,-5.786,-4.24058
-420,-601,-5.5191,5.60364,0,0,0,0,0,0,0,-1,804,1625,-5.51907,-5.60368
-413,-601,-4.30756,5.86047,0,0,0,0,0,0,0,-1,811,1625,-4.30757,-5.86046
-406,-601,-1.67493,7.20422,0,0,0,0,0,0,0,-1,818,1625,-1.67493,-7.20428
-399,-601,2.32611,9.45959,0,0,0,0,0,0,0,-1,825,1625,2.32609,-9.45959
-392,-601,2.271,9.85645,0.00781156,-0.0187045,0.00291762,0.0081288,-0.0190217,0.108306,0.0160904,0.0483624,832,1625,2.27101,-9.85647
-385,-601,2.28339,10.1909,0.00492649,-0.0179695,0.00134702,0.00500547,-0.0180484,0.0585629,0.0140022,0.042967,839,1625,2.28336,-10.191
-378,-601,2.17773,10.4091,0.00299491,-0.0161346,0.000497553,0.00300784,-0.0161475,0.0259863,0.0118951,0.0293718,846,1625,2.17776,-10.4091
-371,-601,2.16205,10.6147,0.00175191,-0.0140207,-4.88066e-05,0.00175206,-0.0140208,-0.00309435,0.00998264,0.0140916,853,1625,2.16207,-10.6147
-364,-601,2.16766,10.8372,0.000916862,-0.0119575,-0.000396882,0.000929085,-0.0119697,-0.0307883,0.00830685,0.0100993,860,1625,2.16764,-10.8371
-357,-601,2.15271,11.0629,0.000638503,-0.00964402,-0.000423839,0.000655944,-0.00966146,-0.0411264,0.00667038,0.00985926,867,1625,2.15269,-11.0628
-350,-601,2.15826,11.3319,0.000616515,-0.00742857,-0.000326949,0.00062978,-0.00744183,-0.0405505,0.00518392,0.0207448,874,1625,2.15828,-11.3319
-343,-601,2.12982,11.6027,0.000448895,-0.00540328,-0.000125471,0.000451584,-0.00540597,-0.021427,0.00376355,0.0215571,881,1625,2.1298,-11.6026
-336,-601,2.11633,11.821,0.000538804,-0.00374076,1.91643e-05,0.00053889,-0.00374084,0.00447799,0.00269157,0.0177534,888,1625,2.11634,-11.8211
-329,-601,2.13544,12.012,0.000395567,-0.0020672,0.000159147,0.000405809,-0.00207744,0.0642648,0.00153818,0.014143,895,1625,2.13541,-12.0119
-322,-601,2.15424,12.224,0.000392235,-0.000692519,0.000388201,0.000516845,-0.00081713,0.310606,0.000776648,0.0111827,902,1625,2.15423,-12.2241
-315,-601,2.16046,12.4149,0.000171219,0.000110244,0.000485021,0.00062671,-0.000345247,0.754011,0.000568949,0.0119115,909,1625,2.16044,-12.4149
-308,-601,2.15283,12.6216,-0.000131872,0.000462134,0.000298231,0.000586026,-0.000255764,1.17707,0.00049832,0.0120905,916,1625,2.15284,-12.6215
-301,-601,2.15564,12.8427,-0.000475606,0.000299238,-5.39229e-05,0.000302973,-0.00047934,-1.50165,0.000455479,0.0103339,923,1625,2.15566,-12.8426
-294,-601,2.15881,13.0363,-0.000759167,-0.000702147,-0.000656301,-7.37369e-05,-0.00138758,-0.807105,0.000901479,0.00973461,930,1625,2.15882,-13.0363
-287,-601,2.1568,13.246,-0.000883552,-0.00173132,-0.00125224,1.46033e-05,-0.00262947,-0.622202,0.00175787,0.00959179,937,1625,2.15677,-13.2459
-280,-601,2.15576,13.4564,0.000887697,-0.00302952,-0.000927238,0.0010961,-0.00323792,-0.221078,0.0026021,0.0101317,944,1625,2.15575,-13.4564
-273,-601,2.15826,13.6715,0.00241621,-0.00478134,-0.000991443,0.00255028,-0.00491541,-0.134413,0.00438182,0.0105136,951,1625,2.15823,-13.6715
-266,-601,2.19336,13.8596,0.00494531,-0.00695044,-0.000496014,0.00496595,-0.00697109,-0.0416005,0.00692419,0.012889,958,1625,2.19339,-13.8596
-259,-601,2.22229,13.9645,0.00876257,-0.00927846,0.000892244,0.00880659,-0.00932248,0.0492961,0.0104682,0.0230266,965,1625,2.22226,-13.9645
-252,-601,2.19,13.8752,0.0146272,-0.0121652,0.00293616,0.0149452,-0.0124832,0.107883,0.015857,0.0433571,972,1625,2.18999,-13.8752
-245,-601,2.11609,13.7421,0.0227431,-0.0156395,0.00584778,0.0236143,-0.0165106,0.147886,0.0232868,0.0467266,979,1625,2.11607,-13.7421
-238,-601,2.51489,14.5631,0,0,0,0,0,0,0,-1,986,1625,2.51487,-14.5631
-231,-601,2.66772,13.7051,0,0,0,0,0,0,0,-1,993,1625,2.6677,-13.7051
-224,-601,-0.0305176,9.13684,0,0,0,0,0,0,0,-1,1000,1625,-0.030498,-9.13681
-217,-601,3.39429,10.3898,0,0,0,0,0,0,0,-1,1007,1625,3.39431,-10.3898
-210,-601,-6.53699,15.7931,0,0,0,0,0,0,0,-1,1014,1625,-6.53697,-15.7931
-203,-601,4.2666,11.9674,0,0,0,0,0,0,0,-1,1021,1625,4.26666,-11.9674
-196,-601,3.646,14.2958,0,0,0,0,0,0,0,-1,1028,1625,3.64598,-14.2958
-189,-601,3.38342,13.7926,0,0,0,0,0,0,0,-1,1035,1625,3.38346,-13.7926
-182,-601,1.82153,13.9752,0,0,0,0,0,0,0,-1,1042,1625,1.82155,-13.9752
-175,-601,0.544922,9.28687,0,0,0,0,0,0,0,-1,1049,1625,0.544879,-9.28685
-168,-601,-0.247559,8.97461,0,0,0,0,0,0,0,-1,1056,1625,-0.247598,-8.97466
-161,-601,-1.16833,8.80078,0,0,0,0,0,0,0,-1,1063,1625,-1.16837,-8.80081
-154,-601,1.12756,7.94861,0,0,0,0,0,0,0,-1,1070,1625,1.12762,-7.94855
-147,-601,1.35352,9.55432,0,0,0,0,0,0,0,-1,1077,1625,1.35351,-9.55429
-140,-601,1.72437,11.1498,0,0,0,0,0,0,0,-1,1084,1625,1.72432,-11.1498
-133,-601,2.13281,12.8347,0,0,0,0,0,0,0,-1,1091,1625,2.13287,-12.8348
-126,-601,3.09534,15.427,0,0,0,0,0,0,0,-1,1098,1625,3.0953,-15.4271
-119,-601,1.22485,9.43457,0,0,0,0,0,0,0,-1,1105,1625,1.22489,-9.43456
-112,-601,0,0,0,0,0,0,0,0,0,-1,1112,1625,0,0
-105,-601,0,0,0,0,0,0,0,0,0,-1,1119,1625,0,0
-98,-601,0,0,0,0,0,0,0,0,0,-1,1126,1625,0,0
-91,-601,0,0,0,0,0,0,0,0,0,-1,1133,1625,0,0
-84,-601,0,0,0,0,0,0,0,0,0,-1,1140,1625,0,0
-77,-601,0,0,0,0,0,0,0,0,0,-1,1147,1625,0,0
-70,-601,0,0,0,0,0,0,0,0,0,-1,1154,1625,0,0
-63,-601,0,0,0,0,0,0,0,0,0,-1,1161,1625,0,0
-56,-601,0,0,0,0,0,0,0,0,0,-1,1168,1625,0,0
-49,-601,0,0,0,0,0,0,0,0,0,-1,1175,1625,0,0
-42,-601,0,0,0,0,0,0,0,0,0,-1,1182,1625,0,0
-35,-601,0,0,0,0,0,0,0,0,0,-1,1189,1625,0,0
-28,-601,0,0,0,0,0,0,0,0,0,-1,1196,1625,0,0
-21,-601,0,0,0,0,0,0,0,0,0,-1,1203,1625,0,0
-14,-601,0,0,0,0,0,0,0,0,0,-1,1210,1625,0,0
-7,-601,0,0,0,0,0,0,0,0,0,-1,1217,1625,0,0
0,-601,0,0,0,0,0,0,0,0,0,-1,1224,1625,0,0
7,-601,0,0,0,0,0,0,0,0,0,-1,1231,1625,0,0
14,-601,0,0,0,0,0,0,0,0,0,-1,1238,1625,0,0
21,-601,0,0,0,0,0,0,0,0,0,-1,1245,1625,0,0
28,-601,0,0,0,0,0,0,0,0,0,-1,1252,1625,0,0
35,-601,0,0,0,0,0,0,0,0,0,-1,1259,1625,0,0
42,-601,0,0,0,0,0,0,0,0,0,-1,1266,1625,0,0
49,-601,0,0,0,0,0,0,0,0,0,-1,1273,1625,0,0
56,-601,0,0,0,0,0,0,0,0,0,-1,1280,1625,0,0
63,-601,0,0,0,0,0,0,0,0,0,-1,1287,1625,0,0
70,-601,0,0,0,0,0,0,0,0,0,-1,1294,1625,0,0
77,-601,0,0,0,0,0,0,0,0,0,-1,1301,1625,0,0
84,-601,0,0,0,0,0,0,0,0,0,-1,1308,1625,0,0
91,-601,0,0,0,0,0,0,0,0,0,-1,1315,1625,0,0
98,-601,0,0,0,0,0,0,0,0,0,-1,1322,1625,0,0
105,-601,0,0,0,0,0,0,0,0,0,-1,1329,1625,0,0
112,-601,0,0,0,0,0,0,0,0,0,-1,1336,1625,0,0
119,-601,0,0,0,0,0,0,0,0,0,-1,1343,1625,0,0
126,-601,0,0,0,0,0,0,0,0,0,-1,1350,1625,0,0
133,-601,0,0,0,0,0,0,0,0,0,-1,1357,1625,0,0
140,-601,0,0,0,0,0,0,0,0,0,-1,1364,1625,0,0
147,-601,0,0,0,0,0,0,0,0,0,-1,1371,1625,0,0
154,-601,0,0,0,0,0,0,0,0,0,-1,1378,1625,0,0
161,-601,0,0,0,0,0,0,0,0,0,-1,1385,1625,0,0
168,-601,0,0,0,0,0,0,0,0,0,-1,1392,1625,0,0
175,-601,0,0,0,0,0,0,0,0,0,-1,1399,1625,0,0
182,-601,0,0,0,0,0,0,0,0,0,-1,1406,1625,0,0
189,-601,0,0,0,0,0,0,0,0,0,-1,1413,1625,0,0
196,-601,0,0,0,0,0,0,0,0,0,-1,1420,1625,0,0
203,-601,0,0,0,0,0,0,0,0,0,-1,1427,1625,0,0
210,-601,0,0,0,0,0,0,0,0,0,-1,1434,1625,0,0
217,-601,0,0,0,0,0,0,0,0,0,-1,1441,1625,0,0
224,-601,0,0,0,0,0,0,0,0,0,-1,1448,1625,0,0
231,-601,-0.0371094,0.525879,0,0,0,0,0,0,0,-1,1455,1625,-0.0371518,-0.525824
238,-601,2.03369,-1.32861,0,0,0,0,0,0,0,-1,1462,1625,2.03364,1.32858
245,-601,2.71375,2.44983,0,0,0,0,0,0,0,-1,1469,1625,2.71371,-2.44979
252,-601,4.66943,2.28381,0,0,0,0,0,0,0,-1,1476,1625,4.66947,-2.28376
259,-601,6.42712,2.61987,0,0,0,0,0,0,0,-1,1483,1625,6.42711,-2.61985
266,-601,6.75317,1.68701,0,0,0,0,0,0,0,-1,1490,1625,6.75323,-1.687
273,-601,5.4314,2.92053,0,0,0,0,0,0,0,-1,1497,1625,5.43144,-2.92051
280,-601,4.64722,1.17786,0,0,0,0,0,0,0,-1,1504,1625,4.64722,-1.1779
287,-601,5.32532,2.6217,0,0,0,0,0,0,0,-1,1511,1625,5.32535,-2.62171
294,-601,5.97693,4.22693,0,0,0,0,0,0,0,-1,1518,1625,5.97697,-4.22694
301,-601,7.28162,9.50024,0,0,0,0,0,0,0,-1,1525,1625,7.28162,-9.50025
308,-601,6.53528,10.3927,0,0,0,0,0,0,0,-1,1532,1625,6.53529,-10.3927
315,-601,4.88013,11.7184,0,0,0,0,0,0,0,-1,1539,1625,4.88015,-11.7184
322,-601,3.38098,12.7864,0,0,0,0,0,0,0,-1,1546,1625,3.38104,-12.7864
329,-601,1.8772,13.8768,0,0,0,0,0,0,0,-1,1553,1625,1.87716,-13.8768
336,-601,4.67847,9.53308,0,0,0,0,0,0,0,-1,1560,1625,4.67848,-9.53309
343,-601,11.1404,3.14575,0,0,0,0,0,0,0,-1,1567,1625,11.1404,-3.1458
350,-601,10.9462,2.37769,0,0,0,0,0,0,0,-1,1574,1625,10.9461,-2.37764
357,-601,10.7518,1.6095,0,0,0,0,0,0,0,-1,1581,1625,10.7518,-1.60948
364,-601,5.33643,9.74426,0,0,0,0,0,0,0,-1,1588,1625,5.33637,-9.74429
371,-601,7.48889,15.2269,0,0,0,0,0,0,0,-1,1595,1625,7.48893,-15.2269
378,-601,7.60217,14.7903,0,0,0,0,0,0,0,-1,1602,1625,7.60223,-14.7902
385,-601,7.79944,14.76,0,0,0,0,0,0,0,-1,1609,1625,7.79945,-14.76
392,-601,7.70105,14.6199,-0.00490888,-0.0127531,0.0115058,0.00332494,-0.020987,0.621134,0.0152212,0.0462307,1616,1625,7.70111,-14.6199
399,-601,7.52112,14.614,-0.00455046,-0.0117743,0.0105603,0.00299853,-0.0193233,0.62062,0.0139892,0.0208893,1623,1625,7.52112,-14.6141
406,-601,7.54504,14.4481,-0.00407742,-0.0106785,0.00938582,0.00257126,-0.0173272,0.616325,0.012497,0.0151833,1630,1625,7.5451,-14.4481
413,-601,7.53467,14.3015,-0.00360615,-0.00947621,0.00829621,0.0022589,-0.0153413,0.615379,0.0110577,0.0132999,1637,1625,7.53463,-14.3015
420,-601,7.51318,14.1873,-0.00311774,-0.00844048,0.00722675,0.00192212,-0.0134803,0.608971,0.00969134,0.00976827,1644,1625,7.51319,-14.1872
427,-601,7.51917,14.0189,-0.0025451,-0.00782258,0.00630987,0.00165556,-0.0120232,0.587353,0.00862051,0.0132599,1651,1625,7.51912,-14.019
434,-601,7.54456,13.8202,-0.00213564,-0.00718848,0.00546367,0.00135744,-0.0106816,0.568838,0.00761397,0.0149547,1658,1625,7.54452,-13.8202
441,-601,7.55652,13.6141,-0.00165088,-0.00674581,0.00459327,0.00105406,-0.00945075,0.532211,0.00667963,0.0170261,1665,1625,7.55654,-13.6142
448,-601,7.54041,13.4214,-0.00106875,-0.0063017,0.00376195,0.000897151,-0.0082676,0.481545,0.00583382,0.0147475,1672,1625,7.54047,-13.4214
455,-601,7.52832,13.2196,-0.000582334,-0.0059132,0.00302407,0.000783306,-0.00727885,0.424175,0.00513362,0.0128614,1679,1625,7.52829,-13.2196
462,-601,7.52417,13.009,-7.67382e-05,-0.0055312,0.00231835,0.000775493,-0.00638343,0.352269,0.00453627,0.0106846,1686,1625,7.52417,-13.0091
469,-601,7.52979,12.8304,0.000355297,-0.00520063,0.00160551,0.000785874,-0.00563121,0.262022,0.00404164,0.0109211,1693,1625,7.52979,-12.8304
476,-601,7.50806,12.6543,0.000717841,-0.00474496,0.000839647,0.000843984,-0.0048711,0.149118,0.00356221,0.0139407,1700,1625,7.50806,-12.6542
483,-601,7.49951,12.4346,0.00115429,-0.00415243,0.000189063,0.00116101,-0.00415916,0.035567,0.00323009,0.017049,1707,1625,7.49956,-12.4345
490,-601,7.50366,12.2197,0.00196862,-0.00382703,-0.000538625,0.00201826,-0.00387666,-0.0918874,0.00345935,0.0120865,1714,1625,7.50372,-12.2198
497,-601,7.51709,12.0094,0.00288591,-0.00357984,-0.00139451,0.00317385,-0.00386778,-0.20362,0.00407206,0.00926157,1721,1625,7.51708,-12.0094
504,-601,7.5304,11.7803,0.00377728,-0.00349574,-0.0020827,0.00433146,-0.00404991,-0.260059,0.0048399,0.0124663,1728,1625,7.53036,-11.7803
511,-601,7.53027,11.6031,0.00506231,-0.00347504,-0.00296246,0.00598957,-0.0044023,-0.303344,0.00602304,0.0216272,1735,1625,7.53025,-11.6031
518,-601,7.552,11.4569,0.00661016,-0.00341117,-0.00387928,0.00793634,-0.00473735,-0.329406,0.00739445,0.0344786,1742,1625,7.55195,-11.4569
525,-601,7.52173,11.1174,0.00851159,-0.00345853,-0.00499111,0.0103196,-0.00526655,-0.347545,0.00915496,0.0457279,1749,1625,7.52168,-11.1174
532,-601,7.50769,10.7781,0.0111281,-0.00436111,-0.00596156,0.0131568,-0.0063899,-0.328018,0.0115085,0.0490899,1756,1625,7.50766,-10.7781
539,-601,7.5918,10.3501,0,0,0,0,0,0,0,-1,1763,1625,7.5918,-10.3501
546,-601,6.56873,3.62354,0,0,0,0,0,0,0,-1,1770,1625,6.56867,-3.62352
553,-601,7.03015,4.25049,0,0,0,0,0,0,0,-1,1777,1625,7.03011,-4.25048
560,-601,7.50745,4.83374,0,0,0,0,0,0,0,-1,1784,1625,7.50744,-4.83376
567,-601,7.82043,3.83301,0,0,0,0,0,0,0,-1,1791,1625,7.82041,-3.83303
574,-601,0,0,0,0,0,0,0,0,0,-1,1798,1625,0,0
581,-601,0,0,0,0,0,0,0,0,0,-1,1805,1625,0,0
588,-601,0,0,0,0,0,0,0,0,0,-1,1812,1625,0,0
595,-601,0,0,0,0,0,0,0,0,0,-1,1819,1625,0,0
602,-601,0,0,0,0,0,0,0,0,0,-1,1826,1625,0,0
609,-601,0,0,0,0,0,0,0,0,0,-1,1833,1625,0,0
616,-601,0,0,0,0,0,0,0,0,0,-1,1840,1625,0,0
623,-601,0,0,0,0,0,0,0,0,0,-1,1847,1625,0,0
630,-601,0,0,0,0,0,0,0,0,0,-1,1854,1625,0,0
637,-601,0,0,0,0,0,0,0,0,0,-1,1861,1625,0,0
644,-601,0,0,0,0,0,0,0,0,0,-1,1868,1625,0,0
651,-601,0,0,0,0,0,0,0,0,0,-1,1875,1625,0,0
658,-601,0,0,0,0,0,0,0,0,0,-1,1882,1625,0,0
665,-601,0,0,0,0,0,0,0,0,0,-1,1889,1625,0,0
672,-601,0,0,0,0,0,0,0,0,0,-1,1896,1625,0,0
679,-601,0,0,0,0,0,0,0,0,0,-1,1903,1625,0,0
686,-601,0,0,0,0,0,0,0,0,0,-1,1910,1625,0,0
693,-601,0,0,0,0,0,0,0,0,0,-1,1917,1625,0,0
700,-601,0,0,0,0,0,0,0,0,0,-1,1924,1625,0,0
707,-601,0,0,0,0,0,0,0,0,0,-1,1931,1625,0,0
714,-601,0,0,0,0,0,0,0,0,0,-1,1938,1625,0,0
721,-601,0,0,0,0,0,0,0,0,0,-1,1945,1625,0,0
728,-601,0,0,0,0,0,0,0,0,0,-1,1952,1625,0,0
735,-601,0,0,0,0,0,0,0,0,0,-1,1959,1625,0,0
742,-601,0,0,0,0,0,0,0,0,0,-1,1966,1625,0,0
749,-601,0,0,0,0,0,0,0,0,0,-1,1973,1625,0,0
756,-601,0,0,0,0,0,0,0,0,0,-1,1980,1625,0,0
763,-601,0,0,0,0,0,0,0,0,0,-1,1987,1625,0,0
770,-601,0,0,0,0,0,0,0,0,0,-1,1994,1625,0,0
777,-601,0,0,0,0,0,0,0,0,0,-1,2001,1625,0,0
784,-601,0,0,0,0,0,0,0,0,0,-1,2008,1625,0,0
791,-601,0,0,0,0,0,0,0,0,0,-1,2015,1625,0,0
798,-601,0,0,0,0,0,0,0,0,0,-1,2022,1625,0,0
805,-601,0,0,0,0,0,0,0,0,0,-1,2029,1625,0,0
812,-601,0,0,0,0,0,0,0,0,0,-1,2036,1625,0,0
-700,-608,0,0,0,0,0,0,0,0,0,-1,524,1632,0,0
-693,-608,0,0,0,0,0,0,0,0,0,-1,531,1632,0,0
-686,-608,0,0,0,0,0,0,0,0,0,-1,538,1632,0,0
-679,-608,0,0,0,0,0,0,0,0,0,-1,545,1632,0,0
-672,-608,0,0,0,0,0,0,0,0,0,-1,552,1632,0,0
-665,-608,0,0,0,0,0,0,0,0,0,-1,559,1632,0,0
-658,-608,0,0,0,0,0,0,0,0,0,-1,566,1632,0,0
-651,-608,0,0,0,0,0,0,0,0,0,-1,573,1632,0,0
-644,-608,0,0,0,0,0,0,0,0,0,-1,580,1632,0,0
-637,-608,0,0,0,0,0,0,0,0,0,-1,587,1632,0,0
-630,-608,0,0,0,0,0,0,0,0,0,-1,594,1632,0,0
-623,-608,0,0,0,0,0,0,0,0,0,-1,601,1632,0,0
-616,-608,0,0,0,0,0,0,0,0,0,-1,608,1632,0,0
-609,-608,0,0,0,0,0,0,0,0,0,-1,615,1632,0,0
-602,-608,0,0,0,0,0,0,0,0,0,-1,622,1632,0,0
-595,-608,0,0,0,0,0,0,0,0,0,-1,629,1632,0,0
-588,-608,0,0,0,0,0,0,0,0,0,-1,636,1632,0,0
-581,-608,0,0,0,0,0,0,0,0,0,-1,643,1632,0,0
-574,-608,0,0,0,0,0,0,0,0,0,-1,650,1632,0,0
-567,-608,0,0,0,0,0,0,0,0,0,-1,657,1632,0,0
-560,-608,0,0,0,0,0,0,0,0,0,-1,664,1632,0,0
-553,-608,0,0,0,0,0,0,0,0,0,-1,671,1632,0,0
-546,-608,0,0,0,0,0,0,0,0,0,-1,678,1632,0,0
-539,-608,0,0,0,0,0,0,0,0,0,-1,685,1632,0,0
-532,-608,0,0,0,0,0,0,0,0,0,-1,692,1632,0,0
-525,-608,0,0,0,0,0,0,0,0,0,-1,699,1632,0,0
-518,-608,0,0,0,0,0,0,0,0,0,-1,706,1632,0,0
-511,-608,0,0,0,0,0,0,0,0,0,-1,713,1632,0,0
-504,-608,0,0,0,0,0,0,0,0,0,-1,720,1632,0,0
-497,-608,0,0,0,0,0,0,0,0,0,-1,727,1632,0,0
-490,-608,0,0,0,0,0,0,0,0,0,-1,734,1632,0,0
-483,-608,0,0,0,0,0,0,0,0,0,-1,741,1632,0,0
-476,-608,0,0,0,0,0,0,0,0,0,-1,748,1632,0,0
-469,-608,0,0,0,0,0,0,0,0,0,-1,755,1632,0,0
-462,-608,0,0,0,0,0,0,0,0,0,-1,762,1632,0,0
-455,-608,0,0,0,0,0,0,0,0,0,-1,769,1632,0,0
-448,-608,0,0,0,0,0,0,0,0,0,-1,776,1632,0,0
-441,-608,-7.34601,2.78052,0,0,0,0,0,0,0,-1,783,1632,-7.346,-2.78056
-434,-608,-6.34558,3.27405,0,0,0,0,0,0,0,-1,790,1632,-6.34555,-3.27406
-427,-608,-7.74335,4.17688,0,0,0,0,0,0,0,-1,797,1632,-7.74334,-4.17693
-420,-608,-6.82794,4.34839,0,0,0,0,0,0,0,-1,804,1632,-6.82794,-4.34838
-413,-608,-5.69849,4.53992,0,0,0,0,0,0,0,-1,811,1632,-5.6985,-4.53995
-406,-608,-4.79681,4.98999,0,0,0,0,0,0,0,-1,818,1632,-4.79684,-4.98997
-399,-608,-2.60645,6.34167,0,0,0,0,0,0,0,-1,825,1632,-2.60643,-6.34169
-392,-608,2.50391,9.95837,0,0,0,0,0,0,0,-1,832,1632,2.5039,-9.95835
-385,-608,2.56799,10.2683,0,0,0,0,0,0,0,-1,839,1632,2.56798,-10.2683
-378,-608,2.51556,10.5967,0.0061101,-0.023179,0.000792599,0.00613153,-0.0232004,0.0270348,0.017865,0.0455956,846,1632,2.51558,-10.5967
-371,-608,2.3548,10.7191,0.00379072,-0.0196785,7.48702e-05,0.00379096,-0.0196788,0.0031901,0.0145484,0.0376781,853,1632,2.35479,-10.7191
-364,-608,2.39594,10.7888,0.00217917,-0.0163427,-0.000349406,0.00218576,-0.0163493,-0.0188556,0.0116964,0.0163674,860,1632,2.39596,-10.7888
-357,-608,2.36505,11.0435,0.00143399,-0.0129479,-0.00044592,0.00144781,-0.0129617,-0.030966,0.00916194,0.0127112,867,1632,2.36504,-11.0434
-350,-608,2.36566,11.303,0.0011269,-0.00992295,-0.000397112,0.00114115,-0.00993721,-0.0358765,0.0070361,0.018315,874,1632,2.36567,-11.303
-343,-608,2.34808,11.5662,0.000612042,-0.00729972,-0.000275124,0.000621598,-0.00730928,-0.0347182,0.00509271,0.0229701,881,1632,2.34811,-11.5661
-336,-608,2.349,11.8182,0.000639358,-0.00523105,-0.000192067,0.000645636,-0.00523732,-0.0326712,0.00372546,0.0150617,888,1632,2.34901,-11.8182
-329,-608,2.34619,12.0209,0.000381049,-0.00324734,-0.000183064,0.000390262,-0.00325656,-0.0502831,0.00231213,0.0128953,895,1632,2.34622,-12.0209
-322,-608,2.33618,12.2109,0.000401653,-0.00174836,-3.83048e-05,0.000402335,-0.00174904,-0.0178086,0.00132073,0.0131999,902,1632,2.3362,-12.2109
-315,-608,2.37152,12.399,0.00019662,-0.000906252,-2.1145e-05,0.000197025,-0.000906657,-0.0191633,0.000679699,0.0130081,909,1632,2.37153,-12.3991
-308,-608,2.37817,12.6295,-6.5493e-05,-0.000502548,-0.000273018,6.56839e-05,-0.000633725,-0.447901,0.000445993,0.0136014,916,1632,2.3782,-12.6295
-301,-608,2.36346,12.853,-0.000356923,-0.000608711,-0.000679308,0.000208059,-0.00117369,-0.693774,0.000860243,0.0104558,923,1632,2.36349,-12.853
-294,-608,2.3667,13.0494,-0.000571529,-0.00145252,-0.00124447,0.000308107,-0.00233216,-0.615298,0.00166699,0.00986966,930,1632,2.36669,-13.0495
-287,-608,2.35675,13.243,-0.000630794,-0.00227531,-0.00176061,0.000490105,-0.00339621,-0.566936,0.00244394,0.00922998,937,1632,2.35675,-13.243
-280,-608,2.36072,13.4452,0.00033785,-0.00335977,-0.00180091,0.00107,-0.00409192,-0.386137,0.00314587,0.0079389,944,1632,2.36069,-13.4452
-273,-608,2.36694,13.6571,0.00122363,-0.00474506,-0.00206031,0.00186574,-0.00538717,-0.302118,0.00434888,0.0087934,951,1632,2.36696,-13.6571
-266,-608,2.39038,13.8687,0.00265404,-0.00644965,-0.00197958,0.00306587,-0.00686148,-0.205111,0.00586954,0.00867474,958,1632,2.39038,-13.8686
-259,-608,2.41144,14.0356,0.00475423,-0.00828255,-0.00135152,0.00489287,-0.00842119,-0.102222,0.00777633,0.0114498,965,1632,2.41142,-14.0356
-252,-608,2.38013,14.1567,0.00796286,-0.0103654,-0.000455901,0.00797419,-0.0103767,-0.0248537,0.0106251,0.025641,972,1632,2.38014,-14.1567
-245,-608,2.49023,14.384,0.0122174,-0.0128749,0.00111752,0.012267,-0.0129246,0.0444192,0.014546,0.0376138,979,1632,2.49025,-14.384
-238,-608,2.61572,14.5634,0.0165262,-0.0150478,0.00349165,0.0169077,-0.0154293,0.108834,0.0186763,0.0453001,986,1632,2.61573,-14.5634
-231,-608,2.71667,14.774,0,0,0,0,0,0,0,-1,993,1632,2.7167,-14.7741
-224,-608,2.3443,12.0583,0,0,0,0,0,0,0,-1,1000,1632,2.34432,-12.0584
-217,-608,1.04419,12.8451,0,0,0,0,0,0,0,-1,1007,1632,1.04418,-12.8451
-210,-608,3.21924,12.5037,0,0,0,0,0,0,0,-1,1014,1632,3.21925,-12.5036
-203,-608,3.3833,14.4537,0,0,0,0,0,0,0,-1,1021,1632,3.38336,-14.4537
-196,-608,2.70154,15.0541,0,0,0,0,0,0,0,-1,1028,1632,2.70152,-15.054
-189,-608,3.73657,14.2264,0,0,0,0,0,0,0,-1,1035,1632,3.73657,-14.2264
-182,-608,3.94312,14.042,0,0,0,0,0,0,0,-1,1042,1632,3.94307,-14.042
-175,-608,0.219116,15.1643,0,0,0,0,0,0,0,-1,1049,1632,0.219173,-15.1644
-168,-608,0.000366211,9.48645,0,0,0,0,0,0,0,-1,1056,1632,0.000317105,-9.48648
-161,-608,-0.939453,9.31458,0,0,0,0,0,0,0,-1,1063,1632,-0.939447,-9.31463
-154,-608,0.503418,14.4747,0,0,0,0,0,0,0,-1,1070,1632,0.503374,-14.4748
-147,-608,2.4386,9.50317,0,0,0,0,0,0,0,-1,1077,1632,2.43858,-9.50313
-140,-608,2.60132,10.8401,0,0,0,0,0,0,0,-1,1084,1632,2.60134,-10.8401
-133,-608,3.2312,12.4738,0,0,0,0,0,0,0,-1,1091,1632,3.23116,-12.4738
-126,-608,3.76465,13.9644,0,0,0,0,0,0,0,-1,1098,1632,3.76466,-13.9644
-119,-608,4.28906,15.4196,0,0,0,0,0,0,0,-1,1105,1632,4.28911,-15.4195
-112,-608,0.745117,10.5587,0,0,0,0,0,0,0,-1,1112,1632,0.745145,-10.5587
-105,-608,-0.252319,1.42419,0,0,0,0,0,0,0,-1,1119,1632,-0.252331,-1.42418
-98,-608,-1.67896,0.994629,0,0,0,0,0,0,0,-1,1126,1632,-1.67895,-0.994599
-91,-608,-2.99451,0.744629,0,0,0,0,0,0,0,-1,1133,1632,-2.99453,-0.744605
-84,-608,0,0,0,0,0,0,0,0,0,-1,1140,1632,0,0
-77,-608,0,0,0,0,0,0,0,0,0,-1,1147,1632,0,0
-70,-608,0,0,0,0,0,0,0,0,0,-1,1154,1632,0,0
-63,-608,0,0,0,0,0,0,0,0,0,-1,1161,1632,0,0
-56,-608,0,0,0,0,0,0,0,0,0,-1,1168,1632,0,0
-49,-608,0,0,0,0,0,0,0,0,0,-1,1175,1632,0,0
-42,-608,0,0,0,0,0,0,0,0,0,-1,1182,1632,0,0
-35,-608,0,0,0,0,0,0,0,0,0,-1,1189,1632,0,0
-28,-608,0,0,0,0,0,0,0,0,0,-1,1196,1632,0,0
-21,-608,0,0,0,0,0,0,0,0,0,-1,1203,1632,0,0
-14,-608,0,0,0,0,0,0,0,0,0,-1,1210,1632,0,0
-7,-608,0,0,0,0,0,0,0,0,0,-1,1217,1632,0,0
0,-608,0,0,0,0,0,0,0,0,0,-1,1224,1632,0,0
7,-608,0,0,0,0,0,0,0,0,0,-1,1231,1632,0,0
14,-608,0,0,0,0,0,0,0,0,0,-1,1238,1632,0,0
21,-608,0,0,0,0,0,0,0,0,0,-1,1245,1632,0,0
28,-608,0,0,0,0,0,0,0,0,0,-1,1252,1632,0,0
35,-608,0,0,0,0,0,0,0,0,0,-1,1259,1632,0,0
42,-608,0,0,0,0,0,0,0,0,0,-1,1266,1632,0,0
49,-608,0,0,0,0,0,0,0,0,0,-1,1273,1632,0,0
56,-608,0,0,0,0,0,0,0,0,0,-1,1280,1632,0,0
63,-608,0,0,0,0,0,0,0,0,0,-1,1287,1632,0,0
70,-608,0,0,0,0,0,0,0,0,0,-1,1294,1632,0,0
77,-608,0,0,0,0,0,0,0,0,0,-1,1301,1632,0,0
84,-608,0,0,0,0,0,0,0,0,0,-1,1308,1632,0,0
91,-608,0,0,0,0,0,0,0,0,0,-1,1315,1632,0,0
98,-608,0,0,0,0,0,0,0,0,0,-1,1322,1632,0,0
105,-608,0,0,0,0,0,0,0,0,0,-1,1329,1632,0,0
112,-608,0,0,0,0,0,0,0,0,0,-1,1336,1632,0,0
119,-608,0,0,0,0,0,0,0,0,0,-1,1343,1632,0,0
126,-608,0,0,0,0,0,0,0,0,0,-1,1350,1632,0,0
133,-608,0,0,0,0,0,0,0,0,0,-1,1357,1632,0,0
140,-608,0,0,0,0,0,0,0,0,0,-1,1364,1632,0,0
147,-608,0,0,0,0,0,0,0,0,0,-1,1371,1632,0,0
154,-608,0,0,0,0,0,0,0,0,0,-1,1378,1632,0,0
161,-608,0,0,0,0,0,0,0,0,0,-1,1385,1632,0,0
168,-608,0,0,0,0,0,0,0,0,0,-1,1392,1632,0,0
175,-608,0,0,0,0,0,0,0,0,0,-1,1399,1632,0,0
182,-608,0,0,0,0,0,0,0,0,0,-1,1406,1632,0,0
189,-608,0,0,0,0,0,0,0,0,0,-1,1413,1632,0,0
196,-608,0,0,0,0,0,0,0,0,0,-1,1420,1632,0,0
203,-608,0,0,0,0,0,0,0,0,0,-1,1427,1632,0,0
210,-608,5.7157,-0.333008,0,0,0,0,0,0,0,-1,1434,1632,5.71566,0.333004
217,-608,4.49402,-0.831787,0,0,0,0,0,0,0,-1,1441,1632,4.49396,0.831738
224,-608,4.18018,-1.11792,0,0,0,0,0,0,0,-1,1448,1632,4.1802,1.11796
231,-608,0.361816,0.825195,0,0,0,0,0,0,0,-1,1455,1632,0.36185,-0.825226
238,-608,2.85388,-0.28833,0,0,0,0,0,0,0,-1,1462,1632,2.85391,0.288282
245,-608,3.87537,4.02173,0,0,0,0,0,0,0,-1,1469,1632,3.87538,-4.02168
252,-608,5.66956,3.5282,0,0,0,0,0,0,0,-1,1476,1632,5.6696,-3.52815
259,-608,7.47437,3.07178,0,0,0,0,0,0,0,-1,1483,1632,7.4744,-3.07172
266,-608,9.46936,2.34766,0,0,0,0,0,0,0,-1,1490,1632,9.46932,-2.34764
273,-608,6.03003,3.34241,0,0,0,0,0,0,0,-1,1497,1632,6.02997,-3.34245
280,-608,5.72461,2.0769,0,0,0,0,0,0,0,-1,1504,1632,5.72457,-2.07688
287,-608,6.20581,3.59338,0,0,0,0,0,0,0,-1,1511,1632,6.20585,-3.59341
294,-608,6.94922,5.17151,0,0,0,0,0,0,0,-1,1518,1632,6.94925,-5.17151
301,-608,7.60083,6.68018,0,0,0,0,0,0,0,-1,1525,1632,7.60086,-6.68013
308,-608,7.64746,9.93848,0,0,0,0,0,0,0,-1,1532,1632,7.64745,-9.93842
315,-608,5.30688,11.2054,0,0,0,0,0,0,0,-1,1539,1632,5.30694,-11.2054
322,-608,5.32617,13.7581,0,0,0,0,0,0,0,-1,1546,1632,5.32613,-13.758
329,-608,7.12231,13.9607,0,0,0,0,0,0,0,-1,1553,1632,7.12231,-13.9607
336,-608,5.48633,7.82446,0,0,0,0,0,0,0,-1,1560,1632,5.48634,-7.82446
343,-608,5.47192,5.61047,0,0,0,0,0,0,0,-1,1567,1632,5.47192,-5.61045
350,-608,11.6957,1.71387,0,0,0,0,0,0,0,-1,1574,1632,11.6957,-1.71388
357,-608,3.77002,5.10046,0,0,0,0,0,0,0,-1,1581,1632,3.77002,-5.10043
364,-608,5.6925,11.2163,0,0,0,0,0,0,0,-1,1588,1632,5.69255,-11.2163
371,-608,7.37122,15.6821,0,0,0,0,0,0,0,-1,1595,1632,7.37125,-15.6821
378,-608,7.31909,15.0623,-0.00271316,-0.0112683,0.00916312,0.00312166,-0.0171031,0.56702,0.0125725,0.0396387,1602,1632,7.31912,-15.0622
385,-608,7.47241,14.9225,-0.00332887,-0.0104655,0.00888592,0.00267844,-0.0164728,0.594469,0.0119749,0.0355811,1609,1632,7.47237,-14.9225
392,-608,7.37683,14.8237,-0.00323112,-0.00945309,0.00857897,0.00278351,-0.0154677,0.611458,0.011354,0.0225669,1616,1632,7.37686,-14.8237
399,-608,7.33386,14.6882,-0.00313779,-0.00859856,0.00788917,0.00248012,-0.0142165,0.618803,0.0104034,0.0102015,1623,1632,7.33381,-14.6883
406,-608,7.33228,14.526,-0.00294848,-0.00771045,0.00697547,0.00204118,-0.0127001,0.62093,0.00922273,0.00897141,1630,1632,7.33233,-14.5259
413,-608,7.32056,14.3593,-0.00268943,-0.00683016,0.00613135,0.00171167,-0.0112313,0.622575,0.00811844,0.00978629,1637,1632,7.32056,-14.3593
420,-608,7.29822,14.1986,-0.00235904,-0.00613446,0.00533232,0.00140985,-0.00990335,0.615276,0.00711887,0.0158871,1644,1632,7.2982,-14.1986
427,-608,7.31384,14.0044,-0.00194708,-0.00581922,0.00464339,0.0011477,-0.008914,0.587881,0.00635985,0.0173474,1651,1632,7.31384,-14.0044
434,-608,7.33252,13.7996,-0.00165182,-0.00552937,0.00401488,0.0008679,-0.00804908,0.560462,0.00567751,0.0145866,1658,1632,7.33256,-13.7996
441,-608,7.3208,13.6265,-0.00126664,-0.00547576,0.00336605,0.00059862,-0.00734102,0.506015,0.00510526,0.0129558,1665,1632,7.32077,-13.6265
448,-608,7.34277,13.4382,-0.000776411,-0.00545572,0.00276022,0.00050233,-0.00673446,0.433839,0.00466611,0.0152386,1672,1632,7.34276,-13.4382
455,-608,7.35779,13.2336,-0.000328727,-0.00554668,0.00225553,0.000511088,-0.0063865,0.356433,0.00443785,0.0119995,1679,1632,7.35781,-13.2337
462,-608,7.34631,13.0255,0.000167803,-0.00569693,0.00178447,0.000668092,-0.00619722,0.273339,0.00437123,0.0106179,1686,1632,7.34628,-13.0255
469,-608,7.32788,12.8257,0.000627863,-0.00589352,0.00128289,0.000871157,-0.00613681,0.18742,0.00441037,0.00825146,1693,1632,7.32787,-12.8257
476,-608,7.3064,12.6394,0.00104366,-0.0059371,0.000720659,0.00111728,-0.00601072,0.101805,0.00442682,0.00854261,1700,1632,7.30638,-12.6394
483,-608,7.29993,12.4358,0.0015211,-0.00575378,0.000200792,0.00152663,-0.00575931,0.0275728,0.00443685,0.00825696,1707,1632,7.29992,-12.4358
490,-608,7.32776,12.2201,0.00239936,-0.00583581,-0.000439049,0.00242271,-0.00585915,-0.0531132,0.00491683,0.00835782,1714,1632,7.32781,-12.2201
497,-608,7.3324,12.0005,0.00343002,-0.00584998,-0.0012406,0.00359301,-0.00601297,-0.13063,0.00560437,0.0127868,1721,1632,7.33242,-12.0005
504,-608,7.28235,11.7845,0.00444784,-0.00585432,-0.00203824,0.00483644,-0.00624292,-0.188394,0.00641383,0.027287,1728,1632,7.2824,-11.7846
511,-608,7.36523,11.6797,0.00586668,-0.00564047,-0.00318067,0.00668732,-0.00646111,-0.252501,0.00759163,0.0408019,1735,1632,7.3652,-11.6797
518,-608,7.4082,11.5675,0,0,0,0,0,0,0,-1,1742,1632,7.40819,-11.5675
525,-608,7.34412,11.1381,0,0,0,0,0,0,0,-1,1749,1632,7.34416,-11.1381
532,-608,7.95935,10.3135,0,0,0,0,0,0,0,-1,1756,1632,7.95933,-10.3135
539,-608,9.40796,1.43457,0,0,0,0,0,0,0,-1,1763,1632,9.40801,-1.43463
546,-608,9.94031,2.1134,0,0,0,0,0,0,0,-1,1770,1632,9.94031,-2.11346
553,-608,10.363,2.81335,0,0,0,0,0,0,0,-1,1777,1632,10.3631,-2.81333
560,-608,9.23999,4.5636,0,0,0,0,0,0,0,-1,1784,1632,9.24,-4.56354
567,-608,0,0,0,0,0,0,0,0,0,-1,1791,1632,0,0
574,-608,0,0,0,0,0,0,0,0,0,-1,1798,1632,0,0
581,-608,0,0,0,0,0,0,0,0,0,-1,1805,1632,0,0
588,-608,0,0,0,0,0,0,0,0,0,-1,1812,1632,0,0
595,-608,0,0,0,0,0,0,0,0,0,-1,1819,1632,0,0
602,-608,0,0,0,0,0,0,0,0,0,-1,1826,1632,0,0
609,-608,0,0,0,0,0,0,0,0,0,-1,1833,1632,0,0
616,-608,0,0,0,0,0,0,0,0,0,-1,1840,1632,0,0
623,-608,0,0,0,0,0,0,0,0,0,-1,1847,1632,0,0
630,-608,0,0,0,0,0,0,0,0,0,-1,1854,1632,0,0
637,-608,0,0,0,0,0,0,0,0,0,-1,1861,1632,0,0
644,-608,0,0,0,0,0,0,0,0,0,-1,1868,1632,0,0
651,-608,0,0,0,0,0,0,0,0,0,-1,1875,1632,0,0
658,-608,0,0,0,0,0,0,0,0,0,-1,1882,1632,0,0
665,-608,0,0,0,0,0,0,0,0,0,-1,1889,1632,0,0
672,-608,0,0,0,0,0,0,0,0,0,-1,1896,1632,0,0
679,-608,0,0,0,0,0,0,0,0,0,-1,1903,1632,0,0
686,-608,0,0,0,0,0,0,0,0,0,-1,1910,1632,0,0
693,-608,0,0,0,0,0,0,0,0,0,-1,1917,1632,0,0
700,-608,0,0,0,0,0,0,0,0,0,-1,1924,1632,0,0
707,-608,0,0,0,0,0,0,0,0,0,-1,1931,1632,0,0
714,-608,0,0,0,0,0,0,0,0,0,-1,1938,1632,0,0
721,-608,0,0,0,0,0,0,0,0,0,-1,1945,1632,0,0
728,-608,0,0,0,0,0,0,0,0,0,-1,1952,1632,0,0
735,-608,0,0,0,0,0,0,0,0,0,-1,1959,1632,0,0
742,-608,0,0,0,0,0,0,0,0,0,-1,1966,1632,0,0
749,-608,0,0,0,0,0,0,0,0,0,-1,1973,1632,0,0
756,-608,0,0,0,0,0,0,0,0,0,-1,1980,1632,0,0
763,-608,0,0,0,0,0,0,0,0,0,-1,1987,1632,0,0
770,-608,0,0,0,0,0,0,0,0,0,-1,1994,1632,0,0
777,-608,0,0,0,0,0,0,0,0,0,-1,2001,1632,0,0
784,-608,0,0,0,0,0,0,0,0,0,-1,2008,1632,0,0
791,-608,0,0,0,0,0,0,0,0,0,-1,2015,1632,0,0
798,-608,0,0,0,0,0,0,0,0,0,-1,2022,1632,0,0
805,-608,0,0,0,0,0,0,0,0,0,-1,2029,1632,0,0
812,-608,0,0,0,0,0,0,0,0,0,-1,2036,1632,0,0
-700,-615,0,0,0,0,0,0,0,0,0,-1,524,1639,0,0
-693,-615,0,0,0,0,0,0,0,0,0,-1,531,1639,0,0
-686,-615,0,0,0,0,0,0,0,0,0,-1,538,1639,0,0
-679,-615,0,0,0,0,0,0,0,0,0,-1,545,1639,0,0
-672,-615,0,0,0,0,0,0,0,0,0,-1,552,1639,0,0
-665,-615,0,0,0,0,0,0,0,0,0,-1,559,1639,0,0
-658,-615,0,0,0,0,0,0,0,0,0,-1,566,1639,0,0
-651,-615,0,0,0,0,0,0,0,0,0,-1,573,1639,0,0
-644,-615,0,0,0,0,0,0,0,0,0,-1,580,1639,0,0
-637,-615,0,0,0,0,0,0,0,0,0,-1,587,1639,0,0
-630,-615,0,0,0,0,0,0,0,0,0,-1,594,1639,0,0
-623,-615,0,0,0,0,0,0,0,0,0,-1,601,1639,0,0
-616,-615,0,0,0,0,0,0,0,0,0,-1,608,1639,0,0
-609,-615,0,0,0,0,0,0,0,0,0,-1,615,1639,0,0
-602,-615,0,0,0,0,0,0,0,0,0,-1,622,1639,0,0
-595,-615,0,0,0,0,0,0,0,0,0,-1,629,1639,0,0
-588,-615,0,0,0,0,0,0,0,0,0,-1,636,1639,0,0
-581,-615,0,0,0,0,0,0,0,0,0,-1,643,1639,0,0
-574,-615,0,0,0,0,0,0,0,0,0,-1,650,1639,0,0
-567,-615,0,0,0,0,0,0,0,0,0,-1,657,1639,0,0
-560,-615,0,0,0,0,0,0,0,0,0,-1,664,1639,0,0
-553,-615,0,0,0,0,0,0,0,0,0,-1,671,1639,0,0
-546,-615,0,0,0,0,0,0,0,0,0,-1,678,1639,0,0
-539,-615,0,0,0,0,0,0,0,0,0,-1,685,1639,0,0
-532,-615,0,0,0,0,0,0,0,0,0,-1,692,1639,0,0
-525,-615,0,0,0,0,0,0,0,0,0,-1,699,1639,0,0
-518,-615,0,0,0,0,0,0,0,0,0,-1,706,1639,0,0
-511,-615,0,0,0,0,0,0,0,0,0,-1,713,1639,0,0
-504,-615,0,0,0,0,0,0,0,0,0,-1,720,1639,0,0
-497,-615,0,0,0,0,0,0,0,0,0,-1,727,1639,0,0
-490,-615,0,0,0,0,0,0,0,0,0,-1,734,1639,0,0
-483,-615,0,0,0,0,0,0,0,0,0,-1,741,1639,0,0
-476,-615,0,0,0,0,0,0,0,0,0,-1,748,1639,0,0
-469,-615,0,0,0,0,0,0,0,0,0,-1,755,1639,0,0
-462,-615,0,0,0,0,0,0,0,0,0,-1,762,1639,0,0
-455,-615,0,0,0,0,0,0,0,0,0,-1,769,1639,0,0
-448,-615,0,0,0,0,0,0,0,0,0,-1,776,1639,0,0
-441,-615,0,0,0,0,0,0,0,0,0,-1,783,1639,0,0
-434,-615,-7.64508,2.98596,0,0,0,0,0,0,0,-1,790,1639,-7.64505,-2.98594
-427,-615,-9.0011,2.89404,0,0,0,0,0,0,0,-1,797,1639,-9.00107,-2.89399
-420,-615,-8.07568,3.0752,0,0,0,0,0,0,0,-1,804,1639,-8.07569,-3.07514
-413,-615,-7.09149,3.396,0,0,0,0,0,0,0,-1,811,1639,-7.09147,-3.39599
-406,-615,-6.21368,3.7312,0,0,0,0,0,0,0,-1,818,1639,-6.21366,-3.73114
-399,-615,-4.84875,3.91907,0,0,0,0,0,0,0,-1,825,1639,-4.84877,-3.91901
-392,-615,-3.4469,5.28418,0,0,0,0,0,0,0,-1,832,1639,-3.44689,-5.28422
-385,-615,2.71283,10.6832,0,0,0,0,0,0,0,-1,839,1639,2.71283,-10.6832
-378,-615,2.69092,11.0468,0.0112443,-0.0320381,0.00137629,0.0112881,-0.0320818,0.0317552,0.0259812,0.0491356,846,1639,2.69093,-11.0468
-371,-615,2.65741,11.0491,0.0073574,-0.0266776,0.000441697,0.00736313,-0.0266834,0.0129748,0.0206848,0.0486709,853,1639,2.65741,-11.049
-364,-615,2.63855,10.9666,0.00454499,-0.0216366,-7.28322e-05,0.00454519,-0.0216368,-0.00278178,0.0161541,0.035099,860,1639,2.63854,-10.9665
-357,-615,2.60205,11.191,0.002878,-0.0165921,-0.000262223,0.00288153,-0.0165956,-0.0134647,0.0121388,0.0281597,867,1639,2.60206,-11.1911
-350,-615,2.57019,11.3599,0.00198363,-0.0123763,-0.000217375,0.00198692,-0.0123796,-0.015133,0.00898886,0.0264742,874,1639,2.57016,-11.3598
-343,-615,2.54675,11.5378,0.000945126,-0.00899076,-0.000153933,0.00094751,-0.00899315,-0.0154877,0.00633493,0.0197257,881,1639,2.54673,-11.5378
-336,-615,2.56799,11.7858,0.000907132,-0.00640788,-0.000108728,0.000908748,-0.0064095,-0.0148593,0.00460589,0.0103089,888,1639,2.56799,-11.7858
-329,-615,2.56543,12.0057,0.00055574,-0.00401723,-0.000199829,0.000564455,-0.00402595,-0.043587,0.00289054,0.0099432,895,1639,2.56544,-12.0057
-322,-615,2.57172,12.2219,0.000689384,-0.00237184,-7.7337e-05,0.000691336,-0.00237379,-0.025242,0.00185639,0.0106048,902,1639,2.57171,-12.2219
-315,-615,2.59277,12.4257,0.000593611,-0.00147837,-6.98339e-05,0.000595962,-0.00148072,-0.0336531,0.00123471,0.0130417,909,1639,2.59277,-12.4257
-308,-615,2.56226,12.644,0.000452543,-0.00100941,-0.000309611,0.000515409,-0.00107227,-0.200325,0.000935254,0.0194339,916,1639,2.56225,-12.644
-301,-615,2.5647,12.8389,0.00026633,-0.00104228,-0.000693223,0.000565268,-0.00134122,-0.407135,0.00113069,0.0115419,923,1639,2.56467,-12.8389
-294,-615,2.57068,13.0366,0.00013279,-0.00170921,-0.00116307,0.000695357,-0.00227177,-0.450516,0.00179185,0.00949686,930,1639,2.57066,-13.0366
-287,-615,2.55817,13.2476,0.000110262,-0.00232217,-0.00156791,0.000878367,-0.00309028,-0.455527,0.002407,0.00707955,937,1639,2.55817,-13.2475
-280,-615,2.57111,13.4365,0.000142608,-0.00322209,-0.00204238,0.00110631,-0.0041858,-0.440879,0.00322322,0.00793604,944,1639,2.57108,-13.4365
-273,-615,2.57495,13.645,0.000315083,-0.00427909,-0.00254804,0.00144861,-0.00541262,-0.418573,0.0041759,0.00965456,951,1639,2.57498,-13.645
-266,-615,2.57928,13.8444,0.000622968,-0.00558562,-0.00293357,0.00178979,-0.00675244,-0.378565,0.0052019,0.0102258,958,1639,2.5793,-13.8444
-259,-615,2.60083,14.0392,0.00105056,-0.00696566,-0.00309995,0.00210947,-0.00802456,-0.329161,0.00617417,0.0113109,965,1639,2.60085,-14.0392
-252,-615,2.59814,14.2137,0.00168762,-0.00852109,-0.00340177,0.00271731,-0.00955078,-0.293925,0.00744024,0.0125454,972,1639,2.59813,-14.2137
-245,-615,2.58765,14.3684,0.00251615,-0.0105377,-0.00345776,0.00337549,-0.011397,-0.24359,0.0089382,0.0191572,979,1639,2.58762,-14.3684
-238,-615,2.6369,14.5457,0.00311538,-0.0127475,-0.00335985,0.00379767,-0.0134298,-0.200347,0.0104517,0.0279706,986,1639,2.63691,-14.5457
-231,-615,2.68683,14.6926,0.00347422,-0.0141606,-0.00323099,0.00404756,-0.0147339,-0.17562,0.0114136,0.0380714,993,1639,2.68685,-14.6927
-224,-615,2.81903,14.9034,0,0,0,0,0,0,0,-1,1000,1639,2.81906,-14.9035
-217,-615,3.19928,14.6942,0,0,0,0,0,0,0,-1,1007,1639,3.19926,-14.6942
-210,-615,3.15082,15.1782,0,0,0,0,0,0,0,-1,1014,1639,3.1508,-15.1782
-203,-615,2.4707,15.0295,0,0,0,0,0,0,0,-1,1021,1639,2.47069,-15.0295
-196,-615,2.7948,15.1359,0,0,0,0,0,0,0,-1,1028,1639,2.79481,-15.1358
-189,-615,3.1189,15.2422,0,0,0,0,0,0,0,-1,1035,1639,3.11894,-15.2422
-182,-615,3.96594,14.7101,0,0,0,0,0,0,0,-1,1042,1639,3.9659,-14.71
-175,-615,-0.609985,13.8434,0,0,0,0,0,0,0,-1,1049,1639,-0.610016,-13.8434
-168,-615,2.02783,9.96631,0,0,0,0,0,0,0,-1,1056,1639,2.0278,-9.96637
-161,-615,0.378418,15.2075,0,0,0,0,0,0,0,-1,1063,1639,0.378426,-15.2076
-154,-615,2.69788,13.7036,0,0,0,0,0,0,0,-1,1070,1639,2.69788,-13.7036
-147,-615,1.44019,13.1343,0,0,0,0,0,0,0,-1,1077,1639,1.44018,-13.1343
-140,-615,3.73401,10.2349,0,0,0,0,0,0,0,-1,1084,1639,3.73402,-10.2348
-133,-615,2.6178,17.45,0,0,0,0,0,0,0,-1,1091,1639,2.61776,-17.4499
-126,-615,4.43408,12.5017,0,0,0,0,0,0,0,-1,1098,1639,4.43403,-12.5018
-119,-615,4.82983,13.9279,0,0,0,0,0,0,0,-1,1105,1639,4.82986,-13.9278
-112,-615,3.65698,14.4874,0,0,0,0,0,0,0,-1,1112,1639,3.65695,-14.4875
-105,-615,0.958496,2.45398,0,0,0,0,0,0,0,-1,1119,1639,0.958452,-2.45398
-98,-615,-0.647705,2.12109,0,0,0,0,0,0,0,-1,1126,1639,-0.647756,-2.12105
-91,-615,-1.48572,0.604492,0,0,0,0,0,0,0,-1,1133,1639,-1.48576,-0.604443
-84,-615,-2.46509,0.703247,0,0,0,0,0,0,0,-1,1140,1639,-2.46505,-0.703273
-77,-615,-3.17859,1.23755,0,0,0,0,0,0,0,-1,1147,1639,-3.17865,-1.23752
-70,-615,-4.03943,1.43335,0,0,0,0,0,0,0,-1,1154,1639,-4.03942,-1.43339
-63,-615,-4.8877,1.45544,0,0,0,0,0,0,0,-1,1161,1639,-4.88766,-1.45549
-56,-615,0,0,0,0,0,0,0,0,0,-1,1168,1639,0,0
-49,-615,0,0,0,0,0,0,0,0,0,-1,1175,1639,0,0
-42,-615,0,0,0,0,0,0,0,0,0,-1,1182,1639,0,0
-35,-615,0,0,0,0,0,0,0,0,0,-1,1189,1639,0,0
-28,-615,0,0,0,0,0,0,0,0,0,-1,1196,1639,0,0
-21,-615,0,0,0,0,0,0,0,0,0,-1,1203,1639,0,0
-14,-615,0,0,0,0,0,0,0,0,0,-1,1210,1639,0,0
-7,-615,0,0,0,0,0,0,0,0,0,-1,1217,1639,0,0
0,-615,0,0,0,0,0,0,0,0,0,-1,1224,1639,0,0
7,-615,0,0,0,0,0,0,0,0,0,-1,1231,1639,0,0
14,-615,0,0,0,0,0,0,0,0,0,-1,1238,1639,0,0
21,-615,0,0,0,0,0,0,0,0,0,-1,1245,1639,0,0
28,-615,0,0,0,0,0,0,0,0,0,-1,1252,1639,0,0
35,-615,0,0,0,0,0,0,0,0,0,-1,1259,1639,0,0
42,-615,0,0,0,0,0,0,0,0,0,-1,1266,1639,0,0
49,-615,0,0,0,0,0,0,0,0,0,-1,1273,1639,0,0
56,-615,0,0,0,0,0,0,0,0,0,-1,1280,1639,0,0
63,-615,0,0,0,0,0,0,0,0,0,-1,1287,1639,0,0
70,-615,0,0,0,0,0,0,0,0,0,-1,1294,1639,0,0
77,-615,0,0,0,0,0,0,0,0,0,-1,1301,1639,0,0
84,-615,0,0,0,0,0,0,0,0,0,-1,1308,1639,0,0
91,-615,0,0,0,0,0,0,0,0,0,-1,1315,1639,0,0
98,-615,0,0,0,0,0,0,0,0,0,-1,1322,1639,0,0
105,-615,0,0,0,0,0,0,0,0,0,-1,1329,1639,0,0
112,-615,0,0,0,0,0,0,0,0,0,-1,1336,1639,0,0
119,-615,0,0,0,0,0,0,0,0,0,-1,1343,1639,0,0
126,-615,0,0,0,0,0,0,0,0,0,-1,1350,1639,0,0
133,-615,0,0,0,0,0,0,0,0,0,-1,1357,1639,0,0
140,-615,0,0,0,0,0,0,0,0,0,-1,1364,1639,0,0
147,-615,0,0,0,0,0,0,0,0,0,-1,1371,1639,0,0
154,-615,0,0,0,0,0,0,0,0,0,-1,1378,1639,0,0
161,-615,0,0,0,0,0,0,0,0,0,-1,1385,1639,0,0
168,-615,0,0,0,0,0,0,0,0,0,-1,1392,1639,0,0
175,-615,5.39648,-2.00879,0,0,0,0,0,0,0,-1,1399,1639,5.3965,2.00881
182,-615,5.65393,-1.51025,0,0,0,0,0,0,0,-1,1406,1639,5.65388,1.51028
189,-615,5.58972,-1.35608,0,0,0,0,0,0,0,-1,1413,1639,5.58967,1.35607
196,-615,5.49915,-0.693604,0,0,0,0,0,0,0,-1,1420,1639,5.4991,0.693602
203,-615,5.33411,-0.226685,0,0,0,0,0,0,0,-1,1427,1639,5.33414,0.226689
210,-615,5.60278,0.108276,0,0,0,0,0,0,0,-1,1434,1639,5.60284,-0.10831
217,-615,6.26331,-0.307373,0,0,0,0,0,0,0,-1,1441,1639,6.26331,0.307372
224,-615,5.45422,-0.333984,0,0,0,0,0,0,0,-1,1448,1639,5.45422,0.333992
231,-615,4.92542,1.80298,0,0,0,0,0,0,0,-1,1455,1639,4.92537,-1.80297
238,-615,4.76355,1.96729,0,0,0,0,0,0,0,-1,1462,1639,4.76357,-1.96734
245,-615,4.08643,3.15906,0,0,0,0,0,0,0,-1,1469,1639,4.08638,-3.159
252,-615,6.37805,3.73889,0,0,0,0,0,0,0,-1,1476,1639,6.37806,-3.73891
259,-615,8.35974,3.16443,0,0,0,0,0,0,0,-1,1483,1639,8.35975,-3.16444
266,-615,10.3414,2.58997,0,0,0,0,0,0,0,-1,1490,1639,10.3414,-2.58996
273,-615,6.57043,1.84766,0,0,0,0,0,0,0,-1,1497,1639,6.5704,-1.84771
280,-615,7.10449,3.23438,0,0,0,0,0,0,0,-1,1504,1639,7.10447,-3.23435
287,-615,7.35779,4.68542,0,0,0,0,0,0,0,-1,1511,1639,7.35776,-4.68546
294,-615,7.63733,6.29114,0,0,0,0,0,0,0,-1,1518,1639,7.63735,-6.29109
301,-615,8.47925,11.452,0,0,0,0,0,0,0,-1,1525,1639,8.47922,-11.452
308,-615,6.8114,10.9059,0,0,0,0,0,0,0,-1,1532,1639,6.81137,-10.9058
315,-615,5.1427,14.7251,0,0,0,0,0,0,0,-1,1539,1639,5.14269,-14.7251
322,-615,7.8822,14.9136,0,0,0,0,0,0,0,-1,1546,1639,7.88221,-14.9135
329,-615,7.16614,14.5137,0,0,0,0,0,0,0,-1,1553,1639,7.16616,-14.5137
336,-615,6.45007,14.1138,0,0,0,0,0,0,0,-1,1560,1639,6.45011,-14.1138
343,-615,2.40491,6.50134,0,0,0,0,0,0,0,-1,1567,1639,2.40489,-6.50137
350,-615,6.4458,15.4594,0,0,0,0,0,0,0,-1,1574,1639,6.44578,-15.4593
357,-615,7.19263,15.6362,0,0,0,0,0,0,0,-1,1581,1639,7.19265,-15.6363
364,-615,7.20764,15.4738,0,0,0,0,0,0,0,-1,1588,1639,7.20759,-15.4737
371,-615,7.21948,15.4532,-0.000182867,-0.00931204,0.00630829,0.00303907,-0.012534,0.472208,0.00953189,0.0429199,1595,1639,7.21944,-15.4533
378,-615,7.11035,15.2263,-0.00164282,-0.00820227,0.00668782,0.00252619,-0.0123713,0.557428,0.00920584,0.0220051,1602,1639,7.11035,-15.2263
385,-615,7.12964,15.0382,-0.00225758,-0.00755605,0.0065335,0.00214337,-0.011957,0.592786,0.0087735,0.0118915,1609,1639,7.12967,-15.0382
392,-615,7.12378,14.8722,-0.00226246,-0.00683823,0.00636961,0.00221769,-0.0113184,0.61298,0.00838317,0.00933346,1616,1639,7.12372,-14.8722
399,-615,7.11255,14.7123,-0.00221081,-0.00602507,0.00579132,0.00197931,-0.0102152,0.626336,0.00755681,0.0104731,1623,1639,7.11261,-14.7123
406,-615,7.12549,14.5288,-0.00207309,-0.00526956,0.00501566,0.00159282,-0.00893546,0.63116,0.00655276,0.0110908,1630,1639,7.12544,-14.5288
413,-615,7.13586,14.3741,-0.00182464,-0.00464721,0.00429642,0.00128635,-0.0077582,0.62671,0.00564994,0.011973,1637,1639,7.13585,-14.3741
420,-615,7.12891,14.2014,-0.00147398,-0.00430031,0.00366735,0.00104306,-0.00681735,0.601496,0.00492951,0.0127744,1644,1639,7.12896,-14.2014
427,-615,7.13745,13.994,-0.00106742,-0.00425639,0.00311562,0.000838023,-0.00616183,0.548889,0.00441383,0.0142516,1651,1639,7.13743,-13.994
434,-615,7.15051,13.8044,-0.000761842,-0.00431196,0.0026355,0.000640628,-0.00571443,0.489033,0.00404013,0.0137761,1658,1639,7.15046,-13.8045
441,-615,7.15198,13.6079,-0.000391026,-0.00468113,0.00217086,0.000515788,-0.00558794,0.395689,0.00390858,0.013504,1665,1639,7.15202,-13.6079
448,-615,7.1377,13.4218,4.55846e-05,-0.00516151,0.0017859,0.000599237,-0.00571516,0.300617,0.00402475,0.0149025,1672,1639,7.13767,-13.4218
455,-615,7.12744,13.2639,0.000454444,-0.00584516,0.00153547,0.000808771,-0.00619948,0.226791,0.00442727,0.0143222,1679,1639,7.12745,-13.2639
462,-615,7.13806,13.0607,0.000915828,-0.00667226,0.00134535,0.0011473,-0.00690373,0.170382,0.00502873,0.0144857,1686,1639,7.138,-13.0606
469,-615,7.12646,12.8541,0.00136192,-0.00754954,0.00111483,0.00149926,-0.00768689,0.122584,0.00569056,0.0127106,1693,1639,7.12642,-12.8541
476,-615,7.12341,12.6418,0.00178837,-0.00825439,0.000822903,0.00185535,-0.00832137,0.081218,0.00625838,0.0108662,1700,1639,7.12345,-12.6419
483,-615,7.12415,12.4081,0.00224281,-0.0086396,0.000496672,0.00226543,-0.00866222,0.0455137,0.00665966,0.0141099,1707,1639,7.12418,-12.4081
490,-615,7.13269,12.188,0.00305959,-0.00931751,3.30076e-05,0.00305968,-0.0093176,0.0026668,0.00744426,0.0165306,1714,1639,7.1327,-12.188
497,-615,7.10632,12.0068,0.00407232,-0.00985647,-0.000537382,0.00409302,-0.00987717,-0.0385044,0.00829294,0.0245524,1721,1639,7.10638,-12.0069
504,-615,7.10986,11.7805,0.00525556,-0.00974688,-0.001564,0.00541687,-0.0099082,-0.102777,0.0089737,0.0463061,1728,1639,7.10984,-11.7805
511,-615,7.1864,11.691,0,0,0,0,0,0,0,-1,1735,1639,7.18643,-11.6911
518,-615,7.35779,10.4647,0,0,0,0,0,0,0,-1,1742,1639,7.35773,-10.4647
525,-615,4.37524,3.90491,0,0,0,0,0,0,0,-1,1749,1639,4.37518,-3.90495
532,-615,7.3645,0.848145,0,0,0,0,0,0,0,-1,1756,1639,7.36451,-0.848093
539,-615,12.8112,-0.0476074,0,0,0,0,0,0,0,-1,1763,1639,12.8111,0.0475553
546,-615,8.33813,2.94556,0,0,0,0,0,0,0,-1,1770,1639,8.33813,-2.9455
553,-615,5.82532,-2.04199,0,0,0,0,0,0,0,-1,1777,1639,5.82534,2.04195
560,-615,0,0,0,0,0,0,0,0,0,-1,1784,1639,0,0
567,-615,0,0,0,0,0,0,0,0,0,-1,1791,1639,0,0
574,-615,0,0,0,0,0,0,0,0,0,-1,1798,1639,0,0
581,-615,0,0,0,0,0,0,0,0,0,-1,1805,1639,0,0
588,-615,0,0,0,0,0,0,0,0,0,-1,1812,1639,0,0
595,-615,0,0,0,0,0,0,0,0,0,-1,1819,1639,0,0
602,-615,0,0,0,0,0,0,0,0,0,-1,1826,1639,0,0
609,-615,0,0,0,0,0,0,0,0,0,-1,1833,1639,0,0
616,-615,0,0,0,0,0,0,0,0,0,-1,1840,1639,0,0
623,-615,0,0,0,0,0,0,0,0,0,-1,1847,1639,0,0
630,-615,0,0,0,0,0,0,0,0,0,-1,1854,1639,0,0
637,-615,0,0,0,0,0,0,0,0,0,-1,1861,1639,0,0
644,-615,0,0,0,0,0,0,0,0,0,-1,1868,1639,0,0
651,-615,0,0,0,0,0,0,0,0,0,-1,1875,1639,0,0
658,-615,0,0,0,0,0,0,0,0,0,-1,1882,1639,0,0
665,-615,0,0,0,0,0,0,0,0,0,-1,1889,1639,0,0
672,-615,0,0,0,0,0,0,0,0,0,-1,1896,1639,0,0
679,-615,0,0,0,0,0,0,0,0,0,-1,1903,1639,0,0
686,-615,0,0,0,0,0,0,0,0,0,-1,1910,1639,0,0
693,-615,0,0,0,0,0,0,0,0,0,-1,1917,1639,0,0
700,-615,0,0,0,0,0,0,0,0,0,-1,1924,1639,0,0
707,-615,0,0,0,0,0,0,0,0,0,-1,1931,1639,0,0
714,-615,0,0,0,0,0,0,0,0,0,-1,1938,1639,0,0
721,-615,0,0,0,0,0,0,0,0,0,-1,1945,1639,0,0
728,-615,0,0,0,0,0,0,0,0,0,-1,1952,1639,0,0
735,-615,0,0,0,0,0,0,0,0,0,-1,1959,1639,0,0
742,-615,0,0,0,0,0,0,0,0,0,-1,1966,1639,0,0
749,-615,0,0,0,0,0,0,0,0,0,-1,1973,1639,0,0
756,-615,0,0,0,0,0,0,0,0,0,-1,1980,1639,0,0
763,-615,0,0,0,0,0,0,0,0,0,-1,1987,1639,0,0
770,-615,0,0,0,0,0,0,0,0,0,-1,1994,1639,0,0
777,-615,0,0,0,0,0,0,0,0,0,-1,2001,1639,0,0
784,-615,0,0,0,0,0,0,0,0,0,-1,2008,1639,0,0
791,-615,0,0,0,0,0,0,0,0,0,-1,2015,1639,0,0
798,-615,0,0,0,0,0,0,0,0,0,-1,2022,1639,0,0
805,-615,0,0,0,0,0,0,0,0,0,-1,2029,1639,0,0
812,-615,0,0,0,0,0,0,0,0,0,-1,2036,1639,0,0
-700,-622,0,0,0,0,0,0,0,0,0,-1,524,1646,0,0
-693,-622,0,0,0,0,0,0,0,0,0,-1,531,1646,0,0
-686,-622,0,0,0,0,0,0,0,0,0,-1,538,1646,0,0
-679,-622,0,0,0,0,0,0,0,0,0,-1,545,1646,0,0
-672,-622,0,0,0,0,0,0,0,0,0,-1,552,1646,0,0
-665,-622,0,0,0,0,0,0,0,0,0,-1,559,1646,0,0
-658,-622,0,0,0,0,0,0,0,0,0,-1,566,1646,0,0
-651,-622,0,0,0,0,0,0,0,0,0,-1,573,1646,0,0
-644,-622,0,0,0,0,0,0,0,0,0,-1,580,1646,0,0
-637,-622,0,0,0,0,0,0,0,0,0,-1,587,1646,0,0
-630,-622,0,0,0,0,0,0,0,0,0,-1,594,1646,0,0
-623,-622,0,0,0,0,0,0,0,0,0,-1,601,1646,0,0
-616,-622,0,0,0,0,0,0,0,0,0,-1,608,1646,0,0
-609,-622,0,0,0,0,0,0,0,0,0,-1,615,1646,0,0
-602,-622,0,0,0,0,0,0,0,0,0,-1,622,1646,0,0
-595,-622,0,0,0,0,0,0,0,0,0,-1,629,1646,0,0
-588,-622,0,0,0,0,0,0,0,0,0,-1,636,1646,0,0
-581,-622,0,0,0,0,0,0,0,0,0,-1,643,1646,0,0
-574,-622,0,0,0,0,0,0,0,0,0,-1,650,1646,0,0
-567,-622,0,0,0,0,0,0,0,0,0,-1,657,1646,0,0
-560,-622,0,0,0,0,0,0,0,0,0,-1,664,1646,0,0
-553,-622,0,0,0,0,0,0,0,0,0,-1,671,1646,0,0
-546,-622,0,0,0,0,0,0,0,0,0,-1,678,1646,0,0
-539,-622,0,0,0,0,0,0,0,0,0,-1,685,1646,0,0
-532,-622,0,0,0,0,0,0,0,0,0,-1,692,1646,0,0
-525,-622,0,0,0,0,0,0,0,0,0,-1,699,1646,0,0
-518,-622,0,0,0,0,0,0,0,0,0,-1,706,1646,0,0
-511,-622,0,0,0,0,0,0,0,0,0,-1,713,1646,0,0
-504,-622,0,0,0,0,0,0,0,0,0,-1,720,1646,0,0
-497,-622,0,0,0,0,0,0,0,0,0,-1,727,1646,0,0
-490,-622,0,0,0,0,0,0,0,0,0,-1,734,1646,0,0
-483,-622,0,0,0,0,0,0,0,0,0,-1,741,1646,0,0
-476,-622,0,0,0,0,0,0,0,0,0,-1,748,1646,0,0
-469,-622,0,0,0,0,0,0,0,0,0,-1,755,1646,0,0
-462,-622,0,0,0,0,0,0,0,0,0,-1,762,1646,0,0
-455,-622,0,0,0,0,0,0,0,0,0,-1,769,1646,0,0
-448,-622,0,0,0,0,0,0,0,0,0,-1,776,1646,0,0
-441,-622,0,0,0,0,0,0,0,0,0,-1,783,1646,0,0
-434,-622,0,0,0,0,0,0,0,0,0,-1,790,1646,0,0
-427,-622,-7.62891,3.48096,0,0,0,0,0,0,0,-1,797,1646,-7.62892,-3.48092
-420,-622,-9.35791,1.77185,0,0,0,0,0,0,0,-1,804,1646,-9.35789,-1.77183
-413,-622,-8.46075,1.96777,0,0,0,0,0,0,0,-1,811,1646,-8.46074,-1.96774
-406,-622,-4.44318,2.16858,0,0,0,0,0,0,0,-1,818,1646,-4.44315,-2.16859
-399,-622,-7.06976,1.51001,0,0,0,0,0,0,0,-1,825,1646,-7.06976,-1.51005
-392,-622,3.89551,5.85376,0,0,0,0,0,0,0,-1,832,1646,3.8955,-5.85379
-385,-622,2.2995,11.1542,0,0,0,0,0,0,0,-1,839,1646,2.29953,-11.1541
-378,-622,2.72198,11.6431,0,0,0,0,0,0,0,-1,846,1646,2.72197,-11.6431
-371,-622,2.81384,11.3743,0,0,0,0,0,0,0,-1,853,1646,2.81383,-11.3743
-364,-622,2.69586,11.3857,0.00810694,-0.0279088,0.000396696,0.00811131,-0.0279131,0.0110127,0.021821,0.0454511,860,1646,2.69585,-11.3858
-357,-622,2.62756,11.5023,0.0050944,-0.020896,4.92367e-05,0.00509449,-0.0208961,0.00189441,0.0159032,0.0435961,867,1646,2.62757,-11.5024
-350,-622,2.76416,11.5093,0.00326291,-0.0152085,-1.99451e-05,0.00326294,-0.0152085,-0.00107978,0.0113836,0.0398328,874,1646,2.76414,-11.5093
-343,-622,2.68121,11.6016,0.00137921,-0.0101103,-0.000189359,0.00138233,-0.0101134,-0.016475,0.00724714,0.0276144,881,1646,2.68121,-11.6016
-336,-622,2.77704,11.7733,0.0012063,-0.00675434,-0.000184252,0.00121056,-0.00675861,-0.0231289,0.00495876,0.00934309,888,1646,2.77702,-11.7733
-329,-622,2.77997,11.9985,0.000672106,-0.00368072,-0.00035926,0.000701558,-0.00371017,-0.0817973,0.00273743,0.00819541,895,1646,2.77996,-11.9985
-322,-622,2.78296,12.2185,0.000868269,-0.00170917,-0.000178644,0.000880592,-0.0017215,-0.0688718,0.00152824,0.00952285,902,1646,2.78297,-12.2185
-315,-622,2.77283,12.4321,0.000820054,-0.000629946,-9.89124e-05,0.00082677,-0.000636662,-0.0677969,0.000847286,0.0130374,909,1646,2.77284,-12.4321
-308,-622,2.76642,12.6307,0.000731356,-2.54353e-05,-0.000254814,0.000809155,-0.000103234,-0.296327,0.000576935,0.0132596,916,1646,2.76641,-12.6308
-301,-622,2.76813,12.835,0.000583573,9.22688e-06,-0.000545041,0.000912466,-0.000319667,-0.542937,0.000738306,0.012508,923,1646,2.76815,-12.8349
-294,-622,2.77148,13.0444,0.00047088,-0.000577243,-0.000867425,0.000960261,-0.00106662,-0.513663,0.00117076,0.00998703,930,1646,2.77148,-13.0444
-287,-622,2.7663,13.257,0.00043405,-0.00116873,-0.00113077,0.00101861,-0.00175329,-0.477123,0.00161899,0.00748747,937,1646,2.76631,-13.2569
-280,-622,2.76953,13.4497,0.000438257,-0.00202833,-0.00143752,0.00109903,-0.0026891,-0.430858,0.00225038,0.00790169,944,1646,2.76955,-13.4498
-273,-622,2.78131,13.6182,0.000576663,-0.00298992,-0.00175339,0.00129427,-0.00370753,-0.388472,0.00299774,0.0118272,951,1646,2.78132,-13.6182
-266,-622,2.75696,13.8193,0.000835872,-0.00411257,-0.00195026,0.00151209,-0.00478879,-0.333762,0.00379824,0.0122981,958,1646,2.75694,-13.8193
-259,-622,2.77704,14.0422,0.00119274,-0.00519003,-0.00197954,0.00175682,-0.00575412,-0.277598,0.00453653,0.0118772,965,1646,2.77702,-14.0422
-252,-622,2.78729,14.2369,0.0016908,-0.00635487,-0.00212712,0.00221856,-0.00688263,-0.243196,0.00547974,0.0122665,972,1646,2.7873,-14.237
-245,-622,2.79504,14.4312,0.00230468,-0.00779884,-0.0021414,0.0027398,-0.00823396,-0.200466,0.00659508,0.00937447,979,1646,2.79506,-14.4311
-238,-622,2.8114,14.606,0.00279802,-0.00913438,-0.00209986,0.00315677,-0.00949312,-0.16921,0.0076027,0.0101052,986,1646,2.81141,-14.6059
-231,-622,2.84265,14.7781,0.00310129,-0.0101554,-0.00205548,0.00341268,-0.0104668,-0.15035,0.0083512,0.0140121,993,1646,2.84265,-14.778
-224,-622,2.92566,14.9084,0.00335738,-0.0118176,-0.00217435,0.00366278,-0.0121231,-0.139545,0.00954029,0.0231173,1000,1646,2.92565,-14.9084
-217,-622,3.07324,14.9266,0.00336166,-0.0131638,-0.00212175,0.00362973,-0.0134318,-0.125678,0.0103782,0.0357319,1007,1646,3.07325,-14.9267
-210,-622,3.1474,15.1689,0.00292038,-0.0135922,-0.00318758,0.00351434,-0.0141862,-0.184224,0.0108208,0.0490505,1014,1646,3.14739,-15.169
-203,-622,3.36597,15.3301,0,0,0,0,0,0,0,-1,1021,1646,3.36598,-15.3301
-196,-622,2.82605,15.1266,0,0,0,0,0,0,0,-1,1028,1646,2.82606,-15.1266
-189,-622,2.97644,15.3265,0,0,0,0,0,0,0,-1,1035,1646,2.97645,-15.3265
-182,-622,2.79529,15.79,0,0,0,0,0,0,0,-1,1042,1646,2.79532,-15.7901
-175,-622,2.56091,11.0195,0,0,0,0,0,0,0,-1,1049,1646,2.56095,-11.0195
-168,-622,4.76489,10.7617,0,0,0,0,0,0,0,-1,1056,1646,4.76491,-10.7617
-161,-622,3.3446,16.3607,0,0,0,0,0,0,0,-1,1063,1646,3.34455,-16.3607
-154,-622,3.22949,15.7997,0,0,0,0,0,0,0,-1,1070,1646,3.22945,-15.7997
-147,-622,3.06201,15.1429,0,0,0,0,0,0,0,-1,1077,1646,3.06203,-15.143
-140,-622,3.27515,16.0353,0,0,0,0,0,0,0,-1,1084,1646,3.27519,-16.0353
-133,-622,3.09644,17.677,0,0,0,0,0,0,0,-1,1091,1646,3.09638,-17.677
-126,-622,3.5061,19.5251,0,0,0,0,0,0,0,-1,1098,1646,3.50616,-19.5252
-119,-622,4.06384,13.1715,0,0,0,0,0,0,0,-1,1105,1646,4.06379,-13.1716
-112,-622,4.33276,14.6605,0,0,0,0,0,0,0,-1,1112,1646,4.33281,-14.6605
-105,-622,0.306519,4.38159,0,0,0,0,0,0,0,-1,1119,1646,0.306536,-4.38159
-98,-622,-0.510376,3.5033,0,0,0,0,0,0,0,-1,1126,1646,-0.510393,-3.50324
-91,-622,-1.146,0.975952,0,0,0,0,0,0,0,-1,1133,1646,-1.14599,-0.97597
-84,-622,-2.04895,1.31787,0,0,0,0,0,0,0,-1,1140,1646,-2.0489,-1.31781
-77,-622,-1.80627,0.332275,0,0,0,0,0,0,0,-1,1147,1646,-1.80622,-0.33223
-70,-622,-3.65588,2.28149,0,0,0,0,0,0,0,-1,1154,1646,-3.65589,-2.28155
-63,-622,-2.49683,1.27087,0,0,0,0,0,0,0,-1,1161,1646,-2.49679,-1.27093
-56,-622,-2.44238,-0.575562,0,0,0,0,0,0,0,-1,1168,1646,-2.44242,0.575508
-49,-622,-2.41089,1.38818,0,0,0,0,0,0,0,-1,1175,1646,-2.41088,-1.38815
-42,-622,-2.71497,2.85242,0,0,0,0,0,0,0,-1,1182,1646,-2.71491,-2.85247
-35,-622,-3.0177,4.25842,0,0,0,0,0,0,0,-1,1189,1646,-3.01773,-4.25838
-28,-622,-0.896606,0.678833,0,0,0,0,0,0,0,-1,1196,1646,-0.89661,-0.678835
-21,-622,6.63062,12.6195,0,0,0,0,0,0,0,-1,1203,1646,6.63065,-12.6195
-14,-622,6.45715,18.9615,0,0,0,0,0,0,0,-1,1210,1646,6.45717,-18.9616
-7,-622,5.46753,19.3523,0,0,0,0,0,0,0,-1,1217,1646,5.46749,-19.3523
0,-622,0,0,0,0,0,0,0,0,0,-1,1224,1646,0,0
7,-622,0,0,0,0,0,0,0,0,0,-1,1231,1646,0,0
14,-622,0,0,0,0,0,0,0,0,0,-1,1238,1646,0,0
21,-622,0,0,0,0,0,0,0,0,0,-1,1245,1646,0,0
28,-622,0,0,0,0,0,0,0,0,0,-1,1252,1646,0,0
35,-622,0,0,0,0,0,0,0,0,0,-1,1259,1646,0,0
42,-622,0,0,0,0,0,0,0,0,0,-1,1266,1646,0,0
49,-622,0,0,0,0,0,0,0,0,0,-1,1273,1646,0,0
56,-622,0,0,0,0,0,0,0,0,0,-1,1280,1646,0,0
63,-622,0,0,0,0,0,0,0,0,0,-1,1287,1646,0,0
70,-622,0,0,0,0,0,0,0,0,0,-1,1294,1646,0,0
77,-622,0,0,0,0,0,0,0,0,0,-1,1301,1646,0,0
84,-622,0,0,0,0,0,0,0,0,0,-1,1308,1646,0,0
91,-622,0,0,0,0,0,0,0,0,0,-1,1315,1646,0,0
98,-622,0,0,0,0,0,0,0,0,0,-1,1322,1646,0,0
105,-622,0,0,0,0,0,0,0,0,0,-1,1329,1646,0,0
112,-622,0,0,0,0,0,0,0,0,0,-1,1336,1646,0,0
119,-622,0,0,0,0,0,0,0,0,0,-1,1343,1646,0,0
126,-622,7.18408,15.6743,-0.0144233,0.0204414,-0.00358311,0.0208058,-0.0147877,-1.46944,0.0206476,0.0439851,1350,1646,7.18404,-15.6743
133,-622,6.81897,14.7659,-0.00707174,-0.00962407,-0.0252338,0.0169182,-0.033614,-0.760133,0.0297008,0.0491263,1357,1646,6.81895,-14.7659
140,-622,6.66589,13.6985,0.00290187,-0.0456061,-0.0473991,0.031892,-0.0745962,-0.548918,0.0631074,0.0492117,1364,1646,6.66591,-13.6985
147,-622,6.7002,12.8676,0,0,0,0,0,0,0,-1,1371,1646,6.7002,-12.8675
154,-622,22.1956,13.4941,0,0,0,0,0,0,0,-1,1378,1646,22.1956,-13.4941
161,-622,10.6884,6.46448,0,0,0,0,0,0,0,-1,1385,1646,10.6883,-6.46442
168,-622,12.2402,5.18091,0,0,0,0,0,0,0,-1,1392,1646,12.2403,-5.1809
175,-622,5.64355,-1.77075,0,0,0,0,0,0,0,-1,1399,1646,5.64351,1.77077
182,-622,5.88586,-1.32251,0,0,0,0,0,0,0,-1,1406,1646,5.88587,1.32256
189,-622,5.97986,-1.18005,0,0,0,0,0,0,0,-1,1413,1646,5.97986,1.18003
196,-622,5.85022,-0.244507,0,0,0,0,0,0,0,-1,1420,1646,5.85026,0.244478
203,-622,5.25159,0.138794,0,0,0,0,0,0,0,-1,1427,1646,5.25162,-0.138822
210,-622,6.66833,0.0397949,0,0,0,0,0,0,0,-1,1434,1646,6.6684,-0.0398278
217,-622,6.12061,0.0506592,0,0,0,0,0,0,0,-1,1441,1646,6.12058,-0.0507181
224,-622,5.57275,0.0616455,0,0,0,0,0,0,0,-1,1448,1646,5.57276,-0.0616084
231,-622,5.31348,1.3949,0,0,0,0,0,0,0,-1,1455,1646,5.31342,-1.39495
238,-622,3.76477,2.90686,0,0,0,0,0,0,0,-1,1462,1646,3.7648,-2.90686
245,-622,5.13794,2.67993,0,0,0,0,0,0,0,-1,1469,1646,5.13796,-2.67992
252,-622,6.66528,2.53992,0,0,0,0,0,0,0,-1,1476,1646,6.66522,-2.53991
259,-622,8.93787,3.31458,0,0,0,0,0,0,0,-1,1483,1646,8.93791,-3.31454
266,-622,5.72644,3.11926,0,0,0,0,0,0,0,-1,1490,1646,5.72647,-3.1192
273,-622,7.28076,3.61218,0,0,0,0,0,0,0,-1,1497,1646,7.28071,-3.61212
280,-622,8.43127,4.4447,0,0,0,0,0,0,0,-1,1504,1646,8.43123,-4.44467
287,-622,8.60315,5.94617,0,0,0,0,0,0,0,-1,1511,1646,8.60319,-5.94622
294,-622,7.62756,11.5143,0,0,0,0,0,0,0,-1,1518,1646,7.62762,-11.5143
301,-622,7.36548,11.6569,0,0,0,0,0,0,0,-1,1525,1646,7.36549,-11.6569
308,-622,7.10339,11.7994,0,0,0,0,0,0,0,-1,1532,1646,7.10335,-11.7995
315,-622,6.18176,16.4979,0,0,0,0,0,0,0,-1,1539,1646,6.18176,-16.4979
322,-622,6.77222,16.067,0,0,0,0,0,0,0,-1,1546,1646,6.77216,-16.067
329,-622,7.04797,15.3766,0,0,0,0,0,0,0,-1,1553,1646,7.04798,-15.3766
336,-622,6.51794,15.6017,0,0,0,0,0,0,0,-1,1560,1646,6.5179,-15.6017
343,-622,6.53455,15.5449,0,0,0,0,0,0,0,-1,1567,1646,6.53453,-15.545
350,-622,6.97473,15.6886,0,0,0,0,0,0,0,-1,1574,1646,6.97472,-15.6885
357,-622,6.98621,15.6318,0.00278424,-0.00912385,0.00382636,0.00390774,-0.0102474,0.285595,0.00844124,0.0429941,1581,1646,6.98618,-15.6318
364,-622,6.99988,15.468,0.00129673,-0.00778419,0.00412849,0.00289307,-0.00938052,0.368956,0.00740878,0.0326585,1588,1646,6.99987,-15.468
371,-622,6.9906,15.3438,0.000295609,-0.00675324,0.00448127,0.00247235,-0.00892998,0.452177,0.00692612,0.0192391,1595,1646,6.99057,-15.3438
378,-622,6.93115,15.2156,-0.000853317,-0.00584373,0.00474984,0.00201683,-0.00871388,0.543548,0.00658529,0.0109823,1602,1646,6.9312,-15.2156
385,-622,6.90955,15.0613,-0.00131067,-0.00524082,0.00457456,0.00170303,-0.00825452,0.582532,0.0061498,0.00944076,1609,1646,6.9096,-15.0612
392,-622,6.9093,14.9011,-0.00129055,-0.00458221,0.00435021,0.00171476,-0.00758752,0.604553,0.00571632,0.0100945,1616,1646,6.90927,-14.9011
399,-622,6.91248,14.7155,-0.00125124,-0.00384593,0.00385693,0.00152069,-0.00661786,0.623159,0.00499654,0.0105585,1623,1646,6.91248,-14.7155
406,-622,6.92395,14.5248,-0.0011535,-0.00327268,0.00324375,0.00119934,-0.00562552,0.627534,0.00420749,0.0137393,1630,1646,6.92393,-14.5247
413,-622,6.94702,14.3684,-0.000934278,-0.00297423,0.00270644,0.000938002,-0.00484651,0.605193,0.00358482,0.0151018,1637,1646,6.94699,-14.3684
420,-622,6.94946,14.2086,-0.000601395,-0.00308708,0.00231949,0.000787241,-0.00447571,0.53945,0.00327789,0.0149168,1644,1646,6.94947,-14.2086
427,-622,6.94971,13.9884,-0.000239479,-0.00342242,0.00197871,0.000708358,-0.00437026,0.446721,0.00317607,0.0123146,1651,1646,6.94974,-13.9884
434,-622,6.97998,13.8009,4.01011e-05,-0.00396536,0.00173114,0.000684588,-0.00460985,0.356394,0.003325,0.0134718,1658,1646,6.97993,-13.8009
441,-622,6.97546,13.6105,0.000368739,-0.00490656,0.00153118,0.000780959,-0.00531878,0.262983,0.00383279,0.0154463,1665,1646,6.97544,-13.6105
448,-622,6.93848,13.4369,0.000727437,-0.00605064,0.00143863,0.00102014,-0.00634335,0.200721,0.00460675,0.0141796,1672,1646,6.93849,-13.4369
455,-622,6.92139,13.2384,0.00107528,-0.00749674,0.00149614,0.00132891,-0.00775037,0.167926,0.00566211,0.0157721,1679,1646,6.92134,-13.2384
462,-622,6.94751,13.0635,0.00149014,-0.00918259,0.00162103,0.00173092,-0.00942337,0.147456,0.00693164,0.0169197,1686,1646,6.94753,-13.0635
469,-622,6.94019,12.8706,0.00192044,-0.0109205,0.00167927,0.00213641,-0.0111365,0.127909,0.00822941,0.0175633,1693,1646,6.94017,-12.8706
476,-622,6.96338,12.6476,0.00236261,-0.0124528,0.00166222,0.00254681,-0.012637,0.110367,0.00938946,0.0171003,1700,1646,6.96336,-12.6476
483,-622,6.93909,12.4078,0.00282131,-0.0135378,0.00149856,0.00295745,-0.0136739,0.0905994,0.0102451,0.0250587,1707,1646,6.93909,-12.4078
490,-622,6.9812,12.1893,0.0036004,-0.0149211,0.00116977,0.00367399,-0.0149947,0.062825,0.0114198,0.0316127,1714,1646,6.98119,-12.1894
497,-622,7.02661,11.9225,0.00463362,-0.0161048,0.000786232,0.00466338,-0.0161345,0.0378395,0.0126018,0.0417827,1721,1646,7.02665,-11.9224
504,-622,6.94214,11.7996,0,0,0,0,0,0,0,-1,1728,1646,6.94208,-11.7996
511,-622,5.29004,4.14587,0,0,0,0,0,0,0,-1,1735,1646,5.29008,-4.14589
518,-622,5.6001,1.55359,0,0,0,0,0,0,0,-1,1742,1646,5.60015,-1.5536
525,-622,5.83093,2.01807,0,0,0,0,0,0,0,-1,1749,1646,5.83097,-2.01802
532,-622,5.44202,0.57373,0,0,0,0,0,0,0,-1,1756,1646,5.44196,-0.573705
539,-622,9.32129,1.06116,0,0,0,0,0,0,0,-1,1763,1646,9.32131,-1.0612
546,-622,6.50977,-3.45618,0,0,0,0,0,0,0,-1,1770,1646,6.50981,3.4562
553,-622,0,0,0,0,0,0,0,0,0,-1,1777,1646,0,0
560,-622,0,0,0,0,0,0,0,0,0,-1,1784,1646,0,0
567,-622,0,0,0,0,0,0,0,0,0,-1,1791,1646,0,0
574,-622,0,0,0,0,0,0,0,0,0,-1,1798,1646,0,0
581,-622,0,0,0,0,0,0,0,0,0,-1,1805,1646,0,0
588,-622,0,0,0,0,0,0,0,0,0,-1,1812,1646,0,0
595,-622,0,0,0,0,0,0,0,0,0,-1,1819,1646,0,0
602,-622,0,0,0,0,0,0,0,0,0,-1,1826,1646,0,0
609,-622,0,0,0,0,0,0,0,0,0,-1,1833,1646,0,0
616,-622,0,0,0,0,0,0,0,0,0,-1,1840,1646,0,0
623,-622,0,0,0,0,0,0,0,0,0,-1,1847,1646,0,0
630,-622,0,0,0,0,0,0,0,0,0,-1,1854,1646,0,0
637,-622,0,0,0,0,0,0,0,0,0,-1,1861,1646,0,0
644,-622,0,0,0,0,0,0,0,0,0,-1,1868,1646,0,0
651,-622,0,0,0,0,0,0,0,0,0,-1,1875,1646,0,0
658,-622,0,0,0,0,0,0,0,0,0,-1,1882,1646,0,0
665,-622,0,0,0,0,0,0,0,0,0,-1,1889,1646,0,0
672,-622,0,0,0,0,0,0,0,0,0,-1,1896,1646,0,0
679,-622,0,0,0,0,0,0,0,0,0,-1,1903,1646,0,0
686,-622,0,0,0,0,0,0,0,0,0,-1,1910,1646,0,0
693,-622,0,0,0,0,0,0,0,0,0,-1,1917,1646,0,0
700,-622,0,0,0,0,0,0,0,0,0,-1,1924,1646,0,0
707,-622,0,0,0,0,0,0,0,0,0,-1,1931,1646,0,0
714,-622,0,0,0,0,0,0,0,0,0,-1,1938,1646,0,0
721,-622,0,0,0,0,0,0,0,0,0,-1,1945,1646,0,0
728,-622,0,0,0,0,0,0,0,0,0,-1,1952,1646,0,0
735,-622,0,0,0,0,0,0,0,0,0,-1,1959,1646,0,0
742,-622,0,0,0,0,0,0,0,0,0,-1,1966,1646,0,0
749,-622,0,0,0,0,0,0,0,0,0,-1,1973,1646,0,0
756,-622,0,0,0,0,0,0,0,0,0,-1,1980,1646,0,0
763,-622,0,0,0,0,0,0,0,0,0,-1,1987,1646,0,0
770,-622,0,0,0,0,0,0,0,0,0,-1,1994,1646,0,0
777,-622,0,0,0,0,0,0,0,0,0,-1,2001,1646,0,0
784,-622,0,0,0,0,0,0,0,0,0,-1,2008,1646,0,0
791,-622,0,0,0,0,0,0,0,0,0,-1,2015,1646,0,0
798,-622,0,0,0,0,0,0,0,0,0,-1,2022,1646,0,0
805,-622,0,0,0,0,0,0,0,0,0,-1,2029,1646,0,0
812,-622,0,0,0,0,0,0,0,0,0,-1,2036,1646,0,0
-700,-629,0,0,0,0,0,0,0,0,0,-1,524,1653,0,0
-693,-629,0,0,0,0,0,0,0,0,0,-1,531,1653,0,0
-686,-629,0,0,0,0,0,0,0,0,0,-1,538,1653,0,0
-679,-629,0,0,0,0,0,0,0,0,0,-1,545,1653,0,0
-672,-629,0,0,0,0,0,0,0,0,0,-1,552,1653,0,0
-665,-629,0,0,0,0,0,0,0,0,0,-1,559,1653,0,0
-658,-629,0,0,0,0,0,0,0,0,0,-1,566,1653,0,0
-651,-629,0,0,0,0,0,0,0,0,0,-1,573,1653,0,0
-644,-629,0,0,0,0,0,0,0,0,0,-1,580,1653,0,0
-637,-629,0,0,0,0,0,0,0,0,0,-1,587,1653,0,0
-630,-629,0,0,0,0,0,0,0,0,0,-1,594,1653,0,0
-623,-629,0,0,0,0,0,0,0,0,0,-1,601,1653,0,0
-616,-629,0,0,0,0,0,0,0,0,0,-1,608,1653,0,0
-609,-629,0,0,0,0,0,0,0,0,0,-1,615,1653,0,0
-602,-629,0,0,0,0,0,0,0,0,0,-1,622,1653,0,0
-595,-629,0,0,0,0,0,0,0,0,0,-1,629,1653,0,0
-588,-629,0,0,0,0,0,0,0,0,0,-1,636,1653,0,0
-581,-629,0,0,0,0,0,0,0,0,0,-1,643,1653,0,0
-574,-629,0,0,0,0,0,0,0,0,0,-1,650,1653,0,0
-567,-629,0,0,0,0,0,0,0,0,0,-1,657,1653,0,0
-560,-629,0,0,0,0,0,0,0,0,0,-1,664,1653,0,0
-553,-629,0,0,0,0,0,0,0,0,0,-1,671,1653,0,0
-546,-629,0,0,0,0,0,0,0,0,0,-1,678,1653,0,0
-539,-629,0,0,0,0,0,0,0,0,0,-1,685,1653,0,0
-532,-629,0,0,0,0,0,0,0,0,0,-1,692,1653,0,0
-525,-629,0,0,0,0,0,0,0,0,0,-1,699,1653,0,0
-518,-629,0,0,0,0,0,0,0,0,0,-1,706,1653,0,0
-511,-629,0,0,0,0,0,0,0,0,0,-1,713,1653,0,0
-504,-629,0,0,0,0,0,0,0,0,0,-1,720,1653,0,0
-497,-629,0,0,0,0,0,0,0,0,0,-1,727,1653,0,0
-490,-629,0,0,0,0,0,0,0,0,0,-1,734,1653,0,0
-483,-629,0,0,0,0,0,0,0,0,0,-1,741,1653,0,0
-476,-629,0,0,0,0,0,0,0,0,0,-1,748,1653,0,0
-469,-629,0,0,0,0,0,0,0,0,0,-1,755,1653,0,0
-462,-629,0,0,0,0,0,0,0,0,0,-1,762,1653,0,0
-455,-629,0,0,0,0,0,0,0,0,0,-1,769,1653,0,0
-448,-629,0,0,0,0,0,0,0,0,0,-1,776,1653,0,0
-441,-629,0,0,0,0,0,0,0,0,0,-1,783,1653,0,0
-434,-629,0,0,0,0,0,0,0,0,0,-1,790,1653,0,0
-427,-629,0,0,0,0,0,0,0,0,0,-1,797,1653,0,0
-420,-629,-3.87103,3.37634,0,0,0,0,0,0,0,-1,804,1653,-3.87101,-3.37633
-413,-629,-5.69751,1.33582,0,0,0,0,0,0,0,-1,811,1653,-5.69754,-1.3358
-406,-629,2.85406,6.01501,0,0,0,0,0,0,0,-1,818,1653,2.85405,-6.01507
-399,-629,-0.455627,10.8687,0,0,0,0,0,0,0,-1,825,1653,-0.455625,-10.8687
-392,-629,1.15369,11.1295,0,0,0,0,0,0,0,-1,832,1653,1.1537,-11.1295
-385,-629,1.81976,11.6935,0.0399265,-0.0633118,0.00577795,0.0402489,-0.0636341,0.0557351,0.0604813,0.0499767,839,1653,1.81975,-11.6935
-378,-629,2.41406,12.1997,0,0,0,0,0,0,0,-1,846,1653,2.41407,-12.1997
-371,-629,3.04999,12.7152,0,0,0,0,0,0,0,-1,853,1653,3.04997,-12.7152
-364,-629,2.34821,11.8457,0,0,0,0,0,0,0,-1,860,1653,2.34822,-11.8458
-357,-629,2.51709,11.8682,0,0,0,0,0,0,0,-1,867,1653,2.5171,-11.8682
-350,-629,2.77191,11.7793,0,0,0,0,0,0,0,-1,874,1653,2.77189,-11.7793
-343,-629,2.8927,11.8148,0.00209645,-0.0115215,-0.000129716,0.00209768,-0.0115227,-0.00952421,0.00846808,0.0439695,881,1653,2.89273,-11.8149
-336,-629,2.96021,11.7841,0.00162895,-0.00730427,-0.000209071,0.00163384,-0.00730916,-0.0233866,0.0054989,0.0183035,888,1653,2.96018,-11.7841
-329,-629,2.99628,11.9935,0.000747574,-0.00346861,-0.000474816,0.000800385,-0.00352142,-0.110769,0.00265493,0.0110592,895,1653,2.99628,-11.9935
-322,-629,3.00421,12.2008,0.000937925,-0.00116351,-0.000197297,0.000956288,-0.00118187,-0.0928061,0.00123675,0.0109849,902,1653,3.00421,-12.2008
-315,-629,2.97137,12.4286,0.000887729,0.000111373,-1.52442e-05,0.000888028,0.000111074,-0.0196255,0.000558687,0.0142377,909,1653,2.9714,-12.4286
-308,-629,2.97278,12.6536,0.000809698,0.000859754,-7.50609e-05,0.000913849,0.000755602,-0.946319,0.000563934,0.0118206,916,1653,2.9728,-12.6536
-301,-629,2.99823,12.8695,0.000671044,0.000981228,-0.000276454,0.00114312,0.000509149,-1.04102,0.000661292,0.0107627,923,1653,2.99825,-12.8695
-294,-629,2.99023,13.0734,0.000567272,0.000509917,-0.000483578,0.00102302,5.41676e-05,-0.755782,0.000664695,0.0120606,930,1653,2.99021,-13.0734
-287,-629,2.96887,13.2671,0.00052019,-1.68263e-05,-0.000660185,0.000964381,-0.000461018,-0.592257,0.000839885,0.00905764,937,1653,2.96886,-13.267
-280,-629,2.9682,13.4617,0.000509851,-0.000789361,-0.000875281,0.000950247,-0.00122976,-0.466163,0.00126207,0.00884614,944,1653,2.96818,-13.4616
-273,-629,2.97498,13.6362,0.000628399,-0.00163175,-0.001099,0.00107467,-0.00207803,-0.385729,0.00185068,0.011925,951,1653,2.97498,-13.6362
-266,-629,2.9635,13.8447,0.000862207,-0.00258605,-0.00121665,0.00124826,-0.0029721,-0.307258,0.00250346,0.0127942,958,1653,2.96348,-13.8447
-259,-629,2.95612,14.0699,0.00117054,-0.00343104,-0.00121856,0.00147331,-0.00373381,-0.243533,0.00309932,0.014168,965,1653,2.95613,-14.0699
-252,-629,2.97839,14.2516,0.00157294,-0.00435956,-0.00131745,0.00185235,-0.00463897,-0.208989,0.00386116,0.0110962,972,1653,2.97839,-14.2516
-245,-629,2.99744,14.4409,0.00205478,-0.00546104,-0.00131517,0.00227827,-0.00568454,-0.168325,0.00473546,0.00813651,979,1653,2.99746,-14.4409
-238,-629,3.00079,14.61,0.00242991,-0.0064859,-0.00125346,0.00260278,-0.00665877,-0.137049,0.00551543,0.00973375,986,1653,3.00078,-14.6099
-231,-629,2.99701,14.7798,0.00264474,-0.00718681,-0.00126811,0.00280567,-0.00734774,-0.126232,0.00605443,0.0102811,993,1653,2.99701,-14.7798
-224,-629,3.03711,14.9778,0.00282634,-0.0084819,-0.00139932,0.00299692,-0.00865248,-0.121306,0.00698499,0.0103607,1000,1653,3.03712,-14.9777
-217,-629,3.03033,15.12,0.00281828,-0.00951761,-0.00142622,0.00298102,-0.00968035,-0.113619,0.00764354,0.0162167,1007,1653,3.03032,-15.12
-210,-629,3.047,15.2723,0.0024806,-0.00992398,-0.00234593,0.00290943,-0.0103528,-0.180802,0.00804891,0.0336929,1014,1653,3.04699,-15.2723
-203,-629,2.97351,15.2964,0.00206144,-0.0109843,-0.00387602,0.00312615,-0.012049,-0.268079,0.00925249,0.0459648,1021,1653,2.9735,-15.2964
-196,-629,3.11316,15.2478,0.00160687,-0.0118399,-0.0054472,0.00353657,-0.0137696,-0.340461,0.0105579,0.0416367,1028,1653,3.1131,-15.2478
-189,-629,3.08936,15.5233,0.000767564,-0.011984,-0.007542,0.00426762,-0.0154841,-0.434497,0.0120009,0.0403214,1035,1653,3.08937,-15.5233
-182,-629,2.89746,15.9498,0.000182974,-0.0132367,-0.0105736,0.005996,-0.0190497,-0.502667,0.0151006,0.0490059,1042,1653,2.89749,-15.9498
-175,-629,2.69836,16.3245,0,0,0,0,0,0,0,-1,1049,1653,2.69833,-16.3245
-168,-629,3.41809,16.813,0,0,0,0,0,0,0,-1,1056,1653,3.41804,-16.813
-161,-629,3.33179,16.3472,0.00185313,-0.015138,-0.0197889,0.014893,-0.0281779,-0.58264,0.0252582,0.048265,1063,1653,3.33181,-16.3472
-154,-629,3.27039,15.7284,0.0040879,-0.0158418,-0.0227675,0.0189758,-0.0307297,-0.579118,0.0289637,0.0440475,1070,1653,3.27042,-15.7283
-147,-629,3.16211,15.2351,0,0,0,0,0,0,0,-1,1077,1653,3.16208,-15.2352
-140,-629,3.15894,16.238,0,0,0,0,0,0,0,-1,1084,1653,3.15894,-16.238
-133,-629,3.41248,17.6686,0,0,0,0,0,0,0,-1,1091,1653,3.41243,-17.6686
-126,-629,4.01025,19.5328,0,0,0,0,0,0,0,-1,1098,1653,4.01022,-19.5328
-119,-629,4.94177,13.5525,0,0,0,0,0,0,0,-1,1105,1653,4.94172,-13.5525
-112,-629,5.63123,15.9187,0,0,0,0,0,0,0,-1,1112,1653,5.63118,-15.9187
-105,-629,2.15881,4.38342,0,0,0,0,0,0,0,-1,1119,1653,2.15878,-4.38347
-98,-629,0.825806,4.19385,0,0,0,0,0,0,0,-1,1126,1653,0.825779,-4.1939
-91,-629,-0.452271,3.64465,0,0,0,0,0,0,0,-1,1133,1653,-0.452278,-3.6446
-84,-629,-2.6084,0.466797,0,0,0,0,0,0,0,-1,1140,1653,-2.6084,-0.466786
-77,-629,-3.50903,2.10706,0,0,0,0,0,0,0,-1,1147,1653,-3.509,-2.10707
-70,-629,-1.20886,2.52502,0,0,0,0,0,0,0,-1,1154,1653,-1.20886,-2.525
-63,-629,-0.960693,4.30212,0,0,0,0,0,0,0,-1,1161,1653,-0.960691,-4.30215
-56,-629,-1.31934,5.64343,0,0,0,0,0,0,0,-1,1168,1653,-1.31928,-5.6434
-49,-629,-2.15662,2.57458,0,0,0,0,0,0,0,-1,1175,1653,-2.15656,-2.57459
-42,-629,-2.46326,3.91467,0,0,0,0,0,0,0,-1,1182,1653,-2.4633,-3.91466
-35,-629,-2.67261,5.24292,0,0,0,0,0,0,0,-1,1189,1653,-2.67257,-5.24298
-28,-629,-0.402954,-0.866577,0,0,0,0,0,0,0,-1,1196,1653,-0.402943,0.866612
-21,-629,10.063,9.59705,0,0,0,0,0,0,0,-1,1203,1653,10.063,-9.59708
-14,-629,6.2041,18.2728,0,0,0,0,0,0,0,-1,1210,1653,6.20408,-18.2729
-7,-629,5.2533,18.701,0,0,0,0,0,0,0,-1,1217,1653,5.25326,-18.701
0,-629,8.50842,18.4449,0,0,0,0,0,0,0,-1,1224,1653,8.50837,-18.4449
7,-629,8.6842,19.2085,0,0,0,0,0,0,0,-1,1231,1653,8.68418,-19.2085
14,-629,8.87903,19.9128,0.0433304,0.139062,0.092405,0.195262,-0.0128704,1.02437,0.13467,0.0445267,1238,1653,8.87901,-19.9128
21,-629,9.06177,20.7192,0.0379085,0.145777,0.0907453,0.197406,-0.0137206,1.05352,0.136408,0.0484283,1245,1653,9.06176,-20.7192
28,-629,9.01086,21.1689,0.0316872,0.143203,0.0891092,0.192561,-0.017671,1.06496,0.134651,0.0494517,1252,1653,9.01082,-21.1689
35,-629,9.05981,21.5555,0,0,0,0,0,0,0,-1,1259,1653,9.05976,-21.5555
42,-629,9.08423,22.0286,0,0,0,0,0,0,0,-1,1266,1653,9.08429,-22.0285
49,-629,-0.531738,22.6016,0,0,0,0,0,0,0,-1,1273,1653,-0.531742,-22.6016
56,-629,8.86316,14.8296,0,0,0,0,0,0,0,-1,1280,1653,8.8632,-14.8296
63,-629,8.80688,16.0573,0.00917566,0.117321,0.0852803,0.164227,-0.0377298,1.06794,0.123989,0.0485435,1287,1653,8.80686,-16.0573
70,-629,8.82104,17.271,0,0,0,0,0,0,0,-1,1294,1653,8.82102,-17.271
77,-629,10.1869,15.6405,0,0,0,0,0,0,0,-1,1301,1653,10.1869,-15.6406
84,-629,10.3334,15.5826,0,0,0,0,0,0,0,-1,1308,1653,10.3334,-15.5826
91,-629,10.4799,15.5247,0,0,0,0,0,0,0,-1,1315,1653,10.4799,-15.5246
98,-629,10.0216,19.2089,0,0,0,0,0,0,0,-1,1322,1653,10.0216,-19.2088
105,-629,9.3634,18.6801,0,0,0,0,0,0,0,-1,1329,1653,9.36344,-18.68
112,-629,6.49707,16.9213,0,0,0,0,0,0,0,-1,1336,1653,6.49712,-16.9213
119,-629,6.44836,16.2748,0,0,0,0,0,0,0,-1,1343,1653,6.44835,-16.2748
126,-629,6.47339,15.7087,-0.0132903,0.0110102,-0.00259543,0.0112843,-0.0135645,-1.46557,0.0143665,0.0423859,1350,1653,6.47339,-15.7088
133,-629,6.47998,15.1089,-0.00493925,-0.0128934,-0.0227967,0.0142247,-0.0320574,-0.699038,0.0273742,0.0479335,1357,1653,6.48002,-15.1089
140,-629,6.53259,14.1252,0.00603077,-0.0433811,-0.0438899,0.0316906,-0.0690409,-0.529049,0.059475,0.0469858,1364,1653,6.53255,-14.1252
147,-629,6.52087,13.3093,0.0192519,-0.0697911,-0.0639105,0.0526195,-0.103159,-0.48117,0.0915027,0.0489565,1371,1653,6.52084,-13.3093
154,-629,6.6217,12.814,0,0,0,0,0,0,0,-1,1378,1653,6.62165,-12.8139
161,-629,10.5461,6.83752,0,0,0,0,0,0,0,-1,1385,1653,10.5461,-6.83758
168,-629,12.0059,5.56348,0,0,0,0,0,0,0,-1,1392,1653,12.0059,-5.56352
175,-629,5.84485,-1.78845,0,0,0,0,0,0,0,-1,1399,1653,5.84479,1.7884
182,-629,5.99036,-1.27783,0,0,0,0,0,0,0,-1,1406,1653,5.99041,1.27778
189,-629,5.97668,-0.748535,0,0,0,0,0,0,0,-1,1413,1653,5.97671,0.748544
196,-629,4.52869,9.24695,0,0,0,0,0,0,0,-1,1420,1653,4.52869,-9.2469
203,-629,3.75085,6.88037,0,0,0,0,0,0,0,-1,1427,1653,3.75087,-6.88032
210,-629,3.5907,6.52637,0,0,0,0,0,0,0,-1,1434,1653,3.59067,-6.52642
217,-629,2.4585,4.84448,0,0,0,0,0,0,0,-1,1441,1653,2.45855,-4.84448
224,-629,1.31982,3.68481,0,0,0,0,0,0,0,-1,1448,1653,1.31986,-3.68487
231,-629,3.63025,1.73499,0,0,0,0,0,0,0,-1,1455,1653,3.6303,-1.735
238,-629,4.26428,2.11255,0,0,0,0,0,0,0,-1,1462,1653,4.26429,-2.11253
245,-629,5.61816,1.95361,0,0,0,0,0,0,0,-1,1469,1653,5.61815,-1.95359
252,-629,7.27136,2.18982,0,0,0,0,0,0,0,-1,1476,1653,7.27131,-2.18985
259,-629,8.67334,2.18628,0,0,0,0,0,0,0,-1,1483,1653,8.6733,-2.18633
266,-629,6.86475,3.72058,0,0,0,0,0,0,0,-1,1490,1653,6.86479,-3.72063
273,-629,7.9021,3.8717,0,0,0,0,0,0,0,-1,1497,1653,7.90205,-3.87171
280,-629,9.70837,4.39087,0,0,0,0,0,0,0,-1,1504,1653,9.7084,-4.39082
287,-629,9.82947,7.19348,0,0,0,0,0,0,0,-1,1511,1653,9.8295,-7.19347
294,-629,6.56555,11.6359,0,0,0,0,0,0,0,-1,1518,1653,6.5656,-11.6358
301,-629,6.93835,15.6102,0,0,0,0,0,0,0,-1,1525,1653,6.93835,-15.6103
308,-629,6.08264,12.1423,0,0,0,0,0,0,0,-1,1532,1653,6.08263,-12.1423
315,-629,5.58032,16.2438,0,0,0,0,0,0,0,-1,1539,1653,5.58026,-16.2438
322,-629,6.40674,16.1388,0.0131115,-0.0153909,-0.000245102,0.0131137,-0.015393,-0.00859849,0.0164759,0.0487171,1546,1653,6.40676,-16.1388
329,-629,6.76379,15.9656,0.0105277,-0.0133929,0.000386104,0.010534,-0.0133991,0.0161354,0.0138508,0.0428523,1553,1653,6.76377,-15.9656
336,-629,6.56128,15.8434,0.00823492,-0.0113343,0.00103849,0.00828987,-0.0113893,0.0528698,0.0114086,0.0438705,1560,1653,6.56131,-15.8434
343,-629,6.53796,15.7603,0.00587491,-0.00995027,0.00181059,0.00607942,-0.0101548,0.112476,0.00947076,0.0418554,1567,1653,6.53796,-15.7602
350,-629,6.75256,15.764,0.00410058,-0.00828347,0.00231054,0.00451762,-0.00870051,0.178573,0.00775782,0.0261577,1574,1653,6.75256,-15.764
357,-629,6.78516,15.6226,0.00253161,-0.00681777,0.0027601,0.00328562,-0.00757179,0.266678,0.00642928,0.0156841,1581,1653,6.7852,-15.6226
364,-629,6.78467,15.4767,0.00136205,-0.00573037,0.00294467,0.00242525,-0.00679357,0.346494,0.00551807,0.0132724,1588,1653,6.78469,-15.4767
371,-629,6.76721,15.3427,0.000562009,-0.00487459,0.00313605,0.00199388,-0.00630647,0.428317,0.00500317,0.0102983,1595,1653,6.76725,-15.3427
378,-629,6.75244,15.1991,-0.000317952,-0.00409682,0.00328679,0.00158378,-0.00599855,0.524534,0.00461839,0.00926205,1602,1653,6.75247,-15.1991
385,-629,6.74146,15.0403,-0.000620316,-0.00345792,0.00303334,0.00130963,-0.00538787,0.566646,0.0040988,0.0114169,1609,1653,6.7415,-15.0403
392,-629,6.74097,14.89,-0.000546406,-0.00275628,0.00266945,0.00123775,-0.00454043,0.589174,0.00351299,0.0103513,1616,1653,6.74094,-14.89
399,-629,6.74658,14.7131,-0.000516725,-0.0020752,0.00217726,0.00101654,-0.00360847,0.613551,0.00280654,0.0107751,1623,1653,6.74653,-14.7131
406,-629,6.74304,14.5226,-0.000447888,-0.00164413,0.00164701,0.000706249,-0.00279826,0.611226,0.00214013,0.0135374,1630,1653,6.74301,-14.5225
413,-629,6.75818,14.3589,-0.000238882,-0.00162844,0.00121736,0.000468013,-0.00233533,0.526091,0.00173407,0.0212704,1637,1653,6.75816,-14.3589
420,-629,6.76221,14.2208,9.91441e-05,-0.00218781,0.00101443,0.000484261,-0.00257293,0.362833,0.00189742,0.0200351,1644,1653,6.76218,-14.2208
427,-629,6.75647,14.0137,0.000440322,-0.00290482,0.000843402,0.000640935,-0.00310544,0.233523,0.00231372,0.0127027,1651,1653,6.75651,-14.0136
434,-629,6.77527,13.7999,0.000720802,-0.00397997,0.000812153,0.000857162,-0.00411633,0.166348,0.00307009,0.0106567,1658,1653,6.77529,-13.8
441,-629,6.78735,13.6305,0.0010441,-0.00558084,0.000890859,0.0011618,-0.00569854,0.131362,0.00423969,0.0159052,1665,1653,6.78735,-13.6305
448,-629,6.74829,13.4336,0.0013678,-0.00754225,0.00114735,0.00151318,-0.00768763,0.126031,0.00569686,0.0155037,1672,1653,6.7483,-13.4337
455,-629,6.74402,13.2219,0.00169661,-0.00994969,0.00161329,0.00191596,-0.010169,0.135134,0.00750003,0.0147128,1679,1653,6.74398,-13.2219
462,-629,6.7749,13.0575,0.00211373,-0.0127804,0.00219685,0.002431,-0.0130977,0.14343,0.00964478,0.0180385,1686,1653,6.77495,-13.0575
469,-629,6.76782,12.8579,0.00258947,-0.0157528,0.00272133,0.0029847,-0.016148,0.144226,0.0118858,0.0207068,1693,1653,6.76784,-12.8579
476,-629,6.81836,12.7,0.00311292,-0.018467,0.00314664,0.00356238,-0.0189164,0.141879,0.0139509,0.0258513,1700,1653,6.81841,-12.7
483,-629,6.88257,12.5104,0.00363457,-0.0206234,0.00330575,0.004077,-0.0210658,0.133043,0.0155817,0.0391852,1707,1653,6.88256,-12.5103
490,-629,6.96301,12.2775,0.00437088,-0.0229171,0.00321371,0.00474425,-0.0232904,0.115662,0.0173263,0.0462673,1714,1653,6.96304,-12.2774
497,-629,7.00159,12.084,0,0,0,0,0,0,0,-1,1721,1653,7.00163,-12.084
504,-629,7.43372,11.7821,0,0,0,0,0,0,0,-1,1728,1653,7.43371,-11.7821
511,-629,6.29138,3.40295,0,0,0,0,0,0,0,-1,1735,1653,6.29137,-3.403
518,-629,5.84387,1.41858,0,0,0,0,0,0,0,-1,1742,1653,5.84391,-1.4186
525,-629,6.4729,1.02319,0,0,0,0,0,0,0,-1,1749,1653,6.47284,-1.02316
532,-629,6.86511,0.903687,0,0,0,0,0,0,0,-1,1756,1653,6.86514,-0.903691
539,-629,6.60803,0.746704,0,0,0,0,0,0,0,-1,1763,1653,6.60809,-0.746691
546,-629,0,0,0,0,0,0,0,0,0,-1,1770,1653,0,0
553,-629,0,0,0,0,0,0,0,0,0,-1,1777,1653,0,0
560,-629,0,0,0,0,0,0,0,0,0,-1,1784,1653,0,0
567,-629,0,0,0,0,0,0,0,0,0,-1,1791,1653,0,0
574,-629,0,0,0,0,0,0,0,0,0,-1,1798,1653,0,0
581,-629,0,0,0,0,0,0,0,0,0,-1,1805,1653,0,0
588,-629,0,0,0,0,0,0,0,0,0,-1,1812,1653,0,0
595,-629,0,0,0,0,0,0,0,0,0,-1,1819,1653,0,0
602,-629,0,0,0,0,0,0,0,0,0,-1,1826,1653,0,0
609,-629,0,0,0,0,0,0,0,0,0,-1,1833,1653,0,0
616,-629,0,0,0,0,0,0,0,0,0,-1,1840,1653,0,0
623,-629,0,0,0,0,0,0,0,0,0,-1,1847,1653,0,0
630,-629,0,0,0,0,0,0,0,0,0,-1,1854,1653,0,0
637,-629,0,0,0,0,0,0,0,0,0,-1,1861,1653,0,0
644,-629,0,0,0,0,0,0,0,0,0,-1,1868,1653,0,0
651,-629,0,0,0,0,0,0,0,0,0,-1,1875,1653,0,0
658,-629,0,0,0,0,0,0,0,0,0,-1,1882,1653,0,0
665,-629,0,0,0,0,0,0,0,0,0,-1,1889,1653,0,0
672,-629,0,0,0,0,0,0,0,0,0,-1,1896,1653,0,0
679,-629,0,0,0,0,0,0,0,0,0,-1,1903,1653,0,0
686,-629,0,0,0,0,0,0,0,0,0,-1,1910,1653,0,0
693,-629,0,0,0,0,0,0,0,0,0,-1,1917,1653,0,0
700,-629,0,0,0,0,0,0,0,0,0,-1,1924,1653,0,0
707,-629,0,0,0,0,0,0,0,0,0,-1,1931,1653,0,0
714,-629,0,0,0,0,0,0,0,0,0,-1,1938,1653,0,0
721,-629,0,0,0,0,0,0,0,0,0,-1,1945,1653,0,0
728,-629,0,0,0,0,0,0,0,0,0,-1,1952,1653,0,0
735,-629,0,0,0,0,0,0,0,0,0,-1,1959,1653,0,0
742,-629,0,0,0,0,0,0,0,0,0,-1,1966,1653,0,0
749,-629,0,0,0,0,0,0,0,0,0,-1,1973,1653,0,0
756,-629,0,0,0,0,0,0,0,0,0,-1,1980,1653,0,0
763,-629,0,0,0,0,0,0,0,0,0,-1,1987,1653,0,0
770,-629,0,0,0,0,0,0,0,0,0,-1,1994,1653,0,0
777,-629,0,0,0,0,0,0,0,0,0,-1,2001,1653,0,0
784,-629,0,0,0,0,0,0,0,0,0,-1,2008,1653,0,0
791,-629,0,0,0,0,0,0,0,0,0,-1,2015,1653,0,0
798,-629,0,0,0,0,0,0,0,0,0,-1,2022,1653,0,0
805,-629,0,0,0,0,0,0,0,0,0,-1,2029,1653,0,0
812,-629,0,0,0,0,0,0,0,0,0,-1,2036,1653,0,0
-700,-636,0,0,0,0,0,0,0,0,0,-1,524,1660,0,0
-693,-636,0,0,0,0,0,0,0,0,0,-1,531,1660,0,0
-686,-636,0,0,0,0,0,0,0,0,0,-1,538,1660,0,0
-679,-636,0,0,0,0,0,0,0,0,0,-1,545,1660,0,0
-672,-636,0,0,0,0,0,0,0,0,0,-1,552,1660,0,0
-665,-636,0,0,0,0,0,0,0,0,0,-1,559,1660,0,0
-658,-636,0,0,0,0,0,0,0,0,0,-1,566,1660,0,0
-651,-636,0,0,0,0,0,0,0,0,0,-1,573,1660,0,0
-644,-636,0,0,0,0,0,0,0,0,0,-1,580,1660,0,0
-637,-636,0,0,0,0,0,0,0,0,0,-1,587,1660,0,0
-630,-636,0,0,0,0,0,0,0,0,0,-1,594,1660,0,0
-623,-636,0,0,0,0,0,0,0,0,0,-1,601,1660,0,0
-616,-636,0,0,0,0,0,0,0,0,0,-1,608,1660,0,0
-609,-636,0,0,0,0,0,0,0,0,0,-1,615,1660,0,0
-602,-636,0,0,0,0,0,0,0,0,0,-1,622,1660,0,0
-595,-636,0,0,0,0,0,0,0,0,0,-1,629,1660,0,0
-588,-636,0,0,0,0,0,0,0,0,0,-1,636,1660,0,0
-581,-636,0,0,0,0,0,0,0,0,0,-1,643,1660,0,0
-574,-636,0,0,0,0,0,0,0,0,0,-1,650,1660,0,0
-567,-636,0,0,0,0,0,0,0,0,0,-1,657,1660,0,0
-560,-636,0,0,0,0,0,0,0,0,0,-1,664,1660,0,0
-553,-636,0,0,0,0,0,0,0,0,0,-1,671,1660,0,0
-546,-636,0,0,0,0,0,0,0,0,0,-1,678,1660,0,0
-539,-636,0,0,0,0,0,0,0,0,0,-1,685,1660,0,0
-532,-636,0,0,0,0,0,0,0,0,0,-1,692,1660,0,0
-525,-636,0,0,0,0,0,0,0,0,0,-1,699,1660,0,0
-518,-636,0,0,0,0,0,0,0,0,0,-1,706,1660,0,0
-511,-636,0,0,0,0,0,0,0,0,0,-1,713,1660,0,0
-504,-636,0,0,0,0,0,0,0,0,0,-1,720,1660,0,0
-497,-636,0,0,0,0,0,0,0,0,0,-1,727,1660,0,0
-490,-636,0,0,0,0,0,0,0,0,0,-1,734,1660,0,0
-483,-636,0,0,0,0,0,0,0,0,0,-1,741,1660,0,0
-476,-636,0,0,0,0,0,0,0,0,0,-1,748,1660,0,0
-469,-636,0,0,0,0,0,0,0,0,0,-1,755,1660,0,0
-462,-636,0,0,0,0,0,0,0,0,0,-1,762,1660,0,0
-455,-636,0,0,0,0,0,0,0,0,0,-1,769,1660,0,0
-448,-636,0,0,0,0,0,0,0,0,0,-1,776,1660,0,0
-441,-636,0,0,0,0,0,0,0,0,0,-1,783,1660,0,0
-434,-636,0,0,0,0,0,0,0,0,0,-1,790,1660,0,0
-427,-636,0,0,0,0,0,0,0,0,0,-1,797,1660,0,0
-420,-636,0,0,0,0,0,0,0,0,0,-1,804,1660,0,0
-413,-636,0,0,0,0,0,0,0,0,0,-1,811,1660,0,0
-406,-636,-0.591125,10.6943,0,0,0,0,0,0,0,-1,818,1660,-0.59115,-10.6943
-399,-636,0.0766602,11.2408,0.0864971,-0.0843954,0.0144492,0.0877102,-0.0856085,0.0837592,0.100068,0.0476983,825,1660,0.076685,-11.2409
-392,-636,0.75946,11.9233,0,0,0,0,0,0,0,-1,832,1660,0.759481,-11.9233
-385,-636,1.68878,12.517,0,0,0,0,0,0,0,-1,839,1660,1.6888,-12.5169
-378,-636,2.22107,13.0013,0,0,0,0,0,0,0,-1,846,1660,2.22107,-13.0014
-371,-636,2.52185,11.9684,0,0,0,0,0,0,0,-1,853,1660,2.52184,-11.9684
-364,-636,2.94617,11.7798,0,0,0,0,0,0,0,-1,860,1660,2.94618,-11.7798
-357,-636,2.38416,12.2781,0,0,0,0,0,0,0,-1,867,1660,2.38415,-12.278
-350,-636,2.8645,11.7958,0,0,0,0,0,0,0,-1,874,1660,2.86448,-11.7957
-343,-636,3.18164,12.0952,0,0,0,0,0,0,0,-1,881,1660,3.18163,-12.0952
-336,-636,3.14111,11.8124,0.00230402,-0.0072524,-0.000177087,0.0023073,-0.00725568,-0.0185222,0.00576231,0.0371421,888,1660,3.14109,-11.8123
-329,-636,3.20325,11.993,0.000971433,-0.00262005,-0.00062558,0.00107728,-0.00272589,-0.167611,0.00226349,0.0181834,895,1660,3.20325,-11.993
-322,-636,3.22638,12.2092,0.00112186,-6.65115e-05,-0.000305793,0.00119593,-0.000140582,-0.237647,0.000848039,0.0111727,902,1660,3.22638,-12.2092
-315,-636,3.18756,12.4265,0.00103611,0.00130558,-8.08264e-05,0.00132796,0.00101373,-1.30062,0.000801368,0.0119484,909,1660,3.18756,-12.4265
-308,-636,3.18658,12.658,0.00093176,0.0021047,-9.46383e-05,0.00211229,0.000924174,-1.4908,0.0012227,0.0113359,916,1660,3.18657,-12.658
-301,-636,3.20319,12.8784,0.000768125,0.00222468,-0.000245526,0.00226495,0.000727852,-1.40821,0.0013352,0.0110299,923,1660,3.20318,-12.8784
-294,-636,3.19165,13.0764,0.000638136,0.00179384,-0.000368599,0.00190139,0.000530584,-1.28689,0.00113293,0.0139293,930,1660,3.19165,-13.0764
-287,-636,3.16351,13.2826,0.000550359,0.00125361,-0.000479887,0.00149691,0.000307063,-1.10158,0.000912961,0.0119887,937,1660,3.16348,-13.2826
-280,-636,3.1626,13.4744,0.000501021,0.000494223,-0.000616951,0.00111458,-0.000119338,-0.782644,0.000785861,0.0112189,944,1660,3.16257,-13.4744
-273,-636,3.18237,13.6594,0.000574291,-0.000307871,-0.000757622,0.00100988,-0.000743456,-0.521787,0.00101617,0.0112613,951,1660,3.18234,-13.6594
-266,-636,3.18671,13.8666,0.000759565,-0.00118317,-0.000806792,0.00105092,-0.00147453,-0.346554,0.00146489,0.0121069,958,1660,3.18673,-13.8666
-259,-636,3.18311,14.0867,0.00100509,-0.00189644,-0.000784198,0.00120347,-0.00209482,-0.247776,0.00192731,0.0136197,965,1660,3.18313,-14.0867
-252,-636,3.18506,14.2521,0.00130995,-0.00270627,-0.000832317,0.00147561,-0.00287192,-0.196462,0.00255284,0.0108423,972,1660,3.18503,-14.2521
-245,-636,3.19556,14.4414,0.00167928,-0.00358991,-0.000808093,0.00180042,-0.00371105,-0.148807,0.00324516,0.0099759,979,1660,3.19556,-14.4414
-238,-636,3.18677,14.6105,0.00197337,-0.00447367,-0.000710703,0.00205078,-0.00455109,-0.108501,0.00390165,0.0106485,986,1660,3.18678,-14.6105
-231,-636,3.17993,14.7789,0.0021462,-0.00496368,-0.000739632,0.00222233,-0.00503981,-0.102565,0.00429669,0.0100697,993,1660,3.17994,-14.7789
-224,-636,3.2066,14.9525,0.00229246,-0.00597103,-0.000866137,0.00238226,-0.00606084,-0.103319,0.00502648,0.00848547,1000,1660,3.20663,-14.9525
-217,-636,3.20459,15.1399,0.00229413,-0.00677667,-0.000946239,0.00239179,-0.00687433,-0.102842,0.00555454,0.0101092,1007,1660,3.20459,-15.1399
-210,-636,3.2085,15.3024,0.00205829,-0.00716282,-0.00172191,0.00236934,-0.00747387,-0.178715,0.00593224,0.0150112,1014,1660,3.20848,-15.3024
-203,-636,3.25745,15.47,0.00176703,-0.00811505,-0.00299334,0.00260301,-0.00895103,-0.272341,0.00699829,0.0195138,1021,1660,3.25743,-15.47
-196,-636,3.3479,15.5615,0.00149881,-0.00901604,-0.00424034,0.00299572,-0.010513,-0.339359,0.00819187,0.0204033,1028,1660,3.34786,-15.5615
-189,-636,3.33472,15.6998,0.000951011,-0.00947346,-0.0058836,0.00359907,-0.0121215,-0.422915,0.00951047,0.0215994,1035,1660,3.33467,-15.6998
-182,-636,3.2771,15.7109,0.000756099,-0.0105754,-0.00806477,0.00494638,-0.0147657,-0.479187,0.0118421,0.0366371,1042,1660,3.2771,-15.7109
-175,-636,3.24524,15.6713,0.00113021,-0.0113066,-0.0101571,0.00682123,-0.0169976,-0.510718,0.014164,0.04911,1049,1660,3.24527,-15.6713
-168,-636,3.27136,15.6118,0,0,0,0,0,0,0,-1,1056,1660,3.27137,-15.6118
-161,-636,3.30811,16.3113,0.00318062,-0.0127887,-0.0142338,0.0115164,-0.0211244,-0.529787,0.0191154,0.0475177,1063,1660,3.30813,-16.3113
-154,-636,3.25781,15.8452,0.00533141,-0.0135492,-0.0160759,0.0145339,-0.0227517,-0.519909,0.0217004,0.0455488,1070,1660,3.25778,-15.8453
-147,-636,3.20496,15.3428,0,0,0,0,0,0,0,-1,1077,1660,3.20491,-15.3428
-140,-636,3.19312,16.6512,0,0,0,0,0,0,0,-1,1084,1660,3.19317,-16.6512
-133,-636,3.56348,17.4282,0,0,0,0,0,0,0,-1,1091,1660,3.56343,-17.4283
-126,-636,3.79028,18.2225,0,0,0,0,0,0,0,-1,1098,1660,3.79025,-18.2226
-119,-636,1.8667,13.8916,0,0,0,0,0,0,0,-1,1105,1660,1.86668,-13.8916
-112,-636,-1.24963,9.7998,0,0,0,0,0,0,0,-1,1112,1660,-1.24968,-9.79978
-105,-636,3.51624,4.72791,0,0,0,0,0,0,0,-1,1119,1660,3.51618,-4.7279
-98,-636,1.54504,5.11914,0,0,0,0,0,0,0,-1,1126,1660,1.54503,-5.11912
-91,-636,-1.87964,-2.25012,0,0,0,0,0,0,0,-1,1133,1660,-1.87966,2.25016
-84,-636,-2.84143,0.133667,0,0,0,0,0,0,0,-1,1140,1660,-2.84144,-0.133701
-77,-636,-3.57349,2.45935,0,0,0,0,0,0,0,-1,1147,1660,-3.57345,-2.45939
-70,-636,-4.23682,4.82312,0,0,0,0,0,0,0,-1,1154,1660,-4.23681,-4.82307
-63,-636,-2.21033,6.97168,0,0,0,0,0,0,0,-1,1161,1660,-2.21034,-6.97165
-56,-636,-2.51917,8.80359,0,0,0,0,0,0,0,-1,1168,1660,-2.51916,-8.80361
-49,-636,-3.13,10.4113,0,0,0,0,0,0,0,-1,1175,1660,-3.12996,-10.4112
-42,-636,-2.27771,4.90173,0,0,0,0,0,0,0,-1,1182,1660,-2.27775,-4.90173
-35,-636,-2.27698,5.89685,0,0,0,0,0,0,0,-1,1189,1660,-2.27695,-5.89686
-28,-636,-1.70654,4.83936,0,0,0,0,0,0,0,-1,1196,1660,-1.70656,-4.8393
-21,-636,4.10999,24.0377,0,0,0,0,0,0,0,-1,1203,1660,4.11004,-24.0377
-14,-636,5.97266,17.6689,0,0,0,0,0,0,0,-1,1210,1660,5.97262,-17.669
-7,-636,5.05811,18.0618,0,0,0,0,0,0,0,-1,1217,1660,5.05815,-18.0617
0,-636,3.52551,19.7036,0,0,0,0,0,0,0,-1,1224,1660,3.52548,-19.7036
7,-636,7.7876,17.5845,0,0,0,0,0,0,0,-1,1231,1660,7.78763,-17.5844
14,-636,8.16199,18.9825,0.0371608,0.100126,0.0845597,0.158873,-0.0215869,0.963603,0.113796,0.0422605,1238,1660,8.162,-18.9825
21,-636,8.6637,19.5709,0.0311687,0.105662,0.0839925,0.160296,-0.0234652,0.994097,0.115483,0.0466648,1245,1660,8.66374,-19.5709
28,-636,8.87976,20.09,0.0241394,0.104174,0.0838685,0.157083,-0.0287697,1.008,0.115512,0.0482324,1252,1660,8.8797,-20.09
35,-636,8.23901,20.6338,0,0,0,0,0,0,0,-1,1259,1660,8.23901,-20.6338
42,-636,10.4454,20.5966,0,0,0,0,0,0,0,-1,1266,1660,10.4454,-20.5965
49,-636,-0.483032,22.8156,0,0,0,0,0,0,0,-1,1273,1660,-0.483093,-22.8155
56,-636,9.10571,14.5912,0,0,0,0,0,0,0,-1,1280,1660,9.10569,-14.5912
63,-636,8.73596,15.7805,0,0,0,0,0,0,0,-1,1287,1660,8.73591,-15.7805
70,-636,10.0503,16.2057,0,0,0,0,0,0,0,-1,1294,1660,10.0503,-16.2057
77,-636,9.60364,15.9763,0,0,0,0,0,0,0,-1,1301,1660,9.60364,-15.9763
84,-636,9.36279,15.6906,0,0,0,0,0,0,0,-1,1308,1660,9.36285,-15.6906
91,-636,9.48706,15.6952,0,0,0,0,0,0,0,-1,1315,1660,9.4871,-15.6951
98,-636,9.72021,18.9677,-0.022179,0.0414773,0.049681,0.0686511,-0.0493528,1.07029,0.0684326,0.0469983,1322,1660,9.72019,-18.9676
105,-636,9.17651,18.6412,-0.0214366,0.0335763,0.037946,0.0529367,-0.0407971,1.09901,0.0542683,0.0491414,1329,1660,9.1765,-18.6412
112,-636,8.63391,18.3271,0,0,0,0,0,0,0,-1,1336,1660,8.63397,-18.3272
119,-636,7.6261,17.3224,0,0,0,0,0,0,0,-1,1343,1660,7.62612,-17.3224
126,-636,6.23474,15.9165,0,0,0,0,0,0,0,-1,1350,1660,6.23468,-15.9165
133,-636,6.24768,15.3199,0,0,0,0,0,0,0,-1,1357,1660,6.24773,-15.3199
140,-636,6.55066,14.5834,0,0,0,0,0,0,0,-1,1364,1660,6.55062,-14.5833
147,-636,6.43909,14.1031,0,0,0,0,0,0,0,-1,1371,1660,6.43912,-14.1031
154,-636,6.6123,13.9425,0,0,0,0,0,0,0,-1,1378,1660,6.61226,-13.9425
161,-636,10.2961,7.13025,0,0,0,0,0,0,0,-1,1385,1660,10.2961,-7.13021
168,-636,11.7659,5.83899,0,0,0,0,0,0,0,-1,1392,1660,11.7658,-5.83899
175,-636,5.94592,-1.72888,0,0,0,0,0,0,0,-1,1399,1660,5.94598,1.72886
182,-636,5.93994,-1.11938,0,0,0,0,0,0,0,-1,1406,1660,5.93998,1.11936
189,-636,5.32544,11.9595,0,0,0,0,0,0,0,-1,1413,1660,5.32542,-11.9595
196,-636,5.3623,9.38025,0,0,0,0,0,0,0,-1,1420,1660,5.36225,-9.38027
203,-636,5.18542,9.02429,0,0,0,0,0,0,0,-1,1427,1660,5.18547,-9.0243
210,-636,4.09167,7.17041,0,0,0,0,0,0,0,-1,1434,1660,4.09173,-7.17041
217,-636,2.94897,5.28992,0,0,0,0,0,0,0,-1,1441,1660,2.94899,-5.28991
224,-636,1.49194,3.63916,0,0,0,0,0,0,0,-1,1448,1660,1.49197,-3.63918
231,-636,0.17749,2.24854,0,0,0,0,0,0,0,-1,1455,1660,0.177501,-2.24855
238,-636,-0.764648,1.00598,0,0,0,0,0,0,0,-1,1462,1660,-0.764704,-1.00595
245,-636,6.21204,1.18005,0,0,0,0,0,0,0,-1,1469,1660,6.21206,-1.18001
252,-636,7.70251,0.865723,0,0,0,0,0,0,0,-1,1476,1660,7.7025,-0.865692
259,-636,9.03601,0.787231,0,0,0,0,0,0,0,-1,1483,1660,9.03598,-0.787243
266,-636,10.1071,3.24109,0,0,0,0,0,0,0,-1,1490,1660,10.1071,-3.24103
273,-636,8.48535,5.02466,0,0,0,0,0,0,0,-1,1497,1660,8.48533,-5.02472
280,-636,8.81384,5.66992,0,0,0,0,0,0,0,-1,1504,1660,8.81381,-5.66998
287,-636,6.08606,11.49,0,0,0,0,0,0,0,-1,1511,1660,6.08606,-11.49
294,-636,6.69592,15.9669,0,0,0,0,0,0,0,-1,1518,1660,6.69595,-15.9669
301,-636,5.76599,16.2966,0,0,0,0,0,0,0,-1,1525,1660,5.76602,-16.2967
308,-636,6.24658,16.5721,0,0,0,0,0,0,0,-1,1532,1660,6.24652,-16.5721
315,-636,6.23499,16.4609,0,0,0,0,0,0,0,-1,1539,1660,6.23493,-16.4609
322,-636,6.35999,16.2758,0.0100628,-0.0117465,7.06538e-06,0.0100628,-0.0117465,0.000323963,0.0126041,0.0393454,1546,1660,6.36,-16.2758
329,-636,6.50659,16.1321,0.00816973,-0.0102256,0.000423875,0.00817949,-0.0102354,0.0230262,0.0106539,0.0273607,1553,1660,6.50658,-16.1321
336,-636,6.57776,16.0626,0.00645224,-0.00867968,0.000825113,0.0064971,-0.00872454,0.0543133,0.00881953,0.0241328,1560,1660,6.57773,-16.0627
343,-636,6.54663,15.9583,0.00470387,-0.00765894,0.00135492,0.00485062,-0.00780569,0.10789,0.00737322,0.020879,1567,1660,6.54658,-15.9582
350,-636,6.55286,15.812,0.00339054,-0.00633536,0.00166521,0.00366775,-0.00661257,0.164956,0.00601597,0.0112224,1574,1660,6.55286,-15.812
357,-636,6.58301,15.6763,0.00221162,-0.00508682,0.001947,0.00269854,-0.00557374,0.245058,0.00487121,0.0100395,1581,1660,6.58303,-15.6763
364,-636,6.59131,15.5299,0.00130338,-0.00416345,0.00202813,0.00197362,-0.00483369,0.319174,0.00404418,0.0104793,1588,1660,6.59135,-15.5299
371,-636,6.58215,15.3716,0.000691101,-0.00339324,0.00207017,0.00155686,-0.004259,0.396103,0.0034765,0.00905722,1595,1660,6.58217,-15.3716
378,-636,6.5929,15.1992,7.52386e-05,-0.0026668,0.00209402,0.00120714,-0.0037987,0.495552,0.00301646,0.0088964,1602,1660,6.59291,-15.1992
385,-636,6.60071,15.0237,-2.46068e-05,-0.00197076,0.00175943,0.00101291,-0.00300828,0.532802,0.00241503,0.0134202,1609,1660,6.60075,-15.0237
392,-636,6.59851,14.8625,0.000166171,-0.00113939,0.00122865,0.000904684,-0.0018779,0.541212,0.00163895,0.0143807,1616,1660,6.59854,-14.8626
399,-636,6.5918,14.7156,0.000248402,-0.000450001,0.000699269,0.000680814,-0.000882413,0.553822,0.000905028,0.0115287,1623,1660,6.59183,-14.7156
406,-636,6.58508,14.5417,0.000347166,-9.71012e-05,0.000203377,0.000426206,-0.000176141,0.370673,0.000357616,0.0135539,1630,1660,6.58509,-14.5418
413,-636,6.60046,14.3424,0.000593545,-0.000322138,-0.000164703,0.000622269,-0.000350862,-0.172662,0.000569075,0.0210469,1637,1660,6.60045,-14.3424
420,-636,6.58569,14.1719,0.000966216,-0.00132599,-0.00021722,0.000986619,-0.00134639,-0.0936541,0.00135229,0.0221196,1644,1660,6.58565,-14.1719
427,-636,6.56458,14.0132,0.00130301,-0.0024342,-0.00024991,0.00131965,-0.00245084,-0.0664762,0.00220931,0.0130574,1651,1660,6.56461,-14.0132
434,-636,6.56323,13.8154,0.00158682,-0.00410603,-7.81934e-05,0.00158789,-0.00410711,-0.0137319,0.00339355,0.0110132,1658,1660,6.56325,-13.8155
441,-636,6.58948,13.6038,0.00188358,-0.00650697,0.000289392,0.00189355,-0.00651694,0.0344357,0.00509449,0.012076,1665,1660,6.58952,-13.6038
448,-636,6.59558,13.4155,0.0021279,-0.00952118,0.000953379,0.00220541,-0.00959869,0.0811222,0.007247,0.0142401,1672,1660,6.59561,-13.4156
455,-636,6.59155,13.2037,0.00238639,-0.0132038,0.0019242,0.00262037,-0.0134378,0.121005,0.00994768,0.0147747,1679,1660,6.59161,-13.2037
462,-636,6.52759,12.9918,0.00275239,-0.0176085,0.0031072,0.00321601,-0.0180721,0.148116,0.0132508,0.0194933,1686,1660,6.52758,-12.9919
469,-636,6.60986,12.8848,0.00322336,-0.0223607,0.00429089,0.00392383,-0.0230612,0.16182,0.0168352,0.0303816,1693,1660,6.60983,-12.8847
476,-636,6.68652,12.8982,0.00382013,-0.0267612,0.00530323,0.00471368,-0.0276547,0.166923,0.020192,0.0434228,1700,1660,6.68656,-12.8981
483,-636,6.71509,12.7935,0,0,0,0,0,0,0,-1,1707,1660,6.71511,-12.7934
490,-636,6.9375,12.3448,0,0,0,0,0,0,0,-1,1714,1660,6.93752,-12.3449
497,-636,7.5647,10.9054,0,0,0,0,0,0,0,-1,1721,1660,7.56468,-10.9054
504,-636,5.95276,11.8416,0,0,0,0,0,0,0,-1,1728,1660,5.95275,-11.8416
511,-636,5.65466,9.23218,0,0,0,0,0,0,0,-1,1735,1660,5.65461,-9.23216
518,-636,6.72791,1.07605,0,0,0,0,0,0,0,-1,1742,1660,6.7279,-1.0761
525,-636,7.04309,0.93335,0,0,0,0,0,0,0,-1,1749,1660,7.04308,-0.933298
532,-636,0,0,0,0,0,0,0,0,0,-1,1756,1660,0,0
539,-636,0,0,0,0,0,0,0,0,0,-1,1763,1660,0,0
546,-636,0,0,0,0,0,0,0,0,0,-1,1770,1660,0,0
553,-636,0,0,0,0,0,0,0,0,0,-1,1777,1660,0,0
560,-636,0,0,0,0,0,0,0,0,0,-1,1784,1660,0,0
567,-636,0,0,0,0,0,0,0,0,0,-1,1791,1660,0,0
574,-636,0,0,0,0,0,0,0,0,0,-1,1798,1660,0,0
581,-636,0,0,0,0,0,0,0,0,0,-1,1805,1660,0,0
588,-636,0,0,0,0,0,0,0,0,0,-1,1812,1660,0,0
595,-636,0,0,0,0,0,0,0,0,0,-1,1819,1660,0,0
602,-636,0,0,0,0,0,0,0,0,0,-1,1826,1660,0,0
609,-636,0,0,0,0,0,0,0,0,0,-1,1833,1660,0,0
616,-636,0,0,0,0,0,0,0,0,0,-1,1840,1660,0,0
623,-636,0,0,0,0,0,0,0,0,0,-1,1847,1660,0,0
630,-636,0,0,0,0,0,0,0,0,0,-1,1854,1660,0,0
637,-636,0,0,0,0,0,0,0,0,0,-1,1861,1660,0,0
644,-636,0,0,0,0,0,0,0,0,0,-1,1868,1660,0,0
651,-636,0,0,0,0,0,0,0,0,0,-1,1875,1660,0,0
658,-636,0,0,0,0,0,0,0,0,0,-1,1882,1660,0,0
665,-636,0,0,0,0,0,0,0,0,0,-1,1889,1660,0,0
672,-636,0,0,0,0,0,0,0,0,0,-1,1896,1660,0,0
679,-636,0,0,0,0,0,0,0,0,0,-1,1903,1660,0,0
686,-636,0,0,0,0,0,0,0,0,0,-1,1910,1660,0,0
693,-636,0,0,0,0,0,0,0,0,0,-1,1917,1660,0,0
700,-636,0,0,0,0,0,0,0,0,0,-1,1924,1660,0,0
707,-636,0,0,0,0,0,0,0,0,0,-1,1931,1660,0,0
714,-636,0,0,0,0,0,0,0,0,0,-1,1938,1660,0,0
721,-636,0,0,0,0,0,0,0,0,0,-1,1945,1660,0,0
728,-636,0,0,0,0,0,0,0,0,0,-1,1952,1660,0,0
735,-636,0,0,0,0,0,0,0,0,0,-1,1959,1660,0,0
742,-636,0,0,0,0,0,0,0,0,0,-1,1966,1660,0,0
749,-636,0,0,0,0,0,0,0,0,0,-1,1973,1660,0,0
756,-636,0,0,0,0,0,0,0,0,0,-1,1980,1660,0,0
763,-636,0,0,0,0,0,0,0,0,0,-1,1987,1660,0,0
770,-636,0,0,0,0,0,0,0,0,0,-1,1994,1660,0,0
777,-636,0,0,0,0,0,0,0,0,0,-1,2001,1660,0,0
784,-636,0,0,0,0,0,0,0,0,0,-1,2008,1660,0,0
791,-636,0,0,0,0,0,0,0,0,0,-1,2015,1660,0,0
798,-636,0,0,0,0,0,0,0,0,0,-1,2022,1660,0,0
805,-636,0,0,0,0,0,0,0,0,0,-1,2029,1660,0,0
812,-636,0,0,0,0,0,0,0,0,0,-1,2036,1660,0,0
-700,-643,0,0,0,0,0,0,0,0,0,-1,524,1667,0,0
-693,-643,0,0,0,0,0,0,0,0,0,-1,531,1667,0,0
-686,-643,0,0,0,0,0,0,0,0,0,-1,538,1667,0,0
-679,-643,0,0,0,0,0,0,0,0,0,-1,545,1667,0,0
-672,-643,0,0,0,0,0,0,0,0,0,-1,552,1667,0,0
-665,-643,0,0,0,0,0,0,0,0,0,-1,559,1667,0,0
-658,-643,0,0,0,0,0,0,0,0,0,-1,566,1667,0,0
-651,-643,0,0,0,0,0,0,0,0,0,-1,573,1667,0,0
-644,-643,0,0,0,0,0,0,0,0,0,-1,580,1667,0,0
-637,-643,0,0,0,0,0,0,0,0,0,-1,587,1667,0,0
-630,-643,0,0,0,0,0,0,0,0,0,-1,594,1667,0,0
-623,-643,0,0,0,0,0,0,0,0,0,-1,601,1667,0,0
-616,-643,0,0,0,0,0,0,0,0,0,-1,608,1667,0,0
-609,-643,0,0,0,0,0,0,0,0,0,-1,615,1667,0,0
-602,-643,0,0,0,0,0,0,0,0,0,-1,622,1667,0,0
-595,-643,0,0,0,0,0,0,0,0,0,-1,629,1667,0,0
-588,-643,0,0,0,0,0,0,0,0,0,-1,636,1667,0,0
-581,-643,0,0,0,0,0,0,0,0,0,-1,643,1667,0,0
-574,-643,0,0,0,0,0,0,0,0,0,-1,650,1667,0,0
-567,-643,0,0,0,0,0,0,0,0,0,-1,657,1667,0,0
-560,-643,0,0,0,0,0,0,0,0,0,-1,664,1667,0,0
-553,-643,0,0,0,0,0,0,0,0,0,-1,671,1667,0,0
-546,-643,0,0,0,0,0,0,0,0,0,-1,678,1667,0,0
-539,-643,0,0,0,0,0,0,0,0,0,-1,685,1667,0,0
-532,-643,0,0,0,0,0,0,0,0,0,-1,692,1667,0,0
-525,-643,0,0,0,0,0,0,0,0,0,-1,699,1667,0,0
-518,-643,0,0,0,0,0,0,0,0,0,-1,706,1667,0,0
-511,-643,0,0,0,0,0,0,0,0,0,-1,713,1667,0,0
-504,-643,0,0,0,0,0,0,0,0,0,-1,720,1667,0,0
-497,-643,0,0,0,0,0,0,0,0,0,-1,727,1667,0,0
-490,-643,0,0,0,0,0,0,0,0,0,-1,734,1667,0,0
-483,-643,0,0,0,0,0,0,0,0,0,-1,741,1667,0,0
-476,-643,0,0,0,0,0,0,0,0,0,-1,748,1667,0,0
-469,-643,0,0,0,0,0,0,0,0,0,-1,755,1667,0,0
-462,-643,0,0,0,0,0,0,0,0,0,-1,762,1667,0,0
-455,-643,0,0,0,0,0,0,0,0,0,-1,769,1667,0,0
-448,-643,0,0,0,0,0,0,0,0,0,-1,776,1667,0,0
-441,-643,0,0,0,0,0,0,0,0,0,-1,783,1667,0,0
-434,-643,0,0,0,0,0,0,0,0,0,-1,790,1667,0,0
-427,-643,0,0,0,0,0,0,0,0,0,-1,797,1667,0,0
-420,-643,0,0,0,0,0,0,0,0,0,-1,804,1667,0,0
-413,-643,0,0,0,0,0,0,0,0,0,-1,811,1667,0,0
-406,-643,0,0,0,0,0,0,0,0,0,-1,818,1667,0,0
-399,-643,0.589417,11.6465,0,0,0,0,0,0,0,-1,825,1667,0.58939,-11.6465
-392,-643,0.865295,12.6523,0,0,0,0,0,0,0,-1,832,1667,0.865315,-12.6523
-385,-643,1.72968,13.2692,0,0,0,0,0,0,0,-1,839,1667,1.72967,-13.2692
-378,-643,2.66522,13.8193,0,0,0,0,0,0,0,-1,846,1667,2.66524,-13.8193
-371,-643,0.5849,3.26428,0,0,0,0,0,0,0,-1,853,1667,0.584909,-3.26426
-364,-643,1.69513,9.922,0,0,0,0,0,0,0,-1,860,1667,1.69511,-9.92205
-357,-643,1.14227,10.8429,0,0,0,0,0,0,0,-1,867,1667,1.14228,-10.8429
-350,-643,2.50061,9.96948,0,0,0,0,0,0,0,-1,874,1667,2.50059,-9.96954
-343,-643,2.61505,6.17407,0,0,0,0,0,0,0,-1,881,1667,2.61504,-6.17412
-336,-643,3.35431,11.7324,0,0,0,0,0,0,0,-1,888,1667,3.3543,-11.7324
-329,-643,3.37897,11.9421,0.00132474,-0.000794187,-0.000809483,0.00159859,-0.00106804,-0.326216,0.0015497,0.03942,895,1667,3.379,-11.9421
-322,-643,3.40503,12.1792,0.00141593,0.00190406,-0.00047819,0.00219687,0.00112312,-1.02136,0.00126847,0.0264918,902,1667,3.40501,-12.1792
-315,-643,3.38861,12.4368,0.00127674,0.00323383,-0.000252933,0.00326599,0.00124458,-1.44433,0.00190332,0.016571,909,1667,3.38862,-12.4368
-308,-643,3.38892,12.6533,0.00112034,0.00392425,-0.000259173,0.003948,0.00109658,-1.4794,0.00235324,0.0122152,916,1667,3.38894,-12.6533
-301,-643,3.40088,12.8633,0.000905909,0.00389544,-0.000383587,0.00394388,0.000857476,-1.4452,0.00239515,0.0136633,923,1667,3.40085,-12.8633
-294,-643,3.39801,13.046,0.000730648,0.00336033,-0.000433112,0.00342982,0.00066115,-1.41169,0.00210113,0.0123431,930,1667,3.39802,-13.046
-287,-643,3.37164,13.262,0.000588126,0.00267049,-0.000484464,0.00277768,0.000480933,-1.35304,0.00171411,0.0105493,937,1667,3.37167,-13.262
-280,-643,3.36768,13.474,0.000479624,0.00181531,-0.00054749,0.00201104,0.000283893,-1.22745,0.0012568,0.0140291,944,1667,3.36769,-13.474
-273,-643,3.36578,13.6619,0.000486699,0.000969401,-0.00060016,0.00137492,8.1178e-05,-0.976575,0.000890789,0.011588,951,1667,3.3658,-13.6619
-266,-643,3.35651,13.8556,0.000611789,9.27417e-05,-0.000579241,0.000986987,-0.000282457,-0.574786,0.00076962,0.0110417,958,1667,3.35652,-13.8555
-259,-643,3.35809,14.0619,0.000788754,-0.000569021,-0.000534332,0.00097381,-0.000754077,-0.333403,0.00100028,0.0110459,965,1667,3.35807,-14.0619
-252,-643,3.37256,14.2506,0.000996619,-0.00133726,-0.000532128,0.00111222,-0.00145286,-0.213918,0.00148529,0.012485,972,1667,3.37257,-14.2507
-245,-643,3.37164,14.4362,0.0012663,-0.00207152,-0.000486757,0.00133584,-0.00214106,-0.141895,0.00202525,0.0122117,979,1667,3.37162,-14.4362
-238,-643,3.37537,14.6016,0.00150036,-0.002919,-0.000341847,0.00152665,-0.00294529,-0.0767436,0.00262482,0.0152547,986,1667,3.37539,-14.6016
-231,-643,3.36096,14.7844,0.00165039,-0.00325564,-0.000370132,0.00167816,-0.00328341,-0.0748793,0.00291411,0.0108529,993,1667,3.36097,-14.7844
-224,-643,3.38251,14.9376,0.00177567,-0.0040566,-0.00049186,0.00181686,-0.00409779,-0.0835477,0.00349844,0.00917744,1000,1667,3.38252,-14.9377
-217,-643,3.38849,15.084,0.00179838,-0.00471722,-0.00061101,0.00185518,-0.00477402,-0.0926997,0.0039491,0.00815128,1007,1667,3.38847,-15.084
-210,-643,3.37939,15.2755,0.0016441,-0.0051024,-0.0012536,0.00186951,-0.00532781,-0.177907,0.0043123,0.0104166,1014,1667,3.37938,-15.2755
-203,-643,3.39148,15.4747,0.00146122,-0.0059609,-0.0022765,0.00210382,-0.0066035,-0.27512,0.00524616,0.0123272,1021,1667,3.39143,-15.4748
-196,-643,3.40967,15.632,0.00133376,-0.0068389,-0.00323351,0.00245835,-0.00796348,-0.334706,0.00629065,0.0119059,1028,1667,3.40971,-15.632
-189,-643,3.45667,15.7759,0.00100726,-0.00741808,-0.00447469,0.00294027,-0.00935109,-0.407775,0.00741119,0.0117494,1035,1667,3.45671,-15.7758
-182,-643,3.5011,15.8823,0.00105118,-0.00837176,-0.00602352,0.00398698,-0.0113076,-0.453508,0.00916127,0.0192006,1042,1667,3.50108,-15.8823
-175,-643,3.52039,15.9742,0.0015834,-0.00906805,-0.00747283,0.00543409,-0.0129187,-0.475806,0.0108858,0.0337282,1049,1667,3.52037,-15.9742
-168,-643,3.49963,16.1481,0.00241983,-0.00982435,-0.00881058,0.0070265,-0.014431,-0.481765,0.012632,0.0403552,1056,1667,3.49968,-16.1481
-161,-643,3.46997,16.2081,0.00370886,-0.0105403,-0.0100632,0.00891426,-0.0157457,-0.477367,0.0144184,0.0446406,1063,1667,3.46997,-16.2081
-154,-643,3.44922,16.1287,0.00563573,-0.0112465,-0.0111616,0.0111887,-0.0167994,-0.461649,0.0162668,0.0455564,1070,1667,3.44927,-16.1287
-147,-643,3.43494,15.969,0,0,0,0,0,0,0,-1,1077,1667,3.43495,-15.969
-140,-643,3.4585,16.3955,0,0,0,0,0,0,0,-1,1084,1667,3.45848,-16.3955
-133,-643,3.5321,16.6941,0,0,0,0,0,0,0,-1,1091,1667,3.53208,-16.6941
-126,-643,3.74255,17.0321,0,0,0,0,0,0,0,-1,1098,1667,3.7425,-17.0321
-119,-643,3.76282,14.1458,0,0,0,0,0,0,0,-1,1105,1667,3.76283,-14.1458
-112,-643,3.81458,16.2069,0,0,0,0,0,0,0,-1,1112,1667,3.81463,-16.2069
-105,-643,-2.23413,10.0996,0,0,0,0,0,0,0,-1,1119,1667,-2.23415,-10.0996
-98,-643,3.11035,4.68066,0,0,0,0,0,0,0,-1,1126,1667,3.11041,-4.68071
-91,-643,-1.74146,-2.5885,0,0,0,0,0,0,0,-1,1133,1667,-1.74146,2.58856
-84,-643,-3.07446,-0.199341,0,0,0,0,0,0,0,-1,1140,1667,-3.07449,0.199383
-77,-643,-3.63794,2.81165,0,0,0,0,0,0,0,-1,1147,1667,-3.63791,-2.8117
-70,-643,-3.36938,4.45203,0,0,0,0,0,0,0,-1,1154,1667,-3.36941,-4.452
-63,-643,-3.67822,6.26855,0,0,0,0,0,0,0,-1,1161,1667,-3.67823,-6.26856
-56,-643,-3.95142,8.1073,0,0,0,0,0,0,0,-1,1168,1667,-3.95139,-8.10732
-49,-643,-4.23535,9.90552,0,0,0,0,0,0,0,-1,1175,1667,-4.23537,-9.90557
-42,-643,-4.25195,10.7059,0,0,0,0,0,0,0,-1,1182,1667,-4.25192,-10.706
-35,-643,-4.10986,11.6588,0,0,0,0,0,0,0,-1,1189,1667,-4.10982,-11.6589
-28,-643,-1.38513,5.604,0,0,0,0,0,0,0,-1,1196,1667,-1.3851,-5.60403
-21,-643,5.43616,20.3062,0,0,0,0,0,0,0,-1,1203,1667,5.43612,-20.3062
-14,-643,5.77222,20.4629,0,0,0,0,0,0,0,-1,1210,1667,5.77227,-20.4628
-7,-643,3.85327,18.7831,0,0,0,0,0,0,0,-1,1217,1667,3.8533,-18.7831
0,-643,7.20557,17.2932,0,0,0,0,0,0,0,-1,1224,1667,7.20551,-17.2932
7,-643,7.35217,17.6255,0.0375642,0.0589384,0.0736712,0.122694,-0.026191,0.857428,0.0917804,0.044437,1231,1667,7.35217,-17.6255
14,-643,7.48596,18.1686,0.0315105,0.0708468,0.0745563,0.128286,-0.0259282,0.914362,0.0953489,0.0430511,1238,1667,7.48599,-18.1685
21,-643,7.78235,18.7406,0.0257319,0.0754789,0.0746427,0.129283,-0.0280726,0.946229,0.0969113,0.0460454,1245,1667,7.78231,-18.7405
28,-643,8.05469,19.2365,0.0187345,0.0746375,0.0753317,0.127036,-0.0336641,0.963048,0.0978616,0.047779,1252,1667,8.0547,-19.2365
35,-643,8.36804,19.7675,0,0,0,0,0,0,0,-1,1259,1667,8.36808,-19.7674
42,-643,9.1239,19.9347,0,0,0,0,0,0,0,-1,1266,1667,9.12389,-19.9347
49,-643,9.50366,13.5615,0,0,0,0,0,0,0,-1,1273,1667,9.50364,-13.5615
56,-643,9.03198,14.4866,-0.0087884,0.0559105,0.0806107,0.110421,-0.0632985,0.976213,0.101519,0.0488916,1280,1667,9.03194,-14.4865
63,-643,8.66956,15.472,-0.0155252,0.0531217,0.0824626,0.108119,-0.0705224,0.982608,0.103897,0.0468838,1287,1667,8.66961,-15.4721
70,-643,9.11011,15.1255,-0.0222013,0.0499482,0.0808541,0.10241,-0.0746634,0.995231,0.102651,0.0473377,1294,1667,9.11007,-15.1255
77,-643,8.5293,15.6906,0,0,0,0,0,0,0,-1,1301,1667,8.52925,-15.6906
84,-643,8.31396,15.9982,-0.0298167,0.0352731,0.0697215,0.0796714,-0.074215,1.00376,0.088865,0.0442601,1308,1667,8.31396,-15.9982
91,-643,8.59265,16.1925,0,0,0,0,0,0,0,-1,1315,1667,8.59267,-16.1925
98,-643,8.90222,16.1193,-0.0264543,0.0245037,0.0475782,0.0529956,-0.0549462,1.03123,0.0623237,0.0421661,1322,1667,8.90225,-16.1193
105,-643,8.79248,18.7496,-0.0246566,0.0188282,0.0362833,0.0393849,-0.0452132,1.05533,0.0488813,0.0460454,1329,1667,8.79249,-18.7497
112,-643,7.40869,18.4106,0,0,0,0,0,0,0,-1,1336,1667,7.40863,-18.4106
119,-643,7.17126,17.4757,0,0,0,0,0,0,0,-1,1343,1667,7.17122,-17.4757
126,-643,6.93384,16.5408,0,0,0,0,0,0,0,-1,1350,1667,6.93381,-16.5407
133,-643,6.44556,15.5691,0,0,0,0,0,0,0,-1,1357,1667,6.44559,-15.5691
140,-643,6.35205,14.9551,0.00546918,-0.0386071,-0.0346458,0.0244921,-0.05763,-0.502128,0.0486829,0.0444481,1364,1667,6.35207,-14.955
147,-643,6.34583,14.6307,0.0169119,-0.0533696,-0.0488471,0.0419451,-0.0784029,-0.473583,0.0705377,0.0451497,1371,1667,6.34585,-14.6308
154,-643,6.53113,14.4225,0,0,0,0,0,0,0,-1,1378,1667,6.53119,-14.4225
161,-643,18.7611,11.0951,0,0,0,0,0,0,0,-1,1385,1667,18.7611,-11.0951
168,-643,10.5563,10.9818,0,0,0,0,0,0,0,-1,1392,1667,10.5562,-10.9819
175,-643,5.88525,-1.1698,0,0,0,0,0,0,0,-1,1399,1667,5.88526,1.16977
182,-643,5.80945,-0.418701,0,0,0,0,0,0,0,-1,1406,1667,5.80949,0.418712
189,-643,5.42297,12.9208,0,0,0,0,0,0,0,-1,1413,1667,5.42298,-12.9208
196,-643,5.51953,11.2415,0,0,0,0,0,0,0,-1,1420,1667,5.51948,-11.2414
203,-643,5.60828,9.82153,0,0,0,0,0,0,0,-1,1427,1667,5.60833,-9.82148
210,-643,4.73218,7.58728,0,0,0,0,0,0,0,-1,1434,1667,4.73222,-7.58728
217,-643,3.8031,5.28955,0,0,0,0,0,0,0,-1,1441,1667,3.80305,-5.28955
224,-643,2.96436,2.97095,0,0,0,0,0,0,0,-1,1448,1667,2.96432,-2.97095
231,-643,2.13403,1.08472,0,0,0,0,0,0,0,-1,1455,1667,2.13403,-1.08467
238,-643,1.18152,-0.261963,0,0,0,0,0,0,0,-1,1462,1667,1.18152,0.26192
245,-643,-0.157471,-1.79016,0,0,0,0,0,0,0,-1,1469,1667,-0.157517,1.7901
252,-643,8.08789,0.0202637,0,0,0,0,0,0,0,-1,1476,1667,8.08791,-0.0203056
259,-643,9.02979,-0.46936,0,0,0,0,0,0,0,-1,1483,1667,9.02974,0.46933
266,-643,4.55066,5.17554,0,0,0,0,0,0,0,-1,1490,1667,4.55063,-5.17556
273,-643,4.34363,6.56836,0,0,0,0,0,0,0,-1,1497,1667,4.34363,-6.5684
280,-643,5.75854,14.5217,0,0,0,0,0,0,0,-1,1504,1667,5.75854,-14.5218
287,-643,6.01746,17.4127,0,0,0,0,0,0,0,-1,1511,1667,6.01743,-17.4127
294,-643,5.86792,16.4282,0,0,0,0,0,0,0,-1,1518,1667,5.86789,-16.4283
301,-643,5.98059,16.3898,0.0122244,-0.0119497,-0.000808399,0.0122514,-0.0119767,-0.033391,0.0139884,0.0409596,1525,1667,5.98063,-16.3898
308,-643,6.21069,16.5001,0.0107624,-0.011014,-0.000483596,0.0107731,-0.0110247,-0.0221928,0.0125853,0.0397047,1532,1667,6.21069,-16.5001
315,-643,6.30554,16.4801,0.00926831,-0.00999268,-0.000187301,0.00927013,-0.0099945,-0.00972315,0.0111251,0.0307941,1539,1667,6.30557,-16.48
322,-643,6.34131,16.3536,0.00767552,-0.00871124,0.00011002,0.00767626,-0.00871198,0.00671355,0.00946805,0.0154254,1546,1667,6.34127,-16.3536
329,-643,6.36646,16.2217,0.00630607,-0.00757824,0.000373736,0.00631612,-0.00758829,0.0268919,0.00803891,0.0118189,1553,1667,6.36647,-16.2216
336,-643,6.35608,16.1298,0.00504292,-0.0064,0.00062963,0.00507746,-0.00643454,0.054803,0.00666183,0.0111233,1560,1667,6.35608,-16.1298
343,-643,6.37146,16.0026,0.00375115,-0.00565015,0.000987037,0.00385366,-0.00575266,0.103486,0.00558222,0.0129086,1567,1667,6.37145,-16.0026
350,-643,6.39294,15.8295,0.00276076,-0.00463618,0.00117201,0.00294201,-0.00481744,0.15344,0.00452333,0.011971,1574,1667,6.393,-15.8295
357,-643,6.39832,15.6835,0.00187355,-0.00358974,0.00131796,0.00217488,-0.00389107,0.224766,0.00354859,0.0103076,1581,1667,6.39829,-15.6835
364,-643,6.40796,15.5464,0.00115326,-0.00281794,0.00130352,0.0015429,-0.00320758,0.290462,0.00279826,0.00931159,1588,1667,6.40798,-15.5464
371,-643,6.41614,15.3893,0.000644967,-0.00217481,0.00124377,0.00111517,-0.00264501,0.361441,0.00223003,0.00801094,1595,1667,6.41608,-15.3893
378,-643,6.40894,15.2335,0.000198141,-0.001523,0.00115693,0.000779467,-0.00210432,0.465625,0.00172253,0.00927829,1602,1667,6.40891,-15.2335
385,-643,6.42505,15.0594,0.00023702,-0.000810735,0.000722874,0.000605888,-0.0011796,0.471837,0.00104844,0.0144993,1609,1667,6.42507,-15.0594
392,-643,6.43359,14.8619,0.000529351,0.000155154,-5.791e-06,0.000529441,0.000155064,-0.0154708,0.000314293,0.015474,1616,1667,6.43354,-14.8619
399,-643,6.41125,14.7104,0.000674223,0.000879276,-0.000612537,0.00139781,0.000155691,-0.868319,0.000884553,0.013889,1623,1667,6.41126,-14.7105
406,-643,6.41455,14.5398,0.000836208,0.00120598,-0.00112427,0.00216047,-0.000118276,-0.866894,0.00148131,0.0129128,1630,1667,6.41455,-14.5399
413,-643,6.43701,14.3467,0.00117066,0.000808144,-0.00148831,0.00248871,-0.000509906,-0.724803,0.00185265,0.0177701,1637,1667,6.43705,-14.3467
420,-643,6.41614,14.1715,0.00164345,-0.000572448,-0.00145371,0.0023633,-0.00129229,-0.459781,0.00214053,0.017109,1644,1667,6.41608,-14.1715
427,-643,6.40735,14.0065,0.00206129,-0.00202754,-0.00140307,0.00249644,-0.00246269,-0.300734,0.00286318,0.0142647,1651,1667,6.40734,-14.0065
434,-643,6.40356,13.8234,0.00245564,-0.00431161,-0.0010636,0.00261887,-0.00447484,-0.152279,0.00414201,0.0153475,1658,1667,6.40353,-13.8234
441,-643,6.44006,13.6184,0.00284841,-0.0075847,-0.000407698,0.00286432,-0.00760061,-0.038998,0.00624479,0.014963,1665,1667,6.44004,-13.6183
448,-643,6.44641,13.401,0.00309125,-0.0118499,0.000702321,0.00312419,-0.0118829,0.0468679,0.00914301,0.0190423,1672,1667,6.44641,-13.401
455,-643,6.29871,13.2379,0.00334093,-0.0171598,0.00228345,0.00359219,-0.017411,0.109595,0.0129716,0.0280703,1679,1667,6.29874,-13.2379
462,-643,6.09204,13.1886,0.00373395,-0.0235762,0.00419825,0.00436476,-0.0242071,0.149139,0.0177725,0.0369547,1686,1667,6.09204,-13.1886
469,-643,6.44531,12.9821,0.00424184,-0.0307585,0.00623931,0.00532082,-0.0318375,0.17124,0.0232028,0.0439591,1693,1667,6.4453,-12.982
476,-643,6.5769,13.0341,0,0,0,0,0,0,0,-1,1700,1667,6.57686,-13.034
483,-643,4.21387,10.938,0,0,0,0,0,0,0,-1,1707,1667,4.21385,-10.938
490,-643,4.57397,10.8843,0,0,0,0,0,0,0,-1,1714,1667,4.574,-10.8843
497,-643,5.08691,11.1222,0,0,0,0,0,0,0,-1,1721,1667,5.08695,-11.1222
504,-643,5.39294,11.4795,0,0,0,0,0,0,0,-1,1728,1667,5.39295,-11.4795
511,-643,6.32056,9.37439,0,0,0,0,0,0,0,-1,1735,1667,6.32061,-9.37435
518,-643,7.40564,0.922607,0,0,0,0,0,0,0,-1,1742,1667,7.4057,-0.922598
525,-643,0,0,0,0,0,0,0,0,0,-1,1749,1667,0,0
532,-643,0,0,0,0,0,0,0,0,0,-1,1756,1667,0,0
539,-643,0,0,0,0,0,0,0,0,0,-1,1763,1667,0,0
546,-643,0,0,0,0,0,0,0,0,0,-1,1770,1667,0,0
553,-643,0,0,0,0,0,0,0,0,0,-1,1777,1667,0,0
560,-643,0,0,0,0,0,0,0,0,0,-1,1784,1667,0,0
567,-643,0,0,0,0,0,0,0,0,0,-1,1791,1667,0,0
574,-643,0,0,0,0,0,0,0,0,0,-1,1798,1667,0,0
581,-643,0,0,0,0,0,0,0,0,0,-1,1805,1667,0,0
588,-643,0,0,0,0,0,0,0,0,0,-1,1812,1667,0,0
595,-643,0,0,0,0,0,0,0,0,0,-1,1819,1667,0,0
602,-643,0,0,0,0,0,0,0,0,0,-1,1826,1667,0,0
609,-643,0,0,0,0,0,0,0,0,0,-1,1833,1667,0,0
616,-643,0,0,0,0,0,0,0,0,0,-1,1840,1667,0,0
623,-643,0,0,0,0,0,0,0,0,0,-1,1847,1667,0,0
630,-643,0,0,0,0,0,0,0,0,0,-1,1854,1667,0,0
637,-643,0,0,0,0,0,0,0,0,0,-1,1861,1667,0,0
644,-643,0,0,0,0,0,0,0,0,0,-1,1868,1667,0,0
651,-643,0,0,0,0,0,0,0,0,0,-1,1875,1667,0,0
658,-643,0,0,0,0,0,0,0,0,0,-1,1882,1667,0,0
665,-643,0,0,0,0,0,0,0,0,0,-1,1889,1667,0,0
672,-643,0,0,0,0,0,0,0,0,0,-1,1896,1667,0,0
679,-643,0,0,0,0,0,0,0,0,0,-1,1903,1667,0,0
686,-643,0,0,0,0,0,0,0,0,0,-1,1910,1667,0,0
693,-643,0,0,0,0,0,0,0,0,0,-1,1917,1667,0,0
700,-643,0,0,0,0,0,0,0,0,0,-1,1924,1667,0,0
707,-643,0,0,0,0,0,0,0,0,0,-1,1931,1667,0,0
714,-643,0,0,0,0,0,0,0,0,0,-1,1938,1667,0,0
721,-643,0,0,0,0,0,0,0,0,0,-1,1945,1667,0,0
728,-643,0,0,0,0,0,0,0,0,0,-1,1952,1667,0,0
735,-643,0,0,0,0,0,0,0,0,0,-1,1959,1667,0,0
742,-643,0,0,0,0,0,0,0,0,0,-1,1966,1667,0,0
749,-643,0,0,0,0,0,0,0,0,0,-1,1973,1667,0,0
756,-643,0,0,0,0,0,0,0,0,0,-1,1980,1667,0,0
763,-643,0,0,0,0,0,0,0,0,0,-1,1987,1667,0,0
770,-643,0,0,0,0,0,0,0,0,0,-1,1994,1667,0,0
777,-643,0,0,0,0,0,0,0,0,0,-1,2001,1667,0,0
784,-643,0,0,0,0,0,0,0,0,0,-1,2008,1667,0,0
791,-643,0,0,0,0,0,0,0,0,0,-1,2015,1667,0,0
798,-643,0,0,0,0,0,0,0,0,0,-1,2022,1667,0,0
805,-643,0,0,0,0,0,0,0,0,0,-1,2029,1667,0,0
812,-643,0,0,0,0,0,0,0,0,0,-1,2036,1667,0,0
-700,-650,0,0,0,0,0,0,0,0,0,-1,524,1674,0,0
-693,-650,0,0,0,0,0,0,0,0,0,-1,531,1674,0,0
-686,-650,0,0,0,0,0,0,0,0,0,-1,538,1674,0,0
-679,-650,0,0,0,0,0,0,0,0,0,-1,545,1674,0,0
-672,-650,0,0,0,0,0,0,0,0,0,-1,552,1674,0,0
-665,-650,0,0,0,0,0,0,0,0,0,-1,559,1674,0,0
-658,-650,0,0,0,0,0,0,0,0,0,-1,566,1674,0,0
-651,-650,0,0,0,0,0,0,0,0,0,-1,573,1674,0,0
-644,-650,0,0,0,0,0,0,0,0,0,-1,580,1674,0,0
-637,-650,0,0,0,0,0,0,0,0,0,-1,587,1674,0,0
-630,-650,0,0,0,0,0,0,0,0,0,-1,594,1674,0,0
-623,-650,0,0,0,0,0,0,0,0,0,-1,601,1674,0,0
-616,-650,0,0,0,0,0,0,0,0,0,-1,608,1674,0,0
-609,-650,0,0,0,0,0,0,0,0,0,-1,615,1674,0,0
-602,-650,0,0,0,0,0,0,0,0,0,-1,622,1674,0,0
-595,-650,0,0,0,0,0,0,0,0,0,-1,629,1674,0,0
-588,-650,0,0,0,0,0,0,0,0,0,-1,636,1674,0,0
-581,-650,0,0,0,0,0,0,0,0,0,-1,643,1674,0,0
-574,-650,0,0,0,0,0,0,0,0,0,-1,650,1674,0,0
-567,-650,0,0,0,0,0,0,0,0,0,-1,657,1674,0,0
-560,-650,0,0,0,0,0,0,0,0,0,-1,664,1674,0,0
-553,-650,0,0,0,0,0,0,0,0,0,-1,671,1674,0,0
-546,-650,0,0,0,0,0,0,0,0,0,-1,678,1674,0,0
-539,-650,0,0,0,0,0,0,0,0,0,-1,685,1674,0,0
-532,-650,0,0,0,0,0,0,0,0,0,-1,692,1674,0,0
-525,-650,0,0,0,0,0,0,0,0,0,-1,699,1674,0,0
-518,-650,0,0,0,0,0,0,0,0,0,-1,706,1674,0,0
-511,-650,0,0,0,0,0,0,0,0,0,-1,713,1674,0,0
-504,-650,0,0,0,0,0,0,0,0,0,-1,720,1674,0,0
-497,-650,0,0,0,0,0,0,0,0,0,-1,727,1674,0,0
-490,-650,0,0,0,0,0,0,0,0,0,-1,734,1674,0,0
-483,-650,0,0,0,0,0,0,0,0,0,-1,741,1674,0,0
-476,-650,0,0,0,0,0,0,0,0,0,-1,748,1674,0,0
-469,-650,0,0,0,0,0,0,0,0,0,-1,755,1674,0,0
-462,-650,0,0,0,0,0,0,0,0,0,-1,762,1674,0,0
-455,-650,0,0,0,0,0,0,0,0,0,-1,769,1674,0,0
-448,-650,0,0,0,0,0,0,0,0,0,-1,776,1674,0,0
-441,-650,0,0,0,0,0,0,0,0,0,-1,783,1674,0,0
-434,-650,0,0,0,0,0,0,0,0,0,-1,790,1674,0,0
-427,-650,0,0,0,0,0,0,0,0,0,-1,797,1674,0,0
-420,-650,0,0,0,0,0,0,0,0,0,-1,804,1674,0,0
-413,-650,0,0,0,0,0,0,0,0,0,-1,811,1674,0,0
-406,-650,0,0,0,0,0,0,0,0,0,-1,818,1674,0,0
-399,-650,0,0,0,0,0,0,0,0,0,-1,825,1674,0,0
-392,-650,5.44415,6.85669,0,0,0,0,0,0,0,-1,832,1674,5.44414,-6.85674
-385,-650,1.74451,14.0183,0,0,0,0,0,0,0,-1,839,1674,1.74453,-14.0183
-378,-650,0.997986,4.11108,0,0,0,0,0,0,0,-1,846,1674,0.998006,-4.11113
-371,-650,-1.80096,3.78625,0,0,0,0,0,0,0,-1,853,1674,-1.80094,-3.78625
-364,-650,-2.95679,2.57507,0,0,0,0,0,0,0,-1,860,1674,-2.95681,-2.57506
-357,-650,1.97833,10.8362,0,0,0,0,0,0,0,-1,867,1674,1.97835,-10.8362
-350,-650,-5.30243,0.159912,0,0,0,0,0,0,0,-1,874,1674,-5.30244,-0.159866
-343,-650,-6.21338,-1.4425,0,0,0,0,0,0,0,-1,881,1674,-6.21341,1.44248
-336,-650,3.39105,10.7294,0,0,0,0,0,0,0,-1,888,1674,3.39105,-10.7293
-329,-650,3.67566,11.772,0,0,0,0,0,0,0,-1,895,1674,3.67566,-11.772
-322,-650,3.73254,12.0381,0.00181993,0.00516125,-0.000884594,0.00538099,0.00160019,-1.32732,0.00319061,0.0463535,902,1674,3.73255,-12.0381
-315,-650,3.65735,12.344,0.0015941,0.00620814,-0.000711645,0.00631541,0.00148684,-1.42119,0.00381256,0.0393545,909,1674,3.65733,-12.344
-308,-650,3.57733,12.6355,0.00135876,0.00655887,-0.000736854,0.00666126,0.00125636,-1.43272,0.00408694,0.0214758,916,1674,3.5773,-12.6355
-301,-650,3.57935,12.8627,0.00108498,0.00619291,-0.00079947,0.00631511,0.000962772,-1.41911,0.00392867,0.0113589,923,1674,3.57934,-12.8627
-294,-650,3.58478,13.0525,0.000859362,0.00538364,-0.000738166,0.00550103,0.000741971,-1.41309,0.00344676,0.00922604,930,1674,3.58476,-13.0525
-287,-650,3.58313,13.2426,0.000661718,0.00440316,-0.000685884,0.00452494,0.000539945,-1.39509,0.00285372,0.0129039,937,1674,3.58311,-13.2425
-280,-650,3.56549,13.444,0.000442268,0.00340531,-0.00062435,0.00353149,0.000316083,-1.37138,0.00225636,0.0142928,944,1674,3.56547,-13.4439
-273,-650,3.55225,13.6605,0.000354169,0.00247716,-0.000534393,0.00260409,0.000227242,-1.3376,0.00166549,0.0133192,951,1674,3.55226,-13.6606
-266,-650,3.52509,13.8496,0.000415504,0.00155855,-0.00039973,0.00168447,0.000289587,-1.26563,0.00103998,0.0107609,958,1674,3.52508,-13.8496
-259,-650,3.53503,14.0425,0.000518385,0.00091558,-0.000302124,0.00107854,0.00035543,-1.07616,0.000634639,0.0132876,965,1674,3.53503,-14.0425
-252,-650,3.53625,14.2484,0.00062341,0.000137759,-0.000227705,0.000713472,4.76971e-05,-0.376638,0.000460573,0.0124929,972,1674,3.53628,-14.2484
-245,-650,3.53815,14.4362,0.000795898,-0.00050427,-0.000148397,0.00081262,-0.000520992,-0.112214,0.000776073,0.0117818,979,1674,3.53817,-14.4362
-238,-650,3.53436,14.6056,0.000978186,-0.00141145,5.92392e-05,0.000979654,-0.00141292,0.0247697,0.00138888,0.0129119,986,1674,3.53434,-14.6056
-231,-650,3.53497,14.7847,0.00111985,-0.00166035,3.60443e-05,0.00112032,-0.00166081,0.0129617,0.00161576,0.0173938,993,1674,3.53498,-14.7847
-224,-650,3.54077,14.9694,0.00125299,-0.00235,-8.34346e-05,0.00125492,-0.00235193,-0.0231405,0.00211428,0.0147943,1000,1674,3.54079,-14.9694
-217,-650,3.54816,15.1022,0.00130606,-0.0029684,-0.000248154,0.00132041,-0.00298276,-0.0577963,0.00254548,0.00958363,1007,1674,3.54819,-15.1021
-210,-650,3.55298,15.2677,0.00122301,-0.00341566,-0.000798016,0.00135646,-0.00354911,-0.165692,0.00292502,0.0091294,1014,1674,3.55299,-15.2676
-203,-650,3.58496,15.4489,0.00113101,-0.00422653,-0.00163121,0.00158858,-0.0046841,-0.273483,0.00376566,0.0139097,1021,1674,3.58494,-15.4489
-196,-650,3.59827,15.6233,0.00111367,-0.0050716,-0.00236917,0.00191685,-0.00587478,-0.326853,0.00468797,0.0125735,1028,1674,3.59829,-15.6233
-189,-650,3.59497,15.7646,0.000950928,-0.00568344,-0.00330347,0.00231527,-0.00704778,-0.391664,0.00563123,0.00995165,1035,1674,3.59499,-15.7647
-182,-650,3.62854,15.9231,0.00113542,-0.00649053,-0.00440144,0.0031458,-0.0085009,-0.428457,0.00695712,0.00923708,1042,1674,3.62856,-15.9231
-175,-650,3.65015,16.0713,0.00171569,-0.00709674,-0.00539813,0.00427759,-0.00965864,-0.443113,0.00824359,0.0143773,1049,1674,3.65012,-16.0713
-168,-650,3.61011,16.1655,0.00254529,-0.00777237,-0.00625984,0.00549813,-0.0107252,-0.440761,0.00952722,0.0189556,1056,1674,3.61008,-16.1656
-161,-650,3.58777,16.2618,0.00373073,-0.00844771,-0.00700452,0.00692278,-0.0116398,-0.427594,0.0108318,0.0277736,1063,1674,3.58776,-16.2618
-154,-650,3.60876,16.4211,0.00538076,-0.00905834,-0.00763994,0.00867265,-0.0123502,-0.406841,0.0121993,0.0310678,1070,1674,3.60878,-16.4212
-147,-650,3.85913,16.2349,0.00748298,-0.00960625,-0.00764822,0.010406,-0.0125292,-0.365048,0.0132605,0.0429283,1077,1674,3.85909,-16.2348
-140,-650,3.98792,16.1599,0,0,0,0,0,0,0,-1,1084,1674,3.98787,-16.1599
-133,-650,3.64917,16.7733,0.0130004,-0.0104451,-0.0066446,0.0147526,-0.0121973,-0.257829,0.0155828,0.0439035,1091,1674,3.64918,-16.7733
-126,-650,3.96069,16.9342,0.0163875,-0.0112403,-0.00539094,0.0174022,-0.0122549,-0.186038,0.0172083,0.0494832,1098,1674,3.96069,-16.9342
-119,-650,4.50342,16.7803,0,0,0,0,0,0,0,-1,1105,1674,4.50344,-16.7803
-112,-650,3.86292,14.4513,0,0,0,0,0,0,0,-1,1112,1674,3.8629,-14.4513
-105,-650,4.9259,12.0626,0,0,0,0,0,0,0,-1,1119,1674,4.92591,-12.0626
-98,-650,3.3761,6.78003,0,0,0,0,0,0,0,-1,1126,1674,3.37611,-6.78009
-91,-650,3.66809,7.04443,0,0,0,0,0,0,0,-1,1133,1674,3.66806,-7.04439
-84,-650,-3.82666,-1.59521,0,0,0,0,0,0,0,-1,1140,1674,-3.82661,1.59517
-77,-650,-4.70557,1.90198,0,0,0,0,0,0,0,-1,1147,1674,-4.7056,-1.90194
-70,-650,-4.88171,3.81653,0,0,0,0,0,0,0,-1,1154,1674,-4.88176,-3.81651
-63,-650,-5.14612,5.56543,0,0,0,0,0,0,0,-1,1161,1674,-5.14612,-5.56547
-56,-650,-5.38367,7.41101,0,0,0,0,0,0,0,-1,1168,1674,-5.38361,-7.41102
-49,-650,-5.11316,8.23706,0,0,0,0,0,0,0,-1,1175,1674,-5.11317,-8.23708
-42,-650,-4.99487,9.6792,0,0,0,0,0,0,0,-1,1182,1674,-4.99484,-9.67921
-35,-650,-4.77771,11.3369,0,0,0,0,0,0,0,-1,1189,1674,-4.77769,-11.3369
-28,-650,-4.1936,13.1501,0,0,0,0,0,0,0,-1,1196,1674,-4.19358,-13.1501
-21,-650,5.56018,20.1913,0,0,0,0,0,0,0,-1,1203,1674,5.56022,-20.1912
-14,-650,5.33728,15.8242,0,0,0,0,0,0,0,-1,1210,1674,5.3373,-15.8243
-7,-650,6.26807,16.5381,0,0,0,0,0,0,0,-1,1217,1674,6.26804,-16.5381
0,-650,6.58594,17.1545,0,0,0,0,0,0,0,-1,1224,1674,6.58598,-17.1545
7,-650,6.91797,17.6948,0.0315199,0.0389056,0.0634896,0.0988097,-0.0283842,0.814448,0.0770963,0.0398324,1231,1674,6.91801,-17.6949
14,-650,7.0885,18.0079,0.0265226,0.0485138,0.0641715,0.102625,-0.0275885,0.870248,0.0792304,0.0446085,1238,1674,7.08856,-18.0079
21,-650,7.27246,18.3203,0,0,0,0,0,0,0,-1,1245,1674,7.27241,-18.3203
28,-650,7.34692,18.2766,0.0146803,0.0518547,0.0658388,0.10168,-0.0351447,0.922975,0.0820499,0.0482748,1252,1674,7.34694,-18.2767
35,-650,7.55432,18.9618,0,0,0,0,0,0,0,-1,1259,1674,7.55427,-18.9618
42,-650,7.67688,19.5258,0,0,0,0,0,0,0,-1,1266,1674,7.67689,-19.5258
49,-650,9.35974,13.455,0,0,0,0,0,0,0,-1,1273,1674,9.35973,-13.455
56,-650,8.90955,14.3859,-0.0115019,0.0372956,0.0720898,0.0890036,-0.0632099,0.948572,0.0883001,0.0465883,1280,1674,8.90959,-14.3858
63,-650,9.01965,14.9386,-0.0180223,0.0343207,0.0739949,0.0866361,-0.0703377,0.955379,0.0907915,0.0433917,1287,1674,9.01964,-14.9386
70,-650,8.61121,15.5139,-0.024425,0.0305139,0.0728604,0.080911,-0.0748222,0.965666,0.0899355,0.0479821,1294,1674,8.61122,-15.5139
77,-650,7.99292,16.1227,-0.0286843,0.0259026,0.0689457,0.0727606,-0.0755423,0.973868,0.0856278,0.0459866,1301,1674,7.99287,-16.1227
84,-650,7.55115,16.6887,-0.031442,0.0192804,0.0635891,0.0623792,-0.0745408,0.975147,0.0791547,0.0440446,1308,1674,7.55115,-16.6887
91,-650,6.6825,17.4969,0,0,0,0,0,0,0,-1,1315,1674,6.68246,-17.497
98,-650,8.97412,18.9128,0,0,0,0,0,0,0,-1,1322,1674,8.97407,-18.9129
105,-650,8.2832,18.7719,-0.0252494,0.00759884,0.0334308,0.0284222,-0.0460727,1.01372,0.0434102,0.0482485,1329,1674,8.28319,-18.7718
112,-650,6.93872,18.587,0,0,0,0,0,0,0,-1,1336,1674,6.93869,-18.5871
119,-650,6.72229,17.5912,-0.0192825,-0.00350911,0.0114101,0.00247464,-0.0252663,1.0878,0.0177267,0.0432356,1343,1674,6.72227,-17.5912
126,-650,6.44592,16.6803,-0.0134818,-0.0100056,-0.0014483,-0.00948126,-0.0140061,-1.22345,0.00825347,0.0471573,1350,1674,6.44589,-16.6803
133,-650,6.16589,15.7849,0,0,0,0,0,0,0,-1,1357,1674,6.16592,-15.7849
140,-650,6.35779,15.302,0.00258428,-0.0311381,-0.0265178,0.0171475,-0.0457013,-0.502219,0.0375133,0.047175,1364,1674,6.35774,-15.302
147,-650,6.53198,14.5682,0.0105645,-0.038447,-0.035574,0.0292564,-0.0571389,-0.483791,0.0507388,0.0498788,1371,1674,6.53196,-14.5682
154,-650,6.74219,13.8429,0,0,0,0,0,0,0,-1,1378,1674,6.74213,-13.8428
161,-650,11.2434,8.83008,0,0,0,0,0,0,0,-1,1385,1674,11.2434,-8.83004
168,-650,11.2113,7.87231,0,0,0,0,0,0,0,-1,1392,1674,11.2113,-7.87236
175,-650,5.62537,-0.230713,0,0,0,0,0,0,0,-1,1399,1674,5.62538,0.230745
182,-650,5.56006,0.421631,0,0,0,0,0,0,0,-1,1406,1674,5.56,-0.421652
189,-650,4.81543,11.0654,0,0,0,0,0,0,0,-1,1413,1674,4.81542,-11.0654
196,-650,5.39575,11.9077,0,0,0,0,0,0,0,-1,1420,1674,5.39575,-11.9078
203,-650,3.93628,11.8215,0,0,0,0,0,0,0,-1,1427,1674,3.93624,-11.8216
210,-650,5.40955,8.08594,0,0,0,0,0,0,0,-1,1434,1674,5.40958,-8.086
217,-650,5.12451,4.69739,0,0,0,0,0,0,0,-1,1441,1674,5.12451,-4.69738
224,-650,4.79041,1.45813,0,0,0,0,0,0,0,-1,1448,1674,4.79046,-1.45816
231,-650,4.04102,-0.642212,0,0,0,0,0,0,0,-1,1455,1674,4.04101,0.642209
238,-650,3.23022,-1.43396,0,0,0,0,0,0,0,-1,1462,1674,3.23023,1.43394
245,-650,1.65894,-2.55042,0,0,0,0,0,0,0,-1,1469,1674,1.65889,2.55036
252,-650,8.75342,0.355103,0,0,0,0,0,0,0,-1,1476,1674,8.75337,-0.355147
259,-650,5.61255,3.17566,0,0,0,0,0,0,0,-1,1483,1674,5.61257,-3.17572
266,-650,4.00403,6.10229,0,0,0,0,0,0,0,-1,1490,1674,4.00401,-6.10225
273,-650,5.4093,14.3718,0,0,0,0,0,0,0,-1,1497,1674,5.40929,-14.3718
280,-650,5.98108,16.8431,0,0,0,0,0,0,0,-1,1504,1674,5.98103,-16.8431
287,-650,6.03552,17.1183,0.0109145,-0.00984995,-0.000523002,0.0109276,-0.00986311,-0.0251662,0.0120088,0.0464424,1511,1674,6.03554,-17.1183
294,-650,6.20313,16.8123,0.0098959,-0.00951524,-0.000468978,0.00990722,-0.00952657,-0.0241415,0.0112208,0.0375377,1518,1674,6.20308,-16.8123
301,-650,6.1311,16.5723,0.00894496,-0.00893988,-0.000299122,0.00894996,-0.00894488,-0.0167187,0.0103316,0.0309387,1525,1674,6.13115,-16.5723
308,-650,6.18396,16.5985,0.00800357,-0.0081975,-0.000151463,0.00800499,-0.00819892,-0.00934786,0.00935555,0.0204659,1532,1674,6.18392,-16.5985
315,-650,6.20081,16.5608,0.00695295,-0.00734776,-2.47093e-05,0.006953,-0.0073478,-0.00172783,0.00825762,0.0117323,1539,1674,6.20075,-16.5607
322,-650,6.2146,16.4113,0.00580021,-0.00643255,0.000150985,0.00580207,-0.00643442,0.0123402,0.00706788,0.010206,1546,1674,6.21463,-16.4113
329,-650,6.22461,16.2357,0.00477005,-0.00557605,0.000297159,0.00477857,-0.00558457,0.0286903,0.0059892,0.0158465,1553,1674,6.22464,-16.2358
336,-650,6.21655,16.1284,0.00379089,-0.00463925,0.000436833,0.00381346,-0.00466183,0.0516336,0.00490138,0.0131609,1560,1674,6.21653,-16.1285
343,-650,6.21448,16.0065,0.00280465,-0.00407691,0.000675637,0.00287036,-0.00414262,0.0969473,0.00407109,0.0131066,1567,1674,6.21445,-16.0064
350,-650,6.24463,15.8252,0.00204208,-0.00329515,0.000765352,0.00214966,-0.00340273,0.13965,0.00323278,0.0158158,1574,1674,6.24469,-15.8252
357,-650,6.25256,15.6624,0.00135043,-0.00244671,0.000831139,0.00152439,-0.00262067,0.206319,0.00242089,0.012983,1581,1674,6.25257,-15.6624
364,-650,6.25476,15.5242,0.000778025,-0.0018092,0.000770331,0.000990017,-0.00202119,0.268548,0.00177217,0.00903258,1588,1674,6.25475,-15.5242
371,-650,6.25562,15.3843,0.000375874,-0.00129395,0.000664997,0.000608342,-0.00152642,0.336297,0.00126993,0.0110709,1595,1674,6.25557,-15.3842
378,-650,6.24573,15.2245,9.52746e-05,-0.000732375,0.000507518,0.000336298,-0.000973398,0.443371,0.000785409,0.0117341,1602,1674,6.24571,-15.2245
385,-650,6.23657,15.0371,0.000287463,-2.93594e-05,-1.40033e-06,0.000287469,-2.93655e-05,-0.00441979,0.000202147,0.0126407,1609,1674,6.23653,-15.0371
392,-650,6.25183,14.8612,0.000720411,0.00106292,-0.000924908,0.00183229,-4.89643e-05,-0.87694,0.00123817,0.0167462,1616,1674,6.25189,-14.8612
399,-650,6.24597,14.7103,0.000982484,0.00183741,-0.00163542,0.00310031,-0.000280417,-0.913227,0.0021664,0.0161951,1623,1674,6.24601,-14.7103
406,-650,6.24634,14.5535,0.00127584,0.00219427,-0.0022181,0.00400018,-0.000530082,-0.887471,0.00285991,0.0145208,1630,1674,6.24634,-14.5534
413,-650,6.25562,14.3813,0.00178808,0.00171084,-0.00265858,0.00440832,-0.000909403,-0.778135,0.00328426,0.0147106,1637,1674,6.25557,-14.3813
420,-650,6.23169,14.1973,0.00243035,8.34603e-05,-0.00265454,0.00415923,-0.00164543,-0.577286,0.00345449,0.0147633,1644,1674,6.23163,-14.1972
427,-650,6.21338,14.0212,0.0029907,-0.00165826,-0.00262423,0.0041719,-0.00283945,-0.422947,0.0040723,0.0139757,1651,1674,6.2134,-14.0212
434,-650,6.21118,13.8367,0.00359658,-0.00450599,-0.00225656,0.00418264,-0.00509205,-0.2541,0.00536332,0.016668,1658,1674,6.2112,-13.8366
441,-650,6.28223,13.6403,0.0041887,-0.00853849,-0.0014639,0.00435491,-0.0087047,-0.113055,0.00767811,0.0274797,1665,1674,6.28227,-13.6402
448,-650,6.09521,13.5892,0.00450253,-0.0142659,7.35658e-05,0.00450282,-0.0142662,0.00391956,0.0113145,0.0436039,1672,1674,6.09525,-13.5892
455,-650,5.77979,13.9231,0.00478368,-0.0214672,0.00229063,0.00498206,-0.0216656,0.0863892,0.0163592,0.0461861,1679,1674,5.77974,-13.9231
462,-650,5.71387,14.3313,0.00521644,-0.0304476,0.00509116,0.00592898,-0.0311601,0.139054,0.0230058,0.0482327,1686,1674,5.71384,-14.3312
469,-650,5.55334,14.4624,0.00576237,-0.0409476,0.00830159,0.00719391,-0.0423791,0.170762,0.0309308,0.0494565,1693,1674,5.5533,-14.4624
476,-650,5.38928,14.5682,0,0,0,0,0,0,0,-1,1700,1674,5.38928,-14.5682
483,-650,3.49097,10.5712,0,0,0,0,0,0,0,-1,1707,1674,3.491,-10.5712
490,-650,3.98425,10.6481,0,0,0,0,0,0,0,-1,1714,1674,3.98428,-10.648
497,-650,4.64648,10.8466,0,0,0,0,0,0,0,-1,1721,1674,4.64643,-10.8465
504,-650,4.71448,10.8973,0,0,0,0,0,0,0,-1,1728,1674,4.71444,-10.8974
511,-650,4.76782,10.7681,0,0,0,0,0,0,0,-1,1735,1674,4.76776,-10.7681
518,-650,0,0,0,0,0,0,0,0,0,-1,1742,1674,0,0
525,-650,0,0,0,0,0,0,0,0,0,-1,1749,1674,0,0
532,-650,0,0,0,0,0,0,0,0,0,-1,1756,1674,0,0
539,-650,0,0,0,0,0,0,0,0,0,-1,1763,1674,0,0
546,-650,0,0,0,0,0,0,0,0,0,-1,1770,1674,0,0
553,-650,0,0,0,0,0,0,0,0,0,-1,1777,1674,0,0
560,-650,0,0,0,0,0,0,0,0,0,-1,1784,1674,0,0
567,-650,0,0,0,0,0,0,0,0,0,-1,1791,1674,0,0
574,-650,0,0,0,0,0,0,0,0,0,-1,1798,1674,0,0
581,-650,0,0,0,0,0,0,0,0,0,-1,1805,1674,0,0
588,-650,0,0,0,0,0,0,0,0,0,-1,1812,1674,0,0
595,-650,0,0,0,0,0,0,0,0,0,-1,1819,1674,0,0
602,-650,0,0,0,0,0,0,0,0,0,-1,1826,1674,0,0
609,-650,0,0,0,0,0,0,0,0,0,-1,1833,1674,0,0
616,-650,0,0,0,0,0,0,0,0,0,-1,1840,1674,0,0
623,-650,0,0,0,0,0,0,0,0,0,-1,1847,1674,0,0
630,-650,0,0,0,0,0,0,0,0,0,-1,1854,1674,0,0
637,-650,0,0,0,0,0,0,0,0,0,-1,1861,1674,0,0
644,-650,0,0,0,0,0,0,0,0,0,-1,1868,1674,0,0
651,-650,0,0,0,0,0,0,0,0,0,-1,1875,1674,0,0
658,-650,0,0,0,0,0,0,0,0,0,-1,1882,1674,0,0
665,-650,0,0,0,0,0,0,0,0,0,-1,1889,1674,0,0
672,-650,0,0,0,0,0,0,0,0,0,-1,1896,1674,0,0
679,-650,0,0,0,0,0,0,0,0,0,-1,1903,1674,0,0
686,-650,0,0,0,0,0,0,0,0,0,-1,1910,1674,0,0
693,-650,0,0,0,0,0,0,0,0,0,-1,1917,1674,0,0
700,-650,0,0,0,0,0,0,0,0,0,-1,1924,1674,0,0
707,-650,0,0,0,0,0,0,0,0,0,-1,1931,1674,0,0
714,-650,0,0,0,0,0,0,0,0,0,-1,1938,1674,0,0
721,-650,0,0,0,0,0,0,0,0,0,-1,1945,1674,0,0
728,-650,0,0,0,0,0,0,0,0,0,-1,1952,1674,0,0
735,-650,0,0,0,0,0,0,0,0,0,-1,1959,1674,0,0
742,-650,0,0,0,0,0,0,0,0,0,-1,1966,1674,0,0
749,-650,0,0,0,0,0,0,0,0,0,-1,1973,1674,0,0
756,-650,0,0,0,0,0,0,0,0,0,-1,1980,1674,0,0
763,-650,0,0,0,0,0,0,0,0,0,-1,1987,1674,0,0
770,-650,0,0,0,0,0,0,0,0,0,-1,1994,1674,0,0
777,-650,0,0,0,0,0,0,0,0,0,-1,2001,1674,0,0
784,-650,0,0,0,0,0,0,0,0,0,-1,2008,1674,0,0
791,-650,0,0,0,0,0,0,0,0,0,-1,2015,1674,0,0
798,-650,0,0,0,0,0,0,0,0,0,-1,2022,1674,0,0
805,-650,0,0,0,0,0,0,0,0,0,-1,2029,1674,0,0
812,-650,0,0,0,0,0,0,0,0,0,-1,2036,1674,0,0
-700,-657,0,0,0,0,0,0,0,0,0,-1,524,1681,0,0
-693,-657,0,0,0,0,0,0,0,0,0,-1,531,1681,0,0
-686,-657,0,0,0,0,0,0,0,0,0,-1,538,1681,0,0
-679,-657,0,0,0,0,0,0,0,0,0,-1,545,1681,0,0
-672,-657,0,0,0,0,0,0,0,0,0,-1,552,1681,0,0
-665,-657,0,0,0,0,0,0,0,0,0,-1,559,1681,0,0
-658,-657,0,0,0,0,0,0,0,0,0,-1,566,1681,0,0
-651,-657,0,0,0,0,0,0,0,0,0,-1,573,1681,0,0
-644,-657,0,0,0,0,0,0,0,0,0,-1,580,1681,0,0
-637,-657,0,0,0,0,0,0,0,0,0,-1,587,1681,0,0
-630,-657,0,0,0,0,0,0,0,0,0,-1,594,1681,0,0
-623,-657,0,0,0,0,0,0,0,0,0,-1,601,1681,0,0
-616,-657,0,0,0,0,0,0,0,0,0,-1,608,1681,0,0
-609,-657,0,0,0,0,0,0,0,0,0,-1,615,1681,0,0
-602,-657,0,0,0,0,0,0,0,0,0,-1,622,1681,0,0
-595,-657,0,0,0,0,0,0,0,0,0,-1,629,1681,0,0
-588,-657,0,0,0,0,0,0,0,0,0,-1,636,1681,0,0
-581,-657,0,0,0,0,0,0,0,0,0,-1,643,1681,0,0
-574,-657,0,0,0,0,0,0,0,0,0,-1,650,1681,0,0
-567,-657,0,0,0,0,0,0,0,0,0,-1,657,1681,0,0
-560,-657,0,0,0,0,0,0,0,0,0,-1,664,1681,0,0
-553,-657,0,0,0,0,0,0,0,0,0,-1,671,1681,0,0
-546,-657,0,0,0,0,0,0,0,0,0,-1,678,1681,0,0
-539,-657,0,0,0,0,0,0,0,0,0,-1,685,1681,0,0
-532,-657,0,0,0,0,0,0,0,0,0,-1,692,1681,0,0
-525,-657,0,0,0,0,0,0,0,0,0,-1,699,1681,0,0
-518,-657,0,0,0,0,0,0,0,0,0,-1,706,1681,0,0
-511,-657,0,0,0,0,0,0,0,0,0,-1,713,1681,0,0
-504,-657,0,0,0,0,0,0,0,0,0,-1,720,1681,0,0
-497,-657,0,0,0,0,0,0,0,0,0,-1,727,1681,0,0
-490,-657,0,0,0,0,0,0,0,0,0,-1,734,1681,0,0
-483,-657,0,0,0,0,0,0,0,0,0,-1,741,1681,0,0
-476,-657,0,0,0,0,0,0,0,0,0,-1,748,1681,0,0
-469,-657,0,0,0,0,0,0,0,0,0,-1,755,1681,0,0
-462,-657,0,0,0,0,0,0,0,0,0,-1,762,1681,0,0
-455,-657,0,0,0,0,0,0,0,0,0,-1,769,1681,0,0
-448,-657,0,0,0,0,0,0,0,0,0,-1,776,1681,0,0
-441,-657,0,0,0,0,0,0,0,0,0,-1,783,1681,0,0
-434,-657,0,0,0,0,0,0,0,0,0,-1,790,1681,0,0
-427,-657,0,0,0,0,0,0,0,0,0,-1,797,1681,0,0
-420,-657,0,0,0,0,0,0,0,0,0,-1,804,1681,0,0
-413,-657,0,0,0,0,0,0,0,0,0,-1,811,1681,0,0
-406,-657,0,0,0,0,0,0,0,0,0,-1,818,1681,0,0
-399,-657,0,0,0,0,0,0,0,0,0,-1,825,1681,0,0
-392,-657,0,0,0,0,0,0,0,0,0,-1,832,1681,0,0
-385,-657,1.09814,6.18896,0,0,0,0,0,0,0,-1,839,1681,1.09814,-6.18894
-378,-657,0.31488,4.46753,0,0,0,0,0,0,0,-1,846,1681,0.31487,-4.46755
-371,-657,-0.519043,2.69421,0,0,0,0,0,0,0,-1,853,1681,-0.519064,-2.69422
-364,-657,-3.42017,4.18323,0,0,0,0,0,0,0,-1,860,1681,-3.42019,-4.18319
-357,-657,-4.41913,2.97168,0,0,0,0,0,0,0,-1,867,1681,-4.41913,-2.97165
-350,-657,-5.42291,1.70276,0,0,0,0,0,0,0,-1,874,1681,-5.42291,-1.70277
-343,-657,-6.51294,0.397339,0,0,0,0,0,0,0,-1,881,1681,-6.51295,-0.397335
-336,-657,3.52148,10.3204,0,0,0,0,0,0,0,-1,888,1681,3.52147,-10.3204
-329,-657,3.46869,11.6112,0,0,0,0,0,0,0,-1,895,1681,3.46867,-11.6112
-322,-657,3.74725,12.1796,0,0,0,0,0,0,0,-1,902,1681,3.74724,-12.1796
-315,-657,3.72437,12.458,0.00216815,0.0107544,-0.0014933,0.0110067,0.00191585,-1.40342,0.00678991,0.0432035,909,1681,3.72438,-12.458
-308,-657,3.72266,12.7069,0.00181594,0.0104359,-0.00156731,0.010712,0.00153981,-1.39641,0.00668743,0.0369048,916,1681,3.72268,-12.707
-301,-657,3.7442,12.8915,0.0014221,0.00938638,-0.00159329,0.00969329,0.00111518,-1.3805,0.00612441,0.027573,923,1681,3.74419,-12.8915
-294,-657,3.73975,13.0972,0.00108545,0.00795452,-0.00143251,0.00824129,0.000798684,-1.37322,0.00524826,0.0144551,930,1681,3.73973,-13.0972
-287,-657,3.74554,13.2786,0.000783653,0.00646607,-0.00123389,0.00672244,0.000527289,-1.36594,0.00431661,0.0100473,937,1681,3.74553,-13.2785
-280,-657,3.74097,13.4506,0.000415353,0.00533175,-0.000892423,0.00548873,0.000258372,-1.39667,0.00357614,0.0130184,944,1681,3.74095,-13.4506
-273,-657,3.73773,13.6615,0.000205024,0.00428585,-0.00050715,0.00434793,0.000142941,-1.44899,0.00285217,0.0101393,951,1681,3.73775,-13.6615
-266,-657,3.72308,13.8434,0.000185541,0.00330829,-0.000168202,0.00331733,0.000176507,-1.51714,0.00215513,0.0135854,958,1681,3.72308,-13.8434
-259,-657,3.72565,14.0195,0.000193723,0.00269425,8.64095e-05,0.00269723,0.000190741,1.53629,0.00173807,0.0168393,965,1681,3.72565,-14.0196
-252,-657,3.71796,14.2228,0.000193308,0.00189181,0.000323113,0.0019512,0.000133917,1.38902,0.00125854,0.0118104,972,1681,3.71796,-14.2227
-245,-657,3.71204,14.421,0.000277517,0.001322,0.000497676,0.00152116,7.83583e-05,1.19014,0.000989019,0.0139292,979,1681,3.71205,-14.421
-238,-657,3.71313,14.5829,0.000411203,0.000311341,0.000815891,0.00117869,-0.000456145,0.754837,0.000974117,0.0190254,986,1681,3.71313,-14.5829
-231,-657,3.72931,14.7513,0.000542317,0.000118052,0.0008093,0.00116682,-0.000506456,0.657222,0.00099083,0.0204857,993,1681,3.72932,-14.7513
-224,-657,3.71973,14.976,0.000687548,-0.000521351,0.000678841,0.000992046,-0.000825848,0.421651,0.00105102,0.0159598,1000,1681,3.71974,-14.976
-217,-657,3.72827,15.136,0.000777876,-0.00117715,0.000439591,0.000872171,-0.00127144,0.211304,0.00124475,0.00984527,1007,1681,3.72829,-15.136
-210,-657,3.72949,15.2917,0.000768246,-0.00173839,-7.41003e-05,0.000770434,-0.00174058,-0.0295272,0.00148536,0.0100812,1014,1681,3.72951,-15.2917
-203,-657,3.75977,15.4596,0.000761736,-0.00256279,-0.000797296,0.000943056,-0.00274411,-0.223616,0.00221182,0.0124635,1021,1681,3.75975,-15.4596
-196,-657,3.77612,15.6198,0.000819563,-0.00343669,-0.00144643,0.00126458,-0.00388171,-0.298477,0.00309664,0.0129789,1028,1681,3.77609,-15.6198
-189,-657,3.77002,15.7677,0.000774159,-0.00412686,-0.00222906,0.00163631,-0.00498901,-0.369056,0.00398505,0.00946426,1035,1681,3.77,-15.7676
-182,-657,3.76416,15.9298,0.00104209,-0.00483207,-0.00305776,0.00234486,-0.00613485,-0.402763,0.00505613,0.00786273,1042,1681,3.76419,-15.9298
-175,-657,3.78076,16.0867,0.00164964,-0.00538888,-0.00377304,0.00328994,-0.00702917,-0.410093,0.00608673,0.00981755,1049,1681,3.78075,-16.0867
-168,-657,3.76697,16.2345,0.00242901,-0.00598472,-0.00434412,0.00426938,-0.00782509,-0.400724,0.00708262,0.0115839,1056,1681,3.76696,-16.2344
-161,-657,3.74792,16.3605,0.00344807,-0.0065735,-0.00478505,0.00536583,-0.00849125,-0.381179,0.00806793,0.0113546,1063,1681,3.74795,-16.3605
-154,-657,3.77026,16.5005,0.00479518,-0.00706532,-0.00513631,0.00671028,-0.00898042,-0.35689,0.00909058,0.0119912,1070,1681,3.77025,-16.5005
-147,-657,3.80444,16.6095,0.00644399,-0.00756415,-0.00505698,0.00807879,-0.00919894,-0.312671,0.00998229,0.016977,1077,1681,3.80444,-16.6095
-140,-657,3.75977,16.7286,0.00837779,-0.00788715,-0.00475594,0.00966637,-0.00917573,-0.264587,0.0108797,0.0270329,1084,1681,3.75974,-16.7286
-133,-657,3.78699,16.8313,0.0106063,-0.00839393,-0.00416565,0.0114794,-0.00926709,-0.206618,0.0120007,0.0343313,1091,1681,3.78698,-16.8313
-126,-657,3.99402,16.8508,0.0130575,-0.00898398,-0.00317238,0.013505,-0.00943148,-0.140139,0.0133118,0.0383216,1098,1681,3.99396,-16.8509
-119,-657,4.24207,16.9659,0.0154652,-0.00855384,-0.00171409,0.0155869,-0.00867555,-0.070885,0.0141961,0.0470282,1105,1681,4.24201,-16.9659
-112,-657,4.20129,17.2388,0,0,0,0,0,0,0,-1,1112,1681,4.20126,-17.2387
-105,-657,3.82434,14.4906,0,0,0,0,0,0,0,-1,1119,1681,3.8244,-14.4906
-98,-657,3.78662,8.16785,0,0,0,0,0,0,0,-1,1126,1681,3.78663,-8.16786
-91,-657,3.6521,16.6017,0,0,0,0,0,0,0,-1,1133,1681,3.65215,-16.6017
-84,-657,4.08008,10.4579,0,0,0,0,0,0,0,-1,1140,1681,4.08006,-10.4579
-77,-657,-5.29846,0.396606,0,0,0,0,0,0,0,-1,1147,1681,-5.29842,-0.396573
-70,-657,-4.14893,2.14575,0,0,0,0,0,0,0,-1,1154,1681,-4.14893,-2.1458
-63,-657,-4.1239,3.177,0,0,0,0,0,0,0,-1,1161,1681,-4.12391,-3.17698
-56,-657,-6.40576,5.73987,0,0,0,0,0,0,0,-1,1168,1681,-6.40577,-5.7399
-49,-657,-5.98462,7.54053,0,0,0,0,0,0,0,-1,1175,1681,-5.98466,-7.5405
-42,-657,-5.71948,9.28955,0,0,0,0,0,0,0,-1,1182,1681,-5.71951,-9.2895
-35,-657,-5.44556,11.015,0,0,0,0,0,0,0,-1,1189,1681,-5.44555,-11.015
-28,-657,-1.3446,8.92847,0,0,0,0,0,0,0,-1,1196,1681,-1.34459,-8.92848
-21,-657,4.95764,15.8789,0,0,0,0,0,0,0,-1,1203,1681,4.95762,-15.8789
-14,-657,5.63171,16.3118,0.0339265,-0.0026794,0.0514683,0.0702494,-0.0390023,0.614564,0.0639307,0.0448508,1210,1681,5.63166,-16.3118
-7,-657,6.09851,16.9949,0,0,0,0,0,0,0,-1,1217,1681,6.09851,-16.9948
0,-657,6.28284,17.4141,0.0299749,0.0132864,0.0523796,0.0746707,-0.0314093,0.70641,0.0629201,0.0448935,1224,1681,6.2829,-17.414
7,-657,6.37781,17.6805,0.026242,0.0236631,0.0535218,0.0784899,-0.0285848,0.773354,0.0640186,0.0424374,1231,1681,6.3778,-17.6806
14,-657,6.52039,17.858,0.0221669,0.0314886,0.0540667,0.0810949,-0.0274394,0.828394,0.0651648,0.0427783,1238,1681,6.52045,-17.8581
21,-657,6.57324,17.8569,0.0174965,0.0347126,0.0548222,0.0815985,-0.0293894,0.863271,0.0664001,0.0452022,1245,1681,6.57324,-17.8569
28,-657,6.44446,17.5162,0.0115792,0.0343879,0.0562319,0.0803602,-0.0343931,0.885446,0.0680016,0.0445684,1252,1681,6.44444,-17.5162
35,-657,6.67798,17.9922,0,0,0,0,0,0,0,-1,1259,1681,6.678,-17.9921
42,-657,9.38489,12.2299,-0.000154647,0.0269565,0.0589149,0.0738552,-0.0470533,0.898474,0.0703759,0.0418058,1266,1681,9.38492,-12.2299
49,-657,9.16809,13.2734,-0.00567248,0.0278597,0.0614675,0.0748067,-0.0526194,0.918541,0.0739403,0.0433995,1273,1681,9.16806,-13.2734
56,-657,8.79285,14.2605,-0.0120952,0.0235523,0.0626483,0.070863,-0.0594059,0.923989,0.0753077,0.0425531,1280,1681,8.79283,-14.2605
63,-657,8.52795,15.2906,-0.0180687,0.0206723,0.0644547,0.0686043,-0.0660007,0.931369,0.0777191,0.0453062,1287,1681,8.52794,-15.2907
70,-657,8.20898,16.0176,-0.0238808,0.0167859,0.0636666,0.0632873,-0.0703822,0.939965,0.0772104,0.0485087,1294,1681,8.20895,-16.0175
77,-657,7.45508,16.5764,-0.0278001,0.0129788,0.0606965,0.056619,-0.0714403,0.947439,0.0741,0.0467221,1301,1681,7.45504,-16.5764
84,-657,6.82336,17.2594,-0.0302011,0.00775863,0.0561073,0.0480093,-0.0704518,0.948496,0.0688015,0.0450356,1308,1681,6.82339,-17.2595
91,-657,6.09546,18.0089,0,0,0,0,0,0,0,-1,1315,1681,6.09542,-18.0089
98,-657,8.49597,19.0526,0,0,0,0,0,0,0,-1,1322,1681,8.49598,-19.0527
105,-657,7.80713,18.8252,0,0,0,0,0,0,0,-1,1329,1681,7.80713,-18.8252
112,-657,6.75537,18.4598,0,0,0,0,0,0,0,-1,1336,1681,6.75543,-18.4599
119,-657,6.34387,17.7251,-0.0183294,-0.00855148,0.0106899,-0.00168565,-0.0251952,0.99987,0.0162641,0.0457282,1343,1681,6.3439,-17.725
126,-657,5.92578,16.9072,-0.0130042,-0.0128656,-0.000291227,-0.0126355,-0.0132342,-0.902222,0.00863018,0.0456519,1350,1681,5.92575,-16.9072
133,-657,5.73291,16.0894,-0.00630747,-0.0190367,-0.0109028,-4.75449e-05,-0.0252966,-0.521201,0.0168486,0.0451086,1357,1681,5.73286,-16.0893
140,-657,6.11084,15.3827,0.000177346,-0.025726,-0.0197894,0.0108766,-0.0364252,-0.495641,0.0286068,0.0449883,1364,1681,6.11089,-15.3827
147,-657,6.64795,14.5109,0.00602654,-0.0295962,-0.0260591,0.0197797,-0.0433494,-0.485616,0.0372848,0.0497149,1371,1681,6.64796,-14.5108
154,-657,7.10889,13.4701,0,0,0,0,0,0,0,-1,1378,1681,7.10887,-13.4701
161,-657,12.8524,6.43372,0,0,0,0,0,0,0,-1,1385,1681,12.8524,-6.43366
168,-657,5.21643,0.70105,0,0,0,0,0,0,0,-1,1392,1681,5.21648,-0.7011
175,-657,5.52771,0.649048,0,0,0,0,0,0,0,-1,1399,1681,5.52774,-0.649019
182,-657,5.73999,1.02612,0,0,0,0,0,0,0,-1,1406,1681,5.73995,-1.02611
189,-657,5.92126,1.44116,0,0,0,0,0,0,0,-1,1413,1681,5.92126,-1.44115
196,-657,4.92834,9.59021,0,0,0,0,0,0,0,-1,1420,1681,4.9284,-9.59018
203,-657,6.26343,5.16492,0,0,0,0,0,0,0,-1,1427,1681,6.26345,-5.16488
210,-657,3.9856,5.28088,0,0,0,0,0,0,0,-1,1434,1681,3.98555,-5.28084
217,-657,3.95178,5.2843,0,0,0,0,0,0,0,-1,1441,1681,3.95174,-5.28431
224,-657,6.66736,-0.250244,0,0,0,0,0,0,0,-1,1448,1681,6.66737,0.250229
231,-657,6.85498,-1.70752,0,0,0,0,0,0,0,-1,1455,1681,6.855,1.70758
238,-657,5.34143,-2.89819,0,0,0,0,0,0,0,-1,1462,1681,5.34143,2.89813
245,-657,8.66003,-0.102783,0,0,0,0,0,0,0,-1,1469,1681,8.66,0.102824
252,-657,4.78955,0.623779,0,0,0,0,0,0,0,-1,1476,1681,4.7895,-0.623826
259,-657,2.61523,4.31909,0,0,0,0,0,0,0,-1,1483,1681,2.61523,-4.31908
266,-657,5.35437,11.4742,0,0,0,0,0,0,0,-1,1490,1681,5.35441,-11.4742
273,-657,5.78882,16.9637,0,0,0,0,0,0,0,-1,1497,1681,5.78885,-16.9637
280,-657,5.91333,16.8959,0.00856937,-0.00776893,-2.21258e-05,0.0085694,-0.00776896,-0.00135423,0.00943673,0.0391696,1504,1681,5.91338,-16.8959
287,-657,6.02917,16.9325,0.00779415,-0.00735099,-8.30423e-05,0.00779461,-0.00735145,-0.00548288,0.00874583,0.0306918,1511,1681,6.02914,-16.9324
294,-657,6.04102,16.8719,0.00709301,-0.00703958,-0.000112739,0.00709391,-0.00704048,-0.00797653,0.00816051,0.0244255,1518,1681,6.04101,-16.8719
301,-657,6.03064,16.7954,0.00641556,-0.00657571,-6.61777e-05,0.0064159,-0.00657605,-0.00509383,0.00750109,0.0159345,1525,1681,6.0306,-16.7955
308,-657,6.05566,16.6688,0.00582906,-0.00601664,-3.6184e-05,0.00582917,-0.00601676,-0.00305457,0.00683953,0.0120381,1532,1681,6.05563,-16.6688
315,-657,6.06482,16.5422,0.00509596,-0.00536962,2.3356e-05,0.00509602,-0.00536968,0.00223168,0.00604306,0.0109355,1539,1681,6.06479,-16.5423
322,-657,6.07385,16.3757,0.00423884,-0.00470781,0.000117646,0.00424038,-0.00470936,0.0131467,0.0051695,0.0129077,1546,1681,6.07381,-16.3757
329,-657,6.08118,16.2144,0.00346321,-0.00402948,0.000160058,0.00346663,-0.00403289,0.0213489,0.00433396,0.0180134,1553,1681,6.08116,-16.2143
336,-657,6.06519,16.1029,0.00270493,-0.00330657,0.000202379,0.00271174,-0.00331337,0.0336145,0.00348438,0.0143709,1560,1681,6.06524,-16.1029
343,-657,6.06958,15.9912,0.00197737,-0.0028311,0.000300851,0.00199612,-0.00284985,0.0622435,0.00281225,0.0123859,1567,1681,6.0696,-15.9912
350,-657,6.09827,15.8134,0.00141302,-0.00220026,0.000278432,0.00143435,-0.00222159,0.0764564,0.00212701,0.0152278,1574,1681,6.09821,-15.8134
357,-657,6.09192,15.6658,0.000899038,-0.001483,0.000234634,0.000921929,-0.00150589,0.0972558,0.00141516,0.0140854,1581,1681,6.09189,-15.6657
364,-657,6.10388,15.5258,0.000474815,-0.000906899,8.71855e-05,0.000480295,-0.000912378,0.0627677,0.000816858,0.0104439,1588,1681,6.10384,-15.5258
371,-657,6.11768,15.3849,0.00019187,-0.000445603,-9.76174e-05,0.000206483,-0.000460216,-0.148597,0.000394102,0.0143718,1595,1681,6.11767,-15.3849
378,-657,6.10168,15.2306,7.99591e-05,7.45026e-05,-0.000344449,0.000421691,-0.000267229,-0.781438,0.000401067,0.0135093,1602,1681,6.10164,-15.2306
385,-657,6.07922,15.0413,0.000430489,0.000804692,-0.000939684,0.00157572,-0.000340539,-0.883668,0.00118048,0.0116746,1609,1681,6.07916,-15.0412
392,-657,6.08179,14.8782,0.00101303,0.00206535,-0.00206522,0.00367038,-0.000592001,-0.910132,0.00266625,0.0124801,1616,1681,6.08183,-14.8782
399,-657,6.10266,14.7162,0.00140386,0.00290936,-0.00288709,0.00514022,-0.000826995,-0.912924,0.00373314,0.0126228,1623,1681,6.10264,-14.7162
406,-657,6.10291,14.5632,0.00184089,0.00333261,-0.00355793,0.00622203,-0.00104852,-0.888718,0.00453808,0.0135086,1630,1681,6.10287,-14.5632
413,-657,6.09119,14.3782,0.00263688,0.00281301,-0.00411814,0.00684403,-0.00139413,-0.796089,0.00509142,0.013905,1637,1681,6.09114,-14.3781
420,-657,6.0741,14.1395,0.0035354,0.00106053,-0.00419681,0.00667341,-0.00207747,-0.642035,0.00527948,0.0155452,1644,1681,6.07413,-14.1395
427,-657,6.04285,13.9214,0.00416475,-0.000979815,-0.00417568,0.00649685,-0.00331191,-0.509342,0.00576175,0.0192486,1651,1681,6.0428,-13.9213
434,-657,6.13367,13.7479,0.00512547,-0.00435015,-0.00392275,0.00653866,-0.00576334,-0.345781,0.00710726,0.0269084,1658,1681,6.13365,-13.7479
441,-657,6.08752,13.5953,0.0060912,-0.00917274,-0.00313806,0.00671117,-0.00979271,-0.195051,0.00958372,0.0455762,1665,1681,6.08755,-13.5953
448,-657,5.66467,13.8003,0,0,0,0,0,0,0,-1,1672,1681,5.66467,-13.8003
455,-657,5.28027,14.5677,0,0,0,0,0,0,0,-1,1679,1681,5.28033,-14.5678
462,-657,5.24744,15.1647,0,0,0,0,0,0,0,-1,1686,1681,5.24748,-15.1647
469,-657,5.0802,15.2487,0,0,0,0,0,0,0,-1,1693,1681,5.08023,-15.2487
476,-657,8.37659,10.886,0,0,0,0,0,0,0,-1,1700,1681,8.37653,-10.886
483,-657,7.65344,7.35059,0,0,0,0,0,0,0,-1,1707,1681,7.65347,-7.3506
490,-657,3.58337,10.4789,0,0,0,0,0,0,0,-1,1714,1681,3.58338,-10.4789
497,-657,4.08655,10.1487,0,0,0,0,0,0,0,-1,1721,1681,4.08655,-10.1487
504,-657,0,0,0,0,0,0,0,0,0,-1,1728,1681,0,0
511,-657,0,0,0,0,0,0,0,0,0,-1,1735,1681,0,0
518,-657,0,0,0,0,0,0,0,0,0,-1,1742,1681,0,0
525,-657,0,0,0,0,0,0,0,0,0,-1,1749,1681,0,0
532,-657,0,0,0,0,0,0,0,0,0,-1,1756,1681,0,0
539,-657,0,0,0,0,0,0,0,0,0,-1,1763,1681,0,0
546,-657,0,0,0,0,0,0,0,0,0,-1,1770,1681,0,0
553,-657,0,0,0,0,0,0,0,0,0,-1,1777,1681,0,0
560,-657,0,0,0,0,0,0,0,0,0,-1,1784,1681,0,0
567,-657,0,0,0,0,0,0,0,0,0,-1,1791,1681,0,0
574,-657,0,0,0,0,0,0,0,0,0,-1,1798,1681,0,0
581,-657,0,0,0,0,0,0,0,0,0,-1,1805,1681,0,0
588,-657,0,0,0,0,0,0,0,0,0,-1,1812,1681,0,0
595,-657,0,0,0,0,0,0,0,0,0,-1,1819,1681,0,0
602,-657,0,0,0,0,0,0,0,0,0,-1,1826,1681,0,0
609,-657,0,0,0,0,0,0,0,0,0,-1,1833,1681,0,0
616,-657,0,0,0,0,0,0,0,0,0,-1,1840,1681,0,0
623,-657,0,0,0,0,0,0,0,0,0,-1,1847,1681,0,0
630,-657,0,0,0,0,0,0,0,0,0,-1,1854,1681,0,0
637,-657,0,0,0,0,0,0,0,0,0,-1,1861,1681,0,0
644,-657,0,0,0,0,0,0,0,0,0,-1,1868,1681,0,0
651,-657,0,0,0,0,0,0,0,0,0,-1,1875,1681,0,0
658,-657,0,0,0,0,0,0,0,0,0,-1,1882,1681,0,0
665,-657,0,0,0,0,0,0,0,0,0,-1,1889,1681,0,0
672,-657,0,0,0,0,0,0,0,0,0,-1,1896,1681,0,0
679,-657,0,0,0,0,0,0,0,0,0,-1,1903,1681,0,0
686,-657,0,0,0,0,0,0,0,0,0,-1,1910,1681,0,0
693,-657,0,0,0,0,0,0,0,0,0,-1,1917,1681,0,0
700,-657,0,0,0,0,0,0,0,0,0,-1,1924,1681,0,0
707,-657,0,0,0,0,0,0,0,0,0,-1,1931,1681,0,0
714,-657,0,0,0,0,0,0,0,0,0,-1,1938,1681,0,0
721,-657,0,0,0,0,0,0,0,0,0,-1,1945,1681,0,0
728,-657,0,0,0,0,0,0,0,0,0,-1,1952,1681,0,0
735,-657,0,0,0,0,0,0,0,0,0,-1,1959,1681,0,0
742,-657,0,0,0,0,0,0,0,0,0,-1,1966,1681,0,0
749,-657,0,0,0,0,0,0,0,0,0,-1,1973,1681,0,0
756,-657,0,0,0,0,0,0,0,0,0,-1,1980,1681,0,0
763,-657,0,0,0,0,0,0,0,0,0,-1,1987,1681,0,0
770,-657,0,0,0,0,0,0,0,0,0,-1,1994,1681,0,0
777,-657,0,0,0,0,0,0,0,0,0,-1,2001,1681,0,0
784,-657,0,0,0,0,0,0,0,0,0,-1,2008,1681,0,0
791,-657,0,0,0,0,0,0,0,0,0,-1,2015,1681,0,0
798,-657,0,0,0,0,0,0,0,0,0,-1,2022,1681,0,0
805,-657,0,0,0,0,0,0,0,0,0,-1,2029,1681,0,0
812,-657,0,0,0,0,0,0,0,0,0,-1,2036,1681,0,0
-700,-664,0,0,0,0,0,0,0,0,0,-1,524,1688,0,0
-693,-664,0,0,0,0,0,0,0,0,0,-1,531,1688,0,0
-686,-664,0,0,0,0,0,0,0,0,0,-1,538,1688,0,0
-679,-664,0,0,0,0,0,0,0,0,0,-1,545,1688,0,0
-672,-664,0,0,0,0,0,0,0,0,0,-1,552,1688,0,0
-665,-664,0,0,0,0,0,0,0,0,0,-1,559,1688,0,0
-658,-664,0,0,0,0,0,0,0,0,0,-1,566,1688,0,0
-651,-664,0,0,0,0,0,0,0,0,0,-1,573,1688,0,0
-644,-664,0,0,0,0,0,0,0,0,0,-1,580,1688,0,0
-637,-664,0,0,0,0,0,0,0,0,0,-1,587,1688,0,0
-630,-664,0,0,0,0,0,0,0,0,0,-1,594,1688,0,0
-623,-664,0,0,0,0,0,0,0,0,0,-1,601,1688,0,0
-616,-664,0,0,0,0,0,0,0,0,0,-1,608,1688,0,0
-609,-664,0,0,0,0,0,0,0,0,0,-1,615,1688,0,0
-602,-664,0,0,0,0,0,0,0,0,0,-1,622,1688,0,0
-595,-664,0,0,0,0,0,0,0,0,0,-1,629,1688,0,0
-588,-664,0,0,0,0,0,0,0,0,0,-1,636,1688,0,0
-581,-664,0,0,0,0,0,0,0,0,0,-1,643,1688,0,0
-574,-664,0,0,0,0,0,0,0,0,0,-1,650,1688,0,0
-567,-664,0,0,0,0,0,0,0,0,0,-1,657,1688,0,0
-560,-664,0,0,0,0,0,0,0,0,0,-1,664,1688,0,0
-553,-664,0,0,0,0,0,0,0,0,0,-1,671,1688,0,0
-546,-664,0,0,0,0,0,0,0,0,0,-1,678,1688,0,0
-539,-664,0,0,0,0,0,0,0,0,0,-1,685,1688,0,0
-532,-664,0,0,0,0,0,0,0,0,0,-1,692,1688,0,0
-525,-664,0,0,0,0,0,0,0,0,0,-1,699,1688,0,0
-518,-664,0,0,0,0,0,0,0,0,0,-1,706,1688,0,0
-511,-664,0,0,0,0,0,0,0,0,0,-1,713,1688,0,0
-504,-664,0,0,0,0,0,0,0,0,0,-1,720,1688,0,0
-497,-664,0,0,0,0,0,0,0,0,0,-1,727,1688,0,0
-490,-664,0,0,0,0,0,0,0,0,0,-1,734,1688,0,0
-483,-664,0,0,0,0,0,0,0,0,0,-1,741,1688,0,0
-476,-664,0,0,0,0,0,0,0,0,0,-1,748,1688,0,0
-469,-664,0,0,0,0,0,0,0,0,0,-1,755,1688,0,0
-462,-664,0,0,0,0,0,0,0,0,0,-1,762,1688,0,0
-455,-664,0,0,0,0,0,0,0,0,0,-1,769,1688,0,0
-448,-664,0,0,0,0,0,0,0,0,0,-1,776,1688,0,0
-441,-664,0,0,0,0,0,0,0,0,0,-1,783,1688,0,0
-434,-664,0,0,0,0,0,0,0,0,0,-1,790,1688,0,0
-427,-664,0,0,0,0,0,0,0,0,0,-1,797,1688,0,0
-420,-664,0,0,0,0,0,0,0,0,0,-1,804,1688,0,0
-413,-664,0,0,0,0,0,0,0,0,0,-1,811,1688,0,0
-406,-664,0,0,0,0,0,0,0,0,0,-1,818,1688,0,0
-399,-664,0,0,0,0,0,0,0,0,0,-1,825,1688,0,0
-392,-664,0,0,0,0,0,0,0,0,0,-1,832,1688,0,0
-385,-664,0,0,0,0,0,0,0,0,0,-1,839,1688,0,0
-378,-664,0,0,0,0,0,0,0,0,0,-1,846,1688,0,0
-371,-664,-1.61676,5.92737,0,0,0,0,0,0,0,-1,853,1688,-1.61675,-5.92735
-364,-664,-3.901,5.87024,0,0,0,0,0,0,0,-1,860,1688,-3.90097,-5.87027
-357,-664,-4.81012,4.53479,0,0,0,0,0,0,0,-1,867,1688,-4.81012,-4.5348
-350,-664,-5.7193,3.19934,0,0,0,0,0,0,0,-1,874,1688,-5.71927,-3.19932
-343,-664,-6.37476,1.54712,0,0,0,0,0,0,0,-1,881,1688,-6.37479,-1.54714
-336,-664,3.33313,10.5156,0,0,0,0,0,0,0,-1,888,1688,3.33311,-10.5156
-329,-664,3.43506,10.6934,0,0,0,0,0,0,0,-1,895,1688,3.43506,-10.6934
-322,-664,3.7356,11.8364,0,0,0,0,0,0,0,-1,902,1688,3.73561,-11.8365
-315,-664,3.7973,12.5374,0,0,0,0,0,0,0,-1,909,1688,3.79731,-12.5374
-308,-664,3.83185,12.5101,0.00249716,0.0162314,-0.00281384,0.0167856,0.00194302,-1.37635,0.0106022,0.046012,916,1688,3.83186,-12.5102
-301,-664,3.92828,12.8833,0.00197249,0.0140404,-0.00274291,0.0146346,0.00137831,-1.35747,0.00933093,0.0461245,923,1688,3.92831,-12.8833
-294,-664,4.03198,13.2898,0.00153618,0.0115739,-0.00240773,0.0121216,0.000988517,-1.34714,0.00777252,0.040343,930,1688,4.03196,-13.2898
-287,-664,3.98883,13.3425,0.00111446,0.0092321,-0.00200581,0.00970067,0.000645889,-1.3413,0.00626293,0.027531,937,1688,3.98882,-13.3425
-280,-664,3.91479,13.4913,0.000511329,0.00767627,-0.00136146,0.00792625,0.00026135,-1.38921,0.00519924,0.0192423,944,1688,3.9148,-13.4913
-273,-664,3.94751,13.6418,0.000164787,0.00630553,-0.00056422,0.00635694,0.000113376,-1.47993,0.00420068,0.0159466,951,1688,3.94752,-13.6419
-266,-664,3.9129,13.8101,3.10593e-05,0.00508276,-6.91165e-06,0.00508276,3.10498e-05,-1.56943,0.00337821,0.0220282,958,1688,3.91288,-13.8101
-259,-664,3.89917,14.0154,-8.10015e-05,0.00434473,0.000403249,0.00438117,-0.000117443,1.48067,0.0029607,0.0174788,965,1688,3.89916,-14.0154
-252,-664,3.92926,14.2257,-0.000191469,0.00335535,0.000784502,0.00352112,-0.000357241,1.36255,0.0024751,0.0157044,972,1688,3.92927,-14.2257
-245,-664,3.87756,14.4308,-0.000211839,0.00273952,0.00103226,0.00306473,-0.000537042,1.2656,0.00224369,0.0198044,979,1688,3.87756,-14.4308
-238,-664,3.89258,14.5914,-0.000134947,0.00154323,0.00146589,0.00239319,-0.00098491,1.04534,0.00200604,0.023048,986,1688,3.89257,-14.5914
-231,-664,3.89282,14.7557,-6.93559e-06,0.00138048,0.00148481,0.00232564,-0.000952099,1.00393,0.001947,0.0194682,993,1688,3.89284,-14.7557
-224,-664,3.90491,14.9573,0.000164289,0.000774813,0.00136093,0.00186429,-0.000925191,0.895724,0.00164065,0.0132714,1000,1688,3.9049,-14.9572
-217,-664,3.89972,15.1305,0.0002982,8.31195e-05,0.00107612,0.00127214,-0.000890821,0.735597,0.00125524,0.0106387,1007,1688,3.89974,-15.1305
-210,-664,3.89624,15.287,0.00035288,-0.000562545,0.000613848,0.000660876,-0.000870541,0.465044,0.000886922,0.0110123,1014,1688,3.89625,-15.2869
-203,-664,3.90381,15.4501,0.000418407,-0.00138066,-1.04079e-06,0.000418408,-0.00138066,-0.000578519,0.00108709,0.0126392,1021,1688,3.90381,-15.4501
-196,-664,3.92517,15.5991,0.000535984,-0.00223748,-0.0005725,0.000649512,-0.00235101,-0.195763,0.00182284,0.0133689,1028,1688,3.92519,-15.5991
-189,-664,3.92566,15.7638,0.000580792,-0.00292183,-0.00123179,0.000970599,-0.00331164,-0.306486,0.00259258,0.00958429,1035,1688,3.9257,-15.7637
-182,-664,3.91467,15.9275,0.000877688,-0.0035358,-0.00188932,0.00157598,-0.0042341,-0.354028,0.00346949,0.00938695,1042,1688,3.91462,-15.9275
-175,-664,3.927,16.0618,0.00145696,-0.00408592,-0.0024616,0.00239232,-0.00502128,-0.36313,0.00436903,0.0120931,1049,1688,3.92696,-16.0618
-168,-664,3.92859,16.2084,0.00213537,-0.00459722,-0.00289564,0.00320943,-0.00567127,-0.355189,0.00519253,0.0134144,1056,1688,3.92863,-16.2083
-161,-664,3.91602,16.3456,0.0029671,-0.00505687,-0.00316103,0.00406277,-0.00615254,-0.333659,0.00593881,0.00977959,1063,1688,3.91601,-16.3455
-154,-664,3.93945,16.4838,0.00403633,-0.0054082,-0.00335854,0.00510885,-0.00648072,-0.309106,0.00670685,0.00928688,1070,1688,3.93946,-16.4838
-147,-664,3.94873,16.6119,0.00530321,-0.00578459,-0.00326973,0.00619562,-0.00667699,-0.266439,0.00743373,0.0102593,1077,1688,3.94871,-16.612
-140,-664,3.96667,16.7468,0.00673668,-0.00605287,-0.00302879,0.00741769,-0.00673388,-0.221167,0.00817359,0.0105578,1084,1688,3.96668,-16.7468
-133,-664,3.9873,16.8676,0.00835564,-0.00647603,-0.00256627,0.00878712,-0.00690751,-0.166577,0.00908294,0.0108534,1091,1688,3.98727,-16.8675
-126,-664,4.08252,16.959,0.0101229,-0.00688746,-0.00181565,0.0103146,-0.0070791,-0.10516,0.0101,0.01967,1098,1688,4.0825,-16.959
-119,-664,4.18469,17,0.0118643,-0.00655525,-0.00073648,0.0118937,-0.00658465,-0.0398987,0.0108143,0.0351801,1105,1688,4.1847,-17.0001
-112,-664,4.31396,17.0953,0.0133894,-0.00654176,0.00024156,0.0133923,-0.00654468,0.0121173,0.0117348,0.0441638,1112,1688,4.31399,-17.0953
-105,-664,4.15479,17.114,0,0,0,0,0,0,0,-1,1119,1688,4.15483,-17.114
-98,-664,4.1123,17.1851,0,0,0,0,0,0,0,-1,1126,1688,4.11232,-17.1851
-91,-664,3.7981,16.9382,0,0,0,0,0,0,0,-1,1133,1688,3.79811,-16.9382
-84,-664,3.48389,16.6913,0,0,0,0,0,0,0,-1,1140,1688,3.4839,-16.6913
-77,-664,4.52014,11.2122,0,0,0,0,0,0,0,-1,1147,1688,4.5202,-11.2122
-70,-664,4.20374,8.24524,0,0,0,0,0,0,0,-1,1154,1688,4.20379,-8.24519
-63,-664,-4.677,2.40503,0,0,0,0,0,0,0,-1,1161,1688,-4.67702,-2.40498
-56,-664,-4.66504,3.32727,0,0,0,0,0,0,0,-1,1168,1688,-4.6651,-3.32724
-49,-664,-2.54297,3.31848,0,0,0,0,0,0,0,-1,1175,1688,-2.54297,-3.31852
-42,-664,-0.359253,4.38684,0,0,0,0,0,0,0,-1,1182,1688,-0.359261,-4.38685
-35,-664,-0.705566,3.55017,0,0,0,0,0,0,0,-1,1189,1688,-0.705567,-3.55023
-28,-664,-1.54236,10.2538,0,0,0,0,0,0,0,-1,1196,1688,-1.54236,-10.2538
-21,-664,5.8407,16.04,0,0,0,0,0,0,0,-1,1203,1688,5.84064,-16.0401
-14,-664,5.83838,17.4171,0,0,0,0,0,0,0,-1,1210,1688,5.83834,-17.4172
-7,-664,5.52441,17.3586,0,0,0,0,0,0,0,-1,1217,1688,5.52436,-17.3587
0,-664,5.76636,17.6124,0.0245938,0.00461523,0.0431114,0.058858,-0.029649,0.671553,0.0520189,0.0453372,1224,1688,5.76635,-17.6124
7,-664,6.02063,17.8545,0.0216088,0.0122779,0.044042,0.0612318,-0.027345,0.732629,0.0523725,0.0449172,1231,1688,6.02064,-17.8545
14,-664,6.28381,18.0704,0.0183551,0.0185967,0.044498,0.062974,-0.0260222,0.786756,0.0528377,0.0433622,1238,1688,6.28379,-18.0705
21,-664,6.47583,18.2474,0.0143557,0.0212878,0.0453832,0.0633371,-0.0276936,0.823511,0.0538828,0.0453603,1245,1688,6.47583,-18.2474
28,-664,6.68591,18.4474,0,0,0,0,0,0,0,-1,1252,1688,6.68597,-18.4474
35,-664,9.71838,10.4731,0,0,0,0,0,0,0,-1,1259,1688,9.71837,-10.4731
42,-664,9.41235,11.573,-0.000983,0.0162674,0.0495859,0.0579726,-0.0426883,0.871509,0.0583395,0.0414289,1266,1688,9.41239,-11.573
49,-664,9.14514,12.8373,-0.00579354,0.016789,0.0518368,0.05855,-0.0475545,0.892635,0.061369,0.0421756,1273,1688,9.14508,-12.8373
56,-664,4.69092,18.1373,0,0,0,0,0,0,0,-1,1280,1688,4.69091,-18.1373
63,-664,7.91272,15.575,0,0,0,0,0,0,0,-1,1287,1688,7.9127,-15.575
70,-664,7.37903,16.2827,-0.0217593,0.00710613,0.0541052,0.0486705,-0.0633237,0.91574,0.0648441,0.049298,1294,1688,7.37909,-16.2827
77,-664,6.8335,16.9943,-0.0252159,0.00393828,0.0518799,0.0432501,-0.0645277,0.922356,0.0626285,0.0458199,1301,1688,6.83347,-16.9942
84,-664,5.875,18.1888,0,0,0,0,0,0,0,-1,1308,1688,5.87497,-18.1888
91,-664,5.50842,18.5209,0,0,0,0,0,0,0,-1,1315,1688,5.50838,-18.5209
98,-664,8.00964,19.2212,0,0,0,0,0,0,0,-1,1322,1688,8.00968,-19.2212
105,-664,7.29187,18.9279,-0.0222593,-0.00639381,0.0262159,0.0130632,-0.0417164,0.932316,0.0330377,0.0483687,1329,1688,7.29188,-18.9279
112,-664,6.53918,18.6285,0,0,0,0,0,0,0,-1,1336,1688,6.53923,-18.6285
119,-664,5.82715,18.0118,-0.0168818,-0.0118039,0.00997777,-0.00404709,-0.0246386,0.909985,0.0152567,0.0485251,1343,1688,5.82718,-18.0119
126,-664,5.47546,17.2511,-0.0122666,-0.0144512,0.00086922,-0.011963,-0.0147549,0.336082,0.00905064,0.0498103,1350,1688,5.47544,-17.2511
133,-664,5.16052,16.5183,-0.00669001,-0.0181325,-0.0075586,-0.00293153,-0.021891,-0.461441,0.0137216,0.0467984,1357,1688,5.16052,-16.5183
140,-664,4.89075,15.9052,-0.00162162,-0.0218756,-0.0143406,0.00580724,-0.0293044,-0.477968,0.0217322,0.0456536,1364,1688,4.89071,-15.9051
147,-664,4.63464,15.1901,0,0,0,0,0,0,0,-1,1371,1688,4.63464,-15.19
154,-664,13.5482,5.89453,0,0,0,0,0,0,0,-1,1378,1688,13.5482,-5.8945
161,-664,4.60132,1.56238,0,0,0,0,0,0,0,-1,1385,1688,4.60134,-1.56233
168,-664,5.172,1.25488,0,0,0,0,0,0,0,-1,1392,1688,5.17203,-1.25484
175,-664,5.58313,1.16467,0,0,0,0,0,0,0,-1,1399,1688,5.58317,-1.16466
182,-664,5.74268,1.41113,0,0,0,0,0,0,0,-1,1406,1688,5.74263,-1.41115
189,-664,5.87744,1.87061,0,0,0,0,0,0,0,-1,1413,1688,5.87745,-1.87065
196,-664,6.7594,5.97473,0,0,0,0,0,0,0,-1,1420,1688,6.75943,-5.97478
203,-664,5.38452,5.22034,0,0,0,0,0,0,0,-1,1427,1688,5.38453,-5.2203
210,-664,5.25549,6.45715,0,0,0,0,0,0,0,-1,1434,1688,5.25549,-6.45721
217,-664,5.72009,6.73975,0,0,0,0,0,0,0,-1,1441,1688,5.72014,-6.73972
224,-664,5.05725,7.42908,0,0,0,0,0,0,0,-1,1448,1688,5.05723,-7.42912
231,-664,5.13318,7.60864,0,0,0,0,0,0,0,-1,1455,1688,5.13313,-7.60862
238,-664,4.23193,6.45471,0,0,0,0,0,0,0,-1,1462,1688,4.23197,-6.45476
245,-664,4.42004,6.80896,0,0,0,0,0,0,0,-1,1469,1688,4.4201,-6.80901
252,-664,3.67346,6.85461,0,0,0,0,0,0,0,-1,1476,1688,3.6734,-6.85462
259,-664,4.55823,11.7435,0,0,0,0,0,0,0,-1,1483,1688,4.55826,-11.7435
266,-664,5.76392,17.0729,0,0,0,0,0,0,0,-1,1490,1688,5.7639,-17.0729
273,-664,5.77246,17.103,0.00623003,-0.00652919,0.000267408,0.00623563,-0.00653479,0.0209458,0.00737368,0.034125,1497,1688,5.77249,-17.103
280,-664,5.84534,17.099,0.00608787,-0.00610154,0.000201527,0.00609121,-0.00610487,0.0165269,0.00704141,0.0224255,1504,1688,5.84531,-17.0991
287,-664,5.8429,16.9871,0.00559198,-0.00555737,5.00768e-05,0.00559221,-0.0055576,0.00449133,0.00643735,0.0198095,1511,1688,5.84293,-16.9871
294,-664,5.89551,16.8905,0.00513054,-0.00520666,-2.99242e-05,0.00513063,-0.00520675,-0.00289477,0.00596834,0.0142381,1518,1688,5.89552,-16.8906
301,-664,5.91382,16.7913,0.00465972,-0.00477627,-6.17748e-05,0.00466012,-0.00477667,-0.00654635,0.00544848,0.00932493,1525,1688,5.91379,-16.7912
308,-664,5.93115,16.6497,0.00418882,-0.004303,-9.02195e-05,0.00418977,-0.00430396,-0.0106227,0.00490401,0.0100622,1532,1688,5.93117,-16.6497
315,-664,5.93018,16.5173,0.00360185,-0.00385208,-5.07222e-05,0.0036022,-0.00385243,-0.00680434,0.00430474,0.0113908,1539,1688,5.93012,-16.5173
322,-664,5.93652,16.3733,0.00298242,-0.00332836,-4.01915e-05,0.00298268,-0.00332862,-0.00636835,0.00364565,0.0144111,1546,1688,5.93654,-16.3732
329,-664,5.93689,16.2399,0.00233659,-0.00277233,-4.28331e-05,0.00233695,-0.00277269,-0.00838319,0.00295362,0.0159158,1553,1688,5.93686,-16.2399
336,-664,5.9408,16.1072,0.00169963,-0.00222587,-4.34419e-05,0.00170011,-0.00222635,-0.0110648,0.00227372,0.0126086,1560,1688,5.94079,-16.1072
343,-664,5.93408,15.9895,0.00111473,-0.00182653,-1.58956e-05,0.00111481,-0.00182661,-0.00540417,0.00171473,0.0108232,1567,1688,5.93408,-15.9895
350,-664,5.93787,15.8165,0.000660977,-0.00134469,-8.88075e-05,0.000664901,-0.00134861,-0.0441632,0.00118463,0.0129333,1574,1688,5.93793,-15.8165
357,-664,5.93311,15.6619,0.000265855,-0.000761745,-0.000191652,0.000300435,-0.000796325,-0.178512,0.000654434,0.0121529,1581,1688,5.93312,-15.6618
364,-664,5.94373,15.5225,-5.37488e-05,-0.000251906,-0.00038353,0.000243293,-0.000548948,-0.658995,0.000468611,0.0103487,1588,1688,5.94377,-15.5225
371,-664,5.9646,15.3938,-0.000243221,0.000135439,-0.000612893,0.000587578,-0.000695361,-0.935205,0.000741576,0.0128599,1595,1688,5.96466,-15.3938
378,-664,5.95825,15.2324,-0.000198015,0.000597243,-0.000927567,0.00120882,-0.000809589,-0.98789,0.0011729,0.0117037,1602,1688,5.95828,-15.2324
385,-664,5.94141,15.0559,0.000325353,0.00136038,-0.00161746,0.0025411,-0.000855366,-0.940229,0.00203987,0.0123085,1609,1688,5.94141,-15.0559
392,-664,5.91724,14.8934,0.00110137,0.00282741,-0.00297957,0.00506643,-0.00113765,-0.926364,0.00381382,0.0155008,1616,1688,5.9172,-14.8934
399,-664,5.93164,14.7069,0.00169385,0.0037706,-0.00396379,0.00682976,-0.00136531,-0.913502,0.00506993,0.0136906,1623,1688,5.93159,-14.7069
406,-664,5.94763,14.5321,0.00238578,0.00434116,-0.00482167,0.00828327,-0.00155633,-0.885427,0.00610741,0.0126258,1630,1688,5.94764,-14.5321
413,-664,5.95728,14.3354,0.00359261,0.00391748,-0.00563456,0.00939194,-0.00188185,-0.799808,0.00697373,0.0133947,1637,1688,5.9573,-14.3354
420,-664,5.96094,14.1049,0.00489359,0.00220324,-0.00597127,0.00966932,-0.00257249,-0.674611,0.0074532,0.0287234,1644,1688,5.96092,-14.1049
427,-664,5.98022,13.8569,0.00577319,9.60697e-06,-0.00615583,0.00968838,-0.00390558,-0.56648,0.00808172,0.045549,1651,1688,5.98024,-13.857
434,-664,6.35193,13.3992,0.00726866,-0.00367062,-0.00627297,0.0101217,-0.00652366,-0.426852,0.00968476,0.0431307,1658,1688,6.35196,-13.3992
441,-664,6.91577,12.8948,0.00888211,-0.00891464,-0.00586944,0.0106435,-0.0106761,-0.29155,0.0123089,0.0466268,1665,1688,6.91577,-12.8947
448,-664,7.28723,12.1355,0,0,0,0,0,0,0,-1,1672,1688,7.28728,-12.1355
455,-664,7.53198,11.3838,0,0,0,0,0,0,0,-1,1679,1688,7.53195,-11.3838
462,-664,4.3147,4.25439,0,0,0,0,0,0,0,-1,1686,1688,4.31467,-4.25435
469,-664,6.05469,7.49341,0,0,0,0,0,0,0,-1,1693,1688,6.05474,-7.49339
476,-664,9.76514,11.5648,0,0,0,0,0,0,0,-1,1700,1688,9.76511,-11.5648
483,-664,8.41895,10.9768,0,0,0,0,0,0,0,-1,1707,1688,8.41897,-10.9769
490,-664,6.82959,10.4489,0,0,0,0,0,0,0,-1,1714,1688,6.82961,-10.4488
497,-664,0,0,0,0,0,0,0,0,0,-1,1721,1688,0,0
504,-664,0,0,0,0,0,0,0,0,0,-1,1728,1688,0,0
511,-664,0,0,0,0,0,0,0,0,0,-1,1735,1688,0,0
518,-664,0,0,0,0,0,0,0,0,0,-1,1742,1688,0,0
525,-664,0,0,0,0,0,0,0,0,0,-1,1749,1688,0,0
532,-664,0,0,0,0,0,0,0,0,0,-1,1756,1688,0,0
539,-664,0,0,0,0,0,0,0,0,0,-1,1763,1688,0,0
546,-664,0,0,0,0,0,0,0,0,0,-1,1770,1688,0,0
553,-664,0,0,0,0,0,0,0,0,0,-1,1777,1688,0,0
560,-664,0,0,0,0,0,0,0,0,0,-1,1784,1688,0,0
567,-664,0,0,0,0,0,0,0,0,0,-1,1791,1688,0,0
574,-664,0,0,0,0,0,0,0,0,0,-1,1798,1688,0,0
581,-664,0,0,0,0,0,0,0,0,0,-1,1805,1688,0,0
588,-664,0,0,0,0,0,0,0,0,0,-1,1812,1688,0,0
595,-664,0,0,0,0,0,0,0,0,0,-1,1819,1688,0,0
602,-664,0,0,0,0,0,0,0,0,0,-1,1826,1688,0,0
609,-664,0,0,0,0,0,0,0,0,0,-1,1833,1688,0,0
616,-664,0,0,0,0,0,0,0,0,0,-1,1840,1688,0,0
623,-664,0,0,0,0,0,0,0,0,0,-1,1847,1688,0,0
630,-664,0,0,0,0,0,0,0,0,0,-1,1854,1688,0,0
637,-664,0,0,0,0,0,0,0,0,0,-1,1861,1688,0,0
644,-664,0,0,0,0,0,0,0,0,0,-1,1868,1688,0,0
651,-664,0,0,0,0,0,0,0,0,0,-1,1875,1688,0,0
658,-664,0,0,0,0,0,0,0,0,0,-1,1882,1688,0,0
665,-664,0,0,0,0,0,0,0,0,0,-1,1889,1688,0,0
672,-664,0,0,0,0,0,0,0,0,0,-1,1896,1688,0,0
679,-664,0,0,0,0,0,0,0,0,0,-1,1903,1688,0,0
686,-664,0,0,0,0,0,0,0,0,0,-1,1910,1688,0,0
693,-664,0,0,0,0,0,0,0,0,0,-1,1917,1688,0,0
700,-664,0,0,0,0,0,0,0,0,0,-1,1924,1688,0,0
707,-664,0,0,0,0,0,0,0,0,0,-1,1931,1688,0,0
714,-664,0,0,0,0,0,0,0,0,0,-1,1938,1688,0,0
721,-664,0,0,0,0,0,0,0,0,0,-1,1945,1688,0,0
728,-664,0,0,0,0,0,0,0,0,0,-1,1952,1688,0,0
735,-664,0,0,0,0,0,0,0,0,0,-1,1959,1688,0,0
742,-664,0,0,0,0,0,0,0,0,0,-1,1966,1688,0,0
749,-664,0,0,0,0,0,0,0,0,0,-1,1973,1688,0,0
756,-664,0,0,0,0,0,0,0,0,0,-1,1980,1688,0,0
763,-664,0,0,0,0,0,0,0,0,0,-1,1987,1688,0,0
770,-664,0,0,0,0,0,0,0,0,0,-1,1994,1688,0,0
777,-664,0,0,0,0,0,0,0,0,0,-1,2001,1688,0,0
784,-664,0,0,0,0,0,0,0,0,0,-1,2008,1688,0,0
791,-664,0,0,0,0,0,0,0,0,0,-1,2015,1688,0,0
798,-664,0,0,0,0,0,0,0,0,0,-1,2022,1688,0,0
805,-664,0,0,0,0,0,0,0,0,0,-1,2029,1688,0,0
812,-664,0,0,0,0,0,0,0,0,0,-1,2036,1688,0,0
-700,-671,0,0,0,0,0,0,0,0,0,-1,524,1695,0,0
-693,-671,0,0,0,0,0,0,0,0,0,-1,531,1695,0,0
-686,-671,0,0,0,0,0,0,0,0,0,-1,538,1695,0,0
-679,-671,0,0,0,0,0,0,0,0,0,-1,545,1695,0,0
-672,-671,0,0,0,0,0,0,0,0,0,-1,552,1695,0,0
-665,-671,0,0,0,0,0,0,0,0,0,-1,559,1695,0,0
-658,-671,0,0,0,0,0,0,0,0,0,-1,566,1695,0,0
-651,-671,0,0,0,0,0,0,0,0,0,-1,573,1695,0,0
-644,-671,0,0,0,0,0,0,0,0,0,-1,580,1695,0,0
-637,-671,0,0,0,0,0,0,0,0,0,-1,587,1695,0,0
-630,-671,0,0,0,0,0,0,0,0,0,-1,594,1695,0,0
-623,-671,0,0,0,0,0,0,0,0,0,-1,601,1695,0,0
-616,-671,0,0,0,0,0,0,0,0,0,-1,608,1695,0,0
-609,-671,0,0,0,0,0,0,0,0,0,-1,615,1695,0,0
-602,-671,0,0,0,0,0,0,0,0,0,-1,622,1695,0,0
-595,-671,0,0,0,0,0,0,0,0,0,-1,629,1695,0,0
-588,-671,0,0,0,0,0,0,0,0,0,-1,636,1695,0,0
-581,-671,0,0,0,0,0,0,0,0,0,-1,643,1695,0,0
-574,-671,0,0,0,0,0,0,0,0,0,-1,650,1695,0,0
-567,-671,0,0,0,0,0,0,0,0,0,-1,657,1695,0,0
-560,-671,0,0,0,0,0,0,0,0,0,-1,664,1695,0,0
-553,-671,0,0,0,0,0,0,0,0,0,-1,671,1695,0,0
-546,-671,0,0,0,0,0,0,0,0,0,-1,678,1695,0,0
-539,-671,0,0,0,0,0,0,0,0,0,-1,685,1695,0,0
-532,-671,0,0,0,0,0,0,0,0,0,-1,692,1695,0,0
-525,-671,0,0,0,0,0,0,0,0,0,-1,699,1695,0,0
-518,-671,0,0,0,0,0,0,0,0,0,-1,706,1695,0,0
-511,-671,0,0,0,0,0,0,0,0,0,-1,713,1695,0,0
-504,-671,0,0,0,0,0,0,0,0,0,-1,720,1695,0,0
-497,-671,0,0,0,0,0,0,0,0,0,-1,727,1695,0,0
-490,-671,0,0,0,0,0,0,0,0,0,-1,734,1695,0,0
-483,-671,0,0,0,0,0,0,0,0,0,-1,741,1695,0,0
-476,-671,0,0,0,0,0,0,0,0,0,-1,748,1695,0,0
-469,-671,0,0,0,0,0,0,0,0,0,-1,755,1695,0,0
-462,-671,0,0,0,0,0,0,0,0,0,-1,762,1695,0,0
-455,-671,0,0,0,0,0,0,0,0,0,-1,769,1695,0,0
-448,-671,0,0,0,0,0,0,0,0,0,-1,776,1695,0,0
-441,-671,0,0,0,0,0,0,0,0,0,-1,783,1695,0,0
-434,-671,0,0,0,0,0,0,0,0,0,-1,790,1695,0,0
-427,-671,0,0,0,0,0,0,0,0,0,-1,797,1695,0,0
-420,-671,0,0,0,0,0,0,0,0,0,-1,804,1695,0,0
-413,-671,0,0,0,0,0,0,0,0,0,-1,811,1695,0,0
-406,-671,0,0,0,0,0,0,0,0,0,-1,818,1695,0,0
-399,-671,0,0,0,0,0,0,0,0,0,-1,825,1695,0,0
-392,-671,0,0,0,0,0,0,0,0,0,-1,832,1695,0,0
-385,-671,0,0,0,0,0,0,0,0,0,-1,839,1695,0,0
-378,-671,0,0,0,0,0,0,0,0,0,-1,846,1695,0,0
-371,-671,0,0,0,0,0,0,0,0,0,-1,853,1695,0,0
-364,-671,-4.18738,7.51416,0,0,0,0,0,0,0,-1,860,1695,-4.18739,-7.51419
-357,-671,-5.02393,6.07129,0,0,0,0,0,0,0,-1,867,1695,-5.0239,-6.07135
-350,-671,-5.72333,4.58386,0,0,0,0,0,0,0,-1,874,1695,-5.72333,-4.58386
-343,-671,-6.4884,3.11353,0,0,0,0,0,0,0,-1,881,1695,-6.48839,-3.11349
-336,-671,-7.30127,1.64417,0,0,0,0,0,0,0,-1,888,1695,-7.30127,-1.64414
-329,-671,3.58337,10.6238,0,0,0,0,0,0,0,-1,895,1695,3.58338,-10.6238
-322,-671,3.75763,10.859,0,0,0,0,0,0,0,-1,902,1695,3.75766,-10.8591
-315,-671,4.68213,12.1222,0,0,0,0,0,0,0,-1,909,1695,4.68211,-12.1222
-308,-671,4.49152,11.9536,0,0,0,0,0,0,0,-1,916,1695,4.49149,-11.9536
-301,-671,4.08472,12.9598,0,0,0,0,0,0,0,-1,923,1695,4.08471,-12.9599
-294,-671,3.96136,14.0222,0.00215987,0.0167658,-0.00380965,0.0176997,0.00122592,-1.33038,0.0114131,0.0491479,930,1695,3.96134,-14.0222
-287,-671,3.97552,13.6152,0.00158171,0.013102,-0.0030832,0.0138753,0.000808448,-1.32507,0.00899281,0.0455503,937,1695,3.9755,-13.6152
-280,-671,4.15619,13.4542,0.000671048,0.0109555,-0.00194224,0.0113101,0.000316475,-1.39023,0.0074368,0.0379875,944,1695,4.15617,-13.4542
-273,-671,4.14343,13.6399,0.000149511,0.00905019,-0.000571785,0.00908678,0.000112929,-1.50691,0.00602056,0.0345278,951,1695,4.14343,-13.6399
-266,-671,4.20123,13.8943,-0.00010977,0.00741372,0.000287573,0.0074247,-0.000120746,1.53265,0.00499053,0.0259556,958,1695,4.20121,-13.8943
-259,-671,4.07025,14.0632,-0.000357796,0.00642777,0.000911269,0.00654802,-0.000478045,1.4396,0.00453311,0.0242004,965,1695,4.07027,-14.0633
-252,-671,4.08551,14.2378,-0.000585325,0.00514923,0.0014679,0.00550314,-0.000939229,1.33422,0.00401859,0.0187217,972,1695,4.08551,-14.2378
-245,-671,4.05261,14.4352,-0.000702614,0.00440746,0.00180191,0.00497894,-0.00127409,1.26368,0.00381557,0.021288,979,1695,4.05262,-14.4352
-238,-671,4.07196,14.5967,-0.000677279,0.00295294,0.00235198,0.00410876,-0.0018331,1.11403,0.0035134,0.0204466,986,1695,4.07195,-14.5966
-231,-671,4.08026,14.7743,-0.000534852,0.00275639,0.00238813,0.00401099,-0.00178944,1.08708,0.00342977,0.0153285,993,1695,4.08027,-14.7742
-224,-671,4.05969,14.9454,-0.000312198,0.00210909,0.00224995,0.00345342,-0.00165654,1.03222,0.00301042,0.0117516,1000,1695,4.05969,-14.9454
-217,-671,4.05634,15.1084,-0.000125849,0.00130176,0.00189295,0.00261102,-0.00143511,0.965697,0.00236869,0.0116587,1007,1695,4.05635,-15.1084
-210,-671,4.05139,15.2668,-1.06836e-05,0.000507823,0.00144003,0.00171175,-0.00121461,0.874461,0.00169765,0.0112134,1014,1695,4.05139,-15.2668
-203,-671,4.04333,15.4253,0.000127347,-0.000365409,0.000876939,0.000791861,-0.00102992,0.648452,0.0010548,0.0175233,1021,1695,4.04336,-15.4253
-196,-671,4.05469,15.5939,0.000293468,-0.00124206,0.000328352,0.000360734,-0.00130933,0.202066,0.00101473,0.0144915,1028,1695,4.05467,-15.5939
-189,-671,4.0719,15.7886,0.00040168,-0.00194134,-0.00027621,0.000433801,-0.00197347,-0.115772,0.00148157,0.0116849,1035,1695,4.07189,-15.7886
-182,-671,4.05664,15.9263,0.000694839,-0.00251987,-0.000858641,0.000909805,-0.00273484,-0.245314,0.00219041,0.00966495,1042,1695,4.05659,-15.9263
-175,-671,4.06116,16.0668,0.00122892,-0.00310961,-0.00138112,0.00163127,-0.00351197,-0.283476,0.0030349,0.0123452,1049,1695,4.0612,-16.0668
-168,-671,4.07861,16.2,0.00178124,-0.00356043,-0.00178994,0.00232556,-0.00410476,-0.295216,0.00375962,0.0137879,1056,1695,4.0786,-16.1999
-161,-671,4.07471,16.3419,0.00242617,-0.00389211,-0.00197719,0.00299388,-0.00445983,-0.279609,0.00433106,0.00947386,1063,1695,4.07473,-16.3419
-154,-671,4.07898,16.4774,0.00325136,-0.00412155,-0.00211088,0.00381294,-0.00468313,-0.260016,0.00491377,0.00812711,1070,1695,4.07899,-16.4774
-147,-671,4.09277,16.6272,0.00419397,-0.00435655,-0.00205033,0.0046602,-0.00482277,-0.223589,0.00547526,0.00946008,1077,1695,4.09274,-16.6272
-140,-671,4.10474,16.7645,0.00523244,-0.00455286,-0.00187889,0.00558081,-0.00490122,-0.183329,0.00605604,0.0107449,1084,1695,4.10471,-16.7645
-133,-671,4.10132,16.8859,0.00638164,-0.00492012,-0.00155937,0.00659284,-0.00513133,-0.134626,0.00678646,0.0115902,1091,1695,4.1013,-16.8859
-126,-671,4.14087,17,0.00762984,-0.00524073,-0.00102376,0.00771077,-0.00532166,-0.0788813,0.0075663,0.0142528,1098,1695,4.14087,-17
-119,-671,4.19958,17.098,0.00887835,-0.00503194,-0.000247972,0.00888277,-0.00503635,-0.017819,0.00813785,0.0269266,1105,1695,4.19958,-17.098
-112,-671,4.23279,17.246,0.00992376,-0.00508192,0.000423257,0.00993569,-0.00509385,0.0281766,0.00882613,0.0373954,1112,1695,4.23273,-17.246
-105,-671,4.13721,17.3488,0,0,0,0,0,0,0,-1,1119,1695,4.13717,-17.3487
-98,-671,4.22498,17.2151,0,0,0,0,0,0,0,-1,1126,1695,4.22502,-17.2151
-91,-671,4.05774,17.2202,0,0,0,0,0,0,0,-1,1133,1695,4.05773,-17.2203
-84,-671,4.42468,17.1127,0,0,0,0,0,0,0,-1,1140,1695,4.42467,-17.1126
-77,-671,4.31763,16.489,0,0,0,0,0,0,0,-1,1147,1695,4.31757,-16.489
-70,-671,3.06067,10.7737,0,0,0,0,0,0,0,-1,1154,1695,3.0607,-10.7737
-63,-671,2.94592,6.90198,0,0,0,0,0,0,0,-1,1161,1695,2.94594,-6.90198
-56,-671,-3.07678,2.87976,0,0,0,0,0,0,0,-1,1168,1695,-3.07675,-2.87979
-49,-671,-1.05957,4.76917,0,0,0,0,0,0,0,-1,1175,1695,-1.05958,-4.76921
-42,-671,0.539307,3.7865,0,0,0,0,0,0,0,-1,1182,1695,0.539266,-3.78648
-35,-671,-0.272461,0.347534,0,0,0,0,0,0,0,-1,1189,1695,-0.272434,-0.347569
-28,-671,-10.4878,17.2009,0,0,0,0,0,0,0,-1,1196,1695,-10.4878,-17.2009
-21,-671,4.9552,16.8195,0,0,0,0,0,0,0,-1,1203,1695,4.95518,-16.8195
-14,-671,5.06836,17.1888,0.0225253,-0.0108163,0.0328257,0.0426709,-0.0309618,0.550441,0.0426906,0.0464009,1210,1695,5.06834,-17.1889
-7,-671,5.20789,17.5406,0.0215521,-0.00707956,0.0336384,0.0437943,-0.0293217,0.584218,0.0424883,0.0467796,1217,1695,5.20788,-17.5406
0,-671,5.46936,17.8376,0.0198569,-0.00157907,0.03449,0.0452559,-0.026978,0.63475,0.042147,0.0438912,1224,1695,5.46931,-17.8376
7,-671,5.86987,18.2166,0.0175312,0.00406802,0.0352605,0.046697,-0.0250978,0.691078,0.0420713,0.0415194,1231,1695,5.86986,-18.2166
14,-671,6.27405,18.7369,0,0,0,0,0,0,0,-1,1238,1695,6.27408,-18.737
21,-671,5.22095,18.2476,0,0,0,0,0,0,0,-1,1245,1695,5.22101,-18.2475
28,-671,5.06543,17.0468,0,0,0,0,0,0,0,-1,1252,1695,5.06544,-17.0468
35,-671,9.71387,9.86487,0,0,0,0,0,0,0,-1,1259,1695,9.71391,-9.86486
42,-671,9.40625,10.9496,0,0,0,0,0,0,0,-1,1266,1695,9.40631,-10.9496
49,-671,4.68701,18.1522,0,0,0,0,0,0,0,-1,1273,1695,4.68703,-18.1523
56,-671,4.75708,18.3048,0,0,0,0,0,0,0,-1,1280,1695,4.75703,-18.3048
63,-671,4.82703,18.4574,0,0,0,0,0,0,0,-1,1287,1695,4.82702,-18.4574
70,-671,6.56055,16.7358,-0.0187289,0.000432639,0.044648,0.0365162,-0.0548125,0.891088,0.0530802,0.0463827,1294,1695,6.56056,-16.7358
77,-671,6.22339,17.3763,-0.0216547,-0.00215365,0.0430225,0.0322094,-0.0560178,0.896834,0.0515525,0.043925,1301,1695,6.22334,-17.3763
84,-671,5.66248,18.3602,-0.0233844,-0.00554967,0.0399713,0.0264869,-0.0554209,0.895148,0.048263,0.0482321,1308,1695,5.6625,-18.3602
91,-671,8.27075,20.4294,0,0,0,0,0,0,0,-1,1315,1695,8.2707,-20.4295
98,-671,7.54443,19.777,0,0,0,0,0,0,0,-1,1322,1695,7.54446,-19.777
105,-671,6.81677,19.0737,0,0,0,0,0,0,0,-1,1329,1695,6.81674,-19.0737
112,-671,5.63501,18.1893,0,0,0,0,0,0,0,-1,1336,1695,5.63499,-18.1894
119,-671,5.4856,18.2141,0,0,0,0,0,0,0,-1,1343,1695,5.48559,-18.2141
126,-671,5.33618,18.2389,0,0,0,0,0,0,0,-1,1350,1695,5.33619,-18.2389
133,-671,5.42029,18.1063,0,0,0,0,0,0,0,-1,1357,1695,5.42033,-18.1063
140,-671,5.60059,17.962,0,0,0,0,0,0,0,-1,1364,1695,5.60054,-17.962
147,-671,5.58643,17.8506,0,0,0,0,0,0,0,-1,1371,1695,5.58643,-17.8506
154,-671,5.05212,16.8368,0,0,0,0,0,0,0,-1,1378,1695,5.05216,-16.8367
161,-671,4.49292,4.91272,0,0,0,0,0,0,0,-1,1385,1695,4.49297,-4.91273
168,-671,5.17639,6.1416,0,0,0,0,0,0,0,-1,1392,1695,5.1764,-6.14164
175,-671,5.6731,1.64685,0,0,0,0,0,0,0,-1,1399,1695,5.67313,-1.64691
182,-671,5.56812,1.71692,0,0,0,0,0,0,0,-1,1406,1695,5.56809,-1.71686
189,-671,6.98315,6.36169,0,0,0,0,0,0,0,-1,1413,1695,6.98312,-6.36175
196,-671,5.38123,5.69775,0,0,0,0,0,0,0,-1,1420,1695,5.38125,-5.69769
203,-671,5.95117,8.11658,0,0,0,0,0,0,0,-1,1427,1695,5.9512,-8.11662
210,-671,4.73596,8.39624,0,0,0,0,0,0,0,-1,1434,1695,4.736,-8.39618
217,-671,5.37097,11.863,0,0,0,0,0,0,0,-1,1441,1695,5.37094,-11.863
224,-671,5.08167,13.6694,0,0,0,0,0,0,0,-1,1448,1695,5.08165,-13.6695
231,-671,5.66663,15.3348,0,0,0,0,0,0,0,-1,1455,1695,5.66667,-15.3349
238,-671,6.32959,16.2036,0,0,0,0,0,0,0,-1,1462,1695,6.32961,-16.2037
245,-671,5.95264,15.9324,0,0,0,0,0,0,0,-1,1469,1695,5.95259,-15.9324
252,-671,5.74036,17.2101,0,0,0,0,0,0,0,-1,1476,1695,5.74031,-17.2101
259,-671,5.71082,17.4003,0,0,0,0,0,0,0,-1,1483,1695,5.71079,-17.4003
266,-671,5.73499,17.2786,0.00392638,-0.00558703,0.000631625,0.00396813,-0.00562878,0.066007,0.00556837,0.0237865,1490,1695,5.73497,-17.2786
273,-671,5.75854,17.2432,0.00420794,-0.00546613,0.000439805,0.00422789,-0.00548609,0.0453375,0.00562403,0.00986371,1497,1695,5.7585,-17.2432
280,-671,5.76489,17.1586,0.0041408,-0.00496388,0.000306755,0.00415112,-0.00497421,0.0336411,0.00527565,0.00945909,1504,1695,5.7649,-17.1586
287,-671,5.77002,16.9993,0.00384654,-0.00431995,0.000133134,0.00384871,-0.00432212,0.0162968,0.00472007,0.0111718,1511,1695,5.76999,-16.9992
294,-671,5.76233,16.8583,0.00358561,-0.00378608,-8.54767e-07,0.00358561,-0.00378608,-0.000115953,0.00425657,0.0104958,1518,1695,5.76228,-16.8582
301,-671,5.76282,16.7604,0.00329977,-0.00322221,-0.000110796,0.00330165,-0.0032241,-0.0169815,0.00376773,0.00903991,1525,1695,5.76281,-16.7604
308,-671,5.77515,16.6558,0.00291017,-0.00267188,-0.000204197,0.00291763,-0.00267934,-0.036516,0.00323239,0.0107469,1532,1695,5.77517,-16.6557
315,-671,5.80139,16.5294,0.00242844,-0.00229386,-0.00019616,0.00243658,-0.00230199,-0.041444,0.00273618,0.0134348,1539,1695,5.80136,-16.5294
322,-671,5.81641,16.3878,0.00202219,-0.00181275,-0.000288299,0.00204374,-0.0018343,-0.0746179,0.00224008,0.0155489,1546,1695,5.81638,-16.3878
329,-671,5.78015,16.2466,0.00149217,-0.00133977,-0.000340581,0.00153255,-0.00138015,-0.118022,0.00168242,0.0135799,1553,1695,5.7802,-16.2466
336,-671,5.78113,16.1061,0.00094872,-0.000979492,-0.000377988,0.00102017,-0.00105094,-0.186822,0.0011958,0.0103682,1560,1695,5.78108,-16.1061
343,-671,5.80225,15.9586,0.000461134,-0.000691448,-0.000415765,0.000595457,-0.00082577,-0.312489,0.000824129,0.0104698,1567,1695,5.80228,-15.9586
350,-671,5.8175,15.8214,7.31533e-05,-0.000406656,-0.000533757,0.000418441,-0.000751944,-0.574194,0.000684806,0.0104682,1574,1695,5.81752,-15.8214
357,-671,5.7959,15.6536,-0.000240105,-9.3851e-06,-0.000686049,0.000570935,-0.000820425,-0.868694,0.000807595,0.00960946,1581,1695,5.79595,-15.6536
364,-671,5.77698,15.5171,-0.000494227,0.00033481,-0.000907195,0.000917702,-0.00107712,-0.999696,0.00115294,0.0120779,1588,1695,5.77696,-15.5171
371,-671,5.77783,15.3927,-0.000634221,0.000597369,-0.00117589,0.00130895,-0.0013458,-1.02661,0.00153277,0.0138158,1595,1695,5.77778,-15.3927
378,-671,5.79333,15.2223,-0.000486472,0.000979696,-0.00154212,0.0019541,-0.00146088,-1.00728,0.00197849,0.0113487,1602,1695,5.79335,-15.2223
385,-671,5.78857,15.0409,0.000171408,0.00179123,-0.00232245,0.00344094,-0.0014783,-0.953171,0.0029145,0.0135294,1609,1695,5.78858,-15.0408
392,-671,5.75366,14.9106,0.00112667,0.0034845,-0.00392299,0.00640189,-0.00179072,-0.931362,0.00497348,0.0190237,1616,1695,5.75367,-14.9106
399,-671,5.72986,14.6891,0.00194331,0.00459175,-0.00512038,0.00855637,-0.00202131,-0.911934,0.0064839,0.0165422,1623,1695,5.72986,-14.6891
406,-671,5.77625,14.4884,0.00294576,0.00541533,-0.00625528,0.0105565,-0.00219544,-0.882845,0.00787222,0.0216489,1630,1695,5.7762,-14.4884
413,-671,5.76367,14.3807,0.00471639,0.00523568,-0.00744965,0.0124302,-0.00247814,-0.802818,0.00922448,0.030381,1637,1695,5.76367,-14.3808
420,-671,5.8197,14.1714,0.0065934,0.00382299,-0.00822515,0.0135492,-0.00313279,-0.701975,0.0102381,0.0470025,1644,1695,5.81971,-14.1714
427,-671,5.8479,13.9285,0,0,0,0,0,0,0,-1,1651,1695,5.84791,-13.9285
434,-671,6.58789,13.1399,0,0,0,0,0,0,0,-1,1658,1695,6.58794,-13.1399
441,-671,7.32458,12.7183,0,0,0,0,0,0,0,-1,1665,1695,7.32458,-12.7182
448,-671,8.0636,12.2034,0,0,0,0,0,0,0,-1,1672,1695,8.06362,-12.2034
455,-671,3.40137,9.28076,0,0,0,0,0,0,0,-1,1679,1695,3.40135,-9.28082
462,-671,5.86255,4.47961,0,0,0,0,0,0,0,-1,1686,1695,5.8625,-4.4796
469,-671,3.71301,3.76978,0,0,0,0,0,0,0,-1,1693,1695,3.71297,-3.76974
476,-671,3.75574,3.18848,0,0,0,0,0,0,0,-1,1700,1695,3.7558,-3.18847
483,-671,7.81824,12.1041,0,0,0,0,0,0,0,-1,1707,1695,7.81826,-12.1041
490,-671,0,0,0,0,0,0,0,0,0,-1,1714,1695,0,0
497,-671,0,0,0,0,0,0,0,0,0,-1,1721,1695,0,0
504,-671,0,0,0,0,0,0,0,0,0,-1,1728,1695,0,0
511,-671,0,0,0,0,0,0,0,0,0,-1,1735,1695,0,0
518,-671,0,0,0,0,0,0,0,0,0,-1,1742,1695,0,0
525,-671,0,0,0,0,0,0,0,0,0,-1,1749,1695,0,0
532,-671,0,0,0,0,0,0,0,0,0,-1,1756,1695,0,0
539,-671,0,0,0,0,0,0,0,0,0,-1,1763,1695,0,0
546,-671,0,0,0,0,0,0,0,0,0,-1,1770,1695,0,0
553,-671,0,0,0,0,0,0,0,0,0,-1,1777,1695,0,0
560,-671,0,0,0,0,0,0,0,0,0,-1,1784,1695,0,0
567,-671,0,0,0,0,0,0,0,0,0,-1,1791,1695,0,0
574,-671,0,0,0,0,0,0,0,0,0,-1,1798,1695,0,0
581,-671,0,0,0,0,0,0,0,0,0,-1,1805,1695,0,0
588,-671,0,0,0,0,0,0,0,0,0,-1,1812,1695,0,0
595,-671,0,0,0,0,0,0,0,0,0,-1,1819,1695,0,0
602,-671,0,0,0,0,0,0,0,0,0,-1,1826,1695,0,0
609,-671,0,0,0,0,0,0,0,0,0,-1,1833,1695,0,0
616,-671,0,0,0,0,0,0,0,0,0,-1,1840,1695,0,0
623,-671,0,0,0,0,0,0,0,0,0,-1,1847,1695,0,0
630,-671,0,0,0,0,0,0,0,0,0,-1,1854,1695,0,0
637,-671,0,0,0,0,0,0,0,0,0,-1,1861,1695,0,0
644,-671,0,0,0,0,0,0,0,0,0,-1,1868,1695,0,0
651,-671,0,0,0,0,0,0,0,0,0,-1,1875,1695,0,0
658,-671,0,0,0,0,0,0,0,0,0,-1,1882,1695,0,0
665,-671,0,0,0,0,0,0,0,0,0,-1,1889,1695,0,0
672,-671,0,0,0,0,0,0,0,0,0,-1,1896,1695,0,0
679,-671,0,0,0,0,0,0,0,0,0,-1,1903,1695,0,0
686,-671,0,0,0,0,0,0,0,0,0,-1,1910,1695,0,0
693,-671,0,0,0,0,0,0,0,0,0,-1,1917,1695,0,0
700,-671,0,0,0,0,0,0,0,0,0,-1,1924,1695,0,0
707,-671,0,0,0,0,0,0,0,0,0,-1,1931,1695,0,0
714,-671,0,0,0,0,0,0,0,0,0,-1,1938,1695,0,0
721,-671,0,0,0,0,0,0,0,0,0,-1,1945,1695,0,0
728,-671,0,0,0,0,0,0,0,0,0,-1,1952,1695,0,0
735,-671,0,0,0,0,0,0,0,0,0,-1,1959,1695,0,0
742,-671,0,0,0,0,0,0,0,0,0,-1,1966,1695,0,0
749,-671,0,0,0,0,0,0,0,0,0,-1,1973,1695,0,0
756,-671,0,0,0,0,0,0,0,0,0,-1,1980,1695,0,0
763,-671,0,0,0,0,0,0,0,0,0,-1,1987,1695,0,0
770,-671,0,0,0,0,0,0,0,0,0,-1,1994,1695,0,0
777,-671,0,0,0,0,0,0,0,0,0,-1,2001,1695,0,0
784,-671,0,0,0,0,0,0,0,0,0,-1,2008,1695,0,0
791,-671,0,0,0,0,0,0,0,0,0,-1,2015,1695,0,0
798,-671,0,0,0,0,0,0,0,0,0,-1,2022,1695,0,0
805,-671,0,0,0,0,0,0,0,0,0,-1,2029,1695,0,0
812,-671,0,0,0,0,0,0,0,0,0,-1,2036,1695,0,0
-700,-678,0,0,0,0,0,0,0,0,0,-1,524,1702,0,0
-693,-678,0,0,0,0,0,0,0,0,0,-1,531,1702,0,0
-686,-678,0,0,0,0,0,0,0,0,0,-1,538,1702,0,0
-679,-678,0,0,0,0,0,0,0,0,0,-1,545,1702,0,0
-672,-678,0,0,0,0,0,0,0,0,0,-1,552,1702,0,0
-665,-678,0,0,0,0,0,0,0,0,0,-1,559,1702,0,0
-658,-678,0,0,0,0,0,0,0,0,0,-1,566,1702,0,0
-651,-678,0,0,0,0,0,0,0,0,0,-1,573,1702,0,0
-644,-678,0,0,0,0,0,0,0,0,0,-1,580,1702,0,0
-637,-678,0,0,0,0,0,0,0,0,0,-1,587,1702,0,0
-630,-678,0,0,0,0,0,0,0,0,0,-1,594,1702,0,0
-623,-678,0,0,0,0,0,0,0,0,0,-1,601,1702,0,0
-616,-678,0,0,0,0,0,0,0,0,0,-1,608,1702,0,0
-609,-678,0,0,0,0,0,0,0,0,0,-1,615,1702,0,0
-602,-678,0,0,0,0,0,0,0,0,0,-1,622,1702,0,0
-595,-678,0,0,0,0,0,0,0,0,0,-1,629,1702,0,0
-588,-678,0,0,0,0,0,0,0,0,0,-1,636,1702,0,0
-581,-678,0,0,0,0,0,0,0,0,0,-1,643,1702,0,0
-574,-678,0,0,0,0,0,0,0,0,0,-1,650,1702,0,0
-567,-678,0,0,0,0,0,0,0,0,0,-1,657,1702,0,0
-560,-678,0,0,0,0,0,0,0,0,0,-1,664,1702,0,0
-553,-678,0,0,0,0,0,0,0,0,0,-1,671,1702,0,0
-546,-678,0,0,0,0,0,0,0,0,0,-1,678,1702,0,0
-539,-678,0,0,0,0,0,0,0,0,0,-1,685,1702,0,0
-532,-678,0,0,0,0,0,0,0,0,0,-1,692,1702,0,0
-525,-678,0,0,0,0,0,0,0,0,0,-1,699,1702,0,0
-518,-678,0,0,0,0,0,0,0,0,0,-1,706,1702,0,0
-511,-678,0,0,0,0,0,0,0,0,0,-1,713,1702,0,0
-504,-678,0,0,0,0,0,0,0,0,0,-1,720,1702,0,0
-497,-678,0,0,0,0,0,0,0,0,0,-1,727,1702,0,0
-490,-678,0,0,0,0,0,0,0,0,0,-1,734,1702,0,0
-483,-678,0,0,0,0,0,0,0,0,0,-1,741,1702,0,0
-476,-678,0,0,0,0,0,0,0,0,0,-1,748,1702,0,0
-469,-678,0,0,0,0,0,0,0,0,0,-1,755,1702,0,0
-462,-678,0,0,0,0,0,0,0,0,0,-1,762,1702,0,0
-455,-678,0,0,0,0,0,0,0,0,0,-1,769,1702,0,0
-448,-678,0,0,0,0,0,0,0,0,0,-1,776,1702,0,0
-441,-678,0,0,0,0,0,0,0,0,0,-1,783,1702,0,0
-434,-678,0,0,0,0,0,0,0,0,0,-1,790,1702,0,0
-427,-678,0,0,0,0,0,0,0,0,0,-1,797,1702,0,0
-420,-678,0,0,0,0,0,0,0,0,0,-1,804,1702,0,0
-413,-678,0,0,0,0,0,0,0,0,0,-1,811,1702,0,0
-406,-678,0,0,0,0,0,0,0,0,0,-1,818,1702,0,0
-399,-678,0,0,0,0,0,0,0,0,0,-1,825,1702,0,0
-392,-678,0,0,0,0,0,0,0,0,0,-1,832,1702,0,0
-385,-678,0,0,0,0,0,0,0,0,0,-1,839,1702,0,0
-378,-678,0,0,0,0,0,0,0,0,0,-1,846,1702,0,0
-371,-678,0,0,0,0,0,0,0,0,0,-1,853,1702,0,0
-364,-678,0,0,0,0,0,0,0,0,0,-1,860,1702,0,0
-357,-678,0,0,0,0,0,0,0,0,0,-1,867,1702,0,0
-350,-678,-5.79944,6.11865,0,0,0,0,0,0,0,-1,874,1702,-5.79942,-6.11864
-343,-678,-6.44891,4.52759,0,0,0,0,0,0,0,-1,881,1702,-6.4489,-4.52758
-336,-678,-6.91888,2.99438,0,0,0,0,0,0,0,-1,888,1702,-6.9189,-2.99435
-329,-678,-7.14575,1.29761,0,0,0,0,0,0,0,-1,895,1702,-7.14577,-1.29755
-322,-678,-7.38513,-0.420044,0,0,0,0,0,0,0,-1,902,1702,-7.38514,0.420091
-315,-678,4.62488,12.2419,0,0,0,0,0,0,0,-1,909,1702,4.62485,-12.242
-308,-678,4.82501,11.6014,0,0,0,0,0,0,0,-1,916,1702,4.82504,-11.6014
-301,-678,5.00287,10.8816,0,0,0,0,0,0,0,-1,923,1702,5.00288,-10.8816
-294,-678,5.40924,10.1987,0,0,0,0,0,0,0,-1,930,1702,5.40924,-10.1987
-287,-678,4.24725,13.3512,0,0,0,0,0,0,0,-1,937,1702,4.24727,-13.3512
-280,-678,4.29889,13.5344,0.000897454,0.0153854,-0.00259865,0.0158374,0.000445446,-1.39858,0.010413,0.0470784,944,1702,4.29889,-13.5345
-273,-678,4.19397,13.6117,0.000228798,0.0127836,-0.00033458,0.0127925,0.000219888,-1.54417,0.008456,0.0450907,951,1702,4.194,-13.6117
-266,-678,4.216,13.8381,-0.000146857,0.0105593,0.000975012,0.0106474,-0.000234927,1.48071,0.00717782,0.0363818,958,1702,4.21603,-13.8381
-259,-678,4.23669,14.0813,-0.000550446,0.00922209,0.00193101,0.00958981,-0.000918169,1.38262,0.00672021,0.0243856,965,1702,4.2367,-14.0813
-252,-678,4.21631,14.2166,-0.000912846,0.00751532,0.00269306,0.00830234,-0.00169987,1.28647,0.00617995,0.0213369,972,1702,4.21633,-14.2165
-245,-678,4.23309,14.4119,-0.00114676,0.00653444,0.00309591,0.00762687,-0.0022392,1.23157,0.00597258,0.0196581,979,1702,4.23307,-14.4119
-238,-678,4.24396,14.5994,-0.00118908,0.00472756,0.0037231,0.00652456,-0.00298609,1.12111,0.00561623,0.0152515,986,1702,4.24398,-14.5994
-231,-678,4.2326,14.7808,-0.0010509,0.00441408,0.00370582,0.00628589,-0.00292272,1.10308,0.0054335,0.0128192,993,1702,4.23262,-14.7808
-224,-678,4.21136,14.9368,-0.00079393,0.00364131,0.00347343,0.00554468,-0.0026973,1.0695,0.00485224,0.012568,1000,1702,4.21139,-14.9367
-217,-678,4.21313,15.1096,-0.000568752,0.00264237,0.00296803,0.00441127,-0.00233765,1.03333,0.00395733,0.0130667,1007,1702,4.21313,-15.1097
-210,-678,4.20416,15.2919,-0.000409652,0.00163837,0.00243468,0.00325562,-0.0020269,0.984465,0.00307724,0.0137371,1014,1702,4.20419,-15.2919
-203,-678,4.1936,15.4374,-0.000236799,0.000664747,0.00182854,0.00209725,-0.00166931,0.906249,0.0021793,0.0179744,1021,1702,4.19363,-15.4373
-196,-678,4.1969,15.5906,-4.82856e-05,-0.000230493,0.00122721,0.00109119,-0.00136997,0.748348,0.00142399,0.0167688,1028,1702,4.19689,-15.5905
-189,-678,4.20178,15.7795,0.00010829,-0.000953395,0.000608783,0.000385167,-0.00123027,0.426842,0.000974288,0.00994588,1035,1702,4.20181,-15.7796
-182,-678,4.20544,15.9471,0.000387073,-0.00149542,3.79446e-05,0.000387838,-0.00149619,0.0201456,0.00114877,0.00977125,1042,1702,4.2054,-15.9472
-175,-678,4.20435,16.0852,0.00087006,-0.00214407,-0.000491431,0.000948161,-0.00222217,-0.157606,0.00187901,0.0109677,1049,1702,4.20437,-16.0852
-168,-678,4.21936,16.2307,0.00130125,-0.00254547,-0.000931984,0.00151516,-0.00275938,-0.22561,0.00250251,0.0105994,1056,1702,4.21933,-16.2307
-161,-678,4.20862,16.3599,0.00178643,-0.00276074,-0.001076,0.00202819,-0.0030025,-0.221014,0.00292258,0.00916652,1063,1702,4.20861,-16.3599
-154,-678,4.19812,16.494,0.00242258,-0.00290584,-0.00117355,0.00266959,-0.00315286,-0.207458,0.00336545,0.00840701,1070,1702,4.1981,-16.494
-147,-678,4.21716,16.6273,0.00312647,-0.00303713,-0.0011567,0.0033364,-0.00324705,-0.179531,0.00380107,0.009899,1077,1702,4.2172,-16.6273
-140,-678,4.22388,16.7609,0.0038918,-0.00321067,-0.00105539,0.0040453,-0.00336418,-0.144439,0.00428389,0.0112302,1084,1702,4.22388,-16.7609
-133,-678,4.23535,16.8807,0.00472264,-0.00358135,-0.000866035,0.004812,-0.00367071,-0.102817,0.00491224,0.0119457,1091,1702,4.23532,-16.8807
-126,-678,4.23792,17.0295,0.00559541,-0.00388437,-0.000522759,0.00562415,-0.00391311,-0.0549227,0.0055358,0.00916618,1098,1702,4.23787,-17.0295
-119,-678,4.27209,17.187,0.00647014,-0.00378599,6.40118e-06,0.00647014,-0.00378599,0.000624132,0.0059886,0.0186808,1105,1702,4.27212,-17.1871
-112,-678,4.29968,17.3018,0.00718279,-0.00387987,0.00044009,0.00720027,-0.00389735,0.039698,0.00650112,0.0279922,1112,1702,4.29971,-17.3018
-105,-678,4.34058,17.3843,0.00783545,-0.00395706,0.00111233,0.00793946,-0.00406106,0.0932292,0.00704808,0.0312506,1119,1702,4.34057,-17.3843
-98,-678,4.32666,17.3474,0.00833679,-0.00346986,0.00193683,0.0086464,-0.00377947,0.158513,0.00735522,0.0227991,1126,1702,4.32661,-17.3474
-91,-678,4.32727,17.469,0.00855309,-0.00267185,0.00246085,0.00906888,-0.00318764,0.206608,0.00734284,0.0211298,1133,1702,4.32728,-17.4689
-84,-678,4.40503,17.4597,0.00900871,-0.00213432,0.00301528,0.00977231,-0.00289792,0.248029,0.00766566,0.0333528,1140,1702,4.40507,-17.4598
-77,-678,4.41467,17.8511,0,0,0,0,0,0,0,-1,1147,1702,4.41462,-17.851
-70,-678,4.60205,18.2947,0,0,0,0,0,0,0,-1,1154,1702,4.60205,-18.2947
-63,-678,3.41687,11.0365,0,0,0,0,0,0,0,-1,1161,1702,3.41682,-11.0365
-56,-678,1.72388,6.13159,0,0,0,0,0,0,0,-1,1168,1702,1.72388,-6.13157
-49,-678,-0.241699,5.29895,0,0,0,0,0,0,0,-1,1175,1702,-0.241682,-5.29897
-42,-678,0.297119,3.90649,0,0,0,0,0,0,0,-1,1182,1702,0.297139,-3.90655
-35,-678,0.498413,3.64038,0,0,0,0,0,0,0,-1,1189,1702,0.498471,-3.64038
-28,-678,0.132446,3.55994,0,0,0,0,0,0,0,-1,1196,1702,0.132432,-3.55993
-21,-678,4.56348,18.125,0,0,0,0,0,0,0,-1,1203,1702,4.56343,-18.125
-14,-678,4.85486,17.8729,0.0177307,-0.0122865,0.0249208,0.0318135,-0.0263692,0.514361,0.0336407,0.0406826,1210,1702,4.85491,-17.8729
-7,-678,4.89795,17.958,0.0170045,-0.00944496,0.0258652,0.0328298,-0.0252702,0.549077,0.0336385,0.0441834,1217,1702,4.898,-17.958
0,-678,5.13916,18.1226,0.0157131,-0.00549892,0.0267089,0.0338447,-0.0236305,0.596398,0.0333575,0.0447328,1224,1702,5.13912,-18.1226
7,-678,5.10767,18.329,0.0139643,-0.00143787,0.0273466,0.0346735,-0.0221471,0.648148,0.03307,0.0442607,1231,1702,5.10769,-18.329
14,-678,5.09277,18.2931,0.0120876,0.00234863,0.0276646,0.035308,-0.0208717,0.698281,0.0327904,0.0459453,1238,1702,5.09275,-18.2931
21,-678,5.10571,18.2997,0.0094768,0.00412116,0.028528,0.0354524,-0.0218545,0.738602,0.0333952,0.0479805,1245,1702,5.10575,-18.2997
28,-678,5.08203,18.2777,0,0,0,0,0,0,0,-1,1252,1702,5.082,-18.2778
35,-678,4.9502,18.3632,0,0,0,0,0,0,0,-1,1259,1702,4.95022,-18.3632
42,-678,4.74707,18.4091,0,0,0,0,0,0,0,-1,1266,1702,4.74707,-18.4091
49,-678,4.82959,18.4841,0,0,0,0,0,0,0,-1,1273,1702,4.8296,-18.4841
56,-678,4.79675,18.4218,-0.00821492,0.000680869,0.0346792,0.0311962,-0.0387303,0.849179,0.0404501,0.0449921,1280,1702,4.79674,-18.4218
63,-678,4.88574,18.5432,-0.0118482,-0.00126199,0.0358202,0.0296541,-0.0427643,0.858752,0.0420385,0.0472345,1287,1702,4.88575,-18.5432
70,-678,4.96289,18.6503,0,0,0,0,0,0,0,-1,1294,1702,4.96294,-18.6503
77,-678,5.82849,17.9756,-0.0176539,-0.00591317,0.034643,0.0233533,-0.0469204,0.869327,0.041326,0.0419788,1301,1702,5.8285,-17.9756
84,-678,5.4552,18.5812,-0.0191029,-0.00851787,0.0324861,0.019104,-0.0467247,0.866147,0.0391055,0.0445581,1308,1702,5.45518,-18.5812
91,-678,5.21375,18.5608,-0.0186506,-0.00973689,0.0287937,0.0149428,-0.0433303,0.862182,0.0349494,0.044686,1315,1702,5.21379,-18.5608
98,-678,6.93103,19.8658,0,0,0,0,0,0,0,-1,1322,1702,6.93101,-19.8658
105,-678,5.61646,18.03,0,0,0,0,0,0,0,-1,1329,1702,5.61643,-18.03
112,-678,5.78552,18.2721,-0.0148397,-0.0126011,0.0142651,0.000588505,-0.0280293,0.824549,0.0188854,0.0434606,1336,1702,5.78552,-18.2721
119,-678,5.40234,18.2958,-0.0128341,-0.0138906,0.00899524,-0.00435164,-0.0223731,0.756068,0.0136973,0.0462109,1343,1702,5.40238,-18.2958
126,-678,5.37524,18.379,-0.00977368,-0.014563,0.00322203,-0.00815388,-0.0161828,0.465827,0.00934323,0.0478547,1350,1702,5.37522,-18.379
133,-678,5.32056,18.3051,-0.00612878,-0.0154675,-0.00197028,-0.00573011,-0.0158662,-0.199646,0.00927733,0.0477496,1357,1702,5.32057,-18.305
140,-678,5.30261,18.1493,-0.00298254,-0.016444,-0.00605556,-0.0006594,-0.0187671,-0.366322,0.0122975,0.0475219,1364,1702,5.30261,-18.1494
147,-678,4.6908,18.2396,0,0,0,0,0,0,0,-1,1371,1702,4.69076,-18.2397
154,-678,6.26282,17.6322,0,0,0,0,0,0,0,-1,1378,1702,6.26278,-17.6321
161,-678,3.44202,4.53992,0,0,0,0,0,0,0,-1,1385,1702,3.442,-4.53996
168,-678,4.21863,5.25781,0,0,0,0,0,0,0,-1,1392,1702,4.21865,-5.25781
175,-678,5.21899,5.9635,0,0,0,0,0,0,0,-1,1399,1702,5.21894,-5.96346
182,-678,7.31262,6.75122,0,0,0,0,0,0,0,-1,1406,1702,7.3126,-6.75123
189,-678,5.96021,6.36853,0,0,0,0,0,0,0,-1,1413,1702,5.96018,-6.36851
196,-678,5.01599,8.15771,0,0,0,0,0,0,0,-1,1420,1702,5.01596,-8.15767
203,-678,4.64771,13.0559,0,0,0,0,0,0,0,-1,1427,1702,4.64766,-13.0559
210,-678,5.6532,18.5957,0,0,0,0,0,0,0,-1,1434,1702,5.65318,-18.5958
217,-678,5.67627,18.0491,0,0,0,0,0,0,0,-1,1441,1702,5.67623,-18.0491
224,-678,5.54285,17.8463,0,0,0,0,0,0,0,-1,1448,1702,5.54289,-17.8463
231,-678,5.56311,17.7233,0,0,0,0,0,0,0,-1,1455,1702,5.56306,-17.7232
238,-678,5.58984,17.6818,0,0,0,0,0,0,0,-1,1462,1702,5.5898,-17.6817
245,-678,5.57861,17.6635,0,0,0,0,0,0,0,-1,1469,1702,5.57867,-17.6634
252,-678,5.61658,17.5289,0.00234935,-0.00365456,0.000788691,0.00245123,-0.00375643,0.12846,0.0036103,0.0298946,1476,1702,5.61661,-17.5289
259,-678,5.59631,17.4619,0.00263772,-0.0043346,0.000615667,0.00269167,-0.00438855,0.0874004,0.00412671,0.0170463,1483,1702,5.59627,-17.4619
266,-678,5.62329,17.3552,0.00277932,-0.00446731,0.000376465,0.00279883,-0.00448681,0.0517647,0.00424383,0.0112402,1490,1702,5.62329,-17.3552
273,-678,5.63733,17.2615,0.0029868,-0.00422378,0.000201982,0.00299246,-0.00422944,0.0279826,0.0041899,0.010202,1497,1702,5.63734,-17.2614
280,-678,5.63574,17.1581,0.00291475,-0.00359479,9.30018e-05,0.00291608,-0.00359612,0.0142831,0.00376665,0.0111445,1504,1702,5.63575,-17.1581
287,-678,5.65015,17.0179,0.00267149,-0.00280238,-7.25476e-08,0.00267149,-0.00280238,-1.32534e-05,0.00316064,0.0116826,1511,1702,5.65021,-17.0179
294,-678,5.64209,16.8746,0.00245995,-0.00202554,-7.22204e-05,0.00246111,-0.0020267,-0.0160953,0.00259508,0.0112349,1518,1702,5.64214,-16.8746
301,-678,5.62646,16.7557,0.00222338,-0.00126595,-0.000142147,0.00222916,-0.00127173,-0.040648,0.00204628,0.0105796,1525,1702,5.62642,-16.7558
308,-678,5.62866,16.6543,0.00178376,-0.000598768,-0.000203625,0.00180104,-0.000616046,-0.0846477,0.00145033,0.0129289,1532,1702,5.62863,-16.6543
315,-678,5.66321,16.543,0.00129814,-0.000292415,-0.000157614,0.00131361,-0.000307883,-0.097826,0.000994387,0.0154038,1539,1702,5.66317,-16.543
322,-678,5.66406,16.4103,0.00102406,0.000156745,-0.000332004,0.00113656,4.42477e-05,-0.326702,0.000743395,0.0181545,1546,1702,5.66406,-16.4103
329,-678,5.63721,16.2524,0.000546309,0.000510781,-0.000428743,0.000957656,9.94338e-05,-0.764694,0.000608009,0.0141895,1553,1702,5.63721,-16.2524
336,-678,5.61963,16.0959,6.79929e-05,0.000604327,-0.000518279,0.000919707,-0.000247387,-1.02414,0.000710113,0.0119261,1560,1702,5.61958,-16.096
343,-678,5.6405,15.9675,-0.000336296,0.000706145,-0.000655148,0.00102212,-0.000652267,-1.12142,0.000974535,0.0115599,1567,1702,5.64052,-15.9675
350,-678,5.66333,15.8282,-0.000661435,0.000730391,-0.000864101,0.00114397,-0.00107501,-1.1244,0.00128133,0.0110598,1574,1702,5.66332,-15.8283
357,-678,5.66174,15.6786,-0.000892307,0.000882154,-0.00111508,0.00141991,-0.00143006,-1.12144,0.00164544,0.00896179,1581,1702,5.66177,-15.6785
364,-678,5.63879,15.5428,-0.00104798,0.00089357,-0.00144022,0.00165965,-0.00181406,-1.08194,0.0020062,0.0119182,1588,1702,5.63884,-15.5429
371,-678,5.61487,15.3739,-0.00110225,0.000974361,-0.00182897,0.0020392,-0.00216709,-1.04356,0.00242887,0.0126699,1595,1702,5.61487,-15.3739
378,-678,5.63086,15.1813,-0.000854984,0.00131205,-0.0022586,0.00273359,-0.00227652,-1.00905,0.00289659,0.0141456,1602,1702,5.63084,-15.1813
385,-678,5.64502,15.0355,-5.82753e-05,0.00219677,-0.00313847,0.00440411,-0.00226562,-0.957847,0.00391619,0.0191879,1609,1702,5.64506,-15.0355
392,-678,5.60742,14.9377,0.00110707,0.0041595,-0.00499117,0.00785258,-0.00258601,-0.933775,0.0062772,0.0321746,1616,1702,5.60747,-14.9378
399,-678,5.5946,14.8187,0.00221347,0.00548044,-0.00643974,0.0104906,-0.00279673,-0.909607,0.0080888,0.040705,1623,1702,5.59459,-14.8187
406,-678,5.646,14.5018,0.00362313,0.00664524,-0.00793296,0.0132098,-0.0029414,-0.87951,0.00993323,0.0418158,1630,1702,5.64601,-14.5018
413,-678,5.64502,14.2548,0.006148,0.00680698,-0.00961067,0.0160938,-0.00313883,-0.802533,0.0119141,0.0475165,1637,1702,5.64503,-14.2547
420,-678,5.72217,14.1354,0,0,0,0,0,0,0,-1,1644,1702,5.72219,-14.1354
427,-678,4.57483,10.1555,0,0,0,0,0,0,0,-1,1651,1702,4.57485,-10.1555
434,-678,5.73999,11.7773,0,0,0,0,0,0,0,-1,1658,1702,5.73994,-11.7774
441,-678,4.47729,11.1503,0,0,0,0,0,0,0,-1,1665,1702,4.47728,-11.1503
448,-678,3.25525,9.74719,0,0,0,0,0,0,0,-1,1672,1702,3.25522,-9.7472
455,-678,5.44678,5.54297,0,0,0,0,0,0,0,-1,1679,1702,5.44676,-5.54294
462,-678,3.86792,2.87402,0,0,0,0,0,0,0,-1,1686,1702,3.86796,-2.87406
469,-678,2.26587,1.98755,0,0,0,0,0,0,0,-1,1693,1702,2.26592,-1.98755
476,-678,0,0,0,0,0,0,0,0,0,-1,1700,1702,0,0
483,-678,0,0,0,0,0,0,0,0,0,-1,1707,1702,0,0
490,-678,0,0,0,0,0,0,0,0,0,-1,1714,1702,0,0
497,-678,0,0,0,0,0,0,0,0,0,-1,1721,1702,0,0
504,-678,0,0,0,0,0,0,0,0,0,-1,1728,1702,0,0
511,-678,0,0,0,0,0,0,0,0,0,-1,1735,1702,0,0
518,-678,0,0,0,0,0,0,0,0,0,-1,1742,1702,0,0
525,-678,0,0,0,0,0,0,0,0,0,-1,1749,1702,0,0
532,-678,0,0,0,0,0,0,0,0,0,-1,1756,1702,0,0
539,-678,0,0,0,0,0,0,0,0,0,-1,1763,1702,0,0
546,-678,0,0,0,0,0,0,0,0,0,-1,1770,1702,0,0
553,-678,0,0,0,0,0,0,0,0,0,-1,1777,1702,0,0
560,-678,0,0,0,0,0,0,0,0,0,-1,1784,1702,0,0
567,-678,0,0,0,0,0,0,0,0,0,-1,1791,1702,0,0
574,-678,0,0,0,0,0,0,0,0,0,-1,1798,1702,0,0
581,-678,0,0,0,0,0,0,0,0,0,-1,1805,1702,0,0
588,-678,0,0,0,0,0,0,0,0,0,-1,1812,1702,0,0
595,-678,0,0,0,0,0,0,0,0,0,-1,1819,1702,0,0
602,-678,0,0,0,0,0,0,0,0,0,-1,1826,1702,0,0
609,-678,0,0,0,0,0,0,0,0,0,-1,1833,1702,0,0
616,-678,0,0,0,0,0,0,0,0,0,-1,1840,1702,0,0
623,-678,0,0,0,0,0,0,0,0,0,-1,1847,1702,0,0
630,-678,0,0,0,0,0,0,0,0,0,-1,1854,1702,0,0
637,-678,0,0,0,0,0,0,0,0,0,-1,1861,1702,0,0
644,-678,0,0,0,0,0,0,0,0,0,-1,1868,1702,0,0
651,-678,0,0,0,0,0,0,0,0,0,-1,1875,1702,0,0
658,-678,0,0,0,0,0,0,0,0,0,-1,1882,1702,0,0
665,-678,0,0,0,0,0,0,0,0,0,-1,1889,1702,0,0
672,-678,0,0,0,0,0,0,0,0,0,-1,1896,1702,0,0
679,-678,0,0,0,0,0,0,0,0,0,-1,1903,1702,0,0
686,-678,0,0,0,0,0,0,0,0,0,-1,1910,1702,0,0
693,-678,0,0,0,0,0,0,0,0,0,-1,1917,1702,0,0
700,-678,0,0,0,0,0,0,0,0,0,-1,1924,1702,0,0
707,-678,0,0,0,0,0,0,0,0,0,-1,1931,1702,0,0
714,-678,0,0,0,0,0,0,0,0,0,-1,1938,1702,0,0
721,-678,0,0,0,0,0,0,0,0,0,-1,1945,1702,0,0
728,-678,0,0,0,0,0,0,0,0,0,-1,1952,1702,0,0
735,-678,0,0,0,0,0,0,0,0,0,-1,1959,1702,0,0
742,-678,0,0,0,0,0,0,0,0,0,-1,1966,1702,0,0
749,-678,0,0,0,0,0,0,0,0,0,-1,1973,1702,0,0
756,-678,0,0,0,0,0,0,0,0,0,-1,1980,1702,0,0
763,-678,0,0,0,0,0,0,0,0,0,-1,1987,1702,0,0
770,-678,0,0,0,0,0,0,0,0,0,-1,1994,1702,0,0
777,-678,0,0,0,0,0,0,0,0,0,-1,2001,1702,0,0
784,-678,0,0,0,0,0,0,0,0,0,-1,2008,1702,0,0
791,-678,0,0,0,0,0,0,0,0,0,-1,2015,1702,0,0
798,-678,0,0,0,0,0,0,0,0,0,-1,2022,1702,0,0
805,-678,0,0,0,0,0,0,0,0,0,-1,2029,1702,0,0
812,-678,0,0,0,0,0,0,0,0,0,-1,2036,1702,0,0
-700,-685,0,0,0,0,0,0,0,0,0,-1,524,1709,0,0
-693,-685,0,0,0,0,0,0,0,0,0,-1,531,1709,0,0
-686,-685,0,0,0,0,0,0,0,0,0,-1,538,1709,0,0
-679,-685,0,0,0,0,0,0,0,0,0,-1,545,1709,0,0
-672,-685,0,0,0,0,0,0,0,0,0,-1,552,1709,0,0
-665,-685,0,0,0,0,0,0,0,0,0,-1,559,1709,0,0
-658,-685,0,0,0,0,0,0,0,0,0,-1,566,1709,0,0
-651,-685,0,0,0,0,0,0,0,0,0,-1,573,1709,0,0
-644,-685,0,0,0,0,0,0,0,0,0,-1,580,1709,0,0
-637,-685,0,0,0,0,0,0,0,0,0,-1,587,1709,0,0
-630,-685,0,0,0,0,0,0,0,0,0,-1,594,1709,0,0
-623,-685,0,0,0,0,0,0,0,0,0,-1,601,1709,0,0
-616,-685,0,0,0,0,0,0,0,0,0,-1,608,1709,0,0
-609,-685,0,0,0,0,0,0,0,0,0,-1,615,1709,0,0
-602,-685,0,0,0,0,0,0,0,0,0,-1,622,1709,0,0
-595,-685,0,0,0,0,0,0,0,0,0,-1,629,1709,0,0
-588,-685,0,0,0,0,0,0,0,0,0,-1,636,1709,0,0
-581,-685,0,0,0,0,0,0,0,0,0,-1,643,1709,0,0
-574,-685,0,0,0,0,0,0,0,0,0,-1,650,1709,0,0
-567,-685,0,0,0,0,0,0,0,0,0,-1,657,1709,0,0
-560,-685,0,0,0,0,0,0,0,0,0,-1,664,1709,0,0
-553,-685,0,0,0,0,0,0,0,0,0,-1,671,1709,0,0
-546,-685,0,0,0,0,0,0,0,0,0,-1,678,1709,0,0
-539,-685,0,0,0,0,0,0,0,0,0,-1,685,1709,0,0
-532,-685,0,0,0,0,0,0,0,0,0,-1,692,1709,0,0
-525,-685,0,0,0,0,0,0,0,0,0,-1,699,1709,0,0
-518,-685,0,0,0,0,0,0,0,0,0,-1,706,1709,0,0
-511,-685,0,0,0,0,0,0,0,0,0,-1,713,1709,0,0
-504,-685,0,0,0,0,0,0,0,0,0,-1,720,1709,0,0
-497,-685,0,0,0,0,0,0,0,0,0,-1,727,1709,0,0
-490,-685,0,0,0,0,0,0,0,0,0,-1,734,1709,0,0
-483,-685,0,0,0,0,0,0,0,0,0,-1,741,1709,0,0
-476,-685,0,0,0,0,0,0,0,0,0,-1,748,1709,0,0
-469,-685,0,0,0,0,0,0,0,0,0,-1,755,1709,0,0
-462,-685,0,0,0,0,0,0,0,0,0,-1,762,1709,0,0
-455,-685,0,0,0,0,0,0,0,0,0,-1,769,1709,0,0
-448,-685,0,0,0,0,0,0,0,0,0,-1,776,1709,0,0
-441,-685,0,0,0,0,0,0,0,0,0,-1,783,1709,0,0
-434,-685,0,0,0,0,0,0,0,0,0,-1,790,1709,0,0
-427,-685,0,0,0,0,0,0,0,0,0,-1,797,1709,0,0
-420,-685,0,0,0,0,0,0,0,0,0,-1,804,1709,0,0
-413,-685,0,0,0,0,0,0,0,0,0,-1,811,1709,0,0
-406,-685,0,0,0,0,0,0,0,0,0,-1,818,1709,0,0
-399,-685,0,0,0,0,0,0,0,0,0,-1,825,1709,0,0
-392,-685,0,0,0,0,0,0,0,0,0,-1,832,1709,0,0
-385,-685,0,0,0,0,0,0,0,0,0,-1,839,1709,0,0
-378,-685,0,0,0,0,0,0,0,0,0,-1,846,1709,0,0
-371,-685,0,0,0,0,0,0,0,0,0,-1,853,1709,0,0
-364,-685,0,0,0,0,0,0,0,0,0,-1,860,1709,0,0
-357,-685,0,0,0,0,0,0,0,0,0,-1,867,1709,0,0
-350,-685,0,0,0,0,0,0,0,0,0,-1,874,1709,0,0
-343,-685,-5.98505,6.56335,0,0,0,0,0,0,0,-1,881,1709,-5.98505,-6.56329
-336,-685,-6.51312,5.10571,0,0,0,0,0,0,0,-1,888,1709,-6.51311,-5.10575
-329,-685,-6.81384,3.34106,0,0,0,0,0,0,0,-1,895,1709,-6.81385,-3.341
-322,-685,3.48425,16.3307,0,0,0,0,0,0,0,-1,902,1709,3.48425,-16.3307
-315,-685,3.66089,14.3413,0,0,0,0,0,0,0,-1,909,1709,3.66091,-14.3413
-308,-685,4.88995,11.248,0,0,0,0,0,0,0,-1,916,1709,4.88994,-11.2481
-301,-685,5.21448,10.7545,0,0,0,0,0,0,0,-1,923,1709,5.21449,-10.7545
-294,-685,5.6759,10.079,0,0,0,0,0,0,0,-1,930,1709,5.67591,-10.079
-287,-685,5.0224,14.2605,0,0,0,0,0,0,0,-1,937,1709,5.02238,-14.2605
-280,-685,4.58313,13.5938,0,0,0,0,0,0,0,-1,944,1709,4.58314,-13.5938
-273,-685,4.36145,13.5553,0,0,0,0,0,0,0,-1,951,1709,4.36143,-13.5553
-266,-685,4.39246,13.7598,-0.00021939,0.0149899,0.00233471,0.0153402,-0.000569711,1.42186,0.0104219,0.0485547,958,1709,4.39244,-13.7598
-259,-685,4.44165,13.9785,-0.000821899,0.0131721,0.00370651,0.0140932,-0.00174299,1.32722,0.0100271,0.0444401,965,1709,4.44165,-13.9785
-252,-685,4.4588,14.1965,-0.00129766,0.0107951,0.00465117,0.0123771,-0.00287965,1.24294,0.00936013,0.0406822,972,1709,4.45882,-14.1965
-245,-685,4.48926,14.3773,-0.00176356,0.00904804,0.00466507,0.0107827,-0.00349818,1.21481,0.00859516,0.0328231,979,1709,4.48925,-14.3774
-238,-685,4.46954,14.59,-0.00189457,0.00665018,0.00525323,0.00914904,-0.00439343,1.12679,0.00797783,0.0237812,986,1709,4.46953,-14.5899
-231,-685,4.41461,14.7904,-0.00176472,0.00604453,0.005044,0.00851862,-0.0042388,1.11478,0.00750239,0.0160027,993,1709,4.4146,-14.7904
-224,-685,4.38232,14.9468,-0.00145358,0.00495118,0.00456844,0.00732786,-0.00383026,1.09109,0.00654679,0.0143766,1000,1709,4.38234,-14.9468
-217,-685,4.37238,15.1246,-0.00117289,0.00359673,0.00378615,0.00568655,-0.0032627,1.06645,0.00522964,0.0113302,1007,1709,4.37237,-15.1246
-210,-685,4.37366,15.3071,-0.00096164,0.00227621,0.00305553,0.0041152,-0.00280063,1.02901,0.00401683,0.0150327,1014,1709,4.37363,-15.3071
-203,-685,4.37012,15.4669,-0.000734019,0.00112896,0.00232665,0.00270366,-0.00230872,0.975805,0.00289689,0.0155633,1021,1709,4.37011,-15.467
-196,-685,4.36426,15.6145,-0.000504943,0.000256549,0.00167607,0.00159458,-0.00184297,0.897086,0.0019864,0.0128322,1028,1709,4.36423,-15.6145
-189,-685,4.3501,15.782,-0.00029105,-0.000456209,0.00109245,0.000721936,-0.0014692,0.747674,0.00128934,0.00855207,1035,1709,4.35012,-15.782
-182,-685,4.3418,15.936,-2.72858e-06,-0.000911,0.000589987,0.000287665,-0.00120139,0.457391,0.000912066,0.0131552,1042,1709,4.34186,-15.936
-175,-685,4.34155,16.0813,0.000452713,-0.00158472,0.00012499,0.000460352,-0.00159236,0.0610418,0.00124375,0.0139247,1049,1709,4.34153,-16.0813
-168,-685,4.349,16.2335,0.000790413,-0.00188893,-0.000269509,0.000817253,-0.00191577,-0.0992628,0.00161984,0.0107452,1056,1709,4.34897,-16.2335
-161,-685,4.34949,16.3728,0.00116304,-0.00192568,-0.000287561,0.00118959,-0.00195223,-0.0920459,0.00183165,0.0114918,1063,1709,4.34949,-16.3728
-154,-685,4.35425,16.5134,0.00166754,-0.00194854,-0.000294787,0.00169142,-0.00197241,-0.0808101,0.00211739,0.0107497,1070,1709,4.35424,-16.5134
-147,-685,4.34546,16.6384,0.00220474,-0.00193755,-0.000265871,0.00222173,-0.00195455,-0.0638356,0.00241282,0.00970622,1077,1709,4.34551,-16.6385
-140,-685,4.35986,16.7404,0.00278832,-0.00203313,-0.000168784,0.00279422,-0.00203904,-0.0349499,0.00280181,0.0119039,1084,1709,4.35989,-16.7404
-133,-685,4.36865,16.8823,0.00338052,-0.00237629,-0.000106112,0.00338247,-0.00237824,-0.0184241,0.00334275,0.0108908,1091,1709,4.36859,-16.8824
-126,-685,4.37305,17.0306,0.00397141,-0.00261385,5.11727e-05,0.00397181,-0.00261425,0.00777017,0.00382929,0.00934346,1098,1709,4.37302,-17.0306
-119,-685,4.37952,17.1368,0.00458759,-0.00256292,0.000347897,0.00460447,-0.00257981,0.0485008,0.00420239,0.0128381,1105,1709,4.37954,-17.1369
-112,-685,4.38501,17.2311,0.00508186,-0.00265047,0.000566271,0.00512311,-0.00269172,0.0727171,0.00458411,0.0126684,1112,1709,4.38496,-17.2311
-105,-685,4.38013,17.328,0.0054815,-0.0026846,0.000868724,0.00557289,-0.00277599,0.104819,0.00490956,0.0113242,1119,1709,4.38018,-17.328
-98,-685,4.43274,17.4196,0.00573116,-0.00237547,0.00126745,0.0059247,-0.00256901,0.151531,0.0050298,0.0147763,1126,1709,4.43275,-17.4196
-91,-685,4.42859,17.517,0.00585563,-0.00171844,0.00163653,0.00619411,-0.00205692,0.203951,0.00495933,0.0165292,1133,1709,4.42861,-17.517
-84,-685,4.42395,17.6188,0.00614071,-0.00129389,0.00205738,0.00667207,-0.00182526,0.252748,0.00516511,0.0149743,1140,1709,4.4239,-17.6187
-77,-685,4.47192,17.801,0.00630712,-0.000591219,0.00211346,0.00690313,-0.00118723,0.274869,0.00504462,0.0166168,1147,1709,4.4719,-17.801
-70,-685,4.63818,18.0757,0.00630615,-0.000586475,0.00195837,0.00682371,-0.00110404,0.258374,0.00495829,0.0406877,1154,1709,4.63815,-18.0757
-63,-685,4.64563,18.5566,0,0,0,0,0,0,0,-1,1161,1709,4.64568,-18.5566
-56,-685,3.93909,15.8704,0,0,0,0,0,0,0,-1,1168,1709,3.93905,-15.8704
-49,-685,3.07471,9.86011,0,0,0,0,0,0,0,-1,1175,1709,3.07467,-9.86009
-42,-685,2.70618,7.54504,0,0,0,0,0,0,0,-1,1182,1709,2.7062,-7.54504
-35,-685,2.95264,7.91516,0,0,0,0,0,0,0,-1,1189,1709,2.95262,-7.91517
-28,-685,4.63269,18.1304,0,0,0,0,0,0,0,-1,1196,1709,4.63275,-18.1304
-21,-685,4.64307,18.2198,0.0138428,-0.0138604,0.0171781,0.0220583,-0.0220758,0.446098,0.0254809,0.0430166,1203,1709,4.64311,-18.2199
-14,-685,4.73755,18.22,0.0137549,-0.0138904,0.0179397,0.0225795,-0.022715,0.45715,0.0261509,0.0247064,1210,1709,4.73757,-18.2199
-7,-685,4.76184,18.2412,0.0132536,-0.0119584,0.0189138,0.0233774,-0.0220822,0.491455,0.0262496,0.0345057,1217,1709,4.76186,-18.2412
0,-685,4.83093,18.3591,0.012302,-0.00927334,0.0197262,0.0239976,-0.0209689,0.535179,0.025981,0.0404112,1224,1709,4.83092,-18.3592
7,-685,4.88647,18.4357,0.0110164,-0.00645941,0.0202762,0.0243574,-0.0198004,0.581951,0.0255397,0.0367235,1231,1709,4.88653,-18.4357
14,-685,4.92395,18.4634,0.00965368,-0.00368223,0.0205299,0.0245713,-0.0185998,0.628376,0.0250042,0.0385126,1238,1709,4.92399,-18.4634
21,-685,5.02515,18.4015,0.00762326,-0.00227147,0.0213292,0.0245714,-0.0192196,0.671437,0.0253456,0.0381465,1245,1709,5.02516,-18.4015
28,-685,4.99597,18.3612,0.00478576,-0.00220208,0.0225653,0.024126,-0.0215423,0.70859,0.0263807,0.0410256,1252,1709,4.99593,-18.3612
35,-685,4.98523,18.4203,0.00191353,-0.00271836,0.0237409,0.0234512,-0.024256,0.736776,0.027545,0.0414228,1259,1709,4.98528,-18.4203
42,-685,4.88086,18.4781,-0.000803685,-0.00266611,0.0245226,0.0228054,-0.0262752,0.76642,0.0283602,0.0439145,1266,1709,4.88081,-18.4782
49,-685,4.8811,18.5033,-0.00342082,-0.00232117,0.0257794,0.0229143,-0.0286563,0.796061,0.0298358,0.0469221,1273,1709,4.88115,-18.5032
56,-685,4.82068,18.4891,-0.00654473,-0.00364639,0.0266107,0.0215546,-0.0317457,0.8126,0.0309599,0.0441415,1280,1709,4.82062,-18.4891
63,-685,4.91541,18.5264,-0.00941639,-0.00505777,0.0275081,0.0203572,-0.0348314,0.824928,0.0322263,0.0441935,1287,1709,4.91538,-18.5264
70,-685,5.33411,18.3966,-0.0120056,-0.00685275,0.0274669,0.0181583,-0.0370167,0.832162,0.0324696,0.0437128,1294,1709,5.33408,-18.3966
77,-685,5.45618,18.3842,-0.0138812,-0.00817593,0.0268303,0.0159529,-0.0380101,0.83836,0.0320113,0.0408945,1301,1709,5.45616,-18.3841
84,-685,5.26184,18.6174,-0.0150306,-0.00996456,0.0252733,0.0129023,-0.0378975,0.835344,0.0304897,0.0443476,1308,1709,5.2618,-18.6175
91,-685,5.19983,18.65,-0.0148897,-0.0108666,0.0227105,0.00992127,-0.0356776,0.82957,0.0276911,0.0429621,1315,1709,5.1998,-18.65
98,-685,5.27661,18.34,0,0,0,0,0,0,0,-1,1322,1709,5.27666,-18.34
105,-685,5.41455,18.2391,-0.0135409,-0.0120846,0.0157011,0.00290521,-0.0285307,0.808569,0.0200591,0.0427676,1329,1709,5.41461,-18.2391
112,-685,5.46082,18.3273,-0.0124251,-0.0125,0.0121124,-0.000350123,-0.024575,0.783851,0.0162679,0.0450461,1336,1709,5.46087,-18.3273
119,-685,5.28076,18.4255,-0.0109705,-0.0131007,0.00827293,-0.00369439,-0.0203768,0.72138,0.0125359,0.0436336,1343,1709,5.28077,-18.4256
126,-685,5.25916,18.428,-0.00873022,-0.0131874,0.00393426,-0.00643719,-0.0154804,0.527703,0.00897974,0.0439365,1350,1709,5.25918,-18.4279
133,-685,5.21155,18.4473,-0.0059685,-0.0133043,-1.17656e-06,-0.0059685,-0.0133043,-0.000160387,0.00769475,0.0452756,1357,1709,5.21152,-18.4473
140,-685,5.1322,18.3899,-0.00356953,-0.0135639,-0.00307835,-0.00269746,-0.0144359,-0.276058,0.0088627,0.0452568,1364,1709,5.13219,-18.3899
147,-685,4.92297,18.3981,-0.00168323,-0.0136597,-0.00462765,-0.0001035,-0.0152394,-0.328964,0.0101253,0.0435463,1371,1709,4.92294,-18.3981
154,-685,5.24097,18.5861,0,0,0,0,0,0,0,-1,1378,1709,5.24102,-18.5861
161,-685,5.625,18.5143,0,0,0,0,0,0,0,-1,1385,1709,5.62503,-18.5143
168,-685,4.37524,10.8778,0,0,0,0,0,0,0,-1,1392,1709,4.37525,-10.8778
175,-685,3.97522,8.94324,0,0,0,0,0,0,0,-1,1399,1709,3.97519,-8.94328
182,-685,3.98218,9.19739,0,0,0,0,0,0,0,-1,1406,1709,3.98221,-9.1974
189,-685,4.53479,15.2343,0,0,0,0,0,0,0,-1,1413,1709,4.53474,-15.2343
196,-685,5.43176,18.3826,0,0,0,0,0,0,0,-1,1420,1709,5.43176,-18.3825
203,-685,5.41809,18.1869,0,0,0,0,0,0,0,-1,1427,1709,5.41811,-18.1869
210,-685,5.52515,18.1119,0,0,0,0,0,0,0,-1,1434,1709,5.52519,-18.1119
217,-685,5.48975,18.0105,0.000515846,-0.0010645,0.00164405,0.00154975,-0.00209841,0.561384,0.00211419,0.0294446,1441,1709,5.48976,-18.0106
224,-685,5.4364,17.8969,0.000561012,-0.00149962,0.00154143,0.00138476,-0.00232336,0.490791,0.00216363,0.0181057,1448,1709,5.4364,-17.8969
231,-685,5.46863,17.7955,0.000807285,-0.00212304,0.00141741,0.00138069,-0.00269644,0.384416,0.00239444,0.0173843,1455,1709,5.46868,-17.7956
238,-685,5.48279,17.6981,0.00113996,-0.00206834,0.00106651,0.00146214,-0.00239052,0.293371,0.00224576,0.0185509,1462,1709,5.48284,-17.6982
245,-685,5.47156,17.6254,0.00127976,-0.00226408,0.00086084,0.0014778,-0.00246212,0.226121,0.00229825,0.0197303,1469,1709,5.47153,-17.6254
252,-685,5.50977,17.5408,0.00150383,-0.0025446,0.000608867,0.00159342,-0.00263419,0.146091,0.00246534,0.0148901,1476,1709,5.50971,-17.5407
259,-685,5.51526,17.4569,0.00174768,-0.0029585,0.000414002,0.00178382,-0.00299465,0.0870786,0.00278822,0.0114019,1483,1709,5.51524,-17.4569
266,-685,5.51636,17.3577,0.0018914,-0.00289844,0.00019829,0.0018996,-0.00290664,0.0413038,0.00279511,0.012326,1490,1709,5.51631,-17.3577
273,-685,5.51392,17.2595,0.00198381,-0.00247359,4.74949e-05,0.00198431,-0.0024741,0.0106537,0.00257924,0.0127264,1497,1709,5.51396,-17.2595
280,-685,5.51331,17.146,0.00187739,-0.00173032,-4.04708e-05,0.00187784,-0.00173078,-0.011216,0.00208401,0.0139606,1504,1709,5.51326,-17.146
287,-685,5.51929,17.0299,0.00166787,-0.000870298,-6.98407e-05,0.00166979,-0.000872218,-0.0274884,0.00149152,0.0115149,1511,1709,5.51935,-17.0299
294,-685,5.52429,16.9095,0.00149012,5.39812e-05,-0.000108468,0.00149827,4.58351e-05,-0.0749607,0.000983922,0.00979424,1518,1709,5.52429,-16.9095
301,-685,5.51172,16.7822,0.00129786,0.000904869,-0.000168107,0.00135996,0.000842771,-0.353848,0.000792636,0.0122517,1525,1709,5.51166,-16.7823
308,-685,5.50415,16.6567,0.00078447,0.00160479,-0.000226532,0.00166319,0.00072607,-1.31849,0.000962814,0.0141622,1532,1709,5.50415,-16.6567
315,-685,5.53015,16.5348,0.000265691,0.00177154,-0.000161127,0.00178859,0.000248643,-1.46539,0.00111876,0.0132027,1539,1709,5.53014,-16.5348
322,-685,5.51746,16.3923,0.000128169,0.00215376,-0.000442224,0.0022461,3.5833e-05,-1.36495,0.0014856,0.0200789,1546,1709,5.51743,-16.3923
329,-685,5.50378,16.243,-0.000310553,0.0023656,-0.000591898,0.00249067,-0.000435621,-1.36256,0.00182308,0.0174729,1553,1709,5.50375,-16.2431
336,-685,5.50537,16.0973,-0.000740269,0.00217196,-0.000738533,0.00234854,-0.000916852,-1.3361,0.00194474,0.0125515,1560,1709,5.50537,-16.0973
343,-685,5.49817,15.974,-0.00107901,0.00206816,-0.000982984,0.00234995,-0.0013608,-1.29161,0.00216763,0.0114331,1567,1709,5.49814,-15.974
350,-685,5.51697,15.8231,-0.00135651,0.00181807,-0.00129658,0.00228032,-0.00181876,-1.22833,0.0023716,0.0114015,1574,1709,5.51698,-15.8232
357,-685,5.52942,15.6721,-0.00151178,0.00170523,-0.00166487,0.00241169,-0.00221824,-1.16949,0.00267387,0.00996728,1581,1709,5.52947,-15.6721
364,-685,5.50171,15.5192,-0.00156933,0.00135853,-0.00211372,0.00246577,-0.00267657,-1.08826,0.00296976,0.010359,1588,1709,5.50174,-15.5191
371,-685,5.52344,15.3364,-0.00152802,0.00121877,-0.00265167,0.00283161,-0.00314085,-1.02434,0.00344974,0.0164283,1595,1709,5.52348,-15.3365
378,-685,5.46667,15.2037,-0.00120276,0.00147732,-0.00316719,0.00357629,-0.00330174,-0.985529,0.00397209,0.0249767,1602,1709,5.46669,-15.2037
385,-685,5.41528,14.952,-0.000250458,0.00244503,-0.00419052,0.00549921,-0.00330464,-0.940983,0.00513527,0.0428795,1609,1709,5.41527,-14.9521
392,-685,5.48157,14.7571,0.00119515,0.00473284,-0.00631316,0.00952027,-0.00359228,-0.921987,0.00782416,0.0460833,1616,1709,5.48158,-14.7571
399,-685,5.52979,14.9215,0,0,0,0,0,0,0,-1,1623,1709,5.52973,-14.9215
406,-685,5.53491,14.4958,0,0,0,0,0,0,0,-1,1630,1709,5.53486,-14.4959
413,-685,5.52209,14.2542,0,0,0,0,0,0,0,-1,1637,1709,5.52215,-14.2541
420,-685,4.84631,10.3781,0,0,0,0,0,0,0,-1,1644,1709,4.84634,-10.378
427,-685,6.05151,9.21155,0,0,0,0,0,0,0,-1,1651,1709,6.05156,-9.21156
434,-685,4.87769,8.91418,0,0,0,0,0,0,0,-1,1658,1709,4.87768,-8.91413
441,-685,5.62,8.75549,0,0,0,0,0,0,0,-1,1665,1709,5.61996,-8.75545
448,-685,6.4043,8.58972,0,0,0,0,0,0,0,-1,1672,1709,6.40435,-8.58971
455,-685,2.31958,4.09802,0,0,0,0,0,0,0,-1,1679,1709,2.31957,-4.09803
462,-685,0,0,0,0,0,0,0,0,0,-1,1686,1709,0,0
469,-685,0,0,0,0,0,0,0,0,0,-1,1693,1709,0,0
476,-685,0,0,0,0,0,0,0,0,0,-1,1700,1709,0,0
483,-685,0,0,0,0,0,0,0,0,0,-1,1707,1709,0,0
490,-685,0,0,0,0,0,0,0,0,0,-1,1714,1709,0,0
497,-685,0,0,0,0,0,0,0,0,0,-1,1721,1709,0,0
504,-685,0,0,0,0,0,0,0,0,0,-1,1728,1709,0,0
511,-685,0,0,0,0,0,0,0,0,0,-1,1735,1709,0,0
518,-685,0,0,0,0,0,0,0,0,0,-1,1742,1709,0,0
525,-685,0,0,0,0,0,0,0,0,0,-1,1749,1709,0,0
532,-685,0,0,0,0,0,0,0,0,0,-1,1756,1709,0,0
539,-685,0,0,0,0,0,0,0,0,0,-1,1763,1709,0,0
546,-685,0,0,0,0,0,0,0,0,0,-1,1770,1709,0,0
553,-685,0,0,0,0,0,0,0,0,0,-1,1777,1709,0,0
560,-685,0,0,0,0,0,0,0,0,0,-1,1784,1709,0,0
567,-685,0,0,0,0,0,0,0,0,0,-1,1791,1709,0,0
574,-685,0,0,0,0,0,0,0,0,0,-1,1798,1709,0,0
581,-685,0,0,0,0,0,0,0,0,0,-1,1805,1709,0,0
588,-685,0,0,0,0,0,0,0,0,0,-1,1812,1709,0,0
595,-685,0,0,0,0,0,0,0,0,0,-1,1819,1709,0,0
602,-685,0,0,0,0,0,0,0,0,0,-1,1826,1709,0,0
609,-685,0,0,0,0,0,0,0,0,0,-1,1833,1709,0,0
616,-685,0,0,0,0,0,0,0,0,0,-1,1840,1709,0,0
623,-685,0,0,0,0,0,0,0,0,0,-1,1847,1709,0,0
630,-685,0,0,0,0,0,0,0,0,0,-1,1854,1709,0,0
637,-685,0,0,0,0,0,0,0,0,0,-1,1861,1709,0,0
644,-685,0,0,0,0,0,0,0,0,0,-1,1868,1709,0,0
651,-685,0,0,0,0,0,0,0,0,0,-1,1875,1709,0,0
658,-685,0,0,0,0,0,0,0,0,0,-1,1882,1709,0,0
665,-685,0,0,0,0,0,0,0,0,0,-1,1889,1709,0,0
672,-685,0,0,0,0,0,0,0,0,0,-1,1896,1709,0,0
679,-685,0,0,0,0,0,0,0,0,0,-1,1903,1709,0,0
686,-685,0,0,0,0,0,0,0,0,0,-1,1910,1709,0,0
693,-685,0,0,0,0,0,0,0,0,0,-1,1917,1709,0,0
700,-685,0,0,0,0,0,0,0,0,0,-1,1924,1709,0,0
707,-685,0,0,0,0,0,0,0,0,0,-1,1931,1709,0,0
714,-685,0,0,0,0,0,0,0,0,0,-1,1938,1709,0,0
721,-685,0,0,0,0,0,0,0,0,0,-1,1945,1709,0,0
728,-685,0,0,0,0,0,0,0,0,0,-1,1952,1709,0,0
735,-685,0,0,0,0,0,0,0,0,0,-1,1959,1709,0,0
742,-685,0,0,0,0,0,0,0,0,0,-1,1966,1709,0,0
749,-685,0,0,0,0,0,0,0,0,0,-1,1973,1709,0,0
756,-685,0,0,0,0,0,0,0,0,0,-1,1980,1709,0,0
763,-685,0,0,0,0,0,0,0,0,0,-1,1987,1709,0,0
770,-685,0,0,0,0,0,0,0,0,0,-1,1994,1709,0,0
777,-685,0,0,0,0,0,0,0,0,0,-1,2001,1709,0,0
784,-685,0,0,0,0,0,0,0,0,0,-1,2008,1709,0,0
791,-685,0,0,0,0,0,0,0,0,0,-1,2015,1709,0,0
798,-685,0,0,0,0,0,0,0,0,0,-1,2022,1709,0,0
805,-685,0,0,0,0,0,0,0,0,0,-1,2029,1709,0,0
812,-685,0,0,0,0,0,0,0,0,0,-1,2036,1709,0,0
-700,-692,0,0,0,0,0,0,0,0,0,-1,524,1716,0,0
-693,-692,0,0,0,0,0,0,0,0,0,-1,531,1716,0,0
-686,-692,0,0,0,0,0,0,0,0,0,-1,538,1716,0,0
-679,-692,0,0,0,0,0,0,0,0,0,-1,545,1716,0,0
-672,-692,0,0,0,0,0,0,0,0,0,-1,552,1716,0,0
-665,-692,0,0,0,0,0,0,0,0,0,-1,559,1716,0,0
-658,-692,0,0,0,0,0,0,0,0,0,-1,566,1716,0,0
-651,-692,0,0,0,0,0,0,0,0,0,-1,573,1716,0,0
-644,-692,0,0,0,0,0,0,0,0,0,-1,580,1716,0,0
-637,-692,0,0,0,0,0,0,0,0,0,-1,587,1716,0,0
-630,-692,0,0,0,0,0,0,0,0,0,-1,594,1716,0,0
-623,-692,0,0,0,0,0,0,0,0,0,-1,601,1716,0,0
-616,-692,0,0,0,0,0,0,0,0,0,-1,608,1716,0,0
-609,-692,0,0,0,0,0,0,0,0,0,-1,615,1716,0,0
-602,-692,0,0,0,0,0,0,0,0,0,-1,622,1716,0,0
-595,-692,0,0,0,0,0,0,0,0,0,-1,629,1716,0,0
-588,-692,0,0,0,0,0,0,0,0,0,-1,636,1716,0,0
-581,-692,0,0,0,0,0,0,0,0,0,-1,643,1716,0,0
-574,-692,0,0,0,0,0,0,0,0,0,-1,650,1716,0,0
-567,-692,0,0,0,0,0,0,0,0,0,-1,657,1716,0,0
-560,-692,0,0,0,0,0,0,0,0,0,-1,664,1716,0,0
-553,-692,0,0,0,0,0,0,0,0,0,-1,671,1716,0,0
-546,-692,0,0,0,0,0,0,0,0,0,-1,678,1716,0,0
-539,-692,0,0,0,0,0,0,0,0,0,-1,685,1716,0,0
-532,-692,0,0,0,0,0,0,0,0,0,-1,692,1716,0,0
-525,-692,0,0,0,0,0,0,0,0,0,-1,699,1716,0,0
-518,-692,0,0,0,0,0,0,0,0,0,-1,706,1716,0,0
-511,-692,0,0,0,0,0,0,0,0,0,-1,713,1716,0,0
-504,-692,0,0,0,0,0,0,0,0,0,-1,720,1716,0,0
-497,-692,0,0,0,0,0,0,0,0,0,-1,727,1716,0,0
-490,-692,0,0,0,0,0,0,0,0,0,-1,734,1716,0,0
-483,-692,0,0,0,0,0,0,0,0,0,-1,741,1716,0,0
-476,-692,0,0,0,0,0,0,0,0,0,-1,748,1716,0,0
-469,-692,0,0,0,0,0,0,0,0,0,-1,755,1716,0,0
-462,-692,0,0,0,0,0,0,0,0,0,-1,762,1716,0,0
-455,-692,0,0,0,0,0,0,0,0,0,-1,769,1716,0,0
-448,-692,0,0,0,0,0,0,0,0,0,-1,776,1716,0,0
-441,-692,0,0,0,0,0,0,0,0,0,-1,783,1716,0,0
-434,-692,0,0,0,0,0,0,0,0,0,-1,790,1716,0,0
-427,-692,0,0,0,0,0,0,0,0,0,-1,797,1716,0,0
-420,-692,0,0,0,0,0,0,0,0,0,-1,804,1716,0,0
-413,-692,0,0,0,0,0,0,0,0,0,-1,811,1716,0,0
-406,-692,0,0,0,0,0,0,0,0,0,-1,818,1716,0,0
-399,-692,0,0,0,0,0,0,0,0,0,-1,825,1716,0,0
-392,-692,0,0,0,0,0,0,0,0,0,-1,832,1716,0,0
-385,-692,0,0,0,0,0,0,0,0,0,-1,839,1716,0,0
-378,-692,0,0,0,0,0,0,0,0,0,-1,846,1716,0,0
-371,-692,0,0,0,0,0,0,0,0,0,-1,853,1716,0,0
-364,-692,0,0,0,0,0,0,0,0,0,-1,860,1716,0,0
-357,-692,0,0,0,0,0,0,0,0,0,-1,867,1716,0,0
-350,-692,0,0,0,0,0,0,0,0,0,-1,874,1716,0,0
-343,-692,0,0,0,0,0,0,0,0,0,-1,881,1716,0,0
-336,-692,0,0,0,0,0,0,0,0,0,-1,888,1716,0,0
-329,-692,3.12396,3.50745,0,0,0,0,0,0,0,-1,895,1716,3.12398,-3.50748
-322,-692,3.67346,17.0139,0,0,0,0,0,0,0,-1,902,1716,3.67349,-17.0139
-315,-692,3.98718,15.2626,0,0,0,0,0,0,0,-1,909,1716,3.98716,-15.2626
-308,-692,4.28339,13.5061,0,0,0,0,0,0,0,-1,916,1716,4.2834,-13.5061
-301,-692,3.78101,15.3895,0,0,0,0,0,0,0,-1,923,1716,3.78098,-15.3895
-294,-692,5.86267,14.4792,0,0,0,0,0,0,0,-1,930,1716,5.86269,-14.4793
-287,-692,5.51062,14.213,0,0,0,0,0,0,0,-1,937,1716,5.51059,-14.213
-280,-692,5.4433,13.7449,0,0,0,0,0,0,0,-1,944,1716,5.44332,-13.7448
-273,-692,5.46936,13.7837,0,0,0,0,0,0,0,-1,951,1716,5.46939,-13.7836
-266,-692,4.66223,13.629,0,0,0,0,0,0,0,-1,958,1716,4.66222,-13.629
-259,-692,4.70569,13.8444,0,0,0,0,0,0,0,-1,965,1716,4.70571,-13.8444
-252,-692,4.55151,14.1436,0,0,0,0,0,0,0,-1,972,1716,4.55151,-14.1436
-245,-692,4.66779,14.3727,-0.0023592,0.0127445,0.00722979,0.0156474,-0.00526203,1.18899,0.0125586,0.0456013,979,1716,4.66777,-14.3727
-238,-692,4.68164,14.663,-0.0025772,0.00950544,0.00766558,0.0132242,-0.00629594,1.11912,0.0115041,0.0436177,986,1716,4.68164,-14.6629
-231,-692,4.61749,14.8364,-0.00243289,0.00833838,0.00711467,0.0118759,-0.00597046,1.10937,0.01049,0.0338255,993,1716,4.61747,-14.8365
-224,-692,4.53217,14.9827,-0.00205929,0.00663944,0.00625132,0.00990558,-0.00532544,1.08933,0.00892518,0.0170957,1000,1716,4.53217,-14.9827
-217,-692,4.51471,15.1307,-0.0017221,0.00470359,0.00506996,0.00749298,-0.0045115,1.06781,0.00700168,0.0124932,1007,1716,4.51468,-15.1308
-210,-692,4.53241,15.2966,-0.00147322,0.00291034,0.00401676,0.0052944,-0.00385728,1.03515,0.00530539,0.0134695,1014,1716,4.53239,-15.2967
-203,-692,4.5343,15.4692,-0.00121946,0.00147788,0.00304537,0.00345985,-0.00320143,0.993848,0.00384686,0.0153806,1021,1716,4.53428,-15.4693
-196,-692,4.52844,15.6318,-0.000973799,0.00057337,0.00225491,0.0021837,-0.00258413,0.950641,0.00275594,0.0166335,1028,1716,4.5284,-15.6318
-189,-692,4.49353,15.7625,-0.000723344,-0.000147599,0.00162232,0.0012122,-0.00208314,0.873206,0.00192458,0.0086112,1035,1716,4.49351,-15.7625
-182,-692,4.48267,15.9313,-0.000447057,-0.00050637,0.001112,0.000635681,-0.00158911,0.772067,0.00132322,0.0133338,1042,1716,4.48262,-15.9312
-175,-692,4.474,16.1106,-4.77427e-05,-0.00124797,0.000633188,0.000224533,-0.00152025,0.406104,0.00109604,0.0151816,1049,1716,4.47401,-16.1106
-168,-692,4.50403,16.238,0.000185638,-0.00143728,0.000205952,0.000211366,-0.00146301,0.124278,0.00105289,0.0117952,1056,1716,4.50398,-16.2381
-161,-692,4.52295,16.3917,0.000469919,-0.00126553,0.00026448,0.00050933,-0.00130494,0.147926,0.00108052,0.0139986,1063,1716,4.52295,-16.3917
-154,-692,4.51648,16.5581,0.000885009,-0.00115915,0.00030614,0.000929873,-0.00120401,0.145511,0.00123538,0.014859,1070,1716,4.51642,-16.5581
-147,-692,4.50195,16.6605,0.00130759,-0.000983454,0.000342385,0.00135767,-0.00103353,0.145219,0.00138478,0.0138906,1077,1716,4.50197,-16.6605
-140,-692,4.48706,16.7711,0.00178535,-0.000962328,0.000475545,0.00186533,-0.0010423,0.166617,0.00170099,0.0104957,1084,1716,4.48704,-16.7711
-133,-692,4.49658,16.8953,0.00223168,-0.00126734,0.000442912,0.00228688,-0.00132253,0.123977,0.00210854,0.00948431,1091,1716,4.49664,-16.8952
-126,-692,4.49976,17.0154,0.00264768,-0.00147737,0.000470812,0.00270074,-0.00153042,0.112212,0.00247381,0.0075638,1098,1716,4.49977,-17.0154
-119,-692,4.49866,17.1161,0.00308066,-0.0014776,0.000623293,0.00316435,-0.00156129,0.133476,0.00278018,0.0111493,1105,1716,4.49862,-17.1161
-112,-692,4.51282,17.2225,0.00343882,-0.001559,0.000731296,0.00354363,-0.00166381,0.142348,0.00307112,0.0110813,1112,1716,4.51283,-17.2225
-105,-692,4.5498,17.3287,0.00370028,-0.0015867,0.000841075,0.00383086,-0.00171728,0.15402,0.00327978,0.0153975,1119,1716,4.54975,-17.3287
-98,-692,4.5769,17.4396,0.00382553,-0.00142959,0.00102634,0.00401887,-0.00162292,0.186191,0.00335377,0.0173727,1126,1716,4.57693,-17.4396
-91,-692,4.55371,17.5227,0.00388561,-0.00100065,0.00125925,0.00419105,-0.00130609,0.237956,0.00331626,0.020033,1133,1716,4.55376,-17.5227
-84,-692,4.54761,17.6062,0.00405888,-0.000676194,0.00153713,0.0045141,-0.00113142,0.287925,0.00344897,0.0213966,1140,1716,4.54763,-17.6062
-77,-692,4.54565,17.7502,0.00421904,-0.000174068,0.00156009,0.00471668,-0.000671715,0.308784,0.00339061,0.0145537,1147,1716,4.54566,-17.7502
-70,-692,4.57971,17.8689,0.00431377,-0.000199676,0.00144788,0.0047383,-0.000624213,0.285218,0.00338617,0.0187822,1154,1716,4.57968,-17.8689
-63,-692,4.62036,17.9534,0.00523161,-0.0039753,0.0022794,0.00576503,-0.00450871,0.22988,0.00594631,0.0297995,1161,1716,4.62038,-17.9534
-56,-692,4.67749,18.0259,0,0,0,0,0,0,0,-1,1168,1716,4.67747,-18.0258
-49,-692,4.59851,18.0588,0,0,0,0,0,0,0,-1,1175,1716,4.59852,-18.0589
-42,-692,4.64868,18.2537,0,0,0,0,0,0,0,-1,1182,1716,4.64874,-18.2536
-35,-692,4.67102,18.3948,0,0,0,0,0,0,0,-1,1189,1716,4.67103,-18.3948
-28,-692,4.60352,18.356,0.0097536,-0.0125394,0.0104218,0.0138668,-0.0166526,0.375906,0.0176448,0.0421627,1196,1716,4.60357,-18.356
-21,-692,4.71619,18.2893,0.00992281,-0.012441,0.0115132,0.0147904,-0.0173087,0.399996,0.0185514,0.0274853,1203,1716,4.71624,-18.2893
-14,-692,4.7478,18.3098,0.00990334,-0.0129995,0.0121801,0.0151699,-0.018266,0.408113,0.0193318,0.0143755,1210,1716,4.7478,-18.3098
-7,-692,4.73669,18.4031,0.00957473,-0.011985,0.0130468,0.0157189,-0.0181292,0.440127,0.0195587,0.0133071,1217,1716,4.7367,-18.4031
0,-692,4.77454,18.463,0.00889214,-0.0103873,0.0137448,0.0160407,-0.0175359,0.479587,0.0193918,0.0170459,1224,1716,4.77458,-18.463
7,-692,4.80762,18.488,0.0079767,-0.00861862,0.0141773,0.0161061,-0.016748,0.520637,0.0189695,0.0210772,1231,1716,4.80761,-18.4881
14,-692,4.85669,18.549,0.00703047,-0.00675192,0.0143646,0.0160713,-0.0157928,0.561746,0.018397,0.0230057,1238,1716,4.85664,-18.5489
21,-692,4.92566,18.5275,0.00556518,-0.00572922,0.0150357,0.0159793,-0.0161433,0.605756,0.018546,0.024923,1245,1716,4.92568,-18.5275
28,-692,4.91455,18.5254,0.00345985,-0.00561873,0.0161002,0.0156484,-0.0178073,0.647995,0.0193291,0.0251652,1252,1716,4.91451,-18.5254
35,-692,4.94226,18.6031,0.00132839,-0.00572972,0.0171092,0.0152688,-0.0196701,0.683692,0.0202252,0.02366,1259,1716,4.94221,-18.6031
42,-692,4.97253,18.6686,-0.000667013,-0.00540562,0.0177407,0.0148619,-0.0209346,0.719015,0.020766,0.0216024,1266,1716,4.9725,-18.6685
49,-692,4.9884,18.6279,-0.00252644,-0.00545227,0.0187672,0.0148348,-0.0228135,0.746501,0.0218983,0.0257384,1273,1716,4.98842,-18.628
56,-692,4.91516,18.6295,-0.00475304,-0.00645305,0.0195563,0.0139717,-0.0251778,0.76368,0.0229096,0.0302005,1280,1716,4.91521,-18.6295
63,-692,5.00183,18.644,-0.00679833,-0.00765592,0.0203218,0.0130992,-0.0275535,0.77485,0.0239603,0.0287234,1287,1716,5.00179,-18.644
70,-692,5.13013,18.6281,-0.00856633,-0.00902777,0.0204618,0.011666,-0.0292601,0.779761,0.0243456,0.0246957,1294,1716,5.13015,-18.628
77,-692,5.15234,18.6791,-0.00983894,-0.0100655,0.0201239,0.010172,-0.0300764,0.782584,0.024166,0.0283391,1301,1716,5.15238,-18.6791
84,-692,5.1405,18.6805,-0.0105894,-0.0114645,0.0190275,0.00800556,-0.0300595,0.773902,0.0231738,0.036091,1308,1716,5.14055,-18.6805
91,-692,5.13623,18.6675,-0.0105611,-0.012292,0.0172084,0.0058036,-0.0286566,0.760273,0.0213041,0.0335043,1315,1716,5.1362,-18.6675
98,-692,5.09729,18.6741,-0.010209,-0.0129014,0.0146267,0.0031333,-0.0262437,0.739508,0.0186282,0.0265873,1322,1716,5.09726,-18.6741
105,-692,5.12646,18.6034,-0.00969052,-0.0132585,0.0120752,0.000731746,-0.0236808,0.712058,0.0160367,0.0325384,1329,1716,5.12651,-18.6034
112,-692,5.20679,18.5493,-0.00889884,-0.0133818,0.00946158,-0.00141686,-0.0208638,0.66909,0.0134618,0.0351455,1336,1716,5.20682,-18.5493
119,-692,5.13403,18.6139,-0.00792574,-0.0134965,0.00667542,-0.00347789,-0.0179443,0.587751,0.0109886,0.0298106,1343,1716,5.13406,-18.6139
126,-692,5.11768,18.6074,-0.00634181,-0.0130988,0.00347901,-0.0048708,-0.0145698,0.400026,0.00856448,0.028117,1350,1716,5.1177,-18.6075
133,-692,5.15881,18.5784,-0.00436102,-0.0125893,0.000584526,-0.0043197,-0.0126306,0.0705665,0.00741264,0.021898,1357,1716,5.15879,-18.5784
140,-692,5.16479,18.5881,-0.00265049,-0.012269,-0.00159422,-0.00239314,-0.0125264,-0.160045,0.00767853,0.0268823,1364,1716,5.16479,-18.5881
147,-692,5.1803,18.6018,-0.00136145,-0.0118405,-0.0025802,-0.000760588,-0.0124413,-0.228795,0.00805268,0.030525,1371,1716,5.18029,-18.6018
154,-692,5.18713,18.5781,-0.000350341,-0.0117214,-0.00362892,0.000709076,-0.0127808,-0.284044,0.00876646,0.0283358,1378,1716,5.1871,-18.5781
161,-692,5.40173,18.5112,0.00104535,-0.010536,-0.00432578,0.0024827,-0.0119734,-0.320797,0.00892566,0.0423833,1385,1716,5.40169,-18.5112
168,-692,5.56995,18.4583,0,0,0,0,0,0,0,-1,1392,1716,5.57,-18.4583
175,-692,5.33032,18.3936,0,0,0,0,0,0,0,-1,1399,1716,5.33034,-18.3935
182,-692,5.30591,18.3337,0,0,0,0,0,0,0,-1,1406,1716,5.30596,-18.3338
189,-692,5.31812,18.2991,0,0,0,0,0,0,0,-1,1413,1716,5.31815,-18.299
196,-692,5.34338,18.2284,0.00272058,-0.00032301,-0.000880346,0.00295687,-0.000559302,-0.262227,0.00218171,0.0279831,1420,1716,5.3434,-18.2284
203,-692,5.354,18.1678,0.00142967,-0.000243985,0.00168508,0.00247427,-0.00128859,0.554933,0.00220814,0.0180145,1427,1716,5.35401,-18.1678
210,-692,5.39771,18.1082,0.000821277,-0.000376581,0.00158724,0.00191883,-0.00147413,0.604988,0.00196453,0.0176517,1434,1716,5.39767,-18.1082
217,-692,5.36218,18.0077,0.000294334,-0.000609994,0.00132544,0.00124261,-0.00155827,0.621017,0.00162051,0.0173101,1441,1716,5.36214,-18.0077
224,-692,5.35022,17.9331,0.000322747,-0.000905925,0.00118473,0.00104295,-0.00162613,0.546211,0.0015532,0.0135852,1448,1716,5.35022,-17.9331
231,-692,5.37134,17.8547,0.000484771,-0.00130398,0.00101397,0.000942451,-0.00176166,0.423994,0.00158492,0.0115977,1455,1716,5.3714,-17.8547
238,-692,5.39734,17.7018,0.000722331,-0.00134364,0.000724142,0.000950868,-0.00157218,0.305704,0.00147133,0.0165272,1462,1716,5.39731,-17.7018
245,-692,5.3988,17.5966,0.000864999,-0.00149452,0.000512338,0.000971444,-0.00160097,0.204849,0.00149993,0.0193151,1469,1716,5.39877,-17.5965
252,-692,5.40906,17.5201,0.00103735,-0.00167237,0.000270355,0.00106406,-0.00169908,0.0984788,0.00160928,0.0183818,1476,1716,5.40906,-17.5202
259,-692,5.40198,17.4545,0.00121743,-0.00173146,8.1791e-05,0.0012197,-0.00173373,0.0277078,0.00171375,0.0104467,1483,1716,5.40203,-17.4545
266,-692,5.38,17.3618,0.00131679,-0.00136774,-7.44108e-05,0.00131885,-0.0013698,-0.02769,0.00155239,0.0104559,1490,1716,5.37997,-17.3618
273,-692,5.37634,17.2646,0.00133131,-0.000669427,-0.000196051,0.00135034,-0.000688457,-0.0967629,0.0011976,0.0140253,1497,1716,5.37635,-17.2646
280,-692,5.40576,17.1493,0.00116797,0.000261862,-0.000223895,0.00122027,0.000209558,-0.229495,0.000753439,0.0135959,1504,1716,5.40575,-17.1493
287,-692,5.4104,17.0294,0.000940283,0.00123649,-0.000173303,0.00131636,0.000860421,-1.13898,0.000771865,0.0111539,1511,1716,5.4104,-17.0294
294,-692,5.4115,16.9257,0.000768721,0.00237556,-0.000154312,0.00239024,0.000754036,-1.47592,0.00141099,0.0101909,1518,1716,5.41147,-16.9257
301,-692,5.40405,16.8114,0.000599493,0.00339009,-0.000161587,0.00339942,0.000590167,-1.51315,0.00209742,0.0130889,1525,1716,5.40408,-16.8114
308,-692,5.38416,16.6741,-1.21462e-05,0.00416368,-0.000194266,0.0041727,-2.11645e-05,-1.52441,0.00278888,0.016324,1532,1716,5.38421,-16.6741
315,-692,5.39246,16.5181,-0.00059804,0.00420455,-9.41681e-05,0.0042064,-0.000599886,-1.5512,0.00302413,0.0157632,1539,1716,5.39249,-16.518
322,-692,5.37756,16.3722,-0.000615645,0.00452626,-0.000485692,0.00457173,-0.00066112,-1.47744,0.00329041,0.0204274,1546,1716,5.37753,-16.3722
329,-692,5.36865,16.2198,-0.0010447,0.00458132,-0.000688581,0.00466437,-0.00112775,-1.45076,0.00354579,0.0167703,1553,1716,5.36866,-16.2198
336,-692,5.37292,16.1,-0.00144827,0.00404277,-0.000909147,0.00418938,-0.00159489,-1.41091,0.00344971,0.0115436,1560,1716,5.37297,-16.1
343,-692,5.3927,15.9708,-0.00174717,0.00367019,-0.00129413,0.00396346,-0.00204044,-1.34794,0.00352512,0.0126758,1567,1716,5.39268,-15.9709
350,-692,5.41724,15.8229,-0.00200223,0.00308229,-0.00175824,0.00363107,-0.002551,-1.26826,0.00358733,0.0124637,1574,1716,5.41728,-15.8228
357,-692,5.39539,15.6781,-0.00209518,0.00264054,-0.00230298,0.00357578,-0.00303042,-1.18504,0.00381842,0.0154166,1581,1716,5.39534,-15.6781
364,-692,5.30859,15.541,-0.00204008,0.00175744,-0.00296017,0.00337548,-0.00365813,-1.07056,0.00406195,0.0226283,1588,1716,5.30857,-15.5411
371,-692,5.31543,15.3702,-0.00188223,0.00129778,-0.00375869,0.00378894,-0.00437339,-0.985495,0.00471654,0.0348069,1595,1716,5.31538,-15.3702
378,-692,5.2052,15.1304,-0.00148059,0.0014578,-0.00440296,0.00463022,-0.004653,-0.946431,0.00535968,0.042434,1602,1716,5.20515,-15.1304
385,-692,5.01501,14.7164,-0.000372715,0.00252163,-0.00563304,0.00689042,-0.00474151,-0.911133,0.00675379,0.0456751,1609,1716,5.01503,-14.7165
392,-692,5.19592,14.4023,0,0,0,0,0,0,0,-1,1616,1716,5.19594,-14.4024
399,-692,5.2627,10.4279,0,0,0,0,0,0,0,-1,1623,1716,5.26267,-10.4278
406,-692,4.73633,10.6808,0,0,0,0,0,0,0,-1,1630,1716,4.73637,-10.6808
413,-692,4.25085,10.5685,0,0,0,0,0,0,0,-1,1637,1716,4.2508,-10.5685
420,-692,5.48901,10.4845,0,0,0,0,0,0,0,-1,1644,1716,5.48906,-10.4845
427,-692,3.79578,8.60339,0,0,0,0,0,0,0,-1,1651,1716,3.79577,-8.6034
434,-692,4.78516,8.64636,0,0,0,0,0,0,0,-1,1658,1716,4.78512,-8.64634
441,-692,5.8208,8.74036,0,0,0,0,0,0,0,-1,1665,1716,5.82084,-8.7404
448,-692,6.73792,8.51013,0,0,0,0,0,0,0,-1,1672,1716,6.73793,-8.5101
455,-692,0,0,0,0,0,0,0,0,0,-1,1679,1716,0,0
462,-692,0,0,0,0,0,0,0,0,0,-1,1686,1716,0,0
469,-692,0,0,0,0,0,0,0,0,0,-1,1693,1716,0,0
476,-692,0,0,0,0,0,0,0,0,0,-1,1700,1716,0,0
483,-692,0,0,0,0,0,0,0,0,0,-1,1707,1716,0,0
490,-692,0,0,0,0,0,0,0,0,0,-1,1714,1716,0,0
497,-692,0,0,0,0,0,0,0,0,0,-1,1721,1716,0,0
504,-692,0,0,0,0,0,0,0,0,0,-1,1728,1716,0,0
511,-692,0,0,0,0,0,0,0,0,0,-1,1735,1716,0,0
518,-692,0,0,0,0,0,0,0,0,0,-1,1742,1716,0,0
525,-692,0,0,0,0,0,0,0,0,0,-1,1749,1716,0,0
532,-692,0,0,0,0,0,0,0,0,0,-1,1756,1716,0,0
539,-692,0,0,0,0,0,0,0,0,0,-1,1763,1716,0,0
546,-692,0,0,0,0,0,0,0,0,0,-1,1770,1716,0,0
553,-692,0,0,0,0,0,0,0,0,0,-1,1777,1716,0,0
560,-692,0,0,0,0,0,0,0,0,0,-1,1784,1716,0,0
567,-692,0,0,0,0,0,0,0,0,0,-1,1791,1716,0,0
574,-692,0,0,0,0,0,0,0,0,0,-1,1798,1716,0,0
581,-692,0,0,0,0,0,0,0,0,0,-1,1805,1716,0,0
588,-692,0,0,0,0,0,0,0,0,0,-1,1812,1716,0,0
595,-692,0,0,0,0,0,0,0,0,0,-1,1819,1716,0,0
602,-692,0,0,0,0,0,0,0,0,0,-1,1826,1716,0,0
609,-692,0,0,0,0,0,0,0,0,0,-1,1833,1716,0,0
616,-692,0,0,0,0,0,0,0,0,0,-1,1840,1716,0,0
623,-692,0,0,0,0,0,0,0,0,0,-1,1847,1716,0,0
630,-692,0,0,0,0,0,0,0,0,0,-1,1854,1716,0,0
637,-692,0,0,0,0,0,0,0,0,0,-1,1861,1716,0,0
644,-692,0,0,0,0,0,0,0,0,0,-1,1868,1716,0,0
651,-692,0,0,0,0,0,0,0,0,0,-1,1875,1716,0,0
658,-692,0,0,0,0,0,0,0,0,0,-1,1882,1716,0,0
665,-692,0,0,0,0,0,0,0,0,0,-1,1889,1716,0,0
672,-692,0,0,0,0,0,0,0,0,0,-1,1896,1716,0,0
679,-692,0,0,0,0,0,0,0,0,0,-1,1903,1716,0,0
686,-692,0,0,0,0,0,0,0,0,0,-1,1910,1716,0,0
693,-692,0,0,0,0,0,0,0,0,0,-1,1917,1716,0,0
700,-692,0,0,0,0,0,0,0,0,0,-1,1924,1716,0,0
707,-692,0,0,0,0,0,0,0,0,0,-1,1931,1716,0,0
714,-692,0,0,0,0,0,0,0,0,0,-1,1938,1716,0,0
721,-692,0,0,0,0,0,0,0,0,0,-1,1945,1716,0,0
728,-692,0,0,0,0,0,0,0,0,0,-1,1952,1716,0,0
735,-692,0,0,0,0,0,0,0,0,0,-1,1959,1716,0,0
742,-692,0,0,0,0,0,0,0,0,0,-1,1966,1716,0,0
749,-692,0,0,0,0,0,0,0,0,0,-1,1973,1716,0,0
756,-692,0,0,0,0,0,0,0,0,0,-1,1980,1716,0,0
763,-692,0,0,0,0,0,0,0,0,0,-1,1987,1716,0,0
770,-692,0,0,0,0,0,0,0,0,0,-1,1994,1716,0,0
777,-692,0,0,0,0,0,0,0,0,0,-1,2001,1716,0,0
784,-692,0,0,0,0,0,0,0,0,0,-1,2008,1716,0,0
791,-692,0,0,0,0,0,0,0,0,0,-1,2015,1716,0,0
798,-692,0,0,0,0,0,0,0,0,0,-1,2022,1716,0,0
805,-692,0,0,0,0,0,0,0,0,0,-1,2029,1716,0,0
812,-692,0,0,0,0,0,0,0,0,0,-1,2036,1716,0,0
-700,-699,0,0,0,0,0,0,0,0,0,-1,524,1723,0,0
-693,-699,0,0,0,0,0,0,0,0,0,-1,531,1723,0,0
-686,-699,0,0,0,0,0,0,0,0,0,-1,538,1723,0,0
-679,-699,0,0,0,0,0,0,0,0,0,-1,545,1723,0,0
-672,-699,0,0,0,0,0,0,0,0,0,-1,552,1723,0,0
-665,-699,0,0,0,0,0,0,0,0,0,-1,559,1723,0,0
-658,-699,0,0,0,0,0,0,0,0,0,-1,566,1723,0,0
-651,-699,0,0,0,0,0,0,0,0,0,-1,573,1723,0,0
-644,-699,0,0,0,0,0,0,0,0,0,-1,580,1723,0,0
-637,-699,0,0,0,0,0,0,0,0,0,-1,587,1723,0,0
-630,-699,0,0,0,0,0,0,0,0,0,-1,594,1723,0,0
-623,-699,0,0,0,0,0,0,0,0,0,-1,601,1723,0,0
-616,-699,0,0,0,0,0,0,0,0,0,-1,608,1723,0,0
-609,-699,0,0,0,0,0,0,0,0,0,-1,615,1723,0,0
-602,-699,0,0,0,0,0,0,0,0,0,-1,622,1723,0,0
-595,-699,0,0,0,0,0,0,0,0,0,-1,629,1723,0,0
-588,-699,0,0,0,0,0,0,0,0,0,-1,636,1723,0,0
-581,-699,0,0,0,0,0,0,0,0,0,-1,643,1723,0,0
-574,-699,0,0,0,0,0,0,0,0,0,-1,650,1723,0,0
-567,-699,0,0,0,0,0,0,0,0,0,-1,657,1723,0,0
-560,-699,0,0,0,0,0,0,0,0,0,-1,664,1723,0,0
-553,-699,0,0,0,0,0,0,0,0,0,-1,671,1723,0,0
-546,-699,0,0,0,0,0,0,0,0,0,-1,678,1723,0,0
-539,-699,0,0,0,0,0,0,0,0,0,-1,685,1723,0,0
-532,-699,0,0,0,0,0,0,0,0,0,-1,692,1723,0,0
-525,-699,0,0,0,0,0,0,0,0,0,-1,699,1723,0,0
-518,-699,0,0,0,0,0,0,0,0,0,-1,706,1723,0,0
-511,-699,0,0,0,0,0,0,0,0,0,-1,713,1723,0,0
-504,-699,0,0,0,0,0,0,0,0,0,-1,720,1723,0,0
-497,-699,0,0,0,0,0,0,0,0,0,-1,727,1723,0,0
-490,-699,0,0,0,0,0,0,0,0,0,-1,734,1723,0,0
-483,-699,0,0,0,0,0,0,0,0,0,-1,741,1723,0,0
-476,-699,0,0,0,0,0,0,0,0,0,-1,748,1723,0,0
-469,-699,0,0,0,0,0,0,0,0,0,-1,755,1723,0,0
-462,-699,0,0,0,0,0,0,0,0,0,-1,762,1723,0,0
-455,-699,0,0,0,0,0,0,0,0,0,-1,769,1723,0,0
-448,-699,0,0,0,0,0,0,0,0,0,-1,776,1723,0,0
-441,-699,0,0,0,0,0,0,0,0,0,-1,783,1723,0,0
-434,-699,0,0,0,0,0,0,0,0,0,-1,790,1723,0,0
-427,-699,0,0,0,0,0,0,0,0,0,-1,797,1723,0,0
-420,-699,0,0,0,0,0,0,0,0,0,-1,804,1723,0,0
-413,-699,0,0,0,0,0,0,0,0,0,-1,811,1723,0,0
-406,-699,0,0,0,0,0,0,0,0,0,-1,818,1723,0,0
-399,-699,0,0,0,0,0,0,0,0,0,-1,825,1723,0,0
-392,-699,0,0,0,0,0,0,0,0,0,-1,832,1723,0,0
-385,-699,0,0,0,0,0,0,0,0,0,-1,839,1723,0,0
-378,-699,0,0,0,0,0,0,0,0,0,-1,846,1723,0,0
-371,-699,0,0,0,0,0,0,0,0,0,-1,853,1723,0,0
-364,-699,0,0,0,0,0,0,0,0,0,-1,860,1723,0,0
-357,-699,0,0,0,0,0,0,0,0,0,-1,867,1723,0,0
-350,-699,0,0,0,0,0,0,0,0,0,-1,874,1723,0,0
-343,-699,0,0,0,0,0,0,0,0,0,-1,881,1723,0,0
-336,-699,0,0,0,0,0,0,0,0,0,-1,888,1723,0,0
-329,-699,0,0,0,0,0,0,0,0,0,-1,895,1723,0,0
-322,-699,0,0,0,0,0,0,0,0,0,-1,902,1723,0,0
-315,-699,4.27734,16.1066,0,0,0,0,0,0,0,-1,909,1723,4.27737,-16.1066
-308,-699,4.55981,14.3354,0,0,0,0,0,0,0,-1,916,1723,4.55981,-14.3355
-301,-699,4.72729,12.8752,0,0,0,0,0,0,0,-1,923,1723,4.72732,-12.8752
-294,-699,6.34631,15.7372,0,0,0,0,0,0,0,-1,930,1723,6.34632,-15.7372
-287,-699,5.89685,14.8618,0,0,0,0,0,0,0,-1,937,1723,5.89686,-14.8618
-280,-699,5.63226,14.031,0,0,0,0,0,0,0,-1,944,1723,5.63224,-14.031
-273,-699,6.67828,13.9175,0,0,0,0,0,0,0,-1,951,1723,6.67827,-13.9174
-266,-699,7.21252,14.2368,0,0,0,0,0,0,0,-1,958,1723,7.21251,-14.2368
-259,-699,5.67737,10.8545,0,0,0,0,0,0,0,-1,965,1723,5.67736,-10.8545
-252,-699,5.03058,13.7029,0,0,0,0,0,0,0,-1,972,1723,5.03059,-13.7029
-245,-699,4.89056,14.3829,0,0,0,0,0,0,0,-1,979,1723,4.89059,-14.3829
-238,-699,4.88977,14.7665,0,0,0,0,0,0,0,-1,986,1723,4.88975,-14.7665
-231,-699,4.83887,14.8159,-0.00317174,0.0112925,0.00978923,0.0162313,-0.0081106,1.10354,0.0143121,0.04503,993,1723,4.83884,-14.816
-224,-699,4.51532,14.7617,-0.00272401,0.00862099,0.0082835,0.0129881,-0.00709112,1.08562,0.0117582,0.0355222,1000,1723,4.51529,-14.7618
-217,-699,4.62054,15.0839,-0.00234167,0.00580362,0.00647825,0.00938305,-0.00592109,1.06601,0.00891088,0.0250151,1007,1723,4.62056,-15.0838
-210,-699,4.70996,15.2661,-0.00206282,0.00330776,0.00491376,0.0062221,-0.00497716,1.03547,0.0064792,0.0179666,1014,1723,4.70994,-15.2661
-203,-699,4.68762,15.4604,-0.00180006,0.00141941,0.00353926,0.00369781,-0.00407846,0.998827,0.00449142,0.0213138,1021,1723,4.68763,-15.4604
-196,-699,4.66968,15.5946,-0.00154963,0.000471661,0.0025241,0.00217993,-0.0032579,0.975823,0.00316002,0.0173546,1028,1723,4.66968,-15.5946
-189,-699,4.65759,15.7675,-0.00126958,-0.000253154,0.00180246,0.00111137,-0.0026341,0.922809,0.00222122,0.00853627,1035,1723,4.65756,-15.7675
-182,-699,4.64526,15.9316,-0.00100809,-0.000471597,0.00126026,0.00054865,-0.00202834,0.890259,0.00156745,0.0113391,1042,1723,4.64526,-15.9317
-175,-699,4.65295,16.1058,-0.000662813,-0.00123344,0.000769613,-0.000127329,-0.00176892,0.60789,0.00113921,0.0145055,1049,1723,4.65292,-16.1059
-168,-699,4.66931,16.2307,-0.000461416,-0.00120212,0.000333256,-0.000333551,-0.00132998,0.366363,0.000799026,0.0157187,1056,1723,4.66932,-16.2307
-161,-699,4.66516,16.37,-0.000178939,-0.000727703,0.000513453,0.000128847,-0.00103549,0.54001,0.000737039,0.013209,1063,1723,4.66512,-16.3701
-154,-699,4.65186,16.5369,0.000233547,-0.000430314,0.000643005,0.000625241,-0.000822009,0.54713,0.000838141,0.0126127,1070,1723,4.6519,-16.5368
-147,-699,4.6344,16.6471,0.000617911,-3.11659e-05,0.000735749,0.00109752,-0.000510774,0.577684,0.000948923,0.0142005,1077,1723,4.63439,-16.6471
-140,-699,4.61072,16.7606,0.00109113,0.000161966,0.000983276,0.00171406,-0.000460956,0.564701,0.00132339,0.0098602,1084,1723,4.61073,-16.7607
-133,-699,4.62781,16.8959,0.00147729,-0.000110608,0.00089325,0.00187844,-0.000511753,0.422093,0.00145323,0.00882551,1091,1723,4.62785,-16.8959
-126,-699,4.64233,17.0128,0.00179505,-0.000339766,0.000838467,0.00208499,-0.000629703,0.332923,0.00164068,0.0106945,1098,1723,4.64227,-17.0128
-119,-699,4.64197,17.1418,0.00211069,-0.000418406,0.000889469,0.00239218,-0.000699897,0.306498,0.00187221,0.0154628,1105,1723,4.64198,-17.1418
-112,-699,4.62793,17.2386,0.00237017,-0.000556366,0.000907805,0.00262889,-0.000815092,0.277641,0.00207827,0.0110325,1112,1723,4.62798,-17.2387
-105,-699,4.63953,17.3474,0.00253344,-0.00066165,0.000886976,0.00276316,-0.000891364,0.253418,0.00220026,0.0117514,1119,1723,4.63952,-17.3474
-98,-699,4.66956,17.4519,0.00256193,-0.000675791,0.000926155,0.00280813,-0.000921996,0.259827,0.00224349,0.0147236,1126,1723,4.66953,-17.4519
-91,-699,4.67493,17.5554,0.00253286,-0.000485895,0.0010167,0.00284334,-0.000796381,0.296391,0.00220939,0.02066,1133,1723,4.67493,-17.5555
-84,-699,4.66382,17.67,0.00257909,-0.000264823,0.00115068,0.00298635,-0.000672082,0.34017,0.00224866,0.0240058,1140,1723,4.66381,-17.6701
-77,-699,4.6532,17.7294,0.00268576,6.77674e-05,0.00113122,0.00310684,-0.000353305,0.356338,0.00219848,0.0172804,1147,1723,4.65318,-17.7294
-70,-699,4.64404,17.8202,0.00281145,8.41122e-05,0.00103041,0.00315698,-0.000261411,0.323543,0.00219698,0.0176363,1154,1723,4.64407,-17.8202
-63,-699,4.66089,17.9154,0.00346532,-0.00203788,0.00150816,0.00385153,-0.00242409,0.250692,0.00365434,0.0139406,1161,1723,4.66089,-17.9154
-56,-699,4.66956,17.9995,0.004155,-0.00381258,0.002148,0.00469718,-0.00435477,0.247251,0.00522739,0.0103157,1168,1723,4.66955,-17.9995
-49,-699,4.68518,18.0764,0.00501745,-0.00563915,0.003471,0.00604829,-0.00666999,0.288689,0.00734582,0.0220486,1175,1723,4.68523,-18.0765
-42,-699,4.71472,18.1846,0.00579799,-0.00688347,0.00489257,0.00746614,-0.00855162,0.328595,0.00925493,0.0252209,1182,1723,4.71467,-18.1845
-35,-699,4.71021,18.257,0.00640023,-0.00802935,0.00583816,0.00846646,-0.0100956,0.340161,0.0107306,0.0235468,1189,1723,4.7102,-18.257
-28,-699,4.74609,18.3066,0.00679355,-0.00922292,0.00644165,0.0090628,-0.0114922,0.338702,0.011895,0.0178933,1196,1723,4.74607,-18.3066
-21,-699,4.75659,18.3186,0.00695167,-0.00984753,0.00715221,0.00958418,-0.01248,0.35268,0.0127753,0.0122353,1203,1723,4.75658,-18.3186
-14,-699,4.75891,18.3688,0.00697953,-0.0107054,0.00766296,0.00983792,-0.0135638,0.357029,0.013568,0.0109855,1210,1723,4.75893,-18.3688
-7,-699,4.76233,18.4504,0.0067877,-0.0103961,0.00834517,0.0101734,-0.0137818,0.385416,0.0138827,0.00803073,1217,1723,4.76234,-18.4504
0,-699,4.78577,18.4966,0.00632451,-0.00961918,0.00888776,0.0102918,-0.0135865,0.419836,0.0138298,0.009436,1224,1723,4.78575,-18.4966
7,-699,4.81885,18.5172,0.00574149,-0.00867371,0.00917192,0.010199,-0.0131312,0.452377,0.0135051,0.0147093,1231,1723,4.81886,-18.5172
14,-699,4.84363,18.5819,0.00512587,-0.00761638,0.0093134,0.0100388,-0.0125293,0.485417,0.0130562,0.0163,1238,1723,4.84364,-18.5819
21,-699,4.86218,18.6139,0.00407703,-0.0069665,0.00987358,0.00986798,-0.0127575,0.530441,0.0130983,0.016091,1245,1723,4.86216,-18.6139
28,-699,4.8772,18.6195,0.00255093,-0.00692889,0.01078,0.00958702,-0.013965,0.578272,0.0136758,0.0159373,1252,1723,4.87725,-18.6195
35,-699,4.89563,18.6521,0.000953801,-0.00683944,0.0116361,0.0093284,-0.015214,0.62383,0.0143048,0.0139064,1259,1723,4.89564,-18.6521
42,-699,4.9248,18.6869,-0.000526488,-0.00644798,0.012171,0.00903869,-0.0160132,0.666084,0.0146493,0.0120498,1266,1723,4.9248,-18.6869
49,-699,4.96533,18.7019,-0.00197361,-0.00673418,0.0127866,0.00865237,-0.0173602,0.693374,0.0152963,0.0141607,1273,1723,4.96535,-18.7019
56,-699,5.01233,18.7203,-0.00371677,-0.00751098,0.0132427,0.00776406,-0.0189918,0.714254,0.0158944,0.0146627,1280,1723,5.01227,-18.7204
63,-699,5.01807,18.7274,-0.00528127,-0.00847483,0.0137059,0.00692059,-0.0206767,0.727408,0.01658,0.0125189,1287,1723,5.01804,-18.7274
70,-699,5.01416,18.7383,-0.00663548,-0.00948142,0.0137255,0.0057406,-0.0218575,0.733746,0.0168151,0.0107944,1294,1723,5.01414,-18.7383
77,-699,5.01965,18.7502,-0.00760436,-0.010224,0.013378,0.0045278,-0.0223562,0.736599,0.0166203,0.0109014,1301,1723,5.01966,-18.7502
84,-699,5.02148,18.7379,-0.00815891,-0.0112173,0.0124398,0.00284537,-0.0222216,0.724241,0.0158482,0.0137555,1308,1723,5.0215,-18.7379
91,-699,5.0498,18.7356,-0.00823222,-0.0118748,0.0110896,0.00118462,-0.0212917,0.704007,0.0146053,0.0133391,1315,1723,5.04976,-18.7356
98,-699,5.07556,18.7412,-0.00806269,-0.01238,0.00922398,-0.000748137,-0.0196945,0.670454,0.0128875,0.0114696,1322,1723,5.07558,-18.7412
105,-699,5.07153,18.7268,-0.00769006,-0.012577,0.00740422,-0.00233653,-0.0179305,0.626021,0.0112559,0.0156271,1329,1723,5.07157,-18.7267
112,-699,5.08411,18.7102,-0.00708706,-0.0124721,0.0056696,-0.00350311,-0.0160561,0.563712,0.00974845,0.0212231,1336,1723,5.0841,-18.7102
119,-699,5.06396,18.6904,-0.00633521,-0.012249,0.00384984,-0.00443778,-0.0141464,0.457918,0.00835429,0.0151361,1343,1723,5.06392,-18.6905
126,-699,5.09644,18.6552,-0.0050844,-0.0116584,0.00178741,-0.00462985,-0.012113,0.249027,0.00705781,0.0163842,1350,1723,5.09642,-18.6551
133,-699,5.14783,18.6304,-0.00359381,-0.0108854,-3.27083e-05,-0.00359367,-0.0108856,-0.00448563,0.00640454,0.0145639,1357,1723,5.14786,-18.6303
140,-699,5.20789,18.6182,-0.00225129,-0.0103141,-0.00123773,-0.00206556,-0.0104998,-0.148944,0.00642304,0.0155589,1364,1723,5.20785,-18.6181
147,-699,5.18652,18.6129,-0.0012802,-0.00960272,-0.00163838,-0.000969279,-0.00991364,-0.187541,0.00631086,0.0137968,1371,1723,5.18651,-18.6129
154,-699,5.16309,18.5726,-0.000457102,-0.00863297,-0.00183756,-6.30934e-05,-0.00902698,-0.211222,0.00599707,0.014183,1378,1723,5.16312,-18.5726
161,-699,5.18994,18.5094,0.00059536,-0.00746334,-0.00198936,0.0010597,-0.00792768,-0.229305,0.00567145,0.0100853,1385,1723,5.18998,-18.5094
168,-699,5.20825,18.465,0.00107631,-0.00628154,-0.0020081,0.00158868,-0.00679391,-0.249821,0.00514131,0.0112982,1392,1723,5.20823,-18.465
175,-699,5.22815,18.413,0.00182958,-0.00505139,-0.00167003,0.00221348,-0.00543529,-0.225951,0.00454473,0.0134096,1399,1723,5.22817,-18.4129
182,-699,5.23999,18.3542,0.00232865,-0.00376157,-0.00121456,0.00256193,-0.00399486,-0.18976,0.00381558,0.0140763,1406,1723,5.23993,-18.3543
189,-699,5.2356,18.2897,0.00227882,-0.00223123,-0.000759376,0.00240325,-0.00235566,-0.16241,0.0027476,0.016064,1413,1723,5.23564,-18.2897
196,-699,5.24597,18.2247,0.00189392,-6.62182e-05,-4.48328e-05,0.00189495,-6.72432e-05,-0.0228563,0.0012863,0.0150578,1420,1723,5.24596,-18.2247
203,-699,5.2605,18.1765,0.00125619,0.000103687,0.00111502,0.00193507,-0.000575186,0.546896,0.00151853,0.0123829,1427,1723,5.26054,-18.1765
210,-699,5.27844,18.106,0.000847761,-2.99392e-06,0.00100987,0.00151819,-0.000673422,0.586066,0.00129628,0.0128526,1434,1723,5.27844,-18.1059
217,-699,5.26599,18.0283,0.000455977,-0.000180672,0.000774648,0.000975154,-0.00069985,0.590452,0.000971409,0.013394,1441,1723,5.26601,-18.0284
224,-699,5.26477,17.9413,0.000429604,-0.00042077,0.000610179,0.000748126,-0.000739292,0.481103,0.000858766,0.0147264,1448,1723,5.26482,-17.9413
231,-699,5.29773,17.8539,0.000472149,-0.000712233,0.000422745,0.000607559,-0.000847643,0.309986,0.000843964,0.0117736,1455,1723,5.29772,-17.8539
238,-699,5.28552,17.7458,0.000585016,-0.000811703,0.000186796,0.000609566,-0.000836253,0.13068,0.000838157,0.0105234,1462,1723,5.28554,-17.7458
245,-699,5.27856,17.6476,0.000672949,-0.000926298,-7.2865e-06,0.000672982,-0.000926331,-0.00455608,0.000927218,0.0123119,1469,1723,5.27853,-17.6476
252,-699,5.27612,17.5659,0.000737259,-0.001008,-0.000214191,0.000763162,-0.00103391,-0.120348,0.00104146,0.0110181,1476,1723,5.27613,-17.5659
259,-699,5.27502,17.4773,0.000797922,-0.000600918,-0.000353768,0.0008823,-0.000685297,-0.234139,0.000907432,0.0111057,1483,1723,5.27508,-17.4773
266,-699,5.26892,17.375,0.000812334,0.000194652,-0.000399003,0.00100806,-1.07219e-06,-0.456046,0.000672397,0.0129978,1490,1723,5.26887,-17.375
273,-699,5.271,17.2648,0.000760924,0.00127518,-0.000478148,0.00156095,0.000475151,-1.03209,0.000923915,0.0124131,1497,1723,5.27096,-17.2648
280,-699,5.29578,17.1427,0.000572831,0.00248792,-0.00040805,0.00257124,0.000489512,-1.36938,0.00157653,0.0125962,1504,1723,5.29583,-17.1427
287,-699,5.29993,17.0099,0.000344229,0.00369017,-0.000245608,0.00370811,0.000326296,-1.49791,0.0023708,0.010656,1511,1723,5.29988,-17.0099
294,-699,5.29578,16.8977,0.000162713,0.0051313,-0.000145167,0.00513554,0.000158475,-1.54161,0.00337211,0.0109233,1518,1723,5.29581,-16.8977
301,-699,5.2937,16.8021,6.14401e-06,0.00640316,-6.84377e-05,0.00640389,5.41192e-06,-1.5601,0.00426746,0.012504,1525,1723,5.29376,-16.8021
308,-699,5.28491,16.6703,-0.000720048,0.00733989,-4.23441e-05,0.00734012,-0.00072027,-1.56554,0.00515032,0.0168507,1532,1723,5.28491,-16.6703
315,-699,5.29639,16.5142,-0.0014027,0.00733182,0.000116623,0.00733338,-0.00140426,1.55745,0.00541801,0.0196697,1539,1723,5.2964,-16.5141
322,-699,5.29834,16.3945,-0.00130557,0.00762852,-0.000383485,0.00764495,-0.001322,-1.52798,0.00558966,0.0207762,1546,1723,5.29832,-16.3946
329,-699,5.27844,16.2426,-0.0017366,0.00753087,-0.000639818,0.00757484,-0.00178057,-1.50219,0.00573628,0.0151767,1553,1723,5.27845,-16.2425
336,-699,5.27551,16.1017,-0.00211738,0.00658611,-0.00096115,0.00669099,-0.00222226,-1.46211,0.00535732,0.0120797,1560,1723,5.27554,-16.1017
343,-699,5.29578,15.9734,-0.0023833,0.00586524,-0.0015375,0.00614251,-0.00266057,-1.39238,0.0052133,0.0160641,1567,1723,5.29582,-15.9734
350,-699,5.32996,15.8528,-0.00261931,0.00485225,-0.00222456,0.00546442,-0.00323149,-1.30225,0.00507546,0.0265986,1574,1723,5.32993,-15.8527
357,-699,5.22339,15.7964,-0.00266674,0.00401772,-0.00303277,0.0051886,-0.00383762,-1.20235,0.00523072,0.0361605,1581,1723,5.22344,-15.7964
364,-699,4.7749,15.8854,-0.00246768,0.00233754,-0.00403723,0.00463299,-0.00476312,-1.05381,0.00542502,0.0375791,1588,1723,4.77496,-15.8854
371,-699,5.02441,15.3647,-0.00213734,0.00141504,-0.00527377,0.0052037,-0.00592599,-0.94783,0.00643024,0.0468244,1595,1723,5.02439,-15.3647
378,-699,4.94055,14.9841,-0.0016113,0.0014469,-0.00611723,0.00622325,-0.00638765,-0.907871,0.00728111,0.0487272,1602,1723,4.94058,-14.9841
385,-699,4.922,14.8971,-0.000268996,0.00261712,-0.0076314,0.0089407,-0.00659257,-0.878842,0.00900223,0.0479012,1609,1723,4.922,-14.8971
392,-699,4.89722,14.6389,0,0,0,0,0,0,0,-1,1616,1723,4.8972,-14.639
399,-699,3.91516,9.81726,0,0,0,0,0,0,0,-1,1623,1723,3.9152,-9.81721
406,-699,5.50757,21.6672,0,0,0,0,0,0,0,-1,1630,1723,5.50755,-21.6672
413,-699,4.92773,3.5918,0,0,0,0,0,0,0,-1,1637,1723,4.92777,-3.59182
420,-699,2.15076,7.65527,0,0,0,0,0,0,0,-1,1644,1723,2.15079,-7.65522
427,-699,3.36328,8.2428,0,0,0,0,0,0,0,-1,1651,1723,3.36332,-8.24283
434,-699,4.66455,8.90222,0,0,0,0,0,0,0,-1,1658,1723,4.66456,-8.90223
441,-699,0,0,0,0,0,0,0,0,0,-1,1665,1723,0,0
448,-699,0,0,0,0,0,0,0,0,0,-1,1672,1723,0,0
455,-699,0,0,0,0,0,0,0,0,0,-1,1679,1723,0,0
462,-699,0,0,0,0,0,0,0,0,0,-1,1686,1723,0,0
469,-699,0,0,0,0,0,0,0,0,0,-1,1693,1723,0,0
476,-699,0,0,0,0,0,0,0,0,0,-1,1700,1723,0,0
483,-699,0,0,0,0,0,0,0,0,0,-1,1707,1723,0,0
490,-699,0,0,0,0,0,0,0,0,0,-1,1714,1723,0,0
497,-699,0,0,0,0,0,0,0,0,0,-1,1721,1723,0,0
504,-699,0,0,0,0,0,0,0,0,0,-1,1728,1723,0,0
511,-699,0,0,0,0,0,0,0,0,0,-1,1735,1723,0,0
518,-699,0,0,0,0,0,0,0,0,0,-1,1742,1723,0,0
525,-699,0,0,0,0,0,0,0,0,0,-1,1749,1723,0,0
532,-699,0,0,0,0,0,0,0,0,0,-1,1756,1723,0,0
539,-699,0,0,0,0,0,0,0,0,0,-1,1763,1723,0,0
546,-699,0,0,0,0,0,0,0,0,0,-1,1770,1723,0,0
553,-699,0,0,0,0,0,0,0,0,0,-1,1777,1723,0,0
560,-699,0,0,0,0,0,0,0,0,0,-1,1784,1723,0,0
567,-699,0,0,0,0,0,0,0,0,0,-1,1791,1723,0,0
574,-699,0,0,0,0,0,0,0,0,0,-1,1798,1723,0,0
581,-699,0,0,0,0,0,0,0,0,0,-1,1805,1723,0,0
588,-699,0,0,0,0,0,0,0,0,0,-1,1812,1723,0,0
595,-699,0,0,0,0,0,0,0,0,0,-1,1819,1723,0,0
602,-699,0,0,0,0,0,0,0,0,0,-1,1826,1723,0,0
609,-699,0,0,0,0,0,0,0,0,0,-1,1833,1723,0,0
616,-699,0,0,0,0,0,0,0,0,0,-1,1840,1723,0,0
623,-699,0,0,0,0,0,0,0,0,0,-1,1847,1723,0,0
630,-699,0,0,0,0,0,0,0,0,0,-1,1854,1723,0,0
637,-699,0,0,0,0,0,0,0,0,0,-1,1861,1723,0,0
644,-699,0,0,0,0,0,0,0,0,0,-1,1868,1723,0,0
651,-699,0,0,0,0,0,0,0,0,0,-1,1875,1723,0,0
658,-699,0,0,0,0,0,0,0,0,0,-1,1882,1723,0,0
665,-699,0,0,0,0,0,0,0,0,0,-1,1889,1723,0,0
672,-699,0,0,0,0,0,0,0,0,0,-1,1896,1723,0,0
679,-699,0,0,0,0,0,0,0,0,0,-1,1903,1723,0,0
686,-699,0,0,0,0,0,0,0,0,0,-1,1910,1723,0,0
693,-699,0,0,0,0,0,0,0,0,0,-1,1917,1723,0,0
700,-699,0,0,0,0,0,0,0,0,0,-1,1924,1723,0,0
707,-699,0,0,0,0,0,0,0,0,0,-1,1931,1723,0,0
714,-699,0,0,0,0,0,0,0,0,0,-1,1938,1723,0,0
721,-699,0,0,0,0,0,0,0,0,0,-1,1945,1723,0,0
728,-699,0,0,0,0,0,0,0,0,0,-1,1952,1723,0,0
735,-699,0,0,0,0,0,0,0,0,0,-1,1959,1723,0,0
742,-699,0,0,0,0,0,0,0,0,0,-1,1966,1723,0,0
749,-699,0,0,0,0,0,0,0,0,0,-1,1973,1723,0,0
756,-699,0,0,0,0,0,0,0,0,0,-1,1980,1723,0,0
763,-699,0,0,0,0,0,0,0,0,0,-1,1987,1723,0,0
770,-699,0,0,0,0,0,0,0,0,0,-1,1994,1723,0,0
777,-699,0,0,0,0,0,0,0,0,0,-1,2001,1723,0,0
784,-699,0,0,0,0,0,0,0,0,0,-1,2008,1723,0,0
791,-699,0,0,0,0,0,0,0,0,0,-1,2015,1723,0,0
798,-699,0,0,0,0,0,0,0,0,0,-1,2022,1723,0,0
805,-699,0,0,0,0,0,0,0,0,0,-1,2029,1723,0,0
812,-699,0,0,0,0,0,0,0,0,0,-1,2036,1723,0,0
-700,-706,0,0,0,0,0,0,0,0,0,-1,524,1730,0,0
-693,-706,0,0,0,0,0,0,0,0,0,-1,531,1730,0,0
-686,-706,0,0,0,0,0,0,0,0,0,-1,538,1730,0,0
-679,-706,0,0,0,0,0,0,0,0,0,-1,545,1730,0,0
-672,-706,0,0,0,0,0,0,0,0,0,-1,552,1730,0,0
-665,-706,0,0,0,0,0,0,0,0,0,-1,559,1730,0,0
-658,-706,0,0,0,0,0,0,0,0,0,-1,566,1730,0,0
-651,-706,0,0,0,0,0,0,0,0,0,-1,573,1730,0,0
-644,-706,0,0,0,0,0,0,0,0,0,-1,580,1730,0,0
-637,-706,0,0,0,0,0,0,0,0,0,-1,587,1730,0,0
-630,-706,0,0,0,0,0,0,0,0,0,-1,594,1730,0,0
-623,-706,0,0,0,0,0,0,0,0,0,-1,601,1730,0,0
-616,-706,0,0,0,0,0,0,0,0,0,-1,608,1730,0,0
-609,-706,0,0,0,0,0,0,0,0,0,-1,615,1730,0,0
-602,-706,0,0,0,0,0,0,0,0,0,-1,622,1730,0,0
-595,-706,0,0,0,0,0,0,0,0,0,-1,629,1730,0,0
-588,-706,0,0,0,0,0,0,0,0,0,-1,636,1730,0,0
-581,-706,0,0,0,0,0,0,0,0,0,-1,643,1730,0,0
-574,-706,0,0,0,0,0,0,0,0,0,-1,650,1730,0,0
-567,-706,0,0,0,0,0,0,0,0,0,-1,657,1730,0,0
-560,-706,0,0,0,0,0,0,0,0,0,-1,664,1730,0,0
-553,-706,0,0,0,0,0,0,0,0,0,-1,671,1730,0,0
-546,-706,0,0,0,0,0,0,0,0,0,-1,678,1730,0,0
-539,-706,0,0,0,0,0,0,0,0,0,-1,685,1730,0,0
-532,-706,0,0,0,0,0,0,0,0,0,-1,692,1730,0,0
-525,-706,0,0,0,0,0,0,0,0,0,-1,699,1730,0,0
-518,-706,0,0,0,0,0,0,0,0,0,-1,706,1730,0,0
-511,-706,0,0,0,0,0,0,0,0,0,-1,713,1730,0,0
-504,-706,0,0,0,0,0,0,0,0,0,-1,720,1730,0,0
-497,-706,0,0,0,0,0,0,0,0,0,-1,727,1730,0,0
-490,-706,0,0,0,0,0,0,0,0,0,-1,734,1730,0,0
-483,-706,0,0,0,0,0,0,0,0,0,-1,741,1730,0,0
-476,-706,0,0,0,0,0,0,0,0,0,-1,748,1730,0,0
-469,-706,0,0,0,0,0,0,0,0,0,-1,755,1730,0,0
-462,-706,0,0,0,0,0,0,0,0,0,-1,762,1730,0,0
-455,-706,0,0,0,0,0,0,0,0,0,-1,769,1730,0,0
-448,-706,0,0,0,0,0,0,0,0,0,-1,776,1730,0,0
-441,-706,0,0,0,0,0,0,0,0,0,-1,783,1730,0,0
-434,-706,0,0,0,0,0,0,0,0,0,-1,790,1730,0,0
-427,-706,0,0,0,0,0,0,0,0,0,-1,797,1730,0,0
-420,-706,0,0,0,0,0,0,0,0,0,-1,804,1730,0,0
-413,-706,0,0,0,0,0,0,0,0,0,-1,811,1730,0,0
-406,-706,0,0,0,0,0,0,0,0,0,-1,818,1730,0,0
-399,-706,0,0,0,0,0,0,0,0,0,-1,825,1730,0,0
-392,-706,0,0,0,0,0,0,0,0,0,-1,832,1730,0,0
-385,-706,0,0,0,0,0,0,0,0,0,-1,839,1730,0,0
-378,-706,0,0,0,0,0,0,0,0,0,-1,846,1730,0,0
-371,-706,0,0,0,0,0,0,0,0,0,-1,853,1730,0,0
-364,-706,0,0,0,0,0,0,0,0,0,-1,860,1730,0,0
-357,-706,0,0,0,0,0,0,0,0,0,-1,867,1730,0,0
-350,-706,0,0,0,0,0,0,0,0,0,-1,874,1730,0,0
-343,-706,0,0,0,0,0,0,0,0,0,-1,881,1730,0,0
-336,-706,0,0,0,0,0,0,0,0,0,-1,888,1730,0,0
-329,-706,0,0,0,0,0,0,0,0,0,-1,895,1730,0,0
-322,-706,0,0,0,0,0,0,0,0,0,-1,902,1730,0,0
-315,-706,0,0,0,0,0,0,0,0,0,-1,909,1730,0,0
-308,-706,5.08191,14.6245,0,0,0,0,0,0,0,-1,916,1730,5.08188,-14.6245
-301,-706,5.28516,13.4028,0,0,0,0,0,0,0,-1,923,1730,5.28516,-13.4029
-294,-706,7.02759,15.9609,0,0,0,0,0,0,0,-1,930,1730,7.02759,-15.961
-287,-706,6.4834,15.074,0,0,0,0,0,0,0,-1,937,1730,6.48341,-15.074
-280,-706,6.02985,14.3875,0,0,0,0,0,0,0,-1,944,1730,6.02983,-14.3874
-273,-706,5.74866,13.4707,0,0,0,0,0,0,0,-1,951,1730,5.74865,-13.4708
-266,-706,5.60547,12.5319,0,0,0,0,0,0,0,-1,958,1730,5.60548,-12.5319
-259,-706,3.3598,9.72961,0,0,0,0,0,0,0,-1,965,1730,3.35979,-9.72962
-252,-706,3.05963,10.0499,0,0,0,0,0,0,0,-1,972,1730,3.05962,-10.05
-245,-706,2.28943,16.1493,0,0,0,0,0,0,0,-1,979,1730,2.28944,-16.1493
-238,-706,4.47626,13.7107,0,0,0,0,0,0,0,-1,986,1730,4.47623,-13.7107
-231,-706,4.37646,14.0471,-0.00404006,0.0148465,0.0128935,0.0213851,-0.0105786,1.10147,0.0188025,0.0449992,993,1730,4.37649,-14.0471
-224,-706,4.35052,14.4733,-0.00353422,0.0107968,0.0104148,0.016273,-0.00901042,1.08671,0.0147967,0.0423479,1000,1730,4.35055,-14.4733
-217,-706,4.32288,14.8884,0,0,0,0,0,0,0,-1,1007,1730,4.32286,-14.8885
-210,-706,4.9248,15.1498,-0.00282776,0.0032794,0.00545816,0.0064801,-0.00602845,1.04043,0.00722338,0.0409452,1014,1730,4.92483,-15.1498
-203,-706,4.78333,15.5641,-0.00253597,0.000797658,0.0035629,0.00306435,-0.00480267,1.00419,0.00457884,0.0304302,1021,1730,4.78329,-15.5641
-196,-706,4.79004,15.6683,-0.0022394,-0.000186023,0.00232068,0.00132494,-0.00375036,0.99366,0.00303971,0.0229277,1028,1730,4.79001,-15.6684
-189,-706,4.80176,15.7961,-0.00191434,-0.000865044,0.00156906,0.000264758,-0.00304414,0.94674,0.00212319,0.0183792,1035,1730,4.80178,-15.7961
-182,-706,4.79016,15.9551,-0.00162403,-0.000862297,0.00106301,-0.000113978,-0.00237235,0.957418,0.00154497,0.0130899,1042,1730,4.79017,-15.9551
-175,-706,4.79211,16.0934,-0.00130916,-0.00160022,0.000648742,-0.000789822,-0.00211955,0.67506,0.00123689,0.014177,1049,1730,4.79213,-16.0934
-168,-706,4.81116,16.2172,-0.00113456,-0.00127129,0.000276289,-0.000918306,-0.00148755,0.664119,0.000866682,0.0158791,1056,1730,4.81121,-16.2172
-161,-706,4.79224,16.3656,-0.00084513,-0.000409821,0.000665518,7.27301e-05,-0.00132768,0.943438,0.000910333,0.013105,1063,1730,4.79227,-16.3656
-154,-706,4.77637,16.5269,-0.000442229,0.000133917,0.000939191,0.000828221,-0.00113653,0.934206,0.001139,0.0119722,1070,1730,4.77641,-16.5268
-147,-706,4.75244,16.6388,-0.000104379,0.0007948,0.00112682,0.00155841,-0.000867988,0.975216,0.00141966,0.0109125,1077,1730,4.7525,-16.6388
-140,-706,4.74194,16.7673,0.000382534,0.00120459,0.00155505,0.00240201,-0.000814889,0.914603,0.00193116,0.0099315,1084,1730,4.7419,-16.7673
-133,-706,4.74622,16.8917,0.000715819,0.00095754,0.00140757,0.00224943,-0.00057607,0.828225,0.00172403,0.00794004,1091,1730,4.74625,-16.8918
-126,-706,4.74939,17.0143,0.000971316,0.000704759,0.00127518,0.00212017,-0.000444091,0.733329,0.00158239,0.0125287,1098,1730,4.74935,-17.0142
-119,-706,4.76123,17.1642,0.00123877,0.000551447,0.00123136,0.00217352,-0.000383305,0.649315,0.00159224,0.0179463,1105,1730,4.76129,-17.1642
-112,-706,4.76306,17.2872,0.00149431,0.000347779,0.00116483,0.0022193,-0.000377209,0.556726,0.00161998,0.0125793,1112,1730,4.7631,-17.2873
-105,-706,4.74707,17.3721,0.00166434,0.000160181,0.00103533,0.00219192,-0.000367398,0.47128,0.00159789,0.00904104,1119,1730,4.74705,-17.3721
-98,-706,4.77588,17.4652,0.00170488,2.2331e-05,0.000960406,0.00214037,-0.000413157,0.425712,0.00158271,0.0109915,1126,1730,4.77584,-17.4652
-91,-706,4.7804,17.5847,0.00167052,-1.43424e-05,0.000915514,0.00207222,-0.000416039,0.413473,0.00153902,0.0148544,1133,1730,4.78042,-17.5847
-84,-706,4.75183,17.6802,0.00165141,0.000131449,0.000919766,0.00208455,-0.000301692,0.440118,0.00150041,0.0175969,1140,1730,4.75181,-17.6802
-77,-706,4.73682,17.7551,0.00172455,0.000321958,0.000859478,0.00213254,-8.60319e-05,0.4432,0.00145122,0.0183105,1147,1730,4.73687,-17.7552
-70,-706,4.73706,17.8638,0.00184479,0.000375339,0.000748138,0.00215865,6.14799e-05,0.397221,0.00141905,0.0204135,1154,1730,4.73711,-17.8638
-63,-706,4.73083,17.9391,0.00216478,-0.000765142,0.000944885,0.00244307,-0.00104343,0.286422,0.00206629,0.0141781,1161,1730,4.73078,-17.9391
-56,-706,4.74414,18.0092,0.00256109,-0.00181185,0.00127916,0.00290778,-0.00215854,0.264671,0.00293568,0.0130394,1168,1730,4.74408,-18.0091
-49,-706,4.73816,18.077,0.00310289,-0.00296764,0.00199781,0.00370136,-0.00356612,0.291059,0.00419612,0.012906,1175,1730,4.73811,-18.077
-42,-706,4.76086,18.1708,0.00363474,-0.00392217,0.00278624,0.00455095,-0.00483838,0.317695,0.00542178,0.0174159,1182,1730,4.76086,-18.1708
-35,-706,4.76892,18.2419,0.00410157,-0.00492122,0.00334403,0.0052058,-0.00602545,0.318936,0.00649012,0.0170183,1189,1730,4.76887,-18.2419
-28,-706,4.79382,18.2758,0.00443246,-0.00590258,0.00376134,0.00565641,-0.00712653,0.314597,0.00739649,0.0105378,1196,1730,4.79386,-18.2758
-21,-706,4.80273,18.3336,0.00459072,-0.00676302,0.00419736,0.00597393,-0.00814623,0.318334,0.00818437,0.0102884,1203,1730,4.80279,-18.3336
-14,-706,4.81848,18.3867,0.00466031,-0.00767055,0.00458424,0.00617783,-0.00918808,0.319677,0.00892808,0.0102272,1210,1730,4.81848,-18.3867
-7,-706,4.83203,18.4576,0.00458576,-0.00779847,0.00509494,0.00641242,-0.00962513,0.344248,0.009321,0.00841369,1217,1730,4.83206,-18.4577
0,-706,4.85107,18.493,0.00431386,-0.0075667,0.00550665,0.00647359,-0.00972643,0.373767,0.00941572,0.0114299,1224,1730,4.8511,-18.493
7,-706,4.87537,18.5297,0.00394866,-0.0071915,0.0057093,0.00635491,-0.00959776,0.39887,0.00927349,0.0137108,1231,1730,4.8754,-18.5297
14,-706,4.86694,18.5767,0.0035885,-0.00668128,0.00578093,0.00618577,-0.00927854,0.422256,0.00898765,0.0138687,1238,1730,4.86699,-18.5766
21,-706,4.87354,18.6107,0.00297491,-0.00634,0.0061389,0.00602316,-0.00938826,0.460882,0.00896821,0.0110504,1245,1730,4.87354,-18.6107
28,-706,4.89282,18.6372,0.00202554,-0.00635771,0.00677409,0.00579996,-0.0101321,0.508344,0.00931107,0.0121513,1252,1730,4.89277,-18.6372
35,-706,4.90369,18.6683,0.00102719,-0.00622038,0.00735224,0.00560019,-0.0107934,0.55643,0.00962183,0.0141795,1259,1730,4.90365,-18.6684
42,-706,4.92102,18.7042,9.15851e-05,-0.0058644,0.00768852,0.0053587,-0.0111315,0.60063,0.00971314,0.0112771,1266,1730,4.92098,-18.7042
49,-706,4.94666,18.7271,-0.000811903,-0.00594228,0.00808377,0.00510391,-0.0118581,0.63176,0.0100485,0.0128136,1273,1730,4.94661,-18.7271
56,-706,4.98267,18.7307,-0.00179948,-0.00639977,0.00842073,0.0046296,-0.0128288,0.652074,0.0104436,0.0125177,1280,1730,4.9827,-18.7307
63,-706,4.98669,18.743,-0.00272585,-0.0069466,0.00877214,0.0041862,-0.0138586,0.667353,0.0109057,0.0109453,1287,1730,4.9867,-18.743
70,-706,4.97571,18.7408,-0.00354524,-0.0075099,0.00892621,0.00361611,-0.0146713,0.676132,0.0111828,0.011901,1294,1730,4.97575,-18.7408
77,-706,4.97961,18.7512,-0.00414499,-0.0079351,0.00884268,0.00300342,-0.0150835,0.679841,0.011192,0.0111991,1301,1730,4.9796,-18.7512
84,-706,4.99243,18.7694,-0.00445516,-0.00846073,0.00837505,0.00215324,-0.0150691,0.668034,0.0108354,0.00962366,1308,1730,4.99248,-18.7694
91,-706,5.03406,18.7806,-0.0045754,-0.00892982,0.00764067,0.0011922,-0.0146974,0.646602,0.0102189,0.0109692,1315,1730,5.03402,-18.7807
98,-706,5.0271,18.7798,-0.00456074,-0.00931705,0.00656829,4.66625e-05,-0.0139245,0.611706,0.00929856,0.0142292,1322,1730,5.02706,-18.7797
105,-706,5.0166,18.7637,-0.00438263,-0.00945431,0.00549185,-0.000869426,-0.0129675,0.569109,0.00837027,0.0152492,1329,1730,5.01664,-18.7636
112,-706,5.03186,18.7352,-0.00404283,-0.00934288,0.00448497,-0.00148349,-0.0119022,0.518559,0.00748946,0.0146345,1336,1730,5.03181,-18.7353
119,-706,5.0415,18.7317,-0.00368252,-0.0091502,0.00340339,-0.00205093,-0.0107818,0.447033,0.00661112,0.0120817,1343,1730,5.0415,-18.7317
126,-706,5.05396,18.7004,-0.00299363,-0.00868436,0.00211652,-0.00229277,-0.00938523,0.319776,0.00564982,0.0139741,1350,1730,5.05393,-18.7005
133,-706,5.08105,18.6609,-0.00210915,-0.00801875,0.000956225,-0.00195828,-0.00816962,0.156491,0.00492518,0.0123258,1357,1730,5.08101,-18.6609
140,-706,5.13757,18.6224,-0.0013169,-0.0074965,0.000223844,-0.0013088,-0.0075046,0.0361599,0.00462889,0.0116396,1364,1730,5.1376,-18.6224
147,-706,5.17212,18.5815,-0.000740291,-0.00680693,-4.22767e-05,-0.000739997,-0.00680722,-0.00696827,0.0043127,0.0205438,1371,1730,5.17214,-18.5815
154,-706,5.16187,18.5688,-0.000261572,-0.005917,-0.000198562,-0.000254609,-0.00592397,-0.0350523,0.00386724,0.0197202,1378,1730,5.16188,-18.5689
161,-706,5.14246,18.5248,0.000224947,-0.00483785,-0.000332499,0.000246691,-0.00485959,-0.0653012,0.00332501,0.0105843,1385,1730,5.14243,-18.5248
168,-706,5.13904,18.4647,0.000560103,-0.00385846,-0.00045372,0.000606212,-0.00390457,-0.101277,0.00282687,0.010177,1392,1730,5.13898,-18.4648
175,-706,5.15515,18.408,0.000979699,-0.00287124,-0.000382781,0.00101738,-0.00290892,-0.0981201,0.0023529,0.0103321,1399,1730,5.1551,-18.4079
182,-706,5.15894,18.3312,0.00119289,-0.00197409,-0.0002299,0.00120949,-0.00199069,-0.0720891,0.00186589,0.0107967,1406,1730,5.15892,-18.3312
189,-706,5.16077,18.2598,0.00115776,-0.00101097,-6.84102e-05,0.00115992,-0.00101313,-0.0315021,0.00125556,0.0129475,1413,1730,5.16076,-18.2597
196,-706,5.17456,18.2064,0.00100854,0.000168506,0.000117117,0.00102456,0.000152483,0.135966,0.000638313,0.0113909,1420,1730,5.17462,-18.2064
203,-706,5.18091,18.1553,0.000779775,0.000336022,0.000474578,0.00108178,3.40153e-05,0.566733,0.000710121,0.0121018,1427,1730,5.18088,-18.1553
210,-706,5.17957,18.0782,0.0005412,0.000251514,0.000339854,0.00076579,2.69241e-05,0.583958,0.000501793,0.0111869,1434,1730,5.17962,-18.0783
217,-706,5.16504,18.0109,0.000291446,0.000116226,0.000116838,0.000349873,5.77995e-05,0.463699,0.000216569,0.0121456,1441,1730,5.16504,-18.0109
224,-706,5.15369,17.9406,0.0002885,-9.42234e-05,-6.74468e-05,0.000300039,-0.000105762,-0.169431,0.000243074,0.0170781,1448,1730,5.1537,-17.9406
231,-706,5.18909,17.8414,0.00031451,-0.000322811,-0.00026174,0.000408223,-0.000416525,-0.34382,0.000476176,0.0133282,1455,1730,5.18904,-17.8414
238,-706,5.18848,17.7457,0.000399563,-0.00047229,-0.000436963,0.000580863,-0.00065359,-0.393293,0.000713124,0.00924579,1462,1730,5.18847,-17.7457
245,-706,5.18018,17.6604,0.000511559,-0.000546783,-0.000599193,0.000781796,-0.000817021,-0.423687,0.000923152,0.0114256,1469,1730,5.18017,-17.6604
252,-706,5.18811,17.576,0.000590972,-0.000562673,-0.000771332,0.00097731,-0.000949011,-0.464344,0.0011122,0.011025,1476,1730,5.18806,-17.5761
259,-706,5.21021,17.4746,0.000601478,0.000406673,-0.000837903,0.00134762,-0.00033947,-0.727535,0.00103038,0.0124662,1483,1730,5.21025,-17.4746
266,-706,5.20105,17.3785,0.00055579,0.00174897,-0.000734662,0.00209877,0.000205993,-1.12642,0.00133582,0.0127155,1490,1730,5.20102,-17.3786
273,-706,5.18616,17.2717,0.000453504,0.00333316,-0.000761379,0.00352207,0.00026459,-1.32759,0.00226501,0.0112407,1497,1730,5.1861,-17.2717
280,-706,5.18872,17.1454,0.000232436,0.00497246,-0.000572967,0.00504074,0.000164161,-1.45219,0.00330713,0.0092518,1504,1730,5.18875,-17.1453
287,-706,5.17932,17.0093,-2.54852e-05,0.00656515,-0.000274223,0.00657654,-3.68753e-05,-1.52928,0.0043967,0.0100779,1511,1730,5.17931,-17.0093
294,-706,5.18835,16.9088,-0.000265817,0.00851851,-5.61472e-05,0.00851887,-0.000266176,-1.5644,0.00577002,0.0106228,1518,1730,5.18839,-16.9088
301,-706,5.18762,16.7998,-0.000467416,0.0102704,0.000155451,0.0102726,-0.000469666,1.55632,0.00701023,0.0105483,1525,1730,5.18757,-16.7998
308,-706,5.18201,16.6667,-0.00136251,0.0115657,0.000279544,0.0115717,-0.00136855,1.54919,0.00820879,0.0122836,1532,1730,5.18197,-16.6668
315,-706,5.1969,16.5363,-0.00221782,0.0116863,0.000526554,0.0117062,-0.00223773,1.533,0.00864711,0.0184833,1539,1730,5.19687,-16.5362
322,-706,5.19751,16.4097,-0.00204598,0.0120537,-8.13432e-05,0.0120541,-0.00204645,-1.56503,0.00879794,0.0196733,1546,1730,5.19751,-16.4096
329,-706,5.17761,16.2517,-0.00252055,0.0118492,-0.000396725,0.0118601,-0.0025315,-1.54322,0.0088718,0.016603,1553,1730,5.17756,-16.2517
336,-706,5.17749,16.0831,-0.00289352,0.0104398,-0.000861376,0.0104952,-0.00294893,-1.50655,0.00815939,0.0227342,1560,1730,5.17744,-16.0832
343,-706,5.24329,15.897,-0.0031593,0.00923823,-0.00167741,0.00946118,-0.00338225,-1.43866,0.00768703,0.0317238,1567,1730,5.2433,-15.897
350,-706,5.36963,15.756,-0.00336862,0.00769349,-0.00268276,0.00830977,-0.0039849,-1.34499,0.00724325,0.040708,1574,1730,5.36964,-15.756
357,-706,5.56189,15.64,-0.0032927,0.0063688,-0.00388298,0.00773593,-0.00465983,-1.23227,0.00722978,0.0482625,1581,1730,5.56188,-15.64
364,-706,4.2865,16.2217,-0.00281555,0.00343254,-0.00546325,0.00660188,-0.00598489,-1.04512,0.00726989,0.0479481,1588,1730,4.28649,-16.2217
371,-706,4.83191,14.9619,-0.002171,0.00172048,-0.00745211,0.00747667,-0.0079272,-0.913097,0.00889469,0.0487753,1595,1730,4.83195,-14.9619
378,-706,5.24402,14.2249,0,0,0,0,0,0,0,-1,1602,1730,5.24403,-14.2249
385,-706,4.3606,15.7332,0,0,0,0,0,0,0,-1,1609,1730,4.36055,-15.7332
392,-706,4.15027,15.7469,0,0,0,0,0,0,0,-1,1616,1730,4.15026,-15.7469
399,-706,3.21667,13.4043,0,0,0,0,0,0,0,-1,1623,1730,3.21671,-13.4043
406,-706,3.80188,18.3816,0,0,0,0,0,0,0,-1,1630,1730,3.80184,-18.3815
413,-706,4.23645,20.028,0,0,0,0,0,0,0,-1,1637,1730,4.23649,-20.0279
420,-706,5.7926,4.15125,0,0,0,0,0,0,0,-1,1644,1730,5.79255,-4.15128
427,-706,0,0,0,0,0,0,0,0,0,-1,1651,1730,0,0
434,-706,0,0,0,0,0,0,0,0,0,-1,1658,1730,0,0
441,-706,0,0,0,0,0,0,0,0,0,-1,1665,1730,0,0
448,-706,0,0,0,0,0,0,0,0,0,-1,1672,1730,0,0
455,-706,0,0,0,0,0,0,0,0,0,-1,1679,1730,0,0
462,-706,0,0,0,0,0,0,0,0,0,-1,1686,1730,0,0
469,-706,0,0,0,0,0,0,0,0,0,-1,1693,1730,0,0
476,-706,0,0,0,0,0,0,0,0,0,-1,1700,1730,0,0
483,-706,0,0,0,0,0,0,0,0,0,-1,1707,1730,0,0
490,-706,0,0,0,0,0,0,0,0,0,-1,1714,1730,0,0
497,-706,0,0,0,0,0,0,0,0,0,-1,1721,1730,0,0
504,-706,0,0,0,0,0,0,0,0,0,-1,1728,1730,0,0
511,-706,0,0,0,0,0,0,0,0,0,-1,1735,1730,0,0
518,-706,0,0,0,0,0,0,0,0,0,-1,1742,1730,0,0
525,-706,0,0,0,0,0,0,0,0,0,-1,1749,1730,0,0
532,-706,0,0,0,0,0,0,0,0,0,-1,1756,1730,0,0
539,-706,0,0,0,0,0,0,0,0,0,-1,1763,1730,0,0
546,-706,0,0,0,0,0,0,0,0,0,-1,1770,1730,0,0
553,-706,0,0,0,0,0,0,0,0,0,-1,1777,1730,0,0
560,-706,0,0,0,0,0,0,0,0,0,-1,1784,1730,0,0
567,-706,0,0,0,0,0,0,0,0,0,-1,1791,1730,0,0
574,-706,0,0,0,0,0,0,0,0,0,-1,1798,1730,0,0
581,-706,0,0,0,0,0,0,0,0,0,-1,1805,1730,0,0
588,-706,0,0,0,0,0,0,0,0,0,-1,1812,1730,0,0
595,-706,0,0,0,0,0,0,0,0,0,-1,1819,1730,0,0
602,-706,0,0,0,0,0,0,0,0,0,-1,1826,1730,0,0
609,-706,0,0,0,0,0,0,0,0,0,-1,1833,1730,0,0
616,-706,0,0,0,0,0,0,0,0,0,-1,1840,1730,0,0
623,-706,0,0,0,0,0,0,0,0,0,-1,1847,1730,0,0
630,-706,0,0,0,0,0,0,0,0,0,-1,1854,1730,0,0
637,-706,0,0,0,0,0,0,0,0,0,-1,1861,1730,0,0
644,-706,0,0,0,0,0,0,0,0,0,-1,1868,1730,0,0
651,-706,0,0,0,0,0,0,0,0,0,-1,1875,1730,0,0
658,-706,0,0,0,0,0,0,0,0,0,-1,1882,1730,0,0
665,-706,0,0,0,0,0,0,0,0,0,-1,1889,1730,0,0
672,-706,0,0,0,0,0,0,0,0,0,-1,1896,1730,0,0
679,-706,0,0,0,0,0,0,0,0,0,-1,1903,1730,0,0
686,-706,0,0,0,0,0,0,0,0,0,-1,1910,1730,0,0
693,-706,0,0,0,0,0,0,0,0,0,-1,1917,1730,0,0
700,-706,0,0,0,0,0,0,0,0,0,-1,1924,1730,0,0
707,-706,0,0,0,0,0,0,0,0,0,-1,1931,1730,0,0
714,-706,0,0,0,0,0,0,0,0,0,-1,1938,1730,0,0
721,-706,0,0,0,0,0,0,0,0,0,-1,1945,1730,0,0
728,-706,0,0,0,0,0,0,0,0,0,-1,1952,1730,0,0
735,-706,0,0,0,0,0,0,0,0,0,-1,1959,1730,0,0
742,-706,0,0,0,0,0,0,0,0,0,-1,1966,1730,0,0
749,-706,0,0,0,0,0,0,0,0,0,-1,1973,1730,0,0
756,-706,0,0,0,0,0,0,0,0,0,-1,1980,1730,0,0
763,-706,0,0,0,0,0,0,0,0,0,-1,1987,1730,0,0
770,-706,0,0,0,0,0,0,0,0,0,-1,1994,1730,0,0
777,-706,0,0,0,0,0,0,0,0,0,-1,2001,1730,0,0
784,-706,0,0,0,0,0,0,0,0,0,-1,2008,1730,0,0
791,-706,0,0,0,0,0,0,0,0,0,-1,2015,1730,0,0
798,-706,0,0,0,0,0,0,0,0,0,-1,2022,1730,0,0
805,-706,0,0,0,0,0,0,0,0,0,-1,2029,1730,0,0
812,-706,0,0,0,0,0,0,0,0,0,-1,2036,1730,0,0
-700,-713,0,0,0,0,0,0,0,0,0,-1,524,1737,0,0
-693,-713,0,0,0,0,0,0,0,0,0,-1,531,1737,0,0
-686,-713,0,0,0,0,0,0,0,0,0,-1,538,1737,0,0
-679,-713,0,0,0,0,0,0,0,0,0,-1,545,1737,0,0
-672,-713,0,0,0,0,0,0,0,0,0,-1,552,1737,0,0
-665,-713,0,0,0,0,0,0,0,0,0,-1,559,1737,0,0
-658,-713,0,0,0,0,0,0,0,0,0,-1,566,1737,0,0
-651,-713,0,0,0,0,0,0,0,0,0,-1,573,1737,0,0
-644,-713,0,0,0,0,0,0,0,0,0,-1,580,1737,0,0
-637,-713,0,0,0,0,0,0,0,0,0,-1,587,1737,0,0
-630,-713,0,0,0,0,0,0,0,0,0,-1,594,1737,0,0
-623,-713,0,0,0,0,0,0,0,0,0,-1,601,1737,0,0
-616,-713,0,0,0,0,0,0,0,0,0,-1,608,1737,0,0
-609,-713,0,0,0,0,0,0,0,0,0,-1,615,1737,0,0
-602,-713,0,0,0,0,0,0,0,0,0,-1,622,1737,0,0
-595,-713,0,0,0,0,0,0,0,0,0,-1,629,1737,0,0
-588,-713,0,0,0,0,0,0,0,0,0,-1,636,1737,0,0
-581,-713,0,0,0,0,0,0,0,0,0,-1,643,1737,0,0
-574,-713,0,0,0,0,0,0,0,0,0,-1,650,1737,0,0
-567,-713,0,0,0,0,0,0,0,0,0,-1,657,1737,0,0
-560,-713,0,0,0,0,0,0,0,0,0,-1,664,1737,0,0
-553,-713,0,0,0,0,0,0,0,0,0,-1,671,1737,0,0
-546,-713,0,0,0,0,0,0,0,0,0,-1,678,1737,0,0
-539,-713,0,0,0,0,0,0,0,0,0,-1,685,1737,0,0
-532,-713,0,0,0,0,0,0,0,0,0,-1,692,1737,0,0
-525,-713,0,0,0,0,0,0,0,0,0,-1,699,1737,0,0
-518,-713,0,0,0,0,0,0,0,0,0,-1,706,1737,0,0
-511,-713,0,0,0,0,0,0,0,0,0,-1,713,1737,0,0
-504,-713,0,0,0,0,0,0,0,0,0,-1,720,1737,0,0
-497,-713,0,0,0,0,0,0,0,0,0,-1,727,1737,0,0
-490,-713,0,0,0,0,0,0,0,0,0,-1,734,1737,0,0
-483,-713,0,0,0,0,0,0,0,0,0,-1,741,1737,0,0
-476,-713,0,0,0,0,0,0,0,0,0,-1,748,1737,0,0
-469,-713,0,0,0,0,0,0,0,0,0,-1,755,1737,0,0
-462,-713,0,0,0,0,0,0,0,0,0,-1,762,1737,0,0
-455,-713,0,0,0,0,0,0,0,0,0,-1,769,1737,0,0
-448,-713,0,0,0,0,0,0,0,0,0,-1,776,1737,0,0
-441,-713,0,0,0,0,0,0,0,0,0,-1,783,1737,0,0
-434,-713,0,0,0,0,0,0,0,0,0,-1,790,1737,0,0
-427,-713,0,0,0,0,0,0,0,0,0,-1,797,1737,0,0
-420,-713,0,0,0,0,0,0,0,0,0,-1,804,1737,0,0
-413,-713,0,0,0,0,0,0,0,0,0,-1,811,1737,0,0
-406,-713,0,0,0,0,0,0,0,0,0,-1,818,1737,0,0
-399,-713,0,0,0,0,0,0,0,0,0,-1,825,1737,0,0
-392,-713,0,0,0,0,0,0,0,0,0,-1,832,1737,0,0
-385,-713,0,0,0,0,0,0,0,0,0,-1,839,1737,0,0
-378,-713,0,0,0,0,0,0,0,0,0,-1,846,1737,0,0
-371,-713,0,0,0,0,0,0,0,0,0,-1,853,1737,0,0
-364,-713,0,0,0,0,0,0,0,0,0,-1,860,1737,0,0
-357,-713,0,0,0,0,0,0,0,0,0,-1,867,1737,0,0
-350,-713,0,0,0,0,0,0,0,0,0,-1,874,1737,0,0
-343,-713,0,0,0,0,0,0,0,0,0,-1,881,1737,0,0
-336,-713,0,0,0,0,0,0,0,0,0,-1,888,1737,0,0
-329,-713,0,0,0,0,0,0,0,0,0,-1,895,1737,0,0
-322,-713,0,0,0,0,0,0,0,0,0,-1,902,1737,0,0
-315,-713,0,0,0,0,0,0,0,0,0,-1,909,1737,0,0
-308,-713,0,0,0,0,0,0,0,0,0,-1,916,1737,0,0
-301,-713,0,0,0,0,0,0,0,0,0,-1,923,1737,0,0
-294,-713,6.3161,13.046,0,0,0,0,0,0,0,-1,930,1737,6.31612,-13.046
-287,-713,6.56073,15.8463,0,0,0,0,0,0,0,-1,937,1737,6.56074,-15.8463
-280,-713,6.23041,14.8906,0,0,0,0,0,0,0,-1,944,1737,6.2304,-14.8906
-273,-713,5.90009,13.9349,0,0,0,0,0,0,0,-1,951,1737,5.90006,-13.9349
-266,-713,6.52106,13.4521,0,0,0,0,0,0,0,-1,958,1737,6.52105,-13.4522
-259,-713,2.67322,10.5743,0,0,0,0,0,0,0,-1,965,1737,2.67324,-10.5743
-252,-713,3.55267,8.86694,0,0,0,0,0,0,0,-1,972,1737,3.55265,-8.86693
-245,-713,5.05389,17.6932,0,0,0,0,0,0,0,-1,979,1737,5.05392,-17.6932
-238,-713,4.45013,14.9313,0,0,0,0,0,0,0,-1,986,1737,4.45013,-14.9313
-231,-713,4.17938,13.8263,0,0,0,0,0,0,0,-1,993,1737,4.17937,-13.8263
-224,-713,3.74133,14.3263,-0.00465051,0.0128271,0.0121351,0.0190424,-0.0108659,1.09745,0.0174814,0.0484105,1000,1737,3.74136,-14.3263
-217,-713,3.90674,14.5129,0,0,0,0,0,0,0,-1,1007,1737,3.90673,-14.5129
-210,-713,4.94165,15.7963,0,0,0,0,0,0,0,-1,1014,1737,4.94162,-15.7963
-203,-713,4.86597,15.8243,-0.00364601,-0.000692067,0.00256825,0.000793618,-0.0051317,1.04635,0.00371404,0.0459087,1021,1737,4.86595,-15.8243
-196,-713,4.9425,15.8488,-0.00332411,-0.00151907,0.001226,-0.00089922,-0.00394396,1.10269,0.00238672,0.0435898,1028,1737,4.94246,-15.8487
-189,-713,4.73486,15.7976,-0.0029252,-0.00200667,0.000615022,-0.00169836,-0.00323352,1.10611,0.00186766,0.0412282,1035,1737,4.7349,-15.7977
-182,-713,4.86853,15.95,-0.00255177,-0.00163349,0.000297744,-0.0015454,-0.00263986,1.28314,0.00153152,0.0264769,1042,1737,4.86855,-15.9499
-175,-713,4.9325,16.077,-0.00219722,-0.00230045,0.000131232,-0.00210781,-0.00238985,0.598032,0.00150804,0.0215754,1049,1737,4.93252,-16.077
-168,-713,5.0177,16.1638,-0.00188036,-0.0015672,-1.49704e-05,-0.00156649,-0.00188107,-1.52314,0.00116345,0.025661,1056,1737,5.01773,-16.1639
-161,-713,4.96094,16.3655,-0.00141317,-0.00023439,0.000732612,0.000116486,-0.00176405,1.12414,0.00121672,0.014166,1063,1737,4.96098,-16.3654
-154,-713,4.88855,16.5117,-0.000881042,0.000591045,0.00124374,0.00130022,-0.00159022,1.05258,0.00167159,0.0111733,1070,1737,4.88859,-16.5117
-147,-713,4.87488,16.6661,-0.000477074,0.00153246,0.00158726,0.00240624,-0.00135086,1.06757,0.0021975,0.0168138,1077,1737,4.8749,-16.6662
-140,-713,4.88977,16.8146,0.000149416,0.00219602,0.00229192,0.00368271,-0.00133727,0.99536,0.00300188,0.015705,1084,1737,4.88979,-16.8146
-133,-713,4.87659,16.9084,0.000496157,0.00194906,0.00207555,0.00342162,-0.000976399,0.953738,0.00266681,0.00959484,1091,1737,4.87653,-16.9084
-126,-713,4.8739,16.9946,0.000736344,0.00165613,0.00185414,0.00310657,-0.000714088,0.906963,0.00234559,0.0156197,1098,1737,4.87385,-16.9946
-119,-713,4.89111,17.1233,0.000986932,0.00142112,0.00170473,0.00292252,-0.000514465,0.848732,0.00214054,0.0261752,1105,1737,4.89113,-17.1233
-112,-713,4.86902,17.2731,0.00124884,0.0011526,0.00154349,0.00274496,-0.000343513,0.769815,0.00195456,0.0137433,1112,1737,4.86903,-17.2731
-105,-713,4.85864,17.3672,0.00140911,0.000893867,0.00130165,0.00247838,-0.000175409,0.687701,0.00171372,0.0108545,1119,1737,4.85861,-17.3672
-98,-713,4.87244,17.4603,0.00141953,0.000658873,0.00111816,0.00222027,-0.000141873,0.621468,0.00152967,0.0100336,1126,1737,4.87246,-17.4603
-91,-713,4.85291,17.5565,0.00132027,0.000436604,0.000938067,0.00191535,-0.000158474,0.565306,0.00133287,0.0104167,1133,1737,4.85288,-17.5565
-84,-713,4.82983,17.6548,0.00120393,0.000513067,0.000806526,0.00173589,-1.88882e-05,0.583069,0.0011636,0.0100314,1140,1737,4.82986,-17.6548
-77,-713,4.83691,17.7814,0.00115451,0.000573104,0.000698127,0.00162004,0.000107575,0.588113,0.00104602,0.0138731,1147,1737,4.83697,-17.7814
-70,-713,4.83716,17.8802,0.00117693,0.000650981,0.000550512,0.00152405,0.000303858,0.562577,0.000931421,0.0158646,1154,1737,4.83715,-17.8802
-63,-713,4.82971,17.932,0.00108197,0.000175238,0.000486445,0.00129356,-3.63536e-05,0.41029,0.000874746,0.0135232,1161,1737,4.82971,-17.932
-56,-713,4.83203,18.0118,0.00113064,-0.000314489,0.000584073,0.00133718,-0.000521032,0.339901,0.0011068,0.0128689,1168,1737,4.83206,-18.0119
-49,-713,4.81299,18.0802,0.00137032,-0.000898261,0.000841836,0.00164858,-0.00117652,0.319235,0.00163865,0.0143315,1175,1737,4.81294,-18.0802
-42,-713,4.81775,18.1456,0.00169333,-0.00149813,0.00120512,0.00209727,-0.00190207,0.323416,0.00230994,0.0164932,1182,1737,4.81773,-18.1456
-35,-713,4.85071,18.2073,0.00203962,-0.00222271,0.00150456,0.0025172,-0.0027003,0.307364,0.00301294,0.0134605,1189,1737,4.8507,-18.2073
-28,-713,4.87354,18.2881,0.00231439,-0.00293862,0.00179043,0.00286659,-0.00349082,0.299161,0.00367634,0.0120861,1196,1737,4.87356,-18.2881
-21,-713,4.84973,18.3484,0.00249048,-0.00376327,0.0021053,0.00313317,-0.00440596,0.296288,0.00437335,0.00869165,1203,1737,4.84977,-18.3483
-14,-713,4.87439,18.4004,0.00260526,-0.00461349,0.00243042,0.00334727,-0.0053555,0.296312,0.00506894,0.00990342,1210,1737,4.87445,-18.4004
-7,-713,4.90417,18.4617,0.00266172,-0.00504703,0.00282232,0.00358455,-0.00596986,0.316018,0.00557325,0.00935501,1217,1737,4.90413,-18.4617
0,-713,4.90649,18.4965,0.00260887,-0.00524056,0.0031409,0.00371095,-0.00634264,0.337458,0.00587036,0.014614,1224,1737,4.90654,-18.4965
7,-713,4.92334,18.5201,0.00251239,-0.00530601,0.00328167,0.00370723,-0.00650085,0.349175,0.00596675,0.0182626,1231,1737,4.92332,-18.5202
14,-713,4.92529,18.5729,0.00243201,-0.00522456,0.00326817,0.00363728,-0.00642983,0.353317,0.00588632,0.0126117,1238,1737,4.9253,-18.5729
21,-713,4.91077,18.6133,0.00220355,-0.00521308,0.00342433,0.00354277,-0.0065523,0.372802,0.00591409,0.00980629,1245,1737,4.91076,-18.6133
28,-713,4.90112,18.6471,0.00175292,-0.00537704,0.00377349,0.00337911,-0.00700323,0.406902,0.00611477,0.0111037,1252,1737,4.90107,-18.6471
35,-713,4.91406,18.6757,0.00127913,-0.00532113,0.00404288,0.00319778,-0.00723978,0.443103,0.00617491,0.0112977,1259,1737,4.91401,-18.6756
42,-713,4.94446,18.7119,0.000839528,-0.00512869,0.00415501,0.00297098,-0.00726014,0.473981,0.00607751,0.0107788,1266,1737,4.94443,-18.712
49,-713,4.9519,18.7141,0.000355346,-0.00512066,0.00429212,0.00270841,-0.00747372,0.501482,0.00608948,0.011092,1273,1737,4.9519,-18.7141
56,-713,4.95874,18.7205,-0.000206662,-0.00534865,0.0044481,0.00236001,-0.00791532,0.523356,0.00621476,0.0117548,1280,1737,4.95872,-18.7205
63,-713,4.95984,18.7433,-0.000761065,-0.00557817,0.00466001,0.00207603,-0.00841527,0.546878,0.00641515,0.0117056,1287,1737,4.95984,-18.7432
70,-713,4.96838,18.7566,-0.00127471,-0.00578554,0.00484536,0.00181444,-0.00887469,0.567572,0.00660488,0.0112062,1294,1737,4.96838,-18.7566
77,-713,4.98572,18.7595,-0.00169425,-0.00595801,0.00490217,0.00151953,-0.0091718,0.580291,0.00667891,0.0114366,1301,1737,4.98573,-18.7596
84,-713,5.00867,18.782,-0.00200396,-0.00610725,0.00479686,0.00116159,-0.0092728,0.583318,0.00660321,0.0119066,1308,1737,5.00869,-18.7819
91,-713,5.02405,18.7906,-0.00226354,-0.00636532,0.00452721,0.000655657,-0.00928451,0.572719,0.0064194,0.0125699,1315,1737,5.02407,-18.7906
98,-713,5.0116,18.7764,-0.00249135,-0.00653238,0.00410599,6.43358e-05,-0.00908807,0.556749,0.00608027,0.0120911,1322,1737,5.01156,-18.7764
105,-713,5.00146,18.7615,-0.00256348,-0.00655671,0.00363161,-0.000415809,-0.00870438,0.534058,0.0056694,0.0127917,1329,1737,5.00152,-18.7615
112,-713,5.03857,18.7419,-0.0025289,-0.00645964,0.00318475,-0.000751907,-0.00823664,0.508942,0.0052584,0.012831,1336,1737,5.03852,-18.7419
119,-713,5.05273,18.7284,-0.00249046,-0.00632798,0.0026539,-0.00113434,-0.0076841,0.472402,0.00478961,0.0132952,1343,1737,5.05274,-18.7284
126,-713,5.03796,18.7366,-0.00222029,-0.00596056,0.0019284,-0.00140414,-0.00677671,0.400369,0.00413011,0.0134175,1350,1737,5.03794,-18.7366
133,-713,5.02856,18.7006,-0.0017866,-0.00541462,0.00123762,-0.00140463,-0.00579659,0.299358,0.00349166,0.0124766,1357,1737,5.02852,-18.7005
140,-713,5.05896,18.6401,-0.00136909,-0.00495098,0.000812554,-0.00119338,-0.00512669,0.212964,0.0030976,0.0135027,1364,1737,5.05902,-18.6402
147,-713,5.08313,18.5908,-0.00100029,-0.00432602,0.000612135,-0.000891198,-0.00443511,0.176363,0.00270899,0.0146983,1371,1737,5.08316,-18.5908
154,-713,5.07275,18.5812,-0.000676795,-0.00356837,0.000458737,-0.000605763,-0.0036394,0.153622,0.00225168,0.0138104,1378,1737,5.0728,-18.5812
161,-713,5.07739,18.5204,-0.000359554,-0.00269094,0.000312186,-0.000318475,-0.00273202,0.130835,0.00172502,0.0100857,1385,1737,5.07739,-18.5204
168,-713,5.08142,18.4442,-0.00011081,-0.00194138,0.00014376,-9.95888e-05,-0.0019526,0.0778964,0.00126984,0.00989023,1392,1737,5.08147,-18.4442
175,-713,5.08411,18.3784,9.56751e-05,-0.00122389,4.24002e-05,9.70361e-05,-0.00122525,0.0320879,0.000851024,0.0129776,1399,1737,5.08406,-18.3784
182,-713,5.08423,18.3265,0.00018099,-0.000670061,-4.64651e-06,0.000181015,-0.000670087,-0.00545952,0.000517721,0.0118189,1406,1737,5.08421,-18.3265
189,-713,5.09192,18.2614,0.000198625,-0.000171724,-7.12275e-05,0.000211852,-0.000184951,-0.183602,0.000229269,0.010166,1413,1737,5.09186,-18.2614
196,-713,5.1189,18.2073,0.000222839,0.000392157,-0.000158885,0.000487531,0.000127465,-1.03018,0.000291959,0.0114956,1420,1737,5.11891,-18.2073
203,-713,5.10645,18.1578,0.000263571,0.000523444,-0.000209467,0.000640003,0.000147012,-1.06301,0.000387085,0.0151551,1427,1737,5.1065,-18.1578
210,-713,5.08862,18.0609,0.000178456,0.000461151,-0.000392119,0.00073662,-9.70132e-05,-0.958385,0.000526406,0.0120495,1434,1737,5.08864,-18.0609
217,-713,5.1084,17.9877,6.06281e-05,0.000355218,-0.00061826,0.000843486,-0.00042764,-0.902339,0.000746861,0.00981008,1441,1737,5.10836,-17.9876
224,-713,5.11353,17.929,0.000101521,0.000148209,-0.000827107,0.000952302,-0.000702571,-0.799506,0.000959061,0.0110242,1448,1737,5.1135,-17.929
231,-713,5.11035,17.8461,0.000137348,-5.00051e-05,-0.00103179,0.0010797,-0.000992362,-0.740127,0.00119666,0.0107866,1455,1737,5.11038,-17.8461
238,-713,5.10449,17.749,0.000263235,-0.000211583,-0.00119841,0.00124752,-0.00119587,-0.687612,0.0014108,0.0089247,1462,1737,5.10453,-17.749
245,-713,5.0946,17.6777,0.00044652,-0.00025848,-0.00135536,0.00149447,-0.00130643,-0.658178,0.00161832,0.0109503,1469,1737,5.09466,-17.6777
252,-713,5.09778,17.5785,0.000580194,-0.00024414,-0.00151527,0.00173835,-0.0014023,-0.652607,0.00181671,0.0101099,1476,1737,5.09778,-17.5784
259,-713,5.12927,17.4529,0.000561004,0.00137451,-0.00149072,0.00251297,-0.000577461,-0.918584,0.00189732,0.0116407,1483,1737,5.12932,-17.4529
266,-713,5.11462,17.3623,0.000455757,0.0033824,-0.00118685,0.0038032,3.4953e-05,-1.23007,0.0025239,0.0108227,1490,1737,5.11458,-17.3622
273,-713,5.08704,17.2693,0.000304541,0.00560819,-0.00111723,0.00583393,7.88022e-05,-1.37143,0.00386329,0.00855176,1497,1737,5.08707,-17.2693
280,-713,5.08374,17.1464,5.01693e-05,0.00785345,-0.000738246,0.00792268,-1.90595e-05,-1.47729,0.00528815,0.00909039,1504,1737,5.08379,-17.1464
287,-713,5.06653,17.016,-0.000258771,0.0100912,-0.000223651,0.0100961,-0.000263602,-1.5492,0.00682027,0.0102484,1511,1737,5.06655,-17.016
294,-713,5.07678,16.9144,-0.000630251,0.0128597,0.000210378,0.012863,-0.000633531,1.55521,0.00879412,0.0159079,1518,1737,5.07678,-16.9144
301,-713,5.08191,16.7888,-0.00095732,0.0154279,0.000676722,0.0154558,-0.000985222,1.52959,0.0106475,0.0173702,1525,1737,5.08193,-16.7889
308,-713,5.07385,16.6556,-0.00208236,0.0173831,0.000990356,0.0174334,-0.00213262,1.52009,0.0123945,0.0184001,1532,1737,5.07382,-16.6557
315,-713,5.11389,16.5277,-0.00319371,0.0179258,0.00139788,0.0180179,-0.00328583,1.50499,0.0132438,0.0245387,1539,1737,5.11387,-16.5277
322,-713,5.09424,16.3589,-0.00298512,0.0185267,0.000710235,0.0185502,-0.00300855,1.53783,0.013482,0.0324529,1546,1737,5.09423,-16.3589
329,-713,4.95483,16.335,-0.00353339,0.0183121,0.000344551,0.0183176,-0.00353882,1.55503,0.0135463,0.0355711,1553,1737,4.95483,-16.335
336,-713,4.86719,16.4333,-0.00390848,0.0164116,-0.000329293,0.0164169,-0.00391381,-1.5546,0.0124559,0.0416954,1560,1737,4.86724,-16.4333
343,-713,5.15039,15.7905,0,0,0,0,0,0,0,-1,1567,1737,5.15037,-15.7906
350,-713,5.33167,15.6259,0,0,0,0,0,0,0,-1,1574,1737,5.33165,-15.6258
357,-713,5.60242,15.5251,0,0,0,0,0,0,0,-1,1581,1737,5.60246,-15.5251
364,-713,4.50037,16.4496,0,0,0,0,0,0,0,-1,1588,1737,4.50033,-16.4496
371,-713,4.81494,14.8032,0,0,0,0,0,0,0,-1,1595,1737,4.81494,-14.8033
378,-713,4.03223,15.8909,0,0,0,0,0,0,0,-1,1602,1737,4.03225,-15.8909
385,-713,3.31812,16.6185,0,0,0,0,0,0,0,-1,1609,1737,3.31809,-16.6185
392,-713,2.62109,17.3418,0,0,0,0,0,0,0,-1,1616,1737,2.6211,-17.3418
399,-713,1.93323,14.2748,0,0,0,0,0,0,0,-1,1623,1737,1.93325,-14.2748
406,-713,2.13525,15.2334,0,0,0,0,0,0,0,-1,1630,1737,2.13526,-15.2334
413,-713,2.59546,16.7579,0,0,0,0,0,0,0,-1,1637,1737,2.5955,-16.7579
420,-713,0,0,0,0,0,0,0,0,0,-1,1644,1737,0,0
427,-713,0,0,0,0,0,0,0,0,0,-1,1651,1737,0,0
434,-713,0,0,0,0,0,0,0,0,0,-1,1658,1737,0,0
441,-713,0,0,0,0,0,0,0,0,0,-1,1665,1737,0,0
448,-713,0,0,0,0,0,0,0,0,0,-1,1672,1737,0,0
455,-713,0,0,0,0,0,0,0,0,0,-1,1679,1737,0,0
462,-713,0,0,0,0,0,0,0,0,0,-1,1686,1737,0,0
469,-713,0,0,0,0,0,0,0,0,0,-1,1693,1737,0,0
476,-713,0,0,0,0,0,0,0,0,0,-1,1700,1737,0,0
483,-713,0,0,0,0,0,0,0,0,0,-1,1707,1737,0,0
490,-713,0,0,0,0,0,0,0,0,0,-1,1714,1737,0,0
497,-713,0,0,0,0,0,0,0,0,0,-1,1721,1737,0,0
504,-713,0,0,0,0,0,0,0,0,0,-1,1728,1737,0,0
511,-713,0,0,0,0,0,0,0,0,0,-1,1735,1737,0,0
518,-713,0,0,0,0,0,0,0,0,0,-1,1742,1737,0,0
525,-713,0,0,0,0,0,0,0,0,0,-1,1749,1737,0,0
532,-713,0,0,0,0,0,0,0,0,0,-1,1756,1737,0,0
539,-713,0,0,0,0,0,0,0,0,0,-1,1763,1737,0,0
546,-713,0,0,0,0,0,0,0,0,0,-1,1770,1737,0,0
553,-713,0,0,0,0,0,0,0,0,0,-1,1777,1737,0,0
560,-713,0,0,0,0,0,0,0,0,0,-1,1784,1737,0,0
567,-713,0,0,0,0,0,0,0,0,0,-1,1791,1737,0,0
574,-713,0,0,0,0,0,0,0,0,0,-1,1798,1737,0,0
581,-713,0,0,0,0,0,0,0,0,0,-1,1805,1737,0,0
588,-713,0,0,0,0,0,0,0,0,0,-1,1812,1737,0,0
595,-713,0,0,0,0,0,0,0,0,0,-1,1819,1737,0,0
602,-713,0,0,0,0,0,0,0,0,0,-1,1826,1737,0,0
609,-713,0,0,0,0,0,0,0,0,0,-1,1833,1737,0,0
616,-713,0,0,0,0,0,0,0,0,0,-1,1840,1737,0,0
623,-713,0,0,0,0,0,0,0,0,0,-1,1847,1737,0,0
630,-713,0,0,0,0,0,0,0,0,0,-1,1854,1737,0,0
637,-713,0,0,0,0,0,0,0,0,0,-1,1861,1737,0,0
644,-713,0,0,0,0,0,0,0,0,0,-1,1868,1737,0,0
651,-713,0,0,0,0,0,0,0,0,0,-1,1875,1737,0,0
658,-713,0,0,0,0,0,0,0,0,0,-1,1882,1737,0,0
665,-713,0,0,0,0,0,0,0,0,0,-1,1889,1737,0,0
672,-713,0,0,0,0,0,0,0,0,0,-1,1896,1737,0,0
679,-713,0,0,0,0,0,0,0,0,0,-1,1903,1737,0,0
686,-713,0,0,0,0,0,0,0,0,0,-1,1910,1737,0,0
693,-713,0,0,0,0,0,0,0,0,0,-1,1917,1737,0,0
700,-713,0,0,0,0,0,0,0,0,0,-1,1924,1737,0,0
707,-713,0,0,0,0,0,0,0,0,0,-1,1931,1737,0,0
714,-713,0,0,0,0,0,0,0,0,0,-1,1938,1737,0,0
721,-713,0,0,0,0,0,0,0,0,0,-1,1945,1737,0,0
728,-713,0,0,0,0,0,0,0,0,0,-1,1952,1737,0,0
735,-713,0,0,0,0,0,0,0,0,0,-1,1959,1737,0,0
742,-713,0,0,0,0,0,0,0,0,0,-1,1966,1737,0,0
749,-713,0,0,0,0,0,0,0,0,0,-1,1973,1737,0,0
756,-713,0,0,0,0,0,0,0,0,0,-1,1980,1737,0,0
763,-713,0,0,0,0,0,0,0,0,0,-1,1987,1737,0,0
770,-713,0,0,0,0,0,0,0,0,0,-1,1994,1737,0,0
777,-713,0,0,0,0,0,0,0,0,0,-1,2001,1737,0,0
784,-713,0,0,0,0,0,0,0,0,0,-1,2008,1737,0,0
791,-713,0,0,0,0,0,0,0,0,0,-1,2015,1737,0,0
798,-713,0,0,0,0,0,0,0,0,0,-1,2022,1737,0,0
805,-713,0,0,0,0,0,0,0,0,0,-1,2029,1737,0,0
812,-713,0,0,0,0,0,0,0,0,0,-1,2036,1737,0,0
-700,-720,0,0,0,0,0,0,0,0,0,-1,524,1744,0,0
-693,-720,0,0,0,0,0,0,0,0,0,-1,531,1744,0,0
-686,-720,0,0,0,0,0,0,0,0,0,-1,538,1744,0,0
-679,-720,0,0,0,0,0,0,0,0,0,-1,545,1744,0,0
-672,-720,0,0,0,0,0,0,0,0,0,-1,552,1744,0,0
-665,-720,0,0,0,0,0,0,0,0,0,-1,559,1744,0,0
-658,-720,0,0,0,0,0,0,0,0,0,-1,566,1744,0,0
-651,-720,0,0,0,0,0,0,0,0,0,-1,573,1744,0,0
-644,-720,0,0,0,0,0,0,0,0,0,-1,580,1744,0,0
-637,-720,0,0,0,0,0,0,0,0,0,-1,587,1744,0,0
-630,-720,0,0,0,0,0,0,0,0,0,-1,594,1744,0,0
-623,-720,0,0,0,0,0,0,0,0,0,-1,601,1744,0,0
-616,-720,0,0,0,0,0,0,0,0,0,-1,608,1744,0,0
-609,-720,0,0,0,0,0,0,0,0,0,-1,615,1744,0,0
-602,-720,0,0,0,0,0,0,0,0,0,-1,622,1744,0,0
-595,-720,0,0,0,0,0,0,0,0,0,-1,629,1744,0,0
-588,-720,0,0,0,0,0,0,0,0,0,-1,636,1744,0,0
-581,-720,0,0,0,0,0,0,0,0,0,-1,643,1744,0,0
-574,-720,0,0,0,0,0,0,0,0,0,-1,650,1744,0,0
-567,-720,0,0,0,0,0,0,0,0,0,-1,657,1744,0,0
-560,-720,0,0,0,0,0,0,0,0,0,-1,664,1744,0,0
-553,-720,0,0,0,0,0,0,0,0,0,-1,671,1744,0,0
-546,-720,0,0,0,0,0,0,0,0,0,-1,678,1744,0,0
-539,-720,0,0,0,0,0,0,0,0,0,-1,685,1744,0,0
-532,-720,0,0,0,0,0,0,0,0,0,-1,692,1744,0,0
-525,-720,0,0,0,0,0,0,0,0,0,-1,699,1744,0,0
-518,-720,0,0,0,0,0,0,0,0,0,-1,706,1744,0,0
-511,-720,0,0,0,0,0,0,0,0,0,-1,713,1744,0,0
-504,-720,0,0,0,0,0,0,0,0,0,-1,720,1744,0,0
-497,-720,0,0,0,0,0,0,0,0,0,-1,727,1744,0,0
-490,-720,0,0,0,0,0,0,0,0,0,-1,734,1744,0,0
-483,-720,0,0,0,0,0,0,0,0,0,-1,741,1744,0,0
-476,-720,0,0,0,0,0,0,0,0,0,-1,748,1744,0,0
-469,-720,0,0,0,0,0,0,0,0,0,-1,755,1744,0,0
-462,-720,0,0,0,0,0,0,0,0,0,-1,762,1744,0,0
-455,-720,0,0,0,0,0,0,0,0,0,-1,769,1744,0,0
-448,-720,0,0,0,0,0,0,0,0,0,-1,776,1744,0,0
-441,-720,0,0,0,0,0,0,0,0,0,-1,783,1744,0,0
-434,-720,0,0,0,0,0,0,0,0,0,-1,790,1744,0,0
-427,-720,0,0,0,0,0,0,0,0,0,-1,797,1744,0,0
-420,-720,0,0,0,0,0,0,0,0,0,-1,804,1744,0,0
-413,-720,0,0,0,0,0,0,0,0,0,-1,811,1744,0,0
-406,-720,0,0,0,0,0,0,0,0,0,-1,818,1744,0,0
-399,-720,0,0,0,0,0,0,0,0,0,-1,825,1744,0,0
-392,-720,0,0,0,0,0,0,0,0,0,-1,832,1744,0,0
-385,-720,0,0,0,0,0,0,0,0,0,-1,839,1744,0,0
-378,-720,0,0,0,0,0,0,0,0,0,-1,846,1744,0,0
-371,-720,0,0,0,0,0,0,0,0,0,-1,853,1744,0,0
-364,-720,0,0,0,0,0,0,0,0,0,-1,860,1744,0,0
-357,-720,0,0,0,0,0,0,0,0,0,-1,867,1744,0,0
-350,-720,0,0,0,0,0,0,0,0,0,-1,874,1744,0,0
-343,-720,0,0,0,0,0,0,0,0,0,-1,881,1744,0,0
-336,-720,0,0,0,0,0,0,0,0,0,-1,888,1744,0,0
-329,-720,0,0,0,0,0,0,0,0,0,-1,895,1744,0,0
-322,-720,0,0,0,0,0,0,0,0,0,-1,902,1744,0,0
-315,-720,0,0,0,0,0,0,0,0,0,-1,909,1744,0,0
-308,-720,0,0,0,0,0,0,0,0,0,-1,916,1744,0,0
-301,-720,0,0,0,0,0,0,0,0,0,-1,923,1744,0,0
-294,-720,0,0,0,0,0,0,0,0,0,-1,930,1744,0,0
-287,-720,0,0,0,0,0,0,0,0,0,-1,937,1744,0,0
-280,-720,6.3175,15.5583,0,0,0,0,0,0,0,-1,944,1744,6.3175,-15.5584
-273,-720,6.08392,14.9034,0,0,0,0,0,0,0,-1,951,1744,6.08392,-14.9035
-266,-720,7.28027,13.3165,0,0,0,0,0,0,0,-1,958,1744,7.28026,-13.3166
-259,-720,2.38904,5.20947,0,0,0,0,0,0,0,-1,965,1744,2.38906,-5.20952
-252,-720,3.71014,6.78967,0,0,0,0,0,0,0,-1,972,1744,3.71016,-6.78973
-245,-720,5.77435,17.4977,0,0,0,0,0,0,0,-1,979,1744,5.77436,-17.4977
-238,-720,3.93689,16.0585,0,0,0,0,0,0,0,-1,986,1744,3.93691,-16.0585
-231,-720,5.28387,17.4906,0,0,0,0,0,0,0,-1,993,1744,5.28387,-17.4907
-224,-720,3.30579,14.354,0,0,0,0,0,0,0,-1,1000,1744,3.30581,-14.354
-217,-720,3.57434,14.5282,0,0,0,0,0,0,0,-1,1007,1744,3.57433,-14.5282
-210,-720,4.71362,16.2373,0,0,0,0,0,0,0,-1,1014,1744,4.71365,-16.2373
-203,-720,4.98962,16.0298,0,0,0,0,0,0,0,-1,1021,1744,4.98962,-16.0298
-196,-720,5.104,16.0149,0,0,0,0,0,0,0,-1,1028,1744,5.10397,-16.0149
-189,-720,4.91101,15.7029,0,0,0,0,0,0,0,-1,1035,1744,4.91099,-15.7029
-182,-720,4.9762,16.0184,-0.00395971,-0.00274726,-0.00146429,-0.00176866,-0.00493831,-0.981659,0.00288912,0.044848,1042,1744,4.97624,-16.0184
-175,-720,5.08643,16.2235,-0.00351461,-0.00324294,-0.00105754,-0.00231255,-0.004445,-0.849271,0.00256703,0.0460227,1049,1744,5.08639,-16.2235
-168,-720,5.20667,16.3115,-0.00286438,-0.00194728,-0.00070188,-0.00156744,-0.00324422,-1.07475,0.00187341,0.0369238,1056,1744,5.20671,-16.3115
-161,-720,4.99048,16.3995,-0.00199956,-7.54411e-05,0.000657589,0.000127824,-0.00220283,1.27101,0.00151296,0.0298691,1063,1744,4.99053,-16.3996
-154,-720,5.02307,16.5435,-0.00119895,0.00107419,0.00155938,0.00186725,-0.00199201,1.10031,0.00222853,0.0227826,1070,1744,5.02309,-16.5435
-147,-720,4.99524,16.7485,-0.000624726,0.00230972,0.00215353,0.00344835,-0.00176335,1.08443,0.00306095,0.0219936,1077,1744,4.99528,-16.7485
-140,-720,5.02332,16.866,0.00027731,0.00326447,0.00326889,0.00536483,-0.00182305,0.99969,0.00431459,0.0183746,1084,1744,5.02332,-16.8659
-133,-720,4.99792,16.9137,0.00070715,0.00296273,0.00295242,0.00499542,-0.00132555,0.96784,0.00384898,0.0123674,1091,1744,4.99797,-16.9137
-126,-720,4.99121,17.0225,0.000991299,0.00258619,0.00261056,0.00451838,-0.000940895,0.933631,0.00336996,0.0119415,1098,1744,4.99124,-17.0225
-119,-720,4.99304,17.1416,0.00127178,0.00223689,0.00232431,0.0041282,-0.000619536,0.88775,0.00298019,0.0139945,1105,1744,4.9931,-17.1417
-112,-720,4.97107,17.2371,0.00156282,0.00188733,0.00204191,0.00377343,-0.000323274,0.825046,0.00263001,0.01318,1112,1744,4.97113,-17.2371
-105,-720,4.95544,17.3503,0.00170673,0.00155482,0.00167632,0.00330882,-4.72667e-05,0.762758,0.0022218,0.0138269,1119,1744,4.95546,-17.3503
-98,-720,4.94604,17.4518,0.00166087,0.00123012,0.00137709,0.00283933,5.16654e-05,0.707828,0.0018759,0.0108151,1126,1744,4.946,-17.4518
-91,-720,4.93628,17.5388,0.00146507,0.000840841,0.00105466,0.00225283,5.30831e-05,0.641534,0.00148451,0.00951371,1133,1744,4.93629,-17.5389
-84,-720,4.92542,17.6553,0.0012208,0.000858302,0.000791004,0.00185105,0.000228046,0.672774,0.00116548,0.0102316,1140,1744,4.92542,-17.6553
-77,-720,4.9281,17.7804,0.000995651,0.000801086,0.000633693,0.00153949,0.000257251,0.709234,0.000952228,0.0123028,1147,1744,4.92804,-17.7804
-70,-720,4.93604,17.8553,0.000857037,0.000924068,0.000440162,0.00133199,0.000449116,0.823397,0.000782498,0.0110035,1154,1744,4.93608,-17.8553
-63,-720,4.91833,17.9246,0.000350017,0.000629461,0.000155918,0.000699102,0.000280376,1.15073,0.000406253,0.0104899,1161,1744,4.91835,-17.9246
-56,-720,4.92212,18.0114,2.10527e-05,0.000450403,7.95955e-05,0.000464684,6.77181e-06,1.39327,0.000307557,0.0120544,1168,1744,4.92211,-18.0113
-49,-720,4.90601,18.0728,1.08144e-05,0.000236919,8.50785e-05,0.000265355,-1.76225e-05,1.24823,0.000183061,0.0177862,1175,1744,4.906,-18.0727
-42,-720,4.88269,18.1307,0.000201589,-4.6958e-05,0.000230667,0.000339329,-0.000184699,0.538314,0.000306907,0.0197447,1182,1744,4.88264,-18.1308
-35,-720,4.922,18.2157,0.000471841,-0.000541408,0.000370684,0.000592971,-0.000662537,0.315834,0.000725239,0.0172229,1189,1744,4.922,-18.2156
-28,-720,4.92749,18.2865,0.000695497,-0.00101674,0.000555557,0.000859958,-0.0011812,0.28781,0.00118332,0.0102286,1196,1744,4.92753,-18.2865
-21,-720,4.91541,18.3693,0.000857577,-0.0016115,0.000793753,0.00109073,-0.00184465,0.285704,0.00171328,0.00881073,1203,1744,4.91535,-18.3693
-14,-720,4.92871,18.415,0.000995922,-0.00227096,0.00107966,0.00132049,-0.00259553,0.292026,0.00230052,0.0111433,1210,1744,4.92873,-18.415
-7,-720,4.94373,18.4663,0.00111925,-0.00270643,0.0013798,0.00156497,-0.00315215,0.312451,0.00277434,0.0119796,1217,1744,4.94373,-18.4664
0,-720,4.94995,18.5068,0.00119014,-0.00301484,0.00160003,0.00172972,-0.00355442,0.325257,0.00311084,0.0129747,1224,1744,4.94992,-18.5068
7,-720,4.95642,18.5405,0.00122541,-0.0032031,0.00169923,0.00180227,-0.00377995,0.327273,0.00328963,0.0160412,1231,1744,4.95639,-18.5405
14,-720,4.96423,18.5782,0.00126255,-0.00332289,0.00167001,0.00180629,-0.00386663,0.314766,0.00334649,0.0144618,1238,1744,4.96425,-18.5782
21,-720,4.95044,18.6194,0.00124741,-0.00348351,0.00167746,0.00178182,-0.00401792,0.308419,0.00343044,0.0106603,1245,1744,4.9505,-18.6193
28,-720,4.93994,18.6597,0.00111922,-0.00371349,0.001791,0.0017106,-0.00430487,0.318923,0.00357907,0.0105266,1252,1744,4.93997,-18.6597
35,-720,4.94641,18.6854,0.000959328,-0.00376249,0.00186519,0.00160721,-0.00441037,0.334316,0.00359771,0.0107886,1259,1744,4.94646,-18.6854
42,-720,4.94897,18.7067,0.000811493,-0.0037002,0.0018492,0.00147256,-0.00436127,0.34333,0.0035031,0.0114225,1266,1744,4.94891,-18.7066
49,-720,4.95911,18.7202,0.000591348,-0.00374048,0.00183836,0.00126634,-0.00441547,0.351889,0.00344425,0.0116908,1273,1744,4.95909,-18.7203
56,-720,4.97424,18.7417,0.000346013,-0.00386287,0.00188321,0.00106561,-0.00458246,0.364989,0.00346523,0.0102886,1280,1744,4.97424,-18.7416
63,-720,4.97119,18.748,4.4292e-05,-0.00397655,0.00199728,0.000867756,-0.00480001,0.391059,0.00352504,0.0117007,1287,1744,4.97114,-18.7481
70,-720,4.98547,18.7732,-0.00024309,-0.00400478,0.0021952,0.000766826,-0.00501469,0.431185,0.00362587,0.0120194,1294,1744,4.98552,-18.7732
77,-720,5.00024,18.7927,-0.000505303,-0.00403772,0.00233064,0.000652762,-0.00519578,0.461154,0.00370068,0.0131594,1301,1744,5.00019,-18.7927
84,-720,5.0116,18.7841,-0.000730901,-0.00402721,0.00241369,0.000543667,-0.00530177,0.485842,0.00372897,0.0136921,1308,1744,5.01161,-18.7841
91,-720,5.01575,18.77,-0.000933672,-0.00405603,0.0024109,0.000377377,-0.00536708,0.498072,0.00371025,0.0136775,1315,1744,5.01578,-18.77
98,-720,4.9989,18.7567,-0.0011518,-0.00402377,0.00235065,0.000166772,-0.00534235,0.511204,0.00361844,0.0123256,1322,1744,4.99886,-18.7567
105,-720,4.99084,18.7473,-0.00124993,-0.00392529,0.00224683,2.72742e-05,-0.0052025,0.516897,0.00347746,0.0110236,1329,1744,4.99085,-18.7473
112,-720,5.01831,18.7341,-0.00125554,-0.00382718,0.00210228,-7.70343e-05,-0.00500569,0.510935,0.00331174,0.0105006,1336,1744,5.01834,-18.7341
119,-720,5.02148,18.7122,-0.00126353,-0.00369158,0.00186446,-0.000252687,-0.00470243,0.49681,0.00305421,0.0107544,1343,1744,5.02147,-18.7122
126,-720,5.02356,18.7041,-0.00115431,-0.00339997,0.00150613,-0.000398534,-0.00415575,0.465089,0.00264767,0.0109362,1350,1744,5.02361,-18.7041
133,-720,5.02405,18.6858,-0.000951386,-0.00300272,0.001124,-0.000455418,-0.00349869,0.415556,0.00219645,0.0125079,1357,1744,5.02407,-18.6857
140,-720,5.03247,18.6556,-0.000746027,-0.00264617,0.000851008,-0.000420618,-0.00297158,0.365225,0.0018568,0.0196537,1364,1744,5.03249,-18.6556
147,-720,5.03345,18.6155,-0.000570261,-0.00217893,0.000689666,-0.00031507,-0.00243412,0.354398,0.00152858,0.0203506,1371,1744,5.03344,-18.6154
154,-720,5.02954,18.5629,-0.000441279,-0.00164677,0.000538583,-0.000235709,-0.00185234,0.36462,0.0011643,0.0126838,1378,1744,5.02953,-18.5629
161,-720,5.04382,18.515,-0.000347656,-0.00111078,0.000406972,-0.000171351,-0.00128709,0.408805,0.000807026,0.00902353,1385,1744,5.04388,-18.515
168,-720,5.04456,18.4592,-0.000260704,-0.000651629,0.000222349,-0.000160118,-0.000752215,0.42483,0.00045754,0.00954312,1392,1744,5.04449,-18.4592
175,-720,5.03638,18.3787,-0.000282419,-0.000177013,-7.14136e-06,-0.000176531,-0.0002829,-1.50346,0.000164999,0.0150321,1399,1744,5.03635,-18.3787
182,-720,5.03809,18.3276,-0.000346524,0.000136596,-0.000178905,0.000195633,-0.000405561,-1.25206,0.000354083,0.0145995,1406,1744,5.03809,-18.3276
189,-720,5.03882,18.2712,-0.000394464,0.000381245,-0.000408869,0.000556955,-0.000570174,-1.16491,0.000650763,0.0117784,1413,1744,5.03882,-18.2712
196,-720,5.04871,18.2095,-0.000403574,0.000589778,-0.000707545,0.000957572,-0.000771367,-1.09142,0.00100013,0.0127025,1420,1744,5.04869,-18.2095
203,-720,5.02063,18.14,-0.000309753,0.000668269,-0.000939202,0.00123814,-0.000879625,-1.02542,0.00122852,0.0148095,1427,1744,5.02066,-18.14
210,-720,5.02234,18.0878,-0.000260891,0.000623358,-0.00118982,0.00145054,-0.00108807,-0.963287,0.00147064,0.0123503,1434,1744,5.02237,-18.0877
217,-720,5.03992,18.0037,-0.000258315,0.000534176,-0.00143693,0.00162849,-0.00135263,-0.919934,0.00172361,0.0111442,1441,1744,5.03993,-18.0036
224,-720,5.03357,17.908,-0.000157971,0.000308959,-0.00167578,0.00176745,-0.00161647,-0.854611,0.00195436,0.009056,1448,1744,5.03359,-17.908
231,-720,5.03491,17.8256,-7.09309e-05,8.32989e-05,-0.0018925,0.00190025,-0.00188789,-0.805761,0.00218709,0.00973961,1455,1744,5.03488,-17.8256
238,-720,5.0249,17.7424,0.000134779,-0.000110747,-0.00205365,0.00206933,-0.0020453,-0.755545,0.0023756,0.00890184,1462,1744,5.02494,-17.7425
245,-720,5.0127,17.675,0.000425931,-0.000165226,-0.00220341,0.0023535,-0.00209279,-0.718723,0.00256854,0.0108687,1469,1744,5.01267,-17.6751
252,-720,5.00977,17.5718,0.000657273,-0.00016106,-0.00235064,0.00263409,-0.00213788,-0.699229,0.00276006,0.0100281,1476,1744,5.00979,-17.5718
259,-720,5.01001,17.4576,0.000629849,0.00218759,-0.00221552,0.00375716,-0.000939724,-0.954426,0.00286977,0.00961146,1483,1744,5.01006,-17.4576
266,-720,4.99023,17.36,0.00046773,0.00499443,-0.00165973,0.00553777,-7.56027e-05,-1.25443,0.0037173,0.00828678,1490,1744,4.9902,-17.3599
273,-720,4.98608,17.2642,0.000272767,0.00803482,-0.00145572,0.00829885,8.73813e-06,-1.39137,0.00552966,0.0149668,1497,1744,4.98609,-17.2642
280,-720,4.93604,17.1373,-1.20282e-06,0.0111333,-0.000820279,0.0111934,-6.1309e-05,-1.49765,0.00748279,0.0216171,1504,1744,4.93603,-17.1374
287,-720,4.88452,16.9536,-0.000369259,0.0144062,-1.47935e-05,0.0144062,-0.000369273,-1.5698,0.00972956,0.0332502,1511,1744,4.88452,-16.9536
294,-720,5.01611,16.7876,-0.000965482,0.0184652,0.000746027,0.0184938,-0.000994083,1.53248,0.0126735,0.038529,1518,1744,5.01612,-16.7876
301,-720,5.05444,16.7528,-0.00153188,0.0223962,0.0016223,0.0225057,-0.00164137,1.50341,0.0155798,0.0377022,1525,1744,5.05445,-16.7528
308,-720,4.99988,16.5995,-0.00296547,0.0255084,0.00224423,0.0256842,-0.00314126,1.49262,0.0182602,0.0370426,1532,1744,4.99983,-16.5995
315,-720,5.08691,16.2271,-0.0044452,0.026977,0.00291773,0.0272457,-0.00471383,1.47899,0.0199218,0.041935,1539,1744,5.08695,-16.2271
322,-720,5.16333,16.058,-0.00426095,0.0280978,0.00221178,0.0282482,-0.00441143,1.50287,0.0204618,0.0493313,1546,1744,5.16338,-16.058
329,-720,5.20886,16.1737,0,0,0,0,0,0,0,-1,1553,1744,5.20881,-16.1737
336,-720,4.63611,16.8147,0,0,0,0,0,0,0,-1,1560,1744,4.63614,-16.8147
343,-720,5.19104,15.8707,0,0,0,0,0,0,0,-1,1567,1744,5.19098,-15.8707
350,-720,4.0741,11.1836,0,0,0,0,0,0,0,-1,1574,1744,4.07412,-11.1836
357,-720,3.94836,13.0232,0,0,0,0,0,0,0,-1,1581,1744,3.94832,-13.0232
364,-720,4.76489,16.7312,0,0,0,0,0,0,0,-1,1588,1744,4.76492,-16.7312
371,-720,4.60352,14.8754,0,0,0,0,0,0,0,-1,1595,1744,4.60355,-14.8753
378,-720,3.32703,16.5928,0,0,0,0,0,0,0,-1,1602,1744,3.32701,-16.5927
385,-720,2.60999,17.3385,0,0,0,0,0,0,0,-1,1609,1744,2.61003,-17.3384
392,-720,0.0194092,12.0704,0,0,0,0,0,0,0,-1,1616,1744,0.019362,-12.0704
399,-720,-0.525269,12.6698,0,0,0,0,0,0,0,-1,1623,1744,-0.525208,-12.6698
406,-720,0,0,0,0,0,0,0,0,0,-1,1630,1744,0,0
413,-720,0,0,0,0,0,0,0,0,0,-1,1637,1744,0,0
420,-720,0,0,0,0,0,0,0,0,0,-1,1644,1744,0,0
427,-720,0,0,0,0,0,0,0,0,0,-1,1651,1744,0,0
434,-720,0,0,0,0,0,0,0,0,0,-1,1658,1744,0,0
441,-720,0,0,0,0,0,0,0,0,0,-1,1665,1744,0,0
448,-720,0,0,0,0,0,0,0,0,0,-1,1672,1744,0,0
455,-720,0,0,0,0,0,0,0,0,0,-1,1679,1744,0,0
462,-720,0,0,0,0,0,0,0,0,0,-1,1686,1744,0,0
469,-720,0,0,0,0,0,0,0,0,0,-1,1693,1744,0,0
476,-720,0,0,0,0,0,0,0,0,0,-1,1700,1744,0,0
483,-720,0,0,0,0,0,0,0,0,0,-1,1707,1744,0,0
490,-720,0,0,0,0,0,0,0,0,0,-1,1714,1744,0,0
497,-720,0,0,0,0,0,0,0,0,0,-1,1721,1744,0,0
504,-720,0,0,0,0,0,0,0,0,0,-1,1728,1744,0,0
511,-720,0,0,0,0,0,0,0,0,0,-1,1735,1744,0,0
518,-720,0,0,0,0,0,0,0,0,0,-1,1742,1744,0,0
525,-720,0,0,0,0,0,0,0,0,0,-1,1749,1744,0,0
532,-720,0,0,0,0,0,0,0,0,0,-1,1756,1744,0,0
539,-720,0,0,0,0,0,0,0,0,0,-1,1763,1744,0,0
546,-720,0,0,0,0,0,0,0,0,0,-1,1770,1744,0,0
553,-720,0,0,0,0,0,0,0,0,0,-1,1777,1744,0,0
560,-720,0,0,0,0,0,0,0,0,0,-1,1784,1744,0,0
567,-720,0,0,0,0,0,0,0,0,0,-1,1791,1744,0,0
574,-720,0,0,0,0,0,0,0,0,0,-1,1798,1744,0,0
581,-720,0,0,0,0,0,0,0,0,0,-1,1805,1744,0,0
588,-720,0,0,0,0,0,0,0,0,0,-1,1812,1744,0,0
595,-720,0,0,0,0,0,0,0,0,0,-1,1819,1744,0,0
602,-720,0,0,0,0,0,0,0,0,0,-1,1826,1744,0,0
609,-720,0,0,0,0,0,0,0,0,0,-1,1833,1744,0,0
616,-720,0,0,0,0,0,0,0,0,0,-1,1840,1744,0,0
623,-720,0,0,0,0,0,0,0,0,0,-1,1847,1744,0,0
630,-720,0,0,0,0,0,0,0,0,0,-1,1854,1744,0,0
637,-720,0,0,0,0,0,0,0,0,0,-1,1861,1744,0,0
644,-720,0,0,0,0,0,0,0,0,0,-1,1868,1744,0,0
651,-720,0,0,0,0,0,0,0,0,0,-1,1875,1744,0,0
658,-720,0,0,0,0,0,0,0,0,0,-1,1882,1744,0,0
665,-720,0,0,0,0,0,0,0,0,0,-1,1889,1744,0,0
672,-720,0,0,0,0,0,0,0,0,0,-1,1896,1744,0,0
679,-720,0,0,0,0,0,0,0,0,0,-1,1903,1744,0,0
686,-720,0,0,0,0,0,0,0,0,0,-1,1910,1744,0,0
693,-720,0,0,0,0,0,0,0,0,0,-1,1917,1744,0,0
700,-720,0,0,0,0,0,0,0,0,0,-1,1924,1744,0,0
707,-720,0,0,0,0,0,0,0,0,0,-1,1931,1744,0,0
714,-720,0,0,0,0,0,0,0,0,0,-1,1938,1744,0,0
721,-720,0,0,0,0,0,0,0,0,0,-1,1945,1744,0,0
728,-720,0,0,0,0,0,0,0,0,0,-1,1952,1744,0,0
735,-720,0,0,0,0,0,0,0,0,0,-1,1959,1744,0,0
742,-720,0,0,0,0,0,0,0,0,0,-1,1966,1744,0,0
749,-720,0,0,0,0,0,0,0,0,0,-1,1973,1744,0,0
756,-720,0,0,0,0,0,0,0,0,0,-1,1980,1744,0,0
763,-720,0,0,0,0,0,0,0,0,0,-1,1987,1744,0,0
770,-720,0,0,0,0,0,0,0,0,0,-1,1994,1744,0,0
777,-720,0,0,0,0,0,0,0,0,0,-1,2001,1744,0,0
784,-720,0,0,0,0,0,0,0,0,0,-1,2008,1744,0,0
791,-720,0,0,0,0,0,0,0,0,0,-1,2015,1744,0,0
798,-720,0,0,0,0,0,0,0,0,0,-1,2022,1744,0,0
805,-720,0,0,0,0,0,0,0,0,0,-1,2029,1744,0,0
812,-720,0,0,0,0,0,0,0,0,0,-1,2036,1744,0,0
-700,-727,0,0,0,0,0,0,0,0,0,-1,524,1751,0,0
-693,-727,0,0,0,0,0,0,0,0,0,-1,531,1751,0,0
-686,-727,0,0,0,0,0,0,0,0,0,-1,538,1751,0,0
-679,-727,0,0,0,0,0,0,0,0,0,-1,545,1751,0,0
-672,-727,0,0,0,0,0,0,0,0,0,-1,552,1751,0,0
-665,-727,0,0,0,0,0,0,0,0,0,-1,559,1751,0,0
-658,-727,0,0,0,0,0,0,0,0,0,-1,566,1751,0,0
-651,-727,0,0,0,0,0,0,0,0,0,-1,573,1751,0,0
-644,-727,0,0,0,0,0,0,0,0,0,-1,580,1751,0,0
-637,-727,0,0,0,0,0,0,0,0,0,-1,587,1751,0,0
-630,-727,0,0,0,0,0,0,0,0,0,-1,594,1751,0,0
-623,-727,0,0,0,0,0,0,0,0,0,-1,601,1751,0,0
-616,-727,0,0,0,0,0,0,0,0,0,-1,608,1751,0,0
-609,-727,0,0,0,0,0,0,0,0,0,-1,615,1751,0,0
-602,-727,0,0,0,0,0,0,0,0,0,-1,622,1751,0,0
-595,-727,0,0,0,0,0,0,0,0,0,-1,629,1751,0,0
-588,-727,0,0,0,0,0,0,0,0,0,-1,636,1751,0,0
-581,-727,0,0,0,0,0,0,0,0,0,-1,643,1751,0,0
-574,-727,0,0,0,0,0,0,0,0,0,-1,650,1751,0,0
-567,-727,0,0,0,0,0,0,0,0,0,-1,657,1751,0,0
-560,-727,0,0,0,0,0,0,0,0,0,-1,664,1751,0,0
-553,-727,0,0,0,0,0,0,0,0,0,-1,671,1751,0,0
-546,-727,0,0,0,0,0,0,0,0,0,-1,678,1751,0,0
-539,-727,0,0,0,0,0,0,0,0,0,-1,685,1751,0,0
-532,-727,0,0,0,0,0,0,0,0,0,-1,692,1751,0,0
-525,-727,0,0,0,0,0,0,0,0,0,-1,699,1751,0,0
-518,-727,0,0,0,0,0,0,0,0,0,-1,706,1751,0,0
-511,-727,0,0,0,0,0,0,0,0,0,-1,713,1751,0,0
-504,-727,0,0,0,0,0,0,0,0,0,-1,720,1751,0,0
-497,-727,0,0,0,0,0,0,0,0,0,-1,727,1751,0,0
-490,-727,0,0,0,0,0,0,0,0,0,-1,734,1751,0,0
-483,-727,0,0,0,0,0,0,0,0,0,-1,741,1751,0,0
-476,-727,0,0,0,0,0,0,0,0,0,-1,748,1751,0,0
-469,-727,0,0,0,0,0,0,0,0,0,-1,755,1751,0,0
-462,-727,0,0,0,0,0,0,0,0,0,-1,762,1751,0,0
-455,-727,0,0,0,0,0,0,0,0,0,-1,769,1751,0,0
-448,-727,0,0,0,0,0,0,0,0,0,-1,776,1751,0,0
-441,-727,0,0,0,0,0,0,0,0,0,-1,783,1751,0,0
-434,-727,0,0,0,0,0,0,0,0,0,-1,790,1751,0,0
-427,-727,0,0,0,0,0,0,0,0,0,-1,797,1751,0,0
-420,-727,0,0,0,0,0,0,0,0,0,-1,804,1751,0,0
-413,-727,0,0,0,0,0,0,0,0,0,-1,811,1751,0,0
-406,-727,0,0,0,0,0,0,0,0,0,-1,818,1751,0,0
-399,-727,0,0,0,0,0,0,0,0,0,-1,825,1751,0,0
-392,-727,0,0,0,0,0,0,0,0,0,-1,832,1751,0,0
-385,-727,0,0,0,0,0,0,0,0,0,-1,839,1751,0,0
-378,-727,0,0,0,0,0,0,0,0,0,-1,846,1751,0,0
-371,-727,0,0,0,0,0,0,0,0,0,-1,853,1751,0,0
-364,-727,0,0,0,0,0,0,0,0,0,-1,860,1751,0,0
-357,-727,0,0,0,0,0,0,0,0,0,-1,867,1751,0,0
-350,-727,0,0,0,0,0,0,0,0,0,-1,874,1751,0,0
-343,-727,0,0,0,0,0,0,0,0,0,-1,881,1751,0,0
-336,-727,0,0,0,0,0,0,0,0,0,-1,888,1751,0,0
-329,-727,0,0,0,0,0,0,0,0,0,-1,895,1751,0,0
-322,-727,0,0,0,0,0,0,0,0,0,-1,902,1751,0,0
-315,-727,0,0,0,0,0,0,0,0,0,-1,909,1751,0,0
-308,-727,0,0,0,0,0,0,0,0,0,-1,916,1751,0,0
-301,-727,0,0,0,0,0,0,0,0,0,-1,923,1751,0,0
-294,-727,0,0,0,0,0,0,0,0,0,-1,930,1751,0,0
-287,-727,0,0,0,0,0,0,0,0,0,-1,937,1751,0,0
-280,-727,0,0,0,0,0,0,0,0,0,-1,944,1751,0,0
-273,-727,0,0,0,0,0,0,0,0,0,-1,951,1751,0,0
-266,-727,4.24805,7.61145,0,0,0,0,0,0,0,-1,958,1751,4.24802,-7.6115
-259,-727,3.65228,5.4082,0,0,0,0,0,0,0,-1,965,1751,3.65229,-5.40818
-252,-727,7.05829,12.9366,0,0,0,0,0,0,0,-1,972,1751,7.0583,-12.9366
-245,-727,5.67279,14.0586,0,0,0,0,0,0,0,-1,979,1751,5.67278,-14.0586
-238,-727,6.02545,16.3462,0,0,0,0,0,0,0,-1,986,1751,6.02544,-16.3462
-231,-727,5.58893,18.0552,0,0,0,0,0,0,0,-1,993,1751,5.5889,-18.0551
-224,-727,5.48376,17.0471,0,0,0,0,0,0,0,-1,1000,1751,5.48379,-17.0471
-217,-727,5.47406,16.6461,0,0,0,0,0,0,0,-1,1007,1751,5.47409,-16.6462
-210,-727,4.4837,16.8502,0,0,0,0,0,0,0,-1,1014,1751,4.48372,-16.8502
-203,-727,4.427,17.1071,0,0,0,0,0,0,0,-1,1021,1751,4.42696,-17.107
-196,-727,4.11609,15.9137,0,0,0,0,0,0,0,-1,1028,1751,4.11607,-15.9137
-189,-727,4.86548,15.6088,0,0,0,0,0,0,0,-1,1035,1751,4.86544,-15.6088
-182,-727,4.97729,16.1042,0,0,0,0,0,0,0,-1,1042,1751,4.9773,-16.1042
-175,-727,5.24023,16.4237,0,0,0,0,0,0,0,-1,1049,1751,5.24022,-16.4237
-168,-727,5.37354,16.5391,0,0,0,0,0,0,0,-1,1056,1751,5.37357,-16.5391
-161,-727,4.95679,16.5969,0,0,0,0,0,0,0,-1,1063,1751,4.95679,-16.5969
-154,-727,5.17578,16.3817,-0.00146537,0.00159361,0.00189129,0.00249647,-0.00236823,1.12541,0.00280896,0.0447892,1070,1751,5.17583,-16.3817
-147,-727,4.99756,16.5291,-0.000590583,0.00317056,0.0028615,0.00471413,-0.00213415,1.07611,0.00404631,0.0398414,1077,1751,4.99757,-16.529
-140,-727,4.99609,16.6465,0.000750887,0.00448043,0.00455755,0.00753995,-0.00230863,0.979588,0.00594745,0.0281555,1084,1751,4.99613,-16.6465
-133,-727,5.10718,16.7931,0.0013399,0.00404254,0.00408356,0.00699256,-0.00161012,0.945185,0.00528088,0.0207058,1091,1751,5.10712,-16.7931
-126,-727,5.04565,16.9702,0.00173221,0.00351201,0.00357288,0.00630415,-0.00105993,0.90745,0.00459699,0.0143616,1098,1751,5.04568,-16.9702
-119,-727,5.05225,17.1401,0.00209007,0.00299151,0.00310681,0.00568012,-0.000598547,0.857433,0.00400122,0.012528,1105,1751,5.05225,-17.1401
-112,-727,5.07397,17.2325,0.00242477,0.00252621,0.00266767,0.00514364,-0.000192661,0.794903,0.00349508,0.0127459,1112,1751,5.07394,-17.2325
-105,-727,5.06042,17.3518,0.00253428,0.00210944,0.00216293,0.00449519,0.000148528,0.73645,0.00294853,0.0134012,1119,1751,5.06042,-17.3519
-98,-727,5.03186,17.4547,0.00239262,0.00170786,0.00173549,0.00381918,0.000281306,0.688007,0.00245772,0.0113594,1126,1751,5.0318,-17.4547
-91,-727,5.03979,17.5392,0.00205443,0.00117674,0.00126613,0.00295562,0.000275556,0.618576,0.00188528,0.0103829,1133,1751,5.03978,-17.5391
-84,-727,5.02344,17.6586,0.0016466,0.00115263,0.000869396,0.00230341,0.000495818,0.647002,0.00139992,0.0105644,1140,1751,5.02347,-17.6586
-77,-727,5.01489,17.7692,0.00120387,0.000988511,0.000654285,0.00175928,0.000433103,0.703843,0.00105844,0.0113991,1147,1751,5.01494,-17.7691
-70,-727,5.01343,17.853,0.000868058,0.00118245,0.000407907,0.0014624,0.000588105,0.969313,0.000849689,0.0123722,1154,1751,5.01344,-17.8531
-63,-727,5.00244,17.9421,-0.00018319,0.000874012,-0.000101172,0.000883606,-0.000192785,-1.47624,0.000662746,0.00982844,1161,1751,5.00243,-17.9421
-56,-727,4.99731,18.0166,-0.000981153,0.000851263,-0.000283956,0.000894257,-0.00102415,-1.42053,0.00110844,0.00988046,1168,1751,4.99731,-18.0166
-49,-727,4.99023,18.0797,-0.00144109,0.000992778,-0.00046083,0.00107711,-0.00152542,-1.3898,0.00150998,0.0125384,1175,1751,4.99023,-18.0797
-42,-727,4.96118,18.1406,-0.00141182,0.00105262,-0.000407165,0.00111815,-0.00147735,-1.41123,0.00150328,0.0155319,1182,1751,4.96114,-18.1406
-35,-727,4.93445,18.2026,-0.00118548,0.000710703,-0.000417288,0.000798472,-0.00127325,-1.36349,0.00120653,0.014179,1189,1751,4.9345,-18.2026
-28,-727,4.97375,18.28,-0.00102794,0.000494776,-0.000346299,0.000569833,-0.00110299,-1.35736,0.000982022,0.00884741,1196,1751,4.97378,-18.28
-21,-727,4.97058,18.3599,-0.000909671,0.000145808,-0.000215886,0.000188258,-0.000952121,-1.37664,0.000705918,0.0101657,1203,1751,4.97064,-18.3598
-14,-727,4.97668,18.4188,-0.000721372,-0.000321039,4.85749e-07,-0.000321038,-0.000721373,1.56958,0.000417323,0.0114772,1210,1751,4.97672,-18.4188
-7,-727,4.98669,18.4658,-0.00050131,-0.000670471,0.000243033,-0.00032856,-0.000843221,0.617944,0.00049077,0.0143752,1217,1751,4.98673,-18.4658
0,-727,5.00488,18.4979,-0.000300209,-0.00099052,0.000450141,-7.81264e-05,-0.0012126,0.458324,0.000783659,0.0143881,1224,1751,5.00486,-18.498
7,-727,4.99475,18.5343,-9.32658e-05,-0.00122888,0.000583364,0.000153002,-0.00147515,0.399455,0.0010382,0.0141065,1231,1751,4.9947,-18.5343
14,-727,4.97729,18.5773,0.000116547,-0.00145799,0.0006318,0.000338716,-0.00168016,0.338139,0.00124842,0.0141801,1238,1751,4.97724,-18.5773
21,-727,4.96765,18.6233,0.000308024,-0.00170172,0.000645319,0.000497389,-0.00189109,0.285433,0.00145514,0.0121742,1245,1751,4.9677,-18.6233
28,-727,4.98083,18.6571,0.000456079,-0.00193327,0.000681795,0.000636937,-0.00211413,0.259296,0.0016629,0.0102779,1252,1751,4.98087,-18.6571
35,-727,5.00696,18.6847,0.000597874,-0.00201784,0.000646575,0.000748972,-0.00216894,0.22957,0.00174989,0.0113571,1259,1751,5.00697,-18.6847
42,-727,4.99438,18.698,0.000707205,-0.00205953,0.000584287,0.000825536,-0.00217786,0.199819,0.00179164,0.0120904,1266,1751,4.99433,-18.698
49,-727,4.97791,18.7096,0.00186616,-0.00211932,0.000385277,0.00190306,-0.00215622,0.0954921,0.00234514,0.0105745,1273,1751,4.97792,-18.7095
56,-727,4.97522,18.7601,0.00289733,-0.00204999,0.000511617,0.00294968,-0.00210235,0.101975,0.00293043,0.00920335,1280,1751,4.97521,-18.7601
63,-727,4.97986,18.7667,0.00357138,-0.00208785,0.000564794,0.0036272,-0.00214367,0.098506,0.00336831,0.0116077,1287,1751,4.9799,-18.7667
70,-727,4.995,18.7675,0.0042652,-0.00196247,0.000743876,0.00435282,-0.00205009,0.117249,0.00377557,0.0136997,1294,1751,4.99503,-18.7675
77,-727,5.00793,18.7819,0.00497534,-0.00195211,0.000916369,0.00509451,-0.00207128,0.129318,0.00425814,0.0154902,1301,1751,5.00799,-18.7819
84,-727,5.01953,18.7446,0.00560735,-0.00192935,0.00114013,0.00577605,-0.00209804,0.146899,0.00470853,0.0162314,1308,1751,5.01954,-18.7447
91,-727,5.02075,18.7249,0.00603495,-0.00197631,0.00133673,0.0062521,-0.00219346,0.161046,0.00506025,0.0164685,1315,1751,5.02071,-18.7248
98,-727,5.00159,18.7314,0.00612104,-0.00199277,0.00154164,0.00640408,-0.00227581,0.181575,0.00519684,0.0132102,1322,1751,5.00156,-18.7315
105,-727,4.99561,18.7347,0.00596364,-0.00199606,0.00170755,0.00631449,-0.00234691,0.202648,0.00517259,0.012243,1329,1751,4.99567,-18.7348
112,-727,5.00024,18.7241,0.0055389,-0.00206192,0.00180979,0.00594782,-0.00247084,0.222218,0.00499678,0.0108006,1336,1751,5.00027,-18.7241
119,-727,5.00134,18.7144,0.00481222,-0.00209906,0.00178155,0.00524443,-0.00253127,0.238005,0.00457949,0.00853774,1343,1751,5.00138,-18.7144
126,-727,5.00708,18.6718,0.00393558,-0.00203604,0.00164779,0.00436009,-0.00246054,0.25214,0.00398847,0.0100219,1350,1751,5.00711,-18.6717
133,-727,5.01721,18.6587,0.00299323,-0.00189478,0.00143374,0.00338273,-0.00228428,0.265267,0.00329227,0.0150311,1357,1751,5.01727,-18.6586
140,-727,5.04749,18.6694,0.00209035,-0.00171162,0.0012295,0.0024533,-0.00207458,0.287051,0.00261722,0.0229034,1364,1751,5.04743,-18.6694
147,-727,5.03003,18.6188,0.00136363,-0.00137841,0.00103796,0.00171222,-0.001727,0.324005,0.00198564,0.0191421,1371,1751,5.02999,-18.6188
154,-727,5.01221,18.5421,-0.0001499,-0.000989806,0.00091983,0.000441308,-0.00158101,0.571252,0.00122784,0.0109246,1378,1751,5.01217,-18.5421
161,-727,5.00427,18.5067,-0.000869161,-0.000797309,0.000509172,-0.000322797,-0.00134367,0.820619,0.000809916,0.00833285,1385,1751,5.00432,-18.5067
168,-727,4.995,18.469,-0.000845101,-0.000380323,0.000283283,-0.000246305,-0.000979118,1.12891,0.000588096,0.0107704,1392,1751,4.99495,-18.4691
175,-727,5.0105,18.4086,-0.00101084,8.92486e-05,-9.26946e-05,9.70045e-05,-0.0010186,-1.48732,0.0007136,0.0156388,1399,1751,5.01045,-18.4085
182,-727,5.01526,18.3407,-0.00117498,0.000362531,-0.000378897,0.000450833,-0.00126328,-1.34183,0.00102603,0.0180092,1406,1751,5.01525,-18.3407
189,-727,4.97437,18.2684,-0.00118607,0.00058181,-0.000776772,0.000874614,-0.00147887,-1.21032,0.00137363,0.0113713,1413,1751,4.97436,-18.2684
196,-727,4.97815,18.2073,-0.00113925,0.00074265,-0.00128248,0.00139234,-0.00178894,-1.10189,0.00184146,0.0125992,1420,1751,4.97821,-18.2073
203,-727,4.95935,18.1279,-0.000964579,0.000769071,-0.00171517,0.00182401,-0.00201952,-1.01937,0.00222002,0.0157056,1427,1751,4.95934,-18.128
210,-727,4.9491,18.0831,-0.000804292,0.000734992,-0.00205689,0.00216152,-0.00223082,-0.964423,0.00253602,0.015373,1434,1751,4.94909,-18.0832
217,-727,4.9668,18.0078,-0.000695459,0.000644441,-0.00234395,0.00241231,-0.00246332,-0.924597,0.002815,0.0113494,1441,1751,4.96677,-18.0079
224,-727,4.96399,17.8875,-0.000522806,0.000370981,-0.00262094,0.00258286,-0.00273468,-0.86984,0.0030705,0.0117443,1448,1751,4.96395,-17.8875
231,-727,4.95105,17.8208,-0.000360612,8.1378e-05,-0.00286133,0.00273023,-0.00300946,-0.823939,0.00331512,0.00997684,1455,1751,4.95102,-17.8208
238,-727,4.95886,17.7358,-4.66137e-05,-0.0001838,-0.00303059,0.00291616,-0.00314658,-0.774083,0.00350117,0.0104037,1462,1751,4.95891,-17.7359
245,-727,4.94592,17.645,0.000386738,-0.000284986,-0.00318041,0.00324897,-0.00314722,-0.732791,0.003693,0.00977395,1469,1751,4.94589,-17.645
252,-727,4.92688,17.548,0.000756363,-0.000322101,-0.00331887,0.00357953,-0.00314526,-0.704865,0.00388526,0.0107529,1476,1751,4.92687,-17.548
259,-727,4.93579,17.4438,0.000734953,0.00284476,-0.00305556,0.00502238,-0.00144267,-0.951612,0.00391869,0.0148031,1483,1751,4.93584,-17.4439
266,-727,4.95825,17.4028,0.000506645,0.00661133,-0.00218928,0.00731528,-0.000197303,-1.25969,0.00494393,0.0233065,1490,1751,4.95826,-17.4028
273,-727,5.04187,17.3669,0.000255483,0.0106878,-0.00179865,0.0109892,-4.59161e-05,-1.40477,0.00734148,0.0429031,1497,1751,5.04183,-17.3669
280,-727,4.73718,17.1794,0,0,0,0,0,0,0,-1,1504,1751,4.73722,-17.1795
287,-727,4.68481,16.9285,0,0,0,0,0,0,0,-1,1511,1751,4.68484,-16.9285
294,-727,4.91211,16.6399,0,0,0,0,0,0,0,-1,1518,1751,4.91215,-16.6399
301,-727,5.06531,16.7787,0,0,0,0,0,0,0,-1,1525,1751,5.06529,-16.7787
308,-727,4.8075,15.4801,-0.0042751,0.0370747,0.00436558,0.0375306,-0.00473097,1.46675,0.0267373,0.0483642,1532,1751,4.80755,-15.4801
315,-727,4.5697,15.6833,-0.00629483,0.0403036,0.00550892,0.0409461,-0.00693724,1.45471,0.0298794,0.043532,1539,1751,4.56974,-15.6833
322,-727,4.58203,15.8539,0,0,0,0,0,0,0,-1,1546,1751,4.58208,-15.8539
329,-727,6.61853,11.6267,0,0,0,0,0,0,0,-1,1553,1751,6.61859,-11.6267
336,-727,3.34875,7.61792,0,0,0,0,0,0,0,-1,1560,1751,3.34872,-7.61791
343,-727,2.41699,8.72095,0,0,0,0,0,0,0,-1,1567,1751,2.41702,-8.72098
350,-727,3.89783,7.50195,0,0,0,0,0,0,0,-1,1574,1751,3.89782,-7.50193
357,-727,4.48462,10.2948,0,0,0,0,0,0,0,-1,1581,1751,4.48464,-10.2948
364,-727,4.47852,11.4702,0,0,0,0,0,0,0,-1,1588,1751,4.47846,-11.4703
371,-727,3.57446,12.9564,0,0,0,0,0,0,0,-1,1595,1751,3.57443,-12.9564
378,-727,3.19482,14.0498,0,0,0,0,0,0,0,-1,1602,1751,3.19486,-14.0498
385,-727,3.19275,14.7679,0,0,0,0,0,0,0,-1,1609,1751,3.19274,-14.768
392,-727,0,0,0,0,0,0,0,0,0,-1,1616,1751,0,0
399,-727,0,0,0,0,0,0,0,0,0,-1,1623,1751,0,0
406,-727,0,0,0,0,0,0,0,0,0,-1,1630,1751,0,0
413,-727,0,0,0,0,0,0,0,0,0,-1,1637,1751,0,0
420,-727,0,0,0,0,0,0,0,0,0,-1,1644,1751,0,0
427,-727,0,0,0,0,0,0,0,0,0,-1,1651,1751,0,0
434,-727,0,0,0,0,0,0,0,0,0,-1,1658,1751,0,0
441,-727,0,0,0,0,0,0,0,0,0,-1,1665,1751,0,0
448,-727,0,0,0,0,0,0,0,0,0,-1,1672,1751,0,0
455,-727,0,0,0,0,0,0,0,0,0,-1,1679,1751,0,0
462,-727,0,0,0,0,0,0,0,0,0,-1,1686,1751,0,0
469,-727,0,0,0,0,0,0,0,0,0,-1,1693,1751,0,0
476,-727,0,0,0,0,0,0,0,0,0,-1,1700,1751,0,0
483,-727,0,0,0,0,0,0,0,0,0,-1,1707,1751,0,0
490,-727,0,0,0,0,0,0,0,0,0,-1,1714,1751,0,0
497,-727,0,0,0,0,0,0,0,0,0,-1,1721,1751,0,0
504,-727,0,0,0,0,0,0,0,0,0,-1,1728,1751,0,0
511,-727,0,0,0,0,0,0,0,0,0,-1,1735,1751,0,0
518,-727,0,0,0,0,0,0,0,0,0,-1,1742,1751,0,0
525,-727,0,0,0,0,0,0,0,0,0,-1,1749,1751,0,0
532,-727,0,0,0,0,0,0,0,0,0,-1,1756,1751,0,0
539,-727,0,0,0,0,0,0,0,0,0,-1,1763,1751,0,0
546,-727,0,0,0,0,0,0,0,0,0,-1,1770,1751,0,0
553,-727,0,0,0,0,0,0,0,0,0,-1,1777,1751,0,0
560,-727,0,0,0,0,0,0,0,0,0,-1,1784,1751,0,0
567,-727,0,0,0,0,0,0,0,0,0,-1,1791,1751,0,0
574,-727,0,0,0,0,0,0,0,0,0,-1,1798,1751,0,0
581,-727,0,0,0,0,0,0,0,0,0,-1,1805,1751,0,0
588,-727,0,0,0,0,0,0,0,0,0,-1,1812,1751,0,0
595,-727,0,0,0,0,0,0,0,0,0,-1,1819,1751,0,0
602,-727,0,0,0,0,0,0,0,0,0,-1,1826,1751,0,0
609,-727,0,0,0,0,0,0,0,0,0,-1,1833,1751,0,0
616,-727,0,0,0,0,0,0,0,0,0,-1,1840,1751,0,0
623,-727,0,0,0,0,0,0,0,0,0,-1,1847,1751,0,0
630,-727,0,0,0,0,0,0,0,0,0,-1,1854,1751,0,0
637,-727,0,0,0,0,0,0,0,0,0,-1,1861,1751,0,0
644,-727,0,0,0,0,0,0,0,0,0,-1,1868,1751,0,0
651,-727,0,0,0,0,0,0,0,0,0,-1,1875,1751,0,0
658,-727,0,0,0,0,0,0,0,0,0,-1,1882,1751,0,0
665,-727,0,0,0,0,0,0,0,0,0,-1,1889,1751,0,0
672,-727,0,0,0,0,0,0,0,0,0,-1,1896,1751,0,0
679,-727,0,0,0,0,0,0,0,0,0,-1,1903,1751,0,0
686,-727,0,0,0,0,0,0,0,0,0,-1,1910,1751,0,0
693,-727,0,0,0,0,0,0,0,0,0,-1,1917,1751,0,0
700,-727,0,0,0,0,0,0,0,0,0,-1,1924,1751,0,0
707,-727,0,0,0,0,0,0,0,0,0,-1,1931,1751,0,0
714,-727,0,0,0,0,0,0,0,0,0,-1,1938,1751,0,0
721,-727,0,0,0,0,0,0,0,0,0,-1,1945,1751,0,0
728,-727,0,0,0,0,0,0,0,0,0,-1,1952,1751,0,0
735,-727,0,0,0,0,0,0,0,0,0,-1,1959,1751,0,0
742,-727,0,0,0,0,0,0,0,0,0,-1,1966,1751,0,0
749,-727,0,0,0,0,0,0,0,0,0,-1,1973,1751,0,0
756,-727,0,0,0,0,0,0,0,0,0,-1,1980,1751,0,0
763,-727,0,0,0,0,0,0,0,0,0,-1,1987,1751,0,0
770,-727,0,0,0,0,0,0,0,0,0,-1,1994,1751,0,0
777,-727,0,0,0,0,0,0,0,0,0,-1,2001,1751,0,0
784,-727,0,0,0,0,0,0,0,0,0,-1,2008,1751,0,0
791,-727,0,0,0,0,0,0,0,0,0,-1,2015,1751,0,0
798,-727,0,0,0,0,0,0,0,0,0,-1,2022,1751,0,0
805,-727,0,0,0,0,0,0,0,0,0,-1,2029,1751,0,0
812,-727,0,0,0,0,0,0,0,0,0,-1,2036,1751,0,0
-700,-734,0,0,0,0,0,0,0,0,0,-1,524,1758,0,0
-693,-734,0,0,0,0,0,0,0,0,0,-1,531,1758,0,0
-686,-734,0,0,0,0,0,0,0,0,0,-1,538,1758,0,0
-679,-734,0,0,0,0,0,0,0,0,0,-1,545,1758,0,0
-672,-734,0,0,0,0,0,0,0,0,0,-1,552,1758,0,0
-665,-734,0,0,0,0,0,0,0,0,0,-1,559,1758,0,0
-658,-734,0,0,0,0,0,0,0,0,0,-1,566,1758,0,0
-651,-734,0,0,0,0,0,0,0,0,0,-1,573,1758,0,0
-644,-734,0,0,0,0,0,0,0,0,0,-1,580,1758,0,0
-637,-734,0,0,0,0,0,0,0,0,0,-1,587,1758,0,0
-630,-734,0,0,0,0,0,0,0,0,0,-1,594,1758,0,0
-623,-734,0,0,0,0,0,0,0,0,0,-1,601,1758,0,0
-616,-734,0,0,0,0,0,0,0,0,0,-1,608,1758,0,0
-609,-734,0,0,0,0,0,0,0,0,0,-1,615,1758,0,0
-602,-734,0,0,0,0,0,0,0,0,0,-1,622,1758,0,0
-595,-734,0,0,0,0,0,0,0,0,0,-1,629,1758,0,0
-588,-734,0,0,0,0,0,0,0,0,0,-1,636,1758,0,0
-581,-734,0,0,0,0,0,0,0,0,0,-1,643,1758,0,0
-574,-734,0,0,0,0,0,0,0,0,0,-1,650,1758,0,0
-567,-734,0,0,0,0,0,0,0,0,0,-1,657,1758,0,0
-560,-734,0,0,0,0,0,0,0,0,0,-1,664,1758,0,0
-553,-734,0,0,0,0,0,0,0,0,0,-1,671,1758,0,0
-546,-734,0,0,0,0,0,0,0,0,0,-1,678,1758,0,0
-539,-734,0,0,0,0,0,0,0,0,0,-1,685,1758,0,0
-532,-734,0,0,0,0,0,0,0,0,0,-1,692,1758,0,0
-525,-734,0,0,0,0,0,0,0,0,0,-1,699,1758,0,0
-518,-734,0,0,0,0,0,0,0,0,0,-1,706,1758,0,0
-511,-734,0,0,0,0,0,0,0,0,0,-1,713,1758,0,0
-504,-734,0,0,0,0,0,0,0,0,0,-1,720,1758,0,0
-497,-734,0,0,0,0,0,0,0,0,0,-1,727,1758,0,0
-490,-734,0,0,0,0,0,0,0,0,0,-1,734,1758,0,0
-483,-734,0,0,0,0,0,0,0,0,0,-1,741,1758,0,0
-476,-734,0,0,0,0,0,0,0,0,0,-1,748,1758,0,0
-469,-734,0,0,0,0,0,0,0,0,0,-1,755,1758,0,0
-462,-734,0,0,0,0,0,0,0,0,0,-1,762,1758,0,0
-455,-734,0,0,0,0,0,0,0,0,0,-1,769,1758,0,0
-448,-734,0,0,0,0,0,0,0,0,0,-1,776,1758,0,0
-441,-734,0,0,0,0,0,0,0,0,0,-1,783,1758,0,0
-434,-734,0,0,0,0,0,0,0,0,0,-1,790,1758,0,0
-427,-734,0,0,0,0,0,0,0,0,0,-1,797,1758,0,0
-420,-734,0,0,0,0,0,0,0,0,0,-1,804,1758,0,0
-413,-734,0,0,0,0,0,0,0,0,0,-1,811,1758,0,0
-406,-734,0,0,0,0,0,0,0,0,0,-1,818,1758,0,0
-399,-734,0,0,0,0,0,0,0,0,0,-1,825,1758,0,0
-392,-734,0,0,0,0,0,0,0,0,0,-1,832,1758,0,0
-385,-734,0,0,0,0,0,0,0,0,0,-1,839,1758,0,0
-378,-734,0,0,0,0,0,0,0,0,0,-1,846,1758,0,0
-371,-734,0,0,0,0,0,0,0,0,0,-1,853,1758,0,0
-364,-734,0,0,0,0,0,0,0,0,0,-1,860,1758,0,0
-357,-734,0,0,0,0,0,0,0,0,0,-1,867,1758,0,0
-350,-734,0,0,0,0,0,0,0,0,0,-1,874,1758,0,0
-343,-734,0,0,0,0,0,0,0,0,0,-1,881,1758,0,0
-336,-734,0,0,0,0,0,0,0,0,0,-1,888,1758,0,0
-329,-734,0,0,0,0,0,0,0,0,0,-1,895,1758,0,0
-322,-734,0,0,0,0,0,0,0,0,0,-1,902,1758,0,0
-315,-734,0,0,0,0,0,0,0,0,0,-1,909,1758,0,0
-308,-734,0,0,0,0,0,0,0,0,0,-1,916,1758,0,0
-301,-734,0,0,0,0,0,0,0,0,0,-1,923,1758,0,0
-294,-734,0,0,0,0,0,0,0,0,0,-1,930,1758,0,0
-287,-734,0,0,0,0,0,0,0,0,0,-1,937,1758,0,0
-280,-734,0,0,0,0,0,0,0,0,0,-1,944,1758,0,0
-273,-734,0,0,0,0,0,0,0,0,0,-1,951,1758,0,0
-266,-734,0,0,0,0,0,0,0,0,0,-1,958,1758,0,0
-259,-734,0,0,0,0,0,0,0,0,0,-1,965,1758,0,0
-252,-734,6.44257,12.0737,0,0,0,0,0,0,0,-1,972,1758,6.44255,-12.0737
-245,-734,5.9212,12.6437,0,0,0,0,0,0,0,-1,979,1758,5.9212,-12.6437
-238,-734,2.90552,15.4933,0,0,0,0,0,0,0,-1,986,1758,2.90554,-15.4933
-231,-734,5.51721,18.1925,0,0,0,0,0,0,0,-1,993,1758,5.51718,-18.1926
-224,-734,5.54639,17.1418,0,0,0,0,0,0,0,-1,1000,1758,5.54637,-17.1418
-217,-734,5.57123,16.0167,0,0,0,0,0,0,0,-1,1007,1758,5.57125,-16.0167
-210,-734,5.37006,18.5607,0,0,0,0,0,0,0,-1,1014,1758,5.37007,-18.5607
-203,-734,5.12769,17.5935,0,0,0,0,0,0,0,-1,1021,1758,5.12764,-17.5936
-196,-734,4.81323,16.4907,-0.0126161,-0.0155271,-0.0182287,0.00421513,-0.0323583,-0.745559,0.0231058,0.0441295,1028,1758,4.81322,-16.4908
-189,-734,4.37402,15.4702,0,0,0,0,0,0,0,-1,1035,1758,4.37402,-15.4702
-182,-734,5.00012,15.8203,0,0,0,0,0,0,0,-1,1042,1758,5.00015,-15.8204
-175,-734,5.5376,15.4185,0,0,0,0,0,0,0,-1,1049,1758,5.53755,-15.4184
-168,-734,4.50208,15.4194,0,0,0,0,0,0,0,-1,1056,1758,4.50212,-15.4194
-161,-734,3.51257,9.94104,0,0,0,0,0,0,0,-1,1063,1758,3.51257,-9.94101
-154,-734,5.34607,16.3649,0,0,0,0,0,0,0,-1,1070,1758,5.3461,-16.3649
-147,-734,5.22339,16.0708,-0.000288719,0.00427291,0.00359967,0.00625352,-0.00226933,1.06778,0.00509674,0.0487745,1077,1758,5.2234,-16.0708
-140,-734,5.12415,16.6329,0.00172975,0.00606344,0.00616961,0.0104357,-0.00264246,0.954276,0.00798502,0.0423867,1084,1758,5.12417,-16.6329
-133,-734,5.28357,16.6719,0,0,0,0,0,0,0,-1,1091,1758,5.28351,-16.6719
-126,-734,5.00952,17.0367,0.00314326,0.00453511,0.00471583,0.00860609,-0.000927718,0.858655,0.00607031,0.0360613,1098,1758,5.00951,-17.0367
-119,-734,4.96106,17.1641,0.00361924,0.00375136,0.00400558,0.00769143,-0.000320824,0.793643,0.00523784,0.0355564,1105,1758,4.96108,-17.1641
-112,-734,5.11841,17.2148,0.00400322,0.00311867,0.00335462,0.0069446,0.000177295,0.719855,0.00457178,0.028388,1112,1758,5.11835,-17.2148
-105,-734,5.14917,17.3458,0.00405275,0.00259963,0.00268028,0.0061032,0.000549183,0.653041,0.00389866,0.0206602,1119,1758,5.14919,-17.3458
-98,-734,5.18213,17.4169,0.00376571,0.00212775,0.00209773,0.00519866,0.000694806,0.599291,0.00325896,0.0185778,1126,1758,5.18217,-17.4169
-91,-734,5.1571,17.5104,0.00322514,0.00147029,0.00146579,0.00405606,0.00063938,0.515703,0.00251812,0.022666,1133,1758,5.15707,-17.5104
-84,-734,5.09924,17.6334,0.00260085,0.00138532,0.00092993,0.00310401,0.000882161,0.495961,0.0018469,0.019723,1140,1758,5.0993,-17.6334
-77,-734,5.09033,17.7706,0.00187073,0.00108159,0.000650306,0.0022368,0.000715511,0.512716,0.00131906,0.0164728,1147,1758,5.09029,-17.7706
-70,-734,5.08069,17.8088,0.00127392,0.00134239,0.000360307,0.00167008,0.000946223,0.832763,0.000967068,0.0130735,1154,1758,5.08071,-17.8089
-63,-734,5.07349,17.911,-0.000546546,0.000836441,-0.000404326,0.000945974,-0.000656079,-1.30624,0.00092998,0.0119252,1161,1758,5.07354,-17.911
-56,-734,5.0658,18.0154,-0.00195404,0.000839937,-0.000622126,0.000972203,-0.0020863,-1.36131,0.00180446,0.0117996,1168,1758,5.06576,-18.0154
-49,-734,5.06177,18.101,-0.00287622,0.00135933,-0.000749895,0.00148818,-0.00300507,-1.40064,0.00264299,0.0114806,1175,1758,5.06172,-18.101
-42,-734,5.02185,18.1412,-0.00292732,0.00159306,-0.000606801,0.0016731,-0.00300735,-1.43965,0.00273862,0.0126523,1182,1758,5.0219,-18.1412
-35,-734,5.01294,18.1927,-0.00262262,0.00116831,-0.000669856,0.00128319,-0.0027375,-1.40095,0.00237142,0.0134517,1189,1758,5.01298,-18.1928
-28,-734,5.04785,18.2771,-0.00244122,0.00113567,-0.000648673,0.00124968,-0.00255522,-1.39682,0.00223945,0.00965024,1196,1758,5.04788,-18.2771
-21,-734,5.08374,18.3513,-0.00227141,0.000975854,-0.000574836,0.00107461,-0.00237016,-1.40066,0.00203519,0.0141821,1203,1758,5.08374,-18.3513
-14,-734,5.03308,18.4268,-0.00188347,0.00069464,-0.000369704,0.000746608,-0.00193544,-1.43114,0.00159838,0.0144752,1210,1758,5.03302,-18.4267
-7,-734,5.01624,18.4724,-0.00142595,0.000414785,-0.000120927,0.000422695,-0.00143386,-1.50548,0.00112363,0.0170121,1217,1758,5.01622,-18.4724
0,-734,5.03296,18.4901,-0.000973091,0.000142573,6.56469e-05,0.000146422,-0.00097694,1.51222,0.000705186,0.0175654,1224,1758,5.03295,-18.4901
7,-734,5.03015,18.5345,-0.000543459,-8.41964e-05,0.00020507,-5.95744e-06,-0.000621698,1.20632,0.000412494,0.0130842,1231,1758,5.03016,-18.5345
14,-734,5.01184,18.6,-0.000141818,-0.000341696,0.000277744,5.34205e-05,-0.000536934,0.612698,0.000377027,0.0132681,1238,1758,5.01186,-18.6
21,-734,4.98132,18.6298,0.000210505,-0.00061575,0.000300543,0.000308259,-0.000713504,0.314466,0.000605184,0.0118225,1245,1758,4.98133,-18.6298
28,-734,4.99695,18.6615,0.000539613,-0.000813261,0.00027693,0.000594106,-0.000867753,0.19429,0.000848919,0.010936,1252,1758,4.99692,-18.6615
35,-734,5.03125,18.7039,0.000836993,-0.000884383,0.000170398,0.000853699,-0.000901089,0.0977254,0.00101325,0.0140504,1259,1758,5.03131,-18.7038
42,-734,5.03064,18.7013,0.00107724,-0.000953615,5.97297e-05,0.001079,-0.00095537,0.0293772,0.00117527,0.0124695,1266,1758,5.03063,-18.7013
49,-734,5.00122,18.7012,0.00322596,-0.000976625,-0.000307225,0.0032483,-0.000998966,-0.0725896,0.00256423,0.0104319,1273,1758,5.00119,-18.7012
56,-734,4.98669,18.7426,0.00558848,-0.000562357,0.000369996,0.00561065,-0.000584533,0.059866,0.00394973,0.00930848,1280,1758,4.98672,-18.7426
63,-734,4.99707,18.7444,0.00752435,-0.000333519,0.000691183,0.00758468,-0.000393852,0.0870697,0.00519272,0.0127955,1287,1758,4.99705,-18.7444
70,-734,4.98901,18.7543,0.00928726,4.67601e-05,0.00115474,0.00942937,-9.53577e-05,0.122457,0.00631828,0.0140085,1294,1758,4.98897,-18.7542
77,-734,5.01758,18.7876,0.0111909,0.000197555,0.0016237,0.0114257,-3.72482e-05,0.143615,0.00762956,0.0182195,1301,1758,5.01753,-18.7876
84,-734,5.01062,18.7446,0.0130323,0.000335574,0.00219215,0.0134001,-3.22559e-05,0.166245,0.00894418,0.015935,1308,1758,5.01059,-18.7447
91,-734,5.00647,18.7211,0.0144255,0.000376182,0.00274425,0.0149426,-0.000140823,0.186214,0.010009,0.01679,1315,1758,5.00646,-18.7211
98,-734,5.01648,18.7445,0.0152068,0.000426808,0.00326803,0.0158972,-0.000263547,0.208184,0.0106871,0.0127326,1322,1758,5.01643,-18.7445
105,-734,5.01367,18.7444,0.0154161,0.000362435,0.00370107,0.0162768,-0.000498295,0.2285,0.011021,0.014045,1329,1758,5.01366,-18.7444
112,-734,5.01233,18.7244,0.0150003,0.00015596,0.00393853,0.0159805,-0.00082429,0.243931,0.0109388,0.0123951,1336,1758,5.01231,-18.7244
119,-734,4.99365,18.7118,0.013943,-7.26696e-05,0.00391893,0.0149644,-0.00109402,0.254948,0.0103602,0.0128421,1343,1758,4.99361,-18.7118
126,-734,4.97986,18.6558,0.0124087,-0.000272081,0.00369851,0.0134085,-0.00127196,0.264035,0.00939177,0.0153913,1350,1758,4.97988,-18.6558
133,-734,4.96973,18.6246,0.0105496,-0.000453832,0.00332996,0.0114789,-0.0013831,0.272139,0.0081528,0.0141547,1357,1758,4.96972,-18.6246
140,-734,4.98779,18.6075,0.00861801,-0.000563366,0.00288747,0.0094506,-0.00139595,0.28073,0.00681355,0.0198551,1364,1758,4.98777,-18.6076
147,-734,4.99524,18.5682,0.0068509,-0.000491356,0.00242829,0.00758134,-0.00122179,0.292193,0.00550685,0.0145075,1371,1758,4.99525,-18.5682
154,-734,4.97986,18.5573,0.0035494,-0.000375985,0.00215672,0.0045028,-0.00132939,0.416232,0.00352946,0.00954331,1378,1758,4.9798,-18.5573
161,-734,4.9574,18.5208,0.00112486,-0.000813414,0.000677807,0.00133837,-0.00102692,0.305159,0.00136954,0.00878391,1385,1758,4.95743,-18.5208
168,-734,4.92041,18.457,0.000150388,-0.000571808,0.000173993,0.00019012,-0.000611541,0.224509,0.000483687,0.0134054,1392,1758,4.92037,-18.457
175,-734,4.93811,18.4027,-0.000384025,4.40697e-05,-0.000372127,0.000259318,-0.000599273,-1.04639,0.000508495,0.0156098,1399,1758,4.93815,-18.4027
182,-734,4.96338,18.3231,-0.00129948,0.000319645,-0.000672594,0.000562591,-0.00154243,-1.22417,0.00125846,0.014535,1406,1758,4.96334,-18.3231
189,-734,4.92993,18.2549,-0.00215265,0.000637623,-0.00113222,0.00103924,-0.00255427,-1.22993,0.00213529,0.0108248,1413,1758,4.92988,-18.2548
196,-734,4.90991,18.2081,-0.00201627,0.000866441,-0.00187147,0.00178727,-0.0029371,-1.11354,0.00275441,0.0109376,1420,1758,4.90991,-18.2081
203,-734,4.91919,18.1329,-0.00173826,0.000821186,-0.00253621,0.00238225,-0.00329932,-1.01905,0.00329447,0.0112228,1427,1758,4.91919,-18.133
210,-734,4.91724,18.0636,-0.00150205,0.000792165,-0.00299959,0.0028565,-0.00356639,-0.968029,0.0037158,0.0129466,1434,1758,4.91727,-18.0636
217,-734,4.90637,17.998,-0.00131086,0.00068634,-0.00335578,0.00318895,-0.00381347,-0.930014,0.0040482,0.0111804,1441,1758,4.90639,-17.9981
224,-734,4.90063,17.8855,-0.00106887,0.000356357,-0.00368054,0.00339263,-0.00410514,-0.881023,0.00433535,0.011985,1448,1758,4.90069,-17.8855
231,-734,4.88452,17.8223,-0.000813527,-1.9016e-05,-0.00395928,0.00356288,-0.00439543,-0.835398,0.00460311,0.0133333,1455,1758,4.88453,-17.8222
238,-734,4.88806,17.7456,-0.000366502,-0.000390209,-0.00415611,0.00377777,-0.00453448,-0.783972,0.0048057,0.0162667,1462,1758,4.88802,-17.7456
245,-734,4.90088,17.593,0.000240038,-0.000579347,-0.00432291,0.00417263,-0.00451194,-0.738153,0.00501531,0.0217745,1469,1758,4.90087,-17.593
252,-734,4.87683,17.5007,0.000793159,-0.000688775,-0.00446613,0.00457937,-0.00447499,-0.703193,0.00522765,0.0277079,1476,1758,4.87683,-17.5008
259,-734,4.98596,17.5035,0.000800121,0.00340916,-0.00406045,0.0063695,-0.00216022,-0.940828,0.00512061,0.0375717,1483,1758,4.98594,-17.5036
266,-734,4.94678,17.554,0,0,0,0,0,0,0,-1,1490,1758,4.94679,-17.5539
273,-734,5.09814,17.5868,0,0,0,0,0,0,0,-1,1497,1758,5.0982,-17.5867
280,-734,16.6191,7.38013,0,0,0,0,0,0,0,-1,1504,1758,16.6192,-7.38011
287,-734,14.1356,7.42139,0,0,0,0,0,0,0,-1,1511,1758,14.1356,-7.42135
294,-734,12.1967,6.48743,0,0,0,0,0,0,0,-1,1518,1758,12.1967,-6.48738
301,-734,10.1635,5.59741,0,0,0,0,0,0,0,-1,1525,1758,10.1634,-5.59746
308,-734,4.39807,14.5281,0,0,0,0,0,0,0,-1,1532,1758,4.39813,-14.5281
315,-734,3.9342,15.0935,0,0,0,0,0,0,0,-1,1539,1758,3.9342,-15.0935
322,-734,4.17163,11.5508,0,0,0,0,0,0,0,-1,1546,1758,4.17163,-11.5508
329,-734,5.45972,12.4125,0,0,0,0,0,0,0,-1,1553,1758,5.45969,-12.4125
336,-734,5.92188,13.8751,0,0,0,0,0,0,0,-1,1560,1758,5.92183,-13.8751
343,-734,5.54968,5.14221,0,0,0,0,0,0,0,-1,1567,1758,5.54973,-5.14225
350,-734,5.07397,6.73242,0,0,0,0,0,0,0,-1,1574,1758,5.07402,-6.73243
357,-734,5.05542,7.19189,0,0,0,0,0,0,0,-1,1581,1758,5.05541,-7.19184
364,-734,4.43896,10.4904,0,0,0,0,0,0,0,-1,1588,1758,4.43893,-10.4904
371,-734,4.22766,11.9165,0,0,0,0,0,0,0,-1,1595,1758,4.22769,-11.9165
378,-734,0,0,0,0,0,0,0,0,0,-1,1602,1758,0,0
385,-734,0,0,0,0,0,0,0,0,0,-1,1609,1758,0,0
392,-734,0,0,0,0,0,0,0,0,0,-1,1616,1758,0,0
399,-734,0,0,0,0,0,0,0,0,0,-1,1623,1758,0,0
406,-734,0,0,0,0,0,0,0,0,0,-1,1630,1758,0,0
413,-734,0,0,0,0,0,0,0,0,0,-1,1637,1758,0,0
420,-734,0,0,0,0,0,0,0,0,0,-1,1644,1758,0,0
427,-734,0,0,0,0,0,0,0,0,0,-1,1651,1758,0,0
434,-734,0,0,0,0,0,0,0,0,0,-1,1658,1758,0,0
441,-734,0,0,0,0,0,0,0,0,0,-1,1665,1758,0,0
448,-734,0,0,0,0,0,0,0,0,0,-1,1672,1758,0,0
455,-734,0,0,0,0,0,0,0,0,0,-1,1679,1758,0,0
462,-734,0,0,0,0,0,0,0,0,0,-1,1686,1758,0,0
469,-734,0,0,0,0,0,0,0,0,0,-1,1693,1758,0,0
476,-734,0,0,0,0,0,0,0,0,0,-1,1700,1758,0,0
483,-734,0,0,0,0,0,0,0,0,0,-1,1707,1758,0,0
490,-734,0,0,0,0,0,0,0,0,0,-1,1714,1758,0,0
497,-734,0,0,0,0,0,0,0,0,0,-1,1721,1758,0,0
504,-734,0,0,0,0,0,0,0,0,0,-1,1728,1758,0,0
511,-734,0,0,0,0,0,0,0,0,0,-1,1735,1758,0,0
518,-734,0,0,0,0,0,0,0,0,0,-1,1742,1758,0,0
525,-734,0,0,0,0,0,0,0,0,0,-1,1749,1758,0,0
532,-734,0,0,0,0,0,0,0,0,0,-1,1756,1758,0,0
539,-734,0,0,0,0,0,0,0,0,0,-1,1763,1758,0,0
546,-734,0,0,0,0,0,0,0,0,0,-1,1770,1758,0,0
553,-734,0,0,0,0,0,0,0,0,0,-1,1777,1758,0,0
560,-734,0,0,0,0,0,0,0,0,0,-1,1784,1758,0,0
567,-734,0,0,0,0,0,0,0,0,0,-1,1791,1758,0,0
574,-734,0,0,0,0,0,0,0,0,0,-1,1798,1758,0,0
581,-734,0,0,0,0,0,0,0,0,0,-1,1805,1758,0,0
588,-734,0,0,0,0,0,0,0,0,0,-1,1812,1758,0,0
595,-734,0,0,0,0,0,0,0,0,0,-1,1819,1758,0,0
602,-734,0,0,0,0,0,0,0,0,0,-1,1826,1758,0,0
609,-734,0,0,0,0,0,0,0,0,0,-1,1833,1758,0,0
616,-734,0,0,0,0,0,0,0,0,0,-1,1840,1758,0,0
623,-734,0,0,0,0,0,0,0,0,0,-1,1847,1758,0,0
630,-734,0,0,0,0,0,0,0,0,0,-1,1854,1758,0,0
637,-734,0,0,0,0,0,0,0,0,0,-1,1861,1758,0,0
644,-734,0,0,0,0,0,0,0,0,0,-1,1868,1758,0,0
651,-734,0,0,0,0,0,0,0,0,0,-1,1875,1758,0,0
658,-734,0,0,0,0,0,0,0,0,0,-1,1882,1758,0,0
665,-734,0,0,0,0,0,0,0,0,0,-1,1889,1758,0,0
672,-734,0,0,0,0,0,0,0,0,0,-1,1896,1758,0,0
679,-734,0,0,0,0,0,0,0,0,0,-1,1903,1758,0,0
686,-734,0,0,0,0,0,0,0,0,0,-1,1910,1758,0,0
693,-734,0,0,0,0,0,0,0,0,0,-1,1917,1758,0,0
700,-734,0,0,0,0,0,0,0,0,0,-1,1924,1758,0,0
707,-734,0,0,0,0,0,0,0,0,0,-1,1931,1758,0,0
714,-734,0,0,0,0,0,0,0,0,0,-1,1938,1758,0,0
721,-734,0,0,0,0,0,0,0,0,0,-1,1945,1758,0,0
728,-734,0,0,0,0,0,0,0,0,0,-1,1952,1758,0,0
735,-734,0,0,0,0,0,0,0,0,0,-1,1959,1758,0,0
742,-734,0,0,0,0,0,0,0,0,0,-1,1966,1758,0,0
749,-734,0,0,0,0,0,0,0,0,0,-1,1973,1758,0,0
756,-734,0,0,0,0,0,0,0,0,0,-1,1980,1758,0,0
763,-734,0,0,0,0,0,0,0,0,0,-1,1987,1758,0,0
770,-734,0,0,0,0,0,0,0,0,0,-1,1994,1758,0,0
777,-734,0,0,0,0,0,0,0,0,0,-1,2001,1758,0,0
784,-734,0,0,0,0,0,0,0,0,0,-1,2008,1758,0,0
791,-734,0,0,0,0,0,0,0,0,0,-1,2015,1758,0,0
798,-734,0,0,0,0,0,0,0,0,0,-1,2022,1758,0,0
805,-734,0,0,0,0,0,0,0,0,0,-1,2029,1758,0,0
812,-734,0,0,0,0,0,0,0,0,0,-1,2036,1758,0,0
-700,-741,0,0,0,0,0,0,0,0,0,-1,524,1765,0,0
-693,-741,0,0,0,0,0,0,0,0,0,-1,531,1765,0,0
-686,-741,0,0,0,0,0,0,0,0,0,-1,538,1765,0,0
-679,-741,0,0,0,0,0,0,0,0,0,-1,545,1765,0,0
-672,-741,0,0,0,0,0,0,0,0,0,-1,552,1765,0,0
-665,-741,0,0,0,0,0,0,0,0,0,-1,559,1765,0,0
-658,-741,0,0,0,0,0,0,0,0,0,-1,566,1765,0,0
-651,-741,0,0,0,0,0,0,0,0,0,-1,573,1765,0,0
-644,-741,0,0,0,0,0,0,0,0,0,-1,580,1765,0,0
-637,-741,0,0,0,0,0,0,0,0,0,-1,587,1765,0,0
-630,-741,0,0,0,0,0,0,0,0,0,-1,594,1765,0,0
-623,-741,0,0,0,0,0,0,0,0,0,-1,601,1765,0,0
-616,-741,0,0,0,0,0,0,0,0,0,-1,608,1765,0,0
-609,-741,0,0,0,0,0,0,0,0,0,-1,615,1765,0,0
-602,-741,0,0,0,0,0,0,0,0,0,-1,622,1765,0,0
-595,-741,0,0,0,0,0,0,0,0,0,-1,629,1765,0,0
-588,-741,0,0,0,0,0,0,0,0,0,-1,636,1765,0,0
-581,-741,0,0,0,0,0,0,0,0,0,-1,643,1765,0,0
-574,-741,0,0,0,0,0,0,0,0,0,-1,650,1765,0,0
-567,-741,0,0,0,0,0,0,0,0,0,-1,657,1765,0,0
-560,-741,0,0,0,0,0,0,0,0,0,-1,664,1765,0,0
-553,-741,0,0,0,0,0,0,0,0,0,-1,671,1765,0,0
-546,-741,0,0,0,0,0,0,0,0,0,-1,678,1765,0,0
-539,-741,0,0,0,0,0,0,0,0,0,-1,685,1765,0,0
-532,-741,0,0,0,0,0,0,0,0,0,-1,692,1765,0,0
-525,-741,0,0,0,0,0,0,0,0,0,-1,699,1765,0,0
-518,-741,0,0,0,0,0,0,0,0,0,-1,706,1765,0,0
-511,-741,0,0,0,0,0,0,0,0,0,-1,713,1765,0,0
-504,-741,0,0,0,0,0,0,0,0,0,-1,720,1765,0,0
-497,-741,0,0,0,0,0,0,0,0,0,-1,727,1765,0,0
-490,-741,0,0,0,0,0,0,0,0,0,-1,734,1765,0,0
-483,-741,0,0,0,0,0,0,0,0,0,-1,741,1765,0,0
-476,-741,0,0,0,0,0,0,0,0,0,-1,748,1765,0,0
-469,-741,0,0,0,0,0,0,0,0,0,-1,755,1765,0,0
-462,-741,0,0,0,0,0,0,0,0,0,-1,762,1765,0,0
-455,-741,0,0,0,0,0,0,0,0,0,-1,769,1765,0,0
-448,-741,0,0,0,0,0,0,0,0,0,-1,776,1765,0,0
-441,-741,0,0,0,0,0,0,0,0,0,-1,783,1765,0,0
-434,-741,0,0,0,0,0,0,0,0,0,-1,790,1765,0,0
-427,-741,0,0,0,0,0,0,0,0,0,-1,797,1765,0,0
-420,-741,0,0,0,0,0,0,0,0,0,-1,804,1765,0,0
-413,-741,0,0,0,0,0,0,0,0,0,-1,811,1765,0,0
-406,-741,0,0,0,0,0,0,0,0,0,-1,818,1765,0,0
-399,-741,0,0,0,0,0,0,0,0,0,-1,825,1765,0,0
-392,-741,0,0,0,0,0,0,0,0,0,-1,832,1765,0,0
-385,-741,0,0,0,0,0,0,0,0,0,-1,839,1765,0,0
-378,-741,0,0,0,0,0,0,0,0,0,-1,846,1765,0,0
-371,-741,0,0,0,0,0,0,0,0,0,-1,853,1765,0,0
-364,-741,0,0,0,0,0,0,0,0,0,-1,860,1765,0,0
-357,-741,0,0,0,0,0,0,0,0,0,-1,867,1765,0,0
-350,-741,0,0,0,0,0,0,0,0,0,-1,874,1765,0,0
-343,-741,0,0,0,0,0,0,0,0,0,-1,881,1765,0,0
-336,-741,0,0,0,0,0,0,0,0,0,-1,888,1765,0,0
-329,-741,0,0,0,0,0,0,0,0,0,-1,895,1765,0,0
-322,-741,0,0,0,0,0,0,0,0,0,-1,902,1765,0,0
-315,-741,0,0,0,0,0,0,0,0,0,-1,909,1765,0,0
-308,-741,0,0,0,0,0,0,0,0,0,-1,916,1765,0,0
-301,-741,0,0,0,0,0,0,0,0,0,-1,923,1765,0,0
-294,-741,0,0,0,0,0,0,0,0,0,-1,930,1765,0,0
-287,-741,0,0,0,0,0,0,0,0,0,-1,937,1765,0,0
-280,-741,0,0,0,0,0,0,0,0,0,-1,944,1765,0,0
-273,-741,0,0,0,0,0,0,0,0,0,-1,951,1765,0,0
-266,-741,0,0,0,0,0,0,0,0,0,-1,958,1765,0,0
-259,-741,0,0,0,0,0,0,0,0,0,-1,965,1765,0,0
-252,-741,0,0,0,0,0,0,0,0,0,-1,972,1765,0,0
-245,-741,0,0,0,0,0,0,0,0,0,-1,979,1765,0,0
-238,-741,1.66083,15.1331,0,0,0,0,0,0,0,-1,986,1765,1.66083,-15.1331
-231,-741,5.39471,17.6553,0,0,0,0,0,0,0,-1,993,1765,5.39473,-17.6553
-224,-741,5.67352,16.8585,0,0,0,0,0,0,0,-1,1000,1765,5.67352,-16.8586
-217,-741,5.95233,16.0619,0,0,0,0,0,0,0,-1,1007,1765,5.95232,-16.0619
-210,-741,5.8493,14.8081,0,0,0,0,0,0,0,-1,1014,1765,5.84933,-14.8081
-203,-741,5.79761,18.1439,0,0,0,0,0,0,0,-1,1021,1765,5.79762,-18.1439
-196,-741,5.52917,17.0542,0,0,0,0,0,0,0,-1,1028,1765,5.52916,-17.0542
-189,-741,5.26074,15.9645,0,0,0,0,0,0,0,-1,1035,1765,5.26071,-15.9645
-182,-741,6.32788,16.0284,0,0,0,0,0,0,0,-1,1042,1765,6.32791,-16.0284
-175,-741,5.36108,15.3015,0,0,0,0,0,0,0,-1,1049,1765,5.3611,-15.3015
-168,-741,4.49768,14.7655,0,0,0,0,0,0,0,-1,1056,1765,4.49766,-14.7656
-161,-741,3.73047,14.4974,0,0,0,0,0,0,0,-1,1063,1765,3.73043,-14.4974
-154,-741,2.46143,9.75415,0,0,0,0,0,0,0,-1,1070,1765,2.46145,-9.75416
-147,-741,5.29211,15.8888,0,0,0,0,0,0,0,-1,1077,1765,5.29216,-15.8887
-140,-741,5.2594,16.6787,0,0,0,0,0,0,0,-1,1084,1765,5.25943,-16.6788
-133,-741,5.02844,17.6019,0,0,0,0,0,0,0,-1,1091,1765,5.02846,-17.6019
-126,-741,5.01514,17.3507,0.00548392,0.00580663,0.0060434,0.0116908,-0.000400279,0.798745,0.00793068,0.0467349,1098,1765,5.01514,-17.3507
-119,-741,4.90308,17.3212,0.00620051,0.00475233,0.00509379,0.0106214,0.000331427,0.714795,0.0069731,0.04427,1105,1765,4.90312,-17.3212
-112,-741,5.09937,17.2813,0.0066559,0.00391012,0.00418202,0.00968461,0.0008814,0.626799,0.00618358,0.0437598,1112,1765,5.09938,-17.2812
-105,-741,5.23145,17.3114,0.00663501,0.0033019,0.00333429,0.00869604,0.00124087,0.553645,0.0054312,0.0390339,1119,1765,5.23149,-17.3114
-98,-741,5.27051,17.3713,0.00616988,0.00282708,0.00261794,0.00760447,0.00139249,0.501295,0.00467513,0.0425777,1126,1765,5.27045,-17.3713
-91,-741,5.22839,17.4878,0,0,0,0,0,0,0,-1,1133,1765,5.22843,-17.4878
-84,-741,5.099,17.4557,0,0,0,0,0,0,0,-1,1140,1765,5.099,-17.4557
-77,-741,5.12634,17.5057,0,0,0,0,0,0,0,-1,1147,1765,5.12636,-17.5057
-70,-741,5.1405,17.6763,0,0,0,0,0,0,0,-1,1154,1765,5.14051,-17.6763
-63,-741,5.1106,17.8424,0,0,0,0,0,0,0,-1,1161,1765,5.11054,-17.8424
-56,-741,5.14087,17.9865,0,0,0,0,0,0,0,-1,1168,1765,5.14085,-17.9865
-49,-741,5.12842,18.1635,0,0,0,0,0,0,0,-1,1175,1765,5.12841,-18.1634
-42,-741,5.07031,18.019,0,0,0,0,0,0,0,-1,1182,1765,5.07027,-18.0191
-35,-741,5.10437,18.202,-0.00345919,0.000746261,-0.00121672,0.00107291,-0.00378584,-1.30851,0.00294736,0.0210152,1189,1765,5.10437,-18.2021
-28,-741,5.13123,18.2876,-0.00318925,0.000676291,-0.00123742,0.00103847,-0.00355144,-1.28606,0.00277922,0.0135649,1196,1765,5.13117,-18.2876
-21,-741,5.14258,18.3473,-0.00300925,0.000595811,-0.00112679,0.000919022,-0.00333246,-1.29145,0.00258306,0.0163391,1203,1765,5.14253,-18.3473
-14,-741,5.09741,18.4122,-0.00251308,0.000453077,-0.000834643,0.000671806,-0.00273181,-1.3145,0.0020816,0.0169867,1210,1765,5.09739,-18.4122
-7,-741,5.07202,18.4438,-0.00190595,0.000261054,-0.000511979,0.000375925,-0.00202082,-1.35008,0.00148843,0.0157829,1217,1765,5.07206,-18.4438
0,-741,5.07031,18.4736,-0.00127352,7.59729e-05,-0.000281995,0.00013253,-0.00133007,-1.37286,0.000934031,0.015672,1224,1765,5.0703,-18.4737
7,-741,5.06372,18.5461,-0.000663482,-6.31269e-05,-0.000105187,-4.52309e-05,-0.000681378,-1.40227,0.000439951,0.0165543,1231,1765,5.06376,-18.5462
14,-741,5.06226,18.5922,-3.61414e-05,-0.000273098,6.83243e-05,-1.78523e-05,-0.000291387,0.261549,0.000188589,0.0154985,1238,1765,5.06224,-18.5921
21,-741,5.03052,18.6088,0.000511443,-0.000499374,0.000183381,0.000543683,-0.000531615,0.174033,0.000620837,0.012776,1245,1765,5.03056,-18.6088
28,-741,5.01709,18.6711,0.00102096,-0.000653231,0.00021281,0.00104759,-0.000679858,0.124475,0.00100484,0.0134549,1252,1765,5.0171,-18.6711
35,-741,5.04163,18.686,0.00146822,-0.000661434,0.000136852,0.00147698,-0.000670192,0.0639096,0.00126851,0.0147297,1259,1765,5.04163,-18.686
42,-741,5.05591,18.6947,0.00181867,-0.000713817,0.000101365,0.00182272,-0.000717868,0.0399409,0.00151234,0.0155997,1266,1765,5.05595,-18.6947
49,-741,5.01514,18.7139,0.00514598,-0.000686952,-0.000355764,0.0051676,-0.00070857,-0.0606925,0.00370392,0.010752,1273,1765,5.0151,-18.7139
56,-741,4.99878,18.7301,0.0088557,5.84498e-05,0.000798342,0.00892756,-1.3412e-05,0.0897718,0.00595618,0.0100125,1280,1765,4.99876,-18.7302
63,-741,4.99646,18.7296,0.0120878,0.000642623,0.00150534,0.0122825,0.000447942,0.128612,0.00804319,0.014373,1287,1765,4.99649,-18.7296
70,-741,4.979,18.771,0.0150894,0.00138072,0.00228292,0.0154596,0.00101054,0.160753,0.0099866,0.0173832,1294,1765,4.97903,-18.771
77,-741,4.96533,18.8171,0.0183641,0.00174261,0.00296563,0.0188774,0.00122932,0.171379,0.0121958,0.0140823,1301,1765,4.9653,-18.8172
84,-741,4.98022,18.7859,0.0215896,0.00205908,0.00374312,0.0222824,0.00136627,0.183018,0.0144211,0.0149079,1308,1765,4.98027,-18.7859
91,-741,4.97498,18.7759,0.0241746,0.00227189,0.00453138,0.0250751,0.00137143,0.196161,0.0162789,0.0121077,1315,1765,4.97494,-18.7759
98,-741,4.99365,18.778,0.0258849,0.00248703,0.00525507,0.027011,0.00136096,0.211091,0.0175713,0.00988162,1322,1765,4.99362,-18.7779
105,-741,4.99976,18.733,0.0267153,0.00248165,0.0058312,0.0280454,0.00115153,0.224267,0.0183252,0.010631,1329,1765,4.99972,-18.7331
112,-741,5.00964,18.7137,0.0265501,0.00222042,0.00610594,0.0279965,0.000774021,0.232597,0.0184117,0.010946,1336,1765,5.00966,-18.7138
119,-741,4.99023,18.6901,0.0254534,0.00188576,0.00600376,0.0268947,0.000444471,0.235606,0.0177835,0.0138145,1343,1765,4.99019,-18.6901
126,-741,4.96692,18.6348,0.0235598,0.0014597,0.0056527,0.0249217,9.77963e-05,0.236424,0.016582,0.0185841,1350,1765,4.96693,-18.6348
133,-741,4.9574,18.6063,0.0210836,0.000986203,0.00511241,0.0223094,-0.000239538,0.235316,0.0149534,0.0141118,1357,1765,4.95744,-18.6063
140,-741,4.9408,18.5842,0.018319,0.00051162,0.00443611,0.0193629,-0.000532292,0.231117,0.0130896,0.0109363,1364,1765,4.94075,-18.5843
147,-741,4.94446,18.5692,0.0156308,0.000239918,0.00371236,0.0164794,-0.000608731,0.224739,0.0111947,0.0103224,1371,1765,4.94449,-18.5692
154,-741,4.94287,18.5652,0.0105944,1.95433e-05,0.0032798,0.0115291,-0.00091508,0.277606,0.00800852,0.00898299,1378,1765,4.94283,-18.5652
161,-741,4.9165,18.5229,0.00655534,-0.000999474,0.000829893,0.00664543,-0.00108956,0.108132,0.00483457,0.0111035,1385,1765,4.91653,-18.523
168,-741,4.89929,18.4595,0.00412727,-0.00119598,-0.000368706,0.00415268,-0.0012214,-0.0688254,0.00325294,0.024056,1392,1765,4.8993,-18.4594
175,-741,4.87598,18.4208,0,0,0,0,0,0,0,-1,1399,1765,4.87597,-18.4207
182,-741,4.91028,18.3058,0,0,0,0,0,0,0,-1,1406,1765,4.91027,-18.3058
189,-741,4.88013,18.2488,0,0,0,0,0,0,0,-1,1413,1765,4.88014,-18.2488
196,-741,4.84106,18.2188,0,0,0,0,0,0,0,-1,1420,1765,4.8411,-18.2187
203,-741,4.8634,18.1378,0,0,0,0,0,0,0,-1,1427,1765,4.8634,-18.1378
210,-741,4.86328,18.0463,0,0,0,0,0,0,0,-1,1434,1765,4.8633,-18.0463
217,-741,4.87952,17.9578,-0.0022869,0.000594049,-0.00459642,0.00397042,-0.00566327,-0.937246,0.00559057,0.0266984,1441,1765,4.87957,-17.9578
224,-741,4.92285,17.8282,-0.00197585,0.00020261,-0.00498852,0.00421943,-0.00599267,-0.892885,0.00592551,0.0277095,1448,1765,4.92283,-17.8282
231,-741,4.88892,17.7988,-0.0015902,-0.000294193,-0.00533123,0.00442827,-0.00631266,-0.845876,0.00623301,0.0350816,1455,1765,4.88895,-17.7989
238,-741,4.92114,17.8182,-0.000957268,-0.000829321,-0.00558707,0.00469415,-0.00648073,-0.791123,0.00647925,0.036834,1462,1765,4.92109,-17.8182
245,-741,5.01221,17.6814,-0.000103107,-0.00117712,-0.00580051,0.0051852,-0.00646543,-0.73924,0.00674002,0.044968,1469,1765,5.01225,-17.6814
252,-741,4.82959,17.4407,0,0,0,0,0,0,0,-1,1476,1765,4.82955,-17.4407
259,-741,5.00928,17.6107,0,0,0,0,0,0,0,-1,1483,1765,5.00931,-17.6107
266,-741,4.40173,15.2345,0,0,0,0,0,0,0,-1,1490,1765,4.40175,-15.2345
273,-741,17.0328,7.54468,0,0,0,0,0,0,0,-1,1497,1765,17.0328,-7.54474
280,-741,15.7959,7.14307,0,0,0,0,0,0,0,-1,1504,1765,15.7959,-7.14305
287,-741,13.988,6.99292,0,0,0,0,0,0,0,-1,1511,1765,13.988,-6.99287
294,-741,12.3752,7.18066,0,0,0,0,0,0,0,-1,1518,1765,12.3752,-7.18061
301,-741,10.2242,6.40942,0,0,0,0,0,0,0,-1,1525,1765,10.2242,-6.40947
308,-741,8.27747,6.42419,0,0,0,0,0,0,0,-1,1532,1765,8.27746,-6.42424
315,-741,7.94568,6.22974,0,0,0,0,0,0,0,-1,1539,1765,7.94567,-6.22972
322,-741,3.08521,12.3561,0,0,0,0,0,0,0,-1,1546,1765,3.08526,-12.3561
329,-741,4.46472,13.5316,0,0,0,0,0,0,0,-1,1553,1765,4.46467,-13.5316
336,-741,4.74475,14.6453,0,0,0,0,0,0,0,-1,1560,1765,4.7447,-14.6452
343,-741,5.42297,5.93701,0,0,0,0,0,0,0,-1,1567,1765,5.42296,-5.937
350,-741,4.90369,5.44666,0,0,0,0,0,0,0,-1,1574,1765,4.90368,-5.44664
357,-741,4.02063,5.16626,0,0,0,0,0,0,0,-1,1581,1765,4.02058,-5.1662
364,-741,0,0,0,0,0,0,0,0,0,-1,1588,1765,0,0
371,-741,0,0,0,0,0,0,0,0,0,-1,1595,1765,0,0
378,-741,0,0,0,0,0,0,0,0,0,-1,1602,1765,0,0
385,-741,0,0,0,0,0,0,0,0,0,-1,1609,1765,0,0
392,-741,0,0,0,0,0,0,0,0,0,-1,1616,1765,0,0
399,-741,0,0,0,0,0,0,0,0,0,-1,1623,1765,0,0
406,-741,0,0,0,0,0,0,0,0,0,-1,1630,1765,0,0
413,-741,0,0,0,0,0,0,0,0,0,-1,1637,1765,0,0
420,-741,0,0,0,0,0,0,0,0,0,-1,1644,1765,0,0
427,-741,0,0,0,0,0,0,0,0,0,-1,1651,1765,0,0
434,-741,0,0,0,0,0,0,0,0,0,-1,1658,1765,0,0
441,-741,0,0,0,0,0,0,0,0,0,-1,1665,1765,0,0
448,-741,0,0,0,0,0,0,0,0,0,-1,1672,1765,0,0
455,-741,0,0,0,0,0,0,0,0,0,-1,1679,1765,0,0
462,-741,0,0,0,0,0,0,0,0,0,-1,1686,1765,0,0
469,-741,0,0,0,0,0,0,0,0,0,-1,1693,1765,0,0
476,-741,0,0,0,0,0,0,0,0,0,-1,1700,1765,0,0
483,-741,0,0,0,0,0,0,0,0,0,-1,1707,1765,0,0
490,-741,0,0,0,0,0,0,0,0,0,-1,1714,1765,0,0
497,-741,0,0,0,0,0,0,0,0,0,-1,1721,1765,0,0
504,-741,0,0,0,0,0,0,0,0,0,-1,1728,1765,0,0
511,-741,0,0,0,0,0,0,0,0,0,-1,1735,1765,0,0
518,-741,0,0,0,0,0,0,0,0,0,-1,1742,1765,0,0
525,-741,0,0,0,0,0,0,0,0,0,-1,1749,1765,0,0
532,-741,0,0,0,0,0,0,0,0,0,-1,1756,1765,0,0
539,-741,0,0,0,0,0,0,0,0,0,-1,1763,1765,0,0
546,-741,0,0,0,0,0,0,0,0,0,-1,1770,1765,0,0
553,-741,0,0,0,0,0,0,0,0,0,-1,1777,1765,0,0
560,-741,0,0,0,0,0,0,0,0,0,-1,1784,1765,0,0
567,-741,0,0,0,0,0,0,0,0,0,-1,1791,1765,0,0
574,-741,0,0,0,0,0,0,0,0,0,-1,1798,1765,0,0
581,-741,0,0,0,0,0,0,0,0,0,-1,1805,1765,0,0
588,-741,0,0,0,0,0,0,0,0,0,-1,1812,1765,0,0
595,-741,0,0,0,0,0,0,0,0,0,-1,1819,1765,0,0
602,-741,0,0,0,0,0,0,0,0,0,-1,1826,1765,0,0
609,-741,0,0,0,0,0,0,0,0,0,-1,1833,1765,0,0
616,-741,0,0,0,0,0,0,0,0,0,-1,1840,1765,0,0
623,-741,0,0,0,0,0,0,0,0,0,-1,1847,1765,0,0
630,-741,0,0,0,0,0,0,0,0,0,-1,1854,1765,0,0
637,-741,0,0,0,0,0,0,0,0,0,-1,1861,1765,0,0
644,-741,0,0,0,0,0,0,0,0,0,-1,1868,1765,0,0
651,-741,0,0,0,0,0,0,0,0,0,-1,1875,1765,0,0
658,-741,0,0,0,0,0,0,0,0,0,-1,1882,1765,0,0
665,-741,0,0,0,0,0,0,0,0,0,-1,1889,1765,0,0
672,-741,0,0,0,0,0,0,0,0,0,-1,1896,1765,0,0
679,-741,0,0,0,0,0,0,0,0,0,-1,1903,1765,0,0
686,-741,0,0,0,0,0,0,0,0,0,-1,1910,1765,0,0
693,-741,0,0,0,0,0,0,0,0,0,-1,1917,1765,0,0
700,-741,0,0,0,0,0,0,0,0,0,-1,1924,1765,0,0
707,-741,0,0,0,0,0,0,0,0,0,-1,1931,1765,0,0
714,-741,0,0,0,0,0,0,0,0,0,-1,1938,1765,0,0
721,-741,0,0,0,0,0,0,0,0,0,-1,1945,1765,0,0
728,-741,0,0,0,0,0,0,0,0,0,-1,1952,1765,0,0
735,-741,0,0,0,0,0,0,0,0,0,-1,1959,1765,0,0
742,-741,0,0,0,0,0,0,0,0,0,-1,1966,1765,0,0
749,-741,0,0,0,0,0,0,0,0,0,-1,1973,1765,0,0
756,-741,0,0,0,0,0,0,0,0,0,-1,1980,1765,0,0
763,-741,0,0,0,0,0,0,0,0,0,-1,1987,1765,0,0
770,-741,0,0,0,0,0,0,0,0,0,-1,1994,1765,0,0
777,-741,0,0,0,0,0,0,0,0,0,-1,2001,1765,0,0
784,-741,0,0,0,0,0,0,0,0,0,-1,2008,1765,0,0
791,-741,0,0,0,0,0,0,0,0,0,-1,2015,1765,0,0
798,-741,0,0,0,0,0,0,0,0,0,-1,2022,1765,0,0
805,-741,0,0,0,0,0,0,0,0,0,-1,2029,1765,0,0
812,-741,0,0,0,0,0,0,0,0,0,-1,2036,1765,0,0
-700,-748,0,0,0,0,0,0,0,0,0,-1,524,1772,0,0
-693,-748,0,0,0,0,0,0,0,0,0,-1,531,1772,0,0
-686,-748,0,0,0,0,0,0,0,0,0,-1,538,1772,0,0
-679,-748,0,0,0,0,0,0,0,0,0,-1,545,1772,0,0
-672,-748,0,0,0,0,0,0,0,0,0,-1,552,1772,0,0
-665,-748,0,0,0,0,0,0,0,0,0,-1,559,1772,0,0
-658,-748,0,0,0,0,0,0,0,0,0,-1,566,1772,0,0
-651,-748,0,0,0,0,0,0,0,0,0,-1,573,1772,0,0
-644,-748,0,0,0,0,0,0,0,0,0,-1,580,1772,0,0
-637,-748,0,0,0,0,0,0,0,0,0,-1,587,1772,0,0
-630,-748,0,0,0,0,0,0,0,0,0,-1,594,1772,0,0
-623,-748,0,0,0,0,0,0,0,0,0,-1,601,1772,0,0
-616,-748,0,0,0,0,0,0,0,0,0,-1,608,1772,0,0
-609,-748,0,0,0,0,0,0,0,0,0,-1,615,1772,0,0
-602,-748,0,0,0,0,0,0,0,0,0,-1,622,1772,0,0
-595,-748,0,0,0,0,0,0,0,0,0,-1,629,1772,0,0
-588,-748,0,0,0,0,0,0,0,0,0,-1,636,1772,0,0
-581,-748,0,0,0,0,0,0,0,0,0,-1,643,1772,0,0
-574,-748,0,0,0,0,0,0,0,0,0,-1,650,1772,0,0
-567,-748,0,0,0,0,0,0,0,0,0,-1,657,1772,0,0
-560,-748,0,0,0,0,0,0,0,0,0,-1,664,1772,0,0
-553,-748,0,0,0,0,0,0,0,0,0,-1,671,1772,0,0
-546,-748,0,0,0,0,0,0,0,0,0,-1,678,1772,0,0
-539,-748,0,0,0,0,0,0,0,0,0,-1,685,1772,0,0
-532,-748,0,0,0,0,0,0,0,0,0,-1,692,1772,0,0
-525,-748,0,0,0,0,0,0,0,0,0,-1,699,1772,0,0
-518,-748,0,0,0,0,0,0,0,0,0,-1,706,1772,0,0
-511,-748,0,0,0,0,0,0,0,0,0,-1,713,1772,0,0
-504,-748,0,0,0,0,0,0,0,0,0,-1,720,1772,0,0
-497,-748,0,0,0,0,0,0,0,0,0,-1,727,1772,0,0
-490,-748,0,0,0,0,0,0,0,0,0,-1,734,1772,0,0
-483,-748,0,0,0,0,0,0,0,0,0,-1,741,1772,0,0
-476,-748,0,0,0,0,0,0,0,0,0,-1,748,1772,0,0
-469,-748,0,0,0,0,0,0,0,0,0,-1,755,1772,0,0
-462,-748,0,0,0,0,0,0,0,0,0,-1,762,1772,0,0
-455,-748,0,0,0,0,0,0,0,0,0,-1,769,1772,0,0
-448,-748,0,0,0,0,0,0,0,0,0,-1,776,1772,0,0
-441,-748,0,0,0,0,0,0,0,0,0,-1,783,1772,0,0
-434,-748,0,0,0,0,0,0,0,0,0,-1,790,1772,0,0
-427,-748,0,0,0,0,0,0,0,0,0,-1,797,1772,0,0
-420,-748,0,0,0,0,0,0,0,0,0,-1,804,1772,0,0
-413,-748,0,0,0,0,0,0,0,0,0,-1,811,1772,0,0
-406,-748,0,0,0,0,0,0,0,0,0,-1,818,1772,0,0
-399,-748,0,0,0,0,0,0,0,0,0,-1,825,1772,0,0
-392,-748,0,0,0,0,0,0,0,0,0,-1,832,1772,0,0
-385,-748,0,0,0,0,0,0,0,0,0,-1,839,1772,0,0
-378,-748,0,0,0,0,0,0,0,0,0,-1,846,1772,0,0
-371,-748,0,0,0,0,0,0,0,0,0,-1,853,1772,0,0
-364,-748,0,0,0,0,0,0,0,0,0,-1,860,1772,0,0
-357,-748,0,0,0,0,0,0,0,0,0,-1,867,1772,0,0
-350,-748,0,0,0,0,0,0,0,0,0,-1,874,1772,0,0
-343,-748,0,0,0,0,0,0,0,0,0,-1,881,1772,0,0
-336,-748,0,0,0,0,0,0,0,0,0,-1,888,1772,0,0
-329,-748,0,0,0,0,0,0,0,0,0,-1,895,1772,0,0
-322,-748,0,0,0,0,0,0,0,0,0,-1,902,1772,0,0
-315,-748,0,0,0,0,0,0,0,0,0,-1,909,1772,0,0
-308,-748,0,0,0,0,0,0,0,0,0,-1,916,1772,0,0
-301,-748,0,0,0,0,0,0,0,0,0,-1,923,1772,0,0
-294,-748,0,0,0,0,0,0,0,0,0,-1,930,1772,0,0
-287,-748,0,0,0,0,0,0,0,0,0,-1,937,1772,0,0
-280,-748,0,0,0,0,0,0,0,0,0,-1,944,1772,0,0
-273,-748,0,0,0,0,0,0,0,0,0,-1,951,1772,0,0
-266,-748,0,0,0,0,0,0,0,0,0,-1,958,1772,0,0
-259,-748,0,0,0,0,0,0,0,0,0,-1,965,1772,0,0
-252,-748,0,0,0,0,0,0,0,0,0,-1,972,1772,0,0
-245,-748,0,0,0,0,0,0,0,0,0,-1,979,1772,0,0
-238,-748,0,0,0,0,0,0,0,0,0,-1,986,1772,0,0
-231,-748,0,0,0,0,0,0,0,0,0,-1,993,1772,0,0
-224,-748,0,0,0,0,0,0,0,0,0,-1,1000,1772,0,0
-217,-748,6.0882,15.7745,0,0,0,0,0,0,0,-1,1007,1772,6.08817,-15.7745
-210,-748,6.56482,15.8542,0,0,0,0,0,0,0,-1,1014,1772,6.56483,-15.8542
-203,-748,7.08105,16.2065,0,0,0,0,0,0,0,-1,1021,1772,7.0811,-16.2065
-196,-748,6.21082,17.6426,0,0,0,0,0,0,0,-1,1028,1772,6.21081,-17.6426
-189,-748,7.35205,17.4255,0,0,0,0,0,0,0,-1,1035,1772,7.35202,-17.4255
-182,-748,6.62622,16.2686,0,0,0,0,0,0,0,-1,1042,1772,6.6262,-16.2685
-175,-748,5.27954,14.9248,0,0,0,0,0,0,0,-1,1049,1772,5.27955,-14.9248
-168,-748,4.27917,14.0815,0,0,0,0,0,0,0,-1,1056,1772,4.27923,-14.0815
-161,-748,3.50562,13.2729,0,0,0,0,0,0,0,-1,1063,1772,3.5056,-13.2729
-154,-748,-3.38562,10.6989,0,0,0,0,0,0,0,-1,1070,1772,-3.38564,-10.6989
-147,-748,-4.87122,10.7748,0,0,0,0,0,0,0,-1,1077,1772,-4.87117,-10.7748
-140,-748,5.61768,19.319,0,0,0,0,0,0,0,-1,1084,1772,5.6177,-19.319
-133,-748,6.67126,16.2961,0,0,0,0,0,0,0,-1,1091,1772,6.67131,-16.2961
-126,-748,5.20349,17.8124,0,0,0,0,0,0,0,-1,1098,1772,5.20343,-17.8124
-119,-748,4.87976,17.0997,0.0101263,0.00578804,0.00605542,0.0143894,0.00152498,0.61341,0.00912718,0.0417414,1105,1772,4.87976,-17.0998
-112,-748,5.17395,17.2308,0.0106729,0.00473948,0.00484161,0.0133844,0.00202793,0.510527,0.00832967,0.0447425,1112,1772,5.17396,-17.2308
-105,-748,5.29297,17.3088,0.0105285,0.00406743,0.00379074,0.0122786,0.0023174,0.432507,0.00753301,0.0493466,1119,1772,5.29294,-17.3088
-98,-748,5.20374,16.9265,0,0,0,0,0,0,0,-1,1126,1772,5.20373,-16.9265
-91,-748,4.85352,15.3033,0,0,0,0,0,0,0,-1,1133,1772,4.85351,-15.3033
-84,-748,-0.192017,7.26196,0,0,0,0,0,0,0,-1,1140,1772,-0.192047,-7.26201
-77,-748,4.42615,13.5537,0,0,0,0,0,0,0,-1,1147,1772,4.4261,-13.5538
-70,-748,4.46191,13.7446,0,0,0,0,0,0,0,-1,1154,1772,4.4619,-13.7446
-63,-748,4.49768,13.9355,0,0,0,0,0,0,0,-1,1161,1772,4.49769,-13.9355
-56,-748,3.05762,7.87817,0,0,0,0,0,0,0,-1,1168,1772,3.05768,-7.87822
-49,-748,3.04102,7.82471,0,0,0,0,0,0,0,-1,1175,1772,3.04096,-7.82468
-42,-748,0.793457,14.9474,0,0,0,0,0,0,0,-1,1182,1772,0.793413,-14.9474
-35,-748,5.224,18.165,0,0,0,0,0,0,0,-1,1189,1772,5.22396,-18.165
-28,-748,5.20667,18.3257,-0.00350394,-0.000557586,-0.00149562,6.85554e-05,-0.00413008,-1.17432,0.00277652,0.0486638,1196,1772,5.20666,-18.3257
-21,-748,5.17896,18.3717,-0.00328909,-0.00064374,-0.0013212,-9.6913e-05,-0.00383591,-1.17838,0.00252559,0.0235687,1203,1772,5.179,-18.3717
-14,-748,5.13611,18.384,-0.00267662,-0.000703732,-0.000950346,-0.00032042,-0.00305993,-1.18741,0.00194198,0.0159526,1210,1772,5.1361,-18.3841
-7,-748,5.13525,18.4286,-0.00188756,-0.000914135,-0.000472507,-0.000722502,-0.00207919,-1.1855,0.00121889,0.0157574,1217,1772,5.13524,-18.4286
0,-748,5.11157,18.4756,-0.00101603,-0.00112824,-0.000128286,-0.000932116,-0.00121215,-0.579266,0.000732813,0.0147757,1224,1772,5.11154,-18.4756
7,-748,5.09045,18.4982,-0.000120954,-0.00132869,0.000161904,-9.96267e-05,-0.00135002,0.130975,0.00086871,0.0128914,1231,1772,5.09045,-18.4982
14,-748,5.08386,18.5673,0.000829696,-0.001594,0.00050346,0.000930116,-0.00169442,0.196876,0.00153655,0.0144922,1238,1772,5.08385,-18.5672
21,-748,5.07178,18.6085,0.00168908,-0.00187911,0.000811686,0.00186505,-0.00205508,0.213484,0.00226417,0.0116194,1245,1772,5.07182,-18.6085
28,-748,5.05811,18.6715,0.00249999,-0.00211629,0.00103309,0.00272065,-0.00233695,0.210422,0.0029228,0.0121831,1252,1772,5.05806,-18.6715
35,-748,5.06274,18.692,0.00317299,-0.00215874,0.00112075,0.00339899,-0.00238475,0.198988,0.00335632,0.0129753,1259,1772,5.06274,-18.692
42,-748,5.06555,18.7061,0.00372892,-0.00227938,0.00128199,0.00399103,-0.00254148,0.201671,0.00380237,0.0144153,1266,1772,5.06551,-18.706
49,-748,5.03967,18.7137,0.00839816,-0.00221203,0.000827779,0.00846235,-0.00227622,0.0773933,0.00653384,0.011158,1273,1772,5.03968,-18.7138
56,-748,5.01282,18.7426,0.0137157,-0.00110771,0.00262811,0.0141679,-0.00155987,0.170378,0.0100058,0.0103615,1280,1772,5.01278,-18.7426
63,-748,4.9978,18.7487,0.0185924,-0.000156367,0.00368818,0.0192918,-0.000855799,0.187416,0.0131558,0.0116074,1287,1772,4.99776,-18.7487
70,-748,4.98914,18.7653,0.0231309,0.00117148,0.00469807,0.0240938,0.000208581,0.202157,0.0159934,0.0137256,1294,1772,4.98916,-18.7653
77,-748,4.98853,18.7767,0.0281112,0.00192384,0.00550071,0.0292197,0.000815326,0.198858,0.0192138,0.0127533,1301,1772,4.98858,-18.7767
84,-748,4.98059,18.7722,0.0330348,0.00264442,0.00633247,0.0343015,0.00137772,0.197428,0.0224226,0.014257,1308,1772,4.9806,-18.7722
91,-748,4.96716,18.7827,0.0371863,0.00321859,0.00720402,0.038651,0.00175389,0.200583,0.025203,0.0111265,1315,1772,4.96713,-18.7828
98,-748,4.96057,18.7749,0.0402699,0.00385487,0.00792642,0.0419204,0.00220434,0.205297,0.0272419,0.0104459,1322,1772,4.96056,-18.7749
105,-748,4.97351,18.729,0.0420429,0.0041274,0.008476,0.0438515,0.00231886,0.210219,0.0284928,0.0118243,1329,1772,4.97348,-18.729
112,-748,4.99744,18.7158,0.0422475,0.00396282,0.00861585,0.0440971,0.00211321,0.211466,0.0287196,0.01465,1336,1772,4.99746,-18.7159
119,-748,4.97314,18.6882,0.0411274,0.00356979,0.00827536,0.0428699,0.00182726,0.207536,0.0279908,0.0134096,1343,1772,4.9731,-18.6883
126,-748,4.96655,18.6575,0.0387942,0.00293827,0.00761814,0.0403457,0.00138681,0.200906,0.026447,0.0150439,1350,1772,4.96657,-18.6574
133,-748,4.91931,18.6351,0.0356306,0.00219037,0.00672999,0.0369342,0.000886746,0.191334,0.0243326,0.00927731,1357,1772,4.9193,-18.6351
140,-748,4.92773,18.6162,0.0319639,0.00132655,0.0056879,0.0329858,0.000304667,0.177763,0.0218897,0.0115445,1364,1772,4.92777,-18.6162
147,-748,4.93481,18.5793,0.0283796,0.000697568,0.00459291,0.0291217,-4.45778e-05,0.1602,0.0194294,0.0128135,1371,1772,4.93486,-18.5794
154,-748,4.88965,18.5505,0.0219215,0.00016719,0.00393584,0.0226117,-0.000522996,0.173594,0.0152518,0.0119105,1378,1772,4.88964,-18.5506
161,-748,4.87122,18.5267,0.0163653,-0.00138153,0.000370475,0.016373,-0.00138926,0.0208634,0.0114067,0.0199711,1385,1772,4.8712,-18.5267
168,-748,4.8866,18.4841,0,0,0,0,0,0,0,-1,1392,1772,4.88656,-18.4841
175,-748,11.6235,16.8242,0,0,0,0,0,0,0,-1,1399,1772,11.6236,-16.8242
182,-748,7.62476,10.3058,0,0,0,0,0,0,0,-1,1406,1772,7.62476,-10.3058
189,-748,6.15857,6.95898,0,0,0,0,0,0,0,-1,1413,1772,6.15862,-6.95896
196,-748,3.9425,8.46021,0,0,0,0,0,0,0,-1,1420,1772,3.9425,-8.46026
203,-748,3.9668,12.9835,0,0,0,0,0,0,0,-1,1427,1772,3.96678,-12.9836
210,-748,4.71472,16.8318,0,0,0,0,0,0,0,-1,1434,1772,4.71471,-16.8317
217,-748,4.94617,17.8571,0,0,0,0,0,0,0,-1,1441,1772,4.94615,-17.857
224,-748,5.01025,17.7432,-0.00336614,-0.000271878,-0.00653229,0.00489399,-0.00853202,-0.901677,0.00784579,0.0464978,1448,1772,5.01024,-17.7431
231,-748,4.82446,17.6995,-0.00279743,-0.000965107,-0.00696818,0.00514688,-0.00890942,-0.850762,0.00821175,0.0422306,1455,1772,4.82452,-17.6994
238,-748,4.95264,17.9528,0,0,0,0,0,0,0,-1,1462,1772,4.9526,-17.9528
245,-748,5.13135,17.7391,0,0,0,0,0,0,0,-1,1469,1772,5.1313,-17.7391
252,-748,4.38489,15.1183,0,0,0,0,0,0,0,-1,1476,1772,4.38484,-15.1183
259,-748,4.37708,14.7086,0,0,0,0,0,0,0,-1,1483,1772,4.37712,-14.7086
266,-748,17.9011,7.59448,0,0,0,0,0,0,0,-1,1490,1772,17.9011,-7.59452
273,-748,16.4131,7.57129,0,0,0,0,0,0,0,-1,1497,1772,16.413,-7.57125
280,-748,15.2177,7.24829,0,0,0,0,0,0,0,-1,1504,1772,15.2176,-7.24833
287,-748,13.697,6.93396,0,0,0,0,0,0,0,-1,1511,1772,13.697,-6.93401
294,-748,11.8735,6.83142,0,0,0,0,0,0,0,-1,1518,1772,11.8735,-6.83142
301,-748,10.1475,7.08789,0,0,0,0,0,0,0,-1,1525,1772,10.1474,-7.08787
308,-748,8.37451,7.6344,0,0,0,0,0,0,0,-1,1532,1772,8.37447,-7.63443
315,-748,6.65149,8.06299,0,0,0,0,0,0,0,-1,1539,1772,6.65144,-8.063
322,-748,2.9469,13.4518,0,0,0,0,0,0,0,-1,1546,1772,2.94694,-13.4518
329,-748,3.48315,14.6533,0,0,0,0,0,0,0,-1,1553,1772,3.48316,-14.6534
336,-748,3.76001,15.8163,0,0,0,0,0,0,0,-1,1560,1772,3.75995,-15.8163
343,-748,0,0,0,0,0,0,0,0,0,-1,1567,1772,0,0
350,-748,0,0,0,0,0,0,0,0,0,-1,1574,1772,0,0
357,-748,0,0,0,0,0,0,0,0,0,-1,1581,1772,0,0
364,-748,0,0,0,0,0,0,0,0,0,-1,1588,1772,0,0
371,-748,0,0,0,0,0,0,0,0,0,-1,1595,1772,0,0
378,-748,0,0,0,0,0,0,0,0,0,-1,1602,1772,0,0
385,-748,0,0,0,0,0,0,0,0,0,-1,1609,1772,0,0
392,-748,0,0,0,0,0,0,0,0,0,-1,1616,1772,0,0
399,-748,0,0,0,0,0,0,0,0,0,-1,1623,1772,0,0
406,-748,0,0,0,0,0,0,0,0,0,-1,1630,1772,0,0
413,-748,0,0,0,0,0,0,0,0,0,-1,1637,1772,0,0
420,-748,0,0,0,0,0,0,0,0,0,-1,1644,1772,0,0
427,-748,0,0,0,0,0,0,0,0,0,-1,1651,1772,0,0
434,-748,0,0,0,0,0,0,0,0,0,-1,1658,1772,0,0
441,-748,0,0,0,0,0,0,0,0,0,-1,1665,1772,0,0
448,-748,0,0,0,0,0,0,0,0,0,-1,1672,1772,0,0
455,-748,0,0,0,0,0,0,0,0,0,-1,1679,1772,0,0
462,-748,0,0,0,0,0,0,0,0,0,-1,1686,1772,0,0
469,-748,0,0,0,0,0,0,0,0,0,-1,1693,1772,0,0
476,-748,0,0,0,0,0,0,0,0,0,-1,1700,1772,0,0
483,-748,0,0,0,0,0,0,0,0,0,-1,1707,1772,0,0
490,-748,0,0,0,0,0,0,0,0,0,-1,1714,1772,0,0
497,-748,0,0,0,0,0,0,0,0,0,-1,1721,1772,0,0
504,-748,0,0,0,0,0,0,0,0,0,-1,1728,1772,0,0
511,-748,0,0,0,0,0,0,0,0,0,-1,1735,1772,0,0
518,-748,0,0,0,0,0,0,0,0,0,-1,1742,1772,0,0
525,-748,0,0,0,0,0,0,0,0,0,-1,1749,1772,0,0
532,-748,0,0,0,0,0,0,0,0,0,-1,1756,1772,0,0
539,-748,0,0,0,0,0,0,0,0,0,-1,1763,1772,0,0
546,-748,0,0,0,0,0,0,0,0,0,-1,1770,1772,0,0
553,-748,0,0,0,0,0,0,0,0,0,-1,1777,1772,0,0
560,-748,0,0,0,0,0,0,0,0,0,-1,1784,1772,0,0
567,-748,0,0,0,0,0,0,0,0,0,-1,1791,1772,0,0
574,-748,0,0,0,0,0,0,0,0,0,-1,1798,1772,0,0
581,-748,0,0,0,0,0,0,0,0,0,-1,1805,1772,0,0
588,-748,0,0,0,0,0,0,0,0,0,-1,1812,1772,0,0
595,-748,0,0,0,0,0,0,0,0,0,-1,1819,1772,0,0
602,-748,0,0,0,0,0,0,0,0,0,-1,1826,1772,0,0
609,-748,0,0,0,0,0,0,0,0,0,-1,1833,1772,0,0
616,-748,0,0,0,0,0,0,0,0,0,-1,1840,1772,0,0
623,-748,0,0,0,0,0,0,0,0,0,-1,1847,1772,0,0
630,-748,0,0,0,0,0,0,0,0,0,-1,1854,1772,0,0
637,-748,0,0,0,0,0,0,0,0,0,-1,1861,1772,0,0
644,-748,0,0,0,0,0,0,0,0,0,-1,1868,1772,0,0
651,-748,0,0,0,0,0,0,0,0,0,-1,1875,1772,0,0
658,-748,0,0,0,0,0,0,0,0,0,-1,1882,1772,0,0
665,-748,0,0,0,0,0,0,0,0,0,-1,1889,1772,0,0
672,-748,0,0,0,0,0,0,0,0,0,-1,1896,1772,0,0
679,-748,0,0,0,0,0,0,0,0,0,-1,1903,1772,0,0
686,-748,0,0,0,0,0,0,0,0,0,-1,1910,1772,0,0
693,-748,0,0,0,0,0,0,0,0,0,-1,1917,1772,0,0
700,-748,0,0,0,0,0,0,0,0,0,-1,1924,1772,0,0
707,-748,0,0,0,0,0,0,0,0,0,-1,1931,1772,0,0
714,-748,0,0,0,0,0,0,0,0,0,-1,1938,1772,0,0
721,-748,0,0,0,0,0,0,0,0,0,-1,1945,1772,0,0
728,-748,0,0,0,0,0,0,0,0,0,-1,1952,1772,0,0
735,-748,0,0,0,0,0,0,0,0,0,-1,1959,1772,0,0
742,-748,0,0,0,0,0,0,0,0,0,-1,1966,1772,0,0
749,-748,0,0,0,0,0,0,0,0,0,-1,1973,1772,0,0
756,-748,0,0,0,0,0,0,0,0,0,-1,1980,1772,0,0
763,-748,0,0,0,0,0,0,0,0,0,-1,1987,1772,0,0
770,-748,0,0,0,0,0,0,0,0,0,-1,1994,1772,0,0
777,-748,0,0,0,0,0,0,0,0,0,-1,2001,1772,0,0
784,-748,0,0,0,0,0,0,0,0,0,-1,2008,1772,0,0
791,-748,0,0,0,0,0,0,0,0,0,-1,2015,1772,0,0
798,-748,0,0,0,0,0,0,0,0,0,-1,2022,1772,0,0
805,-748,0,0,0,0,0,0,0,0,0,-1,2029,1772,0,0
812,-748,0,0,0,0,0,0,0,0,0,-1,2036,1772,0,0
-700,-755,0,0,0,0,0,0,0,0,0,-1,524,1779,0,0
-693,-755,0,0,0,0,0,0,0,0,0,-1,531,1779,0,0
-686,-755,0,0,0,0,0,0,0,0,0,-1,538,1779,0,0
-679,-755,0,0,0,0,0,0,0,0,0,-1,545,1779,0,0
-672,-755,0,0,0,0,0,0,0,0,0,-1,552,1779,0,0
-665,-755,0,0,0,0,0,0,0,0,0,-1,559,1779,0,0
-658,-755,0,0,0,0,0,0,0,0,0,-1,566,1779,0,0
-651,-755,0,0,0,0,0,0,0,0,0,-1,573,1779,0,0
-644,-755,0,0,0,0,0,0,0,0,0,-1,580,1779,0,0
-637,-755,0,0,0,0,0,0,0,0,0,-1,587,1779,0,0
-630,-755,0,0,0,0,0,0,0,0,0,-1,594,1779,0,0
-623,-755,0,0,0,0,0,0,0,0,0,-1,601,1779,0,0
-616,-755,0,0,0,0,0,0,0,0,0,-1,608,1779,0,0
-609,-755,0,0,0,0,0,0,0,0,0,-1,615,1779,0,0
-602,-755,0,0,0,0,0,0,0,0,0,-1,622,1779,0,0
-595,-755,0,0,0,0,0,0,0,0,0,-1,629,1779,0,0
-588,-755,0,0,0,0,0,0,0,0,0,-1,636,1779,0,0
-581,-755,0,0,0,0,0,0,0,0,0,-1,643,1779,0,0
-574,-755,0,0,0,0,0,0,0,0,0,-1,650,1779,0,0
-567,-755,0,0,0,0,0,0,0,0,0,-1,657,1779,0,0
-560,-755,0,0,0,0,0,0,0,0,0,-1,664,1779,0,0
-553,-755,0,0,0,0,0,0,0,0,0,-1,671,1779,0,0
-546,-755,0,0,0,0,0,0,0,0,0,-1,678,1779,0,0
-539,-755,0,0,0,0,0,0,0,0,0,-1,685,1779,0,0
-532,-755,0,0,0,0,0,0,0,0,0,-1,692,1779,0,0
-525,-755,0,0,0,0,0,0,0,0,0,-1,699,1779,0,0
-518,-755,0,0,0,0,0,0,0,0,0,-1,706,1779,0,0
-511,-755,0,0,0,0,0,0,0,0,0,-1,713,1779,0,0
-504,-755,0,0,0,0,0,0,0,0,0,-1,720,1779,0,0
-497,-755,0,0,0,0,0,0,0,0,0,-1,727,1779,0,0
-490,-755,0,0,0,0,0,0,0,0,0,-1,734,1779,0,0
-483,-755,0,0,0,0,0,0,0,0,0,-1,741,1779,0,0
-476,-755,0,0,0,0,0,0,0,0,0,-1,748,1779,0,0
-469,-755,0,0,0,0,0,0,0,0,0,-1,755,1779,0,0
-462,-755,0,0,0,0,0,0,0,0,0,-1,762,1779,0,0
-455,-755,0,0,0,0,0,0,0,0,0,-1,769,1779,0,0
-448,-755,0,0,0,0,0,0,0,0,0,-1,776,1779,0,0
-441,-755,0,0,0,0,0,0,0,0,0,-1,783,1779,0,0
-434,-755,0,0,0,0,0,0,0,0,0,-1,790,1779,0,0
-427,-755,0,0,0,0,0,0,0,0,0,-1,797,1779,0,0
-420,-755,0,0,0,0,0,0,0,0,0,-1,804,1779,0,0
-413,-755,0,0,0,0,0,0,0,0,0,-1,811,1779,0,0
-406,-755,0,0,0,0,0,0,0,0,0,-1,818,1779,0,0
-399,-755,0,0,0,0,0,0,0,0,0,-1,825,1779,0,0
-392,-755,0,0,0,0,0,0,0,0,0,-1,832,1779,0,0
-385,-755,0,0,0,0,0,0,0,0,0,-1,839,1779,0,0
-378,-755,0,0,0,0,0,0,0,0,0,-1,846,1779,0,0
-371,-755,0,0,0,0,0,0,0,0,0,-1,853,1779,0,0
-364,-755,0,0,0,0,0,0,0,0,0,-1,860,1779,0,0
-357,-755,0,0,0,0,0,0,0,0,0,-1,867,1779,0,0
-350,-755,0,0,0,0,0,0,0,0,0,-1,874,1779,0,0
-343,-755,0,0,0,0,0,0,0,0,0,-1,881,1779,0,0
-336,-755,0,0,0,0,0,0,0,0,0,-1,888,1779,0,0
-329,-755,0,0,0,0,0,0,0,0,0,-1,895,1779,0,0
-322,-755,0,0,0,0,0,0,0,0,0,-1,902,1779,0,0
-315,-755,0,0,0,0,0,0,0,0,0,-1,909,1779,0,0
-308,-755,0,0,0,0,0,0,0,0,0,-1,916,1779,0,0
-301,-755,0,0,0,0,0,0,0,0,0,-1,923,1779,0,0
-294,-755,0,0,0,0,0,0,0,0,0,-1,930,1779,0,0
-287,-755,0,0,0,0,0,0,0,0,0,-1,937,1779,0,0
-280,-755,0,0,0,0,0,0,0,0,0,-1,944,1779,0,0
-273,-755,0,0,0,0,0,0,0,0,0,-1,951,1779,0,0
-266,-755,0,0,0,0,0,0,0,0,0,-1,958,1779,0,0
-259,-755,0,0,0,0,0,0,0,0,0,-1,965,1779,0,0
-252,-755,0,0,0,0,0,0,0,0,0,-1,972,1779,0,0
-245,-755,0,0,0,0,0,0,0,0,0,-1,979,1779,0,0
-238,-755,0,0,0,0,0,0,0,0,0,-1,986,1779,0,0
-231,-755,0,0,0,0,0,0,0,0,0,-1,993,1779,0,0
-224,-755,0,0,0,0,0,0,0,0,0,-1,1000,1779,0,0
-217,-755,0,0,0,0,0,0,0,0,0,-1,1007,1779,0,0
-210,-755,0,0,0,0,0,0,0,0,0,-1,1014,1779,0,0
-203,-755,-3.07153,13.8969,0,0,0,0,0,0,0,-1,1021,1779,-3.07152,-13.8969
-196,-755,4.91333,14.9064,0,0,0,0,0,0,0,-1,1028,1779,4.91327,-14.9063
-189,-755,4.85864,12.9271,0,0,0,0,0,0,0,-1,1035,1779,4.85866,-12.9272
-182,-755,0.733154,13.2736,0,0,0,0,0,0,0,-1,1042,1779,0.733112,-13.2735
-175,-755,5.40198,14.8074,0,0,0,0,0,0,0,-1,1049,1779,5.40199,-14.8074
-168,-755,4.5177,13.7404,0,0,0,0,0,0,0,-1,1056,1779,4.5177,-13.7403
-161,-755,-2.85889,11.5868,0,0,0,0,0,0,0,-1,1063,1779,-2.85887,-11.5868
-154,-755,-3.83704,10.8331,0,0,0,0,0,0,0,-1,1070,1779,-3.83702,-10.8332
-147,-755,-5.40332,10.7094,0,0,0,0,0,0,0,-1,1077,1779,-5.40328,-10.7094
-140,-755,3.29346,10.2112,0,0,0,0,0,0,0,-1,1084,1779,3.2935,-10.2112
-133,-755,6.99927,16.2019,0,0,0,0,0,0,0,-1,1091,1779,6.99927,-16.2018
-126,-755,6.35095,15.2462,0,0,0,0,0,0,0,-1,1098,1779,6.35094,-15.2462
-119,-755,4.60474,16.6998,0,0,0,0,0,0,0,-1,1105,1779,4.60472,-16.6998
-112,-755,5.25708,17.3621,0,0,0,0,0,0,0,-1,1112,1779,5.25709,-17.362
-105,-755,5.23572,17.2729,0,0,0,0,0,0,0,-1,1119,1779,5.23577,-17.2729
-98,-755,4.26819,14.9769,0,0,0,0,0,0,0,-1,1126,1779,4.26815,-14.9769
-91,-755,3.91394,13.0228,0,0,0,0,0,0,0,-1,1133,1779,3.91399,-13.0228
-84,-755,0.169312,8.66443,0,0,0,0,0,0,0,-1,1140,1779,0.16932,-8.66446
-77,-755,-0.0491943,6.87439,0,0,0,0,0,0,0,-1,1147,1779,-0.0491385,-6.87443
-70,-755,4.5686,13.2169,0,0,0,0,0,0,0,-1,1154,1779,4.56865,-13.2169
-63,-755,-1.36316,7.3147,0,0,0,0,0,0,0,-1,1161,1779,-1.36312,-7.31473
-56,-755,0.0483398,5.06079,0,0,0,0,0,0,0,-1,1168,1779,0.0483138,-5.06084
-49,-755,-1.32263,5.33716,0,0,0,0,0,0,0,-1,1175,1779,-1.32264,-5.33718
-42,-755,-2.03613,4.01672,0,0,0,0,0,0,0,-1,1182,1779,-2.0361,-4.01671
-35,-755,-2.72498,2.37476,0,0,0,0,0,0,0,-1,1189,1779,-2.72502,-2.37473
-28,-755,5.16638,18.4077,0,0,0,0,0,0,0,-1,1196,1779,5.16642,-18.4077
-21,-755,5.14221,18.4697,0,0,0,0,0,0,0,-1,1203,1779,5.14223,-18.4697
-14,-755,5.25928,18.3558,-0.00297742,-0.00186741,-0.00132311,-0.000987615,-0.00385722,-0.983988,0.00231364,0.0316464,1210,1779,5.25929,-18.3559
-7,-755,5.19299,18.4244,-0.00202436,-0.00220005,-0.000526371,-0.00157855,-0.00264585,-0.702719,0.00153706,0.02241,1217,1779,5.19305,-18.4244
0,-755,5.1626,18.4689,-0.000876757,-0.00257026,0.000101357,-0.000870713,-0.0025763,0.0595675,0.00151324,0.0138902,1224,1779,5.16255,-18.4689
7,-755,5.13,18.5012,0.000373282,-0.0029954,0.000657747,0.000497154,-0.00311928,0.186148,0.00226351,0.0119237,1231,1779,5.13002,-18.5012
14,-755,5.1405,18.567,0.00174835,-0.00346858,0.00132622,0.00206614,-0.00378637,0.235183,0.00342725,0.0104132,1238,1779,5.14045,-18.567
21,-755,5.11279,18.6204,0.00302082,-0.00395841,0.00200223,0.00355443,-0.00449202,0.260454,0.00465612,0.014673,1245,1779,5.11275,-18.6203
28,-755,5.10217,18.6613,0.00422571,-0.00443419,0.00260662,0.00494976,-0.00515824,0.270943,0.00583627,0.017658,1252,1779,5.10218,-18.6613
35,-755,5.10522,18.7145,0.00521234,-0.00464847,0.00300825,0.00605761,-0.00549374,0.273922,0.00667183,0.0189104,1259,1779,5.10525,-18.7145
42,-755,5.09473,18.7023,0.00606033,-0.00495511,0.00351431,0.00708602,-0.0059808,0.283971,0.00755312,0.0151154,1266,1779,5.09477,-18.7023
49,-755,5.08069,18.6962,0.0122051,-0.00492177,0.00315601,0.0127682,-0.00548483,0.176549,0.0108144,0.0102606,1273,1779,5.08063,-18.6962
56,-755,5.03894,18.7371,0.0193182,-0.00353078,0.00577189,0.0206934,-0.00490604,0.233908,0.0156888,0.00906152,1280,1779,5.03898,-18.737
63,-755,5.01904,18.762,0.0259625,-0.00218969,0.00731994,0.027752,-0.00397921,0.23977,0.0199604,0.0094961,1287,1779,5.01909,-18.762
70,-755,5.01563,18.7496,0.032199,-0.000274779,0.00865451,0.0343614,-0.00243727,0.244855,0.0237618,0.0116387,1294,1779,5.01559,-18.7496
77,-755,5.0116,18.7373,0.0391684,0.00101337,0.00962294,0.0414579,-0.0012762,0.233586,0.0280737,0.0110962,1301,1779,5.01155,-18.7373
84,-755,5.02124,18.7485,0.046233,0.0023301,0.0105431,0.0486336,-7.04993e-05,0.223878,0.032446,0.0118865,1308,1779,5.0212,-18.7486
91,-755,4.99744,18.7549,0.0524154,0.0034532,0.0115593,0.0550072,0.00086141,0.220569,0.0363878,0.011539,1315,1779,4.99747,-18.7549
98,-755,4.95447,18.751,0.057515,0.00475883,0.0122991,0.0602414,0.00203241,0.218148,0.0395009,0.0121982,1322,1779,4.95445,-18.751
105,-755,4.96167,18.7401,0.0608535,0.00556398,0.0128177,0.0636805,0.00273702,0.217076,0.0415714,0.0158954,1329,1779,4.96169,-18.7401
112,-755,4.96021,18.7061,0.0618589,0.00570723,0.0127636,0.064624,0.00294215,0.213341,0.0421362,0.021232,1336,1779,4.96022,-18.706
119,-755,4.95129,18.6689,0.0608782,0.00537045,0.0120331,0.0633745,0.00287413,0.204552,0.041325,0.0206482,1343,1779,4.9513,-18.6689
126,-755,4.88196,18.7227,0.0580154,0.00457211,0.0108205,0.0601231,0.00246444,0.192376,0.0392864,0.0229677,1350,1779,4.88194,-18.7226
133,-755,4.82568,18.7042,0.0539128,0.00355107,0.00926988,0.0555649,0.00189899,0.176368,0.0364268,0.0239162,1357,1779,4.82573,-18.7042
140,-755,4.85291,18.7296,0.048894,0.00222412,0.00754564,0.0500836,0.00103445,0.156375,0.0330497,0.0281737,1364,1779,4.85285,-18.7297
147,-755,4.83557,18.6656,0.0442748,0.00121571,0.00579793,0.0450418,0.00044868,0.13153,0.0298794,0.0306551,1371,1779,4.83556,-18.6657
154,-755,4.80225,18.562,0.0368721,0.000413957,0.0046883,0.0374654,-0.000179276,0.125866,0.0250369,0.0345599,1378,1779,4.80223,-18.562
161,-755,4.73315,18.561,0,0,0,0,0,0,0,-1,1385,1779,4.73315,-18.5611
168,-755,3.98181,7.35901,0,0,0,0,0,0,0,-1,1392,1779,3.98184,-7.35904
175,-755,8.17065,1.34363,0,0,0,0,0,0,0,-1,1399,1779,8.1706,-1.34368
182,-755,8.09216,2.96924,0,0,0,0,0,0,0,-1,1406,1779,8.09213,-2.9693
189,-755,8.04419,4.68042,0,0,0,0,0,0,0,-1,1413,1779,8.04419,-4.68046
196,-755,7.74841,7.4541,0,0,0,0,0,0,0,-1,1420,1779,7.74842,-7.45405
203,-755,4.80554,6.88696,0,0,0,0,0,0,0,-1,1427,1779,4.80554,-6.88697
210,-755,25.1694,7.35693,0,0,0,0,0,0,0,-1,1434,1779,25.1694,-7.35688
217,-755,5.01648,16.411,0,0,0,0,0,0,0,-1,1441,1779,5.01646,-16.411
224,-755,5.06824,17.6871,0,0,0,0,0,0,0,-1,1448,1779,5.06818,-17.6871
231,-755,4.96179,18.1437,0,0,0,0,0,0,0,-1,1455,1779,4.96183,-18.1437
238,-755,6.05225,17.8157,0,0,0,0,0,0,0,-1,1462,1779,6.05221,-17.8157
245,-755,3.65845,14.1206,0,0,0,0,0,0,0,-1,1469,1779,3.65842,-14.1206
252,-755,3.42957,12.0458,0,0,0,0,0,0,0,-1,1476,1779,3.42961,-12.0458
259,-755,18.481,8.25134,0,0,0,0,0,0,0,-1,1483,1779,18.4809,-8.25139
266,-755,17.255,7.86096,0,0,0,0,0,0,0,-1,1490,1779,17.255,-7.86092
273,-755,15.7932,7.59778,0,0,0,0,0,0,0,-1,1497,1779,15.7932,-7.59777
280,-755,14.6255,7.34802,0,0,0,0,0,0,0,-1,1504,1779,14.6254,-7.34806
287,-755,13.1736,7.34705,0,0,0,0,0,0,0,-1,1511,1779,13.1736,-7.34709
294,-755,11.4563,7.27002,0,0,0,0,0,0,0,-1,1518,1779,11.4563,-7.26998
301,-755,9.98267,7.87927,0,0,0,0,0,0,0,-1,1525,1779,9.98265,-7.87925
308,-755,8.23889,8.34631,0,0,0,0,0,0,0,-1,1532,1779,8.23889,-8.34626
315,-755,6.46362,8.76587,0,0,0,0,0,0,0,-1,1539,1779,6.46364,-8.76592
322,-755,0,0,0,0,0,0,0,0,0,-1,1546,1779,0,0
329,-755,0,0,0,0,0,0,0,0,0,-1,1553,1779,0,0
336,-755,0,0,0,0,0,0,0,0,0,-1,1560,1779,0,0
343,-755,0,0,0,0,0,0,0,0,0,-1,1567,1779,0,0
350,-755,0,0,0,0,0,0,0,0,0,-1,1574,1779,0,0
357,-755,0,0,0,0,0,0,0,0,0,-1,1581,1779,0,0
364,-755,0,0,0,0,0,0,0,0,0,-1,1588,1779,0,0
371,-755,0,0,0,0,0,0,0,0,0,-1,1595,1779,0,0
378,-755,0,0,0,0,0,0,0,0,0,-1,1602,1779,0,0
385,-755,0,0,0,0,0,0,0,0,0,-1,1609,1779,0,0
392,-755,0,0,0,0,0,0,0,0,0,-1,1616,1779,0,0
399,-755,0,0,0,0,0,0,0,0,0,-1,1623,1779,0,0
406,-755,0,0,0,0,0,0,0,0,0,-1,1630,1779,0,0
413,-755,0,0,0,0,0,0,0,0,0,-1,1637,1779,0,0
420,-755,0,0,0,0,0,0,0,0,0,-1,1644,1779,0,0
427,-755,0,0,0,0,0,0,0,0,0,-1,1651,1779,0,0
434,-755,0,0,0,0,0,0,0,0,0,-1,1658,1779,0,0
441,-755,0,0,0,0,0,0,0,0,0,-1,1665,1779,0,0
448,-755,0,0,0,0,0,0,0,0,0,-1,1672,1779,0,0
455,-755,0,0,0,0,0,0,0,0,0,-1,1679,1779,0,0
462,-755,0,0,0,0,0,0,0,0,0,-1,1686,1779,0,0
469,-755,0,0,0,0,0,0,0,0,0,-1,1693,1779,0,0
476,-755,0,0,0,0,0,0,0,0,0,-1,1700,1779,0,0
483,-755,0,0,0,0,0,0,0,0,0,-1,1707,1779,0,0
490,-755,0,0,0,0,0,0,0,0,0,-1,1714,1779,0,0
497,-755,0,0,0,0,0,0,0,0,0,-1,1721,1779,0,0
504,-755,0,0,0,0,0,0,0,0,0,-1,1728,1779,0,0
511,-755,0,0,0,0,0,0,0,0,0,-1,1735,1779,0,0
518,-755,0,0,0,0,0,0,0,0,0,-1,1742,1779,0,0
525,-755,0,0,0,0,0,0,0,0,0,-1,1749,1779,0,0
532,-755,0,0,0,0,0,0,0,0,0,-1,1756,1779,0,0
539,-755,0,0,0,0,0,0,0,0,0,-1,1763,1779,0,0
546,-755,0,0,0,0,0,0,0,0,0,-1,1770,1779,0,0
553,-755,0,0,0,0,0,0,0,0,0,-1,1777,1779,0,0
560,-755,0,0,0,0,0,0,0,0,0,-1,1784,1779,0,0
567,-755,0,0,0,0,0,0,0,0,0,-1,1791,1779,0,0
574,-755,0,0,0,0,0,0,0,0,0,-1,1798,1779,0,0
581,-755,0,0,0,0,0,0,0,0,0,-1,1805,1779,0,0
588,-755,0,0,0,0,0,0,0,0,0,-1,1812,1779,0,0
595,-755,0,0,0,0,0,0,0,0,0,-1,1819,1779,0,0
602,-755,0,0,0,0,0,0,0,0,0,-1,1826,1779,0,0
609,-755,0,0,0,0,0,0,0,0,0,-1,1833,1779,0,0
616,-755,0,0,0,0,0,0,0,0,0,-1,1840,1779,0,0
623,-755,0,0,0,0,0,0,0,0,0,-1,1847,1779,0,0
630,-755,0,0,0,0,0,0,0,0,0,-1,1854,1779,0,0
637,-755,0,0,0,0,0,0,0,0,0,-1,1861,1779,0,0
644,-755,0,0,0,0,0,0,0,0,0,-1,1868,1779,0,0
651,-755,0,0,0,0,0,0,0,0,0,-1,1875,1779,0,0
658,-755,0,0,0,0,0,0,0,0,0,-1,1882,1779,0,0
665,-755,0,0,0,0,0,0,0,0,0,-1,1889,1779,0,0
672,-755,0,0,0,0,0,0,0,0,0,-1,1896,1779,0,0
679,-755,0,0,0,0,0,0,0,0,0,-1,1903,1779,0,0
686,-755,0,0,0,0,0,0,0,0,0,-1,1910,1779,0,0
693,-755,0,0,0,0,0,0,0,0,0,-1,1917,1779,0,0
700,-755,0,0,0,0,0,0,0,0,0,-1,1924,1779,0,0
707,-755,0,0,0,0,0,0,0,0,0,-1,1931,1779,0,0
714,-755,0,0,0,0,0,0,0,0,0,-1,1938,1779,0,0
721,-755,0,0,0,0,0,0,0,0,0,-1,1945,1779,0,0
728,-755,0,0,0,0,0,0,0,0,0,-1,1952,1779,0,0
735,-755,0,0,0,0,0,0,0,0,0,-1,1959,1779,0,0
742,-755,0,0,0,0,0,0,0,0,0,-1,1966,1779,0,0
749,-755,0,0,0,0,0,0,0,0,0,-1,1973,1779,0,0
756,-755,0,0,0,0,0,0,0,0,0,-1,1980,1779,0,0
763,-755,0,0,0,0,0,0,0,0,0,-1,1987,1779,0,0
770,-755,0,0,0,0,0,0,0,0,0,-1,1994,1779,0,0
777,-755,0,0,0,0,0,0,0,0,0,-1,2001,1779,0,0
784,-755,0,0,0,0,0,0,0,0,0,-1,2008,1779,0,0
791,-755,0,0,0,0,0,0,0,0,0,-1,2015,1779,0,0
798,-755,0,0,0,0,0,0,0,0,0,-1,2022,1779,0,0
805,-755,0,0,0,0,0,0,0,0,0,-1,2029,1779,0,0
812,-755,0,0,0,0,0,0,0,0,0,-1,2036,1779,0,0
-700,-762,0,0,0,0,0,0,0,0,0,-1,524,1786,0,0
-693,-762,0,0,0,0,0,0,0,0,0,-1,531,1786,0,0
-686,-762,0,0,0,0,0,0,0,0,0,-1,538,1786,0,0
-679,-762,0,0,0,0,0,0,0,0,0,-1,545,1786,0,0
-672,-762,0,0,0,0,0,0,0,0,0,-1,552,1786,0,0
-665,-762,0,0,0,0,0,0,0,0,0,-1,559,1786,0,0
-658,-762,0,0,0,0,0,0,0,0,0,-1,566,1786,0,0
-651,-762,0,0,0,0,0,0,0,0,0,-1,573,1786,0,0
-644,-762,0,0,0,0,0,0,0,0,0,-1,580,1786,0,0
-637,-762,0,0,0,0,0,0,0,0,0,-1,587,1786,0,0
-630,-762,0,0,0,0,0,0,0,0,0,-1,594,1786,0,0
-623,-762,0,0,0,0,0,0,0,0,0,-1,601,1786,0,0
-616,-762,0,0,0,0,0,0,0,0,0,-1,608,1786,0,0
-609,-762,0,0,0,0,0,0,0,0,0,-1,615,1786,0,0
-602,-762,0,0,0,0,0,0,0,0,0,-1,622,1786,0,0
-595,-762,0,0,0,0,0,0,0,0,0,-1,629,1786,0,0
-588,-762,0,0,0,0,0,0,0,0,0,-1,636,1786,0,0
-581,-762,0,0,0,0,0,0,0,0,0,-1,643,1786,0,0
-574,-762,0,0,0,0,0,0,0,0,0,-1,650,1786,0,0
-567,-762,0,0,0,0,0,0,0,0,0,-1,657,1786,0,0
-560,-762,0,0,0,0,0,0,0,0,0,-1,664,1786,0,0
-553,-762,0,0,0,0,0,0,0,0,0,-1,671,1786,0,0
-546,-762,0,0,0,0,0,0,0,0,0,-1,678,1786,0,0
-539,-762,0,0,0,0,0,0,0,0,0,-1,685,1786,0,0
-532,-762,0,0,0,0,0,0,0,0,0,-1,692,1786,0,0
-525,-762,0,0,0,0,0,0,0,0,0,-1,699,1786,0,0
-518,-762,0,0,0,0,0,0,0,0,0,-1,706,1786,0,0
-511,-762,0,0,0,0,0,0,0,0,0,-1,713,1786,0,0
-504,-762,0,0,0,0,0,0,0,0,0,-1,720,1786,0,0
-497,-762,0,0,0,0,0,0,0,0,0,-1,727,1786,0,0
-490,-762,0,0,0,0,0,0,0,0,0,-1,734,1786,0,0
-483,-762,0,0,0,0,0,0,0,0,0,-1,741,1786,0,0
-476,-762,0,0,0,0,0,0,0,0,0,-1,748,1786,0,0
-469,-762,0,0,0,0,0,0,0,0,0,-1,755,1786,0,0
-462,-762,0,0,0,0,0,0,0,0,0,-1,762,1786,0,0
-455,-762,0,0,0,0,0,0,0,0,0,-1,769,1786,0,0
-448,-762,0,0,0,0,0,0,0,0,0,-1,776,1786,0,0
-441,-762,0,0,0,0,0,0,0,0,0,-1,783,1786,0,0
-434,-762,0,0,0,0,0,0,0,0,0,-1,790,1786,0,0
-427,-762,0,0,0,0,0,0,0,0,0,-1,797,1786,0,0
-420,-762,0,0,0,0,0,0,0,0,0,-1,804,1786,0,0
-413,-762,0,0,0,0,0,0,0,0,0,-1,811,1786,0,0
-406,-762,0,0,0,0,0,0,0,0,0,-1,818,1786,0,0
-399,-762,0,0,0,0,0,0,0,0,0,-1,825,1786,0,0
-392,-762,0,0,0,0,0,0,0,0,0,-1,832,1786,0,0
-385,-762,0,0,0,0,0,0,0,0,0,-1,839,1786,0,0
-378,-762,0,0,0,0,0,0,0,0,0,-1,846,1786,0,0
-371,-762,0,0,0,0,0,0,0,0,0,-1,853,1786,0,0
-364,-762,0,0,0,0,0,0,0,0,0,-1,860,1786,0,0
-357,-762,0,0,0,0,0,0,0,0,0,-1,867,1786,0,0
-350,-762,0,0,0,0,0,0,0,0,0,-1,874,1786,0,0
-343,-762,0,0,0,0,0,0,0,0,0,-1,881,1786,0,0
-336,-762,0,0,0,0,0,0,0,0,0,-1,888,1786,0,0
-329,-762,0,0,0,0,0,0,0,0,0,-1,895,1786,0,0
-322,-762,0,0,0,0,0,0,0,0,0,-1,902,1786,0,0
-315,-762,0,0,0,0,0,0,0,0,0,-1,909,1786,0,0
-308,-762,0,0,0,0,0,0,0,0,0,-1,916,1786,0,0
-301,-762,0,0,0,0,0,0,0,0,0,-1,923,1786,0,0
-294,-762,0,0,0,0,0,0,0,0,0,-1,930,1786,0,0
-287,-762,0,0,0,0,0,0,0,0,0,-1,937,1786,0,0
-280,-762,0,0,0,0,0,0,0,0,0,-1,944,1786,0,0
-273,-762,0,0,0,0,0,0,0,0,0,-1,951,1786,0,0
-266,-762,0,0,0,0,0,0,0,0,0,-1,958,1786,0,0
-259,-762,0,0,0,0,0,0,0,0,0,-1,965,1786,0,0
-252,-762,0,0,0,0,0,0,0,0,0,-1,972,1786,0,0
-245,-762,0,0,0,0,0,0,0,0,0,-1,979,1786,0,0
-238,-762,0,0,0,0,0,0,0,0,0,-1,986,1786,0,0
-231,-762,0,0,0,0,0,0,0,0,0,-1,993,1786,0,0
-224,-762,0,0,0,0,0,0,0,0,0,-1,1000,1786,0,0
-217,-762,0,0,0,0,0,0,0,0,0,-1,1007,1786,0,0
-210,-762,0,0,0,0,0,0,0,0,0,-1,1014,1786,0,0
-203,-762,0,0,0,0,0,0,0,0,0,-1,1021,1786,0,0
-196,-762,0,0,0,0,0,0,0,0,0,-1,1028,1786,0,0
-189,-762,0,0,0,0,0,0,0,0,0,-1,1035,1786,0,0
-182,-762,4.44226,13.2462,0,0,0,0,0,0,0,-1,1042,1786,4.44227,-13.2462
-175,-762,-1.29956,14.1766,0,0,0,0,0,0,0,-1,1049,1786,-1.29956,-14.1767
-168,-762,-2.08618,13.0768,0,0,0,0,0,0,0,-1,1056,1786,-2.08623,-13.0768
-161,-762,-3.29077,11.9508,0,0,0,0,0,0,0,-1,1063,1786,-3.29076,-11.9508
-154,-762,-4.55823,11.1176,0,0,0,0,0,0,0,-1,1070,1786,-4.55828,-11.1175
-147,-762,-1.09119,4.58313,0,0,0,0,0,0,0,-1,1077,1786,-1.09124,-4.58313
-140,-762,4.99792,5.28589,0,0,0,0,0,0,0,-1,1084,1786,4.99793,-5.28587
-133,-762,3.5116,9.3252,0,0,0,0,0,0,0,-1,1091,1786,3.51165,-9.32522
-126,-762,6.12231,12.5032,0,0,0,0,0,0,0,-1,1098,1786,6.12238,-12.5032
-119,-762,7.31201,16.389,0,0,0,0,0,0,0,-1,1105,1786,7.31207,-16.3891
-112,-762,8.02356,17.0438,0,0,0,0,0,0,0,-1,1112,1786,8.0236,-17.0438
-105,-762,5.10974,17.5901,0,0,0,0,0,0,0,-1,1119,1786,5.10978,-17.5901
-98,-762,4.57495,16.0953,0,0,0,0,0,0,0,-1,1126,1786,4.57496,-16.0954
-91,-762,4.04016,14.6007,0,0,0,0,0,0,0,-1,1133,1786,4.04013,-14.6007
-84,-762,0.415161,10.0322,0,0,0,0,0,0,0,-1,1140,1786,0.415179,-10.0322
-77,-762,0.305054,8.49365,0,0,0,0,0,0,0,-1,1147,1786,0.305008,-8.49362
-70,-762,0.183716,6.74622,0,0,0,0,0,0,0,-1,1154,1786,0.183696,-6.74621
-63,-762,-0.883057,9.08813,0,0,0,0,0,0,0,-1,1161,1786,-0.88311,-9.08808
-56,-762,-0.578979,5.10254,0,0,0,0,0,0,0,-1,1168,1786,-0.578951,-5.10249
-49,-762,-2.04541,3.66321,0,0,0,0,0,0,0,-1,1175,1786,-2.0454,-3.66319
-42,-762,-2.23462,3.474,0,0,0,0,0,0,0,-1,1182,1786,-2.23459,-3.47399
-35,-762,-3.28992,1.68164,0,0,0,0,0,0,0,-1,1189,1786,-3.28998,-1.68164
-28,-762,-3.75378,1.37769,0,0,0,0,0,0,0,-1,1196,1786,-3.75373,-1.37767
-21,-762,5.73022,18.3177,0,0,0,0,0,0,0,-1,1203,1786,5.7302,-18.3177
-14,-762,5.58582,18.4136,-0.00288323,-0.00368657,-0.00180121,-0.00143944,-0.00513036,-0.675694,0.00305561,0.0473304,1210,1786,5.58579,-18.4136
-7,-762,5.24622,18.3796,-0.00180765,-0.00412262,-0.000685323,-0.00161998,-0.00431029,-0.267288,0.00251399,0.0481717,1217,1786,5.24618,-18.3796
0,-762,5.21204,18.4333,-0.000341181,-0.00462978,0.000265625,-0.000324791,-0.00464617,0.0616236,0.00299506,0.0352461,1224,1786,5.21202,-18.4333
7,-762,5.25208,18.5138,0.00133605,-0.00528047,0.00112495,0.00152209,-0.00546651,0.163889,0.00424369,0.0200592,1231,1786,5.25207,-18.5138
14,-762,5.2207,18.6982,0.00320915,-0.00594931,0.00215643,0.0036915,-0.00643166,0.220055,0.00591555,0.0320604,1238,1786,5.22072,-18.6982
21,-762,5.13904,18.6453,0.00495753,-0.00660746,0.00323922,0.00580299,-0.00745292,0.255311,0.00767304,0.039037,1245,1786,5.13898,-18.6453
28,-762,5.12244,18.6653,0.00659064,-0.00727925,0.00425502,0.00779195,-0.00848056,0.275166,0.00939774,0.0389264,1252,1786,5.12245,-18.6653
35,-762,5.07874,18.7506,0.00793044,-0.00762362,0.00501912,0.00940942,-0.0091026,0.286559,0.0106884,0.0436175,1259,1786,5.0787,-18.7506
42,-762,5.08569,18.7397,0.0090879,-0.00807028,0.00592016,0.0109323,-0.00991468,0.302015,0.0120408,0.0425299,1266,1786,5.0857,-18.7397
49,-762,5.11755,18.7455,0.0171408,-0.00800242,0.00565508,0.0183541,-0.00921578,0.211356,0.0162063,0.0333184,1273,1786,5.1175,-18.7455
56,-762,5.14319,18.7213,0.0266511,-0.0061691,0.00939686,0.0291512,-0.00866911,0.260024,0.022878,0.0225156,1280,1786,5.1432,-18.7214
63,-762,5.10059,18.743,0.0356592,-0.00429294,0.0116435,0.0388049,-0.00743863,0.263866,0.0286729,0.0214808,1287,1786,5.10056,-18.7431
70,-762,5.03442,18.7542,0.0440939,-0.00164512,0.0134476,0.0477547,-0.00530584,0.26578,0.0337444,0.0206968,1294,1786,5.03442,-18.7541
77,-762,5.04443,18.7609,0.0536174,0.000246166,0.0146813,0.0573894,-0.00352578,0.251482,0.0394874,0.0264626,1301,1786,5.04449,-18.7609
84,-762,5.11938,18.7491,0.0634277,0.00224147,0.0157475,0.0672428,-0.00157361,0.237686,0.0453622,0.0340688,1308,1786,5.11938,-18.7491
91,-762,5.19824,18.7933,0.072228,0.00400442,0.0169729,0.0762172,1.5121e-05,0.23085,0.0508065,0.0430466,1315,1786,5.19829,-18.7934
98,-762,5.04578,18.8187,0.0799205,0.00607028,0.0177666,0.0839724,0.00201836,0.224228,0.0553211,0.0426718,1322,1786,5.04583,-18.8188
105,-762,4.99292,18.7633,0.0852998,0.00748653,0.0182309,0.0893593,0.00342698,0.219099,0.058464,0.0398579,1329,1786,4.99289,-18.7633
112,-762,4.86462,18.6698,0.0873439,0.0079924,0.0178564,0.0911769,0.00415935,0.211451,0.0594467,0.043284,1336,1786,4.86463,-18.6698
119,-762,4.90869,18.7777,0.0865424,0.00772193,0.0165232,0.0898661,0.0043983,0.1985,0.0584997,0.0432583,1343,1786,4.90869,-18.7777
126,-762,4.81372,18.8738,0.0829365,0.00669087,0.0144693,0.0855901,0.00403734,0.181374,0.055763,0.0447623,1350,1786,4.81378,-18.8737
133,-762,4.74536,18.908,0.0775291,0.00528078,0.0119166,0.0794439,0.00336602,0.159319,0.051877,0.0455035,1357,1786,4.7454,-18.908
140,-762,4.69653,18.8735,0.0707141,0.00337204,0.00910027,0.0719222,0.00216395,0.131982,0.0472433,0.0432568,1364,1786,4.69648,-18.8736
147,-762,4.45239,18.5554,0.0649917,0.00188552,0.00633379,0.0656211,0.0012561,0.0990508,0.0433348,0.0443893,1371,1786,4.45233,-18.5555
154,-762,4.67444,18.5931,0,0,0,0,0,0,0,-1,1378,1786,4.67438,-18.5931
161,-762,7.93408,-0.126221,0,0,0,0,0,0,0,-1,1385,1786,7.93402,0.126232
168,-762,8.19287,0.880615,0,0,0,0,0,0,0,-1,1392,1786,8.19291,-0.880603
175,-762,8.33997,1.95947,0,0,0,0,0,0,0,-1,1399,1786,8.33997,-1.95942
182,-762,8.28418,3.56482,0,0,0,0,0,0,0,-1,1406,1786,8.28415,-3.56485
189,-762,8.21179,5.23389,0,0,0,0,0,0,0,-1,1413,1786,8.21183,-5.23383
196,-762,8.05969,6.95483,0,0,0,0,0,0,0,-1,1420,1786,8.05972,-6.9548
203,-762,24.0077,7.10425,0,0,0,0,0,0,0,-1,1427,1786,24.0077,-7.10426
210,-762,23.8073,7.6499,0,0,0,0,0,0,0,-1,1434,1786,23.8073,-7.64987
217,-762,23.3193,8.24426,0,0,0,0,0,0,0,-1,1441,1786,23.3194,-8.2442
224,-762,4.64465,18.4674,0,0,0,0,0,0,0,-1,1448,1786,4.64462,-18.4674
231,-762,5.23914,18.8042,0,0,0,0,0,0,0,-1,1455,1786,5.23912,-18.8043
238,-762,3.60986,16.3737,0,0,0,0,0,0,0,-1,1462,1786,3.60983,-16.3736
245,-762,3.38892,14.3591,0,0,0,0,0,0,0,-1,1469,1786,3.38897,-14.3591
252,-762,3.16809,12.3445,0,0,0,0,0,0,0,-1,1476,1786,3.16811,-12.3445
259,-762,17.4619,7.89832,0,0,0,0,0,0,0,-1,1483,1786,17.462,-7.89836
266,-762,16.451,7.67773,0,0,0,0,0,0,0,-1,1490,1786,16.4511,-7.67773
273,-762,15.287,7.5304,0,0,0,0,0,0,0,-1,1497,1786,15.2869,-7.53044
280,-762,14.1501,7.38379,0,0,0,0,0,0,0,-1,1504,1786,14.1502,-7.38376
287,-762,12.6891,7.99133,0,0,0,0,0,0,0,-1,1511,1786,12.6891,-7.99135
294,-762,11.6133,8.5918,0,0,0,0,0,0,0,-1,1518,1786,11.6133,-8.59175
301,-762,9.90637,8.80591,0,0,0,0,0,0,0,-1,1525,1786,9.90636,-8.80596
308,-762,0,0,0,0,0,0,0,0,0,-1,1532,1786,0,0
315,-762,0,0,0,0,0,0,0,0,0,-1,1539,1786,0,0
322,-762,0,0,0,0,0,0,0,0,0,-1,1546,1786,0,0
329,-762,0,0,0,0,0,0,0,0,0,-1,1553,1786,0,0
336,-762,0,0,0,0,0,0,0,0,0,-1,1560,1786,0,0
343,-762,0,0,0,0,0,0,0,0,0,-1,1567,1786,0,0
350,-762,0,0,0,0,0,0,0,0,0,-1,1574,1786,0,0
357,-762,0,0,0,0,0,0,0,0,0,-1,1581,1786,0,0
364,-762,0,0,0,0,0,0,0,0,0,-1,1588,1786,0,0
371,-762,0,0,0,0,0,0,0,0,0,-1,1595,1786,0,0
378,-762,0,0,0,0,0,0,0,0,0,-1,1602,1786,0,0
385,-762,0,0,0,0,0,0,0,0,0,-1,1609,1786,0,0
392,-762,0,0,0,0,0,0,0,0,0,-1,1616,1786,0,0
399,-762,0,0,0,0,0,0,0,0,0,-1,1623,1786,0,0
406,-762,0,0,0,0,0,0,0,0,0,-1,1630,1786,0,0
413,-762,0,0,0,0,0,0,0,0,0,-1,1637,1786,0,0
420,-762,0,0,0,0,0,0,0,0,0,-1,1644,1786,0,0
427,-762,0,0,0,0,0,0,0,0,0,-1,1651,1786,0,0
434,-762,0,0,0,0,0,0,0,0,0,-1,1658,1786,0,0
441,-762,0,0,0,0,0,0,0,0,0,-1,1665,1786,0,0
448,-762,0,0,0,0,0,0,0,0,0,-1,1672,1786,0,0
455,-762,0,0,0,0,0,0,0,0,0,-1,1679,1786,0,0
462,-762,0,0,0,0,0,0,0,0,0,-1,1686,1786,0,0
469,-762,0,0,0,0,0,0,0,0,0,-1,1693,1786,0,0
476,-762,0,0,0,0,0,0,0,0,0,-1,1700,1786,0,0
483,-762,0,0,0,0,0,0,0,0,0,-1,1707,1786,0,0
490,-762,0,0,0,0,0,0,0,0,0,-1,1714,1786,0,0
497,-762,0,0,0,0,0,0,0,0,0,-1,1721,1786,0,0
504,-762,0,0,0,0,0,0,0,0,0,-1,1728,1786,0,0
511,-762,0,0,0,0,0,0,0,0,0,-1,1735,1786,0,0
518,-762,0,0,0,0,0,0,0,0,0,-1,1742,1786,0,0
525,-762,0,0,0,0,0,0,0,0,0,-1,1749,1786,0,0
532,-762,0,0,0,0,0,0,0,0,0,-1,1756,1786,0,0
539,-762,0,0,0,0,0,0,0,0,0,-1,1763,1786,0,0
546,-762,0,0,0,0,0,0,0,0,0,-1,1770,1786,0,0
553,-762,0,0,0,0,0,0,0,0,0,-1,1777,1786,0,0
560,-762,0,0,0,0,0,0,0,0,0,-1,1784,1786,0,0
567,-762,0,0,0,0,0,0,0,0,0,-1,1791,1786,0,0
574,-762,0,0,0,0,0,0,0,0,0,-1,1798,1786,0,0
581,-762,0,0,0,0,0,0,0,0,0,-1,1805,1786,0,0
588,-762,0,0,0,0,0,0,0,0,0,-1,1812,1786,0,0
595,-762,0,0,0,0,0,0,0,0,0,-1,1819,1786,0,0
602,-762,0,0,0,0,0,0,0,0,0,-1,1826,1786,0,0
609,-762,0,0,0,0,0,0,0,0,0,-1,1833,1786,0,0
616,-762,0,0,0,0,0,0,0,0,0,-1,1840,1786,0,0
623,-762,0,0,0,0,0,0,0,0,0,-1,1847,1786,0,0
630,-762,0,0,0,0,0,0,0,0,0,-1,1854,1786,0,0
637,-762,0,0,0,0,0,0,0,0,0,-1,1861,1786,0,0
644,-762,0,0,0,0,0,0,0,0,0,-1,1868,1786,0,0
651,-762,0,0,0,0,0,0,0,0,0,-1,1875,1786,0,0
658,-762,0,0,0,0,0,0,0,0,0,-1,1882,1786,0,0
665,-762,0,0,0,0,0,0,0,0,0,-1,1889,1786,0,0
672,-762,0,0,0,0,0,0,0,0,0,-1,1896,1786,0,0
679,-762,0,0,0,0,0,0,0,0,0,-1,1903,1786,0,0
686,-762,0,0,0,0,0,0,0,0,0,-1,1910,1786,0,0
693,-762,0,0,0,0,0,0,0,0,0,-1,1917,1786,0,0
700,-762,0,0,0,0,0,0,0,0,0,-1,1924,1786,0,0
707,-762,0,0,0,0,0,0,0,0,0,-1,1931,1786,0,0
714,-762,0,0,0,0,0,0,0,0,0,-1,1938,1786,0,0
721,-762,0,0,0,0,0,0,0,0,0,-1,1945,1786,0,0
728,-762,0,0,0,0,0,0,0,0,0,-1,1952,1786,0,0
735,-762,0,0,0,0,0,0,0,0,0,-1,1959,1786,0,0
742,-762,0,0,0,0,0,0,0,0,0,-1,1966,1786,0,0
749,-762,0,0,0,0,0,0,0,0,0,-1,1973,1786,0,0
756,-762,0,0,0,0,0,0,0,0,0,-1,1980,1786,0,0
763,-762,0,0,0,0,0,0,0,0,0,-1,1987,1786,0,0
770,-762,0,0,0,0,0,0,0,0,0,-1,1994,1786,0,0
777,-762,0,0,0,0,0,0,0,0,0,-1,2001,1786,0,0
784,-762,0,0,0,0,0,0,0,0,0,-1,2008,1786,0,0
791,-762,0,0,0,0,0,0,0,0,0,-1,2015,1786,0,0
798,-762,0,0,0,0,0,0,0,0,0,-1,2022,1786,0,0
805,-762,0,0,0,0,0,0,0,0,0,-1,2029,1786,0,0
812,-762,0,0,0,0,0,0,0,0,0,-1,2036,1786,0,0
-700,-769,0,0,0,0,0,0,0,0,0,-1,524,1793,0,0
-693,-769,0,0,0,0,0,0,0,0,0,-1,531,1793,0,0
-686,-769,0,0,0,0,0,0,0,0,0,-1,538,1793,0,0
-679,-769,0,0,0,0,0,0,0,0,0,-1,545,1793,0,0
-672,-769,0,0,0,0,0,0,0,0,0,-1,552,1793,0,0
-665,-769,0,0,0,0,0,0,0,0,0,-1,559,1793,0,0
-658,-769,0,0,0,0,0,0,0,0,0,-1,566,1793,0,0
-651,-769,0,0,0,0,0,0,0,0,0,-1,573,1793,0,0
-644,-769,0,0,0,0,0,0,0,0,0,-1,580,1793,0,0
-637,-769,0,0,0,0,0,0,0,0,0,-1,587,1793,0,0
-630,-769,0,0,0,0,0,0,0,0,0,-1,594,1793,0,0
-623,-769,0,0,0,0,0,0,0,0,0,-1,601,1793,0,0
-616,-769,0,0,0,0,0,0,0,0,0,-1,608,1793,0,0
-609,-769,0,0,0,0,0,0,0,0,0,-1,615,1793,0,0
-602,-769,0,0,0,0,0,0,0,0,0,-1,622,1793,0,0
-595,-769,0,0,0,0,0,0,0,0,0,-1,629,1793,0,0
-588,-769,0,0,0,0,0,0,0,0,0,-1,636,1793,0,0
-581,-769,0,0,0,0,0,0,0,0,0,-1,643,1793,0,0
-574,-769,0,0,0,0,0,0,0,0,0,-1,650,1793,0,0
-567,-769,0,0,0,0,0,0,0,0,0,-1,657,1793,0,0
-560,-769,0,0,0,0,0,0,0,0,0,-1,664,1793,0,0
-553,-769,0,0,0,0,0,0,0,0,0,-1,671,1793,0,0
-546,-769,0,0,0,0,0,0,0,0,0,-1,678,1793,0,0
-539,-769,0,0,0,0,0,0,0,0,0,-1,685,1793,0,0
-532,-769,0,0,0,0,0,0,0,0,0,-1,692,1793,0,0
-525,-769,0,0,0,0,0,0,0,0,0,-1,699,1793,0,0
-518,-769,0,0,0,0,0,0,0,0,0,-1,706,1793,0,0
-511,-769,0,0,0,0,0,0,0,0,0,-1,713,1793,0,0
-504,-769,0,0,0,0,0,0,0,0,0,-1,720,1793,0,0
-497,-769,0,0,0,0,0,0,0,0,0,-1,727,1793,0,0
-490,-769,0,0,0,0,0,0,0,0,0,-1,734,1793,0,0
-483,-769,0,0,0,0,0,0,0,0,0,-1,741,1793,0,0
-476,-769,0,0,0,0,0,0,0,0,0,-1,748,1793,0,0
-469,-769,0,0,0,0,0,0,0,0,0,-1,755,1793,0,0
-462,-769,0,0,0,0,0,0,0,0,0,-1,762,1793,0,0
-455,-769,0,0,0,0,0,0,0,0,0,-1,769,1793,0,0
-448,-769,0,0,0,0,0,0,0,0,0,-1,776,1793,0,0
-441,-769,0,0,0,0,0,0,0,0,0,-1,783,1793,0,0
-434,-769,0,0,0,0,0,0,0,0,0,-1,790,1793,0,0
-427,-769,0,0,0,0,0,0,0,0,0,-1,797,1793,0,0
-420,-769,0,0,0,0,0,0,0,0,0,-1,804,1793,0,0
-413,-769,0,0,0,0,0,0,0,0,0,-1,811,1793,0,0
-406,-769,0,0,0,0,0,0,0,0,0,-1,818,1793,0,0
-399,-769,0,0,0,0,0,0,0,0,0,-1,825,1793,0,0
-392,-769,0,0,0,0,0,0,0,0,0,-1,832,1793,0,0
-385,-769,0,0,0,0,0,0,0,0,0,-1,839,1793,0,0
-378,-769,0,0,0,0,0,0,0,0,0,-1,846,1793,0,0
-371,-769,0,0,0,0,0,0,0,0,0,-1,853,1793,0,0
-364,-769,0,0,0,0,0,0,0,0,0,-1,860,1793,0,0
-357,-769,0,0,0,0,0,0,0,0,0,-1,867,1793,0,0
-350,-769,0,0,0,0,0,0,0,0,0,-1,874,1793,0,0
-343,-769,0,0,0,0,0,0,0,0,0,-1,881,1793,0,0
-336,-769,0,0,0,0,0,0,0,0,0,-1,888,1793,0,0
-329,-769,0,0,0,0,0,0,0,0,0,-1,895,1793,0,0
-322,-769,0,0,0,0,0,0,0,0,0,-1,902,1793,0,0
-315,-769,0,0,0,0,0,0,0,0,0,-1,909,1793,0,0
-308,-769,0,0,0,0,0,0,0,0,0,-1,916,1793,0,0
-301,-769,0,0,0,0,0,0,0,0,0,-1,923,1793,0,0
-294,-769,0,0,0,0,0,0,0,0,0,-1,930,1793,0,0
-287,-769,0,0,0,0,0,0,0,0,0,-1,937,1793,0,0
-280,-769,0,0,0,0,0,0,0,0,0,-1,944,1793,0,0
-273,-769,0,0,0,0,0,0,0,0,0,-1,951,1793,0,0
-266,-769,0,0,0,0,0,0,0,0,0,-1,958,1793,0,0
-259,-769,0,0,0,0,0,0,0,0,0,-1,965,1793,0,0
-252,-769,0,0,0,0,0,0,0,0,0,-1,972,1793,0,0
-245,-769,0,0,0,0,0,0,0,0,0,-1,979,1793,0,0
-238,-769,0,0,0,0,0,0,0,0,0,-1,986,1793,0,0
-231,-769,0,0,0,0,0,0,0,0,0,-1,993,1793,0,0
-224,-769,0,0,0,0,0,0,0,0,0,-1,1000,1793,0,0
-217,-769,0,0,0,0,0,0,0,0,0,-1,1007,1793,0,0
-210,-769,0,0,0,0,0,0,0,0,0,-1,1014,1793,0,0
-203,-769,0,0,0,0,0,0,0,0,0,-1,1021,1793,0,0
-196,-769,0,0,0,0,0,0,0,0,0,-1,1028,1793,0,0
-189,-769,0,0,0,0,0,0,0,0,0,-1,1035,1793,0,0
-182,-769,0,0,0,0,0,0,0,0,0,-1,1042,1793,0,0
-175,-769,0,0,0,0,0,0,0,0,0,-1,1049,1793,0,0
-168,-769,0,0,0,0,0,0,0,0,0,-1,1056,1793,0,0
-161,-769,-3.61145,12.4761,0,0,0,0,0,0,0,-1,1063,1793,-3.6114,-12.476
-154,-769,-0.813232,5.32874,0,0,0,0,0,0,0,-1,1070,1793,-0.813269,-5.32872
-147,-769,4.26587,4.7002,0,0,0,0,0,0,0,-1,1077,1793,4.26593,-4.70022
-140,-769,4.10376,5.28589,0,0,0,0,0,0,0,-1,1084,1793,4.10371,-5.28584
-133,-769,6.422,8.21777,0,0,0,0,0,0,0,-1,1091,1793,6.42198,-8.21773
-126,-769,5.93201,12.4241,0,0,0,0,0,0,0,-1,1098,1793,5.93198,-12.424
-119,-769,7.8894,17.3041,0,0,0,0,0,0,0,-1,1105,1793,7.88941,-17.304
-112,-769,9.03577,17.1554,0,0,0,0,0,0,0,-1,1112,1793,9.03582,-17.1554
-105,-769,5.68054,18.3121,0,0,0,0,0,0,0,-1,1119,1793,5.6805,-18.3121
-98,-769,5.0437,17.0754,0,0,0,0,0,0,0,-1,1126,1793,5.04368,-17.0754
-91,-769,4.40686,15.8386,0,0,0,0,0,0,0,-1,1133,1793,4.40685,-15.8387
-84,-769,3.25684,11.7041,0,0,0,0,0,0,0,-1,1140,1793,3.25681,-11.7041
-77,-769,0.406616,9.9126,0,0,0,0,0,0,0,-1,1147,1793,0.406638,-9.91265
-70,-769,1.04944,11.9852,0,0,0,0,0,0,0,-1,1154,1793,1.04947,-11.9852
-63,-769,-2.39709,9.60339,0,0,0,0,0,0,0,-1,1161,1793,-2.39706,-9.6034
-56,-769,-5.84363,7.22156,0,0,0,0,0,0,0,-1,1168,1793,-5.84359,-7.22157
-49,-769,-2.41443,3.95471,0,0,0,0,0,0,0,-1,1175,1793,-2.41446,-3.95471
-42,-769,-3.1991,2.64941,0,0,0,0,0,0,0,-1,1182,1793,-3.19914,-2.64944
-35,-769,-3.50183,1.73389,0,0,0,0,0,0,0,-1,1189,1793,-3.50189,-1.7339
-28,-769,-3.96985,1.14075,0,0,0,0,0,0,0,-1,1196,1793,-3.96985,-1.14078
-21,-769,5.2948,17.8387,0,0,0,0,0,0,0,-1,1203,1793,5.29478,-17.8387
-14,-769,5.85315,18.5221,0,0,0,0,0,0,0,-1,1210,1793,5.8531,-18.5221
-7,-769,5.29871,18.3419,0,0,0,0,0,0,0,-1,1217,1793,5.29867,-18.342
0,-769,5.23682,18.3754,0.000623943,-0.0075822,0.000502073,0.000654547,-0.00761281,0.0608799,0.00530686,0.0483793,1224,1793,5.23681,-18.3754
7,-769,5.27417,18.4556,0.00280135,-0.00856974,0.00178567,0.00307517,-0.00884356,0.152158,0.00714487,0.0455119,1231,1793,5.27412,-18.4556
14,-769,4.32861,17.8706,0,0,0,0,0,0,0,-1,1238,1793,4.32859,-17.8706
21,-769,4.42737,18.2208,0,0,0,0,0,0,0,-1,1245,1793,4.42743,-18.2208
28,-769,5.12488,18.6567,0,0,0,0,0,0,0,-1,1252,1793,5.12494,-18.6567
35,-769,4.98718,18.7036,0.011437,-0.0118259,0.00788923,0.0138601,-0.014249,0.297995,0.0162293,0.0493033,1259,1793,4.98722,-18.7036
42,-769,5.06348,18.8163,0.0129635,-0.0124456,0.00935777,0.0160379,-0.0155199,0.317425,0.0182207,0.0496667,1266,1793,5.06345,-18.8162
49,-769,5.33838,18.902,0.0229228,-0.01234,0.0093255,0.0252371,-0.0146543,0.243256,0.0232999,0.0448175,1273,1793,5.33839,-18.902
56,-769,5.43921,18.6815,0.0349654,-0.0100532,0.0143711,0.0391619,-0.0142496,0.284107,0.0319357,0.0422593,1280,1793,5.43925,-18.6816
63,-769,5.29187,18.7335,0.0465859,-0.00754333,0.0174373,0.0517168,-0.0126742,0.286173,0.0393883,0.0468641,1287,1793,5.29192,-18.7335
70,-769,5.17944,18.8397,0.0574654,-0.00404388,0.0197437,0.0632574,-0.00983593,0.285356,0.0458036,0.0477942,1294,1793,5.17947,-18.8397
77,-769,5.11292,18.7091,0.0698913,-0.00141795,0.0212239,0.0757301,-0.00725678,0.268465,0.0530713,0.0485094,1301,1793,5.11289,-18.7091
84,-769,5.12793,18.5702,0.0829588,0.00145181,0.0223632,0.0886915,-0.00428082,0.250939,0.060605,0.0491597,1308,1793,5.12791,-18.5702
91,-769,5.2113,18.3116,0,0,0,0,0,0,0,-1,1315,1793,5.21134,-18.3117
98,-769,5.1189,18.8793,0,0,0,0,0,0,0,-1,1322,1793,5.11887,-18.8793
105,-769,5.05737,18.5785,0.114203,0.00945825,0.0247272,0.119747,0.00391429,0.220557,0.078559,0.042963,1329,1793,5.05736,-18.5785
112,-769,4.80493,18.4235,0.117919,0.0105837,0.023804,0.122961,0.00554148,0.208736,0.080191,0.0441906,1336,1793,4.80497,-18.4235
119,-769,4.82813,18.6526,0.117651,0.0105202,0.021551,0.121823,0.00634742,0.191257,0.0791847,0.0449457,1343,1793,4.82816,-18.6526
126,-769,4.7323,19.027,0,0,0,0,0,0,0,-1,1350,1793,4.73226,-19.0269
133,-769,4.64465,19.1006,0,0,0,0,0,0,0,-1,1357,1793,4.64466,-19.1005
140,-769,4.57751,19.0397,0,0,0,0,0,0,0,-1,1364,1793,4.5775,-19.0397
147,-769,4.02014,18.4487,0,0,0,0,0,0,0,-1,1371,1793,4.02012,-18.4487
154,-769,6.37561,1.00024,0,0,0,0,0,0,0,-1,1378,1793,6.37566,-1.00028
161,-769,6.57019,1.53223,0,0,0,0,0,0,0,-1,1385,1793,6.57019,-1.53226
168,-769,8.27637,0.756958,0,0,0,0,0,0,0,-1,1392,1793,8.27639,-0.756944
175,-769,8.47144,2.41174,0,0,0,0,0,0,0,-1,1399,1793,8.47147,-2.4118
182,-769,8.41479,4.05994,0,0,0,0,0,0,0,-1,1406,1793,8.41479,-4.05997
189,-769,8.25049,5.68433,0,0,0,0,0,0,0,-1,1413,1793,8.25054,-5.68428
196,-769,7.97729,7.42847,0,0,0,0,0,0,0,-1,1420,1793,7.9773,-7.42848
203,-769,22.0977,6.73889,0,0,0,0,0,0,0,-1,1427,1793,22.0977,-6.7389
210,-769,22.1115,7.77246,0,0,0,0,0,0,0,-1,1434,1793,22.1115,-7.77248
217,-769,22.4723,8.79102,0,0,0,0,0,0,0,-1,1441,1793,22.4723,-8.79099
224,-769,22.1348,9.35278,0,0,0,0,0,0,0,-1,1448,1793,22.1348,-9.35283
231,-769,5.99573,17.9962,0,0,0,0,0,0,0,-1,1455,1793,5.99578,-17.9962
238,-769,21.7686,9.32788,0,0,0,0,0,0,0,-1,1462,1793,21.7685,-9.3279
245,-769,3.01465,14.6079,0,0,0,0,0,0,0,-1,1469,1793,3.01469,-14.6079
252,-769,17.4956,7.51794,0,0,0,0,0,0,0,-1,1476,1793,17.4956,-7.51795
259,-769,16.4871,7.42102,0,0,0,0,0,0,0,-1,1483,1793,16.4871,-7.42104
266,-769,15.8488,7.3905,0,0,0,0,0,0,0,-1,1490,1793,15.8488,-7.39046
273,-769,14.8075,7.56152,0,0,0,0,0,0,0,-1,1497,1793,14.8075,-7.56152
280,-769,13.6519,7.43054,0,0,0,0,0,0,0,-1,1504,1793,13.6518,-7.43058
287,-769,0,0,0,0,0,0,0,0,0,-1,1511,1793,0,0
294,-769,0,0,0,0,0,0,0,0,0,-1,1518,1793,0,0
301,-769,0,0,0,0,0,0,0,0,0,-1,1525,1793,0,0
308,-769,0,0,0,0,0,0,0,0,0,-1,1532,1793,0,0
315,-769,0,0,0,0,0,0,0,0,0,-1,1539,1793,0,0
322,-769,0,0,0,0,0,0,0,0,0,-1,1546,1793,0,0
329,-769,0,0,0,0,0,0,0,0,0,-1,1553,1793,0,0
336,-769,0,0,0,0,0,0,0,0,0,-1,1560,1793,0,0
343,-769,0,0,0,0,0,0,0,0,0,-1,1567,1793,0,0
350,-769,0,0,0,0,0,0,0,0,0,-1,1574,1793,0,0
357,-769,0,0,0,0,0,0,0,0,0,-1,1581,1793,0,0
364,-769,0,0,0,0,0,0,0,0,0,-1,1588,1793,0,0
371,-769,0,0,0,0,0,0,0,0,0,-1,1595,1793,0,0
378,-769,0,0,0,0,0,0,0,0,0,-1,1602,1793,0,0
385,-769,0,0,0,0,0,0,0,0,0,-1,1609,1793,0,0
392,-769,0,0,0,0,0,0,0,0,0,-1,1616,1793,0,0
399,-769,0,0,0,0,0,0,0,0,0,-1,1623,1793,0,0
406,-769,0,0,0,0,0,0,0,0,0,-1,1630,1793,0,0
413,-769,0,0,0,0,0,0,0,0,0,-1,1637,1793,0,0
420,-769,0,0,0,0,0,0,0,0,0,-1,1644,1793,0,0
427,-769,0,0,0,0,0,0,0,0,0,-1,1651,1793,0,0
434,-769,0,0,0,0,0,0,0,0,0,-1,1658,1793,0,0
441,-769,0,0,0,0,0,0,0,0,0,-1,1665,1793,0,0
448,-769,0,0,0,0,0,0,0,0,0,-1,1672,1793,0,0
455,-769,0,0,0,0,0,0,0,0,0,-1,1679,1793,0,0
462,-769,0,0,0,0,0,0,0,0,0,-1,1686,1793,0,0
469,-769,0,0,0,0,0,0,0,0,0,-1,1693,1793,0,0
476,-769,0,0,0,0,0,0,0,0,0,-1,1700,1793,0,0
483,-769,0,0,0,0,0,0,0,0,0,-1,1707,1793,0,0
490,-769,0,0,0,0,0,0,0,0,0,-1,1714,1793,0,0
497,-769,0,0,0,0,0,0,0,0,0,-1,1721,1793,0,0
504,-769,0,0,0,0,0,0,0,0,0,-1,1728,1793,0,0
511,-769,0,0,0,0,0,0,0,0,0,-1,1735,1793,0,0
518,-769,0,0,0,0,0,0,0,0,0,-1,1742,1793,0,0
525,-769,0,0,0,0,0,0,0,0,0,-1,1749,1793,0,0
532,-769,0,0,0,0,0,0,0,0,0,-1,1756,1793,0,0
539,-769,0,0,0,0,0,0,0,0,0,-1,1763,1793,0,0
546,-769,0,0,0,0,0,0,0,0,0,-1,1770,1793,0,0
553,-769,0,0,0,0,0,0,0,0,0,-1,1777,1793,0,0
560,-769,0,0,0,0,0,0,0,0,0,-1,1784,1793,0,0
567,-769,0,0,0,0,0,0,0,0,0,-1,1791,1793,0,0
574,-769,0,0,0,0,0,0,0,0,0,-1,1798,1793,0,0
581,-769,0,0,0,0,0,0,0,0,0,-1,1805,1793,0,0
588,-769,0,0,0,0,0,0,0,0,0,-1,1812,1793,0,0
595,-769,0,0,0,0,0,0,0,0,0,-1,1819,1793,0,0
602,-769,0,0,0,0,0,0,0,0,0,-1,1826,1793,0,0
609,-769,0,0,0,0,0,0,0,0,0,-1,1833,1793,0,0
616,-769,0,0,0,0,0,0,0,0,0,-1,1840,1793,0,0
623,-769,0,0,0,0,0,0,0,0,0,-1,1847,1793,0,0
630,-769,0,0,0,0,0,0,0,0,0,-1,1854,1793,0,0
637,-769,0,0,0,0,0,0,0,0,0,-1,1861,1793,0,0
644,-769,0,0,0,0,0,0,0,0,0,-1,1868,1793,0,0
651,-769,0,0,0,0,0,0,0,0,0,-1,1875,1793,0,0
658,-769,0,0,0,0,0,0,0,0,0,-1,1882,1793,0,0
665,-769,0,0,0,0,0,0,0,0,0,-1,1889,1793,0,0
672,-769,0,0,0,0,0,0,0,0,0,-1,1896,1793,0,0
679,-769,0,0,0,0,0,0,0,0,0,-1,1903,1793,0,0
686,-769,0,0,0,0,0,0,0,0,0,-1,1910,1793,0,0
693,-769,0,0,0,0,0,0,0,0,0,-1,1917,1793,0,0
700,-769,0,0,0,0,0,0,0,0,0,-1,1924,1793,0,0
707,-769,0,0,0,0,0,0,0,0,0,-1,1931,1793,0,0
714,-769,0,0,0,0,0,0,0,0,0,-1,1938,1793,0,0
721,-769,0,0,0,0,0,0,0,0,0,-1,1945,1793,0,0
728,-769,0,0,0,0,0,0,0,0,0,-1,1952,1793,0,0
735,-769,0,0,0,0,0,0,0,0,0,-1,1959,1793,0,0
742,-769,0,0,0,0,0,0,0,0,0,-1,1966,1793,0,0
749,-769,0,0,0,0,0,0,0,0,0,-1,1973,1793,0,0
756,-769,0,0,0,0,0,0,0,0,0,-1,1980,1793,0,0
763,-769,0,0,0,0,0,0,0,0,0,-1,1987,1793,0,0
770,-769,0,0,0,0,0,0,0,0,0,-1,1994,1793,0,0
777,-769,0,0,0,0,0,0,0,0,0,-1,2001,1793,0,0
784,-769,0,0,0,0,0,0,0,0,0,-1,2008,1793,0,0
791,-769,0,0,0,0,0,0,0,0,0,-1,2015,1793,0,0
798,-769,0,0,0,0,0,0,0,0,0,-1,2022,1793,0,0
805,-769,0,0,0,0,0,0,0,0,0,-1,2029,1793,0,0
812,-769,0,0,0,0,0,0,0,0,0,-1,2036,1793,0,0
-700,-776,0,0,0,0,0,0,0,0,0,-1,524,1800,0,0
-693,-776,0,0,0,0,0,0,0,0,0,-1,531,1800,0,0
-686,-776,0,0,0,0,0,0,0,0,0,-1,538,1800,0,0
-679,-776,0,0,0,0,0,0,0,0,0,-1,545,1800,0,0
-672,-776,0,0,0,0,0,0,0,0,0,-1,552,1800,0,0
-665,-776,0,0,0,0,0,0,0,0,0,-1,559,1800,0,0
-658,-776,0,0,0,0,0,0,0,0,0,-1,566,1800,0,0
-651,-776,0,0,0,0,0,0,0,0,0,-1,573,1800,0,0
-644,-776,0,0,0,0,0,0,0,0,0,-1,580,1800,0,0
-637,-776,0,0,0,0,0,0,0,0,0,-1,587,1800,0,0
-630,-776,0,0,0,0,0,0,0,0,0,-1,594,1800,0,0
-623,-776,0,0,0,0,0,0,0,0,0,-1,601,1800,0,0
-616,-776,0,0,0,0,0,0,0,0,0,-1,608,1800,0,0
-609,-776,0,0,0,0,0,0,0,0,0,-1,615,1800,0,0
-602,-776,0,0,0,0,0,0,0,0,0,-1,622,1800,0,0
-595,-776,0,0,0,0,0,0,0,0,0,-1,629,1800,0,0
-588,-776,0,0,0,0,0,0,0,0,0,-1,636,1800,0,0
-581,-776,0,0,0,0,0,0,0,0,0,-1,643,1800,0,0
-574,-776,0,0,0,0,0,0,0,0,0,-1,650,1800,0,0
-567,-776,0,0,0,0,0,0,0,0,0,-1,657,1800,0,0
-560,-776,0,0,0,0,0,0,0,0,0,-1,664,1800,0,0
-553,-776,0,0,0,0,0,0,0,0,0,-1,671,1800,0,0
-546,-776,0,0,0,0,0,0,0,0,0,-1,678,1800,0,0
-539,-776,0,0,0,0,0,0,0,0,0,-1,685,1800,0,0
-532,-776,0,0,0,0,0,0,0,0,0,-1,692,1800,0,0
-525,-776,0,0,0,0,0,0,0,0,0,-1,699,1800,0,0
-518,-776,0,0,0,0,0,0,0,0,0,-1,706,1800,0,0
-511,-776,0,0,0,0,0,0,0,0,0,-1,713,1800,0,0
-504,-776,0,0,0,0,0,0,0,0,0,-1,720,1800,0,0
-497,-776,0,0,0,0,0,0,0,0,0,-1,727,1800,0,0
-490,-776,0,0,0,0,0,0,0,0,0,-1,734,1800,0,0
-483,-776,0,0,0,0,0,0,0,0,0,-1,741,1800,0,0
-476,-776,0,0,0,0,0,0,0,0,0,-1,748,1800,0,0
-469,-776,0,0,0,0,0,0,0,0,0,-1,755,1800,0,0
-462,-776,0,0,0,0,0,0,0,0,0,-1,762,1800,0,0
-455,-776,0,0,0,0,0,0,0,0,0,-1,769,1800,0,0
-448,-776,0,0,0,0,0,0,0,0,0,-1,776,1800,0,0
-441,-776,0,0,0,0,0,0,0,0,0,-1,783,1800,0,0
-434,-776,0,0,0,0,0,0,0,0,0,-1,790,1800,0,0
-427,-776,0,0,0,0,0,0,0,0,0,-1,797,1800,0,0
-420,-776,0,0,0,0,0,0,0,0,0,-1,804,1800,0,0
-413,-776,0,0,0,0,0,0,0,0,0,-1,811,1800,0,0
-406,-776,0,0,0,0,0,0,0,0,0,-1,818,1800,0,0
-399,-776,0,0,0,0,0,0,0,0,0,-1,825,1800,0,0
-392,-776,0,0,0,0,0,0,0,0,0,-1,832,1800,0,0
-385,-776,0,0,0,0,0,0,0,0,0,-1,839,1800,0,0
-378,-776,0,0,0,0,0,0,0,0,0,-1,846,1800,0,0
-371,-776,0,0,0,0,0,0,0,0,0,-1,853,1800,0,0
-364,-776,0,0,0,0,0,0,0,0,0,-1,860,1800,0,0
-357,-776,0,0,0,0,0,0,0,0,0,-1,867,1800,0,0
-350,-776,0,0,0,0,0,0,0,0,0,-1,874,1800,0,0
-343,-776,0,0,0,0,0,0,0,0,0,-1,881,1800,0,0
-336,-776,0,0,0,0,0,0,0,0,0,-1,888,1800,0,0
-329,-776,0,0,0,0,0,0,0,0,0,-1,895,1800,0,0
-322,-776,0,0,0,0,0,0,0,0,0,-1,902,1800,0,0
-315,-776,0,0,0,0,0,0,0,0,0,-1,909,1800,0,0
-308,-776,0,0,0,0,0,0,0,0,0,-1,916,1800,0,0
-301,-776,0,0,0,0,0,0,0,0,0,-1,923,1800,0,0
-294,-776,0,0,0,0,0,0,0,0,0,-1,930,1800,0,0
-287,-776,0,0,0,0,0,0,0,0,0,-1,937,1800,0,0
-280,-776,0,0,0,0,0,0,0,0,0,-1,944,1800,0,0
-273,-776,0,0,0,0,0,0,0,0,0,-1,951,1800,0,0
-266,-776,0,0,0,0,0,0,0,0,0,-1,958,1800,0,0
-259,-776,0,0,0,0,0,0,0,0,0,-1,965,1800,0,0
-252,-776,0,0,0,0,0,0,0,0,0,-1,972,1800,0,0
-245,-776,0,0,0,0,0,0,0,0,0,-1,979,1800,0,0
-238,-776,0,0,0,0,0,0,0,0,0,-1,986,1800,0,0
-231,-776,0,0,0,0,0,0,0,0,0,-1,993,1800,0,0
-224,-776,0,0,0,0,0,0,0,0,0,-1,1000,1800,0,0
-217,-776,0,0,0,0,0,0,0,0,0,-1,1007,1800,0,0
-210,-776,0,0,0,0,0,0,0,0,0,-1,1014,1800,0,0
-203,-776,0,0,0,0,0,0,0,0,0,-1,1021,1800,0,0
-196,-776,0,0,0,0,0,0,0,0,0,-1,1028,1800,0,0
-189,-776,0,0,0,0,0,0,0,0,0,-1,1035,1800,0,0
-182,-776,0,0,0,0,0,0,0,0,0,-1,1042,1800,0,0
-175,-776,0,0,0,0,0,0,0,0,0,-1,1049,1800,0,0
-168,-776,0,0,0,0,0,0,0,0,0,-1,1056,1800,0,0
-161,-776,0,0,0,0,0,0,0,0,0,-1,1063,1800,0,0
-154,-776,0,0,0,0,0,0,0,0,0,-1,1070,1800,0,0
-147,-776,0,0,0,0,0,0,0,0,0,-1,1077,1800,0,0
-140,-776,2.98499,5.20911,0,0,0,0,0,0,0,-1,1084,1800,2.98493,-5.2091
-133,-776,6.72363,9.35828,0,0,0,0,0,0,0,-1,1091,1800,6.72358,-9.35824
-126,-776,6.55029,13.7832,0,0,0,0,0,0,0,-1,1098,1800,6.55029,-13.7832
-119,-776,5.72107,13.7787,0,0,0,0,0,0,0,-1,1105,1800,5.72106,-13.7787
-112,-776,7.11792,18.3749,0,0,0,0,0,0,0,-1,1112,1800,7.11789,-18.3749
-105,-776,6.26868,18.3521,0,0,0,0,0,0,0,-1,1119,1800,6.26871,-18.352
-98,-776,5.43921,18.1306,0,0,0,0,0,0,0,-1,1126,1800,5.43927,-18.1306
-91,-776,3.00159,13.1172,0,0,0,0,0,0,0,-1,1133,1800,3.00159,-13.1171
-84,-776,2.27747,12.7086,0,0,0,0,0,0,0,-1,1140,1800,2.27747,-12.7087
-77,-776,0.580078,11.1272,0,0,0,0,0,0,0,-1,1147,1800,0.58002,-11.1272
-70,-776,-0.562866,12.3163,0,0,0,0,0,0,0,-1,1154,1800,-0.562897,-12.3163
-63,-776,-3.96106,9.97656,0,0,0,0,0,0,0,-1,1161,1800,-3.961,-9.97654
-56,-776,-7.35913,7.63672,0,0,0,0,0,0,0,-1,1168,1800,-7.3591,-7.63676
-49,-776,-7.62952,3.1908,0,0,0,0,0,0,0,-1,1175,1800,-7.62955,-3.19076
-42,-776,-3.41272,3.0249,0,0,0,0,0,0,0,-1,1182,1800,-3.41269,-3.02488
-35,-776,-3.71753,1.63635,0,0,0,0,0,0,0,-1,1189,1800,-3.71755,-1.63631
-28,-776,-4.03979,0.716064,0,0,0,0,0,0,0,-1,1196,1800,-4.03977,-0.716055
-21,-776,3.8291,17.5083,0,0,0,0,0,0,0,-1,1203,1800,3.82916,-17.5084
-14,-776,4.1698,17.6674,0,0,0,0,0,0,0,-1,1210,1800,4.16981,-17.6674
-7,-776,5.30054,18.2129,0,0,0,0,0,0,0,-1,1217,1800,5.30059,-18.2128
0,-776,5.32104,18.2931,0.00207909,-0.0115574,0.000820826,0.00212832,-0.0116066,0.0599052,0.00853607,0.047674,1224,1800,5.32101,-18.293
7,-776,4.58801,17.7941,0.00481525,-0.0130447,0.00267982,0.00520868,-0.0134382,0.14577,0.0111097,0.0456016,1231,1800,4.58802,-17.7941
14,-776,4.75659,18.1379,0.00788549,-0.0143657,0.00487863,0.00890814,-0.0153884,0.206627,0.014193,0.0441326,1238,1800,4.75658,-18.138
21,-776,4.87195,18.4203,0,0,0,0,0,0,0,-1,1245,1800,4.87198,-18.4203
28,-776,4.83679,18.6473,0,0,0,0,0,0,0,-1,1252,1800,4.83678,-18.6474
35,-776,4.92419,18.6959,0.0156582,-0.0174275,0.0117243,0.0193916,-0.0211608,0.308279,0.0234204,0.0464371,1259,1800,4.92417,-18.696
42,-776,5.26001,18.566,0.0175992,-0.0182311,0.0139379,0.0223824,-0.0230144,0.330589,0.0262107,0.0453132,1266,1800,5.25995,-18.5661
49,-776,5.54089,19.0231,0,0,0,0,0,0,0,-1,1273,1800,5.54091,-19.0231
56,-776,5.68091,18.5015,0,0,0,0,0,0,0,-1,1280,1800,5.68087,-18.5014
63,-776,5.45142,18.7058,0,0,0,0,0,0,0,-1,1287,1800,5.45138,-18.7058
70,-776,5.32898,18.8143,0,0,0,0,0,0,0,-1,1294,1800,5.32898,-18.8143
77,-776,5.18506,18.6064,0,0,0,0,0,0,0,-1,1301,1800,5.18503,-18.6064
84,-776,5.09729,18.4523,0,0,0,0,0,0,0,-1,1308,1800,5.09725,-18.4523
91,-776,-3.50769,16.9592,0,0,0,0,0,0,0,-1,1315,1800,-3.50769,-16.9593
98,-776,-2.27014,17.65,0.134376,0.00774668,0.0321604,0.142075,4.69685e-05,0.234992,0.0947013,0.0485636,1322,1800,-2.27008,-17.6501
105,-776,4.96252,17.8013,0.146316,0.0112635,0.032003,0.153515,0.00406366,0.22129,0.101016,0.0440076,1329,1800,4.96248,-17.8012
112,-776,4.86047,18.5276,0.15255,0.0133395,0.0302494,0.158839,0.00705057,0.204981,0.103622,0.0435884,1336,1800,4.86047,-18.5276
119,-776,4.84961,18.7832,0.153379,0.0136855,0.0266931,0.158306,0.00875862,0.18252,0.102742,0.0432042,1343,1800,4.84959,-18.7832
126,-776,5.01404,18.9039,0.148143,0.0122289,0.0215677,0.151484,0.00888848,0.153658,0.0981605,0.0471389,1350,1800,5.01405,-18.9039
133,-776,5.45203,19.0018,0,0,0,0,0,0,0,-1,1357,1800,5.45199,-19.0018
140,-776,4.39331,10.0631,0,0,0,0,0,0,0,-1,1364,1800,4.39332,-10.0631
147,-776,6.46301,-0.617188,0,0,0,0,0,0,0,-1,1371,1800,6.46305,0.61724
154,-776,6.43774,0.344116,0,0,0,0,0,0,0,-1,1378,1800,6.43776,-0.344162
161,-776,6.50293,1.1731,0,0,0,0,0,0,0,-1,1385,1800,6.5029,-1.17313
168,-776,8.44971,1.22913,0,0,0,0,0,0,0,-1,1392,1800,8.44974,-1.22915
175,-776,8.61523,2.87061,0,0,0,0,0,0,0,-1,1399,1800,8.6152,-2.87063
182,-776,8.54065,4.60645,0,0,0,0,0,0,0,-1,1406,1800,8.5407,-4.60643
189,-776,8.35303,6.28223,0,0,0,0,0,0,0,-1,1413,1800,8.35297,-6.28225
196,-776,8.0387,8.21704,0,0,0,0,0,0,0,-1,1420,1800,8.03865,-8.217
203,-776,7.91736,9.79919,0,0,0,0,0,0,0,-1,1427,1800,7.91735,-9.79922
210,-776,20.2479,7.85718,0,0,0,0,0,0,0,-1,1434,1800,20.248,-7.85719
217,-776,21.5171,9.3418,0,0,0,0,0,0,0,-1,1441,1800,21.5171,-9.34182
224,-776,3.09253,14.9313,0,0,0,0,0,0,0,-1,1448,1800,3.09254,-14.9313
231,-776,20.8671,9.21057,0,0,0,0,0,0,0,-1,1455,1800,20.867,-9.21054
238,-776,20.7511,9.05847,0,0,0,0,0,0,0,-1,1462,1800,20.7511,-9.05848
245,-776,21.0875,9.85986,0,0,0,0,0,0,0,-1,1469,1800,21.0875,-9.8599
252,-776,16.6313,6.47168,0,0,0,0,0,0,0,-1,1476,1800,16.6313,-6.47165
259,-776,14.1882,7.69055,0,0,0,0,0,0,0,-1,1483,1800,14.1882,-7.69061
266,-776,0,0,0,0,0,0,0,0,0,-1,1490,1800,0,0
273,-776,0,0,0,0,0,0,0,0,0,-1,1497,1800,0,0
280,-776,0,0,0,0,0,0,0,0,0,-1,1504,1800,0,0
287,-776,0,0,0,0,0,0,0,0,0,-1,1511,1800,0,0
294,-776,0,0,0,0,0,0,0,0,0,-1,1518,1800,0,0
301,-776,0,0,0,0,0,0,0,0,0,-1,1525,1800,0,0
308,-776,0,0,0,0,0,0,0,0,0,-1,1532,1800,0,0
315,-776,0,0,0,0,0,0,0,0,0,-1,1539,1800,0,0
322,-776,0,0,0,0,0,0,0,0,0,-1,1546,1800,0,0
329,-776,0,0,0,0,0,0,0,0,0,-1,1553,1800,0,0
336,-776,0,0,0,0,0,0,0,0,0,-1,1560,1800,0,0
343,-776,0,0,0,0,0,0,0,0,0,-1,1567,1800,0,0
350,-776,0,0,0,0,0,0,0,0,0,-1,1574,1800,0,0
357,-776,0,0,0,0,0,0,0,0,0,-1,1581,1800,0,0
364,-776,0,0,0,0,0,0,0,0,0,-1,1588,1800,0,0
371,-776,0,0,0,0,0,0,0,0,0,-1,1595,1800,0,0
378,-776,0,0,0,0,0,0,0,0,0,-1,1602,1800,0,0
385,-776,0,0,0,0,0,0,0,0,0,-1,1609,1800,0,0
392,-776,0,0,0,0,0,0,0,0,0,-1,1616,1800,0,0
399,-776,0,0,0,0,0,0,0,0,0,-1,1623,1800,0,0
406,-776,0,0,0,0,0,0,0,0,0,-1,1630,1800,0,0
413,-776,0,0,0,0,0,0,0,0,0,-1,1637,1800,0,0
420,-776,0,0,0,0,0,0,0,0,0,-1,1644,1800,0,0
427,-776,0,0,0,0,0,0,0,0,0,-1,1651,1800,0,0
434,-776,0,0,0,0,0,0,0,0,0,-1,1658,1800,0,0
441,-776,0,0,0,0,0,0,0,0,0,-1,1665,1800,0,0
448,-776,0,0,0,0,0,0,0,0,0,-1,1672,1800,0,0
455,-776,0,0,0,0,0,0,0,0,0,-1,1679,1800,0,0
462,-776,0,0,0,0,0,0,0,0,0,-1,1686,1800,0,0
469,-776,0,0,0,0,0,0,0,0,0,-1,1693,1800,0,0
476,-776,0,0,0,0,0,0,0,0,0,-1,1700,1800,0,0
483,-776,0,0,0,0,0,0,0,0,0,-1,1707,1800,0,0
490,-776,0,0,0,0,0,0,0,0,0,-1,1714,1800,0,0
497,-776,0,0,0,0,0,0,0,0,0,-1,1721,1800,0,0
504,-776,0,0,0,0,0,0,0,0,0,-1,1728,1800,0,0
511,-776,0,0,0,0,0,0,0,0,0,-1,1735,1800,0,0
518,-776,0,0,0,0,0,0,0,0,0,-1,1742,1800,0,0
525,-776,0,0,0,0,0,0,0,0,0,-1,1749,1800,0,0
532,-776,0,0,0,0,0,0,0,0,0,-1,1756,1800,0,0
539,-776,0,0,0,0,0,0,0,0,0,-1,1763,1800,0,0
546,-776,0,0,0,0,0,0,0,0,0,-1,1770,1800,0,0
553,-776,0,0,0,0,0,0,0,0,0,-1,1777,1800,0,0
560,-776,0,0,0,0,0,0,0,0,0,-1,1784,1800,0,0
567,-776,0,0,0,0,0,0,0,0,0,-1,1791,1800,0,0
574,-776,0,0,0,0,0,0,0,0,0,-1,1798,1800,0,0
581,-776,0,0,0,0,0,0,0,0,0,-1,1805,1800,0,0
588,-776,0,0,0,0,0,0,0,0,0,-1,1812,1800,0,0
595,-776,0,0,0,0,0,0,0,0,0,-1,1819,1800,0,0
602,-776,0,0,0,0,0,0,0,0,0,-1,1826,1800,0,0
609,-776,0,0,0,0,0,0,0,0,0,-1,1833,1800,0,0
616,-776,0,0,0,0,0,0,0,0,0,-1,1840,1800,0,0
623,-776,0,0,0,0,0,0,0,0,0,-1,1847,1800,0,0
630,-776,0,0,0,0,0,0,0,0,0,-1,1854,1800,0,0
637,-776,0,0,0,0,0,0,0,0,0,-1,1861,1800,0,0
644,-776,0,0,0,0,0,0,0,0,0,-1,1868,1800,0,0
651,-776,0,0,0,0,0,0,0,0,0,-1,1875,1800,0,0
658,-776,0,0,0,0,0,0,0,0,0,-1,1882,1800,0,0
665,-776,0,0,0,0,0,0,0,0,0,-1,1889,1800,0,0
672,-776,0,0,0,0,0,0,0,0,0,-1,1896,1800,0,0
679,-776,0,0,0,0,0,0,0,0,0,-1,1903,1800,0,0
686,-776,0,0,0,0,0,0,0,0,0,-1,1910,1800,0,0
693,-776,0,0,0,0,0,0,0,0,0,-1,1917,1800,0,0
700,-776,0,0,0,0,0,0,0,0,0,-1,1924,1800,0,0
707,-776,0,0,0,0,0,0,0,0,0,-1,1931,1800,0,0
714,-776,0,0,0,0,0,0,0,0,0,-1,1938,1800,0,0
721,-776,0,0,0,0,0,0,0,0,0,-1,1945,1800,0,0
728,-776,0,0,0,0,0,0,0,0,0,-1,1952,1800,0,0
735,-776,0,0,0,0,0,0,0,0,0,-1,1959,1800,0,0
742,-776,0,0,0,0,0,0,0,0,0,-1,1966,1800,0,0
749,-776,0,0,0,0,0,0,0,0,0,-1,1973,1800,0,0
756,-776,0,0,0,0,0,0,0,0,0,-1,1980,1800,0,0
763,-776,0,0,0,0,0,0,0,0,0,-1,1987,1800,0,0
770,-776,0,0,0,0,0,0,0,0,0,-1,1994,1800,0,0
777,-776,0,0,0,0,0,0,0,0,0,-1,2001,1800,0,0
784,-776,0,0,0,0,0,0,0,0,0,-1,2008,1800,0,0
791,-776,0,0,0,0,0,0,0,0,0,-1,2015,1800,0,0
798,-776,0,0,0,0,0,0,0,0,0,-1,2022,1800,0,0
805,-776,0,0,0,0,0,0,0,0,0,-1,2029,1800,0,0
812,-776,0,0,0,0,0,0,0,0,0,-1,2036,1800,0,0
-700,-783,0,0,0,0,0,0,0,0,0,-1,524,1807,0,0
-693,-783,0,0,0,0,0,0,0,0,0,-1,531,1807,0,0
-686,-783,0,0,0,0,0,0,0,0,0,-1,538,1807,0,0
-679,-783,0,0,0,0,0,0,0,0,0,-1,545,1807,0,0
-672,-783,0,0,0,0,0,0,0,0,0,-1,552,1807,0,0
-665,-783,0,0,0,0,0,0,0,0,0,-1,559,1807,0,0
-658,-783,0,0,0,0,0,0,0,0,0,-1,566,1807,0,0
-651,-783,0,0,0,0,0,0,0,0,0,-1,573,1807,0,0
-644,-783,0,0,0,0,0,0,0,0,0,-1,580,1807,0,0
-637,-783,0,0,0,0,0,0,0,0,0,-1,587,1807,0,0
-630,-783,0,0,0,0,0,0,0,0,0,-1,594,1807,0,0
-623,-783,0,0,0,0,0,0,0,0,0,-1,601,1807,0,0
-616,-783,0,0,0,0,0,0,0,0,0,-1,608,1807,0,0
-609,-783,0,0,0,0,0,0,0,0,0,-1,615,1807,0,0
-602,-783,0,0,0,0,0,0,0,0,0,-1,622,1807,0,0
-595,-783,0,0,0,0,0,0,0,0,0,-1,629,1807,0,0
-588,-783,0,0,0,0,0,0,0,0,0,-1,636,1807,0,0
-581,-783,0,0,0,0,0,0,0,0,0,-1,643,1807,0,0
-574,-783,0,0,0,0,0,0,0,0,0,-1,650,1807,0,0
-567,-783,0,0,0,0,0,0,0,0,0,-1,657,1807,0,0
-560,-783,0,0,0,0,0,0,0,0,0,-1,664,1807,0,0
-553,-783,0,0,0,0,0,0,0,0,0,-1,671,1807,0,0
-546,-783,0,0,0,0,0,0,0,0,0,-1,678,1807,0,0
-539,-783,0,0,0,0,0,0,0,0,0,-1,685,1807,0,0
-532,-783,0,0,0,0,0,0,0,0,0,-1,692,1807,0,0
-525,-783,0,0,0,0,0,0,0,0,0,-1,699,1807,0,0
-518,-783,0,0,0,0,0,0,0,0,0,-1,706,1807,0,0
-511,-783,0,0,0,0,0,0,0,0,0,-1,713,1807,0,0
-504,-783,0,0,0,0,0,0,0,0,0,-1,720,1807,0,0
-497,-783,0,0,0,0,0,0,0,0,0,-1,727,1807,0,0
-490,-783,0,0,0,0,0,0,0,0,0,-1,734,1807,0,0
-483,-783,0,0,0,0,0,0,0,0,0,-1,741,1807,0,0
-476,-783,0,0,0,0,0,0,0,0,0,-1,748,1807,0,0
-469,-783,0,0,0,0,0,0,0,0,0,-1,755,1807,0,0
-462,-783,0,0,0,0,0,0,0,0,0,-1,762,1807,0,0
-455,-783,0,0,0,0,0,0,0,0,0,-1,769,1807,0,0
-448,-783,0,0,0,0,0,0,0,0,0,-1,776,1807,0,0
-441,-783,0,0,0,0,0,0,0,0,0,-1,783,1807,0,0
-434,-783,0,0,0,0,0,0,0,0,0,-1,790,1807,0,0
-427,-783,0,0,0,0,0,0,0,0,0,-1,797,1807,0,0
-420,-783,0,0,0,0,0,0,0,0,0,-1,804,1807,0,0
-413,-783,0,0,0,0,0,0,0,0,0,-1,811,1807,0,0
-406,-783,0,0,0,0,0,0,0,0,0,-1,818,1807,0,0
-399,-783,0,0,0,0,0,0,0,0,0,-1,825,1807,0,0
-392,-783,0,0,0,0,0,0,0,0,0,-1,832,1807,0,0
-385,-783,0,0,0,0,0,0,0,0,0,-1,839,1807,0,0
-378,-783,0,0,0,0,0,0,0,0,0,-1,846,1807,0,0
-371,-783,0,0,0,0,0,0,0,0,0,-1,853,1807,0,0
-364,-783,0,0,0,0,0,0,0,0,0,-1,860,1807,0,0
-357,-783,0,0,0,0,0,0,0,0,0,-1,867,1807,0,0
-350,-783,0,0,0,0,0,0,0,0,0,-1,874,1807,0,0
-343,-783,0,0,0,0,0,0,0,0,0,-1,881,1807,0,0
-336,-783,0,0,0,0,0,0,0,0,0,-1,888,1807,0,0
-329,-783,0,0,0,0,0,0,0,0,0,-1,895,1807,0,0
-322,-783,0,0,0,0,0,0,0,0,0,-1,902,1807,0,0
-315,-783,0,0,0,0,0,0,0,0,0,-1,909,1807,0,0
-308,-783,0,0,0,0,0,0,0,0,0,-1,916,1807,0,0
-301,-783,0,0,0,0,0,0,0,0,0,-1,923,1807,0,0
-294,-783,0,0,0,0,0,0,0,0,0,-1,930,1807,0,0
-287,-783,0,0,0,0,0,0,0,0,0,-1,937,1807,0,0
-280,-783,0,0,0,0,0,0,0,0,0,-1,944,1807,0,0
-273,-783,0,0,0,0,0,0,0,0,0,-1,951,1807,0,0
-266,-783,0,0,0,0,0,0,0,0,0,-1,958,1807,0,0
-259,-783,0,0,0,0,0,0,0,0,0,-1,965,1807,0,0
-252,-783,0,0,0,0,0,0,0,0,0,-1,972,1807,0,0
-245,-783,0,0,0,0,0,0,0,0,0,-1,979,1807,0,0
-238,-783,0,0,0,0,0,0,0,0,0,-1,986,1807,0,0
-231,-783,0,0,0,0,0,0,0,0,0,-1,993,1807,0,0
-224,-783,0,0,0,0,0,0,0,0,0,-1,1000,1807,0,0
-217,-783,0,0,0,0,0,0,0,0,0,-1,1007,1807,0,0
-210,-783,0,0,0,0,0,0,0,0,0,-1,1014,1807,0,0
-203,-783,0,0,0,0,0,0,0,0,0,-1,1021,1807,0,0
-196,-783,0,0,0,0,0,0,0,0,0,-1,1028,1807,0,0
-189,-783,0,0,0,0,0,0,0,0,0,-1,1035,1807,0,0
-182,-783,0,0,0,0,0,0,0,0,0,-1,1042,1807,0,0
-175,-783,0,0,0,0,0,0,0,0,0,-1,1049,1807,0,0
-168,-783,0,0,0,0,0,0,0,0,0,-1,1056,1807,0,0
-161,-783,0,0,0,0,0,0,0,0,0,-1,1063,1807,0,0
-154,-783,0,0,0,0,0,0,0,0,0,-1,1070,1807,0,0
-147,-783,0,0,0,0,0,0,0,0,0,-1,1077,1807,0,0
-140,-783,0,0,0,0,0,0,0,0,0,-1,1084,1807,0,0
-133,-783,0,0,0,0,0,0,0,0,0,-1,1091,1807,0,0
-126,-783,0,0,0,0,0,0,0,0,0,-1,1098,1807,0,0
-119,-783,0,0,0,0,0,0,0,0,0,-1,1105,1807,0,0
-112,-783,5.33936,14.7699,0,0,0,0,0,0,0,-1,1112,1807,5.33931,-14.7699
-105,-783,4.53088,14.7312,0,0,0,0,0,0,0,-1,1119,1807,4.53083,-14.7312
-98,-783,3.57434,14.3257,0,0,0,0,0,0,0,-1,1126,1807,3.57437,-14.3257
-91,-783,2.78186,14.2633,0,0,0,0,0,0,0,-1,1133,1807,2.78186,-14.2633
-84,-783,-0.0491943,14.5743,0,0,0,0,0,0,0,-1,1140,1807,-0.0491562,-14.5743
-77,-783,0.332764,12.7788,0,0,0,0,0,0,0,-1,1147,1807,0.332743,-12.7788
-70,-783,-1.93176,5.12817,0,0,0,0,0,0,0,-1,1154,1807,-1.93171,-5.12813
-63,-783,-5.31702,10.54,0,0,0,0,0,0,0,-1,1161,1807,-5.31703,-10.54
-56,-783,-6.26135,6.9679,0,0,0,0,0,0,0,-1,1168,1807,-6.26136,-6.96785
-49,-783,-3.17688,4.59705,0,0,0,0,0,0,0,-1,1175,1807,-3.17685,-4.5971
-42,-783,-3.72876,3.1405,0,0,0,0,0,0,0,-1,1182,1807,-3.72874,-3.14055
-35,-783,-3.97046,1.59399,0,0,0,0,0,0,0,-1,1189,1807,-3.97041,-1.59401
-28,-783,-4.12195,0.270386,0,0,0,0,0,0,0,-1,1196,1807,-4.12197,-0.270408
-21,-783,4.28137,17.4398,0,0,0,0,0,0,0,-1,1203,1807,4.2814,-17.4398
-14,-783,4.68896,17.5735,0,0,0,0,0,0,0,-1,1210,1807,4.68899,-17.5735
-7,-783,5.07629,17.353,0,0,0,0,0,0,0,-1,1217,1807,5.07635,-17.3531
0,-783,5.1189,17.6635,0.00410729,-0.0167046,0.00127869,0.00418556,-0.0167829,0.0611339,0.0128137,0.0451671,1224,1807,5.11889,-17.6635
7,-783,5.09973,18.0468,0.00743293,-0.0189061,0.00389747,0.00799755,-0.0194707,0.143867,0.0163134,0.0458326,1231,1807,5.0997,-18.0468
14,-783,5.18372,18.5325,0.0111108,-0.0207118,0.00693271,0.0125555,-0.0221565,0.205454,0.0202949,0.0469847,1238,1807,5.18375,-18.5324
21,-783,5.25574,18.6798,0,0,0,0,0,0,0,-1,1245,1807,5.25574,-18.6798
28,-783,4.81323,18.7523,0,0,0,0,0,0,0,-1,1252,1807,4.81326,-18.7524
35,-783,4.69592,18.611,0.0204668,-0.0245754,0.016616,0.025933,-0.0300417,0.317822,0.032346,0.045956,1259,1807,4.69597,-18.611
42,-783,5.03101,18.751,0.0228481,-0.0255424,0.0197402,0.0298792,-0.0325735,0.342171,0.0360683,0.043034,1266,1807,5.03096,-18.751
49,-783,5.36572,19.1934,0.035515,-0.0253348,0.0207377,0.0419103,-0.0317301,0.299135,0.0426515,0.0452492,1273,1807,5.36568,-19.1933
56,-783,5.52405,18.0436,0,0,0,0,0,0,0,-1,1280,1807,5.52408,-18.0436
63,-783,5.30676,17.959,0,0,0,0,0,0,0,-1,1287,1807,5.30673,-17.959
70,-783,5.37268,17.8917,0,0,0,0,0,0,0,-1,1294,1807,5.37266,-17.8917
77,-783,6.48035,18.0732,0,0,0,0,0,0,0,-1,1301,1807,6.4804,-18.0733
84,-783,5.09277,18.726,0,0,0,0,0,0,0,-1,1308,1807,5.09277,-18.726
91,-783,-2.61768,16.8553,0,0,0,0,0,0,0,-1,1315,1807,-2.61764,-16.8553
98,-783,-1.30432,17.5275,0.163413,0.00754848,0.0404631,0.173292,-0.00232982,0.239448,0.116312,0.0491531,1322,1807,-1.30434,-17.5275
105,-783,-0.207153,18.2495,0.179851,0.0125778,0.0395838,0.188745,0.00368359,0.221023,0.12462,0.0498737,1329,1807,-0.207174,-18.2495
112,-783,4.89343,19.546,0.18962,0.0159818,0.0366613,0.197043,0.00855856,0.199779,0.128604,0.043348,1336,1807,4.89337,-19.546
119,-783,4.64795,19.0232,0.192403,0.0170038,0.0313655,0.197843,0.0115637,0.171735,0.128215,0.0398853,1343,1807,4.648,-19.0232
126,-783,5.12231,18.9034,0.186524,0.0154018,0.0237866,0.189769,0.0121569,0.13558,0.122661,0.0464727,1350,1807,5.12232,-18.9034
133,-783,6.59521,18.7877,0.172796,0.0117693,0.0142082,0.174041,0.0105252,0.0873355,0.112683,0.0497535,1357,1807,6.59518,-18.7877
140,-783,8.10645,18.6007,0,0,0,0,0,0,0,-1,1364,1807,8.10639,-18.6007
147,-783,6.45825,-1.2334,0,0,0,0,0,0,0,-1,1371,1807,6.45822,1.23339
154,-783,6.37024,-0.145874,0,0,0,0,0,0,0,-1,1378,1807,6.37018,0.145866
161,-783,6.57568,1.16174,0,0,0,0,0,0,0,-1,1385,1807,6.57562,-1.1617
168,-783,8.62561,1.79944,0,0,0,0,0,0,0,-1,1392,1807,8.62561,-1.79946
175,-783,8.78699,3.40857,0,0,0,0,0,0,0,-1,1399,1807,8.78697,-3.40854
182,-783,8.70984,5.14661,0,0,0,0,0,0,0,-1,1406,1807,8.70989,-5.14666
189,-783,8.55762,6.79871,0,0,0,0,0,0,0,-1,1413,1807,8.55766,-6.79872
196,-783,8.25488,8.66626,0,0,0,0,0,0,0,-1,1420,1807,8.25492,-8.66628
203,-783,7.86755,10.5735,0,0,0,0,0,0,0,-1,1427,1807,7.8676,-10.5734
210,-783,5.6969,8.99231,0,0,0,0,0,0,0,-1,1434,1807,5.69693,-8.99234
217,-783,5.28503,3.80872,0,0,0,0,0,0,0,-1,1441,1807,5.285,-3.80868
224,-783,3.22571,6.62903,0,0,0,0,0,0,0,-1,1448,1807,3.2257,-6.62907
231,-783,4.27942,4.56262,0,0,0,0,0,0,0,-1,1455,1807,4.27948,-4.56267
238,-783,0,0,0,0,0,0,0,0,0,-1,1462,1807,0,0
245,-783,0,0,0,0,0,0,0,0,0,-1,1469,1807,0,0
252,-783,0,0,0,0,0,0,0,0,0,-1,1476,1807,0,0
259,-783,0,0,0,0,0,0,0,0,0,-1,1483,1807,0,0
266,-783,0,0,0,0,0,0,0,0,0,-1,1490,1807,0,0
273,-783,0,0,0,0,0,0,0,0,0,-1,1497,1807,0,0
280,-783,0,0,0,0,0,0,0,0,0,-1,1504,1807,0,0
287,-783,0,0,0,0,0,0,0,0,0,-1,1511,1807,0,0
294,-783,0,0,0,0,0,0,0,0,0,-1,1518,1807,0,0
301,-783,0,0,0,0,0,0,0,0,0,-1,1525,1807,0,0
308,-783,0,0,0,0,0,0,0,0,0,-1,1532,1807,0,0
315,-783,0,0,0,0,0,0,0,0,0,-1,1539,1807,0,0
322,-783,0,0,0,0,0,0,0,0,0,-1,1546,1807,0,0
329,-783,0,0,0,0,0,0,0,0,0,-1,1553,1807,0,0
336,-783,0,0,0,0,0,0,0,0,0,-1,1560,1807,0,0
343,-783,0,0,0,0,0,0,0,0,0,-1,1567,1807,0,0
350,-783,0,0,0,0,0,0,0,0,0,-1,1574,1807,0,0
357,-783,0,0,0,0,0,0,0,0,0,-1,1581,1807,0,0
364,-783,0,0,0,0,0,0,0,0,0,-1,1588,1807,0,0
371,-783,0,0,0,0,0,0,0,0,0,-1,1595,1807,0,0
378,-783,0,0,0,0,0,0,0,0,0,-1,1602,1807,0,0
385,-783,0,0,0,0,0,0,0,0,0,-1,1609,1807,0,0
392,-783,0,0,0,0,0,0,0,0,0,-1,1616,1807,0,0
399,-783,0,0,0,0,0,0,0,0,0,-1,1623,1807,0,0
406,-783,0,0,0,0,0,0,0,0,0,-1,1630,1807,0,0
413,-783,0,0,0,0,0,0,0,0,0,-1,1637,1807,0,0
420,-783,0,0,0,0,0,0,0,0,0,-1,1644,1807,0,0
427,-783,0,0,0,0,0,0,0,0,0,-1,1651,1807,0,0
434,-783,0,0,0,0,0,0,0,0,0,-1,1658,1807,0,0
441,-783,0,0,0,0,0,0,0,0,0,-1,1665,1807,0,0
448,-783,0,0,0,0,0,0,0,0,0,-1,1672,1807,0,0
455,-783,0,0,0,0,0,0,0,0,0,-1,1679,1807,0,0
462,-783,0,0,0,0,0,0,0,0,0,-1,1686,1807,0,0
469,-783,0,0,0,0,0,0,0,0,0,-1,1693,1807,0,0
476,-783,0,0,0,0,0,0,0,0,0,-1,1700,1807,0,0
483,-783,0,0,0,0,0,0,0,0,0,-1,1707,1807,0,0
490,-783,0,0,0,0,0,0,0,0,0,-1,1714,1807,0,0
497,-783,0,0,0,0,0,0,0,0,0,-1,1721,1807,0,0
504,-783,0,0,0,0,0,0,0,0,0,-1,1728,1807,0,0
511,-783,0,0,0,0,0,0,0,0,0,-1,1735,1807,0,0
518,-783,0,0,0,0,0,0,0,0,0,-1,1742,1807,0,0
525,-783,0,0,0,0,0,0,0,0,0,-1,1749,1807,0,0
532,-783,0,0,0,0,0,0,0,0,0,-1,1756,1807,0,0
539,-783,0,0,0,0,0,0,0,0,0,-1,1763,1807,0,0
546,-783,0,0,0,0,0,0,0,0,0,-1,1770,1807,0,0
553,-783,0,0,0,0,0,0,0,0,0,-1,1777,1807,0,0
560,-783,0,0,0,0,0,0,0,0,0,-1,1784,1807,0,0
567,-783,0,0,0,0,0,0,0,0,0,-1,1791,1807,0,0
574,-783,0,0,0,0,0,0,0,0,0,-1,1798,1807,0,0
581,-783,0,0,0,0,0,0,0,0,0,-1,1805,1807,0,0
588,-783,0,0,0,0,0,0,0,0,0,-1,1812,1807,0,0
595,-783,0,0,0,0,0,0,0,0,0,-1,1819,1807,0,0
602,-783,0,0,0,0,0,0,0,0,0,-1,1826,1807,0,0
609,-783,0,0,0,0,0,0,0,0,0,-1,1833,1807,0,0
616,-783,0,0,0,0,0,0,0,0,0,-1,1840,1807,0,0
623,-783,0,0,0,0,0,0,0,0,0,-1,1847,1807,0,0
630,-783,0,0,0,0,0,0,0,0,0,-1,1854,1807,0,0
637,-783,0,0,0,0,0,0,0,0,0,-1,1861,1807,0,0
644,-783,0,0,0,0,0,0,0,0,0,-1,1868,1807,0,0
651,-783,0,0,0,0,0,0,0,0,0,-1,1875,1807,0,0
658,-783,0,0,0,0,0,0,0,0,0,-1,1882,1807,0,0
665,-783,0,0,0,0,0,0,0,0,0,-1,1889,1807,0,0
672,-783,0,0,0,0,0,0,0,0,0,-1,1896,1807,0,0
679,-783,0,0,0,0,0,0,0,0,0,-1,1903,1807,0,0
686,-783,0,0,0,0,0,0,0,0,0,-1,1910,1807,0,0
693,-783,0,0,0,0,0,0,0,0,0,-1,1917,1807,0,0
700,-783,0,0,0,0,0,0,0,0,0,-1,1924,1807,0,0
707,-783,0,0,0,0,0,0,0,0,0,-1,1931,1807,0,0
714,-783,0,0,0,0,0,0,0,0,0,-1,1938,1807,0,0
721,-783,0,0,0,0,0,0,0,0,0,-1,1945,1807,0,0
728,-783,0,0,0,0,0,0,0,0,0,-1,1952,1807,0,0
735,-783,0,0,0,0,0,0,0,0,0,-1,1959,1807,0,0
742,-783,0,0,0,0,0,0,0,0,0,-1,1966,1807,0,0
749,-783,0,0,0,0,0,0,0,0,0,-1,1973,1807,0,0
756,-783,0,0,0,0,0,0,0,0,0,-1,1980,1807,0,0
763,-783,0,0,0,0,0,0,0,0,0,-1,1987,1807,0,0
770,-783,0,0,0,0,0,0,0,0,0,-1,1994,1807,0,0
777,-783,0,0,0,0,0,0,0,0,0,-1,2001,1807,0,0
784,-783,0,0,0,0,0,0,0,0,0,-1,2008,1807,0,0
791,-783,0,0,0,0,0,0,0,0,0,-1,2015,1807,0,0
798,-783,0,0,0,0,0,0,0,0,0,-1,2022,1807,0,0
805,-783,0,0,0,0,0,0,0,0,0,-1,2029,1807,0,0
812,-783,0,0,0,0,0,0,0,0,0,-1,2036,1807,0,0
-700,-790,0,0,0,0,0,0,0,0,0,-1,524,1814,0,0
-693,-790,0,0,0,0,0,0,0,0,0,-1,531,1814,0,0
-686,-790,0,0,0,0,0,0,0,0,0,-1,538,1814,0,0
-679,-790,0,0,0,0,0,0,0,0,0,-1,545,1814,0,0
-672,-790,0,0,0,0,0,0,0,0,0,-1,552,1814,0,0
-665,-790,0,0,0,0,0,0,0,0,0,-1,559,1814,0,0
-658,-790,0,0,0,0,0,0,0,0,0,-1,566,1814,0,0
-651,-790,0,0,0,0,0,0,0,0,0,-1,573,1814,0,0
-644,-790,0,0,0,0,0,0,0,0,0,-1,580,1814,0,0
-637,-790,0,0,0,0,0,0,0,0,0,-1,587,1814,0,0
-630,-790,0,0,0,0,0,0,0,0,0,-1,594,1814,0,0
-623,-790,0,0,0,0,0,0,0,0,0,-1,601,1814,0,0
-616,-790,0,0,0,0,0,0,0,0,0,-1,608,1814,0,0
-609,-790,0,0,0,0,0,0,0,0,0,-1,615,1814,0,0
-602,-790,0,0,0,0,0,0,0,0,0,-1,622,1814,0,0
-595,-790,0,0,0,0,0,0,0,0,0,-1,629,1814,0,0
-588,-790,0,0,0,0,0,0,0,0,0,-1,636,1814,0,0
-581,-790,0,0,0,0,0,0,0,0,0,-1,643,1814,0,0
-574,-790,0,0,0,0,0,0,0,0,0,-1,650,1814,0,0
-567,-790,0,0,0,0,0,0,0,0,0,-1,657,1814,0,0
-560,-790,0,0,0,0,0,0,0,0,0,-1,664,1814,0,0
-553,-790,0,0,0,0,0,0,0,0,0,-1,671,1814,0,0
-546,-790,0,0,0,0,0,0,0,0,0,-1,678,1814,0,0
-539,-790,0,0,0,0,0,0,0,0,0,-1,685,1814,0,0
-532,-790,0,0,0,0,0,0,0,0,0,-1,692,1814,0,0
-525,-790,0,0,0,0,0,0,0,0,0,-1,699,1814,0,0
-518,-790,0,0,0,0,0,0,0,0,0,-1,706,1814,0,0
-511,-790,0,0,0,0,0,0,0,0,0,-1,713,1814,0,0
-504,-790,0,0,0,0,0,0,0,0,0,-1,720,1814,0,0
-497,-790,0,0,0,0,0,0,0,0,0,-1,727,1814,0,0
-490,-790,0,0,0,0,0,0,0,0,0,-1,734,1814,0,0
-483,-790,0,0,0,0,0,0,0,0,0,-1,741,1814,0,0
-476,-790,0,0,0,0,0,0,0,0,0,-1,748,1814,0,0
-469,-790,0,0,0,0,0,0,0,0,0,-1,755,1814,0,0
-462,-790,0,0,0,0,0,0,0,0,0,-1,762,1814,0,0
-455,-790,0,0,0,0,0,0,0,0,0,-1,769,1814,0,0
-448,-790,0,0,0,0,0,0,0,0,0,-1,776,1814,0,0
-441,-790,0,0,0,0,0,0,0,0,0,-1,783,1814,0,0
-434,-790,0,0,0,0,0,0,0,0,0,-1,790,1814,0,0
-427,-790,0,0,0,0,0,0,0,0,0,-1,797,1814,0,0
-420,-790,0,0,0,0,0,0,0,0,0,-1,804,1814,0,0
-413,-790,0,0,0,0,0,0,0,0,0,-1,811,1814,0,0
-406,-790,0,0,0,0,0,0,0,0,0,-1,818,1814,0,0
-399,-790,0,0,0,0,0,0,0,0,0,-1,825,1814,0,0
-392,-790,0,0,0,0,0,0,0,0,0,-1,832,1814,0,0
-385,-790,0,0,0,0,0,0,0,0,0,-1,839,1814,0,0
-378,-790,0,0,0,0,0,0,0,0,0,-1,846,1814,0,0
-371,-790,0,0,0,0,0,0,0,0,0,-1,853,1814,0,0
-364,-790,0,0,0,0,0,0,0,0,0,-1,860,1814,0,0
-357,-790,0,0,0,0,0,0,0,0,0,-1,867,1814,0,0
-350,-790,0,0,0,0,0,0,0,0,0,-1,874,1814,0,0
-343,-790,0,0,0,0,0,0,0,0,0,-1,881,1814,0,0
-336,-790,0,0,0,0,0,0,0,0,0,-1,888,1814,0,0
-329,-790,0,0,0,0,0,0,0,0,0,-1,895,1814,0,0
-322,-790,0,0,0,0,0,0,0,0,0,-1,902,1814,0,0
-315,-790,0,0,0,0,0,0,0,0,0,-1,909,1814,0,0
-308,-790,0,0,0,0,0,0,0,0,0,-1,916,1814,0,0
-301,-790,0,0,0,0,0,0,0,0,0,-1,923,1814,0,0
-294,-790,0,0,0,0,0,0,0,0,0,-1,930,1814,0,0
-287,-790,0,0,0,0,0,0,0,0,0,-1,937,1814,0,0
-280,-790,0,0,0,0,0,0,0,0,0,-1,944,1814,0,0
-273,-790,0,0,0,0,0,0,0,0,0,-1,951,1814,0,0
-266,-790,0,0,0,0,0,0,0,0,0,-1,958,1814,0,0
-259,-790,0,0,0,0,0,0,0,0,0,-1,965,1814,0,0
-252,-790,0,0,0,0,0,0,0,0,0,-1,972,1814,0,0
-245,-790,0,0,0,0,0,0,0,0,0,-1,979,1814,0,0
-238,-790,0,0,0,0,0,0,0,0,0,-1,986,1814,0,0
-231,-790,0,0,0,0,0,0,0,0,0,-1,993,1814,0,0
-224,-790,0,0,0,0,0,0,0,0,0,-1,1000,1814,0,0
-217,-790,0,0,0,0,0,0,0,0,0,-1,1007,1814,0,0
-210,-790,0,0,0,0,0,0,0,0,0,-1,1014,1814,0,0
-203,-790,0,0,0,0,0,0,0,0,0,-1,1021,1814,0,0
-196,-790,0,0,0,0,0,0,0,0,0,-1,1028,1814,0,0
-189,-790,0,0,0,0,0,0,0,0,0,-1,1035,1814,0,0
-182,-790,0,0,0,0,0,0,0,0,0,-1,1042,1814,0,0
-175,-790,0,0,0,0,0,0,0,0,0,-1,1049,1814,0,0
-168,-790,0,0,0,0,0,0,0,0,0,-1,1056,1814,0,0
-161,-790,0,0,0,0,0,0,0,0,0,-1,1063,1814,0,0
-154,-790,0,0,0,0,0,0,0,0,0,-1,1070,1814,0,0
-147,-790,0,0,0,0,0,0,0,0,0,-1,1077,1814,0,0
-140,-790,0,0,0,0,0,0,0,0,0,-1,1084,1814,0,0
-133,-790,0,0,0,0,0,0,0,0,0,-1,1091,1814,0,0
-126,-790,0,0,0,0,0,0,0,0,0,-1,1098,1814,0,0
-119,-790,0,0,0,0,0,0,0,0,0,-1,1105,1814,0,0
-112,-790,0,0,0,0,0,0,0,0,0,-1,1112,1814,0,0
-105,-790,0,0,0,0,0,0,0,0,0,-1,1119,1814,0,0
-98,-790,0,0,0,0,0,0,0,0,0,-1,1126,1814,0,0
-91,-790,0,0,0,0,0,0,0,0,0,-1,1133,1814,0,0
-84,-790,0,0,0,0,0,0,0,0,0,-1,1140,1814,0,0
-77,-790,-0.969238,5.30847,0,0,0,0,0,0,0,-1,1147,1814,-0.969277,-5.3085
-70,-790,-1.23169,4.98914,0,0,0,0,0,0,0,-1,1154,1814,-1.23163,-4.98916
-63,-790,-1.69128,4.32263,0,0,0,0,0,0,0,-1,1161,1814,-1.69128,-4.32258
-56,-790,-2.24756,3.75305,0,0,0,0,0,0,0,-1,1168,1814,-2.24758,-3.75302
-49,-790,-3.11011,3.35779,0,0,0,0,0,0,0,-1,1175,1814,-3.11006,-3.35781
-42,-790,0.593262,1.19165,0,0,0,0,0,0,0,-1,1182,1814,0.593225,-1.19165
-35,-790,0.307129,-0.20105,0,0,0,0,0,0,0,-1,1189,1814,0.307178,0.201006
-28,-790,-2.78467,0.785156,0,0,0,0,0,0,0,-1,1196,1814,-2.78471,-0.785183
-21,-790,5.06152,17.1956,0,0,0,0,0,0,0,-1,1203,1814,5.06152,-17.1955
-14,-790,5.38562,17.382,0.000531976,-0.0174411,-0.00467223,0.00167399,-0.0185831,-0.239726,0.0129828,0.0461976,1210,1814,5.38565,-17.3819
-7,-790,5.59485,17.4624,0,0,0,0,0,0,0,-1,1217,1814,5.5948,-17.4624
0,-790,5.51587,17.876,0.00685025,-0.0232701,0.00196972,0.00697852,-0.0233984,0.065026,0.0183723,0.0459761,1224,1814,5.51586,-17.876
7,-790,5.51099,18.4276,0.0107432,-0.0264628,0.00557515,0.0115606,-0.0272802,0.145587,0.0230288,0.0442514,1231,1814,5.511,-18.4276
14,-790,5.57922,19.0216,0.0149289,-0.0288429,0.00963008,0.0169539,-0.0308679,0.207259,0.0279968,0.044625,1238,1814,5.57918,-19.0216
21,-790,5.76624,19.2639,0.0188671,-0.030544,0.0141497,0.0226322,-0.0343091,0.260064,0.0331047,0.0433821,1245,1814,5.7662,-19.2639
28,-790,4.40759,18.3934,0,0,0,0,0,0,0,-1,1252,1814,4.40756,-18.3935
35,-790,4.72998,18.3536,0,0,0,0,0,0,0,-1,1259,1814,4.72993,-18.3536
42,-790,5.05237,18.3137,0,0,0,0,0,0,0,-1,1266,1814,5.05231,-18.3137
49,-790,5.24951,18.8984,0,0,0,0,0,0,0,-1,1273,1814,5.24953,-18.8984
56,-790,5.44727,17.6447,0,0,0,0,0,0,0,-1,1280,1814,5.44732,-17.6447
63,-790,4.96094,18.2164,0.0786119,-0.0261238,0.0433271,0.094212,-0.0417238,0.345602,0.0804091,0.0439544,1287,1814,4.96091,-18.2164
70,-790,5.44995,18.4043,0.0971956,-0.0195683,0.0468879,0.113693,-0.0360658,0.338321,0.0902522,0.0426978,1294,1814,5.44991,-18.4043
77,-790,5.61377,18.3279,0.118646,-0.0142805,0.0485116,0.134467,-0.0301018,0.315257,0.101182,0.0454755,1301,1814,5.61382,-18.3278
84,-790,-3.00684,15.9177,0,0,0,0,0,0,0,-1,1308,1814,-3.00688,-15.9177
91,-790,-1.74695,16.6082,0,0,0,0,0,0,0,-1,1315,1814,-1.74697,-16.6082
98,-790,-0.327759,17.2896,0,0,0,0,0,0,0,-1,1322,1814,-0.327815,-17.2895
105,-790,1.32605,17.5101,0,0,0,0,0,0,0,-1,1329,1814,1.32609,-17.5101
112,-790,2.76843,17.9604,0.226791,0.0180133,0.0423083,0.235039,0.0097654,0.192532,0.153541,0.0488289,1336,1814,2.76842,-17.9604
119,-790,4.06934,19.3489,0.232752,0.0200636,0.0348107,0.238305,0.0145111,0.158173,0.154261,0.0420832,1343,1814,4.06938,-19.3489
126,-790,5.62646,18.8684,0.22687,0.0184876,0.0240559,0.229611,0.0157466,0.113453,0.148105,0.0470997,1350,1814,5.62644,-18.8684
133,-790,6.89819,18.8303,0.207203,0.0132723,0.00988337,0.207706,0.0127699,0.050788,0.134416,0.0492103,1357,1814,6.89813,-18.8303
140,-790,8.11194,18.734,0,0,0,0,0,0,0,-1,1364,1814,8.11194,-18.734
147,-790,3.4906,13.9751,0,0,0,0,0,0,0,-1,1371,1814,3.49064,-13.9751
154,-790,6.34485,-0.540405,0,0,0,0,0,0,0,-1,1378,1814,6.34482,0.540409
161,-790,6.62683,1.1134,0,0,0,0,0,0,0,-1,1385,1814,6.62682,-1.11344
168,-790,7.04077,2.23279,0,0,0,0,0,0,0,-1,1392,1814,7.04082,-2.23275
175,-790,9.03918,3.98535,0,0,0,0,0,0,0,-1,1399,1814,9.0392,-3.98535
182,-790,8.96997,5.67896,0,0,0,0,0,0,0,-1,1406,1814,8.97001,-5.6789
189,-790,8.59729,6.86975,0,0,0,0,0,0,0,-1,1413,1814,8.59728,-6.86972
196,-790,8.21924,9.29053,0,0,0,0,0,0,0,-1,1420,1814,8.21924,-9.29048
203,-790,0,0,0,0,0,0,0,0,0,-1,1427,1814,0,0
210,-790,0,0,0,0,0,0,0,0,0,-1,1434,1814,0,0
217,-790,0,0,0,0,0,0,0,0,0,-1,1441,1814,0,0
224,-790,0,0,0,0,0,0,0,0,0,-1,1448,1814,0,0
231,-790,0,0,0,0,0,0,0,0,0,-1,1455,1814,0,0
238,-790,0,0,0,0,0,0,0,0,0,-1,1462,1814,0,0
245,-790,0,0,0,0,0,0,0,0,0,-1,1469,1814,0,0
252,-790,0,0,0,0,0,0,0,0,0,-1,1476,1814,0,0
259,-790,0,0,0,0,0,0,0,0,0,-1,1483,1814,0,0
266,-790,0,0,0,0,0,0,0,0,0,-1,1490,1814,0,0
273,-790,0,0,0,0,0,0,0,0,0,-1,1497,1814,0,0
280,-790,0,0,0,0,0,0,0,0,0,-1,1504,1814,0,0
287,-790,0,0,0,0,0,0,0,0,0,-1,1511,1814,0,0
294,-790,0,0,0,0,0,0,0,0,0,-1,1518,1814,0,0
301,-790,0,0,0,0,0,0,0,0,0,-1,1525,1814,0,0
308,-790,0,0,0,0,0,0,0,0,0,-1,1532,1814,0,0
315,-790,0,0,0,0,0,0,0,0,0,-1,1539,1814,0,0
322,-790,0,0,0,0,0,0,0,0,0,-1,1546,1814,0,0
329,-790,0,0,0,0,0,0,0,0,0,-1,1553,1814,0,0
336,-790,0,0,0,0,0,0,0,0,0,-1,1560,1814,0,0
343,-790,0,0,0,0,0,0,0,0,0,-1,1567,1814,0,0
350,-790,0,0,0,0,0,0,0,0,0,-1,1574,1814,0,0
357,-790,0,0,0,0,0,0,0,0,0,-1,1581,1814,0,0
364,-790,0,0,0,0,0,0,0,0,0,-1,1588,1814,0,0
371,-790,0,0,0,0,0,0,0,0,0,-1,1595,1814,0,0
378,-790,0,0,0,0,0,0,0,0,0,-1,1602,1814,0,0
385,-790,0,0,0,0,0,0,0,0,0,-1,1609,1814,0,0
392,-790,0,0,0,0,0,0,0,0,0,-1,1616,1814,0,0
399,-790,0,0,0,0,0,0,0,0,0,-1,1623,1814,0,0
406,-790,0,0,0,0,0,0,0,0,0,-1,1630,1814,0,0
413,-790,0,0,0,0,0,0,0,0,0,-1,1637,1814,0,0
420,-790,0,0,0,0,0,0,0,0,0,-1,1644,1814,0,0
427,-790,0,0,0,0,0,0,0,0,0,-1,1651,1814,0,0
434,-790,0,0,0,0,0,0,0,0,0,-1,1658,1814,0,0
441,-790,0,0,0,0,0,0,0,0,0,-1,1665,1814,0,0
448,-790,0,0,0,0,0,0,0,0,0,-1,1672,1814,0,0
455,-790,0,0,0,0,0,0,0,0,0,-1,1679,1814,0,0
462,-790,0,0,0,0,0,0,0,0,0,-1,1686,1814,0,0
469,-790,0,0,0,0,0,0,0,0,0,-1,1693,1814,0,0
476,-790,0,0,0,0,0,0,0,0,0,-1,1700,1814,0,0
483,-790,0,0,0,0,0,0,0,0,0,-1,1707,1814,0,0
490,-790,0,0,0,0,0,0,0,0,0,-1,1714,1814,0,0
497,-790,0,0,0,0,0,0,0,0,0,-1,1721,1814,0,0
504,-790,0,0,0,0,0,0,0,0,0,-1,1728,1814,0,0
511,-790,0,0,0,0,0,0,0,0,0,-1,1735,1814,0,0
518,-790,0,0,0,0,0,0,0,0,0,-1,1742,1814,0,0
525,-790,0,0,0,0,0,0,0,0,0,-1,1749,1814,0,0
532,-790,0,0,0,0,0,0,0,0,0,-1,1756,1814,0,0
539,-790,0,0,0,0,0,0,0,0,0,-1,1763,1814,0,0
546,-790,0,0,0,0,0,0,0,0,0,-1,1770,1814,0,0
553,-790,0,0,0,0,0,0,0,0,0,-1,1777,1814,0,0
560,-790,0,0,0,0,0,0,0,0,0,-1,1784,1814,0,0
567,-790,0,0,0,0,0,0,0,0,0,-1,1791,1814,0,0
574,-790,0,0,0,0,0,0,0,0,0,-1,1798,1814,0,0
581,-790,0,0,0,0,0,0,0,0,0,-1,1805,1814,0,0
588,-790,0,0,0,0,0,0,0,0,0,-1,1812,1814,0,0
595,-790,0,0,0,0,0,0,0,0,0,-1,1819,1814,0,0
602,-790,0,0,0,0,0,0,0,0,0,-1,1826,1814,0,0
609,-790,0,0,0,0,0,0,0,0,0,-1,1833,1814,0,0
616,-790,0,0,0,0,0,0,0,0,0,-1,1840,1814,0,0
623,-790,0,0,0,0,0,0,0,0,0,-1,1847,1814,0,0
630,-790,0,0,0,0,0,0,0,0,0,-1,1854,1814,0,0
637,-790,0,0,0,0,0,0,0,0,0,-1,1861,1814,0,0
644,-790,0,0,0,0,0,0,0,0,0,-1,1868,1814,0,0
651,-790,0,0,0,0,0,0,0,0,0,-1,1875,1814,0,0
658,-790,0,0,0,0,0,0,0,0,0,-1,1882,1814,0,0
665,-790,0,0,0,0,0,0,0,0,0,-1,1889,1814,0,0
672,-790,0,0,0,0,0,0,0,0,0,-1,1896,1814,0,0
679,-790,0,0,0,0,0,0,0,0,0,-1,1903,1814,0,0
686,-790,0,0,0,0,0,0,0,0,0,-1,1910,1814,0,0
693,-790,0,0,0,0,0,0,0,0,0,-1,1917,1814,0,0
700,-790,0,0,0,0,0,0,0,0,0,-1,1924,1814,0,0
707,-790,0,0,0,0,0,0,0,0,0,-1,1931,1814,0,0
714,-790,0,0,0,0,0,0,0,0,0,-1,1938,1814,0,0
721,-790,0,0,0,0,0,0,0,0,0,-1,1945,1814,0,0
728,-790,0,0,0,0,0,0,0,0,0,-1,1952,1814,0,0
735,-790,0,0,0,0,0,0,0,0,0,-1,1959,1814,0,0
742,-790,0,0,0,0,0,0,0,0,0,-1,1966,1814,0,0
749,-790,0,0,0,0,0,0,0,0,0,-1,1973,1814,0,0
756,-790,0,0,0,0,0,0,0,0,0,-1,1980,1814,0,0
763,-790,0,0,0,0,0,0,0,0,0,-1,1987,1814,0,0
770,-790,0,0,0,0,0,0,0,0,0,-1,1994,1814,0,0
777,-790,0,0,0,0,0,0,0,0,0,-1,2001,1814,0,0
784,-790,0,0,0,0,0,0,0,0,0,-1,2008,1814,0,0
791,-790,0,0,0,0,0,0,0,0,0,-1,2015,1814,0,0
798,-790,0,0,0,0,0,0,0,0,0,-1,2022,1814,0,0
805,-790,0,0,0,0,0,0,0,0,0,-1,2029,1814,0,0
812,-790,0,0,0,0,0,0,0,0,0,-1,2036,1814,0,0
-700,-797,0,0,0,0,0,0,0,0,0,-1,524,1821,0,0
-693,-797,0,0,0,0,0,0,0,0,0,-1,531,1821,0,0
-686,-797,0,0,0,0,0,0,0,0,0,-1,538,1821,0,0
-679,-797,0,0,0,0,0,0,0,0,0,-1,545,1821,0,0
-672,-797,0,0,0,0,0,0,0,0,0,-1,552,1821,0,0
-665,-797,0,0,0,0,0,0,0,0,0,-1,559,1821,0,0
-658,-797,0,0,0,0,0,0,0,0,0,-1,566,1821,0,0
-651,-797,0,0,0,0,0,0,0,0,0,-1,573,1821,0,0
-644,-797,0,0,0,0,0,0,0,0,0,-1,580,1821,0,0
-637,-797,0,0,0,0,0,0,0,0,0,-1,587,1821,0,0
-630,-797,0,0,0,0,0,0,0,0,0,-1,594,1821,0,0
-623,-797,0,0,0,0,0,0,0,0,0,-1,601,1821,0,0
-616,-797,0,0,0,0,0,0,0,0,0,-1,608,1821,0,0
-609,-797,0,0,0,0,0,0,0,0,0,-1,615,1821,0,0
-602,-797,0,0,0,0,0,0,0,0,0,-1,622,1821,0,0
-595,-797,0,0,0,0,0,0,0,0,0,-1,629,1821,0,0
-588,-797,0,0,0,0,0,0,0,0,0,-1,636,1821,0,0
-581,-797,0,0,0,0,0,0,0,0,0,-1,643,1821,0,0
-574,-797,0,0,0,0,0,0,0,0,0,-1,650,1821,0,0
-567,-797,0,0,0,0,0,0,0,0,0,-1,657,1821,0,0
-560,-797,0,0,0,0,0,0,0,0,0,-1,664,1821,0,0
-553,-797,0,0,0,0,0,0,0,0,0,-1,671,1821,0,0
-546,-797,0,0,0,0,0,0,0,0,0,-1,678,1821,0,0
-539,-797,0,0,0,0,0,0,0,0,0,-1,685,1821,0,0
-532,-797,0,0,0,0,0,0,0,0,0,-1,692,1821,0,0
-525,-797,0,0,0,0,0,0,0,0,0,-1,699,1821,0,0
-518,-797,0,0,0,0,0,0,0,0,0,-1,706,1821,0,0
-511,-797,0,0,0,0,0,0,0,0,0,-1,713,1821,0,0
-504,-797,0,0,0,0,0,0,0,0,0,-1,720,1821,0,0
-497,-797,0,0,0,0,0,0,0,0,0,-1,727,1821,0,0
-490,-797,0,0,0,0,0,0,0,0,0,-1,734,1821,0,0
-483,-797,0,0,0,0,0,0,0,0,0,-1,741,1821,0,0
-476,-797,0,0,0,0,0,0,0,0,0,-1,748,1821,0,0
-469,-797,0,0,0,0,0,0,0,0,0,-1,755,1821,0,0
-462,-797,0,0,0,0,0,0,0,0,0,-1,762,1821,0,0
-455,-797,0,0,0,0,0,0,0,0,0,-1,769,1821,0,0
-448,-797,0,0,0,0,0,0,0,0,0,-1,776,1821,0,0
-441,-797,0,0,0,0,0,0,0,0,0,-1,783,1821,0,0
-434,-797,0,0,0,0,0,0,0,0,0,-1,790,1821,0,0
-427,-797,0,0,0,0,0,0,0,0,0,-1,797,1821,0,0
-420,-797,0,0,0,0,0,0,0,0,0,-1,804,1821,0,0
-413,-797,0,0,0,0,0,0,0,0,0,-1,811,1821,0,0
-406,-797,0,0,0,0,0,0,0,0,0,-1,818,1821,0,0
-399,-797,0,0,0,0,0,0,0,0,0,-1,825,1821,0,0
-392,-797,0,0,0,0,0,0,0,0,0,-1,832,1821,0,0
-385,-797,0,0,0,0,0,0,0,0,0,-1,839,1821,0,0
-378,-797,0,0,0,0,0,0,0,0,0,-1,846,1821,0,0
-371,-797,0,0,0,0,0,0,0,0,0,-1,853,1821,0,0
-364,-797,0,0,0,0,0,0,0,0,0,-1,860,1821,0,0
-357,-797,0,0,0,0,0,0,0,0,0,-1,867,1821,0,0
-350,-797,0,0,0,0,0,0,0,0,0,-1,874,1821,0,0
-343,-797,0,0,0,0,0,0,0,0,0,-1,881,1821,0,0
-336,-797,0,0,0,0,0,0,0,0,0,-1,888,1821,0,0
-329,-797,0,0,0,0,0,0,0,0,0,-1,895,1821,0,0
-322,-797,0,0,0,0,0,0,0,0,0,-1,902,1821,0,0
-315,-797,0,0,0,0,0,0,0,0,0,-1,909,1821,0,0
-308,-797,0,0,0,0,0,0,0,0,0,-1,916,1821,0,0
-301,-797,0,0,0,0,0,0,0,0,0,-1,923,1821,0,0
-294,-797,0,0,0,0,0,0,0,0,0,-1,930,1821,0,0
-287,-797,0,0,0,0,0,0,0,0,0,-1,937,1821,0,0
-280,-797,0,0,0,0,0,0,0,0,0,-1,944,1821,0,0
-273,-797,0,0,0,0,0,0,0,0,0,-1,951,1821,0,0
-266,-797,0,0,0,0,0,0,0,0,0,-1,958,1821,0,0
-259,-797,0,0,0,0,0,0,0,0,0,-1,965,1821,0,0
-252,-797,0,0,0,0,0,0,0,0,0,-1,972,1821,0,0
-245,-797,0,0,0,0,0,0,0,0,0,-1,979,1821,0,0
-238,-797,0,0,0,0,0,0,0,0,0,-1,986,1821,0,0
-231,-797,0,0,0,0,0,0,0,0,0,-1,993,1821,0,0
-224,-797,0,0,0,0,0,0,0,0,0,-1,1000,1821,0,0
-217,-797,0,0,0,0,0,0,0,0,0,-1,1007,1821,0,0
-210,-797,0,0,0,0,0,0,0,0,0,-1,1014,1821,0,0
-203,-797,0,0,0,0,0,0,0,0,0,-1,1021,1821,0,0
-196,-797,0,0,0,0,0,0,0,0,0,-1,1028,1821,0,0
-189,-797,0,0,0,0,0,0,0,0,0,-1,1035,1821,0,0
-182,-797,0,0,0,0,0,0,0,0,0,-1,1042,1821,0,0
-175,-797,0,0,0,0,0,0,0,0,0,-1,1049,1821,0,0
-168,-797,0,0,0,0,0,0,0,0,0,-1,1056,1821,0,0
-161,-797,0,0,0,0,0,0,0,0,0,-1,1063,1821,0,0
-154,-797,0,0,0,0,0,0,0,0,0,-1,1070,1821,0,0
-147,-797,0,0,0,0,0,0,0,0,0,-1,1077,1821,0,0
-140,-797,0,0,0,0,0,0,0,0,0,-1,1084,1821,0,0
-133,-797,0,0,0,0,0,0,0,0,0,-1,1091,1821,0,0
-126,-797,0,0,0,0,0,0,0,0,0,-1,1098,1821,0,0
-119,-797,0,0,0,0,0,0,0,0,0,-1,1105,1821,0,0
-112,-797,0,0,0,0,0,0,0,0,0,-1,1112,1821,0,0
-105,-797,0,0,0,0,0,0,0,0,0,-1,1119,1821,0,0
-98,-797,0,0,0,0,0,0,0,0,0,-1,1126,1821,0,0
-91,-797,0,0,0,0,0,0,0,0,0,-1,1133,1821,0,0
-84,-797,0,0,0,0,0,0,0,0,0,-1,1140,1821,0,0
-77,-797,0,0,0,0,0,0,0,0,0,-1,1147,1821,0,0
-70,-797,0,0,0,0,0,0,0,0,0,-1,1154,1821,0,0
-63,-797,0,0,0,0,0,0,0,0,0,-1,1161,1821,0,0
-56,-797,0,0,0,0,0,0,0,0,0,-1,1168,1821,0,0
-49,-797,0,0,0,0,0,0,0,0,0,-1,1175,1821,0,0
-42,-797,0.579834,0.692871,0,0,0,0,0,0,0,-1,1182,1821,0.579856,-0.692816
-35,-797,-0.185425,5.55396,0,0,0,0,0,0,0,-1,1189,1821,-0.18542,-5.55396
-28,-797,-0.310181,4.71509,0,0,0,0,0,0,0,-1,1196,1821,-0.310228,-4.71503
-21,-797,5.68127,17.2369,0,0,0,0,0,0,0,-1,1203,1821,5.68125,-17.237
-14,-797,6.03528,17.4033,0,0,0,0,0,0,0,-1,1210,1821,6.03531,-17.4033
-7,-797,5.97559,17.5814,0,0,0,0,0,0,0,-1,1217,1821,5.97558,-17.5815
0,-797,5.81763,18.0657,0.0107943,-0.0319782,0.00325178,0.0110401,-0.032224,0.0754473,0.0259574,0.0495596,1224,1821,5.81766,-18.0657
7,-797,5.74377,18.7745,0.0149009,-0.0363022,0.00801652,0.0161266,-0.037528,0.151728,0.0317883,0.0459328,1231,1821,5.74373,-18.7746
14,-797,5.99658,19.4402,0.0193154,-0.0392541,0.0132495,0.0221733,-0.042112,0.21244,0.0377055,0.0453878,1238,1821,5.99653,-19.4402
21,-797,6.3728,19.5295,0.0235001,-0.0411478,0.0190466,0.0286943,-0.046342,0.266236,0.0437198,0.0449985,1245,1821,6.37284,-19.5296
28,-797,6.87805,19.4075,0,0,0,0,0,0,0,-1,1252,1821,6.87809,-19.4074
35,-797,4.79675,18.1844,0,0,0,0,0,0,0,-1,1259,1821,4.79681,-18.1845
42,-797,3.57495,17.7949,0.0342923,-0.0454654,0.0354156,0.0477481,-0.0589212,0.363095,0.0616981,0.0460074,1266,1821,3.57491,-17.795
49,-797,3.53308,18.3844,0.0457605,-0.0450882,0.0384819,0.0598695,-0.0591973,0.351423,0.0687436,0.049583,1273,1821,3.53308,-18.3844
56,-797,3.79321,18.4901,0.0637157,-0.0418587,0.0479522,0.082244,-0.060387,0.36872,0.0826697,0.047213,1280,1821,3.79315,-18.4901
63,-797,4.22656,18.5123,0.0853851,-0.0361159,0.0545634,0.106291,-0.0570219,0.365898,0.0957085,0.0415649,1287,1821,4.22651,-18.5123
70,-797,4.69531,18.6224,0.106443,-0.0284001,0.0582923,0.128148,-0.0501058,0.356454,0.106152,0.0425572,1294,1821,4.69527,-18.6224
77,-797,5.16821,18.7108,0.130248,-0.0222128,0.0594546,0.150692,-0.0426566,0.331192,0.117295,0.0450425,1301,1821,5.16823,-18.7108
84,-797,5.66943,18.7769,0,0,0,0,0,0,0,-1,1308,1821,5.66946,-18.7769
91,-797,-0.727661,16.5219,0,0,0,0,0,0,0,-1,1315,1821,-0.72771,-16.5219
98,-797,0.673218,17.085,0,0,0,0,0,0,0,-1,1322,1821,0.673181,-17.0849
105,-797,2.01025,17.6809,0,0,0,0,0,0,0,-1,1329,1821,2.01025,-17.6809
112,-797,3.43726,18.2006,0.260351,0.0187179,0.0459573,0.268797,0.0102722,0.181743,0.175874,0.0434337,1336,1821,3.43721,-18.2005
119,-797,5.06213,18.7119,0.27113,0.0222568,0.0357795,0.276172,0.0172151,0.13999,0.178653,0.043144,1343,1821,5.06216,-18.7119
126,-797,6.37488,19.1973,0.267133,0.0211844,0.0211907,0.268946,0.019372,0.0853211,0.173201,0.045963,1350,1821,6.37483,-19.1972
133,-797,7.26404,18.8511,0,0,0,0,0,0,0,-1,1357,1821,7.26405,-18.8511
140,-797,16.1001,15.882,0,0,0,0,0,0,0,-1,1364,1821,16.1001,-15.882
147,-797,5.44116,15.9459,0,0,0,0,0,0,0,-1,1371,1821,5.44118,-15.9459
154,-797,14.49,10.5256,0,0,0,0,0,0,0,-1,1378,1821,14.49,-10.5256
161,-797,6.79199,1.12952,0,0,0,0,0,0,0,-1,1385,1821,6.79203,-1.12957
168,-797,0,0,0,0,0,0,0,0,0,-1,1392,1821,0,0
175,-797,0,0,0,0,0,0,0,0,0,-1,1399,1821,0,0
182,-797,0,0,0,0,0,0,0,0,0,-1,1406,1821,0,0
189,-797,0,0,0,0,0,0,0,0,0,-1,1413,1821,0,0
196,-797,0,0,0,0,0,0,0,0,0,-1,1420,1821,0,0
203,-797,0,0,0,0,0,0,0,0,0,-1,1427,1821,0,0
210,-797,0,0,0,0,0,0,0,0,0,-1,1434,1821,0,0
217,-797,0,0,0,0,0,0,0,0,0,-1,1441,1821,0,0
224,-797,0,0,0,0,0,0,0,0,0,-1,1448,1821,0,0
231,-797,0,0,0,0,0,0,0,0,0,-1,1455,1821,0,0
238,-797,0,0,0,0,0,0,0,0,0,-1,1462,1821,0,0
245,-797,0,0,0,0,0,0,0,0,0,-1,1469,1821,0,0
252,-797,0,0,0,0,0,0,0,0,0,-1,1476,1821,0,0
259,-797,0,0,0,0,0,0,0,0,0,-1,1483,1821,0,0
266,-797,0,0,0,0,0,0,0,0,0,-1,1490,1821,0,0
273,-797,0,0,0,0,0,0,0,0,0,-1,1497,1821,0,0
280,-797,0,0,0,0,0,0,0,0,0,-1,1504,1821,0,0
287,-797,0,0,0,0,0,0,0,0,0,-1,1511,1821,0,0
294,-797,0,0,0,0,0,0,0,0,0,-1,1518,1821,0,0
301,-797,0,0,0,0,0,0,0,0,0,-1,1525,1821,0,0
308,-797,0,0,0,0,0,0,0,0,0,-1,1532,1821,0,0
315,-797,0,0,0,0,0,0,0,0,0,-1,1539,1821,0,0
322,-797,0,0,0,0,0,0,0,0,0,-1,1546,1821,0,0
329,-797,0,0,0,0,0,0,0,0,0,-1,1553,1821,0,0
336,-797,0,0,0,0,0,0,0,0,0,-1,1560,1821,0,0
343,-797,0,0,0,0,0,0,0,0,0,-1,1567,1821,0,0
350,-797,0,0,0,0,0,0,0,0,0,-1,1574,1821,0,0
357,-797,0,0,0,0,0,0,0,0,0,-1,1581,1821,0,0
364,-797,0,0,0,0,0,0,0,0,0,-1,1588,1821,0,0
371,-797,0,0,0,0,0,0,0,0,0,-1,1595,1821,0,0
378,-797,0,0,0,0,0,0,0,0,0,-1,1602,1821,0,0
385,-797,0,0,0,0,0,0,0,0,0,-1,1609,1821,0,0
392,-797,0,0,0,0,0,0,0,0,0,-1,1616,1821,0,0
399,-797,0,0,0,0,0,0,0,0,0,-1,1623,1821,0,0
406,-797,0,0,0,0,0,0,0,0,0,-1,1630,1821,0,0
413,-797,0,0,0,0,0,0,0,0,0,-1,1637,1821,0,0
420,-797,0,0,0,0,0,0,0,0,0,-1,1644,1821,0,0
427,-797,0,0,0,0,0,0,0,0,0,-1,1651,1821,0,0
434,-797,0,0,0,0,0,0,0,0,0,-1,1658,1821,0,0
441,-797,0,0,0,0,0,0,0,0,0,-1,1665,1821,0,0
448,-797,0,0,0,0,0,0,0,0,0,-1,1672,1821,0,0
455,-797,0,0,0,0,0,0,0,0,0,-1,1679,1821,0,0
462,-797,0,0,0,0,0,0,0,0,0,-1,1686,1821,0,0
469,-797,0,0,0,0,0,0,0,0,0,-1,1693,1821,0,0
476,-797,0,0,0,0,0,0,0,0,0,-1,1700,1821,0,0
483,-797,0,0,0,0,0,0,0,0,0,-1,1707,1821,0,0
490,-797,0,0,0,0,0,0,0,0,0,-1,1714,1821,0,0
497,-797,0,0,0,0,0,0,0,0,0,-1,1721,1821,0,0
504,-797,0,0,0,0,0,0,0,0,0,-1,1728,1821,0,0
511,-797,0,0,0,0,0,0,0,0,0,-1,1735,1821,0,0
518,-797,0,0,0,0,0,0,0,0,0,-1,1742,1821,0,0
525,-797,0,0,0,0,0,0,0,0,0,-1,1749,1821,0,0
532,-797,0,0,0,0,0,0,0,0,0,-1,1756,1821,0,0
539,-797,0,0,0,0,0,0,0,0,0,-1,1763,1821,0,0
546,-797,0,0,0,0,0,0,0,0,0,-1,1770,1821,0,0
553,-797,0,0,0,0,0,0,0,0,0,-1,1777,1821,0,0
560,-797,0,0,0,0,0,0,0,0,0,-1,1784,1821,0,0
567,-797,0,0,0,0,0,0,0,0,0,-1,1791,1821,0,0
574,-797,0,0,0,0,0,0,0,0,0,-1,1798,1821,0,0
581,-797,0,0,0,0,0,0,0,0,0,-1,1805,1821,0,0
588,-797,0,0,0,0,0,0,0,0,0,-1,1812,1821,0,0
595,-797,0,0,0,0,0,0,0,0,0,-1,1819,1821,0,0
602,-797,0,0,0,0,0,0,0,0,0,-1,1826,1821,0,0
609,-797,0,0,0,0,0,0,0,0,0,-1,1833,1821,0,0
616,-797,0,0,0,0,0,0,0,0,0,-1,1840,1821,0,0
623,-797,0,0,0,0,0,0,0,0,0,-1,1847,1821,0,0
630,-797,0,0,0,0,0,0,0,0,0,-1,1854,1821,0,0
637,-797,0,0,0,0,0,0,0,0,0,-1,1861,1821,0,0
644,-797,0,0,0,0,0,0,0,0,0,-1,1868,1821,0,0
651,-797,0,0,0,0,0,0,0,0,0,-1,1875,1821,0,0
658,-797,0,0,0,0,0,0,0,0,0,-1,1882,1821,0,0
665,-797,0,0,0,0,0,0,0,0,0,-1,1889,1821,0,0
672,-797,0,0,0,0,0,0,0,0,0,-1,1896,1821,0,0
679,-797,0,0,0,0,0,0,0,0,0,-1,1903,1821,0,0
686,-797,0,0,0,0,0,0,0,0,0,-1,1910,1821,0,0
693,-797,0,0,0,0,0,0,0,0,0,-1,1917,1821,0,0
700,-797,0,0,0,0,0,0,0,0,0,-1,1924,1821,0,0
707,-797,0,0,0,0,0,0,0,0,0,-1,1931,1821,0,0
714,-797,0,0,0,0,0,0,0,0,0,-1,1938,1821,0,0
721,-797,0,0,0,0,0,0,0,0,0,-1,1945,1821,0,0
728,-797,0,0,0,0,0,0,0,0,0,-1,1952,1821,0,0
735,-797,0,0,0,0,0,0,0,0,0,-1,1959,1821,0,0
742,-797,0,0,0,0,0,0,0,0,0,-1,1966,1821,0,0
749,-797,0,0,0,0,0,0,0,0,0,-1,1973,1821,0,0
756,-797,0,0,0,0,0,0,0,0,0,-1,1980,1821,0,0
763,-797,0,0,0,0,0,0,0,0,0,-1,1987,1821,0,0
770,-797,0,0,0,0,0,0,0,0,0,-1,1994,1821,0,0
777,-797,0,0,0,0,0,0,0,0,0,-1,2001,1821,0,0
784,-797,0,0,0,0,0,0,0,0,0,-1,2008,1821,0,0
791,-797,0,0,0,0,0,0,0,0,0,-1,2015,1821,0,0
798,-797,0,0,0,0,0,0,0,0,0,-1,2022,1821,0,0
805,-797,0,0,0,0,0,0,0,0,0,-1,2029,1821,0,0
812,-797,0,0,0,0,0,0,0,0,0,-1,2036,1821,0,0
-700,-804,0,0,0,0,0,0,0,0,0,-1,524,1828,0,0
-693,-804,0,0,0,0,0,0,0,0,0,-1,531,1828,0,0
-686,-804,0,0,0,0,0,0,0,0,0,-1,538,1828,0,0
-679,-804,0,0,0,0,0,0,0,0,0,-1,545,1828,0,0
-672,-804,0,0,0,0,0,0,0,0,0,-1,552,1828,0,0
-665,-804,0,0,0,0,0,0,0,0,0,-1,559,1828,0,0
-658,-804,0,0,0,0,0,0,0,0,0,-1,566,1828,0,0
-651,-804,0,0,0,0,0,0,0,0,0,-1,573,1828,0,0
-644,-804,0,0,0,0,0,0,0,0,0,-1,580,1828,0,0
-637,-804,0,0,0,0,0,0,0,0,0,-1,587,1828,0,0
-630,-804,0,0,0,0,0,0,0,0,0,-1,594,1828,0,0
-623,-804,0,0,0,0,0,0,0,0,0,-1,601,1828,0,0
-616,-804,0,0,0,0,0,0,0,0,0,-1,608,1828,0,0
-609,-804,0,0,0,0,0,0,0,0,0,-1,615,1828,0,0
-602,-804,0,0,0,0,0,0,0,0,0,-1,622,1828,0,0
-595,-804,0,0,0,0,0,0,0,0,0,-1,629,1828,0,0
-588,-804,0,0,0,0,0,0,0,0,0,-1,636,1828,0,0
-581,-804,0,0,0,0,0,0,0,0,0,-1,643,1828,0,0
-574,-804,0,0,0,0,0,0,0,0,0,-1,650,1828,0,0
-567,-804,0,0,0,0,0,0,0,0,0,-1,657,1828,0,0
-560,-804,0,0,0,0,0,0,0,0,0,-1,664,1828,0,0
-553,-804,0,0,0,0,0,0,0,0,0,-1,671,1828,0,0
-546,-804,0,0,0,0,0,0,0,0,0,-1,678,1828,0,0
-539,-804,0,0,0,0,0,0,0,0,0,-1,685,1828,0,0
-532,-804,0,0,0,0,0,0,0,0,0,-1,692,1828,0,0
-525,-804,0,0,0,0,0,0,0,0,0,-1,699,1828,0,0
-518,-804,0,0,0,0,0,0,0,0,0,-1,706,1828,0,0
-511,-804,0,0,0,0,0,0,0,0,0,-1,713,1828,0,0
-504,-804,0,0,0,0,0,0,0,0,0,-1,720,1828,0,0
-497,-804,0,0,0,0,0,0,0,0,0,-1,727,1828,0,0
-490,-804,0,0,0,0,0,0,0,0,0,-1,734,1828,0,0
-483,-804,0,0,0,0,0,0,0,0,0,-1,741,1828,0,0
-476,-804,0,0,0,0,0,0,0,0,0,-1,748,1828,0,0
-469,-804,0,0,0,0,0,0,0,0,0,-1,755,1828,0,0
-462,-804,0,0,0,0,0,0,0,0,0,-1,762,1828,0,0
-455,-804,0,0,0,0,0,0,0,0,0,-1,769,1828,0,0
-448,-804,0,0,0,0,0,0,0,0,0,-1,776,1828,0,0
-441,-804,0,0,0,0,0,0,0,0,0,-1,783,1828,0,0
-434,-804,0,0,0,0,0,0,0,0,0,-1,790,1828,0,0
-427,-804,0,0,0,0,0,0,0,0,0,-1,797,1828,0,0
-420,-804,0,0,0,0,0,0,0,0,0,-1,804,1828,0,0
-413,-804,0,0,0,0,0,0,0,0,0,-1,811,1828,0,0
-406,-804,0,0,0,0,0,0,0,0,0,-1,818,1828,0,0
-399,-804,0,0,0,0,0,0,0,0,0,-1,825,1828,0,0
-392,-804,0,0,0,0,0,0,0,0,0,-1,832,1828,0,0
-385,-804,0,0,0,0,0,0,0,0,0,-1,839,1828,0,0
-378,-804,0,0,0,0,0,0,0,0,0,-1,846,1828,0,0
-371,-804,0,0,0,0,0,0,0,0,0,-1,853,1828,0,0
-364,-804,0,0,0,0,0,0,0,0,0,-1,860,1828,0,0
-357,-804,0,0,0,0,0,0,0,0,0,-1,867,1828,0,0
-350,-804,0,0,0,0,0,0,0,0,0,-1,874,1828,0,0
-343,-804,0,0,0,0,0,0,0,0,0,-1,881,1828,0,0
-336,-804,0,0,0,0,0,0,0,0,0,-1,888,1828,0,0
-329,-804,0,0,0,0,0,0,0,0,0,-1,895,1828,0,0
-322,-804,0,0,0,0,0,0,0,0,0,-1,902,1828,0,0
-315,-804,0,0,0,0,0,0,0,0,0,-1,909,1828,0,0
-308,-804,0,0,0,0,0,0,0,0,0,-1,916,1828,0,0
-301,-804,0,0,0,0,0,0,0,0,0,-1,923,1828,0,0
-294,-804,0,0,0,0,0,0,0,0,0,-1,930,1828,0,0
-287,-804,0,0,0,0,0,0,0,0,0,-1,937,1828,0,0
-280,-804,0,0,0,0,0,0,0,0,0,-1,944,1828,0,0
-273,-804,0,0,0,0,0,0,0,0,0,-1,951,1828,0,0
-266,-804,0,0,0,0,0,0,0,0,0,-1,958,1828,0,0
-259,-804,0,0,0,0,0,0,0,0,0,-1,965,1828,0,0
-252,-804,0,0,0,0,0,0,0,0,0,-1,972,1828,0,0
-245,-804,0,0,0,0,0,0,0,0,0,-1,979,1828,0,0
-238,-804,0,0,0,0,0,0,0,0,0,-1,986,1828,0,0
-231,-804,0,0,0,0,0,0,0,0,0,-1,993,1828,0,0
-224,-804,0,0,0,0,0,0,0,0,0,-1,1000,1828,0,0
-217,-804,0,0,0,0,0,0,0,0,0,-1,1007,1828,0,0
-210,-804,0,0,0,0,0,0,0,0,0,-1,1014,1828,0,0
-203,-804,0,0,0,0,0,0,0,0,0,-1,1021,1828,0,0
-196,-804,0,0,0,0,0,0,0,0,0,-1,1028,1828,0,0
-189,-804,0,0,0,0,0,0,0,0,0,-1,1035,1828,0,0
-182,-804,0,0,0,0,0,0,0,0,0,-1,1042,1828,0,0
-175,-804,0,0,0,0,0,0,0,0,0,-1,1049,1828,0,0
-168,-804,0,0,0,0,0,0,0,0,0,-1,1056,1828,0,0
-161,-804,0,0,0,0,0,0,0,0,0,-1,1063,1828,0,0
-154,-804,0,0,0,0,0,0,0,0,0,-1,1070,1828,0,0
-147,-804,0,0,0,0,0,0,0,0,0,-1,1077,1828,0,0
-140,-804,0,0,0,0,0,0,0,0,0,-1,1084,1828,0,0
-133,-804,0,0,0,0,0,0,0,0,0,-1,1091,1828,0,0
-126,-804,0,0,0,0,0,0,0,0,0,-1,1098,1828,0,0
-119,-804,0,0,0,0,0,0,0,0,0,-1,1105,1828,0,0
-112,-804,0,0,0,0,0,0,0,0,0,-1,1112,1828,0,0
-105,-804,0,0,0,0,0,0,0,0,0,-1,1119,1828,0,0
-98,-804,0,0,0,0,0,0,0,0,0,-1,1126,1828,0,0
-91,-804,0,0,0,0,0,0,0,0,0,-1,1133,1828,0,0
-84,-804,0,0,0,0,0,0,0,0,0,-1,1140,1828,0,0
-77,-804,0,0,0,0,0,0,0,0,0,-1,1147,1828,0,0
-70,-804,0,0,0,0,0,0,0,0,0,-1,1154,1828,0,0
-63,-804,0,0,0,0,0,0,0,0,0,-1,1161,1828,0,0
-56,-804,0,0,0,0,0,0,0,0,0,-1,1168,1828,0,0
-49,-804,0,0,0,0,0,0,0,0,0,-1,1175,1828,0,0
-42,-804,0,0,0,0,0,0,0,0,0,-1,1182,1828,0,0
-35,-804,0,0,0,0,0,0,0,0,0,-1,1189,1828,0,0
-28,-804,0,0,0,0,0,0,0,0,0,-1,1196,1828,0,0
-21,-804,0,0,0,0,0,0,0,0,0,-1,1203,1828,0,0
-14,-804,0,0,0,0,0,0,0,0,0,-1,1210,1828,0,0
-7,-804,0,0,0,0,0,0,0,0,0,-1,1217,1828,0,0
0,-804,0,0,0,0,0,0,0,0,0,-1,1224,1828,0,0
7,-804,0,0,0,0,0,0,0,0,0,-1,1231,1828,0,0
14,-804,0,0,0,0,0,0,0,0,0,-1,1238,1828,0,0
21,-804,0,0,0,0,0,0,0,0,0,-1,1245,1828,0,0
28,-804,0,0,0,0,0,0,0,0,0,-1,1252,1828,0,0
35,-804,3.68726,18.2573,0,0,0,0,0,0,0,-1,1259,1828,3.6873,-18.2573
42,-804,3.17004,18.3306,0.0396405,-0.0588299,0.0456356,0.0575374,-0.0767268,0.373737,0.0777809,0.0469598,1266,1828,3.1701,-18.3306
49,-804,3.04626,19.0148,0.0474354,-0.0583063,0.0503292,0.0675602,-0.0784311,0.380388,0.0843659,0.0470222,1273,1828,3.04626,-19.0147
56,-804,3.18567,19.0734,0.0635963,-0.0554704,0.0595898,0.0882957,-0.0801698,0.392936,0.0973013,0.0468496,1280,1828,3.18563,-19.0733
63,-804,3.53137,18.8296,0.0867651,-0.0488391,0.066917,0.114226,-0.0762998,0.389414,0.110724,0.0464205,1287,1828,3.53141,-18.8296
70,-804,3.96277,18.9135,0.110132,-0.0398353,0.0705386,0.138096,-0.0677994,0.377432,0.121161,0.0476262,1294,1828,3.96281,-18.9134
77,-804,4.33813,19.1461,0.135303,-0.0327794,0.0706261,0.161039,-0.0585151,0.34944,0.131285,0.0471013,1301,1828,4.3381,-19.1461
84,-804,4.89417,19.3739,0,0,0,0,0,0,0,-1,1308,1828,4.89413,-19.3739
91,-804,0,0,0,0,0,0,0,0,0,-1,1315,1828,0,0
98,-804,0,0,0,0,0,0,0,0,0,-1,1322,1828,0,0
105,-804,0,0,0,0,0,0,0,0,0,-1,1329,1828,0,0
112,-804,0,0,0,0,0,0,0,0,0,-1,1336,1828,0,0
119,-804,0,0,0,0,0,0,0,0,0,-1,1343,1828,0,0
126,-804,0,0,0,0,0,0,0,0,0,-1,1350,1828,0,0
133,-804,0,0,0,0,0,0,0,0,0,-1,1357,1828,0,0
140,-804,0,0,0,0,0,0,0,0,0,-1,1364,1828,0,0
147,-804,0,0,0,0,0,0,0,0,0,-1,1371,1828,0,0
154,-804,0,0,0,0,0,0,0,0,0,-1,1378,1828,0,0
161,-804,0,0,0,0,0,0,0,0,0,-1,1385,1828,0,0
168,-804,0,0,0,0,0,0,0,0,0,-1,1392,1828,0,0
175,-804,0,0,0,0,0,0,0,0,0,-1,1399,1828,0,0
182,-804,0,0,0,0,0,0,0,0,0,-1,1406,1828,0,0
189,-804,0,0,0,0,0,0,0,0,0,-1,1413,1828,0,0
196,-804,0,0,0,0,0,0,0,0,0,-1,1420,1828,0,0
203,-804,0,0,0,0,0,0,0,0,0,-1,1427,1828,0,0
210,-804,0,0,0,0,0,0,0,0,0,-1,1434,1828,0,0
217,-804,0,0,0,0,0,0,0,0,0,-1,1441,1828,0,0
224,-804,0,0,0,0,0,0,0,0,0,-1,1448,1828,0,0
231,-804,0,0,0,0,0,0,0,0,0,-1,1455,1828,0,0
238,-804,0,0,0,0,0,0,0,0,0,-1,1462,1828,0,0
245,-804,0,0,0,0,0,0,0,0,0,-1,1469,1828,0,0
252,-804,0,0,0,0,0,0,0,0,0,-1,1476,1828,0,0
259,-804,0,0,0,0,0,0,0,0,0,-1,1483,1828,0,0
266,-804,0,0,0,0,0,0,0,0,0,-1,1490,1828,0,0
273,-804,0,0,0,0,0,0,0,0,0,-1,1497,1828,0,0
280,-804,0,0,0,0,0,0,0,0,0,-1,1504,1828,0,0
287,-804,0,0,0,0,0,0,0,0,0,-1,1511,1828,0,0
294,-804,0,0,0,0,0,0,0,0,0,-1,1518,1828,0,0
301,-804,0,0,0,0,0,0,0,0,0,-1,1525,1828,0,0
308,-804,0,0,0,0,0,0,0,0,0,-1,1532,1828,0,0
315,-804,0,0,0,0,0,0,0,0,0,-1,1539,1828,0,0
322,-804,0,0,0,0,0,0,0,0,0,-1,1546,1828,0,0
329,-804,0,0,0,0,0,0,0,0,0,-1,1553,1828,0,0
336,-804,0,0,0,0,0,0,0,0,0,-1,1560,1828,0,0
343,-804,0,0,0,0,0,0,0,0,0,-1,1567,1828,0,0
350,-804,0,0,0,0,0,0,0,0,0,-1,1574,1828,0,0
357,-804,0,0,0,0,0,0,0,0,0,-1,1581,1828,0,0
364,-804,0,0,0,0,0,0,0,0,0,-1,1588,1828,0,0
371,-804,0,0,0,0,0,0,0,0,0,-1,1595,1828,0,0
378,-804,0,0,0,0,0,0,0,0,0,-1,1602,1828,0,0
385,-804,0,0,0,0,0,0,0,0,0,-1,1609,1828,0,0
392,-804,0,0,0,0,0,0,0,0,0,-1,1616,1828,0,0
399,-804,0,0,0,0,0,0,0,0,0,-1,1623,1828,0,0
406,-804,0,0,0,0,0,0,0,0,0,-1,1630,1828,0,0
413,-804,0,0,0,0,0,0,0,0,0,-1,1637,1828,0,0
420,-804,0,0,0,0,0,0,0,0,0,-1,1644,1828,0,0
427,-804,0,0,0,0,0,0,0,0,0,-1,1651,1828,0,0
434,-804,0,0,0,0,0,0,0,0,0,-1,1658,1828,0,0
441,-804,0,0,0,0,0,0,0,0,0,-1,1665,1828,0,0
448,-804,0,0,0,0,0,0,0,0,0,-1,1672,1828,0,0
455,-804,0,0,0,0,0,0,0,0,0,-1,1679,1828,0,0
462,-804,0,0,0,0,0,0,0,0,0,-1,1686,1828,0,0
469,-804,0,0,0,0,0,0,0,0,0,-1,1693,1828,0,0
476,-804,0,0,0,0,0,0,0,0,0,-1,1700,1828,0,0
483,-804,0,0,0,0,0,0,0,0,0,-1,1707,1828,0,0
490,-804,0,0,0,0,0,0,0,0,0,-1,1714,1828,0,0
497,-804,0,0,0,0,0,0,0,0,0,-1,1721,1828,0,0
504,-804,0,0,0,0,0,0,0,0,0,-1,1728,1828,0,0
511,-804,0,0,0,0,0,0,0,0,0,-1,1735,1828,0,0
518,-804,0,0,0,0,0,0,0,0,0,-1,1742,1828,0,0
525,-804,0,0,0,0,0,0,0,0,0,-1,1749,1828,0,0
532,-804,0,0,0,0,0,0,0,0,0,-1,1756,1828,0,0
539,-804,0,0,0,0,0,0,0,0,0,-1,1763,1828,0,0
546,-804,0,0,0,0,0,0,0,0,0,-1,1770,1828,0,0
553,-804,0,0,0,0,0,0,0,0,0,-1,1777,1828,0,0
560,-804,0,0,0,0,0,0,0,0,0,-1,1784,1828,0,0
567,-804,0,0,0,0,0,0,0,0,0,-1,1791,1828,0,0
574,-804,0,0,0,0,0,0,0,0,0,-1,1798,1828,0,0
581,-804,0,0,0,0,0,0,0,0,0,-1,1805,1828,0,0
588,-804,0,0,0,0,0,0,0,0,0,-1,1812,1828,0,0
595,-804,0,0,0,0,0,0,0,0,0,-1,1819,1828,0,0
602,-804,0,0,0,0,0,0,0,0,0,-1,1826,1828,0,0
609,-804,0,0,0,0,0,0,0,0,0,-1,1833,1828,0,0
616,-804,0,0,0,0,0,0,0,0,0,-1,1840,1828,0,0
623,-804,0,0,0,0,0,0,0,0,0,-1,1847,1828,0,0
630,-804,0,0,0,0,0,0,0,0,0,-1,1854,1828,0,0
637,-804,0,0,0,0,0,0,0,0,0,-1,1861,1828,0,0
644,-804,0,0,0,0,0,0,0,0,0,-1,1868,1828,0,0
651,-804,0,0,0,0,0,0,0,0,0,-1,1875,1828,0,0
658,-804,0,0,0,0,0,0,0,0,0,-1,1882,1828,0,0
665,-804,0,0,0,0,0,0,0,0,0,-1,1889,1828,0,0
672,-804,0,0,0,0,0,0,0,0,0,-1,1896,1828,0,0
679,-804,0,0,0,0,0,0,0,0,0,-1,1903,1828,0,0
686,-804,0,0,0,0,0,0,0,0,0,-1,1910,1828,0,0
693,-804,0,0,0,0,0,0,0,0,0,-1,1917,1828,0,0
700,-804,0,0,0,0,0,0,0,0,0,-1,1924,1828,0,0
707,-804,0,0,0,0,0,0,0,0,0,-1,1931,1828,0,0
714,-804,0,0,0,0,0,0,0,0,0,-1,1938,1828,0,0
721,-804,0,0,0,0,0,0,0,0,0,-1,1945,1828,0,0
728,-804,0,0,0,0,0,0,0,0,0,-1,1952,1828,0,0
735,-804,0,0,0,0,0,0,0,0,0,-1,1959,1828,0,0
742,-804,0,0,0,0,0,0,0,0,0,-1,1966,1828,0,0
749,-804,0,0,0,0,0,0,0,0,0,-1,1973,1828,0,0
756,-804,0,0,0,0,0,0,0,0,0,-1,1980,1828,0,0
763,-804,0,0,0,0,0,0,0,0,0,-1,1987,1828,0,0
770,-804,0,0,0,0,0,0,0,0,0,-1,1994,1828,0,0
777,-804,0,0,0,0,0,0,0,0,0,-1,2001,1828,0,0
784,-804,0,0,0,0,0,0,0,0,0,-1,2008,1828,0,0
791,-804,0,0,0,0,0,0,0,0,0,-1,2015,1828,0,0
798,-804,0,0,0,0,0,0,0,0,0,-1,2022,1828,0,0
805,-804,0,0,0,0,0,0,0,0,0,-1,2029,1828,0,0
812,-804,0,0,0,0,0,0,0,0,0,-1,2036,1828,0,0

